
#######################################################################
#
#                 Cambridge Crystallographic Data Centre
#                                CCDC
#
#######################################################################
#
# If this CIF has been generated from an entry in the Cambridge
# Structural Database, then it will include bibliographic, chemical,
# crystal, experimental, refinement or atomic coordinate data resulting
# from the CCDC's data processing and validation procedures.
#
#######################################################################

data_CSD_CIF_ACALDA
_audit_creation_date 1971-12-31
_audit_creation_method CSD-ConQuest-V1
_database_code_CSD ACALDA
_database_code_depnum_ccdc_archive 'CCDC 1100398'
_chemical_formula_sum 'C6 H21 N3 O3'
_chemical_formula_moiety
;
C6 H15 N3,3(H2 O1)
;
_journal_coden_Cambridge 3
_journal_volume 12
_journal_year 1958
_journal_page_first 1768
_journal_name_full 'Acta Chem.Scand. '
loop_
_publ_author_name
"Einar Wang Lund"
"J.Johnsen"
"O.Tvedten"
"T.Linderot"
"S.Veige"
"E.Diczfalusy"
_chemical_name_systematic
;
Acetaldehyde-ammonia trihydrate
;
_chemical_name_common
;
2,4,6-Trimethyl-hexahydro-1,3,5-triazine trihydrate; Teaching Subset: Symmetry
;
_cell_volume   1751.844
_exptl_crystal_density_diffrn 1.042
_exptl_special_details
;
room-temperature polymorph

;
_diffrn_ambient_temperature ?
_diffrn_special_details
;
The study was carried out at room temperature,in the range 283-303K

;
_refine_special_details
;
Large void space, possible disorder.

;
#These two values have been output from a single CSD field.
_refine_ls_R_factor_gt 0.16
_refine_ls_wR_factor_gt 0.16
_symmetry_cell_setting rhombohedral
_symmetry_space_group_name_H-M 'R -3 m'
_symmetry_Int_Tables_number 166
loop_
_symmetry_equiv_pos_site_id
_symmetry_equiv_pos_as_xyz
1 x,y,z
2 1/3+x,2/3+y,2/3+z
3 2/3+x,1/3+y,1/3+z
4 -y,x-y,z
5 -x+y,-x,z
6 1/3-y,2/3+x-y,2/3+z
7 1/3-x+y,2/3-x,2/3+z
8 2/3-y,1/3+x-y,1/3+z
9 2/3-x+y,1/3-x,1/3+z
10 y,x,-z
11 2/3+y,1/3+x,1/3-z
12 1/3+y,2/3+x,2/3-z
13 x-y,-y,-z
14 -x,-x+y,-z
15 2/3+x-y,1/3-y,1/3-z
16 2/3-x,1/3-x+y,1/3-z
17 1/3+x-y,2/3-y,2/3-z
18 1/3-x,2/3-x+y,2/3-z
19 -x,-y,-z
20 -1/3-x,-2/3-y,-2/3-z
21 -2/3-x,-1/3-y,-1/3-z
22 y,-x+y,-z
23 x-y,x,-z
24 -1/3+y,-2/3-x+y,-2/3-z
25 -1/3+x-y,-2/3+x,-2/3-z
26 -2/3+y,-1/3-x+y,-1/3-z
27 -2/3+x-y,-1/3+x,-1/3-z
28 -y,-x,z
29 -2/3-y,-1/3-x,-1/3+z
30 -1/3-y,-2/3-x,-2/3+z
31 -x+y,y,z
32 x,x-y,z
33 -2/3-x+y,-1/3+y,-1/3+z
34 -2/3+x,-1/3+x-y,-1/3+z
35 -1/3-x+y,-2/3+y,-2/3+z
36 -1/3+x,-2/3+x-y,-2/3+z
_cell_length_a 11.29
_cell_length_b 11.29
_cell_length_c 15.87
_cell_angle_alpha 90
_cell_angle_beta 90
_cell_angle_gamma 120
_cell_formula_units_Z 6
loop_
_atom_type_symbol
_atom_type_radius_bond
C 0.68
N 0.68
O 0.68
loop_
_atom_site_label
_atom_site_type_symbol
_atom_site_fract_x
_atom_site_fract_y
_atom_site_fract_z
C1 C 0.07100 -0.07100 0.25000
C2 C 0.14500 -0.14500 0.28100
N1 N -0.07300 -0.14600 0.27700
O1 O -0.12800 0.12800 0.46700
N1C N 0.14600 0.07300 0.27700
C1D C -0.14200 -0.07100 0.25000
C1C C 0.07100 0.14200 0.25000
C2D C -0.29000 -0.14500 0.28100
N1D N -0.07300 0.07300 0.27700
C2C C 0.14500 0.29000 0.28100
#END
