####################################################################### 
# 
# This file contains crystal structure data downloaded from the 
# Cambridge Structural Database (CSD) hosted by the Cambridge 
# Crystallographic Data Centre (CCDC).
# 
# Full information about CCDC data access policies and citation 
# guidelines are available at http://www.ccdc.cam.ac.uk/access/V1 
# 
# Audit and citation data items may have been added by the CCDC. 
# Please retain this information to preserve the provenance of 
# this file and to allow appropriate attribution of the data. 
# 
#######################################################################

data_abs-122815co_JGHX_4669
_audit_block_doi                 10.5517/ccvsmks
_database_code_depnum_ccdc_archive 'CCDC 798236'
_audit_update_record             
;
2010-10-25 deposited with the CCDC.	2024-07-06 downloaded from the CCDC.
;
#TrackingRef '2010-0432(798236).cif'


_audit_creation_method           SHELXL-97
_chemical_name_systematic        
;
?
;
_chemical_name_common            ?
_chemical_melting_point          ?
_chemical_formula_moiety         ?
_chemical_formula_sum            'C40 H42 Co3 N10 O15'
_chemical_formula_weight         1079.63

loop_
_atom_type_symbol
_atom_type_description
_atom_type_scat_dispersion_real
_atom_type_scat_dispersion_imag
_atom_type_scat_source
C C 0.0181 0.0091 'International Tables Vol C Tables 4.2.6.8 and 6.1.1.4'
H H 0.0000 0.0000 'International Tables Vol C Tables 4.2.6.8 and 6.1.1.4'
N N 0.0311 0.0180 'International Tables Vol C Tables 4.2.6.8 and 6.1.1.4'
O O 0.0492 0.0322 'International Tables Vol C Tables 4.2.6.8 and 6.1.1.4'
Co Co -2.3653 3.6143 'International Tables Vol C Tables 4.2.6.8 and 6.1.1.4'

_symmetry_cell_setting           Orthorhombic
_symmetry_space_group_name_H-M   Pccn

loop_
_symmetry_equiv_pos_as_xyz
'x, y, z'
'-x+1/2, -y+1/2, z'
'-x, y+1/2, -z+1/2'
'x+1/2, -y, -z+1/2'
'-x, -y, -z'
'x-1/2, y-1/2, -z'
'x, -y-1/2, z-1/2'
'-x-1/2, y, z-1/2'

_cell_length_a                   11.1040(3)
_cell_length_b                   19.8834(5)
_cell_length_c                   21.3025(5)
_cell_angle_alpha                90.00
_cell_angle_beta                 90.00
_cell_angle_gamma                90.00
_cell_volume                     4703.3(2)
_cell_formula_units_Z            4
_cell_measurement_temperature    163(2)
_cell_measurement_reflns_used    2611
_cell_measurement_theta_min      2.75
_cell_measurement_theta_max      61.82

_exptl_crystal_description       block
_exptl_crystal_colour            pink
_exptl_crystal_size_max          0.06
_exptl_crystal_size_mid          0.06
_exptl_crystal_size_min          0.04
_exptl_crystal_density_meas      ?
_exptl_crystal_density_diffrn    1.525
_exptl_crystal_density_method    'not measured'
_exptl_crystal_F_000             2212
_exptl_absorpt_coefficient_mu    8.855
_exptl_absorpt_correction_type   multi-scan
_exptl_absorpt_correction_T_min  0.6186
_exptl_absorpt_correction_T_max  0.7184
_exptl_absorpt_process_details   
;
CrysAlis RED, Oxford Diffraction Ltd.,
Version 1.171.31.7 (release 18-10-2006 CrysAlis171 .NET)
(compiled Oct 18 2006,16:28:17)
Empirical absorption correction using spherical harmonics,
implemented in SCALE3 ABSPACK scaling algorithm.
;
_exptl_special_details           
;
?
;

_diffrn_ambient_temperature      163(2)
_diffrn_radiation_wavelength     1.54178
_diffrn_radiation_type           CuK\a
_diffrn_radiation_source         'Enhance (Cu) X-ray Source'
_diffrn_radiation_monochromator  graphite
_diffrn_measurement_device_type  'Gemini S Ultra'
_diffrn_measurement_method       '\f and \w scans'
_diffrn_detector_area_resol_mean ?
_diffrn_standards_number         0
_diffrn_standards_interval_count 0
_diffrn_standards_interval_time  0
_diffrn_standards_decay_%        0
_diffrn_reflns_number            11719
_diffrn_reflns_av_R_equivalents  0.0524
_diffrn_reflns_av_sigmaI/netI    0.0536
_diffrn_reflns_limit_h_min       -12
_diffrn_reflns_limit_h_max       12
_diffrn_reflns_limit_k_min       -22
_diffrn_reflns_limit_k_max       22
_diffrn_reflns_limit_l_min       -19
_diffrn_reflns_limit_l_max       24
_diffrn_reflns_theta_min         4.15
_diffrn_reflns_theta_max         62.18
_reflns_number_total             3615
_reflns_number_gt                2525
_reflns_threshold_expression     >2sigma(I)

_computing_data_collection       
;
CrysAlis CCD, Oxford Diffraction Ltd.,
Version 1.171.31.7 (release 18-10-2006 CrysAlis171 .NET)
(compiled Oct 18 2006,16:28:17)
;
_computing_cell_refinement       
;
CrysAlis RED, Oxford Diffraction Ltd.,
Version 1.171.31.7 (release 18-10-2006 CrysAlis171 .NET)
(compiled Oct 18 2006,16:28:17)
;
_computing_data_reduction        
;
CrysAlis RED, Oxford Diffraction Ltd.,
Version 1.171.31.7 (release 18-10-2006 CrysAlis171 .NET)
(compiled Oct 18 2006,16:28:17)
;
_computing_structure_solution    'SHELXS-97 (Sheldrick, 1990)'
_computing_structure_refinement  'SHELXL-97 (Sheldrick, 1997)'
_computing_molecular_graphics    ?
_computing_publication_material  ?


_refine_special_details          
;
Refinement of F^2^ against ALL reflections. The weighted R-factor wR and
goodness of fit S are based on F^2^, conventional R-factors R are based
on F, with F set to zero for negative F^2^. The threshold expression of
F^2^ > 2sigma(F^2^) is used only for calculating R-factors(gt) etc. and is
not relevant to the choice of reflections for refinement. R-factors based
on F^2^ are statistically about twice as large as those based on F, and R-
factors based on ALL data will be even larger.
;

_refine_ls_structure_factor_coef Fsqd
_refine_ls_matrix_type           full
_refine_ls_weighting_scheme      calc
_refine_ls_weighting_details     
'calc w=1/[\s^2^(Fo^2^)+(0.0426P)^2^+0.0000P] where P=(Fo^2^+2Fc^2^)/3'
_atom_sites_solution_primary     direct
_atom_sites_solution_secondary   difmap
_atom_sites_solution_hydrogens   geom
_refine_ls_hydrogen_treatment    constr
_refine_ls_extinction_method     none
_refine_ls_extinction_coef       ?
_refine_ls_number_reflns         3615
_refine_ls_number_parameters     313
_refine_ls_number_restraints     0
_refine_ls_R_factor_all          0.0572
_refine_ls_R_factor_gt           0.0331
_refine_ls_wR_factor_ref         0.0843
_refine_ls_wR_factor_gt          0.0713
_refine_ls_goodness_of_fit_ref   0.982
_refine_ls_restrained_S_all      0.982
_refine_ls_shift/su_max          0.001
_refine_ls_shift/su_mean         0.000

loop_
_atom_site_label
_atom_site_type_symbol
_atom_site_fract_x
_atom_site_fract_y
_atom_site_fract_z
_atom_site_U_iso_or_equiv
_atom_site_adp_type
_atom_site_occupancy
_atom_site_symmetry_multiplicity
_atom_site_calc_flag
_atom_site_refinement_flags
_atom_site_disorder_assembly
_atom_site_disorder_group
Co1 Co 0.80595(4) 0.03703(3) 0.22352(2) 0.02123(14) Uani 1 1 d . . .
Co2 Co 0.5000 0.0000 0.0000 0.02003(17) Uani 1 2 d S . .
O1 O 0.65285(17) 0.04239(11) 0.04362(9) 0.0235(5) Uani 1 1 d . . .
O3 O 0.64093(18) 0.05584(11) 0.26619(10) 0.0241(5) Uani 1 1 d . . .
N1 N 0.4566(2) -0.01193(12) 0.09282(12) 0.0226(6) Uani 1 1 d . . .
O2 O 0.75072(19) 0.04682(11) 0.13352(9) 0.0258(5) Uani 1 1 d . . .
N4 N 0.8660(2) 0.14180(13) 0.21639(13) 0.0276(7) Uani 1 1 d . . .
N5 N 0.7626(2) -0.07186(13) 0.22295(13) 0.0262(6) Uani 1 1 d . . .
N3 N 0.4104(2) 0.09674(13) -0.00009(12) 0.0269(6) Uani 1 1 d . . .
C4 C 0.6566(3) 0.03563(16) 0.10307(14) 0.0221(7) Uani 1 1 d . . .
C18 C 0.7529(3) -0.21258(16) 0.22423(17) 0.0294(8) Uani 1 1 d . . .
C6 C 0.4634(3) 0.15397(17) -0.01683(16) 0.0326(9) Uani 1 1 d . . .
H6 H 0.5457 0.1526 -0.0291 0.039 Uiso 1 1 calc R . .
C16 C 0.7288(3) -0.10567(17) 0.27411(16) 0.0297(8) Uani 1 1 d . . .
H16 H 0.7081 -0.0808 0.3107 0.036 Uiso 1 1 calc R . .
C2 C 0.5439(3) 0.01164(15) 0.13278(15) 0.0220(7) Uani 1 1 d . . .
C20 C 0.7917(3) -0.10849(17) 0.17200(16) 0.0314(8) Uani 1 1 d . . .
H20 H 0.8164 -0.0854 0.1351 0.038 Uiso 1 1 calc R . .
C10 C 0.2948(3) 0.09901(18) 0.01700(17) 0.0343(9) Uani 1 1 d . . .
H10 H 0.2562 0.0584 0.0290 0.041 Uiso 1 1 calc R . .
C19 C 0.7874(3) -0.17742(17) 0.17064(16) 0.0317(8) Uani 1 1 d . . .
H19 H 0.8079 -0.2010 0.1334 0.038 Uiso 1 1 calc R . .
C8 C 0.2834(3) 0.21808(17) 0.00020(15) 0.0288(8) Uani 1 1 d . . .
C15 C 0.8844(4) 0.17971(19) 0.26745(19) 0.0429(10) Uani 1 1 d . . .
H15 H 0.8741 0.1595 0.3075 0.051 Uiso 1 1 calc R . .
C1 C 0.3670(3) -0.03256(16) 0.13024(14) 0.0248(7) Uani 1 1 d . . .
H1 H 0.2940 -0.0513 0.1149 0.030 Uiso 1 1 calc R . .
C7 C 0.4050(3) 0.21500(18) -0.01723(16) 0.0336(9) Uani 1 1 d . . .
H7 H 0.4467 0.2547 -0.0292 0.040 Uiso 1 1 calc R . .
C17 C 0.7222(3) -0.17489(17) 0.27654(17) 0.0317(8) Uani 1 1 d . . .
H17 H 0.6967 -0.1967 0.3139 0.038 Uiso 1 1 calc R . .
C9 C 0.2291(3) 0.15791(17) 0.01803(17) 0.0351(9) Uani 1 1 d . . .
H9 H 0.1471 0.1574 0.0308 0.042 Uiso 1 1 calc R . .
C14 C 0.9176(4) 0.2465(2) 0.2649(2) 0.0549(12) Uani 1 1 d . . .
H14 H 0.9293 0.2714 0.3025 0.066 Uiso 1 1 calc R . .
C12 C 0.9182(4) 0.2379(2) 0.1546(2) 0.0579(12) Uani 1 1 d . . .
H12 H 0.9306 0.2568 0.1142 0.069 Uiso 1 1 calc R . .
C11 C 0.8843(4) 0.17080(19) 0.16099(19) 0.0436(10) Uani 1 1 d . . .
H11 H 0.8738 0.1446 0.1241 0.052 Uiso 1 1 calc R . .
C13 C 0.9337(4) 0.2765(2) 0.2077(2) 0.0552(12) Uani 1 1 d . . .
H13 H 0.9548 0.3227 0.2047 0.066 Uiso 1 1 calc R . .
C3 C 0.5026(3) 0.00433(15) 0.19412(14) 0.0197(6) Uani 1 1 d . . .
C5 C 0.5455(3) 0.02153(15) 0.25811(14) 0.0221(7) Uani 1 1 d . . .
O4 O 0.48089(18) 0.00098(11) 0.30279(9) 0.0250(5) Uani 1 1 d . . .
N2 N 0.3902(2) -0.02414(13) 0.19119(12) 0.0231(6) Uani 1 1 d . . .
O2W O 0.8771(2) 0.07199(14) -0.00613(11) 0.0463(7) Uani 1 1 d . . .
H2A H 0.8093 0.0601 0.0080 0.069 Uiso 1 1 d R . .
H2B H 0.9299 0.0693 0.0228 0.069 Uiso 1 1 d R . .
O3W O 0.6058(3) 0.14410(14) 0.38139(14) 0.0608(8) Uani 1 1 d . . .
H3A H 0.5969 0.1252 0.4169 0.091 Uiso 1 1 d R . .
H3B H 0.6070 0.1143 0.3527 0.091 Uiso 1 1 d R . .
O4W O 0.7009(6) 0.2706(4) 0.4236(3) 0.101(3) Uani 0.50 1 d P . .
H4A H 0.6629 0.2419 0.4013 0.152 Uiso 0.50 1 d PR . .
H4B H 0.7401 0.2968 0.3993 0.152 Uiso 0.50 1 d PR . .
O1W O 0.5539(2) -0.03922(14) 0.42084(11) 0.0438(7) Uani 1 1 d . . .
H1A H 0.5719 -0.0010 0.4369 0.066 Uiso 1 1 d R . .
H1B H 0.5309 -0.0326 0.3832 0.066 Uiso 1 1 d R . .

loop_
_atom_site_aniso_label
_atom_site_aniso_U_11
_atom_site_aniso_U_22
_atom_site_aniso_U_33
_atom_site_aniso_U_23
_atom_site_aniso_U_13
_atom_site_aniso_U_12
Co1 0.0227(2) 0.0224(3) 0.0186(3) 0.0007(2) -0.0013(2) -0.0001(2)
Co2 0.0234(4) 0.0201(4) 0.0165(3) -0.0005(3) -0.0010(3) 0.0017(3)
O1 0.0253(11) 0.0293(13) 0.0159(12) 0.0031(10) -0.0013(9) -0.0025(10)
O3 0.0233(11) 0.0276(12) 0.0216(12) -0.0028(10) 0.0012(9) -0.0011(10)
N1 0.0262(14) 0.0207(14) 0.0211(13) -0.0006(12) -0.0019(11) 0.0008(12)
O2 0.0265(12) 0.0309(13) 0.0201(12) 0.0035(10) -0.0027(10) -0.0041(10)
N4 0.0282(15) 0.0219(15) 0.0327(17) -0.0006(14) 0.0007(13) 0.0004(12)
N5 0.0291(14) 0.0248(15) 0.0247(15) -0.0018(14) -0.0042(12) 0.0012(13)
N3 0.0315(15) 0.0214(15) 0.0278(15) 0.0000(13) 0.0005(12) 0.0029(13)
C4 0.0288(17) 0.0162(16) 0.0213(18) -0.0012(15) 0.0003(14) 0.0017(14)
C18 0.0301(17) 0.0234(19) 0.035(2) -0.0031(16) -0.0034(16) 0.0027(16)
C6 0.0299(18) 0.027(2) 0.041(2) 0.0030(17) 0.0027(16) 0.0042(16)
C16 0.0315(19) 0.0310(19) 0.0267(18) 0.0002(17) 0.0042(15) -0.0004(16)
C2 0.0236(16) 0.0190(17) 0.0235(17) -0.0010(14) -0.0014(13) -0.0002(14)
C20 0.040(2) 0.0283(19) 0.0259(19) 0.0031(17) -0.0019(15) -0.0020(17)
C10 0.0351(19) 0.026(2) 0.042(2) 0.0036(17) 0.0084(17) 0.0020(17)
C19 0.040(2) 0.0270(19) 0.0280(19) -0.0043(16) 0.0040(15) -0.0033(17)
C8 0.036(2) 0.0223(18) 0.0279(19) 0.0005(17) -0.0015(15) 0.0062(15)
C15 0.053(2) 0.032(2) 0.044(2) -0.009(2) 0.0030(19) -0.0038(19)
C1 0.0220(16) 0.0288(19) 0.0237(18) -0.0039(16) -0.0020(14) -0.0012(15)
C7 0.035(2) 0.024(2) 0.042(2) 0.0023(17) -0.0016(16) -0.0002(17)
C17 0.041(2) 0.0230(17) 0.031(2) 0.0030(17) 0.0014(16) -0.0005(16)
C9 0.031(2) 0.030(2) 0.045(2) 0.0029(18) 0.0091(16) 0.0069(17)
C14 0.063(3) 0.032(2) 0.070(3) -0.025(3) 0.007(2) -0.010(2)
C12 0.074(3) 0.034(2) 0.066(3) 0.011(2) -0.002(3) -0.017(2)
C11 0.053(2) 0.037(2) 0.041(2) 0.000(2) -0.0017(19) -0.011(2)
C13 0.052(3) 0.026(2) 0.088(4) 0.002(2) 0.002(2) -0.006(2)
C3 0.0198(14) 0.0192(16) 0.0202(15) 0.0016(14) 0.0024(13) -0.0014(14)
C5 0.0255(17) 0.0179(17) 0.0230(18) -0.0011(14) -0.0036(14) 0.0053(14)
O4 0.0276(11) 0.0320(13) 0.0155(11) 0.0031(11) 0.0022(9) -0.0011(11)
N2 0.0264(14) 0.0252(16) 0.0176(14) 0.0006(12) -0.0006(11) 0.0003(12)
O2W 0.0371(14) 0.067(2) 0.0350(15) 0.0114(14) 0.0060(12) -0.0011(13)
O3W 0.095(2) 0.0392(16) 0.0482(18) 0.0074(15) -0.0156(17) -0.0031(17)
O4W 0.098(6) 0.088(6) 0.119(6) -0.051(5) 0.042(5) -0.029(5)
O1W 0.0415(14) 0.0569(18) 0.0330(14) 0.0068(13) -0.0056(12) 0.0023(14)

_geom_special_details            
;
All esds (except the esd in the dihedral angle between two l.s. planes)
are estimated using the full covariance matrix. The cell esds are taken
into account individually in the estimation of esds in distances, angles
and torsion angles; correlations between esds in cell parameters are only
used when they are defined by crystal symmetry. An approximate (isotropic)
treatment of cell esds is used for estimating esds involving l.s. planes.
;

loop_
_geom_bond_atom_site_label_1
_geom_bond_atom_site_label_2
_geom_bond_distance
_geom_bond_site_symmetry_2
_geom_bond_publ_flag
Co1 O2 2.022(2) . ?
Co1 N2 2.060(3) 4 ?
Co1 O3 2.079(2) . ?
Co1 O4 2.158(2) 4 ?
Co1 N4 2.193(3) . ?
Co1 N5 2.218(3) . ?
Co2 N1 2.049(3) 5_655 ?
Co2 N1 2.049(3) . ?
Co2 O1 2.111(2) . ?
Co2 O1 2.111(2) 5_655 ?
Co2 N3 2.166(3) 5_655 ?
Co2 N3 2.166(3) . ?
O1 C4 1.274(4) . ?
O3 C5 1.272(4) . ?
N1 C1 1.339(4) . ?
N1 C2 1.372(4) . ?
O2 C4 1.250(4) . ?
N4 C11 1.329(4) . ?
N4 C15 1.339(4) . ?
N5 C16 1.335(4) . ?
N5 C20 1.347(4) . ?
N3 C6 1.330(4) . ?
N3 C10 1.334(4) . ?
C4 C2 1.482(4) . ?
C18 C17 1.385(5) . ?
C18 C19 1.392(5) . ?
C18 C18 1.489(6) 2_645 ?
C6 C7 1.376(5) . ?
C6 H6 0.9500 . ?
C16 C17 1.379(5) . ?
C16 H16 0.9500 . ?
C2 C3 1.392(4) . ?
C20 C19 1.372(5) . ?
C20 H20 0.9500 . ?
C10 C9 1.380(5) . ?
C10 H10 0.9500 . ?
C19 H19 0.9500 . ?
C8 C9 1.392(5) . ?
C8 C7 1.402(5) . ?
C8 C8 1.470(6) 2 ?
C15 C14 1.379(5) . ?
C15 H15 0.9500 . ?
C1 N2 1.334(4) . ?
C1 H1 0.9500 . ?
C7 H7 0.9500 . ?
C17 H17 0.9500 . ?
C9 H9 0.9500 . ?
C14 C13 1.369(6) . ?
C14 H14 0.9500 . ?
C12 C13 1.378(6) . ?
C12 C11 1.393(5) . ?
C12 H12 0.9500 . ?
C11 H11 0.9500 . ?
C13 H13 0.9500 . ?
C3 N2 1.372(4) . ?
C3 C5 1.484(4) . ?
C5 O4 1.260(4) . ?
O4 Co1 2.158(2) 4_455 ?
N2 Co1 2.060(3) 4_455 ?
O2W H2A 0.8449 . ?
O2W H2B 0.8519 . ?
O3W H3A 0.8496 . ?
O3W H3B 0.8517 . ?
O4W O4W 1.364(14) 2_655 ?
O4W H4A 0.8548 . ?
O4W H4B 0.8538 . ?
O1W H1A 0.8560 . ?
O1W H1B 0.8524 . ?

loop_
_geom_angle_atom_site_label_1
_geom_angle_atom_site_label_2
_geom_angle_atom_site_label_3
_geom_angle
_geom_angle_site_symmetry_1
_geom_angle_site_symmetry_3
_geom_angle_publ_flag
O2 Co1 N2 170.41(10) . 4 ?
O2 Co1 O3 97.46(9) . . ?
N2 Co1 O3 92.12(9) 4 . ?
O2 Co1 O4 93.47(8) . 4 ?
N2 Co1 O4 77.10(9) 4 4 ?
O3 Co1 O4 165.83(8) . 4 ?
O2 Co1 N4 86.28(10) . . ?
N2 Co1 N4 92.35(10) 4 . ?
O3 Co1 N4 97.32(9) . . ?
O4 Co1 N4 92.34(9) 4 . ?
O2 Co1 N5 91.32(9) . . ?
N2 Co1 N5 88.96(10) 4 . ?
O3 Co1 N5 89.24(9) . . ?
O4 Co1 N5 81.49(9) 4 . ?
N4 Co1 N5 173.25(10) . . ?
N1 Co2 N1 180.0(2) 5_655 . ?
N1 Co2 O1 100.93(9) 5_655 . ?
N1 Co2 O1 79.07(9) . . ?
N1 Co2 O1 79.07(9) 5_655 5_655 ?
N1 Co2 O1 100.93(9) . 5_655 ?
O1 Co2 O1 180.00(16) . 5_655 ?
N1 Co2 N3 89.75(10) 5_655 5_655 ?
N1 Co2 N3 90.25(10) . 5_655 ?
O1 Co2 N3 89.12(9) . 5_655 ?
O1 Co2 N3 90.88(9) 5_655 5_655 ?
N1 Co2 N3 90.25(10) 5_655 . ?
N1 Co2 N3 89.75(10) . . ?
O1 Co2 N3 90.88(9) . . ?
O1 Co2 N3 89.12(9) 5_655 . ?
N3 Co2 N3 180.00(14) 5_655 . ?
C4 O1 Co2 114.96(19) . . ?
C5 O3 Co1 125.3(2) . . ?
C1 N1 C2 105.1(3) . . ?
C1 N1 Co2 141.7(2) . . ?
C2 N1 Co2 113.1(2) . . ?
C4 O2 Co1 136.8(2) . . ?
C11 N4 C15 117.0(3) . . ?
C11 N4 Co1 121.3(2) . . ?
C15 N4 Co1 121.7(2) . . ?
C16 N5 C20 117.0(3) . . ?
C16 N5 Co1 123.3(2) . . ?
C20 N5 Co1 118.7(2) . . ?
C6 N3 C10 118.1(3) . . ?
C6 N3 Co2 123.8(2) . . ?
C10 N3 Co2 118.1(2) . . ?
O2 C4 O1 121.7(3) . . ?
O2 C4 C2 122.8(3) . . ?
O1 C4 C2 115.5(3) . . ?
C17 C18 C19 117.1(3) . . ?
C17 C18 C18 122.0(2) . 2_645 ?
C19 C18 C18 120.9(2) . 2_645 ?
N3 C6 C7 123.2(3) . . ?
N3 C6 H6 118.4 . . ?
C7 C6 H6 118.4 . . ?
N5 C16 C17 123.3(3) . . ?
N5 C16 H16 118.4 . . ?
C17 C16 H16 118.4 . . ?
N1 C2 C3 108.3(3) . . ?
N1 C2 C4 116.2(3) . . ?
C3 C2 C4 135.5(3) . . ?
N5 C20 C19 123.3(3) . . ?
N5 C20 H20 118.3 . . ?
C19 C20 H20 118.3 . . ?
N3 C10 C9 122.8(3) . . ?
N3 C10 H10 118.6 . . ?
C9 C10 H10 118.6 . . ?
C20 C19 C18 119.6(3) . . ?
C20 C19 H19 120.2 . . ?
C18 C19 H19 120.2 . . ?
C9 C8 C7 116.9(3) . . ?
C9 C8 C8 121.6(4) . 2 ?
C7 C8 C8 121.6(4) . 2 ?
N4 C15 C14 123.5(4) . . ?
N4 C15 H15 118.3 . . ?
C14 C15 H15 118.3 . . ?
N2 C1 N1 113.4(3) . . ?
N2 C1 H1 123.3 . . ?
N1 C1 H1 123.3 . . ?
C6 C7 C8 119.4(3) . . ?
C6 C7 H7 120.3 . . ?
C8 C7 H7 120.3 . . ?
C16 C17 C18 119.8(3) . . ?
C16 C17 H17 120.1 . . ?
C18 C17 H17 120.1 . . ?
C10 C9 C8 119.7(3) . . ?
C10 C9 H9 120.1 . . ?
C8 C9 H9 120.1 . . ?
C13 C14 C15 119.3(4) . . ?
C13 C14 H14 120.3 . . ?
C15 C14 H14 120.3 . . ?
C13 C12 C11 119.2(4) . . ?
C13 C12 H12 120.4 . . ?
C11 C12 H12 120.4 . . ?
N4 C11 C12 122.9(4) . . ?
N4 C11 H11 118.5 . . ?
C12 C11 H11 118.5 . . ?
C14 C13 C12 118.1(4) . . ?
C14 C13 H13 120.9 . . ?
C12 C13 H13 120.9 . . ?
N2 C3 C2 107.5(3) . . ?
N2 C3 C5 115.4(3) . . ?
C2 C3 C5 137.1(3) . . ?
O4 C5 O3 123.1(3) . . ?
O4 C5 C3 115.8(3) . . ?
O3 C5 C3 121.0(3) . . ?
C5 O4 Co1 115.47(19) . 4_455 ?
C1 N2 C3 105.8(3) . . ?
C1 N2 Co1 139.0(2) . 4_455 ?
C3 N2 Co1 115.12(19) . 4_455 ?
H2A O2W H2B 109.8 . . ?
H3A O3W H3B 109.5 . . ?
O4W O4W H4A 89.5 2_655 . ?
O4W O4W H4B 87.7 2_655 . ?
H4A O4W H4B 108.9 . . ?
H1A O1W H1B 107.9 . . ?

loop_
_geom_hbond_atom_site_label_D
_geom_hbond_atom_site_label_H
_geom_hbond_atom_site_label_A
_geom_hbond_distance_DH
_geom_hbond_distance_HA
_geom_hbond_distance_DA
_geom_hbond_angle_DHA
_geom_hbond_site_symmetry_A
O2W H2A O1 0.84 1.93 2.769(3) 174.1 .
O2W H2B O1W 0.85 1.92 2.753(4) 164.5 4
O3W H3A O2W 0.85 1.97 2.799(4) 163.6 8_756
O3W H3B O3 0.85 2.21 3.042(4) 165.3 .
O4W H4A O3W 0.85 2.09 2.874(8) 152.3 .
O4W H4B O3W 0.85 2.11 2.879(8) 149.6 2_655
O1W H1A O2W 0.86 1.98 2.810(4) 164.5 8_756
O1W H1B O4 0.85 1.92 2.760(3) 168.5 .

_diffrn_measured_fraction_theta_max 0.971
_diffrn_reflns_theta_full        62.18
_diffrn_measured_fraction_theta_full 0.970
_refine_diff_density_max         0.338
_refine_diff_density_min         -0.267
_refine_diff_density_rms         0.059


