####################################################################### 
# 
# This file contains crystal structure data downloaded from the 
# Cambridge Structural Database (CSD) hosted by the Cambridge 
# Crystallographic Data Centre (CCDC).
# 
# Full information about CCDC data access policies and citation 
# guidelines are available at http://www.ccdc.cam.ac.uk/access/V1 
# 
# Audit and citation data items may have been added by the CCDC. 
# Please retain this information to preserve the provenance of 
# this file and to allow appropriate attribution of the data. 
# 
#######################################################################

data_p
_audit_block_doi                 10.5517/ccygmkk
_database_code_depnum_ccdc_archive 'CCDC 877999'
loop_
_citation_id
_citation_doi
_citation_year
1 10.5560/znb.2012-0159 2012
_audit_update_record             
;
2012-04-23 deposited with the CCDC.	2024-07-06 downloaded from the CCDC.
;
#TrackingRef '877999.cif'


_audit_creation_method           SHELXL-97
_chemical_name_systematic        
;
?
;
_chemical_name_common            ?
_chemical_melting_point          ?
_chemical_formula_moiety         ?
_chemical_formula_sum            'C21 H26 Cd N6 O8'
_chemical_formula_weight         602.88

loop_
_atom_type_symbol
_atom_type_description
_atom_type_scat_dispersion_real
_atom_type_scat_dispersion_imag
_atom_type_scat_source
C C 0.0033 0.0016 'International Tables Vol C Tables 4.2.6.8 and 6.1.1.4'
H H 0.0000 0.0000 'International Tables Vol C Tables 4.2.6.8 and 6.1.1.4'
N N 0.0061 0.0033 'International Tables Vol C Tables 4.2.6.8 and 6.1.1.4'
O O 0.0106 0.0060 'International Tables Vol C Tables 4.2.6.8 and 6.1.1.4'
Cd Cd -0.8075 1.2024 'International Tables Vol C Tables 4.2.6.8 and 6.1.1.4'

_symmetry_cell_setting           Triclinic
_symmetry_space_group_name_H-M   P-1

loop_
_symmetry_equiv_pos_as_xyz
'x, y, z'
'-x, -y, -z'

_cell_length_a                   10.237(2)
_cell_length_b                   11.057(2)
_cell_length_c                   11.529(2)
_cell_angle_alpha                93.36(3)
_cell_angle_beta                 95.30(3)
_cell_angle_gamma                108.21(3)
_cell_volume                     1228.9(4)
_cell_formula_units_Z            2
_cell_measurement_temperature    293(2)
_cell_measurement_reflns_used    4104
_cell_measurement_theta_min      1.9473
_cell_measurement_theta_max      27.8764

_exptl_crystal_description       Prism
_exptl_crystal_colour            Colourless
_exptl_crystal_size_max          0.20
_exptl_crystal_size_mid          0.17
_exptl_crystal_size_min          0.16
_exptl_crystal_density_meas      ?
_exptl_crystal_density_diffrn    1.629
_exptl_crystal_density_method    'not measured'
_exptl_crystal_F_000             612
_exptl_absorpt_coefficient_mu    0.946
_exptl_absorpt_correction_type   Multi-scan
_exptl_absorpt_correction_T_min  0.8333
_exptl_absorpt_correction_T_max  0.8633
_exptl_absorpt_process_details   ?

_exptl_special_details           
;
?
;

_diffrn_ambient_temperature      293(2)
_diffrn_radiation_wavelength     0.71073
_diffrn_radiation_type           MoK\a
_diffrn_radiation_source         'fine-focus sealed tube'
_diffrn_radiation_monochromator  graphite
_diffrn_measurement_device_type  'Rigaku Saturn'
_diffrn_measurement_method       \w
_diffrn_detector_area_resol_mean 28.5714
_diffrn_standards_number         ?
_diffrn_standards_interval_count ?
_diffrn_standards_interval_time  ?
_diffrn_standards_decay_%        ?
_diffrn_reflns_number            11816
_diffrn_reflns_av_R_equivalents  0.0225
_diffrn_reflns_av_sigmaI/netI    0.0269
_diffrn_reflns_limit_h_min       -12
_diffrn_reflns_limit_h_max       12
_diffrn_reflns_limit_k_min       -13
_diffrn_reflns_limit_k_max       12
_diffrn_reflns_limit_l_min       -10
_diffrn_reflns_limit_l_max       13
_diffrn_reflns_theta_min         2.37
_diffrn_reflns_theta_max         25.50
_reflns_number_total             4480
_reflns_number_gt                4194
_reflns_threshold_expression     >2sigma(I)

_computing_data_collection       'CrystalClear (Rigaku/MSC Inc., 2006)'
_computing_cell_refinement       'CrystalClear (Rigaku/MSC Inc., 2006)'
_computing_data_reduction        'CrystalClear (Rigaku/MSC Inc., 2006)'
_computing_structure_solution    'SHELXS-97 (Sheldrick, 2008)'
_computing_structure_refinement  'SHELXL-97 (Sheldrick, 2008)'
_computing_molecular_graphics    'SHELXTL (Sheldrick, 2008)'
_computing_publication_material  'SHELXTL (Sheldrick, 2008)'

_refine_special_details          
;
Refinement of F^2^ against ALL reflections. The weighted R-factor wR and
goodness of fit S are based on F^2^, conventional R-factors R are based
on F, with F set to zero for negative F^2^. The threshold expression of
F^2^ > 2sigma(F^2^) is used only for calculating R-factors(gt) etc. and is
not relevant to the choice of reflections for refinement. R-factors based
on F^2^ are statistically about twice as large as those based on F, and R-
factors based on ALL data will be even larger.
;

_refine_ls_structure_factor_coef Fsqd
_refine_ls_matrix_type           full
_refine_ls_weighting_scheme      calc
_refine_ls_weighting_details     
'calc w=1/[\s^2^(Fo^2^)+(0.0361P)^2^+0.6683P] where P=(Fo^2^+2Fc^2^)/3'
_atom_sites_solution_primary     direct
_atom_sites_solution_secondary   difmap
_atom_sites_solution_hydrogens   geom
_refine_ls_hydrogen_treatment    constr
_refine_ls_extinction_method     none
_refine_ls_extinction_coef       ?
_refine_ls_number_reflns         4480
_refine_ls_number_parameters     325
_refine_ls_number_restraints     0
_refine_ls_R_factor_all          0.0292
_refine_ls_R_factor_gt           0.0265
_refine_ls_wR_factor_ref         0.0667
_refine_ls_wR_factor_gt          0.0647
_refine_ls_goodness_of_fit_ref   1.039
_refine_ls_restrained_S_all      1.039
_refine_ls_shift/su_max          0.002
_refine_ls_shift/su_mean         0.000

loop_
_atom_site_label
_atom_site_type_symbol
_atom_site_fract_x
_atom_site_fract_y
_atom_site_fract_z
_atom_site_U_iso_or_equiv
_atom_site_adp_type
_atom_site_occupancy
_atom_site_symmetry_multiplicity
_atom_site_calc_flag
_atom_site_refinement_flags
_atom_site_disorder_assembly
_atom_site_disorder_group
Cd1 Cd 0.611304(17) 0.767582(16) 0.906624(15) 0.02519(7) Uani 1 1 d . . .
N1 N 0.7740(2) 0.9359(2) 1.03345(19) 0.0293(5) Uani 1 1 d . . .
N2 N 0.9533(2) 1.1045(2) 1.1075(2) 0.0325(5) Uani 1 1 d . . .
H2A H 1.0150 1.1787 1.1125 0.039 Uiso 1 1 calc R . .
N3 N 1.1539(3) 0.6673(3) 0.5271(3) 0.0570(7) Uani 1 1 d . . .
N4 N 0.5538(2) 1.2290(2) 0.96838(19) 0.0310(5) Uani 1 1 d . . .
N5 N 0.7053(3) 1.2505(2) 0.8362(2) 0.0400(6) Uani 1 1 d . . .
N6 N 0.7303(2) 1.1768(2) 0.91973(18) 0.0279(5) Uani 1 1 d . . .
O1 O 0.5134(2) 0.9160(2) 0.80357(17) 0.0449(5) Uani 1 1 d . . .
O2 O 0.6449(2) 0.8275(2) 0.71449(17) 0.0430(5) Uani 1 1 d . . .
O3 O 0.80036(18) 0.69915(17) 0.88818(17) 0.0340(4) Uani 1 1 d . . .
O4 O 0.67653(18) 0.58118(18) 1.01151(17) 0.0368(4) Uani 1 1 d . . .
O5 O 0.4344(2) 0.58605(18) 0.82446(17) 0.0393(4) Uani 1 1 d . . .
H1W H 0.4001 0.5308 0.8710 0.047 Uiso 1 1 d R . .
H2W H 0.4631 0.5484 0.7708 0.047 Uiso 1 1 d R . .
O6 O 0.4863(3) 0.4363(2) 0.6492(2) 0.0613(6) Uani 1 1 d . . .
H3W H 0.5546 0.4764 0.6146 0.074 Uiso 1 1 d R . .
H4W H 0.4241 0.4102 0.5910 0.074 Uiso 1 1 d R . .
O7 O 0.6882(3) 0.6410(2) 0.5687(2) 0.0635(6) Uani 1 1 d . . .
H5W H 0.7725 0.6455 0.5840 0.076 Uiso 1 1 d R . .
H6W H 0.6671 0.7018 0.6022 0.076 Uiso 1 1 d R . .
O8 O 0.9568(4) 0.6496(4) 0.6086(4) 0.1134(13) Uani 1 1 d . . .
C1 C 0.5654(3) 0.8948(2) 0.7144(2) 0.0324(6) Uani 1 1 d . . .
C2 C 0.5945(3) 0.9342(3) 0.5039(2) 0.0412(7) Uani 1 1 d . . .
H2B H 0.6584 0.8900 0.5059 0.049 Uiso 1 1 calc R . .
C3 C 0.5333(3) 0.9505(2) 0.6031(2) 0.0314(6) Uani 1 1 d . . .
C4 C 0.4388(3) 1.0167(3) 0.5988(2) 0.0417(7) Uani 1 1 d . . .
H4B H 0.3973 1.0284 0.6651 0.050 Uiso 1 1 calc R . .
C5 C 0.7816(2) 0.6128(2) 0.9588(2) 0.0285(5) Uani 1 1 d . . .
C6 C 0.9865(3) 0.5578(3) 0.8986(2) 0.0328(6) Uani 1 1 d . . .
H6A H 0.9776 0.5967 0.8302 0.039 Uiso 1 1 calc R . .
C7 C 0.8940(2) 0.5527(2) 0.9797(2) 0.0265(5) Uani 1 1 d . . .
C8 C 0.9074(3) 0.4947(2) 1.0818(2) 0.0324(6) Uani 1 1 d . . .
H8A H 0.8456 0.4910 1.1368 0.039 Uiso 1 1 calc R . .
C9 C 0.8222(3) 0.9138(2) 1.1447(2) 0.0283(5) Uani 1 1 d . . .
C10 C 0.7754(3) 0.8086(3) 1.2092(3) 0.0395(7) Uani 1 1 d . . .
H10A H 0.6988 0.7388 1.1803 0.047 Uiso 1 1 calc R . .
C11 C 0.8472(3) 0.8125(3) 1.3170(3) 0.0463(7) Uani 1 1 d . . .
H11A H 0.8177 0.7442 1.3621 0.056 Uiso 1 1 calc R . .
C12 C 0.9633(3) 0.9166(3) 1.3605(3) 0.0472(8) Uani 1 1 d . . .
H12A H 1.0108 0.9143 1.4327 0.057 Uiso 1 1 calc R . .
C13 C 1.0093(3) 1.0219(3) 1.2997(3) 0.0426(7) Uani 1 1 d . . .
H13A H 1.0855 1.0917 1.3295 0.051 Uiso 1 1 calc R . .
C14 C 0.9358(3) 1.0188(3) 1.1909(2) 0.0316(6) Uani 1 1 d . . .
C15 C 0.8557(3) 1.0505(2) 1.0159(2) 0.0289(5) Uani 1 1 d . . .
C16 C 0.8386(3) 1.1178(3) 0.9100(2) 0.0341(6) Uani 1 1 d . . .
H16A H 0.9253 1.1831 0.9018 0.041 Uiso 1 1 calc R . .
H16B H 0.8143 1.0573 0.8410 0.041 Uiso 1 1 calc R . .
C17 C 0.6397(3) 1.1646(2) 0.9967(2) 0.0313(6) Uani 1 1 d . . .
H17A H 0.6368 1.1175 1.0612 0.038 Uiso 1 1 calc R . .
C18 C 0.5993(3) 1.2798(3) 0.8702(3) 0.0392(7) Uani 1 1 d . . .
H18A H 0.5585 1.3316 0.8297 0.047 Uiso 1 1 calc R . .
C19 C 1.2315(6) 0.6634(9) 0.6328(6) 0.199(5) Uani 1 1 d . . .
H19A H 1.1738 0.6542 0.6949 0.299 Uiso 1 1 calc R . .
H19B H 1.3079 0.7413 0.6493 0.299 Uiso 1 1 calc R . .
H19C H 1.2659 0.5922 0.6267 0.299 Uiso 1 1 calc R . .
C20 C 1.2173(7) 0.6796(5) 0.4210(5) 0.130(2) Uani 1 1 d . . .
H20A H 1.1503 0.6796 0.3571 0.194 Uiso 1 1 calc R . .
H20B H 1.2515 0.6091 0.4069 0.194 Uiso 1 1 calc R . .
H20C H 1.2929 0.7583 0.4279 0.194 Uiso 1 1 calc R . .
C21 C 1.0221(5) 0.6583(4) 0.5269(4) 0.0798(12) Uani 1 1 d . . .
H21 H 0.9743 0.6588 0.4544 0.096 Uiso 1 1 calc R . .

loop_
_atom_site_aniso_label
_atom_site_aniso_U_11
_atom_site_aniso_U_22
_atom_site_aniso_U_33
_atom_site_aniso_U_23
_atom_site_aniso_U_13
_atom_site_aniso_U_12
Cd1 0.02449(11) 0.03192(12) 0.02456(11) 0.00787(7) 0.00405(7) 0.01546(8)
N1 0.0266(11) 0.0313(12) 0.0325(12) 0.0044(9) 0.0036(9) 0.0124(9)
N2 0.0258(11) 0.0288(12) 0.0416(13) 0.0016(10) 0.0060(10) 0.0069(9)
N3 0.0480(16) 0.0681(19) 0.0586(18) 0.0251(15) 0.0125(14) 0.0190(14)
N4 0.0310(11) 0.0361(12) 0.0319(12) 0.0060(10) 0.0079(9) 0.0176(10)
N5 0.0449(14) 0.0486(14) 0.0366(13) 0.0211(11) 0.0164(11) 0.0231(12)
N6 0.0296(11) 0.0330(12) 0.0261(11) 0.0088(9) 0.0096(9) 0.0145(9)
O1 0.0614(14) 0.0592(13) 0.0257(10) 0.0164(9) 0.0124(9) 0.0316(11)
O2 0.0511(12) 0.0560(13) 0.0350(11) 0.0196(9) 0.0056(9) 0.0331(11)
O3 0.0271(9) 0.0338(10) 0.0483(11) 0.0159(9) 0.0058(8) 0.0172(8)
O4 0.0282(10) 0.0437(11) 0.0462(12) 0.0121(9) 0.0119(8) 0.0190(9)
O5 0.0405(11) 0.0400(11) 0.0346(11) 0.0051(9) 0.0078(8) 0.0074(9)
O6 0.0736(17) 0.0664(16) 0.0448(13) 0.0082(12) 0.0162(12) 0.0207(13)
O7 0.0661(16) 0.0666(16) 0.0594(15) -0.0004(12) 0.0126(12) 0.0233(13)
O8 0.085(2) 0.129(3) 0.140(3) 0.011(3) 0.055(2) 0.042(2)
C1 0.0355(14) 0.0326(14) 0.0281(14) 0.0099(11) 0.0004(11) 0.0092(12)
C2 0.0520(18) 0.0582(19) 0.0315(15) 0.0162(13) 0.0125(13) 0.0390(16)
C3 0.0383(14) 0.0360(15) 0.0244(13) 0.0103(11) 0.0042(11) 0.0168(12)
C4 0.0567(18) 0.0579(18) 0.0258(14) 0.0149(13) 0.0139(13) 0.0356(16)
C5 0.0243(12) 0.0261(13) 0.0368(15) 0.0038(11) 0.0018(11) 0.0111(10)
C6 0.0361(14) 0.0390(15) 0.0328(14) 0.0165(12) 0.0113(11) 0.0212(12)
C7 0.0243(12) 0.0229(12) 0.0350(14) 0.0053(10) 0.0029(10) 0.0112(10)
C8 0.0314(13) 0.0395(15) 0.0363(15) 0.0146(12) 0.0150(11) 0.0207(12)
C9 0.0285(13) 0.0309(14) 0.0278(13) 0.0017(11) 0.0031(10) 0.0132(11)
C10 0.0391(16) 0.0350(15) 0.0410(16) 0.0074(13) 0.0010(13) 0.0075(13)
C11 0.0552(19) 0.0488(18) 0.0387(17) 0.0149(14) 0.0051(14) 0.0205(16)
C12 0.056(2) 0.055(2) 0.0310(16) -0.0012(14) -0.0051(14) 0.0225(16)
C13 0.0405(16) 0.0453(17) 0.0390(16) -0.0062(14) -0.0045(13) 0.0136(14)
C14 0.0287(13) 0.0343(15) 0.0341(14) -0.0001(11) 0.0067(11) 0.0129(12)
C15 0.0252(12) 0.0324(14) 0.0346(14) 0.0062(11) 0.0118(11) 0.0142(11)
C16 0.0314(14) 0.0403(15) 0.0383(15) 0.0108(12) 0.0164(12) 0.0177(12)
C17 0.0340(14) 0.0362(15) 0.0305(14) 0.0098(11) 0.0113(11) 0.0175(12)
C18 0.0418(16) 0.0443(17) 0.0412(16) 0.0184(13) 0.0098(13) 0.0235(14)
C19 0.089(4) 0.298(11) 0.145(6) 0.139(7) -0.045(4) -0.037(5)
C20 0.166(6) 0.102(4) 0.120(5) 0.016(4) 0.097(4) 0.017(4)
C21 0.080(3) 0.075(3) 0.089(3) 0.029(2) 0.012(3) 0.027(2)

_geom_special_details            
;
All esds (except the esd in the dihedral angle between two l.s. planes)
are estimated using the full covariance matrix. The cell esds are taken
into account individually in the estimation of esds in distances, angles
and torsion angles; correlations between esds in cell parameters are only
used when they are defined by crystal symmetry. An approximate (isotropic)
treatment of cell esds is used for estimating esds involving l.s. planes.
;

loop_
_geom_bond_atom_site_label_1
_geom_bond_atom_site_label_2
_geom_bond_distance
_geom_bond_site_symmetry_2
_geom_bond_publ_flag
Cd1 O3 2.3098(17) . ?
Cd1 O5 2.322(2) . ?
Cd1 N4 2.328(2) 2_677 ?
Cd1 O2 2.374(2) . ?
Cd1 N1 2.381(2) . ?
Cd1 O1 2.479(2) . ?
N1 C15 1.321(3) . ?
N1 C9 1.394(3) . ?
N2 C15 1.352(3) . ?
N2 C14 1.373(3) . ?
N2 H2A 0.8600 . ?
N3 C21 1.322(5) . ?
N3 C19 1.403(6) . ?
N3 C20 1.430(5) . ?
N4 C17 1.323(3) . ?
N4 C18 1.350(4) . ?
N4 Cd1 2.328(2) 2_677 ?
N5 C18 1.311(4) . ?
N5 N6 1.354(3) . ?
N6 C17 1.324(3) . ?
N6 C16 1.460(3) . ?
O1 C1 1.244(3) . ?
O2 C1 1.263(3) . ?
O3 C5 1.272(3) . ?
O4 C5 1.248(3) . ?
O5 H1W 0.8500 . ?
O5 H2W 0.8500 . ?
O6 H3W 0.8500 . ?
O6 H4W 0.8500 . ?
O7 H5W 0.8501 . ?
O7 H6W 0.8499 . ?
O8 C21 1.196(5) . ?
C1 C3 1.508(3) . ?
C2 C3 1.384(4) . ?
C2 C4 1.388(4) 2_676 ?
C2 H2B 0.9300 . ?
C3 C4 1.383(4) . ?
C4 C2 1.388(4) 2_676 ?
C4 H4B 0.9300 . ?
C5 C7 1.506(3) . ?
C6 C7 1.382(4) . ?
C6 C8 1.390(3) 2_767 ?
C6 H6A 0.9300 . ?
C7 C8 1.389(4) . ?
C8 C6 1.390(3) 2_767 ?
C8 H8A 0.9300 . ?
C9 C14 1.397(4) . ?
C9 C10 1.398(4) . ?
C10 C11 1.376(4) . ?
C10 H10A 0.9300 . ?
C11 C12 1.399(5) . ?
C11 H11A 0.9300 . ?
C12 C13 1.373(4) . ?
C12 H12A 0.9300 . ?
C13 C14 1.395(4) . ?
C13 H13A 0.9300 . ?
C15 C16 1.491(4) . ?
C16 H16A 0.9700 . ?
C16 H16B 0.9700 . ?
C17 H17A 0.9300 . ?
C18 H18A 0.9300 . ?
C19 H19A 0.9600 . ?
C19 H19B 0.9600 . ?
C19 H19C 0.9600 . ?
C20 H20A 0.9600 . ?
C20 H20B 0.9600 . ?
C20 H20C 0.9600 . ?
C21 H21 0.9300 . ?

loop_
_geom_angle_atom_site_label_1
_geom_angle_atom_site_label_2
_geom_angle_atom_site_label_3
_geom_angle
_geom_angle_site_symmetry_1
_geom_angle_site_symmetry_3
_geom_angle_publ_flag
O3 Cd1 O5 100.01(7) . . ?
O3 Cd1 N4 142.32(7) . 2_677 ?
O5 Cd1 N4 81.00(8) . 2_677 ?
O3 Cd1 O2 83.40(7) . . ?
O5 Cd1 O2 88.20(8) . . ?
N4 Cd1 O2 134.11(7) 2_677 . ?
O3 Cd1 N1 83.40(7) . . ?
O5 Cd1 N1 166.32(7) . . ?
N4 Cd1 N1 88.23(8) 2_677 . ?
O2 Cd1 N1 105.38(8) . . ?
O3 Cd1 O1 134.28(7) . . ?
O5 Cd1 O1 93.86(8) . . ?
N4 Cd1 O1 82.68(7) 2_677 . ?
O2 Cd1 O1 53.55(7) . . ?
N1 Cd1 O1 93.08(8) . . ?
C15 N1 C9 105.0(2) . . ?
C15 N1 Cd1 132.91(18) . . ?
C9 N1 Cd1 120.82(16) . . ?
C15 N2 C14 107.3(2) . . ?
C15 N2 H2A 126.3 . . ?
C14 N2 H2A 126.3 . . ?
C21 N3 C19 119.2(4) . . ?
C21 N3 C20 120.8(4) . . ?
C19 N3 C20 120.0(5) . . ?
C17 N4 C18 102.7(2) . . ?
C17 N4 Cd1 117.78(17) . 2_677 ?
C18 N4 Cd1 139.48(17) . 2_677 ?
C18 N5 N6 102.3(2) . . ?
C17 N6 N5 110.0(2) . . ?
C17 N6 C16 130.2(2) . . ?
N5 N6 C16 119.6(2) . . ?
C1 O1 Cd1 90.04(16) . . ?
C1 O2 Cd1 94.47(16) . . ?
C5 O3 Cd1 101.49(15) . . ?
Cd1 O5 H1W 116.3 . . ?
Cd1 O5 H2W 109.7 . . ?
H1W O5 H2W 107.3 . . ?
H3W O6 H4W 99.8 . . ?
H5W O7 H6W 114.4 . . ?
O1 C1 O2 121.6(2) . . ?
O1 C1 C3 119.5(2) . . ?
O2 C1 C3 118.9(2) . . ?
C3 C2 C4 120.4(3) . 2_676 ?
C3 C2 H2B 119.8 . . ?
C4 C2 H2B 119.8 2_676 . ?
C4 C3 C2 119.1(2) . . ?
C4 C3 C1 119.8(2) . . ?
C2 C3 C1 121.2(2) . . ?
C3 C4 C2 120.5(3) . 2_676 ?
C3 C4 H4B 119.7 . . ?
C2 C4 H4B 119.7 2_676 . ?
O4 C5 O3 121.7(2) . . ?
O4 C5 C7 121.1(2) . . ?
O3 C5 C7 117.2(2) . . ?
C7 C6 C8 120.6(2) . 2_767 ?
C7 C6 H6A 119.7 . . ?
C8 C6 H6A 119.7 2_767 . ?
C6 C7 C8 119.7(2) . . ?
C6 C7 C5 120.1(2) . . ?
C8 C7 C5 120.2(2) . . ?
C7 C8 C6 119.7(2) . 2_767 ?
C7 C8 H8A 120.1 . . ?
C6 C8 H8A 120.1 2_767 . ?
N1 C9 C14 109.2(2) . . ?
N1 C9 C10 130.5(2) . . ?
C14 C9 C10 120.3(2) . . ?
C11 C10 C9 117.3(3) . . ?
C11 C10 H10A 121.3 . . ?
C9 C10 H10A 121.3 . . ?
C10 C11 C12 121.7(3) . . ?
C10 C11 H11A 119.1 . . ?
C12 C11 H11A 119.1 . . ?
C13 C12 C11 121.9(3) . . ?
C13 C12 H12A 119.1 . . ?
C11 C12 H12A 119.1 . . ?
C12 C13 C14 116.5(3) . . ?
C12 C13 H13A 121.7 . . ?
C14 C13 H13A 121.7 . . ?
N2 C14 C13 132.1(3) . . ?
N2 C14 C9 105.6(2) . . ?
C13 C14 C9 122.2(3) . . ?
N1 C15 N2 112.8(2) . . ?
N1 C15 C16 124.2(2) . . ?
N2 C15 C16 122.8(2) . . ?
N6 C16 C15 110.3(2) . . ?
N6 C16 H16A 109.6 . . ?
C15 C16 H16A 109.6 . . ?
N6 C16 H16B 109.6 . . ?
C15 C16 H16B 109.6 . . ?
H16A C16 H16B 108.1 . . ?
N4 C17 N6 110.1(2) . . ?
N4 C17 H17A 124.9 . . ?
N6 C17 H17A 124.9 . . ?
N5 C18 N4 114.9(2) . . ?
N5 C18 H18A 122.6 . . ?
N4 C18 H18A 122.6 . . ?
N3 C19 H19A 109.5 . . ?
N3 C19 H19B 109.5 . . ?
H19A C19 H19B 109.5 . . ?
N3 C19 H19C 109.5 . . ?
H19A C19 H19C 109.5 . . ?
H19B C19 H19C 109.5 . . ?
N3 C20 H20A 109.5 . . ?
N3 C20 H20B 109.5 . . ?
H20A C20 H20B 109.5 . . ?
N3 C20 H20C 109.5 . . ?
H20A C20 H20C 109.5 . . ?
H20B C20 H20C 109.5 . . ?
O8 C21 N3 127.9(5) . . ?
O8 C21 H21 116.0 . . ?
N3 C21 H21 116.0 . . ?

loop_
_geom_torsion_atom_site_label_1
_geom_torsion_atom_site_label_2
_geom_torsion_atom_site_label_3
_geom_torsion_atom_site_label_4
_geom_torsion
_geom_torsion_site_symmetry_1
_geom_torsion_site_symmetry_2
_geom_torsion_site_symmetry_3
_geom_torsion_site_symmetry_4
_geom_torsion_publ_flag
O3 Cd1 N1 C15 91.2(2) . . . . ?
O5 Cd1 N1 C15 -163.5(3) . . . . ?
N4 Cd1 N1 C15 -125.6(2) 2_677 . . . ?
O2 Cd1 N1 C15 9.9(2) . . . . ?
O1 Cd1 N1 C15 -43.1(2) . . . . ?
O3 Cd1 N1 C9 -73.60(18) . . . . ?
O5 Cd1 N1 C9 31.7(4) . . . . ?
N4 Cd1 N1 C9 69.59(18) 2_677 . . . ?
O2 Cd1 N1 C9 -154.87(17) . . . . ?
O1 Cd1 N1 C9 152.16(18) . . . . ?
C18 N5 N6 C17 0.8(3) . . . . ?
C18 N5 N6 C16 176.6(2) . . . . ?
O3 Cd1 O1 C1 26.4(2) . . . . ?
O5 Cd1 O1 C1 -81.59(18) . . . . ?
N4 Cd1 O1 C1 -161.98(18) 2_677 . . . ?
O2 Cd1 O1 C1 3.31(16) . . . . ?
N1 Cd1 O1 C1 110.20(18) . . . . ?
O3 Cd1 O2 C1 -166.84(17) . . . . ?
O5 Cd1 O2 C1 92.87(17) . . . . ?
N4 Cd1 O2 C1 17.3(2) 2_677 . . . ?
N1 Cd1 O2 C1 -85.58(17) . . . . ?
O1 Cd1 O2 C1 -3.27(16) . . . . ?
O5 Cd1 O3 C5 -67.38(17) . . . . ?
N4 Cd1 O3 C5 20.8(2) 2_677 . . . ?
O2 Cd1 O3 C5 -154.37(17) . . . . ?
N1 Cd1 O3 C5 99.23(17) . . . . ?
O1 Cd1 O3 C5 -172.90(15) . . . . ?
Cd1 O1 C1 O2 -5.9(3) . . . . ?
Cd1 O1 C1 C3 174.1(2) . . . . ?
Cd1 O2 C1 O1 6.2(3) . . . . ?
Cd1 O2 C1 C3 -173.8(2) . . . . ?
C4 C2 C3 C4 -0.2(5) 2_676 . . . ?
C4 C2 C3 C1 178.4(3) 2_676 . . . ?
O1 C1 C3 C4 -4.6(4) . . . . ?
O2 C1 C3 C4 175.3(3) . . . . ?
O1 C1 C3 C2 176.8(3) . . . . ?
O2 C1 C3 C2 -3.2(4) . . . . ?
C2 C3 C4 C2 0.2(5) . . . 2_676 ?
C1 C3 C4 C2 -178.4(3) . . . 2_676 ?
Cd1 O3 C5 O4 3.6(3) . . . . ?
Cd1 O3 C5 C7 -174.36(18) . . . . ?
C8 C6 C7 C8 0.0(5) 2_767 . . . ?
C8 C6 C7 C5 178.5(2) 2_767 . . . ?
O4 C5 C7 C6 160.4(3) . . . . ?
O3 C5 C7 C6 -21.6(4) . . . . ?
O4 C5 C7 C8 -21.2(4) . . . . ?
O3 C5 C7 C8 156.8(3) . . . . ?
C6 C7 C8 C6 0.0(4) . . . 2_767 ?
C5 C7 C8 C6 -178.5(2) . . . 2_767 ?
C15 N1 C9 C14 -0.7(3) . . . . ?
Cd1 N1 C9 C14 167.79(16) . . . . ?
C15 N1 C9 C10 179.8(3) . . . . ?
Cd1 N1 C9 C10 -11.7(4) . . . . ?
N1 C9 C10 C11 178.1(3) . . . . ?
C14 C9 C10 C11 -1.3(4) . . . . ?
C9 C10 C11 C12 -0.7(5) . . . . ?
C10 C11 C12 C13 2.0(5) . . . . ?
C11 C12 C13 C14 -1.3(5) . . . . ?
C15 N2 C14 C13 177.4(3) . . . . ?
C15 N2 C14 C9 -1.1(3) . . . . ?
C12 C13 C14 N2 -178.9(3) . . . . ?
C12 C13 C14 C9 -0.7(4) . . . . ?
N1 C9 C14 N2 1.1(3) . . . . ?
C10 C9 C14 N2 -179.3(2) . . . . ?
N1 C9 C14 C13 -177.5(2) . . . . ?
C10 C9 C14 C13 2.0(4) . . . . ?
C9 N1 C15 N2 0.0(3) . . . . ?
Cd1 N1 C15 N2 -166.48(16) . . . . ?
C9 N1 C15 C16 -176.6(2) . . . . ?
Cd1 N1 C15 C16 16.9(4) . . . . ?
C14 N2 C15 N1 0.7(3) . . . . ?
C14 N2 C15 C16 177.4(2) . . . . ?
C17 N6 C16 C15 -9.8(4) . . . . ?
N5 N6 C16 C15 175.3(2) . . . . ?
N1 C15 C16 N6 80.0(3) . . . . ?
N2 C15 C16 N6 -96.4(3) . . . . ?
C18 N4 C17 N6 0.1(3) . . . . ?
Cd1 N4 C17 N6 -177.27(16) 2_677 . . . ?
N5 N6 C17 N4 -0.5(3) . . . . ?
C16 N6 C17 N4 -175.8(2) . . . . ?
N6 N5 C18 N4 -0.8(3) . . . . ?
C17 N4 C18 N5 0.5(3) . . . . ?
Cd1 N4 C18 N5 176.8(2) 2_677 . . . ?
C19 N3 C21 O8 1.8(8) . . . . ?
C20 N3 C21 O8 -178.8(5) . . . . ?

loop_
_geom_hbond_atom_site_label_D
_geom_hbond_atom_site_label_H
_geom_hbond_atom_site_label_A
_geom_hbond_distance_DH
_geom_hbond_distance_HA
_geom_hbond_distance_DA
_geom_hbond_angle_DHA
_geom_hbond_site_symmetry_A
O5 H2W O6 0.85 1.90 2.731(3) 166.8 .
O6 H3W O7 0.85 2.04 2.816(4) 151.8 .
O7 H5W O8 0.85 1.87 2.716(4) 176.5 .
O7 H6W O2 0.85 1.92 2.752(3) 164.5 .
N2 H2A O3 0.86 1.95 2.760(3) 156.3 2_777
O5 H1W O4 0.85 1.94 2.789(3) 174.3 2_667
O6 H4W O7 0.85 2.03 2.864(4) 167.3 2_666

_diffrn_measured_fraction_theta_max 0.979
_diffrn_reflns_theta_full        25.50
_diffrn_measured_fraction_theta_full 0.979
_refine_diff_density_max         0.470
_refine_diff_density_min         -0.476
_refine_diff_density_rms         0.062


