####################################################################### 
# 
# This file contains crystal structure data downloaded from the 
# Cambridge Structural Database (CSD) hosted by the Cambridge 
# Crystallographic Data Centre (CCDC).
# 
# Full information about CCDC data access policies and citation 
# guidelines are available at http://www.ccdc.cam.ac.uk/access/V1 
# 
# Audit and citation data items may have been added by the CCDC. 
# Please retain this information to preserve the provenance of 
# this file and to allow appropriate attribution of the data. 
# 
#######################################################################

data_2
_audit_block_doi                 10.5517/ccyj7xl
_database_code_depnum_ccdc_archive 'CCDC 879560'
loop_
_citation_id
_citation_doi
_citation_year
1 10.5560/znb.2012-0140 2012
_audit_update_record             
;
2012-04-29 deposited with the CCDC.	2024-07-06 downloaded from the CCDC.
;

_audit_creation_method           SHELXL-97
_chemical_name_systematic        
;
?
;
_chemical_name_common            ?
_chemical_melting_point          ?
_chemical_formula_moiety         'C12 H12 I4 O6 S2 Zn, 2(C2 H6 O S0.97), O3.60'
_chemical_formula_sum            'C16 H24 I4 O12 S4 Zn'
_chemical_formula_weight         1101.17

loop_
_atom_type_symbol
_atom_type_description
_atom_type_scat_dispersion_real
_atom_type_scat_dispersion_imag
_atom_type_scat_source
C C 0.0033 0.0016 'International Tables Vol C Tables 4.2.6.8 and 6.1.1.4'
H H 0.0000 0.0000 'International Tables Vol C Tables 4.2.6.8 and 6.1.1.4'
O O 0.0106 0.0060 'International Tables Vol C Tables 4.2.6.8 and 6.1.1.4'
Zn Zn 0.2839 1.4301 'International Tables Vol C Tables 4.2.6.8 and 6.1.1.4'
I I -0.4742 1.8119 'International Tables Vol C Tables 4.2.6.8 and 6.1.1.4'
S S 0.1246 0.1234 'International Tables Vol C Tables 4.2.6.8 and 6.1.1.4'

_symmetry_cell_setting           Orthorhombic
_symmetry_space_group_name_H-M   Pnma

loop_
_symmetry_equiv_pos_as_xyz
'x, y, z'
'-x+1/2, -y, z+1/2'
'-x, y+1/2, -z'
'x+1/2, -y+1/2, -z+1/2'
'-x, -y, -z'
'x-1/2, y, -z-1/2'
'x, -y-1/2, z'
'-x-1/2, y-1/2, z-1/2'

_cell_length_a                   10.4923(9)
_cell_length_b                   20.0481(17)
_cell_length_c                   17.2999(14)
_cell_angle_alpha                90.00
_cell_angle_beta                 90.00
_cell_angle_gamma                90.00
_cell_volume                     3639.0(5)
_cell_formula_units_Z            4
_cell_measurement_temperature    296(2)
_cell_measurement_reflns_used    9778
_cell_measurement_theta_min      2.27
_cell_measurement_theta_max      28.26

_exptl_crystal_description       block
_exptl_crystal_colour            colorless
_exptl_crystal_size_max          0.28
_exptl_crystal_size_mid          0.26
_exptl_crystal_size_min          0.26
_exptl_crystal_density_meas      ?
_exptl_crystal_density_diffrn    2.010
_exptl_crystal_density_method    'not measured'
_exptl_crystal_F_000             2070.4
_exptl_absorpt_coefficient_mu    4.336
_exptl_absorpt_correction_type   multi-scan
_exptl_absorpt_correction_T_min  0.3068
_exptl_absorpt_correction_T_max  0.3289
_exptl_absorpt_process_details   sadabs

_exptl_special_details           
;
?
;

_diffrn_ambient_temperature      296(2)
_diffrn_radiation_wavelength     0.71073
_diffrn_radiation_type           MoK\a
_diffrn_radiation_source         'fine-focus sealed tube'
_diffrn_radiation_monochromator  graphite
_diffrn_measurement_device_type  'Bruker APEX-II CCD'
_diffrn_measurement_method       '\f and \w scans'
_diffrn_detector_area_resol_mean ?
_diffrn_standards_number         0
_diffrn_standards_interval_count ?
_diffrn_standards_interval_time  ?
_diffrn_standards_decay_%        ?
_diffrn_reflns_number            19806
_diffrn_reflns_av_R_equivalents  0.0330
_diffrn_reflns_av_sigmaI/netI    0.0243
_diffrn_reflns_limit_h_min       -12
_diffrn_reflns_limit_h_max       12
_diffrn_reflns_limit_k_min       -23
_diffrn_reflns_limit_k_max       24
_diffrn_reflns_limit_l_min       -20
_diffrn_reflns_limit_l_max       20
_diffrn_reflns_theta_min         1.55
_diffrn_reflns_theta_max         25.50
_reflns_number_total             3481
_reflns_number_gt                2941
_reflns_threshold_expression     >2sigma(I)

_computing_data_collection       'Bruker APEX2'
_computing_cell_refinement       'Bruker SAINT'
_computing_data_reduction        'Bruker SAINT'
_computing_structure_solution    'SHELXS-97 (Sheldrick, 1990)'
_computing_structure_refinement  'SHELXL-97 (Sheldrick, 1997)'
_computing_molecular_graphics    'Bruker SHELXTL'
_computing_publication_material  'Bruker SHELXTL'

_refine_special_details          
;
Refinement of F^2^ against ALL reflections. The weighted R-factor wR and
goodness of fit S are based on F^2^, conventional R-factors R are based
on F, with F set to zero for negative F^2^. The threshold expression of
F^2^ > 2sigma(F^2^) is used only for calculating R-factors(gt) etc. and is
not relevant to the choice of reflections for refinement. R-factors based
on F^2^ are statistically about twice as large as those based on F, and R-
factors based on ALL data will be even larger.
;

_refine_ls_structure_factor_coef Fsqd
_refine_ls_matrix_type           full
_refine_ls_weighting_scheme      calc
_refine_ls_weighting_details     
'calc w=1/[\s^2^(Fo^2^)+(0.0593P)^2^+11.2646P] where P=(Fo^2^+2Fc^2^)/3'
_atom_sites_solution_primary     direct
_atom_sites_solution_secondary   difmap
_atom_sites_solution_hydrogens   geom
_refine_ls_hydrogen_treatment    constr
_refine_ls_extinction_method     SHELXL
_refine_ls_extinction_coef       0.00037(9)
_refine_ls_extinction_expression Fc^*^=kFc[1+0.001xFc^2^\l^3^/sin(2\q)]^-1/4^
_refine_ls_number_reflns         3481
_refine_ls_number_parameters     201
_refine_ls_number_restraints     26
_refine_ls_R_factor_all          0.0495
_refine_ls_R_factor_gt           0.0406
_refine_ls_wR_factor_ref         0.1225
_refine_ls_wR_factor_gt          0.1179
_refine_ls_goodness_of_fit_ref   1.111
_refine_ls_restrained_S_all      1.120
_refine_ls_shift/su_max          0.006
_refine_ls_shift/su_mean         0.000

loop_
_atom_site_label
_atom_site_type_symbol
_atom_site_fract_x
_atom_site_fract_y
_atom_site_fract_z
_atom_site_U_iso_or_equiv
_atom_site_adp_type
_atom_site_occupancy
_atom_site_symmetry_multiplicity
_atom_site_calc_flag
_atom_site_refinement_flags
_atom_site_disorder_assembly
_atom_site_disorder_group
Zn1 Zn 0.15191(9) 0.2500 0.91026(5) 0.0417(2) Uani 1 2 d S . .
O1 O 0.0644(4) 0.1677(2) 0.9319(3) 0.0583(11) Uani 1 1 d . . .
O2 O 0.1784(5) 0.1533(3) 1.0381(3) 0.0667(13) Uani 1 1 d . . .
O3 O 0.3369(5) 0.2500 0.9217(4) 0.0556(16) Uani 1 2 d S . .
O4 O 0.1529(6) 0.2500 0.7948(4) 0.0660(19) Uani 1 2 d S . .
O6 O 0.6854(9) 0.2500 0.1581(5) 0.087(2) Uani 1 2 d SU A 1
O7 O 0.7016(8) 0.2718(4) 0.2402(4) 0.047(2) Uani 0.50 1 d PU . 2
O8 O 0.6057(14) 0.2500 0.2281(8) 0.138(4) Uani 1 2 d SU B 3
O9 O 0.629(4) 0.316(2) 0.273(2) 0.177(14) Uani 0.30 1 d PU C 4
S1 S 0.4047(2) 0.2500 0.99982(14) 0.0606(6) Uani 1 2 d S . .
S2 S 0.0475(3) 0.2500 0.73466(14) 0.0721(8) Uani 1 2 d S . .
C1 C -0.1125(5) -0.0116(3) 1.0411(3) 0.0439(12) Uani 1 1 d . . .
C2 C -0.0642(5) 0.0526(3) 1.0353(3) 0.0437(13) Uani 1 1 d . . .
C3 C 0.0490(6) 0.0645(3) 0.9942(3) 0.0450(13) Uani 1 1 d . . .
C4 C 0.1035(6) 0.1347(3) 0.9895(4) 0.0505(14) Uani 1 1 d . . .
C5 C 0.5106(11) 0.3173(7) 0.9942(7) 0.142(6) Uani 1 1 d . . .
H5A H 0.5675 0.3109 0.9514 0.214 Uiso 1 1 calc R . .
H5B H 0.5589 0.3202 1.0412 0.214 Uiso 1 1 calc R . .
H5C H 0.4635 0.3579 0.9869 0.214 Uiso 1 1 calc R . .
C6 C -0.0533(10) 0.3175(4) 0.7573(7) 0.101(3) Uani 1 1 d . . .
H6A H -0.0754 0.3158 0.8111 0.151 Uiso 1 1 calc R . .
H6B H -0.1294 0.3148 0.7266 0.151 Uiso 1 1 calc R . .
H6C H -0.0101 0.3586 0.7465 0.151 Uiso 1 1 calc R . .
I1 I -0.28216(5) -0.03256(3) 1.10099(3) 0.0688(2) Uani 1 1 d . . .
I2 I -0.15780(4) 0.13478(2) 1.08500(3) 0.06079(18) Uani 1 1 d . . .
O5 O 0.4555(10) -0.0554(5) 0.1688(8) 0.189(6) Uani 1 1 d . . .
S3 S 0.3589(5) -0.0171(3) 0.1209(3) 0.122(2) Uani 0.729(12) 1 d PD D 1
S3' S 0.3764(12) 0.0068(9) 0.1966(7) 0.118(7) Uani 0.239(12) 1 d P D -1
C7 C 0.2022(9) -0.0343(11) 0.1575(10) 0.222(11) Uani 1 1 d D . .
H7A H 0.2019 -0.0751 0.1865 0.333 Uiso 1 1 d R D .
H7B H 0.1410 -0.0372 0.1164 0.333 Uiso 1 1 d R . .
H7C H 0.1803 0.0022 0.1910 0.333 Uiso 1 1 d R . .
C8 C 0.394(3) 0.0666(5) 0.1508(17) 0.284(16) Uani 1 1 d D . .
H8A H 0.4751 0.0868 0.1394 0.426 Uiso 1 1 d R D .
H8B H 0.3941 0.0511 0.2033 0.426 Uiso 1 1 d R . .
H8C H 0.3277 0.0989 0.1440 0.426 Uiso 1 1 d R . .

loop_
_atom_site_aniso_label
_atom_site_aniso_U_11
_atom_site_aniso_U_22
_atom_site_aniso_U_33
_atom_site_aniso_U_23
_atom_site_aniso_U_13
_atom_site_aniso_U_12
Zn1 0.0380(5) 0.0465(5) 0.0407(5) 0.000 -0.0005(4) 0.000
O1 0.059(3) 0.052(2) 0.063(3) 0.013(2) -0.006(2) -0.007(2)
O2 0.073(3) 0.060(3) 0.068(3) -0.002(2) -0.009(3) -0.018(2)
O3 0.037(3) 0.083(5) 0.047(3) 0.000 -0.003(3) 0.000
O4 0.042(3) 0.118(6) 0.039(3) 0.000 -0.001(3) 0.000
O6 0.103(4) 0.085(4) 0.073(4) 0.000 0.019(3) 0.000
O7 0.051(3) 0.050(4) 0.040(3) 0.008(3) 0.010(3) -0.019(3)
O8 0.133(6) 0.155(6) 0.126(6) 0.000 0.009(4) 0.000
O9 0.176(15) 0.179(15) 0.175(15) -0.009(5) 0.004(5) -0.001(5)
S1 0.0486(12) 0.0826(17) 0.0508(13) 0.000 -0.0100(10) 0.000
S2 0.0644(16) 0.113(2) 0.0394(13) 0.000 -0.0086(11) 0.000
C1 0.039(3) 0.050(3) 0.044(3) -0.003(2) 0.006(2) -0.004(2)
C2 0.041(3) 0.044(3) 0.046(3) -0.004(2) 0.004(2) 0.004(2)
C3 0.043(3) 0.050(3) 0.042(3) 0.000(2) 0.001(2) -0.002(2)
C4 0.044(3) 0.054(3) 0.053(4) -0.001(3) 0.005(3) -0.001(3)
C5 0.115(9) 0.174(12) 0.138(10) 0.044(9) -0.063(8) -0.086(9)
C6 0.103(7) 0.070(5) 0.130(8) 0.005(5) -0.055(6) 0.005(5)
I1 0.0597(3) 0.0727(3) 0.0740(3) -0.0060(2) 0.0285(2) -0.0108(2)
I2 0.0550(3) 0.0556(3) 0.0717(3) -0.0123(2) 0.0076(2) 0.00776(19)
O5 0.143(8) 0.170(9) 0.255(13) 0.105(9) 0.101(9) 0.063(7)
S3 0.123(4) 0.158(5) 0.087(3) 0.024(3) 0.030(2) 0.027(3)
S3' 0.080(8) 0.194(17) 0.080(9) 0.010(8) 0.015(5) 0.037(8)
C7 0.164(16) 0.38(4) 0.118(13) 0.007(16) 0.007(12) -0.053(19)
C8 0.28(3) 0.153(17) 0.42(4) 0.07(2) -0.15(3) 0.041(19)

_geom_special_details            
;
All esds (except the esd in the dihedral angle between two l.s. planes)
are estimated using the full covariance matrix. The cell esds are taken
into account individually in the estimation of esds in distances, angles
and torsion angles; correlations between esds in cell parameters are only
used when they are defined by crystal symmetry. An approximate (isotropic)
treatment of cell esds is used for estimating esds involving l.s. planes.
;

loop_
_geom_bond_atom_site_label_1
_geom_bond_atom_site_label_2
_geom_bond_distance
_geom_bond_site_symmetry_2
_geom_bond_publ_flag
Zn1 O1 1.926(4) 7_565 ?
Zn1 O1 1.926(4) . ?
Zn1 O3 1.951(6) . ?
Zn1 O4 1.997(6) . ?
O1 C4 1.263(8) . ?
O2 C4 1.211(8) . ?
O3 S1 1.527(6) . ?
O4 S2 1.518(7) . ?
O7 O7 0.873(14) 7_565 ?
S1 C5 1.751(10) . ?
S1 C5 1.751(10) 7_565 ?
S2 C6 1.761(10) . ?
S2 C6 1.761(10) 7_565 ?
C1 C2 1.387(8) . ?
C1 C3 1.394(8) 5_557 ?
C1 I1 2.102(5) . ?
C2 C3 1.405(8) . ?
C2 I2 2.101(5) . ?
C3 C1 1.394(8) 5_557 ?
C3 C4 1.521(9) . ?
C5 H5A 0.9600 . ?
C5 H5B 0.9600 . ?
C5 H5C 0.9600 . ?
C6 H6A 0.9600 . ?
C6 H6B 0.9600 . ?
C6 H6C 0.9600 . ?
O5 S3 1.518(12) . ?
O5 S3' 1.573(17) . ?
S3 S3' 1.407(14) . ?
S3 C7 1.7956(10) . ?
S3 C8 1.7958(10) . ?
S3' C8 1.45(3) . ?
S3' C7 2.12(2) . ?
S3' H8B 0.9151 . ?
C7 H7A 0.9600 . ?
C7 H7B 0.9600 . ?
C7 H7C 0.9600 . ?
C8 H8A 0.9600 . ?
C8 H8B 0.9600 . ?
C8 H8C 0.9600 . ?

loop_
_geom_angle_atom_site_label_1
_geom_angle_atom_site_label_2
_geom_angle_atom_site_label_3
_geom_angle
_geom_angle_site_symmetry_1
_geom_angle_site_symmetry_3
_geom_angle_publ_flag
O1 Zn1 O1 118.0(3) 7_565 . ?
O1 Zn1 O3 117.04(15) 7_565 . ?
O1 Zn1 O3 117.04(15) . . ?
O1 Zn1 O4 101.35(17) 7_565 . ?
O1 Zn1 O4 101.35(17) . . ?
O3 Zn1 O4 95.5(3) . . ?
C4 O1 Zn1 116.5(4) . . ?
S1 O3 Zn1 123.6(4) . . ?
S2 O4 Zn1 133.0(4) . . ?
O3 S1 C5 104.3(4) . . ?
O3 S1 C5 104.3(4) . 7_565 ?
C5 S1 C5 100.9(10) . 7_565 ?
O4 S2 C6 106.5(3) . . ?
O4 S2 C6 106.5(3) . 7_565 ?
C6 S2 C6 100.3(7) . 7_565 ?
C2 C1 C3 120.0(5) . 5_557 ?
C2 C1 I1 122.0(4) . . ?
C3 C1 I1 117.9(4) 5_557 . ?
C1 C2 C3 120.2(5) . . ?
C1 C2 I2 121.8(4) . . ?
C3 C2 I2 118.0(4) . . ?
C1 C3 C2 119.8(5) 5_557 . ?
C1 C3 C4 120.0(5) 5_557 . ?
C2 C3 C4 120.2(5) . . ?
O2 C4 O1 126.7(6) . . ?
O2 C4 C3 119.4(6) . . ?
O1 C4 C3 113.9(6) . . ?
S1 C5 H5A 109.5 . . ?
S1 C5 H5B 109.5 . . ?
H5A C5 H5B 109.5 . . ?
S1 C5 H5C 109.5 . . ?
H5A C5 H5C 109.5 . . ?
H5B C5 H5C 109.5 . . ?
S2 C6 H6A 109.5 . . ?
S2 C6 H6B 109.5 . . ?
H6A C6 H6B 109.5 . . ?
S2 C6 H6C 109.5 . . ?
H6A C6 H6C 109.5 . . ?
H6B C6 H6C 109.5 . . ?
S3 O5 S3' 54.1(6) . . ?
S3' S3 O5 64.9(8) . . ?
S3' S3 C7 81.7(8) . . ?
O5 S3 C7 108.8(8) . . ?
S3' S3 C8 52.1(11) . . ?
O5 S3 C8 100.2(9) . . ?
C7 S3 C8 105.5(12) . . ?
S3 S3' C8 77.9(9) . . ?
S3 S3' O5 60.9(8) . . ?
C8 S3' O5 114.9(14) . . ?
S3 S3' C7 57.1(7) . . ?
C8 S3' C7 105.0(11) . . ?
O5 S3' C7 92.9(11) . . ?
S3 S3' H8B 118.4 . . ?
C8 S3' H8B 40.5 . . ?
O5 S3' H8B 134.5 . . ?
C7 S3' H8B 126.4 . . ?
S3 C7 S3' 41.2(4) . . ?
S3 C7 H7A 110.5 . . ?
S3' C7 H7A 99.6 . . ?
S3 C7 H7B 111.2 . . ?
S3' C7 H7B 147.0 . . ?
H7A C7 H7B 109.5 . . ?
S3 C7 H7C 106.6 . . ?
S3' C7 H7C 73.6 . . ?
H7A C7 H7C 109.5 . . ?
H7B C7 H7C 109.5 . . ?
S3' C8 S3 50.0(6) . . ?
S3' C8 H8A 125.1 . . ?
S3 C8 H8A 121.1 . . ?
S3' C8 H8B 38.3 . . ?
S3 C8 H8B 88.3 . . ?
H8A C8 H8B 109.5 . . ?
S3' C8 H8C 122.1 . . ?
S3 C8 H8C 116.4 . . ?
H8A C8 H8C 109.5 . . ?
H8B C8 H8C 109.5 . . ?

loop_
_geom_torsion_atom_site_label_1
_geom_torsion_atom_site_label_2
_geom_torsion_atom_site_label_3
_geom_torsion_atom_site_label_4
_geom_torsion
_geom_torsion_site_symmetry_1
_geom_torsion_site_symmetry_2
_geom_torsion_site_symmetry_3
_geom_torsion_site_symmetry_4
_geom_torsion_publ_flag
O1 Zn1 O1 C4 -107.7(5) 7_565 . . . ?
O3 Zn1 O1 C4 40.5(5) . . . . ?
O4 Zn1 O1 C4 142.8(5) . . . . ?
O1 Zn1 O3 S1 74.25(19) 7_565 . . . ?
O1 Zn1 O3 S1 -74.25(19) . . . . ?
O4 Zn1 O3 S1 180.0 . . . . ?
O1 Zn1 O4 S2 -60.96(15) 7_565 . . . ?
O1 Zn1 O4 S2 60.96(15) . . . . ?
O3 Zn1 O4 S2 180.000(1) . . . . ?
Zn1 O3 S1 C5 -127.3(5) . . . . ?
Zn1 O3 S1 C5 127.3(6) . . . 7_565 ?
Zn1 O4 S2 C6 53.2(4) . . . . ?
Zn1 O4 S2 C6 -53.2(4) . . . 7_565 ?
C3 C1 C2 C3 -0.4(10) 5_557 . . . ?
I1 C1 C2 C3 -179.5(4) . . . . ?
C3 C1 C2 I2 178.5(4) 5_557 . . . ?
I1 C1 C2 I2 -0.6(7) . . . . ?
C1 C2 C3 C1 0.4(10) . . . 5_557 ?
I2 C2 C3 C1 -178.6(4) . . . 5_557 ?
C1 C2 C3 C4 -178.6(6) . . . . ?
I2 C2 C3 C4 2.5(8) . . . . ?
Zn1 O1 C4 O2 10.4(9) . . . . ?
Zn1 O1 C4 C3 -168.6(4) . . . . ?
C1 C3 C4 O2 -88.7(8) 5_557 . . . ?
C2 C3 C4 O2 90.2(8) . . . . ?
C1 C3 C4 O1 90.4(7) 5_557 . . . ?
C2 C3 C4 O1 -90.7(7) . . . . ?
S3' O5 S3 C7 -70.9(11) . . . . ?
S3' O5 S3 C8 39.4(13) . . . . ?
O5 S3 S3' C8 127.7(13) . . . . ?
C7 S3 S3' C8 -117.0(14) . . . . ?
C7 S3 S3' O5 115.3(10) . . . . ?
C8 S3 S3' O5 -127.7(13) . . . . ?
O5 S3 S3' C7 -115.3(10) . . . . ?
C8 S3 S3' C7 117.0(14) . . . . ?
S3 O5 S3' C8 -58.5(11) . . . . ?
S3 O5 S3' C7 49.5(6) . . . . ?
O5 S3 C7 S3' 59.9(10) . . . . ?
C8 S3 C7 S3' -46.8(10) . . . . ?
C8 S3' C7 S3 64.4(13) . . . . ?
O5 S3' C7 S3 -52.3(7) . . . . ?
O5 S3' C8 S3 49.7(10) . . . . ?
C7 S3' C8 S3 -50.8(8) . . . . ?
O5 S3 C8 S3' -46.8(11) . . . . ?
C7 S3 C8 S3' 66.1(11) . . . . ?

_diffrn_measured_fraction_theta_max 0.999
_diffrn_reflns_theta_full        25.50
_diffrn_measured_fraction_theta_full 0.999
_refine_diff_density_max         1.035
_refine_diff_density_min         -0.750
_refine_diff_density_rms         0.162

