
#######################################################################
#
#                 Cambridge Crystallographic Data Centre
#                                CCDC
#
#######################################################################
#
# If this CIF has been generated from an entry in the Cambridge
# Structural Database, then it will include bibliographic, chemical,
# crystal, experimental, refinement or atomic coordinate data resulting
# from the CCDC's data processing and validation procedures.
#
#######################################################################

data_CSD_CIF_ACIFEX
_audit_creation_date 2002-02-27
_audit_creation_method CSD-ConQuest-V1
_database_code_CSD ACIFEX
_database_code_depnum_ccdc_archive 'CCDC 176009'
_chemical_formula_sum 'C10 H16'
_chemical_formula_moiety
;
C10 H16
;
_journal_coeditor_code "IUCr CV6064"
_journal_coden_Cambridge 1370
_journal_volume 57
_journal_year 2001
_journal_page_first o1039
_journal_name_full 'Acta Crystallogr.,Sect.E:Struct.Rep.Online '
loop_
_publ_author_name
"A.D.Bond"
"J.E.Davies"
_chemical_name_systematic
;
(1S)-(-)-\a-Pinene
;
_chemical_name_common
;
Teaching Subset: Fundamental Chemistry
;
_cell_volume    869.494
_exptl_crystal_colour 'colorless'
_exptl_crystal_density_diffrn 1.041
_exptl_crystal_description 'cylinder'
_diffrn_ambient_temperature 203
#These two values have been output from a single CSD field.
_refine_ls_R_factor_gt 0.0457
_refine_ls_wR_factor_gt 0.0457
_symmetry_cell_setting orthorhombic
_symmetry_space_group_name_H-M 'P 21 21 21'
_symmetry_Int_Tables_number 19
loop_
_symmetry_equiv_pos_site_id
_symmetry_equiv_pos_as_xyz
1 x,y,z
2 1/2-x,-y,1/2+z
3 1/2+x,1/2-y,-z
4 -x,1/2+y,1/2-z
_cell_length_a 7.1944(6)
_cell_length_b 7.5920(3)
_cell_length_c 15.9190(15)
_cell_angle_alpha 90
_cell_angle_beta 90
_cell_angle_gamma 90
_cell_formula_units_Z 4
loop_
_atom_type_symbol
_atom_type_radius_bond
C 0.68
H 0.23
loop_
_atom_site_label
_atom_site_type_symbol
_atom_site_fract_x
_atom_site_fract_y
_atom_site_fract_z
C1 C 0.8184(3) -0.0414(3) 0.34005(13)
H1 H 0.84670 -0.14690 0.30580
C2 C 0.7443(3) -0.0758(3) 0.42735(12)
C3 C 0.7112(3) 0.0642(3) 0.47423(13)
H2 H 0.66840 0.05010 0.52960
C4 C 0.7418(3) 0.2465(3) 0.43954(13)
H3 H 0.82820 0.31110 0.47580
H4 H 0.62360 0.31070 0.43850
C5 C 0.8211(3) 0.2352(3) 0.35071(13)
H5 H 0.85240 0.34950 0.32430
C6 C 0.7035(3) 0.1064(3) 0.29525(12)
C7 C 0.9778(3) 0.0946(3) 0.34910(14)
H6 H 1.06030 0.10210 0.30020
H7 H 1.04830 0.08500 0.40160
C8 C 0.4934(3) 0.1089(3) 0.30463(14)
H8 H 0.43970 0.01560 0.27090
H9 H 0.44570 0.22170 0.28590
H10 H 0.46080 0.09110 0.36310
C9 C 0.7516(3) 0.1208(3) 0.20215(13)
H11 H 0.69260 0.02540 0.17170
H12 H 0.88530 0.11350 0.19510
H13 H 0.70750 0.23270 0.18050
C10 C 0.7134(4) -0.2629(3) 0.45502(15)
H14 H 0.67570 -0.26440 0.51350
H15 H 0.82780 -0.32920 0.44850
H16 H 0.61680 -0.31590 0.42080
#END
