####################################################################### 
# 
# This file contains crystal structure data downloaded from the 
# Cambridge Structural Database (CSD) hosted by the Cambridge 
# Crystallographic Data Centre (CCDC).
# 
# Full information about CCDC data access policies and citation 
# guidelines are available at http://www.ccdc.cam.ac.uk/access/V1 
# 
# Audit and citation data items may have been added by the CCDC. 
# Please retain this information to preserve the provenance of 
# this file and to allow appropriate attribution of the data. 
# 
#######################################################################

data_MOF-CJ3
_audit_block_doi                 10.5517/cc9d0rf
_database_code_depnum_ccdc_archive 'CCDC 279674'
loop_
_citation_id
_citation_doi
_citation_year
1 10.1016/j.micromeso.2005.11.049 2006
_audit_update_record             
;
2005-07-28 deposited with the CCDC.	2024-07-06 downloaded from the CCDC.
;

_audit_creation_method           SHELXL-97
_chemical_name_systematic        
;
?
;
_chemical_name_common            ?
_chemical_melting_point          ?
_chemical_formula_moiety         ?
_chemical_formula_sum            'C21 H21 N O17 Zn3'
_chemical_formula_weight         755.50

loop_
_atom_type_symbol
_atom_type_description
_atom_type_scat_dispersion_real
_atom_type_scat_dispersion_imag
_atom_type_scat_source
C C 0.0033 0.0016 'International Tables Vol C Tables 4.2.6.8 and 6.1.1.4'
H H 0.0000 0.0000 'International Tables Vol C Tables 4.2.6.8 and 6.1.1.4'
N N 0.0061 0.0033 'International Tables Vol C Tables 4.2.6.8 and 6.1.1.4'
O O 0.0106 0.0060 'International Tables Vol C Tables 4.2.6.8 and 6.1.1.4'
Zn Zn 0.2839 1.4301 'International Tables Vol C Tables 4.2.6.8 and 6.1.1.4'

_symmetry_cell_setting           ?
_symmetry_space_group_name_H-M   ?

loop_
_symmetry_equiv_pos_as_xyz
'x, y, z'
'-x, -y, z'
'-y, x, z'
'y, -x, z'
'x, -y, z+1/2'
'-x, y, z+1/2'
'-y, -x, z+1/2'
'y, x, z+1/2'
'x+1/2, y+1/2, z+1/2'
'-x+1/2, -y+1/2, z+1/2'
'-y+1/2, x+1/2, z+1/2'
'y+1/2, -x+1/2, z+1/2'
'x+1/2, -y+1/2, z+1'
'-x+1/2, y+1/2, z+1'
'-y+1/2, -x+1/2, z+1'
'y+1/2, x+1/2, z+1'

_cell_length_a                   20.588(3)
_cell_length_b                   20.588(3)
_cell_length_c                   17.832(4)
_cell_angle_alpha                90.00
_cell_angle_beta                 90.00
_cell_angle_gamma                90.00
_cell_volume                     7558(2)
_cell_formula_units_Z            8
_cell_measurement_temperature    293(2)
_cell_measurement_reflns_used    ?
_cell_measurement_theta_min      ?
_cell_measurement_theta_max      ?

_exptl_crystal_description       ?
_exptl_crystal_colour            ?
_exptl_crystal_size_max          ?
_exptl_crystal_size_mid          ?
_exptl_crystal_size_min          ?
_exptl_crystal_density_meas      ?
_exptl_crystal_density_diffrn    1.328
_exptl_crystal_density_method    'not measured'
_exptl_crystal_F_000             3040
_exptl_absorpt_coefficient_mu    1.948
_exptl_absorpt_correction_type   ?
_exptl_absorpt_correction_T_min  ?
_exptl_absorpt_correction_T_max  ?
_exptl_absorpt_process_details   ?

_exptl_special_details           
;
?
;

_diffrn_ambient_temperature      293(2)
_diffrn_radiation_wavelength     0.71073
_diffrn_radiation_type           MoK\a
_diffrn_radiation_source         'fine-focus sealed tube'
_diffrn_radiation_monochromator  graphite
_diffrn_measurement_device_type  ?
_diffrn_measurement_method       ?
_diffrn_detector_area_resol_mean ?
_diffrn_standards_number         ?
_diffrn_standards_interval_count ?
_diffrn_standards_interval_time  ?
_diffrn_standards_decay_%        ?
_diffrn_reflns_number            35323
_diffrn_reflns_av_R_equivalents  0.0719
_diffrn_reflns_av_sigmaI/netI    0.0440
_diffrn_reflns_limit_h_min       -26
_diffrn_reflns_limit_h_max       26
_diffrn_reflns_limit_k_min       -26
_diffrn_reflns_limit_k_max       26
_diffrn_reflns_limit_l_min       -22
_diffrn_reflns_limit_l_max       23
_diffrn_reflns_theta_min         3.02
_diffrn_reflns_theta_max         27.45
_reflns_number_total             4398
_reflns_number_gt                3858
_reflns_threshold_expression     >2sigma(I)

_computing_data_collection       ?
_computing_cell_refinement       ?
_computing_data_reduction        ?
_computing_structure_solution    'SHELXS-97 (Sheldrick, 1990)'
_computing_structure_refinement  'SHELXL-97 (Sheldrick, 1997)'
_computing_molecular_graphics    ?
_computing_publication_material  ?

_refine_special_details          
;
Refinement of F^2^ against ALL reflections. The weighted R-factor wR and
goodness of fit S are based on F^2^, conventional R-factors R are based
on F, with F set to zero for negative F^2^. The threshold expression of
F^2^ > 2sigma(F^2^) is used only for calculating R-factors(gt) etc. and is
not relevant to the choice of reflections for refinement. R-factors based
on F^2^ are statistically about twice as large as those based on F, and R-
factors based on ALL data will be even larger.
;

_refine_ls_structure_factor_coef Fsqd
_refine_ls_matrix_type           full
_refine_ls_weighting_scheme      calc
_refine_ls_weighting_details     
'calc w=1/[\s^2^(Fo^2^)+(0.1304P)^2^+5.5780P] where P=(Fo^2^+2Fc^2^)/3'
_atom_sites_solution_primary     direct
_atom_sites_solution_secondary   difmap
_atom_sites_solution_hydrogens   geom
_refine_ls_hydrogen_treatment    mixed
_refine_ls_extinction_method     none
_refine_ls_extinction_coef       ?
_refine_ls_abs_structure_details 'Flack H D (1983), Acta Cryst. A39, 876-881'
_refine_ls_abs_structure_Flack   0.05(3)
_refine_ls_number_reflns         4398
_refine_ls_number_parameters     202
_refine_ls_number_restraints     1
_refine_ls_R_factor_all          0.0671
_refine_ls_R_factor_gt           0.0586
_refine_ls_wR_factor_ref         0.1868
_refine_ls_wR_factor_gt          0.1789
_refine_ls_goodness_of_fit_ref   1.100
_refine_ls_restrained_S_all      1.100
_refine_ls_shift/su_max          0.006
_refine_ls_shift/su_mean         0.000

loop_
_atom_site_label
_atom_site_type_symbol
_atom_site_fract_x
_atom_site_fract_y
_atom_site_fract_z
_atom_site_U_iso_or_equiv
_atom_site_adp_type
_atom_site_occupancy
_atom_site_symmetry_multiplicity
_atom_site_calc_flag
_atom_site_refinement_flags
_atom_site_disorder_assembly
_atom_site_disorder_group
Zn1 Zn 0.65692(3) 0.84308(3) 0.72726(5) 0.0261(2) Uani 1 2 d S . .
Zn2 Zn 0.74282(3) 0.88013(3) 0.58142(4) 0.0355(2) Uani 1 1 d . . .
O1 O 0.8082(2) 0.8261(3) 0.6335(2) 0.0490(12) Uani 1 1 d . . .
O2 O 0.7583(2) 0.8380(3) 0.7431(3) 0.0492(13) Uani 1 1 d . . .
O3 O 0.7643(3) 0.8704(3) 0.4762(3) 0.0551(15) Uani 1 1 d . . .
O4 O 0.6872(4) 0.9434(3) 0.4633(3) 0.074(2) Uani 1 1 d . . .
O5 O 0.6635(2) 0.9444(2) 0.7192(3) 0.0400(10) Uani 1 1 d . . .
O6 O 0.7426(3) 0.9635(3) 0.6331(3) 0.0521(13) Uani 1 1 d . . .
O7 O 0.65999(19) 0.84001(19) 0.6089(3) 0.0321(13) Uani 1 2 d S . .
O8 O 0.6434(3) 0.8566(3) 0.8400(4) 0.0539(19) Uani 1 2 d S . .
O1W O 0.5698(5) 0.9302(5) 0.5414(9) 0.122(5) Uani 1 2 d S . .
O2W O 0.6556(5) 0.9182(5) 0.5573(4) 0.104(3) Uani 1 1 d . . .
C1 C 0.8590(3) 0.7832(3) 0.7411(3) 0.0354(12) Uani 1 1 d . . .
C2 C 0.8566(3) 0.7718(3) 0.8179(3) 0.0363(13) Uani 1 1 d . . .
H2 H 0.8213 0.7864 0.8458 0.080 Uiso 1 1 calc . . .
C3 C 0.9075(3) 0.7382(3) 0.8535(3) 0.0363(13) Uani 1 1 d . . .
C4 C 0.9599(3) 0.7160(3) 0.8121(3) 0.0358(12) Uani 1 1 d . . .
H4 H 0.9930 0.6928 0.8355 0.080 Uiso 1 1 calc . . .
C5 C 0.9629(3) 0.7285(3) 0.7350(3) 0.0355(12) Uani 1 1 d . . .
C6 C 0.9126(3) 0.7629(4) 0.7001(3) 0.0388(14) Uani 1 1 d . . .
H6 H 0.9150 0.7721 0.6492 0.080 Uiso 1 1 calc . . .
C7 C 0.8038(3) 0.8181(3) 0.7031(3) 0.0398(14) Uani 1 1 d . . .
C8 C 0.7279(4) 0.9078(3) 0.4371(3) 0.0437(15) Uani 1 1 d . . .
C9 C 0.7095(3) 0.9765(3) 0.6920(3) 0.0384(14) Uani 1 1 d . . .
C10 C 0.6681(5) 0.8319(5) 0.8862(9) 0.078(4) Uani 1 2 d S . .
C11 C 0.6910(15) 0.8090(15) 1.0194(15) 0.93(15) Uani 1 2 d S . .
C12 C 0.6105(6) 0.8895(6) 0.9792(14) 0.21(2) Uani 1 2 d S . .
N1 N 0.6577(5) 0.8423(5) 0.9626(8) 0.102(5) Uani 1 2 d S . .

loop_
_atom_site_aniso_label
_atom_site_aniso_U_11
_atom_site_aniso_U_22
_atom_site_aniso_U_33
_atom_site_aniso_U_23
_atom_site_aniso_U_13
_atom_site_aniso_U_12
Zn1 0.0313(3) 0.0313(3) 0.0156(4) -0.0017(2) 0.0017(2) 0.0028(3)
Zn2 0.0429(4) 0.0443(4) 0.0193(3) -0.0013(3) 0.0019(3) 0.0069(2)
O1 0.049(3) 0.077(3) 0.0215(19) 0.000(2) -0.0070(19) 0.025(2)
O2 0.035(2) 0.087(4) 0.026(2) -0.002(2) -0.0032(17) 0.019(2)
O3 0.074(4) 0.073(4) 0.018(2) 0.005(2) 0.013(2) 0.017(3)
O4 0.113(5) 0.074(4) 0.034(3) 0.007(3) 0.032(3) 0.041(4)
O5 0.047(2) 0.0295(18) 0.044(3) -0.008(2) 0.005(2) -0.0067(16)
O6 0.083(4) 0.046(3) 0.028(2) -0.010(2) 0.011(2) -0.019(2)
O7 0.042(2) 0.042(2) 0.012(3) -0.0007(15) 0.0007(15) 0.005(2)
O8 0.072(3) 0.072(3) 0.018(3) -0.003(3) 0.003(3) -0.007(4)
O1W 0.132(8) 0.132(8) 0.103(9) 0.014(5) -0.014(5) 0.044(9)
O2W 0.168(9) 0.094(6) 0.050(4) 0.004(4) 0.005(4) -0.038(5)
C1 0.033(3) 0.048(3) 0.026(3) 0.001(2) -0.003(2) 0.005(2)
C2 0.033(3) 0.056(4) 0.020(3) 0.004(3) 0.007(2) 0.010(3)
C3 0.040(3) 0.051(3) 0.018(3) 0.011(2) 0.003(2) 0.006(3)
C4 0.033(3) 0.050(3) 0.024(3) 0.009(2) 0.000(2) 0.008(2)
C5 0.033(3) 0.055(3) 0.018(2) -0.001(2) 0.002(2) 0.006(2)
C6 0.036(3) 0.065(4) 0.015(2) 0.003(3) 0.001(2) 0.009(3)
C7 0.035(3) 0.056(4) 0.028(3) 0.002(3) -0.001(2) 0.014(3)
C8 0.069(4) 0.046(3) 0.016(3) 0.006(3) 0.012(3) 0.008(3)
C9 0.061(4) 0.033(3) 0.022(3) 0.000(2) 0.003(2) -0.014(3)
C10 0.093(7) 0.093(7) 0.048(7) -0.010(5) 0.010(5) 0.030(8)
C11 1.4(2) 1.4(2) 0.021(11) 0.015(10) -0.015(10) 1.2(2)
C12 0.27(3) 0.27(3) 0.079(14) 0.001(7) -0.001(7) 0.22(3)
N1 0.129(9) 0.129(9) 0.049(8) -0.009(5) 0.009(5) 0.020(9)

_geom_special_details            
;
All esds (except the esd in the dihedral angle between two l.s. planes)
are estimated using the full covariance matrix. The cell esds are taken
into account individually in the estimation of esds in distances, angles
and torsion angles; correlations between esds in cell parameters are only
used when they are defined by crystal symmetry. An approximate (isotropic)
treatment of cell esds is used for estimating esds involving l.s. planes.
;

loop_
_geom_bond_atom_site_label_1
_geom_bond_atom_site_label_2
_geom_bond_distance
_geom_bond_site_symmetry_2
_geom_bond_publ_flag
Zn1 O8 2.049(7) . ?
Zn1 O5 2.094(4) 15_664 ?
Zn1 O5 2.094(4) . ?
Zn1 O2 2.108(5) . ?
Zn1 O2 2.108(5) 15_664 ?
Zn1 O7 2.112(6) . ?
Zn2 O3 1.939(5) . ?
Zn2 O6 1.949(5) . ?
Zn2 O7 1.957(2) . ?
Zn2 O1 1.978(5) . ?
Zn2 O2W 2.005(11) . ?
O1 C7 1.254(7) . ?
O2 C7 1.247(8) . ?
O3 C8 1.281(10) . ?
O4 C8 1.206(9) . ?
O5 C9 1.253(7) . ?
O6 C9 1.279(8) . ?
O7 Zn2 1.957(2) 15_664 ?
O8 C10 1.093(17) . ?
O1W O2W 1.806(13) 15_664 ?
O1W O2W 1.806(13) . ?
C1 C6 1.387(9) . ?
C1 C2 1.390(9) . ?
C1 C7 1.507(8) . ?
C2 C3 1.406(9) . ?
C2 H2 0.9300 . ?
C3 C4 1.384(8) . ?
C3 C8 1.507(8) 8 ?
C4 C5 1.402(8) . ?
C4 H4 0.9300 . ?
C5 C6 1.400(8) . ?
C5 C9 1.517(7) 3_755 ?
C6 H6 0.9300 . ?
C8 C3 1.507(8) 8_554 ?
C9 C5 1.517(7) 4_575 ?
C10 N1 1.40(2) . ?
C11 N1 1.40(4) . ?
C12 N1 1.41(2) . ?

loop_
_geom_angle_atom_site_label_1
_geom_angle_atom_site_label_2
_geom_angle_atom_site_label_3
_geom_angle
_geom_angle_site_symmetry_1
_geom_angle_site_symmetry_3
_geom_angle_publ_flag
O8 Zn1 O5 86.6(2) . 15_664 ?
O8 Zn1 O5 86.6(2) . . ?
O5 Zn1 O5 97.1(2) 15_664 . ?
O8 Zn1 O2 90.5(2) . . ?
O5 Zn1 O2 172.4(2) 15_664 . ?
O5 Zn1 O2 89.7(2) . . ?
O8 Zn1 O2 90.5(2) . 15_664 ?
O5 Zn1 O2 89.7(2) 15_664 15_664 ?
O5 Zn1 O2 172.4(2) . 15_664 ?
O2 Zn1 O2 83.3(3) . 15_664 ?
O8 Zn1 O7 171.4(3) . . ?
O5 Zn1 O7 87.69(18) 15_664 . ?
O5 Zn1 O7 87.69(18) . . ?
O2 Zn1 O7 95.90(17) . . ?
O2 Zn1 O7 95.90(17) 15_664 . ?
O3 Zn2 O6 123.4(2) . . ?
O3 Zn2 O7 113.4(3) . . ?
O6 Zn2 O7 104.5(2) . . ?
O3 Zn2 O1 104.0(2) . . ?
O6 Zn2 O1 106.0(2) . . ?
O7 Zn2 O1 103.7(2) . . ?
O3 Zn2 O2W 92.1(3) . . ?
O6 Zn2 O2W 75.8(3) . . ?
O7 Zn2 O2W 55.8(3) . . ?
O1 Zn2 O2W 158.3(3) . . ?
C7 O1 Zn2 119.3(4) . . ?
C7 O2 Zn1 133.1(4) . . ?
C8 O3 Zn2 109.3(5) . . ?
C9 O5 Zn1 126.9(4) . . ?
C9 O6 Zn2 125.0(4) . . ?
Zn2 O7 Zn2 132.3(3) 15_664 . ?
Zn2 O7 Zn1 105.30(18) 15_664 . ?
Zn2 O7 Zn1 105.30(18) . . ?
C10 O8 Zn1 127.8(10) . . ?
O2W O1W O2W 73.0(7) 15_664 . ?
O1W O2W Zn2 164.3(6) . . ?
C6 C1 C2 119.7(6) . . ?
C6 C1 C7 120.5(6) . . ?
C2 C1 C7 119.8(5) . . ?
C1 C2 C3 120.1(5) . . ?
C1 C2 H2 120.0 . . ?
C3 C2 H2 120.0 . . ?
C4 C3 C2 120.1(5) . . ?
C4 C3 C8 118.5(5) . 8 ?
C2 C3 C8 121.3(6) . 8 ?
C3 C4 C5 119.8(5) . . ?
C3 C4 H4 120.1 . . ?
C5 C4 H4 120.1 . . ?
C6 C5 C4 119.7(5) . . ?
C6 C5 C9 121.1(5) . 3_755 ?
C4 C5 C9 119.0(5) . 3_755 ?
C1 C6 C5 120.5(6) . . ?
C1 C6 H6 119.8 . . ?
C5 C6 H6 119.8 . . ?
O2 C7 O1 125.3(6) . . ?
O2 C7 C1 117.8(5) . . ?
O1 C7 C1 116.9(5) . . ?
O4 C8 O3 124.2(6) . . ?
O4 C8 C3 118.9(6) . 8_554 ?
O3 C8 C3 116.9(6) . 8_554 ?
O5 C9 O6 127.6(6) . . ?
O5 C9 C5 115.7(5) . 4_575 ?
O6 C9 C5 116.7(5) . 4_575 ?
O8 C10 N1 126.3(14) . . ?
C10 N1 C11 124(2) . . ?
C10 N1 C12 114.7(16) . . ?
C11 N1 C12 122(2) . . ?

_diffrn_measured_fraction_theta_max 0.992
_diffrn_reflns_theta_full        27.45
_diffrn_measured_fraction_theta_full 0.992
_refine_diff_density_max         0.815
_refine_diff_density_min         -0.898
_refine_diff_density_rms         0.150


