####################################################################### 
# 
# This file contains crystal structure data downloaded from the 
# Cambridge Structural Database (CSD) hosted by the Cambridge 
# Crystallographic Data Centre (CCDC).
# 
# Full information about CCDC data access policies and citation 
# guidelines are available at http://www.ccdc.cam.ac.uk/access/V1 
# 
# Audit and citation data items may have been added by the CCDC. 
# Please retain this information to preserve the provenance of 
# this file and to allow appropriate attribution of the data. 
# 
#######################################################################

data_ic10303
_audit_block_doi                 10.5517/cc9h6fd
_database_code_depnum_ccdc_archive 'CCDC 282733'
loop_
_citation_id
_citation_doi
_citation_year
1 10.1002/ejic.200501060 2006
_audit_update_record             
;
2005-08-30 deposited with the CCDC.	2024-07-06 downloaded from the CCDC.
;

_audit_creation_method           SHELXL-97
_chemical_name_systematic        
;
?
;
_chemical_name_common            ?
_chemical_melting_point          ?
_chemical_formula_moiety         ?
_chemical_formula_sum            'C22 H40 Br2 N6 O7 S Zn'
_chemical_formula_weight         757.85

loop_
_atom_type_symbol
_atom_type_description
_atom_type_scat_dispersion_real
_atom_type_scat_dispersion_imag
_atom_type_scat_source
C C 0.0033 0.0016 'International Tables Vol C Tables 4.2.6.8 and 6.1.1.4'
H H 0.0000 0.0000 'International Tables Vol C Tables 4.2.6.8 and 6.1.1.4'
N N 0.0061 0.0033 'International Tables Vol C Tables 4.2.6.8 and 6.1.1.4'
O O 0.0106 0.0060 'International Tables Vol C Tables 4.2.6.8 and 6.1.1.4'
S S 0.1246 0.1234 'International Tables Vol C Tables 4.2.6.8 and 6.1.1.4'
Zn Zn 0.2839 1.4301 'International Tables Vol C Tables 4.2.6.8 and 6.1.1.4'
Br Br -0.2901 2.4595 'International Tables Vol C Tables 4.2.6.8 and 6.1.1.4'

_symmetry_cell_setting           Monoclinic
_symmetry_space_group_name_H-M   P2(1)/c

loop_
_symmetry_equiv_pos_as_xyz
'x, y, z'
'-x, y+1/2, -z+1/2'
'-x, -y, -z'
'x, -y-1/2, z-1/2'

_cell_length_a                   10.5783(5)
_cell_length_b                   26.5867(12)
_cell_length_c                   15.7293(7)
_cell_angle_alpha                90.00
_cell_angle_beta                 108.604(2)
_cell_angle_gamma                90.00
_cell_volume                     4192.6(3)
_cell_formula_units_Z            4
_cell_measurement_temperature    295(2)
_cell_measurement_reflns_used    4149
_cell_measurement_theta_min      2.17
_cell_measurement_theta_max      19.30

_exptl_crystal_description       rod
_exptl_crystal_colour            colorless
_exptl_crystal_size_max          0.80
_exptl_crystal_size_mid          0.25
_exptl_crystal_size_min          0.20
_exptl_crystal_density_meas      0
_exptl_crystal_density_diffrn    1.201
_exptl_crystal_density_method    'not measured'
_exptl_crystal_F_000             1544
_exptl_absorpt_coefficient_mu    2.577
_exptl_absorpt_correction_type   multi-scan
_exptl_absorpt_correction_T_min  0.2323
_exptl_absorpt_correction_T_max  0.6267
_exptl_absorpt_process_details   ?

_exptl_special_details           
;
?
;

_diffrn_ambient_temperature      295(2)
_diffrn_radiation_wavelength     0.71073
_diffrn_radiation_type           MoK\a
_diffrn_radiation_source         'fine-focus sealed tube'
_diffrn_radiation_monochromator  graphite
_diffrn_measurement_device_type  'BRUKER SMART ApexCCD area detector'
_diffrn_measurement_method       'omega scans'
_diffrn_detector_area_resol_mean ?
_diffrn_standards_number         ?
_diffrn_standards_interval_count ?
_diffrn_standards_interval_time  ?
_diffrn_standards_decay_%        ?
_diffrn_reflns_number            41668
_diffrn_reflns_av_R_equivalents  0.0704
_diffrn_reflns_av_sigmaI/netI    0.0715
_diffrn_reflns_limit_h_min       -13
_diffrn_reflns_limit_h_max       13
_diffrn_reflns_limit_k_min       -34
_diffrn_reflns_limit_k_max       34
_diffrn_reflns_limit_l_min       -19
_diffrn_reflns_limit_l_max       20
_diffrn_reflns_theta_min         2.03
_diffrn_reflns_theta_max         27.50
_reflns_number_total             9627
_reflns_number_gt                5038
_reflns_threshold_expression     >2sigma(I)

_computing_data_collection       'Bruker SMART'
_computing_cell_refinement       'Bruker SAINT'
_computing_data_reduction        'Bruker SAINT'
_computing_structure_solution    'SHELXS-97 (Sheldrick, 1990)'
_computing_structure_refinement  'SHELXL-97 (Sheldrick, 1997)'
_computing_molecular_graphics    'Bruker SHELXTL'
_computing_publication_material  'Bruker SHELXTL'

_refine_special_details          
;
Refinement of F^2^ against ALL reflections. The weighted R-factor wR and
goodness of fit S are based on F^2^, conventional R-factors R are based
on F, with F set to zero for negative F^2^. The threshold expression of
F^2^ > 2sigma(F^2^) is used only for calculating R-factors(gt) etc. and is
not relevant to the choice of reflections for refinement. R-factors based
on F^2^ are statistically about twice as large as those based on F, and R-
factors based on ALL data will be even larger.
;

_refine_ls_structure_factor_coef Fsqd
_refine_ls_matrix_type           full
_refine_ls_weighting_scheme      calc
_refine_ls_weighting_details     
'calc w=1/[\s^2^(Fo^2^)+(0.1970P)^2^+6.3413P] where P=(Fo^2^+2Fc^2^)/3'
_atom_sites_solution_primary     direct
_atom_sites_solution_secondary   difmap
_atom_sites_solution_hydrogens   geom
_refine_ls_hydrogen_treatment    mixed
_refine_ls_extinction_method     SHELXL
_refine_ls_extinction_coef       0.0007(7)
_refine_ls_extinction_expression Fc^*^=kFc[1+0.001xFc^2^\l^3^/sin(2\q)]^-1/4^
_refine_ls_number_reflns         9627
_refine_ls_number_parameters     367
_refine_ls_number_restraints     0
_refine_ls_R_factor_all          0.1624
_refine_ls_R_factor_gt           0.0959
_refine_ls_wR_factor_ref         0.3439
_refine_ls_wR_factor_gt          0.2825
_refine_ls_goodness_of_fit_ref   1.039
_refine_ls_restrained_S_all      1.039
_refine_ls_shift/su_max          0.001
_refine_ls_shift/su_mean         0.000

loop_
_atom_site_label
_atom_site_type_symbol
_atom_site_fract_x
_atom_site_fract_y
_atom_site_fract_z
_atom_site_U_iso_or_equiv
_atom_site_adp_type
_atom_site_occupancy
_atom_site_symmetry_multiplicity
_atom_site_calc_flag
_atom_site_refinement_flags
_atom_site_disorder_assembly
_atom_site_disorder_group
Zn1 Zn 0.93295(9) 0.82250(3) 0.57767(7) 0.0542(3) Uani 1 1 d . . .
Br1 Br 1.09079(11) 0.87859(4) 0.66850(10) 0.0977(5) Uani 1 1 d . . .
Br2 Br 0.95032(14) 0.80657(5) 0.43486(8) 0.0969(5) Uani 1 1 d . . .
O1 O 0.4389(5) 0.9856(2) 0.6242(4) 0.0646(16) Uani 1 1 d . . .
O2 O -0.2238(5) 0.9100(2) 0.2428(4) 0.0631(16) Uani 1 1 d . . .
N1 N 0.2540(6) 1.0009(2) 0.5100(4) 0.0466(14) Uani 1 1 d . . .
N2 N -0.0587(5) 0.9487(2) 0.3496(4) 0.0419(13) Uani 1 1 d . . .
N3 N 0.4020(6) 0.9378(2) 0.4990(4) 0.0465(14) Uani 1 1 d . . .
H3A H 0.3464 0.9323 0.4465 0.056 Uiso 1 1 calc R . .
N4 N 0.7476(6) 0.8511(2) 0.5607(5) 0.0524(15) Uani 1 1 d . . .
N5 N -0.0095(6) 0.8848(2) 0.2652(4) 0.0422(13) Uani 1 1 d . . .
H5A H 0.0705 0.8965 0.2818 0.051 Uiso 1 1 calc R . .
N6 N 0.9444(6) 0.7560(2) 0.6408(4) 0.0474(15) Uani 1 1 d . . .
C1 C 0.2145(7) 1.0386(3) 0.5636(5) 0.0437(16) Uani 1 1 d . . .
H1A H 0.1497 1.0609 0.5237 0.052 Uiso 1 1 calc R . .
H1B H 0.2920 1.0587 0.5949 0.052 Uiso 1 1 calc R . .
C4 C -0.1555(7) 0.9825(3) 0.3687(5) 0.0456(17) Uani 1 1 d . . .
H4A H -0.2268 0.9893 0.3133 0.055 Uiso 1 1 calc R . .
H4B H -0.1120 1.0142 0.3909 0.055 Uiso 1 1 calc R . .
C2 C 0.1607(7) 0.9900(3) 0.4206(5) 0.0485(17) Uani 1 1 d . . .
H2A H 0.2105 0.9832 0.3797 0.058 Uiso 1 1 calc R . .
H2B H 0.1050 1.0192 0.3986 0.058 Uiso 1 1 calc R . .
C3 C 0.0731(7) 0.9451(3) 0.4226(5) 0.0461(17) Uani 1 1 d . . .
H3B H 0.1180 0.9144 0.4151 0.055 Uiso 1 1 calc R . .
H3C H 0.0585 0.9436 0.4804 0.055 Uiso 1 1 calc R . .
C5 C 0.3683(7) 0.9756(3) 0.5503(5) 0.0434(16) Uani 1 1 d . . .
C6 C 0.7282(9) 0.8819(3) 0.6221(6) 0.064(2) Uani 1 1 d . . .
H6A H 0.7946 0.8841 0.6774 0.077 Uiso 1 1 calc R . .
C7 C 0.6137(8) 0.9112(4) 0.6079(6) 0.062(2) Uani 1 1 d . . .
H7A H 0.6037 0.9319 0.6530 0.074 Uiso 1 1 calc R . .
C8 C 0.5148(7) 0.9087(3) 0.5245(5) 0.0448(16) Uani 1 1 d . . .
C9 C 0.5343(8) 0.8743(3) 0.4639(6) 0.0553(19) Uani 1 1 d . . .
H9A H 0.4689 0.8700 0.4086 0.066 Uiso 1 1 calc R . .
C10 C 0.6478(8) 0.8469(3) 0.4844(6) 0.058(2) Uani 1 1 d . . .
H10A H 0.6564 0.8237 0.4423 0.069 Uiso 1 1 calc R . .
C11 C -0.1073(7) 0.9136(2) 0.2831(5) 0.0417(15) Uani 1 1 d . . .
C12 C -0.1613(8) 0.7707(3) 0.1392(6) 0.062(2) Uani 1 1 d . . .
H12A H -0.2449 0.7572 0.1098 0.074 Uiso 1 1 calc R . .
C13 C -0.1559(7) 0.8179(3) 0.1786(6) 0.058(2) Uani 1 1 d . . .
H13A H -0.2337 0.8352 0.1757 0.070 Uiso 1 1 calc R . .
C14 C -0.0312(7) 0.8386(2) 0.2225(5) 0.0387(15) Uani 1 1 d . . .
C15 C 0.0795(7) 0.8099(3) 0.2248(6) 0.056(2) Uani 1 1 d . . .
H15A H 0.1648 0.8222 0.2533 0.067 Uiso 1 1 calc R . .
C16 C 0.0631(8) 0.7637(3) 0.1852(6) 0.060(2) Uani 1 1 d . . .
H16A H 0.1390 0.7448 0.1894 0.072 Uiso 1 1 calc R . .
S1 S 0.2859(2) 0.91733(11) 0.21014(16) 0.0710(7) Uani 1 1 d . . .
O3 O 0.2692(5) 0.9126(2) 0.3020(3) 0.0532(13) Uani 1 1 d . . .
C17 C 0.4559(13) 0.9032(7) 0.2251(9) 0.129(6) Uani 1 1 d . . .
H17A H 0.4771 0.8706 0.2520 0.194 Uiso 1 1 calc R . .
H17B H 0.5119 0.9280 0.2634 0.194 Uiso 1 1 calc R . .
H17C H 0.4705 0.9034 0.1679 0.194 Uiso 1 1 calc R . .
C18 C 0.2929(19) 0.9822(5) 0.1906(10) 0.133(6) Uani 1 1 d . . .
H18A H 0.2125 0.9979 0.1933 0.200 Uiso 1 1 calc R . .
H18B H 0.3017 0.9875 0.1324 0.200 Uiso 1 1 calc R . .
H18C H 0.3682 0.9966 0.2356 0.200 Uiso 1 1 calc R . .
O4 O -0.0932(15) 0.8938(5) 0.8855(7) 0.162(5) Uani 1 1 d . . .
H4 H -0.0758 0.8886 0.9395 0.243 Uiso 1 1 d . . .
C19 C -0.2354(19) 0.8924(7) 0.8436(9) 0.138(6) Uani 1 1 d . . .
H19A H -0.2643 0.8581 0.8330 0.207 Uiso 1 1 calc R . .
H19B H -0.2587 0.9102 0.7876 0.207 Uiso 1 1 calc R . .
H19C H -0.2780 0.9080 0.8823 0.207 Uiso 1 1 calc R . .
O5 O 0.5203(9) 0.7316(4) 0.3146(6) 0.114(3) Uani 1 1 d . . .
H5 H 0.5597 0.7266 0.2787 0.171 Uiso 1 1 d . . .
C20 C 0.4275(19) 0.7759(7) 0.2833(15) 0.163(7) Uani 1 1 d . . .
H20A H 0.3657 0.7689 0.2249 0.244 Uiso 1 1 calc R . .
H20B H 0.4786 0.8053 0.2804 0.244 Uiso 1 1 calc R . .
H20C H 0.3792 0.7816 0.3248 0.244 Uiso 1 1 calc R . .
O6 O 0.4084(11) 0.9045(5) 0.9357(6) 0.137(4) Uani 1 1 d . . .
H6 H 0.4335 0.9256 0.9059 0.206 Uiso 1 1 d . . .
C21 C 0.349(2) 0.9309(11) 0.9983(13) 0.206(12) Uani 1 1 d . . .
H21A H 0.3803 0.9651 1.0062 0.310 Uiso 1 1 calc R . .
H21B H 0.3764 0.9141 1.0553 0.310 Uiso 1 1 calc R . .
H21C H 0.2539 0.9305 0.9736 0.310 Uiso 1 1 calc R . .
O7 O 0.3820(11) 0.7496(6) 0.5113(9) 0.161(5) Uani 1 1 d . . .
H7 H 0.3221 0.7333 0.5321 0.242 Uiso 0.50 1 d P A 1
H7' H 0.4450 0.7288 0.5056 0.242 Uiso 0.50 1 d P B 2
C22 C 0.505(2) 0.7195(15) 0.531(2) 0.135(12) Uani 0.50 1 d P C 1
H22A H 0.5703 0.7378 0.5126 0.202 Uiso 0.50 1 calc PR C 1
H22B H 0.4858 0.6882 0.4991 0.202 Uiso 0.50 1 calc PR C 1
H22C H 0.5395 0.7130 0.5943 0.202 Uiso 0.50 1 calc PR C 1
C22' C 0.301(3) 0.7145(14) 0.546(2) 0.155(15) Uani 0.50 1 d P C 2
H22D H 0.2159 0.7292 0.5395 0.232 Uiso 0.50 1 calc PR C 2
H22E H 0.3468 0.7082 0.6089 0.232 Uiso 0.50 1 calc PR C 2
H22F H 0.2898 0.6834 0.5138 0.232 Uiso 0.50 1 calc PR C 2

loop_
_atom_site_aniso_label
_atom_site_aniso_U_11
_atom_site_aniso_U_22
_atom_site_aniso_U_33
_atom_site_aniso_U_23
_atom_site_aniso_U_13
_atom_site_aniso_U_12
Zn1 0.0534(6) 0.0363(5) 0.0766(7) 0.0208(4) 0.0260(5) 0.0117(4)
Br1 0.0721(7) 0.0527(6) 0.1493(12) 0.0102(6) 0.0083(7) -0.0080(5)
Br2 0.1220(10) 0.0974(9) 0.0940(9) 0.0282(6) 0.0661(8) 0.0273(7)
O1 0.048(3) 0.067(4) 0.066(4) -0.022(3) -0.001(3) 0.008(3)
O2 0.039(3) 0.057(3) 0.079(4) -0.030(3) -0.002(3) 0.006(2)
N1 0.041(3) 0.046(3) 0.051(4) -0.007(3) 0.013(3) 0.003(3)
N2 0.039(3) 0.037(3) 0.049(3) -0.015(2) 0.013(3) -0.002(2)
N3 0.033(3) 0.052(3) 0.050(4) -0.010(3) 0.007(3) 0.005(3)
N4 0.054(4) 0.038(3) 0.067(4) 0.006(3) 0.021(3) 0.012(3)
N5 0.042(3) 0.033(3) 0.051(3) -0.015(2) 0.014(3) -0.007(2)
N6 0.047(3) 0.030(3) 0.066(4) 0.017(3) 0.019(3) 0.010(2)
C1 0.038(4) 0.039(4) 0.053(4) -0.006(3) 0.015(3) 0.000(3)
C4 0.044(4) 0.032(3) 0.060(5) -0.010(3) 0.015(3) 0.002(3)
C2 0.046(4) 0.044(4) 0.054(4) 0.001(3) 0.014(3) 0.004(3)
C3 0.053(4) 0.035(3) 0.051(4) -0.006(3) 0.017(3) 0.007(3)
C5 0.032(3) 0.044(4) 0.052(4) -0.010(3) 0.010(3) -0.004(3)
C6 0.053(5) 0.071(6) 0.058(5) 0.007(4) 0.004(4) 0.018(4)
C7 0.053(5) 0.072(6) 0.057(5) -0.004(4) 0.013(4) 0.020(4)
C8 0.039(4) 0.041(4) 0.056(4) 0.001(3) 0.017(3) 0.002(3)
C9 0.046(4) 0.056(5) 0.060(5) -0.009(4) 0.011(4) 0.003(3)
C10 0.058(5) 0.048(4) 0.070(6) -0.012(4) 0.026(4) 0.007(4)
C11 0.039(4) 0.031(3) 0.052(4) -0.009(3) 0.009(3) 0.000(3)
C12 0.043(4) 0.052(5) 0.082(6) -0.029(4) 0.009(4) -0.014(4)
C13 0.036(4) 0.052(4) 0.080(6) -0.032(4) 0.008(4) -0.001(3)
C14 0.044(4) 0.032(3) 0.042(4) -0.013(3) 0.016(3) -0.005(3)
C15 0.037(4) 0.045(4) 0.084(6) -0.020(4) 0.017(4) -0.008(3)
C16 0.040(4) 0.044(4) 0.098(7) -0.025(4) 0.023(4) -0.001(3)
S1 0.0553(12) 0.0970(18) 0.0602(14) -0.0180(12) 0.0174(11) -0.0127(12)
O3 0.041(3) 0.068(3) 0.051(3) -0.012(3) 0.016(2) -0.007(2)
C17 0.086(8) 0.220(18) 0.104(10) 0.039(10) 0.062(8) 0.044(10)
C18 0.188(16) 0.094(10) 0.107(11) 0.010(8) 0.031(10) -0.024(10)
O4 0.179(12) 0.179(12) 0.097(7) 0.016(7) -0.001(8) -0.015(10)
C19 0.165(16) 0.165(15) 0.064(8) 0.003(8) 0.007(9) 0.042(12)
O5 0.094(6) 0.132(8) 0.123(7) 0.000(6) 0.044(5) 0.010(5)
C20 0.136(14) 0.127(14) 0.23(2) 0.025(14) 0.064(14) 0.031(12)
O6 0.157(9) 0.188(11) 0.064(5) 0.044(6) 0.031(6) 0.009(8)
C21 0.131(15) 0.38(4) 0.115(14) 0.093(19) 0.045(12) 0.074(19)
O7 0.092(7) 0.221(14) 0.177(11) 0.065(10) 0.052(7) 0.019(8)
C22 0.055(13) 0.21(4) 0.12(2) 0.00(2) 0.001(13) 0.034(18)
C22' 0.11(2) 0.16(3) 0.15(3) 0.02(2) -0.03(2) 0.07(2)

_geom_special_details            
;
All esds (except the esd in the dihedral angle between two l.s. planes)
are estimated using the full covariance matrix. The cell esds are taken
into account individually in the estimation of esds in distances, angles
and torsion angles; correlations between esds in cell parameters are only
used when they are defined by crystal symmetry. An approximate (isotropic)
treatment of cell esds is used for estimating esds involving l.s. planes.
;

loop_
_geom_bond_atom_site_label_1
_geom_bond_atom_site_label_2
_geom_bond_distance
_geom_bond_site_symmetry_2
_geom_bond_publ_flag
Zn1 N6 2.012(5) . ?
Zn1 N4 2.039(6) . ?
Zn1 Br2 2.3499(15) . ?
Zn1 Br1 2.3519(15) . ?
O1 C5 1.194(9) . ?
O2 C11 1.196(8) . ?
N1 C5 1.352(9) . ?
N1 C1 1.456(9) . ?
N1 C2 1.466(10) . ?
N2 C11 1.374(8) . ?
N2 C4 1.463(8) . ?
N2 C3 1.500(9) . ?
N3 C8 1.369(9) . ?
N3 C5 1.405(9) . ?
N4 C10 1.326(11) . ?
N4 C6 1.332(11) . ?
N5 C14 1.381(8) . ?
N5 C11 1.387(9) . ?
N6 C12 1.318(10) 4_676 ?
N6 C16 1.334(9) 4_676 ?
C1 C4 1.505(10) 3_576 ?
C4 C1 1.505(10) 3_576 ?
C2 C3 1.519(10) . ?
C6 C7 1.397(11) . ?
C7 C8 1.395(12) . ?
C8 C9 1.383(11) . ?
C9 C10 1.352(11) . ?
C12 N6 1.318(10) 4_475 ?
C12 C13 1.394(10) . ?
C13 C14 1.392(10) . ?
C14 C15 1.389(10) . ?
C15 C16 1.364(10) . ?
C16 N6 1.334(9) 4_475 ?
S1 O3 1.515(6) . ?
S1 C18 1.757(14) . ?
S1 C17 1.778(12) . ?
O4 C19 1.44(2) . ?
O5 C20 1.512(18) . ?
O6 C21 1.50(2) . ?
O7 C22 1.47(3) . ?
O7 C22' 1.48(4) . ?

loop_
_geom_angle_atom_site_label_1
_geom_angle_atom_site_label_2
_geom_angle_atom_site_label_3
_geom_angle
_geom_angle_site_symmetry_1
_geom_angle_site_symmetry_3
_geom_angle_publ_flag
N6 Zn1 N4 107.2(2) . . ?
N6 Zn1 Br2 107.63(19) . . ?
N4 Zn1 Br2 107.9(2) . . ?
N6 Zn1 Br1 109.75(19) . . ?
N4 Zn1 Br1 108.0(2) . . ?
Br2 Zn1 Br1 115.98(6) . . ?
C5 N1 C1 116.8(6) . . ?
C5 N1 C2 125.4(6) . . ?
C1 N1 C2 117.5(6) . . ?
C11 N2 C4 117.2(6) . . ?
C11 N2 C3 124.7(5) . . ?
C4 N2 C3 115.0(5) . . ?
C8 N3 C5 126.4(6) . . ?
C10 N4 C6 116.4(7) . . ?
C10 N4 Zn1 122.8(5) . . ?
C6 N4 Zn1 119.9(6) . . ?
C14 N5 C11 124.7(6) . . ?
C12 N6 C16 116.7(6) 4_676 4_676 ?
C12 N6 Zn1 123.2(5) 4_676 . ?
C16 N6 Zn1 120.1(5) 4_676 . ?
N1 C1 C4 114.4(6) . 3_576 ?
N2 C4 C1 113.0(6) . 3_576 ?
N1 C2 C3 111.3(6) . . ?
N2 C3 C2 111.0(6) . . ?
O1 C5 N1 122.3(7) . . ?
O1 C5 N3 121.6(6) . . ?
N1 C5 N3 116.1(6) . . ?
N4 C6 C7 123.6(8) . . ?
C8 C7 C6 118.4(8) . . ?
N3 C8 C9 118.6(7) . . ?
N3 C8 C7 124.8(7) . . ?
C9 C8 C7 116.6(7) . . ?
C10 C9 C8 120.5(8) . . ?
N4 C10 C9 124.1(7) . . ?
O2 C11 N2 122.0(6) . . ?
O2 C11 N5 123.8(6) . . ?
N2 C11 N5 114.1(6) . . ?
N6 C12 C13 124.3(7) 4_475 . ?
C14 C13 C12 118.3(7) . . ?
N5 C14 C15 117.9(6) . . ?
N5 C14 C13 125.2(6) . . ?
C15 C14 C13 116.9(6) . . ?
C16 C15 C14 120.1(7) . . ?
N6 C16 C15 123.6(7) 4_475 . ?
O3 S1 C18 105.7(6) . . ?
O3 S1 C17 106.1(5) . . ?
C18 S1 C17 97.7(9) . . ?
C22 O7 C22' 99(2) . . ?

_diffrn_measured_fraction_theta_max 0.999
_diffrn_reflns_theta_full        27.50
_diffrn_measured_fraction_theta_full 0.999
_refine_diff_density_max         1.433
_refine_diff_density_min         -0.623
_refine_diff_density_rms         0.191
