####################################################################### 
# 
# This file contains crystal structure data downloaded from the 
# Cambridge Structural Database (CSD) hosted by the Cambridge 
# Crystallographic Data Centre (CCDC).
# 
# Full information about CCDC data access policies and citation 
# guidelines are available at http://www.ccdc.cam.ac.uk/access/V1 
# 
# Audit and citation data items may have been added by the CCDC. 
# Please retain this information to preserve the provenance of 
# this file and to allow appropriate attribution of the data. 
# 
#######################################################################

data_lu0323
_audit_block_doi                 10.5517/cc9h6hg
_database_code_depnum_ccdc_archive 'CCDC 282735'
loop_
_citation_id
_citation_doi
_citation_year
1 10.1002/ejic.200501060 2006
_audit_update_record             
;
2005-08-30 deposited with the CCDC.	2024-07-06 downloaded from the CCDC.
;

_audit_creation_method           SHELXL-97
_chemical_name_systematic        
;
?
;
_chemical_name_common            ?
_chemical_melting_point          ?
_chemical_formula_moiety         ?
_chemical_formula_sum            'C26.67 H38.67 Cd0.67 I1.33 N8 O5.33 S2.67'
_chemical_formula_weight         886.28

loop_
_atom_type_symbol
_atom_type_description
_atom_type_scat_dispersion_real
_atom_type_scat_dispersion_imag
_atom_type_scat_source
C C 0.0033 0.0016 'International Tables Vol C Tables 4.2.6.8 and 6.1.1.4'
H H 0.0000 0.0000 'International Tables Vol C Tables 4.2.6.8 and 6.1.1.4'
N N 0.0061 0.0033 'International Tables Vol C Tables 4.2.6.8 and 6.1.1.4'
O O 0.0106 0.0060 'International Tables Vol C Tables 4.2.6.8 and 6.1.1.4'
S S 0.1246 0.1234 'International Tables Vol C Tables 4.2.6.8 and 6.1.1.4'
Cd Cd -0.8075 1.2024 'International Tables Vol C Tables 4.2.6.8 and 6.1.1.4'
I I -0.4742 1.8119 'International Tables Vol C Tables 4.2.6.8 and 6.1.1.4'

_symmetry_cell_setting           ?
_symmetry_space_group_name_H-M   C2/c

loop_
_symmetry_equiv_pos_as_xyz
'x, y, z'
'-x, y, -z+1/2'
'x+1/2, y+1/2, z'
'-x+1/2, y+1/2, -z+1/2'
'-x, -y, -z'
'x, -y, z-1/2'
'-x+1/2, -y+1/2, -z'
'x+1/2, -y+1/2, z-1/2'

_cell_length_a                   33.074(3)
_cell_length_b                   9.8463(7)
_cell_length_c                   16.8512(12)
_cell_angle_alpha                90.00
_cell_angle_beta                 101.712(2)
_cell_angle_gamma                90.00
_cell_volume                     5373.5(7)
_cell_formula_units_Z            6
_cell_measurement_temperature    273(2)
_cell_measurement_reflns_used    ?
_cell_measurement_theta_min      ?
_cell_measurement_theta_max      ?

_exptl_crystal_description       ?
_exptl_crystal_colour            ?
_exptl_crystal_size_max          ?
_exptl_crystal_size_mid          ?
_exptl_crystal_size_min          ?
_exptl_crystal_density_meas      ?
_exptl_crystal_density_diffrn    1.643
_exptl_crystal_density_method    'not measured'
_exptl_crystal_F_000             2656
_exptl_absorpt_coefficient_mu    1.769
_exptl_absorpt_correction_type   ?
_exptl_absorpt_correction_T_min  ?
_exptl_absorpt_correction_T_max  ?
_exptl_absorpt_process_details   ?

_exptl_special_details           
;
?
;

_diffrn_ambient_temperature      273(2)
_diffrn_radiation_wavelength     0.71073
_diffrn_radiation_type           MoK\a
_diffrn_radiation_source         'fine-focus sealed tube'
_diffrn_radiation_monochromator  graphite
_diffrn_measurement_device_type  ?
_diffrn_measurement_method       ?
_diffrn_detector_area_resol_mean ?
_diffrn_standards_number         ?
_diffrn_standards_interval_count ?
_diffrn_standards_interval_time  ?
_diffrn_standards_decay_%        ?
_diffrn_reflns_number            31119
_diffrn_reflns_av_R_equivalents  0.0319
_diffrn_reflns_av_sigmaI/netI    0.0285
_diffrn_reflns_limit_h_min       -43
_diffrn_reflns_limit_h_max       43
_diffrn_reflns_limit_k_min       -13
_diffrn_reflns_limit_k_max       12
_diffrn_reflns_limit_l_min       -22
_diffrn_reflns_limit_l_max       22
_diffrn_reflns_theta_min         1.26
_diffrn_reflns_theta_max         28.32
_reflns_number_total             6553
_reflns_number_gt                5340
_reflns_threshold_expression     >2sigma(I)

_computing_data_collection       ?
_computing_cell_refinement       ?
_computing_data_reduction        ?
_computing_structure_solution    'SHELXS-97 (Sheldrick, 1990)'
_computing_structure_refinement  'SHELXL-97 (Sheldrick, 1997)'
_computing_molecular_graphics    ?
_computing_publication_material  ?

_refine_special_details          
;
Refinement of F^2^ against ALL reflections. The weighted R-factor wR and
goodness of fit S are based on F^2^, conventional R-factors R are based
on F, with F set to zero for negative F^2^. The threshold expression of
F^2^ > 2sigma(F^2^) is used only for calculating R-factors(gt) etc. and is
not relevant to the choice of reflections for refinement. R-factors based
on F^2^ are statistically about twice as large as those based on F, and R-
factors based on ALL data will be even larger.
;

_refine_ls_structure_factor_coef Fsqd
_refine_ls_matrix_type           full
_refine_ls_weighting_scheme      calc
_refine_ls_weighting_details     
'calc w=1/[\s^2^(Fo^2^)+(0.0921P)^2^+18.5389P] where P=(Fo^2^+2Fc^2^)/3'
_atom_sites_solution_primary     direct
_atom_sites_solution_secondary   difmap
_atom_sites_solution_hydrogens   geom
_refine_ls_hydrogen_treatment    mixed
_refine_ls_extinction_method     none
_refine_ls_extinction_coef       ?
_refine_ls_number_reflns         6553
_refine_ls_number_parameters     307
_refine_ls_number_restraints     0
_refine_ls_R_factor_all          0.0682
_refine_ls_R_factor_gt           0.0549
_refine_ls_wR_factor_ref         0.1623
_refine_ls_wR_factor_gt          0.1497
_refine_ls_goodness_of_fit_ref   1.068
_refine_ls_restrained_S_all      1.068
_refine_ls_shift/su_max          0.244
_refine_ls_shift/su_mean         0.014

loop_
_atom_site_label
_atom_site_type_symbol
_atom_site_fract_x
_atom_site_fract_y
_atom_site_fract_z
_atom_site_U_iso_or_equiv
_atom_site_adp_type
_atom_site_occupancy
_atom_site_symmetry_multiplicity
_atom_site_calc_flag
_atom_site_refinement_flags
_atom_site_disorder_assembly
_atom_site_disorder_group
Cd1 Cd 1.0000 0.0000 0.5000 0.03826(15) Uani 1 2 d S . .
I1 I 1.046806(11) 0.25904(3) 0.46969(2) 0.04922(14) Uani 1 1 d . . .
S1 S 0.10103(11) 0.5396(4) 0.21767(17) 0.1252(11) Uani 1 1 d . . .
S2 S 0.25193(7) 0.79459(19) 0.26701(10) 0.0736(5) Uani 1 1 d . . .
O1 O 0.82753(12) -0.0660(4) 0.1408(2) 0.0534(9) Uani 1 1 d . . .
O2 O 0.80437(11) 0.6678(4) -0.0422(2) 0.0545(10) Uani 1 1 d . . .
O3 O 0.1159(2) 0.4492(6) 0.2877(3) 0.0916(18) Uani 1 1 d . . .
O4 O 0.2302(2) 0.7907(8) 0.1811(3) 0.109(2) Uani 1 1 d . . .
N1 N 0.81837(11) 0.0942(4) 0.0432(2) 0.0372(8) Uani 1 1 d . . .
N2 N 0.79596(12) 0.4635(4) 0.0122(2) 0.0388(9) Uani 1 1 d . . .
N3 N 0.87610(12) 0.0993(5) 0.1475(3) 0.0469(10) Uani 1 1 d . . .
H3C H 0.8831 0.1693 0.1230 0.056 Uiso 1 1 calc R . .
N4 N 0.95874(14) 0.0047(5) 0.3638(3) 0.0535(11) Uani 1 1 d . . .
N5 N 0.85691(12) 0.5846(4) 0.0550(3) 0.0412(9) Uani 1 1 d . . .
H5A H 0.8634 0.5234 0.0918 0.049 Uiso 1 1 calc R . .
N6 N 0.94948(11) 0.8678(4) 0.0391(3) 0.0444(10) Uani 1 1 d . . .
C1 C 0.82615(14) 0.2309(5) 0.0151(3) 0.0376(10) Uani 1 1 d . . .
H1A H 0.8131 0.2391 -0.0416 0.045 Uiso 1 1 calc R . .
H1B H 0.8556 0.2424 0.0194 0.045 Uiso 1 1 calc R . .
C2 C 0.81014(14) 0.3454(5) 0.0630(3) 0.0386(10) Uani 1 1 d . . .
H2A H 0.7875 0.3111 0.0859 0.046 Uiso 1 1 calc R . .
H2B H 0.8321 0.3732 0.1074 0.046 Uiso 1 1 calc R . .
C3 C 0.78022(14) 0.0271(5) 0.0029(3) 0.0409(10) Uani 1 1 d . . .
H3A H 0.7850 -0.0701 0.0023 0.049 Uiso 1 1 calc R . .
H3B H 0.7731 0.0578 -0.0529 0.049 Uiso 1 1 calc R . .
C4 C 0.74401(13) 0.0545(5) 0.0436(3) 0.0385(10) Uani 1 1 d . . .
H4A H 0.7455 -0.0067 0.0892 0.046 Uiso 1 1 calc R . .
H4B H 0.7459 0.1467 0.0643 0.046 Uiso 1 1 calc R . .
C5 C 0.83958(14) 0.0357(5) 0.1123(3) 0.0394(10) Uani 1 1 d . . .
C6 C 0.9268(3) -0.0709(8) 0.3351(6) 0.126(5) Uani 1 1 d . . .
H6 H 0.9230 -0.1475 0.3650 0.151 Uiso 1 1 calc R . .
C7 C 0.8983(3) -0.0486(8) 0.2652(5) 0.107(4) Uani 1 1 d . . .
H7 H 0.8763 -0.1081 0.2497 0.129 Uiso 1 1 calc R . .
C8 C 0.90248(15) 0.0605(6) 0.2188(3) 0.0439(11) Uani 1 1 d . . .
C9 C 0.9365(2) 0.1342(12) 0.2446(5) 0.123(5) Uani 1 1 d . . .
H9 H 0.9421 0.2088 0.2148 0.147 Uiso 1 1 calc R . .
C10 C 0.9636(2) 0.0995(13) 0.3162(5) 0.123(5) Uani 1 1 d . . .
H10 H 0.9876 0.1510 0.3303 0.147 Uiso 1 1 calc R . .
C11 C 0.81802(13) 0.5781(4) 0.0053(3) 0.0354(9) Uani 1 1 d . . .
C12 C 0.91014(16) 0.8939(5) 0.0059(4) 0.0553(14) Uani 1 1 d . . .
H12 H 0.9041 0.9759 -0.0213 0.066 Uiso 1 1 calc R . .
C13 C 0.87771(15) 0.8065(5) 0.0094(4) 0.0494(13) Uani 1 1 d . . .
H13 H 0.8508 0.8299 -0.0146 0.059 Uiso 1 1 calc R . .
C14 C 0.88623(13) 0.6836(5) 0.0492(3) 0.0362(9) Uani 1 1 d . . .
C15 C 0.92703(15) 0.6567(6) 0.0853(3) 0.0497(12) Uani 1 1 d . . .
H15 H 0.9340 0.5765 0.1140 0.060 Uiso 1 1 calc R . .
C16 C 0.95670(16) 0.7493(5) 0.0782(4) 0.0513(13) Uani 1 1 d . . .
H16 H 0.9839 0.7286 0.1021 0.062 Uiso 1 1 calc R . .
C17 C 0.1221(8) 0.488(3) 0.1658(14) 0.48(3) Uani 1 1 d . . .
H17A H 0.1497 0.5238 0.1773 0.713 Uiso 1 1 calc R . .
H17B H 0.1089 0.5128 0.1116 0.713 Uiso 1 1 calc R . .
H17C H 0.1230 0.3912 0.1707 0.713 Uiso 1 1 calc R . .
C18 C 0.0588(6) 0.475(2) 0.1606(12) 0.304(17) Uani 1 1 d . . .
H18A H 0.0604 0.4271 0.1139 0.365 Uiso 1 1 calc R . .
H18B H 0.0334 0.4875 0.1753 0.365 Uiso 1 1 calc R . .
C19 C 0.2967(3) 0.6946(12) 0.2735(5) 0.101(3) Uani 1 1 d . . .
H19A H 0.2889 0.6018 0.2615 0.152 Uiso 1 1 calc R . .
H19B H 0.3131 0.7005 0.3273 0.152 Uiso 1 1 calc R . .
H19C H 0.3124 0.7271 0.2353 0.152 Uiso 1 1 calc R . .
C20 C 0.2264(2) 0.6846(7) 0.3215(5) 0.0769(19) Uani 1 1 d . . .
H20A H 0.2004 0.7236 0.3263 0.115 Uiso 1 1 calc R . .
H20B H 0.2430 0.6704 0.3746 0.115 Uiso 1 1 calc R . .
H20C H 0.2217 0.5992 0.2936 0.115 Uiso 1 1 calc R . .

loop_
_atom_site_aniso_label
_atom_site_aniso_U_11
_atom_site_aniso_U_22
_atom_site_aniso_U_33
_atom_site_aniso_U_23
_atom_site_aniso_U_13
_atom_site_aniso_U_12
Cd1 0.0278(2) 0.0496(3) 0.0334(2) -0.00622(19) -0.00323(16) 0.01863(18)
I1 0.0450(2) 0.0478(2) 0.0541(2) -0.00294(14) 0.00802(16) 0.00365(13)
S1 0.141(3) 0.145(2) 0.0847(16) 0.0078(16) 0.0122(16) 0.065(2)
S2 0.1076(14) 0.0641(9) 0.0475(8) 0.0012(7) 0.0120(8) 0.0086(10)
O1 0.044(2) 0.047(2) 0.063(2) 0.0193(17) -0.0056(17) -0.0102(16)
O2 0.0419(19) 0.0431(19) 0.068(2) 0.0207(17) -0.0129(17) -0.0139(15)
O3 0.110(4) 0.096(4) 0.054(3) -0.008(3) -0.018(3) 0.035(3)
O4 0.132(6) 0.141(5) 0.048(3) 0.004(3) 0.003(3) 0.029(4)
N1 0.0288(18) 0.0385(19) 0.039(2) 0.0053(16) -0.0048(15) -0.0033(15)
N2 0.0297(18) 0.0368(19) 0.044(2) 0.0086(16) -0.0064(15) -0.0125(15)
N3 0.034(2) 0.052(2) 0.047(2) 0.0133(19) -0.0115(17) -0.0085(18)
N4 0.039(2) 0.071(3) 0.043(2) 0.005(2) -0.0101(18) 0.007(2)
N5 0.0331(19) 0.039(2) 0.047(2) 0.0091(17) -0.0022(16) -0.0131(16)
N6 0.0293(19) 0.041(2) 0.061(3) 0.0068(18) 0.0062(18) -0.0143(16)
C1 0.027(2) 0.044(2) 0.038(2) 0.0125(19) -0.0008(17) -0.0047(17)
C2 0.038(2) 0.038(2) 0.036(2) 0.0073(18) -0.0036(18) -0.0148(18)
C3 0.034(2) 0.040(2) 0.043(2) -0.0011(19) -0.0065(19) -0.0040(19)
C4 0.031(2) 0.040(2) 0.039(2) 0.0051(18) -0.0045(18) -0.0114(18)
C5 0.030(2) 0.042(2) 0.042(2) 0.0055(19) -0.0020(18) -0.0024(18)
C6 0.148(9) 0.069(5) 0.112(7) 0.039(5) -0.088(7) -0.035(5)
C7 0.119(7) 0.077(5) 0.087(5) 0.038(4) -0.071(5) -0.043(5)
C8 0.034(2) 0.058(3) 0.035(2) 0.004(2) -0.0055(18) 0.000(2)
C9 0.077(5) 0.199(11) 0.068(4) 0.070(6) -0.041(4) -0.084(6)
C10 0.059(4) 0.226(12) 0.065(4) 0.064(6) -0.030(4) -0.070(6)
C11 0.029(2) 0.033(2) 0.042(2) 0.0028(18) 0.0007(17) -0.0100(16)
C12 0.040(3) 0.035(2) 0.090(4) 0.009(3) 0.010(3) -0.007(2)
C13 0.028(2) 0.037(2) 0.081(4) 0.006(2) 0.005(2) -0.0066(19)
C14 0.031(2) 0.035(2) 0.042(2) -0.0044(18) 0.0066(17) -0.0095(17)
C15 0.033(2) 0.052(3) 0.060(3) 0.016(2) -0.001(2) -0.011(2)
C16 0.031(2) 0.057(3) 0.062(3) 0.017(2) 0.000(2) -0.012(2)
C17 0.40(3) 0.54(5) 0.34(3) -0.34(3) -0.28(3) 0.42(4)
C18 0.181(17) 0.44(4) 0.220(19) 0.21(2) -0.118(15) -0.12(2)
C19 0.097(6) 0.135(8) 0.070(5) -0.013(5) 0.014(4) 0.015(6)
C20 0.083(5) 0.060(4) 0.087(5) 0.003(4) 0.017(4) 0.006(4)

_geom_special_details            
;
All esds (except the esd in the dihedral angle between two l.s. planes)
are estimated using the full covariance matrix. The cell esds are taken
into account individually in the estimation of esds in distances, angles
and torsion angles; correlations between esds in cell parameters are only
used when they are defined by crystal symmetry. An approximate (isotropic)
treatment of cell esds is used for estimating esds involving l.s. planes.
;

loop_
_geom_bond_atom_site_label_1
_geom_bond_atom_site_label_2
_geom_bond_distance
_geom_bond_site_symmetry_2
_geom_bond_publ_flag
Cd1 N6 2.317(4) 2_745 ?
Cd1 N6 2.317(4) 6_566 ?
Cd1 N4 2.421(4) 5_756 ?
Cd1 N4 2.421(4) . ?
Cd1 I1 3.0796(4) . ?
Cd1 I1 3.0796(4) 5_756 ?
S1 C17 1.32(2) . ?
S1 O3 1.481(6) . ?
S1 C18 1.653(17) . ?
S2 O4 1.480(6) . ?
S2 C20 1.746(8) . ?
S2 C19 1.762(10) . ?
O1 C5 1.212(6) . ?
O2 C11 1.216(6) . ?
N1 C5 1.359(6) . ?
N1 C3 1.464(6) . ?
N1 C1 1.466(6) . ?
N2 C11 1.362(5) . ?
N2 C2 1.463(6) . ?
N2 C4 1.469(5) 7_655 ?
N3 C5 1.383(6) . ?
N3 C8 1.387(6) . ?
N4 C10 1.263(10) . ?
N4 C6 1.302(9) . ?
N5 C11 1.386(6) . ?
N5 C14 1.392(5) . ?
N6 C12 1.333(7) . ?
N6 C16 1.337(7) . ?
N6 Cd1 2.317(4) 2_765 ?
C1 C2 1.541(7) . ?
C3 C4 1.520(7) . ?
C4 N2 1.469(5) 7_655 ?
C6 C7 1.369(9) . ?
C7 C8 1.352(9) . ?
C8 C9 1.336(8) . ?
C9 C10 1.391(9) . ?
C12 C13 1.386(7) . ?
C13 C14 1.385(7) . ?
C14 C15 1.389(7) . ?
C15 C16 1.363(7) . ?

loop_
_geom_angle_atom_site_label_1
_geom_angle_atom_site_label_2
_geom_angle_atom_site_label_3
_geom_angle
_geom_angle_site_symmetry_1
_geom_angle_site_symmetry_3
_geom_angle_publ_flag
N6 Cd1 N6 180.00(12) 2_745 6_566 ?
N6 Cd1 N4 87.63(16) 2_745 5_756 ?
N6 Cd1 N4 92.37(16) 6_566 5_756 ?
N6 Cd1 N4 92.37(16) 2_745 . ?
N6 Cd1 N4 87.63(16) 6_566 . ?
N4 Cd1 N4 180.000(1) 5_756 . ?
N6 Cd1 I1 90.13(11) 2_745 . ?
N6 Cd1 I1 89.87(11) 6_566 . ?
N4 Cd1 I1 88.14(12) 5_756 . ?
N4 Cd1 I1 91.86(12) . . ?
N6 Cd1 I1 89.87(11) 2_745 5_756 ?
N6 Cd1 I1 90.13(11) 6_566 5_756 ?
N4 Cd1 I1 91.86(12) 5_756 5_756 ?
N4 Cd1 I1 88.14(12) . 5_756 ?
I1 Cd1 I1 180.000(11) . 5_756 ?
C17 S1 O3 99.3(11) . . ?
C17 S1 C18 88.1(14) . . ?
O3 S1 C18 109.8(7) . . ?
O4 S2 C20 107.9(4) . . ?
O4 S2 C19 106.4(4) . . ?
C20 S2 C19 96.4(5) . . ?
C5 N1 C3 116.9(4) . . ?
C5 N1 C1 124.9(4) . . ?
C3 N1 C1 117.1(4) . . ?
C11 N2 C2 126.5(4) . . ?
C11 N2 C4 118.2(4) . 7_655 ?
C2 N2 C4 114.8(3) . 7_655 ?
C5 N3 C8 126.1(4) . . ?
C10 N4 C6 112.7(6) . . ?
C10 N4 Cd1 119.8(5) . . ?
C6 N4 Cd1 126.9(5) . . ?
C11 N5 C14 124.3(4) . . ?
C12 N6 C16 115.9(4) . . ?
C12 N6 Cd1 118.1(3) . 2_765 ?
C16 N6 Cd1 124.3(3) . 2_765 ?
N1 C1 C2 113.6(4) . . ?
N2 C2 C1 112.3(4) . . ?
N1 C3 C4 113.2(4) . . ?
N2 C4 C3 112.2(4) 7_655 . ?
O1 C5 N1 122.4(4) . . ?
O1 C5 N3 122.2(4) . . ?
N1 C5 N3 115.4(4) . . ?
N4 C6 C7 126.4(8) . . ?
C8 C7 C6 119.5(7) . . ?
C9 C8 C7 114.9(5) . . ?
C9 C8 N3 118.3(5) . . ?
C7 C8 N3 126.8(5) . . ?
C8 C9 C10 120.1(7) . . ?
N4 C10 C9 126.1(7) . . ?
O2 C11 N2 121.6(4) . . ?
O2 C11 N5 122.6(4) . . ?
N2 C11 N5 115.8(4) . . ?
N6 C12 C13 124.1(5) . . ?
C14 C13 C12 118.7(5) . . ?
C13 C14 C15 117.6(4) . . ?
C13 C14 N5 124.7(4) . . ?
C15 C14 N5 117.7(4) . . ?
C16 C15 C14 119.1(5) . . ?
N6 C16 C15 124.6(5) . . ?

_diffrn_measured_fraction_theta_max 0.980
_diffrn_reflns_theta_full        28.32
_diffrn_measured_fraction_theta_full 0.980
_refine_diff_density_max         1.456
_refine_diff_density_min         -1.300
_refine_diff_density_rms         0.188
