
#######################################################################
#
#                 Cambridge Crystallographic Data Centre
#                                CCDC
#
#######################################################################
#
# If this CIF has been generated from an entry in the Cambridge
# Structural Database, then it will include bibliographic, chemical,
# crystal, experimental, refinement or atomic coordinate data resulting
# from the CCDC's data processing and validation procedures.
#
#######################################################################

data_CSD_CIF_ACSALA01
_audit_creation_date 1986-07-24
_audit_creation_method CSD-ConQuest-V1
_database_code_CSD ACSALA01
_database_code_depnum_ccdc_archive 'CCDC 1101021'
_chemical_formula_sum 'C9 H8 O4'
_chemical_formula_moiety
;
C9 H8 O4
;
_journal_coden_Cambridge 194
_journal_volume 33
_journal_year 1985
_journal_page_first 2641
_journal_name_full 'Chem.Pharm.Bull. '
loop_
_publ_author_name
"Y.Kim"
"K.Machida"
"T.Taga"
"K.Osaki"
_chemical_name_systematic
;
 2-acetoxybenzoic acid
;
_chemical_name_common
;
Aspirin; DrugBank: DB00945; Teaching Subset: Drug Molecules
;
_cell_volume    854.229
_exptl_crystal_density_diffrn 1.401
_exptl_special_details
;
polymorph I
analgesic, antipyretic and anti-inflammatory agent
No study temperature is reported
;
_diffrn_ambient_temperature ?
_diffrn_special_details
;
The study was carried out at room temperature,in the range 283-303K

;
#These two values have been output from a single CSD field.
_refine_ls_R_factor_gt 0.046
_refine_ls_wR_factor_gt 0.046
_symmetry_cell_setting monoclinic
_symmetry_space_group_name_H-M 'P 21/c'
_symmetry_Int_Tables_number 14
loop_
_symmetry_equiv_pos_site_id
_symmetry_equiv_pos_as_xyz
1 x,y,z
2 -x,1/2+y,1/2-z
3 -x,-y,-z
4 x,-1/2-y,-1/2+z
_cell_length_a 11.430(1)
_cell_length_b 6.591(1)
_cell_length_c 11.395(2)
_cell_angle_alpha 90
_cell_angle_beta 95.68(1)
_cell_angle_gamma 90
_cell_formula_units_Z 4
loop_
_atom_type_symbol
_atom_type_radius_bond
C 0.68
H 0.23
O 0.68
loop_
_atom_site_label
_atom_site_type_symbol
_atom_site_fract_x
_atom_site_fract_y
_atom_site_fract_z
C1 C 0.1534(1) 0.5640(2) 0.0674(1)
C2 C 0.2462(1) 0.4877(2) 0.0095(1)
C3 C 0.2983(2) 0.3047(3) 0.0416(2)
C4 C 0.2604(2) 0.1961(3) 0.1338(2)
C5 C 0.1696(2) 0.2676(3) 0.1931(2)
C6 C 0.1165(2) 0.4496(3) 0.1598(1)
C7 C 0.0903(1) 0.7573(2) 0.0376(1)
C8 C 0.3659(2) 0.7384(3) -0.0637(1)
C9 C 0.3974(2) 0.8378(4) -0.1728(2)
O1 O 0.1203(1) 0.8603(2) -0.0508(1)
O2 O 0.0104(1) 0.8118(2) 0.0965(1)
O3 O 0.2857(1) 0.5878(2) -0.0880(1)
O4 O 0.4036(1) 0.7801(2) 0.0345(1)
H1 H 0.3616(19) 0.2559(29) -0.0009(17)
H2 H 0.2926(19) 0.0651(33) 0.1552(17)
H3 H 0.1400(18) 0.1883(35) 0.2554(18)
H4 H 0.0528(18) 0.4995(29) 0.1990(15)
H5 H 0.4560(23) 0.9410(38) -0.1600(19)
H6 H 0.3265(26) 0.8883(41) -0.2139(22)
H7 H 0.4220(27) 0.7389(41) -0.2266(23)
H8 H 0.0737(23) 0.9863(42) -0.0626(19)
#END
