####################################################################### 
# 
# This file contains crystal structure data downloaded from the 
# Cambridge Structural Database (CSD) hosted by the Cambridge 
# Crystallographic Data Centre (CCDC).
# 
# Full information about CCDC data access policies and citation 
# guidelines are available at http://www.ccdc.cam.ac.uk/access/V1 
# 
# Audit and citation data items may have been added by the CCDC. 
# Please retain this information to preserve the provenance of 
# this file and to allow appropriate attribution of the data. 
# 
#######################################################################

data_ac16998_2_0m
_audit_block_doi                 10.5517/ccy2wjd
_database_code_depnum_ccdc_archive 'CCDC 866714'
loop_
_citation_id
_citation_doi
_citation_year
1 10.1002/anie.201201202 2012
_audit_update_record             
;
2012-02-13 deposited with the CCDC.	2024-07-06 downloaded from the CCDC.
;
#TrackingRef '9548_web_deposit_cif_file_5_JarrodF.Eubank_1329134255.rht-MOF-5.cif'


_audit_creation_method           SHELXL-97
_chemical_name_systematic        
;
?
;
_chemical_name_common            ?
_chemical_melting_point          ?
_chemical_formula_moiety         ?
_chemical_formula_sum            'C51 H30 N6 O18 Zn3'
_chemical_formula_weight         1210.92

loop_
_atom_type_symbol
_atom_type_description
_atom_type_scat_dispersion_real
_atom_type_scat_dispersion_imag
_atom_type_scat_source
C C 0.0181 0.0091 'International Tables Vol C Tables 4.2.6.8 and 6.1.1.4'
N N 0.0311 0.0180 'International Tables Vol C Tables 4.2.6.8 and 6.1.1.4'
O O 0.0492 0.0322 'International Tables Vol C Tables 4.2.6.8 and 6.1.1.4'
Zn Zn -1.5491 0.6778 'International Tables Vol C Tables 4.2.6.8 and 6.1.1.4'
H H 0.0000 0.0000 'International Tables Vol C Tables 4.2.6.8 and 6.1.1.4'

_symmetry_cell_setting           cubic
_symmetry_space_group_name_H-M   Fm-3

loop_
_symmetry_equiv_pos_as_xyz
'x, y, z'
'-x, -y, z'
'-x, y, -z'
'x, -y, -z'
'z, x, y'
'z, -x, -y'
'-z, -x, y'
'-z, x, -y'
'y, z, x'
'-y, z, -x'
'y, -z, -x'
'-y, -z, x'
'x, y+1/2, z+1/2'
'-x, -y+1/2, z+1/2'
'-x, y+1/2, -z+1/2'
'x, -y+1/2, -z+1/2'
'z, x+1/2, y+1/2'
'z, -x+1/2, -y+1/2'
'-z, -x+1/2, y+1/2'
'-z, x+1/2, -y+1/2'
'y, z+1/2, x+1/2'
'-y, z+1/2, -x+1/2'
'y, -z+1/2, -x+1/2'
'-y, -z+1/2, x+1/2'
'x+1/2, y, z+1/2'
'-x+1/2, -y, z+1/2'
'-x+1/2, y, -z+1/2'
'x+1/2, -y, -z+1/2'
'z+1/2, x, y+1/2'
'z+1/2, -x, -y+1/2'
'-z+1/2, -x, y+1/2'
'-z+1/2, x, -y+1/2'
'y+1/2, z, x+1/2'
'-y+1/2, z, -x+1/2'
'y+1/2, -z, -x+1/2'
'-y+1/2, -z, x+1/2'
'x+1/2, y+1/2, z'
'-x+1/2, -y+1/2, z'
'-x+1/2, y+1/2, -z'
'x+1/2, -y+1/2, -z'
'z+1/2, x+1/2, y'
'z+1/2, -x+1/2, -y'
'-z+1/2, -x+1/2, y'
'-z+1/2, x+1/2, -y'
'y+1/2, z+1/2, x'
'-y+1/2, z+1/2, -x'
'y+1/2, -z+1/2, -x'
'-y+1/2, -z+1/2, x'
'-x, -y, -z'
'x, y, -z'
'x, -y, z'
'-x, y, z'
'-z, -x, -y'
'-z, x, y'
'z, x, -y'
'z, -x, y'
'-y, -z, -x'
'y, -z, x'
'-y, z, x'
'y, z, -x'
'-x, -y+1/2, -z+1/2'
'x, y+1/2, -z+1/2'
'x, -y+1/2, z+1/2'
'-x, y+1/2, z+1/2'
'-z, -x+1/2, -y+1/2'
'-z, x+1/2, y+1/2'
'z, x+1/2, -y+1/2'
'z, -x+1/2, y+1/2'
'-y, -z+1/2, -x+1/2'
'y, -z+1/2, x+1/2'
'-y, z+1/2, x+1/2'
'y, z+1/2, -x+1/2'
'-x+1/2, -y, -z+1/2'
'x+1/2, y, -z+1/2'
'x+1/2, -y, z+1/2'
'-x+1/2, y, z+1/2'
'-z+1/2, -x, -y+1/2'
'-z+1/2, x, y+1/2'
'z+1/2, x, -y+1/2'
'z+1/2, -x, y+1/2'
'-y+1/2, -z, -x+1/2'
'y+1/2, -z, x+1/2'
'-y+1/2, z, x+1/2'
'y+1/2, z, -x+1/2'
'-x+1/2, -y+1/2, -z'
'x+1/2, y+1/2, -z'
'x+1/2, -y+1/2, z'
'-x+1/2, y+1/2, z'
'-z+1/2, -x+1/2, -y'
'-z+1/2, x+1/2, y'
'z+1/2, x+1/2, -y'
'z+1/2, -x+1/2, y'
'-y+1/2, -z+1/2, -x'
'y+1/2, -z+1/2, x'
'-y+1/2, z+1/2, x'
'y+1/2, z+1/2, -x'

_cell_length_a                   56.798(9)
_cell_length_b                   56.798(9)
_cell_length_c                   56.798(9)
_cell_angle_alpha                90.00
_cell_angle_beta                 90.00
_cell_angle_gamma                90.00
_cell_volume                     183231(50)
_cell_formula_units_Z            32
_cell_measurement_temperature    100(2)
_cell_measurement_reflns_used    ?
_cell_measurement_theta_min      ?
_cell_measurement_theta_max      ?

_exptl_crystal_description       block
_exptl_crystal_colour            green
_exptl_crystal_size_max          0.15
_exptl_crystal_size_mid          0.15
_exptl_crystal_size_min          0.15
_exptl_crystal_density_meas      ?
_exptl_crystal_density_diffrn    0.351
_exptl_crystal_density_method    'not measured'
_exptl_crystal_F_000             19584
_exptl_absorpt_coefficient_mu    0.524
_exptl_absorpt_correction_type   multi-scan
_exptl_absorpt_correction_T_min  0.9256
_exptl_absorpt_correction_T_max  0.9256
_exptl_absorpt_process_details   'SADABS; (Sheldrick, 2003)'

_exptl_special_details           
;
?
;

_diffrn_ambient_temperature      100(2)
_diffrn_radiation_wavelength     1.54178
_diffrn_radiation_type           CuK\a
_diffrn_radiation_source         'fine-focus sealed tube'
_diffrn_radiation_monochromator  graphite
_diffrn_measurement_device_type  'BRUKER SMART APEXII CCD'
_diffrn_measurement_method       'omega scans'
_diffrn_detector_area_resol_mean ?
_diffrn_standards_number         ?
_diffrn_standards_interval_count ?
_diffrn_standards_interval_time  ?
_diffrn_standards_decay_%        ?
_diffrn_reflns_number            21065
_diffrn_reflns_av_R_equivalents  0.1322
_diffrn_reflns_av_sigmaI/netI    0.0828
_diffrn_reflns_limit_h_min       -37
_diffrn_reflns_limit_h_max       34
_diffrn_reflns_limit_k_min       -37
_diffrn_reflns_limit_k_max       14
_diffrn_reflns_limit_l_min       -30
_diffrn_reflns_limit_l_max       27
_diffrn_reflns_theta_min         1.56
_diffrn_reflns_theta_max         31.00
_reflns_number_total             2536
_reflns_number_gt                1271
_reflns_threshold_expression     >2sigma(I)

_computing_data_collection       'APEX2 (Bruker, 2010)'
_computing_cell_refinement       'APEX2 (Bruker, 2010); SAINT (Bruker, 2009)'
_computing_data_reduction        'SAINT (Bruker, 2009);XPREP(Sheldrick,2008)'
_computing_structure_solution    'SHELXS-97 (Sheldrick, 2008)'
_computing_structure_refinement  'SHELXL-97 (Sheldrick, 2008)'
_computing_molecular_graphics    ?
_computing_publication_material  'APEX2 (Bruker, 2010)'

_refine_special_details          
;
Refinement of F^2^ against ALL reflections. The weighted R-factor wR and
goodness of fit S are based on F^2^, conventional R-factors R are based
on F, with F set to zero for negative F^2^. The threshold expression of
F^2^ > 2sigma(F^2^) is used only for calculating R-factors(gt) etc. and is
not relevant to the choice of reflections for refinement. R-factors based
on F^2^ are statistically about twice as large as those based on F, and R-
factors based on ALL data will be even larger.
;

_refine_ls_structure_factor_coef Fsqd
_refine_ls_matrix_type           full
_refine_ls_weighting_scheme      calc
_refine_ls_weighting_details     
'calc w=1/[\s^2^(Fo^2^)+(0.1500P)^2^+0.0000P] where P=(Fo^2^+2Fc^2^)/3'
_atom_sites_solution_primary     direct
_atom_sites_solution_secondary   difmap
_atom_sites_solution_hydrogens   geom
_refine_ls_hydrogen_treatment    constr
_refine_ls_extinction_method     none
_refine_ls_extinction_coef       ?
_refine_ls_number_reflns         2536
_refine_ls_number_parameters     114
_refine_ls_number_restraints     79
_refine_ls_R_factor_all          0.1516
_refine_ls_R_factor_gt           0.0917
_refine_ls_wR_factor_ref         0.2845
_refine_ls_wR_factor_gt          0.2530
_refine_ls_goodness_of_fit_ref   1.027
_refine_ls_restrained_S_all      1.030
_refine_ls_shift/su_max          0.001
_refine_ls_shift/su_mean         0.000

loop_
_atom_site_label
_atom_site_type_symbol
_atom_site_fract_x
_atom_site_fract_y
_atom_site_fract_z
_atom_site_U_iso_or_equiv
_atom_site_adp_type
_atom_site_occupancy
_atom_site_symmetry_multiplicity
_atom_site_calc_flag
_atom_site_refinement_flags
_atom_site_disorder_assembly
_atom_site_disorder_group
Zn1 Zn 1.09684(7) 1.09906(7) 0.5000 0.1414(18) Uani 1 2 d S . .
Zn2 Zn 1.13575(8) 1.13436(7) 0.5000 0.169(2) Uani 1 2 d S . .
O1 O 1.0212(2) 1.14783(19) 0.3888(2) 0.162(5) Uiso 1 1 d D . .
O2 O 1.0214(2) 1.1188(2) 0.4144(2) 0.174(5) Uiso 1 1 d D . .
O3 O 1.1131(2) 1.14586(19) 0.47337(19) 0.162(5) Uiso 1 1 d DU . .
O4 O 1.08487(17) 1.12005(18) 0.47457(18) 0.135(4) Uiso 1 1 d D . .
O5 O 1.1613(3) 1.1570(2) 0.5000 0.161(7) Uani 1 2 d S . .
O6 O 1.0702(3) 1.0771(3) 0.5000 0.155(7) Uani 1 2 d S . .
C1 C 1.0940(2) 1.13800(19) 0.46540(18) 0.174(7) Uiso 1 1 d DU . .
C2 C 1.0821(2) 1.1496(2) 0.44509(17) 0.160(6) Uiso 1 1 d DU . .
C3 C 1.06266(19) 1.13883(19) 0.43572(17) 0.149(6) Uiso 1 1 d DU . .
H3 H 1.0572 1.1244 0.4421 0.179 Uiso 1 1 calc R . .
C4 C 1.05118(17) 1.1488(2) 0.4173(2) 0.179(9) Uiso 1 1 d D . .
C5 C 1.03000(18) 1.1376(2) 0.4064(2) 0.124(7) Uiso 1 1 d D . .
C6 C 1.05911(18) 1.16956(19) 0.40809(19) 0.148(7) Uiso 1 1 d D . .
H6 H 1.0511 1.1765 0.3952 0.178 Uiso 1 1 calc R . .
C7 C 1.0785(2) 1.1804(2) 0.4174(2) 0.214(9) Uiso 1 1 d D . .
C8 C 1.0902(2) 1.17086(19) 0.43578(17) 0.160(7) Uiso 1 1 d DU . .
H8 H 1.1036 1.1784 0.4422 0.191 Uiso 1 1 calc R . .
N1 N 1.0859(2) 1.20191(18) 0.4071(2) 0.267(7) Uiso 1 1 d DU . .
N2 N 1.0958(2) 1.2161(2) 0.4198(3) 0.275(8) Uiso 1 1 d DU . .
C9 C 1.10287(19) 1.2377(2) 0.4085(3) 0.359 Uiso 1 1 d D . .
C10 C 1.1172(2) 1.2524(3) 0.4220(3) 0.407 Uiso 1 1 d D . .
H10 H 1.1217 1.2482 0.4375 0.489 Uiso 1 1 calc R . .
C11 C 1.1246(3) 1.2733(3) 0.4122(3) 0.445 Uiso 1 1 d D . .
H11 H 1.1344 1.2835 0.4212 0.535 Uiso 1 1 calc R . .
C12 C 1.1181(2) 1.2798(3) 0.3895(3) 0.464 Uiso 1 1 d D . .
C13 C 1.1041(3) 1.2649(3) 0.3771(3) 0.429 Uiso 1 1 d D . .
H13 H 1.0996 1.2691 0.3616 0.515 Uiso 1 1 calc R . .
C14 C 1.0961(3) 1.2430(3) 0.3866(3) 0.341(15) Uiso 1 1 d D . .
H14 H 1.0863 1.2327 0.3778 0.409 Uiso 1 1 calc R . .
O7 O 1.1267(3) 1.3009(3) 0.3821(3) 0.452 Uiso 1 1 d D . .
C17 C 1.1208(3) 1.3096(2) 0.3597(3) 0.422 Uiso 1 1 d D . .
H17A H 1.1041 1.3144 0.3594 0.507 Uiso 1 1 calc R . .
H17B H 1.1232 1.2972 0.3477 0.507 Uiso 1 1 calc R . .
C15 C 1.1362(3) 1.3304(2) 0.3543(3) 0.435 Uiso 1 1 d D . .
C16 C 1.1313(2) 1.3446(3) 0.3351(2) 0.404 Uiso 1 1 d D . .
H16 H 1.1182 1.3413 0.3253 0.484 Uiso 1 1 calc R . .

loop_
_atom_site_aniso_label
_atom_site_aniso_U_11
_atom_site_aniso_U_22
_atom_site_aniso_U_33
_atom_site_aniso_U_23
_atom_site_aniso_U_13
_atom_site_aniso_U_12
Zn1 0.147(4) 0.122(4) 0.156(4) 0.000 0.000 -0.057(3)
Zn2 0.190(5) 0.113(4) 0.202(4) 0.000 0.000 -0.065(3)
O5 0.25(2) 0.067(14) 0.168(16) 0.000 0.000 -0.050(14)
O6 0.125(16) 0.100(14) 0.240(19) 0.000 0.000 0.050(13)

_geom_special_details            
;
All esds (except the esd in the dihedral angle between two l.s. planes)
are estimated using the full covariance matrix. The cell esds are taken
into account individually in the estimation of esds in distances, angles
and torsion angles; correlations between esds in cell parameters are only
used when they are defined by crystal symmetry. An approximate (isotropic)
treatment of cell esds is used for estimating esds involving l.s. planes.
;

loop_
_geom_bond_atom_site_label_1
_geom_bond_atom_site_label_2
_geom_bond_distance
_geom_bond_site_symmetry_2
_geom_bond_publ_flag
Zn1 O2 1.901(12) 70_564 ?
Zn1 O2 1.901(12) 23_566 ?
Zn1 O6 1.959(16) . ?
Zn1 O4 1.992(10) 50_556 ?
Zn1 O4 1.992(10) . ?
Zn1 Zn2 2.984(5) . ?
Zn2 O1 1.908(11) 70_564 ?
Zn2 O1 1.908(11) 23_566 ?
Zn2 O5 1.939(15) . ?
Zn2 O3 2.091(11) 50_556 ?
Zn2 O3 2.091(11) . ?
O1 C5 1.263(8) . ?
O1 Zn2 1.908(11) 79_556 ?
O2 C5 1.260(8) . ?
O2 Zn1 1.901(12) 79_556 ?
O3 C1 1.255(9) . ?
O4 C1 1.257(8) . ?
C1 C2 1.493(8) . ?
C2 C3 1.369(12) . ?
C2 C8 1.395(12) . ?
C3 C4 1.358(12) . ?
C3 H3 0.9500 . ?
C4 C6 1.366(13) . ?
C4 C5 1.494(8) . ?
C6 C7 1.368(12) . ?
C6 H6 0.9500 . ?
C7 C8 1.351(12) . ?
C7 N1 1.416(11) . ?
C8 H8 0.9500 . ?
N1 N2 1.221(9) . ?
N2 C9 1.437(12) . ?
C9 C14 1.338(15) . ?
C9 C10 1.395(14) . ?
C10 C11 1.375(15) . ?
C10 H10 0.9500 . ?
C11 C12 1.394(15) . ?
C11 H11 0.9500 . ?
C12 C13 1.356(15) . ?
C12 O7 1.364(9) . ?
C13 C14 1.432(16) . ?
C13 H13 0.9500 . ?
C14 H14 0.9500 . ?
O7 C17 1.404(9) . ?
C17 C15 1.502(14) . ?
C17 H17A 0.9900 . ?
C17 H17B 0.9900 . ?
C15 C16 1.385(9) . ?
C15 C16 1.385(9) 34_766 ?
C16 C15 1.385(9) 43_674 ?
C16 H16 0.9500 . ?

loop_
_geom_angle_atom_site_label_1
_geom_angle_atom_site_label_2
_geom_angle_atom_site_label_3
_geom_angle
_geom_angle_site_symmetry_1
_geom_angle_site_symmetry_3
_geom_angle_publ_flag
O2 Zn1 O2 79.4(7) 70_564 23_566 ?
O2 Zn1 O6 104.4(5) 70_564 . ?
O2 Zn1 O6 104.4(5) 23_566 . ?
O2 Zn1 O4 90.1(4) 70_564 50_556 ?
O2 Zn1 O4 158.1(5) 23_566 50_556 ?
O6 Zn1 O4 96.8(4) . 50_556 ?
O2 Zn1 O4 158.1(5) 70_564 . ?
O2 Zn1 O4 90.1(4) 23_566 . ?
O6 Zn1 O4 96.8(4) . . ?
O4 Zn1 O4 92.9(6) 50_556 . ?
O2 Zn1 Zn2 77.6(4) 70_564 . ?
O2 Zn1 Zn2 77.6(4) 23_566 . ?
O6 Zn1 Zn2 177.3(5) . . ?
O4 Zn1 Zn2 81.4(3) 50_556 . ?
O4 Zn1 Zn2 81.4(3) . . ?
O1 Zn2 O1 78.1(6) 70_564 23_566 ?
O1 Zn2 O5 100.7(6) 70_564 . ?
O1 Zn2 O5 100.7(6) 23_566 . ?
O1 Zn2 O3 88.9(4) 70_564 50_556 ?
O1 Zn2 O3 153.1(5) 23_566 50_556 ?
O5 Zn2 O3 104.8(5) . 50_556 ?
O1 Zn2 O3 153.1(5) 70_564 . ?
O1 Zn2 O3 88.9(4) 23_566 . ?
O5 Zn2 O3 104.8(5) . . ?
O3 Zn2 O3 92.7(6) 50_556 . ?
O1 Zn2 Zn1 78.7(4) 70_564 . ?
O1 Zn2 Zn1 78.7(4) 23_566 . ?
O5 Zn2 Zn1 179.2(6) . . ?
O3 Zn2 Zn1 75.7(3) 50_556 . ?
O3 Zn2 Zn1 75.7(3) . . ?
C5 O1 Zn2 129.2(10) . 79_556 ?
C5 O2 Zn1 131.2(10) . 79_556 ?
C1 O3 Zn2 132.9(10) . . ?
C1 O4 Zn1 130.1(9) . . ?
O3 C1 O4 119.7(12) . . ?
O3 C1 C2 120.9(11) . . ?
O4 C1 C2 119.4(11) . . ?
C3 C2 C8 120.4(11) . . ?
C3 C2 C1 117.9(11) . . ?
C8 C2 C1 121.7(11) . . ?
C4 C3 C2 120.0(11) . . ?
C4 C3 H3 120.0 . . ?
C2 C3 H3 120.0 . . ?
C3 C4 C6 119.7(10) . . ?
C3 C4 C5 121.9(11) . . ?
C6 C4 C5 118.4(11) . . ?
O2 C5 O1 121.5(12) . . ?
O2 C5 C4 121.7(12) . . ?
O1 C5 C4 116.8(11) . . ?
C4 C6 C7 120.5(11) . . ?
C4 C6 H6 119.8 . . ?
C7 C6 H6 119.8 . . ?
C8 C7 C6 120.8(10) . . ?
C8 C7 N1 121.3(9) . . ?
C6 C7 N1 117.9(10) . . ?
C7 C8 C2 118.6(11) . . ?
C7 C8 H8 120.7 . . ?
C2 C8 H8 120.7 . . ?
N2 N1 C7 117.7(10) . . ?
N1 N2 C9 115.5(11) . . ?
C14 C9 C10 122.7(12) . . ?
C14 C9 N2 121.7(10) . . ?
C10 C9 N2 115.6(12) . . ?
C11 C10 C9 118.5(12) . . ?
C11 C10 H10 120.7 . . ?
C9 C10 H10 120.7 . . ?
C10 C11 C12 121.2(12) . . ?
C10 C11 H11 119.4 . . ?
C12 C11 H11 119.4 . . ?
C13 C12 O7 126.9(13) . . ?
C13 C12 C11 118.2(12) . . ?
O7 C12 C11 114.9(14) . . ?
C12 C13 C14 122.2(13) . . ?
C12 C13 H13 118.9 . . ?
C14 C13 H13 118.9 . . ?
C9 C14 C13 117.2(12) . . ?
C9 C14 H14 121.4 . . ?
C13 C14 H14 121.4 . . ?
C12 O7 C17 120.0(11) . . ?
O7 C17 C15 108.8(10) . . ?
O7 C17 H17A 109.9 . . ?
C15 C17 H17A 109.9 . . ?
O7 C17 H17B 109.9 . . ?
C15 C17 H17B 109.9 . . ?
H17A C17 H17B 108.3 . . ?
C16 C15 C16 120.5(15) . 34_766 ?
C16 C15 C17 120.3(15) . . ?
C16 C15 C17 119.3(12) 34_766 . ?
C15 C16 C15 119.5(15) . 43_674 ?
C15 C16 H16 120.2 . . ?
C15 C16 H16 120.2 43_674 . ?

_diffrn_measured_fraction_theta_max 0.999
_diffrn_reflns_theta_full        31.00
_diffrn_measured_fraction_theta_full 0.999
_refine_diff_density_max         0.245
_refine_diff_density_min         -0.246
_refine_diff_density_rms         0.036

loop_
_platon_squeeze_void_nr
_platon_squeeze_void_average_x
_platon_squeeze_void_average_y
_platon_squeeze_void_average_z
_platon_squeeze_void_volume
_platon_squeeze_void_count_electrons
_platon_squeeze_void_content
1 -0.003 -0.003 -0.011 153402 37834 ' '
_platon_squeeze_details          
;
;


_vrf_THETM01_I                   
;
PROBLEM: The value of sine(theta_max)/wavelength is less than 0.550
RESPONSE: The lack of high angle diffraction data can be attributed to
the presence of the ligand / solvent disorder.
;
_vrf_PLAT023_I                   
;
PROBLEM: Resolution (too) Low [sin(theta)/Lambda < 0.6].. 31.00 Deg.
RESPONSE: The lack of high angle diffraction data can be attributed to
the presence of the ligand / solvent disorder.
;
_vrf_PLAT201_I                   
;
PROBLEM: Isotropic non-H Atoms in Main Residue(s) ....... 24
RESPONSE: Highly disordered atoms were refined isotropically.
;
_vrf_PLAT150_I                   
;
PROBLEM: Volume as Calculated Differs from that Given ... 18323.00 Ang-3
RESPONSE: False alert
;
