####################################################################### 
# 
# This file contains crystal structure data downloaded from the 
# Cambridge Structural Database (CSD) hosted by the Cambridge 
# Crystallographic Data Centre (CCDC).
# 
# Full information about CCDC data access policies and citation 
# guidelines are available at http://www.ccdc.cam.ac.uk/access/V1 
# 
# Audit and citation data items may have been added by the CCDC. 
# Please retain this information to preserve the provenance of 
# this file and to allow appropriate attribution of the data. 
# 
#######################################################################

data_ag-p2
_audit_block_doi                 10.5517/ccxwq9s
_database_code_depnum_ccdc_archive 'CCDC 860786'
loop_
_citation_id
_citation_doi
_citation_year
1 10.1002/anie.201204530 2012
_audit_update_record             
;
2012-01-02 deposited with the CCDC.	2024-07-06 downloaded from the CCDC.
;
#TrackingRef 'AG-P1.cif'


_audit_creation_method           SHELXL-97
_chemical_name_systematic        
;
?
;
_chemical_name_common            ?
_chemical_melting_point          ?
_chemical_formula_moiety         ?
_chemical_formula_sum            'C97 H112 Ag3 B3 Cl3 F12 N26 O7'
_chemical_formula_weight         2444.52

loop_
_atom_type_symbol
_atom_type_description
_atom_type_scat_dispersion_real
_atom_type_scat_dispersion_imag
_atom_type_scat_source
C C 0.0033 0.0016 'International Tables Vol C Tables 4.2.6.8 and 6.1.1.4'
H H 0.0000 0.0000 'International Tables Vol C Tables 4.2.6.8 and 6.1.1.4'
B B 0.0013 0.0007 'International Tables Vol C Tables 4.2.6.8 and 6.1.1.4'
N N 0.0061 0.0033 'International Tables Vol C Tables 4.2.6.8 and 6.1.1.4'
O O 0.0106 0.0060 'International Tables Vol C Tables 4.2.6.8 and 6.1.1.4'
F F 0.0171 0.0103 'International Tables Vol C Tables 4.2.6.8 and 6.1.1.4'
Ag Ag -0.8971 1.1015 'International Tables Vol C Tables 4.2.6.8 and 6.1.1.4'
Cl Cl 0.1484 0.1585 'International Tables Vol C Tables 4.2.6.8 and 6.1.1.4'

_symmetry_cell_setting           I2(1)3
_symmetry_space_group_name_H-M   Cubic

loop_
_symmetry_equiv_pos_as_xyz
'x, y, z'
'-x+1/2, -y, z+1/2'
'-x, y+1/2, -z+1/2'
'x+1/2, -y+1/2, -z'
'z, x, y'
'z+1/2, -x+1/2, -y'
'-z+1/2, -x, y+1/2'
'-z, x+1/2, -y+1/2'
'y, z, x'
'-y, z+1/2, -x+1/2'
'y+1/2, -z+1/2, -x'
'-y+1/2, -z, x+1/2'
'x+1/2, y+1/2, z+1/2'
'-x+1, -y+1/2, z+1'
'-x+1/2, y+1, -z+1'
'x+1, -y+1, -z+1/2'
'z+1/2, x+1/2, y+1/2'
'z+1, -x+1, -y+1/2'
'-z+1, -x+1/2, y+1'
'-z+1/2, x+1, -y+1'
'y+1/2, z+1/2, x+1/2'
'-y+1/2, z+1, -x+1'
'y+1, -z+1, -x+1/2'
'-y+1, -z+1/2, x+1'

_cell_length_a                   25.574(3)
_cell_length_b                   25.574(3)
_cell_length_c                   25.574(3)
_cell_angle_alpha                90.00
_cell_angle_beta                 90.00
_cell_angle_gamma                90.00
_cell_volume                     16726(3)
_cell_formula_units_Z            4
_cell_measurement_temperature    180(2)
_cell_measurement_reflns_used    ?
_cell_measurement_theta_min      ?
_cell_measurement_theta_max      ?

_exptl_crystal_description       block
_exptl_crystal_colour            yellow
_exptl_crystal_size_max          0.33
_exptl_crystal_size_mid          0.27
_exptl_crystal_size_min          0.22
_exptl_crystal_density_meas      ?
_exptl_crystal_density_diffrn    0.971
_exptl_crystal_density_method    'not measured'
_exptl_crystal_F_000             4988
_exptl_absorpt_coefficient_mu    0.451
_exptl_absorpt_correction_type   ?
_exptl_absorpt_correction_T_min  ?
_exptl_absorpt_correction_T_max  ?
_exptl_absorpt_process_details   ?

_exptl_special_details           
;
?
;

_diffrn_ambient_temperature      180(2)
_diffrn_radiation_wavelength     0.71073
_diffrn_radiation_type           MoK\a
_diffrn_radiation_source         'fine-focus sealed tube'
_diffrn_radiation_monochromator  graphite
_diffrn_measurement_device_type  'CCD area detector'
_diffrn_measurement_method       'phi and omega scans'
_diffrn_reflns_number            8124
_diffrn_reflns_av_R_equivalents  0.0947
_diffrn_reflns_av_sigmaI/netI    0.2911
_diffrn_reflns_limit_h_min       -6
_diffrn_reflns_limit_h_max       28
_diffrn_reflns_limit_k_min       -16
_diffrn_reflns_limit_k_max       23
_diffrn_reflns_limit_l_min       -30
_diffrn_reflns_limit_l_max       1
_diffrn_reflns_theta_min         2.76
_diffrn_reflns_theta_max         24.96
_reflns_number_total             4758
_reflns_number_gt                1322
_reflns_threshold_expression     >2sigma(I)

_computing_data_collection       'Bruker SMART'
_computing_cell_refinement       'Bruker SMART'
_computing_data_reduction        'Bruker SAINT'
_computing_structure_solution    'Bruker SHELXTL'
_computing_structure_refinement  'Bruker SHELXTL'
_computing_molecular_graphics    'Bruker SHELXTL'
_computing_publication_material  'Bruker SHELXTL'

_refine_special_details          
;
Refinement of F^2^ against ALL reflections. The weighted R-factor wR and
goodness of fit S are based on F^2^, conventional R-factors R are based
on F, with F set to zero for negative F^2^. The threshold expression of
F^2^ > 2sigma(F^2^) is used only for calculating R-factors(gt) etc. and is
not relevant to the choice of reflections for refinement. R-factors based
on F^2^ are statistically about twice as large as those based on F, and R-
factors based on ALL data will be even larger.
;

_refine_ls_structure_factor_coef Fsqd
_refine_ls_matrix_type           full
_refine_ls_weighting_scheme      calc
_refine_ls_weighting_details     
'calc w=1/[\s^2^(Fo^2^)+(0.0000P)^2^+0.0000P] where P=(Fo^2^+2Fc^2^)/3'
_atom_sites_solution_primary     direct
_atom_sites_solution_secondary   difmap
_atom_sites_solution_hydrogens   geom
_refine_ls_hydrogen_treatment    constr
_refine_ls_extinction_method     none
_refine_ls_extinction_coef       ?
_refine_ls_abs_structure_details 'Flack H D (1983), Acta Cryst. A39, 876-881'
_refine_ls_abs_structure_Flack   0.06(6)
_refine_ls_number_reflns         4758
_refine_ls_number_parameters     290
_refine_ls_number_restraints     259
_refine_ls_R_factor_all          0.2716
_refine_ls_R_factor_gt           0.0783
_refine_ls_wR_factor_ref         0.1459
_refine_ls_wR_factor_gt          0.1272
_refine_ls_goodness_of_fit_ref   1.046
_refine_ls_restrained_S_all      1.083
_refine_ls_shift/su_max          0.000
_refine_ls_shift/su_mean         0.000

loop_
_atom_site_label
_atom_site_type_symbol
_atom_site_fract_x
_atom_site_fract_y
_atom_site_fract_z
_atom_site_U_iso_or_equiv
_atom_site_adp_type
_atom_site_occupancy
_atom_site_symmetry_multiplicity
_atom_site_calc_flag
_atom_site_refinement_flags
_atom_site_disorder_assembly
_atom_site_disorder_group
Ag1 Ag 0.2500 0.89133(4) 1.0000 0.1049(4) Uani 1 2 d S . .
N1 N 0.1981(3) 0.8631(2) 1.0625(3) 0.108(3) Uani 1 1 d . . .
N2 N 0.2192(3) 0.9409(2) 1.1091(3) 0.104(3) Uani 1 1 d . . .
H2B H 0.2146 0.9628 1.1342 0.125 Uiso 1 1 calc R . .
N3 N 0.2540(3) 0.9519(2) 1.0706(2) 0.081(2) Uani 1 1 d . . .
N4 N 0.4404(3) 1.0596(3) 0.9404(3) 0.137(5) Uani 1 3 d S . .
C1 C 0.1792(4) 0.8136(4) 1.0600(4) 0.135(4) Uani 1 1 d U . .
H1A H 0.1874 0.7918 1.0321 0.162 Uiso 1 1 calc R . .
C2 C 0.1460(4) 0.7959(4) 1.1017(5) 0.185(5) Uani 1 1 d U . .
H2A H 0.1270 0.7650 1.0988 0.222 Uiso 1 1 calc R . .
C3 C 0.1430(4) 0.8288(4) 1.1499(4) 0.121(4) Uani 1 1 d U . .
H3A H 0.1267 0.8152 1.1794 0.146 Uiso 1 1 calc R . .
C4 C 0.1626(3) 0.8758(3) 1.1521(3) 0.113(4) Uani 1 1 d . . .
H4D H 0.1577 0.8964 1.1816 0.136 Uiso 1 1 calc R . .
C5 C 0.1917(4) 0.8955(4) 1.1082(4) 0.108(3) Uani 1 1 d . . .
C6 C 0.2741(3) 1.0014(4) 1.0707(3) 0.099(3) Uani 1 1 d . . .
C7 C 0.2512(3) 1.0402(3) 1.1132(3) 0.119(3) Uani 1 1 d U . .
H7A H 0.2243 1.0228 1.1328 0.178 Uiso 1 1 calc R . .
H7B H 0.2366 1.0703 1.0961 0.178 Uiso 1 1 calc R . .
H7C H 0.2786 1.0510 1.1364 0.178 Uiso 1 1 calc R . .
C8 C 0.3155(3) 1.0129(3) 1.0362(3) 0.081(3) Uani 1 1 d . . .
C9 C 0.3223(3) 1.0679(3) 1.0245(3) 0.101(4) Uani 1 1 d . . .
H9A H 0.3005 1.0930 1.0391 0.121 Uiso 1 1 calc R . .
C10 C 0.3627(3) 1.0819(3) 0.9905(3) 0.089(3) Uani 1 1 d . . .
H10A H 0.3667 1.1162 0.9792 0.107 Uiso 1 1 calc R . .
C11 C 0.3948(3) 1.0450(4) 0.9751(3) 0.088(3) Uani 1 1 d . . .
C12 C 0.3876(3) 0.9890(3) 0.9856(3) 0.091(3) Uani 1 1 d . . .
H12A H 0.4103 0.9645 0.9710 0.110 Uiso 1 1 calc R . .
C13 C 0.3491(3) 0.9738(4) 1.0155(3) 0.095(4) Uani 1 1 d . . .
H13A H 0.3439 0.9387 1.0231 0.114 Uiso 1 1 calc R . .
C20 C 0.1777(6) 1.1777(6) 1.1777(6) 0.060(5) Uani 0.50 3 d SPU A 1
Cl1 Cl 0.2220(2) 1.2220(2) 1.2220(2) 0.157(4) Uani 0.50 3 d SPU A 1
Cl2 Cl 0.1898(3) 1.1217(3) 1.2042(3) 0.103(3) Uani 0.33 1 d PU A 1
B1 B 0.24038(17) 0.79333(19) 0.47358(18) 0.127(5) Uani 0.50 1 d PDU . .
F1 F 0.2093(2) 0.7904(4) 0.5147(2) 0.135(4) Uani 0.444(9) 1 d PDU . 2
F2 F 0.2309(5) 0.7529(4) 0.4416(4) 0.094(5) Uani 0.222(4) 1 d PDU . 2
F3 F 0.2312(6) 0.8370(3) 0.4460(5) 0.136(6) Uani 0.222(4) 1 d PDU . 2
F1' F 0.28914(19) 0.8093(3) 0.4857(2) 0.113(3) Uani 0.556(9) 1 d PDU . 3
F2' F 0.2427(5) 0.7417(3) 0.4708(5) 0.115(4) Uani 0.278(4) 1 d PDU . 3
F3' F 0.2227(5) 0.8128(5) 0.4289(4) 0.162(6) Uani 0.278(4) 1 d PDU . 3
C17 C 0.4466(9) 0.8436(8) 1.0151(5) 0.134(8) Uiso 0.447(5) 1 d PDU . .
C16 C 0.4460(6) 0.8587(9) 0.9561(6) 0.169(10) Uiso 0.447(5) 1 d PDU . .
N5 N 0.4799(5) 0.8776(6) 0.9236(5) 0.110(6) Uiso 0.447(5) 1 d PDU . .
N6 N 0.3245(8) 0.6663(8) 1.4041(7) 0.222(8) Uiso 0.553(5) 1 d PDU B 1
C18 C 0.3275(8) 0.6884(7) 1.3588(7) 0.143(7) Uiso 0.553(5) 1 d PDU B 1
C19 C 0.3432(10) 0.6915(10) 1.3003(8) 0.230(10) Uiso 0.553(5) 1 d PDU B 1
C15 C 0.4105(8) 0.6538(4) 1.3293(5) 0.142(7) Uiso 0.50 1 d PDU C 3
O2 O 0.4090(10) 0.6004(5) 1.3383(9) 0.233(11) Uiso 0.369(7) 1 d PDU C 3
O2' O 0.410(2) 0.6814(13) 1.2822(9) 0.179(17) Uiso 0.131(7) 1 d PDU C 3
C14 C 0.2723(5) 0.6210(11) 1.5002(14) 0.189(14) Uiso 0.33 1 d PDU . 3
O1 O 0.3216(6) 0.6336(7) 1.4821(7) 0.146(8) Uiso 0.33 1 d PDU D 3
C14' C 0.3343(10) 0.4940(9) 1.1615(14) 0.080(14) Uiso 0.17 1 d PDU E 2
O1' O 0.3596(13) 0.4530(11) 1.1360(13) 0.131(14) Uiso 0.17 1 d PDU E 2
O1W O 0.4538(11) 0.7033(11) 0.9759(10) 0.077(10) Uiso 0.17 1 d P . .

loop_
_atom_site_aniso_label
_atom_site_aniso_U_11
_atom_site_aniso_U_22
_atom_site_aniso_U_33
_atom_site_aniso_U_23
_atom_site_aniso_U_13
_atom_site_aniso_U_12
Ag1 0.1395(10) 0.0888(8) 0.0863(8) 0.000 0.0211(8) 0.000
N1 0.181(7) 0.065(5) 0.077(6) 0.004(4) 0.036(5) -0.051(5)
N2 0.145(6) 0.044(4) 0.123(6) -0.042(4) 0.051(5) -0.034(4)
N3 0.074(5) 0.094(5) 0.076(5) 0.015(4) 0.002(4) -0.013(5)
N4 0.137(5) 0.137(5) 0.137(5) -0.012(6) 0.012(6) -0.012(6)
C1 0.148(6) 0.137(6) 0.120(6) 0.006(5) 0.017(5) -0.024(5)
C2 0.185(7) 0.188(7) 0.183(7) -0.010(6) 0.010(6) -0.037(6)
C3 0.127(6) 0.122(6) 0.114(6) -0.009(5) 0.029(5) -0.008(5)
C4 0.147(9) 0.088(8) 0.104(8) 0.033(6) 0.058(7) -0.017(7)
C5 0.180(9) 0.095(8) 0.050(6) -0.007(7) 0.002(7) 0.000(7)
C6 0.130(8) 0.075(7) 0.092(7) -0.012(6) 0.008(6) 0.023(7)
C7 0.124(6) 0.098(5) 0.134(6) -0.028(5) 0.013(5) -0.014(5)
C8 0.097(7) 0.074(7) 0.071(6) 0.014(5) -0.001(5) -0.030(6)
C9 0.100(7) 0.083(7) 0.121(9) -0.007(6) 0.030(6) 0.021(6)
C10 0.082(7) 0.060(6) 0.125(8) -0.010(6) 0.054(6) -0.002(5)
C11 0.058(6) 0.127(8) 0.078(7) 0.008(6) 0.015(5) -0.044(6)
C12 0.078(6) 0.087(7) 0.108(8) 0.001(6) -0.003(6) -0.037(6)
C13 0.098(8) 0.100(8) 0.085(8) -0.013(6) 0.035(6) 0.022(6)
C20 0.060(5) 0.060(5) 0.060(5) 0.007(4) 0.007(4) 0.007(4)
Cl1 0.157(4) 0.157(4) 0.157(4) 0.003(3) 0.003(3) 0.003(3)
Cl2 0.111(5) 0.093(5) 0.105(5) -0.012(4) 0.056(4) 0.016(4)
B1 0.108(9) 0.131(9) 0.141(9) -0.044(8) 0.023(9) -0.015(9)
F1 0.098(7) 0.153(7) 0.154(7) -0.053(7) 0.036(6) -0.049(6)
F2 0.116(11) 0.053(9) 0.114(11) -0.064(9) 0.031(9) -0.027(9)
F3 0.134(12) 0.119(12) 0.154(12) -0.100(11) 0.016(11) 0.015(11)
F1' 0.082(6) 0.119(6) 0.136(7) -0.041(5) 0.017(5) 0.013(5)
F2' 0.107(8) 0.090(8) 0.147(9) -0.057(7) 0.006(8) -0.005(8)
F3' 0.134(12) 0.192(12) 0.159(12) -0.107(11) 0.000(11) 0.002(11)

_geom_special_details            
;
All esds (except the esd in the dihedral angle between two l.s. planes)
are estimated using the full covariance matrix. The cell esds are taken
into account individually in the estimation of esds in distances, angles
and torsion angles; correlations between esds in cell parameters are only
used when they are defined by crystal symmetry. An approximate (isotropic)
treatment of cell esds is used for estimating esds involving l.s. planes.
;

loop_
_geom_bond_atom_site_label_1
_geom_bond_atom_site_label_2
_geom_bond_distance
_geom_bond_site_symmetry_2
_geom_bond_publ_flag
Ag1 N1 2.201(6) 15_546 ?
Ag1 N1 2.201(6) . ?
Ag1 N3 2.382(6) . ?
Ag1 N3 2.382(6) 15_546 ?
N1 C1 1.355(10) . ?
N1 C5 1.442(10) . ?
N2 N3 1.356(8) . ?
N2 C5 1.358(10) . ?
N2 H2B 0.8600 . ?
N3 C6 1.367(10) . ?
N4 C11 1.513(8) 6_467 ?
N4 C11 1.513(8) 12_675 ?
N4 C11 1.513(8) . ?
C1 C2 1.436(13) . ?
C1 H1A 0.9300 . ?
C2 C3 1.493(13) . ?
C2 H2A 0.9300 . ?
C3 C4 1.304(11) . ?
C3 H3A 0.9300 . ?
C4 C5 1.437(11) . ?
C4 H4D 0.9300 . ?
C6 C8 1.408(10) . ?
C6 C7 1.584(10) . ?
C7 H7A 0.9600 . ?
C7 H7B 0.9600 . ?
C7 H7C 0.9600 . ?
C8 C13 1.421(10) . ?
C8 C9 1.448(10) . ?
C9 C10 1.396(10) . ?
C9 H9A 0.9300 . ?
C10 C11 1.311(10) . ?
C10 H10A 0.9300 . ?
C11 C12 1.468(10) . ?
C12 C13 1.306(10) . ?
C12 H12A 0.9300 . ?
C13 H13A 0.9300 . ?
C20 Cl2 1.613(8) 5_465 ?
C20 Cl2 1.613(8) . ?
C20 Cl2 1.613(8) 9_456 ?
C20 Cl1 1.96(3) . ?
B1 F1 1.321(6) . ?
B1 F1 1.322(6) 15_545 ?
B1 F2' 1.323(7) . ?
B1 F3' 1.327(7) . ?
B1 F2 1.340(7) . ?
B1 F3 1.342(7) . ?
B1 F1' 1.348(6) . ?
B1 F1' 1.351(6) 15_545 ?
B1 B1 1.438(9) 15_545 ?
F1 B1 1.322(6) 15_545 ?
F1' B1 1.351(6) 15_545 ?
F2' F2' 1.54(3) 15_545 ?
C17 C16 1.555(18) . ?
C16 N5 1.296(16) . ?
N6 C18 1.292(17) . ?
C18 C19 1.550(18) . ?
C15 O2 1.386(9) . ?
C15 O2' 1.396(10) . ?
C14 C14 1.14(3) 15_547 ?
C14 O1 1.383(10) . ?
C14' O1' 1.396(10) . ?

loop_
_geom_angle_atom_site_label_1
_geom_angle_atom_site_label_2
_geom_angle_atom_site_label_3
_geom_angle
_geom_angle_site_symmetry_1
_geom_angle_site_symmetry_3
_geom_angle_publ_flag
N1 Ag1 N1 141.6(3) 15_546 . ?
N1 Ag1 N3 137.6(3) 15_546 . ?
N1 Ag1 N3 71.9(2) . . ?
N1 Ag1 N3 71.9(2) 15_546 15_546 ?
N1 Ag1 N3 137.6(2) . 15_546 ?
N3 Ag1 N3 98.8(3) . 15_546 ?
C1 N1 C5 122.3(8) . . ?
C1 N1 Ag1 119.2(6) . . ?
C5 N1 Ag1 117.9(6) . . ?
N3 N2 C5 120.4(7) . . ?
N3 N2 H2B 119.8 . . ?
C5 N2 H2B 119.8 . . ?
N2 N3 C6 116.0(6) . . ?
N2 N3 Ag1 112.8(5) . . ?
C6 N3 Ag1 128.3(5) . . ?
C11 N4 C11 119.86(8) 6_467 12_675 ?
C11 N4 C11 119.86(8) 6_467 . ?
C11 N4 C11 119.86(8) 12_675 . ?
N1 C1 C2 118.1(9) . . ?
N1 C1 H1A 121.0 . . ?
C2 C1 H1A 121.0 . . ?
C1 C2 C3 117.7(10) . . ?
C1 C2 H2A 121.2 . . ?
C3 C2 H2A 121.2 . . ?
C4 C3 C2 122.4(9) . . ?
C4 C3 H3A 118.8 . . ?
C2 C3 H3A 118.8 . . ?
C3 C4 C5 119.2(9) . . ?
C3 C4 H4D 120.4 . . ?
C5 C4 H4D 120.4 . . ?
N2 C5 C4 123.8(9) . . ?
N2 C5 N1 116.5(8) . . ?
C4 C5 N1 119.3(9) . . ?
N3 C6 C8 118.4(8) . . ?
N3 C6 C7 116.2(7) . . ?
C8 C6 C7 125.3(8) . . ?
C6 C7 H7A 109.5 . . ?
C6 C7 H7B 109.5 . . ?
H7A C7 H7B 109.5 . . ?
C6 C7 H7C 109.5 . . ?
H7A C7 H7C 109.5 . . ?
H7B C7 H7C 109.5 . . ?
C6 C8 C13 122.8(8) . . ?
C6 C8 C9 115.0(8) . . ?
C13 C8 C9 122.2(8) . . ?
C10 C9 C8 117.8(8) . . ?
C10 C9 H9A 121.1 . . ?
C8 C9 H9A 121.1 . . ?
C11 C10 C9 117.7(8) . . ?
C11 C10 H10A 121.1 . . ?
C9 C10 H10A 121.1 . . ?
C10 C11 C12 124.7(8) . . ?
C10 C11 N4 118.7(9) . . ?
C12 C11 N4 116.4(8) . . ?
C13 C12 C11 119.3(8) . . ?
C13 C12 H12A 120.3 . . ?
C11 C12 H12A 120.3 . . ?
C12 C13 C8 117.8(9) . . ?
C12 C13 H13A 121.1 . . ?
C8 C13 H13A 121.1 . . ?
Cl2 C20 Cl2 117.5(5) 5_465 . ?
Cl2 C20 Cl2 117.5(5) 5_465 9_456 ?
Cl2 C20 Cl2 117.5(5) . 9_456 ?
Cl2 C20 Cl1 99.1(9) 5_465 . ?
Cl2 C20 Cl1 99.1(9) . . ?
Cl2 C20 Cl1 99.1(9) 9_456 . ?
F1 B1 F1 113.7(5) . 15_545 ?
F1 B1 F2' 90.7(7) . . ?
F1 B1 F2' 85.0(7) 15_545 . ?
F1 B1 F3' 120.1(8) . . ?
F1 B1 F3' 123.2(8) 15_545 . ?
F2' B1 F3' 110.1(7) . . ?
F1 B1 F2 109.5(7) . . ?
F1 B1 F2 105.7(7) 15_545 . ?
F2' B1 F2 37.4(7) . . ?
F3' B1 F2 72.7(8) . . ?
F1 B1 F3 111.1(7) . . ?
F1 B1 F3 109.6(7) 15_545 . ?
F2' B1 F3 144.1(8) . . ?
F3' B1 F3 34.3(8) . . ?
F2 B1 F3 106.9(7) . . ?
F1 B1 F1' 113.0(5) . . ?
F1 B1 F1' 20.9(6) 15_545 . ?
F2' B1 F1' 105.9(7) . . ?
F3' B1 F1' 113.5(7) . . ?
F2 B1 F1' 122.7(7) . . ?
F3 B1 F1' 91.7(7) . . ?
F1 B1 F1' 20.9(6) . 15_545 ?
F1 B1 F1' 112.7(5) 15_545 15_545 ?
F2' B1 F1' 111.6(7) . 15_545 ?
F3' B1 F1' 111.1(7) . 15_545 ?
F2 B1 F1' 127.1(7) . 15_545 ?
F3 B1 F1' 93.2(7) . 15_545 ?
F1' B1 F1' 104.4(5) . 15_545 ?
F1 B1 B1 57.1(3) . 15_545 ?
F1 B1 B1 57.0(3) 15_545 15_545 ?
F2' B1 B1 92.0(6) . 15_545 ?
F3' B1 B1 157.8(6) . 15_545 ?
F2 B1 B1 129.4(6) . 15_545 ?
F3 B1 B1 123.6(6) . 15_545 ?
F1' B1 B1 57.9(3) . 15_545 ?
F1' B1 B1 57.7(3) 15_545 15_545 ?
B1 F1 B1 65.9(4) . 15_545 ?
B1 F1' B1 64.4(4) . 15_545 ?
B1 F2' F2' 87.6(6) . 15_545 ?
N5 C16 C17 135.0(17) . . ?
N6 C18 C19 155(2) . . ?
O2 C15 O2' 130(2) . . ?
C14 C14 O1 155(4) 15_547 . ?

_diffrn_measured_fraction_theta_max 0.984
_diffrn_reflns_theta_full        24.96
_diffrn_measured_fraction_theta_full 0.984
_refine_diff_density_max         0.261
_refine_diff_density_min         -0.233
_refine_diff_density_rms         0.062
