####################################################################### 
# 
# This file contains crystal structure data downloaded from the 
# Cambridge Structural Database (CSD) hosted by the Cambridge 
# Crystallographic Data Centre (CCDC).
# 
# Full information about CCDC data access policies and citation 
# guidelines are available at http://www.ccdc.cam.ac.uk/access/V1 
# 
# Audit and citation data items may have been added by the CCDC. 
# Please retain this information to preserve the provenance of 
# this file and to allow appropriate attribution of the data. 
# 
#######################################################################

data_agmp02
_audit_block_doi                 10.5517/ccxwqcv
_database_code_depnum_ccdc_archive 'CCDC 860788'
loop_
_citation_id
_citation_doi
_citation_year
1 10.1002/anie.201204530 2012
_audit_update_record             
;
2012-01-02 deposited with the CCDC.	2024-07-06 downloaded from the CCDC.
;
#TrackingRef 'agtpha-2.cif'


_audit_creation_method           SHELXL-97
_chemical_name_systematic        
;
?
;
_chemical_name_common            ?
_chemical_melting_point          ?
_chemical_formula_moiety         ?
_chemical_formula_sum            'C97 H112 Ag3 B3 Cl3 F12 N26 O7'
_chemical_formula_weight         2444.52

loop_
_atom_type_symbol
_atom_type_description
_atom_type_scat_dispersion_real
_atom_type_scat_dispersion_imag
_atom_type_scat_source
C C 0.0033 0.0016 'International Tables Vol C Tables 4.2.6.8 and 6.1.1.4'
H H 0.0000 0.0000 'International Tables Vol C Tables 4.2.6.8 and 6.1.1.4'
B B 0.0013 0.0007 'International Tables Vol C Tables 4.2.6.8 and 6.1.1.4'
N N 0.0061 0.0033 'International Tables Vol C Tables 4.2.6.8 and 6.1.1.4'
O O 0.0106 0.0060 'International Tables Vol C Tables 4.2.6.8 and 6.1.1.4'
F F 0.0171 0.0103 'International Tables Vol C Tables 4.2.6.8 and 6.1.1.4'
Ag Ag -0.8971 1.1015 'International Tables Vol C Tables 4.2.6.8 and 6.1.1.4'
Cl Cl 0.1484 0.1585 'International Tables Vol C Tables 4.2.6.8 and 6.1.1.4'

_symmetry_cell_setting           I2(1)3
_symmetry_space_group_name_H-M   Cubic

loop_
_symmetry_equiv_pos_as_xyz
'x, y, z'
'-x+1/2, -y, z+1/2'
'-x, y+1/2, -z+1/2'
'x+1/2, -y+1/2, -z'
'z, x, y'
'z+1/2, -x+1/2, -y'
'-z+1/2, -x, y+1/2'
'-z, x+1/2, -y+1/2'
'y, z, x'
'-y, z+1/2, -x+1/2'
'y+1/2, -z+1/2, -x'
'-y+1/2, -z, x+1/2'
'x+1/2, y+1/2, z+1/2'
'-x+1, -y+1/2, z+1'
'-x+1/2, y+1, -z+1'
'x+1, -y+1, -z+1/2'
'z+1/2, x+1/2, y+1/2'
'z+1, -x+1, -y+1/2'
'-z+1, -x+1/2, y+1'
'-z+1/2, x+1, -y+1'
'y+1/2, z+1/2, x+1/2'
'-y+1/2, z+1, -x+1'
'y+1, -z+1, -x+1/2'
'-y+1, -z+1/2, x+1'

_cell_length_a                   25.369(5)
_cell_length_b                   25.369(5)
_cell_length_c                   25.369(5)
_cell_angle_alpha                90.00
_cell_angle_beta                 90.00
_cell_angle_gamma                90.00
_cell_volume                     16328(6)
_cell_formula_units_Z            4
_cell_measurement_temperature    180(2)
_cell_measurement_reflns_used    ?
_cell_measurement_theta_min      ?
_cell_measurement_theta_max      ?

_exptl_crystal_description       block
_exptl_crystal_colour            yellow
_exptl_crystal_size_max          0.32
_exptl_crystal_size_mid          0.24
_exptl_crystal_size_min          0.20
_exptl_crystal_density_meas      ?
_exptl_crystal_density_diffrn    0.994
_exptl_crystal_density_method    'not measured'
_exptl_crystal_F_000             4988
_exptl_absorpt_coefficient_mu    0.462
_exptl_absorpt_correction_type   ?
_exptl_absorpt_correction_T_min  ?
_exptl_absorpt_correction_T_max  ?
_exptl_absorpt_process_details   ?

_exptl_special_details           
;
?
;

_diffrn_ambient_temperature      180(2)
_diffrn_radiation_wavelength     0.71073
_diffrn_radiation_type           MoK\a
_diffrn_radiation_source         'fine-focus sealed tube'
_diffrn_radiation_monochromator  graphite
_diffrn_measurement_device_type  'CCD area detector'
_diffrn_measurement_method       'phi and omega scans'
_diffrn_reflns_number            42559
_diffrn_reflns_av_R_equivalents  0.1436
_diffrn_reflns_av_sigmaI/netI    0.0786
_diffrn_reflns_limit_h_min       -30
_diffrn_reflns_limit_h_max       30
_diffrn_reflns_limit_k_min       -29
_diffrn_reflns_limit_k_max       30
_diffrn_reflns_limit_l_min       -30
_diffrn_reflns_limit_l_max       23
_diffrn_reflns_theta_min         2.27
_diffrn_reflns_theta_max         25.00
_reflns_number_total             4781
_reflns_number_gt                1378
_reflns_threshold_expression     >2sigma(I)

_computing_data_collection       'Bruker SMART'
_computing_cell_refinement       'Bruker SMART'
_computing_data_reduction        'Bruker SAINT'
_computing_structure_solution    'Bruker SHELXTL'
_computing_structure_refinement  'Bruker SHELXTL'
_computing_molecular_graphics    'Bruker SHELXTL'
_computing_publication_material  'Bruker SHELXTL'

_refine_special_details          
;
Refinement of F^2^ against ALL reflections. The weighted R-factor wR and
goodness of fit S are based on F^2^, conventional R-factors R are based
on F, with F set to zero for negative F^2^. The threshold expression of
F^2^ > 2sigma(F^2^) is used only for calculating R-factors(gt) etc. and is
not relevant to the choice of reflections for refinement. R-factors based
on F^2^ are statistically about twice as large as those based on F, and R-
factors based on ALL data will be even larger.
;

_refine_ls_structure_factor_coef Fsqd
_refine_ls_matrix_type           full
_refine_ls_weighting_scheme      calc
_refine_ls_weighting_details     
'calc w=1/[\s^2^(Fo^2^)+(0.0750P)^2^+0.0000P] where P=(Fo^2^+2Fc^2^)/3'
_atom_sites_solution_primary     direct
_atom_sites_solution_secondary   difmap
_atom_sites_solution_hydrogens   geom
_refine_ls_hydrogen_treatment    constr
_refine_ls_extinction_method     none
_refine_ls_extinction_coef       ?
_refine_ls_abs_structure_details 'Flack H D (1983), Acta Cryst. A39, 876-881'
_refine_ls_abs_structure_Flack   0.00(8)
_refine_ls_number_reflns         4781
_refine_ls_number_parameters     294
_refine_ls_number_restraints     311
_refine_ls_R_factor_all          0.2509
_refine_ls_R_factor_gt           0.0877
_refine_ls_wR_factor_ref         0.2227
_refine_ls_wR_factor_gt          0.1797
_refine_ls_goodness_of_fit_ref   1.077
_refine_ls_restrained_S_all      1.103
_refine_ls_shift/su_max          0.000
_refine_ls_shift/su_mean         0.000

loop_
_atom_site_label
_atom_site_type_symbol
_atom_site_fract_x
_atom_site_fract_y
_atom_site_fract_z
_atom_site_U_iso_or_equiv
_atom_site_adp_type
_atom_site_occupancy
_atom_site_symmetry_multiplicity
_atom_site_calc_flag
_atom_site_refinement_flags
_atom_site_disorder_assembly
_atom_site_disorder_group
Ag1 Ag 0.7500 0.11300(4) 1.0000 0.1801(4) Uani 1 2 d S . .
N1 N 0.8051(3) 0.1386(3) 0.9361(3) 0.194(3) Uani 1 1 d D . .
N2 N 0.7849(3) 0.0631(3) 0.8920(3) 0.161(3) Uani 1 1 d . . .
H2B H 0.7923 0.0403 0.8680 0.193 Uiso 1 1 calc R . .
N3 N 0.7479(3) 0.0507(3) 0.9278(3) 0.163(2) Uani 1 1 d . . .
N4 N 0.5560(4) -0.0560(4) 1.0560(4) 0.186(5) Uani 1 3 d S . .
C1 C 0.8265(5) 0.1871(4) 0.9370(4) 0.222(4) Uani 1 1 d DU . .
H1A H 0.8197 0.2090 0.9657 0.267 Uiso 1 1 calc R . .
C2 C 0.8585(5) 0.2057(4) 0.8965(5) 0.241(5) Uani 1 1 d DU . .
H2A H 0.8771 0.2371 0.8997 0.289 Uiso 1 1 calc R . .
C3 C 0.8613(4) 0.1747(4) 0.8502(4) 0.214(4) Uani 1 1 d DU . .
H3A H 0.8779 0.1874 0.8201 0.257 Uiso 1 1 calc R . .
C4 C 0.8397(4) 0.1269(3) 0.8507(3) 0.184(4) Uani 1 1 d D . .
H4D H 0.8450 0.1052 0.8216 0.221 Uiso 1 1 calc R . .
C5 C 0.8102(4) 0.1078(4) 0.8917(4) 0.173(4) Uani 1 1 d D . .
C6 C 0.7298(3) 0.0006(4) 0.9285(3) 0.166(3) Uani 1 1 d . . .
C7 C 0.7546(4) -0.0386(4) 0.8917(4) 0.193(3) Uani 1 1 d U . .
H7A H 0.7816 -0.0215 0.8714 0.289 Uiso 1 1 calc R . .
H7B H 0.7282 -0.0524 0.8684 0.289 Uiso 1 1 calc R . .
H7C H 0.7699 -0.0668 0.9117 0.289 Uiso 1 1 calc R . .
C8 C 0.6866(3) -0.0127(3) 0.9617(3) 0.146(3) Uani 1 1 d . . .
C9 C 0.6775(4) -0.0638(4) 0.9767(4) 0.176(4) Uani 1 1 d . . .
H9A H 0.7011 -0.0900 0.9665 0.211 Uiso 1 1 calc R . .
C10 C 0.6338(4) -0.0775(3) 1.0068(4) 0.170(4) Uani 1 1 d . . .
H10A H 0.6269 -0.1126 1.0149 0.204 Uiso 1 1 calc R . .
C11 C 0.6025(4) -0.0399(4) 1.0237(3) 0.158(3) Uani 1 1 d . . .
C12 C 0.6116(3) 0.0128(3) 1.0115(4) 0.169(4) Uani 1 1 d . . .
H12A H 0.5892 0.0391 1.0238 0.202 Uiso 1 1 calc R . .
C13 C 0.6523(4) 0.0241(4) 0.9824(4) 0.182(4) Uani 1 1 d . . .
H13A H 0.6588 0.0594 0.9750 0.219 Uiso 1 1 calc R . .
C20 C 0.8179(6) -0.1821(6) 0.8179(6) 0.127(6) Uani 0.50 3 d SPU A 1
Cl1 Cl 0.7776(3) -0.2224(3) 0.7776(3) 0.237(4) Uani 0.50 3 d SPU A 1
Cl2 Cl 0.8110(3) -0.1194(3) 0.7948(3) 0.175(3) Uani 0.33 1 d PU A 1
B1 B 0.79745(19) -0.02769(18) 0.75994(17) 0.193(5) Uani 0.50 1 d PDU . .
F1 F 0.7970(4) -0.0146(2) 0.7087(2) 0.207(4) Uani 0.50 1 d PDU . 2
F2 F 0.7543(3) -0.0582(4) 0.7679(5) 0.181(5) Uani 0.25 1 d PDU . 2
F3 F 0.8401(4) -0.0575(5) 0.7727(6) 0.206(6) Uani 0.25 1 d PDU . 2
F1' F 0.8126(4) -0.0144(2) 0.7103(2) 0.190(4) Uani 0.50 1 d PDU . 3
F2' F 0.7446(3) -0.0322(6) 0.7593(6) 0.201(5) Uani 0.25 1 d PDU . 3
F3' F 0.8202(6) -0.0717(4) 0.7786(6) 0.216(6) Uani 0.25 1 d PDU . 3
C17 C 0.5524(8) 0.1562(9) 0.9790(4) 0.257(8) Uiso 0.547(8) 1 d PDU . .
C16 C 0.5328(9) 0.1499(8) 1.0325(5) 0.273(9) Uiso 0.547(8) 1 d PDU . .
N5 N 0.5235(6) 0.1276(6) 1.0709(5) 0.210(6) Uiso 0.547(8) 1 d PDU . .
N6 N 0.6786(13) 0.3200(9) 0.6059(4) 0.340(11) Uiso 0.453(8) 1 d PDU B 1
C18 C 0.6826(14) 0.3018(11) 0.6474(4) 0.302(10) Uiso 0.453(8) 1 d PDU B 1
C19 C 0.6745(15) 0.2994(14) 0.7039(5) 0.324(12) Uiso 0.453(8) 1 d PDU B 1
C15 C 0.5937(3) 0.3346(6) 0.6706(5) 0.323(10) Uiso 0.50 1 d PDU C 3
O2 O 0.6520(3) 0.3348(14) 0.6603(14) 0.370(12) Uiso 0.412(12) 1 d PDU C 3
O2' O 0.588(4) 0.3054(17) 0.7216(11) 0.33(2) Uiso 0.088(12) 1 d PDU C 3
C14 C 0.7282(5) 0.3644(10) 0.5007(7) 0.256(15) Uiso 0.33 1 d PDU . 3
O1 O 0.6978(10) 0.3452(12) 0.5476(9) 0.297(11) Uiso 0.33 1 d PDU D 3
C14' C 0.6835(3) 0.6352(5) 0.9785(6) 0.120(10) Uiso 0.17 1 d PDU E 2
O1' O 0.6456(8) 0.5909(8) 0.968(2) 0.141(12) Uiso 0.08 1 d PDU E 2
O3 O 0.6419(8) 0.6054(14) 1.0081(15) 0.140(12) Uiso 0.08 1 d PDU E 2
O1W O 0.587(2) 0.150(2) 0.936(2) 0.249(18) Uiso 0.17 1 d PU . .

loop_
_atom_site_aniso_label
_atom_site_aniso_U_11
_atom_site_aniso_U_22
_atom_site_aniso_U_33
_atom_site_aniso_U_23
_atom_site_aniso_U_13
_atom_site_aniso_U_12
Ag1 0.2179(11) 0.1508(8) 0.1715(9) 0.000 0.0357(8) 0.000
N1 0.242(8) 0.155(6) 0.185(7) 0.027(5) -0.017(6) -0.052(6)
N2 0.172(6) 0.129(5) 0.181(6) -0.022(5) 0.051(5) -0.026(4)
N3 0.173(6) 0.145(5) 0.170(6) -0.004(5) 0.022(6) -0.007(5)
N4 0.186(5) 0.186(5) 0.186(5) -0.035(6) 0.035(6) -0.035(6)
C1 0.235(7) 0.216(7) 0.217(7) 0.005(6) 0.006(6) -0.013(6)
C2 0.251(7) 0.234(7) 0.237(7) 0.003(6) 0.031(6) -0.030(6)
C3 0.230(7) 0.212(7) 0.201(6) -0.001(5) 0.023(5) -0.016(5)
C4 0.239(10) 0.148(7) 0.165(8) 0.039(7) 0.038(7) -0.012(7)
C5 0.211(9) 0.192(9) 0.115(6) -0.023(8) 0.011(7) -0.016(8)
C6 0.170(7) 0.157(7) 0.170(7) -0.060(7) 0.041(6) 0.000(7)
C7 0.206(6) 0.166(5) 0.207(6) -0.002(5) 0.020(5) -0.010(5)
C8 0.159(6) 0.121(6) 0.157(6) -0.015(5) 0.058(6) 0.016(6)
C9 0.183(8) 0.133(7) 0.213(10) -0.025(7) 0.033(7) 0.000(6)
C10 0.164(7) 0.126(6) 0.219(9) -0.021(7) 0.068(7) -0.024(6)
C11 0.150(7) 0.167(7) 0.158(7) -0.012(6) 0.072(6) -0.027(6)
C12 0.146(6) 0.107(6) 0.252(11) -0.007(7) 0.003(8) -0.015(6)
C13 0.177(8) 0.177(9) 0.193(9) -0.017(7) 0.058(7) -0.062(7)
C20 0.127(6) 0.127(6) 0.127(6) 0.004(4) 0.004(4) 0.004(4)
Cl1 0.237(4) 0.237(4) 0.237(4) -0.004(3) -0.004(3) -0.004(3)
Cl2 0.190(5) 0.174(5) 0.161(4) 0.005(4) 0.047(4) 0.035(4)
B1 0.192(8) 0.193(8) 0.195(8) -0.003(8) 0.005(9) 0.021(8)
F1 0.226(7) 0.203(7) 0.192(7) -0.006(6) -0.015(6) 0.025(6)
F2 0.170(10) 0.169(10) 0.203(10) 0.001(9) 0.019(10) -0.014(9)
F3 0.206(11) 0.200(11) 0.212(11) -0.001(10) -0.002(10) -0.042(10)
F1' 0.201(7) 0.199(7) 0.171(6) -0.011(6) -0.022(6) 0.007(6)
F2' 0.191(8) 0.210(8) 0.203(8) 0.009(8) -0.011(8) -0.006(8)
F3' 0.248(12) 0.204(11) 0.196(11) 0.023(11) 0.028(11) -0.013(11)

_geom_special_details            
;
All esds (except the esd in the dihedral angle between two l.s. planes)
are estimated using the full covariance matrix. The cell esds are taken
into account individually in the estimation of esds in distances, angles
and torsion angles; correlations between esds in cell parameters are only
used when they are defined by crystal symmetry. An approximate (isotropic)
treatment of cell esds is used for estimating esds involving l.s. planes.
;

loop_
_geom_bond_atom_site_label_1
_geom_bond_atom_site_label_2
_geom_bond_distance
_geom_bond_site_symmetry_2
_geom_bond_publ_flag
Ag1 N1 2.237(7) 15_646 ?
Ag1 N1 2.237(7) . ?
Ag1 N3 2.420(7) . ?
Ag1 N3 2.420(7) 15_646 ?
N1 C1 1.346(11) . ?
N1 C5 1.379(10) . ?
N2 C5 1.302(10) . ?
N2 N3 1.344(9) . ?
N2 H2B 0.8600 . ?
N3 C6 1.352(11) . ?
N4 C11 1.492(8) 12_565 ?
N4 C11 1.492(8) . ?
N4 C11 1.492(8) 6_456 ?
C1 C2 1.391(14) . ?
C1 H1A 0.9300 . ?
C2 C3 1.418(13) . ?
C2 H2A 0.9300 . ?
C3 C4 1.330(11) . ?
C3 H3A 0.9300 . ?
C4 C5 1.370(11) . ?
C4 H4D 0.9300 . ?
C6 C8 1.424(11) . ?
C6 C7 1.501(11) . ?
C7 H7A 0.9600 . ?
C7 H7B 0.9600 . ?
C7 H7C 0.9600 . ?
C8 C9 1.371(11) . ?
C8 C13 1.380(12) . ?
C9 C10 1.389(12) . ?
C9 H9A 0.9300 . ?
C10 C11 1.312(11) . ?
C10 H10A 0.9300 . ?
C11 C12 1.392(11) . ?
C12 C13 1.303(11) . ?
C12 H12A 0.9300 . ?
C13 H13A 0.9300 . ?
C20 Cl2 1.705(10) . ?
C20 Cl2 1.705(10) 9_645 ?
C20 Cl2 1.705(10) 5_546 ?
C20 Cl1 1.77(3) . ?
B1 F1 1.335(6) 16_446 ?
B1 F1 1.341(6) . ?
B1 F3' 1.342(7) . ?
B1 F2' 1.347(7) . ?
B1 F2 1.355(7) . ?
B1 F1' 1.359(6) . ?
B1 F3 1.360(7) . ?
B1 F1' 1.363(6) 16_446 ?
B1 B1 1.493(9) 16_446 ?
F1 B1 1.335(6) 16_446 ?
F1' B1 1.363(6) 16_446 ?
F2' F2' 1.70(3) 16_446 ?
C17 O1W 1.41(5) . ?
C17 C16 1.454(9) . ?
C16 N5 1.150(9) . ?
N5 O3 1.03(2) 17_445 ?
N5 O1' 1.56(5) 17_445 ?
N6 C18 1.155(9) . ?
C18 C19 1.450(9) . ?
C15 O2' 1.500(5) . ?
C15 O2 1.500(5) . ?
C14 C14 1.11(3) 15_645 ?
C14 O1 1.499(5) . ?
C14' O1' 1.499(5) . ?
C14' O3 1.500(5) . ?
O1' O3 1.08(6) . ?
O1' N5 1.56(5) 21_545 ?
O3 N5 1.03(2) 21_545 ?

loop_
_geom_angle_atom_site_label_1
_geom_angle_atom_site_label_2
_geom_angle_atom_site_label_3
_geom_angle
_geom_angle_site_symmetry_1
_geom_angle_site_symmetry_3
_geom_angle_publ_flag
N1 Ag1 N1 146.2(4) 15_646 . ?
N1 Ag1 N3 136.4(3) 15_646 . ?
N1 Ag1 N3 69.8(3) . . ?
N1 Ag1 N3 69.8(3) 15_646 15_646 ?
N1 Ag1 N3 136.4(3) . 15_646 ?
N3 Ag1 N3 98.5(3) . 15_646 ?
C1 N1 C5 119.7(7) . . ?
C1 N1 Ag1 120.4(6) . . ?
C5 N1 Ag1 119.1(6) . . ?
C5 N2 N3 123.5(8) . . ?
C5 N2 H2B 118.3 . . ?
N3 N2 H2B 118.3 . . ?
N2 N3 C6 117.7(7) . . ?
N2 N3 Ag1 110.1(5) . . ?
C6 N3 Ag1 127.7(6) . . ?
C11 N4 C11 119.97(4) 12_565 . ?
C11 N4 C11 119.97(4) 12_565 6_456 ?
C11 N4 C11 119.97(4) . 6_456 ?
N1 C1 C2 122.2(8) . . ?
N1 C1 H1A 118.9 . . ?
C2 C1 H1A 118.9 . . ?
C1 C2 C3 117.0(8) . . ?
C1 C2 H2A 121.5 . . ?
C3 C2 H2A 121.5 . . ?
C4 C3 C2 118.5(8) . . ?
C4 C3 H3A 120.8 . . ?
C2 C3 H3A 120.8 . . ?
C3 C4 C5 123.8(8) . . ?
C3 C4 H4D 118.1 . . ?
C5 C4 H4D 118.1 . . ?
N2 C5 C4 125.6(9) . . ?
N2 C5 N1 116.3(8) . . ?
C4 C5 N1 118.0(8) . . ?
N3 C6 C8 119.4(8) . . ?
N3 C6 C7 118.2(8) . . ?
C8 C6 C7 122.3(9) . . ?
C6 C7 H7A 109.5 . . ?
C6 C7 H7B 109.5 . . ?
H7A C7 H7B 109.5 . . ?
C6 C7 H7C 109.5 . . ?
H7A C7 H7C 109.5 . . ?
H7B C7 H7C 109.5 . . ?
C9 C8 C13 115.3(9) . . ?
C9 C8 C6 121.3(9) . . ?
C13 C8 C6 123.4(8) . . ?
C8 C9 C10 121.5(9) . . ?
C8 C9 H9A 119.2 . . ?
C10 C9 H9A 119.2 . . ?
C11 C10 C9 118.8(9) . . ?
C11 C10 H10A 120.6 . . ?
C9 C10 H10A 120.6 . . ?
C10 C11 C12 121.6(8) . . ?
C10 C11 N4 117.4(9) . . ?
C12 C11 N4 121.0(9) . . ?
C13 C12 C11 118.0(9) . . ?
C13 C12 H12A 121.0 . . ?
C11 C12 H12A 121.0 . . ?
C12 C13 C8 124.5(9) . . ?
C12 C13 H13A 117.7 . . ?
C8 C13 H13A 117.7 . . ?
Cl2 C20 Cl2 112.5(8) . 9_645 ?
Cl2 C20 Cl2 112.5(8) . 5_546 ?
Cl2 C20 Cl2 112.5(8) 9_645 5_546 ?
Cl2 C20 Cl1 106.3(9) . . ?
Cl2 C20 Cl1 106.3(9) 9_645 . ?
Cl2 C20 Cl1 106.3(9) 5_546 . ?
F1 B1 F1 112.2(4) 16_446 . ?
F1 B1 F3' 117.6(8) 16_446 . ?
F1 B1 F3' 123.4(8) . . ?
F1 B1 F2' 93.8(8) 16_446 . ?
F1 B1 F2' 90.0(8) . . ?
F3' B1 F2' 111.2(8) . . ?
F1 B1 F2 111.3(7) 16_446 . ?
F1 B1 F2 106.2(7) . . ?
F3' B1 F2 79.6(8) . . ?
F2' B1 F2 31.7(8) . . ?
F1 B1 F1' 110.8(5) 16_446 . ?
F1 B1 F1' 16.9(6) . . ?
F3' B1 F1' 114.3(7) . . ?
F2' B1 F1' 106.9(7) . . ?
F2 B1 F1' 120.5(7) . . ?
F1 B1 F3 108.2(7) 16_446 . ?
F1 B1 F3 112.0(7) . . ?
F3' B1 F3 27.4(8) . . ?
F2' B1 F3 138.5(9) . . ?
F2 B1 F3 106.9(7) . . ?
F1' B1 F3 97.7(8) . . ?
F1 B1 F1' 16.9(6) 16_446 16_446 ?
F1 B1 F1' 110.2(5) . 16_446 ?
F3' B1 F1' 109.7(7) . 16_446 ?
F2' B1 F1' 110.7(7) . 16_446 ?
F2 B1 F1' 126.3(7) . 16_446 ?
F1' B1 F1' 103.8(5) . 16_446 ?
F3 B1 F1' 94.6(7) . 16_446 ?
F1 B1 B1 56.3(3) 16_446 16_446 ?
F1 B1 B1 55.9(3) . 16_446 ?
F3' B1 B1 154.4(6) . 16_446 ?
F2' B1 B1 94.3(6) . 16_446 ?
F2 B1 B1 125.9(5) . 16_446 ?
F1' B1 B1 56.9(3) . 16_446 ?
F3 B1 B1 127.1(6) . 16_446 ?
F1' B1 B1 56.6(3) 16_446 16_446 ?
B1 F1 B1 67.8(4) 16_446 . ?
B1 F1' B1 66.5(4) . 16_446 ?
B1 F2' F2' 85.5(6) . 16_446 ?
O1W C17 C16 158(3) . . ?
N5 C16 C17 156(2) . . ?
O3 N5 C16 129(2) 17_445 . ?
O3 N5 O1' 43(3) 17_445 17_445 ?
C16 N5 O1' 108.4(18) . 17_445 ?
N6 C18 C19 155(3) . . ?
O2' C15 O2 104(5) . . ?
C14 C14 O1 123(2) 15_645 . ?
O1' C14' O3 42(2) . . ?
O3 O1' C14' 69.0(13) . . ?
O3 O1' N5 41(2) . 21_545 ?
C14' O1' N5 106(3) . 21_545 ?
N5 O3 O1' 95(4) 21_545 . ?
N5 O3 C14' 150(3) 21_545 . ?
O1' O3 C14' 68.9(13) . . ?

_diffrn_measured_fraction_theta_max 0.991
_diffrn_reflns_theta_full        25.00
_diffrn_measured_fraction_theta_full 0.991
_refine_diff_density_max         0.232
_refine_diff_density_min         -0.190
_refine_diff_density_rms         0.050


