####################################################################### 
# 
# This file contains crystal structure data downloaded from the 
# Cambridge Structural Database (CSD) hosted by the Cambridge 
# Crystallographic Data Centre (CCDC).
# 
# Full information about CCDC data access policies and citation 
# guidelines are available at http://www.ccdc.cam.ac.uk/access/V1 
# 
# Audit and citation data items may have been added by the CCDC. 
# Please retain this information to preserve the provenance of 
# this file and to allow appropriate attribution of the data. 
# 
#######################################################################

data_agmp-01
_audit_block_doi                 10.5517/ccxwqbt
_database_code_depnum_ccdc_archive 'CCDC 860787'
loop_
_citation_id
_citation_doi
_citation_year
1 10.1002/anie.201204530 2012
_audit_update_record             
;
2012-01-02 deposited with the CCDC.	2024-07-06 downloaded from the CCDC.
;
#TrackingRef 'agtpha-1.cif'


_audit_creation_method           SHELXL-97
_chemical_name_systematic        
;
?
;
_chemical_name_common            ?
_chemical_melting_point          ?
_chemical_formula_moiety         ?
_chemical_formula_sum            'C97 H112 Ag3 B3 Cl3 F12 N26 O7'
_chemical_formula_weight         2444.52

loop_
_atom_type_symbol
_atom_type_description
_atom_type_scat_dispersion_real
_atom_type_scat_dispersion_imag
_atom_type_scat_source
C C 0.0033 0.0016 'International Tables Vol C Tables 4.2.6.8 and 6.1.1.4'
H H 0.0000 0.0000 'International Tables Vol C Tables 4.2.6.8 and 6.1.1.4'
B B 0.0013 0.0007 'International Tables Vol C Tables 4.2.6.8 and 6.1.1.4'
N N 0.0061 0.0033 'International Tables Vol C Tables 4.2.6.8 and 6.1.1.4'
O O 0.0106 0.0060 'International Tables Vol C Tables 4.2.6.8 and 6.1.1.4'
F F 0.0171 0.0103 'International Tables Vol C Tables 4.2.6.8 and 6.1.1.4'
Ag Ag -0.8971 1.1015 'International Tables Vol C Tables 4.2.6.8 and 6.1.1.4'
Cl Cl 0.1484 0.1585 'International Tables Vol C Tables 4.2.6.8 and 6.1.1.4'

_symmetry_cell_setting           I2(1)3
_symmetry_space_group_name_H-M   Cubic

loop_
_symmetry_equiv_pos_as_xyz
'x, y, z'
'-x+1/2, -y, z+1/2'
'-x, y+1/2, -z+1/2'
'x+1/2, -y+1/2, -z'
'z, x, y'
'z+1/2, -x+1/2, -y'
'-z+1/2, -x, y+1/2'
'-z, x+1/2, -y+1/2'
'y, z, x'
'-y, z+1/2, -x+1/2'
'y+1/2, -z+1/2, -x'
'-y+1/2, -z, x+1/2'
'x+1/2, y+1/2, z+1/2'
'-x+1, -y+1/2, z+1'
'-x+1/2, y+1, -z+1'
'x+1, -y+1, -z+1/2'
'z+1/2, x+1/2, y+1/2'
'z+1, -x+1, -y+1/2'
'-z+1, -x+1/2, y+1'
'-z+1/2, x+1, -y+1'
'y+1/2, z+1/2, x+1/2'
'-y+1/2, z+1, -x+1'
'y+1, -z+1, -x+1/2'
'-y+1, -z+1/2, x+1'

_cell_length_a                   25.381(4)
_cell_length_b                   25.381(4)
_cell_length_c                   25.381(4)
_cell_angle_alpha                90.00
_cell_angle_beta                 90.00
_cell_angle_gamma                90.00
_cell_volume                     16350(5)
_cell_formula_units_Z            4
_cell_measurement_temperature    180(2)
_cell_measurement_reflns_used    ?
_cell_measurement_theta_min      ?
_cell_measurement_theta_max      ?

_exptl_crystal_description       block
_exptl_crystal_colour            yellow
_exptl_crystal_size_max          0.30
_exptl_crystal_size_mid          0.26
_exptl_crystal_size_min          0.21
_exptl_crystal_density_meas      ?
_exptl_crystal_density_diffrn    0.993
_exptl_crystal_density_method    'not measured'
_exptl_crystal_F_000             4988
_exptl_absorpt_coefficient_mu    0.462
_exptl_absorpt_correction_type   none
_exptl_absorpt_correction_T_min  ?
_exptl_absorpt_correction_T_max  ?
_exptl_absorpt_process_details   ?

_exptl_special_details           
;
?
;

_diffrn_ambient_temperature      180(2)
_diffrn_radiation_wavelength     0.71073
_diffrn_radiation_type           MoK\a
_diffrn_radiation_source         'fine-focus sealed tube'
_diffrn_radiation_monochromator  graphite
_diffrn_measurement_device_type  'CCD area detector'
_diffrn_measurement_method       'phi and omega scans'
_diffrn_reflns_number            40346
_diffrn_reflns_av_R_equivalents  0.1304
_diffrn_reflns_av_sigmaI/netI    0.0811
_diffrn_reflns_limit_h_min       -30
_diffrn_reflns_limit_h_max       30
_diffrn_reflns_limit_k_min       -28
_diffrn_reflns_limit_k_max       30
_diffrn_reflns_limit_l_min       -30
_diffrn_reflns_limit_l_max       22
_diffrn_reflns_theta_min         2.54
_diffrn_reflns_theta_max         24.98
_reflns_number_total             4772
_reflns_number_gt                1780
_reflns_threshold_expression     >2sigma(I)

_computing_data_collection       'Bruker SMART'
_computing_cell_refinement       'Bruker SMART'
_computing_data_reduction        'Bruker SAINT'
_computing_structure_solution    'Bruker SHELXTL'
_computing_structure_refinement  'Bruker SHELXTL'
_computing_molecular_graphics    'Bruker SHELXTL'
_computing_publication_material  'Bruker SHELXTL'

_refine_special_details          
;
Refinement of F^2^ against ALL reflections. The weighted R-factor wR and
goodness of fit S are based on F^2^, conventional R-factors R are based
on F, with F set to zero for negative F^2^. The threshold expression of
F^2^ > 2sigma(F^2^) is used only for calculating R-factors(gt) etc. and is
not relevant to the choice of reflections for refinement. R-factors based
on F^2^ are statistically about twice as large as those based on F, and R-
factors based on ALL data will be even larger.
;

_refine_ls_structure_factor_coef Fsqd
_refine_ls_matrix_type           full
_refine_ls_weighting_scheme      calc
_refine_ls_weighting_details     
'calc w=1/[\s^2^(Fo^2^)+(0.0740P)^2^+0.0000P] where P=(Fo^2^+2Fc^2^)/3'
_atom_sites_solution_primary     direct
_atom_sites_solution_secondary   difmap
_atom_sites_solution_hydrogens   geom
_refine_ls_hydrogen_treatment    constr
_refine_ls_extinction_method     none
_refine_ls_extinction_coef       ?
_refine_ls_abs_structure_details 'Flack H D (1983), Acta Cryst. A39, 876-881'
_refine_ls_abs_structure_Flack   0.09(6)
_refine_ls_number_reflns         4772
_refine_ls_number_parameters     294
_refine_ls_number_restraints     310
_refine_ls_R_factor_all          0.2029
_refine_ls_R_factor_gt           0.0777
_refine_ls_wR_factor_ref         0.1844
_refine_ls_wR_factor_gt          0.1538
_refine_ls_goodness_of_fit_ref   1.012
_refine_ls_restrained_S_all      1.050
_refine_ls_shift/su_max          0.002
_refine_ls_shift/su_mean         0.000

loop_
_atom_site_label
_atom_site_type_symbol
_atom_site_fract_x
_atom_site_fract_y
_atom_site_fract_z
_atom_site_U_iso_or_equiv
_atom_site_adp_type
_atom_site_occupancy
_atom_site_symmetry_multiplicity
_atom_site_calc_flag
_atom_site_refinement_flags
_atom_site_disorder_assembly
_atom_site_disorder_group
Ag1 Ag 0.2500 0.88775(3) 0.0000 0.1423(3) Uani 1 2 d S . .
N1 N 0.1964(2) 0.8622(2) 0.0630(2) 0.140(2) Uani 1 1 d D . .
N2 N 0.2164(2) 0.93770(19) 0.1080(2) 0.1235(19) Uani 1 1 d . . .
H2B H 0.2091 0.9605 0.1320 0.148 Uiso 1 1 calc R . .
N3 N 0.2525(2) 0.94954(19) 0.0719(2) 0.1246(18) Uani 1 1 d . . .
N4 N 0.4435(3) 1.0565(3) -0.0565(3) 0.168(4) Uani 1 3 d S . .
C1 C 0.1741(4) 0.8154(3) 0.0621(3) 0.180(3) Uani 1 1 d DU . .
H1A H 0.1785 0.7947 0.0323 0.215 Uiso 1 1 calc R . .
C2 C 0.1435(4) 0.7947(3) 0.1046(4) 0.196(4) Uani 1 1 d DU . .
H2A H 0.1256 0.7629 0.1017 0.235 Uiso 1 1 calc R . .
C3 C 0.1421(4) 0.8242(3) 0.1498(3) 0.172(3) Uani 1 1 d DU . .
H3A H 0.1256 0.8110 0.1797 0.206 Uiso 1 1 calc R . .
C4 C 0.1649(3) 0.8728(3) 0.1508(3) 0.151(3) Uani 1 1 d D . .
H4D H 0.1620 0.8929 0.1812 0.182 Uiso 1 1 calc R . .
C5 C 0.1921(3) 0.8932(3) 0.1082(3) 0.134(3) Uani 1 1 d D . .
C6 C 0.2692(3) 0.9974(3) 0.0736(3) 0.133(2) Uani 1 1 d . . .
C7 C 0.2465(3) 1.0399(3) 0.1080(3) 0.158(3) Uani 1 1 d U . .
H7A H 0.2191 1.0253 0.1297 0.237 Uiso 1 1 calc R . .
H7B H 0.2321 1.0674 0.0863 0.237 Uiso 1 1 calc R . .
H7C H 0.2737 1.0542 0.1300 0.237 Uiso 1 1 calc R . .
C8 C 0.3145(3) 1.0125(2) 0.0400(3) 0.127(2) Uani 1 1 d . . .
C9 C 0.3226(3) 1.0644(3) 0.0227(3) 0.156(3) Uani 1 1 d . . .
H9A H 0.2984 1.0900 0.0326 0.187 Uiso 1 1 calc R . .
C10 C 0.3652(3) 1.0798(3) -0.0087(3) 0.151(3) Uani 1 1 d . . .
H10A H 0.3713 1.1149 -0.0169 0.181 Uiso 1 1 calc R . .
C11 C 0.3957(3) 1.0427(4) -0.0258(3) 0.159(3) Uani 1 1 d . . .
C12 C 0.3890(3) 0.9895(3) -0.0131(3) 0.142(3) Uani 1 1 d . . .
H12A H 0.4118 0.9638 -0.0258 0.170 Uiso 1 1 calc R . .
C13 C 0.3482(3) 0.9769(3) 0.0182(3) 0.154(3) Uani 1 1 d . . .
H13A H 0.3425 0.9414 0.0254 0.185 Uiso 1 1 calc R . .
C20 C 0.1821(5) 1.1821(5) 0.1821(5) 0.102(5) Uani 0.50 3 d SPU A 1
Cl1 Cl 0.2216(3) 1.2216(3) 0.2216(3) 0.226(4) Uani 0.50 3 d SPU A 1
Cl2 Cl 0.1906(2) 1.1202(2) 0.2060(2) 0.1363(19) Uani 0.33 1 d PU A 1
B1 B 0.20298(19) 1.02750(18) 0.23951(17) 0.159(5) Uani 0.50 1 d PDU . .
F1 F 0.2052(4) 1.0154(2) 0.2907(2) 0.176(4) Uani 0.50 1 d PDU . 2
F2 F 0.2438(3) 1.0604(4) 0.2301(5) 0.145(5) Uani 0.25 1 d PDU . 2
F3 F 0.1591(3) 1.0547(5) 0.2260(5) 0.173(5) Uani 0.25 1 d PDU . 2
F1' F 0.1882(3) 1.0150(2) 0.2893(2) 0.151(3) Uani 0.50 1 d PDU . 3
F2' F 0.2555(3) 1.0339(5) 0.2404(6) 0.177(6) Uani 0.25 1 d PDU . 3
F3' F 0.1801(5) 1.0709(4) 0.2201(5) 0.174(6) Uani 0.25 1 d PDU . 3
C17 C 0.4400(8) 0.8440(10) 0.0190(5) 0.287(11) Uiso 0.530(7) 1 d PDU B 2
C16 C 0.4643(9) 0.8486(8) -0.0329(5) 0.297(11) Uiso 0.530(7) 1 d PDU B 2
N5 N 0.4759(5) 0.8710(6) -0.0709(5) 0.182(6) Uiso 0.530(7) 1 d PDU B 2
N6 N 0.3026(10) 0.6752(9) 0.4144(5) 0.313(10) Uiso 0.470(7) 1 d PDU B 1
C18 C 0.3114(11) 0.6944(9) 0.3740(5) 0.287(10) Uiso 0.470(7) 1 d PDU B 1
C19 C 0.3258(12) 0.6962(12) 0.3188(5) 0.278(11) Uiso 0.470(7) 1 d PDU B 1
C15 C 0.4080(5) 0.6615(9) 0.3375(7) 0.285(10) Uiso 0.50 1 d PDU C 3
O2 O 0.3506(6) 0.6676(14) 0.3505(15) 0.288(12) Uiso 0.285(10) 1 d PDU C 3
O2' O 0.4125(17) 0.6851(14) 0.2836(9) 0.265(14) Uiso 0.215(10) 1 d PDU C 3
C14 O 0.3055(6) 0.6414(6) 0.4746(8) 0.196(7) Uiso 0.33 1 d PDU D 3
O1 C 0.3426(11) 0.5952(10) 0.4751(18) 0.270(15) Uiso 0.33 1 d PDU D 3
C14' C 0.3292(13) 0.4266(9) 0.1431(8) 0.24(2) Uiso 0.17 1 d PDU E 2
O1' O 0.308(2) 0.3772(14) 0.168(3) 0.23(3) Uiso 0.08 1 d PDU E 2
O3 O 0.340(3) 0.451(2) 0.0900(12) 0.19(2) Uiso 0.08 1 d PDU E 2
O1W O 0.433(2) 0.854(2) 0.068(3) 0.283(14) Uiso 0.17 1 d PU F 3

loop_
_atom_site_aniso_label
_atom_site_aniso_U_11
_atom_site_aniso_U_22
_atom_site_aniso_U_33
_atom_site_aniso_U_23
_atom_site_aniso_U_13
_atom_site_aniso_U_12
Ag1 0.1691(7) 0.1038(5) 0.1541(7) 0.000 0.0416(6) 0.000
N1 0.151(5) 0.107(4) 0.161(5) 0.022(4) 0.019(4) -0.040(4)
N2 0.121(4) 0.088(3) 0.161(4) 0.004(3) 0.046(4) -0.018(3)
N3 0.133(4) 0.089(3) 0.151(4) -0.001(3) 0.040(4) -0.023(3)
N4 0.168(4) 0.168(4) 0.168(4) -0.052(5) 0.052(5) -0.052(5)
C1 0.193(6) 0.171(6) 0.175(6) 0.009(5) 0.018(5) -0.008(5)
C2 0.207(6) 0.187(6) 0.194(6) 0.007(5) 0.028(5) -0.036(5)
C3 0.188(6) 0.164(5) 0.162(5) 0.009(5) 0.013(5) -0.013(5)
C4 0.147(6) 0.132(6) 0.175(7) 0.039(6) -0.009(6) -0.031(5)
C5 0.160(6) 0.125(6) 0.117(5) 0.013(5) 0.035(5) 0.000(5)
C6 0.147(5) 0.123(5) 0.127(5) -0.032(5) 0.064(4) -0.010(5)
C7 0.165(5) 0.137(4) 0.172(5) -0.012(4) 0.046(5) -0.008(4)
C8 0.153(6) 0.078(4) 0.152(6) -0.033(4) 0.049(5) -0.007(4)
C9 0.174(7) 0.093(5) 0.201(8) -0.056(5) 0.048(6) -0.002(5)
C10 0.150(6) 0.134(5) 0.168(6) -0.038(5) 0.101(5) -0.027(5)
C11 0.133(5) 0.197(8) 0.148(6) -0.045(5) 0.090(5) -0.071(6)
C12 0.114(4) 0.130(5) 0.182(7) -0.045(5) 0.053(5) -0.050(5)
C13 0.167(7) 0.105(5) 0.190(8) -0.026(5) 0.052(6) -0.042(5)
C20 0.102(5) 0.102(5) 0.102(5) 0.005(4) 0.005(4) 0.005(4)
Cl1 0.226(4) 0.226(4) 0.226(4) 0.006(3) 0.006(3) 0.006(3)
Cl2 0.150(4) 0.139(4) 0.119(3) 0.011(3) 0.037(3) 0.027(3)
B1 0.144(8) 0.180(9) 0.154(9) 0.003(9) -0.009(8) 0.020(8)
F1 0.188(7) 0.181(7) 0.159(6) 0.015(6) -0.034(6) 0.030(6)
F2 0.127(9) 0.130(8) 0.178(10) -0.007(8) 0.015(8) -0.022(8)
F3 0.159(10) 0.191(10) 0.170(10) 0.035(9) -0.025(9) -0.048(9)
F1' 0.133(6) 0.180(7) 0.140(6) -0.001(5) -0.025(5) 0.007(5)
F2' 0.126(9) 0.203(11) 0.201(11) 0.028(10) -0.014(10) -0.039(9)
F3' 0.190(11) 0.175(11) 0.158(10) 0.031(10) 0.004(10) -0.011(10)

_geom_special_details            
;
All esds (except the esd in the dihedral angle between two l.s. planes)
are estimated using the full covariance matrix. The cell esds are taken
into account individually in the estimation of esds in distances, angles
and torsion angles; correlations between esds in cell parameters are only
used when they are defined by crystal symmetry. An approximate (isotropic)
treatment of cell esds is used for estimating esds involving l.s. planes.
;

loop_
_geom_bond_atom_site_label_1
_geom_bond_atom_site_label_2
_geom_bond_distance
_geom_bond_site_symmetry_2
_geom_bond_publ_flag
Ag1 N1 2.197(5) 15_544 ?
Ag1 N1 2.197(5) . ?
Ag1 N3 2.408(5) . ?
Ag1 N3 2.408(5) 15_544 ?
N1 C1 1.315(9) . ?
N1 C5 1.396(9) . ?
N2 C5 1.286(8) . ?
N2 N3 1.329(7) . ?
N2 H2B 0.8600 . ?
N3 C6 1.288(8) . ?
N4 C11 1.484(7) 6_566 ?
N4 C11 1.484(7) 12_664 ?
N4 C11 1.484(7) . ?
C1 C2 1.427(11) . ?
C1 H1A 0.9300 . ?
C2 C3 1.370(11) . ?
C2 H2A 0.9300 . ?
C3 C4 1.362(9) . ?
C3 H3A 0.9300 . ?
C4 C5 1.385(9) . ?
C4 H4D 0.9300 . ?
C6 C8 1.481(9) . ?
C6 C7 1.503(9) . ?
C7 H7A 0.9600 . ?
C7 H7B 0.9600 . ?
C7 H7C 0.9600 . ?
C8 C13 1.363(10) . ?
C8 C9 1.405(9) . ?
C9 C10 1.397(10) . ?
C9 H9A 0.9300 . ?
C10 C11 1.293(10) . ?
C10 H10A 0.9300 . ?
C11 C12 1.400(11) . ?
C12 C13 1.342(9) . ?
C12 H12A 0.9300 . ?
C13 H13A 0.9300 . ?
C20 Cl2 1.697(8) . ?
C20 Cl2 1.697(8) 5_564 ?
C20 Cl2 1.697(8) 9_465 ?
C20 Cl1 1.74(2) . ?
B1 F1 1.333(6) 16_465 ?
B1 F1 1.336(6) . ?
B1 F3' 1.339(7) . ?
B1 F2' 1.342(7) . ?
B1 F2 1.352(7) . ?
B1 F3 1.354(7) . ?
B1 F1' 1.357(6) . ?
B1 F1' 1.357(6) 16_465 ?
B1 B1 1.494(9) 16_465 ?
F1 B1 1.333(6) 16_465 ?
F1' B1 1.357(6) 16_465 ?
C17 C16 1.459(9) . ?
C16 N5 1.158(9) . ?
N6 C18 1.156(9) . ?
C18 C19 1.449(9) . ?
C15 O2' 1.497(10) . ?
C15 O2 1.502(10) . ?
C14 O1 1.503(10) . ?
C14' O1' 1.502(11) . ?
C14' O3 1.504(11) . ?

loop_
_geom_angle_atom_site_label_1
_geom_angle_atom_site_label_2
_geom_angle_atom_site_label_3
_geom_angle
_geom_angle_site_symmetry_1
_geom_angle_site_symmetry_3
_geom_angle_publ_flag
N1 Ag1 N1 145.6(3) 15_544 . ?
N1 Ag1 N3 136.8(2) 15_544 . ?
N1 Ag1 N3 69.9(2) . . ?
N1 Ag1 N3 69.9(2) 15_544 15_544 ?
N1 Ag1 N3 136.8(2) . 15_544 ?
N3 Ag1 N3 98.7(2) . 15_544 ?
C1 N1 C5 119.3(6) . . ?
C1 N1 Ag1 121.4(5) . . ?
C5 N1 Ag1 118.6(4) . . ?
C5 N2 N3 122.0(6) . . ?
C5 N2 H2B 119.0 . . ?
N3 N2 H2B 119.0 . . ?
C6 N3 N2 114.7(5) . . ?
C6 N3 Ag1 130.4(5) . . ?
N2 N3 Ag1 110.9(4) . . ?
C11 N4 C11 119.89(8) 6_566 12_664 ?
C11 N4 C11 119.89(8) 6_566 . ?
C11 N4 C11 119.89(8) 12_664 . ?
N1 C1 C2 123.6(7) . . ?
N1 C1 H1A 118.2 . . ?
C2 C1 H1A 118.2 . . ?
C3 C2 C1 116.5(7) . . ?
C3 C2 H2A 121.8 . . ?
C1 C2 H2A 121.8 . . ?
C4 C3 C2 119.9(7) . . ?
C4 C3 H3A 120.1 . . ?
C2 C3 H3A 120.1 . . ?
C3 C4 C5 122.5(7) . . ?
C3 C4 H4D 118.8 . . ?
C5 C4 H4D 118.8 . . ?
N2 C5 C4 124.8(7) . . ?
N2 C5 N1 117.1(6) . . ?
C4 C5 N1 117.9(6) . . ?
N3 C6 C8 118.8(6) . . ?
N3 C6 C7 124.7(6) . . ?
C8 C6 C7 116.5(6) . . ?
C6 C7 H7A 109.5 . . ?
C6 C7 H7B 109.5 . . ?
H7A C7 H7B 109.5 . . ?
C6 C7 H7C 109.5 . . ?
H7A C7 H7C 109.5 . . ?
H7B C7 H7C 109.5 . . ?
C13 C8 C9 113.8(7) . . ?
C13 C8 C6 123.3(6) . . ?
C9 C8 C6 122.5(7) . . ?
C10 C9 C8 123.6(7) . . ?
C10 C9 H9A 118.2 . . ?
C8 C9 H9A 118.2 . . ?
C11 C10 C9 116.9(7) . . ?
C11 C10 H10A 121.6 . . ?
C9 C10 H10A 121.6 . . ?
C10 C11 C12 123.5(7) . . ?
C10 C11 N4 119.7(8) . . ?
C12 C11 N4 116.6(8) . . ?
C13 C12 C11 117.4(7) . . ?
C13 C12 H12A 121.3 . . ?
C11 C12 H12A 121.3 . . ?
C12 C13 C8 124.5(7) . . ?
C12 C13 H13A 117.8 . . ?
C8 C13 H13A 117.8 . . ?
Cl2 C20 Cl2 113.8(6) . 5_564 ?
Cl2 C20 Cl2 113.8(6) . 9_465 ?
Cl2 C20 Cl2 113.8(6) 5_564 9_465 ?
Cl2 C20 Cl1 104.8(7) . . ?
Cl2 C20 Cl1 104.8(7) 5_564 . ?
Cl2 C20 Cl1 104.8(7) 9_465 . ?
F1 B1 F1 111.7(4) 16_465 . ?
F1 B1 F3' 118.6(7) 16_465 . ?
F1 B1 F3' 124.4(8) . . ?
F1 B1 F2' 93.8(8) 16_465 . ?
F1 B1 F2' 88.3(8) . . ?
F3' B1 F2' 109.7(8) . . ?
F1 B1 F2 111.8(7) 16_465 . ?
F1 B1 F2 106.3(7) . . ?
F3' B1 F2 76.0(8) . . ?
F2' B1 F2 33.7(7) . . ?
F1 B1 F3 107.8(7) 16_465 . ?
F1 B1 F3 113.4(7) . . ?
F3' B1 F3 29.7(8) . . ?
F2' B1 F3 139.4(8) . . ?
F2 B1 F3 105.6(7) . . ?
F1 B1 F1' 110.9(5) 16_465 . ?
F1 B1 F1' 18.4(6) . . ?
F3' B1 F1' 114.5(7) . . ?
F2' B1 F1' 106.7(7) . . ?
F2 B1 F1' 121.3(7) . . ?
F3 B1 F1' 97.3(7) . . ?
F1 B1 F1' 18.5(6) 16_465 16_465 ?
F1 B1 F1' 110.7(5) . 16_465 ?
F3' B1 F1' 109.7(7) . 16_465 ?
F2' B1 F1' 112.2(7) . 16_465 ?
F2 B1 F1' 127.5(7) . 16_465 ?
F3 B1 F1' 92.5(7) . 16_465 ?
F1' B1 F1' 104.0(5) . 16_465 ?
F1 B1 B1 56.1(3) 16_465 16_465 ?
F1 B1 B1 55.9(3) . 16_465 ?
F3' B1 B1 154.1(6) . 16_465 ?
F2' B1 B1 96.1(6) . 16_465 ?
F2 B1 B1 129.9(5) . 16_465 ?
F3 B1 B1 124.5(5) . 16_465 ?
F1' B1 B1 56.6(3) . 16_465 ?
F1' B1 B1 56.6(3) 16_465 16_465 ?
B1 F1 B1 68.1(4) 16_465 . ?
B1 F1' B1 66.8(4) . 16_465 ?
N5 C16 C17 154(2) . . ?
N6 C18 C19 157(3) . . ?
O2' C15 O2 104(2) . . ?
O1' C14' O3 141(4) . . ?

_diffrn_measured_fraction_theta_max 0.989
_diffrn_reflns_theta_full        24.98
_diffrn_measured_fraction_theta_full 0.989
_refine_diff_density_max         0.267
_refine_diff_density_min         -0.181
_refine_diff_density_rms         0.048
