####################################################################### 
# 
# This file contains crystal structure data downloaded from the 
# Cambridge Structural Database (CSD) hosted by the Cambridge 
# Crystallographic Data Centre (CCDC).
# 
# Full information about CCDC data access policies and citation 
# guidelines are available at http://www.ccdc.cam.ac.uk/access/V1 
# 
# Audit and citation data items may have been added by the CCDC. 
# Please retain this information to preserve the provenance of 
# this file and to allow appropriate attribution of the data. 
# 
#######################################################################

data_c2c1
_audit_block_doi                 10.5517/ccxqsgv
_database_code_depnum_ccdc_archive 'CCDC 856048'
loop_
_citation_id
_citation_doi
_citation_year
1 10.1002/ejic.201200851 2012
_audit_update_record             
;
2011-11-30 deposited with the CCDC.	2024-07-06 downloaded from the CCDC.
;
#TrackingRef 'c2c.cif'


_audit_creation_method           SHELXL-97
_chemical_name_systematic        
;
?
;
_chemical_name_common            ?
_chemical_melting_point          'not measured'
_chemical_formula_moiety         'C32 H30 Co2 N4 O12'
_chemical_formula_sum            'C32 H30 Co2 N4 O12'
_chemical_formula_weight         780.46

loop_
_atom_type_symbol
_atom_type_description
_atom_type_scat_dispersion_real
_atom_type_scat_dispersion_imag
_atom_type_scat_source
C C 0.0033 0.0016 'International Tables Vol C Tables 4.2.6.8 and 6.1.1.4'
H H 0.0000 0.0000 'International Tables Vol C Tables 4.2.6.8 and 6.1.1.4'
N N 0.0061 0.0033 'International Tables Vol C Tables 4.2.6.8 and 6.1.1.4'
O O 0.0106 0.0060 'International Tables Vol C Tables 4.2.6.8 and 6.1.1.4'
Co Co 0.3494 0.9721 'International Tables Vol C Tables 4.2.6.8 and 6.1.1.4'

_symmetry_cell_setting           monoclinic
_symmetry_space_group_name_H-M   c2/c

loop_
_symmetry_equiv_pos_as_xyz
'x, y, z'
'-x, y, -z+1/2'
'x+1/2, y+1/2, z'
'-x+1/2, y+1/2, -z+1/2'
'-x, -y, -z'
'x, -y, z-1/2'
'-x+1/2, -y+1/2, -z'
'x+1/2, -y+1/2, z-1/2'

_cell_length_a                   18.191(2)
_cell_length_b                   17.177(2)
_cell_length_c                   13.6923(17)
_cell_angle_alpha                90.00
_cell_angle_beta                 129.7410(10)
_cell_angle_gamma                90.00
_cell_volume                     3289.8(7)
_cell_formula_units_Z            4
_cell_measurement_temperature    293(2)
_cell_measurement_reflns_used    3245
_cell_measurement_theta_min      1.88
_cell_measurement_theta_max      26.04

_exptl_crystal_description       pillar
_exptl_crystal_colour            red
_exptl_crystal_size_max          0.45
_exptl_crystal_size_mid          0.21
_exptl_crystal_size_min          0.15
_exptl_crystal_density_meas      none
_exptl_crystal_density_diffrn    1.576
_exptl_crystal_density_method    'not measured'
_exptl_crystal_F_000             1600
_exptl_absorpt_coefficient_mu    1.079
_exptl_absorpt_correction_type   empirical
_exptl_absorpt_correction_T_min  0.6542
_exptl_absorpt_correction_T_max  0.8784
_exptl_absorpt_process_details   SADABS

_exptl_special_details           
;
?
;

_diffrn_ambient_temperature      293(2)
_diffrn_radiation_wavelength     0.71073
_diffrn_radiation_type           MoK\a
_diffrn_radiation_source         'fine-focus sealed tube'
_diffrn_radiation_monochromator  graphite
_diffrn_measurement_device_type  'CCD area detector'
_diffrn_measurement_method       'phi and omega scans'
_diffrn_detector_area_resol_mean 9.00cm
_diffrn_standards_number         none
_diffrn_standards_interval_count none
_diffrn_standards_interval_time  none
_diffrn_standards_decay_%        none
_diffrn_reflns_number            9143
_diffrn_reflns_av_R_equivalents  0.0346
_diffrn_reflns_av_sigmaI/netI    0.0431
_diffrn_reflns_limit_h_min       -17
_diffrn_reflns_limit_h_max       22
_diffrn_reflns_limit_k_min       -21
_diffrn_reflns_limit_k_max       21
_diffrn_reflns_limit_l_min       -16
_diffrn_reflns_limit_l_max       16
_diffrn_reflns_theta_min         1.88
_diffrn_reflns_theta_max         26.04
_reflns_number_total             3245
_reflns_number_gt                2619
_reflns_threshold_expression     >2sigma(I)

_computing_data_collection       'Bruker SMART'
_computing_cell_refinement       'Bruker SMART'
_computing_data_reduction        'Bruker SAINT'
_computing_structure_solution    'SHELXS-97 (Sheldrick, 1990)'
_computing_structure_refinement  'SHELXL-97 (Sheldrick, 1997)'
_computing_molecular_graphics    SHELXP-97
_computing_publication_material  SHELXTL

_refine_special_details          
;
Refinement of F^2^ against ALL reflections. The weighted R-factor wR and
goodness of fit S are based on F^2^, conventional R-factors R are based
on F, with F set to zero for negative F^2^. The threshold expression of
F^2^ > 2sigma(F^2^) is used only for calculating R-factors(gt) etc. and is
not relevant to the choice of reflections for refinement. R-factors based
on F^2^ are statistically about twice as large as those based on F, and R-
factors based on ALL data will be even larger.
;

_refine_ls_structure_factor_coef Fsqd
_refine_ls_matrix_type           full
_refine_ls_weighting_scheme      calc
_refine_ls_weighting_details     
'calc w=1/[\s^2^(Fo^2^)+(0.0758P)^2^+5.2754P] where P=(Fo^2^+2Fc^2^)/3'
_atom_sites_solution_primary     direct
_atom_sites_solution_secondary   difmap
_atom_sites_solution_hydrogens   geom
_refine_ls_hydrogen_treatment    constr
_refine_ls_extinction_method     none
_refine_ls_extinction_coef       ?
_refine_ls_number_reflns         3245
_refine_ls_number_parameters     249
_refine_ls_number_restraints     27
_refine_ls_R_factor_all          0.0608
_refine_ls_R_factor_gt           0.0469
_refine_ls_wR_factor_ref         0.1325
_refine_ls_wR_factor_gt          0.1240
_refine_ls_goodness_of_fit_ref   1.063
_refine_ls_restrained_S_all      1.060
_refine_ls_shift/su_max          0.000
_refine_ls_shift/su_mean         0.000

loop_
_atom_site_label
_atom_site_type_symbol
_atom_site_fract_x
_atom_site_fract_y
_atom_site_fract_z
_atom_site_U_iso_or_equiv
_atom_site_adp_type
_atom_site_occupancy
_atom_site_symmetry_multiplicity
_atom_site_calc_flag
_atom_site_refinement_flags
_atom_site_disorder_assembly
_atom_site_disorder_group
Co1 Co 0.5000 0.19734(3) 0.2500 0.01424(18) Uani 1 2 d S . .
Co2 Co 0.2500 0.2500 0.0000 0.01346(18) Uani 1 2 d S . .
C1 C 0.3421(2) 0.16623(19) 0.2506(3) 0.0177(7) Uani 1 1 d . . .
C2 C 0.3378(2) 0.10033(19) 0.3195(3) 0.0186(7) Uani 1 1 d . . .
C3 C 0.2609(3) 0.0492(2) 0.2544(4) 0.0374(10) Uani 1 1 d . . .
H3 H 0.2089 0.0587 0.1697 0.080 Uiso 1 1 calc . . .
C4 C 0.2607(3) -0.0157(2) 0.3143(4) 0.0346(10) Uani 1 1 d . . .
H4 H 0.2089 -0.0497 0.2691 0.080 Uiso 1 1 calc . . .
C5 C 0.3371(2) -0.0304(2) 0.4409(3) 0.0208(7) Uani 1 1 d . . .
C6 C 0.4123(3) 0.0218(2) 0.5067(3) 0.0267(8) Uani 1 1 d . . .
H6 H 0.4630 0.0137 0.5925 0.080 Uiso 1 1 calc . . .
C7 C 0.4127(3) 0.0860(2) 0.4461(3) 0.0284(8) Uani 1 1 d . . .
H7 H 0.4644 0.1201 0.4915 0.080 Uiso 1 1 calc . . .
C8 C 0.3416(2) -0.10346(19) 0.5062(3) 0.0191(7) Uani 1 1 d . . .
C9 C 0.4636(3) 0.3284(2) 0.0222(4) 0.0354(10) Uani 1 1 d . . .
H9 H 0.4693 0.2779 0.0032 0.080 Uiso 1 1 calc . . .
C10 C 0.4934(3) 0.3903(2) -0.0084(5) 0.0387(10) Uani 1 1 d . . .
H10 H 0.5200 0.3811 -0.0470 0.080 Uiso 1 1 calc . . .
C11 C 0.4845(3) 0.4664(2) 0.0173(4) 0.0264(8) Uani 1 1 d . . .
C12 C 0.4432(3) 0.4768(2) 0.0740(4) 0.0310(9) Uani 1 1 d . . .
H12 H 0.4355 0.5268 0.0924 0.080 Uiso 1 1 calc . . .
C13 C 0.4139(3) 0.4140(2) 0.1028(4) 0.0273(8) Uani 1 1 d . . .
H13 H 0.3851 0.4218 0.1387 0.080 Uiso 1 1 calc . . .
C14 C 0.3877(9) -0.1627(14) 0.209(5) 0.175(6) Uani 0.30 1 d PDU . .
C14' C 0.3761(9) -0.1291(10) 0.209(2) 0.175(6) Uani 0.70 1 d PDU . .
C15' C 0.345(3) -0.2190(19) 0.259(3) 0.141(15) Uani 0.30 1 d P . .
C15 C 0.2484(10) -0.2181(6) 0.1649(13) 0.084(3) Uani 0.70 1 d P . .
C16 C 0.2270(8) -0.1309(6) 0.0052(10) 0.093(3) Uani 0.80 1 d PU . .
C16' C 0.192(3) -0.208(2) 0.072(4) 0.083(10) Uani 0.20 1 d PU . .
N1 N 0.4263(2) 0.34093(17) 0.0797(3) 0.0228(7) Uani 1 1 d . . .
N2 N 0.2810(4) -0.1679(4) 0.1256(6) 0.0891(18) Uani 1 1 d D . .
O1 O 0.42156(17) 0.20048(13) 0.3103(2) 0.0206(5) Uani 1 1 d . . .
O2 O 0.26787(16) 0.18176(13) 0.1399(2) 0.0202(5) Uani 1 1 d . . .
O3 O 0.41410(17) -0.11042(13) 0.6212(2) 0.0232(5) Uani 1 1 d . . .
O4 O 0.27345(17) -0.15104(14) 0.4395(2) 0.0227(5) Uani 1 1 d . . .
O5 O 0.39984(16) 0.28121(13) 0.1134(2) 0.0224(5) Uani 1 1 d . . .
O6 O 0.1381(4) -0.1507(4) -0.0746(7) 0.131(2) Uani 1 1 d . . .

loop_
_atom_site_aniso_label
_atom_site_aniso_U_11
_atom_site_aniso_U_22
_atom_site_aniso_U_33
_atom_site_aniso_U_23
_atom_site_aniso_U_13
_atom_site_aniso_U_12
Co1 0.0127(3) 0.0126(3) 0.0139(3) 0.000 0.0068(3) 0.000
Co2 0.0129(3) 0.0112(3) 0.0148(3) 0.0018(2) 0.0082(3) 0.0006(2)
C1 0.0196(18) 0.0168(16) 0.0208(18) -0.0005(13) 0.0149(16) 0.0007(13)
C2 0.0161(17) 0.0191(17) 0.0205(18) 0.0040(14) 0.0116(15) 0.0016(13)
C3 0.022(2) 0.043(2) 0.022(2) 0.0138(18) 0.0023(17) -0.0090(18)
C4 0.023(2) 0.033(2) 0.026(2) 0.0056(17) 0.0053(17) -0.0136(16)
C5 0.0197(18) 0.0200(17) 0.0204(18) 0.0021(14) 0.0117(16) -0.0010(14)
C6 0.0202(19) 0.0262(19) 0.0179(18) 0.0038(15) 0.0049(16) -0.0028(15)
C7 0.024(2) 0.027(2) 0.0221(19) 0.0018(16) 0.0089(17) -0.0090(15)
C8 0.0189(18) 0.0166(16) 0.0225(19) 0.0032(14) 0.0136(16) 0.0012(14)
C9 0.040(2) 0.026(2) 0.052(3) 0.0118(19) 0.035(2) 0.0072(17)
C10 0.045(3) 0.030(2) 0.062(3) 0.017(2) 0.043(3) 0.0091(19)
C11 0.0185(18) 0.0257(19) 0.027(2) 0.0083(16) 0.0107(17) -0.0003(15)
C12 0.036(2) 0.0238(19) 0.031(2) -0.0002(16) 0.0203(19) -0.0076(16)
C13 0.028(2) 0.0251(19) 0.027(2) -0.0036(16) 0.0172(18) -0.0077(15)
C14 0.175(6) 0.176(6) 0.175(6) 0.0002(7) 0.112(4) -0.0005(7)
C14' 0.175(6) 0.176(6) 0.175(6) 0.0002(7) 0.112(4) -0.0005(7)
C15' 0.19(4) 0.10(2) 0.074(19) 0.033(17) 0.06(2) -0.03(2)
C15 0.108(9) 0.077(7) 0.093(9) 0.015(6) 0.077(8) -0.009(6)
C16 0.098(6) 0.098(6) 0.091(6) 0.010(5) 0.064(5) 0.007(5)
C16' 0.083(13) 0.089(14) 0.087(13) -0.009(9) 0.059(10) 0.010(9)
N1 0.0153(15) 0.0241(16) 0.0229(16) 0.0073(13) 0.0095(13) -0.0006(12)
N2 0.067(4) 0.116(5) 0.085(4) -0.021(4) 0.048(4) -0.022(3)
O1 0.0193(13) 0.0232(13) 0.0212(13) -0.0022(10) 0.0138(11) -0.0055(10)
O2 0.0171(12) 0.0225(12) 0.0179(13) 0.0076(10) 0.0098(11) 0.0022(10)
O3 0.0208(13) 0.0177(12) 0.0189(13) 0.0066(10) 0.0071(11) 0.0014(10)
O4 0.0214(13) 0.0191(12) 0.0187(12) 0.0025(10) 0.0087(11) -0.0037(10)
O5 0.0153(12) 0.0193(12) 0.0262(14) 0.0101(10) 0.0104(11) -0.0007(9)
O6 0.081(4) 0.146(5) 0.162(6) -0.023(5) 0.077(4) 0.015(4)

_geom_special_details            
;
All esds (except the esd in the dihedral angle between two l.s. planes)
are estimated using the full covariance matrix. The cell esds are taken
into account individually in the estimation of esds in distances, angles
and torsion angles; correlations between esds in cell parameters are only
used when they are defined by crystal symmetry. An approximate (isotropic)
treatment of cell esds is used for estimating esds involving l.s. planes.
;

loop_
_geom_bond_atom_site_label_1
_geom_bond_atom_site_label_2
_geom_bond_distance
_geom_bond_site_symmetry_2
_geom_bond_publ_flag
Co1 O1 2.056(2) 2_655 ?
Co1 O1 2.056(2) . ?
Co1 O3 2.063(2) 6 ?
Co1 O3 2.063(2) 5_656 ?
Co1 O5 2.130(2) 2_655 ?
Co1 O5 2.130(2) . ?
Co2 O4 2.051(2) 4 ?
Co2 O4 2.051(2) 6 ?
Co2 O2 2.087(2) 7 ?
Co2 O2 2.087(2) . ?
Co2 O5 2.172(2) 7 ?
Co2 O5 2.172(2) . ?
C1 O2 1.255(4) . ?
C1 O1 1.262(4) . ?
C1 C2 1.507(4) . ?
C2 C7 1.380(5) . ?
C2 C3 1.388(5) . ?
C3 C4 1.386(5) . ?
C3 H3 0.9300 . ?
C4 C5 1.385(5) . ?
C4 H4 0.9300 . ?
C5 C6 1.382(5) . ?
C5 C8 1.513(5) . ?
C6 C7 1.383(5) . ?
C6 H6 0.9300 . ?
C7 H7 0.9300 . ?
C8 O3 1.256(4) . ?
C8 O4 1.261(4) . ?
C9 N1 1.346(5) . ?
C9 C10 1.374(5) . ?
C9 H9 0.9300 . ?
C10 C11 1.391(6) . ?
C10 H10 0.9300 . ?
C11 C12 1.394(6) . ?
C11 C11 1.488(7) 5_665 ?
C12 C13 1.368(5) . ?
C12 H12 0.9300 . ?
C13 N1 1.348(5) . ?
C13 H13 0.9300 . ?
C14 C14' 0.617(10) . ?
C14 N2 1.498(10) . ?
C14 C15' 1.64(6) . ?
C14' N2 1.489(9) . ?
C14' C15' 1.91(4) . ?
C15' C15 1.37(4) . ?
C15' N2 1.66(3) . ?
C15 C16' 1.01(4) . ?
C15 N2 1.339(10) . ?
C16 O6 1.290(11) . ?
C16 N2 1.420(11) . ?
C16 C16' 1.94(5) . ?
C16' N2 1.46(4) . ?
C16' O6 1.86(5) . ?
N1 O5 1.334(4) . ?
O3 Co1 2.063(2) 5_656 ?
O4 Co2 2.051(2) 4_545 ?

loop_
_geom_angle_atom_site_label_1
_geom_angle_atom_site_label_2
_geom_angle_atom_site_label_3
_geom_angle
_geom_angle_site_symmetry_1
_geom_angle_site_symmetry_3
_geom_angle_publ_flag
O1 Co1 O1 176.99(13) 2_655 . ?
O1 Co1 O3 90.95(10) 2_655 6 ?
O1 Co1 O3 91.23(10) . 6 ?
O1 Co1 O3 91.23(10) 2_655 5_656 ?
O1 Co1 O3 90.95(10) . 5_656 ?
O3 Co1 O3 87.30(13) 6 5_656 ?
O1 Co1 O5 84.91(9) 2_655 2_655 ?
O1 Co1 O5 93.05(9) . 2_655 ?
O3 Co1 O5 174.42(9) 6 2_655 ?
O3 Co1 O5 89.06(9) 5_656 2_655 ?
O1 Co1 O5 93.05(9) 2_655 . ?
O1 Co1 O5 84.91(9) . . ?
O3 Co1 O5 89.06(9) 6 . ?
O3 Co1 O5 174.42(9) 5_656 . ?
O5 Co1 O5 94.87(13) 2_655 . ?
O4 Co2 O4 180.00(16) 4 6 ?
O4 Co2 O2 87.40(9) 4 7 ?
O4 Co2 O2 92.60(9) 6 7 ?
O4 Co2 O2 92.60(9) 4 . ?
O4 Co2 O2 87.40(9) 6 . ?
O2 Co2 O2 180.00(18) 7 . ?
O4 Co2 O5 90.19(9) 4 7 ?
O4 Co2 O5 89.81(9) 6 7 ?
O2 Co2 O5 95.43(9) 7 7 ?
O2 Co2 O5 84.57(9) . 7 ?
O4 Co2 O5 89.81(9) 4 . ?
O4 Co2 O5 90.19(9) 6 . ?
O2 Co2 O5 84.57(9) 7 . ?
O2 Co2 O5 95.43(9) . . ?
O5 Co2 O5 180.0 7 . ?
O2 C1 O1 125.9(3) . . ?
O2 C1 C2 118.0(3) . . ?
O1 C1 C2 116.2(3) . . ?
C7 C2 C3 118.3(3) . . ?
C7 C2 C1 121.1(3) . . ?
C3 C2 C1 120.5(3) . . ?
C4 C3 C2 120.8(3) . . ?
C4 C3 H3 119.6 . . ?
C2 C3 H3 119.6 . . ?
C5 C4 C3 120.5(3) . . ?
C5 C4 H4 119.8 . . ?
C3 C4 H4 119.8 . . ?
C6 C5 C4 118.7(3) . . ?
C6 C5 C8 119.7(3) . . ?
C4 C5 C8 121.5(3) . . ?
C5 C6 C7 120.6(3) . . ?
C5 C6 H6 119.7 . . ?
C7 C6 H6 119.7 . . ?
C2 C7 C6 121.1(3) . . ?
C2 C7 H7 119.5 . . ?
C6 C7 H7 119.5 . . ?
O3 C8 O4 127.2(3) . . ?
O3 C8 C5 115.9(3) . . ?
O4 C8 C5 116.9(3) . . ?
N1 C9 C10 120.0(4) . . ?
N1 C9 H9 120.0 . . ?
C10 C9 H9 120.0 . . ?
C9 C10 C11 121.2(4) . . ?
C9 C10 H10 119.4 . . ?
C11 C10 H10 119.4 . . ?
C10 C11 C12 116.9(3) . . ?
C10 C11 C11 121.2(4) . 5_665 ?
C12 C11 C11 121.9(4) . 5_665 ?
C13 C12 C11 120.5(4) . . ?
C13 C12 H12 119.8 . . ?
C11 C12 H12 119.8 . . ?
N1 C13 C12 120.9(3) . . ?
N1 C13 H13 119.6 . . ?
C12 C13 H13 119.6 . . ?
C14' C14 N2 77.2(13) . . ?
C14' C14 C15' 107(7) . . ?
N2 C14 C15' 63.6(19) . . ?
C14 C14' N2 78.9(13) . . ?
C14 C14' C15' 55(6) . . ?
N2 C14' C15' 56.8(13) . . ?
C15 C15' C14 105.2(18) . . ?
C15 C15' N2 51.4(11) . . ?
C14 C15' N2 53.9(11) . . ?
C15 C15' C14' 98.5(16) . . ?
C14 C15' C14' 18.0(10) . . ?
N2 C15' C14' 48.6(8) . . ?
C16' C15 N2 75(2) . . ?
C16' C15 C15' 148(3) . . ?
N2 C15 C15' 75.7(13) . . ?
O6 C16 N2 115.4(9) . . ?
O6 C16 C16' 67.0(14) . . ?
N2 C16 C16' 48.4(13) . . ?
C15 C16' N2 63(2) . . ?
C15 C16' O6 149(4) . . ?
N2 C16' O6 86(2) . . ?
C15 C16' C16 109(3) . . ?
N2 C16' C16 46.8(13) . . ?
O6 C16' C16 39.6(10) . . ?
O5 N1 C9 120.5(3) . . ?
O5 N1 C13 118.9(3) . . ?
C9 N1 C13 120.6(3) . . ?
C15 N2 C16 126.8(9) . . ?
C15 N2 C16' 42.2(17) . . ?
C16 N2 C16' 84.8(19) . . ?
C15 N2 C14' 125.0(13) . . ?
C16 N2 C14' 107.2(12) . . ?
C16' N2 C14' 166(2) . . ?
C15 N2 C14 115(2) . . ?
C16 N2 C14 117(2) . . ?
C16' N2 C14 153(2) . . ?
C14' N2 C14 23.8(4) . . ?
C15 N2 C15' 52.8(14) . . ?
C16 N2 C15' 174.1(16) . . ?
C16' N2 C15' 94(2) . . ?
C14' N2 C15' 74.6(17) . . ?
C14 N2 C15' 62(3) . . ?
C1 O1 Co1 121.9(2) . . ?
C1 O2 Co2 130.1(2) . . ?
C8 O3 Co1 139.0(2) . 5_656 ?
C8 O4 Co2 127.3(2) . 4_545 ?
N1 O5 Co1 121.89(19) . . ?
N1 O5 Co2 120.53(18) . . ?
Co1 O5 Co2 116.03(10) . . ?
C16 O6 C16' 73.4(14) . . ?

_diffrn_measured_fraction_theta_max 0.995
_diffrn_reflns_theta_full        26.04
_diffrn_measured_fraction_theta_full 0.995
_refine_diff_density_max         0.993
_refine_diff_density_min         -0.402
_refine_diff_density_rms         0.103



