
#######################################################################
#
#                 Cambridge Crystallographic Data Centre
#                                CCDC
#
#######################################################################
#
# If this CIF has been generated from an entry in the Cambridge
# Structural Database, then it will include bibliographic, chemical,
# crystal, experimental, refinement or atomic coordinate data resulting
# from the CCDC's data processing and validation procedures.
#
#######################################################################

data_CSD_CIF_ADENOS10
_audit_creation_date 1972-12-21
_audit_creation_method CSD-ConQuest-V1
_database_code_CSD ADENOS10
_database_code_depnum_ccdc_archive 'CCDC 1101225'
_chemical_formula_sum 'C10 H13 N5 O4'
_chemical_formula_moiety
;
C10 H13 N5 O4
;
_journal_coeditor_code "IUCr A09143"
_journal_coden_Cambridge 107
_journal_volume 28
_journal_year 1972
_journal_page_first 1982
_journal_name_full 'Acta Crystallogr.,Sect.B:Struct.Crystallogr.Cryst.Chem. '
loop_
_publ_author_name
"T.F.Lai"
"R.E.Marsh"
_chemical_name_systematic
;
Adenosine
;
_chemical_name_common
;
Adenocard; Adenocor; Adenoject; Adenoscan; Adenoz; Adenozer; Adesin; Adrekar; 
Cardimax; Tricor; DrugBank: DB00640; PDB Chemical Component code: ADN; 
Teaching Subset: Drug Molecules
;
_cell_volume    578.837
_exptl_crystal_density_diffrn 1.533
_exptl_special_details
;
Absolute configuration
Antiarrhythmic agent

;
_diffrn_ambient_temperature ?
_diffrn_special_details
;
The study was carried out at room temperature,in the range 283-303K

;
#These two values have been output from a single CSD field.
_refine_ls_R_factor_gt 0.024
_refine_ls_wR_factor_gt 0.024
_symmetry_cell_setting monoclinic
_symmetry_space_group_name_H-M 'P 21'
_symmetry_Int_Tables_number 4
loop_
_symmetry_equiv_pos_site_id
_symmetry_equiv_pos_as_xyz
1 x,y,z
2 -x,1/2+y,-z
_cell_length_a 4.825(1)
_cell_length_b 10.282(2)
_cell_length_c 11.823(1)
_cell_angle_alpha 90
_cell_angle_beta 99.3
_cell_angle_gamma 90
_cell_formula_units_Z 2
loop_
_atom_type_symbol
_atom_type_radius_bond
C 0.68
H 0.20
N 0.68
O 0.68
loop_
_atom_site_label
_atom_site_type_symbol
_atom_site_fract_x
_atom_site_fract_y
_atom_site_fract_z
C1 C -0.68600 0.27820 0.29930
C2 C -0.20720 -0.07220 0.27670
C3 C -0.49510 0.31610 0.41060
C4 C -0.45630 0.46160 0.39210
C5 C -0.37700 0.11890 0.21750
C6 C -0.74150 0.50240 0.32730
C7 C -0.24960 0.11650 0.12100
C8 C -0.73390 0.61770 0.24900
C9 C -0.09040 0.00410 0.10570
C10 C -0.47740 0.29300 0.11350
H1 H -0.17400 -0.13600 0.33600
H2 H -0.86500 0.51800 0.38300
H3 H -0.67700 0.69300 0.29400
H4 H -0.60500 0.60300 0.19300
H5 H -1.02400 0.72600 0.17000
H6 H -0.55900 0.37600 0.09200
H7 H 0.12800 -0.09300 0.00800
H8 H 0.03100 0.04200 -0.04000
H9 H -0.81700 0.20600 0.31300
H10 H -0.32900 0.26700 0.42100
H11 H -0.67000 0.21700 0.51400
H12 H -0.31700 0.47400 0.34600
H13 H -0.46900 0.50300 0.54400
N1 N -0.07640 -0.08990 0.18620
N2 N 0.04580 -0.01470 0.01760
N3 N -0.36160 0.02820 0.30070
N4 N -0.31430 0.22750 0.05570
N5 N -0.52320 0.23400 0.21200
O1 O -0.84170 0.38970 0.25900
O2 O -0.64210 0.30100 0.50370
O3 O -0.36590 0.53370 0.49360
O4 O -1.00830 0.64220 0.18900
#END
