####################################################################### 
# 
# This file contains crystal structure data downloaded from the 
# Cambridge Structural Database (CSD) hosted by the Cambridge 
# Crystallographic Data Centre (CCDC).
# 
# Full information about CCDC data access policies and citation 
# guidelines are available at http://www.ccdc.cam.ac.uk/access/V1 
# 
# Audit and citation data items may have been added by the CCDC. 
# Please retain this information to preserve the provenance of 
# this file and to allow appropriate attribution of the data. 
# 
#######################################################################

data_NiV16F_(squeezed)
_audit_block_doi                 10.5517/ccn81lj
_database_code_depnum_ccdc_archive 'CCDC 603557'
loop_
_citation_id
_citation_doi
_citation_year
1 10.1016/j.poly.2006.11.050 2007
_audit_update_record             
;
2006-04-04 deposited with the CCDC.	2024-07-06 downloaded from the CCDC.
;
_audit_creation_method           SHELXL-97
_chemical_name_systematic        
;
?
;
_chemical_name_common            ?
_chemical_melting_point          ?
_chemical_formula_moiety         ?
_chemical_formula_sum            'C55 H48 F N11 Ni2 O41 V16'
_chemical_formula_weight         2470.50

loop_
_atom_type_symbol
_atom_type_description
_atom_type_scat_dispersion_real
_atom_type_scat_dispersion_imag
_atom_type_scat_source
C C 0.0033 0.0016 'International Tables Vol C Tables 4.2.6.8 and 6.1.1.4'
H H 0.0000 0.0000 'International Tables Vol C Tables 4.2.6.8 and 6.1.1.4'
N N 0.0061 0.0033 'International Tables Vol C Tables 4.2.6.8 and 6.1.1.4'
O O 0.0106 0.0060 'International Tables Vol C Tables 4.2.6.8 and 6.1.1.4'
F F 0.0171 0.0103 'International Tables Vol C Tables 4.2.6.8 and 6.1.1.4'
V V 0.3005 0.5294 'International Tables Vol C Tables 4.2.6.8 and 6.1.1.4'
Ni Ni 0.3393 1.1124 'International Tables Vol C Tables 4.2.6.8 and 6.1.1.4'

_symmetry_cell_setting           Tetragonal
_symmetry_space_group_name_H-M   P-4n2

loop_
_symmetry_equiv_pos_as_xyz
'x, y, z'
'-x, -y, z'
'y, -x, -z'
'-y, x, -z'
'x+1/2, -y+1/2, z+1/2'
'-x+1/2, y+1/2, z+1/2'
'y+1/2, x+1/2, -z+1/2'
'-y+1/2, -x+1/2, -z+1/2'

_cell_length_a                   17.0616(5)
_cell_length_b                   17.0616(5)
_cell_length_c                   14.6533(6)
_cell_angle_alpha                90.00
_cell_angle_beta                 90.00
_cell_angle_gamma                90.00
_cell_volume                     4265.5(2)
_cell_formula_units_Z            2
_cell_measurement_temperature    273(2)
_cell_measurement_reflns_used    5147
_cell_measurement_theta_min      1.69
_cell_measurement_theta_max      28.30

_exptl_crystal_description       block
_exptl_crystal_colour            black
_exptl_crystal_size_max          0.26
_exptl_crystal_size_mid          0.24
_exptl_crystal_size_min          0.18
_exptl_crystal_density_meas      ?
_exptl_crystal_density_diffrn    1.923
_exptl_crystal_density_method    'not measured'
_exptl_crystal_F_000             2432
_exptl_absorpt_coefficient_mu    2.185
_exptl_absorpt_correction_type   empirical
_exptl_absorpt_correction_T_min  0.572
_exptl_absorpt_correction_T_max  0.675
_exptl_absorpt_process_details   'ABSCOR by T.Higashi 8 March, 1995'

_exptl_special_details           
;
?
;

_diffrn_ambient_temperature      273(2)
_diffrn_radiation_wavelength     0.71073
_diffrn_radiation_type           MoK\a
_diffrn_radiation_source         'fine-focus sealed tube'
_diffrn_radiation_monochromator  graphite
_diffrn_measurement_device_type  'CCD area detector'
_diffrn_measurement_method       'phi and omega scans'
_diffrn_detector_area_resol_mean '100x100 microns'
_diffrn_standards_number         none
_diffrn_standards_interval_count none
_diffrn_standards_interval_time  none
_diffrn_standards_decay_%        none
_diffrn_reflns_number            25582
_diffrn_reflns_av_R_equivalents  0.0601
_diffrn_reflns_av_sigmaI/netI    0.0493
_diffrn_reflns_limit_h_min       -22
_diffrn_reflns_limit_h_max       17
_diffrn_reflns_limit_k_min       -20
_diffrn_reflns_limit_k_max       22
_diffrn_reflns_limit_l_min       -19
_diffrn_reflns_limit_l_max       18
_diffrn_reflns_theta_min         1.69
_diffrn_reflns_theta_max         28.30
_reflns_number_total             5147
_reflns_number_gt                4209
_reflns_threshold_expression     >2sigma(I)

_computing_data_collection       'Bruker SMART'
_computing_cell_refinement       'Bruker SMART'
_computing_data_reduction        'Bruker SMART'
_computing_structure_solution    'SHELXS-97 (Sheldrick, 1990)'
_computing_structure_refinement  'SHELXL-97 (Sheldrick, 1997)'
_computing_molecular_graphics    'Bruker SHELXTL'
_computing_publication_material  'Bruker SHELXTL'

_refine_special_details          
;
Refinement of F^2^ against ALL reflections. The weighted R-factor wR and
goodness of fit S are based on F^2^, conventional R-factors R are based
on F, with F set to zero for negative F^2^. The threshold expression of
F^2^ > 2sigma(F^2^) is used only for calculating R-factors(gt) etc. and is
not relevant to the choice of reflections for refinement. R-factors based
on F^2^ are statistically about twice as large as those based on F, and R-
factors based on ALL data will be even larger.
;

_refine_ls_structure_factor_coef Fsqd
_refine_ls_matrix_type           full
_refine_ls_weighting_scheme      calc
_refine_ls_weighting_details     
'calc w=1/[\s^2^(Fo^2^)+(0.0566P)^2^+0.0000P] where P=(Fo^2^+2Fc^2^)/3'
_atom_sites_solution_primary     direct
_atom_sites_solution_secondary   difmap
_atom_sites_solution_hydrogens   geom
_refine_ls_hydrogen_treatment    mixed
_refine_ls_extinction_method     none
_refine_ls_extinction_coef       ?
_refine_ls_abs_structure_details 'Flack H D (1983), Acta Cryst. A39, 876-881'
_refine_ls_abs_structure_Flack   0.00
_refine_ls_number_reflns         5147
_refine_ls_number_parameters     238
_refine_ls_number_restraints     0
_refine_ls_R_factor_all          0.0504
_refine_ls_R_factor_gt           0.0399
_refine_ls_wR_factor_ref         0.1016
_refine_ls_wR_factor_gt          0.0975
_refine_ls_goodness_of_fit_ref   0.987
_refine_ls_restrained_S_all      0.987
_refine_ls_shift/su_max          0.001
_refine_ls_shift/su_mean         0.000

loop_
_atom_site_label
_atom_site_type_symbol
_atom_site_fract_x
_atom_site_fract_y
_atom_site_fract_z
_atom_site_U_iso_or_equiv
_atom_site_adp_type
_atom_site_occupancy
_atom_site_symmetry_multiplicity
_atom_site_calc_flag
_atom_site_refinement_flags
_atom_site_disorder_assembly
_atom_site_disorder_group
V1 V 0.12123(4) 0.11295(4) 0.12829(4) 0.01930(14) Uani 1 1 d . . .
V2 V 0.18551(4) -0.04750(4) 0.08878(6) 0.02346(17) Uani 1 1 d . . .
V3 V 0.18854(4) 0.03374(4) -0.08729(6) 0.02349(17) Uani 1 1 d . . .
V4 V 0.07086(5) 0.06638(5) -0.23028(4) 0.03669(18) Uani 1 1 d . . .
Ni3 Ni 0.25361(3) 0.24639(3) 0.2500 0.01600(14) Uani 1 2 d S . .
F1 F 0.0000 0.0000 0.0000 0.0245(8) Uani 1 4 d S . .
O1 O 0.18184(16) 0.17090(17) 0.18179(15) 0.0207(5) Uani 1 1 d . . .
O2 O 0.18500(18) 0.05886(17) 0.0383(2) 0.0249(7) Uani 1 1 d . . .
O3 O 0.13001(19) 0.00932(17) 0.1828(2) 0.0236(7) Uani 1 1 d . . .
O4 O 0.2719(2) -0.0674(2) 0.1236(3) 0.0421(9) Uani 1 1 d . . .
O5 O 0.12177(17) -0.13166(18) 0.12283(17) 0.0286(6) Uani 1 1 d . . .
O6 O 0.17792(18) -0.07144(19) -0.0372(2) 0.0276(7) Uani 1 1 d . . .
O7 O 0.2766(2) 0.0440(2) -0.1220(2) 0.0378(9) Uani 1 1 d . . .
O8 O 0.1300(2) -0.01863(18) -0.1817(2) 0.0281(8) Uani 1 1 d . . .
O9 O 0.0000 0.0000 -0.2843(2) 0.0317(8) Uani 1 2 d S . .
O10 O 0.1135(2) 0.1055(2) -0.31668(18) 0.0431(8) Uani 1 1 d . . .
N1 N 0.3473(2) 0.2158(2) 0.1593(3) 0.0238(8) Uani 1 1 d . . .
N2 N 0.2212(2) 0.3398(2) 0.1605(3) 0.0230(8) Uani 1 1 d . . .
C1 C 0.1949(3) 0.3295(3) 0.0742(4) 0.0330(12) Uani 1 1 d . . .
H1 H 0.1803 0.2792 0.0564 0.040 Uiso 1 1 calc R . .
C2 C 0.1885(3) 0.3887(3) 0.0117(4) 0.0370(13) Uani 1 1 d . . .
H2 H 0.1700 0.3783 -0.0467 0.044 Uiso 1 1 calc R . .
C3 C 0.2099(3) 0.4645(3) 0.0361(4) 0.0295(12) Uani 1 1 d . . .
C4 C 0.3351(3) 0.1953(3) 0.0731(4) 0.0315(12) Uani 1 1 d . . .
H4 H 0.2846 0.1816 0.0555 0.038 Uiso 1 1 calc R . .
C5 C 0.4214(3) 0.2289(3) 0.1849(4) 0.0302(11) Uani 1 1 d . . .
H5 H 0.4313 0.2405 0.2458 0.036 Uiso 1 1 calc R . .
C6 C 0.4843(3) 0.2257(3) 0.1247(4) 0.0345(12) Uani 1 1 d . . .
H6 H 0.5351 0.2347 0.1454 0.041 Uiso 1 1 calc R . .
C7 C 0.4704(3) 0.2089(3) 0.0321(4) 0.0270(11) Uani 1 1 d . . .
C8 C 0.3941(3) 0.1932(3) 0.0078(4) 0.0375(12) Uani 1 1 d . . .
H8 H 0.3820 0.1811 -0.0525 0.045 Uiso 1 1 calc R . .
C9 C 0.2368(3) 0.4137(3) 0.1833(4) 0.0328(12) Uani 1 1 d . . .
H9 H 0.2510 0.4237 0.2435 0.039 Uiso 1 1 calc R . .
C10 C 0.2336(3) 0.4761(3) 0.1245(4) 0.0341(12) Uani 1 1 d . . .
H10 H 0.2474 0.5260 0.1444 0.041 Uiso 1 1 calc R . .

loop_
_atom_site_aniso_label
_atom_site_aniso_U_11
_atom_site_aniso_U_22
_atom_site_aniso_U_33
_atom_site_aniso_U_23
_atom_site_aniso_U_13
_atom_site_aniso_U_12
V1 0.0186(4) 0.0195(4) 0.0197(3) -0.0012(3) -0.0005(3) -0.0041(2)
V2 0.0200(4) 0.0279(4) 0.0225(4) -0.0001(3) -0.0007(3) 0.0009(3)
V3 0.0206(4) 0.0269(4) 0.0229(4) -0.0002(3) 0.0025(3) -0.0005(3)
V4 0.0450(6) 0.0399(5) 0.0252(3) 0.0096(4) 0.0095(4) 0.0192(3)
Ni3 0.01619(19) 0.01619(19) 0.0156(3) 0.00105(15) 0.00105(15) -0.0026(2)
F1 0.0132(11) 0.0132(11) 0.047(2) 0.000 0.000 0.000
O1 0.0160(15) 0.0233(16) 0.0229(11) -0.0025(12) -0.0009(11) -0.0012(10)
O2 0.0289(17) 0.0239(16) 0.0219(17) -0.0029(13) 0.0021(13) -0.0038(12)
O3 0.0243(17) 0.0248(17) 0.0218(19) -0.0009(13) 0.0047(13) 0.0012(12)
O4 0.0235(18) 0.056(2) 0.047(2) 0.0009(18) -0.0054(16) 0.0034(16)
O5 0.0232(17) 0.0320(18) 0.0307(13) 0.0067(14) -0.0023(13) -0.0051(11)
O6 0.0320(18) 0.0271(17) 0.0237(17) -0.0009(13) -0.0017(14) 0.0021(13)
O7 0.0276(18) 0.052(2) 0.033(2) -0.0033(16) 0.0073(15) 0.0024(15)
O8 0.0354(19) 0.0205(16) 0.028(2) 0.0015(13) 0.0001(15) 0.0047(13)
O9 0.030(3) 0.039(3) 0.0259(17) 0.000 0.000 0.0067(16)
O10 0.048(2) 0.052(3) 0.0291(14) 0.0088(16) 0.0133(16) 0.0112(15)
N1 0.0166(18) 0.028(2) 0.026(2) -0.0030(17) 0.0077(16) -0.0015(14)
N2 0.0221(19) 0.025(2) 0.022(2) 0.0035(16) -0.0043(16) -0.0024(14)
C1 0.050(3) 0.022(2) 0.027(3) -0.002(2) -0.005(2) -0.010(2)
C2 0.053(3) 0.031(3) 0.027(3) 0.008(2) -0.021(3) -0.006(2)
C3 0.033(3) 0.025(2) 0.031(3) 0.009(2) -0.004(2) -0.0015(19)
C4 0.019(2) 0.047(3) 0.028(3) -0.007(2) 0.008(2) -0.0091(19)
C5 0.020(2) 0.042(3) 0.029(3) -0.010(2) -0.001(2) -0.0022(19)
C6 0.019(2) 0.042(3) 0.043(4) -0.003(3) 0.001(2) 0.004(2)
C7 0.022(2) 0.028(3) 0.031(3) 0.001(2) 0.009(2) 0.0009(18)
C8 0.033(3) 0.054(3) 0.025(3) 0.002(3) 0.006(2) -0.002(2)
C9 0.043(3) 0.025(2) 0.031(3) 0.002(2) -0.010(2) -0.001(2)
C10 0.052(3) 0.017(2) 0.033(3) 0.005(2) -0.013(3) -0.008(2)

_geom_special_details            
;
All esds (except the esd in the dihedral angle between two l.s. planes)
are estimated using the full covariance matrix. The cell esds are taken
into account individually in the estimation of esds in distances, angles
and torsion angles; correlations between esds in cell parameters are only
used when they are defined by crystal symmetry. An approximate (isotropic)
treatment of cell esds is used for estimating esds involving l.s. planes.
;

loop_
_geom_bond_atom_site_label_1
_geom_bond_atom_site_label_2
_geom_bond_distance
_geom_bond_site_symmetry_2
_geom_bond_publ_flag
V1 O1 1.631(2) . ?
V1 O6 1.932(3) 4 ?
V1 O8 1.940(3) 4 ?
V1 O2 1.943(3) . ?
V1 O3 1.946(3) . ?
V1 V3 3.0024(11) 4 ?
V1 V2 3.0054(10) . ?
V2 O4 1.596(4) . ?
V2 O5 1.869(3) . ?
V2 O6 1.895(3) . ?
V2 O3 1.933(3) . ?
V2 O2 1.960(3) . ?
V2 V3 2.9293(9) . ?
V2 V4 2.9307(11) 3 ?
V3 O7 1.596(3) . ?
V3 O5 1.862(3) 4 ?
V3 O2 1.890(3) . ?
V3 O8 1.926(3) . ?
V3 O6 1.947(3) . ?
V3 V4 2.9549(11) . ?
V3 V1 3.0024(11) 3 ?
V4 O10 1.606(3) . ?
V4 O9 1.8358(16) . ?
V4 O3 1.880(3) 4 ?
V4 O8 1.905(3) . ?
V4 O5 2.109(3) 4 ?
V4 V2 2.9307(11) 4 ?
Ni3 O1 2.039(2) 8 ?
Ni3 O1 2.039(2) . ?
Ni3 N2 2.137(4) 8 ?
Ni3 N2 2.137(4) . ?
Ni3 N1 2.143(4) . ?
Ni3 N1 2.143(4) 8 ?
O3 V4 1.880(3) 3 ?
O5 V3 1.862(3) 3 ?
O5 V4 2.109(3) 3 ?
O6 V1 1.932(3) 3 ?
O8 V1 1.940(3) 3 ?
O9 V4 1.8358(16) 2 ?
N1 C4 1.328(6) . ?
N1 C5 1.337(6) . ?
N2 C9 1.331(6) . ?
N2 C1 1.353(6) . ?
C1 C2 1.368(7) . ?
C2 C3 1.391(7) . ?
C3 C10 1.371(7) . ?
C3 C7 1.494(5) 3_565 ?
C4 C8 1.389(7) . ?
C5 C6 1.391(7) . ?
C6 C7 1.406(8) . ?
C7 C8 1.376(7) . ?
C7 C3 1.494(5) 4_655 ?
C9 C10 1.372(7) . ?

loop_
_geom_angle_atom_site_label_1
_geom_angle_atom_site_label_2
_geom_angle_atom_site_label_3
_geom_angle
_geom_angle_site_symmetry_1
_geom_angle_site_symmetry_3
_geom_angle_publ_flag
O1 V1 O6 105.25(14) . 4 ?
O1 V1 O8 106.69(14) . 4 ?
O6 V1 O8 78.22(14) 4 4 ?
O1 V1 O2 105.01(13) . . ?
O6 V1 O2 92.85(11) 4 . ?
O8 V1 O2 148.29(13) 4 . ?
O1 V1 O3 107.73(14) . . ?
O6 V1 O3 147.03(13) 4 . ?
O8 V1 O3 92.30(10) 4 . ?
O2 V1 O3 78.71(13) . . ?
O1 V1 V3 113.21(12) . 4 ?
O6 V1 V3 39.47(10) 4 4 ?
O8 V1 V3 38.88(10) 4 4 ?
O2 V1 V3 124.14(10) . 4 ?
O3 V1 V3 122.70(10) . 4 ?
O1 V1 V2 114.41(12) . . ?
O6 V1 V2 123.38(10) 4 . ?
O8 V1 V2 122.95(10) 4 . ?
O2 V1 V2 39.85(9) . . ?
O3 V1 V2 39.05(9) . . ?
V3 V1 V2 132.38(3) 4 . ?
O4 V2 O5 106.77(16) . . ?
O4 V2 O6 109.16(18) . . ?
O5 V2 O6 93.14(13) . . ?
O4 V2 O3 109.37(18) . . ?
O5 V2 O3 84.83(12) . . ?
O6 V2 O3 140.27(14) . . ?
O4 V2 O2 108.78(16) . . ?
O5 V2 O2 144.05(13) . . ?
O6 V2 O2 80.29(14) . . ?
O3 V2 O2 78.62(13) . . ?
O4 V2 V3 111.45(14) . . ?
O5 V2 V3 127.51(8) . . ?
O6 V2 V3 40.99(10) . . ?
O3 V2 V3 113.53(9) . . ?
O2 V2 V3 39.58(10) . . ?
O4 V2 V4 112.68(15) . 3 ?
O5 V2 V4 45.82(8) . 3 ?
O6 V2 V4 127.77(10) . 3 ?
O3 V2 V4 39.10(9) . 3 ?
O2 V2 V4 112.96(10) . 3 ?
V3 V2 V4 134.40(3) . 3 ?
O4 V2 V1 118.00(14) . . ?
O5 V2 V1 115.85(9) . . ?
O6 V2 V1 111.04(10) . . ?
O3 V2 V1 39.37(9) . . ?
O2 V2 V1 39.44(9) . . ?
V3 V2 V1 75.23(3) . . ?
V4 V2 V1 74.60(3) 3 . ?
O7 V3 O5 108.26(16) . 4 ?
O7 V3 O2 108.41(17) . . ?
O5 V3 O2 94.16(13) 4 . ?
O7 V3 O8 108.03(17) . . ?
O5 V3 O8 84.44(13) 4 . ?
O2 V3 O8 142.00(14) . . ?
O7 V3 O6 107.96(17) . . ?
O5 V3 O6 143.14(12) 4 . ?
O2 V3 O6 80.75(14) . . ?
O8 V3 O6 78.17(14) . . ?
O7 V3 V2 110.44(14) . . ?
O5 V3 V2 128.22(9) 4 . ?
O2 V3 V2 41.36(9) . . ?
O8 V3 V2 113.84(10) . . ?
O6 V3 V2 39.68(10) . . ?
O7 V3 V4 113.14(14) . . ?
O5 V3 V4 45.23(8) 4 . ?
O2 V3 V4 128.74(10) . . ?
O8 V3 V4 39.26(10) . . ?
O6 V3 V4 112.19(10) . . ?
V2 V3 V4 134.57(3) . . ?
O7 V3 V1 115.90(14) . 3 ?
O5 V3 V1 115.49(9) 4 3 ?
O2 V3 V1 112.38(10) . 3 ?
O8 V3 V1 39.21(10) . 3 ?
O6 V3 V1 39.09(9) . 3 ?
V2 V3 V1 75.64(3) . 3 ?
V4 V3 V1 74.47(3) . 3 ?
O10 V4 O9 102.43(14) . . ?
O10 V4 O3 112.44(19) . 4 ?
O9 V4 O3 92.09(10) . 4 ?
O10 V4 O8 111.75(19) . . ?
O9 V4 O8 92.30(11) . . ?
O3 V4 O8 133.41(10) 4 . ?
O10 V4 O5 100.33(13) . 4 ?
O9 V4 O5 157.23(12) . 4 ?
O3 V4 O5 79.81(13) 4 4 ?
O8 V4 O5 78.57(13) . 4 ?
O10 V4 V2 109.35(14) . 4 ?
O9 V4 V2 130.03(7) . 4 ?
O3 V4 V2 40.43(9) 4 4 ?
O8 V4 V2 109.63(10) . 4 ?
O5 V4 V2 39.47(9) 4 4 ?
O10 V4 V3 109.22(14) . . ?
O9 V4 V3 129.55(7) . . ?
O3 V4 V3 109.94(10) 4 . ?
O8 V4 V3 39.79(10) . . ?
O5 V4 V3 38.82(9) 4 . ?
V2 V4 V3 73.83(2) 4 . ?
O1 Ni3 O1 177.48(18) 8 . ?
O1 Ni3 N2 90.86(13) 8 8 ?
O1 Ni3 N2 90.93(12) . 8 ?
O1 Ni3 N2 90.93(12) 8 . ?
O1 Ni3 N2 90.86(13) . . ?
N2 Ni3 N2 89.5(2) 8 . ?
O1 Ni3 N1 88.80(12) 8 . ?
O1 Ni3 N1 89.44(13) . . ?
N2 Ni3 N1 179.04(17) 8 . ?
N2 Ni3 N1 89.63(11) . . ?
O1 Ni3 N1 89.44(13) 8 8 ?
O1 Ni3 N1 88.80(12) . 8 ?
N2 Ni3 N1 89.63(11) 8 8 ?
N2 Ni3 N1 179.04(17) . 8 ?
N1 Ni3 N1 91.3(2) . 8 ?
V1 O1 Ni3 177.5(2) . . ?
V3 O2 V1 141.86(18) . . ?
V3 O2 V2 99.06(14) . . ?
V1 O2 V2 100.70(15) . . ?
V4 O3 V2 100.47(14) 3 . ?
V4 O3 V1 140.23(18) 3 . ?
V2 O3 V1 101.58(14) . . ?
V3 O5 V2 142.65(14) 3 . ?
V3 O5 V4 95.95(13) 3 3 ?
V2 O5 V4 94.71(14) . 3 ?
V2 O6 V1 143.80(19) . 3 ?
V2 O6 V3 99.33(15) . . ?
V1 O6 V3 101.44(15) 3 . ?
V4 O8 V3 100.94(15) . . ?
V4 O8 V1 139.33(19) . 3 ?
V3 O8 V1 101.91(15) . 3 ?
V4 O9 V4 128.94(18) . 2 ?
C4 N1 C5 117.3(4) . . ?
C4 N1 Ni3 122.6(3) . . ?
C5 N1 Ni3 119.4(3) . . ?
C9 N2 C1 115.2(4) . . ?
C9 N2 Ni3 120.0(3) . . ?
C1 N2 Ni3 124.2(3) . . ?
N2 C1 C2 123.7(4) . . ?
C1 C2 C3 119.6(5) . . ?
C10 C3 C2 117.0(5) . . ?
C10 C3 C7 121.9(4) . 3_565 ?
C2 C3 C7 121.1(4) . 3_565 ?
N1 C4 C8 123.3(4) . . ?
N1 C5 C6 123.1(5) . . ?
C5 C6 C7 119.3(5) . . ?
C8 C7 C6 116.7(5) . . ?
C8 C7 C3 122.1(4) . 4_655 ?
C6 C7 C3 121.2(4) . 4_655 ?
C7 C8 C4 120.1(5) . . ?
N2 C9 C10 124.7(5) . . ?
C9 C10 C3 119.6(5) . . ?

_diffrn_measured_fraction_theta_max 0.988
_diffrn_reflns_theta_full        28.30
_diffrn_measured_fraction_theta_full 0.988
_refine_diff_density_max         1.808
_refine_diff_density_min         -0.481
_refine_diff_density_rms         0.086
