####################################################################### 
# 
# This file contains crystal structure data downloaded from the 
# Cambridge Structural Database (CSD) hosted by the Cambridge 
# Crystallographic Data Centre (CCDC).
# 
# Full information about CCDC data access policies and citation 
# guidelines are available at http://www.ccdc.cam.ac.uk/access/V1 
# 
# Audit and citation data items may have been added by the CCDC. 
# Please retain this information to preserve the provenance of 
# this file and to allow appropriate attribution of the data. 
# 
#######################################################################

data_NiV16Br_(squeezed)
_audit_block_doi                 10.5517/ccn81nl
_database_code_depnum_ccdc_archive 'CCDC 603559'
loop_
_citation_id
_citation_doi
_citation_year
1 10.1016/j.poly.2006.11.050 2007
_audit_update_record             
;
2006-04-04 deposited with the CCDC.	2024-07-06 downloaded from the CCDC.
;
_audit_creation_method           SHELXL-97
_chemical_name_systematic        
;
?
;
_chemical_name_common            ?
_chemical_melting_point          ?
_chemical_formula_moiety         ?
_chemical_formula_sum            'C55 H48 Br N11 Ni2 O41.50 V16'
_chemical_formula_weight         2539.41

loop_
_atom_type_symbol
_atom_type_description
_atom_type_scat_dispersion_real
_atom_type_scat_dispersion_imag
_atom_type_scat_source
C C 0.0033 0.0016 'International Tables Vol C Tables 4.2.6.8 and 6.1.1.4'
H H 0.0000 0.0000 'International Tables Vol C Tables 4.2.6.8 and 6.1.1.4'
N N 0.0061 0.0033 'International Tables Vol C Tables 4.2.6.8 and 6.1.1.4'
O O 0.0106 0.0060 'International Tables Vol C Tables 4.2.6.8 and 6.1.1.4'
V V 0.3005 0.5294 'International Tables Vol C Tables 4.2.6.8 and 6.1.1.4'
Ni Ni 0.3393 1.1124 'International Tables Vol C Tables 4.2.6.8 and 6.1.1.4'
Br Br -0.2901 2.4595 'International Tables Vol C Tables 4.2.6.8 and 6.1.1.4'

_symmetry_cell_setting           tetragonal
_symmetry_space_group_name_H-M   P-4n2

loop_
_symmetry_equiv_pos_as_xyz
'x, y, z'
'-x, -y, z'
'y, -x, -z'
'-y, x, -z'
'x+1/2, -y+1/2, z+1/2'
'-x+1/2, y+1/2, z+1/2'
'y+1/2, x+1/2, -z+1/2'
'-y+1/2, -x+1/2, -z+1/2'

_cell_length_a                   17.091(2)
_cell_length_b                   17.091(2)
_cell_length_c                   14.611(3)
_cell_angle_alpha                90.00
_cell_angle_beta                 90.00
_cell_angle_gamma                90.00
_cell_volume                     4268.1(12)
_cell_formula_units_Z            2
_cell_measurement_temperature    293(2)
_cell_measurement_reflns_used    4887
_cell_measurement_theta_min      3.01
_cell_measurement_theta_max      27.48

_exptl_crystal_description       block
_exptl_crystal_colour            black
_exptl_crystal_size_max          0.241
_exptl_crystal_size_mid          0.218
_exptl_crystal_size_min          0.158
_exptl_crystal_density_meas      ?
_exptl_crystal_density_diffrn    1.976
_exptl_crystal_density_method    'not measured'
_exptl_crystal_F_000             2492
_exptl_absorpt_coefficient_mu    2.651
_exptl_absorpt_correction_type   empirical
_exptl_absorpt_correction_T_min  0.533
_exptl_absorpt_correction_T_max  0.658
_exptl_absorpt_process_details   'ABSCOR by T.Higashi 8 March, 1995'

_exptl_special_details           
;
?
;

_diffrn_ambient_temperature      293(2)
_diffrn_radiation_wavelength     0.71073
_diffrn_radiation_type           MoK\a
_diffrn_radiation_source         'fine-focus sealed tube'
_diffrn_radiation_monochromator  graphite
_diffrn_measurement_device_type  'Rigaku RAXIS RAPID IP'
_diffrn_measurement_method       Oscillation
_diffrn_detector_area_resol_mean '100x100 microns'
_diffrn_standards_number         none
_diffrn_standards_interval_count none
_diffrn_standards_interval_time  none
_diffrn_standards_decay_%        none
_diffrn_reflns_number            39324
_diffrn_reflns_av_R_equivalents  0.0810
_diffrn_reflns_av_sigmaI/netI    0.0477
_diffrn_reflns_limit_h_min       -22
_diffrn_reflns_limit_h_max       22
_diffrn_reflns_limit_k_min       -22
_diffrn_reflns_limit_k_max       22
_diffrn_reflns_limit_l_min       -18
_diffrn_reflns_limit_l_max       17
_diffrn_reflns_theta_min         3.01
_diffrn_reflns_theta_max         27.48
_reflns_number_total             4887
_reflns_number_gt                4281
_reflns_threshold_expression     >2sigma(I)

_computing_data_collection       'RAPID AUTO'
_computing_cell_refinement       'RAPID AUTO'
_computing_data_reduction        'RAPID AUTO'
_computing_structure_solution    'SHELXS-97 (Sheldrick, 1990)'
_computing_structure_refinement  'SHELXL-97 (Sheldrick, 1997)'
_computing_molecular_graphics    'Bruker SHELXTL'
_computing_publication_material  'Bruker SHELXTL'

_refine_special_details          
;
Refinement of F^2^ against ALL reflections. The weighted R-factor wR and
goodness of fit S are based on F^2^, conventional R-factors R are based
on F, with F set to zero for negative F^2^. The threshold expression of
F^2^ > 2sigma(F^2^) is used only for calculating R-factors(gt) etc. and is
not relevant to the choice of reflections for refinement. R-factors based
on F^2^ are statistically about twice as large as those based on F, and R-
factors based on ALL data will be even larger.
;

_refine_ls_structure_factor_coef Fsqd
_refine_ls_matrix_type           full
_refine_ls_weighting_scheme      calc
_refine_ls_weighting_details     
'calc w=1/[\s^2^(Fo^2^)+(0.0640P)^2^+0.0000P] where P=(Fo^2^+2Fc^2^)/3'
_atom_sites_solution_primary     direct
_atom_sites_solution_secondary   difmap
_atom_sites_solution_hydrogens   geom
_refine_ls_hydrogen_treatment    mixed
_refine_ls_extinction_method     none
_refine_ls_extinction_coef       ?
_refine_ls_abs_structure_details 'Flack H D (1983), Acta Cryst. A39, 876-881'
_refine_ls_abs_structure_Flack   0.09(2)
_refine_ls_number_reflns         4887
_refine_ls_number_parameters     238
_refine_ls_number_restraints     0
_refine_ls_R_factor_all          0.0493
_refine_ls_R_factor_gt           0.0425
_refine_ls_wR_factor_ref         0.1118
_refine_ls_wR_factor_gt          0.1087
_refine_ls_goodness_of_fit_ref   1.081
_refine_ls_restrained_S_all      1.081
_refine_ls_shift/su_max          0.001
_refine_ls_shift/su_mean         0.000

loop_
_atom_site_label
_atom_site_type_symbol
_atom_site_fract_x
_atom_site_fract_y
_atom_site_fract_z
_atom_site_U_iso_or_equiv
_atom_site_adp_type
_atom_site_occupancy
_atom_site_symmetry_multiplicity
_atom_site_calc_flag
_atom_site_refinement_flags
_atom_site_disorder_assembly
_atom_site_disorder_group
Ni1 Ni 0.24637(4) 0.25363(4) 0.7500 0.01150(15) Uani 1 2 d S . .
V1 V 0.37875(5) 0.38677(4) 0.62812(4) 0.01360(15) Uani 1 1 d . . .
V3 V 0.31454(5) 0.54743(5) 0.58869(7) 0.01941(19) Uani 1 1 d . . .
V2 V 0.53319(5) 0.31137(5) 0.58696(7) 0.01880(19) Uani 1 1 d . . .
V4 V 0.43379(6) 0.57105(6) 0.73015(5) 0.0308(2) Uani 1 1 d . . .
Br1 Br 0.0000 0.0000 0.0000 0.02679(19) Uani 1 4 d S . .
C1 C 0.0785(3) 0.2727(4) 0.6840(4) 0.0256(12) Uani 1 1 d . . .
H1 H 0.0687 0.2615 0.7452 0.031 Uiso 1 1 calc R . .
C2 C 0.0160(3) 0.2756(4) 0.6256(4) 0.0295(14) Uani 1 1 d . . .
H2 H -0.0344 0.2669 0.6472 0.035 Uiso 1 1 calc R . .
C3 C 0.0287(3) 0.2922(3) 0.5321(4) 0.0237(12) Uani 1 1 d . . .
C5 C 0.1645(3) 0.3049(4) 0.5733(4) 0.0263(13) Uani 1 1 d . . .
H5 H 0.2150 0.3187 0.5557 0.032 Uiso 1 1 calc R . .
C10 C 0.3046(3) 0.1719(3) 0.5736(4) 0.0266(13) Uani 1 1 d . . .
H10 H 0.3182 0.2223 0.5554 0.032 Uiso 1 1 calc R . .
C9 C 0.3119(4) 0.1119(3) 0.5124(4) 0.0290(13) Uani 1 1 d . . .
H9 H 0.3313 0.1222 0.4541 0.035 Uiso 1 1 calc R . .
C8 C 0.2908(3) 0.0364(3) 0.5353(4) 0.0231(12) Uani 1 1 d . . .
C6 C 0.2637(4) 0.0863(3) 0.6845(4) 0.0261(12) Uani 1 1 d . . .
H6 H 0.2497 0.0765 0.7449 0.031 Uiso 1 1 calc R . .
C7 C 0.2680(4) 0.0232(3) 0.6252(4) 0.0314(14) Uani 1 1 d . . .
H7 H 0.2558 -0.0270 0.6452 0.038 Uiso 1 1 calc R . .
C4 C 0.1053(4) 0.3066(4) 0.5070(4) 0.0327(14) Uani 1 1 d . . .
H4 H 0.1175 0.3175 0.4463 0.039 Uiso 1 1 calc R . .
N1 N 0.1525(3) 0.2847(2) 0.6589(3) 0.0188(9) Uani 1 1 d . . .
N2 N 0.2783(2) 0.1603(2) 0.6603(3) 0.0175(9) Uani 1 1 d . . .
O1 O 0.5000 0.5000 0.7826(3) 0.0273(9) Uani 1 2 d S . .
O2 O 0.5188(2) 0.6295(2) 0.6821(3) 0.0215(8) Uani 1 1 d . . .
O3 O 0.3960(3) 0.6133(3) 0.8176(2) 0.0386(9) Uani 1 1 d . . .
O4 O 0.3795(2) 0.6310(2) 0.6232(2) 0.0250(7) Uani 1 1 d . . .
O5 O 0.3691(2) 0.4905(2) 0.6822(3) 0.0176(7) Uani 1 1 d . . .
O6 O 0.2284(2) 0.5668(3) 0.6246(3) 0.0323(10) Uani 1 1 d . . .
O7 O 0.3138(2) 0.4409(2) 0.5393(3) 0.0193(7) Uani 1 1 d . . .
O8 O 0.4272(2) 0.3202(2) 0.5370(3) 0.0191(7) Uani 1 1 d . . .
O9 O 0.5447(3) 0.2240(2) 0.6236(3) 0.0349(10) Uani 1 1 d . . .
O10 O 0.31866(19) 0.32846(19) 0.68219(17) 0.0157(6) Uani 1 1 d . . .

loop_
_atom_site_aniso_label
_atom_site_aniso_U_11
_atom_site_aniso_U_22
_atom_site_aniso_U_33
_atom_site_aniso_U_23
_atom_site_aniso_U_13
_atom_site_aniso_U_12
Ni1 0.0116(2) 0.0116(2) 0.0113(3) -0.00018(17) -0.00018(17) -0.0019(2)
V1 0.0134(4) 0.0127(4) 0.0146(3) 0.0010(3) 0.0012(3) -0.0037(2)
V3 0.0152(4) 0.0226(4) 0.0204(4) -0.0021(4) 0.0010(4) 0.0001(3)
V2 0.0209(4) 0.0174(4) 0.0181(4) 0.0024(4) 0.0007(4) 0.0001(3)
V4 0.0348(6) 0.0380(6) 0.0194(3) -0.0098(4) 0.0085(4) -0.0185(4)
Br1 0.0237(3) 0.0237(3) 0.0330(4) 0.000 0.000 0.000
C1 0.018(2) 0.034(3) 0.025(3) 0.006(2) -0.003(2) -0.001(2)
C2 0.016(2) 0.042(3) 0.030(4) 0.006(3) -0.001(2) 0.000(2)
C3 0.020(2) 0.024(3) 0.027(3) 0.001(2) -0.009(2) -0.001(2)
C5 0.012(2) 0.042(3) 0.025(3) 0.011(3) -0.002(2) -0.006(2)
C10 0.040(3) 0.018(2) 0.022(3) -0.002(2) 0.003(2) -0.007(2)
C9 0.043(3) 0.025(3) 0.019(3) 0.000(2) 0.009(3) -0.011(2)
C8 0.033(3) 0.016(2) 0.021(3) -0.010(2) 0.003(2) -0.003(2)
C6 0.038(3) 0.017(2) 0.023(3) -0.002(2) 0.015(3) 0.000(2)
C7 0.050(3) 0.011(2) 0.033(4) -0.008(2) 0.015(3) -0.005(2)
C4 0.025(3) 0.054(4) 0.019(3) 0.005(3) -0.013(2) -0.003(2)
N1 0.020(2) 0.019(2) 0.018(2) 0.0015(18) -0.0061(18) 0.0010(16)
N2 0.019(2) 0.0137(19) 0.020(2) -0.0033(17) 0.0053(18) -0.0046(15)
O1 0.031(3) 0.027(3) 0.0242(19) 0.000 0.000 -0.0054(18)
O2 0.0152(16) 0.0266(19) 0.023(2) -0.0072(16) -0.0012(15) 0.0004(14)
O3 0.047(3) 0.043(3) 0.0260(15) -0.0096(19) 0.0111(19) -0.0108(18)
O4 0.0191(18) 0.0275(19) 0.0284(14) -0.0080(16) 0.0043(15) -0.0033(13)
O5 0.0193(17) 0.0175(17) 0.0160(19) 0.0021(14) -0.0012(15) -0.0015(13)
O6 0.0200(18) 0.043(2) 0.034(2) -0.0016(19) 0.0075(17) -0.0002(16)
O7 0.0176(16) 0.0209(17) 0.0192(18) 0.0069(15) 0.0036(14) 0.0002(13)
O8 0.0199(17) 0.0189(17) 0.0186(18) -0.0015(14) -0.0032(14) -0.0024(13)
O9 0.043(2) 0.022(2) 0.040(3) 0.0104(18) 0.001(2) -0.0017(17)
O10 0.0146(16) 0.0169(16) 0.0157(11) 0.0046(13) 0.0025(13) -0.0020(11)

_geom_special_details            
;
All esds (except the esd in the dihedral angle between two l.s. planes)
are estimated using the full covariance matrix. The cell esds are taken
into account individually in the estimation of esds in distances, angles
and torsion angles; correlations between esds in cell parameters are only
used when they are defined by crystal symmetry. An approximate (isotropic)
treatment of cell esds is used for estimating esds involving l.s. planes.
;

loop_
_geom_bond_atom_site_label_1
_geom_bond_atom_site_label_2
_geom_bond_distance
_geom_bond_site_symmetry_2
_geom_bond_publ_flag
Ni1 O10 2.036(3) . ?
Ni1 O10 2.036(3) 8_556 ?
Ni1 N2 2.135(4) 8_556 ?
Ni1 N2 2.135(4) . ?
Ni1 N1 2.151(4) . ?
Ni1 N1 2.151(4) 8_556 ?
V1 O10 1.635(3) . ?
V1 O8 1.936(4) . ?
V1 O2 1.941(4) 2_665 ?
V1 O7 1.943(4) . ?
V1 O5 1.948(4) . ?
V1 V2 2.9981(13) . ?
V1 V3 3.0127(12) . ?
V3 O6 1.598(4) . ?
V3 O4 1.877(4) . ?
V3 O8 1.890(4) 3_566 ?
V3 O5 1.918(4) . ?
V3 O7 1.959(4) . ?
V3 V2 2.9134(11) 3_566 ?
V3 V4 2.9308(13) . ?
V2 O9 1.599(4) . ?
V2 O4 1.865(4) 2_665 ?
V2 O7 1.897(4) 4_656 ?
V2 O2 1.934(4) 2_665 ?
V2 O8 1.959(4) . ?
V2 V3 2.9134(11) 4_656 ?
V2 V4 2.9553(14) 2_665 ?
V4 O3 1.603(3) . ?
V4 O1 1.8285(19) . ?
V4 O2 1.898(4) . ?
V4 O5 1.900(4) . ?
V4 O4 2.086(3) . ?
V4 V2 2.9553(14) 2_665 ?
C1 N1 1.333(7) . ?
C1 C2 1.368(8) . ?
C2 C3 1.411(9) . ?
C3 C4 1.381(8) . ?
C3 C8 1.486(5) 4_556 ?
C5 N1 1.314(7) . ?
C5 C4 1.401(8) . ?
C10 N2 1.359(7) . ?
C10 C9 1.366(8) . ?
C9 C8 1.381(8) . ?
C8 C7 1.389(9) . ?
C8 C3 1.486(5) 3_556 ?
C6 N2 1.338(7) . ?
C6 C7 1.384(8) . ?
O1 V4 1.8285(19) 2_665 ?
O2 V2 1.934(4) 2_665 ?
O2 V1 1.941(4) 2_665 ?
O4 V2 1.865(4) 2_665 ?
O7 V2 1.897(4) 3_566 ?
O8 V3 1.890(4) 4_656 ?

loop_
_geom_angle_atom_site_label_1
_geom_angle_atom_site_label_2
_geom_angle_atom_site_label_3
_geom_angle
_geom_angle_site_symmetry_1
_geom_angle_site_symmetry_3
_geom_angle_publ_flag
O10 Ni1 O10 178.3(2) . 8_556 ?
O10 Ni1 N2 90.33(14) . 8_556 ?
O10 Ni1 N2 90.89(14) 8_556 8_556 ?
O10 Ni1 N2 90.89(14) . . ?
O10 Ni1 N2 90.33(14) 8_556 . ?
N2 Ni1 N2 89.7(2) 8_556 . ?
O10 Ni1 N1 89.81(15) . . ?
O10 Ni1 N1 88.98(15) 8_556 . ?
N2 Ni1 N1 179.4(2) 8_556 . ?
N2 Ni1 N1 89.74(13) . . ?
O10 Ni1 N1 88.98(15) . 8_556 ?
O10 Ni1 N1 89.81(15) 8_556 8_556 ?
N2 Ni1 N1 89.74(13) 8_556 8_556 ?
N2 Ni1 N1 179.4(2) . 8_556 ?
N1 Ni1 N1 90.8(2) . 8_556 ?
O10 V1 O8 104.05(16) . . ?
O10 V1 O2 106.47(17) . 2_665 ?
O8 V1 O2 79.01(17) . 2_665 ?
O10 V1 O7 104.71(16) . . ?
O8 V1 O7 93.70(13) . . ?
O2 V1 O7 148.83(15) 2_665 . ?
O10 V1 O5 107.79(16) . . ?
O8 V1 O5 148.16(15) . . ?
O2 V1 O5 92.43(12) 2_665 . ?
O7 V1 O5 77.83(16) . . ?
O10 V1 V2 112.83(14) . . ?
O8 V1 V2 39.96(11) . . ?
O2 V1 V2 39.23(12) 2_665 . ?
O7 V1 V2 125.02(11) . . ?
O5 V1 V2 123.18(11) . . ?
O10 V1 V3 114.78(14) . . ?
O8 V1 V3 124.02(11) . . ?
O2 V1 V3 122.48(12) 2_665 . ?
O7 V1 V3 39.66(11) . . ?
O5 V1 V3 38.46(11) . . ?
V2 V1 V3 132.38(3) . . ?
O6 V3 O4 107.41(18) . . ?
O6 V3 O8 108.6(2) . 3_566 ?
O4 V3 O8 93.18(15) . 3_566 ?
O6 V3 O5 108.6(2) . . ?
O4 V3 O5 84.67(15) . . ?
O8 V3 O5 141.58(16) 3_566 . ?
O6 V3 O7 107.92(18) . . ?
O4 V3 O7 144.07(14) . . ?
O8 V3 O7 81.70(16) 3_566 . ?
O5 V3 O7 78.15(16) . . ?
O6 V3 V2 111.73(17) . 3_566 ?
O4 V3 V2 127.36(10) . 3_566 ?
O8 V3 V2 41.71(11) 3_566 3_566 ?
O5 V3 V2 113.36(11) . 3_566 ?
O7 V3 V2 40.14(11) . 3_566 ?
O6 V3 V4 112.38(17) . . ?
O4 V3 V4 45.15(10) . . ?
O8 V3 V4 128.17(11) 3_566 . ?
O5 V3 V4 39.63(11) . . ?
O7 V3 V4 113.13(11) . . ?
V2 V3 V4 134.37(4) 3_566 . ?
O6 V3 V1 117.52(16) . . ?
O4 V3 V1 115.23(10) . . ?
O8 V3 V1 112.11(11) 3_566 . ?
O5 V3 V1 39.18(11) . . ?
O7 V3 V1 39.26(11) . . ?
V2 V3 V1 75.18(3) 3_566 . ?
V4 V3 V1 74.77(3) . . ?
O9 V2 O4 107.50(19) . 2_665 ?
O9 V2 O7 108.5(2) . 4_656 ?
O4 V2 O7 94.43(15) 2_665 4_656 ?
O9 V2 O2 107.7(2) . 2_665 ?
O4 V2 O2 83.54(15) 2_665 2_665 ?
O7 V2 O2 142.61(16) 4_656 2_665 ?
O9 V2 O8 108.08(19) . . ?
O4 V2 O8 143.59(14) 2_665 . ?
O7 V2 O8 81.53(16) 4_656 . ?
O2 V2 O8 78.61(16) 2_665 . ?
O9 V2 V3 111.75(17) . 4_656 ?
O4 V2 V3 128.20(10) 2_665 4_656 ?
O7 V2 V3 41.75(11) 4_656 4_656 ?
O2 V2 V3 113.96(12) 2_665 4_656 ?
O8 V2 V3 39.93(11) . 4_656 ?
O9 V2 V4 112.00(18) . 2_665 ?
O4 V2 V4 44.53(10) 2_665 2_665 ?
O7 V2 V4 128.97(11) 4_656 2_665 ?
O2 V2 V4 39.09(12) 2_665 2_665 ?
O8 V2 V4 112.81(11) . 2_665 ?
V3 V2 V4 134.53(4) 4_656 2_665 ?
O9 V2 V1 116.25(16) . . ?
O4 V2 V1 114.86(10) 2_665 . ?
O7 V2 V1 113.05(12) 4_656 . ?
O2 V2 V1 39.39(11) 2_665 . ?
O8 V2 V1 39.40(11) . . ?
V3 V2 V1 75.66(3) 4_656 . ?
V4 V2 V1 74.57(3) 2_665 . ?
O3 V4 O1 102.39(18) . . ?
O3 V4 O2 111.4(2) . . ?
O1 V4 O2 91.78(13) . . ?
O3 V4 O5 112.7(2) . . ?
O1 V4 O5 91.95(13) . . ?
O2 V4 O5 133.66(11) . . ?
O3 V4 O4 101.34(16) . . ?
O1 V4 O4 156.26(14) . . ?
O2 V4 O4 78.74(16) . . ?
O5 V4 O4 79.63(15) . . ?
O3 V4 V3 110.12(17) . . ?
O1 V4 V3 129.40(8) . . ?
O2 V4 V3 110.10(12) . . ?
O5 V4 V3 40.09(11) . . ?
O4 V4 V3 39.64(12) . . ?
O3 V4 V2 109.52(16) . 2_665 ?
O1 V4 V2 129.07(8) . 2_665 ?
O2 V4 V2 39.99(12) . 2_665 ?
O5 V4 V2 110.03(11) . 2_665 ?
O4 V4 V2 38.82(11) . 2_665 ?
V3 V4 V2 74.17(3) . 2_665 ?
N1 C1 C2 124.3(6) . . ?
C1 C2 C3 119.4(5) . . ?
C4 C3 C2 116.0(5) . . ?
C4 C3 C8 122.5(5) . 4_556 ?
C2 C3 C8 121.5(5) . 4_556 ?
N1 C5 C4 123.4(5) . . ?
N2 C10 C9 122.1(5) . . ?
C10 C9 C8 121.2(5) . . ?
C9 C8 C7 117.0(5) . . ?
C9 C8 C3 122.4(5) . 3_556 ?
C7 C8 C3 120.6(4) . 3_556 ?
N2 C6 C7 124.2(6) . . ?
C6 C7 C8 118.7(5) . . ?
C3 C4 C5 119.9(6) . . ?
C5 N1 C1 116.8(5) . . ?
C5 N1 Ni1 122.5(4) . . ?
C1 N1 Ni1 120.0(4) . . ?
C6 N2 C10 116.5(5) . . ?
C6 N2 Ni1 119.8(4) . . ?
C10 N2 Ni1 123.2(3) . . ?
V4 O1 V4 130.4(2) 2_665 . ?
V4 O2 V2 100.93(17) . 2_665 ?
V4 O2 V1 140.0(2) . 2_665 ?
V2 O2 V1 101.39(19) 2_665 2_665 ?
V2 O4 V3 143.05(17) 2_665 . ?
V2 O4 V4 96.66(16) 2_665 . ?
V3 O4 V4 95.22(17) . . ?
V4 O5 V3 100.28(16) . . ?
V4 O5 V1 139.4(2) . . ?
V3 O5 V1 102.36(17) . . ?
V2 O7 V1 140.6(2) 3_566 . ?
V2 O7 V3 98.11(16) 3_566 . ?
V1 O7 V3 101.08(18) . . ?
V3 O8 V1 142.8(2) 4_656 . ?
V3 O8 V2 98.36(17) 4_656 . ?
V1 O8 V2 100.65(16) . . ?
V1 O10 Ni1 178.4(2) . . ?

_diffrn_measured_fraction_theta_max 0.997
_diffrn_reflns_theta_full        27.48
_diffrn_measured_fraction_theta_full 0.997
_refine_diff_density_max         1.078
_refine_diff_density_min         -0.761
_refine_diff_density_rms         0.104
