####################################################################### 
# 
# This file contains crystal structure data downloaded from the 
# Cambridge Structural Database (CSD) hosted by the Cambridge 
# Crystallographic Data Centre (CCDC).
# 
# Full information about CCDC data access policies and citation 
# guidelines are available at http://www.ccdc.cam.ac.uk/access/V1 
# 
# Audit and citation data items may have been added by the CCDC. 
# Please retain this information to preserve the provenance of 
# this file and to allow appropriate attribution of the data. 
# 
#######################################################################

data_NJU-Bai9
_audit_block_doi                 10.5517/cczyg8m
_database_code_depnum_ccdc_archive 'CCDC 922041'
loop_
_citation_id
_citation_doi
_citation_year
1 10.1002/anie.201302715 2013
_audit_update_record             
;
2013-01-28 deposited with the CCDC.	2024-07-07 downloaded from the CCDC.
;
#TrackingRef 'Fd-3c.cif'


_audit_creation_method           SHELXL-97
_chemical_name_systematic        
;
?
;
_chemical_name_common            ?
_chemical_melting_point          ?
_chemical_formula_moiety         'C21 H13 N3 O7 Zn'
_chemical_formula_sum            'C21 H13 N3 O7 Zn'
_chemical_formula_weight         484.73

loop_
_atom_type_symbol
_atom_type_description
_atom_type_scat_dispersion_real
_atom_type_scat_dispersion_imag
_atom_type_scat_source
C C 0.0033 0.0016 'International Tables Vol C Tables 4.2.6.8 and 6.1.1.4'
H H 0.0000 0.0000 'International Tables Vol C Tables 4.2.6.8 and 6.1.1.4'
N N 0.0061 0.0033 'International Tables Vol C Tables 4.2.6.8 and 6.1.1.4'
O O 0.0106 0.0060 'International Tables Vol C Tables 4.2.6.8 and 6.1.1.4'
Zn Zn 0.2839 1.4301 'International Tables Vol C Tables 4.2.6.8 and 6.1.1.4'

_symmetry_cell_setting           ?
_symmetry_space_group_name_H-M   Fd-3c

loop_
_symmetry_equiv_pos_as_xyz
'x, y, z'
'-y, x+1/4, z+3/4'
'-x+3/4, -y+1/4, z+1/2'
'y+3/4, -x, z+1/4'
'x, -y+1/4, -z+1/4'
'y+3/4, x+1/4, -z'
'-x+3/4, y, -z+3/4'
'-y, -x, -z+1/2'
'z, x, y'
'-x, z+1/4, y+3/4'
'-z+3/4, -x+1/4, y+1/2'
'x+3/4, -z, y+1/4'
'z, -x+1/4, -y+1/4'
'x+3/4, z+1/4, -y'
'-z+3/4, x, -y+3/4'
'-x, -z, -y+1/2'
'y, z, x'
'-z+1/2, -y, -x'
'-z, y+3/4, x+1/4'
'z+1/4, y+3/4, -x'
'z+3/4, -y, x+1/4'
'y, -z+3/4, -x+3/4'
'-y+1/4, -z+1/4, x'
'-y+1/4, z+1/2, -x+3/4'
'x, y+1/2, z+1/2'
'-y, x+3/4, z+5/4'
'-x+3/4, -y+3/4, z+1'
'y+3/4, -x+1/2, z+3/4'
'x, -y+3/4, -z+3/4'
'y+3/4, x+3/4, -z+1/2'
'-x+3/4, y+1/2, -z+5/4'
'-y, -x+1/2, -z+1'
'z, x+1/2, y+1/2'
'-x, z+3/4, y+5/4'
'-z+3/4, -x+3/4, y+1'
'x+3/4, -z+1/2, y+3/4'
'z, -x+3/4, -y+3/4'
'x+3/4, z+3/4, -y+1/2'
'-z+3/4, x+1/2, -y+5/4'
'-x, -z+1/2, -y+1'
'y, z+1/2, x+1/2'
'-z+1/2, -y+1/2, -x+1/2'
'-z, y+5/4, x+3/4'
'z+1/4, y+5/4, -x+1/2'
'z+3/4, -y+1/2, x+3/4'
'y, -z+5/4, -x+5/4'
'-y+1/4, -z+3/4, x+1/2'
'-y+1/4, z+1, -x+5/4'
'x+1/2, y, z+1/2'
'-y+1/2, x+1/4, z+5/4'
'-x+5/4, -y+1/4, z+1'
'y+5/4, -x, z+3/4'
'x+1/2, -y+1/4, -z+3/4'
'y+5/4, x+1/4, -z+1/2'
'-x+5/4, y, -z+5/4'
'-y+1/2, -x, -z+1'
'z+1/2, x, y+1/2'
'-x+1/2, z+1/4, y+5/4'
'-z+5/4, -x+1/4, y+1'
'x+5/4, -z, y+3/4'
'z+1/2, -x+1/4, -y+3/4'
'x+5/4, z+1/4, -y+1/2'
'-z+5/4, x, -y+5/4'
'-x+1/2, -z, -y+1'
'y+1/2, z, x+1/2'
'-z+1, -y, -x+1/2'
'-z+1/2, y+3/4, x+3/4'
'z+3/4, y+3/4, -x+1/2'
'z+5/4, -y, x+3/4'
'y+1/2, -z+3/4, -x+5/4'
'-y+3/4, -z+1/4, x+1/2'
'-y+3/4, z+1/2, -x+5/4'
'x+1/2, y+1/2, z'
'-y+1/2, x+3/4, z+3/4'
'-x+5/4, -y+3/4, z+1/2'
'y+5/4, -x+1/2, z+1/4'
'x+1/2, -y+3/4, -z+1/4'
'y+5/4, x+3/4, -z'
'-x+5/4, y+1/2, -z+3/4'
'-y+1/2, -x+1/2, -z+1/2'
'z+1/2, x+1/2, y'
'-x+1/2, z+3/4, y+3/4'
'-z+5/4, -x+3/4, y+1/2'
'x+5/4, -z+1/2, y+1/4'
'z+1/2, -x+3/4, -y+1/4'
'x+5/4, z+3/4, -y'
'-z+5/4, x+1/2, -y+3/4'
'-x+1/2, -z+1/2, -y+1/2'
'y+1/2, z+1/2, x'
'-z+1, -y+1/2, -x'
'-z+1/2, y+5/4, x+1/4'
'z+3/4, y+5/4, -x'
'z+5/4, -y+1/2, x+1/4'
'y+1/2, -z+5/4, -x+3/4'
'-y+3/4, -z+3/4, x'
'-y+3/4, z+1, -x+3/4'
'-x, -y, -z'
'y, -x-1/4, -z-3/4'
'x-3/4, y-1/4, -z-1/2'
'-y-3/4, x, -z-1/4'
'-x, y-1/4, z-1/4'
'-y-3/4, -x-1/4, z'
'x-3/4, -y, z-3/4'
'y, x, z-1/2'
'-z, -x, -y'
'x, -z-1/4, -y-3/4'
'z-3/4, x-1/4, -y-1/2'
'-x-3/4, z, -y-1/4'
'-z, x-1/4, y-1/4'
'-x-3/4, -z-1/4, y'
'z-3/4, -x, y-3/4'
'x, z, y-1/2'
'-y, -z, -x'
'z-1/2, y, x'
'z, -y-3/4, -x-1/4'
'-z-1/4, -y-3/4, x'
'-z-3/4, y, -x-1/4'
'-y, z-3/4, x-3/4'
'y-1/4, z-1/4, -x'
'y-1/4, -z-1/2, x-3/4'
'-x, -y+1/2, -z+1/2'
'y, -x+1/4, -z-1/4'
'x-3/4, y+1/4, -z'
'-y-3/4, x+1/2, -z+1/4'
'-x, y+1/4, z+1/4'
'-y-3/4, -x+1/4, z+1/2'
'x-3/4, -y+1/2, z-1/4'
'y, x+1/2, z'
'-z, -x+1/2, -y+1/2'
'x, -z+1/4, -y-1/4'
'z-3/4, x+1/4, -y'
'-x-3/4, z+1/2, -y+1/4'
'-z, x+1/4, y+1/4'
'-x-3/4, -z+1/4, y+1/2'
'z-3/4, -x+1/2, y-1/4'
'x, z+1/2, y'
'-y, -z+1/2, -x+1/2'
'z-1/2, y+1/2, x+1/2'
'z, -y-1/4, -x+1/4'
'-z-1/4, -y-1/4, x+1/2'
'-z-3/4, y+1/2, -x+1/4'
'-y, z-1/4, x-1/4'
'y-1/4, z+1/4, -x+1/2'
'y-1/4, -z, x-1/4'
'-x+1/2, -y, -z+1/2'
'y+1/2, -x-1/4, -z-1/4'
'x-1/4, y-1/4, -z'
'-y-1/4, x, -z+1/4'
'-x+1/2, y-1/4, z+1/4'
'-y-1/4, -x-1/4, z+1/2'
'x-1/4, -y, z-1/4'
'y+1/2, x, z'
'-z+1/2, -x, -y+1/2'
'x+1/2, -z-1/4, -y-1/4'
'z-1/4, x-1/4, -y'
'-x-1/4, z, -y+1/4'
'-z+1/2, x-1/4, y+1/4'
'-x-1/4, -z-1/4, y+1/2'
'z-1/4, -x, y-1/4'
'x+1/2, z, y'
'-y+1/2, -z, -x+1/2'
'z, y, x+1/2'
'z+1/2, -y-3/4, -x+1/4'
'-z+1/4, -y-3/4, x+1/2'
'-z-1/4, y, -x+1/4'
'-y+1/2, z-3/4, x-1/4'
'y+1/4, z-1/4, -x+1/2'
'y+1/4, -z-1/2, x-1/4'
'-x+1/2, -y+1/2, -z'
'y+1/2, -x+1/4, -z-3/4'
'x-1/4, y+1/4, -z-1/2'
'-y-1/4, x+1/2, -z-1/4'
'-x+1/2, y+1/4, z-1/4'
'-y-1/4, -x+1/4, z'
'x-1/4, -y+1/2, z-3/4'
'y+1/2, x+1/2, z-1/2'
'-z+1/2, -x+1/2, -y'
'x+1/2, -z+1/4, -y-3/4'
'z-1/4, x+1/4, -y-1/2'
'-x-1/4, z+1/2, -y-1/4'
'-z+1/2, x+1/4, y-1/4'
'-x-1/4, -z+1/4, y'
'z-1/4, -x+1/2, y-3/4'
'x+1/2, z+1/2, y-1/2'
'-y+1/2, -z+1/2, -x'
'z, y+1/2, x'
'z+1/2, -y-1/4, -x-1/4'
'-z+1/4, -y-1/4, x'
'-z-1/4, y+1/2, -x-1/4'
'-y+1/2, z-1/4, x-3/4'
'y+1/4, z+1/4, -x'
'y+1/4, -z, x-3/4'

_cell_length_a                   71.8701(7)
_cell_length_b                   71.8701(7)
_cell_length_c                   71.8701(7)
_cell_angle_alpha                90.00
_cell_angle_beta                 90.00
_cell_angle_gamma                90.00
_cell_volume                     371231(6)
_cell_formula_units_Z            192
_cell_measurement_temperature    293(2)
_cell_measurement_reflns_used    ?
_cell_measurement_theta_min      ?
_cell_measurement_theta_max      ?

_exptl_crystal_description       ?
_exptl_crystal_colour            ?
_exptl_crystal_size_max          0.28
_exptl_crystal_size_mid          0.28
_exptl_crystal_size_min          0.28
_exptl_crystal_density_meas      ?
_exptl_crystal_density_diffrn    0.416
_exptl_crystal_density_method    'not measured'
_exptl_crystal_F_000             47222
_exptl_absorpt_coefficient_mu    0.331
_exptl_absorpt_correction_type   multi-scan
_exptl_absorpt_correction_T_min  0.9131
_exptl_absorpt_correction_T_max  0.9131
_exptl_absorpt_process_details   ?

_exptl_special_details           
;
?
;

_diffrn_ambient_temperature      293(2)
_diffrn_radiation_wavelength     0.71073
_diffrn_radiation_type           MoK\a
_diffrn_radiation_source         'fine-focus sealed tube'
_diffrn_radiation_monochromator  graphite
_diffrn_measurement_device_type  ?
_diffrn_measurement_method       ?
_diffrn_detector_area_resol_mean ?
_diffrn_reflns_number            360155
_diffrn_reflns_av_R_equivalents  0.1987
_diffrn_reflns_av_sigmaI/netI    0.1232
_diffrn_reflns_limit_h_min       -87
_diffrn_reflns_limit_h_max       60
_diffrn_reflns_limit_k_min       -84
_diffrn_reflns_limit_k_max       66
_diffrn_reflns_limit_l_min       -82
_diffrn_reflns_limit_l_max       84
_diffrn_reflns_theta_min         1.60
_diffrn_reflns_theta_max         25.50
_reflns_number_total             14424
_reflns_number_gt                4345
_reflns_threshold_expression     >2sigma(I)

_computing_data_collection       ?
_computing_cell_refinement       ?
_computing_data_reduction        ?
_computing_structure_solution    'SHELXS-97 (Sheldrick, 2008)'
_computing_structure_refinement  'SHELXL-97 (Sheldrick, 2008)'
_computing_molecular_graphics    ?
_computing_publication_material  ?

_refine_special_details          
;
Refinement of F^2^ against ALL reflections. The weighted R-factor wR and
goodness of fit S are based on F^2^, conventional R-factors R are based
on F, with F set to zero for negative F^2^. The threshold expression of
F^2^ > 2sigma(F^2^) is used only for calculating R-factors(gt) etc. and is
not relevant to the choice of reflections for refinement. R-factors based
on F^2^ are statistically about twice as large as those based on F, and R-
factors based on ALL data will be even larger.
;

_refine_ls_structure_factor_coef Fsqd
_refine_ls_matrix_type           full
_refine_ls_weighting_scheme      calc
_refine_ls_weighting_details     
'calc w=1/[\s^2^(Fo^2^)+(0.1700P)^2^+0.0000P] where P=(Fo^2^+2Fc^2^)/3'
_atom_sites_solution_primary     direct
_atom_sites_solution_secondary   difmap
_atom_sites_solution_hydrogens   geom
_refine_ls_hydrogen_treatment    mixed
_refine_ls_extinction_method     SHELXL
_refine_ls_extinction_coef       0.000067(4)
_refine_ls_extinction_expression Fc^*^=kFc[1+0.001xFc^2^\l^3^/sin(2\q)]^-1/4^
_refine_ls_number_reflns         14424
_refine_ls_number_parameters     290
_refine_ls_number_restraints     0
_refine_ls_R_factor_all          0.2480
_refine_ls_R_factor_gt           0.1122
_refine_ls_wR_factor_ref         0.3579
_refine_ls_wR_factor_gt          0.3151
_refine_ls_goodness_of_fit_ref   1.026
_refine_ls_restrained_S_all      1.026
_refine_ls_shift/su_max          0.000
_refine_ls_shift/su_mean         0.000

loop_
_atom_site_label
_atom_site_type_symbol
_atom_site_fract_x
_atom_site_fract_y
_atom_site_fract_z
_atom_site_U_iso_or_equiv
_atom_site_adp_type
_atom_site_occupancy
_atom_site_symmetry_multiplicity
_atom_site_calc_flag
_atom_site_refinement_flags
_atom_site_disorder_assembly
_atom_site_disorder_group
C8 C 0.31150(6) 0.18496(6) -0.04808(5) 0.1160(15) Uani 1 1 d . . .
H8 H 0.3216 0.1770 -0.0467 0.139 Uiso 1 1 calc R . .
C5 C 0.33872(5) 0.22353(6) 0.02056(5) 0.1045(14) Uani 1 1 d . . .
H5 H 0.3322 0.2345 0.0186 0.125 Uiso 1 1 calc R . .
C17 C 0.36535(6) 0.22727(6) 0.10508(6) 0.1173(15) Uani 1 1 d . . .
C10 C 0.28508(5) 0.19510(5) -0.06570(6) 0.1062(14) Uani 1 1 d . . .
C4 C 0.33558(5) 0.20894(6) 0.00867(5) 0.1038(14) Uani 1 1 d . . .
C6 C 0.32158(6) 0.21144(6) -0.00637(6) 0.1219(15) Uani 1 1 d . . .
C7 C 0.30779(6) 0.19780(6) -0.03437(5) 0.1064(14) Uani 1 1 d . . .
C2 C 0.35784(6) 0.19103(6) 0.02623(6) 0.1190(15) Uani 1 1 d . . .
C14 C 0.37006(6) 0.14071(6) 0.02700(6) 0.1186(16) Uani 1 1 d . . .
C11 C 0.28135(6) 0.20740(6) -0.05205(6) 0.1223(15) Uani 1 1 d . . .
H11 H 0.2709 0.2149 -0.0532 0.147 Uiso 1 1 calc R . .
C18 C 0.38425(6) 0.22699(6) 0.10735(6) 0.1264(17) Uani 1 1 d . . .
H18 H 0.3921 0.2285 0.0972 0.152 Uiso 1 1 calc R . .
C16 C 0.35410(7) 0.22513(7) 0.12010(7) 0.1403(19) Uani 1 1 d . . .
H16 H 0.3413 0.2251 0.1185 0.168 Uiso 1 1 calc R . .
C20 C 0.35711(6) 0.23167(6) 0.08599(6) 0.1226(16) Uani 1 1 d . . .
C3 C 0.34535(6) 0.19222(6) 0.01144(6) 0.1170(15) Uani 1 1 d . . .
H3 H 0.3435 0.1821 0.0035 0.140 Uiso 1 1 calc R . .
C13 C 0.37006(7) 0.17483(7) 0.02999(7) 0.1336(18) Uani 1 1 d . . .
C12 C 0.29232(6) 0.20944(6) -0.03640(6) 0.1268(16) Uani 1 1 d . . .
H12 H 0.2895 0.2183 -0.0274 0.152 Uiso 1 1 calc R . .
C1 C 0.36033(6) 0.20663(6) 0.03744(6) 0.1265(17) Uani 1 1 d . . .
H1 H 0.3690 0.2060 0.0471 0.152 Uiso 1 1 calc R . .
C21 C 0.33221(6) 0.27319(6) 0.05700(6) 0.1210(16) Uani 1 1 d . . .
C15 C 0.36135(6) 0.22294(7) 0.13782(7) 0.143(2) Uani 1 1 d . . .
H15 H 0.3533 0.2214 0.1479 0.172 Uiso 1 1 calc R . .
C19 C 0.39170(6) 0.22441(7) 0.12548(6) 0.1294(17) Uani 1 1 d . . .
H19 H 0.4045 0.2237 0.1271 0.155 Uiso 1 1 calc R . .
C9 C 0.30068(6) 0.18362(6) -0.06358(6) 0.1177(15) Uani 1 1 d . . .
H9 H 0.3037 0.1751 -0.0728 0.141 Uiso 1 1 calc R . .
N1 N 0.35072(4) 0.22279(4) 0.03500(5) 0.1088(11) Uani 1 1 d . . .
N2 N 0.31957(4) 0.19802(5) -0.01879(5) 0.1222(12) Uani 1 1 d . . .
H2 H 0.3263 0.1883 -0.0171 0.147 Uiso 1 1 calc R . .
N3 N 0.36147(5) 0.15836(5) 0.02711(5) 0.1255(13) Uani 1 1 d . . .
H3A H 0.3497 0.1587 0.0252 0.151 Uiso 1 1 calc R . .
O1 O 0.37706(6) 0.25753(6) 0.03833(6) 0.1988(18) Uani 1 1 d . . .
O2 O 0.31327(5) 0.22615(4) -0.00697(4) 0.1693(12) Uani 1 1 d . . .
O3 O 0.38594(4) 0.17664(5) 0.03514(6) 0.1726(15) Uani 1 1 d . . .
O4 O 0.36881(4) 0.23522(5) 0.07316(4) 0.1414(12) Uani 1 1 d . . .
O5 O 0.33990(4) 0.23212(4) 0.08427(4) 0.1491(12) Uani 1 1 d . . .
O6 O 0.34381(4) 0.27559(4) 0.07012(4) 0.1335(11) Uani 1 1 d . . .
O7 O 0.33390(4) 0.25982(4) 0.04570(4) 0.1352(11) Uani 1 1 d . . .
Zn1 Zn 0.355757(7) 0.245140(8) 0.051908(7) 0.1185(2) Uani 1 1 d . . .

loop_
_atom_site_aniso_label
_atom_site_aniso_U_11
_atom_site_aniso_U_22
_atom_site_aniso_U_33
_atom_site_aniso_U_23
_atom_site_aniso_U_13
_atom_site_aniso_U_12
C8 0.124(3) 0.113(3) 0.111(3) -0.047(2) -0.046(3) 0.051(3)
C5 0.110(3) 0.102(3) 0.102(3) -0.028(2) -0.042(2) 0.045(2)
C17 0.124(3) 0.109(3) 0.119(3) -0.022(3) -0.080(3) 0.025(3)
C10 0.103(3) 0.099(3) 0.116(3) -0.046(2) -0.047(2) 0.032(2)
C4 0.103(3) 0.112(3) 0.096(3) -0.032(2) -0.040(2) 0.053(2)
C6 0.135(3) 0.110(3) 0.121(3) -0.039(3) -0.064(3) 0.066(3)
C7 0.109(3) 0.109(3) 0.102(3) -0.044(2) -0.046(2) 0.045(2)
C2 0.116(3) 0.111(3) 0.130(3) -0.049(3) -0.055(3) 0.065(2)
C14 0.122(3) 0.111(3) 0.123(3) -0.013(3) -0.030(3) 0.062(3)
C11 0.124(3) 0.107(3) 0.136(3) -0.056(3) -0.061(3) 0.061(2)
C18 0.118(3) 0.151(4) 0.111(3) -0.001(3) -0.055(3) 0.011(3)
C16 0.122(3) 0.162(4) 0.137(4) -0.007(3) -0.067(3) -0.003(3)
C20 0.142(3) 0.102(3) 0.124(3) -0.036(3) -0.072(3) 0.038(3)
C3 0.116(3) 0.114(3) 0.121(3) -0.043(3) -0.044(3) 0.052(3)
C13 0.134(3) 0.115(3) 0.152(4) -0.036(3) -0.049(3) 0.062(3)
C12 0.129(3) 0.131(3) 0.120(3) -0.063(3) -0.061(3) 0.062(3)
C1 0.123(3) 0.142(4) 0.115(3) -0.019(3) -0.049(3) 0.060(3)
C21 0.135(3) 0.120(3) 0.108(3) -0.034(3) -0.040(3) 0.053(3)
C15 0.112(3) 0.197(5) 0.120(3) 0.016(3) -0.068(3) -0.025(3)
C19 0.121(3) 0.142(4) 0.125(4) 0.011(3) -0.076(3) 0.000(3)
C9 0.120(3) 0.126(3) 0.108(3) -0.052(3) -0.042(3) 0.041(3)
N1 0.104(2) 0.113(2) 0.109(2) -0.026(2) -0.0453(19) 0.054(2)
N2 0.127(2) 0.119(2) 0.120(2) -0.062(2) -0.064(2) 0.062(2)
N3 0.119(2) 0.113(3) 0.144(3) -0.029(2) -0.040(2) 0.073(2)
O1 0.179(3) 0.207(4) 0.210(4) 0.000(3) -0.015(3) 0.013(3)
O2 0.227(3) 0.122(2) 0.159(2) -0.0646(19) -0.129(2) 0.087(2)
O3 0.122(2) 0.162(3) 0.234(4) -0.045(3) -0.089(2) 0.068(2)
O4 0.143(2) 0.163(3) 0.119(2) -0.027(2) -0.066(2) 0.053(2)
O5 0.133(2) 0.158(3) 0.156(2) -0.038(2) -0.096(2) 0.045(2)
O6 0.124(2) 0.142(2) 0.134(2) -0.0390(19) -0.0563(19) 0.0490(19)
O7 0.155(2) 0.135(2) 0.116(2) -0.0441(18) -0.0621(18) 0.0743(19)
Zn1 0.1227(4) 0.1246(4) 0.1081(4) -0.0347(3) -0.0594(3) 0.0548(3)

_geom_special_details            
;
All esds (except the esd in the dihedral angle between two l.s. planes)
are estimated using the full covariance matrix. The cell esds are taken
into account individually in the estimation of esds in distances, angles
and torsion angles; correlations between esds in cell parameters are only
used when they are defined by crystal symmetry. An approximate (isotropic)
treatment of cell esds is used for estimating esds involving l.s. planes.
;

loop_
_geom_bond_atom_site_label_1
_geom_bond_atom_site_label_2
_geom_bond_distance
_geom_bond_site_symmetry_2
_geom_bond_publ_flag
C8 C9 1.362(5) . ?
C8 C7 1.376(5) . ?
C8 H8 0.9300 . ?
C5 N1 1.350(4) . ?
C5 C4 1.372(5) . ?
C5 H5 0.9300 . ?
C17 C16 1.357(6) . ?
C17 C18 1.369(6) . ?
C17 C20 1.527(6) . ?
C10 C11 1.348(5) . ?
C10 C9 1.400(5) . ?
C10 C21 1.470(6) 46_544 ?
C4 C3 1.406(5) . ?
C4 C6 1.488(5) . ?
C6 O2 1.216(4) . ?
C6 N2 1.322(5) . ?
C7 C12 1.399(5) . ?
C7 N2 1.404(5) . ?
C2 C1 1.392(6) . ?
C2 C3 1.394(5) . ?
C2 C13 1.483(6) . ?
C14 C15 1.352(6) 156_655 ?
C14 C19 1.386(6) 156_655 ?
C14 N3 1.411(5) . ?
C11 C12 1.381(5) . ?
C11 H11 0.9300 . ?
C18 C19 1.421(6) . ?
C18 H18 0.9300 . ?
C16 C15 1.385(6) . ?
C16 H16 0.9300 . ?
C20 O5 1.243(5) . ?
C20 O4 1.273(5) . ?
C3 H3 0.9300 . ?
C13 O3 1.207(5) . ?
C13 N3 1.351(6) . ?
C12 H12 0.9300 . ?
C1 N1 1.363(5) . ?
C1 H1 0.9300 . ?
C21 O7 1.264(5) . ?
C21 O6 1.271(5) . ?
C21 C10 1.470(6) 63_454 ?
C15 C14 1.352(6) 182_655 ?
C15 H15 0.9300 . ?
C19 C14 1.386(6) 182_655 ?
C19 H19 0.9300 . ?
C9 H9 0.9300 . ?
N1 Zn1 2.046(3) . ?
N2 H2 0.8600 . ?
N3 H3A 0.8600 . ?
O1 Zn1 2.022(4) . ?
O4 Zn1 1.929(3) . ?
O7 Zn1 1.944(3) . ?

loop_
_geom_angle_atom_site_label_1
_geom_angle_atom_site_label_2
_geom_angle_atom_site_label_3
_geom_angle
_geom_angle_site_symmetry_1
_geom_angle_site_symmetry_3
_geom_angle_publ_flag
C9 C8 C7 121.5(4) . . ?
C9 C8 H8 119.2 . . ?
C7 C8 H8 119.2 . . ?
N1 C5 C4 123.6(4) . . ?
N1 C5 H5 118.2 . . ?
C4 C5 H5 118.2 . . ?
C16 C17 C18 119.7(4) . . ?
C16 C17 C20 120.5(4) . . ?
C18 C17 C20 119.6(4) . . ?
C11 C10 C9 117.8(4) . . ?
C11 C10 C21 122.6(4) . 46_544 ?
C9 C10 C21 119.5(4) . 46_544 ?
C5 C4 C3 118.9(3) . . ?
C5 C4 C6 118.1(3) . . ?
C3 C4 C6 122.9(4) . . ?
O2 C6 N2 123.9(4) . . ?
O2 C6 C4 117.6(4) . . ?
N2 C6 C4 118.5(3) . . ?
C8 C7 C12 118.7(4) . . ?
C8 C7 N2 117.5(3) . . ?
C12 C7 N2 123.7(4) . . ?
C1 C2 C3 118.3(4) . . ?
C1 C2 C13 116.8(4) . . ?
C3 C2 C13 124.6(4) . . ?
C15 C14 C19 118.8(4) 156_655 156_655 ?
C15 C14 N3 124.8(4) 156_655 . ?
C19 C14 N3 116.3(4) 156_655 . ?
C10 C11 C12 123.3(4) . . ?
C10 C11 H11 118.4 . . ?
C12 C11 H11 118.4 . . ?
C17 C18 C19 119.0(4) . . ?
C17 C18 H18 120.5 . . ?
C19 C18 H18 120.5 . . ?
C17 C16 C15 121.3(4) . . ?
C17 C16 H16 119.3 . . ?
C15 C16 H16 119.3 . . ?
O5 C20 O4 125.4(4) . . ?
O5 C20 C17 118.7(4) . . ?
O4 C20 C17 115.9(4) . . ?
C2 C3 C4 118.8(4) . . ?
C2 C3 H3 120.6 . . ?
C4 C3 H3 120.6 . . ?
O3 C13 N3 125.0(4) . . ?
O3 C13 C2 122.1(4) . . ?
N3 C13 C2 112.9(4) . . ?
C11 C12 C7 118.4(4) . . ?
C11 C12 H12 120.8 . . ?
C7 C12 H12 120.8 . . ?
N1 C1 C2 123.1(4) . . ?
N1 C1 H1 118.4 . . ?
C2 C1 H1 118.4 . . ?
O7 C21 O6 121.1(4) . . ?
O7 C21 C10 117.0(4) . 63_454 ?
O6 C21 C10 121.8(4) . 63_454 ?
C14 C15 C16 120.8(5) 182_655 . ?
C14 C15 H15 119.6 182_655 . ?
C16 C15 H15 119.6 . . ?
C14 C19 C18 120.3(4) 182_655 . ?
C14 C19 H19 119.9 182_655 . ?
C18 C19 H19 119.9 . . ?
C8 C9 C10 120.3(4) . . ?
C8 C9 H9 119.9 