####################################################################### 
# 
# This file contains crystal structure data downloaded from the 
# Cambridge Structural Database (CSD) hosted by the Cambridge 
# Crystallographic Data Centre (CCDC).
# 
# Full information about CCDC data access policies and citation 
# guidelines are available at http://www.ccdc.cam.ac.uk/access/V1 
# 
# Audit and citation data items may have been added by the CCDC. 
# Please retain this information to preserve the provenance of 
# this file and to allow appropriate attribution of the data. 
# 
#######################################################################

data_cal0026
_audit_block_doi                 10.5517/cc5yzhk
_database_code_depnum_ccdc_archive 'CCDC 177769'
loop_
_citation_id
_citation_doi
_citation_year
1 10.1039/b200503d 2002
_audit_update_record             
;
2002-01-15 deposited with the CCDC.	2024-07-07 downloaded from the CCDC.
;

_audit_creation_method           SHELXL-97
_chemical_name_systematic        
; 

;
_chemical_name_common            ?
_chemical_melting_point          ?
_chemical_formula_moiety         {[Cu1.5(5-isophthalate)(py)5](py)(H2O)6.76}
_chemical_formula_sum            'C37.25 H33 Cu1.50 N5.75 O9 S'
_chemical_formula_weight         832.56

loop_
_atom_type_symbol
_atom_type_description
_atom_type_scat_dispersion_real
_atom_type_scat_dispersion_imag
_atom_type_scat_source
C C 0.0033 0.0016 'International Tables Vol C Tables 4.2.6.8 and 6.1.1.4'
H H 0.0000 0.0000 'International Tables Vol C Tables 4.2.6.8 and 6.1.1.4'
N N 0.0061 0.0033 'International Tables Vol C Tables 4.2.6.8 and 6.1.1.4'
O O 0.0106 0.0060 'International Tables Vol C Tables 4.2.6.8 and 6.1.1.4'
S S 0.1246 0.1234 'International Tables Vol C Tables 4.2.6.8 and 6.1.1.4'
Cu Cu 0.3201 1.2651 'International Tables Vol C Tables 4.2.6.8 and 6.1.1.4'

_symmetry_cell_setting           Monoclinic
_symmetry_space_group_name_H-M   C2/c

loop_
_symmetry_equiv_pos_as_xyz
'x, y, z'
'-x, y, -z+1/2'
'x+1/2, y+1/2, z'
'-x+1/2, y+1/2, -z+1/2'
'-x, -y, -z'
'x, -y, z-1/2'
'-x+1/2, -y+1/2, -z'
'x+1/2, -y+1/2, z-1/2'

_cell_length_a                   30.3221(14)
_cell_length_b                   18.0069(8)
_cell_length_c                   16.3615(8)
_cell_angle_alpha                90.00
_cell_angle_beta                 104.8950(10)
_cell_angle_gamma                90.00
_cell_volume                     8633.3(7)
_cell_formula_units_Z            8
_cell_measurement_temperature    193(2)
_cell_measurement_reflns_used    355
_cell_measurement_theta_min      ?
_cell_measurement_theta_max      ?

_exptl_crystal_description       block
_exptl_crystal_colour            blue
_exptl_crystal_size_max          0.25
_exptl_crystal_size_mid          0.20
_exptl_crystal_size_min          0.15
_exptl_crystal_density_meas      ?
_exptl_crystal_density_diffrn    1.281
_exptl_crystal_density_method    'not measured'
_exptl_crystal_F_000             3426
_exptl_absorpt_coefficient_mu    0.848
_exptl_absorpt_correction_type   Sadabs
_exptl_absorpt_correction_T_min  ?
_exptl_absorpt_correction_T_max  ?
_exptl_absorpt_process_details   ?

_exptl_special_details           
; 
? 
;

_diffrn_ambient_temperature      193(2)
_diffrn_radiation_wavelength     0.71073
_diffrn_radiation_type           MoK\a
_diffrn_radiation_source         'fine-focus sealed tube'
_diffrn_radiation_monochromator  graphite
_diffrn_measurement_device_type  'Bruker P4 diffractometer'
_diffrn_measurement_method       
'phi rotations (0.3 deg), omega scans (0.3 deg, 20 s exp'
_diffrn_detector_area_resol_mean 'SMART 1000'
_diffrn_standards_number         ?
_diffrn_standards_interval_count ?
_diffrn_standards_interval_time  ?
_diffrn_standards_decay_%        0.15
_diffrn_reflns_number            28320
_diffrn_reflns_av_R_equivalents  0.0381
_diffrn_reflns_av_sigmaI/netI    0.0411
_diffrn_reflns_limit_h_min       -31
_diffrn_reflns_limit_h_max       37
_diffrn_reflns_limit_k_min       -13
_diffrn_reflns_limit_k_max       22
_diffrn_reflns_limit_l_min       -19
_diffrn_reflns_limit_l_max       20
_diffrn_reflns_theta_min         1.72
_diffrn_reflns_theta_max         26.39
_reflns_number_total             8819
_reflns_number_gt                6582
_reflns_threshold_expression     >2sigma(I)

_computing_data_collection       ?
_computing_cell_refinement       ?
_computing_data_reduction        ?
_computing_structure_solution    'SHELXS-97 (Sheldrick, 1990)'
_computing_structure_refinement  'SHELXL-97 (Sheldrick, 1997)'
_computing_molecular_graphics    ?
_computing_publication_material  ?

_refine_special_details          
; 
Refinement of F^2^ against ALL reflections.  The weighted R-factor wR and 
goodness of fit S are based on F^2^, conventional R-factors R are based 
on F, with F set to zero for negative F^2^. The threshold expression of 
F^2^ > 2sigma(F^2^) is used only for calculating R-factors(gt) etc. and is 
not relevant to the choice of reflections for refinement.  R-factors based 
on F^2^ are statistically about twice as large as those based on F, and R- 
factors based on ALL data will be even larger. 
;

_refine_ls_structure_factor_coef Fsqd
_refine_ls_matrix_type           full
_refine_ls_weighting_scheme      calc
_refine_ls_weighting_details     
'calc w=1/[\s^2^(Fo^2^)+(0.1343P)^2^+1.3190P] where P=(Fo^2^+2Fc^2^)/3'
_atom_sites_solution_primary     direct
_atom_sites_solution_secondary   difmap
_atom_sites_solution_hydrogens   geom
_refine_ls_hydrogen_treatment    mixed
_refine_ls_extinction_method     none
_refine_ls_extinction_coef       ?
_refine_ls_number_reflns         8819
_refine_ls_number_parameters     558
_refine_ls_number_restraints     0
_refine_ls_R_factor_all          0.0753
_refine_ls_R_factor_gt           0.0578
_refine_ls_wR_factor_ref         0.1952
_refine_ls_wR_factor_gt          0.1846
_refine_ls_goodness_of_fit_ref   1.065
_refine_ls_restrained_S_all      1.065
_refine_ls_shift/su_max          0.291
_refine_ls_shift/su_mean         0.007

loop_
_atom_site_label
_atom_site_type_symbol
_atom_site_fract_x
_atom_site_fract_y
_atom_site_fract_z
_atom_site_U_iso_or_equiv
_atom_site_adp_type
_atom_site_occupancy
_atom_site_symmetry_multiplicity
_atom_site_calc_flag
_atom_site_refinement_flags
_atom_site_disorder_assembly
_atom_site_disorder_group
Cu1 Cu 0.204019(13) 0.35303(2) 0.19505(3) 0.02951(15) Uani 1 1 d . . .
Cu2 Cu 0.0000 0.67952(4) 0.2500 0.0409(2) Uani 1 2 d S . .
S1 S 0.05740(3) 0.67745(5) 0.06649(6) 0.0320(2) Uani 1 1 d . . .
O1 O 0.05603(10) 0.74573(17) 0.0190(2) 0.0577(8) Uani 1 1 d . . .
O2 O 0.03414(9) 0.68338(19) 0.1328(2) 0.0559(8) Uani 1 1 d . . .
O3 O 0.04332(10) 0.61331(17) 0.0130(2) 0.0594(9) Uani 1 1 d . . .
O4 O 0.23842(9) 0.49648(15) 0.2343(2) 0.0486(7) Uani 1 1 d . . .
O5 O 0.17057(8) 0.44846(12) 0.17098(16) 0.0346(6) Uani 1 1 d . . .
O6 O 0.24258(8) 0.26402(13) 0.22374(16) 0.0369(6) Uani 1 1 d . . .
O7 O 0.29888(9) 0.34169(14) 0.2807(2) 0.0516(8) Uani 1 1 d . . .
O8 O 0.0520(6) 0.8982(9) 0.0547(11) 0.066(4) Uiso 0.22 1 d P . .
O9 O -0.0028(7) 0.9852(10) -0.0313(11) 0.078(5) Uiso 0.22 1 d P . .
O10 O 0.3444(6) 0.4353(10) 0.4165(12) 0.068(4) Uiso 0.22 1 d P . .
O11 O 0.3380(6) 0.5477(10) 0.2201(13) 0.081(5) Uiso 0.22 1 d P . .
O12 O -0.1287(10) 1.0812(17) 0.167(2) 0.092(8) Uiso 0.16 1 d P . .
O13 O -0.0672(10) 1.0046(16) 0.2961(19) 0.097(8) Uiso 0.16 1 d P . .
O14 O -0.0807(10) 1.0544(15) 0.2129(18) 0.066(7) Uiso 0.13 1 d P . .
O15 O 0.3942(9) 0.4842(14) 0.3087(17) 0.079(7) Uiso 0.16 1 d P . .
O16 O 0.3526(8) 0.5023(12) 0.2753(14) 0.064(5) Uiso 0.16 1 d P . .
O17 O -0.0437(10) 1.0670(16) 0.176(2) 0.075(8) Uiso 0.13 1 d P . .
O18 O -0.03232(17) 0.5305(3) -0.0853(3) 0.0560(12) Uiso 0.63 1 d P . .
O19 O 0.0625(6) 0.8991(9) 0.0082(12) 0.069(4) Uiso 0.22 1 d P . .
O20 O 0.3230(9) 0.5534(14) 0.2836(17) 0.078(7) Uiso 0.16 1 d P . .
O21 O -0.1315(13) 1.082(2) 0.114(3) 0.098(11) Uiso 0.13 1 d P . .
O22 O 0.3363(7) 0.4141(12) 0.4554(14) 0.059(5) Uiso 0.16 1 d P . .
N1 N 0.22491(11) 0.36572(18) 0.0862(2) 0.0409(7) Uani 1 1 d . . .
N2 N 0.14018(11) 0.28642(17) 0.1389(2) 0.0408(8) Uani 1 1 d . . .
N3 N 0.19727(11) 0.34949(17) 0.3170(2) 0.0380(7) Uani 1 1 d . . .
N4 N -0.04329(11) 0.76011(19) 0.1897(2) 0.0435(8) Uani 1 1 d . . .
N5 N -0.04444(10) 0.60122(18) 0.1901(2) 0.0427(8) Uani 1 1 d . . .
N6 N 0.0000 0.3564(5) 0.2500 0.099(3) Uani 1 2 d S . .
C1 C 0.11561(11) 0.66274(18) 0.1203(2) 0.0270(7) Uani 1 1 d . . .
C2 C 0.13271(11) 0.59105(18) 0.1342(2) 0.0285(7) Uani 1 1 d . . .
C3 C 0.17749(11) 0.58008(17) 0.1802(2) 0.0278(7) Uani 1 1 d . . .
C4 C 0.20489(11) 0.64067(18) 0.2119(2) 0.0280(7) Uani 1 1 d . . .
C5 C 0.31238(11) 0.21228(18) 0.3013(2) 0.0276(7) Uani 1 1 d . . .
C6 C 0.14277(11) 0.72318(18) 0.1525(2) 0.0285(7) Uani 1 1 d . . .
C7 C 0.19749(12) 0.50307(19) 0.1969(2) 0.0336(8) Uani 1 1 d . . .
C8 C 0.28308(12) 0.27889(19) 0.2661(2) 0.0330(8) Uani 1 1 d . . .
C9 C 0.2018(3) 0.3360(4) 0.0132(4) 0.089(2) Uani 1 1 d . . .
H4 H 0.1762 0.3051 0.0118 0.134 Uiso 1 1 calc R . .
C10 C 0.2150(3) 0.3498(6) -0.0621(4) 0.135(4) Uani 1 1 d . . .
H5 H 0.1984 0.3281 -0.1138 0.202 Uiso 1 1 calc R . .
C11 C 0.2521(2) 0.3951(5) -0.0605(4) 0.096(2) Uani 1 1 d . . .
H6 H 0.2608 0.4060 -0.1110 0.145 Uiso 1 1 calc R . .
C12 C 0.27545(18) 0.4232(4) 0.0136(3) 0.0718(15) Uani 1 1 d . . .
H7 H 0.3015 0.4534 0.0164 0.108 Uiso 1 1 calc R . .
C13 C 0.26150(16) 0.4083(3) 0.0873(3) 0.0565(11) Uani 1 1 d . . .
C14 C 0.14162(17) 0.2120(2) 0.1312(3) 0.0600(13) Uani 1 1 d . . .
C15 C 0.1022(2) 0.1697(3) 0.1035(4) 0.0779(18) Uani 1 1 d . . .
C16 C 0.06011(18) 0.2054(3) 0.0830(4) 0.0707(15) Uani 1 1 d . . .
C17 C 0.05882(15) 0.2797(3) 0.0917(3) 0.0577(12) Uani 1 1 d . . .
C18 C 0.09914(14) 0.3182(3) 0.1196(3) 0.0435(9) Uani 1 1 d . . .
C19 C 0.1710(2) 0.2988(4) 0.3424(4) 0.086(2) Uani 1 1 d . . .
H14 H 0.1520 0.2679 0.3008 0.129 Uiso 1 1 calc R . .
C20 C 0.1704(3) 0.2893(5) 0.4246(4) 0.104(3) Uani 1 1 d . . .
C21 C 0.1983(3) 0.3305(4) 0.4854(4) 0.0785(17) Uani 1 1 d . . .
C22 C 0.2270(2) 0.3811(4) 0.4623(3) 0.0818(18) Uani 1 1 d . . .
H17 H 0.2478 0.4095 0.5038 0.123 Uiso 1 1 calc R . .
C23 C 0.2246(2) 0.3895(3) 0.3774(3) 0.0635(13) Uani 1 1 d . . .
H18 H 0.2435 0.4258 0.3614 0.095 Uiso 1 1 calc R . .
C24 C -0.08661(15) 0.7619(3) 0.1954(3) 0.0541(11) Uani 1 1 d . . .
H19 H -0.0974 0.7218 0.2227 0.081 Uiso 1 1 calc R . .
C25 C -0.11604(18) 0.8186(4) 0.1636(4) 0.0766(17) Uani 1 1 d . . .
H20 H -0.1467 0.8179 0.1678 0.115 Uiso 1 1 calc R . .
C26 C -0.0992(2) 0.8783(4) 0.1242(5) 0.088(2) Uani 1 1 d . . .
H21 H -0.1184 0.9194 0.1029 0.131 Uiso 1 1 calc R . .
C27 C -0.05544(19) 0.8766(3) 0.1168(4) 0.0741(16) Uani 1 1 d . . .
H22 H -0.0438 0.9159 0.0898 0.111 Uiso 1 1 calc R . .
C28 C -0.02846(16) 0.8163(3) 0.1497(3) 0.0569(11) Uani 1 1 d . . .
H23 H 0.0019 0.8144 0.1437 0.085 Uiso 1 1 calc R . .
C29 C -0.06123(15) 0.6013(3) 0.1056(3) 0.0529(11) Uani 1 1 d . . .
H24 H -0.0496 0.6366 0.0733 0.079 Uiso 1 1 calc R . .
C30 C -0.09394(18) 0.5534(3) 0.0641(3) 0.0657(13) Uani 1 1 d . . .
H25 H -0.1047 0.5548 0.0042 0.098 Uiso 1 1 calc R . .
C31 C -0.1114(2) 0.5021(3) 0.1114(4) 0.0721(15) Uani 1 1 d . . .
H26 H -0.1347 0.4683 0.0844 0.108 Uiso 1 1 calc R . .
C32 C -0.09464(19) 0.5011(3) 0.1974(3) 0.0622(13) Uani 1 1 d . . .
H27 H -0.1061 0.4665 0.2307 0.093 Uiso 1 1 calc R . .
C33 C -0.06119(15) 0.5503(2) 0.2351(3) 0.0492(10) Uani 1 1 d . . .
H28 H -0.0494 0.5488 0.2947 0.074 Uiso 1 1 calc R . .
C34 C 0.0320(2) 0.3198(3) 0.3081(4) 0.0768(16) Uani 1 1 d . . .
H29 H 0.0545 0.3455 0.3495 0.115 Uiso 1 1 calc R . .
C35 C 0.0308(3) 0.2445(4) 0.3052(4) 0.099(2) Uani 1 1 d . . .
H30 H 0.0535 0.2177 0.3452 0.149 Uiso 1 1 calc R . .
C36 C 0.0000 0.2074(5) 0.2500 0.079(2) Uiso 1 2 d S . .
H31 H 0.0000 0.1547 0.2500 0.119 Uiso 1 2 calc SR . .
H1 H 0.1160(11) 0.5495(19) 0.120(2) 0.018(8) Uiso 1 1 d . . .
H2 H 0.2399(13) 0.627(2) 0.249(2) 0.034(10) Uiso 1 1 d . . .
H13 H 0.1006(16) 0.364(3) 0.128(3) 0.054(14) Uiso 1 1 d . . .
H8 H 0.2809(15) 0.434(2) 0.158(3) 0.057(13) Uiso 1 1 d . . .
H11 H 0.029(2) 0.185(3) 0.062(4) 0.086(18) Uiso 1 1 d . . .
H9 H 0.1684(16) 0.191(2) 0.159(3) 0.046(12) Uiso 1 1 d . . .
H3 H 0.1314(13) 0.765(2) 0.141(2) 0.031(10) Uiso 1 1 d . . .
H12 H 0.031(4) 0.320(6) 0.094(7) 0.21(5) Uiso 1 1 d . . .
H10 H 0.1086(19) 0.112(3) 0.088(4) 0.081(17) Uiso 1 1 d . . .
H16 H 0.191(2) 0.341(3) 0.544(4) 0.10(2) Uiso 1 1 d . . .
H15 H 0.151(2) 0.259(3) 0.438(4) 0.076(17) Uiso 1 1 d . . .

loop_
_atom_site_aniso_label
_atom_site_aniso_U_11
_atom_site_aniso_U_22
_atom_site_aniso_U_33
_atom_site_aniso_U_23
_atom_site_aniso_U_13
_atom_site_aniso_U_12
Cu1 0.0264(2) 0.0269(2) 0.0327(3) -0.00056(16) 0.00294(17) 0.00436(15)
Cu2 0.0261(3) 0.0522(4) 0.0431(4) 0.000 0.0066(3) 0.000
S1 0.0228(4) 0.0321(4) 0.0375(5) -0.0006(3) 0.0008(3) -0.0002(3)
O1 0.0398(16) 0.0523(17) 0.069(2) 0.0239(15) -0.0072(14) -0.0027(13)
O2 0.0278(14) 0.089(2) 0.0518(18) -0.0004(16) 0.0114(13) 0.0073(14)
O3 0.0386(16) 0.0533(18) 0.070(2) -0.0207(16) -0.0151(14) 0.0000(13)
O4 0.0289(14) 0.0380(14) 0.073(2) 0.0067(13) 0.0013(13) 0.0067(10)
O5 0.0320(13) 0.0263(11) 0.0444(15) 0.0001(10) 0.0080(11) 0.0026(9)
O6 0.0292(13) 0.0342(13) 0.0424(15) -0.0012(11) 0.0002(11) 0.0063(10)
O7 0.0339(15) 0.0289(14) 0.083(2) 0.0096(13) -0.0016(14) 0.0044(10)
N1 0.0424(18) 0.0454(18) 0.0335(17) 0.0011(13) 0.0072(14) 0.0129(14)
N2 0.0313(16) 0.0395(17) 0.0453(19) 0.0002(14) -0.0016(14) 0.0004(13)
N3 0.0383(17) 0.0404(17) 0.0357(17) 0.0037(13) 0.0103(13) 0.0056(13)
N4 0.0308(17) 0.055(2) 0.0451(19) 0.0034(16) 0.0108(14) 0.0042(14)
N5 0.0312(17) 0.054(2) 0.0434(19) -0.0012(15) 0.0098(14) -0.0004(14)
N6 0.108(7) 0.097(6) 0.100(6) 0.000 0.041(6) 0.000
C1 0.0227(15) 0.0298(16) 0.0290(17) -0.0014(13) 0.0072(13) -0.0017(12)
C2 0.0257(16) 0.0286(16) 0.0317(18) -0.0038(13) 0.0080(13) -0.0019(13)
C3 0.0260(16) 0.0280(16) 0.0297(17) -0.0024(13) 0.0075(13) -0.0003(12)
C4 0.0247(16) 0.0323(17) 0.0275(17) -0.0008(13) 0.0075(13) -0.0022(12)
C5 0.0244(16) 0.0301(16) 0.0275(17) 0.0007(13) 0.0051(13) 0.0027(12)
C6 0.0269(16) 0.0237(16) 0.0350(19) 0.0009(13) 0.0080(14) 0.0012(13)
C7 0.0315(18) 0.0297(17) 0.040(2) 0.0028(14) 0.0099(15) 0.0032(13)
C8 0.0297(18) 0.0316(18) 0.0372(19) 0.0012(14) 0.0075(15) 0.0070(14)
C9 0.102(5) 0.122(5) 0.047(3) -0.028(3) 0.026(3) -0.035(4)
C10 0.152(8) 0.210(10) 0.052(4) -0.044(5) 0.043(5) -0.070(7)
C11 0.075(4) 0.173(7) 0.048(3) 0.005(4) 0.028(3) -0.005(4)
C12 0.053(3) 0.112(5) 0.055(3) 0.020(3) 0.023(2) 0.007(3)
C13 0.049(3) 0.074(3) 0.049(3) 0.008(2) 0.018(2) 0.003(2)
C14 0.049(3) 0.040(2) 0.077(3) -0.004(2) -0.009(2) -0.0021(19)
C15 0.072(4) 0.050(3) 0.095(5) -0.005(3) -0.009(3) -0.018(3)
C16 0.045(3) 0.080(4) 0.076(4) -0.001(3) -0.005(2) -0.026(3)
C17 0.034(2) 0.085(4) 0.049(3) -0.002(2) 0.0022(19) -0.008(2)
C18 0.034(2) 0.050(3) 0.044(2) 0.0027(18) 0.0045(17) 0.0017(17)
C19 0.090(4) 0.116(5) 0.050(3) 0.007(3) 0.014(3) -0.050(4)
C20 0.123(6) 0.138(6) 0.057(4) 0.010(4) 0.033(4) -0.067(5)
C21 0.106(5) 0.090(4) 0.048(3) 0.009(3) 0.036(3) 0.001(4)
C22 0.113(5) 0.089(4) 0.041(3) -0.014(3) 0.015(3) -0.017(4)
C23 0.090(4) 0.059(3) 0.043(3) -0.005(2) 0.020(2) -0.020(3)
C24 0.039(2) 0.071(3) 0.054(3) 0.008(2) 0.014(2) 0.008(2)
C25 0.043(3) 0.098(4) 0.093(4) 0.025(3) 0.027(3) 0.026(3)
C26 0.068(4) 0.085(4) 0.115(5) 0.029(4) 0.034(4) 0.033(3)
C27 0.068(3) 0.063(3) 0.097(4) 0.025(3) 0.030(3) 0.014(3)
C28 0.047(3) 0.063(3) 0.063(3) 0.005(2) 0.018(2) 0.002(2)
C29 0.048(2) 0.067(3) 0.045(2) -0.002(2) 0.0132(19) -0.007(2)
C30 0.063(3) 0.078(3) 0.051(3) -0.013(2) 0.007(2) -0.013(3)
C31 0.069(3) 0.071(3) 0.074(4) -0.016(3) 0.013(3) -0.018(3)
C32 0.069(3) 0.056(3) 0.065(3) -0.004(2) 0.024(3) -0.014(2)
C33 0.047(2) 0.051(2) 0.053(3) -0.0006(19) 0.019(2) -0.0009(18)
C34 0.085(4) 0.077(4) 0.067(4) -0.003(3) 0.017(3) 0.008(3)
C35 0.098(5) 0.132(6) 0.079(4) 0.049(4) 0.044(4) 0.046(4)

_geom_special_details            
; 
All esds (except the esd in the dihedral angle between two l.s. planes) 
are estimated using the full covariance matrix.  The cell esds are taken 
into account individually in the estimation of esds in distances, angles 
and torsion angles; correlations between esds in cell parameters are only 
used when they are defined by crystal symmetry.  An approximate (isotropic) 
treatment of cell esds is used for estimating esds involving l.s. planes. 
;

loop_
_geom_bond_atom_site_label_1
_geom_bond_atom_site_label_2
_geom_bond_distance
_geom_bond_site_symmetry_2
_geom_bond_publ_flag
Cu1 O6 1.968(2) . ?
Cu1 O5 1.983(2) . ?
Cu1 N1 2.050(3) . ?
Cu1 N3 2.059(3) . ?
Cu1 N2 2.262(3) . ?
Cu2 N5 2.021(3) 2 ?
Cu2 N5 2.021(3) . ?
Cu2 N4 2.034(3) 2 ?
Cu2 N4 2.034(3) . ?
Cu2 O2 2.403(3) . ?
Cu2 O2 2.403(3) 2 ?
S1 O2 1.442(3) . ?
S1 O3 1.446(3) . ?
S1 O1 1.450(3) . ?
S1 C1 1.778(3) . ?
O4 C7 1.241(4) . ?
O5 C7 1.279(4) . ?
O6 C8 1.274(4) . ?
O7 C8 1.227(4) . ?
O8 O19 0.90(2) . ?
O9 O9 1.13(3) 5_575 ?
O10 O22 0.83(2) . ?
O11 O16 1.21(3) . ?
O11 O