####################################################################### 
# 
# This file contains crystal structure data downloaded from the 
# Cambridge Structural Database (CSD) hosted by the Cambridge 
# Crystallographic Data Centre (CCDC).
# 
# Full information about CCDC data access policies and citation 
# guidelines are available at http://www.ccdc.cam.ac.uk/access/V1 
# 
# Audit and citation data items may have been added by the CCDC. 
# Please retain this information to preserve the provenance of 
# this file and to allow appropriate attribution of the data. 
# 
#######################################################################

data_MOF-2
_audit_block_doi                 10.5517/cc114gj5
_database_code_depnum_ccdc_archive 'CCDC 957606'
loop_
_citation_id
_citation_doi
_citation_year
1 10.1002/chem.201300144 2013
_audit_update_record             
;
2013-08-27 deposited with the CCDC.	2024-07-07 downloaded from the CCDC.
;

_audit_creation_method           SHELXL-97
_chemical_name_systematic        
;
 ?
;
_chemical_name_common            ?
_chemical_melting_point          ?
_chemical_formula_moiety         'C129 H183 N9 Ni3 O60'
_chemical_formula_sum            'C129 H183 N9 Ni3 O60'
_chemical_formula_weight         2995.97

loop_
_atom_type_symbol
_atom_type_description
_atom_type_scat_dispersion_real
_atom_type_scat_dispersion_imag
_atom_type_scat_source
C C 0.0181 0.0091 'International Tables Vol C Tables 4.2.6.8 and 6.1.1.4'
H H 0.0000 0.0000 'International Tables Vol C Tables 4.2.6.8 and 6.1.1.4'
O O 0.0492 0.0322 'International Tables Vol C Tables 4.2.6.8 and 6.1.1.4'
Ni Ni -3.0029 0.5091 'International Tables Vol C Tables 4.2.6.8 and 6.1.1.4'
N N 0.0311 0.0180 'International Tables Vol C Tables 4.2.6.8 and 6.1.1.4'

_symmetry_cell_setting           cubic
_symmetry_space_group_name_H-M   'Im-3m '

loop_
_symmetry_equiv_pos_as_xyz
'x, y, z'
'-x, -y, z'
'x, -y, -z'
'-x, y, -z'
'z, x, y'
'y, z, x'
'-z, -x, y'
'-y, z, -x'
'z, -x, -y'
'-y, -z, x'
'-z, x, -y'
'y, -z, -x'
'-y, -x, -z'
'y, x, -z'
'y, -x, z'
'-y, x, z'
'-x, -z, -y'
'-z, -y, -x'
'x, z, -y'
'-z, y, x'
'x, -z, y'
'z, y, -x'
'-x, z, y'
'z, -y, x'
'x+1/2, y+1/2, z+1/2'
'-x+1/2, -y+1/2, z+1/2'
'x+1/2, -y+1/2, -z+1/2'
'-x+1/2, y+1/2, -z+1/2'
'z+1/2, x+1/2, y+1/2'
'y+1/2, z+1/2, x+1/2'
'-z+1/2, -x+1/2, y+1/2'
'-y+1/2, z+1/2, -x+1/2'
'z+1/2, -x+1/2, -y+1/2'
'-y+1/2, -z+1/2, x+1/2'
'-z+1/2, x+1/2, -y+1/2'
'y+1/2, -z+1/2, -x+1/2'
'-y+1/2, -x+1/2, -z+1/2'
'y+1/2, x+1/2, -z+1/2'
'y+1/2, -x+1/2, z+1/2'
'-y+1/2, x+1/2, z+1/2'
'-x+1/2, -z+1/2, -y+1/2'
'-z+1/2, -y+1/2, -x+1/2'
'x+1/2, z+1/2, -y+1/2'
'-z+1/2, y+1/2, x+1/2'
'x+1/2, -z+1/2, y+1/2'
'z+1/2, y+1/2, -x+1/2'
'-x+1/2, z+1/2, y+1/2'
'z+1/2, -y+1/2, x+1/2'
'-x, -y, -z'
'x, y, -z'
'-x, y, z'
'x, -y, z'
'-z, -x, -y'
'-y, -z, -x'
'z, x, -y'
'y, -z, x'
'-z, x, y'
'y, z, -x'
'z, -x, y'
'-y, z, x'
'y, x, z'
'-y, -x, z'
'-y, x, -z'
'y, -x, -z'
'x, z, y'
'z, y, x'
'-x, -z, y'
'z, -y, -x'
'-x, z, -y'
'-z, -y, x'
'x, -z, -y'
'-z, y, -x'
'-x+1/2, -y+1/2, -z+1/2'
'x+1/2, y+1/2, -z+1/2'
'-x+1/2, y+1/2, z+1/2'
'x+1/2, -y+1/2, z+1/2'
'-z+1/2, -x+1/2, -y+1/2'
'-y+1/2, -z+1/2, -x+1/2'
'z+1/2, x+1/2, -y+1/2'
'y+1/2, -z+1/2, x+1/2'
'-z+1/2, x+1/2, y+1/2'
'y+1/2, z+1/2, -x+1/2'
'z+1/2, -x+1/2, y+1/2'
'-y+1/2, z+1/2, x+1/2'
'y+1/2, x+1/2, z+1/2'
'-y+1/2, -x+1/2, z+1/2'
'-y+1/2, x+1/2, -z+1/2'
'y+1/2, -x+1/2, -z+1/2'
'x+1/2, z+1/2, y+1/2'
'z+1/2, y+1/2, x+1/2'
'-x+1/2, -z+1/2, y+1/2'
'z+1/2, -y+1/2, -x+1/2'
'-x+1/2, z+1/2, -y+1/2'
'-z+1/2, -y+1/2, x+1/2'
'x+1/2, -z+1/2, -y+1/2'
'-z+1/2, y+1/2, -x+1/2'

_cell_length_a                   30.0140(4)
_cell_length_b                   30.0140(4)
_cell_length_c                   30.0140(4)
_cell_angle_alpha                90.00
_cell_angle_beta                 90.00
_cell_angle_gamma                90.00
_cell_volume                     27037.8(6)
_cell_formula_units_Z            4
_cell_measurement_temperature    293(2)
_cell_measurement_reflns_used    2113
_cell_measurement_theta_min      3.1
_cell_measurement_theta_max      67.5

_exptl_crystal_description       block
_exptl_crystal_colour            green
_exptl_crystal_size_max          0.261
_exptl_crystal_size_mid          0.225
_exptl_crystal_size_min          0.155
_exptl_crystal_density_meas      ?
_exptl_crystal_density_diffrn    0.736
_exptl_crystal_density_method    'not measured'
_exptl_crystal_F_000             6336
_exptl_absorpt_coefficient_mu    0.677
_exptl_absorpt_correction_type   multi-scan
_exptl_absorpt_correction_T_min  0.765
_exptl_absorpt_correction_T_max  0.876
_exptl_absorpt_process_details   ?

_exptl_special_details           
;
 ?
;

_diffrn_ambient_temperature      293(2)
_diffrn_radiation_wavelength     1.54184
_diffrn_radiation_type           CuK\a
_diffrn_radiation_source         'fine-focus sealed tube'
_diffrn_radiation_monochromator  graphite
_diffrn_measurement_device_type  'Oxford Diffraction Gemini R Ultra'
_diffrn_measurement_method       '\w scan'
_diffrn_detector_area_resol_mean 10.0
_diffrn_standards_number         ?
_diffrn_standards_interval_count ?
_diffrn_standards_interval_time  ?
_diffrn_standards_decay_%        ?
_diffrn_reflns_number            9883
_diffrn_reflns_av_R_equivalents  0.0684
_diffrn_reflns_av_sigmaI/netI    0.0443
_diffrn_reflns_limit_h_min       -35
_diffrn_reflns_limit_h_max       2
_diffrn_reflns_limit_k_min       -32
_diffrn_reflns_limit_k_max       12
_diffrn_reflns_limit_l_min       -24
_diffrn_reflns_limit_l_max       6
_diffrn_reflns_theta_min         3.61
_diffrn_reflns_theta_max         67.09
_reflns_number_total             2292
_reflns_number_gt                1017
_reflns_threshold_expression     >2\s(I)

_computing_data_collection       'CrysAlis (Oxford Diffraction, 2006)'
_computing_cell_refinement       CrysAlis
_computing_data_reduction        CrysAlis
_computing_structure_solution    'SHELXS-97 (Sheldrick, 2008)'
_computing_structure_refinement  'SHELXL-97 (Sheldrick, 2008)'
_computing_molecular_graphics    ?
_computing_publication_material  ?

_refine_special_details          
;
 Refinement of F^2^ against ALL reflections.  The weighted R-factor wR and
 goodness of fit S are based on F^2^, conventional R-factors R are based
 on F, with F set to zero for negative F^2^. The threshold expression of
 F^2^ > 2\s(F^2^) is used only for calculating R-factors(gt) etc. and is
 not relevant to the choice of reflections for refinement.  R-factors based
 on F^2^ are statistically about twice as large as those based on F, and R-
 factors based on ALL data will be even larger.
;

_refine_ls_structure_factor_coef Fsqd
_refine_ls_matrix_type           full
_refine_ls_weighting_scheme      calc
_refine_ls_weighting_details     
'calc w=1/[\s^2^(Fo^2^)+(0.1916P)^2^+0.0000P] where P=(Fo^2^+2Fc^2^)/3'
_atom_sites_solution_primary     direct
_atom_sites_solution_secondary   difmap
_atom_sites_solution_hydrogens   geom
_refine_ls_hydrogen_treatment    mixed
_refine_ls_extinction_method     SHELXL
_refine_ls_extinction_coef       0.000025(18)
_refine_ls_extinction_expression Fc^*^=kFc[1+0.001xFc^2^\l^3^/sin(2\q)]^-1/4^
_refine_ls_number_reflns         2292
_refine_ls_number_parameters     83
_refine_ls_number_restraints     12
_refine_ls_R_factor_all          0.1383
_refine_ls_R_factor_gt           0.0990
_refine_ls_wR_factor_ref         0.3468
_refine_ls_wR_factor_gt          0.2996
_refine_ls_goodness_of_fit_ref   1.000
_refine_ls_restrained_S_all      1.004
_refine_ls_shift/su_max          0.000
_refine_ls_shift/su_mean         0.000

loop_
_atom_site_label
_atom_site_type_symbol
_atom_site_fract_x
_atom_site_fract_y
_atom_site_fract_z
_atom_site_U_iso_or_equiv
_atom_site_adp_type
_atom_site_occupancy
_atom_site_symmetry_multiplicity
_atom_site_calc_flag
_atom_site_refinement_flags
_atom_site_disorder_assembly
_atom_site_disorder_group
Ni1 Ni 0.0000 0.0000 0.37657(6) 0.0964(8) Uani 1 8 d S . .
C1 C 0.06793(18) 0.06793(18) 0.3518(3) 0.128(2) Uani 1 2 d S . .
C2 C 0.10191(14) 0.10191(14) 0.3686(2) 0.1106(18) Uani 1 2 d S . .
C3 C 0.1099(2) 0.1099(2) 0.4108(2) 0.170(3) Uani 1 2 d SU . .
H3 H 0.0938 0.0938 0.4319 0.204 Uiso 1 2 calc SR . .
C4 C 0.1374(2) 0.1374(2) 0.4242(2) 0.175(3) Uani 1 2 d SU . .
H4 H 0.1410 0.1410 0.4548 0.210 Uiso 1 2 calc SR . .
C5 C 0.1641(2) 0.1641(2) 0.3950(2) 0.174(3) Uani 1 2 d SU . .
H5 H 0.1847 0.1847 0.4055 0.209 Uiso 1 2 calc SR . .
C6 C 0.15711(14) 0.15711(14) 0.3501(2) 0.1123(18) Uani 1 2 d S . .
C7 C 0.12524(13) 0.12524(13) 0.3352(2) 0.1078(17) Uani 1 2 d S . .
H7 H 0.1201 0.1201 0.3051 0.129 Uiso 1 2 calc SR . .
C8 C 0.21207(13) 0.21207(13) 0.33140(18) 0.0998(16) Uani 1 2 d S . .
H8A H 0.2353 0.1982 0.3491 0.120 Uiso 0.50 1 calc PR . .
H8B H 0.1982 0.2353 0.3491 0.120 Uiso 0.50 1 calc PR . .
C9 C 0.23111(12) 0.23111(12) 0.28973(14) 0.0884(14) Uani 1 2 d S . .
O1 O 0.06390(12) 0.06390(12) 0.31089(18) 0.181(3) Uani 1 2 d S . .
O2 O 0.04748(11) 0.04748(11) 0.38002(17) 0.1367(17) Uani 1 2 d S . .
O3 O 0.17918(9) 0.17918(9) 0.31775(12) 0.1103(14) Uani 1 2 d S . .
O1W O 0.0000 0.0000 0.3079(3) 0.131(3) Uani 1 8 d S . .
O2W O 0.0000 0.0000 0.4450(2) 0.112(2) Uani 1 8 d S . .

loop_
_atom_site_aniso_label
_atom_site_aniso_U_11
_atom_site_aniso_U_22
_atom_site_aniso_U_33
_atom_site_aniso_U_23
_atom_site_aniso_U_13
_atom_site_aniso_U_12
Ni1 0.0945(9) 0.0945(9) 0.1002(13) 0.000 0.000 0.000
C1 0.119(3) 0.119(3) 0.145(6) -0.003(3) -0.003(3) -0.006(4)
C2 0.109(3) 0.109(3) 0.113(5) 0.012(2) 0.012(2) -0.022(3)
C3 0.222(4) 0.222(4) 0.068(3) 0.0064(19) 0.0064(19) -0.096(5)
C4 0.226(4) 0.226(4) 0.073(2) 0.0053(17) 0.0053(17) -0.090(5)
C5 0.225(4) 0.225(4) 0.072(3) 0.0034(19) 0.0034(19) -0.089(5)
C6 0.104(3) 0.104(3) 0.129(5) 0.001(2) 0.001(2) -0.017(3)
C7 0.105(2) 0.105(2) 0.113(4) -0.005(2) -0.005(2) -0.023(3)
C8 0.104(2) 0.104(2) 0.092(3) -0.008(2) -0.008(2) -0.005(3)
C9 0.1001(19) 0.1001(19) 0.065(2) 0.0069(16) 0.0069(16) -0.011(2)
O1 0.222(5) 0.222(5) 0.099(3) 0.0063(18) 0.0063(18) -0.123(5)
O2 0.137(3) 0.137(3) 0.137(4) 0.0256(19) 0.0256(19) -0.041(3)
O3 0.127(2) 0.127(2) 0.077(2) -0.0015(14) -0.0015(14) -0.034(2)
O1W 0.126(4) 0.126(4) 0.143(8) 0.000 0.000 0.000
O2W 0.127(4) 0.127(4) 0.082(4) 0.000 0.000 0.000

_geom_special_details            
;
 All s.u.'s (except the s.u. in the dihedral angle between two l.s. planes)
 are estimated using the full covariance matrix.  The cell s.u.'s are taken
 into account individually in the estimation of s.u.'s in distances, angles
 and torsion angles; correlations between s.u.'s in cell parameters are only
 used when they are defined by crystal symmetry.  An approximate (isotropic)
 treatment of cell s.u.'s is used for estimating s.u.'s involving l.s. planes.
;

loop_
_geom_bond_atom_site_label_1
_geom_bond_atom_site_label_2
_geom_bond_distance
_geom_bond_site_symmetry_2
_geom_bond_publ_flag
Ni1 O2 2.018(5) 2 ?
Ni1 O2 2.018(5) 52 ?
Ni1 O2 2.018(5) 51 ?
Ni1 O2 2.018(5) . ?
Ni1 O2W 2.055(8) . ?
Ni1 O1W 2.060(10) . ?
C1 O2 1.213(8) . ?
C1 O1 1.239(9) . ?
C1 C2 1.528(10) . ?
C2 C3 1.311(9) . ?
C2 C7 1.410(8) . ?
C3 C4 1.236(11) . ?
C4 C5 1.433(10) . ?
C5 C6 1.380(9) . ?
C6 O3 1.348(8) . ?
C6 C7 1.425(8) . ?
C8 O3 1.455(7) . ?
C8 C9 1.489(7) . ?
C9 C9 1.438(4) 78 ?
C9 C9 1.438(4) 77 ?

loop_
_geom_angle_atom_site_label_1
_geom_angle_atom_site_label_2
_geom_angle_atom_site_label_3
_geom_angle
_geom_angle_site_symmetry_1
_geom_angle_site_symmetry_3
_geom_angle_publ_flag
O2 Ni1 O2 89.849(17) 2 52 ?
O2 Ni1 O2 89.849(17) 2 51 ?
O2 Ni1 O2 174.1(3) 52 51 ?
O2 Ni1 O2 174.1(3) 2 . ?
O2 Ni1 O2 89.849(17) 52 . ?
O2 Ni1 O2 89.849(17) 51 . ?
O2 Ni1 O2W 87.06(16) 2 . ?
O2 Ni1 O2W 87.06(16) 52 . ?
O2 Ni1 O2W 87.06(16) 51 . ?
O2 Ni1 O2W 87.06(16) . . ?
O2 Ni1 O1W 92.94(16) 2 . ?
O2 Ni1 O1W 92.94(16) 52 . ?
O2 Ni1 O1W 92.94(16) 51 . ?
O2 Ni1 O1W 92.94(16) . . ?
O2W Ni1 O1W 180.000(1) . . ?
O2 C1 O1 126.4(7) . . ?
O2 C1 C2 116.3(7) . . ?
O1 C1 C2 117.3(7) . . ?
C3 C2 C7 120.5(6) . . ?
C3 C2 C1 124.3(7) . . ?
C7 C2 C1 115.3(6) . . ?
C4 C3 C2 123.9(8) . . ?
C3 C4 C5 123.2(7) . . ?
C6 C5 C4 115.4(7) . . ?
O3 C6 C5 123.6(6) . . ?
O3 C6 C7 115.8(6) . . ?
C5 C6 C7 120.6(7) . . ?
C2 C7 C6 116.4(6) . . ?
O3 C8 C9 106.5(4) . . ?
C9 C9 C9 119.78(6) 78 77 ?
C9 C9 C8 120.065(7) 78 . ?
C9 C9 C8 120.065(8) 77 . ?
C1 O2 Ni1 132.7(5) . . ?
C6 O3 C8 117.6(4) . . ?

_diffrn_measured_fraction_theta_max 0.980
_diffrn_reflns_theta_full        67.09
_diffrn_measured_fraction_theta_full 0.980
_refine_diff_density_max         0.838
_refine_diff_density_min         -0.381
_refine_diff_density_rms         0.051

# SQUEEZE RESULTS (APPEND TO CIF)
# Note: Data are Listed for all Voids in the P1 Unit Cell
# i.e. Centre of Gravity, Solvent Accessible Volume,
# Recovered number of Electrons in the Void and
# Details about the Squeezed Material
loop_
_platon_squeeze_void_nr
_platon_squeeze_void_average_x
_platon_squeeze_void_average_y
_platon_squeeze_void_average_z
_platon_squeeze_void_volume
_platon_squeeze_void_count_electrons
_platon_squeeze_void_content
1 -0.008 -0.017 -0.008 19860 5514 ' '
_platon_squeeze_details          
;
;

#=========================END
