####################################################################### 
# 
# This file contains crystal structure data downloaded from the 
# Cambridge Structural Database (CSD) hosted by the Cambridge 
# Crystallographic Data Centre (CCDC).
# 
# Full information about CCDC data access policies and citation 
# guidelines are available at http://www.ccdc.cam.ac.uk/access/V1 
# 
# Audit and citation data items may have been added by the CCDC. 
# Please retain this information to preserve the provenance of 
# this file and to allow appropriate attribution of the data. 
# 
#######################################################################

data_3
_audit_block_doi                 10.5517/cc10x356
_database_code_depnum_ccdc_archive 'CCDC 950527'
loop_
_citation_id
_citation_doi
_citation_year
1 10.1039/C3CE41406J 2013
_audit_update_record             
;
2013-08-13 deposited with the CCDC.	2024-07-07 downloaded from the CCDC.
;

_audit_creation_method           SHELXL-97
_chemical_name_systematic        
; 
 ? 
;
_chemical_name_common            ?
_chemical_melting_point          ?
_chemical_formula_moiety         ?
_chemical_formula_sum            'C64 H54 Mn3 N4 O21'
_chemical_formula_weight         1379.93

loop_
_atom_type_symbol
_atom_type_description
_atom_type_scat_dispersion_real
_atom_type_scat_dispersion_imag
_atom_type_scat_source
C C 0.0033 0.0016 'International Tables Vol C Tables 4.2.6.8 and 6.1.1.4'
H H 0.0000 0.0000 'International Tables Vol C Tables 4.2.6.8 and 6.1.1.4'
N N 0.0061 0.0033 'International Tables Vol C Tables 4.2.6.8 and 6.1.1.4'
O O 0.0106 0.0060 'International Tables Vol C Tables 4.2.6.8 and 6.1.1.4'
Mn Mn 0.3368 0.7283 'International Tables Vol C Tables 4.2.6.8 and 6.1.1.4'

_symmetry_cell_setting           Orthorhombic
_symmetry_space_group_name_H-M   Fdd2

loop_
_symmetry_equiv_pos_as_xyz
'x, y, z'
'-x, -y, z'
'x+1/4, -y+1/4, z+1/4'
'-x+1/4, y+1/4, z+1/4'
'x, y+1/2, z+1/2'
'-x, -y+1/2, z+1/2'
'x+1/4, -y+3/4, z+3/4'
'-x+1/4, y+3/4, z+3/4'
'x+1/2, y, z+1/2'
'-x+1/2, -y, z+1/2'
'x+3/4, -y+1/4, z+3/4'
'-x+3/4, y+1/4, z+3/4'
'x+1/2, y+1/2, z'
'-x+1/2, -y+1/2, z'
'x+3/4, -y+3/4, z+1/4'
'-x+3/4, y+3/4, z+1/4'

_cell_length_a                   47.138(12)
_cell_length_b                   75.02(2)
_cell_length_c                   10.521(3)
_cell_angle_alpha                90.00
_cell_angle_beta                 90.00
_cell_angle_gamma                90.00
_cell_volume                     37203(17)
_cell_formula_units_Z            16
_cell_measurement_temperature    273(2)
_cell_measurement_reflns_used    ?
_cell_measurement_theta_min      1.02
_cell_measurement_theta_max      26.29

_exptl_crystal_description       brick
_exptl_crystal_colour            colorless
_exptl_crystal_size_max          0.37
_exptl_crystal_size_mid          0.12
_exptl_crystal_size_min          0.05
_exptl_crystal_density_meas      ?
_exptl_crystal_density_diffrn    0.985
_exptl_crystal_density_method    'not measured'
_exptl_crystal_F_000             11344
_exptl_absorpt_coefficient_mu    0.455
_exptl_absorpt_correction_type   multi-scan
_exptl_absorpt_correction_T_min  0.5599
_exptl_absorpt_correction_T_max  0.7453
_exptl_absorpt_process_details   'Sheldrick, G. M. (2008). SADABS'

_exptl_special_details           
; 
 ? 
;

_diffrn_ambient_temperature      273(2)
_diffrn_radiation_wavelength     0.71073
_diffrn_radiation_type           MoK\a
_diffrn_radiation_source         'fine-focus sealed tube'
_diffrn_radiation_monochromator  graphite
_diffrn_measurement_device_type  ?
_diffrn_measurement_method       ?
_diffrn_detector_area_resol_mean ?
_diffrn_standards_number         ?
_diffrn_standards_interval_count ?
_diffrn_standards_interval_time  ?
_diffrn_standards_decay_%        ?
_diffrn_reflns_number            51652
_diffrn_reflns_av_R_equivalents  0.0992
_diffrn_reflns_av_sigmaI/netI    0.1496
_diffrn_reflns_limit_h_min       -43
_diffrn_reflns_limit_h_max       58
_diffrn_reflns_limit_k_min       -91
_diffrn_reflns_limit_k_max       92
_diffrn_reflns_limit_l_min       -11
_diffrn_reflns_limit_l_max       13
_diffrn_reflns_theta_min         1.02
_diffrn_reflns_theta_max         26.29
_reflns_number_total             17282
_reflns_number_gt                8708
_reflns_threshold_expression     >2sigma(I)

_computing_data_collection       ?
_computing_cell_refinement       ?
_computing_data_reduction        ?
_computing_structure_solution    'SHELXS-97 (Sheldrick, 1990)'
_computing_structure_refinement  'SHELXL-97 (Sheldrick, 1997)'
_computing_molecular_graphics    ?
_computing_publication_material  ?

_refine_special_details          
; 
 Refinement of F^2^ against ALL reflections.  The weighted R-factor wR and 
 goodness of fit S are based on F^2^, conventional R-factors R are based 
 on F, with F set to zero for negative F^2^. The threshold expression of 
 F^2^ > 2sigma(F^2^) is used only for calculating R-factors(gt) etc. and is 
 not relevant to the choice of reflections for refinement.  R-factors based 
 on F^2^ are statistically about twice as large as those based on F, and R- 
 factors based on ALL data will be even larger. 
;

_refine_ls_structure_factor_coef Fsqd
_refine_ls_matrix_type           full
_refine_ls_weighting_scheme      calc
_refine_ls_weighting_details     
'calc w=1/[\s^2^(Fo^2^)+(0.0349P)^2^+0.0000P] where P=(Fo^2^+2Fc^2^)/3'
_atom_sites_solution_primary     direct
_atom_sites_solution_secondary   difmap
_atom_sites_solution_hydrogens   geom
_refine_ls_hydrogen_treatment    constr
_refine_ls_extinction_method     none
_refine_ls_extinction_coef       ?
_refine_ls_abs_structure_details 'Flack H D (1983), Acta Cryst. A39, 876-881'
_refine_ls_abs_structure_Flack   -0.054(19)
_refine_ls_number_reflns         17282
_refine_ls_number_parameters     804
_refine_ls_number_restraints     1
_refine_ls_R_factor_all          0.1240
_refine_ls_R_factor_gt           0.0696
_refine_ls_wR_factor_ref         0.1593
_refine_ls_wR_factor_gt          0.1448
_refine_ls_goodness_of_fit_ref   1.066
_refine_ls_restrained_S_all      1.066
_refine_ls_shift/su_max          0.054
_refine_ls_shift/su_mean         0.003

loop_
_atom_site_label
_atom_site_type_symbol
_atom_site_fract_x
_atom_site_fract_y
_atom_site_fract_z
_atom_site_U_iso_or_equiv
_atom_site_adp_type
_atom_site_occupancy
_atom_site_symmetry_multiplicity
_atom_site_calc_flag
_atom_site_refinement_flags
_atom_site_disorder_assembly
_atom_site_disorder_group
Mn1 Mn 0.131728(18) 0.206622(12) -0.05233(9) 0.0468(2) Uani 1 1 d . . .
Mn2 Mn 0.133990(17) 0.191262(11) 0.26682(8) 0.0410(2) Uani 1 1 d . . .
Mn3 Mn 0.165192(17) 0.181714(11) 0.54772(8) 0.0423(2) Uani 1 1 d . . .
N1 N 0.21093(10) 0.18549(7) 0.5664(5) 0.0566(14) Uani 1 1 d . . .
N2 N 0.25244(11) 0.19494(7) 0.6391(6) 0.0719(18) Uani 1 1 d . . .
N3 N 0.14454(12) 0.23590(7) -0.0799(6) 0.0677(16) Uani 1 1 d . . .
N4 N 0.16711(11) 0.25950(7) -0.1444(5) 0.0623(15) Uani 1 1 d . . .
O1 O 0.14227(8) 0.06584(6) -0.0440(4) 0.0668(13) Uani 1 1 d . . .
O1W O 0.11951(10) 0.20902(6) -0.2465(4) 0.0762(14) Uani 1 1 d . . .
H1WB H 0.1358 0.2122 -0.2964 0.114 Uiso 1 1 d R . .
H1WA H 0.1053 0.2181 -0.2543 0.114 Uiso 1 1 d R . .
O2 O 0.09292(11) 0.09676(6) -0.0703(5) 0.0807(15) Uani 1 1 d . . .
O2W O 0.16718(9) 0.17417(6) 0.7477(4) 0.0617(12) Uani 1 1 d . . .
H2WA H 0.1663 0.1847 0.7994 0.093 Uiso 1 1 d R . .
H2WB H 0.1847 0.1681 0.7635 0.093 Uiso 1 1 d R . .
O3 O 0.04170(8) 0.06496(7) -0.0384(4) 0.0696(13) Uani 1 1 d . . .
O4 O 0.08986(10) 0.03493(5) -0.0049(5) 0.0771(14) Uani 1 1 d . . .
O5 O 0.18512(9) 0.09966(6) 0.0316(5) 0.0681(12) Uani 1 1 d . . .
O6 O 0.24238(8) 0.07455(7) -0.0293(4) 0.0682(14) Uani 1 1 d . . .
O7 O 0.20227(10) 0.03890(6) -0.0635(5) 0.0874(17) Uani 1 1 d . . .
O8 O 0.11577(9) 0.17423(6) 0.1286(4) 0.0586(12) Uani 1 1 d . . .
O9 O 0.12189(8) 0.17889(5) -0.0774(4) 0.0517(11) Uani 1 1 d . . .
O10 O -0.08774(8) 0.04879(6) -0.1378(4) 0.0498(10) Uani 1 1 d . . .
O11 O -0.07161(8) 0.04954(6) -0.3295(4) 0.0545(11) Uani 1 1 d . . .
O12 O 0.08536(10) -0.03325(6) 0.3510(5) 0.0684(13) Uani 1 1 d . . .
O13 O 0.09047(8) -0.04549(5) 0.1666(4) 0.0520(11) Uani 1 1 d . . .
O14 O 0.17040(10) 0.15461(6) 0.4822(5) 0.0710(14) Uani 1 1 d . . .
O15 O 0.16475(9) 0.17164(6) 0.3214(5) 0.0679(14) Uani 1 1 d . . .
O16 O 0.37164(9) 0.06957(6) -0.1619(4) 0.0625(13) Uani 1 1 d . . .
O17 O 0.35365(9) 0.07006(6) -0.3558(5) 0.0602(12) Uani 1 1 d . . .
O18 O 0.14173(9) -0.03556(6) 0.0019(5) 0.0662(13) Uani 1 1 d . . .
O19 O 0.15280(8) -0.03503(6) -0.2032(5) 0.0584(11) Uani 1 1 d . . .
C1 C 0.09259(12) 0.06585(8) -0.0402(6) 0.0515(16) Uani 1 1 d . . .
C2 C 0.09249(13) 0.08393(7) 0.0305(7) 0.0569(17) Uani 1 1 d . . .
H2A H 0.0756 0.0852 0.0821 0.068 Uiso 1 1 calc R . .
H2B H 0.1091 0.0851 0.0844 0.068 Uiso 1 1 calc R . .
C3 C 0.06609(12) 0.06421(8) -0.1231(7) 0.0557(17) Uani 1 1 d . . .
H3A H 0.0653 0.0739 -0.1841 0.067 Uiso 1 1 calc R . .
H3B H 0.0663 0.0530 -0.1692 0.067 Uiso 1 1 calc R . .
C4 C 0.09285(13) 0.05134(7) 0.0630(6) 0.0543(17) Uani 1 1 d . . .
H4A H 0.1105 0.0516 0.1101 0.065 Uiso 1 1 calc R . .
H4B H 0.0773 0.0530 0.1220 0.065 Uiso 1 1 calc R . .
C5 C 0.11784(12) 0.06418(9) -0.1170(7) 0.0571(17) Uani 1 1 d . . .
H5A H 0.1178 0.0527 -0.1588 0.068 Uiso 1 1 calc R . .
H5B H 0.1177 0.0733 -0.1823 0.068 Uiso 1 1 calc R . .
C6 C 0.19231(12) 0.06946(8) -0.0272(6) 0.0458(15) Uani 1 1 d . . .
C7 C 0.18816(13) 0.08288(8) 0.0781(6) 0.0546(17) Uani 1 1 d . . .
H7A H 0.1714 0.0797 0.1269 0.065 Uiso 1 1 calc R . .
H7B H 0.2044 0.0825 0.1348 0.065 Uiso 1 1 calc R . .
C8 C 0.21834(12) 0.07411(10) -0.1090(7) 0.066(2) Uani 1 1 d . . .
H8A H 0.2209 0.0652 -0.1750 0.080 Uiso 1 1 calc R . .
H8B H 0.2157 0.0856 -0.1492 0.080 Uiso 1 1 calc R . .
C9 C 0.19626(14) 0.05145(9) 0.0306(8) 0.077(2) Uani 1 1 d . . .
H9A H 0.2117 0.0518 0.0914 0.092 Uiso 1 1 calc R . .
H9B H 0.1792 0.0480 0.0755 0.092 Uiso 1 1 calc R . .
C10 C 0.16749(12) 0.06987(10) -0.1187(8) 0.074(2) Uani 1 1 d . . .
H10A H 0.1658 0.0815 -0.1577 0.089 Uiso 1 1 calc R . .
H10B H 0.1700 0.0611 -0.1853 0.089 Uiso 1 1 calc R . .
C11 C 0.09798(13) 0.11413(9) -0.0405(7) 0.0575(17) Uani 1 1 d . . .
C12 C 0.09780(15) 0.12104(9) 0.0763(7) 0.067(2) Uani 1 1 d . . .
H12A H 0.0937 0.1138 0.1456 0.081 Uiso 1 1 calc R . .
C13 C 0.10367(14) 0.13906(9) 0.0954(6) 0.0609(18) Uani 1 1 d . . .
H13A H 0.1043 0.1437 0.1773 0.073 Uiso 1 1 calc R . .
C14 C 0.10836(12) 0.14972(8) -0.0055(6) 0.0514(16) Uani 1 1 d . . .
C15 C 0.10912(15) 0.14302(9) -0.1263(7) 0.0641(19) Uani 1 1 d . . .
H15A H 0.1131 0.1503 -0.1957 0.077 Uiso 1 1 calc R . .
C16 C 0.10384(16) 0.12511(9) -0.1415(7) 0.076(2) Uani 1 1 d . . .
H16A H 0.1043 0.1203 -0.2229 0.091 Uiso 1 1 calc R . .
C17 C 0.11623(12) 0.16932(8) 0.0186(7) 0.0490(15) Uani 1 1 d . . .
C18 C 0.01593(13) 0.06180(9) -0.0897(7) 0.0551(17) Uani 1 1 d . . .
C19 C -0.00601(14) 0.05995(10) -0.0059(7) 0.070(2) Uani 1 1 d . . .
H19A H -0.0023 0.0613 0.0804 0.084 Uiso 1 1 calc R . .
C20 C -0.03245(13) 0.05629(8) -0.0424(6) 0.0546(17) Uani 1 1 d . . .
H20A H -0.0467 0.0545 0.0174 0.065 Uiso 1 1 calc R . .
C21 C -0.03819(13) 0.05523(8) -0.1688(6) 0.0495(16) Uani 1 1 d . . .
C22 C -0.01659(14) 0.05751(10) -0.2555(7) 0.071(2) Uani 1 1 d . . .
H22A H -0.0202 0.0568 -0.3423 0.085 Uiso 1 1 calc R . .
C23 C 0.01052(13) 0.06089(9) -0.2117(8) 0.068(2) Uani 1 1 d . . .
H23A H 0.0252 0.0626 -0.2697 0.082 Uiso 1 1 calc R . .
C24 C -0.06788(13) 0.05098(7) -0.2160(6) 0.0470(15) Uani 1 1 d . . .
C25 C 0.08908(13) 0.01935(8) 0.0623(8) 0.0622(19) Uani 1 1 d . . .
C26 C 0.08437(15) 0.00448(8) -0.0089(7) 0.072(2) Uani 1 1 d . . .
H26A H 0.0813 0.0054 -0.0960 0.087 Uiso 1 1 calc R . .
C27 C 0.08417(14) -0.01223(8) 0.0500(7) 0.0600(18) Uani 1 1 d . . .
H27A H 0.0815 -0.0225 0.0016 0.072 Uiso 1 1 calc R . .
C28 C 0.08783(13) -0.01353(8) 0.1749(6) 0.0525(16) Uani 1 1 d . . .
C29 C 0.09272(14) 0.00132(9) 0.2461(7) 0.069(2) Uani 1 1 d . . .
H29A H 0.0957 0.0001 0.3331 0.083 Uiso 1 1 calc R . .
C30 C 0.09337(15) 0.01814(8) 0.1919(7) 0.070(2) Uani 1 1 d . . .
H30A H 0.0966 0.0282 0.2410 0.084 Uiso 1 1 calc R . .
C31 C 0.08852(12) -0.03136(8) 0.2363(6) 0.0454(15) Uani 1 1 d . . .
C32 C 0.18170(13) 0.11289(8) 0.1198(7) 0.0532(16) Uani 1 1 d . . .
C33 C 0.18004(15) 0.11071(9) 0.2448(7) 0.0675(19) Uani 1 1 d . . .
H33A H 0.1808 0.0992 0.2774 0.081 Uiso 1 1 calc R . .
C34 C 0.17733(15) 0.12445(10) 0.3267(7) 0.072(2) Uani 1 1 d . . .
H34A H 0.1778 0.1225 0.4139 0.087 Uiso 1 1 calc R . .
C35 C 0.17380(11) 0.14147(8) 0.2798(7) 0.0488(15) Uani 1 1 d . . .
C36 C 0.17549(15) 0.14370(9) 0.1514(6) 0.0656(19) Uani 1 1 d . . .
H36A H 0.1738 0.1551 0.1169 0.079 Uiso 1 1 calc R . .
C37 C 0.17965(16) 0.12945(10) 0.0729(7) 0.074(2) Uani 1 1 d . . .
H37A H 0.1811 0.1313 -0.0143 0.089 Uiso 1 1 calc R . .
C38 C 0.16939(12) 0.15631(8) 0.3675(8) 0.0510(16) Uani 1 1 d . . .
C39 C 0.26817(13) 0.07450(9) -0.0915(7) 0.0573(17) Uani 1 1 d . . .
C40 C 0.29119(13) 0.07382(10) -0.0101(7) 0.070(2) Uani 1 1 d . . .
H40A H 0.2885 0.0739 0.0774 0.084 Uiso 1 1 calc R . .
C41 C 0.31743(13) 0.07311(9) -0.0585(7) 0.0595(18) Uani 1 1 d . . .
H41A H 0.3328 0.0727 -0.0031 0.071 Uiso 1 1 calc R . .
C42 C 0.32235(12) 0.07296(8) -0.1850(7) 0.0517(17) Uani 1 1 d . . .
C43 C 0.30003(15) 0.07446(10) -0.2649(7) 0.073(2) Uani 1 1 d . . .
H43A H 0.3031 0.0749 -0.3522 0.088 Uiso 1 1 calc R . .
C44 C 0.27152(13) 0.07544(9) -0.2161(7) 0.068(2) Uani 1 1 d . . .
H44A H 0.2560 0.0767 -0.2703 0.082 Uiso 1 1 calc R . .
C45 C 0.35119(12) 0.07057(8) -0.2426(7) 0.0471(15) Uani 1 1 d . . .
C46 C 0.19091(13) 0.02217(9) -0.0543(8) 0.069(2) Uani 1 1 d . . .
C47 C 0.19809(16) 0.01166(10) -0.1578(9) 0.090(3) Uani 1 1 d . . .
H47A H 0.2102 0.0158 -0.2208 0.108 Uiso 1 1 calc R . .
C48 C 0.18634(15) -0.00564(9) -0.1638(8) 0.083(3) Uani 1 1 d . . .
H48A H 0.1916 -0.0132 -0.2297 0.100 Uiso 1 1 calc R . .
C49 C 0.16755(14) -0.01140(9) -0.0754(7) 0.0611(18) Uani 1 1 d . . .
C50 C 0.16237(15) -0.00091(9) 0.0251(8) 0.080(2) Uani 1 1 d . . .
H50A H 0.1509 -0.0051 0.0905 0.095 Uiso 1 1 calc R . .
C51 C 0.17401(17) 0.01639(9) 0.0333(8) 0.086(2) Uani 1 1 d . . .
H51A H 0.1695 0.0237 0.1020 0.103 Uiso 1 1 calc R . .
C52 C 0.15274(13) -0.02943(9) -0.0956(8) 0.0530(17) Uani 1 1 d . . .
C53 C 0.22535(16) 0.19922(10) 0.6112(9) 0.082(2) Uani 1 1 d . . .
H53A H 0.2177 0.2105 0.6223 0.098 Uiso 1 1 calc R . .
C54 C 0.23168(17) 0.17200(10) 0.5632(8) 0.088(3) Uani 1 1 d . . .
H54A H 0.2279 0.1604 0.5381 0.105 Uiso 1 1 calc R . .
C55 C 0.25655(17) 0.17739(10) 0.5987(9) 0.097(3) Uani 1 1 d . . .
H55A H 0.2734 0.1710 0.5975 0.116 Uiso 1 1 calc R . .
C56 C 0.27306(14) 0.20652(9) 0.6955(7) 0.0608(18) Uani 1 1 d . . .
C57 C 0.30009(17) 0.20143(10) 0.6957(9) 0.103(3) Uani 1 1 d . . .
H57A H 0.3054 0.1906 0.6594 0.123 Uiso 1 1 calc R . .
C58 C 0.3208(2) 0.21284(13) 0.7530(8) 0.106(3) Uiso 1 1 d . . .
H58A H 0.3398 0.2095 0.7541 0.127 Uiso 1 1 calc R . .
C59 C 0.31274(16) 0.22853(10) 0.8057(7) 0.072(2) Uiso 1 1 d . . .
C60 C 0.2857(2) 0.23330(15) 0.8059(10) 0.124(3) Uiso 1 1 d . . .
H60A H 0.2798 0.2440 0.8416 0.149 Uiso 1 1 calc R . .
C61 C 0.2656(2) 0.22106(15) 0.7481(9) 0.120(3) Uiso 1 1 d . . .
H61A H 0.2464 0.2240 0.7495 0.144 Uiso 1 1 calc R . .
C62 C 0.16761(16) 0.24231(10) -0.1288(7) 0.072(2) Uani 1 1 d . . .
H62A H 0.1831 0.2353 -0.1507 0.087 Uiso 1 1 calc R . .
C63 C 0.1400(2) 0.26443(14) -0.1129(9) 0.109(3) Uiso 1 1 d . . .
H63A H 0.1325 0.2759 -0.1148 0.131 Uiso 1 1 calc R . .
C64 C 0.12637(18) 0.24928(10) -0.0783(12) 0.133(5) Uani 1 1 d . . .
H64A H 0.1073 0.2484 -0.0570 0.160 Uiso 1 1 calc R . .

loop_
_atom_site_aniso_label
_atom_site_aniso_U_11
_atom_site_aniso_U_22
_atom_site_aniso_U_33
_atom_site_aniso_U_23
_atom_site_aniso_U_13
_atom_site_aniso_U_12
Mn1 0.0432(5) 0.0362(5) 0.0611(6) -0.0006(5) 0.0014(5) -0.0056(4)
Mn2 0.0404(5) 0.0297(5) 0.0529(5) -0.0012(4) 0.0018(4) -0.0020(4)
Mn3 0.0359(5) 0.0352(5) 0.0557(5) -0.0034(4) 0.0010(4) -0.0026(4)
N1 0.037(3) 0.046(3) 0.087(4) -0.014(3) -0.003(3) -0.001(3)
N2 0.037(3) 0.045(4) 0.133(6) 0.004(4) -0.009(3) -0.002(3)
N3 0.049(4) 0.046(4) 0.108(5) 0.007(3) 0.015(3) -0.015(3)
N4 0.056(4) 0.036(3) 0.094(4) 0.002(3) 0.012(3) -0.007(3)
O1 0.040(3) 0.078(3) 0.081(3) 0.003(3) 0.006(2) -0.013(2)
O1W 0.081(3) 0.071(3) 0.077(3) 0.015(3) 0.000(3) 0.002(3)
O2 0.129(4) 0.036(3) 0.077(3) 0.002(3) -0.012(3) -0.017(3)
O2W 0.067(3) 0.059(3) 0.059(3) -0.009(2) 0.000(2) 0.005(2)
O3 0.029(2) 0.090(4) 0.090(3) -0.009(3) 0.002(2) -0.006(2)
O4 0.112(4) 0.021(2) 0.098(4) -0.002(2) -0.002(3) -0.003(2)
O5 0.083(3) 0.041(3) 0.081(3) -0.009(3) 0.006(3) 0.011(2)
O6 0.025(2) 0.101(4) 0.078(3) -0.021(3) 0.009(2) -0.006(2)
O7 0.086(4) 0.038(3) 0.138(5) -0.029(3) 0.057(3) -0.025(2)
O8 0.086(3) 0.044(3) 0.046(3) -0.004(2) -0.002(2) -0.017(2)
O9 0.055(3) 0.039(3) 0.061(3) 0.003(2) 0.007(2) -0.006(2)
O10 0.033(2) 0.057(3) 0.059(2) 0.002(2) 0.008(2) 0.002(2)
O11 0.037(2) 0.059(3) 0.068(3) 0.007(2) -0.001(2) 0.002(2)
O12 0.089(4) 0.052(3) 0.063(3) 0.001(2) 0.002(3) 0.008(3)
O13 0.054(3) 0.026(2) 0.076(3) -0.001(2) 0.005(2) 0.0102(19)
O14 0.082(4) 0.053(3) 0.079(4) -0.019(3) -0.008(3) 0.005(2)
O15 0.054(3) 0.030(3) 0.120(4) -0.009(3) 0.020(3) -0.005(2)
O16 0.040(3) 0.071(3) 0.077(3) 0.005(3) 0.010(2) 0.004(2)
O17 0.052(3) 0.066(3) 0.063(3) -0.003(2) 0.019(2) 0.011(2)
O18 0.065(3) 0.038(3) 0.096(4) -0.010(3) 0.001(3) -0.011(2)
O19 0.053(3) 0.052(3) 0.070(3) -0.017(3) -0.008(2) -0.006(2)
C1 0.042(4) 0.035(4) 0.077(4) -0.001(3) 0.016(3) -0.004(3)
C2 0.054(4) 0.031(3) 0.086(5) -0.001(4) -0.008(4) -0.006(3)
C3 0.034(4) 0.044(4) 0.089(5) -0.015(4) 0.012(3) -0.015(3)
C4 0.051(4) 0.029(3) 0.083(5) 0.001(3) -0.008(3) -0.004(3)
C5 0.032(4) 0.049(4) 0.090(5) -0.001(4) -0.003(3) -0.013(3)
C6 0.039(4) 0.033(4) 0.065(4) -0.009(3) 0.016(3) -0.003(3)
C7 0.054(4) 0.038(4) 0.072(5) -0.021(3) 0.005(3) 0.002(3)
C8 0.034(4) 0.067(5) 0.097(5) -0.028(4) 0.017(4) 0.009(3)
C9 0.057(4) 0.061(5) 0.113(6) -0.029(5) 0.021(4) 