####################################################################### 
# 
# This file contains crystal structure data downloaded from the 
# Cambridge Structural Database (CSD) hosted by the Cambridge 
# Crystallographic Data Centre (CCDC).
# 
# Full information about CCDC data access policies and citation 
# guidelines are available at http://www.ccdc.cam.ac.uk/access/V1 
# 
# Audit and citation data items may have been added by the CCDC. 
# Please retain this information to preserve the provenance of 
# this file and to allow appropriate attribution of the data. 
# 
#######################################################################

data_[Fe(Lb)(pz)]_2CH2Cl2
_audit_block_doi                 10.5517/ccrkrtv
_database_code_depnum_ccdc_archive 'CCDC 702268'
loop_
_citation_id
_citation_doi
_citation_year
1 10.1016/j.ica.2008.02.065 2008
_audit_update_record             
;
2008-09-15 deposited with the CCDC.	2024-07-07 downloaded from the CCDC.
;
_audit_creation_date             'Fri Feb 15 19:26:04 2008'
_audit_creation_method           'by teXsan'

#------------------------------------------------------------------------------
# CHEMICAL DATA
_chemical_formula_sum            'C32 H28 Cl4 Fe N4 O4 '
_chemical_formula_moiety         'C30 H24 Fe N4 O4, 2(C H2 Cl2) '
_chemical_formula_weight         730.26
_chemical_melting_point          ?
#------------------------------------------------------------------------------
# CRYSTAL DATA
_symmetry_cell_setting           triclinic
_symmetry_space_group_name_H-M   'P -1 '
_symmetry_space_group_name_Hall  '-P 1 '
_symmetry_Int_Tables_number      2
loop_
_symmetry_equiv_pos_as_xyz
x,y,z
-x,-y,-z
_cell_length_a                   7.359(6)
_cell_length_b                   13.74(1)
_cell_length_c                   16.13(1)
_cell_angle_alpha                81.44(2)
_cell_angle_beta                 84.13(2)
_cell_angle_gamma                86.24(2)
_cell_volume                     1602(2)
_cell_formula_units_Z            2
_cell_measurement_reflns_used    4920
_cell_measurement_theta_min      3.0
_cell_measurement_theta_max      27.5
_cell_measurement_temperature    150.2
#------------------------------------------------------------------------------
_exptl_crystal_description       Block
_exptl_crystal_colour            Brown
_exptl_crystal_size_max          0.600
_exptl_crystal_size_mid          0.150
_exptl_crystal_size_min          0.100
_exptl_crystal_size_rad          ?
_exptl_crystal_density_diffrn    1.514
_exptl_crystal_density_meas      ?
_exptl_crystal_density_method    'not measured'
_exptl_crystal_F_000             748.00
_exptl_absorpt_coefficient_mu    0.847
_exptl_absorpt_correction_type   multi-scan
_exptl_absorpt_process_details   '(Jacobson, 1998)'
_exptl_absorpt_correction_T_min  0.781
_exptl_absorpt_correction_T_max  0.919
#------------------------------------------------------------------------------
# EXPERIMENTAL DATA
_diffrn_radiation_type           'Mo K\a'
_diffrn_radiation_wavelength     0.7107
_diffrn_measurement_device_type  'Rigaku/MSC Mercury CCD'
_diffrn_measurement_method       \w
_diffrn_detector_area_resol_mean 14.71
_diffrn_reflns_number            18712
_diffrn_reflns_av_R_equivalents  0.045
_diffrn_reflns_theta_min         ?
_diffrn_reflns_theta_max         27.48
_diffrn_reflns_theta_full        27.48
_diffrn_measured_fraction_theta_max 1.00
_diffrn_measured_fraction_theta_full 1.00
_diffrn_reflns_limit_h_min       -9
_diffrn_reflns_limit_h_max       9
_diffrn_reflns_limit_k_min       -17
_diffrn_reflns_limit_k_max       17
_diffrn_reflns_limit_l_min       -20
_diffrn_reflns_limit_l_max       20
#------------------------------------------------------------------------------
# REFINEMENT DATA
_refine_special_details          
;
Refinement was carried out using all reflections. The weighted
R-factor (wR) and goodness of fit (S) are based on F^2^. R-factor (gt) are
based on F. The threshold expression of F^2^ > 2.0 sigma(F^2^) is used only
for calculating R-factor (gt).
;
_reflns_number_total             7295
_reflns_number_gt                6261
_reflns_threshold_expression     >2.0sigma(I)
_refine_ls_structure_factor_coef Fsqd
_refine_ls_R_factor_gt           0.0726
_refine_ls_wR_factor_ref         0.1344
_refine_ls_hydrogen_treatment    noref
_refine_ls_number_reflns         7295
_refine_ls_number_parameters     406
_refine_ls_goodness_of_fit_ref   1.177
_refine_ls_weighting_scheme      calc
_refine_ls_weighting_details     
'w = 1/[\s^2^(Fo^2^) + (0.0312P)^2^+3.6519P] where P=(Fo^2^+2Fc^2^)/3'
_refine_ls_shift/su_max          0.0000
_refine_ls_extinction_method     SHELXL
_refine_ls_extinction_coef       0.0000
_refine_ls_extinction_expression Fc^*^=kFc[1+0.001xFc^2^\l^3^/sin(2\q)]^-1/4^
_refine_diff_density_max         0.56
_refine_diff_density_min         -0.57
loop_
_atom_type_symbol
_atom_type_description
_atom_type_scat_dispersion_real
_atom_type_scat_dispersion_imag
_atom_type_scat_source
Fe Fe 0.346 0.844
;International Tables for Crystallography
(1992, Vol. C, Tables 4.2.6.8 and 6.1.1.4)
;
Cl Cl 0.148 0.159
;International Tables for Crystallography
(1992, Vol. C, Tables 4.2.6.8 and 6.1.1.4)
;
O O 0.011 0.006
;International Tables for Crystallography
(1992, Vol. C, Tables 4.2.6.8 and 6.1.1.4)
;
N N 0.006 0.003
;International Tables for Crystallography
(1992, Vol. C, Tables 4.2.6.8 and 6.1.1.4)
;
C C 0.003 0.002
;International Tables for Crystallography
(1992, Vol. C, Tables 4.2.6.8 and 6.1.1.4)
;
H H 0.000 0.000
;International Tables for Crystallography
(1992, Vol. C, Table 6.1.1.4)
;
#------------------------------------------------------------------------------
# ATOMIC COORDINATES AND DISPLACEMENT PARAMETERS
loop_
_atom_site_label
_atom_site_type_symbol
_atom_site_fract_x
_atom_site_fract_y
_atom_site_fract_z
_atom_site_U_iso_or_equiv
_atom_site_adp_type
_atom_site_occupancy
_atom_site_symmetry_multiplicity
_atom_site_calc_flag
_atom_site_refinement_flags
_atom_site_disorder_assembly
_atom_site_disorder_group
Fe(1) Fe 0.79388(6) 0.27613(3) 0.81073(3) 0.0145(1) Uani 1.00 1 d . . .
Cl(1) Cl 1.2665(2) -0.03103(9) 0.62191(9) 0.0551(3) Uani 1.00 1 d . . .
Cl(2) Cl 1.2927(2) 0.02412(9) 0.78847(9) 0.0528(3) Uani 1.00 1 d . . .
Cl(3) Cl 0.6242(2) 0.1968(1) 0.52534(9) 0.0625(4) Uani 1.00 1 d . . .
Cl(4) Cl 1.0181(2) 0.2251(1) 0.51596(8) 0.0585(4) Uani 1.00 1 d . . .
O(1) O 0.8157(3) 0.1432(2) 0.7750(1) 0.0181(5) Uani 1.00 1 d . . .
O(2) O 0.8015(3) 0.3774(2) 0.7093(1) 0.0161(5) Uani 1.00 1 d . . .
O(3) O 0.8000(4) 0.0037(2) 0.6840(2) 0.0277(6) Uani 1.00 1 d . . .
O(4) O 0.7653(4) 0.4579(2) 0.5547(2) 0.0288(6) Uani 1.00 1 d . . .
N(1) N 0.7749(4) 0.2020(2) 0.9367(2) 0.0139(5) Uani 1.00 1 d . . .
N(2) N 0.7464(4) 0.3951(2) 0.8819(2) 0.0148(5) Uani 1.00 1 d . . .
N(3) N 1.1003(4) 0.2760(2) 0.8068(2) 0.0171(6) Uani 1.00 1 d . . .
N(4) N 1.4820(4) 0.2784(2) 0.8042(2) 0.0170(6) Uani 1.00 1 d . . .
C(1) C 0.7899(5) 0.4349(2) 1.0228(2) 0.0185(7) Uani 1.00 1 d . . .
C(2) C 0.7688(4) 0.3687(2) 0.9689(2) 0.0144(6) Uani 1.00 1 d . . .
C(3) C 0.7842(4) 0.2649(2) 0.9986(2) 0.0154(6) Uani 1.00 1 d . . .
C(4) C 0.8181(5) 0.2332(2) 1.0812(2) 0.0181(7) Uani 1.00 1 d . . .
C(5) C 0.8732(5) 0.2687(3) 1.2222(2) 0.0233(8) Uani 1.00 1 d . . .
C(6) C 0.8967(5) 0.3360(3) 1.2746(2) 0.0262(8) Uani 1.00 1 d . . .
C(7) C 0.8839(5) 0.4379(3) 1.2448(2) 0.0252(8) Uani 1.00 1 d . . .
C(8) C 0.8475(5) 0.4707(3) 1.1641(2) 0.0229(7) Uani 1.00 1 d . . .
C(9) C 0.8229(5) 0.4035(3) 1.1077(2) 0.0183(7) Uani 1.00 1 d . . .
C(10) C 0.8367(4) 0.3006(2) 1.1373(2) 0.0173(7) Uani 1.00 1 d . . .
C(11) C 0.7493(5) 0.1083(2) 0.9596(2) 0.0169(7) Uani 1.00 1 d . . .
C(12) C 0.7451(5) 0.0363(2) 0.9050(2) 0.0173(7) Uani 1.00 1 d . . .
C(13) C 0.7075(5) -0.0618(3) 0.9438(2) 0.0248(8) Uani 1.00 1 d . . .
C(14) C 0.7005(6) -0.1361(3) 0.8969(2) 0.0286(8) Uani 1.00 1 d . . .
C(15) C 0.7325(5) -0.1168(3) 0.8082(2) 0.0242(8) Uani 1.00 1 d . . .
C(16) C 0.7695(5) -0.0229(2) 0.7691(2) 0.0193(7) Uani 1.00 1 d . . .
C(17) C 0.7788(4) 0.0568(2) 0.8161(2) 0.0159(6) Uani 1.00 1 d . . .
C(18) C 0.7882(7) -0.0702(3) 0.6315(3) 0.036(1) Uani 1.00 1 d . . .
C(19) C 0.6813(5) 0.4826(2) 0.8535(2) 0.0173(7) Uani 1.00 1 d . . .
C(20) C 0.6680(4) 0.5217(2) 0.7666(2) 0.0172(7) Uani 1.00 1 d . . .
C(21) C 0.5951(5) 0.6200(3) 0.7486(2) 0.0220(7) Uani 1.00 1 d . . .
C(22) C 0.5825(5) 0.6643(3) 0.6676(2) 0.0261(8) Uani 1.00 1 d . . .
C(23) C 0.6402(5) 0.6123(3) 0.6006(2) 0.0249(8) Uani 1.00 1 d . . .
C(24) C 0.7097(5) 0.5160(3) 0.6155(2) 0.0194(7) Uani 1.00 1 d . . .
C(25) C 0.7281(4) 0.4678(2) 0.6994(2) 0.0152(6) Uani 1.00 1 d . . .
C(26) C 0.7698(6) 0.5028(3) 0.4686(2) 0.0360(10) Uani 1.00 1 d . . .
C(27) C 1.1882(5) 0.2492(3) 0.8763(2) 0.0199(7) Uani 1.00 1 d . . .
C(28) C 1.3736(5) 0.2513(3) 0.8753(2) 0.0213(7) Uani 1.00 1 d . . .
C(29) C 1.3950(5) 0.3044(3) 0.7340(2) 0.0209(7) Uani 1.00 1 d . . .
C(30) C 1.2084(5) 0.3039(2) 0.7350(2) 0.0164(7) Uani 1.00 1 d . . .
C(31) C 1.2386(7) 0.0645(3) 0.6850(3) 0.043(1) Uani 1.00 1 d . . .
C(32) C 0.8084(7) 0.2219(3) 0.5796(2) 0.0347(10) Uani 1.00 1 d . . .
H(1) H 0.7822 0.5035 1.0025 0.0221 Uiso 1.00 1 calc . . .
H(2) H 0.8292 0.1644 1.1006 0.0216 Uiso 1.00 1 calc . . .
H(3) H 0.8815 0.2002 1.2428 0.0279 Uiso 1.00 1 calc . . .
H(4) H 0.9217 0.3139 1.3312 0.0314 Uiso 1.00 1 calc . . .
H(5) H 0.9009 0.4841 1.2813 0.0302 Uiso 1.00 1 calc . . .
H(6) H 0.8384 0.5396 1.1452 0.0274 Uiso 1.00 1 calc . . .
H(7) H 0.7319 0.0861 1.0184 0.0202 Uiso 1.00 1 calc . . .
H(8) H 0.6869 -0.0754 1.0034 0.0298 Uiso 1.00 1 calc . . .
H(9) H 0.6741 -0.2007 0.9239 0.0342 Uiso 1.00 1 calc . . .
H(10) H 0.7286 -0.1686 0.7755 0.0289 Uiso 1.00 1 calc . . .
H(11) H 0.6690 -0.0948 0.6405 0.0436 Uiso 1.00 1 calc . . .
H(12) H 0.8119 -0.0426 0.5741 0.0436 Uiso 1.00 1 calc . . .
H(13) H 0.8758 -0.1226 0.6450 0.0436 Uiso 1.00 1 calc . . .
H(14) H 0.6383 0.5245 0.8941 0.0208 Uiso 1.00 1 calc . . .
H(15) H 0.5544 0.6557 0.7938 0.0264 Uiso 1.00 1 calc . . .
H(16) H 0.5345 0.7304 0.6569 0.0312 Uiso 1.00 1 calc . . .
H(17) H 0.6315 0.6434 0.5444 0.0298 Uiso 1.00 1 calc . . .
H(18) H 0.8524 0.5545 0.4590 0.0431 Uiso 1.00 1 calc . . .
H(19) H 0.8091 0.4549 0.4330 0.0431 Uiso 1.00 1 calc . . .
H(20) H 0.6509 0.5289 0.4569 0.0431 Uiso 1.00 1 calc . . .
H(21) H 1.3162 0.1157 0.6605 0.0511 Uiso 1.00 1 calc . . .
H(22) H 1.1147 0.0892 0.6867 0.0511 Uiso 1.00 1 calc . . .
H(23) H 0.7833 0.2840 0.5986 0.0414 Uiso 1.00 1 calc . . .
H(24) H 0.8191 0.1720 0.6267 0.0414 Uiso 1.00 1 calc . . .
H(25) H 1.1186 0.2281 0.9281 0.0239 Uiso 1.00 1 calc . . .
H(26) H 1.4283 0.2330 0.9266 0.0254 Uiso 1.00 1 calc . . .
H(27) H 1.4653 0.3236 0.6820 0.0250 Uiso 1.00 1 calc . . .
H(28) H 1.1532 0.3237 0.6840 0.0197 Uiso 1.00 1 calc . . .

loop_
_atom_site_aniso_label
_atom_site_aniso_U_11
_atom_site_aniso_U_22
_atom_site_aniso_U_33
_atom_site_aniso_U_12
_atom_site_aniso_U_13
_atom_site_aniso_U_23
Fe(1) 0.0145(2) 0.0142(2) 0.0143(2) -0.0014(2) -0.0016(2) 0.0000(2)
Cl(1) 0.0602(8) 0.0462(7) 0.0620(8) -0.0023(6) 0.0012(6) -0.0227(6)
Cl(2) 0.0557(8) 0.0437(7) 0.0618(8) 0.0083(6) -0.0256(6) -0.0077(6)
Cl(3) 0.0759(10) 0.0643(9) 0.0527(8) 0.0178(7) -0.0360(7) -0.0146(7)
Cl(4) 0.0698(9) 0.0606(8) 0.0403(7) 0.0112(7) 0.0133(6) -0.0104(6)
O(1) 0.025(1) 0.013(1) 0.015(1) -0.0040(10) 0.0014(10) -0.0007(9)
O(2) 0.018(1) 0.014(1) 0.015(1) 0.0011(9) -0.0006(9) 0.0004(9)
O(3) 0.046(2) 0.019(1) 0.018(1) -0.001(1) 0.000(1) -0.006(1)
O(4) 0.046(2) 0.024(1) 0.014(1) 0.002(1) -0.002(1) 0.002(1)
N(1) 0.013(1) 0.015(1) 0.014(1) -0.001(1) -0.001(1) -0.001(1)
N(2) 0.014(1) 0.015(1) 0.015(1) -0.001(1) -0.002(1) -0.001(1)
N(3) 0.019(1) 0.014(1) 0.018(1) -0.002(1) -0.003(1) 0.000(1)
N(4) 0.018(1) 0.015(1) 0.017(1) -0.002(1) 0.000(1) -0.001(1)
C(1) 0.019(2) 0.016(2) 0.020(2) -0.001(1) -0.001(1) -0.002(1)
C(2) 0.012(2) 0.016(2) 0.015(2) -0.001(1) 0.000(1) -0.001(1)
C(3) 0.014(2) 0.015(2) 0.017(2) 0.001(1) -0.001(1) -0.002(1)
C(4) 0.021(2) 0.016(2) 0.017(2) 0.002(1) -0.002(1) 0.001(1)
C(5) 0.024(2) 0.026(2) 0.019(2) 0.005(2) -0.005(1) -0.001(1)
C(6) 0.026(2) 0.034(2) 0.020(2) 0.003(2) -0.007(1) -0.006(2)
C(7) 0.028(2) 0.030(2) 0.020(2) -0.004(2) -0.003(1) -0.010(2)
C(8) 0.024(2) 0.022(2) 0.023(2) -0.005(1) 0.001(1) -0.006(1)
C(9) 0.015(2) 0.021(2) 0.018(2) -0.001(1) 0.000(1) -0.004(1)
C(10) 0.014(2) 0.021(2) 0.017(2) 0.000(1) -0.003(1) -0.002(1)
C(11) 0.020(2) 0.017(2) 0.012(1) -0.001(1) 0.001(1) 0.002(1)
C(12) 0.017(2) 0.014(2) 0.020(2) 0.001(1) -0.001(1) -0.001(1)
C(13) 0.034(2) 0.017(2) 0.022(2) -0.004(2) 0.003(2) 0.001(1)
C(14) 0.041(2) 0.013(2) 0.031(2) -0.004(2) 0.003(2) 0.000(1)
C(15) 0.029(2) 0.016(2) 0.029(2) -0.001(1) -0.003(2) -0.007(1)
C(16) 0.019(2) 0.017(2) 0.021(2) 0.000(1) -0.001(1) -0.004(1)
C(17) 0.013(2) 0.015(2) 0.020(2) 0.000(1) -0.001(1) -0.003(1)
C(18) 0.060(3) 0.027(2) 0.026(2) 0.000(2) -0.009(2) -0.012(2)
C(19) 0.019(2) 0.016(2) 0.017(2) -0.002(1) 0.000(1) -0.003(1)
C(20) 0.014(2) 0.016(2) 0.020(2) -0.003(1) -0.001(1) 0.001(1)
C(21) 0.022(2) 0.015(2) 0.027(2) 0.001(1) 0.001(1) -0.002(1)
C(22) 0.027(2) 0.015(2) 0.032(2) 0.003(1) -0.003(2) 0.007(1)
C(23) 0.029(2) 0.024(2) 0.019(2) 0.001(2) -0.006(1) 0.007(1)
C(24) 0.021(2) 0.018(2) 0.018(2) -0.001(1) -0.002(1) 0.001(1)
C(25) 0.012(2) 0.015(2) 0.017(2) -0.002(1) -0.002(1) 0.002(1)
C(26) 0.054(3) 0.037(2) 0.014(2) -0.002(2) -0.001(2) 0.004(2)
C(27) 0.018(2) 0.021(2) 0.019(2) 0.000(1) 0.000(1) 0.004(1)
C(28) 0.023(2) 0.021(2) 0.018(2) -0.003(1) -0.007(1) 0.005(1)
C(29) 0.021(2) 0.025(2) 0.015(2) -0.002(1) 0.001(1) -0.002(1)
C(30) 0.018(2) 0.018(2) 0.014(2) -0.001(1) -0.004(1) -0.002(1)
C(31) 0.055(3) 0.027(2) 0.045(3) -0.003(2) 0.002(2) -0.006(2)
C(32) 0.061(3) 0.025(2) 0.018(2) -0.001(2) -0.003(2) -0.003(2)
#------------------------------------------------------------------------------
_computing_data_collection       CRYSTALCLEAR
_computing_cell_refinement       CRYSTALCLEAR
_computing_data_reduction        'teXsan Ver. 2.0'
_computing_structure_solution    SIR92
_computing_structure_refinement  SHELXL97
_computing_publication_material  'teXsan Ver. 2.0'
_computing_molecular_graphics    ?
#------------------------------------------------------------------------------
_geom_special_details            
;
?
;
loop_
_geom_bond_atom_site_label_1
_geom_bond_atom_site_label_2
_geom_bond_distance
_geom_bond_site_symmetry_1
_geom_bond_site_symmetry_2
_geom_bond_publ_flag
Fe(1) O(1) 1.987(2) . . yes
Fe(1) O(2) 1.983(2) . . yes
Fe(1) N(1) 2.129(3) . . yes
Fe(1) N(2) 2.124(3) . . yes
Fe(1) N(3) 2.249(3) . . yes
Cl(1) C(31) 1.766(5) . . yes
Cl(2) C(31) 1.756(5) . . yes
Cl(3) C(32) 1.765(5) . . yes
Cl(4) C(32) 1.763(5) . . yes
O(1) C(17) 1.302(4) . . yes
O(2) C(25) 1.316(4) . . yes
O(3) C(16) 1.367(4) . . yes
O(3) C(18) 1.428(5) . . yes
O(4) C(24) 1.370(4) . . yes
O(4) C(26) 1.432(4) . . yes
N(1) C(3) 1.424(4) . . yes
N(1) C(11) 1.306(4) . . yes
N(2) C(2) 1.419(4) . . yes
N(2) C(19) 1.300(4) . . yes
N(3) C(27) 1.344(4) . . yes
N(3) C(30) 1.357(4) . . yes
N(4) C(28) 1.348(4) . . yes
N(4) C(29) 1.349(4) . . yes
C(1) C(2) 1.375(5) . . yes
C(1) C(9) 1.414(5) . . yes
C(1) H(1) 0.950 . . no
C(2) C(3) 1.436(4) . . yes
C(3) C(4) 1.382(4) . . yes
C(4) C(10) 1.409(5) . . yes
C(4) H(2) 0.950 . . no
C(5) C(6) 1.373(6) . . yes
C(5) C(10) 1.422(5) . . yes
C(5) H(3) 0.950 . . no
C(6) C(7) 1.412(5) . . yes
C(6) H(4) 0.950 . . no
C(7) C(8) 1.359(5) . . yes
C(7) H(5) 0.950 . . no
C(8) C(9) 1.422(5) . . yes
C(8) H(6) 0.950 . . no
C(9) C(10) 1.423(5) . . yes
C(11) C(12) 1.424(5) . . yes
C(11) H(7) 0.950 . . no
C(12) C(13) 1.430(5) . . yes
C(12) C(17) 1.420(4) . . yes
C(13) C(14) 1.364(6) . . yes
C(13) H(8) 0.950 . . no
C(14) C(15) 1.415(5) . . yes
C(14) H(9) 0.951 . . no
C(15) C(16) 1.380(5) . . yes
C(15) H(10) 0.950 . . no
C(16) C(17) 1.431(5) . . yes
C(18) H(11) 0.950 . . no
C(18) H(12) 0.950 . . no
C(18) H(13) 0.950 . . no
C(19) C(20) 1.436(4) . . yes
C(19) H(14) 0.951 . . no
C(20) C(21) 1.420(5) . . yes
C(20) C(25) 1.420(5) . . yes
C(21) C(22) 1.366(5) . . yes
C(21) H(15) 0.951 . . no
C(22) C(23) 1.399(5) . . yes
C(22) H(16) 0.950 . . no
C(23) C(24) 1.382(5) . . yes
C(23) H(17) 0.950 . . no
C(24) C(25) 1.430(4) . . yes
C(26) H(18) 0.950 . . no
C(26) H(19) 0.951 . . no
C(26) H(20) 0.950 . . no
C(27) C(28) 1.365(5) . . yes
C(27) H(25) 0.950 . . no
C(28) H(26) 0.950 . . no
C(29) C(30) 1.372(5) . . yes
C(29) H(27) 0.950 . . no
C(30) H(28) 0.950 . . no
C(31) H(21) 0.950 . . no
C(31) H(22) 0.951 . . no
C(32) H(23) 0.951 . . no
C(32) H(24) 0.950 . . no
#------------------------------------------------------------------------------
loop_
_geom_angle_atom_site_label_1
_geom_angle_atom_site_label_2
_geom_angle_atom_site_label_3
_geom_angle
_geom_angle_site_symmetry_1
_geom_angle_site_symmetry_2
_geom_angle_site_symmetry_3
_geom_angle_publ_flag
O(1) Fe(1) O(2) 109.01(10) . . . yes
O(1) Fe(1) N(1) 86.67(10) . . . yes
O(1) Fe(1) N(2) 163.92(9) . . . yes
O(1) Fe(1) N(3) 89.8(1) . . . yes
O(2) Fe(1) N(1) 164.3(1) . . . yes
O(2) Fe(1) N(2) 86.56(10) . . . yes
O(2) Fe(1) N(3) 89.44(9) . . . yes
N(1) Fe(1) N(2) 77.75(10) . . . yes
N(1) Fe(1) N(3) 91.35(10) . . . yes
N(2) Fe(1) N(3) 94.5(1) . . . yes
Fe(1) O(1) C(17) 131.4(2) . . . yes
Fe(1) O(2) C(25) 129.8(2) . . . yes
C(16) O(3) C(18) 117.7(3) . . . yes
C(24) O(4) C(26) 117.7(3) . . . yes
Fe(1) N(1) C(3) 114.1(2) . . . yes
Fe(1) N(1) C(11) 125.7(2) . . . yes
C(3) N(1) C(11) 120.1(3) . . . yes
Fe(1) N(2) C(2) 114.2(2) . . . yes
Fe(1) N(2) C(19) 124.9(2) . . . yes
C(2) N(2) C(19) 120.4(3) . . . yes
Fe(1) N(3) C(27) 121.8(2) . . . yes
Fe(1) N(3) C(30) 122.7(2) . . . yes
C(27) N(3) C(30) 115.6(3) . . . yes
C(28) N(4) C(29) 115.6(3) . . . yes
C(2) C(1) C(9) 121.7(3) . . . yes
C(2) C(1) H(1) 119.1 . . . no
C(9) C(1) H(1) 119.2 . . . no
N(2) C(2) C(1) 124.4(3) . . . yes
N(2) C(2) C(3) 115.9(3) . . . yes
C(1) C(2) C(3) 119.4(3) . . . yes
N(1) C(3) C(2) 115.5(3) . . . yes
N(1) C(3) C(4) 124.9(3) . . . yes
C(2) C(3) C(4) 119.5(3) . . . yes
C(3) C(4) C(10) 121.4(3) . . . yes
C(3) C(4) H(2) 119.3 . . . no
C(10) C(4) H(2) 119.3 . . . no
C(6) C(5) C(10) 120.6(3) . . . yes
C(6) C(5) H(3) 119.7 . . . no
C(10) C(5) H(3) 119.7 . . . no
C(5) C(6) C(7) 120.1(3) . . . yes
C(5) C(6) H(4) 119.9 . . . no
C(7) C(6) H(4) 119.9 . . . no
C(6) C(7) C(8) 120.6(4) . . . yes
C(6) C(7) H(5) 119.7 . . . no
C(8) C(7) H(5) 119.7 . . . no
C(7) C(8) C(9) 121.0(3) . . . yes
C(7) C(8) H(6) 119.5 . . . no
C(9) C(8) H(6) 119.5 . . . no
C(1) C(9) C(8) 122.5(3) . . . yes
C(1) C(9) C(10) 118.8(3) . . . yes
C(8) C(9) C(10) 118.7(3) . . . yes
C(4) C(10) C(5) 121.8(3) . . . yes
C(4) C(10) C(9) 119.2(3) . . . yes
C(5) C(10) C(9) 118.9(3) . . . yes
N(1) C(11) C(12) 126.2(3) . . . yes
N(1) C(11) H(7) 116.9 . . . no
C(12) C(11) H(7) 116.9 . . . no
C(11) C(12) C(13) 116.8(3) . . . yes
C(11) C(12) C(17) 123.6(3) . . . yes
C(13) C(12) C(17) 119.6(3) . . . yes
C(12) C(13) C(14) 121.3(3) . . . yes
C(12) C(13) H(8) 119.3 . . . no
C(14) C(13) H(8) 119.3 . . . no
C(13) C(14) C(15) 119.8(3) . . . yes
C(13) C(14) H(9) 120.1 . . . no
C(15) C(14) H(9) 120.1 . . . no
C(14) C(15) C(16) 120.1(3) . . . yes
C(14) C(15) H(10) 119.9 . . . no
C(16) C(15) H(10) 119.9 . . . no
O(3) C(16) C(15) 124.8(3) . . . yes
O(3) C(16) C(17) 113.6(3) . . . yes
C(15) C(16) C(17) 121.7(3) . . . yes
O(1) C(17) C(12) 124.2(3) . . . yes
O(1) C(17) C(16) 118.3(3) . . . yes
C(12) C(17) C(16) 117.4(3) . . . yes
O(3) C(18) H(11) 109.5 . . . no
O(3) C(18) H(12) 109.5 . . . no
O(3) C(18) H(13) 109.5 . . . no
H(11) C(18) H(12) 109.5 . . . no
H(11) C(18) H(13) 109.5 . . . no
H(12) C(18) H(13) 109.5 . . . no
N(2) C(19) C(20) 125.9(3) . . . yes
N(2) C(19) H(14) 117.0 . . . no
C(20) C(19) H(14) 117.1 . . . no
C(19) C(20) C(21) 117.2(3) . . . yes
C(19) C(20) C(25) 123.2(3) . . . yes
C(21) C(20) C(25) 119.6(3) . . . yes
C(20) C(21) C(22) 121.3(3) . . . yes
C(20) C(21) H(15) 119.4 . . . no
C(22) C(21) H(15) 119.4 . . . no
C(21) C(22) C(23) 120.0(3) . . . yes
C(21) C(22) H(16) 120.0 . . . no
C(23) C(22) H(16) 120.0 . . . no
C(22) C(23) C(24) 120.5(3) . . . yes
C(22) C(23) H(17) 119.7 . . . no
C(24) C(23) H(17) 119.7 . . . no
O(4) C(24) C(23) 125.2(3) . . . yes
O(4) C(24) C(25) 113.7(3) . . . yes
C(23) C(24) C(25) 121.1(3) . . . yes
O(2) C(25) C(20) 124.3(3) . . . yes
O(2) C(25) C(24) 118.2(3) . . . yes
C(20) C(25) C(24) 117.5(3) . . . yes
O(4) C(26) H(18) 109.5 . . . no
O(4) C(26) H(19) 109.4 . . . no
O(4) C(26) H(20) 109.5 . . . no
H(18) C(26) H(19) 109.5 . . . no
H(18) C(26) H(20) 109.5 . . . no
H(19) C(26) H(20) 109.5 . . . no
N(3) C(27) C(28) 122.4(3) . . . yes
N(3) C(27) H(25) 118.8 . . . no
C(28) C(27) H(25) 118.8 . . . no
N(4) C(28) C(27) 122.4(3) . . . yes
N(4) C(28) H(26) 118.8 . . . no
C(27) C(28) H(26) 118.8 . . . no
N(4) C(29) C(30) 122.2(3) . . . yes
N(4) C(29) H(27) 118.9 . . . no
C(30) C(29) H(27) 118.9 . . . no
N(3) C(30) C(29) 121.9(3) . . . yes
N(3) C(30) H(28) 119.0 . . . no
C(29) C(30) H(28) 119.1 . . . no
Cl(1) C(31) 