####################################################################### 
# 
# This file contains crystal structure data downloaded from the 
# Cambridge Structural Database (CSD) hosted by the Cambridge 
# Crystallographic Data Centre (CCDC).
# 
# Full information about CCDC data access policies and citation 
# guidelines are available at http://www.ccdc.cam.ac.uk/access/V1 
# 
# Audit and citation data items may have been added by the CCDC. 
# Please retain this information to preserve the provenance of 
# this file and to allow appropriate attribution of the data. 
# 
#######################################################################

data_MOF-103
_audit_block_doi                 10.5517/cc60cyh
_database_code_depnum_ccdc_archive 'CCDC 179116'
loop_
_citation_id
_citation_doi
_citation_year
1 10.1073/pnas.082051899 2002
_audit_update_record             
;
2002-02-06 deposited with the CCDC.	2024-07-07 downloaded from the CCDC.
;

_audit_creation_method           SHELXL-97
_chemical_name_systematic        
; 
? 
;
_chemical_name_common            ?
_chemical_melting_point          ?
_chemical_formula_moiety         ?
_chemical_formula_sum            'C13.39 H15.08 N0.95 O7.15 Zn'
_chemical_formula_weight         369.03

loop_
_atom_type_symbol
_atom_type_description
_atom_type_scat_dispersion_real
_atom_type_scat_dispersion_imag
_atom_type_scat_source
C C 0.0033 0.0016 'International Tables Vol C Tables 4.2.6.8 and 6.1.1.4'
H H 0.0000 0.0000 'International Tables Vol C Tables 4.2.6.8 and 6.1.1.4'
O O 0.0106 0.0060 'International Tables Vol C Tables 4.2.6.8 and 6.1.1.4'
Zn Zn 0.2839 1.4301 'International Tables Vol C Tables 4.2.6.8 and 6.1.1.4'
N N 0.0061 0.0033 'International Tables Vol C Tables 4.2.6.8 and 6.1.1.4'

_symmetry_cell_setting           Monoclinic
_symmetry_space_group_name_H-M   P2(1)/n

loop_
_symmetry_equiv_pos_as_xyz
'x, y, z'
'-x+1/2, y+1/2, -z+1/2'
'-x, -y, -z'
'x-1/2, -y-1/2, z-1/2'

_cell_length_a                   7.3386(5)
_cell_length_b                   16.8338(12)
_cell_length_c                   12.5204(8)
_cell_angle_alpha                90.000(3)
_cell_angle_beta                 94.714(3)
_cell_angle_gamma                90.000(3)
_cell_volume                     1541.49(18)
_cell_formula_units_Z            4
_cell_measurement_temperature    158(2)
_cell_measurement_reflns_used    ?
_cell_measurement_theta_min      ?
_cell_measurement_theta_max      ?

_exptl_crystal_description       rectangular
_exptl_crystal_colour            colorless
_exptl_crystal_size_max          .05
_exptl_crystal_size_mid          .02
_exptl_crystal_size_min          .02
_exptl_crystal_density_meas      ?
_exptl_crystal_density_diffrn    1.590
_exptl_crystal_density_method    'not measured'
_exptl_crystal_F_000             757
_exptl_absorpt_coefficient_mu    1.628
_exptl_absorpt_correction_type   none
_exptl_absorpt_correction_T_min  ?
_exptl_absorpt_correction_T_max  ?
_exptl_absorpt_process_details   ?

_exptl_special_details           
; 
? 
;

_diffrn_ambient_temperature      158(2)
_diffrn_radiation_wavelength     0.71073
_diffrn_radiation_type           MoK\a
_diffrn_radiation_source         'fine-focus sealed tube'
_diffrn_radiation_monochromator  graphite
_diffrn_measurement_device_type  ?
_diffrn_measurement_method       ?
_diffrn_detector_area_resol_mean ?
_diffrn_standards_number         ?
_diffrn_standards_interval_count ?
_diffrn_standards_interval_time  ?
_diffrn_standards_decay_%        ?
_diffrn_reflns_number            3162
_diffrn_reflns_av_R_equivalents  0.0000
_diffrn_reflns_av_sigmaI/netI    0.0565
_diffrn_reflns_limit_h_min       -9
_diffrn_reflns_limit_h_max       9
_diffrn_reflns_limit_k_min       0
_diffrn_reflns_limit_k_max       21
_diffrn_reflns_limit_l_min       0
_diffrn_reflns_limit_l_max       15
_diffrn_reflns_theta_min         2.03
_diffrn_reflns_theta_max         26.46
_reflns_number_total             3162
_reflns_number_gt                2234
_reflns_threshold_expression     >2sigma(I)

_computing_data_collection       ?
_computing_cell_refinement       ?
_computing_data_reduction        ?
_computing_structure_solution    'SHELXS-97 (Sheldrick, 1990)'
_computing_structure_refinement  'SHELXL-97 (Sheldrick, 1997)'
_computing_molecular_graphics    ?
_computing_publication_material  ?

_refine_special_details          
; 
Refinement of F^2^ against ALL reflections.  The weighted R-factor wR and 
goodness of fit S are based on F^2^, conventional R-factors R are based 
on F, with F set to zero for negative F^2^. The threshold expression of 
F^2^ > 2sigma(F^2^) is used only for calculating R-factors(gt) etc. and is 
not relevant to the choice of reflections for refinement.  R-factors based 
on F^2^ are statistically about twice as large as those based on F, and R- 
factors based on ALL data will be even larger. 
;

_refine_ls_structure_factor_coef Fsqd
_refine_ls_matrix_type           full
_refine_ls_weighting_scheme      calc
_refine_ls_weighting_details     
'calc w=1/[\s^2^(Fo^2^)+(0.0690P)^2^+0.0000P] where P=(Fo^2^+2Fc^2^)/3'
_atom_sites_solution_primary     direct
_atom_sites_solution_secondary   difmap
_atom_sites_solution_hydrogens   geom
_refine_ls_hydrogen_treatment    mixed
_refine_ls_extinction_method     SHELXL
_refine_ls_extinction_coef       0.0056(9)
_refine_ls_extinction_expression Fc^*^=kFc[1+0.001xFc^2^\l^3^/sin(2\q)]^-1/4^
_refine_ls_number_reflns         3162
_refine_ls_number_parameters     216
_refine_ls_number_restraints     0
_refine_ls_R_factor_all          0.0682
_refine_ls_R_factor_gt           0.0436
_refine_ls_wR_factor_ref         0.1158
_refine_ls_wR_factor_gt          0.1075
_refine_ls_goodness_of_fit_ref   0.979
_refine_ls_restrained_S_all      0.979
_refine_ls_shift/su_max          0.026
_refine_ls_shift/su_mean         0.001

loop_
_atom_site_label
_atom_site_type_symbol
_atom_site_fract_x
_atom_site_fract_y
_atom_site_fract_z
_atom_site_U_iso_or_equiv
_atom_site_adp_type
_atom_site_occupancy
_atom_site_symmetry_multiplicity
_atom_site_calc_flag
_atom_site_refinement_flags
_atom_site_disorder_assembly
_atom_site_disorder_group
O6 O 0.4050(9) 0.5452(4) 0.6761(4) 0.119(3) Uani 0.892(8) 1 d P A 1
C11 C 0.6411(15) 0.6428(7) 0.4817(8) 0.158(6) Uani 0.892(8) 1 d P A 1
H11A H 0.7502 0.6132 0.5088 0.237 Uiso 0.892(8) 1 calc PR A 1
H11B H 0.6643 0.6999 0.4900 0.237 Uiso 0.892(8) 1 calc PR A 1
H11C H 0.6122 0.6305 0.4057 0.237 Uiso 0.892(8) 1 calc PR A 1
C13 C 0.5029(14) 0.5695(6) 0.6239(6) 0.093(3) Uani 0.892(8) 1 d P A 1
H13 H 0.6226 0.5495 0.6419 0.112 Uiso 0.892(8) 1 calc PR A 1
C12 C 0.3072(19) 0.6593(9) 0.5098(9) 0.221(8) Uani 0.892(8) 1 d P A 1
H12A H 0.3100 0.7156 0.5295 0.331 Uiso 0.892(8) 1 calc PR A 1
H12B H 0.2167 0.6316 0.5496 0.331 Uiso 0.892(8) 1 calc PR A 1
H12C H 0.2738 0.6541 0.4327 0.331 Uiso 0.892(8) 1 calc PR A 1
N1 N 0.4990(11) 0.6221(5) 0.5376(5) 0.110(3) Uani 0.892(8) 1 d P A 1
O O 0.5191(16) 0.9987(5) 0.8614(10) 0.123(6) Uiso 0.588(17) 1 d P B 2
O' O 0.769(4) 0.5603(17) 0.572(2) 0.232(18) Uiso 0.39(2) 1 d P C 2
O" O 0.621(4) 0.5110(15) 0.674(2) 0.074(12) Uiso 0.158(14) 1 d P D 2
O* C 0.565(5) 0.954(2) 0.976(3) 0.24(2) Uiso 0.49(3) 1 d P . 2
Zn1 Zn 1.17630(5) 0.49392(2) 0.94764(3) 0.01502(16) Uani 1 1 d . . .
O1 O 1.0442(3) 0.58140(15) 0.8641(2) 0.0276(6) Uani 1 1 d . . .
O2 O 0.7729(4) 0.58568(15) 0.9343(2) 0.0304(7) Uani 1 1 d . . .
O3 O 0.5160(4) 0.91319(15) 0.6188(2) 0.0309(7) Uani 1 1 d . . .
O4 O 0.7890(3) 0.92047(14) 0.5525(2) 0.0255(6) Uani 1 1 d . . .
O5 O 1.3778(3) 0.46957(17) 0.8572(2) 0.0266(6) Uani 1 1 d . . .
H5 H 1.4638 0.4478 0.8947 0.040 Uiso 1 1 calc R . .
H5' H 1.4981 0.4953 0.8548 0.040 Uiso 1 1 d R . .
C1 C 0.8876(5) 0.6097(2) 0.8723(3) 0.0243(9) Uani 1 1 d . . .
C2 C 0.8318(5) 0.6800(2) 0.8034(3) 0.0230(8) Uani 1 1 d . . .
C3 C 0.6596(5) 0.7144(2) 0.8013(3) 0.0295(9) Uani 1 1 d . . .
C4 C 0.4745(6) 0.7094(3) 0.8478(5) 0.0586(16) Uani 1 1 d . . .
H4A H 0.4789 0.7184 0.9262 0.070 Uiso 1 1 calc R . .
H4B H 0.4027 0.6614 0.8264 0.070 Uiso 1 1 calc R . .
C5 C 0.4227(6) 0.7856(3) 0.7777(5) 0.0605(17) Uani 1 1 d . . .
H5A H 0.3242 0.7768 0.7200 0.073 Uiso 1 1 calc R . .
H5B H 0.3996 0.8337 0.8199 0.073 Uiso 1 1 calc R . .
C6 C 0.6141(5) 0.7806(2) 0.7411(3) 0.0292(9) Uani 1 1 d . . .
C7 C 0.7328(5) 0.8177(2) 0.6771(3) 0.0224(8) Uani 1 1 d . . .
C8 C 0.9054(5) 0.7826(2) 0.6768(3) 0.0299(9) Uani 1 1 d . . .
H8 H 0.9930 0.8054 0.6341 0.051(10) Uiso 1 1 calc R . .
C9 C 0.9525(5) 0.7155(2) 0.7372(3) 0.0301(10) Uani 1 1 d . . .
H9 H 1.0704 0.6929 0.7334 0.051(10) Uiso 1 1 calc R . .
C10 C 0.6750(5) 0.8891(2) 0.6115(3) 0.0226(8) Uani 1 1 d . . .

loop_
_atom_site_aniso_label
_atom_site_aniso_U_11
_atom_site_aniso_U_22
_atom_site_aniso_U_33
_atom_site_aniso_U_23
_atom_site_aniso_U_13
_atom_site_aniso_U_12
O6 0.147(6) 0.178(6) 0.034(3) 0.031(3) 0.019(3) -0.091(5)
C11 0.181(11) 0.192(11) 0.114(8) -0.064(8) 0.097(9) -0.126(10)
C13 0.106(7) 0.122(8) 0.052(5) -0.013(5) 0.003(5) -0.003(6)
C12 0.225(16) 0.32(2) 0.113(10) 0.074(12) -0.016(10) 0.126(15)
N1 0.141(7) 0.142(7) 0.047(4) 0.002(4) 0.017(4) -0.073(6)
Zn1 0.0147(2) 0.0127(2) 0.0176(2) 0.00040(17) 0.00117(14) 0.00067(17)
O1 0.0255(14) 0.0237(14) 0.0336(16) 0.0134(12) 0.0024(12) 0.0068(11)
O2 0.0268(15) 0.0250(15) 0.0400(17) 0.0199(12) 0.0060(13) 0.0038(12)
O3 0.0230(14) 0.0283(15) 0.0419(18) 0.0179(13) 0.0056(13) 0.0084(12)
O4 0.0226(14) 0.0223(14) 0.0313(16) 0.0112(12) 0.0004(12) -0.0006(11)
O5 0.0159(13) 0.0327(15) 0.0315(16) -0.0009(12) 0.0037(12) 0.0030(11)
C1 0.024(2) 0.0180(19) 0.029(2) 0.0044(16) -0.0050(17) 0.0020(16)
C2 0.0206(18) 0.0176(19) 0.031(2) 0.0095(15) 0.0005(17) 0.0007(15)
C3 0.022(2) 0.029(2) 0.039(2) 0.0152(18) 0.0080(18) 0.0044(17)
C4 0.035(3) 0.058(3) 0.085(4) 0.044(3) 0.024(3) 0.015(2)
C5 0.031(3) 0.058(3) 0.096(4) 0.055(3) 0.028(3) 0.019(2)
C6 0.0203(19) 0.027(2) 0.040(3) 0.0132(18) 0.0046(18) 0.0031(16)
C7 0.0203(19) 0.0183(19) 0.028(2) 0.0058(15) 0.0002(16) 0.0001(15)
C8 0.023(2) 0.027(2) 0.041(3) 0.0134(18) 0.0088(18) 0.0011(17)
C9 0.0170(19) 0.027(2) 0.047(3) 0.0115(19) 0.0058(18) 0.0065(16)
C10 0.0223(19) 0.0166(18) 0.028(2) 0.0040(16) -0.0013(17) 0.0004(15)

_geom_special_details            
; 
All esds (except the esd in the dihedral angle between two l.s. planes) 
are estimated using the full covariance matrix.  The cell esds are taken 
into account individually in the estimation of esds in distances, angles 
and torsion angles; correlations between esds in cell parameters are only 
used when they are defined by crystal symmetry.  An approximate (isotropic) 
treatment of cell esds is used for estimating esds involving l.s. planes. 
;

loop_
_geom_bond_atom_site_label_1
_geom_bond_atom_site_label_2
_geom_bond_distance
_geom_bond_site_symmetry_2
_geom_bond_publ_flag
O6 C13 1.090(10) . ?
C11 N1 1.349(9) . ?
C13 N1 1.396(10) . ?
C12 N1 1.554(12) . ?
O O* 1.64(4) . ?
O* O* 1.94(7) 3_677 ?
Zn1 O5 1.978(2) . ?
Zn1 O2 2.007(2) 3_767 ?
Zn1 O1 2.009(2) . ?
Zn1 O4 2.075(2) 4_676 ?
Zn1 O3 2.082(2) 2_646 ?
Zn1 Zn1 3.0023(8) 3_767 ?
O1 C1 1.256(4) . ?
O2 C1 1.258(4) . ?
O2 Zn1 2.007(2) 3_767 ?
O3 C10 1.246(4) . ?
O3 Zn1 2.082(2) 2_656 ?
O4 C10 1.275(4) . ?
O4 Zn1 2.075(2) 4_575 ?
C1 C2 1.501(5) . ?
C2 C3 1.388(5) . ?
C2 C9 1.396(5) . ?
C3 C6 1.372(5) . ?
C3 C4 1.523(5) . ?
C4 C5 1.583(6) . ?
C5 C6 1.515(5) . ?
C6 C7 1.380(5) . ?
C7 C8 1.398(5) . ?
C7 C10 1.497(5) . ?
C8 C9 1.387(5) . ?

loop_
_geom_angle_atom_site_label_1
_geom_angle_atom_site_label_2
_geom_angle_atom_site_label_3
_geom_angle
_geom_angle_site_symmetry_1
_geom_angle_site_symmetry_3
_geom_angle_publ_flag
O6 C13 N1 136.9(11) . . ?
C11 N1 C13 126.7(10) . . ?
C11 N1 C12 120.3(10) . . ?
C13 N1 C12 112.9(8) . . ?
O O* O* 80(2) . 3_677 ?
O5 Zn1 O2 100.43(11) . 3_767 ?
O5 Zn1 O1 101.84(11) . . ?
O2 Zn1 O1 157.72(11) 3_767 . ?
O5 Zn1 O4 103.20(10) . 4_676 ?
O2 Zn1 O4 87.56(12) 3_767 4_676 ?
O1 Zn1 O4 88.31(11) . 4_676 ?
O5 Zn1 O3 98.62(11) . 2_646 ?
O2 Zn1 O3 86.39(12) 3_767 2_646 ?
O1 Zn1 O3 89.34(12) . 2_646 ?
O4 Zn1 O3 158.07(10) 4_676 2_646 ?
O5 Zn1 Zn1 167.37(8) . 3_767 ?
O2 Zn1 Zn1 80.71(8) 3_767 3_767 ?
O1 Zn1 Zn1 77.36(8) . 3_767 ?
O4 Zn1 Zn1 89.40(7) 4_676 3_767 ?
O3 Zn1 Zn1 68.83(7) 2_646 3_767 ?
C1 O1 Zn1 129.9(3) . . ?
C1 O2 Zn1 125.2(2) . 3_767 ?
C10 O3 Zn1 142.3(3) . 2_656 ?
C10 O4 Zn1 114.1(2) . 4_575 ?
O1 C1 O2 126.3(3) . . ?
O1 C1 C2 117.4(3) . . ?
O2 C1 C2 116.3(3) . . ?
C3 C2 C9 115.6(3) . . ?
C3 C2 C1 123.0(3) . . ?
C9 C2 C1 121.4(3) . . ?
C6 C3 C2 121.9(4) . . ?
C6 C3 C4 94.0(3) . . ?
C2 C3 C4 144.0(4) . . ?
C3 C4 C5 85.7(3) . . ?
C6 C5 C4 86.4(3) . . ?
C3 C6 C7 123.4(4) . . ?
C3 C6 C5 93.9(3) . . ?
C7 C6 C5 142.7(4) . . ?
C6 C7 C8 115.2(3) . . ?
C6 C7 C10 121.2(3) . . ?
C8 C7 C10 123.6(3) . . ?
C9 C8 C7 121.8(4) . . ?
C8 C9 C2 122.0(4) . . ?
O3 C10 O4 124.8(3) . . ?
O3 C10 C7 116.5(3) . . ?
O4 C10 C7 118.7(3) . . ?

_diffrn_measured_fraction_theta_max 0.995
_diffrn_reflns_theta_full        26.46
_diffrn_measured_fraction_theta_full 0.995
_refine_diff_density_max         0.923
_refine_diff_density_min         -0.658
_refine_diff_density_rms         0.100
