####################################################################### 
# 
# This file contains crystal structure data downloaded from the 
# Cambridge Structural Database (CSD) hosted by the Cambridge 
# Crystallographic Data Centre (CCDC).
# 
# Full information about CCDC data access policies and citation 
# guidelines are available at http://www.ccdc.cam.ac.uk/access/V1 
# 
# Audit and citation data items may have been added by the CCDC. 
# Please retain this information to preserve the provenance of 
# this file and to allow appropriate attribution of the data. 
# 
#######################################################################

data_MOF-106
_audit_block_doi                 10.5517/cc60d1m
_database_code_depnum_ccdc_archive 'CCDC 179119'
loop_
_citation_id
_citation_doi
_citation_year
1 10.1073/pnas.082051899 2002
_audit_update_record             
;
2002-02-06 deposited with the CCDC.	2024-07-07 downloaded from the CCDC.
;

_audit_creation_method           SHELXL-97
_chemical_name_systematic        
; 
? 
;
_chemical_name_common            ?
_chemical_melting_point          ?
_chemical_formula_moiety         ?
_chemical_formula_sum            'C44.80 H53.75 Fe2 N5.60 O16'
_chemical_formula_weight         1038.38

loop_
_atom_type_symbol
_atom_type_description
_atom_type_scat_dispersion_real
_atom_type_scat_dispersion_imag
_atom_type_scat_source
C C 0.0033 0.0016 'International Tables Vol C Tables 4.2.6.8 and 6.1.1.4'
H H 0.0000 0.0000 'International Tables Vol C Tables 4.2.6.8 and 6.1.1.4'
Fe Fe 0.3463 0.8444 'International Tables Vol C Tables 4.2.6.8 and 6.1.1.4'
N N 0.0061 0.0033 'International Tables Vol C Tables 4.2.6.8 and 6.1.1.4'
O O 0.0106 0.0060 'International Tables Vol C Tables 4.2.6.8 and 6.1.1.4'

_symmetry_cell_setting           Monoclinic
_symmetry_space_group_name_H-M   C2/c

loop_
_symmetry_equiv_pos_as_xyz
'x, y, z'
'-x, y, -z+1/2'
'x+1/2, y+1/2, z'
'-x+1/2, y+1/2, -z+1/2'
'-x, -y, -z'
'x, -y, z-1/2'
'-x+1/2, -y+1/2, -z'
'x+1/2, -y+1/2, z-1/2'

_cell_length_a                   27.124(4)
_cell_length_b                   15.270(2)
_cell_length_c                   12.0109(17)
_cell_angle_alpha                90.00
_cell_angle_beta                 94.604(2)
_cell_angle_gamma                90.00
_cell_volume                     4958.7(12)
_cell_formula_units_Z            4
_cell_measurement_temperature    153(2)
_cell_measurement_reflns_used    1707
_cell_measurement_theta_min      2.24
_cell_measurement_theta_max      22.80

_exptl_crystal_description       rod
_exptl_crystal_colour            yellow
_exptl_crystal_size_max          0.321
_exptl_crystal_size_mid          0.169
_exptl_crystal_size_min          0.134
_exptl_crystal_density_meas      0
_exptl_crystal_density_diffrn    1.391
_exptl_crystal_density_method    'not measured'
_exptl_crystal_F_000             2167
_exptl_absorpt_coefficient_mu    0.658
_exptl_absorpt_correction_type   none
_exptl_absorpt_correction_T_min  ?
_exptl_absorpt_correction_T_max  ?
_exptl_absorpt_process_details   ?

_exptl_special_details           
; 
? 
;

_diffrn_ambient_temperature      153(2)
_diffrn_radiation_wavelength     0.71073
_diffrn_radiation_type           MoK\a
_diffrn_radiation_source         'fine-focus sealed tube'
_diffrn_radiation_monochromator  graphite
_diffrn_measurement_device_type  'CCD area detector'
_diffrn_measurement_method       'phi and omega scans'
_diffrn_detector_area_resol_mean ?
_diffrn_standards_number         ?
_diffrn_standards_interval_count ?
_diffrn_standards_interval_time  ?
_diffrn_standards_decay_%        ?
_diffrn_reflns_number            13081
_diffrn_reflns_av_R_equivalents  0.0614
_diffrn_reflns_av_sigmaI/netI    0.0937
_diffrn_reflns_limit_h_min       -36
_diffrn_reflns_limit_h_max       20
_diffrn_reflns_limit_k_min       -19
_diffrn_reflns_limit_k_max       20
_diffrn_reflns_limit_l_min       -15
_diffrn_reflns_limit_l_max       15
_diffrn_reflns_theta_min         1.51
_diffrn_reflns_theta_max         28.31
_reflns_number_total             5458
_reflns_number_gt                3608
_reflns_threshold_expression     >2sigma(I)

_computing_data_collection       'Bruker SMART'
_computing_cell_refinement       'Bruker SMART'
_computing_data_reduction        'Bruker SAINT'
_computing_structure_solution    'SHELXS-97 (Sheldrick, 1990)'
_computing_structure_refinement  'SHELXL-97 (Sheldrick, 1997)'
_computing_molecular_graphics    'Bruker SHELXTL'
_computing_publication_material  'Bruker SHELXTL'

_refine_special_details          
; 
Refinement of F^2^ against ALL reflections.  The weighted R-factor wR and 
goodness of fit S are based on F^2^, conventional R-factors R are based 
on F, with F set to zero for negative F^2^. The threshold expression of 
F^2^ > 2sigma(F^2^) is used only for calculating R-factors(gt) etc. and is 
not relevant to the choice of reflections for refinement.  R-factors based 
on F^2^ are statistically about twice as large as those based on F, and R- 
factors based on ALL data will be even larger. 
;

_refine_ls_structure_factor_coef Fsqd
_refine_ls_matrix_type           full
_refine_ls_weighting_scheme      calc
_refine_ls_weighting_details     
'calc w=1/[\s^2^(Fo^2^)+(0.0457P)^2^+45.6155P] where P=(Fo^2^+2Fc^2^)/3'
_atom_sites_solution_primary     direct
_atom_sites_solution_secondary   difmap
_atom_sites_solution_hydrogens   geom
_refine_ls_hydrogen_treatment    mixed
_refine_ls_extinction_method     none
_refine_ls_extinction_coef       ?
_refine_ls_number_reflns         5458
_refine_ls_number_parameters     293
_refine_ls_number_restraints     0
_refine_ls_R_factor_all          0.1495
_refine_ls_R_factor_gt           0.0966
_refine_ls_wR_factor_ref         0.2002
_refine_ls_wR_factor_gt          0.1791
_refine_ls_goodness_of_fit_ref   1.110
_refine_ls_restrained_S_all      1.110
_refine_ls_shift/su_max          0.001
_refine_ls_shift/su_mean         0.000

loop_
_atom_site_label
_atom_site_type_symbol
_atom_site_fract_x
_atom_site_fract_y
_atom_site_fract_z
_atom_site_U_iso_or_equiv
_atom_site_adp_type
_atom_site_occupancy
_atom_site_symmetry_multiplicity
_atom_site_calc_flag
_atom_site_refinement_flags
_atom_site_disorder_assembly
_atom_site_disorder_group
Fe1 Fe 0.27273(3) 0.24829(6) 0.10893(6) 0.01590(19) Uani 1 1 d . . .
O1 O 0.22632(17) 0.1205(3) -0.0775(4) 0.0354(11) Uani 1 1 d . . .
O2 O 0.26090(16) 0.1175(3) 0.0963(3) 0.0304(10) Uani 1 1 d . . .
O3 O 0.33498(14) 0.2280(3) 0.0153(3) 0.0329(11) Uani 1 1 d . . .
O4 O 0.32276(14) 0.2628(3) 0.2475(3) 0.0256(9) Uani 1 1 d . . .
O5 O 0.20185(13) 0.2636(3) 0.1557(3) 0.0250(9) Uani 1 1 d . . .
O6 O 0.0646(2) 0.0759(5) -0.0865(5) 0.078(2) Uani 1 1 d . . .
N1 N 0.39593(18) 0.2988(4) 0.3371(4) 0.0317(12) Uani 1 1 d . . .
N2 N 0.0894(2) 0.0573(4) 0.0967(5) 0.0436(15) Uani 1 1 d . . .
C1 C 0.2435(2) 0.0803(4) 0.0075(5) 0.0210(12) Uani 1 1 d . . .
C2 C 0.2444(2) -0.0169(3) 0.0048(5) 0.0214(12) Uani 1 1 d . . .
C3 C 0.2314(2) -0.0628(4) -0.0921(5) 0.0238(13) Uani 1 1 d . . .
H3 H 0.2208 -0.0318 -0.1582 0.029 Uiso 1 1 calc R . .
C4 C 0.2336(2) -0.1528(4) -0.0946(5) 0.0253(14) Uani 1 1 d . . .
H4 H 0.2241 -0.1826 -0.1624 0.030 Uiso 1 1 calc R . .
C5 C 0.2495(2) -0.2015(3) 0.0003(5) 0.0190(10) Uani 1 1 d . . .
C6 C 0.2612(2) -0.1554(4) 0.0992(5) 0.0211(13) Uani 1 1 d . . .
H6 H 0.2708 -0.1867 0.1658 0.025 Uiso 1 1 calc R . .
C7 C 0.2590(2) -0.0643(4) 0.1021(5) 0.0241(13) Uani 1 1 d . . .
H7 H 0.2675 -0.0341 0.1701 0.029 Uiso 1 1 calc R . .
C8 C 0.1647(2) 0.2746(3) 0.0879(4) 0.0203(12) Uani 1 1 d . . .
C9 C 0.1162(2) 0.2920(4) 0.1361(4) 0.0200(11) Uani 1 1 d . . .
C10 C 0.0739(3) 0.3065(7) 0.0689(6) 0.064(3) Uani 1 1 d . . .
H10 H 0.0755 0.3095 -0.0097 0.077 Uiso 1 1 calc R . .
C11 C 0.0291(3) 0.3169(7) 0.1135(6) 0.072(3) Uani 1 1 d . . .
H11 H 0.0004 0.3262 0.0644 0.086 Uiso 1 1 calc R . .
C12 C 0.0244(2) 0.3144(4) 0.2262(5) 0.0235(12) Uani 1 1 d . . .
C13 C 0.0667(2) 0.3044(6) 0.2926(5) 0.056(2) Uani 1 1 d . . .
H13 H 0.0653 0.3055 0.3713 0.067 Uiso 1 1 calc R . .
C14 C 0.1124(2) 0.2927(6) 0.2493(5) 0.051(2) Uani 1 1 d . . .
H14 H 0.1412 0.2851 0.2987 0.061 Uiso 1 1 calc R . .
C15 C 0.3671(2) 0.2816(4) 0.2470(5) 0.0298(14) Uani 1 1 d . . .
H15 H 0.3810 0.2837 0.1770 0.036 Uiso 1 1 calc R . .
C16 C 0.3772(3) 0.2980(7) 0.4456(6) 0.067(3) Uani 1 1 d . . .
H16A H 0.3410 0.2988 0.4374 0.100 Uiso 1 1 calc R . .
H16B H 0.3893 0.3498 0.4876 0.100 Uiso 1 1 calc R . .
H16C H 0.3887 0.2450 0.4858 0.100 Uiso 1 1 calc R . .
C17 C 0.4489(3) 0.3165(6) 0.3316(7) 0.063(3) Uani 1 1 d . . .
H17A H 0.4680 0.2642 0.3546 0.094 Uiso 1 1 calc R . .
H17B H 0.4588 0.3652 0.3816 0.094 Uiso 1 1 calc R . .
H17C H 0.4553 0.3320 0.2549 0.094 Uiso 1 1 calc R . .
C18 C 0.1301(3) 0.0452(6) 0.1814(7) 0.060(2) Uani 1 1 d . . .
H18A H 0.1610 0.0375 0.1451 0.090 Uiso 1 1 calc R . .
H18B H 0.1240 -0.0068 0.2261 0.090 Uiso 1 1 calc R . .
H18C H 0.1329 0.0968 0.2300 0.090 Uiso 1 1 calc R . .
C19 C 0.0966(3) 0.0634(6) -0.0099(7) 0.060(2) Uani 1 1 d . . .
H19 H 0.1297 0.0576 -0.0295 0.072 Uiso 1 1 calc R . .
C20 C 0.04038(17) 0.0699(6) 0.1369(4) 0.072(3) Uani 1 1 d . . .
H20A H 0.0156 0.0731 0.0730 0.109 Uiso 1 1 calc R . .
H20B H 0.0400 0.1244 0.1799 0.109 Uiso 1 1 calc R . .
H20C H 0.0327 0.0205 0.1847 0.109 Uiso 1 1 calc R . .
N3 N 0.39772(17) 0.0529(3) 0.2913(4) 0.056(2) Uani 0.80 1 d PR . .
C23 C 0.35283(17) 0.0437(3) 0.3425(4) 0.066(3) Uani 0.80 1 d PR . .
H23A H 0.3593 0.0481 0.4238 0.099 Uiso 0.80 1 d PR . .
H23B H 0.3382 -0.0135 0.3233 0.099 Uiso 0.80 1 d PR . .
H23C H 0.3299 0.0901 0.3160 0.099 Uiso 0.80 1 d PR . .
C22 C 0.44091(17) 0.0748(3) 0.3562(4) 0.101(5) Uani 0.80 1 d PR . .
C21 C 0.39600(17) 0.0366(3) 0.1715(4) 0.096(5) Uani 0.80 1 d PR . .
H21A H 0.4296 0.0381 0.1472 0.144 Uiso 0.80 1 calc PR . .
H21B H 0.3759 0.0818 0.1317 0.144 Uiso 0.80 1 calc PR . .
H21C H 0.3813 -0.0211 0.1550 0.144 Uiso 0.80 1 calc PR . .
O7 O 0.44169(17) 0.0936(3) 0.4471(4) 0.079(5) Uiso 0.40 1 d PR . .
O7' O 0.47842(17) 0.0860(3) 0.3574(4) 0.098(6) Uiso 0.40 1 d PR . .
O1W O 0.41118(17) 0.0216(3) 0.4654(4) 0.082(10) Uiso 0.20 1 d PR A 2

loop_
_atom_site_aniso_label
_atom_site_aniso_U_11
_atom_site_aniso_U_22
_atom_site_aniso_U_33
_atom_site_aniso_U_23
_atom_site_aniso_U_13
_atom_site_aniso_U_12
Fe1 0.0176(3) 0.0133(3) 0.0171(3) 0.0019(4) 0.0026(2) 0.0007(4)
O1 0.050(3) 0.024(2) 0.031(2) 0.0106(19) -0.008(2) -0.001(2)
O2 0.052(3) 0.014(2) 0.025(2) 0.0014(17) 0.001(2) 0.0009(19)
O3 0.023(2) 0.059(3) 0.018(2) 0.0034(19) 0.0052(16) 0.007(2)
O4 0.024(2) 0.027(2) 0.025(2) 0.0042(17) 0.0009(15) -0.0011(18)
O5 0.0196(19) 0.034(3) 0.0215(19) -0.0061(18) 0.0029(15) -0.0001(18)
O6 0.068(4) 0.108(6) 0.057(4) 0.004(4) -0.016(3) -0.017(4)
N1 0.019(3) 0.048(3) 0.027(3) 0.005(2) -0.004(2) -0.004(2)
N2 0.035(3) 0.046(4) 0.050(4) 0.002(3) 0.004(3) -0.006(3)
C1 0.012(3) 0.021(3) 0.032(3) -0.002(3) 0.012(2) -0.001(2)
C2 0.023(3) 0.014(2) 0.028(3) 0.000(3) 0.006(2) -0.001(2)
C3 0.033(3) 0.018(3) 0.021(3) 0.004(2) 0.005(3) 0.004(3)
C4 0.040(4) 0.018(3) 0.017(3) -0.002(2) -0.003(3) 0.006(3)
C5 0.021(2) 0.014(2) 0.022(2) 0.003(3) 0.0019(18) -0.001(3)
C6 0.026(3) 0.018(3) 0.019(3) 0.001(2) 0.002(2) 0.003(2)
C7 0.029(3) 0.022(3) 0.020(3) -0.004(2) -0.002(2) 0.000(2)
C8 0.020(3) 0.021(3) 0.019(3) -0.001(2) 0.001(2) -0.001(2)
C9 0.019(3) 0.020(3) 0.022(3) 0.000(2) 0.008(2) 0.001(2)
C10 0.028(4) 0.147(9) 0.019(3) 0.007(4) 0.007(3) 0.027(5)
C11 0.018(4) 0.172(10) 0.026(4) 0.013(5) 0.001(3) 0.022(5)
C12 0.022(3) 0.024(3) 0.025(3) 0.001(2) 0.006(2) 0.000(2)
C13 0.023(4) 0.126(8) 0.019(3) -0.012(4) 0.004(3) 0.001(4)
C14 0.016(3) 0.113(7) 0.023(3) -0.016(4) -0.001(3) 0.006(4)
C15 0.028(3) 0.041(4) 0.020(3) 0.002(3) 0.004(2) -0.001(3)
C16 0.041(5) 0.127(9) 0.031(4) -0.005(5) -0.005(3) -0.019(5)
C17 0.037(4) 0.101(7) 0.048(5) 0.013(5) -0.007(4) -0.019(5)
C18 0.060(5) 0.064(6) 0.055(5) 0.015(4) -0.001(4) 0.004(4)
C19 0.049(5) 0.069(6) 0.063(6) 0.009(5) 0.009(4) -0.010(4)
C20 0.047(5) 0.085(7) 0.087(7) -0.023(6) 0.020(5) -0.008(5)
N3 0.058(6) 0.040(5) 0.067(6) -0.008(4) -0.014(4) 0.008(4)
C23 0.067(8) 0.059(7) 0.076(8) 0.001(6) 0.025(6) 0.008(6)
C22 0.052(8) 0.069(9) 0.180(17) -0.025(10) -0.007(9) 0.005(7)
C21 0.116(12) 0.075(9) 0.097(11) 0.001(8) 0.000(9) 0.036(9)

_geom_special_details            
; 
All esds (except the esd in the dihedral angle between two l.s. planes) 
are estimated using the full covariance matrix.  The cell esds are taken 
into account individually in the estimation of esds in distances, angles 
and torsion angles; correlations between esds in cell parameters are only 
used when they are defined by crystal symmetry.  An approximate (isotropic) 
treatment of cell esds is used for estimating esds involving l.s. planes. 
;

loop_
_geom_bond_atom_site_label_1
_geom_bond_atom_site_label_2
_geom_bond_distance
_geom_bond_site_symmetry_2
_geom_bond_publ_flag
Fe1 O2 2.026(4) . ?
Fe1 O1 2.040(4) 7 ?
Fe1 O5 2.059(4) . ?
Fe1 O4 2.073(4) . ?
Fe1 O3 2.125(4) . ?
Fe1 Fe1 2.8022(14) 7 ?
O1 C1 1.248(7) . ?
O1 Fe1 2.040(4) 7 ?
O2 C1 1.266(7) . ?
O3 C8 1.241(6) 7 ?
O4 C15 1.236(7) . ?
O5 C8 1.256(6) . ?
O6 C19 1.227(9) . ?
N1 C15 1.310(7) . ?
N1 C16 1.436(9) . ?
N1 C17 1.469(8) . ?
N2 C19 1.314(10) . ?
N2 C18 1.453(9) . ?
N2 C20 1.462(7) . ?
C1 C2 1.485(7) . ?
C2 C3 1.379(8) . ?
C2 C7 1.404(8) . ?
C3 C4 1.376(8) . ?
C3 H3 0.9500 . ?
C4 C5 1.400(8) . ?
C4 H4 0.9500 . ?
C5 C6 1.395(8) . ?
C5 C5 1.482(9) 7_545 ?
C6 C7 1.392(8) . ?
C6 H6 0.9500 . ?
C7 H7 0.9500 . ?
C8 O3 1.241(6) 7 ?
C8 C9 1.503(7) . ?
C9 C10 1.365(8) . ?
C9 C14 1.372(8) . ?
C10 C11 1.376(9) . ?
C10 H10 0.9500 . ?
C11 C12 1.370(9) . ?
C11 H11 0.9500 . ?
C12 C13 1.352(8) . ?
C12 C12 1.484(11) 2 ?
C13 C14 1.391(9) . ?
C13 H13 0.9500 . ?
C14 H14 0.9500 . ?
C15 H15 0.9500 . ?
C16 H16A 0.9800 . ?
C16 H16B 0.9800 . ?
C16 H16C 0.9800 . ?
C17 H17A 0.9800 . ?
C17 H17B 0.9800 . ?
C17 H17C 0.9800 . ?
C18 H18A 0.9800 . ?
C18 H18B 0.9800 . ?
C18 H18C 0.9800 . ?
C19 H19 0.9500 . ?
C20 H20A 0.9800 . ?
C20 H20B 0.9800 . ?
C20 H20C 0.9800 . ?
N3 C22 1.3944 . ?
N3 C23 1.4142 . ?
N3 C21 1.4577 . ?
C23 H23A 0.9800 . ?
C23 H23B 0.9800 . ?
C23 H23C 0.9800 . ?
C22 O7' 1.0308 . ?
C22 O7 1.1281 . ?
C21 H21A 0.9800 . ?
C21 H21B 0.9800 . ?
C21 H21C 0.9800 . ?

loop_
_geom_angle_atom_site_label_1
_geom_angle_atom_site_label_2
_geom_angle_atom_site_label_3
_geom_angle
_geom_angle_site_symmetry_1
_geom_angle_site_symmetry_3
_geom_angle_publ_flag
O2 Fe1 O1 163.44(15) . 7 ?
O2 Fe1 O5 89.24(17) . . ?
O1 Fe1 O5 87.98(18) 7 . ?
O2 Fe1 O4 104.77(16) . . ?
O1 Fe1 O4 91.53(16) 7 . ?
O5 Fe1 O4 109.52(15) . . ?
O2 Fe1 O3 86.82(18) . . ?
O1 Fe1 O3 91.30(19) 7 . ?
O5 Fe1 O3 163.71(14) . . ?
O4 Fe1 O3 86.77(15) . . ?
O2 Fe1 Fe1 83.86(12) . 7 ?
O1 Fe1 Fe1 79.62(12) 7 7 ?
O5 Fe1 Fe1 84.39(10) . 7 ?
O4 Fe1 Fe1 163.40(12) . 7 ?
O3 Fe1 Fe1 79.48(11) . 7 ?
C1 O1 Fe1 128.7(4) . 7 ?
C1 O2 Fe1 123.5(4) . . ?
C8 O3 Fe1 127.1(4) 7 . ?
C15 O4 Fe1 126.5(4) . . ?
C8 O5 Fe1 123.9(3) . . ?
C15 N1 C16 121.1(5) . . ?
C15 N1 C17 121.5(6) . . ?
C16 N1 C17 117.4(6) . . ?
C19 N2 C18 121.7(7) . . ?
C19 N2 C20 121.5(6) . . ?
C18 N2 C20 116.6(6) . . ?
O1 C1 O2 123.9(5) . . ?
O1 C1 C2 118.6(6) . . ?
O2 C1 C2 117.5(5) . . ?
C3 C2 C7 118.4(5) . . ?
C3 C2 C1 121.5(6) . . ?
C7 C2 C1 120.1(5) . . ?
C4 C3 C2 121.2(5) . . ?
C4 C3 H3 119.4 . . ?
C2 C3 H3 119.4 . . ?
C3 C4 C5 121.5(5) . . ?
C3 C4 H4 119.2 . . ?
C5 C4 H4 119.2 . . ?
C6 C5 C4 117.4(4) . . ?
C6 C5 C5 120.4(7) . 7_545 ?
C4 C5 C5 122.1(7) . 7_545 ?
C7 C6 C5 121.2(5) . . ?
C7 C6 H6 119.4 . . ?
C5 C6 H6 119.4 . . ?
C6 C7 C2 120.2(5) . . ?
C6 C7 H7 119.9 . . ?
C2 C7 H7 119.9 . . ?
O3 C8 O5 125.0(5) 7 . ?
O3 C8 C9 117.9(5) 7 . ?
O5 C8 C9 117.1(5) . . ?
C10 C9 C14 117.3(5) . . ?
C10 C9 C8 121.3(5) . . ?
C14 C9 C8 121.4(5) . . ?
C9 C10 C11 120.9(6) . . ?
C9 C10 H10 119.5 . . ?
C11 C10 H10 119.5 . . ?
C12 C11 C10 122.5(6) . . ?
C12 C11 H11 118.8 . . ?
C10 C11 H11 118.8 . . ?
C13 C12 C11 116.3(5) . . ?
C13 C12 C12 121.0(7) . 2 ?
C11 C12 C12 122.5(7) . 2 ?
C12 C13 C14 122.2(6) . . ?
C12 C13 H13 118.9 . . ?
C14 C13 H13 118.9 . . ?
C9 C14 C13 120.7(6) . . ?
C9 C14 H14 119.6 . . ?
C13 C14 H14 119.6 . . ?
O4 C15 N1 124.0(6) . . ?
O4 C15 H15 118.0 . . ?
N1 C15 H15 118.0 . . ?
N1 C16 H16A 109.5 . . ?
N1 C16 H16B 109.5 . . ?
H16A C16 H16B 109.5 . . ?
N1 C16 H16C 109.5 . . ?
H16A C16 H16C 109.5 . . ?
H16B C16 H16C 109.5 . . ?
N1 C17 H17A 109.5 . . ?
N1 C17 H17B 109.5 . . ?
H17A C17 H17B 109.5 . . ?
N1 C17 H17C 109.5 . . ?
H17A C17 H17C 109.5 . . ?
H17B C17 H17C 109.5 . . ?
N2 C18 H18A 109.5 . . ?
N2 C18 H18B 109.5 . . ?
H18A C18 H18B 109.5 . . ?
N2 C18 H18C 109.5 . . ?
H18A C18 H18C 109.5 . . ?
H18B C18 H18C 109.5 . . ?
O6 C19 N2 126.1(8) . . ?
O6 C19 H19 116.9 . . ?
N2 C19 H19 116.9 . . ?
N2 C20 H20A 109.5 . . ?
N2 C20 H20B 109.5 . . ?
H20A C20 H20B 109.5 . . ?
N2 C20 H20C 109.5 . . ?
H20A C20 H20C 109.5 . . ?
H20B C20 H20C 109.5 . . ?
C22 N3 C23 119.7 . . ?
C22 N3 C21 123.5 . . ?
C23 N3 C21 116.9 . . ?
N3 C23 H23A 109.5 . . ?
N3 C23 H23B 109.5 . . ?
H23A C23 H23B 109.5 . . ?
N3 C23 H23C 109.5 . . ?
H23A C23 H23C 109.5 . . ?
H23B C23 H23C 109.5 . . ?
O7' C22 O7 90.1 . . ?
O7' C22 N3 146.3 . . ?
O7 C22 N3 123.5 . . ?
N3 C21 H21A 109.5 . . ?
N3 C21 H21B 109.5 . . ?
H21A C21 H21B 109.5 . . ?
N3 C21 H21C 109.5 . . ?
H21A C21 H21C 109.5 . . ?
H21B C21 H21C 109.5 . . ?

loop_
_geom_torsion_atom_site_label_1
_geom_torsion_atom_site_label_2
_geom_torsion_atom_site_label_3
_geom_torsion_atom_site_label_4
_geom_torsion
_geom_torsion_site_symmetry_1
_geom_torsion_site_symmetry_2
_geom_torsion_site_symmetry_3
_geom_torsion_site_symmetry_4
_geom_torsion_publ_flag
O1 Fe1 O2 C1 9.3(10) 7 . . . ?
O5 Fe1 O2 C1 89.6(4) . . . . ?
O4 Fe1 O2 C1 -160.4(4) . . . . ?
O3 Fe1 O2 C1 -74.6(4) . . . . ?
Fe1 Fe1 O2 C1 5.2(4) 7 . . . ?
O2 Fe1 O3 C8 85.8(5) . . . 7 ?
O1 Fe1 O3 C8 -77.8(5) 7 . . 7 ?
O5 Fe1 O3 C8 9.5(9) . . . 7 ?
O4 Fe1 O3 C8 -169.2(5) . . . 7 ?
Fe1 Fe1 O3 C8 1.4(5) 7 . . 7 ?
O2 Fe1 O4 C15 106.8(5) . . . . ?
O1 Fe1 O4 C15 -70.2(5) 7 . . . ?
O5 Fe1 O4 C15 -158.6(5) . . . . ?
O3 Fe1 O4 C15 21.0(5) . . . . ?
Fe1 Fe1 O4 C15 -13.0(8) 7 . . . ?
O2 Fe1 O5 C8 -88.3(4) . . . . ?
O1 Fe1 O5 C8 75.4(4) 7 . . . ?
O4 Fe1 O5 C8 166.3(4) . . . . ?
O3 Fe1 O5 C8 -12.4(9) . . . . ?
Fe1 Fe1 O5 C8 -4.4(4) 7 . . . ?
Fe1 O1 C1 O2 