####################################################################### 
# 
# This file contains crystal structure data downloaded from the 
# Cambridge Structural Database (CSD) hosted by the Cambridge 
# Crystallographic Data Centre (CCDC).
# 
# Full information about CCDC data access policies and citation 
# guidelines are available at http://www.ccdc.cam.ac.uk/access/V1 
# 
# Audit and citation data items may have been added by the CCDC. 
# Please retain this information to preserve the provenance of 
# this file and to allow appropriate attribution of the data. 
# 
#######################################################################

data_aswb13
_audit_block_doi                 10.5517/cc10r9rt
_database_code_depnum_ccdc_archive 'CCDC 945926'
loop_
_citation_id
_citation_doi
_citation_year
1 10.1039/C3CE41244J 2013
_audit_update_record             
;
2013-06-20 deposited with the CCDC.	2024-07-07 downloaded from the CCDC.
;

_audit_creation_method           SHELXL-97
_chemical_name_systematic        
; 
 ? 
;
_chemical_name_common            ?
_chemical_melting_point          ?
_chemical_formula_moiety         ?
_chemical_formula_sum            'C54 H56 Cu3 N14 O18'
_chemical_formula_weight         1379.75

loop_
_atom_type_symbol
_atom_type_description
_atom_type_scat_dispersion_real
_atom_type_scat_dispersion_imag
_atom_type_scat_source
C C 0.0033 0.0016 'International Tables Vol C Tables 4.2.6.8 and 6.1.1.4'
H H 0.0000 0.0000 'International Tables Vol C Tables 4.2.6.8 and 6.1.1.4'
Cu Cu 0.3201 1.2651 'International Tables Vol C Tables 4.2.6.8 and 6.1.1.4'
N N 0.0061 0.0033 'International Tables Vol C Tables 4.2.6.8 and 6.1.1.4'
O O 0.0106 0.0060 'International Tables Vol C Tables 4.2.6.8 and 6.1.1.4'

_symmetry_cell_setting           orthorhombic
_symmetry_space_group_name_H-M   Pnma

loop_
_symmetry_equiv_pos_as_xyz
'x, y, z'
'-x+1/2, -y, z+1/2'
'x+1/2, -y+1/2, -z+1/2'
'-x, y+1/2, -z'
'-x, -y, -z'
'x-1/2, y, -z-1/2'
'-x-1/2, y-1/2, z-1/2'
'x, -y-1/2, z'

_cell_length_a                   15.219(3)
_cell_length_b                   75.540(15)
_cell_length_c                   14.401(3)
_cell_angle_alpha                90.00
_cell_angle_beta                 90.00
_cell_angle_gamma                90.00
_cell_volume                     16556(6)
_cell_formula_units_Z            8
_cell_measurement_temperature    150(2)
_cell_measurement_reflns_used    19174
_cell_measurement_theta_min      0.54
_cell_measurement_theta_max      27.65

_exptl_crystal_description       block
_exptl_crystal_colour            blue
_exptl_crystal_size_max          0.11
_exptl_crystal_size_mid          0.06
_exptl_crystal_size_min          0.05
_exptl_crystal_density_meas      ?
_exptl_crystal_density_diffrn    1.107
_exptl_crystal_density_method    'not measured'
_exptl_crystal_F_000             5672
_exptl_absorpt_coefficient_mu    0.824
_exptl_absorpt_correction_type   Multi-Scan
_exptl_absorpt_correction_T_min  ?
_exptl_absorpt_correction_T_max  ?
_exptl_absorpt_process_details   'XDS (Kabsch, 1993)'

_exptl_special_details           
; 
 ? 
;

_diffrn_ambient_temperature      150(2)
_diffrn_radiation_wavelength     0.7107
_diffrn_radiation_type           Synchrotron
_diffrn_radiation_source         'MX1 Beamline Australian Synchrotron'
_diffrn_radiation_monochromator  'Silicon Double Crystal'
_diffrn_measurement_device_type  'ADSC Quantum 210r'
_diffrn_measurement_method       'Phi Scan'
_diffrn_detector_area_resol_mean ?
_diffrn_standards_number         ?
_diffrn_standards_interval_count ?
_diffrn_standards_interval_time  ?
_diffrn_standards_decay_%        ?
_diffrn_reflns_number            245027
_diffrn_reflns_av_R_equivalents  0.0823
_diffrn_reflns_av_sigmaI/netI    0.0372
_diffrn_reflns_limit_h_min       -19
_diffrn_reflns_limit_h_max       19
_diffrn_reflns_limit_k_min       -95
_diffrn_reflns_limit_k_max       97
_diffrn_reflns_limit_l_min       -18
_diffrn_reflns_limit_l_max       18
_diffrn_reflns_theta_min         0.54
_diffrn_reflns_theta_max         27.65
_reflns_number_total             19174
_reflns_number_gt                15871
_reflns_threshold_expression     >2sigma(I)

_computing_data_collection       'BluIce (McPhillips, 2002)'
_computing_cell_refinement       'XDS (Kabsch, 1993)'
_computing_data_reduction        'XDS (Kabsch, 1993)'
_computing_structure_solution    'SHELXS-97 (Sheldrick, 1990)'
_computing_structure_refinement  'SHELXL-97 (Sheldrick, 1997)'
_computing_molecular_graphics    'X-Seed (Barbour, 1999)'
_computing_publication_material  ?

_refine_special_details          
; 
 Refinement of F^2^ against ALL reflections.  The weighted R-factor wR and 
 goodness of fit S are based on F^2^, conventional R-factors R are based 
 on F, with F set to zero for negative F^2^. The threshold expression of 
 F^2^ > 2sigma(F^2^) is used only for calculating R-factors(gt) etc. and is 
 not relevant to the choice of reflections for refinement.  R-factors based 
 on F^2^ are statistically about twice as large as those based on F, and R- 
 factors based on ALL data will be even larger. 
;

_refine_ls_structure_factor_coef Fsqd
_refine_ls_matrix_type           full
_refine_ls_weighting_scheme      calc
_refine_ls_weighting_details     
'calc w=1/[\s^2^(Fo^2^)+(0.1725P)^2^+19.3576P] where P=(Fo^2^+2Fc^2^)/3'
_atom_sites_solution_primary     direct
_atom_sites_solution_secondary   difmap
_atom_sites_solution_hydrogens   geom
_refine_ls_hydrogen_treatment    constr
_refine_ls_extinction_method     none
_refine_ls_extinction_coef       ?
_refine_ls_number_reflns         19174
_refine_ls_number_parameters     713
_refine_ls_number_restraints     8
_refine_ls_R_factor_all          0.0934
_refine_ls_R_factor_gt           0.0815
_refine_ls_wR_factor_ref         0.2618
_refine_ls_wR_factor_gt          0.2502
_refine_ls_goodness_of_fit_ref   1.029
_refine_ls_restrained_S_all      1.046
_refine_ls_shift/su_max          0.002
_refine_ls_shift/su_mean         0.000

loop_
_atom_site_label
_atom_site_type_symbol
_atom_site_fract_x
_atom_site_fract_y
_atom_site_fract_z
_atom_site_U_iso_or_equiv
_atom_site_adp_type
_atom_site_occupancy
_atom_site_symmetry_multiplicity
_atom_site_calc_flag
_atom_site_refinement_flags
_atom_site_disorder_assembly
_atom_site_disorder_group
Cu1 Cu -0.02502(3) -0.125517(4) 0.10627(3) 0.03058(14) Uani 1 1 d . . .
C1 C -0.4069(2) -0.00148(4) -0.1976(2) 0.0299(6) Uani 1 1 d . . .
H1A H -0.4704 -0.0014 -0.2128 0.036 Uiso 1 1 calc R . .
H1B H -0.3735 -0.0018 -0.2565 0.036 Uiso 1 1 calc R . .
Cu2 Cu 0.02648(3) -0.126188(5) -0.06748(4) 0.03307(14) Uani 1 1 d . . .
Cu3 Cu 0.49889(4) -0.2500 0.01943(5) 0.04041(19) Uani 1 2 d S . .
Cu4 Cu -0.5000 0.0000 0.0000 0.02564(15) Uani 1 2 d S . .
N11 N -0.38638(17) -0.01690(3) -0.14248(19) 0.0281(5) Uani 1 1 d . . .
N12 N -0.42804(17) -0.01923(3) -0.05977(19) 0.0291(5) Uani 1 1 d . . .
C13 C -0.3937(2) -0.03394(4) -0.0242(2) 0.0323(7) Uani 1 1 d . . .
H13 H -0.4102 -0.0389 0.0338 0.039 Uiso 1 1 calc R . .
C14 C -0.3296(2) -0.04117(4) -0.0841(2) 0.0314(6) Uani 1 1 d . . .
C15 C -0.3266(2) -0.02956(4) -0.1584(2) 0.0329(6) Uani 1 1 d . . .
H15 H -0.2891 -0.0304 -0.2110 0.039 Uiso 1 1 calc R . .
N16 N -0.38435(17) 0.01440(3) -0.14621(19) 0.0283(5) Uani 1 1 d . . .
N17 N -0.42630(17) 0.01808(3) -0.06567(19) 0.0279(5) Uani 1 1 d . . .
C18 C -0.3915(2) 0.03299(4) -0.0344(3) 0.0316(6) Uani 1 1 d . . .
H18 H -0.4083 0.0387 0.0215 0.038 Uiso 1 1 calc R . .
C19 C -0.3260(2) 0.03918(4) -0.0957(3) 0.0332(7) Uani 1 1 d . . .
C20 C -0.3229(2) 0.02679(4) -0.1657(3) 0.0342(7) Uani 1 1 d . . .
H20 H -0.2848 0.0269 -0.2179 0.041 Uiso 1 1 calc R . .
C21 C -0.2760(2) -0.05706(4) -0.0694(3) 0.0339(7) Uani 1 1 d . . .
C22 C -0.2108(3) -0.06168(5) -0.1333(3) 0.0454(9) Uani 1 1 d . . .
H22 H -0.2028 -0.0548 -0.1878 0.055 Uiso 1 1 calc R . .
C23 C -0.1576(3) -0.07629(5) -0.1177(3) 0.0449(9) Uani 1 1 d . . .
H23 H -0.1131 -0.0792 -0.1614 0.054 Uiso 1 1 calc R . .
C24 C -0.1686(2) -0.08671(4) -0.0392(3) 0.0347(7) Uani 1 1 d . . .
C25 C -0.2332(2) -0.08220(4) 0.0241(3) 0.0362(7) Uani 1 1 d . . .
H25 H -0.2410 -0.0892 0.0783 0.043 Uiso 1 1 calc R . .
C26 C -0.2868(2) -0.06762(5) 0.0094(3) 0.0395(8) Uani 1 1 d . . .
H26 H -0.3311 -0.0648 0.0534 0.047 Uiso 1 1 calc R . .
C27 C -0.1088(2) -0.10200(4) -0.0203(3) 0.0332(7) Uani 1 1 d . . .
O28 O -0.05534(16) -0.10639(3) -0.08379(19) 0.0385(5) Uani 1 1 d . . .
O29 O -0.11511(15) -0.10937(3) 0.05772(18) 0.0354(5) Uani 1 1 d . . .
C31 C -0.2716(2) 0.05514(4) -0.0852(3) 0.0391(8) Uani 1 1 d . . .
C32 C -0.2890(3) 0.06739(5) -0.0152(3) 0.0476(9) Uani 1 1 d . . .
H32 H -0.3379 0.0657 0.0248 0.057 Uiso 1 1 calc R . .
C33 C -0.2356(3) 0.08209(5) -0.0034(3) 0.0489(9) Uani 1 1 d . . .
H33 H -0.2454 0.0899 0.0473 0.059 Uiso 1 1 calc R . .
C34 C -0.1668(2) 0.08546(4) -0.0663(3) 0.0444(9) Uani 1 1 d . . .
C35 C -0.1514(2) 0.07383(5) -0.1376(4) 0.0514(11) Uani 1 1 d . . .
H35 H -0.1052 0.0761 -0.1804 0.062 Uiso 1 1 calc R . .
C36 C -0.2033(2) 0.05864(5) -0.1479(3) 0.0498(10) Uani 1 1 d . . .
H36 H -0.1922 0.0507 -0.1976 0.060 Uiso 1 1 calc R . .
C37 C -0.1080(2) 0.10112(4) -0.0504(3) 0.0432(9) Uani 1 1 d . . .
O38 O -0.11543(17) 0.10916(3) 0.0244(2) 0.0506(7) Uani 1 1 d . . .
O39 O -0.05539(17) 0.10505(3) -0.1155(2) 0.0477(7) Uani 1 1 d . . .
C40 C -0.4218(4) -0.2500 -0.1859(4) 0.0438(12) Uani 1 2 d S . .
H40A H -0.3921 -0.2500 -0.2471 0.053 Uiso 1 2 calc SR . .
H40B H -0.4860 -0.2500 -0.1966 0.053 Uiso 1 2 calc SR . .
N41 N -0.3969(2) -0.23433(4) -0.1344(2) 0.0403(7) Uani 1 1 d . . .
N42 N -0.4339(2) -0.23144(4) -0.0502(2) 0.0431(7) Uani 1 1 d . . .
C43 C -0.3973(3) -0.21692(5) -0.0168(3) 0.0484(9) Uani 1 1 d . . .
H43 H -0.4110 -0.2117 0.0415 0.058 Uiso 1 1 calc R . .
C44 C -0.3342(3) -0.21015(5) -0.0811(3) 0.0444(8) Uani 1 1 d . . .
C45 C -0.3365(3) -0.22185(5) -0.1540(3) 0.0416(8) Uani 1 1 d . . .
H45 H -0.3017 -0.2213 -0.2087 0.050 Uiso 1 1 calc R . .
C51 C -0.2773(3) -0.19479(5) -0.0661(3) 0.0435(8) Uani 1 1 d . . .
C52 C -0.2770(3) -0.18614(6) 0.0194(3) 0.0523(10) Uani 1 1 d . . .
H52 H -0.3152 -0.1900 0.0675 0.063 Uiso 1 1 calc R . .
C53 C -0.2210(3) -0.17187(5) 0.0346(3) 0.0495(9) Uani 1 1 d . . .
H53 H -0.2202 -0.1662 0.0936 0.059 Uiso 1 1 calc R . .
C54 C -0.1660(2) -0.16575(4) -0.0358(3) 0.0381(7) Uani 1 1 d . . .
C55 C -0.1678(3) -0.17411(5) -0.1213(3) 0.0485(9) Uani 1 1 d . . .
H55 H -0.1308 -0.1700 -0.1698 0.058 Uiso 1 1 calc R . .
C56 C -0.2227(3) -0.18843(6) -0.1372(3) 0.0513(10) Uani 1 1 d . . .
H56 H -0.2233 -0.1940 -0.1965 0.062 Uiso 1 1 calc R . .
C57 C -0.1051(2) -0.15059(4) -0.0170(3) 0.0369(7) Uani 1 1 d . . .
O58 O -0.09569(16) -0.14599(3) 0.06586(18) 0.0368(5) Uani 1 1 d . . .
O59 O -0.06735(18) -0.14344(3) -0.0864(2) 0.0413(6) Uani 1 1 d . . .
C60 C 0.4173(4) -0.2500 0.2256(4) 0.0424(11) Uani 1 2 d S . .
H60A H 0.4812 -0.2500 0.2384 0.051 Uiso 1 2 calc SR . .
H60B H 0.3860 -0.2500 0.2859 0.051 Uiso 1 2 calc SR . .
N61 N 0.3944(2) -0.23430(4) 0.1743(2) 0.0392(7) Uani 1 1 d . . .
N62 N 0.4319(2) -0.23158(4) 0.0884(3) 0.0428(7) Uani 1 1 d . . .
C63 C 0.3956(2) -0.21661(5) 0.0575(3) 0.0427(8) Uani 1 1 d . . .
H63 H 0.4073 -0.2114 -0.0013 0.051 Uiso 1 1 calc R . .
C64 C 0.3369(2) -0.20946(4) 0.1245(3) 0.0416(8) Uani 1 1 d . . .
C65 C 0.3376(2) -0.22137(4) 0.1963(3) 0.0411(8) Uani 1 1 d . . .
H65 H 0.3040 -0.2206 0.2518 0.049 Uiso 1 1 calc R . .
C71 C 0.2836(3) -0.19339(5) 0.1118(3) 0.0454(9) Uani 1 1 d . . .
C72 C 0.2460(3) -0.18458(5) 0.1872(4) 0.0539(10) Uani 1 1 d . . .
H72 H 0.2571 -0.1886 0.2486 0.065 Uiso 1 1 calc R . .
C73 C 0.1926(3) -0.17006(5) 0.1727(3) 0.0509(10) Uani 1 1 d . . .
H73 H 0.1679 -0.1640 0.2243 0.061 Uiso 1 1 calc R . .
C74 C 0.1747(2) -0.16427(4) 0.0831(3) 0.0441(9) Uani 1 1 d . . .
C75 C 0.2119(3) -0.17292(6) 0.0093(4) 0.0565(11) Uani 1 1 d . . .
H75 H 0.2006 -0.1689 -0.0520 0.068 Uiso 1 1 calc R . .
C76 C 0.2658(3) -0.18750(6) 0.0224(4) 0.0605(12) Uani 1 1 d . . .
H76 H 0.2905 -0.1934 -0.0296 0.073 Uiso 1 1 calc R . .
C77 C 0.1111(2) -0.14949(4) 0.0654(3) 0.0383(8) Uani 1 1 d . . .
O78 O 0.07327(16) -0.14213(3) 0.1332(2) 0.0436(6) Uani 1 1 d . . .
O79 O 0.10004(18) -0.14554(3) -0.0191(2) 0.0470(7) Uani 1 1 d . . .
O80 O 0.0864(5) -0.12770(5) -0.2002(4) 0.111(2) Uani 1 1 d . . .
C81 C 0.1820(5) -0.12700(9) -0.1804(5) 0.0869(19) Uani 1 1 d . . .
H81 H 0.2020 -0.1271 -0.1179 0.104 Uiso 1 1 calc R . .
N82 N 0.2385(5) -0.12624(9) -0.2480(4) 0.107(2) Uani 1 1 d D . .
C83 C 0.3304(5) -0.12425(13) -0.2270(7) 0.124(3) Uani 1 1 d . . .
H83A H 0.3371 -0.1173 -0.1699 0.186 Uiso 1 1 calc R . .
H83B H 0.3597 -0.1181 -0.2783 0.186 Uiso 1 1 calc R . .
H83C H 0.3570 -0.1360 -0.2185 0.186 Uiso 1 1 calc R . .
C84 C 0.2176(9) -0.1252(2) -0.3394(7) 0.217(9) Uani 1 1 d D . .
H84A H 0.1608 -0.1192 -0.3464 0.325 Uiso 1 1 calc R . .
H84B H 0.2138 -0.1371 -0.3656 0.325 Uiso 1 1 calc R . .
H84C H 0.2630 -0.1185 -0.3723 0.325 Uiso 1 1 calc R . .
O85 O -0.0753(2) -0.12527(3) 0.2449(2) 0.0484(7) Uani 1 1 d . . .
C86 C -0.0581(3) -0.13685(6) 0.3016(3) 0.0573(11) Uani 1 1 d . . .
H86 H -0.0176 -0.1458 0.2836 0.069 Uiso 1 1 calc R . .
N87 N -0.0921(3) -0.13782(6) 0.3867(3) 0.0699(12) Uani 1 1 d . . .
C88 C -0.0619(7) -0.15150(12) 0.4512(6) 0.138(4) Uani 1 1 d . . .
H88A H -0.0269 -0.1603 0.4174 0.206 Uiso 1 1 calc R . .
H88B H -0.1127 -0.1573 0.4796 0.206 Uiso 1 1 calc R . .
H88C H -0.0257 -0.1461 0.4998 0.206 Uiso 1 1 calc R . .
C89 C -0.1568(5) -0.12406(9) 0.4168(5) 0.096(2) Uani 1 1 d . . .
H89A H -0.1769 -0.1174 0.3626 0.144 Uiso 1 1 calc R . .
H89B H -0.1287 -0.1160 0.4611 0.144 Uiso 1 1 calc R . .
H89C H -0.2072 -0.1298 0.4466 0.144 Uiso 1 1 calc R . .
N90 N -0.3437(3) -0.00689(7) 0.1717(3) 0.0692(11) Uani 1 1 d . . .
O91 O -0.3946(2) 0.00223(5) 0.1290(2) 0.0590(8) Uani 1 1 d . . .
O92 O -0.3612(6) -0.02239(7) 0.1857(4) 0.160(3) Uani 1 1 d . . .
O93 O -0.2777(3) 0.00003(5) 0.2064(4) 0.0913(14) Uani 1 1 d . . .
N95 N 0.3327(9) -0.23790(17) -0.1476(10) 0.110 Uiso 0.50 1 d PD . .
O96 O 0.3823(5) -0.2500 -0.1087(5) 0.0962(19) Uiso 1 2 d SD . .
O97 O 0.2677(13) -0.2500 -0.1863(14) 0.275(9) Uiso 1 2 d SD . .
O98 O 0.3089(9) -0.22312(15) -0.1548(10) 0.144(5) Uiso 0.50 1 d PD . .
N100 N 0.6734(7) -0.24551(10) 0.1667(7) 0.086(3) Uiso 0.50 1 d PD . .
O101 O 0.6045(5) -0.2500 0.1470(5) 0.0956(19) Uiso 1 2 d S . .
O102 O 0.7007(9) -0.23107(15) 0.1371(9) 0.128(4) Uiso 0.50 1 d PD . .
O103 O 0.7060(10) -0.2500 0.2401(11) 0.194(5) Uiso 1 2 d S . .

loop_
_atom_site_aniso_label
_atom_site_aniso_U_11
_atom_site_aniso_U_22
_atom_site_aniso_U_33
_atom_site_aniso_U_23
_atom_site_aniso_U_13
_atom_site_aniso_U_12
Cu1 0.0221(2) 0.0198(2) 0.0498(3) -0.00031(14) 0.00330(16) 0.00045(12)
C1 0.0283(15) 0.0248(14) 0.0365(16) 0.0041(12) -0.0019(12) -0.0003(10)
Cu2 0.0237(2) 0.0219(2) 0.0537(3) 0.00009(15) 0.00791(17) 0.00089(12)
Cu3 0.0287(3) 0.0225(3) 0.0700(5) 0.000 0.0093(3) 0.000
Cu4 0.0185(3) 0.0199(3) 0.0385(3) 0.00271(19) 0.0056(2) 0.00002(16)
N11 0.0241(12) 0.0259(12) 0.0344(13) 0.0036(10) 0.0047(10) 0.0023(9)
N12 0.0254(12) 0.0271(12) 0.0349(14) 0.0052(10) 0.0056(10) 0.0031(10)
C13 0.0270(14) 0.0270(14) 0.0430(17) 0.0042(12) 0.0068(13) 0.0043(11)
C14 0.0257(14) 0.0268(14) 0.0416(17) 0.0021(12) 0.0036(13) 0.0050(11)
C15 0.0307(15) 0.0283(14) 0.0397(17) 0.0004(12) 0.0028(13) 0.0025(12)
N16 0.0245(12) 0.0250(12) 0.0353(13) 0.0022(10) 0.0049(10) -0.0022(9)
N17 0.0228(11) 0.0249(12) 0.0360(13) 0.0018(10) 0.0035(10) -0.0010(9)
C18 0.0248(14) 0.0243(14) 0.0456(17) 0.0012(12) 0.0020(13) 0.0000(11)
C19 0.0236(14) 0.0278(14) 0.0481(18) 0.0050(13) 0.0012(13) -0.0024(11)
C20 0.0256(14) 0.0268(14) 0.0501(19) 0.0068(13) 0.0052(13) -0.0021(11)
C21 0.0258(14) 0.0286(15) 0.0472(18) 0.0043(13) 0.0053(13) 0.0055(12)
C22 0.045(2) 0.0412(18) 0.051(2) 0.0123(16) 0.0167(17) 0.0162(16)
C23 0.047(2) 0.0381(18) 0.049(2) 0.0070(15) 0.0152(17) 0.0147(16)
C24 0.0262(14) 0.0260(14) 0.0519(19) -0.0004(13) 0.0011(14) 0.0035(11)
C25 0.0293(15) 0.0322(16) 0.0471(19) 0.0083(14) 0.0072(14) 0.0027(12)
C26 0.0330(17) 0.0344(17) 0.051(2) 0.0047(14) 0.0129(15) 0.0080(13)
C27 0.0237(14) 0.0264(14) 0.0495(19) 0.0003(13) 0.0025(13) 0.0002(11)
O28 0.0351(12) 0.0299(11) 0.0507(14) 0.0032(10) 0.0085(11) 0.0098(9)
O29 0.0286(11) 0.0285(11) 0.0489(14) 0.0057(9) 0.0090(10) 0.0071(9)
C31 0.0293(15) 0.0263(15) 0.062(2) 0.0044(15) 0.0069(15) -0.0065(12)
C32 0.0385(19) 0.0376(18) 0.067(3) -0.0020(17) 0.0116(18) -0.0143(15)
C33 0.0377(19) 0.0365(18) 0.072(3) -0.0061(17) 0.0071(18) -0.0142(15)
C34 0.0246(15) 0.0265(15) 0.082(3) -0.0004(16) 0.0029(16) -0.0064(12)
C35 0.0321(17) 0.0296(16) 0.092(3) -0.0050(18) 0.0207(19) -0.0081(13)
C36 0.0353(18) 0.0328(17) 0.081(3) -0.0060(18) 0.0195(19) -0.0102(14)
C37 0.0240(15) 0.0209(14) 0.085(3) 0.0012(16) 0.0003(16) -0.0029(12)
O38 0.0311(12) 0.0334(13) 0.087(2) -0.0026(14) 0.0081(13) -0.0095(10)
O39 0.0320(13) 0.0282(12) 0.083(2) -0.0075(12) 0.0113(13) -0.0081(10)
C40 0.044(3) 0.026(2) 0.062(3) 0.000 -0.014(2) 0.000
N41 0.0381(15) 0.0271(14) 0.0557(18) -0.0021(12) 0.0023(14) -0.0026(11)
N42 0.0397(16) 0.0335(15) 0.0560(19) -0.0046(13) 0.0074(14) -0.0098(12)
C43 0.043(2) 0.0358(18) 0.067(3) -0.0064(17) 0.0069(18) -0.0102(15)
C44 0.0369(18) 0.0354(17) 0.061(2) -0.0021(16) 0.0006(17) -0.0074(14)
C45 0.0396(18) 0.0300(16) 0.055(2) 0.0042(15) -0.0020(16) -0.0038(14)
C51 0.0396(19) 0.0321(17) 0.059(2) -0.0023(15) 0.0030(16) -0.0077(1