####################################################################### 
# 
# This file contains crystal structure data downloaded from the 
# Cambridge Structural Database (CSD) hosted by the Cambridge 
# Crystallographic Data Centre (CCDC).
# 
# Full information about CCDC data access policies and citation 
# guidelines are available at http://www.ccdc.cam.ac.uk/access/V1 
# 
# Audit and citation data items may have been added by the CCDC. 
# Please retain this information to preserve the provenance of 
# this file and to allow appropriate attribution of the data. 
# 
#######################################################################

data_aswb7a
_audit_block_doi                 10.5517/cc10r9sv
_database_code_depnum_ccdc_archive 'CCDC 945927'
loop_
_citation_id
_citation_doi
_citation_year
1 10.1039/C3CE41244J 2013
_audit_update_record             
;
2013-06-20 deposited with the CCDC.	2024-07-07 downloaded from the CCDC.
;

_audit_creation_method           SHELXL-97
_chemical_name_systematic        
; 
 ? 
;
_chemical_name_common            ?
_chemical_melting_point          ?
_chemical_formula_moiety         ?
_chemical_formula_sum            'C140 H188 Cu6 N30 O38'
_chemical_formula_weight         3280.44

loop_
_atom_type_symbol
_atom_type_description
_atom_type_scat_dispersion_real
_atom_type_scat_dispersion_imag
_atom_type_scat_source
C C 0.0033 0.0016 'International Tables Vol C Tables 4.2.6.8 and 6.1.1.4'
H H 0.0000 0.0000 'International Tables Vol C Tables 4.2.6.8 and 6.1.1.4'
Cu Cu 0.3201 1.2651 'International Tables Vol C Tables 4.2.6.8 and 6.1.1.4'
N N 0.0061 0.0033 'International Tables Vol C Tables 4.2.6.8 and 6.1.1.4'
O O 0.0106 0.0060 'International Tables Vol C Tables 4.2.6.8 and 6.1.1.4'

_symmetry_cell_setting           monoclinic
_symmetry_space_group_name_H-M   P2(1)/c

loop_
_symmetry_equiv_pos_as_xyz
'x, y, z'
'-x, y+1/2, -z+1/2'
'-x, -y, -z'
'x, -y-1/2, z-1/2'

_cell_length_a                   19.4251(9)
_cell_length_b                   36.589(2)
_cell_length_c                   37.762(2)
_cell_angle_alpha                90.00
_cell_angle_beta                 114.202(4)
_cell_angle_gamma                90.00
_cell_volume                     24480(2)
_cell_formula_units_Z            4
_cell_measurement_temperature    150(2)
_cell_measurement_reflns_used    47801
_cell_measurement_theta_min      0.81
_cell_measurement_theta_max      25.99

_exptl_crystal_description       rod
_exptl_crystal_colour            blue
_exptl_crystal_size_max          0.42
_exptl_crystal_size_mid          0.10
_exptl_crystal_size_min          0.03
_exptl_crystal_density_meas      ?
_exptl_crystal_density_diffrn    0.890
_exptl_crystal_density_method    'not measured'
_exptl_crystal_F_000             6864
_exptl_absorpt_coefficient_mu    0.566
_exptl_absorpt_correction_type   Multi-Scan
_exptl_absorpt_correction_T_min  ?
_exptl_absorpt_correction_T_max  ?
_exptl_absorpt_process_details   'XDS (Kabsch, 1993)'

_exptl_special_details           
; 
 ? 
;

_diffrn_ambient_temperature      150(2)
_diffrn_radiation_wavelength     0.7107
_diffrn_radiation_type           Synchrotron
_diffrn_radiation_source         'MX1 Beamline Australian Synchrotron'
_diffrn_radiation_monochromator  'Silicon Double Crystal'
_diffrn_measurement_device_type  'ADSC Quantum 210r'
_diffrn_measurement_method       'Phi Scan'
_diffrn_detector_area_resol_mean ?
_diffrn_standards_number         ?
_diffrn_standards_interval_count ?
_diffrn_standards_interval_time  ?
_diffrn_standards_decay_%        ?
_diffrn_reflns_number            348647
_diffrn_reflns_av_R_equivalents  0.0578
_diffrn_reflns_av_sigmaI/netI    0.0342
_diffrn_reflns_limit_h_min       -23
_diffrn_reflns_limit_h_max       23
_diffrn_reflns_limit_k_min       -45
_diffrn_reflns_limit_k_max       45
_diffrn_reflns_limit_l_min       -46
_diffrn_reflns_limit_l_max       46
_diffrn_reflns_theta_min         0.81
_diffrn_reflns_theta_max         25.99
_reflns_number_total             47801
_reflns_number_gt                33947
_reflns_threshold_expression     >2sigma(I)

_computing_data_collection       'BluIce (McPhillips, 2002)'
_computing_cell_refinement       'XDS (Kabsch, 1993)'
_computing_data_reduction        'XDS (Kabsch, 1993)'
_computing_structure_solution    'SHELXS-97 (Sheldrick, 1990)'
_computing_structure_refinement  'SHELXL-97 (Sheldrick, 1997)'
_computing_molecular_graphics    'X-Seed (Barbour, 1999)'
_computing_publication_material  ?

_refine_special_details          
; 
 Refinement of F^2^ against ALL reflections.  The weighted R-factor wR and 
 goodness of fit S are based on F^2^, conventional R-factors R are based 
 on F, with F set to zero for negative F^2^. The threshold expression of 
 F^2^ > 2sigma(F^2^) is used only for calculating R-factors(gt) etc. and is 
 not relevant to the choice of reflections for refinement.  R-factors based 
 on F^2^ are statistically about twice as large as those based on F, and R- 
 factors based on ALL data will be even larger. 
;

_refine_ls_structure_factor_coef Fsqd
_refine_ls_matrix_type           full
_refine_ls_weighting_scheme      calc
_refine_ls_weighting_details     
'calc w=1/[\s^2^(Fo^2^)+(0.1237P)^2^+0.0000P] where P=(Fo^2^+2Fc^2^)/3'
_atom_sites_solution_primary     direct
_atom_sites_solution_secondary   difmap
_atom_sites_solution_hydrogens   geom
_refine_ls_hydrogen_treatment    constr
_refine_ls_extinction_method     none
_refine_ls_extinction_coef       ?
_refine_ls_number_reflns         47801
_refine_ls_number_parameters     1313
_refine_ls_number_restraints     2
_refine_ls_R_factor_all          0.0795
_refine_ls_R_factor_gt           0.0573
_refine_ls_wR_factor_ref         0.1746
_refine_ls_wR_factor_gt          0.1634
_refine_ls_goodness_of_fit_ref   0.971
_refine_ls_restrained_S_all      0.972
_refine_ls_shift/su_max          0.003
_refine_ls_shift/su_mean         0.000

loop_
_atom_site_label
_atom_site_type_symbol
_atom_site_fract_x
_atom_site_fract_y
_atom_site_fract_z
_atom_site_U_iso_or_equiv
_atom_site_adp_type
_atom_site_occupancy
_atom_site_symmetry_multiplicity
_atom_site_calc_flag
_atom_site_refinement_flags
_atom_site_disorder_assembly
_atom_site_disorder_group
Cu1 Cu 1.096413(18) 0.189285(8) 0.247032(11) 0.05425(9) Uani 1 1 d . . .
C1A C 0.67548(16) -0.01154(7) 0.30985(8) 0.0570(7) Uani 1 1 d . . .
H1A1 H 0.7157 -0.0293 0.3242 0.068 Uiso 1 1 calc R . .
H1A2 H 0.6476 -0.0059 0.3260 0.068 Uiso 1 1 calc R . .
C1B C 0.67134(15) 0.35590(7) 0.33090(9) 0.0594(7) Uani 1 1 d . . .
H1B1 H 0.6924 0.3436 0.3565 0.071 Uiso 1 1 calc R . .
H1B2 H 0.6701 0.3825 0.3355 0.071 Uiso 1 1 calc R . .
C1C C 0.48790(16) 0.43387(6) 0.17947(9) 0.0579(7) Uani 1 1 d . . .
H1C1 H 0.4498 0.4476 0.1577 0.070 Uiso 1 1 calc R . .
H1C2 H 0.4649 0.4269 0.1975 0.070 Uiso 1 1 calc R . .
C1D C 0.39284(17) 0.41904(7) -0.28151(8) 0.0584(7) Uani 1 1 d . . .
H1D1 H 0.3831 0.4453 -0.2791 0.070 Uiso 1 1 calc R . .
H1D2 H 0.3435 0.4067 -0.2948 0.070 Uiso 1 1 calc R . .
Cu2 Cu 1.162010(18) 0.188757(7) 0.323391(11) 0.05318(9) Uani 1 1 d . . .
Cu3 Cu 0.40693(2) 0.205137(8) -0.052836(10) 0.05842(10) Uani 1 1 d . . .
Cu4 Cu 0.55494(2) 0.200897(8) -0.026912(10) 0.05623(10) Uani 1 1 d . . .
Cu5 Cu 0.547886(19) 0.456671(7) -0.237779(10) 0.05295(9) Uani 1 1 d . . .
Cu6 Cu 0.605013(19) 0.392183(7) 0.249222(11) 0.05495(10) Uani 1 1 d . . .
N11A N 0.62448(13) -0.02745(5) 0.27348(6) 0.0513(5) Uani 1 1 d . . .
N11B N 0.71992(13) 0.34895(6) 0.31097(8) 0.0599(6) Uani 1 1 d . . .
N11C N 0.55249(13) 0.45680(5) 0.19941(7) 0.0526(5) Uani 1 1 d . . .
N11D N 0.43649(15) 0.41518(6) -0.30501(7) 0.0600(6) Uani 1 1 d . . .
N12A N 0.55492(13) -0.01144(5) 0.25407(6) 0.0508(5) Uani 1 1 d . . .
N12B N 0.71141(14) 0.37026(6) 0.27979(8) 0.0662(7) Uani 1 1 d . . .
N12C N 0.60507(13) 0.44531(5) 0.23428(7) 0.0540(5) Uani 1 1 d . . .
N12D N 0.50256(15) 0.43409(6) -0.29386(7) 0.0611(6) Uani 1 1 d . . .
C13A C 0.52233(16) -0.02951(6) 0.22025(8) 0.0512(6) Uani 1 1 d . . .
C13B C 0.76589(18) 0.35971(8) 0.26914(11) 0.0739(9) Uani 1 1 d . . .
C13C C 0.65978(16) 0.47052(6) 0.24542(9) 0.0551(7) Uani 1 1 d . . .
C13D C 0.5248(2) 0.42860(8) -0.32265(9) 0.0682(8) Uani 1 1 d . . .
C14A C 0.57310(16) -0.05650(6) 0.21741(8) 0.0535(7) Uani 1 1 d . . .
C14B C 0.81045(18) 0.33187(7) 0.29355(11) 0.0701(8) Uani 1 1 d . . .
C14C C 0.64122(17) 0.49848(6) 0.21701(9) 0.0577(7) Uani 1 1 d . . .
C14D C 0.4731(2) 0.40692(8) -0.35200(9) 0.0714(9) Uani 1 1 d . . .
C15A C 0.63699(18) -0.05438(6) 0.25216(9) 0.0580(7) Uani 1 1 d . . .
C15B C 0.77864(17) 0.32532(7) 0.32007(10) 0.0671(8) Uani 1 1 d . . .
C15C C 0.57171(17) 0.48877(6) 0.18807(9) 0.0568(7) Uani 1 1 d . . .
C15D C 0.4162(2) 0.39865(8) -0.34002(9) 0.0703(8) Uani 1 1 d . . .
C16A C 0.44489(17) -0.01997(7) 0.19222(9) 0.0631(7) Uani 1 1 d . . .
H16A H 0.4098 -0.0393 0.1921 0.095 Uiso 1 1 calc R . .
H16B H 0.4440 -0.0175 0.1662 0.095 Uiso 1 1 calc R . .
H16C H 0.4297 0.0032 0.1999 0.095 Uiso 1 1 calc R . .
C16B C 0.7745(2) 0.37881(11) 0.23553(14) 0.1033(14) Uani 1 1 d . . .
H16D H 0.7545 0.3631 0.2125 0.155 Uiso 1 1 calc R . .
H16E H 0.8281 0.3837 0.2424 0.155 Uiso 1 1 calc R . .
H16F H 0.7466 0.4019 0.2300 0.155 Uiso 1 1 calc R . .
C16C C 0.72755(19) 0.46606(7) 0.28259(11) 0.0732(9) Uani 1 1 d . . .
H16G H 0.7239 0.4826 0.3022 0.110 Uiso 1 1 calc R . .
H16H H 0.7730 0.4719 0.2785 0.110 Uiso 1 1 calc R . .
H16I H 0.7304 0.4408 0.2916 0.110 Uiso 1 1 calc R . .
C16D C 0.5966(2) 0.44713(11) -0.31998(12) 0.0951(12) Uani 1 1 d . . .
H16J H 0.6088 0.4674 -0.3014 0.143 Uiso 1 1 calc R . .
H16K H 0.5892 0.4566 -0.3456 0.143 Uiso 1 1 calc R . .
H16L H 0.6381 0.4294 -0.3112 0.143 Uiso 1 1 calc R . .
C17A C 0.70785(19) -0.07629(8) 0.26809(11) 0.0726(8) Uani 1 1 d . . .
H17A H 0.7478 -0.0632 0.2638 0.109 Uiso 1 1 calc R . .
H17B H 0.6991 -0.1001 0.2550 0.109 Uiso 1 1 calc R . .
H17C H 0.7233 -0.0800 0.2960 0.109 Uiso 1 1 calc R . .
C17B C 0.7973(2) 0.29810(11) 0.35213(13) 0.0981(13) Uani 1 1 d . . .
H17D H 0.8208 0.3106 0.3772 0.147 Uiso 1 1 calc R . .
H17E H 0.8324 0.2799 0.3500 0.147 Uiso 1 1 calc R . .
H17F H 0.7510 0.2859 0.3502 0.147 Uiso 1 1 calc R . .
C17C C 0.52192(19) 0.50750(7) 0.15197(10) 0.0690(8) Uani 1 1 d . . .
H17G H 0.5326 0.4986 0.1303 0.103 Uiso 1 1 calc R . .
H17H H 0.5310 0.5339 0.1549 0.103 Uiso 1 1 calc R . .
H17I H 0.4691 0.5025 0.1468 0.103 Uiso 1 1 calc R . .
C17D C 0.3493(3) 0.37590(11) -0.35734(11) 0.0958(12) Uani 1 1 d . . .
H17J H 0.3502 0.3569 -0.3388 0.144 Uiso 1 1 calc R . .
H17K H 0.3484 0.3644 -0.3810 0.144 Uiso 1 1 calc R . .
H17L H 0.3041 0.3910 -0.3639 0.144 Uiso 1 1 calc R . .
C21A C 0.56124(17) -0.08101(6) 0.18433(8) 0.0572(7) Uani 1 1 d . . .
C21B C 0.8751(2) 0.31242(8) 0.29181(12) 0.0753(9) Uani 1 1 d . . .
C21C C 0.68487(17) 0.53176(6) 0.21739(9) 0.0597(7) Uani 1 1 d . . .
C21D C 0.4774(2) 0.39432(9) -0.38838(11) 0.0793(10) Uani 1 1 d . . .
C22A C 0.48989(17) -0.09397(6) 0.16002(8) 0.0566(7) Uani 1 1 d . . .
H22A H 0.4473 -0.0868 0.1647 0.068 Uiso 1 1 calc R . .
C22B C 0.8746(2) 0.30152(11) 0.25619(13) 0.0978(13) Uani 1 1 d . . .
H22B H 0.8342 0.3088 0.2328 0.117 Uiso 1 1 calc R . .
C22C C 0.73195(17) 0.54855(6) 0.25242(10) 0.0608(7) Uani 1 1 d . . .
H22C H 0.7375 0.5380 0.2764 0.073 Uiso 1 1 calc R . .
C22D C 0.5446(3) 0.38167(11) -0.38840(12) 0.0963(12) Uani 1 1 d . . .
H22D H 0.5895 0.3831 -0.3653 0.116 Uiso 1 1 calc R . .
C23A C 0.47983(18) -0.11703(6) 0.12916(8) 0.0568(7) Uani 1 1 d . . .
H23A H 0.4306 -0.1251 0.1126 0.068 Uiso 1 1 calc R . .
C23B C 0.9325(2) 0.28015(11) 0.25455(13) 0.0960(13) Uani 1 1 d . . .
H23B H 0.9317 0.2731 0.2302 0.115 Uiso 1 1 calc R . .
C23C C 0.77046(17) 0.58043(7) 0.25224(10) 0.0619(7) Uani 1 1 d . . .
H23C H 0.8030 0.5913 0.2761 0.074 Uiso 1 1 calc R . .
C23D C 0.5474(3) 0.36679(10) -0.42210(12) 0.0929(12) Uani 1 1 d . . .
H23D H 0.5942 0.3589 -0.4218 0.111 Uiso 1 1 calc R . .
C24A C 0.54162(18) -0.12842(6) 0.12247(8) 0.0590(7) Uani 1 1 d . . .
C24B C 0.99200(19) 0.26901(8) 0.28901(11) 0.0743(9) Uani 1 1 d . . .
C24C C 0.76150(16) 0.59656(6) 0.21696(10) 0.0597(7) Uani 1 1 d . . .
C24D C 0.4819(2) 0.36368(9) -0.45573(11) 0.0803(10) Uani 1 1 d . . .
C25A C 0.61378(19) -0.11550(7) 0.14631(9) 0.0671(8) Uani 1 1 d . . .
H25A H 0.6564 -0.1231 0.1419 0.081 Uiso 1 1 calc R . .
C25B C 0.99425(19) 0.28129(9) 0.32420(11) 0.0766(9) Uani 1 1 d . . .
H25B H 1.0353 0.2747 0.3477 0.092 Uiso 1 1 calc R . .
C25C C 0.71709(19) 0.58000(7) 0.18292(11) 0.0691(8) Uani 1 1 d . . .
H25C H 0.7114 0.5909 0.1591 0.083 Uiso 1 1 calc R . .
C25D C 0.4136(3) 0.37732(9) -0.45617(11) 0.0874(11) Uani 1 1 d . . .
H25D H 0.3686 0.3758 -0.4792 0.105 Uiso 1 1 calc R . .
C26A C 0.62252(19) -0.09167(7) 0.17613(10) 0.0681(8) Uani 1 1 d . . .
H26A H 0.6713 -0.0822 0.1915 0.082 Uiso 1 1 calc R . .
C26B C 0.9374(2) 0.30302(9) 0.32518(12) 0.0816(10) Uani 1 1 d . . .
H26B H 0.9409 0.3119 0.3495 0.098 Uiso 1 1 calc R . .
C26C C 0.67984(19) 0.54730(7) 0.18237(10) 0.0678(8) Uani 1 1 d . . .
H26C H 0.6511 0.5355 0.1584 0.081 Uiso 1 1 calc R . .
C26D C 0.4123(3) 0.39276(10) -0.42321(11) 0.0911(12) Uani 1 1 d . . .
H26D H 0.3664 0.4026 -0.4241 0.109 Uiso 1 1 calc R . .
C27A C 0.5321(2) -0.15536(6) 0.09034(9) 0.0625(8) Uani 1 1 d . . .
C27B C 1.04892(19) 0.24210(7) 0.28780(11) 0.0679(8) Uani 1 1 d . . .
C27C C 0.80073(17) 0.63192(6) 0.21677(11) 0.0614(8) Uani 1 1 d . . .
C27D C 0.4822(3) 0.34252(8) -0.48978(11) 0.0773(10) Uani 1 1 d . . .
O28A O 0.59285(13) -0.16934(5) 0.09121(6) 0.0644(5) Uani 1 1 d . . .
O28B O 1.04701(12) 0.23367(5) 0.25443(7) 0.0732(6) Uani 1 1 d . . .
O28C O 0.84841(12) 0.64355(5) 0.24920(7) 0.0661(5) Uani 1 1 d . . .
O28D O 0.41746(17) 0.33386(6) -0.51577(7) 0.0804(7) Uani 1 1 d . . .
O29A O 0.46588(14) -0.16259(5) 0.06660(6) 0.0628(5) Uani 1 1 d . . .
O29B O 1.09249(12) 0.22863(5) 0.31989(7) 0.0689(5) Uani 1 1 d . . .
O29C O 0.78212(11) 0.64733(5) 0.18433(7) 0.0647(5) Uani 1 1 d . . .
O29D O 0.54640(15) 0.33400(6) -0.48908(7) 0.0800(6) Uani 1 1 d . . .
N31A N 0.70903(13) 0.02159(5) 0.30306(7) 0.0581(6) Uani 1 1 d . . .
N31B N 0.59535(12) 0.34297(5) 0.30875(7) 0.0528(5) Uani 1 1 d . . .
N31C N 0.50933(15) 0.40101(5) 0.16458(7) 0.0609(6) Uani 1 1 d . . .
N31D N 0.43162(13) 0.40364(5) -0.24318(6) 0.0510(5) Uani 1 1 d . . .
N32A N 0.66275(14) 0.05072(5) 0.28787(8) 0.0616(6) Uani 1 1 d . . .
N32B N 0.55302(13) 0.36013(5) 0.27506(7) 0.0522(5) Uani 1 1 d . . .
N32C N 0.55641(16) 0.37700(5) 0.19136(8) 0.0662(7) Uani 1 1 d . . .
N32D N 0.49398(13) 0.42130(5) -0.21705(6) 0.0516(5) Uani 1 1 d . . .
C33A C 0.70670(18) 0.07672(7) 0.28325(11) 0.0709(9) Uani 1 1 d . . .
C33B C 0.48584(15) 0.34372(6) 0.26175(8) 0.0537(6) Uani 1 1 d . . .
C33C C 0.5638(2) 0.34925(7) 0.17023(10) 0.0749(9) Uani 1 1 d . . .
C33D C 0.51864(15) 0.40078(6) -0.18463(8) 0.0516(6) Uani 1 1 d . . .
C34A C 0.78127(18) 0.06403(8) 0.29559(11) 0.0709(8) Uani 1 1 d . . .
C34B C 0.48524(16) 0.31646(6) 0.28778(9) 0.0544(6) Uani 1 1 d . . .
C34C C 0.5228(2) 0.35567(8) 0.13074(11) 0.0774(10) Uani 1 1 d . . .
C34D C 0.46996(16) 0.37034(6) -0.19034(8) 0.0540(6) Uani 1 1 d . . .
C35A C 0.78031(17) 0.02858(7) 0.30793(10) 0.0653(7) Uani 1 1 d . . .
C35B C 0.55559(16) 0.31654(6) 0.31748(9) 0.0539(6) Uani 1 1 d . . .
C35C C 0.4877(2) 0.38924(7) 0.12772(10) 0.0702(9) Uani 1 1 d . . .
C35D C 0.41625(16) 0.37250(6) -0.22807(8) 0.0522(6) Uani 1 1 d . . .
C36A C 0.6743(2) 0.11404(8) 0.26824(14) 0.0962(13) Uani 1 1 d . . .
H36A H 0.6630 0.1157 0.2405 0.144 Uiso 1 1 calc R . .
H36B H 0.7110 0.1329 0.2824 0.144 Uiso 1 1 calc R . .
H36C H 0.6278 0.1176 0.2721 0.144 Uiso 1 1 calc R . .
C36B C 0.42290(17) 0.35572(8) 0.22434(9) 0.0645(7) Uani 1 1 d . . .
H36D H 0.4227 0.3824 0.2226 0.097 Uiso 1 1 calc R . .
H36E H 0.3745 0.3474 0.2237 0.097 Uiso 1 1 calc R . .
H36F H 0.4305 0.3451 0.2024 0.097 Uiso 1 1 calc R . .
C36C C 0.6108(3) 0.31663(8) 0.19032(12) 0.1038(14) Uani 1 1 d . . .
H36G H 0.6621 0.3196 0.1917 0.156 Uiso 1 1 calc R . .
H36H H 0.5881 0.2944 0.1757 0.156 Uiso 1 1 calc R . .
H36I H 0.6129 0.3147 0.2166 0.156 Uiso 1 1 calc R . .
C36D C 0.58699(17) 0.41098(7) -0.15004(9) 0.0623(7) Uani 1 1 d . . .
H36J H 0.6297 0.3960 -0.1490 0.093 Uiso 1 1 calc R . .
H36K H 0.5782 0.4068 -0.1266 0.093 Uiso 1 1 calc R . .
H36L H 0.5984 0.4369 -0.1516 0.093 Uiso 1 1 calc R . .
C37A C 0.8427(2) 0.00078(10) 0.32427(14) 0.0944(12) Uani 1 1 d . . .
H37A H 0.8574 -0.0017 0.3523 0.142 Uiso 1 1 calc R . .
H37B H 0.8864 0.0088 0.3196 0.142 Uiso 1 1 calc R . .
H37C H 0.8250 -0.0229 0.3116 0.142 Uiso 1 1 calc R . .
C37B C 0.59029(18) 0.29332(8) 0.35381(10) 0.0669(8) Uani 1 1 d . . .
H37D H 0.6392 0.2839 0.3562 0.100 Uiso 1 1 calc R . .
H37E H 0.5566 0.2728 0.3521 0.100 Uiso 1 1 calc R . .
H37F H 0.5975 0.3082 0.3766 0.100 Uiso 1 1 calc R . .
C37C C 0.4375(3) 0.41076(9) 0.09335(11) 0.0932(12) Uani 1 1 d . . .
H37G H 0.3858 0.4102 0.0916 0.140 Uiso 1 1 calc R . .
H37H H 0.4385 0.4002 0.0697 0.140 Uiso 1 1 calc R . .
H37I H 0.4551 0.4361 0.0961 0.140 Uiso 1 1 calc R . .
C37D C 0.35382(18) 0.34727(7) -0.25101(9) 0.0642(7) Uani 1 1 d . . .
H37J H 0.3059 0.3607 -0.2611 0.096 Uiso 1 1 calc R . .
H37K H 0.3513 0.3273 -0.2343 0.096 Uiso 1 1 calc R . .
H37L H 0.3631 0.3373 -0.2727 0.096 Uiso 1 1 calc R . .
C41A C 0.84557(19) 0.08452(8) 0.29434(12) 0.0760(9) Uani 1 1 d . . .
C41B C 0.42000(16) 0.29377(6) 0.28551(9) 0.0541(6) Uani 1 1 d . . .
C41C C 0.5148(3) 0.33058(8) 0.09808(12) 0.0848(11) Uani 1 1 d . . .
C41D C 0.47532(16) 0.34178(6) -0.16164(8) 0.0547(6) Uani 1 1 d . . .
C42A C 0.9134(2) 0.08870(9) 0.