####################################################################### 
# 
# This file contains crystal structure data downloaded from the 
# Cambridge Structural Database (CSD) hosted by the Cambridge 
# Crystallographic Data Centre (CCDC).
# 
# Full information about CCDC data access policies and citation 
# guidelines are available at http://www.ccdc.cam.ac.uk/access/V1 
# 
# Audit and citation data items may have been added by the CCDC. 
# Please retain this information to preserve the provenance of 
# this file and to allow appropriate attribution of the data. 
# 
#######################################################################

data_ITC-4
_audit_block_doi                 10.5517/cc100pzp
_database_code_depnum_ccdc_archive 'CCDC 924202'
loop_
_citation_id
_citation_doi
_citation_year
1 10.1038/ncomms3344 2013
_audit_update_record             
;
2013-02-11 deposited with the CCDC.	2024-07-07 downloaded from the CCDC.
;
#TrackingRef 'ITC-4.cif'


_audit_creation_method           SHELXL-97
_chemical_name_systematic        
;
?
;
_chemical_name_common            ?
_chemical_melting_point          ?
_chemical_formula_moiety         ?
_chemical_formula_sum            'C57 H36 In3 N3 O13'
_chemical_formula_weight         1315.35

loop_
_atom_type_symbol
_atom_type_description
_atom_type_scat_dispersion_real
_atom_type_scat_dispersion_imag
_atom_type_scat_source
C C 0.0033 0.0016 'International Tables Vol C Tables 4.2.6.8 and 6.1.1.4'
H H 0.0000 0.0000 'International Tables Vol C Tables 4.2.6.8 and 6.1.1.4'
N N 0.0061 0.0033 'International Tables Vol C Tables 4.2.6.8 and 6.1.1.4'
O O 0.0106 0.0060 'International Tables Vol C Tables 4.2.6.8 and 6.1.1.4'
In In -0.7276 1.3100 'International Tables Vol C Tables 4.2.6.8 and 6.1.1.4'

_symmetry_cell_setting           Cubic
_symmetry_space_group_name_H-M   I-43m

loop_
_symmetry_equiv_pos_as_xyz
'x, y, z'
'-x, -y, z'
'-x, y, -z'
'x, -y, -z'
'z, x, y'
'z, -x, -y'
'-z, -x, y'
'-z, x, -y'
'y, z, x'
'-y, z, -x'
'y, -z, -x'
'-y, -z, x'
'y, x, z'
'-y, -x, z'
'y, -x, -z'
'-y, x, -z'
'x, z, y'
'-x, z, -y'
'-x, -z, y'
'x, -z, -y'
'z, y, x'
'z, -y, -x'
'-z, y, -x'
'-z, -y, x'
'x+1/2, y+1/2, z+1/2'
'-x+1/2, -y+1/2, z+1/2'
'-x+1/2, y+1/2, -z+1/2'
'x+1/2, -y+1/2, -z+1/2'
'z+1/2, x+1/2, y+1/2'
'z+1/2, -x+1/2, -y+1/2'
'-z+1/2, -x+1/2, y+1/2'
'-z+1/2, x+1/2, -y+1/2'
'y+1/2, z+1/2, x+1/2'
'-y+1/2, z+1/2, -x+1/2'
'y+1/2, -z+1/2, -x+1/2'
'-y+1/2, -z+1/2, x+1/2'
'y+1/2, x+1/2, z+1/2'
'-y+1/2, -x+1/2, z+1/2'
'y+1/2, -x+1/2, -z+1/2'
'-y+1/2, x+1/2, -z+1/2'
'x+1/2, z+1/2, y+1/2'
'-x+1/2, z+1/2, -y+1/2'
'-x+1/2, -z+1/2, y+1/2'
'x+1/2, -z+1/2, -y+1/2'
'z+1/2, y+1/2, x+1/2'
'z+1/2, -y+1/2, -x+1/2'
'-z+1/2, y+1/2, -x+1/2'
'-z+1/2, -y+1/2, x+1/2'

_cell_length_a                   30.0772(5)
_cell_length_b                   30.0772(5)
_cell_length_c                   30.0772(5)
_cell_angle_alpha                90.00
_cell_angle_beta                 90.00
_cell_angle_gamma                90.00
_cell_volume                     27209.0(8)
_cell_formula_units_Z            8
_cell_measurement_temperature    150(2)
_cell_measurement_reflns_used    ?
_cell_measurement_theta_min      ?
_cell_measurement_theta_max      ?

_exptl_crystal_description       Cubic
_exptl_crystal_colour            colorless
_exptl_crystal_size_max          0.75
_exptl_crystal_size_mid          0.65
_exptl_crystal_size_min          0.55
_exptl_crystal_density_meas      ?
_exptl_crystal_density_diffrn    0.642
_exptl_crystal_density_method    'not measured'
_exptl_crystal_F_000             5200
_exptl_absorpt_coefficient_mu    0.531
_exptl_absorpt_correction_type   multi-scan
_exptl_absorpt_correction_T_min  0.982
_exptl_absorpt_correction_T_max  0.987
_exptl_absorpt_process_details   ?

_exptl_special_details           
;
?
;

_diffrn_ambient_temperature      150(2)
_diffrn_radiation_wavelength     0.71073
_diffrn_radiation_type           MoK\a
_diffrn_radiation_source         'fine-focus sealed tube'
_diffrn_radiation_monochromator  graphite
_diffrn_measurement_device_type  ?
_diffrn_measurement_method       ?
_diffrn_detector_area_resol_mean ?
_diffrn_standards_number         ?
_diffrn_standards_interval_count ?
_diffrn_standards_interval_time  ?
_diffrn_standards_decay_%        ?
_diffrn_reflns_number            35914
_diffrn_reflns_av_R_equivalents  0.0951
_diffrn_reflns_av_sigmaI/netI    0.0590
_diffrn_reflns_limit_h_min       -30
_diffrn_reflns_limit_h_max       29
_diffrn_reflns_limit_k_min       -37
_diffrn_reflns_limit_k_max       7
_diffrn_reflns_limit_l_min       -37
_diffrn_reflns_limit_l_max       37
_diffrn_reflns_theta_min         0.96
_diffrn_reflns_theta_max         26.34
_reflns_number_total             4836
_reflns_number_gt                4012
_reflns_threshold_expression     >2sigma(I)

_computing_data_collection       ?
_computing_cell_refinement       ?
_computing_data_reduction        ?
_computing_structure_solution    'SHELXS-97 (Sheldrick, 1990)'
_computing_structure_refinement  'SHELXL-97 (Sheldrick, 1997)'
_computing_molecular_graphics    ?
_computing_publication_material  Platon

_refine_special_details          
;
Refinement of F^2^ against ALL reflections. The weighted R-factor wR and
goodness of fit S are based on F^2^, conventional R-factors R are based
on F, with F set to zero for negative F^2^. The threshold expression of
F^2^ > 2sigma(F^2^) is used only for calculating R-factors(gt) etc. and is
not relevant to the choice of reflections for refinement. R-factors based
on F^2^ are statistically about twice as large as those based on F, and R-
factors based on ALL data will be even larger.
;

_refine_ls_structure_factor_coef Fsqd
_refine_ls_matrix_type           full
_refine_ls_weighting_scheme      calc
_refine_ls_weighting_details     
'calc w=1/[\s^2^(Fo^2^)+(0.1224P)^2^+6.8080P] where P=(Fo^2^+2Fc^2^)/3'
_atom_sites_solution_primary     direct
_atom_sites_solution_secondary   difmap
_atom_sites_solution_hydrogens   geom
_refine_ls_hydrogen_treatment    constr
_refine_ls_extinction_method     SHELXL
_refine_ls_extinction_coef       0.00083(8)
_refine_ls_extinction_expression Fc^*^=kFc[1+0.001xFc^2^\l^3^/sin(2\q)]^-1/4^
_refine_ls_abs_structure_details 'Flack H D (1983), Acta Cryst. A39, 876-881'
_refine_ls_abs_structure_Flack   -0.06(7)
_refine_ls_number_reflns         4836
_refine_ls_number_parameters     131
_refine_ls_number_restraints     0
_refine_ls_R_factor_all          0.0754
_refine_ls_R_factor_gt           0.0551
_refine_ls_wR_factor_ref         0.1954
_refine_ls_wR_factor_gt          0.1787
_refine_ls_goodness_of_fit_ref   1.159
_refine_ls_restrained_S_all      1.159
_refine_ls_shift/su_max          0.001
_refine_ls_shift/su_mean         0.000

loop_
_atom_site_label
_atom_site_type_symbol
_atom_site_fract_x
_atom_site_fract_y
_atom_site_fract_z
_atom_site_U_iso_or_equiv
_atom_site_adp_type
_atom_site_occupancy
_atom_site_symmetry_multiplicity
_atom_site_calc_flag
_atom_site_refinement_flags
_atom_site_disorder_assembly
_atom_site_disorder_group
In1 In 0.220869(15) 0.779131(15) 0.138278(18) 0.0204(2) Uani 1 2 d S . .
O1 O 0.2284(2) 0.84209(17) 0.10522(17) 0.0538(17) Uani 1 1 d . . .
O2 O 0.1949(2) 0.8051(2) 0.1949(2) 0.023(2) Uani 1 6 d S . .
O3 O 0.21544(19) 0.71126(15) 0.16255(18) 0.0410(13) Uani 1 1 d . . .
N1 N 0.2494(2) 0.7506(2) 0.0766(3) 0.038(2) Uani 1 2 d S . .
C1 C 0.2306(3) 0.7165(3) 0.0566(3) 0.055(2) Uani 1 1 d . . .
H1A H 0.2090 0.7003 0.0717 0.066 Uiso 1 1 calc R . .
C2 C 0.2419(4) 0.7043(3) 0.0147(3) 0.064(3) Uani 1 1 d . . .
H2A H 0.2273 0.6807 0.0012 0.077 Uiso 1 1 calc R . .
C3 C 0.2739(3) 0.7261(3) -0.0075(3) 0.051(3) Uani 1 2 d S . .
C4 C 0.2845(4) 0.7155(4) -0.0548(4) 0.058(4) Uani 1 2 d S . .
C5 C 0.3156(5) 0.7384(6) -0.0775(3) 0.131(8) Uani 1 1 d . . .
H5A H 0.3300 0.7619 -0.0635 0.157 Uiso 1 1 calc R . .
C6 C 0.3270(5) 0.7283(5) -0.1220(3) 0.113(6) Uani 1 1 d . . .
H6A H 0.3514 0.7416 -0.1355 0.135 Uiso 1 1 calc R . .
C7 C 0.2296(4) 0.8818(2) 0.1182(2) 0.043(3) Uani 1 2 d S . .
C8 C 0.2332(5) 0.9168(3) 0.0832(3) 0.055(4) Uani 1 2 d S . .
C9 C 0.2331(8) 0.9616(3) 0.0941(3) 0.146(9) Uani 1 1 d . . .
H9A H 0.2280 0.9704 0.1233 0.176 Uiso 1 1 calc R . .
C10 C 0.2404(6) 0.9930(4) 0.0619(3) 0.123(7) Uani 1 1 d . . .
H10A H 0.2466 1.0221 0.0703 0.148 Uiso 1 1 calc R . .
C11 C 0.2386(6) 0.9825(3) 0.0175(3) 0.074(5) Uani 1 2 d S . .
C12 C 0.1917(2) 0.6937(3) 0.1917(2) 0.028(2) Uani 1 2 d S . .
C13 C 0.1985(3) 0.6448(3) 0.1985(3) 0.041(3) Uani 1 2 d S . .

loop_
_atom_site_aniso_label
_atom_site_aniso_U_11
_atom_site_aniso_U_22
_atom_site_aniso_U_33
_atom_site_aniso_U_23
_atom_site_aniso_U_13
_atom_site_aniso_U_12
In1 0.0222(2) 0.0222(2) 0.0167(3) 0.00193(16) -0.00193(16) 0.0009(3)
O1 0.099(5) 0.033(3) 0.030(3) 0.017(2) 0.014(3) 0.008(3)
O2 0.023(2) 0.023(2) 0.023(2) -0.003(3) 0.003(3) -0.003(3)
O3 0.055(3) 0.026(3) 0.042(3) 0.004(2) 0.018(3) 0.007(2)
N1 0.046(3) 0.046(3) 0.022(4) -0.006(3) 0.006(3) -0.018(4)
C1 0.068(6) 0.057(5) 0.040(4) -0.009(4) 0.016(4) -0.016(5)
C2 0.083(7) 0.065(6) 0.044(5) -0.023(4) 0.016(5) -0.027(5)
C3 0.062(5) 0.062(5) 0.028(5) -0.019(4) 0.019(4) -0.035(7)
C4 0.071(5) 0.071(5) 0.033(6) -0.016(5) 0.016(5) -0.021(8)
C5 0.172(15) 0.179(15) 0.040(6) -0.059(8) 0.052(8) -0.136(13)
C6 0.121(10) 0.174(14) 0.042(5) -0.044(7) 0.037(6) -0.114(10)
C7 0.055(8) 0.037(4) 0.037(4) 0.019(5) 0.000(3) 0.000(3)
C8 0.092(11) 0.037(4) 0.037(4) 0.015(5) -0.007(4) 0.007(4)
C9 0.37(3) 0.035(5) 0.035(5) 0.016(4) -0.034(10) -0.005(10)
C10 0.29(2) 0.035(5) 0.045(6) 0.019(5) -0.004(9) -0.022(9)
C11 0.142(16) 0.039(4) 0.039(4) 0.018(6) 0.002(5) -0.002(5)
C12 0.028(3) 0.028(5) 0.028(3) 0.006(3) 0.006(4) 0.006(3)
C13 0.049(4) 0.024(5) 0.049(4) 0.009(4) 0.013(5) 0.009(4)

_geom_special_details            
;
All esds (except the esd in the dihedral angle between two l.s. planes)
are estimated using the full covariance matrix. The cell esds are taken
into account individually in the estimation of esds in distances, angles
and torsion angles; correlations between esds in cell parameters are only
used when they are defined by crystal symmetry. An approximate (isotropic)
treatment of cell esds is used for estimating esds involving l.s. planes.
;

loop_
_geom_bond_atom_site_label_1
_geom_bond_atom_site_label_2
_geom_bond_distance
_geom_bond_site_symmetry_2
_geom_bond_publ_flag
In1 O2 2.0298(7) . ?
In1 O1 2.151(5) 14_665 ?
In1 O1 2.151(5) . ?
In1 O3 2.174(5) . ?
In1 O3 2.174(5) 14_665 ?
In1 N1 2.216(9) . ?
O1 C7 1.258(7) . ?
O2 In1 2.0298(7) 12_665 ?
O2 In1 2.0298(7) 6_566 ?
O3 C12 1.248(6) . ?
N1 C1 1.316(10) 14_665 ?
N1 C1 1.316(10) . ?
C1 C2 1.357(12) . ?
C2 C3 1.342(10) . ?
C3 C2 1.342(11) 14_665 ?
C3 C4 1.492(14) . ?
C4 C5 1.348(12) 14_665 ?
C4 C5 1.348(12) . ?
C5 C6 1.414(13) . ?
C6 C13 1.363(11) 32 ?
C7 O1 1.258(7) 20_566 ?
C7 C8 1.490(15) . ?
C8 C9 1.388(12) 20_566 ?
C8 C9 1.388(12) . ?
C9 C10 1.368(14) . ?
C10 C11 1.373(12) . ?
C11 C10 1.373(12) 20_566 ?
C11 C11 1.49(2) 4_575 ?
C12 O3 1.248(6) 21 ?
C12 C13 1.501(14) . ?
C13 C6 1.363(11) 43_554 ?
C13 C6 1.363(11) 35_455 ?

loop_
_geom_angle_atom_site_label_1
_geom_angle_atom_site_label_2
_geom_angle_atom_site_label_3
_geom_angle
_geom_angle_site_symmetry_1
_geom_angle_site_symmetry_3
_geom_angle_publ_flag
O2 In1 O1 95.1(3) . 14_665 ?
O2 In1 O1 95.1(3) . . ?
O1 In1 O1 88.4(4) 14_665 . ?
O2 In1 O3 93.0(3) . . ?
O1 In1 O3 89.5(3) 14_665 . ?
O1 In1 O3 171.8(2) . . ?
O2 In1 O3 93.0(3) . 14_665 ?
O1 In1 O3 171.8(2) 14_665 14_665 ?
O1 In1 O3 89.5(3) . 14_665 ?
O3 In1 O3 91.6(3) . 14_665 ?
O2 In1 N1 179.9(5) . . ?
O1 In1 N1 85.0(2) 14_665 . ?
O1 In1 N1 85.0(2) . . ?
O3 In1 N1 87.0(2) . . ?
O3 In1 N1 87.0(2) 14_665 . ?
C7 O1 In1 134.2(5) . . ?
In1 O2 In1 119.85(4) 12_665 . ?
In1 O2 In1 119.85(4) 12_665 6_566 ?
In1 O2 In1 119.85(4) . 6_566 ?
C12 O3 In1 132.5(5) . . ?
C1 N1 C1 117.4(10) 14_665 . ?
C1 N1 In1 121.2(5) 14_665 . ?
C1 N1 In1 121.2(5) . . ?
N1 C1 C2 121.8(8) . . ?
C3 C2 C1 120.7(9) . . ?
C2 C3 C2 116.9(10) . 14_665 ?
C2 C3 C4 121.5(5) . . ?
C2 C3 C4 121.5(5) 14_665 . ?
C5 C4 C5 116.9(12) 14_665 . ?
C5 C4 C3 121.5(6) 14_665 . ?
C5 C4 C3 121.5(6) . . ?
C4 C5 C6 122.5(10) . . ?
C13 C6 C5 118.7(9) 32 . ?
O1 C7 O1 125.9(9) . 20_566 ?
O1 C7 C8 117.0(5) . . ?
O1 C7 C8 117.0(5) 20_566 . ?
C9 C8 C9 117.2(12) 20_566 . ?
C9 C8 C7 121.3(6) 20_566 . ?
C9 C8 C7 121.3(6) . . ?
C10 C9 C8 120.3(11) . . ?
C9 C10 C11 121.4(11) . . ?
C10 C11 C10 116.5(12) . 20_566 ?
C10 C11 C11 121.6(6) . 4_575 ?
C10 C11 C11 121.6(6) 20_566 4_575 ?
O3 C12 O3 128.7(9) . 21 ?
O3 C12 C13 115.7(5) . . ?
O3 C12 C13 115.7(5) 21 . ?
C6 C13 C6 119.2(11) 43_554 35_455 ?
C6 C13 C12 120.3(5) 43_554 . ?
C6 C13 C12 120.3(5) 35_455 . ?

_diffrn_measured_fraction_theta_max 1.000
_diffrn_reflns_theta_full        26.34
_diffrn_measured_fraction_theta_full 1.000
_refine_diff_density_max         0.892
_refine_diff_density_min         -0.663
_refine_diff_density_rms         0.169


