####################################################################### 
# 
# This file contains crystal structure data downloaded from the 
# Cambridge Structural Database (CSD) hosted by the Cambridge 
# Crystallographic Data Centre (CCDC).
# 
# Full information about CCDC data access policies and citation 
# guidelines are available at http://www.ccdc.cam.ac.uk/access/V1 
# 
# Audit and citation data items may have been added by the CCDC. 
# Please retain this information to preserve the provenance of 
# this file and to allow appropriate attribution of the data. 
# 
#######################################################################

data_ITC-2
_audit_block_doi                 10.5517/cc100pwl
_database_code_depnum_ccdc_archive 'CCDC 924199'
loop_
_citation_id
_citation_doi
_citation_year
1 10.1038/ncomms3344 2013
_audit_update_record             
;
2013-02-11 deposited with the CCDC.	2024-07-07 downloaded from the CCDC.
;
#TrackingRef 'ITC-2.cif'


_audit_creation_method           SHELXL-97
_chemical_name_systematic        
;
?
;
_chemical_name_common            ?
_chemical_melting_point          ?
_chemical_formula_moiety         ?
_chemical_formula_sum            'C48 H25.50 In3 N3 O13'
_chemical_formula_weight         1196.67

loop_
_atom_type_symbol
_atom_type_description
_atom_type_scat_dispersion_real
_atom_type_scat_dispersion_imag
_atom_type_scat_source
C C 0.0033 0.0016 'International Tables Vol C Tables 4.2.6.8 and 6.1.1.4'
H H 0.0000 0.0000 'International Tables Vol C Tables 4.2.6.8 and 6.1.1.4'
N N 0.0061 0.0033 'International Tables Vol C Tables 4.2.6.8 and 6.1.1.4'
O O 0.0106 0.0060 'International Tables Vol C Tables 4.2.6.8 and 6.1.1.4'
In In -0.7276 1.3100 'International Tables Vol C Tables 4.2.6.8 and 6.1.1.4'

_symmetry_cell_setting           ?
_symmetry_space_group_name_H-M   ?

loop_
_symmetry_equiv_pos_as_xyz
'x, y, z'
'-x, -y, z'
'-x, y, -z'
'x, -y, -z'
'z, x, y'
'z, -x, -y'
'-z, -x, y'
'-z, x, -y'
'y, z, x'
'-y, z, -x'
'y, -z, -x'
'-y, -z, x'
'x+1/2, y+1/2, z+1/2'
'-x+1/2, -y+1/2, z+1/2'
'-x+1/2, y+1/2, -z+1/2'
'x+1/2, -y+1/2, -z+1/2'
'z+1/2, x+1/2, y+1/2'
'z+1/2, -x+1/2, -y+1/2'
'-z+1/2, -x+1/2, y+1/2'
'-z+1/2, x+1/2, -y+1/2'
'y+1/2, z+1/2, x+1/2'
'-y+1/2, z+1/2, -x+1/2'
'y+1/2, -z+1/2, -x+1/2'
'-y+1/2, -z+1/2, x+1/2'

_cell_length_a                   27.7580(16)
_cell_length_b                   27.7580(16)
_cell_length_c                   27.7580(16)
_cell_angle_alpha                90.00
_cell_angle_beta                 90.00
_cell_angle_gamma                90.00
_cell_volume                     21388(2)
_cell_formula_units_Z            8
_cell_measurement_temperature    296(2)
_cell_measurement_reflns_used    ?
_cell_measurement_theta_min      ?
_cell_measurement_theta_max      ?

_exptl_crystal_description       ?
_exptl_crystal_colour            ?
_exptl_crystal_size_max          0.22
_exptl_crystal_size_mid          0.21
_exptl_crystal_size_min          0.21
_exptl_crystal_density_meas      ?
_exptl_crystal_density_diffrn    0.743
_exptl_crystal_density_method    'not measured'
_exptl_crystal_F_000             4684
_exptl_absorpt_coefficient_mu    0.671
_exptl_absorpt_correction_type   ?
_exptl_absorpt_correction_T_min  ?
_exptl_absorpt_correction_T_max  ?
_exptl_absorpt_process_details   ?

_exptl_special_details           
;
?
;

_diffrn_ambient_temperature      150(2)
_diffrn_radiation_wavelength     0.71073
_diffrn_radiation_type           MoK\a
_diffrn_radiation_source         'fine-focus sealed tube'
_diffrn_radiation_monochromator  graphite
_diffrn_measurement_device_type  ?
_diffrn_measurement_method       ?
_diffrn_detector_area_resol_mean ?
_diffrn_standards_number         ?
_diffrn_standards_interval_count ?
_diffrn_standards_interval_time  ?
_diffrn_standards_decay_%        ?
_diffrn_reflns_number            29655
_diffrn_reflns_av_R_equivalents  0.2996
_diffrn_reflns_av_sigmaI/netI    0.1789
_diffrn_reflns_limit_h_min       -27
_diffrn_reflns_limit_h_max       27
_diffrn_reflns_limit_k_min       -27
_diffrn_reflns_limit_k_max       24
_diffrn_reflns_limit_l_min       -27
_diffrn_reflns_limit_l_max       16
_diffrn_reflns_theta_min         1.04
_diffrn_reflns_theta_max         20.84
_reflns_number_total             3744
_reflns_number_gt                2417
_reflns_threshold_expression     >2sigma(I)

_computing_data_collection       ?
_computing_cell_refinement       ?
_computing_data_reduction        ?
_computing_structure_solution    'SHELXS-97 (Sheldrick, 1990)'
_computing_structure_refinement  'SHELXL-97 (Sheldrick, 1997)'
_computing_molecular_graphics    ?
_computing_publication_material  ?

_refine_special_details          
;
Refinement of F^2^ against ALL reflections. The weighted R-factor wR and
goodness of fit S are based on F^2^, conventional R-factors R are based
on F, with F set to zero for negative F^2^. The threshold expression of
F^2^ > 2sigma(F^2^) is used only for calculating R-factors(gt) etc. and is
not relevant to the choice of reflections for refinement. R-factors based
on F^2^ are statistically about twice as large as those based on F, and R-
factors based on ALL data will be even larger.
;

_refine_ls_structure_factor_coef Fsqd
_refine_ls_matrix_type           full
_refine_ls_weighting_scheme      calc
_refine_ls_weighting_details     
'calc w=1/[\s^2^(Fo^2^)+(0.2000P)^2^+0.0000P] where P=(Fo^2^+2Fc^2^)/3'
_atom_sites_solution_primary     direct
_atom_sites_solution_secondary   difmap
_atom_sites_solution_hydrogens   geom
_refine_ls_hydrogen_treatment    mixed
_refine_ls_extinction_method     none
_refine_ls_extinction_coef       ?
_refine_ls_abs_structure_details 'Flack H D (1983), Acta Cryst. A39, 876-881'
_refine_ls_abs_structure_Flack   -0.07(16)
_refine_ls_number_reflns         3744
_refine_ls_number_parameters     178
_refine_ls_number_restraints     0
_refine_ls_R_factor_all          0.1567
_refine_ls_R_factor_gt           0.0925
_refine_ls_wR_factor_ref         0.3094
_refine_ls_wR_factor_gt          0.2579
_refine_ls_goodness_of_fit_ref   1.027
_refine_ls_restrained_S_all      1.027
_refine_ls_shift/su_max          5.443
_refine_ls_shift/su_mean         0.414

loop_
_atom_site_label
_atom_site_type_symbol
_atom_site_fract_x
_atom_site_fract_y
_atom_site_fract_z
_atom_site_U_iso_or_equiv
_atom_site_adp_type
_atom_site_occupancy
_atom_site_symmetry_multiplicity
_atom_site_calc_flag
_atom_site_refinement_flags
_atom_site_disorder_assembly
_atom_site_disorder_group
In1 In 0.68500(7) 0.31507(7) 0.40470(6) 0.0138(6) Uani 1 1 d . . .
O1 O 0.6545(6) 0.3455(6) 0.3455(6) 0.013(7) Uani 1 3 d S . .
O3 O 0.7582(6) 0.3177(8) 0.3744(6) 0.032(5) Uani 1 1 d . . .
O4 O 0.6818(7) 0.2430(7) 0.3765(6) 0.029(5) Uani 1 1 d . . .
O5 O 0.6165(7) 0.3043(7) 0.4407(6) 0.031(5) Uani 1 1 d . . .
O2 O 0.6942(8) 0.3827(7) 0.4408(7) 0.037(6) Uani 1 1 d . . .
C5 C 0.6938(10) 0.4252(12) 0.4276(10) 0.025(8) Uani 1 1 d . . .
C1 C 0.6608(12) 0.2260(10) 0.3406(13) 0.033(9) Uani 1 1 d . . .
C12 C 0.6984(9) 0.4635(10) 0.4635(9) 0.017(8) Uani 1 1 d . . .
C14 C 0.6961(13) 0.5110(10) 0.4521(12) 0.051(11) Uani 1 1 d . . .
H14A H 0.6938 0.5210 0.4202 0.061 Uiso 1 1 calc R . .
C13 C 0.6972(14) 0.4554(11) 0.5102(13) 0.062(13) Uani 1 1 d . . .
H13A H 0.6969 0.4232 0.5194 0.074 Uiso 1 1 calc R . .
C2 C 0.6790(8) 0.1762(7) 0.3197(8) 0.033(8) Uani 1 1 d G . .
C3 C 0.7197(9) 0.1556(9) 0.3404(9) 0.14(3) Uani 1 1 d G . .
H3A H 0.7337 0.1698 0.3674 0.170 Uiso 1 1 calc R . .
C6 C 0.7394(9) 0.1139(9) 0.3210(10) 0.13(2) Uani 1 1 d G . .
H6A H 0.7666 0.1001 0.3349 0.155 Uiso 1 1 calc R . .
C7 C 0.7184(9) 0.0927(7) 0.2808(9) 0.046(10) Uani 1 1 d G . .
C8 C 0.6777(10) 0.1132(9) 0.2600(9) 0.13(3) Uani 1 1 d G . .
H8A H 0.6636 0.0990 0.2331 0.159 Uiso 1 1 calc R . .
C9 C 0.6580(9) 0.1550(9) 0.2795(9) 0.15(3) Uani 1 1 d G . .
H9A H 0.6308 0.1687 0.2656 0.181 Uiso 1 1 calc R . .
C42 C 0.7187(10) 0.2202(9) 0.5305(13) 2.0(7) Uani 1 1 d G . .
H42A H 0.7060 0.1921 0.5436 2.400 Uiso 1 1 calc R . .
C43 C 0.7590(13) 0.2416(13) 0.5511(12) 0.000(13) Uani 0.50 1 d PG . .
C45 C 0.7779(13) 0.2836(15) 0.5315(13) 1.3(7) Uani 0.50 1 d PG . .
H45A H 0.8049 0.2979 0.5453 1.609 Uiso 0.50 1 calc PR . .
C40 C 0.7565(14) 0.3042(14) 0.4912(13) 0.8(4) Uani 0.50 1 d PG . .
H40A H 0.7692 0.3323 0.4781 0.952 Uiso 0.50 1 calc PR . .
N1 N 0.7162(11) 0.2829(10) 0.4705(9) 0.000(9) Uani 0.50 1 d PG . .
C10 C 0.6973(6) 0.2409(7) 0.4902(11) 1.89(9) Uani 1 1 d G . .
H10A H 0.6703 0.2266 0.4763 2.272 Uiso 1 1 calc R . .

loop_
_atom_site_aniso_label
_atom_site_aniso_U_11
_atom_site_aniso_U_22
_atom_site_aniso_U_33
_atom_site_aniso_U_23
_atom_site_aniso_U_13
_atom_site_aniso_U_12
In1 0.0161(11) 0.0141(11) 0.0112(11) 0.0008(9) 0.0016(10) 0.0030(11)
O1 0.013(7) 0.013(7) 0.013(7) 0.008(8) -0.008(8) -0.008(8)
O3 0.022(11) 0.058(14) 0.016(10) 0.010(11) 0.021(9) 0.010(12)
O4 0.043(13) 0.041(14) 0.004(10) -0.026(10) -0.015(10) 0.001(12)
O5 0.019(13) 0.053(15) 0.021(11) -0.004(10) 0.017(10) 0.019(10)
O2 0.08(2) 0.013(11) 0.021(12) 0.001(10) -0.011(12) -0.005(12)
C5 0.017(18) 0.05(2) 0.011(17) -0.009(17) 0.019(14) 0.008(16)
C1 0.04(2) 0.007(16) 0.05(2) 0.014(16) 0.02(2) 0.006(16)
C12 0.013(17) 0.04(2) 0.001(16) -0.022(16) -0.012(12) 0.012(14)
C14 0.12(4) 0.006(18) 0.03(2) 0.007(16) 0.01(2) 0.03(2)
C13 0.13(4) 0.02(2) 0.04(3) -0.018(19) 0.01(3) 0.00(2)
C2 0.039(19) 0.032(18) 0.028(18) -0.020(17) -0.005(17) 0.029(16)
C3 0.19(6) 0.08(4) 0.16(5) -0.10(3) -0.13(4) 0.09(4)
C6 0.11(4) 0.10(4) 0.18(5) -0.10(4) -0.08(4) 0.09(3)
C7 0.06(3) 0.04(2) 0.04(2) 0.03(2) 0.00(2) 0.00(2)
C8 0.22(6) 0.09(3) 0.09(3) -0.10(3) -0.11(4) 0.09(4)
C9 0.15(5) 0.14(5) 0.17(5) -0.13(4) -0.09(4) 0.15(4)
C42 2.0(12) 2.0(10) 2.0(9) 2.0(9) -1.0(9) -1.0(9)
C43 0.00(3) 0.00(3) 0.00(3) 0.02(2) -0.07(2) 0.01(2)
C45 2.0(11) 2.0(11) 0.02(9) -0.1(2) -0.2(3) 2.0(10)
C40 0.09(8) 2.0(9) 0.29(18) 0.9(4) 0.17(11) 0.3(2)
N1 0.00(2) 0.00(2) 0.00(2) 0.004(18) -0.020(19) -0.015(18)
C10 1.68(8) 2.00(11) 2.00(19) -0.49(14) -0.22(13) 2.00(9)

_geom_special_details            
;
All esds (except the esd in the dihedral angle between two l.s. planes)
are estimated using the full covariance matrix. The cell esds are taken
into account individually in the estimation of esds in distances, angles
and torsion angles; correlations between esds in cell parameters are only
used when they are defined by crystal symmetry. An approximate (isotropic)
treatment of cell esds is used for estimating esds involving l.s. planes.
;

loop_
_geom_bond_atom_site_label_1
_geom_bond_atom_site_label_2
_geom_bond_distance
_geom_bond_site_symmetry_2
_geom_bond_publ_flag
In1 O1 2.0331(19) . ?
In1 O2 2.144(19) . ?
In1 O4 2.150(18) . ?
In1 O5 2.168(18) . ?
In1 O3 2.199(17) . ?
In1 N1 2.21(2) . ?
O1 In1 2.0331(19) 10_656 ?
O1 In1 2.0309(19) 7_665 ?
O3 C1 1.25(3) 10_656 ?
O4 C1 1.25(4) . ?
O5 C5 1.30(3) 7_665 ?
O2 C5 1.23(3) . ?
C5 O5 1.30(3) 10_656 ?
C5 C12 1.46(4) . ?
C1 O3 1.25(3) 7_665 ?
C1 C2 1.58(3) . ?
C12 C13 1.32(4) . ?
C12 C14 1.36(4) . ?
C14 C13 1.40(4) 4_566 ?
C13 C14 1.40(4) 4_566 ?
C2 C3 1.3900 . ?
C2 C9 1.3900 . ?
C3 C6 1.3900 . ?
C6 C7 1.3900 . ?
C7 C8 1.3900 . ?
C7 C43 1.45(17) 21_544 ?
C8 C9 1.3900 . ?
C42 C43 1.3900 . ?
C42 C10 1.3900 . ?
C43 C45 1.3900 . ?
C43 C7 1.45(10) 17_545 ?
C45 C40 1.3900 . ?
C40 N1 1.3900 . ?
N1 C10 1.3900 . ?

loop_
_geom_angle_atom_site_label_1
_geom_angle_atom_site_label_2
_geom_angle_atom_site_label_3
_geom_angle
_geom_angle_site_symmetry_1
_geom_angle_site_symmetry_3
_geom_angle_publ_flag
O1 In1 O2 93.7(8) . . ?
O1 In1 O4 94.2(8) . . ?
O2 In1 O4 172.0(8) . . ?
O1 In1 O5 93.7(7) . . ?
O2 In1 O5 90.5(8) . . ?
O4 In1 O5 90.3(7) . . ?
O1 In1 O3 93.5(8) . . ?
O2 In1 O3 92.3(8) . . ?
O4 In1 O3 85.9(8) . . ?
O5 In1 O3 172.1(7) . . ?
O1 In1 N1 178.2(12) . . ?
O2 In1 N1 85.5(9) . . ?
O4 In1 N1 86.6(9) . . ?
O5 In1 N1 84.7(10) . . ?
O3 In1 N1 88.2(10) . . ?
In1 O1 In1 120.02(3) 10_656 7_665 ?
In1 O1 In1 119.91(3) 10_656 . ?
In1 O1 In1 120.02(3) 7_665 . ?
C1 O3 In1 129.9(19) 10_656 . ?
C1 O4 In1 131.5(18) . . ?
C5 O5 In1 131.9(18) 7_665 . ?
C5 O2 In1 134.1(18) . . ?
O2 C5 O5 127(3) . 10_656 ?
O2 C5 C12 119(3) . . ?
O5 C5 C12 113(3) 10_656 . ?
O3 C1 O4 130(3) 7_665 . ?
O3 C1 C2 112(3) 7_665 . ?
O4 C1 C2 118(3) . . ?
C13 C12 C14 113(3) . . ?
C13 C12 C5 123(3) . . ?
C14 C12 C5 123(3) . . ?
C12 C14 C13 118(3) . 4_566 ?
C12 C13 C14 129(3) . 4_566 ?
C3 C2 C9 120.0 . . ?
C3 C2 C1 118(2) . . ?
C9 C2 C1 122(2) . . ?
C2 C3 C6 120.0 . . ?
C7 C6 C3 120.0 . . ?
C6 C7 C8 120.0 . . ?
C6 C7 C43 119(8) . 21_544 ?
C8 C7 C43 121(8) . 21_544 ?
C9 C8 C7 120.0 . . ?
C8 C9 C2 120.0 . . ?
C43 C42 C10 120.0 . . ?
C42 C43 C45 120.0 . . ?
C42 C43 C7 118(4) . 17_545 ?
C45 C43 C7 122(4) . 17_545 ?
C40 C45 C43 120.0 . . ?
C45 C40 N1 120.0 . . ?
C10 N1 C40 120.0 . . ?
C10 N1 In1 121.0(15) . . ?
C40 N1 In1 118.9(15) . . ?
N1 C10 C42 120.0 . . ?

_diffrn_measured_fraction_theta_max 0.999
_diffrn_reflns_theta_full        20.84
_diffrn_measured_fraction_theta_full 0.999
_refine_diff_density_max         1.343
_refine_diff_density_min         -0.952
_refine_diff_density_rms         0.238
