####################################################################### 
# 
# This file contains crystal structure data downloaded from the 
# Cambridge Structural Database (CSD) hosted by the Cambridge 
# Crystallographic Data Centre (CCDC).
# 
# Full information about CCDC data access policies and citation 
# guidelines are available at http://www.ccdc.cam.ac.uk/access/V1 
# 
# Audit and citation data items may have been added by the CCDC. 
# Please retain this information to preserve the provenance of 
# this file and to allow appropriate attribution of the data. 
# 
#######################################################################

data_ITC-1
_audit_block_doi                 10.5517/cc100pvk
_database_code_depnum_ccdc_archive 'CCDC 924198'
loop_
_citation_id
_citation_doi
_citation_year
1 10.1038/ncomms3344 2013
_audit_update_record             
;
2013-02-11 deposited with the CCDC.	2024-07-07 downloaded from the CCDC.
;
#TrackingRef 'ITC-1.cif'


_audit_creation_method           SHELXL-97
_chemical_name_systematic        
;
?
;
_chemical_name_common            ?
_chemical_melting_point          ?
_chemical_formula_moiety         ?
_chemical_formula_sum            'C30 H16 In3 N3 O13'
_chemical_formula_weight         972.93

loop_
_atom_type_symbol
_atom_type_description
_atom_type_scat_dispersion_real
_atom_type_scat_dispersion_imag
_atom_type_scat_source
C C 0.0033 0.0016 'International Tables Vol C Tables 4.2.6.8 and 6.1.1.4'
H H 0.0000 0.0000 'International Tables Vol C Tables 4.2.6.8 and 6.1.1.4'
N N 0.0061 0.0033 'International Tables Vol C Tables 4.2.6.8 and 6.1.1.4'
O O 0.0106 0.0060 'International Tables Vol C Tables 4.2.6.8 and 6.1.1.4'
In In -0.7276 1.3100 'International Tables Vol C Tables 4.2.6.8 and 6.1.1.4'

_symmetry_cell_setting           Cubic
_symmetry_space_group_name_H-M   I-43m

loop_
_symmetry_equiv_pos_as_xyz
'x, y, z'
'-x, -y, z'
'-x, y, -z'
'x, -y, -z'
'z, x, y'
'z, -x, -y'
'-z, -x, y'
'-z, x, -y'
'y, z, x'
'-y, z, -x'
'y, -z, -x'
'-y, -z, x'
'y, x, z'
'-y, -x, z'
'y, -x, -z'
'-y, x, -z'
'x, z, y'
'-x, z, -y'
'-x, -z, y'
'x, -z, -y'
'z, y, x'
'z, -y, -x'
'-z, y, -x'
'-z, -y, x'
'x+1/2, y+1/2, z+1/2'
'-x+1/2, -y+1/2, z+1/2'
'-x+1/2, y+1/2, -z+1/2'
'x+1/2, -y+1/2, -z+1/2'
'z+1/2, x+1/2, y+1/2'
'z+1/2, -x+1/2, -y+1/2'
'-z+1/2, -x+1/2, y+1/2'
'-z+1/2, x+1/2, -y+1/2'
'y+1/2, z+1/2, x+1/2'
'-y+1/2, z+1/2, -x+1/2'
'y+1/2, -z+1/2, -x+1/2'
'-y+1/2, -z+1/2, x+1/2'
'y+1/2, x+1/2, z+1/2'
'-y+1/2, -x+1/2, z+1/2'
'y+1/2, -x+1/2, -z+1/2'
'-y+1/2, x+1/2, -z+1/2'
'x+1/2, z+1/2, y+1/2'
'-x+1/2, z+1/2, -y+1/2'
'-x+1/2, -z+1/2, y+1/2'
'x+1/2, -z+1/2, -y+1/2'
'z+1/2, y+1/2, x+1/2'
'z+1/2, -y+1/2, -x+1/2'
'-z+1/2, y+1/2, -x+1/2'
'-z+1/2, -y+1/2, x+1/2'

_cell_length_a                   22.1436(5)
_cell_length_b                   22.1436(5)
_cell_length_c                   22.1436(5)
_cell_angle_alpha                90.00
_cell_angle_beta                 90.00
_cell_angle_gamma                90.00
_cell_volume                     10857.9(4)
_cell_formula_units_Z            8
_cell_measurement_temperature    150(2)
_cell_measurement_reflns_used    ?
_cell_measurement_theta_min      ?
_cell_measurement_theta_max      ?

_exptl_crystal_description       cubic
_exptl_crystal_colour            colorless
_exptl_crystal_size_max          0.72
_exptl_crystal_size_mid          0.62
_exptl_crystal_size_min          0.52
_exptl_crystal_density_meas      ?
_exptl_crystal_density_diffrn    1.190
_exptl_crystal_density_method    'not measured'
_exptl_crystal_F_000             3760
_exptl_absorpt_coefficient_mu    1.306
_exptl_absorpt_correction_type   multi-scan
_exptl_absorpt_correction_T_min  0.982
_exptl_absorpt_correction_T_max  0.987
_exptl_absorpt_process_details   'SADABS 2007/2'

_exptl_special_details           
;
?
;

_diffrn_ambient_temperature      150(2)
_diffrn_radiation_wavelength     0.71073
_diffrn_radiation_type           MoK\a
_diffrn_radiation_source         'fine-focus sealed tube'
_diffrn_radiation_monochromator  graphite
_diffrn_measurement_device_type  ?
_diffrn_measurement_method       ?
_diffrn_detector_area_resol_mean ?
_diffrn_standards_number         ?
_diffrn_standards_interval_count ?
_diffrn_standards_interval_time  ?
_diffrn_standards_decay_%        ?
_diffrn_reflns_number            8354
_diffrn_reflns_av_R_equivalents  0.0433
_diffrn_reflns_av_sigmaI/netI    0.0340
_diffrn_reflns_limit_h_min       -26
_diffrn_reflns_limit_h_max       3
_diffrn_reflns_limit_k_min       -17
_diffrn_reflns_limit_k_max       21
_diffrn_reflns_limit_l_min       -26
_diffrn_reflns_limit_l_max       13
_diffrn_reflns_theta_min         3.44
_diffrn_reflns_theta_max         25.01
_reflns_number_total             1740
_reflns_number_gt                1645
_reflns_threshold_expression     >2sigma(I)

_computing_data_collection       ?
_computing_cell_refinement       ?
_computing_data_reduction        ?
_computing_structure_solution    'SHELXS-97 (Sheldrick, 1990)'
_computing_structure_refinement  'SHELXL-97 (Sheldrick, 1997)'
_computing_molecular_graphics    ?
_computing_publication_material  Platon

_refine_special_details          
;
Refinement of F^2^ against ALL reflections. The weighted R-factor wR and
goodness of fit S are based on F^2^, conventional R-factors R are based
on F, with F set to zero for negative F^2^. The threshold expression of
F^2^ > 2sigma(F^2^) is used only for calculating R-factors(gt) etc. and is
not relevant to the choice of reflections for refinement. R-factors based
on F^2^ are statistically about twice as large as those based on F, and R-
factors based on ALL data will be even larger.
;

_refine_ls_structure_factor_coef Fsqd
_refine_ls_matrix_type           full
_refine_ls_weighting_scheme      calc
_refine_ls_weighting_details     
'calc w=1/[\s^2^(Fo^2^)+(0.0697P)^2^+29.1141P] where P=(Fo^2^+2Fc^2^)/3'
_atom_sites_solution_primary     direct
_atom_sites_solution_secondary   difmap
_atom_sites_solution_hydrogens   geom
_refine_ls_hydrogen_treatment    constr
_refine_ls_extinction_method     none
_refine_ls_extinction_coef       ?
_refine_ls_abs_structure_details 'Flack H D (1983), Acta Cryst. A39, 876-881'
_refine_ls_abs_structure_Flack   0.01(9)
_refine_ls_number_reflns         1740
_refine_ls_number_parameters     85
_refine_ls_number_restraints     0
_refine_ls_R_factor_all          0.0398
_refine_ls_R_factor_gt           0.0368
_refine_ls_wR_factor_ref         0.1276
_refine_ls_wR_factor_gt          0.1257
_refine_ls_goodness_of_fit_ref   1.288
_refine_ls_restrained_S_all      1.288
_refine_ls_shift/su_max          0.001
_refine_ls_shift/su_mean         0.000

loop_
_atom_site_label
_atom_site_type_symbol
_atom_site_fract_x
_atom_site_fract_y
_atom_site_fract_z
_atom_site_U_iso_or_equiv
_atom_site_adp_type
_atom_site_occupancy
_atom_site_symmetry_multiplicity
_atom_site_calc_flag
_atom_site_refinement_flags
_atom_site_disorder_assembly
_atom_site_disorder_group
In1 In 0.11942(3) 0.76801(2) 0.23199(2) 0.0144(2) Uani 1 2 d S . .
O1 O 0.1979(3) 0.8021(3) 0.1979(3) 0.017(3) Uani 1 6 d S . .
O2 O 0.0744(2) 0.8541(2) 0.2412(3) 0.0393(15) Uani 1 1 d . . .
O3 O 0.1517(3) 0.6752(2) 0.2234(3) 0.0328(13) Uani 1 1 d . . .
C1 C 0.0922(4) 0.9078(4) 0.2423(6) 0.032(3) Uani 1 2 d S . .
C2 C 0.0444(3) 0.9556(3) 0.2435(6) 0.035(3) Uani 1 2 d S . .
C3 C 0.0592(4) 1.0146(5) 0.2428(11) 0.133(9) Uani 1 1 d . . .
H3A H 0.0997 1.0258 0.2422 0.159 Uiso 1 1 calc R . .
C4 C 0.1905(4) 0.6510(5) 0.1905(4) 0.027(3) Uani 1 2 d S . .
C5 C 0.2023(4) 0.5847(5) 0.2023(4) 0.026(2) Uani 1 2 d S . .
C6 C -0.0539(4) 0.7455(4) 0.3294(4) 0.041(2) Uani 1 1 d . . .
H6A H -0.0720 0.7658 0.3614 0.049 Uiso 1 1 calc R . .
C7 C 0.0058(4) 0.7585(4) 0.3124(4) 0.040(2) Uani 1 1 d . . .
H7A H 0.0266 0.7879 0.3339 0.049 Uiso 1 1 calc R . .
N1 N 0.0337(3) 0.7317(3) 0.2683(3) 0.0236(17) Uani 1 2 d S . .

loop_
_atom_site_aniso_label
_atom_site_aniso_U_11
_atom_site_aniso_U_22
_atom_site_aniso_U_33
_atom_site_aniso_U_23
_atom_site_aniso_U_13
_atom_site_aniso_U_12
In1 0.0122(3) 0.0156(3) 0.0156(3) 0.0004(3) -0.00028(19) 0.00028(19)
O1 0.017(3) 0.017(3) 0.017(3) -0.002(3) 0.002(3) -0.002(3)
O2 0.027(3) 0.020(3) 0.072(5) 0.003(3) 0.002(3) 0.007(2)
O3 0.034(3) 0.017(3) 0.047(4) 0.008(3) 0.009(3) 0.008(2)
C1 0.029(4) 0.029(4) 0.039(7) 0.001(4) -0.001(4) 0.005(5)
C2 0.021(3) 0.021(3) 0.063(9) -0.002(4) 0.002(4) 0.007(4)
C3 0.019(5) 0.029(6) 0.35(3) -0.016(11) -0.016(10) 0.011(5)
C4 0.029(4) 0.024(6) 0.029(4) -0.001(4) 0.004(5) -0.001(4)
C5 0.028(4) 0.022(5) 0.028(4) 0.002(3) 0.003(5) 0.002(3)
C6 0.028(4) 0.053(6) 0.042(5) -0.020(4) 0.013(4) -0.010(4)
C7 0.029(4) 0.048(6) 0.045(5) -0.018(4) 0.006(4) -0.015(4)
N1 0.016(4) 0.027(3) 0.027(3) -0.007(5) 0.007(3) -0.007(3)

_geom_special_details            
;
All esds (except the esd in the dihedral angle between two l.s. planes)
are estimated using the full covariance matrix. The cell esds are taken
into account individually in the estimation of esds in distances, angles
and torsion angles; correlations between esds in cell parameters are only
used when they are defined by crystal symmetry. An approximate (isotropic)
treatment of cell esds is used for estimating esds involving l.s. planes.
;

loop_
_geom_bond_atom_site_label_1
_geom_bond_atom_site_label_2
_geom_bond_distance
_geom_bond_site_symmetry_2
_geom_bond_publ_flag
In1 O1 2.0396(10) . ?
In1 O2 2.161(5) 20_566 ?
In1 O2 2.161(5) . ?
In1 O3 2.184(5) 20_566 ?
In1 O3 2.184(5) . ?
In1 N1 2.213(8) . ?
O1 In1 2.0396(10) 6_566 ?
O1 In1 2.0396(10) 12_665 ?
O2 C1 1.253(7) . ?
O3 C4 1.249(7) . ?
C1 O2 1.253(7) 14_665 ?
C1 C2 1.498(15) . ?
C2 C3 1.348(12) . ?
C2 C3 1.348(12) 14_665 ?
C3 C3 1.396(18) 13_465 ?
C4 O3 1.249(7) 21 ?
C4 C5 1.514(15) . ?
C5 C6 1.370(10) 39_455 ?
C5 C6 1.370(10) 31_554 ?
C6 C5 1.370(10) 34 ?
C6 C7 1.404(12) . ?
C7 N1 1.298(9) . ?
N1 C7 1.298(9) 20_566 ?

loop_
_geom_angle_atom_site_label_1
_geom_angle_atom_site_label_2
_geom_angle_atom_site_label_3
_geom_angle
_geom_angle_site_symmetry_1
_geom_angle_site_symmetry_3
_geom_angle_publ_flag
O1 In1 O2 95.9(3) . 20_566 ?
O1 In1 O2 95.9(3) . . ?
O2 In1 O2 87.4(4) 20_566 . ?
O1 In1 O3 92.1(3) . 20_566 ?
O2 In1 O3 171.6(2) 20_566 20_566 ?
O2 In1 O3 89.2(2) . 20_566 ?
O1 In1 O3 92.1(3) . . ?
O2 In1 O3 89.2(2) 20_566 . ?
O2 In1 O3 171.6(2) . . ?
O3 In1 O3 93.2(3) 20_566 . ?
O1 In1 N1 179.4(4) . . ?
O2 In1 N1 83.7(2) 20_566 . ?
O2 In1 N1 83.7(2) . . ?
O3 In1 N1 88.3(2) 20_566 . ?
O3 In1 N1 88.3(2) . . ?
In1 O1 In1 119.58(8) 6_566 12_665 ?
In1 O1 In1 119.58(8) 6_566 . ?
In1 O1 In1 119.58(8) 12_665 . ?
C1 O2 In1 133.9(6) . . ?
C4 O3 In1 132.9(6) . . ?
O2 C1 O2 126.7(10) 14_665 . ?
O2 C1 C2 116.6(5) 14_665 . ?
O2 C1 C2 116.6(5) . . ?
C3 C2 C3 118.1(12) . 14_665 ?
C3 C2 C1 120.9(6) . . ?
C3 C2 C1 120.9(6) 14_665 . ?
C2 C3 C3 120.9(6) . 13_465 ?
O3 C4 O3 128.2(10) 21 . ?
O3 C4 C5 115.8(5) 21 . ?
O3 C4 C5 115.8(5) . . ?
C6 C5 C6 118.0(10) 39_455 31_554 ?
C6 C5 C4 121.0(5) 39_455 . ?
C6 C5 C4 121.0(5) 31_554 . ?
C5 C6 C7 118.2(8) 34 . ?
N1 C7 C6 123.8(8) . . ?
C7 N1 C7 117.5(9) 20_566 . ?
C7 N1 In1 121.0(5) 20_566 . ?
C7 N1 In1 121.0(5) . . ?

_diffrn_measured_fraction_theta_max 0.994
_diffrn_reflns_theta_full        25.01
_diffrn_measured_fraction_theta_full 0.994
_refine_diff_density_max         1.076
_refine_diff_density_min         -0.538
_refine_diff_density_rms         0.162
