####################################################################### 
# 
# This file contains crystal structure data downloaded from the 
# Cambridge Structural Database (CSD) hosted by the Cambridge 
# Crystallographic Data Centre (CCDC).
# 
# Full information about CCDC data access policies and citation 
# guidelines are available at http://www.ccdc.cam.ac.uk/access/V1 
# 
# Audit and citation data items may have been added by the CCDC. 
# Please retain this information to preserve the provenance of 
# this file and to allow appropriate attribution of the data. 
# 
#######################################################################

data_e2738a
_audit_block_doi                 10.5517/cc1j3dmn
_database_code_depnum_ccdc_archive 'CCDC 1403451'
loop_
_citation_id
_citation_doi
_citation_year
1 10.1039/C5DT02404H 2015
_audit_update_record             
;
2015-05-27 deposited with the CCDC.	2024-07-07 downloaded from the CCDC.
;

_audit_creation_method           SHELXL-97
_chemical_name_systematic        
; 
 ? 
;
_chemical_name_common            ?
_chemical_melting_point          ?
_chemical_formula_moiety         'C100 H76 Cl2 N4 Ni P4 Pt2'
_chemical_formula_sum            'C100 H76 Cl2 N4 Ni P4 Pt2'
_chemical_formula_weight         1977.32

loop_
_atom_type_symbol
_atom_type_description
_atom_type_scat_dispersion_real
_atom_type_scat_dispersion_imag
_atom_type_scat_source
C C 0.0033 0.0016 'International Tables Vol C Tables 4.2.6.8 and 6.1.1.4'
H H 0.0000 0.0000 'International Tables Vol C Tables 4.2.6.8 and 6.1.1.4'
N N 0.0061 0.0033 'International Tables Vol C Tables 4.2.6.8 and 6.1.1.4'
P P 0.1023 0.0942 'International Tables Vol C Tables 4.2.6.8 and 6.1.1.4'
Ni Ni 0.3393 1.1124 'International Tables Vol C Tables 4.2.6.8 and 6.1.1.4'
Pt Pt -1.7033 8.3905 'International Tables Vol C Tables 4.2.6.8 and 6.1.1.4'
Cl Cl 0.1484 0.1585 'International Tables Vol C Tables 4.2.6.8 and 6.1.1.4'

_symmetry_cell_setting           Triclinic
_symmetry_space_group_name_H-M   P-1
_symmetry_space_group_name_Hall  '-P 1 '

loop_
_symmetry_equiv_pos_as_xyz
'x, y, z'
'-x, -y, -z'

_cell_length_a                   11.0555(4)
_cell_length_b                   17.1663(6)
_cell_length_c                   30.4851(10)
_cell_angle_alpha                90.794(2)
_cell_angle_beta                 93.971(2)
_cell_angle_gamma                99.038(2)
_cell_volume                     5698.2(3)
_cell_formula_units_Z            2
_cell_measurement_temperature    173(2)
_cell_measurement_reflns_used    9994
_cell_measurement_theta_min      2.32
_cell_measurement_theta_max      24.22

_exptl_crystal_description       prism
_exptl_crystal_colour            colorless
_exptl_crystal_size_max          0.08
_exptl_crystal_size_mid          0.06
_exptl_crystal_size_min          0.05
_exptl_crystal_density_meas      none
_exptl_crystal_density_diffrn    1.152
_exptl_crystal_density_method    'not measured'
_exptl_crystal_F_000             1964
_exptl_absorpt_coefficient_mu    2.753
_exptl_absorpt_correction_type   multi-scan
_exptl_absorpt_correction_T_min  0.8098
_exptl_absorpt_correction_T_max  0.8746
_exptl_absorpt_process_details   sadabs

_exptl_special_details           
; 
 The command squeeze was used because we didn't identify the solvents
;

_diffrn_ambient_temperature      173(2)
_diffrn_radiation_wavelength     0.71073
_diffrn_radiation_type           MoK\a
_diffrn_radiation_source         'fine-focus sealed tube'
_diffrn_radiation_monochromator  graphite
_diffrn_measurement_device_type  'Bruker APEX-II CCD'
_diffrn_measurement_method       '\f and \w scans'
_diffrn_detector_area_resol_mean ?
_diffrn_reflns_number            27043
_diffrn_reflns_av_R_equivalents  0.0456
_diffrn_reflns_av_sigmaI/netI    0.0918
_diffrn_reflns_limit_h_min       -15
_diffrn_reflns_limit_h_max       15
_diffrn_reflns_limit_k_min       -24
_diffrn_reflns_limit_k_max       24
_diffrn_reflns_limit_l_min       0
_diffrn_reflns_limit_l_max       42
_diffrn_reflns_theta_min         1.78
_diffrn_reflns_theta_max         28.00
_reflns_number_total             27043
_reflns_number_gt                17104
_reflns_threshold_expression     >2sigma(I)

_computing_data_collection       'Bruker APEX2'
_computing_cell_refinement       'Bruker SAINT'
_computing_data_reduction        'Bruker SAINT'
_computing_structure_solution    'SHELXS-97 (Sheldrick, 2008)'
_computing_structure_refinement  'SHELXL-97 (Sheldrick, 2008)'
_computing_molecular_graphics    'Bruker SHELXTL'
_computing_publication_material  'Bruker SHELXTL'

_refine_special_details          
; 
 Refinement of F^2^ against ALL reflections.  The weighted R-factor wR and 
 goodness of fit S are based on F^2^, conventional R-factors R are based 
 on F, with F set to zero for negative F^2^. The threshold expression of 
 F^2^ > 2sigma(F^2^) is used only for calculating R-factors(gt) etc. and is 
 not relevant to the choice of reflections for refinement.  R-factors based 
 on F^2^ are statistically about twice as large as those based on F, and R- 
 factors based on ALL data will be even larger. 
;

_refine_ls_structure_factor_coef Fsqd
_refine_ls_matrix_type           full
_refine_ls_weighting_scheme      calc
_refine_ls_weighting_details     
'calc w=1/[\s^2^(Fo^2^)+(0.1655P)^2^+13.2170P] where P=(Fo^2^+2Fc^2^)/3'
_atom_sites_solution_primary     direct
_atom_sites_solution_secondary   difmap
_atom_sites_solution_hydrogens   geom
_refine_ls_hydrogen_treatment    mixed
_refine_ls_extinction_method     none
_refine_ls_extinction_coef       ?
_refine_ls_number_reflns         27043
_refine_ls_number_parameters     967
_refine_ls_number_restraints     0
_refine_ls_R_factor_all          0.1317
_refine_ls_R_factor_gt           0.0713
_refine_ls_wR_factor_ref         0.2663
_refine_ls_wR_factor_gt          0.2419
_refine_ls_goodness_of_fit_ref   1.111
_refine_ls_restrained_S_all      1.111
_refine_ls_shift/su_max          0.005
_refine_ls_shift/su_mean         0.000

loop_
_atom_site_label
_atom_site_type_symbol
_atom_site_fract_x
_atom_site_fract_y
_atom_site_fract_z
_atom_site_U_iso_or_equiv
_atom_site_adp_type
_atom_site_occupancy
_atom_site_symmetry_multiplicity
_atom_site_calc_flag
_atom_site_refinement_flags
_atom_site_disorder_assembly
_atom_site_disorder_group
Ni4 Ni -0.18685(10) 0.28124(6) 0.75116(4) 0.0254(2) Uani 1 1 d . . .
Cl1 Cl -0.0233(4) 0.2390(3) 0.79384(15) 0.0922(12) Uani 1 1 d . . .
Cl2 Cl -0.3450(7) 0.3277(4) 0.7105(2) 0.136(2) Uani 1 1 d . . .
Pt1 Pt 0.0000 0.0000 0.5000 0.02677(14) Uani 1 2 d S . .
P1 P -0.1383(2) 0.05985(15) 0.45833(8) 0.0314(5) Uani 1 1 d . . .
C1 C -0.2447(10) 0.1088(7) 0.4880(3) 0.041(2) Uani 1 1 d . . .
C2 C -0.2480(13) 0.1889(9) 0.4875(4) 0.067(4) Uani 1 1 d . . .
H2 H -0.1890 0.2225 0.4723 0.080 Uiso 1 1 calc R . .
C3 C -0.3377(16) 0.2214(10) 0.5091(6) 0.083(5) Uani 1 1 d . . .
H3 H -0.3410 0.2763 0.5085 0.100 Uiso 1 1 calc R . .
C4 C -0.4208(12) 0.1704(9) 0.5313(4) 0.060(4) Uani 1 1 d . . .
H4 H -0.4814 0.1914 0.5463 0.071 Uiso 1 1 calc R . .
C5 C -0.4191(10) 0.0938(10) 0.5323(3) 0.058(4) Uani 1 1 d . . .
H5 H -0.4788 0.0606 0.5474 0.069 Uiso 1 1 calc R . .
C6 C -0.3289(10) 0.0617(8) 0.5113(3) 0.049(3) Uani 1 1 d . . .
H6 H -0.3259 0.0068 0.5130 0.059 Uiso 1 1 calc R . .
C7 C -0.0449(11) 0.1369(8) 0.4287(4) 0.054(3) Uani 1 1 d . . .
C8 C -0.0516(16) 0.1414(10) 0.3843(5) 0.084(5) Uani 1 1 d . . .
H8 H -0.1072 0.1058 0.3655 0.100 Uiso 1 1 calc R . .
C9 C 0.036(2) 0.2076(16) 0.3674(7) 0.120(8) Uani 1 1 d . . .
H9 H 0.0388 0.2148 0.3367 0.144 Uiso 1 1 calc R . .
C10 C 0.108(2) 0.2546(15) 0.3941(9) 0.118(8) Uani 1 1 d . . .
H10 H 0.1605 0.2967 0.3818 0.141 Uiso 1 1 calc R . .
C11 C 0.116(2) 0.2494(13) 0.4377(9) 0.137(10) Uani 1 1 d . . .
H11 H 0.1713 0.2867 0.4556 0.165 Uiso 1 1 calc R . .
C12 C 0.0403(16) 0.1881(10) 0.4566(6) 0.084(5) Uani 1 1 d . . .
H12 H 0.0462 0.1809 0.4874 0.101 Uiso 1 1 calc R . .
C13 C -0.2432(9) 0.0028(8) 0.4183(3) 0.043(3) Uani 1 1 d . . .
C14 C -0.3239(11) 0.0396(8) 0.3928(4) 0.051(3) Uani 1 1 d . . .
H14 H -0.3192 0.0951 0.3963 0.061 Uiso 1 1 calc R . .
C15 C -0.4135(13) -0.0009(13) 0.3616(5) 0.080(5) Uani 1 1 d . . .
H15 H -0.4666 0.0257 0.3436 0.096 Uiso 1 1 calc R . .
C16 C -0.4184(12) -0.0830(13) 0.3592(4) 0.083(6) Uani 1 1 d . . .
H16 H -0.4757 -0.1123 0.3381 0.099 Uiso 1 1 calc R . .
C17 C -0.3429(10) -0.1248(11) 0.3863(5) 0.077(5) Uani 1 1 d . . .
H17 H -0.3498 -0.1806 0.3845 0.093 Uiso 1 1 calc R . .
C18 C -0.2569(9) -0.0785(8) 0.4162(4) 0.052(3) Uani 1 1 d . . .
H18 H -0.2064 -0.1044 0.4357 0.062 Uiso 1 1 calc R . .
C19 C -0.0296(10) 0.0603(7) 0.5533(3) 0.038(2) Uani 1 1 d . . .
C20 C -0.0520(9) 0.0973(7) 0.5854(3) 0.037(2) Uani 1 1 d . . .
C21 C -0.0775(8) 0.1433(6) 0.6206(3) 0.029(2) Uani 1 1 d . . .
C22 C 0.0118(8) 0.1852(7) 0.6499(3) 0.041(3) Uani 1 1 d . . .
H22 H 0.0959 0.1834 0.6461 0.049 Uiso 1 1 calc R . .
C23 C -0.0191(8) 0.2301(5) 0.6848(3) 0.030(2) Uani 1 1 d . . .
H23 H 0.0450 0.2599 0.7032 0.036 Uiso 1 1 calc R . .
N1 N -0.1343(6) 0.2326(4) 0.6931(2) 0.0279(16) Uani 1 1 d . . .
C24 C -0.2229(8) 0.1922(6) 0.6640(3) 0.037(2) Uani 1 1 d . . .
H24 H -0.3064 0.1951 0.6683 0.045 Uiso 1 1 calc R . .
C25 C -0.1987(9) 0.1489(7) 0.6298(3) 0.044(3) Uani 1 1 d . . .
H25 H -0.2648 0.1213 0.6113 0.053 Uiso 1 1 calc R . .
Pt2 Pt -0.5000 0.5000 1.0000 0.04716(19) Uani 1 2 d S . .
P2 P -0.3639(3) 0.4577(2) 1.05150(10) 0.0598(9) Uani 1 1 d . . .
C26 C -0.2870(17) 0.3787(14) 1.0344(5) 0.103(6) Uani 1 1 d . . .
C27 C -0.1947(17) 0.3901(17) 1.0062(6) 0.103(6) Uani 1 1 d . . .
H27 H -0.1656 0.4421 0.9974 0.123 Uiso 1 1 calc R . .
C28 C -0.140(3) 0.326(3) 0.9894(8) 0.103(6) Uani 1 1 d . . .
H28 H -0.0817 0.3350 0.9680 0.123 Uiso 1 1 calc R . .
C29 C -0.173(3) 0.253(2) 1.0040(8) 0.103(6) Uani 1 1 d . . .
H29 H -0.1376 0.2093 0.9944 0.123 Uiso 1 1 calc R . .
C30 C -0.258(3) 0.2461(14) 1.0330(11) 0.103(6) Uani 1 1 d . . .
H30 H -0.2754 0.1947 1.0444 0.123 Uiso 1 1 calc R . .
C31 C -0.3253(19) 0.2989(11) 1.0496(7) 0.103(6) Uani 1 1 d . . .
H31 H -0.3893 0.2851 1.0686 0.123 Uiso 1 1 calc R . .
C32 C -0.4324(11) 0.4219(10) 1.1009(4) 0.064(4) Uani 1 1 d . . .
C33 C -0.3721(16) 0.4312(14) 1.1433(5) 0.103(7) Uani 1 1 d . . .
H33 H -0.2886 0.4557 1.1460 0.124 Uiso 1 1 calc R . .
C34 C -0.4236(17) 0.4084(17) 1.1791(5) 0.129(10) Uani 1 1 d . . .
H34 H -0.3824 0.4226 1.2071 0.155 Uiso 1 1 calc R . .
C35 C -0.542(2) 0.3622(13) 1.1757(6) 0.101(6) Uani 1 1 d . . .
H35 H -0.5743 0.3378 1.2010 0.121 Uiso 1 1 calc R . .
C36 C -0.6121(15) 0.3520(9) 1.1350(6) 0.079(4) Uani 1 1 d . . .
H36 H -0.6943 0.3251 1.1323 0.094 Uiso 1 1 calc R . .
C37 C -0.5511(14) 0.3850(11) 1.0982(5) 0.079(5) Uani 1 1 d . . .
H37 H -0.5957 0.3809 1.0702 0.095 Uiso 1 1 calc R . .
C38 C -0.2402(8) 0.5360(8) 1.0696(4) 0.080(5) Uani 1 1 d G . .
C39 C -0.2584(9) 0.6143(8) 1.0696(5) 0.126(8) Uani 1 1 d G . .
H39 H -0.3354 0.6273 1.0589 0.152 Uiso 1 1 calc R . .
C40 C -0.1640(13) 0.6736(8) 1.0851(5) 0.163(12) Uani 1 1 d G . .
H40 H -0.1765 0.7271 1.0850 0.195 Uiso 1 1 calc R . .
C41 C -0.0514(10) 0.6546(10) 1.1006(4) 0.124(10) Uani 1 1 d G . .
H41 H 0.0131 0.6951 1.1112 0.148 Uiso 1 1 calc R . .
C42 C -0.0332(8) 0.5763(11) 1.1007(4) 0.144(11) Uani 1 1 d G . .
H42 H 0.0438 0.5633 1.1113 0.172 Uiso 1 1 calc R . .
C43 C -0.1275(10) 0.5170(8) 1.0852(4) 0.127(9) Uani 1 1 d G . .
H43 H -0.1151 0.4635 1.0852 0.152 Uiso 1 1 calc R . .
C44 C -0.4268(11) 0.4498(8) 0.9511(3) 0.051(3) Uani 1 1 d . . .
C45 C -0.3912(11) 0.4184(8) 0.9197(4) 0.055(3) Uani 1 1 d . . .
C46 C -0.3442(10) 0.3872(7) 0.8813(3) 0.044(3) Uani 1 1 d . . .
C47 C -0.3373(11) 0.4272(7) 0.8431(3) 0.048(3) Uani 1 1 d . . .
H47 H -0.3641 0.4771 0.8415 0.058 Uiso 1 1 calc R . .
C48 C -0.2928(10) 0.3972(6) 0.8073(3) 0.037(2) Uani 1 1 d . . .
H48 H -0.2885 0.4272 0.7814 0.044 Uiso 1 1 calc R . .
N2 N -0.2543(7) 0.3262(4) 0.8069(2) 0.0277(16) Uani 1 1 d . . .
C49 C -0.2593(10) 0.2868(5) 0.8449(3) 0.038(2) Uani 1 1 d . . .
H49 H -0.2321 0.2369 0.8456 0.045 Uiso 1 1 calc R . .
C50 C -0.3011(10) 0.3142(7) 0.8823(3) 0.042(3) Uani 1 1 d . . .
H50 H -0.3012 0.2847 0.9084 0.051 Uiso 1 1 calc R . .
Pt3 Pt 0.34122(3) 0.77021(2) 0.729251(14) 0.03889(14) Uani 1 1 d . . .
P3 P 0.4496(2) 0.72799(15) 0.67382(10) 0.0399(6) Uani 1 1 d . . .
C51 C 0.3531(12) 0.6764(7) 0.6289(4) 0.051(3) Uani 1 1 d . . .
C52 C 0.2341(14) 0.6864(8) 0.6205(5) 0.066(4) Uani 1 1 d . . .
H52 H 0.2059 0.7228 0.6395 0.080 Uiso 1 1 calc R . .
C53 C 0.151(3) 0.6522(11) 0.5892(8) 0.114(9) Uani 1 1 d . . .
H53 H 0.0694 0.6624 0.5858 0.137 Uiso 1 1 calc R . .
C54 C 0.193(3) 0.606(2) 0.5651(12) 0.114(9) Uani 1 1 d . . .
H54 H 0.1368 0.5786 0.5431 0.137 Uiso 1 1 calc R . .
C55 C 0.323(3) 0.5869(11) 0.5662(8) 0.142(10) Uani 1 1 d . . .
H55 H 0.3501 0.5533 0.5453 0.171 Uiso 1 1 calc R . .
C56 C 0.398(2) 0.6251(13) 0.6021(6) 0.103(6) Uani 1 1 d . . .
H56 H 0.4803 0.6152 0.6075 0.124 Uiso 1 1 calc R . .
C57 C 0.5488(10) 0.6569(6) 0.6909(4) 0.046(3) Uani 1 1 d . . .
C58 C 0.4948(12) 0.5845(7) 0.7064(5) 0.066(4) Uani 1 1 d . . .
H58 H 0.4086 0.5738 0.7088 0.079 Uiso 1 1 calc R . .
C59 C 0.5672(16) 0.5287(11) 0.7181(6) 0.101(7) Uani 1 1 d . . .
H59 H 0.5307 0.4812 0.7307 0.121 Uiso 1 1 calc R . .
C60 C 0.6848(17) 0.5391(12) 0.7123(6) 0.099(7) Uani 1 1 d . . .
H60 H 0.7306 0.4974 0.7174 0.118 Uiso 1 1 calc R . .
C61 C 0.7419(16) 0.6115(11) 0.6987(6) 0.100(7) Uani 1 1 d . . .
H61 H 0.8283 0.6215 0.6968 0.119 Uiso 1 1 calc R . .
C62 C 0.6718(15) 0.6681(9) 0.6880(6) 0.091(6) Uani 1 1 d . . .
H62 H 0.7110 0.7173 0.6781 0.110 Uiso 1 1 calc R . .
C63 C 0.5486(9) 0.8045(5) 0.6447(4) 0.038(2) Uani 1 1 d . . .
C64 C 0.6469(11) 0.8546(7) 0.6723(5) 0.059(3) Uani 1 1 d . . .
H64 H 0.6555 0.8503 0.7034 0.071 Uiso 1 1 calc R . .
C65 C 0.7274(12) 0.9094(9) 0.6493(5) 0.067(4) Uani 1 1 d . . .
H65 H 0.7972 0.9401 0.6644 0.080 Uiso 1 1 calc R . .
C66 C 0.7028(15) 0.9178(7) 0.6037(5) 0.078(5) Uani 1 1 d . . .
H66 H 0.7485 0.9599 0.5890 0.094 Uiso 1 1 calc R . .
C67 C 0.6115(18) 0.8647(9) 0.5797(5) 0.084(5) Uani 1 1 d . . .
H67 H 0.6050 0.8629 0.5485 0.101 Uiso 1 1 calc R . .
C68 C 0.5338(11) 0.8165(8) 0.6030(5) 0.063(3) Uani 1 1 d . . .
H68 H 0.4617 0.7890 0.5876 0.075 Uiso 1 1 calc R . .
C69 C 0.1165(7) 0.7495(5) 0.8089(3) 0.084(5) Uani 1 1 d G . .
C70 C 0.0104(7) 0.7172(5) 0.7837(3) 0.072(4) Uani 1 1 d G . .
H70 H -0.0035 0.7339 0.7545 0.086 Uiso 1 1 calc R . .
C71 C -0.0754(7) 0.6605(5) 0.8013(4) 0.072(4) Uani 1 1 d G . .
H71 H -0.1480 0.6385 0.7841 0.086 Uiso 1 1 calc R . .
C72 C -0.0551(9) 0.6361(6) 0.8441(4) 0.113(7) Uani 1 1 d G . .
H72 H -0.1138 0.5973 0.8562 0.136 Uiso 1 1 calc R . .
C73 C 0.0511(11) 0.6683(7) 0.8693(3) 0.125(8) Uani 1 1 d G . .
H73 H 0.0650 0.6516 0.8985 0.149 Uiso 1 1 calc R . .
C74 C 0.1369(9) 0.7251(7) 0.8516(3) 0.096(6) Uani 1 1 d G . .
H74 H 0.2095 0.7471 0.8688 0.116 Uiso 1 1 calc R . .
P4 P 0.2337(3) 0.81786(19) 0.78262(11) 0.0474(7) Uani 1 1 d . . .
C75 C 0.3341(9) 0.8585(6) 0.8290(3) 0.070(4) Uani 1 1 d G . .
C76 C 0.4275(10) 0.8181(5) 0.8443(3) 0.071(4) Uani 1 1 d G . .
H76 H 0.4416 0.7723 0.8289 0.086 Uiso 1 1 calc R . .
C77 C 0.5004(10) 0.8448(7) 0.8822(4) 0.115(7) Uani 1 1 d G . .
H77 H 0.5643 0.8173 0.8926 0.138 Uiso 1 1 calc R . .
C78 C 0.4798(12) 0.9119(7) 0.9047(3) 0.115(7) Uani 1 1 d G . .
H78 H 0.5296 0.9302 0.9306 0.138 Uiso 1 1 calc R . .
C79 C 0.3863(13) 0.9522(6) 0.8894(4) 0.115(7) Uani 1 1 d G . .
H79 H 0.3723 0.9981 0.9048 0.138 Uiso 1 1 calc R . .
C80 C 0.3135(10) 0.9255(6) 0.8515(4) 0.115(7) Uani 1 1 d G . .
H80 H 0.2496 0.9531 0.8411 0.138 Uiso 1 1 calc R . .
C81 C 0.1595(12) 0.9004(8) 0.7638(4) 0.058(3) Uani 1 1 d . . .
C82 C 0.0639(15) 0.9218(9) 0.7873(5) 0.080(5) Uani 1 1 d . . .
H82 H 0.0381 0.8938 0.8125 0.096 Uiso 1 1 calc R . .
C83 C 0.011(2) 0.9813(14) 0.7735(7) 0.140(11) Uani 1 1 d . . .
H83 H -0.0533 0.9961 0.7891 0.168 Uiso 1 1 calc R . .
C84 C 0.049(2) 1.0253(16) 0.7349(7) 0.136(11) Uani 1 1 d . . .
H84 H 0.0108 1.0688 0.7256 0.164 Uiso 1 1 calc R . .
C85 C 0.1340(14) 1.0037(9) 0.7141(6) 0.083(5) Uani 1 1 d . . .
H85 H 0.1625 1.0338 0.6898 0.100 Uiso 1 1 calc R . .
C86 C 0.1875(10) 0.9379(8) 0.7252(5) 0.061(4) Uani 1 1 d . . .
H86 H 0.2423 0.9190 0.7065 0.073 Uiso 1 1 calc R . .
C87 C 0.2280(10) 0.6670(7) 0.7269(4) 0.043(3) Uani 1 1 d . . .
C88 C 0.1617(9) 0.6047(6) 0.7256(3) 0.039(2) Uani 1 1 d . . .
C89 C 0.0816(8) 0.5312(5) 0.7313(3) 0.034(2) Uani 1 1 d . . .
C90 C 0.0669(10) 0.4997(7) 0.7710(3) 0.049(3) Uani 1 1 d . . .
H90 H 0.1081 0.5272 0.7963 0.059 Uiso 1 1 calc R . .
C91 C -0.0077(9) 0.4272(6) 0.7756(3) 0.041(2) Uani 1 1 d . . .
H91 H -0.0126 0.4045 0.8038 0.049 Uiso 1 1 calc R . .
N3 N -0.0719(7) 0.3894(4) 0.7411(2) 0.0284(16) Uani 1 1 d . . .
C92 C -0.0605(9) 0.4195(6) 0.7013(3) 0.037(2) Uani 1 1 d . . .
H92 H -0.1059 0.3916 0.6768 0.044 Uiso 1 1 calc R . .
C93 C 0.0133(8) 0.4886(6) 0.6943(3) 0.040(2) Uani 1 1 d . . .
H93 H 0.0197 0.5083 0.6655 0.048 Uiso 1 1 calc R . .
C94 C 0.4464(9) 0.8762(6) 0.7381(4) 0.047(3) Uani 1 1 d . . .
C95 C 0.5037(10) 0.9406(7) 0.7455(4) 0.050(3) Uani 1 1 d . . .
C96 C 0.5713(9) 1.0171(6) 0.7529(3) 0.038(2) Uani 1 1 d . . .
C97 C 0.5146(9) 1.0840(7) 0.7581(4) 0.047(3) Uani 1 1 d . . .
H97 H 0.4277 1.0781 0.7580 0.056 Uiso 1 1 calc R . .
C98 C 0.5854(9) 1.1594(6) 0.7633(3) 0.038(2) Uani 1 1 d . . .
H98 H 0.5456 1.2034 0.7688 0.045 Uiso 1 1 calc R . .
N4 N 0.7088(7) 1.1714(5) 0.7607(3) 0.0361(18) Uani 1 1 d . . .
C99 C 0.7624(9) 1.1033(6) 0.7565(4) 0.039(2) Uani 1 1 d . . .
H99 H 0.8492 1.1094 0.7562 0.047 Uiso 1 1 calc R . .
C100 C 0.6987(10) 1.0298(6) 0.7529(4) 0.049(3) Uani 1 1 d . . .
H100 H 0.7410 0.9861 0.7503 0.058 Uiso 1 1 calc R . .

loop_
_atom_site_aniso_label
_atom_site_aniso_U_11
_atom_site_aniso_U_22
_atom_site_aniso_U_33
_atom_site_aniso_U_23
_atom_site_aniso_U_13
_atom_site_aniso_U_12
Ni4 0.0287(5) 0.0188(6) 0.0273(6) -0.0106(5) 0.0108(4) -0.0037(