####################################################################### 
# 
# This file contains crystal structure data downloaded from the 
# Cambridge Structural Database (CSD) hosted by the Cambridge 
# Crystallographic Data Centre (CCDC).
# 
# Full information about CCDC data access policies and citation 
# guidelines are available at http://www.ccdc.cam.ac.uk/access/V1 
# 
# Audit and citation data items may have been added by the CCDC. 
# Please retain this information to preserve the provenance of 
# this file and to allow appropriate attribution of the data. 
# 
#######################################################################

data_e2914a
_audit_block_doi                 10.5517/cc1j3dpq
_database_code_depnum_ccdc_archive 'CCDC 1403453'
loop_
_citation_id
_citation_doi
_citation_year
1 10.1039/C5DT02404H 2015
_audit_update_record             
;
2015-05-27 deposited with the CCDC.	2024-07-07 downloaded from the CCDC.
;

_audit_creation_method           SHELXL-97
_chemical_name_systematic        
; 
 ? 
;
_chemical_name_common            ?
_chemical_melting_point          ?
_chemical_formula_moiety         
'2(C100 H76 Br2 Cd N4 P4 Pt2),4(C H Cl3),7(H2O)'
_chemical_formula_sum            'C204 H170 Br4 Cd2 Cl12 N8 O7 P8 Pt4'
_chemical_formula_weight         4843.44

loop_
_atom_type_symbol
_atom_type_description
_atom_type_scat_dispersion_real
_atom_type_scat_dispersion_imag
_atom_type_scat_source
C C 0.0033 0.0016 'International Tables Vol C Tables 4.2.6.8 and 6.1.1.4'
H H 0.0000 0.0000 'International Tables Vol C Tables 4.2.6.8 and 6.1.1.4'
N N 0.0061 0.0033 'International Tables Vol C Tables 4.2.6.8 and 6.1.1.4'
O O 0.0106 0.0060 'International Tables Vol C Tables 4.2.6.8 and 6.1.1.4'
P P 0.1023 0.0942 'International Tables Vol C Tables 4.2.6.8 and 6.1.1.4'
Br Br -0.2901 2.4595 'International Tables Vol C Tables 4.2.6.8 and 6.1.1.4'
Cd Cd -0.8075 1.2024 'International Tables Vol C Tables 4.2.6.8 and 6.1.1.4'
Pt Pt -1.7033 8.3905 'International Tables Vol C Tables 4.2.6.8 and 6.1.1.4'
Cl Cl 0.1484 0.1585 'International Tables Vol C Tables 4.2.6.8 and 6.1.1.4'

_symmetry_cell_setting           Triclinic
_symmetry_space_group_name_H-M   P-1
_symmetry_space_group_name_Hall  '-P 1'

loop_
_symmetry_equiv_pos_as_xyz
'x, y, z'
'-x, -y, -z'

_cell_length_a                   17.6603(4)
_cell_length_b                   19.2398(4)
_cell_length_c                   19.5076(4)
_cell_angle_alpha                113.2070(10)
_cell_angle_beta                 99.7830(10)
_cell_angle_gamma                101.2470(10)
_cell_volume                     5746.7(2)
_cell_formula_units_Z            1
_cell_measurement_temperature    173(2)
_cell_measurement_reflns_used    9144
_cell_measurement_theta_min      2.30
_cell_measurement_theta_max      28.80

_exptl_crystal_description       prism
_exptl_crystal_colour            colorless
_exptl_crystal_size_max          0.09
_exptl_crystal_size_mid          0.07
_exptl_crystal_size_min          0.07
_exptl_crystal_density_meas      none
_exptl_crystal_density_diffrn    1.400
_exptl_crystal_density_method    'not measured'
_exptl_crystal_F_000             2378
_exptl_absorpt_coefficient_mu    3.547
_exptl_absorpt_correction_type   multi-scan
_exptl_absorpt_correction_T_min  0.7408
_exptl_absorpt_correction_T_max  0.7894
_exptl_absorpt_process_details   sadabs

_exptl_special_details           
; 
 ? 
;

_diffrn_ambient_temperature      173(2)
_diffrn_radiation_wavelength     0.71073
_diffrn_radiation_type           MoK\a
_diffrn_radiation_source         'fine-focus sealed tube'
_diffrn_radiation_monochromator  graphite
_diffrn_measurement_device_type  'Bruker APEX-II CCD'
_diffrn_measurement_method       '\f and \w scans'
_diffrn_detector_area_resol_mean ?
_diffrn_reflns_number            30582
_diffrn_reflns_av_R_equivalents  0.0547
_diffrn_reflns_av_sigmaI/netI    0.0451
_diffrn_reflns_limit_h_min       -24
_diffrn_reflns_limit_h_max       24
_diffrn_reflns_limit_k_min       -27
_diffrn_reflns_limit_k_max       24
_diffrn_reflns_limit_l_min       0
_diffrn_reflns_limit_l_max       27
_diffrn_reflns_theta_min         1.95
_diffrn_reflns_theta_max         29.08
_reflns_number_total             30582
_reflns_number_gt                23687
_reflns_threshold_expression     >2sigma(I)

_computing_data_collection       'Bruker APEX2'
_computing_cell_refinement       'Bruker SAINT'
_computing_data_reduction        'Bruker SAINT'
_computing_structure_solution    'SHELXS-97 (Sheldrick, 2008)'
_computing_structure_refinement  'SHELXL-97 (Sheldrick, 2008)'
_computing_molecular_graphics    'Bruker SHELXTL'
_computing_publication_material  'Bruker SHELXTL'

_refine_special_details          
; 
 Refinement of F^2^ against ALL reflections.  The weighted R-factor wR and 
 goodness of fit S are based on F^2^, conventional R-factors R are based 
 on F, with F set to zero for negative F^2^. The threshold expression of 
 F^2^ > 2sigma(F^2^) is used only for calculating R-factors(gt) etc. and is 
 not relevant to the choice of reflections for refinement.  R-factors based 
 on F^2^ are statistically about twice as large as those based on F, and R- 
 factors based on ALL data will be even larger. 
;

_refine_ls_structure_factor_coef Fsqd
_refine_ls_matrix_type           full
_refine_ls_weighting_scheme      calc
_refine_ls_weighting_details     
'calc w=1/[\s^2^(Fo^2^)+(0.0777P)^2^+28.0259P] where P=(Fo^2^+2Fc^2^)/3'
_atom_sites_solution_primary     direct
_atom_sites_solution_secondary   difmap
_atom_sites_solution_hydrogens   geom
_refine_ls_hydrogen_treatment    constr
_refine_ls_extinction_method     none
_refine_ls_extinction_coef       ?
_refine_ls_number_reflns         30582
_refine_ls_number_parameters     1174
_refine_ls_number_restraints     18
_refine_ls_R_factor_all          0.0716
_refine_ls_R_factor_gt           0.0513
_refine_ls_wR_factor_ref         0.1566
_refine_ls_wR_factor_gt          0.1478
_refine_ls_goodness_of_fit_ref   1.041
_refine_ls_restrained_S_all      1.054
_refine_ls_shift/su_max          0.002
_refine_ls_shift/su_mean         0.000

loop_
_atom_site_label
_atom_site_type_symbol
_atom_site_fract_x
_atom_site_fract_y
_atom_site_fract_z
_atom_site_U_iso_or_equiv
_atom_site_adp_type
_atom_site_occupancy
_atom_site_symmetry_multiplicity
_atom_site_calc_flag
_atom_site_refinement_flags
_atom_site_disorder_assembly
_atom_site_disorder_group
Cd1 Cd 0.74146(2) 0.76540(2) 0.249041(19) 0.02108(9) Uani 1 1 d . . .
Br1 Br 0.90178(4) 0.84359(4) 0.29044(4) 0.03515(15) Uani 1 1 d . . .
Br2 Br 0.57906(4) 0.69570(5) 0.20300(5) 0.04433(17) Uani 1 1 d . . .
Pt1 Pt 0.746321(12) 0.755625(13) -0.254163(10) 0.02058(6) Uani 1 1 d . . .
P1 P 0.88261(8) 0.77996(9) -0.20833(8) 0.0229(3) Uani 1 1 d . . .
C1 C 0.9236(3) 0.8162(4) -0.1045(3) 0.0269(12) Uani 1 1 d . . .
C2 C 0.9601(5) 0.7747(5) -0.0713(4) 0.0465(18) Uani 1 1 d . . .
H2 H 0.9619 0.7231 -0.1029 0.056 Uiso 1 1 calc R . .
C3 C 0.9939(6) 0.8094(7) 0.0081(5) 0.065(3) Uani 1 1 d . . .
H3 H 1.0201 0.7815 0.0305 0.078 Uiso 1 1 calc R . .
C4 C 0.9905(5) 0.8827(6) 0.0550(4) 0.054(2) Uani 1 1 d . . .
H4 H 1.0138 0.9053 0.1094 0.065 Uiso 1 1 calc R . .
C5 C 0.9533(4) 0.9233(5) 0.0233(4) 0.0449(18) Uani 1 1 d . . .
H5 H 0.9504 0.9742 0.0556 0.054 Uiso 1 1 calc R . .
C6 C 0.9195(4) 0.8897(4) -0.0568(3) 0.0346(14) Uani 1 1 d . . .
H6 H 0.8933 0.9180 -0.0786 0.042 Uiso 1 1 calc R . .
C7 C 0.9005(4) 0.6839(4) -0.2530(3) 0.0345(14) Uani 1 1 d . . .
C8 C 0.9531(6) 0.6696(5) -0.2976(4) 0.054(2) Uani 1 1 d . . .
H8 H 0.9847 0.7110 -0.3046 0.065 Uiso 1 1 calc R . .
C9 C 0.9595(8) 0.5924(7) -0.3329(5) 0.085(4) Uani 1 1 d . . .
H9 H 0.9946 0.5822 -0.3652 0.102 Uiso 1 1 calc R . .
C10 C 0.9187(9) 0.5334(7) -0.3229(6) 0.091(4) Uani 1 1 d . . .
H10 H 0.9259 0.4824 -0.3460 0.109 Uiso 1 1 calc R . .
C11 C 0.8637(7) 0.5479(5) -0.2768(6) 0.076(3) Uani 1 1 d . . .
H11 H 0.8335 0.5062 -0.2693 0.091 Uiso 1 1 calc R . .
C12 C 0.8544(5) 0.6232(5) -0.2430(5) 0.052(2) Uani 1 1 d . . .
H12 H 0.8168 0.6329 -0.2133 0.063 Uiso 1 1 calc R . .
C13 C 0.9515(4) 0.8508(4) -0.2254(3) 0.0314(13) Uani 1 1 d . . .
C14 C 1.0355(4) 0.8639(5) -0.1984(4) 0.0466(19) Uani 1 1 d . . .
H14 H 1.0544 0.8337 -0.1745 0.056 Uiso 1 1 calc R . .
C15 C 1.0894(5) 0.9202(6) -0.2069(5) 0.062(3) Uani 1 1 d . . .
H15 H 1.1455 0.9282 -0.1896 0.075 Uiso 1 1 calc R . .
C16 C 1.0620(5) 0.9652(5) -0.2405(5) 0.061(3) Uani 1 1 d . . .
H16 H 1.0993 1.0040 -0.2462 0.074 Uiso 1 1 calc R . .
C17 C 0.9810(6) 0.9538(5) -0.2657(5) 0.055(2) Uani 1 1 d . . .
H17 H 0.9630 0.9855 -0.2881 0.066 Uiso 1 1 calc R . .
C18 C 0.9240(4) 0.8958(4) -0.2589(4) 0.0392(15) Uani 1 1 d . . .
H18 H 0.8681 0.8879 -0.2769 0.047 Uiso 1 1 calc R . .
P2 P 0.60930(9) 0.72512(9) -0.29803(8) 0.0242(3) Uani 1 1 d . . .
C19 C 0.5480(4) 0.6448(4) -0.2860(3) 0.0300(13) Uani 1 1 d . . .
C20 C 0.5835(4) 0.6020(4) -0.2552(4) 0.0371(15) Uani 1 1 d . . .
H20 H 0.6403 0.6151 -0.2381 0.045 Uiso 1 1 calc R . .
C21 C 0.5341(6) 0.5382(5) -0.2496(4) 0.054(2) Uani 1 1 d . . .
H21 H 0.5579 0.5078 -0.2290 0.065 Uiso 1 1 calc R . .
C22 C 0.4534(6) 0.5202(5) -0.2732(5) 0.062(3) Uani 1 1 d . . .
H22 H 0.4208 0.4784 -0.2674 0.074 Uiso 1 1 calc R . .
C23 C 0.4173(5) 0.5628(5) -0.3062(5) 0.059(3) Uani 1 1 d . . .
H23 H 0.3605 0.5492 -0.3241 0.071 Uiso 1 1 calc R . .
C24 C 0.4648(4) 0.6239(5) -0.3122(4) 0.0424(17) Uani 1 1 d . . .
H24 H 0.4407 0.6527 -0.3347 0.051 Uiso 1 1 calc R . .
C25 C 0.5816(4) 0.8133(4) -0.2462(3) 0.0348(14) Uani 1 1 d . . .
C26 C 0.6233(5) 0.8832(5) -0.2443(5) 0.0511(19) Uani 1 1 d . . .
H26 H 0.6654 0.8832 -0.2688 0.061 Uiso 1 1 calc R . .
C27 C 0.6045(6) 0.9544(5) -0.2064(6) 0.073(3) Uani 1 1 d . . .
H27 H 0.6324 1.0020 -0.2063 0.088 Uiso 1 1 calc R . .
C28 C 0.5447(6) 0.9529(6) -0.1699(6) 0.078(4) Uani 1 1 d . . .
H28 H 0.5302 0.9998 -0.1452 0.094 Uiso 1 1 calc R . .
C29 C 0.5051(6) 0.8843(6) -0.1684(5) 0.067(3) Uani 1 1 d . . .
H29 H 0.4658 0.8850 -0.1406 0.080 Uiso 1 1 calc R . .
C30 C 0.5228(5) 0.8148(5) -0.2072(4) 0.050(2) Uani 1 1 d . . .
H30 H 0.4943 0.7675 -0.2073 0.060 Uiso 1 1 calc R . .
C31 C 0.5653(3) 0.6949(4) -0.4007(3) 0.0296(13) Uani 1 1 d . . .
C32 C 0.5604(4) 0.6178(4) -0.4527(3) 0.0325(13) Uani 1 1 d . . .
H32 H 0.5808 0.5845 -0.4340 0.039 Uiso 1 1 calc R . .
C33 C 0.5261(4) 0.5906(5) -0.5308(4) 0.0428(17) Uani 1 1 d . . .
H33 H 0.5230 0.5385 -0.5661 0.051 Uiso 1 1 calc R . .
C34 C 0.4959(5) 0.6393(6) -0.5579(4) 0.052(2) Uani 1 1 d . . .
H34 H 0.4715 0.6203 -0.6117 0.062 Uiso 1 1 calc R . .
C35 C 0.5014(6) 0.7137(6) -0.5077(5) 0.063(3) Uani 1 1 d . . .
H35 H 0.4814 0.7470 -0.5266 0.076 Uiso 1 1 calc R . .
C36 C 0.5361(5) 0.7422(5) -0.4285(4) 0.0456(18) Uani 1 1 d . . .
H36 H 0.5394 0.7946 -0.3938 0.055 Uiso 1 1 calc R . .
C37 C 0.7330(3) 0.7549(4) -0.1548(3) 0.0245(11) Uani 1 1 d . . .
C38 C 0.7281(4) 0.7525(4) -0.0957(3) 0.0293(13) Uani 1 1 d . . .
C39 C 0.7296(4) 0.7517(4) -0.0226(3) 0.0279(12) Uani 1 1 d . . .
C40 C 0.7770(4) 0.8168(4) 0.0462(3) 0.0422(18) Uani 1 1 d . . .
H40 H 0.8078 0.8622 0.0447 0.051 Uiso 1 1 calc R . .
C41 C 0.7789(4) 0.8148(4) 0.1163(3) 0.0445(19) Uani 1 1 d . . .
H41 H 0.8112 0.8598 0.1624 0.053 Uiso 1 1 calc R . .
N1 N 0.7370(3) 0.7519(3) 0.1226(3) 0.0292(11) Uani 1 1 d . . .
C42 C 0.6905(4) 0.6908(4) 0.0574(3) 0.0290(13) Uani 1 1 d . . .
H42 H 0.6593 0.6467 0.0609 0.035 Uiso 1 1 calc R . .
C43 C 0.6849(4) 0.6878(4) -0.0157(3) 0.0310(13) Uani 1 1 d . . .
H43 H 0.6510 0.6426 -0.0606 0.037 Uiso 1 1 calc R . .
C44 C 0.7594(3) 0.7565(4) -0.3534(3) 0.0254(12) Uani 1 1 d . . .
C45 C 0.7641(4) 0.7593(4) -0.4131(3) 0.0319(13) Uani 1 1 d . . .
C46 C 0.7624(4) 0.7636(4) -0.4844(3) 0.0309(13) Uani 1 1 d . . .
C47 C 0.8182(4) 0.8203(4) -0.4914(3) 0.0403(17) Uani 1 1 d . . .
H47 H 0.8613 0.8574 -0.4478 0.048 Uiso 1 1 calc R . .
C48 C 0.8107(4) 0.8222(4) -0.5625(3) 0.0364(15) Uani 1 1 d . . .
H48 H 0.8499 0.8613 -0.5660 0.044 Uiso 1 1 calc R . .
N2 N 0.7523(3) 0.7730(3) -0.6255(3) 0.0319(12) Uani 1 1 d . . .
C49 C 0.6998(5) 0.7176(5) -0.6195(4) 0.051(2) Uani 1 1 d . . .
H49 H 0.6578 0.6811 -0.6644 0.062 Uiso 1 1 calc R . .
C50 C 0.7024(5) 0.7099(5) -0.5514(4) 0.049(2) Uani 1 1 d . . .
H50 H 0.6639 0.6685 -0.5506 0.058 Uiso 1 1 calc R . .
Pt2 Pt 0.749120(13) 0.266932(12) 0.251782(12) 0.02455(6) Uani 1 1 d . . .
P3 P 0.73168(9) 0.22616(9) 0.12045(8) 0.0241(3) Uani 1 1 d . . .
C51 C 0.7395(4) 0.1278(4) 0.0636(3) 0.0290(12) Uani 1 1 d . . .
C52 C 0.8012(4) 0.1165(4) 0.0287(4) 0.0401(15) Uani 1 1 d . . .
H52 H 0.8414 0.1611 0.0351 0.048 Uiso 1 1 calc R . .
C53 C 0.8051(6) 0.0426(5) -0.0143(5) 0.055(2) Uani 1 1 d . . .
H53 H 0.8479 0.0359 -0.0376 0.065 Uiso 1 1 calc R . .
C54 C 0.7470(5) -0.0230(5) -0.0244(4) 0.0497(19) Uani 1 1 d . . .
H54 H 0.7498 -0.0745 -0.0549 0.060 Uiso 1 1 calc R . .
C55 C 0.6853(5) -0.0139(4) 0.0096(4) 0.0486(19) Uani 1 1 d . . .
H55 H 0.6451 -0.0589 0.0024 0.058 Uiso 1 1 calc R . .
C56 C 0.6824(5) 0.0619(4) 0.0547(4) 0.0410(16) Uani 1 1 d . . .
H56 H 0.6407 0.0686 0.0796 0.049 Uiso 1 1 calc R . .
C57 C 0.8023(4) 0.2901(4) 0.0970(4) 0.0322(13) Uani 1 1 d . . .
C58 C 0.7816(6) 0.3028(8) 0.0327(6) 0.083(4) Uani 1 1 d . . .
H58 H 0.7286 0.2787 -0.0007 0.100 Uiso 1 1 calc R . .
C59 C 0.8379(8) 0.3505(9) 0.0168(8) 0.111(5) Uani 1 1 d . . .
H59 H 0.8239 0.3559 -0.0297 0.133 Uiso 1 1 calc R . .
C60 C 0.9119(7) 0.3894(7) 0.0651(8) 0.087(4) Uani 1 1 d . . .
H60 H 0.9485 0.4251 0.0551 0.104 Uiso 1 1 calc R . .
C61 C 0.9333(5) 0.3769(5) 0.1285(6) 0.064(3) Uani 1 1 d . . .
H61 H 0.9862 0.4025 0.1621 0.077 Uiso 1 1 calc R . .
C62 C 0.8787(4) 0.3270(4) 0.1447(5) 0.0436(17) Uani 1 1 d . . .
H62 H 0.8946 0.3185 0.1891 0.052 Uiso 1 1 calc R . .
C63 C 0.6323(4) 0.2247(4) 0.0725(3) 0.0312(13) Uani 1 1 d . . .
C64 C 0.5931(4) 0.2741(4) 0.1140(4) 0.0391(15) Uani 1 1 d . . .
H64 H 0.6163 0.3077 0.1678 0.047 Uiso 1 1 calc R . .
C65 C 0.5197(5) 0.2744(6) 0.0768(5) 0.059(2) Uani 1 1 d . . .
H65 H 0.4921 0.3082 0.1055 0.071 Uiso 1 1 calc R . .
C66 C 0.4859(6) 0.2274(7) -0.0002(6) 0.088(4) Uani 1 1 d . . .
H66 H 0.4345 0.2272 -0.0248 0.105 Uiso 1 1 calc R . .
C67 C 0.5266(5) 0.1802(7) -0.0423(5) 0.082(4) Uani 1 1 d . . .
H67 H 0.5044 0.1494 -0.0967 0.099 Uiso 1 1 calc R . .
C68 C 0.5981(5) 0.1771(5) -0.0073(4) 0.054(2) Uani 1 1 d . . .
H68 H 0.6249 0.1428 -0.0365 0.064 Uiso 1 1 calc R . .
P4 P 0.77077(9) 0.30653(9) 0.38377(8) 0.0247(3) Uani 1 1 d . . .
C69 C 0.8752(4) 0.3161(4) 0.4259(3) 0.0289(12) Uani 1 1 d . . .
C70 C 0.9235(4) 0.3819(5) 0.4922(4) 0.0455(18) Uani 1 1 d . . .
H70 H 0.9042 0.4259 0.5155 0.055 Uiso 1 1 calc R . .
C71 C 1.0005(5) 0.3830(6) 0.5245(5) 0.059(2) Uani 1 1 d . . .
H71 H 1.0340 0.4280 0.5700 0.070 Uiso 1 1 calc R . .
C72 C 1.0288(5) 0.3179(6) 0.4903(5) 0.058(2) Uani 1 1 d . . .
H72 H 1.0810 0.3183 0.5131 0.070 Uiso 1 1 calc R . .
C73 C 0.9811(4) 0.2537(5) 0.4237(5) 0.0450(17) Uani 1 1 d . . .
H73 H 1.0005 0.2098 0.4002 0.054 Uiso 1 1 calc R . .
C74 C 0.9047(4) 0.2529(4) 0.3907(4) 0.0355(14) Uani 1 1 d . . .
H74 H 0.8724 0.2088 0.3439 0.043 Uiso 1 1 calc R . .
C75 C 0.7151(4) 0.2367(4) 0.4116(4) 0.0309(13) Uani 1 1 d . . .
C76 C 0.6365(4) 0.1910(4) 0.3672(4) 0.0382(15) Uani 1 1 d . . .
H76 H 0.6127 0.1968 0.3230 0.046 Uiso 1 1 calc R . .
C77 C 0.5931(5) 0.1372(5) 0.3878(5) 0.052(2) Uani 1 1 d . . .
H77 H 0.5399 0.1064 0.3575 0.062 Uiso 1 1 calc R . .
C78 C 0.6264(6) 0.1287(6) 0.4506(6) 0.066(3) Uani 1 1 d . . .
H78 H 0.5964 0.0921 0.4644 0.079 Uiso 1 1 calc R . .
C79 C 0.7055(7) 0.1738(7) 0.4956(6) 0.071(3) Uani 1 1 d . . .
H79 H 0.7286 0.1675 0.5397 0.085 Uiso 1 1 calc R . .
C80 C 0.7500(5) 0.2279(5) 0.4758(5) 0.0488(19) Uani 1 1 d . . .
H80 H 0.8035 0.2581 0.5058 0.059 Uiso 1 1 calc R . .
C81 C 0.7543(4) 0.3992(4) 0.4437(3) 0.0303(13) Uani 1 1 d . . .
C82 C 0.7952(5) 0.4691(4) 0.4439(4) 0.0412(16) Uani 1 1 d . . .
H82 H 0.8298 0.4682 0.4113 0.049 Uiso 1 1 calc R . .
C83 C 0.7849(5) 0.5405(4) 0.4925(5) 0.054(2) Uani 1 1 d . . .
H83 H 0.8133 0.5883 0.4933 0.065 Uiso 1 1 calc R . .
C84 C 0.7344(5) 0.5429(5) 0.5390(6) 0.060(2) Uani 1 1 d . . .
H84 H 0.7285 0.5921 0.5721 0.072 Uiso 1 1 calc R . .
C85 C 0.6922(5) 0.4739(5) 0.5377(5) 0.060(2) Uani 1 1 d . . .
H85 H 0.6566 0.4755 0.5693 0.072 Uiso 1 1 calc R . .
C86 C 0.7017(4) 0.4013(4) 0.4896(4) 0.0429(16) Uani 1 1 d . . .
H86 H 0.6724 0.3537 0.4885 0.051 Uiso 1 1 calc R . .
C87 C 0.7668(4) 0.3760(4) 0.2600(3) 0.0295(12) Uani 1 1 d . . .
C88 C 0.7751(4) 0.4377(4) 0.2550(4) 0.0333(14) Uani 1 1 d . . .
C89 C 0.7743(4) 0.5062(4) 0.2436(4) 0.0323(13) Uani 1 1 d . . .
C90 C 0.8358(4) 0.5772(4) 0.2851(4) 0.0425(17) Uani 1 1 d . . .
H90 H 0.8814 0.5804 0.3212 0.051 Uiso 1 1 calc R . .
C91 C 0.8305(4) 0.6417(4) 0.2740(4) 0.0433(17) Uani 1 1 d . . .
H91 H 0.8741 0.6886 0.3017 0.052 Uiso 1 1 calc R . .
N3 N 0.7679(3) 0.6424(3) 0.2266(3) 0.0328(12) Uani 1 1 d . . .
C92 C 0.7094(4) 0.5743(4) 0.1853(4) 0.0341(14) Uani 1 1 d . . .
H92 H 0.6646 0.5732 0.1497 0.041 Uiso 1 1 calc R . .
C93 C 0.7109(4) 0.5064(4) 0.1917(4) 0.0359(14) Uani 1 1 d . . .
H93 H 0.6683 0.4593 0.1604 0.043 Uiso 1 1 calc R . .
C94 C 0.7311(4) 0.1588(4) 0.2415(3) 0.0274(12) Uani 1 1 d . . .
C95 C 0.7213(4) 0.0954(4) 0.2440(4) 0.0319(13) Uani 1 1 d . . .
C96 C 0.7157(4) 0.0257(3) 0.2547(3) 0.0278(12) Uani 1 1 d . . .
C97 C 0.7639(4) 0.0256(4) 0.3167(4) 0.0368(15) Uani 1 1 d . . .
H97 H 0.7998 0.0739 0.3565 0.044 Uiso 1 1 calc R . .
C98 C 0.7613(4) -0.0440(4) 0.3224(3) 0.0360(15) Uani 1 1 d . . .
H98 H 0.7968 -0.0421 0.3660 0.043 Uiso 1 1 calc R . .
N4 N 0.7113(3) -0.1140(3) 0.2695(3) 0.0313(11) Uani 1 1 d . . .
C99 C 0.6596(4) -0.1140(4) 0.2107(4) 0.0424(18) Uani 1 1 d . . .
H99 H 0.6205 -0.1623 0.1747 0.051 Uiso 1 1 calc R . .
C100 C 0.6606(4) -0.0471(4) 0.2000(4) 0.0432(18) Uani 1 1 d . . .
H100 H 0.6246 -0.0500 0.1561 0.052 Uiso 1 1 calc R . .
C101 C 0.9413(5) 0.1045(5) 0.5489(5) 0.066(3) Uani 1 1 d D . .
H101 H 0.9853 0.1039 0.5