####################################################################### 
# 
# This file contains crystal structure data downloaded from the 
# Cambridge Structural Database (CSD) hosted by the Cambridge 
# Crystallographic Data Centre (CCDC).
# 
# Full information about CCDC data access policies and citation 
# guidelines are available at http://www.ccdc.cam.ac.uk/access/V1 
# 
# Audit and citation data items may have been added by the CCDC. 
# Please retain this information to preserve the provenance of 
# this file and to allow appropriate attribution of the data. 
# 
#######################################################################

data_e2887a
_audit_block_doi                 10.5517/cc1j3dnp
_database_code_depnum_ccdc_archive 'CCDC 1403452'
loop_
_citation_id
_citation_doi
_citation_year
1 10.1039/C5DT02404H 2015
_audit_update_record             
;
2015-05-27 deposited with the CCDC.	2024-07-07 downloaded from the CCDC.
;

_audit_creation_method           SHELXL-97
_chemical_name_systematic        
; 
 ? 
;
_chemical_name_common            ?
_chemical_melting_point          ?
_chemical_formula_moiety         'C100 H76 Cl2 Co N4 P4 Pt2,C H Cl3,3(H2 O)'
_chemical_formula_sum            'C101 H83 Cl5 Co N4 O3 P4 Pt2'
_chemical_formula_weight         2150.95

loop_
_atom_type_symbol
_atom_type_description
_atom_type_scat_dispersion_real
_atom_type_scat_dispersion_imag
_atom_type_scat_source
C C 0.0033 0.0016 'International Tables Vol C Tables 4.2.6.8 and 6.1.1.4'
H H 0.0000 0.0000 'International Tables Vol C Tables 4.2.6.8 and 6.1.1.4'
P P 0.1023 0.0942 'International Tables Vol C Tables 4.2.6.8 and 6.1.1.4'
Cl Cl 0.1484 0.1585 'International Tables Vol C Tables 4.2.6.8 and 6.1.1.4'
Co Co 0.3494 0.9721 'International Tables Vol C Tables 4.2.6.8 and 6.1.1.4'
Pt Pt -1.7033 8.3905 'International Tables Vol C Tables 4.2.6.8 and 6.1.1.4'
O O 0.0106 0.0060 'International Tables Vol C Tables 4.2.6.8 and 6.1.1.4'
N N 0.0061 0.0033 'International Tables Vol C Tables 4.2.6.8 and 6.1.1.4'

_symmetry_cell_setting           Triclinic
_symmetry_space_group_name_H-M   P-1
_symmetry_space_group_name_Hall  '-P 1'

loop_
_symmetry_equiv_pos_as_xyz
'x, y, z'
'-x, -y, -z'

_cell_length_a                   11.0755(2)
_cell_length_b                   17.2285(3)
_cell_length_c                   30.5221(6)
_cell_angle_alpha                89.7140(10)
_cell_angle_beta                 86.0250(10)
_cell_angle_gamma                81.0480(10)
_cell_volume                     5739.17(18)
_cell_formula_units_Z            2
_cell_measurement_temperature    173(2)
_cell_measurement_reflns_used    9935
_cell_measurement_theta_min      2.20
_cell_measurement_theta_max      25.41

_exptl_crystal_description       prism
_exptl_crystal_colour            purple
_exptl_crystal_size_max          0.06
_exptl_crystal_size_mid          0.05
_exptl_crystal_size_min          0.05
_exptl_crystal_density_meas      none
_exptl_crystal_density_diffrn    1.245
_exptl_crystal_density_method    'not measured'
_exptl_crystal_F_000             2138
_exptl_absorpt_coefficient_mu    2.789
_exptl_absorpt_correction_type   multi-scan
_exptl_absorpt_correction_T_min  0.8505
_exptl_absorpt_correction_T_max  0.8731
_exptl_absorpt_process_details   sadabs

_exptl_special_details           
; 
 We didn't identify all the solvents so we used 
the squeezze command. Many constrains were used 
the solvents 
;

_diffrn_ambient_temperature      173(2)
_diffrn_radiation_wavelength     0.71073
_diffrn_radiation_type           MoK\a
_diffrn_radiation_source         'fine-focus sealed tube'
_diffrn_radiation_monochromator  graphite
_diffrn_measurement_device_type  'Bruker APEX-II CCD'
_diffrn_measurement_method       '\f and \w scans'
_diffrn_detector_area_resol_mean ?
_diffrn_reflns_number            30865
_diffrn_reflns_av_R_equivalents  0.0678
_diffrn_reflns_av_sigmaI/netI    0.0726
_diffrn_reflns_limit_h_min       -15
_diffrn_reflns_limit_h_max       15
_diffrn_reflns_limit_k_min       -24
_diffrn_reflns_limit_k_max       24
_diffrn_reflns_limit_l_min       0
_diffrn_reflns_limit_l_max       43
_diffrn_reflns_theta_min         0.67
_diffrn_reflns_theta_max         29.33
_reflns_number_total             30865
_reflns_number_gt                22151
_reflns_threshold_expression     >2sigma(I)

_computing_data_collection       'Bruker APEX2'
_computing_cell_refinement       'Bruker SAINT'
_computing_data_reduction        'Bruker SAINT'
_computing_structure_solution    'SHELXS-97 (Sheldrick, 2008)'
_computing_structure_refinement  'SHELXL-97 (Sheldrick, 2008)'
_computing_molecular_graphics    'Bruker SHELXTL'
_computing_publication_material  'Bruker SHELXTL'

_refine_special_details          
; 
 Refinement of F^2^ against ALL reflections.  The weighted R-factor wR and 
 goodness of fit S are based on F^2^, conventional R-factors R are based 
 on F, with F set to zero for negative F^2^. The threshold expression of 
 F^2^ > 2sigma(F^2^) is used only for calculating R-factors(gt) etc. and is 
 not relevant to the choice of reflections for refinement.  R-factors based 
 on F^2^ are statistically about twice as large as those based on F, and R- 
 factors based on ALL data will be even larger. 
;

_refine_ls_structure_factor_coef Fsqd
_refine_ls_matrix_type           full
_refine_ls_weighting_scheme      calc
_refine_ls_weighting_details     
'calc w=1/[\s^2^(Fo^2^)+(0.1267P)^2^+0.0100P] where P=(Fo^2^+2Fc^2^)/3'
_atom_sites_solution_primary     direct
_atom_sites_solution_secondary   difmap
_atom_sites_solution_hydrogens   geom
_refine_ls_hydrogen_treatment    constr
_refine_ls_extinction_method     none
_refine_ls_extinction_coef       ?
_refine_ls_number_reflns         30865
_refine_ls_number_parameters     1198
_refine_ls_number_restraints     21
_refine_ls_R_factor_all          0.0885
_refine_ls_R_factor_gt           0.0617
_refine_ls_wR_factor_ref         0.2118
_refine_ls_wR_factor_gt          0.1987
_refine_ls_goodness_of_fit_ref   1.098
_refine_ls_restrained_S_all      1.107
_refine_ls_shift/su_max          0.055
_refine_ls_shift/su_mean         0.003

loop_
_atom_site_label
_atom_site_type_symbol
_atom_site_fract_x
_atom_site_fract_y
_atom_site_fract_z
_atom_site_U_iso_or_equiv
_atom_site_adp_type
_atom_site_occupancy
_atom_site_symmetry_multiplicity
_atom_site_calc_flag
_atom_site_refinement_flags
_atom_site_disorder_assembly
_atom_site_disorder_group
Co1 Co 1.19839(8) -0.22314(4) 0.25058(3) 0.02131(18) Uani 1 1 d . . .
Cl1 Cl 1.02761(17) -0.26740(11) 0.29516(6) 0.0383(4) Uani 1 1 d . . .
Cl2 Cl 1.36889(17) -0.17774(10) 0.20685(6) 0.0348(4) Uani 1 1 d . . .
Pt1 Pt 0.66563(2) 0.265288(13) 0.227544(9) 0.02651(8) Uani 1 1 d . . .
P1 P 0.77201(16) 0.31269(10) 0.28120(6) 0.0284(4) Uani 1 1 d . . .
C1 C 0.6712(8) 0.3542(5) 0.3279(3) 0.0427(19) Uani 1 1 d . . .
C2 C 0.5773(8) 0.3155(5) 0.3419(4) 0.057(3) Uani 1 1 d . . .
H2 H 0.5641 0.2701 0.3265 0.068 Uiso 1 1 calc R . .
C3 C 0.4998(12) 0.3423(8) 0.3791(5) 0.097(5) Uani 1 1 d . . .
H3 H 0.4368 0.3141 0.3898 0.116 Uiso 1 1 calc R . .
C4 C 0.5171(18) 0.4103(10) 0.3998(7) 0.156(9) Uani 1 1 d . . .
H4 H 0.4645 0.4295 0.4246 0.187 Uiso 1 1 calc R . .
C5 C 0.6090(17) 0.4507(10) 0.3850(6) 0.137(7) Uani 1 1 d . . .
H5 H 0.6204 0.4977 0.3992 0.165 Uiso 1 1 calc R . .
C6 C 0.6865(12) 0.4209(7) 0.3482(4) 0.087(4) Uani 1 1 d . . .
H6 H 0.7505 0.4484 0.3375 0.104 Uiso 1 1 calc R . .
C7 C 0.8515(7) 0.3919(4) 0.2614(2) 0.0344(16) Uani 1 1 d . . .
C8 C 0.8183(7) 0.4339(5) 0.2255(3) 0.0403(18) Uani 1 1 d . . .
H8 H 0.7571 0.4183 0.2087 0.048 Uiso 1 1 calc R . .
C9 C 0.8714(8) 0.5001(6) 0.2124(3) 0.053(2) Uani 1 1 d . . .
H9 H 0.8463 0.5300 0.1874 0.063 Uiso 1 1 calc R . .
C10 C 0.9628(10) 0.5197(7) 0.2375(4) 0.071(3) Uani 1 1 d . . .
H10 H 1.0020 0.5632 0.2290 0.085 Uiso 1 1 calc R . .
C11 C 0.9961(10) 0.4805(7) 0.2723(4) 0.071(3) Uani 1 1 d . . .
H11 H 1.0564 0.4973 0.2891 0.085 Uiso 1 1 calc R . .
C12 C 0.9449(9) 0.4144(5) 0.2854(3) 0.050(2) Uani 1 1 d . . .
H12 H 0.9726 0.3849 0.3101 0.060 Uiso 1 1 calc R . .
C13 C 0.8872(7) 0.2434(5) 0.3059(3) 0.0384(17) Uani 1 1 d . . .
C14 C 0.8688(8) 0.2208(6) 0.3506(3) 0.058(3) Uani 1 1 d . . .
H14 H 0.7963 0.2421 0.3677 0.070 Uiso 1 1 calc R . .
C15 C 0.9598(11) 0.1663(7) 0.3692(4) 0.080(4) Uani 1 1 d . . .
H15 H 0.9492 0.1504 0.3989 0.096 Uiso 1 1 calc R . .
C16 C 1.0643(9) 0.1364(7) 0.3436(4) 0.070(3) Uani 1 1 d . . .
H16 H 1.1245 0.0982 0.3555 0.084 Uiso 1 1 calc R . .
C17 C 1.0817(9) 0.1606(6) 0.3024(4) 0.062(3) Uani 1 1 d . . .
H17 H 1.1567 0.1419 0.2861 0.075 Uiso 1 1 calc R . .
C18 C 0.9932(8) 0.2121(6) 0.2828(3) 0.053(2) Uani 1 1 d . . .
H18 H 1.0065 0.2259 0.2528 0.064 Uiso 1 1 calc R . .
P2 P 0.55567(16) 0.22578(10) 0.17246(6) 0.0284(4) Uani 1 1 d . . .
C19 C 0.4540(6) 0.3016(4) 0.1458(3) 0.0336(16) Uani 1 1 d . . .
C20 C 0.4653(8) 0.3157(5) 0.1010(3) 0.0447(19) Uani 1 1 d . . .
H20 H 0.5313 0.2863 0.0838 0.054 Uiso 1 1 calc R . .
C21 C 0.3849(9) 0.3702(6) 0.0810(4) 0.061(3) Uani 1 1 d . . .
H21 H 0.3939 0.3764 0.0500 0.073 Uiso 1 1 calc R . .
C22 C 0.2929(9) 0.4155(6) 0.1045(4) 0.061(3) Uani 1 1 d . . .
H22 H 0.2387 0.4538 0.0900 0.073 Uiso 1 1 calc R . .
C23 C 0.2760(8) 0.4065(5) 0.1512(3) 0.048(2) Uani 1 1 d . . .
H23 H 0.2114 0.4381 0.1680 0.057 Uiso 1 1 calc R . .
C24 C 0.3601(7) 0.3482(4) 0.1712(3) 0.0386(18) Uani 1 1 d . . .
H24 H 0.3524 0.3408 0.2020 0.046 Uiso 1 1 calc R . .
C25 C 0.4572(7) 0.1540(4) 0.1905(2) 0.0324(16) Uani 1 1 d . . .
C26 C 0.5114(7) 0.0827(4) 0.2056(3) 0.0386(18) Uani 1 1 d . . .
H26 H 0.5974 0.0734 0.2082 0.046 Uiso 1 1 calc R . .
C27 C 0.4423(8) 0.0238(4) 0.2172(3) 0.045(2) Uani 1 1 d . . .
H27 H 0.4809 -0.0253 0.2276 0.054 Uiso 1 1 calc R . .
C28 C 0.3192(9) 0.0371(5) 0.2135(3) 0.052(2) Uani 1 1 d . . .
H28 H 0.2721 -0.0035 0.2202 0.063 Uiso 1 1 calc R . .
C29 C 0.2629(8) 0.1087(5) 0.2002(4) 0.059(3) Uani 1 1 d . . .
H29 H 0.1764 0.1184 0.1992 0.070 Uiso 1 1 calc R . .
C30 C 0.3311(8) 0.1673(5) 0.1881(3) 0.053(3) Uani 1 1 d . . .
H30 H 0.2914 0.2165 0.1782 0.064 Uiso 1 1 calc R . .
C31 C 0.6482(7) 0.1738(4) 0.1274(3) 0.0395(18) Uani 1 1 d . . .
C32 C 0.5987(11) 0.1243(6) 0.0994(3) 0.067(3) Uani 1 1 d . . .
H32 H 0.5154 0.1172 0.1043 0.081 Uiso 1 1 calc R . .
C33 C 0.6709(16) 0.0858(8) 0.0647(5) 0.107(5) Uani 1 1 d . . .
H33 H 0.6363 0.0530 0.0457 0.129 Uiso 1 1 calc R . .
C34 C 0.7911(14) 0.0944(7) 0.0574(4) 0.095(4) Uani 1 1 d . . .
H34 H 0.8405 0.0660 0.0343 0.114 Uiso 1 1 calc R . .
C35 C 0.8408(10) 0.1443(6) 0.0837(3) 0.064(3) Uani 1 1 d . . .
H35 H 0.9228 0.1531 0.0773 0.077 Uiso 1 1 calc R . .
C36 C 0.7710(9) 0.1824(5) 0.1198(3) 0.050(2) Uani 1 1 d . . .
H36 H 0.8074 0.2140 0.1389 0.059 Uiso 1 1 calc R . .
C37 C 0.5594(6) 0.3695(4) 0.2355(3) 0.0335(16) Uani 1 1 d . . .
C38 C 0.5060(6) 0.4343(4) 0.2435(3) 0.0341(16) Uani 1 1 d . . .
C39 C 0.4397(6) 0.5101(4) 0.2512(2) 0.0324(15) Uani 1 1 d . . .
C40 C 0.3105(6) 0.5244(4) 0.2528(3) 0.0362(17) Uani 1 1 d . . .
H40 H 0.2660 0.4817 0.2512 0.043 Uiso 1 1 calc R . .
C41 C 0.2497(7) 0.5990(4) 0.2565(3) 0.0367(17) Uani 1 1 d . . .
H41 H 0.1629 0.6069 0.2562 0.044 Uiso 1 1 calc R . .
N1 N 0.3051(5) 0.6622(3) 0.26060(18) 0.0246(11) Uani 1 1 d . . .
C42 C 0.4261(6) 0.6497(3) 0.2614(2) 0.0246(13) Uani 1 1 d . . .
H42 H 0.4665 0.6936 0.2656 0.030 Uiso 1 1 calc R . .
C43 C 0.4960(6) 0.5772(4) 0.2564(2) 0.0292(15) Uani 1 1 d . . .
H43 H 0.5826 0.5720 0.2564 0.035 Uiso 1 1 calc R . .
C44 C 0.7766(7) 0.1628(4) 0.2245(2) 0.0303(15) Uani 1 1 d . . .
C45 C 0.8438(6) 0.1017(4) 0.2247(2) 0.0311(15) Uani 1 1 d . . .
C46 C 0.9255(6) 0.0281(4) 0.2293(2) 0.0283(14) Uani 1 1 d . . .
C47 C 0.9924(6) -0.0109(4) 0.1942(2) 0.0284(14) Uani 1 1 d . . .
H47 H 0.9865 0.0101 0.1655 0.034 Uiso 1 1 calc R . .
C48 C 1.0692(6) -0.0817(4) 0.2010(2) 0.0261(13) Uani 1 1 d . . .
H48 H 1.1150 -0.1076 0.1764 0.031 Uiso 1 1 calc R . .
N2 N 1.0811(5) -0.1145(3) 0.24041(18) 0.0264(12) Uani 1 1 d . . .
C49 C 1.0166(8) -0.0762(4) 0.2739(2) 0.0374(18) Uani 1 1 d . . .
H49 H 1.0236 -0.0993 0.3021 0.045 Uiso 1 1 calc R . .
C50 C 0.9392(8) -0.0047(5) 0.2711(3) 0.0426(19) Uani 1 1 d . . .
H50 H 0.8972 0.0208 0.2965 0.051 Uiso 1 1 calc R . .
Pt2 Pt 1.0000 -0.5000 0.0000 0.02071(9) Uani 1 2 d S . .
P3 P 0.85998(16) -0.55762(10) 0.04278(5) 0.0252(3) Uani 1 1 d . . .
C51 C 0.7537(6) -0.4981(5) 0.0816(2) 0.0336(16) Uani 1 1 d . . .
C52 C 0.6692(7) -0.5334(6) 0.1079(3) 0.046(2) Uani 1 1 d . . .
H52 H 0.6693 -0.5884 0.1058 0.056 Uiso 1 1 calc R . .
C53 C 0.5851(8) -0.4881(8) 0.1368(3) 0.063(3) Uani 1 1 d . . .
H53 H 0.5276 -0.5124 0.1544 0.075 Uiso 1 1 calc R . .
C54 C 0.5839(8) -0.4086(7) 0.1404(3) 0.059(3) Uani 1 1 d . . .
H54 H 0.5278 -0.3785 0.1611 0.071 Uiso 1 1 calc R . .
C55 C 0.6633(8) -0.3731(6) 0.1141(3) 0.050(2) Uani 1 1 d . . .
H55 H 0.6609 -0.3178 0.1162 0.060 Uiso 1 1 calc R . .
C56 C 0.7489(7) -0.4170(5) 0.0839(2) 0.0397(18) Uani 1 1 d . . .
H56 H 0.8028 -0.3916 0.0653 0.048 Uiso 1 1 calc R . .
C57 C 0.7545(6) -0.6060(4) 0.0136(2) 0.0302(15) Uani 1 1 d . . .
C58 C 0.7483(9) -0.6836(6) 0.0158(3) 0.053(2) Uani 1 1 d . . .
H58 H 0.8043 -0.7159 0.0329 0.064 Uiso 1 1 calc R . .
C59 C 0.6617(12) -0.7194(8) -0.0062(4) 0.084(4) Uani 1 1 d . . .
H59 H 0.6604 -0.7744 -0.0046 0.101 Uiso 1 1 calc R . .
C60 C 0.5808(10) -0.6713(8) -0.0298(3) 0.071(3) Uani 1 1 d . . .
H60 H 0.5215 -0.6929 -0.0450 0.086 Uiso 1 1 calc R . .
C61 C 0.5840(8) -0.5895(6) -0.0320(3) 0.052(2) Uani 1 1 d . . .
H61 H 0.5269 -0.5564 -0.0483 0.062 Uiso 1 1 calc R . .
C62 C 0.6696(7) -0.5584(5) -0.0106(2) 0.0408(18) Uani 1 1 d . . .
H62 H 0.6715 -0.5035 -0.0121 0.049 Uiso 1 1 calc R . .
C63 C 0.9485(7) -0.6353(5) 0.0735(2) 0.0352(16) Uani 1 1 d . . .
C64 C 1.0344(9) -0.6856(5) 0.0504(4) 0.061(3) Uani 1 1 d . . .
H64 H 1.0460 -0.6809 0.0195 0.073 Uiso 1 1 calc R . .
C65 C 1.1077(13) -0.7460(7) 0.0731(6) 0.098(5) Uani 1 1 d . . .
H65 H 1.1681 -0.7816 0.0567 0.117 Uiso 1 1 calc R . .
C66 C 1.0939(13) -0.7539(7) 0.1165(5) 0.080(4) Uani 1 1 d . . .
H66 H 1.1393 -0.7968 0.1308 0.096 Uiso 1 1 calc R . .
C67 C 1.0161(13) -0.7008(7) 0.1391(4) 0.081(4) Uani 1 1 d . . .
H67 H 1.0113 -0.7033 0.1703 0.097 Uiso 1 1 calc R . .
C68 C 0.9378(8) -0.6392(6) 0.1181(3) 0.050(2) Uani 1 1 d . . .
H68 H 0.8805 -0.6023 0.1348 0.060 Uiso 1 1 calc R . .
C69 C 1.0365(6) -0.4423(4) 0.0527(2) 0.0253(13) Uani 1 1 d . . .
C70 C 1.0571(6) -0.4050(4) 0.0843(2) 0.0280(14) Uani 1 1 d . . .
C71 C 1.0836(6) -0.3602(4) 0.1205(2) 0.0272(14) Uani 1 1 d . . .
C72 C 0.9931(6) -0.3198(4) 0.1499(2) 0.0280(14) Uani 1 1 d . . .
H72 H 0.9090 -0.3216 0.1464 0.034 Uiso 1 1 calc R . .
C73 C 1.0268(6) -0.2779(4) 0.1836(2) 0.0291(14) Uani 1 1 d . . .
H73 H 0.9639 -0.2505 0.2030 0.035 Uiso 1 1 calc R . .
N3 N 1.1437(5) -0.2731(3) 0.19100(18) 0.0265(12) Uani 1 1 d . . .
C74 C 1.2296(6) -0.3110(4) 0.1626(2) 0.0342(16) Uani 1 1 d . . .
H74 H 1.3128 -0.3073 0.1667 0.041 Uiso 1 1 calc R . .
C75 C 1.2056(6) -0.3543(4) 0.1283(2) 0.0345(16) Uani 1 1 d . . .
H75 H 1.2710 -0.3808 0.1096 0.041 Uiso 1 1 calc R . .
Pt3 Pt 1.5000 0.0000 0.5000 0.02507(9) Uani 1 2 d S . .
P4 P 1.63769(17) 0.03874(12) 0.44736(6) 0.0314(4) Uani 1 1 d . . .
C76 C 1.7587(7) -0.0389(6) 0.4289(2) 0.045(2) Uani 1 1 d . . .
C77 C 1.7387(9) -0.1168(7) 0.4284(4) 0.080(4) Uani 1 1 d . . .
H77 H 1.6619 -0.1294 0.4394 0.097 Uiso 1 1 calc R . .
C78 C 1.8267(11) -0.1745(8) 0.4124(5) 0.109(6) Uani 1 1 d . . .
H78 H 1.8093 -0.2267 0.4116 0.130 Uiso 1 1 calc R . .
C79 C 1.9387(12) -0.1605(11) 0.3976(4) 0.102(6) Uani 1 1 d . . .
H79 H 2.0000 -0.2024 0.3873 0.122 Uiso 1 1 calc R . .
C80 C 1.9619(11) -0.0871(11) 0.3978(4) 0.095(5) Uani 1 1 d . . .
H80 H 2.0403 -0.0769 0.3868 0.114 Uiso 1 1 calc R . .
C81 C 1.8722(8) -0.0231(7) 0.4139(3) 0.070(3) Uani 1 1 d . . .
H81 H 1.8904 0.0290 0.4142 0.084 Uiso 1 1 calc R . .
C82 C 1.7165(5) 0.1180(4) 0.46390(18) 0.054(3) Uani 1 1 d G . .
C83 C 1.8101(6) 0.1021(4) 0.4922(2) 0.077(4) Uani 1 1 d G . .
H83 H 1.8350 0.0499 0.5018 0.092 Uiso 1 1 calc R . .
C84 C 1.8673(7) 0.1627(6) 0.5066(2) 0.114(6) Uani 1 1 d G . .
H84 H 1.9314 0.1519 0.5260 0.137 Uiso 1 1 calc R . .
C85 C 1.8309(8) 0.2392(5) 0.4926(3) 0.114(6) Uani 1 1 d G . .
H85 H 1.8700 0.2806 0.5025 0.137 Uiso 1 1 calc R . .
C86 C 1.7372(8) 0.2551(3) 0.4643(3) 0.094(4) Uani 1 1 d G . .
H86 H 1.7123 0.3073 0.4548 0.113 Uiso 1 1 calc R . .
C87 C 1.6800(6) 0.1945(4) 0.4500(2) 0.062(3) Uani 1 1 d G . .
H87 H 1.6160 0.2053 0.4306 0.074 Uiso 1 1 calc R . .
C88 C 1.5661(7) 0.0746(4) 0.3977(2) 0.0335(16) Uani 1 1 d . . .
C89 C 1.4468(7) 0.1150(5) 0.4007(3) 0.0411(18) Uani 1 1 d . . .
H89 H 1.4023 0.1225 0.4285 0.049 Uiso 1 1 calc R . .
C90 C 1.3923(8) 0.1445(5) 0.3629(3) 0.050(2) Uani 1 1 d . . .
H90 H 1.3109 0.1722 0.3651 0.060 Uiso 1 1 calc R . .
C91 C 1.4549(9) 0.1340(6) 0.3230(3) 0.053(2) Uani 1 1 d . . .
H91 H 1.4173 0.1548 0.2976 0.063 Uiso 1 1 calc R . .
C92 C 1.5734(9) 0.0930(6) 0.3191(3) 0.057(2) Uani 1 1 d . . .
H92 H 1.6161 0.0837 0.2911 0.068 Uiso 1 1 calc R . .
C93 C 1.6276(8) 0.0662(6) 0.3567(2) 0.049(2) Uani 1 1 d . . .
H93 H 1.7104 0.0410 0.3543 0.059 Uiso 1 1 calc R . .
C94 C 1.4295(7) -0.0539(4) 0.4521(2) 0.0295(15) Uani 1 1 d . . .
C95 C 1.3928(6) -0.0852(4) 0.4220(2) 0.0300(14) Uani 1 1 d . . .
C96 C 1.3493(6) -0.1179(4) 0.3842(2) 0.0288(14) Uani 1 1 d . . .
C97 C 1.3048(7) -0.1897(4) 0.3851(2) 0.0353(17) Uani 1 1 d . . .
H97 H 1.3035 -0.2196 0.4113 0.042 Uiso 1 1 calc R . .
C98 C 1.2621(6) -0.2169(4) 0.3466(2) 0.0275(14) Uani 1 1 d . . .
H98 H 1.2314 -0.2655 0.3475 0.033 Uiso 1 1 calc R . .
N4 N 1.2627(5) -0.1776(3) 0.30873(17) 0.0241(11) Uani 1 1 d . . .
C99 C 1.3046(8) -0.1088(4) 0.3088(2) 0.0352(17) Uani 1 1 d . . .
H99 H 1.3047 -0.0801 0.2822 0.042 Uiso 1 1 calc R . .
C10