####################################################################### 
# 
# This file contains crystal structure data downloaded from the 
# Cambridge Structural Database (CSD) hosted by the Cambridge 
# Crystallographic Data Centre (CCDC).
# 
# Full information about CCDC data access policies and citation 
# guidelines are available at http://www.ccdc.cam.ac.uk/access/V1 
# 
# Audit and citation data items may have been added by the CCDC. 
# Please retain this information to preserve the provenance of 
# this file and to allow appropriate attribution of the data. 
# 
#######################################################################

data_CdMOF
_audit_block_doi                 10.5517/cc1jj08b
_database_code_depnum_ccdc_archive 'CCDC 1415561'
loop_
_citation_id
_citation_doi
_citation_year
1 10.1021/acs.inorgchem.5b00722 2015
_audit_update_record             
;
2015-07-28 deposited with the CCDC.	2024-07-07 downloaded from the CCDC.
;
_audit_creation_method           SHELXL-2014/5
_chemical_name_systematic        ?
_chemical_name_common            ?
_chemical_melting_point          ?
_chemical_formula_moiety         'C32 H26 Cd N12 O8'
_chemical_formula_sum            'C32 H26 Cd N12 O8'
_chemical_formula_weight         819.06

loop_
_atom_type_symbol
_atom_type_description
_atom_type_scat_dispersion_real
_atom_type_scat_dispersion_imag
_atom_type_scat_source
C C 0.0033 0.0016 'International Tables Vol C Tables 4.2.6.8 and 6.1.1.4'
Cd Cd -0.8075 1.2024 'International Tables Vol C Tables 4.2.6.8 and 6.1.1.4'
O O 0.0106 0.0060 'International Tables Vol C Tables 4.2.6.8 and 6.1.1.4'
N N 0.0061 0.0033 'International Tables Vol C Tables 4.2.6.8 and 6.1.1.4'
H H 0.0000 0.0000 'International Tables Vol C Tables 4.2.6.8 and 6.1.1.4'

_space_group_crystal_system      orthorhombic
_space_group_IT_number           37
_space_group_name_H-M_alt        'C c c 2'
_space_group_name_Hall           'C 2 -2c'

_shelx_space_group_comment       
;
The symmetry employed for this shelxl refinement is uniquely defined
by the following loop, which should always be used as a source of
symmetry information in preference to the above space-group names.
They are only intended as comments.
;

loop_
_space_group_symop_operation_xyz
'x, y, z'
'-x, -y, z'
'-x, y, z+1/2'
'x, -y, z+1/2'
'x+1/2, y+1/2, z'
'-x+1/2, -y+1/2, z'
'-x+1/2, y+1/2, z+1/2'
'x+1/2, -y+1/2, z+1/2'

_cell_length_a                   18.066(5)
_cell_length_b                   20.762(5)
_cell_length_c                   15.240(4)
_cell_angle_alpha                90
_cell_angle_beta                 90
_cell_angle_gamma                90
_cell_volume                     5716(3)
_cell_formula_units_Z            4
_cell_measurement_temperature    100(2)
_cell_measurement_reflns_used    ?
_cell_measurement_theta_min      ?
_cell_measurement_theta_max      ?

_exptl_crystal_description       square
_exptl_crystal_colour            colorless
_exptl_crystal_density_meas      ?
_exptl_crystal_density_method    ?
_exptl_crystal_density_diffrn    0.952
_exptl_crystal_F_000             1656
_exptl_transmission_factor_min   ?
_exptl_transmission_factor_max   ?
_exptl_crystal_size_max          0.2
_exptl_crystal_size_mid          0.2
_exptl_crystal_size_min          0.2
_exptl_absorpt_coefficient_mu    0.424
_shelx_estimated_absorpt_T_min   ?
_shelx_estimated_absorpt_T_max   ?
_exptl_absorpt_correction_type   ?
_exptl_absorpt_correction_T_min  ?
_exptl_absorpt_correction_T_max  ?


_diffrn_ambient_temperature      100(2)
_diffrn_radiation_wavelength     0.71073
_diffrn_radiation_type           MoK\a

_diffrn_source                   'sealed tube'
_diffrn_radiation_monochromator  graphite
_diffrn_measurement_device_type  'Bruker APEX-II CCD'
_diffrn_measurement_method       '\f and \w scans'

_diffrn_detector_area_resol_mean ?
_diffrn_reflns_number            17262
_diffrn_reflns_av_unetI/netI     0.0900
_diffrn_reflns_av_R_equivalents  0.0614
_diffrn_reflns_limit_h_min       -24
_diffrn_reflns_limit_h_max       22
_diffrn_reflns_limit_k_min       -27
_diffrn_reflns_limit_k_max       20
_diffrn_reflns_limit_l_min       -19
_diffrn_reflns_limit_l_max       20
_diffrn_reflns_theta_min         1.494
_diffrn_reflns_theta_max         28.288
_diffrn_reflns_theta_full        25.242
_diffrn_measured_fraction_theta_max 0.958
_diffrn_measured_fraction_theta_full 0.996
_diffrn_reflns_Laue_measured_fraction_max 0.958
_diffrn_reflns_Laue_measured_fraction_full 0.996
_diffrn_reflns_point_group_measured_fraction_max 0.959
_diffrn_reflns_point_group_measured_fraction_full 0.997
_reflns_number_total             6484
_reflns_number_gt                3882
_reflns_threshold_expression     'I > 2\s(I)'
_reflns_Friedel_coverage         0.927
_reflns_Friedel_fraction_max     0.960
_reflns_Friedel_fraction_full    0.998

_reflns_special_details          
;
 Reflections were merged by SHELXL according to the crystal
 class for the calculation of statistics and refinement.
 
 _reflns_Friedel_fraction is defined as the number of unique
 Friedel pairs measured divided by the number that would be
 possible theoretically, ignoring centric projections and
 systematic absences.
;

_computing_data_collection       'Bruker APEX2'
_computing_cell_refinement       'Bruker SAINT'
_computing_data_reduction        'Bruker SAINT'

_computing_structure_solution    'SUPERFLIP (Palatinus & Chapuis, 2007)'
_computing_structure_refinement  'SHELXL-2014/5 (Sheldrick, 2014)'
_computing_molecular_graphics    'Ortep-3 for Windows (Farrugia, 1997)'
_computing_publication_material  'WinGX publication routines (Farrugia, 1999)'


_refine_ls_structure_factor_coef Fsqd
_refine_ls_matrix_type           full
_refine_ls_weighting_scheme      calc
_refine_ls_weighting_details     
'w=1/[\s^2^(Fo^2^)+(0.0637P)^2^] where P=(Fo^2^+2Fc^2^)/3'
_atom_sites_solution_primary     ?
_atom_sites_solution_secondary   ?
_atom_sites_solution_hydrogens   geom
_refine_ls_hydrogen_treatment    constr
_refine_ls_extinction_method     SHELXL
_refine_ls_extinction_coef       0.00000(6)
_refine_ls_extinction_expression Fc^*^=kFc[1+0.001xFc^2^\l^3^/sin(2\q)]^-1/4^
_refine_ls_abs_structure_details 
;
 Refined as an inversion twin.
;
_refine_ls_abs_structure_Flack   0.05(6)
_chemical_absolute_configuration ?
_refine_ls_number_reflns         6484
_refine_ls_number_parameters     246
_refine_ls_number_restraints     1
_refine_ls_R_factor_all          0.0906
_refine_ls_R_factor_gt           0.0570
_refine_ls_wR_factor_ref         0.1378
_refine_ls_wR_factor_gt          0.1222
_refine_ls_goodness_of_fit_ref   0.897
_refine_ls_restrained_S_all      0.897
_refine_ls_shift/su_max          3.938
_refine_ls_shift/su_mean         0.016

loop_
_atom_site_label
_atom_site_type_symbol
_atom_site_fract_x
_atom_site_fract_y
_atom_site_fract_z
_atom_site_U_iso_or_equiv
_atom_site_adp_type
_atom_site_occupancy
_atom_site_site_symmetry_order
_atom_site_calc_flag
_atom_site_refinement_flags_posn
_atom_site_refinement_flags_adp
_atom_site_refinement_flags_occupancy
_atom_site_disorder_assembly
_atom_site_disorder_group
Cd1 Cd 0.0000 0.0000 0.25812(8) 0.0494(2) Uani 1 2 d S T P . .
C1 C 0.0321(5) -0.0917(3) 1.1324(4) 0.0435(17) Uani 1 1 d . . . . .
O1 O 0.0796(4) -0.0504(3) 1.1416(3) 0.0652(18) Uani 1 1 d . . . . .
N1 N -0.2305(4) -0.0413(3) 0.4398(4) 0.0600(17) Uani 1 1 d . . . . .
C4 C -0.1849(4) -0.2355(3) 0.9297(4) 0.0460(17) Uani 1 1 d . . . . .
O4 O -0.1024(3) -0.0463(3) 0.3481(4) 0.0674(17) Uani 1 1 d . . . . .
N4 N -0.0200(3) -0.1811(3) 1.0424(4) 0.0526(16) Uani 1 1 d . . . . .
C10 C -0.2523(3) -0.1916(3) 0.6486(4) 0.0395(15) Uani 1 1 d . . . . .
C9 C -0.2500 -0.2500 0.6928(6) 0.054(3) Uani 1 2 d S T P . .
C8 C -0.2500 -0.2500 0.7962(5) 0.039(2) Uani 1 2 d S T P . .
C7 C -0.1134(4) -0.2267(4) 0.7873(4) 0.057(2) Uani 1 1 d . . . . .
H7A H -0.1220 -0.2343 0.7260 0.085 Uiso 1 1 calc R U . . .
H7B H -0.0765 -0.2563 0.8083 0.085 Uiso 1 1 calc R U . . .
H7C H -0.0963 -0.1833 0.7956 0.085 Uiso 1 1 calc R U . . .
C14 C -0.2508(4) -0.1342(3) 0.5000(5) 0.0502(16) Uani 1 1 d . . . . .
C13 C -0.2500 -0.2500 0.5126(7) 0.042(2) Uani 1 2 d S T P . .
H13 H -0.2500 -0.2500 0.4516 0.051 Uiso 1 2 calc R U P . .
C12 C -0.2506(4) -0.1909(4) 0.5556(4) 0.0463(16) Uani 1 1 d . . . . .
C11 C -0.2575(4) -0.1274(4) 0.7001(4) 0.0522(18) Uani 1 1 d . . . . .
H11A H -0.2856 -0.0967 0.6667 0.078 Uiso 1 1 calc R U . . .
H11B H -0.2086 -0.1108 0.7102 0.078 Uiso 1 1 calc R U . . .
H11C H -0.2815 -0.1349 0.7554 0.078 Uiso 1 1 calc R U . . .
C3 C -0.1204(4) -0.2195(3) 0.9835(4) 0.0459(18) Uani 1 1 d . . . . .
N3 N -0.2829(3) -0.1343(3) 0.4201(4) 0.0600(16) Uani 1 1 d . . . . .
O3 O -0.0884(3) 0.0576(3) 0.3445(3) 0.0596(15) Uani 1 1 d . . . . .
N6 N -0.1060(4) -0.2490(3) 1.0627(3) 0.0575(17) Uani 1 1 d . . . . .
C6 C -0.1844(4) -0.2366(3) 0.8376(4) 0.0476(17) Uani 1 1 d . . . . .
N2 N -0.2702(4) -0.0765(3) 0.3825(4) 0.0678(19) Uani 1 1 d . . . . .
C2 C -0.0628(4) -0.1743(4) 0.9703(5) 0.0474(18) Uani 1 1 d . . . . .
H2 H -0.0560 -0.1465 0.9231 0.057 Uiso 1 1 calc R U . . .
O2 O -0.0279(3) -0.0914(3) 1.1738(3) 0.0603(15) Uani 1 1 d . . . . .
N5 N -0.0472(4) -0.2254(3) 1.0989(4) 0.0606(17) Uani 1 1 d . . . . .
C5 C -0.2500 -0.2500 0.9731(5) 0.040(2) Uani 1 2 d S T P . .
H5 H -0.2500 -0.2500 1.0341 0.048 Uiso 1 2 calc R U P . .
C036 C 0.0454(4) -0.1416(4) 1.0620(5) 0.058(2) Uani 1 1 d . . . . .
H03A H 0.0610 -0.1199 1.0088 0.070 Uiso 1 1 calc R U . . .
H03B H 0.0854 -0.1696 1.0805 0.070 Uiso 1 1 calc R U . . .
C17 C -0.1224(5) 0.0100(3) 0.3653(4) 0.053(2) Uani 1 1 d . . . . .
C16 C -0.1965(5) 0.0184(4) 0.4108(5) 0.068(2) Uani 1 1 d . . . . .
H16A H -0.1897 0.0462 0.4614 0.081 Uiso 1 1 calc R U . . .
H16B H -0.2301 0.0401 0.3709 0.081 Uiso 1 1 calc R U . . .
C15 C -0.2171(4) -0.0742(3) 0.5100(6) 0.0526(16) Uani 1 1 d . . . . .
H15 H -0.1899 -0.0604 0.5583 0.063 Uiso 1 1 calc R U . . .

loop_
_atom_site_aniso_label
_atom_site_aniso_U_11
_atom_site_aniso_U_22
_atom_site_aniso_U_33
_atom_site_aniso_U_23
_atom_site_aniso_U_13
_atom_site_aniso_U_12
Cd1 0.0781(4) 0.0439(3) 0.0260(3) 0.000 0.000 -0.0146(4)
C1 0.063(4) 0.052(4) 0.015(3) -0.004(3) -0.007(3) -0.018(4)
O1 0.081(4) 0.083(5) 0.032(3) -0.012(3) -0.005(3) 0.001(4)
N1 0.091(5) 0.051(4) 0.038(4) 0.005(3) 0.012(3) 0.010(4)
C4 0.063(4) 0.043(4) 0.032(4) -0.002(3) -0.007(3) -0.009(3)
O4 0.082(4) 0.055(4) 0.065(4) -0.014(3) 0.024(3) -0.012(3)
N4 0.069(4) 0.058(4) 0.031(3) 0.001(3) -0.010(3) 0.001(3)
C10 0.049(4) 0.046(4) 0.024(3) -0.003(3) 0.000(3) -0.011(3)
C9 0.083(8) 0.067(8) 0.013(5) 0.000 0.000 -0.003(6)
C8 0.061(6) 0.040(5) 0.015(4) 0.000 0.000 -0.015(5)
C7 0.072(5) 0.075(5) 0.024(3) -0.011(3) -0.014(3) 0.009(4)
C14 0.067(4) 0.050(4) 0.033(4) -0.003(4) 0.000(4) 0.006(3)
C13 0.068(6) 0.047(5) 0.012(4) 0.000 0.000 -0.009(4)
C12 0.053(4) 0.053(4) 0.033(4) 0.005(3) 0.009(3) 0.003(4)
C11 0.073(5) 0.053(5) 0.031(4) -0.001(3) 0.004(3) -0.002(4)
C3 0.061(4) 0.050(4) 0.027(4) -0.004(3) -0.004(3) -0.001(4)
N3 0.068(4) 0.071(4) 0.040(3) 0.007(3) -0.001(3) -0.007(3)
O3 0.082(4) 0.054(3) 0.044(3) -0.001(2) 0.009(3) -0.017(3)
N6 0.084(5) 0.064(4) 0.025(3) 0.011(3) -0.013(3) -0.017(4)
C6 0.059(4) 0.047(4) 0.037(4) 0.006(3) -0.003(3) -0.009(4)
N2 0.113(6) 0.060(4) 0.030(3) 0.004(3) -0.008(4) 0.004(4)
C2 0.063(5) 0.048(4) 0.031(3) -0.011(3) -0.012(3) 0.003(4)
O2 0.068(3) 0.069(4) 0.043(3) -0.019(3) 0.011(3) -0.019(3)
N5 0.077(5) 0.063(4) 0.042(4) 0.014(3) -0.009(3) -0.004(4)
C5 0.058(6) 0.058(6) 0.004(3) 0.000 0.000 -0.009(5)
C036 0.056(5) 0.068(6) 0.051(5) 0.002(4) -0.003(4) -0.008(4)
C17 0.100(6) 0.034(5) 0.025(3) -0.006(3) -0.002(4) -0.012(4)
C16 0.108(7) 0.052(5) 0.042(5) 0.001(3) 0.017(5) -0.006(5)
C15 0.070(4) 0.053(4) 0.035(3) 0.006(4) 0.006(4) 0.000(3)

_geom_special_details            
;
 All esds (except the esd in the dihedral angle between two l.s. planes)
 are estimated using the full covariance matrix.  The cell esds are taken
 into account individually in the estimation of esds in distances, angles
 and torsion angles; correlations between esds in cell parameters are only
 used when they are defined by crystal symmetry.  An approximate (isotropic)
 treatment of cell esds is used for estimating esds involving l.s. planes.
;

loop_
_geom_bond_atom_site_label_1
_geom_bond_atom_site_label_2
_geom_bond_distance
_geom_bond_site_symmetry_2
_geom_bond_publ_flag
Cd1 O2 2.346(5) 1_554 ?
Cd1 O2 2.346(5) 2_554 ?
Cd1 O3 2.390(6) . ?
Cd1 O3 2.390(6) 2 ?
Cd1 O4 2.496(5) 2 ?
Cd1 O4 2.496(5) . ?
Cd1 O1 2.513(6) 2_554 ?
Cd1 O1 2.513(6) 1_554 ?
Cd1 C17 2.758(9) . ?
Cd1 C17 2.758(9) 2 ?
C1 O1 1.221(8) . ?
C1 O2 1.254(8) . ?
C1 C036 1.511(10) . ?
O1 Cd1 2.513(6) 1_556 ?
N1 C15 1.292(9) . ?
N1 N2 1.347(9) . ?
N1 C16 1.453(10) . ?
C4 C5 1.382(8) . ?
C4 C6 1.403(8) . ?
C4 C3 1.464(9) . ?
O4 C17 1.251(8) . ?
N4 C2 1.351(8) . ?
N4 N5 1.352(8) . ?
N4 C036 1.469(10) . ?
C10 C9 1.388(7) . ?
C10 C12 1.418(8) . ?
C10 C11 1.550(9) . ?
C9 C10 1.388(7) 6_445 ?
C9 C8 1.576(12) . ?
C8 C6 1.372(8) 6_445 ?
C8 C6 1.372(8) . ?
C7 C6 1.509(10) . ?
C14 N3 1.348(9) . ?
C14 C15 1.395(9) . ?
C14 C12 1.451(10) . ?
C13 C12 1.391(8) . ?
C13 C12 1.391(8) 6_445 ?
C3 N6 1.379(8) . ?
C3 C2 1.415(10) . ?
N3 N2 1.348(9) . ?
O3 C17 1.206(8) . ?
N6 N5 1.293(8) . ?
O2 Cd1 2.346(5) 1_556 ?
C5 C4 1.382(8) 6_445 ?
C17 C16 1.517(12) . ?

loop_
_geom_angle_atom_site_label_1
_geom_angle_atom_site_label_2
_geom_angle_atom_site_label_3
_geom_angle
_geom_angle_site_symmetry_1
_geom_angle_site_symmetry_3
_geom_angle_publ_flag
O2 Cd1 O2 113.6(3) 1_554 2_554 ?
O2 Cd1 O3 124.2(2) 1_554 . ?
O2 Cd1 O3 92.4(2) 2_554 . ?
O2 Cd1 O3 92.4(2) 1_554 2 ?
O2 Cd1 O3 124.2(2) 2_554 2 ?
O3 Cd1 O3 113.1(3) . 2 ?
O2 Cd1 O4 140.5(2) 1_554 2 ?
O2 Cd1 O4 80.22(18) 2_554 2 ?
O3 Cd1 O4 90.0(2) . 2 ?
O3 Cd1 O4 52.7(2) 2 2 ?
O2 Cd1 O4 80.22(18) 1_554 . ?
O2 Cd1 O4 140.5(2) 2_554 . ?
O3 Cd1 O4 52.7(2) . . ?
O3 Cd1 O4 90.0(2) 2 . ?
O4 Cd1 O4 113.4(3) 2 . ?
O2 Cd1 O1 80.0(2) 1_554 2_554 ?
O2 Cd1 O1 53.09(19) 2_554 2_554 ?
O3 Cd1 O1 78.41(19) . 2_554 ?
O3 Cd1 O1 168.44(19) 2 2_554 ?
O4 Cd1 O1 130.71(19) 2 2_554 ?
O4 Cd1 O1 97.1(2) . 2_554 ?
O2 Cd1 O1 53.09(19) 1_554 1_554 ?
O2 Cd1 O1 80.0(2) 2_554 1_554 ?
O3 Cd1 O1 168.44(19) . 1_554 ?
O3 Cd1 O1 78.41(19) 2 1_554 ?
O4 Cd1 O1 97.1(2) 2 1_554 ?
O4 Cd1 O1 130.71(19) . 1_554 ?
O1 Cd1 O1 90.0(3) 2_554 1_554 ?
O2 Cd1 C17 102.31(19) 1_554 . ?
O2 Cd1 C17 115.9(2) 2_554 . ?
O3 Cd1 C17 25.85(17) . . ?
O3 Cd1 C17 104.3(2) 2 . ?
O4 Cd1 C17 103.9(2) 2 . ?
O4 Cd1 C17 26.97(17) . . ?
O1 Cd1 C17 85.9(2) 2_554 . ?
O1 Cd1 C17 155.4(2) 1_554 . ?
O2 Cd1 C17 115.9(2) 1_554 2 ?
O2 Cd1 C17 102.31(19) 2_554 2 ?
O3 Cd1 C17 104.3(2) . 2 ?
O3 Cd1 C17 25.85(17) 2 2 ?
O4 Cd1 C17 26.97(17) 2 2 ?
O4 Cd1 C17 103.9(2) . 2 ?
O1 Cd1 C17 155.4(2) 2_554 2 ?
O1 Cd1 C17 85.9(2) 1_554 2 ?
C17 Cd1 C17 107.3(3) . 2 ?
O1 C1 O2 123.1(7) . . ?
O1 C1 C036 116.8(7) . . ?
O2 C1 C036 119.8(7) . . ?
C1 O1 Cd1 88.3(5) . 1_556 ?
C15 N1 N2 110.5(6) . . ?
C15 N1 C16 128.5(7) . . ?
N2 N1 C16 119.5(6) . . ?
C5 C4 C6 118.8(6) . . ?
C5 C4 C3 117.3(6) . . ?
C6 C4 C3 123.9(6) . . ?
C17 O4 Cd1 88.3(5) . . ?
C2 N4 N5 112.3(6) . . ?
C2 N4 C036 124.6(7) . . ?
N5 N4 C036 122.9(6) . . ?
C9 C10 C12 119.6(6) . . ?
C9 C10 C11 120.5(5) . . ?
C12 C10 C11 119.9(6) . . ?
C10 C9 C10 121.9(8) 6_445 . ?
C10 C9 C8 119.0(4) 6_445 . ?
C10 C9 C8 119.0(4) . . ?
C6 C8 C6 125.2(9) 6_445 . ?
C6 C8 C9 117.4(4) 6_445 . ?
C6 C8 C9 117.4(4) . . ?
N3 C14 C15 106.7(7) . . ?
N3 C14 C12 121.8(7) . . ?
C15 C14 C12 131.3(7) . . ?
C12 C13 C12 123.8(9) . 6_445 ?
C13 C12 C10 117.5(7) . . ?
C13 C12 C14 116.2(6) . . ?
C10 C12 C14 126.3(7) . . ?
N6 C3 C2 106.3(6) . . ?
N6 C3 C4 122.7(6) . . ?
C2 C3 C4 131.0(6) . . ?
C14 N3 N2 108.1(6) . . ?
C17 O3 Cd1 94.4(5) . . ?
N5 N6 C3 111.1(6) . . ?
C8 C6 C4 117.2(7) . . ?
C8 C6 C7 121.9(6) . . ?
C4 C6 C7 120.8(6) . . ?
N1 N2 N3 107.3(6) . . ?
N4 C2 C3 103.7(6) . . ?
C1 O2 Cd1 95.4(4) . 1_556 ?
N6 N5 N4 106.6(6) . . ?
C4 C5 C4 122.8(8) . 6_445 ?
N4 C036 C1 113.6(6) . . ?
O3 C17 O4 124.2(8) . . ?
O3 C17 C16 118.4(7) . . ?
O4 C17 C16 117.3(7) . . ?
O3 C17 Cd1 59.8(4) . . ?
O4 C17 Cd1 64.8(4) . . ?
C16 C17 Cd1 170.7(5) . . ?
N1 C16 C17 114.4(7) . . ?
N1 C15 C14 107.4(8) . . ?

loop_
_geom_torsion_atom_site_label_1
_geom_torsion_atom_site_label_2
_geom_torsion_atom_site_label_3
_geom_torsion_atom_site_label_4
_geom_torsion
_geom_torsion_site_symmetry_1
_geom_torsion_site_symmetry_2
_geom_torsion_site_symmetry_3
_geom_torsion_site_symmetry_4
_geom_torsion_publ_flag
O2 C1 O1 Cd1 2.9(7) . . . 1_556 ?
C036 C1 O1 Cd1 177.6(6) . . . 1_556 ?
C12 C10 C9 C10 -1.4(4) . . . 6_445 ?
C11 C10 C9 C10 177.9(7) . . . 6_445 ?
C12 C10 C9 C8 178.6(4) . . . . ?
C11 C10 C9 C8 -2.1(7) . . . . ?
C10 C9 C8 C6 -78.7(5) 6_445 . . 6_445 ?
C10 C9 C8 C6 101.3(5) . . . 6_445 ?
C10 C9 C8 C6 101.3(5) 6_445 . . . ?
C10 C9 C8 C6 -78.7(5) . . . . ?
C12 C13 C12 C10 -1.4(4) 6_445 . . . ?
C12 C13 C12 C14 179.7(7) 6_445 . . . ?
C9 C10 C12 C13 2.8(9) . . . . ?
C11 C10 C12 C13 -176.5(5) . . . . ?
C9 C10 C12 C14 -178.5(6) . . . . ?
C11 C10 C12 C14 2.3(11) . . . . ?
N3 C14 C12 C13 30.7(9) . . . . ?
C15 C14 C12 C13 -143.9(7) . . . . ?
N3 C14 C12 C10 -148.0(7) . . . . ?
C15 C14 C12 C10 37.3(12) . . . . ?
C5 C4 C3 N6 36.2(9) . . . . ?
C6 C4 C3 N6 -144.1(7) . . . . ?
C5 C4 C3 C2 -143.2(7) . . . . ?
C6 C4 C3 C2 36.6(12) . . . . ?
C15 C14 N3 N2 -0.5(8) . . . . ?
C12 C14 N3 N2 -176.3(6) . . . . ?
C2 C3 N6 N5 1.4(8) . . . . ?
C4 C3 N6 N5 -178.0(7) . . . . ?
C6 C8 C6 C4 -1.2(5) 6_445 . . . ?
C9 C8 C6 C4 178.8(5) . . . . ?
C6 C8 C6 C7 175.9(8) 6_445 . . . ?
C9 C8 C6 C7 -4.1(8) . . . . ?
C5 C4 C6 C8 2.3(9) . . . . ?
C3 C4 C6 C8 -177.5(6) . . . . ?
C5 C4 C6 C7 -174.8(6) . . . . ?
C3 C4 C6 C7 5.5(11) . . . . ?
C15 N1 N2 N3 0.9(8) . . . . ?
C16 N1 N2 N3 168.1(7) . . . . ?
C14 N3 N2 N1 -0.2(8) . . . . ?
N5 N4 C2 C3 -1.3(8) . . . . ?
C036 N4 C2 C3 -176.3(7) . . . . ?
N6 C3 C2 N4 -0.1(7) . . . . ?
C4 C3 C2 N4 179.3(7) . . . . ?
O1 C1 O2 Cd1 -3.1(8) . . . 1_556 ?
C036 C1 O2 Cd1 -177.7(6) . . . 1_556 ?
C3 N6 N5 N4 -2.2(8) . . . . ?
C2 N4 N5 N6 2.2(8) . . . . ?
C036 N4 N5 N6 177.4(7) . . . . ?
C6 C4 C5 C4 -1.2(5) . . . 6_445 ?
C3 C4 C5 C4 178.6(7) . . . 6_445 ?
C2 N4 C036 C1 104.4(8) . . . . ?
N5 N4 C036 C1 -70.1(9) . . . . ?
O1 C1 C036 N4 -168.0(7) . . . . ?
O2 C1 C036 N4 6.9(10) . . . . ?
Cd1 O3 C17 O4 6.8(8) . . . . ?
Cd1 O3 C17 C16 -169.5(6) . . . . ?
Cd1 O4 C17 O3 -6.5(8) . . . . ?
Cd1 O4 C17 C16 169.9(6) . . . . ?
C15 N1 C16 C17 81.4(10) . . . . ?
N2 N1 C16 C17 -83.2(9) . . . . ?
O3 C17 C16 N1 -175.2(7) . . . . ?
O4 C17 C16 N1 8.2(10) . . . . ?
N2 N1 C15 C14 -1.3(8) . . . . ?
C16 N1 C15 C14 -167.0(7) . . . . ?
N3 C14 C15 N1 1.1(8) . . . . ?
C12 C14 C15 N1 176.4(7) . . . . ?

_refine_diff_density_max         0.955
_refine_diff_density_min         -0.486
_refine_diff_density_rms         0.077

_shelxl_version_number           2014/5


_shelx_hkl_file                  
;
  -1  -1   0 1616843   14346
  -1  -1   0 1759536   14218
  -2  -2   0  322447   14062
  -2  -2   0  325425   14707
  -3  -3   0     133    3747
  -3  -3   0     256    3280
  -4  -4   0   15985    3224
  -4  -4   0   16267    3779
  -5  -5   0   68195    2573
  -5  -5   0   68165    3145
  -6  -6   0  105703    4805
  -6  -6   0  112561    5644
  -7  -7   0   92571    4368
  -7  -7   0   97900    5247
  -8  -8   0   45244    2568
  -8  -8   0   49057    3336
  -9  -9   0   18056    1908
  -9  -9   0   18594    1146
 -10 -10   0    8402    1950
 -10 -10   0    8127    1122
 -11 -11   0    3040    1387
 -12 -12   0    4454    1248
 -13 -13   0      17     815
 -14 -14   0    8048    1963
 -15 -15   0    4321    1567
 -16 -16   0    4071    1793
 -17 -17   0     908    1288
  -1  -1   1  210036     531
  -1  -1  -1  208174     468
  -2  -2  -1   35628     798
  -2  -2   1   34641     977
  -2  -2  -1   36308     770
  -3  -3  -1   77444    7006
  -3  -3  -1   67881    7280
  -3  -3   1   82745    7596
  -3  -3   1   73893    6720
  -4  -4   1   14055    1142
  -4  -4  -1   14360     829
  -4  -4  -1   14618    1007
  -4  -4   1   14138     665
  -5  -5  -1    5169    1123
  -5  -5   1    5670     957
  -5  -5  -1    4814    1293
  -5  -5   1    7677    1603
  -6  -6   1     654     561
  -6  -6  -1     207     355
  -6  -6   1    1869     331
  -6  -6  -1     207     382
  -7  -7  -1   17338    1782
  -7  -7   1   18688    1966
  -7  -7  -1   17281    1447
  -7  -7   1   20140    1318
  -8  -8  -1    5303    1177
  -8  -8   1    6121     723
  -8  -8   1    5450    1269
  -8  -8  -1    4304     806
  -9  -9  -1    3840     712
  -9  -9  -1    3181     903
  -9  -9   1    4195     579
  -9  -9   1    4708    1123
 -10 -10  -1     325     844
 -10 -10   1     371     913
 -10 -10  -1     605     592
 -11 -11  -1    3408     914
 -11 -11  -1     796    1002
 -11 -11   1    1672    1132
 -12 -12   1     211    1029
 -12 -12  -1      29     905
 -13 -13   1    1002    1237
 -13 -13  -1     352     969
 -14 -14  -1    1084     958
 -14 -14   1      68    1011
 -15 -15  -1    1540    1210
 -15 -15   1    1485    1149
 -16 -16   1     896    1384
 -16 -16  -1     170     881
 -17 -17   1     163    1101
 -17 -17  -1    1518    1174
   0   0  -2   90683      76
  -1  -1  -2  190937   12546
  -1  -1   2  169574   13065
  -2  -2   2  492716   18095
   2   2   2  489714   16348
  -2  -2  -2  492658   17259
  -3  -3  -2  333155   15588
  -3  -3   2  337341   15983
  -3  -3  -2  325000   15130
  -4  -4  -2   98920    4198
  -4  -4  -2   97416    4068
  -4  -4   2  102437    4599
  -5  -5   2   67441    1861
  -5  -5  -2   65219    2491
  -5  -5  -2   64075    2350
  -5  -5   2   75716    2906
  -6  -6   2   69683    4159
  -6  -6  -2   57522    3656
  -6  -6  -2   59397    3413
  -6  -6   2   59644    2882
  -7  -7   2   48556    2402
  -7  -7  -2   52987    3307
  -7  -7  -2   50414    2921
  -7  -7   2   44913    3411
  -8  -8  -2   40198    2202
  -8  -8   2   39804    1739
  -8  -8  -2   47227    2681
  -8  -8   2   43411    2794
  -9  -9  -2   26203    1865
  -9  -9  -2   25100    2149
  -9  -9   2   26820    2470
 -10 -10   2   13204    2328
 -10 -10  -2   12452    1591
 -10 -10  -2   10970    1933
 -11 -11  -2    8445    1510
 -11 -11   2    4309    1602
 -11 -11  -2    5690    1713
 -12 -12   2   11928    2270
 -12 -12  -2    7699    1813
 -12 -12  -2    7927    1427
 -13 -13   2    7680    1759
 -13 -13  -2   15125    2227
 -14 -14   2    3568    1546
 -14 -14  -2    3084    1393
 -15 -15   2    3215    1350
 -15 -15  -2    3055    1254
 -16 -16   2     698    1348
 -16 -16  -2    4457    1677
 -17 -17   2      38    1353
 -17 -17  -2    1040    1602
   1   1  -3   11054     773
  -1  -1  -3   11571     957
  -1  -1   3   10873    1117
   2   2   3   29603    1162
  -2  -2   3   29331    1640
  -2  -2  -3   29442    1453
   3   3   3  263927   12420
  -3  -3  -3  247432   13792
  -3  -3   3  272483   14423
  -3  -3  -3  265001   13586
  -4  -4  -3    4132    1042
  -4  -4  -3    3982     971
  -4  -4   3    3374    1283
  -5  -5   3   23978    1565
  -5  -5  -3   23848    1310
  -5  -5  -3   24205    1287
  -6  -6   3   14756    1697
  -6  -6  -3   14793    1202
  -6  -6  -3   13783    1213
  -7  -7  -3   24922    2036
  -7  -7  -3   26672    2200
  -7  -7   3   22231    2379
  -8  -8   3     649     714
  -8  -8  -3     693     517
  -8  -8  -3    1065     506
  -9  -9   3    5703    1701
  -9  -9  -3    7749    1337
  -9  -9  -3    6956    1506
 -10 -10  -3    1091     767
 -10 -10   3    1286    1021
 -10 -10  -3    1165     847
 -11 -11  -3    1015     762
 -11 -11  -3     112     808
 -11 -11   3      60     940
 -12 -12  -3     680     694
 -12 -12  -3     860     931
 -12 -12   3    1233    1248
 -13 -13   3    6194    2004
 -13 -13  -3    2199    1312
 -14 -14  -3     934    1006
 -14 -14   3     734    1162
 -15 -15  -3     209     914
 -15 -15   3     643     777
 -16 -16  -3    1980    1380
 -16 -16   3     378    1198
 -17 -17  -3    1513    1629
 -17 -17   3     119    1437
   0   0  -4    3406     368
   1   1  -4   17817     960
  -1  -1  -4   18703    1165
   2   2   4   87746    4499
  -2  -2   4   84198    5290
  -2  -2  -4   89713    4886
  -3  -3  -4  179858   10170
  -3  -3   4  169068   10818
   3   3   4  198227    9264
   4   4   4  134539    4994
  -4  -4  -4  129427    5970
  -4  -4  -4  133809    6026
  -4  -4   4  118798    6509
  -5  -5   4   38521    3096
  -5  -5  -4   40525    2732
  -5  -5  -4   40305    2645
  -6  -6   4   93535    5258
  -6  -6  -4   90913    4595
  -6  -6  -4   86397    4592
  -7  -7  -4   21815    1526
  -7  -7   4   24450    2208
  -7  -7  -4   23350    1528
  -8  -8  -4   74515    4053
  -8  -8   4   67300    4433
  -8  -8  -4   77783    3996
  -9  -9  -4   42716    2706
  -9  -9  -4   36157    2438
  -9  -9   4   31774    2794
 -10 -10  -4   48245    3023
 -10 -10  -4   45692    2776
 -10 -10   4   44941    3344
 -11 -11  -4   20021    1860
 -11 -11  -4   20207    2424
 -11 -11   4   25365    2550
 -12 -12   4   18009    2615
 -12 -12  -4   17419    1857
 -12 -12  -4   16676    2049
 -13 -13  -4   17165    2173
 -13 -13  -4   11756    2160
 -13 -13   4   11471    2509
 -14 -14  -4    6270    1589
 -14 -14   4    3758    1530
 -15 -15   4    3317    1588
 -15 -15  -4    1824     974
 -16 -16   4     593    1354
 -16 -16  -4    2903    1294
 -17 -17  -4    1821    1489
 -17 -17   4     470    1544
   1   1  -5     373     465
  -1  -1  -5      86     452
  -2  -2  -5    3362     993
   2   2   5    4227     983
   2   2  -5    3785     690
  -2  -2   5    3846    1227
  -3  -3  -5   11671    1252
   3   3   5   11412     849
  -3  -3   5   10141     885
  -3  -3   5   12379    1507
  -3  -3   5   10544     787
  -4  -4   5   20614    3350
  -4  -4  -5   22257    2962
   4   4   5   23090    2260
  -5  -5   5    9910    1665
  -5  -5  -5    9208    1183
  -5  -5  -5    9291    1346
  -6  -6  -5   22750    2175
  -6  -6  -5   21639    2030
  -6  -6   5   23264    2569
  -7  -7  -5    3543     979
  -7  -7   5    1403     876
  -7  -7  -5    1848     764
  -8  -8   5    1220    1027
  -8  -8  -5    2571     973
  -8  -8  -5    1446     802
  -9  -9  -5    7122    1246
  -9  -9   5    4132    1109
  -9  -9  -5    6099    1171
 -10 -10  -5    2936    1369
 -10 -10  -5    5177    1519
 -10 -10   5    2461    1482
 -11 -11  -5    2924    1324
 -11 -11   5    2497    1392
 -11 -11  -5    3491    1141
 -12 -12   5    1256     896
 -12 -12  -5      37     766
 -12 -12  -5      37     777
 -13 -13   5     364    1052
 -13 -13  -5    1773     993
 -13 -13  -5     371     784
 -14 -14   5    3416    1198
 -14 -14  -5      76     765
 -15 -15  -5     672    1003
 -15 -15   5    2717    1654
 -16 -16  -5    1815    1096
 -16 -16   5     307    1105
 -17 -17  -5    1494    1515
   0   0  -6    1720     410
   1   1  -6    9557     873
  -1  -1  -6   11597    1169
   2   2  -6   20372    1074
   2   2   6   26107    1452
  -2  -2  -6   20404    1382
  -2  -2   6   25531    1738
   3   3   6   89486    4309
  -3  -3   6   89209    5381
  -3  -3  -6   85732    4814
  -4  -4  -6  154988    7344
  -4  -4   6  154770    8025
   4   4   6  160985    6372
   5   5   6  137425    5683
  -5  -5  -6  139025    7014
  -5  -5   6  130065    7653
  -6  -6  -6   36204    2170
  -6  -6   6   35962    2737
  -6  -6  -6   36029    2365
  -7  -7   6   23755    2414
  -7  -7  -6   25205    2104
  -7  -7  -6   25473    1972
  -8  -8  -6    6537    1405
  -8  -8   6    6563    1664
  -8  -8  -6    9640    1506
  -9  -9  -6   15775    1650
  -9  -9  -6   17668    1749
  -9  -9   6   13837    1867
 -10 -10  -6   17822    2028
 -10 -10   6   13549    2582
 -10 -10  -6   19178    2043
 -11 -11  -6   26011    2093
 -11 -11   6   20902    2834
 -11 -11  -6   24288    2138
 -12 -12  -6   11949    2012
 -12 -12  -6   15795    2133
 -12 -12   6   11578    2266
 -13 -13  -6    5905    1580
 -13 -13  -6    3202    1510
 -13 -13   6    2761    1576
 -14 -14  -6    3903    1381
 -14 -14  -6    5035    1297
 -14 -14   6     652    1123
 -15 -15  -6     455    1102
 -15 -15   6    3015    1487
 -16 -16  -6    1491    1251
 -16 -16   6      35    1132
 -17 -17  -6     698    1634
  -1  -1  -7   74283    3605
   1   1  -7   75992    3409
   2   2  -7    1915     671
  -2  -2  -7    2058     949
   2   2   7    2588     988
  -2  -2   7    2555    1191
  -3  -3  -7    2354     506
   3   3  -7    2876     239
   3   3   7    1989     333
  -3  -3   7     997     567
   4   4   7    5573     777
  -4  -4  -7    3511     746
  -4  -4   7    4459     669
  -4  -4  -7    4521    1105
  -4  -4   7    4106    1134
  -5  -5  -7    2287    1163
  -5  -5   7    2966    1488
   5   5   7    2477     674
  -6  -6  -7     137     648
  -6  -6   7    1551    1033
  -6  -6  -7     258     200
  -7  -7  -7    1178     607
  -7  -7  -7     455     689
  -7  -7   7     701     752
  -8  -8   7    1787    1021
  -8  -8  -7    1062     615
  -8  -8  -7    2478     956
  -9  -9   7    3221    1259
  -9  -9  -7    4122    1009
  -9  -9  -7    4279    1014
 -10 -10  -7     706     739
 -10 -10  -7     831     659
 -10 -10   7    1034    1007
 -11 -11  -7     561     802
 -11 -11  -7     247     699
 -11 -11   7      95     641
 -12 -12  -7    3968    1073
 -12 -12  -7    4896    1303
 -12 -12   7    3535    1200
 -13 -13   7       2     702
 -13 -13  -7       2     833
 -13 -13  -7    1111     809
 -14 -14  -7    1320     870
 -14 -14  -7      62     994
 -14 -14   7     829     951
 -15 -15   7    2064    1099
 -15 -15  -7    2024    1012
 -15 -15  -7     471    1041
 -16 -16  -7     691     954
 -16 -16   7     482    1037
 -17 -17  -7      76    1466
   0   0  -8   41013    1855
   1   1  -8   99292    4132
  -1  -1  -8   94686    4331
   2   2  -8   76354    3101
  -2  -2   8   76342    4075
   2   2   8   76037    3536
  -2  -2  -8   66779    3403
  -3  -3  -8   94465    4857
  -3  -3   8   90113    5399
   3   3   8   92895    4462
   3   3  -8   91841    4040
  -4  -4   8   45824    3638
  -4  -4   8   44370    2694
   4   4   8   50205    2704
  -4  -4  -8   44252    3142
  -4  -4   8   43062    2443
   5   5   8   28130    1766
  -5  -5   8   25814    2770
  -5  -5  -8   24069    2339
  -5  -5  -8   19508    1934
  -6  -6   8   47852    3829
  -6  -6  -8   44832    3228
  -7  -7  -8   33518    2595
  -7  -7   8   30062    2966
  -8  -8  -8   31099    2202
  -8  -8  -8   34685    2484
  -8  -8   8   28452    2710
  -9  -9   8   24164    2920
  -9  -9  -8   22464    1808
  -9  -9  -8   24483    2410
 -10 -10   8   10170    2259
 -10 -10  -8   12291    1839
 -10 -10  -8   15720    2260
 -11 -11  -8    8539    1769
 -11 -11  -8    6864    1556
 -11 -11   8    5814    1782
 -12 -12  -8    2845    1179
 -12 -12   8    3647    1484
 -12 -12  -8    1555     861
 -13 -13   8    4375    1482
 -13 -13  -8    5185    1306
 -13 -13  -8    6557    1372
 -14 -14  -8    4066    1497
 -14 -14  -8    2853    1381
 -14 -14   8    2930    1568
 -15 -15   8    1821    1105
 -15 -15  -8     838    1107
 -15 -15  -8    3772    1327
 -16 -16  -8    2340    1382
   1   1  -9    6396    1024
  -1  -1  -9    5012    1100
  -2  -2   9    3668     845
  -2  -2  -9    4054     873
   2   2   9    3909     792
   2   2  -9    4123     630
   3   3  -9    1317     531
   3   3   9    2736     829
  -3  -3   9    1718     943
  -3  -3  -9     428     696
  -4  -4   9    9415    1313
  -4  -4   9    7410    1800
  -4  -4   9    7274    1074
   4   4   9    8245    1194
  -4  -4  -9    8410    1555
  -5  -5   9    3139    1098
  -5  -5  -9    4310    1029
  -6  -6  -9     624     379
  -6  -6   9     513     571
  -6  -6  -9     860     650
  -7  -7  -9    5410    1228
  -7  -7   9    7580    1635
  -8  -8   9     347    1238
  -8  -8  -9     194     426
  -8  -8  -9    1194    1297
  -9  -9  -9    1100    1020
  -9  -9   9     428     913
  -9  -9  -9     998     667
 -10 -10  -9    5013    1251
 -10 -10  -9    7524    1717
 -10 -10   9    6135    1796
 -11 -11   9     354     983
 -11 -11  -9    2496    1204
 -11 -11  -9      78     682
 -12 -12   9     147     763
 -12 -12  -9     157     826
 -12 -12  -9    1319     844
 -13 -13  -9      20     656
 -13 -13   9     781    1101
 -13 -13  -9     159     972
 -14 -14   9      45    1115
 -14 -14  -9     822    1117
 -14 -14  -9     601     883
 -15 -15   9     252    1011
 -15 -15  -9     858    1309
 -16 -16  -9       1    2526
   0   0 -10   82250    2077
  -1  -1 -10  123179    5983
   1   1 -10  124491    5768
   2   2 -10   86164    3657
  -2  -2 -10   83418    4121
   2   2  10   80528    4084
  -3  -3 -10   36511    2567
  -3  -3  10   33850    2834
   3   3 -10   33266    1871
   3   3  10   33976    2285
  -4  -4  10   27249    2794
   4   4  10   24580    1971
  -4  -4 -10   27909    2467
  -5  -5 -10   33024    2388
  -5  -5  10   29103    2964
  -6  -6  10   25059    3044
  -6  -6 -10   18228    2327
  -7  -7 -10   21619    2273
  -7  -7 -10   26260    2724
  -7  -7  10   25098    3088
  -8  -8  10   17813    3066
  -8  -8 -10   17920    2566
  -9  -9 -10   35778    3016
  -9  -9  10   25505    3526
 -10 -10 -10    4157    1258
 -10 -10 -10    3349     762
 -10 -10  10    5415    1405
 -11 -11 -10    5931    1695
 -11 -11 -10    5927    1732
 -11 -11  10    5790    2192
 -12 -12 -10    4529    1161
 -12 -12  10    2537    1143
 -12 -12 -10    1701     914
 -13 -13  10    2268    1255
 -13 -13 -10    2840    1287
 -14 -14 -10    4767    1401
 -14 -14  10    1773    1319
 -15 -15  10     656    1152
 -15 -15 -10    2224    1412
   1   1 -11    4363    1222
  -1  -1 -11    3684    1255
  -1  -1  11    2883    1311
   2   2 -11    3382     743
  -2  -2 -11    1610     724
  -2  -2  11    3261    1057
   2   2  11    2427     772
   3   3 -11   13632    1443
   3   3  11   12861    1766
  -3  -3  11   16063    2699
  -3  -3 -11   14076    1958
  -4  -4 -11   11965    2044
  -4  -4  11   11318    2347
  -5  -5  11    3556    1347
  -5  -5 -11    3537    1266
  -6  -6 -11    1290    1069
  -6  -6  11    1378    1098
  -7  -7 -11   25527    2477
  -7  -7  11   25597    3288
  -8  -8 -11   15866    2560
  -8  -8 -11    9853    1794
  -8  -8  11    8446    2443
  -9  -9 -11   15847    2408
  -9  -9  11   13636    2684
  -9  -9 -11   11726    1922
 -10 -10 -11     413    1090
 -10 -10 -11     516     552
 -10 -10  11      21     918
 -11 -11  11     961    1270
 -11 -11 -11     610    1028
 -12 -12 -11     852    1028
 -12 -12  11     406    1107
 -13 -13 -11     232     936
 -13 -13  11     226     923
 -14 -14 -11     977    1220
 -14 -14  11      39    1003
   0   0 -12   13296     391
   1   1  12   29236    3011
  -1  -1  12   28077    3098
  -1  -1 -12   32486    2774
   1   1 -12   29315    2511
   2   2 -12   39147    2359
  -2  -2  12   32455    2931
  -2  -2 -12   36137    2643
   2   2  12   35407    2697
  -3  -3  12   31124    2806
   3   3  12   28206    2280
  -3  -3 -12   34958    2564
  -4  -4  12   28817    2888
  -4  -4 -12   23539    2272
  -5  -5 -12   27591    2540
  -5  -5  12   26613    3335
  -6  -6  12   12053    2364
  -6  -6 -12   14945    2217
  -7  -7  12   39270    3531
  -7  -7 -12   36839    2999
  -8  -8  12    8957    2654
  -8  -8 -12   10146    2317
  -9  -9 -12    2772    1245
  -9  -9  12     843    1092
 -10 -10 -12    9831    2108
 -10 -10  12    4583    1866
 -11 -11  12     969    1145
 -11 -11 -12    2162    1188
 -12 -12 -12    3501    1331
 -13 -13  12    3671    1523
 -13 -13 -12    2818    1360
 -14 -14  12    1651    1674
 -14 -14 -12    3871    1448
   1   1 -13     243     607
   1   1  13     344     702
  -1  -1  13     361     788
  -1  -1 -13     510     815
   2   2  13     222     704
  -2  -2 -13     210     747
  -2  -2  13     234     722
  -3  -3 -13    5682    1439
  -3  -3  13    6174    1744
  -4  -4 -13    5916    1409
  -4  -4  13    6980    1676
  -5  -5  13     889    1258
  -5  -5 -13     470    1000
  -6  -6  13     948     902
  -6  -6 -13    2878    1236
  -7  -7  13    5421    1647
  -7  -7 -13    6656    1577
  -8  -8  13     941     910
  -8  -8 -13    1712    1030
  -9  -9  13    3907    1484
  -9  -9 -13     135     824
 -10 -10 -13     270     823
 -10 -10  13     267     958
 -11 -11 -13     181    1015
 -11 -11  13    1232    1243
 -12 -12  13     271    1102
 -12 -12 -13    2095    1295
 -13 -13  13      49    1193
 -13 -13 -13     547    1248
   1   1 -14   25610    2082
  -1  -1  14   26420    3145
   1   1  14   23734    2764
  -1  -1 -14   33752    2525
  -2  -2 -14   20777    2329
   2   2  14   22809    2880
  -2  -2  14   23664    3318
  -3  -3  14   14219    2416
  -3  -3 -14   17917    2207
  -4  -4  14   30246    3408
  -4  -4 -14   34033    2661
  -5  -5  14   21887    3202
  -5  -5 -14   19655    2615
  -6  -6  14   13213    2586
  -6  -6 -14   11022    2083
  -7  -7  14    4402    1283
  -7  -7 -14    5381    1340
  -8  -8 -14    8334    2090
  -8  -8  14    4816    1717
  -9  -9 -14    7021    2326
  -9  -9  14    7317    2667
 -10 -10 -14    6984    2017
 -10 -10  14    7237    2204
 -11 -11 -14    7624    1909
 -11 -11  14    4198    1953
 -12 -12  14    5856    2359
 -12 -12 -14    3823    1663
  -1  -1 -15   10192    1767
   1   1  15    9605    1961
  -2  -2 -15    5150    1681
  -2  -2  15    3735    1652
  -3  -3 -15     901     818
  -3  -3  15    1034     848
  -4  -4 -15     610     811
  -4  -4  15     370     985
  -5  -5 -15    1112     882
  -5  -5  15     758    1049
  -6  -6 -15    2732    1418
  -6  -6  15    1991    1356
  -7  -7 -15    1861     999
  -7  -7  15     522     945
  -8  -8 -15    1762    1246
  -8  -8  15     121     943
  -9  -9 -15     913    1247
  -9  -9  15      23    1099
 -10 -10 -15    1382    1445
 -10 -10  15     170    1256
 -11 -11  15      87    1287
 -12 -12  15    1342    2036
   0   0  16   12171    2346
  -1  -1  16    7496    1974
  -1  -1 -16   13549    2062
  -2  -2 -16   15729    2355
  -3  -3 -16   18877    2415
  -4  -4 -16   11583    2249
  -5  -5 -16    6978    1799
  -5  -5  16    6958    1946
  -6  -6 -16    7367    1665
  -6  -6  16    7115    2023
  -7  -7 -16    8632    2397
  -7  -7  16    6743    2277
  -8  -8 -16     692    1149
  -8  -8  16    7755    2019
  -9  -9  16    4033    1785
  -9  -9 -16      42    1185
 -10 -10  16    3545    2127
 -11 -11  16    2934    2410
  -1  -1  17     169    1047
  -2  -2 -17    1750    1092
  -2  -2  17      57    1071
  -3  -3 -17     273     809
  -4  -4 -17    1112    1112
  -5  -5 -17    1748    1043
  -6  -6 -17       4    1038
  -7  -7 -17     323    1228
  -8  -8 -17      25    1367
  -1  -1  18    8933    2140
  -2  -2  18    8342    2095
  -3  -3  18   23274    4531
  -4  -4  18   10411    2770
  -4  -4 -18   15246    2507
  -5  -5 -18    9193    2057
  -6  -6 -18    5081    2045
  -7  -7 -18     718    1576
  -2  -2  19       2    1468
  -3  -3  19     150    1450
  -4  -4 -19     382    1183
  -4  -4  19     810    1614
  -5  -5 -19    2135    1799
  -5  -5  19     174    1508
  -3  -3  20     620    3005
 -16 -18   0     762    1186
 -15 -17   0    2306    1352
 -14 -16   0    1586    1213
 -13 -15   0    9995    2518
 -12 -14   0      50     898
 -11 -13   0    6773    1961
 -10 -12   0   11347    1973
  -9 -11   0   21353    2318
  -9 -11   0   21025    1479
  -8 -10 