####################################################################### 
# 
# This file contains crystal structure data downloaded from the 
# Cambridge Structural Database (CSD) hosted by the Cambridge 
# Crystallographic Data Centre (CCDC).
# 
# Full information about CCDC data access policies and citation 
# guidelines are available at http://www.ccdc.cam.ac.uk/access/V1 
# 
# Audit and citation data items may have been added by the CCDC. 
# Please retain this information to preserve the provenance of 
# this file and to allow appropriate attribution of the data. 
# 
#######################################################################

data_AJOLAM
#This CIF has been generated from an entry in the Cambridge Structural Database
_database_code_depnum_ccdc_archive 'CCDC 1101996'
_database_code_CSD               AJOLAM
_audit_creation_method           'Created from the CSD'
_audit_update_record             
;
2024-07-08 downloaded from the CCDC.
;
_database_code_NBS               812024
_chemical_formula_moiety         '(C205 H180 O20 Sn10)n'
_chemical_name_systematic        
catena-(pentakis((\m~4~-Glutarato)-bis(triphenyl-tin)))
_chemical_absolute_configuration unk
_diffrn_ambient_temperature      293
_exptl_crystal_density_diffrn    1.31578
#These two values have been output from a single CSD field.
_refine_ls_R_factor_gt           0.0546
_refine_ls_wR_factor_gt          0.0546
_diffrn_radiation_probe          x-ray
_symmetry_cell_setting           orthorhombic
_symmetry_space_group_name_H-M   'C 2 2 21'
_symmetry_Int_Tables_number      20
_space_group_name_Hall           'C 2c 2'
loop_
_symmetry_equiv_pos_site_id
_symmetry_equiv_pos_as_xyz
1 x,y,z
2 -x,-y,1/2+z
3 x,-y,-z
4 -x,y,1/2-z
5 1/2+x,1/2+y,z
6 1/2-x,1/2-y,1/2+z
7 1/2+x,1/2-y,-z
8 1/2-x,1/2+y,1/2-z
_cell_length_a                   15.075(5)
_cell_length_b                   48.021(17)
_cell_length_c                   28.944(9)
_cell_angle_alpha                90
_cell_angle_beta                 90
_cell_angle_gamma                90
_cell_volume                     20953
_chemical_melting_point          '154-155 deg.C'
_cell_formula_units_Z            4
loop_
_atom_site_label
_atom_site_type_symbol
_atom_site_fract_x
_atom_site_fract_y
_atom_site_fract_z
Sn1 Sn 0.6834(1) 0.0780(1) 0.4442(1)
Sn2 Sn 0.8772(1) 0.1656(1) 0.3788(1)
Sn3 Sn 0.7496(1) 0.2635(1) 0.3027(1)
Sn4 Sn 1.1449(1) 0.1425(1) 0.6066(1)
Sn5 Sn 1.3271(1) 0.0831(1) 0.4731(1)
O1 O 0.7857(4) 0.1130(1) 0.4323(3)
O2 O 0.9201(4) 0.1315(2) 0.4236(3)
O3 O 0.8363(4) 0.2033(1) 0.3335(2)
O4 O 0.8194(5) 0.2291(1) 0.2701(2)
O5 O 1.1777(5) 0.1974(1) 0.6680(2)
O6 O 1.0826(5) 0.1628(2) 0.6665(2)
O7 O 1.1957(4) 0.1196(1) 0.5406(2)
O8 O 1.1905(4) 0.0984(2) 0.4736(2)
O9 O 0.5947(5) 0.0429(2) 0.4555(3)
O10 O 0.4731(4) 0.0678(2) 0.4671(3)
C1 C 0.8675(6) 0.1148(2) 0.4427(3)
C2 C 0.9036(7) 0.0973(30) 0.4833(4)
C3 C 1.0068(8) 0.0928(2) 0.4815(4)
C4 C 1.0657(6) 0.1197(2) 0.4972(4)
C5 C 1.1556(6) 0.1126(2) 0.5050(4)
C6 C 0.8552(6) 0.2091(2) 0.2922(3)
C7 C 0.9227(6) 0.1917(2) 0.2652(3)
C8 C 1.0000 0.2114(3) 0.2500
C9 C 1.1081(7) 0.1859(2) 0.6819(3)
C10 C 1.0409(7) 0.2005(2) 0.7144(4)
C11 C 1.0000 0.1811(3) 0.7500
C12 C 0.5124(8) 0.0449(2) 0.4646(4)
C13 C 0.4625(11) 0.0178(3) 0.4667(10)
C14 C 0.4986(18) -0.0062(7) 0.4679(11)
C15 C 0.6749(7) 0.0910(3) 0.5132(3)
C16 C 0.6490(10) 0.0720(4) 0.5489(5)
C17 C 0.6396(11) 0.0822(6) 0.5954(6)
C18 C 0.6531(13) 0.1109(7) 0.6036(8)
C19 C 0.6762(12) 0.1307(5) 0.5701(6)
C20 C 0.6881(8) 0.1192(3) 0.5261(5)
C21 C 0.7795(7) 0.0486(2) 0.4221(5)
C22 C 0.7947(10) 0.0241(3) 0.4464(7)
C23 C 0.8686(18) 0.0063(3) 0.4308(9)
C24 C 0.9140(16) 0.0142(5) 0.3901(10)
C25 C 0.8373(14) 0.1815(3) 0.4768(5)
C26 C 0.7820(16) 0.1949(5) 0.5142(6)
C27 C 0.7092(12) 0.2085(5) 0.5061(7)
C28 C 0.6774(10) 0.2106(4) 0.4605(6)
C29 C 0.7232(9) 0.1970(3) 0.4238(5)
C30 C 0.7456(8) 0.2834(2) 0.2362(3)
C31 C 0.7196(9) 0.2689(3) 0.1978(4)
C32 C 0.7102(11) 0.2811(4) 0.1547(4)
C33 C 0.7255(13) 0.3089(5) 0.1517(5)
C34 C 0.7566(14) 0.3256(4) 0.1906(6)
C35 C 0.7657(9) 0.3118(3) 0.2332(4)
C36 C 0.6384(7) 0.2383(2) 0.3229(4)
C37 C 0.6135(11) 0.2167(3) 0.2966(5)
C38 C 0.5411(13) 0.1998(5) 0.3073(7)
C39 C 0.4848(12) 0.2076(4) 0.3438(9)
C40 C 0.5074(11) 0.2299(4) 0.3714(7)
C41 C 0.5866(10) 0.2468(3) 0.3617(5)
C42 C 0.8560(8) 0.2734(3) 0.3465(5)
C43 C 0.9387(10) 0.2790(3) 0.3248(6)
C44 C 1.0140(12) 0.2847(4) 0.3580(12)
C45 C 0.9920(20) 0.2865(7) 0.4067(15)
C46 C 0.9200(20) 0.2774(7) 0.4227(12)
C47 C 0.8464(14) 0.2717(4) 0.3941(6)
C48 C 1.2707(7) 0.1357(3) 0.6382(4)
C49 C 1.2688(15) 0.1233(4) 0.6814(5)
C50 C 1.3593(18) 0.1208(5) 0.7034(6)
C51 C 1.4358(15) 0.1295(5) 0.6794(9)
C52 C 1.4313(12) 0.1420(5) 0.6364(9)
C53 C 1.3476(9) 0.1445(3) 0.6159(7)
C54 C 1.1144(8) 0.1770(2) 0.5624(3)
C55 C 1.1755(11) 0.1848(3) 0.5284(4)
C56 C 1.1547(17) 0.2067(4) 0.4966(6)
C57 C 1.0722(18) 0.2203(4) 0.5044(7)
C58 C 1.0158(15) 0.2123(4) 0.5388(8)
C59 C 1.0369(9) 0.1909(3) 0.5672(5)
C60 C 1.0483(7) 0.1104(2) 0.6149(4)
C61 C 0.9604(9) 0.1163(3) 0.6239(6)
C62 C 0.8959(11) 0.0943(5) 0.6248(7)
C63 C 0.9267(16) 0.0671(4) 0.6184(7)
C64 C 0.9022(13) 0.0391(4) 0.3667(8)
C65 C 0.8335(9) 0.0558(3) 0.3829(6)
C66 C 0.6092(7) 0.0956(2) 0.3883(4)
C67 C 0.6029(9) 0.0796(3) 0.3486(4)
C68 C 0.5564(11) 0.0887(4) 0.3103(6)
C69 C 0.5084(11) 0.1118(6) 0.3157(6)
C70 C 0.5124(11) 0.1288(4) 0.3545(7)
C71 C 0.5657(9) 0.1202(3) 0.3922(5)
C72 C 1.0155(6) 0.1778(2) 0.3734(3)
C73 C 1.0380(8) 0.2059(2) 0.3729(4)
C74 C 1.1270(10) 0.2126(4) 0.3650(5)
C75 C 1.1889(10) 0.1935(5) 0.3582(5)
C76 C 1.1663(11) 0.1643(4) 0.3591(5)
C77 C 1.0779(7) 0.1571(3) 0.3687(4)
C78 C 0.8283(8) 0.1399(3) 0.3247(3)
C79 C 0.8843(13) 0.1182(3) 0.3073(5)
C80 C 0.8513(18) 0.1037(4) 0.2650(8)
C81 C 0.7720(20) 0.1116(5) 0.2466(7)
C82 C 0.7207(14) 0.1323(5) 0.2633(7)
C83 C 0.7486(9) 0.1468(3) 0.3029(5)
C84 C 0.8032(7) 0.1844(2) 0.4334(3)
C85 C 1.0124(14) 0.0606(3) 0.6096(7)
C86 C 1.0745(9) 0.0829(3) 0.6071(5)
C87 C 1.3809(7) 0.1238(2) 0.4739(4)
C88 C 1.3360(8) 0.1443(3) 0.4494(4)
C89 C 1.3691(10) 0.1724(3) 0.4471(5)
C90 C 1.4420(12) 0.1795(3) 0.4732(6)
C91 C 1.4912(10) 0.1593(3) 0.4990(6)
C92 C 1.4551(8) 0.1309(3) 0.5009(5)
C93 C 1.3124(9) 0.0597(2) 0.5350(4)
C94 C 1.3559(14) 0.0672(4) 0.5741(5)
C95 C 1.3372(20) 0.0472(7) 0.6147(7)
C96 C 1.2770(20) 0.0248(6) 0.6106(11)
C97 C 1.2388(19) 0.0208(4) 0.5736(8)
C98 C 1.2488(11) 0.0374(3) 0.5353(6)
C99 C 1.2975(9) 0.0654(2) 0.4075(4)
C100 C 1.2085(8) 0.0580(3) 0.3969(5)
C101 C 1.1863(11) 0.0463(3) 0.3526(6)
C102 C 1.2563(13) 0.0422(3) 0.3196(5)
C103 C 1.3400(14) 0.0495(3) 0.3307(5)
C104 C 1.3615(9) 0.0612(3) 0.3738(4)
O3 O 1.1637(4) 0.2033(1) 0.1665(2)
O4 O 1.1806(5) 0.2291(1) 0.2299(2)
C6 C 1.1448(6) 0.2091(2) 0.2078(3)
C7 C 1.0773(6) 0.1917(2) 0.2348(3)
O5 O 0.8223(5) 0.1974(1) 0.8320(2)
O6 O 0.9174(5) 0.1628(2) 0.8335(2)
C9 C 0.8919(7) 0.1859(2) 0.8181(3)
C10 C 0.9591(7) 0.2005(2) 0.7856(4)
Sn1 Sn 1.3166(1) 0.0780(1) 0.0558(1)
Sn2 Sn 1.1228(1) 0.1656(1) 0.1212(1)
Sn3 Sn 1.2504(1) 0.2635(1) 0.1973(1)
Sn4 Sn 0.8551(1) 0.1425(1) -0.1066(1)
Sn5 Sn 0.6729(1) 0.0831(1) 0.0269(1)
O1 O 1.2143(4) 0.1130(1) 0.0677(3)
O2 O 1.0799(4) 0.1315(2) 0.0764(3)
O7 O 0.8043(4) 0.1196(1) -0.0406(2)
O8 O 0.8095(4) 0.0984(2) 0.0264(2)
O9 O 1.4053(5) 0.0429(2) 0.0445(3)
O10 O 1.5269(4) 0.0678(2) 0.0329(3)
C1 C 1.1325(6) 0.1148(2) 0.0573(3)
C2 C 1.0964(7) 0.0973(30) 0.0167(4)
C3 C 0.9932(8) 0.0928(2) 0.0185(4)
C4 C 0.9343(6) 0.1197(2) 0.0028(4)
C5 C 0.8444(6) 0.1126(2) -0.0050(4)
C12 C 1.4876(8) 0.0449(2) 0.0354(4)
C13 C 1.5375(11) 0.0178(3) 0.0333(10)
C14 C 1.5014(18) -0.0062(7) 0.0321(11)
C15 C 1.3251(7) 0.0910(3) -0.0132(3)
C16 C 1.3510(10) 0.0720(4) -0.0489(5)
C17 C 1.3604(11) 0.0822(6) -0.0954(6)
C18 C 1.3469(13) 0.1109(7) -0.1036(8)
C19 C 1.3238(12) 0.1307(5) -0.0701(6)
C20 C 1.3119(8) 0.1192(3) -0.0261(5)
C21 C 1.2205(7) 0.0486(2) 0.0779(5)
C22 C 1.2053(10) 0.0241(3) 0.0536(7)
C23 C 1.1314(18) 0.0063(3) 0.0692(9)
C24 C 1.0860(16) 0.0142(5) 0.1099(10)
C25 C 1.1627(14) 0.1815(3) 0.0232(5)
C26 C 1.2180(16) 0.1949(5) -0.0142(6)
C27 C 1.2908(12) 0.2085(5) -0.0061(7)
C28 C 1.3226(10) 0.2106(4) 0.0395(6)
C29 C 1.2768(9) 0.1970(3) 0.0762(5)
C30 C 1.2544(8) 0.2834(2) 0.2638(3)
C31 C 1.2804(9) 0.2689(3) 0.3022(4)
C32 C 1.2898(11) 0.2811(4) 0.3453(4)
C33 C 1.2745(13) 0.3089(5) 0.3483(5)
C34 C 1.2434(14) 0.3256(4) 0.3094(6)
C35 C 1.2343(9) 0.3118(3) 0.2668(4)
C36 C 1.3616(7) 0.2383(2) 0.1771(4)
C37 C 1.3865(11) 0.2167(3) 0.2034(5)
C38 C 1.4589(13) 0.1998(5) 0.1927(7)
C39 C 1.5152(12) 0.2076(4) 0.1562(9)
C40 C 1.4926(11) 0.2299(4) 0.1286(7)
C41 C 1.4134(10) 0.2468(3) 0.1383(5)
C42 C 1.1440(8) 0.2734(3) 0.1535(5)
C43 C 1.0613(10) 0.2790(3) 0.1752(6)
C44 C 0.9860(12) 0.2847(4) 0.1420(12)
C45 C 1.0080(20) 0.2865(7) 0.0933(15)
C46 C 1.0800(20) 0.2774(7) 0.0773(12)
C47 C 1.1536(14) 0.2717(4) 0.1059(6)
C48 C 0.7293(7) 0.1357(3) -0.1382(4)
C49 C 0.7312(15) 0.1233(4) -0.1814(5)
C50 C 0.6407(18) 0.1208(5) -0.2034(6)
C51 C 0.5642(15) 0.1295(5) -0.1794(9)
C52 C 0.5687(12) 0.1420(5) -0.1364(9)
C53 C 0.6524(9) 0.1445(3) -0.1159(7)
C54 C 0.8856(8) 0.1770(2) -0.0624(3)
C55 C 0.8245(11) 0.1848(3) -0.0284(4)
C56 C 0.8453(17) 0.2067(4) 0.0034(6)
C57 C 0.9278(18) 0.2203(4) -0.0044(7)
C58 C 0.9842(15) 0.2123(4) -0.0388(8)
C59 C 0.9631(9) 0.1909(3) -0.0672(5)
C60 C 0.9517(7) 0.1104(2) -0.1149(4)
C61 C 1.0396(9) 0.1163(3) -0.1239(6)
C62 C 1.1041(11) 0.0943(5) -0.1248(7)
C63 C 1.0733(16) 0.0671(4) -0.1184(7)
C64 C 1.0978(13) 0.0391(4) 0.1333(8)
C65 C 1.1665(9) 0.0558(3) 0.1171(6)
C66 C 1.3908(7) 0.0956(2) 0.1117(4)
C67 C 1.3971(9) 0.0796(3) 0.1514(4)
C68 C 1.4436(11) 0.0887(4) 0.1897(6)
C69 C 1.4916(11) 0.1118(6) 0.1843(6)
C70 C 1.4876(11) 0.1288(4) 0.1455(7)
C71 C 1.4343(9) 0.1202(3) 0.1078(5)
C72 C 0.9845(6) 0.1778(2) 0.1266(3)
C73 C 0.9620(8) 0.2059(2) 0.1271(4)
C74 C 0.8730(10) 0.2126(4) 0.1350(5)
C75 C 0.8111(10) 0.1935(5) 0.1418(5)
C76 C 0.8337(11) 0.1643(4) 0.1409(5)
C77 C 0.9221(7) 0.1571(3) 0.1313(4)
C78 C 1.1717(8) 0.1399(3) 0.1753(3)
C79 C 1.1157(13) 0.1182(3) 0.1927(5)
C80 C 1.1487(18) 0.1037(4) 0.2350(8)
C81 C 1.2280(20) 0.1116(5) 0.2534(7)
C82 C 1.2793(14) 0.1323(5) 0.2367(7)
C83 C 1.2514(9) 0.1468(3) 0.1971(5)
C84 C 1.1968(7) 0.1844(2) 0.0666(3)
C85 C 0.9876(14) 0.0606(3) -0.1096(7)
C86 C 0.9255(9) 0.0829(3) -0.1071(5)
C87 C 0.6191(7) 0.1238(2) 0.0261(4)
C88 C 0.6640(8) 0.1443(3) 0.0506(4)
C89 C 0.6309(10) 0.1724(3) 0.0529(5)
C90 C 0.5580(12) 0.1795(3) 0.0268(6)
C91 C 0.5088(10) 0.1593(3) 0.0010(6)
C92 C 0.5449(8) 0.1309(3) -0.0009(5)
C93 C 0.6876(9) 0.0597(2) -0.0350(4)
C94 C 0.6441(14) 0.0672(4) -0.0741(5)
C95 C 0.6628(20) 0.0472(7) -0.1147(7)
C96 C 0.7230(20) 0.0248(6) -0.1106(11)
C97 C 0.7612(19) 0.0208(4) -0.0736(8)
C98 C 0.7512(11) 0.0374(3) -0.0353(6)
C99 C 0.7025(9) 0.0654(2) 0.0925(4)
C100 C 0.7915(8) 0.0580(3) 0.1031(5)
C101 C 0.8137(11) 0.0463(3) 0.1474(6)
C102 C 0.7437(13) 0.0422(3) 0.1804(5)
C103 C 0.6600(14) 0.0495(3) 0.1693(5)
C104 C 0.6385(9) 0.0612(3) 0.1262(4)
Sn3 Sn 0.7504(1) 0.2365(1) 0.8027(1)
Sn3 Sn 1.2496(1) 0.2365(1) 0.6973(1)
Sn4 Sn 0.8551(1) 0.1425(1) 0.8934(1)
Sn5 Sn 0.3271(1) 0.0831(1) 0.4731(1)
Sn5 Sn 1.6729(1) 0.0831(1) 0.0269(1)
O5 O 1.3223(5) 0.3026(1) 0.1680(2)
O5 O 0.6777(5) 0.3026(1) 0.3320(2)
O6 O 0.9174(5) 0.1628(2) -0.1665(2)
O10 O 1.4731(4) 0.0678(2) 0.4671(3)
O10 O 0.5269(4) 0.0678(2) 0.0329(3)

#END
