####################################################################### 
# 
# This file contains crystal structure data downloaded from the 
# Cambridge Structural Database (CSD) hosted by the Cambridge 
# Crystallographic Data Centre (CCDC).
# 
# Full information about CCDC data access policies and citation 
# guidelines are available at http://www.ccdc.cam.ac.uk/access/V1 
# 
# Audit and citation data items may have been added by the CCDC. 
# Please retain this information to preserve the provenance of 
# this file and to allow appropriate attribution of the data. 
# 
#######################################################################

data_010614b
_audit_block_doi                 10.5517/cc61bg0
_database_code_depnum_ccdc_archive 'CCDC 180031'
_audit_update_record             
;
2002-02-21 deposited with the CCDC.	2024-07-08 downloaded from the CCDC.
;
#pub_requested_journal    Journal of Polish Chemistry
#Name of contact person   Dr. Handong Yin
#Address of contact person:
#Department of Chemistry
#Liaocheng University
#Shandong Liaocheng 252059, P.R. China
#E-mail address of contact person:   wdq69@263.net

#This is a private communication. 

_audit_creation_method           SHELXL-97
_chemical_name_systematic        
; 
? 
;
_chemical_name_common            ?
_chemical_melting_point          ?
_chemical_formula_moiety         ?
_chemical_formula_sum            'C102.50 H90 O10 Sn5'
_chemical_formula_weight         2075.20

loop_
_atom_type_symbol
_atom_type_description
_atom_type_scat_dispersion_real
_atom_type_scat_dispersion_imag
_atom_type_scat_source
C C 0.0033 0.0016 'International Tables Vol C Tables 4.2.6.8 and 6.1.1.4'
H H 0.0000 0.0000 'International Tables Vol C Tables 4.2.6.8 and 6.1.1.4'
O O 0.0106 0.0060 'International Tables Vol C Tables 4.2.6.8 and 6.1.1.4'
Sn Sn -0.6537 1.4246 'International Tables Vol C Tables 4.2.6.8 and 6.1.1.4'

_symmetry_cell_setting           Orthorhombic
_symmetry_space_group_name_H-M   C222(1)

loop_
_symmetry_equiv_pos_as_xyz
'x, y, z'
'-x, -y, z+1/2'
'-x, y, -z+1/2'
'x, -y, -z'
'x+1/2, y+1/2, z'
'-x+1/2, -y+1/2, z+1/2'
'-x+1/2, y+1/2, -z+1/2'
'x+1/2, -y+1/2, -z'

_cell_length_a                   15.075(5)
_cell_length_b                   48.021(17)
_cell_length_c                   28.944(9)
_cell_angle_alpha                90.00
_cell_angle_beta                 90.00
_cell_angle_gamma                90.00
_cell_volume                     20953(12)
_cell_formula_units_Z            8
_cell_measurement_temperature    301(2)
_cell_measurement_reflns_used    14283
_cell_measurement_theta_min      2.919
_cell_measurement_theta_max      22.462

_exptl_crystal_description       ?
_exptl_crystal_colour            ?
_exptl_crystal_size_max          0.60
_exptl_crystal_size_mid          0.50
_exptl_crystal_size_min          0.40
_exptl_crystal_density_meas      ?
_exptl_crystal_density_diffrn    1.316
_exptl_crystal_density_method    'not measured'
_exptl_crystal_F_000             8280
_exptl_absorpt_coefficient_mu    1.226
_exptl_absorpt_correction_type   multi-scan
_exptl_absorpt_correction_T_min  0.5266
_exptl_absorpt_correction_T_max  0.6398
_exptl_absorpt_process_details   sadabs

_exptl_special_details           
; 
? 
;

_diffrn_ambient_temperature      301(2)
_diffrn_radiation_wavelength     0.71073
_diffrn_radiation_type           MoK\a
_diffrn_radiation_source         'fine-focus sealed tube'
_diffrn_radiation_monochromator  graphite
_diffrn_measurement_device_type  'CCD area detector'
_diffrn_measurement_method       'phi and omega scans'
_diffrn_detector_area_resol_mean ?
_diffrn_standards_number         ?
_diffrn_standards_interval_count ?
_diffrn_standards_interval_time  ?
_diffrn_standards_decay_%        ?
_diffrn_reflns_number            54725
_diffrn_reflns_av_R_equivalents  0.0607
_diffrn_reflns_av_sigmaI/netI    0.0773
_diffrn_reflns_limit_h_min       -12
_diffrn_reflns_limit_h_max       17
_diffrn_reflns_limit_k_min       -57
_diffrn_reflns_limit_k_max       52
_diffrn_reflns_limit_l_min       -34
_diffrn_reflns_limit_l_max       32
_diffrn_reflns_theta_min         1.86
_diffrn_reflns_theta_max         25.03
_reflns_number_total             18445
_reflns_number_gt                13232
_reflns_threshold_expression     >2sigma(I)

_computing_data_collection       'Bruker SMART'
_computing_cell_refinement       'Bruker SMART'
_computing_data_reduction        'Bruker SHELXTL'
_computing_structure_solution    'SHELXS-97 (Sheldrick, 1990)'
_computing_structure_refinement  'SHELXL-97 (Sheldrick, 1997)'
_computing_molecular_graphics    'Bruker SHELXTL'
_computing_publication_material  'Bruker SHELXTL'

_refine_special_details          
; 
Refinement of F^2^ against ALL reflections.  The weighted R-factor wR and 
goodness of fit S are based on F^2^, conventional R-factors R are based 
on F, with F set to zero for negative F^2^. The threshold expression of 
F^2^ > 2sigma(F^2^) is used only for calculating R-factors(gt) etc. and is 
not relevant to the choice of reflections for refinement.  R-factors based 
on F^2^ are statistically about twice as large as those based on F, and R- 
factors based on ALL data will be even larger. 
;

_refine_ls_structure_factor_coef Fsqd
_refine_ls_matrix_type           full
_refine_ls_weighting_scheme      calc
_refine_ls_weighting_details     
'calc w=1/[\s^2^(Fo^2^)+(0.0556P)^2^+46.1272P] where P=(Fo^2^+2Fc^2^)/3'
_atom_sites_solution_primary     direct
_atom_sites_solution_secondary   difmap
_atom_sites_solution_hydrogens   geom
_refine_ls_hydrogen_treatment    mixed
_refine_ls_extinction_method     none
_refine_ls_extinction_coef       ?
_refine_ls_abs_structure_details 'Flack H D (1983), Acta Cryst. A39, 876-881'
_refine_ls_abs_structure_Flack   -0.06(3)
_refine_ls_number_reflns         18445
_refine_ls_number_parameters     1064
_refine_ls_number_restraints     0
_refine_ls_R_factor_all          0.1019
_refine_ls_R_factor_gt           0.0638
_refine_ls_wR_factor_ref         0.1387
_refine_ls_wR_factor_gt          0.1234
_refine_ls_goodness_of_fit_ref   1.114
_refine_ls_restrained_S_all      1.114
_refine_ls_shift/su_max          0.001
_refine_ls_shift/su_mean         0.000

loop_
_atom_site_label
_atom_site_type_symbol
_atom_site_fract_x
_atom_site_fract_y
_atom_site_fract_z
_atom_site_U_iso_or_equiv
_atom_site_adp_type
_atom_site_occupancy
_atom_site_symmetry_multiplicity
_atom_site_calc_flag
_atom_site_refinement_flags
_atom_site_disorder_assembly
_atom_site_disorder_group
Sn1 Sn 0.68344(4) 0.077967(15) 0.44417(2) 0.04940(19) Uani 1 1 d . . .
Sn2 Sn 0.87715(4) 0.165584(15) 0.37882(2) 0.04876(19) Uani 1 1 d . . .
Sn3 Sn 0.74955(5) 0.263500(15) 0.30270(2) 0.04726(18) Uani 1 1 d . . .
Sn4 Sn 0.64494(5) 0.357485(15) 0.39344(2) 0.05022(19) Uani 1 1 d . . .
Sn5 Sn 0.82713(5) 0.416922(16) 0.52690(3) 0.0539(2) Uani 1 1 d . . .
O1 O 0.7857(4) 0.11298(14) 0.4323(3) 0.0558(19) Uani 1 1 d . . .
O2 O 0.9201(4) 0.13152(15) 0.4236(3) 0.060(2) Uani 1 1 d . . .
O3 O 0.8363(4) 0.20330(14) 0.3335(2) 0.0520(17) Uani 1 1 d . . .
O4 O 0.8194(5) 0.22910(13) 0.2701(2) 0.0537(18) Uani 1 1 d . . .
O5 O 0.6777(5) 0.30260(14) 0.3320(2) 0.0525(17) Uani 1 1 d . . .
O6 O 0.5826(5) 0.33718(15) 0.3335(2) 0.0584(19) Uani 1 1 d . . .
O7 O 0.6957(4) 0.38039(14) 0.4594(2) 0.0499(17) Uani 1 1 d . . .
O8 O 0.6905(4) 0.40157(15) 0.5264(2) 0.0594(19) Uani 1 1 d . . .
O9 O 0.5947(5) 0.04291(15) 0.4555(3) 0.064(2) Uani 1 1 d . . .
O10 O 0.9731(4) 0.43218(15) 0.5329(3) 0.0608(19) Uani 1 1 d . . .
C1 C 0.8675(6) 0.11478(19) 0.4427(3) 0.044(2) Uani 1 1 d . . .
C2 C 0.9036(7) 0.0973(3) 0.4833(4) 0.066(3) Uani 1 1 d . . .
C3 C 0.5068(8) 0.4072(2) 0.5185(4) 0.067(3) Uani 1 1 d . . .
C4 C 0.5575(6) 0.3803(2) 0.5028(4) 0.050(3) Uani 1 1 d . . .
C5 C 0.6556(6) 0.3874(2) 0.4950(4) 0.049(3) Uani 1 1 d . . .
C6 C 0.8552(6) 0.2091(2) 0.2922(3) 0.044(2) Uani 1 1 d . . .
C7 C 0.9227(6) 0.1917(2) 0.2652(3) 0.047(2) Uani 1 1 d . . .
C8 C 1.0000 0.2114(3) 0.2500 0.044(3) Uani 1 2 d S . .
C9 C 0.6081(7) 0.3141(2) 0.3181(3) 0.046(2) Uani 1 1 d . . .
C10 C 0.5439(7) 0.2995(2) 0.2856(4) 0.052(3) Uani 1 1 d . . .
C11 C 0.5000 0.3189(3) 0.2500 0.047(4) Uani 1 2 d S . .
C12 C 0.5124(8) 0.0449(2) 0.4646(4) 0.064(3) Uani 1 1 d . . .
C13 C 0.4625(11) 0.0178(3) 0.4667(10) 0.191(13) Uani 1 1 d . . .
C14 C 0.4987(18) -0.0062(7) 0.4679(11) 0.100(11) Uani 0.50 1 d P . .
C15 C 0.6749(7) 0.0910(3) 0.5132(3) 0.057(3) Uani 1 1 d . . .
C16 C 0.6490(10) 0.0720(4) 0.5489(5) 0.107(5) Uani 1 1 d . . .
C17 C 0.6396(11) 0.0822(6) 0.5954(6) 0.138(8) Uani 1 1 d . . .
C18 C 0.6531(13) 0.1109(7) 0.6036(8) 0.158(11) Uani 1 1 d . . .
C19 C 0.6762(12) 0.1307(5) 0.5701(6) 0.129(8) Uani 1 1 d . . .
C20 C 0.6881(8) 0.1192(3) 0.5261(5) 0.084(4) Uani 1 1 d . . .
C21 C 0.7795(7) 0.0486(2) 0.4221(5) 0.063(3) Uani 1 1 d . . .
C22 C 0.7947(10) 0.0241(3) 0.4464(7) 0.114(6) Uani 1 1 d . . .
C23 C 0.8686(18) 0.0063(3) 0.4308(9) 0.177(10) Uani 1 1 d . . .
C24 C 0.9140(16) 0.0142(5) 0.3901(10) 0.206(13) Uani 1 1 d . . .
C25 C 0.9022(13) 0.0391(4) 0.3667(8) 0.154(9) Uani 1 1 d . . .
C26 C 0.8335(9) 0.0558(3) 0.3829(6) 0.099(5) Uani 1 1 d . . .
C27 C 0.6092(7) 0.0956(2) 0.3883(4) 0.054(3) Uani 1 1 d . . .
C28 C 0.6029(9) 0.0796(3) 0.3486(4) 0.082(4) Uani 1 1 d . . .
C29 C 0.5563(11) 0.0887(4) 0.3103(6) 0.114(6) Uani 1 1 d . . .
C30 C 0.5084(11) 0.1118(6) 0.3157(6) 0.133(8) Uani 1 1 d . . .
C31 C 0.5124(11) 0.1288(4) 0.3545(7) 0.120(6) Uani 1 1 d . . .
C32 C 0.5657(9) 0.1202(3) 0.3922(5) 0.084(4) Uani 1 1 d . . .
C33 C 1.0155(6) 0.1778(2) 0.3734(3) 0.050(3) Uani 1 1 d . . .
C34 C 1.0380(8) 0.2059(2) 0.3729(4) 0.072(4) Uani 1 1 d . . .
C35 C 1.1270(10) 0.2126(4) 0.3650(5) 0.093(5) Uani 1 1 d . . .
C36 C 1.1889(10) 0.1935(5) 0.3582(5) 0.114(7) Uani 1 1 d . . .
C37 C 1.1663(11) 0.1643(4) 0.3591(5) 0.105(5) Uani 1 1 d . . .
C38 C 1.0779(7) 0.1571(3) 0.3687(4) 0.075(4) Uani 1 1 d . . .
C39 C 0.8283(8) 0.1399(3) 0.3247(3) 0.064(3) Uani 1 1 d . . .
C40 C 0.8843(13) 0.1182(3) 0.3073(5) 0.111(6) Uani 1 1 d . . .
C41 C 0.8513(18) 0.1037(4) 0.2650(8) 0.137(7) Uani 1 1 d . . .
C42 C 0.772(2) 0.1116(5) 0.2466(7) 0.143(9) Uani 1 1 d . . .
C43 C 0.7207(14) 0.1323(5) 0.2633(7) 0.130(7) Uani 1 1 d . . .
C44 C 0.7486(9) 0.1468(3) 0.3029(5) 0.086(4) Uani 1 1 d . . .
C45 C 0.8032(7) 0.1844(2) 0.4334(3) 0.056(3) Uani 1 1 d . . .
C46 C 0.8373(14) 0.1815(3) 0.4768(5) 0.118(6) Uani 1 1 d . . .
C47 C 0.7820(16) 0.1949(5) 0.5142(6) 0.145(8) Uani 1 1 d . . .
C48 C 0.7092(12) 0.2085(5) 0.5061(7) 0.121(7) Uani 1 1 d . . .
C49 C 0.6774(10) 0.2106(4) 0.4605(6) 0.115(6) Uani 1 1 d . . .
C50 C 0.7232(9) 0.1970(3) 0.4238(5) 0.093(5) Uani 1 1 d . . .
C51 C 0.7456(8) 0.2834(2) 0.2362(3) 0.055(3) Uani 1 1 d . . .
C52 C 0.7196(9) 0.2689(3) 0.1978(4) 0.085(4) Uani 1 1 d . . .
C53 C 0.7102(11) 0.2811(4) 0.1547(4) 0.096(5) Uani 1 1 d . . .
C54 C 0.7255(13) 0.3089(5) 0.1517(5) 0.126(7) Uani 1 1 d . . .
C55 C 0.7566(14) 0.3256(4) 0.1906(6) 0.126(6) Uani 1 1 d . . .
C56 C 0.7657(9) 0.3118(3) 0.2332(4) 0.084(4) Uani 1 1 d . . .
C57 C 0.6384(7) 0.2383(2) 0.3229(4) 0.055(3) Uani 1 1 d . . .
C58 C 0.6135(11) 0.2167(3) 0.2966(5) 0.099(5) Uani 1 1 d . . .
C59 C 0.5411(13) 0.1998(5) 0.3073(7) 0.130(7) Uani 1 1 d . . .
C60 C 0.4848(12) 0.2076(4) 0.3438(9) 0.128(7) Uani 1 1 d . . .
C61 C 0.5074(11) 0.2299(4) 0.3714(7) 0.118(7) Uani 1 1 d . . .
C62 C 0.5866(10) 0.2468(3) 0.3617(5) 0.091(5) Uani 1 1 d . . .
C63 C 0.8560(8) 0.2734(3) 0.3465(5) 0.073(3) Uani 1 1 d . . .
C64 C 0.9387(10) 0.2790(3) 0.3248(6) 0.104(5) Uani 1 1 d . . .
C65 C 1.0140(12) 0.2847(4) 0.3580(12) 0.161(11) Uani 1 1 d . . .
C66 C 0.992(2) 0.2865(7) 0.4067(15) 0.195(19) Uani 1 1 d . . .
C67 C 0.920(2) 0.2774(7) 0.4227(12) 0.198(16) Uani 1 1 d . . .
C68 C 0.8464(14) 0.2717(4) 0.3941(6) 0.131(7) Uani 1 1 d . . .
C69 C 0.7707(7) 0.3643(3) 0.3618(4) 0.069(3) Uani 1 1 d . . .
C70 C 0.7688(15) 0.3767(4) 0.3186(5) 0.146(8) Uani 1 1 d . . .
C71 C 0.8593(18) 0.3792(5) 0.2966(6) 0.146(8) Uani 1 1 d . . .
C72 C 0.9358(15) 0.3705(5) 0.3206(9) 0.136(7) Uani 1 1 d . . .
C73 C 0.9313(12) 0.3580(5) 0.3636(9) 0.148(8) Uani 1 1 d . . .
C74 C 0.8476(9) 0.3555(3) 0.3841(7) 0.118(6) Uani 1 1 d . . .
C75 C 0.6144(8) 0.3230(2) 0.4376(3) 0.057(3) Uani 1 1 d . . .
C76 C 0.6755(11) 0.3152(3) 0.4716(4) 0.095(5) Uani 1 1 d . . .
C77 C 0.6547(17) 0.2933(4) 0.5034(6) 0.135(7) Uani 1 1 d . . .
C78 C 0.5722(18) 0.2797(4) 0.4956(7) 0.120(7) Uani 1 1 d . . .
C79 C 0.5158(15) 0.2877(4) 0.4612(8) 0.132(7) Uani 1 1 d . . .
C80 C 0.5369(9) 0.3091(3) 0.4328(5) 0.083(4) Uani 1 1 d . . .
C81 C 0.5483(7) 0.3896(2) 0.3851(4) 0.054(3) Uani 1 1 d . . .
C82 C 0.4604(9) 0.3837(3) 0.3760(6) 0.098(5) Uani 1 1 d . . .
C83 C 0.3959(11) 0.4057(5) 0.3752(7) 0.132(7) Uani 1 1 d . . .
C84 C 0.4267(16) 0.4329(4) 0.3816(7) 0.134(7) Uani 1 1 d . . .
C85 C 0.5124(14) 0.4394(3) 0.3904(7) 0.118(6) Uani 1 1 d . . .
C86 C 0.5745(9) 0.4171(3) 0.3929(5) 0.085(4) Uani 1 1 d . . .
C87 C 0.8809(7) 0.3762(2) 0.5261(4) 0.056(3) Uani 1 1 d . . .
C88 C 0.8360(8) 0.3557(3) 0.5506(4) 0.071(3) Uani 1 1 d . . .
C89 C 0.8691(10) 0.3276(3) 0.5529(5) 0.085(4) Uani 1 1 d . . .
C90 C 0.9420(12) 0.3205(3) 0.5268(6) 0.098(5) Uani 1 1 d . . .
C91 C 0.9912(10) 0.3407(3) 0.5010(6) 0.091(4) Uani 1 1 d . . .
C92 C 0.9551(8) 0.3691(3) 0.4991(5) 0.082(4) Uani 1 1 d . . .
C93 C 0.8124(9) 0.4403(2) 0.4650(4) 0.072(4) Uani 1 1 d . . .
C94 C 0.8559(14) 0.4328(4) 0.4259(5) 0.130(7) Uani 1 1 d . . .
C95 C 0.837(2) 0.4528(7) 0.3853(7) 0.185(11) Uani 1 1 d . . .
C96 C 0.777(2) 0.4752(6) 0.3894(11) 0.175(13) Uani 1 1 d . . .
C97 C 0.7388(19) 0.4792(4) 0.4264(8) 0.138(9) Uani 1 1 d . . .
C98 C 0.7488(11) 0.4626(3) 0.4647(6) 0.104(5) Uani 1 1 d . . .
C99 C 0.7975(9) 0.4346(2) 0.5925(4) 0.066(3) Uani 1 1 d . . .
C100 C 0.7085(8) 0.4420(3) 0.6031(5) 0.080(4) Uani 1 1 d . . .
C101 C 0.6863(11) 0.4537(3) 0.6474(6) 0.102(5) Uani 1 1 d . . .
C102 C 0.7563(13) 0.4578(3) 0.6804(5) 0.095(4) Uani 1 1 d . . .
C103 C 0.8400(14) 0.4505(3) 0.6693(5) 0.109(5) Uani 1 1 d . . .
C104 C 0.8615(9) 0.4388(3) 0.6262(4) 0.081(4) Uani 1 1 d . . .

loop_
_atom_site_aniso_label
_atom_site_aniso_U_11
_atom_site_aniso_U_22
_atom_site_aniso_U_33
_atom_site_aniso_U_23
_atom_site_aniso_U_13
_atom_site_aniso_U_12
Sn1 0.0346(4) 0.0536(4) 0.0600(4) 0.0059(4) -0.0007(3) 0.0027(3)
Sn2 0.0390(4) 0.0587(5) 0.0486(4) 0.0116(3) -0.0013(3) -0.0023(3)
Sn3 0.0457(4) 0.0546(4) 0.0415(3) 0.0056(3) -0.0014(3) 0.0092(3)
Sn4 0.0441(4) 0.0552(4) 0.0514(4) -0.0058(3) -0.0034(3) 0.0077(3)
Sn5 0.0384(4) 0.0640(5) 0.0593(4) -0.0038(4) -0.0011(4) 0.0025(4)
O1 0.038(4) 0.051(4) 0.078(5) 0.005(4) -0.016(4) 0.002(3)
O2 0.033(4) 0.071(5) 0.075(5) 0.035(4) -0.006(4) -0.014(3)
O3 0.047(4) 0.068(5) 0.040(4) 0.007(3) 0.002(3) 0.009(3)
O4 0.070(5) 0.050(4) 0.042(4) 0.006(3) 0.008(4) 0.025(4)
O5 0.044(4) 0.064(5) 0.050(4) 0.001(3) -0.009(4) 0.015(4)
O6 0.069(5) 0.048(4) 0.058(4) -0.019(4) -0.018(4) 0.020(4)
O7 0.042(4) 0.065(5) 0.042(4) -0.009(3) -0.001(3) 0.007(3)
O8 0.034(4) 0.082(5) 0.062(4) -0.023(4) 0.004(4) -0.011(4)
O9 0.039(4) 0.053(4) 0.100(6) 0.010(4) 0.013(4) 0.002(3)
O10 0.045(4) 0.057(5) 0.081(5) -0.001(4) -0.002(4) 0.006(4)
C1 0.030(6) 0.042(6) 0.061(6) 0.003(5) 0.006(5) 0.007(4)
C2 0.031(6) 0.097(9) 0.071(8) 0.028(7) -0.012(5) 0.001(6)
C3 0.068(8) 0.050(7) 0.082(8) 0.015(6) 0.043(7) 0.008(6)
C4 0.031(5) 0.058(7) 0.060(6) -0.016(5) 0.017(5) 0.001(5)
C5 0.029(6) 0.053(6) 0.064(7) 0.004(5) -0.004(5) 0.003(5)
C6 0.037(5) 0.041(6) 0.055(6) 0.003(5) 0.007(5) 0.003(4)
C7 0.049(6) 0.045(6) 0.048(6) -0.011(5) 0.017(5) -0.011(5)
C8 0.043(8) 0.050(9) 0.041(8) 0.000 0.013(6) 0.000
C9 0.053(7) 0.044(6) 0.039(5) 0.003(5) -0.004(5) 0.004(5)
C10 0.045(6) 0.051(6) 0.060(6) 0.002(5) -0.026(5) 0.000(5)
C11 0.058(9) 0.033(8) 0.049(8) 0.000 -0.022(7) 0.000
C12 0.054(8) 0.050(7) 0.087(9) 0.011(6) 0.001(7) -0.007(6)
C13 0.088(11) 0.041(8) 0.44(4) 0.010(15) 0.134(18) -0.017(8)
C14 0.075(18) 0.11(2) 0.12(2) 0.09(2) 0.016(16) 0.013(16)
C15 0.034(6) 0.094(9) 0.041(6) 0.018(6) -0.007(5) -0.003(6)
C16 0.077(10) 0.171(16) 0.072(9) 0.012(10) -0.006(8) -0.025(10)
C17 0.079(12) 0.26(3) 0.076(12) 0.036(15) 0.001(9) -0.026(16)
C18 0.067(12) 0.29(4) 0.118(17) -0.09(2) -0.016(12) -0.001(17)
C19 0.086(12) 0.23(2) 0.073(11) -0.055(13) 0.004(10) -0.002(13)
C20 0.047(7) 0.109(11) 0.096(10) -0.026(9) -0.006(7) -0.008(7)
C21 0.038(6) 0.032(6) 0.120(10) -0.013(6) -0.003(7) 0.014(4)
C22 0.100(11) 0.054(8) 0.189(17) 0.006(10) 0.031(12) 0.033(8)
C23 0.23(2) 0.063(11) 0.24(2) 0.010(13) 0.10(2) 0.051(14)
C24 0.19(2) 0.17(2) 0.25(3) 0.07(2) 0.16(2) 0.112(18)
C25 0.140(16) 0.109(14) 0.21(2) 0.028(15) 0.096(16) 0.057(12)
C26 0.071(9) 0.101(11) 0.124(12) 0.004(9) 0.043(9) 0.015(8)
C27 0.048(6) 0.067(7) 0.049(6) 0.005(6) 0.009(5) 0.001(5)
C28 0.084(9) 0.102(11) 0.059(8) 0.004(8) -0.015(7) -0.019(8)
C29 0.073(11) 0.147(17) 0.121(15) 0.011(12) -0.015(10) 0.004(10)
C30 0.073(11) 0.26(3) 0.065(11) 0.043(14) 0.006(9) 0.014(14)
C31 0.087(12) 0.165(17) 0.109(14) 0.054(13) 0.028(11) 0.039(11)
C32 0.088(10) 0.092(10) 0.073(9) 0.029(8) 0.006(8) 0.038(8)
C33 0.031(5) 0.071(7) 0.049(6) 0.007(6) 0.001(5) 0.000(5)
C34 0.090(9) 0.073(8) 0.052(7) 0.016(6) -0.012(7) -0.057(7)
C35 0.070(10) 0.134(14) 0.075(9) 0.035(9) -0.022(8) -0.041(10)
C36 0.045(9) 0.22(2) 0.077(10) 0.050(12) -0.011(8) -0.030(12)
C37 0.079(11) 0.165(16) 0.072(9) 0.046(10) -0.002(8) -0.001(11)
C38 0.037(7) 0.107(10) 0.079(8) 0.021(7) -0.004(6) 0.011(6)
C39 0.065(8) 0.085(9) 0.041(6) 0.014(6) -0.001(6) -0.038(7)
C40 0.167(17) 0.079(10) 0.086(10) -0.015(9) 0.034(11) 0.016(11)
C41 0.21(2) 0.090(13) 0.114(15) -0.010(11) 0.036(16) -0.014(14)
C42 0.21(3) 0.123(18) 0.098(14) -0.001(12) -0.060(16) -0.050(17)
C43 0.133(17) 0.130(