####################################################################### 
# 
# This file contains crystal structure data downloaded from the 
# Cambridge Structural Database (CSD) hosted by the Cambridge 
# Crystallographic Data Centre (CCDC).
# 
# Full information about CCDC data access policies and citation 
# guidelines are available at http://www.ccdc.cam.ac.uk/access/V1 
# 
# Audit and citation data items may have been added by the CCDC. 
# Please retain this information to preserve the provenance of 
# this file and to allow appropriate attribution of the data. 
# 
#######################################################################

data_a
_audit_block_doi                 10.5517/ccscf6r
_database_code_depnum_ccdc_archive 'CCDC 725964'
loop_
_citation_id
_citation_doi
_citation_year
1 10.1002/chem.201002088 2011
_audit_update_record             
;
2009-04-01 deposited with the CCDC.	2024-07-08 downloaded from the CCDC.
;
#TrackingRef '1.CIF'


_audit_creation_method           SHELXL-97
_chemical_name_systematic        
;
?
;
_chemical_name_common            ?
_chemical_melting_point          ?
_chemical_formula_moiety         ?
_chemical_formula_sum            'C38 H18 Cd4 F12 O19'
_chemical_formula_weight         1456.12

loop_
_atom_type_symbol
_atom_type_description
_atom_type_scat_dispersion_real
_atom_type_scat_dispersion_imag
_atom_type_scat_source
C C 0.0033 0.0016 'International Tables Vol C Tables 4.2.6.8 and 6.1.1.4'
H H 0.0000 0.0000 'International Tables Vol C Tables 4.2.6.8 and 6.1.1.4'
O O 0.0106 0.0060 'International Tables Vol C Tables 4.2.6.8 and 6.1.1.4'
F F 0.0171 0.0103 'International Tables Vol C Tables 4.2.6.8 and 6.1.1.4'
Cd Cd -0.8075 1.2024 'International Tables Vol C Tables 4.2.6.8 and 6.1.1.4'

_symmetry_cell_setting           hexagonal
_symmetry_space_group_name_H-M   R-3

loop_
_symmetry_equiv_pos_as_xyz
'x, y, z'
'-y, x-y, z'
'-x+y, -x, z'
'x+2/3, y+1/3, z+1/3'
'-y+2/3, x-y+1/3, z+1/3'
'-x+y+2/3, -x+1/3, z+1/3'
'x+1/3, y+2/3, z+2/3'
'-y+1/3, x-y+2/3, z+2/3'
'-x+y+1/3, -x+2/3, z+2/3'
'-x, -y, -z'
'y, -x+y, -z'
'x-y, x, -z'
'-x+2/3, -y+1/3, -z+1/3'
'y+2/3, -x+y+1/3, -z+1/3'
'x-y+2/3, x+1/3, -z+1/3'
'-x+1/3, -y+2/3, -z+2/3'
'y+1/3, -x+y+2/3, -z+2/3'
'x-y+1/3, x+2/3, -z+2/3'

_cell_length_a                   40.024(6)
_cell_length_b                   40.024(6)
_cell_length_c                   7.7200(15)
_cell_angle_alpha                90.00
_cell_angle_beta                 90.00
_cell_angle_gamma                120.00
_cell_volume                     10710(3)
_cell_formula_units_Z            9
_cell_measurement_temperature    293(2)
_cell_measurement_reflns_used    ?
_cell_measurement_theta_min      ?
_cell_measurement_theta_max      ?

_exptl_crystal_description       needle
_exptl_crystal_colour            colorless
_exptl_crystal_size_max          0.40
_exptl_crystal_size_mid          0.12
_exptl_crystal_size_min          0.10
_exptl_crystal_density_meas      ?
_exptl_crystal_density_diffrn    2.032
_exptl_crystal_density_method    'not measured'
_exptl_crystal_F_000             6282
_exptl_absorpt_coefficient_mu    1.883
_exptl_absorpt_correction_type   'Multi-scan technique'
_exptl_absorpt_correction_T_min  0.6151
_exptl_absorpt_correction_T_max  1.0000
_exptl_absorpt_process_details   ?

_exptl_special_details           
;
?
;

_diffrn_ambient_temperature      293(2)
_diffrn_radiation_wavelength     0.71073
_diffrn_radiation_type           MoK\a
_diffrn_radiation_source         'fine-focus sealed tube'
_diffrn_radiation_monochromator  graphite
_diffrn_measurement_device_type  ?
_diffrn_measurement_method       ?
_diffrn_detector_area_resol_mean ?
_diffrn_standards_number         ?
_diffrn_standards_interval_count ?
_diffrn_standards_interval_time  ?
_diffrn_standards_decay_%        ?
_diffrn_reflns_number            32283
_diffrn_reflns_av_R_equivalents  0.0874
_diffrn_reflns_av_sigmaI/netI    0.0543
_diffrn_reflns_limit_h_min       -51
_diffrn_reflns_limit_h_max       51
_diffrn_reflns_limit_k_min       -51
_diffrn_reflns_limit_k_max       51
_diffrn_reflns_limit_l_min       -10
_diffrn_reflns_limit_l_max       9
_diffrn_reflns_theta_min         3.06
_diffrn_reflns_theta_max         27.45
_reflns_number_total             5388
_reflns_number_gt                4586
_reflns_threshold_expression     >2sigma(I)

_computing_data_collection       ?
_computing_cell_refinement       ?
_computing_data_reduction        ?
_computing_structure_solution    'SHELXS-97 (Sheldrick, 1990)'
_computing_structure_refinement  'SHELXL-97 (Sheldrick, 1997)'
_computing_molecular_graphics    ?
_computing_publication_material  ?

_refine_special_details          
;
Refinement of F^2^ against ALL reflections. The weighted R-factor wR and
goodness of fit S are based on F^2^, conventional R-factors R are based
on F, with F set to zero for negative F^2^. The threshold expression of
F^2^ > 2sigma(F^2^) is used only for calculating R-factors(gt) etc. and is
not relevant to the choice of reflections for refinement. R-factors based
on F^2^ are statistically about twice as large as those based on F, and R-
factors based on ALL data will be even larger.
;

_refine_ls_structure_factor_coef Fsqd
_refine_ls_matrix_type           full
_refine_ls_weighting_scheme      calc
_refine_ls_weighting_details     
'calc w=1/[\s^2^(Fo^2^)+(0.0443P)^2^+49.5310P] where P=(Fo^2^+2Fc^2^)/3'
_atom_sites_solution_primary     direct
_atom_sites_solution_secondary   difmap
_atom_sites_solution_hydrogens   geom
_refine_ls_hydrogen_treatment    constr
_refine_ls_extinction_method     none
_refine_ls_extinction_coef       ?
_refine_ls_number_reflns         5388
_refine_ls_number_parameters     334
_refine_ls_number_restraints     20
_refine_ls_R_factor_all          0.0687
_refine_ls_R_factor_gt           0.0504
_refine_ls_wR_factor_ref         0.0937
_refine_ls_wR_factor_gt          0.0894
_refine_ls_goodness_of_fit_ref   1.069
_refine_ls_restrained_S_all      1.068
_refine_ls_shift/su_max          0.002
_refine_ls_shift/su_mean         0.000

loop_
_atom_site_label
_atom_site_type_symbol
_atom_site_fract_x
_atom_site_fract_y
_atom_site_fract_z
_atom_site_U_iso_or_equiv
_atom_site_adp_type
_atom_site_occupancy
_atom_site_symmetry_multiplicity
_atom_site_calc_flag
_atom_site_refinement_flags
_atom_site_disorder_assembly
_atom_site_disorder_group
Cd1 Cd 0.533821(8) 0.504796(8) -2.71661(4) 0.02149(9) Uani 1 1 d . . .
Cd2 Cd 0.573322(8) 0.547521(8) -2.15717(4) 0.02254(9) Uani 1 1 d . . .
O1 O 0.52836(10) 0.45893(9) -2.5394(4) 0.0321(7) Uani 1 1 d . . .
O2 O 0.52223(8) 0.49358(8) -2.3301(4) 0.0247(6) Uani 1 1 d . . .
O3 O 0.45739(8) 0.43837(8) -2.1456(4) 0.0290(6) Uani 1 1 d . . .
O4 O 0.48604(8) 0.45780(9) -1.8917(4) 0.0286(6) Uani 1 1 d . . .
O5 O 0.37394(8) 0.25525(8) -1.7533(4) 0.0269(6) Uani 1 1 d . . .
O6 O 0.40636(9) 0.27677(9) -2.0005(4) 0.0394(8) Uani 1 1 d . . .
O7 O 0.39749(9) 0.29679(8) -1.3634(4) 0.0328(7) Uani 1 1 d D . .
O8 O 0.39987(8) 0.24368(8) -1.4067(4) 0.0247(6) Uani 1 1 d . . .
F1 F 0.54693(9) 0.30622(8) -1.8821(4) 0.0464(7) Uani 1 1 d . . .
F2 F 0.58549(8) 0.34757(8) -2.0637(4) 0.0403(6) Uani 1 1 d . . .
F3 F 0.52451(8) 0.31724(7) -2.1136(4) 0.0384(6) Uani 1 1 d . . .
F4 F 0.59402(8) 0.37186(9) -1.6892(4) 0.0432(7) Uani 1 1 d . . .
F5 F 0.61341(7) 0.41235(8) -1.8996(4) 0.0414(7) Uani 1 1 d . . .
F6 F 0.57972(7) 0.41725(7) -1.6963(3) 0.0357(6) Uani 1 1 d . . .
C1 C 0.52975(11) 0.43942(10) -2.2541(5) 0.0190(7) Uani 1 1 d . . .
C2 C 0.55358(11) 0.42478(11) -2.2955(5) 0.0240(8) Uani 1 1 d . . .
H2A H 0.5664 0.4311 -2.4014 0.029 Uiso 1 1 calc R . .
C3 C 0.55873(11) 0.40102(11) -2.1830(5) 0.0229(8) Uani 1 1 d . . .
H3A H 0.5747 0.3913 -2.2143 0.028 Uiso 1 1 calc R . .
C4 C 0.51160(10) 0.43082(10) -2.0914(5) 0.0175(7) Uani 1 1 d . . .
C5 C 0.51756(10) 0.40768(10) -1.9758(5) 0.0185(7) Uani 1 1 d . . .
H5A H 0.5064 0.4030 -1.8663 0.022 Uiso 1 1 calc R . .
C6 C 0.54015(10) 0.39135(10) -2.0220(5) 0.0172(7) Uani 1 1 d . . .
C7 C 0.52594(11) 0.46523(11) -2.3841(5) 0.0221(7) Uani 1 1 d . . .
C8 C 0.48341(10) 0.44341(10) -2.0418(5) 0.0208(7) Uani 1 1 d . . .
C9 C 0.54600(10) 0.36549(10) -1.8931(5) 0.0170(7) Uani 1 1 d . . .
C10 C 0.55127(12) 0.33415(11) -1.9888(6) 0.0274(8) Uani 1 1 d . . .
C11 C 0.58368(11) 0.39168(12) -1.7941(6) 0.0271(8) Uani 1 1 d . . .
C12 C 0.51116(10) 0.34384(10) -1.7687(5) 0.0188(7) Uani 1 1 d . . .
C13 C 0.47499(11) 0.32157(10) -1.8437(5) 0.0210(7) Uani 1 1 d . . .
H13A H 0.4727 0.3213 -1.9636 0.025 Uiso 1 1 calc R . .
C14 C 0.44192(10) 0.29954(10) -1.7437(5) 0.0206(7) Uani 1 1 d . . .
C15 C 0.44440(10) 0.30059(10) -1.5634(5) 0.0208(7) Uani 1 1 d . . .
C16 C 0.48080(12) 0.32378(12) -1.4884(5) 0.0281(9) Uani 1 1 d . . .
H16A H 0.4830 0.3254 -1.3683 0.034 Uiso 1 1 calc R . .
C17 C 0.51341(11) 0.34435(11) -1.5890(5) 0.0255(8) Uani 1 1 d . . .
H17A H 0.5373 0.3588 -1.5356 0.031 Uiso 1 1 calc R . .
C18 C 0.40443(11) 0.27515(10) -1.8383(5) 0.0225(8) Uani 1 1 d . . .
C19 C 0.41112(11) 0.27906(11) -1.4400(5) 0.0221(8) Uani 1 1 d . . .
O1W O 0.59215(14) 0.60723(12) -2.2413(7) 0.0777(14) Uani 1 1 d DU . .
H1WA H 0.5884 0.6123 -2.3439 0.093 Uiso 1 1 d RD . .
H1WB H 0.5763 0.6091 -2.1744 0.093 Uiso 1 1 d RD . .
O2W O 0.4201(4) 0.37656(19) -1.4310(11) 0.113(5) Uani 0.50 1 d PDU . .
H2WA H 0.4129 0.3538 -1.3931 0.135 Uiso 0.50 1 d PRD . .
H2WB H 0.4257 0.3912 -1.3424 0.135 Uiso 0.50 1 d PRD . .

loop_
_atom_site_aniso_label
_atom_site_aniso_U_11
_atom_site_aniso_U_22
_atom_site_aniso_U_33
_atom_site_aniso_U_23
_atom_site_aniso_U_13
_atom_site_aniso_U_12
Cd1 0.02109(14) 0.02837(15) 0.01822(15) 0.00508(11) 0.00100(10) 0.01477(12)
Cd2 0.02393(15) 0.03386(16) 0.01649(15) 0.00108(11) 0.00222(10) 0.01944(12)
O1 0.0552(19) 0.0345(16) 0.0152(14) 0.0028(12) -0.0007(13) 0.0289(15)
O2 0.0294(14) 0.0247(13) 0.0270(15) 0.0043(11) 0.0034(12) 0.0189(12)
O3 0.0250(14) 0.0360(15) 0.0321(17) 0.0039(13) -0.0030(12) 0.0199(12)
O4 0.0278(14) 0.0383(16) 0.0267(16) -0.0078(13) 0.0023(12) 0.0217(13)
O5 0.0214(13) 0.0281(14) 0.0257(15) 0.0043(12) 0.0001(11) 0.0082(11)
O6 0.0316(16) 0.0394(17) 0.0183(16) 0.0007(13) -0.0078(13) -0.0039(13)
O7 0.0385(16) 0.0342(16) 0.0259(16) 0.0028(13) 0.0089(13) 0.0183(14)
O8 0.0244(13) 0.0235(13) 0.0182(14) 0.0018(11) -0.0001(11) 0.0060(11)
F1 0.076(2) 0.0373(14) 0.0429(17) 0.0174(13) 0.0137(15) 0.0413(15)
F2 0.0423(14) 0.0461(15) 0.0460(16) 0.0066(13) 0.0151(13) 0.0323(13)
F3 0.0479(15) 0.0326(13) 0.0344(15) -0.0126(11) -0.0061(12) 0.0199(12)
F4 0.0358(14) 0.0572(17) 0.0386(16) 0.0046(13) -0.0137(12) 0.0248(13)
F5 0.0201(12) 0.0492(16) 0.0381(16) 0.0029(13) 0.0037(11) 0.0048(11)
F6 0.0314(13) 0.0316(13) 0.0308(14) -0.0103(11) -0.0045(11) 0.0057(10)
C1 0.0254(17) 0.0201(16) 0.0138(17) 0.0024(14) 0.0004(14) 0.0132(15)
C2 0.033(2) 0.0297(19) 0.0150(18) 0.0062(15) 0.0102(16) 0.0201(17)
C3 0.0277(19) 0.0256(18) 0.023(2) 0.0039(15) 0.0074(16) 0.0185(16)
C4 0.0215(16) 0.0186(16) 0.0143(17) 0.0020(13) 0.0019(14) 0.0114(14)
C5 0.0212(17) 0.0223(17) 0.0124(17) 0.0058(14) 0.0033(13) 0.0110(14)
C6 0.0181(16) 0.0165(16) 0.0167(18) 0.0038(14) 0.0011(13) 0.0084(13)
C7 0.0243(18) 0.0253(18) 0.0192(19) 0.0045(15) 0.0017(15) 0.0144(15)
C8 0.0214(17) 0.0210(17) 0.022(2) 0.0067(15) 0.0052(15) 0.0119(14)
C9 0.0182(16) 0.0177(16) 0.0152(18) 0.0014(13) -0.0015(13) 0.0089(13)
C10 0.035(2) 0.0245(19) 0.029(2) 0.0055(16) 0.0033(17) 0.0188(17)
C11 0.0212(18) 0.028(2) 0.026(2) 0.0016(17) -0.0030(16) 0.0079(16)
C12 0.0197(16) 0.0174(16) 0.0172(18) 0.0032(14) 0.0022(14) 0.0078(14)
C13 0.0231(18) 0.0218(17) 0.0114(17) 0.0013(14) -0.0013(14) 0.0063(15)
C14 0.0213(17) 0.0187(17) 0.0157(18) 0.0004(14) 0.0000(14) 0.0053(14)
C15 0.0201(17) 0.0193(17) 0.0180(19) 0.0013(14) 0.0013(14) 0.0060(14)
C16 0.028(2) 0.033(2) 0.0127(19) -0.0009(16) -0.0030(15) 0.0079(17)
C17 0.0209(18) 0.0275(19) 0.018(2) 0.0012(15) -0.0039(15) 0.0042(15)
C18 0.0218(18) 0.0196(17) 0.0187(19) 0.0019(14) -0.0044(15) 0.0050(14)
C19 0.0212(17) 0.0257(18) 0.0135(18) -0.0010(15) -0.0021(14) 0.0074(15)
O1W 0.091(3) 0.054(3) 0.094(4) 0.019(3) 0.010(3) 0.040(3)
O2W 0.249(14) 0.030(4) 0.065(6) -0.019(4) -0.075(8) 0.075(7)

_geom_special_details            
;
All esds (except the esd in the dihedral angle between two l.s. planes)
are estimated using the full covariance matrix. The cell esds are taken
into account individually in the estimation of esds in distances, angles
and torsion angles; correlations between esds in cell parameters are only
used when they are defined by crystal symmetry. An approximate (isotropic)
treatment of cell esds is used for estimating esds involving l.s. planes.
;

loop_
_geom_bond_atom_site_label_1
_geom_bond_atom_site_label_2
_geom_bond_distance
_geom_bond_site_symmetry_2
_geom_bond_publ_flag
Cd1 O1 2.211(3) . ?
Cd1 O5 2.262(3) 17_550 ?
Cd1 O8 2.297(3) 17_550 ?
Cd1 O2 2.305(3) 10_660 ?
Cd1 O4 2.329(3) 1_554 ?
Cd1 O3 2.373(3) 10_660 ?
Cd2 O6 2.190(3) 17_550 ?
Cd2 O1W 2.214(4) . ?
Cd2 O4 2.308(3) 10_661 ?
Cd2 O8 2.368(3) 17_551 ?
Cd2 O7 2.475(3) 17_551 ?
Cd2 O2 2.492(3) . ?
O1 C7 1.239(5) . ?
O2 C7 1.285(5) . ?
O2 Cd1 2.305(3) 10_660 ?
O3 C8 1.248(5) . ?
O3 Cd1 2.373(3) 10_660 ?
O4 C8 1.275(5) . ?
O4 Cd2 2.308(3) 10_661 ?
O4 Cd1 2.329(3) 1_556 ?
O5 C18 1.258(5) . ?
O5 Cd1 2.262(3) 18_540 ?
O6 C18 1.254(5) . ?
O6 Cd2 2.190(3) 18_540 ?
O7 C19 1.240(5) . ?
O7 Cd2 2.475(3) 18_541 ?
O8 C19 1.279(5) . ?
O8 Cd1 2.297(3) 18_540 ?
O8 Cd2 2.368(3) 18_541 ?
F1 C10 1.328(5) . ?
F2 C10 1.328(5) . ?
F3 C10 1.345(5) . ?
F4 C11 1.336(5) . ?
F5 C11 1.334(5) . ?
F6 C11 1.343(5) . ?
C1 C2 1.384(5) . ?
C1 C4 1.405(5) . ?
C1 C7 1.501(5) . ?
C2 C3 1.377(5) . ?
C2 H2A 0.9300 . ?
C3 C6 1.400(5) . ?
C3 H3A 0.9300 . ?
C4 C5 1.390(5) . ?
C4 C8 1.497(5) . ?
C5 C6 1.401(5) . ?
C5 H5A 0.9300 . ?
C6 C9 1.536(5) . ?
C9 C11 1.542(5) . ?
C9 C12 1.552(5) . ?
C9 C10 1.559(5) . ?
C12 C17 1.389(5) . ?
C12 C13 1.391(5) . ?
C13 C14 1.400(5) . ?
C13 H13A 0.9300 . ?
C14 C15 1.394(5) . ?
C14 C18 1.508(5) . ?
C15 C16 1.403(5) . ?
C15 C19 1.509(5) . ?
C16 C17 1.382(5) . ?
C16 H16A 0.9300 . ?
C17 H17A 0.9300 . ?
O1W H1WA 0.8496 . ?
O1W H1WB 0.8499 . ?
O2W H2WA 0.8584 . ?
O2W H2WB 0.8543 . ?

loop_
_geom_angle_atom_site_label_1
_geom_angle_atom_site_label_2
_geom_angle_atom_site_label_3
_geom_angle
_geom_angle_site_symmetry_1
_geom_angle_site_symmetry_3
_geom_angle_publ_flag
O1 Cd1 O5 90.09(11) . 17_550 ?
O1 Cd1 O8 106.03(11) . 17_550 ?
O5 Cd1 O8 81.92(10) 17_550 17_550 ?
O1 Cd1 O2 103.47(11) . 10_660 ?
O5 Cd1 O2 119.38(10) 17_550 10_660 ?
O8 Cd1 O2 143.39(10) 17_550 10_660 ?
O1 Cd1 O4 89.33(11) . 1_554 ?
O5 Cd1 O4 168.06(10) 17_550 1_554 ?
O8 Cd1 O4 86.77(10) 17_550 1_554 ?
O2 Cd1 O4 72.30(10) 10_660 1_554 ?
O1 Cd1 O3 168.28(11) . 10_660 ?
O5 Cd1 O3 81.60(10) 17_550 10_660 ?
O8 Cd1 O3 81.10(10) 17_550 10_660 ?
O2 Cd1 O3 73.91(9) 10_660 10_660 ?
O4 Cd1 O3 100.50(10) 1_554 10_660 ?
O6 Cd2 O1W 97.25(17) 17_550 . ?
O6 Cd2 O4 147.44(11) 17_550 10_661 ?
O1W Cd2 O4 85.79(15) . 10_661 ?
O6 Cd2 O8 95.01(11) 17_550 17_551 ?
O1W Cd2 O8 143.35(16) . 17_551 ?
O4 Cd2 O8 101.71(10) 10_661 17_551 ?
O6 Cd2 O7 79.26(11) 17_550 17_551 ?
O1W Cd2 O7 94.78(15) . 17_551 ?
O4 Cd2 O7 132.98(11) 10_661 17_551 ?
O8 Cd2 O7 53.98(10) 17_551 17_551 ?
O6 Cd2 O2 80.89(11) 17_550 . ?
O1W Cd2 O2 117.85(15) . . ?
O4 Cd2 O2 69.31(9) 10_661 . ?
O8 Cd2 O2 98.13(9) 17_551 . ?
O7 Cd2 O2 143.59(9) 17_551 . ?
C7 O1 Cd1 114.5(2) . . ?
C7 O2 Cd1 128.3(2) . 10_660 ?
C7 O2 Cd2 122.1(2) . . ?
Cd1 O2 Cd2 106.28(10) 10_660 . ?
C8 O3 Cd1 114.9(2) . 10_660 ?
C8 O4 Cd2 105.0(2) . 10_661 ?
C8 O4 Cd1 137.9(2) . 1_556 ?
Cd2 O4 Cd1 111.79(11) 10_661 1_556 ?
C18 O5 Cd1 121.4(2) . 18_540 ?
C18 O6 Cd2 125.0(3) . 18_540 ?
C19 O7 Cd2 90.1(2) . 18_541 ?
C19 O8 Cd1 115.3(2) . 18_540 ?
C19 O8 Cd2 94.0(2) . 18_541 ?
Cd1 O8 Cd2 108.25(10) 18_540 18_541 ?
C2 C1 C4 119.0(3) . . ?
C2 C1 C7 117.8(3) . . ?
C4 C1 C7 123.2(3) . . ?
C3 C2 C1 121.3(3) . . ?
C3 C2 H2A 119.3 . . ?
C1 C2 H2A 119.3 . . ?
C2 C3 C6 120.6(3) . . ?
C2 C3 H3A 119.7 . . ?
C6 C3 H3A 119.7 . . ?
C5 C4 C1 119.8(3) . . ?
C5 C4 C8 118.0(3) . . ?
C1 C4 C8 122.0(3) . . ?
C4 C5 C6 120.9(3) . . ?
C4 C5 H5A 119.6 . . ?
C6 C5 H5A 119.6 . . ?
C3 C6 C5 118.3(3) . . ?
C3 C6 C9 121.5(3) . . ?
C5 C6 C9 120.0(3) . . ?
O1 C7 O2 123.3(4) . . ?
O1 C7 C1 117.5(3) . . ?
O2 C7 C1 119.2(3) . . ?
O3 C8 O4 122.0(3) . . ?
O3 C8 C4 119.3(3) . . ?
O4 C8 C4 118.6(3) . . ?
C6 C9 C11 106.9(3) . . ?
C6 C9 C12 112.3(3) . . ?
C11 C9 C12 111.9(3) . . ?
C6 C9 C10 111.3(3) . . ?
C11 C9 C10 107.6(3) . . ?
C12 C9 C10 106.8(3) . . ?
F2 C10 F1 106.6(3) . . ?
F2 C10 F3 107.0(3) . . ?
F1 C10 F3 106.5(3) . . ?
F2 C10 C9 114.1(3) . . ?
F1 C10 C9 111.7(3) . . ?
F3 C10 C9 110.5(3) . . ?
F5 C11 F4 107.1(3) . . ?
F5 C11 F6 106.2(3) . . ?
F4 C11 F6 107.5(3) . . ?
F5 C11 C9 112.6(3) . . ?
F4 C11 C9 112.6(3) . . ?
F6 C11 C9 110.4(3) . . ?
C17 C12 C13 117.6(3) . . ?
C17 C12 C9 125.2(3) . . ?
C13 C12 C9 117.2(3) . . ?
C12 C13 C14 121.8(3) . . ?
C12 C13 H13A 119.1 . . ?
C14 C13 H13A 119.1 . . ?
C15 C14 C13 120.1(3) . . ?
C15 C14 C18 122.4(3) . . ?
C13 C14 C18 117.5(3) . . ?
C14 C15 C16 117.8(3) . . ?
C14 C15 C19 125.7(3) . . ?
C16 C15 C19 116.4(3) . . ?
C17 C16 C15 121.4(4) . . ?
C17 C16 H16A 119.3 . . ?
C15 C16 H16A 119.3 . . ?
C16 C17 C12 121.2(3) . . ?
C16 C17 H17A 119.4 . . ?
C12 C17 H17A 119.4 . . ?
O6 C18 O5 124.7(4) . . ?
O6 C18 C14 115.8(3) . . ?
O5 C18 C14 119.5(3) . . ?
O7 C19 O8 121.7(4) . . ?
O7 C19 C15 119.3(3) . . ?
O8 C19 C15 118.7(3) . . ?
Cd2 O1W H1WA 121.8 . . ?
Cd2 O1W H1WB 92.9 . . ?
H1WA O1W H1WB 108.4 . . ?
H2WA O2W H2WB 106.8 . . ?

loop_
_geom_hbond_atom_site_label_D
_geom_hbond_atom_site_label_H
_geom_hbond_atom_site_label_A
_geom_hbond_distance_DH
_geom_hbond_distance_HA
_geom_hbond_distance_DA
_geom_hbond_angle_DHA
_geom_hbond_site_symmetry_A
O2W H2WB O3 0.85 2.25 3.084(7) 163.5 1_556
O2W H2WA O7 0.86 2.06 2.898(6) 166.2 .
O1W H1WA O2W 0.85 1.87 2.716(9) 179.7 10_661
O1W H1WA O2W 0.85 1.87 2.716(9) 179.7 10_661
O1W H1WB O4 0.85 2.64 3.079(6) 113.4 10_661

_diffrn_measured_fraction_theta_max 0.992
_diffrn_reflns_theta_full        27.45
_diffrn_measured_fraction_theta_full 0.992
_refine_diff_density_max         1.411
_refine_diff_density_min         -0.684
_refine_diff_density_rms         0.145


