####################################################################### 
# 
# This file contains crystal structure data downloaded from the 
# Cambridge Structural Database (CSD) hosted by the Cambridge 
# Crystallographic Data Centre (CCDC).
# 
# Full information about CCDC data access policies and citation 
# guidelines are available at http://www.ccdc.cam.ac.uk/access/V1 
# 
# Audit and citation data items may have been added by the CCDC. 
# Please retain this information to preserve the provenance of 
# this file and to allow appropriate attribution of the data. 
# 
#######################################################################

data_CuI-MeCN
_audit_block_doi                 10.5517/cctr680
_database_code_depnum_ccdc_archive 'CCDC 767072'
loop_
_citation_id
_citation_doi
_citation_year
1 10.1002/asia.201000218 2010
_audit_update_record             
;
2010-02-21 deposited with the CCDC.	2024-07-08 downloaded from the CCDC.
;
#TrackingRef 'Compds.cif'


_audit_creation_method           SHELXL-97
_chemical_name_systematic        
;
?
;
_chemical_name_common            ?
_chemical_melting_point          ?
_chemical_formula_moiety         ?
_chemical_formula_sum            'C28 H21 Cu2 I2 N5 O6'
_chemical_formula_weight         904.38

loop_
_atom_type_symbol
_atom_type_description
_atom_type_scat_dispersion_real
_atom_type_scat_dispersion_imag
_atom_type_scat_source
C C 0.0033 0.0016 'International Tables Vol C Tables 4.2.6.8 and 6.1.1.4'
H H 0.0000 0.0000 'International Tables Vol C Tables 4.2.6.8 and 6.1.1.4'
N N 0.0061 0.0033 'International Tables Vol C Tables 4.2.6.8 and 6.1.1.4'
O O 0.0106 0.0060 'International Tables Vol C Tables 4.2.6.8 and 6.1.1.4'
Cu Cu 0.3201 1.2651 'International Tables Vol C Tables 4.2.6.8 and 6.1.1.4'
I I -0.4742 1.8119 'International Tables Vol C Tables 4.2.6.8 and 6.1.1.4'

_symmetry_cell_setting           Monoclinic
_symmetry_space_group_name_H-M   C2

loop_
_symmetry_equiv_pos_as_xyz
'x, y, z'
'-x, y, -z'
'x+1/2, y+1/2, z'
'-x+1/2, y+1/2, -z'

_cell_length_a                   31.933(4)
_cell_length_b                   7.8383(8)
_cell_length_c                   18.115(2)
_cell_angle_alpha                90.00
_cell_angle_beta                 116.158(2)
_cell_angle_gamma                90.00
_cell_volume                     4069.7(8)
_cell_formula_units_Z            4
_cell_measurement_temperature    173(2)
_cell_measurement_reflns_used    ?
_cell_measurement_theta_min      ?
_cell_measurement_theta_max      ?

_exptl_crystal_description       ?
_exptl_crystal_colour            ?
_exptl_crystal_size_max          0.47
_exptl_crystal_size_mid          0.42
_exptl_crystal_size_min          0.34
_exptl_crystal_density_meas      ?
_exptl_crystal_density_diffrn    1.476
_exptl_crystal_density_method    'not measured'
_exptl_crystal_F_000             1744
_exptl_absorpt_coefficient_mu    2.599
_exptl_absorpt_correction_type   Multi-scan
_exptl_absorpt_correction_T_min  0.3746
_exptl_absorpt_correction_T_max  0.4719
_exptl_absorpt_process_details   SADABS

_exptl_special_details           
;
?
;

_diffrn_ambient_temperature      173(2)
_diffrn_radiation_wavelength     0.71073
_diffrn_radiation_type           MoK\a
_diffrn_radiation_source         'fine-focus sealed tube'
_diffrn_radiation_monochromator  graphite
_diffrn_measurement_device_type  Apex
_diffrn_measurement_method       ?
_diffrn_detector_area_resol_mean ?
_diffrn_standards_number         ?
_diffrn_standards_interval_count ?
_diffrn_standards_interval_time  ?
_diffrn_standards_decay_%        ?
_diffrn_reflns_number            11404
_diffrn_reflns_av_R_equivalents  0.0173
_diffrn_reflns_av_sigmaI/netI    0.0299
_diffrn_reflns_limit_h_min       -38
_diffrn_reflns_limit_h_max       25
_diffrn_reflns_limit_k_min       -9
_diffrn_reflns_limit_k_max       9
_diffrn_reflns_limit_l_min       -21
_diffrn_reflns_limit_l_max       21
_diffrn_reflns_theta_min         2.27
_diffrn_reflns_theta_max         25.50
_reflns_number_total             7023
_reflns_number_gt                6256
_reflns_threshold_expression     >2sigma(I)

_computing_data_collection       ?
_computing_cell_refinement       ?
_computing_data_reduction        ?
_computing_structure_solution    'SHELXS-97 (Sheldrick, 1990)'
_computing_structure_refinement  'SHELXL-97 (Sheldrick, 1997)'
_computing_molecular_graphics    ?
_computing_publication_material  ?

_refine_special_details          
;
Refinement of F^2^ against ALL reflections. The weighted R-factor wR and
goodness of fit S are based on F^2^, conventional R-factors R are based
on F, with F set to zero for negative F^2^. The threshold expression of
F^2^ > 2sigma(F^2^) is used only for calculating R-factors(gt) etc. and is
not relevant to the choice of reflections for refinement. R-factors based
on F^2^ are statistically about twice as large as those based on F, and R-
factors based on ALL data will be even larger.
;

_refine_ls_structure_factor_coef Fsqd
_refine_ls_matrix_type           full
_refine_ls_weighting_scheme      calc
_refine_ls_weighting_details     
'calc w=1/[\s^2^(Fo^2^)+(0.0810P)^2^+29.0000P] where P=(Fo^2^+2Fc^2^)/3'
_atom_sites_solution_primary     direct
_atom_sites_solution_secondary   difmap
_atom_sites_solution_hydrogens   geom
_refine_ls_hydrogen_treatment    constr
_refine_ls_extinction_method     none
_refine_ls_extinction_coef       ?
_refine_ls_abs_structure_details 'Flack H D (1983), Acta Cryst. A39, 876-881'
_refine_ls_abs_structure_Flack   0.52(3)
_refine_ls_number_reflns         7023
_refine_ls_number_parameters     415
_refine_ls_number_restraints     97
_refine_ls_R_factor_all          0.0569
_refine_ls_R_factor_gt           0.0496
_refine_ls_wR_factor_ref         0.1438
_refine_ls_wR_factor_gt          0.1357
_refine_ls_goodness_of_fit_ref   1.052
_refine_ls_restrained_S_all      1.049
_refine_ls_shift/su_max          0.001
_refine_ls_shift/su_mean         0.000

loop_
_atom_site_label
_atom_site_type_symbol
_atom_site_fract_x
_atom_site_fract_y
_atom_site_fract_z
_atom_site_U_iso_or_equiv
_atom_site_adp_type
_atom_site_occupancy
_atom_site_symmetry_multiplicity
_atom_site_calc_flag
_atom_site_refinement_flags
_atom_site_disorder_assembly
_atom_site_disorder_group
Cu1 Cu 0.52562(5) 0.77857(18) -0.12719(7) 0.0575(3) Uani 1 1 d . . .
Cu2 Cu 0.49157(3) 0.89103(14) -0.27350(6) 0.0377(2) Uani 1 1 d . . .
I1 I 0.499127(19) 1.08257(7) -0.14623(3) 0.04449(15) Uani 1 1 d . . .
I2 I 0.53054(3) 0.58803(9) -0.23700(3) 0.0614(2) Uani 1 1 d . . .
C1 C 0.1805(3) 0.9130(12) -0.6116(5) 0.0376(18) Uani 1 1 d . . .
H1A H 0.1982 0.9594 -0.6373 0.045 Uiso 1 1 calc R . .
C2 C 0.1331(3) 0.9083(12) -0.6506(5) 0.0375(17) Uani 1 1 d . . .
C3 C 0.1058(3) 0.8374(10) -0.6159(5) 0.0380(18) Uani 1 1 d . . .
H3A H 0.0728 0.8328 -0.6448 0.046 Uiso 1 1 calc R . .
C4 C 0.1298(3) 0.7744(11) -0.5372(5) 0.0391(18) Uani 1 1 d . . .
C5 C 0.1769(3) 0.7774(12) -0.4950(5) 0.0384(17) Uani 1 1 d . . .
H5A H 0.1922 0.7325 -0.4409 0.046 Uiso 1 1 calc R . .
C6 C 0.2018(3) 0.8473(11) -0.5330(5) 0.0404(19) Uani 1 1 d . . .
C7 C 0.1091(3) 0.8894(13) -0.7929(5) 0.0393(18) Uani 1 1 d . . .
C8 C 0.0808(3) 0.7918(12) -0.4705(6) 0.044(2) Uani 1 1 d . . .
C9 C 0.2782(3) 0.7896(12) -0.5159(5) 0.0402(18) Uani 1 1 d . . .
C10 C 0.0864(3) 0.9881(12) -0.8704(5) 0.0385(19) Uani 1 1 d . . .
C11 C 0.0755(4) 0.9048(13) -0.9437(5) 0.052(2) Uani 1 1 d . . .
H11A H 0.0806 0.7854 -0.9435 0.063 Uiso 1 1 calc R . .
C12 C 0.0575(4) 0.9905(14) -1.0157(6) 0.056(3) Uani 1 1 d . . .
H12A H 0.0496 0.9292 -1.0654 0.067 Uiso 1 1 calc R . .
C13 C 0.0603(3) 1.2451(14) -0.9504(6) 0.052(3) Uani 1 1 d . . .
H13A H 0.0546 1.3643 -0.9525 0.062 Uiso 1 1 calc R . .
C14 C 0.0789(4) 1.1609(13) -0.8745(5) 0.052(3) Uani 1 1 d . . .
H14A H 0.0864 1.2239 -0.8255 0.063 Uiso 1 1 calc R . .
C15 C 0.0601(3) 0.6885(12) -0.4265(5) 0.0378(19) Uani 1 1 d . . .
C16 C 0.0386(3) 0.7755(12) -0.3859(6) 0.045(2) Uani 1 1 d . . .
H16A H 0.0364 0.8965 -0.3878 0.054 Uiso 1 1 calc R . .
C17 C 0.0202(3) 0.6788(12) -0.3420(6) 0.043(2) Uani 1 1 d . . .
H17A H 0.0056 0.7364 -0.3134 0.051 Uiso 1 1 calc R . .
C18 C 0.0431(4) 0.4297(11) -0.3781(6) 0.046(2) Uani 1 1 d . . .
H18A H 0.0441 0.3086 -0.3758 0.055 Uiso 1 1 calc R . .
C19 C 0.0628(4) 0.5124(12) -0.4213(6) 0.045(2) Uani 1 1 d . . .
H19A H 0.0782 0.4501 -0.4472 0.054 Uiso 1 1 calc R . .
C20 C 0.3293(3) 0.8175(10) -0.4568(5) 0.0351(17) Uani 1 1 d . . .
C21 C 0.3419(3) 0.9134(11) -0.3850(5) 0.0364(17) Uani 1 1 d . . .
H21A H 0.3190 0.9646 -0.3720 0.044 Uiso 1 1 calc R . .
C22 C 0.3890(3) 0.9308(10) -0.3334(5) 0.0390(18) Uani 1 1 d . . .
H22A H 0.3981 0.9983 -0.2852 0.047 Uiso 1 1 calc R . .
C23 C 0.4085(3) 0.7668(12) -0.4190(5) 0.0425(19) Uani 1 1 d . . .
H23A H 0.4318 0.7169 -0.4313 0.051 Uiso 1 1 calc R . .
C24 C 0.3632(3) 0.7442(11) -0.4726(5) 0.0394(18) Uani 1 1 d . . .
H24A H 0.3551 0.6778 -0.5208 0.047 Uiso 1 1 calc R . .
N1 N 0.0507(3) 1.1608(11) -1.0193(5) 0.048(2) Uani 1 1 d . . .
N2 N 0.0223(2) 0.5128(9) -0.3390(4) 0.0350(16) Uani 1 1 d . . .
N3 N 0.4222(2) 0.8577(8) -0.3481(4) 0.0346(14) Uani 1 1 d . . .
O1 O 0.1097(2) 0.9828(8) -0.7290(3) 0.0414(13) Uani 1 1 d . . .
O2 O 0.1050(2) 0.6927(8) -0.5003(4) 0.0442(14) Uani 1 1 d . . .
O3 O 0.2505(2) 0.8586(10) -0.4867(3) 0.0491(17) Uani 1 1 d . . .
O4 O 0.1263(3) 0.7515(10) -0.7849(4) 0.0588(18) Uani 1 1 d . . .
O5 O 0.0783(4) 0.9423(9) -0.4775(6) 0.084(3) Uani 1 1 d . . .
O6 O 0.2657(2) 0.7175(11) -0.5788(4) 0.063(2) Uani 1 1 d . . .
N4 N 0.7085(9) 0.688(3) 0.2648(15) 0.174(7) Uani 1 1 d DU . .
C25 C 0.7083(10) 0.823(3) 0.2463(17) 0.148(6) Uani 1 1 d DU . .
C26 C 0.7155(9) 0.997(3) 0.2296(17) 0.160(7) Uani 1 1 d DU . .
H26A H 0.6853 1.0536 0.2006 0.239 Uiso 1 1 calc R . .
H26B H 0.7322 0.9989 0.1953 0.239 Uiso 1 1 calc R . .
H26C H 0.7341 1.0559 0.2815 0.239 Uiso 1 1 calc R . .
N5 N 0.347(2) 0.654(7) 0.280(3) 0.196(14) Uani 0.50 1 d PDU . .
C27 C 0.347(2) 0.518(7) 0.296(5) 0.194(14) Uani 0.50 1 d PDU . .
C28 C 0.3318(19) 0.350(7) 0.291(4) 0.180(15) Uani 0.50 1 d PDU . .
H28A H 0.3295 0.2973 0.2407 0.269 Uiso 0.50 1 calc PR . .
H28B H 0.3012 0.3483 0.2916 0.269 Uiso 0.50 1 calc PR . .
H28C H 0.3542 0.2859 0.3390 0.269 Uiso 0.50 1 calc PR . .
N6 N 0.6271(16) 0.084(8) -0.143(3) 0.192(14) Uani 0.50 1 d PDU . .
C29 C 0.638(2) 0.058(11) -0.077(3) 0.201(15) Uani 0.50 1 d PDU . .
C30 C 0.651(2) 0.034(9) 0.007(3) 0.204(17) Uani 0.50 1 d PDU . .
H30A H 0.6231 0.0347 0.0168 0.306 Uiso 0.50 1 calc PR . .
H30B H 0.6719 0.1262 0.0382 0.306 Uiso 0.50 1 calc PR . .
H30C H 0.6669 -0.0758 0.0242 0.306 Uiso 0.50 1 calc PR . .

loop_
_atom_site_aniso_label
_atom_site_aniso_U_11
_atom_site_aniso_U_22
_atom_site_aniso_U_33
_atom_site_aniso_U_23
_atom_site_aniso_U_13
_atom_site_aniso_U_12
Cu1 0.0843(9) 0.0512(7) 0.0381(6) 0.0064(5) 0.0280(6) 0.0099(6)
Cu2 0.0441(5) 0.0393(5) 0.0347(5) 0.0008(4) 0.0218(4) -0.0049(4)
I1 0.0631(3) 0.0358(3) 0.0397(3) -0.0058(3) 0.0274(2) -0.0051(3)
I2 0.1100(5) 0.0402(3) 0.0471(3) 0.0070(3) 0.0467(3) 0.0187(4)
C1 0.039(4) 0.049(5) 0.034(4) 0.003(4) 0.025(4) -0.001(4)
C2 0.045(4) 0.042(4) 0.028(4) 0.002(3) 0.019(3) 0.002(4)
C3 0.036(4) 0.045(5) 0.040(4) -0.005(3) 0.024(4) -0.001(3)
C4 0.053(5) 0.039(4) 0.038(4) -0.002(4) 0.032(4) -0.003(4)
C5 0.046(4) 0.046(5) 0.029(4) -0.001(4) 0.022(3) 0.002(4)
C6 0.043(4) 0.055(5) 0.027(4) -0.003(3) 0.019(4) -0.005(4)
C7 0.042(4) 0.048(5) 0.027(4) -0.003(4) 0.014(3) -0.006(4)
C8 0.067(6) 0.040(5) 0.050(5) 0.003(4) 0.047(5) 0.000(4)
C9 0.053(5) 0.038(4) 0.032(4) 0.002(4) 0.021(4) 0.000(4)
C10 0.037(4) 0.043(5) 0.033(4) 0.004(4) 0.013(4) 0.006(4)
C11 0.087(7) 0.037(5) 0.034(4) 0.004(4) 0.027(5) 0.001(5)
C12 0.089(8) 0.045(6) 0.032(5) -0.008(4) 0.025(5) -0.014(5)
C13 0.060(6) 0.051(6) 0.040(5) 0.011(4) 0.018(4) 0.023(5)
C14 0.078(7) 0.051(6) 0.023(4) -0.005(4) 0.018(4) 0.018(5)
C15 0.038(5) 0.045(5) 0.030(4) 0.001(4) 0.015(4) -0.003(4)
C16 0.068(6) 0.033(4) 0.053(5) 0.002(4) 0.045(5) 0.005(4)
C17 0.056(6) 0.038(5) 0.045(5) -0.001(4) 0.032(5) 0.007(4)
C18 0.073(6) 0.025(5) 0.057(6) -0.004(4) 0.045(5) 0.000(4)
C19 0.064(6) 0.039(5) 0.054(6) -0.006(4) 0.046(5) -0.006(4)
C20 0.039(4) 0.035(4) 0.035(4) 0.004(3) 0.020(3) 0.000(3)
C21 0.043(4) 0.037(4) 0.033(4) -0.001(3) 0.020(4) 0.000(3)
C22 0.051(5) 0.034(4) 0.036(4) -0.001(3) 0.023(4) -0.003(3)
C23 0.048(5) 0.046(5) 0.041(4) -0.004(4) 0.026(4) 0.004(4)
C24 0.046(5) 0.039(5) 0.036(4) -0.005(3) 0.021(4) -0.004(4)
N1 0.067(5) 0.046(5) 0.030(4) 0.000(3) 0.021(4) 0.002(4)
N2 0.040(4) 0.036(4) 0.036(4) -0.002(3) 0.023(3) -0.003(3)
N3 0.034(3) 0.034(4) 0.037(4) 0.001(3) 0.017(3) -0.003(3)
O1 0.045(3) 0.052(3) 0.031(3) 0.005(3) 0.021(3) 0.006(3)
O2 0.051(3) 0.046(3) 0.048(3) 0.006(3) 0.034(3) 0.003(3)
O3 0.032(3) 0.082(5) 0.034(3) -0.001(3) 0.016(3) 0.001(3)
O4 0.085(5) 0.054(4) 0.038(3) 0.002(3) 0.027(3) 0.014(4)
O5 0.157(9) 0.036(4) 0.127(7) 0.007(4) 0.125(7) 0.002(4)
O6 0.040(3) 0.083(5) 0.057(4) -0.026(4) 0.011(3) 0.007(3)
N4 0.192(12) 0.205(15) 0.170(12) 0.013(11) 0.121(10) -0.016(12)
C25 0.165(10) 0.175(14) 0.149(11) 0.001(11) 0.111(9) -0.001(11)
C26 0.153(12) 0.177(14) 0.176(13) -0.001(12) 0.097(10) 0.014(11)
N5 0.185(18) 0.19(2) 0.196(18) 0.008(15) 0.072(14) -0.009(15)
C27 0.180(17) 0.194(19) 0.193(17) 0.006(14) 0.070(13) 0.002(14)
C28 0.164(19) 0.19(2) 0.174(19) 0.018(15) 0.065(14) 0.008(15)
N6 0.177(17) 0.22(2) 0.18(2) 0.001(15) 0.086(15) -0.010(15)
C29 0.181(17) 0.222(19) 0.21(2) 0.003(14) 0.088(14) 0.000(13)
C30 0.190(19) 0.22(2) 0.21(2) -0.007(16) 0.096(15) 0.003(15)

_geom_special_details            
;
All esds (except the esd in the dihedral angle between two l.s. planes)
are estimated using the full covariance matrix. The cell esds are taken
into account individually in the estimation of esds in distances, angles
and torsion angles; correlations between esds in cell parameters are only
used when they are defined by crystal symmetry. An approximate (isotropic)
treatment of cell esds is used for estimating esds involving l.s. planes.
;

loop_
_geom_bond_atom_site_label_1
_geom_bond_atom_site_label_2
_geom_bond_distance
_geom_bond_site_symmetry_2
_geom_bond_publ_flag
Cu1 N1 1.983(8) 3_546 ?
Cu1 I1 2.5011(15) . ?
Cu1 Cu2 2.5384(15) . ?
Cu1 I2 2.5472(14) . ?
Cu2 N3 2.040(6) . ?
Cu2 N2 2.077(7) 3 ?
Cu2 I2 2.6270(13) . ?
Cu2 I1 2.6716(11) . ?
C1 C2 1.360(11) . ?
C1 C6 1.378(11) . ?
C1 H1A 0.9500 . ?
C2 C3 1.396(11) . ?
C2 O1 1.408(10) . ?
C3 C4 1.378(12) . ?
C3 H3A 0.9500 . ?
C4 C5 1.353(12) . ?
C4 O2 1.397(9) . ?
C5 C6 1.374(11) . ?
C5 H5A 0.9500 . ?
C6 O3 1.408(11) . ?
C7 O4 1.192(12) . ?
C7 O1 1.363(10) . ?
C7 C10 1.482(12) . ?
C8 O5 1.186(12) . ?
C8 O2 1.363(10) . ?
C8 C15 1.481(12) . ?
C9 O6 1.173(11) . ?
C9 O3 1.329(11) . ?
C9 C20 1.521(12) . ?
C10 C14 1.372(12) . ?
C10 C11 1.378(13) . ?
C11 C12 1.351(14) . ?
C11 H11A 0.9500 . ?
C12 N1 1.349(12) . ?
C12 H12A 0.9500 . ?
C13 N1 1.322(13) . ?
C13 C14 1.400(13) . ?
C13 H13A 0.9500 . ?
C14 H14A 0.9500 . ?
C15 C19 1.384(12) . ?
C15 C16 1.387(12) . ?
C16 C17 1.401(13) . ?
C16 H16A 0.9500 . ?
C17 N2 1.303(10) . ?
C17 H17A 0.9500 . ?
C18 N2 1.333(11) . ?
C18 C19 1.366(13) . ?
C18 H18A 0.9500 . ?
C19 H19A 0.9500 . ?
C20 C24 1.363(11) . ?
C20 C21 1.400(11) . ?
C21 C22 1.383(12) . ?
C21 H21A 0.9500 . ?
C22 N3 1.332(11) . ?
C22 H22A 0.9500 . ?
C23 C24 1.352(12) . ?
C23 N3 1.361(11) . ?
C23 H23A 0.9500 . ?
C24 H24A 0.9500 . ?
N1 Cu1 1.983(8) 3_454 ?
N2 Cu2 2.077(7) 3_445 ?
N4 C25 1.109(10) . ?
C25 C26 1.437(17) . ?
C26 H26A 0.9800 . ?
C26 H26B 0.9800 . ?
C26 H26C 0.9800 . ?
N5 C27 1.105(10) . ?
C27 C28 1.39(2) . ?
C28 H28A 0.9800 . ?
C28 H28B 0.9800 . ?
C28 H28C 0.9800 . ?
N6 C29 1.106(10) . ?
C29 C30 1.40(2) . ?
C30 H30A 0.9800 . ?
C30 H30B 0.9800 . ?
C30 H30C 0.9800 . ?

loop_
_geom_angle_atom_site_label_1
_geom_angle_atom_site_label_2
_geom_angle_atom_site_label_3
_geom_angle
_geom_angle_site_symmetry_1
_geom_angle_site_symmetry_3
_geom_angle_publ_flag
N1 Cu1 I1 123.0(3) 3_546 . ?
N1 Cu1 Cu2 172.6(3) 3_546 . ?
I1 Cu1 Cu2 64.02(4) . . ?
N1 Cu1 I2 111.1(3) 3_546 . ?
I1 Cu1 I2 125.77(5) . . ?
Cu2 Cu1 I2 62.20(4) . . ?
N3 Cu2 N2 109.2(3) . 3 ?
N3 Cu2 Cu1 119.18(19) . . ?
N2 Cu2 Cu1 131.6(2) 3 . ?
N3 Cu2 I2 107.85(19) . . ?
N2 Cu2 I2 105.6(2) 3 . ?
Cu1 Cu2 I2 59.06(4) . . ?
N3 Cu2 I1 107.60(19) . . ?
N2 Cu2 I1 110.5(2) 3 . ?
Cu1 Cu2 I1 57.31(4) . . ?
I2 Cu2 I1 116.00(4) . . ?
Cu1 I1 Cu2 58.67(4) . . ?
Cu1 I2 Cu2 58.73(4) . . ?
C2 C1 C6 117.1(7) . . ?
C2 C1 H1A 121.4 . . ?
C6 C1 H1A 121.4 . . ?
C1 C2 C3 123.3(7) . . ?
C1 C2 O1 119.3(7) . . ?
C3 C2 O1 117.4(7) . . ?
C4 C3 C2 115.9(8) . . ?
C4 C3 H3A 122.1 . . ?
C2 C3 H3A 122.1 . . ?
C5 C4 C3 123.4(7) . . ?
C5 C4 O2 117.4(7) . . ?
C3 C4 O2 119.1(7) . . ?
C4 C5 C6 117.9(8) . . ?
C4 C5 H5A 121.0 . . ?
C6 C5 H5A 121.0 . . ?
C5 C6 C1 122.4(8) . . ?
C5 C6 O3 117.3(7) . . ?
C1 C6 O3 120.3(7) . . ?
O4 C7 O1 123.4(7) . . ?
O4 C7 C10 126.5(8) . . ?
O1 C7 C10 110.0(8) . . ?
O5 C8 O2 123.3(8) . . ?
O5 C8 C15 125.1(8) . . ?
O2 C8 C15 111.5(8) . . ?
O6 C9 O3 125.6(8) . . ?
O6 C9 C20 123.6(8) . . ?
O3 C9 C20 110.9(7) . . ?
C14 C10 C11 116.8(9) . . ?
C14 C10 C7 124.5(9) . . ?
C11 C10 C7 118.4(9) . . ?
C12 C11 C10 121.0(10) . . ?
C12 C11 H11A 119.5 . . ?
C10 C11 H11A 119.5 . . ?
N1 C12 C11 121.9(10) . . ?
N1 C12 H12A 119.0 . . ?
C11 C12 H12A 119.0 . . ?
N1 C13 C14 120.8(10) . . ?
N1 C13 H13A 119.6 . . ?
C14 C1