####################################################################### 
# 
# This file contains crystal structure data downloaded from the 
# Cambridge Structural Database (CSD) hosted by the Cambridge 
# Crystallographic Data Centre (CCDC).
# 
# Full information about CCDC data access policies and citation 
# guidelines are available at http://www.ccdc.cam.ac.uk/access/V1 
# 
# Audit and citation data items may have been added by the CCDC. 
# Please retain this information to preserve the provenance of 
# this file and to allow appropriate attribution of the data. 
# 
#######################################################################

data_CuI-Ben
_audit_block_doi                 10.5517/cctr691
_database_code_depnum_ccdc_archive 'CCDC 767073'
loop_
_citation_id
_citation_doi
_citation_year
1 10.1002/asia.201000218 2010
_audit_update_record             
;
2010-02-21 deposited with the CCDC.	2024-07-08 downloaded from the CCDC.
;
#TrackingRef 'Compds.cif'


_audit_creation_method           SHELXL-97
_chemical_name_systematic        
;
?
;
_chemical_name_common            ?
_chemical_melting_point          ?
_chemical_formula_moiety         ?
_chemical_formula_sum            'C60 H42 Cu4 I4 N6 O12'
_chemical_formula_weight         1800.76

loop_
_atom_type_symbol
_atom_type_description
_atom_type_scat_dispersion_real
_atom_type_scat_dispersion_imag
_atom_type_scat_source
C C 0.0033 0.0016 'International Tables Vol C Tables 4.2.6.8 and 6.1.1.4'
H H 0.0000 0.0000 'International Tables Vol C Tables 4.2.6.8 and 6.1.1.4'
N N 0.0061 0.0033 'International Tables Vol C Tables 4.2.6.8 and 6.1.1.4'
O O 0.0106 0.0060 'International Tables Vol C Tables 4.2.6.8 and 6.1.1.4'
Cu Cu 0.3201 1.2651 'International Tables Vol C Tables 4.2.6.8 and 6.1.1.4'
I I -0.4742 1.8119 'International Tables Vol C Tables 4.2.6.8 and 6.1.1.4'

_symmetry_cell_setting           Monoclinic
_symmetry_space_group_name_H-M   P2

loop_
_symmetry_equiv_pos_as_xyz
'x, y, z'
'-x, y, -z'

_cell_length_a                   17.8991(10)
_cell_length_b                   7.8787(5)
_cell_length_c                   29.4265(18)
_cell_angle_alpha                90.00
_cell_angle_beta                 94.742(2)
_cell_angle_gamma                90.00
_cell_volume                     4135.6(4)
_cell_formula_units_Z            2
_cell_measurement_temperature    173(2)
_cell_measurement_reflns_used    ?
_cell_measurement_theta_min      ?
_cell_measurement_theta_max      ?

_exptl_crystal_description       Block
_exptl_crystal_colour            Red
_exptl_crystal_size_max          0.47
_exptl_crystal_size_mid          0.42
_exptl_crystal_size_min          0.34
_exptl_crystal_density_meas      ?
_exptl_crystal_density_diffrn    1.446
_exptl_crystal_density_method    'not measured'
_exptl_crystal_F_000             1736
_exptl_absorpt_coefficient_mu    2.557
_exptl_absorpt_correction_type   Multi-scan
_exptl_absorpt_correction_T_min  0.4769
_exptl_absorpt_correction_T_max  0.5346
_exptl_absorpt_process_details   SADABS

_exptl_special_details           
;
?
;

_diffrn_ambient_temperature      173(2)
_diffrn_radiation_wavelength     0.71073
_diffrn_radiation_type           MoK\a
_diffrn_radiation_source         'fine-focus sealed tube'
_diffrn_radiation_monochromator  graphite
_diffrn_measurement_device_type  Apex
_diffrn_measurement_method       ?
_diffrn_detector_area_resol_mean ?
_diffrn_standards_number         ?
_diffrn_standards_interval_count ?
_diffrn_standards_interval_time  ?
_diffrn_standards_decay_%        ?
_diffrn_reflns_number            22665
_diffrn_reflns_av_R_equivalents  0.0424
_diffrn_reflns_av_sigmaI/netI    0.0728
_diffrn_reflns_limit_h_min       -21
_diffrn_reflns_limit_h_max       15
_diffrn_reflns_limit_k_min       -9
_diffrn_reflns_limit_k_max       9
_diffrn_reflns_limit_l_min       -34
_diffrn_reflns_limit_l_max       35
_diffrn_reflns_theta_min         3.09
_diffrn_reflns_theta_max         25.50
_reflns_number_total             13829
_reflns_number_gt                9570
_reflns_threshold_expression     >2sigma(I)

_computing_data_collection       ?
_computing_cell_refinement       ?
_computing_data_reduction        ?
_computing_structure_solution    'SHELXS-97 (Sheldrick, 1990)'
_computing_structure_refinement  'SHELXL-97 (Sheldrick, 1997)'
_computing_molecular_graphics    ?
_computing_publication_material  ?

_refine_special_details          
;
Refinement of F^2^ against ALL reflections. The weighted R-factor wR and
goodness of fit S are based on F^2^, conventional R-factors R are based
on F, with F set to zero for negative F^2^. The threshold expression of
F^2^ > 2sigma(F^2^) is used only for calculating R-factors(gt) etc. and is
not relevant to the choice of reflections for refinement. R-factors based
on F^2^ are statistically about twice as large as those based on F, and R-
factors based on ALL data will be even larger.
;

_refine_ls_structure_factor_coef Fsqd
_refine_ls_matrix_type           full
_refine_ls_weighting_scheme      calc
_refine_ls_weighting_details     
'calc w=1/[\s^2^(Fo^2^)+(0.0810P)^2^+31.9280P] where P=(Fo^2^+2Fc^2^)/3'
_atom_sites_solution_primary     direct
_atom_sites_solution_secondary   difmap
_atom_sites_solution_hydrogens   geom
_refine_ls_hydrogen_treatment    constr
_refine_ls_extinction_method     none
_refine_ls_extinction_coef       ?
_refine_ls_abs_structure_details 'Flack H D (1983), Acta Cryst. A39, 876-881'
_refine_ls_abs_structure_Flack   0.39(3)
_refine_ls_number_reflns         13829
_refine_ls_number_parameters     687
_refine_ls_number_restraints     1
_refine_ls_R_factor_all          0.1014
_refine_ls_R_factor_gt           0.0684
_refine_ls_wR_factor_ref         0.2043
_refine_ls_wR_factor_gt          0.1732
_refine_ls_goodness_of_fit_ref   1.042
_refine_ls_restrained_S_all      1.042
_refine_ls_shift/su_max          0.001
_refine_ls_shift/su_mean         0.000

loop_
_atom_site_label
_atom_site_type_symbol
_atom_site_fract_x
_atom_site_fract_y
_atom_site_fract_z
_atom_site_U_iso_or_equiv
_atom_site_adp_type
_atom_site_occupancy
_atom_site_symmetry_multiplicity
_atom_site_calc_flag
_atom_site_refinement_flags
_atom_site_disorder_assembly
_atom_site_disorder_group
Cu1 Cu -0.23335(6) 0.81244(13) 0.48579(4) 0.0366(3) Uani 1 1 d . . .
Cu2 Cu -0.34910(7) 0.69549(14) 0.52167(4) 0.0426(3) Uani 1 1 d . . .
Cu3 Cu 0.26955(7) 1.23521(18) 0.98762(4) 0.0521(4) Uani 1 1 d . . .
Cu4 Cu 0.15455(8) 1.1187(2) 1.02343(4) 0.0591(4) Uani 1 1 d . . .
I1 I -0.35673(3) 0.99853(7) 0.49517(2) 0.04174(15) Uani 1 1 d . . .
I2 I -0.23494(4) 0.50123(8) 0.51908(2) 0.04928(18) Uani 1 1 d . . .
I3 I 0.14657(4) 1.42434(10) 0.99962(2) 0.0570(2) Uani 1 1 d . . .
I4 I 0.26836(5) 0.92534(10) 1.02067(3) 0.0676(2) Uani 1 1 d . . .
C1 C -0.2757(6) 0.6904(15) 0.2024(3) 0.054(3) Uani 1 1 d . . .
C2 C -0.2176(5) 0.7514(12) 0.1803(3) 0.044(3) Uani 1 1 d . . .
H2A H -0.1735 0.7945 0.1965 0.053 Uiso 1 1 calc R . .
C3 C -0.2252(6) 0.7480(14) 0.1334(3) 0.050(3) Uani 1 1 d . . .
C4 C -0.2878(6) 0.6783(16) 0.1084(4) 0.062(3) Uani 1 1 d . . .
H4A H -0.2915 0.6742 0.0761 0.075 Uiso 1 1 calc R . .
C5 C -0.3448(6) 0.6147(13) 0.1338(3) 0.049(3) Uani 1 1 d . . .
C6 C -0.3418(5) 0.6183(14) 0.1798(3) 0.049(3) Uani 1 1 d . . .
H6A H -0.3813 0.5753 0.1961 0.058 Uiso 1 1 calc R . .
C7 C -0.2132(6) 0.6591(14) 0.2766(3) 0.050(3) Uani 1 1 d . . .
C8 C -0.1051(6) 0.7266(16) 0.1079(3) 0.057(3) Uani 1 1 d . . .
C9 C -0.4556(6) 0.6279(14) 0.0850(4) 0.056(3) Uani 1 1 d . . .
C10 C -0.2204(5) 0.7002(13) 0.3257(3) 0.043(3) Uani 1 1 d . . .
C11 C -0.2779(5) 0.8024(11) 0.3392(3) 0.039(2) Uani 1 1 d . . .
H11A H -0.3152 0.8474 0.3177 0.047 Uiso 1 1 calc R . .
C12 C -0.2787(5) 0.8348(10) 0.3841(3) 0.038(2) Uani 1 1 d . . .
H12A H -0.3175 0.9054 0.3936 0.046 Uiso 1 1 calc R . .
C13 C -0.1718(5) 0.6776(10) 0.4041(3) 0.039(2) Uani 1 1 d . . .
H13A H -0.1343 0.6350 0.4259 0.046 Uiso 1 1 calc R . .
C14 C -0.1682(5) 0.6394(11) 0.3582(3) 0.040(2) Uani 1 1 d . . .
H14A H -0.1287 0.5696 0.3492 0.047 Uiso 1 1 calc R . .
C15 C -0.0461(6) 0.8261(17) 0.0848(3) 0.058(3) Uani 1 1 d . . .
C16 C 0.0180(7) 0.7404(14) 0.0746(4) 0.062(3) Uani 1 1 d . . .
H16A H 0.0228 0.6216 0.0794 0.074 Uiso 1 1 calc R . .
C17 C 0.0747(7) 0.8325(16) 0.0571(4) 0.065(4) Uani 1 1 d . . .
H17A H 0.1196 0.7751 0.0513 0.078 Uiso 1 1 calc R . .
C18 C 0.0067(6) 1.0800(14) 0.0575(3) 0.050(3) Uani 1 1 d . . .
H18A H 0.0034 1.1982 0.0513 0.060 Uiso 1 1 calc R . .
C19 C -0.0509(6) 1.0017(15) 0.0751(3) 0.052(3) Uani 1 1 d . . .
H19A H -0.0946 1.0638 0.0811 0.062 Uiso 1 1 calc R . .
C20 C -0.5169(6) 0.5253(15) 0.0625(3) 0.054(3) Uani 1 1 d . . .
C21 C -0.5765(7) 0.6139(16) 0.0392(4) 0.075(4) Uani 1 1 d . . .
H21A H -0.5762 0.7343 0.0373 0.090 Uiso 1 1 calc R . .
C22 C -0.6367(7) 0.5181(17) 0.0186(4) 0.070(4) Uani 1 1 d . . .
H22A H -0.6778 0.5777 0.0036 0.084 Uiso 1 1 calc R . .
C23 C -0.5803(6) 0.2703(14) 0.0414(4) 0.056(3) Uani 1 1 d . . .
H23A H -0.5802 0.1497 0.0417 0.067 Uiso 1 1 calc R . .
C24 C -0.5201(7) 0.3544(15) 0.0639(4) 0.060(3) Uani 1 1 d . . .
H24A H -0.4812 0.2918 0.0802 0.072 Uiso 1 1 calc R . .
C25 C 0.1593(5) 1.1653(11) 0.6326(3) 0.037(2) Uani 1 1 d . . .
C26 C 0.1639(5) 1.1546(11) 0.6787(3) 0.035(2) Uani 1 1 d . . .
H26A H 0.1246 1.1045 0.6939 0.042 Uiso 1 1 calc R . .
C27 C 0.2278(5) 1.2188(13) 0.7033(3) 0.042(2) Uani 1 1 d . . .
C28 C 0.2840(5) 1.2868(12) 0.6820(3) 0.040(2) Uani 1 1 d . . .
H28A H 0.3270 1.3319 0.6990 0.048 Uiso 1 1 calc R . .
C29 C 0.2783(4) 1.2901(10) 0.6346(3) 0.034(2) Uani 1 1 d . . .
C30 C 0.2139(5) 1.2334(10) 0.6078(3) 0.036(2) Uani 1 1 d . . .
H30A H 0.2087 1.2417 0.5754 0.044 Uiso 1 1 calc R . .
C31 C 0.0457(5) 1.1958(12) 0.5832(3) 0.040(2) Uani 1 1 d . . .
C32 C 0.2884(6) 1.1454(14) 0.7755(3) 0.052(3) Uani 1 1 d . . .
C33 C 0.4016(5) 1.2945(12) 0.6101(3) 0.039(2) Uani 1 1 d . . .
C34 C -0.0191(5) 1.0961(11) 0.5622(3) 0.033(2) Uani 1 1 d . . .
C35 C -0.0794(6) 1.1879(12) 0.5391(3) 0.047(3) Uani 1 1 d . . .
H35A H -0.0790 1.3084 0.5378 0.057 Uiso 1 1 calc R . .
C36 C -0.1367(5) 1.0987(10) 0.5194(3) 0.041(3) Uani 1 1 d . . .
H36A H -0.1774 1.1608 0.5049 0.050 Uiso 1 1 calc R . .
C37 C -0.0843(5) 0.8459(11) 0.5385(3) 0.043(3) Uani 1 1 d . . .
H37A H -0.0855 0.7255 0.5368 0.051 Uiso 1 1 calc R . .
C38 C -0.0216(5) 0.9194(12) 0.5621(3) 0.042(3) Uani 1 1 d . . .
H38A H 0.0171 0.8528 0.5773 0.050 Uiso 1 1 calc R . .
C39 C 0.2819(6) 1.1653(15) 0.8254(3) 0.054(3) Uani 1 1 d . . .
C40 C 0.2239(6) 1.2680(13) 0.8427(3) 0.045(3) Uani 1 1 d . . .
H40A H 0.1879 1.3244 0.8225 0.054 Uiso 1 1 calc R . .
C41 C 0.2220(6) 1.2820(12) 0.8886(3) 0.045(3) Uani 1 1 d . . .
H41A H 0.1822 1.3447 0.9000 0.054 Uiso 1 1 calc R . .
C42 C 0.3290(6) 1.1141(14) 0.9025(3) 0.054(3) Uani 1 1 d . . .
H42A H 0.3648 1.0596 0.9232 0.065 Uiso 1 1 calc R . .
C43 C 0.3341(6) 1.0926(14) 0.8558(3) 0.049(3) Uani 1 1 d . . .
H43A H 0.3738 1.0275 0.8451 0.059 Uiso 1 1 calc R . .
C44 C 0.4538(5) 1.3887(12) 0.5865(3) 0.037(2) Uani 1 1 d . . .
C45 C 0.5175(6) 1.3086(16) 0.5752(3) 0.056(3) Uiso 1 1 d . . .
H45A H 0.5241 1.1910 0.5815 0.068 Uiso 1 1 calc R . .
C46 C 0.5721(6) 1.3969(13) 0.5546(4) 0.050(3) Uani 1 1 d . . .
H46A H 0.6145 1.3381 0.5452 0.060 Uiso 1 1 calc R . .
C47 C 0.5041(5) 1.6503(11) 0.5600(3) 0.039(2) Uani 1 1 d . . .
H47A H 0.4992 1.7697 0.5563 0.047 Uiso 1 1 calc R . .
C48 C 0.4488(6) 1.5588(12) 0.5778(3) 0.049(3) Uani 1 1 d . . .
H48A H 0.4043 1.6164 0.5844 0.058 Uiso 1 1 calc R . .
N1 N -0.2261(4) 0.7716(8) 0.4177(3) 0.0362(19) Uani 1 1 d . . .
N2 N 0.0695(5) 0.9948(13) 0.0481(3) 0.054(2) Uani 1 1 d . . .
N3 N -0.6394(5) 0.3506(11) 0.0189(3) 0.049(2) Uani 1 1 d . . .
N4 N -0.1418(4) 0.9279(10) 0.5185(2) 0.040(2) Uani 1 1 d . . .
N5 N 0.2746(5) 1.2103(11) 0.9195(3) 0.052(2) Uani 1 1 d . . .
N6 N 0.5659(4) 1.5698(10) 0.5476(3) 0.040(2) Uani 1 1 d . . .
O1 O -0.2768(4) 0.6993(10) 0.2502(2) 0.055(2) Uani 1 1 d . . .
O2 O -0.1677(4) 0.8192(10) 0.1094(2) 0.055(2) Uani 1 1 d . . .
O3 O -0.4061(4) 0.5343(10) 0.1098(2) 0.064(2) Uani 1 1 d . . .
O4 O -0.1580(5) 0.5970(11) 0.2626(2) 0.070(2) Uani 1 1 d . . .
O5 O -0.0964(4) 0.5880(11) 0.1239(2) 0.062(2) Uani 1 1 d . . .
O6 O -0.4492(5) 0.7798(13) 0.0822(4) 0.096(3) Uani 1 1 d . . .
O7 O 0.0948(3) 1.0937(8) 0.6079(2) 0.0422(17) Uani 1 1 d . . .
O8 O 0.2270(4) 1.2170(10) 0.7503(2) 0.053(2) Uani 1 1 d . . .
O9 O 0.3332(4) 1.3741(8) 0.6116(2) 0.0403(16) Uani 1 1 d . . .
O10 O 0.0543(4) 1.3464(8) 0.5808(3) 0.056(2) Uani 1 1 d . . .
O11 O 0.3379(5) 1.0744(13) 0.7595(2) 0.083(3) Uani 1 1 d . . .
O12 O 0.4108(4) 1.1518(8) 0.6271(2) 0.0484(19) Uani 1 1 d . . .
C55 C -0.4658(10) 1.638(3) 0.2917(4) 0.226(14) Uiso 1 1 d G . .
H55A H -0.4186 1.6500 0.2795 0.272 Uiso 1 1 calc R . .
C56 C -0.5017(12) 1.778(2) 0.3082(6) 0.229(14) Uiso 1 1 d G . .
H56A H -0.4790 1.8873 0.3073 0.275 Uiso 1 1 calc R . .
C57 C -0.5708(12) 1.760(3) 0.3261(6) 0.234(14) Uiso 1 1 d G . .
H57A H -0.5953 1.8565 0.3373 0.281 Uiso 1 1 calc R . .
C58 C -0.6040(10) 1.601(4) 0.3274(5) 0.164(9) Uiso 1 1 d G . .
H58A H -0.6512 1.5885 0.3396 0.197 Uiso 1 1 calc R . .
C59 C -0.5682(12) 1.460(3) 0.3109(7) 0.209(13) Uiso 1 1 d G . .
H59A H -0.5909 1.3513 0.3118 0.251 Uiso 1 1 calc R . .
C60 C -0.4991(12) 1.478(3) 0.2930(6) 0.31(2) Uiso 1 1 d G . .
H60A H -0.4746 1.3820 0.2818 0.367 Uiso 1 1 calc R . .
C52 C 0.0579(8) 0.8772(16) 0.1959(4) 0.211(13) Uiso 1 1 d G . .
H52A H 0.0823 0.7706 0.2002 0.253 Uiso 1 1 calc R . .
C49 C -0.0136(8) 0.9004(18) 0.2100(4) 0.136(7) Uiso 1 1 d G . .
H49A H -0.0382 0.8096 0.2239 0.163 Uiso 1 1 calc R . .
C53 C -0.0492(8) 1.056(2) 0.2037(5) 0.128(6) Uiso 1 1 d G . .
H53A H -0.0981 1.0723 0.2133 0.153 Uiso 1 1 calc R . .
C51 C -0.0133(10) 1.1893(18) 0.1834(5) 0.164(9) Uiso 1 1 d G . .
H51A H -0.0376 1.2960 0.1791 0.197 Uiso 1 1 calc R . .
C50 C 0.0583(10) 1.1662(17) 0.1693(5) 0.185(11) Uiso 1 1 d G . .
H50A H 0.0829 1.2570 0.1554 0.222 Uiso 1 1 calc R . .
C54 C 0.0939(8) 1.0101(19) 0.1756(4) 0.135(7) Uiso 1 1 d G . .
H54A H 0.1428 0.9943 0.1660 0.162 Uiso 1 1 calc R . .

loop_
_atom_site_aniso_label
_atom_site_aniso_U_11
_atom_site_aniso_U_22
_atom_site_aniso_U_33
_atom_site_aniso_U_23
_atom_site_aniso_U_13
_atom_site_aniso_U_12
Cu1 0.0366(6) 0.0217(5) 0.0503(6) -0.0023(5) -0.0026(5) -0.0022(4)
Cu2 0.0417(6) 0.0244(5) 0.0621(7) 0.0026(5) 0.0064(5) -0.0032(5)
Cu3 0.0418(7) 0.0686(9) 0.0450(6) -0.0050(6) -0.0011(6) -0.0044(6)
Cu4 0.0456(7) 0.0760(10) 0.0565(7) 0.0015(7) 0.0091(6) -0.0037(7)
I1 0.0403(3) 0.0202(3) 0.0643(3) -0.0022(3) 0.0017(3) 0.0039(3)
I2 0.0423(3) 0.0202(3) 0.0851(4) 0.0081(3) 0.0041(3) 0.0022(3)
I3 0.0462(4) 0.0654(5) 0.0594(4) -0.0063(3) 0.0049(3) 0.0019(3)
I4 0.0487(4) 0.0696(5) 0.0851(5) 0.0065(4) 0.0090(4) 0.0017(4)
C1 0.046(6) 0.074(7) 0.044(5) 0.002(5) 0.010(5) 0.003(5)
C2 0.035(5) 0.048(6) 0.049(5) -0.002(4) 0.005(4) -0.006(4)
C3 0.037(5) 0.070(7) 0.043(5) 0.009(5) -0.007(4) 0.004(5)
C4 0.054(6) 0.081(8) 0.048(5) 0.005(5) -0.015(5) 0.002(6)
C5 0.041(5) 0.044(6) 0.062(6) -0.005(5) -0.001(5) 0.001(4)
C6 0.033(5) 0.072(7) 0.041(5) -0.003(5) -0.003(4) 0.002(5)
C7 0.043(5) 0.053(6) 0.052(5) 0.008(5) 0.001(5) -0.007(5)
C8 0.042(6) 0.092(9) 0.038(5) 0.003(5) 0.008(4) 0.005(6)
C9 0.049(6) 0.043(6) 0.075(7) -0.001(5) -0.005(5) -0.010(5)
C10 0.034(5) 0.061(6) 0.035(4) 0.005(4) 0.000(4) -0.008(4)
C11 0.048(5) 0.023(4) 0.047(5) 0.011(4) 0.005(4) 0.007(4)
C12 0.040(5) 0.014(4) 0.061(5) 0.002(4) -0.001(4) -0.002(3)
C13 0.038(5) 0.022(4) 0.053(5) 0.008(4) -0.013(4) -0.004(4)
C14 0.039(5) 0.031(5) 0.049(5) -0.005(4) 0.004(4) -0.003(4)
C15 0.039(5) 0.094(9) 0.040(5) -0.003(5) -0.001(4) 0.003(6)
C16 0.059(7) 0.042(6) 0.089(7) -0.003(5) 0.029(6) 0.008(5)
C17 0.044(6) 0.069(8) 0.081(7) 0.009(6) 0.013(6) 0.012(6)
C18 0.050(6) 0.039(5) 0.060(6) 0.007(5) 0.000(5) 0.006(5)
C19 0.047(6) 0.056(6) 0.053(5) 0.002(5) 0.012(5) 0.012(5)
C20 0.043(6) 0.067(8) 0.051(5) -0.004(5) -0.002(5) 0.002(5)
C21 0.060(7) 0.052(7) 0.106(9) -0.012(6) -0.036(7) 0.011(6)
C22 0.055(7) 0.084(9) 0.068(7) -0.004(7) -0.013(6) 0.001(7)
C23 0.038(5) 0.049(6) 0.081(7) -0.014(5) 0.004(5) -0.011(5)
C24 0.055(7) 0.067(8) 0.056(6) -0.009(5) -0.007(5) 0.001(6)
C25 0.025(4) 0.035(5) 0.050(5) -0.001(4) -0.007(4) -0.006(4)
C26 0.024(4) 0.037(5) 0.044(5) 0.004(4) 0.005(4) -0.005(4)
C27 0.032(5) 0.051(6) 0.043(5) 0.000(4) 0.002(4) 0.007(4)
C28 0.031(4) 0.043(5) 0.044(5) 0.006(4) -0.011(4) 0.005(4)
C29 0.013(4) 0.023(4) 0.067(5) 0.012(4) 0.003(4) -0.003(3)
C30 0.041(5) 0.022(4) 0.044(5) 0.000(4) -0.009(4) 0.005(4)
C31 0.034(5) 0.030(5) 0.057(5) -0.002(4) -0.002(4) 0.005(4)
C32 0.055(6) 0.060(7) 0.040(5) 0.008(5) 0.002(5) 0.000(5)
C33 0.030(4) 0.037(5) 0.051(5) -0.004(4) 0.002(4) -0.006(4)
C34 0.026(4) 0.023(5) 0.050(5) 0.000(4) 0.004(4) -0.004(3)
C35 0.040(5) 0.028(5) 0.073(6) -0.007(5) 0.000(5) 0.008(4)
C36 0.032(4) 0.012(4) 0.078(6) 0.004(4) -0.008(5) 0.005(3)
C37 0.041(5) 0.022(5) 0.066(6) 0.020(4) 0.003(5) -0.003(4)
C38 0.031(4) 0.025(5) 0.067(6) -0.002(4) -0.013(4) -0.005(4)
C39 0.044(6) 0.070(7) 0.050(5) -0.014(5) 0.005(5) -0.003(5)
C40 0.046(5) 0.049(6) 0.039(5) 0.009(4) -0.009(4) -0.003(4)
C41 0.042(5) 0.030(5) 0.065(6) -0.021(4) 0.012(5) 0.001(4)
C42 0.048(6) 0.057(7) 0.055(6) -0.005(5) -0.003(5) 0.000(5)
C43 0.045(5) 0.058(6) 0.046(5) 0.003(5) 0.003(4) 0.013(5)
C44 0.036(5) 0.033(5) 0.044(4) -0.005(4) 0.010(4) -0.003(4)
C46 0.041(5) 0.029(5) 0.082(6) 0.004(5) 0.023(5) 0.001(4)
C47 0.045(5) 0.015(4) 0.057(5) 0.004(4) 0.005(4) -0.007(4)
C48 0.051(6) 0.022(4) 0.072(6) 0.000(4) -0.002(5) 0.009(4)
N1 0.028(4) 0.017(4) 0.062(4) 0.002(3) -0.003(3) -0.005(3)
N2 0.046(5) 0.065(6) 0.053(4) 0.003(5) 0.016(4) 0.008(5)
N3 0.049(5) 0.048(5) 0.050(4) -0.006(4) 0.000(4) 0.010(4)
N4 0.041(4) 0.035(4) 0.041(4) -0.005(3) -0.005(3) 0.005(3)
N5 0.039(4) 0.062(6) 0.052(4) 0.010(4) -0.017(4) 0.001(4)
N6 0.036(4) 0.029(4) 0.053(4) -0.008(4) -0.004(4) -0.00