####################################################################### 
# 
# This file contains crystal structure data downloaded from the 
# Cambridge Structural Database (CSD) hosted by the Cambridge 
# Crystallographic Data Centre (CCDC).
# 
# Full information about CCDC data access policies and citation 
# guidelines are available at http://www.ccdc.cam.ac.uk/access/V1 
# 
# Audit and citation data items may have been added by the CCDC. 
# Please retain this information to preserve the provenance of 
# this file and to allow appropriate attribution of the data. 
# 
#######################################################################

data_CuBr
_audit_block_doi                 10.5517/cctr6f5
_database_code_depnum_ccdc_archive 'CCDC 767077'
loop_
_citation_id
_citation_doi
_citation_year
1 10.1002/asia.201000218 2010
_audit_update_record             
;
2010-02-21 deposited with the CCDC.	2024-07-08 downloaded from the CCDC.
;
#TrackingRef 'Compds.cif'


_audit_creation_method           SHELXL-97
_chemical_name_systematic        
;
?
;
_chemical_name_common            ?
_chemical_melting_point          ?
_chemical_formula_moiety         ?
_chemical_formula_sum            'C48 H30 Br2 Cu2 N6 O12'
_chemical_formula_weight         1169.68

loop_
_atom_type_symbol
_atom_type_description
_atom_type_scat_dispersion_real
_atom_type_scat_dispersion_imag
_atom_type_scat_source
C C 0.0033 0.0016 'International Tables Vol C Tables 4.2.6.8 and 6.1.1.4'
H H 0.0000 0.0000 'International Tables Vol C Tables 4.2.6.8 and 6.1.1.4'
N N 0.0061 0.0033 'International Tables Vol C Tables 4.2.6.8 and 6.1.1.4'
O O 0.0106 0.0060 'International Tables Vol C Tables 4.2.6.8 and 6.1.1.4'
Cu Cu 0.3201 1.2651 'International Tables Vol C Tables 4.2.6.8 and 6.1.1.4'
Br Br -0.2901 2.4595 'International Tables Vol C Tables 4.2.6.8 and 6.1.1.4'

_symmetry_cell_setting           monoclinic
_symmetry_space_group_name_H-M   P2/n

loop_
_symmetry_equiv_pos_as_xyz
'x, y, z'
'-x+1/2, y, -z+1/2'
'-x, -y, -z'
'x-1/2, -y, z-1/2'

_cell_length_a                   30.267(3)
_cell_length_b                   7.7321(8)
_cell_length_c                   32.107(3)
_cell_angle_alpha                90.00
_cell_angle_beta                 115.235(2)
_cell_angle_gamma                90.00
_cell_volume                     6796.8(12)
_cell_formula_units_Z            4
_cell_measurement_temperature    173(2)
_cell_measurement_reflns_used    ?
_cell_measurement_theta_min      ?
_cell_measurement_theta_max      ?

_exptl_crystal_description       Block
_exptl_crystal_colour            Red
_exptl_crystal_size_max          0.46
_exptl_crystal_size_mid          0.37
_exptl_crystal_size_min          0.35
_exptl_crystal_density_meas      ?
_exptl_crystal_density_diffrn    1.143
_exptl_crystal_density_method    'not measured'
_exptl_crystal_F_000             2336
_exptl_absorpt_coefficient_mu    1.850
_exptl_absorpt_correction_type   multi-scan
_exptl_absorpt_correction_T_min  0.4832
_exptl_absorpt_correction_T_max  0.5637
_exptl_absorpt_process_details   SADABS

_exptl_special_details           
;
?
;

_diffrn_ambient_temperature      173(2)
_diffrn_radiation_wavelength     0.71073
_diffrn_radiation_type           MoK\a
_diffrn_radiation_source         'fine-focus sealed tube'
_diffrn_radiation_monochromator  graphite
_diffrn_measurement_device_type  'Bruker apex'
_diffrn_measurement_method       ?
_diffrn_detector_area_resol_mean ?
_diffrn_standards_number         ?
_diffrn_standards_interval_count ?
_diffrn_standards_interval_time  ?
_diffrn_standards_decay_%        ?
_diffrn_reflns_number            33546
_diffrn_reflns_av_R_equivalents  0.0428
_diffrn_reflns_av_sigmaI/netI    0.0646
_diffrn_reflns_limit_h_min       -36
_diffrn_reflns_limit_h_max       36
_diffrn_reflns_limit_k_min       -9
_diffrn_reflns_limit_k_max       9
_diffrn_reflns_limit_l_min       -21
_diffrn_reflns_limit_l_max       38
_diffrn_reflns_theta_min         1.91
_diffrn_reflns_theta_max         25.50
_reflns_number_total             12646
_reflns_number_gt                7433
_reflns_threshold_expression     >2sigma(I)

_computing_data_collection       ?
_computing_cell_refinement       ?
_computing_data_reduction        ?
_computing_structure_solution    'SHELXS-97 (Sheldrick, 1990)'
_computing_structure_refinement  'SHELXL-97 (Sheldrick, 1997)'
_computing_molecular_graphics    ?
_computing_publication_material  ?

_refine_special_details          
;
Refinement of F^2^ against ALL reflections. The weighted R-factor wR and
goodness of fit S are based on F^2^, conventional R-factors R are based
on F, with F set to zero for negative F^2^. The threshold expression of
F^2^ > 2sigma(F^2^) is used only for calculating R-factors(gt) etc. and is
not relevant to the choice of reflections for refinement. R-factors based
on F^2^ are statistically about twice as large as those based on F, and R-
factors based on ALL data will be even larger.
;

_refine_ls_structure_factor_coef Fsqd
_refine_ls_matrix_type           full
_refine_ls_weighting_scheme      calc
_refine_ls_weighting_details     
'calc w=1/[\s^2^(Fo^2^)+(0.0810P)^2^+15.0000P] where P=(Fo^2^+2Fc^2^)/3'
_atom_sites_solution_primary     direct
_atom_sites_solution_secondary   difmap
_atom_sites_solution_hydrogens   geom
_refine_ls_hydrogen_treatment    constr
_refine_ls_extinction_method     none
_refine_ls_extinction_coef       ?
_refine_ls_number_reflns         12646
_refine_ls_number_parameters     631
_refine_ls_number_restraints     240
_refine_ls_R_factor_all          0.1107
_refine_ls_R_factor_gt           0.0759
_refine_ls_wR_factor_ref         0.1996
_refine_ls_wR_factor_gt          0.1864
_refine_ls_goodness_of_fit_ref   1.047
_refine_ls_restrained_S_all      1.081
_refine_ls_shift/su_max          0.002
_refine_ls_shift/su_mean         0.000

loop_
_atom_site_label
_atom_site_type_symbol
_atom_site_fract_x
_atom_site_fract_y
_atom_site_fract_z
_atom_site_U_iso_or_equiv
_atom_site_adp_type
_atom_site_occupancy
_atom_site_symmetry_multiplicity
_atom_site_calc_flag
_atom_site_refinement_flags
_atom_site_disorder_assembly
_atom_site_disorder_group
Cu1 Cu 0.880801(16) 0.78467(6) 0.743597(16) 0.03535(13) Uani 1 1 d . . .
Cu2 Cu 0.876238(16) 1.25980(6) 1.239907(16) 0.03450(13) Uani 1 1 d . . .
Br1 Br 0.890787(19) 0.47880(5) 0.762606(16) 0.05540(15) Uani 1 1 d . . .
Br2 Br 0.88580(3) 0.95491(6) 1.25806(2) 0.1044(3) Uani 1 1 d U . .
C1 C 0.73407(14) 0.8063(6) 0.45810(14) 0.0430(11) Uani 1 1 d . . .
C2 C 0.75880(14) 0.7310(5) 0.43527(14) 0.0412(11) Uani 1 1 d . . .
H2A H 0.7909 0.6870 0.4517 0.049 Uiso 1 1 calc R . .
C3 C 0.73541(13) 0.7212(5) 0.38743(13) 0.0358(10) Uani 1 1 d . . .
C4 C 0.68919(13) 0.7867(4) 0.36252(14) 0.0339(10) Uani 1 1 d . . .
H4A H 0.6737 0.7803 0.3299 0.041 Uiso 1 1 calc R . .
C5 C 0.66639(13) 0.8622(5) 0.38734(14) 0.0369(11) Uani 1 1 d . . .
C6 C 0.68741(14) 0.8721(5) 0.43433(14) 0.0409(11) Uani 1 1 d . . .
H6A H 0.6705 0.9227 0.4503 0.049 Uiso 1 1 calc R . .
C7 C 0.74194(15) 0.7435(5) 0.53231(14) 0.0413(11) Uani 1 1 d . . .
C8 C 0.7771(2) 0.7084(7) 0.3403(3) 0.095(2) Uani 1 1 d . . .
C9 C 0.58233(17) 0.8346(6) 0.3448(2) 0.0743(19) Uani 1 1 d . . .
C10 C 0.77535(13) 0.7661(4) 0.58204(13) 0.0322(10) Uani 1 1 d . . .
C11 C 0.76316(13) 0.6879(5) 0.61471(13) 0.0348(10) Uani 1 1 d . . .
H11A H 0.7335 0.6251 0.6056 0.042 Uiso 1 1 calc R . .
C12 C 0.79428(14) 0.7028(5) 0.65968(13) 0.0367(10) Uani 1 1 d . . .
H12A H 0.7858 0.6478 0.6817 0.044 Uiso 1 1 calc R . .
C13 C 0.84812(13) 0.8685(5) 0.64323(13) 0.0326(10) Uani 1 1 d . . .
H13A H 0.8777 0.9321 0.6532 0.039 Uiso 1 1 calc R . .
C14 C 0.81837(13) 0.8580(5) 0.59688(13) 0.0349(10) Uani 1 1 d . . .
H14A H 0.8274 0.9137 0.5753 0.042 Uiso 1 1 calc R . .
C15 C 0.79953(17) 0.5899(6) 0.31530(19) 0.0629(15) Uani 1 1 d U . .
C16 C 0.8109(2) 0.6677(8) 0.2852(2) 0.092(2) Uani 1 1 d U . .
H16A H 0.8075 0.7883 0.2791 0.110 Uiso 1 1 calc R . .
C17 C 0.8285(2) 0.5517(7) 0.2637(2) 0.0893(19) Uani 1 1 d U . .
H17A H 0.8341 0.5965 0.2388 0.107 Uiso 1 1 calc R . .
N2 N 0.83896(12) 0.3832(5) 0.27312(12) 0.0486(10) Uani 1 1 d U . .
C18 C 0.8283(2) 0.3204(8) 0.3048(2) 0.0790(18) Uani 1 1 d U . .
H18A H 0.8336 0.2009 0.3121 0.095 Uiso 1 1 calc R . .
C19 C 0.80757(18) 0.4321(7) 0.3307(2) 0.0751(16) Uani 1 1 d U . .
H19A H 0.8011 0.3916 0.3555 0.090 Uiso 1 1 calc R . .
C20 C 0.53588(15) 0.9348(5) 0.31928(19) 0.0594(15) Uani 1 1 d U . .
C21 C 0.49454(18) 0.8458(7) 0.2942(3) 0.104(2) Uani 1 1 d U . .
H21A H 0.4951 0.7230 0.2939 0.125 Uiso 1 1 calc R . .
C22 C 0.45097(18) 0.9340(7) 0.2687(3) 0.104(2) Uani 1 1 d U . .
H22A H 0.4233 0.8702 0.2486 0.125 Uiso 1 1 calc R . .
N3 N 0.44704(12) 1.1039(4) 0.27183(14) 0.0536(12) Uani 1 1 d U . .
C23 C 0.48836(14) 1.1893(5) 0.29503(14) 0.0405(11) Uani 1 1 d U . .
H23A H 0.4871 1.3121 0.2948 0.049 Uiso 1 1 calc R . .
C24 C 0.53325(14) 1.1113(5) 0.31952(15) 0.0437(12) Uani 1 1 d U . .
H24A H 0.5616 1.1788 0.3361 0.052 Uiso 1 1 calc R . .
C25 C 0.72803(12) 1.2260(5) 0.88393(13) 0.0325(10) Uani 1 1 d . . .
C26 C 0.68233(12) 1.2963(4) 0.85950(12) 0.0294(9) Uani 1 1 d . . .
H26A H 0.6668 1.2940 0.8268 0.035 Uiso 1 1 calc R . .
C27 C 0.66012(13) 1.3706(5) 0.88490(13) 0.0319(10) Uani 1 1 d . . .
C28 C 0.68116(13) 1.3769(5) 0.93184(13) 0.0345(10) Uani 1 1 d . . .
H28A H 0.6647 1.4274 0.9483 0.041 Uiso 1 1 calc R . .
C29 C 0.72747(13) 1.3067(5) 0.95462(13) 0.0351(11) Uani 1 1 d . . .
C30 C 0.75165(13) 1.2302(5) 0.93124(13) 0.0337(10) Uani 1 1 d . . .
H30A H 0.7834 1.1825 0.9473 0.040 Uiso 1 1 calc R . .
C31 C 0.77298(14) 1.2245(5) 0.83927(15) 0.0457(11) Uani 1 1 d . . .
C32 C 0.57604(16) 1.3523(6) 0.8389(2) 0.0646(17) Uani 1 1 d U . .
C33 C 0.73372(13) 1.2426(5) 1.02922(13) 0.0346(10) Uani 1 1 d . . .
C34 C 0.79613(13) 1.1098(5) 0.81669(13) 0.0354(10) Uani 1 1 d . . .
C35 C 0.81061(17) 1.1804(6) 0.78542(16) 0.0651(12) Uani 1 1 d U . .
H35A H 0.8055 1.3000 0.7782 0.078 Uiso 1 1 calc R . .
C36 C 0.83278(16) 1.0780(5) 0.76425(16) 0.0544(12) Uani 1 1 d U . .
H36A H 0.8430 1.1290 0.7429 0.065 Uiso 1 1 calc R . .
C37 C 0.82433(14) 0.8399(5) 0.80193(13) 0.0399(10) Uani 1 1 d . . .
H37A H 0.8284 0.7190 0.8075 0.048 Uiso 1 1 calc R . .
C38 C 0.80208(14) 0.9348(5) 0.82422(14) 0.0400(10) Uani 1 1 d . . .
H38A H 0.7911 0.8795 0.8445 0.048 Uiso 1 1 calc R . .
C39 C 0.53040(15) 1.4560(5) 0.81506(18) 0.0560(15) Uani 1 1 d U . .
C40 C 0.4878(2) 1.3692(7) 0.7892(3) 0.113(3) Uani 1 1 d U . .
H40A H 0.4876 1.2464 0.7880 0.136 Uiso 1 1 calc R . .
C41 C 0.44556(19) 1.4610(7) 0.7649(2) 0.099(2) Uani 1 1 d U . .
H41A H 0.4171 1.3995 0.7454 0.119 Uiso 1 1 calc R . .
C42 C 0.48346(13) 1.7099(5) 0.79206(15) 0.0431(12) Uani 1 1 d . . .
H42A H 0.4825 1.8324 0.7938 0.052 Uiso 1 1 calc R . .
C43 C 0.52792(15) 1.6271(5) 0.81554(15) 0.0456(13) Uani 1 1 d . . .
H43A H 0.5566 1.6931 0.8320 0.055 Uiso 1 1 calc R . .
C44 C 0.76814(13) 1.2598(4) 1.07868(13) 0.0320(10) Uani 1 1 d . . .
C45 C 0.75633(13) 1.1825(5) 1.11166(13) 0.0337(10) Uani 1 1 d . . .
H45A H 0.7260 1.1241 1.1028 0.040 Uiso 1 1 calc R . .
C46 C 0.78807(13) 1.1910(5) 1.15615(13) 0.0353(10) Uani 1 1 d . . .
H46A H 0.7797 1.1340 1.1780 0.042 Uiso 1 1 calc R . .
C47 C 0.84166(14) 1.3531(5) 1.14051(14) 0.0360(11) Uani 1 1 d . . .
H47A H 0.8715 1.4151 1.1508 0.043 Uiso 1 1 calc R . .
C48 C 0.81202(13) 1.3499(4) 1.09390(13) 0.0314(9) Uani 1 1 d . . .
H48A H 0.8213 1.4077 1.0727 0.038 Uiso 1 1 calc R . .
N1 N 0.83679(10) 0.7919(4) 0.67507(10) 0.0301(8) Uani 1 1 d . . .
N4 N 0.84010(11) 0.9089(4) 0.77342(11) 0.0326(8) Uani 1 1 d . . .
N5 N 0.44293(11) 1.6274(4) 0.76769(11) 0.0389(9) Uani 1 1 d . . .
N6 N 0.83102(11) 1.2752(4) 1.17178(10) 0.0321(8) Uani 1 1 d . . .
O1 O 0.75982(10) 0.8218(4) 0.50520(9) 0.0534(9) Uani 1 1 d . . .
O2 O 0.75812(10) 0.6336(4) 0.36405(9) 0.0439(8) Uani 1 1 d . . .
O3 O 0.62037(9) 0.9398(3) 0.36397(11) 0.0470(9) Uani 1 1 d . . .
O4 O 0.70445(11) 0.6625(4) 0.51819(11) 0.0611(10) Uani 1 1 d . . .
O5 O 0.77455(17) 0.8665(7) 0.33679(18) 0.1276(17) Uani 1 1 d U . .
O6 O 0.58472(12) 0.6828(4) 0.34543(17) 0.0978(16) Uani 1 1 d U . .
O7 O 0.75089(8) 1.1340(3) 0.86068(9) 0.0338(7) Uani 1 1 d . . .
O8 O 0.61451(9) 1.4511(3) 0.86178(9) 0.0356(7) Uani 1 1 d . . .
O9 O 0.75282(9) 1.3165(4) 1.00212(8) 0.0405(8) Uani 1 1 d . . .
O10 O 0.77278(13) 1.3785(4) 0.83737(14) 0.0866(11) Uani 1 1 d U . .
O11 O 0.57866(13) 1.1996(5) 0.83927(19) 0.1134(19) Uani 1 1 d U . .
O12 O 0.69601(10) 1.1718(4) 1.01510(10) 0.0571(10) Uani 1 1 d U . .

loop_
_atom_site_aniso_label
_atom_site_aniso_U_11
_atom_site_aniso_U_22
_atom_site_aniso_U_33
_atom_site_aniso_U_23
_atom_site_aniso_U_13
_atom_site_aniso_U_12
Cu1 0.0426(2) 0.0226(2) 0.0438(2) -0.0028(2) 0.0212(2) -0.00128(19)
Cu2 0.0377(2) 0.0255(2) 0.0368(2) -0.0037(2) 0.01250(19) 0.0021(2)
Br1 0.0791(3) 0.01931(18) 0.0532(3) 0.00351(18) 0.0142(2) -0.0043(2)
Br2 0.1345(5) 0.0190(2) 0.0813(4) 0.0046(2) -0.0295(4) 0.0029(3)
C1 0.0467(19) 0.048(2) 0.045(2) -0.0072(19) 0.0293(17) -0.0113(19)
C2 0.0365(19) 0.046(2) 0.043(2) 0.0070(19) 0.0188(17) 0.0085(18)
C3 0.0380(18) 0.0294(19) 0.046(2) -0.0001(17) 0.0238(16) 0.0015(16)
C4 0.0377(18) 0.0218(17) 0.045(2) 0.0018(16) 0.0197(16) 0.0015(16)
C5 0.0354(18) 0.0284(19) 0.053(2) 0.0002(17) 0.0247(17) -0.0010(16)
C6 0.0449(19) 0.036(2) 0.056(2) -0.0052(18) 0.0353(17) 0.0004(17)
C7 0.053(2) 0.0266(19) 0.048(2) 0.0051(17) 0.0260(18) 0.0041(18)
C8 0.096(3) 0.034(3) 0.171(6) 0.001(3) 0.073(4) 0.011(3)
C9 0.051(2) 0.024(2) 0.147(5) -0.002(3) 0.042(3) 0.005(2)
C10 0.0388(17) 0.0202(17) 0.043(2) 0.0011(15) 0.0234(15) 0.0028(15)
C11 0.0364(17) 0.0243(18) 0.052(2) -0.0019(16) 0.0271(16) 0.0008(15)
C12 0.050(2) 0.0252(18) 0.041(2) 0.0055(16) 0.0251(17) 0.0035(17)
C13 0.0370(18) 0.0261(18) 0.040(2) 0.0025(16) 0.0210(16) 0.0024(16)
C14 0.0445(19) 0.0251(18) 0.043(2) 0.0080(16) 0.0264(16) 0.0015(16)
C15 0.057(2) 0.036(2) 0.097(3) 0.029(2) 0.034(2) 0.009(2)
C16 0.109(4) 0.054(3) 0.130(4) 0.014(3) 0.069(3) 0.013(3)
C17 0.107(3) 0.061(3) 0.094(3) -0.012(3) 0.038(3) 0.054(3)
N2 0.0496(17) 0.050(2) 0.0587(19) -0.0139(17) 0.0350(15) -0.0030(16)
C18 0.098(3) 0.060(3) 0.092(3) -0.009(3) 0.053(3) -0.021(3)
C19 0.067(3) 0.073(3) 0.099(3) 0.041(3) 0.049(2) 0.015(3)
C20 0.037(2) 0.030(2) 0.107(3) -0.007(2) 0.027(2) 0.0010(18)
C21 0.044(3) 0.034(2) 0.198(6) -0.017(3) 0.017(3) 0.000(2)
C22 0.039(2) 0.039(3) 0.200(6) -0.030(3) 0.018(3) 0.002(2)
N3 0.0392(17) 0.0240(16) 0.093(3) -0.0063(17) 0.0234(18) -0.0031(14)
C23 0.0428(19) 0.0232(18) 0.056(2) 0.0000(17) 0.0211(18) -0.0009(17)
C24 0.0360(19) 0.0277(19) 0.068(3) 0.0004(18) 0.0223(18) -0.0048(16)
C25 0.0330(16) 0.0287(18) 0.044(2) -0.0010(16) 0.0247(15) -0.0065(15)
C26 0.0346(17) 0.0256(17) 0.0299(18) 0.0028(15) 0.0156(14) -0.0065(15)
C27 0.0378(17) 0.0264(18) 0.040(2) -0.0011(15) 0.0242(15) -0.0011(15)
C28 0.0386(18) 0.037(2) 0.0346(19) -0.0049(16) 0.0216(16) -0.0066(17)
C29 0.0328(18) 0.038(2) 0.0289(19) -0.0019(17) 0.0074(16) -0.0064(17)
C30 0.0274(17) 0.035(2) 0.037(2) 0.0023(17) 0.0114(15) -0.0015(16)
C31 0.065(2) 0.028(2) 0.071(2) 0.0005(18) 0.0545(17) 0.0061(18)
C32 0.038(2) 0.034(2) 0.108(4) -0.019(2) 0.018(2) -0.0002(19)
C33 0.0338(18) 0.0318(19) 0.038(2) 0.0013(17) 0.0153(16) -0.0003(16)
C34 0.0386(18) 0.032(2) 0.045(2) -0.0045(16) 0.0269(16) 0.0042(16)
C35 0.110(3) 0.034(2) 0.096(3) 0.019(2) 0.087(2) 0.024(2)
C36 0.079(2) 0.037(2) 0.072(2) 0.0274(19) 0.0562(19) 0.017(2)
C37 0.061(2) 0.0274(19) 0.052(2) 0.0051(16) 0.0438(17) 0.0037(17)
C38 0.0489(19) 0.034(2) 0.051(2) 0.0079(17) 0.0351(17) 0.0025(18)
C39 0.030(2) 0.034(2) 0.087(3) -0.016(2) 0.008(2) 0.0051(18)
C40 0.056(3) 0.046(3) 0.178(6) -0.033(3) -0.008(4) 0.008(3)
C41 0.044(3) 0.047(3) 0.158(5) -0.043(3) -0.003(3) 0.009(2)
C42 0.0323(19) 0.0266(19) 0.063(3) 0.0128(19) 0.0130(19) -0.0023(17)
C43 0.037(2) 0.032(2) 0.059(3) 0.0101(19) 0.012(2) -0.0063(18)
C44 0.0401(18) 0.0206(17) 0.0379(19) 0.0037(15) 0.0191(16) 0.0029(15)
C45 0.0323(18) 0.0297(19) 0.036(2) -0.0048(16) 0.0114(16) -0.0056(16)
C46 0.0435(19) 0.0246(18) 0.043(2) 0.0073(16) 0.0238(16) 0.0003(16)
C47 0.0325(18) 0.0234(18) 0.046(2) -0.0026(17) 0.0108(17) 0.0001(16)
C48 0.0407(18) 0.0210(17) 0.041(2) 0.0028(15) 0.0251(15) 0.0000(15)
N1 0.0373(14) 0.0221(14) 0.0358(15) 0.0001(13) 0.0202(12) 0.0036(13)
N4 0.0370(15) 0.0247(15) 0.0404(17) 0.0029(13) 0.0207(13) 0.0061(13)
N5 0.0325(15) 0.0390(18) 0.0448(19) -0.0032(15) 0.0160(14) 0.0056(14)
N6 0.0381(15) 0.0203(14) 0.0380(16) -0.0002(13) 0.0161(13) -0.0022(13)
O1 0.0570(15) 0.077(2) 0.0333(14) -0.0105(14) 0.0266(12) -0.0233(16)
O2 0.0509(14) 0.0455(16) 0.0457(15) -0.0023(13) 0.0307(12) 0.0094(13)
O3 0.0339(13) 0.0278(14) 0.0729(19) -0.0023(13) 0.0165(13) 0.0048(12)
O4 0.0521(17) 0.0579(19) 0.061(2) 0.0144(16) 0.0120(15) -0.0162(16)
O5 0.160(3) 0.102(3) 0.175(3) 0.002(3) 0.123(2) 0.008(3)
O6 0.0508(19) 0.0378(18) 0.176(4) -0.006(2) 0.020(2) 0.0015(16)
O7 0.0373(12) 0.0276(13) 0.0446(14) -0.0023(11) 0.0252(11) -0.0004(11)
O8 0.0332(12) 0.0282(13) 0.0455(14) 0.0024(11) 0.0169(11) 0.0006(11)
O9 0.0390(13) 0.0556(17) 0.0284(13) -0.0035(12) 0.0158(11) -0.0081(13)
O10 0.126(2) 0.0452(19) 0.139(2) -0.0048(17) 0.1055(18) 0.0068(18)
O11 0.053(2) 0.043(2) 0.200(4) -0.025(2) 0.012(2) 0.0