####################################################################### 
# 
# This file contains crystal structure data downloaded from the 
# Cambridge Structural Database (CSD) hosted by the Cambridge 
# Crystallographic Data Centre (CCDC).
# 
# Full information about CCDC data access policies and citation 
# guidelines are available at http://www.ccdc.cam.ac.uk/access/V1 
# 
# Audit and citation data items may have been added by the CCDC. 
# Please retain this information to preserve the provenance of 
# this file and to allow appropriate attribution of the data. 
# 
#######################################################################

data_CuI
_audit_block_doi                 10.5517/cctr6d4
_database_code_depnum_ccdc_archive 'CCDC 767076'
loop_
_citation_id
_citation_doi
_citation_year
1 10.1002/asia.201000218 2010
_audit_update_record             
;
2010-02-21 deposited with the CCDC.	2024-07-08 downloaded from the CCDC.
;
#TrackingRef 'Compds.cif'


_audit_creation_method           SHELXL-97
_chemical_name_systematic        
;
?
;
_chemical_name_common            ?
_chemical_melting_point          ?
_chemical_formula_moiety         ?
_chemical_formula_sum            'C24 H15 Cu2 I2 N3 O6'
_chemical_formula_weight         822.27

loop_
_atom_type_symbol
_atom_type_description
_atom_type_scat_dispersion_real
_atom_type_scat_dispersion_imag
_atom_type_scat_source
C C 0.0181 0.0091 'International Tables Vol C Tables 4.2.6.8 and 6.1.1.4'
H H 0.0000 0.0000 'International Tables Vol C Tables 4.2.6.8 and 6.1.1.4'
N N 0.0311 0.0180 'International Tables Vol C Tables 4.2.6.8 and 6.1.1.4'
O O 0.0492 0.0322 'International Tables Vol C Tables 4.2.6.8 and 6.1.1.4'
Cu Cu -1.9646 0.5888 'International Tables Vol C Tables 4.2.6.8 and 6.1.1.4'
I I -0.3257 6.8362 'International Tables Vol C Tables 4.2.6.8 and 6.1.1.4'

_symmetry_cell_setting           Monoclinic
_symmetry_space_group_name_H-M   C2

loop_
_symmetry_equiv_pos_as_xyz
'x, y, z'
'-x, y, -z'
'x+1/2, y+1/2, z'
'-x+1/2, y+1/2, -z'

_cell_length_a                   32.093(6)
_cell_length_b                   8.0032(9)
_cell_length_c                   17.658(3)
_cell_angle_alpha                90.00
_cell_angle_beta                 113.49(2)
_cell_angle_gamma                90.00
_cell_volume                     4159.5(11)
_cell_formula_units_Z            4
_cell_measurement_temperature    293(2)
_cell_measurement_reflns_used    1230
_cell_measurement_theta_min      3.1417
_cell_measurement_theta_max      62.5030

_exptl_crystal_description       Block
_exptl_crystal_colour            Red
_exptl_crystal_size_max          0.47
_exptl_crystal_size_mid          0.42
_exptl_crystal_size_min          0.34
_exptl_crystal_density_meas      ?
_exptl_crystal_density_diffrn    1.313
_exptl_crystal_density_method    'not measured'
_exptl_crystal_F_000             1568
_exptl_absorpt_coefficient_mu    13.160
_exptl_absorpt_correction_type   multi-scan
_exptl_absorpt_correction_T_min  0.0630
_exptl_absorpt_correction_T_max  0.0943
_exptl_absorpt_process_details   
;
CrysAlisPro, Oxford Diffraction Ltd.,
Version 1.171.33.42 (release 29-05-2009 CrysAlis171 .NET)
(compiled May 29 2009,17:40:42)
Empirical absorption correction using spherical harmonics,
implemented in SCALE3 ABSPACK scaling algorithm.
;

_exptl_special_details           
;
?
;

_diffrn_ambient_temperature      293(2)
_diffrn_radiation_wavelength     1.54178
_diffrn_radiation_type           CuK\a
_diffrn_radiation_source         'Enhance Ultra (Cu) X-ray Source'
_diffrn_radiation_monochromator  mirror
_diffrn_measurement_device_type  'Xcalibur, Sapphire3, Gemini ultra'
_diffrn_detector_area_resol_mean 16.0855
_diffrn_measurement_method       ?
_diffrn_standards_number         ?
_diffrn_standards_interval_count ?
_diffrn_standards_interval_time  ?
_diffrn_standards_decay_%        ?
_diffrn_reflns_number            5722
_diffrn_reflns_av_R_equivalents  0.0577
_diffrn_reflns_av_sigmaI/netI    0.0987
_diffrn_reflns_limit_h_min       -35
_diffrn_reflns_limit_h_max       36
_diffrn_reflns_limit_k_min       -8
_diffrn_reflns_limit_k_max       8
_diffrn_reflns_limit_l_min       -19
_diffrn_reflns_limit_l_max       16
_diffrn_reflns_theta_min         4.80
_diffrn_reflns_theta_max         60.00
_reflns_number_total             3966
_reflns_number_gt                2112
_reflns_threshold_expression     >2sigma(I)

_computing_data_collection       
;
CrysAlisPro, Oxford Diffraction Ltd.,
Version 1.171.33.42 (release 29-05-2009 CrysAlis171 .NET)
(compiled May 29 2009,17:40:42)
;
_computing_cell_refinement       
;
CrysAlisPro, Oxford Diffraction Ltd.,
Version 1.171.33.42 (release 29-05-2009 CrysAlis171 .NET)
(compiled May 29 2009,17:40:42)
;
_computing_data_reduction        
;
CrysAlisPro, Oxford Diffraction Ltd.,
Version 1.171.33.42 (release 29-05-2009 CrysAlis171 .NET)
(compiled May 29 2009,17:40:42)
;
_computing_structure_solution    'SHELXS-97 (Sheldrick, 1990)'
_computing_structure_refinement  'SHELXL-97 (Sheldrick, 1997)'
_computing_molecular_graphics    ?
_computing_publication_material  ?

_refine_special_details          
;
Refinement of F^2^ against ALL reflections. The weighted R-factor wR and
goodness of fit S are based on F^2^, conventional R-factors R are based
on F, with F set to zero for negative F^2^. The threshold expression of
F^2^ > 2sigma(F^2^) is used only for calculating R-factors(gt) etc. and is
not relevant to the choice of reflections for refinement. R-factors based
on F^2^ are statistically about twice as large as those based on F, and R-
factors based on ALL data will be even larger.
;

_refine_ls_structure_factor_coef Fsqd
_refine_ls_matrix_type           full
_refine_ls_weighting_scheme      calc
_refine_ls_weighting_details     
'calc w=1/[\s^2^(Fo^2^)+(0.0715P)^2^+0.0000P] where P=(Fo^2^+2Fc^2^)/3'
_atom_sites_solution_primary     direct
_atom_sites_solution_secondary   difmap
_atom_sites_solution_hydrogens   geom
_refine_ls_hydrogen_treatment    Constr
_refine_ls_extinction_method     none
_refine_ls_extinction_coef       ?
_refine_ls_abs_structure_details 'Flack H D (1983), Acta Cryst. A39, 876-881'
_refine_ls_abs_structure_Flack   0.020(10)
_refine_ls_number_reflns         3966
_refine_ls_number_parameters     334
_refine_ls_number_restraints     1
_refine_ls_R_factor_all          0.1176
_refine_ls_R_factor_gt           0.0664
_refine_ls_wR_factor_ref         0.1688
_refine_ls_wR_factor_gt          0.1556
_refine_ls_goodness_of_fit_ref   1.035
_refine_ls_restrained_S_all      1.035
_refine_ls_shift/su_max          0.001
_refine_ls_shift/su_mean         0.000

loop_
_atom_site_label
_atom_site_type_symbol
_atom_site_fract_x
_atom_site_fract_y
_atom_site_fract_z
_atom_site_U_iso_or_equiv
_atom_site_adp_type
_atom_site_occupancy
_atom_site_symmetry_multiplicity
_atom_site_calc_flag
_atom_site_refinement_flags
_atom_site_disorder_assembly
_atom_site_disorder_group
Cu1 Cu 0.51279(6) 0.5397(2) 0.27669(10) 0.0741(5) Uani 1 1 d . . .
Cu2 Cu 0.47718(7) 0.4237(3) 0.13092(11) 0.0908(7) Uani 1 1 d . . .
I1 I 0.50391(3) 0.72200(11) 0.14483(4) 0.0860(3) Uani 1 1 d . . .
I2 I 0.48196(3) 0.23170(13) 0.24867(5) 0.0980(3) Uani 1 1 d . . .
C1 C 0.7970(4) 0.5161(17) 0.5282(9) 0.093(5) Uani 1 1 d . . .
C2 C 0.8204(4) 0.4411(16) 0.4907(6) 0.074(4) Uani 1 1 d . . .
H2A H 0.8063 0.3960 0.4380 0.088 Uiso 1 1 calc R . .
C3 C 0.8693(3) 0.4333(15) 0.5365(6) 0.064(3) Uani 1 1 d . . .
C4 C 0.8884(4) 0.4964(15) 0.6170(7) 0.075(4) Uani 1 1 d . . .
H4A H 0.9196 0.4891 0.6474 0.090 Uiso 1 1 calc R . .
C5 C 0.8606(4) 0.5707(15) 0.6518(6) 0.075(4) Uani 1 1 d . . .
C6 C 0.8134(4) 0.5820(17) 0.6146(6) 0.080(4) Uani 1 1 d . . .
H6A H 0.7950 0.6239 0.6395 0.096 Uiso 1 1 calc R . .
C7 C 0.7193(4) 0.4544(18) 0.5171(11) 0.107(6) Uani 1 1 d . . .
C8 C 0.9168(4) 0.4436(18) 0.4701(7) 0.084(4) Uani 1 1 d . . .
C9 C 0.8882(4) 0.5528(19) 0.7934(7) 0.082(4) Uani 1 1 d . . .
C10 C 0.6726(3) 0.4841(14) 0.4560(7) 0.064(4) Uani 1 1 d . . .
C11 C 0.6388(4) 0.4069(16) 0.4769(7) 0.076(4) Uani 1 1 d . . .
H11A H 0.6460 0.3475 0.5258 0.092 Uiso 1 1 calc R . .
C12 C 0.5928(3) 0.4259(15) 0.4182(7) 0.064(3) Uani 1 1 d . . .
H12A H 0.5701 0.3702 0.4283 0.077 Uiso 1 1 calc R . .
C13 C 0.6145(4) 0.5924(16) 0.3337(7) 0.078(4) Uani 1 1 d . . .
H13A H 0.6060 0.6583 0.2865 0.094 Uiso 1 1 calc R . .
C14 C 0.6601(4) 0.5750(14) 0.3827(7) 0.075(4) Uani 1 1 d . . .
H14A H 0.6820 0.6226 0.3673 0.090 Uiso 1 1 calc R . .
C15 C 0.9396(4) 0.3372(16) 0.4249(6) 0.066(4) Uani 1 1 d . . .
C16 C 0.9362(4) 0.1723(16) 0.4234(8) 0.083(4) Uani 1 1 d . . .
H16A H 0.9200 0.1172 0.4493 0.099 Uiso 1 1 calc R . .
C17 C 0.9574(5) 0.0866(15) 0.3823(8) 0.100(6) Uani 1 1 d . . .
H17A H 0.9554 -0.0293 0.3808 0.120 Uiso 1 1 calc R . .
C18 C 0.9825(4) 0.3229(16) 0.3437(8) 0.079(4) Uani 1 1 d . . .
H18A H 0.9966 0.3796 0.3144 0.094 Uiso 1 1 calc R . .
C19 C 0.9618(4) 0.4190(19) 0.3897(8) 0.092(4) Uani 1 1 d . . .
H19 H 0.9645 0.5347 0.3937 0.110 Uiso 1 1 calc R . .
C20 C 0.9112(4) 0.6381(16) 0.8746(7) 0.072(4) Uani 1 1 d . . .
C21 C 0.9179(5) 0.8105(18) 0.8721(8) 0.091(5) Uani 1 1 d . . .
H21A H 0.9103 0.8707 0.8233 0.110 Uiso 1 1 calc R . .
C22 C 0.9374(5) 0.8832(18) 0.9514(7) 0.093(5) Uani 1 1 d . . .
H22A H 0.9432 0.9971 0.9520 0.111 Uiso 1 1 calc R . .
C23 C 0.9436(4) 0.649(2) 1.0170(8) 0.107(6) Uani 1 1 d . . .
H23A H 0.9560 0.5879 1.0658 0.129 Uiso 1 1 calc R . .
C24 C 0.9227(5) 0.559(2) 0.9472(8) 0.111(6) Uani 1 1 d . . .
H24A H 0.9165 0.4464 0.9494 0.133 Uiso 1 1 calc R . .
N1 N 0.5809(3) 0.5167(13) 0.3515(6) 0.071(3) Uani 1 1 d . . .
N2 N 0.9818(3) 0.1637(14) 0.3422(6) 0.069(3) Uani 1 1 d . . .
N3 N 0.9484(4) 0.8149(14) 1.0239(6) 0.090(4) Uani 1 1 d . . .
O1 O 0.7475(3) 0.5196(14) 0.4831(5) 0.103(4) Uani 1 1 d . . .
O2 O 0.8936(3) 0.3494(11) 0.5014(5) 0.081(3) Uani 1 1 d . . .
O3 O 0.8831(3) 0.6449(11) 0.7291(4) 0.085(3) Uani 1 1 d . . .
O4 O 0.7319(3) 0.3866(16) 0.5819(6) 0.124(4) Uani 1 1 d . . .
O5 O 0.9189(3) 0.5926(12) 0.4731(7) 0.125(4) Uani 1 1 d . . .
O6 O 0.8748(3) 0.4044(14) 0.7851(6) 0.113(4) Uani 1 1 d . . .

loop_
_atom_site_aniso_label
_atom_site_aniso_U_11
_atom_site_aniso_U_22
_atom_site_aniso_U_33
_atom_site_aniso_U_23
_atom_site_aniso_U_13
_atom_site_aniso_U_12
Cu1 0.0770(9) 0.0835(11) 0.0630(9) -0.0048(9) 0.0291(8) 0.0024(10)
Cu2 0.1197(13) 0.0889(12) 0.0583(10) -0.0106(10) 0.0298(9) -0.0090(12)
I1 0.1163(5) 0.0788(4) 0.0664(4) 0.0053(5) 0.0399(4) 0.0018(7)
I2 0.1467(7) 0.0774(5) 0.0712(4) -0.0023(6) 0.0448(4) -0.0133(7)
C1 0.051(6) 0.095(10) 0.130(11) 0.018(9) 0.032(7) 0.001(7)
C2 0.080(7) 0.107(9) 0.049(5) 0.002(6) 0.042(5) 0.011(7)
C3 0.072(6) 0.087(8) 0.044(5) 0.002(5) 0.034(5) 0.000(6)
C4 0.063(6) 0.101(9) 0.076(7) 0.009(6) 0.042(5) 0.000(7)
C5 0.086(8) 0.085(8) 0.050(6) 0.002(6) 0.023(6) -0.019(7)
C6 0.069(7) 0.133(12) 0.044(5) -0.006(7) 0.028(5) -0.013(7)
C7 0.044(6) 0.094(10) 0.167(14) -0.008(10) 0.026(8) -0.024(7)
C8 0.096(8) 0.092(9) 0.079(7) 0.009(7) 0.051(6) 0.016(8)
C9 0.074(7) 0.113(10) 0.061(7) 0.005(7) 0.027(6) 0.011(8)
C10 0.055(6) 0.075(8) 0.072(7) -0.017(5) 0.035(5) -0.008(6)
C11 0.072(7) 0.080(8) 0.058(7) 0.004(7) 0.005(6) 0.000(7)
C12 0.048(5) 0.077(7) 0.081(7) 0.015(6) 0.039(5) 0.002(6)
C13 0.080(8) 0.102(10) 0.051(6) 0.013(6) 0.026(6) 0.011(7)
C14 0.071(8) 0.070(8) 0.069(7) 0.005(6) 0.012(6) 0.001(6)
C15 0.073(7) 0.088(8) 0.043(5) -0.008(6) 0.028(5) 0.009(7)
C16 0.102(8) 0.076(10) 0.103(8) -0.005(6) 0.075(7) 0.007(6)
C17 0.161(13) 0.046(7) 0.072(8) 0.007(6) 0.023(9) 0.002(8)
C18 0.098(8) 0.066(7) 0.093(8) 0.010(6) 0.061(7) -0.001(7)
C19 0.114(9) 0.087(9) 0.110(9) 0.003(8) 0.081(7) 0.004(8)
C20 0.095(8) 0.076(7) 0.042(6) -0.003(6) 0.024(6) 0.004(7)
C21 0.115(10) 0.089(9) 0.064(8) -0.006(7) 0.029(7) -0.002(8)
C22 0.139(11) 0.086(9) 0.058(7) -0.003(6) 0.045(7) -0.024(8)
C23 0.100(9) 0.169(14) 0.056(7) 0.046(8) 0.034(7) 0.034(10)
C24 0.150(12) 0.088(10) 0.064(8) -0.016(8) 0.011(8) -0.005(10)
N1 0.058(5) 0.095(7) 0.072(5) -0.011(5) 0.039(4) -0.008(5)
N2 0.068(5) 0.085(7) 0.070(6) -0.002(5) 0.043(5) -0.014(5)
N3 0.152(9) 0.061(6) 0.046(6) 0.018(5) 0.027(6) 0.001(7)
O1 0.052(4) 0.164(10) 0.075(6) -0.013(6) 0.008(4) 0.003(6)
O2 0.094(5) 0.104(6) 0.068(4) 0.007(4) 0.056(4) 0.010(5)
O3 0.114(6) 0.105(6) 0.036(4) -0.005(4) 0.028(4) -0.014(5)
O4 0.075(5) 0.192(10) 0.093(6) 0.067(7) 0.020(5) 0.005(6)
O5 0.197(7) 0.079(7) 0.172(7) -0.007(5) 0.150(6) -0.005(6)
O6 0.127(7) 0.105(7) 0.103(7) -0.004(6) 0.042(6) -0.011(6)

_geom_special_details            
;
All esds (except the esd in the dihedral angle between two l.s. planes)
are estimated using the full covariance matrix. The cell esds are taken
into account individually in the estimation of esds in distances, angles
and torsion angles; correlations between esds in cell parameters are only
used when they are defined by crystal symmetry. An approximate (isotropic)
treatment of cell esds is used for estimating esds involving l.s. planes.
;

loop_
_geom_bond_atom_site_label_1
_geom_bond_atom_site_label_2
_geom_bond_distance
_geom_bond_site_symmetry_2
_geom_bond_publ_flag
Cu1 N2 2.056(11) 3_455 ?
Cu1 N1 2.063(8) . ?
Cu1 Cu2 2.539(2) . ?
Cu1 I2 2.629(2) . ?
Cu1 I1 2.665(2) . ?
Cu2 N3 1.947(10) 3_444 ?
Cu2 I1 2.515(2) . ?
Cu2 I2 2.540(2) . ?
C1 C2 1.326(18) . ?
C1 O1 1.467(14) . ?
C1 C6 1.498(18) . ?
C2 C3 1.450(14) . ?
C2 H2A 0.9300 . ?
C3 O2 1.352(14) . ?
C3 C4 1.399(15) . ?
C4 C5 1.402(17) . ?
C4 H4A 0.9300 . ?
C5 C6 1.393(16) . ?
C5 O3 1.397(13) . ?
C6 H6A 0.9300 . ?
C7 O4 1.182(18) . ?
C7 O1 1.373(18) . ?
C7 C10 1.477(15) . ?
C8 O5 1.194(16) . ?
C8 O2 1.326(16) . ?
C8 C15 1.537(18) . ?
C9 O6 1.252(17) . ?
C9 O3 1.307(15) . ?
C9 C20 1.491(16) . ?
C10 C14 1.396(16) . ?
C10 C11 1.420(16) . ?
C11 C12 1.433(13) . ?
C11 H11A 0.9300 . ?
C12 N1 1.306(14) . ?
C12 H12A 0.9300 . ?
C13 N1 1.376(15) . ?
C13 C14 1.379(15) . ?
C13 H13A 0.9300 . ?
C14 H14A 0.9300 . ?
C15 C19 1.296(19) . ?
C15 C16 1.324(16) . ?
C16 C17 1.36(2) . ?
C16 H16A 0.9300 . ?
C17 N2 1.393(18) . ?
C17 H17A 0.9300 . ?
C18 N2 1.275(15) . ?
C18 C19 1.456(18) . ?
C18 H18A 0.9300 . ?
C19 H19 0.9300 . ?
C20 C24 1.342(18) . ?
C20 C21 1.400(17) . ?
C21 C22 1.411(18) . ?
C21 H21A 0.9300 . ?
C22 N3 1.305(16) . ?
C22 H22A 0.9300 . ?
C23 N3 1.339(18) . ?
C23 C24 1.348(19) . ?
C23 H23A 0.9300 . ?
C24 H24A 0.9300 . ?
N2 Cu1 2.056(11) 3_545 ?
N3 Cu2 1.947(10) 3_556 ?

loop_
_geom_angle_atom_site_label_1
_geom_angle_atom_site_label_2
_geom_angle_atom_site_label_3
_geom_angle
_geom_angle_site_symmetry_1
_geom_angle_site_symmetry_3
_geom_angle_publ_flag
N2 Cu1 N1 108.0(4) 3_455 . ?
N2 Cu1 Cu2 128.6(3) 3_455 . ?
N1 Cu1 Cu2 123.4(3) . . ?
N2 Cu1 I2 109.2(3) 3_455 . ?
N1 Cu1 I2 105.1(3) . . ?
Cu2 Cu1 I2 58.86(6) . . ?
N2 Cu1 I1 108.7(3) 3_455 . ?
N1 Cu1 I1 109.0(3) . . ?
Cu2 Cu1 I1 57.75(6) . . ?
I2 Cu1 I1 116.60(6) . . ?
N3 Cu2 I1 122.0(3) 3_444 . ?
N3 Cu2 Cu1 174.3(3) 3_444 . ?
I1 Cu2 Cu1 63.63(6) . . ?
N3 Cu2 I2 112.0(3) 3_444 . ?
I1 Cu2 I2 125.96(7) . . ?
Cu1 Cu2 I2 62.33(6) . . ?
Cu2 I1 Cu1 58.62(6) . . ?
Cu2 I2 Cu1 58.82(6) . . ?
C2 C1 O1 116.4(12) . . ?
C2 C1 C6 129.0(10) . . ?
O1 C1 C6 114.2(12) . . ?
C1 C2 C3 116.3(10) . . ?
C1 C2 H2A 121.9 . . ?
C3 C2 H2A 121.9 . . ?
O2 C3 C4 123.0(9) . . ?
O2 C3 C2 117.3(9) . . ?
C4 C3 C2 119.3(11) . . ?
C3 C4 C5 120.1(10) . . ?
C3 C4 H4A 120.0 . . ?
C5 C4 H4A 120.0 . . ?
C6 C5 O3 118.4(12) . . ?
C6 C5 C4 125.6(10) . . ?
O3 C5 C4 115.9(10) . . ?
C5 C6 C1 109.4(11) . . ?
C5 C6 H6A 125.3 . . ?
C1 C6 H6A 125.3 . . ?
O4 C7 O1 124.6(11) . . ?
O4 C7 C10 129.6(14) . . ?
O1 C7 C10 105.9(13) . . ?
O5 C8 O2 125.6(13) . . ?
O5 C8 C15 123.0(13) . . ?
O2 C8 C15 111.4(12) . . ?
O6 C9 O3 121.0(11) . . ?
O6 C9 C20 124.1(12) . . ?
O3 C9 C20 114.8(12) . . ?
C14 C10 C11 120.0(9) . . ?
C14 C10 C7 126.5(12) . . ?
C11 C10 C7 113.5(11) . . ?
C10 C11 C12 116.0(10) . . ?
C10 C11 H11A 122.0 . . ?
C12 C11 H11A 122.0 . . ?
N1 C12 C11 123.9(11) . . ?
N1 C12 H12A 118.0 . . ?
C11 C12 H12A 118.0 . . ?
N1 C13 C14 122.9(11) . . ?
N1 C13 H13A 118.5 . . ?
C14 C13 H13A 118.5 . . ?
C13 C14 C10 118.4(12) . . ?
C13 C14 H14A 120.8 . . ?
C10 C14 H14A 120.8 . . ?
C19 C15 C16 123.4(14) . . ?
C19 C15 C8 115.9(13) . . ?
C16 C15 C8 120.7(13) . . ?
C15 C16 C17 117.2(14) . . ?
C15 C16 H16A 121.4 . . ?
C17 C16 H16A 121.4 . . ?
C16 C17 N2 123.4(12) . . ?
C16 C17 H17A 118.3 . . ?
N2 C17 H17A 118.3 . . ?
N2 C18 C19 122.1(13) . . ?
N2 C18 H18A 119.0 . . ?
C19 C18 H18A 119.0 . . ?
C15 C19 C18 117.5(14) . . ?
C15 C19 H19 121.3 . . ?
C18 C19 H19 121.3 . . ?
C24 C20 C21 120.4(12) . . ?
C24 C20 C9 123.2(13) . . ?
C21 C20 C9 116.3(12) . . ?
C20 C21 C22 112.8(13) . . ?
C20 C21 H21A 123.6 . . ?
C22 C21 H21A 123.6 . . ?
N3 C22 C21 129.8(13) . . ?
N3 C22 H22A 115.1 . . ?
C21 C22 H22A 115.1 . . ?
N3 C23 C24 127.3(14) . . ?
N3 C23 H23A 116.3 . . ?
C24 C23 H23A 116.3 . . ?
C20 C24 C23 118.2(15) . . ?
C20 C24 H24A 120.9 . . ?
C23 C24 H24A 120.9 . . ?
C12 N1 C13 118.5(9) . . ?
C12 N1 Cu1 118.8(8) . . ?
C13 N1 Cu1 122.7(7) . . ?
C18 N2 C17 116.2(12) . . ?
C18 N2 Cu1 119.1(10) . 3_545 ?
C17 N2 Cu1 124.6(9) . 3_545 ?
C22 N3 C23 110.5(12) . . ?
C22 N3 Cu2 127.1(10) . 3_556 ?
C23 N3 Cu2 121.7(9) . 3_556 ?
C7 O1 C1 121.1(10) . . ?
C8 O2 C3 115.5(10) . . ?
C9 O3 C5 116.4(10) . . ?

_diffrn_measured_fraction_theta_max 0.920
_diffrn_reflns_theta_full        60.00
_diffrn_measured_fraction_theta_full 0.920
_refine_diff_density_max         0.881
_refine_diff_density_min         -0.578
_refine_diff_density_rms         0.135
