####################################################################### 
# 
# This file contains crystal structure data downloaded from the 
# Cambridge Structural Database (CSD) hosted by the Cambridge 
# Crystallographic Data Centre (CCDC).
# 
# Full information about CCDC data access policies and citation 
# guidelines are available at http://www.ccdc.cam.ac.uk/access/V1 
# 
# Audit and citation data items may have been added by the CCDC. 
# Please retain this information to preserve the provenance of 
# this file and to allow appropriate attribution of the data. 
# 
#######################################################################

data_CuI-Tolu
_audit_block_doi                 10.5517/cctr6c3
_database_code_depnum_ccdc_archive 'CCDC 767075'
loop_
_citation_id
_citation_doi
_citation_year
1 10.1002/asia.201000218 2010
_audit_update_record             
;
2010-02-21 deposited with the CCDC.	2024-07-08 downloaded from the CCDC.
;
#TrackingRef 'Compds.cif'


_audit_creation_method           SHELXL-97
_chemical_name_systematic        
;
?
;
_chemical_name_common            ?
_chemical_melting_point          ?
_chemical_formula_moiety         ?
_chemical_formula_sum            'C38 H31 Cu2 I2 N3 O6'
_chemical_formula_weight         1006.54

loop_
_atom_type_symbol
_atom_type_description
_atom_type_scat_dispersion_real
_atom_type_scat_dispersion_imag
_atom_type_scat_source
C C 0.0033 0.0016 'International Tables Vol C Tables 4.2.6.8 and 6.1.1.4'
H H 0.0000 0.0000 'International Tables Vol C Tables 4.2.6.8 and 6.1.1.4'
N N 0.0061 0.0033 'International Tables Vol C Tables 4.2.6.8 and 6.1.1.4'
O O 0.0106 0.0060 'International Tables Vol C Tables 4.2.6.8 and 6.1.1.4'
Cu Cu 0.3201 1.2651 'International Tables Vol C Tables 4.2.6.8 and 6.1.1.4'
I I -0.4742 1.8119 'International Tables Vol C Tables 4.2.6.8 and 6.1.1.4'

_symmetry_cell_setting           Monoclinic
_symmetry_space_group_name_H-M   C2

loop_
_symmetry_equiv_pos_as_xyz
'x, y, z'
'-x, y, -z'
'x+1/2, y+1/2, z'
'-x+1/2, y+1/2, -z'

_cell_length_a                   30.375(6)
_cell_length_b                   7.5302(15)
_cell_length_c                   18.652(4)
_cell_angle_alpha                90.00
_cell_angle_beta                 115.721(3)
_cell_angle_gamma                90.00
_cell_volume                     3843.5(13)
_cell_formula_units_Z            4
_cell_measurement_temperature    173(2)
_cell_measurement_reflns_used    ?
_cell_measurement_theta_min      ?
_cell_measurement_theta_max      ?

_exptl_crystal_description       Bock
_exptl_crystal_colour            Red
_exptl_crystal_size_max          0.46
_exptl_crystal_size_mid          0.42
_exptl_crystal_size_min          0.34
_exptl_crystal_density_meas      ?
_exptl_crystal_density_diffrn    1.739
_exptl_crystal_density_method    'not measured'
_exptl_crystal_F_000             1968
_exptl_absorpt_coefficient_mu    2.761
_exptl_absorpt_correction_type   Multi-scan
_exptl_absorpt_correction_T_min  0.3632
_exptl_absorpt_correction_T_max  0.4537
_exptl_absorpt_process_details   Sadabs

_exptl_special_details           
;
?
;

_diffrn_ambient_temperature      173(2)
_diffrn_radiation_wavelength     0.71073
_diffrn_radiation_type           MoK\a
_diffrn_radiation_source         'fine-focus sealed tube'
_diffrn_radiation_monochromator  graphite
_diffrn_measurement_device_type  Apex
_diffrn_measurement_method       ?
_diffrn_detector_area_resol_mean ?
_diffrn_standards_number         ?
_diffrn_standards_interval_count ?
_diffrn_standards_interval_time  ?
_diffrn_standards_decay_%        ?
_diffrn_reflns_number            9025
_diffrn_reflns_av_R_equivalents  0.0310
_diffrn_reflns_av_sigmaI/netI    0.0807
_diffrn_reflns_limit_h_min       -32
_diffrn_reflns_limit_h_max       37
_diffrn_reflns_limit_k_min       -9
_diffrn_reflns_limit_k_max       9
_diffrn_reflns_limit_l_min       -23
_diffrn_reflns_limit_l_max       8
_diffrn_reflns_theta_min         2.23
_diffrn_reflns_theta_max         26.00
_reflns_number_total             6887
_reflns_number_gt                5018
_reflns_threshold_expression     >2sigma(I)

_computing_data_collection       ?
_computing_cell_refinement       ?
_computing_data_reduction        ?
_computing_structure_solution    'SHELXS-97 (Sheldrick, 1990)'
_computing_structure_refinement  'SHELXL-97 (Sheldrick, 1997)'
_computing_molecular_graphics    ?
_computing_publication_material  ?

_refine_special_details          
;
Refinement of F^2^ against ALL reflections. The weighted R-factor wR and
goodness of fit S are based on F^2^, conventional R-factors R are based
on F, with F set to zero for negative F^2^. The threshold expression of
F^2^ > 2sigma(F^2^) is used only for calculating R-factors(gt) etc. and is
not relevant to the choice of reflections for refinement. R-factors based
on F^2^ are statistically about twice as large as those based on F, and R-
factors based on ALL data will be even larger.
;

_refine_ls_structure_factor_coef Fsqd
_refine_ls_matrix_type           full
_refine_ls_weighting_scheme      calc
_refine_ls_weighting_details     
'calc w=1/[\s^2^(Fo^2^)+(0.0500P)^2^+0.0000P] where P=(Fo^2^+2Fc^2^)/3'
_atom_sites_solution_primary     direct
_atom_sites_solution_secondary   difmap
_atom_sites_solution_hydrogens   geom
_refine_ls_hydrogen_treatment    constr
_refine_ls_extinction_method     none
_refine_ls_extinction_coef       ?
_refine_ls_abs_structure_details 'Flack H D (1983), Acta Cryst. A39, 876-881'
_refine_ls_abs_structure_Flack   0.23(3)
_refine_ls_number_reflns         6887
_refine_ls_number_parameters     461
_refine_ls_number_restraints     100
_refine_ls_R_factor_all          0.0789
_refine_ls_R_factor_gt           0.0470
_refine_ls_wR_factor_ref         0.1104
_refine_ls_wR_factor_gt          0.0961
_refine_ls_goodness_of_fit_ref   1.037
_refine_ls_restrained_S_all      1.037
_refine_ls_shift/su_max          0.002
_refine_ls_shift/su_mean         0.000

loop_
_atom_site_label
_atom_site_type_symbol
_atom_site_fract_x
_atom_site_fract_y
_atom_site_fract_z
_atom_site_U_iso_or_equiv
_atom_site_adp_type
_atom_site_occupancy
_atom_site_symmetry_multiplicity
_atom_site_calc_flag
_atom_site_refinement_flags
_atom_site_disorder_assembly
_atom_site_disorder_group
Cu1 Cu 0.04033(5) 0.12451(16) 1.38671(6) 0.0336(3) Uani 1 1 d . . .
Cu2 Cu 0.00286(4) 0.23088(15) 1.24551(6) 0.0271(3) Uani 1 1 d . . .
I1 I 0.00383(2) 0.43120(8) 1.36304(3) 0.02869(15) Uani 1 1 d . . .
I2 I 0.05408(3) -0.06127(10) 1.28393(3) 0.0525(2) Uani 1 1 d . . .
N1 N 0.0292(3) 0.3577(11) 1.1753(5) 0.0241(19) Uani 1 1 d . . .
N2 N 0.0621(3) 0.9951(10) 0.4899(4) 0.031(2) Uani 1 1 d . . .
N3 N 0.4306(3) 0.6953(9) 1.1676(4) 0.0263(18) Uani 1 1 d . . .
O1 O 0.0965(2) 0.5436(8) 0.9886(3) 0.0268(14) Uani 1 1 d . . .
O2 O 0.1098(2) 0.8174(8) 0.7670(4) 0.0284(15) Uani 1 1 d . . .
O3 O 0.2521(2) 0.7233(9) 1.0151(3) 0.0290(15) Uani 1 1 d . . .
O4 O 0.0768(2) 0.8091(9) 1.0231(4) 0.0322(16) Uani 1 1 d . . .
O5 O 0.1380(2) 0.5845(8) 0.7234(4) 0.0364(17) Uani 1 1 d . . .
O6 O 0.2737(2) 0.5940(9) 0.9261(4) 0.0391(17) Uani 1 1 d . . .
C1 C 0.1249(3) 0.6255(12) 0.9549(5) 0.0218(19) Uani 1 1 d . . .
C2 C 0.1017(4) 0.6805(11) 0.8763(5) 0.026(2) Uani 1 1 d . . .
H2A H 0.0674 0.6701 0.8455 0.031 Uiso 1 1 calc R . .
C3 C 0.1329(4) 0.7535(11) 0.8454(5) 0.027(2) Uani 1 1 d . . .
C4 C 0.1821(4) 0.7663(12) 0.8876(5) 0.030(2) Uani 1 1 d . . .
H4A H 0.2021 0.8135 0.8647 0.036 Uiso 1 1 calc R . .
C5 C 0.2019(3) 0.7071(12) 0.9660(5) 0.026(2) Uani 1 1 d . . .
C6 C 0.1734(3) 0.6410(11) 1.0004(5) 0.025(2) Uani 1 1 d . . .
H6A H 0.1875 0.6071 1.0549 0.030 Uiso 1 1 calc R . .
C7 C 0.0767(4) 0.6530(13) 1.0262(5) 0.029(2) Uani 1 1 d . . .
C8 C 0.1167(3) 0.7235(14) 0.7107(5) 0.030(2) Uani 1 1 d . . .
C9 C 0.2851(3) 0.6581(12) 0.9904(5) 0.026(2) Uani 1 1 d . . .
C10 C 0.0585(3) 0.5426(14) 1.0749(5) 0.025(2) Uani 1 1 d . . .
C11 C 0.0630(4) 0.3588(13) 1.0809(6) 0.029(2) Uani 1 1 d . . .
H11A H 0.0767 0.2941 1.0517 0.035 Uiso 1 1 calc R . .
C12 C 0.0471(4) 0.2749(12) 1.1297(6) 0.031(3) Uani 1 1 d . . .
H12A H 0.0488 0.1489 1.1319 0.037 Uiso 1 1 calc R . .
C13 C 0.0269(3) 0.5328(14) 1.1704(6) 0.029(2) Uani 1 1 d . . .
H13A H 0.0147 0.5948 1.2024 0.035 Uiso 1 1 calc R . .
C14 C 0.0412(3) 0.6314(14) 1.1213(5) 0.028(2) Uani 1 1 d . . .
H14A H 0.0390 0.7573 1.1200 0.033 Uiso 1 1 calc R . .
C15 C 0.0960(3) 0.8200(12) 0.6334(5) 0.024(2) Uani 1 1 d . . .
C16 C 0.0791(4) 0.9916(11) 0.6265(5) 0.029(2) Uani 1 1 d . . .
H16A H 0.0789 1.0509 0.6713 0.034 Uiso 1 1 calc R . .
C17 C 0.0626(4) 1.0762(14) 0.5546(5) 0.038(3) Uani 1 1 d . . .
H17A H 0.0512 1.1950 0.5502 0.046 Uiso 1 1 calc R . .
C18 C 0.0778(4) 0.8287(13) 0.4968(6) 0.031(2) Uani 1 1 d . . .
H18A H 0.0770 0.7710 0.4509 0.037 Uiso 1 1 calc R . .
C19 C 0.0951(4) 0.7356(13) 0.5673(5) 0.035(2) Uani 1 1 d . . .
H19A H 0.1061 0.6166 0.5703 0.042 Uiso 1 1 calc R . .
C20 C 0.3349(3) 0.6794(11) 1.0525(5) 0.023(2) Uani 1 1 d . . .
C21 C 0.3732(3) 0.6039(12) 1.0402(5) 0.024(2) Uani 1 1 d . . .
H21A H 0.3668 0.5461 0.9913 0.029 Uiso 1 1 calc R . .
C22 C 0.4189(3) 0.6134(12) 1.0976(5) 0.027(2) Uani 1 1 d . . .
H22A H 0.4444 0.5598 1.0885 0.032 Uiso 1 1 calc R . .
C23 C 0.3934(4) 0.7662(11) 1.1789(5) 0.027(2) Uani 1 1 d . . .
H23A H 0.4009 0.8229 1.2283 0.032 Uiso 1 1 calc R . .
C24 C 0.3462(3) 0.7618(11) 1.1243(5) 0.022(2) Uani 1 1 d . . .
H24A H 0.3213 0.8142 1.1353 0.027 Uiso 1 1 calc R . .
C25 C 0.7047(4) 1.2823(13) 0.2186(6) 0.037(3) Uani 1 1 d D . .
C26 C 0.7503(5) 1.2624(15) 0.2197(6) 0.054(3) Uani 1 1 d D . .
H26A H 0.7672 1.3641 0.2145 0.065 Uiso 1 1 calc R . .
C27 C 0.7716(4) 1.0969(15) 0.2284(6) 0.050(3) Uani 1 1 d D . .
H27A H 0.8029 1.0859 0.2289 0.060 Uiso 1 1 calc R . .
C28 C 0.7483(5) 0.9506(17) 0.2362(7) 0.061(3) Uani 1 1 d D . .
H28A H 0.7629 0.8368 0.2413 0.073 Uiso 1 1 calc R . .
C29 C 0.7028(5) 0.9674(16) 0.2367(8) 0.073(4) Uani 1 1 d D . .
H29A H 0.6867 0.8657 0.2440 0.087 Uiso 1 1 calc R . .
C30 C 0.6814(4) 1.1305(16) 0.2265(7) 0.058(3) Uani 1 1 d D . .
H30A H 0.6498 1.1404 0.2248 0.070 Uiso 1 1 calc R . .
C31 C 0.6809(4) 1.4538(18) 0.2099(7) 0.059(3) Uani 1 1 d D . .
H31A H 0.6492 1.4378 0.2109 0.088 Uiso 1 1 calc R . .
H31B H 0.6761 1.5074 0.1591 0.088 Uiso 1 1 calc R . .
H31C H 0.7015 1.5319 0.2537 0.088 Uiso 1 1 calc R . .
C32 C 0.1946(9) 0.612(3) 0.5076(13) 0.164(7) Uani 1 1 d DU . .
C33 C 0.1657(7) 0.569(3) 0.4306(12) 0.137(6) Uani 1 1 d DU . .
H33A H 0.1557 0.6587 0.3910 0.165 Uiso 1 1 calc R . .
C34 C 0.1508(7) 0.398(3) 0.4093(12) 0.150(7) Uani 1 1 d DU . .
H34A H 0.1329 0.3687 0.3546 0.180 Uiso 1 1 calc R . .
C35 C 0.1612(9) 0.272(3) 0.4653(14) 0.172(8) Uani 1 1 d DU . .
H35A H 0.1512 0.1526 0.4500 0.207 Uiso 1 1 calc R . .
C36 C 0.1861(9) 0.314(3) 0.5442(14) 0.174(8) Uani 1 1 d DU . .
H36A H 0.1890 0.2301 0.5839 0.209 Uiso 1 1 calc R . .
C37 C 0.2070(9) 0.479(3) 0.5656(12) 0.160(7) Uani 1 1 d DU . .
H37A H 0.2295 0.5022 0.6191 0.192 Uiso 1 1 calc R . .
C38 C 0.2104(9) 0.791(3) 0.5302(15) 0.195(9) Uani 1 1 d DU . .
H38A H 0.1982 0.8667 0.4827 0.293 Uiso 1 1 calc R . .
H38B H 0.2462 0.7952 0.5562 0.293 Uiso 1 1 calc R . .
H38C H 0.1977 0.8341 0.5671 0.293 Uiso 1 1 calc R . .

loop_
_atom_site_aniso_label
_atom_site_aniso_U_11
_atom_site_aniso_U_22
_atom_site_aniso_U_33
_atom_site_aniso_U_23
_atom_site_aniso_U_13
_atom_site_aniso_U_12
Cu1 0.0515(8) 0.0310(6) 0.0221(6) 0.0041(5) 0.0195(5) 0.0042(6)
Cu2 0.0352(7) 0.0290(6) 0.0220(6) 0.0018(5) 0.0172(5) -0.0037(6)
I1 0.0390(3) 0.0263(3) 0.0247(3) -0.0039(3) 0.0175(2) -0.0037(4)
I2 0.1086(6) 0.0289(3) 0.0333(3) 0.0085(4) 0.0433(4) 0.0223(5)
N1 0.027(5) 0.023(4) 0.026(4) 0.005(3) 0.015(4) 0.004(4)
N2 0.045(5) 0.034(5) 0.017(4) 0.004(3) 0.016(4) 0.003(4)
N3 0.043(5) 0.016(4) 0.028(4) -0.001(3) 0.022(4) -0.006(3)
O1 0.038(4) 0.025(3) 0.028(3) 0.002(3) 0.024(3) -0.002(3)
O2 0.032(4) 0.029(4) 0.027(3) 0.005(3) 0.015(3) 0.013(3)
O3 0.025(3) 0.047(4) 0.018(3) -0.001(3) 0.012(3) 0.003(3)
O4 0.043(4) 0.033(4) 0.037(4) 0.002(3) 0.033(3) -0.005(4)
O5 0.058(5) 0.027(4) 0.030(4) -0.004(3) 0.025(3) 0.005(4)
O6 0.040(4) 0.050(5) 0.026(4) -0.012(3) 0.014(3) 0.009(4)
C1 0.035(6) 0.017(4) 0.027(5) 0.004(4) 0.026(4) -0.001(4)
C2 0.038(6) 0.028(5) 0.021(5) -0.006(4) 0.023(4) -0.006(4)
C3 0.049(6) 0.022(5) 0.018(4) 0.014(4) 0.022(4) 0.014(5)
C4 0.033(6) 0.035(6) 0.025(5) 0.004(4) 0.015(5) 0.008(4)
C5 0.037(6) 0.027(5) 0.022(5) -0.003(4) 0.019(4) -0.002(5)
C6 0.040(6) 0.023(5) 0.012(4) -0.002(4) 0.011(4) -0.003(4)
C7 0.042(6) 0.026(6) 0.026(5) -0.001(4) 0.021(4) 0.002(5)
C8 0.038(6) 0.034(6) 0.021(5) -0.003(4) 0.017(4) -0.003(5)
C9 0.033(6) 0.022(5) 0.025(5) 0.002(4) 0.015(4) 0.004(4)
C10 0.019(5) 0.038(6) 0.017(5) 0.003(4) 0.007(4) -0.009(4)
C11 0.036(6) 0.030(5) 0.037(6) 0.003(4) 0.030(5) -0.003(5)
C12 0.043(7) 0.015(5) 0.036(6) 0.002(4) 0.019(5) -0.004(4)
C13 0.021(6) 0.035(7) 0.035(6) 0.006(5) 0.017(5) 0.010(5)
C14 0.043(6) 0.022(5) 0.025(5) 0.003(4) 0.020(5) -0.006(5)
C15 0.028(6) 0.024(5) 0.028(5) 0.002(4) 0.018(4) 0.006(4)
C16 0.045(7) 0.026(6) 0.021(5) -0.002(4) 0.020(5) 0.004(4)
C17 0.057(7) 0.042(6) 0.013(4) 0.004(4) 0.014(4) 0.012(5)
C18 0.045(7) 0.030(6) 0.029(5) -0.013(4) 0.026(5) 0.002(5)
C19 0.058(7) 0.027(5) 0.027(5) 0.002(4) 0.023(5) 0.002(5)
C20 0.034(6) 0.019(5) 0.020(4) 0.005(3) 0.014(4) 0.004(4)
C21 0.030(6) 0.024(5) 0.023(5) -0.007(4) 0.016(4) 0.001(4)
C22 0.039(6) 0.018(5) 0.028(5) 0.003(4) 0.019(5) 0.006(5)
C23 0.043(6) 0.019(5) 0.022(5) 0.001(4) 0.018(5) 0.000(4)
C24 0.032(5) 0.022(5) 0.019(4) -0.002(4) 0.017(4) 0.001(4)
C25 0.044(7) 0.041(7) 0.029(5) -0.007(4) 0.018(5) 0.002(5)
C26 0.087(10) 0.051(8) 0.054(7) -0.006(6) 0.057(7) -0.003(7)
C27 0.058(7) 0.052(8) 0.053(7) -0.006(6) 0.035(6) 0.006(7)
C28 0.088(9) 0.031(6) 0.076(8) 0.014(7) 0.048(7) 0.019(8)
C29 0.096(11) 0.039(9) 0.106(10) 0.011(7) 0.066(9) -0.003(7)
C30 0.048(7) 0.055(8) 0.074(8) 0.002(7) 0.029(6) -0.001(7)
C31 0.060(7) 0.060(8) 0.067(7) -0.012(8) 0.038(6) 0.009(8)
C32 0.151(10) 0.185(12) 0.179(11) -0.012(10) 0.093(9) 0.022(10)
C33 0.124(10) 0.185(12) 0.139(11) -0.001(10) 0.090(9) 0.047(10)
C34 0.118(10) 0.187(13) 0.172(11) 0.011(11) 0.088(9) 0.011(11)
C35 0.135(11) 0.198(13) 0.197(13) 0.015(11) 0.085(10) -0.021(11)
C36 0.156(12) 0.195(13) 0.171(12) 0.013(12) 0.069(10) -0.008(11)
C37 0.158(11) 0.171(13) 0.158(11) 0.030(11) 0.076(10) 0.027(11)
C38 0.172(14) 0.200(15) 0.224(15) -0.025(13) 0.096(12) -0.002(13)

_geom_special_details            
;
All esds (except the esd in the dihedral angle between two l.s. planes)
are estimated using the full covariance matrix. The cell esds are taken
into account individually in the estimation of esds in distances, angles
and torsion angles; correlations between esds in cell parameters are only
used when they are defined by crystal symmetry. An approximate (isotropic)
treatment of cell esds is used for estimating esds involving l.s. planes.
;

loop_
_geom_bond_atom_site_label_1
_geom_bond_atom_site_label_2
_geom_bond_distance
_geom_bond_site_symmetry_2
_geom_bond_publ_flag
Cu1 N2 1.997(7) 1_546 ?
Cu1 Cu2 2.5042(15) . ?
Cu1 I1 2.5165(14) . ?
Cu1 I2 2.5498(14) . ?
Cu2 N1 2.043(8) . ?
Cu2 N3 2.056(8) 3_445 ?
Cu2 I2 2.6089(15) . ?
Cu2 I1 2.6507(13) . ?
N1 C13 1.322(10) . ?
N1 C12 1.345(12) . ?
N2 C18 1.327(12) . ?
N2 C17 1.347(12) . ?
N2 Cu1 1.997(7) 1_564 ?
N3 C23 1.346(12) . ?
N3 C22 1.345(11) . ?
N3 Cu2 2.056(8) 3 ?
O1 C7 1.377(11) . ?
O1 C1 1.411(10) . ?
O2 C8 1.356(11) . ?
O2 C3 1.404(10) . ?
O3 C9 1.364(11) . ?
O3 C5 1.402(11) . ?
O4 C7 1.177(10) . ?
O5 C8 1.199(11) . ?
O6 C9 1.197(10) . ?
C1 C6 1.349(11) . ?
C1 C2 1.385(11) . ?
C2 C3 1.416(12) . ?
C2 H2A 0.9500 . ?
C3 C4 1.359(13) . ?
C4 C5 1.390(12) . ?
C4 H4A 0.9500 . ?
C5 C6 1.377(12) . ?
C6 H6A 0.9500 . ?
C7 C10 1.503(13) . ?
C8 C15 1.488(12) . ?
C9 C20 1.462(12) . ?
C10 C14 1.368(14) . ?
C10 C11 1.391(12) . ?
C11 C12 1.357(13) . ?
C11 H11A 0.9500 . ?
C12 H12A 0.9500 . ?
C13 C14 1.386(13) . ?
C13 H13A 0.9500 . ?
C14 H14A 0.9500 . ?
C15 C19 1.376(12) . ?
C15 C16 1.376(12) . ?
C16 C17 1.368(12) . ?
C16 H16A 0.9500 . ?
C17 H17A 0.9500 . ?
C18 C19 1.378(13) . ?
C18 H18A 0.9500 . ?
C19 H19A 0.9500 . ?
C20 C24 1.379(11) . ?
C20 C21 1.399(12) . ?
C21 C22 1.338(12) . ?
C21 H21A 0.9500 . ?
C22 H22A 0.9500 . ?
C23 C24 1.353(12) . ?
C23 H23A 0.9500 . ?
C24 H24A 0.9500 . ?
C25 C30 1.386(14) . ?
C25 C26 1.382(14) . ?
C25 C31 1.455(15) . ?
C26 C27 1.381(15) . ?
C26 H26A 0.9500 . ?
C27 C28 1.350(15) . ?
C27 H27A 0.9500 . ?
C28 C29 1.392(16) . ?
C28 H28A 0.9500 . ?
C29 C30 1.364(16) . ?
C29 H29A 0.9500 . ?
C30 H30A 0.9500 . ?
C31 H31A 0.9800 . ?
C31 H31B 0.9800 . ?
C31 H31C 0.9800 . ?
C32 C33 1.358(19) . ?
C32 C37 1.402(19) . ?
C32 C38 1.43(2) . ?
C33 C34 1.36(2) . ?
C33 H33A 0.9500 . ?
C34 C35 1.35(2) . ?
C34 H34A 0.9500 . ?
C35 C36 1.37(2) . ?
C35 H35A 0.9500 . ?
C36 C37 1.37(2) . ?
C36 H36A 0.9500 . ?
C37 H37A 0.9500 . ?
C38 H38A 0.9800 . ?
C38 H38B 0.9800 . ?
C38 H38C 0.9800 . ?

loop_
_geom_angle_atom_site_label_1
_geom_angle_atom_site_label_2
_geom_angle_atom_site_label_3
_geom_angle
_geom_angle_site_symmetry_1
_geom_angle_site_symmetry_3
_geom_angle_publ_flag
N2 Cu1 Cu2 168.3(2) 1_546 . ?
N2 Cu1 I1 123.6(2) 1_546 . ?
Cu2 Cu1 I1 63.73(4) . . ?
N2 Cu1 I2 111.3(2) 1_546 . ?
Cu2 Cu1 I2 62.15(4) . . ?
I1 Cu1 I2 125.11(5) . . ?
N1 Cu2 N3 101.7(3) . 3_445 ?
N1 Cu2 Cu1 134.2(2) . . ?
N3 Cu2 Cu1 124.1(2) 3_445 . ?
N1 Cu2 I2 102.5(2) . . ?
N3 Cu2 I2 114.2(2) 3_445 . ?
Cu1 Cu2 I2 59.78(4) . . ?
N1 Cu2 I1 113.4(2) . . ?
N3 Cu2 I1 106.5(2) 3_445 . ?
Cu1 Cu2 I1 58.36(4) . . ?
I2 Cu2 I1 117.48(4) . . ?
