
#######################################################################
#
#                 Cambridge Crystallographic Data Centre
#                                CCDC
#
#######################################################################
#
# If this CIF has been generated from an entry in the Cambridge
# Structural Database, then it will include bibliographic, chemical,
# crystal, experimental, refinement or atomic coordinate data resulting
# from the CCDC's data processing and validation procedures.
#
#######################################################################

data_CSD_CIF_ALALHC
_audit_creation_date 1971-12-31
_audit_creation_method CSD-ConQuest-V1
_database_code_CSD ALALHC
_database_code_depnum_ccdc_archive 'CCDC 1102160'
_chemical_formula_sum 'C6 H13 Cl1 N2 O3'
_chemical_formula_moiety
;
C6 H13 N2 O3 1+,Cl1 1-
;
_journal_coeditor_code "IUCr A06817"
_journal_coden_Cambridge 107
_journal_volume 25
_journal_year 1969
_journal_page_first 1367
_journal_name_full 'Acta Crystallogr.,Sect.B:Struct.Crystallogr.Cryst.Chem. '
loop_
_publ_author_name
"Y.Tomuka"
"T.Ashida"
"M.Kakudo"
_chemical_name_systematic
;
L-Alanyl-L-alanine hydrochloride
;
_chemical_name_common
;
Teaching Subset: Fundamental Chemistry; PEPSEQ A=2 ALA-ALA
;
_cell_volume   1008.950
_exptl_crystal_density_diffrn 1.295
_diffrn_ambient_temperature ?
_diffrn_special_details
;
The study was carried out at room temperature,in the range 283-303K

;
#These two values have been output from a single CSD field.
_refine_ls_R_factor_gt 0.079
_refine_ls_wR_factor_gt 0.079
_symmetry_cell_setting orthorhombic
_symmetry_space_group_name_H-M 'P 21 21 2'
_symmetry_Int_Tables_number 18
loop_
_symmetry_equiv_pos_site_id
_symmetry_equiv_pos_as_xyz
1 x,y,z
2 1/2+x,1/2-y,-z
3 1/2-x,1/2+y,-z
4 -x,-y,z
_cell_length_a 9.51(1)
_cell_length_b 19.72(1)
_cell_length_c 5.38(1)
_cell_angle_alpha 90
_cell_angle_beta 90
_cell_angle_gamma 90
_cell_formula_units_Z 4
loop_
_atom_type_symbol
_atom_type_radius_bond
C 0.68
H 0.20
Cl 0.99
N 0.68
O 0.68
loop_
_atom_site_label
_atom_site_type_symbol
_atom_site_fract_x
_atom_site_fract_y
_atom_site_fract_z
Cl1 Cl 0.15100 0.19990 -0.09250
C1 C 0.14020 0.34680 0.33890
C2 C -0.00800 0.32180 0.39410
C3 C -0.06400 0.34970 0.64070
C4 C 0.25370 0.51680 0.16040
C5 C 0.27510 0.43980 0.16050
C6 C 0.32240 0.41790 -0.10510
H1 H 0.05500 0.23000 0.52200
H2 H 0.34600 0.37000 -0.10900
H3 H 0.41700 0.43700 -0.16100
H4 H 0.24100 0.42600 -0.21900
H5 H 0.33300 0.59100 0.16700
H6 H 0.05100 0.22700 0.26200
H7 H -0.10800 0.22600 0.47000
H8 H -0.09100 0.33200 0.26100
H9 H -0.16600 0.32800 0.67700
H10 H -0.08600 0.39500 0.63000
H11 H 0.03800 0.35000 0.78800
H12 H 0.04800 0.42300 0.14500
H13 H 0.36500 0.43500 0.27700
N1 N -0.00300 0.24560 0.41260
N2 N 0.14340 0.40820 0.22980
O1 O 0.24420 0.31520 0.39690
O2 O 0.14170 0.54150 0.15080
O3 O 0.36800 0.54980 0.16620
#END
