####################################################################### 
# 
# This file contains crystal structure data downloaded from the 
# Cambridge Structural Database (CSD) hosted by the Cambridge 
# Crystallographic Data Centre (CCDC).
# 
# Full information about CCDC data access policies and citation 
# guidelines are available at http://www.ccdc.cam.ac.uk/access/V1 
# 
# Audit and citation data items may have been added by the CCDC. 
# Please retain this information to preserve the provenance of 
# this file and to allow appropriate attribution of the data. 
# 
#######################################################################

data_zn_bdcppi
_audit_block_doi                 10.5517/cctjjxr
_database_code_depnum_ccdc_archive 'CCDC 760675'
loop_
_citation_id
_citation_doi
_citation_year
1 10.1002/chem.201002135 2010
_audit_update_record             
;
2010-01-06 deposited with the CCDC.	2024-07-08 downloaded from the CCDC.
;
#TrackingRef 'Zn_bdcppi.cif'

#==============================================================================

_audit_creation_date             2008-07-14T17:18:45-00:00
_audit_creation_method           SHELXL-97


#----------------------------------------------------------------------------#
# CHEMICAL INFORMATION #
#----------------------------------------------------------------------------#

_chemical_name_systematic        
;
?
;
_chemical_formula_moiety         'C35 H29 N5 O15 Zn2'
_chemical_formula_sum            'C35 H29 N5 O15 Zn2'
_chemical_formula_weight         890.37
_chemical_compound_source        'synthesis as described'

#----------------------------------------------------------------------------#
# UNIT CELL INFORMATION #
#----------------------------------------------------------------------------#

loop_
_atom_type_symbol
_atom_type_description
_atom_type_scat_dispersion_real
_atom_type_scat_dispersion_imag
_atom_type_scat_source
C C 0.0033 0.0016 'International Tables Vol C Tables 4.2.6.8 and 6.1.1.4'
H H 0.0000 0.0000 'International Tables Vol C Tables 4.2.6.8 and 6.1.1.4'
N N 0.0061 0.0033 'International Tables Vol C Tables 4.2.6.8 and 6.1.1.4'
O O 0.0106 0.0060 'International Tables Vol C Tables 4.2.6.8 and 6.1.1.4'
Zn Zn 0.2839 1.4301 'International Tables Vol C Tables 4.2.6.8 and 6.1.1.4'

_symmetry_cell_setting           Orthorhombic
_symmetry_space_group_name_H-M   Icab

loop_
_symmetry_equiv_pos_as_xyz
'x, y, z'
'-x+1/2, -y, z'
'x, -y+1/2, -z'
'-x+1/2, y+1/2, -z'
'x+1/2, y+1/2, z+1/2'
'-x+1, -y+1/2, z+1/2'
'x+1/2, -y+1, -z+1/2'
'-x+1, y+1, -z+1/2'
'-x, -y, -z'
'x-1/2, y, -z'
'-x, y-1/2, z'
'x-1/2, -y-1/2, z'
'-x+1/2, -y+1/2, -z+1/2'
'x, y+1/2, -z+1/2'
'-x+1/2, y, z+1/2'
'x, -y, z+1/2'

_cell_length_a                   18.199(3)
_cell_length_b                   20.125(4)
_cell_length_c                   69.8204(14)
_cell_angle_alpha                90.00
_cell_angle_beta                 90.00
_cell_angle_gamma                90.00
_cell_volume                     25572(7)
_cell_formula_units_Z            16
_cell_measurement_temperature    298(2)
_cell_measurement_reflns_used    12390
_cell_measurement_theta_min      0.998
_cell_measurement_theta_max      27.485

_exptl_crystal_description       plates
_exptl_crystal_colour            'pale yellow'
_exptl_crystal_size_max          0.20
_exptl_crystal_size_mid          0.20
_exptl_crystal_size_min          0.20
_exptl_crystal_density_meas      ?
_exptl_crystal_density_diffrn    0.925
_exptl_crystal_density_method    'not measured'
_exptl_crystal_F_000             7264
_exptl_absorpt_coefficient_mu    0.796
_exptl_absorpt_correction_type   none
_exptl_absorpt_correction_T_min  ?
_exptl_absorpt_correction_T_max  ?
_exptl_absorpt_process_details   ?

_exptl_special_details           
;
?
;

_diffrn_ambient_temperature      298(2)
_diffrn_radiation_wavelength     0.71073
_diffrn_radiation_type           MoK\a
_diffrn_radiation_source         'fine-focus sealed tube'
_diffrn_radiation_monochromator  'horizonally mounted graphite crystal'
_diffrn_measurement_device_type  KappaCCD
_diffrn_measurement_method       CCD
_diffrn_detector_area_resol_mean 9
_diffrn_standards_number         ?
_diffrn_standards_interval_count ?
_diffrn_standards_interval_time  ?
_diffrn_standards_decay_%        ?
_diffrn_reflns_number            23569
_diffrn_reflns_av_R_equivalents  0.0630
_diffrn_reflns_av_sigmaI/netI    0.1164
_diffrn_reflns_limit_h_min       -17
_diffrn_reflns_limit_h_max       17
_diffrn_reflns_limit_k_min       -26
_diffrn_reflns_limit_k_max       26
_diffrn_reflns_limit_l_min       -90
_diffrn_reflns_limit_l_max       90
_diffrn_reflns_theta_min         1.17
_diffrn_reflns_theta_max         27.48
_reflns_number_total             12830
_reflns_number_gt                5825
_reflns_threshold_expression     >2sigma(I)

_computing_data_collection       'Collect (Bruker AXS BV, 1997-2004)'
_computing_cell_refinement       'HKL Scalepack (Otwinowski & Minor 1997)'
_computing_data_reduction        
'HKL Denzo and Scalepack (Otwinowski & Minor 1997)'
_computing_structure_solution    'SHELXS-97 (Sheldrick, 1997)'
_computing_structure_refinement  'SHELXL-97 (Sheldrick, 1997)'
_computing_molecular_graphics    
'CCDC Mercury, Acta Crystallogr., B58, 2002, 389-397'
_computing_publication_material  
'WinGX, L.J. Farrugia, J. Appl. Cryst., 1999, 32, 837-838.'

_refine_special_details          
;
Refinement of F^2^ against ALL reflections. The weighted R-factor wR and
goodness of fit S are based on F^2^, conventional R-factors R are based
on F, with F set to zero for negative F^2^. The threshold expression of
F^2^ > 2sigma(F^2^) is used only for calculating R-factors(gt) etc. and is
not relevant to the choice of reflections for refinement. R-factors based
on F^2^ are statistically about twice as large as those based on F, and R-
factors based on ALL data will be even larger.
;

_refine_ls_structure_factor_coef Fsqd
_refine_ls_matrix_type           full
_refine_ls_weighting_scheme      calc
_refine_ls_weighting_details     
'calc w=1/[\s^2^(Fo^2^)+(0.1146P)^2^+0.0000P] where P=(Fo^2^+2Fc^2^)/3'
_atom_sites_solution_primary     direct
_atom_sites_solution_secondary   difmap
_atom_sites_solution_hydrogens   geom
_refine_ls_hydrogen_treatment    constr
_refine_ls_extinction_method     none
_refine_ls_extinction_coef       ?
_refine_ls_number_reflns         12830
_refine_ls_number_parameters     493
_refine_ls_number_restraints     0
_refine_ls_R_factor_all          0.1277
_refine_ls_R_factor_gt           0.0817
_refine_ls_wR_factor_ref         0.2419
_refine_ls_wR_factor_gt          0.2293
_refine_ls_goodness_of_fit_ref   1.040
_refine_ls_restrained_S_all      1.040
_refine_ls_shift/su_max          2.521
_refine_ls_shift/su_mean         0.008

loop_
_atom_site_label
_atom_site_type_symbol
_atom_site_fract_x
_atom_site_fract_y
_atom_site_fract_z
_atom_site_U_iso_or_equiv
_atom_site_adp_type
_atom_site_occupancy
_atom_site_symmetry_multiplicity
_atom_site_calc_flag
_atom_site_refinement_flags
_atom_site_disorder_assembly
_atom_site_disorder_group
Zn1 Zn 0.02804(3) 0.22554(3) 0.118207(9) 0.0363(2) Uani 1 1 d . . .
Zn2 Zn 0.05301(3) 0.11792(3) 0.155631(9) 0.0401(2) Uani 1 1 d . . .
O1 O 0.0457(2) 0.0750(2) 0.12887(6) 0.0545(11) Uani 1 1 d . . .
O2 O 0.0309(2) 0.14136(18) 0.10343(6) 0.0478(10) Uani 1 1 d . . .
O3 O -0.0183(3) -0.1603(2) 0.12353(6) 0.0673(13) Uani 1 1 d . . .
O4 O -0.0139(2) -0.21013(19) 0.09596(6) 0.0571(12) Uani 1 1 d . . .
O5 O -0.0800 0.0710 0.0446 0.212(4) Uani 1 1 d . . .
O6 O 0.0775 -0.1032 0.0401 0.269(6) Uani 1 1 d . . .
O7 O -0.0734(2) 0.2142(2) 0.12934(5) 0.0491(11) Uani 1 1 d . . .
O8 O -0.0511(2) 0.1556(2) 0.15639(6) 0.0500(11) Uani 1 1 d . . .
O9 O -0.3434(2) 0.2571(2) 0.11943(6) 0.0636(13) Uani 1 1 d . . .
O10 O -0.4112(2) 0.28565(18) 0.14427(6) 0.0472(10) Uani 1 1 d . . .
O11 O -0.1446(3) 0.3127(3) 0.20723(7) 0.0871(17) Uani 1 1 d . . .
O12 O -0.3416(3) 0.1716(3) 0.20711(7) 0.0830(17) Uani 1 1 d . . .
O13 O 0.0601(3) 0.1523(3) 0.18408(7) 0.0781(15) Uani 1 1 d . . .
O14 O 0.0170(2) 0.0256(3) 0.16679(7) 0.0715(14) Uani 1 1 d . . .
O15 O 0.1603(2) 0.0879(2) 0.15852(7) 0.0626(13) Uani 1 1 d . . .
C1 C 0.0107(3) -0.0371(3) 0.10728(8) 0.0458(15) Uani 1 1 d . . .
H1 H 0.0135 -0.0417 0.1205 0.055 Uiso 1 1 calc R . .
C2 C 0.0194(3) 0.0259(3) 0.09917(8) 0.0428(14) Uani 1 1 d . . .
C3 C 0.0327(3) 0.0865(3) 0.11156(8) 0.0422(14) Uani 1 1 d . . .
C4 C 0.0162(3) 0.0317(3) 0.07939(8) 0.0475(15) Uani 1 1 d . . .
H4 H 0.0230 0.0729 0.0736 0.057 Uiso 1 1 calc R . .
C5 C 0.0028(3) -0.0238(3) 0.06825(8) 0.0504(15) Uani 1 1 d . . .
C6 C -0.0054(3) -0.0858(3) 0.07644(9) 0.0542(16) Uani 1 1 d . . .
H6 H -0.0132 -0.1230 0.0688 0.065 Uiso 1 1 calc R . .
C7 C -0.0017(3) -0.0918(3) 0.09632(8) 0.0451(15) Uani 1 1 d . . .
C8 C -0.0119(3) -0.1577(3) 0.10600(9) 0.0468(15) Uani 1 1 d . . .
C9 C -0.0337 0.0315 0.0371 0.72(4) Uani 1 1 d . . .
C10 C -0.0213 0.0179 0.0184 0.279(12) Uani 1 1 d . . .
C11 C -0.0496 0.0579 0.0008 0.331(14) Uani 1 1 d . . .
H11 H -0.0851 0.0911 0.0010 0.397 Uiso 1 1 calc R . .
C12 C 0.0090 -0.0327 0.0167 0.223(9) Uani 1 1 d . . .
C13 C 0.0387 -0.0572 0.0356 0.71(4) Uani 1 1 d . . .
C14 C -0.2198(3) 0.2310(3) 0.14204(8) 0.0388(14) Uani 1 1 d . . .
H14 H -0.2138 0.2302 0.1288 0.047 Uiso 1 1 calc R . .
C15 C -0.1626(3) 0.2137(3) 0.15384(8) 0.0380(14) Uani 1 1 d . . .
C16 C -0.0891(3) 0.1913(3) 0.14585(9) 0.0396(14) Uani 1 1 d . . .
C17 C -0.1706(3) 0.2156(3) 0.17368(8) 0.0407(14) Uani 1 1 d . . .
H17 H -0.1320 0.2029 0.1816 0.049 Uiso 1 1 calc R . .
C18 C -0.2360(3) 0.2366(3) 0.18139(9) 0.0499(16) Uani 1 1 d . . .
C19 C -0.2951(3) 0.2535(3) 0.16960(8) 0.0436(14) Uani 1 1 d . . .
H19 H -0.3395 0.2670 0.1749 0.052 Uiso 1 1 calc R . .
C20 C -0.2871(3) 0.2499(3) 0.15000(8) 0.0397(14) Uani 1 1 d . . .
C21 C -0.3497(3) 0.2661(3) 0.13701(10) 0.0444(15) Uani 1 1 d . . .
C22 C -0.1940(4) 0.2794(3) 0.21305(9) 0.0597(18) Uani 1 1 d . . .
C23 C -0.2189(3) 0.2680(3) 0.23304(9) 0.0550(17) Uani 1 1 d . . .
C24 C -0.1880(4) 0.2947(3) 0.25003(10) 0.0633(18) Uani 1 1 d . . .
H24 H -0.1477 0.3232 0.2500 0.076 Uiso 1 1 calc R . .
C25 C -0.2769(3) 0.2254(3) 0.23324(9) 0.0540(17) Uani 1 1 d . . .
C26 C -0.2936(4) 0.2062(4) 0.21287(10) 0.0596(18) Uani 1 1 d . . .
C27 C 0.0363(13) 0.1611(16) 0.19469(17) 0.368(18) Uani 1 1 d . . .
H27 H -0.0123 0.1568 0.1908 0.442 Uiso 1 1 calc R . .
C28 C 0.1052(19) 0.1455(14) 0.2254(4) 0.45(2) Uani 1 1 d . . .
H28A H 0.1163 0.1020 0.2206 0.674 Uiso 1 1 calc R . .
H28B H 0.0948 0.1430 0.2389 0.674 Uiso 1 1 calc R . .
H28C H 0.1465 0.1743 0.2234 0.674 Uiso 1 1 calc R . .
C29 C 0.0214(9) 0.2332(10) 0.2180(2) 0.212(9) Uani 1 1 d . . .
H29A H -0.0181 0.2531 0.2109 0.319 Uiso 1 1 calc R . .
H29B H 0.0661 0.2569 0.2155 0.319 Uiso 1 1 calc R . .
H29C H 0.0104 0.2352 0.2315 0.319 Uiso 1 1 calc R . .
C30 C -0.0363(8) -0.0033(6) 0.15990(17) 0.178(7) Uani 1 1 d . . .
H30 H -0.0631 0.0241 0.1518 0.213 Uiso 1 1 calc R . .
C31 C -0.0163(6) -0.1039(8) 0.17331(19) 0.217(9) Uani 1 1 d . . .
H31A H -0.0365 -0.1478 0.1745 0.326 Uiso 1 1 calc R . .
H31B H -0.0125 -0.0841 0.1858 0.326 Uiso 1 1 calc R . .
H31C H 0.0316 -0.1065 0.1676 0.326 Uiso 1 1 calc R . .
C32 C -0.1338(7) -0.0783(7) 0.15305(17) 0.171(5) Uani 1 1 d . . .
H32A H -0.1454 -0.1240 0.1556 0.256 Uiso 1 1 calc R . .
H32B H -0.1321 -0.0713 0.1395 0.256 Uiso 1 1 calc R . .
H32C H -0.1708 -0.0503 0.1586 0.256 Uiso 1 1 calc R . .
C33 C 0.2090(6) 0.0875(3) 0.14603(12) 0.079(2) Uani 1 1 d . . .
H33 H 0.1942 0.0904 0.1333 0.095 Uiso 1 1 calc R . .
C34 C 0.3047(5) 0.0823(5) 0.16956(16) 0.128(4) Uani 1 1 d . . .
H34A H 0.3572 0.0789 0.1702 0.192 Uiso 1 1 calc R . .
H34B H 0.2829 0.0449 0.1759 0.192 Uiso 1 1 calc R . .
H34C H 0.2892 0.1226 0.1757 0.192 Uiso 1 1 calc R . .
C35 C 0.3299(6) 0.0819(5) 0.13310(17) 0.151(5) Uani 1 1 d . . .
H35A H 0.3798 0.0781 0.1373 0.226 Uiso 1 1 calc R . .
H35B H 0.3240 0.1223 0.1259 0.226 Uiso 1 1 calc R . .
H35C H 0.3178 0.0446 0.1251 0.226 Uiso 1 1 calc R . .
N1 N 0.0009(3) -0.0178(3) 0.04788(7) 0.0653(16) Uani 1 1 d . . .
N2 N -0.2430(3) 0.2414(3) 0.20178(7) 0.0501(13) Uani 1 1 d . . .
N3 N 0.0282(16) 0.1773(9) 0.2134(2) 0.291(13) Uani 1 1 d . . .
N4 N -0.0651(5) -0.0628(5) 0.16109(16) 0.137(4) Uani 1 1 d . . .
N5 N 0.2814(4) 0.0832(3) 0.14954(14) 0.092(2) Uani 1 1 d . . .

loop_
_atom_site_aniso_label
_atom_site_aniso_U_11
_atom_site_aniso_U_22
_atom_site_aniso_U_33
_atom_site_aniso_U_23
_atom_site_aniso_U_13
_atom_site_aniso_U_12
Zn1 0.0471(4) 0.0304(3) 0.0313(3) 0.0023(3) -0.0017(3) 0.0002(3)
Zn2 0.0415(4) 0.0445(4) 0.0343(4) 0.0015(3) -0.0016(3) 0.0036(3)
O1 0.087(3) 0.040(2) 0.036(3) -0.005(2) -0.004(2) 0.001(2)
O2 0.075(3) 0.027(2) 0.041(2) 0.0070(18) 0.002(2) -0.0038(19)
O3 0.112(4) 0.045(3) 0.044(3) 0.015(2) 0.004(3) -0.005(3)
O4 0.085(3) 0.029(2) 0.057(3) 0.006(2) 0.005(2) -0.009(2)
O5 0.288(11) 0.237(12) 0.111(7) -0.035(7) -0.039(7) -0.058(9)
O6 0.435(17) 0.226(13) 0.145(9) 0.092(8) 0.004(10) -0.067(12)
O7 0.051(3) 0.063(3) 0.033(2) 0.006(2) 0.0087(19) 0.002(2)
O8 0.044(2) 0.056(3) 0.050(3) 0.016(2) 0.008(2) 0.018(2)
O9 0.064(3) 0.077(3) 0.049(3) -0.002(3) -0.015(2) 0.011(2)
O10 0.050(3) 0.038(2) 0.053(3) -0.004(2) -0.005(2) 0.0002(19)
O11 0.101(4) 0.113(5) 0.047(3) -0.005(3) 0.013(3) -0.053(3)
O12 0.086(4) 0.108(4) 0.056(3) -0.025(3) 0.001(3) -0.041(3)
O13 0.093(4) 0.102(4) 0.039(3) -0.008(3) 0.003(3) -0.026(3)
O14 0.076(3) 0.063(3) 0.075(4) 0.029(3) 0.004(3) -0.012(3)
O15 0.058(3) 0.058(3) 0.071(4) 0.004(3) 0.001(2) 0.014(2)
C1 0.068(4) 0.040(3) 0.030(3) 0.004(3) 0.004(3) 0.001(3)
C2 0.066(4) 0.029(3) 0.032(3) 0.001(3) 0.000(3) -0.010(3)
C3 0.048(4) 0.041(3) 0.037(3) -0.001(3) 0.006(3) -0.001(3)
C4 0.076(4) 0.039(3) 0.028(3) 0.005(3) -0.003(3) -0.010(3)
C5 0.091(4) 0.040(3) 0.020(3) 0.001(3) 0.002(3) 0.002(3)
C6 0.093(5) 0.028(3) 0.041(4) 0.001(3) 0.001(3) -0.001(3)
C7 0.076(4) 0.030(3) 0.029(3) 0.005(3) 0.000(3) 0.000(3)
C8 0.060(4) 0.033(3) 0.048(4) 0.006(3) 0.004(3) -0.001(3)
C9 2.00(13) 0.139(14) 0.016(5) -0.003(7) -0.04(2) -0.43(4)
C10 0.75(4) 0.059(7) 0.024(4) 0.003(5) -0.077(11) 0.014(13)
C11 0.77(4) 0.106(10) 0.114(12) 0.022(11) -0.067(19) 0.045(18)
C12 0.59(3) 0.059(6) 0.023(4) 0.000(4) 0.011(10) -0.016(12)
C13 2.00(13) 0.085(10) 0.047(8) 0.030(8) -0.20(3) -0.22(3)
C14 0.045(4) 0.035(3) 0.037(3) 0.002(3) 0.002(3) -0.003(3)
C15 0.048(4) 0.033(3) 0.032(3) -0.002(3) -0.002(3) 0.001(2)
C16 0.038(4) 0.034(3) 0.046(4) -0.014(3) -0.003(3) -0.004(3)
C17 0.034(3) 0.048(4) 0.040(3) 0.001(3) 0.000(3) 0.008(3)
C18 0.056(4) 0.056(4) 0.038(4) 0.000(3) -0.009(3) 0.004(3)
C19 0.039(3) 0.048(4) 0.043(3) 0.004(3) 0.004(3) 0.002(3)
C20 0.037(4) 0.039(3) 0.043(3) -0.002(3) 0.001(3) 0.005(3)
C21 0.041(4) 0.031(3) 0.062(4) 0.000(3) -0.005(3) 0.000(3)
C22 0.081(5) 0.068(5) 0.030(3) -0.005(3) 0.003(3) -0.009(4)
C23 0.063(4) 0.068(5) 0.033(3) 0.001(3) 0.000(3) -0.013(4)
C24 0.082(5) 0.064(4) 0.043(4) 0.000(3) 0.007(4) -0.015(4)
C25 0.052(4) 0.072(5) 0.038(4) -0.004(3) 0.005(3) -0.008(3)
C26 0.062(5) 0.077(5) 0.040(4) -0.003(4) 0.010(3) 0.007(4)
C27 0.37(3) 0.71(5) 0.020(6) -0.019(15) 0.002(11) -0.05(3)
C28 0.63(6) 0.28(3) 0.44(5) 0.11(3) -0.17(4) -0.12(3)
C29 0.220(17) 0.27(2) 0.151(16) 0.049(16) -0.059(13) -0.135(17)
C30 0.299(17) 0.113(9) 0.121(10) -0.045(8) 0.145(11) -0.114(10)
C31 0.131(9) 0.31(2) 0.206(14) 0.205(15) 0.074(9) 0.099(11)
C32 0.143(11) 0.210(15) 0.159(13) -0.040(10) 0.012(9) -0.057(10)
C33 0.115(8) 0.044(4) 0.076(6) -0.010(4) 0.007(5) 0.008(4)
C34 0.080(6) 0.136(9) 0.166(11) -0.071(9) -0.038(7) 0.038(6)
C35 0.133(9) 0.132(10) 0.188(13) 0.022(9) 0.068(9) 0.046(8)
N1 0.134(5) 0.040(3) 0.022(3) 0.000(2) 0.003(3) -0.010(3)
N2 0.053(3) 0.067(4) 0.031(3) -0.006(3) 0.001(2) 0.006(3)
N3 0.59(4) 0.173(16) 0.104(11) -0.010(11) 0.119(17) 0.03(2)
N4 0.112(7) 0.118(8) 0.183(10) -0.030(7) 0.052(7) -0.045(6)
N5 0.048(5) 0.064(4) 0.166(9) -0.009(5) 0.006(5) 0.017(3)

_geom_special_details            
;
All esds (except the esd in the dihedral angle between two l.s. planes)
are estimated using the full covariance matrix. The cell esds are taken
into account individually in the estimation of esds in distances, angles
and torsion angles; correlations between esds in cell parameters are only
used when they are defined by crystal symmetry. An approximate (isotropic)
treatment of cell esds is used for estimating esds involving l.s. planes.
;

loop_
_geom_bond_atom_site_label_1
_geom_bond_atom_site_label_2
_geom_bond_distance
_geom_bond_site_symmetry_2
_geom_bond_publ_flag
Zn1 O2 1.984(4) . ?
Zn1 O7 2.016(4) . ?
Zn1 O4 2.038(4) 11_565 ?
Zn1 O10 2.141(4) 12_665 ?
Zn1 O3 2.334(5) 11_565 ?
Zn1 O9 2.367(4) 12_665 ?
Zn1 C8 2.517(6) 11_565 ?
Zn1 C21 2.589(6) 12_665 ?
Zn2 O8 2.041(4) . ?
Zn2 O15 2.055(4) . ?
Zn2 O1 2.063(4) . ?
Zn2 O13 2.107(5) . ?
Zn2 O14 2.119(5) . ?
Zn2 O10 2.196(4) 12_665 ?
O1 C3 1.252(6) . ?
O2 C3 1.243(7) . ?
O3 C8 1.231(7) . ?
O3 Zn1 2.334(5) 11 ?
O4 C8 1.267(7) . ?
O4 Zn1 2.038(4) 11 ?
O5 C9 1.27069(14) . ?
O6 C13 1.20514(16) . ?
O7 C16 1.274(7) . ?
O8 C16 1.240(7) . ?
O9 C21 1.246(7) . ?
O9 Zn1 2.367(4) 12_565 ?
O10 C21 1.290(7) . ?
O10 Zn1 2.141(4) 12_565 ?
O10 Zn2 2.196(4) 12_565 ?
O11 C22 1.193(7) . ?
O12 C26 1.187(8) . ?
O13 C27 0.877(17) . ?
O14 C30 1.230(14) . ?
O15 C33 1.243(9) . ?
C1 C7 1.360(7) . ?
C1 C2 1.397(7) . ?
C2 C4 1.387(7) . ?
C2 C3 1.514(7) . ?
C4 C5 1.382(7) . ?
C5 C6 1.381(8) . ?
C5 N1 1.428(7) . ?
C6 C7 1.394(8) . ?
C7 C8 1.499(8) . ?
C8