####################################################################### 
# 
# This file contains crystal structure data downloaded from the 
# Cambridge Structural Database (CSD) hosted by the Cambridge 
# Crystallographic Data Centre (CCDC).
# 
# Full information about CCDC data access policies and citation 
# guidelines are available at http://www.ccdc.cam.ac.uk/access/V1 
# 
# Audit and citation data items may have been added by the CCDC. 
# Please retain this information to preserve the provenance of 
# this file and to allow appropriate attribution of the data. 
# 
#######################################################################

data_e:\oldc~1\hyg-29\h
_audit_block_doi                 10.5517/ccvcwwy
_database_code_depnum_ccdc_archive 'CCDC 786001'
loop_
_citation_id
_citation_doi
_citation_year
1 10.1002/anie.201004921 2011
_audit_update_record             
;
2010-07-26 deposited with the CCDC.	2024-07-08 downloaded from the CCDC.
;
#TrackingRef 'compound 1b.cif'


_audit_creation_method           SHELXL-97
_chemical_name_systematic        
;
?
;
_chemical_name_common            ?
_chemical_melting_point          ?
_chemical_formula_moiety         'C16 H32 Cl4 Cu12 N24 O14'
_chemical_formula_sum            'C16 H32 Cl4 Cu12 N24 O14'
_chemical_formula_weight         1688.94

loop_
_atom_type_symbol
_atom_type_description
_atom_type_scat_dispersion_real
_atom_type_scat_dispersion_imag
_atom_type_scat_source
C C 0.0181 0.0091 'International Tables Vol C Tables 4.2.6.8 and 6.1.1.4'
N N 0.0311 0.0180 'International Tables Vol C Tables 4.2.6.8 and 6.1.1.4'
Cu Cu -1.9646 0.5888 'International Tables Vol C Tables 4.2.6.8 and 6.1.1.4'
H H 0.0000 0.0000 'International Tables Vol C Tables 4.2.6.8 and 6.1.1.4'
Cl Cl 0.3639 0.7018 'International Tables Vol C Tables 4.2.6.8 and 6.1.1.4'
O O 0.0492 0.0322 'International Tables Vol C Tables 4.2.6.8 and 6.1.1.4'

_symmetry_cell_setting           Tetragonal
_symmetry_space_group_name_H-M   I4122

loop_
_symmetry_equiv_pos_as_xyz
'x, y, z'
'-y, x+1/2, z+1/4'
'-x, -y, z'
'y, -x+1/2, z+1/4'
'x, -y+1/2, -z+1/4'
'-x, y+1/2, -z+1/4'
'y, x, -z'
'-y, -x, -z'
'x+1/2, y+1/2, z+1/2'
'-y+1/2, x+1, z+3/4'
'-x+1/2, -y+1/2, z+1/2'
'y+1/2, -x+1, z+3/4'
'x+1/2, -y+1, -z+3/4'
'-x+1/2, y+1, -z+3/4'
'y+1/2, x+1/2, -z+1/2'
'-y+1/2, -x+1/2, -z+1/2'

_cell_length_a                   20.7391(7)
_cell_length_b                   20.7391(7)
_cell_length_c                   3.3462(2)
_cell_angle_alpha                90.00
_cell_angle_beta                 90.00
_cell_angle_gamma                90.00
_cell_volume                     1439.24(11)
_cell_formula_units_Z            1
_cell_measurement_temperature    293(2)
_cell_measurement_reflns_used    1008
_cell_measurement_theta_min      2.3118
_cell_measurement_theta_max      27.5719

_exptl_crystal_description       Block
_exptl_crystal_colour            green
_exptl_crystal_size_max          0.077
_exptl_crystal_size_mid          0.056
_exptl_crystal_size_min          0.035
_exptl_crystal_density_meas      ?
_exptl_crystal_density_diffrn    1.949
_exptl_crystal_density_method    'not measured'
_exptl_crystal_F_000             824
_exptl_absorpt_coefficient_mu    6.981
_exptl_absorpt_correction_type   Multi-scan
_exptl_absorpt_correction_T_min  0.8723
_exptl_absorpt_correction_T_max  0.9998
_exptl_absorpt_process_details   'SADABS (Sheldrick, 1996)'

_exptl_special_details           
;
?
;

_diffrn_ambient_temperature      293(2)
_diffrn_radiation_wavelength     1.54178
_diffrn_radiation_type           CuK\a
_diffrn_radiation_source         'fine-focus sealed tube'
_diffrn_radiation_monochromator  graphite
_diffrn_measurement_device_type  'Bruker APEXII CCD'
_diffrn_measurement_method       \w
_diffrn_detector_area_resol_mean ?
_diffrn_standards_number         ?
_diffrn_standards_interval_count ?
_diffrn_standards_interval_time  ?
_diffrn_standards_decay_%        ?
_diffrn_reflns_number            2855
_diffrn_reflns_av_R_equivalents  0.0124
_diffrn_reflns_av_sigmaI/netI    0.0244
_diffrn_reflns_limit_h_min       -23
_diffrn_reflns_limit_h_max       20
_diffrn_reflns_limit_k_min       -23
_diffrn_reflns_limit_k_max       17
_diffrn_reflns_limit_l_min       -3
_diffrn_reflns_limit_l_max       4
_diffrn_reflns_theta_min         3.01
_diffrn_reflns_theta_max         69.21
_reflns_number_total             647
_reflns_number_gt                271
_reflns_threshold_expression     >2sigma(I)

_computing_data_collection       CrystalClear
_computing_cell_refinement       CrystalClear
_computing_data_reduction        'SHELXS-97 (Sheldrick, 1990)'
_computing_structure_solution    'SHELXS-97 (Sheldrick, 1990)'
_computing_structure_refinement  'SHELXL-97 (Sheldrick, 1997)'
_computing_molecular_graphics    'SHELXL-97 (Sheldrick, 1997)'
_computing_publication_material  'SHELXL-97 (Sheldrick, 1997)'

_refine_special_details          
;
Refinement of F^2^ against ALL reflections. The weighted R-factor wR and
goodness of fit S are based on F^2^, conventional R-factors R are based
on F, with F set to zero for negative F^2^. The threshold expression of
F^2^ > 2sigma(F^2^) is used only for calculating R-factors(gt) etc. and is
not relevant to the choice of reflections for refinement. R-factors based
on F^2^ are statistically about twice as large as those based on F, and R-
factors based on ALL data will be even larger.
;

_refine_ls_structure_factor_coef Fsqd
_refine_ls_matrix_type           full
_refine_ls_weighting_scheme      calc
_refine_ls_weighting_details     
'calc w=1/[\s^2^(Fo^2^)+(0.1578P)^2^+0.0000P] where P=(Fo^2^+2Fc^2^)/3'
_atom_sites_solution_primary     direct
_atom_sites_solution_secondary   difmap
_atom_sites_solution_hydrogens   geom
_refine_ls_hydrogen_treatment    constr
_refine_ls_extinction_method     SHELXL
_refine_ls_extinction_coef       ?
_refine_ls_extinction_expression Fc^*^=kFc[1+0.001xFc^2^\l^3^/sin(2\q)]^-1/4^
_refine_ls_abs_structure_details 'Flack H D (1983), Acta Cryst. A39, 876-881'
_refine_ls_abs_structure_Flack   0.037(6)
_refine_ls_number_reflns         647
_refine_ls_number_parameters     33
_refine_ls_number_restraints     0
_refine_ls_R_factor_all          0.1406
_refine_ls_R_factor_gt           0.0853
_refine_ls_wR_factor_ref         0.2676
_refine_ls_wR_factor_gt          0.2435
_refine_ls_goodness_of_fit_ref   0.962
_refine_ls_restrained_S_all      0.962
_refine_ls_shift/su_max          0.000
_refine_ls_shift/su_mean         0.000

loop_
_atom_site_label
_atom_site_type_symbol
_atom_site_fract_x
_atom_site_fract_y
_atom_site_fract_z
_atom_site_U_iso_or_equiv
_atom_site_adp_type
_atom_site_occupancy
_atom_site_symmetry_multiplicity
_atom_site_calc_flag
_atom_site_refinement_flags
_atom_site_disorder_assembly
_atom_site_disorder_group
Cu1 Cu 0.36518(13) 0.2500 0.1250 0.1909(19) Uani 1 2 d S . .
Cu2 Cu 0.5000 0.5000 0.0000 0.211(2) Uani 1 4 d S . .
N2 N 0.3819(6) 0.3410(5) 0.053(4) 0.203(6) Uani 1 1 d . . .
N1 N 0.4314(7) 0.4314(7) 0.0000 0.196(7) Uani 1 2 d S . .
C1 C 0.4483(12) 0.3654(10) 0.091(6) 0.286(12) Uani 1 1 d . . .
H1 H 0.4881 0.3451 0.1531 0.343 Uiso 1 1 calc R . .

loop_
_atom_site_aniso_label
_atom_site_aniso_U_11
_atom_site_aniso_U_22
_atom_site_aniso_U_33
_atom_site_aniso_U_23
_atom_site_aniso_U_13
_atom_site_aniso_U_12
Cu1 0.237(3) 0.229(3) 0.1061(19) -0.0433(19) 0.000 0.000
Cu2 0.265(4) 0.265(4) 0.102(3) 0.000 0.000 -0.084(3)
N2 0.259(13) 0.213(11) 0.137(10) 0.066(8) -0.013(11) -0.021(11)
N1 0.236(10) 0.236(10) 0.116(10) 0.040(8) -0.040(8) 0.011(15)
C1 0.44(4) 0.32(2) 0.094(10) -0.001(12) 0.042(19) -0.08(3)

_geom_special_details            
;
All esds (except the esd in the dihedral angle between two l.s. planes)
are estimated using the full covariance matrix. The cell esds are taken
into account individually in the estimation of esds in distances, angles
and torsion angles; correlations between esds in cell parameters are only
used when they are defined by crystal symmetry. An approximate (isotropic)
treatment of cell esds is used for estimating esds involving l.s. planes.
;

loop_
_geom_bond_atom_site_label_1
_geom_bond_atom_site_label_2
_geom_bond_distance
_geom_bond_site_symmetry_2
_geom_bond_publ_flag
Cu1 N2 1.934(11) 5 ?
Cu1 N2 1.934(11) . ?
Cu2 N1 2.01(2) 3_665 ?
Cu2 N1 2.01(2) . ?
N2 N2 1.25(2) 7 ?
N2 C1 1.47(2) . ?
N1 C1 1.444(18) 7 ?
N1 C1 1.444(18) . ?
C1 H1 0.9500 . ?

loop_
_geom_angle_atom_site_label_1
_geom_angle_atom_site_label_2
_geom_angle_atom_site_label_3
_geom_angle
_geom_angle_site_symmetry_1
_geom_angle_site_symmetry_3
_geom_angle_publ_flag
N2 Cu1 N2 159.3(8) 5 . ?
N1 Cu2 N1 179.999(2) 3_665 . ?
N2 N2 C1 115.1(10) 7 . ?
N2 N2 Cu1 125.1(4) 7 . ?
C1 N2 Cu1 119.5(12) . . ?
C1 N1 C1 120(3) 7 . ?
C1 N1 Cu2 119.9(14) 7 . ?
C1 N1 Cu2 119.9(14) . . ?
N1 C1 N2 95(2) . . ?
N1 C1 H1 132.7 . . ?
N2 C1 H1 132.7 . . ?

loop_
_geom_torsion_atom_site_label_1
_geom_torsion_atom_site_label_2
_geom_torsion_atom_site_label_3
_geom_torsion_atom_site_label_4
_geom_torsion
_geom_torsion_site_symmetry_1
_geom_torsion_site_symmetry_2
_geom_torsion_site_symmetry_3
_geom_torsion_site_symmetry_4
_geom_torsion_publ_flag
N2 Cu1 N2 N2 166.1(18) 5 . . 7 ?
N2 Cu1 N2 C1 -8.5(12) 5 . . . ?
N1 Cu2 N1 C1 -165.9(8) 3_665 . . 7 ?
N1 Cu2 N1 C1 14.1(8) 3_665 . . . ?
C1 N1 C1 N2 -1.1(7) 7 . . . ?
Cu2 N1 C1 N2 178.9(7) . . . . ?
N2 N2 C1 N1 3(2) 7 . . . ?
Cu1 N2 C1 N1 178.4(7) . . . . ?

_diffrn_measured_fraction_theta_max 0.963
_diffrn_reflns_theta_full        69.21
_diffrn_measured_fraction_theta_full 0.963
_refine_diff_density_max         0.602
_refine_diff_density_min         -0.380
_refine_diff_density_rms         0.079


