####################################################################### 
# 
# This file contains crystal structure data downloaded from the 
# Cambridge Structural Database (CSD) hosted by the Cambridge 
# Crystallographic Data Centre (CCDC).
# 
# Full information about CCDC data access policies and citation 
# guidelines are available at http://www.ccdc.cam.ac.uk/access/V1 
# 
# Audit and citation data items may have been added by the CCDC. 
# Please retain this information to preserve the provenance of 
# this file and to allow appropriate attribution of the data. 
# 
#######################################################################

data_c:\hyg-19b\hyg-19b\hyg-19b\h
_audit_block_doi                 10.5517/ccvcwvx
_database_code_depnum_ccdc_archive 'CCDC 786000'
loop_
_citation_id
_citation_doi
_citation_year
1 10.1002/anie.201004921 2011
_audit_update_record             
;
2010-07-26 deposited with the CCDC.	2024-07-08 downloaded from the CCDC.
;
#TrackingRef 'compound 1.cif'


_audit_creation_method           SHELXL-97
_chemical_name_systematic        
;
?
;
_chemical_name_common            ?
_chemical_melting_point          ?
_chemical_formula_moiety         'C16 H32 Cl4 Cu12 N24 O8'
_chemical_formula_sum            'C16 H32 Cl4 Cu12 N24 O8'
_chemical_formula_weight         1592.94

loop_
_atom_type_symbol
_atom_type_description
_atom_type_scat_dispersion_real
_atom_type_scat_dispersion_imag
_atom_type_scat_source
C C 0.0033 0.0016 'International Tables Vol C Tables 4.2.6.8 and 6.1.1.4'
N N 0.0061 0.0033 'International Tables Vol C Tables 4.2.6.8 and 6.1.1.4'
Cu Cu 0.3201 1.2651 'International Tables Vol C Tables 4.2.6.8 and 6.1.1.4'
H H 0.0000 0.0000 'International Tables Vol C Tables 4.2.6.8 and 6.1.1.4'
O O 0.0106 0.0060 'International Tables Vol C Tables 4.2.6.8 and 6.1.1.4'
Cl Cl 0.1484 0.1585 'International Tables Vol C Tables 4.2.6.8 and 6.1.1.4'

_symmetry_cell_setting           Tetragonal
_symmetry_space_group_name_H-M   I4122

loop_
_symmetry_equiv_pos_as_xyz
'x, y, z'
'-y, x+1/2, z+1/4'
'-x, -y, z'
'y, -x+1/2, z+1/4'
'x, -y+1/2, -z+1/4'
'-x, y+1/2, -z+1/4'
'y, x, -z'
'-y, -x, -z'
'x+1/2, y+1/2, z+1/2'
'-y+1/2, x+1, z+3/4'
'-x+1/2, -y+1/2, z+1/2'
'y+1/2, -x+1, z+3/4'
'x+1/2, -y+1, -z+3/4'
'-x+1/2, y+1, -z+3/4'
'y+1/2, x+1/2, -z+1/2'
'-y+1/2, -x+1/2, -z+1/2'

_cell_length_a                   19.9156(2)
_cell_length_b                   19.9156(2)
_cell_length_c                   3.2237(3)
_cell_angle_alpha                90.00
_cell_angle_beta                 90.00
_cell_angle_gamma                90.00
_cell_volume                     1278.62(12)
_cell_formula_units_Z            1
_cell_measurement_temperature    296(2)
_cell_measurement_reflns_used    2388
_cell_measurement_theta_min      2.4118
_cell_measurement_theta_max      27.4719

_exptl_crystal_description       Block
_exptl_crystal_colour            Yellow
_exptl_crystal_size_max          0.06
_exptl_crystal_size_mid          0.06
_exptl_crystal_size_min          0.02
_exptl_crystal_density_meas      ?
_exptl_crystal_density_diffrn    2.069
_exptl_crystal_density_method    'not measured'
_exptl_crystal_F_000             776
_exptl_absorpt_coefficient_mu    5.147
_exptl_absorpt_correction_type   Multi-scan
_exptl_absorpt_correction_T_min  0.8823
_exptl_absorpt_correction_T_max  1.0000
_exptl_absorpt_process_details   'SADABS (Sheldrick, 1996)'

_exptl_special_details           
;
?
;

_diffrn_ambient_temperature      296(2)
_diffrn_radiation_wavelength     0.71073
_diffrn_radiation_type           MoK\a
_diffrn_radiation_source         'fine-focus sealed tube'
_diffrn_radiation_monochromator  graphite
_diffrn_measurement_device_type  'Bruker APEXII CCD '
_diffrn_measurement_method       \w
_diffrn_detector_area_resol_mean ?
_diffrn_standards_number         ?
_diffrn_standards_interval_count ?
_diffrn_standards_interval_time  ?
_diffrn_standards_decay_%        ?
_diffrn_reflns_number            12181
_diffrn_reflns_av_R_equivalents  0.1901
_diffrn_reflns_av_sigmaI/netI    0.2130
_diffrn_reflns_limit_h_min       -27
_diffrn_reflns_limit_h_max       28
_diffrn_reflns_limit_k_min       -27
_diffrn_reflns_limit_k_max       27
_diffrn_reflns_limit_l_min       -4
_diffrn_reflns_limit_l_max       4
_diffrn_reflns_theta_min         1.45
_diffrn_reflns_theta_max         30.52
_reflns_number_total             987
_reflns_number_gt                301
_reflns_threshold_expression     >2sigma(I)

_computing_data_collection       CrystalClear
_computing_cell_refinement       CrystalClear
_computing_data_reduction        'SHELXS-97 (Sheldrick, 1990)'
_computing_structure_solution    'SHELXS-97 (Sheldrick, 1990)'
_computing_structure_refinement  'SHELXL-97 (Sheldrick, 1997)'
_computing_molecular_graphics    'SHELXL-97 (Sheldrick, 1997)'
_computing_publication_material  'SHELXL-97 (Sheldrick, 1997)'

_refine_special_details          
;
Refinement of F^2^ against ALL reflections. The weighted R-factor wR and
goodness of fit S are based on F^2^, conventional R-factors R are based
on F, with F set to zero for negative F^2^. The threshold expression of
F^2^ > 2sigma(F^2^) is used only for calculating R-factors(gt) etc. and is
not relevant to the choice of reflections for refinement. R-factors based
on F^2^ are statistically about twice as large as those based on F, and R-
factors based on ALL data will be even larger.
;

_refine_ls_structure_factor_coef Fsqd
_refine_ls_matrix_type           full
_refine_ls_weighting_scheme      calc
_refine_ls_weighting_details     
'calc w=1/[\s^2^(Fo^2^)+(0.1590P)^2^+0.0000P] where P=(Fo^2^+2Fc^2^)/3'
_atom_sites_solution_primary     direct
_atom_sites_solution_secondary   difmap
_atom_sites_solution_hydrogens   geom
_refine_ls_hydrogen_treatment    constr
_refine_ls_extinction_method     SHELXL
_refine_ls_extinction_coef       ?
_refine_ls_extinction_expression Fc^*^=kFc[1+0.001xFc^2^\l^3^/sin(2\q)]^-1/4^
_refine_ls_abs_structure_details 'Flack H D (1983), Acta Cryst. A39, 876-881'
_refine_ls_abs_structure_Flack   0.2(2)
_refine_ls_number_reflns         987
_refine_ls_number_parameters     33
_refine_ls_number_restraints     6
_refine_ls_R_factor_all          0.4225
_refine_ls_R_factor_gt           0.1071
_refine_ls_wR_factor_ref         0.4013
_refine_ls_wR_factor_gt          0.2960
_refine_ls_goodness_of_fit_ref   0.830
_refine_ls_restrained_S_all      0.830
_refine_ls_shift/su_max          0.085
_refine_ls_shift/su_mean         0.040

loop_
_atom_site_label
_atom_site_type_symbol
_atom_site_fract_x
_atom_site_fract_y
_atom_site_fract_z
_atom_site_U_iso_or_equiv
_atom_site_adp_type
_atom_site_occupancy
_atom_site_symmetry_multiplicity
_atom_site_calc_flag
_atom_site_refinement_flags
_atom_site_disorder_assembly
_atom_site_disorder_group
Cu1 Cu 1.2500 0.1333(2) -0.1250 0.225(3) Uani 1 2 d S . .
N1 N 1.0671(6) 0.0671(6) 0.0000 0.285(18) Uani 1 2 d SD . .
C1 C 1.1356(6) 0.0498(7) -0.108(7) 0.292(18) Uani 1 1 d D . .
H1 H 1.1559 0.0099 -0.1911 0.351 Uiso 1 1 calc R . .
Cu2 Cu 1.0000 0.0000 0.0000 0.253(4) Uani 1 4 d S . .
N2 N 1.1614(6) 0.1181(6) -0.041(3) 0.207(9) Uani 1 1 d D . .

loop_
_atom_site_aniso_label
_atom_site_aniso_U_11
_atom_site_aniso_U_22
_atom_site_aniso_U_33
_atom_site_aniso_U_23
_atom_site_aniso_U_13
_atom_site_aniso_U_12
Cu1 0.320(6) 0.258(5) 0.098(3) 0.000 -0.004(3) 0.000
N1 0.40(3) 0.40(3) 0.057(14) 0.040(14) -0.040(14) 0.09(4)
C1 0.126(15) 0.56(5) 0.19(2) -0.19(3) 0.031(14) -0.16(2)
Cu2 0.320(6) 0.320(6) 0.118(5) 0.000 0.000 -0.051(6)
N2 0.33(2) 0.249(16) 0.042(6) -0.083(9) 0.028(9) 0.166(15)

_geom_special_details            
;
All esds (except the esd in the dihedral angle between two l.s. planes)
are estimated using the full covariance matrix. The cell esds are taken
into account individually in the estimation of esds in distances, angles
and torsion angles; correlations between esds in cell parameters are only
used when they are defined by crystal symmetry. An approximate (isotropic)
treatment of cell esds is used for estimating esds involving l.s. planes.
;

loop_
_geom_bond_atom_site_label_1
_geom_bond_atom_site_label_2
_geom_bond_distance
_geom_bond_site_symmetry_2
_geom_bond_publ_flag
Cu1 N2 1.810(14) . ?
Cu1 N2 1.810(14) 14_744 ?
N1 C1 1.449(3) 7_645 ?
N1 C1 1.450(3) . ?
N1 Cu2 1.890(18) . ?
C1 N2 1.470(3) . ?
C1 H1 0.9300 . ?
Cu2 N1 1.890(18) 3_755 ?
N2 N2 1.250(3) 7_645 ?

loop_
_geom_angle_atom_site_label_1
_geom_angle_atom_site_label_2
_geom_angle_atom_site_label_3
_geom_angle
_geom_angle_site_symmetry_1
_geom_angle_site_symmetry_3
_geom_angle_publ_flag
N2 Cu1 N2 160.6(7) . 14_744 ?
C1 N1 C1 120.4(4) 7_645 . ?
C1 N1 Cu2 119.85(18) 7_645 . ?
C1 N1 Cu2 119.76(18) . . ?
N1 C1 N2 94.2(3) . . ?
N1 C1 H1 132.9 . . ?
N2 C1 H1 132.9 . . ?
N1 Cu2 N1 180.0(11) . 3_755 ?
N2 N2 C1 115.37(15) 7_645 . ?
N2 N2 Cu1 126.1(4) 7_645 . ?
C1 N2 Cu1 118.3(4) . . ?

loop_
_geom_torsion_atom_site_label_1
_geom_torsion_atom_site_label_2
_geom_torsion_atom_site_label_3
_geom_torsion_atom_site_label_4
_geom_torsion
_geom_torsion_site_symmetry_1
_geom_torsion_site_symmetry_2
_geom_torsion_site_symmetry_3
_geom_torsion_site_symmetry_4
_geom_torsion_publ_flag
C1 N1 C1 N2 1.7(4) 7_645 . . . ?
Cu2 N1 C1 N2 -178.3(4) . . . . ?
C1 N1 Cu2 N1 16.2(10) 7_645 . . 3_755 ?
C1 N1 Cu2 N1 -163.9(10) . . . 3_755 ?
N1 C1 N2 N2 -5.4(14) . . . 7_645 ?
N1 C1 N2 Cu1 179.9(8) . . . . ?
N2 Cu1 N2 N2 172.8(13) 14_744 . . 7_645 ?
N2 Cu1 N2 C1 -13.2(9) 14_744 . . . ?

_diffrn_measured_fraction_theta_max 0.987
_diffrn_reflns_theta_full        30.52
_diffrn_measured_fraction_theta_full 0.987
_refine_diff_density_max         0.458
_refine_diff_density_min         -0.468
_refine_diff_density_rms         0.113


