####################################################################### 
# 
# This file contains crystal structure data downloaded from the 
# Cambridge Structural Database (CSD) hosted by the Cambridge 
# Crystallographic Data Centre (CCDC).
# 
# Full information about CCDC data access policies and citation 
# guidelines are available at http://www.ccdc.cam.ac.uk/access/V1 
# 
# Audit and citation data items may have been added by the CCDC. 
# Please retain this information to preserve the provenance of 
# this file and to allow appropriate attribution of the data. 
# 
#######################################################################

data_zz57s
_audit_block_doi                 10.5517/cc64vtz
_database_code_depnum_ccdc_archive 'CCDC 183421'
loop_
_citation_id
_citation_doi
_citation_year
1 10.1016/S0277-5387(03)00427-3 2003
_audit_update_record             
;
2002-04-07 deposited with the CCDC.	2024-07-08 downloaded from the CCDC.
;

# The following lines are used to test the character set of files sent by
# network email or other means. They are not part of the CIF data set.
# abcdefghijklmnopqrstuvwxyzABCDEFGHIJKLMNOPQRSTUVWXYZ0123456789
# !@#$%^&*()_+{}:"~<>?|\-=[];'`,./                 

#==============================================================================


_symmetry_Int_Tables_number      60


_diffrn_measurement_specimen_support 'glass fiber'


_audit_creation_method           SHELXL-97
_chemical_name_systematic        
; 
? 
;
_chemical_name_common            ?
_chemical_melting_point          ?
_chemical_formula_moiety         
'C44 H76 F0 N7 O9 P4 Re6 Se8 Zn, 3.5(C O), N O3, Sb0'
_chemical_formula_sum            'C47.50 H76 F0 N8 O15.50 P4 Re6 Sb0 Se8 Zn'
_chemical_formula_weight         2945.29

loop_
_atom_type_symbol
_atom_type_description
_atom_type_scat_dispersion_real
_atom_type_scat_dispersion_imag
_atom_type_scat_source
C C 0.0033 0.0016 'International Tables Vol C Tables 4.2.6.8 and 6.1.1.4'
H H 0.0000 0.0000 'International Tables Vol C Tables 4.2.6.8 and 6.1.1.4'
N N 0.0061 0.0033 'International Tables Vol C Tables 4.2.6.8 and 6.1.1.4'
O O 0.0106 0.0060 'International Tables Vol C Tables 4.2.6.8 and 6.1.1.4'
F F 0.0171 0.0103 'International Tables Vol C Tables 4.2.6.8 and 6.1.1.4'
P P 0.1023 0.0942 'International Tables Vol C Tables 4.2.6.8 and 6.1.1.4'
Zn Zn 0.2839 1.4301 'International Tables Vol C Tables 4.2.6.8 and 6.1.1.4'
Se Se -0.0929 2.2259 'International Tables Vol C Tables 4.2.6.8 and 6.1.1.4'
Sb Sb -0.5866 1.5461 'International Tables Vol C Tables 4.2.6.8 and 6.1.1.4'
Re Re -1.0185 7.2310 'International Tables Vol C Tables 4.2.6.8 and 6.1.1.4'

_symmetry_cell_setting           Orthorhombic
_symmetry_space_group_name_H-M   Pbcn

loop_
_symmetry_equiv_pos_as_xyz
'x, y, z'
'-x+1/2, -y+1/2, z+1/2'
'-x, y, -z+1/2'
'x+1/2, -y+1/2, -z'
'-x, -y, -z'
'x-1/2, y-1/2, -z-1/2'
'x, -y, z-1/2'
'-x-1/2, y-1/2, z'

_cell_length_a                   23.924(5)
_cell_length_b                   25.868(5)
_cell_length_c                   29.116(6)
_cell_angle_alpha                90.00
_cell_angle_beta                 90.00
_cell_angle_gamma                90.00
_cell_volume                     18019(6)
_cell_formula_units_Z            8
_cell_measurement_temperature    293(2)
_cell_measurement_reflns_used    4672
_cell_measurement_theta_min      2.2035
_cell_measurement_theta_max      22.1375

_exptl_crystal_description       plate
_exptl_crystal_colour            red
_exptl_crystal_size_max          0.35
_exptl_crystal_size_mid          0.2
_exptl_crystal_size_min          0.1
_exptl_crystal_density_meas      ?
_exptl_crystal_density_diffrn    2.171
_exptl_crystal_density_method    'not measured'
_exptl_crystal_F_000             10824
_exptl_absorpt_coefficient_mu    11.643
_exptl_absorpt_correction_type   multiscan
_exptl_absorpt_correction_T_min  0.464517
_exptl_absorpt_correction_T_max  1
_exptl_absorpt_process_details   'SADABS (Bruker, 2000)'

_exptl_special_details           
; 
? 
;

_diffrn_ambient_temperature      170(2)
_diffrn_radiation_wavelength     0.71073
_diffrn_radiation_type           MoK\a
_diffrn_radiation_source         'fine-focus sealed tube'
_diffrn_radiation_monochromator  graphite
_diffrn_measurement_device_type  'CCD area detector'
_diffrn_measurement_method       '\w scans'
_diffrn_detector_area_resol_mean ?
_diffrn_standards_number         ?
_diffrn_standards_interval_count 1907
_diffrn_standards_interval_time  ?
_diffrn_standards_decay_%        0.182
_diffrn_reflns_number            75059
_diffrn_reflns_av_R_equivalents  0.1577
_diffrn_reflns_av_sigmaI/netI    0.1276
_diffrn_reflns_limit_h_min       -26
_diffrn_reflns_limit_h_max       26
_diffrn_reflns_limit_k_min       -28
_diffrn_reflns_limit_k_max       25
_diffrn_reflns_limit_l_min       -32
_diffrn_reflns_limit_l_max       30
_diffrn_reflns_theta_min         1.16
_diffrn_reflns_theta_max         23.30
_reflns_number_total             12978
_reflns_number_gt                5806
_reflns_threshold_expression     I>2sigma(I)

_computing_data_collection       'Bruker SMART'
_computing_cell_refinement       'Bruker SMART'
_computing_data_reduction        'Bruker SAINT'
_computing_structure_solution    'Bruker SHELXTL'
_computing_structure_refinement  'Bruker SHELXTL'
_computing_molecular_graphics    'Bruker SHELXTL'
_computing_publication_material  'Bruker SHELXTL'

_refine_special_details          
;
Refinement of F^2^ against ALL reflections.  The weighted R-factor wR and 
goodness of fit S are based on F^2^, conventional R-factors R are based 
on F, with F set to zero for negative F^2^. The threshold expression of 
F^2^ > 2sigma(F^2^) is used only for calculating R-factors(gt) etc. and is 
not relevant to the choice of reflections for refinement.  R-factors based 
on F^2^ are statistically about twice as large as those based on F, and R- 
factors based on ALL data will be even larger. 

The sample used for data collection was observed to desolvate and decompose
rapidly.  The crystal diffracted weakly and data was of 
mediocre quality.  Subsequently some difficulties were encountered during
refinements.  Several of the ethyl groups had large anisotropic 
displacements indicative of librational disorder.  These groups were split
into to two half occupied components, given isotropic thermal parameters,
and allowed to refine with the C-C distance constrained to 1.54 \%A.  
Three nitrate groups (as bidentate nitrato ligands)
were initially found in fourier difference maps but
a necessary fourth anion could not be located.  Elemental analysis was 
consistent with the anion being nitrate.  This moiety was inserted 
as an idealized monodentate nitrato group coordinated to the Zn ion by 
O82.  This coordination mode is observed in all of the structures 
reported in this article and is the most reasonable location for the
nitrate, despite rather large isotropic thermal parameters that resulted.  
Other non-coordinating sites were also fitted with the rigid body model,
but all fit very poorly.  The model which included the split ethyls and 
idealized nitrate afforded improved refinement statistics over those 
without one or both modifications.  In addition to the nitrate and ethyl
groups, a single disordered methanol molecule was located with its 
oxygen atom on a two-fold site.  The bound carbon was found in a 
general position and given half occupancy.  Three other methanol
molecules were found in the interstices of the lattice.  Hydrogen atoms
were modeled only for the bound atoms in the main residue, resulting in
a discrepancy between reported and observed formulae.  The hydrogen atoms
in the main residue were added at idealized positions and given thermal
parameters equal to 1.2 or 1.5 Uiso of their bound atom.     
;

_refine_ls_structure_factor_coef Fsqd
_refine_ls_matrix_type           full
_refine_ls_weighting_scheme      calc
_refine_ls_weighting_details     
'calc w=1/[\s^2^(Fo^2^)+(0.1111P)^2^+1224.5010P] where P=(Fo^2^+2Fc^2^)/3'
_atom_sites_solution_primary     direct
_atom_sites_solution_secondary   difmap
_atom_sites_solution_hydrogens   geom
_refine_ls_hydrogen_treatment    constr
_refine_ls_extinction_method     none
_refine_ls_extinction_coef       ?
_refine_ls_number_reflns         12978
_refine_ls_number_parameters     714
_refine_ls_number_restraints     436
_refine_ls_R_factor_all          0.2141
_refine_ls_R_factor_gt           0.0766
_refine_ls_wR_factor_ref         0.3158
_refine_ls_wR_factor_gt          0.1963
_refine_ls_goodness_of_fit_ref   1.121
_refine_ls_restrained_S_all      1.109
_refine_ls_shift/su_max          0.012
_refine_ls_shift/su_mean         0.000

loop_
_atom_site_label
_atom_site_type_symbol
_atom_site_fract_x
_atom_site_fract_y
_atom_site_fract_z
_atom_site_U_iso_or_equiv
_atom_site_adp_type
_atom_site_occupancy
_atom_site_symmetry_multiplicity
_atom_site_calc_flag
_atom_site_refinement_flags
_atom_site_disorder_assembly
_atom_site_disorder_group
Re1 Re 0.96039(5) 0.04802(5) 0.96540(4) 0.0323(4) Uani 1 1 d . . .
Re2 Re 1.05973(5) 0.04610(5) 1.00457(5) 0.0354(4) Uani 1 1 d . . .
Re3 Re 0.53703(6) 0.04743(5) 0.53720(5) 0.0384(4) Uani 1 1 d . . .
Re4 Re 0.96922(5) 0.02723(5) 1.05357(5) 0.0351(4) Uani 1 1 d . . .
Re5 Re 0.51974(7) 0.03796(6) 0.44838(5) 0.0481(5) Uani 1 1 d . . .
Re6 Re 0.43459(6) 0.03801(6) 0.50533(6) 0.0493(5) Uani 1 1 d . . .
Se7 Se 0.93427(14) -0.02402(13) 0.91125(11) 0.0375(8) Uani 1 1 d . . .
Se6 Se 0.87549(13) 0.02754(14) 1.01370(12) 0.0401(9) Uani 1 1 d . . .
Se5 Se 1.04872(14) 0.06422(14) 0.92055(12) 0.0423(9) Uani 1 1 d . . .
Se4 Se 0.61692(15) 0.04484(17) 0.48103(15) 0.0599(12) Uani 1 1 d . . .
Se3 Se 0.45340(17) 0.04473(19) 0.59014(14) 0.0681(13) Uani 1 1 d . . .
Se2 Se 0.98944(14) 0.11596(13) 1.02241(12) 0.0404(9) Uani 1 1 d . . .
Se1 Se 0.57891(18) -0.02725(16) 0.57979(15) 0.0627(12) Uani 1 1 d . . .
Se8 Se 0.49096(18) 0.11807(15) 0.49157(16) 0.0643(13) Uani 1 1 d . . .
P2 P 1.1396(4) 0.1071(4) 1.0098(4) 0.051(3) Uani 1 1 d U . .
C21 C 1.171(3) 0.128(2) 0.9569(19) 0.14(2) Uani 1 1 d U A .
H21A H 1.1423 0.1416 0.9369 0.164 Uiso 1 1 calc R . .
H21B H 1.1968 0.1565 0.9636 0.164 Uiso 1 1 calc R . .
C24 C 1.203(2) 0.087(3) 0.932(2) 0.15(2) Uani 1 1 d U . .
H24A H 1.2184 0.1010 0.9041 0.226 Uiso 1 1 calc R A .
H24B H 1.1779 0.0591 0.9243 0.226 Uiso 1 1 calc R . .
H24C H 1.2324 0.0742 0.9510 0.226 Uiso 1 1 calc R . .
C22 C 1.197(4) 0.080(5) 1.053(4) 0.09(3) Uiso 0.50 1 d PDU A 1
H22A H 1.1870 0.0871 1.0853 0.107 Uiso 0.50 1 calc PR A 1
H22B H 1.2038 0.0436 1.0493 0.107 Uiso 0.50 1 calc PR A 1
C25 C 1.245(4) 0.114(4) 1.036(4) 0.08(3) Uiso 0.50 1 d PDU A 1
H25A H 1.2793 0.1039 1.0506 0.123 Uiso 0.50 1 calc PR A 1
H25B H 1.2376 0.1499 1.0434 0.123 Uiso 0.50 1 calc PR A 1
H25C H 1.2487 0.1107 1.0034 0.123 Uiso 0.50 1 calc PR A 1
C22B C 1.199(3) 0.084(4) 1.035(3) 0.06(2) Uiso 0.50 1 d PDU A 2
H22A H 1.1870 0.0609 1.0593 0.069 Uiso 0.50 1 calc PR A 2
H22B H 1.2170 0.0622 1.0121 0.069 Uiso 0.50 1 calc PR A 2
C25B C 1.247(4) 0.116(5) 1.056(4) 0.10(3) Uiso 0.50 1 d PDU A 2
H25A H 1.2721 0.0935 1.0731 0.155 Uiso 0.50 1 calc PR A 2
H25B H 1.2321 0.1413 1.0770 0.155 Uiso 0.50 1 calc PR A 2
H25C H 1.2679 0.1332 1.0325 0.155 Uiso 0.50 1 calc PR A 2
C23 C 1.121(5) 0.171(4) 1.018(3) 0.08(2) Uiso 0.50 1 d PDU A 3
H23A H 1.1486 0.1928 1.0037 0.093 Uiso 0.50 1 calc PR A 3
H23B H 1.0854 0.1770 1.0036 0.093 Uiso 0.50 1 calc PR A 3
C26 C 1.117(5) 0.185(4) 1.070(3) 0.11(3) Uiso 0.50 1 d PDU A 3
H26A H 1.1034 0.2204 1.0722 0.169 Uiso 0.50 1 calc PR A 3
H26B H 1.1529 0.1828 1.0837 0.169 Uiso 0.50 1 calc PR A 3
H26C H 1.0912 0.1625 1.0847 0.169 Uiso 0.50 1 calc PR A 3
C23B C 1.128(4) 0.171(3) 1.037(2) 0.044(17) Uiso 0.50 1 d PDU A 4
H23A H 1.1621 0.1912 1.0366 0.053 Uiso 0.50 1 calc PR A 4
H23B H 1.0995 0.1902 1.0199 0.053 Uiso 0.50 1 calc PR A 4
C26B C 1.108(3) 0.161(3) 1.0866(18) 0.042(18) Uiso 0.50 1 d PDU A 4
H26A H 1.0988 0.1935 1.1009 0.062 Uiso 0.50 1 calc PR A 4
H26B H 1.1379 0.1449 1.1035 0.062 Uiso 0.50 1 calc PR A 4
H26C H 1.0761 0.1390 1.0863 0.062 Uiso 0.50 1 calc PR A 4
P4 P 0.9304(4) 0.0643(4) 1.1248(3) 0.047(2) Uani 1 1 d U . .
C41 C 0.9732(17) 0.1168(15) 1.1475(12) 0.059(9) Uani 1 1 d U . .
H41A H 1.0106 0.1036 1.1525 0.071 Uiso 1 1 calc R . .
H41B H 0.9756 0.1435 1.1242 0.071 Uiso 1 1 calc R . .
C42 C 0.9230(15) 0.0175(14) 1.1718(12) 0.053(7) Uani 1 1 d U . .
H42A H 0.9031 0.0340 1.1968 0.063 Uiso 1 1 calc R . .
H42B H 0.9002 -0.0110 1.1610 0.063 Uiso 1 1 calc R . .
C43 C 0.8607(15) 0.0921(16) 1.1203(12) 0.057(9) Uani 1 1 d U . .
H43A H 0.8352 0.0652 1.1103 0.069 Uiso 1 1 calc R . .
H43B H 0.8489 0.1027 1.1508 0.069 Uiso 1 1 calc R . .
C44 C 0.9534(19) 0.1416(17) 1.1916(15) 0.087(14) Uani 1 1 d U . .
H44A H 0.9790 0.1685 1.2003 0.131 Uiso 1 1 calc R . .
H44B H 0.9519 0.1160 1.2154 0.131 Uiso 1 1 calc R . .
H44C H 0.9169 0.1560 1.1870 0.131 Uiso 1 1 calc R . .
C45 C 0.9788(17) -0.0049(17) 1.1911(14) 0.075(12) Uani 1 1 d U . .
H45A H 0.9707 -0.0292 1.2152 0.112 Uiso 1 1 calc R . .
H45B H 1.0013 0.0227 1.2031 0.112 Uiso 1 1 calc R . .
H45C H 0.9988 -0.0222 1.1669 0.112 Uiso 1 1 calc R . .
C46 C 0.855(2) 0.1360(17) 1.0896(14) 0.089(14) Uani 1 1 d U . .
H46A H 0.8164 0.1469 1.0892 0.133 Uiso 1 1 calc R . .
H46B H 0.8659 0.1261 1.0592 0.133 Uiso 1 1 calc R . .
H46C H 0.8779 0.1638 1.1001 0.133 Uiso 1 1 calc R . .
P5 P 0.5410(7) 0.0906(6) 0.3799(4) 0.104(5) Uani 1 1 d U . .
C51 C 0.490(3) 0.133(2) 0.3670(19) 0.133(14) Uani 1 1 d U B .
H51A H 0.4567 0.1136 0.3598 0.160 Uiso 1 1 calc R . .
H51B H 0.4822 0.1530 0.3945 0.160 Uiso 1 1 calc R . .
C54 C 0.500(2) 0.173(2) 0.3261(19) 0.126(13) Uani 1 1 d U . .
H54A H 0.4672 0.1936 0.3215 0.189 Uiso 1 1 calc R B .
H54B H 0.5087 0.1546 0.2984 0.189 Uiso 1 1 calc R . .
H54C H 0.5311 0.1955 0.3336 0.189 Uiso 1 1 calc R . .
C52 C 0.571(4) 0.039(5) 0.332(4) 0.12(3) Uiso 0.50 1 d PDU B 5
H52A H 0.5946 0.0561 0.3097 0.142 Uiso 0.50 1 calc PR B 5
H52B H 0.5929 0.0119 0.3469 0.142 Uiso 0.50 1 calc PR B 5
C55 C 0.520(4) 0.015(4) 0.308(4) 0.11(3) Uiso 0.50 1 d PDU B 5
H55A H 0.5289 0.0063 0.2771 0.171 Uiso 0.50 1 calc PR B 5
H55B H 0.4896 0.0397 0.3083 0.171 Uiso 0.50 1 calc PR B 5
H55C H 0.5082 -0.0155 0.3244 0.171 Uiso 0.50 1 calc PR B 5
C52B C 0.545(3) 0.059(4) 0.327(3) 0.08(2) Uiso 0.50 1 d PDU B 6
H52A H 0.5600 0.0819 0.3042 0.099 Uiso 0.50 1 calc PR B 6
H52B H 0.5693 0.0292 0.3298 0.099 Uiso 0.50 1 calc PR B 6
C55B C 0.486(3) 0.041(4) 0.312(3) 0.09(3) Uiso 0.50 1 d PDU B 6
H55A H 0.4898 0.0159 0.2875 0.130 Uiso 0.50 1 calc PR B 6
H55B H 0.4648 0.0697 0.3014 0.130 Uiso 0.50 1 calc PR B 6
H55C H 0.4673 0.0248 0.3375 0.130 Uiso 0.50 1 calc PR B 6
C53 C 0.613(4) 0.109(3) 0.380(3) 0.08(2) Uiso 0.50 1 d PDU B 7
H53A H 0.6358 0.0811 0.3929 0.094 Uiso 0.50 1 calc PR B 7
H53B H 0.6259 0.1152 0.3488 0.094 Uiso 0.50 1 calc PR B 7
C56 C 0.618(4) 0.158(3) 0.409(3) 0.07(2) Uiso 0.50 1 d PDU B 7
H56A H 0.6519 0.1760 0.4016 0.112 Uiso 0.50 1 calc PR B 7
H56B H 0.6187 0.1488 0.4413 0.112 Uiso 0.50 1 calc PR B 7
H56C H 0.5865 0.1800 0.4034 0.112 Uiso 0.50 1 calc PR B 7
C53B C 0.599(3) 0.133(3) 0.383(2) 0.045(17) Uiso 0.50 1 d PDU B 8
H53C H 0.6319 0.1125 0.3867 0.054 Uiso 0.50 1 calc PR B 8
H53D H 0.6017 0.1503 0.3532 0.054 Uiso 0.50 1 calc PR B 8
C56B C 0.599(3) 0.175(3) 0.420(2) 0.06(2) Uiso 0.50 1 d PDU B 8
H56D H 0.6359 0.1883 0.4243 0.086 Uiso 0.50 1 calc PR B 8
H56E H 0.5856 0.1609 0.4487 0.086 Uiso 0.50 1 calc PR B 8
H56F H 0.5745 0.2032 0.4112 0.086 Uiso 0.50 1 calc PR B 8
P6 P 0.3473(6) 0.0876(6) 0.5151(7) 0.112(6) Uani 1 1 d U . .
C61 C 0.300(4) 0.070(4) 0.541(4) 0.102(18) Uiso 0.50 1 d PDU C 9
H61A H 0.3146 0.0571 0.5700 0.123 Uiso 0.50 1 calc PR C 9
H61B H 0.2844 0.0412 0.5248 0.123 Uiso 0.50 1 calc PR C 9
C64 C 0.252(4) 0.107(4) 0.553(4) 0.11(3) Uiso 0.50 1 d PDU C 9
H64A H 0.2262 0.0902 0.5729 0.159 Uiso 0.50 1 calc PR C 9
H64B H 0.2330 0.1169 0.5249 0.159 Uiso 0.50 1 calc PR C 9
H64C H 0.2665 0.1376 0.5674 0.159 Uiso 0.50 1 calc PR C 9
C61B C 0.303(3) 0.055(3) 0.565(3) 0.06(2) Uiso 0.50 1 d PDU C 10
H61A H 0.2951 0.0200 0.5559 0.069 Uiso 0.50 1 calc PR C 10
H61B H 0.3263 0.0540 0.5921 0.069 Uiso 0.50 1 calc PR C 10
C64B C 0.247(3) 0.081(4) 0.579(3) 0.08(2) Uiso 0.50 1 d PDU C 10
H64A H 0.2273 0.0581 0.5990 0.115 Uiso 0.50 1 calc PR C 10
H64B H 0.2251 0.0865 0.5515 0.115 Uiso 0.50 1 calc PR C 10
H64C H 0.2544 0.1129 0.5936 0.115 Uiso 0.50 1 calc PR C 10
C62 C 0.345(4) 0.143(4) 0.544(3) 0.089(17) Uiso 0.50 1 d PDU C 11
H62A H 0.3542 0.1690 0.5210 0.107 Uiso 0.50 1 calc PR C 11
H62B H 0.3053 0.1479 0.5503 0.107 Uiso 0.50 1 calc PR C 11
C65 C 0.375(5) 0.160(5) 0.588(3) 0.12(4) Uiso 0.50 1 d PDU C 11
H65A H 0.3799 0.1964 0.5876 0.182 Uiso 0.50 1 calc PR C 11
H65B H 0.4114 0.14