####################################################################### 
# 
# This file contains crystal structure data downloaded from the 
# Cambridge Structural Database (CSD) hosted by the Cambridge 
# Crystallographic Data Centre (CCDC).
# 
# Full information about CCDC data access policies and citation 
# guidelines are available at http://www.ccdc.cam.ac.uk/access/V1 
# 
# Audit and citation data items may have been added by the CCDC. 
# Please retain this information to preserve the provenance of 
# this file and to allow appropriate attribution of the data. 
# 
#######################################################################

data_zz53s
_audit_block_doi                 10.5517/cc64vqw
_database_code_depnum_ccdc_archive 'CCDC 183418'
loop_
_citation_id
_citation_doi
_citation_year
1 10.1016/S0277-5387(03)00427-3 2003
_audit_update_record             
;
2002-04-07 deposited with the CCDC.	2024-07-08 downloaded from the CCDC.
;

# The following lines are used to test the character set of files sent by
# network email or other means. They are not part of the CIF data set.
# abcdefghijklmnopqrstuvwxyzABCDEFGHIJKLMNOPQRSTUVWXYZ0123456789
# !@#$%^&*()_+{}:"~<>?|\-=[];'`,./                 

#==============================================================================

_diffrn_measurement_specimen_support 'glass fiber'


_audit_creation_method           SHELXL-97
_chemical_name_systematic        
; 
? 
;
_chemical_name_common            ?
_chemical_melting_point          ?
_chemical_formula_moiety         
'C44 H76 Cd N7 O9 P4 Re6 Se8, 2 (C H2 Cl2), F6 Sb, O2'
_chemical_formula_sum            'C46 H80 Cd Cl4 F6 N7 O11 P4 Re6 Sb Se8'
_chemical_formula_weight         3269.88

loop_
_atom_type_symbol
_atom_type_description
_atom_type_scat_dispersion_real
_atom_type_scat_dispersion_imag
_atom_type_scat_source
C C 0.0033 0.0016 'International Tables Vol C Tables 4.2.6.8 and 6.1.1.4'
H H 0.0000 0.0000 'International Tables Vol C Tables 4.2.6.8 and 6.1.1.4'
N N 0.0061 0.0033 'International Tables Vol C Tables 4.2.6.8 and 6.1.1.4'
F F 0.0171 0.0103 'International Tables Vol C Tables 4.2.6.8 and 6.1.1.4'
P P 0.1023 0.0942 'International Tables Vol C Tables 4.2.6.8 and 6.1.1.4'
Se Se -0.0929 2.2259 'International Tables Vol C Tables 4.2.6.8 and 6.1.1.4'
Cd Cd -0.8075 1.2024 'International Tables Vol C Tables 4.2.6.8 and 6.1.1.4'
Sb Sb -0.5866 1.5461 'International Tables Vol C Tables 4.2.6.8 and 6.1.1.4'
Re Re -1.0185 7.2310 'International Tables Vol C Tables 4.2.6.8 and 6.1.1.4'
O O 0.0106 0.0060 'International Tables Vol C Tables 4.2.6.8 and 6.1.1.4'
Cl Cl 0.1484 0.1585 'International Tables Vol C Tables 4.2.6.8 and 6.1.1.4'

_symmetry_cell_setting           Monoclinic
_symmetry_space_group_name_H-M   C2/c

loop_
_symmetry_equiv_pos_as_xyz
'x, y, z'
'-x, y, -z+1/2'
'x+1/2, y+1/2, z'
'-x+1/2, y+1/2, -z+1/2'
'-x, -y, -z'
'x, -y, z-1/2'
'-x+1/2, -y+1/2, -z'
'x+1/2, -y+1/2, z-1/2'

_cell_length_a                   35.413(12)
_cell_length_b                   18.054(4)
_cell_length_c                   15.455(6)
_cell_angle_alpha                90.00
_cell_angle_beta                 100.817(6)
_cell_angle_gamma                90.00
_cell_volume                     9706(5)
_cell_formula_units_Z            4
_cell_measurement_temperature    170(2)
_cell_measurement_reflns_used    4167
_cell_measurement_theta_min      1.45
_cell_measurement_theta_max      22.008

_exptl_crystal_description       plate
_exptl_crystal_colour            red
_exptl_crystal_size_max          0.2
_exptl_crystal_size_mid          0.1
_exptl_crystal_size_min          0.01
_exptl_crystal_density_meas      ?
_exptl_crystal_density_diffrn    2.238
_exptl_crystal_density_method    'not measured'
_exptl_crystal_F_000             5984
_exptl_absorpt_coefficient_mu    11.169
_exptl_absorpt_correction_type   none
_exptl_absorpt_correction_T_min  0.649239
_exptl_absorpt_correction_T_max  1
_exptl_absorpt_process_details   'SADABS (Bruker 2000)'

_exptl_special_details           
; 
? 
;

_diffrn_ambient_temperature      170(2)
_diffrn_radiation_wavelength     0.71073
_diffrn_radiation_type           MoK\a
_diffrn_radiation_source         'fine-focus sealed tube'
_diffrn_radiation_monochromator  graphite
_diffrn_measurement_device_type  'CCD area detector'
_diffrn_measurement_method       '\w scans'
_diffrn_detector_area_resol_mean ?
_diffrn_standards_number         209
_diffrn_standards_interval_count 1414
_diffrn_standards_interval_time  ?
_diffrn_standards_decay_%        .06
_diffrn_reflns_number            58016
_diffrn_reflns_av_R_equivalents  0.1258
_diffrn_reflns_av_sigmaI/netI    0.0923
_diffrn_reflns_limit_h_min       -44
_diffrn_reflns_limit_h_max       44
_diffrn_reflns_limit_k_min       -22
_diffrn_reflns_limit_k_max       22
_diffrn_reflns_limit_l_min       -19
_diffrn_reflns_limit_l_max       19
_diffrn_reflns_theta_min         1.77
_diffrn_reflns_theta_max         26.51
_reflns_number_total             10027
_reflns_number_gt                5666
_reflns_threshold_expression     I>2sigma(I)

_computing_data_collection       'Bruker SMART'
_computing_cell_refinement       'Bruker SMART'
_computing_data_reduction        'Bruker SAINT'
_computing_structure_solution    'Bruker SHELXTL'
_computing_structure_refinement  'Bruker SHELXTL'
_computing_molecular_graphics    'Bruker SHELXTL'
_computing_publication_material  'Bruker SHELXTL'

_refine_special_details          
;
Refinement of F^2^ against ALL reflections.  The weighted R-factor wR and 
goodness of fit S are based on F^2^, conventional R-factors R are based 
on F, with F set to zero for negative F^2^. The threshold expression of 
F^2^ > 2sigma(F^2^) is used only for calculating R-factors(gt) etc. and is 
not relevant to the choice of reflections for refinement.  R-factors based 
on F^2^ are statistically about twice as large as those based on F, and R- 
factors based on ALL data will be even larger.

Some disorder was observed in two nitrato ligands of the Cd atom.  The 
disorder was modeled by splitting each of the nitrato moieties into two
half-occupied sites and fitting their atoms to a rigid, geometrically
idealized nitrate group.  The positions of these rigid groups were 
allowed to refine, resulting in one site prefering a monodentate
coordination mode, and the other a bidentate mode. The third nitrato 
ligand's anisotropic displacement paramaters indicated that it too may
be librationally disordered, but attempts to model this disorder did not
improve refinements.

The structure contains very large unfilled volume (c.a. 840 cubic 
Angstroms).  No clearly ordered solvent molecules could be identified
in this volume, although several low intensity residual density peaks
were identified.  It is quite likely that the void volume is filled 
with highly disordered solvent molecules resulting in "smeared" electron
density with small or immeasurable peaks at any point in the voids.  
This residual density was crudely accounted for by applying an SWAT
parameter (SHELXTL manual, Bruker 1997) to refinements.  This parameter
refined satisfactorily.

Hydrogens were added at idealized positions on carbon atoms of the main
residue, as well as an unbound dichloromethane molecule, and given thermal
parameters equal to 1.2 or 1.5 Uiso of their bound atoms.  The water 
molecules in the lattice were not given H atoms, hence a discrepancy 
exists between reported and observed formulae.    
;

_refine_ls_structure_factor_coef Fsqd
_refine_ls_matrix_type           full
_refine_ls_weighting_scheme      calc
_refine_ls_weighting_details     
'calc w=1/[\s^2^(Fo^2^)+(0.0532P)^2^+143.7147P] where P=(Fo^2^+2Fc^2^)/3'
_atom_sites_solution_primary     direct
_atom_sites_solution_secondary   difmap
_atom_sites_solution_hydrogens   geom
_refine_ls_hydrogen_treatment    constr
_refine_ls_extinction_method     none
_refine_ls_extinction_coef       ?
_refine_ls_number_reflns         10027
_refine_ls_number_parameters     464
_refine_ls_number_restraints     129
_refine_ls_R_factor_all          0.1395
_refine_ls_R_factor_gt           0.0618
_refine_ls_wR_factor_ref         0.1998
_refine_ls_wR_factor_gt          0.1524
_refine_ls_goodness_of_fit_ref   1.083
_refine_ls_restrained_S_all      1.078
_refine_ls_shift/su_max          0.083
_refine_ls_shift/su_mean         0.006

loop_
_atom_site_label
_atom_site_type_symbol
_atom_site_fract_x
_atom_site_fract_y
_atom_site_fract_z
_atom_site_U_iso_or_equiv
_atom_site_adp_type
_atom_site_occupancy
_atom_site_symmetry_multiplicity
_atom_site_calc_flag
_atom_site_refinement_flags
_atom_site_disorder_assembly
_atom_site_disorder_group
Re1 Re 0.22082(2) 0.30691(4) 1.06258(5) 0.0498(5) Uani 1 1 d . . .
Re2 Re 0.21800(2) 0.27647(4) 0.89576(5) 0.0499(5) Uani 1 1 d . . .
Re3 Re 0.21891(2) 0.16864(4) 1.00967(5) 0.0510(5) Uani 1 1 d . . .
Se5 Se 0.28222(6) 0.35723(11) 1.15003(13) 0.0546(7) Uani 1 1 d . . .
Se6 Se 0.16186(6) 0.25305(12) 0.96957(13) 0.0545(7) Uani 1 1 d . . .
Se7 Se 0.22352(6) 0.20106(12) 1.16946(13) 0.0545(7) Uani 1 1 d . . .
Se8 Se 0.22117(6) 0.40790(11) 0.95041(13) 0.0538(7) Uani 1 1 d . . .
Sb1 Sb 0.2500 0.2500 0.5000 0.0652(7) Uani 1 2 d S . .
F1 F 0.2516(5) 0.1756(9) 0.4176(11) 0.094(5) Uani 1 1 d . . .
F2 F 0.2318(4) 0.1846(8) 0.5745(9) 0.076(4) Uani 1 1 d . . .
F3 F 0.1992(4) 0.2701(8) 0.4447(9) 0.081(4) Uani 1 1 d . . .
P2 P 0.18111(17) 0.3786(3) 1.1489(4) 0.0586(14) Uani 1 1 d . . .
C21 C 0.2023(7) 0.3819(13) 1.2663(14) 0.065(6) Uani 1 1 d . . .
H21A H 0.2049 0.3308 1.2896 0.079 Uiso 1 1 calc R . .
H21B H 0.2285 0.4034 1.2732 0.079 Uiso 1 1 calc R . .
C24 C 0.1783(9) 0.4286(16) 1.3223(19) 0.093(9) Uani 1 1 d . . .
H24A H 0.1912 0.4282 1.3842 0.139 Uiso 1 1 calc R . .
H24B H 0.1526 0.4070 1.3171 0.139 Uiso 1 1 calc R . .
H24C H 0.1761 0.4797 1.3006 0.139 Uiso 1 1 calc R . .
C22 C 0.1714(7) 0.4757(13) 1.1162(18) 0.072(6) Uani 1 1 d . . .
H22A H 0.1624 0.4779 1.0516 0.086 Uiso 1 1 calc R . .
H22B H 0.1504 0.4946 1.1444 0.086 Uiso 1 1 calc R . .
C25 C 0.2062(9) 0.5256(16) 1.1411(19) 0.091(8) Uani 1 1 d . . .
H25A H 0.1993 0.5764 1.1220 0.136 Uiso 1 1 calc R . .
H25B H 0.2269 0.5080 1.1122 0.136 Uiso 1 1 calc R . .
H25C H 0.2149 0.5247 1.2051 0.136 Uiso 1 1 calc R . .
C23 C 0.1335(7) 0.3422(15) 1.1452(18) 0.079(7) Uani 1 1 d . . .
H23A H 0.1193 0.3778 1.1758 0.095 Uiso 1 1 calc R . .
H23B H 0.1204 0.3408 1.0828 0.095 Uiso 1 1 calc R . .
C26 C 0.1297(10) 0.2686(17) 1.183(2) 0.101(9) Uani 1 1 d . . .
H26A H 0.1025 0.2558 1.1766 0.152 Uiso 1 1 calc R . .
H26B H 0.1415 0.2691 1.2459 0.152 Uiso 1 1 calc R . .
H26C H 0.1428 0.2318 1.1525 0.152 Uiso 1 1 calc R . .
P1 P 0.17704(19) 0.0598(4) 1.0154(5) 0.0718(17) Uani 1 1 d . . .
C11 C 0.1909(9) -0.0234(15) 0.9560(19) 0.091(8) Uani 1 1 d . . .
H11A H 0.1929 -0.0088 0.8954 0.110 Uiso 1 1 calc R . .
H11B H 0.2165 -0.0406 0.9862 0.110 Uiso 1 1 calc R . .
C14 C 0.1631(10) -0.0858(17) 0.952(2) 0.107(10) Uani 1 1 d . . .
H14A H 0.1719 -0.1275 0.9200 0.161 Uiso 1 1 calc R . .
H14B H 0.1377 -0.0697 0.9204 0.161 Uiso 1 1 calc R . .
H14C H 0.1612 -0.1015 1.0114 0.161 Uiso 1 1 calc R . .
C12 C 0.1266(7) 0.0754(16) 0.960(2) 0.096(9) Uani 1 1 d . . .
H12A H 0.1108 0.0343 0.9762 0.115 Uiso 1 1 calc R . .
H12B H 0.1175 0.1216 0.9836 0.115 Uiso 1 1 calc R . .
C15 C 0.1193(10) 0.081(2) 0.865(3) 0.130(13) Uani 1 1 d . . .
H15A H 0.0918 0.0890 0.8430 0.194 Uiso 1 1 calc R . .
H15B H 0.1273 0.0349 0.8395 0.194 Uiso 1 1 calc R . .
H15C H 0.1339 0.1225 0.8469 0.194 Uiso 1 1 calc R . .
C13 C 0.1703(10) 0.0315(19) 1.128(3) 0.119(13) Uani 1 1 d . . .
H13A H 0.1632 0.0748 1.1614 0.143 Uiso 1 1 calc R . .
H13B H 0.1497 -0.0063 1.1246 0.143 Uiso 1 1 calc R . .
C16 C 0.2044(14) 0.003(2) 1.168(4) 0.19(3) Uani 1 1 d . . .
H16A H 0.2027 -0.0127 1.2280 0.283 Uiso 1 1 calc R . .
H16B H 0.2243 0.0414 1.1712 0.283 Uiso 1 1 calc R . .
H16C H 0.2109 -0.0392 1.1345 0.283 Uiso 1 1 calc R . .
N2 N 0.1797(5) 0.3040(11) 0.7733(11) 0.064(5) Uani 1 1 d . . .
C1 C 0.1853(6) 0.2737(13) 0.6977(14) 0.063(5) Uani 1 1 d . . .
H1A H 0.2079 0.2454 0.6975 0.076 Uiso 1 1 calc R . .
C2 C 0.1588(6) 0.2825(13) 0.6188(14) 0.065(5) Uani 1 1 d . . .
H2A H 0.1631 0.2584 0.5669 0.078 Uiso 1 1 calc R . .
C3 C 0.1266(6) 0.3256(11) 0.6157(13) 0.058(5) Uani 1 1 d . . .
C4 C 0.1225(6) 0.3604(12) 0.6936(14) 0.062(5) Uani 1 1 d . . .
H4A H 0.1010 0.3919 0.6946 0.074 Uiso 1 1 calc R . .
C5 C 0.1488(6) 0.3496(11) 0.7682(13) 0.059(5) Uani 1 1 d . . .
H5A H 0.1455 0.3754 0.8199 0.070 Uiso 1 1 calc R . .
C6 C 0.0988(6) 0.3329(14) 0.5340(13) 0.064(5) Uani 1 1 d . . .
C7 C 0.1084(7) 0.3221(15) 0.4515(16) 0.076(7) Uani 1 1 d . . .
H7A H 0.1340 0.3103 0.4466 0.091 Uiso 1 1 calc R . .
C8 C 0.0802(8) 0.3287(17) 0.3769(15) 0.083(8) Uani 1 1 d . . .
H8A H 0.0875 0.3220 0.3213 0.100 Uiso 1 1 calc R . .
N4 N 0.0434(6) 0.3439(13) 0.3780(12) 0.073(5) Uani 1 1 d . A .
C9 C 0.0345(8) 0.3523(18) 0.4556(16) 0.087(8) Uani 1 1 d . . .
H9A H 0.0081 0.3595 0.4580 0.104 Uiso 1 1 calc R . .
C10 C 0.0601(7) 0.3518(17) 0.5337(17) 0.081(7) Uani 1 1 d . . .
H10A H 0.0520 0.3639 0.5871 0.097 Uiso 1 1 calc R . .
Cd2 Cd 0.0000 0.34203(18) 0.2500 0.0782(9) Uani 1 2 d SD . .
N5 N 0.0541(12) 0.189(2) 0.233(3) 0.180(19) Uani 0.50 1 d PGDU . .
O51 O 0.0886(11) 0.199(5) 0.233(7) 0.27(3) Uani 0.50 1 d PGU A .
O52 O 0.0299(9) 0.2354(18) 0.201(2) 0.089(10) Uani 0.50 1 d PGDU A .
O53 O 0.044(2) 0.130(3) 0.261(6) 0.26(3) Uani 0.50 1 d PGDU A .
N1 N 0.0534(9) 0.4576(16) 0.173(2) 0.084(8) Uani 0.50 1 d PGU A 1
O11 O 0.0345(14) 0.498(3) 0.117(3) 0.142(16) Uani 0.50 1 d PGU A 1
O12 O 0.0458(14) 0.3912(16) 0.177(5) 0.083(8) Uani 0.50 1 d PGU A 1
O13 O 0.0809(12) 0.484(2) 0.223(3) 0.124(13) Uani 0.50 1 d PGU A 1
N1B N 0.0410(8) 0.4599(16) 0.185(2) 0.094(8) Uani 0.50 1 d PGU A 2
O11B O 0.0595(12) 0.508(2) 0.156(3) 0.124(12) Uani 0.50 1 d PGU A 2
O12B O 0.0479(15) 0.3936(17) 0.178(5) 0.088(9) Uani 0.50 1 d PGU A 2
O13B O 0.0162(10) 0.480(2) 0.226(2) 0.100(10) Uani 0.50 1 d PGU . 2
O1F O 0.0871(19) 0.866(3) 0.126(4) 0.31(3) Uani 1 1 d . . .
Cl2 Cl 0.0986(5) 0.4778(13) 0.8987(13) 0.230(9) Uani 1 1 d . . .
Cl1 Cl 0.0543(8) 0.3510(15) 0.909(2) 0.353(17) Uani 1 1 d . . .
C1S C 0.0570(13) 0.454(3) 0.927(4) 0.19(2) Uani 1 1 d . . .
H1SA H 0.0351 0.4791 0.8901 0.230 Uiso 1 1 calc R . .
H1SB H 0.0571 0.4658 0.9899 0.230 Uiso 1 1 calc R . .

loop_
_atom_site_aniso_label
_atom_site_aniso_U_11
_atom_site_aniso_U_22
_atom_site_aniso_U_33
_atom_site_aniso_U_23
_atom_site_aniso_U_13
_atom_site_aniso_U_12
Re1 0.0486(7) 0.0509(7) 0.0496(6) 0.0024(3) 0.0082(3) 0.0055(3)
Re2 0.0498(7) 0.0510(7) 0.0479(6) 0.0024(3) 0.0069(3) 0.0061(3)
Re3 0.0501(7) 0.0514(7) 0.0511(7) 0.0029(3) 0.0084(3) 0.0037(3)
Se5 0.0524(12) 0.0547(12) 0.0551(12) -0.0009(9) 0.0062(8) 0.0038(8)
Se6 0.0509(12) 0.0574(12) 0.0540(12) 0.0003(9) 0.0070(8) 0.0043(9)
Se7 0.0539(12) 0.0587(13) 0.0523(11) 0.0048(8) 0.0133(8) 0.0037(9)
Se8 0.0546(12) 0.0522(12) 0.0538(12) 0.0041(8) 0.0084(8) 0.0082(8)
Sb1 0.0658(14) 0.0678(14) 0.0642(13) 0.0013(10) 0.0183(10) 0.0072(10)
F1 0.103(12) 0.089(11) 0.097(10) -0.026(8) 0.037(9) -0.019(9)
F2 0.072(8) 0.078(9) 0.079(8) 0.015(7) 0.016(7) 0.010(7)
F3 0.065(8) 0.092(10) 0.084(9) 0.021(8) 0.008(7) 0.011(7)
P2 0.057(3) 0.058(3) 0.062(3) 0.000(2) 0.015(2) 0.005(2)
C21 0.079(15) 0.059(13) 0.060(12) -0.006(10) 0.018(11) 0.007(11)
C24 0.11(2) 0.085(19) 0.096(19) -0.017(15) 0.050(17) -0.037(16)
C22 0.063(14) 0.059(13) 0.092(17) 0.010(12) 0.011(12) 0.005(11)
C25 0.11(2) 0.078(18) 0.090(19) 0.010(14) 0.025(16) 0.001(16)
C23 0.066(15) 0.082(17) 0.093(17) -0.019(14) 0.028(13) -0.004(12)
C26 0.12(3) 0.09(2) 0.10(2) -0.022(17) 0.041(19) -0.006(18)
P1 0.066(4) 0.065(4) 0.085(4) 0.001(3) 0.019(3) -0.011(3)
C11 0.10(2) 0.079(18) 0.089(18) 0.012(15) 0.015(16) -0.003(16)
C14 0.11(3) 0.074(19) 0.14(3) -0.004(18) 0.03(2) -0.014(17)
C12 0.054(15) 0.076(17) 0.15(3) -0.018(18) 0.009(16) -0.015(12)
C15 0.08(2) 0.15(3) 0.15(3) 0.01(3) -0.02(2) 0.01(2)
C13 0.10(2) 0.09(2) 0.19(4) -0.03(2) 0.05(2) -0.034(19)
C16 0.15(4) 0.07(2) 0.37(8) 0.04(3) 0.13(5) 0.04(2)
N2 0.064(11) 0.069(11) 0.060(10) -0.016(9) 0.012(8) 0.016(9)
C1 0.056(12) 0.072(14) 0.061(12) 0.010(10) 0.010(10) 0.008(10)
C2 0.061(13) 0.069(14) 0.062(12) -0.010(10) 0.007(10) 0.016(11)
C3 0.059(12) 0.054(12) 0.058(11) 0.002(9) 0.005(9) -0.002(9)
C4 0.062(13) 0.054(12) 0.067(13) -0.007(10) 0.006(10) 0.004(10)
C5 0.066(13) 0.053(12) 0.055(11) 0.007(9) 0.008(9) 0.008(10)
C6 0.058(13) 0.080(15) 0.052(11) 0.009(10) 0.006(9) -0.008(11)
C7 0.05