####################################################################### 
# 
# This file contains crystal structure data downloaded from the 
# Cambridge Structural Database (CSD) hosted by the Cambridge 
# Crystallographic Data Centre (CCDC).
# 
# Full information about CCDC data access policies and citation 
# guidelines are available at http://www.ccdc.cam.ac.uk/access/V1 
# 
# Audit and citation data items may have been added by the CCDC. 
# Please retain this information to preserve the provenance of 
# this file and to allow appropriate attribution of the data. 
# 
#######################################################################

data_3
_audit_block_doi                 10.5517/ccvsj48
_database_code_depnum_ccdc_archive 'CCDC 798130'
loop_
_citation_id
_citation_doi
_citation_year
1 10.1002/anie.201006882 2011
_audit_update_record             
;
2010-10-24 deposited with the CCDC.	2024-07-08 downloaded from the CCDC.
;
#TrackingRef '3.cif'


_audit_creation_method           SHELXL-97
_chemical_name_systematic        
;
?
;
_chemical_name_common            ?
_chemical_melting_point          ?
_chemical_formula_moiety         ?
_chemical_formula_sum            'C78 H63 In3 N3 O27'
_chemical_formula_weight         1812.77

loop_
_atom_type_symbol
_atom_type_description
_atom_type_scat_dispersion_real
_atom_type_scat_dispersion_imag
_atom_type_scat_source
C C 0.0033 0.0016 'International Tables Vol C Tables 4.2.6.8 and 6.1.1.4'
H H 0.0000 0.0000 'International Tables Vol C Tables 4.2.6.8 and 6.1.1.4'
In In -0.7276 1.3100 'International Tables Vol C Tables 4.2.6.8 and 6.1.1.4'
O O 0.0106 0.0060 'International Tables Vol C Tables 4.2.6.8 and 6.1.1.4'
N N 0.0033 0.0016 'International Tables Vol C Tables 4.2.6.8 and 6.1.1.4'

_symmetry_cell_setting           hexagonal
_symmetry_space_group_name_H-M   P31c

loop_
_symmetry_equiv_pos_as_xyz
'x, y, z'
'-y, x-y, z'
'-x+y, -x, z'
'y, x, z+1/2'
'-x, -x+y, z+1/2'
'x-y, -y, z+1/2'

_cell_length_a                   27.2340(2)
_cell_length_b                   27.2340(2)
_cell_length_c                   32.8706(7)
_cell_angle_alpha                90.00
_cell_angle_beta                 90.00
_cell_angle_gamma                120.00
_cell_volume                     21113.5(5)
_cell_formula_units_Z            6
_cell_measurement_temperature    296(2)
_cell_measurement_reflns_used    ?
_cell_measurement_theta_min      ?
_cell_measurement_theta_max      ?

_exptl_crystal_description       ?
_exptl_crystal_colour            ?
_exptl_crystal_size_max          ?
_exptl_crystal_size_mid          ?
_exptl_crystal_size_min          ?
_exptl_crystal_density_meas      ?
_exptl_crystal_density_diffrn    0.855
_exptl_crystal_density_method    'not measured'
_exptl_crystal_F_000             5471
_exptl_absorpt_coefficient_mu    0.533
_exptl_absorpt_correction_type   ?
_exptl_absorpt_correction_T_min  ?
_exptl_absorpt_correction_T_max  ?
_exptl_absorpt_process_details   ?

_exptl_special_details           
;
?
;

_diffrn_ambient_temperature      296(2)
_diffrn_radiation_wavelength     0.71073
_diffrn_radiation_type           MoK\a
_diffrn_radiation_source         'fine-focus sealed tube'
_diffrn_radiation_monochromator  graphite
_diffrn_measurement_device_type  ?
_diffrn_measurement_method       ?
_diffrn_detector_area_resol_mean ?
_diffrn_standards_number         ?
_diffrn_standards_interval_count ?
_diffrn_standards_interval_time  ?
_diffrn_standards_decay_%        ?
_diffrn_reflns_number            45348
_diffrn_reflns_av_R_equivalents  0.0464
_diffrn_reflns_av_sigmaI/netI    0.0482
_diffrn_reflns_limit_h_min       -21
_diffrn_reflns_limit_h_max       27
_diffrn_reflns_limit_k_min       -27
_diffrn_reflns_limit_k_max       27
_diffrn_reflns_limit_l_min       -28
_diffrn_reflns_limit_l_max       32
_diffrn_reflns_theta_min         0.86
_diffrn_reflns_theta_max         20.82
_reflns_number_total             12687
_reflns_number_gt                11535
_reflns_threshold_expression     >2sigma(I)

_computing_data_collection       ?
_computing_cell_refinement       ?
_computing_data_reduction        ?
_computing_structure_solution    'SHELXS-97 (Sheldrick, 1990)'
_computing_structure_refinement  'SHELXL-97 (Sheldrick, 1997)'
_computing_molecular_graphics    ?
_computing_publication_material  ?

_refine_special_details          
;
Refinement of F^2^ against ALL reflections. The weighted R-factor wR and
goodness of fit S are based on F^2^, conventional R-factors R are based
on F, with F set to zero for negative F^2^. The threshold expression of
F^2^ > 2sigma(F^2^) is used only for calculating R-factors(gt) etc. and is
not relevant to the choice of reflections for refinement. R-factors based
on F^2^ are statistically about twice as large as those based on F, and R-
factors based on ALL data will be even larger.
;

_refine_ls_structure_factor_coef Fsqd
_refine_ls_matrix_type           full
_refine_ls_weighting_scheme      calc
_refine_ls_weighting_details     
'calc w=1/[\s^2^(Fo^2^)+(0.1119P)^2^+185.0779P] where P=(Fo^2^+2Fc^2^)/3'
_atom_sites_solution_primary     direct
_atom_sites_solution_secondary   difmap
_atom_sites_solution_hydrogens   geom
_refine_ls_hydrogen_treatment    mixed
_refine_ls_extinction_method     SHELXL
_refine_ls_extinction_coef       0.00021(6)
_refine_ls_extinction_expression Fc^*^=kFc[1+0.001xFc^2^\l^3^/sin(2\q)]^-1/4^
_refine_ls_abs_structure_details 'Flack H D (1983), Acta Cryst. A39, 876-881'
_refine_ls_abs_structure_Flack   0.00
_refine_ls_number_reflns         12687
_refine_ls_number_parameters     807
_refine_ls_number_restraints     71
_refine_ls_R_factor_all          0.1021
_refine_ls_R_factor_gt           0.0946
_refine_ls_wR_factor_ref         0.2422
_refine_ls_wR_factor_gt          0.2359
_refine_ls_goodness_of_fit_ref   1.078
_refine_ls_restrained_S_all      1.076
_refine_ls_shift/su_max          0.001
_refine_ls_shift/su_mean         0.000

loop_
_atom_site_label
_atom_site_type_symbol
_atom_site_fract_x
_atom_site_fract_y
_atom_site_fract_z
_atom_site_U_iso_or_equiv
_atom_site_adp_type
_atom_site_occupancy
_atom_site_symmetry_multiplicity
_atom_site_calc_flag
_atom_site_refinement_flags
_atom_site_disorder_assembly
_atom_site_disorder_group
In1 In 0.87382(4) 0.81731(4) 0.4494(3) 0.0396(4) Uani 1 1 d . . .
In2 In 0.61416(5) 0.46023(4) 0.3723(3) 0.0446(4) Uani 1 1 d . . .
In3 In 0.51669(4) 0.72350(4) 0.3724(3) 0.0407(4) Uani 1 1 d . . .
O1 O 0.9392(6) 0.8666(6) 0.4933(6) 0.081(4) Uani 1 1 d . . .
O2 O 1.0551(5) 0.9227(5) 0.9069(5) 0.064(4) Uani 1 1 d . . .
O3 O 0.9130(4) 0.7559(4) 0.4483(5) 0.051(3) Uani 1 1 d . . .
O4 O 0.8195(5) 0.7225(4) 0.4483(5) 0.058(4) Uani 1 1 d . . .
O5 O 0.7896(5) 0.8105(5) 0.4420(5) 0.058(3) Uani 1 1 d . . .
O6 O 0.8610(6) 0.8950(6) 0.4400(6) 0.076(4) Uani 1 1 d . . .
O7 O 1.1348(6) 0.9429(7) 0.8831(5) 0.082(6) Uani 1 1 d . . .
O8 O 0.8574(9) 0.8110(7) 0.5202(5) 0.089(6) Uani 1 1 d . . .
O9 O 0.5157(7) 0.6449(6) 0.3723(6) 0.092(5) Uani 1 1 d . . .
O10 O 0.6130(5) 0.7604(5) 0.3755(6) 0.075(4) Uani 1 1 d . . .
O11 O 0.4316(6) 0.6310(6) 0.3682(7) 0.102(6) Uani 1 1 d . . .
O12 O 0.5820(5) 0.8223(5) 0.3739(6) 0.071(4) Uani 1 1 d . . .
O13 O 0.5156(5) 0.7114(6) 0.4455(5) 0.061(4) Uiso 1 1 d . . .
O16 O 0.5905(6) 0.3864(5) 0.4162(6) 0.086(5) Uani 1 1 d . . .
O17 O 0.5693(6) 0.5081(7) 0.3674(6) 0.091(5) Uani 1 1 d . . .
O18 O 0.6905(5) 0.5455(5) 0.3815(4) 0.050(3) Uiso 1 1 d . . .
O19 O 0.5110(4) 0.4185(5) 0.3715(6) 0.075(4) Uani 1 1 d . . .
O20 O 0.4681(6) 0.7430(6) 0.4165(6) 0.085(4) Uani 1 1 d . . .
O21 O 0.3980(7) 0.7943(6) 0.8245(7) 0.097(5) Uani 1 1 d . . .
O22 O 0.5301(5) 0.2765(6) 0.8284(6) 0.076(4) Uani 1 1 d . . .
O25 O 0.4748(5) 0.2000(6) 0.8057(6) 0.067(5) Uani 1 1 d . . .
O28 O 0.3730(11) 0.8499(9) 0.8085(7) 0.122(9) Uani 1 1 d . . .
O30 O 0.7038(4) 0.4722(5) 0.3840(5) 0.059(3) Uani 1 1 d . . .
O31 O 0.6037(5) 0.4629(4) 0.4424(5) 0.057(4) Uani 1 1 d . . .
O32 O 0.7612(8) 1.0068(8) 0.3943(7) 0.117(6) Uiso 1 1 d . . .
H32A H 0.7851 1.0269 0.4111 0.176 Uiso 1 1 calc R . .
O33 O 0.3209(6) 0.4131(7) 0.3359(6) 0.111(5) Uiso 1 1 d D . .
H33A H 0.2987 0.4186 0.3493 0.166 Uiso 1 1 calc R . .
O34 O 0.9168(7) 0.5719(8) 0.4254(7) 0.126(7) Uani 1 1 d . . .
H34A H 0.9121 0.5475 0.4088 0.189 Uiso 1 1 calc R . .
C1 C 1.0887(8) 0.9311(7) 0.8749(5) 0.034(4) Uani 1 1 d . . .
C2 C 1.0595(8) 0.9212(6) 0.8342(6) 0.075(7) Uani 1 1 d D . .
C3 C 1.0941(8) 0.9308(7) 0.8005(6) 0.073(6) Uiso 1 1 d D . .
H3A H 1.1318 0.9403 0.8035 0.088 Uiso 1 1 calc R . .
C4 C 1.0702(7) 0.9257(8) 0.7623(6) 0.098(7) Uiso 1 1 d D . .
H4A H 1.0921 0.9305 0.7393 0.118 Uiso 1 1 calc R . .
C5 C 1.0146(8) 0.9136(11) 0.7574(5) 0.113(9) Uiso 1 1 d D . .
C6 C 0.9792(8) 0.8986(11) 0.7911(6) 0.120(9) Uiso 1 1 d D . .
H6A H 0.9405 0.8845 0.7879 0.144 Uiso 1 1 calc R . .
C7 C 1.0027(10) 0.9050(11) 0.8296(7) 0.122(11) Uani 1 1 d D . .
H7A H 0.9802 0.8984 0.8525 0.147 Uiso 1 1 calc R . .
C8 C 0.9739(15) 0.8962(17) 0.7245(9) 0.175(15) Uiso 1 1 d D . .
H8A H 0.9348 0.8771 0.7279 0.209 Uiso 1 1 calc R . .
C9 C 1.0027(16) 0.9129(16) 0.6846(10) 0.160(13) Uiso 1 1 d D . .
H9A H 1.0419 0.9361 0.6844 0.192 Uiso 1 1 calc R . .
C10 C 0.9740(15) 0.8954(15) 0.6457(10) 0.138(11) Uiso 1 1 d D . .
C11 C 1.0097(14) 0.9209(11) 0.6124(8) 0.112(9) Uani 1 1 d . . .
H11A H 1.0481 0.9470 0.6151 0.134 Uiso 1 1 calc R . .
C12 C 0.9830(15) 0.9038(12) 0.5749(8) 0.121(11) Uani 1 1 d . . .
H12A H 1.0058 0.9211 0.5524 0.146 Uiso 1 1 calc R . .
C13 C 0.9289(14) 0.8659(10) 0.5669(7) 0.092(8) Uani 1 1 d . . .
C14 C 0.8902(15) 0.8374(14) 0.5983(8) 0.119(11) Uani 1 1 d . . .
H14A H 0.8528 0.8092 0.5943 0.143 Uiso 1 1 calc R . .
C15 C 0.9156(15) 0.8571(14) 0.6368(12) 0.139(11) Uiso 1 1 d . . .
H15A H 0.8914 0.8434 0.6591 0.166 Uiso 1 1 calc R . .
C16 C 0.9072(15) 0.8433(12) 0.5244(8) 0.084(8) Uani 1 1 d . . .
C17 C 0.7493(11) 0.9526(11) 0.3986(9) 0.101(8) Uiso 1 1 d . . .
C18 C 0.7883(9) 0.9401(8) 0.4172(7) 0.064(5) Uiso 1 1 d . . .
H18A H 0.8245 0.9681 0.4249 0.077 Uiso 1 1 calc R . .
C19 C 0.7680(12) 0.8807(11) 0.4233(9) 0.101(8) Uani 1 1 d . . .
C20 C 0.7179(7) 0.8435(7) 0.4043(6) 0.046(4) Uiso 1 1 d . . .
H20A H 0.7099 0.8063 0.4011 0.055 Uiso 1 1 calc R . .
C21 C 0.6800(8) 0.8565(8) 0.3899(7) 0.062(5) Uani 1 1 d . . .
C22 C 0.6935(8) 0.9143(7) 0.3891(7) 0.069(6) Uani 1 1 d . . .
H22A H 0.6672 0.9253 0.3827 0.083 Uiso 1 1 calc R . .
C23 C 0.6232(8) 0.8116(8) 0.3796(7) 0.059(5) Uiso 1 1 d . . .
C24 C 0.8107(7) 0.8611(7) 0.4344(6) 0.039(4) Uiso 1 1 d . . .
C25 C 0.3786(6) 0.4540(7) 0.3475(7) 0.084(6) Uiso 1 1 d D . .
C26 C 0.3892(8) 0.5093(7) 0.3501(7) 0.106(9) Uiso 1 1 d D . .
H26A H 0.3609 0.5186 0.3463 0.127 Uiso 1 1 calc R . .
C27 C 0.4448(7) 0.5499(9) 0.3588(7) 0.090(7) Uiso 1 1 d D . .
C28 C 0.4856(7) 0.5339(7) 0.3634(8) 0.080(7) Uani 1 1 d D . .
H28A H 0.5232 0.5625 0.3661 0.096 Uiso 1 1 calc R . .
C29 C 0.4740(6) 0.4781(6) 0.3642(11) 0.145(15) Uani 1 1 d D . .
C30 C 0.4193(6) 0.4379(8) 0.3528(11) 0.150(15) Uani 1 1 d D . .
H30A H 0.4099 0.4005 0.3487 0.180 Uiso 1 1 calc R . .
C31 C 0.5192(7) 0.4655(6) 0.3684(7) 0.058(6) Uani 1 1 d . . .
C32 C 0.4623(10) 0.6115(10) 0.3649(9) 0.081(6) Uiso 1 1 d . . .
C33 C 0.3797(15) 0.8175(15) 0.7937(14) 0.149(16) Uani 1 1 d . . .
C34 C 0.3828(9) 0.7991(8) 0.7509(6) 0.117(12) Uani 1 1 d D . .
C35 C 0.4054(10) 0.7638(9) 0.7457(8) 0.18(2) Uani 1 1 d D . .
H35A H 0.4146 0.7478 0.7673 0.214 Uiso 1 1 calc R . .
C36 C 0.4131(11) 0.7545(12) 0.7052(7) 0.174(18) Uani 1 1 d D . .
H36A H 0.4280 0.7311 0.6993 0.209 Uiso 1 1 calc R . .
C37 C 0.3993(13) 0.7787(12) 0.6732(9) 0.141(12) Uiso 1 1 d D . .
C38 C 0.3745(11) 0.8119(10) 0.6796(5) 0.122(10) Uani 1 1 d D . .
H38A H 0.3603 0.8236 0.6582 0.147 Uiso 1 1 calc R . .
C39 C 0.3719(7) 0.8268(7) 0.7197(6) 0.050(4) Uiso 1 1 d D . .
H39A H 0.3631 0.8549 0.7255 0.059 Uiso 1 1 calc R . .
C40 C 0.391(2) 0.765(3) 0.6302(9) 0.28(3) Uiso 1 1 d D . .
H40A H 0.3607 0.7651 0.6165 0.341 Uiso 1 1 calc R . .
C41 C 0.4276(13) 0.7528(13) 0.6095(7) 0.175(18) Uani 1 1 d D . .
H41A H 0.4520 0.7474 0.6263 0.210 Uiso 1 1 calc R . .
C42 C 0.4350(10) 0.7466(10) 0.5665(7) 0.161(18) Uani 1 1 d D . .
C43 C 0.4715(10) 0.7250(9) 0.5626(7) 0.137(13) Uani 1 1 d D . .
H43A H 0.4850 0.7153 0.5854 0.164 Uiso 1 1 calc R . .
C44 C 0.4871(12) 0.7185(11) 0.5236(6) 0.142(12) Uiso 1 1 d D . .
H44A H 0.5114 0.7039 0.5212 0.170 Uiso 1 1 calc R . .
C45 C 0.4693(7) 0.7321(8) 0.4879(6) 0.110(11) Uani 1 1 d D . .
C46 C 0.4315(9) 0.7522(10) 0.4926(10) 0.120(10) Uani 1 1 d D . .
H46A H 0.4157 0.7592 0.4698 0.144 Uiso 1 1 calc R . .
C47 C 0.4174(13) 0.7616(14) 0.5313(8) 0.141 Uiso 1 1 d D . .
H47A H 0.3953 0.7786 0.5338 0.169 Uiso 1 1 calc R . .
C48 C 0.4897(8) 0.7244(7) 0.4491(5) 0.050(5) Uiso 1 1 d D . .
C49 C 0.8765(9) 0.5878(8) 0.4195(7) 0.067(6) Uiso 1 1 d . . .
C50 C 0.8222(9) 0.5475(9) 0.4023(9) 0.099(10) Uani 1 1 d . . .
H50A H 0.8146 0.5123 0.3927 0.119 Uiso 1 1 calc R . .
C51 C 0.7808(9) 0.5652(9) 0.4009(7) 0.065(6) Uani 1 1 d . . .
C52 C 0.7918(9) 0.6163(8) 0.4205(8) 0.083(8) Uani 1 1 d . . .
H52A H 0.7621 0.6232 0.4248 0.100 Uiso 1 1 calc R . .
C53 C 0.8480(9) 0.6574(9) 0.4338(9) 0.086(7) Uani 1 1 d . . .
C54 C 0.8875(9) 0.6390(7) 0.4331(9) 0.093(9) Uani 1 1 d . . .
H54A H 0.9238 0.6637 0.4426 0.111 Uiso 1 1 calc R . .
C55 C 0.8582(9) 0.7131(9) 0.4441(7) 0.073(6) Uiso 1 1 d . . .
C56 C 0.7217(6) 0.5250(8) 0.3880(9) 0.086(10) Uani 1 1 d . . .
C57 C 0.5087(8) 0.2433(8) 0.7978(8) 0.052(5) Uani 1 1 d . . .
C58 C 0.5276(7) 0.2637(9) 0.7568(8) 0.074(7) Uani 1 1 d . . .
C59 C 0.5042(12) 0.2259(12) 0.7229(9) 0.099(8) Uiso 1 1 d . . .
H59A H 0.4775 0.1877 0.7264 0.118 Uiso 1 1 calc R . .
C60 C 0.5250(14) 0.2509(15) 0.6818(8) 0.121(11) Uani 1 1 d . . .
H60A H 0.5129 0.2267 0.6595 0.145 Uiso 1 1 calc R . .
C61 C 0.5615(14) 0.309(2) 0.6751(10) 0.17(2) Uani 1 1 d . . .
C62 C 0.5856(11) 0.3522(14) 0.7165(11) 0.154(16) Uani 1 1 d . . .
H62A H 0.6105 0.3910 0.7143 0.185 Uiso 1 1 calc R . .
C63 C 0.5675(11) 0.3286(14) 0.7498(9) 0.124(11) Uani 1 1 d . . .
H63A H 0.5787 0.3517 0.7727 0.148 Uiso 1 1 calc R . .
C64 C 0.5763(14) 0.3434(17) 0.6377(11) 0.131(11) Uiso 1 1 d . . .
H64A H 0.5915 0.3825 0.6370 0.157 Uiso 1 1 calc R . .
C65 C 0.5658(15) 0.3132(14) 0.6081(19) 0.21(3) Uani 1 1 d . . .
H65A H 0.5524 0.2745 0.6100 0.250 Uiso 1 1 calc R . .
C66 C 0.5765(10) 0.3452(10) 0.5654(8) 0.108(8) Uiso 1 1 d D . .
C67 C 0.5627(10) 0.3124(10) 0.5303(7) 0.158(16) Uani 1 1 d D . .
H67A H 0.5487 0.2737 0.5336 0.189 Uiso 1 1 calc R . .
C68 C 0.5682(10) 0.3327(8) 0.4908(7) 0.122(11) Uani 1 1 d D . .
H68A H 0.5596 0.3091 0.4683 0.146 Uiso 1 1 calc R . .
C69 C 0.5873(9) 0.3902(8) 0.4869(7) 0.074(6) Uani 1 1 d D . .
C70 C 0.6051(11) 0.4256(11) 0.5207(7) 0.113(9) Uiso 1 1 d D . .
H70A H 0.6225 0.4647 0.5172 0.136 Uiso 1 1 calc R . .
C71 C 0.5969(12) 0.4029(11) 0.5596(9) 0.136(11) Uiso 1 1 d D . .
H71A H 0.6052 0.4264 0.5821 0.163 Uiso 1 1 calc R . .
C72 C 0.5974(8) 0.4178(10) 0.4452(7) 0.061(5) Uiso 1 1 d . . .
N1 N 1.0000 1.0000 0.9532(10) 0.105 Uiso 1 3 d SD . .
C74 C 1.0000 1.0000 0.9067(10) 0.105 Uiso 1 3 d SD . .
C73 C 1.0000 1.0000 0.9997(10) 0.105 Uiso 1 3 d SD . .
N2 N 0.775(2) 1.0704(18) 0.2951(15) 0.098(15) Uiso 0.50 1 d PD . .
C76 C 0.798(3) 1.109(3) 0.3323(19) 0.16(3) Uiso 0.50 1 d PD . .
H76A H 0.8073 1.1469 0.3250 0.239 Uiso 0.50 1 calc PR . .
H76B H 0.8320 1.1097 0.3417 0.239 Uiso 0.50 1 calc PR . .
H76C H 0.7705 1.0952 0.3536 0.239 Uiso 0.50 1 calc PR . .
C75 C 0.765(2) 1.0147(19) 0.3136(19) 0.121 Uiso 0.50 1 d PD . .
H75A H 0.7472 0.9848 0.2939 0.182 Uiso 0.50 1 calc PR . .
H75B H 0.7417 1.0056 0.3372 0.182 Uiso 0.50 1 calc PR . .
H75C H 0.8012 1.0186 0.3211 0.182 Uiso 0.50 1 calc PR . .
N3 N 0.5491(18) 0.8315(16) 0.7677(14) 0.081(12) Uiso 0.50 1 d PD . .
C78 C 0.563(3) 0.815(3) 0.7264(17) 0.17(3) Uiso 0.50 1 d PD . .
H78A H 0.5763 0.8469 0.7081 0.256 Uiso 0.50 1 calc PR . .
H78B H 0.5296 0.7836 0.7154 0.256 Uiso 0.50 1 calc PR . .
H78C H 0.5920 0.8054 0.7298 0.256 Uiso 0.50 1 calc PR . .
C77 C 0.521(2) 0.7731(19) 0.7880(19) 0.14(2) Uiso 0.50 1 d PD . .
H77A H 0.5115 0.7763 0.8155 0.203 Uiso 0.50 1 calc PR . .
H77B H 0.5474 0.7591 0.7879 0.203 Uiso 0.50 1 calc PR . .
H77C H 0.4878 0.7474 0.7733 0.203 Uiso 0.50 1 calc PR . .
N7 N 0.6667 0.3333 0.8437(11) 0.105 Uiso 1 3 d SD . .
C79 C 0.6667 0.3333 0.8902(11) 0.105 Uiso 1 3 d SD . .
C80 C 0.6667 0.3333 0.7972(11) 0.138 Uiso 1 3 d SD . .
N5 N 0.337(3) 0.433(3) 0.4515(10) 0.15(3) Uiso 0.50 1 d PD . .
C81 C 0.360(3) 0.394(3) 0.463(2) 0.141 Uiso 0.50 1 d PD . .
H81A H 0.3684 0.3969 0.4912 0.212 Uiso 0.50 1 calc PR . .
H81B H 0.3945 0.4051 0.4475 0.212 Uiso 0.50 1 calc PR . .
H81C H 0.3327 0.3557 0.4559 0.212 Uiso 0.50 1 calc PR . .
C82 C 0.3224(11) 0.4192(11) 0.4065(8) 0.025(6) Uiso 0.50 1 d PD . .
H82A H 0.3129 0.4456 0.3948 0.038 Uiso 0.50 1 calc PR . .
H82B H 0.2907 0.3814 0.4041 0.038 Uiso 0.50 1 calc PR . .
H82C H 0.3545 0.4216 0.3925 0.038 Uiso 0.50 1 calc PR . .
N4 N 1.173(4) 0.960(4) 0.647(2) 0.28(6) Uiso 0.50 1 d PD . .
C83 C 1.197(2) 0.955(2) 0.6878(19) 0.123 Uiso 0.50 1 d PD . .
H83A H 1.2235 0.9925 0.6974 0.185 Uiso 0.50 1 calc PR . .
H83B H 1.2154 0.9334 0.6847 0.185 Uiso 0.50 1 calc PR . .
H83C H 1.1663 0.9369 0.7069 0.185 Uiso 0.50 1 calc PR . .
C84 C 1.113(4) 0.908(5) 0.646(4) 0.34(8) Uiso 0.50 1 d PD . .
H84A H 1.0859 0.9203 0.6474 0.510 Uiso 0.50 1 calc PR . .
H84B H 1.1088 0.8845 0.6691 0.510 Uiso 0.50 1 calc PR . .
H84C H 1.1082 0.8871 0.6215 0.510 Uiso 0.50 1 calc PR . .
N6 N 0.604(2) 0.486(3) 0.657(2) 0.10(2) Uiso 0.33 