####################################################################### 
# 
# This file contains crystal structure data downloaded from the 
# Cambridge Structural Database (CSD) hosted by the Cambridge 
# Crystallographic Data Centre (CCDC).
# 
# Full information about CCDC data access policies and citation 
# guidelines are available at http://www.ccdc.cam.ac.uk/access/V1 
# 
# Audit and citation data items may have been added by the CCDC. 
# Please retain this information to preserve the provenance of 
# this file and to allow appropriate attribution of the data. 
# 
#######################################################################

data_xr0560
_audit_block_doi                 10.5517/cc7ksl4
_database_code_depnum_ccdc_archive 'CCDC 225636'
loop_
_citation_id
_citation_doi
_citation_year
1 10.1246/bcsj.76.1387 2003
2 10.1016/j.micromeso.2004.02.019 2004
_audit_update_record             
;
2003-12-02 deposited with the CCDC.	2024-07-08 downloaded from the CCDC.
;
_audit_creation_date             2003-12-02
_audit_creation_method           'by CrystalStructure v3.10'

# CHEMICAL DATA

_chemical_formula_sum            'C28 H24 N4 O4 Zn '
_chemical_formula_moiety         'C28 H24 N4 O4 Zn '
_chemical_formula_weight         545.90
_chemical_melting_point          ?

#==========================================================================
#===

# CRYSTAL DATA
_symmetry_cell_setting           monoclinic
_symmetry_space_group_name_H-M   'P 1 21/n 1'
_symmetry_Int_Tables_number      14

#loop_
#_symmetry_equiv_pos_as_xyz

#------------------------------------------------------------------------------

_cell_length_a                   12.368(5)
_cell_length_b                   15.382(5)
_cell_length_c                   23.340(8)
_cell_angle_alpha                90
_cell_angle_beta                 91.41(2)
_cell_angle_gamma                90
_cell_volume                     4439.0(3)
_cell_formula_units_Z            6
_cell_measurement_reflns_used    16392
_cell_measurement_theta_min      4.0
_cell_measurement_theta_max      67.9
_cell_measurement_temperature    103.1

#------------------------------------------------------------------------------

_exptl_crystal_description       block
_exptl_crystal_colour            colorless
_exptl_crystal_size_max          0.20
_exptl_crystal_size_mid          0.20
_exptl_crystal_size_min          0.20
_exptl_crystal_density_diffrn    1.225
_exptl_crystal_density_meas      ?
_exptl_crystal_density_method    'not measured'
_exptl_crystal_F_000             1692.00
_exptl_absorpt_coefficient_mu    1.451
_exptl_absorpt_correction_type   ?
_exptl_absorpt_correction_T_min  1.000
_exptl_absorpt_correction_T_max  0.748

#==========================================================================
#===

# EXPERIMENTAL DATA

_diffrn_radiation_type           'Cu K\a'
_diffrn_radiation_wavelength     1.5419
_diffrn_measurement_device_type  'Rigaku RAXIS-RAPID'
_diffrn_measurement_method       \w
_diffrn_detector_area_resol_mean 10.00
_diffrn_reflns_number            45437
_diffrn_reflns_av_R_equivalents  0.040
_diffrn_reflns_theta_max         68.25
_diffrn_measured_fraction_theta_max 0.9882
_diffrn_reflns_theta_full        68.25
_diffrn_measured_fraction_theta_full 0.9882
_diffrn_reflns_limit_h_min       -14
_diffrn_reflns_limit_h_max       14
_diffrn_reflns_limit_k_min       -18
_diffrn_reflns_limit_k_max       18
_diffrn_reflns_limit_l_min       -27
_diffrn_reflns_limit_l_max       28

#==========================================================================
#===

# REFINEMENT DATA

_refine_special_details          
;
Refinement using reflections with F^2^ > 3.0 sigma(F^2^).
The weighted R-factor (wR), goodness of fit (S) and R-factor (gt) are
based on F, with F set to zero for negative F. The threshold expression of
F^2^ > 2.0 sigma(F^2^) is used only for calculating R-factor (gt).
;
_reflns_number_total             0
_reflns_number_gt                4504
_reflns_threshold_expression     F^2^>2.0\s(F^2^)
_refine_ls_structure_factor_coef F
_refine_ls_R_factor_gt           0.0390
_refine_ls_wR_factor_ref         0.0510
_refine_ls_hydrogen_treatment    refall
_refine_ls_number_reflns         4504
_refine_ls_number_parameters     591
_refine_ls_goodness_of_fit_ref   1.047
_refine_ls_weighting_scheme      unit
_refine_ls_weighting_details     'w = 1.0'
_refine_ls_shift/su_max          0.0320
_refine_diff_density_max         0.73
_refine_diff_density_min         -0.47
_refine_ls_extinction_method     none
_refine_ls_extinction_coef       ?

loop_
_atom_type_symbol
_atom_type_description
_atom_type_scat_dispersion_real
_atom_type_scat_dispersion_imag
_atom_type_scat_source
Zn Zn -1.549 0.678
;
International Tables for Crystallography
(1992, Vol. C, Tables 4.2.6.8 and 6.1.1.4)
;
C C 0.018 0.009
;
International Tables for Crystallography
(1992, Vol. C, Tables 4.2.6.8 and 6.1.1.4)
;
H H 0.000 0.000
;
International Tables for Crystallography
(1992, Vol. C, Table 6.1.1.4)
;
N N 0.031 0.018
;
International Tables for Crystallography
(1992, Vol. C, Tables 4.2.6.8 and 6.1.1.4)
;
O O 0.049 0.032
;
International Tables for Crystallography
(1992, Vol. C, Tables 4.2.6.8 and 6.1.1.4)
;

#==========================================================================
#===

# ATOMIC COORDINATES AND THERMAL PARAMETERS

loop_
_atom_site_label
_atom_site_type_symbol
_atom_site_fract_x
_atom_site_fract_y
_atom_site_fract_z
_atom_site_U_iso_or_equiv
_atom_site_adp_type
_atom_site_occupancy
_atom_site_symmetry_multiplicity
_atom_site_calc_flag
_atom_site_refinement_flags
_atom_site_disorder_assembly
_atom_site_disorder_group
Zn1 Zn 1.0000 0.0000 0.5000 0.0186 Uani 1.00 1 d . . .
Zn2 Zn 0.3348 -0.0164 0.8349 0.0185 Uani 1.00 1 d . . .
O1 O 1.1112 0.0282 0.5664 0.0228 Uani 1.00 1 d . . .
O2 O 0.8722 -0.0007 0.5581 0.0217 Uani 1.00 1 d . . .
O3 O 0.9597 0.0021 0.6432 0.0314 Uani 1.00 1 d . . .
O4 O 0.3797 -0.0479 0.6945 0.0278 Uani 1.00 1 d . . .
O5 O 0.4633 -0.0146 0.7778 0.0225 Uani 1.00 1 d . . .
O6 O 0.2257 -0.0025 0.7657 0.0235 Uani 1.00 1 d . . .
O7 O 0.4485 -0.0293 0.9029 0.0228 Uani 1.00 1 d . . .
O8 O 0.2053 -0.0164 0.8908 0.0219 Uani 1.00 1 d . . .
O9 O 0.2913 0.0059 0.9750 0.0336 Uani 1.00 1 d . . .
O10 O 1.0201 -0.0485 0.7516 0.0324 Uani 1.00 1 d . . .
O11 O 0.8498 -0.4680 0.5856 0.0330 Uani 1.00 1 d . . .
O12 O 1.1842 -0.5278 0.9184 0.0344 Uani 1.00 1 d . . .
N1 N 0.3254 -0.1580 0.8314 0.0224 Uani 1.00 1 d . . .
N2 N 0.3403 0.1259 0.8391 0.0224 Uani 1.00 1 d . . .
N3 N 0.8812 -0.1530 0.8147 0.0361 Uani 1.00 1 d . . .
N4 N 0.7049 -0.3675 0.6485 0.0342 Uani 1.00 1 d . . .
N5 N 1.0806 -0.3746 0.9629 0.0524 Uani 1.00 1 d . . .
N14 N 1.0223 -0.1390 0.5116 0.0243 Uani 1.00 1 d . . .
C1 C 0.9356 -0.1919 0.5117 0.0309 Uani 1.00 1 d . . .
C2 C 1.1196 -0.1769 0.5130 0.0281 Uani 1.00 1 d . . .
C3 C 0.9430 -0.2820 0.5127 0.0426 Uani 1.00 1 d . . .
C4 C 1.1337 -0.2670 0.5140 0.0346 Uani 1.00 1 d . . .
C5 C 1.0449 -0.3202 0.5136 0.0397 Uani 1.00 1 d . . .
C6 C 0.8756 -0.0023 0.6117 0.0197 Uani 1.00 1 d . . .
C7 C 0.7677 -0.0093 0.6414 0.0201 Uani 1.00 1 d . . .
C8 C 0.6773 -0.0378 0.6107 0.0213 Uani 1.00 1 d . . .
C9 C 0.7593 0.0135 0.6991 0.0203 Uani 1.00 1 d . . .
C10 C 0.5783 -0.0448 0.6375 0.0217 Uani 1.00 1 d . . .
C11 C 0.6603 0.0077 0.7257 0.0199 Uani 1.00 1 d . . .
C12 C 0.5692 -0.0217 0.6952 0.0203 Uani 1.00 1 d . . .
C13 C 0.4618 -0.0286 0.7249 0.0205 Uani 1.00 1 d . . .
C14 C 0.2371 -0.2014 0.8148 0.0319 Uani 1.00 1 d . . .
C15 C 0.4139 -0.2055 0.8455 0.0340 Uani 1.00 1 d . . .
C16 C 0.2334 -0.2916 0.8112 0.0399 Uani 1.00 1 d . . .
C17 C 0.4157 -0.2960 0.8434 0.0385 Uani 1.00 1 d . . .
C18 C 0.3254 -0.3398 0.8257 0.0362 Uani 1.00 1 d . . .
C19 C 0.2472 0.1717 0.8419 0.0254 Uani 1.00 1 d . . .
C20 C 0.4323 0.1717 0.8350 0.0263 Uani 1.00 1 d . . .
C21 C 0.2433 0.2617 0.8408 0.0301 Uani 1.00 1 d . . .
C22 C 0.4352 0.2625 0.8337 0.0302 Uani 1.00 1 d . . .
C23 C 0.3390 0.3082 0.8366 0.0324 Uani 1.00 1 d . . .
C24 C 0.2079 -0.0038 0.9438 0.0229 Uani 1.00 1 d . . .
C25 C 0.0993 -0.0015 0.9731 0.0197 Uani 1.00 1 d . . .
C26 C 0.0077 -0.0309 0.9442 0.0215 Uani 1.00 1 d . . .
C27 C -0.0926 -0.0301 0.9706 0.0215 Uani 1.00 1 d . . .
C28 C 0.7895 -0.1306 0.8404 0.0338 Uani 1.00 1 d . . .
C29 C 0.9166 -0.2348 0.8228 0.0406 Uani 1.00 1 d . . .
C30 C 0.7329 -0.1868 0.8737 0.0362 Uani 1.00 1 d . . .
C31 C 0.8644 -0.2959 0.8561 0.0412 Uani 1.00 1 d . . .
C32 C 0.7699 -0.2712 0.8816 0.0414 Uani 1.00 1 d . . .
C33 C 0.7464 -0.2897 0.6621 0.0375 Uani 1.00 1 d . . .
C34 C 0.6104 -0.3878 0.6720 0.0319 Uani 1.00 1 d . . .
C35 C 0.6998 -0.2310 0.6990 0.0371 Uani 1.00 1 d . . .
C36 C 0.5564 -0.3334 0.7085 0.0372 Uani 1.00 1 d . . .
C37 C 0.6018 -0.2534 0.7224 0.0385 Uani 1.00 1 d . . .
C38 C 1.1438 -0.3072 0.9646 0.0606 Uani 1.00 1 d . . .
C39 C 0.9917 -0.3715 0.9921 0.0441 Uani 1.00 1 d . . .
C40 C 1.1240 -0.2346 0.9949 0.0760 Uani 1.00 1 d . . .
C41 C 1.0341 -0.2282 1.0263 0.0628 Uani 1.00 1 d . . .
C42 C 0.9625 -0.3019 1.0259 0.0542 Uani 1.00 1 d . . .
H1 H 0.8660 -0.1657 0.5110 0.0372 Uiso 1.00 1 c . . .
H2 H 1.1818 -0.1407 0.5133 0.0337 Uiso 1.00 1 c . . .
H3 H 0.8798 -0.3170 0.5128 0.0511 Uiso 1.00 1 c . . .
H4 H 1.2043 -0.2913 0.5148 0.0415 Uiso 1.00 1 c . . .
H5 H 1.0529 -0.3816 0.5140 0.0476 Uiso 1.00 1 c . . .
H6 H 0.6832 -0.0523 0.5713 0.0255 Uiso 1.00 1 c . . .
H7 H 0.8213 0.0337 0.7199 0.0242 Uiso 1.00 1 c . . .
H8 H 0.5165 -0.0653 0.6167 0.0259 Uiso 1.00 1 c . . .
H9 H 0.6545 0.0233 0.7649 0.0239 Uiso 1.00 1 c . . .
H10 H 0.1739 -0.1690 0.8050 0.0381 Uiso 1.00 1 c . . .
H11 H 0.4778 -0.1755 0.8572 0.0408 Uiso 1.00 1 c . . .
H12 H 0.1686 -0.3205 0.7994 0.0475 Uiso 1.00 1 c . . .
H13 H 0.4794 -0.3269 0.8545 0.0462 Uiso 1.00 1 c . . .
H14 H 0.3254 -0.4014 0.8229 0.0433 Uiso 1.00 1 c . . .
H15 H 0.1814 0.1404 0.8450 0.0306 Uiso 1.00 1 c . . .
H16 H 0.4983 0.1404 0.8328 0.0316 Uiso 1.00 1 c . . .
H17 H 0.1761 0.2913 0.8426 0.0362 Uiso 1.00 1 c . . .
H18 H 0.5020 0.2923 0.8307 0.0363 Uiso 1.00 1 c . . .
H19 H 0.3385 0.3699 0.8361 0.0389 Uiso 1.00 1 c . . .
H20 H 0.0128 -0.0523 0.9062 0.0258 Uiso 1.00 1 c . . .
H21 H 0.7632 -0.0730 0.8350 0.0404 Uiso 1.00 1 c . . .
H22 H 0.9812 -0.2515 0.8046 0.0490 Uiso 1.00 1 c . . .
H23 H 0.6683 -0.1684 0.8913 0.0435 Uiso 1.00 1 c . . .
H24 H 0.8932 -0.3527 0.8614 0.0496 Uiso 1.00 1 c . . .
H25 H 0.7308 -0.3115 0.9040 0.0498 Uiso 1.00 1 c . . .
H26 H 0.8129 -0.2741 0.6453 0.0450 Uiso 1.00 1 c . . .
H27 H 0.5796 -0.4428 0.6628 0.0382 Uiso 1.00 1 c . . .
H28 H 0.7336 -0.1770 0.7078 0.0444 Uiso 1.00 1 c . . .
H29 H 0.4889 -0.3500 0.7237 0.0446 Uiso 1.00 1 c . . .
H30 H 0.5667 -0.2147 0.7476 0.0463 Uiso 1.00 1 c . . .
H31 H 1.2085 -0.3095 0.9436 0.0728 Uiso 1.00 1 c . . .
H32 H 0.9449 -0.4204 0.9898 0.0525 Uiso 1.00 1 c . . .
H33 H 1.1732 -0.1872 0.9941 0.0909 Uiso 1.00 1 c . . .
H34 H 1.0192 -0.1773 1.0478 0.0748 Uiso 1.00 1 c . . .
H35 H 0.8985 -0.3024 1.0476 0.0651 Uiso 1.00 1 c . . .


loop_
_atom_site_aniso_label
_atom_site_aniso_U_11
_atom_site_aniso_U_22
_atom_site_aniso_U_33
_atom_site_aniso_U_12
_atom_site_aniso_U_13
_atom_site_aniso_U_23
Zn1 0.0149 0.0240 0.0170 -0.0000 0.0028 0.0012
Zn2 0.0161 0.0226 0.0168 0.0000 0.0028 -0.0002
O1 0.0214 0.0296 0.0176 -0.0023 0.0015 0.0014
O2 0.0171 0.0322 0.0160 -0.0007 0.0053 0.0006
O3 0.0176 0.0580 0.0187 -0.0076 0.0012 0.0013
O4 0.0150 0.0443 0.0241 -0.0039 0.0017 -0.0061
O5 0.0205 0.0313 0.0158 -0.0013 0.0040 -0.0022
O6 0.0229 0.0288 0.0187 -0.0010 -0.0009 0.0018
O7 0.0171 0.0296 0.0217 0.0006 0.0017 -0.0001
O8 0.0193 0.0299 0.0166 0.0000 0.0032 -0.0009
O9 0.0189 0.0633 0.0187 -0.0065 0.0033 -0.0052
O10 0.0179 0.0486 0.0306 -0.0011 0.0007 0.0080
O11 0.0184 0.0461 0.0342 0.0026 -0.0020 -0.0034
O12 0.0194 0.0563 0.0277 -0.0066 0.0037 -0.0006
N1 0.0243 0.0259 0.0172 -0.0022 0.0048 0.0013
N2 0.0196 0.0267 0.0210 -0.0001 0.0008 0.0005
N3 0.0427 0.0333 0.0324 -0.0101 0.0041 0.0022
N4 0.0355 0.0343 0.0327 0.0072 -0.0034 -0.0044
N5 0.0372 0.0844 0.0354 0.0084 -0.0021 -0.0050
N14 0.0245 0.0285 0.0199 0.0008 0.0008 0.0008
C1 0.0266 0.0287 0.0377 -0.0001 0.0046 0.0060
C2 0.0291 0.0320 0.0232 0.0070 0.0021 -0.0011
C3 0.0570 0.0273 0.0433 -0.0143 -0.0011 0.0072
C4 0.0414 0.0399 0.0226 0.0112 0.0026 -0.0010
C5 0.0638 0.0256 0.0296 0.0034 -0.0026 0.0021
C6 0.0195 0.0197 0.0202 -0.0013 0.0049 -0.0001
C7 0.0160 0.0231 0.0213 -0.0001 0.0037 -0.0008
C8 0.0215 0.0278 0.0147 0.0027 0.0024 -0.0019
C9 0.0153 0.0236 0.0220 -0.0006 0.0012 -0.0029
C10 0.0149 0.0286 0.0216 0.0007 0.0000 -0.0012
C11 0.0235 0.0223 0.0143 -0.0021 0.0054 -0.0013
C12 0.0237 0.0196 0.0176 -0.0027 0.0025 -0.0003
C13 0.0168 0.0212 0.0238 -0.0036 0.0046 -0.0014
C14 0.0377 0.0234 0.0342 -0.0042 -0.0088 0.0022
C15 0.0232 0.0326 0.0463 0.0018 0.0010 -0.0017
C16 0.0464 0.0334 0.0391 -0.0109 -0.0145 0.0050
C17 0.0340 0.0278 0.0539 0.0083 0.0005 -0.0009
C18 0.0580 0.0218 0.0285 -0.0013 -0.0035 -0.0022
C19 0.0230 0.0304 0.0231 -0.0029 0.0030 -0.0005
C20 0.0216 0.0289 0.0286 0.0023 0.0006 0.0035
C21 0.0332 0.0307 0.0265 0.0047 0.0008 0.0015
C22 0.0319 0.0290 0.0299 -0.0038 0.0018 0.0016
C23 0.0527 0.0217 0.0228 0.0026 -0.0000 0.0022
C24 0.0225 0.0230 0.0232 -0.0007 0.0024 0.0011
C25 0.0199 0.0211 0.0187 0.0025 0.0097 0.0013
C26 0.0220 0.0263 0.0165 -0.0012 0.0035 -0.0022
C27 0.0215 0.0227 0.0203 -0.0026 0.0033 -0.0017
C28 0.0405 0.0311 0.0295 -0.0013 -0.0068 -0.0006
C29 0.0382 0.0440 0.0401 -0.0022 0.0107 -0.0059
C30 0.0314 0.0471 0.0302 -0.0033 0.0047 -0.0069
C31 0.0531 0.0278 0.0431 0.0006 0.0106 -0.0031
C32 0.0542 0.0365 0.0339 -0.0188 0.0116 -0.0032
C33 0.0326 0.0371 0.0428 0.0060 -0.0003 -0.0004
C34 0.0331 0.0343 0.0281 -0.0040 -0.0055 0.0015
C35 0.0453 0.0276 0.0381 -0.0014 -0.0033 -0.0004
C36 0.0402 0.0378 0.0335 0.0083 0.0005 0.0049
C37 0.0485 0.0338 0.0335 0.0090 0.0066 -0.0023
C38 0.0411 0.0779 0.0630 0.0031 0.0069 0.0353
C39 0.0408 0.0348 0.0557 -0.0074 -0.0169 0.0127
C40 0.0483 0.0396 0.1392 -0.0028 -0.0182 0.0325
C41 0.0748 0.0448 0.0673 0.0310 -0.0281 -0.0184
C42 0.0360 0.0953 0.0317 0.0252 0.0074 0.0203

#==========================================================================
#===

_computing_data_collection       PROCESS-AUTO
_computing_cell_refinement       PROCESS-AUTO
_computing_data_reduction        CrystalStructure
_computing_structure_solution    SIR92
_computing_structure_refinement  CRYSTALS
_computing_publication_material  'CrystalStructure Ver. 3.10'
_computing_molecular_graphics    ?

#==========================================================================
#===

# MOLECULAR GEOMETRY

_geom_special_details            
;
ENTER SPECIAL DETAILS OF THE MOLECULAR GEOMETRY
;
