####################################################################### 
# 
# This file contains crystal structure data downloaded from the 
# Cambridge Structural Database (CSD) hosted by the Cambridge 
# Crystallographic Data Centre (CCDC).
# 
# Full information about CCDC data access policies and citation 
# guidelines are available at http://www.ccdc.cam.ac.uk/access/V1 
# 
# Audit and citation data items may have been added by the CCDC. 
# Please retain this information to preserve the provenance of 
# this file and to allow appropriate attribution of the data. 
# 
#######################################################################

data_compound2
_audit_block_doi                 10.5517/ccvfx16
_database_code_depnum_ccdc_archive 'CCDC 787928'
loop_
_citation_id
_citation_doi
_citation_year
1 10.1039/c0dt00999g 2011
_audit_update_record             
;
2010-08-09 deposited with the CCDC.	2024-07-08 downloaded from the CCDC.
;
#TrackingRef '2065_web_deposit_cif_file_0_DenisG.Samsonenko_1281333071.cif'


_audit_creation_method           SHELXL-97
_chemical_name_systematic        
;
?
;
_chemical_name_common            ?
_chemical_melting_point          ?
_chemical_formula_structural     'Zn4 (C3 H7 N O) (C6 H12 N4)2 (C12 H6 O4)4'
_chemical_formula_sum            'C63 H55 N9 O17 Zn4'
_chemical_formula_weight         1471.64

loop_
_atom_type_symbol
_atom_type_description
_atom_type_scat_dispersion_real
_atom_type_scat_dispersion_imag
_atom_type_scat_source
C C 0.0033 0.0016 'International Tables Vol C Tables 4.2.6.8 and 6.1.1.4'
H H 0.0000 0.0000 'International Tables Vol C Tables 4.2.6.8 and 6.1.1.4'
N N 0.0061 0.0033 'International Tables Vol C Tables 4.2.6.8 and 6.1.1.4'
O O 0.0106 0.0060 'International Tables Vol C Tables 4.2.6.8 and 6.1.1.4'
Zn Zn 0.2839 1.4301 'International Tables Vol C Tables 4.2.6.8 and 6.1.1.4'

_symmetry_cell_setting           Monoclinic
_symmetry_space_group_name_H-M   Cc

loop_
_symmetry_equiv_pos_as_xyz
'x, y, z'
'x, -y, z+1/2'
'x+1/2, y+1/2, z'
'x+1/2, -y+1/2, z+1/2'

_cell_length_a                   24.8414(6)
_cell_length_b                   31.1031(8)
_cell_length_c                   12.3400(3)
_cell_angle_alpha                90.00
_cell_angle_beta                 97.318(1)
_cell_angle_gamma                90.00
_cell_volume                     9456.8(4)
_cell_formula_units_Z            4
_cell_measurement_temperature    150(2)
_cell_measurement_reflns_used    9715
_cell_measurement_theta_min      2.55
_cell_measurement_theta_max      30.52

_exptl_crystal_description       block
_exptl_crystal_colour            colorless
_exptl_crystal_size_max          0.36
_exptl_crystal_size_mid          0.16
_exptl_crystal_size_min          0.14
_exptl_crystal_density_meas      ?
_exptl_crystal_density_diffrn    1.034
_exptl_crystal_density_method    'not measured'
_exptl_crystal_F_000             3008
_exptl_absorpt_coefficient_mu    1.054

_exptl_absorpt_correction_type   multi-scan
_exptl_absorpt_correction_T_min  0.7027
_exptl_absorpt_correction_T_max  0.8664
_exptl_absorpt_process_details   'SADABS (Bruker-AXS, 2004)'

_exptl_special_details           
;
?
;

_diffrn_radiation_probe          x-ray
_diffrn_ambient_temperature      150(2)
_diffrn_radiation_wavelength     0.71073
_diffrn_radiation_type           MoK\a
_diffrn_radiation_source         'fine-focus sealed tube'
_diffrn_radiation_monochromator  graphite
_diffrn_measurement_device_type  'Bruker Nonius X8Apex CCD'
_diffrn_measurement_method       '\f scans'
_diffrn_detector_area_resol_mean 25
_diffrn_standards_number         0
_diffrn_standards_interval_count 0
_diffrn_standards_interval_time  0
_diffrn_standards_decay_%        0
_diffrn_reflns_number            61839
_diffrn_reflns_av_R_equivalents  0.0171
_diffrn_reflns_av_sigmaI/netI    0.0217
_diffrn_reflns_limit_h_min       -35
_diffrn_reflns_limit_h_max       31
_diffrn_reflns_limit_k_min       -44
_diffrn_reflns_limit_k_max       40
_diffrn_reflns_limit_l_min       -16
_diffrn_reflns_limit_l_max       17
_diffrn_reflns_theta_min         2.11
_diffrn_reflns_theta_max         30.54
_reflns_number_total             25216
_reflns_number_gt                23012
_reflns_threshold_expression     >2\s(I)


_computing_data_collection       'APEX2 (Bruker-AXS, 2004)'
_computing_cell_refinement       'SAINT (Bruker-AXS, 2004)'
_computing_data_reduction        'SAINT (Bruker-AXS, 2004)'
_computing_structure_solution    'SHELXS-97 (Sheldrick, 1998)'
_computing_structure_refinement  'SHELXL-97 (Sheldrick, 1998)'
_computing_molecular_graphics    'SHELXTL (Bruker-AXS, 2004)'
_computing_publication_material  'CIFTAB-97 (Sheldrick, 1998)'

_refine_special_details          
;
Refinement of F^2^ against ALL reflections. The weighted R-factor wR and
goodness of fit S are based on F^2^, conventional R-factors R are based
on F, with F set to zero for negative F^2^. The threshold expression of
F^2^ > 2sigma(F^2^) is used only for calculating R-factors(gt) etc. and is
not relevant to the choice of reflections for refinement. R-factors based
on F^2^ are statistically about twice as large as those based on F, and R-
factors based on ALL data will be even larger.
;

_refine_ls_structure_factor_coef Fsqd
_refine_ls_matrix_type           full
_refine_ls_weighting_scheme      calc
_refine_ls_weighting_details     
'calc w=1/[\s^2^(Fo^2^)+(0.0877P)^2^+6.3199P] where P=(Fo^2^+2Fc^2^)/3'
_atom_sites_solution_primary     direct
_atom_sites_solution_secondary   difmap
_atom_sites_solution_hydrogens   geom
_refine_ls_hydrogen_treatment    constr
_refine_ls_extinction_method     none
_refine_ls_extinction_coef       0
_refine_ls_abs_structure_details 'Flack H D (1983), Acta Cryst. A39, 876-881'
_refine_ls_abs_structure_Flack   0.472(8)
_refine_ls_number_reflns         25216
_refine_ls_number_parameters     839
_refine_ls_number_restraints     2
_refine_ls_R_factor_all          0.0423
_refine_ls_R_factor_gt           0.0374
_refine_ls_wR_factor_ref         0.1311
_refine_ls_wR_factor_gt          0.1271
_refine_ls_goodness_of_fit_ref   1.097
_refine_ls_restrained_S_all      1.097
_refine_ls_shift/su_max          0.002
_refine_ls_shift/su_mean         0.000

loop_
_atom_site_label
_atom_site_type_symbol
_atom_site_fract_x
_atom_site_fract_y
_atom_site_fract_z
_atom_site_U_iso_or_equiv
_atom_site_adp_type
_atom_site_occupancy
_atom_site_symmetry_multiplicity
_atom_site_calc_flag
_atom_site_refinement_flags
_atom_site_disorder_assembly
_atom_site_disorder_group
Zn1 Zn 0.179252(12) 0.255647(10) 0.38810(2) 0.01475(7) Uani 1 1 d . . .
Zn2 Zn 0.228409(12) 0.245275(10) 0.19120(2) 0.01520(7) Uani 1 1 d . . .
Zn3 Zn 0.026024(14) 0.365803(10) 0.58950(2) 0.01861(7) Uani 1 1 d . . .
Zn4 Zn -0.118024(14) 0.369264(11) 0.49994(2) 0.01874(8) Uani 1 1 d . . .
O1D O -0.05270(19) 0.42060(7) 0.5379(3) 0.0572(9) Uani 1 1 d . . .
C1D C -0.06136(18) 0.45240(12) 0.5914(4) 0.0467(9) Uani 1 1 d . . .
H1 H -0.0829 0.4489 0.6491 0.056 Uiso 1 1 calc R . .
N1D N -0.04294(17) 0.49083(10) 0.5745(3) 0.0533(10) Uani 1 1 d . . .
C2D C -0.0506(3) 0.52631(16) 0.6519(7) 0.093(2) Uani 1 1 d . . .
H2A H -0.0338 0.5526 0.6282 0.139 Uiso 1 1 calc R . .
H2B H -0.0336 0.5185 0.7253 0.139 Uiso 1 1 calc R . .
H2C H -0.0895 0.5312 0.6533 0.139 Uiso 1 1 calc R . .
C3D C -0.0133(4) 0.5010(2) 0.4858(7) 0.107(3) Uani 1 1 d . . .
H3A H -0.0029 0.5314 0.4898 0.161 Uiso 1 1 calc R . .
H3B H -0.0361 0.4954 0.4164 0.161 Uiso 1 1 calc R . .
H3C H 0.0194 0.4831 0.4904 0.161 Uiso 1 1 calc R . .
N11 N 0.14120(11) 0.26467(9) 0.5264(2) 0.0197(5) Uani 1 1 d . . .
N12 N 0.07635(12) 0.30939(8) 0.6085(2) 0.0204(5) Uani 1 1 d . . .
N13 N 0.07710(17) 0.23115(11) 0.6338(3) 0.0440(9) Uani 1 1 d . . .
N14 N 0.15009(16) 0.27425(13) 0.7240(2) 0.0442(9) Uani 1 1 d . . .
C11 C 0.10622(12) 0.30359(9) 0.5140(2) 0.0166(5) Uani 1 1 d . . .
H11A H 0.1290 0.3292 0.5062 0.020 Uiso 1 1 calc R . .
H11B H 0.0801 0.3009 0.4467 0.020 Uiso 1 1 calc R . .
C12 C 0.10604(16) 0.22642(10) 0.5397(3) 0.0299(7) Uani 1 1 d . . .
H12A H 0.0796 0.2229 0.4731 0.036 Uiso 1 1 calc R . .
H12B H 0.1288 0.2002 0.5484 0.036 Uiso 1 1 calc R . .
C13 C 0.17986(16) 0.26961(14) 0.6280(3) 0.0338(8) Uani 1 1 d . . .
H13A H 0.2039 0.2441 0.6378 0.041 Uiso 1 1 calc R . .
H13B H 0.2028 0.2953 0.6218 0.041 Uiso 1 1 calc R . .
C14 C 0.04226(18) 0.26978(11) 0.6177(4) 0.0355(9) Uani 1 1 d . . .
H14A H 0.0212 0.2730 0.6801 0.043 Uiso 1 1 calc R . .
H14B H 0.0163 0.2664 0.5504 0.043 Uiso 1 1 calc R . .
C15 C 0.1169(3) 0.23702(16) 0.7313(4) 0.0584(15) Uani 1 1 d . . .
H15A H 0.0975 0.2397 0.7962 0.070 Uiso 1 1 calc R . .
H15B H 0.1404 0.2113 0.7414 0.070 Uiso 1 1 calc R . .
C16 C 0.11595(17) 0.31287(13) 0.7089(3) 0.0348(8) Uani 1 1 d . . .
H16A H 0.1392 0.3384 0.7035 0.042 Uiso 1 1 calc R . .
H16B H 0.0962 0.3167 0.7730 0.042 Uiso 1 1 calc R . .
N21 N 0.26440(10) 0.23369(8) 0.0520(2) 0.0171(4) Uani 1 1 d . . .
N22 N 0.33009(11) 0.18744(8) -0.0262(2) 0.0204(5) Uani 1 1 d . . .
N23 N 0.32616(16) 0.26442(10) -0.0656(3) 0.0394(8) Uani 1 1 d . . .
N24 N 0.25124(14) 0.21741(12) -0.1430(2) 0.0377(7) Uani 1 1 d . . .
C21 C 0.30085(12) 0.19553(9) 0.0695(2) 0.0165(5) Uani 1 1 d . . .
H21A H 0.3276 0.2003 0.1351 0.020 Uiso 1 1 calc R . .
H21B H 0.2791 0.1699 0.0830 0.020 Uiso 1 1 calc R . .
C22 C 0.29781(16) 0.27143(10) 0.0285(3) 0.0310(7) Uani 1 1 d . . .
H22A H 0.2740 0.2969 0.0152 0.037 Uiso 1 1 calc R . .
H22B H 0.3246 0.2775 0.0931 0.037 Uiso 1 1 calc R . .
C23 C 0.22453(15) 0.22538(12) -0.0482(3) 0.0287(7) Uani 1 1 d . . .
H23A H 0.2018 0.2002 -0.0350 0.034 Uiso 1 1 calc R . .
H23B H 0.2003 0.2506 -0.0621 0.034 Uiso 1 1 calc R . .
C24 C 0.36119(15) 0.22715(10) -0.0466(3) 0.0301(7) Uani 1 1 d . . .
H24A H 0.3887 0.2327 0.0172 0.036 Uiso 1 1 calc R . .
H24B H 0.3805 0.2225 -0.1110 0.036 Uiso 1 1 calc R . .
C25 C 0.2844(2) 0.25490(15) -0.1616(4) 0.0526(13) Uani 1 1 d . . .
H25A H 0.2605 0.2802 -0.1767 0.063 Uiso 1 1 calc R . .
H25B H 0.3030 0.2497 -0.2269 0.063 Uiso 1 1 calc R . .
C26 C 0.28753(16) 0.18034(12) -0.1223(3) 0.0319(7) Uani 1 1 d . . .
H26A H 0.3055 0.1747 -0.1881 0.038 Uiso 1 1 calc R . .
H26B H 0.2658 0.1547 -0.1086 0.038 Uiso 1 1 calc R . .
O11 O 0.25876(11) 0.26405(11) 0.4472(2) 0.0358(6) Uani 1 1 d . . .
O12 O 0.29832(12) 0.25322(9) 0.2953(2) 0.0318(6) Uani 1 1 d . . .
C101 C 0.29988(14) 0.26003(10) 0.3963(3) 0.0234(6) Uani 1 1 d . . .
C102 C 0.35467(14) 0.26263(11) 0.4646(3) 0.0231(6) Uani 1 1 d . . .
C103 C 0.40025(14) 0.26009(13) 0.4185(3) 0.0285(7) Uani 1 1 d . . .
H103 H 0.3981 0.2580 0.3413 0.034 Uiso 1 1 calc R . .
C104 C 0.45238(15) 0.26039(13) 0.4829(3) 0.0268(7) Uani 1 1 d . . .
C105 C 0.45508(13) 0.26350(11) 0.5970(3) 0.0226(6) Uani 1 1 d . . .
C106 C 0.40604(16) 0.26735(19) 0.6442(3) 0.0459(11) Uani 1 1 d . . .
H106 H 0.4072 0.2698 0.7212 0.055 Uiso 1 1 calc R . .
C107 C 0.35690(17) 0.26760(19) 0.5788(3) 0.0451(10) Uani 1 1 d . . .
H107 H 0.3243 0.2711 0.6105 0.054 Uiso 1 1 calc R . .
C108 C 0.50068(16) 0.2570(2) 0.4366(3) 0.0598(17) Uani 1 1 d . . .
H108 H 0.4993 0.2544 0.3596 0.072 Uiso 1 1 calc R . .
C109 C 0.54972(16) 0.2574(2) 0.5001(3) 0.0556(15) Uani 1 1 d . . .
H109 H 0.5820 0.2557 0.4664 0.067 Uiso 1 1 calc R . .
C110 C 0.55368(14) 0.26029(11) 0.6150(3) 0.0245(6) Uani 1 1 d . . .
C111 C 0.50624(13) 0.26236(12) 0.6618(3) 0.0239(6) Uani 1 1 d . . .
H111 H 0.5080 0.2630 0.7391 0.029 Uiso 1 1 calc R . .
C112 C 0.60809(13) 0.25821(10) 0.6821(3) 0.0212(6) Uani 1 1 d . . .
O13 O 0.64808(11) 0.25860(10) 0.6319(2) 0.0342(6) Uani 1 1 d . . .
O14 O 0.60921(10) 0.25578(8) 0.78440(19) 0.0252(5) Uani 1 1 d . . .
O21 O 0.17711(11) 0.31637(7) 0.3296(2) 0.0296(5) Uani 1 1 d . . .
O22 O 0.22065(13) 0.30959(8) 0.1823(2) 0.0364(6) Uani 1 1 d . . .
C201 C 0.19445(15) 0.33074(10) 0.2462(3) 0.0257(7) Uani 1 1 d . . .
C202 C 0.18267(16) 0.37747(10) 0.2177(3) 0.0294(7) Uani 1 1 d . . .
C203 C 0.1984(3) 0.39442(14) 0.1206(5) 0.075(2) Uani 1 1 d . . .
H203 H 0.2171 0.3769 0.0744 0.090 Uiso 1 1 calc R . .
C204 C 0.1864(3) 0.43646(15) 0.0934(5) 0.081(2) Uani 1 1 d . . .
H204 H 0.1975 0.4481 0.0286 0.097 Uiso 1 1 calc R . .
C205 C 0.1578(2) 0.46268(13) 0.1596(4) 0.0459(11) Uani 1 1 d . . .
C206 C 0.14224(17) 0.44546(10) 0.2559(3) 0.0309(7) Uani 1 1 d . . .
C207 C 0.15571(15) 0.40203(10) 0.2837(3) 0.0271(7) Uani 1 1 d . . .
H207 H 0.1457 0.3902 0.3492 0.032 Uiso 1 1 calc R . .
C208 C 0.1444(2) 0.50557(13) 0.1294(4) 0.0534(12) Uani 1 1 d . . .
H208 H 0.1573 0.5179 0.0673 0.064 Uiso 1 1 calc R . .
C209 C 0.1127(2) 0.52919(12) 0.1898(4) 0.0419(9) Uani 1 1 d . . .
C210 C 0.09621(19) 0.51198(12) 0.2851(4) 0.0427(10) Uani 1 1 d . . .
H210 H 0.0750 0.5289 0.3278 0.051 Uiso 1 1 calc R . .
C211 C 0.1105(2) 0.47101(12) 0.3170(4) 0.0409(9) Uani 1 1 d . . .
H211 H 0.0988 0.4596 0.3815 0.049 Uiso 1 1 calc R . .
C212 C 0.0935(2) 0.57341(12) 0.1479(4) 0.0461(11) Uani 1 1 d . . .
O23 O 0.1168(2) 0.59127(10) 0.0751(3) 0.0758(12) Uani 1 1 d . . .
O24 O 0.05476(13) 0.58869(9) 0.1869(3) 0.0505(8) Uani 1 1 d . . .
O31 O 0.19325(11) 0.19150(8) 0.4041(2) 0.0325(6) Uani 1 1 d . . .
O41 O -0.10964(10) 0.36134(8) 0.66147(19) 0.0255(5) Uani 1 1 d . . .
O42 O -0.02361(10) 0.34035(7) 0.68567(19) 0.0253(5) Uani 1 1 d . . .
C401 C -0.06686(13) 0.35170(9) 0.7207(2) 0.0195(6) Uani 1 1 d . . .
C402 C -0.06774(14) 0.35312(11) 0.8423(2) 0.0226(6) Uani 1 1 d . . .
C403 C -0.02031(15) 0.35427(12) 0.9105(3) 0.0261(7) Uani 1 1 d . . .
H403 H 0.0132 0.3542 0.8811 0.031 Uiso 1 1 calc R . .
C404 C -0.02053(14) 0.35558(12) 1.0260(3) 0.0260(6) Uani 1 1 d . . .
C405 C -0.07137(13) 0.35449(11) 1.0687(3) 0.0238(6) Uani 1 1 d . . .
C406 C -0.12041(15) 0.35414(13) 0.9950(3) 0.0301(7) Uani 1 1 d . . .
H406 H -0.1544 0.3546 1.0224 0.036 Uiso 1 1 calc R . .
C407 C -0.11848(14) 0.35318(13) 0.8846(3) 0.0289(7) Uani 1 1 d . . .
H407 H -0.1513 0.3526 0.8358 0.035 Uiso 1 1 calc R . .
C408 C 0.02793(17) 0.35589(15) 1.0998(3) 0.0354(8) Uani 1 1 d . . .
H408 H 0.0619 0.3559 1.0720 0.042 Uiso 1 1 calc R . .
C409 C 0.02699(15) 0.35610(14) 1.2101(3) 0.0313(7) Uani 1 1 d . . .
H409 H 0.0599 0.3575 1.2583 0.038 Uiso 1 1 calc R . .
C410 C -0.02349(14) 0.35428(10) 1.2524(2) 0.0219(6) Uani 1 1 d . . .
C411 C -0.07124(14) 0.35404(12) 1.1823(3) 0.0242(6) Uani 1 1 d . . .
H411 H -0.1048 0.3536 1.2115 0.029 Uiso 1 1 calc R . .
C412 C -0.02424(14) 0.35373(9) 1.3724(2) 0.0199(6) Uani 1 1 d . . .
O43 O 0.01936(11) 0.36483(8) 1.43041(19) 0.0272(5) Uani 1 1 d . . .
O44 O -0.06647(10) 0.34096(7) 1.4101(2) 0.0251(5) Uani 1 1 d . . .
O32 O 0.22656(12) 0.18385(7) 0.2459(2) 0.0317(6) Uani 1 1 d . . .
C301 C 0.21444(13) 0.17013(10) 0.3352(3) 0.0230(6) Uani 1 1 d . . .
C302 C 0.22885(17) 0.12468(11) 0.3630(3) 0.0308(7) Uani 1 1 d . . .
C303 C 0.25376(15) 0.09938(10) 0.2920(3) 0.0260(6) Uani 1 1 d . . .
H303 H 0.2601 0.1107 0.2232 0.031 Uiso 1 1 calc R . .
C304 C 0.26990(16) 0.05701(10) 0.3202(3) 0.0284(7) Uani 1 1 d . . .
C305 C 0.2598(2) 0.03995(12) 0.4208(4) 0.0442(10) Uani 1 1 d . . .
C306 C 0.2328(3) 0.06552(14) 0.4913(4) 0.0685(18) Uani 1 1 d . . .
H306 H 0.2247 0.0539 0.5586 0.082 Uiso 1 1 calc R . .
C307 C 0.2181(2) 0.10694(14) 0.4637(4) 0.0520(12) Uani 1 1 d . . .
H307 H 0.2004 0.1239 0.5127 0.062 Uiso 1 1 calc R . .
C308 C 0.29783(19) 0.03154(12) 0.2493(4) 0.0403(9) Uani 1 1 d . . .
H308 H 0.3056 0.0431 0.1817 0.048 Uiso 1 1 calc R . .
C309 C 0.3135(2) -0.00959(13) 0.2780(4) 0.0474(11) Uani 1 1 d . . .
H309 H 0.3318 -0.0264 0.2298 0.057 Uiso 1 1 calc R . .
C310 C 0.30276(19) -0.02724(12) 0.3776(4) 0.0422(10) Uani 1 1 d . . .
C311 C 0.2775(2) -0.00289(13) 0.4474(4) 0.0504(12) Uani 1 1 d . . .
H311 H 0.2713 -0.0147 0.5157 0.061 Uiso 1 1 calc R . .
C312 C 0.3248(2) -0.07010(12) 0.4131(5) 0.0539(13) Uani 1 1 d . . .
O33 O 0.35205(16) -0.09115(10) 0.3509(4) 0.0689(12) Uani 1 1 d . . .
O34 O 0.32034(14) -0.08403(9) 0.5056(3) 0.0534(8) Uani 1 1 d . . .

loop_
_atom_site_aniso_label
_atom_site_aniso_U_11
_atom_site_aniso_U_22
_atom_site_aniso_U_33
_atom_site_aniso_U_23
_atom_site_aniso_U_13
_atom_site_aniso_U_12
Zn1 0.01141(16) 0.01898(14) 0.01362(14) 0.00092(11) 0.00067(11) 0.00272(11)
Zn2 0.01079(16) 0.02009(14) 0.01443(15) 0.00077(11) 0.00054(11) 0.00252(12)
Zn3 0.01888(17) 0.02252(15) 0.01448(15) -0.00234(11) 0.00231(12) 0.00102(12)
Zn4 0.01919(18) 0.02270(15) 0.01449(15) 0.00031(11) 0.00278(12) -0.00061(12)
O1D 0.096(3) 0.0295(10) 0.0559(15) -0.0135(14) 0.0463(17) -0.0207(16)
C1D 0.052(2) 0.0375(17) 0.053(2) -0.0067(16) 0.0152(18) -0.0082(15)
N1D 0.0509(19) 0.0271(13) 0.084(3) -0.0027(14) 0.016(2) -0.0033(14)
C2D 0.089(4) 0.037(2) 0.152(6) -0.034(3) 0.015(4) 0.002(2)
C3D 0.149(7) 0.078(4) 0.107(6) 0.003(4) 0.061(5) -0.045(5)
N11 0.0205(13) 0.0245(11) 0.0145(11) 0.0035(9) 0.0038(9) 0.0082(10)
N12 0.0243(14) 0.0232(11) 0.0144(11) 0.0023(8) 0.0046(9) 0.0068(10)
N13 0.060(2) 0.0272(14) 0.054(2) 0.0158(14) 0.0411(19) 0.0164(14)
N14 0.052(2) 0.065(2) 0.0150(12) 0.0055(13) 0.0028(13) 0.0375(17)
C11 0.0178(14) 0.0190(12) 0.0136(12) 0.0002(9) 0.0038(10) 0.0017(10)
C12 0.0371(19) 0.0180(12) 0.0399(18) 0.0058(11) 0.0253(15) 0.0045(12)
C13 0.0328(19) 0.054(2) 0.0138(13) -0.0008(13) -0.0012(12) 0.0245(16)
C14 0.045(2) 0.0245(14) 0.044(2) 0.0082(13) 0.0308(17) 0.0091(14)
C15 0.089(4) 0.060(3) 0.035(2) 0.0302(18) 0.041(2) 0.050(3)
C16 0.0380(19) 0.051(2) 0.0144(13) -0.0054(12) 0.