####################################################################### 
# 
# This file contains crystal structure data downloaded from the 
# Cambridge Structural Database (CSD) hosted by the Cambridge 
# Crystallographic Data Centre (CCDC).
# 
# Full information about CCDC data access policies and citation 
# guidelines are available at http://www.ccdc.cam.ac.uk/access/V1 
# 
# Audit and citation data items may have been added by the CCDC. 
# Please retain this information to preserve the provenance of 
# this file and to allow appropriate attribution of the data. 
# 
#######################################################################

data_compound1
_audit_block_doi                 10.5517/ccvfx05
_database_code_depnum_ccdc_archive 'CCDC 787927'
loop_
_citation_id
_citation_doi
_citation_year
1 10.1039/c0dt00999g 2011
_audit_update_record             
;
2010-08-09 deposited with the CCDC.	2024-07-08 downloaded from the CCDC.
;
#TrackingRef '2065_web_deposit_cif_file_0_DenisG.Samsonenko_1281333071.cif'


_audit_creation_method           SHELXL-97
_chemical_name_systematic        
;
?
;
_chemical_name_common            ?
_chemical_melting_point          ?
_chemical_formula_structural     
'(Zn4 (C3 H7 N O) (C6 H12 N4)2 (C12 H6 O4)4) . 5(C3 H7 N O) . (H2 O)'
_chemical_formula_sum            'C78 H92 N14 O23 Zn4'
_chemical_formula_weight         1855.14

loop_
_atom_type_symbol
_atom_type_description
_atom_type_scat_dispersion_real
_atom_type_scat_dispersion_imag
_atom_type_scat_source
C C 0.0033 0.0016 'International Tables Vol C Tables 4.2.6.8 and 6.1.1.4'
H H 0.0000 0.0000 'International Tables Vol C Tables 4.2.6.8 and 6.1.1.4'
N N 0.0061 0.0033 'International Tables Vol C Tables 4.2.6.8 and 6.1.1.4'
O O 0.0106 0.0060 'International Tables Vol C Tables 4.2.6.8 and 6.1.1.4'
Zn Zn 0.2839 1.4301 'International Tables Vol C Tables 4.2.6.8 and 6.1.1.4'

_symmetry_cell_setting           Monoclinic
_symmetry_space_group_name_H-M   'P 1 21/n 1'

loop_
_symmetry_equiv_pos_as_xyz
'x, y, z'
'-x+1/2, y+1/2, -z+1/2'
'-x, -y, -z'
'x-1/2, -y-1/2, z-1/2'

_cell_length_a                   12.3274(5)
_cell_length_b                   30.5413(19)
_cell_length_c                   24.7472(15)
_cell_angle_alpha                90.00
_cell_angle_beta                 98.232(1)
_cell_angle_gamma                90.00
_cell_volume                     9221.2(9)
_cell_formula_units_Z            4
_cell_measurement_temperature    150(2)
_cell_measurement_reflns_used    9823
_cell_measurement_theta_min      2.58
_cell_measurement_theta_max      25.39

_exptl_crystal_description       block
_exptl_crystal_colour            colorless
_exptl_crystal_size_max          0.32
_exptl_crystal_size_mid          0.11
_exptl_crystal_size_min          0.07
_exptl_crystal_density_meas      ?
_exptl_crystal_density_diffrn    1.336
_exptl_crystal_density_method    'not measured'
_exptl_crystal_F_000             3848
_exptl_absorpt_coefficient_mu    1.103

_exptl_absorpt_correction_type   multi-scan
_exptl_absorpt_correction_T_min  0.7192
_exptl_absorpt_correction_T_max  0.9268
_exptl_absorpt_process_details   'SADABS (Bruker-AXS, 2004)'

_exptl_special_details           
;
?
;

_diffrn_radiation_probe          x-ray
_diffrn_ambient_temperature      150(2)
_diffrn_radiation_wavelength     0.71073
_diffrn_radiation_type           MoK\a
_diffrn_radiation_source         'fine-focus sealed tube'
_diffrn_radiation_monochromator  graphite
_diffrn_measurement_device_type  'Bruker Nonius X8Apex CCD'
_diffrn_measurement_method       '\f scans'
_diffrn_detector_area_resol_mean 25
_diffrn_standards_number         0
_diffrn_standards_interval_count 0
_diffrn_standards_interval_time  0
_diffrn_standards_decay_%        0
_diffrn_reflns_number            57408
_diffrn_reflns_av_R_equivalents  0.0555
_diffrn_reflns_av_sigmaI/netI    0.0722
_diffrn_reflns_limit_h_min       -15
_diffrn_reflns_limit_h_max       8
_diffrn_reflns_limit_k_min       -38
_diffrn_reflns_limit_k_max       38
_diffrn_reflns_limit_l_min       -30
_diffrn_reflns_limit_l_max       30
_diffrn_reflns_theta_min         1.79
_diffrn_reflns_theta_max         26.39
_reflns_number_total             18509
_reflns_number_gt                13012
_reflns_threshold_expression     >2\s(I)


_computing_data_collection       'APEX2 (Bruker-AXS, 2004)'
_computing_cell_refinement       'SAINT (Bruker-AXS, 2004)'
_computing_data_reduction        'SAINT (Bruker-AXS, 2004)'
_computing_structure_solution    'SHELXS-97 (Sheldrick, 1998)'
_computing_structure_refinement  'SHELXL-97 (Sheldrick, 1998)'
_computing_molecular_graphics    'SHELXTL (Bruker-AXS, 2004)'
_computing_publication_material  'CIFTAB-97 (Sheldrick, 1998)'

_refine_special_details          
;
Refinement of F^2^ against ALL reflections. The weighted R-factor wR and
goodness of fit S are based on F^2^, conventional R-factors R are based
on F, with F set to zero for negative F^2^. The threshold expression of
F^2^ > 2sigma(F^2^) is used only for calculating R-factors(gt) etc. and is
not relevant to the choice of reflections for refinement. R-factors based
on F^2^ are statistically about twice as large as those based on F, and R-
factors based on ALL data will be even larger.
;

_refine_ls_structure_factor_coef Fsqd
_refine_ls_matrix_type           full
_refine_ls_weighting_scheme      calc
_refine_ls_weighting_details     
'calc w=1/[\s^2^(Fo^2^)+(0.1029P)^2^+125.1549P] where P=(Fo^2^+2Fc^2^)/3'
_atom_sites_solution_primary     direct
_atom_sites_solution_secondary   difmap
_atom_sites_solution_hydrogens   geom
_refine_ls_hydrogen_treatment    constr
_refine_ls_extinction_method     none
_refine_ls_extinction_coef       0
_refine_ls_number_reflns         18509
_refine_ls_number_parameters     1090
_refine_ls_number_restraints     299
_refine_ls_R_factor_all          0.1451
_refine_ls_R_factor_gt           0.1079
_refine_ls_wR_factor_ref         0.2973
_refine_ls_wR_factor_gt          0.2833
_refine_ls_goodness_of_fit_ref   1.104
_refine_ls_restrained_S_all      1.115
_refine_ls_shift/su_max          0.000
_refine_ls_shift/su_mean         0.000

loop_
_atom_site_label
_atom_site_type_symbol
_atom_site_fract_x
_atom_site_fract_y
_atom_site_fract_z
_atom_site_U_iso_or_equiv
_atom_site_adp_type
_atom_site_occupancy
_atom_site_symmetry_multiplicity
_atom_site_calc_flag
_atom_site_refinement_flags
_atom_site_disorder_assembly
_atom_site_disorder_group
Zn1 Zn 0.57587(7) 0.26574(3) 0.20133(3) 0.0174(2) Uani 1 1 d . . .
Zn2 Zn 0.37240(7) 0.27439(3) 0.24839(4) 0.0179(2) Uani 1 1 d . . .
Zn3 Zn 0.28292(9) 0.35266(3) 0.56212(4) 0.0298(3) Uani 1 1 d . . .
Zn4 Zn 0.19285(9) 0.36963(3) 0.41863(4) 0.0323(3) Uani 1 1 d . . .
N11 N 0.7089(5) 0.2594(2) 0.1597(3) 0.0199(14) Uani 1 1 d . . .
N12 N 0.7934(5) 0.2096(2) 0.0995(3) 0.0222(14) Uani 1 1 d . . .
N13 N 0.9078(7) 0.2593(3) 0.1608(4) 0.049(3) Uani 1 1 d . . .
N14 N 0.7887(7) 0.2888(2) 0.0822(4) 0.036(2) Uani 1 1 d . . .
C11 C 0.7040(7) 0.2153(3) 0.1332(3) 0.0206(16) Uani 1 1 d . . .
H11A H 0.7099 0.1923 0.1617 0.025 Uiso 1 1 calc R . .
H11B H 0.6323 0.2118 0.1098 0.025 Uiso 1 1 calc R . .
C12 C 0.8186(7) 0.2641(4) 0.1947(4) 0.040(3) Uani 1 1 d . . .
H12A H 0.8237 0.2932 0.2125 0.049 Uiso 1 1 calc R . .
H12B H 0.8265 0.2415 0.2236 0.049 Uiso 1 1 calc R . .
C13 C 0.7011(8) 0.2935(3) 0.1151(4) 0.030(2) Uani 1 1 d . . .
H13A H 0.6296 0.2906 0.0914 0.036 Uiso 1 1 calc R . .
H13B H 0.7046 0.3230 0.1316 0.036 Uiso 1 1 calc R . .
C14 C 0.8994(8) 0.2158(4) 0.1354(4) 0.037(2) Uani 1 1 d . . .
H14A H 0.9073 0.1932 0.1643 0.044 Uiso 1 1 calc R . .
H14B H 0.9601 0.2120 0.1135 0.044 Uiso 1 1 calc R . .
C15 C 0.7828(8) 0.2453(3) 0.0575(4) 0.0287(19) Uani 1 1 d . . .
H15A H 0.8421 0.2423 0.0347 0.034 Uiso 1 1 calc R . .
H15B H 0.7119 0.2422 0.0334 0.034 Uiso 1 1 calc R . .
C16 C 0.8914(9) 0.2929(4) 0.1173(5) 0.050(3) Uani 1 1 d . . .
H16A H 0.8956 0.3223 0.1343 0.060 Uiso 1 1 calc R . .
H16B H 0.9517 0.2906 0.0949 0.060 Uiso 1 1 calc R . .
N21 N 0.2393(5) 0.2765(2) 0.2904(3) 0.0215(14) Uani 1 1 d . . .
N22 N 0.1673(6) 0.3151(2) 0.3637(3) 0.0226(14) Uani 1 1 d . . .
N23 N 0.1474(8) 0.2361(3) 0.3545(4) 0.048(3) Uani 1 1 d . . .
N24 N 0.0415(7) 0.2844(5) 0.2895(4) 0.065(4) Uani 1 1 d . . .
C21 C 0.2561(6) 0.3134(3) 0.3297(3) 0.0187(16) Uani 1 1 d . . .
H21A H 0.3273 0.3098 0.3534 0.022 Uiso 1 1 calc R . .
H21B H 0.2582 0.3413 0.3095 0.022 Uiso 1 1 calc R . .
C22 C 0.2337(8) 0.2352(3) 0.3205(4) 0.033(2) Uani 1 1 d . . .
H22A H 0.2205 0.2107 0.2943 0.040 Uiso 1 1 calc R . .
H22B H 0.3049 0.2300 0.3437 0.040 Uiso 1 1 calc R . .
C23 C 0.1302(8) 0.2830(5) 0.2557(4) 0.049(3) Uani 1 1 d . . .
H23A H 0.1311 0.3108 0.2351 0.058 Uiso 1 1 calc R . .
H23B H 0.1166 0.2588 0.2290 0.058 Uiso 1 1 calc R . .
C24 C 0.1678(8) 0.2721(3) 0.3948(4) 0.033(2) Uani 1 1 d . . .
H24A H 0.2395 0.2679 0.4179 0.039 Uiso 1 1 calc R . .
H24B H 0.1099 0.2725 0.4188 0.039 Uiso 1 1 calc R . .
C25 C 0.0611(8) 0.3204(4) 0.3277(4) 0.046(3) Uani 1 1 d . . .
H25A H 0.0010 0.3217 0.3503 0.055 Uiso 1 1 calc R . .
H25B H 0.0613 0.3482 0.3073 0.055 Uiso 1 1 calc R . .
C26 C 0.0435(10) 0.2428(5) 0.3203(6) 0.074(5) Uani 1 1 d . . .
H26A H -0.0159 0.2431 0.3433 0.089 Uiso 1 1 calc R . .
H26B H 0.0295 0.2182 0.2943 0.089 Uiso 1 1 calc R . .
O11 O 0.4865(5) 0.2616(2) 0.3163(2) 0.0282(13) Uani 1 1 d . . .
O12 O 0.6430(5) 0.2676(2) 0.2801(2) 0.0264(13) Uani 1 1 d U . .
C101 C 0.5895(7) 0.2622(3) 0.3198(3) 0.0231(17) Uani 1 1 d . . .
C102 C 0.6556(7) 0.2558(3) 0.3752(3) 0.0226(17) Uani 1 1 d . . .
C103 C 0.6038(6) 0.2486(3) 0.4206(3) 0.0242(18) Uani 1 1 d . . .
H103 H 0.5260 0.2480 0.4165 0.029 Uiso 1 1 calc R . .
C104 C 0.6633(6) 0.2424(3) 0.4716(3) 0.0216(17) Uani 1 1 d . . .
C105 C 0.6145(7) 0.2352(4) 0.5188(4) 0.035(2) Uani 1 1 d . . .
H105 H 0.5369 0.2336 0.5156 0.042 Uiso 1 1 calc R . .
C106 C 0.6749(7) 0.2303(4) 0.5688(4) 0.034(2) Uani 1 1 d . . .
H106 H 0.6393 0.2260 0.6000 0.041 Uiso 1 1 calc R . .
C107 C 0.7900(7) 0.2317(3) 0.5745(3) 0.0238(17) Uani 1 1 d . . .
C108 C 0.8438(7) 0.2383(3) 0.5310(3) 0.0236(17) Uani 1 1 d . . .
H108 H 0.9216 0.2395 0.5356 0.028 Uiso 1 1 calc R . .
C109 C 0.7800(6) 0.2438(3) 0.4771(3) 0.0224(17) Uani 1 1 d . . .
C110 C 0.8307(7) 0.2521(3) 0.4311(3) 0.031(2) Uani 1 1 d . . .
H110 H 0.9084 0.2530 0.4346 0.038 Uiso 1 1 calc R . .
C111 C 0.7703(7) 0.2589(3) 0.3813(3) 0.032(2) Uani 1 1 d . . .
H111 H 0.8057 0.2657 0.3507 0.039 Uiso 1 1 calc R . .
C112 C 0.8566(7) 0.2272(3) 0.6307(3) 0.0224(17) Uani 1 1 d . . .
O13 O 0.9586(5) 0.2350(2) 0.6351(2) 0.0275(13) Uani 1 1 d . . .
O14 O 0.8070(5) 0.2160(2) 0.6689(2) 0.0342(15) Uani 1 1 d . . .
O21 O 0.3714(5) 0.2098(2) 0.2320(3) 0.0352(15) Uani 1 1 d . . .
O22 O 0.5408(5) 0.20075(19) 0.2111(3) 0.0299(14) Uani 1 1 d . . .
C201 C 0.4487(7) 0.1864(3) 0.2189(3) 0.0226(17) Uani 1 1 d . . .
C202 C 0.4289(8) 0.1383(3) 0.2128(4) 0.030(2) Uani 1 1 d . . .
C203 C 0.3294(10) 0.1207(4) 0.2251(6) 0.061(4) Uani 1 1 d . . .
H203 H 0.2795 0.1393 0.2400 0.073 Uiso 1 1 calc R . .
C204 C 0.3034(11) 0.0782(4) 0.2160(7) 0.071(4) Uani 1 1 d . . .
H204 H 0.2360 0.0673 0.2249 0.085 Uiso 1 1 calc R . .
C205 C 0.3755(12) 0.0497(3) 0.1933(5) 0.058(3) Uani 1 1 d . . .
C206 C 0.3489(14) 0.0061(4) 0.1805(6) 0.072(4) Uani 1 1 d . . .
H206 H 0.2818 -0.0055 0.1890 0.086 Uiso 1 1 calc R . .
C207 C 0.4175(15) -0.0203(4) 0.1561(6) 0.073(4) Uani 1 1 d DU . .
C208 C 0.5124(15) -0.0034(5) 0.1443(6) 0.082(4) Uani 1 1 d U . .
H208 H 0.5589 -0.0219 0.1269 0.099 Uiso 1 1 calc R . .
C209 C 0.5466(14) 0.0397(4) 0.1561(6) 0.072(4) Uani 1 1 d U . .
H209 H 0.6159 0.0497 0.1486 0.086 Uiso 1 1 calc R . .
C210 C 0.4750(10) 0.0680(3) 0.1796(5) 0.046(3) Uani 1 1 d . . .
C211 C 0.5005(9) 0.1117(3) 0.1914(4) 0.036(2) Uani 1 1 d . . .
H211 H 0.5689 0.1230 0.1844 0.043 Uiso 1 1 calc R . .
C212 C 0.3788(14) -0.0659(4) 0.1389(7) 0.094(5) Uani 1 1 d DU . .
O23 O 0.4406(14) -0.0874(4) 0.1129(6) 0.134(5) Uani 1 1 d DU . .
O24 O 0.2949(11) -0.0806(4) 0.1536(6) 0.109(4) Uani 1 1 d DU . .
O31 O 0.4257(5) 0.3370(2) 0.2542(3) 0.0334(15) Uani 1 1 d . . .
O32 O 0.5629(6) 0.3323(2) 0.2045(3) 0.0375(16) Uani 1 1 d . . .
C301 C 0.5073(8) 0.3518(3) 0.2350(4) 0.032(2) Uani 1 1 d . . .
C302 C 0.5413(9) 0.3983(3) 0.2515(4) 0.041(2) Uani 1 1 d . . .
C303 C 0.4884(9) 0.4211(3) 0.2878(4) 0.040(2) Uani 1 1 d . . .
H303 H 0.4277 0.4082 0.3016 0.049 Uiso 1 1 calc R . .
C304 C 0.5231(11) 0.4630(3) 0.3047(5) 0.050(3) Uani 1 1 d . . .
C305 C 0.4783(12) 0.4869(4) 0.3453(5) 0.062(4) Uani 1 1 d . . .
H305 H 0.4204 0.4744 0.3617 0.075 Uiso 1 1 calc R . .
C306 C 0.5167(13) 0.5274(4) 0.3613(6) 0.071(4) Uani 1 1 d . . .
H306 H 0.4834 0.5430 0.3878 0.085 Uiso 1 1 calc R . .
C307 C 0.6030(14) 0.5461(4) 0.3398(6) 0.074(5) Uani 1 1 d . . .
C308 C 0.6537(12) 0.5248(4) 0.3024(6) 0.067(4) Uani 1 1 d U . .
H308 H 0.7144 0.5376 0.2887 0.080 Uiso 1 1 calc R . .
C309 C 0.6139(12) 0.4823(4) 0.2840(6) 0.066(4) Uani 1 1 d . . .
C310 C 0.6656(14) 0.4581(5) 0.2466(7) 0.080(4) Uani 1 1 d U . .
H310 H 0.7265 0.4704 0.2325 0.096 Uiso 1 1 calc R . .
C311 C 0.6300(13) 0.4172(4) 0.2300(6) 0.072(4) Uani 1 1 d U . .
H311 H 0.6651 0.4016 0.2042 0.086 Uiso 1 1 calc R . .
C312 C 0.6573(12) 0.5906(4) 0.3606(6) 0.065(4) Uani 1 1 d . . .
O33 O 0.7211(8) 0.6088(3) 0.3368(4) 0.074(3) Uani 1 1 d . . .
O34 O 0.6225(9) 0.6031(3) 0.4040(5) 0.090(4) Uani 1 1 d . . .
O41 O 0.3550(6) 0.3670(2) 0.4265(3) 0.0384(16) Uani 1 1 d . . .
O42 O 0.3753(6) 0.3340(2) 0.5074(3) 0.0375(16) Uani 1 1 d . . .
C401 C 0.4118(7) 0.3527(3) 0.4683(4) 0.029(2) Uani 1 1 d . . .
C402 C 0.5332(8) 0.3567(3) 0.4698(5) 0.043(3) Uani 1 1 d . . .
C403 C 0.6026(10) 0.3518(3) 0.5170(6) 0.051(3) Uani 1 1 d . . .
H403 H 0.5744 0.3465 0.5501 0.061 Uiso 1 1 calc R . .
C404 C 0.7227(10) 0.3546(3) 0.5169(4) 0.042(3) Uani 1 1 d . . .
C405 C 0.7913(9) 0.3484(4) 0.5636(5) 0.051(3) Uani 1 1 d . . .
H405 H 0.7636 0.3435 0.5970 0.061 Uiso 1 1 calc R . .
C406 C 0.9020(9) 0.3492(4) 0.5620(5) 0.052(3) Uani 1 1 d . . .
H406 H 0.9515 0.3460 0.5949 0.062 Uiso 1 1 calc R . .
C407 C 0.9443(8) 0.3549(3) 0.5107(5) 0.038(2) Uani 1 1 d . . .
C408 C 0.8757(9) 0.3607(3) 0.4653(5) 0.044(3) Uani 1 1 d . . .
H408 H 0.9038 0.3643 0.4318 0.053 Uiso 1 1 calc R . .
C409 C 0.7538(10) 0.3616(3) 0.4655(4) 0.040(2) Uani 1 1 d . . .
C410 C 0.6834(10) 0.3667(4) 0.4174(5) 0.049(3) Uani 1 1 d . . .
H410 H 0.7110 0.3710 0.3838 0.059 Uiso 1 1 calc R . .
C411 C 0.5749(10) 0.3656(4) 0.4189(5) 0.051(3) Uani 1 1 d . . .
H411 H 0.5251 0.3707 0.3865 0.061 Uiso 1 1 calc R . .
C412 C 1.0636(7) 0.3517(3) 0.5111(4) 0.0281(19) Uani 1 1 d . . .
O43 O 1.1232(5) 0.3588(2) 0.5563(3) 0.0323(14) Uani 1 1 d . . .
O44 O 1.1016(5) 0.3408(2) 0.4688(3) 0.0345(15) Uani 1 1 d . . .
O1D O 0.2247(11) 0.4209(3) 0.4870(5) 0.100(3) Uani 1 1 d U . .
C1D C 0.2721(18) 0.4534(5) 0.4740(9) 0.108(4) Uani 1 1 d U . .
H1D H 0.3181 0.4517 0.4464 0.130 Uiso 1 1 calc R . .
N1D N 0.2590(14) 0.4909(4) 0.4986(7) 0.106(4) Uani 1 1 d DU . .
C2D C 0.1784(18) 0.5060(6) 0.5268(10) 0.131(5) Uani 1 1 d DU . .
H2D1 H 0.1937 0.5365 0.5377 0.196 Uiso 1 1 calc R . .
H2D2 H 0.1767 0.4880 0.5594 0.196 Uiso 1 1 calc R . .
H2D3 H 0.1073 0.5043 0.5034 0.196 Uiso 1 1 calc R . .
C3D C 0.3400(18) 0.5224(6) 0.4889(9) 0.121(5) Uani 1 1 d DU . .
H3D1 H 0.3257 0.5502 0.5063 0.181 Uiso 1 1 calc R . .
H3D2 H 0.3371 0.5269 0.4495 0.181 Uiso 1 1 calc R . .
H3D3 H 0.4129 0.5116 0.5042 0.181 Uiso 1 1 calc R . .
O1S O 0.0618(10) 0.2065(4) 0.4793(5) 0.087(3) Uani 1 1 d DU . .
C11S C 0.1220(15) 0.1766(5) 0.4751(7) 0.088(4) Uani 1 1 d DU . .
H11S H 0.1820 0.1802 0.4553 0.106 Uiso 1 1 calc R . .
N1S N 0.1049(15) 0.1375(5) 0.4985(7) 0.116(4) Uani 1 1 d DU . .
C12S C 0.0174(17) 0.1289(7) 0.5339(9) 0.121(5) Uani 1 1 d DU . .
H12C H 0.0197 0.0980 0.5448 0.181 Uiso 1 1 calc R . .
H12D H -0.0547 0.1356 0.5134 0.181 Uiso 1 1 calc R . .
H12E H 0.0302 0.1474 0.5666 0.181 Uiso 1 1 calc R . .
C13S C 0.196(2) 0.1051(7) 0.5031(10) 0.132(5) Uani 1 1 d U . .
H13C H 0.1732 0.0779 0.5190 0.198 Uiso 1 1 calc R . .
H13D H 0.2603 0.1171 0.5265 0.198 Uiso 1 1 calc R . .
H13E H 0.2155 0.0991 0.4667 0.198 Uiso 1 1 calc R . .
O2S O 0.8131(14) 0.3955(4) 0.1370(7) 0.131(4) Uani 1 1 d DU . .
C21S C 0.8475(17) 0.4337(6) 0.1410(8) 0.114(4) Uani 1 1 d DU . .
H21S H 0.8267 0.4542 0.1125 0.137 Uiso 1 1 calc R . .
N2S N 0.9143(15) 0.4457(4) 0.1861(6) 0.107(4) Uani 1 1 d DU . .
C22S C 0.9506(18) 0.4908(5) 0.1927(8) 0.110(5) Uani 1 1 d DU . .
H22C H 0.9994 0.4940 0.2274 0.165 Uiso 1 1 calc R . .
H22D H 0.8869 0.5100 0.1927 0.165 Uiso 1 1 calc R . .
H22E H 0.9900 0.4989 0.1625 0.165 Uiso 1 1 calc R . .
C23S C 0.946(2) 0.4133(6) 0.2274(8) 0.122(5) Uani 1 1 d DU . .
H23C H 0.9946 0.4266 0.2577 0.182 Uiso 1 1 calc R . .
H23D H 0.9841 0.3893 0.2119 0.182 Uiso 1 1 calc R . .
H23E H 0.8803 0.4019 0.2408 0.182 Uiso 1 1 calc R . .
O3S O -0.2119(14) 0.0536(5) 0.3559(7) 0.148(5) Uani 1 1 d DU . .
C31S C -0.2280(15) 0.0848(7) 0.3221(10) 0.133(5) Uani 1 1 d DU . .
H31S H -0.2643 0.0786 0.2864 0.160 Uiso 1 1 calc R . .
N3S N -0.1982(11) 0.1236(6) 0.3335(7) 0.127(4) Uani 1 1 d DU . .
C32S C -0.2175(16) 0.1579(6) 0.2941(8) 0.117(5) Uani 1 1 d DU . .
H32A H -0.1951 0.1860 0.3114 0.175 Uiso 1 1 calc R . .
H32B H -0.2957 0.1590 0.2795 0.175 Uiso 1 1 calc R . .
H32C H -0.1750 0.1524 0.2642 0.175 Uiso 1 1 calc R . .
C33S C -0.143(2) 0.1377(8) 0.3854(9) 0.149(6) Uani 1 1 d DU . .
H33A H -0.1314 0.1695 0.3849 0.223 Uiso 1 1 calc R . .
H33B H -0.0713 0.1230 0.3930 0.223 Uiso 1 1 calc R . .
H33C H -0.1869 0.1303 0.4140 0.223 Uiso 1 1 calc R . .
O4S O 0.0570(17) 0.1515(6) 0.2521(8) 0.192(7) Uani 1 1 d DU . .
C41S C 0.046(2) 0.1125(8) 0.2623(12) 0.205(8) Uani 1 1 d DU . .
H41S H -0.0002 0.0965 0.2351 0.246 Uiso 1 1 calc R . .
N4S 