####################################################################### 
# 
# This file contains crystal structure data downloaded from the 
# Cambridge Structural Database (CSD) hosted by the Cambridge 
# Crystallographic Data Centre (CCDC).
# 
# Full information about CCDC data access policies and citation 
# guidelines are available at http://www.ccdc.cam.ac.uk/access/V1 
# 
# Audit and citation data items may have been added by the CCDC. 
# Please retain this information to preserve the provenance of 
# this file and to allow appropriate attribution of the data. 
# 
#######################################################################

data_compound3
_audit_block_doi                 10.5517/ccvfx27
_database_code_depnum_ccdc_archive 'CCDC 787929'
loop_
_citation_id
_citation_doi
_citation_year
1 10.1039/c0dt00999g 2011
_audit_update_record             
;
2010-08-09 deposited with the CCDC.	2024-07-08 downloaded from the CCDC.
;
#TrackingRef '2065_web_deposit_cif_file_0_DenisG.Samsonenko_1281333071.cif'


_audit_creation_method           SHELXL-97
_chemical_name_systematic        
;
?
;
_chemical_name_common            ?
_chemical_melting_point          ?
_chemical_formula_structural     
'(Zn4 (C3 H7 N O) (C6 H12 N4)2 (C12 H6 O4)4) . 6(C6 H6)'
_chemical_formula_sum            'C99 H91 N9 O17 Zn4'
_chemical_formula_weight         1940.29

loop_
_atom_type_symbol
_atom_type_description
_atom_type_scat_dispersion_real
_atom_type_scat_dispersion_imag
_atom_type_scat_source
C C 0.0033 0.0016 'International Tables Vol C Tables 4.2.6.8 and 6.1.1.4'
H H 0.0000 0.0000 'International Tables Vol C Tables 4.2.6.8 and 6.1.1.4'
N N 0.0061 0.0033 'International Tables Vol C Tables 4.2.6.8 and 6.1.1.4'
O O 0.0106 0.0060 'International Tables Vol C Tables 4.2.6.8 and 6.1.1.4'
Zn Zn 0.2839 1.4301 'International Tables Vol C Tables 4.2.6.8 and 6.1.1.4'

_symmetry_cell_setting           Monoclinic
_symmetry_space_group_name_H-M   'P 1 21/n 1'

loop_
_symmetry_equiv_pos_as_xyz
'x, y, z'
'-x+1/2, y+1/2, -z+1/2'
'-x, -y, -z'
'x-1/2, -y-1/2, z-1/2'

_cell_length_a                   12.2527(2)
_cell_length_b                   31.2515(5)
_cell_length_c                   24.7184(4)
_cell_angle_alpha                90.00
_cell_angle_beta                 97.023(1)
_cell_angle_gamma                90.00
_cell_volume                     9394.0(3)
_cell_formula_units_Z            4
_cell_measurement_temperature    150(2)
_cell_measurement_reflns_used    9646
_cell_measurement_theta_min      2.57
_cell_measurement_theta_max      30.49

_exptl_crystal_description       block
_exptl_crystal_colour            colorless
_exptl_crystal_size_max          0.20
_exptl_crystal_size_mid          0.18
_exptl_crystal_size_min          0.12
_exptl_crystal_density_meas      ?
_exptl_crystal_density_diffrn    1.372
_exptl_crystal_density_method    'not measured'
_exptl_crystal_F_000             4016
_exptl_absorpt_coefficient_mu    1.080

_exptl_absorpt_correction_type   multi-scan
_exptl_absorpt_correction_T_min  0.8130
_exptl_absorpt_correction_T_max  0.8813
_exptl_absorpt_process_details   'SADABS (Bruker-AXS, 2004)'

_exptl_special_details           
;
?
;

_diffrn_radiation_probe          x-ray
_diffrn_ambient_temperature      150(2)
_diffrn_radiation_wavelength     0.71073
_diffrn_radiation_type           MoK\a
_diffrn_radiation_source         'fine-focus sealed tube'
_diffrn_radiation_monochromator  graphite
_diffrn_measurement_device_type  'Bruker Nonius X8Apex CCD'
_diffrn_measurement_method       '\f and \w scans'
_diffrn_detector_area_resol_mean 25
_diffrn_standards_number         0
_diffrn_standards_interval_count 0
_diffrn_standards_interval_time  0
_diffrn_standards_decay_%        0
_diffrn_reflns_number            125023
_diffrn_reflns_av_R_equivalents  0.0279
_diffrn_reflns_av_sigmaI/netI    0.0264
_diffrn_reflns_limit_h_min       -17
_diffrn_reflns_limit_h_max       17
_diffrn_reflns_limit_k_min       -44
_diffrn_reflns_limit_k_max       39
_diffrn_reflns_limit_l_min       -35
_diffrn_reflns_limit_l_max       32
_diffrn_reflns_theta_min         2.06
_diffrn_reflns_theta_max         30.52
_reflns_number_total             28654
_reflns_number_gt                23680
_reflns_threshold_expression     >2\s(I)


_computing_data_collection       'APEX2 (Bruker-AXS, 2004)'
_computing_cell_refinement       'SAINT (Bruker-AXS, 2004)'
_computing_data_reduction        'SAINT (Bruker-AXS, 2004)'
_computing_structure_solution    'SHELXS-97 (Sheldrick, 1998)'
_computing_structure_refinement  'SHELXL-97 (Sheldrick, 1998)'
_computing_molecular_graphics    'SHELXTL (Bruker-AXS, 2004)'
_computing_publication_material  'CIFTAB-97 (Sheldrick, 1998)'

_refine_special_details          
;
Refinement of F^2^ against ALL reflections. The weighted R-factor wR and
goodness of fit S are based on F^2^, conventional R-factors R are based
on F, with F set to zero for negative F^2^. The threshold expression of
F^2^ > 2sigma(F^2^) is used only for calculating R-factors(gt) etc. and is
not relevant to the choice of reflections for refinement. R-factors based
on F^2^ are statistically about twice as large as those based on F, and R-
factors based on ALL data will be even larger.
;

_refine_ls_structure_factor_coef Fsqd
_refine_ls_matrix_type           full
_refine_ls_weighting_scheme      calc
_refine_ls_weighting_details     
'calc w=1/[\s^2^(Fo^2^)+(0.0393P)^2^+7.9130P] where P=(Fo^2^+2Fc^2^)/3'
_atom_sites_solution_primary     direct
_atom_sites_solution_secondary   difmap
_atom_sites_solution_hydrogens   geom
_refine_ls_hydrogen_treatment    constr
_refine_ls_extinction_method     none
_refine_ls_extinction_coef       0
_refine_ls_number_reflns         28654
_refine_ls_number_parameters     1162
_refine_ls_number_restraints     90
_refine_ls_R_factor_all          0.0492
_refine_ls_R_factor_gt           0.0367
_refine_ls_wR_factor_ref         0.0916
_refine_ls_wR_factor_gt          0.0879
_refine_ls_goodness_of_fit_ref   1.037
_refine_ls_restrained_S_all      1.062
_refine_ls_shift/su_max          0.005
_refine_ls_shift/su_mean         0.000

loop_
_atom_site_label
_atom_site_type_symbol
_atom_site_fract_x
_atom_site_fract_y
_atom_site_fract_z
_atom_site_U_iso_or_equiv
_atom_site_adp_type
_atom_site_occupancy
_atom_site_symmetry_multiplicity
_atom_site_calc_flag
_atom_site_refinement_flags
_atom_site_disorder_assembly
_atom_site_disorder_group
Zn1 Zn 0.410385(14) 0.740928(6) 0.793470(7) 0.01289(4) Uani 1 1 d . . .
Zn2 Zn 0.612101(14) 0.729109(6) 0.746230(7) 0.01289(4) Uani 1 1 d . . .
Zn3 Zn 0.701400(15) 0.638833(6) 0.433855(8) 0.01519(4) Uani 1 1 d . . .
Zn4 Zn 0.796961(15) 0.623836(6) 0.581041(8) 0.01514(4) Uani 1 1 d . . .
O1D O 0.76157(14) 0.57715(5) 0.51274(7) 0.0401(4) Uani 1 1 d . . .
C1D C 0.7049(2) 0.54516(8) 0.51838(11) 0.0437(6) Uani 1 1 d . . .
H1D H 0.6463 0.5479 0.5400 0.052 Uiso 1 1 calc R . .
N1D N 0.7197(3) 0.50769(7) 0.49667(10) 0.0588(7) Uani 1 1 d . . .
C2D C 0.8048(4) 0.50081(14) 0.4630(2) 0.1020(16) Uani 1 1 d . . .
H2D1 H 0.8038 0.4708 0.4513 0.153 Uiso 1 1 calc R . .
H2D2 H 0.8762 0.5074 0.4837 0.153 Uiso 1 1 calc R . .
H2D3 H 0.7928 0.5195 0.4310 0.153 Uiso 1 1 calc R . .
C3D C 0.6485(4) 0.47136(12) 0.50532(19) 0.1014(16) Uani 1 1 d . . .
H3D1 H 0.6728 0.4462 0.4864 0.152 Uiso 1 1 calc R . .
H3D2 H 0.5725 0.4783 0.4909 0.152 Uiso 1 1 calc R . .
H3D3 H 0.6527 0.4653 0.5444 0.152 Uiso 1 1 calc R . .
N11 N 0.26836(11) 0.75343(4) 0.82882(5) 0.0140(2) Uani 1 1 d . . .
N12 N 0.18274(11) 0.80260(4) 0.88902(6) 0.0150(2) Uani 1 1 d . . .
N13 N 0.14769(13) 0.72531(5) 0.89230(7) 0.0226(3) Uani 1 1 d . . .
N14 N 0.07033(12) 0.76705(5) 0.81313(7) 0.0217(3) Uani 1 1 d . . .
C11 C 0.28182(12) 0.79350(5) 0.86165(6) 0.0145(3) Uani 1 1 d . . .
H11A H 0.3467 0.7907 0.8895 0.017 Uiso 1 1 calc R . .
H11B H 0.2951 0.8178 0.8375 0.017 Uiso 1 1 calc R . .
C12 C 0.16921(13) 0.75852(6) 0.78707(7) 0.0185(3) Uani 1 1 d . . .
H12A H 0.1816 0.7824 0.7623 0.022 Uiso 1 1 calc R . .
H12B H 0.1584 0.7321 0.7650 0.022 Uiso 1 1 calc R . .
C13 C 0.24615(14) 0.71732(5) 0.86596(7) 0.0195(3) Uani 1 1 d . . .
H13A H 0.2366 0.6905 0.8447 0.023 Uiso 1 1 calc R . .
H13B H 0.3101 0.7137 0.8942 0.023 Uiso 1 1 calc R . .
C14 C 0.08616(13) 0.80613(6) 0.84544(7) 0.0197(3) Uani 1 1 d . . .
H14A H 0.0189 0.8121 0.8626 0.024 Uiso 1 1 calc R . .
H14B H 0.0980 0.8304 0.8211 0.024 Uiso 1 1 calc R . .
C15 C 0.16310(15) 0.76484(5) 0.92408(7) 0.0211(3) Uani 1 1 d . . .
H15A H 0.2266 0.7614 0.9526 0.025 Uiso 1 1 calc R . .
H15B H 0.0970 0.7702 0.9424 0.025 Uiso 1 1 calc R . .
C16 C 0.05375(15) 0.73121(6) 0.84962(9) 0.0268(4) Uani 1 1 d . . .
H16A H 0.0425 0.7046 0.8279 0.032 Uiso 1 1 calc R . .
H16B H -0.0136 0.7364 0.8671 0.032 Uiso 1 1 calc R . .
N21 N 0.74873(11) 0.72047(4) 0.70623(5) 0.0137(2) Uani 1 1 d . . .
N22 N 0.82428(10) 0.67836(4) 0.63538(6) 0.0139(2) Uani 1 1 d . . .
N23 N 0.85064(12) 0.75615(5) 0.63988(6) 0.0194(3) Uani 1 1 d . . .
N24 N 0.94768(11) 0.71057(5) 0.71024(6) 0.0197(3) Uani 1 1 d . . .
C21 C 0.73222(12) 0.68292(5) 0.66890(6) 0.0138(3) Uani 1 1 d . . .
H21A H 0.7266 0.6566 0.6907 0.017 Uiso 1 1 calc R . .
H21B H 0.6624 0.6864 0.6446 0.017 Uiso 1 1 calc R . .
C22 C 0.75942(14) 0.75970(5) 0.67215(7) 0.0174(3) Uani 1 1 d . . .
H22A H 0.6903 0.7640 0.6475 0.021 Uiso 1 1 calc R . .
H22B H 0.7708 0.7850 0.6963 0.021 Uiso 1 1 calc R . .
C23 C 0.85535(13) 0.71433(6) 0.74225(7) 0.0181(3) Uani 1 1 d . . .
H23A H 0.8680 0.7389 0.7675 0.022 Uiso 1 1 calc R . .
H23B H 0.8509 0.6881 0.7644 0.022 Uiso 1 1 calc R . .
C24 C 0.83235(14) 0.71910(5) 0.60403(7) 0.0178(3) Uani 1 1 d . . .
H24A H 0.8937 0.7167 0.5816 0.021 Uiso 1 1 calc R . .
H24B H 0.7636 0.7233 0.5791 0.021 Uiso 1 1 calc R . .
C25 C 0.92864(13) 0.67377(5) 0.67346(7) 0.0184(3) Uani 1 1 d . . .
H25A H 0.9249 0.6474 0.6953 0.022 Uiso 1 1 calc R . .
H25B H 0.9913 0.6709 0.6519 0.022 Uiso 1 1 calc R . .
C26 C 0.95273(14) 0.74961(6) 0.67706(8) 0.0226(4) Uani 1 1 d . . .
H26A H 0.9655 0.7747 0.7015 0.027 Uiso 1 1 calc R . .
H26B H 1.0155 0.7474 0.6555 0.027 Uiso 1 1 calc R . .
O11 O 0.50796(10) 0.74378(4) 0.67597(5) 0.0213(2) Uani 1 1 d . . .
O12 O 0.35083(10) 0.73779(4) 0.71368(5) 0.0216(3) Uani 1 1 d . . .
C101 C 0.40450(14) 0.74231(5) 0.67341(7) 0.0173(3) Uani 1 1 d . . .
C102 C 0.33687(14) 0.74601(6) 0.61880(7) 0.0188(3) Uani 1 1 d . . .
C103 C 0.38265(14) 0.76053(6) 0.57422(7) 0.0207(3) Uani 1 1 d . . .
H103 H 0.4583 0.7681 0.5779 0.025 Uiso 1 1 calc R . .
C104 C 0.31798(14) 0.76433(6) 0.52245(7) 0.0195(3) Uani 1 1 d . . .
C105 C 0.36280(15) 0.77948(7) 0.47579(7) 0.0261(4) Uani 1 1 d . . .
H105 H 0.4374 0.7884 0.4789 0.031 Uiso 1 1 calc R . .
C106 C 0.29892(15) 0.78137(7) 0.42625(7) 0.0248(4) Uani 1 1 d . . .
H106 H 0.3301 0.7911 0.3951 0.030 Uiso 1 1 calc R . .
C107 C 0.18659(14) 0.76887(6) 0.42099(7) 0.0185(3) Uani 1 1 d . . .
C108 C 0.14091(14) 0.75530(6) 0.46583(7) 0.0200(3) Uani 1 1 d . . .
H108 H 0.0654 0.7476 0.4623 0.024 Uiso 1 1 calc R . .
C109 C 0.20507(14) 0.75258(6) 0.51772(7) 0.0192(3) Uani 1 1 d . . .
C110 C 0.16016(14) 0.73752(7) 0.56419(7) 0.0248(4) Uani 1 1 d . . .
H110 H 0.0849 0.7295 0.5612 0.030 Uiso 1 1 calc R . .
C111 C 0.22409(14) 0.73434(7) 0.61356(7) 0.0239(4) Uani 1 1 d . . .
H111 H 0.1927 0.7243 0.6445 0.029 Uiso 1 1 calc R . .
C112 C 0.11986(14) 0.76978(5) 0.36550(7) 0.0181(3) Uani 1 1 d . . .
O13 O 0.01960(10) 0.75934(4) 0.36235(5) 0.0222(3) Uani 1 1 d . . .
O14 O 0.16993(11) 0.78043(5) 0.32619(5) 0.0251(3) Uani 1 1 d . . .
O21 O 0.62621(11) 0.79278(4) 0.76145(6) 0.0243(3) Uani 1 1 d . . .
O22 O 0.45516(11) 0.80361(4) 0.78192(5) 0.0223(3) Uani 1 1 d . . .
C201 C 0.55004(14) 0.81612(5) 0.77496(7) 0.0181(3) Uani 1 1 d . . .
C202 C 0.57753(14) 0.86255(5) 0.78490(7) 0.0184(3) Uani 1 1 d . . .
C203 C 0.68495(16) 0.87762(6) 0.77905(9) 0.0265(4) Uani 1 1 d . . .
H203 H 0.7370 0.8588 0.7662 0.032 Uiso 1 1 calc R . .
C204 C 0.71380(16) 0.91894(6) 0.79185(9) 0.0302(4) Uani 1 1 d . . .
H204 H 0.7859 0.9286 0.7879 0.036 Uiso 1 1 calc R . .
C205 C 0.63723(15) 0.94770(6) 0.81107(8) 0.0229(3) Uani 1 1 d . . .
C206 C 0.66534(16) 0.99034(6) 0.82606(9) 0.0271(4) Uani 1 1 d . . .
H206 H 0.7369 1.0007 0.8222 0.032 Uiso 1 1 calc R . .
C207 C 0.59070(17) 1.01692(6) 0.84609(8) 0.0255(4) Uani 1 1 d . . .
C208 C 0.48326(17) 1.00216(6) 0.85133(9) 0.0299(4) Uani 1 1 d . . .
H208 H 0.4316 1.0208 0.8647 0.036 Uiso 1 1 calc R . .
C209 C 0.45349(16) 0.96094(6) 0.83713(9) 0.0273(4) Uani 1 1 d . . .
H209 H 0.3815 0.9512 0.8411 0.033 Uiso 1 1 calc R . .
C210 C 0.52931(14) 0.93280(5) 0.81658(7) 0.0199(3) Uani 1 1 d . . .
C211 C 0.50129(14) 0.88982(5) 0.80263(7) 0.0197(3) Uani 1 1 d . . .
H211 H 0.4291 0.8798 0.8056 0.024 Uiso 1 1 calc R . .
C212 C 0.62519(19) 1.06083(6) 0.86594(8) 0.0295(4) Uani 1 1 d . . .
O23 O 0.56001(15) 1.08381(5) 0.88829(7) 0.0391(4) Uani 1 1 d . . .
O24 O 0.72230(13) 1.07329(5) 0.86244(7) 0.0349(3) Uani 1 1 d . . .
O31 O 0.54670(11) 0.67017(4) 0.74177(5) 0.0229(3) Uani 1 1 d . . .
O32 O 0.40847(11) 0.67506(4) 0.79315(5) 0.0223(3) Uani 1 1 d . . .
C301 C 0.46670(14) 0.65482(5) 0.76294(7) 0.0181(3) Uani 1 1 d . . .
C302 C 0.43791(14) 0.60902(5) 0.74934(7) 0.0194(3) Uani 1 1 d . . .
C303 C 0.49730(14) 0.58689(5) 0.71463(7) 0.0190(3) Uani 1 1 d . . .
H303 H 0.5594 0.6000 0.7020 0.023 Uiso 1 1 calc R . .
C304 C 0.46694(14) 0.54487(5) 0.69760(7) 0.0192(3) Uani 1 1 d . . .
C305 C 0.52383(16) 0.52234(6) 0.65967(8) 0.0249(4) Uani 1 1 d . . .
H305 H 0.5860 0.5350 0.6465 0.030 Uiso 1 1 calc R . .
C306 C 0.48927(17) 0.48237(6) 0.64197(8) 0.0275(4) Uani 1 1 d . . .
H306 H 0.5271 0.4678 0.6162 0.033 Uiso 1 1 calc R . .
C307 C 0.39804(16) 0.46267(6) 0.66170(8) 0.0237(4) Uani 1 1 d . . .
C308 C 0.34430(16) 0.48324(6) 0.69977(8) 0.0255(4) Uani 1 1 d . . .
H308 H 0.2854 0.4693 0.7142 0.031 Uiso 1 1 calc R . .
C309 C 0.37544(15) 0.52508(6) 0.71790(8) 0.0225(3) Uani 1 1 d . . .
C310 C 0.31707(17) 0.54824(6) 0.75483(9) 0.0301(4) Uani 1 1 d . . .
H310 H 0.2567 0.5352 0.7691 0.036 Uiso 1 1 calc R . .
C311 C 0.34707(17) 0.58906(6) 0.76985(9) 0.0284(4) Uani 1 1 d . . .
H311 H 0.3069 0.6042 0.7942 0.034 Uiso 1 1 calc R . .
C312 C 0.35456(16) 0.42029(6) 0.63898(8) 0.0251(4) Uani 1 1 d . . .
O33 O 0.28150(12) 0.40091(5) 0.65956(7) 0.0348(3) Uani 1 1 d . . .
O34 O 0.39500(12) 0.40679(5) 0.59671(6) 0.0314(3) Uani 1 1 d . . .
O41 O 0.63425(10) 0.63348(4) 0.57274(5) 0.0220(3) Uani 1 1 d . . .
O42 O 0.61167(10) 0.66093(4) 0.48867(5) 0.0193(2) Uani 1 1 d . . .
C401 C 0.57546(13) 0.64564(5) 0.53037(7) 0.0155(3) Uani 1 1 d . . .
C402 C 0.45392(13) 0.64195(6) 0.53028(7) 0.0180(3) Uani 1 1 d . . .
C403 C 0.38533(13) 0.64683(6) 0.48254(7) 0.0197(3) Uani 1 1 d . . .
H403 H 0.4157 0.6526 0.4497 0.024 Uiso 1 1 calc R . .
C404 C 0.26962(13) 0.64342(6) 0.48147(7) 0.0198(3) Uani 1 1 d . . .
C405 C 0.19712(14) 0.64894(7) 0.43273(7) 0.0247(4) Uani 1 1 d . . .
H405 H 0.2260 0.6535 0.3993 0.030 Uiso 1 1 calc R . .
C406 C 0.08567(14) 0.64777(7) 0.43362(7) 0.0231(4) Uani 1 1 d . . .
H406 H 0.0375 0.6512 0.4008 0.028 Uiso 1 1 calc R . .
C407 C 0.04196(13) 0.64139(6) 0.48358(7) 0.0185(3) Uani 1 1 d . . .
C408 C 0.11031(13) 0.63445(6) 0.53121(7) 0.0211(3) Uani 1 1 d . . .
H408 H 0.0799 0.6293 0.5641 0.025 Uiso 1 1 calc R . .
C409 C 0.22599(14) 0.63499(6) 0.53127(7) 0.0205(3) Uani 1 1 d . . .
C410 C 0.29906(14) 0.62936(7) 0.57991(7) 0.0263(4) Uani 1 1 d . . .
H410 H 0.2703 0.6232 0.6130 0.032 Uiso 1 1 calc R . .
C411 C 0.41035(14) 0.63268(7) 0.57972(7) 0.0240(4) Uani 1 1 d . . .
H411 H 0.4584 0.6288 0.6125 0.029 Uiso 1 1 calc R . .
C412 C -0.07952(13) 0.64359(5) 0.48480(7) 0.0158(3) Uani 1 1 d . . .
O43 O -0.13905(9) 0.63676(4) 0.44016(5) 0.0201(2) Uani 1 1 d . . .
O44 O -0.11478(10) 0.65378(4) 0.52865(5) 0.0202(2) Uani 1 1 d . . .
C11B C 0.2669(3) 0.46192(10) 0.85593(13) 0.0573(7) Uani 1 1 d . . .
H11C H 0.3325 0.4466 0.8522 0.069 Uiso 1 1 calc R . .
C12B C 0.1735(3) 0.45479(10) 0.82028(13) 0.0579(8) Uani 1 1 d . . .
H12C H 0.1749 0.4345 0.7917 0.069 Uiso 1 1 calc R . .
C13B C 0.0779(3) 0.47674(11) 0.82558(13) 0.0614(8) Uani 1 1 d . . .
H13C H 0.0141 0.4718 0.8005 0.074 Uiso 1 1 calc R . .
C14B C 0.0744(3) 0.50574(10) 0.86695(15) 0.0663(9) Uani 1 1 d . . .
H14C H 0.0083 0.5206 0.8709 0.080 Uiso 1 1 calc R . .
C15B C 0.1686(3) 0.51321(11) 0.90316(16) 0.0732(10) Uani 1 1 d . . .
H15C H 0.1669 0.5332 0.9320 0.088 Uiso 1 1 calc R . .
C16B C 0.2646(3) 0.49151(11) 0.89718(15) 0.0683(9) Uani 1 1 d . . .
H16C H 0.3292 0.4970 0.9215 0.082 Uiso 1 1 calc R . .
C21B C 0.6107(3) 0.51848(11) 0.89870(14) 0.0652(8) Uani 1 1 d . . .
H21C H 0.5646 0.5354 0.9183 0.078 Uiso 1 1 calc R . .
C22B C 0.5803(3) 0.50933(11) 0.84536(14) 0.0623(8) Uani 1 1 d . . .
H22C H 0.5119 0.5195 0.8278 0.075 Uiso 1 1 calc R . .
C23B C 0.6470(3) 0.48557(12) 0.81672(16) 0.0747(10) Uani 1 1 d . . .
H23C H 0.6254 0.4800 0.7792 0.090 Uiso 1 1 calc R . .
C24B C 0.7436(3) 0.46990(13) 0.84115(18) 0.0799(11) Uani 1 1 d . . .
H24C H 0.7891 0.4532 0.8208 0.096 Uiso 1 1 calc R . .
C25B C 0.7758(3) 0.47793(14) 0.89471(19) 0.0840(12) Uani 1 1 d . . .
H25C H 0.8431 0.4666 0.9120 0.101 Uiso 1 1 calc R . .
C26B C 0.7096(4) 0.50294(15) 0.92439(15) 0.0823(12) Uani 1 1 d . . .
H26C H 0.7320 0.5092 0.9617 0.099 Uiso 1 1 calc R . .
C31B C 0.4956(3) 0.57845(11) 1.01734(14) 0.0671(9) Uani 1 1 d . . .
H31B H 0.4961 0.5597 1.0476 0.081 Uiso 1 1 calc R . .
C32B C 0.5903(3) 0.59848(11) 1.00825(15) 0.0687(9) Uani 1 1 d . . .
H32B H 0.6559 0.5936 1.0322 0.082 Uiso 1 1 calc R . .
C33B C 0.59