####################################################################### 
# 
# This file contains crystal structure data downloaded from the 
# Cambridge Structural Database (CSD) hosted by the Cambridge 
# Crystallographic Data Centre (CCDC).
# 
# Full information about CCDC data access policies and citation 
# guidelines are available at http://www.ccdc.cam.ac.uk/access/V1 
# 
# Audit and citation data items may have been added by the CCDC. 
# Please retain this information to preserve the provenance of 
# this file and to allow appropriate attribution of the data. 
# 
#######################################################################

data_compound4
_audit_block_doi                 10.5517/ccvfx38
_database_code_depnum_ccdc_archive 'CCDC 787930'
loop_
_citation_id
_citation_doi
_citation_year
1 10.1039/c0dt00999g 2011
_audit_update_record             
;
2010-08-09 deposited with the CCDC.	2024-07-08 downloaded from the CCDC.
;
#TrackingRef '2065_web_deposit_cif_file_0_DenisG.Samsonenko_1281333071.cif'


_audit_creation_method           SHELXL-97
_chemical_name_systematic        
;
?
;
_chemical_name_common            ?
_chemical_melting_point          ?
_chemical_formula_structural     
'(Zn4 (C3 H7 N O) (C6 H12 N4)2 (C12 H6 O4)4) . 4(Fe (C5 H5)2)'
_chemical_formula_sum            'C103 H95 Fe4 N9 O17 Zn4'
_chemical_formula_weight         2215.76

loop_
_atom_type_symbol
_atom_type_description
_atom_type_scat_dispersion_real
_atom_type_scat_dispersion_imag
_atom_type_scat_source
C C 0.0033 0.0016 'International Tables Vol C Tables 4.2.6.8 and 6.1.1.4'
H H 0.0000 0.0000 'International Tables Vol C Tables 4.2.6.8 and 6.1.1.4'
N N 0.0061 0.0033 'International Tables Vol C Tables 4.2.6.8 and 6.1.1.4'
O O 0.0106 0.0060 'International Tables Vol C Tables 4.2.6.8 and 6.1.1.4'
Fe Fe 0.3463 0.8444 'International Tables Vol C Tables 4.2.6.8 and 6.1.1.4'
Zn Zn 0.2839 1.4301 'International Tables Vol C Tables 4.2.6.8 and 6.1.1.4'

_symmetry_cell_setting           Monoclinic
_symmetry_space_group_name_H-M   'C c'

loop_
_symmetry_equiv_pos_as_xyz
'x, y, z'
'x, -y, z+1/2'
'x+1/2, y+1/2, z'
'x+1/2, -y+1/2, z+1/2'

_cell_length_a                   24.6659(7)
_cell_length_b                   31.3085(12)
_cell_length_c                   12.2751(5)
_cell_angle_alpha                90.00
_cell_angle_beta                 96.306(1)
_cell_angle_gamma                90.00
_cell_volume                     9422.1(6)
_cell_formula_units_Z            4
_cell_measurement_temperature    130(2)
_cell_measurement_reflns_used    9624
_cell_measurement_theta_min      2.60
_cell_measurement_theta_max      27.01

_exptl_crystal_description       block
_exptl_crystal_colour            yellow
_exptl_crystal_size_max          0.09
_exptl_crystal_size_mid          0.08
_exptl_crystal_size_min          0.06
_exptl_crystal_density_meas      ?
_exptl_crystal_density_diffrn    1.562
_exptl_crystal_density_method    'not measured'
_exptl_crystal_F_000             4544
_exptl_absorpt_coefficient_mu    1.672

_exptl_absorpt_correction_type   multi-scan
_exptl_absorpt_correction_T_min  0.8641
_exptl_absorpt_correction_T_max  0.9064
_exptl_absorpt_process_details   'SADABS (Bruker-AXS, 2004)'

_exptl_special_details           
;
?
;

_diffrn_radiation_probe          x-ray
_diffrn_ambient_temperature      130(2)
_diffrn_radiation_wavelength     0.71073
_diffrn_radiation_type           MoK\a
_diffrn_radiation_source         'fine-focus sealed tube'
_diffrn_radiation_monochromator  graphite
_diffrn_measurement_device_type  'Bruker Nonius X8Apex CCD'
_diffrn_measurement_method       '\f scans'
_diffrn_detector_area_resol_mean 25
_diffrn_standards_number         0
_diffrn_standards_interval_count 0
_diffrn_standards_interval_time  0
_diffrn_standards_decay_%        0
_diffrn_reflns_number            36506
_diffrn_reflns_av_R_equivalents  0.0335
_diffrn_reflns_av_sigmaI/netI    0.0513
_diffrn_reflns_limit_h_min       -31
_diffrn_reflns_limit_h_max       18
_diffrn_reflns_limit_k_min       -40
_diffrn_reflns_limit_k_max       40
_diffrn_reflns_limit_l_min       -15
_diffrn_reflns_limit_l_max       15
_diffrn_reflns_theta_min         2.12
_diffrn_reflns_theta_max         27.53
_reflns_number_total             17100
_reflns_number_gt                14533
_reflns_threshold_expression     >2\s(I)


_computing_data_collection       'APEX2 (Bruker-AXS, 2004)'
_computing_cell_refinement       'SAINT (Bruker-AXS, 2004)'
_computing_data_reduction        'SAINT (Bruker-AXS, 2004)'
_computing_structure_solution    'SHELXS-97 (Sheldrick, 1998)'
_computing_structure_refinement  'SHELXL-97 (Sheldrick, 1998)'
_computing_molecular_graphics    'SHELXTL (Bruker-AXS, 2004)'
_computing_publication_material  'CIFTAB-97 (Sheldrick, 1998)'

_refine_special_details          
;
Refinement of F^2^ against ALL reflections. The weighted R-factor wR and
goodness of fit S are based on F^2^, conventional R-factors R are based
on F, with F set to zero for negative F^2^. The threshold expression of
F^2^ > 2sigma(F^2^) is used only for calculating R-factors(gt) etc. and is
not relevant to the choice of reflections for refinement. R-factors based
on F^2^ are statistically about twice as large as those based on F, and R-
factors based on ALL data will be even larger.
;

_refine_ls_structure_factor_coef Fsqd
_refine_ls_matrix_type           full
_refine_ls_weighting_scheme      calc
_refine_ls_weighting_details     
'calc w=1/[\s^2^(Fo^2^)+(0.0284P)^2^+4.6880P] where P=(Fo^2^+2Fc^2^)/3'
_atom_sites_solution_primary     direct
_atom_sites_solution_secondary   difmap
_atom_sites_solution_hydrogens   geom
_refine_ls_hydrogen_treatment    constr
_refine_ls_extinction_method     none
_refine_ls_extinction_coef       0
_refine_ls_abs_structure_details 'Flack H D (1983), Acta Cryst. A39, 876-881'
_refine_ls_abs_structure_Flack   0.488(7)
_refine_ls_number_reflns         17100
_refine_ls_number_parameters     1335
_refine_ls_number_restraints     338
_refine_ls_R_factor_all          0.0482
_refine_ls_R_factor_gt           0.0349
_refine_ls_wR_factor_ref         0.0706
_refine_ls_wR_factor_gt          0.0672
_refine_ls_goodness_of_fit_ref   1.023
_refine_ls_restrained_S_all      1.024
_refine_ls_shift/su_max          0.002
_refine_ls_shift/su_mean         0.000

loop_
_atom_site_label
_atom_site_type_symbol
_atom_site_fract_x
_atom_site_fract_y
_atom_site_fract_z
_atom_site_U_iso_or_equiv
_atom_site_adp_type
_atom_site_occupancy
_atom_site_symmetry_multiplicity
_atom_site_calc_flag
_atom_site_refinement_flags
_atom_site_disorder_assembly
_atom_site_disorder_group
Zn1 Zn 0.138766(16) 0.744858(13) 0.18676(3) 0.01198(9) Uani 1 1 d . . .
Zn2 Zn 0.088562(16) 0.755778(13) 0.38620(3) 0.01207(9) Uani 1 1 d . . .
Zn3 Zn 0.432659(17) 0.631285(13) 0.07069(3) 0.01367(10) Uani 1 1 d . . .
Zn4 Zn 0.287107(17) 0.627448(14) -0.01809(3) 0.01368(10) Uani 1 1 d . . .
Fe1 Fe 0.69082(3) 0.40714(2) 0.71065(5) 0.03147(15) Uani 1 1 d . . .
C10F C 0.70707(18) 0.38725(17) 0.8697(4) 0.0404(12) Uani 1 1 d . . .
H10F H 0.7351 0.3679 0.8965 0.048 Uiso 1 1 calc R . .
C11F C 0.7473(2) 0.43033(15) 0.6167(4) 0.0415(12) Uani 1 1 d . . .
H11F H 0.7758 0.4499 0.6392 0.050 Uiso 1 1 calc R . .
C12F C 0.7003(2) 0.36875(19) 0.5800(5) 0.0554(16) Uani 1 1 d . . .
H12F H 0.6911 0.3393 0.5735 0.066 Uiso 1 1 calc R . .
C13F C 0.6948(2) 0.44100(19) 0.5710(4) 0.0506(14) Uani 1 1 d . . .
H13F H 0.6810 0.4691 0.5579 0.061 Uiso 1 1 calc R . .
C14F C 0.7511(2) 0.38495(16) 0.6238(4) 0.0461(13) Uani 1 1 d . . .
H14F H 0.7820 0.3688 0.6526 0.055 Uiso 1 1 calc R . .
C15F C 0.6653(2) 0.4025(2) 0.5474(4) 0.0549(16) Uani 1 1 d . . .
H15F H 0.6286 0.4001 0.5154 0.066 Uiso 1 1 calc R . .
C16F C 0.65227(19) 0.37609(15) 0.8285(4) 0.0325(11) Uani 1 1 d . . .
H16F H 0.6374 0.3481 0.8240 0.039 Uiso 1 1 calc R . .
C17F C 0.6242(2) 0.41417(14) 0.7958(4) 0.0347(11) Uani 1 1 d . . .
H17F H 0.5873 0.4161 0.7650 0.042 Uiso 1 1 calc R . .
C18F C 0.6606(2) 0.44881(15) 0.8166(4) 0.0404(12) Uani 1 1 d . . .
H18F H 0.6523 0.4780 0.8020 0.048 Uiso 1 1 calc R . .
C19F C 0.7120(2) 0.43237(18) 0.8634(4) 0.0497(15) Uani 1 1 d . . .
H19F H 0.7438 0.4487 0.8861 0.060 Uiso 1 1 calc R . .
Fe2 Fe 0.80038(3) 0.41198(2) 0.25028(6) 0.03386(17) Uani 1 1 d . . .
C20F C 0.7524(2) 0.45319(16) 0.1551(4) 0.0455(13) Uani 1 1 d . . .
H20F H 0.7305 0.4462 0.0890 0.055 Uiso 1 1 calc R . .
C21F C 0.8073(2) 0.46680(15) 0.1632(5) 0.0482(14) Uani 1 1 d . . .
H21F H 0.8288 0.4705 0.1043 0.058 Uiso 1 1 calc R . .
C22F C 0.8242(2) 0.47387(15) 0.2764(6) 0.0541(16) Uani 1 1 d . . .
H22F H 0.8591 0.4834 0.3071 0.065 Uiso 1 1 calc R . .
C23F C 0.7796(2) 0.46426(14) 0.3346(4) 0.0443(13) Uani 1 1 d . . .
H23F H 0.7791 0.4659 0.4118 0.053 Uiso 1 1 calc R . .
C24F C 0.73596(19) 0.45174(15) 0.2581(4) 0.0429(13) Uani 1 1 d . . .
H24F H 0.7007 0.4436 0.2750 0.052 Uiso 1 1 calc R . .
C25F C 0.7999(2) 0.35426(16) 0.1702(5) 0.0506(15) Uani 1 1 d . . .
H25F H 0.7845 0.3482 0.0976 0.061 Uiso 1 1 calc R . .
C26F C 0.8529(2) 0.36721(15) 0.2004(6) 0.0520(16) Uani 1 1 d . . .
H26F H 0.8796 0.3724 0.1517 0.062 Uiso 1 1 calc R . .
C27F C 0.7717(2) 0.35148(15) 0.2668(5) 0.0498(15) Uani 1 1 d . . .
H27F H 0.7345 0.3441 0.2696 0.060 Uiso 1 1 calc R . .
C28F C 0.8108(2) 0.36196(15) 0.3572(5) 0.0457(13) Uani 1 1 d . . .
H28F H 0.8049 0.3626 0.4324 0.055 Uiso 1 1 calc R . .
C29F C 0.8608(2) 0.37140(14) 0.3124(6) 0.0513(15) Uani 1 1 d . . .
H29F H 0.8941 0.3793 0.3537 0.062 Uiso 1 1 calc R . .
Fe3 Fe 0.03240(3) 0.58066(2) 0.79788(8) 0.0479(2) Uani 1 1 d . . .
C30F C 0.0064(2) 0.53624(16) 0.6820(5) 0.0531(15) Uani 1 1 d . . .
H30F H 0.0078 0.5387 0.6052 0.064 Uiso 1 1 calc R . .
C31F C -0.0370(2) 0.54920(16) 0.7386(7) 0.068(2) Uani 1 1 d . . .
H31F H -0.0701 0.5619 0.7071 0.082 Uiso 1 1 calc R . .
C32F C -0.0230(2) 0.53996(17) 0.8518(6) 0.0632(19) Uani 1 1 d . . .
H32F H -0.0447 0.5456 0.9095 0.076 Uiso 1 1 calc R . .
C33F C 0.0304(2) 0.52052(16) 0.8627(6) 0.0554(16) Uani 1 1 d . . .
H33F H 0.0500 0.5107 0.9289 0.067 Uiso 1 1 calc R . .
C34F C 0.0481(2) 0.51869(15) 0.7587(6) 0.0556(16) Uani 1 1 d . . .
H34F H 0.0821 0.5077 0.7419 0.067 Uiso 1 1 calc R . .
C35F C 0.0389(3) 0.63267(19) 0.8986(7) 0.072(2) Uani 1 1 d . . .
H35F H 0.0224 0.6360 0.9645 0.087 Uiso 1 1 calc R . .
C36F C 0.0913(2) 0.61470(17) 0.8894(6) 0.0573(15) Uani 1 1 d . . .
H36F H 0.1161 0.6041 0.9478 0.069 Uiso 1 1 calc R . .
C37F C 0.0993(2) 0.61561(16) 0.7775(5) 0.0482(14) Uani 1 1 d . . .
H37F H 0.1306 0.6055 0.7469 0.058 Uiso 1 1 calc R . .
C38F C 0.0527(2) 0.63404(16) 0.7188(6) 0.0567(17) Uani 1 1 d . . .
H38F H 0.0472 0.6385 0.6418 0.068 Uiso 1 1 calc R . .
C39F C 0.0160(2) 0.64463(16) 0.7933(7) 0.068(2) Uani 1 1 d . . .
H39F H -0.0186 0.6577 0.7757 0.081 Uiso 1 1 calc R . .
Fe4 Fe -0.08040(19) 0.60669(16) 0.3004(5) 0.0560(10) Uani 0.323(5) 1 d PU A 1
C40F C -0.0536(8) 0.5640(6) 0.1867(14) 0.0411(14) Uani 0.323(5) 1 d PU A 1
H40A H -0.0527 0.5337 0.1906 0.049 Uiso 0.323(5) 1 calc PR A 1
C41F C -0.0984(9) 0.5913(7) 0.1375(14) 0.0410(14) Uani 0.323(5) 1 d PU A 1
H41A H -0.1331 0.5819 0.1051 0.049 Uiso 0.323(5) 1 calc PR A 1
C42F C -0.0808(8) 0.6328(6) 0.1468(15) 0.0421(14) Uani 0.323(5) 1 d PU A 1
H42A H -0.1011 0.6571 0.1197 0.050 Uiso 0.323(5) 1 calc PR A 1
C43F C -0.0284(7) 0.6339(5) 0.2022(15) 0.0434(15) Uani 0.323(5) 1 d PU A 1
H43A H -0.0075 0.6590 0.2196 0.052 Uiso 0.323(5) 1 calc PR A 1
C44F C -0.0121(7) 0.5933(5) 0.2273(15) 0.0433(15) Uani 0.323(5) 1 d PU A 1
H44A H 0.0220 0.5856 0.2662 0.052 Uiso 0.323(5) 1 calc PR A 1
C45F C -0.0978(8) 0.5754(8) 0.4237(19) 0.0698(19) Uani 0.323(5) 1 d PDU A 1
H45A H -0.0891 0.5460 0.4329 0.084 Uiso 0.323(5) 1 calc PR A 1
C46F C -0.1468(8) 0.5892(6) 0.3752(18) 0.069(2) Uani 0.323(5) 1 d PDU A 1
H46A H -0.1778 0.5728 0.3477 0.083 Uiso 0.323(5) 1 calc PR A 1
C47F C -0.1403(9) 0.6327(6) 0.3760(17) 0.0701(19) Uani 0.323(5) 1 d PDU A 1
H47A H -0.1682 0.6521 0.3492 0.084 Uiso 0.323(5) 1 calc PR A 1
C48F C -0.0880(9) 0.6455(7) 0.4203(18) 0.0724(19) Uani 0.323(5) 1 d PDU A 1
H48A H -0.0737 0.6737 0.4236 0.087 Uiso 0.323(5) 1 calc PR A 1
C49F C -0.0610(8) 0.6079(6) 0.4590(17) 0.0725(18) Uani 0.323(5) 1 d PDU A 1
H49A H -0.0261 0.6053 0.4995 0.087 Uiso 0.323(5) 1 calc PR A 1
Fe5 Fe -0.06947(9) 0.60550(6) 0.25566(18) 0.0403(5) Uani 0.677(5) 1 d PU A 2
C50F C -0.0592(4) 0.5596(3) 0.1427(7) 0.0412(14) Uani 0.677(5) 1 d PU A 2
H50A H -0.0641 0.5298 0.1520 0.049 Uiso 0.677(5) 1 calc PR A 2
C51F C -0.0991(4) 0.5880(3) 0.0981(6) 0.0390(13) Uani 0.677(5) 1 d PU A 2
H51A H -0.1358 0.5812 0.0725 0.047 Uiso 0.677(5) 1 calc PR A 2
C52F C -0.0745(3) 0.6290(3) 0.0982(6) 0.0399(13) Uani 0.677(5) 1 d PU A 2
H52A H -0.0921 0.6546 0.0717 0.048 Uiso 0.677(5) 1 calc PR A 2
C53F C -0.0195(3) 0.6255(2) 0.1445(7) 0.0436(13) Uani 0.677(5) 1 d PU A 2
H53A H 0.0061 0.6482 0.1549 0.052 Uiso 0.677(5) 1 calc PR A 2
C54F C -0.0097(3) 0.5826(3) 0.1721(7) 0.0434(14) Uani 0.677(5) 1 d PU A 2
H54A H 0.0238 0.5709 0.2044 0.052 Uiso 0.677(5) 1 calc PR A 2
C55F C -0.0813(4) 0.5753(4) 0.4014(10) 0.0697(15) Uani 0.677(5) 1 d PU A 2
H55A H -0.0801 0.5455 0.4164 0.084 Uiso 0.677(5) 1 calc PR A 2
C56F C -0.1286(4) 0.6009(3) 0.3590(9) 0.0676(15) Uani 0.677(5) 1 d PU A 2
H56A H -0.1647 0.5903 0.3436 0.081 Uiso 0.677(5) 1 calc PR A 2
C57F C -0.1120(4) 0.6447(4) 0.3440(9) 0.0716(16) Uani 0.677(5) 1 d PU A 2
H57A H -0.1342 0.6677 0.3145 0.086 Uiso 0.677(5) 1 calc PR A 2
C58F C -0.0567(4) 0.6460(4) 0.3822(9) 0.0736(16) Uani 0.677(5) 1 d PU A 2
H58A H -0.0348 0.6710 0.3857 0.088 Uiso 0.677(5) 1 calc PR A 2
C59F C -0.0377(4) 0.6049(3) 0.4151(9) 0.0726(16) Uani 0.677(5) 1 d PU A 2
H59A H -0.0011 0.5982 0.4422 0.087 Uiso 0.677(5) 1 calc PR A 2
N1D N 0.36045(17) 0.50608(11) 0.0562(3) 0.0375(11) Uani 1 1 d . . .
C1D C 0.34141(17) 0.54494(13) 0.0672(4) 0.0318(10) Uani 1 1 d . . .
H1D H 0.3220 0.5504 0.1284 0.038 Uiso 1 1 calc R . .
C2D C 0.3913(3) 0.49580(19) -0.0346(5) 0.0662(18) Uani 1 1 d . . .
H2D1 H 0.4023 0.4657 -0.0300 0.099 Uiso 1 1 calc R . .
H2D2 H 0.4239 0.5139 -0.0310 0.099 Uiso 1 1 calc R . .
H2D3 H 0.3686 0.5009 -0.1040 0.099 Uiso 1 1 calc R . .
C3D C 0.3542(2) 0.47236(16) 0.1366(5) 0.0594(16) Uani 1 1 d . . .
H3D1 H 0.3711 0.4460 0.1136 0.089 Uiso 1 1 calc R . .
H3D2 H 0.3153 0.4673 0.1414 0.089 Uiso 1 1 calc R . .
H3D3 H 0.3719 0.4812 0.2084 0.089 Uiso 1 1 calc R . .
O1D O 0.34716(12) 0.57510(9) 0.0027(2) 0.0330(7) Uani 1 1 d . . .
C11 C 0.02029(15) 0.73164(11) 0.5569(3) 0.0170(8) Uani 1 1 d . . .
H11A H -0.0071 0.7242 0.4947 0.020 Uiso 1 1 calc R . .
H11B H 0.0450 0.7069 0.5714 0.020 Uiso 1 1 calc R . .
C12 C -0.04411(15) 0.77644(12) 0.6324(3) 0.0187(9) Uani 1 1 d . . .
H12A H -0.0627 0.7823 0.6983 0.022 Uiso 1 1 calc R . .
H12B H -0.0724 0.7693 0.5715 0.022 Uiso 1 1 calc R . .
C13 C 0.02853(15) 0.82526(12) 0.6960(3) 0.0186(8) Uani 1 1 d . . .
H13A H 0.0496 0.8506 0.6773 0.022 Uiso 1 1 calc R . .
H13B H 0.0106 0.8322 0.7621 0.022 Uiso 1 1 calc R . .
C14 C 0.03402(16) 0.75157(12) 0.7454(3) 0.0211(9) Uani 1 1 d . . .
H14A H 0.0157 0.7574 0.8117 0.025 Uiso 1 1 calc R . .
H14B H 0.0590 0.7271 0.7617 0.025 Uiso 1 1 calc R . .
C15 C 0.09279(15) 0.78022(12) 0.6235(3) 0.0160(8) Uani 1 1 d . . .
H15A H 0.1182 0.7560 0.6389 0.019 Uiso 1 1 calc R . .
H15B H 0.1144 0.8054 0.6057 0.019 Uiso 1 1 calc R . .
C16 C 0.01458(16) 0.80645(12) 0.5059(3) 0.0144(8) Uani 1 1 d . . .
H16A H 0.0354 0.8320 0.4875 0.017 Uiso 1 1 calc R . .
H16B H -0.0126 0.8000 0.4425 0.017 Uiso 1 1 calc R . .
N11 N 0.05258(12) 0.76946(9) 0.5266(3) 0.0125(7) Uani 1 1 d . . .
N12 N -0.00751(13) 0.74004(10) 0.6539(3) 0.0185(7) Uani 1 1 d . . .
N13 N 0.06599(12) 0.78930(10) 0.7205(2) 0.0176(7) Uani 1 1 d . . .
N14 N -0.01407(12) 0.81565(9) 0.6032(3) 0.0128(7) Uani 1 1 d . . .
C21 C 0.14222(16) 0.73433(13) -0.0575(3) 0.0198(9) Uani 1 1 d . . .
H21A H 0.1160 0.7104 -0.0570 0.024 Uiso 1 1 calc R . .
H21B H 0.1211 0.7612 -0.0663 0.024 Uiso 1 1 calc R . .
C22 C 0.20969(15) 0.69462(11) 0.0591(3) 0.0118(8) Uani 1 1 d . . .
H22A H 0.2339 0.6947 0.1290 0.014 Uiso 1 1 calc R . .
H22B H 0.1840 0.6704 0.0611 0.014 Uiso 1 1 calc R . .
C23 C 0.21800(15) 0.77126(12) 0.0441(3) 0.0174(8) Uani 1 1 d . . .
H23A H 0.1978 0.7986 0.0369 0.021 Uiso 1 1 calc R . .
H23B H 0.2426 0.7722 0.1135 0.021 Uiso 1 1 calc R . .
C24 C 0.20541(16) 0.68912(12) -0.1373(3) 0.0195(9) Uani 1 1 d . . .
H24A H 0.2270 0.6855 -0.2000 0.023 Uiso 1 1 calc R . .
H24B H 0.1796 0.6649 -0.1379 0.023 Uiso 1 1 calc R . .
C25 C 0.21334(17) 0.76459(13) -0.1488(3) 0.0264(10) Uani 1 1 d . . .
H25A H 0.1928 0.7918 -0.1586 0.032 Uiso 1 1 calc R . .
H25B H 0.2352 0.7614 -0.2113 0.032 Uiso 1 1 calc R . .
C26 C 0.28072(15) 0.72641(11) -0.0337(3) 0.0180(9) Uani 1 1 d . . .
H26A H 0.3053 0.7272 0.0356 0.022 Uiso 1 1 calc R . .
H26B H 0.3035 0.7232 -0.0948 0.022 Uiso 1 1 calc R . .
N21 N 0.17828(12) 0.73522(10) 0.0489(3) 0.0130(7) Uani 1 1 d . . .
N22 N 0.24298(13) 0.68841(9) -0.0324(3) 0.0136(7) Uani 1 1 d . . .
N23 N 0.17465(13) 0.72920(11) -0.1501(3) 0.0203(7) Uani 1 1 d . . .
N24 N 0.25020(14) 0.76668(10) -0.0469(3) 0.0217(8) Uani 1 1 d . . .
C101 C 0.10862(15) 0.83115(12) 0.2462(3) 0.0144(8) Uani 1 1 d . . .
C102 C 0.09679(17) 0.87667(12) 0.2144(3) 0.0183(9) Uani 1 1 d . . .
C103 C 0.06542(16) 0.90128(12) 0.2757(3) 0.0163(8) Uani 1 1 d . . .
H103 H 0.0542 0.8902 0.3417 0.020 Uiso 1 1 calc R . .
C104 C 0.0495