####################################################################### 
# 
# This file contains crystal structure data downloaded from the 
# Cambridge Structural Database (CSD) hosted by the Cambridge 
# Crystallographic Data Centre (CCDC).
# 
# Full information about CCDC data access policies and citation 
# guidelines are available at http://www.ccdc.cam.ac.uk/access/V1 
# 
# Audit and citation data items may have been added by the CCDC. 
# Please retain this information to preserve the provenance of 
# this file and to allow appropriate attribution of the data. 
# 
#######################################################################

data_3
_audit_block_doi                 10.5517/cctf74l
_database_code_depnum_ccdc_archive 'CCDC 757489'
loop_
_citation_id
_citation_doi
_citation_year
1 10.1039/c0ce00812e 2011
_audit_update_record             
;
2009-12-09 deposited with the CCDC.	2024-07-08 downloaded from the CCDC.
;
#TrackingRef '3.cif'


_audit_creation_method           SHELXL-97
_chemical_name_systematic        
;
?
;
_chemical_name_common            ?
_chemical_melting_point          ?
_chemical_formula_moiety         ?
_chemical_formula_sum            'C16.50 H10.50 Ag N4 O5'
_chemical_formula_weight         452.66

loop_
_atom_type_symbol
_atom_type_description
_atom_type_scat_dispersion_real
_atom_type_scat_dispersion_imag
_atom_type_scat_source
C C 0.0033 0.0016 'International Tables Vol C Tables 4.2.6.8 and 6.1.1.4'
H H 0.0000 0.0000 'International Tables Vol C Tables 4.2.6.8 and 6.1.1.4'
N N 0.0061 0.0033 'International Tables Vol C Tables 4.2.6.8 and 6.1.1.4'
O O 0.0106 0.0060 'International Tables Vol C Tables 4.2.6.8 and 6.1.1.4'
Ag Ag -0.8971 1.1015 'International Tables Vol C Tables 4.2.6.8 and 6.1.1.4'

_symmetry_cell_setting           Monoclinic
_symmetry_space_group_name_H-M   C2/m

loop_
_symmetry_equiv_pos_as_xyz
'x, y, z'
'-x, y, -z'
'x+1/2, y+1/2, z'
'-x+1/2, y+1/2, -z'
'-x, -y, -z'
'x, -y, z'
'-x+1/2, -y+1/2, -z'
'x+1/2, -y+1/2, z'

_cell_length_a                   24.2508(6)
_cell_length_b                   12.6282(3)
_cell_length_c                   13.2061(3)
_cell_angle_alpha                90.00
_cell_angle_beta                 119.7930(10)
_cell_angle_gamma                90.00
_cell_volume                     3509.74(14)
_cell_formula_units_Z            8
_cell_measurement_temperature    173(2)
_cell_measurement_reflns_used    ?
_cell_measurement_theta_min      ?
_cell_measurement_theta_max      ?

_exptl_crystal_description       block
_exptl_crystal_colour            colorless
_exptl_crystal_size_max          0.458
_exptl_crystal_size_mid          0.266
_exptl_crystal_size_min          0.124
_exptl_crystal_density_meas      ?
_exptl_crystal_density_diffrn    1.713
_exptl_crystal_density_method    'not measured'
_exptl_crystal_F_000             1796
_exptl_absorpt_coefficient_mu    1.185
_exptl_absorpt_correction_type   multi-scan
_exptl_absorpt_correction_T_min  0.832121
_exptl_absorpt_correction_T_max  1
_exptl_absorpt_process_details   ?

_exptl_special_details           
;
?
;

_diffrn_ambient_temperature      173(2)
_diffrn_radiation_wavelength     0.71073
_diffrn_radiation_type           MoK\a
_diffrn_radiation_source         'fine-focus sealed tube'
_diffrn_radiation_monochromator  graphite
_diffrn_measurement_device_type  ?
_diffrn_measurement_method       ?
_diffrn_detector_area_resol_mean ?
_diffrn_standards_number         ?
_diffrn_standards_interval_count ?
_diffrn_standards_interval_time  ?
_diffrn_standards_decay_%        ?
_diffrn_reflns_number            20504
_diffrn_reflns_av_R_equivalents  0.0187
_diffrn_reflns_av_sigmaI/netI    0.0125
_diffrn_reflns_limit_h_min       -28
_diffrn_reflns_limit_h_max       28
_diffrn_reflns_limit_k_min       -15
_diffrn_reflns_limit_k_max       14
_diffrn_reflns_limit_l_min       -15
_diffrn_reflns_limit_l_max       15
_diffrn_reflns_theta_min         1.94
_diffrn_reflns_theta_max         25.01
_reflns_number_total             3229
_reflns_number_gt                2832
_reflns_threshold_expression     >2sigma(I)

_computing_data_collection       ?
_computing_cell_refinement       ?
_computing_data_reduction        ?
_computing_structure_solution    'SHELXS-97 (Sheldrick, 1990)'
_computing_structure_refinement  'SHELXL-97 (Sheldrick, 1997)'
_computing_molecular_graphics    ?
_computing_publication_material  ?

_refine_special_details          
;
Refinement of F^2^ against ALL reflections. The weighted R-factor wR and
goodness of fit S are based on F^2^, conventional R-factors R are based
on F, with F set to zero for negative F^2^. The threshold expression of
F^2^ > 2sigma(F^2^) is used only for calculating R-factors(gt) etc. and is
not relevant to the choice of reflections for refinement. R-factors based
on F^2^ are statistically about twice as large as those based on F, and R-
factors based on ALL data will be even larger.
;

_refine_ls_structure_factor_coef Fsqd
_refine_ls_matrix_type           full
_refine_ls_weighting_scheme      calc
_refine_ls_weighting_details     
'calc w=1/[\s^2^(Fo^2^)+(0.0405P)^2^+20.4866P] where P=(Fo^2^+2Fc^2^)/3'
_atom_sites_solution_primary     direct
_atom_sites_solution_secondary   difmap
_atom_sites_solution_hydrogens   geom
_refine_ls_hydrogen_treatment    constr
_refine_ls_extinction_method     none
_refine_ls_extinction_coef       ?
_refine_ls_number_reflns         3229
_refine_ls_number_parameters     255
_refine_ls_number_restraints     0
_refine_ls_R_factor_all          0.0391
_refine_ls_R_factor_gt           0.0344
_refine_ls_wR_factor_ref         0.0945
_refine_ls_wR_factor_gt          0.0887
_refine_ls_goodness_of_fit_ref   1.078
_refine_ls_restrained_S_all      1.078
_refine_ls_shift/su_max          0.001
_refine_ls_shift/su_mean         0.000

loop_
_atom_site_label
_atom_site_type_symbol
_atom_site_fract_x
_atom_site_fract_y
_atom_site_fract_z
_atom_site_U_iso_or_equiv
_atom_site_adp_type
_atom_site_occupancy
_atom_site_symmetry_multiplicity
_atom_site_calc_flag
_atom_site_refinement_flags
_atom_site_disorder_assembly
_atom_site_disorder_group
Ag1 Ag 0.285725(14) 0.250982(19) 0.39956(2) 0.02976(12) Uani 1 1 d . . .
O1 O 0.39738(16) 0.2059(5) 0.7592(3) 0.0801(13) Uani 1 1 d . . .
O2 O 0.3636(3) 0.2989(4) 0.6033(4) 0.1047(18) Uani 1 1 d . . .
O3 O 0.31247(14) 0.1623(3) 0.6009(3) 0.0510(8) Uani 1 1 d . . .
O4 O 0.15371(13) 0.19017(18) -0.2493(2) 0.0313(6) Uani 1 1 d . . .
O5 O 0.19725(12) 0.19047(18) 0.1486(2) 0.0316(6) Uani 1 1 d . . .
N1 N 0.35874(17) 0.2216(4) 0.6564(3) 0.0505(10) Uani 1 1 d . . .
N2 N 0.24828(13) 0.0936(2) 0.3101(2) 0.0252(6) Uani 1 1 d . . .
N3 N 0.19251(14) 0.0936(2) -0.3408(2) 0.0274(6) Uani 1 1 d . . .
N01 N 0.3010(4) 0.0000 0.0135(10) 0.108(3) Uani 1 2 d S . .
N02 N 0.0531(2) 0.0000 -0.1194(4) 0.0427(11) Uani 1 2 d S . .
C1 C 0.2042(2) 0.0000 -0.3711(4) 0.0291(11) Uani 1 2 d S . .
H1A H 0.2230 0.0000 -0.4194 0.035 Uiso 1 2 calc SR . .
C2 C 0.16447(16) 0.0924(3) -0.2748(3) 0.0250(7) Uani 1 1 d . . .
C3 C 0.1485(2) 0.0000 -0.2397(4) 0.0246(10) Uani 1 2 d S . .
H3A H 0.1279 0.0000 -0.1944 0.030 Uiso 1 2 calc SR . .
C4 C 0.13402(17) 0.2035(3) -0.1665(3) 0.0268(7) Uani 1 1 d . . .
C5 C 0.17618(16) 0.1830(3) -0.0501(3) 0.0260(7) Uani 1 1 d . . .
H5A H 0.2175 0.1558 -0.0250 0.031 Uiso 1 1 calc R . .
C6 C 0.15530(17) 0.2039(3) 0.0277(3) 0.0266(7) Uani 1 1 d . . .
C7 C 0.09622(19) 0.2449(3) -0.0053(3) 0.0332(8) Uani 1 1 d . . .
H7A H 0.0836 0.2588 0.0510 0.040 Uiso 1 1 calc R . .
C8 C 0.05535(19) 0.2655(3) -0.1230(4) 0.0378(9) Uani 1 1 d . . .
H8A H 0.0144 0.2941 -0.1478 0.045 Uiso 1 1 calc R . .
C9 C 0.07407(19) 0.2447(3) -0.2040(3) 0.0335(9) Uani 1 1 d . . .
H9A H 0.0462 0.2584 -0.2845 0.040 Uiso 1 1 calc R . .
C09 C -0.0678(3) 0.0000 -0.1952(7) 0.068(2) Uani 1 2 d S . .
C10 C 0.1899(2) 0.0000 0.1304(4) 0.0239(10) Uani 1 2 d S . .
H10A H 0.1625 0.0000 0.0482 0.029 Uiso 1 2 calc SR . .
C11 C 0.21107(15) 0.0921(3) 0.1939(3) 0.0236(7) Uani 1 1 d . . .
C12 C 0.2645(2) 0.0000 0.3625(4) 0.0268(10) Uani 1 2 d S . .
H12A H 0.2901 0.0000 0.4451 0.032 Uiso 1 2 calc SR . .
C01 C 0.3964(5) 0.0539(9) 0.3596(16) 0.204(8) Uani 1 1 d . . .
H01A H 0.3832 0.0891 0.2876 0.245 Uiso 1 1 calc R . .
C02 C 0.4170(5) 0.1238(9) 0.4716(13) 0.141(5) Uani 1 1 d . . .
H02A H 0.4163 0.1990 0.4697 0.169 Uiso 1 1 calc R . .
C03 C 0.4367(3) 0.0648(9) 0.5762(11) 0.139(4) Uani 1 1 d . . .
H03A H 0.4501 0.1016 0.6474 0.166 Uiso 1 1 calc R . .
C04 C 0.0304(2) 0.0548(4) -0.5487(4) 0.0501(11) Uani 1 1 d . . .
H04A H 0.0512 0.0928 -0.5821 0.060 Uiso 1 1 calc R . .
C05 C 0.0000 0.1080(5) -0.5000 0.0508(16) Uani 1 2 d S . .
H05A H 0.0000 0.1832 -0.5000 0.061 Uiso 1 2 calc SR . .
C06 C 0.3580(4) 0.0000 -0.1305(10) 0.088(3) Uani 1 2 d S . .
C07 C 0.3263(4) 0.0000 -0.0473(11) 0.088(3) Uani 1 2 d S . .
C08 C 0.0009(3) 0.0000 -0.1522(5) 0.0355(12) Uani 1 2 d S . .

loop_
_atom_site_aniso_label
_atom_site_aniso_U_11
_atom_site_aniso_U_22
_atom_site_aniso_U_33
_atom_site_aniso_U_23
_atom_site_aniso_U_13
_atom_site_aniso_U_12
Ag1 0.0435(2) 0.02031(17) 0.02746(18) -0.00166(10) 0.01916(14) -0.00428(10)
O1 0.0485(19) 0.159(4) 0.0245(16) -0.002(2) 0.0116(15) 0.001(2)
O2 0.127(4) 0.114(4) 0.058(2) -0.006(3) 0.035(3) -0.069(3)
O3 0.0385(16) 0.059(2) 0.0533(18) -0.0150(16) 0.0215(14) -0.0068(15)
O4 0.0523(15) 0.0191(12) 0.0330(13) 0.0038(10) 0.0290(12) 0.0056(11)
O5 0.0437(14) 0.0189(12) 0.0207(12) 0.0004(10) 0.0072(11) 0.0035(11)
N1 0.0386(19) 0.086(3) 0.0281(18) -0.0022(19) 0.0171(16) -0.008(2)
N2 0.0311(15) 0.0202(14) 0.0218(14) -0.0011(11) 0.0112(12) 0.0004(12)
N3 0.0358(16) 0.0214(15) 0.0290(15) 0.0024(12) 0.0191(13) -0.0002(12)
N01 0.068(5) 0.071(5) 0.202(11) 0.000 0.080(7) 0.000
N02 0.037(3) 0.045(3) 0.043(3) 0.000 0.018(2) 0.000
C1 0.039(3) 0.024(3) 0.031(3) 0.000 0.022(2) 0.000
C2 0.0305(17) 0.0205(17) 0.0233(16) -0.0001(13) 0.0129(14) 0.0030(14)
C3 0.029(2) 0.023(2) 0.024(2) 0.000 0.015(2) 0.000
C4 0.0406(19) 0.0158(16) 0.0271(17) 0.0020(13) 0.0191(16) 0.0036(14)
C5 0.0290(17) 0.0153(15) 0.0309(18) 0.0007(13) 0.0129(15) 0.0030(13)
C6 0.0358(19) 0.0174(16) 0.0209(16) 0.0013(13) 0.0098(15) 0.0038(14)
C7 0.041(2) 0.032(2) 0.0297(19) 0.0025(14) 0.0204(17) 0.0101(16)
C8 0.034(2) 0.042(2) 0.035(2) 0.0046(17) 0.0153(17) 0.0159(17)
C9 0.037(2) 0.034(2) 0.0234(18) 0.0035(14) 0.0105(16) 0.0099(15)
C09 0.032(3) 0.107(7) 0.065(5) 0.000 0.025(3) 0.000
C10 0.024(2) 0.025(2) 0.020(2) 0.000 0.0093(19) 0.000
C11 0.0252(16) 0.0214(17) 0.0243(16) 0.0025(13) 0.0124(14) 0.0025(13)
C12 0.031(3) 0.025(3) 0.021(2) 0.000 0.010(2) 0.000
C01 0.088(6) 0.152(10) 0.39(2) 0.174(12) 0.135(10) 0.041(6)
C02 0.082(6) 0.102(8) 0.211(13) 0.054(8) 0.052(7) -0.002(5)
C03 0.055(4) 0.162(9) 0.206(10) -0.090(8) 0.071(6) -0.033(5)
C04 0.046(2) 0.068(3) 0.031(2) 0.002(2) 0.0147(19) -0.015(2)
C05 0.068(4) 0.037(3) 0.030(3) 0.000 0.011(3) 0.000
C06 0.061(5) 0.053(5) 0.134(9) 0.000 0.037(6) 0.000
C07 0.059(5) 0.052(5) 0.130(9) 0.000 0.031(6) 0.000
C08 0.040(3) 0.035(3) 0.034(3) 0.000 0.020(3) 0.000

_geom_special_details            
;
All esds (except the esd in the dihedral angle between two l.s. planes)
are estimated using the full covariance matrix. The cell esds are taken
into account individually in the estimation of esds in distances, angles
and torsion angles; correlations between esds in cell parameters are only
used when they are defined by crystal symmetry. An approximate (isotropic)
treatment of cell esds is used for estimating esds involving l.s. planes.
;

loop_
_geom_bond_atom_site_label_1
_geom_bond_atom_site_label_2
_geom_bond_distance
_geom_bond_site_symmetry_2
_geom_bond_publ_flag
Ag1 N2 2.259(3) . ?
Ag1 N3 2.267(3) 7 ?
Ag1 O2 2.474(4) . ?
O1 N1 1.224(5) . ?
O2 N1 1.242(6) . ?
O3 N1 1.241(5) . ?
O4 C2 1.339(4) . ?
O4 C4 1.404(4) . ?
O5 C11 1.347(4) . ?
O5 C6 1.414(4) . ?
N2 C12 1.327(4) . ?
N2 C11 1.340(4) . ?
N3 C1 1.323(4) . ?
N3 C2 1.346(4) . ?
N3 Ag1 2.267(3) 7 ?
N01 C07 1.228(14) . ?
N02 C08 1.117(7) . ?
C1 N3 1.323(4) 6 ?
C1 H1A 0.9500 . ?
C2 C3 1.380(4) . ?
C3 C2 1.380(4) 6 ?
C3 H3A 0.9500 . ?
C4 C5 1.383(5) . ?
C4 C9 1.384(5) . ?
C5 C6 1.377(5) . ?
C5 H5A 0.9500 . ?
C6 C7 1.375(5) . ?
C7 C8 1.392(6) . ?
C7 H7A 0.9500 . ?
C8 C9 1.379(6) . ?
C8 H8A 0.9500 . ?
C9 H9A 0.9500 . ?
C09 C08 1.469(9) . ?
C10 C11 1.375(4) . ?
C10 C11 1.375(4) 6 ?
C10 H10A 0.9500 . ?
C12 N2 1.327(4) 6 ?
C12 H12A 0.9500 . ?
C01 C01 1.36(2) 6 ?
C01 C02 1.576(18) . ?
C01 H01A 0.9500 . ?
C02 C03 1.426(14) . ?
C02 H02A 0.9500 . ?
C03 C03 1.64(2) 6 ?
C03 H03A 0.9500 . ?
C04 C05 1.370(6) . ?
C04 C04 1.385(10) 6 ?
C04 H04A 0.9500 . ?
C05 C04 1.370(6) 2_554 ?
C05 H05A 0.9500 . ?
C06 C07 1.624(17) . ?

loop_
_geom_angle_atom_site_label_1
_geom_angle_atom_site_label_2
_geom_angle_atom_site_label_3
_geom_angle
_geom_angle_site_symmetry_1
_geom_angle_site_symmetry_3
_geom_angle_publ_flag
N2 Ag1 N3 133.17(10) . 7 ?
N2 Ag1 O2 132.47(15) . . ?
N3 Ag1 O2 88.76(13) 7 . ?
N1 O2 Ag1 100.7(3) . . ?
C2 O4 C4 119.3(3) . . ?
C11 O5 C6 119.5(3) . . ?
O1 N1 O3 121.8(5) . . ?
O1 N1 O2 121.3(5) . . ?
O3 N1 O2 116.9(4) . . ?
C12 N2 C11 116.2(3) . . ?
C12 N2 Ag1 125.0(2) . . ?
C11 N2 Ag1 118.6(2) . . ?
C1 N3 C2 116.0(3) . . ?
C1 N3 Ag1 123.3(3) . 7 ?
C2 N3 Ag1 120.7(2) . 7 ?
N3 C1 N3 126.6(4) 6 . ?
N3 C1 H1A 116.7 6 . ?
N3 C1 H1A 116.7 . . ?
O4 C2 N3 112.1(3) . . ?
O4 C2 C3 124.9(3) . . ?
N3 C2 C3 122.9(3) . . ?
C2 C3 C2 115.4(4) . 6 ?
C2 C3 H3A 122.3 . . ?
C2 C3 H3A 122.3 6 . ?
C5 C4 C9 122.2(3) . . ?
C5 C4 O4 119.6(3) . . ?
C9 C4 O4 118.0(3) . . ?
C6 C5 C4 116.7(3) . . ?
C6 C5 H5A 121.6 . . ?
C4 C5 H5A 121.6 . . ?
C7 C6 C5 123.2(3) . . ?
C7 C6 O5 117.0(3) . . ?
C5 C6 O5 119.6(3) . . ?
C6 C7 C8 118.4(3) . . ?
C6 C7 H7A 120.8 . . ?
C8 C7 H7A 120.8 . . ?
C9 C8 C7 120.3(4) . . ?
C9 C8 H8A 119.8 . . ?
C7 C8 H8A 119.8 . . ?
C8 C9 C4 119.1(3) . . ?
C8 C9 H9A 120.5 . . ?
C4 C9 H9A 120.5 . . ?
C11 C10 C11 115.5(4) . 6 ?
C11 C10 H10A 122.3 . . ?
C11 C10 H10A 122.3 6 . ?
N2 C11 O5 111.9(3) . . ?
N2 C11 C10 123.1(3) . . ?
O5 C11 C10 125.0(3) . . ?
N2 C12 N2 126.0(4) 6 . ?
N2 C12 H12A 117.0 6 . ?
N2 C12 H12A 117.0 . . ?
C01 C01 C02 124.1(6) 6 . ?
C01 C01 H01A 118.0 6 . ?
C02 C01 H01A 118.0 . . ?
C03 C02 C01 114.4(10) . . ?
C03 C02 H02A 122.8 . . ?
C01 C02 H02A 122.8 . . ?
C02 C03 C03 121.5(7) . 6 ?
C02 C03 H03A 119.3 . . ?
C03 C03 H03A 119.3 6 . ?
C05 C04 C04 119.3(3) . 6 ?
C05 C04 H04A 120.3 . . ?
C04 C04 H04A 120.3 6 . ?
C04 C05 C04 121.3(6) . 2_554 ?
C04 C05 H05A 119.3 . . ?
C04 C05 H05A 119.3 2_554 . ?
N01 C07 C06 178.7(10) . . ?
N02 C08 C09 180.0(6) . . ?

loop_
_geom_torsion_atom_site_label_1
_geom_torsion_atom_site_label_2
_geom_torsion_atom_site_label_3
_geom_torsion_atom_site_label_4
_geom_torsion
_geom_torsion_site_symmetry_1
_geom_torsion_site_symmetry_2
_geom_torsion_site_symmetry_3
_geom_torsion_site_symmetry_4
_geom_torsion_publ_flag
N2 Ag1 O2 N1 -26.5(5) . . . . ?
N3 Ag1 O2 N1 178.3(4) 7 . . . ?
Ag1 O2 N1 O1 167.6(4) . . . . ?
Ag1 O2 N1 O3 -13.4(5) . . . . ?
N3 Ag1 N2 C12 146.5(3) 7 . . . ?
O2 Ag1 N2 C12 1.6(4) . . . . ?
N3 Ag1 N2 C11 -27.4(3) 7 . . . ?
O2 Ag1 N2 C11 -172.4(3) . . . . ?
C2 N3 C1 N3 -1.6(7) . . . 6 ?
Ag1 N3 C1 N3 -179.6(3) 7 . . 6 ?
C4 O4 C2 N3 -170.1(3) . . . . ?
C4 O4 C2 C3 10.6(5) . . . . ?
C1 N3 C2 O4 -179.3(4) . . . . ?
Ag1 N3 C2 O4 -1.3(4) 7 . . . ?
C1 N3 C2 C3 0.0(6) . . . . ?
Ag1 N3 C2 C3 178.0(3) 7 . . . ?
O4 C2 C3 C2 -179.4(2) . . . 6 ?
N3 C2 C3 C2 1.4(7) . . . 6 ?
C2 O4 C4 C5 69.6(4) . . . . ?
C2 O4 C4 C9 -115.2(4) . . . . ?
C9 C4 C5 C6 1.1(5) . . . . ?
O4 C4 C5 C6 176.0(3) . . . . ?
C4 C5 C6 C7 -1.1(5) . . . . ?
C4 C5 C6 O5 -176.4(3) . . . . ?
C11 O5 C6 C7 109.1(4) . . . . ?
C11 O5 C6 C5 -75.3(4) . . . . ?
C5 C6 C7 C8 0.5(6) . . . . ?
O5 C6 C7 C8 175.9(3) . . . . ?
C6 C7 C8 C9 0.2(6) . . . . ?
C7 C8 C9 C4 -0.3(6) . . . . ?
C5 C4 C9 C8 -0.4(6) . . . . ?
O4 C4 C9 C8 -175.4(3) . . . . ?
C12 N2 C11 O5 -179.9(3) . . . . ?
Ag1 N2 C11 O5 -5.4(4) . . . . ?
C12 N2 C11 C10 0.4(5) . . . . ?
Ag1 N2 C11 C10 174.9(3) . . . . ?
C6 O5 C11 N2 -176.3(3) . . . . ?
C6 O5 C11 C10 3.5(5) . . . . ?
C11 C10 C11 N2 -1.9(6) 6 . . . ?
C11 C10 C11 O5 178.4(2) 6 . . . ?
C11 N2 C12 N2 1.4(7) . . . 6 ?
Ag1 N2 C12 N2 -172.7(3) . . . 6 ?
C01 C01 C02 C03 0.5(11) 6 . . . ?
C01 C02 C03 C03 -0.5(10) . . . 6 ?
C04 C04 C05 C04 0.000(2) 6 . . 2_554 ?

_diffrn_measured_fraction_theta_max 0.993
_diffrn_reflns_theta_full        25.01
_diffrn_measured_fraction_theta_full 0.993
_refine_diff_density_max         1.952
_refine_diff_density_min         -0.791
_refine_diff_density_rms         0.091
