####################################################################### 
# 
# This file contains crystal structure data downloaded from the 
# Cambridge Structural Database (CSD) hosted by the Cambridge 
# Crystallographic Data Centre (CCDC).
# 
# Full information about CCDC data access policies and citation 
# guidelines are available at http://www.ccdc.cam.ac.uk/access/V1 
# 
# Audit and citation data items may have been added by the CCDC. 
# Please retain this information to preserve the provenance of 
# this file and to allow appropriate attribution of the data. 
# 
#######################################################################

data_7
_audit_block_doi                 10.5517/ccvkbsh
_database_code_depnum_ccdc_archive 'CCDC 791237'
loop_
_citation_id
_citation_doi
_citation_year
1 10.1039/c0ce00750a 2011
_audit_update_record             
;
2010-08-30 deposited with the CCDC.	2024-07-08 downloaded from the CCDC.
;
#TrackingRef 'SI.cif'


_audit_creation_method           SHELXL-97
_chemical_name_systematic        
;
?
;
_chemical_name_common            ?
_chemical_melting_point          ?
_chemical_formula_moiety         ?
_chemical_formula_sum            'C82 H132 Eu2 O29 S17'
_chemical_formula_weight         2430.82

loop_
_atom_type_symbol
_atom_type_description
_atom_type_scat_dispersion_real
_atom_type_scat_dispersion_imag
_atom_type_scat_source
C C 0.0033 0.0016 'International Tables Vol C Tables 4.2.6.8 and 6.1.1.4'
H H 0.0000 0.0000 'International Tables Vol C Tables 4.2.6.8 and 6.1.1.4'
O O 0.0106 0.0060 'International Tables Vol C Tables 4.2.6.8 and 6.1.1.4'
S S 0.1246 0.1234 'International Tables Vol C Tables 4.2.6.8 and 6.1.1.4'
Eu Eu -0.1578 3.6682 'International Tables Vol C Tables 4.2.6.8 and 6.1.1.4'

_symmetry_cell_setting           orthorhombic
_symmetry_space_group_name_H-M   P2(1)2(1)2(1)

loop_
_symmetry_equiv_pos_as_xyz
'x, y, z'
'-x+1/2, -y, z+1/2'
'-x, y+1/2, -z+1/2'
'x+1/2, -y+1/2, -z'

_cell_length_a                   16.5736(7)
_cell_length_b                   21.7897(8)
_cell_length_c                   35.1320(14)
_cell_angle_alpha                90.00
_cell_angle_beta                 90.00
_cell_angle_gamma                90.00
_cell_volume                     12687.4(9)
_cell_formula_units_Z            4
_cell_measurement_temperature    150(2)
_cell_measurement_reflns_used    51717
_cell_measurement_theta_min      1.10
_cell_measurement_theta_max      25.00

_exptl_crystal_description       block
_exptl_crystal_colour            colorless
_exptl_crystal_size_max          0.10
_exptl_crystal_size_mid          0.02
_exptl_crystal_size_min          0.02
_exptl_crystal_density_meas      ?
_exptl_crystal_density_diffrn    1.273
_exptl_crystal_density_method    'not measured'
_exptl_crystal_F_000             5016
_exptl_absorpt_coefficient_mu    1.318
_exptl_absorpt_correction_type   multi-scan
_exptl_absorpt_correction_T_min  0.8795
_exptl_absorpt_correction_T_max  0.9741
_exptl_absorpt_process_details   SADABS

_exptl_special_details           
;
?
;

_diffrn_ambient_temperature      150(2)
_diffrn_radiation_wavelength     0.71073
_diffrn_radiation_type           MoK\a
_diffrn_radiation_source         'fine-focus sealed tube'
_diffrn_radiation_monochromator  graphite
_diffrn_measurement_device_type  ?
_diffrn_measurement_method       ?
_diffrn_detector_area_resol_mean ?
_diffrn_reflns_number            51717
_diffrn_reflns_av_R_equivalents  0.0582
_diffrn_reflns_av_sigmaI/netI    0.0971
_diffrn_reflns_limit_h_min       -19
_diffrn_reflns_limit_h_max       18
_diffrn_reflns_limit_k_min       -22
_diffrn_reflns_limit_k_max       25
_diffrn_reflns_limit_l_min       -29
_diffrn_reflns_limit_l_max       41
_diffrn_reflns_theta_min         1.10
_diffrn_reflns_theta_max         25.00
_reflns_number_total             22077
_reflns_number_gt                17025
_reflns_threshold_expression     >2sigma(I)

_computing_data_collection       ?
_computing_cell_refinement       ?
_computing_data_reduction        ?
_computing_structure_solution    'SHELXS-97 (Sheldrick, 2008)'
_computing_structure_refinement  'SHELXL-97 (Sheldrick, 2008)'
_computing_molecular_graphics    ?
_computing_publication_material  ?

_refine_special_details          
;
Refinement of F^2^ against ALL reflections. The weighted R-factor wR and
goodness of fit S are based on F^2^, conventional R-factors R are based
on F, with F set to zero for negative F^2^. The threshold expression of
F^2^ > 2sigma(F^2^) is used only for calculating R-factors(gt) etc. and is
not relevant to the choice of reflections for refinement. R-factors based
on F^2^ are statistically about twice as large as those based on F, and R-
factors based on ALL data will be even larger.
;

_refine_ls_structure_factor_coef Fsqd
_refine_ls_matrix_type           full
_refine_ls_weighting_scheme      calc
_refine_ls_weighting_details     
'calc w=1/[\s^2^(Fo^2^)+(0.0772P)^2^+0.0000P] where P=(Fo^2^+2Fc^2^)/3'
_atom_sites_solution_primary     direct
_atom_sites_solution_secondary   difmap
_atom_sites_solution_hydrogens   geom
_refine_ls_hydrogen_treatment    constr
_refine_ls_extinction_method     none
_refine_ls_extinction_coef       ?
_refine_ls_abs_structure_details 'Flack H D (1983), Acta Cryst. A39, 876-881'
_refine_ls_abs_structure_Flack   0.481(11)
_refine_ls_number_reflns         22077
_refine_ls_number_parameters     1104
_refine_ls_number_restraints     0
_refine_ls_R_factor_all          0.0859
_refine_ls_R_factor_gt           0.0610
_refine_ls_wR_factor_ref         0.1430
_refine_ls_wR_factor_gt          0.1343
_refine_ls_goodness_of_fit_ref   1.035
_refine_ls_restrained_S_all      1.035
_refine_ls_shift/su_max          0.001
_refine_ls_shift/su_mean         0.000

loop_
_atom_site_label
_atom_site_type_symbol
_atom_site_fract_x
_atom_site_fract_y
_atom_site_fract_z
_atom_site_U_iso_or_equiv
_atom_site_adp_type
_atom_site_occupancy
_atom_site_symmetry_multiplicity
_atom_site_calc_flag
_atom_site_refinement_flags
_atom_site_disorder_assembly
_atom_site_disorder_group
Eu1 Eu 0.75717(3) 0.425676(18) 0.114025(10) 0.01574(11) Uani 1 1 d . . .
Eu2 Eu 0.82439(3) 0.605204(18) 0.120748(11) 0.01467(10) Uani 1 1 d . . .
S1 S 0.60948(19) 0.36622(13) 0.17705(8) 0.0430(6) Uani 1 1 d . . .
S2 S 0.62867(19) 0.34006(12) 0.05524(7) 0.0378(7) Uani 1 1 d . . .
S3 S 0.97706(19) 0.64925(13) 0.05612(7) 0.0396(6) Uani 1 1 d . . .
S4 S 0.94552(16) 0.69247(10) 0.18175(7) 0.0271(6) Uani 1 1 d . . .
S5 S 0.9338(2) 0.34788(13) 0.22403(8) 0.0486(8) Uani 1 1 d . . .
S6 S 0.8887(2) 0.38906(17) 0.35259(10) 0.0626(9) Uani 1 1 d . . .
S7 S 1.2439(3) 0.55529(18) 0.23820(12) 0.0919(12) Uani 1 1 d . . .
S8 S 0.9707(3) 0.54311(18) 0.27907(10) 0.0712(9) Uani 1 1 d . . .
S9 S 0.6317(2) 0.84679(15) 0.06610(8) 0.0486(8) Uani 1 1 d . . .
S10 S 0.3842(3) 0.74394(18) 0.17446(10) 0.0713(11) Uani 1 1 d . . .
S11 S 0.5917(3) 0.34952(19) -0.10209(12) 0.0780(12) Uani 1 1 d . . .
S12 S 0.6178(3) 0.7079(2) 0.23415(17) 0.1011(17) Uani 1 1 d . . .
S13 S 0.7718(2) 0.82876(16) 0.27120(10) 0.0639(10) Uani 1 1 d . . .
S14 S 0.9688(3) 0.3191(2) 0.01857(14) 0.0952(15) Uani 1 1 d . . .
S15 S 1.3060(3) 0.28969(15) 0.10287(12) 0.0727(11) Uani 1 1 d . . .
S16 S 0.5113(3) 0.5461(2) 0.00555(12) 0.0836(13) Uani 1 1 d . . .
S17 S 0.8396(2) 0.75612(14) -0.01374(8) 0.0480(8) Uani 1 1 d . . .
O1 O 0.7500(5) 0.4644(2) 0.17717(14) 0.0256(15) Uani 1 1 d . . .
O2 O 0.7581(4) 0.5675(2) 0.17526(15) 0.0220(7) Uani 1 1 d . . .
O3 O 0.6855(4) 0.6237(2) 0.10556(15) 0.0220(7) Uani 1 1 d . . .
O4 O 0.6998(4) 0.5214(2) 0.10467(16) 0.0220(7) Uani 1 1 d . . .
O5 O 0.8321(4) 0.5674(2) 0.05811(15) 0.0248(14) Uani 1 1 d . . .
O6 O 0.8192(4) 0.4649(2) 0.05956(15) 0.0234(14) Uani 1 1 d . . .
O7 O 0.8814(4) 0.5082(3) 0.13156(16) 0.0228(15) Uani 1 1 d . . .
O8 O 0.8974(4) 0.4078(2) 0.13008(16) 0.0240(15) Uani 1 1 d . . .
O9 O 0.7993(4) 0.3305(3) 0.08236(18) 0.0337(18) Uani 1 1 d . . .
O10 O 0.7705(4) 0.3223(3) 0.14370(18) 0.0299(17) Uani 1 1 d . . .
O11 O 0.8194(5) 0.7065(3) 0.08674(16) 0.0319(17) Uani 1 1 d . . .
O12 O 0.7876(4) 0.7042(3) 0.14814(17) 0.0279(16) Uani 1 1 d . . .
O13 O 0.6285(5) 0.3930(3) 0.13788(18) 0.0430(6) Uani 1 1 d . . .
O14 O 0.6612(4) 0.4053(2) 0.06155(17) 0.0284(16) Uani 1 1 d . . .
O15 O 0.9563(5) 0.6334(3) 0.09710(18) 0.0396(6) Uani 1 1 d . . .
O16 O 0.9157(4) 0.6281(3) 0.17358(15) 0.0238(15) Uani 1 1 d . . .
O17 O 0.9829(5) 0.3379(4) 0.2598(2) 0.058(2) Uani 1 1 d . . .
O18 O 0.8229(6) 0.3462(4) 0.3413(3) 0.081(3) Uani 1 1 d . . .
O19 O 1.2512(8) 0.5184(4) 0.2755(3) 0.0919(12) Uani 1 1 d . . .
O20 O 1.0219(6) 0.6029(4) 0.2801(2) 0.0712(9) Uani 1 1 d . . .
O21 O 0.6575(5) 0.8338(4) 0.0258(2) 0.055(2) Uani 1 1 d . . .
O22 O 0.3116(8) 0.6957(4) 0.1686(3) 0.104(4) Uani 1 1 d . . .
O23 O 0.6791(6) 0.3455(4) -0.0917(3) 0.075(3) Uani 1 1 d . . .
O24 O 0.5549(7) 0.7412(6) 0.2564(3) 0.105(4) Uani 1 1 d . . .
O25 O 0.8037(7) 0.7889(5) 0.3026(3) 0.086(3) Uani 1 1 d . . .
O26 O 1.0253(10) 0.2997(6) -0.0101(4) 0.139(6) Uani 1 1 d . . .
O27 O 1.3651(7) 0.3392(4) 0.1081(3) 0.086(3) Uani 1 1 d . . .
O28 O 0.4886(7) 0.5208(6) -0.0325(3) 0.108(4) Uani 1 1 d . . .
O29 O 0.8958(5) 0.7196(4) -0.0375(2) 0.060(2) Uani 1 1 d . . .
C1 C 0.7503(7) 0.5174(4) 0.1922(2) 0.026(2) Uani 1 1 d . . .
C2 C 0.7419(6) 0.5192(4) 0.2345(2) 0.026(2) Uani 1 1 d . . .
C3 C 0.7293(8) 0.4677(5) 0.2555(3) 0.043(3) Uani 1 1 d . . .
H3A H 0.7254 0.4293 0.2429 0.052 Uiso 1 1 calc R . .
C4 C 0.7219(8) 0.4693(5) 0.2954(3) 0.044(3) Uani 1 1 d . . .
H4A H 0.7140 0.4325 0.3095 0.053 Uiso 1 1 calc R . .
C5 C 0.7265(7) 0.5254(4) 0.3136(2) 0.032(3) Uani 1 1 d . . .
C6 C 0.7401(7) 0.5792(4) 0.2931(2) 0.033(2) Uani 1 1 d . . .
H6A H 0.7440 0.6177 0.3056 0.040 Uiso 1 1 calc R . .
C7 C 0.7480(7) 0.5748(4) 0.2534(2) 0.034(2) Uani 1 1 d . . .
H7A H 0.7578 0.6110 0.2391 0.041 Uiso 1 1 calc R . .
C8 C 0.7183(6) 0.5289(4) 0.3564(2) 0.033(3) Uani 1 1 d . . .
H8A H 0.7317 0.5669 0.3681 0.039 Uiso 1 1 calc R . .
C9 C 0.6559(6) 0.5709(4) 0.1054(2) 0.0220(7) Uani 1 1 d . . .
C10 C 0.5651(6) 0.5615(4) 0.1072(2) 0.025(2) Uani 1 1 d . . .
C11 C 0.5138(7) 0.6129(4) 0.1109(3) 0.039(3) Uani 1 1 d . . .
H11A H 0.5360 0.6531 0.1099 0.046 Uiso 1 1 calc R . .
C12 C 0.4315(6) 0.6055(5) 0.1160(3) 0.035(2) Uani 1 1 d . . .
H12A H 0.3981 0.6398 0.1214 0.042 Uiso 1 1 calc R . .
C13 C 0.3983(6) 0.5470(4) 0.1132(3) 0.031(2) Uani 1 1 d . . .
C14 C 0.4485(7) 0.4952(5) 0.1084(3) 0.048(3) Uani 1 1 d . . .
H14A H 0.4265 0.4549 0.1086 0.058 Uiso 1 1 calc R . .
C15 C 0.5316(6) 0.5044(5) 0.1033(3) 0.035(3) Uani 1 1 d . . .
H15A H 0.5651 0.4705 0.0970 0.042 Uiso 1 1 calc R . .
C16 C 0.3120(6) 0.5410(5) 0.1187(3) 0.039(3) Uani 1 1 d . . .
H16A H 0.2819 0.5780 0.1202 0.047 Uiso 1 1 calc R . .
C17 C 0.8256(6) 0.5159(4) 0.0418(2) 0.0182(19) Uani 1 1 d . . .
C18 C 0.8255(6) 0.5121(4) 0.0000(2) 0.021(2) Uani 1 1 d . . .
C19 C 0.8480(6) 0.5659(4) -0.0217(2) 0.030(2) Uani 1 1 d . . .
H19A H 0.8668 0.6019 -0.0092 0.036 Uiso 1 1 calc R . .
C20 C 0.8416(6) 0.5637(4) -0.0611(2) 0.027(2) Uani 1 1 d . . .
H20A H 0.8565 0.5986 -0.0756 0.033 Uiso 1 1 calc R . .
C21 C 0.8140(6) 0.5117(4) -0.0795(2) 0.026(2) Uani 1 1 d . . .
C22 C 0.7915(7) 0.4600(4) -0.0583(3) 0.031(2) Uani 1 1 d . . .
H22A H 0.7727 0.4242 -0.0709 0.037 Uiso 1 1 calc R . .
C23 C 0.7969(6) 0.4614(4) -0.0189(2) 0.030(2) Uani 1 1 d . . .
H23A H 0.7804 0.4265 -0.0047 0.036 Uiso 1 1 calc R . .
C24 C 0.8053(6) 0.5151(4) -0.1215(3) 0.031(2) Uani 1 1 d . . .
H24A H 0.8183 0.5531 -0.1332 0.038 Uiso 1 1 calc R . .
C25 C 0.9264(6) 0.4623(4) 0.1321(2) 0.025(2) Uani 1 1 d . . .
C26 C 1.0158(6) 0.4682(4) 0.1341(2) 0.024(2) Uani 1 1 d . . .
C27 C 1.0646(5) 0.4170(4) 0.1281(3) 0.028(2) Uani 1 1 d . . .
H27A H 1.0415 0.3773 0.1256 0.034 Uiso 1 1 calc R . .
C28 C 1.1470(6) 0.4250(5) 0.1259(3) 0.036(2) Uani 1 1 d . . .
H28A H 1.1802 0.3899 0.1223 0.043 Uiso 1 1 calc R . .
C29 C 1.1840(6) 0.4826(4) 0.1288(3) 0.028(2) Uani 1 1 d . . .
C30 C 1.1347(6) 0.5333(5) 0.1363(3) 0.036(3) Uani 1 1 d . . .
H30A H 1.1586 0.5724 0.1400 0.044 Uiso 1 1 calc R . .
C31 C 1.0501(6) 0.5271(4) 0.1383(3) 0.028(2) Uani 1 1 d . . .
H31A H 1.0168 0.5620 0.1425 0.033 Uiso 1 1 calc R . .
C32 C 1.2705(6) 0.4888(4) 0.1220(3) 0.030(2) Uani 1 1 d . . .
H32A H 1.3004 0.4518 0.1196 0.036 Uiso 1 1 calc R . .
C33 C 0.7943(6) 0.3000(4) 0.1126(3) 0.026(2) Uani 1 1 d . . .
C34 C 0.8153(6) 0.2316(4) 0.1109(3) 0.037(3) Uani 1 1 d . . .
C35 C 0.8067(9) 0.1963(4) 0.1429(3) 0.049(4) Uani 1 1 d . . .
H35A H 0.7937 0.2149 0.1665 0.059 Uiso 1 1 calc R . .
C36 C 0.8174(10) 0.1322(4) 0.1406(3) 0.057(4) Uani 1 1 d . . .
H36A H 0.8082 0.1074 0.1625 0.069 Uiso 1 1 calc R . .
C37 C 0.8413(7) 0.1051(4) 0.1064(3) 0.041(3) Uani 1 1 d . . .
C38 C 0.8502(8) 0.1423(4) 0.0745(3) 0.053(4) Uani 1 1 d . . .
H38A H 0.8652 0.1240 0.0510 0.063 Uiso 1 1 calc R . .
C39 C 0.8380(9) 0.2052(4) 0.0761(3) 0.051(3) Uani 1 1 d . . .
H39A H 0.8448 0.2299 0.0540 0.061 Uiso 1 1 calc R . .
C40 C 0.8518(7) 0.0370(4) 0.1016(3) 0.036(3) Uani 1 1 d . . .
H40A H 0.8785 0.0213 0.0797 0.043 Uiso 1 1 calc R . .
C41 C 0.8047(5) 0.7349(4) 0.1180(3) 0.024(2) Uani 1 1 d . . .
C42 C 0.8133(5) 0.8039(3) 0.1196(3) 0.0222(19) Uani 1 1 d . . .
C43 C 0.8359(7) 0.8355(4) 0.0881(3) 0.0311(13) Uani 1 1 d . . .
H43D H 0.8471 0.8149 0.0648 0.037 Uiso 1 1 calc R . .
C44 C 0.8421(6) 0.9003(4) 0.0907(3) 0.0311(13) Uani 1 1 d . . .
H44D H 0.8590 0.9233 0.0692 0.037 Uiso 1 1 calc R . .
C45 C 0.8241(6) 0.9306(4) 0.1242(3) 0.0311(13) Uani 1 1 d . . .
C46 C 0.8015(6) 0.8966(4) 0.1551(3) 0.033(2) Uani 1 1 d . . .
H46D H 0.7900 0.9172 0.1783 0.039 Uiso 1 1 calc R . .
C47 C 0.7947(6) 0.8321(4) 0.1540(3) 0.032(2) Uani 1 1 d . . .
H47D H 0.7781 0.8091 0.1756 0.038 Uiso 1 1 calc R . .
C48 C 0.8238(7) 0.9989(4) 0.1278(3) 0.041(3) Uani 1 1 d . . .
H48D H 0.8021 1.0161 0.1504 0.050 Uiso 1 1 calc R . .
C49 C 0.5408(7) 0.4157(5) 0.1965(3) 0.0430(6) Uani 1 1 d . . .
H49D H 0.5532 0.4577 0.1885 0.064 Uiso 1 1 calc R . .
H49E H 0.5435 0.4131 0.2244 0.064 Uiso 1 1 calc R . .
H49F H 0.4865 0.4046 0.1880 0.064 Uiso 1 1 calc R . .
C50 C 0.5424(7) 0.3079(5) 0.1677(3) 0.0430(6) Uani 1 1 d . . .
H50A H 0.5701 0.2749 0.1540 0.064 Uiso 1 1 calc R . .
H50B H 0.4981 0.3237 0.1520 0.064 Uiso 1 1 calc R . .
H50C H 0.5208 0.2920 0.1917 0.064 Uiso 1 1 calc R . .
C51 C 0.5266(7) 0.3538(5) 0.0399(4) 0.058(4) Uani 1 1 d . . .
H51D H 0.5040 0.3160 0.0293 0.088 Uiso 1 1 calc R . .
H51E H 0.5263 0.3859 0.0203 0.088 Uiso 1 1 calc R . .
H51F H 0.4940 0.3671 0.0616 0.088 Uiso 1 1 calc R . .
C52 C 0.6703(8) 0.3115(4) 0.0127(3) 0.047(3) Uani 1 1 d . . .
H52A H 0.6502 0.2699 0.0082 0.071 Uiso 1 1 calc R . .
H52B H 0.7293 0.3106 0.0149 0.071 Uiso 1 1 calc R . .
H52C H 0.6547 0.3381 -0.0085 0.071 Uiso 1 1 calc R . .
C53 C 1.0557(7) 0.5993(5) 0.0456(3) 0.0396(6) Uani 1 1 d . . .
H53A H 1.0367 0.5569 0.0477 0.059 Uiso 1 1 calc R . .
H53B H 1.1001 0.6060 0.0635 0.059 Uiso 1 1 calc R . .
H53C H 1.0747 0.6070 0.0196 0.059 Uiso 1 1 calc R . .
C54 C 1.0318(7) 0.7197(5) 0.0577(3) 0.0396(6) Uani 1 1 d . . .
H54A H 0.9954 0.7538 0.0520 0.059 Uiso 1 1 calc R . .
H54B H 1.0754 0.7186 0.0389 0.059 Uiso 1 1 calc R . .
H54C H 1.0548 0.7252 0.0832 0.059 Uiso 1 1 calc R . .
C55 C 1.0467(7) 0.6845(5) 0.1983(3) 0.044(3) Uani 1 1 d . . .
H55A H 1.0677 0.7247 0.2058 0.065 Uiso 1 1 calc R . .
H55B H 1.0804 0.6676 0.1778 0.065 Uiso 1 1 calc R . .
H55C H 1.0478 0.6567 0.2202 0.065 Uiso 1 1 calc R . .
C56 C 0.9010(7) 0.7129(5) 0.2263(3) 0.038(3) Uani 1 1 d . . .
H56A H 0.9179 0.7545 0.2333 0.057 Uiso 1 1 calc R . .
H56B H 0.9186 0.6839 0.2459 0.057 Uiso 1 1 calc R . .
H56C H 0.8421 0.7115 0.2240 0.057 Uiso 1 1 calc R . .
C57 C 0.9648(8) 0.2917(5) 0.1917(3) 0.049(3) Uani 1 1 d . . .
H57A H 1.0238 0.2924 0.1896 0.073 Uiso 1 1 calc R . .
H57B H 0.9408 0.3000 0.1667 0.073 Uiso 1 1 calc R . .
H57C H 0.9473 0.2513 0.2007 0.073 Uiso 1 1 calc R . .
C58 C 0.8395(8) 0.3158(6) 0.2316(4) 0.064(4) Uani 1 1 d . . .
H58A H 0.8160 0.3329 0.2549 0.096 Uiso 1 1 calc R . .
H58B H 0.8448 0.2712 0.2343 0.096 Uiso 1 1 calc R . .
H58C H 0.8044 0.3252 0.2099 0.096 Uiso 1 1 calc R . .
C59 C 0.8809(10) 0.3909(9) 0.4015(4) 0.105(6) Uani 1 1 d . . .
H59A H 0.8293 0.4094 0.4087 0.158 Uiso 1 1 calc R . .
H59B H 0.9252 0.4154 0.4120 0.158 Uiso 1 1 calc R . .
H59C H 0.8839 0.3490 0.4115 0.158 Uiso 1 1 calc R . .
C60 C 0.9774(8) 0.3443(5) 0.3531(4) 0.057(4) Uani 1 1 d . . .
H60A H 0.9976 0.3395 0.3270 0.086 Uiso 1 1 calc R . .
H60B H 0.9655 0.3038 0.3638 0.086 Uiso 1 1 calc R . .
H60C H 1.0185 0.3646 0.3687 0.086 Uiso 1 1 calc R . .
C61 C 1.3386(10) 0.5667(7) 0.2216(4) 0.0919(12) Uani 1 1 d . . .
H61A H 1.3593 0.5283 0.2107 0.138 Uiso 1 1 calc R . .
H61B H 1.3737 0.5798 0.2425 0.138 Uiso 1 1 calc R . .
H61C H 1.3377 0.5985 0.2019 0.138 Uiso 1 1 calc R . .
C62 C 1.2291(11) 0.6328(6) 0.2539(4) 0.0919(12) Uani 1 1 d . . .
H62A H 1.1776 0.6359 0.2675 0.138 Uiso 1 1 calc R . .
H62B H 1.2285 0.6603 0.2318 0.138 Uiso 1 1 calc R . .
H62C H 1.2732 0.6446 0.2710 0.138 Uiso 1 1 calc R . .
C63 C 0.9721(10) 0.5188(6) 0.2325(4) 0.0712(9) Uani 1 1 d . . .
H63A H 0.9463 0.5498 0.2163 0.107 Uiso 1 1 calc R . .
H63B H 0.9426 0.4800 0.2303 0.107 Uiso 1 1 calc R . .
H63C H 1.0280 0.5129 0.2243 0.107 Uiso 1 1 calc R . .
C64 C 1.0351(10) 0.4869(6) 0.2973(4) 0.0712(9) Uani 1 1 d . . .
H64A H 1.0214 0.4789 0.3240 0.107 Uiso 1 1 calc R . .
H64B H 1.0911 0.5012 0.2957 0.107 Uiso 1 1 calc R . .
H64C H 1.0290 0.4490 0.2826 0.107 Uiso 1 1 calc R . .
C65 C 0.5926(8) 0.7763(5) 0.0834(3) 0.055(3) Uani 1 1 d . . .
H65A H 0.6368 0.7469 0.0867 0.082 Uiso 1 1 calc R . .
H65B H 0.5536 0.7598 0.0651 0.082 Uiso 1 1 calc R . .
H65C H 0.5658 0.7832 0.1079 0.082 Uiso 1 1 calc R . .
C66 C 0.5359(8) 0.8873(6) 0.0635(4) 0.065(4) Uani 1 1 d . . .
H66A H 0.5446 0.9283 0.0528 0.097 Uiso 1 1 calc R . .
H66B H 0.5130 0.8910 0.0891 0.097 Uiso 1 1 calc R . .
H66C H 0.4986 0.8644 0.0472 0.097 Uiso 1 1 calc R . .
C67 C 0.3595(13) 0.7927(8) 0.2120(4) 0.113(7) Uani 1 1 d . . .
H67A H 0.3571 0.7692 0.2358 0.170 Uiso 1 1 calc R . .
H67B H 0.3068 0.8116 0.2072 0.170 Uiso 1 1 calc R . .
H67C H 0.4006 0.8249 0.2143 0.170 Uiso 1 1 calc R . .
C68 C 0.3691(8) 0.7976(6) 0.1371(3) 0.061(4) Uani 1 1 d . . .
H68A H 0.3748 0.7768 0.1125 0.091 Uiso 1 1 calc R . .
H68B H 0.4092 0.8305 0.1391 0.091 Uiso 1 1 calc R . .
H68C H 0.3148 0.8151 0.1392 0.091 Uiso 1 1 calc R . .
C69 C 0.5897(15) 0.3306(10) -0.1