####################################################################### 
# 
# This file contains crystal structure data downloaded from the 
# Cambridge Structural Database (CSD) hosted by the Cambridge 
# Crystallographic Data Centre (CCDC).
# 
# Full information about CCDC data access policies and citation 
# guidelines are available at http://www.ccdc.cam.ac.uk/access/V1 
# 
# Audit and citation data items may have been added by the CCDC. 
# Please retain this information to preserve the provenance of 
# this file and to allow appropriate attribution of the data. 
# 
#######################################################################

data_22
_audit_block_doi                 10.5517/ccvwtj1
_database_code_depnum_ccdc_archive 'CCDC 801304'
loop_
_citation_id
_citation_doi
_citation_year
1 10.1039/c0cc05015f 2011
_audit_update_record             
;
2010-11-17 deposited with the CCDC.	2024-07-08 downloaded from the CCDC.
;
#TrackingRef '- CIF.cif'


_audit_creation_method           SHELXL-97
_chemical_name_systematic        
;
?
;
_chemical_name_common            ?
_chemical_melting_point          ?
_chemical_formula_moiety         
'C88 H64 Cu4 N8 S4 W, C44 H32 Cu3 I2 N4 S4 W, I, xSolvent'
_chemical_formula_sum            'C132 H96 Cu7 I3 N12 S8 W2'
_chemical_formula_weight         3299.87

loop_
_atom_type_symbol
_atom_type_description
_atom_type_scat_dispersion_real
_atom_type_scat_dispersion_imag
_atom_type_scat_source
C C 0.0033 0.0016 'International Tables Vol C Tables 4.2.6.8 and 6.1.1.4'
H H 0.0000 0.0000 'International Tables Vol C Tables 4.2.6.8 and 6.1.1.4'
N N 0.0061 0.0033 'International Tables Vol C Tables 4.2.6.8 and 6.1.1.4'
S S 0.1246 0.1234 'International Tables Vol C Tables 4.2.6.8 and 6.1.1.4'
Cu Cu 0.3201 1.2651 'International Tables Vol C Tables 4.2.6.8 and 6.1.1.4'
I I -0.4742 1.8119 'International Tables Vol C Tables 4.2.6.8 and 6.1.1.4'
W W -0.8490 6.8722 'International Tables Vol C Tables 4.2.6.8 and 6.1.1.4'

_symmetry_cell_setting           Orthorhombic
_symmetry_space_group_name_H-M   'Pnn2 '
_symmetry_space_group_name_Hall  'P 2 -2n'

loop_
_symmetry_equiv_pos_as_xyz
'x, y, z'
'-x, -y, z'
'x+1/2, -y+1/2, z+1/2'
'-x+1/2, y+1/2, z+1/2'

_cell_length_a                   25.433(1)
_cell_length_b                   31.146(2)
_cell_length_c                   20.939(1)
_cell_angle_alpha                90.00
_cell_angle_beta                 90.00
_cell_angle_gamma                90.00
_cell_volume                     16586.5(15)
_cell_formula_units_Z            4
_cell_measurement_temperature    291(2)
_cell_measurement_reflns_used    8899
_cell_measurement_theta_min      2.19
_cell_measurement_theta_max      25.424

_exptl_crystal_description       block
_exptl_crystal_colour            red
_exptl_crystal_size_max          0.35
_exptl_crystal_size_mid          0.26
_exptl_crystal_size_min          0.23
_exptl_crystal_density_meas      ?
_exptl_crystal_density_diffrn    1.321
_exptl_crystal_density_method    'not measured'
_exptl_crystal_F_000             6440
_exptl_absorpt_coefficient_mu    2.959
_exptl_absorpt_correction_type   MULTI-SCAN
_exptl_absorpt_correction_T_min  0.413
_exptl_absorpt_correction_T_max  0.506
_exptl_absorpt_process_details   'SADABS; Bruker, 2000'

_exptl_special_details           
;
?
;

_diffrn_ambient_temperature      291(2)
_diffrn_radiation_wavelength     0.71073
_diffrn_radiation_type           MoK\a
_diffrn_radiation_source         'sealed tube'
_diffrn_radiation_monochromator  graphite
_diffrn_measurement_device_type  'Bruker Smart Apex CCD'
_diffrn_measurement_method       'phi and omega scans'
_diffrn_detector_area_resol_mean ?
_diffrn_standards_number         ?
_diffrn_standards_interval_count ?
_diffrn_standards_interval_time  ?
_diffrn_standards_decay_%        ?
_diffrn_reflns_number            87516
_diffrn_reflns_av_R_equivalents  0.0488
_diffrn_reflns_av_sigmaI/netI    0.0623
_diffrn_reflns_limit_h_min       -30
_diffrn_reflns_limit_h_max       31
_diffrn_reflns_limit_k_min       -30
_diffrn_reflns_limit_k_max       38
_diffrn_reflns_limit_l_min       -25
_diffrn_reflns_limit_l_max       25
_diffrn_reflns_theta_min         1.73
_diffrn_reflns_theta_max         26.00
_reflns_number_total             32283
_reflns_number_gt                25739
_reflns_threshold_expression     >2sigma(I)

_computing_data_collection       'SMART (Bruker, 2000)'
_computing_cell_refinement       SMART
_computing_data_reduction        'SAINT (Bruker, 2000)'
_computing_structure_solution    'SHELXTL (Bruker, 2000)'
_computing_structure_refinement  SHELXTL
_computing_molecular_graphics    SHELXTL
_computing_publication_material  SHELXTL

_refine_special_details          
;
Refinement of F^2^ against ALL reflections. The weighted R-factor wR and
goodness of fit S are based on F^2^, conventional R-factors R are based
on F, with F set to zero for negative F^2^. The threshold expression of
F^2^ > 2sigma(F^2^) is used only for calculating R-factors(gt) etc. and is
not relevant to the choice of reflections for refinement. R-factors based
on F^2^ are statistically about twice as large as those based on F, and R-
factors based on ALL data will be even larger.
;

_refine_ls_structure_factor_coef Fsqd
_refine_ls_matrix_type           full
_refine_ls_weighting_scheme      calc
_refine_ls_weighting_details     
'calc w=1/[\s^2^(Fo^2^)+(0.06P)^2^+1.99P] where P=(Fo^2^+2Fc^2^)/3'
_atom_sites_solution_primary     direct
_atom_sites_solution_secondary   difmap
_atom_sites_solution_hydrogens   geom
_refine_ls_hydrogen_treatment    constr
_refine_ls_extinction_method     none
_refine_ls_extinction_coef       ?
_refine_ls_abs_structure_details 'Flack H D (1983), Acta Cryst. A39, 876-881'
_refine_ls_abs_structure_Flack   0.055(5)
_refine_ls_number_reflns         32283
_refine_ls_number_parameters     1456
_refine_ls_number_restraints     1
_refine_ls_R_factor_all          0.0733
_refine_ls_R_factor_gt           0.0575
_refine_ls_wR_factor_ref         0.1214
_refine_ls_wR_factor_gt          0.1175
_refine_ls_goodness_of_fit_ref   1.082
_refine_ls_restrained_S_all      1.082
_refine_ls_shift/su_max          0.003
_refine_ls_shift/su_mean         0.000

loop_
_atom_site_label
_atom_site_type_symbol
_atom_site_fract_x
_atom_site_fract_y
_atom_site_fract_z
_atom_site_U_iso_or_equiv
_atom_site_adp_type
_atom_site_occupancy
_atom_site_symmetry_multiplicity
_atom_site_calc_flag
_atom_site_refinement_flags
_atom_site_disorder_assembly
_atom_site_disorder_group
C1 C 0.8964(3) 0.5327(3) 0.5042(4) 0.0469(19) Uani 1 1 d . . .
H1 H 0.8828 0.5090 0.4830 0.056 Uiso 1 1 calc R . .
C2 C 0.8627(3) 0.5597(3) 0.5293(4) 0.052(2) Uani 1 1 d . . .
H2 H 0.8272 0.5527 0.5292 0.062 Uiso 1 1 calc R . .
C3 C 0.8784(3) 0.5982(3) 0.5558(5) 0.053(2) Uani 1 1 d . . .
C4 C 0.9323(3) 0.6063(2) 0.5594(4) 0.049(2) Uani 1 1 d . . .
H4 H 0.9463 0.6303 0.5795 0.058 Uiso 1 1 calc R . .
C5 C 0.9642(3) 0.5739(3) 0.5290(4) 0.051(2) Uani 1 1 d . . .
H5 H 0.9996 0.5808 0.5248 0.061 Uiso 1 1 calc R . .
C6 C 0.8430(3) 0.6321(2) 0.5798(4) 0.0437(19) Uani 1 1 d . . .
C7 C 0.7911(3) 0.6214(2) 0.5925(4) 0.047(2) Uani 1 1 d . . .
H7 H 0.7792 0.5938 0.5837 0.056 Uiso 1 1 calc R . .
C8 C 0.7560(3) 0.6519(3) 0.6187(4) 0.051(2) Uani 1 1 d . . .
H8 H 0.7217 0.6434 0.6272 0.062 Uiso 1 1 calc R . .
C9 C 0.7697(3) 0.6919(3) 0.6316(4) 0.050(2) Uani 1 1 d . . .
C10 C 0.8232(4) 0.7018(3) 0.6216(5) 0.056(2) Uani 1 1 d . . .
H10 H 0.8356 0.7288 0.6334 0.067 Uiso 1 1 calc R . .
C11 C 0.8581(3) 0.6725(3) 0.5947(4) 0.050(2) Uani 1 1 d . . .
H11 H 0.8925 0.6810 0.5866 0.060 Uiso 1 1 calc R . .
C12 C 0.7320(3) 0.7215(3) 0.6613(5) 0.052(2) Uani 1 1 d . . .
C13 C 0.6907(4) 0.7106(3) 0.6952(4) 0.056(2) Uani 1 1 d . . .
H13 H 0.6865 0.6815 0.7035 0.067 Uiso 1 1 calc R . .
C14 C 0.6522(3) 0.7383(3) 0.7202(4) 0.052(2) Uani 1 1 d . . .
H14 H 0.6232 0.7278 0.7423 0.062 Uiso 1 1 calc R . .
C15 C 0.6594(3) 0.7811(3) 0.7105(4) 0.050(2) Uani 1 1 d . . .
C16 C 0.7037(4) 0.7958(3) 0.6780(5) 0.063(3) Uani 1 1 d . . .
H16 H 0.7094 0.8251 0.6731 0.075 Uiso 1 1 calc R . .
C17 C 0.7398(3) 0.7658(3) 0.6524(4) 0.053(2) Uani 1 1 d . . .
H17 H 0.7689 0.7754 0.6296 0.064 Uiso 1 1 calc R . .
C18 C 0.5315(3) 0.8322(3) 0.7635(5) 0.054(2) Uani 1 1 d . . .
H18 H 0.4967 0.8238 0.7691 0.065 Uiso 1 1 calc R . .
C19 C 0.5653(3) 0.8043(2) 0.7409(5) 0.053(2) Uani 1 1 d . . .
H19 H 0.5535 0.7769 0.7303 0.064 Uiso 1 1 calc R . .
C20 C 0.6209(3) 0.8148(3) 0.7318(5) 0.055(2) Uani 1 1 d . . .
C21 C 0.6332(3) 0.8561(3) 0.7442(4) 0.051(2) Uani 1 1 d . . .
H21 H 0.6663 0.8668 0.7342 0.061 Uiso 1 1 calc R . .
C22 C 0.5942(3) 0.8829(3) 0.7731(5) 0.054(2) Uani 1 1 d . . .
H22 H 0.6041 0.9097 0.7887 0.064 Uiso 1 1 calc R . .
C23 C 1.0251(3) 0.5825(3) 0.1324(4) 0.049(2) Uani 1 1 d . . .
H23 H 0.9908 0.5903 0.1426 0.058 Uiso 1 1 calc R . .
C24 C 1.0567(3) 0.6121(3) 0.1045(5) 0.059(2) Uani 1 1 d . . .
H24 H 1.0448 0.6401 0.0990 0.070 Uiso 1 1 calc R . .
C25 C 1.1063(3) 0.6009(3) 0.0841(5) 0.052(2) Uani 1 1 d . . .
C26 C 1.1211(3) 0.5601(3) 0.0926(5) 0.054(2) Uani 1 1 d . . .
H26 H 1.1540 0.5511 0.0786 0.065 Uiso 1 1 calc R . .
C27 C 1.0888(4) 0.5324(3) 0.1209(5) 0.064(3) Uani 1 1 d . . .
H27 H 1.0997 0.5039 0.1238 0.077 Uiso 1 1 calc R . .
C28 C 1.1398(3) 0.6333(3) 0.0498(5) 0.059(2) Uani 1 1 d . . .
C29 C 1.1234(3) 0.6740(3) 0.0309(4) 0.052(2) Uani 1 1 d . . .
H29 H 1.0883 0.6815 0.0364 0.062 Uiso 1 1 calc R . .
C30 C 1.1582(3) 0.7043(3) 0.0039(5) 0.060(3) Uani 1 1 d . . .
H30 H 1.1457 0.7311 -0.0088 0.072 Uiso 1 1 calc R . .
C31 C 1.2126(3) 0.6940(3) -0.0040(5) 0.054(2) Uani 1 1 d . . .
C32 C 1.2273(3) 0.6559(3) 0.0160(4) 0.051(2) Uani 1 1 d . . .
H32 H 1.2628 0.6491 0.0126 0.061 Uiso 1 1 calc R . .
C33 C 1.1937(3) 0.6244(3) 0.0422(5) 0.057(2) Uani 1 1 d . . .
H33 H 1.2071 0.5979 0.0544 0.068 Uiso 1 1 calc R . .
C34 C 1.2480(3) 0.7260(3) -0.0283(4) 0.047(2) Uani 1 1 d . . .
C35 C 1.2380(4) 0.7694(3) -0.0216(5) 0.059(2) Uani 1 1 d . . .
H35 H 1.2062 0.7787 -0.0048 0.071 Uiso 1 1 calc R . .
C36 C 1.2764(3) 0.7994(3) -0.0403(5) 0.055(2) Uani 1 1 d . . .
H36 H 1.2697 0.8286 -0.0361 0.066 Uiso 1 1 calc R . .
C37 C 1.3250(3) 0.7856(3) -0.0652(5) 0.057(2) Uani 1 1 d . . .
C38 C 1.3333(4) 0.7418(3) -0.0722(5) 0.058(2) Uani 1 1 d . . .
H38 H 1.3647 0.7321 -0.0897 0.070 Uiso 1 1 calc R . .
C39 C 1.2957(4) 0.7126(3) -0.0535(5) 0.061(3) Uani 1 1 d . . .
H39 H 1.3024 0.6833 -0.0577 0.073 Uiso 1 1 calc R . .
C40 C 1.4559(3) 0.8326(3) -0.1098(4) 0.053(2) Uani 1 1 d . . .
H40 H 1.4905 0.8234 -0.1138 0.064 Uiso 1 1 calc R . .
C41 C 1.4199(3) 0.8044(3) -0.0901(4) 0.048(2) Uani 1 1 d . . .
H41 H 1.4297 0.7766 -0.0791 0.058 Uiso 1 1 calc R . .
C42 C 1.3662(3) 0.8175(3) -0.0861(4) 0.050(2) Uani 1 1 d . . .
C43 C 1.3567(4) 0.8598(3) -0.0991(5) 0.053(2) Uani 1 1 d . . .
H43 H 1.3229 0.8707 -0.0940 0.064 Uiso 1 1 calc R . .
C44 C 1.3939(3) 0.8850(3) -0.1184(4) 0.050(2) Uani 1 1 d . . .
H44 H 1.3848 0.9129 -0.1292 0.060 Uiso 1 1 calc R . .
C45 C 0.3293(4) 0.0775(3) 1.0237(5) 0.070(3) Uani 1 1 d . . .
H45 H 0.3164 0.0593 1.0553 0.084 Uiso 1 1 calc R . .
C46 C 0.3655(5) 0.1123(3) 1.0418(6) 0.073(3) Uani 1 1 d . . .
H46 H 0.3766 0.1154 1.0839 0.087 Uiso 1 1 calc R . .
C47 C 0.3834(4) 0.1415(3) 0.9937(5) 0.058(2) Uani 1 1 d . . .
C48 C 0.3628(4) 0.1331(3) 0.9350(5) 0.068(3) Uani 1 1 d . . .
H48 H 0.3717 0.1521 0.9025 0.081 Uiso 1 1 calc R . .
C49 C 0.3293(4) 0.0987(3) 0.9181(5) 0.063(3) Uani 1 1 d . . .
H49 H 0.3178 0.0952 0.8762 0.076 Uiso 1 1 calc R . .
C50 C 0.4198(3) 0.1757(3) 1.0102(4) 0.051(2) Uani 1 1 d . . .
C51 C 0.4557(4) 0.1694(4) 1.0577(5) 0.068(3) Uani 1 1 d . . .
H51 H 0.4554 0.1433 1.0793 0.082 Uiso 1 1 calc R . .
C52 C 0.4922(4) 0.1997(3) 1.0751(5) 0.062(2) Uani 1 1 d . . .
H52 H 0.5157 0.1940 1.1080 0.074 Uiso 1 1 calc R . .
C53 C 0.4939(3) 0.2395(3) 1.0429(4) 0.051(2) Uani 1 1 d . . .
C54 C 0.4584(4) 0.2447(4) 0.9944(5) 0.073(3) Uani 1 1 d . . .
H54 H 0.4583 0.2701 0.9712 0.088 Uiso 1 1 calc R . .
C55 C 0.4226(4) 0.2128(3) 0.9792(5) 0.070(3) Uani 1 1 d . . .
H55 H 0.3994 0.2176 0.9456 0.084 Uiso 1 1 calc R . .
C56 C 0.5349(2) 0.27219(17) 1.0625(3) 0.060(2) Uani 1 1 d G . .
C57 C 0.5498(3) 0.27999(18) 1.1253(3) 0.070(3) Uani 1 1 d G . .
H57 H 0.5359 0.2634 1.1582 0.084 Uiso 1 1 calc R . .
C58 C 0.5854(2) 0.3126(2) 1.1390(2) 0.060(2) Uani 1 1 d G . .
H58 H 0.5953 0.3178 1.1811 0.072 Uiso 1 1 calc R . .
C59 C 0.6061(2) 0.33737(17) 1.0899(3) 0.056(2) Uani 1 1 d G . .
C60 C 0.5913(3) 0.3296(2) 1.0271(3) 0.074(3) Uani 1 1 d G . .
H60 H 0.6051 0.3462 0.9942 0.089 Uiso 1 1 calc R . .
C61 C 0.5557(3) 0.2970(2) 1.0134(2) 0.073(3) Uani 1 1 d G . .
H61 H 0.5457 0.2918 0.9714 0.087 Uiso 1 1 calc R . .
C62 C 0.7016(4) 0.4034(3) 1.1781(4) 0.054(2) Uani 1 1 d . . .
H62 H 0.7202 0.4009 1.2161 0.065 Uiso 1 1 calc R . .
C63 C 0.6714(4) 0.3705(3) 1.1614(5) 0.062(2) Uani 1 1 d . . .
H63 H 0.6704 0.3459 1.1865 0.074 Uiso 1 1 calc R . .
C64 C 0.6419(3) 0.3730(3) 1.1069(4) 0.050(2) Uani 1 1 d . . .
C65 C 0.6478(3) 0.4085(3) 1.0671(5) 0.058(2) Uani 1 1 d . . .
H65 H 0.6300 0.4105 1.0284 0.069 Uiso 1 1 calc R . .
C66 C 0.6815(4) 0.4409(3) 1.0881(5) 0.065(2) Uani 1 1 d . . .
H66 H 0.6863 0.4644 1.0614 0.078 Uiso 1 1 calc R . .
C67 C 0.2886(4) -0.1613(3) 0.7750(5) 0.054(2) Uani 1 1 d . . .
H67 H 0.2629 -0.1748 0.7994 0.064 Uiso 1 1 calc R . .
C68 C 0.3254(3) -0.1856(3) 0.7469(5) 0.054(2) Uani 1 1 d . . .
H68 H 0.3263 -0.2152 0.7535 0.064 Uiso 1 1 calc R . .
C69 C 0.3635(4) -0.1649(3) 0.7060(5) 0.058(2) Uani 1 1 d . . .
C70 C 0.3584(3) -0.1221(3) 0.7005(4) 0.050(2) Uani 1 1 d . . .
H70 H 0.3816 -0.1072 0.6743 0.060 Uiso 1 1 calc R . .
C71 C 0.3216(3) -0.1007(3) 0.7309(4) 0.0456(19) Uani 1 1 d . . .
H71 H 0.3198 -0.0711 0.7249 0.055 Uiso 1 1 calc R . .
C72 C 0.4012(4) -0.1922(3) 0.6687(5) 0.065(3) Uani 1 1 d . . .
C73 C 0.4238(3) -0.2285(3) 0.6953(4) 0.053(2) Uani 1 1 d . . .
H73 H 0.4151 -0.2374 0.7363 0.064 Uiso 1 1 calc R . .
C74 C 0.4599(3) -0.2512(3) 0.6586(4) 0.052(2) Uani 1 1 d . . .
H74 H 0.4752 -0.2757 0.6758 0.062 Uiso 1 1 calc R . .
C75 C 0.4739(4) -0.2386(3) 0.5972(5) 0.061(3) Uani 1 1 d . . .
C76 C 0.4551(3) -0.2003(3) 0.5731(5) 0.056(2) Uani 1 1 d . . .
H76 H 0.4677 -0.1897 0.5345 0.067 Uiso 1 1 calc R . .
C77 C 0.4166(3) -0.1774(3) 0.6075(5) 0.052(2) Uani 1 1 d . . .
H77 H 0.4015 -0.1528 0.5902 0.062 Uiso 1 1 calc R . .
C78 C 0.5159(4) -0.2632(3) 0.5616(5) 0.069(3) Uani 1 1 d . . .
C79 C 0.5523(3) -0.2898(3) 0.5920(5) 0.062(2) Uani 1 1 d . . .
H79 H 0.5539 -0.2910 0.6363 0.074 Uiso 1 1 calc R . .
C80 C 0.5861(3) -0.3147(3) 0.5550(5) 0.062(2) Uani 1 1 d . . .
H80 H 0.6108 -0.3323 0.5748 0.074 Uiso 1 1 calc R . .
C81 C 0.5832(5) -0.3134(3) 0.4884(5) 0.074(3) Uani 1 1 d . . .
C82 C 0.5467(3) -0.2876(3) 0.4589(5) 0.059(2) Uani 1 1 d . . .
H82 H 0.5447 -0.2872 0.4145 0.071 Uiso 1 1 calc R . .
C83 C 0.5126(4) -0.2618(3) 0.4948(5) 0.061(2) Uani 1 1 d . . .
H83 H 0.4882 -0.2441 0.4747 0.073 Uiso 1 1 calc R . .
C84 C 0.6630(3) -0.3563(3) 0.3515(5) 0.059(2) Uani 1 1 d . . .
H84 H 0.6685 -0.3498 0.3086 0.071 Uiso 1 1 calc R . .
C85 C 0.6285(4) -0.3324(3) 0.3875(5) 0.059(2) Uani 1 1 d . . .
H85 H 0.6100 -0.3102 0.3680 0.071 Uiso 1 1 calc R . .
C86 C 0.6211(4) -0.3399(3) 0.4483(5) 0.063(3) Uani 1 1 d . . .
C87 C 0.6488(4) -0.3758(3) 0.4758(5) 0.056(2) Uani 1 1 d . . .
H87 H 0.6451 -0.3828 0.5187 0.067 Uiso 1 1 calc R . .
C88 C 0.6805(4) -0.3989(3) 0.4365(5) 0.059(2) Uani 1 1 d . . .
H88 H 0.6971 -0.4231 0.4528 0.071 Uiso 1 1 calc R . .
C89 C 0.5835(3) 0.4627(3) 0.4473(4) 0.0468(19) Uani 1 1 d . . .
H89 H 0.5964 0.4905 0.4449 0.056 Uiso 1 1 calc R . .
C90 C 0.6130(3) 0.4328(3) 0.4763(4) 0.049(2) Uani 1 1 d . . .
H90 H 0.6444 0.4412 0.4951 0.059 Uiso 1 1 calc R . .
C91 C 0.5995(4) 0.3921(3) 0.4792(5) 0.053(2) Uani 1 1 d . . .
C92 C 0.5472(3) 0.3850(3) 0.4569(4) 0.048(2) Uani 1 1 d . . .
H92 H 0.5316 0.3582 0.4622 0.057 Uiso 1 1 calc R . .
C93 C 0.5207(3) 0.4160(2) 0.4287(4) 0.0446(18) Uani 1 1 d . . .
H93 H 0.4876 0.4095 0.4125 0.054 Uiso 1 1 calc R . .
C94 C 0.6335(3) 0.3556(3) 0.5016(4) 0.049(2) Uani 1 1 d . . .
C95 C 0.6859(3) 0.3565(2) 0.4803(5) 0.050(2) Uani 1 1 d . . .
H95 H 0.6969 0.3777 0.4520 0.060 Uiso 1 1 calc R . .
C96 C 0.7212(3) 0.3258(3) 0.5014(4) 0.0480(19) Uani 1 1 d . . .
H96 H 0.7559 0.3266 0.4876 0.058 Uiso 1 1 calc R . .
C97 C 0.7047(3) 0.2938(3) 0.5433(4) 0.0462(19) Uani 1 1 d . . .
C98 C 0.6526(3) 0.2926(2) 0.5636(4) 0.0418(18) Uani 1 1 d . . .
H98 H 0.6413 0.2713 0.5915 0.050 Uiso 1 1 calc R . .
C99 C 0.6174(3) 0.3238(3) 0.5414(5) 0.051(2) Uani 1 1 d . . .
H99 H 0.5824 0.3227 0.5542 0.061 Uiso 1 1 calc R . .
C100 C 0.7440(3) 0.2593(3) 0.5615(4) 0.0438(18) Uani 1 1 d . . .
C101 C 0.7287(3) 0.2179(2) 0.5799(4) 0.0470(19) Uani 1 1 d . . .
H101 H 0.6937 0.2096 0.5759 0.056 Uiso 1 1 calc R . .
C102 C 0.7656(3) 0.1892(3) 0.6041(4) 0.047(2) Uani 1 1 d . . .
H102 H 0.7551 0.1617 0.6157 0.057 Uiso 1 1 calc R . .
C103 C 0.8181(3) 0.2014(3) 0.6110(4) 0.053(2) Uani 1 1 d . . .
C104 C 0.8336(3) 0.2424(3) 0.5940(5) 0.054(2) Uani 1 1 d . . .
H104 H 0.8686 0.2507 0.5985 0.065 Uiso 1 1 calc R . .
C105 C 0.7968(3) 0.2710(3) 0.5704(4) 0.0457(19) Uani 1 1 d . . .
H105 H 0.8074 0.2988 0.5602 0.055 Uiso 1 1 calc R . .
C106 C 0.8861(3) 0.1107(3) 0.6920(4) 0.047(2) Uani 1 1 d . . .
H106 H 0.8759 0.0846 0.7095 0.056 Uiso 1 1 calc R . .
C107 C 0.8497(3) 0.1364(2) 0.6728(4) 0.0422(18) Uani 1 1 d . . .
H107 H 0.8151 0.1304 0.6841 0.051 Uiso 1 1 calc R . .
C108 C 0.8592(3) 0.1716(3) 0.6370(4) 0.051(2) Uani 1 1 d . . .
C109 C 0.9116(3) 0.1796(3) 0.6242(4) 0.048(2) Uani 1 1 d . . .
H109 H 0.9219 0.2023 0.5982 0.058 Uiso 1 1 calc R . .
C110 C 0.9488(3) 0.1518(2) 0.6522(4) 0.049(2) Uani 1 1 d . . .
H110 H 0.9841 0.1575 0.6439 0.058 Uiso 1 1 calc R . .
C111 C 0.4687(3) 0.4275(3) 0.0199(4) 0.050(2) Uani 1 1 d . . .
H111 H 0.5046 0.4224 0.0160 0.060 Uiso 1 1 calc R . .
C112 C 0.4334(3) 0.4016(3) -0.0112(4) 0.049(2) Uani 1 1 d . . .
H112 H 0.4464 0.3820 -0.0408 0.059 Uiso 1 1 calc R . .
C113 C 0.3810(3) 0.4027(3) -0.0014(4) 0.0452(19) Uani 1 1 d . . .
C114 C 0.3633(3) 0.4328(3) 0.0371(4) 0.057(2) Uani 1 1 d . . .
H114 H 0.3276 0.4354 0.0461 0.068 