####################################################################### 
# 
# This file contains crystal structure data downloaded from the 
# Cambridge Structural Database (CSD) hosted by the Cambridge 
# Crystallographic Data Centre (CCDC).
# 
# Full information about CCDC data access policies and citation 
# guidelines are available at http://www.ccdc.cam.ac.uk/access/V1 
# 
# Audit and citation data items may have been added by the CCDC. 
# Please retain this information to preserve the provenance of 
# this file and to allow appropriate attribution of the data. 
# 
#######################################################################

data_yk901sadc2c
_audit_block_doi                 10.5517/ccv3d6j
_database_code_depnum_ccdc_archive 'CCDC 777827'
loop_
_citation_id
_citation_doi
_citation_year
1 10.1016/j.poly.2010.09.013 2010
_audit_update_record             
;
2010-05-20 deposited with the CCDC.	2024-07-08 downloaded from the CCDC.
;
#TrackingRef 'Co7_3.cif'


_audit_creation_method           SHELXL-97
_chemical_name_systematic        
;
?
;
_chemical_name_common            ?
_chemical_melting_point          ?
_chemical_formula_moiety         ?
_chemical_formula_sum            'C66 H48 Co7 N4 O26'
_chemical_formula_weight         1725.59

loop_
_atom_type_symbol
_atom_type_description
_atom_type_scat_dispersion_real
_atom_type_scat_dispersion_imag
_atom_type_scat_source
C C 0.0033 0.0016 'International Tables Vol C Tables 4.2.6.8 and 6.1.1.4'
H H 0.0000 0.0000 'International Tables Vol C Tables 4.2.6.8 and 6.1.1.4'
N N 0.0061 0.0033 'International Tables Vol C Tables 4.2.6.8 and 6.1.1.4'
O O 0.0106 0.0060 'International Tables Vol C Tables 4.2.6.8 and 6.1.1.4'
Co Co 0.3494 0.9721 'International Tables Vol C Tables 4.2.6.8 and 6.1.1.4'

_symmetry_cell_setting           Monoclinic
_symmetry_space_group_name_H-M   C2/c

loop_
_symmetry_equiv_pos_as_xyz
'x, y, z'
'-x, y, -z+1/2'
'x+1/2, y+1/2, z'
'-x+1/2, y+1/2, -z+1/2'
'-x, -y, -z'
'x, -y, z-1/2'
'-x+1/2, -y+1/2, -z'
'x+1/2, -y+1/2, z-1/2'

_cell_length_a                   24.038(5)
_cell_length_b                   23.217(5)
_cell_length_c                   15.263(3)
_cell_angle_alpha                90.00
_cell_angle_beta                 115.73(3)
_cell_angle_gamma                90.00
_cell_volume                     7673(3)
_cell_formula_units_Z            4
_cell_measurement_temperature    170(2)
_cell_measurement_reflns_used    3716
_cell_measurement_theta_min      2.13
_cell_measurement_theta_max      28.16

_exptl_crystal_description       block
_exptl_crystal_colour            red-brown
_exptl_crystal_size_max          0.20
_exptl_crystal_size_mid          0.10
_exptl_crystal_size_min          0.08
_exptl_crystal_density_meas      ?
_exptl_crystal_density_diffrn    1.494
_exptl_crystal_density_method    'not measured'
_exptl_crystal_F_000             3476
_exptl_absorpt_coefficient_mu    1.552
_exptl_absorpt_correction_type   multi-scan
_exptl_absorpt_correction_T_min  0.830
_exptl_absorpt_correction_T_max  0.883
_exptl_absorpt_process_details   '(SADABS; Bruker, 1997)'

_exptl_special_details           
;
?
;

_diffrn_ambient_temperature      170(2)
_diffrn_radiation_wavelength     0.71073
_diffrn_radiation_type           MoK\a
_diffrn_radiation_source         'fine-focus sealed tube'
_diffrn_radiation_monochromator  graphite
_diffrn_measurement_device_type  'CCD area detector'
_diffrn_measurement_method       'phi and omega scans'
_diffrn_detector_area_resol_mean ?
_diffrn_standards_number         ?
_diffrn_standards_interval_count ?
_diffrn_standards_interval_time  ?
_diffrn_standards_decay_%        ?
_diffrn_reflns_number            17110
_diffrn_reflns_av_R_equivalents  0.1489
_diffrn_reflns_av_sigmaI/netI    0.1741
_diffrn_reflns_limit_h_min       -28
_diffrn_reflns_limit_h_max       27
_diffrn_reflns_limit_k_min       -27
_diffrn_reflns_limit_k_max       27
_diffrn_reflns_limit_l_min       -18
_diffrn_reflns_limit_l_max       10
_diffrn_reflns_theta_min         1.88
_diffrn_reflns_theta_max         25.00
_reflns_number_total             6472
_reflns_number_gt                3372
_reflns_threshold_expression     >2sigma(I)

_computing_data_collection       'Bruker SMART'
_computing_cell_refinement       'Bruker SMART'
_computing_data_reduction        'Bruker SAINT'
_computing_structure_solution    'SHELXS-97 (Sheldrick, 1990)'
_computing_structure_refinement  'SHELXL-97 (Sheldrick, 1997)'
_computing_molecular_graphics    'Bruker SHELXTL'
_computing_publication_material  'Bruker SHELXTL'

_refine_special_details          
;
Refinement of F^2^ against ALL reflections. The weighted R-factor wR and
goodness of fit S are based on F^2^, conventional R-factors R are based
on F, with F set to zero for negative F^2^. The threshold expression of
F^2^ > 2sigma(F^2^) is used only for calculating R-factors(gt) etc. and is
not relevant to the choice of reflections for refinement. R-factors based
on F^2^ are statistically about twice as large as those based on F, and R-
factors based on ALL data will be even larger.
;

_refine_ls_structure_factor_coef Fsqd
_refine_ls_matrix_type           full
_refine_ls_weighting_scheme      calc
_refine_ls_weighting_details     
'calc w=1/[\s^2^(Fo^2^)+(0.1042P)^2^+0.0000P] where P=(Fo^2^+2Fc^2^)/3'
_atom_sites_solution_primary     direct
_atom_sites_solution_secondary   difmap
_atom_sites_solution_hydrogens   geom
_refine_ls_hydrogen_treatment    constr
_refine_ls_extinction_method     none
_refine_ls_extinction_coef       ?
_refine_ls_number_reflns         6472
_refine_ls_number_parameters     480
_refine_ls_number_restraints     2
_refine_ls_R_factor_all          0.1372
_refine_ls_R_factor_gt           0.0755
_refine_ls_wR_factor_ref         0.1976
_refine_ls_wR_factor_gt          0.1790
_refine_ls_goodness_of_fit_ref   0.917
_refine_ls_restrained_S_all      0.917
_refine_ls_shift/su_max          0.001
_refine_ls_shift/su_mean         0.000

loop_
_atom_site_label
_atom_site_type_symbol
_atom_site_fract_x
_atom_site_fract_y
_atom_site_fract_z
_atom_site_U_iso_or_equiv
_atom_site_adp_type
_atom_site_occupancy
_atom_site_symmetry_multiplicity
_atom_site_calc_flag
_atom_site_refinement_flags
_atom_site_disorder_assembly
_atom_site_disorder_group
C11 C 0.2387(4) 0.8802(4) 0.2827(5) 0.043(2) Uani 1 1 d . . .
C12 C 0.2327(5) 0.9195(5) 0.3602(7) 0.074(4) Uani 1 1 d . . .
C13 C 0.2690(4) 0.9676(4) 0.3930(6) 0.055(3) Uani 1 1 d . . .
H13 H 0.2970 0.9778 0.3667 0.066 Uiso 1 1 calc R . .
C14 C 0.2646(5) 0.9983(4) -0.0347(6) 0.069(3) Uani 1 1 d . . .
C15 C 0.2211(6) 1.0128(5) 0.0016(8) 0.093(4) Uani 1 1 d . . .
H15 H 0.2171 0.9889 0.0492 0.112 Uiso 1 1 calc R . .
C16 C 0.1852(6) 1.0604(5) -0.0307(10) 0.121(6) Uani 1 1 d . . .
H16 H 0.1569 1.0699 -0.0046 0.145 Uiso 1 1 calc R . .
C17 C 0.1893(6) 0.9046(6) 0.3981(10) 0.123(6) Uani 1 1 d . . .
H17 H 0.1638 0.8715 0.3750 0.147 Uiso 1 1 calc R . .
C18 C 0.3012(4) 0.9436(4) -0.0018(5) 0.052(3) Uani 1 1 d . . .
C21 C 0.3533(3) 0.7608(3) 0.3302(5) 0.0259(17) Uani 1 1 d . . .
C22 C 0.4062(3) 0.7338(3) 0.4170(5) 0.0274(17) Uani 1 1 d . . .
C23 C 0.4645(3) 0.7586(3) 0.4525(5) 0.0245(16) Uani 1 1 d . . .
H23 H 0.4700 0.7939 0.4257 0.029 Uiso 1 1 calc R . .
C24 C 0.5146(3) 0.7323(3) 0.5266(5) 0.0329(19) Uani 1 1 d . . .
C25 C 0.5048(4) 0.6815(4) 0.5671(6) 0.050(2) Uani 1 1 d . . .
H25 H 0.5389 0.6626 0.6168 0.060 Uiso 1 1 calc R . .
C26 C 0.4463(4) 0.6583(4) 0.5364(7) 0.054(3) Uani 1 1 d . . .
H26 H 0.4401 0.6250 0.5673 0.065 Uiso 1 1 calc R . .
C27 C 0.3969(4) 0.6840(3) 0.4602(6) 0.044(2) Uani 1 1 d . . .
H27 H 0.3567 0.6678 0.4374 0.053 Uiso 1 1 calc R . .
C28 C 0.4213(3) 0.7568(4) -0.0557(5) 0.0324(19) Uani 1 1 d . . .
C31 C 0.1131(3) 0.7380(3) -0.1346(5) 0.0299(18) Uani 1 1 d . . .
C32 C 0.0549(4) 0.7658(4) -0.1967(9) 0.080(4) Uani 1 1 d . . .
C33 C 0.0000 0.7369(4) -0.2500 0.023(2) Uani 1 2 d S . .
H33 H 0.0000 0.6960 -0.2500 0.027 Uiso 1 2 calc SR . .
C34 C -0.0562(6) 0.8255(6) -0.2539(9) 0.025(3) Uani 0.50 1 d P . .
H34 H -0.0967 0.8383 -0.2569 0.030 Uiso 0.50 1 calc PR . .
C35 C -0.0030(7) 0.8495(5) -0.1815(10) 0.028(3) Uani 0.50 1 d P . .
H35 H -0.0054 0.8867 -0.1574 0.033 Uiso 0.50 1 calc PR . .
C36 C 0.0502(6) 0.8225(5) -0.1455(9) 0.020(3) Uani 0.50 1 d P . .
H36 H 0.0848 0.8352 -0.0830 0.024 Uiso 0.50 1 calc PR . .
C41 C 0.4522(4) 0.9132(4) 0.3106(5) 0.044(2) Uani 1 1 d . . .
H41 H 0.4655 0.8747 0.3112 0.052 Uiso 1 1 calc R . .
C42 C 0.4955(4) 0.9550(4) 0.3641(6) 0.051(2) Uani 1 1 d . . .
H42 H 0.5378 0.9450 0.3990 0.061 Uiso 1 1 calc R . .
C43 C 0.4761(4) 1.0117(4) 0.3660(7) 0.053(2) Uani 1 1 d . . .
C44 C 0.4157(4) 1.0241(4) 0.3149(6) 0.045(2) Uani 1 1 d . . .
H44 H 0.4008 1.0619 0.3158 0.054 Uiso 1 1 calc R . .
C45 C 0.3760(4) 0.9813(3) 0.2614(5) 0.0360(19) Uani 1 1 d . . .
H45 H 0.3339 0.9914 0.2237 0.043 Uiso 1 1 calc R . .
C46 C 0.5209(5) 1.0543(5) 0.4319(8) 0.087(4) Uani 1 1 d D . .
H46A H 0.5524 1.0343 0.4892 0.105 Uiso 1 1 calc R . .
H46B H 0.4991 1.0822 0.4551 0.105 Uiso 1 1 calc R . .
C47 C 0.5525(6) 1.0864(5) 0.3776(8) 0.116(6) Uani 1 1 d D . .
H47A H 0.5212 1.1088 0.3232 0.139 Uiso 1 1 calc R . .
H47B H 0.5713 1.0582 0.3499 0.139 Uiso 1 1 calc R . .
C48 C 0.6028(5) 1.1275(4) 0.4466(9) 0.100(5) Uani 1 1 d D . .
H48A H 0.5843 1.1556 0.4752 0.120 Uiso 1 1 calc R . .
H48B H 0.6347 1.1053 0.5003 0.120 Uiso 1 1 calc R . .
C49 C 0.1312(5) 0.6583(5) 0.3904(8) 0.071(4) Uani 1 1 d . . .
C50 C 0.1776(5) 0.6321(4) 0.3680(8) 0.068(3) Uani 1 1 d . . .
H50 H 0.1924 0.5947 0.3921 0.082 Uiso 1 1 calc R . .
C51 C 0.2013(5) 0.6608(5) 0.3116(8) 0.064(3) Uani 1 1 d . . .
H51 H 0.2333 0.6430 0.3005 0.076 Uiso 1 1 calc R . .
C52 C 0.1357(4) 0.7383(4) 0.2927(6) 0.054(3) Uani 1 1 d . . .
H52 H 0.1202 0.7752 0.2665 0.065 Uiso 1 1 calc R . .
C53 C 0.1117(4) 0.7115(5) 0.3515(7) 0.062(3) Uani 1 1 d . . .
H53 H 0.0812 0.7308 0.3644 0.075 Uiso 1 1 calc R . .
Co1 Co 0.2500 0.7500 0.0000 0.0465(5) Uani 1 2 d S . .
Co2 Co 0.32369(4) 0.86151(4) 0.18548(6) 0.0246(3) Uani 1 1 d . . .
Co3 Co 0.21896(5) 0.76087(6) 0.18669(7) 0.0439(4) Uani 1 1 d . . .
Co4 Co 0.35174(4) 0.84463(4) -0.01239(6) 0.0296(3) Uani 1 1 d . . .
N41 N 0.3923(3) 0.9261(2) 0.2584(4) 0.0282(14) Uani 1 1 d . . .
N42 N 0.1802(3) 0.7139(4) 0.2713(5) 0.052(2) Uani 1 1 d . . .
O1 O 0.2497(2) 0.8104(2) 0.0995(3) 0.0402(14) Uani 1 1 d . . .
O2 O 0.2745(2) 0.8056(2) -0.0931(3) 0.0397(14) Uani 1 1 d . . .
O11 O 0.2691(2) 0.9040(2) 0.2399(3) 0.0335(12) Uani 1 1 d . . .
O12 O 0.2140(3) 0.8333(3) 0.2675(4) 0.0592(19) Uani 1 1 d . . .
O13 O 0.2910(3) 0.9133(2) 0.0603(4) 0.0544(17) Uani 1 1 d . . .
O14 O 0.3376(2) 0.9282(3) -0.0381(4) 0.0484(16) Uani 1 1 d . . .
O21 O 0.3650(2) 0.8092(2) 0.3037(3) 0.0302(12) Uani 1 1 d . . .
O22 O 0.3045(2) 0.7333(2) 0.2905(3) 0.0346(13) Uani 1 1 d . . .
O23 O 0.1238(2) 0.7769(2) 0.0897(4) 0.0405(14) Uani 1 1 d . . .
O24 O 0.4191(2) 0.8104(2) -0.0395(3) 0.0347(13) Uani 1 1 d . . .
O31 O 0.1580(2) 0.7698(2) -0.0907(3) 0.0321(12) Uani 1 1 d . . .
O32 O 0.38609(19) 0.81796(19) 0.1278(3) 0.0233(11) Uani 1 1 d . . .
O1S O 0.1389(4) 0.8906(3) 0.0263(11) 0.177(6) Uani 1 1 d . . .

loop_
_atom_site_aniso_label
_atom_site_aniso_U_11
_atom_site_aniso_U_22
_atom_site_aniso_U_33
_atom_site_aniso_U_23
_atom_site_aniso_U_13
_atom_site_aniso_U_12
C11 0.026(5) 0.080(7) 0.025(4) -0.028(4) 0.013(4) -0.013(5)
C12 0.066(7) 0.118(9) 0.065(6) -0.066(6) 0.055(6) -0.061(6)
C13 0.052(6) 0.087(7) 0.042(5) -0.041(5) 0.037(4) -0.049(5)
C14 0.084(7) 0.100(8) 0.043(5) 0.047(5) 0.048(5) 0.076(7)
C15 0.127(10) 0.114(9) 0.087(8) 0.077(7) 0.092(8) 0.093(8)
C16 0.155(12) 0.131(11) 0.150(11) 0.131(10) 0.134(10) 0.128(10)
C17 0.121(11) 0.160(12) 0.157(12) -0.134(10) 0.125(10) -0.117(10)
C18 0.057(6) 0.071(6) 0.021(4) 0.015(4) 0.012(4) 0.038(5)
C21 0.019(4) 0.035(5) 0.026(4) -0.007(4) 0.012(3) -0.001(3)
C22 0.020(4) 0.027(4) 0.036(4) 0.001(4) 0.013(3) -0.006(3)
C23 0.017(4) 0.024(4) 0.031(4) 0.008(3) 0.009(3) 0.000(3)
C24 0.030(5) 0.030(4) 0.041(4) 0.020(4) 0.017(4) 0.001(3)
C25 0.032(5) 0.048(6) 0.067(6) 0.030(5) 0.019(4) 0.009(4)
C26 0.046(6) 0.047(6) 0.073(6) 0.038(5) 0.028(5) 0.005(5)
C27 0.031(5) 0.038(5) 0.065(6) 0.013(4) 0.021(4) -0.005(4)
C28 0.014(4) 0.052(5) 0.028(4) -0.025(4) 0.006(3) -0.004(4)
C31 0.019(4) 0.041(5) 0.032(4) -0.021(4) 0.013(3) -0.014(4)
C32 0.014(5) 0.023(5) 0.167(11) -0.013(6) 0.004(6) -0.007(4)
C33 0.020(6) 0.011(5) 0.034(5) 0.000 0.010(5) 0.000
C34 0.010(7) 0.028(8) 0.031(7) -0.004(7) 0.003(6) 0.007(6)
C35 0.030(9) 0.008(7) 0.038(8) -0.009(7) 0.009(7) -0.008(6)
C36 0.019(8) 0.013(7) 0.024(7) -0.002(6) 0.006(6) -0.003(6)
C41 0.036(5) 0.050(6) 0.039(4) -0.010(4) 0.011(4) 0.012(4)
C42 0.029(5) 0.058(6) 0.061(6) -0.013(5) 0.016(4) 0.004(4)
C43 0.049(6) 0.051(6) 0.062(6) -0.018(5) 0.029(5) -0.013(5)
C44 0.048(6) 0.037(5) 0.065(6) 0.002(5) 0.039(5) -0.004(4)
C45 0.036(5) 0.037(5) 0.042(4) 0.016(4) 0.023(4) 0.003(4)
C46 0.067(8) 0.090(8) 0.126(10) -0.059(8) 0.061(8) -0.041(6)
C47 0.156(13) 0.083(9) 0.175(13) -0.080(9) 0.133(12) -0.084(9)
C48 0.135(11) 0.052(7) 0.185(13) -0.052(8) 0.137(11) -0.056(7)
C49 0.092(8) 0.054(7) 0.114(9) -0.051(7) 0.090(8) -0.056(6)
C50 0.089(8) 0.048(6) 0.110(9) -0.038(6) 0.083(7) -0.035(5)
C51 0.049(6) 0.067(7) 0.087(8) -0.045(6) 0.040(6) -0.044(6)
C52 0.036(5) 0.090(7) 0.049(5) -0.027(5) 0.031(5) -0.025(5)
C53 0.053(6) 0.079(8) 0.076(7) -0.052(6) 0.048(6) -0.036(6)
Co1 0.0150(8) 0.1061(15) 0.0200(7) -0.0284(8) 0.0091(6) -0.0231(8)
Co2 0.0179(5) 0.0380(6) 0.0148(5) -0.0009(4) 0.0043(4) 0.0049(4)
Co3 0.0188(6) 0.0908(10) 0.0248(6) -0.0294(6) 0.0120(5) -0.0239(6)
Co4 0.0148(5) 0.0488(7) 0.0202(5) -0.0103(5) 0.0029(4) 0.0027(5)
N41 0.029(4) 0.027(4) 0.034(3) 0.008(3) 0.019(3) 0.007(3)
N42 0.035(4) 0.091(6) 0.033(4) -0.036(4) 0.018(3) -0.033(4)
O1 0.017(3) 0.085(4) 0.020(2) -0.018(3) 0.010(2) -0.013(3)
O2 0.016(3) 0.086(4) 0.017(2) -0.013(3) 0.008(2) -0.008(3)
O11 0.032(3) 0.045(3) 0.029(3) -0.001(2) 0.018(2) 0.009(2)
O12 0.040(4) 0.091(5) 0.058(4) -0.056(4) 0.033(3) -0.046(4)
O13 0.066(4) 0.059(4) 0.033(3) 0.023(3) 0.017(3) 0.032(3)
O14 0.041(3) 0.071(4) 0.034(3) 0.011(3) 0.016(3) 0.037(3)
O21 0.020(3) 0.031(3) 0.029(3) -0.001(2) 0.000(2) -0.002(2)
O22 0.017(3) 0.052(3) 0.030(3) -0.010(3) 0.006(2) -0.019(2)
O23 0.021(3) 0.058(4) 0.042(3) -0.030(3) 0.013(2) -0.017(3)
O24 0.017(3) 0.050(3) 0.034(3) -0.021(3) 0.008(2) 0.002(2)
O31 0.025(3) 0.044(3) 0.025(3) -0.016(2) 0.008(2) -0.015(2)
O32 0.018(3) 0.021(3) 0.028(2) -0.009(2) 0.006(2) -0.002(2)
O1S 0.060(6) 0.047(5) 0.379(17) -0.025(8) 0.053(8) -0.004(4)

_geom_special_details            
;
All esds (except the esd in the dihedral angle between two l.s. planes)
are estimated using the full covariance matrix. The cell esds are taken
into account individually in the estimation of esds in distances, angles
and torsion angles; correlations between esds in cell parameters are only
used when they are defined by crystal symmetry. An approximate (isotropic)
treatment of cell esds is used for estimating esds involving l.s. planes.
;

loop_
_geom_bond_atom_site_label_1
_geom_bond_atom_site_label_2
_geom_bond_distance
_geom_bond_site_symmetry_2
_geom_bond_publ_flag
C11 O12 1.213(10) . ?
C11 O11 1.297(9) . ?
C11 C12 1.550(11) . ?
C12 C13 1.372(11) . ?
C12 C17 1.438(12) . ?
C13 C14 1.399(11) 6_576 ?
C13 H13 0.9500 . ?
C14 C13 1.399(11) 6_575 ?
C14 C15 1.420(12) . ?
C14 C18 1.503(11) . ?
C15 C16 1.355(12) . ?
C15 H15 0.9500 . ?
C16 C17 1.395(13) 6_575 ?
C16 H16 0.9500 . ?
C17 C16 1.395(13) 6_576 ?
C17 H17 0.9500 . ?
C18 O14 1.274(10) . ?
C18 O13 1.286(10) . ?
C21 O22 1.238(8) . ?
C21 O21 1.267(8) . ?
C21 C22 1.517(10) . ?
C22 C23 1.389(9) . ?
C22 C27 1.396(10) . ?
C23 C24 1.385(9) . ?
C23 H23 0.9500 . ?
C24 C25 1.398(10) . ?
C24 C28 1.517(10) 2_655 ?
C25 C26 1.383(11) . ?
C25 H25 0.9500 . ?
C26 C27 1.387(11) . ?
C26 H26 0.9500 . ?
C27 H27 0.9500 . ?
C28 O23 1.253(8) 7_565 ?
C28 O24 1.275(8) . ?
C28 C24 1.517(10) 2_655 ?
C31 O31 1.238(8) . ?
C31 O32 1.303(8) 7_565 ?
C31 C32 1.457(11) . ?
C32 C33 1.386(9) . ?
C32 C36 1.560(15) . ?
C32 C34 1.584(16) 2_554 ?
C33 C32 1.386(9) 2_554 ?
C33 H33 0.9500 . ?
C34 C35 1.392(18) . ?
C34 C32 1.584(16) 2_554 ?
C34 C36 1.606(18) 2_554 ?
C34 H34 1.0000 . ?
C35 C36 1.311(18) . ?
C35 H35 0.9500 . ?
C36 C34 1.606(18) 2_554 ?
C36 H36 1.0000 . ?
C41 N41 1.342(9) . ?
C41 C42 1.398(11) . ?
C41 H41 0.9500 . ?
C42 C43 1.400(12) . ?
C42 H42 0.9500 . ?
C43 C44 1.347(12) . ?
C43 C46 1.487(12) . ?
C44 C45 1.374(11) . ?
C44 H44 0.9500 . ?
C45 N41 1.346(9) . ?
C45 H45 0.9500 . ?
C46 C47 1.538(18) . ?
C46 H46A 0.9900 . ?
C46 H46B 0.9900 . ?
C47 C48 1.541(17) . ?
C47 H47A 0.9900 . ?
C47 H47B 0.9900 . ?
C48 C49 1.492(13) 3 ?
C48 H48A 0.9900 . ?
C48 H48B 0.9900 . ?
C49 C53 1.361(14) . ?
C49 C50 1.437(13) . ?
C49 C48 1.492(13) 3_445 ?
C50 C51 1.391(13) . ?
C50 H50 0.9500 . ?
C51 N42 1.372(12) . ?
C51 H51 0.9500 . ?
C52 N42 1.370(11) . ?
C52 C53 1.406(12) . ?
C52 H52 0.9500 . ?
C53 H53 0.9500 . ?
Co1 O1 2.068(5) 7_565 ?
Co1 O1 2.068(5) . ?
Co1 O31 2.087(5) 7_565 ?
Co1 O31 2.088(5) . ?
Co1 O2 2.1