####################################################################### 
# 
# This file contains crystal structure data downloaded from the 
# Cambridge Structural Database (CSD) hosted by the Cambridge 
# Crystallographic Data Centre (CCDC).
# 
# Full information about CCDC data access policies and citation 
# guidelines are available at http://www.ccdc.cam.ac.uk/access/V1 
# 
# Audit and citation data items may have been added by the CCDC. 
# Please retain this information to preserve the provenance of 
# this file and to allow appropriate attribution of the data. 
# 
#######################################################################

data_1
_audit_block_doi                 10.5517/ccvdvvx
_database_code_depnum_ccdc_archive 'CCDC 786930'
loop_
_citation_id
_citation_doi
_citation_year
1 10.1002/zaac.201000425 2011
_audit_update_record             
;
2010-07-29 deposited with the CCDC.	2024-07-08 downloaded from the CCDC.
;
#TrackingRef 'compound1.cif'


# CHEMICAL DATA

_audit_creation_method           SHELXL-97
_chemical_name_systematic        
;
?
;
_chemical_name_common            'compound 1'
_chemical_melting_point          ?
_chemical_formula_moiety         'C8 H16 Co O8 S2'
_chemical_formula_sum            'C8 H16 Co O8 S2'
_chemical_formula_weight         363.26

loop_
_atom_type_symbol
_atom_type_description
_atom_type_scat_dispersion_real
_atom_type_scat_dispersion_imag
_atom_type_scat_source
C C .0033 .0016 'International Tables Vol C Tables 4.2.6.8 and 6.1.1.4'
H H .0000 .0000 'International Tables Vol C Tables 4.2.6.8 and 6.1.1.4'
Co Co .3494 .9721 'International Tables Vol C Tables 4.2.6.8 and 6.1.1.4'
O O .0106 .0060 'International Tables Vol C Tables 4.2.6.8 and 6.1.1.4'
S S .1246 .1234 'International Tables Vol C Tables 4.2.6.8 and 6.1.1.4'

_symmetry_cell_setting           Monoclinic
_symmetry_space_group_name_H-M   'P 21/c'
_symmetry_space_group_name_Hall  '-P 2ybc'

loop_
_symmetry_equiv_pos_as_xyz
'x, y, z'
'-x, y+1/2, -z+1/2'
'-x, -y, -z'
'x, -y-1/2, z-1/2'

_cell_length_a                   14.832(2)
_cell_length_b                   8.0900(12)
_cell_length_c                   12.0617(18)
_cell_angle_alpha                90.00
_cell_angle_beta                 110.907(2)
_cell_angle_gamma                90.00
_cell_volume                     1352.0(3)
_cell_formula_units_Z            4
_cell_measurement_temperature    130(2)
_cell_measurement_reflns_used    3113
_cell_measurement_theta_min      2.92
_cell_measurement_theta_max      29.29

_exptl_crystal_description       rod
_exptl_crystal_colour            red
_exptl_crystal_size_max          0.19
_exptl_crystal_size_mid          0.14
_exptl_crystal_size_min          0.11
_exptl_crystal_density_meas      ?
_exptl_crystal_density_diffrn    1.785
_exptl_crystal_density_method    'not measured'
_exptl_crystal_F_000             748
_exptl_absorpt_coefficient_mu    1.608
_exptl_absorpt_correction_type   none
_exptl_absorpt_correction_T_min  ?
_exptl_absorpt_correction_T_max  ?
_exptl_absorpt_process_details   ?

_exptl_special_details           
;
?
;

_diffrn_ambient_temperature      130(2)
_diffrn_radiation_wavelength     0.71073
_diffrn_radiation_type           MoK\a
_diffrn_radiation_source         'fine-focus sealed tube'
_diffrn_radiation_monochromator  graphite
_diffrn_measurement_device_type  'Bruker SMART APEX CCD'
_diffrn_measurement_method       '\w scans'
_diffrn_detector_area_resol_mean ?
_diffrn_standards_number         ?
_diffrn_standards_interval_count ?
_diffrn_standards_interval_time  ?
_diffrn_standards_decay_%        'no decay'
_diffrn_reflns_number            14060
_diffrn_reflns_av_R_equivalents  0.0472
_diffrn_reflns_av_sigmaI/netI    0.0571
_diffrn_reflns_limit_h_min       -18
_diffrn_reflns_limit_h_max       19
_diffrn_reflns_limit_k_min       -11
_diffrn_reflns_limit_k_max       11
_diffrn_reflns_limit_l_min       -16
_diffrn_reflns_limit_l_max       16
_diffrn_reflns_theta_min         1.47
_diffrn_reflns_theta_max         30.12
_reflns_number_total             3663
_reflns_number_gt                2644
_reflns_threshold_expression     >2sigma(I)

_computing_data_collection       'SMART (Bruker, 2001)'
_computing_cell_refinement       'SAINT-Plus (Bruker, 1999)'
_computing_data_reduction        'SAINT-Plus (Bruker, 1999)'
_computing_structure_solution    'SHELXS-97 (Sheldrick, 2008)'
_computing_structure_refinement  'SHELXL-97 (Sheldrick, 2008)'
_computing_molecular_graphics    'PLATON (Spek, 2009)'
_computing_publication_material  'SHELXL-97 (Sheldrick, 2008)'

_refine_special_details          
;
Refinement of F^2^ against ALL reflections. The weighted R-factor wR and
goodness of fit S are based on F^2^, conventional R-factors R are based
on F, with F set to zero for negative F^2^. The threshold expression of
F^2^ > 2sigma(F^2^) is used only for calculating R-factors(gt) etc. and is
not relevant to the choice of reflections for refinement. R-factors based
on F^2^ are statistically about twice as large as those based on F, and R-
factors based on ALL data will be even larger.
;

_refine_ls_structure_factor_coef Fsqd
_refine_ls_matrix_type           full
_refine_ls_weighting_scheme      calc
_refine_ls_weighting_details     
'calc w=1/[\s^2^(Fo^2^)+(0.0100P)^2^+0.0000P] where P=(Fo^2^+2Fc^2^)/3'
_atom_sites_solution_primary     direct
_atom_sites_solution_secondary   difmap
_atom_sites_solution_hydrogens   geom
_refine_ls_hydrogen_treatment    constr
_refine_ls_extinction_method     none
_refine_ls_extinction_coef       ?
_refine_ls_number_reflns         3663
_refine_ls_number_parameters     179
_refine_ls_number_restraints     0
_refine_ls_R_factor_all          0.0432
_refine_ls_R_factor_gt           0.0303
_refine_ls_wR_factor_ref         0.0561
_refine_ls_wR_factor_gt          0.0550
_refine_ls_goodness_of_fit_ref   0.993
_refine_ls_restrained_S_all      0.993
_refine_ls_shift/su_max          0.000
_refine_ls_shift/su_mean         0.000

loop_
_atom_site_label
_atom_site_type_symbol
_atom_site_fract_x
_atom_site_fract_y
_atom_site_fract_z
_atom_site_U_iso_or_equiv
_atom_site_adp_type
_atom_site_occupancy
_atom_site_symmetry_multiplicity
_atom_site_calc_flag
_atom_site_refinement_flags
_atom_site_disorder_assembly
_atom_site_disorder_group
Co1 Co 0.0000 0.5000 0.0000 0.00933(9) Uani 1 2 d S . .
S1 S 0.19997(4) 0.30182(6) 0.05012(5) 0.01334(12) Uani 1 1 d . . .
O1 O 0.14786(9) 0.44868(16) 0.07860(12) 0.0141(3) Uani 1 1 d . . .
O2 O 0.02360(9) 0.73945(15) 0.07893(11) 0.0123(3) Uani 1 1 d . . .
O3 O 0.05697(9) 1.10432(15) 0.18886(11) 0.0144(3) Uani 1 1 d . . .
O4 O -0.02347(9) 0.40950(15) 0.14631(11) 0.0148(3) Uani 1 1 d . . .
H4A H -0.0274 0.4697 0.2022 0.018 Uiso 1 1 d R . .
H4B H 0.0111 0.3203 0.1786 0.018 Uiso 1 1 d R . .
C1 C 0.25844(16) 0.3797(3) -0.0440(2) 0.0262(5) Uani 1 1 d . . .
H1A H 0.2099 0.4145 -0.1196 0.039 Uiso 1 1 calc R . .
H1B H 0.2991 0.2931 -0.0585 0.039 Uiso 1 1 calc R . .
H1C H 0.2987 0.4746 -0.0059 0.039 Uiso 1 1 calc R . .
C2 C 0.30243(15) 0.2713(3) 0.18014(18) 0.0255(5) Uani 1 1 d . . .
H2A H 0.3344 0.3776 0.2072 0.038 Uiso 1 1 calc R . .
H2B H 0.3474 0.1957 0.1629 0.038 Uiso 1 1 calc R . .
H2C H 0.2823 0.2236 0.2423 0.038 Uiso 1 1 calc R . .
C3 C 0.01001(13) 0.8811(2) 0.03446(16) 0.0091(4) Uani 1 1 d . . .
C4 C 0.02598(13) 1.0474(2) 0.08507(17) 0.0099(4) Uani 1 1 d . . .
Co2 Co 0.5000 0.5000 0.5000 0.00915(9) Uani 1 2 d S . .
S2 S 0.29554(4) 0.65133(6) 0.45527(5) 0.01641(12) Uani 1 1 d . . .
O5 O 0.35431(9) 0.49252(15) 0.48375(12) 0.0156(3) Uani 1 1 d . . .
O6 O 0.48953(9) 0.26265(15) 0.42745(11) 0.0126(3) Uani 1 1 d . . .
O7 O 0.46410(10) -0.09441(16) 0.31048(11) 0.0167(3) Uani 1 1 d . . .
O8 O 0.46006(9) 0.58125(15) 0.32680(11) 0.0148(3) Uani 1 1 d . . .
H8A H 0.4689 0.6834 0.3169 0.018 Uiso 1 1 d R . .
H8B H 0.4911 0.5338 0.2862 0.018 Uiso 1 1 d R . .
C5 C 0.18458(14) 0.5955(3) 0.34446(18) 0.0250(5) Uani 1 1 d . . .
H5A H 0.1956 0.5649 0.2717 0.038 Uiso 1 1 calc R . .
H5B H 0.1399 0.6893 0.3282 0.038 Uiso 1 1 calc R . .
H5C H 0.1567 0.5013 0.3721 0.038 Uiso 1 1 calc R . .
C6 C 0.25499(15) 0.6795(2) 0.57585(18) 0.0216(5) Uani 1 1 d . . .
H6A H 0.2228 0.5787 0.5873 0.032 Uiso 1 1 calc R . .
H6B H 0.2095 0.7722 0.5586 0.032 Uiso 1 1 calc R . .
H6C H 0.3103 0.7034 0.6482 0.032 Uiso 1 1 calc R . .
C7 C 0.49594(13) 0.1203(2) 0.46869(16) 0.0097(4) Uani 1 1 d . . .
C8 C 0.48360(14) -0.0434(2) 0.41467(17) 0.0114(4) Uani 1 1 d . . .

loop_
_atom_site_aniso_label
_atom_site_aniso_U_11
_atom_site_aniso_U_22
_atom_site_aniso_U_33
_atom_site_aniso_U_23
_atom_site_aniso_U_13
_atom_site_aniso_U_12
Co1 0.0118(2) 0.00724(18) 0.01011(19) -0.00011(15) 0.00532(16) -0.00013(16)
S1 0.0122(3) 0.0115(2) 0.0165(3) -0.0012(2) 0.0053(2) 0.0001(2)
O1 0.0120(7) 0.0129(7) 0.0187(8) -0.0028(6) 0.0068(6) 0.0016(6)
O2 0.0163(8) 0.0084(7) 0.0124(7) 0.0010(6) 0.0053(6) -0.0002(6)
O3 0.0219(8) 0.0110(7) 0.0102(7) -0.0003(6) 0.0057(6) -0.0010(6)
O4 0.0257(8) 0.0088(7) 0.0141(7) 0.0004(6) 0.0123(6) 0.0031(6)
C1 0.0284(13) 0.0266(13) 0.0328(14) 0.0082(11) 0.0223(11) 0.0104(11)
C2 0.0209(13) 0.0314(13) 0.0196(12) 0.0007(10) 0.0016(10) 0.0107(11)
C3 0.0055(10) 0.0106(10) 0.0127(10) -0.0001(8) 0.0049(8) -0.0005(8)
C4 0.0077(10) 0.0100(10) 0.0145(11) 0.0012(8) 0.0071(8) 0.0003(8)
Co2 0.0113(2) 0.00674(18) 0.01036(19) 0.00003(15) 0.00504(16) 0.00028(16)
S2 0.0143(3) 0.0130(3) 0.0232(3) 0.0021(2) 0.0082(2) 0.0026(2)
O5 0.0118(7) 0.0109(7) 0.0259(8) 0.0021(6) 0.0091(6) 0.0021(6)
O6 0.0193(8) 0.0077(7) 0.0121(7) 0.0006(6) 0.0071(6) -0.0001(6)
O7 0.0297(9) 0.0103(7) 0.0112(7) -0.0006(6) 0.0086(7) -0.0015(6)
O8 0.0261(8) 0.0066(7) 0.0152(7) -0.0002(6) 0.0115(6) 0.0007(6)
C5 0.0181(12) 0.0325(14) 0.0206(12) -0.0025(10) 0.0022(10) 0.0089(10)
C6 0.0227(13) 0.0204(12) 0.0226(12) -0.0058(9) 0.0092(10) 0.0047(10)
C7 0.0070(10) 0.0106(10) 0.0126(10) 0.0002(8) 0.0047(8) -0.0002(8)
C8 0.0104(10) 0.0110(10) 0.0138(11) 0.0009(8) 0.0057(9) -0.0005(8)

_geom_special_details            
;
All esds (except the esd in the dihedral angle between two l.s. planes)
are estimated using the full covariance matrix. The cell esds are taken
into account individually in the estimation of esds in distances, angles
and torsion angles; correlations between esds in cell parameters are only
used when they are defined by crystal symmetry. An approximate (isotropic)
treatment of cell esds is used for estimating esds involving l.s. planes.
;

loop_
_geom_bond_atom_site_label_1
_geom_bond_atom_site_label_2
_geom_bond_distance
_geom_bond_site_symmetry_2
_geom_bond_publ_flag
Co1 O4 2.0517(12) 3_565 ?
Co1 O4 2.0517(12) . ?
Co1 O1 2.0968(13) 3_565 ?
Co1 O1 2.0968(13) . ?
Co1 O2 2.1315(12) . ?
Co1 O2 2.1316(12) 3_565 ?
S1 O1 1.5221(13) . ?
S1 C2 1.769(2) . ?
S1 C1 1.772(2) . ?
O2 C3 1.251(2) . ?
O3 C4 1.257(2) . ?
O4 H4A 0.8498 . ?
O4 H4B 0.8907 . ?
C1 H1A 0.9800 . ?
C1 H1B 0.9800 . ?
C1 H1C 0.9800 . ?
C2 H2A 0.9800 . ?
C2 H2B 0.9800 . ?
C2 H2C 0.9800 . ?
C3 C4 1.461(3) . ?
C3 C4 1.466(2) 3_575 ?
C4 C3 1.466(2) 3_575 ?
Co2 O8 2.0650(13) . ?
Co2 O8 2.0650(13) 3_666 ?
Co2 O6 2.0928(13) . ?
Co2 O6 2.0928(13) 3_666 ?
Co2 O5 2.0998(13) 3_666 ?
Co2 O5 2.0999(13) . ?
S2 O5 1.5215(13) . ?
S2 C5 1.769(2) . ?
S2 C6 1.776(2) . ?
O6 C7 1.245(2) . ?
O7 C8 1.255(2) . ?
O8 H8A 0.8518 . ?
O8 H8B 0.8720 . ?
C5 H5A 0.9800 . ?
C5 H5B 0.9800 . ?
C5 H5C 0.9800 . ?
C6 H6A 0.9800 . ?
C6 H6B 0.9800 . ?
C6 H6C 0.9800 . ?
C7 C8 1.458(3) . ?
C7 C8 1.468(2) 3_656 ?
C8 C7 1.468(2) 3_656 ?

loop_
_geom_angle_atom_site_label_1
_geom_angle_atom_site_label_2
_geom_angle_atom_site_label_3
_geom_angle
_geom_angle_site_symmetry_1
_geom_angle_site_symmetry_3
_geom_angle_publ_flag
O4 Co1 O4 180.00(6) 3_565 . ?
O4 Co1 O1 90.66(5) 3_565 3_565 ?
O4 Co1 O1 89.34(5) . 3_565 ?
O4 Co1 O1 89.34(5) 3_565 . ?
O4 Co1 O1 90.66(5) . . ?
O1 Co1 O1 180.0 3_565 . ?
O4 Co1 O2 90.49(5) 3_565 . ?
O4 Co1 O2 89.50(5) . . ?
O1 Co1 O2 90.03(5) 3_565 . ?
O1 Co1 O2 89.97(5) . . ?
O4 Co1 O2 89.50(5) 3_565 3_565 ?
O4 Co1 O2 90.50(5) . 3_565 ?
O1 Co1 O2 89.97(5) 3_565 3_565 ?
O1 Co1 O2 90.03(5) . 3_565 ?
O2 Co1 O2 180.0 . 3_565 ?
O1 S1 C2 104.70(9) . . ?
O1 S1 C1 105.72(9) . . ?
C2 S1 C1 98.95(10) . . ?
S1 O1 Co1 125.87(8) . . ?
C3 O2 Co1 131.72(12) . . ?
Co1 O4 H4A 123.9 . . ?
Co1 O4 H4B 114.6 . . ?
H4A O4 H4B 108.0 . . ?
S1 C1 H1A 109.5 . . ?
S1 C1 H1B 109.5 . . ?
H1A C1 H1B 109.5 . . ?
S1 C1 H1C 109.5 . . ?
H1A C1 H1C 109.5 . . ?
H1B C1 H1C 109.5 . . ?
S1 C2 H2A 109.5 . . ?
S1 C2 H2B 109.5 . . ?
H2A C2 H2B 109.5 . . ?
S1 C2 H2C 109.5 . . ?
H2A C2 H2C 109.5 . . ?
H2B C2 H2C 109.5 . . ?
O2 C3 C4 133.40(18) . . ?
O2 C3 C4 136.85(18) . 3_575 ?
C4 C3 C4 89.75(15) . 3_575 ?
O3 C4 C3 134.45(18) . . ?
O3 C4 C3 135.29(18) . 3_575 ?
C3 C4 C3 90.25(15) . 3_575 ?
O8 Co2 O8 180.00(8) . 3_666 ?
O8 Co2 O6 85.26(5) . . ?
O8 Co2 O6 94.74(5) 3_666 . ?
O8 Co2 O6 94.74(5) . 3_666 ?
O8 Co2 O6 85.26(5) 3_666 3_666 ?
O6 Co2 O6 180.0 . 3_666 ?
O8 Co2 O5 89.97(5) . 3_666 ?
O8 Co2 O5 90.03(5) 3_666 3_666 ?
O6 Co2 O5 89.19(5) . 3_666 ?
O6 Co2 O5 90.81(5) 3_666 3_666 ?
O8 Co2 O5 90.03(5) . . ?
O8 Co2 O5 89.97(5) 3_666 . ?
O6 Co2 O5 90.81(5) . . ?
O6 Co2 O5 89.19(5) 3_666 . ?
O5 Co2 O5 180.0 3_666 . ?
O5 S2 C5 104.98(9) . . ?
O5 S2 C6 104.94(9) . . ?
C5 S2 C6 98.98(10) . . ?
S2 O5 Co2 118.97(7) . . ?
C7 O6 Co2 134.29(13) . . ?
Co2 O8 H8A 116.6 . . ?
Co2 O8 H8B 114.2 . . ?
H8A O8 H8B 102.1 . . ?
S2 C5 H5A 109.5 . . ?
S2 C5 H5B 109.5 . . ?
H5A C5 H5B 109.5 . . ?
S2 C5 H5C 109.5 . . ?
H5A C5 H5C 109.5 . . ?
H5B C5 H5C 109.5 . . ?
S2 C6 H6A 109.5 . . ?
S2 C6 H6B 109.5 . . ?
H6A C6 H6B 109.5 . . ?
S2 C6 H6C 109.5 . . ?
H6A C6 H6C 109.5 . . ?
H6B C6 H6C 109.5 . . ?
O6 C7 C8 133.02(18) . . ?
O6 C7 C8 137.34(19) . 3_656 ?
C8 C7 C8 89.64(15) . 3_656 ?
O7 C8 C7 133.93(18) . . ?
O7 C8 C7 135.70(18) . 3_656 ?
C7 C8 C7 90.37(15) . 3_656 ?

_diffrn_measured_fraction_theta_max .918
_diffrn_reflns_theta_full        26.50
_diffrn_measured_fraction_theta_full .999
_refine_diff_density_max         .635
_refine_diff_density_min         -.408
_refine_diff_density_rms         .089
