####################################################################### 
# 
# This file contains crystal structure data downloaded from the 
# Cambridge Structural Database (CSD) hosted by the Cambridge 
# Crystallographic Data Centre (CCDC).
# 
# Full information about CCDC data access policies and citation 
# guidelines are available at http://www.ccdc.cam.ac.uk/access/V1 
# 
# Audit and citation data items may have been added by the CCDC. 
# Please retain this information to preserve the provenance of 
# this file and to allow appropriate attribution of the data. 
# 
#######################################################################

data_2
_audit_block_doi                 10.5517/ccvdvwy
_database_code_depnum_ccdc_archive 'CCDC 786931'
loop_
_citation_id
_citation_doi
_citation_year
1 10.1002/zaac.201000425 2011
_audit_update_record             
;
2010-07-29 deposited with the CCDC.	2024-07-08 downloaded from the CCDC.
;
#TrackingRef 'compound2.cif'


# CHEMICAL DATA

_audit_creation_method           SHELXL-97
_chemical_name_systematic        
;
?
;
_chemical_name_common            'compound 2'
_chemical_melting_point          ?
_chemical_formula_moiety         'C8 H16 Mn O8 S2'
_chemical_formula_sum            'C8 H16 Mn O8 S2'
_chemical_formula_weight         359.27

loop_
_atom_type_symbol
_atom_type_description
_atom_type_scat_dispersion_real
_atom_type_scat_dispersion_imag
_atom_type_scat_source
C C .0033 .0016 'International Tables Vol C Tables 4.2.6.8 and 6.1.1.4'
H H .0000 .0000 'International Tables Vol C Tables 4.2.6.8 and 6.1.1.4'
O O .0106 .0060 'International Tables Vol C Tables 4.2.6.8 and 6.1.1.4'
S S .1246 .1234 'International Tables Vol C Tables 4.2.6.8 and 6.1.1.4'
Mn Mn .3368 .7283 'International Tables Vol C Tables 4.2.6.8 and 6.1.1.4'

_symmetry_cell_setting           Monoclinic
_symmetry_space_group_name_H-M   'P 21/c'
_symmetry_space_group_name_Hall  '-P 2ybc'

loop_
_symmetry_equiv_pos_as_xyz
'x, y, z'
'-x, y+1/2, -z+1/2'
'-x, -y, -z'
'x, -y-1/2, z-1/2'

_cell_length_a                   15.0940(18)
_cell_length_b                   8.2257(10)
_cell_length_c                   12.1779(15)
_cell_angle_alpha                90.00
_cell_angle_beta                 111.782(2)
_cell_angle_gamma                90.00
_cell_volume                     1404.0(3)
_cell_formula_units_Z            4
_cell_measurement_temperature    130(2)
_cell_measurement_reflns_used    4015
_cell_measurement_theta_min      2.87
_cell_measurement_theta_max      26.45

_exptl_crystal_description       Rod
_exptl_crystal_colour            colourless
_exptl_crystal_size_max          0.4
_exptl_crystal_size_mid          0.07
_exptl_crystal_size_min          0.04
_exptl_crystal_density_meas      ?
_exptl_crystal_density_diffrn    1.700
_exptl_crystal_density_method    'not measured'
_exptl_crystal_F_000             740
_exptl_absorpt_coefficient_mu    1.267
_exptl_absorpt_correction_type   none
_exptl_absorpt_correction_T_min  ?
_exptl_absorpt_correction_T_max  ?
_exptl_absorpt_process_details   ?

_exptl_special_details           
;
?
;

_diffrn_ambient_temperature      130(2)
_diffrn_radiation_wavelength     0.71073
_diffrn_radiation_type           MoK\a
_diffrn_radiation_source         'fine-focus sealed tube'
_diffrn_radiation_monochromator  graphite
_diffrn_measurement_device_type  'Bruker SMART APEX CCD'
_diffrn_measurement_method       '\w scans'
_diffrn_detector_area_resol_mean ?
_diffrn_standards_number         ?
_diffrn_standards_interval_count ?
_diffrn_standards_interval_time  ?
_diffrn_standards_decay_%        'no decay'
_diffrn_reflns_number            16452
_diffrn_reflns_av_R_equivalents  0.0582
_diffrn_reflns_av_sigmaI/netI    0.0407
_diffrn_reflns_limit_h_min       -18
_diffrn_reflns_limit_h_max       18
_diffrn_reflns_limit_k_min       -10
_diffrn_reflns_limit_k_max       10
_diffrn_reflns_limit_l_min       -15
_diffrn_reflns_limit_l_max       15
_diffrn_reflns_theta_min         1.45
_diffrn_reflns_theta_max         26.45
_reflns_number_total             2898
_reflns_number_gt                2390
_reflns_threshold_expression     >2sigma(I)

_computing_data_collection       'SMART (Bruker, 2001)'
_computing_cell_refinement       'SAINT-Plus (Bruker, 1999)'
_computing_data_reduction        'SAINT-Plus (Bruker, 1999)'
_computing_structure_solution    'SHELXS-97 (Sheldrick, 2008)'
_computing_structure_refinement  'SHELXL-97 (Sheldrick, 2008)'
_computing_molecular_graphics    'PLATON (Spek, 2009)'
_computing_publication_material  'SHELXL-97 (Sheldrick, 2008)'

_refine_special_details          
;
Refinement of F^2^ against ALL reflections. The weighted R-factor wR and
goodness of fit S are based on F^2^, conventional R-factors R are based
on F, with F set to zero for negative F^2^. The threshold expression of
F^2^ > 2sigma(F^2^) is used only for calculating R-factors(gt) etc. and is
not relevant to the choice of reflections for refinement. R-factors based
on F^2^ are statistically about twice as large as those based on F, and R-
factors based on ALL data will be even larger.
;

_refine_ls_structure_factor_coef Fsqd
_refine_ls_matrix_type           full
_refine_ls_weighting_scheme      calc
_refine_ls_weighting_details     
'calc w=1/[\s^2^(Fo^2^)+(0.0280P)^2^+0.0000P] where P=(Fo^2^+2Fc^2^)/3'
_atom_sites_solution_primary     direct
_atom_sites_solution_secondary   difmap
_atom_sites_solution_hydrogens   geom
_refine_ls_hydrogen_treatment    constr
_refine_ls_extinction_method     none
_refine_ls_extinction_coef       ?
_refine_ls_number_reflns         2898
_refine_ls_number_parameters     179
_refine_ls_number_restraints     0
_refine_ls_R_factor_all          0.0381
_refine_ls_R_factor_gt           0.0296
_refine_ls_wR_factor_ref         0.0656
_refine_ls_wR_factor_gt          0.0634
_refine_ls_goodness_of_fit_ref   0.997
_refine_ls_restrained_S_all      0.997
_refine_ls_shift/su_max          0.001
_refine_ls_shift/su_mean         0.000

loop_
_atom_site_label
_atom_site_type_symbol
_atom_site_fract_x
_atom_site_fract_y
_atom_site_fract_z
_atom_site_U_iso_or_equiv
_atom_site_adp_type
_atom_site_occupancy
_atom_site_symmetry_multiplicity
_atom_site_calc_flag
_atom_site_refinement_flags
_atom_site_disorder_assembly
_atom_site_disorder_group
Mn1 Mn 0.0000 0.5000 0.0000 0.01024(11) Uani 1 2 d S . .
S1 S 0.20270(4) 0.29856(6) 0.05130(5) 0.01454(13) Uani 1 1 d . . .
O1 O 0.15160(9) 0.44266(16) 0.07914(12) 0.0163(3) Uani 1 1 d . . .
O2 O 0.02485(10) 0.74343(15) 0.07808(12) 0.0137(3) Uani 1 1 d . . .
O3 O 0.05687(10) 1.10172(15) 0.18844(11) 0.0162(3) Uani 1 1 d . . .
O4 O -0.02317(10) 0.40481(15) 0.15223(11) 0.0169(3) Uani 1 1 d . . .
H4A H -0.0271 0.4650 0.2081 0.020 Uiso 1 1 d R . .
H4B H 0.0114 0.3156 0.1845 0.020 Uiso 1 1 d R . .
C1 C 0.26098(17) 0.3762(3) -0.0399(2) 0.0314(6) Uani 1 1 d . . .
H1A H 0.2133 0.4089 -0.1164 0.047 Uiso 1 1 calc R . .
H1B H 0.3023 0.2921 -0.0522 0.047 Uiso 1 1 calc R . .
H1C H 0.2996 0.4708 -0.0015 0.047 Uiso 1 1 calc R . .
C2 C 0.30359(16) 0.2656(3) 0.18182(19) 0.0278(6) Uani 1 1 d . . .
H2A H 0.3373 0.3687 0.2084 0.042 Uiso 1 1 calc R . .
H2B H 0.3463 0.1875 0.1659 0.042 Uiso 1 1 calc R . .
H2C H 0.2831 0.2225 0.2436 0.042 Uiso 1 1 calc R . .
C3 C 0.01075(13) 0.8831(2) 0.03420(17) 0.0105(4) Uani 1 1 d . . .
C4 C 0.02584(13) 1.0467(2) 0.08492(17) 0.0110(4) Uani 1 1 d . . .
Mn2 Mn 0.5000 0.5000 0.5000 0.00965(11) Uani 1 2 d S . .
S2 S 0.29185(4) 0.65219(6) 0.45347(5) 0.01831(13) Uani 1 1 d . . .
O5 O 0.35073(10) 0.49665(15) 0.48363(13) 0.0173(3) Uani 1 1 d . . .
O6 O 0.48853(10) 0.25893(15) 0.42862(12) 0.0150(3) Uani 1 1 d . . .
O7 O 0.46571(10) -0.09296(16) 0.31185(11) 0.0185(3) Uani 1 1 d . . .
O8 O 0.45749(10) 0.58417(16) 0.31836(11) 0.0160(3) Uani 1 1 d . . .
H8A H 0.4663 0.6863 0.3084 0.019 Uiso 1 1 d R . .
H8B H 0.4885 0.5367 0.2777 0.019 Uiso 1 1 d R . .
C5 C 0.18176(15) 0.5957(3) 0.34272(19) 0.0298(6) Uani 1 1 d . . .
H5A H 0.1921 0.5652 0.2706 0.045 Uiso 1 1 calc R . .
H5B H 0.1373 0.6875 0.3258 0.045 Uiso 1 1 calc R . .
H5C H 0.1549 0.5030 0.3704 0.045 Uiso 1 1 calc R . .
C6 C 0.25239(16) 0.6818(3) 0.57284(19) 0.0240(5) Uani 1 1 d . . .
H6A H 0.2215 0.5824 0.5852 0.036 Uiso 1 1 calc R . .
H6B H 0.2067 0.7719 0.5541 0.036 Uiso 1 1 calc R . .
H6C H 0.3072 0.7073 0.6449 0.036 Uiso 1 1 calc R . .
C7 C 0.49547(13) 0.1180(2) 0.46915(17) 0.0104(4) Uani 1 1 d . . .
C8 C 0.48441(14) -0.0424(2) 0.41547(17) 0.0117(4) Uani 1 1 d . . .

loop_
_atom_site_aniso_label
_atom_site_aniso_U_11
_atom_site_aniso_U_22
_atom_site_aniso_U_33
_atom_site_aniso_U_23
_atom_site_aniso_U_13
_atom_site_aniso_U_12
Mn1 0.0130(2) 0.0070(2) 0.0116(2) 0.00003(17) 0.00559(18) 0.00002(17)
S1 0.0134(3) 0.0125(3) 0.0171(3) -0.0010(2) 0.0050(2) 0.0001(2)
O1 0.0128(8) 0.0153(7) 0.0207(8) -0.0032(6) 0.0060(6) 0.0017(6)
O2 0.0185(8) 0.0084(7) 0.0141(7) 0.0011(6) 0.0059(6) 0.0004(6)
O3 0.0256(8) 0.0121(7) 0.0101(7) -0.0017(6) 0.0058(6) -0.0019(6)
O4 0.0289(9) 0.0106(7) 0.0147(7) 0.0011(6) 0.0124(7) 0.0039(6)
C1 0.0368(15) 0.0289(13) 0.0406(15) 0.0117(11) 0.0284(13) 0.0125(11)
C2 0.0240(13) 0.0314(13) 0.0220(13) -0.0001(11) 0.0015(10) 0.0103(11)
C3 0.0091(10) 0.0102(10) 0.0140(10) 0.0001(8) 0.0061(8) -0.0005(8)
C4 0.0095(10) 0.0095(10) 0.0153(11) -0.0003(8) 0.0060(8) -0.0002(8)
Mn2 0.0123(2) 0.0060(2) 0.0113(2) 0.00032(16) 0.00514(18) 0.00051(16)
S2 0.0158(3) 0.0138(3) 0.0265(3) 0.0032(2) 0.0092(2) 0.0033(2)
O5 0.0130(8) 0.0137(7) 0.0267(9) 0.0034(6) 0.0090(7) 0.0028(6)
O6 0.0237(8) 0.0071(7) 0.0138(7) 0.0008(6) 0.0068(6) 0.0008(6)
O7 0.0347(9) 0.0105(7) 0.0118(7) -0.0013(6) 0.0102(7) -0.0017(6)
O8 0.0285(8) 0.0069(7) 0.0149(7) 0.0002(6) 0.0107(6) 0.0013(6)
C5 0.0219(13) 0.0376(15) 0.0244(13) -0.0024(11) 0.0021(10) 0.0118(11)
C6 0.0239(13) 0.0222(12) 0.0259(13) -0.0069(10) 0.0093(10) 0.0043(10)
C7 0.0092(10) 0.0098(10) 0.0127(10) -0.0003(8) 0.0044(8) 0.0003(8)
C8 0.0123(10) 0.0108(10) 0.0130(11) 0.0010(8) 0.0058(9) -0.0004(8)

_geom_special_details            
;
All esds (except the esd in the dihedral angle between two l.s. planes)
are estimated using the full covariance matrix. The cell esds are taken
into account individually in the estimation of esds in distances, angles
and torsion angles; correlations between esds in cell parameters are only
used when they are defined by crystal symmetry. An approximate (isotropic)
treatment of cell esds is used for estimating esds involving l.s. planes.
;

loop_
_geom_bond_atom_site_label_1
_geom_bond_atom_site_label_2
_geom_bond_distance
_geom_bond_site_symmetry_2
_geom_bond_publ_flag
Mn1 O4 2.1571(13) . ?
Mn1 O4 2.1572(13) 3_565 ?
Mn1 O1 2.1797(13) . ?
Mn1 O1 2.1797(13) 3_565 ?
Mn1 O2 2.1885(13) . ?
Mn1 O2 2.1885(13) 3_565 ?
S1 O1 1.5194(14) . ?
S1 C2 1.767(2) . ?
S1 C1 1.772(2) . ?
O2 C3 1.252(2) . ?
O3 C4 1.255(2) . ?
O4 H4A 0.8608 . ?
O4 H4B 0.9019 . ?
C1 H1A 0.9800 . ?
C1 H1B 0.9800 . ?
C1 H1C 0.9800 . ?
C2 H2A 0.9800 . ?
C2 H2B 0.9800 . ?
C2 H2C 0.9800 . ?
C3 C4 1.463(3) . ?
C3 C4 1.466(3) 3_575 ?
C4 C3 1.466(3) 3_575 ?
Mn2 O6 2.1462(13) . ?
Mn2 O6 2.1462(13) 3_666 ?
Mn2 O8 2.1749(13) 3_666 ?
Mn2 O8 2.1750(13) . ?
Mn2 O5 2.1871(14) . ?
Mn2 O5 2.1871(14) 3_666 ?
S2 O5 1.5230(13) . ?
S2 C5 1.770(2) . ?
S2 C6 1.780(2) . ?
O6 C7 1.249(2) . ?
O7 C8 1.257(2) . ?
O8 H8A 0.8662 . ?
O8 H8B 0.8880 . ?
C5 H5A 0.9800 . ?
C5 H5B 0.9800 . ?
C5 H5C 0.9800 . ?
C6 H6A 0.9800 . ?
C6 H6B 0.9800 . ?
C6 H6C 0.9800 . ?
C7 C8 1.454(3) . ?
C7 C8 1.462(3) 3_656 ?
C8 C7 1.461(3) 3_656 ?

loop_
_geom_angle_atom_site_label_1
_geom_angle_atom_site_label_2
_geom_angle_atom_site_label_3
_geom_angle
_geom_angle_site_symmetry_1
_geom_angle_site_symmetry_3
_geom_angle_publ_flag
O4 Mn1 O4 180.0 . 3_565 ?
O4 Mn1 O1 91.14(5) . . ?
O4 Mn1 O1 88.86(5) 3_565 . ?
O4 Mn1 O1 88.86(5) . 3_565 ?
O4 Mn1 O1 91.14(5) 3_565 3_565 ?
O1 Mn1 O1 180.0 . 3_565 ?
O4 Mn1 O2 90.86(5) . . ?
O4 Mn1 O2 89.14(5) 3_565 . ?
O1 Mn1 O2 91.34(5) . . ?
O1 Mn1 O2 88.66(5) 3_565 . ?
O4 Mn1 O2 89.14(5) . 3_565 ?
O4 Mn1 O2 90.86(5) 3_565 3_565 ?
O1 Mn1 O2 88.66(5) . 3_565 ?
O1 Mn1 O2 91.34(5) 3_565 3_565 ?
O2 Mn1 O2 180.0 . 3_565 ?
O1 S1 C2 104.97(9) . . ?
O1 S1 C1 105.64(9) . . ?
C2 S1 C1 99.00(11) . . ?
S1 O1 Mn1 127.35(8) . . ?
C3 O2 Mn1 132.83(13) . . ?
Mn1 O4 H4A 123.4 . . ?
Mn1 O4 H4B 114.7 . . ?
H4A O4 H4B 108.8 . . ?
S1 C1 H1A 109.5 . . ?
S1 C1 H1B 109.5 . . ?
H1A C1 H1B 109.5 . . ?
S1 C1 H1C 109.5 . . ?
H1A C1 H1C 109.5 . . ?
H1B C1 H1C 109.5 . . ?
S1 C2 H2A 109.5 . . ?
S1 C2 H2B 109.5 . . ?
H2A C2 H2B 109.5 . . ?
S1 C2 H2C 109.5 . . ?
H2A C2 H2C 109.5 . . ?
H2B C2 H2C 109.5 . . ?
O2 C3 C4 133.55(18) . . ?
O2 C3 C4 136.55(18) . 3_575 ?
C4 C3 C4 89.89(15) . 3_575 ?
O3 C4 C3 134.23(18) . . ?
O3 C4 C3 135.66(18) . 3_575 ?
C3 C4 C3 90.11(15) . 3_575 ?
O6 Mn2 O6 179.999(1) . 3_666 ?
O6 Mn2 O8 93.83(5) . 3_666 ?
O6 Mn2 O8 86.17(5) 3_666 3_666 ?
O6 Mn2 O8 86.17(5) . . ?
O6 Mn2 O8 93.83(5) 3_666 . ?
O8 Mn2 O8 179.999(1) 3_666 . ?
O6 Mn2 O5 91.48(5) . . ?
O6 Mn2 O5 88.52(5) 3_666 . ?
O8 Mn2 O5 89.65(5) 3_666 . ?
O8 Mn2 O5 90.35(5) . . ?
O6 Mn2 O5 88.52(5) . 3_666 ?
O6 Mn2 O5 91.49(5) 3_666 3_666 ?
O8 Mn2 O5 90.35(5) 3_666 3_666 ?
O8 Mn2 O5 89.65(5) . 3_666 ?
O5 Mn2 O5 179.999(1) . 3_666 ?
O5 S2 C5 105.19(10) . . ?
O5 S2 C6 105.07(9) . . ?
C5 S2 C6 98.86(11) . . ?
S2 O5 Mn2 120.04(8) . . ?
C7 O6 Mn2 135.66(13) . . ?
Mn2 O8 H8A 116.6 . . ?
Mn2 O8 H8B 114.2 . . ?
H8A O8 H8B 102.0 . . ?
S2 C5 H5A 109.5 . . ?
S2 C5 H5B 109.5 . . ?
H5A C5 H5B 109.5 . . ?
S2 C5 H5C 109.5 . . ?
H5A C5 H5C 109.5 . . ?
H5B C5 H5C 109.5 . . ?
S2 C6 H6A 109.5 . . ?
S2 C6 H6B 109.5 . . ?
H6A C6 H6B 109.5 . . ?
S2 C6 H6C 109.5 . . ?
H6A C6 H6C 109.5 . . ?
H6B C6 H6C 109.5 . . ?
O6 C7 C8 133.28(18) . . ?
O6 C7 C8 137.03(18) . 3_656 ?
C8 C7 C8 89.68(15) . 3_656 ?
O7 C8 C7 134.17(18) . . ?
O7 C8 C7 135.51(18) . 3_656 ?
C7 C8 C7 90.32(15) . 3_656 ?

_diffrn_measured_fraction_theta_max .999
_diffrn_reflns_theta_full        26.45
_diffrn_measured_fraction_theta_full .999
_refine_diff_density_max         .375
_refine_diff_density_min         -.315
_refine_diff_density_rms         .072
