####################################################################### 
# 
# This file contains crystal structure data downloaded from the 
# Cambridge Structural Database (CSD) hosted by the Cambridge 
# Crystallographic Data Centre (CCDC).
# 
# Full information about CCDC data access policies and citation 
# guidelines are available at http://www.ccdc.cam.ac.uk/access/V1 
# 
# Audit and citation data items may have been added by the CCDC. 
# Please retain this information to preserve the provenance of 
# this file and to allow appropriate attribution of the data. 
# 
#######################################################################

data_Cd2(HBTC)2(phen)2.Cd(HBTC)(phen)2
_audit_block_doi                 10.5517/cc7824p
_database_code_depnum_ccdc_archive 'CCDC 216291'
loop_
_citation_id
_citation_doi
_citation_year
1 10.1002/ejic.200300390 2004
_audit_update_record             
;
2003-07-29 deposited with the CCDC.	2024-07-08 downloaded from the CCDC.
;
_audit_creation_method           SHELXL-97
_chemical_name_systematic        
;
?
;
_chemical_name_common            ?
_chemical_melting_point          ?
_chemical_formula_moiety         'C75 H44 Cd3 N8 O18'
_chemical_formula_sum            'C75 H44 Cd3 N8 O18'
_chemical_formula_weight         1682.38

loop_
_atom_type_symbol
_atom_type_description
_atom_type_scat_dispersion_real
_atom_type_scat_dispersion_imag
_atom_type_scat_source
C C 0.0033 0.0016 'International Tables Vol C Tables 4.2.6.8 and 6.1.1.4'
H H 0.0000 0.0000 'International Tables Vol C Tables 4.2.6.8 and 6.1.1.4'
N N 0.0061 0.0033 'International Tables Vol C Tables 4.2.6.8 and 6.1.1.4'
O O 0.0106 0.0060 'International Tables Vol C Tables 4.2.6.8 and 6.1.1.4'
Cd Cd -0.8075 1.2024 'International Tables Vol C Tables 4.2.6.8 and 6.1.1.4'

_symmetry_cell_setting           triclinic
_symmetry_space_group_name_H-M   p-1

loop_
_symmetry_equiv_pos_as_xyz
'x, y, z'
'-x, -y, -z'

_cell_length_a                   10.192(2)
_cell_length_b                   16.074(3)
_cell_length_c                   23.747(5)
_cell_angle_alpha                104.84(3)
_cell_angle_beta                 92.26(3)
_cell_angle_gamma                90.80(3)
_cell_volume                     3756.6(13)
_cell_formula_units_Z            2
_cell_measurement_temperature    293(2)
_cell_measurement_reflns_used    218
_cell_measurement_theta_min      ?
_cell_measurement_theta_max      ?

_exptl_crystal_description       block
_exptl_crystal_colour            colorless
_exptl_crystal_size_max          0.474
_exptl_crystal_size_mid          0.448
_exptl_crystal_size_min          0.128
_exptl_crystal_density_meas      ?
_exptl_crystal_density_diffrn    1.487
_exptl_crystal_density_method    'not measured'
_exptl_crystal_F_000             1676
_exptl_absorpt_coefficient_mu    0.914
_exptl_absorpt_correction_type   multi-scan
_exptl_absorpt_correction_T_min  0.6488
_exptl_absorpt_correction_T_max  0.8893
_exptl_absorpt_process_details   
'Higashi, T.(1995).Program for Absorption Correction.'

_exptl_special_details           
;
?
;

_diffrn_ambient_temperature      293(2)
_diffrn_radiation_wavelength     0.71073
_diffrn_radiation_type           MoK\a
_diffrn_radiation_source         'fine-focus sealed tube'
_diffrn_radiation_monochromator  graphite
_diffrn_measurement_device_type  'Rigaku RAXIS-RAPID'
_diffrn_measurement_method       'omega scan'
_diffrn_detector_area_resol_mean 10.0
_diffrn_standards_number         none
_diffrn_standards_interval_count none
_diffrn_standards_interval_time  none
_diffrn_standards_decay_%        none
_diffrn_reflns_number            15085
_diffrn_reflns_av_R_equivalents  0.0503
_diffrn_reflns_av_sigmaI/netI    0.0478
_diffrn_reflns_limit_h_min       0
_diffrn_reflns_limit_h_max       13
_diffrn_reflns_limit_k_min       -20
_diffrn_reflns_limit_k_max       20
_diffrn_reflns_limit_l_min       -30
_diffrn_reflns_limit_l_max       30
_diffrn_reflns_theta_min         0.89
_diffrn_reflns_theta_max         27.48
_reflns_number_total             15085
_reflns_number_gt                11446
_reflns_threshold_expression     >2sigma(I)

_computing_data_collection       
'Rigaku R-AXIS RAPID diffractometer Control Software'
_computing_cell_refinement       
'Rigaku R-AXIS RAPID diffractometer Control Software'
_computing_data_reduction        
'Rigaku R-AXIS RAPID diffractometer Control Software'
_computing_structure_solution    'SHELXS-97 (Sheldrick, 1990)'
_computing_structure_refinement  'SHELXL-97 (Sheldrick, 1997)'
_computing_molecular_graphics    SHELXP-97
_computing_publication_material  SHELXTL-97

_refine_special_details          
;
Refinement of F^2^ against ALL reflections.  The weighted R-factor wR and
goodness of fit S are based on F^2^, conventional R-factors R are based
on F, with F set to zero for negative F^2^. The threshold expression of
F^2^ > 2sigma(F^2^) is used only for calculating R-factors(gt) etc. and is
not relevant to the choice of reflections for refinement.  R-factors based
on F^2^ are statistically about twice as large as those based on F, and R-
factors based on ALL data will be even larger.
;

_refine_ls_structure_factor_coef Fsqd
_refine_ls_matrix_type           full
_refine_ls_weighting_scheme      calc
_refine_ls_weighting_details     
'calc w=1/[\s^2^(Fo^2^)+(0.1429P)^2^+11.5525P] where P=(Fo^2^+2Fc^2^)/3'
_atom_sites_solution_primary     direct
_atom_sites_solution_secondary   difmap
_atom_sites_solution_hydrogens   geom
_refine_ls_hydrogen_treatment    mixed
_refine_ls_extinction_method     none
_refine_ls_extinction_coef       ?
_refine_ls_number_reflns         15085
_refine_ls_number_parameters     937
_refine_ls_number_restraints     0
_refine_ls_R_factor_all          0.0818
_refine_ls_R_factor_gt           0.0607
_refine_ls_wR_factor_ref         0.2244
_refine_ls_wR_factor_gt          0.2104
_refine_ls_goodness_of_fit_ref   1.048
_refine_ls_restrained_S_all      1.048
_refine_ls_shift/su_max          5.539
_refine_ls_shift/su_mean         0.311

loop_
_atom_site_label
_atom_site_type_symbol
_atom_site_fract_x
_atom_site_fract_y
_atom_site_fract_z
_atom_site_U_iso_or_equiv
_atom_site_adp_type
_atom_site_occupancy
_atom_site_symmetry_multiplicity
_atom_site_calc_flag
_atom_site_refinement_flags
_atom_site_disorder_assembly
_atom_site_disorder_group
Cd1 Cd 0.85755(5) 1.00162(3) 0.125902(19) 0.02916(14) Uani 1 1 d . . .
Cd2 Cd 0.82119(5) 0.67909(3) 0.40509(2) 0.02849(14) Uani 1 1 d . . .
Cd3 Cd 0.53228(5) 0.54821(3) 0.29727(2) 0.03591(15) Uani 1 1 d . . .
O1 O 1.0624(5) 0.6747(4) 0.4094(3) 0.0488(14) Uani 1 1 d . . .
O2 O 0.9617(5) 0.7710(4) 0.3753(3) 0.0454(13) Uani 1 1 d . . .
O3 O 1.2065(6) 0.9642(4) 0.2890(2) 0.0471(13) Uani 1 1 d . . .
H3 H 1.2121 1.0050 0.2743 0.080 Uiso 1 1 calc . . .
O4 O 1.4174(6) 0.9960(4) 0.3129(3) 0.0571(16) Uani 1 1 d . . .
O5 O 0.8045(5) 0.5687(3) 0.3196(2) 0.0365(11) Uani 1 1 d . . .
O6 O 0.6888(5) 0.5906(4) 0.2448(3) 0.0504(14) Uani 1 1 d . . .
O7 O 0.5533(5) 0.6505(3) 0.3860(2) 0.0400(11) Uani 1 1 d . . .
O8 O 0.6605(5) 0.7721(4) 0.3926(3) 0.0495(14) Uani 1 1 d . . .
O9 O 0.2936(5) 0.5362(3) 0.2926(2) 0.0336(10) Uani 1 1 d . . .
O10 O 0.3904(5) 0.6273(4) 0.2511(3) 0.0457(13) Uani 1 1 d . . .
O11 O -0.1050(6) 0.7252(5) 0.1109(3) 0.0644(18) Uani 1 1 d . . .
H11 H -0.1064 0.7502 0.0848 0.080 Uiso 1 1 calc . . .
O12 O 0.1109(7) 0.7387(6) 0.1063(3) 0.080(2) Uani 1 1 d . . .
O13 O 0.8303(7) 0.8064(4) 0.0352(3) 0.0614(17) Uani 1 1 d . . .
O14 O 0.8837(6) 0.9391(4) 0.0320(2) 0.0477(13) Uani 1 1 d . . .
O15 O 0.7732(7) 0.5758(4) -0.1533(3) 0.0594(17) Uani 1 1 d . . .
O16 O 0.7874(6) 0.6186(3) -0.2352(2) 0.0436(13) Uani 1 1 d . . .
H16 H 0.7755 0.5671 -0.2504 0.080 Uiso 1 1 calc . . .
O17 O 1.0684(5) 0.9946(3) 0.1609(2) 0.0329(10) Uani 1 1 d . . .
O18 O 1.1974(6) 1.0768(3) 0.2315(2) 0.0453(13) Uani 1 1 d . . .
N1 N 0.8446(7) 1.1285(4) 0.2066(3) 0.0443(15) Uani 1 1 d . . .
N2 N 0.8363(6) 1.1296(4) 0.0917(3) 0.0372(13) Uani 1 1 d . . .
N3 N 0.7992(6) 0.9162(4) 0.1879(3) 0.0349(13) Uani 1 1 d . . .
N4 N 0.6287(6) 0.9742(4) 0.1156(3) 0.0353(13) Uani 1 1 d . . .
N5 N 0.8175(7) 0.7396(5) 0.5060(3) 0.0491(17) Uani 1 1 d . . .
N6 N 0.8240(6) 0.5685(4) 0.4522(3) 0.0357(13) Uani 1 1 d . . .
N7 N 0.5260(7) 0.4425(5) 0.3494(4) 0.0568(19) Uani 1 1 d . . .
N8 N 0.5365(7) 0.4125(6) 0.2315(4) 0.067(2) Uani 1 1 d . . .
C1 C 1.0645(6) 0.7380(4) 0.3882(3) 0.0300(13) Uani 1 1 d . . .
C2 C 1.1942(6) 0.7743(4) 0.3758(3) 0.0288(13) Uani 1 1 d . . .
C3 C 1.1966(7) 0.8445(4) 0.3520(3) 0.0323(14) Uani 1 1 d . . .
H3A H 1.1142 0.8694 0.3423 0.080 Uiso 1 1 calc R . .
C4 C 1.3165(7) 0.8795(4) 0.3418(3) 0.0315(14) Uani 1 1 d . . .
C5 C 1.3195(7) 0.9534(4) 0.3131(3) 0.0354(15) Uani 1 1 d . . .
C6 C 0.7957(7) 0.5871(4) 0.2710(3) 0.0314(14) Uani 1 1 d . . .
C7 C 0.9200(7) 0.6060(4) 0.2435(3) 0.0293(13) Uani 1 1 d . . .
C8 C 0.8178(13) 0.8225(8) 0.5310(5) 0.078(3) Uani 1 1 d . . .
H8 H 0.8176 0.8639 0.5070 0.080 Uiso 1 1 calc R . .
C9 C 0.8186(16) 0.8526(10) 0.5930(7) 0.105(5) Uani 1 1 d . . .
H9 H 0.8176 0.9146 0.6113 0.080 Uiso 1 1 calc R . .
C10 C 0.8206(13) 0.7971(11) 0.6264(5) 0.094(5) Uani 1 1 d . . .
H10 H 0.8181 0.8181 0.6689 0.080 Uiso 1 1 calc R . .
C11 C 0.8261(10) 0.7095(8) 0.6005(4) 0.067(3) Uani 1 1 d . . .
C12 C 0.8226(7) 0.6836(6) 0.5392(3) 0.0456(19) Uani 1 1 d . . .
C13 C 0.8251(7) 0.5939(6) 0.5112(3) 0.0408(17) Uani 1 1 d . . .
C14 C 0.8291(8) 0.5324(7) 0.5449(4) 0.058(2) Uani 1 1 d . . .
C15 C 0.8286(10) 0.5615(11) 0.6065(5) 0.083(4) Uani 1 1 d . . .
H15 H 0.8291 0.5196 0.6301 0.080 Uiso 1 1 calc R . .
C16 C 0.8274(11) 0.6450(12) 0.6326(5) 0.088(4) Uani 1 1 d . . .
H16A H 0.8275 0.6633 0.6753 0.080 Uiso 1 1 calc R . .
C17 C 0.8351(9) 0.4449(7) 0.5146(5) 0.069(3) Uani 1 1 d . . .
H17 H 0.8389 0.4006 0.5363 0.080 Uiso 1 1 calc R . .
C18 C 0.8358(9) 0.4216(6) 0.4553(5) 0.060(2) Uani 1 1 d . . .
H18 H 0.8396 0.3610 0.4339 0.080 Uiso 1 1 calc R . .
C19 C 0.8309(8) 0.4865(5) 0.4258(4) 0.0455(18) Uani 1 1 d . . .
H19 H 0.8327 0.4698 0.3831 0.080 Uiso 1 1 calc R . .
C20 C 0.5566(7) 0.7296(5) 0.3862(3) 0.0348(15) Uani 1 1 d . . .
C21 C 0.4307(6) 0.7727(4) 0.3775(3) 0.0280(13) Uani 1 1 d . . .
C22 C 0.4334(7) 0.8448(4) 0.3561(3) 0.0320(14) Uani 1 1 d . . .
H22 H 0.5176 0.8715 0.3510 0.080 Uiso 1 1 calc R . .
C23 C 0.3113(6) 0.7375(4) 0.3874(3) 0.0292(13) Uani 1 1 d . . .
H23 H 0.3097 0.6863 0.4026 0.080 Uiso 1 1 calc R . .
C24 C 0.5185(10) 0.4573(9) 0.4060(5) 0.074(3) Uani 1 1 d . . .
H24 H 0.5196 0.5167 0.4302 0.080 Uiso 1 1 calc R . .
C25 C 0.5086(12) 0.3877(13) 0.4324(8) 0.111(6) Uani 1 1 d . . .
H25 H 0.5068 0.3998 0.4750 0.080 Uiso 1 1 calc R . .
C26 C 0.5018(14) 0.3082(11) 0.4013(10) 0.119(7) Uani 1 1 d . . .
H26 H 0.4922 0.2618 0.4209 0.080 Uiso 1 1 calc R . .
C27 C 0.5079(12) 0.2870(8) 0.3393(9) 0.114(5) Uani 1 1 d . . .
C28 C 0.5178(8) 0.3586(6) 0.3157(7) 0.077(3) Uani 1 1 d . . .
C29 C 0.5250(9) 0.3436(7) 0.2542(7) 0.075(3) Uani 1 1 d . . .
C30 C 0.5138(10) 0.2568(9) 0.2194(10) 0.120(7) Uani 1 1 d . . .
C31 C 0.5152(16) 0.2419(13) 0.1615(11) 0.143(8) Uani 1 1 d . . .
H31 H 0.5075 0.1831 0.1364 0.080 Uiso 1 1 calc R . .
C32 C 0.5277(13) 0.3124(16) 0.1379(8) 0.157(10) Uani 1 1 d . . .
H32 H 0.5293 0.3026 0.0955 0.080 Uiso 1 1 calc R . .
C33 C 0.5387(12) 0.4001(11) 0.1745(6) 0.098(5) Uani 1 1 d . . .
H33 H 0.5475 0.4489 0.1572 0.080 Uiso 1 1 calc R . .
C34 C 0.2887(7) 0.5912(4) 0.2627(3) 0.0325(14) Uani 1 1 d . . .
C35 C 0.1569(7) 0.6112(4) 0.2404(3) 0.0304(13) Uani 1 1 d . . .
C36 C 0.0424(6) 0.5882(4) 0.2646(3) 0.0292(13) Uani 1 1 d . . .
H36 H 0.0491 0.5596 0.2963 0.080 Uiso 1 1 calc R . .
C37 C 0.1466(7) 0.6526(5) 0.1958(3) 0.0360(15) Uani 1 1 d . . .
H37 H 0.2260 0.6707 0.1797 0.080 Uiso 1 1 calc R . .
C38 C 0.0236(7) 0.6683(5) 0.1741(3) 0.0344(15) Uani 1 1 d . . .
C39 C -0.0896(7) 0.6428(5) 0.1964(3) 0.0340(15) Uani 1 1 d . . .
H39 H -0.1760 0.6506 0.1791 0.080 Uiso 1 1 calc R . .
C40 C 0.0163(8) 0.7146(6) 0.1265(4) 0.0472(19) Uani 1 1 d . . .
C41 C 0.8792(9) 0.8911(5) 0.2249(3) 0.0451(18) Uani 1 1 d . . .
H41 H 0.9718 0.9098 0.2283 0.080 Uiso 1 1 calc R . .
C42 C 0.8360(9) 0.8382(6) 0.2596(4) 0.052(2) Uani 1 1 d . . .
H42 H 0.8977 0.8214 0.2871 0.080 Uiso 1 1 calc R . .
C43 C 0.7111(9) 0.8109(5) 0.2550(4) 0.051(2) Uani 1 1 d . . .
H43 H 0.6817 0.7731 0.2788 0.080 Uiso 1 1 calc R . .
C44 C 0.6219(9) 0.8356(5) 0.2166(3) 0.0452(18) Uani 1 1 d . . .
C45 C 0.6703(7) 0.8907(4) 0.1842(3) 0.0344(14) Uani 1 1 d . . .
C46 C 0.5822(7) 0.9215(5) 0.1462(3) 0.0349(15) Uani 1 1 d . . .
C47 C 0.4482(8) 0.8966(6) 0.1423(4) 0.0468(19) Uani 1 1 d . . .
C48 C 0.4033(10) 0.8382(7) 0.1747(4) 0.062(3) Uani 1 1 d . . .
H48 H 0.3107 0.8198 0.1715 0.080 Uiso 1 1 calc R . .
C49 C 0.4862(10) 0.8094(6) 0.2086(4) 0.059(2) Uani 1 1 d . . .
H49 H 0.4538 0.7684 0.2294 0.080 Uiso 1 1 calc R . .
C50 C 0.3647(8) 0.9318(7) 0.1059(4) 0.058(2) Uani 1 1 d . . .
H50 H 0.2705 0.9171 0.1027 0.080 Uiso 1 1 calc R . .
C51 C 0.4118(8) 0.9850(7) 0.0757(4) 0.056(2) Uani 1 1 d . . .
H51 H 0.3534 1.0087 0.0503 0.080 Uiso 1 1 calc R . .
C52 C 0.5483(8) 1.0058(6) 0.0814(4) 0.0473(19) Uani 1 1 d . . .
H52 H 0.5839 1.0446 0.0596 0.080 Uiso 1 1 calc R . .
C53 C 0.8557(7) 0.8616(5) 0.0093(3) 0.0329(14) Uani 1 1 d . . .
C54 C 0.8451(6) 0.8344(4) -0.0572(3) 0.0272(13) Uani 1 1 d . . .
C55 C 0.8208(7) 0.7492(4) -0.0865(3) 0.0314(14) Uani 1 1 d . . .
H55 H 0.8099 0.7059 -0.0644 0.080 Uiso 1 1 calc R . .
C56 C 0.8118(7) 0.7250(4) -0.1463(3) 0.0301(13) Uani 1 1 d . . .
C57 C 0.7895(7) 0.6324(5) -0.1777(3) 0.0355(15) Uani 1 1 d . . .
C58 C 1.1379(6) 1.0613(4) 0.1835(3) 0.0286(13) Uani 1 1 d . . .
C59 C 1.1367(6) 1.1043(4) 0.0885(3) 0.0281(13) Uani 1 1 d . . .
H59 H 1.1129 1.0447 0.0679 0.080 Uiso 1 1 calc R . .
C60 C 1.1782(6) 1.2133(4) 0.1780(3) 0.0292(13) Uani 1 1 d . . .
H60 H 1.1892 1.2304 0.2206 0.080 Uiso 1 1 calc R . .
C61 C 1.1525(6) 1.1278(4) 0.1491(3) 0.0259(12) Uani 1 1 d . . .
C62 C 0.8500(11) 1.1272(6) 0.2617(4) 0.060(2) Uani 1 1 d . . .
H62 H 0.8494 1.0714 0.2713 0.080 Uiso 1 1 calc R . .
C63 C 0.8566(11) 1.2023(8) 0.3074(5) 0.072(3) Uani 1 1 d . . .
H63 H 0.8536 1.1995 0.3480 0.080 Uiso 1 1 calc R . .
C64 C 0.8673(10) 1.2788(7) 0.2939(5) 0.073(3) Uani 1 1 d . . .
H64 H 0.8788 1.3317 0.3254 0.080 Uiso 1 1 calc R . .
C65 C 0.8622(8) 1.2841(6) 0.2353(5) 0.057(2) Uani 1 1 d . . .
C66 C 0.8500(7) 1.2051(5) 0.1930(4) 0.0414(17) Uani 1 1 d . . .
C67 C 0.8714(10) 1.3629(6) 0.2186(6) 0.073(3) Uani 1 1 d . . .
H67 H 0.8826 1.4173 0.2488 0.080 Uiso 1 1 calc R . .
C68 C 0.8652(11) 1.3638(6) 0.1631(6) 0.077(3) Uani 1 1 d . . .
H68 H 0.8699 1.4193 0.1532 0.080 Uiso 1 1 calc R . .
C69 C 0.8517(9) 1.2858(6) 0.1162(5) 0.060(2) Uani 1 1 d . . .
C70 C 0.8448(7) 1.2048(5) 0.1327(4) 0.0416(17) Uani 1 1 d . . .
C71 C 0.8428(10) 1.2828(7) 0.0576(5) 0.068(3) Uani 1 1 d . . .
H71 H 0.8435 1.3365 0.0452 0.080 Uiso 1 1 calc R . .
C72 C 0.8333(10) 1.2073(7) 0.0177(5) 0.065(3) Uani 1 1 d . . .
H72 H 0.8270 1.2051 -0.0239 0.080 Uiso 1 1 calc R . .
C73 C 0.8325(8) 1.1303(6) 0.0363(4) 0.0479(19) Uani 1 1 d . . .
H73 H 0.8289 1.0752 0.0066 0.080 Uiso 1 1 calc R . .
C74 C 0.4998(13) 0.1883(8) 0.2421(10) 0.143(6) Uani 1 1 d . . .
H74 H 0.4924 0.1297 0.2167 0.080 Uiso 1 1 calc R . .
C75 C 0.4959(12) 0.2035(8) 0.3045(10) 0.139(6) Uani 1 1 d . . .
H75 H 0.4850 0.1551 0.3222 0.080 Uiso 1 1 calc R . .

loop_
_atom_site_aniso_label
_atom_site_aniso_U_11
_atom_site_aniso_U_22
_atom_site_aniso_U_33
_atom_site_aniso_U_23
_atom_site_aniso_U_13
_atom_site_aniso_U_12
Cd1 0.0308(3) 0.0315(2) 0.0259(3) 0.00927(18) -0.00037(18) -0.00488(18)
Cd2 0.0242(3) 0.0335(3) 0.0326(3) 0.01731(19) 0.00154(18) 0.00019(17)
Cd3 0.0240(3) 0.0396(3) 0.0464(3) 0.0151(2) 0.0024(2) -0.00159(19)
O1 0.028(3) 0.054(3) 0.080(4) 0.046(3) 0.003(3) -0.002(2)
O2 0.024(3) 0.056(3) 0.071(4) 0.042(3) 0.007(2) 0.006(2)
O3 0.048(3) 0.045(3) 0.061(3) 0.039(3) -0.008(3) -0.004(2)
O4 0.047(4) 0.048(3) 0.088(4) 0.043(3) -0.008(3) -0.013(3)
O5 0.039(3) 0.040(3) 0.035(3) 0.017(2) 0.008(2) -0.001(2)
O6 0.020(3) 0.086(4) 0.058(3) 0.040(3) 0.002(2) -0.001(2)
O7 0.036(3) 0.039(3) 0.046(3) 0.011(2) -0.001(2) 0.010(2)
O8 0.019(3) 0.058(3) 0.081(4) 0.035(3) -0.002(2) 0.001(2)
O9 0.031(3) 0.035(2) 0.037(3) 0.013(2) -0.003(2) 0.0003(19)
O10 0.026(3) 0.054(3) 0.065(4) 0.028(3) 0.004(2) -0.006(2)
O11 0.054(4) 0.091(5) 0.072(4) 0.064(4) 0.002(3) 0.005(3)
O12 0.055(4) 0.128(6) 0.087(5) 0.083(5) 0.003(4) -0.016(4)
O13 0.091(5) 0.061(4) 0.040(3) 0.031(3) -0.010(3) -0.012(3)
O14 0.065(4) 0.049(3) 0.026(3) 0.006(2) 0.002(2) -0.015(3)
O15 0.104(5) 0.031(3) 0.047(3) 0.018(2) 0.003(3) -0.008(3)
O16 0.066(4) 0.030(3) 0.034(3) 0.008(2) -0.002(2) -0.010(2)
O17 0.032(3) 0.029(2) 0.040(3) 0.0146(19) -0.002(2) -0.0047(18)
O18 0.065(4) 0.040(3) 0.035(3) 0.021(2) -0.019(2) -0.016(2)
N1 0.045(4) 0.041(4) 0.041(4) 0.000(3) 0.004(3) 0.000(3)
N2 0.032(3) 0.033(3) 0.048(4) 0.013(3) -0.005(3) -0.005(2)
N3 0.037(3) 0.037(3) 0.034(3) 0.017(2) -0.001(2) -0.007(2)
N4 0.030(3) 0.044(3) 0.032(3) 0.010(2) 0.000(2) -0.002(2)
N5 0.053(4) 0.058(4) 0.035(4) 0.009(3) 0.006(3) 0.009(3)
N6 0.031(3) 0.046(3) 0.038(3) 0.026(3) 0.003(2) 0.002(2)
N7 0.036(4) 0.055(4) 0.087(6) 0.032(4) 0.002(4) -0.002(3)
N8 0.035(4) 0.070(6) 0.080(6) -0.011(4) 0.013(4) 0.002(4)
C1 0.023(3) 0.037(3) 0.034(3) 0.017(3) 0.000(3) -0.001(2)
C2 0.021(3) 0.031(3) 0.038(4) 0.014(3) 0.002(3) -0.002(2)
C3 0.025(3) 0.035(3) 0.041(4) 0.018(3) -0.001(3) 0.003(3)
C4 0.031(4) 0.027(3) 0.042(4) 0.020(3) -0.001(3) 0.000(2)
C5 0.037(4) 0.033(3) 0.042(4) 0.019(3) 0.000(3) -0.002(3)
C6 0.026(4) 0.033(3) 0.039(4) 0.014(3) 0.003(3) 0.001(2)
C7 0.028(3) 0.034(3) 0.029(3) 0.014(3) 0.004(3) 0.000(2)
C8 0.101(9) 0.064(7) 0.059(6) -0.005(5) 0.008(6) 0.013(6)
C9 0.123(13) 0.083(9) 0.085(10) -0.024(8) 0.009(9) 0.016(8)
C10 0.076(9) 0.153(14) 0.040(6) 0.000(7) 0.011(6) -0.004(8)
C11 0.044(5) 0.123(9) 0.029(4) 0.012(5) -0.001(4) -0.009(5)
C12 0.029(4) 0.084(6) 0.027(4) 0.019(4) 0.003(3) 0.002(4)
C13 0.019(3) 0.0