####################################################################### 
# 
# This file contains crystal structure data downloaded from the 
# Cambridge Structural Database (CSD) hosted by the Cambridge 
# Crystallographic Data Centre (CCDC).
# 
# Full information about CCDC data access policies and citation 
# guidelines are available at http://www.ccdc.cam.ac.uk/access/V1 
# 
# Audit and citation data items may have been added by the CCDC. 
# Please retain this information to preserve the provenance of 
# this file and to allow appropriate attribution of the data. 
# 
#######################################################################

data_aaa1
_audit_block_doi                 10.5517/ccwjtsz
_database_code_depnum_ccdc_archive 'CCDC 820532'
loop_
_citation_id
_citation_doi
_citation_year
1 10.1021/cg101222w 2010
_audit_update_record             
;
2011-04-06 deposited with the CCDC.	2024-07-08 downloaded from the CCDC.
;

_audit_creation_method           SHELXL-97
_chemical_name_systematic        
;
?
;
_chemical_name_common            ?
_chemical_melting_point          'not measured'
_chemical_formula_moiety         'C99 H72 Cd6 O42'
_chemical_formula_sum            'C99 H72 Cd6 O42'
_chemical_formula_weight         2607.97

loop_
_atom_type_symbol
_atom_type_description
_atom_type_scat_dispersion_real
_atom_type_scat_dispersion_imag
_atom_type_scat_source
C C 0.0033 0.0016 'International Tables Vol C Tables 4.2.6.8 and 6.1.1.4'
H H 0.0000 0.0000 'International Tables Vol C Tables 4.2.6.8 and 6.1.1.4'
O O 0.0106 0.0060 'International Tables Vol C Tables 4.2.6.8 and 6.1.1.4'
Cd Cd -0.8075 1.2024 'International Tables Vol C Tables 4.2.6.8 and 6.1.1.4'

_symmetry_cell_setting           triclinic
_symmetry_space_group_name_H-M   P1

loop_
_symmetry_equiv_pos_as_xyz
'x, y, z'

_cell_length_a                   15.420(5)
_cell_length_b                   15.842(3)
_cell_length_c                   17.819(3)
_cell_angle_alpha                112.763(2)
_cell_angle_beta                 112.203(3)
_cell_angle_gamma                95.425(3)
_cell_volume                     3565.6(14)
_cell_formula_units_Z            1
_cell_measurement_temperature    173(2)
_cell_measurement_reflns_used    9977
_cell_measurement_theta_min      2.24
_cell_measurement_theta_max      23.95

_exptl_crystal_description       block
_exptl_crystal_colour            colorless
_exptl_crystal_size_max          0.25
_exptl_crystal_size_mid          0.20
_exptl_crystal_size_min          0.15
_exptl_crystal_density_meas      none
_exptl_crystal_density_diffrn    1.215
_exptl_crystal_density_method    'not measured'
_exptl_crystal_F_000             1290
_exptl_absorpt_coefficient_mu    0.943
_exptl_absorpt_correction_type   multi-scan
_exptl_absorpt_correction_T_min  0.7984
_exptl_absorpt_correction_T_max  0.8715
_exptl_absorpt_process_details   SADABS

_exptl_special_details           
;
?
;

_diffrn_ambient_temperature      173(2)
_diffrn_radiation_wavelength     0.71073
_diffrn_radiation_type           MoK\a
_diffrn_radiation_source         'fine-focus sealed tube'
_diffrn_radiation_monochromator  graphite
_diffrn_measurement_device_type  'Bruker APEX-II CCD'
_diffrn_measurement_method       'phi and omega scans'
_diffrn_detector_area_resol_mean 9
_diffrn_reflns_number            31448
_diffrn_reflns_av_R_equivalents  0.0292
_diffrn_reflns_av_sigmaI/netI    0.0601
_diffrn_reflns_limit_h_min       -17
_diffrn_reflns_limit_h_max       17
_diffrn_reflns_limit_k_min       -18
_diffrn_reflns_limit_k_max       17
_diffrn_reflns_limit_l_min       -20
_diffrn_reflns_limit_l_max       20
_diffrn_reflns_theta_min         2.24
_diffrn_reflns_theta_max         23.95
_reflns_number_total             21532
_reflns_number_gt                19419
_reflns_threshold_expression     >2sigma(I)

_computing_data_collection       'Bruker SMART'
_computing_cell_refinement       'Bruker SMART'
_computing_data_reduction        'Bruker SAINT'
_computing_structure_solution    'SHELXS-97 (Sheldrick, 2008)'
_computing_structure_refinement  'SHELXL-97 (Sheldrick, 2008)'
_computing_molecular_graphics    SHELXP-97
_computing_publication_material  SHELXTL

_refine_special_details          
;
Refinement of F^2^ against ALL reflections. The weighted R-factor wR and
goodness of fit S are based on F^2^, conventional R-factors R are based
on F, with F set to zero for negative F^2^. The threshold expression of
F^2^ > 2sigma(F^2^) is used only for calculating R-factors(gt) etc. and is
not relevant to the choice of reflections for refinement. R-factors based
on F^2^ are statistically about twice as large as those based on F, and R-
factors based on ALL data will be even larger.
;

_refine_ls_structure_factor_coef Fsqd
_refine_ls_matrix_type           full
_refine_ls_weighting_scheme      calc
_refine_ls_weighting_details     
'calc w=1/[\s^2^(Fo^2^)+(0.0709P)^2^+0.0000P] where P=(Fo^2^+2Fc^2^)/3'
_atom_sites_solution_primary     direct
_atom_sites_solution_secondary   difmap
_atom_sites_solution_hydrogens   geom
_refine_ls_hydrogen_treatment    constr
_refine_ls_extinction_method     none
_refine_ls_extinction_coef       ?
_refine_ls_abs_structure_details 'Flack H D (1983), Acta Cryst. A39, 876-881'
_refine_ls_abs_structure_Flack   0.038(18)
_refine_ls_number_reflns         21532
_refine_ls_number_parameters     1324
_refine_ls_number_restraints     3
_refine_ls_R_factor_all          0.0496
_refine_ls_R_factor_gt           0.0452
_refine_ls_wR_factor_ref         0.1144
_refine_ls_wR_factor_gt          0.1114
_refine_ls_goodness_of_fit_ref   0.994
_refine_ls_restrained_S_all      0.994
_refine_ls_shift/su_max          0.001
_refine_ls_shift/su_mean         0.000

loop_
_atom_site_label
_atom_site_type_symbol
_atom_site_fract_x
_atom_site_fract_y
_atom_site_fract_z
_atom_site_U_iso_or_equiv
_atom_site_adp_type
_atom_site_occupancy
_atom_site_symmetry_multiplicity
_atom_site_calc_flag
_atom_site_refinement_flags
_atom_site_disorder_assembly
_atom_site_disorder_group
Cd3 Cd 0.64696(3) 0.31376(3) 0.04123(3) 0.03662(12) Uani 1 1 d . . .
Cd4 Cd 0.77177(4) 0.55051(3) 0.07633(3) 0.03532(11) Uani 1 1 d . . .
Cd2 Cd 0.40738(3) 0.18065(3) 0.00141(3) 0.03574(12) Uani 1 1 d . . .
Cd5 Cd 0.99681(3) 0.68594(3) 0.09314(3) 0.03886(13) Uani 1 1 d . . .
Cd6 Cd 1.14723(3) 0.92200(3) 0.15135(3) 0.03093(11) Uani 1 1 d . . .
O16 O 1.1183(3) 0.8195(3) 0.2102(3) 0.0404(11) Uani 1 1 d . . .
O21 O 1.2742(3) 0.8910(4) 0.2663(3) 0.0457(12) Uani 1 1 d . . .
O22 O 1.3004(3) 0.6810(4) 0.5117(3) 0.0439(12) Uani 1 1 d . . .
O4 O 0.1881(4) 0.3674(3) -0.3297(4) 0.0576(15) Uani 1 1 d . . .
C44 C 1.3977(5) 0.6544(4) 0.6362(4) 0.0318(14) Uani 1 1 d . . .
O25 O 1.5626(3) 0.7552(3) 0.7454(3) 0.0499(13) Uani 1 1 d . . .
O2 O -0.0661(3) 0.3185(4) -0.5526(3) 0.0515(13) Uani 1 1 d . . .
C8 C 0.0220(5) 0.2801(5) -0.4341(4) 0.0371(15) Uani 1 1 d . . .
C54 C 1.5010(5) 0.6582(4) 0.6975(4) 0.0367(15) Uani 1 1 d . . .
H54A H 1.4991 0.6360 0.7418 0.044 Uiso 1 1 calc R . .
H54B H 1.5276 0.6158 0.6599 0.044 Uiso 1 1 calc R . .
C23 C 0.4703(5) 0.4336(5) -0.1309(4) 0.0409(16) Uani 1 1 d . . .
O1 O -0.0083(4) 0.1331(4) -0.5585(4) 0.0562(14) Uani 1 1 d . . .
C4 C -0.0050(7) -0.0030(6) -0.6708(7) 0.080(3) Uani 1 1 d . . .
H4 H 0.0498 0.0352 -0.6663 0.097 Uiso 1 1 calc R . .
O23 O 1.3785(4) 0.5017(3) 0.5259(3) 0.0558(14) Uani 1 1 d . . .
C40 C 1.2821(5) 0.7185(5) 0.4519(5) 0.0436(17) Uani 1 1 d . . .
C43 C 1.3981(5) 0.6918(5) 0.5693(4) 0.0353(15) Uani 1 1 d . . .
H43A H 1.4359 0.7599 0.6030 0.042 Uiso 1 1 calc R . .
H43B H 1.4289 0.6555 0.5326 0.042 Uiso 1 1 calc R . .
C22 C 0.4396(5) 0.4949(5) -0.1642(4) 0.0364(15) Uani 1 1 d . . .
H22 H 0.4836 0.5552 -0.1408 0.044 Uiso 1 1 calc R . .
C51 C 1.3701(6) 0.3663(6) 0.4029(6) 0.069(3) Uani 1 1 d . . .
H51 H 1.4200 0.4056 0.4023 0.083 Uiso 1 1 calc R . .
C9 C 0.0314(5) 0.3295(6) -0.4917(5) 0.0456(18) Uani 1 1 d . . .
H9A H 0.0673 0.3980 -0.4518 0.055 Uiso 1 1 calc R . .
H9B H 0.0667 0.2991 -0.5262 0.055 Uiso 1 1 calc R . .
C37 C 1.2342(5) 0.7921(5) 0.3272(5) 0.0392(15) Uani 1 1 d . . .
C13 C -0.1213(5) 0.4455(5) -0.7253(5) 0.0450(17) Uani 1 1 d . . .
C7 C -0.0446(5) 0.1772(5) -0.4968(5) 0.0412(16) Uani 1 1 d . . .
H7A H -0.0438 0.1429 -0.4605 0.049 Uiso 1 1 calc R . .
H7B H -0.1126 0.1773 -0.5298 0.049 Uiso 1 1 calc R . .
C10 C -0.0774(5) 0.3648(6) -0.6068(5) 0.0456(18) Uani 1 1 d . . .
C21 C 0.3448(5) 0.4714(5) -0.2320(4) 0.0421(17) Uani 1 1 d . . .
H21 H 0.3237 0.5152 -0.2543 0.051 Uiso 1 1 calc R . .
C45 C 1.3377(5) 0.5505(5) 0.5844(5) 0.0382(15) Uani 1 1 d . . .
H45A H 1.3418 0.5238 0.6271 0.046 Uiso 1 1 calc R . .
H45B H 1.2683 0.5442 0.5481 0.046 Uiso 1 1 calc R . .
C41 C 1.1867(5) 0.7166(6) 0.4056(5) 0.0499(19) Uani 1 1 d . . .
H41 H 1.1374 0.6903 0.4164 0.060 Uiso 1 1 calc R . .
C12 C -0.1969(5) 0.3918(6) -0.7209(5) 0.051(2) Uani 1 1 d . . .
H12 H -0.2632 0.3832 -0.7591 0.061 Uiso 1 1 calc R . .
C25 C 0.3110(6) 0.3189(5) -0.2357(6) 0.062(2) Uani 1 1 d . . .
H25 H 0.2687 0.2570 -0.2614 0.074 Uiso 1 1 calc R . .
C36 C 1.2087(5) 0.8366(5) 0.2667(4) 0.0366(16) Uani 1 1 d . . .
C5 C -0.0474(5) 0.0372(5) -0.6142(5) 0.0487(19) Uani 1 1 d . . .
C19 C 0.1208(5) 0.2751(5) -0.3757(6) 0.0502(19) Uani 1 1 d . . .
H19A H 0.1163 0.2551 -0.3308 0.060 Uiso 1 1 calc R . .
H19B H 0.1430 0.2279 -0.4144 0.060 Uiso 1 1 calc R . .
C11 C -0.1755(6) 0.3524(6) -0.6623(6) 0.056(2) Uani 1 1 d . . .
H11 H -0.2264 0.3172 -0.6592 0.067 Uiso 1 1 calc R . .
C38 C 1.3277(5) 0.7942(5) 0.3741(4) 0.0378(16) Uani 1 1 d . . .
H38 H 1.3771 0.8234 0.3652 0.045 Uiso 1 1 calc R . .
C39 C 1.3549(5) 0.7552(5) 0.4352(4) 0.0343(15) Uani 1 1 d . . .
H39 H 1.4203 0.7538 0.4641 0.041 Uiso 1 1 calc R . .
C42 C 1.1628(5) 0.7523(6) 0.3445(5) 0.0493(19) Uani 1 1 d . . .
H42 H 1.0967 0.7503 0.3130 0.059 Uiso 1 1 calc R . .
C46 C 1.3337(6) 0.4055(5) 0.4660(5) 0.0484(18) Uani 1 1 d . . .
C24 C 0.4057(5) 0.3472(6) -0.1646(5) 0.0490(19) Uani 1 1 d . . .
H24 H 0.4255 0.3053 -0.1392 0.059 Uiso 1 1 calc R . .
Cd1 Cd 0.22606(3) 0.10488(3) 0.07819(3) 0.03394(12) Uani 1 1 d . . .
O12 O 0.8858(4) 0.7018(3) 0.1487(4) 0.0511(13) Uani 1 1 d . . .
O8 O 0.8561(4) 0.5739(4) -0.0275(4) 0.0610(15) Uani 1 1 d . . .
O5 O 0.6008(4) 0.4005(5) -0.0331(4) 0.076(2) Uani 1 1 d . . .
O34 O 0.4276(4) 0.0493(4) -0.1209(3) 0.0507(13) Uani 1 1 d . . .
O32 O 0.5653(4) 0.3522(4) 0.1253(3) 0.0464(12) Uani 1 1 d . . .
O33 O 0.5013(3) 0.2011(3) -0.0677(3) 0.0401(11) Uani 1 1 d . . .
O20 O 1.1626(4) 1.0559(3) 0.2786(3) 0.0486(13) Uani 1 1 d . . .
O42 O 0.1851(4) -0.0538(3) 0.0093(4) 0.0501(13) Uani 1 1 d . . .
O19 O 1.2368(3) 1.0815(3) 0.2023(3) 0.0359(10) Uani 1 1 d . . .
O11 O 0.7749(4) 0.6888(3) 0.1950(4) 0.0535(14) Uani 1 1 d . . .
O9 O 0.7656(4) 0.4561(3) 0.1459(3) 0.0458(12) Uani 1 1 d . . .
O38 O 0.2459(3) 0.0995(3) -0.0466(3) 0.0459(12) Uani 1 1 d . . .
O39 O 0.3893(4) 0.1452(5) 0.1405(4) 0.0605(16) Uani 1 1 d . . .
O37 O 0.2681(4) 0.1722(4) -0.1228(3) 0.0525(14) Uani 1 1 d . . .
O35 O 0.4104(4) 0.3267(4) 0.0941(4) 0.0544(13) Uani 1 1 d . . .
O31 O 0.6742(4) 0.2033(4) 0.0965(4) 0.0556(14) Uani 1 1 d . . .
O15 O 1.1038(5) 0.6603(5) 0.0304(5) 0.0770(19) Uani 1 1 d . . .
O18 O 1.2059(4) 0.8387(4) 0.0612(3) 0.0516(13) Uani 1 1 d . . .
O6 O 0.6245(4) 0.5421(4) -0.0249(4) 0.0611(15) Uani 1 1 d . . .
O14 O 0.9806(5) 0.7861(6) 0.0305(5) 0.080(2) Uani 1 1 d . . .
O17 O 0.9999(4) 0.9345(6) 0.0617(5) 0.080(2) Uani 1 1 d . . .
O30 O 0.7513(5) 0.2667(5) -0.0146(5) 0.087(2) Uani 1 1 d . . .
O24 O 1.3529(4) 0.6843(3) 0.7578(3) 0.0505(13) Uani 1 1 d . . .
O26 O 0.6365(4) 1.0179(3) 0.6257(3) 0.0484(13) Uani 1 1 d . . .
O27 O 0.5703(3) 0.7631(3) 0.3891(3) 0.0501(13) Uani 1 1 d . . .
C50 C 1.3348(5) 0.2743(5) 0.3442(5) 0.048(2) Uani 1 1 d . . .
H50 H 1.3612 0.2488 0.3027 0.058 Uiso 1 1 calc R . .
C52 C 1.3542(5) 0.7168(4) 0.6940(4) 0.0343(15) Uani 1 1 d . . .
H52A H 1.3940 0.7842 0.7268 0.041 Uiso 1 1 calc R . .
H52B H 1.2870 0.7130 0.6542 0.041 Uiso 1 1 calc R . .
C49 C 1.2605(5) 0.2137(5) 0.3409(4) 0.0389(16) Uani 1 1 d . . .
C1 C -0.1591(5) -0.1170(5) -0.6804(5) 0.0377(16) Uani 1 1 d . . .
H1 H -0.2132 -0.1561 -0.6848 0.045 Uiso 1 1 calc R . .
C69 C 0.6678(4) 0.8265(5) 0.4410(4) 0.0395(16) Uani 1 1 d . . .
H69A H 0.6935 0.8315 0.3992 0.047 Uiso 1 1 calc R . .
H69B H 0.7112 0.8011 0.4787 0.047 Uiso 1 1 calc R . .
C87 C 0.5166(5) 0.4832(5) 0.2038(5) 0.0467(18) Uani 1 1 d . . .
C61 C 0.6662(5) 0.9242(5) 0.5019(4) 0.0339(14) Uani 1 1 d . . .
C88 C 0.6070(5) 0.5459(6) 0.2420(5) 0.052(2) Uani 1 1 d . . .
H88 H 0.6546 0.5246 0.2237 0.063 Uiso 1 1 calc R . .
C53 C 1.3196(6) 0.7365(6) 0.8187(5) 0.051(2) Uani 1 1 d . . .
C99 C 0.2680(5) -0.1316(5) -0.1089(5) 0.0417(17) Uani 1 1 d . . .
H99 H 0.2547 -0.0726 -0.1031 0.050 Uiso 1 1 calc R . .
C72 C 0.6231(5) 0.9203(4) 0.5637(4) 0.0372(15) Uani 1 1 d . . .
H72A H 0.5527 0.8853 0.5276 0.045 Uiso 1 1 calc R . .
H72B H 0.6564 0.8872 0.5982 0.045 Uiso 1 1 calc R . .
C6 C -0.1246(5) -0.0197(5) -0.6174(5) 0.0393(16) Uani 1 1 d . . .
H6 H -0.1532 0.0065 -0.5780 0.047 Uiso 1 1 calc R . .
C94 C 0.2138(5) -0.1240(5) 0.0078(4) 0.0380(16) Uani 1 1 d . . .
C95 C 0.2528(6) -0.1716(5) -0.0540(5) 0.0438(17) Uani 1 1 d . . .
C85 C 0.4971(5) 0.3809(5) 0.1373(5) 0.0399(16) Uani 1 1 d . . .
O28 O 0.6536(4) 0.9850(4) 0.3945(3) 0.0517(13) Uani 1 1 d . . .
O10 O 0.9171(4) 0.5410(4) 0.2103(4) 0.0579(15) Uani 1 1 d . . .
O29 O 0.8192(3) 0.9502(4) 0.6229(3) 0.0514(13) Uani 1 1 d . . .
C73 C 0.5976(6) 1.0348(5) 0.6844(4) 0.0436(18) Uani 1 1 d . . .
C79 C 0.7742(5) 0.9871(5) 0.5626(5) 0.0380(15) Uani 1 1 d . . .
H79A H 0.8077 0.9844 0.5244 0.046 Uiso 1 1 calc R . .
H79B H 0.7769 1.0544 0.5971 0.046 Uiso 1 1 calc R . .
C27 C 0.8555(5) 0.4838(5) 0.2082(5) 0.0439(17) Uani 1 1 d . . .
C74 C 0.5973(6) 1.1276(5) 0.7302(5) 0.0461(18) Uani 1 1 d . . .
H74 H 0.6212 1.1746 0.7167 0.055 Uiso 1 1 calc R . .
C62 C 0.6094(5) 0.9716(5) 0.4462(5) 0.0400(16) Uani 1 1 d . . .
H62A H 0.5413 0.9309 0.4053 0.048 Uiso 1 1 calc R . .
H62B H 0.6078 1.0340 0.4880 0.048 Uiso 1 1 calc R . .
C63 C 0.6057(5) 1.0215(5) 0.3373(4) 0.0427(17) Uani 1 1 d . . .
C80 C 0.9145(5) 0.9972(5) 0.6876(4) 0.0466(18) Uani 1 1 d . . .
C47 C 1.2630(5) 0.3483(5) 0.4658(5) 0.0483(18) Uani 1 1 d . . .
H47 H 1.2381 0.3742 0.5085 0.058 Uiso 1 1 calc R . .
C48 C 1.2262(6) 0.2527(5) 0.4043(5) 0.0482(18) Uani 1 1 d . . .
H48 H 1.1769 0.2133 0.4055 0.058 Uiso 1 1 calc R . .
C70 C 0.5573(5) 0.6705(6) 0.3299(4) 0.049(2) Uani 1 1 d . . .
O36 O 0.5049(4) 0.1322(4) 0.0958(3) 0.0572(14) Uani 1 1 d . . .
O7 O 0.8043(5) 0.4419(4) -0.0290(4) 0.0674(16) Uani 1 1 d . . .
C93 C 0.1091(5) 0.0793(5) -0.1783(5) 0.0437(17) Uani 1 1 d . . .
C28 C 0.8457(5) 0.7410(5) 0.2015(5) 0.0442(17) Uani 1 1 d . . .
C29 C 0.8369(5) 0.4837(6) -0.0596(5) 0.0484(19) Uani 1 1 d . . .
C76 C 0.5223(5) 1.0844(5) 0.8115(4) 0.0371(16) Uani 1 1 d . . .
C77 C 0.5220(5) 0.9927(5) 0.7655(5) 0.0394(16) Uani 1 1 d . . .
H77 H 0.4958 0.9451 0.7772 0.047 Uiso 1 1 calc R . .
C26 C 0.5728(5) 0.4614(6) -0.0559(4) 0.0435(18) Uani 1 1 d . . .
C89 C 0.6305(5) 0.6417(5) 0.3082(5) 0.049(2) Uani 1 1 d . . .
H89 H 0.6939 0.6843 0.3366 0.059 Uiso 1 1 calc R . .
C82 C 1.0698(6) 1.1109(6) 0.7561(5) 0.057(2) Uani 1 1 d . . .
H82 H 1.1102 1.1584 0.7543 0.068 Uiso 1 1 calc R . .
C98 C 0.3017(6) -0.1780(5) -0.1701(5) 0.0526(19) Uani 1 1 d . . .
H98 H 0.3127 -0.1500 -0.2054 0.063 Uiso 1 1 calc R . .
C64 C 0.5173(6) 1.0400(7) 0.3255(5) 0.057(2) Uani 1 1 d . . .
H64 H 0.4875 1.0328 0.3614 0.069 Uiso 1 1 calc R . .
C81 C 0.9712(5) 1.0726(6) 0.6934(5) 0.054(2) Uani 1 1 d . . .
H81 H 0.9433 1.0998 0.6541 0.065 Uiso 1 1 calc R . .
C75 C 0.5632(6) 1.1547(5) 0.7959(5) 0.0434(17) Uani 1 1 d . . .
H75 H 0.5677 1.2197 0.8294 0.052 Uiso 1 1 calc R . .
C90 C 0.4823(5) 0.1127(5) -0.1223(5) 0.0397(16) Uani 1 1 d . . .
C84 C 0.9521(6) 0.9632(6) 0.7491(5) 0.064(2) Uani 1 1 d . . .
H84 H 0.9130 0.9094 0.7442 0.076 Uiso 1 1 calc R . .
C91 C 0.4662(6) 0.1242(5) 0.1460(5) 0.0476(19) Uani 1 1 d . . .
C35 C 1.2171(5) 1.1128(5) 0.2710(4) 0.0345(15) Uani 1 1 d . . .
C60 C 1.6930(6) 0.7045(6) 0.8291(6) 0.058(2) Uani 1 1 d . . .
H60 H 1.6549 0.6398 0.7984 0.070 Uiso 1 1 calc R . .
C96 C 0.2751(8) -0.2562(7) -0.0633(6) 0.069(3) Uani 1 1 d . . .
H96 H 0.2678 -0.2836 -0.0264 0.082 Uiso 1 1 calc R . .
C15 C -0.0025(6) 0.4180(6) -0.6081(6) 0.057(2) Uani 1 1 d . . .
H15 H 0.0637 0.4261 -0.5701 0.068 Uiso 1 1 calc R . .
C78 C 0.5581(5) 0.9666(5) 0.7031(5) 0.0419(17) Uani 1 1 d . . .
H78 H 0.5564 0.9018 0.6724 0.050 Uiso 1 1 calc R . .
C92 C 0.2119(5) 0.1193(5) -0.1135(5) 0.0400(16) Uani 1 1 d . . .
C55 C 1.6547(6) 0.7701(5) 0.8059(5) 0.0473(18) Uani 1 1 d . . .
C65 C 0.4723(6) 1.0697(7) 0.2592(6) 0.060(2) Uani 1 1 d . . .
H65 H 0.4094 1.0785 0.2479 0.072 Uiso 1 1 calc R . .
C83 C 1.0477(6) 1.0070(6) 0.8193(5) 0.058(2) Uani 1 1 d . . .
H83 H 1.0708 0.9872 0.8655 0.070 Uiso 1 1 calc R . .
C86 C 0.4469(6) 0.5124(6) 0.2295(6) 0.071(3) Uani 1 1 d . . .
H86 H 0.3861 0.4682 0.2066 0.085 Uiso 1 1 calc R . .
O3 O -0.0510(5) 0.2893(4) -0.3341(4) 0.0654(16) Uani 1 1 d . . .
C58 C 1.8462(5) 0.8244(6) 0.9408(6) 0.053(2) Uani 1 1 d . . .
C2 C -0.1173(5) -0.1571(5) -0.7355(5) 0.0361(15) Uani 1 1 d . . .
C30 C 0.8614(6) 0.4313(6) -0.1374(5) 0.057(2) Uani 1 1 d . . .
C68 C 0.6505(6) 1.0365(6) 0.2867(5) 0.054(2) Uani 1 1 d . . .
H68 H 0.7108 1.0225 0.2939 0.065 Uiso 1 1 calc R . .
C66 C 0.5145(6) 1.0859(6) 0.2119(5) 0.0497(19) Uani 1 1 d . . .
C20 C 0.2815(5) 0.3817(5) -0.2664(5) 0.0445(17) Uani 1 1 d . . .
C67 C 0.6069(6) 1.0716(7) 0.2261(5) 0.056(2) Uani 1 1 d . . .
H67 H 0.6390 1.0858 0.1945 0.067 Uiso 1 1 calc R . .
C16 C -0.0228(6) 0.3386(5) -0.3769(5) 0.052(2) Uani 1 1 d . . .
H16A H 0.0252 0.4011 -0.3298 0.063 Uiso 1 1 calc R . .
H16