####################################################################### 
# 
# This file contains crystal structure data downloaded from the 
# Cambridge Structural Database (CSD) hosted by the Cambridge 
# Crystallographic Data Centre (CCDC).
# 
# Full information about CCDC data access policies and citation 
# guidelines are available at http://www.ccdc.cam.ac.uk/access/V1 
# 
# Audit and citation data items may have been added by the CCDC. 
# Please retain this information to preserve the provenance of 
# this file and to allow appropriate attribution of the data. 
# 
#######################################################################

data_compound_1
_audit_block_doi                 10.5517/cc7rz31
_database_code_depnum_ccdc_archive 'CCDC 231573'
loop_
_citation_id
_citation_doi
_citation_year
1 10.1021/cm030037t 2003
_audit_update_record             
;
2004-02-16 deposited with the CCDC.	2024-07-08 downloaded from the CCDC.
;

_audit_creation_method           SHELXL-97
_chemical_name_systematic        
;
?
;
_chemical_name_common            ?
_chemical_melting_point          ?
_chemical_formula_moiety         ?
_chemical_formula_sum            'C31.50 H31.50 Cl3 N11.50 O12 Zn'
_chemical_formula_weight         934.90

loop_
_atom_type_symbol
_atom_type_description
_atom_type_scat_dispersion_real
_atom_type_scat_dispersion_imag
_atom_type_scat_source
C C 0.0033 0.0016 'International Tables Vol C Tables 4.2.6.8 and 6.1.1.4'
H H 0.0000 0.0000 'International Tables Vol C Tables 4.2.6.8 and 6.1.1.4'
N N 0.0061 0.0033 'International Tables Vol C Tables 4.2.6.8 and 6.1.1.4'
O O 0.0106 0.0060 'International Tables Vol C Tables 4.2.6.8 and 6.1.1.4'
Cl Cl 0.1484 0.1585 'International Tables Vol C Tables 4.2.6.8 and 6.1.1.4'
Zn Zn 0.2839 1.4301 'International Tables Vol C Tables 4.2.6.8 and 6.1.1.4'

_symmetry_cell_setting           Monoclinic
_symmetry_space_group_name_H-M   P2(1)/m

loop_
_symmetry_equiv_pos_as_xyz
'x, y, z'
'-x, y+1/2, -z'
'-x, -y, -z'
'x, -y-1/2, z'

_cell_length_a                   7.5755(4)
_cell_length_b                   28.3120(16)
_cell_length_c                   9.6449(6)
_cell_angle_alpha                90.00
_cell_angle_beta                 99.9920(10)
_cell_angle_gamma                90.00
_cell_volume                     2037.2(2)
_cell_formula_units_Z            2
_cell_measurement_temperature    150.0(2)
_cell_measurement_reflns_used    5714
_cell_measurement_theta_min      2.262
_cell_measurement_theta_max      25.006

_exptl_crystal_description       plate
_exptl_crystal_colour            colorless
_exptl_crystal_size_max          0.24
_exptl_crystal_size_mid          0.20
_exptl_crystal_size_min          0.06
_exptl_crystal_density_meas      ?
_exptl_crystal_density_diffrn    1.524
_exptl_crystal_density_method    'not measured'
_exptl_crystal_F_000             956
_exptl_absorpt_coefficient_mu    0.873
_exptl_absorpt_correction_type   multi-scan
_exptl_absorpt_correction_T_min  0.8179
_exptl_absorpt_correction_T_max  0.9495
_exptl_absorpt_process_details   '(SADABS, Bruker, 1998)'

_exptl_special_details           
;
?
;

_diffrn_ambient_temperature      150.0(2)
_diffrn_radiation_wavelength     0.71073
_diffrn_radiation_type           MoK\a
_diffrn_radiation_source         'sealed tube'
_diffrn_radiation_monochromator  graphite
_diffrn_measurement_device_type  'Bruker SMART APEX CCD diffractometer'
_diffrn_measurement_method       'omega scans'
_diffrn_detector_area_resol_mean ?
_diffrn_standards_number         ?
_diffrn_standards_interval_count ?
_diffrn_standards_interval_time  ?
_diffrn_standards_decay_%        <1
_diffrn_reflns_number            14982
_diffrn_reflns_av_R_equivalents  0.0563
_diffrn_reflns_av_sigmaI/netI    0.0572
_diffrn_reflns_limit_h_min       -8
_diffrn_reflns_limit_h_max       9
_diffrn_reflns_limit_k_min       -33
_diffrn_reflns_limit_k_max       33
_diffrn_reflns_limit_l_min       -11
_diffrn_reflns_limit_l_max       11
_diffrn_reflns_theta_min         1.44
_diffrn_reflns_theta_max         25.06
_reflns_number_total             3683
_reflns_number_gt                2749
_reflns_threshold_expression     >2sigma(I)

_computing_data_collection       'SMART NT V5.625 (Bruker, 1998)'
_computing_cell_refinement       'SAINT+ NT V6.02a (Bruker, 1998)'
_computing_data_reduction        'SAINT+ NT V6.02a'
_computing_structure_solution    'SHELXS-97 (Sheldrick, 1990)'
_computing_structure_refinement  'SHELXL-97 (Sheldrick, 1997)'
_computing_molecular_graphics    'SHELXTL V5.1 (Sheldrick, 1997)'
_computing_publication_material  'SHELXTL V5.1'

_refine_special_details          
;
Refinement of F^2^ against ALL reflections.  The weighted R-factor wR and
goodness of fit S are based on F^2^, conventional R-factors R are based
on F, with F set to zero for negative F^2^. The threshold expression of
F^2^ > 2sigma(F^2^) is used only for calculating R-factors(gt) etc. and is
not relevant to the choice of reflections for refinement.  R-factors based
on F^2^ are statistically about twice as large as those based on F, and R-
factors based on ALL data will be even larger.
;

_refine_ls_structure_factor_coef Fsqd
_refine_ls_matrix_type           full
_refine_ls_weighting_scheme      calc
_refine_ls_weighting_details     
'calc w=1/[\s^2^(Fo^2^)+(0.0677P)^2^+0.0000P] where P=(Fo^2^+2Fc^2^)/3'
_atom_sites_solution_primary     direct
_atom_sites_solution_secondary   difmap
_atom_sites_solution_hydrogens   geom
_refine_ls_hydrogen_treatment    mixed
_refine_ls_extinction_method     none
_refine_ls_extinction_coef       ?
_refine_ls_number_reflns         3683
_refine_ls_number_parameters     302
_refine_ls_number_restraints     5
_refine_ls_R_factor_all          0.0670
_refine_ls_R_factor_gt           0.0490
_refine_ls_wR_factor_ref         0.1253
_refine_ls_wR_factor_gt          0.1180
_refine_ls_goodness_of_fit_ref   1.005
_refine_ls_restrained_S_all      1.006
_refine_ls_shift/su_max          0.000
_refine_ls_shift/su_mean         0.000

loop_
_atom_site_label
_atom_site_type_symbol
_atom_site_fract_x
_atom_site_fract_y
_atom_site_fract_z
_atom_site_U_iso_or_equiv
_atom_site_adp_type
_atom_site_occupancy
_atom_site_symmetry_multiplicity
_atom_site_calc_flag
_atom_site_refinement_flags
_atom_site_disorder_assembly
_atom_site_disorder_group
Zn Zn 0.0000 0.5000 0.5000 0.02315(18) Uani 1 2 d S . .
C1 C -0.0181(4) 0.41829(11) 0.7015(3) 0.0245(7) Uani 1 1 d . . .
H1 H -0.0325 0.4439 0.7621 0.029 Uiso 1 1 calc R . .
C2 C -0.0339(4) 0.37301(11) 0.7501(3) 0.0251(7) Uani 1 1 d . . .
H2 H -0.0591 0.3676 0.8419 0.030 Uiso 1 1 calc R . .
C3 C -0.0123(4) 0.33542(10) 0.6621(3) 0.0214(7) Uani 1 1 d . . .
C4 C 0.0311(4) 0.34465(11) 0.5309(3) 0.0244(8) Uani 1 1 d . . .
H4 H 0.0520 0.3196 0.4702 0.029 Uiso 1 1 calc R . .
C5 C 0.0432(4) 0.39136(11) 0.4905(3) 0.0259(8) Uani 1 1 d . . .
H5 H 0.0716 0.3978 0.4002 0.031 Uiso 1 1 calc R . .
C6 C -0.0403(4) 0.28723(11) 0.7098(3) 0.0223(7) Uani 1 1 d . . .
N1 N 0.0167(4) 0.42798(8) 0.5729(3) 0.0229(6) Uani 1 1 d . . .
N2 N -0.1055(4) 0.27474(8) 0.8183(3) 0.0273(6) Uani 1 1 d . . .
O1 O 0.0026(4) 0.2500 0.6334(3) 0.0235(7) Uani 1 2 d S . .
C7 C 0.5023(5) 0.58196(12) 0.3104(4) 0.0323(8) Uani 1 1 d . . .
H7 H 0.5201 0.5553 0.2545 0.039 Uiso 1 1 calc R . .
C8 C 0.5391(5) 0.62620(12) 0.2615(4) 0.0307(8) Uani 1 1 d . . .
H8 H 0.5800 0.6300 0.1744 0.037 Uiso 1 1 calc R . .
C9 C 0.5136(4) 0.66505(11) 0.3451(3) 0.0252(7) Uani 1 1 d . . .
C10 C 0.4601(4) 0.65761(12) 0.4731(3) 0.0289(8) Uani 1 1 d . . .
H10 H 0.4469 0.6834 0.5335 0.035 Uiso 1 1 calc R . .
C11 C 0.4263(5) 0.61205(12) 0.5114(4) 0.0313(8) Uani 1 1 d . . .
H11 H 0.3889 0.6072 0.5994 0.038 Uiso 1 1 calc R . .
C12 C 0.5465(4) 0.71254(11) 0.2963(3) 0.0269(8) Uani 1 1 d . . .
N3 N 0.4433(4) 0.57430(10) 0.4312(3) 0.0324(7) Uani 1 1 d . . .
N4 N 0.6218(4) 0.72537(9) 0.1919(3) 0.0318(7) Uani 1 1 d . . .
O2 O 0.4935(4) 0.7500 0.3678(3) 0.0274(7) Uani 1 2 d S . .
N5 N 0.1351(4) 0.52436(10) 0.7055(3) 0.0296(7) Uani 1 1 d D . .
C13 C 0.1863(5) 0.53569(13) 0.8163(4) 0.0374(9) Uani 1 1 d D . .
C14 C 0.2483(7) 0.55095(18) 0.9607(4) 0.0653(14) Uani 1 1 d D . .
H14A H 0.3396 0.5755 0.9621 0.098 Uiso 1 1 calc R . .
H14B H 0.2999 0.5240 1.0173 0.098 Uiso 1 1 calc R . .
H14C H 0.1470 0.5636 0.9999 0.098 Uiso 1 1 calc R . .
O3 O 0.2461(4) 0.49380(8) 0.4368(3) 0.0327(6) Uani 1 1 d D . .
H3A H 0.314(4) 0.5164(10) 0.434(4) 0.030(10) Uiso 1 1 d D . .
H3B H 0.264(5) 0.4784(13) 0.368(3) 0.054(14) Uiso 1 1 d D . .
Cl Cl 0.29317(18) 0.41576(5) 0.11407(11) 0.0689(4) Uani 1 1 d . . .
O11 O 0.2475(6) 0.43369(13) -0.0200(3) 0.0950(13) Uani 1 1 d . . .
O12 O 0.3748(6) 0.45107(16) 0.2077(3) 0.1147(18) Uani 1 1 d . . .
O13 O 0.4218(6) 0.37881(14) 0.1094(4) 0.1047(14) Uani 1 1 d . . .
O14 O 0.1422(6) 0.3972(2) 0.1618(5) 0.1336(19) Uani 1 1 d . . .
N6 N 0.7767(7) 0.7500 0.6335(5) 0.0546(13) Uani 1 2 d S . .
C15 C 0.7706(8) 0.7500 0.7446(6) 0.0505(16) Uani 1 2 d S . .
C16 C 0.7636(14) 0.7500 0.8947(8) 0.170(6) Uani 1 2 d S . .
H16A H 0.7452 0.7177 0.9256 0.254 Uiso 0.50 1 calc PR . .
H16B H 0.6643 0.7700 0.9123 0.254 Uiso 0.50 1 calc PR . .
H16C H 0.8767 0.7623 0.9471 0.254 Uiso 0.50 1 calc PR . .
N7 N 0.724(2) 0.2500 0.3347(16) 0.075(5) Uiso 0.50 2 d SPD . 1
C17 C 0.736(3) 0.2715(9) 0.236(2) 0.052(7) Uiso 0.25 1 d PD . 1
C18 C 0.760(5) 0.3055(11) 0.132(3) 0.122(11) Uiso 0.25 1 d PD . 1
H18A H 0.6821 0.3327 0.1388 0.183 Uiso 0.25 1 calc PR . 1
H18B H 0.7296 0.2913 0.0385 0.183 Uiso 0.25 1 calc PR . 1
H18C H 0.8855 0.3159 0.1479 0.183 Uiso 0.25 1 calc PR . 1
C19 C 0.714(2) 0.2855(5) 0.1201(17) 0.044(4) Uiso 0.25 1 d PD . 2
H19A H 0.7420 0.2670 0.0432 0.053 Uiso 0.25 1 d PR . 2
H19B H 0.5953 0.2978 0.0931 0.053 Uiso 0.25 1 d PR . 2
Cl11 Cl 0.8622(8) 0.33159(17) 0.1501(5) 0.0642(13) Uani 0.25 1 d PD . 2
Cl12 Cl 0.7188(7) 0.2500 0.2611(6) 0.0771(15) Uani 0.50 2 d SPD . 2

loop_
_atom_site_aniso_label
_atom_site_aniso_U_11
_atom_site_aniso_U_22
_atom_site_aniso_U_33
_atom_site_aniso_U_23
_atom_site_aniso_U_13
_atom_site_aniso_U_12
Zn 0.0303(3) 0.0141(3) 0.0258(3) 0.0005(2) 0.0070(2) 0.0022(2)
C1 0.0306(19) 0.0168(16) 0.0265(17) -0.0032(14) 0.0059(15) 0.0018(14)
C2 0.0299(19) 0.0221(17) 0.0240(17) 0.0009(14) 0.0066(15) 0.0023(14)
C3 0.0196(17) 0.0160(16) 0.0277(17) 0.0005(13) 0.0013(14) 0.0030(13)
C4 0.029(2) 0.0170(16) 0.0280(18) -0.0026(13) 0.0065(16) 0.0029(13)
C5 0.030(2) 0.0227(17) 0.0270(17) -0.0009(14) 0.0099(16) 0.0028(14)
C6 0.0228(18) 0.0166(15) 0.0268(17) -0.0038(13) 0.0024(15) 0.0010(13)
N1 0.0261(15) 0.0165(14) 0.0262(15) -0.0001(11) 0.0048(12) 0.0035(11)
N2 0.0361(17) 0.0154(13) 0.0320(15) -0.0008(12) 0.0103(13) 0.0008(12)
O1 0.0305(19) 0.0137(15) 0.0276(17) 0.000 0.0086(15) 0.000
C7 0.029(2) 0.0271(19) 0.039(2) -0.0067(16) 0.0030(17) 0.0027(15)
C8 0.028(2) 0.033(2) 0.0315(19) -0.0016(16) 0.0047(16) -0.0004(15)
C9 0.0211(18) 0.0238(18) 0.0304(18) -0.0004(14) 0.0034(15) 0.0005(13)
C10 0.025(2) 0.0292(19) 0.0325(19) -0.0051(15) 0.0048(16) 0.0009(14)
C11 0.0261(19) 0.034(2) 0.0335(19) 0.0060(16) 0.0045(16) 0.0025(16)
C12 0.0215(18) 0.0258(17) 0.0327(19) -0.0040(15) 0.0029(15) 0.0030(14)
N3 0.0263(16) 0.0295(17) 0.0406(18) 0.0013(14) 0.0037(14) 0.0036(13)
N4 0.0354(18) 0.0253(15) 0.0374(16) -0.0009(13) 0.0136(14) -0.0018(13)
O2 0.0305(19) 0.0236(17) 0.0284(17) 0.000 0.0063(15) 0.000
N5 0.0407(19) 0.0213(16) 0.0262(16) -0.0011(13) 0.0037(14) 0.0005(13)
C13 0.045(2) 0.031(2) 0.037(2) 0.0035(17) 0.0086(19) 0.0051(17)
C14 0.077(4) 0.080(3) 0.036(2) -0.019(2) 0.001(2) 0.000(3)
O3 0.0363(15) 0.0207(14) 0.0451(16) -0.0029(12) 0.0179(13) -0.0006(11)
Cl 0.0761(9) 0.0986(10) 0.0334(6) -0.0066(6) 0.0134(6) 0.0280(7)
O11 0.134(4) 0.093(3) 0.0451(19) 0.0076(18) -0.022(2) -0.021(3)
O12 0.123(4) 0.147(4) 0.058(2) -0.064(2) -0.030(2) 0.070(3)
O13 0.106(3) 0.095(3) 0.125(3) -0.011(3) 0.053(3) 0.044(2)
O14 0.115(4) 0.185(5) 0.123(4) 0.033(4) 0.083(3) 0.048(4)
N6 0.054(3) 0.069(4) 0.042(3) 0.000 0.011(3) 0.000
C15 0.037(4) 0.078(5) 0.036(3) 0.000 0.005(3) 0.000
C16 0.114(9) 0.36(2) 0.039(5) 0.000 0.017(5) 0.000
Cl11 0.080(4) 0.055(3) 0.053(3) -0.009(2) -0.002(3) 0.000(3)
Cl12 0.067(3) 0.103(6) 0.064(4) 0.000 0.019(3) 0.000

_geom_special_details            
;
All esds (except the esd in the dihedral angle between two l.s. planes)
are estimated using the full covariance matrix.  The cell esds are taken
into account individually in the estimation of esds in distances, angles
and torsion angles; correlations between esds in cell parameters are only
used when they are defined by crystal symmetry.  An approximate (isotropic)
treatment of cell esds is used for estimating esds involving l.s. planes.
;

loop_
_geom_bond_atom_site_label_1
_geom_bond_atom_site_label_2
_geom_bond_distance
_geom_bond_site_symmetry_2
_geom_bond_publ_flag
Zn O3 2.067(3) 3_566 ?
Zn O3 2.067(3) . ?
Zn N1 2.153(2) . ?
Zn N1 2.153(2) 3_566 ?
Zn N5 2.179(3) . ?
Zn N5 2.179(3) 3_566 ?
C1 N1 1.340(4) . ?
C1 C2 1.377(4) . ?
C2 C3 1.388(4) . ?
C3 C4 1.387(4) . ?
C3 C6 1.467(4) . ?
C4 C5 1.386(4) . ?
C5 N1 1.343(4) . ?
C6 N2 1.282(4) . ?
C6 O1 1.358(3) . ?
N2 N2 1.401(5) 4_565 ?
O1 C6 1.358(3) 4_565 ?
C7 N3 1.336(4) . ?
C7 C8 1.384(5) . ?
C8 C9 1.397(4) . ?
C9 C10 1.380(4) . ?
C9 C12 1.460(4) . ?
C10 C11 1.378(5) . ?
C11 N3 1.339(4) . ?
C12 N4 1.292(4) . ?
C12 O2 1.363(4) . ?
N4 N4 1.395(5) 4_575 ?
O2 C12 1.363(4) 4_575 ?
N5 C13 1.118(4) . ?
C13 C14 1.456(5) . ?
Cl O11 1.377(3) . ?
Cl O14 1.407(5) . ?
Cl O12 1.415(4) . ?
Cl O13 1.436(4) . ?
N6 C15 1.081(7) . ?
C15 C16 1.458(9) . ?
N7 C17 1.147(15) 4_565 ?
N7 C17 1.147(15) . ?
C17 C17 1.22(5) 4_565 ?
C17 C18 1.423(17) . ?
C19 Cl12 1.687(13) . ?
C19 Cl11 1.712(14) . ?
C19 C19 2.01(3) 4_565 ?
Cl12 C19 1.687(13) 4_565 ?

loop_
_geom_angle_atom_site_label_1
_geom_angle_atom_site_label_2
_geom_angle_atom_site_label_3
_geom_angle
_geom_angle_site_symmetry_1
_geom_angle_site_symmetry_3
_geom_angle_publ_flag
O3 Zn O3 180.000(1) 3_566 . ?
O3 Zn N1 89.37(10) 3_566 . ?
O3 Zn N1 90.63(9) . . ?
O3 Zn N1 90.63(9) 3_566 3_566 ?
O3 Zn N1 89.37(10) . 3_566 ?
N1 Zn N1 180.00(14) . 3_566 ?
O3 Zn N5 90.59(11) 3_566 . ?
O3 Zn N5 89.41(11) . . ?
N1 Zn N5 90.63(10) . . ?
N1 Zn N5 89.37(10) 3_566 . ?
O3 Zn N5 89.41(11) 3_566 3_566 ?
O3 Zn N5 90.59(11) . 3_566 ?
N1 Zn N5 89.37(10) . 3_566 ?
N1 Zn N5 90.63(10) 3_566 3_566 ?
N5 Zn N5 180.00(13) . 3_566 ?
N1 C1 C2 123.3(3) . . ?
C1 C2 C3 118.6(3) . . ?
C4 C3 C2 119.0(3) . . ?
C4 C3 C6 122.1(3) . . ?
C2 C3 C6 118.8(3) . . ?
C5 C4 C3 118.3(3) . . ?
N1 C5 C4 123.1(3) . . ?
N2 C6 O1 113.1(3) . . ?
N2 C6 C3 127.6(3) . . ?
O1 C6 C3 119.3(3) . . ?
C1 N1 C5 117.6(3) . . ?
C1 N1 Zn 119.1(2) . . ?
C5 N1 Zn 123.0(2) . . ?
C6 N2 N2 106.01(17) . 4_565 ?
C6 O1 C6 101.8(3) . 4_565 ?
N3 C7 C8 124.2(3) . . ?
C7 C8 C9 117.4(3) . . ?
C10 C9 C8 119.2(3) . . ?
C10 C9 C12 121.4(3) . . ?
C8 C9 C12 119.4(3) . . ?
C11 C10 C9 118.7(3) . . ?
N3 C11 C10 123.4(3) . . ?
N4 C12 O2 112.6(3) . . ?
N4 C12 C9 129.3(3) . . ?
O2 C12 C9 118.2(3) . . ?
C7 N3 C11 117.0(3) . . ?
C12 N4 N4 106.33(18) . 4_575 ?
C12 O2 C12 102.2(3) . 4_575 ?
C13 N5 Zn 171.9(3) . . ?
N5 C13 C14 178.5(5) . . ?
O11 Cl O14 111.1(3) . . ?
O11 Cl O12 110.5(3) . . ?
O14 Cl O12 110.2(3) . . ?
O11 Cl O13 107.5(3) . . ?
O14 Cl O13 109.4(3) . . ?
O12 Cl O13 108.1(3) . . ?
N6 C15 C16 179.7(8) . . ?
C17 N7 C17 64(3) 4_565 . ?
N7 C17 C17 57.9(15) . 4_565 ?
N7 C17 C18 169(3) . . ?
C17 C17 C18 132.5(19) 4_565 . ?
Cl12 C19 Cl11 113.4(10) . . ?
Cl12 C19 C19 53.4(6) . 4_565 ?
Cl11 C19 C19 139.7(6) . 4_565 ?
C19 Cl12 C19 73.1(12) 4_565 . ?

loop_
_geom_torsion_atom_site_label_1
_geom_torsion_atom_site_label_2
_geom_torsion_atom_site_label_3
_geom_torsion_atom_site_label_4
_geom_torsion
_geom_torsion_site_symmetry_1
_geom_torsion_site_symmetry_2
_geom_torsion_site_symmetry_3
_geom_torsion_site_symmetry_4
_geom_torsion_publ_flag
N1 C1 C2 C3 0.2(5) . . . . ?
C1 C2 C3 C4 2.4(5) . . . . ?
C1 C2 C3 C6 -176.2(3) . . . . ?
C2 C3 C4 C5 -2.9(5) . . . . ?
C6 C3 C4 C5 175.7(3) . . . . ?
C3 C4 C5 N1 0.7(5) . . . . ?
C4 C3 C6 N2 -169.0(3) . . . . ?
C2 C3 C6 N2 9.6(5) . . . . ?
C4 C3 C6 O1 9.9(5) . . . . ?
C2 C3 C6 O1 -171.5(3) . . . . ?
C2 C1 N1 C5 -2.4(5) . . . . ?
C2 C1 N1 Zn 171.2(3) . . . . ?
C4 C5 N1 C1 1.9(5) . . . . ?
C4 C5 N1 Zn -171.4(2) . . . . ?
O3 Zn N1 C1 -48.2(2) 3_566 . . . ?
O3 Zn N1 C1 131.8(2) . . . . ?
N1 Zn N1 C1 83(100) 3_566 . . . ?
N5 Zn N1 C1 42.4(2) . . . . ?
N5 Zn N1 C1 -137.6(2) 3_566 . . . ?
O3 Zn N1 C5 125.0(3) 3_566 . . . ?
O3 Zn N1 C5 -55.0(3) . . . . ?
N1 Zn N1 C5 -104(100) 3_566 . . . ?
N5 Zn N1 C5 -144.4(3) . . . . ?
N5 Zn N1 C5 35.6(3) 3_566 . . . ?
O1 C6 N2 N2 0.9(3) . . . 4_565 ?
C3 C6 N2 N2 179.8(3) . . . 4_565 ?
N2 C6 O1 C6 -1.3(5) . . . 4_565 ?
C3 C6 O1 C6 179.66(17) . . . 4_565 ?
N3 C7 C8 C9 0.5(5) . . . . ?
C7 C8 C9 C10 2.3(5) . . . . ?
C7 C8 C9 C12 -178.5(3) . . . . ?
C8 C9 C10 C11 -2.7(5) . . . . ?
C12 C9 C10 C11 178.2(3) . . . . ?
C9 C10 C11 N3 0.3(5) . . . . ?
C10 C9 C12 N4 168.4(3) . . . . ?
C8 C9 C12 N4 -10.8(6) . . . . ?
C10 C9 C12 O2 -11.3(5) . . . . ?
C8 C9 C12 O2 169.6(3) . . . . ?
C8 C7 N3 C11 -2.8(5) . . . . ?
C10 C11 N3 C7 2.4(5) . . . . ?
O2 C12 N4 N4 0.4(3) . . . 4_575 ?
C9 C12 N4 N4 -179.3(3) . . . 4_575 ?
N4 C12 O2 C12 -0.6(5) . . . 4_575 ?
C9 C12 O2 C12 179.12(18) . . . 4_575 ?
O3 Zn N5 C13 17(2) 3_566 . . . ?
O3 Zn N5 C13 -163(2) . . . . ?
N1 Zn N5 C13 -73(2) . . . . ?
N1 Zn N5 C13 107(2) 3_566 . . . ?
N5 Zn N5 C13 -162(100) 3_566 . . . ?
Zn N5 C13 C14 -36(18) . . . . ?
C17 N7 C17 C18 -162(14) 4_565 . . . ?
Cl11 C19 Cl12 C19 -135.5(7) . . . 4_565 ?

loop_
_geom_hbond_atom_site_label_D
_geom_hbond_atom_site_label_H
_geom_hbond_atom_site_label_A
_geom_hbond_distance_DH
_geom_hbond_distance_HA
_geom_hbond_distance_DA
_geom_hbond_angle_DHA
_geom_hbond_site_symmetry_A
O3 H3A N3 0.83(2) 1.91(2) 2.731(4) 172(3) .
O3 H3B O12 0.82(2) 2.04(3) 2.836(4) 164(4) .

_diffrn_measured_fraction_theta_max 0.999
_diffrn_reflns_theta_full        25.06
_diffrn_measured_fraction_theta_full 0.999
_refine_diff_density_max         0.860
_refine_diff_density_min         -0.419
_refine_diff_density_rms         0.076
