####################################################################### 
# 
# This file contains crystal structure data downloaded from the 
# Cambridge Structural Database (CSD) hosted by the Cambridge 
# Crystallographic Data Centre (CCDC).
# 
# Full information about CCDC data access policies and citation 
# guidelines are available at http://www.ccdc.cam.ac.uk/access/V1 
# 
# Audit and citation data items may have been added by the CCDC. 
# Please retain this information to preserve the provenance of 
# this file and to allow appropriate attribution of the data. 
# 
#######################################################################

data_compound_2
_audit_block_doi                 10.5517/cc7rz42
_database_code_depnum_ccdc_archive 'CCDC 231574'
loop_
_citation_id
_citation_doi
_citation_year
1 10.1021/cm030037t 2003
_audit_update_record             
;
2004-02-16 deposited with the CCDC.	2024-07-08 downloaded from the CCDC.
;

_audit_creation_method           SHELXL-97
_chemical_name_systematic        
;
?
;
_chemical_name_common            ?
_chemical_melting_point          ?
_chemical_formula_moiety         ?
_chemical_formula_sum            'C16 H18 N8 O9 Zn'
_chemical_formula_weight         531.75

loop_
_atom_type_symbol
_atom_type_description
_atom_type_scat_dispersion_real
_atom_type_scat_dispersion_imag
_atom_type_scat_source
C C 0.0033 0.0016 'International Tables Vol C Tables 4.2.6.8 and 6.1.1.4'
H H 0.0000 0.0000 'International Tables Vol C Tables 4.2.6.8 and 6.1.1.4'
N N 0.0061 0.0033 'International Tables Vol C Tables 4.2.6.8 and 6.1.1.4'
O O 0.0106 0.0060 'International Tables Vol C Tables 4.2.6.8 and 6.1.1.4'
Zn Zn 0.2839 1.4301 'International Tables Vol C Tables 4.2.6.8 and 6.1.1.4'

_symmetry_cell_setting           Monoclinic
_symmetry_space_group_name_H-M   C2/c

loop_
_symmetry_equiv_pos_as_xyz
'x, y, z'
'-x, y, -z+1/2'
'x+1/2, y+1/2, z'
'-x+1/2, y+1/2, -z+1/2'
'-x, -y, -z'
'x, -y, z-1/2'
'-x+1/2, -y+1/2, -z'
'x+1/2, -y+1/2, z-1/2'

_cell_length_a                   27.2789(18)
_cell_length_b                   11.7378(8)
_cell_length_c                   7.3357(5)
_cell_angle_alpha                90.00
_cell_angle_beta                 101.4270(10)
_cell_angle_gamma                90.00
_cell_volume                     2302.3(3)
_cell_formula_units_Z            4
_cell_measurement_temperature    150.0(2)
_cell_measurement_reflns_used    5680
_cell_measurement_theta_min      2.869
_cell_measurement_theta_max      26.360

_exptl_crystal_description       plate
_exptl_crystal_colour            colorless
_exptl_crystal_size_max          0.22
_exptl_crystal_size_mid          0.20
_exptl_crystal_size_min          0.06
_exptl_crystal_density_meas      ?
_exptl_crystal_density_diffrn    1.534
_exptl_crystal_density_method    'not measured'
_exptl_crystal_F_000             1088
_exptl_absorpt_coefficient_mu    1.130
_exptl_absorpt_correction_type   multi-scan
_exptl_absorpt_correction_T_min  0.6200
_exptl_absorpt_correction_T_max  0.8310
_exptl_absorpt_process_details   '(SADABS, Bruker, 1997)'

_exptl_special_details           
;
?
;

_diffrn_ambient_temperature      150.0(2)
_diffrn_radiation_wavelength     0.71073
_diffrn_radiation_type           MoK\a
_diffrn_radiation_source         'sealed tube'
_diffrn_radiation_monochromator  graphite
_diffrn_measurement_device_type  'Bruker SMART APEX CCD diffractometer'
_diffrn_measurement_method       'omega scans'
_diffrn_detector_area_resol_mean ?
_diffrn_standards_number         ?
_diffrn_standards_interval_count ?
_diffrn_standards_interval_time  ?
_diffrn_standards_decay_%        <1
_diffrn_reflns_number            9520
_diffrn_reflns_av_R_equivalents  0.0344
_diffrn_reflns_av_sigmaI/netI    0.0312
_diffrn_reflns_limit_h_min       -34
_diffrn_reflns_limit_h_max       34
_diffrn_reflns_limit_k_min       -14
_diffrn_reflns_limit_k_max       14
_diffrn_reflns_limit_l_min       -8
_diffrn_reflns_limit_l_max       9
_diffrn_reflns_theta_min         1.52
_diffrn_reflns_theta_max         26.40
_reflns_number_total             2371
_reflns_number_gt                1987
_reflns_threshold_expression     >2sigma(I)

_computing_data_collection       'SMART NT V5.625 (Bruker, 2000)'
_computing_cell_refinement       'SAINT+ NT V6.02a (Bruker, 1998)'
_computing_data_reduction        'SAINT+ NT V6.02a'
_computing_structure_solution    'SHELXS-97 (Sheldrick, 1990)'
_computing_structure_refinement  'SHELXL-97 (Sheldrick, 1997)'
_computing_molecular_graphics    'SHELXTL V5.1 (Sheldrick, 1997)'
_computing_publication_material  'SHELXTL V5.1'

_refine_special_details          
;
Refinement of F^2^ against ALL reflections.  The weighted R-factor wR and
goodness of fit S are based on F^2^, conventional R-factors R are based
on F, with F set to zero for negative F^2^. The threshold expression of
F^2^ > 2sigma(F^2^) is used only for calculating R-factors(gt) etc. and is
not relevant to the choice of reflections for refinement.  R-factors based
on F^2^ are statistically about twice as large as those based on F, and R-
factors based on ALL data will be even larger.
;

_refine_ls_structure_factor_coef Fsqd
_refine_ls_matrix_type           full
_refine_ls_weighting_scheme      calc
_refine_ls_weighting_details     
'calc w=1/[\s^2^(Fo^2^)+(0.0524P)^2^+0.0000P] where P=(Fo^2^+2Fc^2^)/3'
_atom_sites_solution_primary     direct
_atom_sites_solution_secondary   difmap
_atom_sites_solution_hydrogens   geom
_refine_ls_hydrogen_treatment    mixed
_refine_ls_extinction_method     none
_refine_ls_extinction_coef       ?
_refine_ls_number_reflns         2371
_refine_ls_number_parameters     169
_refine_ls_number_restraints     1
_refine_ls_R_factor_all          0.0379
_refine_ls_R_factor_gt           0.0313
_refine_ls_wR_factor_ref         0.0797
_refine_ls_wR_factor_gt          0.0775
_refine_ls_goodness_of_fit_ref   0.974
_refine_ls_restrained_S_all      0.974
_refine_ls_shift/su_max          0.000
_refine_ls_shift/su_mean         0.000

loop_
_atom_site_label
_atom_site_type_symbol
_atom_site_fract_x
_atom_site_fract_y
_atom_site_fract_z
_atom_site_U_iso_or_equiv
_atom_site_adp_type
_atom_site_occupancy
_atom_site_symmetry_multiplicity
_atom_site_calc_flag
_atom_site_refinement_flags
_atom_site_disorder_assembly
_atom_site_disorder_group
Zn Zn 0.2500 0.7500 0.0000 0.01895(11) Uani 1 2 d S . .
C1 C 0.36060(8) 0.71511(17) 0.0591(3) 0.0271(5) Uani 1 1 d . . .
H1 H 0.3581 0.7941 0.0307 0.040(7) Uiso 1 1 calc R . .
C2 C 0.40731(7) 0.66718(16) 0.1041(3) 0.0277(5) Uani 1 1 d . . .
H2 H 0.4364 0.7119 0.1054 0.024(5) Uiso 1 1 calc R . .
C3 C 0.41117(7) 0.55188(16) 0.1477(3) 0.0237(4) Uani 1 1 d . . .
C4 C 0.36768(7) 0.48856(16) 0.1371(3) 0.0252(4) Uani 1 1 d . . .
H4 H 0.3691 0.4090 0.1616 0.017(5) Uiso 1 1 calc R . .
C5 C 0.32234(7) 0.54405(16) 0.0903(3) 0.0240(4) Uani 1 1 d . . .
H5 H 0.2926 0.5010 0.0840 0.026(6) Uiso 1 1 calc R . .
C6 C 0.46064(8) 0.50056(16) 0.2044(3) 0.0255(4) Uani 1 1 d . . .
C7 C 0.43528(13) 0.0188(3) 0.0324(5) 0.0670(9) Uani 1 1 d . . .
C8 C 0.43063(15) 0.1417(3) 0.0397(6) 0.0809(11) Uani 1 1 d . . .
H8A H 0.4311 0.1654 0.1681 0.121 Uiso 1 1 calc R . .
H8B H 0.3990 0.1654 -0.0397 0.121 Uiso 1 1 calc R . .
H8C H 0.4586 0.1773 -0.0044 0.121 Uiso 1 1 calc R . .
N1 N 0.31834(6) 0.65596(13) 0.0533(2) 0.0217(4) Uani 1 1 d . . .
N2 N 0.47387(7) 0.39600(15) 0.2197(3) 0.0448(6) Uani 1 1 d . . .
N3 N 0.20892(6) 0.66908(13) 0.3410(2) 0.0217(4) Uani 1 1 d . . .
N4 N 0.43931(14) -0.0767(2) 0.0285(5) 0.1002(12) Uani 1 1 d . . .
O1 O 0.5000 0.57256(15) 0.2500 0.0269(5) Uani 1 2 d S . .
O2 O 0.28592(6) 0.87427(12) 0.1786(2) 0.0257(3) Uani 1 1 d D . .
H2A H 0.2880(9) 0.874(2) 0.291(3) 0.033(7) Uiso 1 1 d D . .
H2B H 0.2914(11) 0.935(2) 0.140(4) 0.061(9) Uiso 1 1 d D . .
O3 O 0.22690(5) 0.64069(11) 0.20234(19) 0.0253(3) Uani 1 1 d . . .
O4 O 0.20050(6) 0.76928(11) 0.3738(2) 0.0298(3) Uani 1 1 d . . .
O5 O 0.19979(6) 0.59054(11) 0.4470(2) 0.0285(3) Uani 1 1 d . . .

loop_
_atom_site_aniso_label
_atom_site_aniso_U_11
_atom_site_aniso_U_22
_atom_site_aniso_U_33
_atom_site_aniso_U_23
_atom_site_aniso_U_13
_atom_site_aniso_U_12
Zn 0.02223(18) 0.01208(16) 0.02207(19) 0.00097(12) 0.00319(12) 0.00050(11)
C1 0.0274(11) 0.0165(9) 0.0372(13) 0.0035(9) 0.0058(9) -0.0022(8)
C2 0.0243(10) 0.0180(9) 0.0403(13) 0.0032(9) 0.0050(9) -0.0038(7)
C3 0.0238(10) 0.0196(9) 0.0268(11) -0.0007(8) 0.0030(8) 0.0001(7)
C4 0.0264(11) 0.0141(9) 0.0339(12) 0.0017(8) 0.0032(9) -0.0007(7)
C5 0.0226(10) 0.0186(9) 0.0303(12) 0.0008(8) 0.0044(8) -0.0022(7)
C6 0.0239(10) 0.0184(9) 0.0334(12) -0.0004(8) 0.0041(9) -0.0028(7)
C7 0.094(2) 0.0406(17) 0.073(2) -0.0014(15) 0.0321(19) -0.0258(15)
C8 0.114(3) 0.0363(16) 0.096(3) 0.0020(17) 0.030(2) -0.0088(17)
N1 0.0231(8) 0.0164(8) 0.0248(9) 0.0014(7) 0.0028(7) -0.0001(6)
N2 0.0226(10) 0.0182(9) 0.0894(19) -0.0018(10) 0.0008(10) -0.0012(7)
N3 0.0258(9) 0.0150(8) 0.0234(9) 0.0002(7) 0.0028(7) 0.0004(6)
N4 0.148(3) 0.0389(16) 0.130(3) -0.0064(17) 0.067(3) -0.0336(17)
O1 0.0191(10) 0.0161(9) 0.0434(13) 0.000 0.0014(9) 0.000
O2 0.0411(9) 0.0160(7) 0.0199(8) -0.0003(6) 0.0056(7) -0.0048(6)
O3 0.0376(8) 0.0172(6) 0.0236(8) 0.0007(5) 0.0118(6) 0.0022(5)
O4 0.0417(9) 0.0132(7) 0.0347(9) -0.0010(6) 0.0082(7) 0.0064(6)
O5 0.0468(9) 0.0163(7) 0.0250(8) 0.0016(6) 0.0134(7) -0.0026(6)

_geom_special_details            
;
All esds (except the esd in the dihedral angle between two l.s. planes)
are estimated using the full covariance matrix.  The cell esds are taken
into account individually in the estimation of esds in distances, angles
and torsion angles; correlations between esds in cell parameters are only
used when they are defined by crystal symmetry.  An approximate (isotropic)
treatment of cell esds is used for estimating esds involving l.s. planes.
;

loop_
_geom_bond_atom_site_label_1
_geom_bond_atom_site_label_2
_geom_bond_distance
_geom_bond_site_symmetry_2
_geom_bond_publ_flag
Zn O2 2.0728(14) 7_565 ?
Zn O2 2.0728(14) . ?
Zn N1 2.1350(16) 7_565 ?
Zn N1 2.1350(16) . ?
Zn O3 2.1487(13) . ?
Zn O3 2.1487(13) 7_565 ?
C1 N1 1.339(3) . ?
C1 C2 1.372(3) . ?
C2 C3 1.390(3) . ?
C3 C4 1.389(3) . ?
C3 C6 1.461(3) . ?
C4 C5 1.380(3) . ?
C5 N1 1.341(2) . ?
C6 N2 1.278(3) . ?
C6 O1 1.355(2) . ?
C7 N4 1.127(4) . ?
C7 C8 1.450(4) . ?
N2 N2 1.407(4) 2_655 ?
N3 O4 1.2311(19) . ?
N3 O3 1.259(2) . ?
N3 O5 1.262(2) . ?
O1 C6 1.355(2) 2_655 ?

loop_
_geom_angle_atom_site_label_1
_geom_angle_atom_site_label_2
_geom_angle_atom_site_label_3
_geom_angle
_geom_angle_site_symmetry_1
_geom_angle_site_symmetry_3
_geom_angle_publ_flag
O2 Zn O2 180.0 7_565 . ?
O2 Zn N1 87.81(6) 7_565 7_565 ?
O2 Zn N1 92.19(6) . 7_565 ?
O2 Zn N1 92.19(6) 7_565 . ?
O2 Zn N1 87.81(6) . . ?
N1 Zn N1 180.00(5) 7_565 . ?
O2 Zn O3 81.37(6) 7_565 . ?
O2 Zn O3 98.63(6) . . ?
N1 Zn O3 94.03(6) 7_565 . ?
N1 Zn O3 85.97(6) . . ?
O2 Zn O3 98.63(6) 7_565 7_565 ?
O2 Zn O3 81.37(6) . 7_565 ?
N1 Zn O3 85.97(6) 7_565 7_565 ?
N1 Zn O3 94.03(6) . 7_565 ?
O3 Zn O3 180.0 . 7_565 ?
N1 C1 C2 123.20(18) . . ?
C1 C2 C3 118.63(18) . . ?
C4 C3 C2 118.89(17) . . ?
C4 C3 C6 121.71(17) . . ?
C2 C3 C6 119.39(17) . . ?
C5 C4 C3 118.36(18) . . ?
N1 C5 C4 123.06(18) . . ?
N2 C6 O1 112.40(18) . . ?
N2 C6 C3 130.53(18) . . ?
O1 C6 C3 117.07(16) . . ?
N4 C7 C8 179.2(5) . . ?
C1 N1 C5 117.80(17) . . ?
C1 N1 Zn 116.92(13) . . ?
C5 N1 Zn 125.19(13) . . ?
C6 N2 N2 106.18(12) . 2_655 ?
O4 N3 O3 121.90(16) . . ?
O4 N3 O5 120.68(17) . . ?
O3 N3 O5 117.42(15) . . ?
C6 O1 C6 102.8(2) . 2_655 ?
N3 O3 Zn 127.94(11) . . ?

loop_
_geom_torsion_atom_site_label_1
_geom_torsion_atom_site_label_2
_geom_torsion_atom_site_label_3
_geom_torsion_atom_site_label_4
_geom_torsion
_geom_torsion_site_symmetry_1
_geom_torsion_site_symmetry_2
_geom_torsion_site_symmetry_3
_geom_torsion_site_symmetry_4
_geom_torsion_publ_flag
N1 C1 C2 C3 -0.7(3) . . . . ?
C1 C2 C3 C4 2.5(3) . . . . ?
C1 C2 C3 C6 -177.1(2) . . . . ?
C2 C3 C4 C5 -2.4(3) . . . . ?
C6 C3 C4 C5 177.20(19) . . . . ?
C3 C4 C5 N1 0.5(3) . . . . ?
C4 C3 C6 N2 14.0(4) . . . . ?
C2 C3 C6 N2 -166.4(3) . . . . ?
C4 C3 C6 O1 -165.81(18) . . . . ?
C2 C3 C6 O1 13.8(3) . . . . ?
C2 C1 N1 C5 -1.2(3) . . . . ?
C2 C1 N1 Zn 175.52(18) . . . . ?
C4 C5 N1 C1 1.3(3) . . . . ?
C4 C5 N1 Zn -175.14(15) . . . . ?
O2 Zn N1 C1 138.18(16) 7_565 . . . ?
O2 Zn N1 C1 -41.82(16) . . . . ?
N1 Zn N1 C1 -18(100) 7_565 . . . ?
O3 Zn N1 C1 -140.64(16) . . . . ?
O3 Zn N1 C1 39.36(16) 7_565 . . . ?
O2 Zn N1 C5 -45.36(17) 7_565 . . . ?
O2 Zn N1 C5 134.64(17) . . . . ?
N1 Zn N1 C5 159(100) 7_565 . . . ?
O3 Zn N1 C5 35.82(17) . . . . ?
O3 Zn N1 C5 -144.18(17) 7_565 . . . ?
O1 C6 N2 N2 0.0(4) . . . 2_655 ?
C3 C6 N2 N2 -179.8(2) . . . 2_655 ?
N2 C6 O1 C6 -0.02(15) . . . 2_655 ?
C3 C6 O1 C6 179.9(2) . . . 2_655 ?
O4 N3 O3 Zn 2.7(2) . . . . ?
O5 N3 O3 Zn -177.09(12) . . . . ?
O2 Zn O3 N3 -137.88(15) 7_565 . . . ?
O2 Zn O3 N3 42.12(15) . . . . ?
N1 Zn O3 N3 -50.71(15) 7_565 . . . ?
N1 Zn O3 N3 129.29(15) . . . . ?
O3 Zn O3 N3 97(100) 7_565 . . . ?

loop_
_geom_hbond_atom_site_label_D
_geom_hbond_atom_site_label_H
_geom_hbond_atom_site_label_A
_geom_hbond_distance_DH
_geom_hbond_distance_HA
_geom_hbond_distance_DA
_geom_hbond_angle_DHA
_geom_hbond_site_symmetry_A
O2 H2B O5 0.79(2) 1.97(2) 2.7546(19) 175(3) 4
O2 H2A N3 0.82(2) 2.73(2) 3.535(2) 169(2) 7_566
O2 H2A O5 0.82(2) 1.93(2) 2.728(2) 166(2) 7_566

_diffrn_measured_fraction_theta_max 0.999
_diffrn_reflns_theta_full        26.40
_diffrn_measured_fraction_theta_full 0.999
_refine_diff_density_max         0.695
_refine_diff_density_min         -0.409
_refine_diff_density_rms         0.068
