####################################################################### 
# 
# This file contains crystal structure data downloaded from the 
# Cambridge Structural Database (CSD) hosted by the Cambridge 
# Crystallographic Data Centre (CCDC).
# 
# Full information about CCDC data access policies and citation 
# guidelines are available at http://www.ccdc.cam.ac.uk/access/V1 
# 
# Audit and citation data items may have been added by the CCDC. 
# Please retain this information to preserve the provenance of 
# this file and to allow appropriate attribution of the data. 
# 
#######################################################################

data_021118a
_audit_block_doi                 10.5517/cc7f3j8
_database_code_depnum_ccdc_archive 'CCDC 221139'
loop_
_citation_id
_citation_doi
_citation_year
1 10.1016/j.inoche.2003.11.010 2004
_audit_update_record             
;
2003-10-06 deposited with the CCDC.	2024-07-08 downloaded from the CCDC.
;

_audit_creation_method           SHELXL-97
_chemical_name_systematic        
;
?
;
_chemical_name_common            ?
_chemical_melting_point          ?
_chemical_formula_moiety         ?
_chemical_formula_sum            'C19 H30 N8 O2 S2 Zn'
_chemical_formula_weight         532.00

loop_
_atom_type_symbol
_atom_type_description
_atom_type_scat_dispersion_real
_atom_type_scat_dispersion_imag
_atom_type_scat_source
C C 0.0033 0.0016 'International Tables Vol C Tables 4.2.6.8 and 6.1.1.4'
H H 0.0000 0.0000 'International Tables Vol C Tables 4.2.6.8 and 6.1.1.4'
O O 0.0106 0.0060 'International Tables Vol C Tables 4.2.6.8 and 6.1.1.4'
N N 0.0061 0.0033 'International Tables Vol C Tables 4.2.6.8 and 6.1.1.4'
S S 0.1246 0.1234 'International Tables Vol C Tables 4.2.6.8 and 6.1.1.4'
Zn Zn 0.2839 1.4301 'International Tables Vol C Tables 4.2.6.8 and 6.1.1.4'

_symmetry_cell_setting           Monoclinic
_symmetry_space_group_name_H-M   P2(1)/c

loop_
_symmetry_equiv_pos_as_xyz
'x, y, z'
'-x, y+1/2, -z+1/2'
'-x, -y, -z'
'x, -y-1/2, z-1/2'

_cell_length_a                   8.976(3)
_cell_length_b                   18.493(5)
_cell_length_c                   17.312(5)
_cell_angle_alpha                90.00
_cell_angle_beta                 104.827(6)
_cell_angle_gamma                90.00
_cell_volume                     2777.9(14)
_cell_formula_units_Z            4
_cell_measurement_temperature    293(2)
_cell_measurement_reflns_used    933
_cell_measurement_theta_min      2.52
_cell_measurement_theta_max      20.36

_exptl_crystal_description       ?
_exptl_crystal_colour            ?
_exptl_crystal_size_max          0.56
_exptl_crystal_size_mid          0.32
_exptl_crystal_size_min          0.20
_exptl_crystal_density_meas      0
_exptl_crystal_density_diffrn    1.272
_exptl_crystal_density_method    'not measured'
_exptl_crystal_F_000             1112
_exptl_absorpt_coefficient_mu    1.063
_exptl_absorpt_correction_type   MULTI-SCAN
_exptl_absorpt_correction_T_min  0.808773
_exptl_absorpt_correction_T_max  1.000000
_exptl_absorpt_process_details   SADABS

_exptl_special_details           
;
?
;

_diffrn_ambient_temperature      293(2)
_diffrn_radiation_wavelength     0.71073
_diffrn_radiation_type           MoK\a
_diffrn_radiation_source         'fine-focus sealed tube'
_diffrn_radiation_monochromator  graphite
_diffrn_measurement_device_type  'CCD area detector'
_diffrn_measurement_method       'phi and omega scans'
_diffrn_detector_area_resol_mean ?
_diffrn_standards_number         ?
_diffrn_standards_interval_count ?
_diffrn_standards_interval_time  ?
_diffrn_standards_decay_%        ?
_diffrn_reflns_number            15698
_diffrn_reflns_av_R_equivalents  0.0545
_diffrn_reflns_av_sigmaI/netI    0.0765
_diffrn_reflns_limit_h_min       -11
_diffrn_reflns_limit_h_max       10
_diffrn_reflns_limit_k_min       -22
_diffrn_reflns_limit_k_max       23
_diffrn_reflns_limit_l_min       -8
_diffrn_reflns_limit_l_max       21
_diffrn_reflns_theta_min         2.20
_diffrn_reflns_theta_max         26.45
_reflns_number_total             5692
_reflns_number_gt                2878
_reflns_threshold_expression     >2sigma(I)

_computing_data_collection       'Bruker SMART'
_computing_cell_refinement       'Bruker SMART'
_computing_data_reduction        'Bruker SAINT'
_computing_structure_solution    'SHELXS-97 (Sheldrick, 1990)'
_computing_structure_refinement  'SHELXL-97 (Sheldrick, 1997)'
_computing_molecular_graphics    'Bruker SHELXTL'
_computing_publication_material  'Bruker SHELXTL'

_refine_special_details          
;
Refinement of F^2^ against ALL reflections.  The weighted R-factor wR and
goodness of fit S are based on F^2^, conventional R-factors R are based
on F, with F set to zero for negative F^2^. The threshold expression of
F^2^ > 2sigma(F^2^) is used only for calculating R-factors(gt) etc. and is
not relevant to the choice of reflections for refinement.  R-factors based
on F^2^ are statistically about twice as large as those based on F, and R-
factors based on ALL data will be even larger.
;

_refine_ls_structure_factor_coef Fsqd
_refine_ls_matrix_type           full
_refine_ls_weighting_scheme      calc
_refine_ls_weighting_details     
'calc w=1/[\s^2^(Fo^2^)+(0.0892P)^2^+0.3708P] where P=(Fo^2^+2Fc^2^)/3'
_atom_sites_solution_primary     direct
_atom_sites_solution_secondary   difmap
_atom_sites_solution_hydrogens   geom
_refine_ls_hydrogen_treatment    mixed
_refine_ls_extinction_method     none
_refine_ls_extinction_coef       ?
_refine_ls_number_reflns         5692
_refine_ls_number_parameters     289
_refine_ls_number_restraints     0
_refine_ls_R_factor_all          0.1460
_refine_ls_R_factor_gt           0.0647
_refine_ls_wR_factor_ref         0.1859
_refine_ls_wR_factor_gt          0.1515
_refine_ls_goodness_of_fit_ref   1.011
_refine_ls_restrained_S_all      1.011
_refine_ls_shift/su_max          0.007
_refine_ls_shift/su_mean         0.001

loop_
_atom_site_label
_atom_site_type_symbol
_atom_site_fract_x
_atom_site_fract_y
_atom_site_fract_z
_atom_site_U_iso_or_equiv
_atom_site_adp_type
_atom_site_occupancy
_atom_site_symmetry_multiplicity
_atom_site_calc_flag
_atom_site_refinement_flags
_atom_site_disorder_assembly
_atom_site_disorder_group
Zn1 Zn 0.28342(6) 0.83538(3) 0.66614(3) 0.0608(2) Uani 1 1 d . . .
S1 S 0.1879(5) 0.59034(13) 0.68755(17) 0.2037(16) Uani 1 1 d . . .
S2 S 0.5708(5) 0.9129(2) 0.91236(15) 0.242(2) Uani 1 1 d . . .
N1 N 0.4189(4) 0.8538(2) 0.5911(2) 0.0539(10) Uani 1 1 d . . .
N2 N 0.3939(4) 0.81840(19) 0.5198(2) 0.0578(10) Uani 1 1 d . . .
H2A H 0.3265 0.7848 0.5048 0.069 Uiso 1 1 calc R . .
N3 N 1.0869(4) 0.8899(2) 0.6200(2) 0.0540(10) Uani 1 1 d . . .
N4 N 1.0802(4) 0.9628(2) 0.6322(2) 0.0563(10) Uani 1 1 d . . .
H4A H 1.1538 0.9876 0.6620 0.068 Uiso 1 1 calc R . .
N5 N 0.2459(6) 0.7327(3) 0.6701(3) 0.0861(15) Uani 1 1 d . . .
N6 N 0.3765(6) 0.8741(3) 0.7708(3) 0.0866(15) Uani 1 1 d . . .
N7 N 0.0845(9) 0.8838(5) 0.9015(6) 0.160(3) Uani 1 1 d . . .
N8 N 0.6635(7) 0.6397(4) 0.6892(4) 0.1148(19) Uani 1 1 d . . .
C1 C 0.5906(5) 0.9518(3) 0.6594(3) 0.0672(14) Uani 1 1 d . . .
H1A H 0.5371 0.9430 0.6999 0.101 Uiso 1 1 calc R . .
H1B H 0.5731 1.0008 0.6410 0.101 Uiso 1 1 calc R . .
H1C H 0.6990 0.9442 0.6813 0.101 Uiso 1 1 calc R . .
C2 C 0.5323(5) 0.9011(2) 0.5909(3) 0.0503(11) Uani 1 1 d . . .
C3 C 0.5774(5) 0.8954(2) 0.5203(3) 0.0497(11) Uani 1 1 d . . .
C4 C 0.4861(5) 0.8420(3) 0.4762(3) 0.0579(12) Uani 1 1 d . . .
C5 C 0.4789(7) 0.8114(3) 0.3948(3) 0.0845(17) Uani 1 1 d . . .
H5A H 0.4015 0.7744 0.3824 0.127 Uiso 1 1 calc R . .
H5B H 0.5772 0.7911 0.3944 0.127 Uiso 1 1 calc R . .
H5C H 0.4534 0.8492 0.3556 0.127 Uiso 1 1 calc R . .
C6 C 0.6998(5) 0.9395(3) 0.4964(3) 0.0596(12) Uani 1 1 d . . .
H6A H 0.7049 0.9242 0.4436 0.071 Uiso 1 1 calc R . .
H6B H 0.6680 0.9897 0.4926 0.071 Uiso 1 1 calc R . .
C7 C 0.9141(6) 0.7975(3) 0.5412(4) 0.0798(16) Uani 1 1 d . . .
H7A H 0.9996 0.7667 0.5650 0.120 Uiso 1 1 calc R . .
H7B H 0.8960 0.7962 0.4841 0.120 Uiso 1 1 calc R . .
H7C H 0.8238 0.7809 0.5559 0.120 Uiso 1 1 calc R . .
C8 C 0.9498(5) 0.8732(2) 0.5701(3) 0.0518(11) Uani 1 1 d . . .
C9 C 0.8581(5) 0.9347(2) 0.5512(3) 0.0497(11) Uani 1 1 d . . .
C10 C 0.9444(5) 0.9907(2) 0.5918(3) 0.0524(11) Uani 1 1 d . . .
C11 C 0.9107(6) 1.0693(3) 0.5968(3) 0.0744(15) Uani 1 1 d . . .
H11A H 0.9982 1.0929 0.6312 0.112 Uiso 1 1 calc R . .
H11B H 0.8227 1.0752 0.6181 0.112 Uiso 1 1 calc R . .
H11C H 0.8896 1.0903 0.5444 0.112 Uiso 1 1 calc R . .
C12 C 0.2188(8) 0.6746(4) 0.6778(4) 0.0872(18) Uani 1 1 d . . .
C13 C 0.4558(8) 0.8892(4) 0.8290(4) 0.100(2) Uani 1 1 d . . .
C14 C 0.1676(11) 0.8363(6) 0.9429(7) 0.171(5) Uani 1 1 d . . .
H14A H 0.2530 0.8578 0.9773 0.205 Uiso 1 1 calc R . .
C15 C -0.0167(17) 0.8710(11) 0.8308(9) 0.347(13) Uani 1 1 d . . .
H15A H -0.0282 0.8198 0.8224 0.521 Uiso 1 1 calc R . .
H15B H 0.0205 0.8922 0.7887 0.521 Uiso 1 1 calc R . .
H15C H -0.1146 0.8918 0.8309 0.521 Uiso 1 1 calc R . .
C16 C 0.107(2) 0.9628(9) 0.9164(12) 0.379(13) Uani 1 1 d . . .
H16A H 0.1765 0.9705 0.9680 0.568 Uiso 1 1 calc R . .
H16B H 0.0099 0.9852 0.9146 0.568 Uiso 1 1 calc R . .
H16C H 0.1501 0.9838 0.8761 0.568 Uiso 1 1 calc R . .
C17 C 0.6518(8) 0.5806(4) 0.7280(5) 0.102(2) Uani 1 1 d . . .
H17A H 0.5863 0.5457 0.6988 0.122 Uiso 1 1 calc R . .
C18 C 0.5889(14) 0.6536(6) 0.6076(5) 0.207(6) Uani 1 1 d . . .
H18A H 0.5348 0.6110 0.5840 0.311 Uiso 1 1 calc R . .
H18B H 0.6644 0.6664 0.5795 0.311 Uiso 1 1 calc R . .
H18C H 0.5171 0.6926 0.6043 0.311 Uiso 1 1 calc R . .
C19 C 0.7559(18) 0.7003(6) 0.7354(8) 0.249(7) Uani 1 1 d . . .
H19A H 0.8018 0.6845 0.7891 0.373 Uiso 1 1 calc R . .
H19B H 0.6897 0.7408 0.7364 0.373 Uiso 1 1 calc R . .
H19C H 0.8354 0.7142 0.7104 0.373 Uiso 1 1 calc R . .
O1 O 0.1719(6) 0.7777(3) 0.9515(4) 0.1269(19) Uani 1 1 d . . .
O2 O 0.7117(5) 0.5648(2) 0.7945(3) 0.0977(13) Uani 1 1 d . . .

loop_
_atom_site_aniso_label
_atom_site_aniso_U_11
_atom_site_aniso_U_22
_atom_site_aniso_U_33
_atom_site_aniso_U_23
_atom_site_aniso_U_13
_atom_site_aniso_U_12
Zn1 0.0508(3) 0.0604(4) 0.0704(4) 0.0110(3) 0.0142(3) 0.0027(3)
S1 0.331(4) 0.0886(16) 0.163(2) 0.0254(15) 0.011(3) -0.084(2)
S2 0.312(5) 0.269(4) 0.0888(16) 0.021(2) -0.052(2) -0.147(3)
N1 0.042(2) 0.057(2) 0.060(3) -0.0001(19) 0.0085(18) 0.0024(18)
N2 0.054(2) 0.048(2) 0.069(3) -0.001(2) 0.010(2) -0.0029(18)
N3 0.044(2) 0.051(2) 0.069(3) 0.0020(19) 0.016(2) 0.0015(17)
N4 0.050(2) 0.055(2) 0.062(3) -0.0013(19) 0.012(2) -0.0056(19)
N5 0.085(3) 0.067(3) 0.102(4) 0.021(3) 0.015(3) -0.002(3)
N6 0.084(3) 0.111(4) 0.059(3) 0.013(3) 0.008(3) -0.009(3)
N7 0.140(6) 0.146(6) 0.206(8) 0.107(6) 0.066(6) 0.078(5)
N8 0.126(5) 0.119(5) 0.103(5) 0.037(4) 0.035(4) 0.029(4)
C1 0.057(3) 0.078(4) 0.068(3) -0.017(3) 0.018(3) -0.016(3)
C2 0.039(2) 0.052(3) 0.059(3) 0.005(2) 0.011(2) 0.005(2)
C3 0.035(2) 0.056(3) 0.055(3) 0.007(2) 0.007(2) 0.010(2)
C4 0.052(3) 0.058(3) 0.062(3) 0.001(3) 0.011(2) 0.009(2)
C5 0.085(4) 0.103(4) 0.064(4) -0.016(3) 0.015(3) 0.000(3)
C6 0.055(3) 0.062(3) 0.061(3) 0.009(2) 0.015(2) 0.005(2)
C7 0.059(3) 0.064(4) 0.112(5) -0.006(3) 0.013(3) 0.000(3)
C8 0.044(3) 0.050(3) 0.066(3) 0.004(2) 0.022(2) -0.002(2)
C9 0.041(2) 0.062(3) 0.051(3) 0.006(2) 0.019(2) 0.004(2)
C10 0.047(3) 0.055(3) 0.059(3) 0.007(2) 0.020(2) 0.003(2)
C11 0.069(3) 0.059(3) 0.095(4) 0.004(3) 0.023(3) 0.005(3)
C12 0.100(4) 0.071(4) 0.078(4) 0.014(3) 0.000(3) -0.016(4)
C13 0.110(5) 0.111(5) 0.074(4) 0.029(4) 0.014(4) -0.023(4)
C14 0.111(7) 0.189(11) 0.223(11) 0.115(10) 0.063(7) 0.056(8)
C15 0.160(12) 0.63(4) 0.205(16) 0.041(19) -0.043(12) 0.084(17)
C16 0.36(3) 0.25(2) 0.49(3) 0.05(2) 0.04(2) 0.163(19)
C17 0.123(6) 0.098(5) 0.090(5) 0.012(4) 0.037(5) 0.013(4)
C18 0.285(15) 0.250(13) 0.085(6) 0.066(7) 0.046(8) 0.087(10)
C19 0.365(19) 0.135(9) 0.230(14) 0.046(9) 0.045(13) -0.075(12)
O1 0.107(4) 0.116(4) 0.158(5) 0.064(4) 0.036(3) 0.040(3)
O2 0.111(3) 0.098(3) 0.078(3) 0.033(3) 0.015(3) 0.024(2)

_geom_special_details            
;
All esds (except the esd in the dihedral angle between two l.s. planes)
are estimated using the full covariance matrix.  The cell esds are taken
into account individually in the estimation of esds in distances, angles
and torsion angles; correlations between esds in cell parameters are only
used when they are defined by crystal symmetry.  An approximate (isotropic)
treatment of cell esds is used for estimating esds involving l.s. planes.
;

loop_
_geom_bond_atom_site_label_1
_geom_bond_atom_site_label_2
_geom_bond_distance
_geom_bond_site_symmetry_2
_geom_bond_publ_flag
Zn1 N6 1.929(5) . ?
Zn1 N5 1.933(5) . ?
Zn1 N3 2.012(4) 1_455 ?
Zn1 N1 2.023(4) . ?
S1 C12 1.599(7) . ?
S2 C13 1.606(8) . ?
N1 C2 1.343(5) . ?
N1 N2 1.364(5) . ?
N2 C4 1.328(6) . ?
N2 H2A 0.8600 . ?
N3 C8 1.346(5) . ?
N3 N4 1.367(5) . ?
N3 Zn1 2.012(4) 1_655 ?
N4 C10 1.343(5) . ?
N4 H4A 0.8600 . ?
N5 C12 1.118(6) . ?
N6 C13 1.110(7) . ?
N7 C14 1.252(10) . ?
N7 C15 1.345(15) . ?
N7 C16 1.489(17) . ?
N8 C17 1.302(8) . ?
N8 C18 1.422(9) . ?
N8 C19 1.497(13) . ?
C1 C2 1.498(6) . ?
C1 H1A 0.9600 . ?
C1 H1B 0.9600 . ?
C1 H1C 0.9600 . ?
C2 C3 1.386(6) . ?
C3 C4 1.380(6) . ?
C3 C6 1.508(6) . ?
C4 C5 1.505(7) . ?
C5 H5A 0.9600 . ?
C5 H5B 0.9600 . ?
C5 H5C 0.9600 . ?
C6 C9 1.496(6) . ?
C6 H6A 0.9700 . ?
C6 H6B 0.9700 . ?
C7 C8 1.493(7) . ?
C7 H7A 0.9600 . ?
C7 H7B 0.9600 . ?
C7 H7C 0.9600 . ?
C8 C9 1.394(6) . ?
C9 C10 1.374(6) . ?
C10 C11 1.491(6) . ?
C11 H11A 0.9600 . ?
C11 H11B 0.9600 . ?
C11 H11C 0.9600 . ?
C14 O1 1.094(10) . ?
C14 H14A 0.9300 . ?
C15 H15A 0.9600 . ?
C15 H15B 0.9600 . ?
C15 H15C 0.9600 . ?
C16 H16A 0.9600 . ?
C16 H16B 0.9600 . ?
C16 H16C 0.9600 . ?
C17 O2 1.176(7) . ?
C17 H17A 0.9300 . ?
C18 H18A 0.9600 . ?
C18 H18B 0.9600 . ?
C18 H18C 0.9600 . ?
C19 H19A 0.9600 . ?
C19 H19B 0.9600 . ?
C19 H19C 0.9600 . ?

loop_
_geom_angle_atom_site_label_1
_geom_angle_atom_site_label_2
_geom_angle_atom_site_label_3
_geom_angle
_geom_angle_site_symmetry_1
_geom_angle_site_symmetry_3
_geom_angle_publ_flag
N6 Zn1 N5 111.7(2) . . ?
N6 Zn1 N3 108.18(19) . 1_455 ?
N5 Zn1 N3 111.32(18) . 1_455 ?
N6 Zn1 N1 110.75(18) . . ?
N5 Zn1 N1 109.09(18) . . ?
N3 Zn1 N1 105.69(15) 1_455 . ?
C2 N1 N2 105.1(4) . . ?
C2 N1 Zn1 133.8(3) . . ?
N2 N1 Zn1 120.9(3) . . ?
C4 N2 N1 111.9(4) . . ?
C4 N2 H2A 124.0 . . ?
N1 N2 H2A 124.0 . . ?
C8 N3 N4 104.9(3) . . ?
C8 N3 Zn1 134.7(3) . 1_655 ?
N4 N3 Zn1 120.1(3) . 1_655 ?
C10 N4 N3 111.6(4) . . ?
C10 N4 H4A 124.2 . . ?
N3 N4 H4A 124.2 . . ?
C12 N5 Zn1 174.0(6) . . ?
C13 N6 Zn1 165.7(6) . . ?
C14 N7 C15 124.2(15) . . ?
C14 N7 C16 123.6(14) . . ?
C15 N7 C16 111.2(10) . . ?
C17 N8 C18 125.7(9) . . ?
C17 N8 C19 117.3(7) . . ?
C18 N8 C19 116.9(8) . . ?
C2 C1 H1A 109.5 . . ?
C2 C1 H1B 109.5 . . ?
H1A C1 H1B 109.5 . . ?
C2 C1 H1C 109.5 . . ?
H1A C1 H1C 109.5 . . ?
H1B C1 H1C 109.5 . . ?
N1 C2 C3 110.2(4) . . ?
N1 C2 C1 121.2(4) . . ?
C3 C2 C1 128.6(4) . . ?
C4 C3 C2 106.0(4) . . ?
C4 C3 C6 127.3(4) . . ?
C2 C3 C6 126.7(4) . . ?
N2 C4 C3 106.8(4) . . ?
N2 C4 C5 121.6(5) . . ?
C3 C4 C5 131.6(5) . . ?
C4 C5 H5A 109.5 . . ?
C4 C5 H5B 109.5 . . ?
H5A C5 H5B 109.5 . . ?
C4 C5 H5C 109.5 . . ?
H5A C5 H5C 109.5 . . ?
H5B C5 H5C 109.5 . . ?
C9 C6 C3 115.8(4) . . ?
C9 C6 H6A 108.3 . . ?
C3 C6 H6A 108.3 . . ?
C9 C6 H6B 108.3 . . ?
C3 C6 H6B 108.3 . . ?
H6A C6 H6B 107.4 . . ?
C8 C7 H7A 109.5 . . ?
C8 C7 H7B 109.5 . . ?
H7A C7 H7B 109.5 . . ?
C8 C7 H7C 109.5 . . ?
H7A C7 H7C 109.5 . . ?
H7B C7 H7C 109.5 . . ?
N3 C8 C9 110.5(4) . . ?
N3 C8 C7 120.9(4) . . ?
C9 C8 C7 128.6(4) . . ?
C10 C9 C8 105.9(4) . . ?
C10 C9 C6 126.9(4) . . ?
C8 C9 C6 127.2(4) . . ?
N4 C10 C9 107.1(4) . . ?
N4 C10 C11 121.0(4) . . ?
C9 C10 C11 131.9(4) . . ?
C10 C11 H11A 109.5 . . ?
C10 C11 H11B 109.5 . . ?
H11A C11 H11B 109.5 . . ?
C10 C11 H11C 109.5 . . ?
H11A C11 H11C 109.5 . . ?
H11B C11 H11C 109.5 . . ?
N5 C12 S1 177.2(7) . . ?
N6 C13 S2 178.6(7) . . ?
O1 C14 N7 140.2(14) . . ?
O1 C14 H14A 109.9 . . ?
N7 C14 H14A 109.9 . . ?
N7 C15 H15A 109.5 . . ?
N7 C15 H15B 109.5 . . ?
H15A C15 H15B 109.5 . . ?
N7 C15 H15C 109.5 . . ?
H15A C15 H15C 109.5 . . ?
H15B C15 H15C 109.5 . . ?
N7 C16 H16A 109.5 . . ?
N7 C16 H16B 109.5 . . ?
H16A C16 H16B 109.5 . . ?
N7 C16 H16C 109.5 . . ?
H16A C16 H16C 109.5 . . ?
H16B C16 H16C 109.5 . . ?
O2 C17 N8 129.5(8) . . ?
O2 C17 H17A 115.2 . . ?
N8 C17 H17A 115.2 . . ?
N8 C18 H18A 109.5 . . ?
N8 C18 H18B 109.5 . . ?
H18A C18 H18B 109.5 . . ?
N8 C18 H18C 109.5 . . ?
H18A C18 H18C 109.5 . . ?
H18B C18 H18C 109.5 . . ?
N8 C19 H19A 109.5 . . ?
N8 C19 H19B 109.5 . . ?
H19A C19 H19B 109.5 . . ?
N8 C19 H19C 109.5 . . ?
H19A C19 H19C 109.5 . . ?
H19B C19 H19C 109.5 . . ?

loop_
_geom_torsion_atom_site_label_1
_geom_torsion_atom_site_label_2
_geom_torsion_atom_site_label_3
_geom_torsion_atom_site_label_4
_geom_torsion
_geom_torsion_site_symmetry_1
_geom_torsion_site_symmetry_2
_geom_torsion_site_symmetry_3
_geom_torsion_site_symmetry_4
_geom_torsion_publ_flag
N6 Zn1 N1 C2 -20.9(5) . . . . ?
N5 Zn1 N1 C2 -144.2(4) . . . . ?
N3 Zn1 N1 C2 96.0(4) 1_455 . . . ?
N6 Zn1 N1 N2 165.8(3) . . . . ?
N5 Zn1 N1 N2 42.5(3) . . . . ?
N3 Zn1 N1 N2 -77.3(3) 1_455 . . . ?
C2 N1 N2 C4 -0.2(5) . . . . ?
Zn1 N1 N2 C4 174.8(3) . . . . ?
C8 N3 N4 C10 0.2(5) . . . . ?
Zn1 N3 N4 C10 175.1(3) 1_655 . . . ?
N6 Zn1 N5 C12 47(5) . . . . ?
N3 Zn1 N5 C12 -74(5) 1_455 . . . ?
N1 Zn1 N5 C12 170(5) . . . . ?
N5 Zn1 N6 C13 73(2) . . . . ?
N3 Zn1 N6 C13 -164(2) 1_455 . . . ?
N1 Zn1 N6 C13 -48(2) . . . . ?
N2 N1 C2 C3 0.0(5) . . . . ?
Zn1 N1 C2 C3 -174.0(3) . . . . ?
N2 N1 C2 C1 178.7(4) . . . . ?
Zn1 N1 C2 C1 4.7(6) . . . . ?
N1 C2 C3 C4 0.1(5) . . . . ?
C1 C2 C3 C4 -178.4(4) . . . . ?
N1 C2 C3 C6 179.3(4) . . . . ?
C1 C2 C3 C6 0.8(7) . . . . ?
N1 N2 C4 C3 0.2(5) . . . . ?
N1 N2 C4 C5 -179.5(4) . . . . ?
C2 C3 C4 N2 -0.2(5) . . . . ?
C6 C3 C4 N2 -179.4(4) . . . . ?
C2 C3 C4 C5 179.5(5) . . . . ?
C6 C3 C4 C5 0.4(8) . . . . ?
C4 C3 C6 C9 -121.8(5) . . . . ?
C2 C3 C6 C9 59.2(6) . . . . ?
N4 N3 C8 C9 0.0(5) . . . . ?
Zn1 N3 C8 C9 -173.8(3) 1_655 . . . ?
N4 N3 C8 C7 178.7(4) . . . . ?
Zn1 N3 C8 C7 4.9(7) 1_655 . . . ?
N3 C8 C9 C10 -0.2(5) . . . . ?
C7 C8 C9 C10 -178.8(5) . . . . ?
N3 C8 C9 C6 178.5(4) . . . . ?
C7 C8 C9 C6 -0.1(8) . . . . ?
C3 C6 C9 C10 -120.1(5) . . . . ?
C3 C6 C9 C8 61.5(6) . . . . ?
N3 N4 C10 C9 -0.3(5) . . . . ?
N3 N4 C10 C11 179.5(4) . . . . ?
C8 C9 C10 N4 0.2(5) . . . . ?
C6 C9 C10 N4 -178.4(4) . . . . ?
C8 C9 C10 C11 -179.4(5) . . . . ?
C6 C9 C10 C11 1.9(8) . . . . ?
Zn1 N5 C12 S1 -144(10) . . . . ?
Zn1 N6 C13 S2 106(34) . . . . ?
C15 N7 C14 O1 -22(2) . . . . ?
C16 N7 C14 O1 170.2(16) . . . . ?
C18 N8 C17 O2 178.4(8) . . . . ?
C19 N8 C17 O2 -5.5(13) . . . . ?

_diffrn_measured_fraction_theta_max 0.994
_diffrn_reflns_theta_full        26.45
_diffrn_measured_fraction_theta_full 0.994
_refine_diff_density_max         0.476
_refine_diff_density_min         -0.470
_refine_diff_density_rms         0.060
