####################################################################### 
# 
# This file contains crystal structure data downloaded from the 
# Cambridge Structural Database (CSD) hosted by the Cambridge 
# Crystallographic Data Centre (CCDC).
# 
# Full information about CCDC data access policies and citation 
# guidelines are available at http://www.ccdc.cam.ac.uk/access/V1 
# 
# Audit and citation data items may have been added by the CCDC. 
# Please retain this information to preserve the provenance of 
# this file and to allow appropriate attribution of the data. 
# 
#######################################################################

data_1
_audit_block_doi                 10.5517/cc7ckfk
_database_code_depnum_ccdc_archive 'CCDC 219648'
loop_
_citation_id
_citation_doi
_citation_year
1 10.1016/j.inoche.2003.12.002 2004
_audit_update_record             
;
2003-09-15 deposited with the CCDC.	2024-07-08 downloaded from the CCDC.
;

_audit_creation_method           SHELXL-97
_chemical_name_systematic        
;
?
;
_chemical_name_common            ?
_chemical_melting_point          ?
_chemical_formula_moiety         ?
_chemical_formula_sum            'C28 H25 Cl Cu N10 O7.50'
_chemical_formula_weight         720.57

loop_
_atom_type_symbol
_atom_type_description
_atom_type_scat_dispersion_real
_atom_type_scat_dispersion_imag
_atom_type_scat_source
C C 0.0033 0.0016 'International Tables Vol C Tables 4.2.6.8 and 6.1.1.4'
H H 0.0000 0.0000 'International Tables Vol C Tables 4.2.6.8 and 6.1.1.4'
N N 0.0061 0.0033 'International Tables Vol C Tables 4.2.6.8 and 6.1.1.4'
O O 0.0106 0.0060 'International Tables Vol C Tables 4.2.6.8 and 6.1.1.4'
Cl Cl 0.1484 0.1585 'International Tables Vol C Tables 4.2.6.8 and 6.1.1.4'
Cu Cu 0.3201 1.2651 'International Tables Vol C Tables 4.2.6.8 and 6.1.1.4'

_symmetry_cell_setting           triclinic
_symmetry_space_group_name_H-M   P-1

loop_
_symmetry_equiv_pos_as_xyz
'x, y, z'
'-x, -y, -z'

_cell_length_a                   8.2705(9)
_cell_length_b                   13.1236(13)
_cell_length_c                   17.0823(18)
_cell_angle_alpha                93.236(2)
_cell_angle_beta                 91.480(2)
_cell_angle_gamma                105.775(2)
_cell_volume                     1779.8(3)
_cell_formula_units_Z            2
_cell_measurement_temperature    293(2)
_cell_measurement_reflns_used    ?
_cell_measurement_theta_min      ?
_cell_measurement_theta_max      ?

_exptl_crystal_description       block
_exptl_crystal_colour            orange
_exptl_crystal_size_max          0.60
_exptl_crystal_size_mid          0.47
_exptl_crystal_size_min          0.38
_exptl_crystal_density_meas      ?
_exptl_crystal_density_diffrn    1.345
_exptl_crystal_density_method    'not measured'
_exptl_crystal_F_000             738
_exptl_absorpt_coefficient_mu    0.746
_exptl_absorpt_correction_type   ?
_exptl_absorpt_correction_T_min  1.000000
_exptl_absorpt_correction_T_max  0.760171
_exptl_absorpt_process_details   SADABS

_exptl_special_details           
;
?
;

_diffrn_ambient_temperature      293(2)
_diffrn_radiation_wavelength     0.71073
_diffrn_radiation_type           MoK\a
_diffrn_radiation_source         'fine-focus sealed tube'
_diffrn_radiation_monochromator  graphite
_diffrn_measurement_device_type  'Bruker Smart 1000 CCD'
_diffrn_measurement_method       ?
_diffrn_detector_area_resol_mean ?
_diffrn_standards_number         ?
_diffrn_standards_interval_count ?
_diffrn_standards_interval_time  ?
_diffrn_standards_decay_%        ?
_diffrn_reflns_number            9736
_diffrn_reflns_av_R_equivalents  0.0339
_diffrn_reflns_av_sigmaI/netI    0.0703
_diffrn_reflns_limit_h_min       -9
_diffrn_reflns_limit_h_max       9
_diffrn_reflns_limit_k_min       -15
_diffrn_reflns_limit_k_max       10
_diffrn_reflns_limit_l_min       -20
_diffrn_reflns_limit_l_max       20
_diffrn_reflns_theta_min         2.63
_diffrn_reflns_theta_max         25.03
_reflns_number_total             6261
_reflns_number_gt                3807
_reflns_threshold_expression     >2sigma(I)

_computing_data_collection       ?
_computing_cell_refinement       ?
_computing_data_reduction        ?
_computing_structure_solution    'SHELXS-97 (Sheldrick, 1990)'
_computing_structure_refinement  'SHELXL-97 (Sheldrick, 1997)'
_computing_molecular_graphics    ?
_computing_publication_material  ?

_refine_special_details          
;
Refinement of F^2^ against ALL reflections.  The weighted R-factor wR and
goodness of fit S are based on F^2^, conventional R-factors R are based
on F, with F set to zero for negative F^2^. The threshold expression of
F^2^ > 2sigma(F^2^) is used only for calculating R-factors(gt) etc. and is
not relevant to the choice of reflections for refinement.  R-factors based
on F^2^ are statistically about twice as large as those based on F, and R-
factors based on ALL data will be even larger.
;

_refine_ls_structure_factor_coef Fsqd
_refine_ls_matrix_type           full
_refine_ls_weighting_scheme      calc
_refine_ls_weighting_details     
'calc w=1/[\s^2^(Fo^2^)+(0.1109P)^2^+0.0000P] where P=(Fo^2^+2Fc^2^)/3'
_atom_sites_solution_primary     direct
_atom_sites_solution_secondary   difmap
_atom_sites_solution_hydrogens   geom
_refine_ls_hydrogen_treatment    mixed
_refine_ls_extinction_method     none
_refine_ls_extinction_coef       ?
_refine_ls_number_reflns         6261
_refine_ls_number_parameters     428
_refine_ls_number_restraints     19
_refine_ls_R_factor_all          0.1121
_refine_ls_R_factor_gt           0.0681
_refine_ls_wR_factor_ref         0.2106
_refine_ls_wR_factor_gt          0.1817
_refine_ls_goodness_of_fit_ref   1.098
_refine_ls_restrained_S_all      1.120
_refine_ls_shift/su_max          0.000
_refine_ls_shift/su_mean         0.000

loop_
_atom_site_label
_atom_site_type_symbol
_atom_site_fract_x
_atom_site_fract_y
_atom_site_fract_z
_atom_site_U_iso_or_equiv
_atom_site_adp_type
_atom_site_occupancy
_atom_site_symmetry_multiplicity
_atom_site_calc_flag
_atom_site_refinement_flags
_atom_site_disorder_assembly
_atom_site_disorder_group
Cu1 Cu 0.42713(8) 0.31473(5) 0.36194(4) 0.0567(3) Uani 1 1 d . . .
O1 O 0.9994(4) 0.8071(2) 0.46246(19) 0.0488(8) Uani 1 1 d . . .
O2 O 0.7092(5) 0.0469(3) 0.0424(2) 0.0628(10) Uani 1 1 d . . .
C1 C 0.6132(7) 0.5394(4) 0.3816(3) 0.0602(15) Uani 1 1 d . . .
H1A H 0.5442 0.5440 0.3388 0.072 Uiso 1 1 calc R . .
C2 C 0.7359(7) 0.6292(4) 0.4089(3) 0.0585(14) Uani 1 1 d . . .
H2A H 0.7487 0.6927 0.3850 0.070 Uiso 1 1 calc R . .
C3 C 0.8387(6) 0.6237(3) 0.4719(3) 0.0470(12) Uani 1 1 d . . .
C4 C 0.8129(6) 0.5291(3) 0.5070(3) 0.0463(12) Uani 1 1 d . . .
H4A H 0.8789 0.5240 0.5508 0.056 Uiso 1 1 calc R . .
C5 C 0.6881(6) 0.4418(4) 0.4768(3) 0.0489(12) Uani 1 1 d . . .
H5A H 0.6722 0.3781 0.5008 0.059 Uiso 1 1 calc R . .
C6 C 0.9770(6) 0.7165(3) 0.5016(3) 0.0471(12) Uani 1 1 d . . .
C7 C 1.1376(6) 0.8731(4) 0.5023(3) 0.0482(12) Uani 1 1 d . . .
C8 C 1.2025(6) 0.9794(3) 0.4745(3) 0.0450(11) Uani 1 1 d . . .
C9 C 1.1375(7) 1.0073(4) 0.4066(3) 0.0584(14) Uani 1 1 d . . .
H9A H 1.0495 0.9591 0.3780 0.070 Uiso 1 1 calc R . .
C10 C 1.2034(7) 1.1059(4) 0.3820(3) 0.0575(14) Uani 1 1 d . . .
H10A H 1.1580 1.1230 0.3357 0.069 Uiso 1 1 calc R . .
C11 C 1.3891(6) 1.1527(4) 0.4864(3) 0.0515(13) Uani 1 1 d . . .
H11A H 1.4756 1.2028 0.5145 0.062 Uiso 1 1 calc R . .
C12 C 1.3309(6) 1.0555(4) 0.5155(3) 0.0499(12) Uani 1 1 d . . .
H12A H 1.3767 1.0404 0.5623 0.060 Uiso 1 1 calc R . .
C13 C 0.5678(8) 0.1703(4) 0.2548(3) 0.0634(15) Uani 1 1 d . . .
H13A H 0.5709 0.1349 0.3002 0.076 Uiso 1 1 calc R . .
C14 C 0.6164(8) 0.1285(4) 0.1865(3) 0.0642(15) Uani 1 1 d . . .
H14A H 0.6500 0.0663 0.1862 0.077 Uiso 1 1 calc R . .
C15 C 0.6143(7) 0.1797(4) 0.1192(3) 0.0576(14) Uani 1 1 d . . .
C16 C 0.5617(7) 0.2722(5) 0.1232(3) 0.0623(15) Uani 1 1 d . . .
H16A H 0.5588 0.3090 0.0786 0.075 Uiso 1 1 calc R . .
C17 C 0.5143(7) 0.3082(4) 0.1932(3) 0.0610(14) Uani 1 1 d . . .
H17A H 0.4789 0.3697 0.1949 0.073 Uiso 1 1 calc R . .
C18 C 0.6639(7) 0.1396(5) 0.0454(3) 0.0631(15) Uani 1 1 d . . .
C19 C 0.7507(7) 0.0347(5) -0.0333(3) 0.0629(15) Uani 1 1 d . . .
C20 C 0.8101(7) -0.0556(5) -0.0577(3) 0.0656(15) Uani 1 1 d . . .
C21 C 0.8095(8) -0.1352(5) -0.0090(4) 0.0782(18) Uani 1 1 d . . .
H21A H 0.7683 -0.1334 0.0411 0.094 Uiso 1 1 calc R . .
C22 C 0.8713(10) -0.2181(6) -0.0355(5) 0.091(2) Uani 1 1 d . . .
H22A H 0.8703 -0.2713 -0.0017 0.109 Uiso 1 1 calc R . .
C23 C 0.9318(9) -0.1501(7) -0.1519(4) 0.088(2) Uani 1 1 d . . .
H23A H 0.9743 -0.1539 -0.2015 0.105 Uiso 1 1 calc R . .
C24 C 0.8725(9) -0.0639(6) -0.1311(4) 0.0808(19) Uani 1 1 d . . .
H24A H 0.8747 -0.0121 -0.1663 0.097 Uiso 1 1 calc R . .
C25 C 0.1161(9) 0.3809(5) 0.2896(4) 0.0704(16) Uani 1 1 d . . .
C26 C -0.0356(10) 0.4076(7) 0.2627(6) 0.118(3) Uani 1 1 d . . .
H26A H -0.0389 0.4078 0.2065 0.15(4) Uiso 1 1 calc R . .
H26B H -0.0345 0.4766 0.2850 0.183 Uiso 1 1 calc R . .
H26C H -0.1329 0.3559 0.2790 0.183 Uiso 1 1 calc R . .
N1 N 0.5883(5) 0.4452(3) 0.4137(2) 0.0486(10) Uani 1 1 d . . .
N2 N 1.0849(5) 0.7254(3) 0.5580(3) 0.0535(11) Uani 1 1 d . . .
N3 N 1.1920(5) 0.8285(3) 0.5588(3) 0.0535(11) Uani 1 1 d . . .
N4 N 1.3288(5) 1.1803(3) 0.4194(2) 0.0520(11) Uani 1 1 d . . .
N5 N 0.5167(5) 0.2583(3) 0.2601(3) 0.0546(11) Uani 1 1 d . . .
N6 N 0.6770(8) 0.1812(4) -0.0223(3) 0.0826(16) Uani 1 1 d . . .
N7 N 0.7324(8) 0.1116(5) -0.0739(3) 0.0870(17) Uani 1 1 d . . .
N8 N 0.9317(8) -0.2269(6) -0.1058(5) 0.099(2) Uani 1 1 d . . .
N9 N 0.2304(6) 0.3603(4) 0.3128(3) 0.0650(12) Uani 1 1 d . . .
Cl1 Cl -0.2568(3) -0.1272(2) 0.25327(13) 0.1083(7) Uani 1 1 d D . .
O3 O -0.3293(9) -0.1272(5) 0.1791(3) 0.146(3) Uani 1 1 d D . .
O4 O -0.1174(10) -0.1680(8) 0.2545(8) 0.302(8) Uani 1 1 d D . .
O5 O -0.3689(10) -0.1896(8) 0.3028(5) 0.251(6) Uani 1 1 d D . .
O6 O -0.1939(15) -0.0204(4) 0.2839(5) 0.258(6) Uani 1 1 d D . .
C27 C 1.2297(12) 0.7257(9) 0.3139(6) 0.124(3) Uani 1 1 d . . .
C28 C 1.2317(16) 0.7877(12) 0.2470(7) 0.197(6) Uani 1 1 d . . .
H28A H 1.2653 0.7525 0.2020 0.236 Uiso 1 1 calc R . .
H28B H 1.3097 0.8564 0.2575 0.236 Uiso 1 1 calc R . .
H28C H 1.1212 0.7956 0.2367 0.236 Uiso 1 1 calc R . .
N10 N 1.2281(13) 0.6823(9) 0.3667(5) 0.164(4) Uani 1 1 d . . .
O1W O 1.493(4) 0.602(3) 0.1287(18) 0.314(13) Uiso 0.50 1 d P . .
O2W O 1.759(4) 0.589(3) 0.1653(19) 0.323(14) Uiso 0.50 1 d P . .
O3W O 2.000(5) 0.521(3) 0.0569(19) 0.369(18) Uiso 0.50 1 d P . .

loop_
_atom_site_aniso_label
_atom_site_aniso_U_11
_atom_site_aniso_U_22
_atom_site_aniso_U_33
_atom_site_aniso_U_23
_atom_site_aniso_U_13
_atom_site_aniso_U_12
Cu1 0.0603(5) 0.0370(4) 0.0647(5) 0.0020(3) 0.0020(3) -0.0002(3)
O1 0.0450(19) 0.0307(16) 0.063(2) 0.0041(14) -0.0042(16) -0.0020(13)
O2 0.071(3) 0.065(2) 0.052(2) 0.0007(17) 0.0006(19) 0.0196(19)
C1 0.064(3) 0.038(3) 0.071(4) 0.009(2) -0.014(3) 0.002(2)
C2 0.063(3) 0.036(3) 0.070(4) 0.015(2) -0.010(3) 0.000(2)
C3 0.046(3) 0.032(2) 0.059(3) 0.005(2) 0.005(2) 0.003(2)
C4 0.049(3) 0.032(2) 0.057(3) 0.008(2) -0.001(2) 0.008(2)
C5 0.055(3) 0.032(2) 0.058(3) 0.009(2) 0.004(3) 0.008(2)
C6 0.047(3) 0.026(2) 0.064(3) 0.006(2) 0.006(3) 0.0018(19)
C7 0.043(3) 0.036(2) 0.061(3) 0.003(2) 0.001(2) 0.002(2)
C8 0.041(3) 0.037(2) 0.053(3) 0.004(2) 0.000(2) 0.004(2)
C9 0.055(3) 0.041(3) 0.063(3) -0.001(2) -0.011(3) -0.012(2)
C10 0.061(3) 0.046(3) 0.056(3) 0.008(2) -0.010(3) -0.002(2)
C11 0.048(3) 0.035(3) 0.060(3) 0.001(2) -0.006(2) -0.007(2)
C12 0.045(3) 0.038(3) 0.061(3) 0.005(2) -0.005(2) 0.003(2)
C13 0.079(4) 0.056(3) 0.059(4) 0.011(3) 0.001(3) 0.022(3)
C14 0.082(4) 0.057(3) 0.058(4) 0.007(3) 0.006(3) 0.026(3)
C15 0.057(3) 0.065(3) 0.052(3) 0.002(3) -0.002(3) 0.020(3)
C16 0.067(4) 0.066(4) 0.057(4) 0.014(3) 0.004(3) 0.020(3)
C17 0.067(4) 0.051(3) 0.067(4) 0.012(3) 0.008(3) 0.018(3)
C18 0.057(3) 0.071(4) 0.062(4) 0.002(3) -0.003(3) 0.021(3)
C19 0.059(4) 0.078(4) 0.048(3) -0.008(3) -0.005(3) 0.015(3)
C20 0.059(4) 0.075(4) 0.057(4) -0.009(3) -0.009(3) 0.015(3)
C21 0.072(4) 0.090(5) 0.069(4) -0.008(4) 0.003(3) 0.019(4)
C22 0.095(6) 0.088(5) 0.091(6) -0.004(4) -0.002(4) 0.034(4)
C23 0.090(5) 0.110(6) 0.068(5) -0.017(4) -0.001(4) 0.040(4)
C24 0.084(5) 0.096(5) 0.063(4) -0.007(3) -0.009(4) 0.029(4)
C25 0.066(4) 0.067(4) 0.074(4) -0.002(3) -0.008(3) 0.013(3)
C26 0.082(6) 0.138(8) 0.135(9) 0.017(6) -0.033(5) 0.035(5)
N1 0.053(2) 0.029(2) 0.059(3) 0.0043(17) 0.006(2) 0.0023(17)
N2 0.049(3) 0.036(2) 0.070(3) 0.0079(19) -0.007(2) 0.0024(18)
N3 0.047(2) 0.038(2) 0.068(3) 0.006(2) -0.007(2) 0.0002(18)
N4 0.051(3) 0.040(2) 0.058(3) 0.0020(19) 0.000(2) -0.0011(18)
N5 0.056(3) 0.048(2) 0.058(3) 0.005(2) 0.002(2) 0.010(2)
N6 0.113(5) 0.092(4) 0.055(3) 0.012(3) 0.010(3) 0.046(3)
N7 0.111(5) 0.113(5) 0.050(3) 0.007(3) 0.008(3) 0.053(4)
N8 0.096(5) 0.105(5) 0.100(5) -0.031(4) -0.017(4) 0.045(4)
N9 0.060(3) 0.062(3) 0.069(3) -0.002(2) -0.006(3) 0.013(2)
Cl1 0.1039(16) 0.1307(18) 0.0899(15) 0.0386(13) -0.0082(12) 0.0262(13)
O3 0.205(7) 0.149(6) 0.076(4) 0.019(3) -0.020(4) 0.035(5)
O4 0.203(11) 0.241(12) 0.49(2) 0.020(12) -0.088(13) 0.120(10)
O5 0.244(12) 0.328(14) 0.180(9) 0.136(9) 0.030(8) 0.053(10)
O6 0.414(17) 0.134(7) 0.212(10) 0.004(6) -0.139(11) 0.064(9)
C27 0.121(7) 0.180(10) 0.095(6) 0.053(6) 0.042(5) 0.071(7)
C28 0.176(11) 0.317(18) 0.154(10) 0.144(11) 0.064(9) 0.133(12)
N10 0.180(9) 0.241(11) 0.112(6) 0.088(7) 0.043(6) 0.108(8)

_geom_special_details            
;
All esds (except the esd in the dihedral angle between two l.s. planes)
are estimated using the full covariance matrix.  The cell esds are taken
into account individually in the estimation of esds in distances, angles
and torsion angles; correlations between esds in cell parameters are only
used when they are defined by crystal symmetry.  An approximate (isotropic)
treatment of cell esds is used for estimating esds involving l.s. planes.
;

loop_
_geom_bond_atom_site_label_1
_geom_bond_atom_site_label_2
_geom_bond_distance
_geom_bond_site_symmetry_2
_geom_bond_publ_flag
Cu1 N1 2.005(4) . ?
Cu1 N4 2.049(4) 1_445 ?
Cu1 N9 2.056(5) . ?
Cu1 N5 2.084(4) . ?
O1 C6 1.368(5) . ?
O1 C7 1.369(5) . ?
O2 C19 1.358(7) . ?
O2 C18 1.365(7) . ?
C1 N1 1.348(6) . ?
C1 C2 1.379(7) . ?
C2 C3 1.372(7) . ?
C3 C4 1.375(6) . ?
C3 C6 1.480(6) . ?
C4 C5 1.381(6) . ?
C5 N1 1.350(6) . ?
C6 N2 1.274(6) . ?
C7 N3 1.288(6) . ?
C7 C8 1.464(6) . ?
C8 C9 1.375(7) . ?
C8 C12 1.386(6) . ?
C9 C10 1.357(7) . ?
C10 N4 1.335(6) . ?
C11 N4 1.343(6) . ?
C11 C12 1.362(6) . ?
C13 N5 1.332(7) . ?
C13 C14 1.376(8) . ?
C14 C15 1.367(7) . ?
C15 C16 1.395(8) . ?
C15 C18 1.450(8) . ?
C16 C17 1.367(8) . ?
C17 N5 1.351(7) . ?
C18 N6 1.302(7) . ?
C19 N7 1.296(8) . ?
C19 C20 1.447(8) . ?
C20 C21 1.371(9) . ?
C20 C24 1.378(9) . ?
C21 C22 1.381(10) . ?
C22 N8 1.325(10) . ?
C23 N8 1.313(10) . ?
C23 C24 1.382(10) . ?
C25 N9 1.121(7) . ?
C25 C26 1.460(10) . ?
N2 N3 1.400(5) . ?
N4 Cu1 2.049(4) 1_665 ?
N6 N7 1.406(7) . ?
Cl1 O3 1.387(4) . ?
Cl1 O5 1.397(4) . ?
Cl1 O4 1.398(5) . ?
Cl1 O6 1.420(4) . ?
C27 N10 1.092(10) . ?
C27 C28 1.438(12) . ?

loop_
_geom_angle_atom_site_label_1
_geom_angle_atom_site_label_2
_geom_angle_atom_site_label_3
_geom_angle
_geom_angle_site_symmetry_1
_geom_angle_site_symmetry_3
_geom_angle_publ_flag
N1 Cu1 N4 123.06(17) . 1_445 ?
N1 Cu1 N9 107.37(17) . . ?
N4 Cu1 N9 107.96(18) 1_445 . ?
N1 Cu1 N5 113.23(17) . . ?
N4 Cu1 N5 103.54(17) 1_445 . ?
N9 Cu1 N5 98.99(19) . . ?
C6 O1 C7 101.6(4) . . ?
C19 O2 C18 103.9(4) . . ?
N1 C1 C2 123.2(5) . . ?
C3 C2 C1 119.1(4) . . ?
C2 C3 C4 118.7(4) . . ?
C2 C3 C6 121.3(4) . . ?
C4 C3 C6 119.9(4) . . ?
C3 C4 C5 119.5(5) . . ?
N1 C5 C4 122.5(4) . . ?
N2 C6 O1 113.0(4) . . ?
N2 C6 C3 129.9(4) . . ?
O1 C6 C3 117.0(4) . . ?
N3 C7 O1 112.7(4) . . ?
N3 C7 C8 130.2(4) . . ?
O1 C7 C8 117.1(4) . . ?
C9 C8 C12 117.6(4) . . ?
C9 C8 C7 120.9(4) . . ?
C12 C8 C7 121.4(4) . . ?
C10 C9 C8 119.2(4) . . ?
N4 C10 C9 124.5(5) . . ?
N4 C11 C12 123.7(4) . . ?
C11 C12 C8 119.2(5) . . ?
N5 C13 C14 124.4(5) . . ?
C15 C14 C13 118.9(5) . . ?
C14 C15 C16 117.9(5) . . ?
C14 C15 C18 121.5(5) . . ?
C16 C15 C18 120.6(5) . . ?
C17 C16 C15 119.6(5) . . ?
N5 C17 C16 122.8(5) . . ?
N6 C18 O2 111.5(5) . . ?
N6 C18 C15 129.1(6) . . ?
O2 C18 C15 119.4(5) . . ?
N7 C19 O2 111.7(5) . . ?
N7 C19 C20 129.0(6) . . ?
O2 C19 C20 119.3(6) . . ?
C21 C20 C24 117.3(6) . . ?
C21 C20 C19 121.8(6) . . ?
C24 C20 C19 120.8(6) . . ?
C20 C21 C22 118.8(7) . . ?
N8 C22 C21 124.4(8) . . ?
N8 C23 C24 124.0(7) . . ?
C20 C24 C23 119.3(7) . . ?
N9 C25 C26 177.5(8) . . ?
C1 N1 C5 116.9(4) . . ?
C1 N1 Cu1 120.4(3) . . ?
C5 N1 Cu1 122.4(3) . . ?
C6 N2 N3 106.7(4) . . ?
C7 N3 N2 106.1(4) . . ?
C10 N4 C11 115.7(4) . . ?
C10 N4 Cu1 116.6(3) . 1_665 ?
C11 N4 Cu1 127.1(3) . 1_665 ?
C13 N5 C17 116.4(5) . . ?
C13 N5 Cu1 123.9(4) . . ?
C17 N5 Cu1 119.6(4) . . ?
C18 N6 N7 106.2(5) . . ?
C19 N7 N6 106.8(5) . . ?
C23 N8 C22 116.1(7) . . ?
C25 N9 Cu1 175.1(5) . . ?
O3 Cl1 O5 112.0(5) . . ?
O3 Cl1 O4 114.5(6) . . ?
O5 Cl1 O4 104.5(6) . . ?
O3 Cl1 O6 108.4(4) . . ?
O5 Cl1 O6 112.6(6) . . ?
O4 Cl1 O6 104.7(6) . . ?
N10 C27 C28 176.9(14) . . ?

_diffrn_measured_fraction_theta_max 0.994
_diffrn_reflns_theta_full        25.03
_diffrn_measured_fraction_theta_full 0.994
_refine_diff_density_max         0.876
_refine_diff_density_min         -0.433
_refine_diff_density_rms         0.081
