####################################################################### 
# 
# This file contains crystal structure data downloaded from the 
# Cambridge Structural Database (CSD) hosted by the Cambridge 
# Crystallographic Data Centre (CCDC).
# 
# Full information about CCDC data access policies and citation 
# guidelines are available at http://www.ccdc.cam.ac.uk/access/V1 
# 
# Audit and citation data items may have been added by the CCDC. 
# Please retain this information to preserve the provenance of 
# this file and to allow appropriate attribution of the data. 
# 
#######################################################################

data_2
_audit_block_doi                 10.5517/ccw2c7j
_database_code_depnum_ccdc_archive 'CCDC 806627'
loop_
_citation_id
_citation_doi
_citation_year
1 10.1039/c1cc12253c 2011
_audit_update_record             
;
2011-01-05 deposited with the CCDC.	2024-07-08 downloaded from the CCDC.
;
#TrackingRef '2.cif'

_audit_creation_method           SHELXL-97
_chemical_name_systematic        
;
?
;
_chemical_name_common            ?
_chemical_melting_point          ?
_chemical_formula_moiety         ?
_chemical_formula_sum            'C22 H25 N4 O9 Zn2'
_chemical_formula_weight         620.20

loop_
_atom_type_symbol
_atom_type_description
_atom_type_scat_dispersion_real
_atom_type_scat_dispersion_imag
_atom_type_scat_source
C C 0.0033 0.0016 'International Tables Vol C Tables 4.2.6.8 and 6.1.1.4'
H H 0.0000 0.0000 'International Tables Vol C Tables 4.2.6.8 and 6.1.1.4'
N N 0.0061 0.0033 'International Tables Vol C Tables 4.2.6.8 and 6.1.1.4'
O O 0.0106 0.0060 'International Tables Vol C Tables 4.2.6.8 and 6.1.1.4'
Zn Zn 0.2839 1.4301 'International Tables Vol C Tables 4.2.6.8 and 6.1.1.4'

_symmetry_cell_setting           Monoclinic
_symmetry_space_group_name_H-M   C2/m

loop_
_symmetry_equiv_pos_as_xyz
'x, y, z'
'-x, y, -z'
'x+1/2, y+1/2, z'
'-x+1/2, y+1/2, -z'
'-x, -y, -z'
'x, -y, z'
'-x+1/2, -y+1/2, -z'
'x+1/2, -y+1/2, z'

_cell_length_a                   20.915(7)
_cell_length_b                   18.796(6)
_cell_length_c                   14.350(9)
_cell_angle_alpha                90.00
_cell_angle_beta                 130.717(4)
_cell_angle_gamma                90.00
_cell_volume                     4276(3)
_cell_formula_units_Z            4
_cell_measurement_temperature    296(2)
_cell_measurement_reflns_used    2225
_cell_measurement_theta_min      2.56
_cell_measurement_theta_max      23.17

_exptl_crystal_description       rod
_exptl_crystal_colour            colorless
_exptl_crystal_size_max          0.26
_exptl_crystal_size_mid          0.12
_exptl_crystal_size_min          0.11
_exptl_crystal_density_meas      ?
_exptl_crystal_density_diffrn    0.963
_exptl_crystal_density_method    'not measured'
_exptl_crystal_F_000             1268
_exptl_absorpt_coefficient_mu    1.156
_exptl_absorpt_correction_type   multi-scan
_exptl_absorpt_correction_T_min  0.6000
_exptl_absorpt_correction_T_max  1.0000
_exptl_absorpt_process_details   SADABS

_exptl_special_details           
;
?
;

_diffrn_ambient_temperature      296(2)
_diffrn_radiation_wavelength     0.71073
_diffrn_radiation_type           MoK\a
_diffrn_radiation_source         'fine-focus sealed tube'
_diffrn_radiation_monochromator  graphite
_diffrn_measurement_device_type  'CCD area detector'
_diffrn_measurement_method       'phi and omega scans'
_diffrn_detector_area_resol_mean ?
_diffrn_standards_number         ?
_diffrn_standards_interval_count ?
_diffrn_standards_interval_time  ?
_diffrn_standards_decay_%        ?
_diffrn_reflns_number            9422
_diffrn_reflns_av_R_equivalents  0.0694
_diffrn_reflns_av_sigmaI/netI    0.0891
_diffrn_reflns_limit_h_min       -24
_diffrn_reflns_limit_h_max       25
_diffrn_reflns_limit_k_min       -20
_diffrn_reflns_limit_k_max       22
_diffrn_reflns_limit_l_min       -17
_diffrn_reflns_limit_l_max       17
_diffrn_reflns_theta_min         1.68
_diffrn_reflns_theta_max         25.20
_reflns_number_total             3948
_reflns_number_gt                2685
_reflns_threshold_expression     >2sigma(I)

_computing_data_collection       'Bruker SMART'
_computing_cell_refinement       'Bruker SMART'
_computing_data_reduction        'Bruker SAINT'
_computing_structure_solution    'SHELXS-97 (Sheldrick, 1990)'
_computing_structure_refinement  'SHELXL-97 (Sheldrick, 1997)'
_computing_molecular_graphics    'Bruker SHELXTL'
_computing_publication_material  'Bruker SHELXTL'

_refine_special_details          
;
Refinement of F^2^ against ALL reflections. The weighted R-factor wR and
goodness of fit S are based on F^2^, conventional R-factors R are based
on F, with F set to zero for negative F^2^. The threshold expression of
F^2^ > 2sigma(F^2^) is used only for calculating R-factors(gt) etc. and is
not relevant to the choice of reflections for refinement. R-factors based
on F^2^ are statistically about twice as large as those based on F, and R-
factors based on ALL data will be even larger.
;

_refine_ls_structure_factor_coef Fsqd
_refine_ls_matrix_type           full
_refine_ls_weighting_scheme      calc
_refine_ls_weighting_details     
'calc w=1/[\s^2^(Fo^2^)+(0.1451P)^2^+0.9472P] where P=(Fo^2^+2Fc^2^)/3'
_atom_sites_solution_primary     direct
_atom_sites_solution_secondary   difmap
_atom_sites_solution_hydrogens   geom
_refine_ls_hydrogen_treatment    mixed
_refine_ls_extinction_method     none
_refine_ls_extinction_coef       ?
_refine_ls_number_reflns         3948
_refine_ls_number_parameters     177
_refine_ls_number_restraints     2
_refine_ls_R_factor_all          0.1083
_refine_ls_R_factor_gt           0.0731
_refine_ls_wR_factor_ref         0.2447
_refine_ls_wR_factor_gt          0.2068
_refine_ls_goodness_of_fit_ref   1.118
_refine_ls_restrained_S_all      1.118
_refine_ls_shift/su_max          3.486
_refine_ls_shift/su_mean         0.021

loop_
_atom_site_label
_atom_site_type_symbol
_atom_site_fract_x
_atom_site_fract_y
_atom_site_fract_z
_atom_site_U_iso_or_equiv
_atom_site_adp_type
_atom_site_occupancy
_atom_site_symmetry_multiplicity
_atom_site_calc_flag
_atom_site_refinement_flags
_atom_site_disorder_assembly
_atom_site_disorder_group
Zn1 Zn 0.51975(6) 0.5000 -0.08429(8) 0.0248(3) Uani 1 2 d S . .
Zn2 Zn 1.0000 0.09951(5) 0.5000 0.0261(3) Uani 1 2 d S . .
C1 C 0.6111(4) 0.4019(3) 0.1257(6) 0.0364(15) Uani 1 1 d . . .
C2 C 0.6730(5) 0.3424(4) 0.1987(7) 0.0450(18) Uani 1 1 d . . .
C3 C 0.7255(7) 0.3221(5) 0.1780(9) 0.079(3) Uani 1 1 d . . .
H3 H 0.7209 0.3439 0.1157 0.095 Uiso 1 1 calc R . .
C4 C 0.7865(7) 0.2687(5) 0.2496(9) 0.080(3) Uani 1 1 d . . .
H4 H 0.8250 0.2583 0.2392 0.096 Uiso 1 1 calc R . .
C5 C 0.7891(5) 0.2325(4) 0.3334(7) 0.054(2) Uani 1 1 d . . .
C6 C 0.7346(6) 0.2525(5) 0.3525(9) 0.078(3) Uani 1 1 d . . .
H6 H 0.7357 0.2281 0.4099 0.094 Uiso 1 1 calc R . .
C7 C 0.6779(6) 0.3087(5) 0.2862(9) 0.068(3) Uani 1 1 d . . .
H7 H 0.6435 0.3230 0.3025 0.082 Uiso 1 1 calc R . .
C8 C 0.8540(6) 0.1746(4) 0.4101(8) 0.059(2) Uani 1 1 d . . .
C9 C 0.5252(4) 0.4437(3) -0.2772(5) 0.0306(14) Uani 1 1 d . . .
C10 C 0.5322(6) 0.3687(3) -0.2387(7) 0.050(2) Uani 1 1 d . . .
H10A H 0.5849 0.3491 -0.2095 0.075 Uiso 1 1 calc R . .
H10B H 0.4865 0.3414 -0.3075 0.075 Uiso 1 1 calc R . .
H10C H 0.5299 0.3672 -0.1741 0.075 Uiso 1 1 calc R . .
C11 C 0.768(2) 1.0000 0.533(2) 0.198(13) Uani 1 2 d SD . .
C12 C 0.738(2) 1.0000 0.296(3) 0.41(5) Uani 1 2 d SD . .
N1 N 0.5302(5) 0.5000 -0.2158(6) 0.0268(15) Uani 1 2 d S . .
N2 N 0.5143(3) 0.4629(2) -0.3747(4) 0.0266(11) Uani 1 1 d . . .
N3 N 0.7784(19) 1.0000 0.434(3) 0.194(11) Uani 1 2 d SD . .
O1 O 0.6027(3) 0.4241(3) 0.0350(4) 0.0529(14) Uani 1 1 d . . .
O2 O 0.5731(3) 0.4243(3) 0.1580(5) 0.0464(13) Uani 1 1 d . . .
O3 O 0.9071(4) 0.1650(3) 0.4015(5) 0.0625(16) Uani 1 1 d . . .
O4 O 0.8472(6) 0.1362(4) 0.4746(8) 0.117(3) Uani 1 1 d . . .
H4A H 0.8281 0.1033 0.4928 0.175 Uiso 1 1 d R . .
O15 O 0.0000 0.335(3) 1.0000 1.9(3) Uani 1 2 d S . .

loop_
_atom_site_aniso_label
_atom_site_aniso_U_11
_atom_site_aniso_U_22
_atom_site_aniso_U_33
_atom_site_aniso_U_23
_atom_site_aniso_U_13
_atom_site_aniso_U_12
Zn1 0.0334(6) 0.0276(5) 0.0212(5) 0.000 0.0212(5) 0.000
Zn2 0.0386(6) 0.0220(5) 0.0274(6) 0.000 0.0258(5) 0.000
C1 0.037(4) 0.035(3) 0.029(3) 0.004(3) 0.018(3) 0.006(3)
C2 0.059(5) 0.043(4) 0.042(4) 0.015(3) 0.037(4) 0.017(4)
C3 0.102(8) 0.101(7) 0.075(6) 0.056(6) 0.076(6) 0.059(6)
C4 0.110(8) 0.082(6) 0.100(7) 0.059(6) 0.091(7) 0.069(6)
C5 0.066(5) 0.054(4) 0.054(5) 0.027(4) 0.045(4) 0.036(4)
C6 0.105(8) 0.092(6) 0.087(7) 0.059(6) 0.085(7) 0.063(6)
C7 0.091(7) 0.081(6) 0.081(6) 0.042(5) 0.077(6) 0.048(5)
C8 0.085(6) 0.056(5) 0.053(5) 0.029(4) 0.052(5) 0.038(5)
C9 0.043(4) 0.029(3) 0.037(4) 0.001(3) 0.034(3) 0.002(3)
C10 0.097(6) 0.031(3) 0.048(4) 0.009(3) 0.058(5) 0.008(4)
C11 0.21(3) 0.26(3) 0.14(2) 0.000 0.12(2) 0.000
C12 0.13(3) 0.13(3) 0.43(7) 0.000 -0.05(4) 0.000
N1 0.041(4) 0.026(3) 0.021(3) 0.000 0.023(3) 0.000
N2 0.041(3) 0.021(2) 0.029(3) 0.002(2) 0.028(2) -0.001(2)
N3 0.20(3) 0.144(18) 0.31(4) 0.000 0.20(3) 0.000
O1 0.058(3) 0.066(3) 0.038(3) 0.025(3) 0.032(3) 0.027(3)
O2 0.057(3) 0.048(3) 0.051(3) 0.017(2) 0.043(3) 0.023(3)
O3 0.084(4) 0.065(4) 0.068(4) 0.025(3) 0.062(4) 0.035(3)
O4 0.134(7) 0.121(6) 0.143(7) 0.093(6) 0.111(7) 0.083(6)
O15 2.0(4) 0.34(7) 0.56(11) 0.000 -0.40(15) 0.000

_geom_special_details            
;
All esds (except the esd in the dihedral angle between two l.s. planes)
are estimated using the full covariance matrix. The cell esds are taken
into account individually in the estimation of esds in distances, angles
and torsion angles; correlations between esds in cell parameters are only
used when they are defined by crystal symmetry. An approximate (isotropic)
treatment of cell esds is used for estimating esds involving l.s. planes.
;

loop_
_geom_bond_atom_site_label_1
_geom_bond_atom_site_label_2
_geom_bond_distance
_geom_bond_site_symmetry_2
_geom_bond_publ_flag
Zn1 O1 2.025(5) 6_565 ?
Zn1 O1 2.025(5) . ?
Zn1 N1 2.036(6) . ?
Zn1 O2 2.058(5) 2_655 ?
Zn1 O2 2.058(5) 5_665 ?
Zn1 Zn1 3.023(2) 5_665 ?
Zn2 O3 1.924(5) 2_756 ?
Zn2 O3 1.924(5) . ?
Zn2 N2 2.000(5) 8_556 ?
Zn2 N2 2.000(5) 7_655 ?
C1 O2 1.226(8) . ?
C1 O1 1.264(8) . ?
C1 C2 1.501(9) . ?
C2 C7 1.348(10) . ?
C2 C3 1.367(11) . ?
C3 C4 1.407(12) . ?
C4 C5 1.352(11) . ?
C5 C6 1.386(10) . ?
C5 C8 1.513(10) . ?
C6 C7 1.399(11) . ?
C8 O3 1.209(10) . ?
C8 O4 1.253(10) . ?
C9 N2 1.312(7) . ?
C9 N1 1.338(7) . ?
C9 C10 1.486(8) . ?
C11 N3 1.577(18) . ?
C12 N3 1.57(2) . ?
N1 C9 1.338(7) 6_565 ?
N2 N2 1.395(9) 6_565 ?
N2 Zn2 2.000(5) 7_655 ?
O2 Zn1 2.058(5) 5_665 ?

loop_
_geom_angle_atom_site_label_1
_geom_angle_atom_site_label_2
_geom_angle_atom_site_label_3
_geom_angle
_geom_angle_site_symmetry_1
_geom_angle_site_symmetry_3
_geom_angle_publ_flag
O1 Zn1 O1 89.6(3) 6_565 . ?
O1 Zn1 N1 103.5(2) 6_565 . ?
O1 Zn1 N1 103.5(2) . . ?
O1 Zn1 O2 157.2(2) 6_565 2_655 ?
O1 Zn1 O2 87.0(2) . 2_655 ?
N1 Zn1 O2 99.2(2) . 2_655 ?
O1 Zn1 O2 87.0(2) 6_565 5_665 ?
O1 Zn1 O2 157.2(2) . 5_665 ?
N1 Zn1 O2 99.2(2) . 5_665 ?
O2 Zn1 O2 87.5(3) 2_655 5_665 ?
O1 Zn1 Zn1 81.59(15) 6_565 5_665 ?
O1 Zn1 Zn1 81.59(15) . 5_665 ?
N1 Zn1 Zn1 172.7(2) . 5_665 ?
O2 Zn1 Zn1 75.66(14) 2_655 5_665 ?
O2 Zn1 Zn1 75.66(14) 5_665 5_665 ?
O3 Zn2 O3 100.5(4) 2_756 . ?
O3 Zn2 N2 103.2(2) 2_756 8_556 ?
O3 Zn2 N2 121.5(2) . 8_556 ?
O3 Zn2 N2 121.5(2) 2_756 7_655 ?
O3 Zn2 N2 103.2(2) . 7_655 ?
N2 Zn2 N2 108.2(3) 8_556 7_655 ?
O2 C1 O1 125.9(6) . . ?
O2 C1 C2 117.9(6) . . ?
O1 C1 C2 116.3(6) . . ?
C7 C2 C3 119.2(7) . . ?
C7 C2 C1 120.5(7) . . ?
C3 C2 C1 120.3(6) . . ?
C2 C3 C4 121.0(7) . . ?
C5 C4 C3 120.0(8) . . ?
C4 C5 C6 118.6(7) . . ?
C4 C5 C8 120.3(7) . . ?
C6 C5 C8 121.0(7) . . ?
C5 C6 C7 120.7(7) . . ?
C2 C7 C6 120.3(7) . . ?
O3 C8 O4 123.0(7) . . ?
O3 C8 C5 118.8(7) . . ?
O4 C8 C5 118.1(8) . . ?
N2 C9 N1 111.7(5) . . ?
N2 C9 C10 124.3(5) . . ?
N1 C9 C10 124.0(5) . . ?
C9 N1 C9 104.6(6) . 6_565 ?
C9 N1 Zn1 127.0(3) . . ?
C9 N1 Zn1 127.0(3) 6_565 . ?
C9 N2 N2 106.0(3) . 6_565 ?
C9 N2 Zn2 128.1(4) . 7_655 ?
N2 N2 Zn2 125.91(13) 6_565 7_655 ?
C12 N3 C11 150(3) . . ?
C1 O1 Zn1 124.8(5) . . ?
C1 O2 Zn1 132.1(4) . 5_665 ?
C8 O3 Zn2 125.2(5) . . ?

_diffrn_measured_fraction_theta_max 0.991
_diffrn_reflns_theta_full        25.20
_diffrn_measured_fraction_theta_full 0.991
_refine_diff_density_max         1.085
_refine_diff_density_min         -0.978
_refine_diff_density_rms         0.218

