####################################################################### 
# 
# This file contains crystal structure data downloaded from the 
# Cambridge Structural Database (CSD) hosted by the Cambridge 
# Crystallographic Data Centre (CCDC).
# 
# Full information about CCDC data access policies and citation 
# guidelines are available at http://www.ccdc.cam.ac.uk/access/V1 
# 
# Audit and citation data items may have been added by the CCDC. 
# Please retain this information to preserve the provenance of 
# this file and to allow appropriate attribution of the data. 
# 
#######################################################################

data_050619t
_audit_block_doi                 10.5517/cc9bmdm
_database_code_depnum_ccdc_archive 'CCDC 278330'
loop_
_citation_id
_citation_doi
_citation_year
1 10.1002/ejic.200600887 2007
_audit_update_record             
;
2005-07-13 deposited with the CCDC.	2024-07-08 downloaded from the CCDC.
;

_audit_creation_method           SHELXL-97
_chemical_name_systematic        
;
?
;
_chemical_name_common            ?
_chemical_melting_point          ?
_chemical_formula_moiety         ?
_chemical_formula_sum            'C44 H36 Cl6 Co N12 S2'
_chemical_formula_weight         1068.60

loop_
_atom_type_symbol
_atom_type_description
_atom_type_scat_dispersion_real
_atom_type_scat_dispersion_imag
_atom_type_scat_source
C C 0.0033 0.0016 'International Tables Vol C Tables 4.2.6.8 and 6.1.1.4'
H H 0.0000 0.0000 'International Tables Vol C Tables 4.2.6.8 and 6.1.1.4'
N N 0.0061 0.0033 'International Tables Vol C Tables 4.2.6.8 and 6.1.1.4'
Co Co 0.3494 0.9721 'International Tables Vol C Tables 4.2.6.8 and 6.1.1.4'
S S 0.1246 0.1234 'International Tables Vol C Tables 4.2.6.8 and 6.1.1.4'
Cl Cl 0.1484 0.1585 'International Tables Vol C Tables 4.2.6.8 and 6.1.1.4'

_symmetry_cell_setting           Monoclinic
_symmetry_space_group_name_H-M   P2(1)/n

loop_
_symmetry_equiv_pos_as_xyz
'x, y, z'
'-x+1/2, y+1/2, -z+1/2'
'-x, -y, -z'
'x-1/2, -y-1/2, z-1/2'

_cell_length_a                   13.139(3)
_cell_length_b                   12.492(2)
_cell_length_c                   14.902(3)
_cell_angle_alpha                90.00
_cell_angle_beta                 95.838(3)
_cell_angle_gamma                90.00
_cell_volume                     2433.1(8)
_cell_formula_units_Z            2
_cell_measurement_temperature    298(2)
_cell_measurement_reflns_used    3595
_cell_measurement_theta_min      2.255
_cell_measurement_theta_max      26.678

_exptl_crystal_description       ?
_exptl_crystal_colour            ?
_exptl_crystal_size_max          0.47
_exptl_crystal_size_mid          0.45
_exptl_crystal_size_min          0.21
_exptl_crystal_density_meas      0
_exptl_crystal_density_diffrn    1.459
_exptl_crystal_density_method    'not measured'
_exptl_crystal_F_000             1090
_exptl_absorpt_coefficient_mu    0.814
_exptl_absorpt_correction_type   multi-scan
_exptl_absorpt_correction_T_min  0.7008
_exptl_absorpt_correction_T_max  0.8476
_exptl_absorpt_process_details   sadabs

_exptl_special_details           
;
?
;

_diffrn_ambient_temperature      298(2)
_diffrn_radiation_wavelength     0.71073
_diffrn_radiation_type           MoK\a
_diffrn_radiation_source         'fine-focus sealed tube'
_diffrn_radiation_monochromator  graphite
_diffrn_measurement_device_type  'CCD area detector'
_diffrn_measurement_method       'phi and omega scans'
_diffrn_detector_area_resol_mean ?
_diffrn_standards_number         ?
_diffrn_standards_interval_count ?
_diffrn_standards_interval_time  ?
_diffrn_standards_decay_%        ?
_diffrn_reflns_number            12529
_diffrn_reflns_av_R_equivalents  0.0415
_diffrn_reflns_av_sigmaI/netI    0.0511
_diffrn_reflns_limit_h_min       -15
_diffrn_reflns_limit_h_max       12
_diffrn_reflns_limit_k_min       -14
_diffrn_reflns_limit_k_max       14
_diffrn_reflns_limit_l_min       -17
_diffrn_reflns_limit_l_max       17
_diffrn_reflns_theta_min         1.97
_diffrn_reflns_theta_max         25.10
_reflns_number_total             4321
_reflns_number_gt                3122
_reflns_threshold_expression     >2sigma(I)

_computing_data_collection       'Bruker SMART'
_computing_cell_refinement       'Bruker SMART'
_computing_data_reduction        'Bruker SAINT'
_computing_structure_solution    'SHELXS-97 (Sheldrick, 1990)'
_computing_structure_refinement  'SHELXL-97 (Sheldrick, 1997)'
_computing_molecular_graphics    'Bruker SHELXTL'
_computing_publication_material  'Bruker SHELXTL'

_refine_special_details          
;
Refinement of F^2^ against ALL reflections. The weighted R-factor wR and
goodness of fit S are based on F^2^, conventional R-factors R are based
on F, with F set to zero for negative F^2^. The threshold expression of
F^2^ > 2sigma(F^2^) is used only for calculating R-factors(gt) etc. and is
not relevant to the choice of reflections for refinement. R-factors based
on F^2^ are statistically about twice as large as those based on F, and R-
factors based on ALL data will be even larger.
;

_refine_ls_structure_factor_coef Fsqd
_refine_ls_matrix_type           full
_refine_ls_weighting_scheme      calc
_refine_ls_weighting_details     
'calc w=1/[\s^2^(Fo^2^)+(0.0736P)^2^+3.1663P] where P=(Fo^2^+2Fc^2^)/3'
_atom_sites_solution_primary     direct
_atom_sites_solution_secondary   difmap
_atom_sites_solution_hydrogens   geom
_refine_ls_hydrogen_treatment    mixed
_refine_ls_extinction_method     none
_refine_ls_extinction_coef       ?
_refine_ls_number_reflns         4321
_refine_ls_number_parameters     296
_refine_ls_number_restraints     0
_refine_ls_R_factor_all          0.0838
_refine_ls_R_factor_gt           0.0560
_refine_ls_wR_factor_ref         0.1521
_refine_ls_wR_factor_gt          0.1336
_refine_ls_goodness_of_fit_ref   1.002
_refine_ls_restrained_S_all      1.002
_refine_ls_shift/su_max          0.000
_refine_ls_shift/su_mean         0.000

loop_
_atom_site_label
_atom_site_type_symbol
_atom_site_fract_x
_atom_site_fract_y
_atom_site_fract_z
_atom_site_U_iso_or_equiv
_atom_site_adp_type
_atom_site_occupancy
_atom_site_symmetry_multiplicity
_atom_site_calc_flag
_atom_site_refinement_flags
_atom_site_disorder_assembly
_atom_site_disorder_group
Co1 Co 0.5000 0.5000 0.0000 0.0241(2) Uani 1 2 d S . .
Cl1 Cl 0.44353(13) 0.83537(14) 0.21320(11) 0.0858(5) Uani 1 1 d . . .
Cl2 Cl 0.25389(15) 0.82706(16) 0.29238(16) 0.1149(7) Uani 1 1 d . . .
Cl3 Cl 0.33872(16) 1.02901(14) 0.25180(13) 0.0989(6) Uani 1 1 d . . .
N1 N 0.3414(3) 0.4998(3) 0.0180(2) 0.0352(8) Uani 1 1 d . . .
N2 N 0.5373(2) 0.5377(3) 0.14101(19) 0.0287(7) Uani 1 1 d . . .
N3 N 0.5232(2) 0.5810(2) 0.2829(2) 0.0293(7) Uani 1 1 d . . .
N4 N 0.0097(2) 0.1687(2) 0.5258(2) 0.0279(7) Uani 1 1 d . . .
N5 N 0.0692(2) 0.3327(2) 0.5479(2) 0.0300(7) Uani 1 1 d . . .
N6 N 0.3368(3) 0.6772(2) 0.5904(2) 0.0323(8) Uani 1 1 d . . .
S1 S 0.13043(10) 0.52468(13) -0.01966(12) 0.0738(5) Uani 1 1 d . . .
C1 C 0.2542(3) 0.5111(3) 0.0036(3) 0.0353(10) Uani 1 1 d . . .
C2 C 0.4741(3) 0.5485(3) 0.2036(2) 0.0303(9) Uani 1 1 d . . .
H2 H 0.4042 0.5353 0.1943 0.036 Uiso 1 1 calc R . .
C3 C 0.6244(3) 0.5920(3) 0.2693(3) 0.0370(10) Uani 1 1 d . . .
H3 H 0.6775 0.6137 0.3114 0.044 Uiso 1 1 calc R . .
C4 C 0.6313(3) 0.5652(3) 0.1828(3) 0.0383(10) Uani 1 1 d . . .
H4 H 0.6916 0.5653 0.1551 0.046 Uiso 1 1 calc R . .
C5 C 0.0918(3) 0.2290(3) 0.5332(3) 0.0327(9) Uani 1 1 d . . .
H5 H 0.1576 0.2035 0.5288 0.039 Uiso 1 1 calc R . .
C6 C -0.0353(3) 0.3376(3) 0.5491(3) 0.0358(10) Uani 1 1 d . . .
H6 H -0.0743 0.3983 0.5577 0.043 Uiso 1 1 calc R . .
C7 C -0.0699(3) 0.2365(3) 0.5351(3) 0.0348(9) Uani 1 1 d . . .
H7 H -0.1382 0.2161 0.5323 0.042 Uiso 1 1 calc R . .
C8 C 0.3935(3) 0.6620(3) 0.5185(2) 0.0296(9) Uani 1 1 d . . .
C9 C 0.4736(3) 0.7245(3) 0.4921(3) 0.0337(9) Uani 1 1 d . . .
H9 H 0.4979 0.7837 0.5255 0.040 Uiso 1 1 calc R . .
C10 C 0.5149(3) 0.6946(3) 0.4142(2) 0.0334(9) Uani 1 1 d . . .
H10 H 0.5677 0.7350 0.3944 0.040 Uiso 1 1 calc R . .
C11 C 0.4790(3) 0.6049(3) 0.3647(2) 0.0285(9) Uani 1 1 d . . .
C12 C 0.4033(3) 0.5406(3) 0.3923(2) 0.0306(9) Uani 1 1 d . . .
H12 H 0.3822 0.4792 0.3603 0.037 Uiso 1 1 calc R . .
C13 C 0.3587(3) 0.5702(3) 0.4699(2) 0.0276(8) Uani 1 1 d . . .
C14 C 0.2770(3) 0.5261(3) 0.5172(2) 0.0267(8) Uani 1 1 d . . .
C15 C 0.2127(3) 0.4377(3) 0.5026(2) 0.0284(9) Uani 1 1 d . . .
H15 H 0.2189 0.3913 0.4547 0.034 Uiso 1 1 calc R . .
C16 C 0.1392(3) 0.4211(3) 0.5615(3) 0.0304(9) Uani 1 1 d . . .
C17 C 0.1293(3) 0.4895(3) 0.6346(3) 0.0369(10) Uani 1 1 d . . .
H17 H 0.0799 0.4755 0.6735 0.044 Uiso 1 1 calc R . .
C18 C 0.1923(3) 0.5776(3) 0.6492(3) 0.0355(10) Uani 1 1 d . . .
H18 H 0.1852 0.6238 0.6971 0.043 Uiso 1 1 calc R . .
C19 C 0.2666(3) 0.5956(3) 0.5909(2) 0.0292(9) Uani 1 1 d . . .
C20 C 0.3603(3) 0.7572(3) 0.6609(3) 0.0386(10) Uani 1 1 d . . .
H20A H 0.3005 0.7681 0.6929 0.046 Uiso 1 1 calc R . .
H20B H 0.3762 0.8247 0.6333 0.046 Uiso 1 1 calc R . .
C21 C 0.4491(5) 0.7245(4) 0.7271(3) 0.0689(16) Uani 1 1 d . . .
H21A H 0.4315 0.6610 0.7584 0.103 Uiso 1 1 calc R . .
H21B H 0.4647 0.7812 0.7698 0.103 Uiso 1 1 calc R . .
H21C H 0.5077 0.7105 0.6954 0.103 Uiso 1 1 calc R . .
C22 C 0.3664(4) 0.8976(5) 0.2871(4) 0.0680(15) Uani 1 1 d . . .
H22 H 0.4037 0.8996 0.3474 0.082 Uiso 1 1 calc R . .

loop_
_atom_site_aniso_label
_atom_site_aniso_U_11
_atom_site_aniso_U_22
_atom_site_aniso_U_33
_atom_site_aniso_U_23
_atom_site_aniso_U_13
_atom_site_aniso_U_12
Co1 0.0200(4) 0.0279(4) 0.0251(4) -0.0023(3) 0.0060(3) 0.0017(3)
Cl1 0.0804(11) 0.0961(12) 0.0852(11) 0.0302(9) 0.0299(9) 0.0228(9)
Cl2 0.0824(13) 0.1058(14) 0.164(2) 0.0246(13) 0.0476(13) -0.0129(11)
Cl3 0.1183(16) 0.0698(10) 0.1076(14) 0.0189(9) 0.0065(12) 0.0106(10)
N1 0.0236(19) 0.0409(19) 0.0427(19) -0.0041(16) 0.0111(15) 0.0015(16)
N2 0.0265(17) 0.0366(17) 0.0232(16) -0.0020(13) 0.0044(13) -0.0010(15)
N3 0.0289(18) 0.0357(18) 0.0242(16) -0.0018(13) 0.0065(14) -0.0043(15)
N4 0.0252(18) 0.0304(17) 0.0287(17) 0.0019(13) 0.0057(14) -0.0006(14)
N5 0.0276(18) 0.0289(17) 0.0340(17) 0.0024(14) 0.0059(14) -0.0020(14)
N6 0.039(2) 0.0312(17) 0.0280(17) -0.0077(14) 0.0076(15) -0.0064(15)
S1 0.0270(7) 0.0741(10) 0.1186(13) -0.0169(9) -0.0011(7) 0.0133(7)
C1 0.037(3) 0.026(2) 0.045(2) -0.0057(18) 0.0153(19) 0.0000(19)
C2 0.027(2) 0.033(2) 0.030(2) 0.0007(17) 0.0030(17) -0.0020(17)
C3 0.025(2) 0.048(2) 0.038(2) -0.0034(19) 0.0006(18) -0.0051(19)
C4 0.024(2) 0.056(3) 0.036(2) -0.007(2) 0.0079(18) -0.009(2)
C5 0.029(2) 0.033(2) 0.038(2) 0.0006(17) 0.0132(18) 0.0001(18)
C6 0.024(2) 0.035(2) 0.048(2) 0.0048(19) 0.0048(18) 0.0061(18)
C7 0.024(2) 0.037(2) 0.044(2) 0.0079(18) 0.0036(18) 0.0000(18)
C8 0.031(2) 0.033(2) 0.0258(19) 0.0005(16) 0.0035(16) -0.0018(17)
C9 0.037(2) 0.031(2) 0.033(2) -0.0063(17) 0.0036(18) -0.0083(18)
C10 0.033(2) 0.037(2) 0.031(2) 0.0028(17) 0.0059(17) -0.0094(18)
C11 0.032(2) 0.032(2) 0.0223(18) 0.0006(15) 0.0046(16) -0.0027(17)
C12 0.037(2) 0.0285(19) 0.0264(19) -0.0063(16) 0.0046(17) -0.0048(18)
C13 0.031(2) 0.0261(19) 0.0258(19) 0.0002(15) 0.0027(16) -0.0034(16)
C14 0.030(2) 0.0260(19) 0.0238(18) 0.0001(14) 0.0030(16) -0.0001(16)
C15 0.032(2) 0.024(2) 0.029(2) -0.0032(15) 0.0034(17) -0.0007(17)
C16 0.028(2) 0.029(2) 0.035(2) 0.0059(16) 0.0058(17) -0.0017(17)
C17 0.041(2) 0.034(2) 0.038(2) -0.0009(18) 0.0160(19) -0.0016(19)
C18 0.042(2) 0.033(2) 0.034(2) -0.0048(17) 0.0145(19) 0.0019(19)
C19 0.032(2) 0.028(2) 0.028(2) -0.0021(16) 0.0038(17) -0.0013(17)
C20 0.052(3) 0.025(2) 0.041(2) -0.0084(18) 0.016(2) -0.0061(19)
C21 0.096(5) 0.064(3) 0.043(3) -0.020(3) -0.013(3) -0.003(3)
C22 0.068(4) 0.078(4) 0.059(3) 0.017(3) 0.009(3) 0.001(3)

_geom_special_details            
;
All esds (except the esd in the dihedral angle between two l.s. planes)
are estimated using the full covariance matrix. The cell esds are taken
into account individually in the estimation of esds in distances, angles
and torsion angles; correlations between esds in cell parameters are only
used when they are defined by crystal symmetry. An approximate (isotropic)
treatment of cell esds is used for estimating esds involving l.s. planes.
;

loop_
_geom_bond_atom_site_label_1
_geom_bond_atom_site_label_2
_geom_bond_distance
_geom_bond_site_symmetry_2
_geom_bond_publ_flag
Co1 N1 2.128(3) . ?
Co1 N1 2.128(3) 3_665 ?
Co1 N4 2.144(3) 4_665 ?
Co1 N4 2.144(3) 2 ?
Co1 N2 2.161(3) 3_665 ?
Co1 N2 2.161(3) . ?
Cl1 C22 1.752(6) . ?
Cl2 C22 1.729(6) . ?
Cl3 C22 1.751(6) . ?
N1 C1 1.153(5) . ?
N2 C2 1.318(5) . ?
N2 C4 1.368(5) . ?
N3 C2 1.350(5) . ?
N3 C3 1.372(5) . ?
N3 C11 1.433(4) . ?
N4 C5 1.311(5) . ?
N4 C7 1.364(5) . ?
N4 Co1 2.144(3) 2_545 ?
N5 C5 1.352(5) . ?
N5 C6 1.376(5) . ?
N5 C16 1.438(5) . ?
N6 C19 1.376(5) . ?
N6 C8 1.378(5) . ?
N6 C20 1.460(5) . ?
S1 C1 1.637(5) . ?
C3 C4 1.344(5) . ?
C6 C7 1.351(6) . ?
C8 C9 1.399(5) . ?
C8 C13 1.408(5) . ?
C9 C10 1.382(5) . ?
C10 C11 1.398(5) . ?
C11 C12 1.374(5) . ?
C12 C13 1.399(5) . ?
C13 C14 1.452(5) . ?
C14 C15 1.394(5) . ?
C14 C19 1.417(5) . ?
C15 C16 1.385(5) . ?
C16 C17 1.401(5) . ?
C17 C18 1.381(6) . ?
C18 C19 1.390(5) . ?
C20 C21 1.506(7) . ?

loop_
_geom_angle_atom_site_label_1
_geom_angle_atom_site_label_2
_geom_angle_atom_site_label_3
_geom_angle
_geom_angle_site_symmetry_1
_geom_angle_site_symmetry_3
_geom_angle_publ_flag
N1 Co1 N1 180.0 . 3_665 ?
N1 Co1 N4 90.97(12) . 4_665 ?
N1 Co1 N4 89.03(12) 3_665 4_665 ?
N1 Co1 N4 89.03(12) . 2 ?
N1 Co1 N4 90.97(12) 3_665 2 ?
N4 Co1 N4 180.0 4_665 2 ?
N1 Co1 N2 89.66(12) . 3_665 ?
N1 Co1 N2 90.34(12) 3_665 3_665 ?
N4 Co1 N2 87.92(11) 4_665 3_665 ?
N4 Co1 N2 92.08(11) 2 3_665 ?
N1 Co1 N2 90.34(12) . . ?
N1 Co1 N2 89.66(12) 3_665 . ?
N4 Co1 N2 92.08(11) 4_665 . ?
N4 Co1 N2 87.92(11) 2 . ?
N2 Co1 N2 180.00(5) 3_665 . ?
C1 N1 Co1 160.7(3) . . ?
C2 N2 C4 104.9(3) . . ?
C2 N2 Co1 127.8(3) . . ?
C4 N2 Co1 127.0(2) . . ?
C2 N3 C3 106.5(3) . . ?
C2 N3 C11 127.4(3) . . ?
C3 N3 C11 126.0(3) . . ?
C5 N4 C7 105.5(3) . . ?
C5 N4 Co1 127.8(3) . 2_545 ?
C7 N4 Co1 126.7(3) . 2_545 ?
C5 N5 C6 106.3(3) . . ?
C5 N5 C16 127.6(3) . . ?
C6 N5 C16 126.1(3) . . ?
C19 N6 C8 108.5(3) . . ?
C19 N6 C20 126.6(3) . . ?
C8 N6 C20 124.2(3) . . ?
N1 C1 S1 178.2(4) . . ?
N2 C2 N3 111.8(3) . . ?
C4 C3 N3 106.1(4) . . ?
C3 C4 N2 110.7(3) . . ?
N4 C5 N5 111.8(3) . . ?
C7 C6 N5 106.0(3) . . ?
C6 C7 N4 110.3(4) . . ?
N6 C8 C9 128.5(3) . . ?
N6 C8 C13 109.9(3) . . ?
C9 C8 C13 121.6(3) . . ?
C10 C9 C8 117.2(4) . . ?
C9 C10 C11 121.4(4) . . ?
C12 C11 C10 121.7(3) . . ?
C12 C11 N3 120.1(3) . . ?
C10 C11 N3 118.2(3) . . ?
C11 C12 C13 118.1(3) . . ?
C12 C13 C8 120.0(3) . . ?
C12 C13 C14 134.0(3) . . ?
C8 C13 C14 106.0(3) . . ?
C15 C14 C19 120.1(3) . . ?
C15 C14 C13 133.7(3) . . ?
C19 C14 C13 106.1(3) . . ?
C16 C15 C14 118.1(3) . . ?
C15 C16 C17 121.8(4) . . ?
C15 C16 N5 120.2(3) . . ?
C17 C16 N5 118.0(3) . . ?
C18 C17 C16 120.5(4) . . ?
C17 C18 C19 118.6(3) . . ?
N6 C19 C18 129.6(3) . . ?
N6 C19 C14 109.4(3) . . ?
C18 C19 C14 120.9(3) . . ?
N6 C20 C21 112.3(4) . . ?
Cl2 C22 Cl3 109.8(3) . . ?
Cl2 C22 Cl1 110.8(3) . . ?
Cl3 C22 Cl1 110.1(3) . . ?

_diffrn_measured_fraction_theta_max 0.997
_diffrn_reflns_theta_full        25.10
_diffrn_measured_fraction_theta_full 0.997
_refine_diff_density_max         0.612
_refine_diff_density_min         -0.471
_refine_diff_density_rms         0.072
