####################################################################### 
# 
# This file contains crystal structure data downloaded from the 
# Cambridge Structural Database (CSD) hosted by the Cambridge 
# Crystallographic Data Centre (CCDC).
# 
# Full information about CCDC data access policies and citation 
# guidelines are available at http://www.ccdc.cam.ac.uk/access/V1 
# 
# Audit and citation data items may have been added by the CCDC. 
# Please retain this information to preserve the provenance of 
# this file and to allow appropriate attribution of the data. 
# 
#######################################################################

data_g2codmsm
_audit_block_doi                 10.5517/cc7fh7c
_database_code_depnum_ccdc_archive 'CCDC 221502'
loop_
_citation_id
_citation_doi
_citation_year
1 10.1016/j.inoche.2003.12.018 2004
_audit_update_record             
;
2003-10-09 deposited with the CCDC.	2024-07-08 downloaded from the CCDC.
;

_audit_creation_method           SHELXL-97
_chemical_name_systematic        
;
?
;
_chemical_name_common            ?
_chemical_melting_point          ?
_chemical_formula_moiety         ?
_chemical_formula_sum            'C58 H63 Co N10 O16 S'
_chemical_formula_weight         1247.17

loop_
_atom_type_symbol
_atom_type_description
_atom_type_scat_dispersion_real
_atom_type_scat_dispersion_imag
_atom_type_scat_source
C C 0.0033 0.0016 'International Tables Vol C Tables 4.2.6.8 and 6.1.1.4'
H H 0.0000 0.0000 'International Tables Vol C Tables 4.2.6.8 and 6.1.1.4'
N N 0.0061 0.0033 'International Tables Vol C Tables 4.2.6.8 and 6.1.1.4'
O O 0.0106 0.0060 'International Tables Vol C Tables 4.2.6.8 and 6.1.1.4'
S S 0.1246 0.1234 'International Tables Vol C Tables 4.2.6.8 and 6.1.1.4'
Co Co 0.3494 0.9721 'International Tables Vol C Tables 4.2.6.8 and 6.1.1.4'

_symmetry_cell_setting           Monoclinic
_symmetry_space_group_name_H-M   P2(1)/c

loop_
_symmetry_equiv_pos_as_xyz
'x, y, z'
'-x, y+1/2, -z+1/2'
'-x, -y, -z'
'x, -y-1/2, z-1/2'

_cell_length_a                   13.408(2)
_cell_length_b                   28.992(4)
_cell_length_c                   18.414(3)
_cell_angle_alpha                90.00
_cell_angle_beta                 124.041(2)
_cell_angle_gamma                90.00
_cell_volume                     5931.3(15)
_cell_formula_units_Z            4
_cell_measurement_temperature    173(2)
_cell_measurement_reflns_used    1017
_cell_measurement_theta_min      2.62
_cell_measurement_theta_max      26.99

_exptl_crystal_description       plate
_exptl_crystal_colour            pale
_exptl_crystal_size_max          0.40
_exptl_crystal_size_mid          0.20
_exptl_crystal_size_min          0.20
_exptl_crystal_density_meas      0
_exptl_crystal_density_diffrn    1.397
_exptl_crystal_density_method    'not measured'
_exptl_crystal_F_000             2608
_exptl_absorpt_coefficient_mu    0.402
_exptl_absorpt_correction_type   empirical
_exptl_absorpt_correction_T_min  0.5570
_exptl_absorpt_correction_T_max  0.6586
_exptl_absorpt_process_details   ?

_exptl_special_details           
;
?
;

_diffrn_ambient_temperature      173(2)
_diffrn_radiation_wavelength     0.71073
_diffrn_radiation_type           MoK\a
_diffrn_radiation_source         'fine-focus sealed tube'
_diffrn_radiation_monochromator  graphite
_diffrn_measurement_device_type  'CCD area detector'
_diffrn_measurement_method       'phi and omega scans'
_diffrn_detector_area_resol_mean ?
_diffrn_standards_number         ?
_diffrn_standards_interval_count ?
_diffrn_standards_interval_time  ?
_diffrn_standards_decay_%        ?
_diffrn_reflns_number            53037
_diffrn_reflns_av_R_equivalents  0.0521
_diffrn_reflns_av_sigmaI/netI    0.0628
_diffrn_reflns_limit_h_min       -17
_diffrn_reflns_limit_h_max       17
_diffrn_reflns_limit_k_min       -37
_diffrn_reflns_limit_k_max       37
_diffrn_reflns_limit_l_min       -24
_diffrn_reflns_limit_l_max       24
_diffrn_reflns_theta_min         1.51
_diffrn_reflns_theta_max         28.31
_reflns_number_total             13981
_reflns_number_gt                8990
_reflns_threshold_expression     >2sigma(I)

_computing_data_collection       'Bruker SMART'
_computing_cell_refinement       'Bruker SMART'
_computing_data_reduction        'Bruker SAINT'
_computing_structure_solution    'SHELXS-97 (Sheldrick, 1990)'
_computing_structure_refinement  'SHELXL-97 (Sheldrick, 1997)'
_computing_molecular_graphics    'Bruker SHELXTL'
_computing_publication_material  'Bruker SHELXTL'

_refine_special_details          
;
Refinement of F^2^ against ALL reflections.  The weighted R-factor wR and
goodness of fit S are based on F^2^, conventional R-factors R are based
on F, with F set to zero for negative F^2^. The threshold expression of
F^2^ > 2sigma(F^2^) is used only for calculating R-factors(gt) etc. and is
not relevant to the choice of reflections for refinement.  R-factors based
on F^2^ are statistically about twice as large as those based on F, and R-
factors based on ALL data will be even larger.
;

_refine_ls_structure_factor_coef Fsqd
_refine_ls_matrix_type           full
_refine_ls_weighting_scheme      calc
_refine_ls_weighting_details     
'calc w=1/[\s^2^(Fo^2^)+(0.1449P)^2^+12.6018P] where P=(Fo^2^+2Fc^2^)/3'
_atom_sites_solution_primary     direct
_atom_sites_solution_secondary   difmap
_atom_sites_solution_hydrogens   geom
_refine_ls_hydrogen_treatment    mixed
_refine_ls_extinction_method     none
_refine_ls_extinction_coef       ?
_refine_ls_number_reflns         13981
_refine_ls_number_parameters     781
_refine_ls_number_restraints     0
_refine_ls_R_factor_all          0.1327
_refine_ls_R_factor_gt           0.0856
_refine_ls_wR_factor_ref         0.2692
_refine_ls_wR_factor_gt          0.2333
_refine_ls_goodness_of_fit_ref   1.045
_refine_ls_restrained_S_all      1.045
_refine_ls_shift/su_max          3.262
_refine_ls_shift/su_mean         0.025

loop_
_atom_site_label
_atom_site_type_symbol
_atom_site_fract_x
_atom_site_fract_y
_atom_site_fract_z
_atom_site_U_iso_or_equiv
_atom_site_adp_type
_atom_site_occupancy
_atom_site_symmetry_multiplicity
_atom_site_calc_flag
_atom_site_refinement_flags
_atom_site_disorder_assembly
_atom_site_disorder_group
Co1 Co 0.31757(5) 0.262613(19) 0.28971(3) 0.02058(16) Uani 1 1 d . . .
S1 S 0.1072(3) 0.57502(14) 0.4241(2) 0.1270(11) Uani 1 1 d . . .
N1 N 0.1632(3) 0.25328(12) 0.1583(2) 0.0235(7) Uani 1 1 d . . .
N2 N -0.1219(3) 0.20027(14) -0.1591(2) 0.0289(8) Uani 1 1 d . . .
H2N H -0.0522 0.2084 -0.1494 0.035 Uiso 1 1 calc R . .
N3 N -0.4151(4) -0.02833(14) -0.6350(3) 0.0378(10) Uani 1 1 d . . .
H3N H -0.3544 -0.0459 -0.5968 0.045 Uiso 1 1 calc R . .
N4 N -0.3732(3) -0.17559(12) -0.7585(2) 0.0219(7) Uani 1 1 d . . .
N5 N 0.4686(3) 0.27256(12) 0.4241(2) 0.0230(7) Uani 1 1 d . . .
N6 N 0.7349(3) 0.30953(14) 0.7440(2) 0.0326(9) Uani 1 1 d . . .
H6N H 0.6572 0.3095 0.7214 0.039 Uiso 1 1 calc R . .
N7 N 0.9095(4) 0.55125(14) 1.1463(2) 0.0355(9) Uani 1 1 d . . .
H7N H 0.9470 0.5592 1.2018 0.043 Uiso 1 1 calc R . .
N8 N 0.7324(3) 0.70176(12) 1.1696(2) 0.0258(7) Uani 1 1 d . . .
N9 N 0.4521(3) 0.21034(15) 0.2188(3) 0.0349(9) Uani 1 1 d . . .
N10 N 0.1481(3) 0.30959(15) 0.3389(2) 0.0310(8) Uani 1 1 d . . .
O1 O -0.2300(3) 0.19751(16) -0.0986(2) 0.0511(11) Uani 1 1 d . . .
O2 O -0.4623(3) 0.13388(12) -0.4935(2) 0.0375(8) Uani 1 1 d . . .
O3 O -0.5704(3) -0.02452(13) -0.7792(3) 0.0546(11) Uani 1 1 d . . .
O4 O 0.8703(3) 0.29193(13) 0.7100(2) 0.0388(8) Uani 1 1 d . . .
O5 O 1.0040(3) 0.37144(13) 1.0900(2) 0.0471(10) Uani 1 1 d . . .
O6 O 0.7825(3) 0.57853(11) 1.0070(2) 0.0357(8) Uani 1 1 d . . .
O7 O 0.4160(3) 0.21306(13) 0.2688(2) 0.0391(8) Uani 1 1 d . . .
O8 O 0.4573(4) 0.24589(16) 0.1825(3) 0.0618(12) Uani 1 1 d . . .
O9 O 0.4855(4) 0.17344(16) 0.2070(3) 0.0602(12) Uani 1 1 d . . .
O10 O 0.2156(3) 0.31071(11) 0.3111(2) 0.0306(7) Uani 1 1 d . . .
O11 O 0.1394(4) 0.34419(17) 0.3731(3) 0.0675(14) Uani 1 1 d . . .
O12 O 0.0888(3) 0.27452(13) 0.3291(2) 0.0397(8) Uani 1 1 d . . .
O13 O 0.5665(8) 0.4360(2) 0.5857(6) 0.118(2) Uani 1 1 d . . .
O14 O 1.0599(11) 0.0624(4) 0.9891(8) 0.181(4) Uani 1 1 d . . .
O15 O 0.0502(6) 0.5620(2) 0.3306(3) 0.101(2) Uani 1 1 d . . .
O16W O 0.7853(14) 0.0026(6) 0.7488(14) 0.269(8) Uani 1 1 d . . .
C1 C 0.0554(4) 0.24357(16) 0.1430(3) 0.0283(9) Uani 1 1 d . . .
H1 H 0.0450 0.2470 0.1897 0.034 Uiso 1 1 calc R . .
C2 C -0.0414(4) 0.22875(17) 0.0625(3) 0.0298(9) Uani 1 1 d . . .
H2 H -0.1161 0.2219 0.0549 0.036 Uiso 1 1 calc R . .
C3 C -0.0289(4) 0.22391(15) -0.0069(3) 0.0245(8) Uani 1 1 d . . .
C4 C 0.0810(4) 0.23540(17) 0.0075(3) 0.0303(10) Uani 1 1 d . . .
H4 H 0.0929 0.2332 -0.0386 0.036 Uiso 1 1 calc R . .
C5 C 0.1732(4) 0.25008(17) 0.0900(3) 0.0299(10) Uani 1 1 d . . .
H5 H 0.2477 0.2584 0.0987 0.036 Uiso 1 1 calc R . .
C6 C -0.1370(4) 0.20607(17) -0.0927(3) 0.0294(9) Uani 1 1 d . . .
C7 C -0.2090(4) 0.18226(15) -0.2420(3) 0.0259(9) Uani 1 1 d . . .
C8 C -0.3317(4) 0.19037(15) -0.2834(3) 0.0256(9) Uani 1 1 d . . .
H8 H -0.3590 0.2085 -0.2548 0.031 Uiso 1 1 calc R . .
C9 C -0.4141(4) 0.17251(15) -0.3653(3) 0.0263(9) Uani 1 1 d . . .
H9 H -0.4977 0.1778 -0.3923 0.032 Uiso 1 1 calc R . .
C10 C -0.3749(4) 0.14687(15) -0.4082(3) 0.0268(9) Uani 1 1 d . . .
C11 C -0.2529(4) 0.13782(17) -0.3683(3) 0.0322(10) Uani 1 1 d . . .
H11 H -0.2261 0.1197 -0.3971 0.039 Uiso 1 1 calc R . .
C12 C -0.1710(4) 0.15590(17) -0.2852(3) 0.0305(10) Uani 1 1 d . . .
H12 H -0.0875 0.1501 -0.2575 0.037 Uiso 1 1 calc R . .
C13 C -0.4461(4) 0.09318(16) -0.5264(3) 0.0320(10) Uani 1 1 d . . .
C14 C -0.3985(5) 0.05395(18) -0.4760(3) 0.0426(12) Uani 1 1 d . . .
H14 H -0.3719 0.0541 -0.4161 0.051 Uiso 1 1 calc R . .
C15 C -0.3901(5) 0.01410(17) -0.5142(3) 0.0447(13) Uani 1 1 d . . .
H15 H -0.3559 -0.0130 -0.4798 0.054 Uiso 1 1 calc R . .
C16 C -0.4310(4) 0.01339(16) -0.6020(3) 0.0340(10) Uani 1 1 d . . .
C17 C -0.4809(4) 0.05314(17) -0.6523(3) 0.0364(11) Uani 1 1 d . . .
H17 H -0.5103 0.0528 -0.7127 0.044 Uiso 1 1 calc R . .
C18 C -0.4877(4) 0.09323(17) -0.6142(3) 0.0338(10) Uani 1 1 d . . .
H18 H -0.5207 0.1205 -0.6481 0.041 Uiso 1 1 calc R . .
C19 C -0.4825(4) -0.04397(17) -0.7180(3) 0.0351(11) Uani 1 1 d . . .
C20 C -0.4423(4) -0.09023(15) -0.7303(3) 0.0273(9) Uani 1 1 d . . .
C21 C -0.3218(4) -0.10150(16) -0.6908(3) 0.0304(10) Uani 1 1 d . . .
H21 H -0.2608 -0.0801 -0.6527 0.037 Uiso 1 1 calc R . .
C22 C -0.2916(4) -0.14355(15) -0.7069(3) 0.0251(9) Uani 1 1 d . . .
H22 H -0.2088 -0.1504 -0.6803 0.030 Uiso 1 1 calc R . .
C23 C -0.4905(4) -0.16482(15) -0.7968(3) 0.0253(9) Uani 1 1 d . . .
H23 H -0.5497 -0.1872 -0.8332 0.030 Uiso 1 1 calc R . .
C24 C -0.5279(4) -0.12272(15) -0.7853(3) 0.0257(9) Uani 1 1 d . . .
H24 H -0.6112 -0.1160 -0.8146 0.031 Uiso 1 1 calc R . .
C25 C 0.5676(4) 0.24606(14) 0.4632(3) 0.0245(8) Uani 1 1 d . . .
H25 H 0.5703 0.2210 0.4311 0.029 Uiso 1 1 calc R . .
C26 C 0.6658(4) 0.25336(15) 0.5476(3) 0.0262(9) Uani 1 1 d . . .
H26 H 0.7351 0.2344 0.5717 0.031 Uiso 1 1 calc R . .
C27 C 0.6623(4) 0.28872(15) 0.5969(3) 0.0255(9) Uani 1 1 d . . .
C28 C 0.5599(4) 0.31636(17) 0.5566(3) 0.0333(10) Uani 1 1 d . . .
H28 H 0.5538 0.3410 0.5878 0.040 Uiso 1 1 calc R . .
C29 C 0.4677(4) 0.30763(16) 0.4713(3) 0.0313(10) Uani 1 1 d . . .
H29 H 0.3997 0.3275 0.4442 0.038 Uiso 1 1 calc R . .
C30 C 0.7675(4) 0.29663(15) 0.6892(3) 0.0273(9) Uani 1 1 d . . .
C31 C 0.8102(4) 0.32293(17) 0.8330(3) 0.0321(10) Uani 1 1 d . . .
C32 C 0.9312(4) 0.33258(18) 0.8756(3) 0.0341(10) Uani 1 1 d . . .
H32 H 0.9708 0.3281 0.8467 0.041 Uiso 1 1 calc R . .
C33 C 0.9946(4) 0.34882(17) 0.9612(3) 0.0331(10) Uani 1 1 d . . .
H33 H 1.0779 0.3557 0.9906 0.040 Uiso 1 1 calc R . .
C34 C 0.9383(4) 0.35496(19) 1.0037(3) 0.0409(13) Uani 1 1 d . . .
C35 C 0.8212(5) 0.3430(4) 0.9646(4) 0.094(3) Uani 1 1 d . . .
H35 H 0.7840 0.3457 0.9957 0.113 Uiso 1 1 calc R . .
C36 C 0.7554(5) 0.3267(3) 0.8784(4) 0.084(3) Uani 1 1 d . . .
H36 H 0.6733 0.3183 0.8509 0.101 Uiso 1 1 calc R . .
C37 C 0.9825(4) 0.41746(19) 1.1002(3) 0.0395(12) Uani 1 1 d . . .
C38 C 1.0189(4) 0.43093(17) 1.1832(3) 0.0330(10) Uani 1 1 d . . .
H38 H 1.0592 0.4098 1.2308 0.040 Uiso 1 1 calc R . .
C39 C 0.9961(5) 0.47559(17) 1.1967(3) 0.0356(11) Uani 1 1 d . . .
H39 H 1.0214 0.4850 1.2540 0.043 Uiso 1 1 calc R . .
C40 C 0.9374(4) 0.50683(17) 1.1284(3) 0.0339(10) Uani 1 1 d . . .
C41 C 0.9063(7) 0.4933(2) 1.0462(4) 0.067(2) Uani 1 1 d . . .
H41 H 0.8707 0.5147 0.9991 0.081 Uiso 1 1 calc R . .
C42 C 0.9272(7) 0.4486(3) 1.0325(4) 0.074(2) Uani 1 1 d . . .
H42 H 0.9029 0.4392 0.9754 0.088 Uiso 1 1 calc R . .
C43 C 0.8314(4) 0.58234(15) 1.0865(3) 0.0300(9) Uani 1 1 d . . .
C44 C 0.8026(4) 0.62352(15) 1.1206(3) 0.0271(9) Uani 1 1 d . . .
C45 C 0.8119(4) 0.62498(16) 1.1995(3) 0.0325(10) Uani 1 1 d . . .
H45 H 0.8429 0.5994 1.2384 0.039 Uiso 1 1 calc R . .
C46 C 0.7753(4) 0.66442(16) 1.2205(3) 0.0311(10) Uani 1 1 d . . .
H46 H 0.7809 0.6650 1.2743 0.037 Uiso 1 1 calc R . .
C47 C 0.7224(4) 0.70014(16) 1.0931(3) 0.0280(9) Uani 1 1 d . . .
H47 H 0.6916 0.7264 1.0558 0.034 Uiso 1 1 calc R . .
C48 C 0.7549(4) 0.66203(16) 1.0660(3) 0.0296(9) Uani 1 1 d . . .
H48 H 0.7448 0.6620 1.0107 0.036 Uiso 1 1 calc R . .
C49 C 0.7275(11) 0.4486(7) 0.7445(14) 0.265(16) Uani 1 1 d . . .
H49A H 0.7472 0.4377 0.8015 0.397 Uiso 1 1 calc R . .
H49B H 0.7433 0.4818 0.7476 0.397 Uiso 1 1 calc R . .
H49C H 0.7773 0.4322 0.7293 0.397 Uiso 1 1 calc R . .
C50 C 0.6030(19) 0.4399(4) 0.6790(11) 0.171(8) Uani 1 1 d . . .
H50A H 0.5553 0.4650 0.6819 0.206 Uiso 1 1 calc R . .
H50B H 0.5802 0.4108 0.6945 0.206 Uiso 1 1 calc R . .
C51 C 0.4338(12) 0.4318(4) 0.5143(9) 0.126(4) Uani 1 1 d . . .
H51A H 0.4017 0.4022 0.5197 0.151 Uiso 1 1 calc R . .
H51B H 0.3882 0.4574 0.5185 0.151 Uiso 1 1 calc R . .
C52 C 0.4229(14) 0.4339(4) 0.4297(8) 0.140(5) Uani 1 1 d . . .
H52A H 0.4620 0.4620 0.4278 0.210 Uiso 1 1 calc R . .
H52B H 0.3376 0.4343 0.3814 0.210 Uiso 1 1 calc R . .
H52C H 0.4619 0.4069 0.4241 0.210 Uiso 1 1 calc R . .
C53 C 1.2446(13) 0.0821(6) 1.1206(9) 0.171(7) Uani 1 1 d . . .
H53A H 1.2080 0.0656 1.1466 0.257 Uiso 1 1 calc R . .
H53B H 1.2980 0.1063 1.1607 0.257 Uiso 1 1 calc R . .
H53C H 1.2912 0.0603 1.1101 0.257 Uiso 1 1 calc R . .
C54 C 1.1578(17) 0.1011(5) 1.0443(12) 0.172(7) Uani 1 1 d . . .
H54A H 1.1918 0.1125 1.0119 0.207 Uiso 1 1 calc R . .
H54B H 1.1207 0.1274 1.0552 0.207 Uiso 1 1 calc R . .
C55 C 0.9575(16) 0.0716(6) 0.8938(11) 0.168(7) Uani 1 1 d . . .
H55A H 0.9193 0.1014 0.8909 0.202 Uiso 1 1 calc R . .
H55B H 0.9920 0.0748 0.8585 0.202 Uiso 1 1 calc R . .
C56 C 0.8734(15) 0.0393(11) 0.8581(12) 0.292(18) Uani 1 1 d . . .
H56A H 0.8307 0.0406 0.7941 0.439 Uiso 1 1 calc R . .
H56B H 0.8164 0.0445 0.8746 0.439 Uiso 1 1 calc R . .
H56C H 0.9110 0.0089 0.8791 0.439 Uiso 1 1 calc R . .
C57 C 0.1966(12) 0.6095(6) 0.4303(12) 0.199(9) Uani 1 1 d . . .
H57A H 0.2174 0.6009 0.3888 0.298 Uiso 1 1 calc R . .
H57B H 0.2695 0.6094 0.4899 0.298 Uiso 1 1 calc R . .
H57C H 0.1608 0.6404 0.4160 0.298 Uiso 1 1 calc R . .
C58 C 0.2283(14) 0.5352(6) 0.4878(10) 0.207(8) Uani 1 1 d . . .
H58A H 0.2015 0.5104 0.5093 0.311 Uiso 1 1 calc R . .
H58B H 0.2966 0.5513 0.5377 0.311 Uiso 1 1 calc R . .
H58C H 0.2531 0.5220 0.4513 0.311 Uiso 1 1 calc R . .

loop_
_atom_site_aniso_label
_atom_site_aniso_U_11
_atom_site_aniso_U_22
_atom_site_aniso_U_33
_atom_site_aniso_U_23
_atom_site_aniso_U_13
_atom_site_aniso_U_12
Co1 0.0198(3) 0.0240(3) 0.0164(3) 0.0017(2) 0.0092(2) -0.0014(2)
S1 0.109(2) 0.154(3) 0.108(2) -0.033(2) 0.0554(19) -0.015(2)
N1 0.0209(16) 0.0254(18) 0.0190(16) 0.0014(13) 0.0080(14) -0.0023(13)
N2 0.0184(16) 0.044(2) 0.0225(18) -0.0071(16) 0.0106(14) -0.0038(15)
N3 0.042(2) 0.031(2) 0.026(2) -0.0036(16) 0.0099(18) 0.0134(17)
N4 0.0211(16) 0.0260(18) 0.0182(16) -0.0020(13) 0.0108(14) -0.0001(13)
N5 0.0236(17) 0.0235(18) 0.0204(17) 0.0010(13) 0.0114(14) -0.0023(13)
N6 0.0206(17) 0.046(2) 0.0245(19) -0.0118(17) 0.0087(15) -0.0038(16)
N7 0.039(2) 0.037(2) 0.0223(19) -0.0079(16) 0.0123(17) 0.0077(17)
N8 0.0252(17) 0.0261(18) 0.0241(18) -0.0047(14) 0.0125(15) -0.0010(14)
N9 0.0204(18) 0.047(3) 0.033(2) -0.0065(18) 0.0124(16) 0.0005(16)
N10 0.0225(18) 0.045(2) 0.0230(18) -0.0040(16) 0.0114(15) 0.0027(16)
O1 0.0264(17) 0.103(3) 0.0254(17) -0.0172(19) 0.0153(15) -0.0248(19)
O2 0.0363(18) 0.0346(18) 0.0236(16) -0.0110(13) 0.0057(14) 0.0100(14)
O3 0.044(2) 0.040(2) 0.040(2) -0.0108(17) -0.0007(17) 0.0158(17)
O4 0.0240(16) 0.059(2) 0.0277(17) -0.0079(15) 0.0112(14) 0.0033(15)
O5 0.0372(19) 0.050(2) 0.0259(17) -0.0176(15) 0.0002(15) 0.0185(16)
O6 0.0454(19) 0.0302(17) 0.0254(16) -0.0058(13) 0.0160(15) 0.0015(14)
O7 0.0429(19) 0.049(2) 0.0294(17) 0.0004(15) 0.0226(16) 0.0114(16)
O8 0.068(3) 0.062(3) 0.080(3) -0.010(2) 0.056(3) -0.025(2)
O9 0.058(3) 0.067(3) 0.060(3) -0.008(2) 0.036(2) 0.019(2)
O10 0.0293(16) 0.0384(18) 0.0314(17) 0.0031(13) 0.0214(14) 0.0048(13)
O11 0.074(3) 0.072(3) 0.086(3) -0.037(3) 0.064(3) -0.018(2)
O12 0.0375(18) 0.052(2) 0.0390(19) -0.0011(16) 0.0273(16) -0.0042(16)
O13 0.165(8) 0.094(5) 0.134(7) 0.001(4) 0.107(6) 0.006(5)
O14 0.184(10) 0.187(11) 0.175(10) 0.047(9) 0.102(9) 0.049(9)
O15 0.119(5) 0.078(4) 0.037(2) -0.019(2) 0.001(3) 0.035(3)
O16W 0.211(14) 0.265(17) 0.39(2) 0.049(17) 0.202(17) 0.081(12)
C1 0.028(2) 0.036(2) 0.022(2) -0.0006(18) 0.0144(18) -0.0001(18)
C2 0.022(2) 0.043(3) 0.025(2) -0.0028(19) 0.0136(17) -0.0036(18)
C3 0.024(2) 0.027(2) 0.0202(19) -0.0023(16) 0.0105(17) -0.0029(16)
C4 0.025(2) 0.047(3) 0.020(2) -0.0045(19) 0.0132(17) -0.0079(19)
C5 0.022(2) 0.043(3) 0.024(2) -0.0016(18) 0.0123(17) -0.0081(18)
C6 0.023(2) 0.044(3) 0.019(2) -0.0036(18) 0.0107(17) -0.0049(18)
C7 0.026(2) 0.029(2) 0.0210(19) -0.00