####################################################################### 
# 
# This file contains crystal structure data downloaded from the 
# Cambridge Structural Database (CSD) hosted by the Cambridge 
# Crystallographic Data Centre (CCDC).
# 
# Full information about CCDC data access policies and citation 
# guidelines are available at http://www.ccdc.cam.ac.uk/access/V1 
# 
# Audit and citation data items may have been added by the CCDC. 
# Please retain this information to preserve the provenance of 
# this file and to allow appropriate attribution of the data. 
# 
#######################################################################

data_Re6Te8Cu2tab2
_audit_block_doi                 10.5517/cc6ygxh
_database_code_depnum_ccdc_archive 'CCDC 207077'
loop_
_citation_id
_citation_doi
_citation_year
1 10.1002/anie.200351595 2004
_audit_update_record             
;
2003-03-27 deposited with the CCDC.	2024-07-08 downloaded from the CCDC.
;

_audit_creation_method           SHELXL-97
_chemical_name_systematic        
; 
? 
;
_chemical_name_common            ?
_chemical_melting_point          ?
_chemical_formula_moiety         ?
_chemical_formula_sum            'C14 H55 Cu2 N14 O13.50 Re6 Te8'
_chemical_formula_weight         2900.80

loop_
_atom_type_symbol
_atom_type_description
_atom_type_scat_dispersion_real
_atom_type_scat_dispersion_imag
_atom_type_scat_source
C C 0.0033 0.0016 'International Tables Vol C Tables 4.2.6.8 and 6.1.1.4'
H H 0.0000 0.0000 'International Tables Vol C Tables 4.2.6.8 and 6.1.1.4'
N N 0.0061 0.0033 'International Tables Vol C Tables 4.2.6.8 and 6.1.1.4'
O O 0.0106 0.0060 'International Tables Vol C Tables 4.2.6.8 and 6.1.1.4'
Cu Cu 0.3201 1.2651 'International Tables Vol C Tables 4.2.6.8 and 6.1.1.4'
Te Te -0.5308 1.6751 'International Tables Vol C Tables 4.2.6.8 and 6.1.1.4'
Re Re -1.0185 7.2310 'International Tables Vol C Tables 4.2.6.8 and 6.1.1.4'

_symmetry_cell_setting           orthorombic
_symmetry_space_group_name_H-M   P2(1)2(1)2(1)

loop_
_symmetry_equiv_pos_as_xyz
'x, y, z'
'-x+1/2, -y, z+1/2'
'-x, y+1/2, -z+1/2'
'x+1/2, -y+1/2, -z'

_cell_length_a                   13.767(3)
_cell_length_b                   19.692(4)
_cell_length_c                   21.780(4)
_cell_angle_alpha                90.00
_cell_angle_beta                 90.00
_cell_angle_gamma                90.00
_cell_volume                     5905(2)
_cell_formula_units_Z            4
_cell_measurement_temperature    293(2)
_cell_measurement_reflns_used    25
_cell_measurement_theta_min      15
_cell_measurement_theta_max      25

_exptl_crystal_description       ?
_exptl_crystal_colour            'dark red'
_exptl_crystal_size_max          0.08
_exptl_crystal_size_mid          0.08
_exptl_crystal_size_min          0.08
_exptl_crystal_density_meas      ?
_exptl_crystal_density_diffrn    3.263
_exptl_crystal_density_method    'not measured'
_exptl_crystal_F_000             5076
_exptl_absorpt_coefficient_mu    16.878
_exptl_absorpt_correction_type   Semiempirical
_exptl_absorpt_correction_T_min  0.573
_exptl_absorpt_correction_T_max  0.909
_exptl_absorpt_process_details   ?

_exptl_special_details           
; 
? 
;

_diffrn_ambient_temperature      293(2)
_diffrn_radiation_wavelength     0.71073
_diffrn_radiation_type           MoK\a
_diffrn_radiation_source         'fine-focus sealed tube'
_diffrn_radiation_monochromator  graphite
_diffrn_measurement_device_type  ?
_diffrn_measurement_method       ?
_diffrn_detector_area_resol_mean ?
_diffrn_standards_number         ?
_diffrn_standards_interval_count ?
_diffrn_standards_interval_time  ?
_diffrn_standards_decay_%        ?
_diffrn_reflns_number            11477
_diffrn_reflns_av_R_equivalents  0.0578
_diffrn_reflns_av_sigmaI/netI    0.1480
_diffrn_reflns_limit_h_min       0
_diffrn_reflns_limit_h_max       16
_diffrn_reflns_limit_k_min       0
_diffrn_reflns_limit_k_max       23
_diffrn_reflns_limit_l_min       -25
_diffrn_reflns_limit_l_max       25
_diffrn_reflns_theta_min         2.14
_diffrn_reflns_theta_max         25.02
_reflns_number_total             10406
_reflns_number_gt                5024
_reflns_threshold_expression     >2sigma(I)

_computing_data_collection       'Siemens P4'
_computing_cell_refinement       'Siemens P4'
_computing_data_reduction        XDISK
_computing_structure_solution    'SHELXS-97 (Sheldrick, 1990)'
_computing_structure_refinement  'SHELXL-97 (Sheldrick, 1997)'
_computing_molecular_graphics    ?
_computing_publication_material  ?

_refine_special_details          
; 
Refinement of F^2^ against ALL reflections.  The weighted R-factor wR and 
goodness of fit S are based on F^2^, conventional R-factors R are based 
on F, with F set to zero for negative F^2^. The threshold expression of 
F^2^ > 2sigma(F^2^) is used only for calculating R-factors(gt) etc. and is 
not relevant to the choice of reflections for refinement.  R-factors based 
on F^2^ are statistically about twice as large as those based on F, and R- 
factors based on ALL data will be even larger. 
;

_refine_ls_structure_factor_coef Fsqd
_refine_ls_matrix_type           full
_refine_ls_weighting_scheme      calc
_refine_ls_weighting_details     
; calc 
[1.00000+0.00000exp(0.00(sin\q/\l)^2^)]/ 
[\s^2^(Fo^2^)+0.0000+0.0000*P+(0.0360P)^2^+0.0000sin\q/\l] 
where P = 1.00000Fo^2^ + 0.00000Fc^2^ 
;
_atom_sites_solution_primary     direct
_atom_sites_solution_secondary   difmap
_atom_sites_solution_hydrogens   geom
_refine_ls_hydrogen_treatment    mixed
_refine_ls_extinction_method     SHELXL
_refine_ls_extinction_coef       0.000047(8)
_refine_ls_extinction_expression Fc^*^=kFc[1+0.001xFc^2^\l^3^/sin(2\q)]^-1/4^
_refine_ls_abs_structure_details 'Flack H D (1983), Acta Cryst. A39, 876-881'
_refine_ls_abs_structure_Flack   0.03(2)
_refine_ls_number_reflns         10406
_refine_ls_number_parameters     473
_refine_ls_number_restraints     168
_refine_ls_R_factor_all          0.1729
_refine_ls_R_factor_gt           0.0725
_refine_ls_wR_factor_ref         0.1407
_refine_ls_wR_factor_gt          0.1115
_refine_ls_goodness_of_fit_ref   1.006
_refine_ls_restrained_S_all      0.998
_refine_ls_shift/su_max          0.074
_refine_ls_shift/su_mean         0.002

loop_
_atom_site_label
_atom_site_type_symbol
_atom_site_fract_x
_atom_site_fract_y
_atom_site_fract_z
_atom_site_U_iso_or_equiv
_atom_site_adp_type
_atom_site_occupancy
_atom_site_symmetry_multiplicity
_atom_site_calc_flag
_atom_site_refinement_flags
_atom_site_disorder_assembly
_atom_site_disorder_group
Re1 Re 0.24740(13) 0.58436(8) -0.18010(7) 0.0309(4) Uani 1 1 d . . .
Re2 Re 0.12459(14) 0.57979(8) -0.27621(8) 0.0335(4) Uani 1 1 d . . .
Re3 Re 0.12534(14) 0.44351(8) -0.27084(8) 0.0337(5) Uani 1 1 d . . .
Re4 Re 0.24728(13) 0.44839(8) -0.17577(8) 0.0331(4) Uani 1 1 d . . .
Re5 Re 0.07864(10) 0.51683(9) -0.17129(7) 0.0338(4) Uani 1 1 d . . .
Re6 Re 0.29348(10) 0.51165(9) -0.28033(7) 0.0324(4) Uani 1 1 d . . .
Te1 Te 0.0781(2) 0.65320(14) -0.17654(14) 0.0423(8) Uani 1 1 d . . .
Te2 Te 0.17083(18) 0.50584(14) -0.37655(10) 0.0409(7) Uani 1 1 d . . .
Te3 Te -0.04402(17) 0.51121(16) -0.26737(11) 0.0467(7) Uani 1 1 d . . .
Te4 Te 0.20055(18) 0.52017(15) -0.07465(10) 0.0380(6) Uani 1 1 d . . .
Te5 Te 0.41700(17) 0.51609(16) -0.18453(11) 0.0416(7) Uani 1 1 d . . .
Te6 Te 0.0779(2) 0.37988(15) -0.16560(13) 0.0451(8) Uani 1 1 d . . .
Te7 Te 0.2944(2) 0.37502(14) -0.27494(14) 0.0468(8) Uani 1 1 d . . .
Te8 Te 0.2944(2) 0.64830(14) -0.28529(13) 0.0402(7) Uani 1 1 d . . .
Cu1 Cu 0.3453(3) 0.7538(3) 0.0035(2) 0.0372(12) Uani 1 1 d . . .
Cu2 Cu 0.3431(3) 0.2583(3) -0.0152(2) 0.0353(12) Uani 1 1 d . . .
C1 C 0.314(3) 0.6606(18) -0.1271(15) 0.025(9) Uani 1 1 d U . .
C2 C 0.055(3) 0.651(2) -0.3297(19) 0.046(12) Uani 1 1 d U . .
C3 C 0.060(3) 0.366(2) -0.3247(19) 0.041(10) Uani 1 1 d U . .
C4 C 0.315(3) 0.378(2) -0.127(2) 0.053(12) Uani 1 1 d U . .
C5 C -0.044(3) 0.521(2) -0.1146(18) 0.061(12) Uani 1 1 d U . .
C6 C 0.409(3) 0.508(3) -0.3424(18) 0.062(12) Uani 1 1 d U . .
C11 C 0.487(3) 0.8567(19) -0.0166(17) 0.039(10) Uani 1 1 d U . .
H11G H 0.4955 0.8772 0.0235 0.047 Uiso 1 1 calc R . .
H11H H 0.5144 0.8877 -0.0467 0.047 Uiso 1 1 calc R . .
C12 C 0.547(3) 0.7895(19) -0.0185(19) 0.039(10) Uani 1 1 d U . .
H12G H 0.5432 0.7742 -0.0613 0.047 Uiso 1 1 calc R . .
C13 C 0.201(3) 0.6622(19) 0.0524(16) 0.036(10) Uani 1 1 d U . .
H13G H 0.1803 0.6152 0.0507 0.043 Uiso 1 1 calc R . .
H13H H 0.1865 0.6795 0.0930 0.043 Uiso 1 1 calc R . .
C14 C 0.147(3) 0.7019(18) 0.0062(16) 0.031(9) Uani 1 1 d U . .
H14G H 0.1537 0.6787 -0.0334 0.037 Uiso 1 1 calc R . .
C21 C 0.201(2) 0.3511(16) 0.0315(15) 0.025(8) Uani 1 1 d U . .
H21G H 0.1771 0.3764 0.0667 0.029 Uiso 1 1 calc R . .
H21H H 0.1896 0.3780 -0.0052 0.029 Uiso 1 1 calc R . .
C22 C 0.149(2) 0.2850(16) 0.0267(14) 0.019(8) Uani 1 1 d U . .
H22E H 0.1567 0.2600 0.0653 0.023 Uiso 1 1 calc R . .
C23 C 0.491(3) 0.179(2) -0.0693(16) 0.043(11) Uani 1 1 d U . .
H23G H 0.5114 0.2062 -0.1040 0.052 Uiso 1 1 calc R . .
H23H H 0.5104 0.1324 -0.0769 0.052 Uiso 1 1 calc R . .
C24 C 0.538(2) 0.2035(16) -0.0139(15) 0.019(8) Uani 1 1 d U . .
H24H H 0.5296 0.1706 0.0195 0.022 Uiso 1 1 calc R . .
N2 N 0.015(3) 0.6919(16) -0.3630(14) 0.043(10) Uani 1 1 d U . .
N3 N 0.021(3) 0.3235(17) -0.3494(16) 0.062(13) Uani 1 1 d U . .
N4 N 0.346(3) 0.7045(17) -0.0963(15) 0.048(10) Uani 1 1 d U . .
N5 N -0.112(2) 0.527(2) -0.0823(13) 0.078(13) Uani 1 1 d U . .
N6 N 0.472(2) 0.500(2) -0.3752(16) 0.083(13) Uani 1 1 d U . .
N7 N 0.352(3) 0.3294(18) -0.1015(15) 0.050(10) Uani 1 1 d U . .
N11 N 0.384(2) 0.8489(14) -0.0287(12) 0.032(8) Uani 1 1 d U . .
H11A H 0.3724 0.8521 -0.0692 0.038 Uiso 1 1 calc R . .
H11B H 0.3503 0.8814 -0.0092 0.038 Uiso 1 1 calc R . .
N12 N 0.488(2) 0.7413(14) 0.0160(12) 0.026(7) Uani 1 1 d U . .
H12A H 0.5021 0.7457 0.0562 0.031 Uiso 1 1 calc R . .
H12B H 0.5049 0.6989 0.0045 0.031 Uiso 1 1 calc R . .
N13 N 0.310(3) 0.6654(18) 0.0420(17) 0.062(11) Uani 1 1 d U . .
H13A H 0.3286 0.6311 0.0174 0.075 Uiso 1 1 calc R . .
H13B H 0.3413 0.6610 0.0781 0.075 Uiso 1 1 calc R . .
N14 N 0.200(2) 0.7696(14) 0.0016(14) 0.037(8) Uani 1 1 d U . .
H14A H 0.1825 0.7964 0.0332 0.044 Uiso 1 1 calc R . .
H14B H 0.1834 0.7906 -0.0335 0.044 Uiso 1 1 calc R . .
N21 N 0.307(2) 0.3359(13) 0.0385(12) 0.021(6) Uani 1 1 d U . .
H21A H 0.3195 0.3256 0.0779 0.025 Uiso 1 1 calc R . .
H21B H 0.3416 0.3728 0.0282 0.025 Uiso 1 1 calc R . .
N22 N 0.198(2) 0.2482(16) -0.0224(13) 0.043(9) Uani 1 1 d U . .
H22A H 0.1786 0.2643 -0.0590 0.052 Uiso 1 1 calc R . .
H22B H 0.1825 0.2039 -0.0204 0.052 Uiso 1 1 calc R . .
N23 N 0.386(3) 0.1820(18) -0.0641(16) 0.066(11) Uani 1 1 d U . .
H23A H 0.3646 0.1433 -0.0469 0.079 Uiso 1 1 calc R . .
H23B H 0.3602 0.1851 -0.1019 0.079 Uiso 1 1 calc R . .
N24 N 0.488(2) 0.2683(15) 0.0018(14) 0.039(9) Uani 1 1 d U . .
H24A H 0.5124 0.3025 -0.0208 0.046 Uiso 1 1 calc R . .
H24B H 0.4974 0.2782 0.0417 0.046 Uiso 1 1 calc R . .
O1 O 0.828(4) 1.328(3) -0.086(2) 0.17(2) Uiso 1 1 d . . .
O2 O 0.330(3) 0.803(2) 0.1225(18) 0.112(14) Uiso 1 1 d . . .
O3 O 0.375(2) 1.0238(18) -0.0394(14) 0.095(11) Uiso 1 1 d . . .
O4 O 0.346(5) 0.793(3) 0.254(3) 0.25(3) Uiso 1 1 d . . .
O5 O 0.510(3) 0.577(2) -0.0066(19) 0.130(16) Uiso 1 1 d . . .
O6A O 0.337(9) 0.842(6) -0.217(5) 0.26(7) Uiso 0.55(7) 1 d P . .
O6B O 0.434(5) 0.863(3) -0.164(3) 0.07(3) Uiso 0.45(7) 1 d P . .
O7 O 0.463(2) 0.4414(18) -0.0139(15) 0.095(12) Uiso 1 1 d . . .
O8 O -0.159(4) 0.454(3) 0.215(3) 0.28(3) Uiso 1 1 d . . .
O9 O 0.641(4) 0.399(3) 0.074(2) 0.20(2) Uiso 1 1 d . . .
O10A O 0.173(5) 0.850(3) -0.114(4) 0.07(3) Uiso 0.50(9) 1 d P . .
O10B O 0.202(6) 0.831(4) -0.164(5) 0.11(4) Uiso 0.50(9) 1 d P . .
O11 O 0.527(3) 0.722(2) -0.1981(19) 0.153(18) Uiso 1 1 d . . .
O12 O 0.590(7) 0.375(5) -0.091(4) 0.15(4) Uiso 0.50 1 d P . .
O13A O 0.609(5) 0.641(3) -0.110(3) 0.10(3) Uiso 0.57(6) 1 d P . .
O13B O 0.683(7) 0.575(6) -0.054(5) 0.15(5) Uiso 0.43(6) 1 d P . .
O21 O 0.713(5) 0.519(5) 0.085(3) 0.16(3) Uiso 0.50 1 d P . .
O20 O -0.206(6) 0.463(5) 0.355(4) 0.19(4) Uiso 0.50 1 d P . .

loop_
_atom_site_aniso_label
_atom_site_aniso_U_11
_atom_site_aniso_U_22
_atom_site_aniso_U_33
_atom_site_aniso_U_23
_atom_site_aniso_U_13
_atom_site_aniso_U_12
Re1 0.0348(11) 0.0278(10) 0.0302(9) -0.0011(8) 0.0025(9) -0.0019(8)
Re2 0.0404(12) 0.0300(10) 0.0301(10) 0.0015(8) 0.0013(9) 0.0019(8)
Re3 0.0424(12) 0.0278(10) 0.0310(10) -0.0007(8) -0.0006(9) -0.0065(8)
Re4 0.0412(12) 0.0273(10) 0.0306(9) 0.0016(8) 0.0027(9) 0.0008(8)
Re5 0.0362(9) 0.0352(10) 0.0301(9) 0.0020(9) 0.0044(7) -0.0021(9)
Re6 0.0398(10) 0.0262(9) 0.0314(9) 0.0015(9) 0.0063(7) 0.0008(9)
Te1 0.0476(19) 0.0355(17) 0.0440(17) -0.0048(15) 0.0068(15) 0.0064(14)
Te2 0.0615(16) 0.0317(17) 0.0296(13) 0.0000(13) 0.0029(12) -0.0002(14)
Te3 0.0403(15) 0.0517(19) 0.0482(16) 0.0018(17) -0.0041(12) -0.0040(15)
Te4 0.0501(16) 0.0359(16) 0.0281(13) -0.0009(13) 0.0005(11) 0.0010(15)
Te5 0.0388(14) 0.0401(16) 0.0457(15) -0.0008(16) 0.0004(12) 0.0005(15)
Te6 0.055(2) 0.0394(19) 0.0407(17) 0.0069(14) 0.0027(16) -0.0127(15)
Te7 0.067(2) 0.0335(17) 0.0396(17) 0.0014(15) 0.0039(17) 0.0062(15)
Te8 0.053(2) 0.0290(16) 0.0385(17) 0.0029(13) 0.0105(15) -0.0094(14)
Cu1 0.020(3) 0.033(3) 0.059(3) 0.006(2) -0.013(2) 0.000(2)
Cu2 0.020(3) 0.043(3) 0.043(3) -0.012(3) 0.000(2) 0.000(2)
C1 0.025(9) 0.026(9) 0.024(9) 0.001(5) 0.001(5) -0.001(5)
C2 0.046(12) 0.045(12) 0.047(12) -0.002(5) 0.002(5) -0.001(5)
C3 0.041(11) 0.041(11) 0.041(11) 0.002(5) 0.001(5) -0.001(5)
C4 0.053(13) 0.052(13) 0.053(13) 0.001(5) 0.002(5) 0.000(5)
C5 0.061(13) 0.062(13) 0.061(13) 0.002(5) 0.000(5) -0.001(5)
C6 0.063(13) 0.062(13) 0.063(13) 0.000(5) 0.002(5) -0.001(5)
C11 0.038(11) 0.038(11) 0.042(11) 0.002(5) -0.001(5) -0.001(5)
C12 0.038(11) 0.038(11) 0.041(11) 0.000(5) 0.001(5) 0.000(5)
C13 0.034(11) 0.035(11) 0.037(11) 0.000(5) 0.000(5) 0.000(5)
C14 0.030(10) 0.031(10) 0.031(10) 0.002(5) 0.000(5) -0.001(5)
C21 0.024(9) 0.025(9) 0.025(9) 0.001(5) 0.000(5) -0.001(5)
C22 0.020(9) 0.019(9) 0.018(9) 0.000(5) 0.001(5) 0.002(5)
C23 0.043(11) 0.042(11) 0.044(11) 0.000(5) 0.002(5) 0.000(5)
C24 0.016(9) 0.018(9) 0.021(9) -0.001(5) -0.002(5) 0.000(5)
N2 0.06(2) 0.04(2) 0.032(19) 0.026(16) 0.003(17) 0.029(18)
N3 0.10(3) 0.04(2) 0.05(2) -0.005(18) 0.02(2) -0.05(2)
N4 0.048(11) 0.047(11) 0.048(11) 0.000(5) 0.001(5) 0.000(5)
N5 0.07(2) 0.13(4) 0.037(19) 0.01(2) 0.039(17) -0.04(3)
N6 0.06(2) 0.09(3) 0.10(3) 0.03(3) 0.03(2) 0.02(2)
N7 0.051(11) 0.048(11) 0.051(11) 0.001(5) -0.001(5) 0.001(5)
N11 0.030(9) 0.031(9) 0.035(9) 0.000(5) 0.002(5) 0.002(5)
N12 0.027(8) 0.026(8) 0.025(8) 0.003(5) -0.001(5) 0.001(5)
N13 0.061(12) 0.063(12) 0.062(12) 0.002(5) -0.001(5) -0.002(5)
N14 0.037(9) 0.035(9) 0.038(9) 0.001(5) -0.001(5) -0.003(5)
N21 0.019(8) 0.020(8) 0.023(8) 0.002(5) -0.002(5) 0.000(5)
N22 0.044(10) 0.043(10) 0.043(10) -0.002(5) -0.003(5) 0.001(5)
N23 0.066(12) 0.064(12) 0.067(12) 0.002(5) 0.000(5) -0.001(5)
N24 0.039(9) 0.039(10) 0.038(9) -0.001(5) -0.001(5) 0.000(5)

_geom_special_details            
; 
All esds (except the esd in the dihedral angle between two l.s. planes) 
are estimated using the full covariance matrix.  The cell esds are taken 
into account individually in the estimation of esds in distances, angles 
and torsion angles; correlations between esds in cell parameters are only 
used when they are defined by crystal symmetry.  An approximate (isotropic) 
treatment of cell esds is used for estimating esds involving l.s. planes. 
;

loop_
_geom_bond_atom_site_label_1
_geom_bond_atom_site_label_2
_geom_bond_distance
_geom_bond_site_symmetry_2
_geom_bond_publ_flag
Re1 C1 2.10(4) . ?
Re1 Re4 2.679(2) . ?
Re1 Re5 2.684(2) . ?
Re1 Re6 2.687(2) . ?
Re1 Re2 2.692(3) . ?
Re1 Te8 2.693(3) . ?
Re1 Te5 2.696(3) . ?
Re1 Te1 2.697(4) . ?
Re1 Te4 2.700(3) . ?
Re2 C2 2.07(4) . ?
Re2 Re5 2.676(2) . ?
Re2 Te1 2.686(3) . ?
Re2 Re6 2.686(2) . ?
Re2 Re3 2.686(2) . ?
Re2 Te3 2.692(3) . ?
Re2 Te2 2.702(3) . ?
Re2 Te8 2.707(4) . ?
Re3 C3 2.13(4) . ?
Re3 Re4 2.667(3) . ?
Re3 Re5 2.683(2) . ?
Re3 Te2 2.683(3) . ?
Re3 Re6 2.683(2) . ?
Re3 Te3 2.687(3) . ?
Re3 Te7 2.691(4) . ?
Re3 Te6 2.693(3) . ?
Re4 C4 1.98(4) . ?
Re4 Re6 2.672(2) . ?
Re4 Te7 2.678(3) . ?
Re4 Re5 2.686(2) . ?
Re4 Te4 2.695(3) . ?
Re4 Te5 2.697(3) . ?
Re4 Te6 2.703(4) . ?
Re5 C5 2.10(4) . ?
Re5 Te1 2.688(4) . ?
Re5 Te3 2.691(3) . ?
Re5 Te4 2.693(3) . ?
Re5 Te6 2.700(4) . ?
Re6 C6 2.09(4) . ?
Re6 Te5 2.693(3) . ?
Re6 Te7 2.693(4) . ?
Re6 Te8 2.693(3) . ?
Re6 Te2 2.694(3) . ?
Cu1 N13 1.99(3) . ?
Cu1 N12 2.00(3) . ?
Cu1 N14 2.03(3) . ?
Cu1 N11 2.07(3) . ?
Cu1 N4 2.38(3) . ?
Cu2 N23 1.94(3) . ?
Cu2 N21 1.99(3) . ?
Cu2 N22 2.01(3) . ?
Cu2 N24 2.04(3) . ?
Cu2 N7 2.35(3) . ?
C1 N4 1.18(4) . ?
C2 N2 1.21(5) . ?
C3 N3 1.13(5) . ?
C4 N7 1.22(5) . ?
C5 N5 1.17(4) . ?
C6 N6 1.13(4) . ?
C11 N11 1.45(4) . ?
C11 C12 1.55(5) . ?
C12 C14 1.42(5) 4_565 ?
C12 N12 1.45(4) . ?
C13 C14 1.48(5) . ?
C13 N13 1.52(5) . ?
C14 C12 1.42(5) 4_465 ?
C14 N14 1.52(4) . ?
C21 C22 1.49(4) . ?
C21 N21 1.50(4) . ?
C22 N22 1.46(4) . ?
C22 C24 1.57(5) 4_455 ?
C23 N23 1.44(4) . ?
C23 C24 1.45(4) . ?
C24 N24 1.49(4) . ?
C24 C22 1.57(5) 4 ?
O6A O6B 1.80(12) . ?
O10A O10B 1.21(8) . ?

loop_
_geom_angle_atom_site_label_1
_geom_angle_atom_site_label_2
_geom_angle_atom_site_label_3
_geom_angle
_geom_angle_site_symmetry_1
_geom_angle_site_symmetry_3
_geom_angle_publ_flag
C1 Re1 Re4 134.0(9) . . ?
C1 Re1 Re5 133.7(9) . . ?
Re4 Re1 Re5 60.12(7) . . ?
C1 Re1 Re6 136.4(9) . . ?
Re4 Re1 Re6 59.74(7) . . ?
Re5 Re1 Re6 89.91(7) . . ?
C1 Re1 Re2 136.3(9) . . ?
Re4 Re1 Re2 89.63(8) . . ?
Re5 Re1 Re2 59.70(6) . . ?
Re6 Re1 Re2 59.91(6) . . ?
C1 Re1 Te8 91.6(9) . . ?
Re4 Re1 Te8 119.82(10) . . ?
Re5 Re1 