####################################################################### 
# 
# This file contains crystal structure data downloaded from the 
# Cambridge Structural Database (CSD) hosted by the Cambridge 
# Crystallographic Data Centre (CCDC).
# 
# Full information about CCDC data access policies and citation 
# guidelines are available at http://www.ccdc.cam.ac.uk/access/V1 
# 
# Audit and citation data items may have been added by the CCDC. 
# Please retain this information to preserve the provenance of 
# this file and to allow appropriate attribution of the data. 
# 
#######################################################################

data_anan
_audit_block_doi                 10.5517/cc7bd64
_database_code_depnum_ccdc_archive 'CCDC 218525'
loop_
_citation_id
_citation_doi
_citation_year
1 10.1002/anie.200351595 2004
_audit_update_record             
;
2003-08-28 deposited with the CCDC.	2024-07-08 downloaded from the CCDC.
;

_audit_creation_date             2003-08-22T14:35:59-00:00
_audit_creation_method           'WinGX routine CIF_UPDATE'

#----------------------------------------------------------------------------#
#                   CHEMICAL INFORMATION                                     #
#----------------------------------------------------------------------------#

_chemical_name_systematic        
;
?
;
_chemical_formula_moiety         'C18 H49 Cu2 N19 O2 Re6 Se8'
_chemical_formula_sum            'C18 H49 Cu2 N19 O2 Re6 Se8'
_chemical_formula_weight         2439.72
_chemical_compound_source        'synthesis as described'
_chemical_absolute_configuration rmad

#----------------------------------------------------------------------------#
#                   UNIT CELL INFORMATION                                    #
#----------------------------------------------------------------------------#

_symmetry_cell_setting           triclinic
_symmetry_space_group_name_H-M   'P 1'
_symmetry_space_group_name_Hall  'P 1'
_symmetry_Int_Tables_number      1
loop_
_symmetry_equiv_pos_as_xyz
'x, y, z'

_cell_length_a                   10.819(5)
_cell_length_b                   11.069(5)
_cell_length_c                   13.175(5)
_cell_angle_alpha                107.947(5)
_cell_angle_beta                 110.968(5)
_cell_angle_gamma                92.593(5)
_cell_volume                     1380.0(10)
_cell_formula_units_Z            1
_cell_measurement_temperature    293(2)
_cell_measurement_reflns_used    34103
_cell_measurement_theta_min      0.998
_cell_measurement_theta_max      34.972
_cell_measurement_wavelength     0.71073

#----------------------------------------------------------------------------#
#                   CRYSTAL INFORMATION                                      #
#----------------------------------------------------------------------------#

_exptl_crystal_description       prism
_exptl_crystal_colour            greenish-brown
_exptl_crystal_size_max          0.1
_exptl_crystal_size_mid          0.08
_exptl_crystal_size_min          0.05
_exptl_crystal_density_diffrn    2.936
_exptl_crystal_density_method    'not measured'
_exptl_crystal_F_000             1105
loop_
_exptl_crystal_face_index_h
_exptl_crystal_face_index_k
_exptl_crystal_face_index_l
_exptl_crystal_face_perp_dist
-1 0 0 0.025
1 0 0 0.025
0 1 0 0.05
0 -1 0 0.05
12 -13 0 0.037
-7 16 -1 0.044
-14 3 1 0.027
-11 1 1 0.027
0 0 -1 0.015
1 -1 6 0.017
-5 4 7 0.035
-5 4 -6 0.026

_exptl_special_details           
;
?
;

#----------------------------------------------------------------------------#
#                   ABSORPTION CORRECTION                                    #
#----------------------------------------------------------------------------#

_exptl_absorpt_coefficient_mu    19.168
_exptl_absorpt_correction_type   analytical
_exptl_absorpt_process_details   
;
(see. N.W. Alcock (1970). Cryst. Computing, p271)
;
_exptl_absorpt_correction_T_min  0.234
_exptl_absorpt_correction_T_max  0.6079
_exptl_absorpt_correction_t_ave  0.4802

#----------------------------------------------------------------------------#
#                   DATA COLLECTION                                          #
#----------------------------------------------------------------------------#

_diffrn_source                   'Enraf Nonius FR590'
_diffrn_ambient_temperature      293(2)
_diffrn_radiation_wavelength     0.71069
_diffrn_radiation_type           MoK\a
_diffrn_radiation_monochromator  graphite
_diffrn_radiation_probe          x-ray
_diffrn_detector                 'CCD plate'
_diffrn_orient_matrix_type       'by Nonius Collect from scalepack cell'
_diffrn_orient_matrix_UB_11      0.219937E-1
_diffrn_orient_matrix_UB_12      -0.849203E-1
_diffrn_orient_matrix_UB_13      0.61331E-2
_diffrn_orient_matrix_UB_21      -0.502616E-1
_diffrn_orient_matrix_UB_22      -0.424648E-1
_diffrn_orient_matrix_UB_23      -0.856048E-1
_diffrn_orient_matrix_UB_31      0.842444E-1
_diffrn_orient_matrix_UB_32      0.169855E-1
_diffrn_orient_matrix_UB_33      -0.122056E-1
_diffrn_measurement_device       '95mm CCD camera on \k-goniostat'
_diffrn_measurement_device_type  KappaCCD
_diffrn_measurement_method       'CCD rotation images, thick slices'
_diffrn_reflns_av_R_equivalents  0.0587
_diffrn_reflns_av_unetI/netI     0.0533
_diffrn_reflns_number            53986
_diffrn_reflns_limit_h_min       -15
_diffrn_reflns_limit_h_max       15
_diffrn_reflns_limit_k_min       -15
_diffrn_reflns_limit_k_max       15
_diffrn_reflns_limit_l_min       -18
_diffrn_reflns_limit_l_max       18
_diffrn_reflns_theta_min         1.96
_diffrn_reflns_theta_max         30.51
_diffrn_reflns_theta_full        30.51
_diffrn_measured_fraction_theta_full 0.999
_diffrn_measured_fraction_theta_max 0.999
_reflns_number_total             16722
_reflns_number_gt                11852
_reflns_threshold_expression     >2sigma(I)

#----------------------------------------------------------------------------#
#                   COMPUTER PROGRAMS USED                                   #
#----------------------------------------------------------------------------#

_computing_data_collection       'Collect (Nonius BV, 1997-2000)'
_computing_cell_refinement       'HKL Scalepack (Otwinowski & Minor 1997)'
_computing_data_reduction        
'HKL Denzo and Scalepack (Otwinowski & Minor 1997)'
_computing_structure_solution    'SHELXS-97 (Sheldrick, 1990)'
_computing_structure_refinement  'SHELXL-97 (Sheldrick, 1997)'
_computing_molecular_graphics    'Ortep-3 for Windows (Farrugia, 1997)'
_computing_publication_material  'WinGX publication routines (Farrugia, 1999)'

#----------------------------------------------------------------------------#
#                   REFINEMENT INFORMATION                                   #
#----------------------------------------------------------------------------#

_refine_special_details          
;
Refinement of F^2^ against ALL reflections.  The weighted R-factor wR and
goodness of fit S are based on F^2^, conventional R-factors R are based
on F, with F set to zero for negative F^2^. The threshold expression of
F^2^ > 2sigma(F^2^) is used only for calculating R-factors(gt) etc. and is
not relevant to the choice of reflections for refinement.  R-factors based
on F^2^ are statistically about twice as large as those based on F, and R-
factors based on ALL data will be even larger.
;
_refine_ls_structure_factor_coef Fsqd
_refine_ls_matrix_type           full
_refine_ls_weighting_scheme      calc
_refine_ls_weighting_details     
'calc w=1/[\s^2^(Fo^2^)+(0.0639P)^2^+3.6680P] where P=(Fo^2^+2Fc^2^)/3'
_atom_sites_solution_primary     direct
_atom_sites_solution_secondary   difmap
_atom_sites_solution_hydrogens   geom
_refine_ls_hydrogen_treatment    mixed
_refine_ls_extinction_method     SHELXL
_refine_ls_extinction_expression Fc^*^=kFc[1+0.001xFc^2^\l^3^/sin(2\q)]^-1/4^
_refine_ls_extinction_coef       0.00141(11)
_refine_ls_number_reflns         16722
_refine_ls_number_parameters     445
_refine_ls_number_restraints     4
_refine_ls_R_factor_all          0.0687
_refine_ls_R_factor_gt           0.0434
_refine_ls_wR_factor_ref         0.1344
_refine_ls_wR_factor_gt          0.1196
_refine_ls_goodness_of_fit_ref   1.03
_refine_ls_restrained_S_all      1.031
_refine_ls_shift/su_max          0.003
_refine_ls_shift/su_mean         0
_refine_ls_abs_structure_details 'Flack H D (1983), Acta Cryst. A39, 876-881'
_refine_ls_abs_structure_Flack   -0.006(13)
_refine_diff_density_max         2.225
_refine_diff_density_min         -1.491
_refine_diff_density_rms         0.26

#----------------------------------------------------------------------------#
#                   ATOMIC TYPES, COORDINATES AND THERMAL PARAMETERS         #
#----------------------------------------------------------------------------#

loop_
_atom_type_symbol
_atom_type_description
_atom_type_scat_dispersion_real
_atom_type_scat_dispersion_imag
_atom_type_scat_source
C C 0.0033 0.0016 'International Tables Vol C Tables 4.2.6.8 and 6.1.1.4'
H H 0 0 'International Tables Vol C Tables 4.2.6.8 and 6.1.1.4'
N N 0.0061 0.0033 'International Tables Vol C Tables 4.2.6.8 and 6.1.1.4'
O O 0.0106 0.006 'International Tables Vol C Tables 4.2.6.8 and 6.1.1.4'
Se Se -0.0929 2.2259 'International Tables Vol C Tables 4.2.6.8 and 6.1.1.4'
Re Re -1.0185 7.231 'International Tables Vol C Tables 4.2.6.8 and 6.1.1.4'
Cu Cu 0.3201 1.2651 'International Tables Vol C Tables 4.2.6.8 and 6.1.1.4'

loop_
_atom_site_label
_atom_site_type_symbol
_atom_site_fract_x
_atom_site_fract_y
_atom_site_fract_z
_atom_site_U_iso_or_equiv
_atom_site_adp_type
_atom_site_occupancy
_atom_site_calc_flag
_atom_site_refinement_flags
_atom_site_disorder_assembly
_atom_site_disorder_group
Re1 Re -2.21851(4) 1.01231(4) 0.10810(4) 0.03419(16) Uani 1 d . . .
Re2 Re -2.28018(4) 1.23839(4) 0.19369(4) 0.03709(17) Uani 1 d . . .
Re3 Re -2.12075(4) 1.21663(4) 0.08064(4) 0.03584(16) Uani 1 d . . .
Re4 Re -2.36640(4) 1.26137(5) -0.01201(5) 0.03827(17) Uani 1 d . . .
Re5 Re -2.30555(4) 1.03495(4) -0.09873(4) 0.03557(16) Uani 1 d . . .
Re6 Re -2.46395(4) 1.05636(4) 0.01486(4) 0.03692(17) Uani 1 d . . .
Se1 Se -2.21007(15) 1.23592(17) -0.11833(16) 0.0436(4) Uani 1 d . . .
Se2 Se -2.53961(15) 1.08195(18) -0.18083(16) 0.0490(5) Uani 1 d . . .
Se3 Se -2.51669(15) 1.27547(17) 0.09888(17) 0.0468(4) Uani 1 d . . .
Se4 Se -2.39775(14) 0.84231(15) -0.06583(14) 0.0411(4) Uani 1 d . . .
Se5 Se -2.37355(15) 1.03952(17) 0.21516(16) 0.0432(4) Uani 1 d . . .
Se6 Se -2.07039(14) 0.99625(16) -0.00541(15) 0.0404(4) Uani 1 d . . .
Se7 Se -2.18592(15) 1.43046(16) 0.16163(16) 0.0462(4) Uani 1 d . . .
Se8 Se -2.04579(14) 1.19212(16) 0.27691(14) 0.0433(4) Uani 1 d . . .
C1 C -2.1288(18) 0.8841(18) 0.1847(15) 0.059(4) Uani 1 d . . .
C2 C -2.2742(15) 1.3497(13) 0.3555(14) 0.048(4) Uani 1 d . . .
C3 C -1.9232(14) 1.3083(16) 0.1300(16) 0.053(4) Uani 1 d . . .
C4 C -2.4520(15) 1.4041(14) -0.0784(17) 0.053(4) Uani 1 d . . .
C5 C -2.3286(13) 0.9166(16) -0.2659(13) 0.046(4) Uani 1 d . . .
C6 C -2.6615(13) 0.9636(14) -0.0263(16) 0.054(4) Uani 1 d . . .
N1 N -2.0764(16) 0.8077(15) 0.2301(16) 0.074(5) Uani 1 d . . .
N2 N -2.2782(18) 1.4073(19) 0.4401(18) 0.086(5) Uani 1 d . . .
N3 N -1.8161(12) 1.3676(15) 0.1629(15) 0.064(4) Uani 1 d . . .
N4 N -2.5070(17) 1.4722(19) -0.1147(18) 0.082(5) Uani 1 d . . .
N5 N -2.3437(14) 0.8533(14) -0.3593(12) 0.057(4) Uani 1 d . . .
N6 N -2.7624(13) 0.9178(15) -0.0521(18) 0.082(6) Uani 1 d . . .
Cu1 Cu -2.31770(14) 0.6324(2) -0.46281(18) 0.0455(4) Uani 1 d . . .
Cu2 Cu -2.81969(14) 0.6328(2) -0.96324(18) 0.0479(4) Uani 1 d . . .
C11 C -2.4602(9) 0.6812(10) -0.6741(9) 0.036(2) Uani 1 d . . .
H11A H -2.4671 0.7708 -0.6375 0.043 Uiso 1 calc R . .
N11 N -2.4791(9) 0.6063(11) -0.6025(10) 0.043(2) Uani 1 d . . .
H11B H -2.5019 0.5218 -0.6458 0.051 Uiso 1 calc R . .
H11C H -2.5474 0.6297 -0.5815 0.051 Uiso 1 calc R . .
C12 C -2.3157(10) 0.6779(13) -0.6652(10) 0.043(3) Uani 1 d . . .
H12A H -2.3086 0.5925 -0.7096 0.051 Uiso 1 calc R . .
H12B H -2.29 0.739 -0.6965 0.051 Uiso 1 calc R . .
N12 N -2.2268(9) 0.7114(11) -0.5434(10) 0.047(3) Uani 1 d . . .
H12C H -2.2073 0.7977 -0.5086 0.056 Uiso 1 calc R . .
H12D H -2.1494 0.6819 -0.5381 0.056 Uiso 1 calc R . .
C13 C -2.5582(11) 0.6351(10) -0.7955(9) 0.033(2) Uani 1 d . . .
H13A H -2.5458 0.5477 -0.8328 0.04 Uiso 1 calc R . .
N13 N -2.6975(9) 0.6279(11) -0.8095(9) 0.044(2) Uani 1 d . . .
H13B H -2.7043 0.6943 -0.7528 0.053 Uiso 1 calc R . .
H13C H -2.7246 0.5544 -0.8017 0.053 Uiso 1 calc R . .
C14 C -2.5358(11) 0.7191(13) -0.8656(12) 0.050(3) Uani 1 d . . .
H14A H -2.5326 0.8091 -0.8241 0.06 Uiso 1 calc R . .
H14B H -2.4505 0.7106 -0.8734 0.06 Uiso 1 calc R . .
N14 N -2.6456(10) 0.6780(12) -0.9819(10) 0.049(3) Uani 1 d . . .
H14C H -2.6302 0.6089 -1.0305 0.059 Uiso 1 calc R . .
H14D H -2.6515 0.7421 -1.0111 0.059 Uiso 1 calc R . .
C21 C -2.1067(11) 0.6087(12) -0.0344(10) 0.045(3) Uani 1 d . . .
H21A H -2.1235 0.6957 -0.0063 0.055 Uiso 1 calc R . .
H21B H -2.1859 0.5485 -0.0522 0.055 Uiso 1 calc R . .
N21 N -1.9899(9) 0.5880(12) 0.0541(10) 0.046(3) Uani 1 d . . .
H21C H -2.0008 0.5047 0.0484 0.055 Uiso 1 calc R . .
H21D H -1.9842 0.6367 0.1248 0.055 Uiso 1 calc R . .
C22 C -2.0772(9) 0.5882(11) -0.1425(9) 0.034(2) Uani 1 d . . .
H22A H -2.0765 0.4963 -0.1771 0.041 Uiso 1 calc R . .
N22 N -1.9426(9) 0.6608(11) -0.1060(10) 0.048(3) Uani 1 d . . .
H22B H -1.9458 0.7453 -0.091 0.057 Uiso 1 calc R . .
H22C H -1.9119 0.6335 -0.1628 0.057 Uiso 1 calc R . .
C23 C -2.3159(11) 0.5348(13) -0.2851(11) 0.051(3) Uani 1 d . . .
H23A H -2.3006 0.4473 -0.3134 0.061 Uiso 1 calc R . .
H23B H -2.3528 0.5409 -0.2269 0.061 Uiso 1 calc R . .
N23 N -2.4103(10) 0.5676(13) -0.3814(9) 0.052(3) Uani 1 d . . .
H23C H -2.4542 0.6279 -0.3535 0.063 Uiso 1 calc R . .
H23D H -2.4715 0.497 -0.432 0.063 Uiso 1 calc R . .
C24 C -2.1847(9) 0.6294(10) -0.2328(8) 0.033(2) Uani 1 d . . .
H24A H -2.2007 0.7134 -0.1916 0.039 Uiso 1 calc R . .
N24 N -2.1540(10) 0.6424(12) -0.3235(10) 0.049(3) Uani 1 d . . .
H24B H -2.1086 0.5798 -0.3448 0.059 Uiso 1 calc R . .
H24C H -2.0998 0.7188 -0.2981 0.059 Uiso 1 calc R . .
N31 N -1.8157(13) 1.3983(10) -0.0764(11) 0.071(4) Uani 1 d . . .
H31C H -1.7358 1.4104 -0.0819 0.085 Uiso 1 calc R . .
H31D H -1.8315 1.4624 -0.0234 0.085 Uiso 1 calc R . .
C31 C -1.8866(13) 1.2649(10) -0.1124(11) 0.257(10) Uiso 0.71(2) d PR . .
H31A H -1.9705 1.2662 -0.1012 0.309 Uiso 0.71(2) calc PR . .
H31B H -1.8313 1.2185 -0.067 0.309 Uiso 0.71(2) calc PR . .
C32 C -1.9142(13) 1.1990(10) -0.2429(11) 0.257(10) Uiso 0.71(2) d PR . .
H32A H -1.8301 1.1794 -0.2511 0.309 Uiso 0.71(2) calc PR . .
N32 N -1.9711(13) 1.2932(10) -0.3075(11) 0.257(10) Uiso 0.71(2) d PR . .
H32B H -1.982 1.3677 -0.2698 0.309 Uiso 0.71(2) calc PR . .
H32C H -1.9916 1.2708 -0.3809 0.309 Uiso 0.71(2) calc PR . .
C33 C -1.9436(13) 0.9745(10) -0.2460(11) 0.257(10) Uiso 0.71(2) d PR . .
H33A H -1.8615 0.9681 -0.2599 0.309 Uiso 0.71(2) calc PR . .
H33B H -1.9209 1.0008 -0.1632 0.309 Uiso 0.71(2) calc PR . .
N33 N -2.0391(13) 0.8472(10) -0.3089(11) 0.257(10) Uiso 0.71(2) d PR . .
H33C H -2.1173 0.8421 -0.3603 0.309 Uiso 0.71(2) calc PR . .
H33D H -2.0154 0.7797 -0.2934 0.309 Uiso 0.71(2) calc PR . .
C34 C -2.0189(13) 1.0709(10) -0.2954(11) 0.257(10) Uiso 0.71(2) d PR . .
H34A H -2.0912 1.0874 -0.2674 0.309 Uiso 0.71(2) calc PR . .
N34 N -2.0766(13) 1.0180(10) -0.4175(11) 0.257(10) Uiso 0.71(2) d PR . .
H34B H -2.0663 0.9419 -0.4526 0.309 Uiso 0.71(2) calc PR . .
H34C H -2.122 1.0618 -0.457 0.309 Uiso 0.71(2) calc PR . .
C41 C -2.7763(13) 1.0616(10) -0.7655(11) 0.257(10) Uiso 0.29(2) d PRD . .
H41A H -2.7823 1.104 -0.8211 0.309 Uiso 0.29(2) calc PR . .
H41B H -2.8504 1.0773 -0.741 0.309 Uiso 0.29(2) calc PR . .
C42 C -2.6405(13) 1.1174(10) -0.6589(11) 0.257(10) Uiso 0.29(2) d PR . .
H42A H -2.567 1.1208 -0.6854 0.309 Uiso 0.29(2) calc PR . .
N42 N -2.6184(13) 1.0276(10) -0.5857(11) 0.257(10) Uiso 0.29(2) d PR . .
H42B H -2.6774 0.9602 -0.6076 0.309 Uiso 0.29(2) calc PR . .
H42C H -2.5473 1.0454 -0.5234 0.309 Uiso 0.29(2) calc PR . .
C43 C -2.6355(13) 1.3437(10) -0.6521(11) 0.257(10) Uiso 0.29(2) d PR . .
H43A H -2.5584 1.3338 -0.6733 0.309 Uiso 0.29(2) calc PR . .
H43B H -2.7161 1.3226 -0.7222 0.309 Uiso 0.29(2) calc PR . .
N43 N -2.6208(13) 1.4795(10) -0.5723(11) 0.257(10) Uiso 0.29(2) d PR . .
H43C H -2.6192 1.4929 -0.5039 0.309 Uiso 0.29(2) calc PR . .
H43D H -2.6141 1.5435 -0.5951 0.309 Uiso 0.29(2) calc PR . .
C44 C -2.6445(13) 1.2567(10) -0.5833(11) 0.257(10) Uiso 0.29(2) d PR . .
H44A H -2.7316 1.2563 -0.5762 0.309 Uiso 0.29(2) calc PR . .
N44 N -2.5420(13) 1.3059(10) -0.4711(11) 0.257(10) Uiso 0.29(2) d PR . .
H44B H -2.4865 1.3753 -0.4509 0.309 Uiso 0.29(2) calc PR . .
H44C H -2.535 1.2666 -0.4228 0.309 Uiso 0.29(2) calc PR . .
N41 N -2.786(2) 0.9107(19) -0.824(2) 0.165(12) Uani 1 d D . .
H41D H -2.717 0.8952 -0.8479 0.248 Uiso 1 d . . .
H41E H -2.7808 0.8704 -0.773 0.248 Uiso 1 d . . .
O1 O -1.882(3) 1.516(3) 0.6894(19) 0.211(11) Uani 1 d . . .
O2 O -1.937(3) 1.627(5) 0.510(6) 0.32(5) Uani 0.5 d P . .
O3 O -1.757(6) 1.584(6) 0.470(3) 0.28(4) Uani 0.5 d P . .

loop_
_atom_site_aniso_label
_atom_site_aniso_U_11
_atom_site_aniso_U_22
_atom_site_aniso_U_33
_atom_site_aniso_U_23
_atom_site_aniso_U_13
_atom_site_aniso_U_12
Re1 0.0405(3) 0.0269(4) 0.0402(4) 0.0105(3) 0.0225(2) 0.0061(2)
Re2 0.0452(3) 0.0259(4) 0.0457(4) 0.0070(3) 0.0291(3) 0.0035(2)
Re3 0.0393(3) 0.0286(4) 0.0468(4) 0.0112(3) 0.0265(3) 0.0050(2)
Re4 0.0430(3) 0.0290(4) 0.0535(4) 0.0156(3) 0.0293(3) 0.0110(3)
Re5 0.0419(3) 0.0299(4) 0.0402(4) 0.0104(3) 0.0231(3) 0.0096(2)
Re6 0.0371(3) 0.0283(4) 0.0500(4) 0.0114(3) 0.0242(3) 0.0051(2)
Se1 0.0543(8) 0.0391(10) 0.0528(10) 0.0210(8) 0.0335(7) 0.0128(7)
Se2 0.0434(8) 0.0490(11) 0.0557(11) 0.0204(9) 0.0182(7) 0.0143(7)
Se3 0.0483(8) 0.0363(10) 0.0703(13) 0.0178(9) 0.0394(8) 0.0141(6)
Se4 0.0497(8) 0.0257(9) 0.0474(10) 0.0070(7) 0.0237(7) 0.0046(6)
Se5 0.0533(8) 0.0347(10) 0.0519(10) 0.0136(8) 0.0338(7) 0.0032(6)
Se6 0.0441(7) 0.0354(10) 0.0508(10) 0.0138(8) 0.0288(6) 0.0141(6)
Se7 0.0541(9) 0.0270(9) 0.0657(12) 0.0111(8) 0.0374(8) 0.0026(6)
Se8 0.0476(8) 0.0368(10) 0.0409(9) 0.0076(7) 0.0184(6) -0.0014(6)
C1 0.092(11) 0.054(10) 0.042(8) 0.017(7) 0.037(8) 0.014(8)
C2 0.068(8) 0.016(6) 0.052(9) -0.003(6) 0.028(7) -0.005(5)
C3 0.054(8) 0.051(10) 0.082(11) 0.039(9) 0.046(8) 0.008(7)
C4 0.060(8) 0.022(6) 0.088(12) 0.021(7) 0.042(8) 0.014(5)
C5 0.045(7) 0.066(10) 0.039(8) 0.026(8) 0.021(6) 0.019(6)
C6 0.039(7) 0.031(8) 0.084(12) 0.014(8) 0.021(7) 0.003(6)
N1 0.079(9) 0.045(8) 0.099(12) 0.037(8) 0.022(8) 0.027(7)
N2 0.102(12) 0.079(12) 0.084(13) 0.007(10) 0.062(10) 0.016(9)
N3 0.046(7) 0.072(10) 0.093(10) 0.042(8) 0.039(6) 0.006(6)
N4 0.095(11) 0.087(12) 0.113(14) 0.0