####################################################################### 
# 
# This file contains crystal structure data downloaded from the 
# Cambridge Structural Database (CSD) hosted by the Cambridge 
# Crystallographic Data Centre (CCDC).
# 
# Full information about CCDC data access policies and citation 
# guidelines are available at http://www.ccdc.cam.ac.uk/access/V1 
# 
# Audit and citation data items may have been added by the CCDC. 
# Please retain this information to preserve the provenance of 
# this file and to allow appropriate attribution of the data. 
# 
#######################################################################

data_cusbp
_audit_block_doi                 10.5517/cc7dy6r
_database_code_depnum_ccdc_archive 'CCDC 220974'
loop_
_citation_id
_citation_doi
_citation_year
1 10.1016/j.ica.2003.11.018 2004
_audit_update_record             
;
2003-10-02 deposited with the CCDC.	2024-07-08 downloaded from the CCDC.
;

_audit_creation_method           SHELXL-97
_chemical_name_systematic        
;
?
;
_chemical_name_common            ?
_chemical_melting_point          ?
_chemical_formula_moiety         ?
_chemical_formula_sum            'C48 H44 Cl2 Cu N12 O10'
_chemical_formula_weight         1083.39

loop_
_atom_type_symbol
_atom_type_description
_atom_type_scat_dispersion_real
_atom_type_scat_dispersion_imag
_atom_type_scat_source
C C 0.0033 0.0016 'International Tables Vol C Tables 4.2.6.8 and 6.1.1.4'
H H 0.0000 0.0000 'International Tables Vol C Tables 4.2.6.8 and 6.1.1.4'
N N 0.0061 0.0033 'International Tables Vol C Tables 4.2.6.8 and 6.1.1.4'
O O 0.0106 0.0060 'International Tables Vol C Tables 4.2.6.8 and 6.1.1.4'
Cl Cl 0.1484 0.1585 'International Tables Vol C Tables 4.2.6.8 and 6.1.1.4'
Cu Cu 0.3201 1.2651 'International Tables Vol C Tables 4.2.6.8 and 6.1.1.4'

_symmetry_cell_setting           monoclinic
_symmetry_space_group_name_H-M   P2(1)/n

loop_
_symmetry_equiv_pos_as_xyz
'x, y, z'
'-x+1/2, y+1/2, -z+1/2'
'-x, -y, -z'
'x-1/2, -y-1/2, z-1/2'

_cell_length_a                   20.407(6)
_cell_length_b                   10.729(3)
_cell_length_c                   25.126(7)
_cell_angle_alpha                90.00
_cell_angle_beta                 101.464(5)
_cell_angle_gamma                90.00
_cell_volume                     5392(3)
_cell_formula_units_Z            4
_cell_measurement_temperature    168(2)
_cell_measurement_reflns_used    ?
_cell_measurement_theta_min      ?
_cell_measurement_theta_max      ?

_exptl_crystal_description       chunk
_exptl_crystal_colour            blue
_exptl_crystal_size_max          0.60
_exptl_crystal_size_mid          0.50
_exptl_crystal_size_min          0.25
_exptl_crystal_density_meas      ?
_exptl_crystal_density_diffrn    1.335
_exptl_crystal_density_method    'not measured'
_exptl_crystal_F_000             2236
_exptl_absorpt_coefficient_mu    0.569
_exptl_absorpt_correction_type   Semi-empirical(SADABS)
_exptl_absorpt_correction_T_min  0.90
_exptl_absorpt_correction_T_max  1.00
_exptl_absorpt_process_details   ?

_exptl_special_details           
;
?
;

_diffrn_ambient_temperature      168(2)
_diffrn_radiation_wavelength     0.71073
_diffrn_radiation_type           MoK\a
_diffrn_radiation_source         'fine-focus sealed tube'
_diffrn_radiation_monochromator  graphite
_diffrn_measurement_device_type  'Bruker SMART area detector'
_diffrn_measurement_method       ?
_diffrn_detector_area_resol_mean ?
_diffrn_standards_number         ?
_diffrn_standards_interval_count ?
_diffrn_standards_interval_time  ?
_diffrn_standards_decay_%        ?
_diffrn_reflns_number            21539
_diffrn_reflns_av_R_equivalents  0.0595
_diffrn_reflns_av_sigmaI/netI    0.1082
_diffrn_reflns_limit_h_min       -22
_diffrn_reflns_limit_h_max       25
_diffrn_reflns_limit_k_min       -12
_diffrn_reflns_limit_k_max       10
_diffrn_reflns_limit_l_min       -13
_diffrn_reflns_limit_l_max       31
_diffrn_reflns_theta_min         1.65
_diffrn_reflns_theta_max         26.45
_reflns_number_total             9428
_reflns_number_gt                5637
_reflns_threshold_expression     >2sigma(I)

_computing_data_collection       ?
_computing_cell_refinement       ?
_computing_data_reduction        ?
_computing_structure_solution    'SHELXS-97 (Sheldrick, 1990)'
_computing_structure_refinement  'SHELXL-97 (Sheldrick, 1997)'
_computing_molecular_graphics    ?
_computing_publication_material  ?

_refine_special_details          
;
Refinement of F^2^ against ALL reflections.  The weighted R-factor wR and
goodness of fit S are based on F^2^, conventional R-factors R are based
on F, with F set to zero for negative F^2^. The threshold expression of
F^2^ > 2sigma(F^2^) is used only for calculating R-factors(gt) etc. and is
not relevant to the choice of reflections for refinement.  R-factors based
on F^2^ are statistically about twice as large as those based on F, and R-
factors based on ALL data will be even larger.
;

_refine_ls_structure_factor_coef Fsqd
_refine_ls_matrix_type           full
_refine_ls_weighting_scheme      calc
_refine_ls_weighting_details     
'calc w=1/[\s^2^(Fo^2^)+(0.1239P)^2^+16.4013P] where P=(Fo^2^+2Fc^2^)/3'
_atom_sites_solution_primary     direct
_atom_sites_solution_secondary   difmap
_atom_sites_solution_hydrogens   geom
_refine_ls_hydrogen_treatment    mixed
_refine_ls_extinction_method     none
_refine_ls_extinction_coef       ?
_refine_ls_number_reflns         9428
_refine_ls_number_parameters     705
_refine_ls_number_restraints     30
_refine_ls_R_factor_all          0.1651
_refine_ls_R_factor_gt           0.0990
_refine_ls_wR_factor_ref         0.2804
_refine_ls_wR_factor_gt          0.2505
_refine_ls_goodness_of_fit_ref   1.109
_refine_ls_restrained_S_all      1.110
_refine_ls_shift/su_max          0.000
_refine_ls_shift/su_mean         0.000

loop_
_atom_site_label
_atom_site_type_symbol
_atom_site_fract_x
_atom_site_fract_y
_atom_site_fract_z
_atom_site_U_iso_or_equiv
_atom_site_adp_type
_atom_site_occupancy
_atom_site_symmetry_multiplicity
_atom_site_calc_flag
_atom_site_refinement_flags
_atom_site_disorder_assembly
_atom_site_disorder_group
Cu1 Cu 0.27338(4) 0.64969(9) 0.08667(3) 0.0302(3) Uani 1 1 d . . .
N1 N 0.3638(3) 0.7859(6) 0.1373(2) 0.0391(16) Uani 1 1 d . . .
N2 N 0.3152(3) 0.7374(6) 0.0313(2) 0.0316(15) Uani 1 1 d . . .
N3 N 0.3094(3) 0.7114(6) -0.0234(2) 0.0341(15) Uani 1 1 d . . .
N5 N 0.3849(3) 0.8594(6) 0.0010(2) 0.0340(15) Uani 1 1 d . . .
C1 C 0.3808(4) 0.8130(8) 0.1905(3) 0.046(2) Uani 1 1 d . . .
H1 H 0.3690 0.7559 0.2160 0.055 Uiso 1 1 calc R . .
C2 C 0.4147(4) 0.9205(9) 0.2097(3) 0.048(2) Uani 1 1 d . . .
H2 H 0.4275 0.9362 0.2475 0.058 Uiso 1 1 calc R . .
C3 C 0.4291(6) 1.0038(11) 0.1722(4) 0.083(4) Uani 1 1 d . . .
H3 H 0.4521 1.0789 0.1842 0.100 Uiso 1 1 calc R . .
C4 C 0.4106(6) 0.9797(10) 0.1168(4) 0.083(4) Uani 1 1 d . . .
H4 H 0.4185 1.0386 0.0905 0.100 Uiso 1 1 calc R . .
C5 C 0.3803(4) 0.8666(8) 0.1015(3) 0.0335(18) Uani 1 1 d . . .
C6 C 0.3601(4) 0.8233(7) 0.0451(3) 0.0314(18) Uani 1 1 d . . .
C7 C 0.3527(4) 0.7854(8) -0.0405(3) 0.0352(19) Uani 1 1 d . . .
C8 C 0.3664(4) 0.7809(8) -0.0950(3) 0.0372(19) Uani 1 1 d . . .
C9 C 0.3760(7) 0.8852(12) -0.1244(4) 0.086(4) Uani 1 1 d . . .
H9 H 0.3737 0.9660 -0.1094 0.103 Uiso 1 1 calc R . .
C10 C 0.3893(7) 0.8709(14) -0.1770(4) 0.096(4) Uani 1 1 d . . .
H10 H 0.3958 0.9431 -0.1972 0.115 Uiso 1 1 calc R . .
C11 C 0.3930(6) 0.7588(15) -0.1993(4) 0.084(4) Uani 1 1 d . . .
H11 H 0.4016 0.7518 -0.2349 0.100 Uiso 1 1 calc R . .
C12 C 0.3844(7) 0.6536(14) -0.1702(4) 0.100(4) Uani 1 1 d . . .
H12 H 0.3869 0.5734 -0.1857 0.120 Uiso 1 1 calc R . .
C13 C 0.3718(6) 0.6648(11) -0.1179(4) 0.077(3) Uani 1 1 d . . .
H13 H 0.3670 0.5918 -0.0976 0.092 Uiso 1 1 calc R . .
C14 C 0.5044(4) 0.8744(8) 0.0130(3) 0.040(2) Uani 1 1 d . . .
H14 H 0.5071 0.7883 0.0220 0.048 Uiso 1 1 calc R . .
C15 C 0.4438(4) 0.9329(7) 0.0004(3) 0.0308(18) Uani 1 1 d . . .
C16 C 0.4388(4) 1.0580(9) -0.0124(3) 0.045(2) Uani 1 1 d . . .
H16 H 0.3962 1.0970 -0.0208 0.054 Uiso 1 1 calc R . .
N6 N 0.1774(3) 0.5866(6) 0.0251(2) 0.0306(14) Uani 1 1 d . . .
N7 N 0.2088(3) 0.7870(5) 0.08550(19) 0.0238(13) Uani 1 1 d . . .
N8 N 0.2165(3) 0.8993(6) 0.1124(2) 0.0280(14) Uani 1 1 d . . .
N10 N 0.1191(3) 0.8959(5) 0.05585(19) 0.0235(13) Uani 1 1 d . . .
C21 C 0.1660(4) 0.4806(7) -0.0036(3) 0.0351(19) Uani 1 1 d . . .
H21 H 0.1988 0.4166 0.0023 0.042 Uiso 1 1 calc R . .
C22 C 0.1076(4) 0.4620(8) -0.0417(3) 0.044(2) Uani 1 1 d . . .
H22 H 0.1002 0.3866 -0.0619 0.053 Uiso 1 1 calc R . .
C23 C 0.0611(4) 0.5545(8) -0.0496(3) 0.045(2) Uani 1 1 d . . .
H23 H 0.0203 0.5431 -0.0750 0.054 Uiso 1 1 calc R . .
C24 C 0.0724(4) 0.6645(8) -0.0211(3) 0.039(2) Uani 1 1 d . . .
H24 H 0.0406 0.7301 -0.0274 0.047 Uiso 1 1 calc R . .
C25 C 0.1306(3) 0.6778(6) 0.0167(2) 0.0242(16) Uani 1 1 d . . .
C26 C 0.1505(3) 0.7854(7) 0.0508(2) 0.0235(15) Uani 1 1 d . . .
C27 C 0.1624(3) 0.9651(6) 0.0939(2) 0.0241(16) Uani 1 1 d . . .
C28 C 0.1478(4) 1.0893(7) 0.1118(3) 0.0299(17) Uani 1 1 d . . .
C29 C 0.0910(4) 1.1130(7) 0.1325(3) 0.0365(19) Uani 1 1 d . . .
H29 H 0.0614 1.0472 0.1369 0.044 Uiso 1 1 calc R . .
C30 C 0.0777(5) 1.2345(10) 0.1469(3) 0.056(3) Uani 1 1 d . . .
H30 H 0.0393 1.2508 0.1618 0.067 Uiso 1 1 calc R . .
C31 C 0.1191(5) 1.3309(8) 0.1397(4) 0.053(2) Uani 1 1 d . . .
H31 H 0.1086 1.4138 0.1483 0.063 Uiso 1 1 calc R . .
C32 C 0.1756(5) 1.3069(9) 0.1203(3) 0.053(2) Uani 1 1 d . . .
H32 H 0.2052 1.3731 0.1163 0.064 Uiso 1 1 calc R . .
C33 C 0.1900(4) 1.1870(8) 0.1065(3) 0.040(2) Uani 1 1 d . . .
H33 H 0.2297 1.1715 0.0931 0.048 Uiso 1 1 calc R . .
C34 C -0.0018(3) 0.9030(7) 0.0362(3) 0.0285(17) Uani 1 1 d . . .
H34 H -0.0025 0.8374 0.0615 0.034 Uiso 1 1 calc R . .
C35 C 0.0575(3) 0.9460(6) 0.0259(2) 0.0225(15) Uani 1 1 d . . .
C36 C 0.0608(3) 1.0435(7) -0.0093(3) 0.0281(17) Uani 1 1 d . . .
H36 H 0.1027 1.0731 -0.0150 0.034 Uiso 1 1 calc R . .
N11 N 0.2625(3) 0.5838(6) 0.1590(2) 0.0410(18) Uani 1 1 d . . .
N12 N 0.3349(4) 0.5035(7) 0.0920(3) 0.053(2) Uani 1 1 d . . .
C41 C 0.2196(5) 0.6277(9) 0.1886(3) 0.056(3) Uani 1 1 d . . .
H41 H 0.1884 0.6907 0.1742 0.067 Uiso 1 1 calc R . .
C42 C 0.2209(7) 0.5804(12) 0.2409(4) 0.087(4) Uani 1 1 d . . .
H42 H 0.1913 0.6102 0.2627 0.104 Uiso 1 1 calc R . .
C43 C 0.2691(9) 0.4852(15) 0.2597(4) 0.109(6) Uani 1 1 d . . .
H43 H 0.2704 0.4480 0.2942 0.131 Uiso 1 1 calc R . .
C44 C 0.3114(8) 0.4486(13) 0.2298(5) 0.104(6) Uani 1 1 d . . .
H44 H 0.3444 0.3884 0.2439 0.125 Uiso 1 1 calc R . .
C45 C 0.3091(5) 0.4951(9) 0.1788(4) 0.062(3) Uani 1 1 d . . .
C46 C 0.3507(6) 0.4527(10) 0.1404(5) 0.073(3) Uani 1 1 d . . .
C47 C 0.4022(8) 0.3676(14) 0.1545(8) 0.130(7) Uani 1 1 d . . .
H47 H 0.4114 0.3324 0.1899 0.156 Uiso 1 1 calc R . .
C48 C 0.4383(9) 0.3353(18) 0.1190(13) 0.180(13) Uani 1 1 d . . .
H48 H 0.4756 0.2813 0.1291 0.216 Uiso 1 1 calc R . .
C49 C 0.4216(8) 0.3806(14) 0.0668(10) 0.138(7) Uani 1 1 d . . .
H49 H 0.4454 0.3544 0.0399 0.166 Uiso 1 1 calc R . .
C50 C 0.3680(6) 0.4677(10) 0.0538(6) 0.086(4) Uani 1 1 d . . .
H50 H 0.3559 0.5001 0.0180 0.104 Uiso 1 1 calc R . .
Cl1 Cl 0.03710(12) 1.7203(2) 0.17496(8) 0.0502(6) Uani 1 1 d . . .
O11 O 0.0824(4) 1.8182(7) 0.1677(3) 0.076(2) Uani 1 1 d . . .
O12 O -0.0293(4) 1.7540(8) 0.1510(3) 0.095(3) Uani 1 1 d . . .
O13 O 0.0518(5) 1.6164(10) 0.1484(6) 0.167(6) Uani 1 1 d . . .
O14 O 0.0423(6) 1.7027(11) 0.2303(3) 0.146(5) Uani 1 1 d . . .
Cl2 Cl 0.75007(10) 0.8796(3) 0.02708(9) 0.0581(7) Uani 1 1 d . . .
O21 O 0.7202(3) 0.9099(8) 0.0720(2) 0.075(2) Uani 1 1 d . . .
O22 O 0.8084(3) 0.8075(7) 0.0435(3) 0.077(2) Uani 1 1 d . . .
O23 O 0.7680(4) 0.9901(8) 0.0037(3) 0.095(3) Uani 1 1 d . . .
O24 O 0.7040(4) 0.8066(12) -0.0106(4) 0.139(4) Uani 1 1 d . . .
O61 O 0.9405(5) 0.3542(10) 0.1998(4) 0.119(3) Uani 1 1 d D . .
N61 N 0.8492(6) 0.4705(14) 0.1740(4) 0.109(4) Uani 1 1 d D . .
C61 C 0.9127(6) 0.4523(14) 0.1900(4) 0.074(3) Uani 1 1 d D . .
H61 H 0.9403 0.5244 0.1945 0.089 Uiso 1 1 calc R . .
C62 C 0.8048(11) 0.369(3) 0.1658(13) 0.31(2) Uani 1 1 d D . .
H62A H 0.8271 0.2967 0.1537 0.377 Uiso 1 1 calc R . .
H62B H 0.7655 0.3908 0.1381 0.377 Uiso 1 1 calc R . .
H62C H 0.7907 0.3493 0.1999 0.377 Uiso 1 1 calc R . .
C63 C 0.8207(9) 0.592(2) 0.1620(6) 0.157(8) Uani 1 1 d D . .
H63A H 0.8561 0.6549 0.1693 0.189 Uiso 1 1 calc R . .
H63B H 0.7878 0.6081 0.1847 0.189 Uiso 1 1 calc R . .
H63C H 0.7986 0.5957 0.1236 0.189 Uiso 1 1 calc R . .
O71 O 0.3029(7) 0.4792(15) -0.2671(6) 0.079(5) Uani 0.50 1 d PD . .
N71 N 0.3757(14) 0.4520(16) -0.3243(8) 0.092(8) Uani 0.50 1 d PD . .
C71 C 0.3161(14) 0.4628(19) -0.3102(10) 0.089(8) Uani 0.50 1 d PD . .
H71 H 0.2787 0.4562 -0.3394 0.106 Uiso 0.50 1 calc PR . .
C72 C 0.4315(14) 0.4608(19) -0.2847(13) 0.103(10) Uani 0.50 1 d PDU . .
H72A H 0.4566 0.3824 -0.2826 0.123 Uiso 0.50 1 calc PR . .
H72B H 0.4187 0.4770 -0.2498 0.123 Uiso 0.50 1 calc PR . .
H72C H 0.4596 0.5292 -0.2932 0.123 Uiso 0.50 1 calc PR . .
C73 C 0.3868(18) 0.436(3) -0.3709(12) 0.18(2) Uani 0.50 1 d PD . .
H73A H 0.3614 0.3634 -0.3876 0.217 Uiso 0.50 1 calc PR . .
H73B H 0.4346 0.4209 -0.3687 0.217 Uiso 0.50 1 calc PR . .
H73C H 0.3730 0.5100 -0.3930 0.217 Uiso 0.50 1 calc PR . .
O81 O 0.5838(12) 0.6305(14) 0.0727(8) 0.103(7) Uani 0.50 1 d PD . .
C81 C 0.6251(12) 0.675(2) 0.1022(11) 0.066(7) Uani 0.50 1 d PD . .
H81 H 0.6699 0.6791 0.0969 0.080 Uiso 0.50 1 calc PR . .
N81 N 0.6071(11) 0.720(2) 0.1431(8) 0.082(7) Uani 0.50 1 d PD . .
C82 C 0.656(2) 0.766(3) 0.1747(13) 0.17(2) Uani 0.50 1 d PD . .
H82A H 0.6973 0.7373 0.1647 0.207 Uiso 0.50 1 calc PR . .
H82B H 0.6549 0.7398 0.2119 0.207 Uiso 0.50 1 calc PR . .
H82C H 0.6534 0.8572 0.1724 0.207 Uiso 0.50 1 calc PR . .
C83 C 0.5441(15) 0.705(3) 0.1505(13) 0.161(15) Uani 0.50 1 d PDU . .
H83A H 0.5240 0.6325 0.1299 0.193 Uiso 0.50 1 calc PR . .
H83B H 0.5178 0.7798 0.1376 0.193 Uiso 0.50 1 calc PR . .
H83C H 0.5445 0.6930 0.1892 0.193 Uiso 0.50 1 calc PR . .

loop_
_atom_site_aniso_label
_atom_site_aniso_U_11
_atom_site_aniso_U_22
_atom_site_aniso_U_33
_atom_site_aniso_U_23
_atom_site_aniso_U_13
_atom_site_aniso_U_12
Cu1 0.0294(5) 0.0271(6) 0.0345(4) 0.0084(4) 0.0077(4) 0.0050(4)
N1 0.038(4) 0.043(5) 0.033(3) 0.003(3) 0.001(3) 0.000(3)
N2 0.034(3) 0.030(4) 0.034(3) 0.000(3) 0.013(3) -0.006(3)
N3 0.037(4) 0.036(4) 0.032(3) 0.001(3) 0.012(3) -0.002(3)
N5 0.034(3) 0.046(4) 0.027(3) -0.002(3) 0.016(3) -0.011(3)
C1 0.044(5) 0.051(6) 0.040(4) 0.006(4) 0.004(4) 0.004(4)
C2 0.049(5) 0.057(7) 0.041(4) -0.010(4) 0.013(4) -0.012(5)
C3 0.115(9) 0.094(9) 0.054(5) -0.040(6) 0.049(6) -0.063(8)
C4 0.141(11) 0.064(8) 0.066(6) -0.033(5) 0.072(7) -0.060(7)
C5 0.032(4) 0.038(5) 0.036(4) -0.008(3) 0.019(3) -0.003(4)
C6 0.032(4) 0.024(5) 0.043(4) 0.000(3) 0.021(4) -0.001(3)
C7 0.039(4) 0.033(5) 0.033(4) -0.006(3) 0.004(3) 0.001(4)
C8 0.043(5) 0.039(6) 0.031(4) 0.001(4) 0.012(3) -0.001(4)
C9 0.133(11) 0.075(9) 0.057(6) 0.001(6) 0.037(7) 0.012(8)
C10 0.143(13) 0.094(11) 0.060(6) 0.031(7) 0.042(7) 0.014(9)
C11 0.093(9) 0.115(12) 0.044(5) -0.012(7) 0.017(6) 0.006(8)
C12 0.146(13) 0.101(11) 0.056(6) -0.017(7) 0.030(7) -0.009(9)
C13 0.101(9) 0.079(9) 0.055(6) -0.010(6) 0.024(6) 0.003(7)
C14 0.035(4) 0.032(5) 0.056(5) 0.010(4) 0.017(4) 0.002(4)
C15 0.040(4) 0.029(5) 0.026(3) 0.001(3) 0.011(3) -0.004(4)
C16 0.026(4) 0.054(7) 0.057(5) 0.017(4) 0.014(4) 0.002(4)
N6 0.035(3) 0.027(4) 0.032(3) -0.001(3) 0.010(3) -0.003(3)
N7 0.027(3) 0.023(4) 0.021(2) 0.001(2) 0.006(2) 0.003(3)
N8 0.034(3) 0.029(4) 0.022(3) 0.002(2) 0.006(3) 0.003(3)
N10 0.021(3) 0.026(4) 0.024(3) 0.003(2) 0.004(2) -0.002(3)
C21 0.040(4) 0.031(5) 0.035(4) -0.006(3) 0.007(3) 0.004(4)
C22 0.052(5) 0.026(5) 0.051(4) -0.012(4) 0.004(4) -0.002(4)
C23 0.046(5) 0.034(6) 0.050(4) -0.012(4) -0.004(4) -0.003(4)
C24 0.036(4) 0.029(5) 0.049(4) -0.004(4) -0.003(4) 0.009(4)
C25 0.030(4) 0.020(4) 0.022(3) 0.004(3) 0.006(3) 0.002(3)
C26 0.021(3) 0.026(5) 0.024(3) 0.004(3) 0.006(3) 0.003(3)
C27 0.034(4) 0.015(4) 0.023(3) 0.000(3) 0.006(3) 0.000(3)
C28 0.032(4) 0.027(5) 0.028(3) 0.000(3) -0.001(3) 0.000(3)
C29 0.042(5) 0.025(5) 0.042(4) -0.005(3) 0.010(4) -0.001(4)
C30 0.046(5) 0.063(8) 0.057(5) -0.014(5) 0.006(4) 0.024(5)
C31 0.072(7) 0.025(6) 0.056(5) -0.010(4) 0.000(5) -0.002(5)
C32 0.071(7) 0.031(6) 0.056(5) -0.003(4) 0.010(5) -0.018(5)
C33 0.044(5) 0.034(6) 0.044(4) -0.008(4) 0.011(4) -0.002(4)
C34 0.031(4) 0.025(4) 0.030(3) 0.007(3) 0.005(3) 0.002(3)
C35 0.022(3) 0.022(4) 0.023(3) 0.000(3) 0.005(3) 0.002(3)
C36 0.022(4) 0.033(5) 0.031(3) 0.001(3) 0.009(3) 0.005(3)
N11 0.059(4) 0.032(4) 0.027(3) 0.015(3) -0.004(3) -0.016(3)
N12 0.052(4) 0.030(5) 0.078(5) 0.006(4) 0.012(4) 0.010(4)
C41 0.092(7) 0.055(7) 0.021(3) -0.001(4) 0.014(4) -0.034(5)
C42 0.134(11) 0.094(10) 0.038(5) -0.005(6) 0.031(6) -0.063(9)
C43 0.165(15) 0.105(12) 0.040(6) 0.047(7) -0.024(7) -0.073(11)
C44 0.126(12) 0.077(10) 0.084(9) 0.060(8) -0.040(8) -0.046(9)
C45 0.075(7) 0.038(6) 0.052(5) 0.024(4) -0.034(5) -0.018(5)
C46 0.073(7) 0.050(7) 0.089(8) 0.021(6) -0.006(6) 0.010(6)
C47 0.096(11) 0.068(11) 0.204(19) 0.030(11) -0.025(11) 0.043(9)
C48 0.082(12) 0.080(14) 0.34(4) 0.006(17) -0.050(16) 0.047(10)
C49 0.091(11) 0.075(12) 0.26(2) -0.026(13) 0.048(13) 0.049(9)
C50 0.085(8) 0.046(8) 0.136(11) -0.009(7) 0.040(8) 0.022(6)
Cl1 0.0675(15) 0.0409(15) 0.0394(10) 0.0028(9) 0.0036(10) -0.0031(11)
O11 0.083(5) 0.061(5) 0.080(5) 0.023(4) 0.003(4) -0.022(4)
O12 0.067(5) 0.108(7) 0.106(6) 0.029(5) 0.007(4) -0.002(5)
O13 0.101(7) 0.124(9) 0.263(14) -0.145(10) 0.004(8) -0.002(6)
O14 0.207(11) 0.177(10) 0.046(4) 0.041(5) 0.003(5) -0.081(9)
Cl2 0.0357(11) 0.089(2) 0.05