####################################################################### 
# 
# This file contains crystal structure data downloaded from the 
# Cambridge Structural Database (CSD) hosted by the Cambridge 
# Crystallographic Data Centre (CCDC).
# 
# Full information about CCDC data access policies and citation 
# guidelines are available at http://www.ccdc.cam.ac.uk/access/V1 
# 
# Audit and citation data items may have been added by the CCDC. 
# Please retain this information to preserve the provenance of 
# this file and to allow appropriate attribution of the data. 
# 
#######################################################################

data_2
_audit_block_doi                 10.5517/ccx5cl0
_database_code_depnum_ccdc_archive 'CCDC 839312'
loop_
_citation_id
_citation_doi
_citation_year
1 10.1021/cg2003673 2011
_audit_update_record             
;
2011-08-16 deposited with the CCDC.	2024-07-08 downloaded from the CCDC.
;

_audit_creation_method           SHELXL-97
_chemical_name_systematic        
;
?
;
_chemical_name_common            ?
_chemical_melting_point          ?
_chemical_formula_moiety         'C46 H39 Cd3 N O17'
_chemical_formula_sum            'C46 H39 Cd3 N O17'
_chemical_formula_weight         1214.98

loop_
_atom_type_symbol
_atom_type_description
_atom_type_scat_dispersion_real
_atom_type_scat_dispersion_imag
_atom_type_scat_source
C C 0.0033 0.0016 'International Tables Vol C Tables 4.2.6.8 and 6.1.1.4'
H H 0.0000 0.0000 'International Tables Vol C Tables 4.2.6.8 and 6.1.1.4'
N N 0.0061 0.0033 'International Tables Vol C Tables 4.2.6.8 and 6.1.1.4'
O O 0.0106 0.0060 'International Tables Vol C Tables 4.2.6.8 and 6.1.1.4'
Cd Cd -0.8075 1.2024 'International Tables Vol C Tables 4.2.6.8 and 6.1.1.4'

_symmetry_cell_setting           Triclinic
_symmetry_space_group_name_H-M   'P-1 '

loop_
_symmetry_equiv_pos_as_xyz
'x, y, z'
'-x, -y, -z'

_cell_length_a                   7.1422(16)
_cell_length_b                   21.211(5)
_cell_length_c                   22.181(5)
_cell_angle_alpha                62.412(4)
_cell_angle_beta                 81.392(4)
_cell_angle_gamma                89.538(4)
_cell_volume                     2937.4(11)
_cell_formula_units_Z            2
_cell_measurement_temperature    291(2)
_cell_measurement_reflns_used    2671
_cell_measurement_theta_min      2.78
_cell_measurement_theta_max      22.759

_exptl_crystal_description       block
_exptl_crystal_colour            colourless
_exptl_crystal_size_max          0.28
_exptl_crystal_size_mid          0.24
_exptl_crystal_size_min          0.22
_exptl_crystal_density_meas      ?
_exptl_crystal_density_diffrn    1.374
_exptl_crystal_density_method    'not measured'
_exptl_crystal_F_000             1204
_exptl_absorpt_coefficient_mu    1.135
_exptl_absorpt_correction_type   multi-scan
_exptl_absorpt_correction_T_min  0.7418
_exptl_absorpt_correction_T_max  0.7884
_exptl_absorpt_process_details   'SADABS; Bruker, 2000'

_exptl_special_details           
;
?
;

_diffrn_ambient_temperature      291(2)
_diffrn_radiation_wavelength     0.71073
_diffrn_radiation_type           MoK\a
_diffrn_radiation_source         'fine-focus sealed tube'
_diffrn_radiation_monochromator  graphite
_diffrn_measurement_device_type  ?
_diffrn_measurement_method       ?
_diffrn_detector_area_resol_mean ?
_diffrn_standards_number         ?
_diffrn_standards_interval_count ?
_diffrn_standards_interval_time  ?
_diffrn_standards_decay_%        ?
_diffrn_reflns_number            14654
_diffrn_reflns_av_R_equivalents  0.0318
_diffrn_reflns_av_sigmaI/netI    0.0879
_diffrn_reflns_limit_h_min       -8
_diffrn_reflns_limit_h_max       8
_diffrn_reflns_limit_k_min       -25
_diffrn_reflns_limit_k_max       23
_diffrn_reflns_limit_l_min       -26
_diffrn_reflns_limit_l_max       23
_diffrn_reflns_theta_min         1.83
_diffrn_reflns_theta_max         25.00
_reflns_number_total             10173
_reflns_number_gt                5984
_reflns_threshold_expression     >2sigma(I)

_computing_data_collection       'Bruker SMART'
_computing_cell_refinement       'Bruker SMART'
_computing_data_reduction        'Bruker SAINT'
_computing_structure_solution    'SHELXS-97 (Sheldrick, 1990)'
_computing_structure_refinement  'SHELXL-97 (Sheldrick, 1997)'
_computing_molecular_graphics    'Bruker SHELXTL'
_computing_publication_material  'Bruker SHELXTL'

_refine_special_details          
;
Refinement of F^2^ against ALL reflections. The weighted R-factor wR and
goodness of fit S are based on F^2^, conventional R-factors R are based
on F, with F set to zero for negative F^2^. The threshold expression of
F^2^ > 2sigma(F^2^) is used only for calculating R-factors(gt) etc. and is
not relevant to the choice of reflections for refinement. R-factors based
on F^2^ are statistically about twice as large as those based on F, and R-
factors based on ALL data will be even larger.
;

_refine_ls_structure_factor_coef Fsqd
_refine_ls_matrix_type           full
_refine_ls_weighting_scheme      calc
_refine_ls_weighting_details     
'calc w=1/[\s^2^(Fo^2^)+(0.0900P)^2^+0.0766P] where P=(Fo^2^+2Fc^2^)/3'
_atom_sites_solution_primary     direct
_atom_sites_solution_secondary   difmap
_atom_sites_solution_hydrogens   geom
_refine_ls_hydrogen_treatment    constra
_refine_ls_extinction_method     none
_refine_ls_extinction_coef       ?
_refine_ls_number_reflns         10173
_refine_ls_number_parameters     607
_refine_ls_number_restraints     0
_refine_ls_R_factor_all          0.0856
_refine_ls_R_factor_gt           0.0518
_refine_ls_wR_factor_ref         0.1696
_refine_ls_wR_factor_gt          0.1452
_refine_ls_goodness_of_fit_ref   1.058
_refine_ls_restrained_S_all      1.058
_refine_ls_shift/su_max          0.000
_refine_ls_shift/su_mean         0.000

loop_
_atom_site_label
_atom_site_type_symbol
_atom_site_fract_x
_atom_site_fract_y
_atom_site_fract_z
_atom_site_U_iso_or_equiv
_atom_site_adp_type
_atom_site_occupancy
_atom_site_symmetry_multiplicity
_atom_site_calc_flag
_atom_site_refinement_flags
_atom_site_disorder_assembly
_atom_site_disorder_group
C1 C 1.4736(10) 0.1024(3) 0.0764(3) 0.0448(17) Uani 1 1 d . . .
C2 C 1.3209(10) 0.1025(4) 0.1318(4) 0.0453(17) Uani 1 1 d . . .
C3 C 1.1361(12) 0.0951(5) 0.1265(4) 0.060(2) Uani 1 1 d . . .
H3 H 1.1064 0.0911 0.0889 0.071 Uiso 1 1 calc R . .
C4 C 0.9927(11) 0.0936(4) 0.1762(4) 0.0532(19) Uani 1 1 d . . .
H4 H 0.8669 0.0844 0.1746 0.064 Uiso 1 1 calc R . .
C5 C 1.0390(11) 0.1061(4) 0.2294(3) 0.0463(17) Uani 1 1 d . . .
C6 C 1.2286(10) 0.1188(3) 0.2319(4) 0.0418(16) Uani 1 1 d . . .
H6 H 1.2616 0.1283 0.2660 0.050 Uiso 1 1 calc R . .
C7 C 1.3702(11) 0.1167(4) 0.1801(3) 0.0486(18) Uani 1 1 d . . .
H7 H 1.4977 0.1253 0.1802 0.058 Uiso 1 1 calc R . .
C8 C 0.8854(10) 0.1110(4) 0.2811(4) 0.0462(17) Uani 1 1 d . . .
C9 C 0.8966(10) 0.1614(3) 0.3030(3) 0.0416(16) Uani 1 1 d . . .
H9 H 1.0010 0.1945 0.2843 0.050 Uiso 1 1 calc R . .
C10 C 0.7567(11) 0.1649(4) 0.3524(4) 0.0493(18) Uani 1 1 d . . .
C11 C 0.6066(10) 0.1128(4) 0.3813(3) 0.0423(16) Uani 1 1 d . . .
H11 H 0.5140 0.1131 0.4154 0.051 Uiso 1 1 calc R . .
C12 C 0.5897(9) 0.0608(3) 0.3614(4) 0.0383(15) Uani 1 1 d . . .
C13 C 0.7317(10) 0.0621(4) 0.3101(4) 0.0509(19) Uani 1 1 d . . .
H13 H 0.7216 0.0282 0.2949 0.061 Uiso 1 1 calc R . .
C14 C 0.4324(10) 0.0050(4) 0.3946(4) 0.0445(16) Uani 1 1 d . . .
C15 C 0.4587(11) -0.0643(4) 0.4059(4) 0.0512(19) Uani 1 1 d . . .
H15 H 0.5801 -0.0760 0.3946 0.061 Uiso 1 1 calc R . .
C16 C 0.3106(10) -0.1167(4) 0.4332(3) 0.0438(16) Uani 1 1 d . . .
H16 H 0.3323 -0.1624 0.4393 0.053 Uiso 1 1 calc R . .
C17 C 0.1311(11) -0.1002(4) 0.4514(3) 0.0443(17) Uani 1 1 d . . .
C18 C 0.0957(10) -0.0308(3) 0.4386(3) 0.0412(16) Uani 1 1 d . . .
H18 H -0.0273 -0.0191 0.4478 0.049 Uiso 1 1 calc R . .
C19 C 0.2447(10) 0.0202(4) 0.4123(4) 0.0484(18) Uani 1 1 d . . .
H19 H 0.2216 0.0659 0.4059 0.058 Uiso 1 1 calc R . .
C20 C -0.0250(10) -0.1586(4) 0.4825(3) 0.0448(17) Uani 1 1 d . . .
C21 C 0.7773(10) 0.2190(4) 0.3750(4) 0.0434(16) Uani 1 1 d . . .
C22 C 0.5286(11) 0.3328(4) 0.5098(4) 0.0491(18) Uani 1 1 d . . .
C23 C 0.3720(9) 0.3617(3) 0.5397(3) 0.0362(14) Uani 1 1 d . . .
C24 C 0.4064(11) 0.4149(4) 0.5562(3) 0.0483(18) Uani 1 1 d . . .
H24 H 0.5297 0.4344 0.5475 0.058 Uiso 1 1 calc R . .
C25 C 0.2597(11) 0.4396(4) 0.5855(4) 0.054(2) Uani 1 1 d . . .
H25 H 0.2841 0.4759 0.5962 0.065 Uiso 1 1 calc R . .
C26 C 0.0722(11) 0.4098(3) 0.5994(3) 0.0449(17) Uani 1 1 d . . .
C27 C 0.0381(11) 0.3584(4) 0.5802(4) 0.0468(17) Uani 1 1 d . . .
H27 H -0.0856 0.3404 0.5866 0.056 Uiso 1 1 calc R . .
C28 C 0.1861(10) 0.3334(4) 0.5514(4) 0.0465(17) Uani 1 1 d . . .
H28 H 0.1622 0.2978 0.5397 0.056 Uiso 1 1 calc R . .
C29 C -0.0877(10) 0.4334(4) 0.6340(3) 0.0442(17) Uani 1 1 d . . .
C30 C -0.1064(10) 0.5052(3) 0.6199(3) 0.0420(16) Uani 1 1 d . . .
H30 H -0.0125 0.5392 0.5879 0.050 Uiso 1 1 calc R . .
C31 C -0.2568(11) 0.5284(4) 0.6510(4) 0.0495(18) Uani 1 1 d . . .
C32 C -0.3995(10) 0.4745(4) 0.6969(3) 0.0437(16) Uani 1 1 d . . .
H32 H -0.5066 0.4875 0.7168 0.052 Uiso 1 1 calc R . .
C33 C -0.3862(10) 0.4020(4) 0.7135(4) 0.0446(17) Uani 1 1 d . . .
C34 C -0.2262(11) 0.3817(4) 0.6828(4) 0.053(2) Uani 1 1 d . . .
H34 H -0.2128 0.3339 0.6950 0.063 Uiso 1 1 calc R . .
C35 C -0.2771(11) 0.6016(4) 0.6321(4) 0.0461(17) Uani 1 1 d . . .
C36 C -0.5381(10) 0.3480(4) 0.7636(4) 0.0470(18) Uani 1 1 d . . .
C37 C -0.4923(11) 0.2805(4) 0.8091(4) 0.0493(19) Uani 1 1 d . . .
H37 H -0.3660 0.2696 0.8098 0.059 Uiso 1 1 calc R . .
C38 C -0.7310(11) 0.3656(4) 0.7645(4) 0.0482(18) Uani 1 1 d . . .
H38 H -0.7601 0.4116 0.7357 0.058 Uiso 1 1 calc R . .
C39 C -0.8728(10) 0.3156(4) 0.8071(3) 0.0475(18) Uani 1 1 d . . .
H39 H -0.9985 0.3270 0.8050 0.057 Uiso 1 1 calc R . .
C40 C -0.8312(11) 0.2454(3) 0.8551(4) 0.0452(17) Uani 1 1 d . . .
C41 C -0.6388(11) 0.2282(4) 0.8546(4) 0.057(2) Uani 1 1 d . . .
H41 H -0.6088 0.1826 0.8842 0.068 Uiso 1 1 calc R . .
C42 C -0.9861(10) 0.1941(4) 0.9031(3) 0.0437(17) Uani 1 1 d . . .
C43 C 0.4053(13) 0.1938(5) 0.6789(6) 0.080(3) Uani 1 1 d . . .
H43A H 0.3557 0.1957 0.6402 0.121 Uiso 1 1 calc R . .
H43B H 0.5397 0.1892 0.6728 0.121 Uiso 1 1 calc R . .
H43C H 0.3807 0.2368 0.6821 0.121 Uiso 1 1 calc R . .
C44 C 0.4383(11) 0.0754(5) 0.7718(4) 0.0537(19) Uani 1 1 d . . .
H44A H 0.5133 0.0858 0.7989 0.081 Uiso 1 1 calc R . .
H44B H 0.5205 0.0720 0.7351 0.081 Uiso 1 1 calc R . .
H44C H 0.3647 0.0310 0.8004 0.081 Uiso 1 1 calc R . .
C45 C 0.1357(12) 0.1214(4) 0.7700(4) 0.056(2) Uani 1 1 d . . .
C46 C 0.0207(12) 0.1803(4) 0.7335(4) 0.060(2) Uani 1 1 d . . .
H46A H -0.0100 0.1778 0.6939 0.090 Uiso 1 1 calc R . .
H46B H 0.0909 0.2248 0.7188 0.090 Uiso 1 1 calc R . .
H46C H -0.0942 0.1771 0.7637 0.090 Uiso 1 1 calc R . .
Cd1 Cd 0.83495(8) 0.30950(3) 0.43075(3) 0.04614(17) Uani 1 1 d . . .
Cd2 Cd 0.33641(8) 0.25340(3) 0.43035(3) 0.04473(17) Uani 1 1 d . . .
Cd3 Cd 1.74126(8) 0.09271(3) -0.01583(3) 0.04720(17) Uani 1 1 d . . .
N1 N 0.3125(10) 0.1318(3) 0.7429(3) 0.0528(16) Uani 1 1 d . . .
O1 O 1.4328(7) 0.0808(3) 0.0338(3) 0.0523(13) Uani 1 1 d . . .
O2 O 1.6421(8) 0.1187(3) 0.0758(3) 0.0565(14) Uani 1 1 d . . .
O3 O 0.9328(7) 0.2544(3) 0.3601(2) 0.0482(12) Uani 1 1 d . . .
O4 O 0.6448(7) 0.2284(3) 0.4115(3) 0.0496(12) Uani 1 1 d . . .
O5 O -0.0039(8) -0.2125(3) 0.4773(3) 0.0524(13) Uani 1 1 d . . .
O6 O -0.1691(8) -0.1544(3) 0.5202(3) 0.0726(18) Uani 1 1 d . . .
O7 O 0.6936(8) 0.3635(3) 0.4933(3) 0.0527(13) Uani 1 1 d . . .
O8 O 0.4923(7) 0.2823(3) 0.4982(3) 0.0492(12) Uani 1 1 d . . .
O9 O -0.1364(8) 0.6421(3) 0.6147(3) 0.0655(16) Uani 1 1 d . . .
O10 O -0.4387(7) 0.6263(3) 0.6294(3) 0.0582(14) Uani 1 1 d . . .
O11 O -1.1537(8) 0.2027(3) 0.8953(3) 0.0648(16) Uani 1 1 d . . .
O12 O -0.9470(7) 0.1337(2) 0.9488(3) 0.0552(14) Uani 1 1 d . . .
O13 O 1.7184(7) 0.0557(2) -0.0966(2) 0.0489(12) Uani 1 1 d . . .
H13A H 1.8285 0.0585 -0.1189 0.059 Uiso 1 1 d R . .
H13B H 1.6726 0.0127 -0.0764 0.059 Uiso 1 1 d R . .
O14 O 1.7750(7) -0.0218(3) 0.0585(3) 0.0548(14) Uani 1 1 d . . .
H14A H 1.8592 -0.0379 0.0389 0.066 Uiso 1 1 d R . .
H14B H 1.8091 -0.0246 0.0947 0.066 Uiso 1 1 d R . .
O15 O 0.3017(7) 0.2396(3) 0.3389(3) 0.0527(13) Uani 1 1 d . . .
H15B H 0.2473 0.2765 0.3145 0.063 Uiso 1 1 d R . .
H15C H 0.2172 0.2053 0.3550 0.063 Uiso 1 1 d R . .
O16 O 0.8016(7) 0.4116(3) 0.3346(3) 0.0535(13) Uani 1 1 d . . .
H16B H 0.7231 0.4330 0.3502 0.064 Uiso 1 1 d R . .
H16C H 0.7388 0.3966 0.3136 0.064 Uiso 1 1 d R . .
O17 O 0.0705(8) 0.0722(3) 0.8260(3) 0.0568(14) Uani 1 1 d . . .

loop_
_atom_site_aniso_label
_atom_site_aniso_U_11
_atom_site_aniso_U_22
_atom_site_aniso_U_33
_atom_site_aniso_U_23
_atom_site_aniso_U_13
_atom_site_aniso_U_12
C1 0.047(4) 0.028(3) 0.037(4) -0.002(3) 0.016(3) -0.012(3)
C2 0.040(4) 0.041(4) 0.044(4) -0.015(3) 0.009(3) -0.006(3)
C3 0.045(5) 0.090(6) 0.055(5) -0.046(5) 0.001(4) 0.001(4)
C4 0.040(4) 0.065(5) 0.052(4) -0.029(4) 0.010(3) -0.017(4)
C5 0.043(4) 0.049(4) 0.037(4) -0.015(3) 0.007(3) -0.005(3)
C6 0.040(4) 0.034(3) 0.054(4) -0.024(3) 0.000(3) 0.003(3)
C7 0.041(4) 0.059(5) 0.037(4) -0.015(3) -0.006(3) 0.011(3)
C8 0.036(4) 0.051(4) 0.048(4) -0.024(3) 0.005(3) -0.010(3)
C9 0.040(4) 0.039(4) 0.036(4) -0.012(3) 0.003(3) -0.015(3)
C10 0.041(4) 0.030(3) 0.071(5) -0.023(3) 0.002(3) 0.007(3)
C11 0.043(4) 0.047(4) 0.038(4) -0.026(3) 0.009(3) -0.004(3)
C12 0.024(3) 0.040(3) 0.056(4) -0.030(3) 0.006(3) 0.004(3)
C13 0.034(4) 0.071(5) 0.065(5) -0.053(4) 0.015(3) -0.017(4)
C14 0.039(4) 0.040(4) 0.043(4) -0.014(3) 0.007(3) -0.005(3)
C15 0.045(4) 0.033(4) 0.054(4) -0.006(3) 0.005(3) -0.002(3)
C16 0.047(4) 0.040(4) 0.030(3) -0.009(3) 0.010(3) -0.006(3)
C17 0.047(4) 0.036(3) 0.035(3) -0.008(3) 0.009(3) -0.007(3)
C18 0.036(4) 0.038(4) 0.039(4) -0.012(3) 0.006(3) -0.005(3)
C19 0.038(4) 0.032(3) 0.047(4) -0.002(3) 0.021(3) -0.010(3)
C20 0.041(4) 0.034(4) 0.036(3) 0.003(3) -0.004(3) -0.005(3)
C21 0.035(4) 0.041(4) 0.047(4) -0.016(3) -0.002(3) 0.002(3)
C22 0.040(4) 0.052(4) 0.051(4) -0.022(4) -0.002(3) 0.004(3)
C23 0.035(4) 0.032(3) 0.031(3) -0.004(3) -0.010(3) 0.001(3)
C24 0.054(5) 0.035(4) 0.038(4) -0.008(3) 0.014(3) -0.018(3)
C25 0.054(5) 0.048(4) 0.048(4) -0.019(4) 0.019(4) -0.019(4)
C26 0.051(4) 0.031(3) 0.031(3) 0.000(3) 0.008(3) -0.009(3)
C27 0.037(4) 0.042(4) 0.056(4) -0.017(3) -0.011(3) 0.010(3)
C28 0.032(4) 0.043(4) 0.052(4) -0.013(3) -0.004(3) 0.002(3)
C29 0.043(4) 0.039(4) 0.039(4) -0.011(3) 0.000(3) -0.008(3)
C30 0.044(4) 0.037(4) 0.037(4) -0.016(3) 0.010(3) -0.019(3)
C31 0.046(4) 0.040(4) 0.040(4) -0.003(3) 0.005(3) 0.002(3)
C32 0.036(4) 0.044(4) 0.039(4) -0.012(3) -0.001(3) 0.003(3)
C33 0.040(4) 0.043(4) 0.041(4) -0.012(3) -0.002(3) -0.003(3)
C34 0.043(4) 0.033(4) 0.057(4) -0.005(3) 0.008(3) -0.001(3)
C35 0.045(5) 0.046(4) 0.039(4) -0.014(3) -0.001(3) 0.001(3)
C36 0.041(4) 0.044(4) 0.039(4) -0.007(3) 0.001(3) -0.001(3)
C37 0.041(4) 0.040(4) 0.048(4) -0.011(3) 0.018(3) 0.004(3)
C38 0.041(4) 0.039(4) 0.044(4) -0.003(3) -0.002(3) -0.010(3)
C39 0.040(4) 0.051(4) 0.022(3) 0.003(3) 0.010(3) 0.001(3)
C40 0.043(4) 0.029(3) 0.048(4) -0.009(3) 0.007(3) -0.005(3)
C41 0.040(4) 0.042(4) 0.060(5) -0.001(4) -0.002(4) -0.006(3)
C42 0.041(4) 0.042(4) 0.026(3) -0.002(3) 0.011(3) 0.001(3)
C43 0.045(5) 0.054(5) 0.102(8) -0.009(5) 0.010(5) -0.001(4)
C44 0.043(4) 0.072(5) 0.041(4) -0.021(4) -0.012(3) 0.009(4)
C45 0.052(5) 0.037(4) 0.058(5) -0.006(4) -0.002(4) 0.009(4)
C46 0.066(6) 0.047(4) 0.046(4) -0.006(4) -0.002(4) 0.017(4)
Cd1 0.0396(3) 0.0409(3) 0.0481(3) -0.0160(2) 0.0047(2) -0.0056(2)
Cd2 0.0420(3) 0.0331(3) 0.0492(3) -0.0149(2) 0.0064(2) -0.0062(2)
Cd3 0.0431(3) 0.0411(3) 0.0435(3) -0.0142(2) 0.0146(2) -0.0082(2)
N1 0.052(4) 0.055(4) 0.047(4) -0.021(3) -0.006(3) 0.002(3)
O1 0.044(3) 0.047(3) 0.056(3) -0.022(3) 0.011(2) -0.003(2)
O2 0.047(3) 0.057(3) 0.056(3) -0.027(3) 0.023(2) -0.018(2)
O3 0.036(3) 0.054(3) 0.046(3) -0.019(2) 0.007(2) -0.007(2)
O4 0.035(3) 0.051(3) 0.057(3) -0.025(2) 0.008(2) -0.006(2)
O5 0.049(3) 0.042(3) 0.054(3) -0.013(2) -0.004(2) -0.009(2)
O6 0.044(3) 0.050(3) 0.099(5) -0.024(3) 0.024(3) -0.017(3)
O7 0.047(3) 0.039(3) 0.062(3) -0.020(2) 0.005(2) -0.003(2)
O8 0.039(3) 0.047(3) 0.052(3) -0.019(2) 0.006(2) -0.004(2)
O9 0.041(3) 0.054(3) 0.083(4) -0.024(3) 0.014(3) -0.004(3)
O10 0.039(3) 0.038(3) 0.081(4) -0.019(3) 0.008(3) -0.007(2)
O11 0.043(3) 0.053(3) 0.066(4) -0.001(3) -0.006(3) -0.007(3)
O12 0.035(3) 0.029(2) 0.062(3) 0.006(2) 0.015(2) -0.009(2)
O13 0.049(3) 0.039(3) 0.046(3) -0.014(2) 0.010(2) -0.012(2)
O14 0.047(3) 0.049(3) 0.045(3) -0.007(2) 0.005(2) 0.007(2)
O15 0.038(3) 0.059(3) 0.062(3) -0.030(3) -0.007(2) 0.013(2)
O16 0.041(3) 0.046(3) 0.056(3) -0.008(2) -0.009(2) -0.002(2)
O17 0.048(3) 0.045(3) 0.056(3) -0.009(3) 0.004(2) 0.009(2)

_geom_special_details            
;
All esds (except the esd in the dihedral angle between two l.s. planes)
are estimated using the full covariance matrix. The cell esds are taken
into account individually in the estimation of esds in distances, angles
and torsion angles; correlations between esds in cell parameters are only
used when they are defined by crystal symmetry. An approximate (isotropic)
treatment of cell esds is used for estimating esds involving l.s. planes.
;

loop_
_geom_bond_atom_site_label_1
_geom_bond_atom_site_label_2
_geom_bond_distance
_geom_bond_site_symmetry_2
_geom_bond_publ_flag
C1 O2 1.251(9) . ?
C1 O1 1.294(9) . ?
C1 C2 1.517(10) . ?
C1 Cd3 2.664(7) . ?
C2 C7 1.332(11) . ?
C2 C3 1.359(11) . ?
C3 C4 1.376(11) . ?
C3 H3 0.9300 . ?
C4 C5 1.408(11) . ?
C4 H4 0.9300 . ?
C5 C6 1.397(10) . ?
C5 C8 1.503(10) . ?
C6 C7 1.428(10) . ?
C6 H6 0.9300 . ?
C7 H7 0.9300 . ?
C8 C9 1.372(10) . ?
C8 C13 1.373(10) . ?
C9 C10 1.397(10) . ?
C9 H9 0.9300 . ?
C10 C11 1.393(10) . ?
C10 C21 1.465(10) . ?
C11 C12 1.377(9) . ?
C11 H11 0.9300 . ?
C12 C13 1.397(9) . ?
C12 C14 1.473(9) . ?
C1