####################################################################### 
# 
# This file contains crystal structure data downloaded from the 
# Cambridge Structural Database (CSD) hosted by the Cambridge 
# Crystallographic Data Centre (CCDC).
# 
# Full information about CCDC data access policies and citation 
# guidelines are available at http://www.ccdc.cam.ac.uk/access/V1 
# 
# Audit and citation data items may have been added by the CCDC. 
# Please retain this information to preserve the provenance of 
# this file and to allow appropriate attribution of the data. 
# 
#######################################################################

data_040902c
_audit_block_doi                 10.5517/cc6ph5j
_database_code_depnum_ccdc_archive 'CCDC 199397'
loop_
_citation_id
_citation_doi
_citation_year
1 10.1002/jccs.200400005 2004
_audit_update_record             
;
2002-12-09 deposited with the CCDC.	2024-07-08 downloaded from the CCDC.
;

_audit_creation_method           SHELXL-97
_chemical_name_systematic        
; 
? 
;
_chemical_name_common            ?
_chemical_melting_point          ?
_chemical_formula_moiety         ?
_chemical_formula_sum            'C48 H78 Fe2 N24 Ni2 O5'
_chemical_formula_weight         1298.40

loop_
_atom_type_symbol
_atom_type_description
_atom_type_scat_dispersion_real
_atom_type_scat_dispersion_imag
_atom_type_scat_source
C C 0.0033 0.0016 'International Tables Vol C Tables 4.2.6.8 and 6.1.1.4'
H H 0.0000 0.0000 'International Tables Vol C Tables 4.2.6.8 and 6.1.1.4'
N N 0.0061 0.0033 'International Tables Vol C Tables 4.2.6.8 and 6.1.1.4'
O O 0.0106 0.0060 'International Tables Vol C Tables 4.2.6.8 and 6.1.1.4'
Ni Ni 0.3393 1.1124 'International Tables Vol C Tables 4.2.6.8 and 6.1.1.4'
Fe Fe 0.3463 0.8444 'International Tables Vol C Tables 4.2.6.8 and 6.1.1.4'

_symmetry_cell_setting           Triclinic
_symmetry_space_group_name_H-M   P-1

loop_
_symmetry_equiv_pos_as_xyz
'x, y, z'
'-x, -y, -z'

_cell_length_a                   8.461(6)
_cell_length_b                   14.411(11)
_cell_length_c                   15.377(12)
_cell_angle_alpha                112.881(13)
_cell_angle_beta                 104.136(13)
_cell_angle_gamma                94.429(14)
_cell_volume                     1644(2)
_cell_formula_units_Z            1
_cell_measurement_temperature    293(2)
_cell_measurement_reflns_used    ?
_cell_measurement_theta_min      ?
_cell_measurement_theta_max      ?

_exptl_crystal_description       ?
_exptl_crystal_colour            ?
_exptl_crystal_size_max          0.25
_exptl_crystal_size_mid          0.20
_exptl_crystal_size_min          0.10
_exptl_crystal_density_meas      ?
_exptl_crystal_density_diffrn    1.350
_exptl_crystal_density_method    'not measured'
_exptl_crystal_F_000             702
_exptl_absorpt_coefficient_mu    1.060
_exptl_absorpt_correction_type   MULTI-SCAN
_exptl_absorpt_correction_T_min  0.7775
_exptl_absorpt_correction_T_max  0.9014
_exptl_absorpt_process_details   SADABS

_exptl_special_details           
; 
? 
;

_diffrn_ambient_temperature      293(2)
_diffrn_radiation_wavelength     0.71073
_diffrn_radiation_type           MoK\a
_diffrn_radiation_source         'fine-focus sealed tube'
_diffrn_radiation_monochromator  graphite
_diffrn_measurement_device_type  'Bruker P4'
_diffrn_measurement_method       '\w scans'
_diffrn_detector_area_resol_mean ?
_diffrn_standards_number         ?
_diffrn_standards_interval_count ?
_diffrn_standards_interval_time  ?
_diffrn_standards_decay_%        ?
_diffrn_reflns_number            5148
_diffrn_reflns_av_R_equivalents  0.1171
_diffrn_reflns_av_sigmaI/netI    0.3201
_diffrn_reflns_limit_h_min       -9
_diffrn_reflns_limit_h_max       7
_diffrn_reflns_limit_k_min       -14
_diffrn_reflns_limit_k_max       16
_diffrn_reflns_limit_l_min       -17
_diffrn_reflns_limit_l_max       15
_diffrn_reflns_theta_min         2.53
_diffrn_reflns_theta_max         23.45
_reflns_number_total             4361
_reflns_number_gt                1776
_reflns_threshold_expression     >2sigma(I)

_computing_data_collection       'Bruker XSCANS'
_computing_cell_refinement       'Bruker XSCANS'
_computing_data_reduction        'Bruker SHELXTL'
_computing_structure_solution    'SHELXS-97 (Sheldrick, 1990)'
_computing_structure_refinement  'SHELXL-97 (Sheldrick, 1997)'
_computing_molecular_graphics    'Bruker SHELXTL'
_computing_publication_material  'Bruker SHELXTL'

_refine_special_details          
; 
Refinement of F^2^ against ALL reflections.  The weighted R-factor wR and 
goodness of fit S are based on F^2^, conventional R-factors R are based 
on F, with F set to zero for negative F^2^. The threshold expression of 
F^2^ > 2sigma(F^2^) is used only for calculating R-factors(gt) etc. and is 
not relevant to the choice of reflections for refinement.  R-factors based 
on F^2^ are statistically about twice as large as those based on F, and R- 
factors based on ALL data will be even larger. 
;

_refine_ls_structure_factor_coef Fsqd
_refine_ls_matrix_type           full
_refine_ls_weighting_scheme      calc
_refine_ls_weighting_details     
'calc w=1/[\s^2^(Fo^2^)+(0.0200P)^2^+0.0000P] where P=(Fo^2^+2Fc^2^)/3'
_atom_sites_solution_primary     direct
_atom_sites_solution_secondary   difmap
_atom_sites_solution_hydrogens   geom
_refine_ls_hydrogen_treatment    mixed
_refine_ls_extinction_method     none
_refine_ls_extinction_coef       ?
_refine_ls_number_reflns         4361
_refine_ls_number_parameters     376
_refine_ls_number_restraints     0
_refine_ls_R_factor_all          0.2371
_refine_ls_R_factor_gt           0.0799
_refine_ls_wR_factor_ref         0.1274
_refine_ls_wR_factor_gt          0.0933
_refine_ls_goodness_of_fit_ref   0.930
_refine_ls_restrained_S_all      0.930
_refine_ls_shift/su_max          0.008
_refine_ls_shift/su_mean         0.002

loop_
_atom_site_label
_atom_site_type_symbol
_atom_site_fract_x
_atom_site_fract_y
_atom_site_fract_z
_atom_site_U_iso_or_equiv
_atom_site_adp_type
_atom_site_occupancy
_atom_site_symmetry_multiplicity
_atom_site_calc_flag
_atom_site_refinement_flags
_atom_site_disorder_assembly
_atom_site_disorder_group
Fe1 Fe 0.27226(16) 0.26716(10) 0.14953(11) 0.0280(5) Uani 1 1 d . . .
Ni1 Ni 0.5000 0.5000 0.5000 0.0320(6) Uani 1 2 d S . .
Ni2 Ni 0.0000 0.5000 0.0000 0.0317(6) Uani 1 2 d S . .
N1 N 0.1128(9) 0.4129(6) 0.0704(6) 0.039(2) Uani 1 1 d . . .
N2 N 0.4156(11) 0.1152(6) 0.2261(7) 0.051(3) Uani 1 1 d . . .
N3 N 0.3250(8) 0.4137(5) 0.3611(6) 0.029(2) Uani 1 1 d . . .
N4 N 0.6222(10) 0.3737(6) 0.1880(7) 0.054(3) Uani 1 1 d . . .
N5 N 0.2245(12) 0.1718(6) 0.0075(7) 0.044(3) Uani 1 1 d . . .
N6 N 0.0431(9) 0.1979(5) 0.1227(7) 0.036(2) Uani 1 1 d . . .
N7 N -0.2086(9) 0.3861(6) -0.0817(7) 0.043(2) Uani 1 1 d . . .
H7B H -0.2713 0.4046 -0.1272 0.052 Uiso 1 1 calc R . .
N8 N -0.1186(9) 0.5568(6) 0.1099(6) 0.040(2) Uani 1 1 d . . .
H8B H -0.0775 0.5340 0.1568 0.048 Uiso 1 1 calc R . .
N9 N 0.0774(13) 0.7160(6) 0.1986(8) 0.057(3) Uani 1 1 d . . .
N10 N 0.4347(10) 0.6320(6) 0.4897(6) 0.046(3) Uani 1 1 d . . .
H10A H 0.3683 0.6116 0.4267 0.055 Uiso 1 1 calc R . .
N11 N 0.3197(9) 0.5021(6) 0.5688(6) 0.040(3) Uani 1 1 d . . .
H11B H 0.3708 0.5305 0.6351 0.048 Uiso 1 1 calc R . .
N12 N 0.3276(13) 0.3315(7) 0.5568(8) 0.060(3) Uani 1 1 d . . .
C1 C 0.1793(11) 0.3636(7) 0.1046(7) 0.026(3) Uiso 1 1 d . . .
C2 C 0.3653(14) 0.1716(8) 0.1950(8) 0.041(3) Uani 1 1 d . . .
C3 C 0.3012(11) 0.3583(7) 0.2806(8) 0.033(3) Uiso 1 1 d . . .
C4 C 0.4933(13) 0.3312(8) 0.1706(7) 0.035(3) Uani 1 1 d . . .
C5 C 0.3287(16) 0.1613(8) -0.0435(10) 0.057(4) Uani 1 1 d . . .
H5A H 0.4375 0.1974 -0.0124 0.068 Uiso 1 1 calc R . .
C6 C 0.281(2) 0.0970(9) -0.1442(12) 0.083(5) Uani 1 1 d . . .
H6A H 0.3566 0.0894 -0.1799 0.099 Uiso 1 1 calc R . .
C7 C 0.1176(18) 0.0444(9) -0.1903(10) 0.075(5) Uani 1 1 d . . .
H7A H 0.0816 0.0016 -0.2576 0.090 Uiso 1 1 calc R . .
C8 C 0.0130(15) 0.0570(8) -0.1353(10) 0.061(4) Uiso 1 1 d . . .
H8A H -0.0973 0.0235 -0.1657 0.074 Uiso 1 1 calc R . .
C9 C 0.0642(16) 0.1177(7) -0.0359(9) 0.049(4) Uani 1 1 d . . .
C10 C -0.0323(14) 0.1342(7) 0.0304(9) 0.035(3) Uani 1 1 d . . .
C11 C -0.2021(16) 0.0868(7) -0.0016(10) 0.066(4) Uani 1 1 d . . .
H11A H -0.2564 0.0441 -0.0677 0.080 Uiso 1 1 calc R . .
C12 C -0.2840(15) 0.1073(10) 0.0707(13) 0.070(5) Uani 1 1 d . . .
H12A H -0.3957 0.0780 0.0520 0.084 Uiso 1 1 calc R . .
C13 C -0.2056(14) 0.1681(9) 0.1666(11) 0.060(4) Uani 1 1 d . . .
H13A H -0.2602 0.1794 0.2144 0.072 Uiso 1 1 calc R . .
C14 C -0.0409(14) 0.2134(7) 0.1917(9) 0.055(4) Uani 1 1 d . . .
H14A H 0.0150 0.2557 0.2577 0.066 Uiso 1 1 calc R . .
C15 C -0.3004(13) 0.3936(8) -0.0071(9) 0.055(4) Uani 1 1 d . . .
H15A H -0.4159 0.3604 -0.0413 0.066 Uiso 1 1 calc R . .
H15B H -0.2522 0.3585 0.0324 0.066 Uiso 1 1 calc R . .
C16 C -0.2904(12) 0.5033(8) 0.0587(8) 0.048(3) Uani 1 1 d . . .
H16A H -0.3455 0.5370 0.0195 0.057 Uiso 1 1 calc R . .
H16B H -0.3479 0.5069 0.1070 0.057 Uiso 1 1 calc R . .
C17 C -0.0911(13) 0.6690(8) 0.1594(7) 0.050(3) Uani 1 1 d . . .
H17A H -0.1459 0.6945 0.1124 0.060 Uiso 1 1 calc R . .
H17B H -0.1419 0.6884 0.2125 0.060 Uiso 1 1 calc R . .
C18 C 0.1762(14) 0.7162(8) 0.1353(9) 0.058(4) Uani 1 1 d . . .
H20A H 0.2812 0.7633 0.1747 0.069 Uiso 1 1 calc R . .
H20B H 0.1195 0.7408 0.0880 0.069 Uiso 1 1 calc R . .
C19 C 0.1571(16) 0.7004(9) 0.2825(9) 0.092(5) Uani 1 1 d . . .
H19A H 0.2714 0.7342 0.3076 0.137 Uiso 1 1 calc R . .
H19B H 0.1508 0.6282 0.2644 0.137 Uiso 1 1 calc R . .
H19C H 0.1031 0.7280 0.3326 0.137 Uiso 1 1 calc R . .
C20 C 0.5702(16) 0.7064(8) 0.5027(9) 0.064(4) Uani 1 1 d . . .
H21A H 0.5261 0.7611 0.4890 0.077 Uiso 1 1 calc R . .
H21B H 0.6375 0.7361 0.5714 0.077 Uiso 1 1 calc R . .
C21 C 0.3261(13) 0.6637(8) 0.5536(8) 0.056(4) Uani 1 1 d . . .
H22A H 0.2579 0.7076 0.5342 0.068 Uiso 1 1 calc R . .
H22B H 0.3940 0.7030 0.6217 0.068 Uiso 1 1 calc R . .
C22 C 0.2172(12) 0.5736(7) 0.5467(8) 0.046(3) Uani 1 1 d . . .
H23A H 0.1539 0.5962 0.5933 0.055 Uiso 1 1 calc R . .
H23B H 0.1397 0.5387 0.4806 0.055 Uiso 1 1 calc R . .
C23 C 0.2279(13) 0.4021(9) 0.5421(8) 0.055(4) Uani 1 1 d . . .
H24A H 0.1507 0.4093 0.5807 0.066 Uiso 1 1 calc R . .
H24B H 0.1631 0.3739 0.4730 0.066 Uiso 1 1 calc R . .
C24 C 0.420(3) 0.3690(18) 0.682(3) 0.35(2) Uani 1 1 d . . .
H26A H 0.4918 0.3228 0.6909 0.520 Uiso 1 1 calc R . .
H26B H 0.3361 0.3677 0.7137 0.520 Uiso 1 1 calc R . .
H26C H 0.4844 0.4374 0.7105 0.520 Uiso 1 1 calc R . .
O1 O 0.9560(8) 0.4779(5) 0.2719(5) 0.057(2) Uani 1 1 d . . .
O2 O 0.5174(16) 0.0079(8) 0.6755(9) 0.186(5) Uani 1 1 d . . .
O3 O 0.820(2) 0.0546(14) 0.6404(15) 0.127(7) Uani 0.50 1 d P . .
O4 O 0.931(3) 0.8648(16) 0.545(3) 0.257(17) Uani 0.50 1 d P . .
O5 O 0.205(3) 0.958(3) 0.553(2) 0.266(17) Uani 0.50 1 d P . .

loop_
_atom_site_aniso_label
_atom_site_aniso_U_11
_atom_site_aniso_U_22
_atom_site_aniso_U_33
_atom_site_aniso_U_23
_atom_site_aniso_U_13
_atom_site_aniso_U_12
Fe1 0.0264(10) 0.0227(9) 0.0350(11) 0.0123(8) 0.0074(8) 0.0102(7)
Ni1 0.0238(12) 0.0392(13) 0.0278(15) 0.0092(10) 0.0061(10) 0.0092(9)
Ni2 0.0280(13) 0.0415(13) 0.0412(16) 0.0315(11) 0.0108(10) 0.0151(9)
N1 0.042(6) 0.059(6) 0.040(7) 0.036(5) 0.019(5) 0.029(4)
N2 0.056(7) 0.038(7) 0.048(8) 0.019(5) -0.001(5) 0.005(5)
N3 0.022(5) 0.042(6) 0.021(6) 0.010(4) 0.007(4) 0.011(4)
N4 0.021(6) 0.056(7) 0.088(8) 0.026(5) 0.027(6) 0.011(5)
N5 0.054(7) 0.027(6) 0.044(7) 0.005(5) 0.013(6) 0.023(5)
N6 0.034(6) 0.016(5) 0.044(7) 0.007(5) -0.003(5) -0.001(4)
N7 0.043(6) 0.058(7) 0.037(7) 0.038(5) -0.004(5) 0.019(5)
N8 0.032(6) 0.062(7) 0.042(6) 0.040(5) 0.009(5) 0.008(5)
N9 0.062(8) 0.058(7) 0.049(9) 0.024(6) 0.010(7) 0.017(6)
N10 0.047(6) 0.041(6) 0.045(7) 0.020(5) 0.003(5) 0.013(5)
N11 0.037(6) 0.033(6) 0.050(7) 0.015(5) 0.019(5) 0.006(4)
N12 0.069(8) 0.069(7) 0.081(9) 0.055(6) 0.049(7) 0.018(6)
C2 0.070(9) 0.030(8) 0.036(9) 0.026(6) 0.018(6) 0.002(6)
C4 0.030(7) 0.061(8) 0.035(8) 0.025(6) 0.027(6) 0.033(6)
C5 0.080(10) 0.033(8) 0.046(10) 0.005(7) 0.009(8) 0.038(7)
C6 0.160(16) 0.041(9) 0.076(13) 0.033(8) 0.064(11) 0.034(9)
C7 0.078(11) 0.054(9) 0.058(11) 0.000(7) -0.001(9) 0.017(8)
C9 0.073(10) 0.006(6) 0.031(9) -0.011(6) -0.017(7) 0.019(6)
C10 0.050(8) 0.010(6) 0.037(9) 0.010(6) -0.001(7) 0.018(6)
C11 0.063(10) 0.020(7) 0.077(12) 0.010(7) -0.026(8) 0.002(7)
C12 0.022(8) 0.057(10) 0.113(14) 0.026(9) 0.002(9) 0.013(6)
C13 0.034(8) 0.050(9) 0.108(13) 0.045(8) 0.024(8) 0.006(6)
C14 0.067(9) 0.040(8) 0.056(10) 0.010(6) 0.037(8) 0.000(6)
C15 0.040(8) 0.068(10) 0.085(11) 0.058(8) 0.020(7) 0.016(6)
C16 0.040(8) 0.076(9) 0.050(9) 0.044(7) 0.020(6) 0.017(6)
C17 0.067(9) 0.042(8) 0.026(8) 0.007(6) 0.002(6) -0.003(6)
C18 0.053(8) 0.051(9) 0.063(10) 0.021(7) 0.013(7) 0.007(6)
C19 0.091(12) 0.120(12) 0.039(11) 0.026(9) -0.001(8) -0.015(8)
C20 0.090(11) 0.044(9) 0.062(10) 0.029(7) 0.021(9) -0.001(8)
C21 0.048(8) 0.074(10) 0.059(10) 0.031(7) 0.028(7) 0.031(7)
C22 0.036(7) 0.052(8) 0.057(9) 0.020(6) 0.022(6) 0.027(6)
C23 0.043(8) 0.097(11) 0.046(9) 0.041(8) 0.025(6) 0.038(8)
C24 0.41(4) 0.31(3) 0.80(7) 0.48(4) 0.53(5) 0.34(3)
O1 0.055(5) 0.077(5) 0.054(5) 0.038(4) 0.024(4) 0.021(4)
O2 0.268(15) 0.154(10) 0.182(13) 0.132(9) 0.035(11) 0.069(9)
O3 0.117(17) 0.167(19) 0.14(2) 0.091(15) 0.046(14) 0.064(13)
O4 0.20(3) 0.090(19) 0.46(5) 0.10(2) 0.10(3) -0.005(16)
O5 0.17(3) 0.54(5) 0.19(3) 0.28(3) 0.04(2) 0.00(3)

_geom_special_details            
; 
All esds (except the esd in the dihedral angle between two l.s. planes) 
are estimated using the full covariance matrix.  The cell esds are taken 
into account individually in the estimation of esds in distances, angles 
and torsion angles; correlations between esds in cell parameters are only 
used when they are defined by crystal symmetry.  An approximate (isotropic) 
treatment of cell esds is used for estimating esds involving l.s. planes. 
;

loop_
_geom_bond_atom_site_label_1
_geom_bond_atom_site_label_2
_geom_bond_distance
_geom_bond_site_symmetry_2
_geom_bond_publ_flag
Fe1 C3 1.871(11) . ?
Fe1 C2 1.911(12) . ?
Fe1 C1 1.917(11) . ?
Fe1 C4 1.913(11) . ?
Fe1 N6 1.979(8) . ?
Fe1 N5 1.993(9) . ?
Ni1 N11 2.053(8) 2_666 ?
Ni1 N11 2.053(8) . ?
Ni1 N10 2.075(8) 2_666 ?
Ni1 N10 2.075(8) . ?
Ni1 N3 2.099(7) 2_666 ?
Ni1 N3 2.099(7) . ?
Ni2 N7 2.062(7) . ?
Ni2 N7 2.062(7) 2_565 ?
Ni2 N1 2.097(8) . ?
Ni2 N1 2.097(8) 2_565 ?
Ni2 N8 2.100(8) . ?
Ni2 N8 2.100(8) 2_565 ?
N1 C1 1.143(10) . ?
N2 C2 1.153(11) . ?
N3 C3 1.138(10) . ?
N4 C4 1.124(10) . ?
N5 C5 1.297(13) . ?
N5 C9 1.372(12) . ?
N6 C10 1.310(11) . ?
N6 C14 1.376(12) . ?
N7 C18 1.468(11) 2_565 ?
N7 C15 1.511(12) . ?
N7 H7B 0.9100 . ?
N8 C16 1.457(10) . ?
N8 C17 1.466(10) . ?
N8 H8B 0.9100 . ?
N9 C17 1.402(11) . ?
N9 C19 1.413(14) . ?
N9 C18 1.430(13) . ?
N10 C20 1.426(11) . ?
N10 C21 1.476(12) . ?
N10 H10A 0.9100 . ?
N11 C23 1.435(12) . ?
N11 C22 1.481(11) . ?
N11 H11B 0.9100 . ?
N12 C20 1.399(13) 2_666 ?
N12 C23 1.420(13) . ?
N12 C24 1.73(3) . ?
C5 C6 1.392(15) . ?
C5 H5A 0.9300 . ?
C6 C7 1.386(15) . ?
C6 H6A 0.9300 . ?
C7 C8 1.342(15) . ?
C7 H7A 0.9300 . ?
C8 C9 1.366(14) . ?
C8 H8A 0.9300 . ?
C9 C10 1.418(14) . ?
C10 C11 1.419(13) . ?
C11 C12 1.398(16) . ?
C11 H11A 0.9300 . ?
C12 C13 1.346(15) . ?
C12 H12A 0.9300 . ?
C13 C14 1.384(12) . ?
C13 H13A 0.9300 . ?
C14 H14A 0.9300 . ?
C15 C16 1.491(12) . ?
C15 H15A 0.9700 . ?
C15 H15B 0.9700 . ?
C16 H16A 0.9700 . ?
C16 H16B 0.9700 . ?
C17 H17A 0.9700 . ?
C17 H17B 0.9700 . ?
C18 N7 1.468(11) 2_565 ?
C18 H20A 0.9700 . ?
C18 H20B 0.9700 . ?
C19 H19A 0.9600 . ?
C19 H19B 0.9600 . ?
C19 H19C 0.9600 . ?
C20 N12 1.399(13) 2_666 ?
C20 H21A 0.9700 . ?
C20 H21B 0.9700 . ?
C21 C22 1.485(12) . ?
C21 H22A 0.9700 . ?
C21 H22B 0.9700 . ?
C22 H23A 0.9700 . ?
C22 H23B 0.9700 . ?
C23 H24A 0.9700 . ?
C23 H24B 0.9700 . ?
C24 H26A 0.9600 . ?
C24 H26B 0.9600 . ?
C24 H26C 0.9600 . ?

loop_
_geom_angle_atom_site_label_1
_geom_angle_atom_site_label_2
_geom_angle_atom_site_label_3
_geom_angle
_geom_angle_site_symmetry_1
_geom_angle_site_symmetry_3
_geom_angle_publ_flag
C3 Fe1 C2 89.5(5) . . ?
C3 Fe1 C1 90.2(4) . . ?
C2 Fe1 C1 179.7(5) . . ?
C3 Fe1 C4 85.4(4) . . ?
C2 Fe1 C4 88.3(4) . . ?
C1 Fe1 C4 91.6(4) . . ?
C3 Fe1 N6 96.7(4) . . ?
C2 Fe1 N6 91.9(4) . . ?
C1 Fe1 N6 88.2(4) . . ?
C4 Fe1 N6 177.9(4) . . ?
C3 Fe1 N5 175.8(4) . . ?
C2 Fe1 N5 93.3(4) . . ?
C1 Fe1 N5 87.0(4) . . ?
C4 Fe1 N5 97.8(4) . . ?
N6 Fe1 N5 80.1(4) . . ?
N11 Ni1 N11 180.000(2) 2_666 . ?
N11 Ni1 N10 86.5(3) 2_666 2_666 ?
N11 Ni1 N10 93.5(3) . 2_666 ?
N11 Ni1 N10 93.5(3) 2_666 . ?
N11 Ni1 N10 86.5(3) . . ?
N10 Ni1 N10 180.0(5) 2_666 . ?
N11 Ni1 N3 90.8(3) 2_666 2_666 ?
N11 Ni1 N3 89.2(3) . 2_666 ?
N10 Ni1 N3 88.5(3) 2_666 2_666 ?
N10 Ni1 N3 91.5(3) . 2_666 ?
N11 Ni1 N3 89.2(3) 2_666 . ?
N11 Ni1 N3 90.8(3) . . ?
N10 Ni1 N3 91.5(3) 2_666 . ?
N10 Ni1 N3 88.5(3) . . ?
N3 Ni1 N3 180.000(1) 2_666 . ?
N7 Ni2 N7 180.0(4) . 2_565 ?
N7 Ni2 N1 92.6(3) . . ?
N7 Ni2 N1 87.4(3) 2_565 . ?
N7 Ni2 N1 87.4(3) . 2_565 ?
N7 Ni2 N1 92.6(3) 2_565 2_565 ?
N1 Ni2 N1 180.000(1) . 2_565 ?
N7 Ni2 N8 87.5(3) . . ?
N7 Ni2 N8 92.5(3) 2_565 . ?
N1 Ni2 N8 89.5(3) . . ?
N1 Ni2 N8 90.5(3) 2_565 . ?
N7 Ni2 N8 92.5(3) . 2_565 ?
N7 Ni2 N8 87.5(3) 2_565 2_565 ?
N1 Ni2 N8 90.5(3) . 2_565 ?
N1 Ni2 N8 89.5(3) 2_565 2_565 ?
N8 Ni2 N8 180.0(3) . 2_565 ?
C1 N1 Ni2 175.9(8) . . ?
C3 N3 Ni1 147.3(7) . . ?
C5 N5 C9 120.7(11) . . ?
C5 N5 Fe1 125.5(8) . . ?
C9 N5 Fe1 113.8(8) . . ?
C10 N6 C14 119.1(10) . . ?
C10 N6 Fe1 115.5(8) . . ?
C14 N6 Fe1 125.3(7) . . ?
C18 N7 C15 115.4(9) 2_565 . ?
C18 N7 Ni2 115.2(6) 2_565 . ?
C15 N7 Ni2 103.2(6) . . ?
C18 N7 H7B 107.5 2_565 . ?
C15 N7 H7B 107.5 . . ?
Ni2 N7 H7B 107.5 . . ?
C16 N8 C17 116.4(8) . . ?
C16 N8 Ni2 103.1(6) . . ?
C17 N8 Ni2 114.4(6) . . ?
C16 N8 H8B 107.4 . . ?
C17 N8 H8B 107.4 . . ?
