####################################################################### 
# 
# This file contains crystal structure data downloaded from the 
# Cambridge Structural Database (CSD) hosted by the Cambridge 
# Crystallographic Data Centre (CCDC).
# 
# Full information about CCDC data access policies and citation 
# guidelines are available at http://www.ccdc.cam.ac.uk/access/V1 
# 
# Audit and citation data items may have been added by the CCDC. 
# Please retain this information to preserve the provenance of 
# this file and to allow appropriate attribution of the data. 
# 
#######################################################################

data_usd-35-ds3-sq
_audit_block_doi                 10.5517/ccvwq6m
_database_code_depnum_ccdc_archive 'CCDC 801201'
loop_
_citation_id
_citation_doi
_citation_year
1 10.1039/c1cc10674k 2011
_audit_update_record             
;
2010-11-16 deposited with the CCDC.	2024-07-08 downloaded from the CCDC.
;
#TrackingRef '- DUT-28-LT-CCDC-80201.cif'


_audit_creation_method           SHELXL-97
_chemical_name_systematic        ?
_chemical_name_common            'Co22(btb)12 (DUT-28(LT))'
_chemical_formula_moiety         'C324 H180 Co22 O120'
_chemical_formula_sum            'C162 H90 Co11 O60'
_chemical_properties_physical    moisture-sensitive
_exptl_crystal_recrystallization_method DEF
_chemical_melting_point          ?

_exptl_crystal_description       ?
_exptl_crystal_colour            purple
_diffrn_ambient_temperature      100K
_diffrn_ambient_pressure         100
_chemical_formula_weight         3644.58

loop_
_atom_type_symbol
_atom_type_description
_atom_type_scat_dispersion_real
_atom_type_scat_dispersion_imag
_atom_type_scat_source
C C 0.0033 0.0016 'International Tables Vol C Tables 4.2.6.8 and 6.1.1.4'
O O 0.0106 0.0060 'International Tables Vol C Tables 4.2.6.8 and 6.1.1.4'
Co Co 0.3494 0.9721 'International Tables Vol C Tables 4.2.6.8 and 6.1.1.4'
N N 0.0061 0.0033 'International Tables Vol C Tables 4.2.6.8 and 6.1.1.4'
H H 0.0000 0.0000 'International Tables Vol C Tables 4.2.6.8 and 6.1.1.4'

_symmetry_cell_setting           monoclinic
_symmetry_space_group_name_H-M   'C 2/c'
_symmetry_int_tables_number      15
_chemical_absolute_configuration ?

loop_
_symmetry_equiv_pos_as_xyz
'x, y, z'
'-x, y, -z+1/2'
'x+1/2, y+1/2, z'
'-x+1/2, y+1/2, -z+1/2'
'-x, -y, -z'
'x, -y, z-1/2'
'-x+1/2, -y+1/2, -z'
'x+1/2, -y+1/2, z-1/2'

_cell_length_a                   45.386(9)
_cell_length_b                   35.904(7)
_cell_length_c                   33.184(7)
_cell_angle_alpha                90.00
_cell_angle_beta                 94.91(3)
_cell_angle_gamma                90.00
_cell_volume                     53876(19)
_cell_formula_units_Z            4
_cell_measurement_temperature    293(2)
_cell_measurement_reflns_used    4714
_cell_measurement_theta_min      1.22
_cell_measurement_theta_max      25.5
_exptl_crystal_size_max          ?
_exptl_crystal_size_mid          ?
_exptl_crystal_size_min          ?
_exptl_crystal_density_meas      ?
_exptl_crystal_density_diffrn    0.449
_exptl_crystal_density_method    'not measured'
_exptl_crystal_F_000             7460
_exptl_absorpt_coefficient_mu    0.644
_exptl_absorpt_correction_type   empirical
_exptl_absorpt_correction_T_min  ?
_exptl_absorpt_correction_T_max  ?
_exptl_absorpt_process_details   ?

_exptl_special_details           
;
Absorption cooefficient is given for the solvent free framework.
;

_diffrn_radiation_probe          x-ray
_diffrn_radiation_type           synchrotron
_diffrn_radiation_wavelength     0.88561
_diffrn_source                   'fine-focus sealed tube'
_diffrn_source_type              'BESSY BL MX-14.2'
_diffrn_radiation_monochromator  'Si 111'
_diffrn_measurement_device_type  'MX-225 CCD'
_diffrn_measurement_method       '\D\f scans'
_diffrn_detector_area_resol_mean ?
_diffrn_standards_number         ?
_diffrn_standards_interval_count ?
_diffrn_standards_interval_time  ?
_diffrn_standards_decay_%        ?
_diffrn_reflns_number            99640
_diffrn_reflns_av_R_equivalents  0.0935
_diffrn_reflns_av_sigmaI/netI    0.0714
_diffrn_reflns_limit_h_min       -44
_diffrn_reflns_limit_h_max       44
_diffrn_reflns_limit_k_min       -34
_diffrn_reflns_limit_k_max       34
_diffrn_reflns_limit_l_min       -32
_diffrn_reflns_limit_l_max       32
_diffrn_reflns_theta_min         1.22
_diffrn_reflns_theta_max         25.50
_reflns_number_total             25433
_reflns_number_gt                18857
_reflns_threshold_expression     >2sigma(I)

_computing_data_collection       'marCCD 1994-2002'
_computing_cell_refinement       XDS
_computing_data_reduction        XDSCONV
_computing_structure_solution    'SHELXS-97 (Sheldrick, 1997)'
_computing_structure_refinement  'SHELXL-97 (Sheldrick, 1997)'
_computing_molecular_graphics    'Diamond 3.1'
_computing_publication_material  WinGX

_refine_special_details          
;
Refinement of F^2^ against ALL reflections. The weighted R-factor wR and
goodness of fit S are based on F^2^, conventional R-factors R are based
on F, with F set to zero for negative F^2^. The threshold expression of
F^2^ > 2sigma(F^2^) is used only for calculating R-factors(gt) etc. and is
not relevant to the choice of reflections for refinement. R-factors based
on F^2^ are statistically about twice as large as those based on F, and R-
factors based on ALL data will be even larger.
;

_refine_ls_structure_factor_coef Fsqd
_refine_ls_matrix_type           full
_refine_ls_weighting_scheme      calc
_refine_ls_weighting_details     
'calc w=1/[\s^2^(Fo^2^)+(0.1461P)^2^] where P=(Fo^2^+2Fc^2^)/3'
_atom_sites_solution_primary     direct
_atom_sites_solution_secondary   difmap
_atom_sites_solution_hydrogens   geom
_refine_ls_hydrogen_treatment    mixed
_refine_ls_extinction_method     none
_refine_ls_extinction_coef       ?
_refine_ls_number_reflns         25433
_refine_ls_number_parameters     1046
_refine_ls_number_restraints     0
_refine_ls_R_factor_all          0.0926
_refine_ls_R_factor_gt           0.0763
_refine_ls_wR_factor_ref         0.2252
_refine_ls_wR_factor_gt          0.2133
_refine_ls_goodness_of_fit_ref   1.109
_refine_ls_restrained_S_all      1.109
_refine_ls_shift/su_max          0.003
_refine_ls_shift/su_mean         0.000

loop_
_atom_site_label
_atom_site_type_symbol
_atom_site_fract_x
_atom_site_fract_y
_atom_site_fract_z
_atom_site_U_iso_or_equiv
_atom_site_adp_type
_atom_site_occupancy
_atom_site_symmetry_multiplicity
_atom_site_calc_flag
_atom_site_refinement_flags
_atom_site_disorder_assembly
_atom_site_disorder_group
C1 C 0.97644(9) 0.21533(13) 0.18217(16) 0.0488(12) Uani 1 1 d . . .
C2 C 1.29102(9) 0.00794(13) 0.51449(14) 0.0547(10) Uani 1 1 d . . .
C3 C 0.95676(9) 0.16523(13) 0.13427(12) 0.0528(13) Uani 1 1 d . . .
H3 H 0.9705 0.1726 0.1165 0.063 Uiso 1 1 calc R . .
C4 C 1.28211(13) -0.00882(14) 0.47175(16) 0.0657(16) Uani 1 1 d . . .
C5 C 0.95528(8) 0.18363(12) 0.17153(13) 0.0460(12) Uani 1 1 d . . .
C6 C 0.93435(9) 0.17377(12) 0.19786(13) 0.0497(12) Uani 1 1 d . . .
H6 H 0.9332 0.1865 0.2221 0.060 Uiso 1 1 calc R . .
C7 C 0.91490(8) 0.14390(12) 0.18682(13) 0.0488(12) Uani 1 1 d . . .
H7 H 0.9009 0.1368 0.2042 0.059 Uiso 1 1 calc R . .
C8 C 0.93771(9) 0.13625(14) 0.12444(14) 0.0594(14) Uani 1 1 d . . .
H8 H 0.9387 0.1236 0.1001 0.071 Uiso 1 1 calc R . .
C9 C 0.91628(8) 0.12539(12) 0.15139(13) 0.0472(12) Uani 1 1 d . . .
C10 C 0.89671(8) 0.09296(13) 0.14067(13) 0.0492(12) Uani 1 1 d . . .
C11 C 0.88587(8) 0.08703(12) 0.09969(12) 0.0464(12) Uani 1 1 d . . .
H11 H 0.8914 0.1027 0.0794 0.056 Uiso 1 1 calc R . .
C12 C 0.86638(8) 0.05661(12) 0.09031(13) 0.0457(12) Uani 1 1 d . . .
C13 C 0.85917(8) 0.03375(13) 0.12100(13) 0.0504(13) Uani 1 1 d . . .
H13 H 0.8465 0.0138 0.1149 0.060 Uiso 1 1 calc R . .
C14 C 0.87025(8) 0.03952(12) 0.16166(13) 0.0460(12) Uani 1 1 d . . .
C15 C 0.88875(8) 0.06896(12) 0.17062(12) 0.0459(12) Uani 1 1 d . . .
H15 H 0.8961 0.0730 0.1973 0.055 Uiso 1 1 calc R . .
C16 C 0.86084(8) 0.01447(12) 0.19408(13) 0.0493(13) Uani 1 1 d . . .
C17 C 0.83309(9) 0.00195(14) 0.19387(14) 0.0584(14) Uani 1 1 d . . .
H17 H 0.8197 0.0072 0.1718 0.070 Uiso 1 1 calc R . .
C18 C 0.88149(9) 0.00432(14) 0.22622(14) 0.0631(15) Uani 1 1 d . . .
H18 H 0.9012 0.0112 0.2257 0.076 Uiso 1 1 calc R . .
C19 C 0.82379(9) -0.01849(15) 0.22557(14) 0.0633(14) Uani 1 1 d . . .
H19 H 0.8042 -0.0263 0.2250 0.076 Uiso 1 1 calc R . .
C20 C 0.87270(9) -0.01570(14) 0.25849(14) 0.0638(15) Uani 1 1 d . . .
H20 H 0.8864 -0.0213 0.2801 0.077 Uiso 1 1 calc R . .
C21 C 0.84410(9) -0.02753(14) 0.25907(13) 0.0600(14) Uani 1 1 d . . .
C22 C 0.83347(12) -0.04660(16) 0.29453(15) 0.0756(17) Uani 1 1 d . . .
C23 C 0.85359(9) 0.05129(13) 0.04883(14) 0.0513(13) Uani 1 1 d . . .
C24 C 0.86995(10) 0.05937(14) 0.01661(16) 0.0652(15) Uani 1 1 d . . .
H24 H 0.8892 0.0680 0.0222 0.078 Uiso 1 1 calc R . .
C25 C 0.85905(9) 0.05529(14) -0.02407(13) 0.0656(15) Uani 1 1 d . . .
H25 H 0.8705 0.0608 -0.0452 0.079 Uiso 1 1 calc R . .
C26 C 0.82569(9) 0.03827(12) 0.04078(14) 0.0572(14) Uani 1 1 d . . .
H26 H 0.8143 0.0325 0.0619 0.069 Uiso 1 1 calc R . .
C27 C 0.82932(9) 0.04211(13) -0.03113(15) 0.0566(14) Uani 1 1 d . . .
C28 C 0.81372(10) 0.03336(13) -0.00001(15) 0.0613(15) Uani 1 1 d . . .
H28 H 0.7947 0.0239 -0.0051 0.074 Uiso 1 1 calc R . .
C29 C 0.81648(11) 0.03927(14) -0.07439(16) 0.0567(14) Uani 1 1 d . . .
C30 C 1.05549(10) 0.25339(14) 0.19730(14) 0.0497(13) Uani 1 1 d . . .
C31 C 1.08159(8) 0.24415(13) 0.22646(14) 0.0513(13) Uani 1 1 d . . .
C32 C 1.10175(8) 0.21707(13) 0.21711(14) 0.0562(13) Uani 1 1 d . . .
H32 H 1.0985 0.2032 0.1935 0.067 Uiso 1 1 calc R . .
C33 C 1.12715(9) 0.21087(13) 0.24362(15) 0.0590(13) Uani 1 1 d . . .
H33 H 1.1401 0.1916 0.2388 0.071 Uiso 1 1 calc R . .
C34 C 1.08641(8) 0.26555(13) 0.25998(13) 0.0508(12) Uani 1 1 d . . .
H34 H 1.0725 0.2832 0.2662 0.061 Uiso 1 1 calc R . .
C35 C 1.11300(9) 0.26064(13) 0.28557(14) 0.0569(14) Uani 1 1 d . . .
H35 H 1.1169 0.2758 0.3081 0.068 Uiso 1 1 calc R . .
C36 C 1.13277(8) 0.23384(13) 0.27714(14) 0.0545(13) Uani 1 1 d . . .
C37 C 1.16182(8) 0.22916(13) 0.30268(13) 0.0521(13) Uani 1 1 d . . .
C38 C 1.17836(9) 0.26099(13) 0.31317(16) 0.0688(16) Uani 1 1 d . . .
H38 H 1.1709 0.2844 0.3059 0.083 Uiso 1 1 calc R . .
C39 C 1.20644(8) 0.25754(14) 0.33486(16) 0.0666(15) Uani 1 1 d . . .
C40 C 1.17199(8) 0.19447(13) 0.31447(14) 0.0553(13) Uani 1 1 d . . .
H40 H 1.1605 0.1735 0.3079 0.066 Uiso 1 1 calc R . .
C41 C 1.21479(9) 0.32540(14) 0.34990(14) 0.0599(14) Uani 1 1 d . . .
H41 H 1.1946 0.3281 0.3520 0.072 Uiso 1 1 calc R . .
C42 C 1.25600(9) 0.28773(13) 0.33858(17) 0.0779(18) Uani 1 1 d . . .
H42 H 1.2638 0.2645 0.3331 0.093 Uiso 1 1 calc R . .
C43 C 1.22554(9) 0.29166(14) 0.34205(15) 0.0649(15) Uani 1 1 d . . .
C44 C 1.23296(9) 0.35634(13) 0.35492(14) 0.0612(14) Uani 1 1 d . . .
H44 H 1.2249 0.3794 0.3605 0.073 Uiso 1 1 calc R . .
C45 C 1.27425(10) 0.31842(14) 0.34339(16) 0.0750(17) Uani 1 1 d . . .
H45 H 1.2944 0.3159 0.3411 0.090 Uiso 1 1 calc R . .
C46 C 1.19994(9) 0.19061(13) 0.33671(15) 0.0647(15) Uani 1 1 d . . .
C47 C 1.21612(9) 0.22291(12) 0.34678(15) 0.0621(15) Uani 1 1 d . . .
H47 H 1.2342 0.2207 0.3622 0.075 Uiso 1 1 calc R . .
C48 C 1.21112(9) 0.15381(13) 0.34939(16) 0.0659(16) Uani 1 1 d . . .
C49 C 1.24211(9) 0.14720(14) 0.35363(16) 0.0717(17) Uani 1 1 d . . .
H49 H 1.2551 0.1662 0.3483 0.086 Uiso 1 1 calc R . .
C50 C 1.19301(9) 0.12383(14) 0.35702(15) 0.0672(16) Uani 1 1 d . . .
H50 H 1.1726 0.1271 0.3543 0.081 Uiso 1 1 calc R . .
C51 C 1.20423(9) 0.08985(13) 0.36840(15) 0.0622(15) Uani 1 1 d . . .
H51 H 1.1913 0.0704 0.3727 0.075 Uiso 1 1 calc R . .
C52 C 1.23455(9) 0.08369(13) 0.37378(15) 0.0587(14) Uani 1 1 d . . .
C53 C 1.25307(9) 0.11253(13) 0.36568(17) 0.0722(17) Uani 1 1 d . . .
H53 H 1.2734 0.1087 0.3683 0.087 Uiso 1 1 calc R . .
C54 C 1.24706(9) 0.04635(13) 0.38632(13) 0.0514(13) Uani 1 1 d . . .
C55 C 0.93924(8) 0.33715(13) 0.17404(15) 0.0553(14) Uani 1 1 d . . .
C56 C 0.96758(9) 0.31506(14) 0.17910(16) 0.0537(14) Uani 1 1 d . . .
C57 C 0.92122(9) 0.33586(15) 0.13769(14) 0.0678(15) Uani 1 1 d . . .
H57 H 0.9267 0.3217 0.1161 0.081 Uiso 1 1 calc R . .
C58 C 0.89497(9) 0.35606(15) 0.13415(15) 0.0668(16) Uani 1 1 d . . .
H58 H 0.8837 0.3562 0.1094 0.080 Uiso 1 1 calc R . .
C59 C 0.90331(9) 0.37709(14) 0.20332(14) 0.0595(14) Uani 1 1 d . . .
H59 H 0.8977 0.3915 0.2247 0.071 Uiso 1 1 calc R . .
C60 C 0.88509(8) 0.37568(13) 0.16566(13) 0.0490(12) Uani 1 1 d . . .
C61 C 0.85750(9) 0.39808(13) 0.16284(14) 0.0530(13) Uani 1 1 d . . .
C62 C 0.84713(9) 0.41593(14) 0.12652(14) 0.0633(15) Uani 1 1 d . . .
H62 H 0.8572 0.4130 0.1035 0.076 Uiso 1 1 calc R . .
C63 C 0.82199(10) 0.43769(13) 0.12509(14) 0.0545(13) Uani 1 1 d . . .
C64 C 0.81116(10) 0.45750(13) 0.08646(14) 0.0545(13) Uani 1 1 d . . .
C65 C 0.83014(11) 0.46646(15) 0.05826(16) 0.0727(17) Uani 1 1 d . . .
H65 H 0.8501 0.4613 0.0643 0.087 Uiso 1 1 calc R . .
C66 C 0.78139(9) 0.46613(12) 0.07825(13) 0.0524(13) Uani 1 1 d . . .
H66 H 0.7678 0.4603 0.0967 0.063 Uiso 1 1 calc R . .
C67 C 0.77228(9) 0.48386(13) 0.04167(13) 0.0536(13) Uani 1 1 d . . .
H67 H 0.7524 0.4901 0.0363 0.064 Uiso 1 1 calc R . .
C68 C 0.82158(9) 0.48288(14) 0.02072(14) 0.0661(15) Uani 1 1 d . . .
H68 H 0.8348 0.4874 0.0014 0.079 Uiso 1 1 calc R . .
C69 C 0.84184(9) 0.40205(13) 0.19582(14) 0.0560(14) Uani 1 1 d . . .
H69 H 0.8481 0.3893 0.2194 0.067 Uiso 1 1 calc R . .
C70 C 0.80719(10) 0.44227(13) 0.15885(15) 0.0599(15) Uani 1 1 d . . .
H70 H 0.7905 0.4574 0.1574 0.072 Uiso 1 1 calc R . .
C71 C 0.81639(9) 0.42488(12) 0.19558(12) 0.0487(12) Uani 1 1 d . . .
C72 C 0.80138(9) 0.42956(13) 0.23231(13) 0.0572(14) Uani 1 1 d . . .
C73 C 0.77070(9) 0.43224(13) 0.23207(14) 0.0561(14) Uani 1 1 d . . .
H73 H 0.7590 0.4297 0.2078 0.067 Uiso 1 1 calc R . .
C74 C 0.75767(9) 0.43854(13) 0.26702(14) 0.0586(14) Uani 1 1 d . . .
H74 H 0.7372 0.4397 0.2663 0.070 Uiso 1 1 calc R . .
C75 C 0.77433(9) 0.44330(13) 0.30342(13) 0.0547(10) Uani 1 1 d . . .
C76 C 0.80416(9) 0.44060(13) 0.30387(13) 0.0579(14) Uani 1 1 d . . .
H76 H 0.8155 0.4433 0.3284 0.070 Uiso 1 1 calc R . .
C77 C 0.81813(10) 0.43407(14) 0.26992(15) 0.0670(15) Uani 1 1 d . . .
H77 H 0.8386 0.4326 0.2714 0.080 Uiso 1 1 calc R . .
C78 C 0.92927(9) 0.35670(13) 0.20726(15) 0.0556(14) Uani 1 1 d . . .
H78 H 0.9403 0.3558 0.2322 0.067 Uiso 1 1 calc R . .
C79 C 0.78278(10) 0.11322(16) -0.14459(14) 0.0605(14) Uani 1 1 d . . .
C80 C 1.26244(9) 0.35328(13) 0.35169(14) 0.0596(15) Uani 1 1 d . . .
C81 C 1.26005(11) -0.04739(14) 0.34013(14) 0.0619(14) Uani 1 1 d . . .
O1 O 0.99165(7) 0.22536(9) 0.15449(10) 0.0627(9) Uani 1 1 d . . .
O2 O 0.97664(5) 0.22923(8) 0.21705(9) 0.0506(8) Uani 1 1 d . . .
O3 O 0.97750(6) 0.30366(10) 0.14817(10) 0.0638(9) Uani 1 1 d . . .
O4 O 0.97840(5) 0.31110(8) 0.21569(8) 0.0550(8) Uani 1 1 d . . .
O5 O 1.03377(5) 0.27192(8) 0.20863(8) 0.0431(7) Uani 1 1 d . . .
O6 O 1.05604(5) 0.24376(9) 0.16070(10) 0.0596(9) Uani 1 1 d . . .
O7 O 1.27408(6) 0.04394(8) 0.39409(10) 0.0654(10) Uani 1 1 d . . .
O8 O 1.22906(6) 0.01991(8) 0.38881(8) 0.0512(8) Uani 1 1 d . . .
O9 O 0.79161(7) 0.02330(9) -0.08076(8) 0.0636(9) Uani 1 1 d . . .
O10 O 0.82968(7) 0.05015(10) -0.10323(10) 0.0615(10) Uani 1 1 d . . .
O11 O 0.85321(6) -0.06239(9) 0.31925(9) 0.0695(10) Uani 1 1 d . . .
O12 O 0.80640(6) -0.04585(11) 0.30006(9) 0.0787(11) Uani 1 1 d . . .
O13 O 0.77108(6) 0.08198(9) -0.13994(8) 0.0544(9) Uani 1 1 d . . .
O14 O 0.80963(7) 0.11972(9) -0.14595(9) 0.0643(9) Uani 1 1 d . . .
O15 O 1.23266(6) -0.05135(8) 0.34276(8) 0.0573(9) Uani 1 1 d . . .
O16 O 1.30159(8) -0.01588(11) 0.44885(10) 0.0733(11) Uani 1 1 d . . .
O17 O 0.75595(7) 0.00353(9) -0.16794(12) 0.0932(13) Uani 1 1 d . . .
O18 O 1.34186(7) -0.03425(11) 0.39152(11) 0.0914(13) Uani 1 1 d . . .
O19 O 1.25437(6) -0.01446(9) 0.46435(9) 0.0665(10) Uani 1 1 d . . .
O20 O 0.89276(7) 0.07335(11) -0.11119(10) 0.0966(13) Uani 1 1 d . . .
O21 O 1.19717(6) -0.04297(9) 0.42278(11) 0.0795(11) Uani 1 1 d . . .
O22 O 0.85210(8) 0.12874(12) -0.07854(11) 0.1088(15) Uani 1 1 d . . .
O23 O 1.33671(7) 0.04695(15) 0.42029(14) 0.1328(19) Uani 1 1 d . . .
O24 O 1.27646(6) -0.03586(8) 0.37227(8) 0.0574(9) Uani 1 1 d . . .
O25 O 1.24853(8) -0.08846(9) 0.42422(10) 0.0853(12) Uani 1 1 d . . .
O26 O 1.00954(7) 0.26602(12) 0.08397(10) 0.0897(12) Uani 1 1 d . . .
O28 O 1.04003(8) 0.32143(12) 0.13603(12) 0.1022(13) Uani 1 1 d . . .
O29 O 0.87067(7) 0.13831(11) -0.16204(12) 0.0969(13) Uani 1 1 d . . .
O30 O 1.31471(8) 0.02311(12) 0.33606(12) 0.0994(13) Uani 1 1 d . . .
O31 O 0.81408(18) -0.01789(16) -0.15133(15) 0.206(4) Uani 1 1 d . . .
Co1 Co 1.0000 0.26941(2) 0.2500 0.0414(3) Uani 1 2 d S . .
Co2 Co 0.792816(13) 0.033222(17) -0.144361(18) 0.0597(3) Uani 1 1 d . . .
Co3 Co 1.238967(12) -0.032935(16) 0.407452(17) 0.0518(2) Uani 1 1 d . . .
Co4 Co 0.850420(12) 0.095376(19) -0.130918(18) 0.0640(3) Uani 1 1 d . . .
Co5 Co 1.015023(11) 0.273346(18) 0.146606(17) 0.0536(2) Uani 1 1 d . . .
Co6 Co 1.307235(12) 0.003971(18) 0.393168(19) 0.0636(3) Uani 1 1 d . . .

loop_
_atom_site_aniso_label
_atom_site_aniso_U_11
_atom_site_aniso_U_22
_atom_site_aniso_U_33
_atom_site_aniso_U_23
_atom_site_aniso_U_13
_atom_site_aniso_U_12
C1 0.034(2) 0.066(3) 0.043(3) 0.004(3) -0.016(2) -0.003(2)
C2 0.0475(19) 0.070(2) 0.040(2) -0.0098(18) -0.0355(18) 0.0081(17)
C3 0.044(2) 0.079(4) 0.033(3) -0.007(2) -0.010(2) -0.007(2)
C4 0.082(4) 0.061(3) 0.046(3) -0.008(3) -0.047(3) 0.011(3)
C5 0.034(2) 0.061(3) 0.040(3) 0.001(2) -0.018(2) 