####################################################################### 
# 
# This file contains crystal structure data downloaded from the 
# Cambridge Structural Database (CSD) hosted by the Cambridge 
# Crystallographic Data Centre (CCDC).
# 
# Full information about CCDC data access policies and citation 
# guidelines are available at http://www.ccdc.cam.ac.uk/access/V1 
# 
# Audit and citation data items may have been added by the CCDC. 
# Please retain this information to preserve the provenance of 
# this file and to allow appropriate attribution of the data. 
# 
#######################################################################

data_[Cu(4-pyrdpm)(hfacac)]
_audit_block_doi                 10.5517/cc7l598
_database_code_depnum_ccdc_archive 'CCDC 225999'
loop_
_citation_id
_citation_doi
_citation_year
1 10.1002/anie.200353520 2004
_audit_update_record             
;
2003-12-04 deposited with the CCDC.	2024-07-08 downloaded from the CCDC.
;

_audit_creation_method           SHELXL-97
_chemical_name_systematic        
;
?
;
_chemical_name_common            ?
_chemical_melting_point          ?
_chemical_formula_moiety         ?
_chemical_formula_sum            'C19 H11 Cu F6 N3 O2'
_chemical_formula_weight         490.85

loop_
_atom_type_symbol
_atom_type_description
_atom_type_scat_dispersion_real
_atom_type_scat_dispersion_imag
_atom_type_scat_source
C C 0.0033 0.0016 'International Tables Vol C Tables 4.2.6.8 and 6.1.1.4'
H H 0.0000 0.0000 'International Tables Vol C Tables 4.2.6.8 and 6.1.1.4'
N N 0.0061 0.0033 'International Tables Vol C Tables 4.2.6.8 and 6.1.1.4'
O O 0.0106 0.0060 'International Tables Vol C Tables 4.2.6.8 and 6.1.1.4'
F F 0.0171 0.0103 'International Tables Vol C Tables 4.2.6.8 and 6.1.1.4'
Cu Cu 0.3201 1.2651 'International Tables Vol C Tables 4.2.6.8 and 6.1.1.4'

_symmetry_cell_setting           Orthorhombic
_symmetry_space_group_name_H-M   R-3

loop_
_symmetry_equiv_pos_as_xyz
'x, y, z'
'-y, x-y, z'
'-x+y, -x, z'
'x+2/3, y+1/3, z+1/3'
'-y+2/3, x-y+1/3, z+1/3'
'-x+y+2/3, -x+1/3, z+1/3'
'x+1/3, y+2/3, z+2/3'
'-y+1/3, x-y+2/3, z+2/3'
'-x+y+1/3, -x+2/3, z+2/3'
'-x, -y, -z'
'y, -x+y, -z'
'x-y, x, -z'
'-x+2/3, -y+1/3, -z+1/3'
'y+2/3, -x+y+1/3, -z+1/3'
'x-y+2/3, x+1/3, -z+1/3'
'-x+1/3, -y+2/3, -z+2/3'
'y+1/3, -x+y+2/3, -z+2/3'
'x-y+1/3, x+2/3, -z+2/3'

_cell_length_a                   44.2373(18)
_cell_length_b                   44.2373(18)
_cell_length_c                   21.3285(18)
_cell_angle_alpha                90.00
_cell_angle_beta                 90.00
_cell_angle_gamma                120.00
_cell_volume                     36147(4)
_cell_formula_units_Z            54
_cell_measurement_temperature    100(2)
_cell_measurement_reflns_used    ?
_cell_measurement_theta_min      ?
_cell_measurement_theta_max      ?

_exptl_crystal_description       block
_exptl_crystal_colour            green
_exptl_crystal_size_max          0.42
_exptl_crystal_size_mid          0.32
_exptl_crystal_size_min          0.29
_exptl_crystal_density_meas      ?
_exptl_crystal_density_diffrn    1.218
_exptl_crystal_density_method    'not measured'
_exptl_crystal_F_000             13230
_exptl_absorpt_coefficient_mu    0.872
_exptl_absorpt_correction_type   none
_exptl_absorpt_correction_T_min  ?
_exptl_absorpt_correction_T_max  ?
_exptl_absorpt_process_details   ?

_exptl_special_details           
;
?
;

_diffrn_ambient_temperature      100(2)
_diffrn_radiation_wavelength     0.71073
_diffrn_radiation_type           MoK\a
_diffrn_radiation_source         'fine-focus sealed tube'
_diffrn_radiation_monochromator  graphite
_diffrn_measurement_device_type  'CCD area detector'
_diffrn_measurement_method       'phi and omega scans'
_diffrn_detector_area_resol_mean ?
_diffrn_standards_number         ?
_diffrn_standards_interval_count ?
_diffrn_standards_interval_time  ?
_diffrn_standards_decay_%        ?
_diffrn_reflns_number            70495
_diffrn_reflns_av_R_equivalents  0.0612
_diffrn_reflns_av_sigmaI/netI    0.0756
_diffrn_reflns_limit_h_min       -57
_diffrn_reflns_limit_h_max       57
_diffrn_reflns_limit_k_min       -57
_diffrn_reflns_limit_k_max       54
_diffrn_reflns_limit_l_min       -27
_diffrn_reflns_limit_l_max       18
_diffrn_reflns_theta_min         1.43
_diffrn_reflns_theta_max         27.49
_reflns_number_total             17300
_reflns_number_gt                12041
_reflns_threshold_expression     >2sigma(I)

_computing_data_collection       'Bruker SMART'
_computing_cell_refinement       'Bruker SMART'
_computing_data_reduction        'Bruker SAINT'
_computing_structure_solution    'SHELXS-97 (Sheldrick, 1990)'
_computing_structure_refinement  'SHELXL-97 (Sheldrick, 1997)'
_computing_molecular_graphics    'Bruker SHELXTL'
_computing_publication_material  'Bruker SHELXTL'

_refine_special_details          
;
Refinement of F^2^ against ALL reflections.  The weighted R-factor wR and
goodness of fit S are based on F^2^, conventional R-factors R are based
on F, with F set to zero for negative F^2^. The threshold expression of
F^2^ > 2sigma(F^2^) is used only for calculating R-factors(gt) etc. and is
not relevant to the choice of reflections for refinement.  R-factors based
on F^2^ are statistically about twice as large as those based on F, and R-
factors based on ALL data will be even larger.
;

_refine_ls_structure_factor_coef Fsqd
_refine_ls_matrix_type           full
_refine_ls_weighting_scheme      calc
_refine_ls_weighting_details     
'calc w=1/[\s^2^(Fo^2^)+(0.1388P)^2^+241.4757P] where P=(Fo^2^+2Fc^2^)/3'
_atom_sites_solution_primary     direct
_atom_sites_solution_secondary   difmap
_atom_sites_solution_hydrogens   geom
_refine_ls_hydrogen_treatment    mixed
_refine_ls_extinction_method     none
_refine_ls_extinction_coef       ?
_refine_ls_number_reflns         17300
_refine_ls_number_parameters     838
_refine_ls_number_restraints     0
_refine_ls_R_factor_all          0.1105
_refine_ls_R_factor_gt           0.0780
_refine_ls_wR_factor_ref         0.2598
_refine_ls_wR_factor_gt          0.2416
_refine_ls_goodness_of_fit_ref   1.078
_refine_ls_restrained_S_all      1.078
_refine_ls_shift/su_max          0.102
_refine_ls_shift/su_mean         0.017

loop_
_atom_site_label
_atom_site_type_symbol
_atom_site_fract_x
_atom_site_fract_y
_atom_site_fract_z
_atom_site_U_iso_or_equiv
_atom_site_adp_type
_atom_site_occupancy
_atom_site_symmetry_multiplicity
_atom_site_calc_flag
_atom_site_refinement_flags
_atom_site_disorder_assembly
_atom_site_disorder_group
Cu1 Cu 0.741159(15) 0.163698(15) 0.87084(3) 0.02006(16) Uani 1 1 d . . .
Cu3 Cu 0.674243(17) 0.093575(16) 0.01059(3) 0.02187(17) Uani 1 1 d . . .
N2 N 0.70513(11) 0.14077(11) 0.8069(2) 0.0210(9) Uani 1 1 d . . .
O2 O 0.77638(9) 0.17780(10) 0.94010(19) 0.0266(8) Uani 1 1 d . . .
N7 N 0.65029(11) 0.06914(11) -0.0661(2) 0.0203(9) Uani 1 1 d . . .
O1 O 0.77480(9) 0.15777(9) 0.81608(19) 0.0255(8) Uani 1 1 d . . .
O6 O 0.63422(10) 0.10120(10) 0.02986(19) 0.0289(8) Uani 1 1 d . . .
O5 O 0.69902(11) 0.12279(11) 0.08504(18) 0.0312(9) Uani 1 1 d . . .
N1 N 0.70905(11) 0.16664(11) 0.9303(2) 0.0213(9) Uani 1 1 d . . .
N8 N 0.71760(11) 0.09512(11) -0.0139(2) 0.0204(9) Uani 1 1 d . . .
C16 C 0.59757(13) 0.12278(13) 0.8956(2) 0.0213(10) Uani 1 1 d . . .
H16 H 0.6036 0.1164 0.9342 0.026 Uiso 1 1 calc R . .
C43 C 0.61772(14) 0.05924(13) -0.0831(3) 0.0240(11) Uani 1 1 d . . .
H43 H 0.6018 0.0625 -0.0579 0.029 Uiso 1 1 calc R . .
C56 C 0.65408(13) 0.00993(14) 0.1547(2) 0.0221(10) Uani 1 1 d . . .
H56 H 0.6685 0.0032 0.1765 0.027 Uiso 1 1 calc R . .
C10 C 0.65954(13) 0.14786(13) 0.8578(3) 0.0212(10) Uani 1 1 d . . .
N9 N 0.64954(11) 0.04670(11) 0.0773(2) 0.0226(9) Uani 1 1 d . . .
N3 N 0.76486(11) 0.22006(11) 0.8381(2) 0.0246(9) Uani 1 1 d . . .
C53 C 0.59837(13) 0.00263(13) 0.1296(2) 0.0198(10) Uani 1 1 d . . .
H53 H 0.5738 -0.0089 0.1347 0.024 Uiso 1 1 calc R . .
C11 C 0.67161(13) 0.13598(13) 0.8095(2) 0.0210(10) Uani 1 1 d . . .
C46 C 0.66441(13) 0.05931(12) -0.1150(2) 0.0207(10) Uani 1 1 d . . .
C52 C 0.61829(13) -0.00707(13) 0.1660(2) 0.0197(10) Uani 1 1 d . . .
C48 C 0.72355(13) 0.08099(13) -0.0680(2) 0.0200(10) Uani 1 1 d . . .
C51 C 0.74671(14) 0.10770(13) 0.0208(3) 0.0249(11) Uani 1 1 d . . .
H51 H 0.7500 0.1190 0.0601 0.030 Uiso 1 1 calc R . .
C9 C 0.67716(13) 0.16370(13) 0.9140(3) 0.0220(10) Uani 1 1 d . . .
C50 C 0.77171(14) 0.10179(14) -0.0092(2) 0.0248(11) Uani 1 1 d . . .
H50 H 0.7943 0.1083 0.0060 0.030 Uiso 1 1 calc R . .
C49 C 0.75726(14) 0.08494(14) -0.0642(3) 0.0241(11) Uani 1 1 d . . .
H49 H 0.7679 0.0773 -0.0943 0.029 Uiso 1 1 calc R . .
C13 C 0.67602(14) 0.11218(15) 0.7188(3) 0.0272(11) Uani 1 1 d . . .
H13 H 0.6714 0.1007 0.6793 0.033 Uiso 1 1 calc R . .
C5 C 0.82820(15) 0.19749(17) 0.9966(3) 0.0394(15) Uani 1 1 d . . .
C14 C 0.70769(14) 0.12712(14) 0.7528(3) 0.0255(11) Uani 1 1 d . . .
H14 H 0.7282 0.1274 0.7389 0.031 Uiso 1 1 calc R . .
C54 C 0.61478(14) 0.02919(13) 0.0860(3) 0.0235(11) Uani 1 1 d . . .
H54 H 0.6008 0.0353 0.0611 0.028 Uiso 1 1 calc R . .
C2 C 0.80623(14) 0.16796(13) 0.8277(3) 0.0281(12) Uani 1 1 d . . .
C45 C 0.63903(14) 0.04374(14) -0.1631(3) 0.0237(11) Uani 1 1 d . . .
H45 H 0.6419 0.0351 -0.2022 0.028 Uiso 1 1 calc R . .
C18 C 0.61310(14) 0.15284(15) 0.7969(3) 0.0278(12) Uani 1 1 d . . .
H18 H 0.6300 0.1675 0.7669 0.033 Uiso 1 1 calc R . .
C115 C 0.62332(13) 0.14200(13) 0.8503(2) 0.0205(10) Uani 1 1 d . . .
C12 C 0.65350(14) 0.11767(14) 0.7544(3) 0.0260(11) Uani 1 1 d . . .
H12 H 0.6300 0.1105 0.7443 0.031 Uiso 1 1 calc R . .
C17 C 0.56319(14) 0.11333(14) 0.8824(3) 0.0253(11) Uani 1 1 d . . .
H17 H 0.5458 0.1002 0.9128 0.030 Uiso 1 1 calc R . .
C47 C 0.69804(13) 0.06405(12) -0.1149(2) 0.0195(10) Uani 1 1 d . . .
C44 C 0.60954(14) 0.04351(14) -0.1425(3) 0.0264(11) Uani 1 1 d . . .
H44 H 0.5879 0.0345 -0.1640 0.032 Uiso 1 1 calc R . .
C55 C 0.66856(14) 0.03698(14) 0.1111(3) 0.0242(11) Uani 1 1 d . . .
H55 H 0.6931 0.0490 0.1051 0.029 Uiso 1 1 calc R . .
C6 C 0.71752(14) 0.18202(14) 0.9868(3) 0.0252(11) Uani 1 1 d . . .
H6 H 0.7379 0.1869 1.0096 0.030 Uiso 1 1 calc R . .
C4 C 0.80684(14) 0.18385(14) 0.9361(3) 0.0292(12) Uani 1 1 d . . .
C41 C 0.68543(18) 0.13071(17) 0.1283(3) 0.0379(14) Uani 1 1 d . . .
C8 C 0.66703(15) 0.17846(14) 0.9626(3) 0.0270(11) Uani 1 1 d . . .
H8 H 0.6464 0.1800 0.9633 0.032 Uiso 1 1 calc R . .
C39 C 0.62943(17) 0.11162(16) 0.0812(3) 0.0339(13) Uani 1 1 d . . .
C19 C 0.76962(14) 0.24504(14) 0.8784(3) 0.0276(12) Uani 1 1 d . . .
H19 H 0.7556 0.2385 0.9152 0.033 Uiso 1 1 calc R . .
C7 C 0.69185(14) 0.19004(14) 1.0080(3) 0.0283(12) Uani 1 1 d . . .
H7 H 0.6920 0.2012 1.0462 0.034 Uiso 1 1 calc R . .
C1 C 0.82637(15) 0.16631(16) 0.7705(3) 0.0354(14) Uani 1 1 d . . .
C42 C 0.7093(2) 0.1471(3) 0.1864(4) 0.063(2) Uani 1 1 d . . .
C3 C 0.82402(15) 0.18071(15) 0.8833(3) 0.0320(13) Uani 1 1 d . . .
H3 H 0.8480 0.1874 0.8859 0.038 Uiso 1 1 calc R . .
C40 C 0.65195(19) 0.12569(19) 0.1318(3) 0.0419(16) Uani 1 1 d . . .
H40 H 0.6444 0.1319 0.1688 0.050 Uiso 1 1 calc R . .
C38 C 0.5931(2) 0.1083(3) 0.0881(4) 0.060(2) Uani 1 1 d . . .
Cu2 Cu 0.760321(16) 0.005650(17) 0.15099(3) 0.02336(17) Uani 1 1 d . . .
O3 O 0.79637(11) 0.03003(11) 0.0856(2) 0.0352(10) Uani 1 1 d . . .
N4 N 0.76601(11) 0.05086(12) 0.1754(2) 0.0241(9) Uani 1 1 d . . .
N5 N 0.73003(11) -0.01790(12) 0.2224(2) 0.0234(9) Uani 1 1 d . . .
C33 C 0.70951(13) 0.04303(14) 0.3141(2) 0.0228(10) Uani 1 1 d . . .
N6 N 0.71779(12) -0.01481(11) 0.0752(2) 0.0233(9) Uani 1 1 d . . .
C28 C 0.72489(13) 0.03139(14) 0.2642(2) 0.0222(10) Uani 1 1 d . . .
O4 O 0.76411(11) -0.03677(11) 0.1348(2) 0.0337(9) Uani 1 1 d . . .
C31 C 0.69392(15) -0.06019(15) 0.2904(3) 0.0294(12) Uani 1 1 d . . .
H31 H 0.6814 -0.0824 0.3101 0.035 Uiso 1 1 calc R . .
C24 C 0.78614(15) 0.08154(14) 0.1475(3) 0.0290(12) Uani 1 1 d . . .
H24 H 0.8014 0.0849 0.1135 0.035 Uiso 1 1 calc R . .
C37 C 0.69423(14) -0.04891(14) 0.0732(3) 0.0247(11) Uani 1 1 d . . .
H37 H 0.6949 -0.0636 0.1050 0.030 Uiso 1 1 calc R . .
C34 C 0.67390(14) 0.03170(16) 0.3170(3) 0.0300(12) Uani 1 1 d . . .
H34 H 0.6584 0.0156 0.2868 0.036 Uiso 1 1 calc R . .
C29 C 0.71577(13) -0.00365(14) 0.2639(2) 0.0224(10) Uani 1 1 d . . .
C26 C 0.75838(14) 0.09341(14) 0.2214(3) 0.0262(11) Uani 1 1 d . . .
H26 H 0.7500 0.1048 0.2482 0.031 Uiso 1 1 calc R . .
C32 C 0.71703(14) -0.05114(14) 0.2395(3) 0.0262(11) Uani 1 1 d . . .
H32 H 0.7227 -0.0669 0.2195 0.031 Uiso 1 1 calc R . .
C20 C 0.80612(16) 0.01619(17) 0.0450(3) 0.0338(13) Uani 1 1 d . . .
C35 C 0.73048(13) 0.06609(14) 0.3606(2) 0.0234(11) Uani 1 1 d . . .
H35 H 0.7549 0.0746 0.3608 0.028 Uiso 1 1 calc R . .
C25 C 0.78199(15) 0.10833(15) 0.1747(3) 0.0302(12) Uani 1 1 d . . .
H25 H 0.7935 0.1322 0.1625 0.036 Uiso 1 1 calc R . .
C21 C 0.79764(17) -0.01861(18) 0.0413(3) 0.0385(14) Uani 1 1 d . . .
H21 H 0.8060 -0.0262 0.0072 0.046 Uiso 1 1 calc R . .
C36 C 0.71599(14) 0.00529(14) 0.0306(3) 0.0262(11) Uani 1 1 d . . .
H36 H 0.7327 0.0295 0.0311 0.031 Uiso 1 1 calc R . .
C30 C 0.69321(14) -0.03018(13) 0.3060(3) 0.0246(11) Uani 1 1 d . . .
H30 H 0.6800 -0.0278 0.3389 0.029 Uiso 1 1 calc R . .
C27 C 0.74843(13) 0.05703(14) 0.2228(2) 0.0225(10) Uani 1 1 d . . .
C23 C 0.7687(3) -0.0801(2) 0.0799(4) 0.063(2) Uani 1 1 d . . .
C22 C 0.77725(17) -0.04202(17) 0.0868(3) 0.0357(14) Uani 1 1 d . . .
F1 F 0.80883(10) 0.18728(12) 1.04736(19) 0.0530(11) Uani 1 1 d . . .
F2 F 0.84523(10) 0.23263(10) 0.9964(2) 0.0499(10) Uani 1 1 d . . .
F3 F 0.80957(10) 0.13622(10) 0.7415(2) 0.0555(12) Uani 1 1 d . . .
F4 F 0.84408(12) 0.02931(13) -0.0422(2) 0.0612(12) Uani 1 1 d . . .
F5 F 0.85837(10) 0.17287(13) 0.7834(2) 0.0620(13) Uani 1 1 d . . .
F6 F 0.85252(11) 0.18839(13) 1.0021(2) 0.0606(12) Uani 1 1 d . . .
F7 F 0.83004(13) 0.19045(13) 0.7282(2) 0.0645(13) Uani 1 1 d . . .
F8 F 0.57086(13) 0.08868(16) 0.0461(3) 0.0739(15) Uani 1 1 d . . .
F9 F 0.70590(15) 0.17320(14) 0.2099(2) 0.0766(16) Uani 1 1 d . . .
F10 F 0.74177(14) 0.15794(16) 0.1742(3) 0.0808(17) Uani 1 1 d . . .
F11 F 0.81002(19) 0.04918(19) -0.0437(3) 0.105(3) Uani 1 1 d . . .
F12 F 0.69958(18) 0.12259(18) 0.2317(2) 0.0865(18) Uani 1 1 d . . .
F13 F 0.7761(3) -0.08716(19) 0.0269(4) 0.188(6) Uani 1 1 d . . .
F14 F 0.59490(18) 0.1373(2) 0.0835(9) 0.247(9) Uani 1 1 d . . .
C15 C 0.8293(2) 0.0417(2) -0.0056(4) 0.0503(19) Uani 1 1 d . . .
F16 F 0.8525(2) 0.07119(16) 0.0173(3) 0.136(4) Uani 1 1 d . . .
F19 F 0.7374(2) -0.10209(16) 0.0926(6) 0.180(5) Uani 1 1 d . . .
F20 F 0.5792(2) 0.0968(4) 0.1390(3) 0.205(7) Uani 1 1 d . . .
F21 F 0.7869(3) -0.0870(2) 0.1172(6) 0.184(5) Uani 1 1 d . . .

loop_
_atom_site_aniso_label
_atom_site_aniso_U_11
_atom_site_aniso_U_22
_atom_site_aniso_U_33
_atom_site_aniso_U_23
_atom_site_aniso_U_13
_atom_site_aniso_U_12
Cu1 0.0141(3) 0.0192(3) 0.0240(3) -0.0001(2) -0.0002(2) 0.0062(2)
Cu3 0.0263(3) 0.0208(3) 0.0193(3) 0.0008(2) 0.0048(3) 0.0124(3)
N2 0.017(2) 0.020(2) 0.024(2) -0.0002(17) -0.0008(17) 0.0081(17)
O2 0.0175(17) 0.0273(19) 0.030(2) 0.0011(16) -0.0032(15) 0.0076(15)
N7 0.023(2) 0.017(2) 0.021(2) 0.0043(17) 0.0040(17) 0.0102(17)
O1 0.0168(17) 0.0219(18) 0.035(2) -0.0015(16) 0.0007(15) 0.0076(15)
O6 0.036(2) 0.027(2) 0.028(2) 0.0025(16) 0.0076(17) 0.0192(18)
O5 0.041(2) 0.033(2) 0.0213(19) -0.0053(17) 0.0037(17) 0.0197(19)
N1 0.0161(19) 0.019(2) 0.023(2) 0.0016(17) -0.0006(17) 0.0047(17)
N8 0.024(2) 0.017(2) 0.018(2) 0.0009(16) 0.0013(17) 0.0088(17)
C16 0.020(2) 0.023(2) 0.022(3) 0.001(2) 0.001(2) 0.011(2)
C43 0.026(3) 0.024(3) 0.028(3) 0.007(2) 0.006(2) 0.017(2)
C56 0.021(2) 0.027(3) 0.020(2) 0.002(2) -0.001(2) 0.013(2)
C10 0.017(2) 0.019(2) 0.026(3) 0.003(2) 0.000(2) 0.0070(19)
N9 0.024(2) 0.022(2) 0.019(2) 0.0011(17) 0.0038(17) 0.0102(18)
N3 0.021(2) 0.020(2) 0.029(2) 0.0012(18) 0.0014(18) 0.0082(18)
C53 0.015(2) 0.021(2) 0.021(2) -0.0018(19) 0.0001(19) 0.0071(19)
C11 0.018(2) 0.019(2) 0.023(3) 0.003(2) 0.001(2) 0.008(2)
C46 0.026(2) 0.014(2) 0.021(2) 0.0044(19) 0.006(2) 0.009(2)
C52 0.021(2) 0.018(2) 0.018(2) -0.0015(19) -0.0016(19) 0.008(2)
C48 0.025(2) 0.018(2) 0.017(2) 0.0027(19) 0.003(2) 0.011(2)
C51 0.026(3) 0.021(2) 0.021(3) 0.001(2) 0.001(2) 0.007(2)
C9 0.019(2) 0.022(2) 0.022(3) -0.001(2) 0.001(2) 0.008(2)
C50 0.021(2) 0.027(3) 0.021(3) 0.002(2) -0.001(2) 0.009(2)
C49 0.027(3) 0.025(3) 0.021(3) 0.002(2) 0.004(2) 0.013(2)
C13 0.028(3) 0.032(3) 0.024(3) -0.003(2) -0.002(2) 0.017(2)
C5 0.023(3) 0.041(3) 0.047(4) -0.003(3) -0.009(3) 0.009(3)
C14 0.025(3) 0.028(3) 0.026(3) -0.002(2) 0.000(2) 0.015(2)
C54 0.027(3) 0.023(3) 0.022(3) -0.001(2) -0.002(2) 0.014(2)
C2 0.020(3) 0.018(2) 0.042(3) 0.005(2) 0.006(2) 0.006(2)
C45 0.026(3) 0.025(3) 0.021(3) 0.000(2) -0.001(2) 0.013(2)
C18 0.022(3) 0.030(3) 0.029(3) 0.006(2) 0.005(2) 0.011(2)
C115 0.017(2) 0.020(2) 0.023(3) 0.000(2) -0.0004(19) 0.0070(19)
C12 0.025(3) 0.029(3) 0.024(3) 0.001(2) -0.003(2) 0.013(2)
C17 0.022(3) 0.025(3) 0.028(3) 0.001(2) 0.002(2) 0.011(2)
C47 0.024(2) 0.015(2) 0.018(2) 0.0041(18) 0.0038(19) 0.0087(19)
C44 0.021(3) 0.028(3) 0.030(3) 0.002(2) -0.003(2) 0.011(2)
C55 0.022(2) 0.024(3) 0.026(3) 0.000(2) 0.003(2) 0.011(2)
C6 0.020(2) 0.025(3) 0.024(3) -0.002(2) -0.003(2) 0.007(2)
C4 0.022(3) 0.024(3) 0.035(3) 0.003(2) -0.006(2) 0.007(2)
C41 0.052(4) 0.041(3) 0.028(3) -0.005(3) 0.001(3) 0.029(3)
C8 0.026(3) 0.024(3) 0.031(3) -0.002(2) 0.001(2) 0.012(2)
C39 0.041(3) 0.036(3) 0.032(3) 0.005(3) 0.016(3) 0.026(3)
C19 0.028(3) 0.023(3) 0.029(3) 0.002(2) 0.008(2) 0.010(2)
C7 0.028(3) 0.027(3) 0.022(3) -0.004(2) 0.001(2) 0.008(2)
C1 0.020(3) 0.032(3) 0.049(4) 0.001(3) 0.011(3) 0.009(2)
C42 0.076(6) 0.098(7) 0.040(4) -0.031(5) -0.009(4) 0.063(6)
C3 0.019(3) 0.032(3) 0.041(3) 0.003(3) 0.000(2) 0.010(2)
C40 0.056(4) 0.056(4) 0.026(3) -0.006(3) 0.006(3) 0.038(4)
C38 0.056(5) 0.088(6) 0.053(5) -0.020(5) 0.010(4) 0.050(5)
Cu2 0.0233(3) 0.0263(3) 0.0194(3) -0.0007(3) 0.0015(2) 0.0116(3)
O3 0.032(2) 0.036(2) 0.031(2) -0.0062(18) 0.0064(18) 0.0122(19)
N4 0.023(2) 0.027(2) 0.019(2) 0.0008(18) 0.0000(17) 0.0097(19)
N5 0.025(2) 0.026(2) 0.017(2) -0.0005(17) -0.0012(17) 0.0103(19)
C33 0.021(2) 0.028(3) 0.019(2) 0.001(2) 0.001(2) 0.011(2)
N6 0.025(2) 0.022(2) 0.019(2) -0.0007(17) -0.0011(18) 0.0093(18)
C28 0.017(2) 0.026(3) 0.020(2) 0.000(2) -0.0035(19) 0.008(2)
O4 0.039(2) 0.039(2) 0.031(2) 0.00