
#######################################################################
#
#                 Cambridge Crystallographic Data Centre
#                                CCDC
#
#######################################################################
#
# If this CIF has been generated from an entry in the Cambridge
# Structural Database, then it will include bibliographic, chemical,
# crystal, experimental, refinement or atomic coordinate data resulting
# from the CCDC's data processing and validation procedures.
#
#######################################################################

data_CSD_CIF_BAFWOX
_audit_creation_date 2017-01-19
_audit_creation_method CSD-ConQuest-V1
_database_code_CSD BAFWOX
_database_code_depnum_ccdc_archive 'CCDC 1450689'
_chemical_formula_sum 'C16 H16 O2'
_chemical_formula_moiety
;
C16 H16 O2
;
_journal_coden_Cambridge 35
_journal_volume 82
_journal_year 2017
_journal_page_first 471
_journal_name_full 'J.Org.Chem. '
loop_
_publ_author_name
"V.A.Dyakonov"
"G.N.Kadikova"
"L.U.Dzhemileva"
"G.F.Gazizullina"
"I.R.Ramazanov"
"U.M.Dzhemilev"
_chemical_name_systematic
;
1-phenylbicyclo[4.3.1]deca-2,4,8-triene-7,10-diol
;
_chemical_name_common
;
1-phenylbicyclo[4.3.1]dec-8-ene-7,10-diol
;
_chemical_melting_point 461
_cell_volume    624.896
_exptl_crystal_colour 'colorless'
_exptl_special_details
;
Melting point range 461-462K
antitumour activity

;
_exptl_crystal_preparation 'benzene'
_diffrn_ambient_temperature 293
#These two values have been output from a single CSD field.
_refine_ls_R_factor_gt 0.0453
_refine_ls_wR_factor_gt 0.0453
_symmetry_cell_setting monoclinic
_symmetry_space_group_name_H-M 'P n'
_symmetry_Int_Tables_number 7
loop_
_symmetry_equiv_pos_site_id
_symmetry_equiv_pos_as_xyz
1 x,y,z
2 1/2+x,-y,1/2+z
_cell_length_a 6.4252(10)
_cell_length_b 9.9862(7)
_cell_length_c 10.2129(11)
_cell_angle_alpha 90
_cell_angle_beta 107.520(14)
_cell_angle_gamma 90
_cell_formula_units_Z 2
loop_
_atom_type_symbol
_atom_type_radius_bond
C 0.68
H 0.23
O 0.68
loop_
_atom_site_label
_atom_site_type_symbol
_atom_site_fract_x
_atom_site_fract_y
_atom_site_fract_z
O1 O 0.1056(3) 0.57147(15) 0.53035(19)
O2 O -0.1898(4) 0.5552(2) 0.2756(2)
C1 C 0.0330(4) 0.8065(2) 0.5756(2)
C2 C -0.2723(5) 0.7700(3) 0.3576(3)
C3 C 0.2152(5) 0.9701(3) 0.3663(3)
C4 C 0.2128(6) 1.0100(3) 0.5022(3)
C5 C -0.1362(5) 0.6948(2) 0.2867(3)
C6 C 0.2329(6) 0.7684(3) 0.8269(3)
C7 C 0.1625(4) 0.7068(2) 0.5118(2)
C8 C 0.1673(4) 0.8525(2) 0.3041(3)
C9 C -0.1976(5) 0.8186(3) 0.4837(3)
C10 C 0.1361(6) 0.9446(2) 0.5921(3)
C11 C 0.1072(4) 0.7221(2) 0.3564(2)
C12 C -0.1126(7) 0.6323(3) 0.8710(4)
C13 C 0.0432(4) 0.7534(2) 0.7181(2)
C14 C -0.1310(6) 0.6846(3) 0.7414(4)
C15 C 0.2487(8) 0.7142(4) 0.9552(3)
C16 C 0.0768(8) 0.6463(3) 0.9774(3)
H1 H 0.323(4) 0.725(3) 0.551(3)
H2 H 0.128(6) 0.989(4) 0.676(4)
H3 H -0.186(6) 0.728(3) 0.190(4)
H4 H -0.296(7) 0.865(4) 0.522(4)
H5 H 0.254(7) 1.049(4) 0.316(4)
H6 H -0.427(9) 0.784(5) 0.308(5)
H7 H -0.253(7) 0.673(4) 0.665(5)
H8 H 0.366(7) 0.815(4) 0.813(5)
H9 H 0.190(6) 0.648(3) 0.324(4)
H10 H -0.232(7) 0.590(4) 0.883(4)
H11 H 0.172(6) 0.852(4) 0.208(4)
H12 H 0.266(6) 1.107(4) 0.527(4)
H13 H 0.155(7) 0.556(3) 0.601(5)
H14 H -0.144(7) 0.525(5) 0.357(5)
H15 H 0.084(8) 0.608(5) 1.063(6)
H16 H 0.390(8) 0.719(5) 1.038(6)
#END
