####################################################################### 
# 
# This file contains crystal structure data downloaded from the 
# Cambridge Structural Database (CSD) hosted by the Cambridge 
# Crystallographic Data Centre (CCDC).
# 
# Full information about CCDC data access policies and citation 
# guidelines are available at http://www.ccdc.cam.ac.uk/access/V1 
# 
# Audit and citation data items may have been added by the CCDC. 
# Please retain this information to preserve the provenance of 
# this file and to allow appropriate attribution of the data. 
# 
#######################################################################

data_complex3_new
_audit_block_doi                 10.5517/ccwlvpz
_database_code_depnum_ccdc_archive 'CCDC 822482'
loop_
_citation_id
_citation_doi
_citation_year
1 10.1039/c1dt10662g 2011
_audit_update_record             
;
2011-04-15 deposited with the CCDC.	2024-07-08 downloaded from the CCDC.
;
#TrackingRef '- complex3_new.CIF'


_audit_creation_method           SHELXL-97
_chemical_name_systematic        
;
dinitroso[(+-)-2,7,12-trimethoxy-3,8,13-
tris[3-(3-pyridyl)benzoyl]-10,15-dihydro-5H-
tribenzo[a,d,g]cyclononane]cobalt(II)
N-methylpyrrolidone clathrate
;
_chemical_name_common            
;
dinitroso((+-)-2,7,12-trimethoxy-3,8,13-tris(3-(3-
pyridyl)benzoyl)-10,15-dihydro-5H-tribenzo(a,d,g)cyclononane)cobalt(ii)
N-methylpyrrolidone clathrate
;
_chemical_melting_point          ?
_chemical_formula_moiety         ?
_chemical_formula_sum            'C80 H81 Co N9 O19'
_chemical_formula_weight         1531.47

loop_
_atom_type_symbol
_atom_type_description
_atom_type_scat_dispersion_real
_atom_type_scat_dispersion_imag
_atom_type_scat_source
C C 0.0033 0.0016 'International Tables Vol C Tables 4.2.6.8 and 6.1.1.4'
H H 0.0000 0.0000 'International Tables Vol C Tables 4.2.6.8 and 6.1.1.4'
N N 0.0061 0.0033 'International Tables Vol C Tables 4.2.6.8 and 6.1.1.4'
O O 0.0106 0.0060 'International Tables Vol C Tables 4.2.6.8 and 6.1.1.4'
Co Co 0.3494 0.9721 'International Tables Vol C Tables 4.2.6.8 and 6.1.1.4'

_symmetry_cell_setting           Triclinic
_symmetry_space_group_name_H-M   P-1

loop_
_symmetry_equiv_pos_as_xyz
'x, y, z'
'-x, -y, -z'

_cell_length_a                   11.482(2)
_cell_length_b                   15.768(3)
_cell_length_c                   23.647(4)
_cell_angle_alpha                78.404(7)
_cell_angle_beta                 82.580(7)
_cell_angle_gamma                76.245(6)
_cell_volume                     4058.5(12)
_cell_formula_units_Z            2
_cell_measurement_temperature    150(2)
_cell_measurement_reflns_used    ?
_cell_measurement_theta_min      ?
_cell_measurement_theta_max      ?

_exptl_crystal_description       plate
_exptl_crystal_colour            pink
_exptl_crystal_size_max          0.20
_exptl_crystal_size_mid          0.16
_exptl_crystal_size_min          0.05
_exptl_crystal_density_meas      ?
_exptl_crystal_density_diffrn    1.253
_exptl_crystal_density_method    'not measured'
_exptl_crystal_F_000             1606
_exptl_absorpt_coefficient_mu    0.285
_exptl_absorpt_correction_type   multi-scan
_exptl_absorpt_correction_T_min  0.9453
_exptl_absorpt_correction_T_max  0.9859
_exptl_absorpt_process_details   SADABS

_exptl_special_details           
;
?
;

_diffrn_ambient_temperature      150(2)
_diffrn_radiation_wavelength     0.71073
_diffrn_radiation_type           MoK\a
_diffrn_radiation_source         'fine-focus sealed tube'
_diffrn_radiation_monochromator  graphite
_diffrn_measurement_device_type  'BRUKER X8 CCD area detector'
_diffrn_measurement_method       'phi and omega scans'
_diffrn_detector_area_resol_mean ?
_diffrn_standards_number         ?
_diffrn_standards_interval_count ?
_diffrn_standards_interval_time  ?
_diffrn_standards_decay_%        ?
_diffrn_reflns_number            37051
_diffrn_reflns_av_R_equivalents  0.1303
_diffrn_reflns_av_sigmaI/netI    0.2210
_diffrn_reflns_limit_h_min       -13
_diffrn_reflns_limit_h_max       13
_diffrn_reflns_limit_k_min       -18
_diffrn_reflns_limit_k_max       18
_diffrn_reflns_limit_l_min       -27
_diffrn_reflns_limit_l_max       24
_diffrn_reflns_theta_min         1.35
_diffrn_reflns_theta_max         24.00
_reflns_number_total             12699
_reflns_number_gt                4746
_reflns_threshold_expression     >2sigma(I)

_computing_data_collection       'Bruker SMART'
_computing_cell_refinement       'Bruker SMART'
_computing_data_reduction        'Bruker SAINT'
_computing_structure_solution    'SHELXS-97 (Sheldrick, 1990)'
_computing_structure_refinement  'SHELXL-97 (Sheldrick, 1997)'
_computing_molecular_graphics    'X-Seed (Barbour)'
_computing_publication_material  'Bruker SHELXTL'

_refine_special_details          
;
Refinement of F^2^ against ALL reflections. The weighted R-factor wR and
goodness of fit S are based on F^2^, conventional R-factors R are based
on F, with F set to zero for negative F^2^. The threshold expression of
F^2^ > 2sigma(F^2^) is used only for calculating R-factors(gt) etc. and is
not relevant to the choice of reflections for refinement. R-factors based
on F^2^ are statistically about twice as large as those based on F, and R-
factors based on ALL data will be even larger.
Solvent groups were refined isotropically
H positions on methyl group C75 were initially geometrically calculated
then fixed with a torsion angle that ensured no steric clashes with
surrounding atoms.
;

_refine_ls_structure_factor_coef Fsqd
_refine_ls_matrix_type           full
_refine_ls_weighting_scheme      calc
_refine_ls_weighting_details     
'calc w=1/[\s^2^(Fo^2^)+(0.1000P)^2^+0.0000P] where P=(Fo^2^+2Fc^2^)/3'
_atom_sites_solution_primary     direct
_atom_sites_solution_secondary   difmap
_atom_sites_solution_hydrogens   geom
_refine_ls_hydrogen_treatment    mixed
_refine_ls_extinction_method     none
_refine_ls_extinction_coef       ?
_refine_ls_number_reflns         12699
_refine_ls_number_parameters     845
_refine_ls_number_restraints     0
_refine_ls_R_factor_all          0.2794
_refine_ls_R_factor_gt           0.1269
_refine_ls_wR_factor_ref         0.3579
_refine_ls_wR_factor_gt          0.3061
_refine_ls_goodness_of_fit_ref   1.475
_refine_ls_restrained_S_all      1.475
_refine_ls_shift/su_max          0.000
_refine_ls_shift/su_mean         0.000

loop_
_atom_site_label
_atom_site_type_symbol
_atom_site_fract_x
_atom_site_fract_y
_atom_site_fract_z
_atom_site_U_iso_or_equiv
_atom_site_adp_type
_atom_site_occupancy
_atom_site_symmetry_multiplicity
_atom_site_calc_flag
_atom_site_refinement_flags
_atom_site_disorder_assembly
_atom_site_disorder_group
Co1 Co 0.24189(14) 0.17620(11) 0.40061(6) 0.0468(5) Uani 1 1 d . . .
O1 O 0.1004(6) 0.3987(5) 0.0671(3) 0.0436(19) Uani 1 1 d . . .
N1 N 0.0760(8) 0.1459(6) 0.3918(4) 0.049(3) Uani 1 1 d . . .
C1 C 0.0707(9) 0.7194(7) 0.0062(4) 0.036(3) Uani 1 1 d . . .
H1A H 0.0660 0.7084 -0.0331 0.043 Uiso 1 1 calc R . .
H1B H 0.0117 0.7749 0.0114 0.043 Uiso 1 1 calc R . .
O2 O -0.0479(6) 0.4237(5) 0.1642(3) 0.0384(19) Uani 1 1 d . . .
N2 N 0.3033(8) 1.0438(7) 0.4456(4) 0.045(3) Uani 1 1 d . . .
C2 C 0.0377(9) 0.6426(7) 0.0511(4) 0.034(3) Uani 1 1 d . . .
O3 O -0.1910(7) 0.4291(5) 0.1056(3) 0.050(2) Uani 1 1 d . . .
N3 N 0.8229(8) 0.6933(6) -0.3540(4) 0.044(2) Uani 1 1 d . . .
C3 C 0.0840(9) 0.5599(7) 0.0388(4) 0.034(3) Uani 1 1 d . . .
H3 H 0.1341 0.5539 0.0039 0.041 Uiso 1 1 calc R . .
O4 O 0.0307(9) 0.7114(6) 0.3192(3) 0.074(3) Uani 1 1 d . . .
N4 N 0.2143(13) 0.2498(10) 0.4928(5) 0.081(4) Uani 1 1 d . . .
C4 C 0.0603(9) 0.4834(8) 0.0757(5) 0.039(3) Uani 1 1 d . . .
O5 O 0.2155(9) 0.7879(6) 0.2813(3) 0.062(2) Uani 1 1 d . . .
N5 N 0.4169(13) 0.1315(7) 0.3223(5) 0.066(3) Uani 1 1 d . . .
C5 C -0.0158(10) 0.4972(8) 0.1260(5) 0.041(3) Uani 1 1 d . . .
O6 O 0.3258(11) 0.6534(9) 0.2762(6) 0.137(5) Uani 1 1 d . . .
C6 C -0.0629(10) 0.5814(8) 0.1390(4) 0.040(3) Uani 1 1 d . . .
H6 H -0.1145 0.5883 0.1733 0.048 Uiso 1 1 calc R . .
O7 O 0.5559(7) 0.7330(5) 0.0218(3) 0.055(2) Uani 1 1 d . . .
N7 N 0.9491(16) 0.9727(12) 0.2940(8) 0.145(6) Uiso 1 1 d . . .
C7 C -0.0344(10) 0.6559(7) 0.1017(5) 0.040(3) Uani 1 1 d . . .
O8 O 0.4994(6) 0.6250(5) -0.0417(3) 0.0404(19) Uani 1 1 d . . .
C8 C -0.0831(10) 0.7420(8) 0.1198(5) 0.048(3) Uani 1 1 d . . .
H8A H -0.1638 0.7423 0.1406 0.057 Uiso 1 1 calc R . .
H8B H -0.0921 0.7894 0.0852 0.057 Uiso 1 1 calc R . .
O9 O 0.5220(7) 0.7379(5) -0.1141(3) 0.049(2) Uani 1 1 d . . .
C9 C 0.0002(11) 0.7603(7) 0.1596(5) 0.050(3) Uani 1 1 d . . .
O10 O 0.1416(10) 0.2172(7) 0.4808(4) 0.087(4) Uani 1 1 d . . .
C10 C -0.0248(11) 0.7295(7) 0.2194(5) 0.047(3) Uani 1 1 d . . .
H10 H -0.0918 0.7029 0.2321 0.056 Uiso 1 1 calc R . .
O11 O 0.3154(11) 0.2445(7) 0.4589(5) 0.099(3) Uani 1 1 d . . .
C11 C 0.0478(12) 0.7379(7) 0.2596(5) 0.051(3) Uani 1 1 d . . .
O12 O 0.2097(11) 0.2925(11) 0.5332(5) 0.153(6) Uani 1 1 d . . .
C12 C 0.1452(12) 0.7778(8) 0.2399(6) 0.053(3) Uani 1 1 d . . .
O13 O 0.4400(8) 0.1620(6) 0.3646(4) 0.080(3) Uani 1 1 d . . .
C13 C 0.1662(11) 0.8092(7) 0.1823(5) 0.047(3) Uani 1 1 d . . .
H13 H 0.2323 0.8371 0.1700 0.057 Uiso 1 1 calc R . .
O14 O 0.4989(10) 0.1027(7) 0.2879(5) 0.103(4) Uani 1 1 d . . .
C14 C 0.0958(10) 0.8023(7) 0.1415(5) 0.038(3) Uani 1 1 d . . .
O15 O 0.3078(8) 0.1324(6) 0.3193(3) 0.059(2) Uani 1 1 d . . .
C15 C 0.1262(10) 0.8436(7) 0.0788(4) 0.046(3) Uani 1 1 d . . .
H15A H 0.0521 0.8595 0.0581 0.055 Uiso 1 1 calc R . .
H15B H 0.1522 0.8992 0.0785 0.055 Uiso 1 1 calc R . .
O16 O 1.0862(15) 0.9600(10) 0.3561(6) 0.177(6) Uiso 1 1 d . . .
C16 C 0.2227(10) 0.7849(7) 0.0460(4) 0.037(3) Uani 1 1 d . . .
C17 C 0.3409(11) 0.7862(7) 0.0493(4) 0.042(3) Uani 1 1 d . . .
H17 H 0.3577 0.8237 0.0726 0.050 Uiso 1 1 calc R . .
C18 C 0.4368(11) 0.7357(8) 0.0205(5) 0.042(3) Uani 1 1 d . . .
O19 O 1.3548(10) 0.9528(8) 0.1120(5) 0.114(4) Uiso 1 1 d . . .
C19 C 0.4079(10) 0.6821(7) -0.0129(4) 0.038(3) Uani 1 1 d . . .
C20 C 0.2924(10) 0.6793(7) -0.0176(4) 0.035(3) Uani 1 1 d . . .
H20 H 0.2766 0.6415 -0.0410 0.043 Uiso 1 1 calc R . .
N21 N 0.1967(18) 0.9654(13) -0.0768(8) 0.159(7) Uiso 1 1 d . . .
C21 C 0.1964(10) 0.7309(7) 0.0112(4) 0.039(3) Uani 1 1 d . . .
C22 C 0.1879(9) 0.3842(7) 0.0183(4) 0.042(3) Uani 1 1 d . . .
H22A H 0.1491 0.4089 -0.0178 0.063 Uiso 1 1 calc R . .
H22B H 0.2200 0.3204 0.0201 0.063 Uiso 1 1 calc R . .
H22C H 0.2537 0.4134 0.0194 0.063 Uiso 1 1 calc R . .
C23 C -0.1408(10) 0.3960(8) 0.1487(5) 0.043(3) Uani 1 1 d . . .
C24 C -0.1754(10) 0.3209(8) 0.1930(5) 0.043(3) Uani 1 1 d . . .
C25 C -0.2731(10) 0.2898(8) 0.1820(5) 0.045(3) Uani 1 1 d . . .
H25 H -0.3112 0.3133 0.1471 0.054 Uiso 1 1 calc R . .
C26 C -0.3136(10) 0.2247(8) 0.2225(5) 0.049(3) Uani 1 1 d . . .
H26 H -0.3820 0.2047 0.2164 0.058 Uiso 1 1 calc R . .
C27 C -0.2552(10) 0.1895(7) 0.2708(5) 0.043(3) Uani 1 1 d . . .
H27 H -0.2818 0.1427 0.2973 0.052 Uiso 1 1 calc R . .
C28 C -0.1582(9) 0.2186(7) 0.2831(4) 0.038(3) Uani 1 1 d . . .
C29 C -0.1186(9) 0.2849(7) 0.2425(4) 0.037(3) Uani 1 1 d . . .
H29 H -0.0512 0.3056 0.2493 0.045 Uiso 1 1 calc R . .
C30 C -0.1011(10) 0.1810(7) 0.3373(5) 0.041(3) Uani 1 1 d . . .
C31 C -0.1671(11) 0.1497(8) 0.3889(5) 0.058(4) Uani 1 1 d . . .
H31 H -0.2509 0.1533 0.3888 0.070 Uiso 1 1 calc R . .
C32 C -0.1122(11) 0.1146(9) 0.4383(5) 0.064(4) Uani 1 1 d . . .
H32 H -0.1552 0.0900 0.4723 0.077 Uiso 1 1 calc R . .
C33 C 0.0101(11) 0.1153(8) 0.4382(5) 0.057(4) Uani 1 1 d . . .
H33 H 0.0475 0.0927 0.4733 0.068 Uiso 1 1 calc R . .
C34 C 0.0190(10) 0.1771(7) 0.3420(5) 0.044(3) Uani 1 1 d . . .
H34 H 0.0654 0.1977 0.3080 0.053 Uiso 1 1 calc R . .
C35 C -0.0824(14) 0.6789(10) 0.3409(6) 0.094(5) Uani 1 1 d . . .
H35A H -0.1521 0.7242 0.3271 0.141 Uiso 1 1 calc R . .
H35B H -0.0895 0.6669 0.3834 0.141 Uiso 1 1 calc R . .
H35C H -0.0795 0.6242 0.3265 0.141 Uiso 1 1 calc R . .
C36 C 0.3071(15) 0.7202(12) 0.2957(6) 0.079(4) Uani 1 1 d . . .
C37 C 0.3820(15) 0.7349(10) 0.3368(7) 0.082(5) Uani 1 1 d . . .
C38 C 0.4951(16) 0.6748(11) 0.3482(8) 0.109(6) Uani 1 1 d . . .
H38 H 0.5199 0.6251 0.3290 0.130 Uiso 1 1 calc R . .
C39 C 0.5666(15) 0.6867(13) 0.3851(8) 0.107(6) Uani 1 1 d . . .
H39 H 0.6426 0.6471 0.3901 0.129 Uiso 1 1 calc R . .
C40 C 0.5326(13) 0.7544(11) 0.4156(6) 0.079(4) Uani 1 1 d . . .
H40 H 0.5839 0.7607 0.4423 0.095 Uiso 1 1 calc R . .
C41 C 0.4231(12) 0.8147(9) 0.4079(5) 0.060(4) Uani 1 1 d . . .
C42 C 0.3468(13) 0.8064(9) 0.3662(5) 0.066(4) Uani 1 1 d . . .
H42 H 0.2740 0.8490 0.3590 0.080 Uiso 1 1 calc R . .
C43 C 0.3870(11) 0.8888(9) 0.4428(6) 0.054(3) Uani 1 1 d . . .
C44 C 0.4165(10) 0.8755(10) 0.4986(6) 0.055(4) Uani 1 1 d . . .
H44 H 0.4556 0.8184 0.5170 0.066 Uiso 1 1 calc R . .
C45 C 0.3894(11) 0.9441(11) 0.5268(6) 0.060(4) Uani 1 1 d . . .
H45 H 0.4087 0.9351 0.5657 0.072 Uiso 1 1 calc R . .
C46 C 0.3336(10) 1.0283(10) 0.5003(5) 0.056(4) Uani 1 1 d . . .
H46 H 0.3164 1.0758 0.5214 0.067 Uiso 1 1 calc R . .
C47 C 0.3271(11) 0.9761(10) 0.4184(5) 0.054(3) Uani 1 1 d . . .
H47 H 0.3031 0.9858 0.3803 0.065 Uiso 1 1 calc R . .
C48 C 0.5850(12) 0.7853(11) 0.0566(6) 0.088(5) Uani 1 1 d . . .
H48A H 0.5507 0.8480 0.0423 0.133 Uiso 1 1 calc R . .
H48B H 0.6727 0.7761 0.0554 0.133 Uiso 1 1 calc R . .
H48C H 0.5522 0.7688 0.0966 0.133 Uiso 1 1 calc R . .
C49 C 0.5445(9) 0.6615(8) -0.0948(4) 0.037(3) Uani 1 1 d . . .
C50 C 0.6225(9) 0.5903(7) -0.1257(4) 0.037(3) Uani 1 1 d . . .
C51 C 0.6854(10) 0.6159(7) -0.1785(4) 0.037(3) Uani 1 1 d . . .
H51 H 0.6798 0.6774 -0.1930 0.045 Uiso 1 1 calc R . .
C52 C 0.7541(10) 0.5562(8) -0.2100(4) 0.037(3) Uani 1 1 d . . .
C53 C 0.7607(10) 0.4668(8) -0.1876(5) 0.045(3) Uani 1 1 d . . .
H53 H 0.8094 0.4239 -0.2087 0.053 Uiso 1 1 calc R . .
C54 C 0.7003(10) 0.4386(8) -0.1369(5) 0.048(3) Uani 1 1 d . . .
H54 H 0.7062 0.3769 -0.1230 0.058 Uiso 1 1 calc R . .
C55 C 0.6311(10) 0.4991(8) -0.1060(5) 0.046(3) Uani 1 1 d . . .
H55 H 0.5880 0.4795 -0.0706 0.055 Uiso 1 1 calc R . .
C56 C 0.8180(10) 0.5845(8) -0.2658(5) 0.041(3) Uani 1 1 d . . .
C57 C 0.9305(10) 0.5381(8) -0.2840(5) 0.043(3) Uani 1 1 d . . .
H57 H 0.9691 0.4856 -0.2601 0.052 Uiso 1 1 calc R . .
C58 C 0.9859(10) 0.5681(8) -0.3366(5) 0.047(3) Uani 1 1 d . . .
H58 H 1.0622 0.5358 -0.3495 0.056 Uiso 1 1 calc R . .
C59 C 0.9314(11) 0.6446(9) -0.3705(5) 0.049(3) Uani 1 1 d . . .
H59 H 0.9711 0.6643 -0.4069 0.059 Uiso 1 1 calc R . .
C60 C 0.7699(10) 0.6600(8) -0.3027(4) 0.039(3) Uani 1 1 d . . .
H60 H 0.6922 0.6918 -0.2911 0.047 Uiso 1 1 calc R . .
O61 O 0.1436(11) 1.0595(8) -0.0209(5) 0.105(4) Uiso 1 1 d . . .
C66 C 0.8425(16) 0.9446(12) 0.2888(7) 0.116(6) Uiso 1 1 d . . .
H66A H 0.8603 0.8927 0.2691 0.139 Uiso 1 1 calc R . .
H66B H 0.7832 0.9931 0.2678 0.139 Uiso 1 1 calc R . .
C67 C 0.8015(16) 0.9220(12) 0.3486(7) 0.117(6) Uiso 1 1 d . . .
H67A H 0.7632 0.8705 0.3544 0.141 Uiso 1 1 calc R . .
H67B H 0.7416 0.9726 0.3611 0.141 Uiso 1 1 calc R . .
C68 C 0.9128(15) 0.8986(11) 0.3845(7) 0.106(5) Uiso 1 1 d . . .
H68A H 0.8941 0.9226 0.4210 0.127 Uiso 1 1 calc R . .
H68B H 0.9455 0.8339 0.3932 0.127 Uiso 1 1 calc R . .
C69 C 0.9932(19) 0.9437(13) 0.3438(9) 0.117(6) Uiso 1 1 d . . .
C70 C 1.012(2) 1.0139(16) 0.2415(10) 0.198(10) Uiso 1 1 d . . .
H70A H 0.9595 1.0301 0.2097 0.237 Uiso 1 1 calc R . .
H70B H 1.0855 0.9719 0.2310 0.237 Uiso 1 1 calc R . .
H70C H 1.0328 1.0673 0.2488 0.237 Uiso 1 1 calc R . .
C71 C 0.6791(15) 0.4441(11) 0.3268(7) 0.110(6) Uiso 1 1 d . . .
H71A H 0.7500 0.3939 0.3312 0.132 Uiso 1 1 calc R . .
H71B H 0.6619 0.4699 0.3626 0.132 Uiso 1 1 calc R . .
O72 O 0.5954(16) 0.5892(12) 0.1820(8) 0.216(7) Uiso 1 1 d . . .
C72 C 0.5723(19) 0.4142(15) 0.3142(9) 0.155(8) Uiso 1 1 d . . .
H72A H 0.5943 0.3500 0.3126 0.187 Uiso 1 1 calc R . .
H72B H 0.5067 0.4241 0.3453 0.187 Uiso 1 1 calc R . .
N73 N 0.7017(16) 0.5162(12) 0.2725(7) 0.151(6) Uiso 1 1 d . . .
C73 C 0.5342(19) 0.4618(14) 0.2619(9) 0.149(8) Uiso 1 1 d . . .
H73A H 0.4512 0.4970 0.2676 0.179 Uiso 1 1 calc R . .
H73B H 0.5341 0.4207 0.2352 0.179 Uiso 1 1 calc R . .
C74 C 0.6145(14) 0.5202(10) 0.2371(7) 0.084(5) Uiso 1 1 d . . .
C75 C 0.7738(10) 0.5644(8) 0.2672(5) 0.048(3) Uiso 1 1 d . . .
H75A H 0.8512 0.5356 0.2499 0.072 Uiso 1 1 d . . .
H75B H 0.7834 0.5762 0.3052 0.072 Uiso 1 1 d . . .
H75C H 0.7426 0.6209 0.2418 0.072 Uiso 1 1 d . . .
N76 N 1.2995(12) 1.0414(10) 0.1793(6) 0.106(4) Uiso 1 1 d . . .
C76 C 1.2475(16) 1.1357(12) 0.1873(7) 0.121(6) Uiso 1 1 d . . .
H76A H 1.1898 1.1387 0.2222 0.145 Uiso 1 1 calc R . .
H76B H 1.3112 1.1672 0.1898 0.145 Uiso 1 1 calc R . .
C77 C 1.1858(15) 1.1715(11) 0.1327(7) 0.109(6) Uiso 1 1 d . . .
H77A H 1.1903 1.2342 0.1185 0.130 Uiso 1 1 calc R . .
H77B H 1.1001 1.1678 0.1394 0.130 Uiso 1 1 calc R . .
C78 C 1.2542(14) 1.1122(10) 0.0879(6) 0.089(5) Uiso 1 1 d . . .
H78A H 1.1985 1.1041 0.0617 0.107 Uiso 1 1 calc R . .
H78B H 1.3190 1.1384 0.0644 0.107 Uiso 1 1 calc R . .
C79 C 1.3592(18) 0.9757(13) 0.2269(8) 0.155(8) Uiso 1 1 d . . .
H79A H 1.3449 1.0013 0.2623 0.186 Uiso 1 1 calc R . .
H79B H 1.4459 0.9601 0.2161 0.186 Uiso 1 1 calc R . .
H79C H 1.3261 0.9223 0.2337 0.186 Uiso 1 1 calc R . .
C80 C 1.3046(16) 1.0269(13) 0.1251(8) 0.105(5) Uiso 1 1 d . . .
C81 C 0.2861(16) 0.9096(12) -0.1145(8) 0.117(6) Uiso 1 1 d . . .
H81A H 0.2745 0.9280 -0.1563 0.140 Uiso 1 1 calc R . .
H81B H 0.2911 0.8451 -0.1022 0.140 Uiso 1 1 calc R . .
C82 C 0.397(3) 0.943(2) -0.0952(14) 0.258(15) Uiso 1 1 d . . .
H82A H 0.4578 0.8917 -0.0784 0.309 Uiso 1 1 calc R . .
H82B H 0.4361 0.9767 -0.1293 0.309 Uiso 1 1 calc R . .
C83 C 0.