####################################################################### 
# 
# This file contains crystal structure data downloaded from the 
# Cambridge Structural Database (CSD) hosted by the Cambridge 
# Crystallographic Data Centre (CCDC).
# 
# Full information about CCDC data access policies and citation 
# guidelines are available at http://www.ccdc.cam.ac.uk/access/V1 
# 
# Audit and citation data items may have been added by the CCDC. 
# Please retain this information to preserve the provenance of 
# this file and to allow appropriate attribution of the data. 
# 
#######################################################################

data_complex4_new
_audit_block_doi                 10.5517/ccwlvq0
_database_code_depnum_ccdc_archive 'CCDC 822483'
loop_
_citation_id
_citation_doi
_citation_year
1 10.1039/c1dt10662g 2011
_audit_update_record             
;
2011-04-15 deposited with the CCDC.	2024-07-08 downloaded from the CCDC.
;
#TrackingRef '- complex4_new.cif'


_audit_creation_method           SHELXL-97
_chemical_name_systematic        
;
(N-methylpyrrolidone)tetranitroso
bis[(+-)-2,7,12-trimethoxy-3,8,13-tris[4-
(4-pyridyl)benzoyl]-10,15-dihydro-5H-
tribenzo[a,d,g]cyclononane]dicadmium(II)
N-methylpyrrolidone clathrate
;
_chemical_name_common            
;
(N-methylpyrrolidone)tetranitroso bis((+-)-2,7,12-trimethoxy-
3,8,13-tris(4-(4-pyridyl)benzoyl)-10,15-dihydro-5H-
tribenzo(a,d,g)cyclononane)dicadmium(ii) N-methylpyrrolidone clathrate
;
_chemical_melting_point          ?
_chemical_formula_moiety         ?
_chemical_formula_sum            'C170 H188 Cd2 N20 O44'
_chemical_formula_weight         3440.20

loop_
_atom_type_symbol
_atom_type_description
_atom_type_scat_dispersion_real
_atom_type_scat_dispersion_imag
_atom_type_scat_source
C C 0.0033 0.0016 'International Tables Vol C Tables 4.2.6.8 and 6.1.1.4'
H H 0.0000 0.0000 'International Tables Vol C Tables 4.2.6.8 and 6.1.1.4'
Cd Cd -0.8075 1.2024 'International Tables Vol C Tables 4.2.6.8 and 6.1.1.4'
N N 0.0061 0.0033 'International Tables Vol C Tables 4.2.6.8 and 6.1.1.4'
O O 0.0106 0.0060 'International Tables Vol C Tables 4.2.6.8 and 6.1.1.4'

_symmetry_cell_setting           Triclinic
_symmetry_space_group_name_H-M   P-1

loop_
_symmetry_equiv_pos_as_xyz
'x, y, z'
'-x, -y, -z'

_cell_length_a                   20.523(2)
_cell_length_b                   22.227(2)
_cell_length_c                   22.922(3)
_cell_angle_alpha                79.579(7)
_cell_angle_beta                 73.913(7)
_cell_angle_gamma                72.387(6)
_cell_volume                     9521.9(18)
_cell_formula_units_Z            2
_cell_measurement_temperature    150(2)
_cell_measurement_reflns_used    ?
_cell_measurement_theta_min      ?
_cell_measurement_theta_max      ?

_exptl_crystal_description       block
_exptl_crystal_colour            colourless
_exptl_crystal_size_max          0.37
_exptl_crystal_size_mid          0.25
_exptl_crystal_size_min          0.11
_exptl_crystal_density_meas      ?
_exptl_crystal_density_diffrn    1.200
_exptl_crystal_density_method    'not measured'
_exptl_crystal_F_000             3592
_exptl_absorpt_coefficient_mu    0.299
_exptl_absorpt_correction_type   multi-scan
_exptl_absorpt_correction_T_min  0.9044
_exptl_absorpt_correction_T_max  0.9701
_exptl_absorpt_process_details   SADABS

_exptl_special_details           
;
?
;

_diffrn_ambient_temperature      150(2)
_diffrn_radiation_wavelength     0.71073
_diffrn_radiation_type           MoK\a
_diffrn_radiation_source         'fine-focus sealed tube'
_diffrn_radiation_monochromator  graphite
_diffrn_measurement_device_type  'BRUKER X8 CCD area detector'
_diffrn_measurement_method       'phi and omega scans'
_diffrn_detector_area_resol_mean ?
_diffrn_standards_number         ?
_diffrn_standards_interval_count ?
_diffrn_standards_interval_time  ?
_diffrn_standards_decay_%        ?
_diffrn_reflns_number            114080
_diffrn_reflns_av_R_equivalents  0.0727
_diffrn_reflns_av_sigmaI/netI    0.1383
_diffrn_reflns_limit_h_min       -24
_diffrn_reflns_limit_h_max       24
_diffrn_reflns_limit_k_min       -25
_diffrn_reflns_limit_k_max       26
_diffrn_reflns_limit_l_min       -27
_diffrn_reflns_limit_l_max       27
_diffrn_reflns_theta_min         1.24
_diffrn_reflns_theta_max         25.00
_reflns_number_total             33333
_reflns_number_gt                14780
_reflns_threshold_expression     >2sigma(I)

_computing_data_collection       'Bruker SMART'
_computing_cell_refinement       'Bruker SMART'
_computing_data_reduction        'Bruker SAINT'
_computing_structure_solution    'SHELXS-97 (Sheldrick, 1990)'
_computing_structure_refinement  'SHELXL-97 (Sheldrick, 1997)'
_computing_molecular_graphics    'Bruker SHELXTL'
_computing_publication_material  'Bruker SHELXTL'

_refine_special_details          
;
Refinement of F^2^ against ALL reflections. The weighted R-factor wR and
goodness of fit S are based on F^2^, conventional R-factors R are based
on F, with F set to zero for negative F^2^. The threshold expression of
F^2^ > 2sigma(F^2^) is used only for calculating R-factors(gt) etc. and is
not relevant to the choice of reflections for refinement. R-factors based
on F^2^ are statistically about twice as large as those based on F, and R-
factors based on ALL data will be even larger.
Large residual peak is 1.03 A from Cd2. Nitrates refined isotropically.
;

_refine_ls_structure_factor_coef Fsqd
_refine_ls_matrix_type           full
_refine_ls_weighting_scheme      calc
_refine_ls_weighting_details     
'calc w=1/[\s^2^(Fo^2^)+(0.1802P)^2^+0.0000P] where P=(Fo^2^+2Fc^2^)/3'
_atom_sites_solution_primary     direct
_atom_sites_solution_secondary   difmap
_atom_sites_solution_hydrogens   geom
_refine_ls_hydrogen_treatment    constr
_refine_ls_extinction_method     none
_refine_ls_extinction_coef       ?
_refine_ls_number_reflns         33333
_refine_ls_number_parameters     1478
_refine_ls_number_restraints     0
_refine_ls_R_factor_all          0.1737
_refine_ls_R_factor_gt           0.1066
_refine_ls_wR_factor_ref         0.3023
_refine_ls_wR_factor_gt          0.2740
_refine_ls_goodness_of_fit_ref   0.936
_refine_ls_restrained_S_all      0.936
_refine_ls_shift/su_max          0.001
_refine_ls_shift/su_mean         0.000

loop_
_atom_site_label
_atom_site_type_symbol
_atom_site_fract_x
_atom_site_fract_y
_atom_site_fract_z
_atom_site_U_iso_or_equiv
_atom_site_adp_type
_atom_site_occupancy
_atom_site_symmetry_multiplicity
_atom_site_calc_flag
_atom_site_refinement_flags
_atom_site_disorder_assembly
_atom_site_disorder_group
Cd1 Cd 0.30431(4) 0.21717(3) 0.73210(3) 0.0874(3) Uani 1 1 d . . .
Cd2 Cd -0.25174(2) 1.24663(2) 1.23252(2) 0.05076(19) Uani 1 1 d . . .
O1 O 0.3881(2) 0.6476(2) 0.9857(2) 0.0600(13) Uani 1 1 d . . .
O2 O 0.4821(2) 0.60579(19) 0.8828(2) 0.0486(11) Uani 1 1 d . . .
O3 O 0.5432(2) 0.52522(18) 0.9397(2) 0.0465(11) Uani 1 1 d . . .
O4 O 0.6736(2) 0.8125(2) 0.67663(18) 0.0481(11) Uani 1 1 d . . .
O5 O 0.6528(2) 0.93248(19) 0.70317(18) 0.0432(10) Uani 1 1 d . . .
O6 O 0.7720(2) 0.9088(2) 0.69061(19) 0.0453(11) Uani 1 1 d . . .
O7 O 0.3899(2) 1.03592(19) 0.9674(2) 0.0506(11) Uani 1 1 d . . .
O8 O 0.3233(2) 0.9550(2) 1.0460(2) 0.0451(11) Uani 1 1 d . . .
O9 O 0.3540(2) 0.97576(19) 1.1272(2) 0.0433(10) Uani 1 1 d . . .
O10 O 0.1193(2) -0.1464(2) 0.4979(2) 0.0585(13) Uani 1 1 d . . .
O11 O 0.0287(2) -0.1069(2) 0.6024(2) 0.0495(11) Uani 1 1 d . . .
O12 O -0.0442(3) -0.0184(2) 0.5624(3) 0.0717(16) Uani 1 1 d . . .
O13 O -0.1779(2) -0.2909(2) 0.80666(19) 0.0479(11) Uani 1 1 d . . .
O14 O -0.1529(2) -0.41249(19) 0.78458(19) 0.0437(10) Uani 1 1 d . . .
O15 O -0.2712(2) -0.39102(19) 0.79378(19) 0.0421(10) Uani 1 1 d . . .
O16 O 0.1133(3) -0.5283(2) 0.5301(2) 0.0627(13) Uani 1 1 d . . .
O17 O 0.1798(2) -0.4525(2) 0.4456(2) 0.0581(13) Uani 1 1 d . . .
O18 O 0.1450(2) -0.4831(2) 0.3718(2) 0.0545(12) Uani 1 1 d . . .
O21 O 0.1978(2) 0.2860(2) 0.7707(2) 0.0517(12) Uiso 1 1 d . A 2
O23 O 0.2470(3) 0.1847(3) 0.8378(3) 0.0830(16) Uiso 1 1 d . A .
O24 O 0.3380(4) 0.1149(3) 0.7980(3) 0.113(2) Uiso 1 1 d . A .
O25 O 0.2652(4) 0.0875(4) 0.8856(4) 0.133(3) Uiso 1 1 d . A .
O26 O -0.2177(3) 1.3111(3) 1.2857(3) 0.0726(15) Uiso 1 1 d . . .
O27 O -0.2159(9) 1.4093(8) 1.2879(8) 0.281(7) Uiso 1 1 d . . .
O28 O -0.1555(7) 1.3604(6) 1.2076(6) 0.211(5) Uiso 1 1 d . . .
O29 O -0.2871(3) 1.1739(2) 1.1951(2) 0.0623(13) Uani 1 1 d . . .
O30 O -0.1657(7) -0.3605(7) 0.9574(6) 0.242(6) Uiso 1 1 d . . .
O31 O 0.4112(8) 0.1466(7) 0.6891(7) 0.235(6) Uiso 1 1 d . A .
O32 O 0.4917(7) 0.1507(6) 0.5989(6) 0.211(5) Uiso 1 1 d . A .
O33 O 0.4002(7) 0.2259(7) 0.6305(7) 0.226(5) Uiso 1 1 d . A .
N1 N 0.3523(4) 0.2802(3) 0.7702(3) 0.077(2) Uani 1 1 d . A .
N2 N 0.7353(3) 1.1791(3) 0.3267(3) 0.0522(15) Uani 1 1 d . . .
N3 N -0.1312(3) 1.1869(3) 1.2059(3) 0.074(2) Uani 1 1 d . . .
N4 N 0.2368(5) 0.1642(3) 0.7017(4) 0.106(3) Uani 1 1 d . A .
N5 N -0.2430(3) -0.6862(3) 1.1383(3) 0.0595(16) Uani 1 1 d . . .
N6 N 0.6277(3) -0.6979(3) 0.2679(3) 0.0685(18) Uani 1 1 d . . .
N8 N 0.2813(5) 0.1296(5) 0.8404(5) 0.115(3) Uiso 1 1 d . . .
N9 N -0.2075(8) 1.3539(7) 1.2615(7) 0.177(5) Uiso 1 1 d . . .
N10 N -0.2705(4) 1.0926(3) 1.1341(4) 0.091(2) Uani 1 1 d . . .
N11 N -0.2217(7) -0.2622(6) 0.9996(6) 0.159(4) Uiso 1 1 d . . .
N12 N 0.4304(10) 0.1716(9) 0.6409(9) 0.200(6) Uiso 1 1 d . . .
C1 C 0.5275(3) 0.7287(2) 0.9791(3) 0.0307(13) Uani 1 1 d . . .
C2 C 0.4634(3) 0.7104(3) 0.9997(3) 0.0376(14) Uani 1 1 d . . .
H2 H 0.4305 0.7261 1.0354 0.045 Uiso 1 1 calc R . .
C3 C 0.4479(3) 0.6705(3) 0.9690(3) 0.0420(16) Uani 1 1 d . . .
C4 C 0.4963(4) 0.6496(3) 0.9136(3) 0.0496(18) Uani 1 1 d . . .
C5 C 0.5593(3) 0.6690(3) 0.8916(3) 0.0393(15) Uani 1 1 d . . .
H5 H 0.5910 0.6548 0.8548 0.047 Uiso 1 1 calc R . .
C6 C 0.5758(3) 0.7090(2) 0.9235(3) 0.0352(14) Uani 1 1 d . . .
C7 C 0.6451(3) 0.7279(3) 0.8980(3) 0.0345(14) Uani 1 1 d . . .
H7A H 0.6591 0.7380 0.9323 0.041 Uiso 1 1 calc R . .
H7B H 0.6819 0.6907 0.8811 0.041 Uiso 1 1 calc R . .
C8 C 0.6435(3) 0.7839(3) 0.8490(3) 0.0370(14) Uani 1 1 d . . .
C9 C 0.6548(3) 0.7723(3) 0.7869(3) 0.0425(15) Uani 1 1 d . . .
H9 H 0.6601 0.7307 0.7781 0.051 Uiso 1 1 calc R . .
C10 C 0.6582(3) 0.8213(3) 0.7387(3) 0.0402(15) Uani 1 1 d . . .
C11 C 0.6496(3) 0.8827(3) 0.7510(3) 0.0407(15) Uani 1 1 d . . .
C12 C 0.6362(3) 0.8965(3) 0.8118(3) 0.0399(15) Uani 1 1 d . . .
H12 H 0.6299 0.9387 0.8196 0.048 Uiso 1 1 calc R . .
C13 C 0.6320(3) 0.8473(3) 0.8620(3) 0.0379(14) Uani 1 1 d . . .
C14 C 0.6193(3) 0.8657(3) 0.9277(3) 0.0399(15) Uani 1 1 d . . .
H14A H 0.6435 0.8291 0.9527 0.048 Uiso 1 1 calc R . .
H14B H 0.6400 0.9012 0.9253 0.048 Uiso 1 1 calc R . .
C15 C 0.5398(3) 0.8856(3) 0.9595(3) 0.0328(13) Uani 1 1 d . . .
C16 C 0.5017(3) 0.9507(3) 0.9466(3) 0.0357(14) Uani 1 1 d . . .
H16 H 0.5250 0.9788 0.9183 0.043 Uiso 1 1 calc R . .
C17 C 0.4297(3) 0.9727(3) 0.9758(3) 0.0395(15) Uani 1 1 d . . .
C18 C 0.3970(3) 0.9316(3) 1.0168(3) 0.0403(15) Uani 1 1 d . . .
C19 C 0.4324(3) 0.8683(3) 1.0296(3) 0.0388(15) Uani 1 1 d . . .
H19 H 0.4079 0.8409 1.0576 0.047 Uiso 1 1 calc R . .
C20 C 0.5036(3) 0.8446(3) 1.0018(3) 0.0323(13) Uani 1 1 d . . .
C21 C 0.5398(3) 0.7726(3) 1.0185(3) 0.0380(15) Uani 1 1 d . . .
H21A H 0.5910 0.7666 1.0121 0.046 Uiso 1 1 calc R . .
H21B H 0.5208 0.7603 1.0622 0.046 Uiso 1 1 calc R . .
C22 C 0.3405(4) 0.6657(4) 1.0435(4) 0.078(2) Uani 1 1 d . . .
H22A H 0.3653 0.6493 1.0764 0.116 Uiso 1 1 calc R . .
H22B H 0.3002 0.6480 1.0515 0.116 Uiso 1 1 calc R . .
H22C H 0.3239 0.7121 1.0416 0.116 Uiso 1 1 calc R . .
C23 C 0.5062(3) 0.5429(3) 0.9037(3) 0.0395(15) Uani 1 1 d . . .
C24 C 0.4769(3) 0.5006(3) 0.8782(3) 0.0407(15) Uani 1 1 d . . .
C25 C 0.4573(4) 0.5152(3) 0.8244(3) 0.064(2) Uani 1 1 d . . .
H25 H 0.4595 0.5550 0.8016 0.077 Uiso 1 1 calc R . .
C26 C 0.4334(4) 0.4722(4) 0.8012(4) 0.073(2) Uani 1 1 d . . .
H26 H 0.4222 0.4828 0.7624 0.088 Uiso 1 1 calc R . .
C27 C 0.4265(4) 0.4149(3) 0.8352(3) 0.060(2) Uani 1 1 d . . .
C28 C 0.4470(4) 0.3996(3) 0.8919(3) 0.062(2) Uani 1 1 d . . .
H28 H 0.4439 0.3605 0.9158 0.075 Uiso 1 1 calc R . .
C29 C 0.4711(4) 0.4415(3) 0.9119(3) 0.0527(19) Uani 1 1 d . . .
H29 H 0.4845 0.4306 0.9497 0.063 Uiso 1 1 calc R . .
C30 C 0.4005(4) 0.3666(4) 0.8129(4) 0.069(2) Uani 1 1 d . . .
C31 C 0.4157(5) 0.3605(4) 0.7495(4) 0.076(2) Uani 1 1 d . A .
H31 H 0.4441 0.3840 0.7202 0.092 Uiso 1 1 calc R . .
C32 C 0.3873(6) 0.3185(5) 0.7315(5) 0.108(4) Uani 1 1 d . . .
H32 H 0.3936 0.3174 0.6890 0.130 Uiso 1 1 calc R A .
C33 C 0.3407(4) 0.2858(4) 0.8295(4) 0.067(2) Uani 1 1 d . . .
H33 H 0.3145 0.2599 0.8579 0.081 Uiso 1 1 calc R A .
C34 C 0.3644(4) 0.3271(3) 0.8522(4) 0.060(2) Uani 1 1 d . A .
H34 H 0.3555 0.3278 0.8951 0.072 Uiso 1 1 calc R . .
C35 C 0.6781(4) 0.7499(4) 0.6630(3) 0.063(2) Uani 1 1 d . . .
H35A H 0.7114 0.7178 0.6836 0.095 Uiso 1 1 calc R . .
H35B H 0.6943 0.7478 0.6188 0.095 Uiso 1 1 calc R . .
H35C H 0.6316 0.7418 0.6774 0.095 Uiso 1 1 calc R . .
C36 C 0.7188(3) 0.9370(3) 0.6717(3) 0.0387(15) Uani 1 1 d . . .
C37 C 0.7187(3) 0.9805(3) 0.6134(3) 0.0452(16) Uani 1 1 d . . .
C38 C 0.6569(3) 1.0114(3) 0.5931(3) 0.0514(18) Uani 1 1 d . . .
H38 H 0.6129 1.0061 0.6176 0.062 Uiso 1 1 calc R . .
C39 C 0.6592(4) 1.0498(4) 0.5373(4) 0.065(2) Uani 1 1 d . . .
H39 H 0.6170 1.0695 0.5239 0.078 Uiso 1 1 calc R . .
C40 C 0.7242(3) 1.0593(3) 0.5007(3) 0.0510(18) Uani 1 1 d . . .
C41 C 0.7864(3) 1.0277(3) 0.5214(3) 0.0541(18) Uani 1 1 d . . .
H41 H 0.8307 1.0325 0.4972 0.065 Uiso 1 1 calc R . .
C42 C 0.7829(3) 0.9893(3) 0.5777(3) 0.0429(16) Uani 1 1 d . . .
H42 H 0.8247 0.9692 0.5915 0.052 Uiso 1 1 calc R . .
C43 C 0.7273(4) 1.1004(3) 0.4400(3) 0.059(2) Uani 1 1 d . . .
C44 C 0.6831(4) 1.1058(4) 0.4003(4) 0.068(2) Uani 1 1 d . . .
H44 H 0.6487 1.0826 0.4115 0.082 Uiso 1 1 calc R . .
C45 C 0.6896(4) 1.1453(4) 0.3439(3) 0.060(2) Uani 1 1 d . . .
H45 H 0.6598 1.1472 0.3180 0.072 Uiso 1 1 calc R . .
C46 C 0.7784(4) 1.1739(3) 0.3619(3) 0.058(2) Uani 1 1 d . . .
H46 H 0.8123 1.1976 0.3485 0.069 Uiso 1 1 calc R . .
C47 C 0.7775(4) 1.1354(4) 0.4182(3) 0.063(2) Uani 1 1 d . . .
H47 H 0.8104 1.1332 0.4412 0.076 Uiso 1 1 calc R . .
C48 C 0.4195(4) 1.0769(3) 0.9194(3) 0.0585(19) Uani 1 1 d . . .
H48A H 0.4620 1.0818 0.9272 0.088 Uiso 1 1 calc R . .
H48B H 0.3852 1.1185 0.9170 0.088 Uiso 1 1 calc R . .
H48C H 0.4315 1.0587 0.8806 0.088 Uiso 1 1 calc R . .
C49 C 0.3087(3) 0.9796(3) 1.1016(3) 0.0367(15) Uani 1 1 d . . .
C50 C 0.2317(3) 1.0118(3) 1.1216(3) 0.0396(15) Uani 1 1 d . . .
C51 C 0.1827(4) 1.0118(4) 1.0867(3) 0.0592(19) Uani 1 1 d . . .
H51 H 0.1986 0.9910 1.0505 0.071 Uiso 1 1 calc R . .
C52 C 0.1118(4) 1.0427(4) 1.1069(3) 0.063(2) Uani 1 1 d . . .
H52 H 0.0790 1.0406 1.0856 0.075 Uiso 1 1 calc R . .
C53 C 0.0875(3) 1.0774(3) 1.1589(3) 0.0474(17) Uani 1 1 d . . .
C54 C 0.1345(3) 1.0758(3) 1.1940(3) 0.0478(17) Uani 1 1 d . . .
H54 H 0.1185 1.0965 1.2301 0.057 Uiso 1 1 calc R . .
C55 C 0.2076(3) 1.0419(3) 1.1741(3) 0.0440(16) Uani 1 1 d . . .
H55 H 0.2397 1.0404 1.1976 0.053 Uiso 1 1 calc R . .
C56 C 0.0106(3) 1.1135(3) 1.1762(3) 0.0468(17) Uani 1 1 d . . .
C57 C -0.0437(4) 1.0941(4) 1.1674(4) 0.065(2) Uani 1 1 d . . .
H57 H -0.0330 1.0548 1.1512 0.078 Uiso 1 1 calc R . .
C58 C -0.1146(4) 1.1306(3) 1.1818(3) 0.0551(18) Uani 1 1 d . . .
H58 H -0.1505 1.1161 1.1747 0.066 Uiso 1 1 calc R . .
C59 C -0.0811(3) 1.2062(3) 1.2147(4) 0.067(2) Uani 1 1 d . . .
H59 H -0.0932 1.2458 1.2306 0.080 Uiso 1 1 calc R . .
C60 C -0.0072(4) 1.1701(3) 1.2015(4) 0.063(2) Uani 1 1 d . . .
H60 H 0.0277 1.1850 1.2100 0.076 Uiso 1 1 calc R . .
C61 C -0.0721(3) -0.2006(2) 0.5581(3) 0.0321(14) Uani 1 1 d . . .
C62 C -0.0557(3) -0.1609(3) 0.5900(3) 0.0414(15) Uani 1 1 d . . .
H62 H -0.0882 -0.1444 0.6256 0.050 Uiso 1 1 calc R . .
C63 C 0.0096(4) -0.1457(3) 0.5688(3) 0.0460(17) Uani 1 1 d . . .
C64 C 0.0586(3) -0.1683(3) 0.5159(3) 0.0424(16) Uani 1 1 d . . .
C65 C 0.0415(3) -0.2063(3) 0.4851(3) 0.0396(15) Uani 1 1 d . . .
H65 H 0.0741 -0.2223 0.4494 0.048 Uiso 1 1 calc R . .
C66 C -0.0236(3) -0.2225(3) 0.5048(3) 0.0357(14) Uani 1 1 d . . .
C67 C -0.0346(3) -0.2684(3) 0.4646(3) 0.0409(15) Uani 1 1 d . . .
H67A H -0.0856 -0.2622 0.4691 0.049 Uiso 1 1 calc R . .
H67B H -0.0132 -0.2580 0.4210 0.049 Uiso 1 1 calc R . .
C68 C 0.0000(3) -0.3390(3) 0.4852(3) 0.0375(15) Uani 1 1 d . . .
C69 C 0.0708(3) -0.3636(3) 0.4571(3) 0.0447(16) Uani 1 1 d . . .
H69 H 0.0952 -0.3378 0.4266 0.054 Uiso 1 1 calc R . .
C70 C 0.1058(3) -0.4268(3) 0.4740(3) 0.0499(17) Uani 1 1 d . . .
C71 C 0.0720(4) -0.4652(3) 0.5175(3) 0.0462(16) Uani 1 1 d . . .
C72 C 0.0004(3) -0.4408(3) 0.5449(3) 0.0422(15) Uani 1 1 d . . .
H72 H -0.0234 -0.4676 0.5747 0.051 Uiso 1 1 calc R . .
C73 C -0.0373(3) -0.3777(3) 0.5297(3) 0.0346(14) Uani 1 1 d . . .
C74 C -0.1159(3) -0.3571(3) 0.5595(3) 0.0482(17) Uani 1 1 d . . .
H74A H -0.1364 -0.3931 0.5636 0.058 Uiso 1 1 calc R . .
H74B H -0.1394 -0.3220 0.5328 0.058 Uiso 1 1 calc R . .
C75 C -0.1308(3) -0.3347(3) 0.6240(3) 0.0396(15) Uani 1 1 d . . .
C76 C -0.1339(3) -0.3819(3) 0.6762(3) 0.0408(15) Uani 1 1 d . . .
H76 H -0.1254 -0.4251 0.6703 0.049 Uiso 1 1 calc R . .
C77 C -0.1490(3) -0.3652(3) 0.7343(3) 0.0442(16) Uani 1 1 d . . .
C78 C -0.1607(3) -0.3020(3) 0.7457(3) 0.0411(