####################################################################### 
# 
# This file contains crystal structure data downloaded from the 
# Cambridge Structural Database (CSD) hosted by the Cambridge 
# Crystallographic Data Centre (CCDC).
# 
# Full information about CCDC data access policies and citation 
# guidelines are available at http://www.ccdc.cam.ac.uk/access/V1 
# 
# Audit and citation data items may have been added by the CCDC. 
# Please retain this information to preserve the provenance of 
# this file and to allow appropriate attribution of the data. 
# 
#######################################################################

data_bk
_audit_block_doi                 10.5517/cc4qyd5
_database_code_depnum_ccdc_archive 'CCDC 141217'
loop_
_citation_id
_citation_doi
_citation_year
1 10.1002/1521-3773(20001103)39:21<3843::AID-ANIE3843>3.0.CO;2-# 2000
_audit_update_record             
;
2000-02-29 deposited with the CCDC.	2024-07-08 downloaded from the CCDC.
;

_audit_creation_method           SHELXL-97
_chemical_name_systematic        
; 
Ni[bis-(4-pyridyl)biphenyl)(NO3)]2.5(benzene).2(MeOH) 
;
_chemical_name_common            ?
_chemical_melting_point          ?
_chemical_formula_moiety         ?
_chemical_formula_sum            'C75.50 H68 N6 Ni O7.50'
_chemical_formula_weight         1238.07

loop_
_atom_type_symbol
_atom_type_description
_atom_type_scat_dispersion_real
_atom_type_scat_dispersion_imag
_atom_type_scat_source
C C 0.0033 0.0016 'International Tables Vol C Tables 4.2.6.8 and 6.1.1.4'
H H 0.0000 0.0000 'International Tables Vol C Tables 4.2.6.8 and 6.1.1.4'
N N 0.0061 0.0033 'International Tables Vol C Tables 4.2.6.8 and 6.1.1.4'
O O 0.0106 0.0060 'International Tables Vol C Tables 4.2.6.8 and 6.1.1.4'
Ni Ni 0.3393 1.1124 'International Tables Vol C Tables 4.2.6.8 and 6.1.1.4'

_symmetry_cell_setting           Monoclinic
_symmetry_space_group_name_H-M   P21/n

loop_
_symmetry_equiv_pos_as_xyz
'x, y, z'
'-x+1/2, y+1/2, -z+1/2'
'-x, -y, -z'
'x-1/2, -y-1/2, z-1/2'

_cell_length_a                   13.5700(19)
_cell_length_b                   19.874(3)
_cell_length_c                   49.646(7)
_cell_angle_alpha                90.00
_cell_angle_beta                 96.815(3)
_cell_angle_gamma                90.00
_cell_volume                     13294(3)
_cell_formula_units_Z            8
_cell_measurement_temperature    193(2)
_cell_measurement_reflns_used    ?
_cell_measurement_theta_min      ?
_cell_measurement_theta_max      ?

_exptl_crystal_description       ?
_exptl_crystal_colour            ?
_exptl_crystal_size_max          0.20
_exptl_crystal_size_mid          0.20
_exptl_crystal_size_min          0.20
_exptl_crystal_density_meas      ?
_exptl_crystal_density_diffrn    1.237
_exptl_crystal_density_method    'not measured'
_exptl_crystal_F_000             5208
_exptl_absorpt_coefficient_mu    0.352
_exptl_absorpt_correction_type   ?
_exptl_absorpt_correction_T_min  0.9330
_exptl_absorpt_correction_T_max  0.9330
_exptl_absorpt_process_details   ?

_exptl_special_details           
; 
? 
;

_diffrn_ambient_temperature      193(2)
_diffrn_radiation_wavelength     0.71073
_diffrn_radiation_type           MoK\a
_diffrn_radiation_source         'fine-focus sealed tube'
_diffrn_radiation_monochromator  graphite
_diffrn_measurement_device_type  ?
_diffrn_measurement_method       ?
_diffrn_detector_area_resol_mean ?
_diffrn_standards_number         ?
_diffrn_standards_interval_count ?
_diffrn_standards_interval_time  ?
_diffrn_standards_decay_%        ?
_diffrn_reflns_number            68329
_diffrn_reflns_av_R_equivalents  0.0926
_diffrn_reflns_av_sigmaI/netI    0.1035
_diffrn_reflns_limit_h_min       -15
_diffrn_reflns_limit_h_max       16
_diffrn_reflns_limit_k_min       -23
_diffrn_reflns_limit_k_max       23
_diffrn_reflns_limit_l_min       -59
_diffrn_reflns_limit_l_max       25
_diffrn_reflns_theta_min         1.32
_diffrn_reflns_theta_max         25.00
_reflns_number_total             23360
_reflns_number_gt                14102
_reflns_threshold_expression     >2sigma(I)

_computing_data_collection       ?
_computing_cell_refinement       ?
_computing_data_reduction        ?
_computing_structure_solution    'SHELXS-97 (Sheldrick, 1990)'
_computing_structure_refinement  'SHELXL-97 (Sheldrick, 1997)'
_computing_molecular_graphics    ?
_computing_publication_material  ?

_refine_special_details          
; 
Refinement of F^2^ against ALL reflections.  The weighted R-factor wR and 
goodness of fit S are based on F^2^, conventional R-factors R are based 
on F, with F set to zero for negative F^2^. The threshold expression of 
F^2^ > 2sigma(F^2^) is used only for calculating R-factors(gt) etc. and is 
not relevant to the choice of reflections for refinement.  R-factors based 
on F^2^ are statistically about twice as large as those based on F, and R- 
factors based on ALL data will be even larger. 
;

_refine_ls_structure_factor_coef Fsqd
_refine_ls_matrix_type           fullcycle
_refine_ls_weighting_scheme      calc
_refine_ls_weighting_details     
'calc w=1/[\s^2^(Fo^2^)+(0.1000P)^2^+0.0000P] where P=(Fo^2^+2Fc^2^)/3'
_atom_sites_solution_primary     direct
_atom_sites_solution_secondary   difmap
_atom_sites_solution_hydrogens   geom
_refine_ls_hydrogen_treatment    mixed
_refine_ls_extinction_method     none
_refine_ls_extinction_coef       ?
_refine_ls_number_reflns         23360
_refine_ls_number_parameters     1501
_refine_ls_number_restraints     399
_refine_ls_R_factor_all          0.2123
_refine_ls_R_factor_gt           0.1561
_refine_ls_wR_factor_ref         0.3894
_refine_ls_wR_factor_gt          0.3795
_refine_ls_goodness_of_fit_ref   2.042
_refine_ls_restrained_S_all      2.030
_refine_ls_shift/su_max          0.244
_refine_ls_shift/su_mean         0.018

loop_
_atom_site_label
_atom_site_type_symbol
_atom_site_fract_x
_atom_site_fract_y
_atom_site_fract_z
_atom_site_U_iso_or_equiv
_atom_site_adp_type
_atom_site_occupancy
_atom_site_symmetry_multiplicity
_atom_site_calc_flag
_atom_site_refinement_flags
_atom_site_disorder_assembly
_atom_site_disorder_group
Ni1 Ni 0.07159(8) 0.68470(5) 0.06238(2) 0.0249(3) Uani 1 1 d . . .
Ni2 Ni 1.31796(7) 0.67192(5) 0.31600(2) 0.0252(3) Uani 1 1 d . . .
N1A N -0.0741(6) 0.6670(6) 0.10532(18) 0.059(3) Uani 1 1 d U . .
O1A O 0.0078(4) 0.6835(3) 0.09911(13) 0.0347(15) Uani 1 1 d U . .
O2A O -0.1295(11) 0.6469(19) 0.0892(3) 0.48(3) Uani 1 1 d U . .
O3A O -0.0945(6) 0.6618(6) 0.12741(17) 0.092(3) Uani 1 1 d U . .
N1B N 0.1610(6) 0.7053(5) 0.00867(18) 0.046(2) Uani 1 1 d U . .
O1B O 0.1552(5) 0.6768(3) 0.02941(15) 0.0477(18) Uani 1 1 d U . .
O2B O 0.1952(7) 0.6771(5) -0.01048(17) 0.087(3) Uani 1 1 d U . .
O3B O 0.1278(7) 0.7651(4) 0.00495(18) 0.079(3) Uani 1 1 d U . .
N1C N 1.1683(6) 0.6576(4) 0.36066(18) 0.042(2) Uani 1 1 d U . .
O1C O 1.2313(4) 0.6875(3) 0.34897(13) 0.0381(16) Uani 1 1 d U . .
O2C O 1.1596(6) 0.5940(4) 0.35716(18) 0.064(2) Uani 1 1 d U . .
O3C O 1.1243(5) 0.6850(4) 0.37729(16) 0.059(2) Uani 1 1 d U . .
N1D N 1.4521(6) 0.6451(4) 0.27000(19) 0.046(2) Uani 1 1 d U . .
O1D O 1.4021(5) 0.6815(3) 0.28255(14) 0.0457(17) Uani 1 1 d U . .
O2D O 1.4913(6) 0.5919(4) 0.28201(17) 0.066(2) Uani 1 1 d U . .
O3D O 1.4656(6) 0.6568(4) 0.24629(16) 0.064(2) Uani 1 1 d U . .
C15A C 1.3434(7) 1.5326(4) 0.3406(2) 0.033(2) Uani 1 1 d U . .
H15A H 1.3548 1.5560 0.3574 0.039 Uiso 1 1 calc R . .
C14A C 1.3464(7) 1.4627(4) 0.3412(2) 0.043(3) Uani 1 1 d U . .
H14A H 1.3676 1.4406 0.3578 0.052 Uiso 1 1 calc R . .
C13A C 1.3188(6) 1.4238(4) 0.31779(18) 0.0272(19) Uani 1 1 d U . .
C12A C 1.3007(7) 1.4624(4) 0.2944(2) 0.042(2) Uani 1 1 d U . .
H12A H 1.2851 1.4396 0.2776 0.050 Uiso 1 1 calc R . .
C11A C 1.3038(6) 1.5318(4) 0.29397(19) 0.031(2) Uani 1 1 d U . .
H11A H 1.2913 1.5555 0.2773 0.037 Uiso 1 1 calc R . .
N11A N 1.3263(5) 1.5672(3) 0.31891(16) 0.0344(19) Uani 1 1 d U . .
C26A C 1.3854(6) 1.3115(4) 0.33336(19) 0.031(2) Uani 1 1 d U . .
H26A H 1.4362 1.3328 0.3452 0.037 Uiso 1 1 calc R . .
C25A C 1.3829(6) 1.2448(4) 0.33286(17) 0.0250(18) Uani 1 1 d U . .
H25A H 1.4314 1.2204 0.3443 0.030 Uiso 1 1 calc R . .
C24A C 1.3091(7) 1.2083(4) 0.31560(18) 0.030(2) Uani 1 1 d U . .
C23A C 1.2398(7) 1.2481(4) 0.30019(19) 0.034(2) Uani 1 1 d U . .
H23A H 1.1883 1.2265 0.2887 0.041 Uiso 1 1 calc R . .
C22A C 1.2420(7) 1.3170(4) 0.30068(19) 0.036(2) Uani 1 1 d U . .
H22A H 1.1920 1.3410 0.2896 0.043 Uiso 1 1 calc R . .
C21A C 1.3148(6) 1.3536(4) 0.31683(17) 0.0262(19) Uani 1 1 d U . .
C31A C 1.3098(6) 1.1340(4) 0.31420(18) 0.028(2) Uani 1 1 d U . .
C32A C 1.2344(7) 1.0996(4) 0.2979(2) 0.036(2) Uani 1 1 d U . .
H32A H 1.1831 1.1242 0.2875 0.043 Uiso 1 1 calc R . .
C33A C 1.2345(7) 1.0310(5) 0.2968(2) 0.042(3) Uani 1 1 d U . .
H33A H 1.1835 1.0083 0.2856 0.050 Uiso 1 1 calc R . .
C34A C 1.3057(8) 0.9952(5) 0.3114(3) 0.062(4) Uani 1 1 d U . .
C35A C 1.3805(8) 1.0260(5) 0.3285(3) 0.053(3) Uani 1 1 d U . .
H35A H 1.4300 0.9997 0.3387 0.063 Uiso 1 1 calc R . .
C36A C 1.3823(8) 1.0953(5) 0.3303(3) 0.060(4) Uani 1 1 d U . .
H36A H 1.4320 1.1170 0.3424 0.072 Uiso 1 1 calc R . .
C45A C 1.3946(7) 0.8142(4) 0.3130(2) 0.038(2) Uani 1 1 d U . .
H45A H 1.4564 0.7912 0.3141 0.046 Uiso 1 1 calc R . .
C44A C 1.3987(6) 0.8828(4) 0.31196(18) 0.029(2) Uani 1 1 d U . .
H44A H 1.4600 0.9057 0.3116 0.035 Uiso 1 1 calc R . .
C43A C 1.3114(6) 0.9171(4) 0.31144(17) 0.0246(18) Uani 1 1 d U . .
C42A C 1.2214(6) 0.8801(5) 0.3102(2) 0.035(2) Uani 1 1 d U . .
H42A H 1.1589 0.9022 0.3086 0.041 Uiso 1 1 calc R . .
C41A C 1.2281(7) 0.8109(4) 0.3113(2) 0.036(2) Uani 1 1 d U . .
H41A H 1.1684 0.7859 0.3113 0.043 Uiso 1 1 calc R . .
N41A N 1.3148(4) 0.7763(3) 0.31259(11) 0.0175(15) Uani 1 1 d U . .
C15B C -1.0541(7) 0.7754(4) -0.13430(19) 0.033(2) Uani 1 1 d U . .
H15B H -1.1136 0.7525 -0.1316 0.040 Uiso 1 1 calc R . .
C14B C -0.9702(6) 0.7620(5) -0.11634(19) 0.033(2) Uani 1 1 d U . .
H14B H -0.9727 0.7298 -0.1023 0.039 Uiso 1 1 calc R . .
C13B C -0.8819(7) 0.7964(5) -0.11900(19) 0.038(2) Uani 1 1 d U . .
C12B C -0.8845(7) 0.8419(5) -0.1405(2) 0.041(2) Uani 1 1 d U . .
H12B H -0.8264 0.8666 -0.1432 0.049 Uiso 1 1 calc R . .
C11B C -0.9713(7) 0.8516(5) -0.1582(2) 0.042(2) Uani 1 1 d U . .
H11B H -0.9698 0.8823 -0.1728 0.051 Uiso 1 1 calc R . .
N11B N -1.0572(5) 0.8193(3) -0.15551(15) 0.0297(17) Uani 1 1 d U . .
C25B C -0.6993(7) 0.7393(6) -0.0598(2) 0.050(3) Uani 1 1 d U . .
H25B H -0.7018 0.7196 -0.0425 0.060 Uiso 1 1 calc R . .
C26B C -0.7873(7) 0.7531(5) -0.0758(2) 0.044(3) Uani 1 1 d U . .
H26B H -0.8484 0.7430 -0.0692 0.053 Uiso 1 1 calc R . .
C24B C -0.6095(7) 0.7528(6) -0.0680(2) 0.058(3) Uani 1 1 d U . .
C23B C -0.6117(8) 0.7818(8) -0.0943(2) 0.076(4) Uani 1 1 d U . .
H23B H -0.5503 0.7918 -0.1008 0.091 Uiso 1 1 calc R . .
C22B C -0.6957(8) 0.7957(7) -0.1104(2) 0.062(4) Uani 1 1 d U . .
H22B H -0.6929 0.8150 -0.1278 0.075 Uiso 1 1 calc R . .
C21B C -0.7884(7) 0.7815(5) -0.1013(2) 0.040(2) Uani 1 1 d U . .
C36B C -0.5018(8) 0.6892(6) -0.0331(3) 0.062(3) Uani 1 1 d U . .
H36B H -0.5556 0.6593 -0.0319 0.075 Uiso 1 1 calc R . .
C35B C -0.4137(8) 0.6785(6) -0.0163(2) 0.059(3) Uani 1 1 d U . .
H35B H -0.4094 0.6421 -0.0038 0.071 Uiso 1 1 calc R . .
C34B C -0.3328(7) 0.7195(6) -0.0175(2) 0.051(3) Uani 1 1 d U . .
C33B C -0.3438(8) 0.7690(8) -0.0361(3) 0.089(5) Uani 1 1 d U . .
H33B H -0.2878 0.7960 -0.0386 0.107 Uiso 1 1 calc R . .
C32B C -0.4310(8) 0.7823(9) -0.0517(3) 0.100(6) Uani 1 1 d U . .
H32B H -0.4358 0.8207 -0.0632 0.120 Uiso 1 1 calc R . .
C31B C -0.5142(8) 0.7404(7) -0.0512(2) 0.064(3) Uani 1 1 d U . .
C45B C -0.1282(7) 0.6424(5) 0.0316(2) 0.050(3) Uani 1 1 d U . .
H45B H -0.1149 0.6011 0.0410 0.060 Uiso 1 1 calc R . .
C44B C -0.2137(7) 0.6485(6) 0.0144(2) 0.052(3) Uani 1 1 d U . .
H44B H -0.2569 0.6108 0.0117 0.062 Uiso 1 1 calc R . .
C43B C -0.2398(7) 0.7079(5) 0.0007(2) 0.043(2) Uani 1 1 d U . .
C42B C -0.1703(7) 0.7602(6) 0.0049(2) 0.046(3) Uani 1 1 d U . .
H42B H -0.1823 0.8020 -0.0041 0.056 Uiso 1 1 calc R . .
C41B C -0.0837(7) 0.7503(5) 0.0225(2) 0.040(2) Uani 1 1 d U . .
H41B H -0.0380 0.7865 0.0251 0.048 Uiso 1 1 calc R . .
N41B N -0.0608(5) 0.6935(4) 0.03577(16) 0.0337(18) Uani 1 1 d U . .
C15C C 1.1817(7) 0.6991(5) 0.26464(19) 0.038(2) Uani 1 1 d U . .
H15C H 1.2366 0.7252 0.2606 0.045 Uiso 1 1 calc R . .
C14C C 1.0975(7) 0.6981(5) 0.24589(18) 0.036(2) Uani 1 1 d U . .
H14C H 1.0942 0.7247 0.2299 0.044 Uiso 1 1 calc R . .
C13C C 1.0181(6) 0.6576(5) 0.25074(17) 0.029(2) Uani 1 1 d U . .
C12C C 1.0265(7) 0.6214(5) 0.27473(18) 0.035(2) Uani 1 1 d U . .
H12C H 0.9739 0.5932 0.2789 0.042 Uiso 1 1 calc R . .
C11C C 1.1129(7) 0.6271(4) 0.2926(2) 0.036(2) Uani 1 1 d U . .
H11C H 1.1174 0.6021 0.3090 0.043 Uiso 1 1 calc R . .
N11C N 1.1902(5) 0.6654(4) 0.28817(14) 0.0288(16) Uani 1 1 d U . .
C26C C 0.9232(7) 0.6768(6) 0.20464(19) 0.047(3) Uani 1 1 d U . .
H26C H 0.9826 0.6930 0.1985 0.057 Uiso 1 1 calc R . .
C25C C 0.8389(7) 0.6752(6) 0.18699(18) 0.045(3) Uani 1 1 d U . .
H25C H 0.8412 0.6881 0.1686 0.054 Uiso 1 1 calc R . .
C24C C 0.7496(7) 0.6550(5) 0.19531(19) 0.036(2) Uani 1 1 d U . .
C23C C 0.7502(7) 0.6331(5) 0.22167(19) 0.037(2) Uani 1 1 d U . .
H23C H 0.6904 0.6175 0.2277 0.045 Uiso 1 1 calc R . .
C22C C 0.8366(7) 0.6335(5) 0.2395(2) 0.042(2) Uani 1 1 d U . .
H22C H 0.8345 0.6184 0.2575 0.050 Uiso 1 1 calc R . .
C21C C 0.9257(6) 0.6550(5) 0.23186(18) 0.031(2) Uani 1 1 d U . .
C36C C 0.5653(6) 0.6630(5) 0.18539(19) 0.040(2) Uani 1 1 d U . .
H36C H 0.5622 0.6659 0.2044 0.047 Uiso 1 1 calc R . .
C35C C 0.4782(7) 0.6658(6) 0.16769(18) 0.044(3) Uani 1 1 d U . .
H35C H 0.4163 0.6700 0.1747 0.053 Uiso 1 1 calc R . .
C34C C 0.4807(7) 0.6627(5) 0.14013(18) 0.037(2) Uani 1 1 d U . .
C33C C 0.5717(6) 0.6560(5) 0.13076(19) 0.040(2) Uani 1 1 d U . .
H33C H 0.5747 0.6540 0.1118 0.048 Uiso 1 1 calc R . .
C32C C 0.6575(7) 0.6521(5) 0.14790(18) 0.039(2) Uani 1 1 d U . .
H32C H 0.7189 0.6469 0.1407 0.046 Uiso 1 1 calc R . .
C31C C 0.6562(6) 0.6559(5) 0.17596(17) 0.032(2) Uani 1 1 d U . .
C45C C 0.2224(7) 0.7128(5) 0.11030(19) 0.037(2) Uani 1 1 d U . .
H45C H 0.1704 0.7406 0.1152 0.045 Uiso 1 1 calc R . .
C44C C 0.3102(7) 0.7109(5) 0.12727(18) 0.038(2) Uani 1 1 d U . .
H44C H 0.3188 0.7390 0.1429 0.046 Uiso 1 1 calc R . .
C43C C 0.3869(6) 0.6680(5) 0.12173(17) 0.033(2) Uani 1 1 d U . .
C42C C 0.3692(7) 0.6308(5) 0.0979(2) 0.042(2) Uani 1 1 d U . .
H42C H 0.4188 0.6007 0.0932 0.051 Uiso 1 1 calc R . .
C41C C 0.2838(7) 0.6363(5) 0.0813(2) 0.040(2) Uani 1 1 d U . .
H41C H 0.2757 0.6113 0.0648 0.048 Uiso 1 1 calc R . .
N41C N 0.2066(5) 0.6777(4) 0.08745(14) 0.0283(16) Uani 1 1 d U . .
C15D C 0.0842(7) 1.5430(5) 0.08446(18) 0.031(2) Uani 1 1 d U . .
H15D H 0.0820 1.5668 0.1010 0.038 Uiso 1 1 calc R . .
C14D C 0.0995(7) 1.4749(4) 0.08562(18) 0.036(2) Uani 1 1 d U . .
H14D H 0.1138 1.4533 0.1027 0.044 Uiso 1 1 calc R . .
C13D C 0.0942(7) 1.4374(5) 0.06186(18) 0.033(2) Uani 1 1 d U . .
C12D C 0.0820(7) 1.4724(5) 0.03810(19) 0.035(2) Uani 1 1 d U . .
H12D H 0.0800 1.4491 0.0213 0.042 Uiso 1 1 calc R . .
C11D C 0.0725(7) 1.5424(4) 0.03821(19) 0.033(2) Uani 1 1 d U . .
H11D H 0.0659 1.5658 0.0214 0.039 Uiso 1 1 calc R . .
N11D N 0.0723(6) 1.5775(3) 0.06125(17) 0.0375(19) Uani 1 1 d U . .
C26D C 0.0389(7) 1.3218(5) 0.0464(2) 0.042(2) Uani 1 1 d U . .
H26D H -0.0092 1.3415 0.0333 0.050 Uiso 1 1 calc R . .
C25D C 0.0415(7) 1.2543(5) 0.04784(19) 0.036(2) Uani 1 1 d U . .
H25D H -0.0030 1.2280 0.0359 0.043 Uiso 1 1 calc R . .
C24D C 0.1131(7) 1.2219(4) 0.0679(2) 0.035(2) Uani 1 1 d U . .
C23D C 0.1788(8) 1.2622(5) 0.0828(2) 0.045(3) Uani 1 1 d U . .
H23D H 0.2287 1.2418 0.0952 0.054 Uiso 1 1 calc R . .
C22D C 0.1770(7) 1.3313(5) 0.0810(2) 0.043(3) Uani 1 1 d U . .
H22D H 0.2254 1.3574 0.0918 0.051 Uiso 1 1 calc R . .
C21D C 0.1004(8) 1.3646(5) 0.06235(17) 0.037(2) Uani 1 1 d U . .
C36D C 0.0256(8) 1.1116(5) 0.0660(2) 0.047(3) Uani 1 1 d U . .
H36D H -0.0353 1.1352 0.0621 0.056 Uiso 1 1 calc R . .
C35D C 0.0197(8) 1.0435(5) 0.0673(2) 0.052(3) Uani 1 1 d U . .
H35D H -0.0429 1.0218 0.0639 0.062 Uiso 1 1 calc R . .
C34D C 0.1073(7) 1.0047(5) 0.07380(19) 0.035(2) Uani 1 1 d U . .
C33D C 0.1939(8) 1.0411(5) 0.0784(2) 0.044(3) Uani 1 1 d U . .
H33D H 0.2544 1.0172 0.0825 0.053 Uiso 1 1 calc R . .
C32D C 0.1977(8) 1.1092(5) 0.0774(2) 0.046(3) Uani 1 1 d U . .
H32D H 0.2595 1.1313 0.0819 0.055 Uiso 1 1 calc R . .
C31D C 0.1084(8) 1.1491(5) 0.0696(2) 0.043(2) Uani 1 1 d U . .
C45D C 0.0145(8) 0.8262(5) 0.0777(2) 0.044(2) Uani 1 1 d U . .
H45D H -0.0387 0.8030 0.0844 0.052 Uiso 1 1 calc R . .
C44D C 0.0198(8) 0.8966(5) 0.0811(2) 0.051(3) Uani 1 1 d U . .
H44D H -0.0317 0.9200 0.0885 0.061 Uiso 1 1 calc R . .
C43D C 0.1011(7) 0.9315(4) 0.07357(19) 0.032(2) Uani 1 1 d U . .
C42D C 0.1753(7) 0.8920(5) 0.06426(19) 0.036(2) Uani 1 1 d U . .
H42D H 0.2339 0.9128 0.0595 0.044 Uiso 1 1 calc R . .
C41D C 0.1646(7) 0.8242(5) 0.0619(2) 0.040(2) Uani 1 1 d U . .
H41D H 0.2192 0.7985 0.0573 0.048 Uiso 1 1 calc R . .
N41D N 0.0783(5) 0.7909(4) 0.06586(14) 0.0298(17) Uani 1 1 d U . .
C101 C 0.6168(8) 0.1884(6) 0.1766(2) 0.140(8) Uani 1 1 d GU . .
H101 H 0.5667 0.2197 0.1700 0.168 Uiso 1 1 calc R . .
C102 C 0.6059(6) 0.1206(7) 0.1699(2) 0.130(7) Uani 1 1 d GU . .
H102 H 0.5483 0.1056 0.1588 0.156 Uiso 1 1 calc R . .
C103 C 0.6791(8) 0.0749(5) 0.1796(2) 0.103(5) Uani 1 1 d GU . .
H103 H 0.6716 0.0286 0.1751 0.123 Uiso 1 1 calc R . .
C104 C 0.7633(7) 0.0969(6) 0.1959(2) 0.104(5) Uani 1 1 d GU . .
H104 H 0.8134 0.0656 0.2025 0.124 Uiso 1 1 calc R . .
C105 C 0.7742(7) 0.1646(6) 0.2026(2) 0.115(6) Uani 1 1 d GU . .
H105 H 0.8318 0.1797 0.2137 0.138 Uiso 1 1 calc R . .
C106 C 0.7010(10) 0.2104(4) 0.1929(3) 0.140(7) Uani 1 1 d GU . .
H106 H 0.7085 0.2567 0.1974 0.168 Uiso 1 1 calc R . .
C201 C 0.8539(7) 0.3977(4) 0.13256(15) 0.087(4) Uani 1 1 d GU . .
H201 H 0.8612 0.3722 0.1167 0.104 Uiso 1 1 calc R . .
C202 C 0.8614(7) 0.4675(4) 0.13196(15) 0.076(4) Uani 1 1 d GU . .
H202 H 0.8