
#######################################################################
#
#                 Cambridge Crystallographic Data Centre
#                                CCDC
#
#######################################################################
#
# If this CIF has been generated from an entry in the Cambridge
# Structural Database, then it will include bibliographic, chemical,
# crystal, experimental, refinement or atomic coordinate data resulting
# from the CCDC's data processing and validation procedures.
#
#######################################################################

data_CSD_CIF_BARJIQ
_audit_creation_date 2017-01-25
_audit_creation_method CSD-ConQuest-V1
_database_code_CSD BARJIQ
_database_code_depnum_ccdc_archive 'CCDC 1518421'
_chemical_formula_sum 'C16 H15 Cl1 O1'
_chemical_formula_moiety
;
C16 H15 Cl1 O1
;
_journal_coden_Cambridge 179
_journal_volume 56
_journal_year 2017
_journal_page_first 2449
_journal_name_full 'Angew.Chem.,Int.Ed. '
loop_
_publ_author_name
"Junfeng Yang"
"A.Rerat"
"Yang Jie Lim"
"C.Gosmini"
"N.Yoshikai"
_chemical_name_systematic
;
(1R,2S,3R)-2-Methyl-3-(4-chlorophenyl)-2,3-dihydro-1H-inden-1-ol
;
_chemical_melting_point 428
_cell_volume   1352.289
_exptl_crystal_colour 'colorless'
_exptl_crystal_density_diffrn 1.271
_exptl_special_details
;
Melting point range 428-429K
Absolute configuration

;
_exptl_crystal_description 'needle'
_exptl_crystal_preparation 'pentane / dichloromethane'
_diffrn_ambient_temperature 103
#These two values have been output from a single CSD field.
_refine_ls_R_factor_gt 0.0347
_refine_ls_wR_factor_gt 0.0347
_symmetry_cell_setting tetragonal
_symmetry_space_group_name_H-M 'P 41'
_symmetry_Int_Tables_number 76
loop_
_symmetry_equiv_pos_site_id
_symmetry_equiv_pos_as_xyz
1 x,y,z
2 -x,-y,1/2+z
3 -y,x,1/4+z
4 y,-x,3/4+z
_cell_length_a 13.1458(2)
_cell_length_b 13.1458(2)
_cell_length_c 7.8252(2)
_cell_angle_alpha 90
_cell_angle_beta 90
_cell_angle_gamma 90
_cell_formula_units_Z 4
loop_
_atom_type_symbol
_atom_type_radius_bond
C 0.68
H 0.23
Cl 0.99
O 0.68
loop_
_atom_site_label
_atom_site_type_symbol
_atom_site_fract_x
_atom_site_fract_y
_atom_site_fract_z
C1 C 0.08445(19) 0.5611(2) 0.2122(4)
H1 H 0.02850 0.59000 0.27170
C2 C 0.0734(2) 0.4704(2) 0.1216(4)
H2 H 0.00930 0.43700 0.11990
C3 C 0.1549(3) 0.4284(2) 0.0339(4)
H3 H 0.14610 0.36640 -0.02690
C4 C 0.2493(2) 0.4760(2) 0.0342(4)
H4 H 0.30500 0.44760 -0.02670
C5 C 0.2606(2) 0.5660(2) 0.1251(4)
C6 C 0.17911(19) 0.60838(19) 0.2136(4)
C7 C 0.20984(19) 0.7086(2) 0.2949(3)
H5 H 0.19100 0.76420 0.21360
C8 C 0.32789(19) 0.7009(2) 0.2970(4)
H6 H 0.34810 0.66320 0.40260
C9 C 0.3825(2) 0.8028(2) 0.2980(5)
H7 H 0.45620 0.79150 0.30190
H8 H 0.36140 0.84190 0.39860
H9 H 0.36510 0.84070 0.19410
C10 C 0.3529(2) 0.6332(2) 0.1426(4)
H10 H 0.35740 0.67740 0.03880
C11 C 0.16013(17) 0.73212(18) 0.4645(4)
C12 C 0.1887(2) 0.6834(2) 0.6148(4)
H11 H 0.24190 0.63450 0.61150
C13 C 0.1413(2) 0.7045(2) 0.7698(4)
H12 H 0.16140 0.67030 0.87120
C14 C 0.06421(19) 0.7763(2) 0.7733(3)
C15 C 0.0339(2) 0.8255(2) 0.6266(4)
H13 H -0.01910 0.87450 0.63050
C16 C 0.08145(19) 0.8031(2) 0.4736(4)
H14 H 0.06000 0.83670 0.37230
Cl1 Cl 0.00531(5) 0.80474(5) 0.96735(9)
O1 O 0.44720(14) 0.58000(14) 0.1612(3)
H15 H 0.44330 0.53990 0.24450
#END
