####################################################################### 
# 
# This file contains crystal structure data downloaded from the 
# Cambridge Structural Database (CSD) hosted by the Cambridge 
# Crystallographic Data Centre (CCDC).
# 
# Full information about CCDC data access policies and citation 
# guidelines are available at http://www.ccdc.cam.ac.uk/access/V1 
# 
# Audit and citation data items may have been added by the CCDC. 
# Please retain this information to preserve the provenance of 
# this file and to allow appropriate attribution of the data. 
# 
#######################################################################

data_jg1126a
_audit_block_doi                 10.5517/cc759zn
_database_code_depnum_ccdc_archive 'CCDC 213651'
loop_
_citation_id
_citation_doi
_citation_year
1 10.1016/S0022-4596(03)00306-2 2003
_audit_update_record             
;
2003-06-26 deposited with the CCDC.	2024-07-08 downloaded from the CCDC.
;

_audit_creation_method           SHELXL-97
_chemical_name_systematic        
;
?
;
_chemical_name_common            ?
_chemical_melting_point          ?
_chemical_formula_moiety         ?
_chemical_formula_sum            'C14 H18 Fe N2 O9'
_chemical_formula_weight         414.15

loop_
_atom_type_symbol
_atom_type_description
_atom_type_scat_dispersion_real
_atom_type_scat_dispersion_imag
_atom_type_scat_source
C C 0.0033 0.0016 'International Tables Vol C Tables 4.2.6.8 and 6.1.1.4'
H H 0.0000 0.0000 'International Tables Vol C Tables 4.2.6.8 and 6.1.1.4'
N N 0.0061 0.0033 'International Tables Vol C Tables 4.2.6.8 and 6.1.1.4'
O O 0.0106 0.0060 'International Tables Vol C Tables 4.2.6.8 and 6.1.1.4'
Fe Fe 0.3463 0.8444 'International Tables Vol C Tables 4.2.6.8 and 6.1.1.4'

_symmetry_cell_setting           monoclinic
_symmetry_space_group_name_H-M   P21/c

loop_
_symmetry_equiv_pos_as_xyz
'x, y, z'
'-x, y+1/2, -z+1/2'
'-x, -y, -z'
'x, -y-1/2, z-1/2'

_cell_length_a                   18.8932(9)
_cell_length_b                   11.4502(8)
_cell_length_c                   8.0985(4)
_cell_angle_alpha                90.00
_cell_angle_beta                 93.032(5)
_cell_angle_gamma                90.00
_cell_volume                     1749.50(17)
_cell_formula_units_Z            4
_cell_measurement_temperature    170(2)
_cell_measurement_reflns_used    ?
_cell_measurement_theta_min      ?
_cell_measurement_theta_max      ?

_exptl_crystal_description       ?
_exptl_crystal_colour            ?
_exptl_crystal_size_max          ?
_exptl_crystal_size_mid          ?
_exptl_crystal_size_min          ?
_exptl_crystal_density_meas      ?
_exptl_crystal_density_diffrn    1.572
_exptl_crystal_density_method    'not measured'
_exptl_crystal_F_000             856
_exptl_absorpt_coefficient_mu    0.913
_exptl_absorpt_correction_type   ?
_exptl_absorpt_correction_T_min  ?
_exptl_absorpt_correction_T_max  ?
_exptl_absorpt_process_details   ?

_exptl_special_details           
;
?
;

_diffrn_ambient_temperature      170(2)
_diffrn_radiation_wavelength     0.71073
_diffrn_radiation_type           MoK\a
_diffrn_radiation_source         'fine-focus sealed tube'
_diffrn_radiation_monochromator  graphite
_diffrn_measurement_device_type  ?
_diffrn_measurement_method       ?
_diffrn_detector_area_resol_mean ?
_diffrn_standards_number         ?
_diffrn_standards_interval_count ?
_diffrn_standards_interval_time  ?
_diffrn_standards_decay_%        ?
_diffrn_reflns_number            16598
_diffrn_reflns_av_R_equivalents  0.0579
_diffrn_reflns_av_sigmaI/netI    0.0420
_diffrn_reflns_limit_h_min       -24
_diffrn_reflns_limit_h_max       24
_diffrn_reflns_limit_k_min       -15
_diffrn_reflns_limit_k_max       15
_diffrn_reflns_limit_l_min       -10
_diffrn_reflns_limit_l_max       10
_diffrn_reflns_theta_min         2.80
_diffrn_reflns_theta_max         28.01
_reflns_number_total             4058
_reflns_number_gt                2488
_reflns_threshold_expression     >2sigma(I)

_computing_data_collection       ?
_computing_cell_refinement       ?
_computing_data_reduction        ?
_computing_structure_solution    'SHELXS-97 (Sheldrick, 1990)'
_computing_structure_refinement  'SHELXL-97 (Sheldrick, 1997)'
_computing_molecular_graphics    ?
_computing_publication_material  ?

_refine_special_details          
;
Refinement of F^2^ against ALL reflections.  The weighted R-factor wR and
goodness of fit S are based on F^2^, conventional R-factors R are based
on F, with F set to zero for negative F^2^. The threshold expression of
F^2^ > 2sigma(F^2^) is used only for calculating R-factors(gt) etc. and is
not relevant to the choice of reflections for refinement.  R-factors based
on F^2^ are statistically about twice as large as those based on F, and R-
factors based on ALL data will be even larger.
;

_refine_ls_structure_factor_coef Fsqd
_refine_ls_matrix_type           full
_refine_ls_weighting_scheme      calc
_refine_ls_weighting_details     
'calc w=1/[\s^2^(Fo^2^)+(0.0604P)^2^+1.0953P] where P=(Fo^2^+2Fc^2^)/3'
_atom_sites_solution_primary     direct
_atom_sites_solution_secondary   difmap
_atom_sites_solution_hydrogens   geom
_refine_ls_hydrogen_treatment    mixed
_refine_ls_extinction_method     SHELXL
_refine_ls_extinction_coef       0.0071(17)
_refine_ls_extinction_expression Fc^*^=kFc[1+0.001xFc^2^\l^3^/sin(2\q)]^-1/4^
_refine_ls_number_reflns         4058
_refine_ls_number_parameters     239
_refine_ls_number_restraints     0
_refine_ls_R_factor_all          0.0819
_refine_ls_R_factor_gt           0.0459
_refine_ls_wR_factor_ref         0.1260
_refine_ls_wR_factor_gt          0.1096
_refine_ls_goodness_of_fit_ref   1.027
_refine_ls_restrained_S_all      1.027
_refine_ls_shift/su_max          0.001
_refine_ls_shift/su_mean         0.000

loop_
_atom_site_label
_atom_site_type_symbol
_atom_site_fract_x
_atom_site_fract_y
_atom_site_fract_z
_atom_site_U_iso_or_equiv
_atom_site_adp_type
_atom_site_occupancy
_atom_site_symmetry_multiplicity
_atom_site_calc_flag
_atom_site_refinement_flags
_atom_site_disorder_assembly
_atom_site_disorder_group
Fe1 Fe 0.5000 1.0000 0.5000 0.01364(17) Uani 1 2 d S . .
O1 O 0.45525(12) 0.96587(19) 0.7348(2) 0.0188(4) Uani 1 1 d . . .
C1 C 0.48043(16) 0.9843(2) 0.8798(3) 0.0159(6) Uani 1 1 d . . .
C2 C 0.53289(16) 1.0659(2) 0.9579(3) 0.0156(6) Uani 1 1 d . . .
O2 O 0.57113(12) 1.14639(19) 0.9084(2) 0.0202(5) Uani 1 1 d . . .
O5 O 0.54668(13) 1.15599(18) 0.5843(2) 0.0209(5) Uani 1 1 d . . .
H1 H 0.5608 1.1600 0.6817 0.031 Uiso 1 1 d R . .
H2 H 0.5598 1.2146 0.5364 0.031 Uiso 1 1 d R . .
Fe2 Fe 1.0000 0.5000 1.0000 0.01376(17) Uani 1 2 d S . .
O3 O 1.03686(12) 0.54814(19) 0.7656(2) 0.0208(5) Uani 1 1 d . . .
C3 C 1.01592(16) 0.5208(3) 0.6205(3) 0.0170(6) Uani 1 1 d . . .
C4 C 1.03065(16) 0.5682(2) 0.4576(3) 0.0163(6) Uani 1 1 d . . .
O4 O 1.06743(13) 0.65115(19) 0.4090(2) 0.0214(5) Uani 1 1 d . . .
O6 O 1.04616(12) 0.65414(18) 1.0866(2) 0.0204(5) Uani 1 1 d . . .
H3 H 1.0578 0.7116 1.0340 0.031 Uiso 1 1 d R . .
H4 H 1.0560 0.6672 1.1847 0.031 Uiso 1 1 d R . .
N1 N 0.59563(14) 0.9081(2) 0.6030(3) 0.0186(5) Uani 1 1 d . . .
C11 C 0.71545(16) 0.7867(3) 0.7357(3) 0.0198(6) Uani 1 1 d . . .
C12 C 0.64831(17) 0.7350(3) 0.7259(4) 0.0235(6) Uani 1 1 d . . .
H12 H 0.6422 0.6573 0.7638 0.028 Uiso 1 1 calc R . .
C13 C 0.59074(17) 0.7980(3) 0.6605(4) 0.0231(6) Uani 1 1 d . . .
H13 H 0.5455 0.7617 0.6560 0.028 Uiso 1 1 calc R . .
C14 C 0.66012(17) 0.9576(3) 0.6148(4) 0.0231(6) Uani 1 1 d . . .
H14 H 0.6648 1.0356 0.5770 0.028 Uiso 1 1 calc R . .
C15 C 0.72038(17) 0.9010(3) 0.6793(4) 0.0240(7) Uani 1 1 d . . .
H15 H 0.7648 0.9402 0.6849 0.029 Uiso 1 1 calc R . .
N2 N 0.89856(14) 0.5961(2) 0.9270(3) 0.0199(5) Uani 1 1 d . . .
C21 C 0.77845(15) 0.7219(3) 0.8023(4) 0.0188(6) Uani 1 1 d . . .
C22 C 0.83497(17) 0.7779(3) 0.8864(4) 0.0254(6) Uani 1 1 d . . .
H22 H 0.8341 0.8600 0.9024 0.031 Uiso 1 1 calc R . .
C23 C 0.89275(18) 0.7123(3) 0.9468(4) 0.0259(6) Uani 1 1 d . . .
H23 H 0.9304 0.7520 1.0055 0.031 Uiso 1 1 calc R . .
C24 C 0.84365(17) 0.5421(3) 0.8461(4) 0.0242(7) Uani 1 1 d . . .
H24 H 0.8459 0.4599 0.8319 0.029 Uiso 1 1 calc R . .
C25 C 0.78383(17) 0.6007(3) 0.7824(4) 0.0243(7) Uani 1 1 d . . .
H25 H 0.7467 0.5587 0.7255 0.029 Uiso 1 1 calc R . .
O7 O 0.68308(15) 0.3666(3) 0.7452(3) 0.0384(6) Uani 1 1 d . . .
H5 H 0.6963 0.3403 0.6579 0.058 Uiso 1 1 d R . .
H6 H 0.6414 0.3844 0.7532 0.058 Uiso 1 1 d R . .
O8 O 0.75257(16) 0.2651(3) 0.4899(3) 0.0405(6) Uani 1 1 d . . .
H7 H 0.7801 0.2985 0.4308 0.061 Uiso 1 1 d R . .
H8 H 0.7331 0.2290 0.4128 0.061 Uiso 1 1 d R . .
O9 O 0.82170(15) 0.1319(3) 0.7296(3) 0.0390(7) Uani 1 1 d . . .
H9 H 0.8052 0.1518 0.8169 0.059 Uiso 1 1 d R . .
H10 H 0.8643 0.1187 0.7275 0.059 Uiso 1 1 d R . .

loop_
_atom_site_aniso_label
_atom_site_aniso_U_11
_atom_site_aniso_U_22
_atom_site_aniso_U_33
_atom_site_aniso_U_23
_atom_site_aniso_U_13
_atom_site_aniso_U_12
Fe1 0.0151(3) 0.0136(3) 0.0121(3) 0.00116(19) -0.0013(2) 0.0013(2)
O1 0.0202(11) 0.0247(11) 0.0115(8) -0.0005(8) 0.0004(8) -0.0035(8)
C1 0.0168(15) 0.0158(13) 0.0150(12) -0.0005(10) -0.0011(11) 0.0033(11)
C2 0.0172(15) 0.0160(14) 0.0137(11) -0.0021(9) 0.0007(11) 0.0011(11)
O2 0.0261(12) 0.0184(10) 0.0162(9) 0.0002(7) 0.0018(9) -0.0050(8)
O5 0.0314(13) 0.0142(10) 0.0163(9) 0.0007(7) -0.0058(9) -0.0047(9)
Fe2 0.0155(3) 0.0145(3) 0.0111(3) 0.00067(19) -0.0011(2) 0.0005(2)
O3 0.0254(12) 0.0249(11) 0.0120(9) -0.0002(8) 0.0008(8) -0.0071(9)
C3 0.0189(16) 0.0172(14) 0.0149(12) -0.0004(10) 0.0007(11) -0.0027(11)
C4 0.0215(16) 0.0153(13) 0.0122(11) -0.0014(9) 0.0014(11) 0.0002(11)
O4 0.0318(13) 0.0176(10) 0.0150(9) -0.0005(7) 0.0025(9) -0.0097(9)
O6 0.0290(13) 0.0171(11) 0.0146(9) 0.0003(7) -0.0043(9) -0.0037(9)
N1 0.0192(13) 0.0190(12) 0.0175(11) 0.0023(9) -0.0002(10) 0.0036(10)
C11 0.0168(15) 0.0221(15) 0.0202(13) 0.0015(11) -0.0018(12) 0.0028(11)
C12 0.0214(15) 0.0179(14) 0.0309(15) 0.0083(11) -0.0014(13) -0.0004(11)
C13 0.0168(14) 0.0222(15) 0.0297(15) 0.0070(12) -0.0041(13) -0.0011(11)
C14 0.0201(16) 0.0199(15) 0.0291(15) 0.0057(12) -0.0002(13) 0.0018(12)
C15 0.0186(16) 0.0218(15) 0.0318(15) 0.0057(12) 0.0023(13) -0.0005(12)
N2 0.0198(14) 0.0172(12) 0.0225(12) 0.0038(9) -0.0006(11) 0.0021(10)
C21 0.0178(15) 0.0182(14) 0.0203(13) 0.0033(10) 0.0004(12) 0.0037(11)
C22 0.0217(15) 0.0186(14) 0.0356(16) 0.0006(12) -0.0028(13) 0.0034(12)
C23 0.0223(16) 0.0199(15) 0.0347(16) -0.0006(12) -0.0054(13) 0.0014(12)
C24 0.0217(17) 0.0207(15) 0.0295(15) 0.0006(12) -0.0040(13) 0.0016(12)
C25 0.0205(17) 0.0227(16) 0.0287(15) 0.0002(11) -0.0076(13) 0.0012(12)
O7 0.0302(15) 0.0496(17) 0.0349(13) -0.0034(11) -0.0023(12) 0.0084(12)
O8 0.0294(13) 0.0614(17) 0.0304(12) -0.0036(13) 0.0002(10) -0.0050(15)
O9 0.0252(14) 0.0517(17) 0.0402(14) -0.0007(12) 0.0022(12) 0.0012(12)

_geom_special_details            
;
All esds (except the esd in the dihedral angle between two l.s. planes)
are estimated using the full covariance matrix.  The cell esds are taken
into account individually in the estimation of esds in distances, angles
and torsion angles; correlations between esds in cell parameters are only
used when they are defined by crystal symmetry.  An approximate (isotropic)
treatment of cell esds is used for estimating esds involving l.s. planes.
;

loop_
_geom_bond_atom_site_label_1
_geom_bond_atom_site_label_2
_geom_bond_distance
_geom_bond_site_symmetry_2
_geom_bond_publ_flag
Fe1 O5 2.091(2) 3_676 ?
Fe1 O5 2.091(2) . ?
Fe1 O1 2.1569(18) . ?
Fe1 O1 2.1569(18) 3_676 ?
Fe1 N1 2.215(3) . ?
Fe1 N1 2.215(3) 3_676 ?
O1 C1 1.262(4) . ?
C1 C2 1.468(4) 3_677 ?
C1 C2 1.479(4) . ?
C2 O2 1.250(3) . ?
C2 C1 1.468(4) 3_677 ?
Fe2 O6 2.074(2) 3_767 ?
Fe2 O6 2.074(2) . ?
Fe2 O3 2.1286(18) 3_767 ?
Fe2 O3 2.1286(18) . ?
Fe2 N2 2.261(3) 3_767 ?
Fe2 N2 2.261(3) . ?
O3 C3 1.260(4) . ?
C3 C4 1.466(4) . ?
C3 C4 1.467(4) 3_766 ?
C4 O4 1.253(3) . ?
C4 C3 1.467(4) 3_766 ?
N1 C14 1.343(4) . ?
N1 C13 1.349(4) . ?
C11 C15 1.391(4) . ?
C11 C12 1.398(4) . ?
C11 C21 1.480(4) . ?
C12 C13 1.387(5) . ?
C14 C15 1.388(5) . ?
N2 C23 1.345(4) . ?
N2 C24 1.347(4) . ?
C21 C22 1.392(5) . ?
C21 C25 1.401(5) . ?
C22 C23 1.392(5) . ?
C24 C25 1.390(5) . ?

loop_
_geom_angle_atom_site_label_1
_geom_angle_atom_site_label_2
_geom_angle_atom_site_label_3
_geom_angle
_geom_angle_site_symmetry_1
_geom_angle_site_symmetry_3
_geom_angle_publ_flag
O5 Fe1 O5 180.0 3_676 . ?
O5 Fe1 O1 87.41(8) 3_676 . ?
O5 Fe1 O1 92.59(8) . . ?
O5 Fe1 O1 92.59(8) 3_676 3_676 ?
O5 Fe1 O1 87.41(8) . 3_676 ?
O1 Fe1 O1 180.000(1) . 3_676 ?
O5 Fe1 N1 92.22(10) 3_676 . ?
O5 Fe1 N1 87.78(10) . . ?
O1 Fe1 N1 86.11(9) . . ?
O1 Fe1 N1 93.89(9) 3_676 . ?
O5 Fe1 N1 87.78(10) 3_676 3_676 ?
O5 Fe1 N1 92.22(10) . 3_676 ?
O1 Fe1 N1 93.89(9) . 3_676 ?
O1 Fe1 N1 86.11(9) 3_676 3_676 ?
N1 Fe1 N1 180.0 . 3_676 ?
C1 O1 Fe1 130.12(19) . . ?
O1 C1 C2 134.0(3) . 3_677 ?
O1 C1 C2 135.6(3) . . ?
C2 C1 C2 90.4(2) 3_677 . ?
O2 C2 C1 134.8(3) . 3_677 ?
O2 C2 C1 135.6(3) . . ?
C1 C2 C1 89.6(2) 3_677 . ?
O6 Fe2 O6 180.000(1) 3_767 . ?
O6 Fe2 O3 85.96(8) 3_767 3_767 ?
O6 Fe2 O3 94.04(8) . 3_767 ?
O6 Fe2 O3 94.04(8) 3_767 . ?
O6 Fe2 O3 85.96(8) . . ?
O3 Fe2 O3 180.000(1) 3_767 . ?
O6 Fe2 N2 90.56(9) 3_767 3_767 ?
O6 Fe2 N2 89.44(10) . 3_767 ?
O3 Fe2 N2 87.35(9) 3_767 3_767 ?
O3 Fe2 N2 92.65(9) . 3_767 ?
O6 Fe2 N2 89.44(10) 3_767 . ?
O6 Fe2 N2 90.56(9) . . ?
O3 Fe2 N2 92.65(9) 3_767 . ?
O3 Fe2 N2 87.35(9) . . ?
N2 Fe2 N2 180.000(1) 3_767 . ?
C3 O3 Fe2 131.78(19) . . ?
O3 C3 C4 133.0(3) . . ?
O3 C3 C4 136.6(3) . 3_766 ?
C4 C3 C4 90.4(2) . 3_766 ?
O4 C4 C3 134.3(3) . . ?
O4 C4 C3 136.1(3) . 3_766 ?
C3 C4 C3 89.6(2) . 3_766 ?
C14 N1 C13 116.6(3) . . ?
C14 N1 Fe1 123.1(2) . . ?
C13 N1 Fe1 120.3(2) . . ?
C15 C11 C12 117.1(3) . . ?
C15 C11 C21 121.6(3) . . ?
C12 C11 C21 121.2(3) . . ?
C13 C12 C11 119.5(3) . . ?
N1 C13 C12 123.5(3) . . ?
N1 C14 C15 123.6(3) . . ?
C14 C15 C11 119.7(3) . . ?
C23 N2 C24 116.5(3) . . ?
C23 N2 Fe2 121.6(2) . . ?
C24 N2 Fe2 121.6(2) . . ?
C22 C21 C25 117.0(3) . . ?
C22 C21 C11 122.0(3) . . ?
C25 C21 C11 121.1(3) . . ?
C21 C22 C23 119.4(3) . . ?
N2 C23 C22 124.0(3) . . ?
N2 C24 C25 123.3(3) . . ?
C24 C25 C21 119.9(3) . . ?

_diffrn_measured_fraction_theta_max 0.956
_diffrn_reflns_theta_full        28.01
_diffrn_measured_fraction_theta_full 0.956
_refine_diff_density_max         0.361
_refine_diff_density_min         -0.572
_refine_diff_density_rms         0.081
