####################################################################### 
# 
# This file contains crystal structure data downloaded from the 
# Cambridge Structural Database (CSD) hosted by the Cambridge 
# Crystallographic Data Centre (CCDC).
# 
# Full information about CCDC data access policies and citation 
# guidelines are available at http://www.ccdc.cam.ac.uk/access/V1 
# 
# Audit and citation data items may have been added by the CCDC. 
# Please retain this information to preserve the provenance of 
# this file and to allow appropriate attribution of the data. 
# 
#######################################################################

data_shel1
_audit_block_doi                 10.5517/cc72gd4
_database_code_depnum_ccdc_archive 'CCDC 210905'
loop_
_citation_id
_citation_doi
_citation_year
1 10.1006/jssc.2000.8655 2000
_audit_update_record             
;
2002-07-08 deposited with the CCDC.	2024-07-08 downloaded from the CCDC.
;

_audit_creation_method           SHELXL
_chemical_name_systematic        
;
?
;
_chemical_name_common            ?
_chemical_formula_moiety         ?
_chemical_formula_structural     ?
_chemical_formula_analytical     ?
_chemical_formula_sum            'C10 H18 Ag N2 O2 S5 W Zn0.50'
_chemical_formula_weight         682.97
_chemical_melting_point          ?
_chemical_compound_source        ?

loop_
_atom_type_symbol
_atom_type_description
_atom_type_scat_dispersion_real
_atom_type_scat_dispersion_imag
_atom_type_scat_source
C C 0.0033 0.0016 'International Tables Vol C Tables 4.2.6.8 and 6.1.1.4'
H H 0.0000 0.0000 'International Tables Vol C Tables 4.2.6.8 and 6.1.1.4'
N N 0.0061 0.0033 'International Tables Vol C Tables 4.2.6.8 and 6.1.1.4'
O O 0.0106 0.0060 'International Tables Vol C Tables 4.2.6.8 and 6.1.1.4'
S S 0.1246 0.1234 'International Tables Vol C Tables 4.2.6.8 and 6.1.1.4'
Zn Zn 0.2839 1.4301 'International Tables Vol C Tables 4.2.6.8 and 6.1.1.4'
Ag Ag -0.8971 1.1015 'International Tables Vol C Tables 4.2.6.8 and 6.1.1.4'
W W -0.8490 6.8722 'International Tables Vol C Tables 4.2.6.8 and 6.1.1.4'

_symmetry_cell_setting           Monoclinic
_symmetry_space_group_name_H-M   C2/c

loop_
_symmetry_equiv_pos_as_xyz
'x, y, z'
'-x, y, -z+1/2'
'x+1/2, y+1/2, z'
'-x+1/2, y+1/2, -z+1/2'
'-x, -y, -z'
'x, -y, z-1/2'
'-x+1/2, -y+1/2, -z'
'x+1/2, -y+1/2, z-1/2'

_cell_length_a                   8.996(2)
_cell_length_b                   21.728(4)
_cell_length_c                   21.560(4)
_cell_angle_alpha                90.00
_cell_angle_beta                 94.00(3)
_cell_angle_gamma                90.00
_cell_volume                     4204.0(15)
_cell_formula_units_Z            8
_cell_measurement_temperature    293(2)
_cell_measurement_reflns_used    ?
_cell_measurement_theta_min      ?
_cell_measurement_theta_max      ?

_exptl_crystal_description       ?
_exptl_crystal_colour            red
_exptl_crystal_size_max          0.70
_exptl_crystal_size_mid          0.25
_exptl_crystal_size_min          0.20
_exptl_crystal_density_meas      ?
_exptl_crystal_density_diffrn    2.158
_exptl_crystal_density_method    ?
_exptl_crystal_F_000             2592
_exptl_absorpt_coefficient_mu    7.456
_exptl_absorpt_correction_type   none
_exptl_absorpt_correction_T_min  ?
_exptl_absorpt_correction_T_max  ?

_exptl_special_details           
;
?
;

_diffrn_ambient_temperature      293(2)
_diffrn_radiation_wavelength     0.71073
_diffrn_radiation_type           MoK\a
_diffrn_radiation_source         'fine-focus sealed tube'
_diffrn_radiation_monochromator  graphite
_diffrn_measurement_device       'Enraf Nonius CAD4'
_diffrn_measurement_method       '\w/2\q '
_diffrn_standards_number         3
_diffrn_standards_interval_count ?
_diffrn_standards_interval_time  120
_diffrn_standards_decay_%        ?
_diffrn_reflns_number            4233
_diffrn_reflns_av_R_equivalents  0.0385
_diffrn_reflns_av_sigmaI/netI    0.0370
_diffrn_reflns_limit_h_min       -11
_diffrn_reflns_limit_h_max       11
_diffrn_reflns_limit_k_min       0
_diffrn_reflns_limit_k_max       26
_diffrn_reflns_limit_l_min       0
_diffrn_reflns_limit_l_max       26
_diffrn_reflns_theta_min         1.87
_diffrn_reflns_theta_max         26.00
_reflns_number_total             4121
_reflns_number_observed          3312
_reflns_observed_criterion       >2sigma(I)

_computing_data_collection       'CAD4 (Enraf-Nonius)'
_computing_cell_refinement       'CAD4 (Enraf-Nonius)'
_computing_data_reduction        Lorentz-Polarization(molen)
_computing_structure_solution    'SHELXS-86 (Sheldrick, 1990)'
_computing_structure_refinement  'SHELXL-93 (Sheldrick, 1993)'
_computing_molecular_graphics    'Siemens SHELXTL'
_computing_publication_material  'Siemens SHELXTL'

_refine_special_details          
;
Refinement on F^2^ for ALL reflections except for 0 with very negative F^2^
or flagged by the user for potential systematic errors.  Weighted R-factors
wR and all goodnesses of fit S are based on F^2^, conventional R-factors R
are based on F, with F set to zero for negative F^2^. The observed criterion
of F^2^ > 2sigma(F^2^) is used only for calculating _R_factor_obs etc. and is
not relevant to the choice of reflections for refinement.  R-factors based
on F^2^ are statistically about twice as large as those based on F, and R-
factors based on ALL data will be even larger.
;

_refine_ls_structure_factor_coef Fsqd
_refine_ls_matrix_type           full
_refine_ls_weighting_scheme      
'calc w=1/[\s^2^(Fo^2^)+(0.0923P)^2^+40.0859P] where P=(Fo^2^+2Fc^2^)/3'
_atom_sites_solution_primary     direct
_atom_sites_solution_secondary   difmap
_atom_sites_solution_hydrogens   geom
_refine_ls_hydrogen_treatment    ?
_refine_ls_extinction_method     none
_refine_ls_extinction_coef       ?
_refine_ls_number_reflns         4121
_refine_ls_number_parameters     197
_refine_ls_number_restraints     0
_refine_ls_R_factor_all          0.0722
_refine_ls_R_factor_obs          0.0546
_refine_ls_wR_factor_all         0.1639
_refine_ls_wR_factor_obs         0.1556
_refine_ls_goodness_of_fit_all   1.066
_refine_ls_goodness_of_fit_obs   1.135
_refine_ls_restrained_S_all      1.066
_refine_ls_restrained_S_obs      1.135
_refine_ls_shift/esd_max         -0.015
_refine_ls_shift/esd_mean        0.001

loop_
_atom_site_label
_atom_site_type_symbol
_atom_site_fract_x
_atom_site_fract_y
_atom_site_fract_z
_atom_site_U_iso_or_equiv
_atom_site_thermal_displace_type
_atom_site_occupancy
_atom_site_calc_flag
_atom_site_refinement_flags
_atom_site_disorder_group
W1 W 0.23210(5) 0.51081(2) 0.15999(2) 0.0485(2) Uani 1 d . .
Ag1 Ag 0.5000 0.51307(7) 0.2500 0.0613(4) Uani 1 d S .
Zn1 Zn 0.2500 0.2500 0.0000 0.0298(3) Uani 1 d S .
Ag2 Ag 0.0000 0.49990(9) 0.2500 0.0861(5) Uani 1 d S .
S14 S 0.4438(3) 0.46420(14) 0.14455(14) 0.0536(7) Uani 1 d . .
S13 S 0.2407(3) 0.56718(15) 0.24686(15) 0.0550(7) Uani 1 d . .
S2 S 0.1151(4) 0.1116(2) 0.02796(15) 0.0653(9) Uani 1 d . .
S12 S 0.1815(8) 0.5739(3) 0.0844(2) 0.133(3) Uani 1 d . .
S11 S 0.0633(5) 0.4387(3) 0.1583(3) 0.132(3) Uani 1 d . .
O2 O 0.2365(8) 0.1542(3) 0.0074(3) 0.0403(15) Uani 1 d . .
N1 N 0.3537(8) 0.2537(3) 0.0929(3) 0.032(2) Uani 1 d . .
O1 O 0.0395(7) 0.2631(3) 0.0360(3) 0.042(2) Uani 1 d . .
C13 C 0.4699(10) 0.2544(4) 0.2164(4) 0.034(2) Uani 1 d . .
C12 C 0.4854(10) 0.2028(4) 0.1797(4) 0.035(2) Uani 1 d . .
C15 C 0.3427(11) 0.3043(4) 0.1284(4) 0.038(2) Uani 1 d . .
C14 C 0.4023(12) 0.3060(5) 0.1900(4) 0.041(2) Uani 1 d . .
C1 C -0.0261(11) 0.3120(6) 0.0457(5) 0.049(3) Uani 1 d . .
C11 C 0.4258(10) 0.2036(4) 0.1189(4) 0.036(2) Uani 1 d . .
N11 N -0.1597(11) 0.3145(6) 0.0672(5) 0.068(3) Uani 1 d . .
C211 C 0.0906(19) 0.1284(7) 0.1065(7) 0.082(5) Uani 1 d . .
C112 C -0.2328(17) 0.3739(11) 0.0776(8) 0.117(8) Uani 1 d . .
C111 C -0.2368(19) 0.2586(12) 0.0832(9) 0.118(8) Uani 1 d . .
C212 C 0.2115(30) 0.0391(7) 0.0376(10) 0.128(9) Uani 1 d . .

loop_
_atom_site_aniso_label
_atom_site_aniso_U_11
_atom_site_aniso_U_22
_atom_site_aniso_U_33
_atom_site_aniso_U_23
_atom_site_aniso_U_13
_atom_site_aniso_U_12
W1 0.0434(3) 0.0609(3) 0.0417(3) -0.0140(2) 0.0065(2) 0.0033(2)
Ag1 0.0482(7) 0.0673(9) 0.0673(9) 0.000 -0.0044(6) 0.000
Zn1 0.0348(7) 0.0360(8) 0.0184(6) 0.0027(5) 0.0006(5) 0.0005(6)
Ag2 0.0765(11) 0.0955(13) 0.0914(12) 0.000 0.0427(10) 0.000
S14 0.058(2) 0.049(2) 0.057(2) -0.0064(13) 0.0215(13) 0.0046(13)
S13 0.0429(14) 0.063(2) 0.059(2) -0.0245(14) 0.0016(12) 0.0053(13)
S2 0.071(2) 0.075(2) 0.049(2) 0.0126(15) -0.0016(14) -0.029(2)
S12 0.183(6) 0.149(5) 0.067(3) 0.017(3) 0.016(3) 0.102(5)
S11 0.078(3) 0.144(5) 0.179(5) -0.108(4) 0.049(3) -0.058(3)
O2 0.051(4) 0.043(4) 0.027(3) 0.004(3) 0.004(3) -0.006(3)
N1 0.038(4) 0.035(4) 0.022(3) 0.000(3) -0.002(3) 0.001(3)
O1 0.037(3) 0.057(4) 0.032(3) 0.002(3) 0.005(3) 0.000(3)
C13 0.041(5) 0.037(5) 0.022(4) 0.005(4) -0.001(4) -0.005(4)
C12 0.043(5) 0.038(5) 0.024(4) -0.002(4) -0.005(4) 0.004(4)
C15 0.053(6) 0.037(5) 0.025(4) -0.003(4) 0.000(4) 0.001(4)
C14 0.058(6) 0.039(5) 0.024(4) 0.001(4) -0.005(4) 0.008(5)
C1 0.034(5) 0.074(8) 0.038(5) -0.008(5) 0.000(4) 0.013(5)
C11 0.042(5) 0.044(5) 0.021(4) 0.000(4) 0.000(4) 0.006(4)
N11 0.047(6) 0.112(10) 0.046(5) -0.016(6) -0.002(4) 0.013(6)
C211 0.117(12) 0.064(9) 0.070(9) 0.004(7) 0.051(9) -0.015(8)
C112 0.066(10) 0.180(20) 0.102(13) -0.049(13) -0.004(9) 0.069(12)
C111 0.072(10) 0.183(21) 0.102(14) 0.009(13) 0.028(10) -0.060(12)
C212 0.223(25) 0.040(8) 0.133(17) 0.017(9) 0.094(17) -0.009(11)

_geom_special_details            
;
All esds (except the esd in the dihedral angle between two l.s. planes)
are estimated using the full covariance matrix.  The cell esds are taken
into account individually in the estimation of esds in distances, angles
and torsion angles; correlations between esds in cell parameters are only
used when they are defined by crystal symmetry.  An approximate (isotropic)
treatment of cell esds is used for estimating esds involving l.s. planes.
;

loop_
_geom_bond_atom_site_label_1
_geom_bond_atom_site_label_2
_geom_bond_distance
_geom_bond_site_symmetry_2
_geom_bond_publ_flag
W1 S12 2.154(5) . ?
W1 S11 2.180(4) . ?
W1 S14 2.203(3) . ?
W1 S13 2.235(3) . ?
W1 Ag2 2.9576(9) . ?
W1 Ag1 2.9874(10) . ?
Ag1 S14 2.528(3) . ?
Ag1 S14 2.528(3) 2_655 ?
Ag1 S13 2.609(3) 2_655 ?
Ag1 S13 2.609(3) . ?
Ag1 W1 2.9874(10) 2_655 ?
Zn1 O2 2.091(7) 7 ?
Zn1 O2 2.092(7) . ?
Zn1 O1 2.115(6) . ?
Zn1 O1 2.115(6) 7 ?
Zn1 N1 2.152(7) 7 ?
Zn1 N1 2.152(7) . ?
Ag2 S11 2.481(5) . ?
Ag2 S11 2.481(5) 2 ?
Ag2 S13 2.617(3) . ?
Ag2 S13 2.617(3) 2 ?
Ag2 W1 2.9576(9) 2 ?
S2 O2 1.521(7) . ?
S2 C211 1.760(14) . ?
S2 C212 1.80(2) . ?
N1 C15 1.347(12) . ?
N1 C11 1.367(12) . ?
O1 C1 1.241(13) . ?
C13 C14 1.379(13) . ?
C13 C12 1.384(13) . ?
C13 C13 1.51(2) 2_655 ?
C12 C11 1.380(12) . ?
C15 C14 1.398(12) . ?
C1 N11 1.319(14) . ?
N11 C111 1.45(2) . ?
N11 C112 1.47(2) . ?

loop_
_geom_angle_atom_site_label_1
_geom_angle_atom_site_label_2
_geom_angle_atom_site_label_3
_geom_angle
_geom_angle_site_symmetry_1
_geom_angle_site_symmetry_3
_geom_angle_publ_flag
S12 W1 S11 109.5(3) . . ?
S12 W1 S14 108.5(2) . . ?
S11 W1 S14 106.0(2) . . ?
S12 W1 S13 106.2(2) . . ?
S11 W1 S13 113.0(2) . . ?
S14 W1 S13 113.52(11) . . ?
S12 W1 Ag2 115.2(2) . . ?
S11 W1 Ag2 55.28(13) . . ?
S14 W1 Ag2 136.04(9) . . ?
S13 W1 Ag2 58.58(9) . . ?
S12 W1 Ag1 126.8(2) . . ?
S11 W1 Ag1 123.5(2) . . ?
S14 W1 Ag1 55.87(8) . . ?
S13 W1 Ag1 57.82(8) . . ?
Ag2 W1 Ag1 98.61(2) . . ?
S14 Ag1 S14 130.3(2) . 2_655 ?
S14 Ag1 S13 109.57(10) . 2_655 ?
S14 Ag1 S13 92.49(10) 2_655 2_655 ?
S14 Ag1 S13 92.49(10) . . ?
S14 Ag1 S13 109.57(10) 2_655 . ?
S13 Ag1 S13 126.4(2) 2_655 . ?
S14 Ag1 W1 46.15(7) . . ?
S14 Ag1 W1 132.76(8) 2_655 . ?
S13 Ag1 W1 134.73(7) 2_655 . ?
S13 Ag1 W1 46.46(6) . . ?
S14 Ag1 W1 132.76(8) . 2_655 ?
S14 Ag1 W1 46.15(7) 2_655 2_655 ?
S13 Ag1 W1 46.46(6) 2_655 2_655 ?
S13 Ag1 W1 134.73(7) . 2_655 ?
W1 Ag1 W1 178.11(6) . 2_655 ?
O2 Zn1 O2 180.0 7 . ?
O2 Zn1 O1 87.3(3) 7 . ?
O2 Zn1 O1 92.7(3) . . ?
O2 Zn1 O1 92.7(3) 7 7 ?
O2 Zn1 O1 87.3(3) . 7 ?
O1 Zn1 O1 180.0 . 7 ?
O2 Zn1 N1 89.4(3) 7 7 ?
O2 Zn1 N1 90.6(3) . 7 ?
O1 Zn1 N1 90.3(3) . 7 ?
O1 Zn1 N1 89.7(3) 7 7 ?
O2 Zn1 N1 90.6(3) 7 . ?
O2 Zn1 N1 89.4(3) . . ?
O1 Zn1 N1 89.7(3) . . ?
O1 Zn1 N1 90.3(3) 7 . ?
N1 Zn1 N1 180.0 7 . ?
S11 Ag2 S11 115.2(3) . 2 ?
S11 Ag2 S13 92.42(12) . . ?
S11 Ag2 S13 123.8(2) 2 . ?
S11 Ag2 S13 123.8(2) . 2 ?
S11 Ag2 S13 92.42(12) 2 2 ?
S13 Ag2 S13 112.09(15) . 2 ?
S11 Ag2 W1 46.24(11) . . ?
S11 Ag2 W1 141.04(11) 2 . ?
S13 Ag2 W1 46.77(6) . . ?
S13 Ag2 W1 126.54(8) 2 . ?
S11 Ag2 W1 141.04(11) . 2 ?
S11 Ag2 W1 46.24(10) 2 2 ?
S13 Ag2 W1 126.54(8) . 2 ?
S13 Ag2 W1 46.77(6) 2 2 ?
W1 Ag2 W1 170.80(8) . 2 ?
W1 S14 Ag1 77.98(9) . . ?
W1 S13 Ag1 75.72(9) . . ?
W1 S13 Ag2 74.65(9) . . ?
Ag1 S13 Ag2 119.18(13) . . ?
O2 S2 C211 107.1(6) . . ?
O2 S2 C212 102.5(7) . . ?
C211 S2 C212 99.3(9) . . ?
W1 S11 Ag2 78.48(13) . . ?
S2 O2 Zn1 132.4(4) . . ?
C15 N1 C11 118.0(7) . . ?
C15 N1 Zn1 121.0(6) . . ?
C11 N1 Zn1 120.9(6) . . ?
C1 O1 Zn1 128.7(7) . . ?
C14 C13 C12 118.8(8) . . ?
C14 C13 C13 120.9(6) . 2_655 ?
C12 C13 C13 120.3(6) . 2_655 ?
C11 C12 C13 119.1(8) . . ?
N1 C15 C14 121.6(9) . . ?
C13 C14 C15 119.8(9) . . ?
O1 C1 N11 123.4(12) . . ?
N1 C11 C12 122.6(8) . . ?
C1 N11 C111 120.7(14) . . ?
C1 N11 C112 121.2(14) . . ?
C111 N11 C112 118.1(14) . . ?

_refine_diff_density_max         2.123
_refine_diff_density_min         -1.686
_refine_diff_density_rms         0.265


