####################################################################### 
# 
# This file contains crystal structure data downloaded from the 
# Cambridge Structural Database (CSD) hosted by the Cambridge 
# Crystallographic Data Centre (CCDC).
# 
# Full information about CCDC data access policies and citation 
# guidelines are available at http://www.ccdc.cam.ac.uk/access/V1 
# 
# Audit and citation data items may have been added by the CCDC. 
# Please retain this information to preserve the provenance of 
# this file and to allow appropriate attribution of the data. 
# 
#######################################################################

data_compound_3
_audit_block_doi                 10.5517/cc72gf5
_database_code_depnum_ccdc_archive 'CCDC 210906'
loop_
_citation_id
_citation_doi
_citation_year
1 10.1006/jssc.2000.8655 2000
_audit_update_record             
;
2003-05-19 deposited with the CCDC.	2024-07-08 downloaded from the CCDC.
;

_audit_creation_method           'manually at CCDC'

_chemical_name_systematic        
;
?
;
_chemical_name_common            ?
_chemical_formula_sum            'C11 H23 N O3 W Ag S7 Zn0.5'
_chemical_formula_moiety         ?
_chemical_formula_weight         766.13
_chemical_melting_point          ?

_symmetry_cell_setting           Monoclinic
_symmetry_space_group_name_H-M   C2/c
_symmetry_Int_Tables_number      ?

_cell_length_a                   28.8896(2)
_cell_length_b                   11.93950(1)
_cell_length_c                   16.2341(2)
_cell_angle_alpha                90.00
_cell_angle_beta                 122.9320(10)
_cell_angle_gamma                90.00
_cell_volume                     4699.82(8)
_cell_formula_units_Z            8

_exptl_crystal_density_diffrn    2.166
_exptl_crystal_description       ?
_exptl_crystal_colour            ?
_exptl_special_details           
;
?
;

_diffrn_ambient_temperature      293(2)
_diffrn_radiation_probe          x-ray

_refine_ls_R_factor_gt           0.0438
_refine_special_details          
;
?
;

loop_
_atom_site_label
_atom_site_fract_x
_atom_site_fract_y
_atom_site_fract_z
W 0.2612,1 1.3290,1 0.2618,1
Ag 0.2529,1 1.5803,1 0.2539,1
S1 0.3279,1 1.2125,2 0.2596,2
S2 0.1858,1 1.2427,2 0.1474,2
S3 0.2395,2 1.4292,2 0.3500,2
S4 0.2907,1 1.4344,2 0.1883,2

loop_
_geom_bond_atom_site_label_1
_geom_bond_atom_site_label_2
_geom_bond_distance
W S4 2.199,2
W S3 2.203,3
W Ag* 2.9890,8
Ag S4 2.575,2
Ag S2 2.525,3
W S1 2.200,2
W S2 2.204,2
W Ag 3.0073,7
Ag S3 2.549,3
Ag S1 2.579,3
Ag S1* 2.580,3

#END

