####################################################################### 
# 
# This file contains crystal structure data downloaded from the 
# Cambridge Structural Database (CSD) hosted by the Cambridge 
# Crystallographic Data Centre (CCDC).
# 
# Full information about CCDC data access policies and citation 
# guidelines are available at http://www.ccdc.cam.ac.uk/access/V1 
# 
# Audit and citation data items may have been added by the CCDC. 
# Please retain this information to preserve the provenance of 
# this file and to allow appropriate attribution of the data. 
# 
#######################################################################

data_cprgsb109free*P.GUIONNEAU*A.KAIBA
_audit_block_doi                 10.5517/ccynfgg
_database_code_depnum_ccdc_archive 'CCDC 883576'
loop_
_citation_id
_citation_doi
_citation_year
1 10.1021/cg2013683 2012
_audit_update_record             
;
2012-04-30 deposited with the CCDC.	2024-07-08 downloaded from the CCDC.
;
#TrackingRef '6.cif'


_audit_creation_method           SHELXL-97
_chemical_name_systematic        
;
?
;
_chemical_name_common            ?
_chemical_melting_point          ?
_chemical_formula_moiety         ?
_chemical_formula_sum            'C57.50 H56 Cu2 N3 O16.50 S2'
_chemical_formula_weight         1244.25

loop_
_atom_type_symbol
_atom_type_description
_atom_type_scat_dispersion_real
_atom_type_scat_dispersion_imag
_atom_type_scat_source
C C 0.0033 0.0016 'International Tables Vol C Tables 4.2.6.8 and 6.1.1.4'
H H 0.0000 0.0000 'International Tables Vol C Tables 4.2.6.8 and 6.1.1.4'
O O 0.0106 0.0060 'International Tables Vol C Tables 4.2.6.8 and 6.1.1.4'
S S 0.1246 0.1234 'International Tables Vol C Tables 4.2.6.8 and 6.1.1.4'
Cu Cu 0.3201 1.2651 'International Tables Vol C Tables 4.2.6.8 and 6.1.1.4'
N N 0.0061 0.0033 'International Tables Vol C Tables 4.2.6.8 and 6.1.1.4'

_symmetry_cell_setting           monoclinic
_symmetry_space_group_name_H-M   P21

loop_
_symmetry_equiv_pos_as_xyz
'x, y, z'
'-x, y+1/2, -z'

_cell_length_a                   12.996(1)
_cell_length_b                   13.425(1)
_cell_length_c                   18.890(1)
_cell_angle_alpha                90.00
_cell_angle_beta                 95.79(1)
_cell_angle_gamma                90.00
_cell_volume                     3278.9(4)
_cell_formula_units_Z            2
_cell_measurement_temperature    150(2)
_cell_measurement_reflns_used    39790
_cell_measurement_theta_min      1.0
_cell_measurement_theta_max      27.88

_exptl_crystal_description       prism
_exptl_crystal_colour            green
_exptl_crystal_size_max          0.16
_exptl_crystal_size_mid          0.10
_exptl_crystal_size_min          0.08
_exptl_crystal_density_meas      ?
_exptl_crystal_density_diffrn    1.260
_exptl_crystal_density_method    'not measured'
_exptl_crystal_F_000             1288
_exptl_absorpt_coefficient_mu    0.776
_exptl_absorpt_correction_type   empirical
_exptl_absorpt_correction_T_min  0.8860
_exptl_absorpt_correction_T_max  0.9406
_exptl_absorpt_process_details   scalepack

_exptl_special_details           
;
?
;

_diffrn_measurement_device_type  KappaCCD
_diffrn_measurement_device       '95mm CCD camera on \k-goniostat'
_diffrn_detector_area_resol_mean 9
_diffrn_radiation_monochromator  'horizonally mounted graphite crystal'
_diffrn_measurement_method       CCD


_diffrn_ambient_temperature      150(2)
_diffrn_radiation_wavelength     0.71073
_diffrn_radiation_type           MoK\a
_diffrn_radiation_source         'fine-focus sealed tube'
_diffrn_reflns_number            27940
_diffrn_reflns_av_R_equivalents  0.0466
_diffrn_reflns_av_sigmaI/netI    0.0830
_diffrn_reflns_limit_h_min       -16
_diffrn_reflns_limit_h_max       16
_diffrn_reflns_limit_k_min       -17
_diffrn_reflns_limit_k_max       17
_diffrn_reflns_limit_l_min       -24
_diffrn_reflns_limit_l_max       24
_diffrn_reflns_theta_min         3.43
_diffrn_reflns_theta_max         27.48
_reflns_number_total             14931
_reflns_number_gt                11312
_reflns_threshold_expression     >2sigma(I)



_computing_data_collection       'KappaCCD Server Software (Nonius, 1997)'
_computing_structure_solution    'Shelxs-97 (Sheldrick, 1990)'
_computing_structure_refinement  'SHELXL-97 (Sheldrick, 1997)'
_computing_molecular_graphics    'ORTEP-3 (Farrugia, 1997) and Mercury (CCDC)'
_computing_publication_material  'shelxl-97 (Sheldrick, 1997)'
_computing_cell_refinement       'HKL Scalepack (Otwinowski & Minor 1997)'
_computing_data_reduction        
'HKL Denzo and Scalepack (Otwinowski & Minor 1997)'

_refine_special_details          
;
Refinement of F^2^ against ALL reflections. The weighted R-factor wR and
goodness of fit S are based on F^2^, conventional R-factors R are based
on F, with F set to zero for negative F^2^. The threshold expression of
F^2^ > 2sigma(F^2^) is used only for calculating R-factors(gt) etc. and is
not relevant to the choice of reflections for refinement. R-factors based
on F^2^ are statistically about twice as large as those based on F, and R-
factors based on ALL data will be even larger.

SQUEEZE function used due to presence of non ordered solvent
;

_refine_ls_structure_factor_coef Fsqd
_refine_ls_matrix_type           full
_refine_ls_weighting_scheme      calc
_refine_ls_weighting_details     
'calc w=1/[\s^2^(Fo^2^)+(0.0735P)^2^+0.0000P] where P=(Fo^2^+2Fc^2^)/3'
_atom_sites_solution_primary     direct
_atom_sites_solution_secondary   difmap
_atom_sites_solution_hydrogens   geom
_refine_ls_hydrogen_treatment    noref
_refine_ls_extinction_method     none
_refine_ls_extinction_coef       ?
_refine_ls_abs_structure_details 'Flack H D (1983), Acta Cryst. A39, 876-881'
_refine_ls_abs_structure_Flack   0.034(9)
_refine_ls_number_reflns         14931
_refine_ls_number_parameters     722
_refine_ls_number_restraints     1
_refine_ls_R_factor_all          0.0733
_refine_ls_R_factor_gt           0.0508
_refine_ls_wR_factor_ref         0.1271
_refine_ls_wR_factor_gt          0.1184
_refine_ls_goodness_of_fit_ref   0.962
_refine_ls_restrained_S_all      0.962
_refine_ls_shift/su_max          0.001
_refine_ls_shift/su_mean         0.000


# SQUEEZE RESULTS (APPEND TO CIF)
loop_
_platon_squeeze_void_nr
_platon_squeeze_void_average_x
_platon_squeeze_void_average_y
_platon_squeeze_void_average_z
_platon_squeeze_void_volume
_platon_squeeze_void_count_electrons
1 0.500 0.137 0.500 451.2 142.3
2 0.385 0.005 0.270 18.9 6.0
3 0.614 0.505 0.730 19.6 6.2
_platon_squeeze_details          
;
;



loop_
_atom_site_label
_atom_site_type_symbol
_atom_site_fract_x
_atom_site_fract_y
_atom_site_fract_z
_atom_site_U_iso_or_equiv
_atom_site_adp_type
_atom_site_occupancy
_atom_site_symmetry_multiplicity
_atom_site_calc_flag
_atom_site_refinement_flags
_atom_site_disorder_assembly
_atom_site_disorder_group
Cu1 Cu 0.26799(4) 0.65183(3) 0.73448(2) 0.02347(12) Uani 1 1 d . . .
Cu2 Cu 0.27957(4) 0.84696(3) 0.74486(2) 0.02404(12) Uani 1 1 d . . .
S1 S 0.67409(7) 0.97324(7) 0.93436(5) 0.0224(2) Uiso 1 1 d . . .
S2 S 0.17212(8) 0.52004(7) 0.42295(5) 0.0256(2) Uiso 1 1 d . . .
O10 O 0.6123(2) 0.7974(2) 0.85203(13) 0.0285(6) Uani 1 1 d . . .
O9 O 0.2634(2) 0.6974(2) 0.49012(14) 0.0335(7) Uani 1 1 d . . .
O6 O 0.4221(2) 0.8173(2) 0.78368(13) 0.0282(6) Uani 1 1 d . . .
O5 O 0.4198(2) 0.6573(2) 0.74769(12) 0.0257(6) Uani 1 1 d . . .
O7 O 0.2322(3) 0.4962(2) 0.72159(16) 0.0371(7) Uani 1 1 d . . .
O2 O 0.1323(2) 0.8456(2) 0.70388(13) 0.0288(6) Uani 1 1 d . . .
O3 O 0.2715(2) 0.6789(2) 0.63295(13) 0.0308(7) Uani 1 1 d . . .
O4 O 0.3204(2) 0.8400(2) 0.64756(12) 0.0289(6) Uani 1 1 d . . .
N1 N 0.1924(3) 1.1491(3) 0.76476(19) 0.0364(8) Uani 1 1 d . . .
O1 O 0.1188(2) 0.68093(19) 0.72530(14) 0.0287(6) Uani 1 1 d . . .
C26 C -0.0044(3) 0.3069(3) 0.9342(2) 0.0298(9) Uani 1 1 d . . .
H26 H -0.0625 0.3085 0.8993 0.036 Uiso 1 1 calc R . .
C20 C 0.6054(3) 0.8703(3) 0.96465(19) 0.0222(8) Uani 1 1 d . . .
C19 C 0.5709(3) 0.8673(3) 1.03477(19) 0.0216(8) Uani 1 1 d . . .
O8 O 0.2837(2) 1.0046(2) 0.75850(15) 0.0327(7) Uani 1 1 d . . .
C4 C 0.3203(4) 0.7705(3) 0.5329(2) 0.0341(10) Uani 1 1 d . . .
H4A H 0.2998 0.8377 0.5152 0.041 Uiso 1 1 calc R . .
H4B H 0.3950 0.7620 0.5282 0.041 Uiso 1 1 calc R . .
C50 C -0.1760(3) 1.0963(3) 0.71530(19) 0.0233(8) Uani 1 1 d . . .
N2 N 0.0646(3) 0.4609(3) 0.6797(2) 0.0424(9) Uani 1 1 d . . .
C40 C 0.1022(3) 0.6253(3) 0.45067(18) 0.0261(9) Uani 1 1 d . . .
C18 C 0.5932(3) 0.9456(3) 1.0861(2) 0.0261(9) Uani 1 1 d . . .
H18 H 0.6319 1.0019 1.0737 0.031 Uiso 1 1 calc R . .
C43 C -0.0811(3) 0.9235(3) 0.7773(2) 0.0302(9) Uani 1 1 d . . .
H43 H -0.0482 0.8659 0.7982 0.036 Uiso 1 1 calc R . .
C6 C 0.5769(3) 0.7233(3) 0.8018(2) 0.0322(10) Uani 1 1 d . . .
H6A H 0.5888 0.6568 0.8238 0.039 Uiso 1 1 calc R . .
H6B H 0.6179 0.7272 0.7605 0.039 Uiso 1 1 calc R . .
C41 C -0.1438(3) 1.0166(3) 0.67147(18) 0.0232(8) Uani 1 1 d . . .
C13 C 0.5754(3) 0.7936(3) 0.91808(19) 0.0245(8) Uani 1 1 d . . .
C16 C 0.5112(3) 0.7870(3) 1.0550(2) 0.0275(9) Uani 1 1 d . . .
C30 C 0.1454(3) 0.3897(3) 0.99718(19) 0.0213(8) Uani 1 1 d . . .
C24 C 0.0362(3) 0.4804(3) 0.90668(19) 0.0259(8) Uani 1 1 d . . .
H24 H -0.0230 0.4828 0.8728 0.031 Uiso 1 1 calc R . .
C38 C -0.0718(4) 0.5473(3) 0.4139(2) 0.0313(10) Uani 1 1 d . . .
H38 H -0.0396 0.4924 0.3934 0.038 Uiso 1 1 calc R . .
C23 C 0.0969(3) 0.5633(3) 0.91659(19) 0.0249(8) Uani 1 1 d . . .
H23 H 0.0804 0.6221 0.8899 0.030 Uiso 1 1 calc R . .
C37 C -0.1746(4) 0.5486(3) 0.4128(2) 0.0397(11) Uani 1 1 d . . .
H37 H -0.2141 0.4942 0.3928 0.048 Uiso 1 1 calc R . .
C29 C 0.1603(3) 0.3027(3) 1.03996(19) 0.0236(8) Uani 1 1 d . . .
H29 H 0.2148 0.3015 1.0775 0.028 Uiso 1 1 calc R . .
C31 C 0.1565(3) 0.7028(3) 0.48530(19) 0.0296(9) Uani 1 1 d . . .
C8 C 0.1441(4) 0.4637(3) 0.7296(2) 0.0341(10) Uani 1 1 d . . .
H8 H 0.1330 0.4388 0.7753 0.041 Uiso 1 1 calc R . .
C28 C 0.0984(3) 0.2211(3) 1.0286(2) 0.0278(9) Uani 1 1 d . . .
H28 H 0.1102 0.1638 1.0577 0.033 Uiso 1 1 calc R . .
C42 C -0.0991(3) 0.9321(3) 0.70249(19) 0.0267(8) Uani 1 1 d . . .
C33 C 0.0007(4) 0.7872(3) 0.5056(2) 0.0352(10) Uani 1 1 d . . .
H33 H -0.0327 0.8435 0.5234 0.042 Uiso 1 1 calc R . .
C44 C -0.1113(3) 0.9985(3) 0.81932(19) 0.0327(10) Uani 1 1 d . . .
H44 H -0.0996 0.9916 0.8695 0.039 Uiso 1 1 calc R . .
C15 C 0.4834(3) 0.7110(3) 1.0050(2) 0.0271(9) Uani 1 1 d . . .
H15 H 0.4427 0.6565 1.0182 0.033 Uiso 1 1 calc R . .
C46 C -0.1918(3) 1.1631(3) 0.83422(19) 0.0294(9) Uani 1 1 d . . .
H46 H -0.1831 1.1556 0.8845 0.035 Uiso 1 1 calc R . .
C25 C 0.0584(3) 0.3914(3) 0.94492(19) 0.0223(8) Uani 1 1 d . . .
C45 C -0.1588(3) 1.0850(3) 0.79086(18) 0.0235(8) Uani 1 1 d . . .
C22 C 0.1849(3) 0.5603(3) 0.96730(18) 0.0226(8) Uani 1 1 d . . .
C51 C 0.5007(3) 0.8589(3) 1.1715(2) 0.0334(9) Uani 1 1 d . . .
H51 H 0.4777 0.8556 1.2176 0.040 Uiso 1 1 calc R . .
C39 C -0.0090(3) 0.6260(3) 0.44506(18) 0.0268(9) Uani 1 1 d . . .
C52 C 0.4764(3) 0.7841(3) 1.1236(2) 0.0341(10) Uani 1 1 d . . .
H52 H 0.4357 0.7295 1.1365 0.041 Uiso 1 1 calc R . .
C11 C 0.0920(4) 1.1952(4) 0.7585(3) 0.0558(14) Uani 1 1 d . . .
H11A H 0.0385 1.1435 0.7567 0.084 Uiso 1 1 calc R . .
H11B H 0.0831 1.2351 0.7149 0.084 Uiso 1 1 calc R . .
H11C H 0.0860 1.2382 0.7998 0.084 Uiso 1 1 calc R . .
C48 C -0.2524(3) 1.2584(4) 0.7312(2) 0.0335(10) Uani 1 1 d . . .
H48 H -0.2829 1.3176 0.7111 0.040 Uiso 1 1 calc R . .
C47 C -0.2352(3) 1.2476(4) 0.8061(2) 0.0328(9) Uani 1 1 d . . .
H47 H -0.2540 1.2996 0.8364 0.039 Uiso 1 1 calc R . .
C17 C 0.5596(3) 0.9405(3) 1.1526(2) 0.0297(9) Uani 1 1 d . . .
H17 H 0.5764 0.9924 1.1860 0.036 Uiso 1 1 calc R . .
C27 C 0.0164(3) 0.2221(3) 0.9731(2) 0.0314(9) Uani 1 1 d . . .
H27 H -0.0241 0.1640 0.9629 0.038 Uiso 1 1 calc R . .
C49 C -0.2253(3) 1.1838(3) 0.6881(2) 0.0284(9) Uani 1 1 d . . .
H49 H -0.2399 1.1909 0.6380 0.034 Uiso 1 1 calc R . .
C2 C 0.3022(3) 0.7626(3) 0.61076(19) 0.0291(9) Uani 1 1 d . . .
C34 C -0.0602(4) 0.7097(4) 0.4733(2) 0.0355(10) Uani 1 1 d . . .
C5 C 0.2008(4) 1.0503(3) 0.7584(2) 0.0292(9) Uani 1 1 d . . .
H5 H 0.1387 1.0123 0.7534 0.035 Uiso 1 1 calc R . .
C32 C 0.1045(4) 0.7841(3) 0.5122(2) 0.0336(10) Uani 1 1 d . . .
H32 H 0.1430 0.8372 0.5351 0.040 Uiso 1 1 calc R . .
C35 C -0.1699(4) 0.7087(4) 0.4703(3) 0.0494(13) Uani 1 1 d . . .
H35 H -0.2044 0.7637 0.4890 0.059 Uiso 1 1 calc R . .
C1 C 0.0823(3) 0.7660(3) 0.70661(19) 0.0262(9) Uani 1 1 d . . .
C3 C 0.4632(3) 0.7338(3) 0.77590(17) 0.0229(8) Uani 1 1 d . . .
C14 C 0.5141(3) 0.7145(3) 0.9385(2) 0.0303(9) Uani 1 1 d . . .
H14 H 0.4939 0.6631 0.9054 0.036 Uiso 1 1 calc R . .
C12 C 0.2817(4) 1.2127(4) 0.7718(4) 0.0586(15) Uani 1 1 d . . .
H12A H 0.3437 1.1731 0.7663 0.088 Uiso 1 1 calc R . .
H12B H 0.2882 1.2440 0.8190 0.088 Uiso 1 1 calc R . .
H12C H 0.2742 1.2645 0.7351 0.088 Uiso 1 1 calc R . .
C10 C -0.0369(4) 0.4245(5) 0.6954(4) 0.0622(15) Uani 1 1 d . . .
H10A H -0.0295 0.3875 0.7403 0.093 Uiso 1 1 calc R . .
H10B H -0.0655 0.3805 0.6569 0.093 Uiso 1 1 calc R . .
H10C H -0.0835 0.4811 0.6994 0.093 Uiso 1 1 calc R . .
C36 C -0.2259(4) 0.6321(4) 0.4417(3) 0.0576(15) Uani 1 1 d . . .
H36 H -0.2991 0.6329 0.4406 0.069 Uiso 1 1 calc R . .
C9 C 0.0716(5) 0.5035(4) 0.6096(3) 0.0534(14) Uani 1 1 d . . .
H9A H 0.0252 0.5611 0.6029 0.080 Uiso 1 1 calc R . .
H9B H 0.0515 0.4534 0.5731 0.080 Uiso 1 1 calc R . .
H9C H 0.1429 0.5249 0.6055 0.080 Uiso 1 1 calc R . .
O11 O 0.2696(2) 0.6552(2) 0.83897(12) 0.0240(5) Uani 1 1 d . . .
O13 O 0.2495(2) 0.64039(19) 0.98111(12) 0.0235(6) Uani 1 1 d . . .
O14 O -0.0739(2) 0.8582(2) 0.65750(13) 0.0298(6) Uani 1 1 d . . .
O12 O 0.2333(2) 0.81841(19) 0.83904(13) 0.0259(6) Uani 1 1 d . . .
C54 C 0.2259(3) 0.7321(3) 0.94573(19) 0.0251(9) Uani 1 1 d . . .
H54A H 0.2674 0.7854 0.9711 0.030 Uiso 1 1 calc R . .
H54B H 0.1520 0.7476 0.9491 0.030 Uiso 1 1 calc R . .
C53 C 0.2455(3) 0.7345(3) 0.86819(18) 0.0215(8) Uani 1 1 d . . .
C55 C -0.0343(3) 0.7676(3) 0.6853(2) 0.0318(10) Uani 1 1 d . . .
H55A H -0.0512 0.7148 0.6494 0.038 Uiso 1 1 calc R . .
H55B H -0.0699 0.7507 0.7276 0.038 Uiso 1 1 calc R . .
N3 N 0.2718(3) 0.9967(3) 0.98242(18) 0.0339(8) Uani 1 1 d . . .
O15 O 0.2268(3) 0.9813(3) 1.09455(18) 0.0575(10) Uani 1 1 d . . .
H15A H 0.2559 0.9841 1.1363 0.086 Uiso 1 1 calc R . .
C56 C 0.1670(4) 0.9999(4) 0.9486(2) 0.0418(11) Uani 1 1 d . . .
H56A H 0.1187 0.9857 0.9839 0.063 Uiso 1 1 calc R . .
H56B H 0.1586 0.9499 0.9106 0.063 Uiso 1 1 calc R . .
H56C H 0.1527 1.0663 0.9283 0.063 Uiso 1 1 calc R . .
C58 C 0.2927(4) 0.9891(4) 1.0516(2) 0.0438(12) Uani 1 1 d . . .
H58 H 0.3634 0.9898 1.0703 0.053 Uiso 1 1 calc R . .
C57 C 0.3555(4) 1.0077(4) 0.9370(2) 0.0430(11) Uani 1 1 d . . .
H57A H 0.3498 1.0727 0.9132 0.065 Uiso 1 1 calc R . .
H57B H 0.3507 0.9547 0.9012 0.065 Uiso 1 1 calc R . .
H57C H 0.4222 1.0032 0.9661 0.065 Uiso 1 1 calc R . .
O16 O 0.8330(6) 0.6160(5) 0.7958(4) 0.0533(18) Uiso 0.50 1 d P . .
C21 C 0.2105(3) 0.4746(3) 1.00535(18) 0.0213(7) Uiso 1 1 d . . .
O20 O 0.7358(6) 0.6447(6) 0.6595(4) 0.0587(18) Uiso 0.50 1 d P . .
O80 O 0.4586(8) 0.4156(7) 0.6000(5) 0.080(3) Uiso 0.50 1 d P . .
H80 H 0.4912 0.4697 0.6028 0.119 Uiso 0.50 1 calc PR . .
C80 C 0.3541(10) 0.4343(10) 0.5805(7) 0.070(3) Uiso 0.50 1 d P . .
H80A H 0.3134 0.4108 0.6181 0.104 Uiso 0.50 1 calc PR . .
H80B H 0.3320 0.3992 0.5361 0.104 Uiso 0.50 1 calc PR . .
H80C H 0.3434 0.5060 0.5736 0.104 Uiso 0.50 1 calc PR . .

loop_
_atom_site_aniso_label
_atom_site_aniso_U_11
_atom_site_aniso_U_22
_atom_site_aniso_U_33
_atom_site_aniso_U_23
_atom_site_aniso_U_13
_atom_site_aniso_U_12
Cu1 0.0290(3) 0.0183(2) 0.0227(2) -0.00097(19) 0.00026(18) -0.0015(2)
Cu2 0.0306(3) 0.0186(2) 0.0221(2) 0.00037(19) -0.00111(18) -0.0016(2)
O10 0.0258(15) 0.0320(15) 0.0270(13) -0.0078(12) -0.0005(11) -0.0041(12)
O9 0.0378(18) 0.0369(16) 0.0247(13) -0.0100(12) -0.0018(12) -0.0037(14)
O6 0.0313(16) 0.0253(15) 0.0263(13) -0.0044(11) -0.0050(11) -0.0024(12)
O5 0.0294(15) 0.0263(14) 0.0210(12) -0.0032(12) 0.0005(10) -0.0007(13)
O7 0.046(2) 0.0212(16) 0.0438(17) -0.0028(13) 0.0024(15) -0.0025(14)
O2 0.0388(17) 0.0206(14) 0.0260(13) 0.0026(12) -0.0018(11) -0.0045(14)
O3 0.0400(18) 0.0296(17) 0.0224(13) -0.0013(11) 0.0011(12) -0.0081(13)
O4 0.0371(16) 0.0276(15) 0.0213(12) -0.0029(12) 0.0000(11) -0.0066(14)
N1 0.034(2) 0.0250(18) 0.050(2) -0.0011(17) 0.0022(16) -0.0058(18)
O1 0.0289(16) 0.0216(15) 0.0347(14) 0.0016(11) -0.0019(12) -0.0029(11)
C26 0.025(2) 0.032(2) 0.031(2) 0.0002(17) -0.0019(17) 0.0000(18)
C20 0.022(2) 0.0192(19) 0.0247(17) 0.0004(14) -0.0028(14) 0.0002(15)
C19 0.0145(18) 0.024(2) 0.0256(17) 0.0019(15) -0.0029(14) -0.0050(15)
O8 0.042(2) 0.0212(16) 0.0337(14) -0.0038(12) -0.0014(13) -0.0010(14)
C4 0.037(3) 0.039(3) 0.026(2) -0.0012(17) -0.0008(17) -0.008(2)
C50 0.018(2) 0.029(2) 0.0228(17) 0.0009(15) 0.0003(15) -0.0060(16)
N2 0.048(3) 0.034(2) 0.045(2) -0.0061(17) 0.0057(18) -0.0074(19)
C40 0.040(3) 0.020(2) 0.0180(16) -0.0005(14) 0.0039(16) 0.0028(17)
C18 0.023(2) 0.025(2) 0.031(2) -0.0036(16) 0.0040(16) -0.0014(17)
C43 0.033(2) 0.031(2) 0.0258(19) 0.0050(17) 0.0008(16) 0.0034(19)
C6 0.033(2) 0.032(3) 0.031(2) -0.0147(17) 0.0008(17) -0.0013(18)
C41 0.027(2) 0.0236(19) 0.0190(16) 0.0022(15) 0.0017(14) -0.0052(17)
C13 0.020(2) 0.025(2) 0.0266(19) 0.0010(16) -0.0051(15) 0.0033(16)
C16 0.023(2) 0.028(2) 0.031(2) 0.0056(17) -0.0046(16) 0.0022(17)
C30 0.0155(19) 0.0205(18) 0.0278(18) -0.0032(15) 0.0024(15) 0.0039(15)
C24 0.022(2) 0.028(2) 0.0273(18) 0.0015(16) 0.0001(15) 0.0031(17)