####################################################################### 
# 
# This file contains crystal structure data downloaded from the 
# Cambridge Structural Database (CSD) hosted by the Cambridge 
# Crystallographic Data Centre (CCDC).
# 
# Full information about CCDC data access policies and citation 
# guidelines are available at http://www.ccdc.cam.ac.uk/access/V1 
# 
# Audit and citation data items may have been added by the CCDC. 
# Please retain this information to preserve the provenance of 
# this file and to allow appropriate attribution of the data. 
# 
#######################################################################

data_compound_6
_audit_block_doi                 10.5517/cct2499
_database_code_depnum_ccdc_archive 'CCDC 746830'
loop_
_citation_id
_citation_doi
_citation_year
1 10.1071/CH09473 2010
_audit_update_record             
;
2009-09-07 deposited with the CCDC.	2024-07-08 downloaded from the CCDC.
;

# data_8425jj

_audit_creation_method           SHELXL-97
_chemical_name_systematic        
;
?
;
_chemical_name_common            ?
_chemical_melting_point          ?
_chemical_formula_moiety         ?
_chemical_formula_sum            'C28 H22 F6 N4 O5 Zn'
_chemical_formula_weight         673.87

loop_
_atom_type_symbol
_atom_type_description
_atom_type_scat_dispersion_real
_atom_type_scat_dispersion_imag
_atom_type_scat_source
C C 0.0033 0.0016 'International Tables Vol C Tables 4.2.6.8 and 6.1.1.4'
H H 0.0000 0.0000 'International Tables Vol C Tables 4.2.6.8 and 6.1.1.4'
N N 0.0061 0.0033 'International Tables Vol C Tables 4.2.6.8 and 6.1.1.4'
O O 0.0106 0.0060 'International Tables Vol C Tables 4.2.6.8 and 6.1.1.4'
F F 0.0171 0.0103 'International Tables Vol C Tables 4.2.6.8 and 6.1.1.4'
Zn Zn 0.2839 1.4301 'International Tables Vol C Tables 4.2.6.8 and 6.1.1.4'

_symmetry_cell_setting           Orthorhombic
_symmetry_space_group_name_H-M   Pna2(1)

loop_
_symmetry_equiv_pos_as_xyz
'x, y, z'
'-x, -y, z+1/2'
'x+1/2, -y+1/2, z'
'-x+1/2, y+1/2, z+1/2'

_cell_length_a                   21.3188(14)
_cell_length_b                   17.1245(11)
_cell_length_c                   21.1963(13)
_cell_angle_alpha                90.00
_cell_angle_beta                 90.00
_cell_angle_gamma                90.00
_cell_volume                     7738.2(9)
_cell_formula_units_Z            8
_cell_measurement_temperature    223(2)
_cell_measurement_reflns_used    ?
_cell_measurement_theta_min      ?
_cell_measurement_theta_max      ?

_exptl_crystal_description       ?
_exptl_crystal_colour            ?
_exptl_crystal_size_max          0.64
_exptl_crystal_size_mid          0.50
_exptl_crystal_size_min          0.34
_exptl_crystal_density_meas      'not measured'
_exptl_crystal_density_diffrn    1.157
_exptl_crystal_density_method    'not measured'
_exptl_crystal_F_000             2736
_exptl_absorpt_coefficient_mu    0.697
_exptl_absorpt_correction_type   empirical
_exptl_absorpt_correction_T_min  0.6638
_exptl_absorpt_correction_T_max  0.7974
_exptl_absorpt_process_details   'SADABS (Sheldrick, 2005)'

_exptl_special_details           
;
?
;

_diffrn_ambient_temperature      223(2)
_diffrn_radiation_wavelength     0.71073
_diffrn_radiation_type           MoK\a
_diffrn_radiation_source         'fine-focus sealed tube'
_diffrn_radiation_monochromator  graphite
_diffrn_measurement_device_type  ?
_diffrn_measurement_method       ?
_diffrn_detector_area_resol_mean ?
_diffrn_standards_number         ?
_diffrn_standards_interval_count ?
_diffrn_standards_interval_time  ?
_diffrn_standards_decay_%        ?
_diffrn_reflns_number            43949
_diffrn_reflns_av_R_equivalents  0.0366
_diffrn_reflns_av_sigmaI/netI    0.0467
_diffrn_reflns_limit_h_min       -25
_diffrn_reflns_limit_h_max       25
_diffrn_reflns_limit_k_min       -19
_diffrn_reflns_limit_k_max       20
_diffrn_reflns_limit_l_min       -23
_diffrn_reflns_limit_l_max       25
_diffrn_reflns_theta_min         1.53
_diffrn_reflns_theta_max         25.00
_reflns_number_total             13010
_reflns_number_gt                10894
_reflns_threshold_expression     >2sigma(I)

_computing_data_collection       ?
_computing_cell_refinement       ?
_computing_data_reduction        ?
_computing_structure_solution    'SHELXS-97 (Sheldrick, 1990)'
_computing_structure_refinement  'SHELXL-97 (Sheldrick, 1997)'
_computing_molecular_graphics    ?
_computing_publication_material  ?

_refine_special_details          
;
Refinement of F^2^ against ALL reflections. The weighted R-factor wR and
goodness of fit S are based on F^2^, conventional R-factors R are based
on F, with F set to zero for negative F^2^. The threshold expression of
F^2^ > 2sigma(F^2^) is used only for calculating R-factors(gt) etc. and is
not relevant to the choice of reflections for refinement. R-factors based
on F^2^ are statistically about twice as large as those based on F, and R-
factors based on ALL data will be even larger.
The F atoms were disordered and only the isotropic thermal parameters were
refined.
The water molecules were also found to be disordered. The structure cannot be
solved in the centrosymmetric space Pnma and hence Pna2(1) was tried. The
structure
was solved and refined successfully, but the Flack parameter indicate some
twinning. The overall poor agreement factor is attributed to the disorder of
anions
and water molecules. The hydrogen atoms of the water molecules were not added.
;

_refine_ls_structure_factor_coef Fsqd
_refine_ls_matrix_type           full
_refine_ls_weighting_scheme      calc
_refine_ls_weighting_details     
'calc w=1/[\s^2^(Fo^2^)+(0.2000P)^2^+0.0000P] where P=(Fo^2^+2Fc^2^)/3'
_atom_sites_solution_primary     direct
_atom_sites_solution_secondary   difmap
_atom_sites_solution_hydrogens   geom
_refine_ls_hydrogen_treatment    fixed
_refine_ls_extinction_method     none
_refine_ls_extinction_coef       ?
_refine_ls_abs_structure_details 'Flack H D (1983), Acta Cryst. A39, 876-881'
_refine_ls_abs_structure_Flack   0.128(15)
_refine_ls_number_reflns         13010
_refine_ls_number_parameters     790
_refine_ls_number_restraints     103
_refine_ls_R_factor_all          0.0974
_refine_ls_R_factor_gt           0.0873
_refine_ls_wR_factor_ref         0.2783
_refine_ls_wR_factor_gt          0.2645
_refine_ls_goodness_of_fit_ref   1.193
_refine_ls_restrained_S_all      1.232
_refine_ls_shift/su_max          0.006
_refine_ls_shift/su_mean         0.001

loop_
_atom_site_label
_atom_site_type_symbol
_atom_site_fract_x
_atom_site_fract_y
_atom_site_fract_z
_atom_site_U_iso_or_equiv
_atom_site_adp_type
_atom_site_occupancy
_atom_site_symmetry_multiplicity
_atom_site_calc_flag
_atom_site_refinement_flags
_atom_site_disorder_assembly
_atom_site_disorder_group
Zn1 Zn 0.716572(19) -0.00007(2) 0.15277(3) 0.03184(15) Uani 1 1 d . . .
Zn2 Zn 0.76993(3) 0.99740(2) 0.66787(3) 0.03346(13) Uani 1 1 d . . .
N1 N 0.64643(14) 0.09229(18) 0.14966(16) 0.0328(8) Uani 1 1 d . . .
N2 N 0.28969(14) 0.41084(18) 0.15021(19) 0.0362(9) Uani 1 1 d . . .
N3 N 0.79002(15) -0.08713(19) 0.1554(2) 0.0380(9) Uani 1 1 d . . .
N4 N 1.14522(14) -0.41006(17) 0.15316(18) 0.0356(9) Uani 1 1 d . . .
N5 N 0.76479(18) 0.91317(18) 0.59222(15) 0.0365(9) Uani 1 1 d . . .
N6 N 0.72692(17) 0.58323(19) 0.24233(16) 0.0366(9) Uani 1 1 d . . .
N7 N 0.77552(18) 0.89956(19) 0.73480(18) 0.0377(9) Uani 1 1 d . . .
N8 N 0.7394(2) 0.58791(19) 1.09723(17) 0.0430(10) Uani 1 1 d . . .
C1 C 0.59520(18) 0.0873(2) 0.1114(2) 0.0402(11) Uani 1 1 d . . .
H1 H 0.5924 0.0449 0.0834 0.048 Uiso 1 1 calc R . .
C2 C 0.54895(19) 0.1395(2) 0.1116(2) 0.0426(11) Uani 1 1 d . . .
H2 H 0.5150 0.1332 0.0837 0.051 Uiso 1 1 calc R . .
C3 C 0.54975(18) 0.2032(2) 0.1522(2) 0.0416(12) Uani 1 1 d . . .
C4 C 0.60248(18) 0.2100(2) 0.1906(2) 0.0435(11) Uani 1 1 d . . .
H4 H 0.6063 0.2521 0.2187 0.052 Uiso 1 1 calc R . .
C5 C 0.64946(17) 0.1536(2) 0.1868(2) 0.0398(10) Uani 1 1 d . . .
H5 H 0.6852 0.1598 0.2123 0.048 Uiso 1 1 calc R . .
C6 C 0.49858(17) 0.2602(2) 0.1595(2) 0.0400(11) Uani 1 1 d . . .
H6 H 0.5054 0.3035 0.1859 0.048 Uiso 1 1 calc R . .
C7 C 0.44319(18) 0.2540(2) 0.1308(3) 0.0459(12) Uani 1 1 d . . .
H7 H 0.4377 0.2119 0.1028 0.055 Uiso 1 1 calc R . .
C8 C 0.29142(18) 0.3592(2) 0.1043(3) 0.0453(12) Uani 1 1 d . . .
H8 H 0.2579 0.3576 0.0755 0.054 Uiso 1 1 calc R . .
C9 C 0.3413(2) 0.3063(2) 0.0965(3) 0.0553(14) Uani 1 1 d . . .
H9 H 0.3413 0.2708 0.0628 0.066 Uiso 1 1 calc R . .
C10 C 0.3902(2) 0.3073(2) 0.1391(2) 0.0426(11) Uani 1 1 d . . .
C11 C 0.38607(18) 0.3603(2) 0.1889(2) 0.0471(12) Uani 1 1 d . . .
H11 H 0.4178 0.3628 0.2196 0.057 Uiso 1 1 calc R . .
C12 C 0.3347(2) 0.4092(2) 0.1922(2) 0.0456(12) Uani 1 1 d . . .
H12 H 0.3318 0.4434 0.2268 0.055 Uiso 1 1 calc R . .
C13 C 0.83616(18) -0.0855(2) 0.1139(2) 0.0415(11) Uani 1 1 d . . .
H13 H 0.8352 -0.0465 0.0827 0.050 Uiso 1 1 calc R . .
C14 C 0.8862(2) -0.1376(2) 0.1132(3) 0.0508(13) Uani 1 1 d . . .
H14 H 0.9171 -0.1343 0.0818 0.061 Uiso 1 1 calc R . .
C15 C 0.88970(17) -0.1949(2) 0.1602(2) 0.0381(11) Uani 1 1 d . . .
C16 C 0.83982(18) -0.1987(2) 0.2030(2) 0.0418(11) Uani 1 1 d . . .
H16 H 0.8386 -0.2381 0.2339 0.050 Uiso 1 1 calc R . .
C17 C 0.79164(19) -0.1429(2) 0.1993(2) 0.0443(12) Uani 1 1 d . . .
H17 H 0.7591 -0.1449 0.2291 0.053 Uiso 1 1 calc R . .
C18 C 0.9394(2) -0.2508(2) 0.1653(3) 0.0473(12) Uani 1 1 d . . .
H18 H 0.9322 -0.2958 0.1895 0.057 Uiso 1 1 calc R . .
C19 C 0.99609(19) -0.2431(3) 0.1375(3) 0.0533(14) Uani 1 1 d . . .
H19 H 1.0036 -0.1987 0.1126 0.064 Uiso 1 1 calc R . .
C20 C 1.09229(18) -0.4174(2) 0.1867(2) 0.0426(11) Uani 1 1 d . . .
H20 H 1.0890 -0.4596 0.2148 0.051 Uiso 1 1 calc R . .
C21 C 1.04272(19) -0.3671(2) 0.1823(3) 0.0467(12) Uani 1 1 d . . .
H21 H 1.0057 -0.3772 0.2050 0.056 Uiso 1 1 calc R . .
C22 C 1.0468(2) -0.3011(2) 0.1445(3) 0.0470(12) Uani 1 1 d . . .
C23 C 1.10404(18) -0.2891(2) 0.1132(2) 0.0446(12) Uani 1 1 d . . .
H23 H 1.1108 -0.2438 0.0892 0.054 Uiso 1 1 calc R . .
C24 C 1.15061(18) -0.3457(2) 0.1185(2) 0.0394(11) Uani 1 1 d . . .
H24 H 1.1882 -0.3379 0.0961 0.047 Uiso 1 1 calc R . .
C25 C 0.6902(2) -0.0258(3) 0.2967(2) 0.0512(13) Uani 1 1 d D . .
C26 C 0.6621(3) 0.0239(4) 0.3459(3) 0.092(2) Uani 1 1 d D . .
C27 C 0.6953(2) 0.0166(3) 0.0051(2) 0.0472(13) Uani 1 1 d D . .
C28 C 0.6732(3) -0.0397(3) -0.0430(3) 0.083(2) Uani 1 1 d D . .
C29 C 0.8070(2) 0.8557(2) 0.5867(2) 0.0420(11) Uani 1 1 d . . .
H29 H 0.8382 0.8520 0.6179 0.050 Uiso 1 1 calc R . .
C30 C 0.8081(2) 0.8021(2) 0.5387(2) 0.0423(11) Uani 1 1 d . . .
H30 H 0.8393 0.7633 0.5373 0.051 Uiso 1 1 calc R . .
C31 C 0.7612(2) 0.8062(2) 0.4912(2) 0.0391(11) Uani 1 1 d . . .
C32 C 0.7166(2) 0.8674(2) 0.4986(2) 0.0405(11) Uani 1 1 d . . .
H32 H 0.6851 0.8744 0.4681 0.049 Uiso 1 1 calc R . .
C33 C 0.7192(2) 0.9153(2) 0.5486(2) 0.0435(12) Uani 1 1 d . . .
H33 H 0.6871 0.9525 0.5534 0.052 Uiso 1 1 calc R . .
C34 C 0.7601(2) 0.7496(2) 0.4422(2) 0.0410(11) Uani 1 1 d . . .
H34 H 0.7841 0.7042 0.4481 0.049 Uiso 1 1 calc R . .
C35 C 0.7270(2) 0.7555(2) 0.3870(2) 0.0406(12) Uani 1 1 d . . .
H35 H 0.7018 0.7999 0.3805 0.049 Uiso 1 1 calc R . .
C36 C 0.7605(2) 0.5736(2) 0.2955(2) 0.0373(10) Uani 1 1 d . . .
H36 H 0.7833 0.5271 0.3003 0.045 Uiso 1 1 calc R . .
C37 C 0.7632(2) 0.6274(2) 0.3427(2) 0.0413(11) Uani 1 1 d . . .
H37 H 0.7881 0.6182 0.3785 0.050 Uiso 1 1 calc R . .
C38 C 0.7292(2) 0.6954(2) 0.3374(2) 0.0389(11) Uani 1 1 d . . .
C39 C 0.6927(2) 0.7063(2) 0.2838(2) 0.0398(11) Uani 1 1 d . . .
H39 H 0.6676 0.7511 0.2793 0.048 Uiso 1 1 calc R . .
C40 C 0.6943(2) 0.6490(2) 0.2369(2) 0.0406(11) Uani 1 1 d . . .
H40 H 0.6711 0.6573 0.1998 0.049 Uiso 1 1 calc R . .
C41 C 0.8149(2) 0.9002(3) 0.7847(2) 0.0446(12) Uani 1 1 d . . .
H41 H 0.8476 0.9370 0.7856 0.054 Uiso 1 1 calc R . .
C42 C 0.8090(2) 0.8492(3) 0.8343(2) 0.0493(12) Uani 1 1 d . . .
H42 H 0.8364 0.8529 0.8688 0.059 Uiso 1 1 calc R . .
C43 C 0.7634(3) 0.7927(3) 0.8338(2) 0.0526(14) Uani 1 1 d . . .
C44 C 0.7261(3) 0.7889(3) 0.7810(2) 0.0501(13) Uani 1 1 d . . .
H44 H 0.6951 0.7501 0.7776 0.060 Uiso 1 1 calc R . .
C45 C 0.7343(2) 0.8417(2) 0.7335(2) 0.0456(12) Uani 1 1 d . . .
H45 H 0.7090 0.8366 0.6974 0.055 Uiso 1 1 calc R . .
C46 C 0.7493(3) 0.7387(3) 0.8877(3) 0.0625(16) Uani 1 1 d . . .
H46 H 0.7209 0.6978 0.8800 0.075 Uiso 1 1 calc R . .
C47 C 0.7729(3) 0.7434(3) 0.9440(2) 0.0596(16) Uani 1 1 d . . .
H47 H 0.8008 0.7847 0.9519 0.072 Uiso 1 1 calc R . .
C48 C 0.7013(3) 0.5903(3) 1.0462(2) 0.0541(14) Uani 1 1 d . . .
H48 H 0.6671 0.5557 1.0445 0.065 Uiso 1 1 calc R . .
C49 C 0.7102(3) 0.6398(3) 0.9980(2) 0.0574(14) Uani 1 1 d . . .
H49 H 0.6812 0.6397 0.9646 0.069 Uiso 1 1 calc R . .
C50 C 0.7600(3) 0.6904(3) 0.9957(2) 0.0566(15) Uani 1 1 d . . .
C51 C 0.7989(3) 0.6906(3) 1.0484(2) 0.0644(15) Uani 1 1 d . . .
H51 H 0.8332 0.7250 1.0504 0.077 Uiso 1 1 calc R . .
C52 C 0.7868(3) 0.6389(3) 1.0989(2) 0.0580(15) Uani 1 1 d . . .
H52 H 0.8128 0.6404 1.1347 0.070 Uiso 1 1 calc R . .
C53 C 0.6263(2) 1.0176(3) 0.7055(2) 0.0441(12) Uani 1 1 d D . .
C54 C 0.5806(2) 0.9641(3) 0.7363(2) 0.0574(14) Uani 1 1 d D . .
F1 F 0.6013(3) 0.0198(4) 0.3453(4) 0.223(3) Uani 1 1 d DU . .
F2 F 0.6721(5) 0.0076(4) 0.3998(3) 0.239(4) Uani 1 1 d DU . .
F3 F 0.6623(4) 0.0966(3) 0.3425(3) 0.191(3) Uani 1 1 d DU . .
F4 F 0.6462(3) -0.1008(3) -0.0256(3) 0.245(2) Uani 1 1 d DU . .
F5 F 0.6442(4) -0.0106(3) -0.0910(4) 0.176(3) Uani 1 1 d DU . .
F6 F 0.7230(5) -0.0700(5) -0.0723(4) 0.338(5) Uani 1 1 d DU . .
F7 F 0.6013(3) 0.9329(4) 0.7881(3) 0.199(2) Uani 1 1 d DU . .
F8 F 0.5745(3) 0.8954(3) 0.7078(4) 0.200(3) Uani 1 1 d DU . .
F9 F 0.5274(2) 0.9845(3) 0.7461(4) 0.215(3) Uani 1 1 d DU . .
O1 O 0.71385(18) 0.01205(18) 0.2510(2) 0.0515(11) Uani 1 1 d . . .
O2 O 0.68456(19) -0.0937(2) 0.3043(2) 0.0726(12) Uani 1 1 d . . .
O3 O 0.71567(15) -0.01481(17) 0.0531(2) 0.0435(9) Uani 1 1 d . . .
O4 O 0.68607(19) 0.0850(2) -0.00721(18) 0.0618(10) Uani 1 1 d . . .
O5 O 0.66973(18) 0.98484(17) 0.67834(18) 0.0489(9) Uani 1 1 d . . .
O6 O 0.61534(19) 1.0878(2) 0.71385(19) 0.0641(10) Uani 1 1 d . . .
O7 O 0.86603(18) 1.0003(2) 0.6610(3) 0.0634(12) Uani 1 1 d D . .
C55 C 0.9176(4) 1.0309(6) 0.6563(5) 0.077(3) Uiso 0.50 1 d PD A 1
C56 C 0.9687(5) 1.0155(6) 0.7033(5) 0.116(4) Uiso 0.50 1 d PD A 1
O8 O 0.9191(6) 1.0925(6) 0.6242(6) 0.118(4) Uiso 0.50 1 d PD A 1
F11 F 0.9685(4) 0.9506(4) 0.7340(4) 0.104(3) Uiso 0.50 1 d PD A 1
F10 F 1.0256(4) 1.0184(5) 0.6769(5) 0.125(3) Uiso 0.50 1 d PD A 1
F12 F 0.9654(7) 1.0771(6) 0.7416(7) 0.206(7) Uiso 0.50 1 d PD A 1
C55X C 0.9155(4) 0.9760(5) 0.6756(5) 0.063(3) Uiso 0.50 1 d PD A 2
C56X C 0.9684(5) 1.0210(6) 0.6485(6) 0.116(4) Uiso 0.50 1 d PD A 2
O8X O 0.9234(4) 0.9093(4) 0.6964(4) 0.081(2) Uiso 0.50 1 d PD A 2
F10X F 0.9887(8) 1.0830(7) 0.6854(6) 0.265(9) Uiso 0.50 1 d PD A 2
F11X F 1.0165(6) 0.9762(7) 0.6411(7) 0.178(6) Uiso 0.50 1 d PD A 2
F12X F 0.9525(6) 1.0561(6) 0.5950(5) 0.147(4) Uiso 0.50 1 d PD A 2
O1W O 0.9336(4) 0.4295(5) 0.0106(4) 0.169(3) Uani 1 1 d . . .
O2W O 0.3885(9) 0.4656(11) 0.3617(10) 0.117(5) Uiso 0.33 1 d P . .
O3W O 0.9132(10) 0.9692(13) 0.9559(11) 0.130(6) Uiso 0.33 1 d P . .
O4W O 0.9638(9) 0.3212(11) -0.0669(9) 0.125(6) Uiso 0.33 1 d P . .

loop_
_atom_site_aniso_label
_atom_site_aniso_U_11
_atom_site_aniso_U_22
_atom_site_aniso_U_33
_atom_site_aniso_U_23
_atom_site_aniso_U_13
_atom_site_aniso_U_12
Zn1 0.01736(19) 0.0235(2) 0.0547(4) 0.00334(16) -0.0006(2) -0.00078(16)
Zn2 0.0573(3) 0.0243(2) 0.0188(3) -0.00092(16) -0.0007(2) 0.00247(16)
N1 0.0218(14) 0.0323(15) 0.044(2) 0.0012(14) -0.0010(13) 0.0061(13)
N2 0.0182(14) 0.0267(15) 0.064(2) -0.0042(16) -0.0036(14) -0.0007(12)
N3 0.0209(14) 0.0311(16) 0.062(2) 0.0077(17) 0.0005(15) 0.0037(13)
N4 0.0221(15) 0.0251(14) 0.060(2) -0.0021(15) 0.0005(15) 0.0014(12)
N5 0.060(2) 0.0318(16) 0.0173(16) -0.0038(14) -0.0042(15) 0.0050(15)
N6 0.055(2) 0.0345(16) 0.0209(17) -0.0034(14) -0.0003(15) 0.0004(14)
N7 0.057(2) 0.0299(16) 0.0265(18) -0.0001(16) 0.0010(15) 0.0031(15)
N8 0.079(3) 0.0288(16) 0.0216(18) 0.0022(15) -0.0028(17) -0.0045(17)
C1 0.0281(19) 0.0389(19) 0.054(3) -0.0081(19) 0.0001(19) 0.0043(16)
C2 0.0275(19) 0.050(2) 0.050(2) -0.008(2) -0.0054(18) 0.0108(18)
C3 0.0240(18) 0.0312(18) 0.070(3) -0.0016(19) 0.0011(18) 0.0103(16)
C4 0.0289(19) 0.0373(19) 0.064(3) -0.006(2) -0.003(2) 0.0063(16)
C5 0.0248(17) 0.040(2) 0.054(2) 0.004(2) -0.0108(18) 0.0070(16)
C6 0.0248(17) 0.0387(19) 0.056(3) -0.0072(18) 0.0026(18) 0.0114(16)
C7 0.0253(19) 0.042(2) 0.071(3) -0.012(2) 0.005(2) 0.0077(17)
C8 0.0190(17) 0.040(2) 0.077(3) -0.019(2) -0.0049(19) 0.0062(16)
C9 0.041(2) 0.041(2) 0.084(4) -0.019(2) -0.018(2) 0.0158(19)
C10 0.038(2) 0.0329(19) 0.057(3) -0.007(2) -0.006(2) 0.0068(17)
C11 0.0268(18) 0.051(2) 0.063(3) -0.005(2) -0.017(2) 0.0063(18)
C12 0.040(2) 0.043(2) 0.054(3) -0.016(2) -0.003(2) 0.0090(18)
C13 0.029(2) 0.0321(18) 0.063(3) 0.0130(19) 0.008(2) 0.0049(16)
C14 0.037(2) 0.044(2) 0.072(3) 0.007(2) 0.003(2) 0.0123(19)
C15 0.0169(15) 0.0293(17) 0.068(3) 0.0049(19) 0.0005(18) 0.0017(14)
C16 0.033(2) 0.0343(19) 0.058(3) 0.007(2) 0.0015(19) 0.0120(16)
C17 0.0250(18) 0.043(2) 0.065(3) 0.002(2) 0.0024(19) 0.0064(17)
C18 0.046(2) 0.0276(18) 0.069(3) 0.0074(19) 0.007(2) 0.0113(17)
C19 0.025(2) 0.048(2) 0.087(4) 0.006(2) 0.008(2) 0.0089(19)
C20 0.0262(18) 0.042(2) 0.059(3) 0.012(2) 0.0067(19) 0.0023(16)
C21 0.0252(18) 0.046(2) 0.069(3) 0.001(2) 0.005(2) 0.0038(17)
C22 0.037(2) 0.033(2) 0.071(3) 0.000(2) -0.001(2) 0.0102(18)
C23 0.0271(19) 0.0321(18) 0.075(3) 0.003(2) 0.009(2) 0.0099(16)
C24 0.0223(17) 0.0355(19) 0.060(3) 0.0020(19) 0.0080(18) 0.0072(16)
C25 0.047(3) 0.041(2) 0.065(3) 0.006(2) -0.005(2) -0.006(2)
C26 0.122(6) 0.086(4) 0.069(4) -0.006(4) 0.033(4) -0.01