####################################################################### 
# 
# This file contains crystal structure data downloaded from the 
# Cambridge Structural Database (CSD) hosted by the Cambridge 
# Crystallographic Data Centre (CCDC).
# 
# Full information about CCDC data access policies and citation 
# guidelines are available at http://www.ccdc.cam.ac.uk/access/V1 
# 
# Audit and citation data items may have been added by the CCDC. 
# Please retain this information to preserve the provenance of 
# this file and to allow appropriate attribution of the data. 
# 
#######################################################################

data_3
_audit_block_doi                 10.5517/ccwvzd2
_database_code_depnum_ccdc_archive 'CCDC 830285'
loop_
_citation_id
_citation_doi
_citation_year
1 10.1016/j.poly.2012.08.082 2012
_audit_update_record             
;
2011-06-16 deposited with the CCDC.	2024-07-08 downloaded from the CCDC.
;
#TrackingRef '3.CIF'


_audit_creation_method           SHELXL-97
_chemical_name_systematic        
;
?
;
_chemical_name_common            ?
_chemical_melting_point          ?
_chemical_formula_moiety         'C17 H19 Co N3 O9'
_chemical_formula_sum            'C17 H19 Co N3 O9'
_chemical_formula_weight         468.28


loop_
_atom_type_symbol
_atom_type_description
_atom_type_scat_dispersion_real
_atom_type_scat_dispersion_imag
_atom_type_scat_source
C C 0.0033 0.0016 'International Tables Vol C Tables 4.2.6.8 and 6.1.1.4'
Co Co 0.3494 0.9721 'International Tables Vol C Tables 4.2.6.8 and 6.1.1.4'
N N 0.0061 0.0033 'International Tables Vol C Tables 4.2.6.8 and 6.1.1.4'
O O 0.0106 0.0060 'International Tables Vol C Tables 4.2.6.8 and 6.1.1.4'
H H 0.0000 0.0000 'International Tables Vol C Tables 4.2.6.8 and 6.1.1.4'

_symmetry_cell_setting           Monoclinic
_symmetry_space_group_name_H-M   C2/c

loop_
_symmetry_equiv_pos_as_xyz
'x, y, z'
'-x, y, -z+1/2'
'x+1/2, y+1/2, z'
'-x+1/2, y+1/2, -z+1/2'
'-x, -y, -z'
'x, -y, z-1/2'
'-x+1/2, -y+1/2, -z'
'x+1/2, -y+1/2, z-1/2'

_cell_length_a                   20.097(10)
_cell_length_b                   10.151(4)
_cell_length_c                   22.229(10)
_cell_angle_alpha                90.00
_cell_angle_beta                 112.460(8)
_cell_angle_gamma                90.00
_cell_volume                     4191(3)
_cell_formula_units_Z            8
_cell_measurement_temperature    293(2)
_cell_measurement_reflns_used    ?
_cell_measurement_theta_min      ?
_cell_measurement_theta_max      ?

_exptl_crystal_description       block
_exptl_crystal_colour            red
_exptl_crystal_size_max          0.202
_exptl_crystal_size_mid          0.162
_exptl_crystal_size_min          0.135
_exptl_crystal_density_meas      ?
_exptl_crystal_density_diffrn    1.484
_exptl_crystal_density_method    'not measured'
_exptl_crystal_F_000             1928
_exptl_absorpt_coefficient_mu    0.872
_exptl_absorpt_correction_type   Multi-scan
_exptl_absorpt_correction_T_min  0.8599
_exptl_absorpt_correction_T_max  0.9523
_exptl_absorpt_process_details   'Sphere (Rigaku CrystalClear)'

_exptl_special_details           
;
?
;

_diffrn_ambient_temperature      293(2)
_diffrn_radiation_wavelength     0.71073
_diffrn_radiation_type           MoK\a
_diffrn_radiation_source         'fine-focus sealed tube'
_diffrn_radiation_monochromator  graphite
_diffrn_measurement_device_type  'Rigaku Mercury CCD'
_diffrn_measurement_method       \w
_diffrn_detector_area_resol_mean ?
_diffrn_standards_number         ?
_diffrn_standards_interval_count ?
_diffrn_standards_interval_time  ?
_diffrn_standards_decay_%        ?
_diffrn_reflns_number            3893
_diffrn_reflns_av_R_equivalents  0.0000
_diffrn_reflns_av_sigmaI/netI    0.1896
_diffrn_reflns_limit_h_min       -22
_diffrn_reflns_limit_h_max       24
_diffrn_reflns_limit_k_min       0
_diffrn_reflns_limit_k_max       12
_diffrn_reflns_limit_l_min       -26
_diffrn_reflns_limit_l_max       0
_diffrn_reflns_theta_min         2.29
_diffrn_reflns_theta_max         25.50
_reflns_number_total             3865
_reflns_number_gt                1944
_reflns_threshold_expression     >2sigma(I)

_computing_data_collection       'CrystalClear (Rigaku Corp., 2002)'
_computing_cell_refinement       'CrystalClear (Rigaku Corp., 2002)'
_computing_data_reduction        'CrystalClear (Rigaku Corp., 2002)'
_computing_structure_solution    'Siemens SHELXTL^TM^ 5'
_computing_structure_refinement  'Siemens SHELXTL^TM^ 5'
_computing_molecular_graphics    'Bruker SHELXTL'
_computing_publication_material  'Siemens SHELXTL^TM^ 5'

_refine_special_details          
;
Refinement of F^2^ against ALL reflections. The weighted R-factor wR and
goodness of fit S are based on F^2^, conventional R-factors R are based
on F, with F set to zero for negative F^2^. The threshold expression of
F^2^ > 2sigma(F^2^) is used only for calculating R-factors(gt) etc. and is
not relevant to the choice of reflections for refinement. R-factors based
on F^2^ are statistically about twice as large as those based on F, and R-
factors based on ALL data will be even larger.
;

_refine_ls_structure_factor_coef Fsqd
_refine_ls_matrix_type           full
_refine_ls_weighting_scheme      calc
_refine_ls_weighting_details     
'calc w=1/[\s^2^(Fo^2^)+(0.0604P)^2^+0.8245P] where P=(Fo^2^+2Fc^2^)/3'
_atom_sites_solution_primary     direct
_atom_sites_solution_secondary   difmap
_atom_sites_solution_hydrogens   geom
_refine_ls_hydrogen_treatment    ?
_refine_ls_extinction_method     none
_refine_ls_extinction_coef       ?
_refine_ls_number_reflns         3893
_refine_ls_number_parameters     271
_refine_ls_number_restraints     9
_refine_ls_R_factor_all          0.0917
_refine_ls_R_factor_gt           0.0626
_refine_ls_wR_factor_ref         0.1915
_refine_ls_wR_factor_gt          0.1808
_refine_ls_goodness_of_fit_ref   0.936
_refine_ls_restrained_S_all      0.984
_refine_ls_shift/su_max          0.000
_refine_ls_shift/su_mean         0.000

loop_
_atom_site_label
_atom_site_type_symbol
_atom_site_fract_x
_atom_site_fract_y
_atom_site_fract_z
_atom_site_U_iso_or_equiv
_atom_site_adp_type
_atom_site_occupancy
_atom_site_symmetry_multiplicity
_atom_site_calc_flag
_atom_site_refinement_flags
_atom_site_disorder_assembly
_atom_site_disorder_group
Co1 Co -0.30238(2) -0.30570(5) 0.23099(2) 0.01219(13) Uani 1 1 d . . .
O1 O 0.07685(14) -0.1436(3) 0.36355(19) 0.0606(13) Uani 1 1 d . . .
H1B H 0.0681 -0.2215 0.3542 0.091 Uiso 1 1 calc R . .
O1W O 0.06692(16) -0.3960(3) 0.3411(2) 0.0707(14) Uani 1 1 d U . .
O2W O 0.10548(17) -0.4245(3) 0.2388(2) 0.0732(13) Uani 1 1 d U . .
O2 O 0.00879(13) 0.3488(3) 0.34762(14) 0.0304(9) Uani 1 1 d . . .
O3 O -0.23703(12) -0.0109(2) 0.25214(11) 0.0124(7) Uani 1 1 d . . .
O4 O -0.11054(12) 0.3297(2) 0.30055(12) 0.0171(7) Uani 1 1 d . . .
O5 O -0.20156(12) -0.2218(2) 0.26103(11) 0.0142(7) Uani 1 1 d . . .
N1 N -0.10716(14) 0.0774(3) 0.29688(13) 0.0131(8) Uani 1 1 d . . .
N2 N -0.29689(15) -0.3015(3) 0.13661(14) 0.0167(9) Uani 1 1 d . . .
N3 N -0.28754(16) -0.2867(3) 0.33087(14) 0.0175(9) Uani 1 1 d . . .
C1 C -0.3052(3) -0.1808(6) 0.0423(3) 0.0686(16) Uani 1 1 d U . .
H1A H -0.3261 -0.1100 0.0150 0.082 Uiso 1 1 calc R . .
C2 C -0.3213(3) -0.2024(5) 0.0981(2) 0.0579(15) Uani 1 1 d U . .
H2A H -0.3509 -0.1423 0.1076 0.069 Uiso 1 1 calc R . .
C3 C -0.2348(3) -0.3630(5) 0.0691(2) 0.0540(15) Uani 1 1 d . . .
H3A H -0.2027 -0.4221 0.0627 0.065 Uiso 1 1 calc R . .
C4 C -0.2264(2) -0.3325(5) 0.3765(2) 0.0451(15) Uani 1 1 d . . .
H4A H -0.1930 -0.3740 0.3633 0.054 Uiso 1 1 calc R . .
C5 C -0.2110(2) -0.3204(5) 0.4425(2) 0.0429(15) Uani 1 1 d . . .
H5A H -0.1683 -0.3554 0.4721 0.052 Uiso 1 1 calc R . .
C6 C -0.2557(3) -0.3802(5) 0.1196(2) 0.0601(16) Uani 1 1 d . . .
H6A H -0.2390 -0.4554 0.1447 0.072 Uiso 1 1 calc R . .
C7 C -0.2598(2) -0.2618(4) 0.02818(17) 0.0203(11) Uani 1 1 d . . .
C8 C -0.33239(18) -0.2238(4) 0.35319(17) 0.0165(11) Uani 1 1 d . . .
H8A H -0.3748 -0.1892 0.3228 0.020 Uiso 1 1 calc R . .
C9 C -0.25776(19) -0.2575(4) 0.46559(17) 0.0173(10) Uani 1 1 d . . .
C10 C -0.31989(19) -0.2075(4) 0.41685(18) 0.0208(11) Uani 1 1 d . . .
H10A H -0.3533 -0.1622 0.4286 0.025 Uiso 1 1 calc R . .
C11 C -0.04709(19) 0.2839(4) 0.32391(18) 0.0190(11) Uani 1 1 d . . .
C12 C -0.04252(19) 0.1344(4) 0.32125(17) 0.0170(11) Uani 1 1 d . . .
C13 C 0.0202(2) 0.0623(4) 0.3428(2) 0.0293(13) Uani 1 1 d . . .
H13A H 0.0648 0.1038 0.3592 0.035 Uiso 1 1 calc R . .
C14 C 0.0152(2) -0.0734(4) 0.3396(2) 0.0360(15) Uani 1 1 d . . .
C15 C -0.05290(19) -0.1334(4) 0.3136(2) 0.0277(13) Uani 1 1 d . . .
H15A H -0.0575 -0.2246 0.3102 0.033 Uiso 1 1 calc R . .
C16 C -0.11215(18) -0.0539(4) 0.29352(17) 0.0131(10) Uani 1 1 d . . .
C17 C -0.18953(18) -0.0992(4) 0.26686(16) 0.0137(10) Uani 1 1 d . . .
O4W O -0.0158(5) -0.0763(9) 0.4926(4) 0.243(3) Uani 1 1 d U . .
O3W O -0.0479(4) -0.4463(7) 0.5267(3) 0.172(2) Uani 1 1 d U . .

loop_
_atom_site_aniso_label
_atom_site_aniso_U_11
_atom_site_aniso_U_22
_atom_site_aniso_U_33
_atom_site_aniso_U_23
_atom_site_aniso_U_13
_atom_site_aniso_U_12
Co1 0.0120(2) 0.0114(2) 0.0140(2) -0.0003(2) 0.00589(17) 0.0001(2)
O1 0.0130(14) 0.0179(16) 0.132(3) -0.0064(19) 0.0061(17) 0.0047(13)
O1W 0.0352(16) 0.0254(19) 0.155(3) -0.001(2) 0.0405(18) -0.0064(15)
O2W 0.0479(16) 0.0230(19) 0.168(3) -0.002(2) 0.0632(18) 0.0004(15)
O2 0.0129(12) 0.0146(15) 0.0534(19) -0.0031(13) 0.0011(12) -0.0053(11)
O3 0.0114(11) 0.0111(13) 0.0123(13) -0.0020(10) 0.0018(9) -0.0024(10)
O4 0.0129(11) 0.0113(13) 0.0257(14) 0.0010(11) 0.0059(10) -0.0003(10)
O5 0.0195(11) 0.0067(12) 0.0155(12) -0.0007(10) 0.0057(10) -0.0032(10)
N1 0.0112(13) 0.0168(16) 0.0126(15) -0.0034(13) 0.0060(11) -0.0033(12)
N2 0.0229(14) 0.0153(16) 0.0127(15) 0.0031(14) 0.0077(12) 0.0025(14)
N3 0.0238(15) 0.0157(17) 0.0124(16) -0.0002(13) 0.0062(12) 0.0005(13)
C1 0.087(3) 0.066(3) 0.068(2) 0.024(2) 0.0465(19) 0.021(2)
C2 0.092(3) 0.052(3) 0.051(2) 0.013(2) 0.0516(19) 0.034(2)
C3 0.086(3) 0.056(3) 0.046(2) 0.033(2) 0.0545(19) 0.054(2)
C4 0.044(2) 0.066(3) 0.026(2) 0.004(2) 0.0135(19) 0.041(2)
C5 0.042(2) 0.063(3) 0.021(2) -0.001(2) 0.0087(18) 0.038(2)
C6 0.095(3) 0.053(3) 0.060(3) 0.042(2) 0.061(2) 0.057(2)
C7 0.0300(19) 0.016(2) 0.0204(19) -0.0021(17) 0.0158(15) 0.0015(16)
C8 0.0145(16) 0.019(2) 0.0156(19) -0.0008(16) 0.0054(14) 0.0031(15)
C9 0.0238(18) 0.015(2) 0.0160(18) -0.0023(16) 0.0114(15) 0.0003(16)
C10 0.0196(17) 0.024(2) 0.024(2) -0.0063(17) 0.0131(15) -0.0008(17)
C11 0.0190(17) 0.016(2) 0.020(2) -0.0026(17) 0.0057(15) -0.0025(16)
C12 0.0144(16) 0.015(2) 0.019(2) -0.0024(17) 0.0035(15) -0.0001(15)
C13 0.0105(17) 0.021(2) 0.049(3) -0.005(2) 0.0037(18) -0.0038(16)
C14 0.0141(18) 0.019(2) 0.069(3) 0.004(2) 0.009(2) 0.0032(17)
C15 0.0194(18) 0.012(2) 0.050(3) 0.0004(19) 0.0111(18) -0.0014(16)
C16 0.0138(16) 0.0103(18) 0.0147(18) -0.0003(15) 0.0048(14) -0.0033(14)
C17 0.0176(16) 0.0184(19) 0.0089(17) 0.0024(16) 0.0093(13) 0.0003(15)
O4W 0.270(4) 0.260(4) 0.201(4) 0.013(3) 0.094(3) -0.010(4)
O3W 0.157(3) 0.175(4) 0.166(3) -0.034(3) 0.042(3) 0.024(3)

_geom_special_details            
;
All esds (except the esd in the dihedral angle between two l.s. planes)
are estimated using the full covariance matrix. The cell esds are taken
into account individually in the estimation of esds in distances, angles
and torsion angles; correlations between esds in cell parameters are only
used when they are defined by crystal symmetry. An approximate (isotropic)
treatment of cell esds is used for estimating esds involving l.s. planes.
;

loop_
_geom_bond_atom_site_label_1
_geom_bond_atom_site_label_2
_geom_bond_distance
_geom_bond_site_symmetry_2
_geom_bond_publ_flag
Co1 N1 2.059(3) 4_445 ?
Co1 O5 2.060(2) . ?
Co1 O4 2.123(2) 4_445 ?
Co1 N3 2.133(3) . ?
Co1 N2 2.143(3) . ?
Co1 O3 2.209(2) 4_445 ?
O1 C14 1.350(5) . ?
O2 C11 1.233(4) . ?
O3 C17 1.259(4) . ?
O3 Co1 2.209(2) 4_455 ?
O4 C11 1.267(4) . ?
O4 Co1 2.123(2) 4_455 ?
O5 C17 1.265(4) . ?
N1 C12 1.334(4) . ?
N1 C16 1.337(5) . ?
N1 Co1 2.059(3) 4_455 ?
N2 C2 1.290(6) . ?
N2 C6 1.306(6) . ?
N3 C4 1.343(5) . ?
N3 C8 1.345(5) . ?
C1 C7 1.351(7) . ?
C1 C2 1.414(8) . ?
C3 C7 1.336(6) . ?
C3 C6 1.352(7) . ?
C4 C5 1.383(6) . ?
C5 C9 1.386(6) . ?
C7 C7 1.470(8) 7_445 ?
C8 C10 1.349(5) . ?
C9 C10 1.399(5) . ?
C9 C9 1.448(7) 7_446 ?
C11 C12 1.522(5) . ?
C12 C13 1.376(5) . ?
C13 C14 1.380(6) . ?
C14 C15 1.405(5) . ?
C15 C16 1.364(5) . ?
C16 C17 1.509(5) . ?
O4W O4W 1.659(18) 5_556 ?

loop_
_geom_angle_atom_site_label_1
_geom_angle_atom_site_label_2
_geom_angle_atom_site_label_3
_geom_angle
_geom_angle_site_symmetry_1
_geom_angle_site_symmetry_3
_geom_angle_publ_flag
N1 Co1 O5 169.18(11) 4_445 . ?
N1 Co1 O4 75.65(11) 4_445 4_445 ?
O5 Co1 O4 115.10(10) . 4_445 ?
N1 Co1 N3 96.98(12) 4_445 . ?
O5 Co1 N3 84.04(11) . . ?
O4 Co1 N3 93.16(11) 4_445 . ?
N1 Co1 N2 94.97(12) 4_445 . ?
O5 Co1 N2 84.09(11) . . ?
O4 Co1 N2 90.46(11) 4_445 . ?
N3 Co1 N2 168.03(11) . . ?
N1 Co1 O3 74.07(10) 4_445 4_445 ?
O5 Co1 O3 95.17(9) . 4_445 ?
O4 Co1 O3 149.72(9) 4_445 4_445 ?
N3 Co1 O3 90.57(10) . 4_445 ?
N2 Co1 O3 92.05(11) . 4_445 ?
C17 O3 Co1 116.2(2) . 4_455 ?
C11 O4 Co1 118.1(2) . 4_455 ?
C17 O5 Co1 124.5(2) . . ?
C12 N1 C16 119.8(3) . . ?
C12 N1 Co1 118.9(2) . 4_455 ?
C16 N1 Co1 121.3(2) . 4_455 ?
C2 N2 C6 114.1(4) . . ?
C2 N2 Co1 121.1(3) . . ?
C6 N2 Co1 123.1(3) . . ?
C4 N3 C8 115.7(3) . . ?
C4 N3 Co1 118.6(3) . . ?
C8 N3 Co1 125.5(2) . . ?
C7 C1 C2 120.7(5) . . ?
N2 C2 C1 123.1(5) . . ?
C7 C3 C6 120.6(5) . . ?
N3 C4 C5 122.6(4) . . ?
C4 C5 C9 121.7(4) . . ?
N2 C6 C3 126.4(4) . . ?
C3 C7 C1 115.0(5) . . ?
C3 C7 C7 123.4(5) . 7_445 ?
C1 C7 C7 121.6(5) . 7_445 ?
N3 C8 C10 124.2(3) . . ?
C5 C9 C10 114.2(4) . . ?
C5 C9 C9 122.5(4) . 7_446 ?
C10 C9 C9 123.3(5) . 7_446 ?
C8 C10 C9 121.4(4) . . ?
O2 C11 O4 126.0(4) . . ?
O2 C11 C12 119.4(3) . . ?
O4 C11 C12 114.6(3) . . ?
N1 C12 C13 122.0(4) . . ?
N1 C12 C11 112.6(3) . . ?
C13 C12 C11 125.3(3) . . ?
C12 C13 C14 118.3(3) . . ?
O1 C14 C13 117.9(3) . . ?
O1 C14 C15 122.4(4) . . ?
C13 C14 C15 119.6(4) . . ?
C16 C15 C14 118.0(4) . . ?
N1 C16 C15 122.3(3) . . ?
N1 C16 C17 111.7(3) . . ?
C15 C16 C17 126.0(3) . . ?
O3 C17 O5 125.3(3) . . ?
O3 C17 C16 116.8(3) . . ?
O5 C17 C16 117.9(3) . . ?

loop_
_geom_hbond_atom_site_label_D
_geom_hbond_atom_site_label_H
_geom_hbond_atom_site_label_A
_geom_hbond_distance_DH
_geom_hbond_distance_HA
_geom_hbond_distance_DA
_geom_hbond_angle_DHA
_geom_hbond_site_symmetry_A
O1 H1B O1W 0.82 1.79 2.603(5) 169.2 .

_diffrn_measured_fraction_theta_max 0.995
_diffrn_reflns_theta_full        25.50
_diffrn_measured_fraction_theta_full 0.995
_refine_diff_density_max         1.367
_refine_diff_density_min         -0.632
_refine_diff_density_rms         0.119
