####################################################################### 
# 
# This file contains crystal structure data downloaded from the 
# Cambridge Structural Database (CSD) hosted by the Cambridge 
# Crystallographic Data Centre (CCDC).
# 
# Full information about CCDC data access policies and citation 
# guidelines are available at http://www.ccdc.cam.ac.uk/access/V1 
# 
# Audit and citation data items may have been added by the CCDC. 
# Please retain this information to preserve the provenance of 
# this file and to allow appropriate attribution of the data. 
# 
#######################################################################

data_BELJIL
#This CIF has been generated from an entry in the Cambridge Structural Database
_database_code_depnum_ccdc_archive 'CCDC 1108399'
_database_code_CSD               BELJIL
loop_
_citation_id
_citation_doi
_citation_year
1 10.1016/S0020-1693(00)85786-2 1982
_audit_creation_method           'Created from the CSD'
_audit_update_record             
;
2024-07-08 downloaded from the CCDC.
;
_database_code_NBS               541651
_chemical_formula_moiety         '(C13 H15 Cu1 N2 O4)n,2n(H2 O1)'
_chemical_name_systematic        
'catena-[(\m~3~-Pyridoxylidene-DL-valinato)-copper(ii) dihydrate]'
_chemical_absolute_configuration unk
_diffrn_ambient_temperature      295
_exptl_crystal_density_diffrn    1.429
#These two values have been output from a single CSD field.
_refine_ls_R_factor_gt           0.08
_refine_ls_wR_factor_gt          0.08
_diffrn_radiation_probe          x-ray
_symmetry_cell_setting           rhombohedral
_symmetry_space_group_name_H-M   'R -3'
_symmetry_Int_Tables_number      148
_space_group_name_Hall           '-R 3'
loop_
_symmetry_equiv_pos_site_id
_symmetry_equiv_pos_as_xyz
1 x,y,z
2 1/3+x,2/3+y,2/3+z
3 2/3+x,1/3+y,1/3+z
4 -y,x-y,z
5 -x+y,-x,z
6 1/3-y,2/3+x-y,2/3+z
7 1/3-x+y,2/3-x,2/3+z
8 2/3-y,1/3+x-y,1/3+z
9 2/3-x+y,1/3-x,1/3+z
10 -x,-y,-z
11 2/3-x,1/3-y,1/3-z
12 1/3-x,2/3-y,2/3-z
13 y,-x+y,-z
14 x-y,x,-z
15 2/3+y,1/3-x+y,1/3-z
16 2/3+x-y,1/3+x,1/3-z
17 1/3+y,2/3-x+y,2/3-z
18 1/3+x-y,2/3+x,2/3-z
_cell_length_a                   25.640(2)
_cell_length_b                   25.640(2)
_cell_length_c                   13.326(2)
_cell_angle_alpha                90
_cell_angle_beta                 90
_cell_angle_gamma                120
_cell_volume                     7586.94
_exptl_crystal_colour            'dark green'
_cell_formula_units_Z            18
loop_
_atom_site_label
_atom_site_type_symbol
_atom_site_fract_x
_atom_site_fract_y
_atom_site_fract_z
Cu1 Cu -0.43230 0.03860 -0.73140
O1 O -0.40410 0.09180 -0.58060
O2 O -0.59350 0.01220 -0.32590
O3 O -0.53180 -0.08300 -0.20600
O4 O -0.44420 -0.07890 -0.17110
N1 N -0.57810 0.10841 -0.53020
N2 N -0.48450 0.01580 -0.30710
C1 C -0.56820 0.04930 -0.40160
C2 C -0.60130 0.06991 -0.45290
C3 C -0.66240 0.05211 -0.42120
C4 C -0.52120 0.12731 -0.56060
C5 C -0.48539 0.11011 -0.51850
C6 C -0.41770 0.13610 -0.55220
C7 C -0.50670 0.06870 -0.43360
C8 C -0.46680 0.05480 -0.38400
C9 C -0.44080 0.00590 -0.25400
C10 C -0.47260 -0.05740 -0.20680
C11 C -0.40580 0.05360 -0.17700
C12 C -0.36480 0.11740 -0.21890
C13 C -0.45050 0.05760 -0.10210
H1 H -0.65900 0.06801 -0.34800
H2 H -0.68700 0.00701 -0.42100
H3 H -0.68800 0.06801 -0.45700
H4 H -0.50400 0.15701 -0.62500
H5 H -0.39100 0.16200 -0.49300
H6 H -0.41000 0.16700 -0.61000
H7 H -0.42000 0.05000 -0.40000
H8 H -0.40700 0.00800 -0.30500
H9 H -0.38000 0.04100 -0.13400
H10 H -0.36800 0.11800 -0.29300
H11 H -0.32100 0.13300 -0.19800
H12 H -0.39300 0.12300 -0.17000
H13 H -0.47600 0.07300 -0.14100
H14 H -0.42800 0.08800 -0.04500
H15 H -0.47800 0.01700 -0.07400
N1Q N -0.35318 0.08857 -0.80313
Cu1P Cu -0.62807 0.13757 -0.60193
O2I O -0.40650 -0.01220 -0.67410
N2I N -0.51550 -0.01580 -0.69290
Cu1I Cu -0.56770 -0.03860 -0.26860
O3I O -0.46820 0.08300 -0.79400
O5 O -0.40210 0.21050 -0.85680
O6 O -0.42690 0.29690 -1.00060

#END
