
#######################################################################
#
#                 Cambridge Crystallographic Data Centre
#                                CCDC
#
#######################################################################
#
# If this CIF has been generated from an entry in the Cambridge
# Structural Database, then it will include bibliographic, chemical,
# crystal, experimental, refinement or atomic coordinate data resulting
# from the CCDC's data processing and validation procedures.
#
#######################################################################

data_CSD_CIF_BENZAC01
_audit_creation_date 1980-12-11
_audit_creation_method CSD-ConQuest-V1
_database_code_CSD BENZAC01
_database_code_depnum_ccdc_archive 'CCDC 1108733'
_chemical_formula_sum 'C7 H6 O2'
_chemical_formula_moiety
;
C7 H6 O2
;
_journal_coeditor_code "IUCr A18980"
_journal_coden_Cambridge 107
_journal_volume 36
_journal_year 1980
_journal_page_first 1711
_journal_name_full 'Acta Crystallogr.,Sect.B:Struct.Crystallogr.Cryst.Chem. '
loop_
_publ_author_name
"G.Bruno"
"L.Randaccio"
_chemical_name_systematic
;
Benzoic acid
;
_chemical_name_common
;
DrugBank: DB03793; Teaching Subset: Fundamental Chemistry
;
_cell_volume    619.150
_exptl_crystal_density_diffrn 1.31
_diffrn_ambient_temperature ?
_diffrn_special_details
;
The study was carried out at room temperature,in the range 283-303K

;
_refine_special_details
;
Carboxylic acid group H atom is 2-fold disordered. One position has been 
retained in the file.
;
#These two values have been output from a single CSD field.
_refine_ls_R_factor_gt 0.038
_refine_ls_wR_factor_gt 0.038
_symmetry_cell_setting monoclinic
_symmetry_space_group_name_H-M 'P 21/c'
_symmetry_Int_Tables_number 14
loop_
_symmetry_equiv_pos_site_id
_symmetry_equiv_pos_as_xyz
1 x,y,z
2 -x,1/2+y,1/2-z
3 -x,-y,-z
4 x,-1/2-y,-1/2+z
_cell_length_a 5.510(5)
_cell_length_b 5.157(6)
_cell_length_c 21.973(8)
_cell_angle_alpha 90
_cell_angle_beta 97.41(8)
_cell_angle_gamma 90
_cell_formula_units_Z 4
loop_
_atom_type_symbol
_atom_type_radius_bond
C 0.68
H 0.23
O 0.68
loop_
_atom_site_label
_atom_site_type_symbol
_atom_site_fract_x
_atom_site_fract_y
_atom_site_fract_z
O1 O 0.22130 0.23720 0.01320
O2 O -0.09080 0.14100 0.06470
C1 C 0.10010 0.27130 0.05760
C2 C 0.18160 0.47400 0.10370
C3 C 0.38490 0.62650 0.09700
C4 C 0.45960 0.81820 0.14060
C5 C 0.33170 0.85340 0.19020
C6 C 0.12990 0.70240 0.19650
C7 C 0.05330 0.51330 0.15340
H1 H 0.47300 0.59900 0.06100
H2 H 0.60600 0.92400 0.13600
H3 H 0.38200 0.99100 0.22100
H4 H 0.04100 0.73000 0.23200
H5 H -0.09100 0.40500 0.15800
H6 H -0.13600 0.01300 0.03800
#END
