####################################################################### 
# 
# This file contains crystal structure data downloaded from the 
# Cambridge Structural Database (CSD) hosted by the Cambridge 
# Crystallographic Data Centre (CCDC).
# 
# Full information about CCDC data access policies and citation 
# guidelines are available at http://www.ccdc.cam.ac.uk/access/V1 
# 
# Audit and citation data items may have been added by the CCDC. 
# Please retain this information to preserve the provenance of 
# this file and to allow appropriate attribution of the data. 
# 
#######################################################################

data_AlaZnFor200K
_audit_block_doi                 10.5517/cczts0k
_database_code_depnum_ccdc_archive 'CCDC 918499'
loop_
_citation_id
_citation_doi
_citation_year
1 10.1039/c3cc41842a 2013
_audit_update_record             
;
2013-01-08 deposited with the CCDC.	2024-07-08 downloaded from the CCDC.
;
_audit_creation_method           SHELXL-97
_chemical_name_systematic        
;
?
;
_chemical_name_common            AlaZnFor
_chemical_melting_point          ?
_chemical_formula_moiety         'C10 H12 N2 O4 Zn, O'
_chemical_formula_sum            'C10 H12 N2 O5 Zn'
_chemical_formula_weight         305.61
_chemical_absolute_configuration syn
loop_
_atom_type_symbol
_atom_type_description
_atom_type_scat_dispersion_real
_atom_type_scat_dispersion_imag
_atom_type_scat_source
C C 0.0033 0.0016 'International Tables Vol C Tables 4.2.6.8 and 6.1.1.4'
H H 0.0000 0.0000 'International Tables Vol C Tables 4.2.6.8 and 6.1.1.4'
N N 0.0061 0.0033 'International Tables Vol C Tables 4.2.6.8 and 6.1.1.4'
O O 0.0106 0.0060 'International Tables Vol C Tables 4.2.6.8 and 6.1.1.4'
Zn Zn 0.2839 1.4301 'International Tables Vol C Tables 4.2.6.8 and 6.1.1.4'

_symmetry_cell_setting           Hexagonal
_symmetry_space_group_name_H-M   P61

loop_
_symmetry_equiv_pos_as_xyz
'x, y, z'
'x-y, x, z+1/6'
'-y, x-y, z+1/3'
'-x, -y, z+1/2'
'-x+y, -x, z+2/3'
'y, -x+y, z+5/6'

_cell_length_a                   17.5911(7)
_cell_length_b                   17.5911(7)
_cell_length_c                   10.1716(3)
_cell_angle_alpha                90.00
_cell_angle_beta                 90.00
_cell_angle_gamma                120.00
_cell_volume                     2725.88(18)
_cell_formula_units_Z            6
_cell_measurement_temperature    200(2)
_cell_measurement_reflns_used    ?
_cell_measurement_theta_min      ?
_cell_measurement_theta_max      29.110

_exptl_crystal_description       rod
_exptl_crystal_colour            colorless
_exptl_crystal_size_max          0.6
_exptl_crystal_size_mid          0.2
_exptl_crystal_size_min          0.2
_exptl_crystal_density_meas      ?
_exptl_crystal_density_diffrn    1.117
_exptl_crystal_density_method    'not measured'
_exptl_crystal_F_000             936
_exptl_absorpt_coefficient_mu    1.361
_exptl_absorpt_correction_type   multi-scan
_exptl_absorpt_correction_T_min  0.729
_exptl_absorpt_correction_T_max  0.762
_exptl_absorpt_process_details   'Blessing, Acta Cryst. (1995) A51 33-38'

_exptl_special_details           
;
?
;

_diffrn_ambient_temperature      200(2)
_diffrn_radiation_wavelength     0.71073
_diffrn_radiation_type           MoK\a
_diffrn_radiation_source         'fine-focus sealed tube'
_diffrn_radiation_monochromator  graphite
_diffrn_measurement_device_type  'CCD area detector'
_diffrn_measurement_method       'phi and omega scans'
_diffrn_detector_area_resol_mean ?
_diffrn_standards_number         ?
_diffrn_standards_interval_count ?
_diffrn_standards_interval_time  ?
_diffrn_standards_decay_%        ?
_diffrn_reflns_number            8057
_diffrn_reflns_av_R_equivalents  0.0293
_diffrn_reflns_av_sigmaI/netI    0.0495
_diffrn_reflns_limit_h_min       -19
_diffrn_reflns_limit_h_max       20
_diffrn_reflns_limit_k_min       -22
_diffrn_reflns_limit_k_max       12
_diffrn_reflns_limit_l_min       -7
_diffrn_reflns_limit_l_max       12
_diffrn_reflns_theta_min         3.06
_diffrn_reflns_theta_max         29.11
_reflns_number_total             3676
_reflns_number_gt                3107
_reflns_threshold_expression     >2sigma(I)

_computing_data_collection       'Bruker SMART'
_computing_cell_refinement       'Bruker SMART'
_computing_data_reduction        'Bruker SAINT'
_computing_structure_solution    'SHELXS-97 (Sheldrick, 1990)'
_computing_structure_refinement  'SHELXL-97 (Sheldrick, 1997)'
_computing_molecular_graphics    'Bruker SHELXTL'
_computing_publication_material  'Bruker SHELXTL'

_refine_special_details          
;
Refinement of F^2^ against ALL reflections. The weighted R-factor wR and
goodness of fit S are based on F^2^, conventional R-factors R are based
on F, with F set to zero for negative F^2^. The threshold expression of
F^2^ > 2sigma(F^2^) is used only for calculating R-factors(gt) etc. and is
not relevant to the choice of reflections for refinement. R-factors based
on F^2^ are statistically about twice as large as those based on F, and R-
factors based on ALL data will be even larger.
;

_refine_ls_structure_factor_coef Fsqd
_refine_ls_matrix_type           full
_refine_ls_weighting_scheme      calc
_refine_ls_weighting_details     
'calc w=1/[\s^2^(Fo^2^)+(0.1569P)^2^+0.0000P] where P=(Fo^2^+2Fc^2^)/3'
_atom_sites_solution_primary     direct
_atom_sites_solution_secondary   difmap
_atom_sites_solution_hydrogens   geom
_refine_ls_hydrogen_treatment    constr
_refine_ls_extinction_method     none
_refine_ls_extinction_coef       ?
_refine_ls_abs_structure_details 'Flack H D (1983), Acta Cryst. A39, 876-881'
_refine_ls_abs_structure_Flack   0.00(3)
_refine_ls_number_reflns         3676
_refine_ls_number_parameters     164
_refine_ls_number_restraints     1
_refine_ls_R_factor_all          0.0805
_refine_ls_R_factor_gt           0.0666
_refine_ls_wR_factor_ref         0.2128
_refine_ls_wR_factor_gt          0.1949
_refine_ls_goodness_of_fit_ref   1.069
_refine_ls_restrained_S_all      1.069
_refine_ls_shift/su_max          0.001
_refine_ls_shift/su_mean         0.000

loop_
_atom_site_label
_atom_site_type_symbol
_atom_site_fract_x
_atom_site_fract_y
_atom_site_fract_z
_atom_site_U_iso_or_equiv
_atom_site_adp_type
_atom_site_occupancy
_atom_site_symmetry_multiplicity
_atom_site_calc_flag
_atom_site_refinement_flags
_atom_site_disorder_assembly
_atom_site_disorder_group
C1 C 0.2781(6) 0.7818(5) 0.1677(7) 0.061(3) Uani 1 1 d . . .
H1A H 0.3017 0.7789 0.2481 0.073 Uiso 1 1 calc R . .
C2 C 0.1894(5) 0.7203(5) 0.1394(8) 0.053(2) Uani 1 1 d . . .
H2 H 0.1553 0.6782 0.2016 0.064 Uiso 1 1 calc R . .
C3 C 0.1529(5) 0.7225(5) 0.0195(7) 0.0452(18) Uani 1 1 d . . .
C4 C 0.2069(5) 0.7892(5) -0.0665(7) 0.0419(17) Uani 1 1 d . . .
H4 H 0.1847 0.7948 -0.1466 0.050 Uiso 1 1 calc R . .
C5 C 0.2926(5) 0.8469(4) -0.0340(7) 0.0403(15) Uani 1 1 d . . .
H5 H 0.3276 0.8901 -0.0944 0.048 Uiso 1 1 calc R . .
C6 C 0.4096(5) 1.0615(4) 0.1485(7) 0.0413(16) Uani 1 1 d . . .
H6A H 0.3662 1.0192 0.2086 0.050 Uiso 1 1 calc R . .
H6B H 0.3852 1.0481 0.0605 0.050 Uiso 1 1 calc R . .
C7 C 0.5563(5) 1.1117(4) 0.0552(6) 0.0343(15) Uani 1 1 d . . .
H7 H 0.5481 1.1615 0.0346 0.041 Uiso 1 1 calc R . .
C8 C 0.4600(4) 0.9441(4) 0.4306(6) 0.0281(13) Uani 1 1 d . . .
C9 C 0.5889(7) 0.8888(6) 0.1995(9) 0.060(2) Uani 1 1 d . . .
H9 H 0.6179 0.8567 0.2015 0.072 Uiso 1 1 calc R . .
C10 C 0.6483(6) 1.1454(6) 0.1053(8) 0.061(3) Uani 1 1 d . . .
H10A H 0.6508 1.1588 0.1972 0.091 Uiso 1 1 calc R . .
H10B H 0.6882 1.1975 0.0579 0.091 Uiso 1 1 calc R . .
H10C H 0.6647 1.1014 0.0927 0.091 Uiso 1 1 calc R . .
N1 N 0.4902(4) 1.0550(3) 0.1533(5) 0.0289(11) Uani 1 1 d . . .
H1 H 0.5145 1.0729 0.2345 0.035 Uiso 1 1 calc R . .
N2 N 0.3285(4) 0.8437(4) 0.0816(5) 0.0417(15) Uani 1 1 d . . .
O1 O 0.4234(4) 0.8980(3) 0.3273(4) 0.0377(11) Uani 1 1 d . . .
O2 O 0.4968(3) 0.9746(3) -0.0633(4) 0.0318(10) Uani 1 1 d . . .
O3 O 0.5189(4) 0.8586(3) 0.1272(6) 0.0526(14) Uani 1 1 d . . .
O4 O 0.6208(5) 0.9580(5) 0.2669(8) 0.079(2) Uani 1 1 d . . .
O5 O 0.7864(11) 1.0081(15) 0.360(2) 0.266(13) Uani 1 1 d . . .
Zn1 Zn 0.45667(5) 0.92464(4) 0.13091(9) 0.0303(2) Uani 1 1 d . . .

loop_
_atom_site_aniso_label
_atom_site_aniso_U_11
_atom_site_aniso_U_22
_atom_site_aniso_U_33
_atom_site_aniso_U_23
_atom_site_aniso_U_13
_atom_site_aniso_U_12
C1 0.070(5) 0.047(4) 0.015(3) 0.009(3) -0.003(3) -0.008(4)
C2 0.052(4) 0.056(4) 0.016(3) 0.002(3) -0.001(3) 0.001(3)
C3 0.047(4) 0.047(4) 0.021(3) -0.001(3) 0.004(3) 0.008(3)
C4 0.053(4) 0.046(4) 0.024(4) 0.007(2) 0.001(3) 0.023(3)
C5 0.055(4) 0.037(3) 0.015(3) 0.005(2) 0.005(3) 0.012(3)
C6 0.070(5) 0.033(3) 0.020(3) -0.001(2) -0.004(3) 0.025(3)
C7 0.050(4) 0.023(3) 0.010(3) 0.001(2) 0.004(2) 0.003(3)
C8 0.041(3) 0.028(3) 0.010(3) -0.004(2) -0.0026(19) 0.013(3)
C9 0.092(7) 0.062(6) 0.039(5) -0.001(4) 0.002(4) 0.049(5)
C10 0.060(5) 0.053(5) 0.026(4) -0.009(3) -0.004(3) -0.003(4)
N1 0.048(3) 0.023(2) 0.009(2) -0.0028(16) 0.0035(19) 0.013(2)
N2 0.050(4) 0.032(3) 0.015(3) 0.001(2) -0.002(2) 0.000(3)
O1 0.055(3) 0.026(2) 0.008(2) 0.0016(15) -0.0044(17) 0.003(2)
O2 0.048(3) 0.026(2) 0.011(2) -0.0010(14) 0.0013(15) 0.0101(19)
O3 0.092(4) 0.047(3) 0.028(3) 0.002(2) 0.004(3) 0.042(3)
O4 0.067(4) 0.075(5) 0.088(6) -0.032(4) -0.006(4) 0.031(4)
O5 0.133(12) 0.37(3) 0.35(3) -0.24(2) -0.107(14) 0.163(16)
Zn1 0.0477(5) 0.0232(3) 0.0100(3) -0.0003(2) -0.0003(3) 0.0101(3)

_geom_special_details            
;
All esds (except the esd in the dihedral angle between two l.s. planes)
are estimated using the full covariance matrix. The cell esds are taken
into account individually in the estimation of esds in distances, angles
and torsion angles; correlations between esds in cell parameters are only
used when they are defined by crystal symmetry. An approximate (isotropic)
treatment of cell esds is used for estimating esds involving l.s. planes.
;

loop_
_geom_bond_atom_site_label_1
_geom_bond_atom_site_label_2
_geom_bond_distance
_geom_bond_site_symmetry_2
_geom_bond_publ_flag
C1 N2 1.332(9) . ?
C1 C2 1.414(11) . ?
C1 H1A 0.9300 . ?
C2 C3 1.388(11) . ?
C2 H2 0.9300 . ?
C3 C4 1.389(10) . ?
C3 C6 1.509(10) 6_454 ?
C4 C5 1.372(11) . ?
C4 H4 0.9300 . ?
C5 N2 1.349(9) . ?
C5 H5 0.9300 . ?
C6 N1 1.480(10) . ?
C6 C3 1.508(10) 2_665 ?
C6 H6A 0.9700 . ?
C6 H6B 0.9700 . ?
C7 N1 1.477(7) . ?
C7 C10 1.507(12) . ?
C7 C8 1.540(9) 4_674 ?
C7 H7 0.9800 . ?
C8 O2 1.241(8) 4_675 ?
C8 O1 1.286(7) . ?
C8 C7 1.540(9) 4_675 ?
C9 O4 1.260(12) . ?
C9 O3 1.298(12) . ?
C9 H9 0.9300 . ?
C10 H10A 0.9600 . ?
C10 H10B 0.9600 . ?
C10 H10C 0.9600 . ?
N1 Zn1 2.076(4) . ?
N1 H1 0.9100 . ?
N2 Zn1 2.038(6) . ?
O1 Zn1 2.068(4) . ?
O2 C8 1.242(8) 4_674 ?
O2 Zn1 2.134(4) . ?
O3 Zn1 1.956(6) . ?

loop_
_geom_angle_atom_site_label_1
_geom_angle_atom_site_label_2
_geom_angle_atom_site_label_3
_geom_angle
_geom_angle_site_symmetry_1
_geom_angle_site_symmetry_3
_geom_angle_publ_flag
N2 C1 C2 121.4(7) . . ?
N2 C1 H1A 119.3 . . ?
C2 C1 H1A 119.3 . . ?
C3 C2 C1 120.4(7) . . ?
C3 C2 H2 119.8 . . ?
C1 C2 H2 119.8 . . ?
C2 C3 C4 116.5(7) . . ?
C2 C3 C6 121.2(6) . 6_454 ?
C4 C3 C6 122.2(7) . 6_454 ?
C5 C4 C3 120.5(7) . . ?
C5 C4 H4 119.7 . . ?
C3 C4 H4 119.7 . . ?
N2 C5 C4 122.9(6) . . ?
N2 C5 H5 118.6 . . ?
C4 C5 H5 118.6 . . ?
N1 C6 C3 110.0(6) . 2_665 ?
N1 C6 H6A 109.7 . . ?
C3 C6 H6A 109.7 2_665 . ?
N1 C6 H6B 109.7 . . ?
C3 C6 H6B 109.7 2_665 . ?
H6A C6 H6B 108.2 . . ?
N1 C7 C10 111.4(6) . . ?
N1 C7 C8 107.1(5) . 4_674 ?
C10 C7 C8 110.5(6) . 4_674 ?
N1 C7 H7 109.3 . . ?
C10 C7 H7 109.3 . . ?
C8 C7 H7 109.3 4_674 . ?
O2 C8 O1 126.4(6) 4_675 . ?
O2 C8 C7 120.3(5) 4_675 4_675 ?
O1 C8 C7 113.3(5) . 4_675 ?
O4 C9 O3 125.2(9) . . ?
O4 C9 H9 117.4 . . ?
O3 C9 H9 117.4 . . ?
C7 C10 H10A 109.5 . . ?
C7 C10 H10B 109.5 . . ?
H10A C10 H10B 109.5 . . ?
C7 C10 H10C 109.5 . . ?
H10A C10 H10C 109.5 . . ?
H10B C10 H10C 109.5 . . ?
C7 N1 C6 112.8(5) . . ?
C7 N1 Zn1 111.4(4) . . ?
C6 N1 Zn1 109.1(4) . . ?
C7 N1 H1 107.8 . . ?
C6 N1 H1 107.8 . . ?
Zn1 N1 H1 107.8 . . ?
C1 N2 C5 118.2(6) . . ?
C1 N2 Zn1 117.5(5) . . ?
C5 N2 Zn1 124.2(4) . . ?
C8 O1 Zn1 130.6(4) . . ?
C8 O2 Zn1 114.0(4) 4_674 . ?
C9 O3 Zn1 116.4(5) . . ?
O3 Zn1 N2 109.4(3) . . ?
O3 Zn1 O1 93.6(2) . . ?
N2 Zn1 O1 89.5(2) . . ?
O3 Zn1 N1 136.4(3) . . ?
N2 Zn1 N1 113.8(3) . . ?
O1 Zn1 N1 92.09(19) . . ?
O3 Zn1 O2 93.4(2) . . ?
N2 Zn1 O2 94.7(2) . . ?
O1 Zn1 O2 170.19(18) . . ?
N1 Zn1 O2 78.10(17) . . ?

loop_
_geom_torsion_atom_site_label_1
_geom_torsion_atom_site_label_2
_geom_torsion_atom_site_label_3
_geom_torsion_atom_site_label_4
_geom_torsion
_geom_torsion_site_symmetry_1
_geom_torsion_site_symmetry_2
_geom_torsion_site_symmetry_3
_geom_torsion_site_symmetry_4
_geom_torsion_publ_flag
N2 C1 C2 C3 0.8(16) . . . . ?
C1 C2 C3 C4 -2.2(14) . . . . ?
C1 C2 C3 C6 173.5(9) . . . 6_454 ?
C2 C3 C4 C5 2.5(12) . . . . ?
C6 C3 C4 C5 -173.2(8) 6_454 . . . ?
C3 C4 C5 N2 -1.4(13) . . . . ?
C10 C7 N1 C6 147.2(6) . . . . ?
C8 C7 N1 C6 -91.8(6) 4_674 . . . ?
C10 C7 N1 Zn1 -89.7(6) . . . . ?
C8 C7 N1 Zn1 31.3(7) 4_674 . . . ?
C3 C6 N1 C7 -64.7(7) 2_665 . . . ?
C3 C6 N1 Zn1 170.9(4) 2_665 . . . ?
C2 C1 N2 C5 0.4(14) . . . . ?
C2 C1 N2 Zn1 -177.3(8) . . . . ?
C4 C5 N2 C1 -0.1(13) . . . . ?
C4 C5 N2 Zn1 177.4(6) . . . . ?
O2 C8 O1 Zn1 28.1(11) 4_675 . . . ?
C7 C8 O1 Zn1 -153.4(5) 4_675 . . . ?
O4 C9 O3 Zn1 -2.6(13) . . . . ?
C9 O3 Zn1 N2 -155.7(6) . . . . ?
C9 O3 Zn1 O1 -65.0(6) . . . . ?
C9 O3 Zn1 N1 31.9(8) . . . . ?
C9 O3 Zn1 O2 108.1(6) . . . . ?
C1 N2 Zn1 O3 70.1(7) . . . . ?
C5 N2 Zn1 O3 -107.4(7) . . . . ?
C1 N2 Zn1 O1 -23.5(7) . . . . ?
C5 N2 Zn1 O1 158.9(7) . . . . ?
C1 N2 Zn1 N1 -115.6(7) . . . . ?
C5 N2 Zn1 N1 66.9(7) . . . . ?
C1 N2 Zn1 O2 165.4(7) . . . . ?
C5 N2 Zn1 O2 -12.2(7) . . . . ?
C8 O1 Zn1 O3 97.4(6) . . . . ?
C8 O1 Zn1 N2 -153.2(6) . . . . ?
C8 O1 Zn1 N1 -39.4(6) . . . . ?
C8 O1 Zn1 O2 -37.7(16) . . . . ?
C7 N1 Zn1 O3 55.7(6) . . . . ?
C6 N1 Zn1 O3 -179.1(4) . . . . ?
C7 N1 Zn1 N2 -116.5(5) . . . . ?
C6 N1 Zn1 N2 8.6(4) . . . . ?
C7 N1 Zn1 O1 153.1(5) . . . . ?
C6 N1 Zn1 O1 -81.7(4) . . . . ?
C7 N1 Zn1 O2 -26.6(4) . . . . ?
C6 N1 Zn1 O2 98.6(4) . . . . ?
C8 O2 Zn1 O3 -120.1(5) 4_674 . . . ?
C8 O2 Zn1 N2 130.1(5) 4_674 . . . ?
C8 O2 Zn1 O1 15.0(14) 4_674 . . . ?
C8 O2 Zn1 N1 16.7(5) 4_674 . . . ?

_diffrn_measured_fraction_theta_max 0.875
_diffrn_reflns_theta_full        25.00
_diffrn_measured_fraction_theta_full 0.998
_refine_diff_density_max         1.376
_refine_diff_density_min         -0.444
_refine_diff_density_rms         0.162
