####################################################################### 
# 
# This file contains crystal structure data downloaded from the 
# Cambridge Structural Database (CSD) hosted by the Cambridge 
# Crystallographic Data Centre (CCDC).
# 
# Full information about CCDC data access policies and citation 
# guidelines are available at http://www.ccdc.cam.ac.uk/access/V1 
# 
# Audit and citation data items may have been added by the CCDC. 
# Please retain this information to preserve the provenance of 
# this file and to allow appropriate attribution of the data. 
# 
#######################################################################

data_AlaZnCl323K
_audit_block_doi                 10.5517/ccztrzh
_database_code_depnum_ccdc_archive 'CCDC 918498'
loop_
_citation_id
_citation_doi
_citation_year
1 10.1039/c3cc41842a 2013
_audit_update_record             
;
2013-01-08 deposited with the CCDC.	2024-07-08 downloaded from the CCDC.
;
_audit_creation_method           SHELXL-97
_chemical_name_systematic        
;
?
;
_chemical_name_common            AlaZnCl323K
_chemical_melting_point          ?
_chemical_formula_moiety         'C9 H11 Cl N2 O2 Zn'
_chemical_formula_sum            'C9 H11 Cl N2 O2 Zn'
_chemical_formula_weight         280.04
_chemical_absolute_configuration syn
loop_
_atom_type_symbol
_atom_type_description
_atom_type_scat_dispersion_real
_atom_type_scat_dispersion_imag
_atom_type_scat_source
C C 0.0033 0.0016 'International Tables Vol C Tables 4.2.6.8 and 6.1.1.4'
H H 0.0000 0.0000 'International Tables Vol C Tables 4.2.6.8 and 6.1.1.4'
N N 0.0061 0.0033 'International Tables Vol C Tables 4.2.6.8 and 6.1.1.4'
O O 0.0106 0.0060 'International Tables Vol C Tables 4.2.6.8 and 6.1.1.4'
Cl Cl 0.1484 0.1585 'International Tables Vol C Tables 4.2.6.8 and 6.1.1.4'
Zn Zn 0.2839 1.4301 'International Tables Vol C Tables 4.2.6.8 and 6.1.1.4'

_symmetry_cell_setting           Hexagonal
_symmetry_space_group_name_H-M   P61

loop_
_symmetry_equiv_pos_as_xyz
'x, y, z'
'x-y, x, z+1/6'
'-y, x-y, z+1/3'
'-x, -y, z+1/2'
'-x+y, -x, z+2/3'
'y, -x+y, z+5/6'

_cell_length_a                   17.6015(3)
_cell_length_b                   17.6015(3)
_cell_length_c                   10.26898(17)
_cell_angle_alpha                90.00
_cell_angle_beta                 90.00
_cell_angle_gamma                120.00
_cell_volume                     2755.22(9)
_cell_formula_units_Z            6
_cell_measurement_temperature    323(2)
_cell_measurement_reflns_used    ?
_cell_measurement_theta_min      ?
_cell_measurement_theta_max      29.210

_exptl_crystal_description       rod
_exptl_crystal_colour            colorless
_exptl_crystal_size_max          0.5
_exptl_crystal_size_mid          0.2
_exptl_crystal_size_min          0.1
_exptl_crystal_density_meas      ?
_exptl_crystal_density_diffrn    1.013
_exptl_crystal_density_method    'not measured'
_exptl_crystal_F_000             852
_exptl_absorpt_coefficient_mu    1.470
_exptl_absorpt_correction_type   multi-scan
_exptl_absorpt_correction_T_min  0.710
_exptl_absorpt_correction_T_max  0.863
_exptl_absorpt_process_details   'Blessing, Acta Cryst. (1995) A51 33-38'

_exptl_special_details           
;
?
;

_diffrn_ambient_temperature      323(2)
_diffrn_radiation_wavelength     0.71073
_diffrn_radiation_type           MoK\a
_diffrn_radiation_source         'fine-focus sealed tube'
_diffrn_radiation_monochromator  graphite
_diffrn_measurement_device_type  'CCD area detector'
_diffrn_measurement_method       'phi and omega scans'
_diffrn_detector_area_resol_mean ?
_diffrn_standards_number         ?
_diffrn_standards_interval_count ?
_diffrn_standards_interval_time  ?
_diffrn_standards_decay_%        ?
_diffrn_reflns_number            7970
_diffrn_reflns_av_R_equivalents  0.0224
_diffrn_reflns_av_sigmaI/netI    0.0390
_diffrn_reflns_limit_h_min       -16
_diffrn_reflns_limit_h_max       20
_diffrn_reflns_limit_k_min       -5
_diffrn_reflns_limit_k_max       23
_diffrn_reflns_limit_l_min       -12
_diffrn_reflns_limit_l_max       9
_diffrn_reflns_theta_min         3.05
_diffrn_reflns_theta_max         29.21
_reflns_number_total             3979
_reflns_number_gt                3771
_reflns_threshold_expression     >2sigma(I)

_computing_data_collection       'Bruker SMART'
_computing_cell_refinement       'Bruker SMART'
_computing_data_reduction        'Bruker SAINT'
_computing_structure_solution    'SHELXS-97 (Sheldrick, 1990)'
_computing_structure_refinement  'SHELXL-97 (Sheldrick, 1997)'
_computing_molecular_graphics    'Bruker SHELXTL'
_computing_publication_material  'Bruker SHELXTL'

_refine_special_details          
;
OMIT -3 4 0
OMIT -1 3 0
OMIT -1 5 0
OMIT 0 7 0
OMIT -2 3 0
Refinement of F^2^ against ALL reflections. The weighted R-factor wR and
goodness of fit S are based on F^2^, conventional R-factors R are based
on F, with F set to zero for negative F^2^. The threshold expression of
F^2^ > 2sigma(F^2^) is used only for calculating R-factors(gt) etc. and is
not relevant to the choice of reflections for refinement. R-factors based
on F^2^ are statistically about twice as large as those based on F, and R-
factors based on ALL data will be even larger.
;

_refine_ls_structure_factor_coef Fsqd
_refine_ls_matrix_type           full
_refine_ls_weighting_scheme      calc
_refine_ls_weighting_details     
'calc w=1/[\s^2^(Fo^2^)+(0.1221P)^2^+0.9990P] where P=(Fo^2^+2Fc^2^)/3'
_atom_sites_solution_primary     direct
_atom_sites_solution_secondary   difmap
_atom_sites_solution_hydrogens   geom
_refine_ls_hydrogen_treatment    constr
_refine_ls_extinction_method     none
_refine_ls_extinction_coef       ?
_refine_ls_abs_structure_details 'Flack H D (1983), Acta Cryst. A39, 876-881'
_refine_ls_abs_structure_Flack   0.00(3)
_refine_ls_number_reflns         3979
_refine_ls_number_parameters     137
_refine_ls_number_restraints     1
_refine_ls_R_factor_all          0.0584
_refine_ls_R_factor_gt           0.0557
_refine_ls_wR_factor_ref         0.1874
_refine_ls_wR_factor_gt          0.1821
_refine_ls_goodness_of_fit_ref   1.157
_refine_ls_restrained_S_all      1.156
_refine_ls_shift/su_max          0.000
_refine_ls_shift/su_mean         0.000

loop_
_atom_site_label
_atom_site_type_symbol
_atom_site_fract_x
_atom_site_fract_y
_atom_site_fract_z
_atom_site_U_iso_or_equiv
_atom_site_adp_type
_atom_site_occupancy
_atom_site_symmetry_multiplicity
_atom_site_calc_flag
_atom_site_refinement_flags
_atom_site_disorder_assembly
_atom_site_disorder_group
C1 C 0.8446(4) 0.5513(4) -0.0588(6) 0.0441(14) Uani 1 1 d . . .
H1A H 0.8928 0.5693 -0.1132 0.053 Uiso 1 1 calc R . .
C2 C 0.7843(4) 0.5768(5) -0.0890(7) 0.0506(16) Uani 1 1 d . . .
H2 H 0.7936 0.6138 -0.1593 0.061 Uiso 1 1 calc R . .
C3 C 1.1630(4) 0.7093(4) 0.1542(6) 0.0427(14) Uani 1 1 d . . .
C4 C 0.7014(4) 0.4966(6) 0.0942(7) 0.064(2) Uani 1 1 d . . .
H4 H 0.6533 0.4773 0.1493 0.076 Uiso 1 1 calc R . .
C5 C 0.7654(4) 0.4752(7) 0.1198(7) 0.063(2) Uani 1 1 d . . .
H5 H 0.7588 0.4408 0.1923 0.076 Uiso 1 1 calc R . .
C6 C 1.0696(4) 0.6399(4) 0.1239(6) 0.0405(12) Uani 1 1 d . . .
H6A H 1.0312 0.6418 0.1899 0.049 Uiso 1 1 calc R . .
H6B H 1.0529 0.6534 0.0408 0.049 Uiso 1 1 calc R . .
C7 C 1.1074(3) 0.5395(4) 0.0178(5) 0.0350(11) Uani 1 1 d . . .
H7 H 1.1631 0.5944 0.0069 0.042 Uiso 1 1 calc R . .
C8 C 0.9427(3) 0.4830(4) 0.3879(5) 0.0297(10) Uani 1 1 d . . .
C9 C 1.1267(6) 0.4686(7) 0.0556(7) 0.066(2) Uani 1 1 d . . .
H9A H 1.1531 0.4809 0.1405 0.099 Uiso 1 1 calc R . .
H9B H 1.1663 0.4664 -0.0065 0.099 Uiso 1 1 calc R . .
H9C H 1.0731 0.4132 0.0572 0.099 Uiso 1 1 calc R . .
Cl1 Cl 0.86713(15) 0.31746(13) 0.0880(3) 0.0772(6) Uani 1 1 d . . .
N1 N 1.0567(3) 0.5524(3) 0.1186(4) 0.0305(9) Uani 1 1 d . . .
H1 H 1.0730 0.5409 0.1969 0.037 Uiso 1 1 calc R . .
N2 N 0.8373(3) 0.5021(4) 0.0442(5) 0.0386(11) Uani 1 1 d . . .
O1 O 0.8985(3) 0.4726(4) 0.2879(4) 0.0466(11) Uani 1 1 d . . .
O2 O 0.9760(2) 0.4882(3) -0.1064(3) 0.0338(8) Uani 1 1 d . . .
Zn1 Zn 0.92429(3) 0.46247(4) 0.09169(7) 0.02817(19) Uani 1 1 d . . .

loop_
_atom_site_aniso_label
_atom_site_aniso_U_11
_atom_site_aniso_U_22
_atom_site_aniso_U_33
_atom_site_aniso_U_23
_atom_site_aniso_U_13
_atom_site_aniso_U_12
C1 0.038(3) 0.069(4) 0.034(3) 0.011(3) 0.007(2) 0.034(3)
C2 0.047(3) 0.068(4) 0.044(4) 0.019(3) 0.018(3) 0.033(3)
C3 0.038(3) 0.042(3) 0.028(3) 0.003(2) 0.007(2) 0.004(2)
C4 0.049(3) 0.133(7) 0.031(3) 0.021(4) 0.013(3) 0.062(4)
C5 0.045(3) 0.124(7) 0.036(4) 0.037(4) 0.019(3) 0.054(4)
C6 0.035(3) 0.040(3) 0.031(3) -0.003(2) 0.002(2) 0.008(2)
C7 0.020(2) 0.057(3) 0.018(2) -0.002(2) 0.0021(17) 0.013(2)
C8 0.022(2) 0.045(3) 0.019(3) 0.0027(19) -0.0022(17) 0.014(2)
C9 0.074(5) 0.134(7) 0.034(4) 0.001(4) -0.004(3) 0.084(5)
Cl1 0.0735(12) 0.0455(9) 0.0861(16) 0.0043(10) -0.0058(12) 0.0100(8)
N1 0.0201(17) 0.045(2) 0.014(2) -0.0036(16) -0.0014(13) 0.0071(17)
N2 0.029(2) 0.066(3) 0.026(2) 0.007(2) 0.0041(16) 0.028(2)
O1 0.0269(17) 0.093(3) 0.018(2) 0.0077(18) -0.0002(14) 0.028(2)
O2 0.0196(15) 0.063(2) 0.0182(18) -0.0070(15) -0.0032(12) 0.0200(15)
Zn1 0.0176(2) 0.0406(3) 0.0195(3) 0.0005(2) -0.0009(2) 0.0094(2)

_geom_special_details            
;
All esds (except the esd in the dihedral angle between two l.s. planes)
are estimated using the full covariance matrix. The cell esds are taken
into account individually in the estimation of esds in distances, angles
and torsion angles; correlations between esds in cell parameters are only
used when they are defined by crystal symmetry. An approximate (isotropic)
treatment of cell esds is used for estimating esds involving l.s. planes.
;

loop_
_geom_bond_atom_site_label_1
_geom_bond_atom_site_label_2
_geom_bond_distance
_geom_bond_site_symmetry_2
_geom_bond_publ_flag
C1 N2 1.331(8) . ?
C1 C2 1.378(8) . ?
C1 H1A 0.9300 . ?
C2 C3 1.392(8) 6_564 ?
C2 H2 0.9300 . ?
C3 C4 1.366(10) 2_655 ?
C3 C2 1.392(8) 2_655 ?
C3 C6 1.511(8) . ?
C4 C3 1.366(10) 6_564 ?
C4 C5 1.378(9) . ?
C4 H4 0.9300 . ?
C5 N2 1.353(7) . ?
C5 H5 0.9300 . ?
C6 N1 1.441(8) . ?
C6 H6A 0.9700 . ?
C6 H6B 0.9700 . ?
C7 N1 1.457(7) . ?
C7 C9 1.500(10) . ?
C7 C8 1.538(7) 4_764 ?
C7 H7 0.9800 . ?
C8 O1 1.246(6) . ?
C8 O2 1.258(6) 4_765 ?
C8 C7 1.538(7) 4_765 ?
C9 H9A 0.9600 . ?
C9 H9B 0.9600 . ?
C9 H9C 0.9600 . ?
Cl1 Zn1 2.227(2) . ?
N1 Zn1 2.080(4) . ?
N1 H1 0.9100 . ?
N2 Zn1 2.035(5) . ?
O1 Zn1 2.092(4) . ?
O2 C8 1.258(6) 4_764 ?
O2 Zn1 2.182(4) . ?

loop_
_geom_angle_atom_site_label_1
_geom_angle_atom_site_label_2
_geom_angle_atom_site_label_3
_geom_angle
_geom_angle_site_symmetry_1
_geom_angle_site_symmetry_3
_geom_angle_publ_flag
N2 C1 C2 123.4(5) . . ?
N2 C1 H1A 118.3 . . ?
C2 C1 H1A 118.3 . . ?
C1 C2 C3 118.9(6) . 6_564 ?
C1 C2 H2 120.6 . . ?
C3 C2 H2 120.6 6_564 . ?
C4 C3 C2 118.2(6) 2_655 2_655 ?
C4 C3 C6 120.4(5) 2_655 . ?
C2 C3 C6 121.3(6) 2_655 . ?
C3 C4 C5 119.5(6) 6_564 . ?
C3 C4 H4 120.3 6_564 . ?
C5 C4 H4 120.3 . . ?
N2 C5 C4 123.0(6) . . ?
N2 C5 H5 118.5 . . ?
C4 C5 H5 118.5 . . ?
N1 C6 C3 113.5(5) . . ?
N1 C6 H6A 108.9 . . ?
C3 C6 H6A 108.9 . . ?
N1 C6 H6B 108.9 . . ?
C3 C6 H6B 108.9 . . ?
H6A C6 H6B 107.7 . . ?
N1 C7 C9 110.9(5) . . ?
N1 C7 C8 109.9(4) . 4_764 ?
C9 C7 C8 110.5(5) . 4_764 ?
N1 C7 H7 108.5 . . ?
C9 C7 H7 108.5 . . ?
C8 C7 H7 108.5 4_764 . ?
O1 C8 O2 126.8(5) . 4_765 ?
O1 C8 C7 116.2(4) . 4_765 ?
O2 C8 C7 117.0(4) 4_765 4_765 ?
C7 C9 H9A 109.5 . . ?
C7 C9 H9B 109.5 . . ?
H9A C9 H9B 109.5 . . ?
C7 C9 H9C 109.5 . . ?
H9A C9 H9C 109.5 . . ?
H9B C9 H9C 109.5 . . ?
C6 N1 C7 114.3(4) . . ?
C6 N1 Zn1 109.7(4) . . ?
C7 N1 Zn1 109.1(3) . . ?
C6 N1 H1 107.9 . . ?
C7 N1 H1 107.9 . . ?
Zn1 N1 H1 107.9 . . ?
C1 N2 C5 116.9(5) . . ?
C1 N2 Zn1 124.7(4) . . ?
C5 N2 Zn1 118.4(4) . . ?
C8 O1 Zn1 131.3(4) . . ?
C8 O2 Zn1 113.5(3) 4_764 . ?
N2 Zn1 N1 121.3(2) . . ?
N2 Zn1 O1 88.22(18) . . ?
N1 Zn1 O1 90.86(16) . . ?
N2 Zn1 O2 90.71(16) . . ?
N1 Zn1 O2 76.93(14) . . ?
O1 Zn1 O2 164.99(18) . . ?
N2 Zn1 Cl1 113.76(16) . . ?
N1 Zn1 Cl1 124.53(16) . . ?
O1 Zn1 Cl1 96.99(17) . . ?
O2 Zn1 Cl1 97.14(13) . . ?

loop_
_geom_torsion_atom_site_label_1
_geom_torsion_atom_site_label_2
_geom_torsion_atom_site_label_3
_geom_torsion_atom_site_label_4
_geom_torsion
_geom_torsion_site_symmetry_1
_geom_torsion_site_symmetry_2
_geom_torsion_site_symmetry_3
_geom_torsion_site_symmetry_4
_geom_torsion_publ_flag
N2 C1 C2 C3 -3.5(11) . . . 6_564 ?
C3 C4 C5 N2 0.7(15) 6_564 . . . ?
C4 C3 C6 N1 -53.0(9) 2_655 . . . ?
C2 C3 C6 N1 129.5(7) 2_655 . . . ?
C3 C6 N1 C7 -61.8(6) . . . . ?
C3 C6 N1 Zn1 175.3(4) . . . . ?
C9 C7 N1 C6 152.1(6) . . . . ?
C8 C7 N1 C6 -85.5(6) 4_764 . . . ?
C9 C7 N1 Zn1 -84.7(5) . . . . ?
C8 C7 N1 Zn1 37.7(5) 4_764 . . . ?
C2 C1 N2 C5 1.5(11) . . . . ?
C2 C1 N2 Zn1 179.6(5) . . . . ?
C4 C5 N2 C1 -0.1(13) . . . . ?
C4 C5 N2 Zn1 -178.3(8) . . . . ?
O2 C8 O1 Zn1 19.3(10) 4_765 . . . ?
C7 C8 O1 Zn1 -162.4(4) 4_765 . . . ?
C1 N2 Zn1 N1 56.1(6) . . . . ?
C5 N2 Zn1 N1 -125.8(6) . . . . ?
C1 N2 Zn1 O1 146.0(6) . . . . ?
C5 N2 Zn1 O1 -35.8(6) . . . . ?
C1 N2 Zn1 O2 -19.0(6) . . . . ?
C5 N2 Zn1 O2 159.1(6) . . . . ?
C1 N2 Zn1 Cl1 -117.1(5) . . . . ?
C5 N2 Zn1 Cl1 61.0(6) . . . . ?
C6 N1 Zn1 N2 11.2(4) . . . . ?
C7 N1 Zn1 N2 -114.7(4) . . . . ?
C6 N1 Zn1 O1 -77.3(4) . . . . ?
C7 N1 Zn1 O1 156.9(4) . . . . ?
C6 N1 Zn1 O2 93.9(4) . . . . ?
C7 N1 Zn1 O2 -32.0(4) . . . . ?
C6 N1 Zn1 Cl1 -176.4(3) . . . . ?
C7 N1 Zn1 Cl1 57.8(4) . . . . ?
C8 O1 Zn1 N2 -156.8(6) . . . . ?
C8 O1 Zn1 N1 -35.5(6) . . . . ?
C8 O1 Zn1 O2 -70.7(10) . . . . ?
C8 O1 Zn1 Cl1 89.5(6) . . . . ?
C8 O2 Zn1 N2 144.4(4) 4_764 . . . ?
C8 O2 Zn1 N1 22.3(4) 4_764 . . . ?
C8 O2 Zn1 O1 58.6(8) 4_764 . . . ?
C8 O2 Zn1 Cl1 -101.5(4) 4_764 . . . ?

_diffrn_measured_fraction_theta_max 0.895
_diffrn_reflns_theta_full        25.00
_diffrn_measured_fraction_theta_full 0.995
_refine_diff_density_max         1.785
_refine_diff_density_min         -0.533
_refine_diff_density_rms         0.147
