####################################################################### 
# 
# This file contains crystal structure data downloaded from the 
# Cambridge Structural Database (CSD) hosted by the Cambridge 
# Crystallographic Data Centre (CCDC).
# 
# Full information about CCDC data access policies and citation 
# guidelines are available at http://www.ccdc.cam.ac.uk/access/V1 
# 
# Audit and citation data items may have been added by the CCDC. 
# Please retain this information to preserve the provenance of 
# this file and to allow appropriate attribution of the data. 
# 
#######################################################################

data_AlaZnFor
_audit_block_doi                 10.5517/ccztrr8
_database_code_depnum_ccdc_archive 'CCDC 918491'
loop_
_citation_id
_citation_doi
_citation_year
1 10.1039/c3cc41842a 2013
_audit_update_record             
;
2013-01-08 deposited with the CCDC.	2024-07-08 downloaded from the CCDC.
;
_audit_creation_method           SHELXL-97
_chemical_name_systematic        
;
?
;
_chemical_name_common            AlaZnFor
_chemical_melting_point          ?
_chemical_formula_moiety         'C10 H11 N2 O4 Zn, 2H2(O)'
_chemical_formula_sum            'C10 H15 N2 O6 Zn'
_chemical_formula_weight         324.63
_chemical_absolute_configuration syn
loop_
_atom_type_symbol
_atom_type_description
_atom_type_scat_dispersion_real
_atom_type_scat_dispersion_imag
_atom_type_scat_source
C C 0.0033 0.0016 'International Tables Vol C Tables 4.2.6.8 and 6.1.1.4'
H H 0.0000 0.0000 'International Tables Vol C Tables 4.2.6.8 and 6.1.1.4'
N N 0.0061 0.0033 'International Tables Vol C Tables 4.2.6.8 and 6.1.1.4'
O O 0.0106 0.0060 'International Tables Vol C Tables 4.2.6.8 and 6.1.1.4'
Zn Zn 0.2839 1.4301 'International Tables Vol C Tables 4.2.6.8 and 6.1.1.4'

_symmetry_cell_setting           hexagonal
_symmetry_space_group_name_H-M   P61

loop_
_symmetry_equiv_pos_as_xyz
'x, y, z'
'x-y, x, z+1/6'
'-y, x-y, z+1/3'
'-x, -y, z+1/2'
'-x+y, -x, z+2/3'
'y, -x+y, z+5/6'

_cell_length_a                   17.5911(7)
_cell_length_b                   17.5911(7)
_cell_length_c                   10.1716(3)
_cell_angle_alpha                90.00
_cell_angle_beta                 90.00
_cell_angle_gamma                120.00
_cell_volume                     2725.87(17)
_cell_formula_units_Z            6
_cell_measurement_temperature    100(2)
_cell_measurement_reflns_used    ?
_cell_measurement_theta_min      ?
_cell_measurement_theta_max      29.11

_exptl_crystal_description       rod
_exptl_crystal_colour            colorless
_exptl_crystal_size_max          0.6
_exptl_crystal_size_mid          0.2
_exptl_crystal_size_min          0.2
_exptl_crystal_density_meas      ?
_exptl_crystal_density_diffrn    1.172
_exptl_crystal_density_method    'not measured'
_exptl_crystal_F_000             978.0
_exptl_absorpt_coefficient_mu    1.368
_exptl_absorpt_correction_type   multi-scan
_exptl_absorpt_correction_T_min  0.727
_exptl_absorpt_correction_T_max  0.761
_exptl_absorpt_process_details   'Blessing, Acta Cryst. (1995) A51 33-38'

_exptl_special_details           
;
?
;

_diffrn_ambient_temperature      100(2)
_diffrn_radiation_wavelength     0.71073
_diffrn_radiation_type           MoK\a
_diffrn_radiation_source         'fine-focus sealed tube'
_diffrn_radiation_monochromator  graphite
_diffrn_measurement_device_type  ?
_diffrn_measurement_method       ?
_diffrn_detector_area_resol_mean ?
_diffrn_standards_number         ?
_diffrn_standards_interval_count ?
_diffrn_standards_interval_time  ?
_diffrn_standards_decay_%        ?
_diffrn_reflns_number            8057
_diffrn_reflns_av_R_equivalents  0.0293
_diffrn_reflns_av_sigmaI/netI    0.0495
_diffrn_reflns_limit_h_min       -19
_diffrn_reflns_limit_h_max       20
_diffrn_reflns_limit_k_min       -22
_diffrn_reflns_limit_k_max       12
_diffrn_reflns_limit_l_min       -7
_diffrn_reflns_limit_l_max       12
_diffrn_reflns_theta_min         3.06
_diffrn_reflns_theta_max         29.11
_reflns_number_total             3676
_reflns_number_gt                3107
_reflns_threshold_expression     >2sigma(I)

_computing_data_collection       'Bruker SMART'
_computing_cell_refinement       'Bruker SMART'
_computing_data_reduction        'Bruker SAINT'
_computing_structure_solution    'SHELXS-97 (Sheldrick, 1990)'
_computing_structure_refinement  'SHELXL-97 (Sheldrick, 1997)'
_computing_molecular_graphics    'Bruker SHELXTL'
_computing_publication_material  'Bruker SHELXTL'

_refine_special_details          
;
Refinement of F^2^ against ALL reflections. The weighted R-factor wR and
goodness of fit S are based on F^2^, conventional R-factors R are based
on F, with F set to zero for negative F^2^. The threshold expression of
F^2^ > 2sigma(F^2^) is used only for calculating R-factors(gt) etc. and is
not relevant to the choice of reflections for refinement. R-factors based
on F^2^ are statistically about twice as large as those based on F, and R-
factors based on ALL data will be even larger.
;

_refine_ls_structure_factor_coef Fsqd
_refine_ls_matrix_type           full
_refine_ls_weighting_scheme      calc
_refine_ls_weighting_details     
'calc w=1/[\s^2^(Fo^2^)+(0.1463P)^2^+0.0000P] where P=(Fo^2^+2Fc^2^)/3'
_atom_sites_solution_primary     direct
_atom_sites_solution_secondary   difmap
_atom_sites_solution_hydrogens   geom
_refine_ls_hydrogen_treatment    constr
_refine_ls_extinction_method     none
_refine_ls_extinction_coef       ?
_refine_ls_abs_structure_details 'Flack H D (1983), Acta Cryst. A39, 876-881'
_refine_ls_abs_structure_Flack   -0.03(3)
_refine_ls_number_reflns         3676
_refine_ls_number_parameters     163
_refine_ls_number_restraints     1
_refine_ls_R_factor_all          0.0783
_refine_ls_R_factor_gt           0.0645
_refine_ls_wR_factor_ref         0.2059
_refine_ls_wR_factor_gt          0.1891
_refine_ls_goodness_of_fit_ref   1.090
_refine_ls_restrained_S_all      1.090
_refine_ls_shift/su_max          0.000
_refine_ls_shift/su_mean         0.000

loop_
_atom_site_label
_atom_site_type_symbol
_atom_site_fract_x
_atom_site_fract_y
_atom_site_fract_z
_atom_site_U_iso_or_equiv
_atom_site_adp_type
_atom_site_occupancy
_atom_site_symmetry_multiplicity
_atom_site_calc_flag
_atom_site_refinement_flags
_atom_site_disorder_assembly
_atom_site_disorder_group
Zn1 Zn 0.54337(5) 0.07531(4) 0.13354(9) 0.0304(2) Uani 1 1 d . . .
O1 O 0.5031(3) 0.0255(3) -0.0608(4) 0.0313(10) Uani 1 1 d . . .
O2 O 0.5765(3) 0.1019(3) 0.3298(4) 0.0367(11) Uani 1 1 d . . .
N1 N 0.5098(4) -0.0546(3) 0.1560(5) 0.0292(11) Uani 1 1 d . . .
O3 O 0.4807(4) 0.1416(3) 0.1292(5) 0.0507(13) Uani 1 1 d . . .
N2 N 0.6711(4) 0.1561(4) 0.0852(5) 0.0432(15) Uani 1 1 d . . .
C1 C 0.7218(6) 0.2188(5) 0.1707(7) 0.063(3) Uani 1 1 d . . .
H1 H 0.6982 0.2235 0.2501 0.075 Uiso 1 1 calc R . .
C5 C 0.7073(5) 0.1533(4) -0.0322(7) 0.0409(15) Uani 1 1 d . . .
H5 H 0.6725 0.1107 -0.0934 0.049 Uiso 1 1 calc R . .
C6 C 0.5910(5) -0.0615(4) 0.1513(7) 0.0417(16) Uani 1 1 d . . .
H6A H 0.6343 -0.0194 0.2117 0.050 Uiso 1 1 calc R . .
H6B H 0.6156 -0.0479 0.0634 0.050 Uiso 1 1 calc R . .
C7 C 0.4433(4) -0.1114(4) 0.0579(6) 0.0331(14) Uani 1 1 d . . .
H7 H 0.4515 -0.1613 0.0375 0.040 Uiso 1 1 calc R . .
O4 O 0.3805(5) 0.0419(5) 0.2684(8) 0.081(2) Uani 1 1 d . . .
C4 C 0.7933(5) 0.2112(5) -0.0631(7) 0.0412(16) Uani 1 1 d . . .
H4 H 0.8159 0.2056 -0.1429 0.049 Uiso 1 1 calc R . .
C8 C 0.4599(4) -0.0561(4) -0.0670(6) 0.0288(13) Uani 1 1 d . . .
C2 C 0.8116(5) 0.2786(5) 0.1417(7) 0.053(2) Uani 1 1 d . . .
H2 H 0.8469 0.3192 0.2049 0.064 Uiso 1 1 calc R . .
C3 C 0.8467(5) 0.2773(5) 0.0219(7) 0.0449(17) Uani 1 1 d . . .
C9 C 0.3521(6) -0.1450(6) 0.1084(7) 0.061(2) Uani 1 1 d . . .
H9A H 0.3496 -0.1598 0.1997 0.091 Uiso 1 1 calc R . .
H9B H 0.3119 -0.1963 0.0596 0.091 Uiso 1 1 calc R . .
H9C H 0.3361 -0.1006 0.0982 0.091 Uiso 1 1 calc R . .
C10 C 0.4106(7) 0.1116(6) 0.2020(8) 0.060(2) Uani 1 1 d . . .
H10 H 0.3812 0.1432 0.2053 0.071 Uiso 1 1 calc R . .
O5 O 0.2180(12) 0.0041(11) 0.3776(19) 0.191(7) Uiso 1 1 d . . .
O6 O 0.1841(18) 0.9423(18) 0.647(3) 0.289(12) Uiso 1 1 d . . .

loop_
_atom_site_aniso_label
_atom_site_aniso_U_11
_atom_site_aniso_U_22
_atom_site_aniso_U_33
_atom_site_aniso_U_23
_atom_site_aniso_U_13
_atom_site_aniso_U_12
Zn1 0.0476(5) 0.0234(3) 0.0100(3) 0.0003(2) 0.0002(3) 0.0101(3)
O1 0.047(2) 0.024(2) 0.012(2) 0.0010(14) 0.0003(15) 0.0091(18)
O2 0.053(3) 0.027(2) 0.008(2) -0.0022(14) 0.0034(17) 0.003(2)
N1 0.048(3) 0.023(2) 0.010(2) 0.0028(16) -0.0029(19) 0.013(2)
O3 0.088(4) 0.045(3) 0.028(3) -0.003(2) -0.005(3) 0.040(3)
N2 0.054(4) 0.031(3) 0.014(3) -0.0022(19) 0.003(2) 0.000(3)
C1 0.075(6) 0.046(4) 0.015(3) -0.010(3) 0.004(3) -0.009(4)
C5 0.058(4) 0.041(3) 0.011(3) -0.006(2) -0.005(3) 0.015(3)
C6 0.071(5) 0.034(3) 0.018(3) 0.001(2) 0.003(3) 0.025(3)
C7 0.046(4) 0.025(3) 0.011(3) -0.001(2) -0.004(2) 0.004(2)
O4 0.071(5) 0.073(5) 0.090(6) 0.033(4) 0.009(4) 0.031(4)
C4 0.055(4) 0.045(4) 0.023(3) -0.008(2) -0.001(3) 0.024(3)
C8 0.042(3) 0.029(3) 0.010(3) -0.005(2) -0.0026(19) 0.014(3)
C2 0.055(4) 0.052(4) 0.017(3) -0.002(3) -0.001(3) 0.000(3)
C3 0.044(4) 0.048(4) 0.023(3) 0.001(3) -0.006(3) 0.008(3)
C9 0.058(5) 0.059(5) 0.024(4) 0.012(3) 0.006(3) -0.002(4)
C10 0.090(7) 0.066(6) 0.039(5) 0.001(4) 0.000(4) 0.051(5)

_geom_special_details            
;
All esds (except the esd in the dihedral angle between two l.s. planes)
are estimated using the full covariance matrix. The cell esds are taken
into account individually in the estimation of esds in distances, angles
and torsion angles; correlations between esds in cell parameters are only
used when they are defined by crystal symmetry. An approximate (isotropic)
treatment of cell esds is used for estimating esds involving l.s. planes.
;

loop_
_geom_bond_atom_site_label_1
_geom_bond_atom_site_label_2
_geom_bond_distance
_geom_bond_site_symmetry_2
_geom_bond_publ_flag
Zn1 O3 1.966(5) . ?
Zn1 N2 2.028(6) . ?
Zn1 O2 2.067(4) . ?
Zn1 N1 2.068(4) . ?
Zn1 O1 2.134(4) . ?
O1 C8 1.245(7) . ?
O2 C8 1.283(7) 4_655 ?
N1 C7 1.481(7) . ?
N1 C6 1.493(10) . ?
O3 C10 1.303(12) . ?
N2 C1 1.337(9) . ?
N2 C5 1.366(9) . ?
C1 C2 1.424(11) . ?
C5 C4 1.373(10) . ?
C6 C3 1.511(10) 2_545 ?
C7 C9 1.497(11) . ?
C7 C8 1.537(9) . ?
O4 C10 1.261(11) . ?
C4 C3 1.375(10) . ?
C8 O2 1.283(7) 4_654 ?
C2 C3 1.372(11) . ?
C3 C6 1.511(10) 6_664 ?

loop_
_geom_angle_atom_site_label_1
_geom_angle_atom_site_label_2
_geom_angle_atom_site_label_3
_geom_angle
_geom_angle_site_symmetry_1
_geom_angle_site_symmetry_3
_geom_angle_publ_flag
O3 Zn1 N2 109.4(3) . . ?
O3 Zn1 O2 93.8(2) . . ?
N2 Zn1 O2 89.3(2) . . ?
O3 Zn1 N1 136.3(2) . . ?
N2 Zn1 N1 113.9(3) . . ?
O2 Zn1 N1 92.05(19) . . ?
O3 Zn1 O1 93.0(2) . . ?
N2 Zn1 O1 94.98(19) . . ?
O2 Zn1 O1 170.27(17) . . ?
N1 Zn1 O1 78.23(17) . . ?
C8 O1 Zn1 114.0(4) . . ?
C8 O2 Zn1 130.7(4) 4_655 . ?
C7 N1 C6 112.9(5) . . ?
C7 N1 Zn1 111.3(4) . . ?
C6 N1 Zn1 109.2(4) . . ?
C10 O3 Zn1 116.4(5) . . ?
C1 N2 C5 117.9(6) . . ?
C1 N2 Zn1 117.9(5) . . ?
C5 N2 Zn1 124.1(4) . . ?
N2 C1 C2 120.7(7) . . ?
N2 C5 C4 122.3(6) . . ?
N1 C6 C3 109.8(6) . 2_545 ?
N1 C7 C9 111.4(6) . . ?
N1 C7 C8 107.1(5) . . ?
C9 C7 C8 111.2(6) . . ?
C5 C4 C3 121.1(7) . . ?
O1 C8 O2 126.3(6) . 4_654 ?
O1 C8 C7 120.1(5) . . ?
O2 C8 C7 113.6(5) 4_654 . ?
C3 C2 C1 121.0(6) . . ?
C2 C3 C4 116.7(7) . . ?
C2 C3 C6 121.0(6) . 6_664 ?
C4 C3 C6 122.2(7) . 6_664 ?
O4 C10 O3 123.3(9) . . ?

_diffrn_measured_fraction_theta_max 0.875
_diffrn_reflns_theta_full        25.00
_diffrn_measured_fraction_theta_full 0.998
_refine_diff_density_max         1.215
_refine_diff_density_min         -0.498
_refine_diff_density_rms         0.146
