####################################################################### 
# 
# This file contains crystal structure data downloaded from the 
# Cambridge Structural Database (CSD) hosted by the Cambridge 
# Crystallographic Data Centre (CCDC).
# 
# Full information about CCDC data access policies and citation 
# guidelines are available at http://www.ccdc.cam.ac.uk/access/V1 
# 
# Audit and citation data items may have been added by the CCDC. 
# Please retain this information to preserve the provenance of 
# this file and to allow appropriate attribution of the data. 
# 
#######################################################################

data_AlaZnOAc
_audit_block_doi                 10.5517/ccztrs9
_database_code_depnum_ccdc_archive 'CCDC 918492'
loop_
_citation_id
_citation_doi
_citation_year
1 10.1039/c3cc41842a 2013
_audit_update_record             
;
2013-01-08 deposited with the CCDC.	2024-07-08 downloaded from the CCDC.
;
_audit_creation_method           SHELXL-97
_chemical_name_systematic        
;
?
;
_chemical_name_common            AlaZnOAc
_chemical_melting_point          ?
_chemical_formula_moiety         'C11 H13 N2 O4 Zn, 2H2(O)'
_chemical_formula_sum            'C11 H17 N2 O6 Zn'
_chemical_formula_weight         338.65
_chemical_absolute_configuration syn
loop_
_atom_type_symbol
_atom_type_description
_atom_type_scat_dispersion_real
_atom_type_scat_dispersion_imag
_atom_type_scat_source
C C 0.0033 0.0016 'International Tables Vol C Tables 4.2.6.8 and 6.1.1.4'
H H 0.0000 0.0000 'International Tables Vol C Tables 4.2.6.8 and 6.1.1.4'
N N 0.0061 0.0033 'International Tables Vol C Tables 4.2.6.8 and 6.1.1.4'
O O 0.0106 0.0060 'International Tables Vol C Tables 4.2.6.8 and 6.1.1.4'
Zn Zn 0.2839 1.4301 'International Tables Vol C Tables 4.2.6.8 and 6.1.1.4'

_symmetry_cell_setting           hexagonal
_symmetry_space_group_name_H-M   P61

loop_
_symmetry_equiv_pos_as_xyz
'x, y, z'
'x-y, x, z+1/6'
'-y, x-y, z+1/3'
'-x, -y, z+1/2'
'-x+y, -x, z+2/3'
'y, -x+y, z+5/6'

_cell_length_a                   17.5806(7)
_cell_length_b                   17.5806(7)
_cell_length_c                   10.1486(2)
_cell_angle_alpha                90.00
_cell_angle_beta                 90.00
_cell_angle_gamma                120.00
_cell_volume                     2716.5(3)
_cell_formula_units_Z            6
_cell_measurement_temperature    100(2)
_cell_measurement_reflns_used    ?
_cell_measurement_theta_min      ?
_cell_measurement_theta_max      28.05

_exptl_crystal_description       rod
_exptl_crystal_colour            colorless
_exptl_crystal_size_max          0.3
_exptl_crystal_size_mid          0.1
_exptl_crystal_size_min          0.1
_exptl_crystal_density_meas      ?
_exptl_crystal_density_diffrn    1.227
_exptl_crystal_density_method    'not measured'
_exptl_crystal_F_000             1026
_exptl_absorpt_coefficient_mu    1.376
_exptl_absorpt_correction_type   multi-scan
_exptl_absorpt_correction_T_min  0.848
_exptl_absorpt_correction_T_max  0.871
_exptl_absorpt_process_details   'Blessing, Acta Cryst. (1995) A51 33-38'

_exptl_special_details           
;
?
;

_diffrn_ambient_temperature      100(2)
_diffrn_radiation_wavelength     0.71073
_diffrn_radiation_type           MoK\a
_diffrn_radiation_source         'fine-focus sealed tube'
_diffrn_radiation_monochromator  graphite
_diffrn_measurement_device_type  ?
_diffrn_measurement_method       ?
_diffrn_detector_area_resol_mean ?
_diffrn_standards_number         ?
_diffrn_standards_interval_count ?
_diffrn_standards_interval_time  ?
_diffrn_standards_decay_%        ?
_diffrn_reflns_number            6610
_diffrn_reflns_av_R_equivalents  0.0320
_diffrn_reflns_av_sigmaI/netI    0.0586
_diffrn_reflns_limit_h_min       -13
_diffrn_reflns_limit_h_max       21
_diffrn_reflns_limit_k_min       -19
_diffrn_reflns_limit_k_max       20
_diffrn_reflns_limit_l_min       -8
_diffrn_reflns_limit_l_max       12
_diffrn_reflns_theta_min         3.07
_diffrn_reflns_theta_max         28.05
_reflns_number_total             3289
_reflns_number_gt                2713
_reflns_threshold_expression     >2sigma(I)

_computing_data_collection       'Bruker SMART'
_computing_cell_refinement       'Bruker SMART'
_computing_data_reduction        'Bruker SAINT'
_computing_structure_solution    'SHELXS-97 (Sheldrick, 1990)'
_computing_structure_refinement  'SHELXL-97 (Sheldrick, 1997)'
_computing_molecular_graphics    'Bruker SHELXTL'
_computing_publication_material  'Bruker SHELXTL'

_refine_special_details          
;
FREE O6 O5
Refinement of F^2^ against ALL reflections. The weighted R-factor wR and
goodness of fit S are based on F^2^, conventional R-factors R are based
on F, with F set to zero for negative F^2^. The threshold expression of
F^2^ > 2sigma(F^2^) is used only for calculating R-factors(gt) etc. and is
not relevant to the choice of reflections for refinement. R-factors based
on F^2^ are statistically about twice as large as those based on F, and R-
factors based on ALL data will be even larger.
;

_refine_ls_structure_factor_coef Fsqd
_refine_ls_matrix_type           full
_refine_ls_weighting_scheme      calc
_refine_ls_weighting_details     
'calc w=1/[\s^2^(Fo^2^)+(0.1304P)^2^+2.9872P] where P=(Fo^2^+2Fc^2^)/3'
_atom_sites_solution_primary     direct
_atom_sites_solution_secondary   difmap
_atom_sites_solution_hydrogens   geom
_refine_ls_hydrogen_treatment    constr
_refine_ls_extinction_method     none
_refine_ls_extinction_coef       ?
_refine_ls_abs_structure_details 'Flack H D (1983), Acta Cryst. A39, 876-881'
_refine_ls_abs_structure_Flack   -0.04(4)
_refine_ls_number_reflns         3289
_refine_ls_number_parameters     148
_refine_ls_number_restraints     1
_refine_ls_R_factor_all          0.0903
_refine_ls_R_factor_gt           0.0732
_refine_ls_wR_factor_ref         0.2109
_refine_ls_wR_factor_gt          0.1952
_refine_ls_goodness_of_fit_ref   1.073
_refine_ls_restrained_S_all      1.073
_refine_ls_shift/su_max          0.000
_refine_ls_shift/su_mean         0.000

loop_
_atom_site_label
_atom_site_type_symbol
_atom_site_fract_x
_atom_site_fract_y
_atom_site_fract_z
_atom_site_U_iso_or_equiv
_atom_site_adp_type
_atom_site_occupancy
_atom_site_symmetry_multiplicity
_atom_site_calc_flag
_atom_site_refinement_flags
_atom_site_disorder_assembly
_atom_site_disorder_group
Zn1 Zn 0.53315(6) 0.45948(6) 0.03982(10) 0.0373(3) Uani 1 1 d . . .
O1 O 0.5201(4) 0.4968(4) -0.1546(5) 0.0377(13) Uani 1 1 d . . .
O2 O 0.5318(4) 0.4275(4) 0.2364(5) 0.0468(16) Uani 1 1 d . . .
N1 N 0.4332(5) 0.4890(5) 0.0650(6) 0.0429(19) Uani 1 1 d . . .
C5 C 0.4447(6) 0.2928(6) -0.1230(9) 0.047(2) Uani 1 1 d . . .
H5 H 0.4346 0.3265 -0.1834 0.057 Uiso 1 1 calc R . .
O3 O 0.6638(5) 0.5251(7) 0.0262(8) 0.085(3) Uani 1 1 d . . .
N2 N 0.4871(7) 0.3319(6) -0.0067(7) 0.061(3) Uani 1 1 d . . .
C1 C 0.4987(9) 0.2812(9) 0.0793(14) 0.083(4) Uiso 1 1 d . . .
H1 H 0.5245 0.3045 0.1603 0.099 Uiso 1 1 calc R . .
C10 C 0.7074(14) 0.6000(14) 0.098(2) 0.118(6) Uiso 1 1 d . . .
C4 C 0.4174(7) 0.2087(6) -0.1532(9) 0.053(2) Uani 1 1 d . . .
H4 H 0.3896 0.1862 -0.2334 0.063 Uiso 1 1 calc R . .
C3 C 0.2751(7) 0.4299(9) 0.0997(9) 0.062(3) Uani 1 1 d . . .
C2 C 0.4730(12) 0.1934(8) 0.0505(10) 0.095(5) Uani 1 1 d . . .
H2 H 0.4849 0.1607 0.1105 0.115 Uiso 1 1 calc R . .
C9 C 0.4984(13) 0.6466(8) 0.0123(11) 0.112(7) Uani 1 1 d . . .
H9A H 0.4626 0.6687 0.0480 0.169 Uiso 1 1 calc R . .
H9B H 0.5318 0.6826 -0.0606 0.169 Uiso 1 1 calc R . .
H9C H 0.5377 0.6479 0.0791 0.169 Uiso 1 1 calc R . .
C8 C 0.4791(5) 0.5377(5) -0.1598(8) 0.0334(17) Uani 1 1 d . . .
C11 C 0.8031(18) 0.6604(18) 0.068(2) 0.188(11) Uiso 1 1 d . . .
H11A H 0.8101 0.7105 0.0199 0.282 Uiso 1 1 calc R . .
H11B H 0.8250 0.6297 0.0166 0.282 Uiso 1 1 calc R . .
H11C H 0.8354 0.6795 0.1494 0.282 Uiso 1 1 calc R . .
O4 O 0.6632(13) 0.6257(13) 0.167(2) 0.189(7) Uiso 1 1 d . . .
C6 C 0.3450(7) 0.4068(8) 0.0651(10) 0.059(3) Uani 1 1 d . . .
H6A H 0.3445 0.3655 0.1291 0.071 Uiso 1 1 calc R . .
H6B H 0.3331 0.3794 -0.0211 0.071 Uiso 1 1 calc R . .
C7 C 0.4391(6) 0.5513(6) -0.0353(10) 0.046(2) Uiso 1 1 d . . .
H7 H 0.3803 0.5414 -0.0547 0.055 Uiso 1 1 calc R . .
O5 O 0.784(3) 0.787(3) 0.291(4) 0.37(2) Uiso 1 1 d . . .
O6 O 0.782(3) 0.809(3) 0.583(4) 0.38(2) Uiso 1 1 d . . .

loop_
_atom_site_aniso_label
_atom_site_aniso_U_11
_atom_site_aniso_U_22
_atom_site_aniso_U_33
_atom_site_aniso_U_23
_atom_site_aniso_U_13
_atom_site_aniso_U_12
Zn1 0.0650(7) 0.0612(6) 0.0113(4) -0.0007(4) -0.0004(4) 0.0507(6)
O1 0.066(4) 0.060(3) 0.010(3) 0.002(2) 0.002(2) 0.049(3)
O2 0.090(5) 0.075(4) 0.013(3) -0.009(3) -0.004(2) 0.069(4)
N1 0.076(5) 0.072(5) 0.013(4) 0.004(3) 0.007(3) 0.062(5)
C5 0.073(6) 0.066(5) 0.015(4) 0.002(4) -0.006(4) 0.044(5)
O3 0.062(5) 0.147(8) 0.042(4) 0.012(5) 0.001(3) 0.049(5)
N2 0.131(8) 0.076(6) 0.021(4) -0.008(3) -0.008(4) 0.086(6)
C4 0.074(6) 0.055(5) 0.030(5) -0.004(4) -0.012(4) 0.033(5)
C3 0.066(6) 0.121(9) 0.021(4) 0.010(5) 0.004(4) 0.064(7)
C2 0.234(17) 0.086(8) 0.022(5) 0.005(5) -0.008(7) 0.122(11)
C9 0.27(2) 0.074(8) 0.031(6) -0.009(5) -0.006(8) 0.116(12)
C8 0.047(5) 0.045(4) 0.020(4) 0.003(3) 0.001(3) 0.032(4)
C6 0.063(6) 0.100(8) 0.043(6) 0.001(5) -0.001(4) 0.062(6)

_geom_special_details            
;
All esds (except the esd in the dihedral angle between two l.s. planes)
are estimated using the full covariance matrix. The cell esds are taken
into account individually in the estimation of esds in distances, angles
and torsion angles; correlations between esds in cell parameters are only
used when they are defined by crystal symmetry. An approximate (isotropic)
treatment of cell esds is used for estimating esds involving l.s. planes.
;

loop_
_geom_bond_atom_site_label_1
_geom_bond_atom_site_label_2
_geom_bond_distance
_geom_bond_site_symmetry_2
_geom_bond_publ_flag
Zn1 O3 1.994(8) . ?
Zn1 N2 2.023(8) . ?
Zn1 O2 2.070(6) . ?
Zn1 N1 2.081(6) . ?
Zn1 O1 2.128(5) . ?
O1 C8 1.249(9) . ?
O2 C8 1.279(9) 4_665 ?
N1 C7 1.460(11) . ?
N1 C6 1.501(14) . ?
C5 C4 1.342(13) . ?
C5 N2 1.381(12) . ?
C5 H5 0.9300 . ?
O3 C10 1.36(2) . ?
N2 C1 1.334(15) . ?
C1 C2 1.405(17) . ?
C1 H1 0.9300 . ?
C10 O4 1.29(2) . ?
C10 C11 1.50(3) . ?
C4 C3 1.385(13) 6_554 ?
C4 H4 0.9300 . ?
C3 C4 1.385(13) 2 ?
C3 C2 1.394(16) 2 ?
C3 C6 1.516(13) . ?
C2 C3 1.394(16) 6_554 ?
C2 H2 0.9300 . ?
C9 C7 1.543(16) . ?
C9 H9A 0.9600 . ?
C9 H9B 0.9600 . ?
C9 H9C 0.9600 . ?
C8 O2 1.279(9) 4_664 ?
C8 C7 1.521(12) . ?
C11 H11A 0.9600 . ?
C11 H11B 0.9600 . ?
C11 H11C 0.9600 . ?
C6 H6A 0.9700 . ?
C6 H6B 0.9700 . ?
C7 H7 0.9800 . ?

loop_
_geom_angle_atom_site_label_1
_geom_angle_atom_site_label_2
_geom_angle_atom_site_label_3
_geom_angle
_geom_angle_site_symmetry_1
_geom_angle_site_symmetry_3
_geom_angle_publ_flag
O3 Zn1 N2 109.4(4) . . ?
O3 Zn1 O2 94.4(3) . . ?
N2 Zn1 O2 88.9(3) . . ?
O3 Zn1 N1 137.4(4) . . ?
N2 Zn1 N1 112.7(4) . . ?
O2 Zn1 N1 93.0(2) . . ?
O3 Zn1 O1 91.6(3) . . ?
N2 Zn1 O1 94.6(2) . . ?
O2 Zn1 O1 171.6(2) . . ?
N1 Zn1 O1 78.6(2) . . ?
C8 O1 Zn1 113.5(5) . . ?
C8 O2 Zn1 130.4(5) 4_665 . ?
C7 N1 C6 112.0(7) . . ?
C7 N1 Zn1 110.4(5) . . ?
C6 N1 Zn1 110.8(5) . . ?
C4 C5 N2 123.4(8) . . ?
C4 C5 H5 118.3 . . ?
N2 C5 H5 118.3 . . ?
C10 O3 Zn1 116.9(11) . . ?
C1 N2 C5 116.8(9) . . ?
C1 N2 Zn1 118.6(8) . . ?
C5 N2 Zn1 124.6(6) . . ?
N2 C1 C2 121.8(12) . . ?
N2 C1 H1 119.1 . . ?
C2 C1 H1 119.1 . . ?
O4 C10 O3 119(2) . . ?
O4 C10 C11 121(2) . . ?
O3 C10 C11 118.0(18) . . ?
C5 C4 C3 121.2(9) . 6_554 ?
C5 C4 H4 119.4 . . ?
C3 C4 H4 119.4 6_554 . ?
C4 C3 C2 116.1(9) 2 2 ?
C4 C3 C6 122.9(9) 2 . ?
C2 C3 C6 120.7(9) 2 . ?
C3 C2 C1 120.7(10) 6_554 . ?
C3 C2 H2 119.7 6_554 . ?
C1 C2 H2 119.7 . . ?
C7 C9 H9A 109.5 . . ?
C7 C9 H9B 109.5 . . ?
H9A C9 H9B 109.5 . . ?
C7 C9 H9C 109.5 . . ?
H9A C9 H9C 109.5 . . ?
H9B C9 H9C 109.5 . . ?
O1 C8 O2 125.2(7) . 4_664 ?
O1 C8 C7 120.0(7) . . ?
O2 C8 C7 114.8(7) 4_664 . ?
C10 C11 H11A 109.5 . . ?
C10 C11 H11B 109.5 . . ?
H11A C11 H11B 109.5 . . ?
C10 C11 H11C 109.5 . . ?
H11A C11 H11C 109.5 . . ?
H11B C11 H11C 109.5 . . ?
N1 C6 C3 109.2(9) . . ?
N1 C6 H6A 109.8 . . ?
C3 C6 H6A 109.8 . . ?
N1 C6 H6B 109.8 . . ?
C3 C6 H6B 109.8 . . ?
H6A C6 H6B 108.3 . . ?
N1 C7 C8 109.1(7) . . ?
N1 C7 C9 110.7(9) . . ?
C8 C7 C9 108.4(9) . . ?
N1 C7 H7 109.5 . . ?
C8 C7 H7 109.5 . . ?
C9 C7 H7 109.5 . . ?

loop_
_geom_torsion_atom_site_label_1
_geom_torsion_atom_site_label_2
_geom_torsion_atom_site_label_3
_geom_torsion_atom_site_label_4
_geom_torsion
_geom_torsion_site_symmetry_1
_geom_torsion_site_symmetry_2
_geom_torsion_site_symmetry_3
_geom_torsion_site_symmetry_4
_geom_torsion_publ_flag
O3 Zn1 O1 C8 -121.7(6) . . . . ?
N2 Zn1 O1 C8 128.7(6) . . . . ?
O2 Zn1 O1 C8 15(2) . . . . ?
N1 Zn1 O1 C8 16.5(6) . . . . ?
O3 Zn1 O2 C8 100.2(8) . . . 4_665 ?
N2 Zn1 O2 C8 -150.4(8) . . . 4_665 ?
N1 Zn1 O2 C8 -37.8(8) . . . 4_665 ?
O1 Zn1 O2 C8 -36(2) . . . 4_665 ?
O3 Zn1 N1 C7 54.5(8) . . . . ?
N2 Zn1 N1 C7 -115.6(6) . . . . ?
O2 Zn1 N1 C7 154.4(6) . . . . ?
O1 Zn1 N1 C7 -25.3(6) . . . . ?
O3 Zn1 N1 C6 179.1(5) . . . . ?
N2 Zn1 N1 C6 9.1(6) . . . . ?
O2 Zn1 N1 C6 -81.0(6) . . . . ?
O1 Zn1 N1 C6 99.3(6) . . . . ?
N2 Zn1 O3 C10 -156.3(11) . . . . ?
O2 Zn1 O3 C10 -65.9(11) . . . . ?
N1 Zn1 O3 C10 33.4(13) . . . . ?
O1 Zn1 O3 C10 108.3(11) . . . . ?
C4 C5 N2 C1 -1.6(16) . . . . ?
C4 C5 N2 Zn1 177.7(8) . . . . ?
O3 Zn1 N2 C1 72.9(10) . . . . ?
O2 Zn1 N2 C1 -21.4(10) . . . . ?
N1 Zn1 N2 C1 -114.2(9) . . . . ?
O1 Zn1 N2 C1 166.3(9) . . . . ?
O3 Zn1 N2 C5 -106.4(9) . . . . ?
O2 Zn1 N2 C5 159.3(9) . . . . ?
N1 Zn1 N2 C5 66.5(9) . . . . ?
O1 Zn1 N2 C5 -13.0(9) . . . . ?
C5 N2 C1 C2 3.1(19) . . . . ?
Zn1 N2 C1 C2 -176.3(11) . . . . ?
Zn1 O3 C10 O4 -2(2) . . . . ?
Zn1 O3 C10 C11 -167.4(16) . . . . ?
N2 C5 C4 C3 0.5(17) . . . 6_554 ?
N2 C1 C2 C3 -4(2) . . . 6_554 ?
Zn1 O1 C8 O2 174.7(7) . . . 4_664 ?
Zn1 O1 C8 C7 -3.9(10) . . . . ?
C7 N1 C6 C3 -62.9(9) . . . . ?
Zn1 N1 C6 C3 173.4(6) . . . . ?
C4 C3 C6 N1 116.7(12) 2 . . . ?
C2 C3 C6 N1 -57.1(14) 2 . . . ?
C6 N1 C7 C8 -94.1(8) . . . . ?
Zn1 N1 C7 C8 29.9(9) . . . . ?
C6 N1 C7 C9 146.7(10) . . . . ?
Zn1 N1 C7 C9 -89.4(10) . . . . ?
O1 C8 C7 N1 -17.6(11) . . . . ?
O2 C8 C7 N1 163.7(8) 4_664 . . . ?
O1 C8 C7 C9 103.0(10) . . . . ?
O2 C8 C7 C9 -75.7(11) 4_664 . . . ?

_diffrn_measured_fraction_theta_max 0.856
_diffrn_reflns_theta_full        25.00
_diffrn_measured_fraction_theta_full 0.998
_refine_diff_density_max         0.835
_refine_diff_density_min         -0.486
_refine_diff_density_rms         0.123
