####################################################################### 
# 
# This file contains crystal structure data downloaded from the 
# Cambridge Structural Database (CSD) hosted by the Cambridge 
# Crystallographic Data Centre (CCDC).
# 
# Full information about CCDC data access policies and citation 
# guidelines are available at http://www.ccdc.cam.ac.uk/access/V1 
# 
# Audit and citation data items may have been added by the CCDC. 
# Please retain this information to preserve the provenance of 
# this file and to allow appropriate attribution of the data. 
# 
#######################################################################

data_AlaZnBr
_audit_block_doi                 10.5517/ccztrq7
_database_code_depnum_ccdc_archive 'CCDC 918490'
loop_
_citation_id
_citation_doi
_citation_year
1 10.1039/c3cc41842a 2013
_audit_update_record             
;
2013-01-08 deposited with the CCDC.	2024-07-08 downloaded from the CCDC.
;
_audit_creation_method           SHELXL-97
_chemical_name_systematic        
;
?
;
_chemical_name_common            AlaZnBr
_chemical_melting_point          ?
_chemical_formula_moiety         'C9 H11 Br N2 O2 Zn, 2H2(O)'
_chemical_formula_sum            'C9 H15 Br N2 O4 Zn'
_chemical_formula_weight         360.52
_chemical_absolute_configuration syn
loop_
_atom_type_symbol
_atom_type_description
_atom_type_scat_dispersion_real
_atom_type_scat_dispersion_imag
_atom_type_scat_source
C C 0.0033 0.0016 'International Tables Vol C Tables 4.2.6.8 and 6.1.1.4'
H H 0.0000 0.0000 'International Tables Vol C Tables 4.2.6.8 and 6.1.1.4'
N N 0.0061 0.0033 'International Tables Vol C Tables 4.2.6.8 and 6.1.1.4'
O O 0.0106 0.0060 'International Tables Vol C Tables 4.2.6.8 and 6.1.1.4'
Zn Zn 0.2839 1.4301 'International Tables Vol C Tables 4.2.6.8 and 6.1.1.4'
Br Br -0.2901 2.4595 'International Tables Vol C Tables 4.2.6.8 and 6.1.1.4'

_symmetry_cell_setting           hexagonal
_symmetry_space_group_name_H-M   P61

loop_
_symmetry_equiv_pos_as_xyz
'x, y, z'
'x-y, x, z+1/6'
'-y, x-y, z+1/3'
'-x, -y, z+1/2'
'-x+y, -x, z+2/3'
'y, -x+y, z+5/6'

_cell_length_a                   17.7440(3)
_cell_length_b                   17.7440(3)
_cell_length_c                   10.17155(19)
_cell_angle_alpha                90.00
_cell_angle_beta                 90.00
_cell_angle_gamma                120.00
_cell_volume                     2773.45(12)
_cell_formula_units_Z            6
_cell_measurement_temperature    100(2)
_cell_measurement_reflns_used    ?
_cell_measurement_theta_min      ?
_cell_measurement_theta_max      29.22

_exptl_crystal_description       rod
_exptl_crystal_colour            colorless
_exptl_crystal_size_max          0.6
_exptl_crystal_size_mid          0.2
_exptl_crystal_size_min          0.2
_exptl_crystal_density_meas      ?
_exptl_crystal_density_diffrn    1.281
_exptl_crystal_density_method    'not measured'
_exptl_crystal_F_000             1056
_exptl_absorpt_coefficient_mu    3.492
_exptl_absorpt_correction_type   multi-scan
_exptl_absorpt_correction_T_min  0.437
_exptl_absorpt_correction_T_max  0.497
_exptl_absorpt_process_details   'Blessing, Acta Cryst. (1995) A51 33-38'

_exptl_special_details           
;
?
;

_diffrn_ambient_temperature      100(2)
_diffrn_radiation_wavelength     0.71073
_diffrn_radiation_type           MoK\a
_diffrn_radiation_source         'fine-focus sealed tube'
_diffrn_radiation_monochromator  graphite
_diffrn_measurement_device_type  ?
_diffrn_measurement_method       ?
_diffrn_detector_area_resol_mean ?
_diffrn_standards_number         ?
_diffrn_standards_interval_count ?
_diffrn_standards_interval_time  ?
_diffrn_standards_decay_%        ?
_diffrn_reflns_number            6778
_diffrn_reflns_av_R_equivalents  0.0345
_diffrn_reflns_av_sigmaI/netI    0.0480
_diffrn_reflns_limit_h_min       -15
_diffrn_reflns_limit_h_max       23
_diffrn_reflns_limit_k_min       -24
_diffrn_reflns_limit_k_max       22
_diffrn_reflns_limit_l_min       -11
_diffrn_reflns_limit_l_max       13
_diffrn_reflns_theta_min         3.05
_diffrn_reflns_theta_max         29.22
_reflns_number_total             4042
_reflns_number_gt                3883
_reflns_threshold_expression     >2sigma(I)

_computing_data_collection       'Bruker SMART'
_computing_cell_refinement       'Bruker SMART'
_computing_data_reduction        'Bruker SAINT'
_computing_structure_solution    'SHELXS-97 (Sheldrick, 1990)'
_computing_structure_refinement  'SHELXL-97 (Sheldrick, 1997)'
_computing_molecular_graphics    'Bruker SHELXTL'
_computing_publication_material  'Bruker SHELXTL'

_refine_special_details          
;
Refinement of F^2^ against ALL reflections. The weighted R-factor wR and
goodness of fit S are based on F^2^, conventional R-factors R are based
on F, with F set to zero for negative F^2^. The threshold expression of
F^2^ > 2sigma(F^2^) is used only for calculating R-factors(gt) etc. and is
not relevant to the choice of reflections for refinement. R-factors based
on F^2^ are statistically about twice as large as those based on F, and R-
factors based on ALL data will be even larger.
;

_refine_ls_structure_factor_coef Fsqd
_refine_ls_matrix_type           full
_refine_ls_weighting_scheme      calc
_refine_ls_weighting_details     
'calc w=1/[\s^2^(Fo^2^)+(0.0745P)^2^+2.5041P] where P=(Fo^2^+2Fc^2^)/3'
_atom_sites_solution_primary     direct
_atom_sites_solution_secondary   difmap
_atom_sites_solution_hydrogens   geom
_refine_ls_hydrogen_treatment    constr
_refine_ls_extinction_method     none
_refine_ls_extinction_coef       ?
_refine_ls_abs_structure_details 'Flack H D (1983), Acta Cryst. A39, 876-881'
_refine_ls_abs_structure_Flack   -0.012(18)
_refine_ls_number_reflns         4042
_refine_ls_number_parameters     155
_refine_ls_number_restraints     1
_refine_ls_R_factor_all          0.0507
_refine_ls_R_factor_gt           0.0482
_refine_ls_wR_factor_ref         0.1351
_refine_ls_wR_factor_gt          0.1309
_refine_ls_goodness_of_fit_ref   1.094
_refine_ls_restrained_S_all      1.093
_refine_ls_shift/su_max          0.001
_refine_ls_shift/su_mean         0.000

loop_
_atom_site_label
_atom_site_type_symbol
_atom_site_fract_x
_atom_site_fract_y
_atom_site_fract_z
_atom_site_U_iso_or_equiv
_atom_site_adp_type
_atom_site_occupancy
_atom_site_symmetry_multiplicity
_atom_site_calc_flag
_atom_site_refinement_flags
_atom_site_disorder_assembly
_atom_site_disorder_group
Zn1 Zn 0.46837(3) 0.92447(3) 0.13189(5) 0.02004(14) Uani 1 1 d . . .
Br1 Br 0.31859(5) 0.87000(6) 0.10153(9) 0.0715(3) Uani 1 1 d . . .
N1 N 0.5581(3) 1.0558(2) 0.1116(4) 0.0228(8) Uani 1 1 d . . .
H1 H 0.5505 1.0728 0.0306 0.027 Uiso 1 1 calc R . .
O1 O 0.4831(2) 0.97267(19) 0.3318(3) 0.0243(7) Uani 1 1 d . . .
O2 O 0.4945(3) 0.9067(2) -0.0643(3) 0.0376(9) Uani 1 1 d . . .
C3 C 0.7150(3) 1.1600(4) 0.0826(5) 0.0367(13) Uani 1 1 d . . .
N2 N 0.5081(3) 0.8380(3) 0.1847(4) 0.0303(9) Uani 1 1 d . . .
C8 C 0.5077(3) 1.0523(3) 0.3359(4) 0.0240(9) Uani 1 1 d . . .
C6 C 0.6455(3) 1.0685(3) 0.1166(6) 0.0338(11) Uani 1 1 d . . .
H6A H 0.6493 1.0283 0.0559 0.041 Uiso 1 1 calc R . .
H6B H 0.6563 1.0546 0.2044 0.041 Uiso 1 1 calc R . .
C7 C 0.5413(4) 1.1061(3) 0.2096(4) 0.0283(11) Uani 1 1 d . . .
H7 H 0.5956 1.1600 0.2286 0.034 Uiso 1 1 calc R . .
C5 C 0.5481(4) 0.8436(3) 0.2966(5) 0.0338(11) Uani 1 1 d . . .
H5 H 0.5602 0.8895 0.3530 0.041 Uiso 1 1 calc R . .
C2 C 0.7112(4) 1.1955(4) -0.0328(6) 0.060(2) Uani 1 1 d . . .
H2 H 0.6668 1.1626 -0.0920 0.072 Uiso 1 1 calc R . .
C4 C 0.5730(4) 0.7839(4) 0.3339(6) 0.0420(14) Uani 1 1 d . . .
H4 H 0.6010 0.7897 0.4137 0.050 Uiso 1 1 calc R . .
C1 C 0.4923(6) 0.7736(4) 0.1024(5) 0.055(2) Uani 1 1 d . . .
H1A H 0.4651 0.7699 0.0225 0.066 Uiso 1 1 calc R . .
C9 C 0.4738(6) 1.1284(5) 0.1583(6) 0.055(2) Uani 1 1 d . . .
H9A H 0.4944 1.1610 0.0781 0.083 Uiso 1 1 calc R . .
H9B H 0.4647 1.1626 0.2227 0.083 Uiso 1 1 calc R . .
H9C H 0.4199 1.0757 0.1420 0.083 Uiso 1 1 calc R . .
O3 O 0.7483(18) 1.0112(15) 0.423(3) 0.47(2) Uani 1 1 d . . .
O4 O 0.7432(14) 0.9254(16) -0.070(7) 0.56(4) Uani 1 1 d . . .

loop_
_atom_site_aniso_label
_atom_site_aniso_U_11
_atom_site_aniso_U_22
_atom_site_aniso_U_33
_atom_site_aniso_U_23
_atom_site_aniso_U_13
_atom_site_aniso_U_12
Zn1 0.0300(3) 0.0127(2) 0.0111(2) 0.00000(17) -0.00106(18) 0.00591(19)
Br1 0.0332(3) 0.0758(5) 0.0801(6) -0.0176(4) -0.0115(3) 0.0081(3)
N1 0.0331(19) 0.0148(16) 0.0109(18) -0.0004(13) 0.0026(14) 0.0049(15)
O1 0.0427(19) 0.0172(14) 0.0108(14) -0.0018(11) 0.0018(12) 0.0133(14)
O2 0.085(3) 0.0233(16) 0.0103(15) 0.0005(12) -0.0037(16) 0.0318(19)
C3 0.032(3) 0.035(3) 0.019(2) -0.003(2) -0.001(2) -0.001(2)
N2 0.060(3) 0.0228(19) 0.0104(17) 0.0003(14) -0.0025(17) 0.023(2)
C8 0.043(3) 0.020(2) 0.0109(19) 0.0010(16) 0.0012(18) 0.0169(19)
C6 0.031(2) 0.025(2) 0.030(3) 0.002(2) -0.002(2) 0.0030(19)
C7 0.052(3) 0.0161(19) 0.0100(19) -0.0017(16) 0.0010(19) 0.012(2)
C5 0.057(3) 0.030(2) 0.024(2) -0.007(2) -0.011(2) 0.029(2)
C2 0.043(3) 0.051(4) 0.025(3) 0.014(3) -0.010(3) -0.022(3)
C4 0.065(4) 0.036(3) 0.034(3) -0.016(2) -0.024(3) 0.031(3)
C1 0.129(6) 0.036(3) 0.020(3) -0.010(2) -0.022(3) 0.056(4)
C9 0.121(6) 0.062(4) 0.021(3) 0.005(3) 0.004(3) 0.075(5)
O3 0.32(3) 0.31(3) 0.42(3) -0.12(2) -0.17(3) -0.11(2)
O4 0.21(2) 0.26(2) 1.21(11) 0.01(5) 0.14(4) 0.115(18)

_geom_special_details            
;
All esds (except the esd in the dihedral angle between two l.s. planes)
are estimated using the full covariance matrix. The cell esds are taken
into account individually in the estimation of esds in distances, angles
and torsion angles; correlations between esds in cell parameters are only
used when they are defined by crystal symmetry. An approximate (isotropic)
treatment of cell esds is used for estimating esds involving l.s. planes.
;

loop_
_geom_bond_atom_site_label_1
_geom_bond_atom_site_label_2
_geom_bond_distance
_geom_bond_site_symmetry_2
_geom_bond_publ_flag
Zn1 N2 2.054(4) . ?
Zn1 N1 2.073(3) . ?
Zn1 O2 2.108(3) . ?
Zn1 O1 2.170(3) . ?
Zn1 Br1 2.3504(9) . ?
N1 C6 1.451(7) . ?
N1 C7 1.465(6) . ?
O1 C8 1.254(5) . ?
O2 C8 1.260(6) 4_674 ?
C3 C2 1.350(8) . ?
C3 C4 1.395(7) 6_564 ?
C3 C6 1.508(7) . ?
N2 C5 1.319(7) . ?
N2 C1 1.328(6) . ?
C8 O2 1.260(6) 4_675 ?
C8 C7 1.532(6) . ?
C7 C9 1.529(9) . ?
C5 C4 1.388(7) . ?
C2 C1 1.401(8) 6_564 ?
C4 C3 1.395(7) 2_655 ?
C1 C2 1.402(8) 2_655 ?

loop_
_geom_angle_atom_site_label_1
_geom_angle_atom_site_label_2
_geom_angle_atom_site_label_3
_geom_angle
_geom_angle_site_symmetry_1
_geom_angle_site_symmetry_3
_geom_angle_publ_flag
N2 Zn1 N1 120.50(18) . . ?
N2 Zn1 O2 87.28(15) . . ?
N1 Zn1 O2 88.34(14) . . ?
N2 Zn1 O1 91.76(14) . . ?
N1 Zn1 O1 77.11(13) . . ?
O2 Zn1 O1 162.51(16) . . ?
N2 Zn1 Br1 117.85(14) . . ?
N1 Zn1 Br1 121.64(13) . . ?
O2 Zn1 Br1 95.86(13) . . ?
O1 Zn1 Br1 100.00(10) . . ?
C6 N1 C7 114.1(4) . . ?
C6 N1 Zn1 109.4(3) . . ?
C7 N1 Zn1 109.9(3) . . ?
C8 O1 Zn1 112.4(3) . . ?
C8 O2 Zn1 127.1(3) 4_674 . ?
C2 C3 C4 117.8(5) . 6_564 ?
C2 C3 C6 119.8(5) . . ?
C4 C3 C6 122.4(5) 6_564 . ?
C5 N2 C1 118.9(5) . . ?
C5 N2 Zn1 122.9(3) . . ?
C1 N2 Zn1 118.3(4) . . ?
O1 C8 O2 125.7(4) . 4_675 ?
O1 C8 C7 118.7(4) . . ?
O2 C8 C7 115.6(4) 4_675 . ?
N1 C6 C3 113.2(5) . . ?
N1 C7 C9 110.5(4) . . ?
N1 C7 C8 109.0(4) . . ?
C9 C7 C8 109.6(5) . . ?
N2 C5 C4 122.9(5) . . ?
C3 C2 C1 120.6(5) . 6_564 ?
C5 C4 C3 118.7(5) . 2_655 ?
N2 C1 C2 121.1(5) . 2_655 ?

_diffrn_measured_fraction_theta_max 0.893
_diffrn_reflns_theta_full        25.00
_diffrn_measured_fraction_theta_full 0.998
_refine_diff_density_max         1.156
_refine_diff_density_min         -0.971
_refine_diff_density_rms         0.117
