####################################################################### 
# 
# This file contains crystal structure data downloaded from the 
# Cambridge Structural Database (CSD) hosted by the Cambridge 
# Crystallographic Data Centre (CCDC).
# 
# Full information about CCDC data access policies and citation 
# guidelines are available at http://www.ccdc.cam.ac.uk/access/V1 
# 
# Audit and citation data items may have been added by the CCDC. 
# Please retain this information to preserve the provenance of 
# this file and to allow appropriate attribution of the data. 
# 
#######################################################################

data_2
_audit_block_doi                 10.5517/cczsht1
_database_code_depnum_ccdc_archive 'CCDC 917284'
loop_
_citation_id
_citation_doi
_citation_year
1 10.1016/j.poly.2013.03.024 2013
_audit_update_record             
;
2012-12-28 deposited with the CCDC.	2024-07-08 downloaded from the CCDC.
;
#TrackingRef 'new cif for 917284.cif'


_audit_creation_method           SHELXL-97
_chemical_name_systematic        
;
?
;
_chemical_name_common            ?
_chemical_melting_point          ?
_chemical_formula_moiety         'C46 H36 Cd N10 O4'
_chemical_formula_sum            'C46 H36 Cd N10 O4'
_chemical_formula_weight         905.26

loop_
_atom_type_symbol
_atom_type_description
_atom_type_scat_dispersion_real
_atom_type_scat_dispersion_imag
_atom_type_scat_source
C C 0.0033 0.0016 'International Tables Vol C Tables 4.2.6.8 and 6.1.1.4'
H H 0.0000 0.0000 'International Tables Vol C Tables 4.2.6.8 and 6.1.1.4'
Cd Cd -0.8075 1.2024 'International Tables Vol C Tables 4.2.6.8 and 6.1.1.4'
N N 0.0061 0.0033 'International Tables Vol C Tables 4.2.6.8 and 6.1.1.4'
O O 0.0106 0.0060 'International Tables Vol C Tables 4.2.6.8 and 6.1.1.4'

_symmetry_cell_setting           Monoclinic
_symmetry_space_group_name_H-M   C2/c
_symmetry_space_group_name_Hall  '-C 2yc'

loop_
_symmetry_equiv_pos_as_xyz
'x, y, z'
'-x, y, -z+1/2'
'x+1/2, y+1/2, z'
'-x+1/2, y+1/2, -z+1/2'
'-x, -y, -z'
'x, -y, z-1/2'
'-x+1/2, -y+1/2, -z'
'x+1/2, -y+1/2, z-1/2'

_cell_length_a                   22.996(5)
_cell_length_b                   19.443(4)
_cell_length_c                   13.889(3)
_cell_angle_alpha                90.00
_cell_angle_beta                 124.06(3)
_cell_angle_gamma                90.00
_cell_volume                     5144.6(19)
_cell_formula_units_Z            4
_cell_measurement_temperature    293(2)
_cell_measurement_reflns_used    12644
_cell_measurement_theta_min      3.00
_cell_measurement_theta_max      27.45

_exptl_crystal_description       block
_exptl_crystal_colour            yellow
_exptl_crystal_size_max          0.36
_exptl_crystal_size_mid          0.31
_exptl_crystal_size_min          0.30
_exptl_crystal_density_meas      ?
_exptl_crystal_density_diffrn    1.169
_exptl_crystal_density_method    'not measured'
_exptl_crystal_F_000             1848
_exptl_absorpt_coefficient_mu    0.471
_exptl_absorpt_correction_type   empirical
_exptl_absorpt_correction_T_min  0.8488
_exptl_absorpt_correction_T_max  0.8716
_exptl_absorpt_process_details   Abscor

_exptl_special_details           
;
Jacobson, R. (1998) Private communication
;

_diffrn_ambient_temperature      293(2)
_diffrn_radiation_wavelength     0.71073
_diffrn_radiation_type           MoK\a
_diffrn_radiation_source         'Rotating Anode'
_diffrn_radiation_monochromator  graphite
_diffrn_measurement_device_type  'Rigaku R-axis SPIDER'
_diffrn_measurement_method       '\w oscillation'
_diffrn_detector_area_resol_mean ?
_diffrn_standards_number         ?
_diffrn_standards_interval_count ?
_diffrn_standards_interval_time  ?
_diffrn_standards_decay_%        none
_diffrn_reflns_number            20677
_diffrn_reflns_av_R_equivalents  0.0760
_diffrn_reflns_av_sigmaI/netI    0.0596
_diffrn_reflns_limit_h_min       -26
_diffrn_reflns_limit_h_max       27
_diffrn_reflns_limit_k_min       -23
_diffrn_reflns_limit_k_max       23
_diffrn_reflns_limit_l_min       -16
_diffrn_reflns_limit_l_max       16
_diffrn_reflns_theta_min         3.35
_diffrn_reflns_theta_max         25.50
_reflns_number_total             4710
_reflns_number_gt                3449
_reflns_threshold_expression     >2sigma(I)

_computing_data_collection       'Rapid Auto Version 3.0 (Rigaku 2004)'
_computing_cell_refinement       'Rapid Auto Version 3.0 (Rigaku 2004)'
_computing_data_reduction        'Rapid Auto Version 3.0 (Rigaku 2004)'
_computing_structure_solution    'SHELXS-97 (Sheldrick, 1990)'
_computing_structure_refinement  'SHELXL-97 (Sheldrick, 1997)'
_computing_molecular_graphics    'Bruker SHELXTL V5.1 (Sheldrick, 1998)'
_computing_publication_material  'SHELXL-97 (Sheldrick, 1997)'

_refine_special_details          
;
Refinement of F^2^ against ALL reflections. The weighted R-factor wR and
goodness of fit S are based on F^2^, conventional R-factors R are based
on F, with F set to zero for negative F^2^. The threshold expression of
F^2^ > 2sigma(F^2^) is used only for calculating R-factors(gt) etc. and is
not relevant to the choice of reflections for refinement. R-factors based
on F^2^ are statistically about twice as large as those based on F, and R-
factors based on ALL data will be even larger.
;

_refine_ls_structure_factor_coef Fsqd
_refine_ls_matrix_type           full
_refine_ls_weighting_scheme      calc
_refine_ls_weighting_details     
'calc w=1/[\s^2^(Fo^2^)+(0.0930P)^2^+0.0000P] where P=(Fo^2^+2Fc^2^)/3'
_atom_sites_solution_primary     direct
_atom_sites_solution_secondary   difmap
_atom_sites_solution_hydrogens   geom
_refine_ls_hydrogen_treatment    constr
_refine_ls_extinction_method     SHELXL
_refine_ls_extinction_coef       0.0034(5)
_refine_ls_extinction_expression Fc^*^=kFc[1+0.001xFc^2^\l^3^/sin(2\q)]^-1/4^
_refine_ls_number_reflns         4710
_refine_ls_number_parameters     278
_refine_ls_number_restraints     0
_refine_ls_R_factor_all          0.0772
_refine_ls_R_factor_gt           0.0562
_refine_ls_wR_factor_ref         0.1749
_refine_ls_wR_factor_gt          0.1421
_refine_ls_goodness_of_fit_ref   1.146
_refine_ls_restrained_S_all      1.146
_refine_ls_shift/su_max          0.000
_refine_ls_shift/su_mean         0.000

loop_
_atom_site_label
_atom_site_type_symbol
_atom_site_fract_x
_atom_site_fract_y
_atom_site_fract_z
_atom_site_U_iso_or_equiv
_atom_site_adp_type
_atom_site_occupancy
_atom_site_symmetry_multiplicity
_atom_site_calc_flag
_atom_site_refinement_flags
_atom_site_disorder_assembly
_atom_site_disorder_group
Cd1 Cd 0.5000 0.43002(2) 0.2500 0.0527(2) Uani 1 2 d S . .
O1 O 0.3765(2) 0.22647(16) 0.3384(3) 0.0723(9) Uani 1 1 d . . .
O2 O 0.43993(17) 0.45678(15) 0.3362(3) 0.0581(8) Uani 1 1 d . . .
N1 N 0.3099(2) 0.14757(18) 0.1910(3) 0.0675(11) Uani 1 1 d . . .
N2 N 0.2883(2) 0.1351(2) 0.0758(3) 0.0720(11) Uani 1 1 d . . .
N3 N 0.41748(19) 0.34366(17) 0.2181(3) 0.0527(9) Uani 1 1 d . . .
N4 N 0.40012(19) 0.34732(18) 0.2998(3) 0.0541(9) Uani 1 1 d . . .
H4A H 0.3810 0.3135 0.3121 0.065 Uiso 1 1 calc R . .
N5 N 0.4263(2) 0.48157(17) 0.6125(3) 0.0572(9) Uani 1 1 d . . .
C1 C 0.2935(3) 0.0986(3) 0.2489(5) 0.0694(13) Uani 1 1 d . . .
C2 C 0.2940(4) 0.1173(3) 0.3449(6) 0.097(2) Uani 1 1 d . . .
H2 H 0.3044 0.1623 0.3720 0.116 Uiso 1 1 calc R . .
C3 C 0.2789(5) 0.0682(3) 0.4014(7) 0.109(2) Uani 1 1 d . . .
H3 H 0.2798 0.0807 0.4669 0.131 Uiso 1 1 calc R . .
C4 C 0.2626(4) 0.0021(3) 0.3615(6) 0.104(2) Uani 1 1 d . . .
H4 H 0.2533 -0.0306 0.3999 0.125 Uiso 1 1 calc R . .
C5 C 0.2604(4) -0.0148(3) 0.2650(6) 0.105(2) Uani 1 1 d . . .
H5 H 0.2484 -0.0595 0.2366 0.126 Uiso 1 1 calc R . .
C6 C 0.2757(3) 0.0326(3) 0.2068(5) 0.0837(16) Uani 1 1 d . . .
H6 H 0.2739 0.0198 0.1406 0.100 Uiso 1 1 calc R . .
C7 C 0.3505(3) 0.2053(2) 0.2351(4) 0.0601(11) Uani 1 1 d . . .
C8 C 0.3565(2) 0.2310(2) 0.1441(4) 0.0577(11) Uani 1 1 d . . .
C9 C 0.3159(3) 0.1848(2) 0.0494(4) 0.0603(11) Uani 1 1 d . . .
C10 C 0.2974(3) 0.1863(3) -0.0729(4) 0.0729(14) Uani 1 1 d . . .
H10A H 0.3359 0.1683 -0.0741 0.109 Uiso 1 1 calc R . .
H10B H 0.2883 0.2328 -0.1008 0.109 Uiso 1 1 calc R . .
H10C H 0.2564 0.1588 -0.1219 0.109 Uiso 1 1 calc R . .
C11 C 0.3945(2) 0.2904(2) 0.1470(3) 0.0531(10) Uani 1 1 d . . .
C12 C 0.4116(2) 0.2980(2) 0.0579(4) 0.0569(11) Uani 1 1 d . . .
C13 C 0.3846(3) 0.3525(2) -0.0177(4) 0.0661(13) Uani 1 1 d . . .
H13 H 0.3575 0.3854 -0.0113 0.079 Uiso 1 1 calc R . .
C14 C 0.3975(3) 0.3588(3) -0.1042(4) 0.0848(17) Uani 1 1 d . . .
H14 H 0.3786 0.3954 -0.1563 0.102 Uiso 1 1 calc R . .
C15 C 0.4387(3) 0.3102(4) -0.1118(5) 0.0905(18) Uani 1 1 d . . .
H15 H 0.4473 0.3141 -0.1695 0.109 Uiso 1 1 calc R . .
C16 C 0.4668(3) 0.2566(4) -0.0359(5) 0.0880(17) Uani 1 1 d . . .
H16 H 0.4954 0.2249 -0.0405 0.106 Uiso 1 1 calc R . .
C17 C 0.4525(3) 0.2492(3) 0.0497(4) 0.0733(14) Uani 1 1 d . . .
H17 H 0.4703 0.2119 0.1003 0.088 Uiso 1 1 calc R . .
C18 C 0.4150(2) 0.4063(2) 0.3570(4) 0.0501(10) Uani 1 1 d . . .
C19 C 0.4040(2) 0.4110(2) 0.4528(4) 0.0520(10) Uani 1 1 d . . .
C20 C 0.3727(3) 0.3617(3) 0.4812(4) 0.0739(15) Uani 1 1 d . . .
H20 H 0.3553 0.3212 0.4387 0.089 Uiso 1 1 calc R . .
C21 C 0.3682(4) 0.3746(3) 0.5753(5) 0.0910(19) Uani 1 1 d . . .
H21 H 0.3470 0.3427 0.5962 0.109 Uiso 1 1 calc R . .
C22 C 0.3949(3) 0.4341(2) 0.6367(5) 0.0739(16) Uani 1 1 d . . .
H22 H 0.3908 0.4418 0.6988 0.089 Uiso 1 1 calc R . .
C23 C 0.4286(2) 0.4701(2) 0.5191(4) 0.0548(11) Uani 1 1 d . . .
H23 H 0.4479 0.5041 0.4979 0.066 Uiso 1 1 calc R . .

loop_
_atom_site_aniso_label
_atom_site_aniso_U_11
_atom_site_aniso_U_22
_atom_site_aniso_U_33
_atom_site_aniso_U_23
_atom_site_aniso_U_13
_atom_site_aniso_U_12
Cd1 0.0778(4) 0.0470(3) 0.0532(3) 0.000 0.0487(3) 0.000
O1 0.113(3) 0.0585(19) 0.0594(19) -0.0113(15) 0.057(2) -0.0232(18)
O2 0.092(2) 0.0491(16) 0.0605(18) -0.0065(14) 0.0596(18) -0.0109(16)
N1 0.100(3) 0.049(2) 0.067(2) -0.0079(18) 0.055(2) -0.017(2)
N2 0.099(3) 0.055(2) 0.070(3) -0.0138(19) 0.052(2) -0.016(2)
N3 0.077(2) 0.0482(19) 0.0510(19) -0.0024(16) 0.0471(19) -0.0055(17)
N4 0.079(2) 0.052(2) 0.0511(19) -0.0033(16) 0.0489(19) -0.0117(17)
N5 0.086(3) 0.050(2) 0.055(2) -0.0060(16) 0.051(2) -0.0096(18)
C1 0.090(4) 0.052(3) 0.073(3) -0.001(2) 0.050(3) -0.012(3)
C2 0.153(6) 0.063(3) 0.118(5) -0.010(3) 0.103(5) -0.025(4)
C3 0.156(7) 0.100(5) 0.108(5) -0.007(4) 0.097(5) -0.036(4)
C4 0.147(6) 0.073(4) 0.114(5) -0.001(4) 0.085(5) -0.029(4)
C5 0.145(6) 0.056(3) 0.104(5) 0.000(3) 0.064(4) -0.024(3)
C6 0.114(5) 0.056(3) 0.085(4) -0.001(3) 0.058(4) -0.017(3)
C7 0.083(3) 0.049(2) 0.057(3) -0.003(2) 0.044(2) -0.008(2)
C8 0.075(3) 0.049(2) 0.058(3) -0.008(2) 0.043(2) -0.009(2)
C9 0.080(3) 0.047(2) 0.063(3) -0.005(2) 0.046(3) -0.003(2)
C10 0.090(4) 0.071(3) 0.059(3) -0.015(2) 0.044(3) -0.014(3)
C11 0.072(3) 0.048(2) 0.049(2) -0.0068(19) 0.040(2) 0.002(2)
C12 0.081(3) 0.052(2) 0.049(2) -0.020(2) 0.043(2) -0.015(2)
C13 0.097(4) 0.061(3) 0.058(3) -0.004(2) 0.054(3) -0.009(3)
C14 0.123(5) 0.086(4) 0.064(3) -0.001(3) 0.063(3) -0.019(3)
C15 0.113(5) 0.120(5) 0.067(3) -0.018(4) 0.068(4) -0.024(4)
C16 0.095(4) 0.119(5) 0.072(3) -0.024(3) 0.060(3) 0.000(4)
C17 0.087(4) 0.079(3) 0.063(3) -0.017(2) 0.048(3) -0.005(3)
C18 0.067(3) 0.046(2) 0.048(2) -0.0042(19) 0.039(2) -0.005(2)
C19 0.075(3) 0.045(2) 0.048(2) 0.0003(18) 0.042(2) -0.003(2)
C20 0.116(4) 0.063(3) 0.079(3) -0.016(2) 0.076(3) -0.027(3)
C21 0.146(6) 0.084(4) 0.091(4) -0.015(3) 0.096(4) -0.038(4)
C22 0.112(4) 0.076(4) 0.069(3) -0.021(2) 0.071(3) -0.024(3)
C23 0.074(3) 0.056(3) 0.054(2) -0.003(2) 0.048(2) -0.005(2)

_geom_special_details            
;
All esds (except the esd in the dihedral angle between two l.s. planes)
are estimated using the full covariance matrix. The cell esds are taken
into account individually in the estimation of esds in distances, angles
and torsion angles; correlations between esds in cell parameters are only
used when they are defined by crystal symmetry. An approximate (isotropic)
treatment of cell esds is used for estimating esds involving l.s. planes.
;

loop_
_geom_bond_atom_site_label_1
_geom_bond_atom_site_label_2
_geom_bond_distance
_geom_bond_site_symmetry_2
_geom_bond_publ_flag
Cd1 O2 2.337(3) . ?
Cd1 O2 2.337(3) 2_655 ?
Cd1 N3 2.382(3) . ?
Cd1 N3 2.382(3) 2_655 ?
Cd1 N5 2.419(3) 5_666 ?
Cd1 N5 2.419(3) 6_565 ?
O1 C7 1.275(5) . ?
O2 C18 1.251(5) . ?
N1 C7 1.366(6) . ?
N1 N2 1.405(5) . ?
N1 C1 1.426(6) . ?
N2 C9 1.318(6) . ?
N3 C11 1.319(5) . ?
N3 N4 1.401(4) . ?
N4 C18 1.326(5) . ?
N4 H4A 0.8600 . ?
N5 C22 1.327(6) . ?
N5 C23 1.346(5) . ?
N5 Cd1 2.419(3) 5_666 ?
C1 C6 1.373(7) . ?
C1 C2 1.376(7) . ?
C2 C3 1.398(8) . ?
C2 H2 0.9300 . ?
C3 C4 1.366(8) . ?
C3 H3 0.9300 . ?
C4 C5 1.352(9) . ?
C4 H4 0.9300 . ?
C5 C6 1.395(8) . ?
C5 H5 0.9300 . ?
C6 H6 0.9300 . ?
C7 C8 1.436(6) . ?
C8 C9 1.426(6) . ?
C8 C11 1.435(6) . ?
C9 C10 1.503(6) . ?
C10 H10A 0.9600 . ?
C10 H10B 0.9600 . ?
C10 H10C 0.9600 . ?
C11 C12 1.501(5) . ?
C12 C13 1.371(6) . ?
C12 C17 1.384(7) . ?
C13 C14 1.396(6) . ?
C13 H13 0.9300 . ?
C14 C15 1.384(8) . ?
C14 H14 0.9300 . ?
C15 C16 1.361(8) . ?
C15 H15 0.9300 . ?
C16 C17 1.406(6) . ?
C16 H16 0.9300 . ?
C17 H17 0.9300 . ?
C18 C19 1.490(5) . ?
C19 C23 1.380(6) . ?
C19 C20 1.381(6) . ?
C20 C21 1.390(6) . ?
C20 H20 0.9300 . ?
C21 C22 1.363(7) . ?
C21 H21 0.9300 . ?
C22 H22 0.9300 . ?
C23 H23 0.9300 . ?

loop_
_geom_angle_atom_site_label_1
_geom_angle_atom_site_label_2
_geom_angle_atom_site_label_3
_geom_angle
_geom_angle_site_symmetry_1
_geom_angle_site_symmetry_3
_geom_angle_publ_flag
O2 Cd1 O2 154.28(14) . 2_655 ?
O2 Cd1 N3 67.33(10) . . ?
O2 Cd1 N3 134.36(11) 2_655 . ?
O2 Cd1 N3 134.36(11) . 2_655 ?
O2 Cd1 N3 67.33(10) 2_655 2_655 ?
N3 Cd1 N3 90.36(17) . 2_655 ?
O2 Cd1 N5 77.95(11) . 5_666 ?
O2 Cd1 N5 83.82(11) 2_655 5_666 ?
N3 Cd1 N5 141.35(11) . 5_666 ?
N3 Cd1 N5 102.77(13) 2_655 5_666 ?
O2 Cd1 N5 83.82(11) . 6_565 ?
O2 Cd1 N5 77.95(11) 2_655 6_565 ?
N3 Cd1 N5 102.77(13) . 6_565 ?
N3 Cd1 N5 141.35(11) 2_655 6_565 ?
N5 Cd1 N5 89.41(18) 5_666 6_565 ?
C18 O2 Cd1 115.0(3) . . ?
C7 N1 N2 111.7(3) . . ?
C7 N1 C1 128.7(4) . . ?
N2 N1 C1 119.3(4) . . ?
C9 N2 N1 105.7(4) . . ?
C11 N3 N4 118.0(3) . . ?
C11 N3 Cd1 129.5(3) . . ?
N4 N3 Cd1 111.8(2) . . ?
C18 N4 N3 115.8(3) . . ?
C18 N4 H4A 122.1 . . ?
N3 N4 H4A 122.1 . . ?
C22 N5 C23 116.7(4) . . ?
C22 N5 Cd1 122.3(3) . 5_666 ?
C23 N5 Cd1 119.4(3) . 5_666 ?
C6 C1 C2 119.9(5) . . ?
C6 C1 N1 119.6(4) . . ?
C2 C1 N1 120.6(4) . . ?
C1 C2 C3 119.6(6) . . ?
C1 C2 H2 120.2 . . ?
C3 C2 H2 120.2 . . ?
C4 C3 C2 120.7(7) . . ?
C4 C3 H3 119.6 . . ?
C2 C3 H3 119.6 . . ?
C5 C4 C3 118.8(6) . . ?
C5 C4 H4 120.6 . . ?
C3 C4 H4 120.6 . . ?
C4 C5 C6 122.1(6) . . ?
C4 C5 H5 118.9 . . ?
C6 C5 H5 118.9 . . ?
C1 C6 C5 118.8(5) . . ?
C1 C6 H6 120.6 . . ?
C5 C6 H6 120.6 . . ?
O1 C7 N1 122.9(4) . . ?
O1 C7 C8 131.4(4) . . ?
N1 C7 C8 105.7(4) . . ?
C9 C8 C11 127.4(4) . . ?
C9 C8 C7 104.8(4) . . ?
C11 C8 C7 127.8(4) . . ?
N2 C9 C8 112.0(4) . . ?
N2 C9 C10 117.0(4) . . ?
C8 C9 C10 130.9(4) . . ?
C9 C10 H10A 109.5 . . ?
C9 C10 H10B 109.5 . . ?
H10A C10 H10B 109.5 . . ?
C9 C10 H10C 109.5 . . ?
H10A C10 H10C 109.5 . . ?
H10B C10 H10C 109.5 . . ?
N3 C11 C8 129.4(4) . . ?
N3 C11 C12 111.1(4) . . ?
C8 C11 C12 119.5(3) . . ?
C13 C12 C17 120.3(4) . . ?
C13 C12 C11 119.4(4) . . ?
C17 C12 C11 120.2(4) . . ?
C12 C13 C14 120.2(5) . . ?
C12 C13 H13 119.9 . . ?
C14 C13 H13 119.9 . . ?
C15 C14 C13 119.4(5) . . ?
C15 C14 H14 120.3 . . ?
C13 C14 H14 120.3 . . ?
C16 C15 C14 120.8(5) . . ?
C16 C15 H15 119.6 . . ?
C14 C15 H15 119.6 . . ?
C15 C16 C17 119.9(5) . . ?
C15 C16 H16 120.0 . . ?
C17 C16 H16 120.0 . . ?
C12 C17 C16 119.4(5) . . ?
C12 C17 H17 120.3 . . ?
C16 C17 H17 120.3 . . ?
O2 C18 N4 122.5(3) . . ?
O2 C18 C19 119.2(4) . . ?
N4 C18 C19 118.2(4) . . ?
C23 C19 C20 118.2(4) . . ?
C23 C19 C18 115.8(4) . . ?
C20 C19 C18 126.0(4) . . ?
C19 C20 C21 117.9(4) . . ?
C19 C20 H20 121.1 . . ?
C21 C20 H20 121.1 . . ?
C22 C21 C20 119.8(5) . . ?
C22 C21 H21 120.1 . . ?
C20 C21 H21 120.1 . . ?
N5 C22 C21 123.3(4) . . ?
N5 C22 H22 118.3 . . ?
C21 C22 H22 118.3 . . ?
N5 C23 C19 123.9(4) . . ?
N5 C23 H23 118.0 . . ?
C19 C23 H23 118.0 . . ?

loop_
_platon_squeeze_void_nr
_platon_squeeze_void_average_x
_platon_squeeze_void_average_y
_platon_squeeze_void_average_z
_platon_squeeze_void_volume
_platon_squeeze_void_count_electrons
1 0.413 -0.013 -0.066 1587.7 37.1
_platon_squeeze_details          
; ?
;


_diffrn_measured_fraction_theta_max 0.983
_diffrn_reflns_theta_full        25.50
_diffrn_measured_fraction_theta_full 0.983
_refine_diff_density_max         0.718
_refine_diff_density_min         -1.110
_refine_diff_density_rms         0.087
