####################################################################### 
# 
# This file contains crystal structure data downloaded from the 
# Cambridge Structural Database (CSD) hosted by the Cambridge 
# Crystallographic Data Centre (CCDC).
# 
# Full information about CCDC data access policies and citation 
# guidelines are available at http://www.ccdc.cam.ac.uk/access/V1 
# 
# Audit and citation data items may have been added by the CCDC. 
# Please retain this information to preserve the provenance of 
# this file and to allow appropriate attribution of the data. 
# 
#######################################################################

data_dehydrated_crystal_[Ni(C10H24N4)][BPyDC]_(1')
_audit_block_doi                 10.5517/cc7jxqc
_database_code_depnum_ccdc_archive 'CCDC 224803'
loop_
_citation_id
_citation_doi
_citation_year
1 10.1002/anie.200353494 2004
_audit_update_record             
;
2003-11-20 deposited with the CCDC.	2024-07-08 downloaded from the CCDC.
;
#CCDC number : 224803 - revised data


_audit_creation_method           SHELXL-97
_chemical_name_systematic        
;
?
;
_chemical_name_common            ?
_chemical_melting_point          ?
_chemical_formula_moiety         ?
_chemical_formula_sum            'C22 H30 N6 Ni1 O4'
_chemical_formula_weight         501.23

loop_
_atom_type_symbol
_atom_type_description
_atom_type_scat_dispersion_real
_atom_type_scat_dispersion_imag
_atom_type_scat_source
C C 0.0033 0.0016 'International Tables Vol C Tables 4.2.6.8 and 6.1.1.4'
H H 0.0000 0.0000 'International Tables Vol C Tables 4.2.6.8 and 6.1.1.4'
N N 0.0061 0.0033 'International Tables Vol C Tables 4.2.6.8 and 6.1.1.4'
O O 0.0106 0.0060 'International Tables Vol C Tables 4.2.6.8 and 6.1.1.4'
Ni Ni 0.3393 1.1124 'International Tables Vol C Tables 4.2.6.8 and 6.1.1.4'

_symmetry_cell_setting           Trigonal
_symmetry_space_group_name_H-M   R-3

loop_
_symmetry_equiv_pos_as_xyz
'x, y, z'
'-y, x-y, z'
'-x+y, -x, z'
'x+2/3, y+1/3, z+1/3'
'-y+2/3, x-y+1/3, z+1/3'
'-x+y+2/3, -x+1/3, z+1/3'
'x+1/3, y+2/3, z+2/3'
'-y+1/3, x-y+2/3, z+2/3'
'-x+y+1/3, -x+2/3, z+2/3'
'-x, -y, -z'
'y, -x+y, -z'
'x-y, x, -z'
'-x+2/3, -y+1/3, -z+1/3'
'y+2/3, -x+y+1/3, -z+1/3'
'x-y+2/3, x+1/3, -z+1/3'
'-x+1/3, -y+2/3, -z+2/3'
'y+1/3, -x+y+2/3, -z+2/3'
'x-y+1/3, x+2/3, -z+2/3'

_cell_length_a                   26.0190(10)
_cell_length_b                   26.0190(10)
_cell_length_c                   11.3009(4)
_cell_angle_alpha                90.00
_cell_angle_beta                 90.00
_cell_angle_gamma                120.00
_cell_volume                     6625.6(4)
_cell_formula_units_Z            9
_cell_measurement_temperature    293(2)
_cell_measurement_reflns_used    ?
_cell_measurement_theta_min      1.57
_cell_measurement_theta_max      27.47

_exptl_crystal_description       '  hexagonal rod'
_exptl_crystal_colour            pink
_exptl_crystal_size_max          0.5
_exptl_crystal_size_mid          0.3
_exptl_crystal_size_min          0.25
_exptl_crystal_density_meas      ?
_exptl_crystal_density_diffrn    1.131
_exptl_crystal_density_method    'not measured'
_exptl_crystal_F_000             2376
_exptl_absorpt_coefficient_mu    0.691
_exptl_absorpt_correction_type   ?
_exptl_absorpt_correction_T_min  ?
_exptl_absorpt_correction_T_max  ?
_exptl_absorpt_process_details   ?

_exptl_special_details           
;
?
;

_diffrn_ambient_temperature      293(2)
_diffrn_radiation_wavelength     0.71073
_diffrn_radiation_type           MoK\a
_diffrn_radiation_source         'fine-focus sealed tube'
_diffrn_radiation_monochromator  graphite
_diffrn_measurement_device_type  ?
_diffrn_measurement_method       ?
_diffrn_detector_area_resol_mean ?
_diffrn_standards_number         ?
_diffrn_standards_interval_count ?
_diffrn_standards_interval_time  ?
_diffrn_standards_decay_%        ?
_diffrn_reflns_number            5751
_diffrn_reflns_av_R_equivalents  0.0288
_diffrn_reflns_av_sigmaI/netI    0.0493
_diffrn_reflns_limit_h_min       -33
_diffrn_reflns_limit_h_max       33
_diffrn_reflns_limit_k_min       -28
_diffrn_reflns_limit_k_max       28
_diffrn_reflns_limit_l_min       -9
_diffrn_reflns_limit_l_max       14
_diffrn_reflns_theta_min         2.02
_diffrn_reflns_theta_max         27.48
_reflns_number_total             3379
_reflns_number_gt                2397
_reflns_threshold_expression     >2sigma(I)

_computing_data_collection       ?
_computing_cell_refinement       ?
_computing_data_reduction        ?
_computing_structure_solution    'SHELXS-97 (Sheldrick, 1990)'
_computing_structure_refinement  'SHELXL-97 (Sheldrick, 1997)'
_computing_molecular_graphics    ?
_computing_publication_material  ?

_refine_special_details          
;
Refinement of F^2^ against ALL reflections.  The weighted R-factor wR and
goodness of fit S are based on F^2^, conventional R-factors R are based
on F, with F set to zero for negative F^2^. The threshold expression of
F^2^ > 2sigma(F^2^) is used only for calculating R-factors(gt) etc. and is
not relevant to the choice of reflections for refinement.  R-factors based
on F^2^ are statistically about twice as large as those based on F, and R-
factors based on ALL data will be even larger.
;

_refine_ls_structure_factor_coef Fsqd
_refine_ls_matrix_type           full
_refine_ls_weighting_scheme      calc
_refine_ls_weighting_details     
'calc w=1/[\s^2^(Fo^2^)+(0.0862P)^2^+2.9631P] where P=(Fo^2^+2Fc^2^)/3'
_atom_sites_solution_primary     direct
_atom_sites_solution_secondary   difmap
_atom_sites_solution_hydrogens   geom
_refine_ls_hydrogen_treatment    mixed
_refine_ls_extinction_method     none
_refine_ls_extinction_coef       ?
_refine_ls_number_reflns         3379
_refine_ls_number_parameters     151
_refine_ls_number_restraints     0
_refine_ls_R_factor_all          0.0895
_refine_ls_R_factor_gt           0.0503
_refine_ls_wR_factor_ref         0.1768
_refine_ls_wR_factor_gt          0.1391
_refine_ls_goodness_of_fit_ref   1.210
_refine_ls_restrained_S_all      1.210
_refine_ls_shift/su_max          0.006
_refine_ls_shift/su_mean         0.001

loop_
_atom_site_label
_atom_site_type_symbol
_atom_site_fract_x
_atom_site_fract_y
_atom_site_fract_z
_atom_site_U_iso_or_equiv
_atom_site_adp_type
_atom_site_occupancy
_atom_site_symmetry_multiplicity
_atom_site_calc_flag
_atom_site_refinement_flags
_atom_site_disorder_assembly
_atom_site_disorder_group
Ni1 Ni 0.5000 0.0000 0.0000 0.0421(2) Uani 1 2 d S . .
N1 N 0.50139(12) -0.07830(14) 0.0140(2) 0.0598(8) Uani 1 1 d . . .
H1 H 0.4671 -0.1070 -0.0192 0.072 Uiso 1 1 calc R . .
N2 N 0.47247(12) -0.01392(13) 0.1749(2) 0.0579(8) Uani 1 1 d . . .
H2 H 0.5050 0.0086 0.2203 0.070 Uiso 1 1 calc R . .
C1 C 0.4971(2) -0.0916(2) 0.1415(3) 0.0795(12) Uani 1 1 d . . .
H1A H 0.5358 -0.0685 0.1781 0.095 Uiso 1 1 calc R . .
H1B H 0.4838 -0.1333 0.1531 0.095 Uiso 1 1 calc R . .
C2 C 0.45404(19) -0.07673(19) 0.1981(3) 0.0767(13) Uani 1 1 d . . .
H2A H 0.4146 -0.1022 0.1664 0.092 Uiso 1 1 calc R . .
H2B H 0.4528 -0.0835 0.2828 0.092 Uiso 1 1 calc R . .
C3 C 0.42792(16) 0.0021(2) 0.2062(3) 0.0756(13) Uani 1 1 d . . .
H3A H 0.4195 -0.0045 0.2902 0.091 Uiso 1 1 calc R . .
H3B H 0.3915 -0.0235 0.1637 0.091 Uiso 1 1 calc R . .
C4 C 0.44736(18) 0.0657(2) 0.1780(3) 0.0795(13) Uani 1 1 d . . .
H4A H 0.4865 0.0906 0.2114 0.095 Uiso 1 1 calc R . .
H4B H 0.4206 0.0760 0.2172 0.095 Uiso 1 1 calc R . .
C5 C 0.44962(17) 0.0807(2) 0.0479(3) 0.0753(11) Uani 1 1 d . . .
H5A H 0.4122 0.0528 0.0110 0.090 Uiso 1 1 calc R . .
H5B H 0.4549 0.1201 0.0398 0.090 Uiso 1 1 calc R . .
O1 O 0.40997(9) -0.04456(11) -0.05413(19) 0.0562(6) Uani 1 1 d . . .
O2 O 0.40531(12) -0.11865(18) -0.1601(3) 0.1120(13) Uani 1 1 d . . .
C6 C 0.38266(13) -0.09125(17) -0.1147(3) 0.0550(9) Uani 1 1 d . . .
C7 C 0.31748(12) -0.11532(15) -0.1329(2) 0.0469(8) Uani 1 1 d . . .
C8 C 0.28316(14) -0.16765(17) -0.1938(3) 0.0546(9) Uani 1 1 d . . .
H8 H 0.3003 -0.1886 -0.2252 0.066 Uiso 1 1 calc R . .
C9 C 0.22302(13) -0.18861(15) -0.2077(3) 0.0508(8) Uani 1 1 d . . .
H9 H 0.1994 -0.2237 -0.2486 0.061 Uiso 1 1 calc R . .
C10 C 0.19882(13) -0.15712(13) -0.1608(2) 0.0418(7) Uani 1 1 d . . .
N3 N 0.23124(11) -0.10575(12) -0.1008(2) 0.0514(7) Uani 1 1 d . . .
C11 C 0.28944(13) -0.08673(15) -0.0887(3) 0.0529(8) Uani 1 1 d . . .
H11 H 0.3124 -0.0516 -0.0472 0.063 Uiso 1 1 calc R . .

loop_
_atom_site_aniso_label
_atom_site_aniso_U_11
_atom_site_aniso_U_22
_atom_site_aniso_U_33
_atom_site_aniso_U_23
_atom_site_aniso_U_13
_atom_site_aniso_U_12
Ni1 0.0194(3) 0.0551(4) 0.0456(3) 0.0048(2) -0.00481(19) 0.0139(3)
N1 0.0433(17) 0.0639(19) 0.0679(16) 0.0007(14) -0.0184(13) 0.0235(15)
N2 0.0335(15) 0.073(2) 0.0498(14) 0.0022(13) -0.0019(12) 0.0137(15)
C1 0.083(3) 0.072(3) 0.076(2) 0.017(2) -0.020(2) 0.034(2)
C2 0.067(3) 0.073(3) 0.0545(19) 0.0190(18) -0.0008(17) 0.009(2)
C3 0.036(2) 0.106(4) 0.067(2) -0.007(2) 0.0070(16) 0.022(2)
C4 0.046(2) 0.117(4) 0.085(2) -0.025(3) -0.0071(19) 0.047(3)
C5 0.050(2) 0.084(3) 0.106(3) -0.013(2) -0.024(2) 0.044(2)
O1 0.0229(11) 0.0697(16) 0.0679(12) -0.0087(12) -0.0129(9) 0.0170(11)
O2 0.0387(16) 0.139(3) 0.164(3) -0.083(2) -0.0384(17) 0.0481(19)
C6 0.0241(16) 0.072(2) 0.0632(18) -0.0107(17) -0.0073(13) 0.0203(17)
C7 0.0219(14) 0.062(2) 0.0517(15) -0.0012(14) -0.0057(11) 0.0175(15)
C8 0.0293(16) 0.070(2) 0.0644(19) -0.0150(16) -0.0095(13) 0.0251(17)
C9 0.0283(16) 0.053(2) 0.0640(18) -0.0162(15) -0.0128(13) 0.0152(15)
C10 0.0199(14) 0.0454(18) 0.0510(16) 0.0020(12) -0.0065(11) 0.0094(13)
N3 0.0235(13) 0.0483(16) 0.0739(16) -0.0105(13) -0.0133(11) 0.0115(12)
C11 0.0238(15) 0.050(2) 0.0735(19) -0.0101(15) -0.0154(13) 0.0101(14)

_geom_special_details            
;
All esds (except the esd in the dihedral angle between two l.s. planes)
are estimated using the full covariance matrix.  The cell esds are taken
into account individually in the estimation of esds in distances, angles
and torsion angles; correlations between esds in cell parameters are only
used when they are defined by crystal symmetry.  An approximate (isotropic)
treatment of cell esds is used for estimating esds involving l.s. planes.
;

loop_
_geom_bond_atom_site_label_1
_geom_bond_atom_site_label_2
_geom_bond_distance
_geom_bond_site_symmetry_2
_geom_bond_publ_flag
Ni1 N1 2.062(3) 10_655 ?
Ni1 N1 2.062(3) . ?
Ni1 N2 2.072(3) 10_655 ?
Ni1 N2 2.072(3) . ?
Ni1 O1 2.1189(19) . ?
Ni1 O1 2.1189(19) 10_655 ?
N1 C1 1.473(5) . ?
N1 C5 1.482(5) 10_655 ?
N1 H1 0.9100 . ?
N2 C3 1.459(5) . ?
N2 C2 1.479(5) . ?
N2 H2 0.9100 . ?
C1 C2 1.498(6) . ?
C1 H1A 0.9700 . ?
C1 H1B 0.9700 . ?
C2 H2A 0.9700 . ?
C2 H2B 0.9700 . ?
C3 C4 1.503(6) . ?
C3 H3A 0.9700 . ?
C3 H3B 0.9700 . ?
C4 C5 1.514(5) . ?
C4 H4A 0.9700 . ?
C4 H4B 0.9700 . ?
C5 N1 1.482(5) 10_655 ?
C5 H5A 0.9700 . ?
C5 H5B 0.9700 . ?
O1 C6 1.259(4) . ?
O2 C6 1.240(4) . ?
C6 C7 1.499(4) . ?
C7 C11 1.371(5) . ?
C7 C8 1.382(5) . ?
C8 C9 1.385(4) . ?
C8 H8 0.9300 . ?
C9 C10 1.366(4) . ?
C9 H9 0.9300 . ?
C10 N3 1.353(4) . ?
C10 C10 1.494(6) 16_544 ?
N3 C11 1.344(4) . ?
C11 H11 0.9300 . ?

loop_
_geom_angle_atom_site_label_1
_geom_angle_atom_site_label_2
_geom_angle_atom_site_label_3
_geom_angle
_geom_angle_site_symmetry_1
_geom_angle_site_symmetry_3
_geom_angle_publ_flag
N1 Ni1 N1 180.00(15) 10_655 . ?
N1 Ni1 N2 85.94(12) 10_655 10_655 ?
N1 Ni1 N2 94.06(12) . 10_655 ?
N1 Ni1 N2 94.06(12) 10_655 . ?
N1 Ni1 N2 85.94(12) . . ?
N2 Ni1 N2 180.00(17) 10_655 . ?
N1 Ni1 O1 87.58(10) 10_655 . ?
N1 Ni1 O1 92.42(10) . . ?
N2 Ni1 O1 90.64(9) 10_655 . ?
N2 Ni1 O1 89.36(9) . . ?
N1 Ni1 O1 92.42(10) 10_655 10_655 ?
N1 Ni1 O1 87.58(10) . 10_655 ?
N2 Ni1 O1 89.36(9) 10_655 10_655 ?
N2 Ni1 O1 90.64(9) . 10_655 ?
O1 Ni1 O1 180.00(14) . 10_655 ?
C1 N1 C5 114.7(3) . 10_655 ?
C1 N1 Ni1 105.7(3) . . ?
C5 N1 Ni1 116.4(2) 10_655 . ?
C1 N1 H1 106.4 . . ?
C5 N1 H1 106.4 10_655 . ?
Ni1 N1 H1 106.4 . . ?
C3 N2 C2 114.1(3) . . ?
C3 N2 Ni1 115.9(2) . . ?
C2 N2 Ni1 104.8(2) . . ?
C3 N2 H2 107.2 . . ?
C2 N2 H2 107.2 . . ?
Ni1 N2 H2 107.2 . . ?
N1 C1 C2 109.7(3) . . ?
N1 C1 H1A 109.7 . . ?
C2 C1 H1A 109.7 . . ?
N1 C1 H1B 109.7 . . ?
C2 C1 H1B 109.7 . . ?
H1A C1 H1B 108.2 . . ?
N2 C2 C1 109.7(3) . . ?
N2 C2 H2A 109.7 . . ?
C1 C2 H2A 109.7 . . ?
N2 C2 H2B 109.7 . . ?
C1 C2 H2B 109.7 . . ?
H2A C2 H2B 108.2 . . ?
N2 C3 C4 112.7(3) . . ?
N2 C3 H3A 109.1 . . ?
C4 C3 H3A 109.1 . . ?
N2 C3 H3B 109.1 . . ?
C4 C3 H3B 109.1 . . ?
H3A C3 H3B 107.8 . . ?
C3 C4 C5 115.9(4) . . ?
C3 C4 H4A 108.3 . . ?
C5 C4 H4A 108.3 . . ?
C3 C4 H4B 108.3 . . ?
C5 C4 H4B 108.3 . . ?
H4A C4 H4B 107.4 . . ?
N1 C5 C4 111.8(3) 10_655 . ?
N1 C5 H5A 109.3 10_655 . ?
C4 C5 H5A 109.3 . . ?
N1 C5 H5B 109.3 10_655 . ?
C4 C5 H5B 109.3 . . ?
H5A C5 H5B 107.9 . . ?
C6 O1 Ni1 128.4(2) . . ?
O2 C6 O1 125.3(3) . . ?
O2 C6 C7 117.8(3) . . ?
O1 C6 C7 116.9(3) . . ?
C11 C7 C8 117.4(3) . . ?
C11 C7 C6 121.4(3) . . ?
C8 C7 C6 121.2(3) . . ?
C7 C8 C9 119.4(3) . . ?
C7 C8 H8 120.3 . . ?
C9 C8 H8 120.3 . . ?
C10 C9 C8 119.3(3) . . ?
C10 C9 H9 120.4 . . ?
C8 C9 H9 120.4 . . ?
N3 C10 C9 122.7(3) . . ?
N3 C10 C10 114.5(3) . 16_544 ?
C9 C10 C10 122.8(3) . 16_544 ?
C11 N3 C10 116.5(3) . . ?
N3 C11 C7 124.8(3) . . ?
N3 C11 H11 117.6 . . ?
C7 C11 H11 117.6 . . ?

_diffrn_measured_fraction_theta_max 0.999
_diffrn_reflns_theta_full        27.48
_diffrn_measured_fraction_theta_full 0.999
_refine_diff_density_max         0.669
_refine_diff_density_min         -0.611
_refine_diff_density_rms         0.192
