####################################################################### 
# 
# This file contains crystal structure data downloaded from the 
# Cambridge Structural Database (CSD) hosted by the Cambridge 
# Crystallographic Data Centre (CCDC).
# 
# Full information about CCDC data access policies and citation 
# guidelines are available at http://www.ccdc.cam.ac.uk/access/V1 
# 
# Audit and citation data items may have been added by the CCDC. 
# Please retain this information to preserve the provenance of 
# this file and to allow appropriate attribution of the data. 
# 
#######################################################################

data_BIDQOU
#This CIF has been generated from an entry in the Cambridge Structural Database
_database_code_depnum_ccdc_archive 'CCDC 1110365'
_database_code_CSD               BIDQOU
_audit_creation_method           'Created from the CSD'
_audit_update_record             
;
2024-07-08 downloaded from the CCDC.
;
_database_code_NBS               709458
_chemical_formula_moiety         '(C48 H48 Ho2 N12 O24)n'
_chemical_name_systematic        
catena-(tris(N,N'-bis(Salicylidene)ethane-1,2-diamine)-bis(trinitrato-holmium(iii)))
_chemical_properties_biological  'potential antiviral and fungistatic agent'
_chemical_absolute_configuration unk
_diffrn_ambient_temperature      295
_exptl_crystal_density_diffrn    1.36
#These two values have been output from a single CSD field.
_refine_ls_R_factor_gt           0.049
_refine_ls_wR_factor_gt          0.049
_diffrn_radiation_probe          x-ray
_symmetry_cell_setting           trigonal
_symmetry_space_group_name_H-M   'P -3 c 1'
_symmetry_Int_Tables_number      165
_space_group_name_Hall           '-P 3 2"c'
loop_
_symmetry_equiv_pos_site_id
_symmetry_equiv_pos_as_xyz
1 x,y,z
2 -y,x-y,z
3 y,x,1/2-z
4 -x+y,-x,z
5 -x,-x+y,1/2-z
6 x-y,-y,1/2-z
7 -x,-y,-z
8 y,-x+y,-z
9 -y,-x,1/2+z
10 x-y,x,-z
11 x,x-y,1/2+z
12 -x+y,y,1/2+z
_cell_length_a                   15.818(2)
_cell_length_b                   15.818(2)
_cell_length_c                   16.978(3)
_cell_angle_alpha                90
_cell_angle_beta                 90
_cell_angle_gamma                120
_cell_volume                     3678.92
_exptl_crystal_colour            yellow
_cell_formula_units_Z            2
_exptl_crystal_recrystallization_method pyridine/methanol/ether
loop_
_atom_site_label
_atom_site_type_symbol
_atom_site_fract_x
_atom_site_fract_y
_atom_site_fract_z
Ho1 Ho 0.3333 0.6667 0.1713(1)
O1 O 0.2000(6) 0.6054(11) 0.0985(4)
C1 C 0.1455(10) 0.6341(8) 0.0659(7)
C2 C 0.1833(12) 0.7144(13) 0.0104(9)
C3 C 0.1235(16) 0.7440(16) -0.0222(9)
C4 C 0.0256(14) 0.6981(17) -0.0079(10)
C5 C -0.0166(13) 0.6178(13) 0.0415(10)
C6 C 0.0444(10) 0.5886(11) 0.0785(7)
C7 C -0.0049(8) 0.4958(18) 0.1269(6)
C8 C -0.0100(12) 0.3723(11) 0.2059(8)
N1 N 0.0387(9) 0.4619(10) 0.1637(6)
N2 N 0.2865(11) 0.4947(11) 0.2615(9)
O2 O 0.3598(11) 0.5765(10) 0.2760(7)
O3 O 0.2645(14) 0.4281(13) 0.3080(10)
O4 O 0.2306(7) 0.4897(7) 0.2055(6)
O1A O 0.3946(11) 0.5946(13) 0.0985(4)
O1C O 0.4054(13) 0.8000(6) 0.0985(4)
O2A O 0.4235(10) 0.7833(15) 0.2760(7)
O2C O 0.2167(15) 0.6402(11) 0.2760(7)
O4A O 0.5103(7) 0.7409(10) 0.2055(6)
O4C O 0.2591(10) 0.7694(7) 0.2055(6)
C8D C 0.0100(12) 0.3823(16) 0.2941(8)
C1A C 0.3659(8) 0.5114(13) 0.0659(7)
C1C C 0.4886(13) 0.8545(10) 0.0659(7)
N2A N 0.5053(11) 0.7918(16) 0.2615(9)
N2C N 0.2082(16) 0.7135(11) 0.2615(9)
N1D N -0.0387(9) 0.4232(13) 0.3363(6)
C2A C 0.2856(13) 0.4689(18) 0.0104(9)
C6A C 0.4114(11) 0.4558(15) 0.0785(7)
C2C C 0.5311(18) 0.8167(12) 0.0104(9)
C6C C 0.5442(15) 0.9556(10) 0.0785(7)
O3A O 0.5719(13) 0.8364(19) 0.3080(10)
O3C O 0.1636(19) 0.7355(14) 0.3080(10)
C7D C 0.0049(8) 0.5007(20) 0.3731(6)
C3A C 0.2560(16) 0.3795(23) -0.0222(9)
C5A C 0.3822(13) 0.3656(18) 0.0415(10)
C7A C 0.5042(18) 0.4993(20) 0.1269(6)
C3C C 0.6205(23) 0.8765(16) -0.0222(9)
C5C C 0.6344(18) 1.0166(13) 0.0415(10)
C7C C 0.5007(20) 1.0049(8) 0.1269(6)
C6D C -0.0444(10) 0.5442(15) 0.4215(7)
C4A C 0.3019(17) 0.3275(22) -0.0079(10)
N1A N 0.5381(10) 0.5768(13) 0.1637(6)
C4C C 0.6725(22) 0.9744(14) -0.0079(10)
N1C N 0.4232(13) 0.9613(9) 0.1637(6)
C1D C -0.1455(10) 0.4886(13) 0.4341(7)
C5D C 0.0166(13) 0.6344(18) 0.4585(10)
C8A C 0.6277(11) 0.6177(16) 0.2059(8)
C8C C 0.3823(16) 1.0100(12) 0.2059(8)
O1D O -0.2000(6) 0.4054(13) 0.4015(4)
C2D C -0.1833(12) 0.5311(18) 0.4896(9)
C4D C -0.0256(14) 0.6725(22) 0.5079(10)
C8E C 0.6177(16) 0.6277(11) 0.2941(8)
C8B C 0.3723(11) 0.9900(12) 0.2941(8)
Ho1B Ho -0.3333 0.3333 0.3287(1)
C3D C -0.1235(16) 0.6205(23) 0.5222(9)
N1E N 0.5768(13) 0.5381(10) 0.3363(6)
N1B N 0.4619(10) 1.0387(9) 0.3363(6)
O1B O -0.3946(11) 0.2000(6) 0.4015(4)
O1E O -0.4054(13) 0.3946(11) 0.4015(4)
O2B O -0.4235(10) 0.3598(11) 0.2240(7)
O2D O -0.3598(11) 0.2167(15) 0.2240(7)
O2E O -0.2167(15) 0.4235(10) 0.2240(7)
O4B O -0.5103(7) 0.2306(7) 0.2945(6)
O4D O -0.2306(7) 0.2591(10) 0.2945(6)
O4E O -0.2591(10) 0.5103(7) 0.2945(6)
C7E C 0.4993(20) 0.5042(18) 0.3731(6)
C7B C 0.4958(18) 0.9951(8) 0.3731(6)
N2B N -0.5053(11) 0.2865(11) 0.2385(9)
N2D N -0.2865(11) 0.2082(16) 0.2385(9)
N2E N -0.2082(16) 0.5053(11) 0.2385(9)
C6E C 0.4558(15) 0.4114(11) 0.4215(7)
C6B C 0.5886(11) 1.0444(10) 0.4215(7)
O3B O -0.5719(13) 0.2645(14) 0.1920(10)
O3D O -0.2645(14) 0.1636(19) 0.1920(10)
O3E O -0.1636(19) 0.5719(13) 0.1920(10)
C1E C 0.5114(13) 0.3659(8) 0.4341(7)
C5E C 0.3656(18) 0.3822(13) 0.4585(10)
C1B C 0.6341(8) 1.1455(10) 0.4341(7)
C5B C 0.6178(13) 0.9834(13) 0.4585(10)
O1E O 0.5946(13) 0.3946(11) 0.4015(4)
C2E C 0.4689(18) 0.2856(13) 0.4896(9)
C4E C 0.3275(22) 0.3019(17) 0.5079(10)
O1B O 0.6054(11) 1.2000(6) 0.4015(4)
C2B C 0.7144(13) 1.1833(12) 0.4896(9)
C4B C 0.6981(17) 1.0256(14) 0.5079(10)
Ho1B Ho 0.6667 0.3333 0.3287(1)
C3E C 0.3795(23) 0.2560(16) 0.5222(9)
Ho1B Ho 0.6667 1.3333 0.3287(1)
C3B C 0.7440(16) 1.1235(16) 0.5222(9)

#END
