####################################################################### 
# 
# This file contains crystal structure data downloaded from the 
# Cambridge Structural Database (CSD) hosted by the Cambridge 
# Crystallographic Data Centre (CCDC).
# 
# Full information about CCDC data access policies and citation 
# guidelines are available at http://www.ccdc.cam.ac.uk/access/V1 
# 
# Audit and citation data items may have been added by the CCDC. 
# Please retain this information to preserve the provenance of 
# this file and to allow appropriate attribution of the data. 
# 
#######################################################################

data_Cd
_audit_block_doi                 10.5517/cc10f6vh
_database_code_depnum_ccdc_archive 'CCDC 936226'
loop_
_citation_id
_citation_doi
_citation_year
1 10.1039/C3CC43225D 2013
_audit_update_record             
;
2013-04-29 deposited with the CCDC.	2024-07-08 downloaded from the CCDC.
;

_audit_creation_method           SHELXL-97

_chemical_name_systematic        
; 
 ? 
;
_chemical_name_common            ?
_chemical_melting_point          ?
_chemical_formula_moiety         ?
_chemical_formula_sum            'C158 H172 Br Cd3 N18 O31 Ti4'
_chemical_formula_weight         3427.85

loop_
_atom_type_symbol
_atom_type_description
_atom_type_scat_dispersion_real
_atom_type_scat_dispersion_imag
_atom_type_scat_source
C C 0.0181 0.0091 'International Tables Vol C Tables 4.2.6.8 and 6.1.1.4'
H H 0.0000 0.0000 'International Tables Vol C Tables 4.2.6.8 and 6.1.1.4'
N N 0.0311 0.0180 'International Tables Vol C Tables 4.2.6.8 and 6.1.1.4'
O O 0.0492 0.0322 'International Tables Vol C Tables 4.2.6.8 and 6.1.1.4'
Ti Ti 0.2191 1.8069 'International Tables Vol C Tables 4.2.6.8 and 6.1.1.4'
Cd Cd 0.1185 4.6533 'International Tables Vol C Tables 4.2.6.8 and 6.1.1.4'
Br Br -0.6763 1.2805 'International Tables Vol C Tables 4.2.6.8 and 6.1.1.4'

_symmetry_cell_setting           Orthorhombic
_symmetry_space_group_name_H-M   P2(1)2(1)2

loop_
_symmetry_equiv_pos_as_xyz
'x, y, z'
'-x, -y, z'
'x+1/2, -y+1/2, -z'
'-x+1/2, y+1/2, -z'

_cell_length_a                   34.4419(13)
_cell_length_b                   16.7622(8)
_cell_length_c                   18.4473(8)
_cell_angle_alpha                90.00
_cell_angle_beta                 90.00
_cell_angle_gamma                90.00
_cell_volume                     10650.0(8)
_cell_formula_units_Z            2
_cell_measurement_temperature    123(2)
_cell_measurement_reflns_used    11722
_cell_measurement_theta_min      3.79
_cell_measurement_theta_max      55

_exptl_crystal_description       Block
_exptl_crystal_colour            Yellow
_exptl_crystal_size_max          0.10
_exptl_crystal_size_mid          0.08
_exptl_crystal_size_min          0.08
_exptl_crystal_density_meas      ?
_exptl_crystal_density_diffrn    1.069
_exptl_crystal_density_method    'not measured'
_exptl_crystal_F_000             3522
_exptl_absorpt_coefficient_mu    4.258
_exptl_absorpt_correction_type   Multi-scan
_exptl_absorpt_correction_T_min  0.698
_exptl_absorpt_correction_T_max  0.711
_exptl_absorpt_process_details   'SADABS (Sheldrick, 1996)'

_exptl_special_details           
; 
 ? 
;

_diffrn_ambient_temperature      123(2)
_diffrn_radiation_wavelength     1.54178
_diffrn_radiation_type           CuK\a
_diffrn_radiation_source         'fine-focus sealed tube'
_diffrn_radiation_monochromator  graphite
_diffrn_measurement_device_type  ?
_diffrn_measurement_method       ?
_diffrn_detector_area_resol_mean ?
_diffrn_standards_number         ?
_diffrn_standards_interval_count ?
_diffrn_standards_interval_time  ?
_diffrn_standards_decay_%        ?
_diffrn_reflns_number            26815
_diffrn_reflns_av_R_equivalents  0.0894
_diffrn_reflns_av_sigmaI/netI    0.1186
_diffrn_reflns_limit_h_min       -36
_diffrn_reflns_limit_h_max       32
_diffrn_reflns_limit_k_min       -13
_diffrn_reflns_limit_k_max       17
_diffrn_reflns_limit_l_min       -16
_diffrn_reflns_limit_l_max       19
_diffrn_reflns_theta_min         3.79
_diffrn_reflns_theta_max         55.00
_reflns_number_total             11722
_reflns_number_gt                8154
_reflns_threshold_expression     >2sigma(I)

_computing_data_collection       'SMART (Bruker, 1997)'
_computing_cell_refinement       'SAINT (Bruker, 1999)'
_computing_data_reduction        SAINT
_computing_structure_solution    'SHELXS-97 (Sheldrick, 1990)'
_computing_structure_refinement  'SHELXL-97 (Sheldrick, 1997)'
_computing_molecular_graphics    'SHELXTL-PLUS (Sheldrick, 1990)'
_computing_publication_material  SHELXL-97

_refine_special_details          
; 
 Refinement of F^2^ against ALL reflections.  The weighted R-factor wR and 
 goodness of fit S are based on F^2^, conventional R-factors R are based 
 on F, with F set to zero for negative F^2^. The threshold expression of 
 F^2^ > 2sigma(F^2^) is used only for calculating R-factors(gt) etc. and is 
 not relevant to the choice of reflections for refinement.  R-factors based 
 on F^2^ are statistically about twice as large as those based on F, and R- 
 factors based on ALL data will be even larger. 
;

_refine_ls_structure_factor_coef Fsqd
_refine_ls_matrix_type           full
_refine_ls_weighting_scheme      calc
_refine_ls_weighting_details     
'calc w=1/[\s^2^(Fo^2^)+(0.0988P)^2^+0.0000P] where P=(Fo^2^+2Fc^2^)/3'
_atom_sites_solution_primary     direct
_atom_sites_solution_secondary   difmap
_atom_sites_solution_hydrogens   geom
_refine_ls_hydrogen_treatment    constr
_refine_ls_extinction_method     none
_refine_ls_extinction_coef       ?
_refine_ls_abs_structure_details 'Flack H D (1983), Acta Cryst. A39, 876-881'
_refine_ls_abs_structure_Flack   0.005(12)
_refine_ls_number_reflns         11722
_refine_ls_number_parameters     783
_refine_ls_number_restraints     14
_refine_ls_R_factor_all          0.1197
_refine_ls_R_factor_gt           0.0794
_refine_ls_wR_factor_ref         0.2054
_refine_ls_wR_factor_gt          0.1873
_refine_ls_goodness_of_fit_ref   1.074
_refine_ls_restrained_S_all      1.080
_refine_ls_shift/su_max          0.001
_refine_ls_shift/su_mean         0.000

loop_
_atom_site_label
_atom_site_type_symbol
_atom_site_fract_x
_atom_site_fract_y
_atom_site_fract_z
_atom_site_U_iso_or_equiv
_atom_site_adp_type
_atom_site_occupancy
_atom_site_symmetry_multiplicity
_atom_site_calc_flag
_atom_site_refinement_flags
_atom_site_disorder_assembly
_atom_site_disorder_group
Ti1 Ti 0.82225(6) 0.65309(13) 0.17004(11) 0.0464(5) Uani 1 1 d . . .
Ti2 Ti 0.83826(6) 0.77514(13) 0.32796(12) 0.0464(5) Uani 1 1 d . . .
Cd1 Cd 1.0000 0.5000 0.58940(6) 0.0475(3) Uani 1 2 d S . .
Cd2 Cd 0.99419(2) 0.62269(6) 0.74984(5) 0.0662(3) Uani 1 1 d . . .
Br1 Br 1.0000 0.5000 0.44943(10) 0.0841(7) Uani 1 2 d S . .
N1 N 0.8740(2) 0.7210(6) 0.1371(5) 0.049(2) Uani 1 1 d . . .
N2 N 0.7966(3) 0.7611(6) 0.1117(6) 0.051(3) Uani 1 1 d . . .
N4 N 0.8632(3) 0.6593(6) 0.3615(5) 0.048(2) Uani 1 1 d . . .
N5 N 0.7894(2) 0.7177(5) 0.3901(5) 0.042(2) Uani 1 1 d . . .
O1 O 0.9354(3) 0.5801(8) -0.2015(7) 0.109(5) Uani 1 1 d . . .
O2 O 0.9754(3) 0.6399(7) -0.1317(6) 0.080(3) Uani 1 1 d . . .
O3 O 0.8327(2) 0.6000(4) 0.0799(4) 0.050(2) Uani 1 1 d . . .
O4 O 0.7707(2) 0.6205(5) 0.1687(4) 0.0484(19) Uani 1 1 d . . .
O5 O 0.8471(2) 0.5735(5) 0.2232(4) 0.054(2) Uani 1 1 d . . .
O6 O 0.82104(18) 0.7181(4) 0.2498(4) 0.0449(17) Uani 1 1 d . . .
O7 O 0.9871(2) 0.6324(6) 0.6165(5) 0.060(2) Uani 1 1 d . . .
O8 O 0.9657(2) 0.7252(7) 0.6927(5) 0.085(3) Uani 1 1 d . . .
O9 O 1.0000 0.5000 0.7182(8) 0.104(5) Uani 1 2 d S . .
O10 O 0.8619(2) 0.8077(5) 0.4184(4) 0.050(2) Uani 1 1 d . . .
O11 O 0.80307(19) 0.8603(5) 0.3236(4) 0.0461(19) Uani 1 1 d . . .
O12 O 0.8807(2) 0.8108(5) 0.2742(4) 0.055(2) Uani 1 1 d . . .
C1 C 0.9439(4) 0.6070(9) -0.1417(9) 0.071(4) Uani 1 1 d . . .
C2 C 0.91487(18) 0.6034(5) -0.0830(4) 0.061(3) Uani 1 1 d G . .
C3 C 0.92332(16) 0.6353(5) -0.0153(4) 0.065(4) Uani 1 1 d G . .
H3A H 0.9474 0.6587 -0.0068 0.078 Uiso 1 1 calc R . .
C4 C 0.8958(2) 0.6323(5) 0.0398(3) 0.052(3) Uani 1 1 d G . .
C5 C 0.85983(18) 0.5973(5) 0.0270(3) 0.051(3) Uani 1 1 d G . .
C6 C 0.85139(16) 0.5655(5) -0.0407(4) 0.054(3) Uani 1 1 d G . .
C7 C 0.8789(2) 0.5685(5) -0.0957(3) 0.064(4) Uani 1 1 d G . .
H7A H 0.8733 0.5472 -0.1411 0.077 Uiso 1 1 calc R . .
C8 C 0.8111(3) 0.5249(8) -0.0568(7) 0.056(3) Uani 1 1 d . . .
C9 C 0.8076(3) 0.5024(10) -0.1385(7) 0.062(3) Uani 1 1 d . . .
H9A H 0.7828 0.4779 -0.1471 0.093 Uiso 1 1 calc R . .
H9B H 0.8279 0.4657 -0.1511 0.093 Uiso 1 1 calc R . .
H9C H 0.8099 0.5496 -0.1675 0.093 Uiso 1 1 calc R . .
C10 C 0.8085(4) 0.4499(8) -0.0093(8) 0.069(4) Uani 1 1 d . . .
H10A H 0.7842 0.4234 -0.0182 0.104 Uiso 1 1 calc R . .
H10B H 0.8100 0.4648 0.0408 0.104 Uiso 1 1 calc R . .
H10C H 0.8295 0.4146 -0.0209 0.104 Uiso 1 1 calc R . .
C11 C 0.7767(3) 0.5803(7) -0.0389(7) 0.053(3) Uani 1 1 d . . .
H11A H 0.7528 0.5535 -0.0500 0.079 Uiso 1 1 calc R . .
H11B H 0.7786 0.6281 -0.0674 0.079 Uiso 1 1 calc R . .
H11C H 0.7773 0.5938 0.0116 0.079 Uiso 1 1 calc R . .
C12 C 0.9041(3) 0.6656(8) 0.1156(7) 0.056(3) Uani 1 1 d . . .
H12A H 0.9054 0.6221 0.1501 0.067 Uiso 1 1 calc R . .
H12B H 0.9290 0.6926 0.1155 0.067 Uiso 1 1 calc R . .
C13 C 0.8653(3) 0.7862(7) 0.0866(7) 0.053(3) Uani 1 1 d . . .
H13A H 0.8616 0.7616 0.0389 0.063 Uiso 1 1 calc R . .
C14 C 0.8981(4) 0.8459(9) 0.0784(8) 0.071(4) Uani 1 1 d . . .
H14A H 0.9208 0.8189 0.0594 0.086 Uiso 1 1 calc R . .
H14B H 0.9047 0.8673 0.1256 0.086 Uiso 1 1 calc R . .
C15 C 0.8868(4) 0.9163(10) 0.0264(9) 0.088(5) Uani 1 1 d . . .
H15A H 0.9069 0.9569 0.0280 0.106 Uiso 1 1 calc R . .
H15B H 0.8852 0.8966 -0.0230 0.106 Uiso 1 1 calc R . .
C16 C 0.8489(4) 0.9521(8) 0.0477(8) 0.063(4) Uani 1 1 d . . .
H16A H 0.8418 0.9926 0.0126 0.076 Uiso 1 1 calc R . .
H16B H 0.8518 0.9780 0.0945 0.076 Uiso 1 1 calc R . .
C17 C 0.8160(3) 0.8894(8) 0.0525(7) 0.057(3) Uani 1 1 d . . .
H17A H 0.7921 0.9148 0.0681 0.069 Uiso 1 1 calc R . .
H17B H 0.8116 0.8658 0.0052 0.069 Uiso 1 1 calc R . .
C18 C 0.8274(3) 0.8255(7) 0.1059(6) 0.049(3) Uani 1 1 d . . .
H18A H 0.8302 0.8504 0.1537 0.059 Uiso 1 1 calc R . .
C19 C 0.7632(3) 0.7902(7) 0.1497(7) 0.051(3) Uani 1 1 d . . .
H19A H 0.7531 0.8358 0.1233 0.061 Uiso 1 1 calc R . .
H19B H 0.7716 0.8093 0.1968 0.061 Uiso 1 1 calc R . .
C20 C 0.73013(16) 0.7325(4) 0.1615(5) 0.044(3) Uani 1 1 d G . .
C21 C 0.6934(2) 0.7661(4) 0.1683(5) 0.053(3) Uani 1 1 d G . .
H21A H 0.6903 0.8210 0.1638 0.063 Uiso 1 1 calc R . .
C22 C 0.66144(15) 0.7177(5) 0.1817(5) 0.064(4) Uani 1 1 d G . .
C23 C 0.66618(18) 0.6357(5) 0.1884(5) 0.066(4) Uani 1 1 d G . .
H23A H 0.6448 0.6033 0.1973 0.079 Uiso 1 1 calc R . .
C24 C 0.7029(2) 0.6021(4) 0.1816(5) 0.054(3) Uani 1 1 d GD . .
C25 C 0.73487(16) 0.6504(4) 0.1682(5) 0.046(3) Uani 1 1 d G . .
C26 C 0.7074(3) 0.5092(7) 0.1896(6) 0.056(3) Uani 1 1 d D . .
C27 C 0.7279(4) 0.4746(7) 0.1218(7) 0.065(4) Uani 1 1 d D . .
H27A H 0.7305 0.4178 0.1269 0.097 Uiso 1 1 calc R . .
H27B H 0.7532 0.4981 0.1170 0.097 Uiso 1 1 calc R . .
H27C H 0.7128 0.4863 0.0794 0.097 Uiso 1 1 calc R . .
C28 C 0.6682(4) 0.4637(8) 0.1963(11) 0.096(6) Uani 1 1 d D . .
H28A H 0.6732 0.4076 0.2016 0.144 Uiso 1 1 calc R . .
H28B H 0.6529 0.4726 0.1535 0.144 Uiso 1 1 calc R . .
H28C H 0.6543 0.4828 0.2380 0.144 Uiso 1 1 calc R . .
C29 C 0.7291(4) 0.4934(10) 0.2578(8) 0.085(4) Uani 1 1 d . . .
H29A H 0.7320 0.4369 0.2643 0.128 Uiso 1 1 calc R . .
H29B H 0.7151 0.5154 0.2981 0.128 Uiso 1 1 calc R . .
H29C H 0.7543 0.5177 0.2549 0.128 Uiso 1 1 calc R . .
N3 N 0.5526(2) 0.8277(6) 0.2336(7) 0.111(3) Uani 1 1 d G . .
C30 C 0.5781(3) 0.8646(6) 0.1858(7) 0.111(3) Uani 1 1 d G . .
H30A H 0.5718 0.9138 0.1656 0.133 Uiso 1 1 calc R . .
C31 C 0.6131(3) 0.8281(7) 0.1681(7) 0.111(3) Uani 1 1 d G . .
H31A H 0.6301 0.8528 0.1361 0.133 Uiso 1 1 calc R . .
C32 C 0.6226(2) 0.7546(7) 0.1983(8) 0.111(3) Uani 1 1 d G . .
C33 C 0.5971(3) 0.7177(6) 0.2461(7) 0.111(3) Uani 1 1 d G . .
H33A H 0.6034 0.6686 0.2663 0.133 Uiso 1 1 calc R . .
C34 C 0.5621(3) 0.7543(7) 0.2638(6) 0.111(3) Uani 1 1 d G . .
H34A H 0.5451 0.7296 0.2958 0.133 Uiso 1 1 calc R . .
C35 C 0.9664(4) 0.6926(9) 0.6290(8) 0.063(4) Uani 1 1 d . . .
C36 C 0.94014(19) 0.7278(5) 0.5705(3) 0.061(4) Uani 1 1 d G . .
C37 C 0.9190(2) 0.7971(5) 0.5831(3) 0.058(3) Uani 1 1 d G . .
H37A H 0.9224 0.8251 0.6262 0.070 Uiso 1 1 calc R . .
C38 C 0.8929(2) 0.8245(4) 0.5314(4) 0.069(4) Uani 1 1 d GD . .
C39 C 0.88789(19) 0.7827(4) 0.4670(3) 0.047(3) Uani 1 1 d G . .
C40 C 0.9090(2) 0.7134(4) 0.4544(3) 0.049(3) Uani 1 1 d G . .
C41 C 0.9351(2) 0.6860(4) 0.5061(4) 0.043(3) Uani 1 1 d G . .
H41A H 0.9493 0.6396 0.4977 0.051 Uiso 1 1 calc R . .
C42 C 0.8720(4) 0.9090(8) 0.5454(8) 0.068(4) Uani 1 1 d D . .
C43 C 0.8269(4) 0.8990(10) 0.5394(9) 0.085(5) Uani 1 1 d . . .
H43A H 0.8146 0.9495 0.5480 0.128 Uiso 1 1 calc R . .
H43B H 0.8182 0.8610 0.5747 0.128 Uiso 1 1 calc R . .
H43C H 0.8204 0.8805 0.4917 0.128 Uiso 1 1 calc R . .
C44 C 0.8867(5) 0.9663(9) 0.4866(10) 0.087(5) Uani 1 1 d . . .
H44A H 0.8749 1.0177 0.4933 0.130 Uiso 1 1 calc R . .
H44B H 0.8798 0.9458 0.4397 0.130 Uiso 1 1 calc R . .
H44C H 0.9144 0.9712 0.4900 0.130 Uiso 1 1 calc R . .
C45 C 0.8850(7) 0.9446(11) 0.6222(9) 0.129(9) Uani 1 1 d . . .
H45A H 0.8725 0.9949 0.6299 0.193 Uiso 1 1 calc R . .
H45B H 0.9127 0.9519 0.6226 0.193 Uiso 1 1 calc R . .
H45C H 0.8778 0.9082 0.6600 0.193 Uiso 1 1 calc R . .
C46 C 0.8392(3) 0.6170(8) 0.4156(7) 0.057(3) Uani 1 1 d . . .
H46A H 0.8436 0.6405 0.4635 0.069 Uiso 1 1 calc R . .
C47 C 0.8490(4) 0.5255(7) 0.4185(8) 0.064(4) Uani 1 1 d . . .
H47A H 0.8461 0.5022 0.3706 0.077 Uiso 1 1 calc R . .
H47B H 0.8757 0.5180 0.4340 0.077 Uiso 1 1 calc R . .
C48 C 0.8221(4) 0.4857(9) 0.4703(7) 0.075(4) Uani 1 1 d . . .
H48A H 0.8265 0.5077 0.5183 0.090 Uiso 1 1 calc R . .
H48B H 0.8284 0.4293 0.4722 0.090 Uiso 1 1 calc R . .
C49 C 0.7800(3) 0.4948(8) 0.4516(7) 0.065(3) Uani 1 1 d D . .
H49A H 0.7640 0.4681 0.4875 0.077 Uiso 1 1 calc R . .
H49B H 0.7748 0.4712 0.4046 0.077 Uiso 1 1 calc R . .
C50 C 0.7708(4) 0.5836(8) 0.4502(7) 0.067(4) Uani 1 1 d D . .
H50A H 0.7746 0.6059 0.4982 0.081 Uiso 1 1 calc R . .
H50B H 0.7438 0.5913 0.4368 0.081 Uiso 1 1 calc R . .
C51 C 0.7975(3) 0.6281(8) 0.3947(7) 0.051(3) Uani 1 1 d . . .
H51A H 0.7935 0.6047 0.3466 0.062 Uiso 1 1 calc R . .
C52 C 0.7513(3) 0.7296(7) 0.3520(6) 0.049(3) Uani 1 1 d . . .
H52A H 0.7535 0.7099 0.3028 0.058 Uiso 1 1 calc R . .
H52B H 0.7315 0.6985 0.3765 0.058 Uiso 1 1 calc R . .
C53 C 0.73882(19) 0.8152(3) 0.3500(4) 0.047(3) Uani 1 1 d G . .
C54 C 0.69960(17) 0.8322(4) 0.3587(4) 0.050(3) Uani 1 1 d G . .
H54A H 0.6822 0.7915 0.3697 0.060 Uiso 1 1 calc R . .
C55 C 0.68636(13) 0.9101(4) 0.3511(4) 0.043(3) Uani 1 1 d G . .
C56 C 0.71234(19) 0.9710(3) 0.3347(4) 0.050(3) Uani 1 1 d G . .
H56A H 0.7035 1.0231 0.3295 0.060 Uiso 1 1 calc R . .
C57 C 0.75156(17) 0.9539(4) 0.3259(4) 0.047(3) Uani 1 1 d GD . .
C58 C 0.76480(13) 0.8760(4) 0.3336(4) 0.044(3) Uani 1 1 d G . .
C59 C 0.7796(3) 1.0250(7) 0.3086(7) 0.056(3) Uani 1 1 d D . .
C60 C 0.8025(3) 1.0069(9) 0.2378(7) 0.061(3) Uani 1 1 d . . .
H60A H 0.7846 0.9998 0.1984 0.092 Uiso 1 1 calc R . .
H60B H 0.8175 0.9591 0.2440 0.092 Uiso 1 1 calc R . .
H60C H 0.8196 1.0507 0.2271 0.092 Uiso 1 1 calc R . .
C61 C 0.8087(4) 1.0329(9) 0.3707(8) 0.076(4) Uani 1 1 d . . .
H61A H 0.8264 1.0756 0.3605 0.114 Uiso 1 1 calc R . .
H61B H 0.8229 0.9839 0.3758 0.114 Uiso 1 1 calc R . .
H61C H 0.7950 1.0441 0.4150 0.114 Uiso 1 1 calc R . .
C62 C 0.7597(4) 1.1038(8) 0.3002(7) 0.061(4) Uani 1 1 d . . .
H62A H 0.7411 1.1006 0.2617 0.091 Uiso 1 1 calc R . .
H62B H 0.7786 1.1441 0.2891 0.091 Uiso 1 1 calc R . .
H62C H 0.7467 1.1172 0.3446 0.091 Uiso 1 1 calc R . .
N6 N 0.56578(15) 0.9694(5) 0.3921(5) 0.072(3) Uani 1 1 d G . .
C63 C 0.58093(19) 0.8978(4) 0.4175(4) 0.065(4) Uani 1 1 d G . .
H63A H 0.5653 0.8630 0.4438 0.079 Uiso 1 1 calc R . .
C64 C 0.6194(2) 0.8782(4) 0.4035(5) 0.060(3) Uani 1 1 d G . .
H64A H 0.6296 0.8303 0.4205 0.072 Uiso 1 1 calc R . .
C65 C 0.64277(15) 0.9302(5) 0.3642(5) 0.061(3) Uani 1 1 d G . .
C66 C 0.6276(2) 1.0018(5) 0.3389(5) 0.082(5) Uani 1 1 d G . .
H66A H 0.6432 1.0366 0.3126 0.099 Uiso 1 1 calc R . .
C67 C 0.5891(2) 1.0214(4) 0.3528(5) 0.078(5) Uani 1 1 d G . .
H67A H 0.5790 1.0693 0.3358 0.093 Uiso 1 1 calc R . .
C68 C 0.8563(4) 0.4963(11) 0.2050(8) 0.087(5) Uani 1 1 d . . .
H68A H 0.8695 0.4713 0.2448 0.130 Uiso 1 1 calc R . .
H68B H 0.8730 0.4965 0.1633 0.130 Uiso 1 1 calc R . .
H68C H 0.8330 0.4674 0.1941 0.130 Uiso 1 1 calc R . .
C69 C 0.9110(4) 0.8655(10) 0.2920(9) 0.086(5) Uani 1 1 d . . .
H69A H 0.9288 0.8695 0.2521 0.129 Uiso 1 1 calc R . .
H69B H 0.9246 0.8468 0.3341 0.129 Uiso 1 1 calc R . .
H69C H 0.9001 0.9171 0.3018 0.129 Uiso 1 1 calc R . .
C70 C 0.9048(3) 0.6704(8) 0.3833(6) 0.051(3) Uani 1 1 d . . .
H77A H 0.9181 0.7003 0.3459 0.062 Uiso 1 1 calc R . .
H77B H 0.9171 0.6185 0.3869 0.062 Uiso 1 1 calc R . .
O15 O 0.7513(3) 0.2713(7) 0.0267(7) 0.103(4) Uiso 1 1 d . . .
C71 C 0.7824(6) 0.2326(13) 0.0214(13) 0.120(7) Uiso 1 1 d . . .
N7 N 0.8099(4) 0.2349(9) 0.0692(9) 0.098(4) Uiso 1 1 d . . .
C72 C 0.8428(11) 0.186(2) 0.038(2) 0.214(14) Uiso 1 1 d . . .
C73 C 0.8046(9) 0.281(2) 0.127(2) 0.179(11) Uiso 1 1 d . . .
O16 O 0.8342(7) 0.6757(14) 0.7317(14) 0.222(9) Uiso 1 1 d . . .
C74 C 0.8658(6) 0.7144(14) 0.7496(15) 0.124(7) Uiso 1 1 d . . .
N8 N 0.8614(5) 0.7517(11) 0.8052(11) 0.123(6) Uiso 1 1 d . . .
C75 C 0.8338(6) 0.7529(13) 0.8630(13) 0.121(7) Uiso 1 1 d . . .
C76 C 0.8987(7) 0.7841(15) 0.8244(15) 0.149(9) Uiso 1 1 d . . .
O14 O 0.8252(7) 0.6908(13) 0.5959(14) 0.219(9) Uiso 1 1 d . . .
O13 O 0.7453(5) 0.2648(12) 0.4559(11) 0.187 Uiso 1 1 d D . .
C77 C 0.7802(6) 0.2590(18) 0.4533(13) 0.175 Uiso 1 1 d D . .
N9 N 0.8102(5) 0.2779(13) 0.4020(11) 0.152 Uiso 1 1 d D . .
C78 C 0.8031(6) 0.3155(18) 0.3314(12) 0.181 Uiso 1 1 d D . .
C79 C 0.8508(6) 0.2460(18) 0.4160(16) 0.193 Uiso 1 1 d D . .

loop_
_atom_site_aniso_label
_atom_site_aniso_U_11
_atom_site_aniso_U_22
_atom_site_aniso_U_33
_atom_site_aniso_U_23
_atom_site_aniso_U_13
_a