####################################################################### 
# 
# This file contains crystal structure data downloaded from the 
# Cambridge Structural Database (CSD) hosted by the Cambridge 
# Crystallographic Data Centre (CCDC).
# 
# Full information about CCDC data access policies and citation 
# guidelines are available at http://www.ccdc.cam.ac.uk/access/V1 
# 
# Audit and citation data items may have been added by the CCDC. 
# Please retain this information to preserve the provenance of 
# this file and to allow appropriate attribution of the data. 
# 
#######################################################################

data_Zn
_audit_block_doi                 10.5517/cc10f6wj
_database_code_depnum_ccdc_archive 'CCDC 936227'
loop_
_citation_id
_citation_doi
_citation_year
1 10.1039/C3CC43225D 2013
_audit_update_record             
;
2013-04-29 deposited with the CCDC.	2024-07-08 downloaded from the CCDC.
;

_audit_creation_method           SHELXL-97

_chemical_name_systematic        
; 
 ? 
;
_chemical_name_common            ?
_chemical_melting_point          ?
_chemical_formula_moiety         ?
_chemical_formula_sum            'C162 H180 N18 O30 Ti4 Zn3'
_chemical_formula_weight         3246.95

loop_
_atom_type_symbol
_atom_type_description
_atom_type_scat_dispersion_real
_atom_type_scat_dispersion_imag
_atom_type_scat_source
C C 0.0181 0.0091 'International Tables Vol C Tables 4.2.6.8 and 6.1.1.4'
H H 0.0000 0.0000 'International Tables Vol C Tables 4.2.6.8 and 6.1.1.4'
N N 0.0311 0.0180 'International Tables Vol C Tables 4.2.6.8 and 6.1.1.4'
O O 0.0492 0.0322 'International Tables Vol C Tables 4.2.6.8 and 6.1.1.4'
Ti Ti 0.2191 1.8069 'International Tables Vol C Tables 4.2.6.8 and 6.1.1.4'
Zn Zn -1.5491 0.6778 'International Tables Vol C Tables 4.2.6.8 and 6.1.1.4'

_symmetry_cell_setting           Orthorhombic
_symmetry_space_group_name_H-M   P2(1)2(1)2

loop_
_symmetry_equiv_pos_as_xyz
'x, y, z'
'-x, -y, z'
'x+1/2, -y+1/2, -z'
'-x+1/2, y+1/2, -z'

_cell_length_a                   34.0597(5)
_cell_length_b                   16.9014(2)
_cell_length_c                   18.3315(3)
_cell_angle_alpha                90.00
_cell_angle_beta                 90.00
_cell_angle_gamma                90.00
_cell_volume                     10552.6(3)
_cell_formula_units_Z            2
_cell_measurement_temperature    123(2)
_cell_measurement_reflns_used    12261
_cell_measurement_theta_min      2.91
_cell_measurement_theta_max      55

_exptl_crystal_description       Block
_exptl_crystal_colour            Yellow
_exptl_crystal_size_max          0.10
_exptl_crystal_size_mid          0.08
_exptl_crystal_size_min          0.08
_exptl_crystal_density_meas      ?
_exptl_crystal_density_diffrn    1.022
_exptl_crystal_density_method    'not measured'
_exptl_crystal_F_000             3392
_exptl_absorpt_coefficient_mu    2.073
_exptl_absorpt_correction_type   Multi-scan
_exptl_absorpt_correction_T_min  0.820
_exptl_absorpt_correction_T_max  0.847
_exptl_absorpt_process_details   'SADABS (Sheldrick, 1996)'

_exptl_special_details           
; 
 ? 
;

_diffrn_ambient_temperature      123(2)
_diffrn_radiation_wavelength     1.54178
_diffrn_radiation_type           CuK\a
_diffrn_radiation_source         'fine-focus sealed tube'
_diffrn_radiation_monochromator  graphite
_diffrn_measurement_device_type  ?
_diffrn_measurement_method       ?
_diffrn_detector_area_resol_mean ?
_diffrn_standards_number         ?
_diffrn_standards_interval_count ?
_diffrn_standards_interval_time  ?
_diffrn_standards_decay_%        ?
_diffrn_reflns_number            25138
_diffrn_reflns_av_R_equivalents  0.0377
_diffrn_reflns_av_sigmaI/netI    0.0808
_diffrn_reflns_limit_h_min       -35
_diffrn_reflns_limit_h_max       35
_diffrn_reflns_limit_k_min       -17
_diffrn_reflns_limit_k_max       13
_diffrn_reflns_limit_l_min       -17
_diffrn_reflns_limit_l_max       19
_diffrn_reflns_theta_min         2.92
_diffrn_reflns_theta_max         55.00
_reflns_number_total             12261
_reflns_number_gt                10038
_reflns_threshold_expression     >2sigma(I)

_computing_data_collection       'SMART (Bruker, 1997)'
_computing_cell_refinement       'SAINT (Bruker, 1999)'
_computing_data_reduction        SAINT
_computing_structure_solution    'SHELXS-97 (Sheldrick, 1990)'
_computing_structure_refinement  'SHELXL-97 (Sheldrick, 1997)'
_computing_molecular_graphics    'SHELXTL-PLUS (Sheldrick, 1990)'
_computing_publication_material  SHELXL-97

_refine_special_details          
; 
 Refinement of F^2^ against ALL reflections.  The weighted R-factor wR and 
 goodness of fit S are based on F^2^, conventional R-factors R are based 
 on F, with F set to zero for negative F^2^. The threshold expression of 
 F^2^ > 2sigma(F^2^) is used only for calculating R-factors(gt) etc. and is 
 not relevant to the choice of reflections for refinement.  R-factors based 
 on F^2^ are statistically about twice as large as those based on F, and R- 
 factors based on ALL data will be even larger. 
;

_refine_ls_structure_factor_coef Fsqd
_refine_ls_matrix_type           full
_refine_ls_weighting_scheme      calc
_refine_ls_weighting_details     
'calc w=1/[\s^2^(Fo^2^)+(0.2000P)^2^+0.0000P] where P=(Fo^2^+2Fc^2^)/3'
_atom_sites_solution_primary     direct
_atom_sites_solution_secondary   difmap
_atom_sites_solution_hydrogens   geom
_refine_ls_hydrogen_treatment    constr
_refine_ls_extinction_method     none
_refine_ls_extinction_coef       ?
_refine_ls_abs_structure_details 'Flack H D (1983), Acta Cryst. A39, 876-881'
_refine_ls_abs_structure_Flack   0.031(13)
_refine_ls_number_reflns         12261
_refine_ls_number_parameters     821
_refine_ls_number_restraints     102
_refine_ls_R_factor_all          0.1145
_refine_ls_R_factor_gt           0.0984
_refine_ls_wR_factor_ref         0.2757
_refine_ls_wR_factor_gt          0.2573
_refine_ls_goodness_of_fit_ref   1.084
_refine_ls_restrained_S_all      1.100
_refine_ls_shift/su_max          0.001
_refine_ls_shift/su_mean         0.000

loop_
_atom_site_label
_atom_site_type_symbol
_atom_site_fract_x
_atom_site_fract_y
_atom_site_fract_z
_atom_site_U_iso_or_equiv
_atom_site_adp_type
_atom_site_occupancy
_atom_site_symmetry_multiplicity
_atom_site_calc_flag
_atom_site_refinement_flags
_atom_site_disorder_assembly
_atom_site_disorder_group
Zn1 Zn 0.99540(3) 0.89189(7) -0.24860(6) 0.0584(3) Uani 1 1 d . . .
Zn2 Zn 0.98597(8) 0.9992(2) -0.09769(13) 0.0757(9) Uani 0.50 1 d P . .
Ti1 Ti 0.84552(6) 0.71198(9) 0.17086(9) 0.0653(5) Uani 1 1 d . . .
Ti2 Ti 0.82443(4) 0.82669(8) 0.33135(8) 0.0448(4) Uani 1 1 d . . .
O1 O 0.9960(5) 0.8796(7) -0.1013(8) 0.160(5) Uani 1 1 d U . .
O2 O 0.9707(3) 0.7981(10) -0.1899(6) 0.150(5) Uani 1 1 d U . .
O3 O 1.0000 1.0000 -0.1997(11) 0.125(5) Uani 1 2 d S . .
O4 O 0.8701(3) 0.6843(4) 0.0790(4) 0.085(2) Uani 1 1 d . . .
O5 O 0.8127(2) 0.6251(4) 0.1697(4) 0.0742(18) Uani 1 1 d . . .
O6 O 0.8885(2) 0.6775(4) 0.2245(4) 0.0717(18) Uani 1 1 d . . .
O7 O 0.9803(4) 0.8603(12) 0.6313(8) 0.186(7) Uani 1 1 d . . .
O8 O 0.9452(4) 0.9206(6) 0.6977(7) 0.137(4) Uani 1 1 d U . .
O9 O 0.83423(16) 0.8754(3) 0.4244(3) 0.0509(13) Uani 1 1 d . . .
O10 O 0.77152(16) 0.8571(3) 0.3301(3) 0.0502(13) Uani 1 1 d . . .
O11 O 0.85009(17) 0.9074(3) 0.2806(3) 0.0531(14) Uani 1 1 d D . .
O12 O 0.82497(16) 0.7638(3) 0.2502(3) 0.0517(12) Uani 1 1 d . . .
O13 O 1.0000 1.0000 0.0298(6) 0.110(4) Uani 1 2 d SU . .
N1 N 0.8682(3) 0.8306(5) 0.1413(5) 0.078(2) Uani 1 1 d . . .
N2 N 0.7964(3) 0.7701(4) 0.1084(4) 0.068(2) Uani 1 1 d . . .
N4 N 0.87681(18) 0.7589(4) 0.3639(4) 0.0506(16) Uani 1 1 d . . .
N5 N 0.79897(17) 0.7182(4) 0.3876(3) 0.0420(14) Uani 1 1 d . . .
C1 C 0.9722(4) 0.8292(12) -0.1280(10) 0.122(5) Uani 1 1 d DU . .
C2 C 0.9466(2) 0.7785(5) -0.0716(4) 0.104(5) Uani 1 1 d GDU . .
C3 C 0.9273(3) 0.7078(5) -0.0866(3) 0.104(4) Uani 1 1 d GU . .
H3A H 0.9315 0.6817 -0.1318 0.125 Uiso 1 1 calc R . .
C4 C 0.9020(2) 0.6753(4) -0.0353(4) 0.098(4) Uani 1 1 d G . .
C5 C 0.8958(2) 0.7135(4) 0.0309(3) 0.084(3) Uani 1 1 d G . .
C6 C 0.9151(3) 0.7842(4) 0.0458(3) 0.091(4) Uani 1 1 d G . .
C7 C 0.9405(2) 0.8167(4) -0.0054(5) 0.097(4) Uani 1 1 d GU . .
H7A H 0.9536 0.8650 0.0047 0.117 Uiso 1 1 calc R . .
C8 C 0.8840(5) 0.5960(10) -0.0524(6) 0.114(5) Uani 1 1 d D . .
C9 C 0.8937(7) 0.5583(13) -0.1274(7) 0.166(9) Uani 1 1 d D . .
H9A H 0.9222 0.5534 -0.1327 0.249 Uiso 1 1 calc R . .
H9B H 0.8833 0.5919 -0.1665 0.249 Uiso 1 1 calc R . .
H9C H 0.8816 0.5057 -0.1304 0.249 Uiso 1 1 calc R . .
C10 C 0.8977(6) 0.5322(10) 0.0015(8) 0.125(6) Uani 1 1 d . . .
H10A H 0.9263 0.5271 -0.0012 0.187 Uiso 1 1 calc R . .
H10B H 0.8855 0.4815 -0.0112 0.187 Uiso 1 1 calc R . .
H10C H 0.8900 0.5472 0.0511 0.187 Uiso 1 1 calc R . .
C11 C 0.8381(5) 0.6018(11) -0.0448(10) 0.138(6) Uani 1 1 d D . .
H11A H 0.8314 0.6242 0.0029 0.207 Uiso 1 1 calc R . .
H11B H 0.8266 0.5489 -0.0492 0.207 Uiso 1 1 calc R . .
H11C H 0.8277 0.6360 -0.0834 0.207 Uiso 1 1 calc R . .
C12 C 0.9117(4) 0.8266(8) 0.1202(7) 0.091(4) Uani 1 1 d . . .
H12A H 0.9266 0.7971 0.1578 0.110 Uiso 1 1 calc R . .
H12B H 0.9227 0.8806 0.1167 0.110 Uiso 1 1 calc R . .
C13 C 0.8442(4) 0.8739(5) 0.0869(5) 0.075(3) Uani 1 1 d . . .
H13A H 0.8498 0.8509 0.0377 0.090 Uiso 1 1 calc R . .
C14 C 0.8524(4) 0.9616(6) 0.0838(6) 0.094(4) Uani 1 1 d D . .
H14A H 0.8797 0.9703 0.0671 0.113 Uiso 1 1 calc R . .
H14B H 0.8498 0.9845 0.1333 0.113 Uiso 1 1 calc R . .
C15 C 0.8237(4) 1.0038(6) 0.0312(6) 0.093(4) Uani 1 1 d DU . .
H15A H 0.8282 1.0616 0.0337 0.111 Uiso 1 1 calc R . .
H15B H 0.8291 0.9864 -0.0194 0.111 Uiso 1 1 calc R . .
C16 C 0.7837(4) 0.9872(6) 0.0489(6) 0.088(4) Uani 1 1 d . . .
H16A H 0.7665 1.0129 0.0123 0.106 Uiso 1 1 calc R . .
H16B H 0.7776 1.0107 0.0970 0.106 Uiso 1 1 calc R . .
C17 C 0.7746(4) 0.9020(6) 0.0511(5) 0.084(3) Uani 1 1 d D . .
H17A H 0.7777 0.8792 0.0017 0.100 Uiso 1 1 calc R . .
H17B H 0.7469 0.8946 0.0661 0.100 Uiso 1 1 calc R . .
C18 C 0.8018(3) 0.8579(5) 0.1051(5) 0.065(3) Uani 1 1 d D . .
H18A H 0.7967 0.8796 0.1549 0.079 Uiso 1 1 calc R . .
C19 C 0.7566(3) 0.7531(6) 0.1450(5) 0.070(3) Uani 1 1 d . . .
H19A H 0.7568 0.7751 0.1951 0.084 Uiso 1 1 calc R . .
H19B H 0.7356 0.7803 0.1174 0.084 Uiso 1 1 calc R . .
C20 C 0.7475(2) 0.6667(3) 0.1487(3) 0.078(3) Uani 1 1 d G . .
C21 C 0.70779(19) 0.6488(3) 0.1419(3) 0.074(3) Uani 1 1 d G . .
H21A H 0.6894 0.6897 0.1318 0.088 Uiso 1 1 calc R . .
C22 C 0.69501(19) 0.5712(4) 0.1499(3) 0.084(4) Uani 1 1 d G . .
C23 C 0.7219(2) 0.5115(3) 0.1648(3) 0.084(4) Uani 1 1 d G . .
H23A H 0.7132 0.4584 0.1702 0.100 Uiso 1 1 calc R . .
C24 C 0.7616(2) 0.5293(3) 0.1716(3) 0.083(4) Uani 1 1 d G . .
C25 C 0.77435(18) 0.6069(4) 0.1635(3) 0.078(3) Uani 1 1 d G . .
C26 C 0.7903(5) 0.4623(6) 0.1848(7) 0.098(4) Uani 1 1 d D . .
C27 C 0.7710(5) 0.3786(6) 0.1946(7) 0.109(5) Uani 1 1 d D . .
H27A H 0.7523 0.3804 0.2352 0.163 Uiso 1 1 calc R . .
H27B H 0.7914 0.3394 0.2051 0.163 Uiso 1 1 calc R . .
H27C H 0.7572 0.3639 0.1498 0.163 Uiso 1 1 calc R . .
C28 C 0.8194(5) 0.4528(6) 0.1215(8) 0.118(6) Uani 1 1 d . . .
H28A H 0.8324 0.5035 0.1121 0.177 Uiso 1 1 calc R . .
H28B H 0.8052 0.4358 0.0777 0.177 Uiso 1 1 calc R . .
H28C H 0.8391 0.4129 0.1344 0.177 Uiso 1 1 calc R . .
C29 C 0.8139(4) 0.4766(6) 0.2577(6) 0.084(3) Uani 1 1 d . . .
H29A H 0.8264 0.5288 0.2562 0.126 Uiso 1 1 calc R . .
H29B H 0.8341 0.4357 0.2631 0.126 Uiso 1 1 calc R . .
H29C H 0.7958 0.4741 0.2993 0.126 Uiso 1 1 calc R . .
N3 N 0.5722(2) 0.5142(6) 0.1223(7) 0.160(7) Uani 1 1 d G . .
C30 C 0.5974(3) 0.4623(5) 0.1579(7) 0.133(6) Uani 1 1 d GU . .
H30A H 0.5878 0.4133 0.1759 0.160 Uiso 1 1 calc R . .
C31 C 0.6367(3) 0.4822(5) 0.1672(6) 0.130(6) Uani 1 1 d G . .
H31A H 0.6539 0.4468 0.1916 0.156 Uiso 1 1 calc R . .
C32 C 0.6508(2) 0.5540(5) 0.1409(5) 0.093(4) Uani 1 1 d G . .
C33 C 0.6255(3) 0.6058(4) 0.1053(5) 0.098(4) Uani 1 1 d GU . .
H33A H 0.6352 0.6549 0.0873 0.118 Uiso 1 1 calc R . .
C34 C 0.5863(3) 0.5859(5) 0.0960(6) 0.129(6) Uani 1 1 d G . .
H34A H 0.5690 0.6214 0.0717 0.154 Uiso 1 1 calc R . .
C35 C 0.9510(5) 0.8903(10) 0.6384(11) 0.110(5) Uani 1 1 d U . .
C36 C 0.92017(18) 0.8877(4) 0.5821(4) 0.083(3) Uani 1 1 d G . .
C37 C 0.8831(2) 0.9184(4) 0.5968(3) 0.079(3) Uani 1 1 d G . .
H37A H 0.8778 0.9417 0.6429 0.094 Uiso 1 1 calc R . .
C38 C 0.85388(15) 0.9149(4) 0.5440(3) 0.057(2) Uani 1 1 d G . .
C39 C 0.86167(14) 0.8808(4) 0.4766(3) 0.056(2) Uani 1 1 d G . .
C40 C 0.89872(16) 0.8501(4) 0.4619(3) 0.061(2) Uani 1 1 d G . .
C41 C 0.92797(13) 0.8536(4) 0.5147(4) 0.090(4) Uani 1 1 d G . .
H41A H 0.9533 0.8327 0.5046 0.108 Uiso 1 1 calc R . .
C42 C 0.8132(3) 0.9513(5) 0.5597(5) 0.064(3) Uani 1 1 d . . .
C43 C 0.8078(3) 0.9733(6) 0.6439(5) 0.073(3) Uani 1 1 d . . .
H43A H 0.8286 1.0100 0.6588 0.110 Uiso 1 1 calc R . .
H43B H 0.8095 0.9250 0.6734 0.110 Uiso 1 1 calc R . .
H43C H 0.7822 0.9982 0.6511 0.110 Uiso 1 1 calc R . .
C44 C 0.7792(3) 0.8944(6) 0.5446(5) 0.067(2) Uani 1 1 d . . .
H44A H 0.7801 0.8774 0.4935 0.100 Uiso 1 1 calc R . .
H44B H 0.7542 0.9214 0.5542 0.100 Uiso 1 1 calc R . .
H44C H 0.7815 0.8481 0.5765 0.100 Uiso 1 1 calc R . .
C45 C 0.8084(3) 1.0282(5) 0.5160(5) 0.065(2) Uani 1 1 d . . .
H45A H 0.8117 1.0170 0.4639 0.097 Uiso 1 1 calc R . .
H45B H 0.8284 1.0665 0.5316 0.097 Uiso 1 1 calc R . .
H45C H 0.7822 1.0502 0.5246 0.097 Uiso 1 1 calc R . .
C46 C 0.9084(2) 0.8130(6) 0.3891(5) 0.061(2) Uani 1 1 d . . .
H46A H 0.9123 0.8553 0.3524 0.073 Uiso 1 1 calc R . .
H46B H 0.9333 0.7831 0.3933 0.073 Uiso 1 1 calc R . .
C47 C 0.8677(2) 0.6970(5) 0.4175(5) 0.061(2) Uani 1 1 d D . .
H47A H 0.8629 0.7231 0.4656 0.073 Uiso 1 1 calc R . .
C48 C 0.9009(3) 0.6356(6) 0.4277(6) 0.065(2) Uani 1 1 d D . .
H48A H 0.9076 0.6123 0.3798 0.079 Uiso 1 1 calc R . .
H48B H 0.9246 0.6628 0.4465 0.079 Uiso 1 1 calc R . .
C49 C 0.8898(3) 0.5708(7) 0.4793(7) 0.079(3) Uani 1 1 d . . .
H49A H 0.8852 0.5932 0.5285 0.095 Uiso 1 1 calc R . .
H49B H 0.9116 0.5322 0.4829 0.095 Uiso 1 1 calc R . .
C50 C 0.8516(3) 0.5279(6) 0.4519(6) 0.069(3) Uani 1 1 d . . .
H50A H 0.8565 0.5036 0.4037 0.082 Uiso 1 1 calc R . .
H50B H 0.8443 0.4853 0.4865 0.082 Uiso 1 1 calc R . .
C51 C 0.8182(3) 0.5876(5) 0.4462(5) 0.057(2) Uani 1 1 d . . .
H51A H 0.8122 0.6092 0.4951 0.068 Uiso 1 1 calc R . .
H51B H 0.7943 0.5611 0.4274 0.068 Uiso 1 1 calc R . .
C52 C 0.8299(2) 0.6557(5) 0.3944(5) 0.0509(19) Uani 1 1 d D . .
H52A H 0.8343 0.6326 0.3449 0.061 Uiso 1 1 calc R . .
C53 C 0.7648(2) 0.6869(4) 0.3450(4) 0.0424(17) Uani 1 1 d . . .
H53A H 0.7545 0.6395 0.3704 0.051 Uiso 1 1 calc R . .
H53B H 0.7743 0.6696 0.2966 0.051 Uiso 1 1 calc R . .
C54 C 0.73115(10) 0.7440(2) 0.3337(3) 0.0433(17) Uani 1 1 d G . .
C55 C 0.69409(12) 0.71054(19) 0.3264(3) 0.0479(18) Uani 1 1 d G . .
H55A H 0.6909 0.6549 0.3304 0.057 Uiso 1 1 calc R . .
C56 C 0.66169(9) 0.7585(2) 0.3134(3) 0.0495(19) Uani 1 1 d G . .
C57 C 0.66635(10) 0.8400(2) 0.3076(3) 0.054(2) Uani 1 1 d G . .
H57A H 0.6442 0.8727 0.2987 0.064 Uiso 1 1 calc R . .
C58 C 0.70341(13) 0.87347(19) 0.3149(3) 0.0481(19) Uani 1 1 d G . .
C59 C 0.73581(10) 0.8255(2) 0.3280(3) 0.0424(17) Uani 1 1 d G . .
C60 C 0.7075(2) 0.9653(5) 0.3095(5) 0.056(2) Uani 1 1 d . . .
C61 C 0.6660(3) 1.0057(6) 0.3050(8) 0.088(3) Uani 1 1 d . . .
H61A H 0.6693 1.0632 0.3016 0.132 Uiso 1 1 calc R . .
H61B H 0.6509 0.9928 0.3489 0.132 Uiso 1 1 calc R . .
H61C H 0.6521 0.9863 0.2618 0.132 Uiso 1 1 calc R . .
C62 C 0.7263(3) 0.9990(6) 0.3770(5) 0.064(2) Uani 1 1 d . . .
H62A H 0.7285 1.0566 0.3721 0.095 Uiso 1 1 calc R . .
H62B H 0.7526 0.9761 0.3831 0.095 Uiso 1 1 calc R . .
H62C H 0.7102 0.9862 0.4196 0.095 Uiso 1 1 calc R . .
C63 C 0.7311(3) 0.9862(6) 0.2406(6) 0.070(2) Uani 1 1 d . . .
H63A H 0.7337 1.0438 0.2368 0.104 Uiso 1 1 calc R . .
H63B H 0.7174 0.9659 0.1974 0.104 Uiso 1 1 calc R . .
H63C H 0.7573 0.9622 0.2435 0.104 Uiso 1 1 calc R . .
N6 N 0.55007(12) 0.6515(3) 0.2641(4) 0.068(2) Uani 1 1 d G . .
C64 C 0.57573(16) 0.6142(3) 0.3120(4) 0.080(3) Uani 1 1 d G . .
H64A H 0.5685 0.5653 0.3339 0.096 Uiso 1 1 calc R . .
C65 C 0.61189(15) 0.6482(4) 0.3277(4) 0.074(3) Uani 1 1 d G . .
H65A H 0.6294 0.6227 0.3604 0.089 Uiso 1 1 calc R . .
C66 C 0.62239(12) 0.7197(3) 0.2956(4) 0.054(2) Uani 1 1 d G . .
C67 C 0.59674(17) 0.7570(3) 0.2478(4) 0.082(3) Uani 1 1 d G . .
H67A H 0.6039 0.8059 0.2259 0.098 Uiso 1 1 calc R . .
C68 C 0.56057(16) 0.7230(4) 0.2320(4) 0.098(4) Uani 1 1 d G . .
H68A H 0.5430 0.7485 0.1993 0.117 Uiso 1 1 calc R . .
C69 C 0.9230(4) 0.6333(8) 0.2095(8) 0.105(4) Uani 1 1 d D . .
H69A H 0.9440 0.6518 0.2426 0.127 Uiso 1 1 calc R . .
H69B H 0.9314 0.6454 0.1590 0.127 Uiso 1 1 calc R . .
C70 C 0.9195(7) 0.5437(10) 0.2171(13) 0.167(9) Uani 1 1 d D . .
H70A H 0.9446 0.5190 0.2044 0.251 Uiso 1 1 calc R . .
H70B H 0.8990 0.5241 0.1842 0.251 Uiso 1 1 calc R . .
H70C H 0.9127 0.5303 0.2675 0.251 Uiso 1 1 calc R . .
O14 O 0.7428(6) 0.2291(16) 0.0229(12) 0.268 Uiso 1 1 d D . .
C73 C 0.7546(6) 0.2002(16) 0.0798(13) 0.233(13) Uiso 1 1 d D . .
N7 N 0.7955(4) 0.2066(8) 0.0969(8) 0.132(4) Uiso 1 1 d D . .
C74 C 0.8100(8) 0.176(2) 0.1687(13) 0.277(17) Uiso 1 1 d D . .
C75 C 0.8231(6) 0.2413(16) 0.0449(12) 0.189(10) Uiso 1 1 d D . .
O15 O 0.7491(2) 0.7033(5) 0.5236(4) 0.088(2) Uiso 1 1 d D . .
C76 C 0.7181(6) 0.7373(16) 0.5105(11) 0.180(9) Uiso 1 1 d D . .
N8 N 0.6926(3) 0.7505(6) 0.5723(5) 0.080(2) Uiso 1 1 d D . .
C77 C 0.6564(7) 0.8022(19) 0.567(2) 0.235(14) Uiso 1 1 d D . .
C78 C 0.6947(10) 0.710(2) 0.6467(14) 0.259 Uiso 1 1 d D . .
O16 O 0.7106(5) 0.2216(14) 0.2598(12) 0.233 Uiso 1 1 d D . .
C79 C 0.6791(8) 0.258(2) 0.2366(15) 0.246(14) Uiso 1 1 d D . .
N9 N 0.6467(4) 0.2392(10) 0.2934(9) 