####################################################################### 
# 
# This file contains crystal structure data downloaded from the 
# Cambridge Structural Database (CSD) hosted by the Cambridge 
# Crystallographic Data Centre (CCDC).
# 
# Full information about CCDC data access policies and citation 
# guidelines are available at http://www.ccdc.cam.ac.uk/access/V1 
# 
# Audit and citation data items may have been added by the CCDC. 
# Please retain this information to preserve the provenance of 
# this file and to allow appropriate attribution of the data. 
# 
#######################################################################

data_ag-rh
_audit_block_doi                 10.5517/cc8357r
_database_code_depnum_ccdc_archive 'CCDC 241373'
loop_
_citation_id
_citation_doi
_citation_year
1 10.1039/b409596k 2004
_audit_update_record             
;
2004-06-10 deposited with the CCDC.	2024-07-08 downloaded from the CCDC.
;

_audit_creation_method           SHELXL-97
_chemical_name_systematic        
;
?
;
_chemical_name_common            ?
_chemical_melting_point          ?
_chemical_formula_moiety         ?
_chemical_formula_sum            'C60 H64 Ag B N9 O12 P Rh3'
_chemical_formula_weight         1561.58

loop_
_atom_type_symbol
_atom_type_description
_atom_type_scat_dispersion_real
_atom_type_scat_dispersion_imag
_atom_type_scat_source
C C 0.0033 0.0016 'International Tables Vol C Tables 4.2.6.8 and 6.1.1.4'
H H 0.0000 0.0000 'International Tables Vol C Tables 4.2.6.8 and 6.1.1.4'
B B 0.0013 0.0007 'International Tables Vol C Tables 4.2.6.8 and 6.1.1.4'
N N 0.0061 0.0033 'International Tables Vol C Tables 4.2.6.8 and 6.1.1.4'
O O 0.0106 0.0060 'International Tables Vol C Tables 4.2.6.8 and 6.1.1.4'
P P 0.1023 0.0942 'International Tables Vol C Tables 4.2.6.8 and 6.1.1.4'
Rh Rh -1.1178 0.9187 'International Tables Vol C Tables 4.2.6.8 and 6.1.1.4'
Ag Ag -0.8971 1.1015 'International Tables Vol C Tables 4.2.6.8 and 6.1.1.4'

_symmetry_cell_setting           Monoclinic
_symmetry_space_group_name_H-M   'P 2(1)/n '
_symmetry_Int_Tables_number      14
loop_
_symmetry_equiv_pos_as_xyz
'x, y, z'
'-x+1/2, y+1/2, -z+1/2'
'-x, -y, -z'
'x-1/2, -y-1/2, z-1/2'

_cell_length_a                   18.4633(15)
_cell_length_b                   36.227(3)
_cell_length_c                   21.1806(18)
_cell_angle_alpha                90.00
_cell_angle_beta                 107.750(2)
_cell_angle_gamma                90.00
_cell_volume                     13492.5(19)
_cell_formula_units_Z            4
_cell_measurement_temperature    233(2)
_cell_measurement_reflns_used    ?
_cell_measurement_theta_min      ?
_cell_measurement_theta_max      ?

_exptl_crystal_description       flat
_exptl_crystal_colour            red
_exptl_crystal_size_max          0.35
_exptl_crystal_size_mid          0.35
_exptl_crystal_size_min          0.15
_exptl_crystal_density_meas      ?
_exptl_crystal_density_diffrn    0.769
_exptl_crystal_density_method    'not measured'
_exptl_crystal_F_000             3140
_exptl_absorpt_coefficient_mu    0.547
_exptl_absorpt_correction_type   ' Empirical, pseudo-azimuthal scan (SADABS)'
_exptl_absorpt_correction_T_min  0.8317
_exptl_absorpt_correction_T_max  0.9225
_exptl_absorpt_process_details   ?

_exptl_special_details           
;
The original reflections are SQUEEZed using PLATON (A. L. Spek, 1999)
due to high disordered solvent in the lattice.
;

_diffrn_ambient_temperature      233(2)
_diffrn_radiation_wavelength     0.71073
_diffrn_radiation_type           MoK\a
_diffrn_radiation_source         'fine-focus sealed tube'
_diffrn_radiation_monochromator  graphite
_diffrn_measurement_device_type  'Bruker SMART Area Detector'
_diffrn_measurement_method       '\w-rotation with narrow frames (0.3 \%)'
_diffrn_detector_area_resol_mean ?
_diffrn_standards_number         ?
_diffrn_standards_interval_count ?
_diffrn_standards_interval_time  ?
_diffrn_standards_decay_%        none
_diffrn_reflns_number            122313
_diffrn_reflns_av_R_equivalents  0.1870
_diffrn_reflns_av_sigmaI/netI    0.3576
_diffrn_reflns_limit_h_min       -24
_diffrn_reflns_limit_h_max       24
_diffrn_reflns_limit_k_min       -47
_diffrn_reflns_limit_k_max       47
_diffrn_reflns_limit_l_min       -27
_diffrn_reflns_limit_l_max       28
_diffrn_reflns_theta_min         1.12
_diffrn_reflns_theta_max         28.12
_reflns_number_total             32406
_reflns_number_gt                8892
_reflns_threshold_expression     >2sigma(I)

_computing_data_collection       ?
_computing_cell_refinement       ?
_computing_data_reduction        ?
_computing_structure_solution    'SHELXS-97 (Sheldrick, 1997)'
_computing_structure_refinement  'SHELXL-97 (Sheldrick, 1997)'
_computing_molecular_graphics    ?
_computing_publication_material  ?

_refine_special_details          
;
Refinement of F^2^ against ALL reflections.  The weighted R-factor wR and
goodness of fit S are based on F^2^, conventional R-factors R are based
on F, with F set to zero for negative F^2^. The threshold expression of
F^2^ > 2sigma(F^2^) is used only for calculating R-factors(gt) etc. and is
not relevant to the choice of reflections for refinement.  R-factors based
on F^2^ are statistically about twice as large as those based on F, and R-
factors based on ALL data will be even larger.
;

_refine_ls_structure_factor_coef Fsqd
_refine_ls_matrix_type           full
_refine_ls_weighting_scheme      Calc
_refine_ls_weighting_details     
'w=1/[\s^2^(Fo^2^)+(0.1132P)^2^+0.0000P] where P=(Fo^2^+2Fc^2^)/3'
_atom_sites_solution_primary     direct
_atom_sites_solution_secondary   difmap
_atom_sites_solution_hydrogens   geom
_refine_ls_hydrogen_treatment    mixed
_refine_ls_extinction_method     none
_refine_ls_extinction_coef       ?
_refine_ls_number_reflns         32406
_refine_ls_number_parameters     796
_refine_ls_number_restraints     6
_refine_ls_R_factor_all          0.2364
_refine_ls_R_factor_gt           0.0981
_refine_ls_wR_factor_ref         0.2592
_refine_ls_wR_factor_gt          0.2281
_refine_ls_goodness_of_fit_ref   0.778
_refine_ls_restrained_S_all      0.794
_refine_ls_shift/su_max          2.321
_refine_ls_shift/su_mean         0.048

loop_
_atom_site_label
_atom_site_type_symbol
_atom_site_fract_x
_atom_site_fract_y
_atom_site_fract_z
_atom_site_U_iso_or_equiv
_atom_site_adp_type
_atom_site_occupancy
_atom_site_symmetry_multiplicity
_atom_site_calc_flag
_atom_site_refinement_flags
_atom_site_disorder_assembly
_atom_site_disorder_group
Ag1 Ag 0.88141(3) 0.013673(18) 0.63735(3) 0.0391(2) Uani 1 1 d . . .
B1 B 0.6973(6) 0.0097(3) 0.5476(4) 0.036(2) Uani 1 1 d . . .
H1 H 0.6433 0.0080 0.5204 0.043 Uiso 1 1 calc R . .
N1 N 0.8090(4) 0.05340(19) 0.5561(3) 0.047(2) Uani 1 1 d . . .
N2 N 0.7330(4) 0.04757(19) 0.5289(3) 0.0415(18) Uani 1 1 d . . .
N3 N 0.7465(6) 0.1901(2) 0.3519(5) 0.084(3) Uani 1 1 d . . .
C1 C 0.8251(5) 0.0834(3) 0.5280(4) 0.053(3) Uani 1 1 d . . .
C2 C 0.7637(6) 0.0974(2) 0.4846(5) 0.050(3) Uani 1 1 d . . .
C3 C 0.7015(6) 0.0737(3) 0.4834(4) 0.053(3) Uani 1 1 d . . .
C4 C 0.9044(7) 0.0974(3) 0.5434(7) 0.113(5) Uani 1 1 d . . .
H4A H 0.9352 0.0872 0.5852 0.169 Uiso 1 1 calc R . .
H4B H 0.9043 0.1242 0.5465 0.169 Uiso 1 1 calc R . .
H4C H 0.9253 0.0902 0.5084 0.169 Uiso 1 1 calc R . .
C5 C 0.6185(5) 0.0744(3) 0.4488(5) 0.069(3) Uani 1 1 d . . .
H5A H 0.6054 0.0543 0.4171 0.104 Uiso 1 1 calc R . .
H5B H 0.6049 0.0977 0.4257 0.104 Uiso 1 1 calc R . .
H5C H 0.5910 0.0716 0.4809 0.104 Uiso 1 1 calc R . .
C6 C 0.7544(6) 0.1294(3) 0.4408(5) 0.055(3) Uani 1 1 d . . .
C7 C 0.7118(6) 0.1289(3) 0.3731(6) 0.069(3) Uani 1 1 d . . .
H7 H 0.6866 0.1070 0.3552 0.083 Uiso 1 1 calc R . .
C8 C 0.7053(7) 0.1590(4) 0.3320(6) 0.089(4) Uani 1 1 d . . .
H8 H 0.6713 0.1579 0.2888 0.107 Uiso 1 1 calc R . .
C9 C 0.7897(9) 0.1926(3) 0.4160(7) 0.116(5) Uani 1 1 d . . .
H9 H 0.8162 0.2147 0.4312 0.139 Uiso 1 1 calc R . .
C10 C 0.7961(6) 0.1616(3) 0.4631(5) 0.075(3) Uani 1 1 d . . .
H10 H 0.8277 0.1635 0.5071 0.090 Uiso 1 1 calc R . .
N4 N 0.7716(4) 0.01256(19) 0.6689(4) 0.048(2) Uani 1 1 d . . .
N5 N 0.7014(4) 0.01080(17) 0.6203(3) 0.0348(16) Uani 1 1 d . . .
N6 N 0.5787(5) 0.0086(3) 0.8731(4) 0.065(2) Uani 1 1 d . . .
C11 C 0.7594(6) 0.0127(3) 0.7292(4) 0.054(3) Uani 1 1 d . . .
C12 C 0.6826(5) 0.0111(2) 0.7180(5) 0.045(2) Uani 1 1 d . . .
C13 C 0.6473(5) 0.0097(2) 0.6515(4) 0.040(2) Uani 1 1 d . . .
C14 C 0.8262(5) 0.0139(3) 0.7928(4) 0.074(3) Uani 1 1 d . . .
H14A H 0.8365 -0.0108 0.8111 0.111 Uiso 1 1 calc R . .
H14B H 0.8138 0.0299 0.8247 0.111 Uiso 1 1 calc R . .
H14C H 0.8708 0.0233 0.7831 0.111 Uiso 1 1 calc R . .
C15 C 0.5665(5) 0.0068(3) 0.6130(5) 0.073(3) Uani 1 1 d . . .
H15A H 0.5564 -0.0175 0.5932 0.109 Uiso 1 1 calc R . .
H15B H 0.5542 0.0254 0.5782 0.109 Uiso 1 1 calc R . .
H15C H 0.5355 0.0108 0.6420 0.109 Uiso 1 1 calc R . .
C16 C 0.6448(5) 0.0083(3) 0.7714(4) 0.046(2) Uani 1 1 d . . .
C17 C 0.6713(6) -0.0152(3) 0.8222(5) 0.067(3) Uani 1 1 d . . .
H17 H 0.7122 -0.0311 0.8238 0.081 Uiso 1 1 calc R . .
C18 C 0.6371(6) -0.0159(3) 0.8728(5) 0.079(4) Uani 1 1 d . . .
H18 H 0.6537 -0.0332 0.9073 0.095 Uiso 1 1 calc R . .
C19 C 0.5580(5) 0.0322(3) 0.8270(6) 0.071(3) Uani 1 1 d . . .
H19 H 0.5213 0.0499 0.8287 0.085 Uiso 1 1 calc R . .
C20 C 0.5884(5) 0.0332(3) 0.7723(4) 0.060(3) Uani 1 1 d . . .
H20 H 0.5704 0.0503 0.7378 0.072 Uiso 1 1 calc R . .
N7 N 0.8139(4) -0.0308(2) 0.5647(3) 0.0433(19) Uani 1 1 d . . .
N8 N 0.7402(4) -0.02275(16) 0.5317(3) 0.0309(17) Uani 1 1 d . . .
N9 N 0.7687(5) -0.1651(2) 0.3590(4) 0.055(2) Uani 1 1 d . . .
C21 C 0.8336(6) -0.0612(3) 0.5365(5) 0.053(3) Uani 1 1 d . . .
C22 C 0.7705(5) -0.0725(2) 0.4842(4) 0.039(2) Uani 1 1 d . . .
C23 C 0.7145(5) -0.0472(3) 0.4815(5) 0.048(3) Uani 1 1 d . . .
C24 C 0.9129(6) -0.0757(3) 0.5634(5) 0.085(4) Uani 1 1 d . . .
H24A H 0.9428 -0.0674 0.5356 0.127 Uiso 1 1 calc R . .
H24B H 0.9118 -0.1025 0.5640 0.127 Uiso 1 1 calc R . .
H24C H 0.9356 -0.0666 0.6082 0.127 Uiso 1 1 calc R . .
C25 C 0.6373(5) -0.0462(3) 0.4352(5) 0.067(3) Uani 1 1 d . . .
H25A H 0.6008 -0.0493 0.4595 0.101 Uiso 1 1 calc R . .
H25B H 0.6310 -0.0659 0.4031 0.101 Uiso 1 1 calc R . .
H25C H 0.6288 -0.0226 0.4123 0.101 Uiso 1 1 calc R . .
C26 C 0.7701(7) -0.1043(2) 0.4387(5) 0.062(3) Uani 1 1 d . . .
C27 C 0.7164(6) -0.1304(3) 0.4306(5) 0.076(4) Uani 1 1 d . . .
H27 H 0.6789 -0.1282 0.4521 0.091 Uiso 1 1 calc R . .
C28 C 0.7163(7) -0.1602(3) 0.3909(6) 0.089(4) Uani 1 1 d . . .
H28 H 0.6780 -0.1781 0.3856 0.107 Uiso 1 1 calc R . .
C29 C 0.8247(6) -0.1408(3) 0.3720(5) 0.072(3) Uani 1 1 d . . .
H29 H 0.8657 -0.1453 0.3555 0.086 Uiso 1 1 calc R . .
C30 C 0.8260(6) -0.1086(3) 0.4094(5) 0.071(3) Uani 1 1 d . . .
H30 H 0.8640 -0.0906 0.4140 0.086 Uiso 1 1 calc R . .
Rh1 Rh 0.52758(4) 0.00326(2) 0.95601(4) 0.0550(3) Uani 1 1 d . . .
O1 O 0.4193(4) 0.0093(2) 0.8935(3) 0.074(2) Uani 1 1 d . . .
C61 C 0.3654(5) 0.0069(3) 0.9165(6) 0.067(3) Uani 1 1 d . . .
C62 C 0.2872(6) 0.0109(4) 0.8637(5) 0.100(4) Uani 1 1 d . . .
H62A H 0.2846 0.0345 0.8413 0.151 Uiso 1 1 calc R . .
H62B H 0.2475 0.0098 0.8849 0.151 Uiso 1 1 calc R . .
H62C H 0.2802 -0.0089 0.8317 0.151 Uiso 1 1 calc R . .
O2 O 0.6323(3) -0.0027(2) 1.0242(3) 0.077(2) Uani 1 1 d . . .
O3 O 0.5214(4) -0.0522(2) 0.9450(3) 0.072(2) Uani 1 1 d . . .
C63 C 0.4962(6) -0.0716(4) 0.9856(6) 0.077(3) Uani 1 1 d . . .
C64 C 0.4962(8) -0.1129(3) 0.9767(5) 0.110(5) Uani 1 1 d . . .
H64A H 0.4862 -0.1186 0.9300 0.166 Uiso 1 1 calc R . .
H64B H 0.4571 -0.1238 0.9925 0.166 Uiso 1 1 calc R . .
H64C H 0.5455 -0.1227 1.0016 0.166 Uiso 1 1 calc R . .
O4 O 0.5288(4) 0.0591(2) 0.9702(3) 0.074(2) Uani 1 1 d . . .
Rh2 Rh 0.76294(5) -0.21227(2) 0.28900(4) 0.0626(3) Uani 1 1 d . . .
Rh3 Rh 0.75831(5) -0.26260(2) 0.21455(4) 0.0699(3) Uani 1 1 d . . .
O5 O 0.7856(5) -0.2506(2) 0.3634(3) 0.097(3) Uani 1 1 d . . .
O6 O 0.7819(5) -0.29741(19) 0.2960(4) 0.098(3) Uani 1 1 d . . .
C65 C 0.7943(9) -0.2837(3) 0.3509(6) 0.101(5) Uani 1 1 d . . .
C66 C 0.8206(15) -0.3077(4) 0.4070(7) 0.277(16) Uani 1 1 d . . .
H66A H 0.8468 -0.2933 0.4459 0.416 Uiso 1 1 calc R . .
H66B H 0.8553 -0.3258 0.3985 0.416 Uiso 1 1 calc R . .
H66C H 0.7776 -0.3203 0.4145 0.416 Uiso 1 1 calc R . .
O7 O 0.6490(5) -0.2172(2) 0.2744(5) 0.106(4) Uani 1 1 d . . .
O8 O 0.6453(4) -0.2667(2) 0.2043(4) 0.083(2) Uani 1 1 d . . .
C67 C 0.6233(8) -0.2393(4) 0.2388(8) 0.092(5) Uani 1 1 d . . .
C68 C 0.5265(9) -0.2469(4) 0.2178(9) 0.158(7) Uani 1 1 d . . .
H68A H 0.5042 -0.2298 0.2419 0.237 Uiso 1 1 calc R . .
H68B H 0.5172 -0.2720 0.2292 0.237 Uiso 1 1 calc R . .
H68C H 0.5036 -0.2432 0.1706 0.237 Uiso 1 1 calc R . .
O9 O 0.7391(4) -0.17796(17) 0.2098(3) 0.067(2) Uani 1 1 d . . .
O10 O 0.7358(5) -0.22680(19) 0.1393(3) 0.082(2) Uani 1 1 d . . .
C69 C 0.7330(7) -0.1918(4) 0.1550(6) 0.085(4) Uani 1 1 d . . .
C70 C 0.7102(9) -0.1653(4) 0.0908(6) 0.137(6) Uani 1 1 d . . .
H70A H 0.6831 -0.1439 0.0995 0.205 Uiso 1 1 calc R . .
H70B H 0.6779 -0.1787 0.0531 0.205 Uiso 1 1 calc R . .
H70C H 0.7559 -0.1573 0.0813 0.205 Uiso 1 1 calc R . .
O11 O 0.8764(4) -0.2095(2) 0.3005(4) 0.086(2) Uani 1 1 d . . .
O12 O 0.8716(4) -0.2555(2) 0.2311(4) 0.089(3) Uani 1 1 d . . .
C71 C 0.9059(8) -0.2302(3) 0.2682(8) 0.103(5) Uani 1 1 d . . .
C72 C 0.9934(8) -0.2238(5) 0.2782(11) 0.211(10) Uani 1 1 d . . .
H72A H 1.0190 -0.2475 0.2825 0.317 Uiso 1 1 calc R . .
H72B H 1.0153 -0.2094 0.3180 0.317 Uiso 1 1 calc R . .
H72C H 0.9996 -0.2107 0.2402 0.317 Uiso 1 1 calc R . .
P1 P 1.00698(13) 0.01460(7) 0.70344(11) 0.0421(6) Uani 1 1 d . . .
C31 C 1.0451(5) 0.0600(3) 0.7340(5) 0.053(3) Uani 1 1 d . . .
C32 C 0.9936(8) 0.0826(4) 0.7471(9) 0.135(7) Uani 1 1 d . . .
H32 H 0.9442 0.0734 0.7401 0.162 Uiso 1 1 calc R . .
C33 C 1.0082(8) 0.1172(7) 0.7695(10) 0.197(11) Uani 1 1 d . . .
H33 H 0.9704 0.1327 0.7761 0.236 Uiso 1 1 calc R . .
C34 C 1.0799(13) 0.1280(4) 0.7817(8) 0.148(7) Uani 1 1 d . . .
H34 H 1.0924 0.1523 0.7968 0.178 Uiso 1 1 calc R . .
C35 C 1.1379(8) 0.1056(5) 0.7734(7) 0.118(5) Uani 1 1 d . . .
H35 H 1.1888 0.1134 0.7848 0.141 Uiso 1 1 calc R . .
C36 C 1.1136(6) 0.0693(3) 0.7458(5) 0.062(3) Uani 1 1 d . . .
H36 H 1.1487 0.0529 0.7367 0.075 Uiso 1 1 calc R . .
C41 C 1.0763(5) -0.0012(2) 0.6641(5) 0.048(2) Uani 1 1 d . . .
C42 C 1.0645(6) 0.0066(3) 0.5976(5) 0.069(3) Uani 1 1 d U . .
H42 H 1.0203 0.0196 0.5745 0.082 Uiso 1 1 calc R . .
C43 C 1.1112(6) -0.0030(4) 0.5655(6) 0.088(3) Uani 1 1 d U . .
H43 H 1.0992 0.0018 0.5198 0.106 Uiso 1 1 calc R . .
C44 C 1.1694(10) -0.0178(5) 0.5943(8) 0.123(6) Uani 1 1 d . . .
H44 H 1.2037 -0.0222 0.5702 0.148 Uiso 1 1 calc R . .
C45 C 1.1931(7) -0.0299(4) 0.6646(10) 0.131(6) Uani 1 1 d . . .
H45 H 1.2391 -0.0422 0.6852 0.158 Uiso 1 1 calc R . .
C46 C 1.1398(7) -0.0212(3) 0.6967(6) 0.082(4) Uani 1 1 d . . .
H46 H 1.1473 -0.0289 0.7406 0.098 Uiso 1 1 calc R . .
C51 C 1.0251(5) -0.0134(3) 0.7783(5) 0.051(3) Uani 1 1 d . . .
C52 C 0.9905(9) -0.0483(3) 0.7716(6) 0.111(5) Uani 1 1 d . . .
H52 H 0.9558 -0.0552 0.7308 0.133 Uiso 1 1 calc R . .
C53 C 1.0073(11) -0.0728(4) 0.8253(9) 0.139(7) Uani 1 1 d . . .
H53 H 0.9927 -0.0978 0.8197 0.167 Uiso 1 1 calc R . .
C54 C 1.0467(11) -0.0586(7) 0.8874(10) 0.174(10) Uani 1 1 d . . .
H54 H 1.0522 -0.0730 0.9256 0.208 Uiso 1 1 calc R . .
C55 C 1.0753(12) -0.0264(7) 0.8929(7) 0.226(14) Uani 1 1 d . . .
H55 H 1.1083 -0.0194 0.9345 0.271 Uiso 1 1 calc R . .
C56 C 1.0608(11) -0.0006(5) 0.8411(8) 0.179(8) Uani 1 1 d . . .
H56 H 1.0748 0.0243 0.8490 0.215 Uiso 1 1 calc R . .

loop_
_atom_site_aniso_label
_atom_site_aniso_U_11
_atom_site_aniso_U_22
_atom_site_aniso_U_33
_atom_site_aniso_U_23
_atom_site_aniso_U_13
_atom_site_aniso_U_12
Ag1 0.0279(4) 0.0531(4) 0.0364(4) 0.0015(3) 0.0099(3) 0.0019(3)
B1 0.037(6) 0.055(7) 0.023(5) 0.013(5) 0.018(5) -0.002(5)
N1 0.035(5) 0.052(5) 0.049(5) 0.023(4) 0.007(4) -0.018(4)
N2 0.043(5) 0.051(5) 0.035(5) -0.007(4) 0.020(4) 0.007(4)
N3 0.121(8) 0.039(6) 0.073(7) 0.006(5) 0.002(6) -0.032(5)
C1 0.023(5) 0.079(7) 0.039(6) 0.024(5) -0.017(5) -0.003(5)
C2 0.065(7) 0.029(5) 0.054(7) -0.007(5) 0.015(6) -0.020(5)
C3 0.062(7) 0.048(6) 0.042(6) 0.018(5) 0.004(5) 0.037(6)
C4 0.093(10) 0.074(9) 0.145(13) 0.056(8) -0.002(9) -0.017(7)
C5 0.060(7) 0.092(8) 0.059(7) 0.029(6) 0.024(6) 0.002(6)
C6 0.062(7) 0.062(7) 0.047(7) -0.008(6) 0.024(6) -0.014(6)
C7 0.100(9) 0.043(6) 0.068(8) 0.009(6) 0.034(7) -0.007(6)
C8 0.090(9) 0.101(10) 0.065(8) 0.048(8) 0.005(7) 0.000(8)
C9 0.197(16) 0.045(8) 0.085(11) 0.023(7) 0.014(11) -0.028(8)
C10 0.117(10) 0.068(8) 0.031(6) 0.011(5) 0.009(6) -0.030(7)
N4 0.066(6) 0.053(5) 0.041(5) -0.009(4) 0.041(4) -0.011(4)
N5 0.028(4) 0.046(4) 0.028(4) -0.010(3) 0.005(3) -0.002(3)
N6 0.054(6) 0.111(8) 0.035(5) 0.000(5) 0.019(4) 0.015(5)
C11 0.066(7) 0.072(7) 0.034(6) 0.012(5) 0.028(5) 0.016(6)
C12 0.035(5) 0.056(6) 0.050(6) 0.003(5) 0.021(5) 0.017(5)
C13 0.027(5) 0.056(6) 0.042(6) -0.003(5) 0.020(5) 0.001(4)
C14 0.045(6) 0.160(11) 0.032(6) -0.006(6) 0.034(5) 0.012(7)
C15 0.057(7) 0.104(9) 0.056(7) 0.009(6) 0.015(6) 0.000(6)
C16 0.044(6) 0.061(6) 0.033(5) 0.009(5) 0.012(5) 0.006(5)
C17 0.071(7) 0.092(8) 0.068(8) 0.017(6) 0.065(7) 0.019(6)
C18 0.068(8) 0.116(10) 0.055(7) 0.047(7) 0.023(6) 0.025(7)
C19 0.032(6) 0.095(8) 0.097(9) 0.055(7) 0.036(6) 0.038(6)
C20 0.047(6) 0.105(8) 0.041(6) 0.039(6) 0.033(5) 0.011(6)
N7 0.036(5) 0.052(5) 0.037(5) 0.010(4) 0.004(4) 0.013(4)
N8 0.041(5) 0.031(4) 0.029(4) -0.019(3) 0.024(4) -0.008(3)
N9 0.082(7) 0.043(5) 0.046(5) -0.009(4) 0.026(5) 0.007(5)
C21 0.072(8) 0.043(6) 0.050(7) 0.003(5) 0.029(6) 0.021(5)
C22 0.044(6) 0.038(5) 0.037(6) -0.004(4) 0.014(5) 0.009(5)
C23 0.027(5) 0.05