####################################################################### 
# 
# This file contains crystal structure data downloaded from the 
# Cambridge Structural Database (CSD) hosted by the Cambridge 
# Crystallographic Data Centre (CCDC).
# 
# Full information about CCDC data access policies and citation 
# guidelines are available at http://www.ccdc.cam.ac.uk/access/V1 
# 
# Audit and citation data items may have been added by the CCDC. 
# Please retain this information to preserve the provenance of 
# this file and to allow appropriate attribution of the data. 
# 
#######################################################################

data_l8
_audit_block_doi                 10.5517/cc10qmgt
_database_code_depnum_ccdc_archive 'CCDC 945266'
loop_
_citation_id
_citation_doi
_citation_year
1 10.1021/ic401726a 2013
_audit_update_record             
;
2013-06-17 deposited with the CCDC.	2024-07-08 downloaded from the CCDC.
;

_audit_creation_method           SHELXL-97
_chemical_name_systematic        
; 
 ? 
;
_chemical_name_common            ?
_chemical_melting_point          ?
_chemical_formula_moiety         ?
_chemical_formula_sum            'C72 H64 Co3 Mo10 N12 O74 P4'
_chemical_formula_weight         3541.43

loop_
_atom_type_symbol
_atom_type_description
_atom_type_scat_dispersion_real
_atom_type_scat_dispersion_imag
_atom_type_scat_source
O O 0.0106 0.0060 'International Tables Vol C Tables 4.2.6.8 and 6.1.1.4'
P P 0.1023 0.0942 'International Tables Vol C Tables 4.2.6.8 and 6.1.1.4'
Co Co 0.3494 0.9721 'International Tables Vol C Tables 4.2.6.8 and 6.1.1.4'
Mo Mo -1.6832 0.6857 'International Tables Vol C Tables 4.2.6.8 and 6.1.1.4'
C C 0.0033 0.0016 'International Tables Vol C Tables 4.2.6.8 and 6.1.1.4'
N N 0.0061 0.0033 'International Tables Vol C Tables 4.2.6.8 and 6.1.1.4'
H H 0.0000 0.0000 'International Tables Vol C Tables 4.2.6.8 and 6.1.1.4'

_symmetry_cell_setting           triclinic
_symmetry_space_group_name_H-M   'P -1'

loop_
_symmetry_equiv_pos_as_xyz
'x, y, z'
'-x, -y, -z'

_cell_length_a                   12.476(5)
_cell_length_b                   12.715(5)
_cell_length_c                   20.931(5)
_cell_angle_alpha                74.508(5)
_cell_angle_beta                 86.133(5)
_cell_angle_gamma                76.031(5)
_cell_volume                     3105.1(19)
_cell_formula_units_Z            1
_cell_measurement_temperature    293(2)
_cell_measurement_reflns_used    ?
_cell_measurement_theta_min      ?
_cell_measurement_theta_max      ?

_exptl_crystal_description       block
_exptl_crystal_colour            orange
_exptl_crystal_size_max          ?
_exptl_crystal_size_mid          ?
_exptl_crystal_size_min          ?
_exptl_crystal_density_meas      ?
_exptl_crystal_density_diffrn    1.894
_exptl_crystal_density_method    'not measured'
_exptl_crystal_F_000             1733
_exptl_absorpt_coefficient_mu    1.519
_exptl_absorpt_correction_type   ?
_exptl_absorpt_correction_T_min  ?
_exptl_absorpt_correction_T_max  ?
_exptl_absorpt_process_details   ?

_exptl_special_details           
; 
 ? 
;

_diffrn_ambient_temperature      293(2)
_diffrn_radiation_wavelength     0.71069
_diffrn_radiation_type           MoK\a
_diffrn_radiation_source         'fine-focus sealed tube'
_diffrn_radiation_monochromator  graphite
_diffrn_measurement_device_type  ?
_diffrn_measurement_method       ?
_diffrn_detector_area_resol_mean ?
_diffrn_standards_number         ?
_diffrn_standards_interval_count ?
_diffrn_standards_interval_time  ?
_diffrn_standards_decay_%        ?
_diffrn_reflns_number            16710
_diffrn_reflns_av_R_equivalents  0.0645
_diffrn_reflns_av_sigmaI/netI    0.1538
_diffrn_reflns_limit_h_min       -15
_diffrn_reflns_limit_h_max       14
_diffrn_reflns_limit_k_min       -15
_diffrn_reflns_limit_k_max       13
_diffrn_reflns_limit_l_min       -25
_diffrn_reflns_limit_l_max       20
_diffrn_reflns_theta_min         1.96
_diffrn_reflns_theta_max         25.35
_reflns_number_total             11362
_reflns_number_gt                6167
_reflns_threshold_expression     >2sigma(I)

_computing_data_collection       ?
_computing_cell_refinement       ?
_computing_data_reduction        ?
_computing_structure_solution    'SHELXS-97 (Sheldrick, 1990)'
_computing_structure_refinement  'SHELXL-97 (Sheldrick, 1997)'
_computing_molecular_graphics    ?
_computing_publication_material  ?

_refine_special_details          
; 
 Refinement of F^2^ against ALL reflections.  The weighted R-factor wR and 
 goodness of fit S are based on F^2^, conventional R-factors R are based 
 on F, with F set to zero for negative F^2^. The threshold expression of 
 F^2^ > 2sigma(F^2^) is used only for calculating R-factors(gt) etc. and is 
 not relevant to the choice of reflections for refinement.  R-factors based 
 on F^2^ are statistically about twice as large as those based on F, and R- 
 factors based on ALL data will be even larger. 
;

_refine_ls_structure_factor_coef Fsqd
_refine_ls_matrix_type           full
_refine_ls_weighting_scheme      calc
_refine_ls_weighting_details     
'calc w=1/[\s^2^(Fo^2^)+(0.1000P)^2^+0.0000P] where P=(Fo^2^+2Fc^2^)/3'
_atom_sites_solution_primary     direct
_atom_sites_solution_secondary   difmap
_atom_sites_solution_hydrogens   geom
_refine_ls_hydrogen_treatment    mixed
_refine_ls_extinction_method     none
_refine_ls_extinction_coef       ?
_refine_ls_number_reflns         11362
_refine_ls_number_parameters     784
_refine_ls_number_restraints     0
_refine_ls_R_factor_all          0.1509
_refine_ls_R_factor_gt           0.0742
_refine_ls_wR_factor_ref         0.2087
_refine_ls_wR_factor_gt          0.1806
_refine_ls_goodness_of_fit_ref   0.980
_refine_ls_restrained_S_all      0.980
_refine_ls_shift/su_max          0.189
_refine_ls_shift/su_mean         0.005

loop_
_atom_site_label
_atom_site_type_symbol
_atom_site_fract_x
_atom_site_fract_y
_atom_site_fract_z
_atom_site_U_iso_or_equiv
_atom_site_adp_type
_atom_site_occupancy
_atom_site_symmetry_multiplicity
_atom_site_calc_flag
_atom_site_refinement_flags
_atom_site_disorder_assembly
_atom_site_disorder_group
Mo1 Mo 0.05091(9) -0.24479(9) -0.34651(5) 0.0215(3) Uani 1 1 d . . .
Mo2 Mo 0.00636(8) -0.28724(9) -0.18289(5) 0.0174(3) Uani 1 1 d . . .
Mo3 Mo 0.24302(8) -0.42106(9) -0.09995(5) 0.0202(3) Uani 1 1 d . . .
Mo4 Mo 0.32423(9) -0.33275(10) -0.37430(5) 0.0254(3) Uani 1 1 d . . .
Mo5 Mo 0.45816(8) -0.40184(10) -0.22877(5) 0.0213(3) Uani 1 1 d . . .
Co1 Co 0.26771(13) -0.64755(15) -0.80152(8) 0.0226(4) Uani 1 1 d . . .
Co2 Co 0.0000 0.0000 -0.5000 0.0293(6) Uani 1 2 d S . .
P1 P 0.2335(3) -0.1952(3) -0.24798(16) 0.0211(7) Uani 1 1 d . . .
P2 P 0.2065(3) -0.4827(3) -0.23966(16) 0.0199(7) Uani 1 1 d . . .
O28 O 0.0957(6) -0.3956(7) -0.2530(4) 0.0217(19) Uani 1 1 d . . .
O27 O 0.2081(7) -0.2041(7) -0.3165(4) 0.026(2) Uani 1 1 d . . .
N1 N 0.0405(9) -0.1223(10) -0.5565(5) 0.033(3) Uani 1 1 d . . .
O26 O 0.2704(7) -0.5423(7) -0.0389(4) 0.030(2) Uani 1 1 d . . .
N2 N 0.2071(8) -0.5242(9) -0.7462(5) 0.025(2) Uani 1 1 d . . .
O25 O 0.2308(6) -0.5329(7) -0.1661(4) 0.024(2) Uani 1 1 d . . .
O24 O -0.0400(7) -0.1828(7) -0.1459(4) 0.030(2) Uani 1 1 d . . .
O23 O 0.3570(6) -0.2250(7) -0.2360(4) 0.024(2) Uani 1 1 d . . .
O22 O 0.2213(10) 0.0858(9) -0.1149(5) 0.058(3) Uani 1 1 d . . .
O21 O 0.3869(9) -0.8708(9) -0.2669(6) 0.066(4) Uani 1 1 d . . .
O20 O 0.3028(6) -0.4297(7) -0.2727(4) 0.0199(19) Uani 1 1 d . . .
O19 O 0.5699(6) -0.3534(7) -0.2134(4) 0.026(2) Uani 1 1 d . . .
O18 O -0.0026(6) -0.1898(6) -0.2727(4) 0.0191(18) Uani 1 1 d . . .
O17 O 0.3828(6) -0.4241(7) -0.1468(4) 0.024(2) Uani 1 1 d . . .
O16 O 0.2477(7) -0.3224(8) -0.0603(4) 0.033(2) Uani 1 1 d . . .
O15 O 0.4465(6) -0.3349(7) -0.3239(4) 0.027(2) Uani 1 1 d . . .
C8 C 0.1386(10) -0.3668(11) -0.6713(6) 0.026(3) Uani 1 1 d . . .
N3 N 0.4817(11) -1.2518(10) -0.9834(7) 0.044(3) Uani 1 1 d . . .
O14 O 0.1050(6) -0.6560(7) -0.8158(4) 0.027(2) Uani 1 1 d . . .
C36 C 0.3174(14) -0.7803(14) -0.2940(8) 0.046(4) Uani 1 1 d . . .
C10 C 0.1186(11) -0.4390(11) -0.7620(6) 0.026(3) Uani 1 1 d . . .
H10A H 0.0786 -0.4326 -0.7994 0.031 Uiso 1 1 calc R . .
O13 O 0.5188(7) -0.5359(8) -0.2285(5) 0.033(2) Uani 1 1 d . . .
C3 C 0.1037(11) -0.2823(11) -0.6323(6) 0.028(3) Uani 1 1 d . . .
O12 O 0.1783(6) -0.2711(7) -0.1925(4) 0.0199(19) Uani 1 1 d . . .
C5 C -0.0173(14) -0.1131(14) -0.6109(8) 0.054(5) Uani 1 1 d . . .
H5A H -0.0770 -0.0523 -0.6244 0.064 Uiso 1 1 calc R . .
O11 O 0.0838(7) -0.3967(7) -0.1109(4) 0.025(2) Uani 1 1 d . . .
O10 O 0.3785(8) -0.4420(9) -0.4079(5) 0.048(3) Uani 1 1 d . . .
C17 C 0.5074(12) -1.1546(13) -0.9052(8) 0.050(5) Uani 1 1 d . . .
H17A H 0.5456 -1.1542 -0.8686 0.060 Uiso 1 1 calc R . .
C2 C 0.1668(11) -0.2840(12) -0.5777(7) 0.036(4) Uani 1 1 d . . .
H2A H 0.2321 -0.3382 -0.5660 0.043 Uiso 1 1 calc R . .
C1 C 0.1309(11) -0.2059(12) -0.5425(7) 0.037(4) Uani 1 1 d . . .
H1A H 0.1724 -0.2112 -0.5061 0.044 Uiso 1 1 calc R . .
C32 C 0.2103(12) -0.0414(11) -0.1745(6) 0.035(3) Uani 1 1 d . . .
H32A H 0.1760 -0.0893 -0.1393 0.041 Uiso 1 1 calc R . .
H32B H 0.2897 -0.0676 -0.1689 0.041 Uiso 1 1 calc R . .
C19 C 0.3679(12) -1.0730(13) -0.9860(7) 0.038(4) Uani 1 1 d . . .
H19A H 0.3103 -1.0142 -1.0061 0.046 Uiso 1 1 calc R . .
C7 C 0.2318(11) -0.4525(12) -0.6556(7) 0.034(3) Uani 1 1 d . . .
H7A H 0.2745 -0.4585 -0.6195 0.041 Uiso 1 1 calc R . .
O9 O 0.2621(7) -0.7678(8) -0.7103(4) 0.033(2) Uani 1 1 d . . .
C34 C 0.2049(10) -0.5953(11) -0.2750(6) 0.028(3) Uani 1 1 d . . .
H34A H 0.1444 -0.6292 -0.2557 0.033 Uiso 1 1 calc R . .
H34B H 0.1917 -0.5658 -0.3222 0.033 Uiso 1 1 calc R . .
C12 C 0.4430(12) -0.9609(12) -0.8483(8) 0.047(4) Uani 1 1 d . . .
H12A H 0.5000 -1.0200 -0.8279 0.056 Uiso 1 1 calc R . .
O8 O 0.1218(9) 0.1528(9) -0.2066(5) 0.053(3) Uani 1 1 d . . .
C31 C 0.1789(10) -0.0541(10) -0.2423(6) 0.025(3) Uani 1 1 d . . .
H31A H 0.2082 -0.0027 -0.2781 0.030 Uiso 1 1 calc R . .
H31B H 0.0991 -0.0354 -0.2466 0.030 Uiso 1 1 calc R . .
O7 O 0.2622(13) -0.7685(11) -0.3431(6) 0.088(5) Uani 1 1 d . . .
C33 C 0.1773(12) 0.0738(12) -0.1674(7) 0.031(3) Uani 1 1 d . . .
C9 C 0.0836(11) -0.3619(11) -0.7275(6) 0.030(3) Uani 1 1 d . . .
H9A H 0.0214 -0.3044 -0.7416 0.036 Uiso 1 1 calc R . .
C6 C 0.2626(11) -0.5298(11) -0.6929(6) 0.026(3) Uani 1 1 d . . .
H6A H 0.3248 -0.5880 -0.6803 0.032 Uiso 1 1 calc R . .
O6 O 0.0324(8) -0.1240(8) -0.4101(4) 0.035(2) Uani 1 1 d . . .
C35 C 0.3115(11) -0.6839(11) -0.2637(7) 0.038(4) Uani 1 1 d . . .
H35A H 0.3231 -0.7139 -0.2163 0.046 Uiso 1 1 calc R . .
H35B H 0.3717 -0.6485 -0.2815 0.046 Uiso 1 1 calc R . .
O5 O 0.2638(7) -0.5294(7) -0.8917(4) 0.030(2) Uani 1 1 d . . .
C13 C 0.3911(10) -0.9642(11) -0.9046(6) 0.026(3) Uani 1 1 d . . .
O4 O 0.1707(7) -0.3359(7) -0.3808(4) 0.026(2) Uani 1 1 d . . .
C16 C 0.5353(14) -1.2441(15) -0.9322(10) 0.067(6) Uani 1 1 d . . .
H16A H 0.5946 -1.3027 -0.9142 0.080 Uiso 1 1 calc R . .
O3 O 0.3280(7) -0.2154(9) -0.4371(4) 0.043(3) Uani 1 1 d . . .
C15 C 0.2799(9) -0.7832(11) -0.9055(7) 0.029(3) Uani 1 1 d . . .
H15A H 0.2243 -0.7222 -0.9255 0.034 Uiso 1 1 calc R . .
C23 C 0.7870(15) 0.1542(14) -0.1732(10) 0.063(6) Uani 1 1 d . . .
C14 C 0.3093(12) -0.8717(12) -0.9332(7) 0.042(4) Uani 1 1 d . . .
H14A H 0.2742 -0.8697 -0.9715 0.050 Uiso 1 1 calc R . .
C20 C 0.3985(14) -1.1674(13) -1.0095(8) 0.046(4) Uani 1 1 d . . .
H20A H 0.3597 -1.1720 -1.0447 0.056 Uiso 1 1 calc R . .
C24 C 0.7499(16) 0.2467(13) -0.1483(12) 0.069(6) Uani 1 1 d . . .
H24A H 0.6924 0.3049 -0.1691 0.083 Uiso 1 1 calc R . .
C18 C 0.4230(11) -1.0652(12) -0.9322(7) 0.034(3) Uani 1 1 d . . .
C27 C 0.787(2) 0.0509(18) -0.2586(10) 0.085(7) Uani 1 1 d . . .
H27A H 0.8478 -0.0040 -0.2397 0.102 Uiso 1 1 calc R . .
C11 C 0.4076(12) -0.8681(12) -0.8241(7) 0.044(4) Uani 1 1 d . . .
H11A H 0.4426 -0.8670 -0.7865 0.053 Uiso 1 1 calc R . .
N4 N 0.3281(9) -0.7803(9) -0.8498(6) 0.032(3) Uani 1 1 d . . .
C28 C 0.7416(15) 0.1416(14) -0.2314(9) 0.051(4) Uani 1 1 d . . .
O2 O 0.1705(9) 0.0046(10) -0.4964(6) 0.060(3) Uani 1 1 d . . .
N5 N 0.8818(16) 0.1745(17) -0.0609(10) 0.086(6) Uani 1 1 d . . .
N6 N 0.6522(18) 0.121(2) -0.3468(10) 0.104(7) Uani 1 1 d . . .
C29 C 0.6565(16) 0.219(2) -0.2645(10) 0.073(6) Uani 1 1 d . . .
H29A H 0.6285 0.2828 -0.2491 0.088 Uiso 1 1 calc R . .
C22 C 0.8760(18) 0.0702(16) -0.1406(11) 0.084(7) Uani 1 1 d . . .
H22A H 0.9054 0.0065 -0.1554 0.100 Uiso 1 1 calc R . .
C4 C 0.0113(12) -0.1937(13) -0.6468(7) 0.044(4) Uani 1 1 d . . .
H4A H -0.0333 -0.1879 -0.6821 0.053 Uiso 1 1 calc R . .
C25 C 0.798(2) 0.253(2) -0.0929(14) 0.093(8) Uani 1 1 d . . .
H25A H 0.7703 0.3150 -0.0765 0.111 Uiso 1 1 calc R . .
C21 C 0.918(2) 0.087(2) -0.0851(14) 0.103(8) Uani 1 1 d . . .
H21A H 0.9765 0.0311 -0.0633 0.124 Uiso 1 1 calc R . .
C30 C 0.6097(19) 0.211(2) -0.3176(13) 0.095(8) Uani 1 1 d . . .
H30A H 0.5479 0.2661 -0.3360 0.114 Uiso 1 1 calc R . .
C26 C 0.739(3) 0.046(2) -0.3126(13) 0.104(9) Uani 1 1 d . . .
H26A H 0.7685 -0.0169 -0.3285 0.125 Uiso 1 1 calc R . .
OW5 O 0.5288(7) -1.4175(8) -1.0480(4) 0.031(2) Uani 1 1 d . . .
OW4 O 0.1768(11) 0.2745(10) -0.0871(6) 0.075(4) Uani 1 1 d . . .
OW3 O 0.0617(10) -0.4610(11) -0.9442(6) 0.077(4) Uani 1 1 d . . .
OW1 O 0.0247(10) 0.2383(12) 0.0069(6) 0.084(4) Uani 1 1 d . . .
OW6 O 0.4212(11) -0.8104(12) -0.6185(7) 0.095(5) Uani 1 1 d . . .
OW2 O 0.4257(12) -1.0436(13) -0.3219(9) 0.121(7) Uani 1 1 d . . .
O1 O -0.0552(7) -0.3005(8) -0.3568(4) 0.034(2) Uani 1 1 d . . .
OW7 O 0.0000 -0.5000 -0.5000 0.205(15) Uiso 1 2 d S . .
OW8 O 0.187(2) -0.560(2) -0.4676(13) 0.084(8) Uiso 0.50 1 d P . .
OW9 O 0.136(3) -0.618(3) -0.5048(15) 0.106(10) Uiso 0.50 1 d P . .
OW11 O 0.356(3) -0.721(3) -0.4859(16) 0.114(11) Uiso 0.50 1 d P . .
OW12 O 0.226(4) -0.731(4) -0.501(2) 0.194(19) Uiso 0.50 1 d P . .
OW10 O -0.038(3) -0.543(3) -0.5428(16) 0.120(12) Uiso 0.50 1 d P . .

loop_
_atom_site_aniso_label
_atom_site_aniso_U_11
_atom_site_aniso_U_22
_atom_site_aniso_U_33
_atom_site_aniso_U_23
_atom_site_aniso_U_13
_atom_site_aniso_U_12
Mo1 0.0196(6) 0.0231(6) 0.0202(6) -0.0060(5) -0.0049(4) -0.0003(5)
Mo2 0.0119(5) 0.0202(6) 0.0207(6) -0.0071(5) -0.0014(4) -0.0024(4)
Mo3 0.0161(6) 0.0248(7) 0.0202(6) -0.0075(5) -0.0036(4) -0.0030(5)
Mo4 0.0216(6) 0.0356(7) 0.0216(6) -0.0109(5) 0.0010(5) -0.0078(5)
Mo5 0.0127(5) 0.0271(7) 0.0266(6) -0.0127(5) -0.0016(4) -0.0023(5)
Co1 0.0160(9) 0.0246(10) 0.0288(10) -0.0118(8) -0.0002(7) -0.0023(7)
Co2 0.0365(16) 0.0254(15) 0.0246(14) -0.0091(12) -0.0020(11) -0.0009(12)
P1 0.0203(17) 0.0186(18) 0.0264(18) -0.0066(14) -0.0033(14) -0.0065(14)
P2 0.0177(17) 0.0184(18) 0.0255(18) -0.0094(14) -0.0018(14) -0.0030(14)
O28 0.018(4) 0.013(5) 0.029(5) -0.004(4) -0.007(4) 0.007(4)
O27 0.036(5) 0.020(5) 0.018(4) -0.003(4) -0.006(4) -0.004(4)
N1 0.042(7) 0.036(7) 0.016(6) -0.006(5) -0.005(5) 0.001(6)
O26 0.032(5) 0.026(5) 0.028(5) 0.002(4) -0.015(4) -0.004(4)
N2 0.024(6) 0.029(7) 0.026(6) -0.016(5) 0.010(5) -0.010(5)
O25 0.022(5) 0.027(5) 0.024(5) -0.008(4) -0.006(4) -0.004(4)
O24 0.032(5) 0.027(5) 0.031(5) -0.010(4) 0.002(4) -0.003(4)
O23 0.018(4) 0.024(5) 0.028(5) -0.006(4) -0.008(4) -0.002(4)
O22 0.091(9) 0.039(7) 0.048(7) -0.027(6) -0.022(6) 0.000(6)
O21 0.052(8) 0.031(7) 0.111(10) -0.037(7) -0.018(7) 0.022(6)
O20 0.019(4) 0.022(5) 0.023(5) -0.009(4) -0.002(4) -0.010(4)
O19 0.015(5) 0.030(5) 0.035(5) -0.011(4) 0.004(4) -0.007(4)
O18 0.019(4) 0.013(4) 0.023(4) -0.003(4) -0.004(3) 0.001(4)
O17 0.018(5) 0.027(5) 0.028(5) -0.010(4) -0.002(4) -0.004(4)
O16 0.032(5) 0.039(6) 0.037(6) -0.021(5) 0.000(4) -0.012(5)
O15 0.018(5) 0.037(6) 0.028(5) -0.006(4) 0.002(4) -0.015(4)
C8 0.024(7) 0.031(8) 0.024(7) -0.011(6) 0.010(6) -0.008(6)
N3 0.047(8) 0.032(8) 0.063(9) -0.034(7) 0.010(7) -0.008(7)
O14 0.018(5) 0.037(6) 0.026(5) -0.010(4) 0.005(4) -0.007(4)
C36 0.049(10) 0.047(11) 0.046(10) -0.016(8) 0.008(8) -0.016(9)
C10 0.032(8) 0.032(8) 0.019(7) -0.017(6) 0.000(6) -0.007(7)
O13 0.016(5) 0.036(6) 0.049(6) -0.023(5) 0.005(4) 0.004(4)
C3 0.039(8) 0.029(8) 0.021(7) -0.012(6) 0.012(6) -0.011(7)
O12 0.016(4) 0.020(5) 0.018(4) 0.002(4) 0.001(3) -0.001(4)
C5 0.061(11) 0.049(11) 0.047(10) -0.025(8) -0.023(8) 0.016(9)
O11 0.022(5) 0.020(5) 0.036(5) -0.014(4) 0.000(4) -0.003(4)
O10 0.041(6) 0.064(8) 0.045(6) -0.034(6) 0.001(5) 0.000(6)
C17 0.045(10) 0.040(10) 0.062(11) -0.035(8) -0.030(8) 0.026(8)
C2 0.034(8) 0.034(9) 0.041(9) -0.023(7) -0.005(7) 0.004(7)
C1 0.035(8) 0.040(9) 0.033(8) -0.020(7) -0.015(7) 0.009(7)
C32 0.041(9) 0.030(9) 0.031(8) -0.007(7) -0.005(7) -0.005(7)
C19 0.043(9) 0.038(9) 0.033(8) -0.012(7) -0.012(7) -0.002(7)
C7 0.026(8) 0.044(9) 0.032(8) -0.018(7) -0.001(6) 0.002(7)
O9 0.032(5) 0.033(6) 0.031(5) -0.004(4) 0.002(4) -0.008(5)
C34 0.023(7) 0.029(8) 0.028(7) -0.008(6) -0.006(6) 0.000(6)
C12 0.042(9) 0.032(9) 0.061(11) -0.024(8) -0.024(8) 0.019(7)
O8 0.060(7) 0.029(6) 0.066(8) -0.018(6) -0.032(6) 0.014(5)
C31 0.019(7) 0.018(7) 0.041(8) -0.008(6) -0.007(6) -0.008(6)
O7 0.138(13) 0.056(9) 0.069(9) -0.033(7) -0.041(9) 0.009(9)
C33 0.041(9) 0.025(8) 0.028(8) -0.013(6) -0.002(7) -0.003(7)
C9 0.032(8) 0.031(8) 0.030(8) -0.013(6) -0.004(6) -0.007(7)
C6 0.033(8) 0.027(8) 0.023(7) -0.016(6) -0.008(6) -0.001(6)
O6 0.052(6) 0.033(6) 0.013(5) 0.002(4) -0.011(4) -0.001(5)
C35 0.039(9) 0.017(8) 0.061(10) -0.019(7) -0.025(7) 0.004(6)
O5 0.028(5) 0.026(5) 0.037(5) -0.013(4) 0.001(4) -0.005(4)
C13 0.018(7) 0.029(8) 0.027(7) -0.008(6) -0.003(5) 0.001(6)
O4 0.023(5) 0.034(6) 0.023(5) -0.014(4) -0.003(4) -0.004(4)
C16 0.054(12) 0.048(12) 0.102(15) -0.042(11) -0.034(11) 0.017(9)
O3 0.030(6) 0.067(8) 0.030(5) 0.001(5) -0.004(4) -0.021(5)
C15 0.007(6) 0.034(8) 0.045(8) -0.018(7) -0.013(6) 0.007(6)
C23 0.063(12) 0.025(10) 0.094(15) -0.017(10) 0.039(11) -0.006(9)
C14 0.046(10) 0.033(9) 0.050(10) -0.024(8) -0.023(8) 0.005(7)
C20 0.067(12) 0.040(10) 0.043(10) -0.024(8) 0.000(8) -0.018(9)
C24 0.060(12) 0.010(8) 0.134(19) -0.018(