####################################################################### 
# 
# This file contains crystal structure data downloaded from the 
# Cambridge Structural Database (CSD) hosted by the Cambridge 
# Crystallographic Data Centre (CCDC).
# 
# Full information about CCDC data access policies and citation 
# guidelines are available at http://www.ccdc.cam.ac.uk/access/V1 
# 
# Audit and citation data items may have been added by the CCDC. 
# Please retain this information to preserve the provenance of 
# this file and to allow appropriate attribution of the data. 
# 
#######################################################################

data_3
_audit_block_doi                 10.5517/cc11phgp
_database_code_depnum_ccdc_archive 'CCDC 973972'
loop_
_citation_id
_citation_doi
_citation_year
1 10.1021/ic400536e 2013
_audit_update_record             
;
2013-11-27 deposited with the CCDC.	2024-07-08 downloaded from the CCDC.
;

_audit_creation_method           SHELXL-97
_chemical_name_systematic        
;
 ?
;
_chemical_name_common            ?
_chemical_melting_point          ?
_chemical_formula_moiety         '2(C84 H44 Co2 N12 O30 Zn5), 2(O6 Zn), 27(O)'
_chemical_formula_sum            'C168 H88 Co4 N24 O99 Zn12'
_chemical_formula_weight         5046.78

loop_
_atom_type_symbol
_atom_type_description
_atom_type_scat_dispersion_real
_atom_type_scat_dispersion_imag
_atom_type_scat_source
C C 0.0033 0.0016 'International Tables Vol C Tables 4.2.6.8 and 6.1.1.4'
H H 0.0000 0.0000 'International Tables Vol C Tables 4.2.6.8 and 6.1.1.4'
N N 0.0061 0.0033 'International Tables Vol C Tables 4.2.6.8 and 6.1.1.4'
O O 0.0106 0.0060 'International Tables Vol C Tables 4.2.6.8 and 6.1.1.4'
Co Co 0.3494 0.9721 'International Tables Vol C Tables 4.2.6.8 and 6.1.1.4'
Zn Zn 0.2839 1.4301 'International Tables Vol C Tables 4.2.6.8 and 6.1.1.4'

_symmetry_cell_setting           triclinic
_symmetry_space_group_name_H-M   'P -1'
_symmetry_space_group_name_Hall  '-P 1'

loop_
_symmetry_equiv_pos_as_xyz
'x, y, z'
'-x, -y, -z'

_cell_length_a                   16.082(5)
_cell_length_b                   17.074(5)
_cell_length_c                   27.878(5)
_cell_angle_alpha                92.586(5)
_cell_angle_beta                 105.969(5)
_cell_angle_gamma                117.000(5)
_cell_volume                     6427(3)
_cell_formula_units_Z            1
_cell_measurement_temperature    150(2)
_cell_measurement_reflns_used    7168
_cell_measurement_theta_min      ?
_cell_measurement_theta_max      ?

_exptl_crystal_description       block
_exptl_crystal_colour            green
_exptl_crystal_size_max          0.23
_exptl_crystal_size_mid          0.20
_exptl_crystal_size_min          0.10
_exptl_crystal_density_meas      ?
_exptl_crystal_density_diffrn    1.304
_exptl_crystal_density_method    'not measured'
_exptl_crystal_F_000             2524
_exptl_absorpt_coefficient_mu    1.432
_exptl_absorpt_correction_type   none
_exptl_absorpt_correction_T_min  ?
_exptl_absorpt_correction_T_max  ?
_exptl_absorpt_process_details   ?

_exptl_special_details           
;
 ?
;

_diffrn_ambient_temperature      150(2)
_diffrn_radiation_wavelength     0.71073
_diffrn_radiation_type           MoK\a
_diffrn_radiation_source         'fine-focus sealed tube'
_diffrn_radiation_monochromator  graphite
_diffrn_measurement_device_type  'Xcalibur, Sapphire3'
_diffrn_measurement_method       '\w scans'
_diffrn_detector_area_resol_mean ?
_diffrn_standards_number         ?
_diffrn_standards_interval_count ?
_diffrn_standards_interval_time  ?
_diffrn_standards_decay_%        ?
_diffrn_reflns_number            43538
_diffrn_reflns_av_R_equivalents  0.0809
_diffrn_reflns_av_sigmaI/netI    0.1437
_diffrn_reflns_limit_h_min       -19
_diffrn_reflns_limit_h_max       19
_diffrn_reflns_limit_k_min       -20
_diffrn_reflns_limit_k_max       20
_diffrn_reflns_limit_l_min       -33
_diffrn_reflns_limit_l_max       33
_diffrn_reflns_theta_min         2.85
_diffrn_reflns_theta_max         25.00
_reflns_number_total             20318
_reflns_number_gt                11639
_reflns_threshold_expression     >2sigma(I)

_computing_data_collection       'Xcalibur, Sapphire3'
_computing_cell_refinement       'X-calibur S SAINT'
_computing_data_reduction        'X-calibur S SAINT'
_computing_structure_solution    'SHELXS-97 (Sheldrick, 1990)'
_computing_structure_refinement  'SHELXL-97 (Sheldrick, 1997)'
_computing_molecular_graphics    'Oxford SHELXTL'
_computing_publication_material  'Oxford SHELXTL'

_refine_special_details          
;
 Refinement of F^2^ against ALL reflections.  The weighted R-factor wR and
 goodness of fit S are based on F^2^, conventional R-factors R are based
 on F, with F set to zero for negative F^2^. The threshold expression of
 F^2^ > 2sigma(F^2^) is used only for calculating R-factors(gt) etc. and is
 not relevant to the choice of reflections for refinement.  R-factors based
 on F^2^ are statistically about twice as large as those based on F, and R-
 factors based on ALL data will be even larger.
;

_refine_ls_structure_factor_coef Fsqd
_refine_ls_matrix_type           full
_refine_ls_weighting_scheme      calc
_refine_ls_weighting_details     
'calc w=1/[\s^2^(Fo^2^)+(0.1317P)^2^+0.0000P] where P=(Fo^2^+2Fc^2^)/3'
_atom_sites_solution_primary     direct
_atom_sites_solution_secondary   difmap
_atom_sites_solution_hydrogens   geom
_refine_ls_hydrogen_treatment    constr
_refine_ls_extinction_method     none
_refine_ls_extinction_coef       ?
_refine_ls_number_reflns         20318
_refine_ls_number_parameters     1348
_refine_ls_number_restraints     6
_refine_ls_R_factor_all          0.1354
_refine_ls_R_factor_gt           0.0903
_refine_ls_wR_factor_ref         0.2460
_refine_ls_wR_factor_gt          0.2194
_refine_ls_goodness_of_fit_ref   0.938
_refine_ls_restrained_S_all      0.938
_refine_ls_shift/su_max          0.014
_refine_ls_shift/su_mean         0.001

loop_
_atom_site_label
_atom_site_type_symbol
_atom_site_fract_x
_atom_site_fract_y
_atom_site_fract_z
_atom_site_U_iso_or_equiv
_atom_site_adp_type
_atom_site_occupancy
_atom_site_symmetry_multiplicity
_atom_site_calc_flag
_atom_site_refinement_flags
_atom_site_disorder_assembly
_atom_site_disorder_group
C1 C 0.3370(6) -0.5766(6) 0.7964(4) 0.041(2) Uani 1 1 d . . .
C2 C 0.3116(6) -0.5112(6) 0.8159(4) 0.043(2) Uani 1 1 d . . .
C3 C 0.3067(8) -0.5064(7) 0.8653(4) 0.056(3) Uani 1 1 d . . .
H3 H 0.3204 -0.5444 0.8862 0.068 Uiso 1 1 calc R . .
C4 C 0.2818(8) -0.4464(7) 0.8835(4) 0.055(3) Uani 1 1 d . . .
H4 H 0.2719 -0.4482 0.9155 0.066 Uiso 1 1 calc R . .
C5 C 0.2711(6) -0.3842(6) 0.8567(4) 0.041(2) Uani 1 1 d . . .
C6 C 0.2720(9) -0.3924(7) 0.8085(4) 0.066(3) Uani 1 1 d . . .
H6 H 0.2584 -0.3540 0.7879 0.080 Uiso 1 1 calc R . .
C7 C 0.2917(8) -0.4540(8) 0.7880(4) 0.064(3) Uani 1 1 d . . .
H7 H 0.2916 -0.4571 0.7538 0.076 Uiso 1 1 calc R . .
C8 C 0.3282(7) -0.2420(7) 0.9040(4) 0.043(2) Uani 1 1 d . . .
C9 C 0.2970(6) -0.1852(5) 0.9257(3) 0.036(2) Uani 1 1 d . . .
C10 C 0.3576(7) -0.1019(7) 0.9574(4) 0.058(3) Uani 1 1 d . . .
H10 H 0.4273 -0.0752 0.9656 0.069 Uiso 1 1 calc R . .
C11 C 0.3167(8) -0.0564(7) 0.9774(5) 0.067(3) Uani 1 1 d . . .
H11 H 0.3577 0.0019 0.9981 0.080 Uiso 1 1 calc R . .
C12 C 0.2143(8) -0.0991(6) 0.9661(4) 0.053(3) Uani 1 1 d . . .
H12 H 0.1834 -0.0707 0.9786 0.063 Uiso 1 1 calc R . .
C13 C 0.1578(6) -0.1866(6) 0.9353(4) 0.041(2) Uani 1 1 d . . .
C14 C 0.0493(7) -0.2425(6) 0.9195(4) 0.045(2) Uani 1 1 d . . .
C15 C -0.0845(6) -0.3835(6) 0.8698(3) 0.034(2) Uani 1 1 d . . .
C16 C -0.1449(6) -0.3704(6) 0.8291(3) 0.039(2) Uani 1 1 d . . .
H16 H -0.1176 -0.3187 0.8150 0.046 Uiso 1 1 calc R . .
C17 C -0.2429(6) -0.4303(5) 0.8089(3) 0.035(2) Uani 1 1 d . . .
H17 H -0.2839 -0.4190 0.7816 0.042 Uiso 1 1 calc R . .
C18 C -0.2836(6) -0.5079(6) 0.8277(3) 0.034(2) Uani 1 1 d . . .
C19 C -0.2245(7) -0.5189(6) 0.8684(4) 0.048(2) Uani 1 1 d . . .
H19 H -0.2527 -0.5701 0.8828 0.057 Uiso 1 1 calc R . .
C20 C -0.1230(6) -0.4581(6) 0.8904(4) 0.048(3) Uani 1 1 d . . .
H20 H -0.0825 -0.4683 0.9185 0.058 Uiso 1 1 calc R . .
C21 C 0.6103(6) 0.4225(6) 0.8043(3) 0.0300(19) Uani 1 1 d . . .
C22 C 0.3284(7) -0.2375(6) 1.1404(3) 0.034(2) Uani 1 1 d . . .
C23 C 0.2753(6) -0.2764(6) 1.0871(3) 0.035(2) Uani 1 1 d . . .
C24 C 0.1721(6) -0.3212(6) 1.0674(3) 0.044(2) Uani 1 1 d . . .
H24 H 0.1349 -0.3232 1.0890 0.053 Uiso 1 1 calc R . .
C25 C 0.1239(6) -0.3627(6) 1.0167(3) 0.044(2) Uani 1 1 d . . .
H25 H 0.0539 -0.3889 1.0032 0.053 Uiso 1 1 calc R . .
C26 C 0.1755(6) -0.3667(6) 0.9857(3) 0.034(2) Uani 1 1 d . . .
C27 C 0.2785(6) -0.3238(6) 1.0046(3) 0.042(2) Uani 1 1 d . . .
H27 H 0.3159 -0.3233 0.9834 0.051 Uiso 1 1 calc R . .
C28 C 0.3243(6) -0.2819(6) 1.0557(3) 0.041(2) Uani 1 1 d . . .
H28 H 0.3943 -0.2555 1.0694 0.049 Uiso 1 1 calc R . .
C29 C 0.0812(6) -0.4951(6) 0.9193(3) 0.036(2) Uani 1 1 d . . .
C30 C 0.0306(6) -0.5234(5) 0.8616(3) 0.034(2) Uani 1 1 d . . .
C31 C -0.0260(7) -0.6105(6) 0.8338(4) 0.047(2) Uani 1 1 d . . .
H31 H -0.0370 -0.6608 0.8497 0.056 Uiso 1 1 calc R . .
C32 C -0.0650(7) -0.6201(6) 0.7825(4) 0.050(3) Uani 1 1 d . . .
H32 H -0.1075 -0.6791 0.7627 0.060 Uiso 1 1 calc R . .
C33 C -0.0462(7) -0.5492(6) 0.7580(4) 0.047(2) Uani 1 1 d . . .
H33 H -0.0721 -0.5578 0.7220 0.057 Uiso 1 1 calc R . .
C34 C 0.0133(6) -0.4636(5) 0.7889(3) 0.0302(19) Uani 1 1 d . . .
C35 C 0.0465(6) -0.3764(5) 0.7726(3) 0.034(2) Uani 1 1 d . . .
C36 C 0.1432(5) -0.2165(5) 0.8052(3) 0.0293(19) Uani 1 1 d . . .
C37 C 0.0992(6) -0.1656(5) 0.8099(4) 0.038(2) Uani 1 1 d . . .
H37 H 0.0362 -0.1915 0.8143 0.045 Uiso 1 1 calc R . .
C38 C 0.1479(7) -0.0767(6) 0.8081(4) 0.047(2) Uani 1 1 d . . .
H38 H 0.1178 -0.0409 0.8112 0.056 Uiso 1 1 calc R . .
C39 C 0.2377(5) -0.0381(5) 0.8020(3) 0.0272(18) Uani 1 1 d . . .
C40 C 0.2805(6) -0.0897(6) 0.7953(4) 0.041(2) Uani 1 1 d . . .
H40 H 0.3420 -0.0636 0.7892 0.049 Uiso 1 1 calc R . .
C41 C 0.2335(6) -0.1803(6) 0.7974(4) 0.041(2) Uani 1 1 d . . .
H41 H 0.2628 -0.2165 0.7935 0.049 Uiso 1 1 calc R . .
C42 C 0.2893(7) 0.0601(6) 0.8009(4) 0.042(2) Uani 1 1 d . . .
C43 C 0.4203(6) 0.3267(6) 0.6457(3) 0.041(2) Uani 1 1 d . . .
C44 C 0.4133(6) 0.3263(6) 0.5904(3) 0.034(2) Uani 1 1 d . . .
C45 C 0.4143(6) 0.2580(6) 0.5631(4) 0.042(2) Uani 1 1 d . . .
H45 H 0.4194 0.2117 0.5791 0.050 Uiso 1 1 calc R . .
C46 C 0.4082(7) 0.2558(6) 0.5129(3) 0.041(2) Uani 1 1 d . . .
H46 H 0.4053 0.2064 0.4939 0.049 Uiso 1 1 calc R . .
C47 C 0.4061(6) 0.3265(5) 0.4895(3) 0.0316(19) Uani 1 1 d . . .
C48 C 0.4073(6) 0.3959(6) 0.5178(3) 0.037(2) Uani 1 1 d . . .
H48 H 0.4059 0.4443 0.5028 0.045 Uiso 1 1 calc R . .
C49 C 0.4108(6) 0.3954(6) 0.5685(3) 0.040(2) Uani 1 1 d . . .
H49 H 0.4113 0.4432 0.5876 0.048 Uiso 1 1 calc R . .
C50 C 0.4673(6) 0.3607(6) 0.4199(3) 0.034(2) Uani 1 1 d . . .
C51 C 0.4307(5) 0.3455(5) 0.3632(3) 0.0276(18) Uani 1 1 d . . .
C52 C 0.4863(7) 0.3754(7) 0.3311(4) 0.057(3) Uani 1 1 d . . .
H52 H 0.5557 0.4144 0.3448 0.069 Uiso 1 1 calc R . .
C53 C 0.4398(8) 0.3481(8) 0.2795(4) 0.063(3) Uani 1 1 d . . .
H53 H 0.4776 0.3661 0.2572 0.076 Uiso 1 1 calc R . .
C54 C 0.3398(7) 0.2953(7) 0.2599(4) 0.055(3) Uani 1 1 d . . .
H54 H 0.3078 0.2786 0.2241 0.066 Uiso 1 1 calc R . .
C55 C 0.2846(6) 0.2660(6) 0.2920(3) 0.035(2) Uani 1 1 d . . .
C56 C 0.1779(6) 0.2101(6) 0.2811(4) 0.043(2) Uani 1 1 d . . .
C57 C 0.0495(6) 0.1484(6) 0.3194(3) 0.039(2) Uani 1 1 d . . .
C58 C 0.0101(7) 0.0569(7) 0.3177(4) 0.058(3) Uani 1 1 d . . .
H58 H 0.0473 0.0279 0.3148 0.070 Uiso 1 1 calc R . .
C59 C -0.0841(7) 0.0087(7) 0.3201(4) 0.058(3) Uani 1 1 d . . .
H59 H -0.1116 -0.0541 0.3187 0.070 Uiso 1 1 calc R . .
C60 C -0.1386(6) 0.0490(6) 0.3246(3) 0.042(2) Uani 1 1 d . . .
C61 C 0.7566(8) 0.9956(8) 0.3240(4) 0.060(3) Uani 1 1 d . . .
C62 C -0.0995(7) 0.1406(7) 0.3251(4) 0.052(3) Uani 1 1 d . . .
H62 H -0.1384 0.1684 0.3269 0.063 Uiso 1 1 calc R . .
C63 C -0.0068(7) 0.1912(6) 0.3230(4) 0.047(2) Uani 1 1 d . . .
H63 H 0.0196 0.2538 0.3240 0.057 Uiso 1 1 calc R . .
C64 C 0.4024(8) 0.9562(7) 0.2864(4) 0.045(3) Uani 1 1 d . . .
C65 C 0.3676(7) 0.0135(7) 0.3079(4) 0.045(2) Uani 1 1 d . . .
C66 C 0.2678(8) -0.0174(8) 0.2968(5) 0.078(4) Uani 1 1 d . . .
H66 H 0.2225 -0.0715 0.2726 0.094 Uiso 1 1 calc R . .
C67 C 0.2318(8) 0.0261(9) 0.3191(5) 0.093(5) Uani 1 1 d . . .
H67 H 0.1628 0.0064 0.3079 0.112 Uiso 1 1 calc R . .
C68 C 0.2977(6) 0.1018(6) 0.3597(4) 0.039(2) Uani 1 1 d . . .
C69 C 0.3976(7) 0.1342(6) 0.3701(4) 0.043(2) Uani 1 1 d . . .
H69 H 0.4431 0.1872 0.3951 0.052 Uiso 1 1 calc R . .
C70 C 0.4335(7) 0.0910(7) 0.3449(5) 0.057(3) Uani 1 1 d . . .
H70 H 0.5028 0.1143 0.3529 0.068 Uiso 1 1 calc R . .
C71 C 0.2169(7) 0.0914(6) 0.4180(4) 0.054(3) Uani 1 1 d . . .
C72 C 0.1712(7) 0.1334(7) 0.4434(4) 0.047(2) Uani 1 1 d . . .
C73 C 0.1195(9) 0.0998(7) 0.4750(5) 0.076(4) Uani 1 1 d . . .
H73 H 0.1059 0.0426 0.4830 0.091 Uiso 1 1 calc R . .
C74 C 0.0875(10) 0.1508(8) 0.4951(5) 0.086(4) Uani 1 1 d . . .
H74 H 0.0536 0.1297 0.5188 0.103 Uiso 1 1 calc R . .
C75 C 0.1026(8) 0.2312(7) 0.4822(4) 0.060(3) Uani 1 1 d . . .
H75 H 0.0797 0.2663 0.4961 0.072 Uiso 1 1 calc R . .
C76 C 0.1532(6) 0.2593(6) 0.4478(3) 0.037(2) Uani 1 1 d . . .
C77 C 0.1786(6) 0.3451(5) 0.4288(4) 0.036(2) Uani 1 1 d . . .
C78 C 0.2575(6) 0.4337(5) 0.3769(3) 0.0294(19) Uani 1 1 d . . .
C79 C 0.3222(6) 0.5191(6) 0.4103(4) 0.045(2) Uani 1 1 d . . .
H79 H 0.3532 0.5231 0.4453 0.054 Uiso 1 1 calc R . .
C80 C 0.3386(6) 0.5953(6) 0.3908(3) 0.040(2) Uani 1 1 d . . .
H80 H 0.3763 0.6520 0.4134 0.048 Uiso 1 1 calc R . .
C81 C 0.3026(6) 0.5922(5) 0.3402(3) 0.034(2) Uani 1 1 d . . .
C82 C 0.2449(7) 0.5092(6) 0.3065(3) 0.042(2) Uani 1 1 d . . .
H82 H 0.2202 0.5064 0.2710 0.050 Uiso 1 1 calc R . .
C83 C 0.2239(6) 0.4307(6) 0.3255(3) 0.041(2) Uani 1 1 d . . .
H83 H 0.1859 0.3743 0.3026 0.049 Uiso 1 1 calc R . .
C84 C 0.3252(7) 0.6767(7) 0.3202(4) 0.043(2) Uani 1 1 d . . .
N1 N 0.2517(5) -0.3217(5) 0.8784(3) 0.0345(17) Uani 1 1 d . . .
N2 N 0.2015(5) -0.2248(4) 0.9176(3) 0.0292(16) Uani 1 1 d . . .
N3 N 0.0177(4) -0.3215(4) 0.8909(3) 0.0281(15) Uani 1 1 d . . .
N4 N 0.0984(5) -0.3084(4) 0.8116(3) 0.0314(16) Uani 1 1 d . . .
N5 N 0.0469(4) -0.4547(4) 0.8385(3) 0.0267(15) Uani 1 1 d . . .
N6 N 0.1251(5) -0.4077(4) 0.9320(3) 0.0358(17) Uani 1 1 d . . .
N7 N 0.3904(5) 0.3202(4) 0.4376(2) 0.0313(16) Uani 1 1 d . . .
N8 N 0.3330(5) 0.2942(4) 0.3433(3) 0.0323(16) Uani 1 1 d . . .
N9 N 0.1510(5) 0.2011(5) 0.3220(3) 0.0362(17) Uani 1 1 d . . .
N10 N 0.2293(4) 0.3538(4) 0.3971(2) 0.0297(16) Uani 1 1 d . . .
N11 N 0.1851(5) 0.2100(5) 0.4298(3) 0.0375(18) Uani 1 1 d . . .
N12 N 0.2606(5) 0.1409(5) 0.3882(3) 0.0355(17) Uani 1 1 d . . .
O1 O 0.4161(5) -0.2175(5) 0.9086(3) 0.070(2) Uani 1 1 d . . .
O2 O -0.0069(5) -0.2177(5) 0.9307(3) 0.071(2) Uani 1 1 d . . .
O1W O 0.1578(6) 0.2137(7) 0.7512(4) 0.098(3) Uani 1 1 d . . .
O3 O 0.0269(5) -0.3710(4) 0.7265(2) 0.0503(17) Uani 1 1 d . . .
O2W O 0.2346(7) 0.2325(5) 0.8671(3) 0.085(3) Uani 1 1 d . . .
O4 O 0.0754(5) -0.5529(4) 0.9461(2) 0.0506(17) Uani 1 1 d . . .
O3W O 0.5457(5) 0.9018(5) 0.3760(3) 0.064(2) Uani 1 1 d . . .
O5 O 0.3477(5) -0.5735(4) 0.7531(3) 0.0508(17) Uani 1 1 d . . .
O4W O 0.1835(12) -0.4127(11) 0.5883(7) 0.200(3) Uani 1 1 d . . .
O6 O 0.3512(5) -0.6276(4) 0.8238(3) 0.0535(17) Uani 1 1 d . . .
O5W O -0.0111(12) -0.5419(11) 0.5467(7) 0.200(3) Uani 1 1 d . . .
O7 O 0.5534(4) 0.4475(4) 0.7762(3) 0.0515(18) Uani 1 1 d . . .
O6W O -0.0556(12) -0.4725(11) 0.6310(7) 0.200(3) Uani 1 1 d . . .
O8 O 0.5857(4) 0.3464(4) 0.8138(3) 0.0461(16) Uani 1 1 d . . .
O7W O 0.0975(12) -0.5368(11) 0.6524(7) 0.200(3) Uani 1 1 d . . .
O9 O 0.4210(4) -0.1898(4) 1.1564(2) 0.0409(15) Uani 1 1 d . . .
O8W O 0.1573(9) -0.3413(10) 0.6750(5) 0.166(5) Uani 1 1 d . . .
O10 O 0.2781(4) -0.2556(4) 1.1711(2) 0.0442(15) Uani 1 1 d . . .
O9W O 0.0410(9) -0.3518(9) 0.5660(6) 0.166(6) Uani 1 1 d . . .
O11 O 0.3760(4) 0.0926(4) 0.7962(2) 0.0410(15) Uani 1 1 d . . .
O10W O 0.3950(7) 0.1412(6) 0.9253(4) 0.105(3) Uani 1 1 d . . .
O12 O 0.2461(4) 0.1031(4) 0.8055(3) 0.0484(17) Uani 1 1 d . . .
O11W O 0.5063(7) -0.0559(6) 1.0992(4) 0.111(3) Uani 1 1 d . . .
O13 O 0.3615(4) 0.2449(4) 0.7550(2) 0.0327(13) Uani 1 1 d . . .
O12W O 0.5520(8) 0.4320(7) 0.9219(5) 0.135(4) Uani 1 1 d . . .
O14 O 0.4370(4) 0.2607(4) 0.8642(2) 0.0455(16) Uani 1 1 d . . .
O13W O 0.5809(9) 0.5839(10) 0.8601(6) 0.184(6) Uani 1 1 d . . .
O15 O 0.1200(5) 0.1753(5) 0.2351(3) 0.067(2) Uani 1 1 d . . .
O14W O 0.1863(11) 0.0838(9) 0.9137(6) 0.172(6) Uani 1 1 d . . .
O16 O 0.5543(4) 0.4004(4) 0.4459(2) 0.0494(17) Uani 1 1 d . . .
O15W O 0.0000 0.0000 1.0000 0.200(3) Uani 1 2 d S . .
O17 O 0.2110(6) 0.0179(5) 0.4271(4) 0.082(3) Uani 1 1 d . . .
O16W O -0.2082(8) -0.3046(8) 0.9293(5) 0.149(5) Uani 1 1 d . . .
O18 O 0.1497(5) 0.3979(4) 0.4412(3) 0.0487(17) Uani 1 1 d . . .
O17W O 0.2525(8) -0.5464(8) 1.0122(5) 0.136(4) Uani 1 1 d . . .
O19 O 0.3893(5) 0.3720(5) 0.6642(2) 0.0559(18) Uani 1 1 d . . .
O18W O 0.3572(8) -0.0388(7) 0.4487(4) 0.118(3) Uani 1 1 d . . .
O20 O 0.4564(6) 0.2859(5) 0.6696(3) 0.072(2) Uani 1 1 d U . .
O19W O 0.7673(11) 0.5808(13) 0.3658(7) 0.226(9) Uani 1 1 d . . .
O21 O 0.7065(5) 1.0328(5) 0.3233(3) 0.071(2) Uani 1 1 d . . .
O20W O 0.5547(10) 1.0273(8) 0.4440(4) 0.146(4) Uani 1 1 d . . .
O22 O 0.7233(5) 0.9135(6) 0.3246(3) 0.071(2) Uani 1 1 d . . .
O21W O 0.2994(12) 0.7843(11) 0.4234(7) 0.200(3) Uani 1 1 d . . .
O23 O 0.2996(4) 0.6682(4) 0.2723(2) 0.0446(16) Uani 1 1 d . . .
O22W O 0.7505(7) 0.5072(8) 0.4549(5) 0.139(4) Uani 1 1 d . . .
O24 O 0.3685(5) 0.7488(5) 0.3502(3) 0.063(2) Uani 1 1 d . . .
O23W O 0.3295(12) -0.1918(11) 0.6878(7) 0.200(3) Uani 1 1 d . . .
O25 O 0.4949(5) 0.9930(4) 0.2926(3) 0.0582(19) Uani 1 1 d . . .
O26 O 0.3375(5) 0.8763(5) 0.2658(3) 0.0574(19) Uani 1 1 d . . .
O27 O 0.4970(4) 0.8134(3) 0.2674(2) 0.0303(13) Uani 1 1 d . . .
Co1 Co 0.12351(8) -0.33952(7) 0.87833(4) 0.0284(3) Uani 1 1 d . . .
Co2 Co 0.25804(7) 0.25439(7) 0.38569(4) 0.0287(3) Uani 1 1 d . . .
Zn1 Zn 0.41551(7) 0.36207(6) 0.73604(4) 0.0316(3) Uani 1 1 d . . .
Zn2 Zn 0.47203(6) 0.21738(6) 0.79810(4) 0.0297(2) Uani 1 1 d . . .
Zn3 Zn 0.28991(7) 0.2