
#######################################################################
#
#                 Cambridge Crystallographic Data Centre
#                                CCDC
#
#######################################################################
#
# If this CIF has been generated from an entry in the Cambridge
# Structural Database, then it will include bibliographic, chemical,
# crystal, experimental, refinement or atomic coordinate data resulting
# from the CCDC's data processing and validation procedures.
#
#######################################################################

data_CSD_CIF_BIPYGA10
_audit_creation_date 1972-07-27
_audit_creation_method CSD-ConQuest-V1
_database_code_CSD BIPYGA10
_database_code_depnum_ccdc_archive 'CCDC 1111454'
_chemical_formula_sum 'C20 H16 Cl6 Ga2 N4'
_chemical_formula_moiety
;
C20 H16 Cl2 Ga1 N4 1+,Cl4 Ga1 1-
;
_journal_coden_Cambridge 186
_journal_year 1972
_journal_page_first 341
_journal_name_full 'J.Chem.Soc.,Dalton Trans. '
loop_
_publ_author_name
"R.Restivo"
"G.J.Palenik"
_chemical_name_systematic
;
cis-Dichloro-bis(2,2'-bipyridyl)-gallium(iii) tetrachloro-gallium(iii)
;
_chemical_name_common
;
Teaching Subset: Fundamental Chemistry, Symmetry
;
_cell_volume   2519.472
_exptl_crystal_density_diffrn 1.752
_exptl_special_details
;
Ga1 x and y should be interchanged, i.e. : Ga1 0.75, 0.25, 0.236 and not Ga1 
0.25, 0.75, 0.236
;
_diffrn_ambient_temperature ?
_diffrn_special_details
;
The study was carried out at room temperature,in the range 283-303K

;
#These two values have been output from a single CSD field.
_refine_ls_R_factor_gt 0.052
_refine_ls_wR_factor_gt 0.052
_symmetry_cell_setting orthorhombic
_symmetry_space_group_name_H-M 'P c c n'
_symmetry_Int_Tables_number 56
loop_
_symmetry_equiv_pos_site_id
_symmetry_equiv_pos_as_xyz
1 x,y,z
2 1/2-x,1/2-y,z
3 1/2+x,-y,1/2-z
4 -x,1/2+y,1/2-z
5 -x,-y,-z
6 -1/2+x,-1/2+y,-z
7 -1/2-x,y,-1/2+z
8 x,-1/2-y,-1/2+z
_cell_length_a 14.900(2)
_cell_length_b 12.469(2)
_cell_length_c 13.561(2)
_cell_angle_alpha 90
_cell_angle_beta 90
_cell_angle_gamma 90
_cell_formula_units_Z 4
loop_
_atom_type_symbol
_atom_type_radius_bond
C 0.68
H 0.20
Cl 0.99
Ga 1.22
N 0.68
loop_
_atom_site_label
_atom_site_type_symbol
_atom_site_fract_x
_atom_site_fract_y
_atom_site_fract_z
Cl1 Cl 0.65630 0.17210 0.12560
C1 C 0.90190 0.12550 0.31280
C2 C 0.96520 0.04420 0.32110
C3 C 0.95250 -0.04970 0.26960
C4 C 0.87750 -0.06220 0.21180
C5 C 0.81760 0.02190 0.20440
C6 C 0.90700 0.22720 0.36750
C7 C 0.97400 0.25070 0.43540
C8 C 0.96720 0.34700 0.48660
C9 C 0.89870 0.41540 0.47020
C10 C 0.83580 0.38800 0.40090
Ga1 Ga 0.75000 0.25000 0.23600
H1 H 1.02800 0.05400 0.35800
H2 H 0.98900 -0.11600 0.28900
H3 H 0.85400 -0.13600 0.17700
H4 H 0.75600 0.01800 0.16600
H5 H 1.02600 0.20700 0.45700
H6 H 1.02200 0.36000 0.53000
H7 H 0.89500 0.50300 0.50900
H8 H 0.78600 0.44400 0.38500
N1 N 0.83020 0.11340 0.25380
N2 N 0.83830 0.29550 0.35030
Cl2 Cl 0.69300 0.62460 0.49820
Cl3 Cl 0.85230 0.67590 0.31610
Ga2 Ga 0.75000 0.75000 0.40640
Cl1A Cl 0.84370 0.32790 0.12560
N1A N 0.66980 0.38660 0.25380
N2A N 0.66170 0.20450 0.35030
C1A C 0.59810 0.37450 0.31280
C5A C 0.68240 0.47810 0.20440
C6A C 0.59300 0.27280 0.36750
C10A C 0.66420 0.11200 0.40090
C2A C 0.53480 0.45580 0.32110
C4A C 0.62250 0.56220 0.21180
H4A H 0.74400 0.48200 0.16600
C7A C 0.52600 0.24930 0.43540
C9A C 0.60130 0.08460 0.47020
H8A H 0.71400 0.05600 0.38500
C3A C 0.54750 0.54970 0.26960
H1A H 0.47200 0.44600 0.35800
H3A H 0.64600 0.63600 0.17700
C8A C 0.53280 0.15300 0.48660
H5A H 0.47400 0.29300 0.45700
H7A H 0.60500 -0.00300 0.50900
H2A H 0.51100 0.61600 0.28900
H6A H 0.47800 0.14000 0.53000
Cl2A Cl 0.80700 0.87540 0.49820
Cl3A Cl 0.64770 0.82410 0.31610
#END
