
#######################################################################
#
#                 Cambridge Crystallographic Data Centre
#                                CCDC
#
#######################################################################
#
# If this CIF has been generated from an entry in the Cambridge
# Structural Database, then it will include bibliographic, chemical,
# crystal, experimental, refinement or atomic coordinate data resulting
# from the CCDC's data processing and validation procedures.
#
#######################################################################

data_CSD_CIF_BITZAF
_audit_creation_date 1983-05-14
_audit_creation_method CSD-ConQuest-V1
_database_code_CSD BITZAF
_database_code_depnum_ccdc_archive 'CCDC 1111803'
_chemical_formula_sum 'C8 H11 N1 O3'
_chemical_formula_moiety
;
C8 H11 N1 O3
;
_journal_coeditor_code "IUCr A21555"
_journal_coden_Cambridge 107
_journal_volume 38
_journal_year 1982
_journal_page_first 2721
_journal_name_full 'Acta Crystallogr.,Sect.B:Struct.Crystallogr.Cryst.Chem. '
loop_
_publ_author_name
"J.Longo"
"K.J.Franklin"
"M.F.Richardson"
_chemical_name_systematic
;
5-Hydroxy-6-methyl-3,4-pyridinedimethanol
;
_chemical_name_common
;
Vitamin B!6$; Pyridoxine; Becilan; Beesix; Benadon; Bonasanit; Hexa-Betalin; 
Hexobion; Nestrex; DrugBank: DB00165; PDB Chemical Component code: UEG; 
Teaching Subset: Essential Nutrients
;
_cell_volume    812.538
_exptl_crystal_colour 'colorless'
_exptl_crystal_density_diffrn 1.38
_exptl_special_details
;
vitamin activity as part of the B6 group of vitamins

;
_diffrn_ambient_temperature ?
_diffrn_special_details
;
The study was carried out at room temperature,in the range 283-303K

;
#These two values have been output from a single CSD field.
_refine_ls_R_factor_gt 0.048
_refine_ls_wR_factor_gt 0.048
_symmetry_cell_setting orthorhombic
_symmetry_space_group_name_H-M 'P n 21 a'
_symmetry_Int_Tables_number 33
loop_
_symmetry_equiv_pos_site_id
_symmetry_equiv_pos_as_xyz
1 x,y,z
2 1/2-x,1/2+y,1/2+z
3 1/2+x,y,1/2-z
4 -x,1/2+y,-z
_cell_length_a 12.377(2)
_cell_length_b 4.652(1)
_cell_length_c 14.112(2)
_cell_angle_alpha 90
_cell_angle_beta 90
_cell_angle_gamma 90
_cell_formula_units_Z 4
loop_
_atom_type_symbol
_atom_type_radius_bond
C 0.68
H 0.23
N 0.68
O 0.68
loop_
_atom_site_label
_atom_site_type_symbol
_atom_site_fract_x
_atom_site_fract_y
_atom_site_fract_z
N1 N 0.30270 0.73970 0.53850
C1 C 0.23050 0.50070 0.70740
C2 C 0.31940 0.68270 0.70480
C3 C 0.35360 0.80130 0.61920
C4 C 0.21880 0.55750 0.53990
C5 C 0.18050 0.43290 0.62120
C6 C 0.18840 0.37650 0.79970
C7 C 0.08410 0.23010 0.61890
C8 C 0.44890 1.00240 0.61630
O1 O 0.37810 0.74970 0.78440
O2 O 0.21300 0.55480 0.87590
O3 O 0.04730 0.17790 0.52500
H1 H 0.33600 0.68400 0.83700
H2 H 0.21000 0.44000 0.93500
H3 H 0.00000 0.35000 0.52000
H4 H 0.10200 0.35300 0.79500
H5 H 0.22500 0.16900 0.81100
H6 H 0.10700 0.02800 0.65100
H7 H 0.01900 0.32500 0.65900
H8 H 0.18000 0.50600 0.47400
H9 H 0.48700 1.04800 0.68400
H10 H 0.43300 1.20200 0.58000
H11 H 0.50200 0.87000 0.57400
#END
