####################################################################### 
# 
# This file contains crystal structure data downloaded from the 
# Cambridge Structural Database (CSD) hosted by the Cambridge 
# Crystallographic Data Centre (CCDC).
# 
# Full information about CCDC data access policies and citation 
# guidelines are available at http://www.ccdc.cam.ac.uk/access/V1 
# 
# Audit and citation data items may have been added by the CCDC. 
# Please retain this information to preserve the provenance of 
# this file and to allow appropriate attribution of the data. 
# 
#######################################################################

data_sx346bb
_audit_block_doi                 10.5517/cc124qtr
_database_code_depnum_ccdc_archive 'CCDC 987654'
loop_
_citation_id
_citation_doi
_citation_year
1 10.1002/chem.201402255 2014
_audit_update_record             
;
2014-02-18 deposited with the CCDC.	2024-07-08 downloaded from the CCDC.
;

_audit_creation_method           SHELXL-97
_chemical_name_systematic        
; 
 ? 
;
_chemical_name_common            ?
_chemical_melting_point          ?
_chemical_formula_moiety         ?
_chemical_formula_sum            'C129 H96 F27 N24 O51 S9 Tb3'
_chemical_formula_weight         4076.60

loop_
_atom_type_symbol
_atom_type_description
_atom_type_scat_dispersion_real
_atom_type_scat_dispersion_imag
_atom_type_scat_source
C C 0.0033 0.0016 'International Tables Vol C Tables 4.2.6.8 and 6.1.1.4'
H H 0.0000 0.0000 'International Tables Vol C Tables 4.2.6.8 and 6.1.1.4'
N N 0.0061 0.0033 'International Tables Vol C Tables 4.2.6.8 and 6.1.1.4'
O O 0.0106 0.0060 'International Tables Vol C Tables 4.2.6.8 and 6.1.1.4'
F F 0.0171 0.0103 'International Tables Vol C Tables 4.2.6.8 and 6.1.1.4'
S S 0.1246 0.1234 'International Tables Vol C Tables 4.2.6.8 and 6.1.1.4'
Tb Tb -0.1723 4.1537 'International Tables Vol C Tables 4.2.6.8 and 6.1.1.4'

_symmetry_cell_setting           Triclinic
_symmetry_space_group_name_H-M   P-1

loop_
_symmetry_equiv_pos_as_xyz
'x, y, z'
'-x, -y, -z'

_cell_length_a                   24.0921(6)
_cell_length_b                   24.1914(6)
_cell_length_c                   24.3992(6)
_cell_angle_alpha                85.807(2)
_cell_angle_beta                 61.404(3)
_cell_angle_gamma                61.029(3)
_cell_volume                     10687.6(5)
_cell_formula_units_Z            2
_cell_measurement_temperature    120(2)
_cell_measurement_reflns_used    55096
_cell_measurement_theta_min      2.9041
_cell_measurement_theta_max      36.3008

_exptl_crystal_description       block
_exptl_crystal_colour            colorless
_exptl_crystal_size_max          0.31
_exptl_crystal_size_mid          0.15
_exptl_crystal_size_min          0.09
_exptl_crystal_density_meas      ?
_exptl_crystal_density_diffrn    1.267
_exptl_crystal_density_method    'not measured'
_exptl_crystal_F_000             4056
_exptl_absorpt_coefficient_mu    1.161
_exptl_absorpt_correction_T_min  0.50379
_exptl_absorpt_correction_T_max  1.00000
_exptl_absorpt_correction_type   multi-scan
_exptl_absorpt_process_details   
;
CrysAlisPro, Agilent Technologies,
Version 1.171.35.19 (release 27-10-2011 CrysAlis171 .NET)
(compiled Oct 27 2011,15:02:11)
Empirical absorption correction using spherical harmonics,
 implemented in SCALE3 ABSPACK scaling algorithm.
;

_exptl_special_details           
; 
 ? 
;

_diffrn_ambient_temperature      120(2)
_diffrn_radiation_wavelength     0.71073
_diffrn_radiation_type           MoK\a
_diffrn_radiation_source         'SuperNova (Mo) X-ray Source'
_diffrn_radiation_monochromator  mirror
_diffrn_measurement_device_type  
'SuperNova, Single source at offset), Sapphire3'
_diffrn_measurement_method       '\w scans'
_diffrn_detector_area_resol_mean 16.0267
__diffrn_standards_number        ?
_diffrn_standards_interval_count ?
_diffrn_standards_interval_time  ?
_diffrn_standards_decay_%        ?
_diffrn_reflns_number            623825
_diffrn_reflns_av_R_equivalents  0.1414
_diffrn_reflns_av_sigmaI/netI    0.1049
_diffrn_reflns_limit_h_min       -40
_diffrn_reflns_limit_h_max       40
_diffrn_reflns_limit_k_min       -40
_diffrn_reflns_limit_k_max       40
_diffrn_reflns_limit_l_min       -40
_diffrn_reflns_limit_l_max       40
_diffrn_reflns_theta_min         2.91
_diffrn_reflns_theta_max         36.39
_reflns_number_total             103637
_reflns_number_gt                61070
_reflns_threshold_expression     >2sigma(I)

_computing_data_collection       
;
CrysAlisPro, Agilent Technologies,
Version 1.171.35.19 (release 27-10-2011 CrysAlis171 .NET)
(compiled Oct 27 2011,15:02:11)
;
_computing_cell_refinement       
;
CrysAlisPro, Agilent Technologies,
Version 1.171.35.19 (release 27-10-2011 CrysAlis171 .NET)
(compiled Oct 27 2011,15:02:11)
;
_computing_data_reduction        
;
CrysAlisPro, Agilent Technologies,
Version 1.171.35.19 (release 27-10-2011 CrysAlis171 .NET)
(compiled Oct 27 2011,15:02:11)
;
_computing_structure_solution    'SHELXS-97 (Sheldrick, 1990)'
_computing_structure_refinement  'SHELXL-97 (Sheldrick, 1997)'
_computing_molecular_graphics    ?
_computing_publication_material  ?

_refine_special_details          
; 
 Refinement of F^2^ against ALL reflections.  The weighted R-factor wR and 
 goodness of fit S are based on F^2^, conventional R-factors R are based 
 on F, with F set to zero for negative F^2^. The threshold expression of 
 F^2^ > 2sigma(F^2^) is used only for calculating R-factors(gt) etc. and is 
 not relevant to the choice of reflections for refinement.  R-factors based 
 on F^2^ are statistically about twice as large as those based on F, and R- 
 factors based on ALL data will be even larger. 
;

_refine_ls_structure_factor_coef Fsqd
_refine_ls_matrix_type           full
_refine_ls_weighting_scheme      calc
_refine_ls_weighting_details     
'calc w=1/[\s^2^(Fo^2^)+(0.1809P)^2^+91.6489P] where P=(Fo^2^+2Fc^2^)/3'
_atom_sites_solution_primary     direct
_atom_sites_solution_secondary   difmap
_atom_sites_solution_hydrogens   geom
_refine_ls_hydrogen_treatment    mixed
_refine_ls_extinction_method     none
_refine_ls_extinction_coef       ?
_refine_ls_number_reflns         103637
_refine_ls_number_parameters     1808
_refine_ls_number_restraints     133
_refine_ls_R_factor_all          0.1792
_refine_ls_R_factor_gt           0.1161
_refine_ls_wR_factor_ref         0.3750
_refine_ls_wR_factor_gt          0.3208
_refine_ls_goodness_of_fit_ref   1.053
_refine_ls_restrained_S_all      1.053
_refine_ls_shift/su_max          0.007
_refine_ls_shift/su_mean         0.000

loop_
_atom_site_label
_atom_site_type_symbol
_atom_site_fract_x
_atom_site_fract_y
_atom_site_fract_z
_atom_site_U_iso_or_equiv
_atom_site_adp_type
_atom_site_occupancy
_atom_site_symmetry_multiplicity
_atom_site_calc_flag
_atom_site_refinement_flags
_atom_site_disorder_assembly
_atom_site_disorder_group
Tb1 Tb 0.364666(16) 0.844846(14) 0.197401(14) 0.02098(6) Uani 1 1 d . . .
Tb2 Tb -0.147323(16) 0.713945(14) 0.354270(14) 0.02151(6) Uani 1 1 d . . .
Tb3 Tb -0.256927(17) 1.281408(14) 0.241744(14) 0.02296(6) Uani 1 1 d . . .
N1 N 0.2157(3) 0.8443(3) 0.2250(3) 0.0293(11) Uani 1 1 d . . .
O1 O 0.2555(3) 0.8721(3) 0.2005(3) 0.0336(11) Uani 1 1 d . . .
C1 C 0.2349(4) 0.7904(4) 0.1909(4) 0.0360(15) Uani 1 1 d . . .
H1 H 0.2772 0.7724 0.1493 0.043 Uiso 1 1 calc R . .
C2 C 0.1935(5) 0.7610(4) 0.2160(4) 0.0370(15) Uani 1 1 d . . .
H2 H 0.2073 0.7232 0.1913 0.044 Uiso 1 1 calc R . .
C3 C 0.1314(4) 0.7864(4) 0.2774(4) 0.0316(13) Uani 1 1 d . . .
C4 C 0.1134(5) 0.8425(4) 0.3116(4) 0.0386(16) Uani 1 1 d . . .
H4 H 0.0717 0.8612 0.3534 0.046 Uiso 1 1 calc R . .
C5 C 0.1559(4) 0.8705(4) 0.2848(4) 0.0362(15) Uani 1 1 d . . .
H5 H 0.1433 0.9084 0.3084 0.043 Uiso 1 1 calc R . .
O6 O -0.0540(3) 0.6852(3) 0.3798(3) 0.0303(10) Uani 1 1 d . . .
N6 N -0.0080(4) 0.7075(3) 0.3566(3) 0.0315(12) Uani 1 1 d . . .
C6 C 0.0586(5) 0.6734(4) 0.3032(5) 0.0405(17) Uani 1 1 d . . .
H6 H 0.0733 0.6327 0.2831 0.049 Uiso 1 1 calc R . .
C7 C 0.1054(5) 0.6974(4) 0.2779(5) 0.0428(18) Uani 1 1 d . . .
H7 H 0.1526 0.6726 0.2409 0.051 Uiso 1 1 calc R . .
C8 C 0.0842(4) 0.7574(4) 0.3059(4) 0.0316(13) Uani 1 1 d . . .
C9 C 0.0163(5) 0.7900(5) 0.3610(4) 0.0410(18) Uani 1 1 d . . .
H9 H 0.0012 0.8305 0.3818 0.049 Uiso 1 1 calc R . .
C10 C -0.0299(5) 0.7662(5) 0.3868(4) 0.0416(17) Uani 1 1 d . . .
H10 H -0.0763 0.7898 0.4248 0.050 Uiso 1 1 calc R . .
O11 O 0.2969(3) 0.9608(2) 0.2208(3) 0.0299(9) Uani 1 1 d . . .
N11 N 0.2316(3) 0.9990(3) 0.2243(3) 0.0283(10) Uani 1 1 d . . .
C11 C 0.2297(4) 1.0186(4) 0.1723(4) 0.0331(13) Uani 1 1 d . . .
H11 H 0.2742 1.0082 0.1340 0.040 Uiso 1 1 calc R . .
C12 C 0.1632(4) 1.0541(4) 0.1740(4) 0.0358(15) Uani 1 1 d . . .
H12 H 0.1623 1.0673 0.1367 0.043 Uiso 1 1 calc R . .
C13 C 0.0974(4) 1.0705(3) 0.2305(3) 0.0309(12) Uani 1 1 d . . .
C14 C 0.1011(4) 1.0525(4) 0.2849(4) 0.0333(14) Uani 1 1 d . . .
H14 H 0.0572 1.0656 0.3249 0.040 Uiso 1 1 calc R . .
C15 C 0.1693(4) 1.0154(3) 0.2805(4) 0.0304(12) Uani 1 1 d . . .
H15 H 0.1721 1.0016 0.3171 0.036 Uiso 1 1 calc R . .
O16 O -0.1787(3) 1.1811(2) 0.2554(3) 0.0303(9) Uani 1 1 d . . .
N16 N -0.1119(3) 1.1583(3) 0.2473(3) 0.0296(11) Uani 1 1 d . . .
C16 C -0.0514(5) 1.1164(4) 0.1932(4) 0.0399(17) Uani 1 1 d . . .
H16 H -0.0564 1.1057 0.1598 0.048 Uiso 1 1 calc R . .
C17 C 0.0171(5) 1.0891(4) 0.1856(4) 0.0420(18) Uani 1 1 d . . .
H17 H 0.0590 1.0594 0.1473 0.050 Uiso 1 1 calc R . .
C18 C 0.0261(4) 1.1043(3) 0.2332(4) 0.0307(13) Uani 1 1 d . . .
C19 C -0.0376(4) 1.1506(4) 0.2881(4) 0.0323(13) Uani 1 1 d . . .
H19 H -0.0334 1.1636 0.3210 0.039 Uiso 1 1 calc R . .
C20 C -0.1065(4) 1.1772(4) 0.2942(4) 0.0314(13) Uani 1 1 d . . .
H20 H -0.1494 1.2084 0.3312 0.038 Uiso 1 1 calc R . .
O21 O 0.3855(3) 0.8688(3) 0.0954(2) 0.0320(10) Uani 1 1 d . . .
N21 N 0.3704(4) 0.8479(3) 0.0581(3) 0.0301(11) Uani 1 1 d . . .
C21 C 0.2990(5) 0.8801(4) 0.0706(4) 0.0364(15) Uani 1 1 d . . .
H21 H 0.2621 0.9166 0.1047 0.044 Uiso 1 1 calc R . .
C22 C 0.2812(5) 0.8593(4) 0.0337(4) 0.0404(17) Uani 1 1 d . . .
H22 H 0.2323 0.8827 0.0415 0.049 Uiso 1 1 calc R . .
C23 C 0.3345(4) 0.8041(4) -0.0152(4) 0.0310(13) Uani 1 1 d . . .
C24 C 0.4053(5) 0.7744(5) -0.0262(4) 0.0423(19) Uani 1 1 d . . .
H24 H 0.4433 0.7381 -0.0603 0.051 Uiso 1 1 calc R . .
C25 C 0.4230(4) 0.7959(4) 0.0110(4) 0.0384(16) Uani 1 1 d . . .
H25 H 0.4720 0.7738 0.0030 0.046 Uiso 1 1 calc R . .
N26 N 0.2661(3) 0.7361(3) -0.1128(3) 0.0287(10) Uani 1 1 d . . .
C26 C 0.2218(5) 0.7970(4) -0.0778(4) 0.0374(16) Uani 1 1 d . . .
H26 H 0.1752 0.8240 -0.0744 0.045 Uiso 1 1 calc R . .
O26 O 0.2417(3) 0.7146(3) -0.1395(2) 0.0307(10) Uani 1 1 d . . .
C27 C 0.2445(4) 0.8199(4) -0.0468(4) 0.0378(16) Uani 1 1 d . . .
H27 H 0.2133 0.8628 -0.0223 0.045 Uiso 1 1 calc R . .
C28 C 0.3128(4) 0.7805(4) -0.0513(3) 0.0314(13) Uani 1 1 d . . .
C29 C 0.3578(5) 0.7191(4) -0.0899(4) 0.0400(17) Uani 1 1 d . . .
H29 H 0.4056 0.6920 -0.0957 0.048 Uiso 1 1 calc R . .
C30 C 0.3336(5) 0.6969(4) -0.1201(4) 0.0379(16) Uani 1 1 d . . .
H30 H 0.3643 0.6546 -0.1456 0.045 Uiso 1 1 calc R . .
O31 O 0.4544(3) 0.8741(3) 0.1613(2) 0.0294(9) Uani 1 1 d . . .
N31 N 0.4668(3) 0.9089(3) 0.1173(3) 0.0300(11) Uani 1 1 d . . .
C31 C 0.4275(5) 0.9736(4) 0.1343(3) 0.0356(15) Uani 1 1 d . . .
H31 H 0.3912 0.9941 0.1777 0.043 Uiso 1 1 calc R . .
C32 C 0.4396(6) 1.0110(4) 0.0884(4) 0.0442(19) Uani 1 1 d . . .
H32 H 0.4118 1.0567 0.1006 0.053 Uiso 1 1 calc R . .
C33 C 0.4925(4) 0.9810(4) 0.0247(4) 0.0344(14) Uani 1 1 d . . .
C34 C 0.5322(6) 0.9139(5) 0.0098(4) 0.052(2) Uani 1 1 d . . .
H34 H 0.5693 0.8920 -0.0331 0.063 Uiso 1 1 calc R . .
C35 C 0.5185(5) 0.8782(4) 0.0569(4) 0.045(2) Uani 1 1 d . . .
H35 H 0.5458 0.8324 0.0460 0.054 Uiso 1 1 calc R . .
O41 O 0.4053(3) 0.7497(2) 0.1304(2) 0.0285(9) Uani 1 1 d . . .
N41 N 0.4491(3) 0.6907(3) 0.1343(3) 0.0286(11) Uani 1 1 d . . .
C41 C 0.4192(4) 0.6599(4) 0.1764(4) 0.0351(14) Uani 1 1 d . . .
H41 H 0.3675 0.6774 0.1988 0.042 Uiso 1 1 calc R . .
C42 C 0.4642(4) 0.6033(3) 0.1864(4) 0.0350(14) Uani 1 1 d . . .
H42 H 0.4430 0.5820 0.2164 0.042 Uiso 1 1 calc R . .
C43 C 0.5405(4) 0.5761(3) 0.1535(3) 0.0326(13) Uani 1 1 d . . .
C44 C 0.5700(4) 0.6064(3) 0.1061(4) 0.0339(14) Uani 1 1 d . . .
H44 H 0.6218 0.5874 0.0796 0.041 Uiso 1 1 calc R . .
C45 C 0.5226(4) 0.6641(3) 0.0984(4) 0.0331(13) Uani 1 1 d . . .
H45 H 0.5422 0.6853 0.0671 0.040 Uiso 1 1 calc R . .
O46 O 0.7268(3) 0.3844(2) 0.2246(3) 0.0330(10) Uani 1 1 d . . .
N46 N 0.6811(4) 0.4274(3) 0.2078(3) 0.0311(11) Uani 1 1 d . . .
C46 C 0.7048(5) 0.4281(3) 0.1451(4) 0.0349(15) Uani 1 1 d . . .
H46 H 0.7533 0.3963 0.1138 0.042 Uiso 1 1 calc R . .
C47 C 0.6585(5) 0.4748(4) 0.1263(4) 0.0393(17) Uani 1 1 d . . .
H47 H 0.6756 0.4745 0.0822 0.047 Uiso 1 1 calc R . .
C48 C 0.5879(4) 0.5215(3) 0.1710(4) 0.0328(13) Uani 1 1 d . . .
C49 C 0.5660(5) 0.5190(4) 0.2348(4) 0.0407(17) Uani 1 1 d . . .
H49 H 0.5178 0.5504 0.2670 0.049 Uiso 1 1 calc R . .
C50 C 0.6127(5) 0.4718(4) 0.2522(4) 0.0386(16) Uani 1 1 d . . .
H50 H 0.5963 0.4707 0.2960 0.046 Uiso 1 1 calc R . .
O51 O -0.1162(3) 0.6107(2) 0.3781(2) 0.0275(9) Uani 1 1 d . . .
N51 N -0.0845(3) 0.5820(3) 0.4120(3) 0.0277(10) Uani 1 1 d . . .
C51 C -0.0112(5) 0.5421(5) 0.3819(4) 0.046(2) Uani 1 1 d . . .
H51 H 0.0175 0.5367 0.3371 0.055 Uiso 1 1 calc R . .
C52 C 0.0225(5) 0.5093(5) 0.4151(4) 0.051(2) Uani 1 1 d . . .
H52 H 0.0743 0.4805 0.3928 0.061 Uiso 1 1 calc R . .
C53 C -0.0180(4) 0.5173(4) 0.4813(4) 0.0322(13) Uani 1 1 d . . .
C54 C -0.0920(4) 0.5611(4) 0.5107(4) 0.0432(19) Uani 1 1 d . . .
H54 H -0.1208 0.5700 0.5560 0.052 Uiso 1 1 calc R . .
C55 C -0.1261(5) 0.5930(4) 0.4760(4) 0.0412(17) Uani 1 1 d . . .
H55 H -0.1778 0.6221 0.4971 0.049 Uiso 1 1 calc R . .
O61 O -0.2178(3) 0.7334(2) 0.4693(2) 0.0318(10) Uani 1 1 d . . .
N61 N -0.2358(4) 0.7825(3) 0.5079(3) 0.0307(11) Uani 1 1 d . . .
C61 C -0.1872(4) 0.7785(4) 0.5234(3) 0.0319(13) Uani 1 1 d . . .
H61 H -0.1417 0.7391 0.5095 0.038 Uiso 1 1 calc R . .
C62 C -0.2036(4) 0.8316(4) 0.5595(3) 0.0346(15) Uani 1 1 d . . .
H62 H -0.1685 0.8291 0.5688 0.042 Uiso 1 1 calc R . .
C63 C -0.2712(5) 0.8884(4) 0.5820(4) 0.0354(14) Uani 1 1 d . . .
C64 C -0.3213(5) 0.8891(4) 0.5689(4) 0.0386(16) Uani 1 1 d . . .
H64 H -0.3687 0.9268 0.5855 0.046 Uiso 1 1 calc R . .
C65 C -0.3042(5) 0.8364(4) 0.5323(4) 0.0361(15) Uani 1 1 d . . .
H65 H -0.3395 0.8376 0.5241 0.043 Uiso 1 1 calc R . .
O66 O -0.3426(3) 1.1200(3) 0.7021(3) 0.0353(11) Uani 1 1 d . . .
N66 N -0.3245(4) 1.0634(3) 0.6754(3) 0.0329(12) Uani 1 1 d . . .
C66 C -0.3753(5) 1.0453(4) 0.6986(4) 0.0359(15) Uani 1 1 d . . .
H66 H -0.4227 1.0720 0.7346 0.043 Uiso 1 1 calc R . .
C67 C -0.3578(5) 0.9871(4) 0.6693(4) 0.0401(17) Uani 1 1 d . . .
H67 H -0.3931 0.9740 0.6858 0.048 Uiso 1 1 calc R . .
C68 C -0.2896(5) 0.9490(4) 0.6167(4) 0.0358(15) Uani 1 1 d . . .
C69 C -0.2381(5) 0.9678(4) 0.5953(4) 0.0423(18) Uani 1 1 d . . .
H69 H -0.1899 0.9411 0.5602 0.051 Uiso 1 1 calc R . .
C70 C -0.2570(5) 1.0259(4) 0.6251(4) 0.0413(17) Uani 1 1 d . . .
H70 H -0.2219 1.0392 0.6098 0.050 Uiso 1 1 calc R . .
O71 O -0.2059(3) 0.7911(3) 0.3044(3) 0.0325(11) Uani 1 1 d . . .
N71 N -0.2506(4) 0.7917(3) 0.2871(3) 0.0333(13) Uani 1 1 d . . .
C71 C -0.3242(5) 0.8257(4) 0.3278(5) 0.0396(17) Uani 1 1 d . . .
H71 H -0.3437 0.8508 0.3675 0.048 Uiso 1 1 calc R . .
C72 C -0.3711(5) 0.8239(4) 0.3117(4) 0.0405(17) Uani 1 1 d . . .
H72 H -0.4227 0.8479 0.3408 0.049 Uiso 1 1 calc R . .
C73 C -0.3443(4) 0.7875(4) 0.2536(4) 0.0325(13) Uani 1 1 d . . .
C74 C -0.2680(4) 0.7555(4) 0.2116(4) 0.0355(15) Uani 1 1 d . . .
H74 H -0.2477 0.7320 0.1708 0.043 Uiso 1 1 calc R . .
C75 C -0.2215(4) 0.7576(4) 0.2286(4) 0.0322(13) Uani 1 1 d . . .
H75 H -0.1699 0.7355 0.1996 0.039 Uiso 1 1 calc R . .
N76 N -0.4881(3) 0.7676(3) 0.2146(3) 0.0319(12) Uani 1 1 d . . .
C76 C -0.4231(4) 0.7563(4) 0.1660(4) 0.0365(15) Uani 1 1 d . . .
H76 H -0.4103 0.7444 0.1236 0.044 Uiso 1 1 calc R . .
O76 O -0.5335(3) 0.7606(2) 0.2034(3) 0.0301(10) Uani 1 1 d . . .
C77 C -0.3739(4) 0.7619(4) 0.1763(4) 0.0377(16) Uani 1 1 d . . .
H77 H -0.3274 0.7526 0.1414 0.045 Uiso 1 1 calc R . .
C78 C -0.3933(4) 0.7812(4) 0.2388(4) 0.0348(15) Uani 1 1 d . . .
C79 C -0.4619(5) 0.7946(4) 0.2882(4) 0.0397(17) Uani 1 1 d . . .
H79 H -0.4772 0.8100 0.3306 0.048 Uiso 1 1 calc R . .
C80 C -0.5095(5) 0.7858(4) 0.2765(4) 0.0381(16) Uani 1 1 d . . .
H80 H -0.5552 0.7924 0.3107 0.046 Uiso 1 1 calc R . .
O81 O -0.1753(3) 0.8164(2) 0.3934(2) 0.0286(9) Uani 1 1 d . . .
N81 N -0.1910(4) 0.8692(3) 0.3693(3) 0.0285(11) Uani 1 1 d . . .
C81 C -0.1358(4) 0.8760(3) 0.3216(4) 0.0315(13) Uani 1 1 d . . .
H81 H -0.0860 0.8430 0.3064 0.038 Uiso 1 1 calc R . .
C82 C -0.1506(4) 0.9295(3) 0.2954(4) 0.0308(13) Uani 1 1 d . . .
H82 H -0.1109 0.9334 0.2627 0.037 Uiso 1 1 calc R . .
C83 C -0.2223(5) 0.9782(4) 0.3155(4) 0.0343(14) Uani 1 1 d . . .
C84 C -0.2791(5) 0.9703(4) 0.3659(5) 0.0418(18) Uani 1 1 d . . .
H84 H -0.3293 1.0031 0.3827 0.050 Uiso 1 1 calc R . .
C85 C -0.2612(4) 0.9149(4) 0.3901(4) 0.0375(16) Uani 1 1 d . . .
H85 H -0.2995 0.9091 0.4223 0.045 Uiso 1 1 calc R . .
O86 O -0.2825(3) 1.2040(2) 0.2204(3) 0.0320(10) Uani 1 1 d . . .
N86 N -0.2697(4) 1.1498(3) 0.2420(3) 0.0300(11) Uani 1 1 d . . .
C86 C -0.3198(4) 1.1507(4) 0.3007(4) 0.0325(13) Uani 1 1 d . . .
H86 H -0.3649 1.1899 0.3256 0.039 Uiso 1 1 calc R . .
C87 C -0.3055(5) 1.0948(4) 0.3242(4) 0.0362(15) Uani 1 1 d . . .
H87 H -0.3413 1.0960 0.3653 0.043 Uiso 1 1 calc R . .
C88 C -0.2399(4) 1.0366(4) 0.2891(4) 0.0326(13) Uani 1 1 d . . .
C89 C -0.1910(5) 1.0371(4) 0.2285(4) 0.0377(15) Uani 1 1 d . . .
H89 H -0.1464 0.9981 0.2023 0.045 Uiso 1 1 calc R . .
C90 C -0.2063(5) 1.0939(4) 0.2055(4) 0.0368(15) Uani 1 1 d . . .
H90 H -0.1720 1.0934 0.1639 0.044 Uiso 1 1 calc R . .
O91 O -0.2515(3) 0.7088(3) 0.3796(3) 0.0323(10) Uani 1 1 d . . .
N91 N -0.2956(4) 0.6976(3) 0.4315(3) 0.0337(12) Uani 1 1 d . . .
C91 C -0.3618(5) 0.7495(5) 0.4751(4) 0.0405(17) Uani 1 1 d . . .
H91 H -0.3742 0.7921 0.4683 0.049 Uiso 1 1 calc R . .
C