####################################################################### 
# 
# This file contains crystal structure data downloaded from the 
# Cambridge Structural Database (CSD) hosted by the Cambridge 
# Crystallographic Data Centre (CCDC).
# 
# Full information about CCDC data access policies and citation 
# guidelines are available at http://www.ccdc.cam.ac.uk/access/V1 
# 
# Audit and citation data items may have been added by the CCDC. 
# Please retain this information to preserve the provenance of 
# this file and to allow appropriate attribution of the data. 
# 
#######################################################################

data_sx333bb
_audit_block_doi                 10.5517/cc124qvs
_database_code_depnum_ccdc_archive 'CCDC 987655'
loop_
_citation_id
_citation_doi
_citation_year
1 10.1002/chem.201402255 2014
_audit_update_record             
;
2014-02-18 deposited with the CCDC.	2024-07-08 downloaded from the CCDC.
;

_audit_creation_method           SHELXL-97
_chemical_name_systematic        
;
 ?
;
_chemical_name_common            ?
_chemical_melting_point          ?
_chemical_formula_moiety         ?
_chemical_formula_sum            'C129 H96 Dy3 F27 N24 O51 S9'
_chemical_formula_weight         4087.34

loop_
_atom_type_symbol
_atom_type_description
_atom_type_scat_dispersion_real
_atom_type_scat_dispersion_imag
_atom_type_scat_source
C C 0.0033 0.0016 'International Tables Vol C Tables 4.2.6.8 and 6.1.1.4'
H H 0.0000 0.0000 'International Tables Vol C Tables 4.2.6.8 and 6.1.1.4'
N N 0.0061 0.0033 'International Tables Vol C Tables 4.2.6.8 and 6.1.1.4'
O O 0.0106 0.0060 'International Tables Vol C Tables 4.2.6.8 and 6.1.1.4'
F F 0.0171 0.0103 'International Tables Vol C Tables 4.2.6.8 and 6.1.1.4'
S S 0.1246 0.1234 'International Tables Vol C Tables 4.2.6.8 and 6.1.1.4'
Dy Dy -0.1892 4.4098 'International Tables Vol C Tables 4.2.6.8 and 6.1.1.4'

_symmetry_cell_setting           Triclinic
_symmetry_space_group_name_H-M   P-1

loop_
_symmetry_equiv_pos_as_xyz
'x, y, z'
'-x, -y, -z'

_cell_length_a                   24.024(3)
_cell_length_b                   24.1876(19)
_cell_length_c                   24.399(3)
_cell_angle_alpha                84.067(8)
_cell_angle_beta                 61.943(12)
_cell_angle_gamma                61.651(10)
_cell_volume                     10879(2)
_cell_formula_units_Z            2
_cell_measurement_temperature    120(2)
_cell_measurement_reflns_used    2189
_cell_measurement_theta_min      2.8961
_cell_measurement_theta_max      25.0021

_exptl_crystal_description       block
_exptl_crystal_colour            colorless
_exptl_crystal_size_max          0.10
_exptl_crystal_size_mid          0.08
_exptl_crystal_size_min          0.05
_exptl_crystal_density_meas      ?
_exptl_crystal_density_diffrn    1.248
_exptl_crystal_density_method    'not measured'
_exptl_crystal_F_000             4062
_exptl_absorpt_coefficient_mu    1.196
_exptl_absorpt_correction_T_min  0.80420
_exptl_absorpt_correction_T_max  1.00000
_exptl_absorpt_correction_type   multi-scan
_exptl_absorpt_process_details   
;
CrysAlisPro, Agilent Technologies,
Version 1.171.35.19 (release 27-10-2011 CrysAlis171 .NET)
(compiled Oct 27 2011,15:02:11)
Empirical absorption correction using spherical harmonics,
 implemented in SCALE3 ABSPACK scaling algorithm.
;

_exptl_special_details           
;
 ?
;

_diffrn_ambient_temperature      120(2)
_diffrn_radiation_wavelength     0.71073
_diffrn_radiation_type           MoK\a
_diffrn_radiation_source         'SuperNova (Mo) X-ray Source'
_diffrn_radiation_monochromator  mirror
_diffrn_measurement_device_type  
'SuperNova, Single source at offset), Sapphire3'
_diffrn_measurement_method       '\w scans'
_diffrn_detector_area_resol_mean 16.0267
_diffrn_standards_number         ?
_diffrn_standards_interval_count ?
_diffrn_standards_interval_time  ?
_diffrn_standards_decay_%        ?
_diffrn_reflns_number            87712
_diffrn_reflns_av_R_equivalents  0.2446
_diffrn_reflns_av_sigmaI/netI    0.5060
_diffrn_reflns_limit_h_min       -27
_diffrn_reflns_limit_h_max       28
_diffrn_reflns_limit_k_min       -28
_diffrn_reflns_limit_k_max       28
_diffrn_reflns_limit_l_min       -29
_diffrn_reflns_limit_l_max       28
_diffrn_reflns_theta_min         2.90
_diffrn_reflns_theta_max         25.06
_reflns_number_total             38358
_reflns_number_gt                11294
_reflns_threshold_expression     >2sigma(I)

_computing_data_collection       
;
CrysAlisPro, Agilent Technologies,
Version 1.171.35.19 (release 27-10-2011 CrysAlis171 .NET)
(compiled Oct 27 2011,15:02:11)
;
_computing_cell_refinement       
;
CrysAlisPro, Agilent Technologies,
Version 1.171.35.19 (release 27-10-2011 CrysAlis171 .NET)
(compiled Oct 27 2011,15:02:11)
;
_computing_data_reduction        
;
CrysAlisPro, Agilent Technologies,
Version 1.171.35.19 (release 27-10-2011 CrysAlis171 .NET)
(compiled Oct 27 2011,15:02:11)
;
_computing_structure_solution    'SHELXS-97 (Sheldrick, 1990)'
_computing_structure_refinement  'SHELXL-97 (Sheldrick, 1997)'
_computing_molecular_graphics    'Bruker SHELXTL'
_computing_publication_material  'Bruker SHELXTL'

_refine_special_details          
;
 Refinement of F^2^ against ALL reflections.  The weighted R-factor wR and
 goodness of fit S are based on F^2^, conventional R-factors R are based
 on F, with F set to zero for negative F^2^. The threshold expression of
 F^2^ > 2sigma(F^2^) is used only for calculating R-factors(gt) etc. and is
 not relevant to the choice of reflections for refinement.  R-factors based
 on F^2^ are statistically about twice as large as those based on F, and R-
 factors based on ALL data will be even larger.
;

_refine_ls_structure_factor_coef Fsqd
_refine_ls_matrix_type           full
_refine_ls_weighting_scheme      calc
_refine_ls_weighting_details     
'calc w=1/[\s^2^(Fo^2^)+(0.2000P)^2^+0.0000P] where P=(Fo^2^+2Fc^2^)/3'
_atom_sites_solution_primary     direct
_atom_sites_solution_secondary   difmap
_atom_sites_solution_hydrogens   geom
_refine_ls_hydrogen_treatment    mixed
_refine_ls_extinction_method     none
_refine_ls_extinction_coef       ?
_refine_ls_number_reflns         38358
_refine_ls_number_parameters     937
_refine_ls_number_restraints     114
_refine_ls_R_factor_all          0.3817
_refine_ls_R_factor_gt           0.1834
_refine_ls_wR_factor_ref         0.5320
_refine_ls_wR_factor_gt          0.4268
_refine_ls_goodness_of_fit_ref   1.127
_refine_ls_restrained_S_all      1.126
_refine_ls_shift/su_max          0.059
_refine_ls_shift/su_mean         0.002

loop_
_atom_site_label
_atom_site_type_symbol
_atom_site_fract_x
_atom_site_fract_y
_atom_site_fract_z
_atom_site_U_iso_or_equiv
_atom_site_adp_type
_atom_site_occupancy
_atom_site_symmetry_multiplicity
_atom_site_calc_flag
_atom_site_refinement_flags
_atom_site_disorder_assembly
_atom_site_disorder_group
Dy1 Dy 0.35131(7) 0.85629(6) 0.20968(7) 0.0331(4) Uani 1 1 d . . .
Dy2 Dy -0.15484(8) 0.71722(6) 0.36043(7) 0.0342(4) Uani 1 1 d . . .
Dy3 Dy -0.25722(8) 1.27976(6) 0.23153(7) 0.0348(4) Uani 1 1 d . . .
N1 N 0.2065(12) 0.8503(10) 0.2393(11) 0.037(6) Uiso 1 1 d . . .
O1 O 0.2453(9) 0.8800(8) 0.2105(8) 0.034(5) Uiso 1 1 d . . .
C1 C 0.2240(16) 0.7966(13) 0.2063(14) 0.042(8) Uiso 1 1 d . . .
H1 H 0.2648 0.7796 0.1656 0.050 Uiso 1 1 calc R . .
C2 C 0.1827(16) 0.7681(14) 0.2324(14) 0.046(8) Uiso 1 1 d . . .
H2 H 0.1971 0.7305 0.2087 0.055 Uiso 1 1 calc R . .
C3 C 0.1244(18) 0.7877(14) 0.2877(15) 0.053(9) Uiso 1 1 d . . .
C4 C 0.1074(16) 0.8458(13) 0.3209(14) 0.042(8) Uiso 1 1 d . . .
H4 H 0.0686 0.8617 0.3627 0.050 Uiso 1 1 calc R . .
C5 C 0.1443(15) 0.8762(13) 0.2946(13) 0.037(7) Uiso 1 1 d . . .
H5 H 0.1272 0.9169 0.3146 0.044 Uiso 1 1 calc R . .
O6 O -0.0621(9) 0.6868(8) 0.3875(8) 0.032(4) Uiso 1 1 d . . .
N6 N -0.0174(12) 0.7106(10) 0.3664(11) 0.037(6) Uiso 1 1 d . . .
C6 C 0.0472(17) 0.6758(15) 0.3172(15) 0.053(9) Uiso 1 1 d . . .
H6 H 0.0602 0.6348 0.3013 0.063 Uiso 1 1 calc R . .
C7 C 0.098(2) 0.7001(16) 0.2876(18) 0.073(11) Uiso 1 1 d . . .
H7 H 0.1429 0.6780 0.2504 0.088 Uiso 1 1 calc R . .
C8 C 0.0750(16) 0.7604(13) 0.3190(14) 0.039(7) Uiso 1 1 d . . .
C9 C 0.0111(16) 0.7881(14) 0.3679(14) 0.046(8) Uiso 1 1 d . . .
H9 H -0.0034 0.8282 0.3871 0.055 Uiso 1 1 calc R . .
C10 C -0.0369(16) 0.7666(12) 0.3946(14) 0.038(7) Uiso 1 1 d . . .
H10 H -0.0819 0.7897 0.4313 0.045 Uiso 1 1 calc R . .
O11 O 0.2838(10) 0.9690(8) 0.2281(8) 0.040(5) Uiso 1 1 d . . .
N11 N 0.2217(13) 1.0058(10) 0.2303(11) 0.038(6) Uiso 1 1 d . . .
C11 C 0.2205(16) 1.0230(12) 0.1779(14) 0.037(7) Uiso 1 1 d . . .
H11 H 0.2646 1.0109 0.1401 0.044 Uiso 1 1 calc R . .
C12 C 0.1566(17) 1.0578(14) 0.1767(15) 0.051(9) Uiso 1 1 d . . .
H12 H 0.1577 1.0702 0.1381 0.062 Uiso 1 1 calc R . .
C13 C 0.0886(16) 1.0763(13) 0.2314(14) 0.043(8) Uiso 1 1 d . . .
C14 C 0.0916(15) 1.0605(12) 0.2847(14) 0.038(7) Uiso 1 1 d . . .
H14 H 0.0486 1.0730 0.3237 0.045 Uiso 1 1 calc R . .
C15 C 0.1623(14) 1.0236(12) 0.2817(13) 0.034(7) Uiso 1 1 d . . .
H15 H 0.1642 1.0124 0.3195 0.041 Uiso 1 1 calc R . .
O16 O -0.1800(10) 1.1836(8) 0.2453(8) 0.041(5) Uiso 1 1 d . . .
N16 N -0.1153(13) 1.1597(11) 0.2410(11) 0.042(6) Uiso 1 1 d . . .
C16 C -0.0595(15) 1.1168(12) 0.1948(13) 0.036(7) Uiso 1 1 d . . .
H16 H -0.0653 1.1013 0.1648 0.043 Uiso 1 1 calc R . .
C17 C 0.0099(17) 1.0922(14) 0.1873(15) 0.050(8) Uiso 1 1 d . . .
H17 H 0.0506 1.0628 0.1509 0.060 Uiso 1 1 calc R . .
C18 C 0.0194(19) 1.1103(16) 0.2325(16) 0.062(10) Uiso 1 1 d . . .
C19 C -0.0388(13) 1.1550(11) 0.2789(12) 0.025(6) Uiso 1 1 d . . .
H19 H -0.0350 1.1713 0.3100 0.029 Uiso 1 1 calc R . .
C20 C -0.1072(15) 1.1789(13) 0.2827(14) 0.038(7) Uiso 1 1 d . . .
H20 H -0.1486 1.2103 0.3173 0.046 Uiso 1 1 calc R . .
O21 O 0.3702(9) 0.8822(8) 0.1079(8) 0.034(5) Uiso 1 1 d . . .
N21 N 0.3543(12) 0.8621(9) 0.0711(10) 0.030(5) Uiso 1 1 d . . .
C21 C 0.2891(15) 0.8872(13) 0.0806(13) 0.037(7) Uiso 1 1 d . . .
H21 H 0.2517 0.9215 0.1140 0.044 Uiso 1 1 calc R . .
C22 C 0.2718(15) 0.8656(12) 0.0437(12) 0.033(7) Uiso 1 1 d . . .
H22 H 0.2229 0.8843 0.0527 0.040 Uiso 1 1 calc R . .
C23 C 0.3254(17) 0.8165(14) -0.0065(14) 0.048(8) Uiso 1 1 d . . .
C24 C 0.3963(19) 0.7919(15) -0.0191(16) 0.063(10) Uiso 1 1 d . . .
H24 H 0.4349 0.7603 -0.0546 0.076 Uiso 1 1 calc R . .
C25 C 0.4102(18) 0.8151(14) 0.0225(14) 0.052(9) Uiso 1 1 d . . .
H25 H 0.4579 0.7977 0.0160 0.062 Uiso 1 1 calc R . .
N26 N 0.2626(13) 0.7420(11) -0.1033(11) 0.042(6) Uiso 1 1 d . . .
C26 C 0.2202(19) 0.7991(15) -0.0695(16) 0.062(10) Uiso 1 1 d . . .
H26 H 0.1738 0.8241 -0.0664 0.075 Uiso 1 1 calc R . .
O26 O 0.2413(9) 0.7151(8) -0.1288(8) 0.034(5) Uiso 1 1 d . . .
C27 C 0.2406(16) 0.8242(14) -0.0381(14) 0.045(8) Uiso 1 1 d . . .
H27 H 0.2086 0.8656 -0.0142 0.054 Uiso 1 1 calc R . .
C28 C 0.3048(15) 0.7902(12) -0.0418(13) 0.034(7) Uiso 1 1 d . . .
C29 C 0.3471(16) 0.7332(13) -0.0736(13) 0.042(8) Uiso 1 1 d . . .
H29 H 0.3919 0.7095 -0.0735 0.050 Uiso 1 1 calc R . .
C30 C 0.3327(16) 0.7026(14) -0.1088(13) 0.042(8) Uiso 1 1 d . . .
H30 H 0.3657 0.6612 -0.1328 0.051 Uiso 1 1 calc R . .
O31 O 0.4394(9) 0.8868(8) 0.1749(8) 0.034(5) Uiso 1 1 d . . .
N31 N 0.4572(12) 0.9179(10) 0.1259(10) 0.031(5) Uiso 1 1 d . . .
C31 C 0.4173(17) 0.9810(14) 0.1403(16) 0.053(9) Uiso 1 1 d . . .
H31 H 0.3814 1.0020 0.1820 0.063 Uiso 1 1 calc R . .
C32 C 0.4330(18) 1.0154(16) 0.0866(16) 0.061(10) Uiso 1 1 d . . .
H32 H 0.4042 1.0603 0.0932 0.073 Uiso 1 1 calc R . .
C33 C 0.4871(16) 0.9853(13) 0.0284(14) 0.042(8) Uiso 1 1 d . . .
C34 C 0.531(2) 0.9171(16) 0.0180(17) 0.068(10) Uiso 1 1 d . . .
H34 H 0.5697 0.8937 -0.0220 0.082 Uiso 1 1 calc R . .
C35 C 0.5098(18) 0.8863(16) 0.0738(15) 0.056(9) Uiso 1 1 d . . .
H35 H 0.5370 0.8415 0.0703 0.067 Uiso 1 1 calc R . .
O41 O 0.3900(9) 0.7632(8) 0.1456(8) 0.033(5) Uiso 1 1 d . . .
N41 N 0.4386(13) 0.7028(11) 0.1459(11) 0.041(6) Uiso 1 1 d . . .
C41 C 0.4089(15) 0.6720(12) 0.1928(12) 0.032(7) Uiso 1 1 d . . .
H41 H 0.3582 0.6906 0.2190 0.039 Uiso 1 1 calc R . .
C42 C 0.4565(15) 0.6121(13) 0.2003(13) 0.040(7) Uiso 1 1 d . . .
H42 H 0.4385 0.5879 0.2295 0.048 Uiso 1 1 calc R . .
C43 C 0.5268(14) 0.5909(12) 0.1653(12) 0.028(6) Uiso 1 1 d . . .
C44 C 0.5538(18) 0.6236(13) 0.1146(18) 0.059(10) Uani 1 1 d . . .
H44 H 0.6038 0.6047 0.0854 0.071 Uiso 1 1 calc R . .
C45 C 0.5079(16) 0.6801(14) 0.1096(14) 0.042(8) Uiso 1 1 d . . .
H45 H 0.5255 0.7040 0.0795 0.050 Uiso 1 1 calc R . .
O46 O 0.7255(10) 0.3820(9) 0.2140(9) 0.044(5) Uiso 1 1 d . . .
N46 N 0.6792(12) 0.4295(10) 0.2003(11) 0.035(6) Uiso 1 1 d . . .
C46 C 0.6948(17) 0.4385(14) 0.1387(14) 0.046(8) Uiso 1 1 d . . .
H46 H 0.7388 0.4091 0.1044 0.055 Uiso 1 1 calc R . .
C47 C 0.6445(15) 0.4915(13) 0.1288(14) 0.042(8) Uiso 1 1 d . . .
H47 H 0.6549 0.4985 0.0868 0.051 Uiso 1 1 calc R . .
C48 C 0.5806(15) 0.5340(12) 0.1769(13) 0.036(7) Uiso 1 1 d . . .
C49 C 0.5645(16) 0.5225(13) 0.2382(14) 0.040(7) Uiso 1 1 d . . .
H49 H 0.5182 0.5487 0.2725 0.048 Uiso 1 1 calc R . .
C50 C 0.6187(15) 0.4707(13) 0.2485(14) 0.042(8) Uiso 1 1 d . . .
H50 H 0.6114 0.4657 0.2901 0.050 Uiso 1 1 calc R . .
O51 O -0.1291(10) 0.6143(8) 0.3843(8) 0.036(5) Uiso 1 1 d . . .
N51 N -0.0931(14) 0.5830(11) 0.4179(12) 0.045(6) Uiso 1 1 d . . .
C51 C -0.025(2) 0.5458(17) 0.384(2) 0.083(12) Uiso 1 1 d . . .
H51 H -0.0018 0.5398 0.3398 0.099 Uiso 1 1 calc R . .
C52 C 0.0143(19) 0.5127(15) 0.4199(16) 0.060(9) Uiso 1 1 d . . .
H52 H 0.0653 0.4872 0.3978 0.072 Uiso 1 1 calc R . .
C53 C -0.0217(16) 0.5184(13) 0.4837(13) 0.036(7) Uiso 1 1 d . . .
C54 C -0.0882(18) 0.5560(14) 0.5118(16) 0.057(9) Uiso 1 1 d . . .
H54 H -0.1134 0.5612 0.5564 0.069 Uiso 1 1 calc R . .
C55 C -0.1273(18) 0.5909(14) 0.4798(15) 0.053(9) Uiso 1 1 d . . .
H55 H -0.1776 0.6198 0.5027 0.064 Uiso 1 1 calc R . .
O61 O -0.2197(9) 0.7318(8) 0.4736(8) 0.032(4) Uiso 1 1 d . . .
N61 N -0.2398(12) 0.7817(10) 0.5132(10) 0.034(6) Uiso 1 1 d . . .
C61 C -0.1891(14) 0.7763(12) 0.5287(12) 0.030(7) Uiso 1 1 d . . .
H61 H -0.1457 0.7373 0.5172 0.036 Uiso 1 1 calc R . .
C62 C -0.2022(15) 0.8256(12) 0.5593(12) 0.035(7) Uiso 1 1 d . . .
H62 H -0.1658 0.8226 0.5673 0.041 Uiso 1 1 calc R . .
C63 C -0.2657(16) 0.8817(13) 0.5805(14) 0.045(8) Uiso 1 1 d . . .
C64 C -0.3154(18) 0.8804(15) 0.5648(15) 0.055(9) Uiso 1 1 d . . .
H64 H -0.3629 0.9154 0.5812 0.066 Uiso 1 1 calc R . .
C65 C -0.2966(14) 0.8309(12) 0.5274(12) 0.030(7) Uiso 1 1 d . . .
H65 H -0.3275 0.8340 0.5120 0.036 Uiso 1 1 calc R . .
O66 O -0.3301(10) 1.1087(8) 0.6937(8) 0.038(5) Uiso 1 1 d . . .
N66 N -0.3142(12) 1.0546(10) 0.6667(10) 0.033(6) Uiso 1 1 d . . .
C66 C -0.3691(14) 1.0383(11) 0.6939(12) 0.024(6) Uiso 1 1 d . . .
H66 H -0.4151 1.0636 0.7288 0.029 Uiso 1 1 calc R . .
C67 C -0.3471(16) 0.9774(13) 0.6620(13) 0.043(8) Uiso 1 1 d . . .
H67 H -0.3809 0.9623 0.6762 0.051 Uiso 1 1 calc R . .
C68 C -0.2776(15) 0.9407(12) 0.6111(13) 0.036(7) Uiso 1 1 d . . .
C69 C -0.2330(16) 0.9627(13) 0.5902(14) 0.043(8) Uiso 1 1 d . . .
H69 H -0.1874 0.9408 0.5538 0.051 Uiso 1 1 calc R . .
C70 C -0.2530(16) 1.0201(12) 0.6224(13) 0.040(7) Uiso 1 1 d . . .
H70 H -0.2176 1.0330 0.6094 0.048 Uiso 1 1 calc R . .
O71 O -0.2074(9) 0.7940(8) 0.3071(8) 0.035(5) Uiso 1 1 d . . .
N71 N -0.2534(12) 0.7939(10) 0.2896(11) 0.035(6) Uiso 1 1 d . . .
C71 C -0.3232(14) 0.8331(12) 0.3288(13) 0.034(7) Uiso 1 1 d . . .
H71 H -0.3373 0.8608 0.3633 0.041 Uiso 1 1 calc R . .
C72 C -0.3789(18) 0.8321(14) 0.3165(15) 0.051(9) Uiso 1 1 d . . .
H72 H -0.4291 0.8542 0.3454 0.061 Uiso 1 1 calc R . .
C73 C -0.3503(15) 0.7954(12) 0.2582(13) 0.034(7) Uiso 1 1 d . . .
C74 C -0.2755(15) 0.7616(13) 0.2181(14) 0.040(7) Uiso 1 1 d . . .
H74 H -0.2568 0.7380 0.1790 0.048 Uiso 1 1 calc R . .
C75 C -0.2298(16) 0.7628(13) 0.2358(14) 0.041(8) Uiso 1 1 d . . .
H75 H -0.1793 0.7403 0.2081 0.049 Uiso 1 1 calc R . .
N76 N -0.5024(14) 0.7796(11) 0.2250(12) 0.050(7) Uiso 1 1 d . . .
C76 C -0.4385(15) 0.7671(12) 0.1793(14) 0.041(8) Uiso 1 1 d . . .
H76 H -0.4263 0.7542 0.1380 0.049 Uiso 1 1 calc R . .
O76 O -0.5470(9) 0.7717(8) 0.2145(8) 0.032(4) Uiso 1 1 d . . .
C77 C -0.3868(16) 0.7717(13) 0.1876(14) 0.044(8) Uiso 1 1 d . . .
H77 H -0.3410 0.7606 0.1523 0.053 Uiso 1 1 calc R . .
C78 C -0.4005(14) 0.7909(12) 0.2433(13) 0.031(7) Uiso 1 1 d . . .
C79 C -0.4696(15) 0.8054(13) 0.2968(14) 0.044(8) Uiso 1 1 d . . .
H79 H -0.4814 0.8177 0.3382 0.053 Uiso 1 1 calc R . .
C80 C -0.5227(17) 0.7998(13) 0.2827(15) 0.049(8) Uiso 1 1 d . . .
H80 H -0.5700 0.8109 0.3155 0.059 Uiso 1 1 calc R . .
O81 O -0.1760(10) 0.8125(8) 0.3965(9) 0.040(5) Uiso 1 1 d . . .
N81 N -0.1931(14) 0.8687(11) 0.3676(11) 0.046(7) Uiso 1 1 d . . .
C81 C -0.1359(18) 0.8743(14) 0.3193(14) 0.050(8) Uiso 1 1 d . . .
H81 H -0.0879 0.8406 0.3047 0.060 Uiso 1 1 calc R . .
C82 C -0.1492(16) 0.9290(13) 0.2929(14) 0.042(8) Uiso 1 1 d . . .
H82 H -0.1108 0.9357 0.2626 0.051 Uiso 1 1 calc R . .
C83 C -0.2228(16) 0.9757(13) 0.3123(14) 0.043(8) Uiso 1 1 d . . .
C84 C -0.2734(14) 0.9642(12) 0.3642(12) 0.029(7) Uiso 1 1 d . . .
H84 H -0.3222 0.9970 0.3825 0.035 Uiso 1 1 calc R . .
C85 C -0.2594(15) 0.9119(12) 0.3902(13) 0.032(7) Uiso 1 1 d . . .
H85 H -0.2968 0.9065 0.4242 0.038 Uiso 1 1 calc R . .
O86 O -0.2825(10) 1.2025(8) 0.2128(8) 0.037(5) Uiso 1 1 d . . .
N86 N -0.2698(14) 1.1479(12) 0.2352(12) 0.051(7) Uiso 1 1 d . . .
C86 C -0.3174(15) 1.1473(13) 0.2943(13) 0.035(7) Uiso 1 1 d . . .
H86 H -0.3606 1.1852 0.3190 0.042 Uiso 1 1 calc R . .
C87 C -0.3021(15) 1.0924(12) 0.3169(13) 0.034(7) Uiso 1 1 d . . .
H87 H -0.3370 1.0922 0.3574 0.041 Uiso 1 1 calc R . .
C88 C -0.2415(16) 1.0380(14) 0.2867(14) 0.045(8) Uiso 1 1 d . . .
C89 C -0.1923(17) 1.0369(14) 0.2231(15) 0.050(8) Uiso 1 1 d . . .
H89 H -0.1507 0.9987 0.1971 0.060 Uiso 1 1 calc R . .
C90 C -0.2097(18) 1.09