####################################################################### 
# 
# This file contains crystal structure data downloaded from the 
# Cambridge Structural Database (CSD) hosted by the Cambridge 
# Crystallographic Data Centre (CCDC).
# 
# Full information about CCDC data access policies and citation 
# guidelines are available at http://www.ccdc.cam.ac.uk/access/V1 
# 
# Audit and citation data items may have been added by the CCDC. 
# Please retain this information to preserve the provenance of 
# this file and to allow appropriate attribution of the data. 
# 
#######################################################################

data_sx341bb
_audit_block_doi                 10.5517/cc124qwt
_database_code_depnum_ccdc_archive 'CCDC 987656'
loop_
_citation_id
_citation_doi
_citation_year
1 10.1002/chem.201402255 2014
_audit_update_record             
;
2014-02-18 deposited with the CCDC.	2024-07-08 downloaded from the CCDC.
;

_audit_creation_method           SHELXL-97
_chemical_name_systematic        
;
 ?
;
_chemical_name_common            ?
_chemical_melting_point          ?
_chemical_formula_moiety         ?
_chemical_formula_sum            'C129 H96 F27 Ho3 N24 O51 S9'
_chemical_formula_weight         4094.63

loop_
_atom_type_symbol
_atom_type_description
_atom_type_scat_dispersion_real
_atom_type_scat_dispersion_imag
_atom_type_scat_source
C C 0.0033 0.0016 'International Tables Vol C Tables 4.2.6.8 and 6.1.1.4'
H H 0.0000 0.0000 'International Tables Vol C Tables 4.2.6.8 and 6.1.1.4'
N N 0.0061 0.0033 'International Tables Vol C Tables 4.2.6.8 and 6.1.1.4'
O O 0.0106 0.0060 'International Tables Vol C Tables 4.2.6.8 and 6.1.1.4'
F F 0.0171 0.0103 'International Tables Vol C Tables 4.2.6.8 and 6.1.1.4'
S S 0.1246 0.1234 'International Tables Vol C Tables 4.2.6.8 and 6.1.1.4'
Ho Ho -0.2175 4.6783 'International Tables Vol C Tables 4.2.6.8 and 6.1.1.4'

_symmetry_cell_setting           Triclinic
_symmetry_space_group_name_H-M   P-1

loop_
_symmetry_equiv_pos_as_xyz
'x, y, z'
'-x, -y, -z'

_cell_length_a                   24.0300(8)
_cell_length_b                   24.1348(6)
_cell_length_c                   24.3922(9)
_cell_angle_alpha                85.032(2)
_cell_angle_beta                 61.325(4)
_cell_angle_gamma                61.265(3)
_cell_volume                     10690.5(6)
_cell_formula_units_Z            2
_cell_measurement_temperature    120(2)
_cell_measurement_reflns_used    23944
_cell_measurement_theta_min      2.9119
_cell_measurement_theta_max      25.0225

_exptl_crystal_description       block
_exptl_crystal_colour            colorless
_exptl_crystal_size_max          0.29
_exptl_crystal_size_mid          0.28
_exptl_crystal_size_min          0.21
_exptl_crystal_density_meas      ?
_exptl_crystal_density_diffrn    1.272
_exptl_crystal_density_method    'not measured'
_exptl_crystal_F_000             4068
_exptl_absorpt_coefficient_mu    1.279
_exptl_absorpt_correction_T_min  0.84857
_exptl_absorpt_correction_T_max  1.00000
_exptl_absorpt_correction_type   multi-scan
_exptl_absorpt_process_details   
;
CrysAlisPro, Agilent Technologies,
Version 1.171.35.19 (release 27-10-2011 CrysAlis171 .NET)
(compiled Oct 27 2011,15:02:11)
Empirical absorption correction using spherical harmonics,
 implemented in SCALE3 ABSPACK scaling algorithm.
;

_exptl_special_details           
;
 ?
;

_diffrn_ambient_temperature      120(2)
_diffrn_radiation_wavelength     0.71073
_diffrn_radiation_type           MoK\a
_diffrn_radiation_source         'SuperNova (Mo) X-ray Source'
_diffrn_radiation_monochromator  mirror
_diffrn_measurement_device_type  
'SuperNova, Single source at offset), Sapphire3'
_diffrn_measurement_method       '\w scans'
_diffrn_detector_area_resol_mean 16.0267
_diffrn_standards_number         ?
_diffrn_standards_interval_count ?
_diffrn_standards_interval_time  ?
_diffrn_standards_decay_%        ?
_diffrn_reflns_number            139396
_diffrn_reflns_av_R_equivalents  0.0884
_diffrn_reflns_av_sigmaI/netI    0.0990
_diffrn_reflns_limit_h_min       -28
_diffrn_reflns_limit_h_max       28
_diffrn_reflns_limit_k_min       -28
_diffrn_reflns_limit_k_max       28
_diffrn_reflns_limit_l_min       -29
_diffrn_reflns_limit_l_max       29
_diffrn_reflns_theta_min         2.92
_diffrn_reflns_theta_max         25.08
_reflns_number_total             37788
_reflns_number_gt                27077
_reflns_threshold_expression     >2sigma(I)

_computing_data_collection       
;
CrysAlisPro, Agilent Technologies,
Version 1.171.35.19 (release 27-10-2011 CrysAlis171 .NET)
(compiled Oct 27 2011,15:02:11)
;
_computing_cell_refinement       
;
CrysAlisPro, Agilent Technologies,
Version 1.171.35.19 (release 27-10-2011 CrysAlis171 .NET)
(compiled Oct 27 2011,15:02:11)
;
_computing_data_reduction        
;
CrysAlisPro, Agilent Technologies,
Version 1.171.35.19 (release 27-10-2011 CrysAlis171 .NET)
(compiled Oct 27 2011,15:02:11)
;
_computing_structure_solution    'SHELXS-97 (Sheldrick, 1990)'
_computing_structure_refinement  'SHELXL-97 (Sheldrick, 1997)'
_computing_molecular_graphics    'Bruker SHELXTL'
_computing_publication_material  'Bruker SHELXTL'

_refine_special_details          
;
 Refinement of F^2^ against ALL reflections.  The weighted R-factor wR and
 goodness of fit S are based on F^2^, conventional R-factors R are based
 on F, with F set to zero for negative F^2^. The threshold expression of
 F^2^ > 2sigma(F^2^) is used only for calculating R-factors(gt) etc. and is
 not relevant to the choice of reflections for refinement.  R-factors based
 on F^2^ are statistically about twice as large as those based on F, and R-
 factors based on ALL data will be even larger.
;

_refine_ls_structure_factor_coef Fsqd
_refine_ls_matrix_type           full
_refine_ls_weighting_scheme      calc
_refine_ls_weighting_details     
'calc w=1/[\s^2^(Fo^2^)+(0.2000P)^2^+0.0000P] where P=(Fo^2^+2Fc^2^)/3'
_atom_sites_solution_primary     direct
_atom_sites_solution_secondary   difmap
_atom_sites_solution_hydrogens   geom
_refine_ls_hydrogen_treatment    mixed
_refine_ls_extinction_method     none
_refine_ls_extinction_coef       ?
_refine_ls_number_reflns         37788
_refine_ls_number_parameters     1771
_refine_ls_number_restraints     152
_refine_ls_R_factor_all          0.1503
_refine_ls_R_factor_gt           0.1192
_refine_ls_wR_factor_ref         0.4076
_refine_ls_wR_factor_gt          0.3711
_refine_ls_goodness_of_fit_ref   1.521
_refine_ls_restrained_S_all      1.522
_refine_ls_shift/su_max          0.008
_refine_ls_shift/su_mean         0.000

loop_
_atom_site_label
_atom_site_type_symbol
_atom_site_fract_x
_atom_site_fract_y
_atom_site_fract_z
_atom_site_U_iso_or_equiv
_atom_site_adp_type
_atom_site_occupancy
_atom_site_symmetry_multiplicity
_atom_site_calc_flag
_atom_site_refinement_flags
_atom_site_disorder_assembly
_atom_site_disorder_group
Ho1 Ho 0.36089(3) 0.84689(2) 0.20156(3) 0.01796(18) Uani 1 1 d . . .
Ho2 Ho -0.15294(3) 0.71697(2) 0.35933(3) 0.01847(19) Uani 1 1 d . . .
Ho3 Ho -0.25336(3) 1.27997(2) 0.23623(3) 0.01935(19) Uani 1 1 d . . .
N1 N 0.2122(5) 0.8461(5) 0.2307(5) 0.026(2) Uiso 1 1 d . . .
O1 O 0.2517(4) 0.8745(4) 0.2066(4) 0.0248(19) Uani 1 1 d . . .
C1 C 0.2313(7) 0.7926(6) 0.1967(7) 0.029(3) Uani 1 1 d . . .
H1 H 0.2745 0.7744 0.1560 0.035 Uiso 1 1 calc R . .
C2 C 0.1888(8) 0.7640(6) 0.2204(8) 0.037(3) Uani 1 1 d . . .
H2 H 0.2012 0.7281 0.1947 0.045 Uiso 1 1 calc R . .
C3 C 0.1273(7) 0.7871(6) 0.2822(7) 0.028(3) Uani 1 1 d . . .
C4 C 0.1101(8) 0.8438(7) 0.3161(7) 0.038(3) Uani 1 1 d . . .
H4 H 0.0683 0.8626 0.3576 0.045 Uiso 1 1 calc R . .
C5 C 0.1528(7) 0.8710(6) 0.2897(7) 0.031(3) Uani 1 1 d . . .
H5 H 0.1407 0.9083 0.3132 0.038 Uiso 1 1 calc R . .
O6 O -0.0600(5) 0.6874(4) 0.3855(4) 0.028(2) Uani 1 1 d . . .
N6 N -0.0146(6) 0.7099(5) 0.3630(6) 0.033(3) Uani 1 1 d . . .
C6 C 0.0521(7) 0.6763(7) 0.3112(7) 0.036(3) Uani 1 1 d . . .
H6 H 0.0668 0.6356 0.2918 0.043 Uiso 1 1 calc R . .
C7 C 0.0996(8) 0.6999(7) 0.2860(7) 0.036(3) Uani 1 1 d . . .
H7 H 0.1474 0.6740 0.2509 0.044 Uiso 1 1 calc R . .
C8 C 0.0801(6) 0.7587(6) 0.3099(6) 0.025(3) Uani 1 1 d . . .
C9 C 0.0111(9) 0.7914(7) 0.3647(8) 0.041(4) Uani 1 1 d . . .
H9 H -0.0033 0.8319 0.3845 0.049 Uiso 1 1 calc R . .
C10 C -0.0365(8) 0.7690(7) 0.3914(6) 0.032(3) Uani 1 1 d . . .
H10 H -0.0832 0.7932 0.4283 0.038 Uiso 1 1 calc R . .
O11 O 0.2957(5) 0.9609(4) 0.2218(4) 0.027(2) Uani 1 1 d . . .
N11 N 0.2303(6) 0.9984(4) 0.2246(5) 0.024(2) Uani 1 1 d . . .
C11 C 0.2298(7) 1.0181(6) 0.1710(6) 0.030(3) Uani 1 1 d . . .
H11 H 0.2746 1.0077 0.1331 0.036 Uiso 1 1 calc R . .
C12 C 0.1657(7) 1.0525(6) 0.1713(7) 0.032(3) Uani 1 1 d . . .
H12 H 0.1664 1.0637 0.1327 0.039 Uiso 1 1 calc R . .
C13 C 0.0975(6) 1.0724(6) 0.2279(6) 0.025(3) Uani 1 1 d . . .
C14 C 0.1011(8) 1.0537(7) 0.2832(7) 0.037(3) Uani 1 1 d . . .
H14 H 0.0574 1.0666 0.3230 0.045 Uiso 1 1 calc R . .
C15 C 0.1701(6) 1.0159(6) 0.2788(6) 0.024(3) Uani 1 1 d . . .
H15 H 0.1728 1.0032 0.3158 0.029 Uiso 1 1 calc R . .
O16 O -0.1757(4) 1.1800(4) 0.2512(4) 0.026(2) Uani 1 1 d . . .
N16 N -0.1098(7) 1.1577(5) 0.2439(6) 0.037(3) Uani 1 1 d . . .
C16 C -0.0505(7) 1.1160(6) 0.1907(7) 0.033(3) Uani 1 1 d . . .
H16 H -0.0561 1.1043 0.1582 0.039 Uiso 1 1 calc R . .
C17 C 0.0180(8) 1.0903(7) 0.1830(7) 0.039(3) Uani 1 1 d . . .
H17 H 0.0596 1.0620 0.1444 0.047 Uiso 1 1 calc R . .
C18 C 0.0277(7) 1.1044(6) 0.2288(6) 0.031(3) Uani 1 1 d . . .
C19 C -0.0351(6) 1.1509(5) 0.2843(6) 0.022(3) Uani 1 1 d . . .
H19 H -0.0302 1.1637 0.3168 0.027 Uiso 1 1 calc R . .
C20 C -0.1025(8) 1.1767(6) 0.2893(7) 0.030(3) Uani 1 1 d . . .
H20 H -0.1448 1.2085 0.3253 0.036 Uiso 1 1 calc R . .
O21 O 0.3805(5) 0.8709(4) 0.0995(4) 0.027(2) Uani 1 1 d . . .
N21 N 0.3641(6) 0.8503(5) 0.0633(5) 0.024(2) Uani 1 1 d . . .
C21 C 0.2967(7) 0.8795(6) 0.0729(6) 0.029(3) Uani 1 1 d . . .
H21 H 0.2597 0.9163 0.1058 0.035 Uiso 1 1 calc R . .
C22 C 0.2785(7) 0.8592(6) 0.0378(6) 0.030(3) Uani 1 1 d . . .
H22 H 0.2291 0.8817 0.0468 0.036 Uiso 1 1 calc R . .
C23 C 0.3297(7) 0.8065(6) -0.0110(6) 0.028(3) Uani 1 1 d . . .
C24 C 0.4031(7) 0.7757(7) -0.0216(7) 0.037(4) Uani 1 1 d . . .
H24 H 0.4411 0.7389 -0.0543 0.045 Uiso 1 1 calc R . .
C25 C 0.4187(7) 0.7992(7) 0.0155(7) 0.035(3) Uani 1 1 d . . .
H25 H 0.4676 0.7796 0.0076 0.042 Uiso 1 1 calc R . .
N26 N 0.2639(5) 0.7360(5) -0.1090(5) 0.023(2) Uani 1 1 d . . .
C26 C 0.2202(8) 0.7963(6) -0.0759(7) 0.035(3) Uani 1 1 d . . .
H26 H 0.1743 0.8229 -0.0740 0.042 Uiso 1 1 calc R . .
O26 O 0.2391(5) 0.7152(4) -0.1350(4) 0.0261(19) Uani 1 1 d . . .
C27 C 0.2420(7) 0.8201(6) -0.0441(7) 0.031(3) Uani 1 1 d . . .
H27 H 0.2109 0.8629 -0.0208 0.037 Uiso 1 1 calc R . .
C28 C 0.3091(7) 0.7814(6) -0.0464(6) 0.029(3) Uani 1 1 d . . .
C29 C 0.3535(8) 0.7197(7) -0.0850(7) 0.036(3) Uani 1 1 d . . .
H29 H 0.4008 0.6921 -0.0900 0.043 Uiso 1 1 calc R . .
C30 C 0.3303(7) 0.6993(6) -0.1147(6) 0.028(3) Uani 1 1 d . . .
H30 H 0.3618 0.6576 -0.1406 0.034 Uiso 1 1 calc R . .
O31 O 0.4509(5) 0.8755(4) 0.1643(4) 0.029(2) Uani 1 1 d . . .
N31 N 0.4638(6) 0.9100(5) 0.1192(5) 0.027(2) Uani 1 1 d . . .
C31 C 0.4253(7) 0.9743(6) 0.1354(7) 0.031(3) Uani 1 1 d . . .
H31 H 0.3895 0.9949 0.1784 0.038 Uiso 1 1 calc R . .
C32 C 0.4391(8) 1.0105(6) 0.0875(7) 0.039(4) Uani 1 1 d . . .
H32 H 0.4122 1.0561 0.0984 0.047 Uiso 1 1 calc R . .
C33 C 0.4921(7) 0.9806(6) 0.0234(7) 0.032(3) Uani 1 1 d . . .
C34 C 0.5303(8) 0.9152(6) 0.0117(7) 0.043(4) Uani 1 1 d . . .
H34 H 0.5682 0.8930 -0.0305 0.052 Uiso 1 1 calc R . .
C35 C 0.5159(8) 0.8796(7) 0.0596(7) 0.041(4) Uani 1 1 d . . .
H35 H 0.5431 0.8339 0.0497 0.049 Uiso 1 1 calc R . .
O41 O 0.3998(5) 0.7539(4) 0.1372(4) 0.027(2) Uani 1 1 d . . .
N41 N 0.4453(6) 0.6934(4) 0.1394(5) 0.024(2) Uani 1 1 d . . .
C41 C 0.4154(7) 0.6630(6) 0.1816(7) 0.032(3) Uani 1 1 d . . .
H41 H 0.3637 0.6809 0.2051 0.038 Uiso 1 1 calc R . .
C42 C 0.4611(7) 0.6051(6) 0.1904(7) 0.033(3) Uani 1 1 d . . .
H42 H 0.4408 0.5822 0.2195 0.039 Uiso 1 1 calc R . .
C43 C 0.5384(8) 0.5793(6) 0.1562(7) 0.032(3) Uani 1 1 d . . .
C44 C 0.5657(7) 0.6111(6) 0.1088(7) 0.030(3) Uani 1 1 d . . .
H44 H 0.6170 0.5929 0.0809 0.037 Uiso 1 1 calc R . .
C45 C 0.5169(7) 0.6692(6) 0.1034(6) 0.029(3) Uani 1 1 d . . .
H45 H 0.5351 0.6924 0.0731 0.034 Uiso 1 1 calc R . .
O46 O 0.7319(5) 0.3830(4) 0.2192(4) 0.027(2) Uani 1 1 d . . .
N46 N 0.6837(6) 0.4270(5) 0.2040(5) 0.025(2) Uani 1 1 d . . .
C46 C 0.7045(9) 0.4302(6) 0.1432(7) 0.040(4) Uani 1 1 d . . .
H46 H 0.7520 0.3988 0.1111 0.048 Uiso 1 1 calc R . .
C47 C 0.6571(8) 0.4793(6) 0.1263(7) 0.034(3) Uani 1 1 d . . .
H47 H 0.6733 0.4824 0.0827 0.040 Uiso 1 1 calc R . .
C48 C 0.5886(7) 0.5224(6) 0.1711(6) 0.028(3) Uani 1 1 d . . .
C49 C 0.5692(7) 0.5183(6) 0.2360(6) 0.032(3) Uani 1 1 d . . .
H49 H 0.5227 0.5496 0.2693 0.039 Uiso 1 1 calc R . .
C50 C 0.6166(7) 0.4707(6) 0.2494(6) 0.028(3) Uani 1 1 d . . .
H50 H 0.6023 0.4674 0.2927 0.033 Uiso 1 1 calc R . .
O51 O -0.1219(5) 0.6143(4) 0.3826(4) 0.0252(19) Uani 1 1 d . . .
N51 N -0.0892(5) 0.5849(4) 0.4155(5) 0.022(2) Uani 1 1 d . . .
C51 C -0.0158(7) 0.5430(7) 0.3842(7) 0.037(3) Uani 1 1 d . . .
H51 H 0.0111 0.5368 0.3391 0.044 Uiso 1 1 calc R . .
C52 C 0.0186(9) 0.5110(8) 0.4146(8) 0.051(4) Uiso 1 1 d . . .
H52 H 0.0701 0.4825 0.3913 0.061 Uiso 1 1 calc R . .
C53 C -0.0200(7) 0.5180(6) 0.4827(6) 0.025(3) Uani 1 1 d . . .
C54 C -0.0931(7) 0.5618(7) 0.5127(7) 0.038(4) Uani 1 1 d . . .
H54 H -0.1204 0.5702 0.5578 0.046 Uiso 1 1 calc R . .
C55 C -0.1288(8) 0.5942(6) 0.4801(7) 0.037(3) Uani 1 1 d . . .
H55 H -0.1803 0.6227 0.5023 0.045 Uiso 1 1 calc R . .
O61 O -0.2218(5) 0.7350(4) 0.4735(4) 0.030(2) Uani 1 1 d . . .
N61 N -0.2388(6) 0.7839(5) 0.5111(5) 0.025(2) Uani 1 1 d . . .
C61 C -0.1912(8) 0.7806(7) 0.5286(7) 0.034(3) Uani 1 1 d . . .
H61 H -0.1465 0.7415 0.5167 0.041 Uiso 1 1 calc R . .
C62 C -0.2064(8) 0.8299(6) 0.5609(6) 0.034(3) Uani 1 1 d . . .
H62 H -0.1716 0.8270 0.5708 0.040 Uiso 1 1 calc R . .
C63 C -0.2723(7) 0.8874(6) 0.5818(6) 0.031(3) Uani 1 1 d . . .
C64 C -0.3196(8) 0.8872(6) 0.5693(7) 0.033(3) Uani 1 1 d . . .
H64 H -0.3668 0.9245 0.5855 0.039 Uiso 1 1 calc R . .
C65 C -0.3041(7) 0.8366(6) 0.5348(7) 0.032(3) Uani 1 1 d . . .
H65 H -0.3401 0.8385 0.5272 0.038 Uiso 1 1 calc R . .
O66 O -0.3396(5) 1.1176(4) 0.7009(4) 0.035(2) Uani 1 1 d . . .
N66 N -0.3222(6) 1.0607(5) 0.6741(5) 0.027(2) Uani 1 1 d . . .
C66 C -0.3752(9) 1.0444(6) 0.6972(7) 0.039(4) Uani 1 1 d . . .
H66 H -0.4227 1.0718 0.7320 0.047 Uiso 1 1 calc R . .
C67 C -0.3584(8) 0.9873(7) 0.6688(7) 0.037(3) Uani 1 1 d . . .
H67 H -0.3947 0.9750 0.6850 0.044 Uiso 1 1 calc R . .
C68 C -0.2903(7) 0.9479(6) 0.6178(6) 0.029(3) Uani 1 1 d . . .
C69 C -0.2368(8) 0.9676(7) 0.5954(7) 0.037(3) Uani 1 1 d . . .
H69 H -0.1885 0.9409 0.5612 0.044 Uiso 1 1 calc R . .
C70 C -0.2560(8) 1.0250(7) 0.6236(7) 0.041(4) Uani 1 1 d . . .
H70 H -0.2218 1.0397 0.6071 0.049 Uiso 1 1 calc R . .
O71 O -0.2089(5) 0.7934(4) 0.3080(4) 0.029(2) Uiso 1 1 d . . .
N71 N -0.2557(6) 0.7931(5) 0.2921(5) 0.032(3) Uani 1 1 d . . .
C71 C -0.3290(8) 0.8278(7) 0.3332(8) 0.040(4) Uani 1 1 d . . .
H71 H -0.3481 0.8518 0.3730 0.048 Uiso 1 1 calc R . .
C72 C -0.3747(8) 0.8267(7) 0.3148(8) 0.037(3) Uani 1 1 d . . .
H72 H -0.4262 0.8519 0.3423 0.045 Uiso 1 1 calc R . .
C73 C -0.3483(7) 0.7901(6) 0.2571(7) 0.030(3) Uani 1 1 d . . .
C74 C -0.2733(8) 0.7584(7) 0.2171(7) 0.035(3) Uani 1 1 d . . .
H74 H -0.2532 0.7343 0.1770 0.042 Uiso 1 1 calc R . .
C75 C -0.2266(8) 0.7602(7) 0.2328(7) 0.035(3) Uani 1 1 d . . .
H75 H -0.1754 0.7393 0.2036 0.042 Uiso 1 1 calc R . .
N76 N -0.4938(6) 0.7712(5) 0.2201(5) 0.027(2) Uani 1 1 d . . .
C76 C -0.4296(7) 0.7605(7) 0.1711(7) 0.034(3) Uani 1 1 d . . .
H76 H -0.4174 0.7496 0.1288 0.041 Uiso 1 1 calc R . .
O76 O -0.5396(4) 0.7640(4) 0.2086(4) 0.0253(19) Uani 1 1 d . . .
C77 C -0.3803(7) 0.7655(7) 0.1827(7) 0.037(3) Uani 1 1 d . . .
H77 H -0.3332 0.7553 0.1483 0.044 Uiso 1 1 calc R . .
C78 C -0.3997(7) 0.7853(6) 0.2442(7) 0.029(3) Uani 1 1 d . . .
C79 C -0.4654(8) 0.7966(7) 0.2917(7) 0.041(4) Uani 1 1 d . . .
H79 H -0.4788 0.8093 0.3340 0.049 Uiso 1 1 calc R . .
C80 C -0.5162(8) 0.7904(6) 0.2818(7) 0.036(3) Uiso 1 1 d . . .
H80 H -0.5628 0.7990 0.3160 0.044 Uiso 1 1 calc R . .
O81 O -0.1783(5) 0.8177(4) 0.3967(4) 0.028(2) Uani 1 1 d . . .
N81 N -0.1934(6) 0.8695(5) 0.3717(5) 0.027(2) Uani 1 1 d . . .
C81 C -0.1374(7) 0.8770(6) 0.3229(6) 0.025(3) Uani 1 1 d . . .
H81 H -0.0878 0.8441 0.3075 0.030 Uiso 1 1 calc R . .
C82 C -0.1525(7) 0.9308(6) 0.2966(6) 0.032(3) Uani 1 1 d . . .
H82 H -0.1133 0.9352 0.2634 0.038 Uiso 1 1 calc R . .
C83 C -0.2230(7) 0.9782(6) 0.3173(6) 0.029(3) Uani 1 1 d . . .
C84 C -0.2798(8) 0.9705(7) 0.3652(7) 0.035(3) Uani 1 1 d . . .
H84 H -0.3298 1.0020 0.3800 0.043 Uiso 1 1 calc R . .
C85 C -0.2603(8) 0.9144(7) 0.3904(7) 0.034(3) Uani 1 1 d . . .
H85 H -0.2986 0.9090 0.4236 0.041 Uiso 1 1 calc R . .
O86 O -0.2778(5) 1.2028(4) 0.2147(4) 0.031(2) Uani 1 1 d . . .
N86 N -0.2664(6) 1.1488(5) 0.2394(5) 0.027(2) Uani 1 1 d . . .
C86 C -0.3182(8) 1.1502(7) 0.2977(7) 0.032(3) Uani 1 1 d . . .
H86 H -0.3632 1.1892 0.3212 0.038 Uiso 1 1 calc R . .
C87 C -0.3052(8) 1.0951(7) 0.3223(7) 0.037(3) Uani 1 1 d . . .
H87 H -0.3412 1.0963 0.3634 0.044 Uiso 1 1 calc R . .
C88 C -0.2406(7) 1.0375(6) 0.2885(7) 0.033(3) Uiso 1 1 d . . .
C89 C -0.1910(8) 1.0372(7) 0.2273(6) 0.035(3) Uani 1 1 d . . .
H89 H -0.1478 0.9979 0.2017 0.042 Uiso 1 1 calc R . .
C90 C -0.2035(8) 1.0929(6) 0.2033(7) 0.034(3) Uani 1 1 d . . .
H90 H -0.1686 1.0924 0.1619 0.041 Uiso 1 1 calc R . .
O91 O -0.2565(5) 0.7116(4) 0.3848(5) 0.034(2) Uani 1 1 d . . .
N91 N -0.3018(5) 0.7022(5) 0.4375(5) 0.028(2) Uani 1 1 d . . .
C91 C -0.3660(8) 0.7515(7) 0.4808(7) 0.035(3) Uani 1 1 d . . .
H91 H -0.3769 0.7941 0.4741 0.042 Uiso 1 1 calc R . .
C92 C -0.4163(7) 0.7434(7) 0.5342(8) 0.042(4) Uani 1 1 d . . .
H92 H -0.4619 0.7794 0.5631 0.050 Uiso 1 1 calc R . .
C93 C -0.3996(8) 0.6814(8) 0.5453(7) 0.041(4) Uani 1 1 d . . .
C94 C -0.3309(8) 0.6296(7) 0.5000(8) 0.041(4) Uani 1 1 d . . .
H94 H -0.3190 0.5867 0.5060 0.049 Uiso 1 1 calc R . .
C95 C -0.2829(8) 0.6397(7) 0.44