
#######################################################################
#
#                 Cambridge Crystallographic Data Centre
#                                CCDC
#
#######################################################################
#
# If this CIF has been generated from an entry in the Cambridge
# Structural Database, then it will include bibliographic, chemical,
# crystal, experimental, refinement or atomic coordinate data resulting
# from the CCDC's data processing and validation procedures.
#
#######################################################################

data_CSD_CIF_BNZQUI03
_audit_creation_date 2002-04-24
_audit_creation_method CSD-ConQuest-V1
_database_code_CSD BNZQUI03
_database_code_depnum_ccdc_archive 'CCDC 177896'
_chemical_formula_sum 'C6 H4 O2'
_chemical_formula_moiety
;
C6 H4 O2
;
_journal_coden_Cambridge 1078
_journal_year 2002
_journal_name_full 'CSD Communication(Private Communication) '
loop_
_publ_author_name
"M.Bolte"
"G.Margraf"
"W.Lerner"
_chemical_name_systematic
;
p-Benzoquinone
;
_chemical_name_common
;
Teaching Subset: Fundamental Chemistry, Symmetry
;
_cell_volume    262.858
_exptl_crystal_colour 'yellow'
_exptl_crystal_density_diffrn 1.366
_exptl_special_details
;
contribution from Institut fuer Organische Chemie, J.-W.-Goethe-Universitaet, 
Marie-Curie-Str. 11, D-60439 Frankfurt/Main, Germany
;
_exptl_crystal_description 'needle'
_diffrn_ambient_temperature 173
#These two values have been output from a single CSD field.
_refine_ls_R_factor_gt 0.0429
_refine_ls_wR_factor_gt 0.0429
_symmetry_cell_setting monoclinic
_symmetry_space_group_name_H-M 'P 21/c'
_symmetry_Int_Tables_number 14
loop_
_symmetry_equiv_pos_site_id
_symmetry_equiv_pos_as_xyz
1 x,y,z
2 -x,1/2+y,1/2-z
3 -x,-y,-z
4 x,-1/2-y,-1/2+z
_cell_length_a 5.743(2)
_cell_length_b 6.771(2)
_cell_length_c 6.867(2)
_cell_angle_alpha 90
_cell_angle_beta 100.14(3)
_cell_angle_gamma 90
_cell_formula_units_Z 2
loop_
_atom_type_symbol
_atom_type_radius_bond
C 0.68
H 0.23
O 0.68
loop_
_atom_site_label
_atom_site_type_symbol
_atom_site_fract_x
_atom_site_fract_y
_atom_site_fract_z
O1 O 0.2558(3) 0.8176(2) 0.1177(2)
C1 C 0.1378(4) 0.6708(3) 0.0645(2)
C2 C 0.2340(3) 0.4711(3) 0.1058(2)
H1 H 0.39020 0.45590 0.17770
C3 C -0.1073(3) 0.6888(3) -0.0448(3)
H2 H -0.17500 0.81610 -0.07170
C3B C 0.1073(3) 0.3112(3) 0.0448(3)
C1B C -0.1378(4) 0.3292(3) -0.0645(2)
O1B O -0.2558(3) 0.1824(2) -0.1177(2)
C2B C -0.2340(3) 0.5289(3) -0.1058(2)
H1B H -0.39020 0.54410 -0.17770
H2B H 0.17500 0.18390 0.07170
#END
