
#######################################################################
#
#                 Cambridge Crystallographic Data Centre
#                                CCDC
#
#######################################################################
#
# If this CIF has been generated from an entry in the Cambridge
# Structural Database, then it will include bibliographic, chemical,
# crystal, experimental, refinement or atomic coordinate data resulting
# from the CCDC's data processing and validation procedures.
#
#######################################################################

data_CSD_CIF_BOBLAG
_audit_creation_date 2000-01-11
_audit_creation_method CSD-ConQuest-V1
_database_code_CSD BOBLAG
_database_code_depnum_ccdc_archive 'CCDC 121482'
_chemical_formula_sum 'C16 H12 I2'
_chemical_formula_moiety
;
C16 H12 I2
;
_journal_coden_Cambridge 4
_journal_volume 121
_journal_year 1999
_journal_page_first 4111
_journal_name_full 'J.Am.Chem.Soc. '
loop_
_publ_author_name
"P.E.Eaton"
"K.Pramod"
"T.Emrick"
"R.Gilardi"
_chemical_name_systematic
;
4,4'-Di-iodobicubyl
;
_chemical_name_common
;
1,4'-Di-iodo-p-[2]cubyl; Teaching Subset: Symmetry
;
_chemical_melting_point 466
_cell_volume   1072.401
_exptl_crystal_density_diffrn 2.128
_exptl_special_details
;
Melting point range 466-469K

;
_exptl_crystal_description 'almost-cubic chunk'
_exptl_crystal_preparation 'benzene'
_diffrn_ambient_temperature ?
_diffrn_special_details
;
The study was carried out at room temperature,in the range 283-303K

;
#These two values have been output from a single CSD field.
_refine_ls_R_factor_gt 0.0265
_refine_ls_wR_factor_gt 0.0265
_symmetry_cell_setting rhombohedral
_symmetry_space_group_name_H-M 'R -3 m'
_symmetry_Int_Tables_number 166
loop_
_symmetry_equiv_pos_site_id
_symmetry_equiv_pos_as_xyz
1 x,y,z
2 -y,x-y,z
3 -x+y,-x,z
4 y,x,-z
5 2/3+x,1/3+y,1/3+z
6 2/3-y,1/3+x-y,1/3+z
7 2/3-x+y,1/3-x,1/3+z
8 2/3+y,1/3+x,1/3-z
9 1/3+x,2/3+y,2/3+z
10 1/3+y,2/3+x,2/3-z
11 x-y,-y,-z
12 -x,-x+y,-z
13 1/3-y,2/3+x-y,2/3+z
14 1/3-x+y,2/3-x,2/3+z
15 1/3+x-y,2/3-y,2/3-z
16 1/3-x,2/3-x+y,2/3-z
17 2/3+x-y,1/3-y,1/3-z
18 2/3-x,1/3-x+y,1/3-z
19 -x,-y,-z
20 y,-x+y,-z
21 x-y,x,-z
22 -y,-x,z
23 -2/3-x,-1/3-y,-1/3-z
24 -2/3+y,-1/3-x+y,-1/3-z
25 -2/3+x-y,-1/3+x,-1/3-z
26 -2/3-y,-1/3-x,-1/3+z
27 -1/3-x,-2/3-y,-2/3-z
28 -1/3-y,-2/3-x,-2/3+z
29 -x+y,y,z
30 x,x-y,z
31 -1/3+y,-2/3-x+y,-2/3-z
32 -1/3+x-y,-2/3+x,-2/3-z
33 -1/3-x+y,-2/3+y,-2/3+z
34 -1/3+x,-2/3+x-y,-2/3+z
35 -2/3-x+y,-1/3+y,-1/3+z
36 -2/3+x,-1/3+x-y,-1/3+z
_cell_length_a 8.9775(3)
_cell_length_b 8.9775(3)
_cell_length_c 15.3644(10)
_cell_angle_alpha 90
_cell_angle_beta 90
_cell_angle_gamma 120
_cell_formula_units_Z 3
loop_
_atom_type_symbol
_atom_type_radius_bond
C 0.68
H 0.23
I 1.40
loop_
_atom_site_label
_atom_site_type_symbol
_atom_site_fract_x
_atom_site_fract_y
_atom_site_fract_z
I1 I 0.33330 0.66670 0.52810(2)
C1 C 0.33330 0.66670 0.3893(3)
C2 C 0.4156(2) 0.8313(4) 0.3313(2)
H1 H 0.4726(32) 0.9452(64) 0.3535(27)
C3 C 0.4972(3) 0.7486(2) 0.2727(2)
H2 H 0.6083(55) 0.8042(28) 0.2554(26)
C4 C 0.33330 0.66670 0.2143(3)
C2B C 0.4157(2) 0.5844(4) 0.3313(2)
C2A C 0.1687(2) 0.5843(4) 0.3313(2)
H1A H 0.0548(32) 0.5274(64) 0.3535(27)
C3A C 0.2514(3) 0.7486(2) 0.2727(2)
H2A H 0.1958(55) 0.8041(28) 0.2554(26)
C3B C 0.2514(3) 0.5028(2) 0.2727(2)
H1B H 0.4726(32) 0.5274(64) 0.3535(27)
H2B H 0.1959(55) 0.3917(28) 0.2554(26)
C4G C 0.33337 0.66663 0.119033(300)
C3G C 0.415267(300) 0.830533(200) 0.060633(200)
C2G C 0.497967(200) 0.748933(400) 0.002033(200)
C1G C 0.33337 0.66663 -0.055967(300)
I1G I 0.33337 0.66663 -0.194767(20)
C2P C 0.250967(200) 0.502033(400) 0.002033(200)
H1P H 0.194067(3200) 0.388133(6400) -0.020167(2700)
C3P C 0.415267(300) 0.584733(200) 0.060633(200)
H1G H 0.611867(3200) 0.805933(6400) -0.020167(2700)
H2P H 0.470767(5500) 0.529133(2800) 0.077933(2600)
C3Q C 0.169467(300) 0.584733(200) 0.060633(200)
C2Q C 0.251067(200) 0.749033(400) 0.002033(200)
H1Q H 0.194067(3200) 0.805933(6400) -0.020167(2700)
H2G H 0.470867(5500) 0.941633(2800) 0.077933(2600)
H2Q H 0.058367(5500) 0.529233(2800) 0.077933(2600)
#END
