
#######################################################################
#
#                 Cambridge Crystallographic Data Centre
#                                CCDC
#
#######################################################################
#
# If this CIF has been generated from an entry in the Cambridge
# Structural Database, then it will include bibliographic, chemical,
# crystal, experimental, refinement or atomic coordinate data resulting
# from the CCDC's data processing and validation procedures.
#
#######################################################################

data_CSD_CIF_BOCNEM
_audit_creation_date 1983-06-14
_audit_creation_method CSD-ConQuest-V1
_database_code_CSD BOCNEM
_database_code_depnum_ccdc_archive 'CCDC 1112892'
_chemical_formula_sum 'C6 H4.34 N3 O8.67'
_chemical_formula_moiety
;
C6 H3 N3 O8,0.67(H2 O1)
;
_journal_coeditor_code "IUCr A21675"
_journal_coden_Cambridge 107
_journal_volume 38
_journal_year 1982
_journal_page_first 3097
_journal_name_full 'Acta Crystallogr.,Sect.B:Struct.Crystallogr.Cryst.Chem. '
loop_
_publ_author_name
"M.A.Pierce-Butler"
_chemical_name_systematic
;
2,4,6-Trinitro-1,3-benzenediol hydrate
;
_chemical_name_common
;
Styphnic acid hydrate; Teaching Subset: Fundamental Chemistry
;
_cell_volume   1392.372
_exptl_crystal_colour 'pale yellow'
_exptl_crystal_density_diffrn 1.84
_exptl_special_details
;
Isomorphous with the triol analogue

;
_exptl_crystal_description 'hexagonal tablets'
_exptl_crystal_preparation 'DMSO'
_diffrn_ambient_temperature ?
_diffrn_special_details
;
The study was carried out at room temperature,in the range 283-303K

;
#These two values have been output from a single CSD field.
_refine_ls_R_factor_gt 0.042
_refine_ls_wR_factor_gt 0.042
_symmetry_cell_setting hexagonal
_symmetry_space_group_name_H-M 'P -3 c 1'
_symmetry_Int_Tables_number 165
loop_
_symmetry_equiv_pos_site_id
_symmetry_equiv_pos_as_xyz
1 x,y,z
2 -y,x-y,z
3 -x+y,-x,z
4 y,x,1/2-z
5 x-y,-y,1/2-z
6 -x,-x+y,1/2-z
7 -x,-y,-z
8 y,-x+y,-z
9 x-y,x,-z
10 -y,-x,-1/2+z
11 -x+y,y,-1/2+z
12 x,x-y,-1/2+z
_cell_length_a 12.6077(4)
_cell_length_b 12.6077(4)
_cell_length_c 10.1147(15)
_cell_angle_alpha 90
_cell_angle_beta 90
_cell_angle_gamma 120
_cell_formula_units_Z 6
loop_
_atom_type_symbol
_atom_type_radius_bond
C 0.68
H 0.23
N 0.68
O 0.68
loop_
_atom_site_label
_atom_site_type_symbol
_atom_site_fract_x
_atom_site_fract_y
_atom_site_fract_z
O1 O 0.66670 0.33330 0.10470
O2 O 0.35970 0.52680 0.10900
N1 N 0.12690 0.29590 0.09380
O3 O 0.03240 0.19760 0.09830
O4 O 0.14020 0.38100 0.02210
N2 N 0.55140 0.55140 0.25000
O5 O 0.55280 0.64000 0.29980
C1 C 0.33880 0.42720 0.17480
C2 C 0.22970 0.31400 0.17550
C3 C 0.21800 0.21800 0.25000
C4 C 0.43500 0.43500 0.25000
H1 H 0.14700 0.14700 0.25000
H2 H 0.30500 0.50900 0.05200
C2C C 0.31400 0.22970 0.32450
C1C C 0.42720 0.33880 0.32520
O5C O 0.64000 0.55280 0.20020
N1C N 0.29590 0.12690 0.40620
O2C O 0.52680 0.35970 0.39100
O3C O 0.19760 0.03240 0.40170
O4C O 0.38100 0.14020 0.47790
H2C H 0.50900 0.30500 0.44800
#END
