
#######################################################################
#
#                 Cambridge Crystallographic Data Centre
#                                CCDC
#
#######################################################################
#
# If this CIF has been generated from an entry in the Cambridge
# Structural Database, then it will include bibliographic, chemical,
# crystal, experimental, refinement or atomic coordinate data resulting
# from the CCDC's data processing and validation procedures.
#
#######################################################################

data_CSD_CIF_BOFSAQ
_audit_creation_date 1983-06-14
_audit_creation_method CSD-ConQuest-V1
_database_code_CSD BOFSAQ
_database_code_depnum_ccdc_archive 'CCDC 1113088'
_chemical_formula_sum 'C48 H72 Mg3 O6'
_chemical_formula_moiety
;
C48 H72 Mg3 O6
;
_journal_coden_Cambridge 186
_journal_year 1982
_journal_page_first 1959
_journal_name_full 'J.Chem.Soc.,Dalton Trans. '
loop_
_publ_author_name
"M.F.Lappert"
"T.R.Martin"
"C.L.Raston"
"B.W.Skelton"
"A.H.White"
_chemical_name_systematic
;
Cyclo-tris(\m~2~-(o-phenylenedimethylene)-bis(tetrahydrofuran)-magnesium)
;
_chemical_name_common
;
Teaching Subset: Fundamental Chemistry, Symmetry
;
_cell_volume   9796.685
_exptl_crystal_colour 'colorless'
_exptl_crystal_density_diffrn 1.11
_diffrn_ambient_temperature ?
_diffrn_special_details
;
The study was carried out at room temperature,in the range 283-303K

;
#These two values have been output from a single CSD field.
_refine_ls_R_factor_gt 0.054
_refine_ls_wR_factor_gt 0.054
_symmetry_cell_setting orthorhombic
_symmetry_space_group_name_H-M 'F 2 d d'
_symmetry_Int_Tables_number 43
loop_
_symmetry_equiv_pos_site_id
_symmetry_equiv_pos_as_xyz
1 x,y,z
2 x,1/2+y,1/2+z
3 1/2+x,y,1/2+z
4 1/2+x,1/2+y,z
5 1/4+x,1/4-y,1/4+z
6 1/4+x,3/4-y,3/4+z
7 3/4+x,1/4-y,3/4+z
8 3/4+x,3/4-y,1/4+z
9 1/4+x,1/4+y,1/4-z
10 1/4+x,3/4+y,3/4-z
11 3/4+x,1/4+y,3/4-z
12 3/4+x,3/4+y,1/4-z
13 1/2+x,1/2-y,-z
14 1/2+x,-y,1/2-z
15 x,1/2-y,1/2-z
16 x,-y,-z
_cell_length_a 24.706(8)
_cell_length_b 8.948(3)
_cell_length_c 44.315(9)
_cell_angle_alpha 90
_cell_angle_beta 90
_cell_angle_gamma 90
_cell_formula_units_Z 8
loop_
_atom_type_symbol
_atom_type_radius_bond
C 0.68
H 0.23
Mg 1.10
O 0.68
loop_
_atom_site_label
_atom_site_type_symbol
_atom_site_fract_x
_atom_site_fract_y
_atom_site_fract_z
Mg1 Mg 0.00000 0.00000 0.00000
O1 O -0.05720 0.05390 -0.03250
C1 C -0.04730 0.15710 -0.05620
C2 C -0.07760 0.10520 -0.08220
C3 C -0.11010 -0.01430 -0.07380
C4 C -0.10100 -0.04420 -0.04250
O2 O 0.16760 0.37160 0.06120
C5 C 0.15850 0.41820 0.09130
C6 C 0.13740 0.56650 0.09030
C7 C 0.12560 0.60370 0.05980
C8 C 0.14780 0.48890 0.04160
C9 C -0.01640 0.39460 0.08320
C10 C -0.00630 0.35980 0.05310
C11 C 0.02920 0.24650 0.04430
C12 C 0.03900 0.20640 0.01240
C13 C 0.35920 0.07680 -0.00010
C14 C 0.31040 0.14990 0.00010
C15 C 0.25970 0.07870 0.00020
C16 C 0.20890 0.16310 0.00210
Mg2 Mg 0.17000 0.15380 0.04592
O3 O 0.22800 0.08770 0.07720
C17 C 0.27910 0.15790 0.08070
C18 C 0.31670 0.04820 0.09020
C19 C 0.28850 -0.08730 0.09310
C20 C 0.23400 -0.06350 0.08530
C21 C 0.00770 0.31080 0.10490
C22 C 0.04270 0.19970 0.09690
C23 C 0.05400 0.16370 0.06730
C24 C 0.09560 0.04790 0.05980
H1 H -0.04200 0.47900 0.08800
H2 H -0.02600 0.41700 0.03700
H3 H 0.00200 0.33700 0.12500
H4 H 0.05900 0.14100 0.11400
H5 H 0.39300 0.13600 0.00000
H6 H 0.30900 0.26400 0.00000
H7 H -0.05600 0.25600 -0.05100
H8 H -0.00800 0.15700 -0.06100
H9 H -0.10100 0.18400 -0.09000
H10 H -0.05400 0.07700 -0.09900
H11 H -0.14700 0.00300 -0.07800
H12 H -0.10000 -0.10400 -0.08600
H13 H -0.09200 -0.14900 -0.03800
H14 H 0.13100 0.35000 0.10000
H15 H 0.19000 0.41200 0.10300
H16 H 0.10400 0.57800 0.10300
H17 H 0.16200 0.63900 0.09800
H18 H 0.08300 0.60200 0.05600
H19 H 0.13500 0.70100 0.05300
H20 H 0.12100 0.44900 0.02700
H21 H 0.17600 0.53200 0.03000
H22 H 0.29100 0.19900 0.06100
H23 H 0.27600 0.24300 0.09400
H24 H 0.34800 0.04300 0.07900
H25 H 0.32900 0.07700 0.11100
H26 H 0.30300 -0.16200 0.07800
H27 H 0.29100 -0.13700 0.11200
H28 H 0.22200 -0.12900 0.06900
H29 H 0.21100 -0.08700 0.10200
H30 H 0.07700 0.20300 0.00800
H31 H 0.02400 0.28800 -0.00100
H32 H 0.08300 -0.01900 0.04400
H33 H 0.10300 -0.01400 0.07700
H34 H 0.18300 0.12400 -0.01300
H35 H 0.21400 0.26700 -0.00400
O1O O -0.05720 -0.05390 0.03250
C12O C 0.03900 -0.20640 -0.01240
C15O C 0.25970 -0.07870 -0.00020
C13O C 0.35920 -0.07680 0.00010
C1O C -0.04730 -0.15710 0.05620
C4O C -0.10100 0.04420 0.04250
C11O C 0.02920 -0.24650 -0.04430
H30O H 0.07700 -0.20300 -0.00800
H31O H 0.02400 -0.28800 0.00100
C14O C 0.31040 -0.14990 -0.00010
C16O C 0.20890 -0.16310 -0.00210
H5O H 0.39300 -0.13600 0.00000
C2O C -0.07760 -0.10520 0.08220
H7O H -0.05600 -0.25600 0.05100
H8O H -0.00800 -0.15700 0.06100
C3O C -0.11010 0.01430 0.07380
H13O H -0.09200 0.14900 0.03800
C10O C -0.00630 -0.35980 -0.05310
C23O C 0.05400 -0.16370 -0.06730
H6O H 0.30900 -0.26400 0.00000
Mg2O Mg 0.17000 -0.15380 -0.04592
H34O H 0.18300 -0.12400 0.01300
H35O H 0.21400 -0.26700 0.00400
H9O H -0.10100 -0.18400 0.09000
H10O H -0.05400 -0.07700 0.09900
H11O H -0.14700 -0.00300 0.07800
H12O H -0.10000 0.10400 0.08600
C9O C -0.01640 -0.39460 -0.08320
H2O H -0.02600 -0.41700 -0.03700
C22O C 0.04270 -0.19970 -0.09690
C24O C 0.09560 -0.04790 -0.05980
O2O O 0.16760 -0.37160 -0.06120
O3O O 0.22800 -0.08770 -0.07720
C21O C 0.00770 -0.31080 -0.10490
H1O H -0.04200 -0.47900 -0.08800
H4O H 0.05900 -0.14100 -0.11400
H32O H 0.08300 0.01900 -0.04400
H33O H 0.10300 0.01400 -0.07700
C5O C 0.15850 -0.41820 -0.09130
C8O C 0.14780 -0.48890 -0.04160
C17O C 0.27910 -0.15790 -0.08070
C20O C 0.23400 0.06350 -0.08530
H3O H 0.00200 -0.33700 -0.12500
C6O C 0.13740 -0.56650 -0.09030
H14O H 0.13100 -0.35000 -0.10000
H15O H 0.19000 -0.41200 -0.10300
C7O C 0.12560 -0.60370 -0.05980
H20O H 0.12100 -0.44900 -0.02700
H21O H 0.17600 -0.53200 -0.03000
C18O C 0.31670 -0.04820 -0.09020
H22O H 0.29100 -0.19900 -0.06100
H23O H 0.27600 -0.24300 -0.09400
C19O C 0.28850 0.08730 -0.09310
H28O H 0.22200 0.12900 -0.06900
H29O H 0.21100 0.08700 -0.10200
H16O H 0.10400 -0.57800 -0.10300
H17O H 0.16200 -0.63900 -0.09800
H18O H 0.08300 -0.60200 -0.05600
H19O H 0.13500 -0.70100 -0.05300
H24O H 0.34800 -0.04300 -0.07900
H25O H 0.32900 -0.07700 -0.11100
H26O H 0.30300 0.16200 -0.07800
H27O H 0.29100 0.13700 -0.11200
#END
