####################################################################### 
# 
# This file contains crystal structure data downloaded from the 
# Cambridge Structural Database (CSD) hosted by the Cambridge 
# Crystallographic Data Centre (CCDC).
# 
# Full information about CCDC data access policies and citation 
# guidelines are available at http://www.ccdc.cam.ac.uk/access/V1 
# 
# Audit and citation data items may have been added by the CCDC. 
# Please retain this information to preserve the provenance of 
# this file and to allow appropriate attribution of the data. 
# 
#######################################################################

data_fd154
_audit_block_doi                 10.5517/ccrtg88
_database_code_depnum_ccdc_archive 'CCDC 709660'
loop_
_citation_id
_citation_doi
_citation_year
1 10.1021/ic800693r 2008
_audit_update_record             
;
2008-11-14 deposited with the CCDC.	2024-07-08 downloaded from the CCDC.
;

#===============================================================================

_audit_creation_date             'Mar 12 12:30:52 2008'
_audit_creation_method           'PLATON <TABLE ACC> option'

# 5. CHEMICAL DATA

_chemical_name_systematic        
;
;
_chemical_name_common            ?
_chemical_melting_point          ?
_chemical_formula_moiety         'C26 H33 Mo N O8 Rh, 4(C4 H8 O)'
# Ex: 'C12 H16 N2 O6, H2 O' and '(Cd 2+)3, (C6 N6 Cr 3-)2, 2(H2 O)'
_chemical_formula_structural     'C26 H33 Mo N O8 Rh, 4(C4 H8 O)'
_chemical_formula_sum            'C42 H65 Mo N O12 Rh'
_chemical_formula_iupac          ?
_chemical_formula_weight         974.80
_chemical_compound_source        'see text'

loop_
_atom_type_symbol
_atom_type_description
_atom_type_scat_dispersion_real
_atom_type_scat_dispersion_imag
_atom_type_scat_source
Rh Rh 0.0927 3.6045 'International Tables Vol C Tables 4.2.6.8 and 6.1.1.4'
O O 0.0492 0.0322 'International Tables Vol C Tables 4.2.6.8 and 6.1.1.4'
N N 0.0311 0.0180 'International Tables Vol C Tables 4.2.6.8 and 6.1.1.4'
Mo Mo -0.0483 2.7339 'International Tables Vol C Tables 4.2.6.8 and 6.1.1.4'
H H 0.0000 0.0000 'International Tables Vol C Tables 4.2.6.8 and 6.1.1.4'
C C 0.0181 0.0091 'International Tables Vol C Tables 4.2.6.8 and 6.1.1.4'

#===============================================================================

# 6. CRYSTAL DATA

_symmetry_cell_setting           Triclinic
_symmetry_space_group_name_Hall  '-P 1'
_symmetry_space_group_name_H-M   'P -1'
_symmetry_Int_Tables_number      2

loop_
_symmetry_equiv_pos_site_id
_symmetry_equiv_pos_as_xyz
1 x,y,z
2 -x,-y,-z

_cell_length_a                   12.5330(7)
_cell_length_b                   13.2410(7)
_cell_length_c                   14.6756(6)
_cell_angle_alpha                94.455(4)
_cell_angle_beta                 99.593(4)
_cell_angle_gamma                109.179(5)
_cell_volume                     2245.0(2)
_cell_formula_units_Z            2
_cell_measurement_temperature    123
_cell_measurement_reflns_used    6178
_cell_measurement_theta_min      3.0853
_cell_measurement_theta_max      62.3928
_cell_special_details            
;
;

_exptl_crystal_description       platelike
_exptl_crystal_colour            'red to orange'

_exptl_crystal_size_max          0.120
_exptl_crystal_size_mid          0.070
_exptl_crystal_size_min          0.040
_exptl_crystal_size_rad          ?
_exptl_crystal_density_meas      ?
_exptl_crystal_density_diffrn    1.443
_exptl_crystal_density_method    'Not Measured'
_exptl_crystal_F_000             1014
_exptl_absorpt_coefficient_mu    5.753
_exptl_crystal_density_meas_temp ?

# Permitted for
# analytical 'analytical from crystal shape'
# Example: de Meulenaer&Tompa: ABST
# cylinder 'cylindrical'
# gaussian 'Gaussian from crystal shape'
# Example: PLATON/ABSG
# integration 'integration from crystal shape'
# multi-scan 'symmetry-related measurements'
# Example: SADABS, MULABS
# none 'no absorption corr. applied'
# numerical 'numerical from crystal shape'
# psi-scan 'psi-scan corrections'
# Example: PLATON/ABSP
# refdelf 'refined from delta-F'
# Example: SHELXA, DIFABS, DELABS
# sphere 'spherical'
# Example: PLATON/ABSS
_exptl_absorpt_correction_type   multi-scan
_exptl_absorpt_process_details   
;
CrysAlis RED, Oxford Diffraction Ltd.,
Version 1.171.32.15 (release 10-01-2008 CrysAlis171 .NET)
Empirical absorption correction using spherical harmonics,
implemented in SCALE3 ABSPACK scaling algorithm.
;
_exptl_absorpt_correction_T_min  0.71282
_exptl_absorpt_correction_T_max  1.00000

#===============================================================================

# 7. EXPERIMENTAL DATA

_exptl_special_details           
;
;
_diffrn_ambient_temperature      123
_diffrn_radiation_wavelength     1.54178
_diffrn_radiation_probe          x-ray
_diffrn_radiation_type           CuK\a
_diffrn_radiation_source         'Enhance (Cu) X-ray Source'
_diffrn_radiation_monochromator  mirror

_diffrn_measurement_device_type  'Oxford Diffraction Gemini Ultra'
_diffrn_measurement_method       omega-scan
_diffrn_detector_area_resol_mean 10.5431

_diffrn_standards_number         0
_diffrn_standards_interval_count .
_diffrn_standards_interval_time  .
_diffrn_standards_decay_%        0

loop_
_diffrn_standard_refln_index_h
_diffrn_standard_refln_index_k
_diffrn_standard_refln_index_l
? ? ?

# number of measured reflections (redundant set)
_diffrn_reflns_number            14554
_diffrn_reflns_av_R_equivalents  0.0557
_diffrn_reflns_av_sigmaI/netI    0.0660
_diffrn_reflns_limit_h_min       -11
_diffrn_reflns_limit_h_max       14
_diffrn_reflns_limit_k_min       -14
_diffrn_reflns_limit_k_max       15
_diffrn_reflns_limit_l_min       -16
_diffrn_reflns_limit_l_max       16
_diffrn_reflns_theta_min         3.09
_diffrn_reflns_theta_max         62.60
_diffrn_reflns_theta_full        62.60
_diffrn_measured_fraction_theta_max 0.936
_diffrn_measured_fraction_theta_full 0.936
_diffrn_reflns_reduction_process 
;
;

# number of unique reflections
_reflns_number_total             6714
# number of observed reflections (> n sig(I))
_reflns_number_gt                4620
_reflns_threshold_expression     I>2\s(I)

_computing_data_collection       
;
CrysAlis CCD, Oxford Diffraction Ltd.,
Version 1.171.32.15 (release 10-01-2008 CrysAlis171 .NET)
;
_computing_cell_refinement       
;
CrysAlis RED, Oxford Diffraction Ltd.,
Version 1.171.32.15 (release 10-01-2008 CrysAlis171 .NET)
;
_computing_data_reduction        
;
CrysAlis RED, Oxford Diffraction Ltd.,
Version 1.171.32.15 (release 10-01-2008 CrysAlis171 .NET)
;
_computing_structure_solution    'SIR-97 (Altomare, 1999)'
_computing_structure_refinement  'SHELXL-97 (Sheldrick, 1997)'
_computing_molecular_graphics    'PLATON (Spek, 1990)'
_computing_publication_material  'PLATON (Spek, 2003)'

#===============================================================================

# 8. REFINEMENT DATA

_refine_special_details          
;
Refinement on F^2^ for ALL reflections except those
flagged by the user for potential systematic errors.
Weighted R-factors wR and all goodnesses of fit S
are based on F^2^, conventional R-factors R are based
on F, with F set to zero for negative F^2^. The
observed criterion of F^2^ > 2sigma(F^2^) is used only
for calculating -R-factor-obs etc. and is not
relevant to the choice of reflections for refinement.
R-factors based on F^2^ are statistically about twice
as large as those based on F, and R-factors based on
ALL data will be even larger.
;
_refine_ls_structure_factor_coef Fsqd
_refine_ls_matrix_type           full
_refine_ls_weighting_scheme      calc
_refine_ls_weighting_details     
'calc w=1/[\s^2^(Fo^2^)+(0.0844P)^2^+26.1207P] where P=(Fo^2^+2Fc^2^)/3'
_atom_sites_solution_primary     direct
_atom_sites_solution_secondary   difmap
_atom_sites_solution_hydrogens   geom


# Permitted for _refine_ls_hydrogen_treatment :
# refall - refined all H parameters
# refxyz - refined H coordinates only
# refU - refined H U only
# noref - no refinement of H parameters
# constr - H parameters constrained
# mixed - some constrained, some independent
# undef - H-atom parameters not defined
_refine_ls_hydrogen_treatment    constr

_refine_ls_extinction_method     none
_refine_ls_abs_structure_details ?
_refine_ls_abs_structure_Flack   .
_refine_ls_number_reflns         6714
_refine_ls_number_parameters     497
_refine_ls_number_restraints     0
_refine_ls_number_constraints    ?
_refine_ls_R_factor_all          0.1223
_refine_ls_R_factor_gt           0.0815
_refine_ls_wR_factor_ref         0.2246
_refine_ls_wR_factor_gt          0.2068
_refine_ls_goodness_of_fit_ref   1.073
_refine_ls_restrained_S_all      1.073
_refine_ls_shift/su_max          0.000
_refine_ls_shift/su_mean         0.000
_refine_diff_density_max         1.876
_refine_diff_density_min         -0.711
_refine_diff_density_rms         0.162

#===============================================================================

# 9. ATOMIC COORDINATES AND DISPLACEMENT PARAMETERS

loop_
_atom_site_label
_atom_site_type_symbol
_atom_site_thermal_displace_type
_atom_site_fract_x
_atom_site_fract_y
_atom_site_fract_z
_atom_site_occupancy
_atom_site_U_iso_or_equiv
_atom_site_calc_flag
_atom_site_refinement_flags
Rh1 Rh Uani 0.94770(7) 0.00291(7) 0.06091(5) 1.000 0.0396(3) . .
Mo1 Mo Uani 0.53997(7) -0.04537(7) 0.54009(6) 1.000 0.0354(3) . .
O1 O Uani 0.4215(6) -0.1912(6) 0.4651(5) 1.000 0.042(2) . .
O2 O Uani 0.3376(6) -0.0959(6) 0.3780(5) 1.000 0.036(2) . .
O3 O Uani 0.4333(6) -0.0531(6) 0.6395(5) 1.000 0.037(2) . .
O4 O Uani 0.6504(6) -0.0434(6) 0.4438(5) 1.000 0.036(2) . .
O5 O Uani 0.8210(7) -0.1330(6) -0.0103(5) 1.000 0.046(3) . .
O6 O Uani 1.0260(6) -0.0908(6) 0.1278(5) 1.000 0.039(2) . .
O7 O Uani 1.0823(7) 0.1380(6) 0.1258(5) 1.000 0.044(3) . .
O8 O Uani 0.8748(6) 0.0965(6) -0.0123(5) 1.000 0.038(2) . .
N1 N Uani 0.8483(7) 0.0061(7) 0.1722(6) 1.000 0.035(3) . .
C1 C Uani 0.3452(9) -0.1846(10) 0.3982(7) 1.000 0.041(4) . .
C2 C Uani 0.2564(11) -0.2878(10) 0.3451(8) 1.000 0.051(4) . .
C3 C Uani 0.2914(13) -0.3547(11) 0.2869(9) 1.000 0.060(5) . .
C4 C Uani 0.2040(18) -0.4504(12) 0.2395(10) 1.000 0.085(7) . .
C5 C Uani 0.0916(18) -0.4808(14) 0.2517(12) 1.000 0.090(7) . .
C6 C Uani 0.0631(14) -0.4113(13) 0.3098(10) 1.000 0.073(6) . .
C7 C Uani 0.1425(12) -0.3161(12) 0.3564(9) 1.000 0.060(5) . .
C8 C Uani 0.4162(14) -0.3220(13) 0.2746(11) 1.000 0.077(6) . .
C9 C Uani 0.4340(16) -0.269(2) 0.1908(18) 1.000 0.125(10) . .
C10 C Uani 0.459(2) -0.418(2) 0.273(2) 1.000 0.156(17) . .
C11 C Uani 0.003(2) -0.5888(15) 0.2055(15) 1.000 0.141(9) . .
C12 C Uani -0.019(2) -0.6115(15) 0.1114(14) 1.000 0.127(9) . .
C13 C Uani 0.011(2) -0.6750(14) 0.2628(13) 1.000 0.115(9) . .
C14 C Uani 0.1042(11) -0.2434(14) 0.4195(10) 1.000 0.071(6) . .
C15 C Uani 0.077(2) -0.292(2) 0.5078(13) 1.000 0.136(12) . .
C16 C Uani 0.0003(14) -0.2187(15) 0.3710(11) 1.000 0.083(6) . .
C17 C Uani 0.6420(8) 0.0056(9) 0.3773(7) 1.000 0.038(3) . .
C18 C Uani 0.7140(9) 0.0071(9) 0.3059(7) 1.000 0.039(3) . .
C19 C Uani 0.7122(10) 0.0672(10) 0.2353(8) 1.000 0.046(4) . .
C20 C Uani 0.7799(10) 0.0664(10) 0.1695(8) 1.000 0.050(4) . .
C21 C Uani 0.7830(10) -0.0536(11) 0.3091(8) 1.000 0.046(4) . .
C22 C Uani 0.8492(11) -0.0511(10) 0.2406(8) 1.000 0.047(4) . .
C23 C Uani 1.1678(11) 0.1736(10) 0.0874(9) 1.000 0.054(4) . .
C24 C Uani 1.2640(12) 0.2721(12) 0.1379(10) 1.000 0.070(5) . .
C25 C Uani 1.0968(10) -0.1218(9) 0.0886(8) 1.000 0.044(4) . .
C26 C Uani 1.1537(11) -0.1901(11) 0.1384(8) 1.000 0.052(4) . .
O9 O Uani 0.3239(8) 0.1388(7) 0.3770(6) 1.000 0.055(3) . .
C27 C Uani 0.2030(12) 0.0756(13) 0.3412(10) 1.000 0.069(5) . .
C28 C Uani 0.1359(16) 0.1097(16) 0.4022(16) 1.000 0.111(9) . .
C29 C Uani 0.2125(15) 0.2144(14) 0.4539(12) 1.000 0.085(7) . .
C30 C Uani 0.3238(12) 0.2370(11) 0.4247(11) 1.000 0.064(5) . .
O10 O Uani 0.2211(16) -0.4685(16) -0.3526(16) 1.000 0.167(9) . .
C31 C Uani 0.249(3) -0.506(2) -0.428(3) 1.000 0.169(14) . .
C32 C Uani 0.3698(19) -0.4323(17) -0.4341(16) 1.000 0.103(9) . .
C33 C Uani 0.407(2) -0.3562(17) -0.3424(17) 1.000 0.118(10) . .
C34 C Uani 0.307(2) -0.372(3) -0.303(2) 1.000 0.165(15) . .
O11 O Uani 0.3360(15) 0.4811(17) 0.9954(12) 1.000 0.153(9) . .
C35 C Uani 0.235(2) 0.480(3) 0.9649(16) 1.000 0.143(12) . .
C36 C Uani 0.172(2) 0.383(2) 0.8979(19) 1.000 0.138(11) . .
C37 C Uani 0.262(2) 0.348(2) 0.8665(17) 1.000 0.133(11) . .
C38 C Uani 0.369(2) 0.425(3) 0.923(2) 1.000 0.201(16) . .
O12 O Uiso 0.5046(15) 0.8313(13) 0.8546(12) 1.000 0.131(5) . .
C39 C Uiso 0.591(2) 0.9343(17) 0.8562(15) 1.000 0.111(6) . .
C40 C Uiso 0.574(3) 0.991(3) 0.951(3) 1.000 0.203(15) . .
C41 C Uiso 0.547(5) 0.877(5) 1.006(4) 1.000 0.33(3) . .
C42 C Uiso 0.462(2) 0.790(2) 0.9234(18) 1.000 0.135(8) . .
H4 H Uiso 0.22340 -0.49630 0.19710 1.000 0.1010 calc R
H6 H Uiso -0.01440 -0.43030 0.31780 1.000 0.0880 calc R
H8 H Uiso 0.46500 -0.26820 0.33010 1.000 0.0920 calc R
H9A H Uiso 0.38430 -0.31850 0.13510 1.000 0.1860 calc R
H9B H Uiso 0.51490 -0.25030 0.18570 1.000 0.1860 calc R
H9C H Uiso 0.41440 -0.20330 0.19600 1.000 0.1860 calc R
H10A H Uiso 0.39590 -0.48310 0.24030 1.000 0.2360 calc R
H10B H Uiso 0.48520 -0.42820 0.33700 1.000 0.2360 calc R
H10C H Uiso 0.52310 -0.40320 0.23990 1.000 0.2360 calc R
H11 H Uiso -0.06990 -0.58020 0.21650 1.000 0.1680 calc R
H12A H Uiso -0.09040 -0.67370 0.09040 1.000 0.1910 calc R
H12B H Uiso 0.04500 -0.62840 0.09170 1.000 0.1910 calc R
H12C H Uiso -0.02750 -0.54880 0.08390 1.000 0.1910 calc R
H13A H Uiso 0.08710 -0.68210 0.26680 1.000 0.1740 calc R
H13B H Uiso -0.04910 -0.74360 0.23360 1.000 0.1740 calc R
H13C H Uiso 0.00060 -0.65580 0.32580 1.000 0.1740 calc R
H14 H Uiso 0.16990 -0.17330 0.43940 1.000 0.0840 calc R
H15A H Uiso 0.14700 -0.29610 0.54530 1.000 0.2020 calc R
H15B H Uiso 0.01830 -0.36410 0.49020 1.000 0.2020 calc R
H15C H Uiso 0.04720 -0.24550 0.54440 1.000 0.2020 calc R
H16A H Uiso -0.02310 -0.17570 0.41610 1.000 0.1250 calc R
H16B H Uiso -0.06370 -0.28650 0.34610 1.000 0.1250 calc R
H16C H Uiso 0.02070 -0.17800 0.31980 1.000 0.1250 calc R
H19 H Uiso 0.66440 0.11000 0.23080 1.000 0.0560 calc R
H20 H Uiso 0.77790 0.10970 0.12110 1.000 0.0600 calc R
H21 H Uiso 0.78640 -0.09720 0.35720 1.000 0.0550 calc R
H22 H Uiso 0.89740 -0.09360 0.24410 1.000 0.0560 calc R
H24A H Uiso 1.32800 0.25150 0.16850 1.000 0.1040 calc R
H24B H Uiso 1.23680 0.30840 0.18510 1.000 0.1040 calc R
H24C H Uiso 1.29060 0.32130 0.09330 1.000 0.1040 calc R
H26A H Uiso 1.20030 -0.21270 0.09930 1.000 0.0780 calc R
H26B H Uiso 1.09470 -0.25410 0.15120 1.000 0.0780 calc R
H26C H Uiso 1.20340 -0.14860 0.19740 1.000 0.0780 calc R
H27A H Uiso 0.19010 -0.00230 0.34070 1.000 0.0820 calc R
H27B H Uiso 0.17890 0.08790 0.27640 1.000 0.0820 calc R
H28A H Uiso 0.06580 0.11650 0.36480 1.000 0.1330 calc R
H28B H Uiso 0.11240 0.05690 0.44560 1.000 0.1330 calc R
H29A H Uiso 0.22270 0.21200 0.52200 1.000 0.1020 calc R
H29B H Uiso 0.17990 0.27130 0.43930 1.000 0.1020 calc R
H30A H Uiso 0.33380 0.29290 0.38270 1.000 0.0770 calc R
H30B H Uiso 0.38810 0.26380 0.48000 1.000 0.0770 calc R
H31A H Uiso 0.19250 -0.50660 -0.48460 1.000 0.2060 calc .
H31B H Uiso 0.24770 -0.58040 -0.42480 1.000 0.2060 calc .
H32A H Uiso 0.42200 -0.47400 -0.43830 1.000 0.1240 calc .
H32B H Uiso 0.36760 -0.39260 -0.48840 1.000 0.1240 calc .
H33A H Uiso 0.46710 -0.37210 -0.29940 1.000 0.1420 calc .
H33B H Uiso 0.43830 -0.28040 -0.35370 1.000 0.1420 calc .
H34A H Uiso 0.32580 -0.37900 -0.23580 1.000 0.1960 calc .
H34B H Uiso 0.28040 -0.31020 -0.30870 1.000 0.1960 calc .
H35A H Uiso 0.23800 0.54460 0.93460 1.000 0.1710 calc R
H35B H Uiso 0.19440 0.48070 1.01750 1.000 0.1710 calc R
H36A H Uiso 0.12310 0.39890 0.84450 1.000 0.1640 calc R
H36B H Uiso 0.12170 0.32630 0.92760 1.000 0.1640 calc R
H37A H Uiso 0.25300 0.27310 0.87830 1.000 0.1590 calc R
H37B H Uiso 0.25980 0.35140 0.79900 1.000 0.1590 calc R
H38A H Uiso 0.41080 0.47680 0.88500 1.000 0.2380 calc R
H38B H Uiso 0.42030 0.38760 0.95110 1.000 0.2380 calc R
H39A H Uiso 0.57310 0.96940 0.80140 1.000 0.1330 calc R
H39B H Uiso 0.66920 0.93030 0.86180 1.000 0.1330 calc R
H40A H Uiso 0.50730 1.01660 0.94030 1.000 0.2440 calc R
H40B H Uiso 0.64430 1.05080 0.98390 1.000 0.2440 calc R
H41A H Uiso 0.61780 0.86080 1.02720 1.000 0.4000 calc R
H41B H Uiso 0.50920 0.88300 1.05920 1.000 0.4000 calc R
H42A H Uiso 0.46770 0.71770 0.92810 1.000 0.1620 calc R
H42B H Uiso 0.38150 0.78610 0.91910 1.000 0.1620 calc R

loop_
_atom_site_aniso_label
_atom_site_aniso_U_11
_atom_site_aniso_U_22
_atom_site_aniso_U_33
_atom_site_aniso_U_23
_atom_site_aniso_U_13
_atom_site_aniso_U_12
Rh1 0.0368(5) 0.0529(6) 0.0341(5) 0.0019(4) 0.0126(4) 0.0207(4)
Mo1 0.0310(5) 0.0522(6) 0.0286(4) 0.0022(4) 0.0082(4) 0.0218(4)
O1 0.039(4) 0.046(4) 0.039(4) -0.002(3) 0.014(4) 0.013(3)
O2 0.038(4) 0.042(4) 0.033(4) 0.002(3) 0.007(3) 0.020(3)
O3 0.027(4) 0.048(4) 0.032(4) 0.005(3) 0.013(3) 0.005(3)
O4 0.033(4) 0.050(4) 0.028(4) 0.008(3) 0.012(3) 0.017(3)
O5 0.040(5) 0.049(5) 0.045(4) -0.001(3) 0.011(4) 0.012(4)
O6 0.040(4) 0.046(4) 0.035(4) 0.001(3) 0.018(3) 0.017(3)
O7 0.044(5) 0.046(4) 0.040(4) 0.000(3) 0.002(4) 0.017(4)
O8 0.040(4) 0.048(4) 0.032(4) 0.001(3) 0.017(3) 0.020(3)
N1 0.026(5) 0.053(5) 0.036(5) 0.008(4) 0.005(4) 0.027(4)
C1 0.029(6) 0.076(9) 0.021(5) 0.001(5) 0.002(5) 0.027(6)
C2 0.052(8) 0.052(7) 0.046(7) 0.002(5) 0.015(6) 0.012(6)
C3 0.067(9) 0.060(8) 0.053(8) 0.000(6) -0.002(7) 0.031(7)
C4 0.127(17) 0.057(9) 0.058(9) -0.010(7) -0.003(10) 0.031(10)
C5 0.090(14) 0.071(11) 0.074(11) 0.018(9) -0.011(10) -0.007(10)
C6 0.060(10) 0.080(10) 0.058(9) 0.013(8) -0.009(7) 0.00