####################################################################### 
# 
# This file contains crystal structure data downloaded from the 
# Cambridge Structural Database (CSD) hosted by the Cambridge 
# Crystallographic Data Centre (CCDC).
# 
# Full information about CCDC data access policies and citation 
# guidelines are available at http://www.ccdc.cam.ac.uk/access/V1 
# 
# Audit and citation data items may have been added by the CCDC. 
# Please retain this information to preserve the provenance of 
# this file and to allow appropriate attribution of the data. 
# 
#######################################################################

data_070506h
_audit_block_doi                 10.5517/ccqtzq6
_database_code_depnum_ccdc_archive 'CCDC 680379'
loop_
_citation_id
_citation_doi
_citation_year
1 10.1002/zaac.200800260 2008
_audit_update_record             
;
2008-03-06 deposited with the CCDC.	2024-07-08 downloaded from the CCDC.
;

_audit_creation_method           SHELXL-97
_chemical_name_systematic        
;
?
;
_chemical_name_common            ?
_chemical_melting_point          ?
_chemical_formula_moiety         ?
_chemical_formula_sum            'C14 H10 N2 O4 S2 Zn'
_chemical_formula_weight         399.73

loop_
_atom_type_symbol
_atom_type_description
_atom_type_scat_dispersion_real
_atom_type_scat_dispersion_imag
_atom_type_scat_source
C C 0.0033 0.0016 'International Tables Vol C Tables 4.2.6.8 and 6.1.1.4'
H H 0.0000 0.0000 'International Tables Vol C Tables 4.2.6.8 and 6.1.1.4'
N N 0.0061 0.0033 'International Tables Vol C Tables 4.2.6.8 and 6.1.1.4'
O O 0.0106 0.0060 'International Tables Vol C Tables 4.2.6.8 and 6.1.1.4'
Zn Zn 0.2839 1.4301 'International Tables Vol C Tables 4.2.6.8 and 6.1.1.4'
S S 0.1246 0.1234 'International Tables Vol C Tables 4.2.6.8 and 6.1.1.4'

_symmetry_cell_setting           Monoclinic
_symmetry_space_group_name_H-M   C2/c

loop_
_symmetry_equiv_pos_as_xyz
'x, y, z'
'-x, y, -z+1/2'
'x+1/2, y+1/2, z'
'-x+1/2, y+1/2, -z+1/2'
'-x, -y, -z'
'x, -y, z-1/2'
'-x+1/2, -y+1/2, -z'
'x+1/2, -y+1/2, z-1/2'

_cell_length_a                   20.050(2)
_cell_length_b                   23.265(2)
_cell_length_c                   11.5154(16)
_cell_angle_alpha                90.00
_cell_angle_beta                 118.870(2)
_cell_angle_gamma                90.00
_cell_volume                     4703.9(9)
_cell_formula_units_Z            8
_cell_measurement_temperature    293(2)
_cell_measurement_reflns_used    3381
_cell_measurement_theta_min      2.673
_cell_measurement_theta_max      25.686

_exptl_crystal_description       ?
_exptl_crystal_colour            ?
_exptl_crystal_size_max          0.38
_exptl_crystal_size_mid          0.12
_exptl_crystal_size_min          0.10
_exptl_crystal_density_meas      0
_exptl_crystal_density_diffrn    1.129
_exptl_crystal_density_method    'not measured'
_exptl_crystal_F_000             1616
_exptl_absorpt_coefficient_mu    1.235
_exptl_absorpt_correction_type   multi-scan
_exptl_absorpt_correction_T_min  0.6512
_exptl_absorpt_correction_T_max  0.8865
_exptl_absorpt_process_details   sadabs

_exptl_special_details           
;
?
;

_diffrn_ambient_temperature      293(2)
_diffrn_radiation_wavelength     0.71073
_diffrn_radiation_type           MoK\a
_diffrn_radiation_source         'fine-focus sealed tube'
_diffrn_radiation_monochromator  graphite
_diffrn_measurement_device_type  'CCD area detector'
_diffrn_measurement_method       'phi and omega scans'
_diffrn_detector_area_resol_mean ?
_diffrn_standards_number         ?
_diffrn_standards_interval_count ?
_diffrn_standards_interval_time  ?
_diffrn_standards_decay_%        ?
_diffrn_reflns_number            11651
_diffrn_reflns_av_R_equivalents  0.0443
_diffrn_reflns_av_sigmaI/netI    0.0627
_diffrn_reflns_limit_h_min       -23
_diffrn_reflns_limit_h_max       23
_diffrn_reflns_limit_k_min       -20
_diffrn_reflns_limit_k_max       27
_diffrn_reflns_limit_l_min       -13
_diffrn_reflns_limit_l_max       13
_diffrn_reflns_theta_min         1.45
_diffrn_reflns_theta_max         25.01
_reflns_number_total             4128
_reflns_number_gt                2412
_reflns_threshold_expression     >2sigma(I)

_computing_data_collection       'Bruker SMART'
_computing_cell_refinement       'Bruker SMART'
_computing_data_reduction        'Bruker SAINT'
_computing_structure_solution    'SHELXS-97 (Sheldrick, 1990)'
_computing_structure_refinement  'SHELXL-97 (Sheldrick, 1997)'
_computing_molecular_graphics    'Bruker SHELXTL'
_computing_publication_material  'Bruker SHELXTL'

_refine_special_details          
;
Refinement of F^2^ against ALL reflections. The weighted R-factor wR and
goodness of fit S are based on F^2^, conventional R-factors R are based
on F, with F set to zero for negative F^2^. The threshold expression of
F^2^ > 2sigma(F^2^) is used only for calculating R-factors(gt) etc. and is
not relevant to the choice of reflections for refinement. R-factors based
on F^2^ are statistically about twice as large as those based on F, and R-
factors based on ALL data will be even larger.
;

_refine_ls_structure_factor_coef Fsqd
_refine_ls_matrix_type           full
_refine_ls_weighting_scheme      calc
_refine_ls_weighting_details     
'calc w=1/[\s^2^(Fo^2^)+(0.0325P)^2^+0.0000P] where P=(Fo^2^+2Fc^2^)/3'
_atom_sites_solution_primary     direct
_atom_sites_solution_secondary   difmap
_atom_sites_solution_hydrogens   geom
_refine_ls_hydrogen_treatment    mixed
_refine_ls_extinction_method     none
_refine_ls_extinction_coef       ?
_refine_ls_number_reflns         4128
_refine_ls_number_parameters     208
_refine_ls_number_restraints     0
_refine_ls_R_factor_all          0.0745
_refine_ls_R_factor_gt           0.0430
_refine_ls_wR_factor_ref         0.0850
_refine_ls_wR_factor_gt          0.0796
_refine_ls_goodness_of_fit_ref   0.997
_refine_ls_restrained_S_all      0.997
_refine_ls_shift/su_max          0.001
_refine_ls_shift/su_mean         0.000

loop_
_atom_site_label
_atom_site_type_symbol
_atom_site_fract_x
_atom_site_fract_y
_atom_site_fract_z
_atom_site_U_iso_or_equiv
_atom_site_adp_type
_atom_site_occupancy
_atom_site_symmetry_multiplicity
_atom_site_calc_flag
_atom_site_refinement_flags
_atom_site_disorder_assembly
_atom_site_disorder_group
Zn1 Zn 0.26221(2) 0.182728(16) 0.64582(4) 0.04409(14) Uani 1 1 d . . .
N1 N 0.27233(15) 0.13304(11) 0.5104(3) 0.0455(7) Uani 1 1 d . . .
N2 N 0.24482(15) 0.13128(11) 0.7735(3) 0.0449(7) Uani 1 1 d . . .
O1 O 0.35213(11) 0.23050(10) 0.7462(2) 0.0545(7) Uani 1 1 d . . .
O2 O 0.42939(12) 0.15535(12) 0.8309(2) 0.0625(7) Uani 1 1 d . . .
O3 O 0.18356(12) 0.24164(10) 0.5707(2) 0.0555(7) Uani 1 1 d . . .
O4 O 0.10196(13) 0.16988(11) 0.4739(2) 0.0688(8) Uani 1 1 d . . .
S1 S 0.29981(6) 0.01186(4) 0.22567(9) 0.0586(3) Uani 1 1 d . . .
S2 S 0.20272(6) 0.01415(4) 0.04861(10) 0.0590(3) Uani 1 1 d . . .
C1 C 0.41798(19) 0.20781(18) 0.8155(3) 0.0473(9) Uani 1 1 d . . .
C2 C 0.48175(17) 0.24862(14) 0.8767(3) 0.0470(9) Uani 1 1 d . . .
H2 H 0.4698 0.2876 0.8659 0.056 Uiso 1 1 calc R . .
C3 C 0.05405(17) 0.26517(15) 0.4451(3) 0.0497(9) Uani 1 1 d . . .
H3 H 0.0670 0.3039 0.4604 0.060 Uiso 1 1 calc R . .
C4 C 0.11625(19) 0.22163(18) 0.4995(3) 0.0512(10) Uani 1 1 d . . .
C5 C 0.33103(19) 0.09743(15) 0.5458(4) 0.0524(10) Uani 1 1 d . . .
H5 H 0.3686 0.0972 0.6343 0.063 Uiso 1 1 calc R . .
C6 C 0.33973(19) 0.06109(16) 0.4606(4) 0.0565(10) Uani 1 1 d . . .
H6 H 0.3820 0.0371 0.4908 0.068 Uiso 1 1 calc R . .
C7 C 0.28462(19) 0.06075(14) 0.3290(3) 0.0444(9) Uani 1 1 d . . .
C8 C 0.2245(2) 0.09788(16) 0.2885(4) 0.0630(11) Uani 1 1 d . . .
H8 H 0.1872 0.0995 0.1999 0.076 Uiso 1 1 calc R . .
C9 C 0.2201(2) 0.13301(16) 0.3814(4) 0.0602(11) Uani 1 1 d . . .
H9 H 0.1789 0.1579 0.3531 0.072 Uiso 1 1 calc R . .
C10 C 0.29735(19) 0.12629(15) 0.9002(3) 0.0537(10) Uani 1 1 d . . .
H10 H 0.3424 0.1470 0.9297 0.064 Uiso 1 1 calc R . .
C11 C 0.28909(19) 0.09233(15) 0.9903(3) 0.0539(10) Uani 1 1 d . . .
H11 H 0.3277 0.0905 1.0780 0.065 Uiso 1 1 calc R . .
C12 C 0.22333(19) 0.06124(14) 0.9495(3) 0.0444(9) Uani 1 1 d . . .
C13 C 0.16858(19) 0.06586(16) 0.8179(4) 0.0587(10) Uani 1 1 d . . .
H13 H 0.1233 0.0453 0.7855 0.070 Uiso 1 1 calc R . .
C14 C 0.1815(2) 0.10092(15) 0.7355(4) 0.0544(10) Uani 1 1 d . . .
H14 H 0.1437 0.1037 0.6475 0.065 Uiso 1 1 calc R . .

loop_
_atom_site_aniso_label
_atom_site_aniso_U_11
_atom_site_aniso_U_22
_atom_site_aniso_U_33
_atom_site_aniso_U_23
_atom_site_aniso_U_13
_atom_site_aniso_U_12
Zn1 0.0365(2) 0.0447(2) 0.0429(2) 0.0000(2) 0.01275(17) 0.0009(2)
N1 0.0449(17) 0.0433(18) 0.0444(18) 0.0073(14) 0.0183(15) -0.0004(15)
N2 0.0386(16) 0.0455(18) 0.0432(18) -0.0039(14) 0.0139(14) -0.0020(14)
O1 0.0287(13) 0.0706(17) 0.0512(15) -0.0022(13) 0.0090(11) -0.0036(12)
O2 0.0421(15) 0.0656(18) 0.0673(18) -0.0037(15) 0.0166(13) -0.0072(14)
O3 0.0300(13) 0.0708(17) 0.0515(15) 0.0067(13) 0.0082(11) 0.0053(12)
O4 0.0468(15) 0.0609(19) 0.0744(19) 0.0054(15) 0.0099(14) 0.0069(13)
S1 0.0736(7) 0.0551(6) 0.0553(6) 0.0027(5) 0.0375(5) 0.0088(5)
S2 0.0681(6) 0.0600(6) 0.0564(6) -0.0038(5) 0.0361(5) -0.0134(5)
C1 0.036(2) 0.065(3) 0.040(2) -0.002(2) 0.0171(18) -0.006(2)
C2 0.0367(19) 0.053(2) 0.045(2) -0.0063(17) 0.0145(17) -0.0070(17)
C3 0.035(2) 0.052(2) 0.050(2) 0.0051(18) 0.0115(17) 0.0075(17)
C4 0.036(2) 0.073(3) 0.040(2) 0.011(2) 0.0146(18) 0.006(2)
C5 0.046(2) 0.055(2) 0.047(2) 0.0014(19) 0.0156(18) 0.0006(19)
C6 0.051(2) 0.059(3) 0.058(3) 0.001(2) 0.025(2) 0.0083(19)
C7 0.053(2) 0.041(2) 0.045(2) 0.0093(17) 0.0285(19) 0.0004(18)
C8 0.067(3) 0.069(3) 0.042(2) 0.003(2) 0.017(2) 0.018(2)
C9 0.055(2) 0.064(3) 0.049(3) 0.007(2) 0.016(2) 0.021(2)
C10 0.048(2) 0.058(2) 0.049(2) 0.002(2) 0.018(2) -0.0152(19)
C11 0.046(2) 0.069(3) 0.038(2) 0.002(2) 0.0131(18) -0.0064(19)
C12 0.053(2) 0.043(2) 0.044(2) -0.0061(17) 0.0293(19) -0.0018(18)
C13 0.048(2) 0.071(3) 0.053(3) -0.002(2) 0.021(2) -0.011(2)
C14 0.045(2) 0.064(3) 0.043(2) 0.004(2) 0.0124(18) -0.003(2)

_geom_special_details            
;
All esds (except the esd in the dihedral angle between two l.s. planes)
are estimated using the full covariance matrix. The cell esds are taken
into account individually in the estimation of esds in distances, angles
and torsion angles; correlations between esds in cell parameters are only
used when they are defined by crystal symmetry. An approximate (isotropic)
treatment of cell esds is used for estimating esds involving l.s. planes.
;

loop_
_geom_bond_atom_site_label_1
_geom_bond_atom_site_label_2
_geom_bond_distance
_geom_bond_site_symmetry_2
_geom_bond_publ_flag
Zn1 O3 1.948(2) . ?
Zn1 O1 1.952(2) . ?
Zn1 N1 2.028(3) . ?
Zn1 N2 2.052(3) . ?
N1 C5 1.332(4) . ?
N1 C9 1.342(4) . ?
N2 C14 1.328(4) . ?
N2 C10 1.329(4) . ?
O1 C1 1.281(4) . ?
O2 C1 1.238(4) . ?
O3 C4 1.281(4) . ?
O4 C4 1.240(4) . ?
S1 C7 1.775(3) . ?
S1 S2 2.0290(14) . ?
S2 C12 1.769(3) 1_554 ?
C1 C2 1.471(4) . ?
C2 C3 1.312(4) 8_556 ?
C2 H2 0.9300 . ?
C3 C2 1.312(4) 8_455 ?
C3 C4 1.490(4) . ?
C3 H3 0.9300 . ?
C5 C6 1.369(5) . ?
C5 H5 0.9300 . ?
C6 C7 1.379(4) . ?
C6 H6 0.9300 . ?
C7 C8 1.369(4) . ?
C8 C9 1.383(5) . ?
C8 H8 0.9300 . ?
C9 H9 0.9300 . ?
C10 C11 1.377(4) . ?
C10 H10 0.9300 . ?
C11 C12 1.373(4) . ?
C11 H11 0.9300 . ?
C12 C13 1.381(4) . ?
C12 S2 1.769(3) 1_556 ?
C13 C14 1.367(5) . ?
C13 H13 0.9300 . ?
C14 H14 0.9300 . ?

loop_
_geom_angle_atom_site_label_1
_geom_angle_atom_site_label_2
_geom_angle_atom_site_label_3
_geom_angle
_geom_angle_site_symmetry_1
_geom_angle_site_symmetry_3
_geom_angle_publ_flag
O3 Zn1 O1 100.41(10) . . ?
O3 Zn1 N1 114.79(10) . . ?
O1 Zn1 N1 111.91(10) . . ?
O3 Zn1 N2 110.33(10) . . ?
O1 Zn1 N2 109.61(10) . . ?
N1 Zn1 N2 109.46(10) . . ?
C5 N1 C9 116.1(3) . . ?
C5 N1 Zn1 121.4(2) . . ?
C9 N1 Zn1 122.5(2) . . ?
C14 N2 C10 116.1(3) . . ?
C14 N2 Zn1 122.7(2) . . ?
C10 N2 Zn1 121.2(2) . . ?
C1 O1 Zn1 120.9(2) . . ?
C4 O3 Zn1 113.9(2) . . ?
C7 S1 S2 105.35(12) . . ?
C12 S2 S1 104.76(12) 1_554 . ?
O2 C1 O1 124.0(3) . . ?
O2 C1 C2 120.7(3) . . ?
O1 C1 C2 115.4(3) . . ?
C3 C2 C1 125.6(3) 8_556 . ?
C3 C2 H2 117.2 8_556 . ?
C1 C2 H2 117.2 . . ?
C2 C3 C4 122.9(3) 8_455 . ?
C2 C3 H3 118.5 8_455 . ?
C4 C3 H3 118.5 . . ?
O4 C4 O3 123.8(3) . . ?
O4 C4 C3 120.7(3) . . ?
O3 C4 C3 115.5(3) . . ?
N1 C5 C6 124.3(3) . . ?
N1 C5 H5 117.8 . . ?
C6 C5 H5 117.8 . . ?
C5 C6 C7 118.7(3) . . ?
C5 C6 H6 120.7 . . ?
C7 C6 H6 120.7 . . ?
C8 C7 C6 118.5(3) . . ?
C8 C7 S1 125.7(3) . . ?
C6 C7 S1 115.8(3) . . ?
C7 C8 C9 119.0(3) . . ?
C7 C8 H8 120.5 . . ?
C9 C8 H8 120.5 . . ?
N1 C9 C8 123.4(3) . . ?
N1 C9 H9 118.3 . . ?
C8 C9 H9 118.3 . . ?
N2 C10 C11 123.9(3) . . ?
N2 C10 H10 118.1 . . ?
C11 C10 H10 118.1 . . ?
C12 C11 C10 119.3(3) . . ?
C12 C11 H11 120.3 . . ?
C10 C11 H11 120.3 . . ?
C11 C12 C13 117.2(3) . . ?
C11 C12 S2 126.2(3) . 1_556 ?
C13 C12 S2 116.5(3) . 1_556 ?
C14 C13 C12 119.4(3) . . ?
C14 C13 H13 120.3 . . ?
C12 C13 H13 120.3 . . ?
N2 C14 C13 124.1(3) . . ?
N2 C14 H14 118.0 . . ?
C13 C14 H14 118.0 . . ?

loop_
_geom_torsion_atom_site_label_1
_geom_torsion_atom_site_label_2
_geom_torsion_atom_site_label_3
_geom_torsion_atom_site_label_4
_geom_torsion
_geom_torsion_site_symmetry_1
_geom_torsion_site_symmetry_2
_geom_torsion_site_symmetry_3
_geom_torsion_site_symmetry_4
_geom_torsion_publ_flag
O3 Zn1 N1 C5 169.1(2) . . . . ?
O1 Zn1 N1 C5 55.5(3) . . . . ?
N2 Zn1 N1 C5 -66.2(3) . . . . ?
O3 Zn1 N1 C9 -12.4(3) . . . . ?
O1 Zn1 N1 C9 -126.0(3) . . . . ?
N2 Zn1 N1 C9 112.3(3) . . . . ?
O3 Zn1 N2 C14 59.6(3) . . . . ?
O1 Zn1 N2 C14 169.3(3) . . . . ?
N1 Zn1 N2 C14 -67.6(3) . . . . ?
O3 Zn1 N2 C10 -120.9(2) . . . . ?
O1 Zn1 N2 C10 -11.2(3) . . . . ?
N1 Zn1 N2 C10 111.9(3) . . . . ?
O3 Zn1 O1 C1 178.2(2) . . . . ?
N1 Zn1 O1 C1 -59.6(3) . . . . ?
N2 Zn1 O1 C1 62.1(3) . . . . ?
O1 Zn1 O3 C4 -178.9(2) . . . . ?
N1 Zn1 O3 C4 60.9(2) . . . . ?
N2 Zn1 O3 C4 -63.3(2) . . . . ?
C7 S1 S2 C12 98.46(15) . . . 1_554 ?
Zn1 O1 C1 O2 -4.4(5) . . . . ?
Zn1 O1 C1 C2 174.8(2) . . . . ?
O2 C1 C2 C3 3.3(6) . . . 8_556 ?
O1 C1 C2 C3 -175.9(3) . . . 8_556 ?
Zn1 O3 C4 O4 -3.7(4) . . . . ?
Zn1 O3 C4 C3 177.4(2) . . . . ?
C2 C3 C4 O4 5.0(5) 8_455 . . . ?
C2 C3 C4 O3 -176.1(3) 8_455 . . . ?
C9 N1 C5 C6 -1.4(5) . . . . ?
Zn1 N1 C5 C6 177.3(3) . . . . ?
N1 C5 C6 C7 0.0(6) . . . . ?
C5 C6 C7 C8 1.7(5) . . . . ?
C5 C6 C7 S1 -179.3(3) . . . . ?
S2 S1 C7 C8 -9.0(3) . . . . ?
S2 S1 C7 C6 172.1(2) . . . . ?
C6 C7 C8 C9 -1.9(5) . . . . ?
S1 C7 C8 C9 179.3(3) . . . . ?
C5 N1 C9 C8 1.1(5) . . . . ?
Zn1 N1 C9 C8 -177.5(3) . . . . ?
C7 C8 C9 N1 0.5(6) . . . . ?
C14 N2 C10 C11 -0.2(5) . . . . ?
Zn1 N2 C10 C11 -179.7(3) . . . . ?
N2 C10 C11 C12 0.1(5) . . . . ?
C10 C11 C12 C13 0.3(5) . . . . ?
C10 C11 C12 S2 178.5(3) . . . 1_556 ?
C11 C12 C13 C14 -0.6(5) . . . . ?
S2 C12 C13 C14 -179.1(3) 1_556 . . . ?
C10 N2 C14 C13 -0.2(5) . . . . ?
Zn1 N2 C14 C13 179.3(3) . . . . ?
C12 C13 C14 N2 0.6(6) . . . . ?

_diffrn_measured_fraction_theta_max 0.996
_diffrn_reflns_theta_full        25.01
_diffrn_measured_fraction_theta_full 0.996
_refine_diff_density_max         0.371
_refine_diff_density_min         -0.507
_refine_diff_density_rms         0.058


