####################################################################### 
# 
# This file contains crystal structure data downloaded from the 
# Cambridge Structural Database (CSD) hosted by the Cambridge 
# Crystallographic Data Centre (CCDC).
# 
# Full information about CCDC data access policies and citation 
# guidelines are available at http://www.ccdc.cam.ac.uk/access/V1 
# 
# Audit and citation data items may have been added by the CCDC. 
# Please retain this information to preserve the provenance of 
# this file and to allow appropriate attribution of the data. 
# 
#######################################################################

data_3
_audit_block_doi                 10.5517/ccr59nv
_database_code_depnum_ccdc_archive 'CCDC 690297'
loop_
_citation_id
_citation_doi
_citation_year
1 10.1021/ic801174d 2008
_audit_update_record             
;
2008-06-03 deposited with the CCDC.	2024-07-08 downloaded from the CCDC.
;

_audit_creation_method           SHELXL-97
_chemical_name_systematic        
;
?
;
_chemical_name_common            ?
_chemical_melting_point          ?
_chemical_formula_moiety         'C16 H15 O5 Si Zn1.50, C3 H7 N O'
_chemical_formula_sum            'C19 H22 N O6 Si Zn1.50'
_chemical_formula_weight         486.52

loop_
_atom_type_symbol
_atom_type_description
_atom_type_scat_dispersion_real
_atom_type_scat_dispersion_imag
_atom_type_scat_source
C C 0.0033 0.0016 'International Tables Vol C Tables 4.2.6.8 and 6.1.1.4'
H H 0.0000 0.0000 'International Tables Vol C Tables 4.2.6.8 and 6.1.1.4'
N N 0.0061 0.0033 'International Tables Vol C Tables 4.2.6.8 and 6.1.1.4'
O O 0.0106 0.0060 'International Tables Vol C Tables 4.2.6.8 and 6.1.1.4'
Si Si 0.0817 0.0704 'International Tables Vol C Tables 4.2.6.8 and 6.1.1.4'
Zn Zn 0.2839 1.4301 'International Tables Vol C Tables 4.2.6.8 and 6.1.1.4'

_symmetry_cell_setting           Triclinic
_symmetry_space_group_name_H-M   P-1

loop_
_symmetry_equiv_pos_as_xyz
'x, y, z'
'-x, -y, -z'

_cell_length_a                   6.3281(19)
_cell_length_b                   12.218(2)
_cell_length_c                   14.468(2)
_cell_angle_alpha                112.071(4)
_cell_angle_beta                 99.440(5)
_cell_angle_gamma                97.528(19)
_cell_volume                     999.6(4)
_cell_formula_units_Z            2
_cell_measurement_temperature    173(2)
_cell_measurement_reflns_used    8737
_cell_measurement_theta_min      3.6710
_cell_measurement_theta_max      31.9840

_exptl_crystal_description       needles
_exptl_crystal_colour            Colourless
_exptl_crystal_size_max          0.11
_exptl_crystal_size_mid          0.11
_exptl_crystal_size_min          0.04
_exptl_crystal_density_meas      ?
_exptl_crystal_density_diffrn    1.616
_exptl_crystal_density_method    'not measured'
_exptl_crystal_F_000             500
_exptl_absorpt_coefficient_mu    1.910
_exptl_absorpt_correction_type   analytical
_exptl_absorpt_correction_T_min  0.817
_exptl_absorpt_correction_T_max  0.922
_exptl_absorpt_process_details   
;
CrysAlis RED, Oxford Diffraction Ltd.,
Version 1.171.30.2 (release 11-05-2006 CrysAlis171 .NET)
(compiled May 11 2006,17:41:17)
Analytical numeric absorption correction using a multifaceted crystal
model based on expressions derived by R.C. Clark & J.S. Reid.
(Clark, R. C. & Reid, J. S. (1995). Acta Cryst. A51, 887-897)
;

_exptl_special_details           
;
?
;

_diffrn_ambient_temperature      173(2)
_diffrn_radiation_wavelength     0.71073
_diffrn_radiation_type           MoK\a
_diffrn_radiation_source         'Enhance (Mo) X-ray Source'
_diffrn_radiation_monochromator  graphite
_diffrn_measurement_device_type  'OD Xcalibur 3'
_diffrn_measurement_method       'omega scans'
_diffrn_detector_area_resol_mean 15.9863
_diffrn_standards_number         ?
_diffrn_standards_interval_count ?
_diffrn_standards_interval_time  ?
_diffrn_standards_decay_%        ?
_diffrn_reflns_number            15325
_diffrn_reflns_av_R_equivalents  0.0350
_diffrn_reflns_av_sigmaI/netI    0.0417
_diffrn_reflns_limit_h_min       -9
_diffrn_reflns_limit_h_max       9
_diffrn_reflns_limit_k_min       -16
_diffrn_reflns_limit_k_max       17
_diffrn_reflns_limit_l_min       -21
_diffrn_reflns_limit_l_max       20
_diffrn_reflns_theta_min         3.68
_diffrn_reflns_theta_max         32.07
_reflns_number_total             6341
_reflns_number_gt                4828
_reflns_threshold_expression     >2sigma(I)

_computing_data_collection       'CrysAlis CCD, Oxford Diffraction Ltd'
_computing_cell_refinement       'CrysAlis RED, Oxford Diffraction Ltd'
_computing_data_reduction        'CrysAlis RED, Oxford Diffraction Ltd'
_computing_structure_solution    'SHELXS-97 (Sheldrick, 1990)'
_computing_structure_refinement  'SHELXL-97 (Sheldrick, 1997)'
_computing_molecular_graphics    'Bruker SHELXTL'
_computing_publication_material  'Bruker SHELXTL'

_refine_special_details          
;
Refinement of F^2^ against ALL reflections. The weighted R-factor wR and
goodness of fit S are based on F^2^, conventional R-factors R are based
on F, with F set to zero for negative F^2^. The threshold expression of
F^2^ > 2sigma(F^2^) is used only for calculating R-factors(gt) etc. and is
not relevant to the choice of reflections for refinement. R-factors based
on F^2^ are statistically about twice as large as those based on F, and R-
factors based on ALL data will be even larger.
;

_refine_ls_structure_factor_coef Fsqd
_refine_ls_matrix_type           full
_refine_ls_weighting_scheme      calc
_refine_ls_weighting_details     
'calc w=1/[\s^2^(Fo^2^)+(0.0429P)^2^+0.0000P] where P=(Fo^2^+2Fc^2^)/3'
_atom_sites_solution_primary     direct
_atom_sites_solution_secondary   difmap
_atom_sites_solution_hydrogens   geom
_refine_ls_hydrogen_treatment    mixed
_refine_ls_extinction_method     none
_refine_ls_extinction_coef       ?
_refine_ls_number_reflns         6341
_refine_ls_number_parameters     265
_refine_ls_number_restraints     1
_refine_ls_R_factor_all          0.0434
_refine_ls_R_factor_gt           0.0300
_refine_ls_wR_factor_ref         0.0760
_refine_ls_wR_factor_gt          0.0733
_refine_ls_goodness_of_fit_ref   0.994
_refine_ls_restrained_S_all      0.994
_refine_ls_shift/su_max          0.001
_refine_ls_shift/su_mean         0.000

loop_
_atom_site_label
_atom_site_type_symbol
_atom_site_fract_x
_atom_site_fract_y
_atom_site_fract_z
_atom_site_U_iso_or_equiv
_atom_site_adp_type
_atom_site_occupancy
_atom_site_symmetry_multiplicity
_atom_site_calc_flag
_atom_site_refinement_flags
_atom_site_disorder_assembly
_atom_site_disorder_group
Zn1 Zn 0.5000 0.5000 1.0000 0.01339(6) Uani 1 2 d S . .
Zn2 Zn 0.94313(3) 0.435606(16) 0.891179(14) 0.01592(6) Uani 1 1 d . . .
O1 O 0.79983(17) 0.44249(10) 1.00533(9) 0.0152(2) Uani 1 1 d D . .
H1 H 0.794(3) 0.3726(10) 1.0131(16) 0.028(6) Uiso 1 1 d D . .
Si Si 0.28753(7) 0.76563(4) 0.51276(3) 0.01571(9) Uani 1 1 d . . .
C1 C 0.3878(3) 0.68373(14) 0.59240(12) 0.0165(3) Uani 1 1 d . . .
C2 C 0.2619(3) 0.66440(16) 0.65759(13) 0.0214(3) Uani 1 1 d . . .
H2A H 0.1243 0.6876 0.6561 0.026 Uiso 1 1 calc R . .
C3 C 0.3301(3) 0.61255(15) 0.72448(13) 0.0209(3) Uani 1 1 d . . .
H3A H 0.2407 0.6010 0.7681 0.025 Uiso 1 1 calc R . .
C4 C 0.5309(3) 0.57760(14) 0.72712(12) 0.0159(3) Uani 1 1 d . . .
C5 C 0.6564(3) 0.59306(17) 0.66139(14) 0.0248(4) Uani 1 1 d . . .
H5A H 0.7916 0.5672 0.6614 0.030 Uiso 1 1 calc R . .
C6 C 0.5863(3) 0.64605(18) 0.59542(14) 0.0265(4) Uani 1 1 d . . .
H6A H 0.6755 0.6568 0.5514 0.032 Uiso 1 1 calc R . .
C7 C 0.6145(3) 0.52982(14) 0.80476(12) 0.0167(3) Uani 1 1 d . . .
O8 O 0.5094(2) 0.53185(14) 0.86977(10) 0.0312(3) Uani 1 1 d . . .
O9 O 0.7913(2) 0.49214(12) 0.79756(9) 0.0250(3) Uani 1 1 d . . .
C11 C 0.2608(3) 0.91467(14) 0.60997(13) 0.0180(3) Uani 1 1 d . . .
C12 C 0.0686(3) 0.95782(16) 0.60132(14) 0.0261(4) Uani 1 1 d . . .
H12A H -0.0513 0.9112 0.5447 0.031 Uiso 1 1 calc R . .
C13 C 0.0473(3) 1.06668(16) 0.67287(14) 0.0248(4) Uani 1 1 d . . .
H13A H -0.0863 1.0934 0.6649 0.030 Uiso 1 1 calc R . .
C14 C 0.2194(3) 1.13704(14) 0.75612(12) 0.0171(3) Uani 1 1 d . . .
C15 C 0.4140(3) 1.09593(15) 0.76710(14) 0.0219(3) Uani 1 1 d . . .
H15A H 0.5335 1.1429 0.8237 0.026 Uiso 1 1 calc R . .
C16 C 0.4319(3) 0.98633(15) 0.69498(14) 0.0228(3) Uani 1 1 d . . .
H16A H 0.5646 0.9590 0.7036 0.027 Uiso 1 1 calc R . .
C17 C 0.1965(3) 1.25603(14) 0.83145(12) 0.0178(3) Uani 1 1 d . . .
O18 O 0.0131(2) 1.28453(11) 0.81366(10) 0.0259(3) Uani 1 1 d . . .
O19 O 0.3506(2) 1.31725(11) 0.90695(10) 0.0280(3) Uani 1 1 d . . .
C21 C 0.4817(3) 0.79026(18) 0.43565(15) 0.0270(4) Uani 1 1 d . . .
H21A H 0.4939 0.7121 0.3856 0.041 Uiso 1 1 calc R . .
H21B H 0.6260 0.8333 0.4811 0.041 Uiso 1 1 calc R . .
H21C H 0.4277 0.8384 0.3996 0.041 Uiso 1 1 calc R . .
C31 C 0.0196(3) 0.67860(16) 0.42446(13) 0.0227(3) Uani 1 1 d . . .
H31A H 0.0387 0.6018 0.3750 0.034 Uiso 1 1 calc R . .
H31B H -0.0383 0.7253 0.3878 0.034 Uiso 1 1 calc R . .
H31C H -0.0834 0.6626 0.4639 0.034 Uiso 1 1 calc R . .
O40 O 0.8315(2) 0.23638(13) 1.04559(12) 0.0381(3) Uani 1 1 d . . .
C40 C 1.0141(3) 0.21243(17) 1.04546(15) 0.0293(4) Uani 1 1 d . . .
H40A H 1.1013 0.2429 1.0093 0.035 Uiso 1 1 calc R . .
N41 N 1.0998(3) 0.14718(15) 1.09191(13) 0.0309(3) Uani 1 1 d . . .
C42 C 0.9857(5) 0.1039(2) 1.15427(17) 0.0444(6) Uani 1 1 d . . .
H42A H 0.8390 0.1221 1.1486 0.067 Uiso 1 1 calc R . .
H42B H 1.0676 0.1440 1.2260 0.067 Uiso 1 1 calc R . .
H42C H 0.9731 0.0164 1.1305 0.067 Uiso 1 1 calc R . .
C43 C 1.3169(4) 0.1227(2) 1.0881(2) 0.0482(6) Uani 1 1 d . . .
H43A H 1.3839 0.1628 1.0495 0.072 Uiso 1 1 calc R . .
H43B H 1.3059 0.0353 1.0542 0.072 Uiso 1 1 calc R . .
H43C H 1.4075 0.1534 1.1579 0.072 Uiso 1 1 calc R . .

loop_
_atom_site_aniso_label
_atom_site_aniso_U_11
_atom_site_aniso_U_22
_atom_site_aniso_U_33
_atom_site_aniso_U_23
_atom_site_aniso_U_13
_atom_site_aniso_U_12
Zn1 0.01229(12) 0.01540(12) 0.01414(12) 0.00695(10) 0.00394(9) 0.00446(9)
Zn2 0.01535(9) 0.01955(10) 0.01369(9) 0.00615(7) 0.00357(7) 0.00803(7)
O1 0.0147(5) 0.0164(5) 0.0183(5) 0.0091(5) 0.0060(4) 0.0061(4)
Si 0.0171(2) 0.0164(2) 0.0156(2) 0.00768(17) 0.00436(16) 0.00609(15)
C1 0.0194(7) 0.0148(7) 0.0157(7) 0.0061(6) 0.0034(6) 0.0057(6)
C2 0.0176(7) 0.0271(8) 0.0263(9) 0.0155(7) 0.0072(7) 0.0101(6)
C3 0.0192(8) 0.0270(8) 0.0238(8) 0.0156(7) 0.0092(7) 0.0080(6)
C4 0.0175(7) 0.0159(7) 0.0148(7) 0.0067(6) 0.0029(6) 0.0052(5)
C5 0.0216(8) 0.0384(10) 0.0275(9) 0.0219(8) 0.0113(7) 0.0170(7)
C6 0.0265(9) 0.0420(11) 0.0280(9) 0.0248(9) 0.0168(8) 0.0186(8)
C7 0.0178(7) 0.0168(7) 0.0149(7) 0.0060(6) 0.0027(6) 0.0047(6)
O8 0.0339(7) 0.0511(9) 0.0310(7) 0.0308(7) 0.0187(6) 0.0260(7)
O9 0.0244(6) 0.0388(7) 0.0219(6) 0.0181(6) 0.0090(5) 0.0182(5)
C11 0.0205(7) 0.0163(7) 0.0193(7) 0.0090(6) 0.0045(6) 0.0060(6)
C12 0.0220(8) 0.0242(9) 0.0232(8) 0.0019(7) -0.0030(7) 0.0093(7)
C13 0.0197(8) 0.0243(8) 0.0255(9) 0.0045(7) 0.0011(7) 0.0104(7)
C14 0.0179(7) 0.0158(7) 0.0189(7) 0.0076(6) 0.0048(6) 0.0049(6)
C15 0.0187(8) 0.0183(8) 0.0240(8) 0.0052(7) -0.0002(6) 0.0047(6)
C16 0.0196(8) 0.0196(8) 0.0265(9) 0.0063(7) 0.0025(7) 0.0083(6)
C17 0.0200(7) 0.0171(7) 0.0183(7) 0.0081(6) 0.0054(6) 0.0058(6)
O18 0.0227(6) 0.0238(6) 0.0245(6) 0.0010(5) 0.0024(5) 0.0128(5)
O19 0.0249(6) 0.0158(6) 0.0320(7) 0.0016(5) -0.0043(5) 0.0052(5)
C21 0.0238(9) 0.0348(10) 0.0309(10) 0.0195(8) 0.0114(8) 0.0092(7)
C31 0.0195(8) 0.0258(9) 0.0207(8) 0.0071(7) 0.0038(6) 0.0060(6)
O40 0.0395(8) 0.0343(8) 0.0508(9) 0.0255(7) 0.0126(7) 0.0137(6)
C40 0.0340(10) 0.0231(9) 0.0312(10) 0.0125(8) 0.0081(8) 0.0023(7)
N41 0.0330(9) 0.0257(8) 0.0313(9) 0.0108(7) 0.0028(7) 0.0055(7)
C42 0.0690(16) 0.0364(12) 0.0338(11) 0.0197(10) 0.0129(11) 0.0130(11)
C43 0.0333(11) 0.0366(12) 0.0620(16) 0.0114(12) -0.0027(11) 0.0091(9)

_geom_special_details            
;
All esds (except the esd in the dihedral angle between two l.s. planes)
are estimated using the full covariance matrix. The cell esds are taken
into account individually in the estimation of esds in distances, angles
and torsion angles; correlations between esds in cell parameters are only
used when they are defined by crystal symmetry. An approximate (isotropic)
treatment of cell esds is used for estimating esds involving l.s. planes.
;

loop_
_geom_bond_atom_site_label_1
_geom_bond_atom_site_label_2
_geom_bond_distance
_geom_bond_site_symmetry_2
_geom_bond_publ_flag
Zn1 O8 2.0705(13) 2_667 ?
Zn1 O8 2.0705(13) . ?
Zn1 O1 2.1075(12) . ?
Zn1 O1 2.1076(12) 2_667 ?
Zn1 O19 2.1124(13) 1_545 ?
Zn1 O19 2.1124(13) 2_677 ?
Zn2 O18 1.9191(12) 1_645 ?
Zn2 O9 1.9196(12) . ?
Zn2 O1 1.9910(11) . ?
Zn2 O1 1.9992(13) 2_767 ?
O1 Zn2 1.9992(12) 2_767 ?
O1 O40 2.8137(18) . ?
Si C31 1.8532(18) . ?
Si C21 1.8575(18) . ?
Si C1 1.8774(16) . ?
Si C11 1.8859(17) . ?
C1 C6 1.393(2) . ?
C1 C2 1.395(2) . ?
C2 C3 1.386(2) . ?
C3 C4 1.391(2) . ?
C4 C5 1.384(2) . ?
C4 C7 1.504(2) . ?
C5 C6 1.388(2) . ?
C7 O8 1.233(2) . ?
C7 O9 1.2696(19) . ?
C11 C12 1.393(2) . ?
C11 C16 1.399(2) . ?
C12 C13 1.385(2) . ?
C13 C14 1.387(2) . ?
C14 C15 1.397(2) . ?
C14 C17 1.496(2) . ?
C15 C16 1.387(2) . ?
C17 O19 1.245(2) . ?
C17 O18 1.268(2) . ?
O18 Zn2 1.9191(12) 1_465 ?
O19 Zn1 2.1124(13) 1_565 ?
O40 C40 1.229(2) . ?
C40 N41 1.333(2) . ?
N41 C42 1.444(3) . ?
N41 C43 1.449(3) . ?

loop_
_geom_angle_atom_site_label_1
_geom_angle_atom_site_label_2
_geom_angle_atom_site_label_3
_geom_angle
_geom_angle_site_symmetry_1
_geom_angle_site_symmetry_3
_geom_angle_publ_flag
O8 Zn1 O8 180.000(1) 2_667 . ?
O8 Zn1 O1 85.78(5) 2_667 . ?
O8 Zn1 O1 94.22(5) . . ?
O8 Zn1 O1 94.22(5) 2_667 2_667 ?
O8 Zn1 O1 85.78(5) . 2_667 ?
O1 Zn1 O1 180.000(1) . 2_667 ?
O8 Zn1 O19 90.18(6) 2_667 1_545 ?
O8 Zn1 O19 89.82(6) . 1_545 ?
O1 Zn1 O19 86.40(5) . 1_545 ?
O1 Zn1 O19 93.60(5) 2_667 1_545 ?
O8 Zn1 O19 89.82(6) 2_667 2_677 ?
O8 Zn1 O19 90.18(6) . 2_677 ?
O1 Zn1 O19 93.60(5) . 2_677 ?
O1 Zn1 O19 86.40(5) 2_667 2_677 ?
O19 Zn1 O19 180.00(5) 1_545 2_677 ?
O18 Zn2 O9 108.69(6) 1_645 . ?
O18 Zn2 O1 117.08(5) 1_645 . ?
O9 Zn2 O1 113.81(5) . . ?
O18 Zn2 O1 113.74(5) 1_645 2_767 ?
O9 Zn2 O1 113.90(5) . 2_767 ?
O1 Zn2 O1 88.67(5) . 2_767 ?
Zn2 O1 Zn2 91.33(5) . 2_767 ?
Zn2 O1 Zn1 115.79(5) . . ?
Zn2 O1 Zn1 115.29(5) 2_767 . ?
C31 Si C21 108.54(9) . . ?
C31 Si C1 109.91(8) . . ?
C21 Si C1 112.54(8) . . ?
C31 Si C11 111.37(8) . . ?
C21 Si C11 110.47(8) . . ?
C1 Si C11 104.00(7) . . ?
C6 C1 C2 117.00(15) . . ?
C6 C1 Si 124.60(13) . . ?
C2 C1 Si 118.31(12) . . ?
C3 C2 C1 122.40(15) . . ?
C2 C3 C4 119.38(15) . . ?
C5 C4 C3 119.32(15) . . ?
C5 C4 C7 120.71(14) . . ?
C3 C4 C7 119.89(14) . . ?
C4 C5 C6 120.51(15) . . ?
C5 C6 C1 121.36(16) . . ?
O8 C7 O9 125.91(15) . . ?
O8 C7 C4 118.12(14) . . ?
O9 C7 C4 115.96(14) . . ?
C7 O8 Zn1 145.47(11) . . ?
C7 O9 Zn2 124.65(11) . . ?
C12 C11 C16 116.82(15) . . ?
C12 C11 Si 121.57(13) . . ?
C16 C11 Si 121.60(12) . . ?
C13 C12 C11 121.85(16) . . ?
C12 C13 C14 120.50(15) . . ?
C13 C14 C15 118.97(15) . . ?
C13 C14 C17 120.00(14) . . ?
C15 C14 C17 121.03(15) . . ?
C16 C15 C14 119.73(16) . . ?
C15 C16 C11 122.13(15) . . ?
O19 C17 O18 124.96(15) . . ?
O19 C17 C14 119.36(14) . . ?
O18 C17 C14 115.64(14) . . ?
C17 O18 Zn2 124.98(11) . 1_465 ?
C17 O19 Zn1 139.70(11) . 1_565 ?
O40 C40 N41 125.29(19) . . ?
C40 N41 C42 121.33(19) . . ?
C40 N41 C43 121.98(19) . . ?
C42 N41 C43 116.58(19) . . ?

_diffrn_measured_fraction_theta_max 0.907
_diffrn_reflns_theta_full        30.50
_diffrn_measured_fraction_theta_full 0.992
_refine_diff_density_max         0.905
_refine_diff_density_min         -0.609
_refine_diff_density_rms         0.081

#===END


