
#######################################################################
#
#                 Cambridge Crystallographic Data Centre
#                                CCDC
#
#######################################################################
#
# If this CIF has been generated from an entry in the Cambridge
# Structural Database, then it will include bibliographic, chemical,
# crystal, experimental, refinement or atomic coordinate data resulting
# from the CCDC's data processing and validation procedures.
#
#######################################################################

data_CSD_CIF_BOMQOJ
_audit_creation_date 2000-01-11
_audit_creation_method CSD-ConQuest-V1
_database_code_CSD BOMQOJ
_database_code_depnum_ccdc_archive 'CCDC 138069'
_chemical_formula_sum 'C14 H18 Br4 Ge1 N2'
_chemical_formula_moiety
;
C14 H18 Br4 Ge1 N2
;
_journal_coeditor_code "IUCr SK1320"
_journal_coden_Cambridge 591
_journal_volume 55
_journal_year 1999
_journal_page_first 1774
_journal_name_full 'Acta Crystallogr.,Sect.C:Cryst.Struct.Commun. '
loop_
_publ_author_name
"K.Hensen"
"A.Faber"
"M.Bolte"
_chemical_name_systematic
;
trans-Tetrabromo-bis(3,5-dimethylpyridine)-germanium(iv)
;
_chemical_name_common
;
Teaching Subset: Fundamental Chemistry, Symmetry
;
_cell_volume    909.381
_exptl_crystal_colour 'light yellow'
_exptl_crystal_density_diffrn 2.215
_exptl_crystal_description 'cube'
_diffrn_ambient_temperature 173
#These two values have been output from a single CSD field.
_refine_ls_R_factor_gt 0.0588
_refine_ls_wR_factor_gt 0.0588
_symmetry_cell_setting monoclinic
_symmetry_space_group_name_H-M 'C 2/m'
_symmetry_Int_Tables_number 12
loop_
_symmetry_equiv_pos_site_id
_symmetry_equiv_pos_as_xyz
1 x,y,z
2 1/2+x,1/2+y,z
3 -x,y,-z
4 1/2-x,1/2+y,-z
5 -x,-y,-z
6 -1/2-x,-1/2-y,-z
7 x,-y,z
8 -1/2+x,-1/2-y,z
_cell_length_a 16.318(1)
_cell_length_b 7.362(1)
_cell_length_c 8.229(1)
_cell_angle_alpha 90
_cell_angle_beta 113.09(1)
_cell_angle_gamma 90
_cell_formula_units_Z 2
loop_
_atom_type_symbol
_atom_type_radius_bond
C 0.68
H 0.23
Br 1.21
Ge 1.17
N 0.68
loop_
_atom_site_label
_atom_site_type_symbol
_atom_site_fract_x
_atom_site_fract_y
_atom_site_fract_z
Ge1 Ge 0.00000 0.00000 0.50000
Br1 Br 0.04462(2) 0.23712(5) 0.72630(5)
N1 N 0.1288(2) 0.00000 0.4970(5)
C1 C 0.2015(3) 0.00000 0.6530(6)
H1 H 0.19310 0.00000 0.76080
C2 C 0.2886(3) 0.00000 0.6582(6)
H2 H 0.34260 0.00000 0.93330
H3 H 0.40260 0.10940 0.84900
C3 C 0.3657(3) 0.00000 0.8378(5)
C4 C 0.2987(3) 0.00000 0.4976(6)
H4 H 0.35670 0.00000 0.49650
C5 C 0.2235(3) 0.00000 0.3371(6)
C6 C 0.2331(3) 0.00000 0.1616(5)
H5 H 0.16920 0.00000 0.06710
H6 H 0.26310 0.10940 0.15270
C7 C 0.1410(3) 0.00000 0.3469(6)
H7 H 0.08970 0.00000 0.23940
Br1F Br 0.04462(2) -0.23712(5) 0.72630(5)
Br1D Br -0.04462(2) -0.23712(5) 0.27370(5)
Br1B Br -0.04462(2) 0.23712(5) 0.27370(5)
H3F H 0.40260 -0.10940 0.84900
H6F H 0.26310 -0.10940 0.15270
N1D N -0.1288(2) 0.00000 0.5030(5)
C1D C -0.2015(3) 0.00000 0.3470(6)
H1D H -0.19310 0.00000 0.23920
C2D C -0.2886(3) 0.00000 0.3418(6)
C3D C -0.3657(3) 0.00000 0.1622(5)
H2D H -0.34260 0.00000 0.06670
H3D H -0.40260 -0.10940 0.15100
H3B H -0.40260 0.10940 0.15100
C4D C -0.2987(3) 0.00000 0.5024(6)
H4D H -0.35670 0.00000 0.50350
C5D C -0.2235(3) 0.00000 0.6629(6)
C6D C -0.2331(3) 0.00000 0.8384(5)
H5D H -0.16920 0.00000 0.93290
H6D H -0.26310 -0.10940 0.84730
H6B H -0.26310 0.10940 0.84730
C7D C -0.1410(3) 0.00000 0.6531(6)
H7D H -0.08970 0.00000 0.76060
#END
