
#######################################################################
#
#                 Cambridge Crystallographic Data Centre
#                                CCDC
#
#######################################################################
#
# If this CIF has been generated from an entry in the Cambridge
# Structural Database, then it will include bibliographic, chemical,
# crystal, experimental, refinement or atomic coordinate data resulting
# from the CCDC's data processing and validation procedures.
#
#######################################################################

data_CSD_CIF_BOQJUM
_audit_creation_date 2000-01-11
_audit_creation_method CSD-ConQuest-V1
_database_code_CSD BOQJUM
_database_code_depnum_ccdc_archive 'CCDC 138024'
_chemical_formula_sum 'C28 H50 N2 O4'
_chemical_formula_moiety
;
C28 H50 N2 O4
;
_journal_coeditor_code "IUCr NA1417"
_journal_coden_Cambridge 591
_journal_volume 55
_journal_year 1999
_journal_page_first 1935
_journal_name_full 'Acta Crystallogr.,Sect.C:Cryst.Struct.Commun. '
loop_
_publ_author_name
"V.Kabaleeswaran"
"S.S.Rajan"
"G.N.Krishnakumari"
"T.R.Govindachari"
_chemical_name_systematic
;
Carpaine
;
_chemical_name_common
;
Teaching Subset: Fundamental Chemistry
;
_cell_volume   1494.541
_exptl_crystal_colour 'colorless'
_exptl_crystal_density_diffrn 1.064
_exptl_special_details
;
in vitro antitumour activity

;
_exptl_crystal_description 'plate'
_diffrn_ambient_temperature ?
_diffrn_special_details
;
The study was carried out at room temperature,in the range 283-303K

;
#These two values have been output from a single CSD field.
_refine_ls_R_factor_gt 0.0413
_refine_ls_wR_factor_gt 0.0413
_chemical_compound_source
;
from the leaves of Carica papaya L
;
_symmetry_cell_setting orthorhombic
_symmetry_space_group_name_H-M 'P 21 21 2'
_symmetry_Int_Tables_number 18
loop_
_symmetry_equiv_pos_site_id
_symmetry_equiv_pos_as_xyz
1 x,y,z
2 1/2+x,1/2-y,-z
3 1/2-x,1/2+y,-z
4 -x,-y,z
_cell_length_a 18.864(8)
_cell_length_b 14.476(4)
_cell_length_c 5.473(1)
_cell_angle_alpha 90
_cell_angle_beta 90
_cell_angle_gamma 90
_cell_formula_units_Z 2
loop_
_atom_type_symbol
_atom_type_radius_bond
C 0.68
H 0.23
N 0.68
O 0.68
loop_
_atom_site_label
_atom_site_type_symbol
_atom_site_fract_x
_atom_site_fract_y
_atom_site_fract_z
O1 O 0.82852(14) 0.16718(13) 0.4209(3)
O2 O 0.79955(10) 0.28878(12) 0.6516(3)
N1 N 0.76746(11) 0.48503(15) 0.6704(5)
H1 H 0.75200 0.49660 0.81500
C1 C 0.73265(15) 0.41946(18) 0.5083(7)
H2 H 0.71900 0.45280 0.35970
C2 C 0.78421(16) 0.34350(18) 0.4348(5)
H3 H 0.76210 0.30410 0.31070
C3 C 0.85289(17) 0.38337(18) 0.3341(6)
H4 H 0.84370 0.41140 0.17630
H5 H 0.88680 0.33380 0.31030
C4 C 0.88479(14) 0.45540(18) 0.5042(6)
H6 H 0.92540 0.48390 0.42540
H7 H 0.90120 0.42540 0.65230
C5 C 0.83074(14) 0.53004(17) 0.5704(6)
H8 H 0.81750 0.56360 0.42180
C6 C 0.85846(15) 0.59893(19) 0.7586(6)
H9 H 0.87070 0.56560 0.90650
H10 H 0.82070 0.64180 0.79890
C7 C 0.92310(16) 0.65414(19) 0.6753(7)
H11 H 0.96230 0.61190 0.64960
H12 H 0.91240 0.68310 0.51980
C8 C 0.94588(17) 0.7278(2) 0.8541(7)
H13 H 0.95540 0.69930 1.01100
H14 H 0.90730 0.77130 0.87620
C9 C 1.01235(17) 0.7808(2) 0.7700(6)
H15 H 1.05110 0.73730 0.75140
H16 H 1.00310 0.80780 0.61100
C10 C 1.03489(18) 0.8559(2) 0.9423(7)
H17 H 1.04310 0.82890 1.10200
H18 H 0.99640 0.89990 0.95830
C11 C 1.10151(16) 0.90757(19) 0.8636(7)
H19 H 1.09340 0.93400 0.70310
H20 H 1.10940 0.95830 0.97620
C12 C 0.83115(16) 0.15162(19) 0.8535(5)
H21 H 0.79040 0.11220 0.88240
H22 H 0.83290 0.19670 0.98450
C13 C 0.82078(15) 0.20121(17) 0.6176(5)
C14 C 0.66507(17) 0.3836(2) 0.6277(9)
H23 H 0.63500 0.43470 0.66910
H24 H 0.67700 0.34990 0.77320
H25 H 0.64070 0.34350 0.51600
C12C C 1.16885(16) 0.84838(19) 0.8535(5)
H21C H 1.20960 0.88780 0.88240
H22C H 1.16710 0.80330 0.98450
C13C C 1.17922(15) 0.79879(17) 0.6176(5)
O1C O 1.17148(14) 0.83282(13) 0.4209(3)
O2C O 1.20045(10) 0.71122(12) 0.6516(3)
C2C C 1.21579(16) 0.65650(18) 0.4348(5)
C1C C 1.26735(15) 0.58054(18) 0.5083(7)
N1C N 1.23254(11) 0.51497(15) 0.6704(5)
H1C H 1.24800 0.50340 0.81500
C5C C 1.16926(14) 0.46996(17) 0.5704(6)
C4C C 1.11521(14) 0.54460(18) 0.5042(6)
C3C C 1.14711(17) 0.61663(18) 0.3341(6)
H3C H 1.23790 0.69590 0.31070
H4C H 1.15630 0.58860 0.17630
H5C H 1.11320 0.66620 0.31030
H6C H 1.07460 0.51610 0.42540
H7C H 1.09880 0.57460 0.65230
H8C H 1.18250 0.43640 0.42180
C6C C 1.14154(15) 0.40107(19) 0.7586(6)
H9C H 1.12930 0.43440 0.90650
H10C H 1.17930 0.35820 0.79890
C7C C 1.07690(16) 0.34586(19) 0.6753(7)
H11C H 1.03770 0.38810 0.64960
H12C H 1.08760 0.31690 0.51980
C8C C 1.05412(17) 0.2722(2) 0.8541(7)
H13C H 1.04460 0.30070 1.01100
H14C H 1.09270 0.22870 0.87620
C9C C 0.98765(17) 0.2192(2) 0.7700(6)
H15C H 0.94890 0.26270 0.75140
H16C H 0.99690 0.19220 0.61100
C10C C 0.96511(18) 0.1441(2) 0.9423(7)
H17C H 0.95690 0.17110 1.10200
H18C H 1.00360 0.10010 0.95830
C11C C 0.89849(16) 0.09243(19) 0.8636(7)
H19C H 0.90660 0.06600 0.70310
H20C H 0.89060 0.04170 0.97620
H2C H 1.28100 0.54720 0.35970
C14C C 1.33493(17) 0.6164(2) 0.6277(9)
H23C H 1.36500 0.56530 0.66910
H24C H 1.32300 0.65010 0.77320
H25C H 1.35930 0.65650 0.51600
#END
