####################################################################### 
# 
# This file contains crystal structure data downloaded from the 
# Cambridge Structural Database (CSD) hosted by the Cambridge 
# Crystallographic Data Centre (CCDC).
# 
# Full information about CCDC data access policies and citation 
# guidelines are available at http://www.ccdc.cam.ac.uk/access/V1 
# 
# Audit and citation data items may have been added by the CCDC. 
# Please retain this information to preserve the provenance of 
# this file and to allow appropriate attribution of the data. 
# 
#######################################################################

data_Co9MOF
_audit_block_doi                 10.5517/cc132wsv
_database_code_depnum_ccdc_archive 'CCDC 1015677'
loop_
_citation_id
_citation_doi
_citation_year
1 10.1021/cg501141m 2015
_audit_update_record             
;
2014-07-23 deposited with the CCDC.	2024-07-08 downloaded from the CCDC.
;

_audit_creation_method           SHELXL-97
_chemical_name_systematic        
; 
 ? 
;
_chemical_name_common            ?
_chemical_melting_point          ?
_chemical_formula_moiety         'C108 H72 Co9 N18 O42, 8(O)'
_chemical_formula_sum            'C108 H72 Co9 N18 O50'
_chemical_formula_weight         2952.21

loop_
_atom_type_symbol
_atom_type_description
_atom_type_scat_dispersion_real
_atom_type_scat_dispersion_imag
_atom_type_scat_source
C C 0.0181 0.0091 'International Tables Vol C Tables 4.2.6.8 and 6.1.1.4'
H H 0.0000 0.0000 'International Tables Vol C Tables 4.2.6.8 and 6.1.1.4'
N N 0.0311 0.0180 'International Tables Vol C Tables 4.2.6.8 and 6.1.1.4'
O O 0.0492 0.0322 'International Tables Vol C Tables 4.2.6.8 and 6.1.1.4'
Co Co -2.3653 3.6143 'International Tables Vol C Tables 4.2.6.8 and 6.1.1.4'

_symmetry_cell_setting           Monoclinic
_symmetry_space_group_name_H-M   ' C 2/c'
_symmetry_space_group_name_Hall  '-C 2yc'

loop_
_symmetry_equiv_pos_as_xyz
'x, y, z'
'-x, y, -z+1/2'
'x+1/2, y+1/2, z'
'-x+1/2, y+1/2, -z+1/2'
'-x, -y, -z'
'x, -y, z-1/2'
'-x+1/2, -y+1/2, -z'
'x+1/2, -y+1/2, z-1/2'

_cell_length_a                   31.263(5)
_cell_length_b                   25.383(5)
_cell_length_c                   26.217(5)
_cell_angle_alpha                90.000
_cell_angle_beta                 116.261(5)
_cell_angle_gamma                90.000
_cell_volume                     18657(6)
_cell_formula_units_Z            4
_cell_measurement_temperature    100(2)
_cell_measurement_reflns_used    8001
_cell_measurement_theta_min      3.1499
_cell_measurement_theta_max      66.9867

_exptl_crystal_description       Polyhedral
_exptl_crystal_colour            Purple
_exptl_crystal_size_max          0.08
_exptl_crystal_size_mid          0.06
_exptl_crystal_size_min          0.04
_exptl_crystal_density_meas      ?
_exptl_crystal_density_diffrn    1.051
_exptl_crystal_density_method    'not measured'
_exptl_crystal_F_000             5956
_exptl_absorpt_coefficient_mu    6.661
_exptl_absorpt_correction_type   multi-scan
_exptl_absorpt_correction_T_min  0.54767
_exptl_absorpt_correction_T_max  1.00000
_exptl_absorpt_process_details   
'Empirical absorption correction (CrysAlis RED, Oxford Diffraction)'

_exptl_special_details           
; 
 ? 
;

_diffrn_ambient_temperature      100(2)
_diffrn_radiation_wavelength     1.54180
_diffrn_radiation_type           CuK\a
_diffrn_radiation_source         'SuperNova (Cu) X-ray Source'
_diffrn_radiation_monochromator  mirror
_diffrn_measurement_device_type  'SuperNova, Dual, Cu at zero, Atlas'
_diffrn_measurement_method       '\w scans'
_diffrn_detector_area_resol_mean 10.4223
_diffrn_standards_number         ?
_diffrn_standards_interval_count ?
_diffrn_standards_interval_time  ?
_diffrn_standards_decay_%        ?
_diffrn_reflns_number            35569
_diffrn_reflns_av_R_equivalents  0.0507
_diffrn_reflns_av_sigmaI/netI    0.0709
_diffrn_reflns_limit_h_min       -37
_diffrn_reflns_limit_h_max       15
_diffrn_reflns_limit_k_min       -28
_diffrn_reflns_limit_k_max       30
_diffrn_reflns_limit_l_min       -28
_diffrn_reflns_limit_l_max       31
_diffrn_reflns_theta_min         3.15
_diffrn_reflns_theta_max         66.99
_reflns_number_total             16587
_reflns_number_gt                11608
_reflns_threshold_expression     >2sigma(I)

_computing_data_collection       'CrysAlis CCD'
_computing_cell_refinement       'CrysAlis RED'
_computing_data_reduction        'CrysAlis RED'
_computing_structure_solution    'SHELXL-97 (Sheldrick, 1997)'
_computing_structure_refinement  'SHELXL-97 (Sheldrick, 1997)'
_computing_molecular_graphics    
;
 DIAMOND (Brandenburg, 2006)
 MERCURY (Bruno et al. 2002)
;

_computing_publication_material  'WINGX (Farrugia, 1999)'

_refine_special_details          
; 
 Refinement of F^2^ against ALL reflections.  The weighted R-factor wR and 
 goodness of fit S are based on F^2^, conventional R-factors R are based 
 on F, with F set to zero for negative F^2^. The threshold expression of 
 F^2^ > 2sigma(F^2^) is used only for calculating R-factors(gt) etc. and is 
 not relevant to the choice of reflections for refinement.  R-factors based 
 on F^2^ are statistically about twice as large as those based on F, and R- 
 factors based on ALL data will be even larger. 
;

_refine_ls_structure_factor_coef Fsqd
_refine_ls_matrix_type           full
_refine_ls_weighting_scheme      calc
_refine_ls_weighting_details     
'calc w=1/[\s^2^(Fo^2^)+(0.0992P)^2^+0.0000P] where P=(Fo^2^+2Fc^2^)/3'
_atom_sites_solution_primary     direct
_atom_sites_solution_secondary   difmap
_atom_sites_solution_hydrogens   geom
_refine_ls_hydrogen_treatment    constr
_refine_ls_extinction_method     none
_refine_ls_extinction_coef       ?
_refine_ls_number_reflns         16587
_refine_ls_number_parameters     834
_refine_ls_number_restraints     13
_refine_ls_R_factor_all          0.0771
_refine_ls_R_factor_gt           0.0592
_refine_ls_wR_factor_ref         0.1651
_refine_ls_wR_factor_gt          0.1501
_refine_ls_goodness_of_fit_ref   0.938
_refine_ls_restrained_S_all      0.942
_refine_ls_shift/su_max          0.002
_refine_ls_shift/su_mean         0.000

loop_
_atom_site_label
_atom_site_type_symbol
_atom_site_fract_x
_atom_site_fract_y
_atom_site_fract_z
_atom_site_U_iso_or_equiv
_atom_site_adp_type
_atom_site_occupancy
_atom_site_symmetry_multiplicity
_atom_site_calc_flag
_atom_site_refinement_flags
_atom_site_disorder_assembly
_atom_site_disorder_group
Co1 Co 0.067392(17) 0.23968(2) 0.02770(2) 0.01393(13) Uani 1 1 d U . .
Co2 Co -0.060997(17) 0.24199(2) -0.03584(2) 0.01397(13) Uani 1 1 d . . .
Co3 Co -0.280934(18) 0.00639(2) -0.06338(2) 0.01425(13) Uani 1 1 d . . .
Co4 Co 0.200530(18) 0.49697(2) 0.29190(2) 0.01497(13) Uani 1 1 d U . .
Co5 Co 0.0000 0.00634(3) 0.2500 0.01343(16) Uani 1 2 d S . .
O1 O 0.00399(8) 0.28477(10) -0.00289(10) 0.0236(5) Uani 1 1 d . . .
O2 O -0.03708(8) 0.19901(10) 0.03861(10) 0.0199(5) Uani 1 1 d . . .
O3 O 0.04103(8) 0.18433(10) 0.06559(10) 0.0208(5) Uani 1 1 d . . .
O4 O -0.03624(8) 0.18536(10) -0.07373(10) 0.0205(5) Uani 1 1 d . . .
O5 O 0.04144(8) 0.19855(9) -0.04840(9) 0.0186(5) Uani 1 1 d . . .
O6 O -0.08662(9) 0.28800(10) -0.10930(10) 0.0250(6) Uani 1 1 d . . .
O7 O -0.02330(12) 0.33880(19) -0.0917(2) 0.0953(18) Uani 1 1 d U . .
O8 O 0.09506(9) 0.28405(10) 0.10257(10) 0.0251(6) Uani 1 1 d . . .
O9 O 0.03115(12) 0.3260(2) 0.0945(2) 0.112(2) Uani 1 1 d . . .
O10 O -0.24714(11) 0.06900(13) -0.07855(11) 0.0433(8) Uani 1 1 d . . .
O11 O -0.24899(9) 0.05985(10) -0.16431(10) 0.0246(6) Uani 1 1 d . . .
O12 O -0.17795(9) 0.44063(12) 0.04532(11) 0.0337(7) Uani 1 1 d . . .
O13 O -0.12396(10) 0.41754(12) 0.13237(11) 0.0352(7) Uani 1 1 d . . .
O14 O 0.12682(9) 0.42639(11) -0.13269(11) 0.0315(6) Uani 1 1 d . . .
O15 O 0.18342(10) 0.44583(12) -0.04535(11) 0.0377(7) Uani 1 1 d . . .
O16 O 0.07399(8) 0.00748(9) 0.29928(10) 0.0197(5) Uani 1 1 d . . .
O17 O 0.12887(9) 0.00073(11) 0.26712(11) 0.0320(7) Uani 1 1 d . . .
O18 O -0.23944(11) -0.04795(15) -0.07514(11) 0.0513(10) Uani 1 1 d . . .
O19 O 0.16701(8) 0.49476(9) 0.34596(9) 0.0171(5) Uani 1 1 d U . .
O20 O 0.23322(10) 0.49773(11) 0.23671(11) 0.0300(6) Uani 1 1 d . . .
O21 O 0.24678(9) 0.55773(10) 0.33518(10) 0.0253(6) Uani 1 1 d . . .
O22 O 0.19342(16) 0.5342(3) 0.12883(17) 0.111(2) Uani 1 1 d . . .
O23 O 0.31930(13) 0.54581(18) 0.27794(18) 0.0733(12) Uani 1 1 d . . .
O24 O 0.97624(13) 0.4400(2) 0.1915(2) 0.0821(14) Uani 1 1 d . . .
O25 O 0.02579(13) 0.45064(19) 0.80793(19) 0.0743(12) Uani 1 1 d . . .
N1 N 0.00322(10) 0.06762(12) 0.19375(11) 0.0177(6) Uani 1 1 d . . .
N2 N -0.00125(10) 0.05655(12) -0.19393(12) 0.0190(6) Uani 1 1 d . . .
N3 N -0.15303(11) 0.44037(14) -0.24268(13) 0.0293(7) Uani 1 1 d . . .
N4 N 0.15725(11) 0.43205(14) 0.24307(14) 0.0288(7) Uani 1 1 d . . .
N5 N -0.12521(10) 0.19765(11) -0.06795(12) 0.0187(6) Uani 1 1 d . . .
N6 N -0.09003(10) 0.29792(12) 0.00271(12) 0.0202(6) Uani 1 1 d . . .
N7 N 0.09826(10) 0.29534(12) -0.00867(12) 0.0201(6) Uani 1 1 d . . .
N8 N -0.22760(10) 0.00910(12) 0.02297(12) 0.0217(6) Uani 1 1 d . . .
N9 N 0.12973(10) 0.19312(12) 0.05947(12) 0.0193(6) Uani 1 1 d . . .
C1 C -0.03318(13) 0.09977(15) 0.16704(16) 0.0242(8) Uani 1 1 d . . .
H1 H -0.0588 0.0978 0.1759 0.029 Uiso 1 1 calc R . .
C2 C -0.03555(13) 0.13634(15) 0.12650(15) 0.0250(8) Uani 1 1 d . . .
H2 H -0.0621 0.1579 0.1086 0.030 Uiso 1 1 calc R . .
C3 C 0.00313(12) 0.13987(14) 0.11338(14) 0.0187(7) Uani 1 1 d . . .
C4 C 0.04180(12) 0.10751(15) 0.14228(15) 0.0235(8) Uani 1 1 d . . .
H4 H 0.0685 0.1095 0.1353 0.028 Uiso 1 1 calc R . .
C5 C 0.04064(12) 0.07206(15) 0.18176(15) 0.0237(8) Uani 1 1 d . . .
H5 H 0.0669 0.0504 0.2008 0.028 Uiso 1 1 calc R . .
C6 C 0.00250(12) 0.17794(13) 0.06878(14) 0.0184(7) Uani 1 1 d . . .
C7 C -0.03845(12) 0.06451(15) -0.18260(15) 0.0241(8) Uani 1 1 d . . .
H7 H -0.0651 0.0430 -0.2000 0.029 Uiso 1 1 calc R . .
C8 C -0.03882(13) 0.10382(15) -0.14573(15) 0.0240(8) Uani 1 1 d . . .
H8 H -0.0656 0.1087 -0.1395 0.029 Uiso 1 1 calc R . .
C9 C 0.00057(12) 0.13529(14) -0.11864(15) 0.0212(7) Uani 1 1 d . . .
C10 C 0.03924(13) 0.12734(15) -0.13047(15) 0.0236(8) Uani 1 1 d . . .
H10 H 0.0665 0.1479 -0.1131 0.028 Uiso 1 1 calc R . .
C11 C 0.03632(12) 0.08809(15) -0.16873(15) 0.0228(8) Uani 1 1 d . . .
H11 H 0.0620 0.0836 -0.1772 0.027 Uiso 1 1 calc R . .
C12 C 0.00202(12) 0.17710(14) -0.07634(14) 0.0179(7) Uani 1 1 d . . .
C13 C -0.10576(15) 0.4380(2) -0.2252(2) 0.0442(12) Uani 1 1 d . . .
H13 H -0.0918 0.4623 -0.2399 0.053 Uiso 1 1 calc R . .
C14 C -0.07712(16) 0.4016(2) -0.1869(2) 0.0535(15) Uani 1 1 d . . .
H14 H -0.0443 0.4025 -0.1748 0.064 Uiso 1 1 calc R . .
C15 C -0.09653(14) 0.36351(19) -0.16614(19) 0.0373(10) Uani 1 1 d . . .
C16 C -0.14610(14) 0.36221(18) -0.18821(18) 0.0355(10) Uani 1 1 d . . .
H16 H -0.1611 0.3355 -0.1779 0.043 Uiso 1 1 calc R . .
C17 C -0.17248(14) 0.40118(17) -0.22559(17) 0.0323(9) Uani 1 1 d . . .
H17 H -0.2055 0.4002 -0.2397 0.039 Uiso 1 1 calc R . .
C18 C -0.06636(15) 0.3267(2) -0.1191(2) 0.0485(14) Uani 1 1 d . . .
C19 C 0.17789(14) 0.39633(18) 0.22260(18) 0.0361(10) Uani 1 1 d . . .
H19 H 0.2108 0.3979 0.2354 0.043 Uiso 1 1 calc R . .
C20 C 0.15302(14) 0.35805(18) 0.18420(19) 0.0379(10) Uani 1 1 d . . .
H20 H 0.1688 0.3341 0.1716 0.046 Uiso 1 1 calc R . .
C21 C 0.10388(15) 0.3554(2) 0.1643(2) 0.0418(11) Uani 1 1 d . . .
C22 C 0.08306(15) 0.3887(2) 0.1884(2) 0.0457(12) Uani 1 1 d . . .
H22 H 0.0507 0.3861 0.1786 0.055 Uiso 1 1 calc R . .
C23 C 0.11031(14) 0.42549(19) 0.22680(19) 0.0390(11) Uani 1 1 d . . .
H23 H 0.0956 0.4474 0.2427 0.047 Uiso 1 1 calc R . .
C24 C 0.07412(14) 0.3181(2) 0.1159(2) 0.0480(13) Uani 1 1 d . . .
C25 C -0.14493(12) 0.17792(15) -0.12060(15) 0.0221(7) Uani 1 1 d . . .
H25 H -0.1342 0.1899 -0.1464 0.027 Uiso 1 1 calc R . .
C26 C -0.18055(12) 0.14052(15) -0.13834(15) 0.0231(8) Uani 1 1 d . . .
H26 H -0.1933 0.1274 -0.1752 0.028 Uiso 1 1 calc R . .
C27 C -0.19708(12) 0.12288(15) -0.10035(14) 0.0207(7) Uani 1 1 d . . .
C28 C -0.17769(13) 0.14436(16) -0.04628(15) 0.0262(8) Uani 1 1 d . . .
H28 H -0.1885 0.1337 -0.0200 0.031 Uiso 1 1 calc R . .
C29 C -0.14237(12) 0.18151(16) -0.03185(15) 0.0240(8) Uani 1 1 d . . .
H29 H -0.1298 0.1961 0.0044 0.029 Uiso 1 1 calc R . .
C30 C -0.23446(12) 0.07972(15) -0.11589(14) 0.0218(7) Uani 1 1 d . . .
C31 C -0.07203(14) 0.30227(17) 0.05958(16) 0.0316(9) Uani 1 1 d . . .
H31 H -0.0476 0.2797 0.0824 0.038 Uiso 1 1 calc R . .
C32 C -0.08847(15) 0.33895(17) 0.08507(16) 0.0341(9) Uani 1 1 d . . .
H32 H -0.0751 0.3410 0.1245 0.041 Uiso 1 1 calc R . .
C33 C -0.12469(13) 0.37275(16) 0.05228(16) 0.0271(8) Uani 1 1 d . . .
C34 C -0.14410(15) 0.36810(18) -0.00594(17) 0.0354(10) Uani 1 1 d . . .
H34 H -0.1690 0.3898 -0.0295 0.043 Uiso 1 1 calc R . .
C35 C -0.12536(14) 0.32999(18) -0.02858(17) 0.0339(10) Uani 1 1 d . . .
H35 H -0.1384 0.3269 -0.0679 0.041 Uiso 1 1 calc R . .
C36 C -0.14358(13) 0.41381(17) 0.07946(15) 0.0282(8) Uani 1 1 d . . .
C37 C 0.07816(13) 0.30469(16) -0.06486(15) 0.0267(8) Uani 1 1 d . . .
H37 H 0.0527 0.2838 -0.0885 0.032 Uiso 1 1 calc R . .
C38 C 0.09363(14) 0.34397(16) -0.08908(16) 0.0301(9) Uani 1 1 d . . .
H38 H 0.0786 0.3494 -0.1282 0.036 Uiso 1 1 calc R . .
C39 C 0.13153(13) 0.37497(15) -0.05482(16) 0.0251(8) Uani 1 1 d . . .
C40 C 0.15311(15) 0.36467(18) 0.00289(17) 0.0368(10) Uani 1 1 d . . .
H40 H 0.1793 0.3843 0.0273 0.044 Uiso 1 1 calc R . .
C41 C 0.13536(14) 0.32493(17) 0.02386(16) 0.0321(9) Uani 1 1 d . . .
H41 H 0.1501 0.3185 0.0628 0.039 Uiso 1 1 calc R . .
C42 C 0.14913(14) 0.41937(16) -0.07951(16) 0.0272(8) Uani 1 1 d . . .
C43 C 0.18139(13) 0.00840(16) 0.46629(15) 0.0272(9) Uani 1 1 d . . .
H43 H 0.1738 0.0082 0.4968 0.033 Uiso 1 1 calc R . .
C44 C 0.14471(12) 0.00793(16) 0.41176(16) 0.0262(8) Uani 1 1 d . . .
H44 H 0.1131 0.0072 0.4059 0.031 Uiso 1 1 calc R . .
C45 C 0.15539(13) 0.00849(15) 0.36629(15) 0.0223(8) Uani 1 1 d . . .
C46 C 0.20258(13) 0.01033(16) 0.37684(15) 0.0277(9) Uani 1 1 d . . .
H46 H 0.2110 0.0112 0.3470 0.033 Uiso 1 1 calc R . .
C47 C 0.23757(13) 0.01086(16) 0.43318(15) 0.0253(8) Uani 1 1 d . . .
H47 H 0.2694 0.0125 0.4401 0.030 Uiso 1 1 calc R . .
C48 C 0.11616(12) 0.00552(14) 0.30521(14) 0.0199(7) Uani 1 1 d . . .
C49 C 0.14534(12) 0.17204(15) 0.02401(15) 0.0233(8) Uani 1 1 d . . .
H49 H 0.1328 0.1845 -0.0132 0.028 Uiso 1 1 calc R . .
C50 C 0.17908(12) 0.13277(16) 0.04016(15) 0.0259(8) Uani 1 1 d . . .
H50 H 0.1886 0.1186 0.0141 0.031 Uiso 1 1 calc R . .
C51 C 0.19874(12) 0.11448(14) 0.09587(14) 0.0195(7) Uani 1 1 d . . .
C52 C 0.18411(13) 0.13860(16) 0.13335(15) 0.0266(8) Uani 1 1 d . . .
H52 H 0.1975 0.1287 0.1714 0.032 Uiso 1 1 calc R . .
C53 C 0.15016(13) 0.17658(16) 0.11372(15) 0.0259(8) Uani 1 1 d . . .
H53 H 0.1405 0.1920 0.1391 0.031 Uiso 1 1 calc R . .
C54 C 0.23389(12) 0.06964(15) 0.11394(15) 0.0233(8) Uani 1 1 d . . .

loop_
_atom_site_aniso_label
_atom_site_aniso_U_11
_atom_site_aniso_U_22
_atom_site_aniso_U_33
_atom_site_aniso_U_23
_atom_site_aniso_U_13
_atom_site_aniso_U_12
Co1 0.0149(3) 0.0133(3) 0.0126(3) 0.0001(2) 0.0052(2) -0.0013(2)
Co2 0.0145(3) 0.0133(3) 0.0135(2) 0.0010(2) 0.0056(2) 0.0001(2)
Co3 0.0139(3) 0.0167(3) 0.0121(3) -0.0005(2) 0.0057(2) -0.0014(2)
Co4 0.0162(3) 0.0167(3) 0.0108(2) -0.0003(2) 0.0050(2) 0.0011(2)
Co5 0.0146(4) 0.0170(4) 0.0086(3) 0.000 0.0051(3) 0.000
O1 0.0156(11) 0.0203(13) 0.0353(14) -0.0008(11) 0.0115(11) -0.0040(10)
O2 0.0201(12) 0.0199(13) 0.0196(12) 0.0071(10) 0.0086(11) 0.0045(10)
O3 0.0202(12) 0.0227(13) 0.0209(12) 0.0081(10) 0.0104(11) 0.0019(10)
O4 0.0194(12) 0.0192(12) 0.0227(12) -0.0043(10) 0.0090(11) 0.0000(10)
O5 0.0191(12) 0.0205(12) 0.0167(11) -0.0055(10) 0.0084(10) -0.0034(10)
O6 0.0315(14) 0.0245(14) 0.0201(12) 0.0081(11) 0.0125(12) 0.0055(11)
O7 0.0327(19) 0.107(4) 0.132(4) 0.100(3) 0.023(2) 0.013(2)
O8 0.0297(14) 0.0262(14) 0.0192(12) -0.0067(11) 0.0105(11) -0.0068(11)
O9 0.0279(19) 0.147(5) 0.143(4) -0.124(4) 0.022(2) -0.011(2)
O10 0.0504(18) 0.061(2) 0.0181(13) -0.0063(14) 0.0151(14) -0.0396(17)
O11 0.0252(13) 0.0249(14) 0.0230(13) -0.0083(11) 0.0098(11) -0.0111(11)
O12 0.0321(15) 0.0441(18) 0.0195(13) -0.0036(12) 0.0065(12) 0.0188(13)
O13 0.0379(16) 0.0412(17) 0.0206(14) -0.0032(12) 0.0076(13) 0.0168(14)
O14 0.0334(15) 0.0342(16) 0.0197(13) 0.0030(11) 0.0052(12) -0.0181(13)
O15 0.0457(17) 0.0407(18) 0.0198(13) 0.0014(12) 0.0082(13) -0.0270(15)
O16 0.0177(12) 0.0250(13) 0.0149(11) -0.0016(10) 0.0058(10) 0.0004(10)
O17 0.0227(13) 0.057(2) 0.0155(12) -0.0006(12) 0.0073(11) 0.0012(13)
O18 0.056(2) 0.072(2) 0.0182(14) -0.0017(15) 0.0098(14) 0.0454(19)
O19 0.0193(12) 0.0207(12) 0.0123(11) 0.0008(9) 0.0080(10) 0.0031(10)
O20 0.0313(14) 0.0448(18) 0.0213(13) 0.0002(12) 0.0183(12) 0.0033(12)
O21 0.0296(13) 0.0257(14) 0.0218(13) -0.0049(11) 0.0123(12) -0.0110(11)
O22 0.091(3) 0.209(6) 0.043(2) 0.041(3) 0.040(2) 0.070(4)
O23 0.065(2) 0.088(3) 0.079(3) -0.029(3) 0.042(2) -0.008(2)
O24 0.048(2) 0.094(4) 0.081(3) -0.014(3) 0.008(2) 0.009(2)
O25 0.043(2) 0.086(3) 0.077(3) 0.018(3) 0.011(2) -0.006(2)
N1 0.0216(14) 0.0203(15) 0.0140(13) 0.0016(11) 0.0103(12) -0.0020(12)
N2 0.0178(14) 0.0241(16) 0.0164(14) -0.0021(12) 0.0088(12) 0.0017(12)
N3 0.0279(17) 0.0338(19) 0.0235(16) 0.0122(14) 0.0090(14) 0.0073(15)
N4 0.0207(15) 0.0364(19) 0.0266(16) -0.0156(15) 0.0080(14) -0.0042(14)
N5 0.0184(14) 0.0169(14) 0.0228(15) -0.0020(12) 0.0110(13) -0.0048(12)
N6 0.01