####################################################################### 
# 
# This file contains crystal structure data downloaded from the 
# Cambridge Structural Database (CSD) hosted by the Cambridge 
# Crystallographic Data Centre (CCDC).
# 
# Full information about CCDC data access policies and citation 
# guidelines are available at http://www.ccdc.cam.ac.uk/access/V1 
# 
# Audit and citation data items may have been added by the CCDC. 
# Please retain this information to preserve the provenance of 
# this file and to allow appropriate attribution of the data. 
# 
#######################################################################

data__Complex1b
_audit_block_doi                 10.5517/ccsklvr
_database_code_depnum_ccdc_archive 'CCDC 731905'
loop_
_citation_id
_citation_doi
_citation_year
1 10.1016/j.inoche.2009.02.014 2009
_audit_update_record             
;
2009-05-14 deposited with the CCDC.	2024-07-08 downloaded from the CCDC.
;
#------------------------------------------------------------------------------
# CHEMICAL DATA
_chemical_formula_sum            'C50.50 H68.50 N7.50 O19.50 S2 Zn2 '
_chemical_formula_moiety         ?
_chemical_formula_weight         1287.52
_chemical_melting_point          ?
#------------------------------------------------------------------------------
# CRYSTAL DATA
_symmetry_cell_setting           triclinic
_symmetry_space_group_name_H-M   'P -1 '
_symmetry_Int_Tables_number      2
loop_
_symmetry_equiv_pos_as_xyz
x,y,z
-x,-y,-z
_cell_length_a                   12.12(1)
_cell_length_b                   13.108(8)
_cell_length_c                   20.67(2)
_cell_angle_alpha                70.83(4)
_cell_angle_beta                 78.80(5)
_cell_angle_gamma                78.28(5)
_cell_volume                     3007(3)
_cell_formula_units_Z            2
_cell_measurement_reflns_used    3565
_cell_measurement_theta_min      3.1
_cell_measurement_theta_max      27.5
_cell_measurement_temperature    173
#------------------------------------------------------------------------------
_exptl_crystal_description       plate
_exptl_crystal_colour            colorless
_exptl_crystal_size_max          0.14
_exptl_crystal_size_mid          0.12
_exptl_crystal_size_min          0.06
_exptl_crystal_size_rad          ?
_exptl_crystal_density_diffrn    1.422
_exptl_crystal_density_meas      ?
_exptl_crystal_density_method    'not measured'
_exptl_absorpt_coefficient_mu    0.944
_exptl_absorpt_correction_type   empirical
_exptl_absorpt_process_details   ?
_exptl_absorpt_correction_T_min  0.696
_exptl_absorpt_correction_T_max  0.828
#------------------------------------------------------------------------------
# EXPERIMENTAL DATA
_diffrn_radiation_type           'Mo K\a'
_diffrn_radiation_wavelength     0.7107
_diffrn_measurement_device_type  'Rigaku/MSC Mercury CCD'
_diffrn_measurement_method       \w
_diffrn_detector_area_resol_mean ?
_diffrn_reflns_number            24406
_diffrn_reflns_av_R_equivalents  0.067
_diffrn_reflns_theta_max         27.48
_diffrn_measured_fraction_theta_max 0.9586
_diffrn_reflns_theta_full        27.48
_diffrn_measured_fraction_theta_full 0.9586
_diffrn_reflns_limit_h_min       -15
_diffrn_reflns_limit_h_max       15
_diffrn_reflns_limit_k_min       -16
_diffrn_reflns_limit_k_max       16
_diffrn_reflns_limit_l_min       -26
_diffrn_reflns_limit_l_max       21
#------------------------------------------------------------------------------
# REFINEMENT DATA
_refine_special_details          
;
Refinement using reflections with F^2^ > 2.0 sigma(F^2^). The weighted R-factor
(wR), goodness of fit (S) and R-factor (gt) are based on F, with F set to zero
for negative F. The threshold expression of F^2^ > 2.0 sigma(F^2^) is used only
for calculating R-factor (gt).
;
_reflns_number_total             13204
_reflns_number_gt                4865
_reflns_threshold_expression     F^2^>2.0\s(F^2^)
_refine_ls_structure_factor_coef F
_refine_ls_R_factor_gt           0.0979
_refine_ls_wR_factor_ref         0.0988
_refine_ls_hydrogen_treatment    noref
_refine_ls_number_reflns         4865
_refine_ls_number_parameters     434
_refine_ls_goodness_of_fit_ref   1.190
_refine_ls_weighting_scheme      calc
_refine_ls_weighting_details     'w = 1/[\s^2^(Fo) + 0.00160|Fo|^2^]'
_refine_ls_shift/su_max          0.0271
_refine_diff_density_max         1.02
_refine_diff_density_min         -0.95
_refine_ls_extinction_method     none
_refine_ls_extinction_coef       ?
_refine_ls_abs_structure_details ?
_refine_ls_abs_structure_Flack   ?
loop_
_atom_type_symbol
_atom_type_description
_atom_type_scat_dispersion_real
_atom_type_scat_dispersion_imag
_atom_type_scat_source
C C 0.003 0.002
;International Tables for Crystallography
(1992, Vol. C, Tables 4.2.6.8 and 6.1.1.1)
;
Zn Zn 0.284 1.430
;International Tables for Crystallography
(1992, Vol. C, Tables 4.2.6.8 and 6.1.1.1)
;
O O 0.011 0.006
;International Tables for Crystallography
(1992, Vol. C, Tables 4.2.6.8 and 6.1.1.1)
;
N N 0.006 0.003
;International Tables for Crystallography
(1992, Vol. C, Tables 4.2.6.8 and 6.1.1.1)
;
H H 0.000 0.000
;International Tables for Crystallography
(1992, Vol. C, Table 6.1.1.2)
;
S S 0.125 0.123
;International Tables for Crystallography
(1992, Vol. C, Tables 4.2.6.8 and 6.1.1.1)
;
#------------------------------------------------------------------------------
# ATOMIC COORDINATES AND DISPLACEMENT PARAMETERS
loop_
_atom_site_label
_atom_site_type_symbol
_atom_site_fract_x
_atom_site_fract_y
_atom_site_fract_z
_atom_site_U_iso_or_equiv
_atom_site_adp_type
_atom_site_occupancy
_atom_site_calc_flag
_atom_site_refinement_flags
_atom_site_disorder_assembly
_atom_site_disorder_group
Zn(1) Zn 0.8546(1) 0.19989(9) 0.68617(6) 0.0203(3) Uani 1.00 d . . .
Zn(2) Zn 0.7083(1) 0.15632(9) 0.82246(6) 0.0211(3) Uani 1.00 d . . .
S(1) S 0.3958(3) -0.1799(2) 0.6221(1) 0.0236(8) Uani 1.00 d . . .
S(2) S 1.1601(2) -0.4654(2) 0.8903(1) 0.0230(8) Uani 1.00 d . . .
O(1) O 0.7397(7) 0.1214(6) 0.6698(4) 0.035(2) Uani 1.00 d . . .
O(2) O 0.6437(7) 0.0692(5) 0.7764(4) 0.038(2) Uani 1.00 d . . .
O(3) O 0.4037(7) -0.1391(5) 0.5478(4) 0.030(2) Uani 1.00 d . . .
O(4) O 0.2841(6) -0.1761(6) 0.6624(4) 0.033(2) Uani 1.00 d . . .
O(5) O 0.7409(7) -0.6602(6) 0.6664(4) 0.034(2) Uani 1.00 d . . .
O(6) O 0.6169(7) -0.7026(6) 0.7637(4) 0.036(2) Uani 1.00 d . . .
O(7) O 0.9246(7) 0.0488(6) 0.7477(4) 0.033(2) Uani 1.00 d . . .
O(8) O 0.8265(7) 0.0208(6) 0.8532(4) 0.035(2) Uani 1.00 d . . .
O(9) O 1.2728(6) -0.4671(6) 0.8540(4) 0.027(2) Uani 1.00 d . . .
O(10) O 1.1444(6) -0.5073(5) 0.9633(3) 0.024(2) Uani 1.00 d . . .
O(11) O 0.9396(7) -0.7281(6) 0.7286(4) 0.036(2) Uani 1.00 d . . .
O(12) O 0.8180(6) -0.7487(6) 0.8259(4) 0.036(2) Uani 1.00 d . . .
O(13) O 0.9637(7) 0.2003(6) 0.6012(4) 0.031(2) Uani 1.00 d . . .
O(14) O 0.6041(7) 0.1427(6) 0.9106(4) 0.035(2) Uani 1.00 d . . .
O(15) O 0.070(1) 0.1479(10) 0.3670(7) 0.102(4) Uiso 1.00 d . . .
O(16) O 0.736(2) 0.515(1) 0.3522(9) 0.157(6) Uiso 1.00 d . . .
O(17) O 0.679(2) 0.815(1) 0.2086(9) 0.160(6) Uiso 1.00 d . . .
O(18) O 0.678(2) 0.163(2) 0.118(1) 0.238(10) Uiso 1.00 d . . .
O(19) O 0.493(3) 0.298(3) 0.109(2) 0.32(1) Uiso 1.00 d . . .
O(20) O 0.812(2) 0.573(2) 0.490(1) 0.103(8) Uiso 0.50 d P . .
N(1) N 1.0877(8) 0.1015(8) 0.5405(5) 0.040(3) Uani 1.00 d . . .
N(2) N 0.421(1) 0.1719(10) 0.9636(7) 0.076(4) Uani 1.00 d . . .
N(3) N 0.174(1) 0.260(1) 0.2698(8) 0.089(5) Uiso 1.00 d . . .
N(4) N 0.725(1) 0.3734(9) 0.4487(6) 0.057(3) Uiso 1.00 d . . .
N(5) N 0.675(1) 0.8003(10) 0.3217(7) 0.074(4) Uiso 1.00 d . . .
N(6) N 0.811(1) 0.046(1) 0.0723(8) 0.101(5) Uiso 1.00 d . . .
N(7) N 0.423(2) 0.482(1) 0.0838(9) 0.120(6) Uiso 1.00 d . . .
N(8) N 1.0000 0.5000 0.5000 0.057(5) Uiso 1.00 d S . .
C(1) C 0.667(1) 0.0730(8) 0.7144(6) 0.029(3) Uiso 1.00 d . . .
C(2) C 0.5997(10) 0.0096(8) 0.6902(6) 0.026(3) Uiso 1.00 d . . .
C(3) C 0.6152(9) 0.0109(8) 0.6230(5) 0.025(3) Uiso 1.00 d . . .
C(4) C 0.5528(9) -0.0484(8) 0.6018(5) 0.024(3) Uiso 1.00 d . . .
C(5) C 0.4758(9) -0.1082(8) 0.6498(5) 0.024(3) Uiso 1.00 d . . .
C(6) C 0.4569(10) -0.1090(8) 0.7169(6) 0.026(3) Uiso 1.00 d . . .
C(7) C 0.521(1) -0.0543(9) 0.7388(6) 0.040(3) Uiso 1.00 d . . .
C(8) C 0.6518(9) -0.6403(8) 0.7073(5) 0.022(3) Uiso 1.00 d . . .
C(9) C 0.5853(9) -0.5237(8) 0.6842(5) 0.022(2) Uiso 1.00 d . . .
C(10) C 0.6136(10) -0.4530(8) 0.6206(6) 0.028(3) Uiso 1.00 d . . .
C(11) C 0.5590(10) -0.3464(8) 0.6010(6) 0.029(3) Uiso 1.00 d . . .
C(12) C 0.4678(9) -0.3145(8) 0.6456(5) 0.020(2) Uiso 1.00 d . . .
C(13) C 0.433(1) -0.3874(9) 0.7084(6) 0.037(3) Uiso 1.00 d . . .
C(14) C 0.493(1) -0.4958(9) 0.7294(6) 0.035(3) Uiso 1.00 d . . .
C(15) C 0.9018(10) -0.0058(8) 0.8087(6) 0.025(3) Uiso 1.00 d . . .
C(16) C 0.9714(10) -0.1182(8) 0.8313(6) 0.028(3) Uiso 1.00 d . . .
C(17) C 1.061(1) -0.1523(9) 0.7877(6) 0.034(3) Uiso 1.00 d . . .
C(18) C 1.122(1) -0.2534(9) 0.8033(6) 0.031(3) Uiso 1.00 d . . .
C(19) C 1.088(1) -0.3299(9) 0.8689(6) 0.030(3) Uiso 1.00 d . . .
C(20) C 0.999(1) -0.2977(10) 0.9115(7) 0.042(3) Uiso 1.00 d . . .
C(21) C 0.938(1) -0.1928(10) 0.8958(6) 0.040(3) Uiso 1.00 d . . .
C(22) C 0.907(1) -0.7172(8) 0.7880(6) 0.029(3) Uiso 1.00 d . . .
C(23) C 0.9701(9) -0.6522(8) 0.8123(5) 0.022(3) Uiso 1.00 d . . .
C(24) C 1.0698(9) -0.6218(8) 0.7756(5) 0.020(2) Uiso 1.00 d . . .
C(25) C 1.1330(9) -0.5634(8) 0.7983(5) 0.024(3) Uiso 1.00 d . . .
C(26) C 1.0876(9) -0.5361(7) 0.8571(5) 0.017(2) Uiso 1.00 d . . .
C(27) C 0.9812(10) -0.5657(8) 0.8942(6) 0.027(3) Uiso 1.00 d . . .
C(28) C 0.922(1) -0.6231(8) 0.8715(6) 0.032(3) Uiso 1.00 d . . .
C(29) C 1.0030(10) 0.1113(8) 0.5900(6) 0.027(3) Uiso 1.00 d . . .
C(30) C 1.145(2) 0.191(1) 0.4999(9) 0.086(5) Uiso 1.00 d . . .
C(31) C 1.128(1) -0.005(1) 0.5276(8) 0.067(4) Uiso 1.00 d . . .
C(32) C 0.499(1) 0.173(1) 0.9081(8) 0.061(4) Uiso 1.00 d . . .
C(33) C 0.300(2) 0.205(2) 0.956(1) 0.109(7) Uiso 1.00 d . . .
C(34) C 0.457(1) 0.129(1) 1.0308(7) 0.049(4) Uiso 1.00 d . . .
C(35) C 0.128(1) 0.173(1) 0.3137(9) 0.070(5) Uiso 1.00 d . . .
C(36) C 0.148(3) 0.352(2) 0.291(1) 0.175(10) Uiso 1.00 d . . .
C(37) C 0.235(2) 0.270(2) 0.209(1) 0.137(8) Uiso 1.00 d . . .
C(38) C 0.690(2) 0.471(2) 0.407(1) 0.096(6) Uiso 1.00 d . . .
C(39) C 0.659(2) 0.336(2) 0.509(1) 0.114(7) Uiso 1.00 d . . .
C(40) C 0.835(2) 0.324(2) 0.421(1) 0.160(9) Uiso 1.00 d . . .
C(41) C 0.638(2) 0.786(1) 0.2680(10) 0.083(5) Uiso 1.00 d . . .
C(42) C 0.773(2) 0.853(1) 0.3116(9) 0.086(5) Uiso 1.00 d . . .
C(43) C 0.621(2) 0.760(2) 0.390(1) 0.114(7) Uiso 1.00 d . . .
C(44) C 0.731(3) 0.069(3) 0.121(2) 0.20(1) Uiso 1.00 d . . .
C(45) C 0.824(3) 0.147(2) 0.020(2) 0.175(10) Uiso 1.00 d . . .
C(46) C 0.897(2) -0.047(2) 0.087(1) 0.132(8) Uiso 1.00 d . . .
C(47) C 0.499(2) 0.391(2) 0.115(1) 0.152(9) Uiso 1.00 d . . .
C(48) C 0.427(2) 0.579(2) 0.094(1) 0.138(8) Uiso 1.00 d . . .
C(49) C 0.342(2) 0.462(2) 0.048(1) 0.125(8) Uiso 1.00 d . . .
C(50) C 0.899(3) 0.489(2) 0.541(2) 0.056(8) Uiso 0.50 d P . .
C(51) C 1.092(3) 0.437(2) 0.549(2) 0.074(9) Uiso 0.50 d P . .
C(52) C 1.041(3) 0.520(3) 0.431(2) 0.09(1) Uiso 0.50 d P . .
H(1) H 0.6687 0.0523 0.5903 0.0296 Uiso 1.00 calc . . .
H(2) H 0.5635 -0.0474 0.5548 0.0292 Uiso 1.00 calc . . .
H(3) H 0.3998 -0.1468 0.7485 0.0317 Uiso 1.00 calc . . .
H(4) H 0.5134 -0.0595 0.7863 0.0476 Uiso 1.00 calc . . .
H(5) H 0.6722 -0.4777 0.5889 0.0333 Uiso 1.00 calc . . .
H(6) H 0.5835 -0.2962 0.5580 0.0350 Uiso 1.00 calc . . .
H(7) H 0.3690 -0.3650 0.7378 0.0446 Uiso 1.00 calc . . .
H(8) H 0.4707 -0.5465 0.7726 0.0420 Uiso 1.00 calc . . .
H(9) H 1.0811 -0.1019 0.7439 0.0406 Uiso 1.00 calc . . .
H(10) H 1.1852 -0.2733 0.7723 0.0367 Uiso 1.00 calc . . .
H(11) H 0.9774 -0.3491 0.9546 0.0508 Uiso 1.00 calc . . .
H(12) H 0.8761 -0.1722 0.9273 0.0486 Uiso 1.00 calc . . .
H(13) H 1.0978 -0.6399 0.7339 0.0242 Uiso 1.00 calc . . .
H(14) H 1.2042 -0.5441 0.7735 0.0282 Uiso 1.00 calc . . .
H(15) H 0.9509 -0.5455 0.9350 0.0328 Uiso 1.00 calc . . .
H(16) H 0.8504 -0.6423 0.8955 0.0380 Uiso 1.00 calc . . .
H(17) H 0.4737 0.1990 0.8640 0.0735 Uiso 1.00 calc . . .
H(18) H 0.3938 0.1367 1.0650 0.0593 Uiso 1.00 calc . . .
H(19) H 0.4877 0.0538 1.0390 0.0593 Uiso 1.00 calc . . .
H(20) H 0.5138 0.1678 1.0330 0.0593 Uiso 1.00 calc . . .
H(21) H 0.2888 0.2769 0.9248 0.1307 Uiso 1.00 calc . . .
H(22) H 0.2757 0.1560 0.9388 0.1307 Uiso 1.00 calc . . .
H(23) H 0.2569 0.2044 0.9999 0.1307 Uiso 1.00 calc . . .
H(24) H 0.9708 0.0481 0.6181 0.0323 Uiso 1.00 calc . . .
H(25) H 1.1721 0.2199 0.5295 0.1035 Uiso 1.00 calc . . .
H(26) H 1.2078 0.1667 0.4702 0.1035 Uiso 1.00 calc . . .
H(27) H 1.0943 0.2462 0.4730 0.1035 Uiso 1.00 calc . . .
H(28) H 1.0680 -0.0275 0.5149 0.0808 Uiso 1.00 calc . . .
H(29) H 1.1901 0.0021 0.4913 0.0808 Uiso 1.00 calc . . .
H(30) H 1.1520 -0.0572 0.5684 0.0808 Uiso 1.00 calc . . .
H(31) H 0.8632 -0.1107 0.1100 0.1589 Uiso 1.00 calc . . .
H(32) H 0.9422 -0.0536 0.0451 0.1589 Uiso 1.00 calc . . .
H(33) H 0.9445 -0.0378 0.1160 0.1589 Uiso 1.00 calc . . .
H(34) H 0.8588 0.1903 0.0371 0.2096 Uiso 1.00 calc . . .
H(35) H 0.8705 0.1339 -0.0197 0.2096 Uiso 1.00 calc . . .
H(36) H 0.7515 0.1847 0.0087 0.2096 Uiso 1.00 calc . . .
H(37) H 0.7134 0.0104 0.1616 0.2364 Uiso 1.00 calc . . .
H(38) H 0.1497 0.1128 0.2957 0.0846 Uiso 1.00 calc . . .
H(39) H 0.6204 0.5089 0.4237 0.1148 Uiso 1.00 calc . . .
H(40) H 0.1743 0.3368 0.3338 0.2105 Uiso 1.00 calc . . .
H(41) H 0.1838 0.4089 0.2571 0.2105 Uiso 1.00 calc . . .
H(42) H 0.0679 0.3740 0.2958 0.2105 Uiso 1.00 calc . . .
H(43) H 0.2487 0.2022 0.1994 0.1648 Uiso 1.00 calc . . .
H(44) H 0.1960 0.3243 0.1747 0.1648 Uiso 1.00 calc . . .
H(45) H 0.3059 0.2907 0.2094 0.1648 Uiso 1.00 calc . . .
H(46) H 0.6487 0.3860 0.5354 0.1373 Uiso 1.00 calc . . .
H(47) H 0.5868 0.3295 0.5008 0.1373 Uiso 1.00 calc . . .
H(48) H 0.6942 0.2668 0.5349 0.1373 Uiso 1.00 calc . . .
H(49) H 0.8591 0.2563 0.4537 0.1919 Uiso 1.00 calc . . .
H(50) H 0.8283 0.3109 0.3793 0.1919 Uiso 1.00 calc . . .
H(51) H 0.8894 0.3714 0.4118 0.1919 Uiso 1.00 calc . . .
H(52) H 0.5733 0.7504 0.2786 0.0997 Uiso 1.00 calc . . .
H(53) H 0.5542 0.3975 0.1393 0.1821 Uiso 1.00 calc . . .
H(54) H 0.5021 0.5951 0.0807 0.1657 Uiso 1.00 calc . . .
H(55) H 0.3772 0.6350 0.0660 0.1657 Uiso 1.00 calc . . .
H(56) H 0.4027 0.5740 0.1409 0.1657 Uiso 1.00 calc . . .
H(57) H 0.2668 0.4813 0.0683 0.1495 Uiso 1.00 calc . . .
H(58) H 0.3519 0.5047 0.0005 0.1495 Uiso 1.00 calc . . .
H(59) H 0.3543 0.3868 0.0506 0.1495 Uiso 1.00 calc . . .
H(60) H 0.8311 0.8024 0.3348 0.1034 Uiso 1.00 calc . . .
H(61) H 0.7993 0.8782 0.2636 0.1034 Uiso 1.00 calc . . .
H(62) H 0.7521 0.9131 0.3297 0.1034 Uiso 1.00 calc . . .
H(63) H 0.5441 0.7950 0.3929 0.1367 Uiso 1.00 calc . . .
H(64) H 0.6225 0.6835 0.4007 0.1367 Uiso 1.00 calc . . .
H(65) H 0.6591 0.7745 0.4209 0.1367 Uiso 1.00 calc . . .
H(66) H 0.8837 0.4447 0.5876 0.0675 Uiso 0.50 calc P . .
H(67) H 1.0811 0.3631 0.5690 0.0883 Uiso 0.50 calc P . .
H(68) H 1.1656 0.4416 0.5238 0.0883 Uiso 0.50 calc P . .
H(69) H 1.0838 0.4699 0.5852 0.0883 Uiso 0.50 calc P . .
H(70) H 1.1009 0.5619 0.4190 0.1029 Uiso 0.50 calc P . .
H(71) H 1.0678 0.4526 0.4208 0.1029 Uiso 0.50 calc P . .
H(72) H 0.9810 0.5593 0.4041 0.1029 Uiso 0.50 calc P . .

loop_
_atom_site_aniso_label
_atom_site_aniso_U_11
_atom_site_aniso_U_22
_atom_site_aniso_U_33
_atom_site_aniso_U_12
_atom_site_aniso_U_13
_atom_site_aniso_U_23
Zn(1) 0.0254(8) 0.0177(6) 0.0186(7) -0.0032(5) -0.0001(6) -0.0082(5)
Zn(2) 0.0231(8) 0.0173(6) 0.0232(7) -0.0042(5) 0.0003(6) -0.0078(5)
S(1) 0.025(2) 0.023(1) 0.024(2) -0.005(1) -0.008(1) -0.005(1)
S(2) 0.023(2) 0.022(1) 0.025(2) -0.004(1) -0.005(1) -0.008(1)
O(1) 0.036(5) 0.035(4) 0.040(5) -0.017(4) 0.004(4) -0.019(3)
O(2) 0.057(6) 0.022(4) 0.043(5) -0.015(4) -0.016(4) -0.010(3)
O(3) 0.041(5) 0.026(4) 0.024(4) -0.011(4) -0.016(4) 0.003(3)
O(4) 0.022(5) 0.042(4) 0.033(5) -0.010(4) -0.001(4) -0.004(4)
O(5) 0.034(5) 0.029(4) 0.028(5) -0.002(4) 0.001(4) 0.000(3)
O(6) 0.033(5) 0.027(4) 0.042(5) -0.011(4) 0.011(4) -0.011(3)
O(7) 0.032(5) 0.033(4) 0.026(4) 0.003(4) 0.000(4) -0.007(3)
O(8) 0.034(5) 0.028(4) 0.041(5) 0.007(4) -0.004(4) -0.014(3)
O(9) 0.020(5) 0.034(4) 0.022(4) 0.000(3) -0.002(4) -0.004(3)
O(10) 0.032(5) 0.021(4) 0.017(4) -0.009(3) 0.003(3) -0.002(3)
O(11) 0.033(5) 0.045(4) 0.045(5) -0.014(4) -0.007(4) -0.027(4)
O(12) 0.022(5) 0.048(4) 0.046(5) -0.015(4) 0.005(4) -0.024(4)
O(13) 0.037(5) 0.031(4) 0.021(4) -0.001(4) 0.005(4) -0.009(3)
O(14) 0.041(5) 0.031(4) 0.024(4) -0.016(4) 0.009(4) 0.000(3)
N(1) 0.023(6) 0.060(6) 0.044(6) 0.000(5) -0.001(5) -0.032(5)
N(2) 0.043(8) 0.074(9) 0.054(8) 0.020(7) 0.035(7) 0.014(7)
#------------------------------------------------------------------------------
_computing_data_collection       P
_computing_cell_refinement       P
_computing_data_reduction        'teXsan Ver. 1.11'
_computing_structure_solution    QTAN
_computing_structure_refinement  'teXsan Ver. 1.10'
_computing_publication_material  'teXsan Ver. 1.11'
_computing_molecular_graphics    ?
#------------------------------------------------------------------------------
_geom_special_details            
;
?
;
loop_
_geom_bond_atom_site_label_1
_geom_bond_atom_site_label_2
_geom_bond_distance
_geom_bond_site_symmetry_1
_geom_bond_site_symmetry_2
_geom_bond_publ_flag
Zn(1) O(1) 2.026(7) . . yes
Zn(1) O(5) 2.032(8) . 1_565 yes
Zn(1) O(7) 2.083(7) . . yes
Zn(1) O(11) 2.003(7) . 1_565 yes
Zn(1) O(13) 1.982(7) . . yes
Zn(2) O(2) 2.046(7) . . yes
Zn(2) O(6) 2.082(8) . 1_565 yes
Zn(2) O(8) 2.047(8) . . yes
Zn(2) O(12) 2.023(7) . 1_565 yes
Zn(2) O(14) 1.982(8) . . yes
S(1) O(3) 1.443(7) . . yes
S(1) O(4) 1.445(8) . . yes
S(1) C(5) 1.76(1) . . yes
S(1) C(12) 1.76(1) . . yes
S(2) O(9) 1.425(8) . . yes
S(2) O(10) 1.415(7) . . yes
S(2) C(19) 1.77(1) . . yes
S(2) C(26) 1.756(10) . . yes
O(1) C(1) 1.25(1) . . yes
O(2) C(1) 1.25(1) . . yes
O(5) C(8) 1.28(1) . . yes
O(6) C(8) 1.24(1) . . yes
O(7) C(15) 1.24(1) . . yes
O(8) C(15) 1.25(1) . . yes
O(11) C(22) 1.26(1) . . yes
O(12) C(22) 1.26(1) . . yes
O(13) C(29) 1.24(1) . . yes
O(14) C(32) 1.26(2) . . yes
O(15) C(35) 1.17(2) . . yes
O(16) C(38) 1.18(2) . . yes
O(17) C(41) 1.19(2) . . yes
O(18) C(44) 1.26(4) . . yes
O(19) C(47) 1.27(3) . . yes
O(20) C(50) 1.62(4) . . yes
O(20) C(51) 1.30(4) . 2_766 yes
N(1) C(29) 1.32(1) . . yes
N(1) C(30) 1.42(2) . . yes
N(1) C(31) 1.47(2) . . yes
N(2) C(32) 1.33(2) . . yes
N(2) C(33) 1.47(2) . . yes
N(2) C(34) 1.43(2) . . yes
N(3) C(35) 1.35(2) . . yes
N(3) C(36) 1.37(3) . . yes
N(3) C(37) 1.31(2) . . yes
N(4) C(38) 1.32(2) . . yes
N(4) C(39) 1.35(2) . . yes
N(4) C(40) 1.46(3) . . yes
N(5) C(41) 1.35(2) . . yes
N(5) C(42) 1.43(2) . . yes
N(5) C(43) 1.41(2) . . yes
N(6) C(44) 1.33(3) . . yes
N(6) C(45) 1.42(3) . . yes
N(6) C(46) 1.42(3) . . yes
N(7) C(47) 1.40(3) . . yes
N(7) C(48) 1.36(2) . . yes
N(7) C(49) 1.45(3) . . yes
N(8) C(50) 1.35(3) . . yes
N(8) C(50) 1.35(3) . 2_766 yes
N(8) C(51) 1.57(4) . . yes
N(8) C(51) 1.57(4) . 2_766 yes
N(8) C(52) 1.38(4) . . yes
N(8) C(52) 1.38(4) . 2_766 yes
C(1) C(2) 1.52(1) . . yes
C(2) C(3) 1.36(1) . . yes
C(2) C(7) 1.42(2) . . yes
C(3) C(4) 1.40(1) . . yes
C(4) C(5) 1.38(1) . . yes
C(5) C(6) 1.36(1) . . yes
C(6) C(7) 1.38(2) . . yes
C(8) C(9) 1.54(1) . . yes
C(9) C(10) 1.36(1) . . yes
C(9) C(14) 1.38(1) . . yes
C(10) C(11) 1.38(1) . . yes
C(11) C(12) 1.38(1) . . yes
C(12) C(13) 1.38(1) . . yes
C(13) C(14) 1.43(2) . . yes
C(15) C(16) 1.52(1) . . yes
C(16) C(17) 1.37(2) . . yes
C(16) C(21) 1.41(2) . . yes
C(17) C(18) 1.35(2) . . yes
C(18) C(19) 1.44(1) . . yes
C(19) C(20) 1.34(2) . . yes
C(20) C(21) 1.39(2) . . yes
C(22) C(23) 1.50(1) . . yes
C(23) C(24) 1.35(1) . . yes
C(23) C(28) 1.39(1) . . yes
C(24) C(25) 1.42(1) . . yes
C(25) C(26) 1.36(1) . . yes
C(26) C(27) 1.42(1) . . yes
C(27) C(28) 1.37(1) . . yes
C(50) C(51) 