
#######################################################################
#
#                 Cambridge Crystallographic Data Centre
#                                CCDC
#
#######################################################################
#
# If this CIF has been generated from an entry in the Cambridge
# Structural Database, then it will include bibliographic, chemical,
# crystal, experimental, refinement or atomic coordinate data resulting
# from the CCDC's data processing and validation procedures.
#
#######################################################################

data_CSD_CIF_BOYGUR01
_audit_creation_date 1985-03-02
_audit_creation_method CSD-ConQuest-V1
_database_code_CSD BOYGUR01
_database_code_depnum_ccdc_archive 'CCDC 1114684'
_chemical_formula_sum 'C22 H18 Cl2 N6 Ru1'
_chemical_formula_moiety
;
C22 H18 Cl2 N6 Ru1
;
_journal_coeditor_code "IUCr A23636"
_journal_coden_Cambridge 591
_journal_volume 40
_journal_year 1984
_journal_page_first 929
_journal_name_full 'Acta Crystallogr.,Sect.C:Cryst.Struct.Commun. '
loop_
_publ_author_name
"A.Seal"
"S.Ray"
_chemical_name_systematic
;
Dichloro-bis(2-phenylazopyridine)-ruthenium(ii)
;
_chemical_name_common
;
Teaching Subset: Fundamental Chemistry, Symmetry
;
_cell_volume   2243.740
_exptl_crystal_colour 'dark blue'
_exptl_crystal_density_diffrn 1.59
_exptl_special_details
;
C!2$ isomer

;
_diffrn_ambient_temperature ?
_diffrn_special_details
;
The study was carried out at room temperature,in the range 283-303K

;
#These two values have been output from a single CSD field.
_refine_ls_R_factor_gt 0.051
_refine_ls_wR_factor_gt 0.051
loop_
_citation_database_id_CSD
_citation_special_details
BOYHAY "is a stereoisomer of this entry"
LOLWIS "is a stereoisomer of this entry"
_symmetry_cell_setting monoclinic
_symmetry_space_group_name_H-M 'P 21/c'
_symmetry_Int_Tables_number 14
loop_
_symmetry_equiv_pos_site_id
_symmetry_equiv_pos_as_xyz
1 x,y,z
2 -x,1/2+y,1/2-z
3 -x,-y,-z
4 x,-1/2-y,-1/2+z
_cell_length_a 8.421(8)
_cell_length_b 22.88(2)
_cell_length_c 12.99(2)
_cell_angle_alpha 90
_cell_angle_beta 116.3(1)
_cell_angle_gamma 90
_cell_formula_units_Z 4
loop_
_atom_type_symbol
_atom_type_radius_bond
C 0.68
H 0.23
Cl 0.99
N 0.68
Ru 1.40
loop_
_atom_site_label
_atom_site_type_symbol
_atom_site_fract_x
_atom_site_fract_y
_atom_site_fract_z
Ru1 Ru 0.16269 0.17901 0.08439
Cl1 Cl 0.25750 0.26628 0.02510
Cl2 Cl 0.00120 0.23771 0.15860
N1 N 0.04880 0.11000 0.11500
N2 N -0.10820 0.09440 0.04520
N3 N -0.07110 0.17090 -0.06130
N4 N 0.32110 0.13110 0.04180
N5 N 0.48310 0.12180 0.11340
N6 N 0.39720 0.17860 0.23160
C1 C 0.16100 0.10050 0.32170
C2 C 0.23200 0.06710 0.42110
C3 C 0.27200 0.00950 0.41670
C4 C 0.23700 -0.01590 0.31320
C5 C 0.16500 0.01640 0.21200
C6 C 0.12750 0.07490 0.21890
C7 C -0.17700 0.12920 -0.05270
C8 C -0.34910 0.11960 -0.13530
C9 C -0.41310 0.15460 -0.23300
C10 C -0.30460 0.19670 -0.24380
C11 C -0.13360 0.20420 -0.15590
C12 C 0.30100 0.04250 -0.06740
C13 C 0.26100 0.01510 -0.17180
C14 C 0.19200 0.04750 -0.27170
C15 C 0.16250 0.10650 -0.26950
C16 C 0.20070 0.13430 -0.16570
C17 C 0.27220 0.10150 -0.06560
C18 C 0.52750 0.14850 0.21870
C19 C 0.69840 0.14400 0.30610
C20 C 0.73700 0.17130 0.41060
C21 C 0.60400 0.20130 0.42300
C22 C 0.43800 0.20410 0.33280
H1 H 0.13836 0.14159 0.32418
H2 H 0.25467 0.08486 0.49357
H3 H 0.32100 -0.01302 0.48752
H4 H 0.26040 -0.05673 0.31171
H5 H 0.14182 -0.00208 0.13929
H6 H -0.42122 0.09029 -0.12536
H7 H -0.53103 0.15059 -0.28933
H8 H -0.34714 0.22038 -0.31269
H9 H -0.05833 0.23446 -0.16321
H10 H 0.28141 -0.02598 -0.17548
H11 H 0.16145 0.02789 -0.34496
H12 H 0.11146 0.12855 -0.34024
H13 H 0.17700 0.17467 -0.16463
H14 H 0.78663 0.12280 0.29506
H15 H 0.85352 0.16923 0.47236
H16 H 0.62991 0.22134 0.49176
H17 H 0.34851 0.22504 0.34289
#END
