
#######################################################################
#
#                 Cambridge Crystallographic Data Centre
#                                CCDC
#
#######################################################################
#
# If this CIF has been generated from an entry in the Cambridge
# Structural Database, then it will include bibliographic, chemical,
# crystal, experimental, refinement or atomic coordinate data resulting
# from the CCDC's data processing and validation procedures.
#
#######################################################################

data_CSD_CIF_BOYHAY01
_audit_creation_date 1985-03-02
_audit_creation_method CSD-ConQuest-V1
_database_code_CSD BOYHAY01
_database_code_depnum_ccdc_archive 'CCDC 1114686'
_chemical_formula_sum 'C22 H18 Cl2 N6 Ru1'
_chemical_formula_moiety
;
C22 H18 Cl2 N6 Ru1
;
_journal_coeditor_code "IUCr A23636"
_journal_coden_Cambridge 591
_journal_volume 40
_journal_year 1984
_journal_page_first 929
_journal_name_full 'Acta Crystallogr.,Sect.C:Cryst.Struct.Commun. '
loop_
_publ_author_name
"A.Seal"
"S.Ray"
_chemical_name_systematic
;
Dichloro-bis(2-phenylazopyridine)-ruthenium(ii)
;
_chemical_name_common
;
Teaching Subset: Fundamental Chemistry, Symmetry
;
_cell_volume   2242.884
_exptl_crystal_colour 'dark blue'
_exptl_crystal_density_diffrn 1.59
_exptl_special_details
;
C!1$ isomer

;
_diffrn_ambient_temperature ?
_diffrn_special_details
;
The study was carried out at room temperature,in the range 283-303K

;
#These two values have been output from a single CSD field.
_refine_ls_R_factor_gt 0.054
_refine_ls_wR_factor_gt 0.054
loop_
_citation_database_id_CSD
_citation_special_details
BOYGUR "is a stereoisomer of this entry"
LOLWIS "is a stereoisomer of this entry"
_symmetry_cell_setting triclinic
_symmetry_space_group_name_H-M 'P -1'
_symmetry_Int_Tables_number 2
loop_
_symmetry_equiv_pos_site_id
_symmetry_equiv_pos_as_xyz
1 x,y,z
2 -x,-y,-z
_cell_length_a 13.371(4)
_cell_length_b 15.345(3)
_cell_length_c 13.101(4)
_cell_angle_alpha 114.75(2)
_cell_angle_beta 93.75(3)
_cell_angle_gamma 67.61(3)
_cell_formula_units_Z 4
loop_
_atom_type_symbol
_atom_type_radius_bond
C 0.68
H 0.23
Cl 0.99
N 0.68
Ru 1.40
loop_
_atom_site_label
_atom_site_type_symbol
_atom_site_fract_x
_atom_site_fract_y
_atom_site_fract_z
Ru1 Ru 0.09672 0.19522 0.11667
Cl1 Cl 0.12830 0.26910 0.31210
Cl2 Cl -0.06520 0.18180 0.16520
N1 N 0.23960 0.17910 0.06490
N2 N 0.32750 0.09950 0.05540
N3 N 0.20110 0.05630 0.11720
N4 N 0.00480 0.32460 0.09820
N5 N -0.02010 0.31770 -0.00070
N6 N 0.07070 0.14160 -0.04800
C1 C 0.22500 0.34900 0.09300
C2 C 0.24300 0.41400 0.04900
C3 C 0.29000 0.37000 -0.05900
C4 C 0.31900 0.26600 -0.12800
C5 C 0.30400 0.20000 -0.08900
C6 C 0.25820 0.24530 0.02200
C7 C 0.30500 0.03490 0.09100
C8 C 0.39300 -0.05000 0.09500
C9 C 0.36500 -0.11000 0.13300
C10 C 0.26400 -0.09300 0.15700
C11 C 0.17800 -0.00800 0.14900
C12 C -0.08200 0.44600 0.28500
C13 C -0.13100 0.55000 0.37000
C14 C -0.13300 0.63000 0.34600
C15 C -0.09000 0.61400 0.24900
C16 C -0.04200 0.51200 0.16100
C17 C -0.04000 0.43000 0.18500
C18 C 0.01900 0.21500 -0.08300
C19 C 0.00100 0.19500 -0.19500
C20 C 0.04200 0.09100 -0.27400
C21 C 0.09400 0.01400 -0.24000
C22 C 0.10800 0.03900 -0.12600
H1 H 0.18887 0.37937 0.16954
H2 H 0.22480 0.48884 0.09734
H3 H 0.30248 0.41435 -0.08805
H4 H 0.35121 0.24121 -0.20481
H5 H 0.32709 0.12689 -0.13666
H6 H 0.46931 -0.06575 0.07459
H7 H 0.42269 -0.17124 0.13940
H8 H 0.24717 -0.13901 0.18199
H9 H 0.10204 0.00500 0.16720
H10 H -0.08110 0.38855 0.29779
H11 H -0.16494 0.56608 0.44316
H12 H -0.16486 0.70172 0.40373
H13 H -0.09466 0.67296 0.23751
H14 H -0.01208 0.50030 0.08767
H15 H -0.03777 0.25093 -0.21819
H16 H 0.03627 0.07123 -0.35400
H17 H 0.12021 -0.05738 -0.29471
H18 H 0.14552 -0.01496 -0.10294
Ru2 Ru 0.38521 0.66474 0.34636
Cl3 Cl 0.49630 0.73190 0.29310
Cl4 Cl 0.26540 0.69090 0.20880
N7 N 0.49860 0.61950 0.43670
N8 N 0.59050 0.53860 0.38900
N9 N 0.49350 0.52180 0.23100
N10 N 0.28260 0.79990 0.45810
N11 N 0.19240 0.80760 0.49940
N12 N 0.27580 0.62430 0.39650
C23 C 0.41300 0.70400 0.62900
C24 C 0.41200 0.76800 0.74500
C25 C 0.49900 0.79800 0.78000
C26 C 0.58500 0.76800 0.70400
C27 C 0.58600 0.70800 0.59000
C28 C 0.50100 0.67740 0.55500
C29 C 0.58600 0.48580 0.27200
C30 C 0.67800 0.40000 0.20800
C31 C 0.67200 0.35000 0.09400
C32 C 0.57700 0.38400 0.04800
C33 C 0.48600 0.47200 0.12000
C34 C 0.36800 0.92200 0.55100
C35 C 0.37900 1.01800 0.57600
C36 C 0.31200 1.08000 0.53100
C37 C 0.23300 1.05900 0.47200
C38 C 0.21500 0.96700 0.44700
C39 C 0.28800 0.90100 0.48700
C40 C 0.18900 0.71000 0.46700
C41 C 0.10100 0.70100 0.50800
C42 C 0.10200 0.60300 0.47400
C43 C 0.18800 0.51600 0.39900
C44 C 0.27300 0.52900 0.36300
H19 H 0.35414 0.68184 0.60155
H20 H 0.35183 0.79015 0.79738
H21 H 0.49889 0.83786 0.86035
H22 H 0.64512 0.79084 0.73127
H23 H 0.64613 0.68737 0.53639
H24 H 0.74443 0.37487 0.24032
H25 H 0.73566 0.29209 0.04646
H26 H 0.57544 0.34877 -0.03008
H27 H 0.41682 0.49564 0.08937
H28 H 0.41840 0.87090 0.57499
H29 H 0.43347 1.03791 0.62101
H30 H 0.32352 1.14270 0.54498
H31 H 0.18916 1.10891 0.44296
H32 H 0.15520 0.95085 0.40614
H33 H 0.04218 0.76290 0.55985
H34 H 0.04514 0.59445 0.50250
H35 H 0.18584 0.44838 0.37411
H36 H 0.33409 0.46865 0.31199
#END
