####################################################################### 
# 
# This file contains crystal structure data downloaded from the 
# Cambridge Structural Database (CSD) hosted by the Cambridge 
# Crystallographic Data Centre (CCDC).
# 
# Full information about CCDC data access policies and citation 
# guidelines are available at http://www.ccdc.cam.ac.uk/access/V1 
# 
# Audit and citation data items may have been added by the CCDC. 
# Please retain this information to preserve the provenance of 
# this file and to allow appropriate attribution of the data. 
# 
#######################################################################

data_x
_audit_block_doi                 10.5517/cc13px6x
_database_code_depnum_ccdc_archive 'CCDC 1033949'
_audit_update_record             
;
2014-11-13 deposited with the CCDC.	2024-07-08 downloaded from the CCDC.
;

_audit_creation_method           SHELXL-97
_chemical_name_systematic        
; 
 ? 
;
_chemical_name_common            ?
_chemical_melting_point          ?
_chemical_formula_moiety         'C24 H22 Mn N2 O4, 3(H2 O)'
_chemical_formula_sum            'C24 H22 Mn N2 O7'
_chemical_formula_weight         505.38

loop_
_atom_type_symbol
_atom_type_description
_atom_type_scat_dispersion_real
_atom_type_scat_dispersion_imag
_atom_type_scat_source
C C 0.0033 0.0016 'International Tables Vol C Tables 4.2.6.8 and 6.1.1.4'
H H 0.0000 0.0000 'International Tables Vol C Tables 4.2.6.8 and 6.1.1.4'
N N 0.0061 0.0033 'International Tables Vol C Tables 4.2.6.8 and 6.1.1.4'
O O 0.0106 0.0060 'International Tables Vol C Tables 4.2.6.8 and 6.1.1.4'
Mn Mn 0.3368 0.7283 'International Tables Vol C Tables 4.2.6.8 and 6.1.1.4'

_symmetry_cell_setting           monoclinic
_symmetry_space_group_name_H-M   'C 2/c'
_symmetry_space_group_name_Hall  '-C 2yc'

loop_
_symmetry_equiv_pos_as_xyz
'x, y, z'
'-x, y, -z+1/2'
'x+1/2, y+1/2, z'
'-x+1/2, y+1/2, -z+1/2'
'-x, -y, -z'
'x, -y, z-1/2'
'-x+1/2, -y+1/2, -z'
'x+1/2, -y+1/2, z-1/2'

_cell_length_a                   19.6510(13)
_cell_length_b                   14.8963(10)
_cell_length_c                   8.5229(6)
_cell_angle_alpha                90.00
_cell_angle_beta                 108.9020(10)
_cell_angle_gamma                90.00
_cell_volume                     2360.3(3)
_cell_formula_units_Z            4
_cell_measurement_temperature    296(2)
_cell_measurement_reflns_used    ?
_cell_measurement_theta_min      ?
_cell_measurement_theta_max      ?

_exptl_crystal_description       block
_exptl_crystal_colour            Colorless
_exptl_crystal_size_max          0.36
_exptl_crystal_size_mid          0.24
_exptl_crystal_size_min          0.16
_exptl_crystal_density_meas      ?
_exptl_crystal_density_diffrn    1.422
_exptl_crystal_density_method    'not measured'
_exptl_crystal_F_000             1044
_exptl_absorpt_coefficient_mu    0.606
_exptl_absorpt_correction_type   multi-scan
_exptl_absorpt_correction_T_min  0.841
_exptl_absorpt_correction_T_max  0.908
_exptl_absorpt_process_details   'SADABS (Sheldrick, 1996)'

_exptl_special_details           
; 
 ? 
;

_diffrn_ambient_temperature      296(2)
_diffrn_radiation_wavelength     0.71073
_diffrn_radiation_type           MoK\a
_diffrn_radiation_source         'fine-focus sealed tube'
_diffrn_radiation_monochromator  graphite
_diffrn_measurement_device_type  'Bruker SMART diffractometer'
_diffrn_measurement_method       '\f and \w scans'
_diffrn_detector_area_resol_mean ?
_diffrn_standards_number         ?
_diffrn_standards_interval_count ?
_diffrn_standards_interval_time  ?
_diffrn_standards_decay_%        ?
_diffrn_reflns_number            6829
_diffrn_reflns_av_R_equivalents  0.0114
_diffrn_reflns_av_sigmaI/netI    0.0127
_diffrn_reflns_limit_h_min       -15
_diffrn_reflns_limit_h_max       24
_diffrn_reflns_limit_k_min       -19
_diffrn_reflns_limit_k_max       17
_diffrn_reflns_limit_l_min       -10
_diffrn_reflns_limit_l_max       10
_diffrn_reflns_theta_min         2.73
_diffrn_reflns_theta_max         27.10
_reflns_number_total             2588
_reflns_number_gt                2426
_reflns_threshold_expression     >2sigma(I)

_computing_data_collection       'SMART (Bruker, 1997)'
_computing_cell_refinement       'SAINT (Bruker,1997)'
_computing_data_reduction        'SAINT (Bruker,1997)'
_computing_structure_solution    'SHELXS-97 (Sheldrick, 1990)'
_computing_structure_refinement  'SHELXL-97 (Sheldrick, 1997)'
_computing_molecular_graphics    ?
_computing_publication_material  SHELXTL

_refine_special_details          
; 
 Refinement of F^2^ against ALL reflections.  The weighted R-factor wR and 
 goodness of fit S are based on F^2^, conventional R-factors R are based 
 on F, with F set to zero for negative F^2^. The threshold expression of 
 F^2^ > 2sigma(F^2^) is used only for calculating R-factors(gt) etc. and is 
 not relevant to the choice of reflections for refinement.  R-factors based 
 on F^2^ are statistically about twice as large as those based on F, and R- 
 factors based on ALL data will be even larger. 
;

_refine_ls_structure_factor_coef Fsqd
_refine_ls_matrix_type           full
_refine_ls_weighting_scheme      calc
_refine_ls_weighting_details     
'calc w=1/[\s^2^(Fo^2^)+(0.0550P)^2^+1.5000P] where P=(Fo^2^+2Fc^2^)/3'
_atom_sites_solution_primary     direct
_atom_sites_solution_secondary   difmap
_atom_sites_solution_hydrogens   geom
_refine_ls_hydrogen_treatment    mixed
_refine_ls_extinction_method     none
_refine_ls_extinction_coef       ?
_refine_ls_number_reflns         2588
_refine_ls_number_parameters     171
_refine_ls_number_restraints     0
_refine_ls_R_factor_all          0.0294
_refine_ls_R_factor_gt           0.0275
_refine_ls_wR_factor_ref         0.0838
_refine_ls_wR_factor_gt          0.0817
_refine_ls_goodness_of_fit_ref   1.006
_refine_ls_restrained_S_all      1.006
_refine_ls_shift/su_max          0.001
_refine_ls_shift/su_mean         0.000

loop_
_atom_site_label
_atom_site_type_symbol
_atom_site_fract_x
_atom_site_fract_y
_atom_site_fract_z
_atom_site_U_iso_or_equiv
_atom_site_adp_type
_atom_site_occupancy
_atom_site_symmetry_multiplicity
_atom_site_calc_flag
_atom_site_refinement_flags
_atom_site_disorder_assembly
_atom_site_disorder_group
Mn1 Mn 0.0000 0.580355(17) 0.7500 0.02208(10) Uani 1 2 d S . .
C1 C 0.10286(7) 0.56515(8) 0.52605(16) 0.0244(3) Uani 1 1 d . . .
C2 C 0.18022(7) 0.58101(9) 0.53497(17) 0.0279(3) Uani 1 1 d . . .
C3 C 0.20569(8) 0.54511(13) 0.4147(2) 0.0452(4) Uani 1 1 d . . .
H3 H 0.1760 0.5092 0.3311 0.054 Uiso 1 1 calc R . .
C4 C 0.27568(10) 0.56283(17) 0.4191(3) 0.0640(6) Uani 1 1 d . . .
H4 H 0.2928 0.5385 0.3387 0.077 Uiso 1 1 calc R . .
C5 C 0.32000(9) 0.61657(15) 0.5427(2) 0.0535(5) Uani 1 1 d . . .
H5 H 0.3663 0.6295 0.5428 0.064 Uiso 1 1 calc R . .
C6 C 0.29596(7) 0.65161(10) 0.66714(18) 0.0333(3) Uani 1 1 d . . .
C7 C 0.22561(7) 0.63326(9) 0.66121(16) 0.0284(3) Uani 1 1 d . . .
H7 H 0.2087 0.6563 0.7430 0.034 Uiso 1 1 calc R . .
C8 C 0.34387(7) 0.70721(10) 0.80240(17) 0.0319(3) Uani 1 1 d . . .
C9 C 0.39348(8) 0.76633(11) 0.77408(18) 0.0371(3) Uani 1 1 d . . .
H9 H 0.3978 0.7706 0.6688 0.045 Uiso 1 1 calc R . .
C10 C 0.43637(8) 0.81878(11) 0.90186(18) 0.0373(3) Uani 1 1 d . . .
H10 H 0.4684 0.8585 0.8789 0.045 Uiso 1 1 calc R . .
C11 C 0.38714(8) 0.75727(11) 1.08574(18) 0.0384(3) Uani 1 1 d . . .
H11 H 0.3851 0.7530 1.1930 0.046 Uiso 1 1 calc R . .
C12 C 0.34140(8) 0.70348(11) 0.96413(19) 0.0393(3) Uani 1 1 d . . .
H12 H 0.3093 0.6651 0.9901 0.047 Uiso 1 1 calc R . .
N1 N 0.43403(6) 0.81510(8) 1.05754(15) 0.0325(3) Uani 1 1 d . . .
O1 O 0.08362(5) 0.59940(7) 0.63945(12) 0.0324(2) Uani 1 1 d . . .
O2 O 0.06334(5) 0.52241(7) 0.40557(13) 0.0368(2) Uani 1 1 d . . .
O1W O 0.5000 0.5768(8) 0.7500 0.37(2) Uani 0.50 2 d SP A 1
O2W O 0.5000 0.5000 0.5000 0.236(13) Uani 0.50 2 d SP B 1
O2B O 0.5020(7) 0.5695(13) 0.501(4) 0.305(13) Uani 0.50 1 d P C 2
O1B O 0.5000 0.4196(8) 0.7500 0.36(2) Uani 0.50 2 d SP D 2
O1C O 0.5000 0.4968(9) 0.7500 0.175(5) Uani 0.50 2 d SP E 3

loop_
_atom_site_aniso_label
_atom_site_aniso_U_11
_atom_site_aniso_U_22
_atom_site_aniso_U_33
_atom_site_aniso_U_23
_atom_site_aniso_U_13
_atom_site_aniso_U_12
Mn1 0.01619(15) 0.02411(16) 0.02206(15) 0.000 0.00086(10) 0.000
C1 0.0201(6) 0.0240(6) 0.0245(6) 0.0022(4) 0.0010(4) -0.0023(4)
C2 0.0215(6) 0.0303(6) 0.0293(7) -0.0048(5) 0.0046(5) -0.0042(5)
C3 0.0303(7) 0.0605(10) 0.0448(9) -0.0293(8) 0.0120(6) -0.0136(7)
C4 0.0379(9) 0.0963(16) 0.0646(12) -0.0509(12) 0.0263(9) -0.0215(10)
C5 0.0286(7) 0.0779(13) 0.0584(11) -0.0339(10) 0.0203(7) -0.0202(8)
C6 0.0251(6) 0.0376(7) 0.0350(7) -0.0105(6) 0.0067(5) -0.0084(5)
C7 0.0243(6) 0.0316(6) 0.0275(6) -0.0052(5) 0.0060(5) -0.0040(5)
C8 0.0238(6) 0.0350(7) 0.0341(7) -0.0081(6) 0.0057(5) -0.0063(5)
C9 0.0349(7) 0.0445(8) 0.0294(7) -0.0044(6) 0.0070(6) -0.0126(6)
C10 0.0341(7) 0.0402(8) 0.0342(7) -0.0031(6) 0.0064(6) -0.0147(6)
C11 0.0374(8) 0.0460(8) 0.0319(7) -0.0085(6) 0.0116(6) -0.0130(6)
C12 0.0337(7) 0.0454(8) 0.0399(8) -0.0097(6) 0.0134(6) -0.0174(6)
N1 0.0285(6) 0.0344(6) 0.0315(6) -0.0066(5) 0.0054(4) -0.0078(5)
O1 0.0227(5) 0.0428(5) 0.0306(5) -0.0058(4) 0.0074(4) -0.0056(4)
O2 0.0261(5) 0.0417(6) 0.0374(5) -0.0127(4) 0.0032(4) -0.0099(4)
O1W 0.061(6) 0.087(7) 0.84(7) 0.000 -0.044(18) 0.000
O2W 0.067(6) 0.200(18) 0.38(3) -0.01(2) -0.011(10) -0.054(11)
O2B 0.077(6) 0.30(2) 0.52(3) -0.16(3) 0.066(12) -0.069(11)
O1B 0.227(18) 0.073(7) 0.58(4) 0.000 -0.17(2) 0.000
O1C 0.049(4) 0.162(14) 0.29(2) 0.000 0.030(6) 0.000

_geom_special_details            
; 
 All esds (except the esd in the dihedral angle between two l.s. planes) 
 are estimated using the full covariance matrix.  The cell esds are taken 
 into account individually in the estimation of esds in distances, angles 
 and torsion angles; correlations between esds in cell parameters are only 
 used when they are defined by crystal symmetry.  An approximate (isotropic) 
 treatment of cell esds is used for estimating esds involving l.s. planes. 
;

loop_
_geom_bond_atom_site_label_1
_geom_bond_atom_site_label_2
_geom_bond_distance
_geom_bond_site_symmetry_2
_geom_bond_publ_flag
Mn1 O2 2.1404(10) 5_566 ?
Mn1 O2 2.1404(10) 6_566 ?
Mn1 O1 2.1613(9) . ?
Mn1 O1 2.1613(9) 2_556 ?
Mn1 N1 2.3278(11) 7_567 ?
Mn1 N1 2.3278(11) 8_465 ?
C1 O2 1.2435(16) . ?
C1 O1 1.2546(17) . ?
C1 C2 1.5159(18) . ?
C2 C3 1.386(2) . ?
C2 C7 1.3918(18) . ?
C3 C4 1.389(2) . ?
C3 H3 0.9300 . ?
C4 C5 1.384(2) . ?
C4 H4 0.9300 . ?
C5 C6 1.394(2) . ?
C5 H5 0.9300 . ?
C6 C7 1.3941(18) . ?
C6 C8 1.4826(18) . ?
C7 H7 0.9300 . ?
C8 C9 1.392(2) . ?
C8 C12 1.396(2) . ?
C9 C10 1.383(2) . ?
C9 H9 0.9300 . ?
C10 N1 1.3436(19) . ?
C10 H10 0.9300 . ?
C11 N1 1.3389(19) . ?
C11 C12 1.386(2) . ?
C11 H11 0.9300 . ?
C12 H12 0.9300 . ?
N1 Mn1 2.3278(11) 7_567 ?
O2 Mn1 2.1404(10) 5_566 ?

loop_
_geom_angle_atom_site_label_1
_geom_angle_atom_site_label_2
_geom_angle_atom_site_label_3
_geom_angle
_geom_angle_site_symmetry_1
_geom_angle_site_symmetry_3
_geom_angle_publ_flag
O2 Mn1 O2 88.68(6) 5_566 6_566 ?
O2 Mn1 O1 101.27(4) 5_566 . ?
O2 Mn1 O1 89.56(4) 6_566 . ?
O2 Mn1 O1 89.56(4) 5_566 2_556 ?
O2 Mn1 O1 101.27(4) 6_566 2_556 ?
O1 Mn1 O1 164.91(6) . 2_556 ?
O2 Mn1 N1 173.89(4) 5_566 7_567 ?
O2 Mn1 N1 87.86(5) 6_566 7_567 ?
O1 Mn1 N1 83.74(4) . 7_567 ?
O1 Mn1 N1 86.18(4) 2_556 7_567 ?
O2 Mn1 N1 87.86(5) 5_566 8_465 ?
O2 Mn1 N1 173.89(4) 6_566 8_465 ?
O1 Mn1 N1 86.18(4) . 8_465 ?
O1 Mn1 N1 83.74(4) 2_556 8_465 ?
N1 Mn1 N1 96.02(6) 7_567 8_465 ?
O2 C1 O1 125.51(12) . . ?
O2 C1 C2 117.98(12) . . ?
O1 C1 C2 116.47(11) . . ?
C3 C2 C7 119.55(13) . . ?
C3 C2 C1 119.97(12) . . ?
C7 C2 C1 120.46(12) . . ?
C2 C3 C4 119.89(14) . . ?
C2 C3 H3 120.1 . . ?
C4 C3 H3 120.1 . . ?
C5 C4 C3 120.28(15) . . ?
C5 C4 H4 119.9 . . ?
C3 C4 H4 119.9 . . ?
C4 C5 C6 120.71(15) . . ?
C4 C5 H5 119.6 . . ?
C6 C5 H5 119.6 . . ?
C5 C6 C7 118.38(13) . . ?
C5 C6 C8 120.95(13) . . ?
C7 C6 C8 120.67(12) . . ?
C2 C7 C6 121.14(12) . . ?
C2 C7 H7 119.4 . . ?
C6 C7 H7 119.4 . . ?
C9 C8 C12 116.54(12) . . ?
C9 C8 C6 121.51(13) . . ?
C12 C8 C6 121.95(13) . . ?
C10 C9 C8 120.23(13) . . ?
C10 C9 H9 119.9 . . ?
C8 C9 H9 119.9 . . ?
N1 C10 C9 123.20(13) . . ?
N1 C10 H10 118.4 . . ?
C9 C10 H10 118.4 . . ?
N1 C11 C12 123.72(13) . . ?
N1 C11 H11 118.1 . . ?
C12 C11 H11 118.1 . . ?
C11 C12 C8 119.60(13) . . ?
C11 C12 H12 120.2 . . ?
C8 C12 H12 120.2 . . ?
C11 N1 C10 116.70(12) . . ?
C11 N1 Mn1 124.23(9) . 7_567 ?
C10 N1 Mn1 118.63(9) . 7_567 ?
C1 O1 Mn1 138.06(9) . . ?
C1 O2 Mn1 163.75(10) . 5_566 ?

_diffrn_measured_fraction_theta_max 0.994
_diffrn_reflns_theta_full        27.10
_diffrn_measured_fraction_theta_full 0.994
_refine_diff_density_max         0.288
_refine_diff_density_min         -0.284
_refine_diff_density_rms         0.045
