####################################################################### 
# 
# This file contains crystal structure data downloaded from the 
# Cambridge Structural Database (CSD) hosted by the Cambridge 
# Crystallographic Data Centre (CCDC).
# 
# Full information about CCDC data access policies and citation 
# guidelines are available at http://www.ccdc.cam.ac.uk/access/V1 
# 
# Audit and citation data items may have been added by the CCDC. 
# Please retain this information to preserve the provenance of 
# this file and to allow appropriate attribution of the data. 
# 
#######################################################################

data_140121g
_audit_block_doi                 10.5517/cc14b85x
_database_code_depnum_ccdc_archive 'CCDC 1052548'
loop_
_citation_id
_citation_doi
_citation_year
1 10.1002/ejic.201600916 2016
_audit_update_record             
;
2015-07-29 deposited with the CCDC.	2024-07-08 downloaded from the CCDC.
;

_audit_creation_method           SHELXL-97
_chemical_name_systematic        
; 
 ? 
;
_chemical_name_common            ?
_chemical_melting_point          ?
_chemical_formula_moiety         ?
_chemical_formula_sum            'C42 H42 Cd N8 O8'
_chemical_formula_weight         899.24

loop_
_atom_type_symbol
_atom_type_description
_atom_type_scat_dispersion_real
_atom_type_scat_dispersion_imag
_atom_type_scat_source
C C 0.0033 0.0016 'International Tables Vol C Tables 4.2.6.8 and 6.1.1.4'
H H 0.0000 0.0000 'International Tables Vol C Tables 4.2.6.8 and 6.1.1.4'
N N 0.0061 0.0033 'International Tables Vol C Tables 4.2.6.8 and 6.1.1.4'
O O 0.0106 0.0060 'International Tables Vol C Tables 4.2.6.8 and 6.1.1.4'
Cd Cd -0.8075 1.2024 'International Tables Vol C Tables 4.2.6.8 and 6.1.1.4'

_symmetry_cell_setting           triclinic
_symmetry_space_group_name_H-M   P-1

loop_
_symmetry_equiv_pos_as_xyz
'x, y, z'
'-x, -y, -z'

_cell_length_a                   12.2030(11)
_cell_length_b                   13.5181(12)
_cell_length_c                   14.4266(14)
_cell_angle_alpha                113.749(2)
_cell_angle_beta                 93.2050(10)
_cell_angle_gamma                103.938(2)
_cell_volume                     2082.6(3)
_cell_formula_units_Z            2
_cell_measurement_temperature    293(2)
_cell_measurement_reflns_used    1873
_cell_measurement_theta_min      2.8400
_cell_measurement_theta_max      21.8150

_exptl_crystal_description       prismatic
_exptl_crystal_colour            green
_exptl_crystal_size_max          0.55
_exptl_crystal_size_mid          0.45
_exptl_crystal_size_min          0.35
_exptl_crystal_density_meas      ?
_exptl_crystal_density_diffrn    1.434
_exptl_crystal_density_method    'not measured'
_exptl_crystal_F_000             924
_exptl_absorpt_coefficient_mu    0.586
_exptl_absorpt_correction_type   multi-scan
_exptl_absorpt_correction_T_min  0.96685
_exptl_absorpt_correction_T_max  1.00000
_exptl_absorpt_process_details   
;
CrysAlisPro, Agilent Technologies,
Version 1.171.36.28 (release 01-02-2013 CrysAlis171 .NET)
(compiled Feb  1 2013,16:14:44)
Empirical absorption correction using spherical harmonics,
 implemented in SCALE3 ABSPACK scaling algorithm.
;
_exptl_special_details           
; 
 ? 
;

_diffrn_ambient_temperature      293(2)
_diffrn_radiation_wavelength     0.71073
_diffrn_radiation_type           MoK\a
_diffrn_radiation_source         'fine-focus sealed tube'
_diffrn_radiation_monochromator  graphite
_diffrn_measurement_device_type  'Xcalibur, Eos, Gemini'
_diffrn_measurement_method       'phi and omega scans'
_diffrn_detector_area_resol_mean ?
_diffrn_standards_number         ?
_diffrn_standards_interval_count ?
_diffrn_standards_interval_time  ?
_diffrn_standards_decay_%        ?
_diffrn_reflns_number            13680
_diffrn_reflns_av_R_equivalents  0.0650
_diffrn_reflns_av_sigmaI/netI    0.1281
_diffrn_reflns_limit_h_min       -14
_diffrn_reflns_limit_h_max       14
_diffrn_reflns_limit_k_min       -15
_diffrn_reflns_limit_k_max       16
_diffrn_reflns_limit_l_min       -16
_diffrn_reflns_limit_l_max       17
_diffrn_reflns_theta_min         2.54
_diffrn_reflns_theta_max         25.02
_reflns_number_total             7320
_reflns_number_gt                4719
_reflns_threshold_expression     >2sigma(I)

_computing_data_collection       
;
CrysAlisPro, Agilent Technologies,
Version 1.171.36.28 (release 01-02-2013 CrysAlis171 .NET)
(compiled Feb  1 2013,16:14:44)
;
_computing_cell_refinement       
;
CrysAlisPro, Agilent Technologies,
Version 1.171.36.28 (release 01-02-2013 CrysAlis171 .NET)
(compiled Feb  1 2013,16:14:44)
;
_computing_data_reduction        
;
CrysAlisPro, Agilent Technologies,
Version 1.171.36.28 (release 01-02-2013 CrysAlis171 .NET)
(compiled Feb  1 2013,16:14:44)
;
_computing_structure_solution    'SHELXTL (Sheldrick, 2008)'
_computing_structure_refinement  'SHELXTL (Sheldrick, 2008)'
_computing_molecular_graphics    'SHELXTL (Sheldrick, 2008)'
_computing_publication_material  'publCIF (Westrip, 2010)'

_refine_special_details          
; 
 Refinement of F^2^ against ALL reflections.  The weighted R-factor wR and 
 goodness of fit S are based on F^2^, conventional R-factors R are based 
 on F, with F set to zero for negative F^2^. The threshold expression of 
 F^2^ > 2sigma(F^2^) is used only for calculating R-factors(gt) etc. and is 
 not relevant to the choice of reflections for refinement.  R-factors based 
 on F^2^ are statistically about twice as large as those based on F, and R- 
 factors based on ALL data will be even larger. 
;

_refine_ls_structure_factor_coef Fsqd
_refine_ls_matrix_type           full
_refine_ls_weighting_scheme      calc
_refine_ls_weighting_details     
'calc w=1/[\s^2^(Fo^2^)+(0.0266P)^2^+0.0000P] where P=(Fo^2^+2Fc^2^)/3'
_atom_sites_solution_primary     direct
_atom_sites_solution_secondary   difmap
_atom_sites_solution_hydrogens   geom
_refine_ls_hydrogen_treatment    mixed
_refine_ls_extinction_method     none
_refine_ls_extinction_coef       ?
_refine_ls_number_reflns         7320
_refine_ls_number_parameters     568
_refine_ls_number_restraints     0
_refine_ls_R_factor_all          0.1074
_refine_ls_R_factor_gt           0.0607
_refine_ls_wR_factor_ref         0.1272
_refine_ls_wR_factor_gt          0.0985
_refine_ls_goodness_of_fit_ref   1.035
_refine_ls_restrained_S_all      1.035
_refine_ls_shift/su_max          0.001
_refine_ls_shift/su_mean         0.000

loop_
_atom_site_label
_atom_site_type_symbol
_atom_site_fract_x
_atom_site_fract_y
_atom_site_fract_z
_atom_site_U_iso_or_equiv
_atom_site_adp_type
_atom_site_occupancy
_atom_site_symmetry_multiplicity
_atom_site_calc_flag
_atom_site_refinement_flags
_atom_site_disorder_assembly
_atom_site_disorder_group
Cd1 Cd 0.39259(4) 0.47166(4) 0.61676(3) 0.03884(16) Uani 1 1 d . . .
N3 N 1.0714(4) 0.2571(4) 0.4587(4) 0.0423(13) Uani 1 1 d . . .
H43 H 1.1350 0.2947 0.4509 0.051 Uiso 1 1 calc R . .
N4 N 0.8580(4) -0.1997(4) 0.3350(4) 0.0408(12) Uani 1 1 d . . .
N5 N 0.7334(4) -0.3506(4) 0.3318(4) 0.0433(13) Uani 1 1 d . . .
N2 N 0.7071(4) 0.3743(4) 0.6443(4) 0.0445(13) Uani 1 1 d . . .
N1 N 0.5452(4) 0.4191(4) 0.6543(4) 0.0463(13) Uani 1 1 d . . .
N6 N 0.9301(7) 0.3457(9) 0.0076(8) 0.090(2) Uani 1 1 d . . .
N7 N 0.4633(7) 0.0435(8) 0.3536(8) 0.100(3) Uani 1 1 d . . .
N8 N 0.6049(10) 0.6893(11) 0.0394(9) 0.128(4) Uani 1 1 d . . .
O3 O 0.9159(4) 0.9439(4) 1.0729(3) 0.0650(13) Uani 1 1 d . . .
O1 O 0.5246(3) 0.6163(3) 0.5896(3) 0.0401(10) Uani 1 1 d . . .
O2 O 0.6981(3) 0.6386(3) 0.5476(3) 0.0416(10) Uani 1 1 d . . .
O4 O 0.6307(3) 1.3869(3) 1.2317(3) 0.0488(11) Uani 1 1 d . . .
O5 O 0.7298(3) 1.4049(4) 1.3730(3) 0.0545(12) Uani 1 1 d . . .
O6 O 0.8702(8) 0.2612(9) -0.1594(7) 0.145(3) Uani 1 1 d . . .
O7 O 0.3636(6) 0.0639(8) 0.4827(6) 0.175(4) Uani 1 1 d . . .
O8 O 0.4443(11) 0.7262(14) 0.0662(10) 0.251(7) Uani 1 1 d . . .
C26 C 0.8372(5) 0.9634(5) 1.0340(5) 0.0471(16) Uani 1 1 d . . .
C19 C 0.6305(5) 0.6573(5) 0.6124(4) 0.0360(14) Uani 1 1 d . . .
C20 C 0.6846(5) 0.7349(5) 0.7222(4) 0.0324(13) Uani 1 1 d . . .
C21 C 0.8007(5) 0.7650(5) 0.7559(4) 0.0403(15) Uani 1 1 d . . .
H21 H 0.8478 0.7347 0.7105 0.048 Uiso 1 1 calc R . .
C22 C 0.8475(5) 0.8391(5) 0.8558(4) 0.0433(15) Uani 1 1 d . . .
H22 H 0.9260 0.8576 0.8771 0.052 Uiso 1 1 calc R . .
C23 C 0.7812(5) 0.8872(5) 0.9260(4) 0.0389(14) Uani 1 1 d . . .
C24 C 0.6652(5) 0.8560(5) 0.8930(5) 0.0497(16) Uani 1 1 d . . .
H24 H 0.6184 0.8863 0.9386 0.060 Uiso 1 1 calc R . .
C25 C 0.6175(5) 0.7803(5) 0.7933(5) 0.0456(16) Uani 1 1 d . . .
H25 H 0.5385 0.7591 0.7730 0.055 Uiso 1 1 calc R . .
C33 C 0.6973(5) 1.3570(5) 1.2785(5) 0.0421(15) Uani 1 1 d . . .
C30 C 0.7351(5) 1.2558(5) 1.2135(4) 0.0360(14) Uani 1 1 d . . .
C29 C 0.7032(5) 1.2041(5) 1.1086(5) 0.0456(16) Uani 1 1 d . . .
H29 H 0.6583 1.2323 1.0769 0.055 Uiso 1 1 calc R . .
C28 C 0.7364(5) 1.1115(5) 1.0498(5) 0.0497(17) Uani 1 1 d . . .
H28 H 0.7158 1.0793 0.9786 0.060 Uiso 1 1 calc R . .
C27 C 0.7998(5) 1.0651(5) 1.0940(4) 0.0408(15) Uani 1 1 d . . .
C32 C 0.8342(5) 1.1194(5) 1.2005(5) 0.0436(15) Uani 1 1 d . . .
H32 H 0.8790 1.0911 1.2321 0.052 Uiso 1 1 calc R . .
C31 C 0.8032(5) 1.2141(5) 1.2599(4) 0.0429(15) Uani 1 1 d . . .
H31 H 0.8279 1.2499 1.3306 0.051 Uiso 1 1 calc R . .
C11 C 1.0306(5) 0.1399(5) 0.4201(5) 0.0370(14) Uani 1 1 d . . .
C12 C 1.0814(5) 0.0574(5) 0.3641(5) 0.0440(16) Uani 1 1 d . . .
H12 H 1.1527 0.0767 0.3459 0.053 Uiso 1 1 calc R . .
C13 C 1.0226(5) -0.0535(5) 0.3365(5) 0.0465(16) Uani 1 1 d . . .
H13 H 1.0552 -0.1098 0.2995 0.056 Uiso 1 1 calc R . .
C14 C 0.9148(5) -0.0836(5) 0.3627(4) 0.0394(15) Uani 1 1 d . . .
C15 C 0.8645(5) -0.0024(5) 0.4173(4) 0.0393(15) Uani 1 1 d . . .
H15 H 0.7926 -0.0225 0.4342 0.047 Uiso 1 1 calc R . .
C10 C 0.9224(5) 0.1100(5) 0.4467(4) 0.0362(14) Uani 1 1 d . . .
C8 C 0.8971(5) 0.2135(5) 0.5062(4) 0.0365(14) Uani 1 1 d . . .
C9 C 0.8059(5) 0.2395(5) 0.5543(5) 0.0423(16) Uani 1 1 d . . .
H9 H 0.7446 0.1825 0.5533 0.051 Uiso 1 1 calc R . .
C4 C 0.8072(5) 0.3496(5) 0.6029(5) 0.0424(15) Uani 1 1 d . . .
C5 C 0.8991(5) 0.4362(5) 0.6074(5) 0.0466(16) Uani 1 1 d . . .
H5 H 0.8973 0.5106 0.6405 0.056 Uiso 1 1 calc R . .
C6 C 0.9921(5) 0.4136(5) 0.5639(5) 0.0472(16) Uani 1 1 d . . .
H6 H 1.0548 0.4717 0.5688 0.057 Uiso 1 1 calc R . .
C7 C 0.9904(5) 0.3020(5) 0.5122(5) 0.0374(14) Uani 1 1 d . . .
C16 C 0.7650(5) -0.2412(5) 0.3700(5) 0.0445(16) Uani 1 1 d . . .
H16 H 0.7279 -0.1960 0.4164 0.053 Uiso 1 1 calc R . .
C17 C 0.8098(5) -0.3835(6) 0.2675(5) 0.0546(18) Uani 1 1 d . . .
H17 H 0.8083 -0.4579 0.2279 0.066 Uiso 1 1 calc R . .
C18 C 0.8867(6) -0.2927(6) 0.2702(5) 0.0561(19) Uani 1 1 d . . .
H18 H 0.9481 -0.2926 0.2348 0.067 Uiso 1 1 calc R . .
C1 C 0.6334(5) 0.4126(5) 0.6058(5) 0.0450(16) Uani 1 1 d . . .
H1 H 0.6431 0.4322 0.5514 0.054 Uiso 1 1 calc R . .
C2 C 0.5634(6) 0.3803(6) 0.7257(5) 0.0589(19) Uani 1 1 d . . .
H2 H 0.5140 0.3730 0.7708 0.071 Uiso 1 1 calc R . .
C3 C 0.6624(6) 0.3541(6) 0.7216(5) 0.063(2) Uani 1 1 d . . .
H3 H 0.6946 0.3274 0.7634 0.076 Uiso 1 1 calc R . .
C34 C 0.9284(14) 0.2627(16) -0.0827(16) 0.108(6) Uani 0.76(2) 1 d P A 1
H34 H 0.9671 0.2095 -0.0894 0.130 Uiso 0.76(2) 1 calc PR A 1
C35 C 0.8569(13) 0.4201(12) 0.0166(13) 0.116(6) Uani 0.76(2) 1 d P A 1
H35A H 0.8292 0.4117 -0.0505 0.175 Uiso 0.76(2) 1 calc PR A 1
H35B H 0.9006 0.4971 0.0583 0.175 Uiso 0.76(2) 1 calc PR A 1
H35C H 0.7930 0.4000 0.0480 0.175 Uiso 0.76(2) 1 calc PR A 1
C36 C 0.9976(14) 0.3643(18) 0.1029(15) 0.128(7) Uani 0.76(2) 1 d P A 1
H36A H 1.0443 0.4414 0.1366 0.191 Uiso 0.76(2) 1 calc PR A 1
H36B H 1.0459 0.3152 0.0876 0.191 Uiso 0.76(2) 1 calc PR A 1
H36C H 0.9472 0.3486 0.1471 0.191 Uiso 0.76(2) 1 calc PR A 1
C34' C 0.866(4) 0.339(5) -0.074(5) 0.12(2) Uani 0.24(2) 1 d P A 2
H34' H 0.8221 0.3878 -0.0693 0.141 Uiso 0.24(2) 1 calc PR A 2
C35' C 1.004(4) 0.268(4) -0.010(4) 0.112(19) Uani 0.24(2) 1 d P A 2
H35D H 0.9604 0.1928 -0.0573 0.168 Uiso 0.24(2) 1 calc PR A 2
H35E H 1.0301 0.2681 0.0542 0.168 Uiso 0.24(2) 1 calc PR A 2
H35F H 1.0689 0.2932 -0.0378 0.168 Uiso 0.24(2) 1 calc PR A 2
C36' C 0.947(5) 0.433(5) 0.111(5) 0.13(2) Uani 0.24(2) 1 d P A 2
H36D H 0.9165 0.4921 0.1089 0.188 Uiso 0.24(2) 1 calc PR A 2
H36E H 1.0269 0.4640 0.1387 0.188 Uiso 0.24(2) 1 calc PR A 2
H36F H 0.9072 0.4021 0.1529 0.188 Uiso 0.24(2) 1 calc PR A 2
C37 C 0.4403(10) 0.0977(12) 0.4423(11) 0.154(5) Uani 1 1 d . . .
H37 H 0.4872 0.1710 0.4804 0.184 Uiso 1 1 calc R . .
C38 C 0.5623(9) 0.0834(10) 0.3194(9) 0.161(5) Uani 1 1 d . . .
H38A H 0.5943 0.1630 0.3609 0.241 Uiso 1 1 calc R . .
H38B H 0.5431 0.0695 0.2490 0.241 Uiso 1 1 calc R . .
H38C H 0.6173 0.0451 0.3250 0.241 Uiso 1 1 calc R . .
C39 C 0.3874(13) -0.0578(12) 0.2934(12) 0.240(8) Uani 1 1 d . . .
H39A H 0.4089 -0.1158 0.3057 0.360 Uiso 1 1 calc R . .
H39B H 0.3870 -0.0726 0.2225 0.360 Uiso 1 1 calc R . .
H39C H 0.3122 -0.0569 0.3093 0.360 Uiso 1 1 calc R . .
C40 C 0.4942(17) 0.6615(17) 0.0034(14) 0.189(7) Uani 1 1 d . . .
H40 H 0.4573 0.6023 -0.0597 0.227 Uiso 1 1 calc R . .
C41 C 0.6587(12) 0.7776(14) 0.1411(11) 0.203(7) Uani 1 1 d . . .
H41A H 0.6157 0.8316 0.1623 0.305 Uiso 1 1 calc R . .
H41B H 0.7356 0.8147 0.1391 0.305 Uiso 1 1 calc R . .
H41C H 0.6602 0.7450 0.1890 0.305 Uiso 1 1 calc R . .
C42 C 0.6814(12) 0.6334(12) -0.0225(11) 0.208(7) Uani 1 1 d . . .
H42A H 0.6471 0.5983 -0.0939 0.312 Uiso 1 1 calc R . .
H42B H 0.6942 0.5771 -0.0023 0.312 Uiso 1 1 calc R . .
H42C H 0.7532 0.6881 -0.0123 0.312 Uiso 1 1 calc R . .

loop_
_atom_site_aniso_label
_atom_site_aniso_U_11
_atom_site_aniso_U_22
_atom_site_aniso_U_33
_atom_site_aniso_U_23
_atom_site_aniso_U_13
_atom_site_aniso_U_12
Cd1 0.0346(3) 0.0354(3) 0.0359(3) 0.0074(2) 0.0083(2) 0.0052(2)
N3 0.036(3) 0.046(3) 0.051(4) 0.029(3) 0.008(3) 0.008(3)
N4 0.034(3) 0.047(3) 0.044(3) 0.022(3) 0.012(2) 0.009(3)
N5 0.042(3) 0.039(3) 0.047(3) 0.017(3) 0.016(3) 0.009(3)
N2 0.039(3) 0.049(3) 0.053(4) 0.024(3) 0.013(3) 0.018(3)
N1 0.047(3) 0.049(3) 0.043(3) 0.017(3) 0.013(3) 0.017(3)
N6 0.094(6) 0.111(8) 0.082(7) 0.055(7) 0.036(6) 0.035(6)
N7 0.090(6) 0.101(7) 0.123(8) 0.053(7) 0.063(6) 0.033(6)
N8 0.130(9) 0.182(11) 0.131(10) 0.109(10) 0.037(8) 0.073(9)
O3 0.067(3) 0.062(3) 0.044(3) -0.002(3) -0.013(2) 0.029(3)
O1 0.030(2) 0.038(2) 0.038(3) 0.008(2) 0.0066(19) 0.000(2)
O2 0.034(2) 0.044(3) 0.029(2) 0.003(2) 0.0111(19) 0.001(2)
O4 0.050(3) 0.038(3) 0.046(3) 0.006(2) 0.009(2) 0.012(2)
O5 0.052(3) 0.051(3) 0.041(3) 0.002(3) 0.011(2) 0.013(2)
O6 0.129(7) 0.176(9) 0.107(7) 0.032(7) 0.037(6) 0.049(6)
O7 0.105(6) 0.188(9) 0.172(8) 0.027(7) 0.090(6) 0.013(6)
O8 0.225(14) 0.37(2) 0.173(13) 0.102(14) 0.035(9) 0.146(13)
C26 0.049(4) 0.045(4) 0.035(4) 0.006(4) 0.002(3) 0.013(4)
C19 0.039(4) 0.025(3) 0.037(4) 0.008(3) 0.010(3) 0.004(3)
C20 0.029(3) 0.028(3) 0.026(3) 0.004(3) 0.007(3) -0.002(3)
C21 0.040(4) 0.038(4) 0.030(4) 0.002(3) 0.012(3) 0.010(3)
C22 0.036(4) 0.041(4) 0.034(4) 0.000(3) 0.003(3) 0.006(3)
C23 0.039(4) 0.033(4) 0.031(4) 0.003(3) 0.003(3) 0.006(3)
C24 0.039(4) 0.043(4) 0.036(4) -0.009(3) 0.011(3) 0.005(3)
C25 0.030(4) 0.040(4) 0.042(4) 0.001(3) 0.008(3) -0.003(3)
C33 0.034(4) 0.035(4) 0.041(4) 0.007(4) 0.010(3) -0.003(3)
C30 0.041(4) 0.033(3) 0.028(4) 0.008(3) 0.007(3) 0.008(3)
C29 0.051(4) 0.041(4) 0.039(4) 0.011(4) 0.001(3) 0.017(3)
C28 0.057(4) 0.046(4) 0.033(4) 0.004(4) -0.002(3) 0.016(4)
C27 0.048(4) 0.037(4) 0.028(4) 0.005(3) 0.004(3) 0.012(3)
C32 0.051(4) 0.043(4) 0.032(4) 0.012(3) 0.003(3) 0.013(3)
C31 0.046(4) 0.043(4) 0.024(3) 0.002(3) 0.003(3) 0.008(3)
C11 0.025(3) 0.044(4) 0.043(4) 0.024(4) 0.004(3) 0.003(3)
C12 0.032(4) 0.049(4) 0.049(4) 0.023(4) 0.011(3) 0.003(3)
C13 0.042(4) 0.050(4) 0.045(4) 0.020(4) 0.015(3) 0.008(4)
C14 0.035(4) 0.044(4) 0.041(4) 0.022(4) 0.009(3) 0.006(3)
C15 0.030(3) 0.047(4) 0.045(4) 0.026(4) 0.009(3) 0.007(3)
C10 0.031(3) 0.037(4) 0.041(4) 0.019(3) 0.006(3) 0.006(3)
C8 0.031(3) 0.038(4) 0.046(4) 0.025(3) 0.004(3) 0.008(3)
C9 0.034(4) 0.042(4) 0.055(4) 0.027(4) 0.009(3) 0.008(3)
C4 0.032(4) 0.043(4) 0.051(4) 0.021(4) 0.002(3) 0.006(3)
C5 0.041(4) 0.034(4) 0.060(5) 0.021(4) -0.001(3) 0.006(3)
C6 0.040(4) 0.044(4) 0.055(5) 0.025(4) 0.001(3) 0.001(3)
C7 0.030(3) 0.040(4) 0.041(4) 0.024(3) -0.005(3) 0.001(3)
C16 0.043(4) 0.040(4) 0.049(4) 0.018(4) 0.019(3) 0.009(3)
C17 0.058(5) 0.040(4) 0.060(5) 0.013(4) 0.030(4) 0.014(4)
C18 0.055(5) 0.047(4) 0.062(5) 0.017(4) 0.033(4) 0.012(4)
C1 0.045(4) 0.040(4) 0.054(5) 0.024(4) 0.010(3) 0.013(3)
C2 0.058(5) 0.071(5) 0.050(5) 0.027(4) 0.020(4) 0.019(4)
C3 0.064(5) 0.084(6) 0.059(5) 0.045(5) 0.015(4) 0.028(5)
C34 0.103(14) 0.132(14) 0.099(15) 0.048(14) 0.047(12) 0.050(12)
C35 0.125(13) 0.118(12) 0.098(15) 0.030(11) 0.042(11) 0.046(11)
C36 0.108(13) 0.16(2) 0.113(16) 0.067(17) 0.024(12) 0.023(12)
C34' 0.11(4) 0.14(5) 0.10(5) 0.03(4) 0.05(3) 0.05(4)
C35' 0.11(4) 0.13(4) 0.11(5) 0.05(4) 0.03(3) 0.07(3)
C36' 0.12(5) 0.14(5) 0.11(5) 0.04(5) 0.05(4) 0.03(4)
C37 0.111(11) 0.145(12) 0.161(14) 0.029(11) 0.053(9) 0.018(9)
C38 0.109(10) 0.210(14) 0.177(13) 0.108(12) 0.056(9) 0.020(10)
C39 0.213(17) 0.139(14) 0.239(19) 0.013(14) 0.067(14) -0.058(13)
C40 0.188(19) 0.26(2) 0.152(18) 0.106(18) 0.001(14) 0.092(17)
C41 0.218(17) 0.25(2) 0.132(13) 0.111(15) 0.002(12) 0.016(15)
C42 0.201(16) 0.204(17) 0.232(19) 0.080(15) 0.058(13) 0.100(14)

_geom_special_details            
; 
 All esds (except the esd in the dihedral angle between two l.s. planes) 
 are estimated using the full covariance matrix.  The cell esds are taken 
 into account individually in the estimation of esds in distances, angles 
 and torsion angles; correlations between esds in cell parameters are only 
 used when they are defined by crystal symmetry.  An approximate (isotropic) 
 treatment of cell esds is used for estimating esds involv