
#######################################################################
#
#                 Cambridge Crystallographic Data Centre
#                                CCDC
#
#######################################################################
#
# If this CIF has been generated from an entry in the Cambridge
# Structural Database, then it will include bibliographic, chemical,
# crystal, experimental, refinement or atomic coordinate data resulting
# from the CCDC's data processing and validation procedures.
#
#######################################################################

data_CSD_CIF_BTCOAC
_audit_creation_date 1971-12-31
_audit_creation_method CSD-ConQuest-V1
_database_code_CSD BTCOAC
_database_code_depnum_ccdc_archive 'CCDC 1115589'
_chemical_formula_sum 'C9 H6 O6'
_chemical_formula_moiety
;
C9 H6 O6
;
_journal_coeditor_code "IUCr A06583"
_journal_coden_Cambridge 107
_journal_volume 25
_journal_year 1969
_journal_page_first 5
_journal_name_full 'Acta Crystallogr.,Sect.B:Struct.Crystallogr.Cryst.Chem. '
loop_
_publ_author_name
"D.J.Duchamp"
"R.E.Marsh"
_chemical_name_systematic
;
Trimesic acid
;
_chemical_name_common
;
Teaching Subset: Fundamental Chemistry; DrugBank: DB08632
;
_cell_volume  11557.734
_exptl_crystal_density_diffrn 1.449
_exptl_special_details
;
polymorph I

;
_diffrn_ambient_temperature ?
_diffrn_special_details
;
The study was carried out at room temperature,in the range 283-303K

;
_refine_special_details
;
In some carboxyl groups H atoms are disordered.

;
#These two values have been output from a single CSD field.
_refine_ls_R_factor_gt 0.068
_refine_ls_wR_factor_gt 0.068
_symmetry_cell_setting monoclinic
_symmetry_space_group_name_H-M 'C 2/c'
_symmetry_Int_Tables_number 15
loop_
_symmetry_equiv_pos_site_id
_symmetry_equiv_pos_as_xyz
1 x,y,z
2 1/2+x,1/2+y,z
3 -x,y,1/2-z
4 1/2-x,1/2+y,1/2-z
5 -x,-y,-z
6 -1/2-x,-1/2-y,-z
7 x,-y,-1/2+z
8 -1/2+x,-1/2-y,-1/2+z
_cell_length_a 26.520(2)
_cell_length_b 16.420(1)
_cell_length_c 26.551(2)
_cell_angle_alpha 90
_cell_angle_beta 91.53(1)
_cell_angle_gamma 90
_cell_formula_units_Z 48
loop_
_atom_type_symbol
_atom_type_radius_bond
C 0.68
H 0.20
O 0.68
loop_
_atom_site_label
_atom_site_type_symbol
_atom_site_fract_x
_atom_site_fract_y
_atom_site_fract_z
C1 C 0.12593 -0.20176 0.27637
C2 C 0.15241 -0.12880 0.28158
C3 C 0.20392 -0.12979 0.29187
C4 C 0.22976 -0.20289 0.29722
C5 C 0.20350 -0.27613 0.29283
C6 C 0.15150 -0.27561 0.28202
C7 C 0.07103 -0.20154 0.26525
C8 C 0.23250 -0.05183 0.29917
C9 C 0.23085 -0.35362 0.30139
H1 H 0.13600 -0.08900 0.27700
H2 H 0.26500 -0.19600 0.30500
H3 H 0.13100 -0.32100 0.27600
H4 H 0.22600 0.05500 0.30500
H5 H 0.23500 -0.47900 0.30600
O1 O 0.04872 -0.26841 0.26107
O2 O 0.04936 -0.13383 0.25971
O3 O 0.20621 0.01418 0.29530
O4 O 0.27865 -0.05321 0.30906
O5 O 0.27608 -0.35137 0.31480
O6 O 0.20571 -0.41949 0.29554
C10 C 0.02749 0.24954 0.37586
C11 C 0.03284 0.17569 0.40117
C12 C 0.04372 0.17500 0.45284
C13 C 0.04854 0.24745 0.47908
C14 C 0.04358 0.32166 0.45341
C15 C 0.03288 0.32249 0.40195
C16 C 0.01579 0.24994 0.32075
C17 C 0.05135 0.09685 0.47993
C18 C 0.05147 0.39908 0.48229
H6 H 0.03200 0.12400 0.38300
H7 H 0.05500 0.24400 0.51500
H8 H 0.02900 0.36700 0.38300
H9 H 0.05600 -0.02800 0.47500
H10 H 0.05200 0.50400 0.48300
O7 O 0.01063 0.31734 0.29904
O8 O 0.01081 0.18238 0.29881
O9 O 0.04731 0.03101 0.45446
O10 O 0.06233 0.09845 0.52609
O11 O 0.06464 0.39626 0.52765
O12 O 0.04491 0.46468 0.45706
C19 C 0.40451 0.29796 0.36130
C20 C 0.37910 0.22390 0.35601
C21 C 0.32771 0.22355 0.34372
C22 C 0.30157 0.29665 0.33758
C23 C 0.32773 0.36983 0.34255
C24 C 0.37923 0.37090 0.35404
C25 C 0.45951 0.29580 0.37253
C26 C 0.30077 0.14630 0.33301
C27 C 0.29989 0.44802 0.33257
H11 H 0.39500 0.17900 0.36200
H12 H 0.26400 0.29900 0.33000
H13 H 0.40100 0.42300 0.35700
H14 H 0.30300 0.01800 0.32800
H15 H 0.30500 0.55600 0.32500
O13 O 0.48360 0.36338 0.36896
O14 O 0.48015 0.23040 0.38417
O15 O 0.32718 0.08061 0.33362
O16 O 0.25455 0.14769 0.32310
O17 O 0.25415 0.44550 0.32072
O18 O 0.32559 0.51331 0.33561
C28 C 0.11064 -0.24797 -0.34476
C29 C 0.10235 -0.17709 -0.37134
C30 C 0.09084 -0.17978 -0.42266
C31 C 0.08675 -0.25378 -0.44730
C32 C 0.09373 -0.32589 -0.42017
C33 C 0.10604 -0.32262 -0.36902
C34 C 0.12171 -0.24403 -0.28959
C35 C 0.08033 -0.10232 -0.45122
C36 C 0.08428 -0.40464 -0.44695
H16 H 0.10300 -0.12600 -0.35500
H17 H 0.07800 -0.24700 -0.48400
H18 H 0.11100 -0.36700 -0.35100
H19 H 0.08000 -0.52000 -0.44100
H20 H 0.07200 0.01000 -0.44800
O19 O 0.13466 -0.30932 -0.26770
O20 O 0.11817 -0.17724 -0.26778
O21 O 0.08117 -0.03696 -0.42554
O22 O 0.07030 -0.10643 -0.49735
O23 O 0.07208 -0.40397 -0.49209
O24 O 0.08792 -0.46953 -0.42050
C37 C 0.15629 -0.22050 0.41205
C38 C 0.18507 -0.14975 0.41534
C39 C 0.23610 -0.15392 0.42783
C40 C 0.25907 -0.22880 0.43572
C41 C 0.23115 -0.29946 0.42989
C42 C 0.17982 -0.29564 0.41866
C43 C 0.10154 -0.21472 0.40035
C44 C 0.26636 -0.07871 0.43723
C45 C 0.25754 -0.37916 0.43748
H21 H 0.17000 -0.10500 0.41200
H22 H 0.29500 -0.22900 0.44300
H23 H 0.15900 -0.34000 0.41900
H24 H 0.26300 0.02400 0.42900
H25 H 0.25600 -0.49200 0.42800
O25 O 0.07679 -0.28115 0.40315
O26 O 0.08206 -0.14798 0.38864
O27 O 0.24810 -0.01303 0.41526
O28 O 0.30406 -0.07955 0.46442
O29 O 0.29894 -0.38275 0.45824
O30 O 0.23231 -0.44251 0.42066
C46 C 0.16293 0.22778 0.40641
C47 C 0.16841 0.30192 0.43208
C48 C 0.17922 0.30171 0.48363
C49 C 0.18632 0.22961 0.50926
C50 C 0.18000 0.15590 0.48398
C51 C 0.16775 0.15464 0.43277
C52 C 0.15164 0.22990 0.35145
C53 C 0.18559 0.38005 0.51148
C54 C 0.19007 0.07958 0.51270
H26 H 0.16700 0.34800 0.41200
H27 H 0.19200 0.23000 0.54600
H28 H 0.16600 0.10200 0.41400
H29 H 0.17800 0.50000 0.50600
H30 H 0.18100 -0.02900 0.51600
O31 O 0.13863 0.16321 0.33016
O32 O 0.15433 0.29613 0.32898
O33 O 0.16945 0.44462 0.48729
O34 O 0.20468 0.38165 0.55381
O35 O 0.21791 0.07849 0.54986
O36 O 0.16746 0.01444 0.49406
#END
