####################################################################### 
# 
# This file contains crystal structure data downloaded from the 
# Cambridge Structural Database (CSD) hosted by the Cambridge 
# Crystallographic Data Centre (CCDC).
# 
# Full information about CCDC data access policies and citation 
# guidelines are available at http://www.ccdc.cam.ac.uk/access/V1 
# 
# Audit and citation data items may have been added by the CCDC. 
# Please retain this information to preserve the provenance of 
# this file and to allow appropriate attribution of the data. 
# 
#######################################################################

data_1
_audit_block_doi                 10.5517/cc12mmjv
_database_code_depnum_ccdc_archive 'CCDC 1001967'
loop_
_citation_id
_citation_doi
_citation_year
1 10.11862/CJIC.2014.347 2014
_audit_update_record             
;
2014-05-09 deposited with the CCDC.	2024-07-08 downloaded from the CCDC.
;

_audit_creation_method           SHELXL-97
_chemical_name_systematic        
; 
 ? 
;
_chemical_name_common            ?
_chemical_melting_point          ?
_chemical_formula_moiety         'C12 H21 N2 O11 P2 Zn1.50'
_chemical_formula_sum            'C12 H21 N2 O11 P2 Zn1.50'
_chemical_formula_weight         529.30

loop_
_atom_type_symbol
_atom_type_description
_atom_type_scat_dispersion_real
_atom_type_scat_dispersion_imag
_atom_type_scat_source
C C 0.0033 0.0016 'International Tables Vol C Tables 4.2.6.8 and 6.1.1.4'
H H 0.0000 0.0000 'International Tables Vol C Tables 4.2.6.8 and 6.1.1.4'
N N 0.0061 0.0033 'International Tables Vol C Tables 4.2.6.8 and 6.1.1.4'
O O 0.0106 0.0060 'International Tables Vol C Tables 4.2.6.8 and 6.1.1.4'
P P 0.1023 0.0942 'International Tables Vol C Tables 4.2.6.8 and 6.1.1.4'
Zn Zn 0.2839 1.4301 'International Tables Vol C Tables 4.2.6.8 and 6.1.1.4'

_symmetry_cell_setting           monoclinic
_symmetry_space_group_name_H-M   C2
_symmetry_space_group_name_Hall  C2y

loop_
_symmetry_equiv_pos_as_xyz
'x, y, z'
'-x, y, -z'
'x+1/2, y+1/2, z'
'-x+1/2, y+1/2, -z'

_cell_length_a                   22.158(4)
_cell_length_b                   6.5458(13)
_cell_length_c                   13.820(3)
_cell_angle_alpha                90.00
_cell_angle_beta                 110.828(2)
_cell_angle_gamma                90.00
_cell_volume                     1873.4(6)
_cell_formula_units_Z            4
_cell_measurement_temperature    296(2)
_cell_measurement_reflns_used    2558
_cell_measurement_theta_min      1.58
_cell_measurement_theta_max      25

_exptl_crystal_description       block
_exptl_crystal_colour            colorless
_exptl_crystal_size_max          0.28
_exptl_crystal_size_mid          0.26
_exptl_crystal_size_min          0.22
_exptl_crystal_density_meas      ?
_exptl_crystal_density_diffrn    1.877
_exptl_crystal_density_method    'not measured'
_exptl_crystal_F_000             1080
_exptl_absorpt_coefficient_mu    2.169
_exptl_absorpt_correction_type   multi-scan
_exptl_absorpt_correction_T_min  0.55
_exptl_absorpt_correction_T_max  0.621
_exptl_absorpt_process_details   'SADABS, Bruker(2000)'

_exptl_special_details           
; 
 ? 
;

_diffrn_ambient_temperature      296(2)
_diffrn_radiation_wavelength     0.71073
_diffrn_radiation_type           MoK\a
_diffrn_radiation_source         'fine-focus sealed tube'
_diffrn_radiation_monochromator  graphite
_diffrn_measurement_device_type  'SMART APEX II(Bruker, 2005)'
_diffrn_measurement_method       omega-scan
_diffrn_detector_area_resol_mean 10.0
_diffrn_standards_number         0
_diffrn_standards_interval_count 0
_diffrn_standards_interval_time  0
_diffrn_standards_decay_%        0
_diffrn_reflns_number            6184
_diffrn_reflns_av_R_equivalents  0.0444
_diffrn_reflns_av_sigmaI/netI    0.0744
_diffrn_reflns_limit_h_min       -22
_diffrn_reflns_limit_h_max       26
_diffrn_reflns_limit_k_min       -7
_diffrn_reflns_limit_k_max       7
_diffrn_reflns_limit_l_min       -16
_diffrn_reflns_limit_l_max       16
_diffrn_reflns_theta_min         1.58
_diffrn_reflns_theta_max         25.00
_reflns_number_total             3049
_reflns_number_gt                2558
_reflns_threshold_expression     >2sigma(I)

_computing_data_collection       'SMART APEX II(Bruker, 2005)'
_computing_cell_refinement       'SMART APEX II'
_computing_data_reduction        'SMART APEX II'
_computing_structure_solution    'SHELXS-97 (Sheldrick, 1990)'
_computing_structure_refinement  'SHELXL-97 (Sheldrick, 1997)'
_computing_molecular_graphics    SHELXTL
_computing_publication_material  SHELXTL

_refine_special_details          
; 
 Refinement of F^2^ against ALL reflections.  The weighted R-factor wR and 
 goodness of fit S are based on F^2^, conventional R-factors R are based 
 on F, with F set to zero for negative F^2^. The threshold expression of 
 F^2^ > 2sigma(F^2^) is used only for calculating R-factors(gt) etc. and is 
 not relevant to the choice of reflections for refinement.  R-factors based 
 on F^2^ are statistically about twice as large as those based on F, and R- 
 factors based on ALL data will be even larger. 
;

_refine_ls_structure_factor_coef Fsqd
_refine_ls_matrix_type           full
_refine_ls_weighting_scheme      calc
_refine_ls_weighting_details     
'calc w=1/[\s^2^(Fo^2^)+(0.0761P)^2^+11.0997P] where P=(Fo^2^+2Fc^2^)/3'
_atom_sites_solution_primary     direct
_atom_sites_solution_secondary   difmap
_atom_sites_solution_hydrogens   geom
_refine_ls_hydrogen_treatment    constr
_refine_ls_extinction_method     none
_refine_ls_extinction_coef       ?
_refine_ls_abs_structure_details 'Flack H D (1983), Acta Cryst. A39, 876-881'
_refine_ls_abs_structure_Flack   0.94(3)
_chemical_absolute_configuration ad
_refine_ls_number_reflns         3049
_refine_ls_number_parameters     261
_refine_ls_number_restraints     3
_refine_ls_R_factor_all          0.0682
_refine_ls_R_factor_gt           0.0538
_refine_ls_wR_factor_ref         0.1563
_refine_ls_wR_factor_gt          0.1327
_refine_ls_goodness_of_fit_ref   1.093
_refine_ls_restrained_S_all      1.094
_refine_ls_shift/su_max          0.000
_refine_ls_shift/su_mean         0.000

loop_
_atom_site_label
_atom_site_type_symbol
_atom_site_fract_x
_atom_site_fract_y
_atom_site_fract_z
_atom_site_U_iso_or_equiv
_atom_site_adp_type
_atom_site_occupancy
_atom_site_symmetry_multiplicity
_atom_site_calc_flag
_atom_site_refinement_flags
_atom_site_disorder_assembly
_atom_site_disorder_group
Zn1 Zn 0.10285(5) 0.19438(17) 0.27671(7) 0.0189(3) Uani 1 1 d . . .
Zn2 Zn 0.0000 -0.4078(2) 0.0000 0.0228(4) Uani 1 2 d S . .
P2 P 0.07049(10) -0.3006(5) 0.22573(15) 0.0173(5) Uani 1 1 d . . .
P1 P -0.04005(12) 0.3984(4) 0.17405(18) 0.0196(6) Uani 1 1 d . . .
N1 N 0.2066(3) 0.1820(15) 0.3325(5) 0.0223(17) Uani 1 1 d . . .
N2 N 0.1305(3) 0.2055(15) 0.4435(5) 0.0223(17) Uani 1 1 d . . .
O5 O 0.0022(3) 0.2310(10) 0.2386(5) 0.0229(16) Uani 1 1 d . . .
C7 C 0.2182(5) 0.189(2) 0.6045(7) 0.029(2) Uani 1 1 d . . .
H7 H 0.2625 0.1888 0.6406 0.034 Uiso 1 1 calc R . .
C10 C 0.0892(5) 0.193(2) 0.4945(7) 0.029(2) Uani 1 1 d . . .
H10 H 0.0450 0.1917 0.4569 0.035 Uiso 1 1 calc R . .
C5 C 0.2369(4) 0.1958(18) 0.4353(6) 0.0227(19) Uani 1 1 d . . .
C9 C 0.1101(5) 0.181(2) 0.6000(7) 0.031(2) Uani 1 1 d . . .
H9 H 0.0804 0.1741 0.6333 0.038 Uiso 1 1 calc R . .
C6 C 0.1940(4) 0.1994(18) 0.4977(6) 0.0190(18) Uani 1 1 d . . .
C8 C 0.1752(5) 0.1805(19) 0.6568(7) 0.030(2) Uani 1 1 d . . .
H8 H 0.1901 0.1741 0.7287 0.036 Uiso 1 1 calc R . .
C1 C 0.2432(5) 0.1721(19) 0.2737(7) 0.029(2) Uani 1 1 d . . .
H1 H 0.2222 0.1631 0.2023 0.035 Uiso 1 1 calc R . .
C3 C 0.3399(4) 0.190(2) 0.4166(8) 0.034(2) Uani 1 1 d . . .
H3 H 0.3848 0.1928 0.4448 0.041 Uiso 1 1 calc R . .
C2 C 0.3087(5) 0.1742(19) 0.3110(7) 0.031(2) Uani 1 1 d . . .
H2 H 0.3318 0.1651 0.2667 0.037 Uiso 1 1 calc R . .
C4 C 0.3037(4) 0.203(2) 0.4805(7) 0.027(2) Uani 1 1 d . . .
H4 H 0.3238 0.2153 0.5518 0.032 Uiso 1 1 calc R . .
O1 O 0.0970(3) -0.1144(11) 0.2917(5) 0.0294(18) Uani 1 1 d . . .
O2 O 0.1121(3) 0.5113(11) 0.2588(5) 0.0265(17) Uani 1 1 d . . .
O4 O 0.0566(3) -0.2487(9) 0.1114(5) 0.0257(17) Uani 1 1 d . . .
O3 O 0.0971(3) 0.1468(11) 0.1190(5) 0.0318(19) Uani 1 1 d . . .
H31 H 0.0943 0.2760 0.1120 0.038 Uiso 1 1 d R . .
H32 H 0.0775 0.0367 0.0958 0.038 Uiso 1 1 d R . .
C11 C -0.0086(4) -0.3557(14) 0.2369(7) 0.022(2) Uani 1 1 d . . .
O6 O -0.1095(3) 0.3786(12) 0.1789(5) 0.0313(18) Uani 1 1 d . . .
H6 H -0.1362 0.3728 0.1200 0.047 Uiso 1 1 calc R . .
O7 O 0.0451(3) -0.5927(11) -0.0627(5) 0.0253(16) Uani 1 1 d . . .
C12 C -0.0020(5) -0.3637(19) 0.3517(7) 0.033(3) Uani 1 1 d . . .
H12A H 0.0100 -0.2312 0.3823 0.050 Uiso 1 1 calc R . .
H12B H 0.0306 -0.4612 0.3876 0.050 Uiso 1 1 calc R . .
H12C H -0.0425 -0.4035 0.3567 0.050 Uiso 1 1 calc R . .
O8 O -0.0538(3) -0.1997(11) 0.1831(6) 0.0331(19) Uani 1 1 d . . .
H8A H -0.0367 -0.0872 0.1981 0.050 Uiso 1 1 calc R . .
O1W O 0.1952(4) 0.5713(14) 0.1368(6) 0.045(2) Uani 1 1 d . . .
H1W2 H 0.1753 0.5402 0.1777 0.053 Uiso 1 1 d R . .
H1W1 H 0.1898 0.6842 0.1097 0.053 Uiso 1 1 d R . .
O2W O 0.7987(4) 0.2976(13) 1.0027(6) 0.0396(19) Uani 1 1 d D . .
H2W1 H 0.8010 0.3908 0.9644 0.048 Uiso 1 1 d RD . .
H2W2 H 0.7713 0.2371 1.0223 0.048 Uiso 1 1 d RD . .
O3W O 0.1713(4) 0.8734(14) 0.9838(6) 0.050(2) Uani 1 1 d . . .
H3W1 H 0.1930 0.9778 1.0017 0.060 Uiso 1 1 d R . .
H3W2 H 0.1458 0.8509 0.9224 0.060 Uiso 1 1 d R . .

loop_
_atom_site_aniso_label
_atom_site_aniso_U_11
_atom_site_aniso_U_22
_atom_site_aniso_U_33
_atom_site_aniso_U_23
_atom_site_aniso_U_13
_atom_site_aniso_U_12
Zn1 0.0205(5) 0.0150(5) 0.0189(5) 0.0001(5) 0.0041(4) 0.0001(6)
Zn2 0.0265(9) 0.0218(9) 0.0177(8) 0.000 0.0048(7) 0.000
P2 0.0199(11) 0.0123(11) 0.0170(10) -0.0027(12) 0.0033(9) -0.0004(13)
P1 0.0174(13) 0.0197(14) 0.0210(12) 0.0009(10) 0.0062(10) -0.0006(11)
N1 0.025(4) 0.018(4) 0.020(3) 0.000(4) 0.003(3) 0.004(4)
N2 0.024(4) 0.016(4) 0.028(4) -0.003(4) 0.010(3) -0.006(4)
O5 0.024(3) 0.015(4) 0.027(3) 0.005(3) 0.006(3) 0.000(3)
C7 0.030(5) 0.025(5) 0.030(5) -0.009(6) 0.008(4) 0.002(6)
C10 0.026(5) 0.027(5) 0.029(5) -0.003(6) 0.006(4) 0.001(6)
C5 0.024(5) 0.013(4) 0.029(4) -0.001(5) 0.006(4) 0.004(5)
C9 0.036(6) 0.035(6) 0.032(5) -0.005(6) 0.023(4) 0.001(6)
C6 0.019(5) 0.008(4) 0.029(4) 0.001(5) 0.008(4) 0.005(5)
C8 0.045(6) 0.021(6) 0.026(5) -0.006(5) 0.013(4) 0.002(6)
C1 0.030(5) 0.035(7) 0.020(4) 0.000(5) 0.007(4) 0.003(5)
C3 0.016(5) 0.035(6) 0.047(6) 0.009(6) 0.008(4) 0.006(6)
C2 0.032(6) 0.032(7) 0.039(5) 0.006(5) 0.023(5) 0.011(6)
C4 0.016(4) 0.029(5) 0.029(5) -0.006(6) -0.003(4) 0.002(6)
O1 0.038(4) 0.019(4) 0.023(4) 0.000(3) 0.000(3) -0.003(3)
O2 0.023(4) 0.016(4) 0.038(4) -0.002(3) 0.007(3) 0.000(3)
O4 0.030(4) 0.021(5) 0.022(3) 0.000(3) 0.004(3) -0.009(3)
O3 0.043(4) 0.023(5) 0.027(3) -0.002(3) 0.008(3) -0.005(3)
C11 0.022(5) 0.022(7) 0.021(4) 0.003(4) 0.008(4) 0.006(4)
O6 0.024(4) 0.042(5) 0.029(4) -0.004(4) 0.011(3) -0.003(4)
O7 0.026(4) 0.024(4) 0.021(3) 0.000(3) 0.003(3) 0.004(3)
C12 0.026(5) 0.053(9) 0.021(5) -0.007(5) 0.008(4) -0.005(5)
O8 0.027(4) 0.015(4) 0.043(4) 0.006(3) -0.005(3) 0.005(3)
O1W 0.044(5) 0.050(6) 0.042(4) 0.011(4) 0.019(4) 0.005(4)
O2W 0.035(4) 0.041(5) 0.044(4) 0.003(4) 0.015(4) -0.002(4)
O3W 0.039(5) 0.046(5) 0.054(5) 0.006(4) 0.004(4) -0.002(4)

_geom_special_details            
; 
 All esds (except the esd in the dihedral angle between two l.s. planes) 
 are estimated using the full covariance matrix.  The cell esds are taken 
 into account individually in the estimation of esds in distances, angles 
 and torsion angles; correlations between esds in cell parameters are only 
 used when they are defined by crystal symmetry.  An approximate (isotropic) 
 treatment of cell esds is used for estimating esds involving l.s. planes. 
;

loop_
_geom_bond_atom_site_label_1
_geom_bond_atom_site_label_2
_geom_bond_distance
_geom_bond_site_symmetry_2
_geom_bond_publ_flag
Zn1 O1 2.041(8) . ?
Zn1 O2 2.107(7) . ?
Zn1 O5 2.115(6) . ?
Zn1 N1 2.151(7) . ?
Zn1 O3 2.161(6) . ?
Zn1 N2 2.166(7) . ?
Zn2 O4 1.911(6) . ?
Zn2 O4 1.911(6) 2 ?
Zn2 O7 1.956(7) . ?
Zn2 O7 1.956(7) 2 ?
P2 O2 1.508(7) 1_545 ?
P2 O1 1.511(7) . ?
P2 O4 1.537(6) . ?
P2 C11 1.849(10) . ?
P1 O7 1.504(7) 2_565 ?
P1 O5 1.509(7) . ?
P1 O6 1.569(7) . ?
P1 C11 1.844(9) 1_565 ?
N1 C1 1.338(12) . ?
N1 C5 1.340(10) . ?
N2 C10 1.340(12) . ?
N2 C6 1.341(11) . ?
C7 C6 1.380(12) . ?
C7 C8 1.387(13) . ?
C7 H7 0.9300 . ?
C10 C9 1.366(13) . ?
C10 H10 0.9300 . ?
C5 C4 1.388(12) . ?
C5 C6 1.494(12) . ?
C9 C8 1.377(14) . ?
C9 H9 0.9300 . ?
C8 H8 0.9300 . ?
C1 C2 1.357(14) . ?
C1 H1 0.9300 . ?
C3 C2 1.378(14) . ?
C3 C4 1.390(13) . ?
C3 H3 0.9300 . ?
C2 H2 0.9300 . ?
C4 H4 0.9300 . ?
O2 P2 1.508(7) 1_565 ?
O3 H31 0.8509 . ?
O3 H32 0.8443 . ?
C11 O8 1.438(11) . ?
C11 C12 1.540(12) . ?
C11 P1 1.844(9) 1_545 ?
O6 H6 0.8200 . ?
O7 P1 1.504(7) 2_545 ?
C12 H12A 0.9600 . ?
C12 H12B 0.9600 . ?
C12 H12C 0.9600 . ?
O8 H8A 0.8200 . ?
O1W H1W2 0.8559 . ?
O1W H1W1 0.8177 . ?
O2W H2W1 0.8203 . ?
O2W H2W2 0.8460 . ?
O3W H3W1 0.8212 . ?
O3W H3W1 0.8212 . ?
O3W H3W2 0.8485 . ?

loop_
_geom_angle_atom_site_label_1
_geom_angle_atom_site_label_2
_geom_angle_atom_site_label_3
_geom_angle
_geom_angle_site_symmetry_1
_geom_angle_site_symmetry_3
_geom_angle_publ_flag
O1 Zn1 O2 177.6(3) . . ?
O1 Zn1 O5 92.2(3) . . ?
O2 Zn1 O5 89.8(3) . . ?
O1 Zn1 N1 91.4(3) . . ?
O2 Zn1 N1 86.7(3) . . ?
O5 Zn1 N1 172.6(3) . . ?
O1 Zn1 O3 88.7(3) . . ?
O2 Zn1 O3 89.8(3) . . ?
O5 Zn1 O3 95.0(3) . . ?
N1 Zn1 O3 91.6(3) . . ?
O1 Zn1 N2 85.9(3) . . ?
O2 Zn1 N2 95.1(3) . . ?
O5 Zn1 N2 97.8(3) . . ?
N1 Zn1 N2 76.0(3) . . ?
O3 Zn1 N2 166.3(3) . . ?
O4 Zn2 O4 114.0(4) . 2 ?
O4 Zn2 O7 113.7(3) . . ?
O4 Zn2 O7 105.8(3) 2 . ?
O4 Zn2 O7 105.8(3) . 2 ?
O4 Zn2 O7 113.7(3) 2 2 ?
O7 Zn2 O7 103.6(4) . 2 ?
O2 P2 O1 114.3(4) 1_545 . ?
O2 P2 O4 111.7(4) 1_545 . ?
O1 P2 O4 109.6(4) . . ?
O2 P2 C11 108.1(4) 1_545 . ?
O1 P2 C11 106.4(4) . . ?
O4 P2 C11 106.2(4) . . ?
O7 P1 O5 115.9(4) 2_565 . ?
O7 P1 O6 109.3(4) 2_565 . ?
O5 P1 O6 109.0(4) . . ?
O7 P1 C11 109.1(4) 2_565 1_565 ?
O5 P1 C11 107.7(4) . 1_565 ?
O6 P1 C11 105.3(4) . 1_565 ?
C1 N1 C5 117.7(8) . . ?
C1 N1 Zn1 125.8(5) . . ?
C5 N1 Zn1 116.5(6) . . ?
C10 N2 C6 118.9(7) . . ?
C10 N2 Zn1 124.7(6) . . ?
C6 N2 Zn1 115.9(6) . . ?
P1 O5 Zn1 127.4(4) . . ?
C6 C7 C8 118.8(9) . . ?
C6 C7 H7 120.6 . . ?
C8 C7 H7 120.6 . . ?
N2 C10 C9 121.9(9) . . ?
N2 C10 H10 119.1 . . ?
C9 C10 H10 119.1 . . ?
N1 C5 C4 122.1(9) . . ?
N1 C5 C6 115.6(7) . . ?
C4 C5 C6 122.3(8) . . ?
C10 C9 C8 119.9(9) . . ?
C10 C9 H9 120.1 . . ?
C8 C9 H9 120.1 . . ?
N2 C6 C7 122.0(8) . . ?
N2 C6 C5 115.8(7) . . ?
C7 C6 C5 122.1(8) . . ?
C9 C8 C7 118.5(9) . . ?
C9 C8 H8 120.7 . . ?
C7 C8 H8 120.7 . . ?
N1 C1 C2 124.4(8) . . ?
N1 C1 H1 117.8 . . ?
C2 C1 H1 117.8 . . ?
C2 C3 C4 119.4(9) . . ?
C2 C3 H3 120.3 . . ?
C4 C3 H3 120.3 . . ?
C1 C2 C3 118.0(9) . . ?
C1 C2 H2 121.0 . . ?
C3 C2 H2 121.0 . . ?
C5 C4 C3 118.4(8) . . ?
C5 C4 H4 120.8 . . ?
C3 C4 H4 120.8 . . ?
P2 O1 Zn1 139.7(4) . . ?
P2 O2 Zn1 139.9(4) 1_565 . ?
P2 O4 Zn2 122.8(4) . . ?
Zn1 O3 H31 87.0 . . ?
Zn1 O3 H32 110.0 . . ?
H31 O3 H32 142.9 . . ?
O8 C11 C12 110.6(8) . . ?
O8 C11 P1 107.4(6) . 1_545 ?
C12 C11 P1 109.7(7) . 1_545 ?
O8 C11 P2 108.9(6) . . ?
C12 C11 P2 110.3(6) . . ?
P1 C11 P2 109.9(5) 1_545 . ?
P1 O6 H6 109.5 . . ?
P1 O7 Zn2 127.8(4) 2_545 . ?
C11 C12 H12A 109.5 . . ?
C11 C12 H12B 109.5 . . ?
H12A C12 H12B 109.5 . . ?
C11 C12 H12C 109.5 . . ?
H12A C12 H12C 109.5 . . ?
H12B C12 H12C 109.5 . . ?
C11 O8 H8A 109.5 . . ?
H1W2 O1W H1W1 119.6 . . ?
H2W1 O2W H2W2 140.4 . . ?
H3W1 O3W H3W1 0.0 . . ?
H3W1 O3W H3W2 123.8 . . ?
H3W1 O3W H3W2 123.8 . . ?

loop_
_geom_hbond_atom_site_label_D
_geom_hbond_atom_site_label_H
_geom_hbond_atom_site_label_A
_geom_hbond_distance_DH
_geom_hbond_distance_HA
_geom_hbond_distance_DA
_geom_hbond_angle_DHA
_geom_hbond_site_symmetry_A
O2W H2W2 O3W 0.85 2.27 2.785(11) 119.5 3_545
O2W H2W1 O1W 0.82 1.86 2.670(11) 171.5 2_656
O3W H3W2 O8 0.85 2.07 2.839(10) 150.6 2_566
O3W H3W1 O2W 0.82 2.10 2.846(12) 150.1 2_667
O1W H1W1 O3W 0.82 2.05 2.804(12) 152.3 1_554
O1W H1W2 O2 0.86 2.09 2.932(11) 167.5 .
O8 H8A O5 0.82 2.25 3.065(10) 175.3 .
O6 H6 O2W 0.82 1.81 2.614(10) 164.6 1_454
O3 H32 O4 0.84 1.95 2.730(9) 152.2 .
O3 H31 O2 0.85 2.47 3.014(10) 122.9 .
O3 H31 O7 0.85 2.43 2.913(9) 117.1 1_565
C4 H4 O1 0.93 2.51 3.355(11) 151.3 4_556

_diffrn_measured_fraction_theta_max 0.997
_diffrn_reflns_theta_full        25.00
_diffrn_measured_fraction_theta_full 0.997
_refine_diff_density_max         0.705
_refine_diff_density_min         -0.781
_refine_diff_density_rms         0.148
