####################################################################### 
# 
# This file contains crystal structure data downloaded from the 
# Cambridge Structural Database (CSD) hosted by the Cambridge 
# Crystallographic Data Centre (CCDC).
# 
# Full information about CCDC data access policies and citation 
# guidelines are available at http://www.ccdc.cam.ac.uk/access/V1 
# 
# Audit and citation data items may have been added by the CCDC. 
# Please retain this information to preserve the provenance of 
# this file and to allow appropriate attribution of the data. 
# 
#######################################################################

data_1
_audit_block_doi                 10.5517/cc1297g2
_database_code_depnum_ccdc_archive 'CCDC 991983'
loop_
_citation_id
_citation_doi
_citation_year
1 10.11862/CJIC.2014.274 2014
_audit_update_record             
;
2014-03-16 deposited with the CCDC.	2024-07-08 downloaded from the CCDC.
;

_audit_creation_method           SHELXL-97
_chemical_name_systematic        
; 
 ? 
;
_chemical_name_common            ?
_chemical_melting_point          ?
_chemical_formula_moiety         'C15 H17 Hg2 I4 N7 O'
_chemical_formula_sum            'C15 H17 Hg2 I4 N7 O'
_chemical_formula_weight         1220.14

loop_
_atom_type_symbol
_atom_type_description
_atom_type_scat_dispersion_real
_atom_type_scat_dispersion_imag
_atom_type_scat_source
C C 0.0033 0.0016 'International Tables Vol C Tables 4.2.6.8 and 6.1.1.4'
H H 0.0000 0.0000 'International Tables Vol C Tables 4.2.6.8 and 6.1.1.4'
N N 0.0061 0.0033 'International Tables Vol C Tables 4.2.6.8 and 6.1.1.4'
O O 0.0106 0.0060 'International Tables Vol C Tables 4.2.6.8 and 6.1.1.4'
Hg Hg -2.3894 9.2266 'International Tables Vol C Tables 4.2.6.8 and 6.1.1.4'
I I -0.4742 1.8119 'International Tables Vol C Tables 4.2.6.8 and 6.1.1.4'

_symmetry_cell_setting           monoclinic
_symmetry_space_group_name_H-M   'P 21/c'
_symmetry_space_group_name_Hall  '-P 2ybc'

loop_
_symmetry_equiv_pos_as_xyz
'x, y, z'
'-x, y+1/2, -z+1/2'
'-x, -y, -z'
'x, -y-1/2, z-1/2'

_cell_length_a                   4.330(3)
_cell_length_b                   24.657(15)
_cell_length_c                   24.592(16)
_cell_angle_alpha                90.00
_cell_angle_beta                 91.267(14)
_cell_angle_gamma                90.00
_cell_volume                     2625(3)
_cell_formula_units_Z            4
_cell_measurement_temperature    296(2)
_cell_measurement_reflns_used    3214
_cell_measurement_theta_min      2.11
_cell_measurement_theta_max      26

_exptl_crystal_description       block
_exptl_crystal_colour            yellow
_exptl_crystal_size_max          0.07
_exptl_crystal_size_mid          0.07
_exptl_crystal_size_min          0.06
_exptl_crystal_density_meas      ?
_exptl_crystal_density_diffrn    3.088
_exptl_crystal_density_method    'not measured'
_exptl_crystal_F_000             2144
_exptl_absorpt_coefficient_mu    16.409
_exptl_absorpt_correction_type   MULTI-SCAN
_exptl_absorpt_correction_T_min  0.3930
_exptl_absorpt_correction_T_max  0.4393
_exptl_absorpt_process_details   'SADABS; Bruker, 2000'

_exptl_special_details           
; 
 ? 
;

_diffrn_ambient_temperature      296(2)
_diffrn_radiation_wavelength     0.71073
_diffrn_radiation_type           MoK\a
_diffrn_radiation_source         'fine-focus sealed tube'
_diffrn_radiation_monochromator  graphite
_diffrn_measurement_device_type  'Bruker Smart Aepex II CCD'
_diffrn_measurement_method       'phi and omega scans'
_diffrn_detector_area_resol_mean ?
_diffrn_standards_number         ?
_diffrn_standards_interval_count ?
_diffrn_standards_interval_time  ?
_diffrn_standards_decay_%        ?
_diffrn_reflns_number            14824
_diffrn_reflns_av_R_equivalents  0.0609
_diffrn_reflns_av_sigmaI/netI    0.0763
_diffrn_reflns_limit_h_min       -5
_diffrn_reflns_limit_h_max       5
_diffrn_reflns_limit_k_min       -30
_diffrn_reflns_limit_k_max       25
_diffrn_reflns_limit_l_min       -27
_diffrn_reflns_limit_l_max       30
_diffrn_reflns_theta_min         1.85
_diffrn_reflns_theta_max         26.00
_reflns_number_total             5162
_reflns_number_gt                3214
_reflns_threshold_expression     >2sigma(I)

_computing_data_collection       'SMART (Bruker, 2000)'
_computing_cell_refinement       SMART
_computing_data_reduction        'SAINT (Bruker, 2000)'
_computing_structure_solution    'SHELXS-97 (Sheldrick, 2008)'
_computing_structure_refinement  'SHELXL-97 (Sheldrick, 2008)'
_computing_molecular_graphics    SHELXTL
_computing_publication_material  SHELXTL

_refine_special_details          
; 
 Refinement of F^2^ against ALL reflections.  The weighted R-factor wR and 
 goodness of fit S are based on F^2^, conventional R-factors R are based 
 on F, with F set to zero for negative F^2^. The threshold expression of 
 F^2^ > 2sigma(F^2^) is used only for calculating R-factors(gt) etc. and is 
 not relevant to the choice of reflections for refinement.  R-factors based 
 on F^2^ are statistically about twice as large as those based on F, and R- 
 factors based on ALL data will be even larger. 
;

_refine_ls_structure_factor_coef Fsqd
_refine_ls_matrix_type           full
_refine_ls_weighting_scheme      calc
_refine_ls_weighting_details     
'calc w=1/[\s^2^(Fo^2^)+(0.0467P)^2^+0.0000P] where P=(Fo^2^+2Fc^2^)/3'
_atom_sites_solution_primary     direct
_atom_sites_solution_secondary   difmap
_atom_sites_solution_hydrogens   geom
_refine_ls_hydrogen_treatment    mixed
_refine_ls_extinction_method     none
_refine_ls_extinction_coef       ?
_refine_ls_number_reflns         5162
_refine_ls_number_parameters     239
_refine_ls_number_restraints     0
_refine_ls_R_factor_all          0.0971
_refine_ls_R_factor_gt           0.0515
_refine_ls_wR_factor_ref         0.1140
_refine_ls_wR_factor_gt          0.1017
_refine_ls_goodness_of_fit_ref   0.987
_refine_ls_restrained_S_all      0.987
_refine_ls_shift/su_max          0.002
_refine_ls_shift/su_mean         0.000

loop_
_atom_site_label
_atom_site_type_symbol
_atom_site_fract_x
_atom_site_fract_y
_atom_site_fract_z
_atom_site_U_iso_or_equiv
_atom_site_adp_type
_atom_site_occupancy
_atom_site_symmetry_multiplicity
_atom_site_calc_flag
_atom_site_refinement_flags
_atom_site_disorder_assembly
_atom_site_disorder_group
C1 C 0.320(3) 0.9485(5) 0.0853(5) 0.046(3) Uani 1 1 d . . .
C2 C 0.242(3) 0.8612(5) 0.0772(5) 0.040(3) Uani 1 1 d . . .
C3 C 0.444(3) 1.0970(6) 0.0797(6) 0.059(4) Uani 1 1 d . . .
H3 H 0.3892 1.1246 0.0556 0.070 Uiso 1 1 calc R . .
C4 C 0.354(3) 1.0450(5) 0.0669(5) 0.056(4) Uani 1 1 d . . .
H4 H 0.2391 1.0384 0.0351 0.067 Uiso 1 1 calc R . .
C5 C 0.433(3) 1.0028(5) 0.1005(5) 0.042(3) Uani 1 1 d . . .
C6 C 0.607(3) 1.0155(5) 0.1462(5) 0.060(4) Uani 1 1 d . . .
H6 H 0.6721 0.9882 0.1699 0.072 Uiso 1 1 calc R . .
C7 C 0.683(3) 1.0680(5) 0.1566(6) 0.060(4) Uani 1 1 d . . .
H7 H 0.7982 1.0749 0.1882 0.072 Uiso 1 1 calc R . .
C8 C 0.058(4) 0.7163(6) 0.0490(7) 0.076(5) Uani 1 1 d . . .
H8 H -0.0516 0.6972 0.0223 0.091 Uiso 1 1 calc R . .
C9 C 0.077(3) 0.7723(5) 0.0448(5) 0.058(4) Uani 1 1 d . . .
H9 H -0.0211 0.7902 0.0159 0.070 Uiso 1 1 calc R . .
C10 C 0.242(3) 0.8016(5) 0.0839(5) 0.043(3) Uani 1 1 d . . .
C11 C 0.370(3) 0.7725(5) 0.1268(5) 0.056(4) Uani 1 1 d . . .
H11 H 0.4822 0.7900 0.1543 0.067 Uiso 1 1 calc R . .
C12 C 0.329(4) 0.7182(5) 0.1280(6) 0.069(4) Uani 1 1 d . . .
H12 H 0.4039 0.6998 0.1586 0.082 Uiso 1 1 calc R . .
C13 C 0.093(4) 0.9393(7) 0.2671(7) 0.076(5) Uiso 1 1 d . . .
H13 H 0.0708 0.9752 0.2781 0.091 Uiso 1 1 calc R . .
C14 C 0.053(5) 0.9155(9) 0.3625(8) 0.127(8) Uiso 1 1 d . . .
H14A H 0.0637 0.9541 0.3673 0.190 Uiso 1 1 calc R . .
H14B H 0.2144 0.8985 0.3838 0.190 Uiso 1 1 calc R . .
H14C H -0.1438 0.9025 0.3739 0.190 Uiso 1 1 calc R . .
C15 C 0.106(7) 0.8462(13) 0.2878(12) 0.216(14) Uiso 1 1 d . . .
H15A H 0.2166 0.8437 0.2546 0.324 Uiso 1 1 calc R . .
H15B H -0.1005 0.8327 0.2821 0.324 Uiso 1 1 calc R . .
H15C H 0.2090 0.8250 0.3154 0.324 Uiso 1 1 calc R . .
Hg1 Hg 0.69733(13) 1.20012(2) 0.15358(2) 0.05596(18) Uani 1 1 d . . .
Hg2 Hg 0.14274(13) 0.59181(2) 0.08957(2) 0.05702(19) Uani 1 1 d . . .
I1 I 1.1203(2) 1.18958(4) 0.23270(4) 0.0573(3) Uani 1 1 d . . .
I2 I 0.4379(2) 1.26529(4) 0.08185(4) 0.0670(3) Uani 1 1 d . . .
I3 I -0.27489(19) 0.57610(4) 0.01109(4) 0.0577(3) Uani 1 1 d . . .
I4 I 0.4466(2) 0.56554(4) 0.17927(4) 0.0670(3) Uani 1 1 d . . .
N1 N 0.074(3) 0.8868(4) 0.0407(4) 0.061(3) Uani 1 1 d . . .
N2 N 0.122(3) 0.9407(4) 0.0442(5) 0.059(3) Uani 1 1 d . . .
N3 N 0.400(2) 0.8982(4) 0.1071(4) 0.040(2) Uani 1 1 d . . .
N4 N 0.608(3) 1.1104(4) 0.1257(5) 0.052(3) Uani 1 1 d . . .
N5 N 0.193(2) 0.6891(4) 0.0897(4) 0.049(3) Uani 1 1 d . . .
N6 N 0.593(2) 0.8864(4) 0.1504(4) 0.053(3) Uani 1 1 d . . .
H6B H 0.5268 0.9031 0.1805 0.064 Uiso 1 1 d R . .
H6A H 0.7849 0.8981 0.1435 0.064 Uiso 1 1 d R . .
N7 N 0.093(3) 0.9024(6) 0.3050(6) 0.078(4) Uiso 1 1 d . . .
O1 O 0.119(2) 0.9312(4) 0.2187(4) 0.071(3) Uiso 1 1 d . . .

loop_
_atom_site_aniso_label
_atom_site_aniso_U_11
_atom_site_aniso_U_22
_atom_site_aniso_U_33
_atom_site_aniso_U_23
_atom_site_aniso_U_13
_atom_site_aniso_U_12
C1 0.065(9) 0.031(7) 0.043(8) -0.001(6) -0.001(7) 0.006(6)
C2 0.054(8) 0.038(7) 0.028(7) -0.016(6) -0.002(6) -0.004(6)
C3 0.073(10) 0.054(9) 0.048(9) 0.003(7) -0.011(8) -0.008(8)
C4 0.068(9) 0.053(9) 0.045(9) -0.012(7) -0.010(7) 0.006(7)
C5 0.059(8) 0.030(7) 0.037(8) 0.006(6) -0.010(6) -0.001(6)
C6 0.096(11) 0.042(9) 0.043(9) 0.016(7) -0.015(8) 0.003(8)
C7 0.093(11) 0.042(9) 0.044(9) 0.005(7) -0.022(8) 0.018(8)
C8 0.098(12) 0.051(10) 0.077(12) -0.004(8) -0.051(10) 0.001(9)
C9 0.094(11) 0.040(8) 0.040(8) -0.005(6) -0.038(8) -0.011(8)
C10 0.048(7) 0.046(8) 0.035(7) 0.002(6) 0.009(6) -0.001(6)
C11 0.074(10) 0.041(8) 0.052(9) -0.002(7) -0.028(8) 0.001(7)
C12 0.099(12) 0.035(8) 0.070(11) -0.005(7) -0.026(9) 0.000(8)
Hg1 0.0615(4) 0.0455(3) 0.0599(4) -0.0014(3) -0.0184(3) 0.0021(3)
Hg2 0.0582(4) 0.0462(3) 0.0659(4) 0.0002(3) -0.0176(3) -0.0009(3)
I1 0.0435(5) 0.0808(7) 0.0473(6) 0.0086(5) -0.0069(4) -0.0031(5)
I2 0.0653(6) 0.0736(7) 0.0615(7) 0.0133(5) -0.0136(5) 0.0101(5)
I3 0.0423(5) 0.0749(7) 0.0557(6) -0.0137(5) -0.0032(4) -0.0063(5)
I4 0.0584(6) 0.0825(8) 0.0595(7) 0.0088(5) -0.0104(5) 0.0047(5)
N1 0.099(9) 0.042(7) 0.041(7) 0.007(5) -0.043(7) -0.004(6)
N2 0.097(9) 0.027(6) 0.050(8) 0.005(5) -0.023(7) -0.003(6)
N3 0.050(6) 0.031(6) 0.038(6) 0.006(5) -0.018(5) 0.000(5)
N4 0.068(7) 0.033(6) 0.055(8) -0.011(5) -0.015(6) 0.000(5)
N5 0.060(7) 0.037(6) 0.049(7) 0.005(5) -0.017(6) 0.002(5)
N6 0.066(7) 0.036(6) 0.057(8) 0.000(5) -0.023(6) 0.004(5)

_geom_special_details            
; 
 All esds (except the esd in the dihedral angle between two l.s. planes) 
 are estimated using the full covariance matrix.  The cell esds are taken 
 into account individually in the estimation of esds in distances, angles 
 and torsion angles; correlations between esds in cell parameters are only 
 used when they are defined by crystal symmetry.  An approximate (isotropic) 
 treatment of cell esds is used for estimating esds involving l.s. planes. 
;

loop_
_geom_bond_atom_site_label_1
_geom_bond_atom_site_label_2
_geom_bond_distance
_geom_bond_site_symmetry_2
_geom_bond_publ_flag
C1 N2 1.322(15) . ?
C1 N3 1.393(14) . ?
C1 C5 1.473(16) . ?
C2 N1 1.306(15) . ?
C2 N3 1.349(14) . ?
C2 C10 1.478(16) . ?
C3 N4 1.364(16) . ?
C3 C4 1.376(18) . ?
C3 H3 0.9300 . ?
C4 C5 1.367(16) . ?
C4 H4 0.9300 . ?
C5 C6 1.374(16) . ?
C6 C7 1.360(18) . ?
C6 H6 0.9300 . ?
C7 N4 1.327(15) . ?
C7 H7 0.9300 . ?
C8 N5 1.330(16) . ?
C8 C9 1.386(18) . ?
C8 H8 0.9300 . ?
C9 C10 1.388(16) . ?
C9 H9 0.9300 . ?
C10 C11 1.382(16) . ?
C11 C12 1.352(17) . ?
C11 H11 0.9300 . ?
C12 N5 1.313(16) . ?
C12 H12 0.9300 . ?
C13 O1 1.217(17) . ?
C13 N7 1.304(18) . ?
C13 H13 0.9300 . ?
C14 N7 1.46(2) . ?
C14 H14A 0.9600 . ?
C14 H14B 0.9600 . ?
C14 H14C 0.9600 . ?
C15 N7 1.45(3) . ?
C15 H15A 0.9600 . ?
C15 H15B 0.9600 . ?
C15 H15C 0.9600 . ?
Hg1 N4 2.345(10) . ?
Hg1 I2 2.6206(15) . ?
Hg1 I1 2.6552(16) . ?
Hg1 I1 3.2109(19) 1_455 ?
Hg2 N5 2.409(10) . ?
Hg2 I4 2.6246(17) . ?
Hg2 I3 2.6440(16) . ?
Hg2 I3 3.2324(19) 1_655 ?
I1 Hg1 3.2109(19) 1_655 ?
I3 Hg2 3.2324(19) 1_455 ?
N1 N2 1.346(14) . ?
N3 N6 1.368(12) . ?
N6 H6B 0.9001 . ?
N6 H6A 0.9001 . ?

loop_
_geom_angle_atom_site_label_1
_geom_angle_atom_site_label_2
_geom_angle_atom_site_label_3
_geom_angle
_geom_angle_site_symmetry_1
_geom_angle_site_symmetry_3
_geom_angle_publ_flag
N2 C1 N3 108.5(10) . . ?
N2 C1 C5 122.2(11) . . ?
N3 C1 C5 129.3(12) . . ?
N1 C2 N3 108.4(10) . . ?
N1 C2 C10 123.8(11) . . ?
N3 C2 C10 127.8(11) . . ?
N4 C3 C4 123.8(13) . . ?
N4 C3 H3 118.1 . . ?
C4 C3 H3 118.1 . . ?
C5 C4 C3 120.2(13) . . ?
C5 C4 H4 119.9 . . ?
C3 C4 H4 119.9 . . ?
C4 C5 C6 116.7(12) . . ?
C4 C5 C1 117.4(12) . . ?
C6 C5 C1 126.0(11) . . ?
C7 C6 C5 119.7(12) . . ?
C7 C6 H6 120.2 . . ?
C5 C6 H6 120.2 . . ?
N4 C7 C6 126.0(13) . . ?
N4 C7 H7 117.0 . . ?
C6 C7 H7 117.0 . . ?
N5 C8 C9 122.2(13) . . ?
N5 C8 H8 118.9 . . ?
C9 C8 H8 118.9 . . ?
C8 C9 C10 119.8(12) . . ?
C8 C9 H9 120.1 . . ?
C10 C9 H9 120.1 . . ?
C11 C10 C9 116.8(12) . . ?
C11 C10 C2 126.8(11) . . ?
C9 C10 C2 116.2(11) . . ?
C12 C11 C10 118.7(12) . . ?
C12 C11 H11 120.7 . . ?
C10 C11 H11 120.7 . . ?
N5 C12 C11 125.6(14) . . ?
N5 C12 H12 117.2 . . ?
C11 C12 H12 117.2 . . ?
O1 C13 N7 126.0(17) . . ?
O1 C13 H13 117.0 . . ?
N7 C13 H13 117.0 . . ?
N7 C14 H14A 109.5 . . ?
N7 C14 H14B 109.5 . . ?
H14A C14 H14B 109.5 . . ?
N7 C14 H14C 109.5 . . ?
H14A C14 H14C 109.5 . . ?
H14B C14 H14C 109.5 . . ?
N7 C15 H15A 109.5 . . ?
N7 C15 H15B 109.5 . . ?
H15A C15 H15B 109.5 . . ?
N7 C15 H15C 109.5 . . ?
H15A C15 H15C 109.5 . . ?
H15B C15 H15C 109.5 . . ?
N4 Hg1 I2 108.5(3) . . ?
N4 Hg1 I1 103.2(3) . . ?
I2 Hg1 I1 146.28(4) . . ?
N4 Hg1 I1 88.6(3) . 1_455 ?
I2 Hg1 I1 97.46(5) . 1_455 ?
I1 Hg1 I1 94.66(6) . 1_455 ?
N5 Hg2 I4 101.6(3) . . ?
N5 Hg2 I3 101.9(3) . . ?
I4 Hg2 I3 154.08(4) . . ?
N5 Hg2 I3 92.8(3) . 1_655 ?
I4 Hg2 I3 95.12(6) . 1_655 ?
I3 Hg2 I3 94.39(6) . 1_655 ?
Hg1 I1 Hg1 94.66(6) . 1_655 ?
Hg2 I3 Hg2 94.39(6) . 1_455 ?
C2 N1 N2 110.5(10) . . ?
C1 N2 N1 106.8(10) . . ?
C2 N3 N6 125.0(10) . . ?
C2 N3 C1 105.8(10) . . ?
N6 N3 C1 129.3(10) . . ?
C7 N4 C3 113.5(11) . . ?
C7 N4 Hg1 122.6(9) . . ?
C3 N4 Hg1 123.4(9) . . ?
C12 N5 C8 116.6(12) . . ?
C12 N5 Hg2 125.7(9) . . ?
C8 N5 Hg2 117.6(9) . . ?
N3 N6 H6B 110.1 . . ?
N3 N6 H6A 109.6 . . ?
H6B N6 H6A 108.5 . . ?
C13 N7 C15 117.3(18) . . ?
C13 N7 C14 122.6(16) . . ?
C15 N7 C14 119.9(18) . . ?

_diffrn_measured_fraction_theta_max 0.998
_diffrn_reflns_theta_full        26.00
_diffrn_measured_fraction_theta_full 0.998
_refine_diff_density_max         1.038
_refine_diff_density_min         -1.209
_refine_diff_density_rms         0.220
