####################################################################### 
# 
# This file contains crystal structure data downloaded from the 
# Cambridge Structural Database (CSD) hosted by the Cambridge 
# Crystallographic Data Centre (CCDC).
# 
# Full information about CCDC data access policies and citation 
# guidelines are available at http://www.ccdc.cam.ac.uk/access/V1 
# 
# Audit and citation data items may have been added by the CCDC. 
# Please retain this information to preserve the provenance of 
# this file and to allow appropriate attribution of the data. 
# 
#######################################################################

data_b645a
_audit_block_doi                 10.5517/cc126q66
_database_code_depnum_ccdc_archive 'CCDC 989557'
loop_
_citation_id
_citation_doi
_citation_year
1 10.1021/ic502552y 2015
_audit_update_record             
;
2014-03-03 deposited with the CCDC.	2024-07-08 downloaded from the CCDC.
;

_audit_creation_method           SHELXL-97
_chemical_name_systematic        
; 
 ? 
;
_chemical_name_common            ?
_chemical_melting_point          ?
_chemical_formula_moiety         ?
_chemical_formula_sum            'C43 H45 Cl2 Cu2 N6 O13.50'
_chemical_formula_weight         1059.83

loop_
_atom_type_symbol
_atom_type_description
_atom_type_scat_dispersion_real
_atom_type_scat_dispersion_imag
_atom_type_scat_source
C C 0.0033 0.0016 'International Tables Vol C Tables 4.2.6.8 and 6.1.1.4'
H H 0.0000 0.0000 'International Tables Vol C Tables 4.2.6.8 and 6.1.1.4'
N N 0.0061 0.0033 'International Tables Vol C Tables 4.2.6.8 and 6.1.1.4'
O O 0.0106 0.0060 'International Tables Vol C Tables 4.2.6.8 and 6.1.1.4'
Cl Cl 0.1484 0.1585 'International Tables Vol C Tables 4.2.6.8 and 6.1.1.4'
Cu Cu 0.3201 1.2651 'International Tables Vol C Tables 4.2.6.8 and 6.1.1.4'

_symmetry_cell_setting           Monoclinic
_symmetry_space_group_name_H-M   C2/c

loop_
_symmetry_equiv_pos_as_xyz
'x, y, z'
'-x, y, -z+1/2'
'x+1/2, y+1/2, z'
'-x+1/2, y+1/2, -z+1/2'
'-x, -y, -z'
'x, -y, z-1/2'
'-x+1/2, -y+1/2, -z'
'x+1/2, -y+1/2, z-1/2'

_cell_length_a                   20.797(6)
_cell_length_b                   31.115(10)
_cell_length_c                   15.688(5)
_cell_angle_alpha                90.00
_cell_angle_beta                 107.596(6)
_cell_angle_gamma                90.00
_cell_volume                     9677(5)
_cell_formula_units_Z            8
_cell_measurement_temperature    100(2)
_cell_measurement_reflns_used    966
_cell_measurement_theta_min      3.08
_cell_measurement_theta_max      27.17

_exptl_crystal_description       Block
_exptl_crystal_colour            Blue
_exptl_crystal_size_max          0.40
_exptl_crystal_size_mid          0.30
_exptl_crystal_size_min          0.30
_exptl_crystal_density_meas      'Not Measured'
_exptl_crystal_density_diffrn    1.455
_exptl_crystal_density_method    'not measured'
_exptl_crystal_F_000             4360
_exptl_absorpt_coefficient_mu    1.058
_exptl_absorpt_correction_type   Multi-scan
_exptl_absorpt_correction_T_min  0.6770
_exptl_absorpt_correction_T_max  0.7420
_exptl_absorpt_process_details   'Sadabs, (Sheldrick 2008)'

_exptl_special_details           
; 
 ? 
;

_diffrn_ambient_temperature      100(2)
_diffrn_radiation_wavelength     0.71073
_diffrn_radiation_type           MoK\a
_diffrn_radiation_source         'fine-focus sealed tube'
_diffrn_radiation_monochromator  graphite
_diffrn_measurement_device_type  'CCD area detector'
_diffrn_measurement_method       'phi and omega scans'
_diffrn_detector_area_resol_mean ?
_diffrn_standards_number         ?
_diffrn_standards_interval_count ?
_diffrn_standards_interval_time  ?
_diffrn_standards_decay_%        ?
_diffrn_reflns_number            27737
_diffrn_reflns_av_R_equivalents  0.0498
_diffrn_reflns_av_sigmaI/netI    0.0634
_diffrn_reflns_limit_h_min       -24
_diffrn_reflns_limit_h_max       24
_diffrn_reflns_limit_k_min       -37
_diffrn_reflns_limit_k_max       28
_diffrn_reflns_limit_l_min       -17
_diffrn_reflns_limit_l_max       18
_diffrn_reflns_theta_min         1.22
_diffrn_reflns_theta_max         25.00
_reflns_number_total             8535
_reflns_number_gt                7052
_reflns_threshold_expression     >2sigma(I)

_computing_data_collection       'Bruker SMART'
_computing_cell_refinement       'Bruker SMART'
_computing_data_reduction        'Bruker SAINT'
_computing_structure_solution    'SHELXS-97 (Sheldrick, 1990)'
_computing_structure_refinement  'SHELXL-97 (Sheldrick, 1997)'
_computing_molecular_graphics    'Bruker SHELXTL'
_computing_publication_material  'Bruker SHELXTL'

_refine_special_details          
; 
 Refinement of F^2^ against ALL reflections.  The weighted R-factor wR and 
 goodness of fit S are based on F^2^, conventional R-factors R are based 
 on F, with F set to zero for negative F^2^. The threshold expression of 
 F^2^ > 2sigma(F^2^) is used only for calculating R-factors(gt) etc. and is 
 not relevant to the choice of reflections for refinement.  R-factors based 
 on F^2^ are statistically about twice as large as those based on F, and R- 
 factors based on ALL data will be even larger. 
;

_refine_ls_structure_factor_coef Fsqd
_refine_ls_matrix_type           full
_refine_ls_weighting_scheme      calc
_refine_ls_weighting_details     
'calc w=1/[\s^2^(Fo^2^)+(0.1092P)^2^+52.4287P] where P=(Fo^2^+2Fc^2^)/3'
_atom_sites_solution_primary     direct
_atom_sites_solution_secondary   difmap
_atom_sites_solution_hydrogens   geom
_refine_ls_hydrogen_treatment    constr
_refine_ls_extinction_method     none
_refine_ls_extinction_coef       ?
_refine_ls_number_reflns         8535
_refine_ls_number_parameters     648
_refine_ls_number_restraints     87
_refine_ls_R_factor_all          0.0827
_refine_ls_R_factor_gt           0.0704
_refine_ls_wR_factor_ref         0.2056
_refine_ls_wR_factor_gt          0.1943
_refine_ls_goodness_of_fit_ref   1.098
_refine_ls_restrained_S_all      1.094
_refine_ls_shift/su_max          0.008
_refine_ls_shift/su_mean         0.000

loop_
_atom_site_label
_atom_site_type_symbol
_atom_site_fract_x
_atom_site_fract_y
_atom_site_fract_z
_atom_site_U_iso_or_equiv
_atom_site_adp_type
_atom_site_occupancy
_atom_site_symmetry_multiplicity
_atom_site_calc_flag
_atom_site_refinement_flags
_atom_site_disorder_assembly
_atom_site_disorder_group
Cu1 Cu 0.78741(2) 0.118958(13) 0.19005(3) 0.02490(12) Uani 1 1 d . . .
Cu2 Cu 0.26973(2) 0.145212(13) 0.15339(3) 0.02513(12) Uani 1 1 d . . .
O1 O 0.75784(13) -0.06398(8) -0.27450(17) 0.0301(7) Uani 1 1 d . . .
O2 O 0.75112(14) -0.08403(8) -0.14016(17) 0.0317(7) Uani 1 1 d . . .
O3 O 0.69480(13) 0.13373(8) 0.12278(18) 0.0306(7) Uani 1 1 d . . .
O4 O 0.65314(13) 0.13926(8) 0.23808(17) 0.0308(7) Uani 1 1 d . . .
N1 N 0.80244(16) 0.09829(9) 0.0642(2) 0.0271(8) Uani 1 1 d . . .
N2 N 0.33792(16) 0.13655(10) 0.0685(2) 0.0283(8) Uani 1 1 d . . .
N3 N 0.82091(16) 0.17958(9) 0.2044(2) 0.0268(8) Uani 1 1 d . . .
N4 N 0.88203(16) 0.10819(10) 0.2678(2) 0.0281(8) Uani 1 1 d . . .
N5 N 0.27666(15) 0.20926(9) 0.1589(2) 0.0239(7) Uani 1 1 d . . .
N6 N 0.17976(15) 0.16019(10) 0.0651(2) 0.0256(8) Uani 1 1 d . . .
C1 C 0.8205(2) 0.12815(12) 0.0122(3) 0.0296(10) Uani 1 1 d . . .
H1 H 0.8293 0.1568 0.0338 0.036 Uiso 1 1 calc R . .
C2 C 0.8263(2) 0.11830(12) -0.0699(3) 0.0356(11) Uani 1 1 d . . .
H2 H 0.8397 0.1398 -0.1042 0.043 Uiso 1 1 calc R . .
C3 C 0.8127(2) 0.07704(12) -0.1031(3) 0.0350(10) Uani 1 1 d . . .
H3 H 0.8170 0.0698 -0.1600 0.042 Uiso 1 1 calc R . .
C4 C 0.7925(2) 0.04619(12) -0.0523(3) 0.0317(10) Uani 1 1 d . . .
C5 C 0.78951(19) 0.05832(11) 0.0324(3) 0.0278(9) Uani 1 1 d . . .
H5 H 0.7778 0.0372 0.0688 0.033 Uiso 1 1 calc R . .
C6 C 0.7757(2) 0.00199(12) -0.0841(3) 0.0317(10) Uani 1 1 d . . .
H6 H 0.7725 -0.0189 -0.0414 0.038 Uiso 1 1 calc R . .
C7 C 0.7647(2) -0.01104(12) -0.1678(3) 0.0316(10) Uani 1 1 d . . .
H7 H 0.7621 0.0102 -0.2122 0.038 Uiso 1 1 calc R . .
C8 C 0.75646(19) -0.05625(12) -0.1964(3) 0.0283(10) Uani 1 1 d . . .
C9 C 0.4040(2) 0.14282(12) 0.1049(3) 0.0332(10) Uani 1 1 d . . .
H9 H 0.4184 0.1555 0.1627 0.040 Uiso 1 1 calc R . .
C10 C 0.4533(2) 0.13251(12) 0.0659(3) 0.0313(10) Uani 1 1 d . . .
C11 C 0.4302(2) 0.11429(17) -0.0195(3) 0.0492(13) Uani 1 1 d . . .
H11 H 0.4612 0.1066 -0.0507 0.059 Uiso 1 1 calc R . .
C12 C 0.3624(2) 0.10762(18) -0.0576(3) 0.0519(14) Uani 1 1 d . . .
H12 H 0.3463 0.0956 -0.1159 0.062 Uiso 1 1 calc R . .
C13 C 0.3180(2) 0.11804(12) -0.0128(3) 0.0329(10) Uani 1 1 d . . .
H13 H 0.2714 0.1121 -0.0397 0.040 Uiso 1 1 calc R . .
C14 C 0.5243(2) 0.13734(13) 0.1178(3) 0.0333(10) Uani 1 1 d . . .
H14 H 0.5324 0.1457 0.1784 0.040 Uiso 1 1 calc R . .
C15 C 0.5782(2) 0.13174(12) 0.0927(3) 0.0308(10) Uani 1 1 d . . .
H15 H 0.5728 0.1252 0.0318 0.037 Uiso 1 1 calc R . .
C16 C 0.64766(19) 0.13520(11) 0.1559(3) 0.0266(9) Uani 1 1 d . . .
C17 C 0.7852(2) 0.21460(12) 0.1663(3) 0.0327(10) Uani 1 1 d . . .
H17 H 0.7403 0.2109 0.1282 0.039 Uiso 1 1 calc R . .
C18 C 0.8119(2) 0.25553(14) 0.1810(3) 0.0439(12) Uani 1 1 d . . .
C19 C 0.8768(3) 0.26016(14) 0.2376(4) 0.0499(13) Uani 1 1 d . . .
H19 H 0.8961 0.2880 0.2499 0.060 Uiso 1 1 calc R . .
C20 C 0.9140(2) 0.22463(14) 0.2764(3) 0.0423(12) Uani 1 1 d . . .
H20 H 0.9588 0.2277 0.3150 0.051 Uiso 1 1 calc R . .
C21 C 0.8847(2) 0.18440(13) 0.2578(3) 0.0308(10) Uani 1 1 d . . .
C22 C 0.91919(19) 0.14380(13) 0.2942(3) 0.0301(9) Uani 1 1 d . . .
C23 C 0.9845(2) 0.14053(16) 0.3506(3) 0.0394(11) Uani 1 1 d . . .
H23 H 1.0103 0.1658 0.3708 0.047 Uiso 1 1 calc R . .
C24 C 1.0119(2) 0.10119(18) 0.3773(3) 0.0451(13) Uani 1 1 d . . .
H24 H 1.0569 0.0992 0.4157 0.054 Uiso 1 1 calc R . .
C25 C 0.9749(2) 0.06418(16) 0.3492(3) 0.0418(12) Uani 1 1 d . . .
C26 C 0.9090(2) 0.06928(14) 0.2934(3) 0.0358(11) Uani 1 1 d . . .
H26 H 0.8822 0.0444 0.2728 0.043 Uiso 1 1 calc R . .
C27 C 0.7695(3) 0.29353(15) 0.1363(4) 0.0652(18) Uani 1 1 d . . .
H27A H 0.7693 0.3153 0.1814 0.098 Uiso 1 1 calc R . .
H27B H 0.7232 0.2840 0.1067 0.098 Uiso 1 1 calc R . .
H27C H 0.7886 0.3059 0.0918 0.098 Uiso 1 1 calc R . .
C28 C 1.0034(3) 0.01951(18) 0.3764(3) 0.0597(16) Uani 1 1 d . . .
H28A H 1.0301 0.0105 0.3377 0.090 Uiso 1 1 calc R . .
H28B H 0.9662 -0.0008 0.3703 0.090 Uiso 1 1 calc R . .
H28C H 1.0321 0.0200 0.4387 0.090 Uiso 1 1 calc R . .
C29 C 0.33163(19) 0.23208(12) 0.2049(2) 0.0287(9) Uani 1 1 d . . .
H29 H 0.3694 0.2169 0.2422 0.034 Uiso 1 1 calc R . .
C30 C 0.3354(2) 0.27646(12) 0.2003(3) 0.0298(10) Uani 1 1 d . . .
C31 C 0.2792(2) 0.29791(13) 0.1456(3) 0.0339(10) Uani 1 1 d . . .
H31 H 0.2796 0.3283 0.1406 0.041 Uiso 1 1 calc R . .
C32 C 0.2224(2) 0.27483(13) 0.0985(3) 0.0348(11) Uani 1 1 d . . .
H32 H 0.1838 0.2894 0.0618 0.042 Uiso 1 1 calc R . .
C33 C 0.22251(18) 0.23047(12) 0.1055(2) 0.0255(9) Uani 1 1 d . . .
C34 C 0.16737(18) 0.20233(12) 0.0560(2) 0.0247(9) Uani 1 1 d . . .
C35 C 0.1048(2) 0.21790(13) 0.0033(3) 0.0330(10) Uani 1 1 d . . .
H35 H 0.0957 0.2479 -0.0014 0.040 Uiso 1 1 calc R . .
C36 C 0.0565(2) 0.18822(14) -0.0419(3) 0.0366(11) Uani 1 1 d . . .
H36 H 0.0136 0.1981 -0.0775 0.044 Uiso 1 1 calc R . .
C37 C 0.0699(2) 0.14483(14) -0.0357(3) 0.0328(10) Uani 1 1 d . . .
C38 C 0.13265(19) 0.13203(13) 0.0200(2) 0.0287(9) Uani 1 1 d . . .
H38 H 0.1426 0.1022 0.0265 0.034 Uiso 1 1 calc R . .
C39 C 0.3985(2) 0.30016(13) 0.2512(3) 0.0373(11) Uani 1 1 d . . .
H39A H 0.4004 0.3278 0.2222 0.056 Uiso 1 1 calc R . .
H39B H 0.4382 0.2830 0.2518 0.056 Uiso 1 1 calc R . .
H39C H 0.3982 0.3051 0.3127 0.056 Uiso 1 1 calc R . .
C40 C 0.0184(2) 0.11207(17) -0.0856(3) 0.0450(12) Uani 1 1 d . . .
H40A H -0.0268 0.1214 -0.0865 0.067 Uiso 1 1 calc R . .
H40B H 0.0285 0.0842 -0.0555 0.067 Uiso 1 1 calc R . .
H40C H 0.0203 0.1094 -0.1471 0.067 Uiso 1 1 calc R . .
Cl1 Cl 0.15922(5) 0.05732(3) 0.83614(7) 0.0376(3) Uani 1 1 d . . .
O5 O 0.1552(2) 0.10200(11) 0.8276(3) 0.0609(11) Uani 1 1 d . . .
O6 O 0.22850(18) 0.04301(13) 0.8543(3) 0.0630(11) Uani 1 1 d . . .
O7 O 0.11884(17) 0.03601(11) 0.7570(2) 0.0503(9) Uani 1 1 d . . .
O8 O 0.13630(18) 0.04460(11) 0.9105(2) 0.0511(9) Uani 1 1 d . . .
Cl2 Cl 0.57992(7) 0.24272(4) -0.00039(8) 0.0519(3) Uani 1 1 d . . .
O9 O 0.5850(2) 0.28631(13) -0.0232(4) 0.117(2) Uani 1 1 d . . .
O10 O 0.6347(2) 0.21753(16) -0.0058(5) 0.112(2) Uani 1 1 d . . .
O11 O 0.5209(2) 0.22489(18) -0.0592(4) 0.1044(19) Uani 1 1 d . . .
O12 O 0.5754(5) 0.23924(15) 0.0845(3) 0.174(3) Uani 1 1 d . . .
O1S O 0.5556(5) 0.0830(4) 0.8786(7) 0.0960(4) Uani 0.50 1 d PDU A 1
H1S H 0.5436 0.0599 0.8970 0.144 Uiso 0.50 1 calc PR A 1
C1S C 0.6239(6) 0.0793(6) 0.8783(8) 0.0960(3) Uani 0.50 1 d PDU A 1
H1S1 H 0.6392 0.0492 0.8910 0.115 Uiso 0.50 1 calc PR A 1
H1S2 H 0.6530 0.0978 0.9258 0.115 Uiso 0.50 1 calc PR A 1
C2S C 0.6300(8) 0.0927(6) 0.7891(8) 0.0958(4) Uani 0.50 1 d PDU A 1
H2S1 H 0.6305 0.0671 0.7529 0.144 Uiso 0.50 1 calc PR A 1
H2S2 H 0.6720 0.1088 0.7979 0.144 Uiso 0.50 1 calc PR A 1
H2S3 H 0.5916 0.1109 0.7582 0.144 Uiso 0.50 1 calc PR A 1
O1X O 0.4981(5) 0.1639(4) 0.8322(7) 0.0962(6) Uani 0.50 1 d PDU B 2
H1SA H 0.4703 0.1614 0.7810 0.144 Uiso 0.50 1 calc PR B 2
C1X C 0.5586(6) 0.1461(5) 0.8329(10) 0.0961(5) Uani 0.50 1 d PDU B 2
H1X1 H 0.5859 0.1726 0.8391 0.115 Uiso 0.50 1 calc PR B 2
H1X2 H 0.5478 0.1386 0.7688 0.115 Uiso 0.50 1 calc PR B 2
C2X C 0.6159(7) 0.1132(5) 0.8724(10) 0.0961(3) Uani 0.50 1 d PDU B 2
H2X1 H 0.6018 0.0930 0.9112 0.144 Uiso 0.50 1 calc PR B 2
H2X2 H 0.6566 0.1284 0.9074 0.144 Uiso 0.50 1 calc PR B 2
H2X3 H 0.6256 0.0974 0.8237 0.144 Uiso 0.50 1 calc PR B 2
O2S O 0.5547(7) 0.0277(5) -0.0091(9) 0.1412(6) Uani 0.50 1 d PDU . .
H2S H 0.5234 0.0321 0.0133 0.212 Uiso 0.50 1 calc PR . .
C3S C 0.6143(8) 0.0150(7) 0.0596(10) 0.1408(5) Uani 0.50 1 d PDU . .
H3S1 H 0.6496 0.0373 0.0671 0.169 Uiso 0.50 1 calc PR . .
H3S2 H 0.6317 -0.0123 0.0428 0.169 Uiso 0.50 1 calc PR . .
C4S C 0.5972(10) 0.0092(7) 0.1475(12) 0.1408(6) Uani 0.50 1 d PDU . .
H4S1 H 0.6373 -0.0008 0.1942 0.211 Uiso 0.50 1 calc PR . .
H4S2 H 0.5610 -0.0120 0.1390 0.211 Uiso 0.50 1 calc PR . .
H4S3 H 0.5824 0.0368 0.1654 0.211 Uiso 0.50 1 calc PR . .

loop_
_atom_site_aniso_label
_atom_site_aniso_U_11
_atom_site_aniso_U_22
_atom_site_aniso_U_33
_atom_site_aniso_U_23
_atom_site_aniso_U_13
_atom_site_aniso_U_12
Cu1 0.0220(2) 0.0184(2) 0.0239(2) 0.00179(16) -0.00863(18) -0.00070(17)
Cu2 0.0226(2) 0.0162(2) 0.0246(2) 0.00112(16) -0.01089(18) -0.00056(16)
O1 0.0325(14) 0.0214(12) 0.0275(14) -0.0019(10) -0.0045(11) 0.0039(11)
O2 0.0401(15) 0.0180(12) 0.0266(13) 0.0004(10) -0.0057(12) -0.0035(11)
O3 0.0221(13) 0.0281(13) 0.0310(14) 0.0090(11) -0.0080(11) -0.0022(11)
O4 0.0290(14) 0.0231(13) 0.0277(14) -0.0042(10) -0.0102(11) -0.0028(11)
N1 0.0289(16) 0.0165(14) 0.0248(15) 0.0014(12) -0.0086(13) 0.0025(12)
N2 0.0251(15) 0.0208(15) 0.0287(16) 0.0009(13) -0.0075(13) 0.0001(13)
N3 0.0297(16) 0.0205(15) 0.0243(15) -0.0065(12) -0.0006(13) -0.0035(13)
N4 0.0256(15) 0.0301(16) 0.0224(15) -0.0027(13) -0.0023(13) 0.0036(13)
N5 0.0219(15) 0.0183(14) 0.0231(15) 0.0005(11) -0.0059(12) -0.0006(12)
N6 0.0219(15) 0.0261(15) 0.0208(15) 0.0018(12) -0.0054(12) -0.0005(13)
C1 0.032(2) 0.0175(17) 0.032(2) -0.0003(15) -0.0008(16) 0.0017(15)
C2 0.052(2) 0.0190(18) 0.034(2) 0.0038(15) 0.0106(19) -0.0011(17)
C3 0.046(2) 0.0211(18) 0.034(2) -0.0010(16) 0.0069(18) -0.0004(17)
C4 0.035(2) 0.0198(18) 0.032(2) 0.0014(15) -0.0017(17) 0.0018(16)
C5 0.0285(19) 0.0178(17) 0.0269(19) 0.0008(14) -0.0067(16) -0.0022(15)
C6 0.041(2) 0.0185(17) 0.0261(19) -0.0008(15) -0.0042(17) 0.0008(16)
C7 0.038(2) 0.0197(18) 0.0280(19) 0.0024(15) -0.0044(17) 0.0029(16)
C8 0.0250(18) 0.0216(18) 0.0265(19) 0.0000(15) -0.0097(15) 0.0003(15)
C9 0.029(2) 0.0278(19) 0.031(2) -0.0076(16) -0.0098(17) 0.0020(16)
C10 0.032(2) 0.0256(18) 0.0273(19) -0.0022(15) -0.0042(16) -0.0012(16)
C11 0.029(2) 0.076(3) 0.034(2) -0.017(2) -0.0031(19) -0.008(2)
C12 0.035(2) 0.080(3) 0.029(2) -0.016(2) -0.0082(19) -0.009(2)
C13 0.0262(19) 0.032(2) 0.030(2) 0.0014(16) -0.0083(17) -0.0058(16)
C14 0.032(2) 0.032(2) 0.0252(19) -0.0055(16) -0.0076(16) -0.0031(17)
C15 0.029(2) 0.0274(19) 0.0253(19) 0.0030(15) -0.0079(16) -0.0043(16)
C16 0.0270(19) 0.0112(15) 0.031(2) 0.0024(14) -0.0067(16) -0.0026(14)
C17 0.035(2) 0.0211(18) 0.036(2) -0.0003(16) 0.0020(17) -0.0009(16)
C18 0.053(3) 0.026(2) 0.053(3) -0.0016(19) 0.016(2) -0.0032(19)
C19 0.061(3) 0.024(2) 0.064(3) -0.0141(19) 0.020(2) -0.018(2)
C20 0.043(2) 0.040(2) 0.038(2) -0.0141(19) 0.0046(19) -0.0181(19)
C21 0.0301(19) 0.034(2) 0.0238(18) -0.0088(15) 0.0018(16) -0.0043(16)
C22 0.0261(19) 0.038(2) 0.0222(18) -0.0065(15) 0.0020(15) -0.0024(16)
C23 0.028(2) 0.061(3) 0.0219(19) -0.0077(18) -0.0031(16) -0.007(2)
C24 0.024(2) 0.078(3) 0.026(2) 0.001(2) -0.0036(17) 0.005(2)
C25 0.029(2) 0.063(3) 0.026(2) 0.0031(19) -0.0038(17) 0.013(2)
C26 0.031(2) 0.040(2) 0.029(2) 0.0003(17) -0.0033(17) 0.0081(18)
C27 0.079(4) 0.017(2) 0.098(4) 0.001(2) 0.025(3) 0.003(2)
C28 0.051(3) 0.072(3) 0.043(3) 0.012(2) -0.006(2) 0.030(3)
C29 0.0234(18) 0.0301(19) 0.0237(18) 0.0029(15) -0.0063(15) -0.0028(15)
C30 0.034(2) 0.0219(18) 0.0275(19) -0.0010(15) -0.0006(16) -0.0041(16)
C31 0.040(2) 0.0214(18) 0.030(2) 0.0058(15) -0.0050(18) -0.0022(16)
C32 0.033(2) 0.0274(19) 0.031(2) 0.0063(16) -0.0091(17) 0.0062(17)
C33 0.0257(18) 0.0246(18) 0.0189(17) 0.0055(14) -0.0041(14) 0.0012(15)
C34 0.0245(17) 0.0267(18) 0.0181(17) 0.0024(14) -0.0006(14) 0.0014(15)
C35 0.029(2) 0.034(2) 0.0247(19) 0.0029(16) -0.0095(16) 0.0027(17)
C36 0.0248(19) 0.052(2) 0.0228(19) 0.0020(18) -0.0088(16) 0.0022(18)
C37 0.0231(19) 0.048(2) 0.0203(18) -0.0043(17) -0.0035(15) -0.0028(17)
C38 0.0256(18) 0.0297(19) 0.0236(18) -0.0046(15) -0.0033(15) -0.0074(16)
C39 0.038(2) 0.026(2) 0.037(2) 0.0006(17) -0.0038(18) -0.0092(17)
C40 0.028(2) 0.065(3) 0.032(2) -0.011(2) -0.0049(18) -0.014(2)
Cl1 0.0401(5) 0.0355(5) 0.0294(5) -0.0109(4) -0.0015(4) -0.0050(4)
