####################################################################### 
# 
# This file contains crystal structure data downloaded from the 
# Cambridge Structural Database (CSD) hosted by the Cambridge 
# Crystallographic Data Centre (CCDC).
# 
# Full information about CCDC data access policies and citation 
# guidelines are available at http://www.ccdc.cam.ac.uk/access/V1 
# 
# Audit and citation data items may have been added by the CCDC. 
# Please retain this information to preserve the provenance of 
# this file and to allow appropriate attribution of the data. 
# 
#######################################################################

data_1
_audit_block_doi                 10.5517/cc11g2td
_database_code_depnum_ccdc_archive 'CCDC 966853'
loop_
_citation_id
_citation_doi
_citation_year
1 10.1007/s11243-015-9963-9 2015
_audit_update_record             
;
2013-11-01 deposited with the CCDC.	2024-07-08 downloaded from the CCDC.
;

_audit_creation_method           SHELXL-97
_chemical_name_systematic        
; 
 ? 
;
_chemical_name_common            ?
_chemical_melting_point          ?
_chemical_formula_moiety         ?
_chemical_formula_sum            'C38 H30 Cl6 Co N4 O10'
_chemical_formula_weight         974.29

loop_
_atom_type_symbol
_atom_type_description
_atom_type_scat_dispersion_real
_atom_type_scat_dispersion_imag
_atom_type_scat_source
C C 0.0033 0.0016 'International Tables Vol C Tables 4.2.6.8 and 6.1.1.4'
H H 0.0000 0.0000 'International Tables Vol C Tables 4.2.6.8 and 6.1.1.4'
N N 0.0061 0.0033 'International Tables Vol C Tables 4.2.6.8 and 6.1.1.4'
O O 0.0106 0.0060 'International Tables Vol C Tables 4.2.6.8 and 6.1.1.4'
Co Co 0.3494 0.9721 'International Tables Vol C Tables 4.2.6.8 and 6.1.1.4'
Cl Cl 0.1484 0.1585 'International Tables Vol C Tables 4.2.6.8 and 6.1.1.4'

_symmetry_cell_setting           monoclinic
_symmetry_space_group_name_H-M   C2/c

loop_
_symmetry_equiv_pos_as_xyz
'x, y, z'
'-x, y, -z+1/2'
'x+1/2, y+1/2, z'
'-x+1/2, y+1/2, -z+1/2'
'-x, -y, -z'
'x, -y, z-1/2'
'-x+1/2, -y+1/2, -z'
'x+1/2, -y+1/2, z-1/2'

_cell_length_a                   20.5759(7)
_cell_length_b                   11.5504(3)
_cell_length_c                   18.0704(6)
_cell_angle_alpha                90.00
_cell_angle_beta                 108.859(4)
_cell_angle_gamma                90.00
_cell_volume                     4064.1(2)
_cell_formula_units_Z            4
_cell_measurement_temperature    298(2)
_cell_measurement_reflns_used    3550
_cell_measurement_theta_min      2.8712
_cell_measurement_theta_max      30.0250

_exptl_crystal_description       block
_exptl_crystal_colour            red
_exptl_crystal_size_max          0.25
_exptl_crystal_size_mid          0.23
_exptl_crystal_size_min          0.15
_exptl_crystal_density_meas      ?
_exptl_crystal_density_diffrn    1.592
_exptl_crystal_density_method    'not measured'
_exptl_crystal_F_000             1980
_exptl_absorpt_coefficient_mu    0.880
_exptl_absorpt_correction_type   multi-scan
_exptl_absorpt_correction_T_min  0.99320
_exptl_absorpt_correction_T_max  1.00000
_exptl_absorpt_process_details   ?

_exptl_special_details           
; 
 ? 
;

_diffrn_ambient_temperature      298(2)
_diffrn_radiation_wavelength     0.71073
_diffrn_radiation_type           MoK\a
_diffrn_radiation_source         'fine-focus sealed tube'
_diffrn_radiation_monochromator  graphite
_diffrn_measurement_device_type  'Gemini S Ultra'
_diffrn_measurement_method       '\w and \p scan'
_diffrn_detector_area_resol_mean 16.0855
_diffrn_standards_number         ?
_diffrn_standards_interval_count ?
_diffrn_standards_interval_time  ?
_diffrn_standards_decay_%        none
_diffrn_reflns_number            8147
_diffrn_reflns_av_R_equivalents  0.0281
_diffrn_reflns_av_sigmaI/netI    0.0550
_diffrn_reflns_limit_h_min       -12
_diffrn_reflns_limit_h_max       25
_diffrn_reflns_limit_k_min       -14
_diffrn_reflns_limit_k_max       12
_diffrn_reflns_limit_l_min       -22
_diffrn_reflns_limit_l_max       22
_diffrn_reflns_theta_min         2.88
_diffrn_reflns_theta_max         26.00
_reflns_number_total             3993
_reflns_number_gt                2844
_reflns_threshold_expression     >2sigma(I)

_computing_data_collection       'Bruker FRAMBO'
_computing_cell_refinement       'Bruker FRAMBO'
_computing_data_reduction        'Bruker SHELXTL'
_computing_structure_solution    'SHELXS-97 (Sheldrick, 1990)'
_computing_structure_refinement  'SHELXL-97 (Sheldrick, 1997)'
_computing_molecular_graphics    'Bruker SHELXTL'
_computing_publication_material  'Bruker SHELXTL'

_refine_special_details          
; 
 Refinement of F^2^ against ALL reflections.  The weighted R-factor wR and 
 goodness of fit S are based on F^2^, conventional R-factors R are based 
 on F, with F set to zero for negative F^2^. The threshold expression of 
 F^2^ > 2sigma(F^2^) is used only for calculating R-factors(gt) etc. and is 
 not relevant to the choice of reflections for refinement.  R-factors based 
 on F^2^ are statistically about twice as large as those based on F, and R- 
 factors based on ALL data will be even larger. 
;

_refine_ls_structure_factor_coef Fsqd
_refine_ls_matrix_type           full
_refine_ls_weighting_scheme      calc
_refine_ls_weighting_details     
'calc w=1/[\s^2^(Fo^2^)+(0.0555P)^2^+0.0000P] where P=(Fo^2^+2Fc^2^)/3'
_atom_sites_solution_primary     direct
_atom_sites_solution_secondary   difmap
_atom_sites_solution_hydrogens   geom
_refine_ls_hydrogen_treatment    geom
_refine_ls_extinction_method     none
_refine_ls_extinction_coef       ?
_refine_ls_number_reflns         3993
_refine_ls_number_parameters     272
_refine_ls_number_restraints     0
_refine_ls_R_factor_all          0.0700
_refine_ls_R_factor_gt           0.0443
_refine_ls_wR_factor_ref         0.1077
_refine_ls_wR_factor_gt          0.1016
_refine_ls_goodness_of_fit_ref   1.000
_refine_ls_restrained_S_all      1.000
_refine_ls_shift/su_max          0.000
_refine_ls_shift/su_mean         0.000

loop_
_atom_site_label
_atom_site_type_symbol
_atom_site_fract_x
_atom_site_fract_y
_atom_site_fract_z
_atom_site_U_iso_or_equiv
_atom_site_adp_type
_atom_site_occupancy
_atom_site_symmetry_multiplicity
_atom_site_calc_flag
_atom_site_refinement_flags
_atom_site_disorder_assembly
_atom_site_disorder_group
N2 N 0.13490(12) 0.9774(2) -0.07106(13) 0.0275(6) Uani 1 1 d . . .
N1 N 0.39491(11) 0.99467(19) -0.00439(13) 0.0228(5) Uani 1 1 d . . .
C14 C 0.47474(14) 1.2555(2) -0.03824(16) 0.0220(6) Uani 1 1 d . . .
C15 C 0.48744(13) 1.3821(2) -0.01727(15) 0.0180(6) Uani 1 1 d . . .
C17 C 0.53487(14) 1.4168(2) 0.05322(16) 0.0201(6) Uani 1 1 d . . .
H17A H 0.5586 1.3612 0.0890 0.024 Uiso 1 1 calc R . .
C9 C 0.02786(14) 0.9765(2) -0.21482(15) 0.0227(6) Uani 1 1 d . . .
C10 C 0.05530(15) 1.0829(3) -0.18074(16) 0.0260(6) Uani 1 1 d . . .
C13 C 0.02810(16) 1.1855(3) -0.21542(17) 0.0335(7) Uani 1 1 d . . .
H13A H 0.0470 1.2553 -0.1929 0.040 Uiso 1 1 calc R . .
C8 C 0.05391(14) 0.8700(3) -0.17915(16) 0.0242(6) Uani 1 1 d . . .
C11 C 0.11329(15) 1.0838(3) -0.10580(17) 0.0287(7) Uani 1 1 d . . .
C7 C 0.10916(15) 0.8694(3) -0.10297(17) 0.0288(7) Uani 1 1 d . . .
C1 C 0.35102(15) 0.9119(3) -0.04033(17) 0.0299(7) Uani 1 1 d . . .
H1A H 0.3662 0.8557 -0.0677 0.036 Uiso 1 1 calc R . .
C12 C 0.02680(15) 0.7680(3) -0.21436(17) 0.0286(7) Uani 1 1 d . . .
H12A H 0.0442 0.6980 -0.1907 0.034 Uiso 1 1 calc R . .
C2 C 0.28475(15) 0.9046(3) -0.03944(18) 0.0314(7) Uani 1 1 d . . .
H2A H 0.2564 0.8447 -0.0657 0.038 Uiso 1 1 calc R . .
C6 C 0.18861(14) 0.9792(3) 0.00582(16) 0.0346(8) Uani 1 1 d . . .
H6A H 0.1849 0.9097 0.0343 0.041 Uiso 1 1 calc R . .
H6B H 0.1811 1.0452 0.0353 0.041 Uiso 1 1 calc R . .
C5 C 0.37071(16) 1.0743(3) 0.03289(19) 0.0379(8) Uani 1 1 d . . .
H5A H 0.4000 1.1337 0.0583 0.045 Uiso 1 1 calc R . .
C4 C 0.30447(16) 1.0738(3) 0.03611(19) 0.0413(9) Uani 1 1 d . . .
H4A H 0.2899 1.1325 0.0623 0.050 Uiso 1 1 calc R . .
C3 C 0.26028(14) 0.9864(3) 0.00050(15) 0.0255(6) Uani 1 1 d . . .
C18 C 0.5734(2) 1.0494(3) 0.18427(19) 0.0474(9) Uani 1 1 d . . .
H18A H 0.5758 1.0179 0.2343 0.071 Uiso 1 1 calc R . .
H18B H 0.5560 1.1271 0.1801 0.071 Uiso 1 1 calc R . .
H18C H 0.6184 1.0499 0.1792 0.071 Uiso 1 1 calc R . .
C19 C 0.2073(2) 0.7512(3) -0.2758(2) 0.0495(9) Uani 1 1 d . . .
H19A H 0.1629 0.7401 -0.3167 0.059 Uiso 1 1 calc R . .
O3 O 0.50351(9) 1.18163(15) 0.01398(10) 0.0222(4) Uani 1 1 d . . .
O4 O 0.43706(11) 1.23126(16) -0.10618(11) 0.0321(5) Uani 1 1 d . . .
O5 O 0.52886(11) 0.98040(18) 0.12410(12) 0.0288(5) Uani 1 1 d . . .
O2 O 0.14085(11) 1.17256(19) -0.07565(13) 0.0409(6) Uani 1 1 d . . .
O1 O 0.13204(11) 0.7810(2) -0.06855(12) 0.0395(6) Uani 1 1 d . . .
Cl3 Cl 0.20701(6) 0.66886(8) -0.19545(5) 0.0547(3) Uani 1 1 d . . .
Cl2 Cl 0.21586(6) 0.89902(8) -0.25310(6) 0.0692(4) Uani 1 1 d . . .
Cl1 Cl 0.27014(11) 0.70660(13) -0.31274(11) 0.1323(7) Uani 1 1 d . . .
Co1 Co 0.5000 1.0000 0.0000 0.01783(15) Uani 1 2 d S . .
C20 C 0.54726(14) 1.5329(2) 0.07091(16) 0.0205(6) Uani 1 1 d . . .
H20 H 0.5788 1.5546 0.1186 0.025 Uiso 1 1 calc R . .
H15 H 0.542(2) 0.918(3) 0.128(2) 0.049(12) Uiso 1 1 d . . .

loop_
_atom_site_aniso_label
_atom_site_aniso_U_11
_atom_site_aniso_U_22
_atom_site_aniso_U_33
_atom_site_aniso_U_23
_atom_site_aniso_U_13
_atom_site_aniso_U_12
N2 0.0150(11) 0.0398(16) 0.0276(13) -0.0015(11) 0.0068(10) -0.0022(12)
N1 0.0177(11) 0.0186(11) 0.0319(12) 0.0002(11) 0.0078(10) 0.0004(12)
C14 0.0165(14) 0.0175(14) 0.0341(17) -0.0011(13) 0.0110(13) 0.0010(13)
C15 0.0133(14) 0.0140(13) 0.0307(16) -0.0015(11) 0.0124(12) 0.0002(11)
C17 0.0201(14) 0.0126(13) 0.0307(15) 0.0048(12) 0.0123(12) 0.0037(13)
C9 0.0181(13) 0.0237(15) 0.0298(14) 0.0018(11) 0.0124(11) 0.0006(13)
C10 0.0202(15) 0.0299(16) 0.0299(15) -0.0034(13) 0.0108(12) 0.0000(14)
C13 0.0323(17) 0.0213(15) 0.0444(18) -0.0043(13) 0.0092(14) -0.0027(15)
C8 0.0150(14) 0.0283(16) 0.0321(15) 0.0031(13) 0.0117(12) 0.0005(14)
C11 0.0190(15) 0.0362(18) 0.0332(16) -0.0077(15) 0.0116(13) -0.0019(15)
C7 0.0162(15) 0.0392(18) 0.0346(17) 0.0069(15) 0.0131(13) 0.0012(15)
C1 0.0231(16) 0.0245(15) 0.0424(18) -0.0069(14) 0.0111(14) -0.0019(14)
C12 0.0223(15) 0.0227(15) 0.0426(17) 0.0073(13) 0.0131(13) 0.0036(14)
C2 0.0183(15) 0.0280(16) 0.0458(18) -0.0035(15) 0.0075(13) -0.0027(14)
C6 0.0188(14) 0.056(2) 0.0289(15) 0.0016(15) 0.0075(12) 0.0008(16)
C5 0.0205(16) 0.0380(19) 0.056(2) -0.0219(16) 0.0137(15) -0.0057(15)
C4 0.0229(16) 0.052(2) 0.053(2) -0.0232(17) 0.0187(15) -0.0014(17)
C3 0.0178(14) 0.0342(17) 0.0241(14) 0.0045(13) 0.0061(11) 0.0000(14)
C18 0.062(3) 0.0302(17) 0.0406(19) -0.0063(16) 0.0038(18) 0.0000(19)
C19 0.050(2) 0.044(2) 0.045(2) 0.0013(17) 0.0017(18) -0.004(2)
O3 0.0192(10) 0.0116(9) 0.0351(11) -0.0002(8) 0.0078(9) 0.0007(9)
O4 0.0415(13) 0.0157(10) 0.0325(12) -0.0025(9) 0.0025(10) -0.0013(10)
O5 0.0309(12) 0.0173(12) 0.0363(12) -0.0039(9) 0.0082(9) -0.0002(10)
O2 0.0306(12) 0.0387(13) 0.0480(13) -0.0150(11) 0.0051(11) -0.0042(12)
O1 0.0259(12) 0.0441(14) 0.0451(13) 0.0179(11) 0.0066(10) 0.0043(11)
Cl3 0.0701(7) 0.0445(5) 0.0545(6) 0.0007(4) 0.0270(5) -0.0031(5)
Cl2 0.0621(7) 0.0389(5) 0.0812(7) 0.0066(5) -0.0123(6) -0.0102(5)
Cl1 0.1964(19) 0.0946(11) 0.1742(16) 0.0143(10) 0.1548(16) 0.0138(12)
Co1 0.0137(3) 0.0102(2) 0.0301(3) -0.0016(2) 0.0077(2) -0.0003(2)
C20 0.0187(14) 0.0151(13) 0.0294(15) -0.0025(11) 0.0102(12) -0.0008(12)

_geom_special_details            
; 
 All esds (except the esd in the dihedral angle between two l.s. planes) 
 are estimated using the full covariance matrix.  The cell esds are taken 
 into account individually in the estimation of esds in distances, angles 
 and torsion angles; correlations between esds in cell parameters are only 
 used when they are defined by crystal symmetry.  An approximate (isotropic) 
 treatment of cell esds is used for estimating esds involving l.s. planes. 
;

loop_
_geom_bond_atom_site_label_1
_geom_bond_atom_site_label_2
_geom_bond_distance
_geom_bond_site_symmetry_2
_geom_bond_publ_flag
N2 C11 1.386(4) . ?
N2 C7 1.404(4) . ?
N2 C6 1.470(3) . ?
N1 C5 1.328(4) . ?
N1 C1 1.331(3) . ?
N1 Co1 2.139(2) . ?
C14 O4 1.253(3) . ?
C14 O3 1.268(3) . ?
C14 C15 1.512(4) . ?
C15 C17 1.390(4) . ?
C15 C20 1.403(4) 5_685 ?
C17 C20 1.382(4) . ?
C17 H17A 0.9300 . ?
C9 C10 1.408(4) . ?
C9 C9 1.410(5) 2_554 ?
C9 C8 1.412(4) . ?
C10 C13 1.373(4) . ?
C10 C11 1.488(4) . ?
C13 C13 1.402(6) 2_554 ?
C13 H13A 0.9300 . ?
C8 C12 1.369(4) . ?
C8 C7 1.475(4) . ?
C11 O2 1.212(3) . ?
C7 O1 1.209(4) . ?
C1 C2 1.372(4) . ?
C1 H1A 0.9300 . ?
C12 C12 1.399(6) 2_554 ?
C12 H12A 0.9300 . ?
C2 C3 1.379(4) . ?
C2 H2A 0.9300 . ?
C6 C3 1.511(4) . ?
C6 H6A 0.9700 . ?
C6 H6B 0.9700 . ?
C5 C4 1.383(4) . ?
C5 H5A 0.9300 . ?
C4 C3 1.372(4) . ?
C4 H4A 0.9300 . ?
C18 O5 1.418(4) . ?
C18 H18A 0.9600 . ?
C18 H18B 0.9600 . ?
C18 H18C 0.9600 . ?
C19 Cl1 1.715(4) . ?
C19 Cl3 1.738(4) . ?
C19 Cl2 1.751(4) . ?
C19 H19A 0.9800 . ?
O3 Co1 2.1115(17) . ?
O5 Co1 2.138(2) . ?
O5 H15 0.77(4) . ?
Co1 O3 2.1115(17) 5_675 ?
Co1 O5 2.138(2) 5_675 ?
Co1 N1 2.139(2) 5_675 ?
C20 C15 1.403(4) 5_685 ?
C20 H20 0.9300 . ?

loop_
_geom_angle_atom_site_label_1
_geom_angle_atom_site_label_2
_geom_angle_atom_site_label_3
_geom_angle
_geom_angle_site_symmetry_1
_geom_angle_site_symmetry_3
_geom_angle_publ_flag
C11 N2 C7 125.3(2) . . ?
C11 N2 C6 116.6(2) . . ?
C7 N2 C6 118.0(3) . . ?
C5 N1 C1 116.0(2) . . ?
C5 N1 Co1 120.10(19) . . ?
C1 N1 Co1 123.85(19) . . ?
O4 C14 O3 124.8(3) . . ?
O4 C14 C15 117.6(2) . . ?
O3 C14 C15 117.6(2) . . ?
C17 C15 C20 118.7(2) . 5_685 ?
C17 C15 C14 121.5(2) . . ?
C20 C15 C14 119.7(2) 5_685 . ?
C20 C17 C15 121.0(2) . . ?
C20 C17 H17A 119.5 . . ?
C15 C17 H17A 119.5 . . ?
C10 C9 C9 119.26(16) . 2_554 ?
C10 C9 C8 121.4(2) . . ?
C9 C9 C8 119.31(16) 2_554 . ?
C13 C10 C9 120.5(3) . . ?
C13 C10 C11 119.9(3) . . ?
C9 C10 C11 119.7(3) . . ?
C10 C13 C13 120.27(17) . 2_554 ?
C10 C13 H13A 119.9 . . ?
C13 C13 H13A 119.9 2_554 . ?
C12 C8 C9 120.0(3) . . ?
C12 C8 C7 120.3(3) . . ?
C9 C8 C7 119.6(3) . . ?
O2 C11 N2 120.8(3) . . ?
O2 C11 C10 122.4(3) . . ?
N2 C11 C10 116.8(3) . . ?
O1 C7 N2 120.4(3) . . ?
O1 C7 C8 122.6(3) . . ?
N2 C7 C8 117.0(3) . . ?
N1 C1 C2 124.0(3) . . ?
N1 C1 H1A 118.0 . . ?
C2 C1 H1A 118.0 . . ?
C8 C12 C12 120.62(17) . 2_554 ?
C8 C12 H12A 119.7 . . ?
C12 C12 H12A 119.7 2_554 . ?
C1 C2 C3 119.8(3) . . ?
C1 C2 H2A 120.1 . . ?
C3 C2 H2A 120.1 . . ?
N2 C6 C3 113.1(2) . . ?
N2 C6 H6A 109.0 . . ?
C3 C6 H6A 109.0 . . ?
N2 C6 H6B 109.0 . . ?
C3 C6 H6B 109.0 . . ?
H6A C6 H6B 107.8 . . ?
N1 C5 C4 123.7(3) . . ?
N1 C5 H5A 118.2 . . ?
C4 C5 H5A 118.2 . . ?
C3 C4 C5 119.7(3) . . ?
C3 C4 H4A 120.1 . . ?
C5 C4 H4A 120.1 . . ?
C4 C3 C2 116.8(3) . . ?
C4 C3 C6 121.5(3) . . ?
C2 C3 C6 121.7(3) . . ?
O5 C18 H18A 109.5 . . ?
O5 C18 H18B 109.5 . . ?
H18A C18 H18B 109.5 . . ?
O5 C18 H18C 109.5 . . ?
H18A C18 H18C 109.5 . . ?
H18B C18 H18C 109.5 . . ?
Cl1 C19 Cl3 111.5(2) . . ?
Cl1 C19 Cl2 110.6(2) . . ?
Cl3 C19 Cl2 111.4(2) . . ?
Cl1 C19 H19A 107.7 . . ?
Cl3 C19 H19A 107.7 . . ?
Cl2 C19 H19A 107.7 . . ?
C14 O3 Co1 126.14(17) . . ?
C18 O5 Co1 129.5(2) . . ?
C18 O5 H15 110(3) . . ?
Co1 O5 H15 99(3) . . ?
O3 Co1 O3 180.0 . 5_675 ?
O3 Co1 O5 89.57(7) . . ?
O3 Co1 O5 90.43(7) 5_675 . ?
O3 Co1 O5 90.43(7) . 5_675 ?
O3 Co1 O5 89.57(7) 5_675 5_675 ?
O5 Co1 O5 180.00(11) . 5_675 ?
O3 Co1 N1 88.39(8) . 5_675 ?
O3 Co1 N1 91.61(8) 5_675 5_675 ?
O5 Co1 N1 91.69(8) . 5_675 ?
O5 Co1 N1 88.31(8) 5_675 5_675 ?
O3 Co1 N1 91.61(8) . . ?
O3 Co1 N1 88.39(8) 5_675 . ?
O5 Co1 N1 88.31(8) . . ?
O5 Co1 N1 91.69(8) 5_675 . ?
N1 Co1 N1 180.00(12) 5_675 . ?
C17 C20 C15 120.3(2) . 5_685 ?
C17 C20 H20 119.8 . . ?
C15 C20 H20 119.8 5_685 . ?

loop_
_geom_torsion_atom_site_label_1
_geom_torsion_atom_site_label_2
_geom_torsion_atom_site_label_3
_geom_torsion_atom_site_label_4
_geom_torsion
_geom_torsion_site_symmetry_1
_geom_torsion_site_symmetry_2
_geom_torsion_site_symmetry_3
_geom_torsion_site_symmetry_4
_geom_torsion_publ_flag
O4 C14 C15 C17 -172.2(2) . . . . ?
O3 C14 C15 C17 7.2(4) . . . . ?
O4 C14 C15 C20 5.4(4) . . . 5_685 ?
O3 C14 C15 C20 -175.2(2) . . . 5_685 ?
C20 C15 C17 C20 0.8(4) 5_685 . . . ?
C14 C15 C17 C20 178.4(3) . . . . ?
C9 C9 C10 C13 0.2(5) 2_554 . . . ?
C8 C9 C10 C13 -178.4(3) . . . . ?
C9 C9 C10 C11 178.9(3) 2_554 . . . ?
C8 C9 C10 C11 0.4(4) . . . . ?
C9 C10 C13 C13 1.0(5) . . . 2_554 ?
C11 C10 C13 C13 -177.8(4) . . . 2_554 ?
C10 C9 C8 C12 -179.0(3) . . . . ?
C9 C9 C8 C12 2.4(5) 2_554 . . . ?
C10 C9 C8 C7 2.5(4) . . . . ?
C9 C9 C8 C7 -176.0(3) 2_554 . . . ?
C7 N2 C11 O2 -176.4(3) . . . . ?
C6 N2 C11 O2 4.4(4) . . . . ?
C7 N2 C11 C10 3.8(4) . . . . ?
C6 N2 C11 C10 -175.5(2) . . . . ?
C13 C10 C11 O2 -4.5(4) . . . . ?
C9 C10 C11 O2 176.7(3) . . . . ?
C13 C10 C11 N2 175.4(3) . . . . ?
C9 C10 C11 N2 -3.4(4) . . . . ?
C11 N2 C7 O1 179.0(3) . . . . ?
C6 N2 C7 O1 -1.7(4) . . . . ?
C11 N2 C7 C8 -1.0(4) . . . . ?
C6 N2 C7 C8 178.3(2) . . . . ?
C12 C8 C7 O1 -0.7(4) . . . . ?
C9 C8 C7 O1 177.7(3) . . . . ?
C12 C8 C7 N2 179.2(3) . . . . ?
C9 C8 C7 N2 -2.3(4) . . . . ?
C5 N1 C1 C2 -1.1(4) . . . . ?
Co1 N1 C1 C2 176.1(2) . . . . ?
C9 C8 C12 C12 -0.1(5) . . . 2_554 ?
C7 C8 C12 C12 178.4(3) . . . 2_554 ?
N1 C1 C2 C3 0.0(5) . . . . ?
C11 N2 C6 C3 -84.7(3) . . . . ?
C7 N2 C6 C3 96.0(3) . . . . ?
C1 N1 C5 C4 0.5(5) . . . . ?
Co1 N1 C5 C4 -176.8(3) . . . . ?
N1 C5 C4 C3 1.1(5) . . . . ?
C5 C4 C3 C2 -2.1(5) . . . . ?
C5 C4 C3 C6 177.0(3) . . . . ?
C1 C2 C3 C4 1.6(4) . . . . ?
C1 C2 C3 C6 -177.5(3) . . . . ?
N2 C6 C3 C4 123.3(3) . . . . ?
N2 C6 C3 C2 -57.6(4) . . . . ?
O4 C14 O3 Co1 3.0(4) . . . . ?
C15 C14 O3 Co1 -176.28(16) . . . . ?
C14 O3 Co1 O3 -16.0(9) . . . 5_675 ?
C14 O3 Co1 O5 -160.4(2) . . . . ?
C14 O3 Co1 O5 19.6(2) . . . 5_675 ?
C14 O3 Co1 N1 107.9(2) . . . 5_675 ?
C14 O3 Co1 N1 -72.1(2) . . . . ?
C18 O5 Co1 O3 -34.8(3) . . . . ?
C18 O5 Co1 O3 145.2(3) . . . 5_675 ?
C18 O5 Co1 O5 -130(100) . . . 5_675 ?
C18 O5 Co1 N1 53.6(3) . . . 5_675 ?
C18 O5 Co1 N1 -126.4(3) . . . . ?
C5 N1 Co1 O3 -28.7(2) . . . . ?
C1 N1 Co1 O3 154.2(2) . . . . ?
C5 N1 Co1 O3 151.3(2) . . . 5_675 ?
C1 N1 Co1 O3 -25.8(2) . . . 5_675 ?
C5 N1 Co1 O5 60.8(2) . . . . ?
C1 N1 Co1 O5 -116.2(2) . . . . ?
C5 N1 Co1 O5 -119.2(2) . . . 5_675 ?
C1 N1 Co1 O5 63.8(2) . . . 5_675 ?
C5 N1 Co1 N1 -91(21) . . . 5_675 ?
C1 N1 Co1 N1 92(21) . . . 5_675 ?
C15 C17 C20 C15 -0.8(4) . . . 5_685 ?

_diffrn_measured_fraction_theta_max 0.998
_diffrn_reflns_theta_full        26.00
_diffrn_measured_fraction_theta_full 0.998
_refine_diff_density_max         0.791
_refine_diff_density_min         -0.700
_refine_diff_density_rms         0.065
