
#######################################################################
#
#                 Cambridge Crystallographic Data Centre
#                                CCDC
#
#######################################################################
#
# If this CIF has been generated from an entry in the Cambridge
# Structural Database, then it will include bibliographic, chemical,
# crystal, experimental, refinement or atomic coordinate data resulting
# from the CCDC's data processing and validation procedures.
#
#######################################################################

data_CSD_CIF_BUKNAX
_audit_creation_date 2010-08-24
_audit_creation_method CSD-ConQuest-V1
_database_code_CSD BUKNAX
_database_code_depnum_ccdc_archive 'CCDC 643230'
_chemical_formula_sum 'C4 H6 As1 F6 I1 N2'
_chemical_formula_moiety
;
C4 H6 I1 N2 1+,As1 F6 1-
;
_journal_coden_Cambridge 9
_journal_volume 48
_journal_year 2009
_journal_page_first 9983
_journal_name_full 'Inorg.Chem. '
loop_
_publ_author_name
"M.J.Crawford"
"M.Gobel"
"K.Karaghiosoff"
"T.M.Klapotke"
"J.M.Welch"
_chemical_name_systematic
;
bis(Acetonitrile)-iodonium hexafluoroarsenate
;
_chemical_name_common
;
bis(Acetonitrile)-lambda$3!-iodane hexafluoro-arsenic; Teaching Subset: 
Symmetry
;
_cell_volume   1032.966
_exptl_crystal_colour 'colorless'
_exptl_crystal_density_diffrn 2.559
_exptl_special_details
;
highly air-sensitive

;
_exptl_crystal_description 'rod'
_diffrn_ambient_temperature 100
#These two values have been output from a single CSD field.
_refine_ls_R_factor_gt 0.0143
_refine_ls_wR_factor_gt 0.0143
_symmetry_cell_setting cubic
_symmetry_space_group_name_H-M 'P a -3'
_symmetry_Int_Tables_number 205
loop_
_symmetry_equiv_pos_site_id
_symmetry_equiv_pos_as_xyz
1 x,y,z
2 1/2-x,-y,1/2+z
3 -x,1/2+y,1/2-z
4 1/2+x,1/2-y,-z
5 z,x,y
6 1/2+z,1/2-x,-y
7 1/2-z,-x,1/2+y
8 -z,1/2+x,1/2-y
9 y,z,x
10 -y,1/2+z,1/2-x
11 1/2+y,1/2-z,-x
12 1/2-y,-z,1/2+x
13 -x,-y,-z
14 -1/2+x,y,-1/2-z
15 x,-1/2-y,-1/2+z
16 -1/2-x,-1/2+y,z
17 -z,-x,-y
18 -1/2-z,-1/2+x,y
19 -1/2+z,x,-1/2-y
20 z,-1/2-x,-1/2+y
21 -y,-z,-x
22 y,-1/2-z,-1/2+x
23 -1/2-y,-1/2+z,x
24 -1/2+y,z,-1/2-x
_cell_length_a 10.1087(1)
_cell_length_b 10.1087(1)
_cell_length_c 10.1087(1)
_cell_angle_alpha 90
_cell_angle_beta 90
_cell_angle_gamma 90
_cell_formula_units_Z 4
loop_
_atom_type_symbol
_atom_type_radius_bond
C 0.68
H 0.23
As 1.21
F 0.64
I 1.40
N 0.68
loop_
_atom_site_label
_atom_site_type_symbol
_atom_site_fract_x
_atom_site_fract_y
_atom_site_fract_z
H1 H 0.162(3) 0.288(3) -0.238(3)
I1 I 0.50000 0.00000 0.00000
N1 N 0.37449(17) 0.12551(17) -0.12551(17)
C1 C 0.2263(3) 0.2737(3) -0.2737(3)
C2 C 0.30928(19) 0.19072(19) -0.19072(19)
As1 As 0.00000 0.00000 0.00000
F1 F 0.04616(11) 0.15958(9) -0.03613(11)
H1K H 0.212(3) 0.238(3) -0.338(3)
H1E H 0.262(3) 0.338(3) -0.288(3)
H1L H 0.838(3) -0.288(3) 0.238(3)
H1W H 0.788(3) -0.238(3) 0.338(3)
H1Q H 0.738(3) -0.338(3) 0.288(3)
N1L N 0.62551(17) -0.12551(17) 0.12551(17)
C1L C 0.7737(3) -0.2737(3) 0.2737(3)
C2L C 0.69072(19) -0.19072(19) 0.19072(19)
F1D F -0.03613(11) 0.04616(9) 0.15958(11)
F1H F 0.15958(11) -0.03613(9) 0.04616(11)
F1L F -0.04616(11) -0.15958(9) 0.03613(11)
F1P F 0.03613(11) -0.04616(9) -0.15958(11)
F1T F -0.15958(11) 0.03613(9) -0.04616(11)
#END
