####################################################################### 
# 
# This file contains crystal structure data downloaded from the 
# Cambridge Structural Database (CSD) hosted by the Cambridge 
# Crystallographic Data Centre (CCDC).
# 
# Full information about CCDC data access policies and citation 
# guidelines are available at http://www.ccdc.cam.ac.uk/access/V1 
# 
# Audit and citation data items may have been added by the CCDC. 
# Please retain this information to preserve the provenance of 
# this file and to allow appropriate attribution of the data. 
# 
#######################################################################

data_4-NH2
_audit_block_doi                 10.5517/cc12tpdz
_database_code_depnum_ccdc_archive 'CCDC 1007791'
loop_
_citation_id
_citation_doi
_citation_year
1 10.1021/ja5063423 2014
_audit_update_record             
;
2015-07-24 deposited with the CCDC.	2024-07-08 downloaded from the CCDC.
;

_audit_creation_method           SHELXL-97
_chemical_name_systematic        
; 
 ? 
;
_chemical_name_common            ?
_chemical_melting_point          ?
_chemical_formula_moiety         ?
_chemical_formula_sum            'C2 H N O1.17 Zn0.67'
_chemical_formula_weight         101.28

loop_
_atom_type_symbol
_atom_type_description
_atom_type_scat_dispersion_real
_atom_type_scat_dispersion_imag
_atom_type_scat_source
C C 0.0181 0.0091 'International Tables Vol C Tables 4.2.6.8 and 6.1.1.4'
H H 0.0000 0.0000 'International Tables Vol C Tables 4.2.6.8 and 6.1.1.4'
N N 0.0311 0.0180 'International Tables Vol C Tables 4.2.6.8 and 6.1.1.4'
O O 0.0492 0.0322 'International Tables Vol C Tables 4.2.6.8 and 6.1.1.4'
Zn Zn -1.5491 0.6778 'International Tables Vol C Tables 4.2.6.8 and 6.1.1.4'

_symmetry_cell_setting           Cubic
_symmetry_space_group_name_H-M   F23

loop_
_symmetry_equiv_pos_as_xyz
'x, y, z'
'-x, -y, z'
'-x, y, -z'
'x, -y, -z'
'z, x, y'
'z, -x, -y'
'-z, -x, y'
'-z, x, -y'
'y, z, x'
'-y, z, -x'
'y, -z, -x'
'-y, -z, x'
'x, y+1/2, z+1/2'
'-x, -y+1/2, z+1/2'
'-x, y+1/2, -z+1/2'
'x, -y+1/2, -z+1/2'
'z, x+1/2, y+1/2'
'z, -x+1/2, -y+1/2'
'-z, -x+1/2, y+1/2'
'-z, x+1/2, -y+1/2'
'y, z+1/2, x+1/2'
'-y, z+1/2, -x+1/2'
'y, -z+1/2, -x+1/2'
'-y, -z+1/2, x+1/2'
'x+1/2, y, z+1/2'
'-x+1/2, -y, z+1/2'
'-x+1/2, y, -z+1/2'
'x+1/2, -y, -z+1/2'
'z+1/2, x, y+1/2'
'z+1/2, -x, -y+1/2'
'-z+1/2, -x, y+1/2'
'-z+1/2, x, -y+1/2'
'y+1/2, z, x+1/2'
'-y+1/2, z, -x+1/2'
'y+1/2, -z, -x+1/2'
'-y+1/2, -z, x+1/2'
'x+1/2, y+1/2, z'
'-x+1/2, -y+1/2, z'
'-x+1/2, y+1/2, -z'
'x+1/2, -y+1/2, -z'
'z+1/2, x+1/2, y'
'z+1/2, -x+1/2, -y'
'-z+1/2, -x+1/2, y'
'-z+1/2, x+1/2, -y'
'y+1/2, z+1/2, x'
'-y+1/2, z+1/2, -x'
'y+1/2, -z+1/2, -x'
'-y+1/2, -z+1/2, x'

_cell_length_a                   20.11070(10)
_cell_length_b                   20.11070(10)
_cell_length_c                   20.11070(10)
_cell_angle_alpha                90.00
_cell_angle_beta                 90.00
_cell_angle_gamma                90.00
_cell_volume                     8133.58(7)
_cell_formula_units_Z            48
_cell_measurement_temperature    173(2)
_cell_measurement_reflns_used    1002
_cell_measurement_theta_min      4.03
_cell_measurement_theta_max      23.12

_exptl_crystal_description       octahedron
_exptl_crystal_colour            'light yellow'
_exptl_crystal_size_max          0.13
_exptl_crystal_size_mid          0.13
_exptl_crystal_size_min          0.13
_exptl_crystal_density_meas      ?
_exptl_crystal_density_diffrn    0.993
_exptl_crystal_density_method    'not measured'
_exptl_crystal_F_000             2368
_exptl_absorpt_coefficient_mu    2.893
_exptl_absorpt_correction_type   none
_exptl_absorpt_correction_T_min  ?
_exptl_absorpt_correction_T_max  ?
_exptl_absorpt_process_details   ?

_exptl_special_details           
; 
 ? 
;

_diffrn_ambient_temperature      173(2)
_diffrn_radiation_wavelength     1.54178
_diffrn_radiation_type           CuK\a
_diffrn_radiation_source         'fine-focus sealed tube'
_diffrn_radiation_monochromator  graphite
_diffrn_measurement_device_type  'CCD area detector'
_diffrn_measurement_method       'phi and omega scans'
_diffrn_detector_area_resol_mean ?
_diffrn_standards_number         ?
_diffrn_standards_interval_count ?
_diffrn_standards_interval_time  ?
_diffrn_standards_decay_%        ?
_diffrn_reflns_number            9321
_diffrn_reflns_av_R_equivalents  0.1211
_diffrn_reflns_av_sigmaI/netI    0.0578
_diffrn_reflns_limit_h_min       -23
_diffrn_reflns_limit_h_max       23
_diffrn_reflns_limit_k_min       -22
_diffrn_reflns_limit_k_max       23
_diffrn_reflns_limit_l_min       -23
_diffrn_reflns_limit_l_max       23
_diffrn_reflns_theta_min         3.81
_diffrn_reflns_theta_max         62.87
_reflns_number_total             1109
_reflns_number_gt                873
_reflns_threshold_expression     >2sigma(I)

_computing_data_collection       'Bruker SMART'
_computing_cell_refinement       'Bruker SMART'
_computing_data_reduction        'Bruker SAINT'
_computing_structure_solution    'SHELXS-97 (Sheldrick, 2008)'
_computing_structure_refinement  'SHELXL-97 (Sheldrick, 2008)'
_computing_molecular_graphics    'Bruker SHELXTL'
_computing_publication_material  'Bruker SHELXTL'

_refine_special_details          
; 
Refinement of F^2^ against ALL reflections.  The weighted R-factor wR and 
 goodness of fit S are based on F^2^, conventional R-factors R are based 
 on F, with F set to zero for negative F^2^. The threshold expression of 
 F^2^ > 2sigma(F^2^) is used only for calculating R-factors(gt) etc. and is 
 not relevant to the choice of reflections for refinement.  R-factors based 
 on F^2^ are statistically about twice as large as those based on F, and R- 
 factors based on ALL data will be even larger. 
 Refinement of F^2^ against ALL reflections.  The weighted R-factor wR and 
 goodness of fit S are based on F^2^, conventional R-factors R are based 
 on F, with F set to zero for negative F^2^. The threshold expression of 
 F^2^ > 2sigma(F^2^) is used only for calculating R-factors(gt) etc. and is 
 not relevant to the choice of reflections for refinement.  R-factors based 
 on F^2^ are statistically about twice as large as those based on F, and R- 
 factors based on ALL data will be even larger. 
 The structures was solved in F23 space group. -NH2 groups cannot be 
 located in single crystal X-ray diffraction due to positional 
 disorder and crystal quality, thus the linker was refined as 
 4-pyrazolecarboxylate. DFIX, DELU, and ISOR were used for atoms in the 
 aromatic ring of the organic linker. Assignment and refinement of the 
 structure proved the formation of structure 4. ADDSYM detects 
 additional (pseudo) symmetry elements, however, the structure is
 based on structure 2, and there is no possibility of filling 
 orientationally disordered linkers into the vacancies, thus we determine
 the space group as F23.TWIN refinement was applied to structure 
 4-NH2 as suggested by the SHELX-97 program. Before the TWIN refinement,
 the Flack parameter is 0.4(2).As shown by the Flack parameter, 
 these crystals obtained are twin crystals.Similar high wR2 values 
 were also observed in similar metal-exchanged/added MOFs.
;
# SQUEEZE RESULTS (APPEND TO CIF)
# Note: Data are Listed for all Voids in the P1 Unit Cell
# i.e. Centre of Gravity, Solvent Accessible Volume,
# Recovered number of Electrons in the Void and
# Details about the Squeezed Material
loop_
_platon_squeeze_void_nr
_platon_squeeze_void_average_x
_platon_squeeze_void_average_y
_platon_squeeze_void_average_z
_platon_squeeze_void_volume
_platon_squeeze_void_count_electrons
_platon_squeeze_void_content
1 -0.029 -0.010 -0.005 5157 1409 ' '
_platon_squeeze_details          
; 
;

_refine_ls_structure_factor_coef Fsqd
_refine_ls_matrix_type           full
_refine_ls_weighting_scheme      calc
_refine_ls_weighting_details     
'calc w=1/[\s^2^(Fo^2^)+(0.0923P)^2^+88.9546P] where P=(Fo^2^+2Fc^2^)/3'
_atom_sites_solution_primary     direct
_atom_sites_solution_secondary   difmap
_atom_sites_solution_hydrogens   geom
_refine_ls_hydrogen_treatment    constr
_refine_ls_extinction_method     none
_refine_ls_extinction_coef       ?
_refine_ls_abs_structure_details 'Flack H D (1983), Acta Cryst. A39, 876-881'
_refine_ls_abs_structure_Flack   0.00
_refine_ls_number_reflns         1109
_refine_ls_number_parameters     46
_refine_ls_number_restraints     8
_refine_ls_R_factor_all          0.0847
_refine_ls_R_factor_gt           0.0766
_refine_ls_wR_factor_ref         0.2094
_refine_ls_wR_factor_gt          0.2041
_refine_ls_goodness_of_fit_ref   1.166
_refine_ls_restrained_S_all      1.176
_refine_ls_shift/su_max          0.000
_refine_ls_shift/su_mean         0.000

loop_
_atom_site_label
_atom_site_type_symbol
_atom_site_fract_x
_atom_site_fract_y
_atom_site_fract_z
_atom_site_U_iso_or_equiv
_atom_site_adp_type
_atom_site_occupancy
_atom_site_symmetry_multiplicity
_atom_site_calc_flag
_atom_site_refinement_flags
_atom_site_disorder_assembly
_atom_site_disorder_group
Zn1 Zn 0.19489(7) 0.19489(7) 1.19489(7) 0.0448(6) Uani 1 3 d SU . .
Zn2 Zn 0.19287(7) 0.19287(7) 0.80713(7) 0.0470(7) Uani 1 3 d S . .
O2 O 0.2500 0.2500 1.2500 0.037(5) Uani 1 12 d S . .
O3 O 0.2500 0.2500 0.7500 0.035(5) Uani 1 12 d S . .
N1 N 0.2253(4) 0.2249(4) 1.1045(5) 0.052(2) Uani 1 1 d DU . .
O4 O 0.2134(5) 0.2135(5) 0.8981(3) 0.069(2) Uani 1 1 d . . .
C2 C 0.2500 0.2500 0.9992(9) 0.043(2) Uani 1 2 d S . .
C1 C 0.2113(5) 0.2111(6) 1.0465(5) 0.060(3) Uani 1 1 d . . .
H1 H 0.1790 0.1789 1.0341 0.072 Uiso 1 1 calc R . .
C3 C 0.2500 0.2500 0.9201(14) 0.093(6) Uani 1 2 d SU . .

loop_
_atom_site_aniso_label
_atom_site_aniso_U_11
_atom_site_aniso_U_22
_atom_site_aniso_U_33
_atom_site_aniso_U_23
_atom_site_aniso_U_13
_atom_site_aniso_U_12
Zn1 0.0448(6) 0.0448(6) 0.0448(6) 0.0003(7) 0.0003(7) 0.0003(7)
Zn2 0.0470(7) 0.0470(7) 0.0470(7) -0.0024(8) -0.0024(8) 0.0024(8)
O2 0.037(5) 0.037(5) 0.037(5) 0.000 0.000 0.000
O3 0.035(5) 0.035(5) 0.035(5) 0.000 0.000 0.000
N1 0.043(5) 0.044(5) 0.070(6) -0.013(4) -0.014(4) -0.007(4)
O4 0.096(6) 0.099(6) 0.011(3) 0.005(3) 0.005(3) -0.002(5)
C2 0.051(6) 0.048(6) 0.028(5) 0.000 0.000 0.000(4)
C1 0.060(6) 0.067(7) 0.053(7) 0.028(5) 0.027(5) 0.005(5)
C3 0.097(10) 0.098(10) 0.085(9) 0.000 0.000 -0.038(8)

_geom_special_details            
; 
 All esds (except the esd in the dihedral angle between two l.s. planes) 
 are estimated using the full covariance matrix.  The cell esds are taken 
 into account individually in the estimation of esds in distances, angles 
 and torsion angles; correlations between esds in cell parameters are only 
 used when they are defined by crystal symmetry.  An approximate (isotropic) 
 treatment of cell esds is used for estimating esds involving l.s. planes. 
;

loop_
_geom_bond_atom_site_label_1
_geom_bond_atom_site_label_2
_geom_bond_distance
_geom_bond_site_symmetry_2
_geom_bond_publ_flag
Zn1 O2 1.919(2) . ?
Zn1 N1 2.010(10) . ?
Zn1 N1 2.010(10) 9_546 ?
Zn1 N1 2.010(10) 5_456 ?
Zn1 Zn1 3.135(4) 27_557 ?
Zn1 Zn1 3.135(4) 38 ?
Zn1 Zn1 3.135(4) 16_557 ?
Zn2 O4 1.921(7) 8_656 ?
Zn2 O4 1.921(7) . ?
Zn2 O4 1.921(7) 11_566 ?
Zn2 O3 1.990(2) . ?
O2 Zn1 1.919(2) 27_557 ?
O2 Zn1 1.919(2) 16_557 ?
O2 Zn1 1.919(2) 38 ?
O3 Zn2 1.990(2) 38 ?
O3 Zn2 1.990(2) 16_556 ?
O3 Zn2 1.990(2) 27_556 ?
N1 C1 1.232(14) . ?
N1 N1 1.416(13) 38 ?
O4 C3 1.129(13) . ?
C2 C1 1.457(15) 38 ?
C2 C1 1.457(15) . ?
C2 C3 1.59(3) . ?
C3 O4 1.129(13) 38 ?

loop_
_geom_angle_atom_site_label_1
_geom_angle_atom_site_label_2
_geom_angle_atom_site_label_3
_geom_angle
_geom_angle_site_symmetry_1
_geom_angle_site_symmetry_3
_geom_angle_publ_flag
O2 Zn1 N1 100.0(2) . . ?
O2 Zn1 N1 100.0(2) . 9_546 ?
N1 Zn1 N1 117.07(13) . 9_546 ?
O2 Zn1 N1 100.0(2) . 5_456 ?
N1 Zn1 N1 117.07(13) . 5_456 ?
N1 Zn1 N1 117.07(13) 9_546 5_456 ?
O2 Zn1 Zn1 35.3 . 27_557 ?
N1 Zn1 Zn1 115.1(2) . 27_557 ?
N1 Zn1 Zn1 64.7(2) 9_546 27_557 ?
N1 Zn1 Zn1 115.3(2) 5_456 27_557 ?
O2 Zn1 Zn1 35.264(1) . 38 ?
N1 Zn1 Zn1 64.7(2) . 38 ?
N1 Zn1 Zn1 115.3(2) 9_546 38 ?
N1 Zn1 Zn1 115.1(2) 5_456 38 ?
Zn1 Zn1 Zn1 60.0 27_557 38 ?
O2 Zn1 Zn1 35.3 . 16_557 ?
N1 Zn1 Zn1 115.3(2) . 16_557 ?
N1 Zn1 Zn1 115.1(2) 9_546 16_557 ?
N1 Zn1 Zn1 64.7(2) 5_456 16_557 ?
Zn1 Zn1 Zn1 60.0 27_557 16_557 ?
Zn1 Zn1 Zn1 60.0 38 16_557 ?
O4 Zn2 O4 111.3(3) 8_656 . ?
O4 Zn2 O4 111.3(3) 8_656 11_566 ?
O4 Zn2 O4 111.3(3) . 11_566 ?
O4 Zn2 O3 107.5(3) 8_656 . ?
O4 Zn2 O3 107.5(3) . . ?
O4 Zn2 O3 107.5(3) 11_566 . ?
Zn1 O2 Zn1 109.5 . 27_557 ?
Zn1 O2 Zn1 109.5 . 16_557 ?
Zn1 O2 Zn1 109.471(1) 27_557 16_557 ?
Zn1 O2 Zn1 109.471(2) . 38 ?
Zn1 O2 Zn1 109.471(1) 27_557 38 ?
Zn1 O2 Zn1 109.471(1) 16_557 38 ?
Zn2 O3 Zn2 109.5 38 16_556 ?
Zn2 O3 Zn2 109.471(1) 38 . ?
Zn2 O3 Zn2 109.5 16_556 . ?
Zn2 O3 Zn2 109.471(1) 38 27_556 ?
Zn2 O3 Zn2 109.5 16_556 27_556 ?
Zn2 O3 Zn2 109.5 . 27_556 ?
C1 N1 N1 108.7(6) . 38 ?
C1 N1 Zn1 136.0(7) . . ?
N1 N1 Zn1 115.3(2) 38 . ?
C3 O4 Zn2 130.8(15) . . ?
C1 C2 C1 98.5(15) 38 . ?
C1 C2 C3 130.8(7) 38 . ?
C1 C2 C3 130.8(7) . . ?
N1 C1 C2 112.0(12) . . ?
O4 C3 O4 134(3) . 38 ?
O4 C3 C2 113.0(13) . . ?
O4 C3 C2 113.0(13) 38 . ?

_diffrn_measured_fraction_theta_max 0.979
_diffrn_reflns_theta_full        62.87
_diffrn_measured_fraction_theta_full 0.979
_refine_diff_density_max         1.314
_refine_diff_density_min         -0.624
_refine_diff_density_rms         0.155
