
#######################################################################
#
#                 Cambridge Crystallographic Data Centre
#                                CCDC
#
#######################################################################
#
# If this CIF has been generated from an entry in the Cambridge
# Structural Database, then it will include bibliographic, chemical,
# crystal, experimental, refinement or atomic coordinate data resulting
# from the CCDC's data processing and validation procedures.
#
#######################################################################

data_CSD_CIF_BULLOM
_audit_creation_date 2020-05-27
_audit_creation_method CSD-ConQuest-V1
_database_code_CSD BULLOM
_database_code_depnum_ccdc_archive 'CCDC 1950788'
_chemical_formula_sum 'C4 H8 N4 O3'
_chemical_formula_moiety
;
C4 H6 N4 O2,H2 O1
;
_journal_coden_Cambridge 222
_journal_volume 49
_journal_year 2020
_journal_page_first 16359
_journal_name_full 'Dalton Trans. '
loop_
_publ_author_name
"C.R.M.O.Matos"
"Henrique C.S Junior"
"D.L.D'Amato"
"A.S.de Souza"
"S.Pinheiro"
"G.P.Guedes"
"G.B.Ferreira"
"O.C.Alves"
"F.B.de Almeida"
"F.Garcia"
"C.M.Ronconi"
_chemical_name_systematic
;
(5-amino-4H-1,2,4-triazol-1-ium-3-yl)acetate monohydrate
;
_cell_volume    684.365
_exptl_crystal_colour 'colorless'
_exptl_crystal_density_diffrn 1.554
_exptl_crystal_description 'block'
_diffrn_ambient_temperature 293
#These two values have been output from a single CSD field.
_refine_ls_R_factor_gt 0.0342
_refine_ls_wR_factor_gt 0.0342
_symmetry_cell_setting tetragonal
_symmetry_space_group_name_H-M 'P 43'
_symmetry_Int_Tables_number 78
loop_
_symmetry_equiv_pos_site_id
_symmetry_equiv_pos_as_xyz
1 x,y,z
2 -x,-y,1/2+z
3 -y,x,3/4+z
4 y,-x,1/4+z
_cell_length_a 5.0341(7)
_cell_length_b 5.0341(7)
_cell_length_c 27.005(5)
_cell_angle_alpha 90
_cell_angle_beta 90
_cell_angle_gamma 90
_cell_formula_units_Z 4
loop_
_atom_type_symbol
_atom_type_radius_bond
C 0.68
H 0.23
N 0.68
O 0.68
loop_
_atom_site_label
_atom_site_type_symbol
_atom_site_fract_x
_atom_site_fract_y
_atom_site_fract_z
O1 O -0.4080(4) 0.6100(4) 0.11725(7)
H1 H -0.522(5) 0.523(6) 0.1396(9)
H2 H -0.508(6) 0.748(5) 0.1028(13)
H3 H -0.153(7) 0.448(7) 0.0818(12)
H4 H 0.025(6) 0.642(6) -0.0031(10)
H5 H 0.468(7) 0.117(6) 0.0196(12)
H6 H 0.273(6) 0.500(7) -0.0292(11)
O2 O 0.2517(4) 0.4434(4) 0.18751(7)
N1 N 0.2863(5) 0.0342(4) 0.08538(8)
O3 O -0.0519(4) 0.2672(4) 0.23674(7)
N2 N -0.0015(4) 0.3572(4) 0.07611(8)
N3 N 0.1366(5) 0.5238(5) -0.00282(9)
N4 N 0.3263(5) 0.1642(4) 0.04075(8)
C1 C -0.0240(5) 0.0947(5) 0.15540(9)
H7 H 0.02640 -0.08470 0.16450
H8 H -0.21630 0.10040 0.15330
C2 C 0.1523(5) 0.3598(5) 0.03534(10)
C3 C 0.0668(5) 0.2846(5) 0.19608(10)
C4 C 0.0884(5) 0.1555(5) 0.10568(10)
#END
