
#######################################################################
#
#                 Cambridge Crystallographic Data Centre
#                                CCDC
#
#######################################################################
#
# If this CIF has been generated from an entry in the Cambridge
# Structural Database, then it will include bibliographic, chemical,
# crystal, experimental, refinement or atomic coordinate data resulting
# from the CCDC's data processing and validation procedures.
#
#######################################################################

data_CSD_CIF_BUPQAE01
_audit_creation_date 2003-09-30
_audit_creation_method CSD-ConQuest-V1
_database_code_CSD BUPQAE01
_database_code_depnum_ccdc_archive 'CCDC 209451'
_chemical_formula_sum 'C8 H7 N1'
_chemical_formula_moiety
;
C8 H7 N1
;
_journal_coden_Cambridge 1350
_journal_volume 5
_journal_year 2003
_journal_page_first 248
_journal_name_full 'CrystEngComm '
loop_
_publ_author_name
"A.Dey"
"R.K.R.Jetti"
"R.Boese"
"G.R.Desiraju"
_chemical_name_systematic
;
4-Ethynylaniline
;
_chemical_name_common
;
Teaching Subset: Fundamental Chemistry
;
_chemical_melting_point 373
_cell_volume    656.153
_exptl_crystal_colour 'yellow'
_exptl_crystal_density_diffrn 1.186
_exptl_crystal_description 'block'
_exptl_crystal_preparation '1'
_diffrn_ambient_temperature 183
#These two values have been output from a single CSD field.
_refine_ls_R_factor_gt 0.0544
_refine_ls_wR_factor_gt 0.0544
_symmetry_cell_setting orthorhombic
_symmetry_space_group_name_H-M 'P n m a'
_symmetry_Int_Tables_number 62
loop_
_symmetry_equiv_pos_site_id
_symmetry_equiv_pos_as_xyz
1 x,y,z
2 1/2-x,-y,1/2+z
3 -x,1/2+y,-z
4 1/2+x,1/2-y,1/2-z
5 -x,-y,-z
6 -1/2+x,y,-1/2-z
7 x,-1/2-y,z
8 -1/2-x,-1/2+y,-1/2+z
_cell_length_a 10.423(4)
_cell_length_b 7.033(3)
_cell_length_c 8.951(4)
_cell_angle_alpha 90
_cell_angle_beta 90
_cell_angle_gamma 90
_cell_formula_units_Z 4
loop_
_atom_type_symbol
_atom_type_radius_bond
C 0.68
H 0.23
N 0.68
loop_
_atom_site_label
_atom_site_type_symbol
_atom_site_fract_x
_atom_site_fract_y
_atom_site_fract_z
N1 N 0.00608(16) 0.25000 1.2045(2)
H1 H -0.02220 0.13410 1.23980
C1 C 0.55591(15) 0.25000 0.78606(18)
H2 H 0.63840 0.25000 0.72780
C2 C 0.45854(13) 0.25000 0.85818(16)
C3 C 0.34198(13) 0.25000 0.94375(15)
C4 C 0.28385(10) 0.07790(15) 0.98724(12)
H3 H 0.32240 -0.05400 0.94760
C5 C 0.17252(11) 0.07796(15) 1.07226(13)
H4 H 0.13570 -0.05070 1.10570
C6 C 0.11574(15) 0.25000 1.11814(17)
H1F H -0.02220 0.36590 1.23980
C4F C 0.28385(10) 0.42210(15) 0.98724(12)
H3F H 0.32240 0.55400 0.94760
C5F C 0.17252(11) 0.42204(15) 1.07226(13)
H4F H 0.13570 0.55070 1.10570
#END
