####################################################################### 
# 
# This file contains crystal structure data downloaded from the 
# Cambridge Structural Database (CSD) hosted by the Cambridge 
# Crystallographic Data Centre (CCDC).
# 
# Full information about CCDC data access policies and citation 
# guidelines are available at http://www.ccdc.cam.ac.uk/access/V1 
# 
# Audit and citation data items may have been added by the CCDC. 
# Please retain this information to preserve the provenance of 
# this file and to allow appropriate attribution of the data. 
# 
#######################################################################

data_Cu-btc
_audit_block_doi                 10.5517/cc127tmr
_database_code_depnum_ccdc_archive 'CCDC 990624'
loop_
_citation_id
_citation_doi
_citation_year
1 10.1134/S0022476614080137 2014
_audit_update_record             
;
2014-03-07 deposited with the CCDC.	2024-07-08 downloaded from the CCDC.
;

_audit_creation_method           SHELXL-97
_chemical_name_systematic        ?

_chemical_name_common            ?
_chemical_melting_point          ?
_chemical_formula_moiety         '3(C21 H17 Cu N3 O4), 4.5(H2 O)'
_chemical_formula_sum            'C63 H60 Cu3 N9 O16.50'
_chemical_formula_weight         1397.82

loop_
_atom_type_symbol
_atom_type_description
_atom_type_scat_dispersion_real
_atom_type_scat_dispersion_imag
_atom_type_scat_source
C C 0.0033 0.0016 'International Tables Vol C Tables 4.2.6.8 and 6.1.1.4'
H H 0.0000 0.0000 'International Tables Vol C Tables 4.2.6.8 and 6.1.1.4'
Cu Cu 0.3201 1.2651 'International Tables Vol C Tables 4.2.6.8 and 6.1.1.4'
N N 0.0061 0.0033 'International Tables Vol C Tables 4.2.6.8 and 6.1.1.4'
O O 0.0106 0.0060 'International Tables Vol C Tables 4.2.6.8 and 6.1.1.4'

_symmetry_cell_setting           trigonal
_symmetry_space_group_name_H-M   R-3c
_symmetry_space_group_name_Hall  '-R 3 2"c'

loop_
_symmetry_equiv_pos_as_xyz
'x, y, z'
'-y, x-y, z'
'-x+y, -x, z'
'y, x, -z+1/2'
'-x, -x+y, -z+1/2'
'x-y, -y, -z+1/2'
'x+2/3, y+1/3, z+1/3'
'-y+2/3, x-y+1/3, z+1/3'
'-x+y+2/3, -x+1/3, z+1/3'
'y+2/3, x+1/3, -z+5/6'
'-x+2/3, -x+y+1/3, -z+5/6'
'x-y+2/3, -y+1/3, -z+5/6'
'x+1/3, y+2/3, z+2/3'
'-y+1/3, x-y+2/3, z+2/3'
'-x+y+1/3, -x+2/3, z+2/3'
'y+1/3, x+2/3, -z+7/6'
'-x+1/3, -x+y+2/3, -z+7/6'
'x-y+1/3, -y+2/3, -z+7/6'
'-x, -y, -z'
'y, -x+y, -z'
'x-y, x, -z'
'-y, -x, z-1/2'
'x, x-y, z-1/2'
'-x+y, y, z-1/2'
'-x+2/3, -y+1/3, -z+1/3'
'y+2/3, -x+y+1/3, -z+1/3'
'x-y+2/3, x+1/3, -z+1/3'
'-y+2/3, -x+1/3, z-1/6'
'x+2/3, x-y+1/3, z-1/6'
'-x+y+2/3, y+1/3, z-1/6'
'-x+1/3, -y+2/3, -z+2/3'
'y+1/3, -x+y+2/3, -z+2/3'
'x-y+1/3, x+2/3, -z+2/3'
'-y+1/3, -x+2/3, z+1/6'
'x+1/3, x-y+2/3, z+1/6'
'-x+y+1/3, y+2/3, z+1/6'

_cell_length_a                   19.030(3)
_cell_length_b                   19.030(3)
_cell_length_c                   41.674(4)
_cell_angle_alpha                90.00
_cell_angle_beta                 90.00
_cell_angle_gamma                120.00
_cell_volume                     13070(3)
_cell_formula_units_Z            6
_cell_measurement_temperature    100(2)
_cell_measurement_reflns_used    5706
_cell_measurement_theta_min      2.31
_cell_measurement_theta_max      21.57

_exptl_crystal_description       block
_exptl_crystal_colour            blue
_exptl_crystal_size_max          0.14
_exptl_crystal_size_mid          0.14
_exptl_crystal_size_min          0.08
_exptl_crystal_density_meas      ?
_exptl_crystal_density_diffrn    1.066
_exptl_crystal_density_method    'not measured'
_exptl_crystal_F_000             4320
_exptl_absorpt_coefficient_mu    0.781
_exptl_absorpt_correction_type   multi-scan
_exptl_absorpt_correction_T_min  0.8985
_exptl_absorpt_correction_T_max  0.9402
_exptl_absorpt_process_details   SADABS

_exptl_special_details           
; 
 ? 
;

_diffrn_ambient_temperature      100(2)
_diffrn_radiation_wavelength     0.71073
_diffrn_radiation_type           MoK\a
_diffrn_radiation_source         'fine-focus sealed tube'
_diffrn_radiation_monochromator  graphite
_diffrn_measurement_device_type  'Bruker X8 APEX-II CCD'
_diffrn_measurement_method       '\f and \w scans'
_diffrn_detector_area_resol_mean ?
_diffrn_standards_number         ?
_diffrn_standards_interval_count ?
_diffrn_standards_interval_time  ?
_diffrn_standards_decay_%        ?
_diffrn_reflns_number            132220
_diffrn_reflns_av_R_equivalents  0.1462
_diffrn_reflns_av_sigmaI/netI    0.0506
_diffrn_reflns_limit_h_min       -22
_diffrn_reflns_limit_h_max       22
_diffrn_reflns_limit_k_min       -22
_diffrn_reflns_limit_k_max       22
_diffrn_reflns_limit_l_min       -49
_diffrn_reflns_limit_l_max       49
_diffrn_reflns_theta_min         2.31
_diffrn_reflns_theta_max         24.99
_reflns_number_total             2561
_reflns_number_gt                1930
_reflns_threshold_expression     >2sigma(I)

_computing_data_collection       'Bruker APEX2'
_computing_cell_refinement       'Bruker SAINT'
_computing_data_reduction        'Bruker SAINT'
_computing_structure_solution    'SHELXS-97 (Sheldrick, 2008)'
_computing_structure_refinement  'SHELXL-97 (Sheldrick, 2008)'
_computing_molecular_graphics    'Bruker SHELXTL'
_computing_publication_material  'Bruker SHELXTL'

_refine_special_details          
; 
 Refinement of F^2^ against ALL reflections.  The weighted R-factor wR and 
 goodness of fit S are based on F^2^, conventional R-factors R are based 
 on F, with F set to zero for negative F^2^. The threshold expression of 
 F^2^ > 2sigma(F^2^) is used only for calculating R-factors(gt) etc. and is 
 not relevant to the choice of reflections for refinement.  R-factors based 
 on F^2^ are statistically about twice as large as those based on F, and R- 
 factors based on ALL data will be even larger. 
;

_refine_ls_structure_factor_coef Fsqd
_refine_ls_matrix_type           full
_refine_ls_weighting_scheme      calc
_refine_ls_weighting_details     
'calc w=1/[\s^2^(Fo^2^)+(0.0971P)^2^+0.7758P] where P=(Fo^2^+2Fc^2^)/3'
_atom_sites_solution_primary     direct
_atom_sites_solution_secondary   difmap
_atom_sites_solution_hydrogens   geom
_refine_ls_hydrogen_treatment    constr
_refine_ls_extinction_method     none
_refine_ls_extinction_coef       ?
_refine_ls_number_reflns         2561
_refine_ls_number_parameters     140
_refine_ls_number_restraints     0
_refine_ls_R_factor_all          0.0781
_refine_ls_R_factor_gt           0.0511
_refine_ls_wR_factor_ref         0.1668
_refine_ls_wR_factor_gt          0.1565
_refine_ls_goodness_of_fit_ref   1.101
_refine_ls_restrained_S_all      1.101
_refine_ls_shift/su_max          0.000
_refine_ls_shift/su_mean         0.000

loop_
_atom_site_label
_atom_site_type_symbol
_atom_site_fract_x
_atom_site_fract_y
_atom_site_fract_z
_atom_site_U_iso_or_equiv
_atom_site_adp_type
_atom_site_occupancy
_atom_site_symmetry_multiplicity
_atom_site_calc_flag
_atom_site_refinement_flags
_atom_site_disorder_assembly
_atom_site_disorder_group
Cu1 Cu 0.13382(3) 0.3333 0.0833 0.0186(3) Uani 1 2 d S . .
O1 O 0.07411(16) 0.21691(15) 0.09074(6) 0.0236(7) Uani 1 1 d . . .
O2 O 0.18227(16) 0.20076(16) 0.08472(7) 0.0295(7) Uani 1 1 d . . .
N1 N 0.13347(19) 0.31264(19) 0.03556(8) 0.0225(8) Uani 1 1 d . . .
N2 N 0.0142(2) 0.3333 0.0833 0.0261(11) Uani 1 2 d S . .
C1 C -0.0528(2) 0.2737(3) 0.09679(11) 0.0350(11) Uani 1 1 d . . .
H1 H -0.0496 0.2303 0.1066 0.042 Uiso 1 1 calc R . .
C2 C -0.1263(3) 0.2713(4) 0.09731(13) 0.0545(16) Uani 1 1 d . . .
H2 H -0.1722 0.2273 0.1072 0.065 Uiso 1 1 calc R . .
C3 C -0.1324(4) 0.3333 0.0833 0.054(2) Uani 1 2 d S . .
H3 H -0.1823 0.3333 0.0833 0.065 Uiso 1 2 calc SR . .
C4 C 0.1977(3) 0.3570(3) 0.01701(11) 0.0324(11) Uani 1 1 d . . .
H4 H 0.2465 0.3975 0.0267 0.039 Uiso 1 1 calc R . .
C5 C 0.1957(3) 0.3461(3) -0.01584(12) 0.0433(13) Uani 1 1 d . . .
H5 H 0.2427 0.3785 -0.0284 0.052 Uiso 1 1 calc R . .
C6 C 0.1255(3) 0.2882(3) -0.03028(11) 0.0340(11) Uani 1 1 d . . .
H6 H 0.1228 0.2806 -0.0529 0.041 Uiso 1 1 calc R . .
C7 C 0.0590(3) 0.2414(3) -0.01109(11) 0.0342(11) Uani 1 1 d . . .
H7 H 0.0097 0.2006 -0.0203 0.041 Uiso 1 1 calc R . .
C8 C 0.0654(3) 0.2547(3) 0.02159(11) 0.0305(10) Uani 1 1 d . . .
H8 H 0.0199 0.2217 0.0347 0.037 Uiso 1 1 calc R . .
C9 C 0.1086(2) 0.1739(2) 0.08763(9) 0.0208(9) Uani 1 1 d . . .
C10 C 0.0517(2) 0.0840(2) 0.08721(9) 0.0196(9) Uani 1 1 d . . .
C11 C 0.0833(2) 0.0310(2) 0.08704(9) 0.0190(9) Uani 1 1 d . . .
H11 H 0.1403 0.0526 0.0868 0.023 Uiso 1 1 calc R . .
O3 O 0.3376(2) 0.3333 0.0833 0.0641(16) Uani 1 2 d S . .
H30 H 0.2895 0.2921 0.0838 0.096 Uiso 1 1 d R . .
O4 O 0.4833(7) 0.3333 0.0833 0.079(4) Uiso 0.50 2 d SP . .

loop_
_atom_site_aniso_label
_atom_site_aniso_U_11
_atom_site_aniso_U_22
_atom_site_aniso_U_33
_atom_site_aniso_U_23
_atom_site_aniso_U_13
_atom_site_aniso_U_12
Cu1 0.0150(3) 0.0115(4) 0.0281(4) -0.0004(3) -0.00022(14) 0.00573(19)
O1 0.0214(15) 0.0126(13) 0.0362(17) 0.0011(12) 0.0016(12) 0.0080(12)
O2 0.0154(15) 0.0183(15) 0.051(2) -0.0008(13) 0.0033(13) 0.0053(12)
N1 0.0199(18) 0.0183(17) 0.029(2) -0.0028(14) -0.0018(15) 0.0092(15)
N2 0.0225(19) 0.028(3) 0.030(3) -0.008(2) -0.0038(11) 0.0139(14)
C1 0.022(2) 0.039(3) 0.037(3) -0.012(2) 0.000(2) 0.010(2)
C2 0.022(3) 0.080(4) 0.050(3) -0.031(3) 0.001(2) 0.017(3)
C3 0.035(3) 0.082(7) 0.062(5) -0.034(5) -0.017(2) 0.041(3)
C4 0.028(3) 0.028(2) 0.032(3) 0.0009(19) 0.004(2) 0.007(2)
C5 0.041(3) 0.048(3) 0.034(3) 0.007(2) 0.009(2) 0.018(3)
C6 0.038(3) 0.038(3) 0.031(3) -0.004(2) -0.005(2) 0.023(2)
C7 0.027(3) 0.036(3) 0.039(3) -0.010(2) -0.008(2) 0.015(2)
C8 0.023(2) 0.029(2) 0.037(3) -0.003(2) 0.0005(19) 0.011(2)
C9 0.020(2) 0.017(2) 0.023(2) 0.0013(16) -0.0002(16) 0.0070(18)
C10 0.016(2) 0.016(2) 0.026(2) -0.0015(16) -0.0002(16) 0.0073(17)
C11 0.0117(19) 0.016(2) 0.027(2) -0.0007(16) -0.0015(16) 0.0044(16)
O3 0.031(2) 0.024(3) 0.135(5) -0.011(3) -0.0055(15) 0.0122(13)

_geom_special_details            
; 
 All esds (except the esd in the dihedral angle between two l.s. planes) 
 are estimated using the full covariance matrix.  The cell esds are taken 
 into account individually in the estimation of esds in distances, angles 
 and torsion angles; correlations between esds in cell parameters are only 
 used when they are defined by crystal symmetry.  An approximate (isotropic) 
 treatment of cell esds is used for estimating esds involving l.s. planes. 
;

loop_
_geom_bond_atom_site_label_1
_geom_bond_atom_site_label_2
_geom_bond_distance
_geom_bond_site_symmetry_2
_geom_bond_publ_flag
Cu1 O1 1.944(2) 18_554 ?
Cu1 O1 1.944(2) . ?
Cu1 N1 2.029(3) 18_554 ?
Cu1 N1 2.029(3) . ?
Cu1 N2 2.275(5) . ?
O1 C9 1.288(4) . ?
O2 C9 1.234(4) . ?
N1 C4 1.332(5) . ?
N1 C8 1.343(5) . ?
N2 C1 1.335(5) 18_554 ?
N2 C1 1.335(5) . ?
C1 C2 1.377(6) . ?
C1 H1 0.9500 . ?
C2 C3 1.372(7) . ?
C2 H2 0.9500 . ?
C3 C2 1.372(7) 18_554 ?
C3 H3 0.9500 . ?
C4 C5 1.382(6) . ?
C4 H4 0.9500 . ?
C5 C6 1.374(6) . ?
C5 H5 0.9500 . ?
C6 C7 1.381(6) . ?
C6 H6 0.9500 . ?
C7 C8 1.380(6) . ?
C7 H7 0.9500 . ?
C8 H8 0.9500 . ?
C9 C10 1.499(5) . ?
C10 C11 1.375(5) 2 ?
C10 C11 1.408(5) . ?
C11 C10 1.375(5) 3 ?
C11 H11 0.9500 . ?
O3 H30 0.8579 . ?

loop_
_geom_angle_atom_site_label_1
_geom_angle_atom_site_label_2
_geom_angle_atom_site_label_3
_geom_angle
_geom_angle_site_symmetry_1
_geom_angle_site_symmetry_3
_geom_angle_publ_flag
O1 Cu1 O1 178.33(16) 18_554 . ?
O1 Cu1 N1 89.50(12) 18_554 18_554 ?
O1 Cu1 N1 90.66(12) . 18_554 ?
O1 Cu1 N1 90.66(12) 18_554 . ?
O1 Cu1 N1 89.50(12) . . ?
N1 Cu1 N1 169.23(18) 18_554 . ?
O1 Cu1 N2 89.16(8) 18_554 . ?
O1 Cu1 N2 89.16(8) . . ?
N1 Cu1 N2 95.39(9) 18_554 . ?
N1 Cu1 N2 95.38(9) . . ?
C9 O1 Cu1 121.1(2) . . ?
C4 N1 C8 118.1(4) . . ?
C4 N1 Cu1 122.3(3) . . ?
C8 N1 Cu1 119.5(3) . . ?
C1 N2 C1 115.9(6) 18_554 . ?
C1 N2 Cu1 122.0(3) 18_554 . ?
C1 N2 Cu1 122.0(3) . . ?
N2 C1 C2 123.9(5) . . ?
N2 C1 H1 118.1 . . ?
C2 C1 H1 118.1 . . ?
C1 C2 C3 119.1(5) . . ?
C1 C2 H2 120.5 . . ?
C3 C2 H2 120.5 . . ?
C2 C3 C2 118.1(7) . 18_554 ?
C2 C3 H3 120.9 . . ?
C2 C3 H3 120.9 18_554 . ?
N1 C4 C5 122.1(4) . . ?
N1 C4 H4 119.0 . . ?
C5 C4 H4 119.0 . . ?
C6 C5 C4 119.9(4) . . ?
C6 C5 H5 120.1 . . ?
C4 C5 H5 120.1 . . ?
C5 C6 C7 118.2(4) . . ?
C5 C6 H6 120.9 . . ?
C7 C6 H6 120.9 . . ?
C8 C7 C6 119.0(4) . . ?
C8 C7 H7 120.5 . . ?
C6 C7 H7 120.5 . . ?
N1 C8 C7 122.6(4) . . ?
N1 C8 H8 118.7 . . ?
C7 C8 H8 118.7 . . ?
O2 C9 O1 125.5(3) . . ?
O2 C9 C10 119.7(3) . . ?
O1 C9 C10 114.8(3) . . ?
C11 C10 C11 119.3(3) 2 . ?
C11 C10 C9 121.1(3) 2 . ?
C11 C10 C9 119.6(3) . . ?
C10 C11 C10 120.7(3) 3 . ?
C10 C11 H11 119.7 3 . ?
C10 C11 H11 119.7 . . ?

loop_
_geom_torsion_atom_site_label_1
_geom_torsion_atom_site_label_2
_geom_torsion_atom_site_label_3
_geom_torsion_atom_site_label_4
_geom_torsion
_geom_torsion_site_symmetry_1
_geom_torsion_site_symmetry_2
_geom_torsion_site_symmetry_3
_geom_torsion_site_symmetry_4
_geom_torsion_publ_flag
O1 Cu1 O1 C9 167.3(3) 18_554 . . . ?
N1 Cu1 O1 C9 -97.2(3) 18_554 . . . ?
N1 Cu1 O1 C9 72.0(3) . . . . ?
N2 Cu1 O1 C9 167.4(3) . . . . ?
O1 Cu1 N1 C4 41.6(3) 18_554 . . . ?
O1 Cu1 N1 C4 -140.0(3) . . . . ?
N1 Cu1 N1 C4 -49.1(3) 18_554 . . . ?
N2 Cu1 N1 C4 130.9(3) . . . . ?
O1 Cu1 N1 C8 -135.3(3) 18_554 . . . ?
O1 Cu1 N1 C8 43.0(3) . . . . ?
N1 Cu1 N1 C8 133.9(3) 18_554 . . . ?
N2 Cu1 N1 C8 -46.1(3) . . . . ?
O1 Cu1 N2 C1 20.6(2) 18_554 . . 18_554 ?
O1 Cu1 N2 C1 -159.4(2) . . . 18_554 ?
N1 Cu1 N2 C1 110.0(2) 18_554 . . 18_554 ?
N1 Cu1 N2 C1 -70.0(2) . . . 18_554 ?
O1 Cu1 N2 C1 -159.4(2) 18_554 . . . ?
O1 Cu1 N2 C1 20.6(2) . . . . ?
N1 Cu1 N2 C1 -70.0(2) 18_554 . . . ?
N1 Cu1 N2 C1 110.0(2) . . . . ?
C1 N2 C1 C2 0.0(3) 18_554 . . . ?
Cu1 N2 C1 C2 -180.0(3) . . . . ?
N2 C1 C2 C3 -0.1(6) . . . . ?
C1 C2 C3 C2 0.0(3) . . . 18_554 ?
C8 N1 C4 C5 1.1(6) . . . . ?
Cu1 N1 C4 C5 -175.9(3) . . . . ?
N1 C4 C5 C6 0.4(7) . . . . ?
C4 C5 C6 C7 -1.2(7) . . . . ?
C5 C6 C7 C8 0.4(6) . . . . ?
C4 N1 C8 C7 -2.0(6) . . . . ?
Cu1 N1 C8 C7 175.2(3) . . . . ?
C6 C7 C8 N1 1.2(7) . . . . ?
Cu1 O1 C9 O2 11.5(5) . . . . ?
Cu1 O1 C9 C10 -167.6(2) . . . . ?
O2 C9 C10 C11 -173.2(4) . . . 2 ?
O1 C9 C10 C11 6.0(6) . . . 2 ?
O2 C9 C10 C11 6.9(6) . . . . ?
O1 C9 C10 C11 -173.9(3) . . . . ?
C11 C10 C11 C10 -1.0(8) 2 . . 3 ?
C9 C10 C11 C10 178.9(2) . . . 3 ?

loop_
_geom_hbond_atom_site_label_D
_geom_hbond_atom_site_label_H
_geom_hbond_atom_site_label_A
_geom_hbond_distance_DH
_geom_hbond_distance_HA
_geom_hbond_distance_DA
_geom_hbond_angle_DHA
_geom_hbond_site_symmetry_A
O3 H30 O2 0.86 1.91 2.766(4) 179.6 .

_diffrn_measured_fraction_theta_max 0.996
_diffrn_reflns_theta_full        24.99
_diffrn_measured_fraction_theta_full 0.996
_refine_diff_density_max         1.628
_refine_diff_density_min         -0.366
_refine_diff_density_rms         0.083
