####################################################################### 
# 
# This file contains crystal structure data downloaded from the 
# Cambridge Structural Database (CSD) hosted by the Cambridge 
# Crystallographic Data Centre (CCDC).
# 
# Full information about CCDC data access policies and citation 
# guidelines are available at http://www.ccdc.cam.ac.uk/access/V1 
# 
# Audit and citation data items may have been added by the CCDC. 
# Please retain this information to preserve the provenance of 
# this file and to allow appropriate attribution of the data. 
# 
#######################################################################

data_Compound_1f
_audit_block_doi                 10.5517/cc5t717
_database_code_depnum_ccdc_archive 'CCDC 173198'
loop_
_citation_id
_citation_doi
_citation_year
1 10.1021/ja0163772 2001
_audit_update_record             
;
2001-10-30 deposited with the CCDC.	2024-07-08 downloaded from the CCDC.
;

_audit_creation_method           SHELXL-97
_chemical_name_systematic        
; 
? 
;
_chemical_name_common            ?
_chemical_melting_point          ?
_chemical_formula_moiety         ?
_chemical_formula_sum            'C56 H44 Gd O12 P4'
_chemical_formula_weight         1190.04

loop_
_atom_type_symbol
_atom_type_description
_atom_type_scat_dispersion_real
_atom_type_scat_dispersion_imag
_atom_type_scat_source
C C 0.0033 0.0016 'International Tables Vol C Tables 4.2.6.8 and 6.1.1.4'
H H 0.0000 0.0000 'International Tables Vol C Tables 4.2.6.8 and 6.1.1.4'
O O 0.0106 0.0060 'International Tables Vol C Tables 4.2.6.8 and 6.1.1.4'
P P 0.1023 0.0942 'International Tables Vol C Tables 4.2.6.8 and 6.1.1.4'
Gd Gd -0.1653 3.9035 'International Tables Vol C Tables 4.2.6.8 and 6.1.1.4'

_symmetry_cell_setting           ?
_symmetry_space_group_name_H-M   ?

loop_
_symmetry_equiv_pos_as_xyz
'x, y, z'
'-x+1/2, -y, z+1/2'
'-x, y+1/2, -z+1/2'
'x+1/2, -y+1/2, -z'

_cell_length_a                   7.7710(4)
_cell_length_b                   23.8998(13)
_cell_length_c                   32.6762(17)
_cell_angle_alpha                90.00
_cell_angle_beta                 90.00
_cell_angle_gamma                90.00
_cell_volume                     6068.8(6)
_cell_formula_units_Z            5
_cell_measurement_temperature    213(2)
_cell_measurement_reflns_used    ?
_cell_measurement_theta_min      ?
_cell_measurement_theta_max      ?

_exptl_crystal_description       ?
_exptl_crystal_colour            ?
_exptl_crystal_size_max          ?
_exptl_crystal_size_mid          ?
_exptl_crystal_size_min          ?
_exptl_crystal_density_meas      ?
_exptl_crystal_density_diffrn    1.628
_exptl_crystal_density_method    'not measured'
_exptl_crystal_F_000             3000
_exptl_absorpt_coefficient_mu    1.566
_exptl_absorpt_correction_type   ?
_exptl_absorpt_correction_T_min  ?
_exptl_absorpt_correction_T_max  ?
_exptl_absorpt_process_details   ?

_exptl_special_details           
; 
? 
;

_diffrn_ambient_temperature      213(2)
_diffrn_radiation_wavelength     0.71073
_diffrn_radiation_type           MoK\a
_diffrn_radiation_source         'fine-focus sealed tube'
_diffrn_radiation_monochromator  graphite
_diffrn_measurement_device_type  ?
_diffrn_measurement_method       ?
_diffrn_detector_area_resol_mean ?
_diffrn_standards_number         ?
_diffrn_standards_interval_count ?
_diffrn_standards_interval_time  ?
_diffrn_standards_decay_%        ?
_diffrn_reflns_number            40615
_diffrn_reflns_av_R_equivalents  0.1487
_diffrn_reflns_av_sigmaI/netI    0.1821
_diffrn_reflns_limit_h_min       -10
_diffrn_reflns_limit_h_max       8
_diffrn_reflns_limit_k_min       -31
_diffrn_reflns_limit_k_max       30
_diffrn_reflns_limit_l_min       -43
_diffrn_reflns_limit_l_max       43
_diffrn_reflns_theta_min         1.06
_diffrn_reflns_theta_max         28.29
_reflns_number_total             14663
_reflns_number_gt                8025
_reflns_threshold_expression     >2sigma(I)

_computing_data_collection       ?
_computing_cell_refinement       ?
_computing_data_reduction        ?
_computing_structure_solution    'SHELXS-97 (Sheldrick, 1990)'
_computing_structure_refinement  'SHELXL-97 (Sheldrick, 1997)'
_computing_molecular_graphics    ?
_computing_publication_material  ?

_refine_special_details          
; 
Refinement of F^2^ against ALL reflections.  The weighted R-factor wR and 
goodness of fit S are based on F^2^, conventional R-factors R are based 
on F, with F set to zero for negative F^2^. The threshold expression of 
F^2^ > 2sigma(F^2^) is used only for calculating R-factors(gt) etc. and is 
not relevant to the choice of reflections for refinement.  R-factors based 
on F^2^ are statistically about twice as large as those based on F, and R- 
factors based on ALL data will be even larger. 
;

_refine_ls_structure_factor_coef Fsqd
_refine_ls_matrix_type           full
_refine_ls_weighting_scheme      calc
_refine_ls_weighting_details     
'calc w=1/[\s^2^(Fo^2^)+(0.0594P)^2^+45.7941P] where P=(Fo^2^+2Fc^2^)/3'
_atom_sites_solution_primary     direct
_atom_sites_solution_secondary   difmap
_atom_sites_solution_hydrogens   geom
_refine_ls_hydrogen_treatment    mixed
_refine_ls_extinction_method     none
_refine_ls_extinction_coef       ?
_refine_ls_abs_structure_details 'Flack H D (1983), Acta Cryst. A39, 876-881'
_refine_ls_abs_structure_Flack   0.03(2)
_refine_ls_number_reflns         14663
_refine_ls_number_parameters     708
_refine_ls_number_restraints     0
_refine_ls_R_factor_all          0.1887
_refine_ls_R_factor_gt           0.0974
_refine_ls_wR_factor_ref         0.2239
_refine_ls_wR_factor_gt          0.1884
_refine_ls_goodness_of_fit_ref   1.094
_refine_ls_restrained_S_all      1.094
_refine_ls_shift/su_max          6.938
_refine_ls_shift/su_mean         0.061

loop_
_atom_site_label
_atom_site_type_symbol
_atom_site_fract_x
_atom_site_fract_y
_atom_site_fract_z
_atom_site_U_iso_or_equiv
_atom_site_adp_type
_atom_site_occupancy
_atom_site_symmetry_multiplicity
_atom_site_calc_flag
_atom_site_refinement_flags
_atom_site_disorder_assembly
_atom_site_disorder_group
Gd1 Gd 2.00623(10) 0.01122(3) 0.268450(15) 0.02612(15) Uani 1 1 d . . .
P1 P 2.3773(5) 0.06404(18) 0.20870(10) 0.0327(9) Uani 1 1 d . . .
C1 C 2.2660(18) 0.1471(6) 0.0362(4) 0.029(3) Uani 1 1 d . . .
O1 O 2.2110(13) 0.0638(5) 0.2314(3) 0.044(3) Uani 1 1 d . . .
O2 O 2.4594(10) 0.0061(4) 0.2035(2) 0.036(2) Uani 1 1 d . . .
C2 C 2.2924(18) 0.1276(5) 0.0777(4) 0.024(3) Uani 1 1 d . . .
P2 P 2.6286(6) 0.0919(2) -0.15221(12) 0.0438(11) Uani 1 1 d . . .
O3 O 2.5157(16) 0.1024(4) 0.2292(3) 0.042(2) Uani 1 1 d . . .
C3 C 2.2574(19) 0.0724(7) 0.0883(4) 0.027(4) Uani 1 1 d . . .
H3 H 2.2211 0.0474 0.0678 0.033 Uiso 1 1 calc R . .
P3 P 1.6348(5) 0.06649(17) 0.32946(10) 0.0299(9) Uani 1 1 d . . .
C4 C 2.2740(18) 0.0540(6) 0.1267(4) 0.032(3) Uani 1 1 d . . .
H4 H 2.2403 0.0174 0.1335 0.039 Uiso 1 1 calc R . .
O4 O 2.6158(18) 0.1541(5) -0.1666(3) 0.064(4) Uani 1 1 d . . .
P4 P 1.3610(5) 0.09530(18) 0.69056(11) 0.0389(10) Uani 1 1 d . . .
C5 C 2.3450(19) 0.0910(6) 0.1583(4) 0.031(3) Uani 1 1 d . . .
O5 O 2.5432(14) 0.0534(5) -0.1815(3) 0.057(3) Uani 1 1 d . . .
C6 C 2.374(2) 0.1425(6) 0.1484(4) 0.035(4) Uani 1 1 d . . .
H6 H 2.4137 0.1666 0.1692 0.043 Uiso 1 1 calc R . .
O6 O 2.8215(14) 0.0803(5) -0.1445(3) 0.054(3) Uani 1 1 d . . .
C7 C 2.3516(16) 0.1663(6) 0.1076(4) 0.028(3) Uani 1 1 d . . .
O7 O 1.5084(16) 0.1044(3) 0.3071(2) 0.037(2) Uani 1 1 d . . .
C8 C 2.3809(18) 0.2209(5) 0.0975(4) 0.026(3) Uani 1 1 d . . .
H8 H 2.4205 0.2459 0.1176 0.031 Uiso 1 1 calc R . .
O8 O 1.5441(10) 0.0093(4) 0.3354(2) 0.036(2) Uani 1 1 d . . .
O9 O 1.8043(13) 0.0618(5) 0.3071(3) 0.037(3) Uani 1 1 d . . .
C9 C 2.3535(17) 0.2399(5) 0.0584(4) 0.025(3) Uani 1 1 d . . .
H9 H 2.3692 0.2781 0.0527 0.030 Uiso 1 1 calc R . .
C10 C 2.3039(15) 0.2048(6) 0.0276(4) 0.025(3) Uani 1 1 d . . .
O10 O 1.3741(19) 0.1555(5) 0.7078(3) 0.066(4) Uani 1 1 d . . .
C11 C 2.3480(18) 0.2709(6) -0.0269(4) 0.032(3) Uani 1 1 d . . .
H11A H 2.4607 0.2768 -0.0141 0.038 Uiso 1 1 calc R . .
H11B H 2.2742 0.3028 -0.0198 0.038 Uiso 1 1 calc R . .
O11 O 1.4458(12) 0.0551(5) 0.7182(3) 0.052(3) Uani 1 1 d . . .
C12 C 2.368(2) 0.2676(7) -0.0725(5) 0.043(4) Uani 1 1 d . . .
H12A H 2.4332 0.2342 -0.0795 0.065 Uiso 1 1 calc R . .
H12B H 2.4293 0.3004 -0.0822 0.065 Uiso 1 1 calc R . .
H12C H 2.2558 0.2659 -0.0852 0.065 Uiso 1 1 calc R . .
O12 O 1.1688(14) 0.0838(5) 0.6826(3) 0.053(3) Uani 1 1 d . . .
C13 C 2.2080(17) 0.1102(5) 0.0030(4) 0.025(3) Uani 1 1 d . . .
O13 O 1.8562(13) 0.0732(6) 0.2192(3) 0.053(3) Uani 1 1 d . . .
O14 O 2.1524(15) 0.0741(5) 0.3184(3) 0.045(3) Uani 1 1 d . . .
C14 C 2.3172(17) 0.1023(5) -0.0319(4) 0.025(3) Uani 1 1 d . . .
O15 O 2.2790(13) -0.0333(4) 0.2864(3) 0.045(3) Uani 1 1 d . . .
C15 C 2.491(3) 0.1220(5) -0.0342(3) 0.036(3) Uani 1 1 d . . .
H15 H 2.5408 0.1388 -0.0111 0.043 Uiso 1 1 calc R . .
O16 O 1.7227(13) -0.0334(4) 0.2508(3) 0.040(3) Uani 1 1 d . . .
C16 C 2.5836(18) 0.1170(6) -0.0688(4) 0.037(4) Uani 1 1 d . . .
H16 H 2.6961 0.1314 -0.0700 0.044 Uiso 1 1 calc R . .
O17 O 2.2728(12) 0.2201(4) -0.0116(3) 0.034(2) Uani 1 1 d . . .
C17 C 2.510(3) 0.0897(6) -0.1039(4) 0.050(4) Uani 1 1 d . . .
C18 C 2.351(2) 0.0664(8) -0.1037(4) 0.055(5) Uani 1 1 d . . .
H18 H 2.3078 0.0484 -0.1271 0.066 Uiso 1 1 calc R . .
O18 O 1.9488(12) 0.0980(4) 0.0357(3) 0.043(3) Uani 1 1 d . . .
O19 O 1.6969(12) 0.2289(4) 0.5493(3) 0.032(2) Uani 1 1 d . . .
C19 C 2.250(2) 0.0700(7) -0.0670(4) 0.044(4) Uani 1 1 d . . .
C20 C 2.089(2) 0.0476(8) -0.0640(5) 0.064(6) Uani 1 1 d . . .
H20 H 2.0468 0.0265 -0.0861 0.077 Uiso 1 1 calc R . .
O20 O 2.0521(10) 0.1093(4) 0.5038(3) 0.031(2) Uani 1 1 d . . .
C21 C 1.986(3) 0.0544(6) -0.0305(4) 0.046(4) Uani 1 1 d . . .
H21 H 1.8768 0.0375 -0.0294 0.055 Uiso 1 1 calc R . .
O21 O 3.059(4) 0.1571(12) -0.1229(8) 0.067(12) Uiso 0.43(3) 1 d P . .
C22 C 2.046(2) 0.0873(6) 0.0022(4) 0.039(4) Uani 1 1 d . . .
O22 O 1.977(6) 0.1809(12) 0.1952(10) 0.204(19) Uiso 0.78(5) 1 d P . .
C23 C 1.8080(19) 0.0624(6) 0.0470(5) 0.039(4) Uani 1 1 d . . .
H23A H 1.8459 0.0233 0.0483 0.047 Uiso 1 1 calc R . .
H23B H 1.7150 0.0653 0.0269 0.047 Uiso 1 1 calc R . .
O23 O 0.977(6) 0.1880(13) 0.6656(10) 0.22(2) Uiso 0.84(5) 1 d P . .
C24 C 1.746(3) 0.0817(10) 0.0888(7) 0.078(8) Uani 1 1 d . . .
H24A H 1.8256 0.0691 0.1096 0.117 Uiso 1 1 calc R . .
H24B H 1.6328 0.0660 0.0941 0.117 Uiso 1 1 calc R . .
H24C H 1.7391 0.1222 0.0892 0.117 Uiso 1 1 calc R . .
O24 O 2.772(6) 0.2295(17) -0.2058(12) 0.24(2) Uiso 0.81(5) 1 d P . .
C25 C 1.7241(16) 0.1567(5) 0.5016(4) 0.022(3) Uani 1 1 d . . .
O25 O 1.664(4) 0.2155(13) 0.7102(9) 0.126(15) Uiso 0.64(4) 1 d P . .
C26 C 1.7111(15) 0.1344(6) 0.4612(4) 0.020(3) Uani 1 1 d . . .
O26 O 1.982(6) 0.1846(13) 0.2842(9) 0.25(2) Uiso 0.94(5) 1 d P . .
C27 C 1.751(2) 0.0803(7) 0.4504(4) 0.029(4) Uani 1 1 d . . .
H27 H 1.7940 0.0562 0.4708 0.035 Uiso 1 1 calc R . .
C28 C 1.7318(17) 0.0595(6) 0.4103(4) 0.028(3) Uani 1 1 d . . .
H28 H 1.7613 0.0223 0.4043 0.033 Uiso 1 1 calc R . .
C29 C 1.6672(16) 0.0952(6) 0.3791(4) 0.027(3) Uani 1 1 d . . .
C30 C 1.6268(16) 0.1497(6) 0.3893(3) 0.025(3) Uani 1 1 d . . .
H30 H 1.5842 0.1737 0.3689 0.030 Uiso 1 1 calc R . .
C31 C 1.6477(18) 0.1705(5) 0.4299(4) 0.026(3) Uani 1 1 d . . .
C32 C 1.5935(17) 0.2257(6) 0.4400(5) 0.035(4) Uani 1 1 d . . .
H32 H 1.5450 0.2486 0.4197 0.042 Uiso 1 1 calc R . .
C33 C 1.6108(17) 0.2454(6) 0.4782(4) 0.030(3) Uani 1 1 d . . .
H33 H 1.5808 0.2826 0.4843 0.036 Uiso 1 1 calc R . .
C34 C 1.6731(17) 0.2105(6) 0.5083(4) 0.026(3) Uani 1 1 d . . .
C35 C 1.580(2) 0.2701(6) 0.5632(5) 0.044(4) Uani 1 1 d . . .
H35A H 1.4621 0.2588 0.5568 0.053 Uiso 1 1 calc R . .
H35B H 1.6036 0.3058 0.5495 0.053 Uiso 1 1 calc R . .
C36 C 1.601(2) 0.2765(8) 0.6084(5) 0.061(5) Uani 1 1 d . . .
H36A H 1.5894 0.2402 0.6215 0.092 Uiso 1 1 calc R . .
H36B H 1.5140 0.3017 0.6188 0.092 Uiso 1 1 calc R . .
H36C H 1.7146 0.2916 0.6143 0.092 Uiso 1 1 calc R . .
C37 C 1.7816(17) 0.1196(5) 0.5364(4) 0.020(3) Uani 1 1 d . . .
C38 C 1.6750(17) 0.1089(6) 0.5706(4) 0.028(3) Uani 1 1 d . . .
C39 C 1.508(2) 0.1294(5) 0.5734(3) 0.027(3) Uani 1 1 d . . .
H39 H 1.4613 0.1475 0.5504 0.032 Uiso 1 1 calc R . .
C40 C 1.4059(18) 0.1246(5) 0.6087(4) 0.026(3) Uani 1 1 d . . .
H40 H 1.2953 0.1405 0.6094 0.031 Uiso 1 1 calc R . .
C41 C 1.4711(18) 0.0958(5) 0.6428(3) 0.027(3) Uani 1 1 d . . .
C42 C 1.632(2) 0.0718(6) 0.6403(4) 0.031(3) Uani 1 1 d . . .
H42 H 1.6741 0.0503 0.6622 0.037 Uiso 1 1 calc R . .
C43 C 1.7354(17) 0.0795(5) 0.6045(4) 0.023(3) Uani 1 1 d . . .
C44 C 1.9055(19) 0.0542(5) 0.6029(4) 0.033(3) Uani 1 1 d . . .
H44 H 1.9462 0.0321 0.6247 0.040 Uiso 1 1 calc R . .
C45 C 2.005(3) 0.0633(5) 0.5691(4) 0.040(3) Uani 1 1 d . . .
H45 H 2.1140 0.0466 0.5673 0.048 Uiso 1 1 calc R . .
C46 C 1.9467(15) 0.0971(5) 0.5371(4) 0.022(3) Uani 1 1 d . . .
C47 C 2.192(2) 0.0718(7) 0.4941(5) 0.048(4) Uani 1 1 d . . .
H47A H 2.2836 0.0748 0.5146 0.057 Uiso 1 1 calc R . .
H47B H 2.1514 0.0330 0.4933 0.057 Uiso 1 1 calc R . .
C48 C 2.255(3) 0.0888(10) 0.4541(7) 0.083(9) Uani 1 1 d . . .
H48A H 2.1644 0.0839 0.4340 0.124 Uiso 1 1 calc R . .
H48B H 2.3532 0.0660 0.4467 0.124 Uiso 1 1 calc R . .
H48C H 2.2887 0.1279 0.4550 0.124 Uiso 1 1 calc R . .
O27 O 3.264(5) 0.1519(14) -0.1930(10) 0.104(10) Uiso 0.50 1 d P . .
O28 O 1.613(4) 0.2270(11) 0.2909(8) 0.119(7) Uiso 0.50 1 d P . .
O30 O 0.845(9) 0.142(3) 0.743(2) 0.26(3) Uiso 0.50 1 d P . .
O29 O 1.647(7) 0.244(2) 0.2198(15) 0.178(19) Uiso 0.50 1 d P . .

loop_
_atom_site_aniso_label
_atom_site_aniso_U_11
_atom_site_aniso_U_22
_atom_site_aniso_U_33
_atom_site_aniso_U_23
_atom_site_aniso_U_13
_atom_site_aniso_U_12
Gd1 0.0227(3) 0.0429(3) 0.0127(2) -0.0012(3) -0.0016(3) -0.0010(5)
P1 0.0230(18) 0.059(3) 0.0158(17) 0.0080(17) 0.0007(14) 0.0011(19)
C1 0.030(8) 0.023(7) 0.033(8) 0.000(6) 0.007(6) -0.004(6)
O1 0.035(6) 0.087(8) 0.011(4) 0.011(6) 0.007(5) -0.002(6)
O2 0.024(5) 0.051(6) 0.034(4) 0.012(4) -0.004(4) 0.007(5)
C2 0.029(7) 0.023(7) 0.019(6) 0.004(6) 0.004(6) 0.005(6)
P2 0.045(3) 0.058(3) 0.029(2) -0.014(2) 0.0110(19) -0.002(2)
O3 0.029(5) 0.065(6) 0.031(4) 0.007(5) -0.008(6) -0.006(6)
C3 0.027(8) 0.028(8) 0.027(8) 0.007(7) 0.012(6) -0.001(7)
P3 0.0255(19) 0.048(2) 0.0158(16) -0.0064(16) 0.0012(15) -0.0021(18)
C4 0.027(8) 0.042(9) 0.028(7) -0.001(7) -0.009(6) -0.018(7)
O4 0.084(10) 0.061(8) 0.047(7) 0.012(6) 0.021(7) 0.010(7)
P4 0.038(2) 0.054(3) 0.0247(19) 0.0110(18) 0.0069(17) 0.001(2)
C5 0.034(8) 0.031(8) 0.029(7) -0.002(6) 0.006(6) 0.018(7)
O5 0.038(7) 0.094(9) 0.040(6) -0.047(6) 0.000(5) 0.000(6)
C6 0.036(9) 0.045(9) 0.026(7) -0.004(7) -0.003(7) -0.007(7)
O6 0.028(6) 0.089(9) 0.044(7) -0.026(6) 0.011(5) 0.001(6)
C7 0.013(6) 0.044(9) 0.026(7) -0.003(6) 0.001(6) -0.002(6)
O7 0.031(5) 0.060(5) 0.019(4) -0.006(4) 0.000(6) 0.002(7)
C8 0.032(8) 0.017(7) 0.028(7) -0.002(5) 0.001(6) 0.008(6)
O8 0.026(5) 0.058(6) 0.026(4) -0.009(5) -0.003(3) -0.018(5)
O9 0.030(6) 0.064(7) 0.016(5) -0.015(5) 0.006(4) -0.004(5)
C9 0.022(7) 0.019(7) 0.033(8) 0.006(6) 0.002(6) 0.003(6)
C10 0.008(6) 0.045(9) 0.021(6) 0.003(6) -0.003(5) -0.001(6)
O10 0.101(11) 0.058(8) 0.039(7) -0.008(6) 0.013(7) -0.021(7)
C11 0.020(7) 0.045(9) 0.031(8) 0.009(7) -0.003(6) -0.011(7)
O11 0.025(6) 0.089(8) 0.043(6) 0.026(6) 0.016(4) 0.001(5)
C12 0.029(9) 0.056(10) 0.045(9) 0.018(8) 0.006(7) -0.006(8)
O12 0.035(6) 0.082(9) 0.042(6) 0.010(6) -0.009(5) -0.009(6)
C13 0.025(7) 0.022(7) 0.027(7) 0.012(6) -0.007(6) -0.009(6)
O13 0.022(6) 0.103(10) 0.033(6) 0.033(6) 0.013(5) 0.007(6)
O14 0.042(7) 0.057(8) 0.038(6) -0.018(5) -0.007(5) 0.001(6)
C14 0.027(7) 0.034(8) 0.013(6) 0.006(5) -0.013(5) -0.009(6)
O15 0.033(6) 0.057(7) 0.044(6) 0.002(5) 0.002(5) -0.006(5)
C15 0.041(8) 0.045(7) 0.023(6) -0.009(5) -0.003(9) -0.020(10)
O16 0.035(6) 0.048(6) 0.038(6) -0.005(5) -0.013(5) 0.002(5)
C16 0.028(8) 0.053(10) 0.030(8) -0.014(7) 0.002(6) -0.023(7)
O17 0.027(5) 0.041(6) 0.033(5) 0.022(4) -0.002(4) -0.014(5)
C17 0.060(11) 0.046(8) 0.044(8) -0.006(7) 0.042(11) -0.008(12)
C18 0.071(13) 0.081(13) 0.012(7) -0.005(8) -0.005(8) -0.036(11)
O18 0.028(6) 0.048(6) 0.051(6) 0.004(5) -0.001(5) -0.009(5)
O19 0.030(6) 0.039(6) 0.027(5) -0.017(4) 0.005(4) 0.015(5)
C19 0.058(11) 0.053(10) 0.021(7) -0.007(7) -0.019(7) -0.028(9)
C20 0.078(13) 0.082(13) 0.033(9) -0.012(9) -0.001(8) -0.071(11)
O20 0.016(5) 0.042(6) 0.034(5) -0.001(4) 0.006(4) 0.001(4)
C21 0.036(9) 0.066(10) 0.035(7) -0.005(7) -0.025(9) -0.006(10)
C22 0.045(10) 0.043(8) 0.028(7) 0.000(6) -0.015(6) -0.001(7)
C23 0.028(8) 0.033(8) 0.056(10) 0.011(7) 0.012(7) -0.022(7)
C24 0.052(14) 0.074(16) 0.108(19) -0.002(14) 0.064(13) -0.004(12)
C25 0.014(6) 0.030(8) 0.021(6) -0.007(5) 0.008(5) 0.003(6)
C26 0.008(6) 0.033(8) 0.021(6) 0.001(6) -0.002(5) 0.002(5)
C27 0.042(9) 0.031(9) 0.014(7) 0.010(6) -0.005(6) -0.005(7)
C28 0.023(7) 0.046(9) 0.014(6) -0.006(6) 0.001(5) -0.019(7)
C29 0.011(6) 0.051(9) 0.019(6) -0.011(6) 0.001(5) 0.000(6)
C30 0.021(7) 0.040(8) 0.013(6) 0.008(6) -0.007(5) 0.001(6)
C31 0.031(8) 0.024(7) 0.023(7) 0.006(6) 0.006(6) 0.006(6)
C32 0.014(7) 0.045(9) 0.046(9) 0.013(7) -0.001(6) 0.004(6)
C33 0.025(8) 0.031(8) 0.032(8) -0.008(6) -0.003(6) 0.004(6)
C34 0.023(7) 0.032(8) 0.022(7) -0.001(6) -0.004(6) -0.006(6)
C35 0.046(10) 0.038(9) 0.049(10) -0.016(7) 0.005(8) 0.012(7)
C36 0.055(12) 0.083(14) 0.046(10) -0.016(9) -0.004(9) 0.028(10)
C37 0.027(7) 0.021(7) 0.014(6) 0.005(5) -0.005(5) -0.004(6)
C38 0.021(7) 0.036(8) 0.026(7) 0.002(6) 0.006(6) 0.004(6)
C39 0.028(7) 0.034(6) 0.018(5) 0.005(5) -0.011(8) -0.010(9)
C40 0.036(8) 0.021(7) 0.020(6) 0.001(5) 0.008(6) -0.017(6)
C41 0.023(8) 0.034(7) 0.023(6) 0.015(5) 0.000(6) -0.009(6)
C42 0.053(10) 0.025(7) 0.015(6) 0.009(5) -0.002(6) 0.021(7)
C43 0.023(7) 0.029(8) 0.018(6) 0.001(5) -0.009(5) 0.008(6)
C44 0.044(9) 0.021(7) 0.036(8) -0.001(6) -0.018(7) 0.015(6)
C45 0.040(8) 0.0