####################################################################### 
# 
# This file contains crystal structure data downloaded from the 
# Cambridge Structural Database (CSD) hosted by the Cambridge 
# Crystallographic Data Centre (CCDC).
# 
# Full information about CCDC data access policies and citation 
# guidelines are available at http://www.ccdc.cam.ac.uk/access/V1 
# 
# Audit and citation data items may have been added by the CCDC. 
# Please retain this information to preserve the provenance of 
# this file and to allow appropriate attribution of the data. 
# 
#######################################################################

data_xyh
_audit_block_doi                 10.5517/ccspg74
_database_code_depnum_ccdc_archive 'CCDC 735606'
loop_
_citation_id
_citation_doi
_citation_year
1 10.1080/15533170903327778 2009
_audit_update_record             
;
2009-06-10 deposited with the CCDC.	2024-07-08 downloaded from the CCDC.
;

_audit_creation_method           SHELXL-97
_chemical_name_systematic        
;
?
;
_chemical_name_common            ?
_chemical_melting_point          ?
_chemical_formula_moiety         ?
_chemical_formula_sum            'C14 H7 N4 O8 Pb'
_chemical_formula_weight         566.43

loop_
_atom_type_symbol
_atom_type_description
_atom_type_scat_dispersion_real
_atom_type_scat_dispersion_imag
_atom_type_scat_source
C C 0.0033 0.0016 'International Tables Vol C Tables 4.2.6.8 and 6.1.1.4'
H H 0.0000 0.0000 'International Tables Vol C Tables 4.2.6.8 and 6.1.1.4'
N N 0.0061 0.0033 'International Tables Vol C Tables 4.2.6.8 and 6.1.1.4'
O O 0.0106 0.0060 'International Tables Vol C Tables 4.2.6.8 and 6.1.1.4'
Pb Pb -3.3944 10.1111 'International Tables Vol C Tables 4.2.6.8 and 6.1.1.4'

_symmetry_cell_setting           ?
_symmetry_space_group_name_H-M   ?

loop_
_symmetry_equiv_pos_as_xyz
'x, y, z'
'-x, y, -z+1/2'
'x+1/2, y+1/2, z'
'-x+1/2, y+1/2, -z+1/2'
'-x, -y, -z'
'x, -y, z-1/2'
'-x+1/2, -y+1/2, -z'
'x+1/2, -y+1/2, z-1/2'

_cell_length_a                   17.766(2)
_cell_length_b                   16.1429(17)
_cell_length_c                   6.3012(7)
_cell_angle_alpha                90.00
_cell_angle_beta                 99.465(2)
_cell_angle_gamma                90.00
_cell_volume                     1782.6(3)
_cell_formula_units_Z            4
_cell_measurement_temperature    296(2)
_cell_measurement_reflns_used    ?
_cell_measurement_theta_min      ?
_cell_measurement_theta_max      ?

_exptl_crystal_description       ?
_exptl_crystal_colour            ?
_exptl_crystal_size_max          0.23
_exptl_crystal_size_mid          0.19
_exptl_crystal_size_min          0.12
_exptl_crystal_density_meas      ?
_exptl_crystal_density_diffrn    2.111
_exptl_crystal_density_method    'not measured'
_exptl_crystal_F_000             1060
_exptl_absorpt_coefficient_mu    9.515
_exptl_absorpt_correction_type   ?
_exptl_absorpt_correction_T_min  0.2182
_exptl_absorpt_correction_T_max  0.3947
_exptl_absorpt_process_details   ?

_exptl_special_details           
;
?
;

_diffrn_ambient_temperature      296(2)
_diffrn_radiation_wavelength     0.71073
_diffrn_radiation_type           MoK\a
_diffrn_radiation_source         'fine-focus sealed tube'
_diffrn_radiation_monochromator  graphite
_diffrn_measurement_device_type  ?
_diffrn_measurement_method       ?
_diffrn_detector_area_resol_mean ?
_diffrn_standards_number         ?
_diffrn_standards_interval_count ?
_diffrn_standards_interval_time  ?
_diffrn_standards_decay_%        ?
_diffrn_reflns_number            4299
_diffrn_reflns_av_R_equivalents  0.0337
_diffrn_reflns_av_sigmaI/netI    0.0394
_diffrn_reflns_limit_h_min       -21
_diffrn_reflns_limit_h_max       20
_diffrn_reflns_limit_k_min       -19
_diffrn_reflns_limit_k_max       19
_diffrn_reflns_limit_l_min       -6
_diffrn_reflns_limit_l_max       7
_diffrn_reflns_theta_min         2.52
_diffrn_reflns_theta_max         25.30
_reflns_number_total             1621
_reflns_number_gt                1524
_reflns_threshold_expression     >2sigma(I)

_computing_data_collection       ?
_computing_cell_refinement       ?
_computing_data_reduction        ?
_computing_structure_solution    'SHELXS-97 (Sheldrick, 1990)'
_computing_structure_refinement  'SHELXL-97 (Sheldrick, 1997)'
_computing_molecular_graphics    ?
_computing_publication_material  ?

_refine_special_details          
;
Refinement of F^2^ against ALL reflections. The weighted R-factor wR and
goodness of fit S are based on F^2^, conventional R-factors R are based
on F, with F set to zero for negative F^2^. The threshold expression of
F^2^ > 2sigma(F^2^) is used only for calculating R-factors(gt) etc. and is
not relevant to the choice of reflections for refinement. R-factors based
on F^2^ are statistically about twice as large as those based on F, and R-
factors based on ALL data will be even larger.
;

_refine_ls_structure_factor_coef Fsqd
_refine_ls_matrix_type           full
_refine_ls_weighting_scheme      calc
_refine_ls_weighting_details     
'calc w=1/[\s^2^(Fo^2^)+(0.0857P)^2^+0.0434P] where P=(Fo^2^+2Fc^2^)/3'
_atom_sites_solution_primary     direct
_atom_sites_solution_secondary   difmap
_atom_sites_solution_hydrogens   geom
_refine_ls_hydrogen_treatment    mixed
_refine_ls_extinction_method     none
_refine_ls_extinction_coef       ?
_refine_ls_number_reflns         1621
_refine_ls_number_parameters     123
_refine_ls_number_restraints     0
_refine_ls_R_factor_all          0.0383
_refine_ls_R_factor_gt           0.0369
_refine_ls_wR_factor_ref         0.1191
_refine_ls_wR_factor_gt          0.1183
_refine_ls_goodness_of_fit_ref   1.174
_refine_ls_restrained_S_all      1.174
_refine_ls_shift/su_max          0.001
_refine_ls_shift/su_mean         0.000

loop_
_atom_site_label
_atom_site_type_symbol
_atom_site_fract_x
_atom_site_fract_y
_atom_site_fract_z
_atom_site_U_iso_or_equiv
_atom_site_adp_type
_atom_site_occupancy
_atom_site_symmetry_multiplicity
_atom_site_calc_flag
_atom_site_refinement_flags
_atom_site_disorder_assembly
_atom_site_disorder_group
Pb1 Pb 0.0000 0.424313(19) 0.2500 0.0315(2) Uani 1 2 d S . 1
O1 O 0.0430(3) 0.3161(4) 0.4780(9) 0.0449(13) Uani 1 1 d . . 1
O2 O 0.0873(5) 0.4228(3) 0.6826(13) 0.0500(18) Uani 1 1 d . . 1
O3 O 0.2248(6) 0.0371(4) 1.2029(12) 0.072(2) Uani 1 1 d . . 1
O4 O 0.2430(4) 0.1291(4) 1.4467(10) 0.0582(17) Uani 1 1 d . . 1
N1 N 0.2183(4) 0.1069(5) 1.2625(11) 0.0399(16) Uani 1 1 d . . 1
N2 N 0.1349(4) 0.3913(4) 1.1129(11) 0.0389(14) Uani 1 1 d . . 1
H2 H 0.1705 0.4277 1.1170 0.047 Uiso 1 1 calc R . 1
C1 C 0.0799(4) 0.3466(5) 0.6521(12) 0.0376(17) Uani 1 1 d . . 1
C2 C 0.1152(4) 0.2870(4) 0.8195(12) 0.0341(16) Uani 1 1 d . . 1
C3 C 0.1419(4) 0.3094(4) 1.0339(11) 0.0310(15) Uani 1 1 d . . 1
C4 C 0.1745(4) 0.2483(5) 1.1812(12) 0.0353(16) Uani 1 1 d . . 1
H4 H 0.1922 0.2622 1.3329 0.042 Uiso 0.50 1 d PR . 1
C5 C 0.1823(4) 0.1688(5) 1.1106(12) 0.0365(16) Uani 1 1 d . . 1
C6 C 0.1575(5) 0.1444(5) 0.8993(14) 0.046(2) Uani 1 1 d . . 1
H6 H 0.1666 0.0836 0.8460 0.056 Uiso 1 1 d R . 1
C7 C 0.1242(5) 0.2045(5) 0.7562(14) 0.0447(19) Uani 1 1 d . . 1
H7 H 0.1063 0.1863 0.5992 0.054 Uiso 1 1 d R . 1

loop_
_atom_site_aniso_label
_atom_site_aniso_U_11
_atom_site_aniso_U_22
_atom_site_aniso_U_33
_atom_site_aniso_U_23
_atom_site_aniso_U_13
_atom_site_aniso_U_12
Pb1 0.0405(3) 0.0239(3) 0.0281(3) 0.000 -0.00044(18) 0.000
O1 0.059(4) 0.037(3) 0.034(3) 0.008(2) -0.007(2) 0.003(2)
O2 0.066(5) 0.040(4) 0.040(4) 0.003(2) -0.005(3) 0.013(2)
O3 0.126(7) 0.032(3) 0.052(4) 0.002(3) -0.004(4) 0.017(4)
O4 0.085(5) 0.046(4) 0.039(4) 0.009(3) -0.003(3) 0.012(3)
N1 0.058(4) 0.030(4) 0.031(4) 0.002(3) 0.006(3) 0.003(3)
N2 0.044(4) 0.031(3) 0.042(4) -0.003(3) 0.007(3) 0.002(3)
C1 0.038(4) 0.041(4) 0.035(4) 0.009(3) 0.009(3) 0.010(3)
C2 0.038(4) 0.033(4) 0.032(4) 0.001(3) 0.008(3) 0.007(3)
C3 0.031(4) 0.029(3) 0.033(4) 0.000(3) 0.007(3) 0.002(3)
C4 0.039(4) 0.035(4) 0.031(4) 0.003(3) 0.005(3) 0.002(3)
C5 0.043(4) 0.033(4) 0.034(4) 0.005(3) 0.007(3) 0.004(3)
C6 0.060(5) 0.036(4) 0.041(5) -0.004(4) 0.004(4) 0.013(4)
C7 0.058(5) 0.037(4) 0.038(4) -0.003(4) 0.006(4) 0.011(4)

_geom_special_details            
;
All esds (except the esd in the dihedral angle between two l.s. planes)
are estimated using the full covariance matrix. The cell esds are taken
into account individually in the estimation of esds in distances, angles
and torsion angles; correlations between esds in cell parameters are only
used when they are defined by crystal symmetry. An approximate (isotropic)
treatment of cell esds is used for estimating esds involving l.s. planes.
;

loop_
_geom_bond_atom_site_label_1
_geom_bond_atom_site_label_2
_geom_bond_distance
_geom_bond_site_symmetry_2
_geom_bond_publ_flag
Pb1 O1 2.310(5) 2 ?
Pb1 O1 2.310(5) . ?
Pb1 N2 2.731(6) 2_556 ?
Pb1 N2 2.731(6) 1_554 ?
O1 C1 1.280(10) . ?
O2 C1 1.247(9) . ?
O3 N1 1.199(12) . ?
O4 N1 1.225(10) . ?
N1 C5 1.457(11) . ?
N2 C3 1.425(9) . ?
N2 Pb1 2.731(6) 1_556 ?
N2 H2 0.8600 . ?
C1 C2 1.488(10) . ?
C2 C7 1.407(11) . ?
C2 C3 1.403(10) . ?
C3 C4 1.412(10) . ?
C4 C5 1.374(11) . ?
C4 H4 0.9816 . ?
C5 C6 1.389(11) . ?
C6 C7 1.389(12) . ?
C6 H6 1.0581 . ?
C7 H7 1.0315 . ?

loop_
_geom_angle_atom_site_label_1
_geom_angle_atom_site_label_2
_geom_angle_atom_site_label_3
_geom_angle
_geom_angle_site_symmetry_1
_geom_angle_site_symmetry_3
_geom_angle_publ_flag
O1 Pb1 O1 81.8(3) 2 . ?
O1 Pb1 N2 80.3(2) 2 2_556 ?
O1 Pb1 N2 82.7(2) . 2_556 ?
O1 Pb1 N2 82.7(2) 2 1_554 ?
O1 Pb1 N2 80.3(2) . 1_554 ?
N2 Pb1 N2 157.5(3) 2_556 1_554 ?
C1 O1 Pb1 108.2(5) . . ?
O3 N1 O4 122.3(7) . . ?
O3 N1 C5 119.5(7) . . ?
O4 N1 C5 118.1(7) . . ?
C3 N2 Pb1 115.0(5) . 1_556 ?
C3 N2 H2 122.5 . . ?
Pb1 N2 H2 122.5 1_556 . ?
O2 C1 O1 122.5(7) . . ?
O2 C1 C2 120.5(8) . . ?
O1 C1 C2 117.1(7) . . ?
C7 C2 C3 118.7(7) . . ?
C7 C2 C1 117.7(7) . . ?
C3 C2 C1 123.5(7) . . ?
C2 C3 C4 119.3(7) . . ?
C2 C3 N2 122.7(6) . . ?
C4 C3 N2 117.9(7) . . ?
C5 C4 C3 119.5(7) . . ?
C5 C4 H4 119.7 . . ?
C3 C4 H4 120.8 . . ?
C4 C5 C6 122.9(7) . . ?
C4 C5 N1 119.0(7) . . ?
C6 C5 N1 118.1(7) . . ?
C5 C6 C7 117.3(8) . . ?
C5 C6 H6 121.7 . . ?
C7 C6 H6 120.9 . . ?
C6 C7 C2 122.2(8) . . ?
C6 C7 H7 117.0 . . ?
C2 C7 H7 120.7 . . ?

_diffrn_measured_fraction_theta_max 0.991
_diffrn_reflns_theta_full        25.30
_diffrn_measured_fraction_theta_full 0.991
_refine_diff_density_max         2.413
_refine_diff_density_min         -1.217
_refine_diff_density_rms         0.242


