####################################################################### 
# 
# This file contains crystal structure data downloaded from the 
# Cambridge Structural Database (CSD) hosted by the Cambridge 
# Crystallographic Data Centre (CCDC).
# 
# Full information about CCDC data access policies and citation 
# guidelines are available at http://www.ccdc.cam.ac.uk/access/V1 
# 
# Audit and citation data items may have been added by the CCDC. 
# Please retain this information to preserve the provenance of 
# this file and to allow appropriate attribution of the data. 
# 
#######################################################################

data_a
_audit_block_doi                 10.5517/ccs6xd8
_database_code_depnum_ccdc_archive 'CCDC 721630'
loop_
_citation_id
_citation_doi
_citation_year
1 10.1080/15533170903327901 2009
_audit_update_record             
;
2009-02-24 deposited with the CCDC.	2024-07-08 downloaded from the CCDC.
;

_audit_creation_method           SHELXL-97
_chemical_name_systematic        
;
?
;
_chemical_name_common            ?
_chemical_melting_point          ?
_chemical_formula_moiety         ?
_chemical_formula_sum            'C21 H15 Cl6 Cu N5 O5 S'
_chemical_formula_weight         725.68

loop_
_atom_type_symbol
_atom_type_description
_atom_type_scat_dispersion_real
_atom_type_scat_dispersion_imag
_atom_type_scat_source
C C 0.0033 0.0016 'International Tables Vol C Tables 4.2.6.8 and 6.1.1.4'
H H 0.0000 0.0000 'International Tables Vol C Tables 4.2.6.8 and 6.1.1.4'
N N 0.0061 0.0033 'International Tables Vol C Tables 4.2.6.8 and 6.1.1.4'
O O 0.0106 0.0060 'International Tables Vol C Tables 4.2.6.8 and 6.1.1.4'
Cu Cu 0.3201 1.2651 'International Tables Vol C Tables 4.2.6.8 and 6.1.1.4'
S S 0.1246 0.1234 'International Tables Vol C Tables 4.2.6.8 and 6.1.1.4'
Cl Cl 0.1484 0.1585 'International Tables Vol C Tables 4.2.6.8 and 6.1.1.4'

_symmetry_cell_setting           ?
_symmetry_space_group_name_H-M   ?

loop_
_symmetry_equiv_pos_as_xyz
'x, y, z'
'-x+1/2, -y, z+1/2'
'-x, y+1/2, -z+1/2'
'x+1/2, -y+1/2, -z'
'-x, -y, -z'
'x-1/2, y, -z-1/2'
'x, -y-1/2, z-1/2'
'-x-1/2, y-1/2, z'

_cell_length_a                   18.0702(13)
_cell_length_b                   10.5176(8)
_cell_length_c                   29.665(2)
_cell_angle_alpha                90.00
_cell_angle_beta                 90.00
_cell_angle_gamma                90.00
_cell_volume                     5637.9(7)
_cell_formula_units_Z            8
_cell_measurement_temperature    296(2)
_cell_measurement_reflns_used    ?
_cell_measurement_theta_min      ?
_cell_measurement_theta_max      ?

_exptl_crystal_description       ?
_exptl_crystal_colour            ?
_exptl_crystal_size_max          0.26
_exptl_crystal_size_mid          0.19
_exptl_crystal_size_min          0.10
_exptl_crystal_density_meas      ?
_exptl_crystal_density_diffrn    1.710
_exptl_crystal_density_method    'not measured'
_exptl_crystal_F_000             2904
_exptl_absorpt_coefficient_mu    1.460
_exptl_absorpt_correction_type   ?
_exptl_absorpt_correction_T_min  0.7027
_exptl_absorpt_correction_T_max  0.8677
_exptl_absorpt_process_details   ?

_exptl_special_details           
;
?
;

_diffrn_ambient_temperature      296(2)
_diffrn_radiation_wavelength     0.71073
_diffrn_radiation_type           MoK\a
_diffrn_radiation_source         'fine-focus sealed tube'
_diffrn_radiation_monochromator  graphite
_diffrn_measurement_device_type  ?
_diffrn_measurement_method       ?
_diffrn_detector_area_resol_mean ?
_diffrn_standards_number         ?
_diffrn_standards_interval_count ?
_diffrn_standards_interval_time  ?
_diffrn_standards_decay_%        ?
_diffrn_reflns_number            27341
_diffrn_reflns_av_R_equivalents  0.0624
_diffrn_reflns_av_sigmaI/netI    0.0442
_diffrn_reflns_limit_h_min       -21
_diffrn_reflns_limit_h_max       21
_diffrn_reflns_limit_k_min       -12
_diffrn_reflns_limit_k_max       12
_diffrn_reflns_limit_l_min       -35
_diffrn_reflns_limit_l_max       30
_diffrn_reflns_theta_min         1.78
_diffrn_reflns_theta_max         25.20
_reflns_number_total             5084
_reflns_number_gt                3349
_reflns_threshold_expression     >2sigma(I)

_computing_data_collection       ?
_computing_cell_refinement       ?
_computing_data_reduction        ?
_computing_structure_solution    'SHELXS-97 (Sheldrick, 1990)'
_computing_structure_refinement  'SHELXL-97 (Sheldrick, 1997)'
_computing_molecular_graphics    ?
_computing_publication_material  ?

_refine_special_details          
;
Refinement of F^2^ against ALL reflections. The weighted R-factor wR and
goodness of fit S are based on F^2^, conventional R-factors R are based
on F, with F set to zero for negative F^2^. The threshold expression of
F^2^ > 2sigma(F^2^) is used only for calculating R-factors(gt) etc. and is
not relevant to the choice of reflections for refinement. R-factors based
on F^2^ are statistically about twice as large as those based on F, and R-
factors based on ALL data will be even larger.
;

_refine_ls_structure_factor_coef Fsqd
_refine_ls_matrix_type           full
_refine_ls_weighting_scheme      calc
_refine_ls_weighting_details     
'calc w=1/[\s^2^(Fo^2^)+(0.1297P)^2^+0.2000P] where P=(Fo^2^+2Fc^2^)/3'
_atom_sites_solution_primary     direct
_atom_sites_solution_secondary   difmap
_atom_sites_solution_hydrogens   geom
_refine_ls_hydrogen_treatment    mixed
_refine_ls_extinction_method     none
_refine_ls_extinction_coef       ?
_refine_ls_number_reflns         5084
_refine_ls_number_parameters     352
_refine_ls_number_restraints     0
_refine_ls_R_factor_all          0.1063
_refine_ls_R_factor_gt           0.0755
_refine_ls_wR_factor_ref         0.2540
_refine_ls_wR_factor_gt          0.2269
_refine_ls_goodness_of_fit_ref   1.301
_refine_ls_restrained_S_all      1.301
_refine_ls_shift/su_max          0.072
_refine_ls_shift/su_mean         0.002

loop_
_atom_site_label
_atom_site_type_symbol
_atom_site_fract_x
_atom_site_fract_y
_atom_site_fract_z
_atom_site_U_iso_or_equiv
_atom_site_adp_type
_atom_site_occupancy
_atom_site_symmetry_multiplicity
_atom_site_calc_flag
_atom_site_refinement_flags
_atom_site_disorder_assembly
_atom_site_disorder_group
Cu1 Cu 0.80881(4) 0.94672(7) 0.11889(2) 0.0400(3) Uani 1 1 d . . .
S1 S 0.72190(10) 0.99079(15) 0.36657(5) 0.0481(5) Uani 1 1 d . . .
Cl1 Cl 0.5367(2) 0.8830(4) 0.05247(15) 0.1708(17) Uani 1 1 d . . .
Cl2 Cl 0.49755(18) 0.7005(4) -0.01104(11) 0.1427(13) Uani 1 1 d . . .
Cl3 Cl 0.38539(18) 0.8537(3) 0.02889(18) 0.173(2) Uani 1 1 d . . .
Cl4 Cl 0.11326(16) 0.3116(3) 0.16072(11) 0.1182(10) Uani 1 1 d . . .
Cl5 Cl 0.0710(3) 0.1307(5) 0.22703(18) 0.243(3) Uani 1 1 d . . .
Cl6 Cl -0.0079(3) 0.3553(4) 0.2189(2) 0.238(3) Uani 1 1 d . . .
N1 N 0.8960(2) 0.8191(4) 0.12176(13) 0.0317(10) Uani 1 1 d . . .
N2 N 0.8048(2) 0.9738(4) 0.19073(15) 0.0383(11) Uani 1 1 d . . .
N3 N 0.8049(3) 1.1759(5) 0.34593(15) 0.0434(12) Uani 1 1 d . . .
N4 N 0.7934(3) 1.1869(5) 0.39100(15) 0.0460(13) Uani 1 1 d . . .
N5 N 0.7067(3) 1.0643(5) 0.54716(15) 0.0388(12) Uani 1 1 d . . .
O4 O 0.7873(2) 0.5471(4) 0.12093(13) 0.0436(10) Uani 1 1 d . . .
O3 O 0.7579(2) 0.7524(4) 0.12528(12) 0.0399(10) Uani 1 1 d . . .
O1 O 0.9052(2) 1.0622(3) 0.11238(12) 0.0385(9) Uani 1 1 d . . .
O2 O 1.0287(3) 1.0571(4) 0.10893(19) 0.0663(14) Uani 1 1 d . . .
C1 C 0.8023(3) 0.6607(6) 0.12394(16) 0.0343(13) Uani 1 1 d . . .
C2 C 0.8833(3) 0.6953(6) 0.12659(18) 0.0384(13) Uani 1 1 d . . .
C3 C 0.9403(4) 0.6115(6) 0.1329(3) 0.0580(18) Uani 1 1 d . . .
H3 H 0.9313 0.5249 0.1360 0.070 Uiso 1 1 calc R . .
C4 C 1.0121(4) 0.6593(8) 0.1345(3) 0.078(2) Uani 1 1 d . . .
H4 H 1.0517 0.6051 0.1401 0.094 Uiso 1 1 calc R . .
C5 C 1.0240(4) 0.7858(7) 0.1278(2) 0.0585(19) Uani 1 1 d . . .
H5 H 1.0720 0.8180 0.1277 0.070 Uiso 1 1 calc R . .
C6 C 0.9646(3) 0.8654(6) 0.12114(18) 0.0390(14) Uani 1 1 d . . .
C7 C 0.9675(3) 1.0070(6) 0.11341(19) 0.0391(13) Uani 1 1 d . . .
C8 C 0.8422(4) 1.0689(6) 0.2105(2) 0.0560(17) Uani 1 1 d . . .
H8 H 0.8770 1.1124 0.1934 0.067 Uiso 1 1 calc R . .
C9 C 0.8322(4) 1.1064(6) 0.25500(19) 0.0502(16) Uani 1 1 d . . .
H9 H 0.8595 1.1733 0.2670 0.060 Uiso 1 1 calc R . .
C10 C 0.7812(3) 1.0429(5) 0.28090(17) 0.0369(13) Uani 1 1 d . . .
C11 C 0.7436(4) 0.9468(7) 0.2609(2) 0.063(2) Uani 1 1 d . . .
H11 H 0.7092 0.9006 0.2775 0.076 Uiso 1 1 calc R . .
C12 C 0.7556(4) 0.9168(6) 0.2167(2) 0.0587(19) Uani 1 1 d . . .
H12 H 0.7272 0.8521 0.2041 0.070 Uiso 1 1 calc R . .
C13 C 0.7719(3) 1.0792(5) 0.32823(17) 0.0370(13) Uani 1 1 d . . .
C14 C 0.7523(3) 1.0957(6) 0.40663(17) 0.0380(13) Uani 1 1 d . . .
C15 C 0.7348(3) 1.0836(5) 0.45512(18) 0.0391(13) Uani 1 1 d . . .
C16 C 0.6776(4) 1.0106(6) 0.47107(19) 0.0513(17) Uani 1 1 d . . .
H16 H 0.6470 0.9664 0.4513 0.062 Uiso 1 1 calc R . .
C17 C 0.6663(4) 1.0040(6) 0.5170(2) 0.0519(16) Uani 1 1 d . . .
H17 H 0.6276 0.9536 0.5274 0.062 Uiso 1 1 calc R . .
C18 C 0.7628(4) 1.1353(7) 0.53118(19) 0.0573(18) Uani 1 1 d . . .
H18 H 0.7919 1.1792 0.5518 0.069 Uiso 1 1 calc R . .
C19 C 0.7795(4) 1.1470(6) 0.4866(2) 0.0511(16) Uani 1 1 d . . .
H19 H 0.8196 1.1957 0.4772 0.061 Uiso 1 1 calc R . .
C20 C 0.4702(5) 0.7802(9) 0.0371(3) 0.085(3) Uani 1 1 d . . .
H20 H 0.4645 0.7176 0.0613 0.102 Uiso 1 1 calc R . .
C21 C 0.0436(5) 0.2456(8) 0.1934(4) 0.097(3) Uani 1 1 d . . .
H21 H 0.0102 0.2045 0.1718 0.117 Uiso 1 1 calc R . .
O1W O 0.9033(11) 0.298(2) 0.1385(7) 0.354(11) Uani 1 1 d . . .

loop_
_atom_site_aniso_label
_atom_site_aniso_U_11
_atom_site_aniso_U_22
_atom_site_aniso_U_33
_atom_site_aniso_U_23
_atom_site_aniso_U_13
_atom_site_aniso_U_12
Cu1 0.0437(5) 0.0447(5) 0.0315(5) -0.0004(3) 0.0013(3) 0.0030(3)
S1 0.0675(11) 0.0485(10) 0.0281(8) -0.0045(6) 0.0086(7) -0.0153(8)
Cl1 0.150(3) 0.176(4) 0.186(4) -0.054(3) -0.023(3) -0.070(3)
Cl2 0.137(3) 0.181(3) 0.111(2) -0.051(2) -0.0131(18) 0.021(2)
Cl3 0.093(2) 0.116(3) 0.308(6) 0.068(3) 0.035(2) 0.0251(18)
Cl4 0.106(2) 0.107(2) 0.142(3) -0.0111(18) 0.0160(16) -0.0408(16)
Cl5 0.276(6) 0.228(5) 0.226(5) 0.146(4) 0.086(5) 0.114(5)
Cl6 0.268(6) 0.126(3) 0.320(7) 0.018(4) 0.178(5) 0.050(3)
N1 0.032(2) 0.033(3) 0.029(2) -0.0011(18) -0.0037(18) -0.0044(19)
N2 0.045(3) 0.051(3) 0.019(2) -0.006(2) -0.0007(19) -0.003(2)
N3 0.051(3) 0.050(3) 0.029(3) -0.002(2) 0.004(2) -0.011(2)
N4 0.060(3) 0.056(3) 0.022(2) -0.005(2) 0.003(2) -0.009(3)
N5 0.041(3) 0.053(3) 0.023(2) 0.002(2) 0.0024(19) 0.005(2)
O4 0.047(2) 0.035(3) 0.049(3) -0.0038(18) 0.0059(18) -0.0137(18)
O3 0.035(2) 0.048(3) 0.037(2) -0.0003(18) -0.0003(16) -0.0013(18)
O1 0.044(2) 0.033(2) 0.038(2) 0.0005(16) 0.0054(17) -0.0018(17)
O2 0.049(3) 0.049(3) 0.101(4) 0.011(3) -0.002(3) -0.017(2)
C1 0.042(3) 0.044(4) 0.017(3) 0.000(2) 0.000(2) -0.007(3)
C2 0.039(3) 0.039(3) 0.037(3) 0.001(2) 0.003(2) -0.005(3)
C3 0.054(4) 0.027(3) 0.093(5) 0.004(3) 0.001(4) -0.001(3)
C4 0.032(4) 0.065(5) 0.138(8) 0.021(5) -0.017(4) 0.008(3)
C5 0.030(3) 0.056(5) 0.090(5) -0.004(4) -0.006(3) -0.005(3)
C6 0.032(3) 0.046(4) 0.039(3) -0.005(3) -0.002(2) -0.001(3)
C7 0.044(4) 0.036(3) 0.037(3) -0.002(2) 0.001(3) -0.008(3)
C8 0.062(4) 0.072(5) 0.035(3) -0.001(3) 0.016(3) -0.011(4)
C9 0.064(4) 0.054(4) 0.032(3) -0.009(3) 0.004(3) -0.017(3)
C10 0.046(3) 0.043(3) 0.022(3) 0.002(2) 0.006(2) 0.003(3)
C11 0.079(5) 0.075(5) 0.036(4) -0.008(3) 0.024(3) -0.035(4)
C12 0.077(5) 0.067(5) 0.032(3) -0.011(3) 0.009(3) -0.031(4)
C13 0.038(3) 0.046(4) 0.026(3) 0.000(2) 0.004(2) 0.002(3)
C14 0.043(3) 0.044(3) 0.027(3) -0.002(2) -0.001(2) 0.000(3)
C15 0.050(4) 0.040(3) 0.027(3) 0.001(2) 0.006(2) 0.000(3)
C16 0.071(4) 0.056(4) 0.026(3) -0.004(3) 0.000(3) -0.019(3)
C17 0.064(4) 0.057(4) 0.035(3) -0.002(3) 0.005(3) -0.018(3)
C18 0.055(4) 0.087(5) 0.030(3) -0.009(3) 0.001(3) -0.018(4)
C19 0.053(4) 0.069(4) 0.031(3) -0.006(3) 0.002(3) -0.021(3)
C20 0.085(6) 0.087(6) 0.082(6) 0.012(5) 0.003(5) -0.009(5)
C21 0.084(6) 0.069(6) 0.139(9) -0.009(6) -0.004(6) -0.004(5)
O1W 0.31(2) 0.41(3) 0.35(2) 0.04(2) -0.159(17) -0.12(2)

_geom_special_details            
;
All esds (except the esd in the dihedral angle between two l.s. planes)
are estimated using the full covariance matrix. The cell esds are taken
into account individually in the estimation of esds in distances, angles
and torsion angles; correlations between esds in cell parameters are only
used when they are defined by crystal symmetry. An approximate (isotropic)
treatment of cell esds is used for estimating esds involving l.s. planes.
;

loop_
_geom_bond_atom_site_label_1
_geom_bond_atom_site_label_2
_geom_bond_distance
_geom_bond_site_symmetry_2
_geom_bond_publ_flag
Cu1 O4 2.034(4) 8_765 ?
Cu1 N1 2.071(5) . ?
Cu1 O1 2.133(4) . ?
Cu1 N5 2.149(4) 2_674 ?
Cu1 N2 2.151(4) . ?
Cu1 O3 2.250(4) . ?
S1 C14 1.712(6) . ?
S1 C13 1.725(6) . ?
Cl1 C20 1.680(9) . ?
Cl2 C20 1.728(10) . ?
Cl3 C20 1.733(10) . ?
Cl4 C21 1.733(10) . ?
Cl5 C21 1.643(10) . ?
Cl6 C21 1.665(10) . ?
N1 C2 1.330(8) . ?
N1 C6 1.331(7) . ?
N2 C12 1.321(7) . ?
N2 C8 1.342(8) . ?
N3 C13 1.290(7) . ?
N3 N4 1.358(6) . ?
N4 C14 1.299(7) . ?
N5 C17 1.318(8) . ?
N5 C18 1.345(8) . ?
N5 Cu1 2.149(4) 2_675 ?
O4 C1 1.229(7) . ?
O4 Cu1 2.034(4) 8_755 ?
O3 C1 1.254(7) . ?
O1 C7 1.267(7) . ?
O2 C7 1.232(7) . ?
C1 C2 1.511(8) . ?
C2 C3 1.368(9) . ?
C3 C4 1.392(10) . ?
C3 H3 0.9300 . ?
C4 C5 1.362(11) . ?
C4 H4 0.9300 . ?
C5 C6 1.377(9) . ?
C5 H5 0.9300 . ?
C6 C7 1.508(9) . ?
C8 C9 1.389(8) . ?
C8 H8 0.9300 . ?
C9 C10 1.373(8) . ?
C9 H9 0.9300 . ?
C10 C11 1.355(8) . ?
C10 C13 1.465(7) . ?
C11 C12 1.365(8) . ?
C11 H11 0.9300 . ?
C12 H12 0.9300 . ?
C14 C15 1.478(7) . ?
C15 C16 1.373(9) . ?
C15 C19 1.403(8) . ?
C16 C17 1.379(8) . ?
C16 H16 0.9300 . ?
C17 H17 0.9300 . ?
C18 C19 1.363(8) . ?
C18 H18 0.9300 . ?
C19 H19 0.9300 . ?
C20 H20 0.9800 . ?
C21 H21 0.9800 . ?

loop_
_geom_angle_atom_site_label_1
_geom_angle_atom_site_label_2
_geom_angle_atom_site_label_3
_geom_angle
_geom_angle_site_symmetry_1
_geom_angle_site_symmetry_3
_geom_angle_publ_flag
O4 Cu1 N1 170.00(18) 8_765 . ?
O4 Cu1 O1 113.89(17) 8_765 . ?
N1 Cu1 O1 75.59(16) . . ?
O4 Cu1 N5 86.92(17) 8_765 2_674 ?
N1 Cu1 N5 96.02(17) . 2_674 ?
O1 Cu1 N5 92.74(16) . 2_674 ?
O4 Cu1 N2 82.71(16) 8_765 . ?
N1 Cu1 N2 94.04(16) . . ?
O1 Cu1 N2 92.38(16) . . ?
N5 Cu1 N2 169.58(18) 2_674 . ?
O4 Cu1 O3 96.89(16) 8_765 . ?
N1 Cu1 O3 73.67(15) . . ?
O1 Cu1 O3 149.23(15) . . ?
N5 Cu1 O3 88.91(16) 2_674 . ?
N2 Cu1 O3 91.32(15) . . ?
C14 S1 C13 86.7(3) . . ?
C2 N1 C6 121.3(5) . . ?
C2 N1 Cu1 120.5(4) . . ?
C6 N1 Cu1 118.1(4) . . ?
C12 N2 C8 114.9(5) . . ?
C12 N2 Cu1 122.7(4) . . ?
C8 N2 Cu1 121.0(4) . . ?
C13 N3 N4 113.4(5) . . ?
C14 N4 N3 112.1(5) . . ?
C17 N5 C18 116.5(5) . . ?
C17 N5 Cu1 125.0(4) . 2_675 ?
C18 N5 Cu1 118.5(4) . 2_675 ?
C1 O4 Cu1 134.0(4) . 8_755 ?
C1 O3 Cu1 115.7(3) . . ?
C7 O1 Cu1 117.6(4) . . ?
O4 C1 O3 127.5(5) . . ?
O4 C1 C2 116.8(5) . . ?
O3 C1 C2 115.7(5) . . ?
N1 C2 C3 121.0(5) . . ?
N1 C2 C1 113.4(5) . . ?
C3 C2 C1 125.6(6) . . ?
C2 C3 C4 118.3(6) . . ?
C2 C3 H3 120.9 . . ?
C4 C3 H3 120.9 . . ?
C5 C4 C3 119.7(6) . . ?
C5 C4 H4 120.2 . . ?
C3 C4 H4 120.2 . . ?
C4 C5 C6 119.4(6) . . ?
C4 C5 H5 120.3 . . ?
C6 C5 H5 120.3 . . ?
N1 C6 C5 120.2(6) . . ?
N1 C6 C7 113.3(5) . . ?
C5 C6 C7 126.5(5) . . ?
O2 C7 O1 126.8(6) . . ?
O2 C7 C6 118.1(6) . . ?
O1 C7 C6 115.1(5) . . ?
N2 C8 C9 124.2(6) . . ?
N2 C8 H8 117.9 . . ?
C9 C8 H8 117.9 . . ?
C10 C9 C8 118.7(6) . . ?
C10 C9 H9 120.7 . . ?
C8 C9 H9 120.7 . . ?
C11 C10 C9 117.0(5) . . ?
C11 C10 C13 123.9(5) . . ?
C9 C10 C13 119.1(5) . . ?
C10 C11 C12 120.9(6) . . ?
C10 C11 H11 119.5 . . ?
C12 C11 H11 119.5 . . ?
N2 C12 C11 124.2(6) . . ?
N2 C12 H12 117.9 . . ?
C11 C12 H12 117.9 . . ?
N3 C13 C10 122.9(5) . . ?
N3 C13 S1 113.5(4) . . ?
C10 C13 S1 123.5(4) . . ?
N4 C14 C15 122.2(5) . . ?
N4 C14 S1 114.3(4) . . ?
C15 C14 S1 123.5(4) . . ?
C16 C15 C19 118.1(5) . . ?
C16 C15 C14 123.0(5) . . ?
C19 C15 C14 118.9(5) . . ?
C15 C16 C17 118.7(6) . . ?
C15 C16 H16 120.7 . . ?
C17 C16 H16 120.7 . . ?
N5 C17 C16 124.4(6) . . ?
N5 C17 H17 117.8 . . ?
C16 C17 H17 117.8 . . ?
N5 C18 C19 124.0(6) . . ?
N5 C18 H18 118.0 . . ?
C19 C18 H18 118.0 . . ?
C18 C19 C15 118.3(6) . . ?
C18 C19 H19 120.8 . . ?
C15 C19 H19 120.8 . . ?
Cl1 C20 Cl2 109.4(5) . . ?
Cl1 C20 Cl3 112.6(6) . . ?
Cl2 C20 Cl3 110.7(5) . . ?
Cl1 C20 H20 108.0 . . ?
Cl2 C20 H20 108.0 . . ?
Cl3 C20 H20 108.0 . . ?
Cl5 C21 Cl6 113.6(7) . . ?
Cl5 C21 Cl4 114.5(6) . . ?
Cl6 C21 Cl4 112.5(5) . . ?
Cl5 C21 H21 105.0 . . ?
Cl6 C21 H21 105.0 . . ?
Cl4 C21 H21 105.0 . . ?

loop_
_geom_torsion_atom_site_label_1
_geom_torsion_atom_site_label_2
_geom_torsion_atom_site_label_3
_geom_torsion_atom_site_label_4
_geom_torsion
_geom_torsion_site_symmetry_1
_geom_torsion_site_symmetry_2
_geom_torsion_site_symmetry_3
_geom_torsion_site_symmetry_4
_geom_torsion_publ_flag
O4 Cu1 N1 C2 18.2(12) 8_765 . . . ?
O1 Cu1 N1 C2 -179.8(4) . . . . ?
N5 Cu1 N1 C2 -88.5(4) 2_674 . . . ?
N2 Cu1 N1 C2 88.8(4) . . . . ?
O3 Cu1 N1 C2 -1.4(4) . . . . ?
O4 Cu1 N1 C6 -158.2(8) 8_765 . . . ?
O1 Cu1 N1 C6 3.8(4) . . . . ?
N5 Cu1 N1 C6 95.1(4) 2_674 . . . ?
N2 Cu1 N1 C6 -87.6(4) . . . . ?
O3 Cu1 N1 C6 -177.8(4) . . . . ?
O4 Cu1 N2 C12 69.8(5) 8_765 . . . ?
N1 Cu1 N2 C12 -100.7(5) . . . . ?
O1 Cu1 N2 C12 -176.4(5) . . . . ?
N5 Cu1 N2 C12 64.1(12) 2_674 . . . ?
O3 Cu1 N2 C12 -27.0(5) . . . . ?
O4 Cu1 N2 C8 -96.5(5) 8_765 . . . ?
N1 Cu1 N2 C8 93.0(5) . . . . ?
O1 Cu1 N2 C8 17.3(5) . . . . ?
N5 Cu1 N2 C8 -102.1(11) 2_674 . . . ?
O3 Cu1 N2 C8 166.8(5) . . . . ?
C13 N3 N4 C14 1.0(7) . . . . ?
O4 Cu1 O3 C1 178.0(3) 8_765 . . . ?
N1 Cu1 O3 C1 -5.4(3) . . . . ?
O1 Cu1 O3 C1 -2.3(5) . . . . ?
N5 Cu1 O3 C1 91.2(3) 2_674 . . . ?
N2 Cu1 O3 C1 -99.2(4) . . . . ?
O4 Cu1 O1 C7 176.1(4) 8_765 . . . ?
N1 Cu1 O1 C7 -0.5(4) . . . . ?
N5 Cu1 O1 C7 -96.0(4) 2_674 . . . ?
N2 Cu1 O1 C7 93.1(4) . . . . ?
O3 Cu1 O1 C7 -3.5(5) . . . . ?
Cu1 O4 C1 O3 -2.6(9) 