####################################################################### 
# 
# This file contains crystal structure data downloaded from the 
# Cambridge Structural Database (CSD) hosted by the Cambridge 
# Crystallographic Data Centre (CCDC).
# 
# Full information about CCDC data access policies and citation 
# guidelines are available at http://www.ccdc.cam.ac.uk/access/V1 
# 
# Audit and citation data items may have been added by the CCDC. 
# Please retain this information to preserve the provenance of 
# this file and to allow appropriate attribution of the data. 
# 
#######################################################################

data_e:\doktor~1.201\lnht-p~1\lnck3p~1\scxrd\final\nd021_0m
_audit_block_doi                 10.5517/cc12m843
_database_code_depnum_ccdc_archive 'CCDC 1001614'
loop_
_citation_id
_citation_doi
_citation_year
1 10.3390/molecules200712125 2015
_audit_update_record             
;
2014-05-07 deposited with the CCDC.	2024-07-08 downloaded from the CCDC.
;

_audit_creation_method           SHELXL-97
_chemical_name_systematic        
; 
 catena-[bis-(m/-1,4-dipyridyl, 4,?4':2',?2'':4'',?4'''-?Quaterpyridine), 
 tetrakis-chloride, bis-m/chloride, Gadolinium (III)]1,4-dipyridyl solvate
;
_chemical_name_common            
; 
 [Gd2Cl6(bipy)2(qtpy)2] bipy
;
_chemical_melting_point          ?
_chemical_formula_moiety         'C30 H22 Cl3 Gd N6, (N1 C5 H4)'
_chemical_formula_sum            'C35 H26 Cl3 Gd N7'
_chemical_formula_weight         808.23

loop_
_atom_type_symbol
_atom_type_description
_atom_type_scat_dispersion_real
_atom_type_scat_dispersion_imag
_atom_type_scat_source
C C 0.0033 0.0016 'International Tables Vol C Tables 4.2.6.8 and 6.1.1.4'
H H 0.0000 0.0000 'International Tables Vol C Tables 4.2.6.8 and 6.1.1.4'
Cl Cl 0.1484 0.1585 'International Tables Vol C Tables 4.2.6.8 and 6.1.1.4'
Gd Gd -0.1653 3.9035 'International Tables Vol C Tables 4.2.6.8 and 6.1.1.4'
N N 0.0061 0.0033 'International Tables Vol C Tables 4.2.6.8 and 6.1.1.4'

_symmetry_cell_setting           monoclinic
_symmetry_space_group_name_H-M   C2/m

loop_
_symmetry_equiv_pos_as_xyz
'x, y, z'
'-x, y, -z'
'x+1/2, y+1/2, z'
'-x+1/2, y+1/2, -z'
'-x, -y, -z'
'x, -y, z'
'-x+1/2, -y+1/2, -z'
'x+1/2, -y+1/2, z'

_cell_length_a                   11.7753(13)
_cell_length_b                   23.517(2)
_cell_length_c                   16.8723(19)
_cell_angle_alpha                90.00
_cell_angle_beta                 107.710(3)
_cell_angle_gamma                90.00
_cell_volume                     4450.8(8)
_cell_formula_units_Z            4
_cell_measurement_temperature    173(2)
_cell_measurement_reflns_used    999
_cell_measurement_theta_min      2.54
_cell_measurement_theta_max      60.18

_exptl_crystal_description       block
_exptl_crystal_colour            yellow
_exptl_crystal_size_max          0.06
_exptl_crystal_size_mid          0.05
_exptl_crystal_size_min          0.04
_exptl_crystal_density_meas      ?
_exptl_crystal_density_diffrn    1.206
_exptl_crystal_density_method    'not measured'
_exptl_crystal_F_000             1600
_exptl_absorpt_coefficient_mu    1.698
_exptl_absorpt_correction_type   multi-scan
_exptl_absorpt_correction_T_min  0.9050
_exptl_absorpt_correction_T_max  0.9352
_exptl_absorpt_process_details   'Bruker SASABS (2011)'

_exptl_special_details           
; 
 ? 
;

_diffrn_ambient_temperature      173(2)
_diffrn_radiation_wavelength     0.71073
_diffrn_radiation_type           MoK\a
_diffrn_radiation_source         rotating-anode
_diffrn_radiation_monochromator  Helios-mirror
_diffrn_measurement_device_type  'BRUKER APEX2'
_diffrn_measurement_method       'omega, phi, kappa scans'
_diffrn_detector_area_resol_mean ?
_diffrn_reflns_number            33891
_diffrn_reflns_av_R_equivalents  0.2972
_diffrn_reflns_av_sigmaI/netI    0.3303
_diffrn_reflns_limit_h_min       -15
_diffrn_reflns_limit_h_max       16
_diffrn_reflns_limit_k_min       -32
_diffrn_reflns_limit_k_max       32
_diffrn_reflns_limit_l_min       -23
_diffrn_reflns_limit_l_max       22
_diffrn_reflns_theta_min         1.27
_diffrn_reflns_theta_max         30.09
_reflns_number_total             6484
_reflns_number_gt                2401
_reflns_threshold_expression     >2sigma(I)

_computing_data_collection       'BRUKER Apex2 Suite Software'
_computing_cell_refinement       'BRUKER Apex2 Suite Software'
_computing_data_reduction        'BRUKER Apex2 Suite Software'
_computing_structure_solution    'SHELXS-97 (Sheldrick, 2008)'
_computing_structure_refinement  'SHELXL-97 (Sheldrick, 2008)'
_computing_molecular_graphics    POVRAY
_computing_publication_material  ?

_refine_special_details          
; 
 Refinement of F^2^ against ALL reflections.  The weighted R-factor wR and 
 goodness of fit S are based on F^2^, conventional R-factors R are based 
 on F, with F set to zero for negative F^2^. The threshold expression of 
 F^2^ > 2sigma(F^2^) is used only for calculating R-factors(gt) etc. and is 
 not relevant to the choice of reflections for refinement.  R-factors based 
 on F^2^ are statistically about twice as large as those based on F, and R- 
 factors based on ALL data will be even larger. 
;

_refine_ls_structure_factor_coef Fsqd
_refine_ls_matrix_type           full
_refine_ls_weighting_scheme      calc
_refine_ls_weighting_details     
'calc w=1/[\s^2^(Fo^2^)+(0.1774P)^2^+0.0000P] where P=(Fo^2^+2Fc^2^)/3'
_atom_sites_solution_primary     direct
_atom_sites_solution_secondary   difmap
_atom_sites_solution_hydrogens   geom
_refine_ls_hydrogen_treatment    constr
_refine_ls_extinction_method     none
_refine_ls_extinction_coef       ?
_refine_ls_number_reflns         6484
_refine_ls_number_parameters     225
_refine_ls_number_restraints     0
_refine_ls_R_factor_all          0.3063
_refine_ls_R_factor_gt           0.1241
_refine_ls_wR_factor_ref         0.3879
_refine_ls_wR_factor_gt          0.3038
_refine_ls_goodness_of_fit_ref   1.083
_refine_ls_restrained_S_all      1.083
_refine_ls_shift/su_max          0.004
_refine_ls_shift/su_mean         0.000

loop_
_atom_site_label
_atom_site_type_symbol
_atom_site_fract_x
_atom_site_fract_y
_atom_site_fract_z
_atom_site_U_iso_or_equiv
_atom_site_adp_type
_atom_site_occupancy
_atom_site_symmetry_multiplicity
_atom_site_calc_flag
_atom_site_refinement_flags
_atom_site_disorder_assembly
_atom_site_disorder_group
Gd1 Gd 0.56547(10) 0.5000 0.13991(7) 0.0465(4) Uani 1 2 d S . .
Cl1 Cl 0.5000 0.5705(2) 0.0000 0.0491(13) Uani 1 2 d S . .
Cl2 Cl 0.6874(4) 0.4093(2) 0.2135(3) 0.0580(11) Uani 1 1 d . . .
N3 N 0.3848(11) 0.5561(6) 0.1491(8) 0.047(3) Uani 1 1 d . . .
N1 N 0.7558(15) 0.5000 0.0845(11) 0.048(5) Uani 1 2 d S . .
C4 C 0.2106(14) 0.5646(8) 0.1912(9) 0.050(4) Uani 1 1 d . . .
H2 H 0.1499 0.5462 0.2082 0.060 Uiso 1 1 calc R . .
C16 C 0.5091(19) 0.5000 0.4574(12) 0.049(6) Uani 1 2 d S . .
C11 C 0.8045(14) 0.5476(8) 0.0679(10) 0.053(4) Uani 1 1 d . . .
H4 H 0.7734 0.5830 0.0789 0.064 Uiso 1 1 calc R . .
C2 C 0.3030(14) 0.6471(7) 0.1628(10) 0.054(4) Uani 1 1 d . . .
H5 H 0.3089 0.6873 0.1590 0.065 Uiso 1 1 calc R . .
C12 C 0.8978(14) 0.5476(8) 0.0356(11) 0.060(5) Uani 1 1 d . . .
H9 H 0.9288 0.5832 0.0255 0.072 Uiso 1 1 calc R . .
C5 C 0.2964(13) 0.4677(7) 0.1703(8) 0.041(4) Uani 1 1 d . . .
C7 C 0.1251(18) 0.6612(9) 0.2078(13) 0.079(6) Uani 1 1 d . . .
C15 C 0.5206(18) 0.5490(8) 0.4168(11) 0.068(5) Uani 1 1 d . . .
H15 H 0.5162 0.5847 0.4421 0.081 Uiso 1 1 calc R . .
C13 C 0.9483(17) 0.5000 0.0172(12) 0.040(5) Uani 1 2 d S . .
C14 C 0.5385(17) 0.5474(8) 0.3400(10) 0.063(5) Uani 1 1 d . . .
H14 H 0.5446 0.5824 0.3137 0.075 Uiso 1 1 calc R . .
C8 C 0.141(2) 0.7213(9) 0.2208(15) 0.089(7) Uani 1 1 d . . .
H22 H 0.2131 0.7387 0.2192 0.107 Uiso 1 1 calc R . .
N4 N -0.0486(18) 0.7318(9) 0.2398(17) 0.119(8) Uani 1 1 d . . .
C9 C 0.056(2) 0.7524(10) 0.2349(16) 0.100(8) Uani 1 1 d . . .
H24 H 0.0699 0.7922 0.2420 0.120 Uiso 1 1 calc R . .
C10 C -0.064(2) 0.6787(11) 0.237(2) 0.142(13) Uani 1 1 d . . .
H25 H -0.1345 0.6640 0.2461 0.171 Uiso 1 1 calc R . .
C6 C 0.019(2) 0.6400(12) 0.221(2) 0.127(11) Uani 1 1 d . . .
H27 H 0.0042 0.6003 0.2200 0.152 Uiso 1 1 calc R . .
N2 N 0.5475(17) 0.5000 0.3008(11) 0.056(5) Uani 1 2 d S . .
C1 C 0.3839(15) 0.6126(8) 0.1437(11) 0.059(5) Uani 1 1 d . . .
H39 H 0.4440 0.6301 0.1251 0.071 Uiso 1 1 calc R . .
C3 C 0.2133(14) 0.6234(7) 0.1874(10) 0.049(4) Uani 1 1 d . . .
N5 N 0.0586(18) 0.5000 0.3063(12) 0.070(6) Uani 1 2 d S . .
C19 C 0.0125(19) 0.5000 0.4604(13) 0.061(7) Uani 1 2 d S . .
C17 C -0.047(2) 0.5000 0.3116(15) 0.084(10) Uani 1 2 d S . .
H17 H -0.1116 0.5000 0.2615 0.101 Uiso 1 2 calc SR . .
C18 C -0.073(2) 0.5000 0.3865(17) 0.087(11) Uani 1 2 d S . .
H18 H -0.1536 0.5000 0.3855 0.104 Uiso 1 2 calc SR . .
C20 C 0.128(3) 0.5000 0.455(2) 0.15(2) Uani 1 2 d S . .
H20 H 0.1947 0.5000 0.5041 0.179 Uiso 1 2 calc SR . .
C21 C 0.141(3) 0.5000 0.379(2) 0.33(6) Uani 1 2 d S . .
H21 H 0.2208 0.5000 0.3773 0.392 Uiso 1 2 calc SR . .

loop_
_atom_site_aniso_label
_atom_site_aniso_U_11
_atom_site_aniso_U_22
_atom_site_aniso_U_33
_atom_site_aniso_U_23
_atom_site_aniso_U_13
_atom_site_aniso_U_12
Gd1 0.0407(6) 0.0648(8) 0.0428(6) 0.000 0.0258(5) 0.000
Cl1 0.049(3) 0.060(4) 0.046(3) 0.000 0.025(2) 0.000
Cl2 0.053(2) 0.079(3) 0.050(2) 0.006(2) 0.0271(19) 0.011(2)
N3 0.051(8) 0.048(9) 0.055(8) 0.005(6) 0.035(6) -0.002(7)
N1 0.040(10) 0.062(13) 0.047(11) 0.000 0.021(9) 0.000
C4 0.053(9) 0.073(12) 0.033(8) 0.007(8) 0.026(7) 0.000(9)
C16 0.043(12) 0.073(17) 0.033(11) 0.000 0.013(10) 0.000
C11 0.054(10) 0.056(11) 0.063(11) -0.004(9) 0.038(9) -0.004(9)
C2 0.061(10) 0.046(10) 0.071(11) 0.001(8) 0.042(9) 0.002(8)
C12 0.051(10) 0.077(13) 0.064(11) -0.010(9) 0.035(9) -0.015(9)
C5 0.047(8) 0.056(9) 0.028(7) -0.008(6) 0.024(6) -0.005(7)
C7 0.080(14) 0.083(15) 0.094(15) 0.012(12) 0.055(12) 0.000(12)
C15 0.096(14) 0.069(12) 0.048(10) -0.022(9) 0.037(10) -0.030(11)
C13 0.029(10) 0.056(14) 0.037(11) 0.000 0.013(9) 0.000
C14 0.098(14) 0.061(11) 0.041(9) -0.012(8) 0.041(10) -0.026(11)
C8 0.088(15) 0.059(14) 0.13(2) 0.015(13) 0.052(14) 0.002(12)
N4 0.088(14) 0.074(14) 0.22(3) -0.006(15) 0.084(16) -0.003(12)
C9 0.092(16) 0.082(16) 0.15(2) 0.010(15) 0.070(16) 0.034(14)
C10 0.11(2) 0.078(19) 0.28(4) -0.07(2) 0.13(3) -0.023(16)
C6 0.078(16) 0.10(2) 0.23(3) -0.03(2) 0.09(2) -0.020(15)
N2 0.059(12) 0.077(15) 0.032(10) 0.000 0.016(9) 0.000
C1 0.061(11) 0.062(12) 0.066(11) 0.010(9) 0.037(9) -0.005(9)
C3 0.049(9) 0.048(10) 0.056(10) 0.004(8) 0.026(8) 0.012(8)
N5 0.048(12) 0.12(2) 0.047(12) 0.000 0.024(10) 0.000
C19 0.031(11) 0.12(2) 0.033(12) 0.000 0.010(10) 0.000
C17 0.050(15) 0.17(3) 0.034(13) 0.000 0.016(11) 0.000
C18 0.039(14) 0.18(3) 0.060(17) 0.000 0.037(13) 0.000
C20 0.035(15) 0.35(7) 0.06(2) 0.000 0.007(14) 0.000
C21 0.026(16) 0.91(19) 0.06(2) 0.000 0.029(17) 0.000

_geom_special_details            
; 
 All esds (except the esd in the dihedral angle between two l.s. planes) 
 are estimated using the full covariance matrix.  The cell esds are taken 
 into account individually in the estimation of esds in distances, angles 
 and torsion angles; correlations between esds in cell parameters are only 
 used when they are defined by crystal symmetry.  An approximate (isotropic) 
 treatment of cell esds is used for estimating esds involving l.s. planes. 
;

loop_
_geom_bond_atom_site_label_1
_geom_bond_atom_site_label_2
_geom_bond_distance
_geom_bond_site_symmetry_2
_geom_bond_publ_flag
Gd1 N3 2.548(12) 6_565 ?
Gd1 N3 2.548(12) . ?
Gd1 Cl2 2.658(4) . ?
Gd1 Cl2 2.658(4) 6_565 ?
Gd1 N1 2.678(17) . ?
Gd1 N2 2.786(17) . ?
Gd1 Cl1 2.794(4) . ?
Gd1 Cl1 2.794(4) 5_665 ?
Cl1 Gd1 2.794(4) 5_665 ?
N3 C5 1.323(17) 6_565 ?
N3 C1 1.33(2) . ?
N1 C11 1.326(18) . ?
N1 C11 1.326(18) 6_565 ?
C4 C3 1.39(2) . ?
C4 C5 1.39(2) 6_565 ?
C4 H2 0.9500 . ?
C16 C15 1.37(2) . ?
C16 C15 1.37(2) 6_565 ?
C16 C16 1.52(4) 5_666 ?
C11 C12 1.368(19) . ?
C11 H4 0.9500 . ?
C2 C1 1.36(2) . ?
C2 C3 1.37(2) . ?
C2 H5 0.9500 . ?
C12 C13 1.35(2) . ?
C12 H9 0.9500 . ?
C5 N3 1.323(17) 6_565 ?
C5 C4 1.39(2) 6_565 ?
C5 C5 1.52(3) 6_565 ?
C7 C6 1.43(3) . ?
C7 C8 1.43(3) . ?
C7 C3 1.48(2) . ?
C15 C14 1.38(2) . ?
C15 H15 0.9500 . ?
C13 C12 1.35(2) 6_565 ?
C13 C13 1.50(4) 5_765 ?
C14 N2 1.316(18) . ?
C14 H14 0.9500 . ?
C8 C9 1.32(3) . ?
C8 H22 0.9500 . ?
N4 C10 1.26(3) . ?
N4 C9 1.35(3) . ?
C9 H24 0.9500 . ?
C10 C6 1.42(3) . ?
C10 H25 0.9500 . ?
C6 H27 0.9500 . ?
N2 C14 1.316(18) 6_565 ?
C1 H39 0.9500 . ?
N5 C17 1.27(3) . ?
N5 C21 1.31(4) . ?
C19 C18 1.34(3) . ?
C19 C20 1.38(3) . ?
C19 C19 1.45(4) 5_566 ?
C17 C18 1.39(3) . ?
C17 H17 0.9500 . ?
C18 H18 0.9500 . ?
C20 C21 1.35(4) . ?
C20 H20 0.9500 . ?
C21 H21 0.9500 . ?

loop_
_geom_angle_atom_site_label_1
_geom_angle_atom_site_label_2
_geom_angle_atom_site_label_3
_geom_angle
_geom_angle_site_symmetry_1
_geom_angle_site_symmetry_3
_geom_angle_publ_flag
N3 Gd1 N3 62.3(6) 6_565 . ?
N3 Gd1 Cl2 84.2(3) 6_565 . ?
N3 Gd1 Cl2 136.8(3) . . ?
N3 Gd1 Cl2 136.8(3) 6_565 6_565 ?
N3 Gd1 Cl2 84.2(3) . 6_565 ?
Cl2 Gd1 Cl2 106.7(2) . 6_565 ?
N3 Gd1 N1 145.5(3) 6_565 . ?
N3 Gd1 N1 145.5(3) . . ?
Cl2 Gd1 N1 76.9(2) . . ?
Cl2 Gd1 N1 76.9(2) 6_565 . ?
N3 Gd1 N2 68.2(4) 6_565 . ?
N3 Gd1 N2 68.2(4) . . ?
Cl2 Gd1 N2 74.6(2) . . ?
Cl2 Gd1 N2 74.6(2) 6_565 . ?
N1 Gd1 N2 131.3(6) . . ?
N3 Gd1 Cl1 109.7(3) 6_565 . ?
N3 Gd1 Cl1 73.9(3) . . ?
Cl2 Gd1 Cl1 147.31(11) . . ?
Cl2 Gd1 Cl1 83.66(13) 6_565 . ?
N1 Gd1 Cl1 75.5(3) . . ?
N2 Gd1 Cl1 137.7(2) . . ?
N3 Gd1 Cl1 73.9(3) 6_565 5_665 ?
N3 Gd1 Cl1 109.7(3) . 5_665 ?
Cl2 Gd1 Cl1 83.66(13) . 5_665 ?
Cl2 Gd1 Cl1 147.31(11) 6_565 5_665 ?
N1 Gd1 Cl1 75.5(3) . 5_665 ?
N2 Gd1 Cl1 137.7(2) . 5_665 ?
Cl1 Gd1 Cl1 72.78(19) . 5_665 ?
Gd1 Cl1 Gd1 107.22(19) . 5_665 ?
C5 N3 C1 116.8(13) 6_565 . ?
C5 N3 Gd1 122.5(10) 6_565 . ?
C1 N3 Gd1 120.1(10) . . ?
C11 N1 C11 115.3(18) . 6_565 ?
C11 N1 Gd1 122.3(9) . . ?
C11 N1 Gd1 122.3(9) 6_565 . ?
C3 C4 C5 120.2(14) . 6_565 ?
C3 C4 H2 119.9 . . ?
C5 C4 H2 119.9 6_565 . ?
C15 C16 C15 115(2) . 6_565 ?
C15 C16 C16 122.6(10) . 5_666 ?
C15 C16 C16 122.6(10) 6_565 5_666 ?
N1 C11 C12 122.3(17) . . ?
N1 C11 H4 118.8 . . ?
C12 C11 H4 118.8 . . ?
C1 C2 C3 119.2(15) . . ?
C1 C2 H5 120.4 . . ?
C3 C2 H5 120.4 . . ?
C13 C12 C11 123.8(18) . . ?
C13 C12 H9 118.1 . . ?
C11 C12 H9 118.1 . . ?
N3 C5 C4 121.9(14) 6_565 6_565 ?
N3 C5 C5 115.0(9) 6_565 6_565 ?
C4 C5 C5 123.0(9) 6_565 6_565 ?
C6 C7 C8 114(2) . . ?
C6 C7 C3 122(2) . . ?
C8 C7 C3 123.8(18) . . ?
C16 C15 C14 121.1(18) . . ?
C16 C15 H15 119.5 . . ?
C14 C15 H15 119.5 . . ?
C12 C13 C12 112.4(19) . 6_565 ?
C12 C13 C13 123.8(9) . 5_765 ?
C12 C13 C13 123.8(9) 6_565 5_765 ?
N2 C14 C15 123.8(18) . . ?
N2 C14 H14 118.1 . . ?
C15 C14 H14 118.1 . . ?
C9 C8 C7 120(2) . . ?
C9 C8 H22 119.9 . . ?
C7 C8 H22 119.9 . . ?
C10 N4 C9 119(2) . . ?
C8 C9 N4 125(2) . . ?
C8 C9 H24 117.7 . . ?
N4 C9 H24 117.7 . . ?
N4 C10 C6 123(2) . . ?
N4 C10 H25 118.7 . . ?
C6 C10 H25 118.7 . . ?
C10 C6 C7 120(2) . . ?
C10 C6 H27 120.2 . . ?
C7 C6 H27 120.2 . . ?
C14 N2 C14 115.7(19) . 6_565 ?
C14 N2 Gd1 122.1(10) . . ?
C14 N2 Gd1 122.1(10) 6_565 . ?
N3 C1 C2 124.7(15) . . ?
N3 C1 H39 117.6 . . ?
C2 C1 H39 117.6 . . ?
C2 C3 C4 117.0(14) . . ?
C2 C3 C7 119.1(16) . . ?
C4 C3 C7 124.0(15) . . ?
C17 N5 C21 113(2) . . ?
C18 C19 C20 114(2) . . ?
C18 C19 C19 124(2) . 5_566 ?
C20 C19 C19 122(3) . 5_566 ?
N5 C17 C18 123(2) . . ?
N5 C17 H17 118.3 . . ?
C18 C17 H17 118.3 . . ?
C19 C18 C17 123(2) . . ?
C19 C18 H18 118.6 . . ?
C17 C18 H18 118.6 . . ?
C21 C20 C19 117(3) . . ?
C21 C20 H20 121.3 . . ?
C19 C20 H20 121.3 . . ?
N5 C21 C20 129(3) . . ?
N5 C21 H21 115.6 . . ?
C20 C21 H21 115.6 . . ?

loop_
_geom_torsion_atom_site_label_1
_geom_torsion_atom_site_label_2
_geom_torsion_atom_site_label_3
_geom_torsion_atom_site_label_4
_geom_torsion
_geom_torsion_site_symmetry_1
_geom_torsion_site_symmetry_2
_geom_torsion_site_symmetry_3
_geom_torsion_site_symmetry_4
_geom_torsion_publ_flag
N3 Gd1 Cl1 Gd1 -65.2(3) 6_565 . . 5_665 ?
N3 Gd1 Cl1 Gd1 -117.2(3) . . . 5_665 ?
Cl2 Gd1 Cl1 Gd1 45.8(2) . . . 5_665 ?
Cl2 Gd1 Cl1 Gd1 157.06(9) 6_565 . . 5_665 ?
N1 Gd1 Cl1 Gd1 79.0(2) . . . 5_665 ?
N2 Gd1 Cl1 Gd1 -144.2(5) . . . 5_665 ?
Cl1 Gd1 Cl1 Gd1 0.0 5_665 . . 5_665 ?
N3 Gd1 N3 C5 13.7(13) 6_565 . . 6_565 ?
Cl2 Gd1 N3 C5 -29.8(14) . . . 6_565 ?
Cl2 Gd1 N3 C5 -138.1(11) 6_565 . . 6_565 ?
N1 Gd1 N3 C5 165.4(10) . . . 6_565 ?
N2 Gd1 N3 C5 -62.3(11) . . . 6_565 ?
Cl1 Gd1 N3 C5 136.8(12) . . . 6_565 ?
Cl1 Gd1 N3 C5 72.3(11) 5_665 . . 6_565 ?
N3 Gd1 N3 C1 -175.7(11) 6_565 . . . ?
Cl2 Gd1 N3 C1 140.8(11) . . . . ?
Cl2 Gd1 N3 C1 32.5(12) 6_565 . . . ?
N1 Gd1 N3 C1 -24.0(16) . . . . ?
N2 Gd1 N3 C1 108.3(13) . . . . ?
Cl1 Gd1 N3 C1 -52.6(12) . . . . ?
Cl1 Gd1 N3 C1 -117.1(12) 5_665 . . . ?
N3 Gd1 N1 C11 154.5(12) 6_565 . . . ?
N3 Gd1 N1 C11 22.3(19) . . . . ?
Cl2 Gd1 N1 C11 -147.1(15) . . . . ?
Cl2 Gd1 N1 C11 -36.2(14) 6_565 . . . ?
N2 Gd1 N1 C11 -91.6(14) . . . . ?
Cl1 Gd1 N1 C11 50.6(14) . . . . ?
Cl1 Gd1 N1 C11 126.2(15) 5_665 . . . ?
N3 Gd1 N1 C11 -22.3(19) 6_565 . . 6_565 ?
N3 Gd1 N1 C11 -154.5(12) . . . 6_565 ?
Cl2 Gd1 N1 C11 36.2(14) . . . 6_565 ?
Cl2 Gd1 N1 C11 147.1(15) 6_565 . . 6_565 ?
N2 Gd1 N1 C11 91.6(14) . . . 6_565 ?
Cl1 Gd1 N1 C11 -126.2(15) . . . 6_565 ?
Cl1 Gd1 N1 C11 -50.6(14) 5_665 . . 6_565 ?
C11 N1 C11 C12 0(3) 6_565 . . . ?
Gd1 N1 C11 C12 -176.6(13) . . . . ?
N1 C11 C12 C13 0(3) . . . . ?
C15 C16 C15 C14 2(4) 6_565 . . . ?
C16 C16 C15 C14 179(2) 5_666 . . . ?
C11 C12 C13 C12 -1(3) . . . 6_565 ?
C11 C12 C13 C13 -179(2) . . . 5_765 ?
C16 C15 C14 N2 -1(3) . . . . ?
C6 C7 C8 C9 -7(4) . . . . ?
C3 C7 C8 C9 177(2) . . . . ?
C7 C8 C9 N4 1(4) . . . . ?
C10 N4 C9 C8 6(5) . . . . ?
C9 N4 C10 C6 -6(5) . . . . ?
N4 C10 C6 C7 0(6) . . . . ?
C8 C7 C6 C10 6(4) . . . . ?
C3 C7 C6 C10 -177(3) . . . . ?
C15 C14 N2 C14 0(4) . . . 6_565 ?
C15 C14 N2 Gd1 175.0(15) . . . . ?
N3 Gd1 N2 C14 -121.3(17) 6_565 . . . ?
N3 Gd1 N2 C14 -53.5(16) . . . . ?
Cl2 Gd1 N2 C14 148.9(17) . . . . ?
Cl2 Gd1 N2 C14 36.3(16) 6_565 . . . ?
N1 Gd1 N2 C14 92.6(16) . . . . ?
Cl1 Gd1 N2 C14 -25(2) . . . . ?
Cl1 Gd1 N2 C14 -149.3(13) 5_665 . . . ?
N3 Gd1 N2 C14 53.5(16) 6_565 . . 6_565 ?
N3 Gd1 N2 C14 