####################################################################### 
# 
# This file contains crystal structure data downloaded from the 
# Cambridge Structural Database (CSD) hosted by the Cambridge 
# Crystallographic Data Centre (CCDC).
# 
# Full information about CCDC data access policies and citation 
# guidelines are available at http://www.ccdc.cam.ac.uk/access/V1 
# 
# Audit and citation data items may have been added by the CCDC. 
# Please retain this information to preserve the provenance of 
# this file and to allow appropriate attribution of the data. 
# 
#######################################################################

data_Compound1
_audit_block_doi                 10.5517/cc149fvq
_database_code_depnum_ccdc_archive 'CCDC 1051763'
loop_
_citation_id
_citation_doi
_citation_year
1 10.1002/chem.201501614 2015
_audit_update_record             
;
2015-03-02 deposited with the CCDC.	2024-07-08 downloaded from the CCDC.
;

_audit_creation_method           SHELXL-97
_chemical_name_systematic        
;
 ?
;
_chemical_name_common            ?
_chemical_melting_point          ?
_chemical_formula_moiety         ?
_chemical_formula_sum            'C82 H54 Cd2 N10 O27'
_chemical_formula_weight         1836.15

loop_
_atom_type_symbol
_atom_type_description
_atom_type_scat_dispersion_real
_atom_type_scat_dispersion_imag
_atom_type_scat_source
C C 0.0033 0.0016 'International Tables Vol C Tables 4.2.6.8 and 6.1.1.4'
H H 0.0000 0.0000 'International Tables Vol C Tables 4.2.6.8 and 6.1.1.4'
N N 0.0061 0.0033 'International Tables Vol C Tables 4.2.6.8 and 6.1.1.4'
O O 0.0106 0.0060 'International Tables Vol C Tables 4.2.6.8 and 6.1.1.4'
Cd Cd -0.8075 1.2024 'International Tables Vol C Tables 4.2.6.8 and 6.1.1.4'

_symmetry_cell_setting           Monoclinic
_symmetry_space_group_name_H-M   P21/n

loop_
_symmetry_equiv_pos_as_xyz
'x, y, z'
'-x+1/2, y+1/2, -z+1/2'
'-x, -y, -z'
'x-1/2, -y-1/2, z-1/2'

_cell_length_a                   11.7797(6)
_cell_length_b                   29.1825(9)
_cell_length_c                   14.2285(6)
_cell_angle_alpha                90.00
_cell_angle_beta                 100.679(4)
_cell_angle_gamma                90.00
_cell_volume                     4806.5(4)
_cell_formula_units_Z            2
_cell_measurement_temperature    293(2)
_cell_measurement_reflns_used    ?
_cell_measurement_theta_min      ?
_cell_measurement_theta_max      ?

_exptl_crystal_description       'needle shaped'
_exptl_crystal_colour            'light brown'
_exptl_crystal_size_max          1
_exptl_crystal_size_mid          0.7
_exptl_crystal_size_min          0.5
_exptl_crystal_density_meas      ?
_exptl_crystal_density_diffrn    1.269
_exptl_crystal_density_method    'not measured'
_exptl_crystal_F_000             1856
_exptl_absorpt_coefficient_mu    0.516
_exptl_absorpt_correction_type   empirical
_exptl_absorpt_correction_T_min  0.9167
_exptl_absorpt_correction_T_max  0.9572
_exptl_absorpt_process_details   SADABS

_exptl_special_details           
;
 ?
;

_diffrn_ambient_temperature      293(2)
_diffrn_radiation_wavelength     0.71073
_diffrn_radiation_type           MoK\a
_diffrn_radiation_source         'fine-focus sealed tube'
_diffrn_radiation_monochromator  graphite
_diffrn_measurement_device_type  ?
_diffrn_measurement_method       ?
_diffrn_detector_area_resol_mean ?
_diffrn_standards_number         ?
_diffrn_standards_interval_count ?
_diffrn_standards_interval_time  ?
_diffrn_standards_decay_%        ?
_diffrn_reflns_number            50585
_diffrn_reflns_av_R_equivalents  0.1018
_diffrn_reflns_av_sigmaI/netI    0.1131
_diffrn_reflns_limit_h_min       -14
_diffrn_reflns_limit_h_max       14
_diffrn_reflns_limit_k_min       -35
_diffrn_reflns_limit_k_max       35
_diffrn_reflns_limit_l_min       -17
_diffrn_reflns_limit_l_max       15
_diffrn_reflns_theta_min         2.48
_diffrn_reflns_theta_max         26.00
_reflns_number_total             9453
_reflns_number_gt                5383
_reflns_threshold_expression     >2\s(I)

_computing_data_collection       'Bruker APEX2'
_computing_cell_refinement       'Bruker sAINT'
_computing_data_reduction        'BRUKER SAINT A'
_computing_structure_solution    'SHELXS-97 (Sheldrick, 2008)'
_computing_structure_refinement  'SHELXL-97 (Sheldrick, 1997)'
_computing_molecular_graphics    'Bruker SHELXTL'
_computing_publication_material  'Bruker SHELXTL'

_refine_special_details          
;
 Refinement of F^2^ against ALL reflections.  The weighted R-factor wR and
 goodness of fit S are based on F^2^, conventional R-factors R are based
 on F, with F set to zero for negative F^2^. The threshold expression of
 F^2^ > 2\s(F^2^) is used only for calculating R-factors(gt) etc. and is
 not relevant to the choice of reflections for refinement.  R-factors based
 on F^2^ are statistically about twice as large as those based on F, and R-
 factors based on ALL data will be even larger.
;

_refine_ls_structure_factor_coef Fsqd
_refine_ls_matrix_type           full
_refine_ls_weighting_scheme      calc
_refine_ls_weighting_details     
'calc w=1/[\s^2^(Fo^2^)+(0.1214P)^2^+0.0000P] where P=(Fo^2^+2Fc^2^)/3'
_atom_sites_solution_primary     direct
_atom_sites_solution_secondary   difmap
_atom_sites_solution_hydrogens   geom
_refine_ls_hydrogen_treatment    mixed
_refine_ls_extinction_method     none
_refine_ls_extinction_coef       ?
_refine_ls_number_reflns         9453
_refine_ls_number_parameters     509
_refine_ls_number_restraints     2
_refine_ls_R_factor_all          0.1301
_refine_ls_R_factor_gt           0.0667
_refine_ls_wR_factor_ref         0.2156
_refine_ls_wR_factor_gt          0.1984
_refine_ls_goodness_of_fit_ref   0.996
_refine_ls_restrained_S_all      0.996
_refine_ls_shift/su_max          0.000
_refine_ls_shift/su_mean         0.000

loop_
_atom_site_label
_atom_site_type_symbol
_atom_site_fract_x
_atom_site_fract_y
_atom_site_fract_z
_atom_site_U_iso_or_equiv
_atom_site_adp_type
_atom_site_occupancy
_atom_site_symmetry_multiplicity
_atom_site_calc_flag
_atom_site_refinement_flags
_atom_site_disorder_assembly
_atom_site_disorder_group
C1 C 0.3334(6) 0.1259(2) -0.1683(5) 0.0384(16) Uani 1 1 d . . .
C40 C -0.5637(16) -0.0959(6) 0.6141(13) 0.163(7) Uiso 1 1 d . . .
H40 H -0.5906 -0.0981 0.6714 0.196 Uiso 1 1 calc R . .
C2 C 0.3054(7) 0.1731(2) -0.2080(6) 0.055(2) Uani 1 1 d . . .
C39 C -0.4326(18) -0.1323(8) 0.5052(13) 0.269(11) Uiso 1 1 d D . .
H39A H -0.3930 -0.1610 0.5037 0.403 Uiso 1 1 calc R . .
H39B H -0.3776 -0.1077 0.5125 0.403 Uiso 1 1 calc R . .
H39C H -0.4871 -0.1284 0.4466 0.403 Uiso 1 1 calc R . .
C3 C 0.3617(11) 0.2101(3) -0.1633(8) 0.121(5) Uani 1 1 d . . .
H3 H 0.4192 0.2060 -0.1096 0.145 Uiso 1 1 calc R . .
C41 C -0.498(2) -0.1793(6) 0.6518(17) 0.330(15) Uiso 1 1 d D . .
H41A H -0.4485 -0.2007 0.6277 0.494 Uiso 1 1 calc R . .
H41B H -0.5749 -0.1916 0.6434 0.494 Uiso 1 1 calc R . .
H41C H -0.4695 -0.1740 0.7185 0.494 Uiso 1 1 calc R . .
C4 C 0.2225(8) 0.1817(3) -0.2867(7) 0.080(3) Uani 1 1 d . . .
H4 H 0.1800 0.1573 -0.3168 0.096 Uiso 1 1 calc R . .
C5 C 0.3332(11) 0.2538(3) -0.1981(9) 0.133(6) Uani 1 1 d . . .
H5 H 0.3684 0.2789 -0.1641 0.159 Uiso 1 1 calc R . .
C6 C 0.1994(8) 0.2247(3) -0.3230(7) 0.087(3) Uani 1 1 d . . .
H6 H 0.1440 0.2286 -0.3782 0.104 Uiso 1 1 calc R . .
C7 C 0.2548(8) 0.2615(2) -0.2808(6) 0.069(3) Uani 1 1 d . . .
C8 C 0.2311(7) 0.3096(2) -0.3147(6) 0.062(2) Uani 1 1 d . . .
C9 C 0.2969(11) 0.3455(3) -0.2745(10) 0.163(7) Uani 1 1 d . . .
H9 H 0.3596 0.3400 -0.2256 0.195 Uiso 1 1 calc R . .
C10 C 0.1358(8) 0.3203(3) -0.3844(6) 0.075(3) Uani 1 1 d . . .
H10 H 0.0891 0.2968 -0.4140 0.090 Uiso 1 1 calc R . .
C11 C 0.2716(10) 0.3905(3) -0.3055(9) 0.143(6) Uani 1 1 d . . .
H11 H 0.3217 0.4139 -0.2802 0.172 Uiso 1 1 calc R . .
C12 C 0.1088(7) 0.3657(2) -0.4109(5) 0.063(2) Uani 1 1 d . . .
H12 H 0.0432 0.3719 -0.4566 0.076 Uiso 1 1 calc R . .
C13 C 0.1766(6) 0.4012(2) -0.3711(5) 0.0410(17) Uani 1 1 d . . .
C14 C 0.1483(6) 0.4500(2) -0.3933(5) 0.0313(15) Uani 1 1 d . . .
C15 C 0.1712(7) 0.0458(3) 0.0066(5) 0.053(2) Uani 1 1 d . . .
H15 H 0.1397 0.0408 -0.0575 0.064 Uiso 1 1 calc R . .
C16 C 0.3288(6) 0.0592(2) 0.1219(5) 0.0413(17) Uani 1 1 d . . .
H16 H 0.4081 0.0640 0.1388 0.050 Uiso 1 1 calc R . .
C17 C 0.0977(6) 0.0474(3) 0.0712(5) 0.053(2) Uani 1 1 d . . .
H17 H 0.0184 0.0440 0.0515 0.064 Uiso 1 1 calc R . .
C18 C 0.2643(6) 0.0611(2) 0.1922(5) 0.0413(17) Uani 1 1 d . . .
H18 H 0.2983 0.0668 0.2554 0.050 Uiso 1 1 calc R . .
C19 C 0.1455(7) 0.0543(2) 0.1657(5) 0.0428(18) Uani 1 1 d . . .
C20 C 0.0771(6) 0.0924(2) 0.2978(5) 0.0469(18) Uani 1 1 d . . .
C21 C 0.0143(6) 0.0127(2) 0.2480(5) 0.0395(16) Uani 1 1 d . . .
C22 C -0.0528(6) 0.0113(2) 0.3263(4) 0.0346(15) Uani 1 1 d . . .
C23 C 0.0125(6) 0.0893(2) 0.3784(5) 0.0419(17) Uani 1 1 d . . .
C24 C -0.0507(6) 0.0491(2) 0.3881(5) 0.0365(16) Uani 1 1 d . . .
C25 C -0.1157(6) -0.0271(2) 0.3384(5) 0.0402(17) Uani 1 1 d . . .
H25 H -0.1168 -0.0518 0.2969 0.048 Uiso 1 1 calc R . .
C26 C 0.0115(7) 0.1252(2) 0.4376(5) 0.051(2) Uani 1 1 d . . .
H26 H 0.0561 0.1510 0.4317 0.062 Uiso 1 1 calc R . .
C27 C -0.1777(6) -0.0294(2) 0.4124(5) 0.0408(17) Uani 1 1 d . . .
H27 H -0.2194 -0.0558 0.4201 0.049 Uiso 1 1 calc R . .
C28 C -0.0575(7) 0.1234(2) 0.5085(5) 0.049(2) Uani 1 1 d . . .
H28 H -0.0610 0.1489 0.5470 0.059 Uiso 1 1 calc R . .
C29 C -0.1785(6) 0.0065(2) 0.4741(5) 0.0383(16) Uani 1 1 d . . .
C30 C -0.1187(6) 0.0856(2) 0.5220(5) 0.0411(17) Uani 1 1 d . . .
C31 C -0.1159(6) 0.0474(2) 0.4612(5) 0.0351(15) Uani 1 1 d . . .
C32 C -0.2405(6) 0.0033(3) 0.5554(5) 0.0449(18) Uani 1 1 d . . .
C33 C -0.1930(7) 0.0849(3) 0.5946(5) 0.051(2) Uani 1 1 d . . .
C34 C -0.3226(6) 0.0417(2) 0.6780(5) 0.0416(17) Uani 1 1 d . . .
C35 C -0.4334(7) 0.0277(3) 0.6522(5) 0.054(2) Uani 1 1 d . . .
H35 H -0.4620 0.0188 0.5895 0.065 Uiso 1 1 calc R . .
C36 C -0.2849(7) 0.0545(2) 0.7709(5) 0.0472(19) Uani 1 1 d . . .
H36 H -0.2086 0.0635 0.7917 0.057 Uiso 1 1 calc R . .
C37 C -0.5030(7) 0.0267(3) 0.7192(5) 0.0503(19) Uani 1 1 d . . .
H37 H -0.5785 0.0164 0.7003 0.060 Uiso 1 1 calc R . .
C38 C -0.3610(7) 0.0541(2) 0.8331(5) 0.0452(18) Uani 1 1 d . . .
H38 H -0.3355 0.0645 0.8953 0.054 Uiso 1 1 calc R . .
N1 N 0.2847(5) 0.05106(16) 0.0309(4) 0.0367(13) Uani 1 1 d . . .
N5 N -0.5004(12) -0.1320(5) 0.5945(10) 0.169(5) Uiso 1 1 d D . .
N2 N 0.0750(5) 0.05334(18) 0.2388(4) 0.0397(14) Uani 1 1 d . . .
N3 N -0.2469(5) 0.04298(19) 0.6100(4) 0.0445(15) Uani 1 1 d . . .
N4 N -0.4699(5) 0.03960(16) 0.8086(4) 0.0386(13) Uani 1 1 d . . .
O1 O 0.2787(5) 0.09250(15) -0.2059(4) 0.0614(15) Uani 1 1 d . . .
O9 O -0.5902(8) -0.0624(4) 0.5710(7) 0.141(3) Uani 1 1 d . . .
O2 O 0.4130(5) 0.12285(15) -0.0964(4) 0.0599(15) Uani 1 1 d . . .
O3 O 0.0618(4) 0.45949(14) -0.4576(3) 0.0400(11) Uani 1 1 d . . .
O2W O 0.128(3) 0.2277(10) 0.430(2) 0.508(17) Uiso 1 1 d . . .
O4 O 0.2091(5) 0.48054(14) -0.3491(3) 0.0526(14) Uani 1 1 d . . .
O3W O -0.565(4) 0.3422(13) 0.419(3) 0.63(2) Uiso 1 1 d . . .
O5 O 0.0186(4) -0.01891(17) 0.1963(3) 0.0511(13) Uani 1 1 d . . .
O6 O 0.1287(5) 0.12610(18) 0.2824(4) 0.0687(17) Uani 1 1 d . . .
O7 O -0.2079(6) 0.11783(18) 0.6403(4) 0.083(2) Uani 1 1 d . . .
O8 O -0.2824(5) -0.03227(17) 0.5762(4) 0.0606(16) Uani 1 1 d . . .
Cd1 Cd 0.40048(4) 0.043765(14) -0.08574(3) 0.03018(18) Uani 1 1 d . . .
O1W O -0.115(3) 0.2375(9) 0.5878(19) 0.429(13) Uiso 1 1 d . A 1
O4W O -0.342(3) 0.3259(12) 0.529(2) 0.271(15) Uiso 0.50 1 d P B 2
O4WA O -0.255(4) 0.3022(13) 0.589(3) 0.293(16) Uiso 0.50 1 d P B 2
O5W O -0.307(4) 0.2199(16) 0.781(3) 0.40(2) Uiso 0.50 1 d P . .

loop_
_atom_site_aniso_label
_atom_site_aniso_U_11
_atom_site_aniso_U_22
_atom_site_aniso_U_33
_atom_site_aniso_U_23
_atom_site_aniso_U_13
_atom_site_aniso_U_12
C1 0.047(4) 0.020(3) 0.046(4) 0.008(3) 0.002(4) 0.003(3)
C2 0.063(5) 0.027(4) 0.066(5) 0.009(3) -0.012(4) -0.002(4)
C3 0.151(11) 0.025(5) 0.145(10) 0.018(5) -0.077(8) -0.013(5)
C4 0.095(7) 0.028(4) 0.093(7) 0.002(4) -0.042(6) -0.013(4)
C5 0.161(12) 0.034(5) 0.157(10) 0.016(6) -0.089(9) -0.010(6)
C6 0.102(8) 0.031(4) 0.098(7) 0.013(4) -0.055(6) 0.003(5)
C7 0.080(7) 0.024(4) 0.087(6) 0.011(4) -0.028(5) 0.001(4)
C8 0.076(6) 0.024(4) 0.073(6) 0.015(4) -0.022(5) 0.003(4)
C9 0.165(12) 0.030(5) 0.220(14) 0.034(6) -0.152(11) -0.022(6)
C10 0.081(6) 0.029(4) 0.092(7) 0.005(4) -0.043(5) -0.009(4)
C11 0.143(10) 0.020(4) 0.206(13) 0.014(6) -0.128(10) -0.013(5)
C12 0.075(6) 0.025(3) 0.069(5) 0.005(4) -0.041(4) 0.007(4)
C13 0.050(5) 0.019(3) 0.048(4) 0.003(3) -0.008(3) -0.006(3)
C14 0.038(4) 0.026(3) 0.031(4) 0.003(3) 0.008(3) 0.001(3)
C15 0.049(5) 0.078(6) 0.030(4) 0.000(4) 0.002(4) -0.007(4)
C16 0.041(4) 0.041(4) 0.046(5) 0.002(3) 0.017(4) 0.008(3)
C17 0.034(4) 0.088(6) 0.038(5) -0.005(4) 0.008(4) -0.007(4)
C18 0.048(5) 0.045(4) 0.031(4) 0.001(3) 0.011(3) 0.001(3)
C19 0.047(5) 0.041(4) 0.043(5) 0.000(3) 0.016(4) 0.000(3)
C20 0.044(5) 0.044(4) 0.057(5) 0.008(4) 0.021(4) -0.001(4)
C21 0.034(4) 0.045(4) 0.038(4) -0.007(3) 0.004(3) 0.004(3)
C22 0.029(4) 0.044(4) 0.031(4) -0.001(3) 0.006(3) 0.004(3)
C23 0.041(4) 0.042(4) 0.045(4) 0.000(3) 0.015(4) 0.000(3)
C24 0.034(4) 0.041(4) 0.035(4) 0.003(3) 0.008(3) 0.000(3)
C25 0.034(4) 0.047(4) 0.037(4) -0.007(3) 0.001(3) -0.004(3)
C26 0.064(5) 0.040(4) 0.055(5) -0.005(4) 0.023(4) -0.013(4)
C27 0.037(4) 0.046(4) 0.040(4) 0.001(3) 0.007(3) -0.008(3)
C28 0.068(5) 0.035(4) 0.052(5) -0.013(3) 0.030(4) -0.003(4)
C29 0.033(4) 0.044(4) 0.037(4) -0.002(3) 0.004(3) -0.003(3)
C30 0.046(5) 0.042(4) 0.039(4) 0.000(3) 0.017(3) 0.001(3)
C31 0.034(4) 0.038(4) 0.035(4) -0.001(3) 0.008(3) 0.004(3)
C32 0.040(5) 0.054(5) 0.043(5) 0.001(3) 0.015(4) -0.002(4)
C33 0.058(5) 0.051(5) 0.052(5) -0.003(4) 0.029(4) -0.005(4)
C34 0.048(5) 0.044(4) 0.037(4) -0.003(3) 0.018(3) 0.002(4)
C35 0.060(6) 0.075(5) 0.029(4) -0.008(4) 0.014(4) 0.004(4)
C36 0.040(4) 0.052(4) 0.055(5) 0.000(3) 0.022(4) -0.004(3)
C37 0.045(5) 0.069(5) 0.039(5) 0.006(4) 0.014(4) 0.006(4)
C38 0.053(5) 0.049(4) 0.036(4) -0.006(3) 0.014(4) -0.003(4)
N1 0.046(4) 0.032(3) 0.034(3) -0.003(2) 0.011(3) 0.000(3)
N2 0.044(4) 0.045(3) 0.034(3) -0.003(2) 0.017(3) -0.002(3)
N3 0.051(4) 0.050(3) 0.038(3) -0.008(3) 0.022(3) -0.006(3)
N4 0.041(4) 0.026(3) 0.051(4) -0.004(3) 0.015(3) 0.005(3)
O1 0.070(4) 0.025(2) 0.078(4) 0.008(3) -0.015(3) -0.003(3)
O9 0.104(7) 0.166(9) 0.144(8) 0.002(7) 0.001(6) 0.023(6)
O2 0.082(4) 0.026(2) 0.063(4) 0.009(2) -0.011(3) 0.001(3)
O3 0.045(3) 0.027(2) 0.045(3) 0.003(2) 0.004(2) 0.005(2)
O4 0.073(4) 0.018(2) 0.057(3) 0.005(2) -0.014(3) -0.006(2)
O5 0.057(3) 0.054(3) 0.048(3) -0.014(3) 0.023(3) -0.004(3)
O6 0.091(5) 0.050(3) 0.083(4) -0.002(3) 0.061(4) -0.009(3)
O7 0.137(6) 0.049(3) 0.088(5) -0.016(3) 0.083(5) -0.013(4)
O8 0.079(4) 0.048(3) 0.066(4) -0.004(3) 0.043(3) -0.015(3)
Cd1 0.0398(3) 0.0185(2) 0.0339(3) 0.0014(2) 0.0109(2) 0.0012(2)

_geom_special_details            
;
 All s.u.'s (except the s.u. in the dihedral angle between two l.s. planes)
 are estimated using the full covariance matrix.  The cell s.u.'s are taken
 into account individually in the estimation of s.u.'s in distances, angles
 and torsion angles; correlations between s.u.'s in cell parameters are only
 used when they are defined by crystal symmetry.  An approximate (isotropic)
 treatment of cell s.u.'s is used for estimating s.u.'s involving l.s. planes.
;

loop_
_geom_bond_atom_site_label_1
_geom_bond_atom_site_label_2
_geom_bond_distance
_geom_bond_site_symmetry_2
_geom_bond_publ_flag
C1 O1 1.234(8) . ?
C1 O2 1.256(8) . ?
C1 C2 1.503(9) . ?
C1 Cd1 2.720(6) . ?
C40 O9 1.163(17) . ?
C40 N5 1.351(18) . ?
C40 H40 0.9300 . ?
C2 C3 1.360(11) . ?
C2 C4 1.366(11) . ?
C39 N5 1.6200(10) . ?
C39 H39A 0.9600 . ?
C39 H39B 0.9600 . ?
C39 H39C 0.9600 . ?
C3 C5 1.388(11) . ?
C3 H3 0.9300 . ?
C41 N5 1.6002(10) . ?
C41 H41A 0.9600 . ?
C41 H41B 0.9600 . ?
C41 H41C 0.9600 . ?
C4 C6 1.365(10) . ?
C4 H4 0.9300 . ?
C5 C7 1.373(12) . ?
C5 H5 0.9300 . ?
C6 C7 1.338(11) . ?
C6 H6 0.9300 . ?
C7 C8 1.494(9) . ?
C8 C9 1.365(11) . ?
C8 C10 1.388(11) . ?
C9 C11 1.399(11) . ?
C9 H9 0.9300 . ?
C10 C12 1.400(10) . ?
C10 H10 0.9300 . ?
C11 C13 1.354(11) . ?
C11 H11 0.9300 . ?
C12 C13 1.364(9) . ?
C12 H12 0.9300 . ?
C13 C14 1.485(8) . ?
C14 O4 1.239(8) . ?
C14 O3 1.268(8) . ?
C15 N1 1.326(9) . ?
C15 C17 1.375(10) . ?
C15 H15 0.9300 . ?
C16 N1 1.325(8) . ?
C16 C18 1.365(9) . ?
C16 H16 0.9300 . ?
C17 C19 1.373(10) . ?
C17 H17 0.9300 . ?
C18 C19 1.395(10) . ?
C18 H18 0.9300 . ?
C19 N2 1.447(9) . ?
C20 O6 1.198(8) . ?
C20 N2 1.412(9) . ?
C20 C23 1.492(9) . ?
C21 O5 1.187(7) . ?
C21 N2 1.404(9) . ?
C21 C22 1.481(9) . ?
C22 C25 1.374(9) . ?
C22 C24 1.406(9) . ?
C23 C26 1.344(9) . ?
C23 C24 1.412(9) . ?
C24 C31 1.403(9) . ?
C25 C27 1.390(9) . ?
C25 H25 0.9300 . ?
C26 C28 1.409(9) . ?
C26 H26 0.9300 . ?
C27 C29 1.369(9) . ?
C27 H27 0.9300 . ?
C28 C30 1.351(9) . ?
C28 H28 0.9300 . ?
C29 C31 1.431(9) . ?
C29 C32 1.482(9) . ?
C30 C31 1.416(9) . ?
C30 C33 1.473(9) . ?
C32 O8 1.209(8) . ?
C32 N3 1.404(8) . ?
C33 O7 1.192(8) . ?
C33 N3 1.413(9) . ?
C34 C35 1.352(10) . ?
C34 C36 1.367(10) . ?
C34 N3 1.432(8) . ?
C35 C37 1.368(10) . ?
C35 H35 0.9300 . ?
C36 C38 1.371(9) . ?
C36 H36 0.9300 . ?
C37 N4 1.314(9) . ?
C37 H37 0.9300 . ?
C38 N4 1.334(9) . ?
C38 H38 0.9300 . ?
