####################################################################### 
# 
# This file contains crystal structure data downloaded from the 
# Cambridge Structural Database (CSD) hosted by the Cambridge 
# Crystallographic Data Centre (CCDC).
# 
# Full information about CCDC data access policies and citation 
# guidelines are available at http://www.ccdc.cam.ac.uk/access/V1 
# 
# Audit and citation data items may have been added by the CCDC. 
# Please retain this information to preserve the provenance of 
# this file and to allow appropriate attribution of the data. 
# 
#######################################################################

data_k08317
_audit_block_doi                 10.5517/cct4nyj
_database_code_depnum_ccdc_archive 'CCDC 749268'
loop_
_citation_id
_citation_doi
_citation_year
1 10.1080/00958972.2010.499456 2010
_audit_update_record             
;
2009-09-28 deposited with the CCDC.	2024-07-08 downloaded from the CCDC.
;

_audit_creation_method           SHELXL-97
_chemical_name_systematic        
;
?
;
_chemical_name_common            ?
_chemical_melting_point          ?
_chemical_formula_moiety         'C26 H38 N6 Ni O6, 3(H2 O)'
_chemical_formula_sum            'C26 H44 N6 Ni O9'
_chemical_formula_weight         643.38

loop_
_atom_type_symbol
_atom_type_description
_atom_type_scat_dispersion_real
_atom_type_scat_dispersion_imag
_atom_type_scat_source
C C 0.0033 0.0016 'International Tables Vol C Tables 4.2.6.8 and 6.1.1.4'
H H 0.0000 0.0000 'International Tables Vol C Tables 4.2.6.8 and 6.1.1.4'
N N 0.0061 0.0033 'International Tables Vol C Tables 4.2.6.8 and 6.1.1.4'
O O 0.0106 0.0060 'International Tables Vol C Tables 4.2.6.8 and 6.1.1.4'
Ni Ni 0.3393 1.1124 'International Tables Vol C Tables 4.2.6.8 and 6.1.1.4'

_symmetry_cell_setting           Monoclinic
_symmetry_space_group_name_H-M   'C 2/c'
_symmetry_space_group_name_Hall  '-C 2yc'

loop_
_symmetry_equiv_pos_as_xyz
'x, y, z'
'-x, y, -z+1/2'
'x+1/2, y+1/2, z'
'-x+1/2, y+1/2, -z+1/2'
'-x, -y, -z'
'x, -y, z-1/2'
'-x+1/2, -y+1/2, -z'
'x+1/2, -y+1/2, z-1/2'

_cell_length_a                   19.8112(12)
_cell_length_b                   17.5106(9)
_cell_length_c                   9.3803(6)
_cell_angle_alpha                90.00
_cell_angle_beta                 96.663(3)
_cell_angle_gamma                90.00
_cell_volume                     3232.1(3)
_cell_formula_units_Z            4
_cell_measurement_temperature    150(1)
_cell_measurement_reflns_used    7056
_cell_measurement_theta_min      2.6
_cell_measurement_theta_max      27.5

_exptl_crystal_description       block
_exptl_crystal_colour            pink
_exptl_crystal_size_max          0.34
_exptl_crystal_size_mid          0.21
_exptl_crystal_size_min          0.20
_exptl_crystal_density_meas      ?
_exptl_crystal_density_diffrn    1.322
_exptl_crystal_density_method    'not measured'
_exptl_crystal_F_000             1368
_exptl_absorpt_coefficient_mu    0.657
# Absorption correction

_exptl_absorpt_correction_type   multi-scan
_exptl_absorpt_correction_T_min  0.823
_exptl_absorpt_correction_T_max  0.881
_exptl_absorpt_process_details   
;
multi-scan from symmetry-related measurements
Sortav (Blessing 1995)
;


_exptl_special_details           
;
?
;

_diffrn_ambient_temperature      150(1)
_diffrn_radiation_wavelength     0.71073
_diffrn_radiation_type           MoK\a
_diffrn_radiation_source         'fine-focus sealed tube'
_diffrn_radiation_monochromator  graphite
_diffrn_measurement_device_type  'Nonius KappaCCD'
_diffrn_measurement_method       '\f scans and \w scans with \k offsets'
_diffrn_detector_area_resol_mean 9
_diffrn_standards_number         0
_diffrn_standards_interval_count ?
_diffrn_standards_interval_time  ?
_diffrn_standards_decay_%        ?
_diffrn_reflns_number            3657
_diffrn_reflns_av_R_equivalents  0.0000
_diffrn_reflns_av_sigmaI/netI    0.0656
_diffrn_reflns_limit_h_min       -25
_diffrn_reflns_limit_h_max       25
_diffrn_reflns_limit_k_min       0
_diffrn_reflns_limit_k_max       22
_diffrn_reflns_limit_l_min       0
_diffrn_reflns_limit_l_max       12
_diffrn_reflns_theta_min         2.58
_diffrn_reflns_theta_max         27.47
_reflns_number_total             3657
_reflns_number_gt                2386
_reflns_threshold_expression     I>2\s(I)

_computing_data_collection       'Collect (Nonius B.V., 1997-2002)'
_computing_cell_refinement       'Denzo-SMN (Otwinowski & Minor, 1997)'
_computing_data_reduction        Denzo-SMN
_computing_structure_solution    'SIR-92 (Altomare et al., 1994)'
_computing_structure_refinement  'SHELXTL V6.1 (Sheldrick, 2008)'
_computing_molecular_graphics    'PLATON (Spek, 2003)'
_computing_publication_material  'SHELXTL V6.1'

_refine_special_details          
;
Refinement of F^2^ against ALL reflections. The weighted R-factor wR and
goodness of fit S are based on F^2^, conventional R-factors R are based
on F, with F set to zero for negative F^2^. The threshold expression of
F^2^ > 2sigma(F^2^) is used only for calculating R-factors(gt) etc. and is
not relevant to the choice of reflections for refinement. R-factors based
on F^2^ are statistically about twice as large as those based on F, and R-
factors based on ALL data will be even larger.
;

_refine_ls_structure_factor_coef Fsqd
_refine_ls_matrix_type           full
_refine_ls_weighting_scheme      calc
_refine_ls_weighting_details     
'calc w=1/[\s^2^(Fo^2^)+(0.0850P)^2^] where P=(Fo^2^+2Fc^2^)/3'
_atom_sites_solution_primary     direct
_atom_sites_solution_secondary   difmap
_atom_sites_solution_hydrogens   geom
_refine_ls_hydrogen_treatment    mixed
_refine_ls_extinction_method     none
_refine_ls_extinction_coef       ?
_refine_ls_number_reflns         3657
_refine_ls_number_parameters     196
_refine_ls_number_restraints     0
_refine_ls_R_factor_all          0.0931
_refine_ls_R_factor_gt           0.0535
_refine_ls_wR_factor_ref         0.1481
_refine_ls_wR_factor_gt          0.1326
_refine_ls_goodness_of_fit_ref   1.007
_refine_ls_restrained_S_all      1.007
_refine_ls_shift/su_max          0.001
_refine_ls_shift/su_mean         0.000

loop_
_atom_site_label
_atom_site_type_symbol
_atom_site_fract_x
_atom_site_fract_y
_atom_site_fract_z
_atom_site_U_iso_or_equiv
_atom_site_adp_type
_atom_site_occupancy
_atom_site_symmetry_multiplicity
_atom_site_calc_flag
_atom_site_refinement_flags
_atom_site_disorder_assembly
_atom_site_disorder_group
Ni1 Ni 0.2500 0.2500 0.5000 0.03270(19) Uani 1 2 d S . .
O1 O 0.23964(14) 0.10855(13) -0.1038(2) 0.0542(6) Uani 1 1 d . . .
H1O H 0.1951(19) 0.1202(19) -0.072(4) 0.064(11) Uiso 1 1 d . . .
O2 O 0.11899(10) 0.21325(11) 0.2146(2) 0.0424(5) Uani 1 1 d . . .
O3 O 0.17001(10) 0.29992(10) 0.36567(19) 0.0413(5) Uani 1 1 d . . .
N1 N 0.18481(11) 0.21602(13) 0.6446(2) 0.0377(6) Uani 1 1 d . . .
H1 H 0.2110 0.2005 0.7283 0.045 Uiso 1 1 calc R . .
N2 N 0.23223(12) 0.14446(12) 0.4070(2) 0.0365(6) Uani 1 1 d . . .
H2 H 0.2005 0.1508 0.3268 0.044 Uiso 1 1 calc R . .
N3 N 0.32674(12) 0.15494(13) 0.2589(2) 0.0408(6) Uani 1 1 d . . .
C1 C 0.14912(15) 0.14849(16) 0.5794(3) 0.0430(7) Uani 1 1 d . . .
H1A H 0.1124 0.1647 0.5049 0.052 Uiso 1 1 calc R . .
H1B H 0.1284 0.1193 0.6536 0.052 Uiso 1 1 calc R . .
C2 C 0.19983(16) 0.09885(16) 0.5130(3) 0.0430(7) Uani 1 1 d . . .
H2A H 0.2348 0.0799 0.5886 0.052 Uiso 1 1 calc R . .
H2B H 0.1763 0.0542 0.4651 0.052 Uiso 1 1 calc R . .
C3 C 0.29331(15) 0.10834(15) 0.3587(3) 0.0403(7) Uani 1 1 d . . .
H3A H 0.3262 0.0973 0.4438 0.048 Uiso 1 1 calc R . .
H3B H 0.2800 0.0590 0.3120 0.048 Uiso 1 1 calc R . .
C4 C 0.36154(16) 0.22166(17) 0.3174(3) 0.0440(7) Uani 1 1 d . . .
H4A H 0.3905 0.2416 0.2467 0.053 Uiso 1 1 calc R . .
H4B H 0.3917 0.2069 0.4046 0.053 Uiso 1 1 calc R . .
C5 C 0.28780(15) 0.16755(16) 0.1175(3) 0.0410(7) Uani 1 1 d . . .
H5A H 0.3120 0.2053 0.0634 0.049 Uiso 1 1 calc R . .
H5B H 0.2428 0.1891 0.1309 0.049 Uiso 1 1 calc R . .
C6 C 0.27809(18) 0.09549(17) 0.0318(3) 0.0478(8) Uani 1 1 d . . .
H6A H 0.3230 0.0743 0.0168 0.057 Uiso 1 1 calc R . .
H6B H 0.2544 0.0574 0.0860 0.057 Uiso 1 1 calc R . .
C7 C 0.12929(14) 0.28161(16) 0.2576(3) 0.0351(6) Uani 1 1 d . . .
C8 C 0.09124(12) 0.34526(15) 0.1788(3) 0.0306(6) Uani 1 1 d . . .
C9 C 0.10113(13) 0.41971(15) 0.2271(3) 0.0341(6) Uani 1 1 d . . .
H9A H 0.1324 0.4294 0.3098 0.041 Uiso 1 1 calc R . .
C10 C 0.06630(13) 0.48028(15) 0.1574(3) 0.0324(6) Uani 1 1 d . . .
H10A H 0.0741 0.5307 0.1926 0.039 Uiso 1 1 calc R . .
C11 C 0.01123(14) 0.39289(15) -0.0135(3) 0.0365(6) Uani 1 1 d . . .
H11A H -0.0193 0.3829 -0.0971 0.044 Uiso 1 1 calc R . .
C12 C 0.04631(13) 0.33290(15) 0.0571(3) 0.0354(6) Uani 1 1 d . . .
H12A H 0.0394 0.2824 0.0212 0.043 Uiso 1 1 calc R . .
C13 C 0.01993(12) 0.46785(14) 0.0360(2) 0.0282(6) Uani 1 1 d . . .
O1W O 0.0000 0.1339(2) 0.2500 0.0907(13) Uani 1 2 d S . .
H1WA H 0.0359 0.1586 0.2390 0.136 Uiso 1 1 d R . .
O2W O 0.10989(15) 0.13365(18) -0.0465(3) 0.1013(10) Uani 1 1 d . . .
H2WA H 0.0751 0.1063 -0.0456 0.152 Uiso 1 1 d R . .
H2WB H 0.1127 0.1574 0.0318 0.152 Uiso 1 1 d R . .

loop_
_atom_site_aniso_label
_atom_site_aniso_U_11
_atom_site_aniso_U_22
_atom_site_aniso_U_33
_atom_site_aniso_U_23
_atom_site_aniso_U_13
_atom_site_aniso_U_12
Ni1 0.0391(3) 0.0271(3) 0.0301(3) 0.0043(2) -0.0033(2) 0.0102(2)
O1 0.0738(17) 0.0546(13) 0.0336(11) 0.0019(10) 0.0040(11) 0.0022(12)
O2 0.0454(12) 0.0341(11) 0.0452(11) 0.0076(10) -0.0054(9) 0.0093(9)
O3 0.0475(12) 0.0381(10) 0.0350(10) 0.0033(9) -0.0089(9) 0.0173(9)
N1 0.0424(14) 0.0363(12) 0.0332(12) 0.0021(11) -0.0010(10) 0.0102(11)
N2 0.0468(14) 0.0310(12) 0.0302(12) 0.0055(10) -0.0022(10) 0.0084(10)
N3 0.0521(15) 0.0370(13) 0.0331(12) 0.0047(11) 0.0042(11) 0.0139(11)
C1 0.0496(18) 0.0417(16) 0.0370(16) 0.0075(13) 0.0019(13) -0.0043(13)
C2 0.0556(19) 0.0324(14) 0.0394(16) 0.0064(13) -0.0016(14) 0.0060(13)
C3 0.0542(19) 0.0337(14) 0.0324(15) 0.0029(12) 0.0019(13) 0.0162(13)
C4 0.0458(18) 0.0461(16) 0.0392(16) 0.0001(15) 0.0006(13) 0.0117(14)
C5 0.0520(17) 0.0403(16) 0.0310(14) 0.0048(13) 0.0064(13) 0.0108(13)
C6 0.071(2) 0.0368(16) 0.0355(16) 0.0043(13) 0.0043(15) 0.0066(15)
C7 0.0331(15) 0.0377(15) 0.0350(15) 0.0068(13) 0.0054(12) 0.0089(12)
C8 0.0259(14) 0.0361(15) 0.0298(13) 0.0102(12) 0.0036(11) 0.0079(11)
C9 0.0345(15) 0.0412(16) 0.0246(13) -0.0003(12) -0.0050(11) 0.0104(12)
C10 0.0360(15) 0.0321(14) 0.0276(13) 0.0014(11) -0.0029(11) 0.0078(11)
C11 0.0345(15) 0.0372(15) 0.0353(15) 0.0066(13) -0.0070(12) -0.0008(12)
C12 0.0341(15) 0.0288(13) 0.0415(15) 0.0066(12) -0.0036(12) 0.0016(11)
C13 0.0238(13) 0.0345(14) 0.0261(13) 0.0074(11) 0.0023(10) 0.0040(10)
O1W 0.063(2) 0.065(2) 0.150(4) 0.000 0.038(3) 0.000
O2W 0.089(2) 0.143(3) 0.0732(19) -0.026(2) 0.0163(16) 0.010(2)

_geom_special_details            
;
All esds (except the esd in the dihedral angle between two l.s. planes)
are estimated using the full covariance matrix. The cell esds are taken
into account individually in the estimation of esds in distances, angles
and torsion angles; correlations between esds in cell parameters are only
used when they are defined by crystal symmetry. An approximate (isotropic)
treatment of cell esds is used for estimating esds involving l.s. planes.
;

loop_
_geom_bond_atom_site_label_1
_geom_bond_atom_site_label_2
_geom_bond_distance
_geom_bond_site_symmetry_2
_geom_bond_publ_flag
Ni1 N2 2.056(2) 7_556 ?
Ni1 N2 2.056(2) . ?
Ni1 N1 2.066(2) 7_556 ?
Ni1 N1 2.066(2) . ?
Ni1 O3 2.0976(16) . ?
Ni1 O3 2.0976(16) 7_556 ?
O1 C6 1.423(4) . ?
O2 C7 1.272(3) . ?
O3 C7 1.261(3) . ?
N1 C1 1.474(3) . ?
N1 C4 1.496(4) 7_556 ?
N2 C2 1.478(4) . ?
N2 C3 1.482(3) . ?
N3 C4 1.433(4) . ?
N3 C3 1.458(4) . ?
N3 C5 1.472(3) . ?
C1 C2 1.516(4) . ?
C4 N1 1.496(4) 7_556 ?
C5 C6 1.497(4) . ?
C7 C8 1.493(4) . ?
C8 C12 1.381(3) . ?
C8 C9 1.387(4) . ?
C9 C10 1.387(3) . ?
C10 C13 1.394(3) . ?
C11 C12 1.385(4) . ?
C11 C13 1.396(4) . ?
C13 C13 1.491(5) 5_565 ?

loop_
_geom_angle_atom_site_label_1
_geom_angle_atom_site_label_2
_geom_angle_atom_site_label_3
_geom_angle
_geom_angle_site_symmetry_1
_geom_angle_site_symmetry_3
_geom_angle_publ_flag
N2 Ni1 N2 180.00(5) 7_556 . ?
N2 Ni1 N1 86.00(9) 7_556 7_556 ?
N2 Ni1 N1 94.00(9) . 7_556 ?
N2 Ni1 N1 94.00(9) 7_556 . ?
N2 Ni1 N1 86.00(9) . . ?
N1 Ni1 N1 180.00(12) 7_556 . ?
N2 Ni1 O3 87.74(8) 7_556 . ?
N2 Ni1 O3 92.26(8) . . ?
N1 Ni1 O3 88.38(8) 7_556 . ?
N1 Ni1 O3 91.62(8) . . ?
N2 Ni1 O3 92.26(8) 7_556 7_556 ?
N2 Ni1 O3 87.74(8) . 7_556 ?
N1 Ni1 O3 91.62(8) 7_556 7_556 ?
N1 Ni1 O3 88.38(8) . 7_556 ?
O3 Ni1 O3 180.0 . 7_556 ?
C7 O3 Ni1 138.15(18) . . ?
C1 N1 C4 114.0(2) . 7_556 ?
C1 N1 Ni1 105.37(17) . . ?
C4 N1 Ni1 113.21(18) 7_556 . ?
C2 N2 C3 114.1(2) . . ?
C2 N2 Ni1 105.48(16) . . ?
C3 N2 Ni1 114.05(17) . . ?
C4 N3 C3 116.4(2) . . ?
C4 N3 C5 113.7(2) . . ?
C3 N3 C5 115.7(2) . . ?
N1 C1 C2 108.8(2) . . ?
N2 C2 C1 109.1(2) . . ?
N3 C3 N2 113.9(2) . . ?
N3 C4 N1 113.9(2) . 7_556 ?
N3 C5 C6 112.3(2) . . ?
O1 C6 C5 111.5(2) . . ?
O3 C7 O2 124.0(2) . . ?
O3 C7 C8 116.6(2) . . ?
O2 C7 C8 119.5(2) . . ?
C12 C8 C9 118.1(2) . . ?
C12 C8 C7 122.2(2) . . ?
C9 C8 C7 119.7(2) . . ?
C8 C9 C10 121.4(2) . . ?
C9 C10 C13 120.7(2) . . ?
C12 C11 C13 121.2(2) . . ?
C8 C12 C11 121.0(3) . . ?
C10 C13 C11 117.5(2) . . ?
C10 C13 C13 121.1(3) . 5_565 ?
C11 C13 C13 121.4(3) . 5_565 ?

loop_
_geom_hbond_atom_site_label_D
_geom_hbond_atom_site_label_H
_geom_hbond_atom_site_label_A
_geom_hbond_distance_DH
_geom_hbond_distance_HA
_geom_hbond_distance_DA
_geom_hbond_angle_DHA
_geom_hbond_site_symmetry_A
O1 H1O O2W 0.98(4) 1.75(4) 2.722(4) 170(3) .
N1 H1 O1 0.93 2.28 3.114(3) 149.4 1_556
N2 H2 O2 0.93 2.13 2.967(3) 150.0 .
O1W H1WA O2 0.85 1.94 2.789(3) 178.9 .
O2W H2WB O2 0.84 1.97 2.806(3) 180 .

_diffrn_measured_fraction_theta_max 0.987
_diffrn_reflns_theta_full        27.47
_diffrn_measured_fraction_theta_full 0.987
_refine_diff_density_max         0.591
_refine_diff_density_min         -0.344
_refine_diff_density_rms         0.073
