
#######################################################################
#
#                 Cambridge Crystallographic Data Centre
#                                CCDC
#
#######################################################################
#
# If this CIF has been generated from an entry in the Cambridge
# Structural Database, then it will include bibliographic, chemical,
# crystal, experimental, refinement or atomic coordinate data resulting
# from the CCDC's data processing and validation procedures.
#
#######################################################################

data_CSD_CIF_BUVGII
_audit_creation_date 1984-02-21
_audit_creation_method CSD-ConQuest-V1
_database_code_CSD BUVGII
_database_code_depnum_ccdc_archive 'CCDC 1117448'
_chemical_formula_sum 'C42 H30 N1 O6 P2 Ta1'
_chemical_formula_moiety
;
C36 H30 N1 P2 1+,C6 O6 Ta1 1-
;
_journal_coden_Cambridge 9
_journal_volume 22
_journal_year 1983
_journal_page_first 1865
_journal_name_full 'Inorg.Chem. '
loop_
_publ_author_name
"F.Calderazzo"
"U.Englert"
"G.Pampaloni"
"G.Pelizzi"
"R.Zamboni"
_chemical_name_systematic
;
bis(Triphenylphosphine)iminium hexacarbonyl-tantalum
;
_chemical_name_common
;
Teaching Subset: Fundamental Chemistry
;
_cell_volume    943.427
_exptl_crystal_colour 'colorless'
_exptl_crystal_density_diffrn 1.562
_exptl_special_details
;
Isostructural with the vanadium and niobium analogues

;
_diffrn_ambient_temperature ?
_diffrn_special_details
;
The study was carried out at room temperature,in the range 283-303K

;
#These two values have been output from a single CSD field.
_refine_ls_R_factor_gt 0.0294
_refine_ls_wR_factor_gt 0.0294
_symmetry_cell_setting rhombohedral
_symmetry_space_group_name_H-M 'R -3'
_symmetry_Int_Tables_number 148
loop_
_symmetry_equiv_pos_site_id
_symmetry_equiv_pos_as_xyz
1 x,y,z
2 z,x,y
3 y,z,x
4 -x,-y,-z
5 -z,-x,-y
6 -y,-z,-x
_cell_length_a 9.814(4)
_cell_length_b 9.814(4)
_cell_length_c 9.814(4)
_cell_angle_alpha 92.02(8)
_cell_angle_beta 92.02(8)
_cell_angle_gamma 92.02(8)
_cell_formula_units_Z 1
loop_
_atom_type_symbol
_atom_type_radius_bond
C 0.68
H 0.23
N 0.68
O 0.68
P 1.05
Ta 1.43
loop_
_atom_site_label
_atom_site_type_symbol
_atom_site_fract_x
_atom_site_fract_y
_atom_site_fract_z
Ta1 Ta 0.50000 0.50000 0.50000
O1 O 0.59410 0.29190 0.26170
C1 C 0.56310 0.36560 0.34780
P1 P 0.09400 0.09400 0.09400
N1 N 0.00000 0.00000 0.00000
C2 C 0.13510 0.24970 0.01140
C3 C 0.25600 0.32280 0.03990
C4 C 0.27930 0.44480 -0.02590
C5 C 0.18460 0.48850 -0.11850
C6 C 0.06580 0.41710 -0.14690
C7 C 0.04150 0.29770 -0.08110
H1 H 0.32100 0.29400 0.09900
H2 H 0.36000 0.49200 0.00800
H3 H 0.19300 0.58000 -0.16600
H4 H -0.00600 0.43700 -0.23600
H5 H -0.04000 0.24400 -0.11300
C1C C 0.43690 0.63440 0.65220
C1A C 0.34780 0.56310 0.36560
C1D C 0.65220 0.43690 0.63440
C1B C 0.36560 0.34780 0.56310
C1E C 0.63440 0.65220 0.43690
O1C O 0.40590 0.70810 0.73830
O1A O 0.26170 0.59410 0.29190
O1D O 0.73830 0.40590 0.70810
O1B O 0.29190 0.26170 0.59410
O1E O 0.70810 0.73830 0.40590
C2A C 0.01140 0.13510 0.24970
C2B C 0.24970 0.01140 0.13510
P1C P -0.09400 -0.09400 -0.09400
C3A C 0.03990 0.25600 0.32280
C7A C -0.08110 0.04150 0.29770
C3B C 0.32280 0.03990 0.25600
C7B C 0.29770 -0.08110 0.04150
C2C C -0.13510 -0.24970 -0.01140
C2D C -0.01140 -0.13510 -0.24970
C2E C -0.24970 -0.01140 -0.13510
C4A C -0.02590 0.27930 0.44480
H1A H 0.09900 0.32100 0.29400
C6A C -0.14690 0.06580 0.41710
H5A H -0.11300 -0.04000 0.24400
C4B C 0.44480 -0.02590 0.27930
H1B H 0.29400 0.09900 0.32100
C6B C 0.41710 -0.14690 0.06580
H5B H 0.24400 -0.11300 -0.04000
C3C C -0.25600 -0.32280 -0.03990
C7C C -0.04150 -0.29770 0.08110
C3D C -0.03990 -0.25600 -0.32280
C7D C 0.08110 -0.04150 -0.29770
C3E C -0.32280 -0.03990 -0.25600
C7E C -0.29770 0.08110 -0.04150
C5A C -0.11850 0.18460 0.48850
H2A H 0.00800 0.36000 0.49200
H4A H -0.23600 -0.00600 0.43700
C5B C 0.48850 -0.11850 0.18460
H2B H 0.49200 0.00800 0.36000
H4B H 0.43700 -0.23600 -0.00600
C4C C -0.27930 -0.44480 0.02590
H1C H -0.32100 -0.29400 -0.09900
C6C C -0.06580 -0.41710 0.14690
H5C H 0.04000 -0.24400 0.11300
C4D C 0.02590 -0.27930 -0.44480
H1D H -0.09900 -0.32100 -0.29400
C6D C 0.14690 -0.06580 -0.41710
H5D H 0.11300 0.04000 -0.24400
C4E C -0.44480 0.02590 -0.27930
H1E H -0.29400 -0.09900 -0.32100
C6E C -0.41710 0.14690 -0.06580
H5E H -0.24400 0.11300 0.04000
H3A H -0.16600 0.19300 0.58000
H3B H 0.58000 -0.16600 0.19300
C5C C -0.18460 -0.48850 0.11850
H2C H -0.36000 -0.49200 -0.00800
H4C H 0.00600 -0.43700 0.23600
C5D C 0.11850 -0.18460 -0.48850
H2D H -0.00800 -0.36000 -0.49200
H4D H 0.23600 0.00600 -0.43700
C5E C -0.48850 0.11850 -0.18460
H2E H -0.49200 -0.00800 -0.36000
H4E H -0.43700 0.23600 0.00600
H3C H -0.19300 -0.58000 0.16600
H3D H 0.16600 -0.19300 -0.58000
H3E H -0.58000 0.16600 -0.19300
#END
