####################################################################### 
# 
# This file contains crystal structure data downloaded from the 
# Cambridge Structural Database (CSD) hosted by the Cambridge 
# Crystallographic Data Centre (CCDC).
# 
# Full information about CCDC data access policies and citation 
# guidelines are available at http://www.ccdc.cam.ac.uk/access/V1 
# 
# Audit and citation data items may have been added by the CCDC. 
# Please retain this information to preserve the provenance of 
# this file and to allow appropriate attribution of the data. 
# 
#######################################################################

data_2b_373K
_audit_block_doi                 10.5517/cctsh68
_database_code_depnum_ccdc_archive 'CCDC 768310'
loop_
_citation_id
_citation_doi
_citation_year
1 10.1002/chem.201001179 2010
_audit_update_record             
;
2010-03-04 deposited with the CCDC.	2024-07-08 downloaded from the CCDC.
;

_audit_creation_method           SHELXL-97
_chemical_name_systematic        
;
?
;
_chemical_name_common            ?
_chemical_melting_point          ?
_chemical_formula_moiety         ?
_chemical_formula_sum            'C24 H16 Fe N10'
_chemical_formula_weight         500.32

loop_
_atom_type_symbol
_atom_type_description
_atom_type_scat_dispersion_real
_atom_type_scat_dispersion_imag
_atom_type_scat_source
C C 0.0033 0.0016 'International Tables Vol C Tables 4.2.6.8 and 6.1.1.4'
H H 0.0000 0.0000 'International Tables Vol C Tables 4.2.6.8 and 6.1.1.4'
N N 0.0061 0.0033 'International Tables Vol C Tables 4.2.6.8 and 6.1.1.4'
Fe Fe 0.3463 0.8444 'International Tables Vol C Tables 4.2.6.8 and 6.1.1.4'

_symmetry_cell_setting           trigonal
_symmetry_space_group_name_H-M   R-3c

loop_
_symmetry_equiv_pos_as_xyz
'x, y, z'
'-y, x-y, z'
'-x+y, -x, z'
'y, x, -z+1/2'
'x-y, -y, -z+1/2'
'-x, -x+y, -z+1/2'
'x+2/3, y+1/3, z+1/3'
'-y+2/3, x-y+1/3, z+1/3'
'-x+y+2/3, -x+1/3, z+1/3'
'y+2/3, x+1/3, -z+5/6'
'x-y+2/3, -y+1/3, -z+5/6'
'-x+2/3, -x+y+1/3, -z+5/6'
'x+1/3, y+2/3, z+2/3'
'-y+1/3, x-y+2/3, z+2/3'
'-x+y+1/3, -x+2/3, z+2/3'
'y+1/3, x+2/3, -z+7/6'
'x-y+1/3, -y+2/3, -z+7/6'
'-x+1/3, -x+y+2/3, -z+7/6'
'-x, -y, -z'
'y, -x+y, -z'
'x-y, x, -z'
'-y, -x, z-1/2'
'-x+y, y, z-1/2'
'x, x-y, z-1/2'
'-x+2/3, -y+1/3, -z+1/3'
'y+2/3, -x+y+1/3, -z+1/3'
'x-y+2/3, x+1/3, -z+1/3'
'-y+2/3, -x+1/3, z-1/6'
'-x+y+2/3, y+1/3, z-1/6'
'x+2/3, x-y+1/3, z-1/6'
'-x+1/3, -y+2/3, -z+2/3'
'y+1/3, -x+y+2/3, -z+2/3'
'x-y+1/3, x+2/3, -z+2/3'
'-y+1/3, -x+2/3, z+1/6'
'-x+y+1/3, y+2/3, z+1/6'
'x+1/3, x-y+2/3, z+1/6'

_cell_length_a                   29.932(6)
_cell_length_b                   29.932(6)
_cell_length_c                   16.139(4)
_cell_angle_alpha                90.00
_cell_angle_beta                 90.00
_cell_angle_gamma                120.00
_cell_volume                     12522(5)
_cell_formula_units_Z            18
_cell_measurement_temperature    373(2)
_cell_measurement_reflns_used    ?
_cell_measurement_theta_min      ?
_cell_measurement_theta_max      ?

_exptl_crystal_description       ?
_exptl_crystal_colour            ?
_exptl_crystal_size_max          0.26
_exptl_crystal_size_mid          0.17
_exptl_crystal_size_min          0.13
_exptl_crystal_density_meas      ?
_exptl_crystal_density_diffrn    1.194
_exptl_crystal_density_method    'not measured'
_exptl_crystal_F_000             4608
_exptl_absorpt_coefficient_mu    0.571
_exptl_absorpt_correction_type   multi-scan
_exptl_absorpt_correction_T_min  0.8657
_exptl_absorpt_correction_T_max  0.9295
_exptl_absorpt_process_details   ?

_exptl_special_details           
;
?
;

_diffrn_ambient_temperature      373(2)
_diffrn_radiation_wavelength     0.71073
_diffrn_radiation_type           MoK\a
_diffrn_radiation_source         'fine-focus sealed tube'
_diffrn_radiation_monochromator  graphite
_diffrn_measurement_device_type  ?
_diffrn_measurement_method       ?
_diffrn_detector_area_resol_mean ?
_diffrn_standards_number         ?
_diffrn_standards_interval_count ?
_diffrn_standards_interval_time  ?
_diffrn_standards_decay_%        ?
_diffrn_reflns_number            9600
_diffrn_reflns_av_R_equivalents  0.1547
_diffrn_reflns_av_sigmaI/netI    0.1393
_diffrn_reflns_limit_h_min       -14
_diffrn_reflns_limit_h_max       38
_diffrn_reflns_limit_k_min       -38
_diffrn_reflns_limit_k_max       8
_diffrn_reflns_limit_l_min       -20
_diffrn_reflns_limit_l_max       18
_diffrn_reflns_theta_min         2.36
_diffrn_reflns_theta_max         26.99
_reflns_number_total             2983
_reflns_number_gt                1459
_reflns_threshold_expression     >2sigma(I)

_computing_data_collection       ?
_computing_cell_refinement       ?
_computing_data_reduction        ?
_computing_structure_solution    'SHELXS-97 (Sheldrick, 1990)'
_computing_structure_refinement  'SHELXL-97 (Sheldrick, 1997)'
_computing_molecular_graphics    ?
_computing_publication_material  ?

_refine_special_details          
;
Refinement of F^2^ against ALL reflections. The weighted R-factor wR and
goodness of fit S are based on F^2^, conventional R-factors R are based
on F, with F set to zero for negative F^2^. The threshold expression of
F^2^ > 2sigma(F^2^) is used only for calculating R-factors(gt) etc. and is
not relevant to the choice of reflections for refinement. R-factors based
on F^2^ are statistically about twice as large as those based on F, and R-
factors based on ALL data will be even larger.
;

_refine_ls_structure_factor_coef Fsqd
_refine_ls_matrix_type           full
_refine_ls_weighting_scheme      calc
_refine_ls_weighting_details     
'calc w=1/[\s^2^(Fo^2^)+(0.1213P)^2^+0.0000P] where P=(Fo^2^+2Fc^2^)/3'
_atom_sites_solution_primary     direct
_atom_sites_solution_secondary   difmap
_atom_sites_solution_hydrogens   geom
_refine_ls_hydrogen_treatment    constr
_refine_ls_extinction_method     SHELXL
_refine_ls_extinction_coef       0.00011(9)
_refine_ls_extinction_expression Fc^*^=kFc[1+0.001xFc^2^\l^3^/sin(2\q)]^-1/4^
_refine_ls_number_reflns         2983
_refine_ls_number_parameters     161
_refine_ls_number_restraints     0
_refine_ls_R_factor_all          0.1616
_refine_ls_R_factor_gt           0.0850
_refine_ls_wR_factor_ref         0.2497
_refine_ls_wR_factor_gt          0.2014
_refine_ls_goodness_of_fit_ref   0.963
_refine_ls_restrained_S_all      0.963
_refine_ls_shift/su_max          0.000
_refine_ls_shift/su_mean         0.000

loop_
_atom_site_label
_atom_site_type_symbol
_atom_site_fract_x
_atom_site_fract_y
_atom_site_fract_z
_atom_site_U_iso_or_equiv
_atom_site_adp_type
_atom_site_occupancy
_atom_site_symmetry_multiplicity
_atom_site_calc_flag
_atom_site_refinement_flags
_atom_site_disorder_assembly
_atom_site_disorder_group
Fe1 Fe 1.1667 0.8333 0.3333 0.0441(4) Uani 1 2 d S . .
N1 N 1.14277(16) 0.76287(16) 0.2942(3) 0.0625(13) Uani 1 1 d . . .
N2 N 1.10859(15) 0.72855(16) 0.2398(3) 0.0558(12) Uani 1 1 d . . .
N3 N 1.1467(2) 0.69009(18) 0.3036(3) 0.0820(16) Uani 1 1 d . . .
N4 N 1.21132(16) 0.81484(16) 0.4041(3) 0.0565(12) Uani 1 1 d . . .
N5 N 1.02824(17) 0.55644(15) 0.0882(3) 0.0568(12) Uani 1 1 d . . .
C1 C 1.1653(2) 0.7383(2) 0.3318(4) 0.0670(16) Uani 1 1 d . . .
C2 C 1.1121(2) 0.6866(2) 0.2473(4) 0.0655(15) Uani 1 1 d . . .
C3 C 1.2043(2) 0.7669(2) 0.3924(4) 0.0633(15) Uani 1 1 d . . .
C4 C 1.2324(3) 0.7505(2) 0.4344(5) 0.097(2) Uani 1 1 d . . .
H4 H 1.2262 0.7171 0.4263 0.117 Uiso 1 1 calc R . .
C5 C 1.2701(3) 0.7825(3) 0.4888(5) 0.115(3) Uani 1 1 d . . .
H5 H 1.2903 0.7716 0.5163 0.138 Uiso 1 1 calc R . .
C6 C 1.2772(3) 0.8307(3) 0.5015(5) 0.103(3) Uani 1 1 d . . .
H6 H 1.3023 0.8533 0.5383 0.123 Uiso 1 1 calc R . .
C7 C 1.2471(2) 0.8454(2) 0.4596(4) 0.0781(18) Uani 1 1 d . . .
H7 H 1.2515 0.8779 0.4699 0.094 Uiso 1 1 calc R . .
C8 C 1.0805(2) 0.6405(2) 0.1959(4) 0.0621(15) Uani 1 1 d . . .
C9 C 1.0781(3) 0.5949(3) 0.2084(5) 0.102(3) Uani 1 1 d . . .
H9 H 1.0940 0.5904 0.2547 0.122 Uiso 1 1 calc R . .
C10 C 1.0528(3) 0.5552(2) 0.1542(4) 0.089(2) Uani 1 1 d . . .
H10 H 1.0530 0.5247 0.1650 0.107 Uiso 1 1 calc R . .
C11 C 1.0290(3) 0.6009(2) 0.0786(4) 0.092(2) Uani 1 1 d . . .
H11 H 1.0117 0.6042 0.0333 0.110 Uiso 1 1 calc R . .
C12 C 1.0539(3) 0.6426(2) 0.1312(5) 0.091(2) Uani 1 1 d . . .
H12 H 1.0521 0.6723 0.1215 0.109 Uiso 1 1 calc R . .

loop_
_atom_site_aniso_label
_atom_site_aniso_U_11
_atom_site_aniso_U_22
_atom_site_aniso_U_33
_atom_site_aniso_U_23
_atom_site_aniso_U_13
_atom_site_aniso_U_12
Fe1 0.0293(5) 0.0333(6) 0.0554(7) -0.0104(4) 0.0057(4) 0.0048(4)
N1 0.045(2) 0.045(3) 0.074(3) -0.020(2) 0.007(2) 0.005(2)
N2 0.046(2) 0.036(2) 0.072(3) -0.017(2) 0.000(2) 0.010(2)
N3 0.091(4) 0.056(3) 0.098(4) -0.025(3) -0.030(3) 0.036(3)
N4 0.042(2) 0.048(2) 0.064(3) -0.009(2) 0.001(2) 0.0107(19)
N5 0.072(3) 0.039(2) 0.059(3) -0.005(2) -0.018(2) 0.027(2)
C1 0.062(4) 0.048(3) 0.086(4) -0.017(3) -0.015(3) 0.024(3)
C2 0.061(4) 0.053(3) 0.071(4) -0.014(3) -0.006(3) 0.020(3)
C3 0.059(3) 0.049(3) 0.079(4) -0.008(3) -0.013(3) 0.024(3)
C4 0.105(6) 0.062(4) 0.126(6) -0.022(4) -0.044(5) 0.043(4)
C5 0.114(6) 0.092(6) 0.146(7) -0.025(5) -0.067(6) 0.056(5)
C6 0.088(5) 0.067(4) 0.132(7) -0.030(4) -0.051(5) 0.023(4)
C7 0.057(4) 0.061(4) 0.100(5) -0.013(3) -0.024(3) 0.017(3)
C8 0.066(4) 0.043(3) 0.070(4) -0.006(3) -0.005(3) 0.021(3)
C9 0.136(7) 0.071(4) 0.094(5) -0.025(4) -0.056(5) 0.049(5)
C10 0.137(6) 0.059(4) 0.080(5) -0.023(3) -0.044(4) 0.056(4)
C11 0.121(6) 0.057(4) 0.112(6) -0.035(4) -0.059(5) 0.055(4)
C12 0.095(5) 0.041(3) 0.139(6) -0.026(4) -0.041(5) 0.036(3)

_geom_special_details            
;
All esds (except the esd in the dihedral angle between two l.s. planes)
are estimated using the full covariance matrix. The cell esds are taken
into account individually in the estimation of esds in distances, angles
and torsion angles; correlations between esds in cell parameters are only
used when they are defined by crystal symmetry. An approximate (isotropic)
treatment of cell esds is used for estimating esds involving l.s. planes.
;

loop_
_geom_bond_atom_site_label_1
_geom_bond_atom_site_label_2
_geom_bond_distance
_geom_bond_site_symmetry_2
_geom_bond_publ_flag
Fe1 N1 1.962(4) 31_765 ?
Fe1 N1 1.962(4) . ?
Fe1 N4 2.033(5) 31_765 ?
Fe1 N4 2.034(5) . ?
Fe1 N5 2.042(4) 26_565 ?
Fe1 N5 2.042(4) 8_655 ?
N1 N2 1.349(6) . ?
N1 C1 1.363(7) . ?
N2 C2 1.316(7) . ?
N3 C1 1.340(6) . ?
N3 C2 1.342(7) . ?
N4 C7 1.344(6) . ?
N4 C3 1.354(7) . ?
N5 C10 1.306(6) . ?
N5 C11 1.329(7) . ?
N5 Fe1 2.042(4) 15_664 ?
C1 C3 1.433(7) . ?
C2 C8 1.478(7) . ?
C3 C4 1.351(8) . ?
C4 C5 1.371(9) . ?
C4 H4 0.9300 . ?
C5 C6 1.366(9) . ?
C5 H5 0.9300 . ?
C6 C7 1.361(8) . ?
C6 H6 0.9300 . ?
C7 H7 0.9300 . ?
C8 C12 1.336(8) . ?
C8 C9 1.346(8) . ?
C9 C10 1.360(8) . ?
C9 H9 0.9300 . ?
C10 H10 0.9300 . ?
C11 C12 1.380(8) . ?
C11 H11 0.9300 . ?
C12 H12 0.9300 . ?

loop_
_geom_angle_atom_site_label_1
_geom_angle_atom_site_label_2
_geom_angle_atom_site_label_3
_geom_angle
_geom_angle_site_symmetry_1
_geom_angle_site_symmetry_3
_geom_angle_publ_flag
N1 Fe1 N1 180.0 31_765 . ?
N1 Fe1 N4 79.88(18) 31_765 31_765 ?
N1 Fe1 N4 100.12(18) . 31_765 ?
N1 Fe1 N4 100.12(18) 31_765 . ?
N1 Fe1 N4 79.87(18) . . ?
N4 Fe1 N4 179.997(1) 31_765 . ?
N1 Fe1 N5 89.92(17) 31_765 26_565 ?
N1 Fe1 N5 90.08(17) . 26_565 ?
N4 Fe1 N5 90.95(18) 31_765 26_565 ?
N4 Fe1 N5 89.05(18) . 26_565 ?
N1 Fe1 N5 90.07(17) 31_765 8_655 ?
N1 Fe1 N5 89.93(17) . 8_655 ?
N4 Fe1 N5 89.05(18) 31_765 8_655 ?
N4 Fe1 N5 90.96(18) . 8_655 ?
N5 Fe1 N5 179.993(1) 26_565 8_655 ?
N2 N1 C1 105.7(4) . . ?
N2 N1 Fe1 139.3(4) . . ?
C1 N1 Fe1 115.1(4) . . ?
C2 N2 N1 105.9(5) . . ?
C1 N3 C2 101.6(5) . . ?
C7 N4 C3 117.5(5) . . ?
C7 N4 Fe1 126.7(4) . . ?
C3 N4 Fe1 115.8(4) . . ?
C10 N5 C11 113.4(5) . . ?
C10 N5 Fe1 123.4(4) . 15_664 ?
C11 N5 Fe1 122.7(4) . 15_664 ?
N3 C1 N1 112.3(5) . . ?
N3 C1 C3 130.6(6) . . ?
N1 C1 C3 117.1(5) . . ?
N2 C2 N3 114.5(5) . . ?
N2 C2 C8 121.4(5) . . ?
N3 C2 C8 124.0(5) . . ?
C4 C3 N4 121.3(5) . . ?
C4 C3 C1 126.5(5) . . ?
N4 C3 C1 112.2(5) . . ?
C3 C4 C5 120.8(6) . . ?
C3 C4 H4 119.6 . . ?
C5 C4 H4 119.6 . . ?
C6 C5 C4 118.2(7) . . ?
C6 C5 H5 120.9 . . ?
C4 C5 H5 120.9 . . ?
C7 C6 C5 119.2(6) . . ?
C7 C6 H6 120.4 . . ?
C5 C6 H6 120.4 . . ?
N4 C7 C6 122.9(6) . . ?
N4 C7 H7 118.6 . . ?
C6 C7 H7 118.6 . . ?
C12 C8 C9 115.8(5) . . ?
C12 C8 C2 120.8(5) . . ?
C9 C8 C2 123.3(6) . . ?
C8 C9 C10 120.9(6) . . ?
C8 C9 H9 119.5 . . ?
C10 C9 H9 119.5 . . ?
N5 C10 C9 125.0(6) . . ?
N5 C10 H10 117.5 . . ?
C9 C10 H10 117.5 . . ?
N5 C11 C12 124.4(6) . . ?
N5 C11 H11 117.8 . . ?
C12 C11 H11 117.8 . . ?
C8 C12 C11 120.2(6) . . ?
C8 C12 H12 119.9 . . ?
C11 C12 H12 119.9 . . ?

loop_
_geom_torsion_atom_site_label_1
_geom_torsion_atom_site_label_2
_geom_torsion_atom_site_label_3
_geom_torsion_atom_site_label_4
_geom_torsion
_geom_torsion_site_symmetry_1
_geom_torsion_site_symmetry_2
_geom_torsion_site_symmetry_3
_geom_torsion_site_symmetry_4
_geom_torsion_publ_flag
N1 Fe1 N1 N2 -131(7) 31_765 . . . ?
N4 Fe1 N1 N2 -0.4(5) 31_765 . . . ?
N4 Fe1 N1 N2 179.6(5) . . . . ?
N5 Fe1 N1 N2 -91.4(5) 26_565 . . . ?
N5 Fe1 N1 N2 88.6(5) 8_655 . . . ?
N1 Fe1 N1 C1 51(7) 31_765 . . . ?
N4 Fe1 N1 C1 -178.8(4) 31_765 . . . ?
N4 Fe1 N1 C1 1.2(4) . . . . ?
N5 Fe1 N1 C1 90.2(4) 26_565 . . . ?
N5 Fe1 N1 C1 -89.8(4) 8_655 . . . ?
C1 N1 N2 C2 0.0(6) . . . . ?
Fe1 N1 N2 C2 -178.5(4) . . . . ?
N1 Fe1 N4 C7 -1.1(5) 31_765 . . . ?
N1 Fe1 N4 C7 178.9(5) . . . . ?
N4 Fe1 N4 C7 138(14) 31_765 . . . ?
N5 Fe1 N4 C7 88.6(5) 26_565 . . . ?
N5 Fe1 N4 C7 -91.4(5) 8_655 . . . ?
N1 Fe1 N4 C3 179.8(4) 31_765 . . . ?
N1 Fe1 N4 C3 -0.2(4) . . . . ?
N4 Fe1 N4 C3 -41(14) 31_765 . . . ?
N5 Fe1 N4 C3 -90.4(4) 26_565 . . . ?
N5 Fe1 N4 C3 89.6(4) 8_655 . . . ?
C2 N3 C1 N1 0.2(7) . . . . ?
C2 N3 C1 C3 -178.9(6) . . . . ?
N2 N1 C1 N3 -0.1(7) . . . . ?
Fe1 N1 C1 N3 178.8(4) . . . . ?
N2 N1 C1 C3 179.1(5) . . . . ?
Fe1 N1 C1 C3 -2.0(7) . . . . ?
N1 N2 C2 N3 0.1(7) . . . . ?
N1 N2 C2 C8 -179.1(5) . . . . ?
C1 N3 C2 N2 -0.1(7) . . . . ?
C1 N3 C2 C8 179.0(6) . . . . ?
C7 N4 C3 C4 -0.6(9) . . . . ?
Fe1 N4 C3 C4 178.5(5) . . . . ?
C7 N4 C3 C1 -179.9(5) . . . . ?
Fe1 N4 C3 C1 -0.8(6) . . . . ?
N3 C1 C3 C4 1.6(12) . . . . ?
N1 C1 C3 C4 -177.5(7) . . . . ?
N3 C1 C3 N4 -179.2(6) . . . . ?
N1 C1 C3 N4 1.8(8) . . . . ?
N4 C3 C4 C5 -1.7(12) . . . . ?
C1 C3 C4 C5 177.5(7) . . . . ?
C3 C4 C5 C6 2.2(13) . . . . ?
C4 C5 C6 C7 -0.5(13) . . . . ?
C3 N4 C7 C6 2.4(9) . . . . ?
Fe1 N4 C7 C6 -176.6(5) . . . . ?
C5 C6 C7 N4 -1.9(12) . . . . ?
N2 C2 C8 C12 11.2(9) . . . . ?
N3 C2 C8 C12 -167.9(7) . . . . ?
N2 C2 C8 C9 -171.5(6) . . . . ?
N3 C2 C8 C9 9.4(10) . . . . ?
C12 C8 C9 C10 4.3(11) . . . . ?
C2 C8 C9 C10 -173.1(7) . . . . ?
C11 N5 C10 C9 -1.3(11) . . . . ?
Fe1 N5 C10 C9 170.6(6) 15_664 . . . ?
C8 C9 C10 N5 -1.5(13) . . . . ?
C10 N5 C11 C12 1.2(10) . . . . ?
Fe1 N5 C11 C12 -170.8(6) 15_664 . . . ?
C9 C8 C12 C11 -4.4(11) . . . . ?
C2 C8 C12 C11 173.1(6) . . . . ?
N5 C11 C12 C8 1.8(12) . . . . ?

_diffrn_measured_fraction_theta_max 0.979
_diffrn_reflns_theta_full        26.99
_diffrn_measured_fraction_theta_full 0.979
_refine_diff_density_max         0.818
_refine_diff_density_min         -0.427
_refine_diff_density_rms         0.116
