####################################################################### 
# 
# This file contains crystal structure data downloaded from the 
# Cambridge Structural Database (CSD) hosted by the Cambridge 
# Crystallographic Data Centre (CCDC).
# 
# Full information about CCDC data access policies and citation 
# guidelines are available at http://www.ccdc.cam.ac.uk/access/V1 
# 
# Audit and citation data items may have been added by the CCDC. 
# Please retain this information to preserve the provenance of 
# this file and to allow appropriate attribution of the data. 
# 
#######################################################################

data_2a_373K
_audit_block_doi                 10.5517/cctsh46
_database_code_depnum_ccdc_archive 'CCDC 768308'
loop_
_citation_id
_citation_doi
_citation_year
1 10.1002/chem.201001179 2010
_audit_update_record             
;
2010-03-04 deposited with the CCDC.	2024-07-08 downloaded from the CCDC.
;

_audit_creation_method           SHELXL-97
_chemical_name_systematic        
;
?
;
_chemical_name_common            ?
_chemical_melting_point          ?
_chemical_formula_moiety         ?
_chemical_formula_sum            'C24 H16 Fe N10'
_chemical_formula_weight         500.32

loop_
_atom_type_symbol
_atom_type_description
_atom_type_scat_dispersion_real
_atom_type_scat_dispersion_imag
_atom_type_scat_source
C C 0.0033 0.0016 'International Tables Vol C Tables 4.2.6.8 and 6.1.1.4'
H H 0.0000 0.0000 'International Tables Vol C Tables 4.2.6.8 and 6.1.1.4'
N N 0.0061 0.0033 'International Tables Vol C Tables 4.2.6.8 and 6.1.1.4'
Fe Fe 0.3463 0.8444 'International Tables Vol C Tables 4.2.6.8 and 6.1.1.4'

_symmetry_cell_setting           Rhombohedral
_symmetry_space_group_name_H-M   R-3

loop_
_symmetry_equiv_pos_as_xyz
'x, y, z'
'-y, x-y, z'
'-x+y, -x, z'
'x+2/3, y+1/3, z+1/3'
'-y+2/3, x-y+1/3, z+1/3'
'-x+y+2/3, -x+1/3, z+1/3'
'x+1/3, y+2/3, z+2/3'
'-y+1/3, x-y+2/3, z+2/3'
'-x+y+1/3, -x+2/3, z+2/3'
'-x, -y, -z'
'y, -x+y, -z'
'x-y, x, -z'
'-x+2/3, -y+1/3, -z+1/3'
'y+2/3, -x+y+1/3, -z+1/3'
'x-y+2/3, x+1/3, -z+1/3'
'-x+1/3, -y+2/3, -z+2/3'
'y+1/3, -x+y+2/3, -z+2/3'
'x-y+1/3, x+2/3, -z+2/3'

_cell_length_a                   27.8061(17)
_cell_length_b                   27.8061(17)
_cell_length_c                   9.0879(9)
_cell_angle_alpha                90.00
_cell_angle_beta                 90.00
_cell_angle_gamma                120.00
_cell_volume                     6085.2(8)
_cell_formula_units_Z            9
_cell_measurement_temperature    373(2)
_cell_measurement_reflns_used    ?
_cell_measurement_theta_min      ?
_cell_measurement_theta_max      ?

_exptl_crystal_description       ?
_exptl_crystal_colour            ?
_exptl_crystal_size_max          0.32
_exptl_crystal_size_mid          0.25
_exptl_crystal_size_min          0.19
_exptl_crystal_density_meas      ?
_exptl_crystal_density_diffrn    1.229
_exptl_crystal_density_method    'not measured'
_exptl_crystal_F_000             2304
_exptl_absorpt_coefficient_mu    0.587
_exptl_absorpt_correction_type   none
_exptl_absorpt_correction_T_min  0.8343
_exptl_absorpt_correction_T_max  0.8966
_exptl_absorpt_process_details   ?

_exptl_special_details           
;
?
;

_diffrn_ambient_temperature      373(2)
_diffrn_radiation_wavelength     0.71073
_diffrn_radiation_type           MoK\a
_diffrn_radiation_source         'fine-focus sealed tube'
_diffrn_radiation_monochromator  graphite
_diffrn_measurement_device_type  'multiwire proportional'
_diffrn_measurement_method       'phi and omega scans'
_diffrn_detector_area_resol_mean ?
_diffrn_standards_number         ?
_diffrn_standards_interval_count ?
_diffrn_standards_interval_time  ?
_diffrn_standards_decay_%        ?
_diffrn_reflns_number            5751
_diffrn_reflns_av_R_equivalents  0.0395
_diffrn_reflns_av_sigmaI/netI    0.0568
_diffrn_reflns_limit_h_min       -35
_diffrn_reflns_limit_h_max       33
_diffrn_reflns_limit_k_min       -34
_diffrn_reflns_limit_k_max       26
_diffrn_reflns_limit_l_min       -7
_diffrn_reflns_limit_l_max       11
_diffrn_reflns_theta_min         3.17
_diffrn_reflns_theta_max         27.00
_reflns_number_total             2810
_reflns_number_gt                2035
_reflns_threshold_expression     >2sigma(I)

_computing_data_collection       'Bruker FRAMBO'
_computing_cell_refinement       'Bruker FRAMBO'
_computing_data_reduction        'Bruker SAINT'
_computing_structure_solution    'SHELXS-97 (Sheldrick, 1990)'
_computing_structure_refinement  'SHELXL-97 (Sheldrick, 1997)'
_computing_molecular_graphics    'Bruker SHELXTL'
_computing_publication_material  'Bruker SHELXTL'

_refine_special_details          
;
Refinement of F^2^ against ALL reflections. The weighted R-factor wR and
goodness of fit S are based on F^2^, conventional R-factors R are based
on F, with F set to zero for negative F^2^. The threshold expression of
F^2^ > 2sigma(F^2^) is used only for calculating R-factors(gt) etc. and is
not relevant to the choice of reflections for refinement. R-factors based
on F^2^ are statistically about twice as large as those based on F, and R-
factors based on ALL data will be even larger.
;

_refine_ls_structure_factor_coef Fsqd
_refine_ls_matrix_type           full
_refine_ls_weighting_scheme      calc
_refine_ls_weighting_details     
'calc w=1/[\s^2^(Fo^2^)+(0.1931P)^2^+0.0000P] where P=(Fo^2^+2Fc^2^)/3'
_atom_sites_solution_primary     direct
_atom_sites_solution_secondary   difmap
_atom_sites_solution_hydrogens   geom
_refine_ls_hydrogen_treatment    constr
_refine_ls_extinction_method     none
_refine_ls_extinction_coef       ?
_refine_ls_number_reflns         2810
_refine_ls_number_parameters     160
_refine_ls_number_restraints     0
_refine_ls_R_factor_all          0.0931
_refine_ls_R_factor_gt           0.0748
_refine_ls_wR_factor_ref         0.2641
_refine_ls_wR_factor_gt          0.2395
_refine_ls_goodness_of_fit_ref   1.028
_refine_ls_restrained_S_all      1.028
_refine_ls_shift/su_max          0.000
_refine_ls_shift/su_mean         0.000

loop_
_atom_site_label
_atom_site_type_symbol
_atom_site_fract_x
_atom_site_fract_y
_atom_site_fract_z
_atom_site_U_iso_or_equiv
_atom_site_adp_type
_atom_site_occupancy
_atom_site_symmetry_multiplicity
_atom_site_calc_flag
_atom_site_refinement_flags
_atom_site_disorder_assembly
_atom_site_disorder_group
Fe1 Fe 0.8333 0.1667 0.1667 0.0497(4) Uani 1 2 d S . .
N1 N 0.84896(14) 0.11513(13) 0.0445(4) 0.0597(9) Uani 1 1 d . . .
N2 N 0.86009(13) 0.21003(12) -0.0158(4) 0.0519(8) Uani 1 1 d . . .
N3 N 0.86927(14) 0.26032(13) -0.0655(4) 0.0570(9) Uani 1 1 d . . .
N4 N 0.90192(16) 0.22332(15) -0.2349(5) 0.0657(10) Uani 1 1 d . . .
N5 N 0.96051(14) 0.42099(14) -0.4207(4) 0.0563(9) Uani 1 1 d . . .
C1 C 0.8376(2) 0.06314(18) 0.0808(7) 0.0750(14) Uani 1 1 d . . .
H1 H 0.8216 0.0484 0.1716 0.090 Uiso 1 1 calc R . .
C2 C 0.8494(3) 0.0316(2) -0.0158(7) 0.0930(17) Uani 1 1 d . . .
H2 H 0.8407 -0.0042 0.0102 0.112 Uiso 1 1 calc R . .
C3 C 0.8737(3) 0.0530(2) -0.1488(8) 0.0915(17) Uani 1 1 d . . .
H3 H 0.8831 0.0325 -0.2115 0.110 Uiso 1 1 calc R . .
C4 C 0.8843(2) 0.1050(2) -0.1891(7) 0.0777(13) Uani 1 1 d . . .
H4 H 0.8993 0.1197 -0.2808 0.093 Uiso 1 1 calc R . .
C5 C 0.87186(17) 0.13511(16) -0.0891(5) 0.0586(10) Uani 1 1 d . . .
C6 C 0.87937(16) 0.19021(15) -0.1182(5) 0.0570(10) Uani 1 1 d . . .
C7 C 0.89476(16) 0.26612(16) -0.1955(5) 0.0575(10) Uani 1 1 d . . .
C8 C 0.91495(16) 0.31790(15) -0.2803(5) 0.0554(10) Uani 1 1 d . . .
C9 C 0.89882(19) 0.35643(17) -0.2449(6) 0.0686(13) Uani 1 1 d . . .
H9 H 0.8724 0.3483 -0.1718 0.082 Uiso 1 1 calc R . .
C10 C 0.92145(18) 0.40571(17) -0.3165(5) 0.0638(11) Uani 1 1 d . . .
H10 H 0.9092 0.4303 -0.2920 0.077 Uiso 1 1 calc R . .
C11 C 0.9749(2) 0.38338(18) -0.4587(6) 0.0745(14) Uani 1 1 d . . .
H11 H 1.0008 0.3922 -0.5336 0.089 Uiso 1 1 calc R . .
C12 C 0.9528(2) 0.33178(18) -0.3911(6) 0.0707(13) Uani 1 1 d . . .
H12 H 0.9638 0.3068 -0.4213 0.085 Uiso 1 1 calc R . .

loop_
_atom_site_aniso_label
_atom_site_aniso_U_11
_atom_site_aniso_U_22
_atom_site_aniso_U_33
_atom_site_aniso_U_23
_atom_site_aniso_U_13
_atom_site_aniso_U_12
Fe1 0.0440(5) 0.0379(5) 0.0563(6) 0.0094(3) -0.0133(3) 0.0123(3)
N1 0.0569(19) 0.0376(15) 0.076(2) 0.0102(15) -0.0150(16) 0.0169(14)
N2 0.0491(16) 0.0449(16) 0.056(2) 0.0096(13) -0.0090(14) 0.0190(14)
N3 0.0560(18) 0.0456(17) 0.060(2) 0.0147(14) -0.0038(15) 0.0186(14)
N4 0.072(2) 0.0525(19) 0.068(2) 0.0129(16) 0.0026(17) 0.0280(18)
N5 0.0622(19) 0.0482(17) 0.064(2) 0.0131(15) 0.0187(16) 0.0318(16)
C1 0.082(3) 0.050(2) 0.092(4) 0.012(2) -0.001(3) 0.032(2)
C2 0.107(4) 0.054(3) 0.116(5) 0.013(3) 0.003(4) 0.039(3)
C3 0.099(4) 0.069(3) 0.114(5) -0.008(3) -0.007(4) 0.048(3)
C4 0.085(3) 0.070(3) 0.077(3) 0.007(2) 0.001(3) 0.039(3)
C5 0.056(2) 0.049(2) 0.068(3) 0.0085(18) -0.0071(18) 0.0247(17)
C6 0.049(2) 0.0437(19) 0.066(3) 0.0100(17) -0.0095(18) 0.0135(16)
C7 0.054(2) 0.049(2) 0.063(3) 0.0148(18) -0.0026(18) 0.0204(17)
C8 0.051(2) 0.046(2) 0.064(3) 0.0123(17) 0.0007(17) 0.0196(16)
C9 0.065(2) 0.054(2) 0.083(3) 0.017(2) 0.027(2) 0.026(2)
C10 0.067(3) 0.053(2) 0.076(3) 0.020(2) 0.028(2) 0.033(2)
C11 0.095(3) 0.063(3) 0.082(3) 0.024(2) 0.038(3) 0.052(3)
C12 0.086(3) 0.057(2) 0.081(3) 0.019(2) 0.021(2) 0.044(2)

_geom_special_details            
;
All esds (except the esd in the dihedral angle between two l.s. planes)
are estimated using the full covariance matrix. The cell esds are taken
into account individually in the estimation of esds in distances, angles
and torsion angles; correlations between esds in cell parameters are only
used when they are defined by crystal symmetry. An approximate (isotropic)
treatment of cell esds is used for estimating esds involving l.s. planes.
;

loop_
_geom_bond_atom_site_label_1
_geom_bond_atom_site_label_2
_geom_bond_distance
_geom_bond_site_symmetry_2
_geom_bond_publ_flag
Fe1 N2 1.965(3) 13_655 ?
Fe1 N2 1.965(3) . ?
Fe1 N1 2.024(4) . ?
Fe1 N1 2.025(4) 13_655 ?
Fe1 N5 2.035(3) 17_554 ?
Fe1 N5 2.035(3) 8_645 ?
N1 C5 1.355(6) . ?
N1 C1 1.357(5) . ?
N2 C6 1.324(6) . ?
N2 N3 1.367(4) . ?
N3 C7 1.345(6) . ?
N4 C6 1.337(5) . ?
N4 C7 1.350(6) . ?
N5 C11 1.339(5) . ?
N5 C10 1.340(5) . ?
N5 Fe1 2.035(3) 6_664 ?
C1 C2 1.392(8) . ?
C1 H1 0.9300 . ?
C2 C3 1.368(9) . ?
C2 H2 0.9300 . ?
C3 C4 1.375(7) . ?
C3 H3 0.9300 . ?
C4 C5 1.390(7) . ?
C4 H4 0.9300 . ?
C5 C6 1.463(6) . ?
C7 C8 1.474(5) . ?
C8 C12 1.366(6) . ?
C8 C9 1.390(6) . ?
C9 C10 1.355(6) . ?
C9 H9 0.9300 . ?
C10 H10 0.9300 . ?
C11 C12 1.390(6) . ?
C11 H11 0.9300 . ?
C12 H12 0.9300 . ?

loop_
_geom_angle_atom_site_label_1
_geom_angle_atom_site_label_2
_geom_angle_atom_site_label_3
_geom_angle
_geom_angle_site_symmetry_1
_geom_angle_site_symmetry_3
_geom_angle_publ_flag
N2 Fe1 N2 180.0 13_655 . ?
N2 Fe1 N1 100.25(14) 13_655 . ?
N2 Fe1 N1 79.75(14) . . ?
N2 Fe1 N1 79.75(14) 13_655 13_655 ?
N2 Fe1 N1 100.25(14) . 13_655 ?
N1 Fe1 N1 180.0 . 13_655 ?
N2 Fe1 N5 89.56(13) 13_655 17_554 ?
N2 Fe1 N5 90.44(13) . 17_554 ?
N1 Fe1 N5 88.81(14) . 17_554 ?
N1 Fe1 N5 91.19(14) 13_655 17_554 ?
N2 Fe1 N5 90.44(13) 13_655 8_645 ?
N2 Fe1 N5 89.56(13) . 8_645 ?
N1 Fe1 N5 91.19(14) . 8_645 ?
N1 Fe1 N5 88.82(14) 13_655 8_645 ?
N5 Fe1 N5 180.0 17_554 8_645 ?
C5 N1 C1 117.8(4) . . ?
C5 N1 Fe1 115.1(2) . . ?
C1 N1 Fe1 127.0(3) . . ?
C6 N2 N3 106.7(3) . . ?
C6 N2 Fe1 116.5(2) . . ?
N3 N2 Fe1 136.6(3) . . ?
C7 N3 N2 103.3(3) . . ?
C6 N4 C7 99.9(4) . . ?
C11 N5 C10 116.5(3) . . ?
C11 N5 Fe1 122.8(3) . 6_664 ?
C10 N5 Fe1 120.5(3) . 6_664 ?
N1 C1 C2 121.0(5) . . ?
N1 C1 H1 119.5 . . ?
C2 C1 H1 119.5 . . ?
C3 C2 C1 120.2(5) . . ?
C3 C2 H2 119.9 . . ?
C1 C2 H2 119.9 . . ?
C2 C3 C4 119.6(6) . . ?
C2 C3 H3 120.2 . . ?
C4 C3 H3 120.2 . . ?
C3 C4 C5 118.2(5) . . ?
C3 C4 H4 120.9 . . ?
C5 C4 H4 120.9 . . ?
N1 C5 C4 123.1(4) . . ?
N1 C5 C6 112.5(4) . . ?
C4 C5 C6 124.3(5) . . ?
N2 C6 N4 114.8(4) . . ?
N2 C6 C5 115.7(4) . . ?
N4 C6 C5 129.5(5) . . ?
N3 C7 N4 115.4(3) . . ?
N3 C7 C8 119.8(4) . . ?
N4 C7 C8 124.8(4) . . ?
C12 C8 C9 116.9(4) . . ?
C12 C8 C7 121.7(4) . . ?
C9 C8 C7 121.3(4) . . ?
C10 C9 C8 120.2(4) . . ?
C10 C9 H9 119.9 . . ?
C8 C9 H9 119.9 . . ?
N5 C10 C9 123.6(4) . . ?
N5 C10 H10 118.2 . . ?
C9 C10 H10 118.2 . . ?
N5 C11 C12 122.8(4) . . ?
N5 C11 H11 118.6 . . ?
C12 C11 H11 118.6 . . ?
C8 C12 C11 119.9(4) . . ?
C8 C12 H12 120.1 . . ?
C11 C12 H12 120.1 . . ?

loop_
_geom_torsion_atom_site_label_1
_geom_torsion_atom_site_label_2
_geom_torsion_atom_site_label_3
_geom_torsion_atom_site_label_4
_geom_torsion
_geom_torsion_site_symmetry_1
_geom_torsion_site_symmetry_2
_geom_torsion_site_symmetry_3
_geom_torsion_site_symmetry_4
_geom_torsion_publ_flag
N2 Fe1 N1 C5 -176.1(3) 13_655 . . . ?
N2 Fe1 N1 C5 3.9(3) . . . . ?
N1 Fe1 N1 C5 69(3) 13_655 . . . ?
N5 Fe1 N1 C5 94.6(3) 17_554 . . . ?
N5 Fe1 N1 C5 -85.4(3) 8_645 . . . ?
N2 Fe1 N1 C1 5.8(4) 13_655 . . . ?
N2 Fe1 N1 C1 -174.2(4) . . . . ?
N1 Fe1 N1 C1 -109(3) 13_655 . . . ?
N5 Fe1 N1 C1 -83.5(4) 17_554 . . . ?
N5 Fe1 N1 C1 96.5(4) 8_645 . . . ?
N2 Fe1 N2 C6 -160.9(15) 13_655 . . . ?
N1 Fe1 N2 C6 -6.1(3) . . . . ?
N1 Fe1 N2 C6 173.9(3) 13_655 . . . ?
N5 Fe1 N2 C6 -94.8(3) 17_554 . . . ?
N5 Fe1 N2 C6 85.2(3) 8_645 . . . ?
N2 Fe1 N2 N3 26.4(12) 13_655 . . . ?
N1 Fe1 N2 N3 -178.9(4) . . . . ?
N1 Fe1 N2 N3 1.1(4) 13_655 . . . ?
N5 Fe1 N2 N3 92.4(3) 17_554 . . . ?
N5 Fe1 N2 N3 -87.6(3) 8_645 . . . ?
C6 N2 N3 C7 -1.0(4) . . . . ?
Fe1 N2 N3 C7 172.2(3) . . . . ?
C5 N1 C1 C2 0.4(7) . . . . ?
Fe1 N1 C1 C2 178.4(4) . . . . ?
N1 C1 C2 C3 1.1(9) . . . . ?
C1 C2 C3 C4 -2.7(10) . . . . ?
C2 C3 C4 C5 2.8(9) . . . . ?
C1 N1 C5 C4 -0.3(6) . . . . ?
Fe1 N1 C5 C4 -178.5(4) . . . . ?
C1 N1 C5 C6 176.9(4) . . . . ?
Fe1 N1 C5 C6 -1.3(4) . . . . ?
C3 C4 C5 N1 -1.3(7) . . . . ?
C3 C4 C5 C6 -178.2(4) . . . . ?
N3 N2 C6 N4 0.8(5) . . . . ?
Fe1 N2 C6 N4 -174.1(3) . . . . ?
N3 N2 C6 C5 -177.9(3) . . . . ?
Fe1 N2 C6 C5 7.3(4) . . . . ?
C7 N4 C6 N2 -0.1(5) . . . . ?
C7 N4 C6 C5 178.4(4) . . . . ?
N1 C5 C6 N2 -3.8(5) . . . . ?
C4 C5 C6 N2 173.4(4) . . . . ?
N1 C5 C6 N4 177.8(4) . . . . ?
C4 C5 C6 N4 -5.0(7) . . . . ?
N2 N3 C7 N4 1.1(5) . . . . ?
N2 N3 C7 C8 -176.1(3) . . . . ?
C6 N4 C7 N3 -0.6(5) . . . . ?
C6 N4 C7 C8 176.4(4) . . . . ?
N3 C7 C8 C12 162.9(4) . . . . ?
N4 C7 C8 C12 -13.9(7) . . . . ?
N3 C7 C8 C9 -13.0(6) . . . . ?
N4 C7 C8 C9 170.1(4) . . . . ?
C12 C8 C9 C10 -1.6(7) . . . . ?
C7 C8 C9 C10 174.5(5) . . . . ?
C11 N5 C10 C9 3.5(8) . . . . ?
Fe1 N5 C10 C9 -170.9(4) 6_664 . . . ?
C8 C9 C10 N5 -1.5(8) . . . . ?
C10 N5 C11 C12 -2.6(8) . . . . ?
Fe1 N5 C11 C12 171.7(4) 6_664 . . . ?
C9 C8 C12 C11 2.5(7) . . . . ?
C7 C8 C12 C11 -173.7(5) . . . . ?
N5 C11 C12 C8 -0.4(9) . . . . ?

_diffrn_measured_fraction_theta_max 0.951
_diffrn_reflns_theta_full        27.00
_diffrn_measured_fraction_theta_full 0.951
_refine_diff_density_max         1.648
_refine_diff_density_min         -0.579
_refine_diff_density_rms         0.122
