####################################################################### 
# 
# This file contains crystal structure data downloaded from the 
# Cambridge Structural Database (CSD) hosted by the Cambridge 
# Crystallographic Data Centre (CCDC).
# 
# Full information about CCDC data access policies and citation 
# guidelines are available at http://www.ccdc.cam.ac.uk/access/V1 
# 
# Audit and citation data items may have been added by the CCDC. 
# Please retain this information to preserve the provenance of 
# this file and to allow appropriate attribution of the data. 
# 
#######################################################################

data_2a_173K
_audit_block_doi                 10.5517/cctsh24
_database_code_depnum_ccdc_archive 'CCDC 768306'
loop_
_citation_id
_citation_doi
_citation_year
1 10.1002/chem.201001179 2010
_audit_update_record             
;
2010-03-04 deposited with the CCDC.	2024-07-08 downloaded from the CCDC.
;

_audit_creation_method           SHELXL-97
_chemical_name_systematic        
;
?
;
_chemical_name_common            ?
_chemical_melting_point          ?
_chemical_formula_moiety         ?
_chemical_formula_sum            'C24 H20.33 Fe N10 O2.17'
_chemical_formula_weight         539.35

loop_
_atom_type_symbol
_atom_type_description
_atom_type_scat_dispersion_real
_atom_type_scat_dispersion_imag
_atom_type_scat_source
C C 0.0033 0.0016 'International Tables Vol C Tables 4.2.6.8 and 6.1.1.4'
H H 0.0000 0.0000 'International Tables Vol C Tables 4.2.6.8 and 6.1.1.4'
N N 0.0061 0.0033 'International Tables Vol C Tables 4.2.6.8 and 6.1.1.4'
O O 0.0106 0.0060 'International Tables Vol C Tables 4.2.6.8 and 6.1.1.4'
Fe Fe 0.3463 0.8444 'International Tables Vol C Tables 4.2.6.8 and 6.1.1.4'

_symmetry_cell_setting           ?
_symmetry_space_group_name_H-M   R-3

loop_
_symmetry_equiv_pos_as_xyz
'x, y, z'
'-y, x-y, z'
'-x+y, -x, z'
'x+2/3, y+1/3, z+1/3'
'-y+2/3, x-y+1/3, z+1/3'
'-x+y+2/3, -x+1/3, z+1/3'
'x+1/3, y+2/3, z+2/3'
'-y+1/3, x-y+2/3, z+2/3'
'-x+y+1/3, -x+2/3, z+2/3'
'-x, -y, -z'
'y, -x+y, -z'
'x-y, x, -z'
'-x+2/3, -y+1/3, -z+1/3'
'y+2/3, -x+y+1/3, -z+1/3'
'x-y+2/3, x+1/3, -z+1/3'
'-x+1/3, -y+2/3, -z+2/3'
'y+1/3, -x+y+2/3, -z+2/3'
'x-y+1/3, x+2/3, -z+2/3'

_cell_length_a                   27.608(4)
_cell_length_b                   27.608(4)
_cell_length_c                   8.937(3)
_cell_angle_alpha                90.00
_cell_angle_beta                 90.00
_cell_angle_gamma                120.00
_cell_volume                     5899(2)
_cell_formula_units_Z            9
_cell_measurement_temperature    173(2)
_cell_measurement_reflns_used    ?
_cell_measurement_theta_min      ?
_cell_measurement_theta_max      ?

_exptl_crystal_description       ?
_exptl_crystal_colour            ?
_exptl_crystal_size_max          0.24
_exptl_crystal_size_mid          0.17
_exptl_crystal_size_min          0.13
_exptl_crystal_density_meas      ?
_exptl_crystal_density_diffrn    1.366
_exptl_crystal_density_method    'not measured'
_exptl_crystal_F_000             2499
_exptl_absorpt_coefficient_mu    0.617
_exptl_absorpt_correction_type   none
_exptl_absorpt_correction_T_min  0.8660
_exptl_absorpt_correction_T_max  0.9241
_exptl_absorpt_process_details   ?

_exptl_special_details           
;
?
;

_diffrn_ambient_temperature      173(2)
_diffrn_radiation_wavelength     0.71073
_diffrn_radiation_type           MoK\a
_diffrn_radiation_source         'fine-focus sealed tube'
_diffrn_radiation_monochromator  graphite
_diffrn_measurement_device_type  ?
_diffrn_measurement_method       ?
_diffrn_detector_area_resol_mean ?
_diffrn_standards_number         ?
_diffrn_standards_interval_count ?
_diffrn_standards_interval_time  ?
_diffrn_standards_decay_%        ?
_diffrn_reflns_number            9293
_diffrn_reflns_av_R_equivalents  0.1230
_diffrn_reflns_av_sigmaI/netI    0.1434
_diffrn_reflns_limit_h_min       -32
_diffrn_reflns_limit_h_max       33
_diffrn_reflns_limit_k_min       -21
_diffrn_reflns_limit_k_max       33
_diffrn_reflns_limit_l_min       -10
_diffrn_reflns_limit_l_max       11
_diffrn_reflns_theta_min         2.43
_diffrn_reflns_theta_max         26.24
_reflns_number_total             2581
_reflns_number_gt                1249
_reflns_threshold_expression     >2sigma(I)

_computing_data_collection       ?
_computing_cell_refinement       ?
_computing_data_reduction        ?
_computing_structure_solution    'SHELXS-97 (Sheldrick, 1990)'
_computing_structure_refinement  'SHELXL-97 (Sheldrick, 1997)'
_computing_molecular_graphics    ?
_computing_publication_material  ?

_refine_special_details          
;
Refinement of F^2^ against ALL reflections. The weighted R-factor wR and
goodness of fit S are based on F^2^, conventional R-factors R are based
on F, with F set to zero for negative F^2^. The threshold expression of
F^2^ > 2sigma(F^2^) is used only for calculating R-factors(gt) etc. and is
not relevant to the choice of reflections for refinement. R-factors based
on F^2^ are statistically about twice as large as those based on F, and R-
factors based on ALL data will be even larger.
;

_refine_ls_structure_factor_coef Fsqd
_refine_ls_matrix_type           full
_refine_ls_weighting_scheme      calc
_refine_ls_weighting_details     
'calc w=1/[\s^2^(Fo^2^)+(0.1425P)^2^+0.0000P] where P=(Fo^2^+2Fc^2^)/3'
_atom_sites_solution_primary     direct
_atom_sites_solution_secondary   difmap
_atom_sites_solution_hydrogens   geom
_refine_ls_hydrogen_treatment    constr
_refine_ls_extinction_method     none
_refine_ls_extinction_coef       ?
_refine_ls_number_reflns         2581
_refine_ls_number_parameters     169
_refine_ls_number_restraints     0
_refine_ls_R_factor_all          0.1729
_refine_ls_R_factor_gt           0.0799
_refine_ls_wR_factor_ref         0.2576
_refine_ls_wR_factor_gt          0.2031
_refine_ls_goodness_of_fit_ref   0.994
_refine_ls_restrained_S_all      0.994
_refine_ls_shift/su_max          0.000
_refine_ls_shift/su_mean         0.000

loop_
_atom_site_label
_atom_site_type_symbol
_atom_site_fract_x
_atom_site_fract_y
_atom_site_fract_z
_atom_site_U_iso_or_equiv
_atom_site_adp_type
_atom_site_occupancy
_atom_site_symmetry_multiplicity
_atom_site_calc_flag
_atom_site_refinement_flags
_atom_site_disorder_assembly
_atom_site_disorder_group
Fe1 Fe 1.0000 0.5000 0.0000 0.0307(5) Uani 1 2 d S . .
N1 N 0.9834(2) 0.5253(2) 0.1850(6) 0.0315(13) Uani 1 1 d . . .
N2 N 0.9422(2) 0.5343(2) 0.2382(6) 0.0325(13) Uani 1 1 d . . .
N3 N 1.0121(2) 0.5678(2) 0.4074(6) 0.0380(14) Uani 1 1 d . . .
N4 N 1.0674(2) 0.5151(2) 0.1207(6) 0.0324(13) Uani 1 1 d . . .
N5 N 0.8727(2) 0.6278(2) 0.5923(6) 0.0342(14) Uani 1 1 d . . .
C1 C 1.0239(3) 0.5456(3) 0.2884(7) 0.0309(15) Uani 1 1 d . . .
C2 C 0.9618(3) 0.5601(3) 0.3686(7) 0.0307(15) Uani 1 1 d . . .
C3 C 1.0710(3) 0.5382(3) 0.2585(8) 0.0345(16) Uani 1 1 d . . .
C4 C 1.1144(3) 0.5512(3) 0.3548(8) 0.0440(19) Uani 1 1 d . . .
H4 H 1.1155 0.5675 0.4493 0.053 Uiso 1 1 calc R . .
C5 C 1.1566(3) 0.5406(3) 0.3144(9) 0.0474(19) Uani 1 1 d . . .
H5 H 1.1871 0.5496 0.3797 0.057 Uiso 1 1 calc R . .
C6 C 1.1532(3) 0.5166(3) 0.1773(9) 0.049(2) Uani 1 1 d . . .
H6 H 1.1813 0.5084 0.1469 0.058 Uiso 1 1 calc R . .
C7 C 1.1087(3) 0.5044(3) 0.0837(8) 0.0411(18) Uani 1 1 d . . .
H7 H 1.1069 0.4878 -0.0106 0.049 Uiso 1 1 calc R . .
C8 C 0.9304(3) 0.5800(3) 0.4536(7) 0.0309(15) Uani 1 1 d . . .
C9 C 0.9549(3) 0.6204(3) 0.5646(7) 0.0365(17) Uani 1 1 d . . .
H9 H 0.9920 0.6323 0.5960 0.044 Uiso 1 1 calc R . .
C10 C 0.9259(3) 0.6427(3) 0.6282(8) 0.0390(17) Uani 1 1 d . . .
H10 H 0.9441 0.6705 0.7028 0.047 Uiso 1 1 calc R . .
C11 C 0.8482(3) 0.5863(3) 0.4903(7) 0.0309(15) Uani 1 1 d . . .
H11 H 0.8100 0.5727 0.4668 0.037 Uiso 1 1 calc R . .
C12 C 0.8750(3) 0.5629(3) 0.4193(8) 0.0360(17) Uani 1 1 d . . .
H12 H 0.8558 0.5347 0.3461 0.043 Uiso 1 1 calc R . .
O1W O 1.2635(13) 0.7056(13) 0.598(3) 0.253(13) Uiso 0.50 1 d P . .
O2W O 1.347(2) 0.7118(14) -0.018(4) 0.34(2) Uiso 0.50 1 d P . .
O3W O 1.3333 0.6667 0.1667 0.30(4) Uiso 0.50 6 d SP . .

loop_
_atom_site_aniso_label
_atom_site_aniso_U_11
_atom_site_aniso_U_22
_atom_site_aniso_U_33
_atom_site_aniso_U_23
_atom_site_aniso_U_13
_atom_site_aniso_U_12
Fe1 0.0362(9) 0.0280(8) 0.0323(8) 0.0074(6) 0.0124(6) 0.0194(7)
N1 0.033(3) 0.028(3) 0.038(3) 0.008(3) 0.010(3) 0.019(3)
N2 0.039(3) 0.031(3) 0.035(3) 0.006(2) 0.014(3) 0.023(3)
N3 0.044(4) 0.036(3) 0.038(3) -0.003(3) 0.008(3) 0.023(3)
N4 0.039(3) 0.032(3) 0.031(3) 0.009(2) 0.018(3) 0.021(3)
N5 0.028(3) 0.037(3) 0.031(3) -0.009(2) -0.002(2) 0.011(3)
C1 0.031(4) 0.035(4) 0.033(4) 0.003(3) 0.009(3) 0.022(3)
C2 0.029(4) 0.030(4) 0.032(4) -0.001(3) 0.011(3) 0.014(3)
C3 0.037(4) 0.029(4) 0.038(4) 0.004(3) 0.005(3) 0.017(3)
C4 0.049(5) 0.042(4) 0.046(5) 0.001(4) 0.008(4) 0.027(4)
C5 0.038(4) 0.056(5) 0.055(5) 0.000(4) 0.002(4) 0.028(4)
C6 0.040(4) 0.064(5) 0.053(5) 0.001(4) 0.004(4) 0.034(4)
C7 0.049(5) 0.045(4) 0.042(4) 0.003(3) 0.017(4) 0.033(4)
C8 0.033(4) 0.032(4) 0.032(4) 0.001(3) 0.007(3) 0.020(3)
C9 0.030(4) 0.045(4) 0.041(4) -0.010(3) 0.001(3) 0.023(3)
C10 0.028(4) 0.048(4) 0.040(4) -0.019(3) -0.008(3) 0.018(3)
C11 0.025(3) 0.029(4) 0.033(4) -0.011(3) -0.002(3) 0.010(3)
C12 0.037(4) 0.033(4) 0.039(4) -0.009(3) -0.002(3) 0.018(3)

_geom_special_details            
;
All esds (except the esd in the dihedral angle between two l.s. planes)
are estimated using the full covariance matrix. The cell esds are taken
into account individually in the estimation of esds in distances, angles
and torsion angles; correlations between esds in cell parameters are only
used when they are defined by crystal symmetry. An approximate (isotropic)
treatment of cell esds is used for estimating esds involving l.s. planes.
;

loop_
_geom_bond_atom_site_label_1
_geom_bond_atom_site_label_2
_geom_bond_distance
_geom_bond_site_symmetry_2
_geom_bond_publ_flag
Fe1 N1 1.937(5) . ?
Fe1 N1 1.937(5) 10_765 ?
Fe1 N5 1.983(5) 17 ?
Fe1 N5 1.983(5) 5_654 ?
Fe1 N4 2.007(6) . ?
Fe1 N4 2.007(6) 10_765 ?
N1 C1 1.339(8) . ?
N1 N2 1.365(7) . ?
N2 C2 1.332(8) . ?
N3 C2 1.341(8) . ?
N3 C1 1.347(8) . ?
N4 C7 1.352(8) . ?
N4 C3 1.367(8) . ?
N5 C10 1.351(8) . ?
N5 C11 1.352(8) . ?
N5 Fe1 1.983(5) 9_665 ?
C1 C3 1.439(9) . ?
C2 C8 1.453(8) . ?
C3 C4 1.369(9) . ?
C4 C5 1.384(9) . ?
C4 H4 0.9500 . ?
C5 C6 1.373(10) . ?
C5 H5 0.9500 . ?
C6 C7 1.381(10) . ?
C6 H6 0.9500 . ?
C7 H7 0.9500 . ?
C8 C9 1.388(9) . ?
C8 C12 1.389(9) . ?
C9 C10 1.355(8) . ?
C9 H9 0.9500 . ?
C10 H10 0.9500 . ?
C11 C12 1.358(8) . ?
C11 H11 0.9500 . ?
C12 H12 0.9500 . ?

loop_
_geom_angle_atom_site_label_1
_geom_angle_atom_site_label_2
_geom_angle_atom_site_label_3
_geom_angle
_geom_angle_site_symmetry_1
_geom_angle_site_symmetry_3
_geom_angle_publ_flag
N1 Fe1 N1 180.0(3) . 10_765 ?
N1 Fe1 N5 90.6(2) . 17 ?
N1 Fe1 N5 89.4(2) 10_765 17 ?
N1 Fe1 N5 89.4(2) . 5_654 ?
N1 Fe1 N5 90.6(2) 10_765 5_654 ?
N5 Fe1 N5 180.0(2) 17 5_654 ?
N1 Fe1 N4 80.1(2) . . ?
N1 Fe1 N4 99.9(2) 10_765 . ?
N5 Fe1 N4 89.2(2) 17 . ?
N5 Fe1 N4 90.8(2) 5_654 . ?
N1 Fe1 N4 99.9(2) . 10_765 ?
N1 Fe1 N4 80.1(2) 10_765 10_765 ?
N5 Fe1 N4 90.8(2) 17 10_765 ?
N5 Fe1 N4 89.2(2) 5_654 10_765 ?
N4 Fe1 N4 180.00(19) . 10_765 ?
C1 N1 N2 106.4(5) . . ?
C1 N1 Fe1 116.1(4) . . ?
N2 N1 Fe1 137.1(4) . . ?
C2 N2 N1 104.4(5) . . ?
C2 N3 C1 101.0(6) . . ?
C7 N4 C3 116.7(6) . . ?
C7 N4 Fe1 128.2(5) . . ?
C3 N4 Fe1 115.1(4) . . ?
C10 N5 C11 115.0(5) . . ?
C10 N5 Fe1 124.3(4) . 9_665 ?
C11 N5 Fe1 120.5(4) . 9_665 ?
N1 C1 N3 113.2(6) . . ?
N1 C1 C3 116.0(6) . . ?
N3 C1 C3 130.7(6) . . ?
N2 C2 N3 115.1(6) . . ?
N2 C2 C8 120.0(6) . . ?
N3 C2 C8 124.9(6) . . ?
N4 C3 C4 122.6(6) . . ?
N4 C3 C1 111.9(6) . . ?
C4 C3 C1 125.5(6) . . ?
C3 C4 C5 120.0(7) . . ?
C3 C4 H4 120.0 . . ?
C5 C4 H4 120.0 . . ?
C6 C5 C4 118.2(7) . . ?
C6 C5 H5 120.9 . . ?
C4 C5 H5 120.9 . . ?
C5 C6 C7 119.8(7) . . ?
C5 C6 H6 120.1 . . ?
C7 C6 H6 120.1 . . ?
N4 C7 C6 122.8(7) . . ?
N4 C7 H7 118.6 . . ?
C6 C7 H7 118.6 . . ?
C9 C8 C12 116.3(6) . . ?
C9 C8 C2 122.2(6) . . ?
C12 C8 C2 121.3(6) . . ?
C10 C9 C8 120.1(6) . . ?
C10 C9 H9 119.9 . . ?
C8 C9 H9 119.9 . . ?
N5 C10 C9 124.2(6) . . ?
N5 C10 H10 117.9 . . ?
C9 C10 H10 117.9 . . ?
N5 C11 C12 124.0(6) . . ?
N5 C11 H11 118.0 . . ?
C12 C11 H11 118.0 . . ?
C11 C12 C8 120.2(6) . . ?
C11 C12 H12 119.9 . . ?
C8 C12 H12 119.9 . . ?

loop_
_geom_torsion_atom_site_label_1
_geom_torsion_atom_site_label_2
_geom_torsion_atom_site_label_3
_geom_torsion_atom_site_label_4
_geom_torsion
_geom_torsion_site_symmetry_1
_geom_torsion_site_symmetry_2
_geom_torsion_site_symmetry_3
_geom_torsion_site_symmetry_4
_geom_torsion_publ_flag
N1 Fe1 N1 C1 6.5(18) 10_765 . . . ?
N5 Fe1 N1 C1 96.6(5) 17 . . . ?
N5 Fe1 N1 C1 -83.4(5) 5_654 . . . ?
N4 Fe1 N1 C1 7.5(4) . . . . ?
N4 Fe1 N1 C1 -172.5(4) 10_765 . . . ?
N1 Fe1 N1 N2 178(2) 10_765 . . . ?
N5 Fe1 N1 N2 -92.3(6) 17 . . . ?
N5 Fe1 N1 N2 87.7(6) 5_654 . . . ?
N4 Fe1 N1 N2 178.6(6) . . . . ?
N4 Fe1 N1 N2 -1.4(6) 10_765 . . . ?
C1 N1 N2 C2 0.9(6) . . . . ?
Fe1 N1 N2 C2 -170.8(5) . . . . ?
N1 Fe1 N4 C7 174.0(5) . . . . ?
N1 Fe1 N4 C7 -6.0(5) 10_765 . . . ?
N5 Fe1 N4 C7 83.3(5) 17 . . . ?
N5 Fe1 N4 C7 -96.7(5) 5_654 . . . ?
N4 Fe1 N4 C7 0(100) 10_765 . . . ?
N1 Fe1 N4 C3 -4.7(4) . . . . ?
N1 Fe1 N4 C3 175.3(4) 10_765 . . . ?
N5 Fe1 N4 C3 -95.4(4) 17 . . . ?
N5 Fe1 N4 C3 84.6(4) 5_654 . . . ?
N4 Fe1 N4 C3 0(100) 10_765 . . . ?
N2 N1 C1 N3 -0.3(7) . . . . ?
Fe1 N1 C1 N3 173.4(4) . . . . ?
N2 N1 C1 C3 177.3(5) . . . . ?
Fe1 N1 C1 C3 -9.0(7) . . . . ?
C2 N3 C1 N1 -0.5(7) . . . . ?
C2 N3 C1 C3 -177.6(7) . . . . ?
N1 N2 C2 N3 -1.4(7) . . . . ?
N1 N2 C2 C8 175.5(5) . . . . ?
C1 N3 C2 N2 1.2(7) . . . . ?
C1 N3 C2 C8 -175.5(6) . . . . ?
C7 N4 C3 C4 1.2(9) . . . . ?
Fe1 N4 C3 C4 -179.9(5) . . . . ?
C7 N4 C3 C1 -177.5(5) . . . . ?
Fe1 N4 C3 C1 1.4(7) . . . . ?
N1 C1 C3 N4 4.8(8) . . . . ?
N3 C1 C3 N4 -178.2(6) . . . . ?
N1 C1 C3 C4 -173.9(6) . . . . ?
N3 C1 C3 C4 3.2(11) . . . . ?
N4 C3 C4 C5 -0.5(10) . . . . ?
C1 C3 C4 C5 178.1(6) . . . . ?
C3 C4 C5 C6 -0.5(11) . . . . ?
C4 C5 C6 C7 0.7(11) . . . . ?
C3 N4 C7 C6 -1.0(9) . . . . ?
Fe1 N4 C7 C6 -179.7(5) . . . . ?
C5 C6 C7 N4 0.1(11) . . . . ?
N2 C2 C8 C9 -160.9(6) . . . . ?
N3 C2 C8 C9 15.6(10) . . . . ?
N2 C2 C8 C12 13.8(9) . . . . ?
N3 C2 C8 C12 -169.6(6) . . . . ?
C12 C8 C9 C10 -3.1(10) . . . . ?
C2 C8 C9 C10 171.9(6) . . . . ?
C11 N5 C10 C9 2.8(10) . . . . ?
Fe1 N5 C10 C9 -172.2(6) 9_665 . . . ?
C8 C9 C10 N5 0.9(11) . . . . ?
C10 N5 C11 C12 -4.3(10) . . . . ?
Fe1 N5 C11 C12 170.9(5) 9_665 . . . ?
N5 C11 C12 C8 2.2(10) . . . . ?
C9 C8 C12 C11 1.6(9) . . . . ?
C2 C8 C12 C11 -173.4(6) . . . . ?

loop_
_geom_hbond_atom_site_label_D
_geom_hbond_atom_site_label_H
_geom_hbond_atom_site_label_A
_geom_hbond_distance_DH
_geom_hbond_distance_HA
_geom_hbond_distance_DA
_geom_hbond_angle_DHA
_geom_hbond_site_symmetry_A
C7 H7 N2 0.95 2.35 3.145(10) 141.0 10_765

_diffrn_measured_fraction_theta_max 0.975
_diffrn_reflns_theta_full        26.24
_diffrn_measured_fraction_theta_full 0.975
_refine_diff_density_max         0.857
_refine_diff_density_min         -0.879
_refine_diff_density_rms         0.117
