####################################################################### 
# 
# This file contains crystal structure data downloaded from the 
# Cambridge Structural Database (CSD) hosted by the Cambridge 
# Crystallographic Data Centre (CCDC).
# 
# Full information about CCDC data access policies and citation 
# guidelines are available at http://www.ccdc.cam.ac.uk/access/V1 
# 
# Audit and citation data items may have been added by the CCDC. 
# Please retain this information to preserve the provenance of 
# this file and to allow appropriate attribution of the data. 
# 
#######################################################################

data_2a_293K
_audit_block_doi                 10.5517/cctsh35
_database_code_depnum_ccdc_archive 'CCDC 768307'
loop_
_citation_id
_citation_doi
_citation_year
1 10.1002/chem.201001179 2010
_audit_update_record             
;
2010-03-04 deposited with the CCDC.	2024-07-08 downloaded from the CCDC.
;

_audit_creation_method           SHELXL-97
_chemical_name_systematic        
;
?
;
_chemical_name_common            ?
_chemical_melting_point          ?
_chemical_formula_moiety         ?
_chemical_formula_sum            'C24 H20.33 Fe N10 O2.17'
_chemical_formula_weight         539.35

loop_
_atom_type_symbol
_atom_type_description
_atom_type_scat_dispersion_real
_atom_type_scat_dispersion_imag
_atom_type_scat_source
C C 0.0033 0.0016 'International Tables Vol C Tables 4.2.6.8 and 6.1.1.4'
H H 0.0000 0.0000 'International Tables Vol C Tables 4.2.6.8 and 6.1.1.4'
N N 0.0061 0.0033 'International Tables Vol C Tables 4.2.6.8 and 6.1.1.4'
O O 0.0106 0.0060 'International Tables Vol C Tables 4.2.6.8 and 6.1.1.4'
Fe Fe 0.3463 0.8444 'International Tables Vol C Tables 4.2.6.8 and 6.1.1.4'

_symmetry_cell_setting           ?
_symmetry_space_group_name_H-M   R-3

loop_
_symmetry_equiv_pos_as_xyz
'x, y, z'
'-y, x-y, z'
'-x+y, -x, z'
'x+2/3, y+1/3, z+1/3'
'-y+2/3, x-y+1/3, z+1/3'
'-x+y+2/3, -x+1/3, z+1/3'
'x+1/3, y+2/3, z+2/3'
'-y+1/3, x-y+2/3, z+2/3'
'-x+y+1/3, -x+2/3, z+2/3'
'-x, -y, -z'
'y, -x+y, -z'
'x-y, x, -z'
'-x+2/3, -y+1/3, -z+1/3'
'y+2/3, -x+y+1/3, -z+1/3'
'x-y+2/3, x+1/3, -z+1/3'
'-x+1/3, -y+2/3, -z+2/3'
'y+1/3, -x+y+2/3, -z+2/3'
'x-y+1/3, x+2/3, -z+2/3'

_cell_length_a                   27.787(4)
_cell_length_b                   27.787(4)
_cell_length_c                   9.1222(14)
_cell_angle_alpha                90.00
_cell_angle_beta                 90.00
_cell_angle_gamma                120.00
_cell_volume                     6099.8(16)
_cell_formula_units_Z            9
_cell_measurement_temperature    293(2)
_cell_measurement_reflns_used    ?
_cell_measurement_theta_min      ?
_cell_measurement_theta_max      ?

_exptl_crystal_description       ?
_exptl_crystal_colour            ?
_exptl_crystal_size_max          0.24
_exptl_crystal_size_mid          0.17
_exptl_crystal_size_min          0.13
_exptl_crystal_density_meas      ?
_exptl_crystal_density_diffrn    1.321
_exptl_crystal_density_method    'not measured'
_exptl_crystal_F_000             2499
_exptl_absorpt_coefficient_mu    0.597
_exptl_absorpt_correction_type   none
_exptl_absorpt_correction_T_min  0.8700
_exptl_absorpt_correction_T_max  0.9264
_exptl_absorpt_process_details   ?

_exptl_special_details           
;
?
;

_diffrn_ambient_temperature      293(2)
_diffrn_radiation_wavelength     0.71073
_diffrn_radiation_type           MoK\a
_diffrn_radiation_source         'fine-focus sealed tube'
_diffrn_radiation_monochromator  graphite
_diffrn_measurement_device_type  ?
_diffrn_measurement_method       ?
_diffrn_detector_area_resol_mean ?
_diffrn_standards_number         ?
_diffrn_standards_interval_count ?
_diffrn_standards_interval_time  ?
_diffrn_standards_decay_%        ?
_diffrn_reflns_number            11623
_diffrn_reflns_av_R_equivalents  0.0684
_diffrn_reflns_av_sigmaI/netI    0.0677
_diffrn_reflns_limit_h_min       -36
_diffrn_reflns_limit_h_max       36
_diffrn_reflns_limit_k_min       -36
_diffrn_reflns_limit_k_max       24
_diffrn_reflns_limit_l_min       -11
_diffrn_reflns_limit_l_max       11
_diffrn_reflns_theta_min         3.16
_diffrn_reflns_theta_max         27.46
_reflns_number_total             3078
_reflns_number_gt                1649
_reflns_threshold_expression     >2sigma(I)

_computing_data_collection       ?
_computing_cell_refinement       ?
_computing_data_reduction        ?
_computing_structure_solution    'SHELXS-97 (Sheldrick, 1990)'
_computing_structure_refinement  'SHELXL-97 (Sheldrick, 1997)'
_computing_molecular_graphics    ?
_computing_publication_material  ?

_refine_special_details          
;
Refinement of F^2^ against ALL reflections. The weighted R-factor wR and
goodness of fit S are based on F^2^, conventional R-factors R are based
on F, with F set to zero for negative F^2^. The threshold expression of
F^2^ > 2sigma(F^2^) is used only for calculating R-factors(gt) etc. and is
not relevant to the choice of reflections for refinement. R-factors based
on F^2^ are statistically about twice as large as those based on F, and R-
factors based on ALL data will be even larger.
;

_refine_ls_structure_factor_coef Fsqd
_refine_ls_matrix_type           full
_refine_ls_weighting_scheme      calc
_refine_ls_weighting_details     
'calc w=1/[\s^2^(Fo^2^)+(0.1454P)^2^+0.0000P] where P=(Fo^2^+2Fc^2^)/3'
_atom_sites_solution_primary     direct
_atom_sites_solution_secondary   difmap
_atom_sites_solution_hydrogens   geom
_refine_ls_hydrogen_treatment    constr
_refine_ls_extinction_method     SHELXL
_refine_ls_extinction_coef       0.0005(3)
_refine_ls_extinction_expression Fc^*^=kFc[1+0.001xFc^2^\l^3^/sin(2\q)]^-1/4^
_refine_ls_number_reflns         3078
_refine_ls_number_parameters     161
_refine_ls_number_restraints     0
_refine_ls_R_factor_all          0.1191
_refine_ls_R_factor_gt           0.0642
_refine_ls_wR_factor_ref         0.2316
_refine_ls_wR_factor_gt          0.1792
_refine_ls_goodness_of_fit_ref   0.969
_refine_ls_restrained_S_all      0.969
_refine_ls_shift/su_max          0.000
_refine_ls_shift/su_mean         0.000

loop_
_atom_site_label
_atom_site_type_symbol
_atom_site_fract_x
_atom_site_fract_y
_atom_site_fract_z
_atom_site_U_iso_or_equiv
_atom_site_adp_type
_atom_site_occupancy
_atom_site_symmetry_multiplicity
_atom_site_calc_flag
_atom_site_refinement_flags
_atom_site_disorder_assembly
_atom_site_disorder_group
Fe1 Fe 0.5000 1.0000 0.0000 0.0468(3) Uani 1 2 d S . .
N1 N 0.47294(13) 1.01662(14) 0.1809(3) 0.0485(8) Uani 1 1 d . . .
N2 N 0.46390(14) 1.05753(14) 0.2306(3) 0.0513(8) Uani 1 1 d . . .
N3 N 0.43144(16) 0.98812(16) 0.4002(4) 0.0593(9) Uani 1 1 d . . .
N4 N 0.48466(14) 0.93281(15) 0.1198(3) 0.0521(8) Uani 1 1 d . . .
N5 N 0.37266(14) 1.12752(14) 0.5877(3) 0.0494(8) Uani 1 1 d . . .
C1 C 0.45395(18) 0.97677(18) 0.2828(4) 0.0525(10) Uani 1 1 d . . .
C2 C 0.43840(17) 1.03843(17) 0.3613(4) 0.0505(10) Uani 1 1 d . . .
C3 C 0.46152(18) 0.92962(18) 0.2556(4) 0.0535(10) Uani 1 1 d . . .
C4 C 0.4495(2) 0.8875(2) 0.3535(5) 0.0677(13) Uani 1 1 d . . .
H4 H 0.4341 0.8869 0.4444 0.081 Uiso 1 1 calc R . .
C5 C 0.4608(2) 0.8456(2) 0.3144(6) 0.0777(14) Uani 1 1 d . . .
H5 H 0.4527 0.8162 0.3777 0.093 Uiso 1 1 calc R . .
C6 C 0.4846(3) 0.8490(2) 0.1778(6) 0.0796(15) Uani 1 1 d . . .
H6 H 0.4930 0.8219 0.1494 0.095 Uiso 1 1 calc R . .
C7 C 0.4957(2) 0.8922(2) 0.0845(5) 0.0649(12) Uani 1 1 d . . .
H7 H 0.5114 0.8934 -0.0064 0.078 Uiso 1 1 calc R . .
C8 C 0.41829(17) 1.06930(17) 0.4455(4) 0.0481(9) Uani 1 1 d . . .
C9 C 0.3805(2) 1.04587(19) 0.5579(5) 0.0651(12) Uani 1 1 d . . .
H9 H 0.3701 1.0102 0.5901 0.078 Uiso 1 1 calc R . .
C10 C 0.3580(2) 1.07505(19) 0.6233(5) 0.0665(13) Uani 1 1 d . . .
H10 H 0.3313 1.0574 0.6958 0.080 Uiso 1 1 calc R . .
C11 C 0.41183(19) 1.15105(18) 0.4829(5) 0.0576(11) Uani 1 1 d . . .
H11 H 0.4240 1.1879 0.4582 0.069 Uiso 1 1 calc R . .
C12 C 0.4348(2) 1.12427(19) 0.4107(5) 0.0621(12) Uani 1 1 d . . .
H12 H 0.4614 1.1427 0.3385 0.074 Uiso 1 1 calc R . .

loop_
_atom_site_aniso_label
_atom_site_aniso_U_11
_atom_site_aniso_U_22
_atom_site_aniso_U_33
_atom_site_aniso_U_23
_atom_site_aniso_U_13
_atom_site_aniso_U_12
Fe1 0.0452(5) 0.0545(6) 0.0463(5) -0.0126(3) -0.0066(3) 0.0292(4)
N1 0.0463(18) 0.055(2) 0.0494(16) -0.0107(15) -0.0045(15) 0.0291(16)
N2 0.056(2) 0.057(2) 0.0501(16) -0.0107(15) -0.0025(15) 0.0344(17)
N3 0.067(2) 0.065(2) 0.0546(18) -0.0044(17) 0.0062(17) 0.039(2)
N4 0.051(2) 0.060(2) 0.0534(17) -0.0164(16) -0.0066(15) 0.0340(17)
N5 0.056(2) 0.0446(18) 0.0483(16) 0.0052(14) 0.0090(15) 0.0261(16)
C1 0.054(2) 0.054(2) 0.055(2) -0.0122(19) -0.0043(19) 0.031(2)
C2 0.053(2) 0.056(2) 0.0472(19) -0.0081(18) -0.0009(18) 0.031(2)
C3 0.055(2) 0.056(2) 0.055(2) -0.0092(19) -0.0058(19) 0.032(2)
C4 0.080(3) 0.073(3) 0.061(2) 0.000(2) 0.004(2) 0.047(3)
C5 0.095(4) 0.071(3) 0.077(3) 0.003(3) 0.003(3) 0.049(3)
C6 0.102(4) 0.078(4) 0.084(3) -0.003(3) 0.011(3) 0.064(3)
C7 0.081(3) 0.066(3) 0.064(2) -0.005(2) 0.002(2) 0.050(3)
C8 0.051(2) 0.051(2) 0.0473(19) -0.0031(17) 0.0009(17) 0.0295(19)
C9 0.080(3) 0.053(3) 0.068(2) 0.003(2) 0.019(2) 0.038(2)
C10 0.087(3) 0.056(3) 0.065(2) 0.008(2) 0.026(2) 0.042(3)
C11 0.062(3) 0.050(2) 0.064(2) 0.012(2) 0.020(2) 0.030(2)
C12 0.065(3) 0.064(3) 0.064(2) 0.012(2) 0.025(2) 0.037(2)

_geom_special_details            
;
All esds (except the esd in the dihedral angle between two l.s. planes)
are estimated using the full covariance matrix. The cell esds are taken
into account individually in the estimation of esds in distances, angles
and torsion angles; correlations between esds in cell parameters are only
used when they are defined by crystal symmetry. An approximate (isotropic)
treatment of cell esds is used for estimating esds involving l.s. planes.
;

loop_
_geom_bond_atom_site_label_1
_geom_bond_atom_site_label_2
_geom_bond_distance
_geom_bond_site_symmetry_2
_geom_bond_publ_flag
Fe1 N1 1.962(3) 10_675 ?
Fe1 N1 1.962(3) . ?
Fe1 N4 2.017(4) . ?
Fe1 N4 2.017(4) 10_675 ?
Fe1 N5 2.021(3) 18_655 ?
Fe1 N5 2.021(3) 6_464 ?
N1 C1 1.336(5) . ?
N1 N2 1.359(4) . ?
N2 C2 1.352(5) . ?
N3 C1 1.355(5) . ?
N3 C2 1.360(6) . ?
N4 C7 1.348(5) . ?
N4 C3 1.377(5) . ?
N5 C10 1.343(5) . ?
N5 C11 1.346(5) . ?
N5 Fe1 2.021(3) 8_665 ?
C1 C3 1.448(6) . ?
C2 C8 1.455(5) . ?
C3 C4 1.375(6) . ?
C4 C5 1.396(7) . ?
C4 H4 0.9300 . ?
C5 C6 1.391(7) . ?
C5 H5 0.9300 . ?
C6 C7 1.374(7) . ?
C6 H6 0.9300 . ?
C7 H7 0.9300 . ?
C8 C9 1.376(6) . ?
C8 C12 1.394(6) . ?
C9 C10 1.383(6) . ?
C9 H9 0.9300 . ?
C10 H10 0.9300 . ?
C11 C12 1.367(6) . ?
C11 H11 0.9300 . ?
C12 H12 0.9300 . ?

loop_
_geom_angle_atom_site_label_1
_geom_angle_atom_site_label_2
_geom_angle_atom_site_label_3
_geom_angle
_geom_angle_site_symmetry_1
_geom_angle_site_symmetry_3
_geom_angle_publ_flag
N1 Fe1 N1 180.000(1) 10_675 . ?
N1 Fe1 N4 99.58(13) 10_675 . ?
N1 Fe1 N4 80.42(13) . . ?
N1 Fe1 N4 80.42(13) 10_675 10_675 ?
N1 Fe1 N4 99.58(13) . 10_675 ?
N4 Fe1 N4 180.00(13) . 10_675 ?
N1 Fe1 N5 89.44(13) 10_675 18_655 ?
N1 Fe1 N5 90.56(13) . 18_655 ?
N4 Fe1 N5 88.78(14) . 18_655 ?
N4 Fe1 N5 91.22(14) 10_675 18_655 ?
N1 Fe1 N5 90.56(13) 10_675 6_464 ?
N1 Fe1 N5 89.44(13) . 6_464 ?
N4 Fe1 N5 91.22(14) . 6_464 ?
N4 Fe1 N5 88.78(14) 10_675 6_464 ?
N5 Fe1 N5 180.00(13) 18_655 6_464 ?
C1 N1 N2 107.4(3) . . ?
C1 N1 Fe1 115.4(3) . . ?
N2 N1 Fe1 136.9(3) . . ?
C2 N2 N1 104.2(3) . . ?
C1 N3 C2 100.8(4) . . ?
C7 N4 C3 117.1(4) . . ?
C7 N4 Fe1 127.9(3) . . ?
C3 N4 Fe1 115.0(3) . . ?
C10 N5 C11 115.6(4) . . ?
C10 N5 Fe1 123.1(3) . 8_665 ?
C11 N5 Fe1 121.0(3) . 8_665 ?
N1 C1 N3 113.2(4) . . ?
N1 C1 C3 117.1(3) . . ?
N3 C1 C3 129.7(4) . . ?
N2 C2 N3 114.3(3) . . ?
N2 C2 C8 121.0(4) . . ?
N3 C2 C8 124.7(4) . . ?
C4 C3 N4 123.1(4) . . ?
C4 C3 C1 125.2(4) . . ?
N4 C3 C1 111.7(4) . . ?
C3 C4 C5 119.0(5) . . ?
C3 C4 H4 120.5 . . ?
C5 C4 H4 120.5 . . ?
C6 C5 C4 117.9(5) . . ?
C6 C5 H5 121.0 . . ?
C4 C5 H5 121.0 . . ?
C7 C6 C5 120.4(5) . . ?
C7 C6 H6 119.8 . . ?
C5 C6 H6 119.8 . . ?
N4 C7 C6 122.5(4) . . ?
N4 C7 H7 118.7 . . ?
C6 C7 H7 118.7 . . ?
C9 C8 C12 116.3(4) . . ?
C9 C8 C2 122.8(4) . . ?
C12 C8 C2 120.9(4) . . ?
C8 C9 C10 120.4(4) . . ?
C8 C9 H9 119.8 . . ?
C10 C9 H9 119.8 . . ?
N5 C10 C9 123.5(4) . . ?
N5 C10 H10 118.3 . . ?
C9 C10 H10 118.3 . . ?
N5 C11 C12 124.1(4) . . ?
N5 C11 H11 117.9 . . ?
C12 C11 H11 117.9 . . ?
C11 C12 C8 120.0(4) . . ?
C11 C12 H12 120.0 . . ?
C8 C12 H12 120.0 . . ?

loop_
_geom_torsion_atom_site_label_1
_geom_torsion_atom_site_label_2
_geom_torsion_atom_site_label_3
_geom_torsion_atom_site_label_4
_geom_torsion
_geom_torsion_site_symmetry_1
_geom_torsion_site_symmetry_2
_geom_torsion_site_symmetry_3
_geom_torsion_site_symmetry_4
_geom_torsion_publ_flag
N1 Fe1 N1 C1 107.5(17) 10_675 . . . ?
N4 Fe1 N1 C1 -5.7(3) . . . . ?
N4 Fe1 N1 C1 174.3(3) 10_675 . . . ?
N5 Fe1 N1 C1 -94.3(3) 18_655 . . . ?
N5 Fe1 N1 C1 85.7(3) 6_464 . . . ?
N1 Fe1 N1 N2 -66.3(16) 10_675 . . . ?
N4 Fe1 N1 N2 -179.5(4) . . . . ?
N4 Fe1 N1 N2 0.5(4) 10_675 . . . ?
N5 Fe1 N1 N2 91.9(4) 18_655 . . . ?
N5 Fe1 N1 N2 -88.1(4) 6_464 . . . ?
C1 N1 N2 C2 -1.2(4) . . . . ?
Fe1 N1 N2 C2 172.9(3) . . . . ?
N1 Fe1 N4 C7 5.3(4) 10_675 . . . ?
N1 Fe1 N4 C7 -174.7(4) . . . . ?
N4 Fe1 N4 C7 14(100) 10_675 . . . ?
N5 Fe1 N4 C7 -83.9(4) 18_655 . . . ?
N5 Fe1 N4 C7 96.1(4) 6_464 . . . ?
N1 Fe1 N4 C3 -176.6(3) 10_675 . . . ?
N1 Fe1 N4 C3 3.4(3) . . . . ?
N4 Fe1 N4 C3 -168(100) 10_675 . . . ?
N5 Fe1 N4 C3 94.2(3) 18_655 . . . ?
N5 Fe1 N4 C3 -85.8(3) 6_464 . . . ?
N2 N1 C1 N3 0.8(5) . . . . ?
Fe1 N1 C1 N3 -174.7(3) . . . . ?
N2 N1 C1 C3 -177.4(3) . . . . ?
Fe1 N1 C1 C3 7.0(5) . . . . ?
C2 N3 C1 N1 -0.1(5) . . . . ?
C2 N3 C1 C3 177.9(4) . . . . ?
N1 N2 C2 N3 1.3(5) . . . . ?
N1 N2 C2 C8 -175.8(4) . . . . ?
C1 N3 C2 N2 -0.8(5) . . . . ?
C1 N3 C2 C8 176.1(4) . . . . ?
C7 N4 C3 C4 -0.1(6) . . . . ?
Fe1 N4 C3 C4 -178.4(4) . . . . ?
C7 N4 C3 C1 177.5(4) . . . . ?
Fe1 N4 C3 C1 -0.8(4) . . . . ?
N1 C1 C3 C4 173.5(4) . . . . ?
N3 C1 C3 C4 -4.3(7) . . . . ?
N1 C1 C3 N4 -4.0(5) . . . . ?
N3 C1 C3 N4 178.1(4) . . . . ?
N4 C3 C4 C5 -0.4(7) . . . . ?
C1 C3 C4 C5 -177.7(4) . . . . ?
C3 C4 C5 C6 0.8(8) . . . . ?
C4 C5 C6 C7 -0.8(8) . . . . ?
C3 N4 C7 C6 0.1(7) . . . . ?
Fe1 N4 C7 C6 178.2(4) . . . . ?
C5 C6 C7 N4 0.4(8) . . . . ?
N2 C2 C8 C9 163.2(4) . . . . ?
N3 C2 C8 C9 -13.5(7) . . . . ?
N2 C2 C8 C12 -13.8(6) . . . . ?
N3 C2 C8 C12 169.5(4) . . . . ?
C12 C8 C9 C10 4.5(7) . . . . ?
C2 C8 C9 C10 -172.6(4) . . . . ?
C11 N5 C10 C9 -0.5(7) . . . . ?
Fe1 N5 C10 C9 172.7(4) 8_665 . . . ?
C8 C9 C10 N5 -3.0(8) . . . . ?
C10 N5 C11 C12 2.5(7) . . . . ?
Fe1 N5 C11 C12 -170.9(4) 8_665 . . . ?
N5 C11 C12 C8 -0.8(7) . . . . ?
C9 C8 C12 C11 -2.7(7) . . . . ?
C2 C8 C12 C11 174.4(4) . . . . ?

_diffrn_measured_fraction_theta_max 0.992
_diffrn_reflns_theta_full        27.46
_diffrn_measured_fraction_theta_full 0.992
_refine_diff_density_max         0.859
_refine_diff_density_min         -0.568
_refine_diff_density_rms         0.104
