####################################################################### 
# 
# This file contains crystal structure data downloaded from the 
# Cambridge Structural Database (CSD) hosted by the Cambridge 
# Crystallographic Data Centre (CCDC).
# 
# Full information about CCDC data access policies and citation 
# guidelines are available at http://www.ccdc.cam.ac.uk/access/V1 
# 
# Audit and citation data items may have been added by the CCDC. 
# Please retain this information to preserve the provenance of 
# this file and to allow appropriate attribution of the data. 
# 
#######################################################################

data_3_150K
_audit_block_doi                 10.5517/cctsh79
_database_code_depnum_ccdc_archive 'CCDC 768311'
loop_
_citation_id
_citation_doi
_citation_year
1 10.1002/chem.201001179 2010
_audit_update_record             
;
2010-03-04 deposited with the CCDC.	2024-07-09 downloaded from the CCDC.
;

_audit_creation_method           SHELXL-97
_chemical_name_systematic        
;
?
;
_chemical_name_common            ?
_chemical_melting_point          ?
_chemical_formula_moiety         ?
_chemical_formula_sum            'C40 H56 Fe N10 O12'
_chemical_formula_weight         924.80

loop_
_atom_type_symbol
_atom_type_description
_atom_type_scat_dispersion_real
_atom_type_scat_dispersion_imag
_atom_type_scat_source
C C 0.0033 0.0016 'International Tables Vol C Tables 4.2.6.8 and 6.1.1.4'
H H 0.0000 0.0000 'International Tables Vol C Tables 4.2.6.8 and 6.1.1.4'
N N 0.0061 0.0033 'International Tables Vol C Tables 4.2.6.8 and 6.1.1.4'
O O 0.0106 0.0060 'International Tables Vol C Tables 4.2.6.8 and 6.1.1.4'
Fe Fe 0.3463 0.8444 'International Tables Vol C Tables 4.2.6.8 and 6.1.1.4'

_symmetry_cell_setting           ?
_symmetry_space_group_name_H-M   R-3

loop_
_symmetry_equiv_pos_as_xyz
'x, y, z'
'-y, x-y, z'
'-x+y, -x, z'
'x+2/3, y+1/3, z+1/3'
'-y+2/3, x-y+1/3, z+1/3'
'-x+y+2/3, -x+1/3, z+1/3'
'x+1/3, y+2/3, z+2/3'
'-y+1/3, x-y+2/3, z+2/3'
'-x+y+1/3, -x+2/3, z+2/3'
'-x, -y, -z'
'y, -x+y, -z'
'x-y, x, -z'
'-x+2/3, -y+1/3, -z+1/3'
'y+2/3, -x+y+1/3, -z+1/3'
'x-y+2/3, x+1/3, -z+1/3'
'-x+1/3, -y+2/3, -z+2/3'
'y+1/3, -x+y+2/3, -z+2/3'
'x-y+1/3, x+2/3, -z+2/3'

_cell_length_a                   32.1469(10)
_cell_length_b                   32.1469(10)
_cell_length_c                   11.8998(7)
_cell_angle_alpha                90.00
_cell_angle_beta                 90.00
_cell_angle_gamma                120.00
_cell_volume                     10650.0(8)
_cell_formula_units_Z            9
_cell_measurement_temperature    150(2)
_cell_measurement_reflns_used    ?
_cell_measurement_theta_min      ?
_cell_measurement_theta_max      ?

_exptl_crystal_description       ?
_exptl_crystal_colour            ?
_exptl_crystal_size_max          0.27
_exptl_crystal_size_mid          0.23
_exptl_crystal_size_min          0.17
_exptl_crystal_density_meas      ?
_exptl_crystal_density_diffrn    1.298
_exptl_crystal_density_method    'not measured'
_exptl_crystal_F_000             4392
_exptl_absorpt_coefficient_mu    0.386
_exptl_absorpt_correction_type   none
_exptl_absorpt_correction_T_min  0.9029
_exptl_absorpt_correction_T_max  0.9372
_exptl_absorpt_process_details   ?

_exptl_special_details           
;
?
;

_diffrn_ambient_temperature      150(2)
_diffrn_radiation_wavelength     0.71073
_diffrn_radiation_type           MoK\a
_diffrn_radiation_source         'fine-focus sealed tube'
_diffrn_radiation_monochromator  graphite
_diffrn_measurement_device_type  ?
_diffrn_measurement_method       ?
_diffrn_detector_area_resol_mean ?
_diffrn_standards_number         ?
_diffrn_standards_interval_count ?
_diffrn_standards_interval_time  ?
_diffrn_standards_decay_%        ?
_diffrn_reflns_number            15996
_diffrn_reflns_av_R_equivalents  0.0627
_diffrn_reflns_av_sigmaI/netI    0.0742
_diffrn_reflns_limit_h_min       -40
_diffrn_reflns_limit_h_max       41
_diffrn_reflns_limit_k_min       -40
_diffrn_reflns_limit_k_max       20
_diffrn_reflns_limit_l_min       -15
_diffrn_reflns_limit_l_max       15
_diffrn_reflns_theta_min         3.14
_diffrn_reflns_theta_max         26.98
_reflns_number_total             5005
_reflns_number_gt                3155
_reflns_threshold_expression     >2sigma(I)

_computing_data_collection       ?
_computing_cell_refinement       ?
_computing_data_reduction        ?
_computing_structure_solution    'SHELXS-97 (Sheldrick, 1990)'
_computing_structure_refinement  'SHELXL-97 (Sheldrick, 1997)'
_computing_molecular_graphics    ?
_computing_publication_material  ?

_refine_special_details          
;
Refinement of F^2^ against ALL reflections. The weighted R-factor wR and
goodness of fit S are based on F^2^, conventional R-factors R are based
on F, with F set to zero for negative F^2^. The threshold expression of
F^2^ > 2sigma(F^2^) is used only for calculating R-factors(gt) etc. and is
not relevant to the choice of reflections for refinement. R-factors based
on F^2^ are statistically about twice as large as those based on F, and R-
factors based on ALL data will be even larger.
;

_refine_ls_structure_factor_coef Fsqd
_refine_ls_matrix_type           full
_refine_ls_weighting_scheme      calc
_refine_ls_weighting_details     
'calc w=1/[\s^2^(Fo^2^)+(0.1854P)^2^+2.4927P] where P=(Fo^2^+2Fc^2^)/3'
_atom_sites_solution_primary     direct
_atom_sites_solution_secondary   difmap
_atom_sites_solution_hydrogens   geom
_refine_ls_hydrogen_treatment    constr
_refine_ls_extinction_method     SHELXL
_refine_ls_extinction_coef       0.0005(2)
_refine_ls_extinction_expression Fc^*^=kFc[1+0.001xFc^2^\l^3^/sin(2\q)]^-1/4^
_refine_ls_number_reflns         5005
_refine_ls_number_parameters     287
_refine_ls_number_restraints     14
_refine_ls_R_factor_all          0.1236
_refine_ls_R_factor_gt           0.0811
_refine_ls_wR_factor_ref         0.2898
_refine_ls_wR_factor_gt          0.2332
_refine_ls_goodness_of_fit_ref   1.092
_refine_ls_restrained_S_all      1.109
_refine_ls_shift/su_max          0.008
_refine_ls_shift/su_mean         0.002

loop_
_atom_site_label
_atom_site_type_symbol
_atom_site_fract_x
_atom_site_fract_y
_atom_site_fract_z
_atom_site_U_iso_or_equiv
_atom_site_adp_type
_atom_site_occupancy
_atom_site_symmetry_multiplicity
_atom_site_calc_flag
_atom_site_refinement_flags
_atom_site_disorder_assembly
_atom_site_disorder_group
Fe1 Fe 0.0000 0.5000 1.0000 0.0238(3) Uani 1 2 d S . .
N1 N -0.04831(12) 0.43270(11) 0.9714(3) 0.0266(7) Uani 1 1 d . . .
N2 N -0.05487(12) 0.39854(11) 0.8942(3) 0.0266(7) Uani 1 1 d . . .
N3 N -0.11388(13) 0.36537(12) 1.0257(3) 0.0327(8) Uani 1 1 d . . .
N4 N -0.04311(12) 0.48718(12) 1.1349(3) 0.0274(7) Uani 1 1 d . . .
N5 N -0.14531(12) 0.22701(11) 0.7517(3) 0.0266(7) Uani 1 1 d . . .
C1 C -0.08350(15) 0.41180(14) 1.0470(3) 0.0288(9) Uani 1 1 d . . .
C2 C -0.09466(15) 0.35875(14) 0.9302(3) 0.0305(9) Uani 1 1 d . . .
C3 C -0.08282(14) 0.44205(14) 1.1401(3) 0.0290(9) Uani 1 1 d . . .
C4 C -0.11730(17) 0.42759(16) 1.2222(4) 0.0401(11) Uani 1 1 d . . .
H4 H -0.1441 0.3959 1.2220 0.048 Uiso 1 1 calc R . .
C5 C -0.11244(18) 0.45975(17) 1.3051(4) 0.0440(12) Uani 1 1 d . . .
H5 H -0.1357 0.4509 1.3630 0.053 Uiso 1 1 calc R . .
C6 C -0.07226(18) 0.50569(17) 1.3010(4) 0.0405(11) Uani 1 1 d . . .
H6 H -0.0679 0.5287 1.3568 0.049 Uiso 1 1 calc R . .
C7 C -0.03925(16) 0.51775(15) 1.2175(3) 0.0312(9) Uani 1 1 d . . .
H7 H -0.0121 0.5493 1.2172 0.037 Uiso 1 1 calc R . .
C8 C -0.11276(14) 0.31363(14) 0.8697(3) 0.0286(9) Uani 1 1 d . . .
C9 C -0.09187(14) 0.31185(14) 0.7694(4) 0.0300(9) Uani 1 1 d . . .
H9 H -0.0659 0.3404 0.7393 0.036 Uiso 1 1 calc R . .
C10 C -0.10827(15) 0.26946(14) 0.7131(3) 0.0313(9) Uani 1 1 d . . .
H10 H -0.0933 0.2695 0.6442 0.038 Uiso 1 1 calc R . .
C11 C -0.16582(14) 0.22862(14) 0.8495(3) 0.0300(9) Uani 1 1 d . . .
H11 H -0.1918 0.1996 0.8778 0.036 Uiso 1 1 calc R . .
C12 C -0.15093(15) 0.27019(14) 0.9103(4) 0.0317(9) Uani 1 1 d . . .
H12 H -0.1663 0.2695 0.9790 0.038 Uiso 1 1 calc R . .
O1W O -0.20420(13) 0.30874(14) 1.1388(3) 0.0642(12) Uani 1 1 d . . .
H1WA H -0.1833 0.3314 1.0983 0.077 Uiso 1 1 d RD . .
H1WB H -0.2261 0.2888 1.0954 0.077 Uiso 1 1 d RD . .
O2W O -0.24827(18) 0.33330(17) 1.3093(4) 0.0860(15) Uani 1 1 d . . .
H2WA H -0.2744 0.3078 1.3252 0.103 Uiso 1 1 d RD . .
H2WB H -0.2335 0.3277 1.2576 0.103 Uiso 1 1 d RD . .
O1 O -0.2788(2) 0.2299(3) 1.0301(6) 0.127(3) Uani 1 1 d . . .
O2 O -0.3676(3) 0.2037(4) 0.9458(9) 0.177(4) Uani 1 1 d U . .
C13 C -0.3221(4) 0.2068(4) 1.0990(9) 0.129(4) Uani 1 1 d . . .
H13A H -0.3141 0.2175 1.1780 0.155 Uiso 1 1 calc R . .
H13B H -0.3362 0.1715 1.0967 0.155 Uiso 1 1 calc R . .
C14 C -0.3582(5) 0.2205(7) 1.0532(10) 0.174(6) Uani 1 1 d . . .
H14A H -0.3880 0.2055 1.0987 0.208 Uiso 1 1 calc R . .
H14B H -0.3444 0.2558 1.0544 0.208 Uiso 1 1 calc R . .
C15 C -0.3236(4) 0.2248(6) 0.8758(10) 0.149(5) Uani 1 1 d . . .
H15A H -0.3318 0.2112 0.7991 0.179 Uiso 1 1 calc R . .
H15B H -0.3102 0.2600 0.8700 0.179 Uiso 1 1 calc R . .
C16 C -0.2893(3) 0.2156(4) 0.9219(8) 0.109(3) Uani 1 1 d . . .
H16A H -0.3012 0.1806 0.9176 0.131 Uiso 1 1 calc R . .
H16B H -0.2596 0.2322 0.8766 0.131 Uiso 1 1 calc R . .
O3 O 0.0124(2) 0.60416(19) 1.4264(4) 0.0902(16) Uani 1 1 d . . .
O4 O 0.0457(3) 0.6287(3) 1.6434(6) 0.136(2) Uani 1 1 d U . .
C17 C -0.0171(3) 0.6039(3) 1.5169(7) 0.101(3) Uani 1 1 d . . .
H17A H -0.0417 0.6110 1.4874 0.121 Uiso 1 1 calc R . .
H17B H -0.0339 0.5717 1.5520 0.121 Uiso 1 1 calc R . .
C18 C 0.0117(4) 0.6390(4) 1.5991(8) 0.108(3) Uani 1 1 d . . .
H18A H 0.0282 0.6713 1.5641 0.129 Uiso 1 1 calc R . .
H18B H -0.0091 0.6393 1.6603 0.129 Uiso 1 1 calc R . .
C19 C 0.0770(4) 0.6283(4) 1.5508(8) 0.112(3) Uani 1 1 d . . .
H19A H 0.0941 0.6600 1.5135 0.134 Uiso 1 1 calc R . .
H19B H 0.1011 0.6205 1.5808 0.134 Uiso 1 1 calc R . .
C20 C 0.0458(4) 0.5922(3) 1.4736(8) 0.101(3) Uani 1 1 d . . .
H20A H 0.0650 0.5890 1.4127 0.122 Uiso 1 1 calc R . .
H20B H 0.0282 0.5610 1.5128 0.122 Uiso 1 1 calc R . .

loop_
_atom_site_aniso_label
_atom_site_aniso_U_11
_atom_site_aniso_U_22
_atom_site_aniso_U_33
_atom_site_aniso_U_23
_atom_site_aniso_U_13
_atom_site_aniso_U_12
Fe1 0.0257(5) 0.0206(5) 0.0275(5) -0.0031(3) -0.0041(3) 0.0134(3)
N1 0.0314(18) 0.0235(17) 0.0284(18) -0.0037(13) -0.0044(14) 0.0163(14)
N2 0.0298(17) 0.0191(16) 0.0324(18) -0.0048(13) -0.0041(14) 0.0133(14)
N3 0.0312(19) 0.0265(18) 0.034(2) -0.0044(14) 0.0004(14) 0.0094(15)
N4 0.0302(18) 0.0259(17) 0.0294(18) -0.0044(13) -0.0051(13) 0.0166(15)
N5 0.0255(17) 0.0218(16) 0.0311(18) -0.0010(13) 0.0011(13) 0.0108(14)
C1 0.035(2) 0.024(2) 0.031(2) -0.0040(15) -0.0018(16) 0.0169(18)
C2 0.033(2) 0.026(2) 0.035(2) -0.0025(16) -0.0034(17) 0.0165(18)
C3 0.029(2) 0.026(2) 0.030(2) -0.0013(16) -0.0014(16) 0.0128(17)
C4 0.039(2) 0.033(2) 0.042(3) -0.0008(19) 0.006(2) 0.013(2)
C5 0.049(3) 0.036(2) 0.043(3) -0.006(2) 0.009(2) 0.017(2)
C6 0.049(3) 0.037(2) 0.040(3) -0.0099(19) 0.001(2) 0.024(2)
C7 0.038(2) 0.027(2) 0.032(2) -0.0073(16) -0.0059(17) 0.0194(18)
C8 0.029(2) 0.025(2) 0.032(2) -0.0040(16) -0.0044(16) 0.0134(17)
C9 0.024(2) 0.023(2) 0.038(2) 0.0003(16) 0.0043(16) 0.0084(16)
C10 0.029(2) 0.024(2) 0.033(2) 0.0014(16) 0.0062(16) 0.0069(17)
C11 0.026(2) 0.023(2) 0.034(2) 0.0012(16) 0.0058(16) 0.0077(17)
C12 0.032(2) 0.027(2) 0.033(2) -0.0042(16) 0.0026(17) 0.0114(18)
O1W 0.050(2) 0.055(2) 0.059(2) -0.0104(18) 0.0162(18) 0.0048(19)
O2W 0.085(3) 0.075(3) 0.090(4) -0.014(3) 0.026(3) 0.034(3)
O1 0.076(4) 0.138(6) 0.107(5) -0.045(4) 0.000(3) 0.008(4)
O2 0.107(5) 0.241(8) 0.173(7) 0.019(6) -0.001(5) 0.079(5)
C13 0.108(8) 0.128(9) 0.111(8) 0.003(6) 0.024(6) 0.028(7)
C14 0.160(12) 0.30(2) 0.099(9) 0.059(10) 0.066(8) 0.142(14)
C15 0.097(8) 0.241(15) 0.116(9) 0.031(9) 0.030(6) 0.090(9)
C16 0.095(6) 0.121(7) 0.104(7) -0.064(6) -0.035(5) 0.049(6)
O3 0.109(4) 0.082(3) 0.057(3) -0.002(2) 0.013(3) 0.030(3)
O4 0.181(6) 0.160(6) 0.085(4) -0.022(4) -0.034(4) 0.099(5)
C17 0.100(6) 0.091(6) 0.081(6) 0.000(4) 0.007(5) 0.023(5)
C18 0.133(8) 0.124(8) 0.088(6) -0.029(5) -0.026(6) 0.081(7)
C19 0.122(8) 0.115(8) 0.102(7) -0.007(6) -0.014(6) 0.062(7)
C20 0.122(8) 0.077(5) 0.114(7) -0.001(5) 0.007(6) 0.056(6)

_geom_special_details            
;
All esds (except the esd in the dihedral angle between two l.s. planes)
are estimated using the full covariance matrix. The cell esds are taken
into account individually in the estimation of esds in distances, angles
and torsion angles; correlations between esds in cell parameters are only
used when they are defined by crystal symmetry. An approximate (isotropic)
treatment of cell esds is used for estimating esds involving l.s. planes.
;

loop_
_geom_bond_atom_site_label_1
_geom_bond_atom_site_label_2
_geom_bond_distance
_geom_bond_site_symmetry_2
_geom_bond_publ_flag
Fe1 N1 1.962(3) 10_567 ?
Fe1 N1 1.962(3) . ?
Fe1 N5 1.981(3) 18_556 ?
Fe1 N5 1.981(3) 6_455 ?
Fe1 N4 2.024(3) . ?
Fe1 N4 2.024(3) 10_567 ?
N1 C1 1.334(5) . ?
N1 N2 1.366(4) . ?
N2 C2 1.349(5) . ?
N3 C1 1.337(5) . ?
N3 C2 1.360(5) . ?
N4 C7 1.351(5) . ?
N4 C3 1.373(5) . ?
N5 C11 1.352(5) . ?
N5 C10 1.366(5) . ?
N5 Fe1 1.982(3) 8_554 ?
C1 C3 1.466(5) . ?
C2 C8 1.455(6) . ?
C3 C4 1.373(6) . ?
C4 C5 1.380(6) . ?
C4 H4 0.9500 . ?
C5 C6 1.394(7) . ?
C5 H5 0.9500 . ?
C6 C7 1.361(6) . ?
C6 H6 0.9500 . ?
C7 H7 0.9500 . ?
C8 C9 1.386(6) . ?
C8 C12 1.405(6) . ?
C9 C10 1.366(6) . ?
C9 H9 0.9500 . ?
C10 H10 0.9500 . ?
C11 C12 1.378(6) . ?
C11 H11 0.9500 . ?
C12 H12 0.9500 . ?
O1W H1WA 0.8503 . ?
O1W H1WB 0.8498 . ?
O2W H2WA 0.8500 . ?
O2W H2WB 0.8499 . ?
O1 C16 1.352(9) . ?
O1 C13 1.459(11) . ?
O2 C14 1.361(14) . ?
O2 C15 1.482(12) . ?
C13 C14 1.533(16) . ?
C13 H13A 0.9900 . ?
C13 H13B 0.9900 . ?
C14 H14A 0.9900 . ?
C14 H14B 0.9900 . ?
C15 C16 1.391(13) . ?
C15 H15A 0.9900 . ?
C15 H15B 0.9900 . ?
C16 H16A 0.9900 . ?
C16 H16B 0.9900 . ?
O3 C20 1.424(10) . ?
O3 C17 1.432(10) . ?
O4 C18 1.398(11) . ?
O4 C19 1.496(11) . ?
C17 C18 1.430(11) . ?
C17 H17A 0.9900 . ?
C17 H17B 0.9900 . ?
C18 H18A 0.9900 . ?
C18 H18B 0.9900 . ?
C19 C20 1.425(11) . ?
C19 H19A 0.9900 . ?
C19 H19B 0.9900 . ?
C20 H20A 0.9900 . ?
C20 H20B 0.9900 . ?

loop_
_geom_angle_atom_site_label_1
_geom_angle_atom_site_label_2
_geom_angle_atom_site_label_3
_geom_angle
_geom_angle_site_symmetry_1
_geom_angle_site_symmetry_3
_geom_angle_publ_flag
N1 Fe1 N1 180.000(1) 10_567 . ?
N1 Fe1 N5 89.74(13) 10_567 18_556 ?
N1 Fe1 N5 90.26(13) . 18_556 ?
N1 Fe1 N5 90.26(13) 10_567 6_455 ?
N1 Fe1 N5 89.74(13) . 6_455 ?
N5 Fe1 N5 180.000(1) 18_556 6_455 ?
N1 Fe1 N4 99.85(13) 10_567 . ?
N1 Fe1 N4 80.15(13) . . ?
N5 Fe1 N4 89.34(13) 18_556 . ?
N5 Fe1 N4 90.66(13) 6_455 . ?
N1 Fe1 N4 80.15(13) 10_567 10_567 ?
N1 Fe1 N4 99.85(13) . 10_567 ?
N5 Fe1 N4 90.66(13) 18_556 10_567 ?
N5 Fe1 N4 89.34(13) 6_455 10_567 ?
N4 Fe1 N4 180.000(1) . 10_567 ?
C1 N1 N2 107.3(3) . . ?
C1 N1 Fe1 116.3(3) . . ?
N2 N1 Fe1 136.2(3) . . ?
C2 N2 N1 103.9(3) . . ?
C1 N3 C2 101.4(3) . . ?
C7 N4 C3 115.8(3) . . ?
C7 N4 Fe1 128.6(3) . . ?
C3 N4 Fe1 115.5(3) . . ?
C11 N5 C10 116.7(3) . . ?
C11 N5 Fe1 122.7(3) . 8_554 ?
C10 N5 Fe1 120.6(3) . 8_554 ?
N1 C1 N3 113.3(3) . . ?
N1 C1 C3 116.6(3) . . ?
N3 C1 C3 130.1(4) . . ?
N2 C2 N3 114.0(3) . . ?
N2 C2 C8 120.4(4) . . ?
N3 C2 C8 125.6(4) . . ?
C4 C3 N4 123.8(4) . . ?
C4 C3 C1 124.8(4) . . ?
N4 C3 C1 111.4(3) . . ?
C3 C4 C5 119.0(4) . . ?
C3 C4 H4 120.5 . . ?
C5 C4 H4 120.5 . . ?
C4 C5 C6 117.8(4) . . ?
C4 C5 H5 121.1 . . ?
C6 C5 H5 121.1 . . ?
C7 C6 C5 120.3(4) . . ?
C7 C6 H6 119.9 . . ?
C5 C6 H6 119.9 . . ?
N4 C7 C6 123.3(4) . . ?
N4 C7 H7 118.4 . . ?
C6 C7 H7 118.4 . . ?
C9 C8 C12 117.1(4) . . ?
C9 C8 C2 120.5(4) . . ?
C12 C8 C2 122.4(4) . . ?
C10 C9 C8 120.7(4) . . ?
C10 C9 H9 119.7 . . ?
C8 C9 H9 119.7 . . ?
C9 C10 N5 122.7(4) . . ?
C9 C10 H10 118.6 . . ?
N5 C10 H10 118.6 . . ?
N5 C11 C12 123.3(4) . . ?
N5 C11 H11 118.3 . . ?
C12 C11 H11 118.3 . . ?
C11 C12 C8 119.4(4) . . ?
C11 C12 H12 120.3 . . ?
C8 C12 H12 120.3 . . ?
H1WA O1W H1WB 107.7 . . ?
H2WA O2W H2WB 110.1 . . ?
C16 O1 C13 110.3(7) . . ?
C14 O2 C15 111.9(10) . . ?
O1 C13 C14 108.8(9) . . ?
O1 C13 H13A 109.9 . . ?
C14 C13 H13A 109.9 . . ?
O1 C13 H13B 109.9 . . ?
C14 C13 H13B 109.9 . . ?
H13A C13 H13B 108.3 . . ?
O2 C14 C13 105.7(11) . . ?
O2 C14 H14A 110.6 . . ?
C13 C14 H14A 110.6 . . ?
O2 C14 H14B 110.6 . . ?
C13 C14 H14B 110.6 . . ?
H14A C14 H14B 108.7 . . ?
C16 C15 O2 111.0(10) . . ?
C16 C15 H15A 109.4 . . ?
O2 C15 H15A 109.4 . . ?
C16 C15 H15B 109.4 . . ?
O2 C15 H15B 109.4 . . ?
H15A C15 H15B 108.0 . . ?
O1 C16 C15 113.2(9) . . ?
O1 C16 H16A 108.9 . . ?
C15 C16 H16A 108.9 . . ?
O1 C16 H16B 108.9 . . ?
C15 C16 H16B 108.9 . . ?
H16A C16 H16B 107.8 . . ?
C20 O3 C17 106.8(7) . . ?
C18 O4 C19 109.5(7) . . ?
C18 C17 O3 110.1(8) . . ?
C18 C17 H17A 109.6 . . ?
O3 C17 H17A 109.6 . . ?
C18 C17 H17B 109.6 . . ?
O3 C17 H17B 109.6 . . ?
H17A C17 H17B 108.1 . . ?
O4 C18 C17 110.2(8) . . ?
O4 C18 H18A 109.6 . . ?
C17 C18 H18A 109.6 . . ?
O4 C18 H18B 109.6 . . ?
C17 C18 H18B 109.6 . . ?
H18A C18 H18B 108.1 . . ?
C20 C19 O4 106.2(8) . . ?
C20 C19 H19A 110.5 . . ?
O4 C19 H19A 110.5 . . ?
C20 C19 H19B 110.5 . . ?
O4 C19 H19B 110.5 . . ?
H19A C19 H19B 108.7 . . ?
O3 C20 C19 110.8(7) . . ?
O3 C20 H20A 109.5 . . ?
C19 C20 H20A 109.5 . . ?
O3 C20 H20B 109.5 . . ?
C19 C20 H20B 109.5 . . ?
H20A C20 H20B 108.1 . . ?

loop_
_geom_torsion_atom_site_label_1
_geom_torsion_atom_site_label_2
_geom_torsion_atom_site_label_3
_geom_torsion_atom_site_label_4
_geom_torsion
_geom_torsion_site_symmetry_1
_geom_torsion_site_symmetry_2
_geom_torsion_site_symmetry_3
_geom_torsion_site_symmetry_4
_geom_torsion_publ_flag
N1 Fe1 N1 C1 122.5(7) 10_567 . . . ?
N5 Fe1 N1 C1 -89.6(3) 18_556 . . . ?
N5 Fe1 N1 C1 90.4(3) 6_455 . . . ?
N4 Fe1 N1 C1 -0.3(3) . . . . ?
N4 Fe1 N1 C1 179.7(3) 10_567 . . . ?
N1 Fe1 N1 N2 -52.8(5) 10_567 . . . ?
N5 Fe1 N1 N2 95.1(4) 18_556 . . . ?
N5 Fe1 N1 N2 -84.9(4) 6_455 . . . ?
N4 Fe1 N1 N2 -175.6(4) . . . . ?
N4 Fe1 N1 N2 4.4(4) 10_567 . . . ?
C1 N1 N2 C2 0.2(4) . . . . ?
Fe1 N1 N2 C2 175.8(3) . . . . ?
N1 Fe1 N4 C7 1.8(4) 10_567 . . . ?
N1 Fe1 N4 C7 -178.2(4) . . . . ?
