####################################################################### 
# 
# This file contains crystal structure data downloaded from the 
# Cambridge Structural Database (CSD) hosted by the Cambridge 
# Crystallographic Data Centre (CCDC).
# 
# Full information about CCDC data access policies and citation 
# guidelines are available at http://www.ccdc.cam.ac.uk/access/V1 
# 
# Audit and citation data items may have been added by the CCDC. 
# Please retain this information to preserve the provenance of 
# this file and to allow appropriate attribution of the data. 
# 
#######################################################################

data_3_293K
_audit_block_doi                 10.5517/cctsh8b
_database_code_depnum_ccdc_archive 'CCDC 768312'
loop_
_citation_id
_citation_doi
_citation_year
1 10.1002/chem.201001179 2010
_audit_update_record             
;
2010-03-04 deposited with the CCDC.	2024-07-09 downloaded from the CCDC.
;

_audit_creation_method           SHELXL-97
_chemical_name_systematic        
;
?
;
_chemical_name_common            ?
_chemical_melting_point          ?
_chemical_formula_moiety         ?
_chemical_formula_sum            'C24 H30 Fe N10 O7'
_chemical_formula_weight         626.43

loop_
_atom_type_symbol
_atom_type_description
_atom_type_scat_dispersion_real
_atom_type_scat_dispersion_imag
_atom_type_scat_source
C C 0.0181 0.0091 'International Tables Vol C Tables 4.2.6.8 and 6.1.1.4'
H H 0.0000 0.0000 'International Tables Vol C Tables 4.2.6.8 and 6.1.1.4'
N N 0.0311 0.0180 'International Tables Vol C Tables 4.2.6.8 and 6.1.1.4'
O O 0.0492 0.0322 'International Tables Vol C Tables 4.2.6.8 and 6.1.1.4'
Fe Fe -1.1336 3.1974 'International Tables Vol C Tables 4.2.6.8 and 6.1.1.4'

_symmetry_cell_setting           trigonal
_symmetry_space_group_name_H-M   R-3

loop_
_symmetry_equiv_pos_as_xyz
'x, y, z'
'-y, x-y, z'
'-x+y, -x, z'
'x+2/3, y+1/3, z+1/3'
'-y+2/3, x-y+1/3, z+1/3'
'-x+y+2/3, -x+1/3, z+1/3'
'x+1/3, y+2/3, z+2/3'
'-y+1/3, x-y+2/3, z+2/3'
'-x+y+1/3, -x+2/3, z+2/3'
'-x, -y, -z'
'y, -x+y, -z'
'x-y, x, -z'
'-x+2/3, -y+1/3, -z+1/3'
'y+2/3, -x+y+1/3, -z+1/3'
'x-y+2/3, x+1/3, -z+1/3'
'-x+1/3, -y+2/3, -z+2/3'
'y+1/3, -x+y+2/3, -z+2/3'
'x-y+1/3, x+2/3, -z+2/3'

_cell_length_a                   31.931(2)
_cell_length_b                   31.931(2)
_cell_length_c                   12.3983(13)
_cell_angle_alpha                90.00
_cell_angle_beta                 90.00
_cell_angle_gamma                120.00
_cell_volume                     10947.6(16)
_cell_formula_units_Z            18
_cell_measurement_temperature    293(2)
_cell_measurement_reflns_used    ?
_cell_measurement_theta_min      ?
_cell_measurement_theta_max      ?

_exptl_crystal_description       ?
_exptl_crystal_colour            ?
_exptl_crystal_size_max          0.27
_exptl_crystal_size_mid          0.23
_exptl_crystal_size_min          0.17
_exptl_crystal_density_meas      ?
_exptl_crystal_density_diffrn    1.710
_exptl_crystal_density_method    'not measured'
_exptl_crystal_F_000             5868
_exptl_absorpt_coefficient_mu    5.596
_exptl_absorpt_correction_type   multi-scan
_exptl_absorpt_correction_T_min  0.3134
_exptl_absorpt_correction_T_max  0.4497
_exptl_absorpt_process_details   ?

_exptl_special_details           
;
?
;

_diffrn_ambient_temperature      293(2)
_diffrn_radiation_wavelength     1.54178
_diffrn_radiation_type           CuK\a
_diffrn_radiation_source         'fine-focus sealed tube'
_diffrn_radiation_monochromator  graphite
_diffrn_measurement_device_type  ?
_diffrn_measurement_method       ?
_diffrn_detector_area_resol_mean ?
_diffrn_standards_number         ?
_diffrn_standards_interval_count ?
_diffrn_standards_interval_time  ?
_diffrn_standards_decay_%        ?
_diffrn_reflns_number            6116
_diffrn_reflns_av_R_equivalents  0.0456
_diffrn_reflns_av_sigmaI/netI    0.0801
_diffrn_reflns_limit_h_min       -35
_diffrn_reflns_limit_h_max       20
_diffrn_reflns_limit_k_min       -32
_diffrn_reflns_limit_k_max       35
_diffrn_reflns_limit_l_min       -13
_diffrn_reflns_limit_l_max       12
_diffrn_reflns_theta_min         2.77
_diffrn_reflns_theta_max         59.98
_reflns_number_total             3550
_reflns_number_gt                2028
_reflns_threshold_expression     >2sigma(I)

_computing_data_collection       ?
_computing_cell_refinement       ?
_computing_data_reduction        ?
_computing_structure_solution    'SHELXS-97 (Sheldrick, 1990)'
_computing_structure_refinement  'SHELXL-97 (Sheldrick, 1997)'
_computing_molecular_graphics    ?
_computing_publication_material  ?

_refine_special_details          
;
Refinement of F^2^ against ALL reflections. The weighted R-factor wR and
goodness of fit S are based on F^2^, conventional R-factors R are based
on F, with F set to zero for negative F^2^. The threshold expression of
F^2^ > 2sigma(F^2^) is used only for calculating R-factors(gt) etc. and is
not relevant to the choice of reflections for refinement. R-factors based
on F^2^ are statistically about twice as large as those based on F, and R-
factors based on ALL data will be even larger.
;

_refine_ls_structure_factor_coef Fsqd
_refine_ls_matrix_type           full
_refine_ls_weighting_scheme      calc
_refine_ls_weighting_details     
'calc w=1/[\s^2^(Fo^2^)+(0.0767P)^2^+0.0000P] where P=(Fo^2^+2Fc^2^)/3'
_atom_sites_solution_primary     direct
_atom_sites_solution_secondary   difmap
_atom_sites_solution_hydrogens   geom
_refine_ls_hydrogen_treatment    constr
_refine_ls_extinction_method     none
_refine_ls_extinction_coef       ?
_refine_ls_number_reflns         3550
_refine_ls_number_parameters     160
_refine_ls_number_restraints     0
_refine_ls_R_factor_all          0.0801
_refine_ls_R_factor_gt           0.0480
_refine_ls_wR_factor_ref         0.1372
_refine_ls_wR_factor_gt          0.1278
_refine_ls_goodness_of_fit_ref   0.905
_refine_ls_restrained_S_all      0.905
_refine_ls_shift/su_max          0.000
_refine_ls_shift/su_mean         0.000

loop_
_atom_site_label
_atom_site_type_symbol
_atom_site_fract_x
_atom_site_fract_y
_atom_site_fract_z
_atom_site_U_iso_or_equiv
_atom_site_adp_type
_atom_site_occupancy
_atom_site_symmetry_multiplicity
_atom_site_calc_flag
_atom_site_refinement_flags
_atom_site_disorder_assembly
_atom_site_disorder_group
Fe1 Fe 0.3333 0.1667 0.1667 0.0453(3) Uani 1 2 d S . .
N1 N 0.38095(9) 0.14679(9) 0.1978(2) 0.0438(7) Uani 1 1 d . . .
N2 N 0.38807(10) 0.12054(9) 0.2736(2) 0.0490(7) Uani 1 1 d . . .
N3 N 0.44714(10) 0.14429(10) 0.1484(2) 0.0581(8) Uani 1 1 d . . .
N4 N 0.37709(10) 0.19601(9) 0.03886(19) 0.0474(7) Uani 1 1 d . . .
N5 N 0.47879(9) 0.03951(9) 0.4171(2) 0.0490(7) Uani 1 1 d . . .
C1 C 0.41627(12) 0.16058(12) 0.1252(2) 0.0487(8) Uani 1 1 d . . .
C2 C 0.42771(13) 0.11969(12) 0.2401(3) 0.0523(9) Uani 1 1 d . . .
C3 C 0.41583(13) 0.18889(12) 0.0351(3) 0.0548(9) Uani 1 1 d . . .
C4 C 0.44994(15) 0.20747(15) -0.0465(3) 0.0800(13) Uani 1 1 d . . .
H4 H 0.4758 0.2017 -0.0469 0.096 Uiso 1 1 calc R . .
C5 C 0.44530(17) 0.23449(17) -0.1270(3) 0.0937(15) Uani 1 1 d . . .
H5 H 0.4678 0.2471 -0.1826 0.112 Uiso 1 1 calc R . .
C6 C 0.40673(16) 0.24268(15) -0.1242(3) 0.0769(12) Uani 1 1 d . . .
H6 H 0.4032 0.2612 -0.1773 0.092 Uiso 1 1 calc R . .
C7 C 0.37392(13) 0.22316(12) -0.0423(3) 0.0584(9) Uani 1 1 d . . .
H7 H 0.3479 0.2287 -0.0419 0.070 Uiso 1 1 calc R . .
C8 C 0.44653(12) 0.09300(12) 0.2999(3) 0.0508(9) Uani 1 1 d . . .
C9 C 0.48408(12) 0.08770(12) 0.2647(3) 0.0578(9) Uani 1 1 d . . .
H9 H 0.4997 0.1023 0.2005 0.069 Uiso 1 1 calc R . .
C10 C 0.49905(12) 0.06125(13) 0.3225(3) 0.0571(10) Uani 1 1 d . . .
H10 H 0.5245 0.0580 0.2955 0.069 Uiso 1 1 calc R . .
C11 C 0.44196(12) 0.04540(12) 0.4532(3) 0.0555(9) Uani 1 1 d . . .
H11 H 0.4274 0.0312 0.5184 0.067 Uiso 1 1 calc R . .
C12 C 0.42534(12) 0.07117(13) 0.3985(3) 0.0586(10) Uani 1 1 d . . .
H12 H 0.4000 0.0743 0.4265 0.070 Uiso 1 1 calc R . .

loop_
_atom_site_aniso_label
_atom_site_aniso_U_11
_atom_site_aniso_U_22
_atom_site_aniso_U_33
_atom_site_aniso_U_23
_atom_site_aniso_U_13
_atom_site_aniso_U_12
Fe1 0.0503(5) 0.0331(4) 0.0562(4) -0.0038(3) -0.0131(4) 0.0236(4)
N1 0.0471(17) 0.0354(16) 0.0556(16) -0.0012(13) -0.0112(14) 0.0256(14)
N2 0.0524(19) 0.0411(16) 0.0620(17) 0.0032(13) -0.0056(14) 0.0299(15)
N3 0.059(2) 0.067(2) 0.0647(18) 0.0111(16) 0.0033(15) 0.0434(18)
N4 0.0561(19) 0.0354(16) 0.0575(17) -0.0014(13) -0.0131(14) 0.0281(15)
N5 0.0406(16) 0.0485(18) 0.0651(17) 0.0104(14) 0.0059(14) 0.0277(15)
C1 0.051(2) 0.048(2) 0.053(2) 0.0026(17) -0.0075(18) 0.0290(19)
C2 0.053(2) 0.051(2) 0.059(2) 0.0044(18) -0.0055(18) 0.030(2)
C3 0.054(2) 0.055(2) 0.065(2) 0.0087(19) -0.0038(19) 0.035(2)
C4 0.080(3) 0.102(3) 0.084(3) 0.037(3) 0.022(2) 0.065(3)
C5 0.091(3) 0.118(4) 0.088(3) 0.048(3) 0.031(3) 0.064(3)
C6 0.086(3) 0.087(3) 0.073(3) 0.031(2) 0.013(2) 0.055(3)
C7 0.065(3) 0.055(2) 0.063(2) 0.0056(19) -0.011(2) 0.037(2)
C8 0.051(2) 0.051(2) 0.060(2) 0.0087(18) -0.0035(18) 0.032(2)
C9 0.057(2) 0.071(3) 0.058(2) 0.0193(18) 0.0070(18) 0.041(2)
C10 0.058(2) 0.071(3) 0.057(2) 0.0193(19) 0.0144(18) 0.043(2)
C11 0.046(2) 0.067(2) 0.069(2) 0.0163(19) 0.0129(18) 0.040(2)
C12 0.054(2) 0.070(3) 0.070(2) 0.013(2) 0.0060(19) 0.045(2)

_geom_special_details            
;
All esds (except the esd in the dihedral angle between two l.s. planes)
are estimated using the full covariance matrix. The cell esds are taken
into account individually in the estimation of esds in distances, angles
and torsion angles; correlations between esds in cell parameters are only
used when they are defined by crystal symmetry. An approximate (isotropic)
treatment of cell esds is used for estimating esds involving l.s. planes.
;

loop_
_geom_bond_atom_site_label_1
_geom_bond_atom_site_label_2
_geom_bond_distance
_geom_bond_site_symmetry_2
_geom_bond_publ_flag
Fe1 N1 1.957(2) . ?
Fe1 N1 1.957(2) 13 ?
Fe1 N5 1.990(2) 17 ?
Fe1 N5 1.990(2) 8_544 ?
Fe1 N4 2.008(3) . ?
Fe1 N4 2.008(3) 13 ?
N1 C1 1.334(4) . ?
N1 N2 1.352(3) . ?
N2 C2 1.345(4) . ?
N3 C2 1.344(4) . ?
N3 C1 1.356(4) . ?
N4 C7 1.365(4) . ?
N4 C3 1.366(4) . ?
N5 C10 1.351(4) . ?
N5 C11 1.357(4) . ?
N5 Fe1 1.990(2) 6 ?
C1 C3 1.442(4) . ?
C2 C8 1.466(4) . ?
C3 C4 1.384(5) . ?
C4 C5 1.375(5) . ?
C4 H4 0.9300 . ?
C5 C6 1.381(5) . ?
C5 H5 0.9300 . ?
C6 C7 1.365(5) . ?
C6 H6 0.9300 . ?
C7 H7 0.9300 . ?
C8 C9 1.364(4) . ?
C8 C12 1.403(4) . ?
C9 C10 1.364(4) . ?
C9 H9 0.9300 . ?
C10 H10 0.9300 . ?
C11 C12 1.362(4) . ?
C11 H11 0.9300 . ?
C12 H12 0.9300 . ?

loop_
_geom_angle_atom_site_label_1
_geom_angle_atom_site_label_2
_geom_angle_atom_site_label_3
_geom_angle
_geom_angle_site_symmetry_1
_geom_angle_site_symmetry_3
_geom_angle_publ_flag
N1 Fe1 N1 180.00(6) . 13 ?
N1 Fe1 N5 89.83(10) . 17 ?
N1 Fe1 N5 90.17(10) 13 17 ?
N1 Fe1 N5 90.16(10) . 8_544 ?
N1 Fe1 N5 89.84(10) 13 8_544 ?
N5 Fe1 N5 180.0 17 8_544 ?
N1 Fe1 N4 80.50(11) . . ?
N1 Fe1 N4 99.50(11) 13 . ?
N5 Fe1 N4 89.93(10) 17 . ?
N5 Fe1 N4 90.07(10) 8_544 . ?
N1 Fe1 N4 99.50(11) . 13 ?
N1 Fe1 N4 80.50(11) 13 13 ?
N5 Fe1 N4 90.07(10) 17 13 ?
N5 Fe1 N4 89.94(10) 8_544 13 ?
N4 Fe1 N4 180.0 . 13 ?
C1 N1 N2 107.3(2) . . ?
C1 N1 Fe1 115.2(2) . . ?
N2 N1 Fe1 137.5(2) . . ?
C2 N2 N1 104.4(2) . . ?
C2 N3 C1 101.1(3) . . ?
C7 N4 C3 116.2(3) . . ?
C7 N4 Fe1 128.5(2) . . ?
C3 N4 Fe1 115.2(2) . . ?
C10 N5 C11 116.2(3) . . ?
C10 N5 Fe1 123.1(2) . 6 ?
C11 N5 Fe1 120.7(2) . 6 ?
N1 C1 N3 112.8(3) . . ?
N1 C1 C3 117.3(3) . . ?
N3 C1 C3 129.9(3) . . ?
N3 C2 N2 114.4(3) . . ?
N3 C2 C8 124.3(3) . . ?
N2 C2 C8 121.2(3) . . ?
N4 C3 C4 122.5(3) . . ?
N4 C3 C1 111.8(3) . . ?
C4 C3 C1 125.7(3) . . ?
C5 C4 C3 119.4(4) . . ?
C5 C4 H4 120.3 . . ?
C3 C4 H4 120.3 . . ?
C4 C5 C6 119.1(4) . . ?
C4 C5 H5 120.4 . . ?
C6 C5 H5 120.4 . . ?
C7 C6 C5 119.0(3) . . ?
C7 C6 H6 120.5 . . ?
C5 C6 H6 120.5 . . ?
N4 C7 C6 123.7(3) . . ?
N4 C7 H7 118.2 . . ?
C6 C7 H7 118.2 . . ?
C9 C8 C12 116.9(3) . . ?
C9 C8 C2 123.5(3) . . ?
C12 C8 C2 119.6(3) . . ?
C10 C9 C8 120.7(3) . . ?
C10 C9 H9 119.6 . . ?
C8 C9 H9 119.6 . . ?
N5 C10 C9 123.3(3) . . ?
N5 C10 H10 118.4 . . ?
C9 C10 H10 118.4 . . ?
N5 C11 C12 123.1(3) . . ?
N5 C11 H11 118.5 . . ?
C12 C11 H11 118.5 . . ?
C11 C12 C8 119.8(3) . . ?
C11 C12 H12 120.1 . . ?
C8 C12 H12 120.1 . . ?

loop_
_geom_torsion_atom_site_label_1
_geom_torsion_atom_site_label_2
_geom_torsion_atom_site_label_3
_geom_torsion_atom_site_label_4
_geom_torsion
_geom_torsion_site_symmetry_1
_geom_torsion_site_symmetry_2
_geom_torsion_site_symmetry_3
_geom_torsion_site_symmetry_4
_geom_torsion_publ_flag
N1 Fe1 N1 C1 -120(6) 13 . . . ?
N5 Fe1 N1 C1 -90.6(2) 17 . . . ?
N5 Fe1 N1 C1 89.4(2) 8_544 . . . ?
N4 Fe1 N1 C1 -0.6(2) . . . . ?
N4 Fe1 N1 C1 179.4(2) 13 . . . ?
N1 Fe1 N1 N2 62(6) 13 . . . ?
N5 Fe1 N1 N2 92.2(3) 17 . . . ?
N5 Fe1 N1 N2 -87.8(3) 8_544 . . . ?
N4 Fe1 N1 N2 -177.9(3) . . . . ?
N4 Fe1 N1 N2 2.1(3) 13 . . . ?
C1 N1 N2 C2 -0.8(3) . . . . ?
Fe1 N1 N2 C2 176.6(2) . . . . ?
N1 Fe1 N4 C7 -178.0(3) . . . . ?
N1 Fe1 N4 C7 2.0(3) 13 . . . ?
N5 Fe1 N4 C7 -88.2(3) 17 . . . ?
N5 Fe1 N4 C7 91.8(3) 8_544 . . . ?
N4 Fe1 N4 C7 -23(2) 13 . . . ?
N1 Fe1 N4 C3 -0.2(2) . . . . ?
N1 Fe1 N4 C3 179.8(2) 13 . . . ?
N5 Fe1 N4 C3 89.7(2) 17 . . . ?
N5 Fe1 N4 C3 -90.3(2) 8_544 . . . ?
N4 Fe1 N4 C3 154(2) 13 . . . ?
N2 N1 C1 N3 0.5(4) . . . . ?
Fe1 N1 C1 N3 -177.6(2) . . . . ?
N2 N1 C1 C3 179.3(3) . . . . ?
Fe1 N1 C1 C3 1.3(4) . . . . ?
C2 N3 C1 N1 0.1(4) . . . . ?
C2 N3 C1 C3 -178.6(3) . . . . ?
C1 N3 C2 N2 -0.7(4) . . . . ?
C1 N3 C2 C8 178.3(3) . . . . ?
N1 N2 C2 N3 1.0(4) . . . . ?
N1 N2 C2 C8 -178.0(3) . . . . ?
C7 N4 C3 C4 -0.7(5) . . . . ?
Fe1 N4 C3 C4 -178.8(3) . . . . ?
C7 N4 C3 C1 179.0(3) . . . . ?
Fe1 N4 C3 C1 0.9(3) . . . . ?
N1 C1 C3 N4 -1.4(4) . . . . ?
N3 C1 C3 N4 177.2(3) . . . . ?
N1 C1 C3 C4 178.2(4) . . . . ?
N3 C1 C3 C4 -3.2(6) . . . . ?
N4 C3 C4 C5 0.5(6) . . . . ?
C1 C3 C4 C5 -179.1(4) . . . . ?
C3 C4 C5 C6 0.3(7) . . . . ?
C4 C5 C6 C7 -0.9(7) . . . . ?
C3 N4 C7 C6 0.1(5) . . . . ?
Fe1 N4 C7 C6 177.9(3) . . . . ?
C5 C6 C7 N4 0.7(6) . . . . ?
N3 C2 C8 C9 -4.5(5) . . . . ?
N2 C2 C8 C9 174.4(3) . . . . ?
N3 C2 C8 C12 175.8(3) . . . . ?
N2 C2 C8 C12 -5.2(5) . . . . ?
C12 C8 C9 C10 1.6(5) . . . . ?
C2 C8 C9 C10 -178.1(3) . . . . ?
C11 N5 C10 C9 -0.2(5) . . . . ?
Fe1 N5 C10 C9 178.9(3) 6 . . . ?
C8 C9 C10 N5 -1.0(6) . . . . ?
C10 N5 C11 C12 0.6(5) . . . . ?
Fe1 N5 C11 C12 -178.5(3) 6 . . . ?
N5 C11 C12 C8 0.1(6) . . . . ?
C9 C8 C12 C11 -1.2(5) . . . . ?
C2 C8 C12 C11 178.5(3) . . . . ?

_diffrn_measured_fraction_theta_max 0.985
_diffrn_reflns_theta_full        59.98
_diffrn_measured_fraction_theta_full 0.985
_refine_diff_density_max         0.247
_refine_diff_density_min         -0.786
_refine_diff_density_rms         0.047




#_eof
#End of Crystallographic Information File


