####################################################################### 
# 
# This file contains crystal structure data downloaded from the 
# Cambridge Structural Database (CSD) hosted by the Cambridge 
# Crystallographic Data Centre (CCDC).
# 
# Full information about CCDC data access policies and citation 
# guidelines are available at http://www.ccdc.cam.ac.uk/access/V1 
# 
# Audit and citation data items may have been added by the CCDC. 
# Please retain this information to preserve the provenance of 
# this file and to allow appropriate attribution of the data. 
# 
#######################################################################

data_2b_293K
_audit_block_doi                 10.5517/cctsh57
_database_code_depnum_ccdc_archive 'CCDC 768309'
loop_
_citation_id
_citation_doi
_citation_year
1 10.1002/chem.201001179 2010
_audit_update_record             
;
2010-03-04 deposited with the CCDC.	2024-07-08 downloaded from the CCDC.
;

_audit_creation_method           SHELXL-97
_chemical_name_systematic        
;
?
;
_chemical_name_common            ?
_chemical_melting_point          ?
_chemical_formula_moiety         ?
_chemical_formula_sum            'C24 H20 Fe N10 O2'
_chemical_formula_weight         536.35

loop_
_atom_type_symbol
_atom_type_description
_atom_type_scat_dispersion_real
_atom_type_scat_dispersion_imag
_atom_type_scat_source
C C 0.0033 0.0016 'International Tables Vol C Tables 4.2.6.8 and 6.1.1.4'
H H 0.0000 0.0000 'International Tables Vol C Tables 4.2.6.8 and 6.1.1.4'
N N 0.0061 0.0033 'International Tables Vol C Tables 4.2.6.8 and 6.1.1.4'
O O 0.0106 0.0060 'International Tables Vol C Tables 4.2.6.8 and 6.1.1.4'
Fe Fe 0.3463 0.8444 'International Tables Vol C Tables 4.2.6.8 and 6.1.1.4'

_symmetry_cell_setting           ?
_symmetry_space_group_name_H-M   R-3c

loop_
_symmetry_equiv_pos_as_xyz
'x, y, z'
'-y, x-y, z'
'-x+y, -x, z'
'y, x, -z+1/2'
'x-y, -y, -z+1/2'
'-x, -x+y, -z+1/2'
'x+2/3, y+1/3, z+1/3'
'-y+2/3, x-y+1/3, z+1/3'
'-x+y+2/3, -x+1/3, z+1/3'
'y+2/3, x+1/3, -z+5/6'
'x-y+2/3, -y+1/3, -z+5/6'
'-x+2/3, -x+y+1/3, -z+5/6'
'x+1/3, y+2/3, z+2/3'
'-y+1/3, x-y+2/3, z+2/3'
'-x+y+1/3, -x+2/3, z+2/3'
'y+1/3, x+2/3, -z+7/6'
'x-y+1/3, -y+2/3, -z+7/6'
'-x+1/3, -x+y+2/3, -z+7/6'
'-x, -y, -z'
'y, -x+y, -z'
'x-y, x, -z'
'-y, -x, z-1/2'
'-x+y, y, z-1/2'
'x, x-y, z-1/2'
'-x+2/3, -y+1/3, -z+1/3'
'y+2/3, -x+y+1/3, -z+1/3'
'x-y+2/3, x+1/3, -z+1/3'
'-y+2/3, -x+1/3, z-1/6'
'-x+y+2/3, y+1/3, z-1/6'
'x+2/3, x-y+1/3, z-1/6'
'-x+1/3, -y+2/3, -z+2/3'
'y+1/3, -x+y+2/3, -z+2/3'
'x-y+1/3, x+2/3, -z+2/3'
'-y+1/3, -x+2/3, z+1/6'
'-x+y+1/3, y+2/3, z+1/6'
'x+1/3, x-y+2/3, z+1/6'

_cell_length_a                   29.710(6)
_cell_length_b                   29.710(6)
_cell_length_c                   16.145(7)
_cell_angle_alpha                90.00
_cell_angle_beta                 90.00
_cell_angle_gamma                120.00
_cell_volume                     12342(6)
_cell_formula_units_Z            18
_cell_measurement_temperature    293(2)
_cell_measurement_reflns_used    ?
_cell_measurement_theta_min      ?
_cell_measurement_theta_max      ?

_exptl_crystal_description       ?
_exptl_crystal_colour            ?
_exptl_crystal_size_max          0.26
_exptl_crystal_size_mid          0.17
_exptl_crystal_size_min          0.13
_exptl_crystal_density_meas      ?
_exptl_crystal_density_diffrn    1.299
_exptl_crystal_density_method    'not measured'
_exptl_crystal_F_000             4968
_exptl_absorpt_coefficient_mu    0.589
_exptl_absorpt_correction_type   none
_exptl_absorpt_correction_T_min  0.8619
_exptl_absorpt_correction_T_max  0.9273
_exptl_absorpt_process_details   ?

_exptl_special_details           
;
?
;

_diffrn_ambient_temperature      293(2)
_diffrn_radiation_wavelength     0.71073
_diffrn_radiation_type           MoK\a
_diffrn_radiation_source         'fine-focus sealed tube'
_diffrn_radiation_monochromator  graphite
_diffrn_measurement_device_type  ?
_diffrn_measurement_method       ?
_diffrn_detector_area_resol_mean ?
_diffrn_standards_number         ?
_diffrn_standards_interval_count ?
_diffrn_standards_interval_time  ?
_diffrn_standards_decay_%        ?
_diffrn_reflns_number            9800
_diffrn_reflns_av_R_equivalents  0.1324
_diffrn_reflns_av_sigmaI/netI    0.1618
_diffrn_reflns_limit_h_min       -15
_diffrn_reflns_limit_h_max       37
_diffrn_reflns_limit_k_min       -37
_diffrn_reflns_limit_k_max       36
_diffrn_reflns_limit_l_min       -20
_diffrn_reflns_limit_l_max       8
_diffrn_reflns_theta_min         2.37
_diffrn_reflns_theta_max         26.99
_reflns_number_total             2802
_reflns_number_gt                1081
_reflns_threshold_expression     >2sigma(I)

_computing_data_collection       ?
_computing_cell_refinement       ?
_computing_data_reduction        ?
_computing_structure_solution    'SHELXS-97 (Sheldrick, 1990)'
_computing_structure_refinement  'SHELXL-97 (Sheldrick, 1997)'
_computing_molecular_graphics    ?
_computing_publication_material  ?

_refine_special_details          
;
Refinement of F^2^ against ALL reflections. The weighted R-factor wR and
goodness of fit S are based on F^2^, conventional R-factors R are based
on F, with F set to zero for negative F^2^. The threshold expression of
F^2^ > 2sigma(F^2^) is used only for calculating R-factors(gt) etc. and is
not relevant to the choice of reflections for refinement. R-factors based
on F^2^ are statistically about twice as large as those based on F, and R-
factors based on ALL data will be even larger.
;

_refine_ls_structure_factor_coef Fsqd
_refine_ls_matrix_type           full
_refine_ls_weighting_scheme      calc
_refine_ls_weighting_details     
'calc w=1/[\s^2^(Fo^2^)+(0.1287P)^2^+0.0000P] where P=(Fo^2^+2Fc^2^)/3'
_atom_sites_solution_primary     direct
_atom_sites_solution_secondary   difmap
_atom_sites_solution_hydrogens   geom
_refine_ls_hydrogen_treatment    constr
_refine_ls_extinction_method     SHELXL
_refine_ls_extinction_coef       0.00022(9)
_refine_ls_extinction_expression Fc^*^=kFc[1+0.001xFc^2^\l^3^/sin(2\q)]^-1/4^
_refine_ls_number_reflns         2802
_refine_ls_number_parameters     169
_refine_ls_number_restraints     0
_refine_ls_R_factor_all          0.1998
_refine_ls_R_factor_gt           0.0878
_refine_ls_wR_factor_ref         0.2830
_refine_ls_wR_factor_gt          0.2249
_refine_ls_goodness_of_fit_ref   0.938
_refine_ls_restrained_S_all      0.938
_refine_ls_shift/su_max          0.000
_refine_ls_shift/su_mean         0.000

loop_
_atom_site_label
_atom_site_type_symbol
_atom_site_fract_x
_atom_site_fract_y
_atom_site_fract_z
_atom_site_U_iso_or_equiv
_atom_site_adp_type
_atom_site_occupancy
_atom_site_symmetry_multiplicity
_atom_site_calc_flag
_atom_site_refinement_flags
_atom_site_disorder_assembly
_atom_site_disorder_group
Fe1 Fe 0.3333 0.1667 0.1667 0.0410(5) Uani 1 2 d S . .
N1 N 0.2870(3) 0.0960(2) 0.1286(4) 0.0512(17) Uani 1 1 d . . .
N2 N 0.2873(2) 0.0617(2) 0.0745(4) 0.0498(16) Uani 1 1 d . . .
N3 N 0.2097(3) 0.0233(3) 0.1357(5) 0.076(2) Uani 1 1 d . . .
N4 N 0.2708(2) 0.1491(2) 0.2368(4) 0.0478(16) Uani 1 1 d . . .
N5 N 0.1945(2) -0.1109(2) -0.0796(4) 0.0483(16) Uani 1 1 d . . .
C1 C 0.2395(4) 0.0718(3) 0.1637(5) 0.063(2) Uani 1 1 d . . .
C2 C 0.2417(4) 0.0195(3) 0.0810(5) 0.060(2) Uani 1 1 d . . .
C3 C 0.2294(3) 0.1020(3) 0.2246(5) 0.060(2) Uani 1 1 d . . .
C4 C 0.1818(4) 0.0839(3) 0.2648(6) 0.084(3) Uani 1 1 d . . .
H4 H 0.1541 0.0507 0.2545 0.100 Uiso 1 1 calc R . .
C5 C 0.1769(4) 0.1158(4) 0.3190(7) 0.094(3) Uani 1 1 d . . .
H5 H 0.1456 0.1054 0.3463 0.113 Uiso 1 1 calc R . .
C6 C 0.2204(4) 0.1653(4) 0.3329(7) 0.094(3) Uani 1 1 d . . .
H6 H 0.2183 0.1881 0.3701 0.113 Uiso 1 1 calc R . .
C7 C 0.2657(3) 0.1797(3) 0.2913(5) 0.064(2) Uani 1 1 d . . .
H7 H 0.2942 0.2124 0.3017 0.077 Uiso 1 1 calc R . .
C8 C 0.2262(3) -0.0267(3) 0.0296(5) 0.057(2) Uani 1 1 d . . .
C9 C 0.2547(3) -0.0242(3) -0.0373(6) 0.076(3) Uani 1 1 d . . .
H9 H 0.2860 0.0060 -0.0476 0.091 Uiso 1 1 calc R . .
C10 C 0.2376(3) -0.0657(3) -0.0901(6) 0.076(3) Uani 1 1 d . . .
H10 H 0.2578 -0.0619 -0.1365 0.091 Uiso 1 1 calc R . .
C11 C 0.1688(3) -0.1133(3) -0.0111(6) 0.079(3) Uani 1 1 d . . .
H11 H 0.1385 -0.1444 0.0002 0.094 Uiso 1 1 calc R . .
C12 C 0.1833(4) -0.0737(3) 0.0437(6) 0.083(3) Uani 1 1 d . . .
H12 H 0.1637 -0.0789 0.0914 0.100 Uiso 1 1 calc R . .
O1W O 0.1092(13) 0.0192(12) 0.063(2) 0.279(13) Uiso 0.50 1 d P . .
O2W O 0.0485(12) 0.0189(15) 0.154(3) 0.335(19) Uiso 0.50 1 d P . .

loop_
_atom_site_aniso_label
_atom_site_aniso_U_11
_atom_site_aniso_U_22
_atom_site_aniso_U_33
_atom_site_aniso_U_23
_atom_site_aniso_U_13
_atom_site_aniso_U_12
Fe1 0.0587(10) 0.0384(9) 0.0352(7) -0.0079(7) -0.0124(6) 0.0312(8)
N1 0.075(5) 0.045(4) 0.042(4) -0.014(3) -0.017(3) 0.036(4)
N2 0.065(4) 0.036(3) 0.045(4) -0.010(3) -0.011(3) 0.023(3)
N3 0.087(6) 0.058(5) 0.063(5) -0.025(4) -0.002(4) 0.022(4)
N4 0.066(4) 0.046(4) 0.042(3) -0.009(3) -0.009(3) 0.035(3)
N5 0.042(4) 0.043(4) 0.042(3) -0.005(3) 0.007(3) 0.009(3)
C1 0.071(6) 0.061(6) 0.061(5) -0.024(5) -0.010(5) 0.037(5)
C2 0.086(7) 0.058(6) 0.042(4) -0.009(4) -0.006(5) 0.041(5)
C3 0.067(6) 0.064(6) 0.049(5) -0.009(4) -0.004(4) 0.034(5)
C4 0.077(7) 0.061(6) 0.092(7) -0.021(5) 0.009(6) 0.018(5)
C5 0.089(8) 0.094(8) 0.097(8) -0.019(7) 0.020(6) 0.044(7)
C6 0.115(9) 0.075(7) 0.098(8) -0.025(6) 0.012(7) 0.051(7)
C7 0.070(6) 0.055(5) 0.065(6) -0.012(5) 0.006(5) 0.029(5)
C8 0.073(6) 0.047(5) 0.040(4) -0.004(4) 0.000(4) 0.022(5)
C9 0.057(6) 0.056(6) 0.083(7) -0.019(5) 0.009(5) 0.004(5)
C10 0.060(6) 0.053(5) 0.076(6) -0.028(5) 0.020(5) -0.001(5)
C11 0.074(6) 0.059(6) 0.072(6) -0.024(5) 0.020(5) 0.010(5)
C12 0.086(7) 0.066(6) 0.064(6) -0.022(5) 0.024(5) 0.012(5)

_geom_special_details            
;
All esds (except the esd in the dihedral angle between two l.s. planes)
are estimated using the full covariance matrix. The cell esds are taken
into account individually in the estimation of esds in distances, angles
and torsion angles; correlations between esds in cell parameters are only
used when they are defined by crystal symmetry. An approximate (isotropic)
treatment of cell esds is used for estimating esds involving l.s. planes.
;

loop_
_geom_bond_atom_site_label_1
_geom_bond_atom_site_label_2
_geom_bond_distance
_geom_bond_site_symmetry_2
_geom_bond_publ_flag
Fe1 N1 1.947(6) . ?
Fe1 N1 1.948(6) 25 ?
Fe1 N5 2.008(6) 9 ?
Fe1 N5 2.008(6) 21 ?
Fe1 N4 2.009(6) 25 ?
Fe1 N4 2.009(6) . ?
N1 C1 1.346(10) . ?
N1 N2 1.347(8) . ?
N2 C2 1.312(9) . ?
N3 C1 1.337(10) . ?
N3 C2 1.342(10) . ?
N4 C7 1.326(9) . ?
N4 C3 1.339(9) . ?
N5 C10 1.324(9) . ?
N5 C11 1.326(9) . ?
N5 Fe1 2.008(6) 14_544 ?
C1 C3 1.459(10) . ?
C2 C8 1.468(10) . ?
C3 C4 1.397(12) . ?
C4 C5 1.351(12) . ?
C4 H4 0.9300 . ?
C5 C6 1.407(12) . ?
C5 H5 0.9300 . ?
C6 C7 1.369(12) . ?
C6 H6 0.9300 . ?
C7 H7 0.9300 . ?
C8 C9 1.350(11) . ?
C8 C12 1.359(11) . ?
C9 C10 1.373(11) . ?
C9 H9 0.9300 . ?
C10 H10 0.9300 . ?
C11 C12 1.358(11) . ?
C11 H11 0.9300 . ?
C12 H12 0.9300 . ?

loop_
_geom_angle_atom_site_label_1
_geom_angle_atom_site_label_2
_geom_angle_atom_site_label_3
_geom_angle
_geom_angle_site_symmetry_1
_geom_angle_site_symmetry_3
_geom_angle_publ_flag
N1 Fe1 N1 179.996(1) . 25 ?
N1 Fe1 N5 89.5(2) . 9 ?
N1 Fe1 N5 90.5(2) 25 9 ?
N1 Fe1 N5 90.5(2) . 21 ?
N1 Fe1 N5 89.5(2) 25 21 ?
N5 Fe1 N5 179.997(1) 9 21 ?
N1 Fe1 N4 99.5(3) . 25 ?
N1 Fe1 N4 80.5(3) 25 25 ?
N5 Fe1 N4 89.1(2) 9 25 ?
N5 Fe1 N4 91.0(2) 21 25 ?
N1 Fe1 N4 80.5(3) . . ?
N1 Fe1 N4 99.5(3) 25 . ?
N5 Fe1 N4 90.9(2) 9 . ?
N5 Fe1 N4 89.0(2) 21 . ?
N4 Fe1 N4 179.997(1) 25 . ?
C1 N1 N2 105.8(6) . . ?
C1 N1 Fe1 115.4(5) . . ?
N2 N1 Fe1 138.8(6) . . ?
C2 N2 N1 105.9(6) . . ?
C1 N3 C2 101.4(7) . . ?
C7 N4 C3 117.1(7) . . ?
C7 N4 Fe1 127.1(6) . . ?
C3 N4 Fe1 115.8(5) . . ?
C10 N5 C11 113.6(7) . . ?
C10 N5 Fe1 122.5(5) . 14_544 ?
C11 N5 Fe1 123.4(5) . 14_544 ?
N3 C1 N1 112.7(7) . . ?
N3 C1 C3 131.3(9) . . ?
N1 C1 C3 116.0(7) . . ?
N2 C2 N3 114.2(7) . . ?
N2 C2 C8 122.5(8) . . ?
N3 C2 C8 123.2(8) . . ?
N4 C3 C4 123.9(7) . . ?
N4 C3 C1 112.2(8) . . ?
C4 C3 C1 123.8(8) . . ?
C5 C4 C3 118.3(8) . . ?
C5 C4 H4 120.8 . . ?
C3 C4 H4 120.8 . . ?
C4 C5 C6 118.1(9) . . ?
C4 C5 H5 120.9 . . ?
C6 C5 H5 120.9 . . ?
C7 C6 C5 119.7(9) . . ?
C7 C6 H6 120.2 . . ?
C5 C6 H6 120.2 . . ?
N4 C7 C6 122.8(8) . . ?
N4 C7 H7 118.6 . . ?
C6 C7 H7 118.6 . . ?
C9 C8 C12 115.5(7) . . ?
C9 C8 C2 120.4(8) . . ?
C12 C8 C2 124.1(8) . . ?
C8 C9 C10 120.5(8) . . ?
C8 C9 H9 119.7 . . ?
C10 C9 H9 119.7 . . ?
N5 C10 C9 124.6(8) . . ?
N5 C10 H10 117.7 . . ?
C9 C10 H10 117.7 . . ?
N5 C11 C12 124.9(8) . . ?
N5 C11 H11 117.6 . . ?
C12 C11 H11 117.6 . . ?
C11 C12 C8 120.7(8) . . ?
C11 C12 H12 119.7 . . ?
C8 C12 H12 119.7 . . ?

loop_
_geom_torsion_atom_site_label_1
_geom_torsion_atom_site_label_2
_geom_torsion_atom_site_label_3
_geom_torsion_atom_site_label_4
_geom_torsion
_geom_torsion_site_symmetry_1
_geom_torsion_site_symmetry_2
_geom_torsion_site_symmetry_3
_geom_torsion_site_symmetry_4
_geom_torsion_publ_flag
N1 Fe1 N1 C1 -29.4(12) 25 . . . ?
N5 Fe1 N1 C1 91.7(6) 9 . . . ?
N5 Fe1 N1 C1 -88.3(6) 21 . . . ?
N4 Fe1 N1 C1 -179.3(6) 25 . . . ?
N4 Fe1 N1 C1 0.7(6) . . . . ?
N1 Fe1 N1 N2 149.8(12) 25 . . . ?
N5 Fe1 N1 N2 -89.0(7) 9 . . . ?
N5 Fe1 N1 N2 91.0(7) 21 . . . ?
N4 Fe1 N1 N2 0.0(7) 25 . . . ?
N4 Fe1 N1 N2 180.0(7) . . . . ?
C1 N1 N2 C2 -1.2(8) . . . . ?
Fe1 N1 N2 C2 179.4(6) . . . . ?
N1 Fe1 N4 C7 -179.3(7) . . . . ?
N1 Fe1 N4 C7 0.7(7) 25 . . . ?
N5 Fe1 N4 C7 91.4(7) 9 . . . ?
N5 Fe1 N4 C7 -88.6(7) 21 . . . ?
N4 Fe1 N4 C7 -40.6(11) 25 . . . ?
N1 Fe1 N4 C3 -1.8(5) . . . . ?
N1 Fe1 N4 C3 178.2(5) 25 . . . ?
N5 Fe1 N4 C3 -91.1(6) 9 . . . ?
N5 Fe1 N4 C3 88.9(6) 21 . . . ?
N4 Fe1 N4 C3 136.9(11) 25 . . . ?
C2 N3 C1 N1 -0.5(10) . . . . ?
C2 N3 C1 C3 179.8(9) . . . . ?
N2 N1 C1 N3 1.1(9) . . . . ?
Fe1 N1 C1 N3 -179.4(6) . . . . ?
N2 N1 C1 C3 -179.1(6) . . . . ?
Fe1 N1 C1 C3 0.4(9) . . . . ?
N1 N2 C2 N3 1.0(9) . . . . ?
N1 N2 C2 C8 178.0(7) . . . . ?
C1 N3 C2 N2 -0.3(10) . . . . ?
C1 N3 C2 C8 -177.3(8) . . . . ?
C7 N4 C3 C4 0.8(12) . . . . ?
Fe1 N4 C3 C4 -176.9(7) . . . . ?
C7 N4 C3 C1 -179.9(7) . . . . ?
Fe1 N4 C3 C1 2.4(9) . . . . ?
N3 C1 C3 N4 177.9(9) . . . . ?
N1 C1 C3 N4 -1.8(11) . . . . ?
N3 C1 C3 C4 -2.8(16) . . . . ?
N1 C1 C3 C4 177.5(8) . . . . ?
N4 C3 C4 C5 0.4(15) . . . . ?
C1 C3 C4 C5 -178.9(9) . . . . ?
C3 C4 C5 C6 -1.0(16) . . . . ?
C4 C5 C6 C7 0.5(17) . . . . ?
C3 N4 C7 C6 -1.4(13) . . . . ?
Fe1 N4 C7 C6 176.1(7) . . . . ?
C5 C6 C7 N4 0.8(16) . . . . ?
N2 C2 C8 C9 -12.7(13) . . . . ?
N3 C2 C8 C9 164.1(9) . . . . ?
N2 C2 C8 C12 168.4(9) . . . . ?
N3 C2 C8 C12 -14.9(13) . . . . ?
C12 C8 C9 C10 5.5(14) . . . . ?
C2 C8 C9 C10 -173.5(9) . . . . ?
C11 N5 C10 C9 -1.2(14) . . . . ?
Fe1 N5 C10 C9 171.3(8) 14_544 . . . ?
C8 C9 C10 N5 -2.3(16) . . . . ?
C10 N5 C11 C12 1.3(15) . . . . ?
Fe1 N5 C11 C12 -171.2(8) 14_544 . . . ?
N5 C11 C12 C8 2.2(18) . . . . ?
C9 C8 C12 C11 -5.4(15) . . . . ?
C2 C8 C12 C11 173.5(9) . . . . ?

_diffrn_measured_fraction_theta_max 0.933
_diffrn_reflns_theta_full        26.99
_diffrn_measured_fraction_theta_full 0.933
_refine_diff_density_max         0.862
_refine_diff_density_min         -0.427
_refine_diff_density_rms         0.140
