####################################################################### 
# 
# This file contains crystal structure data downloaded from the 
# Cambridge Structural Database (CSD) hosted by the Cambridge 
# Crystallographic Data Centre (CCDC).
# 
# Full information about CCDC data access policies and citation 
# guidelines are available at http://www.ccdc.cam.ac.uk/access/V1 
# 
# Audit and citation data items may have been added by the CCDC. 
# Please retain this information to preserve the provenance of 
# this file and to allow appropriate attribution of the data. 
# 
#######################################################################

data_c
_audit_block_doi                 10.5517/ccpjlh8
_database_code_depnum_ccdc_archive 'CCDC 641560'
_audit_update_record             
;
2007-03-23 deposited with the CCDC.	2024-07-09 downloaded from the CCDC.
;

_audit_creation_method           SHELXL-97
_chemical_name_systematic        
;
?
;
_chemical_name_common            ?
_chemical_melting_point          ?
_chemical_formula_moiety         ?
_chemical_formula_sum            'C66 H84 N14 O18 Zn'
_chemical_formula_weight         1426.84

loop_
_atom_type_symbol
_atom_type_description
_atom_type_scat_dispersion_real
_atom_type_scat_dispersion_imag
_atom_type_scat_source
C C 0.0033 0.0016 'International Tables Vol C Tables 4.2.6.8 and 6.1.1.4'
H H 0.0000 0.0000 'International Tables Vol C Tables 4.2.6.8 and 6.1.1.4'
N N 0.0061 0.0033 'International Tables Vol C Tables 4.2.6.8 and 6.1.1.4'
O O 0.0106 0.0060 'International Tables Vol C Tables 4.2.6.8 and 6.1.1.4'
Zn Zn 0.2839 1.4301 'International Tables Vol C Tables 4.2.6.8 and 6.1.1.4'

_symmetry_cell_setting           Rhombohedral
_symmetry_space_group_name_H-M   R-3

loop_
_symmetry_equiv_pos_as_xyz
'x, y, z'
'-y, x-y, z'
'-x+y, -x, z'
'x+2/3, y+1/3, z+1/3'
'-y+2/3, x-y+1/3, z+1/3'
'-x+y+2/3, -x+1/3, z+1/3'
'x+1/3, y+2/3, z+2/3'
'-y+1/3, x-y+2/3, z+2/3'
'-x+y+1/3, -x+2/3, z+2/3'
'-x, -y, -z'
'y, -x+y, -z'
'x-y, x, -z'
'-x+2/3, -y+1/3, -z+1/3'
'y+2/3, -x+y+1/3, -z+1/3'
'x-y+2/3, x+1/3, -z+1/3'
'-x+1/3, -y+2/3, -z+2/3'
'y+1/3, -x+y+2/3, -z+2/3'
'x-y+1/3, x+2/3, -z+2/3'

_cell_length_a                   22.8249(14)
_cell_length_b                   22.8249(14)
_cell_length_c                   14.8386(19)
_cell_angle_alpha                90.00
_cell_angle_beta                 90.00
_cell_angle_gamma                120.00
_cell_volume                     6694.9(10)
_cell_formula_units_Z            3
_cell_measurement_temperature    291(2)
_cell_measurement_reflns_used    2594
_cell_measurement_theta_min      2.48
_cell_measurement_theta_max      19.22

_exptl_crystal_description       block
_exptl_crystal_colour            colourless
_exptl_crystal_size_max          0.49
_exptl_crystal_size_mid          0.45
_exptl_crystal_size_min          0.27
_exptl_crystal_density_meas      0.64
_exptl_crystal_density_diffrn    1.062
_exptl_crystal_density_method    'not measured'
_exptl_crystal_F_000             2256
_exptl_absorpt_coefficient_mu    0.337
_exptl_absorpt_correction_type   multi-scan
_exptl_absorpt_correction_T_min  0.8521
_exptl_absorpt_correction_T_max  0.9144
_exptl_absorpt_process_details   sadabs

_exptl_special_details           
;
?
;

_diffrn_ambient_temperature      291(2)
_diffrn_radiation_wavelength     0.71073
_diffrn_radiation_type           MoK\a
_diffrn_radiation_source         'fine-focus sealed tube'
_diffrn_radiation_monochromator  graphite
_diffrn_measurement_device_type  'CCD area detector'
_diffrn_measurement_method       'phi and omega scans'
_diffrn_detector_area_resol_mean ?
_diffrn_standards_number         0
_diffrn_standards_interval_count ?
_diffrn_standards_interval_time  ?
_diffrn_standards_decay_%        ?
_diffrn_reflns_number            13014
_diffrn_reflns_av_R_equivalents  0.0468
_diffrn_reflns_av_sigmaI/netI    0.0374
_diffrn_reflns_limit_h_min       -27
_diffrn_reflns_limit_h_max       25
_diffrn_reflns_limit_k_min       -27
_diffrn_reflns_limit_k_max       27
_diffrn_reflns_limit_l_min       -17
_diffrn_reflns_limit_l_max       17
_diffrn_reflns_theta_min         3.05
_diffrn_reflns_theta_max         25.50
_reflns_number_total             2656
_reflns_number_gt                1670
_reflns_threshold_expression     >2sigma(I)

_computing_data_collection       'Bruker SMART'
_computing_cell_refinement       'Bruker SMART'
_computing_data_reduction        'Bruker SAINT'
_computing_structure_solution    'SHELXS-97 (Sheldrick, 1990)'
_computing_structure_refinement  'SHELXL-97 (Sheldrick, 1997)'
_computing_molecular_graphics    'Bruker SHELXTL'
_computing_publication_material  'Bruker SHELXTL'

_refine_special_details          
;
Refinement of F^2^ against ALL reflections. The weighted R-factor wR and
goodness of fit S are based on F^2^, conventional R-factors R are based
on F, with F set to zero for negative F^2^. The threshold expression of
F^2^ > 2sigma(F^2^) is used only for calculating R-factors(gt) etc. and is
not relevant to the choice of reflections for refinement. R-factors based
on F^2^ are statistically about twice as large as those based on F, and R-
factors based on ALL data will be even larger.
;

_refine_ls_structure_factor_coef Fsqd
_refine_ls_matrix_type           full
_refine_ls_weighting_scheme      calc
_refine_ls_weighting_details     
'calc w=1/[\s^2^(Fo^2^)+(0.1176P)^2^+0.0000P] where P=(Fo^2^+2Fc^2^)/3'
_atom_sites_solution_primary     direct
_atom_sites_solution_secondary   difmap
_atom_sites_solution_hydrogens   geom
_refine_ls_hydrogen_treatment    constr
_refine_ls_extinction_method     none
_refine_ls_extinction_coef       ?
_refine_ls_number_reflns         2656
_refine_ls_number_parameters     139
_refine_ls_number_restraints     115
_refine_ls_R_factor_all          0.1033
_refine_ls_R_factor_gt           0.0640
_refine_ls_wR_factor_ref         0.1951
_refine_ls_wR_factor_gt          0.1635
_refine_ls_goodness_of_fit_ref   1.040
_refine_ls_restrained_S_all      2.114
_refine_ls_shift/su_max          0.001
_refine_ls_shift/su_mean         0.000

loop_
_atom_site_label
_atom_site_type_symbol
_atom_site_fract_x
_atom_site_fract_y
_atom_site_fract_z
_atom_site_U_iso_or_equiv
_atom_site_adp_type
_atom_site_occupancy
_atom_site_symmetry_multiplicity
_atom_site_calc_flag
_atom_site_refinement_flags
_atom_site_disorder_assembly
_atom_site_disorder_group
Zn1 Zn 1.0000 0.0000 1.0000 0.0690(3) Uani 1 6 d S . .
O1 O 0.91649(12) 0.20111(13) 0.99906(18) 0.1004(8) Uani 1 1 d U . .
O2 O 0.0550(7) 0.3342(6) 0.1050(16) 0.471(7) Uani 1 1 d DU . .
H2 H 0.0224 0.3029 0.0796 0.706 Uiso 1 1 calc R . .
O3 O 0.9370 0.9643 0.6196 0.443 Uani 1 1 d U . .
N1 N 0.98038(12) 0.06713(12) 0.91552(18) 0.0773(8) Uani 1 1 d U . .
N2 N 0.97477(13) 0.15516(13) 0.8684(2) 0.0877(9) Uani 1 1 d U . .
N3 N 1.0000 1.0000 0.6177 0.597 Uani 1 3 d SU . .
C1 C 0.94318(17) 0.05088(19) 0.8368(3) 0.0932(12) Uani 1 1 d U . .
H1 H 0.9237 0.0090 0.8083 0.112 Uiso 1 1 calc R . .
C2 C 0.93925(19) 0.1042(2) 0.8076(3) 0.1029(13) Uani 1 1 d U . .
H2A H 0.9169 0.1063 0.7564 0.123 Uiso 1 1 calc R . .
C3 C 0.99781(16) 0.13033(15) 0.9321(2) 0.0765(10) Uani 1 1 d U . .
H3A H 1.0230 0.1547 0.9819 0.092 Uiso 1 1 calc R . .
C4 C 0.98345(19) 0.22420(18) 0.8691(3) 0.1049(13) Uani 1 1 d U . .
H4A H 0.9907 0.2416 0.8080 0.126 Uiso 1 1 calc R . .
H4B H 1.0230 0.2541 0.9045 0.126 Uiso 1 1 calc R . .
C5 C 0.92190(19) 0.22328(18) 0.9083(3) 0.1072(13) Uani 1 1 d U . .
H5A H 0.9272 0.2681 0.9062 0.129 Uiso 1 1 calc R . .
H5B H 0.8817 0.1926 0.8746 0.129 Uiso 1 1 calc R . .
C6 C 0.86371(17) 0.19558(16) 1.0496(3) 0.0854(11) Uani 1 1 d U . .
C7 C 0.81754(17) 0.21301(19) 1.0200(3) 0.1010(12) Uani 1 1 d U . .
H7 H 0.8213 0.2307 0.9625 0.121 Uiso 1 1 calc R . .
C8 C 0.76503(19) 0.2041(2) 1.0766(3) 0.1076(13) Uani 1 1 d U . .
H8 H 0.7334 0.2152 1.0557 0.129 Uiso 1 1 calc R . .
C9 C 0.86016(14) 0.17041(14) 1.1383(3) 0.0760(10) Uani 1 1 d U . .
C10 C 0.90779(16) 0.15392(18) 1.1714(3) 0.0898(11) Uani 1 1 d U . .
H10 H 0.9436 0.1598 1.1351 0.108 Uiso 1 1 calc R . .
C11 C 0.0610(11) 0.4004(9) 0.077(2) 0.501(9) Uani 1 1 d DU . .
H11A H 0.0242 0.4041 0.1024 0.751 Uiso 1 1 calc R . .
H11B H 0.0594 0.4023 0.0125 0.751 Uiso 1 1 calc R . .
H11C H 0.1032 0.4371 0.0984 0.751 Uiso 1 1 calc R . .

loop_
_atom_site_aniso_label
_atom_site_aniso_U_11
_atom_site_aniso_U_22
_atom_site_aniso_U_33
_atom_site_aniso_U_23
_atom_site_aniso_U_13
_atom_site_aniso_U_12
Zn1 0.0635(3) 0.0635(3) 0.0801(5) 0.000 0.000 0.03175(15)
O1 0.1086(11) 0.1183(12) 0.1051(18) 0.0159(12) 0.0213(12) 0.0798(9)
O2 0.462(9) 0.486(9) 0.468(12) -0.013(10) 0.035(9) 0.240(7)
O3 0.332 0.430 0.369 -0.015 0.016 0.044
N1 0.0742(12) 0.0788(13) 0.0838(17) 0.0062(12) 0.0049(12) 0.0420(10)
N2 0.0938(13) 0.0926(13) 0.0976(18) 0.0296(13) 0.0263(13) 0.0623(10)
N3 0.247 0.247 1.298 0.000 0.000 0.123
C1 0.0992(18) 0.0983(19) 0.090(2) -0.0030(18) -0.0166(18) 0.0550(15)
C2 0.1118(19) 0.123(2) 0.095(2) 0.011(2) -0.007(2) 0.0746(16)
C3 0.0812(15) 0.0725(14) 0.083(2) 0.0107(14) 0.0123(15) 0.0438(11)
C4 0.117(2) 0.0970(18) 0.121(3) 0.0409(18) 0.039(2) 0.0682(14)
C5 0.133(2) 0.1097(17) 0.114(3) 0.0386(18) 0.034(2) 0.0874(14)
C6 0.0915(16) 0.0804(15) 0.100(2) -0.0025(16) 0.0046(17) 0.0544(12)
C7 0.1166(18) 0.1218(19) 0.102(3) 0.0083(18) 0.0073(19) 0.0874(13)
C8 0.1195(17) 0.138(2) 0.110(3) -0.002(2) 0.000(2) 0.0978(14)
C9 0.0781(14) 0.0621(13) 0.097(2) -0.0065(14) 0.0005(15) 0.0416(11)
C10 0.0916(16) 0.0970(17) 0.100(2) 0.0001(17) 0.0076(17) 0.0614(13)
C11 0.504(12) 0.501(12) 0.491(14) -0.013(11) 0.029(11) 0.246(8)

_geom_special_details            
;
All esds (except the esd in the dihedral angle between two l.s. planes)
are estimated using the full covariance matrix. The cell esds are taken
into account individually in the estimation of esds in distances, angles
and torsion angles; correlations between esds in cell parameters are only
used when they are defined by crystal symmetry. An approximate (isotropic)
treatment of cell esds is used for estimating esds involving l.s. planes.
;

loop_
_geom_bond_atom_site_label_1
_geom_bond_atom_site_label_2
_geom_bond_distance
_geom_bond_site_symmetry_2
_geom_bond_publ_flag
Zn1 N1 2.192(3) 10_757 ?
Zn1 N1 2.192(3) . ?
Zn1 N1 2.192(3) 11_667 ?
Zn1 N1 2.192(3) 3_765 ?
Zn1 N1 2.192(3) 2_645 ?
Zn1 N1 2.192(3) 12_547 ?
O1 C6 1.371(5) . ?
O1 C5 1.423(5) . ?
O2 C11 1.51(2) . ?
O2 H2 0.8200 . ?
O3 N3 1.2498 . ?
N1 C3 1.314(4) . ?
N1 C1 1.382(5) . ?
N2 C3 1.338(5) . ?
N2 C2 1.371(5) . ?
N2 C4 1.487(5) . ?
N3 O3 1.2498 2_765 ?
N3 O3 1.2499 3_675 ?
C1 C2 1.336(6) . ?
C1 H1 0.9300 . ?
C2 H2A 0.9300 . ?
C3 H3A 0.9300 . ?
C4 C5 1.511(6) . ?
C4 H4A 0.9700 . ?
C4 H4B 0.9700 . ?
C5 H5A 0.9700 . ?
C5 H5B 0.9700 . ?
C6 C7 1.372(6) . ?
C6 C9 1.421(5) . ?
C7 C8 1.392(6) . ?
C7 H7 0.9300 . ?
C8 C10 1.364(6) 13_657 ?
C8 H8 0.9300 . ?
C9 C10 1.405(5) . ?
C9 C9 1.425(7) 13_657 ?
C10 C8 1.364(6) 13_657 ?
C10 H10 0.9300 . ?
C11 H11A 0.9600 . ?
C11 H11B 0.9600 . ?
C11 H11C 0.9600 . ?

loop_
_geom_angle_atom_site_label_1
_geom_angle_atom_site_label_2
_geom_angle_atom_site_label_3
_geom_angle
_geom_angle_site_symmetry_1
_geom_angle_site_symmetry_3
_geom_angle_publ_flag
N1 Zn1 N1 180.00(12) 10_757 . ?
N1 Zn1 N1 90.55(11) 10_757 11_667 ?
N1 Zn1 N1 89.45(11) . 11_667 ?
N1 Zn1 N1 89.46(11) 10_757 3_765 ?
N1 Zn1 N1 90.54(11) . 3_765 ?
N1 Zn1 N1 89.46(11) 11_667 3_765 ?
N1 Zn1 N1 89.46(11) 10_757 2_645 ?
N1 Zn1 N1 90.54(11) . 2_645 ?
N1 Zn1 N1 180.0 11_667 2_645 ?
N1 Zn1 N1 90.54(11) 3_765 2_645 ?
N1 Zn1 N1 90.55(11) 10_757 12_547 ?
N1 Zn1 N1 89.45(11) . 12_547 ?
N1 Zn1 N1 90.54(11) 11_667 12_547 ?
N1 Zn1 N1 180.0 3_765 12_547 ?
N1 Zn1 N1 89.45(11) 2_645 12_547 ?
C6 O1 C5 117.9(3) . . ?
C11 O2 H2 109.5 . . ?
C3 N1 C1 105.1(3) . . ?
C3 N1 Zn1 127.2(2) . . ?
C1 N1 Zn1 127.5(2) . . ?
C3 N2 C2 107.2(3) . . ?
C3 N2 C4 124.9(3) . . ?
C2 N2 C4 127.8(3) . . ?
O3 N3 O3 119.9 2_765 . ?
O3 N3 O3 120.0 2_765 3_675 ?
O3 N3 O3 119.9 . 3_675 ?
C2 C1 N1 110.0(3) . . ?
C2 C1 H1 125.0 . . ?
N1 C1 H1 125.0 . . ?
C1 C2 N2 106.2(4) . . ?
C1 C2 H2A 126.9 . . ?
N2 C2 H2A 126.9 . . ?
N1 C3 N2 111.4(3) . . ?
N1 C3 H3A 124.3 . . ?
N2 C3 H3A 124.3 . . ?
N2 C4 C5 111.0(3) . . ?
N2 C4 H4A 109.4 . . ?
C5 C4 H4A 109.4 . . ?
N2 C4 H4B 109.4 . . ?
C5 C4 H4B 109.4 . . ?
H4A C4 H4B 108.0 . . ?
O1 C5 C4 106.5(4) . . ?
O1 C5 H5A 110.4 . . ?
C4 C5 H5A 110.4 . . ?
O1 C5 H5B 110.4 . . ?
C4 C5 H5B 110.4 . . ?
H5A C5 H5B 108.6 . . ?
O1 C6 C7 124.4(4) . . ?
O1 C6 C9 114.5(3) . . ?
C7 C6 C9 121.1(4) . . ?
C6 C7 C8 119.6(4) . . ?
C6 C7 H7 120.2 . . ?
C8 C7 H7 120.2 . . ?
C10 C8 C7 121.6(4) 13_657 . ?
C10 C8 H8 119.2 13_657 . ?
C7 C8 H8 119.2 . . ?
C10 C9 C6 122.5(3) . . ?
C10 C9 C9 119.6(4) . 13_657 ?
C6 C9 C9 117.9(4) . 13_657 ?
C8 C10 C9 120.1(4) 13_657 . ?
C8 C10 H10 120.0 13_657 . ?
C9 C10 H10 120.0 . . ?
O2 C11 H11A 109.5 . . ?
O2 C11 H11B 109.5 . . ?
H11A C11 H11B 109.5 . . ?
O2 C11 H11C 109.5 . . ?
H11A C11 H11C 109.5 . . ?
H11B C11 H11C 109.5 . . ?

loop_
_geom_torsion_atom_site_label_1
_geom_torsion_atom_site_label_2
_geom_torsion_atom_site_label_3
_geom_torsion_atom_site_label_4
_geom_torsion
_geom_torsion_site_symmetry_1
_geom_torsion_site_symmetry_2
_geom_torsion_site_symmetry_3
_geom_torsion_site_symmetry_4
_geom_torsion_publ_flag
N1 Zn1 N1 C3 154(8) 10_757 . . . ?
N1 Zn1 N1 C3 -10.0(3) 11_667 . . . ?
N1 Zn1 N1 C3 -99.4(3) 3_765 . . . ?
N1 Zn1 N1 C3 170.0(3) 2_645 . . . ?
N1 Zn1 N1 C3 80.6(3) 12_547 . . . ?
N1 Zn1 N1 C1 -21(8) 10_757 . . . ?
N1 Zn1 N1 C1 174.9(3) 11_667 . . . ?
N1 Zn1 N1 C1 85.4(2) 3_765 . . . ?
N1 Zn1 N1 C1 -5.1(3) 2_645 . . . ?
N1 Zn1 N1 C1 -94.6(2) 12_547 . . . ?
C3 N1 C1 C2 0.3(4) . . . . ?
Zn1 N1 C1 C2 176.3(3) . . . . ?
N1 C1 C2 N2 0.4(4) . . . . ?
C3 N2 C2 C1 -0.8(4) . . . . ?
C4 N2 C2 C1 -177.1(3) . . . . ?
C1 N1 C3 N2 -0.8(4) . . . . ?
Zn1 N1 C3 N2 -176.8(2) . . . . ?
C2 N2 C3 N1 1.1(4) . . . . ?
C4 N2 C3 N1 177.5(3) . . . . ?
C3 N2 C4 C5 -95.8(4) . . . . ?
C2 N2 C4 C5 79.9(5) . . . . ?
C6 O1 C5 C4 -179.6(3) . . . . ?
N2 C4 C5 O1 62.5(4) . . . . ?
C5 O1 C6 C7 -3.2(5) . . . . ?
C5 O1 C6 C9 177.4(3) . . . . ?
O1 C6 C7 C8 178.8(3) . . . . ?
C9 C6 C7 C8 -2.0(5) . . . . ?
C6 C7 C8 C10 1.2(6) . . . 13_657 ?
O1 C6 C9 C10 1.2(4) . . . . ?
C7 C6 C9 C10 -178.2(3) . . . . ?
O1 C6 C9 C9 -179.8(3) . . . 13_657 ?
C7 C6 C9 C9 0.9(5) . . . 13_657 ?
C6 C9 C10 C8 -179.3(3) . . . 13_657 ?
C9 C9 C10 C8 1.7(5) 13_657 . . 13_657 ?

loop_
_geom_hbond_atom_site_label_D
_geom_hbond_atom_site_label_H
_geom_hbond_atom_site_label_A
_geom_hbond_distance_DH
_geom_hbond_distance_HA
_geom_hbond_distance_DA
_geom_hbond_angle_DHA
_geom_hbond_site_symmetry_A
O2 H2 O1 0.82 2.66 3.477(15) 179.4 1_454

_diffrn_measured_fraction_theta_max 0.963
_diffrn_reflns_theta_full        25.50
_diffrn_measured_fraction_theta_full 0.963
_refine_diff_density_max         0.273
_refine_diff_density_min         -0.389
_refine_diff_density_rms         0.051


