
#######################################################################
#
#                 Cambridge Crystallographic Data Centre
#                                CCDC
#
#######################################################################
#
# If this CIF has been generated from an entry in the Cambridge
# Structural Database, then it will include bibliographic, chemical,
# crystal, experimental, refinement or atomic coordinate data resulting
# from the CCDC's data processing and validation procedures.
#
#######################################################################

data_CSD_CIF_BUZFUX
_audit_creation_date 1984-02-21
_audit_creation_method CSD-ConQuest-V1
_database_code_CSD BUZFUX
_database_code_depnum_ccdc_archive 'CCDC 1117891'
_chemical_formula_sum 'C4 H12 I1 N1 O3'
_chemical_formula_moiety
;
C4 H12 N1 O3 1+,I1 1-
;
_journal_coeditor_code "IUCr A22688"
_journal_coden_Cambridge 591
_journal_volume 39
_journal_year 1983
_journal_page_first 1267
_journal_name_full 'Acta Crystallogr.,Sect.C:Cryst.Struct.Commun. '
loop_
_publ_author_name
"R.Rudman"
"R.Lippman"
"D.S.S.Gowda"
"D.Eilerman"
_chemical_name_systematic
;
tris(Hydroxymethyl)aminomethane hydroiodide
;
_chemical_name_common
;
(1,3-Dihydroxy-2-hydroxymethyl-2-propyl)-ammonium iodide; Teaching Subset: 
Symmetry
;
_chemical_melting_point 463
_cell_volume   1571.821
_exptl_crystal_density_diffrn 2.105
_diffrn_ambient_temperature ?
_diffrn_special_details
;
The study was carried out at room temperature,in the range 283-303K

;
#These two values have been output from a single CSD field.
_refine_ls_R_factor_gt 0.056
_refine_ls_wR_factor_gt 0.056
_symmetry_cell_setting cubic
_symmetry_space_group_name_H-M 'I 21 3'
_symmetry_Int_Tables_number 199
loop_
_symmetry_equiv_pos_site_id
_symmetry_equiv_pos_as_xyz
1 x,y,z
2 1/2+x,1/2+y,1/2+z
3 z,x,y
4 y,z,x
5 1/2+z,1/2+x,1/2+y
6 1/2+y,1/2+z,1/2+x
7 1/2+x,1/2-y,-z
8 x,-y,1/2-z
9 1/2+z,1/2-x,-y
10 1/2+y,1/2-z,-x
11 z,-x,1/2-y
12 y,-z,1/2-x
13 -x,1/2+y,1/2-z
14 1/2-x,y,-z
15 -z,1/2+x,1/2-y
16 -y,1/2+z,1/2-x
17 1/2-z,x,-y
18 1/2-y,z,-x
19 1/2-x,-y,1/2+z
20 -x,1/2-y,z
21 1/2-z,-x,1/2+y
22 1/2-y,-z,1/2+x
23 -z,1/2-x,y
24 -y,1/2-z,x
_cell_length_a 11.627(3)
_cell_length_b 11.627(3)
_cell_length_c 11.627(3)
_cell_angle_alpha 90
_cell_angle_beta 90
_cell_angle_gamma 90
_cell_formula_units_Z 8
loop_
_atom_type_symbol
_atom_type_radius_bond
C 0.68
H 0.23
I 1.40
N 0.68
O 0.68
loop_
_atom_site_label
_atom_site_type_symbol
_atom_site_fract_x
_atom_site_fract_y
_atom_site_fract_z
I1 I 0.04271 0.04271 0.04271
O1 O 0.43150 0.13850 0.24050
N1 N 0.34340 0.34340 0.34340
C1 C 0.26900 0.26900 0.26900
C2 C 0.31250 0.14650 0.27410
H1 H 0.30200 0.11570 0.35350
H2 H 0.26350 0.09910 0.21990
C2B C 0.27410 0.31250 0.14650
C2C C 0.14650 0.27410 0.31250
O1B O 0.24050 0.43150 0.13850
H1B H 0.35350 0.30200 0.11570
H2B H 0.21990 0.26350 0.09910
O1C O 0.13850 0.24050 0.43150
H1C H 0.11570 0.35350 0.30200
H2C H 0.09910 0.21990 0.26350
#END
