####################################################################### 
# 
# This file contains crystal structure data downloaded from the 
# Cambridge Structural Database (CSD) hosted by the Cambridge 
# Crystallographic Data Centre (CCDC).
# 
# Full information about CCDC data access policies and citation 
# guidelines are available at http://www.ccdc.cam.ac.uk/access/V1 
# 
# Audit and citation data items may have been added by the CCDC. 
# Please retain this information to preserve the provenance of 
# this file and to allow appropriate attribution of the data. 
# 
#######################################################################

data_c2c
_audit_block_doi                 10.5517/ccttt4k
_database_code_depnum_ccdc_archive 'CCDC 769579'
loop_
_citation_id
_citation_doi
_citation_year
1 10.1016/j.poly.2010.04.024 2010
#TrackingRef '0Cuadp3bpmpfinal.cif'


_audit_update_record             
;
2010-03-13 deposited with the CCDC.	2024-07-09 downloaded from the CCDC.
;

_audit_creation_method           SHELXL-97
_chemical_name_systematic        
;
?
;
_chemical_name_common            ?
_chemical_melting_point          ?
_chemical_formula_moiety         ?
_chemical_formula_sum            'C22 H34 Cu N4 O15'
_chemical_formula_weight         658.07

loop_
_atom_type_symbol
_atom_type_description
_atom_type_scat_dispersion_real
_atom_type_scat_dispersion_imag
_atom_type_scat_source
C C 0.0033 0.0016 'International Tables Vol C Tables 4.2.6.8 and 6.1.1.4'
H H 0.0000 0.0000 'International Tables Vol C Tables 4.2.6.8 and 6.1.1.4'
N N 0.0061 0.0033 'International Tables Vol C Tables 4.2.6.8 and 6.1.1.4'
O O 0.0106 0.0060 'International Tables Vol C Tables 4.2.6.8 and 6.1.1.4'
Cu Cu 0.3201 1.2651 'International Tables Vol C Tables 4.2.6.8 and 6.1.1.4'

_symmetry_cell_setting           monoclinic
_symmetry_space_group_name_H-M   C2/c

loop_
_symmetry_equiv_pos_as_xyz
'x, y, z'
'-x, y, -z+1/2'
'x+1/2, y+1/2, z'
'-x+1/2, y+1/2, -z+1/2'
'-x, -y, -z'
'x, -y, z-1/2'
'-x+1/2, -y+1/2, -z'
'x+1/2, -y+1/2, z-1/2'

_cell_length_a                   9.0903(8)
_cell_length_b                   20.8366(19)
_cell_length_c                   16.6015(15)
_cell_angle_alpha                90.00
_cell_angle_beta                 96.5810(10)
_cell_angle_gamma                90.00
_cell_volume                     3123.8(5)
_cell_formula_units_Z            4
_cell_measurement_temperature    173(2)
_cell_measurement_reflns_used    23034
_cell_measurement_theta_min      1.95
_cell_measurement_theta_max      25.55

_exptl_crystal_description       block
_exptl_crystal_colour            blue
_exptl_crystal_size_max          0.41
_exptl_crystal_size_mid          0.39
_exptl_crystal_size_min          0.10
_exptl_crystal_density_meas      ?
_exptl_crystal_density_diffrn    1.399
_exptl_crystal_density_method    'not measured'
_exptl_crystal_F_000             1372
_exptl_absorpt_coefficient_mu    0.771
_exptl_absorpt_correction_type   multi-scan
_exptl_absorpt_correction_T_min  0.7454
_exptl_absorpt_correction_T_max  0.9255
_exptl_absorpt_process_details   SADABS

_exptl_special_details           
;
?
;

_diffrn_ambient_temperature      173(2)
_diffrn_radiation_wavelength     0.71073
_diffrn_radiation_type           MoK\a
_diffrn_radiation_source         'fine-focus sealed tube'
_diffrn_radiation_monochromator  graphite
_diffrn_measurement_device_type  ?
_diffrn_measurement_method       ?
_diffrn_detector_area_resol_mean ?
_diffrn_reflns_number            23034
_diffrn_reflns_av_R_equivalents  0.0565
_diffrn_reflns_av_sigmaI/netI    0.0335
_diffrn_reflns_limit_h_min       -11
_diffrn_reflns_limit_h_max       11
_diffrn_reflns_limit_k_min       -25
_diffrn_reflns_limit_k_max       25
_diffrn_reflns_limit_l_min       -20
_diffrn_reflns_limit_l_max       20
_diffrn_reflns_theta_min         1.95
_diffrn_reflns_theta_max         25.55
_reflns_number_total             2916
_reflns_number_gt                2039
_reflns_threshold_expression     >2sigma(I)

_computing_data_collection       ?
_computing_cell_refinement       ?
_computing_data_reduction        ?
_computing_structure_solution    'SHELXS-97 (Sheldrick, 2008)'
_computing_structure_refinement  'SHELXL-97 (Sheldrick, 2008)'
_computing_molecular_graphics    ?
_computing_publication_material  ?

_refine_special_details          
;
Refinement of F^2^ against ALL reflections. The weighted R-factor wR and
goodness of fit S are based on F^2^, conventional R-factors R are based
on F, with F set to zero for negative F^2^. The threshold expression of
F^2^ > 2sigma(F^2^) is used only for calculating R-factors(gt) etc. and is
not relevant to the choice of reflections for refinement. R-factors based
on F^2^ are statistically about twice as large as those based on F, and R-
factors based on ALL data will be even larger.
;

_refine_ls_structure_factor_coef Fsqd
_refine_ls_matrix_type           full
_refine_ls_weighting_scheme      calc
_refine_ls_weighting_details     
'calc w=1/[\s^2^(Fo^2^)+(0.1032P)^2^+8.5573P] where P=(Fo^2^+2Fc^2^)/3'
_atom_sites_solution_primary     direct
_atom_sites_solution_secondary   difmap
_atom_sites_solution_hydrogens   geom
_refine_ls_hydrogen_treatment    mixed
_refine_ls_extinction_method     none
_refine_ls_extinction_coef       ?
_refine_ls_number_reflns         2916
_refine_ls_number_parameters     234
_refine_ls_number_restraints     6
_refine_ls_R_factor_all          0.0909
_refine_ls_R_factor_gt           0.0606
_refine_ls_wR_factor_ref         0.1911
_refine_ls_wR_factor_gt          0.1650
_refine_ls_goodness_of_fit_ref   1.035
_refine_ls_restrained_S_all      1.034
_refine_ls_shift/su_max          0.000
_refine_ls_shift/su_mean         0.000

loop_
_atom_site_label
_atom_site_type_symbol
_atom_site_fract_x
_atom_site_fract_y
_atom_site_fract_z
_atom_site_U_iso_or_equiv
_atom_site_adp_type
_atom_site_occupancy
_atom_site_symmetry_multiplicity
_atom_site_calc_flag
_atom_site_refinement_flags
_atom_site_disorder_assembly
_atom_site_disorder_group
Cu1 Cu 0.0000 0.49419(4) 0.7500 0.0485(3) Uani 1 2 d S . .
O1 O -0.2051(3) 0.4965(2) 0.69702(18) 0.0608(10) Uani 1 1 d . . .
O1W O 0.4782(5) 0.36464(19) 0.4551(3) 0.0837(12) Uani 1 1 d D . .
H1WA H 0.396(2) 0.3409(13) 0.457(3) 0.100 Uiso 1 1 d D . .
H1WB H 0.5572 0.3424 0.4733 0.100 Uiso 1 1 d RD . .
O2 O -0.1906(5) 0.3934(3) 0.7100(3) 0.0933(14) Uani 1 1 d . . .
O3 O 0.0000 0.6175(3) 0.7500 0.0851(18) Uani 1 2 d SD . .
H3 H -0.064(5) 0.5906(15) 0.724(3) 0.102 Uiso 1 1 d D . .
O3W O -0.1992(13) 0.6868(5) 0.7984(8) 0.247(5) Uani 1 1 d . . .
O4W O -0.1079(16) 0.2751(6) 0.7511(8) 0.127(4) Uani 0.50 1 d P . 1
O4WB O -0.1897(16) 0.2669(8) 0.6727(15) 0.221(10) Uani 0.50 1 d P A 2
O5W O -0.3997(19) 0.5973(6) 0.6964(9) 0.085(4) Uani 0.50 1 d P B 1
O6W O 0.650(7) 0.154(3) 0.294(4) 0.30(3) Uiso 0.25 1 d P . 1
O5WB O -0.362(2) 0.6298(9) 0.7169(12) 0.161(10) Uani 0.50 1 d P C 2
O6WB O 0.7500 0.2500 0.5000 0.048(2) Uani 0.50 2 d SP . 2
N1 N 0.0866(4) 0.48530(18) 0.64302(19) 0.0427(8) Uani 1 1 d . . .
N2 N 0.2022(4) 0.31555(17) 0.48533(19) 0.0469(9) Uani 1 1 d . . .
C1 C -0.2604(6) 0.4426(4) 0.6918(3) 0.0667(15) Uani 1 1 d . . .
C2 C -0.4254(6) 0.4355(5) 0.6637(4) 0.104(3) Uani 1 1 d . . .
H2A H -0.4727 0.4780 0.6684 0.125 Uiso 1 1 calc R . .
H2B H -0.4366 0.4240 0.6055 0.125 Uiso 1 1 calc R . .
C3 C -0.5050(7) 0.3901(4) 0.7050(4) 0.107(3) Uani 1 1 d . . .
H3A H -0.4742 0.3470 0.6883 0.128 Uiso 1 1 calc R . .
H3B H -0.6110 0.3949 0.6843 0.128 Uiso 1 1 calc R . .
C4 C 0.1838(5) 0.5285(2) 0.6208(2) 0.0453(10) Uani 1 1 d . . .
H4 H 0.2055 0.5652 0.6541 0.054 Uiso 1 1 calc R . .
C5 C 0.2533(5) 0.5221(2) 0.5521(2) 0.0451(10) Uani 1 1 d . . .
H5 H 0.3223 0.5534 0.5386 0.054 Uiso 1 1 calc R . .
C6 C 0.2213(5) 0.4696(2) 0.5032(2) 0.0452(10) Uani 1 1 d . . .
H6 H 0.2667 0.4647 0.4548 0.054 Uiso 1 1 calc R . .
C7 C 0.1219(5) 0.4236(2) 0.5250(2) 0.0410(9) Uani 1 1 d . . .
C8 C 0.0573(4) 0.4343(2) 0.5957(2) 0.0425(10) Uani 1 1 d . . .
H8 H -0.0114 0.4036 0.6110 0.051 Uiso 1 1 calc R . .
C9 C 0.0853(5) 0.3652(2) 0.4736(3) 0.0508(11) Uani 1 1 d . . .
H9A H -0.0091 0.3468 0.4872 0.061 Uiso 1 1 calc R . .
H9B H 0.0712 0.3780 0.4158 0.061 Uiso 1 1 calc R . .
C10 C 0.2077(6) 0.2856(2) 0.5660(2) 0.0514(11) Uani 1 1 d . . .
H10A H 0.1107 0.2657 0.5721 0.062 Uiso 1 1 calc R . .
H10B H 0.2274 0.3189 0.6083 0.062 Uiso 1 1 calc R . .
C11 C 0.3270(6) 0.2351(2) 0.5771(3) 0.0534(12) Uani 1 1 d . . .
H11A H 0.4246 0.2551 0.5726 0.064 Uiso 1 1 calc R . .
H11B H 0.3296 0.2159 0.6318 0.064 Uiso 1 1 calc R . .
O6WA O 0.780(2) 0.1869(17) 0.4582(16) 0.162(12) Uani 0.25 1 d P . .
O6WC O 0.7787(19) 0.2081(10) 0.5369(15) 0.099(6) Uani 0.25 1 d P . .

loop_
_atom_site_aniso_label
_atom_site_aniso_U_11
_atom_site_aniso_U_22
_atom_site_aniso_U_33
_atom_site_aniso_U_23
_atom_site_aniso_U_13
_atom_site_aniso_U_12
Cu1 0.0271(4) 0.0941(7) 0.0239(4) 0.000 0.0013(3) 0.000
O1 0.0358(16) 0.111(3) 0.0340(16) 0.0044(17) -0.0018(13) -0.0096(18)
O1W 0.071(3) 0.068(2) 0.115(3) -0.006(2) 0.023(2) -0.022(2)
O2 0.061(3) 0.103(4) 0.123(4) -0.014(3) 0.043(3) -0.018(3)
O3 0.073(4) 0.151(6) 0.032(3) 0.000 0.007(2) 0.000
O3W 0.210(10) 0.218(11) 0.309(13) 0.067(10) 0.014(10) 0.000(8)
O4W 0.167(10) 0.102(8) 0.108(8) 0.018(7) 0.004(8) -0.015(7)
O4WB 0.116(10) 0.161(13) 0.38(3) -0.162(16) 0.010(14) 0.026(9)
O5W 0.099(8) 0.081(8) 0.074(6) -0.001(6) 0.006(5) -0.001(7)
O5WB 0.147(17) 0.177(18) 0.180(19) 0.123(14) 0.109(15) 0.103(14)
O6WB 0.049(5) 0.030(5) 0.063(6) 0.004(4) 0.000(4) 0.022(4)
N1 0.0282(16) 0.075(2) 0.0243(16) -0.0040(16) -0.0002(13) -0.0066(16)
N2 0.066(2) 0.046(2) 0.0263(17) 0.0012(14) -0.0022(15) -0.0088(17)
C1 0.052(3) 0.103(5) 0.045(3) -0.003(3) 0.006(2) -0.002(3)
C2 0.044(3) 0.199(8) 0.066(4) 0.003(4) -0.004(3) -0.039(4)
C3 0.044(3) 0.178(8) 0.102(5) -0.033(5) 0.028(3) -0.021(4)
C4 0.039(2) 0.061(3) 0.035(2) -0.0063(19) 0.0015(17) -0.007(2)
C5 0.047(2) 0.050(2) 0.040(2) 0.0007(19) 0.0108(19) -0.0076(19)
C6 0.055(3) 0.052(2) 0.030(2) 0.0035(18) 0.0114(18) -0.002(2)
C7 0.047(2) 0.050(2) 0.0248(19) 0.0041(16) -0.0016(16) -0.0043(19)
C8 0.036(2) 0.060(3) 0.031(2) 0.0021(19) 0.0002(16) -0.0113(19)
C9 0.059(3) 0.056(3) 0.035(2) -0.0009(19) -0.0049(19) -0.009(2)
C10 0.073(3) 0.053(3) 0.028(2) -0.0001(18) 0.0043(19) -0.014(2)
C11 0.076(3) 0.053(3) 0.029(2) 0.0001(19) -0.004(2) -0.007(2)
O6WA 0.079(14) 0.29(4) 0.116(19) 0.07(2) -0.005(13) 0.049(19)
O6WC 0.055(10) 0.101(14) 0.15(2) -0.031(14) 0.041(12) 0.001(10)

_geom_special_details            
;
All esds (except the esd in the dihedral angle between two l.s. planes)
are estimated using the full covariance matrix. The cell esds are taken
into account individually in the estimation of esds in distances, angles
and torsion angles; correlations between esds in cell parameters are only
used when they are defined by crystal symmetry. An approximate (isotropic)
treatment of cell esds is used for estimating esds involving l.s. planes.
;

loop_
_geom_bond_atom_site_label_1
_geom_bond_atom_site_label_2
_geom_bond_distance
_geom_bond_site_symmetry_2
_geom_bond_publ_flag
Cu1 O1 1.969(3) 2_556 ?
Cu1 O1 1.969(3) . ?
Cu1 N1 2.032(3) 2_556 ?
Cu1 N1 2.032(3) . ?
Cu1 O3 2.570(7) . ?
O1 C1 1.228(7) . ?
O2 O6W 1.06(7) 7_556 ?
O2 C1 1.225(8) . ?
O4W O6W 1.68(7) 7_556 ?
O6W O2 1.06(7) 7_556 ?
O6W O4W 1.68(7) 7_556 ?
O6WB O6WC 1.08(3) 7_656 ?
O6WB O6WC 1.08(3) . ?
O6WB O6WA 1.52(4) . ?
O6WB O6WA 1.52(4) 7_656 ?
N1 C8 1.330(5) . ?
N1 C4 1.343(6) . ?
N2 C10 1.473(5) . ?
N2 C9 1.480(6) . ?
N2 C11 1.482(5) 7_556 ?
C1 C2 1.526(8) . ?
C2 C3 1.416(9) . ?
C3 C3 1.486(13) 2_456 ?
C4 C5 1.371(6) . ?
C5 C6 1.374(6) . ?
C6 C7 1.393(6) . ?
C7 C8 1.389(5) . ?
C7 C9 1.501(6) . ?
C10 C11 1.507(7) . ?
C11 N2 1.482(5) 7_556 ?
O6WA O6WC 1.38(3) . ?

loop_
_geom_angle_atom_site_label_1
_geom_angle_atom_site_label_2
_geom_angle_atom_site_label_3
_geom_angle
_geom_angle_site_symmetry_1
_geom_angle_site_symmetry_3
_geom_angle_publ_flag
O1 Cu1 O1 177.2(3) 2_556 . ?
O1 Cu1 N1 93.07(13) 2_556 2_556 ?
O1 Cu1 N1 87.18(13) . 2_556 ?
O1 Cu1 N1 87.18(13) 2_556 . ?
O1 Cu1 N1 93.07(13) . . ?
N1 Cu1 N1 169.5(2) 2_556 . ?
O1 Cu1 O3 88.62(13) 2_556 . ?
O1 Cu1 O3 88.62(13) . . ?
N1 Cu1 O3 95.23(11) 2_556 . ?
N1 Cu1 O3 95.23(11) . . ?
C1 O1 Cu1 111.6(4) . . ?
O6W O2 C1 160(4) 7_556 . ?
O2 O6W O4W 148(6) 7_556 7_556 ?
O6WC O6WB O6WC 180(3) 7_656 . ?
O6WC O6WB O6WA 118.8(13) 7_656 . ?
O6WC O6WB O6WA 61.2(13) . . ?
O6WC O6WB O6WA 61.2(13) 7_656 7_656 ?
O6WC O6WB O6WA 118.8(13) . 7_656 ?
O6WA O6WB O6WA 179.998(7) . 7_656 ?
C8 N1 C4 117.8(4) . . ?
C8 N1 Cu1 121.2(3) . . ?
C4 N1 Cu1 120.8(3) . . ?
C10 N2 C9 111.4(4) . . ?
C10 N2 C11 108.6(3) . 7_556 ?
C9 N2 C11 109.7(3) . 7_556 ?
O2 C1 O1 123.5(5) . . ?
O2 C1 C2 117.2(7) . . ?
O1 C1 C2 119.3(7) . . ?
C3 C2 C1 117.1(6) . . ?
C2 C3 C3 120.7(6) . 2_456 ?
N1 C4 C5 122.9(4) . . ?
C4 C5 C6 118.9(4) . . ?
C5 C6 C7 119.6(4) . . ?
C8 C7 C6 117.3(4) . . ?
C8 C7 C9 121.5(4) . . ?
C6 C7 C9 121.2(4) . . ?
N1 C8 C7 123.5(4) . . ?
N2 C9 C7 112.5(3) . . ?
N2 C10 C11 110.9(4) . . ?
N2 C11 C10 110.0(4) 7_556 . ?
O6WC O6WA O6WB 43.3(16) . . ?
O6WB O6WC O6WA 76(2) . . ?

loop_
_geom_hbond_atom_site_label_D
_geom_hbond_atom_site_label_H
_geom_hbond_atom_site_label_A
_geom_hbond_distance_DH
_geom_hbond_distance_HA
_geom_hbond_distance_DA
_geom_hbond_angle_DHA
_geom_hbond_site_symmetry_A
O1W H1WA N2 0.903(19) 1.94(2) 2.807(5) 159(4) .
O1W H1WB O6WC 0.88 1.85 2.671(19) 154.9 7_656
O3 H3 O1 0.887(14) 2.36(2) 3.199(7) 159(4) .

_diffrn_measured_fraction_theta_max 0.997
_diffrn_reflns_theta_full        25.00
_diffrn_measured_fraction_theta_full 1.000
_refine_diff_density_max         0.630
_refine_diff_density_min         -0.555
_refine_diff_density_rms         0.083
