
#######################################################################
#
#                 Cambridge Crystallographic Data Centre
#                                CCDC
#
#######################################################################
#
# If this CIF has been generated from an entry in the Cambridge
# Structural Database, then it will include bibliographic, chemical,
# crystal, experimental, refinement or atomic coordinate data resulting
# from the CCDC's data processing and validation procedures.
#
#######################################################################

data_CSD_CIF_BZAMID02
_audit_creation_date 1992-04-15
_audit_creation_method CSD-ConQuest-V1
_database_code_CSD BZAMID02
_database_code_depnum_ccdc_archive 'CCDC 1118067'
_chemical_formula_sum 'C7 H7 N1 O1'
_chemical_formula_moiety
;
C7 H7 N1 O1
;
_journal_coeditor_code "IUCr CD0025"
_journal_coden_Cambridge 622
_journal_volume 47
_journal_year 1991
_journal_page_first 742
_journal_name_full 'Acta Crystallogr.,Sect.B:Struct.Sci. '
loop_
_publ_author_name
"Qi Gao"
"G.A.Jeffrey"
"J.R.Ruble"
"R.K.McMullan"
_chemical_name_systematic
;
Benzamide
;
_chemical_name_common
;
Teaching Subset: Fundamental Chemistry
;
_cell_volume    593.776
_exptl_crystal_density_diffrn 1.355
_exptl_special_details
;
monoclinic polymorph

;
_diffrn_ambient_temperature 15
_diffrn_radiation_probe 'neutron radiation'
#These two values have been output from a single CSD field.
_refine_ls_R_factor_gt 0.044
_refine_ls_wR_factor_gt 0.044
_symmetry_cell_setting monoclinic
_symmetry_space_group_name_H-M 'P 21/c'
_symmetry_Int_Tables_number 14
loop_
_symmetry_equiv_pos_site_id
_symmetry_equiv_pos_as_xyz
1 x,y,z
2 -x,1/2+y,1/2-z
3 -x,-y,-z
4 x,-1/2-y,-1/2+z
_cell_length_a 5.529(1)
_cell_length_b 5.033(1)
_cell_length_c 21.343(3)
_cell_angle_alpha 90
_cell_angle_beta 88.73(1)
_cell_angle_gamma 90
_cell_formula_units_Z 4
loop_
_atom_type_symbol
_atom_type_radius_bond
C 0.68
H 0.23
N 0.68
O 0.68
loop_
_atom_site_label
_atom_site_type_symbol
_atom_site_fract_x
_atom_site_fract_y
_atom_site_fract_z
N1 N 0.22364(9) 0.23934(10) 0.02772(2)
O1 O 0.19525(4) -0.19610(4) 0.05351(4)
C1 C 0.47559(11) 0.06609(13) 0.10983(3)
C2 C 0.64802(11) 0.26920(13) 0.10515(3)
C3 C 0.82538(11) 0.29300(13) 0.15027(3)
C4 C 0.82915(12) 0.11604(13) 0.20061(3)
C5 C 0.65490(12) -0.08397(13) 0.20597(3)
C6 C 0.47998(12) -0.11044(12) 0.16046(3)
C7 C 0.28666(11) 0.02697(12) 0.06144(3)
H1 H 0.64797(31) 0.40619(35) 0.06580(8)
H2 H 0.96052(29) 0.45037(34) 0.14579(8)
H3 H 0.9672(3) 0.13445(38) 0.23605(8)
H4 H 0.65401(31) -0.21902(36) 0.24557(8)
H5 H 0.34517(29) -0.26746(34) 0.16351(8)
H6 H 0.08507(29) 0.21824(33) -0.00309(7)
H7 H 0.26663(31) 0.42643(31) 0.04172(80)
#END
