
#######################################################################
#
#                 Cambridge Crystallographic Data Centre
#                                CCDC
#
#######################################################################
#
# If this CIF has been generated from an entry in the Cambridge
# Structural Database, then it will include bibliographic, chemical,
# crystal, experimental, refinement or atomic coordinate data resulting
# from the CCDC's data processing and validation procedures.
#
#######################################################################

data_CSD_CIF_CACWOS
_audit_creation_date 1984-04-14
_audit_creation_method CSD-ConQuest-V1
_database_code_CSD CACWOS
_database_code_depnum_ccdc_archive 'CCDC 1118829'
_chemical_formula_sum 'C14 H23 O3 P2 Re1'
_chemical_formula_moiety
;
C14 H23 O3 P2 Re1
;
_journal_coden_Cambridge 579
_journal_volume 2
_journal_year 1983
_journal_page_first 535
_journal_name_full 'Organometallics '
loop_
_publ_author_name
"C.P.Casey"
"J.M.O'Connor"
"W.D.Jones"
"K.J.Haller"
_chemical_name_systematic
;
Tricarbonyl-(\s^1^-cyclopentadienyl)-bis(trimethylphosphine)-rhenium
;
_chemical_name_common
;
Teaching Subset: Fundamental Chemistry
;
_cell_volume   1837.895
_exptl_crystal_colour 'light yellow'
_exptl_crystal_density_diffrn 1.62
_exptl_special_details
;
dx=1.62, we calculate 1.76

;
_diffrn_ambient_temperature ?
_diffrn_special_details
;
The study was carried out at room temperature,in the range 283-303K

;
#These two values have been output from a single CSD field.
_refine_ls_R_factor_gt 0.045
_refine_ls_wR_factor_gt 0.045
_symmetry_cell_setting monoclinic
_symmetry_space_group_name_H-M 'P 21/n'
_symmetry_Int_Tables_number 14
loop_
_symmetry_equiv_pos_site_id
_symmetry_equiv_pos_as_xyz
1 x,y,z
2 1/2-x,1/2+y,1/2-z
3 -x,-y,-z
4 -1/2+x,-1/2-y,-1/2+z
_cell_length_a 8.011(5)
_cell_length_b 14.042(3)
_cell_length_c 16.349(3)
_cell_angle_alpha 90
_cell_angle_beta 92.08(2)
_cell_angle_gamma 90
_cell_formula_units_Z 4
loop_
_atom_type_symbol
_atom_type_radius_bond
C 0.68
H 0.23
O 0.68
P 1.05
Re 1.35
loop_
_atom_site_label
_atom_site_type_symbol
_atom_site_fract_x
_atom_site_fract_y
_atom_site_fract_z
H1 H 0.40250 -0.02200 0.15590
H2 H 0.42230 0.04210 0.07960
H3 H 0.26690 -0.02310 0.08580
H4 H 0.44600 0.11510 0.26690
H5 H 0.33930 0.20710 0.27070
H6 H 0.47220 0.19660 0.20460
H7 H 0.17710 -0.00030 0.26600
H8 H 0.03090 0.00220 0.20120
H9 H 0.04700 0.08150 0.26710
H10 H 0.56790 0.24740 -0.03910
H11 H 0.42730 0.17540 -0.06250
H12 H 0.51500 0.17120 0.02360
H13 H 0.37910 0.39080 -0.08710
H14 H 0.20420 0.41400 -0.05470
H15 H 0.22810 0.32590 -0.11030
H16 H 0.54010 0.39630 0.05020
H17 H 0.48970 0.34300 0.12870
H18 H 0.38250 0.42770 0.09570
H19 H 0.19380 0.34410 0.20390
H20 H 0.03960 0.46040 0.11490
H21 H -0.21650 0.48310 0.18790
H22 H -0.24490 0.34690 0.28860
H23 H 0.00680 0.24540 0.28460
Re1 Re 0.07206 0.21987 0.07432
P1 P 0.23490 0.11012 0.16532
P2 P 0.32300 0.29342 0.01914
C1 C 0.07610 0.12990 -0.01320
O1 O 0.08180 0.07660 -0.06710
C2 C -0.06490 0.30610 0.00730
O2 O -0.14780 0.35540 -0.03340
C3 C -0.12980 0.16100 0.11520
O3 O -0.24860 0.12730 0.13730
C4 C 0.34550 0.01480 0.11580
C5 C 0.39200 0.16300 0.23520
C6 C 0.10840 0.04030 0.23350
C7 C 0.47730 0.21200 -0.01940
C8 C 0.27770 0.36520 -0.06790
C9 C 0.44760 0.37520 0.08000
C10 C 0.08360 0.33020 0.18330
C11 C 0.00060 0.41890 0.15560
C12 C -0.13950 0.43170 0.19570
C13 C -0.15400 0.35580 0.25330
C14 C -0.01740 0.29830 0.24970
#END
