
#######################################################################
#
#                 Cambridge Crystallographic Data Centre
#                                CCDC
#
#######################################################################
#
# If this CIF has been generated from an entry in the Cambridge
# Structural Database, then it will include bibliographic, chemical,
# crystal, experimental, refinement or atomic coordinate data resulting
# from the CCDC's data processing and validation procedures.
#
#######################################################################

data_CSD_CIF_CADNOK
_audit_creation_date 1984-04-14
_audit_creation_method CSD-ConQuest-V1
_database_code_CSD CADNOK
_database_code_depnum_ccdc_archive 'CCDC 1118917'
_chemical_formula_sum 'C6 H20 Cl6 N2 Sn1'
_chemical_formula_moiety
;
2(C3 H10 N1 1+),Cl6 Sn1 2-
;
_journal_coden_Cambridge 15
_journal_volume 61
_journal_year 1983
_journal_page_first 1620
_journal_name_full 'Can.J.Chem. '
loop_
_publ_author_name
"O.Knop"
"T.S.Cameron"
"M.A.James"
"M.Falk"
_chemical_name_systematic
;
bis(Trimethylammonium) hexachloro-tin(iv)
;
_chemical_name_common
;
Teaching Subset: Fundamental Chemistry, Symmetry
;
_cell_volume   1820.317
_exptl_crystal_density_diffrn 1.648
_diffrn_ambient_temperature ?
_diffrn_special_details
;
The study was carried out at room temperature,in the range 283-303K

;
#These two values have been output from a single CSD field.
_refine_ls_R_factor_gt 0.022
_refine_ls_wR_factor_gt 0.022
_symmetry_cell_setting cubic
_symmetry_space_group_name_H-M 'P a 3'
_symmetry_Int_Tables_number 205
loop_
_symmetry_equiv_pos_site_id
_symmetry_equiv_pos_as_xyz
1 x,y,z
2 z,x,y
3 y,z,x
4 -x,1/2+y,1/2-z
5 -z,1/2+x,1/2-y
6 -y,1/2+z,1/2-x
7 1/2-x,-y,1/2+z
8 1/2-z,-x,1/2+y
9 1/2-y,-z,1/2+x
10 1/2+x,1/2-y,-z
11 1/2+z,1/2-x,-y
12 1/2+y,1/2-z,-x
13 -x,-y,-z
14 -z,-x,-y
15 -y,-z,-x
16 x,-1/2-y,-1/2+z
17 z,-1/2-x,-1/2+y
18 y,-1/2-z,-1/2+x
19 -1/2+x,y,-1/2-z
20 -1/2+z,x,-1/2-y
21 -1/2+y,z,-1/2-x
22 -1/2-x,-1/2+y,z
23 -1/2-z,-1/2+x,y
24 -1/2-y,-1/2+z,x
_cell_length_a 12.210(3)
_cell_length_b 12.210(3)
_cell_length_c 12.210(3)
_cell_angle_alpha 90
_cell_angle_beta 90
_cell_angle_gamma 90
_cell_formula_units_Z 4
loop_
_atom_type_symbol
_atom_type_radius_bond
C 0.68
H 0.23
Cl 0.99
N 0.68
Sn 1.46
loop_
_atom_site_label
_atom_site_type_symbol
_atom_site_fract_x
_atom_site_fract_y
_atom_site_fract_z
Sn1 Sn 0.00000 0.00000 0.00000
Cl1 Cl -0.02640 0.19430 0.03320
N1 N 0.20340 0.20340 0.20340
H1 H 0.15520 0.15520 0.15520
C1 C 0.31210 0.15050 0.20980
H2 H 0.36230 0.20350 0.25970
H3 H 0.35330 0.13440 0.13320
H4 H 0.29840 0.07420 0.25240
Cl1L Cl 0.02640 -0.19430 -0.03320
Cl1A Cl 0.03320 -0.02640 0.19430
Cl1M Cl -0.03320 0.02640 -0.19430
Cl1B Cl 0.19430 0.03320 -0.02640
Cl1N Cl -0.19430 -0.03320 0.02640
C1A C 0.20980 0.31210 0.15050
C1B C 0.15050 0.20980 0.31210
H2A H 0.25970 0.36230 0.20350
H3A H 0.13320 0.35330 0.13440
H4A H 0.25240 0.29840 0.07420
H2B H 0.20350 0.25970 0.36230
H3B H 0.13440 0.13320 0.35330
H4B H 0.07420 0.25240 0.29840
#END
