
#######################################################################
#
#                 Cambridge Crystallographic Data Centre
#                                CCDC
#
#######################################################################
#
# If this CIF has been generated from an entry in the Cambridge
# Structural Database, then it will include bibliographic, chemical,
# crystal, experimental, refinement or atomic coordinate data resulting
# from the CCDC's data processing and validation procedures.
#
#######################################################################

data_CSD_CIF_CADVEI
_audit_creation_date 1984-04-14
_audit_creation_method CSD-ConQuest-V1
_database_code_CSD CADVEI
_database_code_depnum_ccdc_archive 'CCDC 1118948'
_chemical_formula_sum 'C6 H6 N2'
_chemical_formula_moiety
;
C6 H6 N2
;
_journal_coeditor_code "IUCr A22682"
_journal_coden_Cambridge 591
_journal_volume 39
_journal_year 1983
_journal_page_first 1253
_journal_name_full 'Acta Crystallogr.,Sect.C:Cryst.Struct.Commun. '
loop_
_publ_author_name
"W.B.Gleason"
"D.Britton"
_chemical_name_systematic
;
(E)-3-Hexenedinitrile
;
_chemical_name_common
;
Teaching Subset: Fundamental Chemistry, Symmetry
;
_cell_volume    297.447
_exptl_crystal_density_diffrn 1.185
_diffrn_ambient_temperature ?
_diffrn_special_details
;
The study was carried out at room temperature,in the range 283-303K

;
#These two values have been output from a single CSD field.
_refine_ls_R_factor_gt 0.021
_refine_ls_wR_factor_gt 0.021
_symmetry_cell_setting monoclinic
_symmetry_space_group_name_H-M 'P 21/c'
_symmetry_Int_Tables_number 14
loop_
_symmetry_equiv_pos_site_id
_symmetry_equiv_pos_as_xyz
1 x,y,z
2 -x,1/2+y,1/2-z
3 -x,-y,-z
4 x,-1/2-y,-1/2+z
_cell_length_a 4.033(2)
_cell_length_b 14.201(8)
_cell_length_c 5.331(6)
_cell_angle_alpha 90
_cell_angle_beta 103.04(6)
_cell_angle_gamma 90
_cell_formula_units_Z 2
loop_
_atom_type_symbol
_atom_type_radius_bond
C 0.68
H 0.23
N 0.68
loop_
_atom_site_label
_atom_site_type_symbol
_atom_site_fract_x
_atom_site_fract_y
_atom_site_fract_z
N1 N -0.03170 0.15780 0.10580
C1 C 0.13980 0.14510 0.30430
C2 C 0.36240 0.12930 0.55700
C3 C 0.51680 0.03240 0.58860
H1 H 0.54040 0.17760 0.58450
H2 H 0.21780 0.13860 0.68650
H3 H 0.64460 0.02280 0.74750
C3B C 0.48320 -0.03240 0.41140
C2B C 0.63760 -0.12930 0.44300
H3B H 0.35540 -0.02280 0.25250
C1B C 0.86020 -0.14510 0.69570
H1B H 0.45960 -0.17760 0.41550
H2B H 0.78220 -0.13860 0.31350
N1B N 1.03170 -0.15780 0.89420
#END
