####################################################################### 
# 
# This file contains crystal structure data downloaded from the 
# Cambridge Structural Database (CSD) hosted by the Cambridge 
# Crystallographic Data Centre (CCDC).
# 
# Full information about CCDC data access policies and citation 
# guidelines are available at http://www.ccdc.cam.ac.uk/access/V1 
# 
# Audit and citation data items may have been added by the CCDC. 
# Please retain this information to preserve the provenance of 
# this file and to allow appropriate attribution of the data. 
# 
#######################################################################

data_gx229
_audit_block_doi                 10.5517/ccws2pd
_database_code_depnum_ccdc_archive 'CCDC 827504'
loop_
_citation_id
_citation_doi
_citation_year
1 10.1002/zaac.201100263 2011
_audit_update_record             
;
2011-05-27 deposited with the CCDC.	2024-07-09 downloaded from the CCDC.
;
_audit_block_code                ?
_audit_creation_method           SHELXL-97
_audit_creation_date             
;
'Mon Apr 11 21:44:39 2011'
;

_chemical_name_systematic        'Strontium 5,5-bistetrazolate'
_chemical_compound_source        ?
_chemical_name_common            'Strontium 5,5-bistetrazolate'
_chemical_formula_moiety         'C2 H8 N8 O4 Sr, 2(C3 H7 N O) '
_chemical_formula_sum            ' C8 H22 N10 O6 Sr '
_chemical_formula_weight         441.98

_diffrn_ambient_temperature      173 # in K
_diffrn_source_type              'Spellman generator'
_diffrn_source_power             ? # in kW
_diffrn_source_voltage           50 # kV
_diffrn_source_current           40 # mA
_diffrn_radiation_wavelength     0.71073
_diffrn_radiation_source         'fine-focus sealed tube'
_diffrn_radiation_monochromator  graphite
_diffrn_radiation_collimation    0.5
_diffrn_measurement_device       'CCD camera on \k-goniostat'
_diffrn_measurement_device_type  KappaCCD
_diffrn_measurement_method       omega-scan
_diffrn_radiation_type           'Mo K\a'
_diffrn_detector_area_resol_mean 15.9809

_diffrn_reflns_number            7853
_diffrn_reflns_av_R_equivalents  0.0227
_diffrn_reflns_av_sigmaI/netI    0.0228
_diffrn_reflns_limit_h_min       -17
_diffrn_reflns_limit_h_max       26
_diffrn_reflns_limit_k_min       -6
_diffrn_reflns_limit_k_max       6
_diffrn_reflns_limit_l_min       -16
_diffrn_reflns_limit_l_max       16
_diffrn_reflns_theta_min         4.19
_diffrn_reflns_theta_max         25.00
_diffrn_measured_fraction_theta_max 0.994
_diffrn_reflns_theta_full        25.00
_diffrn_measured_fraction_theta_full 0.994

_reflns_number_total             1598
_reflns_number_gt                1245
_reflns_threshold_expression     >2sigma(I)

_diffrn_orient_matrix_UB_11      -0.1107863161
_diffrn_orient_matrix_UB_12      0.0164956828
_diffrn_orient_matrix_UB_13      -0.0077265403
_diffrn_orient_matrix_UB_21      0.0346084665
_diffrn_orient_matrix_UB_22      0.0045489789
_diffrn_orient_matrix_UB_23      -0.0303014672
_diffrn_orient_matrix_UB_31      -0.0349007573
_diffrn_orient_matrix_UB_32      -0.0478769036
_diffrn_orient_matrix_UB_33      -0.0055698498

_symmetry_cell_setting           orthorhombic
_symmetry_space_group_name_H-M   'P c c a '
_symmetry_Int_Tables_number      54
_symmetry_space_group_name_Hall  '-P 2a 2ac '

loop_
_atom_type_symbol
_atom_type_description
_atom_type_scat_dispersion_real
_atom_type_scat_dispersion_imag
_atom_type_scat_source
C C 0.0033 0.0016 'International Tables Vol C Tables 4.2.6.8 and 6.1.1.4'
N N 0.0061 0.0033 'International Tables Vol C Tables 4.2.6.8 and 6.1.1.4'
O O 0.0106 0.0060 'International Tables Vol C Tables 4.2.6.8 and 6.1.1.4'
Sr Sr -1.5307 3.2498 'International Tables Vol C Tables 4.2.6.8 and 6.1.1.4'
H H 0.0000 0.0000 'International Tables Vol C Tables 4.2.6.8 and 6.1.1.4'


loop_
_symmetry_equiv_pos_as_xyz
'x, y, z'
'-x+1/2, -y, z'
'x+1/2, -y, -z+1/2'
'-x, y, -z+1/2'
'-x, -y, -z'
'x-1/2, y, -z'
'-x-1/2, y, z-1/2'
'x, -y, z-1/2'

_cell_length_a                   22.378(5)
_cell_length_b                   5.8533(9)
_cell_length_c                   13.940(3)
_cell_angle_alpha                90.00
_cell_angle_beta                 90.00
_cell_angle_gamma                90.00
_cell_volume                     1825.9(6)
_cell_formula_units_Z            4
_cell_measurement_temperature    173(2)
_cell_measurement_reflns_used    3403
_cell_measurement_theta_min      4.1799
_cell_measurement_theta_max      33.5415
_cell_special_details            ?

_exptl_crystal_description       plate
_exptl_crystal_colour            colorless
_exptl_crystal_size_max          0.23
_exptl_crystal_size_mid          0.22
_exptl_crystal_size_min          0.10
_exptl_crystal_density_meas      ?
_exptl_crystal_density_diffrn    1.608
_exptl_crystal_density_method    'not measured'
_exptl_crystal_F_000             904
_exptl_absorpt_coefficient_mu    3.000
_exptl_absorpt_correction_type   multi-scan
_exptl_absorpt_correction_T_min  0.91411
_exptl_absorpt_correction_T_max  0.99999
_exptl_absorpt_process_details   
;SCALE3 ABSPACK - An Oxford Diffraction program (1.0.4,gui:1.0.3)
(C) 2005 Oxford Diffraction Ltd.
;
_exptl_special_details           ?

loop_
_exptl_crystal_face_index_h
_exptl_crystal_face_index_k
_exptl_crystal_face_index_l
_exptl_crystal_face_perp_dist
? ? ? ?

_diffrn_special_details          ?
_refine_ls_weighting_details     
'calc w=1/[\s^2^(Fo^2^)+(0.1000P)^2^+0.0000P] where P=(Fo^2^+2Fc^2^)/3'


_refine_diff_density_max         0.350
_refine_diff_density_min         -0.463
_refine_diff_density_rms         0.084

_computing_data_collection       
;
CrysAlis CCD, Oxford Diffraction Ltd.,
Version 1.171.27p5 beta (release 01-04-2005 CrysAlis171 .NET)
(compiled Apr 1 2005,17:53:34)
;
_computing_cell_refinement       
;
CrysAlis RED, Oxford Diffraction Ltd.,
Version 1.171.27p5 beta (release 01-04-2005 CrysAlis171 .NET)
(compiled Apr 1 2005,17:53:34)
;
_computing_data_reduction        
;
CrysAlis RED, Oxford Diffraction Ltd.,
Version 1.171.27p5 beta (release 01-04-2005 CrysAlis171 .NET)
(compiled Apr 1 2005,17:53:34)
;
_computing_structure_solution    SIR-92
_computing_structure_refinement  'SHELXL-97 (Sheldrick, 1997)'
_computing_molecular_graphics    
;
'ORTEP (M. N. Burnett, C. K. Johnson, ORTEP-III: Oak Ridge Thermal Ellipsoid
# Plot Program for Crystal Structure Illustrations, Oak Ridge National
# Laboratory Report ORNL-6895, 1996). Windows version (L. J. Farrugia, Univ.
# Glasgow) used --- SCHAKAL (E. Keller, University of Freiburg (Breisgau),
# Germany, 1995)'
;

_computing_publication_material  
;PLATON (A. L. Spek, Acta Crystallogr, Sect. A, 1990, 46, C34, 1995 version).
# --- T.B.Cohen, Pure Appl. Chem. 1996,68,2339-2359 (atomic masses).
;

_refine_special_details          
;
Refinement of F^2^ against ALL reflections. The weighted R-factor wR and
goodness of fit S are based on F^2^, conventional R-factors R are based
on F, with F set to zero for negative F^2^. The threshold expression of
F^2^ > 2sigma(F^2^) is used only for calculating R-factors(gt) etc. and is
not relevant to the choice of reflections for refinement. R-factors based
on F^2^ are statistically about twice as large as those based on F, and R-
factors based on ALL data will be even larger.
;

_refine_ls_structure_factor_coef Fsqd
_refine_ls_matrix_type           full
_refine_ls_weighting_scheme      calc
_atom_sites_solution_primary     direct
_atom_sites_solution_secondary   difmap
_atom_sites_solution_hydrogens   geom
_refine_ls_hydrogen_treatment    refall
_refine_ls_extinction_method     none
_refine_ls_extinction_coef       ?
_refine_ls_abs_structure_details ?
_refine_ls_abs_structure_Flack   ?
_refine_ls_number_reflns         1598
_refine_ls_number_parameters     134
_refine_ls_number_restraints     0
_refine_ls_R_factor_all          0.0313
_refine_ls_R_factor_gt           0.0230
_refine_ls_wR_factor_ref         0.0662
_refine_ls_wR_factor_gt          0.0650
_refine_ls_goodness_of_fit_ref   1.059
_refine_ls_restrained_S_all      1.059
_refine_ls_shift/su_max          0.000
_refine_ls_shift/su_mean         0.000

loop_
_atom_site_label
_atom_site_type_symbol
_atom_site_fract_x
_atom_site_fract_y
_atom_site_fract_z
_atom_site_U_iso_or_equiv
_atom_site_adp_type
_atom_site_occupancy
_atom_site_symmetry_multiplicity
_atom_site_calc_flag
_atom_site_refinement_flags
_atom_site_disorder_assembly
_atom_site_disorder_group
N1 N 0.21300(10) 0.2947(3) 0.33477(13) 0.0180(5) Uani 1 1 d . . .
N2 N 0.18217(9) 0.1115(4) 0.36638(16) 0.0203(5) Uani 1 1 d . . .
N3 N 0.18229(9) 0.1082(4) 0.46054(15) 0.0208(5) Uani 1 1 d . . .
N4 N 0.21350(9) 0.2896(3) 0.49367(13) 0.0189(5) Uani 1 1 d . . .
C1 C 0.23142(10) 0.3970(5) 0.41477(16) 0.0147(5) Uani 1 1 d . . .
O3 O -0.05025(9) 0.3581(4) 0.38424(19) 0.0508(6) Uani 1 1 d . . .
N5 N 0.01873(10) 0.6397(4) 0.3748(2) 0.0350(6) Uani 1 1 d . . .
C2 C -0.03627(14) 0.5626(6) 0.3832(3) 0.0416(8) Uani 1 1 d . . .
C3 C 0.03252(16) 0.8835(6) 0.3757(3) 0.0600(10) Uani 1 1 d . . .
H3A H 0.0757 0.9050 0.3689 0.090 Uiso 1 1 calc R . .
H3B H 0.0191 0.9505 0.4364 0.090 Uiso 1 1 calc R . .
H3C H 0.0119 0.9587 0.3223 0.090 Uiso 1 1 calc R . .
C4 C 0.06924(14) 0.4865(5) 0.3674(3) 0.0517(9) Uani 1 1 d . . .
H4A H 0.1061 0.5758 0.3622 0.078 Uiso 1 1 calc R . .
H4B H 0.0647 0.3905 0.3103 0.078 Uiso 1 1 calc R . .
H4C H 0.0711 0.3895 0.4246 0.078 Uiso 1 1 calc R . .
O1 O 0.17164(8) 0.8039(3) 0.20909(16) 0.0264(5) Uani 1 1 d . . .
O2 O 0.16545(9) 0.2304(3) 0.10500(13) 0.0250(4) Uani 1 1 d . . .
Sr01 Sr 0.2500 0.5000 0.16317(2) 0.01427(12) Uani 1 2 d S . .
H2B H 0.1709(14) 0.157(6) 0.053(3) 0.051(11) Uiso 1 1 d . . .
H1A H 0.1767(13) 0.876(6) 0.262(2) 0.043(9) Uiso 1 1 d . . .
H2A H 0.123(2) 0.272(7) 0.106(3) 0.093(14) Uiso 1 1 d . . .
H2 H -0.0683(15) 0.690(6) 0.385(2) 0.058(10) Uiso 1 1 d . . .
H1B H 0.169(2) 0.916(9) 0.171(3) 0.089(16) Uiso 1 1 d . . .

loop_
_atom_site_aniso_label
_atom_site_aniso_U_11
_atom_site_aniso_U_22
_atom_site_aniso_U_33
_atom_site_aniso_U_23
_atom_site_aniso_U_13
_atom_site_aniso_U_12
N1 0.0226(12) 0.0162(11) 0.0154(11) -0.0002(8) -0.0008(9) -0.0031(9)
N2 0.0252(12) 0.0178(11) 0.0177(11) -0.0017(10) -0.0016(10) -0.0023(10)
N3 0.0250(11) 0.0181(11) 0.0193(12) 0.0007(9) -0.0015(10) -0.0043(10)
N4 0.0244(11) 0.0176(11) 0.0147(11) 0.0013(9) -0.0007(9) -0.0043(9)
C1 0.0183(11) 0.0140(12) 0.0118(11) -0.0002(10) 0.0005(10) 0.0009(10)
O3 0.0295(12) 0.0425(15) 0.0803(18) 0.0131(13) 0.0026(12) -0.0083(11)
N5 0.0276(14) 0.0268(15) 0.0507(16) 0.0033(12) 0.0020(12) -0.0012(11)
C2 0.0288(17) 0.042(2) 0.054(2) 0.0097(16) -0.0006(16) 0.0057(15)
C3 0.056(2) 0.0289(19) 0.096(3) 0.002(2) 0.004(2) -0.0049(17)
C4 0.0301(17) 0.045(2) 0.080(2) 0.0019(19) 0.0043(18) 0.0025(16)
O1 0.0370(11) 0.0224(11) 0.0199(11) -0.0046(9) -0.0023(9) 0.0026(9)
O2 0.0254(11) 0.0260(11) 0.0237(11) -0.0073(9) 0.0005(9) 0.0009(8)
Sr01 0.01897(18) 0.01464(18) 0.00921(17) 0.000 0.000 -0.00022(16)

loop_
_geom_bond_atom_site_label_1
_geom_bond_atom_site_label_2
_geom_bond_distance
_geom_bond_site_symmetry_2
_geom_bond_publ_flag
N1 C1 1.331(3) . ?
N1 N2 1.349(3) . ?
N1 Sr01 2.8021(19) . ?
N2 N3 1.313(3) . ?
N3 N4 1.352(3) . ?
N4 C1 1.329(3) . ?
N4 Sr01 2.7869(19) 7_656 ?
C1 C1 1.465(5) 2_565 ?
O3 C2 1.237(4) . ?
N5 C2 1.316(4) . ?
N5 C4 1.446(4) . ?
N5 C3 1.460(4) . ?
C2 H2 1.04(3) . ?
C3 H3A 0.9800 . ?
C3 H3B 0.9800 . ?
C3 H3C 0.9800 . ?
C4 H4A 0.9800 . ?
C4 H4B 0.9800 . ?
C4 H4C 0.9800 . ?
O1 Sr01 2.5784(19) . ?
O1 H1A 0.86(4) . ?
O1 H1B 0.85(5) . ?
O2 Sr01 2.5938(18) . ?
O2 H2B 0.86(3) . ?
O2 H2A 0.98(4) . ?
Sr01 O1 2.5784(19) 2_565 ?
Sr01 O2 2.5938(18) 2_565 ?
Sr01 N4 2.7869(19) 8_565 ?
Sr01 N4 2.7869(19) 7_655 ?
Sr01 N1 2.8021(19) 2_565 ?

loop_
_geom_angle_atom_site_label_1
_geom_angle_atom_site_label_2
_geom_angle_atom_site_label_3
_geom_angle
_geom_angle_site_symmetry_1
_geom_angle_site_symmetry_3
_geom_angle_publ_flag
C1 N1 N2 104.02(18) . . ?
C1 N1 Sr01 115.50(15) . . ?
N2 N1 Sr01 140.44(14) . . ?
N3 N2 N1 109.72(19) . . ?
N2 N3 N4 109.34(19) . . ?
C1 N4 N3 104.16(18) . . ?
C1 N4 Sr01 113.85(15) . 7_656 ?
N3 N4 Sr01 142.00(14) . 7_656 ?
N4 C1 N1 112.8(2) . . ?
N4 C1 C1 124.11(13) . 2_565 ?
N1 C1 C1 123.11(14) . 2_565 ?
C2 N5 C4 121.6(3) . . ?
C2 N5 C3 122.1(3) . . ?
C4 N5 C3 116.2(3) . . ?
O3 C2 N5 124.7(3) . . ?
O3 C2 H2 121.5(19) . . ?
N5 C2 H2 113.7(18) . . ?
N5 C3 H3A 109.5 . . ?
N5 C3 H3B 109.5 . . ?
H3A C3 H3B 109.5 . . ?
N5 C3 H3C 109.5 . . ?
H3A C3 H3C 109.5 . . ?
H3B C3 H3C 109.5 . . ?
N5 C4 H4A 109.5 . . ?
N5 C4 H4B 109.5 . . ?
H4A C4 H4B 109.5 . . ?
N5 C4 H4C 109.5 . . ?
H4A C4 H4C 109.5 . . ?
H4B C4 H4C 109.5 . . ?
Sr01 O1 H1A 118(2) . . ?
Sr01 O1 H1B 115(3) . . ?
H1A O1 H1B 100(3) . . ?
Sr01 O2 H2B 118(2) . . ?
Sr01 O2 H2A 123(2) . . ?
H2B O2 H2A 106(3) . . ?
O1 Sr01 O1 151.26(10) . 2_565 ?
O1 Sr01 O2 90.08(6) . . ?
O1 Sr01 O2 98.85(6) 2_565 . ?
O1 Sr01 O2 98.85(6) . 2_565 ?
O1 Sr01 O2 90.08(6) 2_565 2_565 ?
O2 Sr01 O2 143.56(8) . 2_565 ?
O1 Sr01 N4 72.92(6) . 8_565 ?
O1 Sr01 N4 135.61(6) 2_565 8_565 ?
O2 Sr01 N4 77.88(6) . 8_565 ?
O2 Sr01 N4 71.33(6) 2_565 8_565 ?
O1 Sr01 N4 135.61(6) . 7_655 ?
O1 Sr01 N4 72.92(6) 2_565 7_655 ?
O2 Sr01 N4 71.33(6) . 7_655 ?
O2 Sr01 N4 77.88(6) 2_565 7_655 ?
N4 Sr01 N4 64.04(8) 8_565 7_655 ?
O1 Sr01 N1 72.13(7) . 2_565 ?
O1 Sr01 N1 83.29(7) 2_565 2_565 ?
O2 Sr01 N1 138.02(6) . 2_565 ?
O2 Sr01 N1 77.90(6) 2_565 2_565 ?
N4 Sr01 N1 128.38(6) 8_565 2_565 ?
N4 Sr01 N1 145.76(6) 7_655 2_565 ?
O1 Sr01 N1 83.29(7) . . ?
O1 Sr01 N1 72.13(7) 2_565 . ?
O2 Sr01 N1 77.90(6) . . ?
O2 Sr01 N1 138.02(6) 2_565 . ?
N4 Sr01 N1 145.76(6) 8_565 . ?
N4 Sr01 N1 128.38(6) 7_655 . ?
N1 Sr01 N1 62.78(8) 2_565 . ?

loop_
_geom_torsion_atom_site_label_1
_geom_torsion_atom_site_label_2
_geom_torsion_atom_site_label_3
_geom_torsion_atom_site_label_4
_geom_torsion
_geom_torsion_site_symmetry_1
_geom_torsion_site_symmetry_2
_geom_torsion_site_symmetry_3
_geom_torsion_site_symmetry_4
_geom_torsion_publ_flag
C1 N1 N2 N3 0.4(3) . . . . ?
Sr01 N1 N2 N3 177.94(17) . . . . ?
N1 N2 N3 N4 -0.2(3) . . . . ?
N2 N3 N4 C1 -0.1(3) . . . . ?
N2 N3 N4 Sr01 179.59(17) . . . 7_656 ?
N3 N4 C1 N1 0.4(3) . . . . ?
Sr01 N4 C1 N1 -179.41(16) 7_656 . . . ?
N3 N4 C1 C1 -178.3(3) . . . 2_565 ?
Sr01 N4 C1 C1 1.9(4) 7_656 . . 2_565 ?
N2 N1 C1 N4 -0.5(3) . . . . ?
Sr01 N1 C1 N4 -178.77(15) . . . . ?
N2 N1 C1 C1 178.2(3) . . . 2_565 ?
Sr01 N1 C1 C1 -0.1(4) . . . 2_565 ?
C4 N5 C2 O3 -1.0(6) . . . . ?
C3 N5 C2 O3 -179.0(4) . . . . ?
C1 N1 Sr01 O1 -73.31(18) . . . . ?
N2 N1 Sr01 O1 109.3(2) . . . . ?
C1 N1 Sr01 O1 91.61(18) . . . 2_565 ?
N2 N1 Sr01 O1 -85.7(2) . . . 2_565 ?
C1 N1 Sr01 O2 -164.83(18) . . . . ?
N2 N1 Sr01 O2 17.8(2) . . . . ?
C1 N1 Sr01 O2 22.5(2) . . . 2_565 ?
N2 N1 Sr01 O2 -154.9(2) . . . 2_565 ?
C1 N1 Sr01 N4 -119.00(17) . . . 8_565 ?
N2 N1 Sr01 N4 63.6(3) . . . 8_565 ?
C1 N1 Sr01 N4 141.14(16) . . . 7_655 ?
N2 N1 Sr01 N4 -36.2(3) . . . 7_655 ?
C1 N1 Sr01 N1 0.02(13) . . . 2_565 ?
N2 N1 Sr01 N1 -177.3(3) . . . 2_565 ?

loop_
_geom_contact_atom_site_label_1
_geom_contact_atom_site_label_2
_geom_contact_distance
_geom_contact_site_symmetry_1
_geom_contact_site_symmetry_2
_geom_contact_publ_flag
? ? ? ? ? ?

loop_
_geom_hbond_atom_site_label_D
_geom_hbond_atom_site_label_H
_geom_hbond_atom_site_label_A
_geom_hbond_distance_DH
_geom_hbond_distance_HA
_geom_hbond_distance_DA
_geom_hbond_angle_DHA
_geom_hbond_site_symmetry_A
O2 H2B N3 0.86(3) 2.03(3) 2.851(3) 160(3) 8
O1 H1A N2 0.86(4) 2.01(4) 2.847(3) 166(3) 1_565
O2 H2A O3 0.98(4) 1.71(4) 2.688(3) 176(4) 4
O1 H1B O2 0.85(5) 2.06(5) 2.891(3) 167(4) 1_565

_geom_special_details            ?




