
#######################################################################
#
#                 Cambridge Crystallographic Data Centre
#                                CCDC
#
#######################################################################
#
# If this CIF has been generated from an entry in the Cambridge
# Structural Database, then it will include bibliographic, chemical,
# crystal, experimental, refinement or atomic coordinate data resulting
# from the CCDC's data processing and validation procedures.
#
#######################################################################

data_CSD_CIF_CAFROR
_audit_creation_date 2002-03-27
_audit_creation_method CSD-ConQuest-V1
_database_code_CSD CAFROR
_database_code_depnum_ccdc_archive 'CCDC 155234'
_chemical_formula_sum 'C19.75 H45 Li2 N4 P1 Se3'
_chemical_formula_moiety
;
C18 H43 Li2 N4 P1 Se3,0.25(C7 H8)
;
_journal_coden_Cambridge 9
_journal_volume 41
_journal_year 2002
_journal_page_first 348
_journal_name_full 'Inorg.Chem. '
loop_
_publ_author_name
"R.P.Davies"
"M.G.Martinelli"
_chemical_name_systematic
;
(\m~2~-Cyclohexyltriselenophosphonato)-bis(ethylene-1,2-diamino)-di-lithium 
toluene solvate
;
_chemical_name_common
;
Teaching Subset: Fundamental Chemistry
;
_chemical_melting_point 371.15
_cell_volume  23892.644
_exptl_crystal_colour 'colorless'
_exptl_crystal_density_diffrn 1.38
_exptl_special_details
;
Melting point range 371.15-374.15K
air-sensitive

;
_diffrn_ambient_temperature 180
_refine_special_details
;
C20-C24 and C31-C33 are disordered over two sites with occupancies 
0.586:0.414 and 0.800:0.200, respectively. The solvent molecule is disordered 
by symmetry.
;
#These two values have been output from a single CSD field.
_refine_ls_R_factor_gt 0.046
_refine_ls_wR_factor_gt 0.046
_symmetry_cell_setting tetragonal
_symmetry_space_group_name_H-M 'I 41/a'
_symmetry_Int_Tables_number 88
loop_
_symmetry_equiv_pos_site_id
_symmetry_equiv_pos_as_xyz
1 x,y,z
2 3/4-y,1/4+x,1/4+z
3 1/4+y,1/4-x,1/4+z
4 1/2+x,1/2+y,1/2+z
5 1/4-y,3/4+x,3/4+z
6 -x,1/2-y,z
7 1/2-x,-y,1/2+z
8 3/4+y,3/4-x,3/4+z
9 -x,-y,-z
10 -3/4+y,-1/4-x,-1/4-z
11 -1/4-y,-1/4+x,-1/4-z
12 -1/2-x,-1/2-y,-1/2-z
13 -1/4+y,-3/4-x,-3/4-z
14 x,-1/2+y,-z
15 -1/2+x,y,-1/2-z
16 -3/4-y,-3/4+x,-3/4-z
_cell_length_a 37.2074(5)
_cell_length_b 37.2074(5)
_cell_length_c 17.2586(3)
_cell_angle_alpha 90
_cell_angle_beta 90
_cell_angle_gamma 90
_cell_formula_units_Z 32
loop_
_atom_type_symbol
_atom_type_radius_bond
C 0.68
H 0.23
Li 1.07
N 0.68
P 1.05
Se 1.22
loop_
_atom_site_label
_atom_site_type_symbol
_atom_site_fract_x
_atom_site_fract_y
_atom_site_fract_z
P1 P 0.66352(4) 0.33483(4) 0.53416(8)
Li1 Li 0.6607(3) 0.2607(3) 0.4601(6)
Se1 Se 0.652877(15) 0.325664(14) 0.40965(3)
Li2 Li 0.6969(3) 0.3787(3) 0.4024(5)
Se2 Se 0.698501(17) 0.380893(17) 0.55101(3)
N1 N 0.61767(12) 0.22489(11) 0.4383(3)
Se3 Se 0.681479(17) 0.285391(17) 0.58868(3)
N2 N 0.69408(13) 0.22356(13) 0.4059(3)
N3 N 0.74540(12) 0.37099(14) 0.3471(3)
N4 N 0.69062(11) 0.42614(11) 0.3383(2)
C1 C 0.61952(14) 0.34616(18) 0.5764(3)
H1 H 0.61350 0.36860 0.54710
H2 H 0.60420 0.32560 0.56370
C2 C 0.6203(3) 0.3606(3) 0.6609(6)
H3 H 0.63040 0.34180 0.69520
H4 H 0.63650 0.38170 0.66330
C3 C 0.5836(3) 0.3714(3) 0.6910(7)
H5 H 0.57680 0.39470 0.66790
H6 H 0.58500 0.37470 0.74790
C4 C 0.5544(3) 0.3439(3) 0.6730(6)
H7 H 0.53090 0.35310 0.69140
H8 H 0.55960 0.32120 0.70080
C5 C 0.5524(2) 0.3366(3) 0.5860(6)
H9 H 0.54530 0.35880 0.55830
H10 H 0.53390 0.31800 0.57550
C6 C 0.5894(2) 0.3236(2) 0.5561(5)
H11 H 0.59390 0.29920 0.57690
H12 H 0.58830 0.32160 0.49900
C7 C 0.59488(16) 0.21723(16) 0.5060(4)
H13 H 0.57720 0.19880 0.49240
H14 H 0.58240 0.23920 0.52180
H15 H 0.60990 0.20860 0.54880
C8 C 0.59500(17) 0.23861(16) 0.3753(4)
H16 H 0.57700 0.22050 0.36150
H17 H 0.61000 0.24380 0.33000
H18 H 0.58290 0.26070 0.39220
C9 C 0.63639(18) 0.19122(15) 0.4151(4)
H19 H 0.61960 0.17560 0.38580
H20 H 0.64420 0.17800 0.46200
C10 C 0.6685(2) 0.19973(16) 0.3658(4)
H21 H 0.68090 0.17710 0.35170
H22 H 0.66040 0.21140 0.31730
C11 C 0.71531(18) 0.20384(19) 0.4641(4)
H23 H 0.72900 0.18470 0.43850
H24 H 0.69910 0.19320 0.50260
H25 H 0.73190 0.22040 0.48980
C12 C 0.71854(18) 0.24003(18) 0.3502(4)
H26 H 0.73240 0.22120 0.32380
H27 H 0.73500 0.25620 0.37740
H28 H 0.70470 0.25370 0.31190
C13 C 0.7723(2) 0.3551(3) 0.3996(5)
H29 H 0.79630 0.35830 0.37760
H30 H 0.76730 0.32940 0.40590
H31 H 0.77100 0.36700 0.45020
C14 C 0.7440(3) 0.3522(3) 0.2741(5)
H32 H 0.76770 0.35300 0.24930
H33 H 0.72620 0.36370 0.24030
H34 H 0.73710 0.32710 0.28310
C15 C 0.75401(18) 0.4097(2) 0.3330(4)
H35 H 0.77620 0.41160 0.30170
H36 H 0.75830 0.42190 0.38320
C16 C 0.72333(15) 0.42797(17) 0.2909(3)
H37 H 0.72960 0.45340 0.28070
H38 H 0.71910 0.41590 0.24050
H39 H 0.71860 0.44080 0.24310
C17 C 0.68946(19) 0.45633(17) 0.3929(4)
H40 H 0.69060 0.47900 0.36410
H41 H 0.71000 0.45480 0.42830
H42 H 0.66710 0.45540 0.42260
C18 C 0.65856(15) 0.42742(19) 0.2885(4)
H43 H 0.65700 0.45110 0.26370
H44 H 0.63700 0.42330 0.32000
H45 H 0.66030 0.40880 0.24860
Se4 Se 0.689317(14) 0.407515(15) 0.06038(3)
P2 P 0.63756(3) 0.38114(3) 0.04531(7)
N5 N 0.72162(10) 0.36409(10) -0.1548(2)
C19 C 0.64055(15) 0.33490(13) 0.0853(3)
H46 H 0.61780 0.32230 0.07090
Li3 Li 0.6900(2) 0.3979(2) -0.0876(5)
Se5 Se 0.625549(13) 0.373119(15) -0.07869(3)
N6 N 0.70857(11) 0.43965(11) -0.1544(2)
C20 C 0.64321(18) 0.33353(16) 0.1705(3)
H47 H 0.62280 0.34670 0.19380
H48 H 0.66570 0.34530 0.18750
Li4 Li 0.5664(2) 0.4001(2) -0.0323(6)
Se6 Se 0.592770(14) 0.407487(15) 0.10245(3)
N7 N 0.54011(12) 0.44017(12) -0.0957(3)
C21 C 0.6428(2) 0.29387(17) 0.1986(4)
H49 H 0.64500 0.29300 0.25570
H50 H 0.61990 0.28230 0.18360
N8 N 0.52075(12) 0.36790(13) -0.0481(3)
C22 C 0.6742(2) 0.27404(18) 0.1616(4)
H51 H 0.69700 0.28550 0.17760
H52 H 0.67450 0.24890 0.18020
C23 C 0.6718(2) 0.27427(17) 0.0784(4)
H53 H 0.64960 0.26180 0.06180
H54 H 0.69260 0.26140 0.05600
C24 C 0.67133(15) 0.31351(14) 0.0490(4)
H55 H 0.69450 0.32520 0.06190
H56 H 0.66870 0.31360 -0.00800
C25 C 0.74292(15) 0.33895(15) -0.1072(3)
H57 H 0.75790 0.32400 -0.14110
H58 H 0.72670 0.32360 -0.07720
H59 H 0.75840 0.35260 -0.07190
C26 C 0.69904(15) 0.34197(15) -0.2070(4)
H60 H 0.71450 0.32620 -0.23810
H61 H 0.68530 0.35770 -0.24150
H62 H 0.68250 0.32740 -0.17610
C27 C 0.74415(15) 0.38810(13) -0.1992(3)
H63 H 0.75270 0.37570 -0.24650
H64 H 0.76540 0.39490 -0.16810
C28 C 0.72379(18) 0.42127(14) -0.2215(3)
H65 H 0.74010 0.43790 -0.24920
H66 H 0.70410 0.41460 -0.25750
C29 C 0.68016(17) 0.46435(17) -0.1762(4)
H67 H 0.69020 0.48380 -0.20780
H68 H 0.66920 0.47450 -0.12950
H69 H 0.66190 0.45150 -0.20620
C30 C 0.73703(17) 0.45992(16) -0.1133(4)
H70 H 0.74510 0.47990 -0.14590
H71 H 0.75730 0.44390 -0.10250
H72 H 0.72740 0.46930 -0.06450
C31 C 0.52598(18) 0.46740(16) -0.0422(4)
H73 H 0.51010 0.48380 -0.07040
H74 H 0.54600 0.48100 -0.01960
H75 H 0.51240 0.45560 -0.00070
C32 C 0.56154(18) 0.45770(17) -0.1556(4)
H76 H 0.54650 0.47480 -0.18400
H77 H 0.57080 0.43960 -0.19160
H78 H 0.58170 0.47050 -0.13150
C33 C 0.51030(17) 0.42003(18) -0.1312(4)
H79 H 0.51930 0.40750 -0.17790
H80 H 0.49150 0.43720 -0.14790
C34 C 0.49397(15) 0.39313(19) -0.0777(4)
H81 H 0.48260 0.40580 -0.03370
H82 H 0.47500 0.37970 -0.10560
C35 C 0.50802(18) 0.35140(18) 0.0246(4)
H83 H 0.48430 0.34070 0.01620
H84 H 0.50640 0.36980 0.06500
H85 H 0.52500 0.33270 0.04090
C36 C 0.52850(17) 0.33934(16) -0.1048(4)
H86 H 0.50660 0.32540 -0.11450
H87 H 0.54720 0.32350 -0.08420
H88 H 0.53680 0.35020 -0.15330
C37? C 0.6249(4) 0.3424(4) 0.6674(6)
H89? H 0.63470 0.31830 0.67980
H90? H 0.64220 0.36070 0.68590
C38? C 0.5886(4) 0.3475(4) 0.7080(8)
H91? H 0.57360 0.32580 0.70050
H92? H 0.59250 0.35070 0.76430
C39? C 0.5690(5) 0.3804(5) 0.6754(9)
H93? H 0.54480 0.38200 0.69940
H94? H 0.58250 0.40240 0.68910
C40? C 0.5650(3) 0.3782(4) 0.5879(8)
H95? H 0.55290 0.40030 0.56880
H96? H 0.54960 0.35740 0.57440
C41? C 0.6017(3) 0.3743(3) 0.5475(7)
H97? H 0.59800 0.37090 0.49110
H98? H 0.61590 0.39650 0.55520
C42? C 0.7796(6) 0.3849(11) 0.376(2)
H99? H 0.79840 0.38120 0.33730
H100? H 0.78620 0.37220 0.42400
H101? H 0.77730 0.41060 0.38730
C43? C 0.7531(11) 0.3327(5) 0.329(3)
H102? H 0.77560 0.33110 0.29940
H103? H 0.73340 0.32270 0.29790
H104? H 0.75540 0.31900 0.37710
C44? C 0.7344(8) 0.3883(5) 0.2732(11)
H105? H 0.71390 0.37520 0.25000
H106? H 0.75460 0.38790 0.23590
H107? H 0.74240 0.44030 0.31860
C45? C 0.5093(3) 0.2478(5) 0.1607(7)
C46? C 0.4815(3) 0.2413(6) 0.1086(9)
H108? H 0.45830 0.23510 0.12710
C47? C 0.4877(4) 0.2440(7) 0.0294(8)
H109? H 0.46880 0.23960 -0.00620
C48? C 0.5217(5) 0.2532(7) 0.0022(7)
H110? H 0.52590 0.25500 -0.05190
C49? C 0.5495(4) 0.2596(4) 0.0543(9)
H111? H 0.57270 0.26590 0.03580
C50? C 0.5433(3) 0.2569(4) 0.1335(8)
H112? H 0.56220 0.26130 0.16910
C51? C 0.50000 0.25000 0.2446(8)
H113? H 0.47500 0.24240 0.25210
H114? H 0.50290 0.27480 0.26250
H115? H 0.51600 0.23420 0.27430
#END
