####################################################################### 
# 
# This file contains crystal structure data downloaded from the 
# Cambridge Structural Database (CSD) hosted by the Cambridge 
# Crystallographic Data Centre (CCDC).
# 
# Full information about CCDC data access policies and citation 
# guidelines are available at http://www.ccdc.cam.ac.uk/access/V1 
# 
# Audit and citation data items may have been added by the CCDC. 
# Please retain this information to preserve the provenance of 
# this file and to allow appropriate attribution of the data. 
# 
#######################################################################

data_i0760a
_audit_block_doi                 10.5517/ccwnmdj
_database_code_depnum_ccdc_archive 'CCDC 824178'
loop_
_citation_id
_citation_doi
_citation_year
1 10.1002/zaac.201100209 2011
_audit_update_record             
;
2011-05-04 deposited with the CCDC.	2024-07-09 downloaded from the CCDC.
;
#TrackingRef 'publication_89.cif'


_audit_creation_method           SHELXL-97
_chemical_name_systematic        
;
?
;
_chemical_name_common            ?
_chemical_melting_point          ?
_chemical_formula_moiety         ?
_chemical_formula_sum            'C29 H25 Ag B Cl3 F4 Fe N P'
_chemical_formula_weight         775.35

loop_
_atom_type_symbol
_atom_type_description
_atom_type_scat_dispersion_real
_atom_type_scat_dispersion_imag
_atom_type_scat_source
C C 0.0033 0.0016 'International Tables Vol C Tables 4.2.6.8 and 6.1.1.4'
H H 0.0000 0.0000 'International Tables Vol C Tables 4.2.6.8 and 6.1.1.4'
B B 0.0013 0.0007 'International Tables Vol C Tables 4.2.6.8 and 6.1.1.4'
N N 0.0061 0.0033 'International Tables Vol C Tables 4.2.6.8 and 6.1.1.4'
F F 0.0171 0.0103 'International Tables Vol C Tables 4.2.6.8 and 6.1.1.4'
P P 0.1023 0.0942 'International Tables Vol C Tables 4.2.6.8 and 6.1.1.4'
Fe Fe 0.3463 0.8444 'International Tables Vol C Tables 4.2.6.8 and 6.1.1.4'
Ag Ag -0.8971 1.1015 'International Tables Vol C Tables 4.2.6.8 and 6.1.1.4'
Cl Cl 0.1484 0.1585 'International Tables Vol C Tables 4.2.6.8 and 6.1.1.4'

_symmetry_cell_setting           monoclinic
_symmetry_space_group_name_H-M   'P 21/c'

loop_
_symmetry_equiv_pos_as_xyz
'x, y, z'
'-x, y+1/2, -z+1/2'
'-x, -y, -z'
'x, -y-1/2, z-1/2'

_cell_length_a                   13.2362(14)
_cell_length_b                   11.5572(13)
_cell_length_c                   20.694(3)
_cell_angle_alpha                90.00
_cell_angle_beta                 91.336(11)
_cell_angle_gamma                90.00
_cell_volume                     3164.7(7)
_cell_formula_units_Z            4
_cell_measurement_temperature    298(2)
_cell_measurement_reflns_used    ?
_cell_measurement_theta_min      ?
_cell_measurement_theta_max      ?

_exptl_crystal_description       block
_exptl_crystal_colour            yellow
_exptl_crystal_size_max          ?
_exptl_crystal_size_mid          ?
_exptl_crystal_size_min          ?
_exptl_crystal_density_meas      ?
_exptl_crystal_density_diffrn    1.627
_exptl_crystal_density_method    'not measured'
_exptl_crystal_F_000             1544
_exptl_absorpt_coefficient_mu    1.425
_exptl_absorpt_correction_type   none
_exptl_absorpt_correction_T_min  ?
_exptl_absorpt_correction_T_max  ?
_exptl_absorpt_process_details   ?

_exptl_special_details           
;
?
;

_diffrn_ambient_temperature      298(2)
_diffrn_measurement_device       '2-circle goniometer'
_diffrn_measurement_device_type  'STOE IPDS 2'
_diffrn_detector                 'image plate (34 cm diameter)'
_diffrn_detector_type            STOE
_diffrn_detector_area_resol_mean 6.67
_diffrn_source                   
'sealed X-ray tube, 12 x 0.4 mm long-fine focus'
_diffrn_source_voltage           50
_diffrn_source_current           30
_diffrn_source_power             1.50
_diffrn_radiation_type           'Mo K\a'
_diffrn_radiation_wavelength     0.71073
_diffrn_radiation_monochromator  'plane graphite'
_diffrn_radiation_polarisn_norm  0
_diffrn_radiation_collimation    '0.5 mm diameter, multiple pinhole'
_diffrn_measurement_method       'rotation method'
_diffrn_standards_decay_%        none
_diffrn_reflns_number            2375
_diffrn_reflns_av_R_equivalents  0.0254
_diffrn_reflns_av_sigmaI/netI    0.0731
_diffrn_reflns_limit_h_min       -14
_diffrn_reflns_limit_h_max       15
_diffrn_reflns_limit_k_min       -5
_diffrn_reflns_limit_k_max       13
_diffrn_reflns_limit_l_min       -23
_diffrn_reflns_limit_l_max       9
_diffrn_reflns_theta_min         1.54
_diffrn_reflns_theta_max         25.00
_reflns_number_total             2074
_reflns_number_gt                1179
_reflns_threshold_expression     >2sigma(I)

_computing_data_collection       ?
_computing_cell_refinement       ?
_computing_data_reduction        ?
_computing_structure_solution    'SHELXS-97 (Sheldrick, 1990)'
_computing_structure_refinement  'SHELXL-97 (Sheldrick, 1997)'
_computing_molecular_graphics    ?
_computing_publication_material  ?

_refine_special_details          
;
Refinement of F^2^ against ALL reflections. The weighted R-factor wR and
goodness of fit S are based on F^2^, conventional R-factors R are based
on F, with F set to zero for negative F^2^. The threshold expression of
F^2^ > 2sigma(F^2^) is used only for calculating R-factors(gt) etc. and is
not relevant to the choice of reflections for refinement. R-factors based
on F^2^ are statistically about twice as large as those based on F, and R-
factors based on ALL data will be even larger.
;

_refine_ls_structure_factor_coef Fsqd
_refine_ls_matrix_type           full
_refine_ls_weighting_scheme      calc
_refine_ls_weighting_details     
'calc w=1/[\s^2^(Fo^2^)+(0.0216P)^2^+0.0000P] where P=(Fo^2^+2Fc^2^)/3'
_atom_sites_solution_primary     direct
_atom_sites_solution_secondary   difmap
_atom_sites_solution_hydrogens   geom
_refine_ls_hydrogen_treatment    constr
_refine_ls_extinction_method     none
_refine_ls_extinction_coef       ?
_refine_ls_number_reflns         2074
_refine_ls_number_parameters     370
_refine_ls_number_restraints     0
_refine_ls_R_factor_all          0.0738
_refine_ls_R_factor_gt           0.0321
_refine_ls_wR_factor_ref         0.0555
_refine_ls_wR_factor_gt          0.0494
_refine_ls_goodness_of_fit_ref   0.791
_refine_ls_restrained_S_all      0.791
_refine_ls_shift/su_max          0.000
_refine_ls_shift/su_mean         0.000

loop_
_atom_site_label
_atom_site_type_symbol
_atom_site_fract_x
_atom_site_fract_y
_atom_site_fract_z
_atom_site_U_iso_or_equiv
_atom_site_adp_type
_atom_site_occupancy
_atom_site_symmetry_multiplicity
_atom_site_calc_flag
_atom_site_refinement_flags
_atom_site_disorder_assembly
_atom_site_disorder_group
C1 C 0.1748(4) 0.5341(7) 0.3059(6) 0.053(3) Uani 1 1 d . . .
C2 C 0.2338(5) 0.5126(10) 0.3611(6) 0.067(3) Uani 1 1 d . . .
H2A H 0.3036 0.5204 0.3642 0.081 Uiso 1 1 calc R . .
C3 C 0.1699(6) 0.4764(12) 0.4128(6) 0.074(4) Uani 1 1 d . . .
H3A H 0.1898 0.4511 0.4538 0.089 Uiso 1 1 calc R . .
C4 C 0.0686(6) 0.4878(11) 0.3871(7) 0.074(4) Uani 1 1 d . . .
H4A H 0.0100 0.4779 0.4103 0.089 Uiso 1 1 calc R . .
C5 C 0.0726(5) 0.5159(9) 0.3223(6) 0.060(3) Uani 1 1 d . . .
H5A H 0.0172 0.5219 0.2940 0.072 Uiso 1 1 calc R . .
C6 C 0.1216(5) 0.2026(9) 0.3633(6) 0.055(3) Uani 1 1 d . . .
C7 C 0.0736(6) 0.2271(10) 0.3038(7) 0.070(4) Uani 1 1 d . . .
H7A H 0.0047 0.2237 0.2941 0.084 Uiso 1 1 calc R . .
C8 C 0.1517(10) 0.2581(12) 0.2614(8) 0.091(4) Uani 1 1 d . . .
H8A H 0.1419 0.2802 0.2185 0.110 Uiso 1 1 calc R . .
C9 C 0.2445(9) 0.2506(12) 0.2930(9) 0.091(5) Uani 1 1 d . . .
H9A H 0.3070 0.2653 0.2751 0.109 Uiso 1 1 calc R . .
C10 C 0.2277(5) 0.2174(9) 0.3559(7) 0.068(4) Uani 1 1 d . . .
H10A H 0.2771 0.2065 0.3880 0.081 Uiso 1 1 calc R . .
C11 C 0.0733(4) 0.1626(9) 0.4262(6) 0.055(3) Uani 1 1 d . . .
H11B H 0.1001 0.2084 0.4620 0.066 Uiso 1 1 calc R . .
H11A H 0.0009 0.1752 0.4233 0.066 Uiso 1 1 calc R . .
C12 C 0.0941(4) 0.0360(7) 0.4391(5) 0.051(3) Uani 1 1 d . . .
C13 C 0.1805(4) 0.0011(10) 0.4746(5) 0.067(3) Uani 1 1 d . . .
H13A H 0.2241 0.0566 0.4920 0.080 Uiso 1 1 calc R . .
C14 C 0.2013(5) -0.1137(10) 0.4840(6) 0.080(4) Uani 1 1 d . . .
H14A H 0.2598 -0.1364 0.5062 0.096 Uiso 1 1 calc R . .
C15 C 0.1353(5) -0.1938(9) 0.4604(6) 0.068(4) Uani 1 1 d . . .
H15A H 0.1477 -0.2722 0.4667 0.082 Uiso 1 1 calc R . .
C16 C 0.0497(4) -0.1574(8) 0.4269(6) 0.059(3) Uani 1 1 d . . .
H16A H 0.0040 -0.2127 0.4117 0.071 Uiso 1 1 calc R . .
C17 C 0.2113(4) 0.7262(8) 0.2223(6) 0.051(3) Uani 1 1 d . . .
C18 C 0.1867(4) 0.7976(9) 0.2740(6) 0.057(3) Uani 1 1 d . . .
H18A H 0.1742 0.7643 0.3140 0.068 Uiso 1 1 calc R . .
C19 C 0.1805(5) 0.9161(10) 0.2674(7) 0.064(4) Uani 1 1 d . . .
H19A H 0.1634 0.9620 0.3024 0.077 Uiso 1 1 calc R . .
C20 C 0.1999(5) 0.9659(9) 0.2086(7) 0.070(4) Uani 1 1 d . . .
H20A H 0.1946 1.0457 0.2035 0.084 Uiso 1 1 calc R . .
C21 C 0.2263(7) 0.9000(11) 0.1590(8) 0.090(6) Uani 1 1 d . . .
H21A H 0.2418 0.9344 0.1198 0.108 Uiso 1 1 calc R . .
C22 C 0.2309(6) 0.7836(11) 0.1649(7) 0.073(4) Uani 1 1 d . . .
H22A H 0.2478 0.7400 0.1289 0.088 Uiso 1 1 calc R . .
C23 C 0.3446(4) 0.5330(7) 0.2203(6) 0.056(3) Uani 1 1 d . . .
C24 C 0.3713(5) 0.4426(9) 0.1810(6) 0.064(4) Uani 1 1 d . . .
H24A H 0.3223 0.4034 0.1566 0.077 Uiso 1 1 calc R . .
C25 C 0.4713(6) 0.4104(12) 0.1782(7) 0.105(5) Uani 1 1 d . . .
H25A H 0.4892 0.3484 0.1521 0.126 Uiso 1 1 calc R . .
C26 C 0.5413(6) 0.4650(12) 0.2111(9) 0.120(6) Uani 1 1 d . . .
H26A H 0.6083 0.4428 0.2066 0.144 Uiso 1 1 calc R . .
C27 C 0.5194(5) 0.5559(13) 0.2533(7) 0.096(5) Uani 1 1 d . . .
H27A H 0.5694 0.5920 0.2783 0.115 Uiso 1 1 calc R . .
C28 C 0.4174(4) 0.5896(9) 0.2554(6) 0.077(4) Uani 1 1 d . . .
H28A H 0.3994 0.6516 0.2813 0.093 Uiso 1 1 calc R . .
C29 C -0.5035(6) 0.6980(13) 0.5248(7) 0.097(5) Uani 1 1 d . . .
H29A H -0.4401 0.6813 0.5031 0.116 Uiso 1 1 calc R . .
B1 B -0.2360(6) 0.7053(14) 0.4256(8) 0.069(4) Uani 1 1 d . . .
N1 N 0.0296(3) -0.0444(6) 0.4154(4) 0.050(2) Uani 1 1 d . . .
F1 F -0.3038(3) 0.6740(6) 0.3781(4) 0.106(3) Uani 1 1 d . . .
F2 F -0.2810(3) 0.7284(7) 0.4807(4) 0.121(3) Uani 1 1 d . . .
F3 F -0.1859(3) 0.8044(7) 0.4053(4) 0.104(3) Uani 1 1 d . . .
F4 F -0.1616(3) 0.6250(7) 0.4323(4) 0.121(3) Uani 1 1 d . . .
P1 P 0.21208(10) 0.5721(2) 0.22587(14) 0.0464(8) Uani 1 1 d . . .
Fe1 Fe 0.15316(6) 0.36876(11) 0.33590(9) 0.0541(5) Uani 1 1 d . . .
Ag1 Ag 0.09901(3) 0.49902(7) 0.14618(4) 0.0572(2) Uani 1 1 d . . .
Cl1 Cl -0.5964(2) 0.6616(6) 0.4794(4) 0.262(5) Uani 1 1 d . . .
Cl2 Cl -0.4998(2) 0.6383(7) 0.6026(4) 0.251(4) Uani 1 1 d . . .
Cl3 Cl -0.5100(2) 0.8463(6) 0.5431(4) 0.246(4) Uani 1 1 d . . .

loop_
_atom_site_aniso_label
_atom_site_aniso_U_11
_atom_site_aniso_U_22
_atom_site_aniso_U_33
_atom_site_aniso_U_23
_atom_site_aniso_U_13
_atom_site_aniso_U_12
C1 0.042(3) 0.036(7) 0.081(10) 0.008(6) -0.008(3) -0.005(3)
C2 0.071(4) 0.058(9) 0.073(10) 0.004(8) -0.006(4) -0.020(5)
C3 0.142(6) 0.053(11) 0.028(9) 0.009(7) 0.002(5) 0.003(6)
C4 0.089(4) 0.040(7) 0.094(12) -0.019(8) 0.030(5) -0.008(5)
C5 0.069(4) 0.043(7) 0.070(9) 0.001(7) 0.016(4) -0.002(4)
C6 0.061(4) 0.038(8) 0.066(11) 0.011(7) -0.004(4) -0.004(3)
C7 0.094(5) 0.038(8) 0.076(11) -0.018(7) -0.009(5) -0.011(4)
C8 0.190(10) 0.040(10) 0.044(13) 0.004(9) 0.007(10) -0.007(8)
C9 0.121(7) 0.045(9) 0.108(15) -0.006(8) 0.050(9) 0.001(6)
C10 0.075(4) 0.031(6) 0.099(12) 0.002(7) 0.023(5) -0.004(4)
C11 0.053(3) 0.041(7) 0.070(10) 0.001(6) -0.001(4) -0.001(3)
C12 0.050(3) 0.047(7) 0.056(9) -0.012(6) 0.004(3) 0.001(3)
C13 0.058(3) 0.067(7) 0.075(9) -0.003(8) -0.006(4) -0.004(5)
C14 0.060(4) 0.079(10) 0.099(12) 0.018(9) 0.000(4) 0.011(4)
C15 0.075(4) 0.047(7) 0.084(12) 0.022(7) 0.006(5) 0.007(4)
C16 0.058(4) 0.049(7) 0.069(10) 0.015(6) -0.002(4) -0.002(4)
C17 0.045(3) 0.035(6) 0.072(10) 0.006(6) 0.003(4) 0.000(3)
C18 0.058(4) 0.050(8) 0.063(10) 0.004(8) 0.013(4) -0.001(4)
C19 0.068(4) 0.050(9) 0.076(12) -0.021(8) 0.020(5) -0.002(4)
C20 0.060(4) 0.038(8) 0.112(14) 0.003(7) 0.013(5) 0.007(3)
C21 0.115(6) 0.045(10) 0.111(18) 0.030(9) 0.020(7) 0.008(6)
C22 0.106(5) 0.040(8) 0.075(13) 0.000(8) 0.018(6) 0.021(5)
C23 0.052(3) 0.040(7) 0.079(10) 0.016(5) 0.009(4) -0.001(3)
C24 0.057(4) 0.059(7) 0.078(11) -0.015(6) 0.005(4) 0.009(4)
C25 0.069(5) 0.117(12) 0.129(15) -0.031(10) 0.005(5) 0.031(5)
C26 0.057(5) 0.102(13) 0.20(2) 0.003(11) 0.011(7) 0.015(5)
C27 0.061(5) 0.107(12) 0.117(14) 0.011(9) -0.020(5) -0.011(5)
C28 0.054(4) 0.081(9) 0.097(12) -0.006(7) -0.005(4) -0.016(4)
C29 0.086(5) 0.121(13) 0.084(14) 0.016(9) 0.000(6) 0.020(6)
B1 0.051(4) 0.074(10) 0.082(14) -0.013(9) 0.003(5) -0.013(5)
N1 0.046(3) 0.040(5) 0.063(8) 0.005(4) 0.002(3) 0.000(2)
F1 0.104(3) 0.085(7) 0.126(9) -0.025(5) -0.026(3) -0.013(3)
F2 0.100(3) 0.166(10) 0.099(8) -0.012(6) 0.035(4) -0.024(4)
F3 0.094(3) 0.120(7) 0.097(8) 0.030(5) -0.011(3) -0.034(3)
F4 0.134(4) 0.082(8) 0.145(11) -0.011(6) -0.031(4) 0.035(4)
P1 0.0447(7) 0.0327(14) 0.062(2) 0.0009(14) -0.0028(8) 0.0003(7)
Fe1 0.0706(5) 0.0338(8) 0.0583(14) -0.0023(9) 0.0107(6) -0.0046(5)
Ag1 0.0568(2) 0.0473(4) 0.0669(5) -0.0049(5) -0.0114(2) 0.0002(3)
Cl1 0.126(2) 0.276(9) 0.380(11) -0.202(8) -0.063(3) 0.037(3)
Cl2 0.156(3) 0.334(12) 0.265(12) 0.051(7) 0.023(3) 0.043(4)
Cl3 0.146(2) 0.152(7) 0.437(13) -0.095(7) -0.048(4) 0.018(3)

_geom_special_details            
;
All esds (except the esd in the dihedral angle between two l.s. planes)
are estimated using the full covariance matrix. The cell esds are taken
into account individually in the estimation of esds in distances, angles
and torsion angles; correlations between esds in cell parameters are only
used when they are defined by crystal symmetry. An approximate (isotropic)
treatment of cell esds is used for estimating esds involving l.s. planes.
;

loop_
_geom_bond_atom_site_label_1
_geom_bond_atom_site_label_2
_geom_bond_distance
_geom_bond_site_symmetry_2
_geom_bond_publ_flag
C1 C2 1.391(16) . ?
C1 C5 1.418(9) . ?
C1 P1 1.794(11) . ?
C1 Fe1 2.031(8) . ?
C2 C3 1.440(15) . ?
C2 Fe1 2.037(10) . ?
C2 H2A 0.9300 . ?
C3 C4 1.436(14) . ?
C3 Fe1 2.027(13) . ?
C3 H3A 0.9300 . ?
C4 C5 1.382(17) . ?
C4 Fe1 2.079(10) . ?
C4 H4A 0.9300 . ?
C5 Fe1 2.023(10) . ?
C5 H5A 0.9300 . ?
C6 C7 1.403(17) . ?
C6 C10 1.426(9) . ?
C6 C11 1.535(15) . ?
C6 Fe1 2.048(10) . ?
C7 C8 1.417(16) . ?
C7 Fe1 2.049(11) . ?
C7 H7A 0.9300 . ?
C8 C9 1.380(18) . ?
C8 Fe1 2.003(15) . ?
C8 H8A 0.9300 . ?
C9 C10 1.38(2) . ?
C9 Fe1 2.041(11) . ?
C9 H9A 0.9300 . ?
C10 Fe1 2.046(11) . ?
C10 H10A 0.9300 . ?
C11 C12 1.512(12) . ?
C11 H11B 0.9700 . ?
C11 H11A 0.9700 . ?
C12 N1 1.346(10) . ?
C12 C13 1.404(12) . ?
C13 C14 1.367(14) . ?
C13 H13A 0.9300 . ?
C14 C15 1.355(13) . ?
C14 H14A 0.9300 . ?
C15 C16 1.381(13) . ?
C15 H15A 0.9300 . ?
C16 N1 1.353(10) . ?
C16 H16A 0.9300 . ?
C17 C22 1.391(15) . ?
C17 C18 1.395(14) . ?
C17 P1 1.782(9) . ?
C18 C19 1.379(13) . ?
C18 H18A 0.9300 . ?
C19 C20 1.376(17) . ?
C19 H19A 0.9300 . ?
C20 C21 1.333(19) . ?
C20 H20A 0.9300 . ?
C21 C22 1.352(15) . ?
C21 H21A 0.9300 . ?
C22 H22A 0.9300 . ?
C23 C28 1.360(13) . ?
C23 C24 1.375(14) . ?
C23 P1 1.818(6) . ?
C24 C25 1.377(9) . ?
C24 H24A 0.9300 . ?
C25 C26 1.301(18) . ?
C25 H25A 0.9300 . ?
C26 C27 1.40(2) . ?
C26 H26A 0.9300 . ?
C27 C28 1.407(11) . ?
C27 H27A 0.9300 . ?
C28 H28A 0.9300 . ?
C29 Cl1 1.587(13) . ?
C29 Cl2 1.752(14) . ?
C29 Cl3 1.758(15) . ?
C29 H29A 0.9800 . ?
B1 F2 1.326(16) . ?
B1 F4 1.358(14) . ?
B1 F1 1.364(16) . ?
B1 F3 1.394(16) . ?
N1 Ag1 2.162(6) 2_545 ?
P1 Ag1 2.358(2) . ?
Ag1 N1 2.162(6) 2 ?

loop_
_geom_angle_atom_site_label_1
_geom_angle_atom_site_label_2
_geom_angle_atom_site_label_3
_geom_angle
_geom_angle_site_symmetry_1
_geom_angle_site_symmetry_3
_geom_angle_publ_flag
C2 C1 C5 107.3(9) . . ?
C2 C1 P1 129.9(5) . . ?
C5 C1 P1 122.8(7) . . ?
C2 C1 Fe1 70.2(6) . . ?
C5 C1 Fe1 69.2(5) . . ?
P1 C1 Fe1 123.8(6) . . ?
C1 C2 C3 109.5(6) . . ?
C1 C2 Fe1 69.8(5) . . ?
C3 C2 Fe1 68.9(6) . . ?
C1 C2 H2A 125.3 . . ?
C3 C2 H2A 125.3 . . ?
Fe1 C2 H2A 127.7 . . ?
C4 C3 C2 104.9(12) . . ?
C4 C3 Fe1 71.5(7) . . ?
C2 C3 Fe1 69.6(7) . . ?
C4 C3 H3A 127.5 . . ?
C2 C3 H3A 127.5 . . ?
Fe1 C3 H3A 123.1 . . ?
C5 C4 C3 108.9(7) . . ?
C5 C4 Fe1 68.2(6) . . ?
C3 C4 Fe1 67.6(6) . . ?
C5 C4 H4A 125.5 . . ?
C3 C4 H4A 125.5 . . ?
Fe1 C4 H4A 130.4 . . ?
C4 C5 C1 109.0(8) . . ?
C4 C5 Fe1 72.5(6) . . ?
C1 C5 Fe1 69.8(4) . . ?
C4 C5 H5A 125.5 . . ?
C1 C5 H5A 125.5 . . ?
Fe1 C5 H5A 123.8 . . ?
C7 C6 C10 108.0(10) . . ?
C7 C6 C11 128.1(7) . . ?
C10 C6 C11 123.9(10) . . ?
C7 C6 Fe1 70.0(6) . . ?
C10 C6 Fe1 69.5(5) . . ?
C11 C6 Fe1 127.5(8) . . ?
C6 C7 C8 105.8(8) . . ?
C6 C7 Fe1 69.9(6) . . ?
C8 C7 Fe1 67.8(7) . . ?
C6 C7 H7A 127.1 . . ?
C8 C7 H7A 127.1 . . ?
Fe1 C7 H7A 126.7 . . ?
C9 C8 C7 110.3(15) . . ?
C9 C8 Fe1 71.5(9) . . ?
C7 C8 Fe1 71.3(7) . . ?
C9 C8 H8A 124.9 . . ?
C7 C8 H8A 124.9 . . ?
Fe1 C8 H8A 123.9 . . ?
C8 C9 C10 107.6(10) . . ?
C8 C9 Fe1 68.6(7) . . ?
C10 C9 Fe1 70.4(6) . . ?
C8 C9 H9A 126.2 . . ?
C10 C9 H9A 126.2 . . ?
Fe1 C9 H9A 126.3 . . ?
C9 C10 C6 108.4(12) . . ?
C9 C10 Fe1 70.1(7) . . ?
C6 C10 Fe1 69.7(5) . . ?
C9 C10 H10A 125.8 . . ?
C6 C10 H10A 125.8 . . ?
Fe1 C10 H10A 126.0 . . ?
C12 C11 C6 111.3(8) . . ?
C12 C11 H11B 109.4 . . ?
C6 C11 H11B 109.4 . . ?
C12 C11 H11A 109.4 . . ?
C6 C11 H11A 109.4 . . ?
H11B C11 H11A 108.0 . . ?
N1 C12 C13 119.7(8) . . ?
N1 C12 C11 119.5(7) . . ?
C13 C12 C11 120.9(8) . . ?
C14 C13 C12 120.7(9) . . ?
C14 C13 H13A 119.6 . . ?
C12 C13 H13A 119.6 . . ?
C15 C14 C13 119.1(8) . . ?
C15 C14 H14A 120.5 . . ?
C13 C14 H14A 120.5 . . ?
C14 C15 C16 119.1(9) . . ?
C14 C15 H15A 120.4 . . ?
C16 C15 H15A 120.4 . . ?
N1 C16 C15 122.5(8) . . ?
N1 C16 H16A 118.7 . . ?
C15 C16 H16A 118.7 . . ?
C22 C17 C18 115.2(11) . . ?
C22 C17 P1 120.7(10) . . ?
C18 C17 P1 124.0(8) . . ?
C19 C18 C17 121.7(10) . . ?
C19 C18 H18A 119.2 . . ?
C17 C18 H18A 119.2 . . ?
C20 C19 C18 119.4(11) . . ?
C20 C19 H19A 120.3 . . ?
C18 C19 H19A 120.3 . . ?
C21 C20 C19 120.0(13) . . ?
C21 C20 H20A 120.0 . . ?
C19 C20 H20A 120.0 . . ?
C20 C21 C22 120.8(13) . . ?
C20 C21 H21A 119.6 . . ?
C22 C21 H21A 119.6 . . ?
C21 C22 C17 122.8(13) . . ?
C21 C22 H22A 118.6 . . ?
C17 C22 H22A 118.6 . . ?
C28 C23 C24 119.5(6) . . ?
C28 C23 P1 121.2(8) . . ?
C24 C23 P1 119.3(7) . . ?
C23 C24 C25 119.4(9) . . ?
C23 C24 H24A 120.3 . . ?
C25 C24 H24A 120.3 . . ?
C26 C25 C24 121.3(11) . . ?
C26 C25 H25A 119.3 . . ?
C24 C25 H25A 119.3 . . ?
C25 C26 C27 122.3(9) . . ?
C25 C26 H26A 118.8 . . ?
C27 C26 H26A 118.8 . . ?
C26 C27 C28 116.1(11) . . ?
C26 C27 H27A 121.9 . . ?
C28 C27 H27A 121.9 . . ?
C23 C28 C27 121.2(10) . . ?
C23 C28 H28A 119.4 . . ?
C27 C28 H28A 119.4 . . ?
Cl1 C29 Cl2 116.4(8) . . ?
Cl1 C29 Cl3 110.2(7) . . ?
Cl2 C29 Cl3 100.7(9) . . ?
Cl1 C29 H29A 109.7 . . ?
Cl2 C29 H29A 109.7 . . ?
Cl3 C29 H29A 109.7 . . ?
F2 B1 F4 112.9(13) . . ?
F2 B1 F1 111.8(7) . . ?
F4 B1 F1 110.8(12) . . ?
F2 B1 F3 108.7(12) . . ?
F4 B1 F3 104.1(6) . . ?
F1 B1 F3 108.1(13) . . ?
C12 N1 C16 118.8(7) . . ?
C12 N1 Ag1 122.6(6) . 2_545 ?
C16 N1 Ag1 118.4(6) . 2_545 ?
C17 P1 C1 106.4(5) . . ?
C17 P1 C23 104.5(3) . . ?
C1 P1 C23 106.5(4) . . ?
C17 P1 Ag1 109.0(4) . . ?
C1 P1 Ag1 112.0(2) . . ?
C23 P1 Ag1 117.7(4) . . ?
C8 Fe1 C5 115.8(6) . . ?
C8 Fe1 C3 174.1(5) . . ?
C5 Fe1 C3 69.0(5) . . ?
C8 Fe1 C1 111.4(6) . . ?
C5 Fe1 C1 40.9(3) . . ?
C3 Fe1 C1 69.5(5) . . ?
C8 Fe1 C2 135.6(5) . . ?
C5 Fe1 C2 67.7(4) . . ?
C3 Fe1 C2 41.5(4) . . ?
C1 Fe1 C2 40.0(4) . . ?
C8 Fe1 C9 39.9(5) . . ?
C5 Fe1 C9 144.8(6) . . ?
C3 Fe1 C9 134.2(5) . . ?
C1 Fe1 C9 114.0(5) . . ?
C2 Fe1 C9 110.2(4) . . ?
C8 Fe1 C10 66.8(6) . . ?
C5 Fe1 C10 175.4(4) . . ?
C3 Fe1 C10 108.8(5) . . ?
C1 Fe1 C10 142.7(2) . . ?
C2 Fe1 C10 113.5(4) . . ?
C9 Fe1 C10 39.5(6) . . ?
C8 Fe1 C6 67.4(5) . . ?
C5 Fe1 C6 135.8(3) . . ?
C3 Fe1 C6 112.1(5) . . ?
C1 Fe1 C6 176.1(3) . . ?
C2 Fe1 C6 143.4(5) . . ?
C9 Fe1 C6 67.7(5) . . ?
C10 Fe1 C6 40.8(3) . . ?
C8 Fe1 C7 40.9(5) . . ?
C5 Fe1 C7 111.2(4) . . ?
C3 Fe1 C7 142.3(4) . . ?
C1 Fe1 C7 136.7(5) . . ?
C2 Fe1 C7 175.9(5) . . ?
C9 Fe1 C7 68.3(4) . . ?
C10 Fe1 C7 67.9(4) . . ?
C6 Fe1 C7 40.0(5) . . ?
C8 Fe1 C4 145.0(5) . . ?
C5 Fe1 C4 39.3(5) . . ?
C3 Fe1 C4 40.9(4) . . ?
C1 Fe1 C4 67.3(5) . . ?
C2 Fe1 C4 67.3(4) . . ?
C9 Fe1 C4 174.8(7) . . ?
C10 Fe1 C4 136.5(6) . . ?
C6 Fe1 C4 111.3(5) . . ?
C7 Fe1 C4 114.5(4) . . ?
N1 Ag1 P1 166.89(17) 2 . ?

_diffrn_measured_fraction_theta_max 0.372
_diffrn_reflns_theta_full        25.00
_diffrn_measured_fraction_theta_full 0.372
_refine_diff_density_max         0.175
_refine_diff_density_min         -0.151
_refine_diff_density_rms         0.029
