####################################################################### 
# 
# This file contains crystal structure data downloaded from the 
# Cambridge Structural Database (CSD) hosted by the Cambridge 
# Crystallographic Data Centre (CCDC).
# 
# Full information about CCDC data access policies and citation 
# guidelines are available at http://www.ccdc.cam.ac.uk/access/V1 
# 
# Audit and citation data items may have been added by the CCDC. 
# Please retain this information to preserve the provenance of 
# this file and to allow appropriate attribution of the data. 
# 
#######################################################################

data_UTSA-38
_audit_block_doi                 10.5517/ccwnhww
_database_code_depnum_ccdc_archive 'CCDC 824069'
loop_
_citation_id
_citation_doi
_citation_year
1 10.1039/c1cc12802g 2011
_audit_update_record             
;
2011-05-03 deposited with the CCDC.	2024-07-09 downloaded from the CCDC.
;
#TrackingRef '- UTSA-38.cif'


_audit_creation_method           SHELXL-97
_chemical_name_systematic        
;
?
;
_chemical_name_common            ?
_chemical_melting_point          ?
_chemical_formula_moiety         'C81 H57 N3 O30 Zn8'
_chemical_formula_sum            'C81 H57 N3 O30 Zn8'
_chemical_formula_weight         2075.26

loop_
_atom_type_symbol
_atom_type_description
_atom_type_scat_dispersion_real
_atom_type_scat_dispersion_imag
_atom_type_scat_source
C C 0.0033 0.0016 'International Tables Vol C Tables 4.2.6.8 and 6.1.1.4'
H H 0.0000 0.0000 'International Tables Vol C Tables 4.2.6.8 and 6.1.1.4'
N N 0.0061 0.0033 'International Tables Vol C Tables 4.2.6.8 and 6.1.1.4'
O O 0.0106 0.0060 'International Tables Vol C Tables 4.2.6.8 and 6.1.1.4'
Zn Zn 0.2839 1.4301 'International Tables Vol C Tables 4.2.6.8 and 6.1.1.4'

_symmetry_cell_setting           Triclinic
_symmetry_space_group_name_H-M   'P - 1'
_symmetry_space_group_name_Hall  '-P 1'
loop_
_symmetry_equiv_pos_as_xyz
'x, y, z'
'-x, -y, -z'

_cell_length_a                   17.672(6)
_cell_length_b                   19.850(7)
_cell_length_c                   20.915(7)
_cell_angle_alpha                72.383(4)
_cell_angle_beta                 70.947(5)
_cell_angle_gamma                69.724(5)
_cell_volume                     6354(4)
_cell_formula_units_Z            2
_cell_measurement_temperature    100(2)
_cell_measurement_reflns_used    9721
_cell_measurement_theta_min      2.24
_cell_measurement_theta_max      25.04

_exptl_crystal_description       prism
_exptl_crystal_colour            yellow
_exptl_crystal_size_max          0.22
_exptl_crystal_size_mid          0.19
_exptl_crystal_size_min          0.15
_exptl_crystal_density_meas      ?
_exptl_crystal_density_diffrn    1.085
_exptl_crystal_density_method    'not measured'
_exptl_crystal_F_000             2088
_exptl_absorpt_coefficient_mu    1.538
_exptl_absorpt_correction_type   multi-scan
_exptl_absorpt_correction_T_min  0.7303
_exptl_absorpt_correction_T_max  0.8066
_exptl_absorpt_process_details   SADABS

_exptl_special_details           
;
?
;

_diffrn_ambient_temperature      100(2)
_diffrn_radiation_wavelength     0.71073
_diffrn_radiation_type           MoK\a
_diffrn_radiation_source         'fine-focus sealed tube'
_diffrn_radiation_monochromator  graphite
_diffrn_measurement_device_type  'Bruker SMART APEX II CCD'
_diffrn_measurement_method       '\w scans'
_diffrn_detector_area_resol_mean ?
_diffrn_reflns_number            63558
_diffrn_reflns_av_R_equivalents  0.0669
_diffrn_reflns_av_sigmaI/netI    0.1046
_diffrn_reflns_limit_h_min       -21
_diffrn_reflns_limit_h_max       21
_diffrn_reflns_limit_k_min       -23
_diffrn_reflns_limit_k_max       23
_diffrn_reflns_limit_l_min       -24
_diffrn_reflns_limit_l_max       24
_diffrn_reflns_theta_min         1.84
_diffrn_reflns_theta_max         25.03
_reflns_number_total             22059
_reflns_number_gt                11387
_reflns_threshold_expression     >2sigma(I)

_computing_data_collection       'APEX2 (Bruker-AXS, 2007)'
_computing_cell_refinement       'APEX2 (Bruker-AXS, 2007)'
_computing_data_reduction        'APEX2 (Bruker-AXS, 2007)'
_computing_structure_solution    'SHELXS-97 (Sheldrick, 2008)'
_computing_structure_refinement  'SHELXL-97 (Sheldrick, 2008)'
_computing_molecular_graphics    XP
_computing_publication_material  XCIF

_refine_special_details          
;
Refinement of F^2^ against ALL reflections. The weighted R-factor wR and
goodness of fit S are based on F^2^, conventional R-factors R are based
on F, with F set to zero for negative F^2^. The threshold expression of
F^2^ > 2sigma(F^2^) is used only for calculating R-factors(gt) etc. and is
not relevant to the choice of reflections for refinement. R-factors based
on F^2^ are statistically about twice as large as those based on F, and R-
factors based on ALL data will be even larger.
;

_refine_ls_structure_factor_coef Fsqd
_refine_ls_matrix_type           full
_refine_ls_weighting_scheme      calc
_refine_ls_weighting_details     
'calc w=1/[\s^2^(Fo^2^)+(0.1000P)^2^+15.5000P] where P=(Fo^2^+2Fc^2^)/3'
_atom_sites_solution_primary     direct
_atom_sites_solution_secondary   difmap
_atom_sites_solution_hydrogens   geom
_refine_ls_hydrogen_treatment    constr
_refine_ls_extinction_method     none
_refine_ls_extinction_coef       ?
_refine_ls_number_reflns         22059
_refine_ls_number_parameters     1051
_refine_ls_number_restraints     8
_refine_ls_R_factor_all          0.1351
_refine_ls_R_factor_gt           0.0981
_refine_ls_wR_factor_ref         0.2521
_refine_ls_wR_factor_gt          0.2371
_refine_ls_goodness_of_fit_ref   1.096
_refine_ls_restrained_S_all      1.097
_refine_ls_shift/su_max          0.007
_refine_ls_shift/su_mean         0.000

loop_
_platon_squeeze_void_nr
_platon_squeeze_void_average_x
_platon_squeeze_void_average_y
_platon_squeeze_void_average_z
_platon_squeeze_void_volume
_platon_squeeze_void_count_electrons
1 -0.042 -0.010 0.497 2797.3 435.3
2 0.490 0.416 0.395 11.2 0.1
3 0.510 0.584 0.605 11.2 5.6
_platon_squeeze_details          
;
;

loop_
_atom_site_label
_atom_site_type_symbol
_atom_site_fract_x
_atom_site_fract_y
_atom_site_fract_z
_atom_site_U_iso_or_equiv
_atom_site_adp_type
_atom_site_occupancy
_atom_site_symmetry_multiplicity
_atom_site_calc_flag
_atom_site_refinement_flags
_atom_site_disorder_assembly
_atom_site_disorder_group
Zn1 Zn 0.95825(6) 0.27512(5) 0.45648(4) 0.0237(2) Uani 1 1 d . . .
Zn2 Zn 0.80976(7) 0.42122(5) 0.45790(5) 0.0332(3) Uani 1 1 d . . .
Zn3 Zn 0.80667(6) 0.29382(5) 0.58644(4) 0.0259(2) Uani 1 1 d . . .
Zn4 Zn 0.77187(7) 0.27558(5) 0.45265(5) 0.0318(3) Uani 1 1 d . . .
Zn5 Zn 0.21705(7) 0.85364(5) 1.01931(5) 0.0282(3) Uani 1 1 d . . .
Zn6 Zn 0.36738(6) 0.71217(5) 1.01399(5) 0.0267(3) Uani 1 1 d . . .
Zn7 Zn 0.39333(6) 0.85916(5) 1.02133(4) 0.0235(2) Uani 1 1 d . . .
Zn8 Zn 0.36715(7) 0.84177(5) 0.87970(5) 0.0288(3) Uani 1 1 d . . .
O1 O 0.7591(5) 0.4748(3) 0.5325(3) 0.055(2) Uani 1 1 d . . .
O2 O 0.7591(4) 0.3798(3) 0.6262(3) 0.0455(18) Uani 1 1 d . . .
O3 O 0.4571(5) 0.7411(4) 0.8655(4) 0.061(2) Uani 1 1 d . . .
O4 O 0.4307(4) 0.6473(4) 0.9519(3) 0.0471(18) Uani 1 1 d . . .
O5 O 1.0154(5) 0.2261(4) 0.5324(3) 0.063(2) Uani 1 1 d . . .
O6 O 0.9050(5) 0.2431(4) 0.6232(3) 0.056(2) Uani 1 1 d . . .
O7 O 1.0196(4) 0.3463(4) 0.3962(4) 0.0493(19) Uani 1 1 d . . .
O8 O 0.9138(5) 0.4508(4) 0.4105(4) 0.063(2) Uani 1 1 d . . .
O9 O 0.7475(7) 0.4649(5) 0.3908(5) 0.088(3) Uani 1 1 d . . .
O10 O 0.7601(6) 0.3583(5) 0.3647(4) 0.085(3) Uani 1 1 d . . .
O11 O 0.7574(6) 0.1882(4) 0.5404(4) 0.075(3) Uani 1 1 d . . .
O12 O 0.7336(5) 0.2331(4) 0.6320(4) 0.062(2) Uani 1 1 d . . .
O13 O 0.9912(5) 0.2029(4) 0.4014(4) 0.0512(19) Uani 1 1 d . . .
O14 O 0.8654(4) 0.2036(4) 0.3965(3) 0.0419(16) Uani 1 1 d . . .
O15 O 0.6664(6) 0.3472(5) 0.5132(5) 0.084(3) Uani 1 1 d D . .
O16 O 0.2725(5) 0.6752(4) 1.0692(4) 0.058(2) Uani 1 1 d . . .
O17 O 0.1616(4) 0.7755(3) 1.0684(3) 0.0427(17) Uani 1 1 d . . .
O18 O 0.4403(5) 0.6840(4) 1.0779(4) 0.056(2) Uani 1 1 d . . .
O19 O 0.4742(4) 0.7847(3) 1.0697(3) 0.0372(16) Uani 1 1 d . . .
O20 O 0.4645(5) 0.8824(4) 0.8712(3) 0.0502(19) Uani 1 1 d . . .
O21 O 0.4455(4) 0.9324(3) 0.9585(3) 0.0383(16) Uani 1 1 d . . .
O22 O 0.2773(5) 0.9435(4) 0.8762(4) 0.059(2) Uani 1 1 d . . .
O23 O 0.1587(4) 0.9305(4) 0.9572(3) 0.0465(18) Uani 1 1 d . . .
O24 O 0.1924(4) 0.9037(4) 1.0949(3) 0.0410(16) Uani 1 1 d . . .
O25 O 0.3162(5) 0.9147(4) 1.0917(3) 0.0469(18) Uani 1 1 d . . .
O26 O 0.3952(5) 0.8683(4) 0.7705(3) 0.054(2) Uani 1 1 d . . .
O27 O 0.2731(6) 0.7951(5) 0.8852(4) 0.072(3) Uani 1 1 d . . .
O28 O 0.6879(5) 0.2425(5) 0.4269(5) 0.072(2) Uani 1 1 d . . .
O29 O 0.8388(4) 0.3153(3) 0.4867(3) 0.0302(14) Uani 1 1 d . . .
O30 O 0.3362(4) 0.8173(3) 0.9840(3) 0.0257(13) Uani 1 1 d . . .
N1 N 0.2006(10) 0.7611(9) 0.8288(8) 0.123(5) Uani 1 1 d D . .
N2 N 0.6460(11) 0.1526(9) 0.4082(8) 0.123(5) Uani 1 1 d . . .
C1 C 0.7435(13) 0.4449(12) 0.5981(10) 0.121(2) Uani 1 1 d . . .
C2 C 0.6940(8) 0.5009(5) 0.6440(4) 0.051(3) Uani 1 1 d . . .
C3 C 0.6726(7) 0.5762(5) 0.6168(4) 0.056(3) Uani 1 1 d . . .
H3A H 0.6907 0.5935 0.5683 0.067 Uiso 1 1 calc R . .
C4 C 0.6257(7) 0.6269(6) 0.6583(5) 0.054(3) Uani 1 1 d . . .
H4A H 0.6114 0.6781 0.6388 0.065 Uiso 1 1 calc R . .
C5 C 0.5999(6) 0.6002(5) 0.7302(5) 0.042(2) Uani 1 1 d . . .
C6 C 0.5488(7) 0.6484(6) 0.7749(5) 0.054(3) Uani 1 1 d . . .
H6A H 0.5327 0.6998 0.7565 0.065 Uiso 1 1 calc R . .
C7 C 0.5221(7) 0.6218(5) 0.8448(5) 0.044(3) Uani 1 1 d . . .
C8 C 0.5480(7) 0.5436(5) 0.8743(5) 0.052(3) Uani 1 1 d . . .
H8A H 0.5301 0.5253 0.9227 0.062 Uiso 1 1 calc R . .
C9 C 0.5973(7) 0.4979(6) 0.8325(5) 0.057(3) Uani 1 1 d . . .
H9A H 0.6146 0.4468 0.8518 0.068 Uiso 1 1 calc R . .
C10 C 0.6249(5) 0.5235(4) 0.7596(4) 0.028(2) Uani 1 1 d . . .
C11 C 0.6717(6) 0.4753(5) 0.7142(5) 0.043(3) Uani 1 1 d . . .
H11A H 0.6882 0.4239 0.7327 0.052 Uiso 1 1 calc R . .
C12 C 0.4655(7) 0.6740(5) 0.8918(5) 0.047(3) Uani 1 1 d . . .
C13 C 0.9849(6) 0.2173(6) 0.5964(5) 0.046(3) Uani 1 1 d . . .
C14 C 0.9867(8) 0.4159(6) 0.3809(6) 0.058(3) Uani 1 1 d . . .
C15 C 0.7430(13) 0.4258(13) 0.3568(10) 0.121(2) Uani 1 1 d . . .
C16 C 0.7277(9) 0.1926(7) 0.6033(5) 0.070(4) Uani 1 1 d . . .
C17 C 0.9417(7) 0.1851(5) 0.3815(5) 0.042(3) Uani 1 1 d . . .
C18 C 0.1996(7) 0.7054(6) 1.0884(5) 0.048(3) Uani 1 1 d . . .
C19 C 0.1453(6) 0.6609(6) 1.1407(5) 0.046(3) Uani 1 1 d . . .
C20 C 0.1792(8) 0.5860(6) 1.1649(6) 0.060(3) Uani 1 1 d . . .
H20A H 0.2353 0.5639 1.1436 0.072 Uiso 1 1 calc R . .
C21 C 0.1347(7) 0.5418(6) 1.2187(6) 0.054(3) Uani 1 1 d . . .
C22 C 0.1630(8) 0.4691(6) 1.2434(6) 0.069(4) Uani 1 1 d . . .
H22A H 0.2173 0.4451 1.2202 0.083 Uiso 1 1 calc R . .
C23 C 0.1236(8) 0.4286(6) 1.2958(7) 0.081(5) Uani 1 1 d . . .
H23A H 0.1512 0.3795 1.3142 0.097 Uiso 1 1 calc R . .
C24 C 0.0399(7) 0.4594(5) 1.3241(5) 0.048(3) Uani 1 1 d . . .
C25 C 0.0036(8) 0.5323(6) 1.2987(6) 0.065(3) Uani 1 1 d . . .
H25A H -0.0537 0.5533 1.3178 0.077 Uiso 1 1 calc R . .
C26 C 0.0489(7) 0.5760(5) 1.2459(6) 0.055(3) Uani 1 1 d . . .
C27 C 0.0116(7) 0.6520(6) 1.2193(7) 0.065(4) Uani 1 1 d . . .
H27A H -0.0458 0.6742 1.2368 0.078 Uiso 1 1 calc R . .
C28 C 0.0614(7) 0.6925(6) 1.1674(6) 0.066(4) Uani 1 1 d . . .
H28A H 0.0375 0.7430 1.1497 0.079 Uiso 1 1 calc R . .
C29 C 0.4798(13) 0.7156(12) 1.0910(10) 0.121(2) Uani 1 1 d . . .
C30 C 0.5361(7) 0.6712(5) 1.1365(5) 0.044(3) Uani 1 1 d . . .
C31 C 0.5435(9) 0.5983(6) 1.1610(6) 0.063(4) Uani 1 1 d . . .
H31A H 0.5153 0.5763 1.1449 0.076 Uiso 1 1 calc R . .
C32 C 0.5897(8) 0.5542(6) 1.2079(7) 0.066(4) Uani 1 1 d . . .
C33 C 0.5961(9) 0.4792(6) 1.2351(6) 0.070(4) Uani 1 1 d . . .
H33A H 0.5672 0.4562 1.2208 0.084 Uiso 1 1 calc R . .
C34 C 0.6428(11) 0.4383(7) 1.2817(7) 0.092(5) Uani 1 1 d . . .
H34A H 0.6452 0.3877 1.2999 0.111 Uiso 1 1 calc R . .
C35 C 0.6887(9) 0.4722(8) 1.3032(6) 0.075(4) Uani 1 1 d . . .
C36 C 0.6863(9) 0.5454(6) 1.2759(6) 0.072(4) Uani 1 1 d . . .
H36A H 0.7155 0.5680 1.2903 0.086 Uiso 1 1 calc R . .
C37 C 0.6390(9) 0.5865(7) 1.2258(6) 0.068(4) Uani 1 1 d . . .
C38 C 0.6343(9) 0.6616(7) 1.1996(6) 0.078(4) Uani 1 1 d . . .
H38A H 0.6651 0.6840 1.2125 0.093 Uiso 1 1 calc R . .
C39 C 0.5847(9) 0.7015(6) 1.1555(6) 0.075(4) Uani 1 1 d . . .
H39A H 0.5828 0.7519 1.1367 0.090 Uiso 1 1 calc R . .
C40 C 0.4671(7) 0.9320(5) 0.8940(5) 0.039(2) Uani 1 1 d . . .
C41 C 0.5108(6) 0.9894(5) 0.8457(5) 0.039(2) Uani 1 1 d . . .
C42 C 0.5115(6) 1.0474(5) 0.8718(5) 0.038(2) Uani 1 1 d . . .
H42A H 0.4865 1.0496 0.9191 0.045 Uiso 1 1 calc R . .
C43 C 0.5482(7) 1.0996(5) 0.8284(4) 0.042(3) Uani 1 1 d . . .
H43A H 0.5457 1.1405 0.8444 0.050 Uiso 1 1 calc R . .
C44 C 0.5913(6) 1.0935(5) 0.7577(4) 0.038(2) Uani 1 1 d . . .
C45 C 0.6356(7) 1.1427(6) 0.7141(5) 0.050(3) Uani 1 1 d . . .
H45A H 0.6355 1.1829 0.7298 0.060 Uiso 1 1 calc R . .
C46 C 0.6801(8) 1.1337(7) 0.6473(6) 0.066(4) Uani 1 1 d . . .
C47 C 0.6787(8) 1.0767(6) 0.6235(6) 0.064(3) Uani 1 1 d . . .
H47A H 0.7099 1.0701 0.5782 0.077 Uiso 1 1 calc R . .
C48 C 0.6334(8) 1.0303(7) 0.6643(6) 0.073(4) Uani 1 1 d . . .
H48A H 0.6288 0.9945 0.6453 0.088 Uiso 1 1 calc R . .
C49 C 0.5933(6) 1.0327(5) 0.7325(5) 0.039(2) Uani 1 1 d . . .
C50 C 0.5509(6) 0.9816(5) 0.7784(5) 0.039(2) Uani 1 1 d . . .
H50A H 0.5498 0.9416 0.7631 0.047 Uiso 1 1 calc R . .
C51 C 0.2035(8) 0.9576(6) 0.8987(5) 0.048(3) Uani 1 1 d . . .
C52 C 0.1483(7) 1.0170(6) 0.8520(5) 0.053(3) Uani 1 1 d . . .
C53 C 0.0644(6) 1.0501(5) 0.8787(5) 0.037(2) Uani 1 1 d . . .
H53A H 0.0394 1.0378 0.9268 0.045 Uiso 1 1 calc R . .
C54 C 0.0175(6) 1.1020(4) 0.8335(4) 0.032(2) Uani 1 1 d . . .
H54A H -0.0382 1.1278 0.8519 0.038 Uiso 1 1 calc R . .
C55 C 0.0519(6) 1.1164(6) 0.7608(5) 0.042(3) Uani 1 1 d . . .
C56 C 0.0023(6) 1.1634(6) 0.7136(5) 0.049(3) Uani 1 1 d . . .
H56A H -0.0547 1.1871 0.7306 0.059 Uiso 1 1 calc R . .
C57 C 0.0372(7) 1.1740(6) 0.6443(5) 0.051(3) Uani 1 1 d . . .
C58 C 0.1233(8) 1.1413(7) 0.6188(6) 0.071(4) Uani 1 1 d . . .
H58A H 0.1481 1.1520 0.5705 0.085 Uiso 1 1 calc R . .
C59 C 0.1688(7) 1.0967(7) 0.6611(5) 0.076(5) Uani 1 1 d . . .
H59A H 0.2251 1.0722 0.6429 0.092 Uiso 1 1 calc R . .
C60 C 0.1345(7) 1.0844(7) 0.7351(5) 0.061(4) Uani 1 1 d . . .
C61 C 0.1845(7) 1.0326(6) 0.7821(5) 0.052(3) Uani 1 1 d . . .
H61A H 0.2417 1.0097 0.7646 0.062 Uiso 1 1 calc R . .
C62 C 0.2357(8) 0.9272(5) 1.1153(4) 0.043(3) Uani 1 1 d . . .
C63 C 0.1945(6) 0.9755(5) 1.1651(4) 0.038(2) Uani 1 1 d . . .
C64 C 0.2397(7) 1.0137(6) 1.1793(5) 0.048(3) Uani 1 1 d . . .
H64A H 0.2962 1.0101 1.1548 0.057 Uiso 1 1 calc R . .
C65 C 0.2020(8) 1.0561(7) 1.2285(6) 0.060(3) Uani 1 1 d . . .
H65A H 0.2343 1.0756 1.2429 0.072 Uiso 1 1 calc R . .
C66 C 0.1154(6) 1.0704(5) 1.2575(5) 0.039(2) Uani 1 1 d . . .
C67 C 0.0701(8) 1.1187(5) 1.3055(5) 0.050(3) Uani 1 1 d . . .
H67A H 0.0997 1.1422 1.3185 0.060 Uiso 1 1 calc R . .
C68 C -0.0143(7) 1.1315(5) 1.3329(5) 0.050(3) Uani 1 1 d . . .
C69 C -0.0568(8) 1.0949(7) 1.3173(6) 0.062(3) Uani 1 1 d . . .
H69A H -0.1146 1.1024 1.3386 0.074 Uiso 1 1 calc R . .
C70 C -0.0180(8) 1.0461(8) 1.2705(7) 0.081(4) Uani 1 1 d . . .
H70A H -0.0491 1.0212 1.2611 0.097 Uiso 1 1 calc R . .
C71 C 0.0691(7) 1.0358(6) 1.2383(6) 0.053(3) Uani 1 1 d . . .
C72 C 0.1106(7) 0.9870(6) 1.1932(6) 0.053(3) Uani 1 1 d . . .
H72A H 0.0806 0.9622 1.1823 0.064 Uiso 1 1 calc R . .
C73 C 0.2702(11) 0.7775(9) 0.8375(9) 0.104(6) Uani 1 1 d D . .
H73A H 0.3188 0.7737 0.8004 0.125 Uiso 1 1 calc R . .
C74 C 0.2055(12) 0.7340(11) 0.7713(9) 0.121(2) Uani 1 1 d . . .
H74A H 0.1493 0.7376 0.7700 0.181 Uiso 1 1 calc R . .
H74B H 0.2387 0.6825 0.7762 0.181 Uiso 1 1 calc R . .
H74C H 0.2318 0.7633 0.7284 0.181 Uiso 1 1 calc R . .
C75 C 0.1139(12) 0.7883(11) 0.8774(9) 0.121(2) Uani 1 1 d . . .
H75A H 0.1051 0.7497 0.9190 0.181 Uiso 1 1 calc R . .
H75B H 0.0704 0.7999 0.8532 0.181 Uiso 1 1 calc R . .
H75C H 0.1116 0.8325 0.8905 0.181 Uiso 1 1 calc R . .
C76 C 0.7002(11) 0.1779(11) 0.4289(11) 0.132(9) Uani 1 1 d . . .
H76A H 0.7466 0.1431 0.4444 0.159 Uiso 1 1 calc R . .
C77 C 0.5703(12) 0.2007(11) 0.3931(9) 0.121(2) Uani 1 1 d . . .
H77A H 0.5373 0.2248 0.4319 0.181 Uiso 1 1 calc R . .
H77B H 0.5389 0.1726 0.3859 0.181 Uiso 1 1 calc R . .
H77C H 0.5825 0.2380 0.3511 0.181 Uiso 1 1 calc R . .
C78 C 0.6719(12) 0.0711(11) 0.4182(9) 0.121(2) Uani 1 1 d . . .
H78A H 0.7037 0.0573 0.3738 0.181 Uiso 1 1 calc R . .
H78B H 0.6224 0.0529 0.4359 0.181 Uiso 1 1 calc R . .
H78C H 0.7067 0.0495 0.4514 0.181 Uiso 1 1 calc R . .
N3 N 0.5252(7) 0.3827(8) 0.5657(8) 0.175(9) Uani 1 1 d D . .
C80 C 0.4426(9) 0.3921(10) 0.5559(9) 0.121(2) Uani 1 1 d D . .
H80A H 0.4190 0.4438 0.5357 0.181 Uiso 1 1 calc R . .
H80B H 0.4054 0.3775 0.6007 0.181 Uiso 1 1 calc R . .
H80C H 0.4486 0.3613 0.5247 0.181 Uiso 1 1 calc R . .
C79 C 0.5933(9) 0.3556(10) 0.5141(9) 0.121(2) Uani 1 1 d D . .
H79A H 0.5830 0.3431 0.4779 0.145 Uiso 1 1 calc R . .
C81 C 0.5399(12) 0.4005(10) 0.6199(9) 0.121(2) Uani 1 1 d D . .
H81A H 0.5807 0.3588 0.6404 0.181 Uiso 1 1 calc R . .
H81B H 0.4877 0.4114 0.6554 0.181 Uiso 1 1 calc R . .
H81C H 0.5617 0.4436 0.6018 0.181 Uiso 1 1 calc R . .

loop_
_atom_site_aniso_label
_atom_site_aniso_U_11
_atom_site_aniso_U_22
_atom_site_aniso_U_33
_atom_site_aniso_U_23
_atom_site_aniso_U_13
_atom_site_aniso_U_12
Zn1 0.0340(6) 0.0125(5) 0.0122(4) -0.0007(3) 0.0035(4) -0.0016(4)
Zn2 0.0460(7) 0.0224(5) 0.0217(5) -0.0031(4) 0.0012(5) -0.0083(5)
Zn3 0.0353(6) 0.0182(5) 0.0171(5) -0.0014(4) -0.0006(4) -0.0065(4)
Zn4 0.0502(7) 0.0190(5) 0.0193(5) -0.0026(4) -0.0071(5) -0.0037(5)
Zn5 0.0440(7) 0.0167(5) 0.0164(5) 0.0014(4) -0.0019(4) -0.0089(5)
Zn6 0.0343(6) 0.0175(5) 0.0212(5) -0.0014(4) -0.0011(4) -0.0064(4)
Zn7 0.0336(6) 0.0139(5) 0.0135(4) 0.0004(4) -0.0007(4) -0.0030(4)
Zn8 0.0376(6) 0.0241(5) 0.0197(5) -0.0023(4) -0.0009(4) -0.0104(5)
O1 0.101(6) 0.030(4) 0.020(3) -0.011(3) 0.005(4) -0.015(4)
O2 0.060(5) 0.025(3) 0.038(4) -0.010(3) 0.004(3) -0.007(3)
O3 0.072(6) 0.030(4) 0.049(4) -0.015(3) 0.020(4) 