
#######################################################################
#
#                 Cambridge Crystallographic Data Centre
#                                CCDC
#
#######################################################################
#
# If this CIF has been generated from an entry in the Cambridge
# Structural Database, then it will include bibliographic, chemical,
# crystal, experimental, refinement or atomic coordinate data resulting
# from the CCDC's data processing and validation procedures.
#
#######################################################################

data_CSD_CIF_CAMHFA
_audit_creation_date 1971-12-31
_audit_creation_method CSD-ConQuest-V1
_database_code_CSD CAMHFA
_database_code_depnum_ccdc_archive 'CCDC 1119988'
_chemical_formula_sum 'C20 H4 Am1 Cs1 F24 O8'
_chemical_formula_moiety
;
Cs1 1+,C20 H4 Am1 F24 O8 1-
;
_journal_coden_Cambridge 9
_journal_volume 8
_journal_year 1969
_journal_page_first 1780
_journal_name_full 'Inorg.Chem. '
loop_
_publ_author_name
"J.H.Burns"
"M.D.Danford"
_chemical_name_systematic
;
Cesium tetrakis(hexafluoroacetylacetonato)-americium(iii)
;
_chemical_name_common
;
Teaching Subset: Fundamental Chemistry
;
_cell_volume   3298.689
_diffrn_ambient_temperature ?
_diffrn_special_details
;
The study was carried out at room temperature,in the range 283-303K

;
#These two values have been output from a single CSD field.
_refine_ls_R_factor_gt 0.06
_refine_ls_wR_factor_gt 0.06
_symmetry_cell_setting orthorhombic
_symmetry_space_group_name_H-M 'P b c n'
_symmetry_Int_Tables_number 60
loop_
_symmetry_equiv_pos_site_id
_symmetry_equiv_pos_as_xyz
1 x,y,z
2 1/2-x,1/2-y,1/2+z
3 1/2+x,1/2-y,-z
4 -x,y,1/2-z
5 -x,-y,-z
6 -1/2+x,-1/2+y,-1/2-z
7 -1/2-x,-1/2+y,z
8 x,-y,-1/2+z
_cell_length_a 8.62(2)
_cell_length_b 21.93(6)
_cell_length_c 17.45(5)
_cell_angle_alpha 90
_cell_angle_beta 90
_cell_angle_gamma 90
_cell_formula_units_Z 4
loop_
_atom_type_symbol
_atom_type_radius_bond
C 0.68
Am 1.40
Cs 1.67
F 0.64
O 0.68
loop_
_atom_site_label
_atom_site_type_symbol
_atom_site_fract_x
_atom_site_fract_y
_atom_site_fract_z
Am1 Am 0.00000 0.31633 0.25000
C1 C -0.41900 0.41100 0.38100
C2 C 0.28500 0.21400 0.44200
C3 C -0.24100 0.40500 0.35400
C4 C -0.14200 0.44900 0.37700
C5 C 0.02200 0.44100 0.35900
C6 C 0.11300 0.49400 0.38300
C7 C -0.22500 0.13800 0.35000
C8 C -0.09600 0.18800 0.35000
C9 C 0.03400 0.17700 0.39200
C10 C 0.14200 0.22500 0.39200
F1 F -0.43200 0.44300 0.43500
F2 F 0.25600 0.24300 0.50400
F3 F 0.41400 0.23500 0.42300
F4 F 0.30500 0.16100 0.46600
F5 F -0.49000 0.36700 0.39100
F6 F -0.48400 0.44000 0.33300
F7 F 0.21600 0.47600 0.43500
F8 F 0.19800 0.51500 0.33200
F9 F 0.04700 0.54000 0.41900
F10 F -0.21300 0.10300 0.40600
F11 F -0.18200 0.09800 0.30200
F12 F -0.34800 0.14900 0.34400
O1 O -0.22700 0.35540 0.31550
O2 O 0.08000 0.39980 0.32550
O3 O -0.14100 0.22940 0.30480
O4 O 0.15600 0.27350 0.35120
Cs1 Cs 0.50000 0.26803 0.25000
O1C O 0.22700 0.35540 0.18450
O2C O -0.08000 0.39980 0.17450
O3C O 0.14100 0.22940 0.19520
O4C O -0.15600 0.27350 0.14880
C3C C 0.24100 0.40500 0.14600
C5C C -0.02200 0.44100 0.14100
C8C C 0.09600 0.18800 0.15000
C10C C -0.14200 0.22500 0.10800
C1C C 0.41900 0.41100 0.11900
C4C C 0.14200 0.44900 0.12300
C6C C -0.11300 0.49400 0.11700
C7C C 0.22500 0.13800 0.15000
C9C C -0.03400 0.17700 0.10800
C2C C -0.28500 0.21400 0.05800
F1C F 0.43200 0.44300 0.06500
F5C F 0.49000 0.36700 0.10900
F6C F 0.48400 0.44000 0.16700
F7C F -0.21600 0.47600 0.06500
F8C F -0.19800 0.51500 0.16800
F9C F -0.04700 0.54000 0.08100
F10C F 0.21300 0.10300 0.09400
F11C F 0.18200 0.09800 0.19800
F12C F 0.34800 0.14900 0.15600
F2C F -0.25600 0.24300 -0.00400
F3C F -0.41400 0.23500 0.07700
F4C F -0.30500 0.16100 0.03400
#END
