
#######################################################################
#
#                 Cambridge Crystallographic Data Centre
#                                CCDC
#
#######################################################################
#
# If this CIF has been generated from an entry in the Cambridge
# Structural Database, then it will include bibliographic, chemical,
# crystal, experimental, refinement or atomic coordinate data resulting
# from the CCDC's data processing and validation procedures.
#
#######################################################################

data_CSD_CIF_CAMXAP01
_audit_creation_date 1988-06-10
_audit_creation_method CSD-ConQuest-V1
_database_code_CSD CAMXAP01
_database_code_depnum_ccdc_archive 'CCDC 1120072'
_chemical_formula_sum 'C16 H16 V2'
_chemical_formula_moiety
;
C16 H16 V2
;
_journal_coden_Cambridge 179
_journal_volume 24
_journal_year 1985
_journal_page_first 237
_journal_name_full 'Angew.Chem.,Int.Ed. '
loop_
_publ_author_name
"K.Angermund"
"K.H.Claus"
"R.Goddard"
"C.Kruger"
_chemical_name_systematic
;
(\m~2~-\h^12^-Benzene)-bis(\h^5^-cyclopentadienyl)-di-vanadium(i)
;
_chemical_name_common
;
Teaching Subset: Fundamental Chemistry
;
_cell_volume    634.524
_exptl_crystal_density_diffrn 1.623
_diffrn_ambient_temperature 100
_diffrn_special_details
;
electron deformation density study

;
#These two values have been output from a single CSD field.
_refine_ls_R_factor_gt 0.019
_refine_ls_wR_factor_gt 0.019
_symmetry_cell_setting monoclinic
_symmetry_space_group_name_H-M 'P 21/n'
_symmetry_Int_Tables_number 14
loop_
_symmetry_equiv_pos_site_id
_symmetry_equiv_pos_as_xyz
1 x,y,z
2 1/2-x,1/2+y,1/2-z
3 -x,-y,-z
4 -1/2+x,-1/2-y,-1/2+z
_cell_length_a 6.0648(7)
_cell_length_b 7.9125(9)
_cell_length_c 13.357(9)
_cell_angle_alpha 90
_cell_angle_beta 98.134(9)
_cell_angle_gamma 90
_cell_formula_units_Z 2
loop_
_atom_type_symbol
_atom_type_radius_bond
C 0.68
H 0.23
V 1.33
loop_
_atom_site_label
_atom_site_type_symbol
_atom_site_fract_x
_atom_site_fract_y
_atom_site_fract_z
V1 V 0.0703(1) 0.3434(1) -0.0766(1)
C1 C 0.1733(1) 0.6057(1) -0.0313(1)
C2 C 0.2235(1) 0.4957(1) 0.0560(1)
C3 C 0.0497(1) 0.3898(1) 0.0871(1)
C4 C 0.3356(1) 0.1638(1) -0.1186(1)
C5 C 0.1466(1) 0.0666(1) -0.1015(1)
C6 C -0.0371(1) 0.1162(1) -0.1747(1)
C7 C 0.0402(1) 0.2436(1) -0.2368(1)
C8 C 0.2695(1) 0.2726(1) -0.2021(1)
H1 H 0.2845(21) 0.6744(15) -0.0517(10)
H2 H 0.3691(20) 0.4929(16) 0.0927(9)
H3 H 0.0767(22) 0.3215(16) 0.1433(11)
H4 H 0.4807(25) 0.1586(17) -0.0798(10)
H5 H 0.1436(22) -0.0135(17) -0.0518(11)
H6 H -0.1789(23) 0.0711(18) -0.1809(11)
H7 H -0.0462(24) 0.3019(20) -0.2874(11)
H8 H 0.3573(24) 0.3566(17) -0.2282(12)
C1B C -0.1733(1) 0.3943(1) 0.0313(1)
C2B C -0.2235(1) 0.5043(1) -0.0560(1)
C3B C -0.0497(1) 0.6102(1) -0.0871(1)
V1B V -0.0703(1) 0.6566(1) 0.0766(1)
H1B H -0.2845(21) 0.3256(15) 0.0517(10)
H2B H -0.3691(20) 0.5071(16) -0.0927(9)
H3B H -0.0767(22) 0.6785(16) -0.1433(11)
C4B C -0.3356(1) 0.8362(1) 0.1186(1)
C5B C -0.1466(1) 0.9334(1) 0.1015(1)
C6B C 0.0371(1) 0.8838(1) 0.1747(1)
C7B C -0.0402(1) 0.7564(1) 0.2368(1)
C8B C -0.2695(1) 0.7274(1) 0.2021(1)
H4B H -0.4807(25) 0.8414(17) 0.0798(10)
H5B H -0.1436(22) 1.0135(17) 0.0518(11)
H6B H 0.1789(23) 0.9289(18) 0.1809(11)
H7B H 0.0462(24) 0.6981(20) 0.2874(11)
H8B H -0.3573(24) 0.6434(17) 0.2282(12)
#END
