####################################################################### 
# 
# This file contains crystal structure data downloaded from the 
# Cambridge Structural Database (CSD) hosted by the Cambridge 
# Crystallographic Data Centre (CCDC).
# 
# Full information about CCDC data access policies and citation 
# guidelines are available at http://www.ccdc.cam.ac.uk/access/V1 
# 
# Audit and citation data items may have been added by the CCDC. 
# Please retain this information to preserve the provenance of 
# this file and to allow appropriate attribution of the data. 
# 
#######################################################################

data_compound1
_audit_block_doi                 10.5517/ccx2wrl
_database_code_depnum_ccdc_archive 'CCDC 836930'
loop_
_citation_id
_citation_doi
_citation_year
1 10.1002/chem.201103688 2012
_audit_update_record             
;
2011-07-27 deposited with the CCDC.	2024-07-09 downloaded from the CCDC.
;


_audit_creation_method           SHELXL-97
_chemical_name_systematic        
;
?
;
_chemical_name_common            ?
_chemical_melting_point          ?
_chemical_formula_moiety         ?
_chemical_formula_sum            'C54 H84 Fe2 N6 Ni O16.84 S3'
_chemical_formula_weight         1353.28

loop_
_atom_type_symbol
_atom_type_description
_atom_type_scat_dispersion_real
_atom_type_scat_dispersion_imag
_atom_type_scat_source
C C 0.0033 0.0016 'International Tables Vol C Tables 4.2.6.8 and 6.1.1.4'
H H 0.0000 0.0000 'International Tables Vol C Tables 4.2.6.8 and 6.1.1.4'
N N 0.0061 0.0033 'International Tables Vol C Tables 4.2.6.8 and 6.1.1.4'
O O 0.0106 0.0060 'International Tables Vol C Tables 4.2.6.8 and 6.1.1.4'
Fe Fe 0.3463 0.8444 'International Tables Vol C Tables 4.2.6.8 and 6.1.1.4'
S S 0.1246 0.1234 'International Tables Vol C Tables 4.2.6.8 and 6.1.1.4'
Ni Ni 0.3393 1.1124 'International Tables Vol C Tables 4.2.6.8 and 6.1.1.4'

_symmetry_cell_setting           Trigonal
_symmetry_space_group_name_H-M   P-31c

loop_
_symmetry_equiv_pos_as_xyz
'x, y, z'
'-y, x-y, z'
'-x+y, -x, z'
'-y, -x, -z+1/2'
'-x+y, y, -z+1/2'
'x, x-y, -z+1/2'
'-x, -y, -z'
'y, -x+y, -z'
'x-y, x, -z'
'y, x, z-1/2'
'x-y, -y, z-1/2'
'-x, -x+y, z-1/2'

_cell_length_a                   16.7748(19)
_cell_length_b                   16.7748(19)
_cell_length_c                   14.9728(18)
_cell_angle_alpha                90.00
_cell_angle_beta                 90.00
_cell_angle_gamma                120.00
_cell_volume                     3648.8(7)
_cell_formula_units_Z            2
_cell_measurement_temperature    150(2)
_cell_measurement_reflns_used    1236
_cell_measurement_theta_min      2.43
_cell_measurement_theta_max      17.25

_exptl_crystal_description       rhombic
_exptl_crystal_colour            'dark green'
_exptl_crystal_size_max          0.04
_exptl_crystal_size_mid          0.04
_exptl_crystal_size_min          0.01
_exptl_crystal_density_meas      ?
_exptl_crystal_density_diffrn    1.234
_exptl_crystal_density_method    'not measured'
_exptl_crystal_F_000             1428
_exptl_absorpt_coefficient_mu    0.794
_exptl_absorpt_correction_type   none
_exptl_absorpt_correction_T_min  ?
_exptl_absorpt_correction_T_max  ?
_exptl_absorpt_process_details   ?

_exptl_special_details           
;
?
;

_diffrn_ambient_temperature      150(2)
_diffrn_radiation_wavelength     0.71073
_diffrn_radiation_type           MoK\a
_diffrn_radiation_source         'fine-focus sealed tube'
_diffrn_radiation_monochromator  graphite
_diffrn_measurement_device_type  'Bruker APEX-II CCD'
_diffrn_measurement_method       '\f and \w scans'
_diffrn_detector_area_resol_mean ?
_diffrn_standards_number         ?
_diffrn_standards_interval_count ?
_diffrn_standards_interval_time  ?
_diffrn_standards_decay_%        ?
_diffrn_reflns_number            21938
_diffrn_reflns_av_R_equivalents  0.1171
_diffrn_reflns_av_sigmaI/netI    0.0620
_diffrn_reflns_limit_h_min       -21
_diffrn_reflns_limit_h_max       20
_diffrn_reflns_limit_k_min       -19
_diffrn_reflns_limit_k_max       21
_diffrn_reflns_limit_l_min       -18
_diffrn_reflns_limit_l_max       18
_diffrn_reflns_theta_min         1.40
_diffrn_reflns_theta_max         26.59
_reflns_number_total             2563
_reflns_number_gt                1446
_reflns_threshold_expression     >2sigma(I)

_computing_data_collection       'Bruker APEX2'
_computing_cell_refinement       'Bruker SAINT'
_computing_data_reduction        'Bruker SAINT'
_computing_structure_solution    'SHELXS-97 (Sheldrick, 1990)'
_computing_structure_refinement  'SHELXL-97 (Sheldrick, 1997)'
_computing_molecular_graphics    'Bruker SHELXTL'
_computing_publication_material  'Bruker SHELXTL'

_refine_special_details          
;
Refinement of F^2^ against ALL reflections. The weighted R-factor wR and
goodness of fit S are based on F^2^, conventional R-factors R are based
on F, with F set to zero for negative F^2^. The threshold expression of
F^2^ > 2sigma(F^2^) is used only for calculating R-factors(gt) etc. and is
not relevant to the choice of reflections for refinement. R-factors based
on F^2^ are statistically about twice as large as those based on F, and R-
factors based on ALL data will be even larger.
;

_refine_ls_structure_factor_coef Fsqd
_refine_ls_matrix_type           full
_refine_ls_weighting_scheme      calc
_refine_ls_weighting_details     
'calc w=1/[\s^2^(Fo^2^)+(0.1920P)^2^+1.2009P] where P=(Fo^2^+2Fc^2^)/3'
_atom_sites_solution_primary     direct
_atom_sites_solution_secondary   difmap
_atom_sites_solution_hydrogens   geom
_refine_ls_hydrogen_treatment    constr
_refine_ls_extinction_method     none
_refine_ls_extinction_coef       ?
_refine_ls_number_reflns         2563
_refine_ls_number_parameters     170
_refine_ls_number_restraints     3
_refine_ls_R_factor_all          0.1479
_refine_ls_R_factor_gt           0.0884
_refine_ls_wR_factor_ref         0.3121
_refine_ls_wR_factor_gt          0.2575
_refine_ls_goodness_of_fit_ref   1.071
_refine_ls_restrained_S_all      1.074
_refine_ls_shift/su_max          0.000
_refine_ls_shift/su_mean         0.000

loop_
_atom_site_label
_atom_site_type_symbol
_atom_site_fract_x
_atom_site_fract_y
_atom_site_fract_z
_atom_site_U_iso_or_equiv
_atom_site_adp_type
_atom_site_occupancy
_atom_site_symmetry_multiplicity
_atom_site_calc_flag
_atom_site_refinement_flags
_atom_site_disorder_assembly
_atom_site_disorder_group
Fe1 Fe 0.60180(4) 0.20361(7) 0.2500 0.0441(5) Uani 0.67 2 d SP . .
Ni1 Ni 0.60180(4) 0.20361(7) 0.2500 0.0441(5) Uani 0.33 2 d SP . .
N1 N 0.5270(2) 0.0539(4) 0.2500 0.0479(17) Uani 1 2 d S . .
N2 N 0.2863(3) -0.2863(3) 0.2500 0.0509(18) Uani 1 2 d S . .
O1M O 0.6667 0.3333 0.2500 0.0359(19) Uani 1 6 d S . .
O1 O 0.6792(4) 0.1897(3) 0.1540(4) 0.0697(15) Uani 1 1 d . . .
O2 O 0.5105(4) 0.1899(3) 0.1541(4) 0.0714(15) Uani 1 1 d . . .
C1 C 0.7552(4) 0.2446(5) 0.1220(4) 0.0541(16) Uani 1 1 d . A .
C2 C 0.7864(6) 0.2132(6) 0.0401(6) 0.082(3) Uani 1 1 d . . .
C3 C 0.881(2) 0.272(2) 0.017(3) 0.20(3) Uani 0.50 1 d P A 1
H3A H 0.8952 0.2486 -0.0372 0.307 Uiso 0.50 1 calc PR A 1
H3B H 0.9203 0.2738 0.0659 0.307 Uiso 0.50 1 calc PR A 1
H3C H 0.8921 0.3344 0.0054 0.307 Uiso 0.50 1 calc PR A 1
C4 C 0.778(3) 0.1213(19) 0.065(2) 0.136(10) Uani 0.50 1 d P A 1
H4A H 0.7132 0.0742 0.0701 0.204 Uiso 0.50 1 calc PR A 1
H4B H 0.8090 0.1274 0.1226 0.204 Uiso 0.50 1 calc PR A 1
H4C H 0.8077 0.1033 0.0190 0.204 Uiso 0.50 1 calc PR A 1
C5 C 0.706(6) 0.189(12) -0.031(3) 1.1(3) Uani 0.50 1 d P A 1
H5A H 0.6458 0.1525 -0.0021 1.650 Uiso 0.50 1 calc PR A 1
H5B H 0.7113 0.1543 -0.0808 1.650 Uiso 0.50 1 calc PR A 1
H5C H 0.7111 0.2465 -0.0539 1.650 Uiso 0.50 1 calc PR A 1
C3A C 0.868(2) 0.202(2) 0.071(2) 0.133(10) Uani 0.50 1 d P A 2
H3A1 H 0.9118 0.2564 0.1049 0.199 Uiso 0.50 1 calc PR A 2
H3A2 H 0.8992 0.1946 0.0188 0.199 Uiso 0.50 1 calc PR A 2
H3A3 H 0.8454 0.1472 0.1092 0.199 Uiso 0.50 1 calc PR A 2
C4A C 0.713(2) 0.137(3) -0.003(3) 0.23(3) Uani 0.50 1 d P A 2
H4A1 H 0.6697 0.1542 -0.0274 0.345 Uiso 0.50 1 calc PR A 2
H4A2 H 0.6813 0.0862 0.0395 0.345 Uiso 0.50 1 calc PR A 2
H4A3 H 0.7376 0.1164 -0.0523 0.345 Uiso 0.50 1 calc PR A 2
C5A C 0.805(5) 0.286(3) -0.0309(17) 0.24(3) Uani 0.50 1 d P A 2
H5A1 H 0.8589 0.3442 -0.0136 0.355 Uiso 0.50 1 calc PR A 2
H5A2 H 0.7513 0.2940 -0.0362 0.355 Uiso 0.50 1 calc PR A 2
H5A3 H 0.8166 0.2656 -0.0884 0.355 Uiso 0.50 1 calc PR A 2
C6 C 0.4374(5) 0.0075(5) 0.2503(6) 0.071(2) Uani 1 1 d . . .
H6 H 0.4051 0.0406 0.2509 0.085 Uiso 1 1 calc R . .
C7 C 0.3860(5) -0.0899(5) 0.2498(6) 0.077(2) Uani 1 1 d . . .
H7 H 0.3206 -0.1213 0.2493 0.092 Uiso 1 1 calc R . .
C8 C 0.4312(3) -0.1375(6) 0.2500 0.0450(19) Uani 1 2 d S . .
C9 C 0.3802(3) -0.2396(6) 0.2500 0.0409(18) Uani 1 2 d S . .
O1S O 0.1773(5) -0.1773(5) 0.2500 0.275(14) Uani 1 2 d SD B 1
S1S S 0.1176(8) -0.1176(8) 0.2500 0.68(5) Uani 0.60 2 d SPD B 1
O1W O 0.0000 0.0000 0.0000 0.34(6) Uani 0.48 6 d SP . .
O2W O 0.0000 0.0000 0.145(3) 0.078(14) Uani 0.18 3 d SP . .
C1S C 0.1585(18) -0.0110(15) 0.253(4) 0.86(8) Uani 1 1 d D B 1
H1S1 H 0.2251 0.0194 0.2631 1.297 Uiso 1 1 calc R B 1
H1S2 H 0.1297 0.0046 0.3018 1.297 Uiso 1 1 calc R B 1
H1S3 H 0.1464 0.0100 0.1962 1.297 Uiso 1 1 calc R B 1
S1SA S 0.1178(10) -0.1174(10) 0.2842(9) 0.084(4) Uani 0.20 1 d PD C 2

loop_
_atom_site_aniso_label
_atom_site_aniso_U_11
_atom_site_aniso_U_22
_atom_site_aniso_U_33
_atom_site_aniso_U_23
_atom_site_aniso_U_13
_atom_site_aniso_U_12
Fe1 0.0413(6) 0.0399(7) 0.0505(8) 0.000 0.0003(4) 0.0200(4)
Ni1 0.0413(6) 0.0399(7) 0.0505(8) 0.000 0.0003(4) 0.0200(4)
N1 0.042(3) 0.038(4) 0.063(5) 0.000 0.002(3) 0.0189(19)
N2 0.047(3) 0.047(3) 0.057(4) 0.001(3) 0.001(3) 0.022(3)
O1M 0.031(3) 0.031(3) 0.046(5) 0.000 0.000 0.0154(13)
O1 0.066(3) 0.045(3) 0.086(3) -0.007(2) 0.029(3) 0.018(2)
O2 0.077(3) 0.046(3) 0.087(4) -0.009(2) -0.036(3) 0.028(3)
C1 0.050(4) 0.051(4) 0.059(4) -0.006(3) 0.001(3) 0.024(3)
C2 0.072(5) 0.081(6) 0.075(5) -0.020(4) 0.017(4) 0.023(4)
C3 0.11(2) 0.14(3) 0.27(5) -0.11(3) 0.12(3) -0.011(19)
C4 0.20(3) 0.093(17) 0.14(2) -0.030(16) 0.04(2) 0.09(2)
C5 0.27(8) 1.9(5) 0.05(2) 0.07(7) -0.06(3) -0.23(15)
C3A 0.14(3) 0.13(2) 0.16(2) 0.02(2) 0.05(2) 0.09(2)
C4A 0.11(2) 0.26(4) 0.15(3) -0.17(3) 0.06(2) -0.03(2)
C5A 0.50(9) 0.27(5) 0.054(15) 0.04(2) 0.11(3) 0.27(6)
C6 0.061(5) 0.047(4) 0.109(7) 0.000(4) 0.002(4) 0.030(4)
C7 0.050(4) 0.058(5) 0.125(7) -0.002(5) -0.003(4) 0.029(4)
C8 0.037(3) 0.046(5) 0.054(5) 0.000 -0.001(3) 0.023(2)
C9 0.040(3) 0.041(4) 0.043(4) 0.000 0.000(3) 0.020(2)
O1S 0.171(10) 0.171(10) 0.40(4) 0.014(16) 0.014(16) 0.023(15)
S1S 0.84(12) 0.84(12) 0.52(10) -0.08(11) -0.08(11) 0.54(13)
O1W 0.35(8) 0.35(8) 0.31(14) 0.000 0.000 0.18(4)
O2W 0.09(2) 0.09(2) 0.05(3) 0.000 0.000 0.045(11)
C1S 1.7(2) 0.093(19) 0.47(8) -0.04(3) -0.19(11) 0.23(6)
S1SA 0.091(8) 0.105(9) 0.092(8) 0.002(8) 0.005(8) 0.076(7)

_geom_special_details            
;
All esds (except the esd in the dihedral angle between two l.s. planes)
are estimated using the full covariance matrix. The cell esds are taken
into account individually in the estimation of esds in distances, angles
and torsion angles; correlations between esds in cell parameters are only
used when they are defined by crystal symmetry. An approximate (isotropic)
treatment of cell esds is used for estimating esds involving l.s. planes.
;

loop_
_geom_bond_atom_site_label_1
_geom_bond_atom_site_label_2
_geom_bond_distance
_geom_bond_site_symmetry_2
_geom_bond_publ_flag
Fe1 O1M 1.8846(11) . ?
Fe1 O2 2.027(5) . ?
Fe1 O2 2.027(5) 5_655 ?
Fe1 O1 2.027(4) 5_655 ?
Fe1 O1 2.027(4) . ?
Fe1 N1 2.175(7) . ?
N1 C6 1.301(8) . ?
N1 C6 1.301(8) 5_655 ?
N2 C9 1.364(6) 2_545 ?
N2 C9 1.364(6) . ?
O1M Ni1 1.8846(11) 2_655 ?
O1M Fe1 1.8846(11) 2_655 ?
O1M Ni1 1.8846(11) 3_665 ?
O1M Fe1 1.8846(11) 3_665 ?
O1 C1 1.237(8) . ?
O2 C1 1.237(8) 3_665 ?
C1 O2 1.237(8) 2_655 ?
C1 C2 1.527(10) . ?
C2 C4A 1.42(2) . ?
C2 C3 1.43(2) . ?
C2 C5A 1.53(3) . ?
C2 C4 1.53(3) . ?
C2 C3A 1.55(3) . ?
C2 C5 1.61(8) . ?
C6 C7 1.416(11) . ?
C7 C8 1.349(9) . ?
C8 C7 1.349(9) 5_655 ?
C8 C9 1.483(12) . ?
C9 N2 1.364(6) 3_655 ?
O1S S1S 1.73(2) . ?
S1S C1S 1.56(3) 4 ?
S1S C1S 1.56(3) . ?
S1SA S1SA 1.03(3) 4 ?

loop_
_geom_angle_atom_site_label_1
_geom_angle_atom_site_label_2
_geom_angle_atom_site_label_3
_geom_angle
_geom_angle_site_symmetry_1
_geom_angle_site_symmetry_3
_geom_angle_publ_flag
O1M Fe1 O2 95.65(13) . . ?
O1M Fe1 O2 95.65(13) . 5_655 ?
O2 Fe1 O2 168.7(3) . 5_655 ?
O1M Fe1 O1 95.74(13) . 5_655 ?
O2 Fe1 O1 90.3(2) . 5_655 ?
O2 Fe1 O1 88.6(2) 5_655 5_655 ?
O1M Fe1 O1 95.74(13) . . ?
O2 Fe1 O1 88.6(2) . . ?
O2 Fe1 O1 90.3(2) 5_655 . ?
O1 Fe1 O1 168.5(3) 5_655 . ?
O1M Fe1 N1 180.00(7) . . ?
O2 Fe1 N1 84.35(13) . . ?
O2 Fe1 N1 84.35(13) 5_655 . ?
O1 Fe1 N1 84.26(13) 5_655 . ?
O1 Fe1 N1 84.26(13) . . ?
C6 N1 C6 117.6(8) . 5_655 ?
C6 N1 Fe1 121.2(4) . . ?
C6 N1 Fe1 121.2(4) 5_655 . ?
C9 N2 C9 119.6(8) 2_545 . ?
Fe1 O1M Ni1 120.0 . 2_655 ?
Fe1 O1M Fe1 120.0 . 2_655 ?
Ni1 O1M Fe1 0.00(4) 2_655 2_655 ?
Fe1 O1M Ni1 120.0 . 3_665 ?
Ni1 O1M Ni1 120.0 2_655 3_665 ?
Fe1 O1M Ni1 120.0 2_655 3_665 ?
Fe1 O1M Fe1 120.0 . 3_665 ?
Ni1 O1M Fe1 120.0 2_655 3_665 ?
Fe1 O1M Fe1 120.0 2_655 3_665 ?
Ni1 O1M Fe1 0.000(19) 3_665 3_665 ?
C1 O1 Fe1 132.0(4) . . ?
C1 O2 Fe1 132.2(4) 3_665 . ?
O1 C1 O2 125.3(6) . 2_655 ?
O1 C1 C2 117.2(6) . . ?
O2 C1 C2 117.4(6) 2_655 . ?
C4A C2 C3 132.3(16) . . ?
C4A C2 C5A 98(3) . . ?
C3 C2 C5A 64(3) . . ?
C4A C2 C4 66(3) . . ?
C3 C2 C4 105(3) . . ?
C5A C2 C4 149.0(15) . . ?
C4A C2 C1 113.0(11) . . ?
C3 C2 C1 114.3(11) . . ?
C5A C2 C1 104.7(12) . . ?
C4 C2 C1 106.1(11) . . ?
C4A C2 C3A 116(3) . . ?
C3 C2 C3A 54(2) . . ?
C5A C2 C3A 118(3) . . ?
C4 C2 C3A 55.8(16) . . ?
C1 C2 C3A 106.2(12) . . ?
C4A C2 C5 40(8) . . ?
C3 C2 C5 121(4) . . ?
C5A C2 C5 63(5) . . ?
C4 C2 C5 106(7) . . ?
C1 C2 C5 103(5) . . ?
C3A C2 C5 149(7) . . ?
N1 C6 C7 123.0(7) . . ?
C8 C7 C6 119.0(7) . . ?
C7 C8 C7 118.3(9) . 5_655 ?
C7 C8 C9 120.8(5) . . ?
C7 C8 C9 120.8(5) 5_655 . ?
N2 C9 N2 120.4(8) . 3_655 ?
N2 C9 C8 119.8(4) . . ?
N2 C9 C8 119.8(4) 3_655 . ?
C1S S1S C1S 105(3) 4 . ?
C1S S1S O1S 127.6(14) 4 . ?
C1S S1S O1S 127.6(14) . . ?

_diffrn_measured_fraction_theta_max 1.000
_diffrn_reflns_theta_full        26.59
_diffrn_measured_fraction_theta_full 1.000
_refine_diff_density_max         1.465
_refine_diff_density_min         -1.253
_refine_diff_density_rms         0.203

# start Validation Reply Form

_vrf_PLAT245_compound1           
;
PROBLEM: U(iso) H4A1 Smaller than U(eq) C5 by ... 0.735 AngSq
RESPONSE: Atoms H4A1 and C5 belog to different methyl groups of disordered pivalate
;
