
#######################################################################
#
#                 Cambridge Crystallographic Data Centre
#                                CCDC
#
#######################################################################
#
# If this CIF has been generated from an entry in the Cambridge
# Structural Database, then it will include bibliographic, chemical,
# crystal, experimental, refinement or atomic coordinate data resulting
# from the CCDC's data processing and validation procedures.
#
#######################################################################

data_CSD_CIF_CAQTET
_audit_creation_date 2000-01-21
_audit_creation_method CSD-ConQuest-V1
_database_code_CSD CAQTET
_database_code_depnum_ccdc_archive 'CCDC 113728'
_chemical_formula_sum 'C9 H19 Au1 Cl1 N1'
_chemical_formula_moiety
;
C9 H19 Au1 Cl1 N1
;
_journal_coden_Cambridge 1290
_journal_year 1999
_journal_page_first 1103
_journal_name_full 'Eur.J.Inorg.Chem. '
loop_
_publ_author_name
"B.Ahrens"
"P.G.Jones"
"A.K.Fischer"
_chemical_name_systematic
;
Chloro-(2,2,6,6-tetramethylpiperidine)-gold(i)
;
_chemical_name_common
;
Teaching Subset: Fundamental Chemistry
;
_chemical_melting_point 395.15
_cell_volume   1147.372
_exptl_crystal_colour 'colorless'
_exptl_crystal_density_diffrn 2.163
_exptl_special_details
;
Melts above 395.15K

;
_exptl_crystal_description 'tablet'
_diffrn_ambient_temperature 173
#These two values have been output from a single CSD field.
_refine_ls_R_factor_gt 0.017
_refine_ls_wR_factor_gt 0.017
_symmetry_cell_setting orthorhombic
_symmetry_space_group_name_H-M 'P n n m'
_symmetry_Int_Tables_number 58
loop_
_symmetry_equiv_pos_site_id
_symmetry_equiv_pos_as_xyz
1 x,y,z
2 -x,-y,z
3 1/2-x,1/2+y,1/2-z
4 1/2+x,1/2-y,1/2-z
5 -x,-y,-z
6 x,y,-z
7 -1/2+x,-1/2-y,-1/2+z
8 -1/2-x,-1/2+y,-1/2+z
_cell_length_a 10.6298(10)
_cell_length_b 10.2047(10)
_cell_length_c 10.5774(10)
_cell_angle_alpha 90
_cell_angle_beta 90
_cell_angle_gamma 90
_cell_formula_units_Z 4
loop_
_atom_type_symbol
_atom_type_radius_bond
C 0.68
H 0.23
Au 1.40
Cl 0.99
N 0.68
loop_
_atom_site_label
_atom_site_type_symbol
_atom_site_fract_x
_atom_site_fract_y
_atom_site_fract_z
Au1 Au 0.643831(13) 0.558033(14) 0.50000
Cl1 Cl 0.60427(9) 0.77656(10) 0.50000
N1 N 0.6896(3) 0.3590(3) 0.50000
H1 H 0.609(5) 0.314(5) 0.50000
C1 C 0.7497(3) 0.3157(3) 0.3756(2)
C2 C 0.7805(3) 0.1696(3) 0.3831(3)
H2 H 0.70090 0.11930 0.38170
H3 H 0.82940 0.14460 0.30720
C3 C 0.8547(4) 0.1306(5) 0.50000
H4 H 0.86940 0.03480 0.50000
H5 H 0.93740 0.17530 0.50000
C4 C 0.8663(3) 0.3973(3) 0.3453(3)
H6 H 0.84650 0.49060 0.35480
H7 H 0.89280 0.38000 0.25810
H8 H 0.93440 0.37370 0.40340
C5 C 0.6512(3) 0.3379(3) 0.2727(3)
H9 H 0.62830 0.43090 0.27010
H10 H 0.57630 0.28540 0.29130
H11 H 0.68580 0.31160 0.19070
C2E C 0.7805(3) 0.1696(3) 0.6169(3)
C1E C 0.7497(3) 0.3157(3) 0.6244(2)
C4E C 0.8663(3) 0.3973(3) 0.6547(3)
H6E H 0.84650 0.49060 0.64520
H7E H 0.89280 0.38000 0.74190
H8E H 0.93440 0.37370 0.59660
C5E C 0.6512(3) 0.3379(3) 0.7273(3)
H9E H 0.62830 0.43090 0.72990
H10E H 0.57630 0.28540 0.70870
H11E H 0.68580 0.31160 0.80930
H2E H 0.70090 0.11930 0.61830
H3E H 0.82940 0.14460 0.69280
#END
