####################################################################### 
# 
# This file contains crystal structure data downloaded from the 
# Cambridge Structural Database (CSD) hosted by the Cambridge 
# Crystallographic Data Centre (CCDC).
# 
# Full information about CCDC data access policies and citation 
# guidelines are available at http://www.ccdc.cam.ac.uk/access/V1 
# 
# Audit and citation data items may have been added by the CCDC. 
# Please retain this information to preserve the provenance of 
# this file and to allow appropriate attribution of the data. 
# 
#######################################################################

data_031028c
_audit_block_doi                 10.5517/cc7hvn6
_database_code_depnum_ccdc_archive 'CCDC 223778'
loop_
_citation_id
_citation_doi
_citation_year
1 10.1016/j.ica.2005.03.053 2005
_audit_update_record             
;
2003-11-06 deposited with the CCDC.	2024-07-09 downloaded from the CCDC.
;

_audit_creation_method           SHELXL-97
_chemical_name_systematic        
;
?
;
_chemical_name_common            ?
_chemical_melting_point          ?
_chemical_formula_moiety         ?
_chemical_formula_sum            'C6 H8 N2 S2 Sn'
_chemical_formula_weight         290.95

loop_
_atom_type_symbol
_atom_type_description
_atom_type_scat_dispersion_real
_atom_type_scat_dispersion_imag
_atom_type_scat_source
C C 0.0033 0.0016 'International Tables Vol C Tables 4.2.6.8 and 6.1.1.4'
H H 0.0000 0.0000 'International Tables Vol C Tables 4.2.6.8 and 6.1.1.4'
N N 0.0061 0.0033 'International Tables Vol C Tables 4.2.6.8 and 6.1.1.4'
Sn Sn -0.6537 1.4246 'International Tables Vol C Tables 4.2.6.8 and 6.1.1.4'
S S 0.1246 0.1234 'International Tables Vol C Tables 4.2.6.8 and 6.1.1.4'

_symmetry_cell_setting           Orthorhombic
_symmetry_space_group_name_H-M   Fdd2

loop_
_symmetry_equiv_pos_as_xyz
'x, y, z'
'-x, -y, z'
'x+1/4, -y+1/4, z+1/4'
'-x+1/4, y+1/4, z+1/4'
'x, y+1/2, z+1/2'
'-x, -y+1/2, z+1/2'
'x+1/4, -y+3/4, z+3/4'
'-x+1/4, y+3/4, z+3/4'
'x+1/2, y, z+1/2'
'-x+1/2, -y, z+1/2'
'x+3/4, -y+1/4, z+3/4'
'-x+3/4, y+1/4, z+3/4'
'x+1/2, y+1/2, z'
'-x+1/2, -y+1/2, z'
'x+3/4, -y+3/4, z+1/4'
'-x+3/4, y+3/4, z+1/4'

_cell_length_a                   20.434(10)
_cell_length_b                   17.937(9)
_cell_length_c                   19.299(9)
_cell_angle_alpha                90.00
_cell_angle_beta                 90.00
_cell_angle_gamma                90.00
_cell_volume                     7073(6)
_cell_formula_units_Z            16
_cell_measurement_temperature    298(2)
_cell_measurement_reflns_used    918
_cell_measurement_theta_min      3.026
_cell_measurement_theta_max      15.139

_exptl_crystal_description       ?
_exptl_crystal_colour            ?
_exptl_crystal_size_max          0.17
_exptl_crystal_size_mid          0.15
_exptl_crystal_size_min          0.10
_exptl_crystal_density_meas      ?
_exptl_crystal_density_diffrn    1.093
_exptl_crystal_density_method    'not measured'
_exptl_crystal_F_000             2240
_exptl_absorpt_coefficient_mu    1.648
_exptl_absorpt_correction_type   multi-scan
_exptl_absorpt_correction_T_min  0.7669
_exptl_absorpt_correction_T_max  0.8525
_exptl_absorpt_process_details   sadabs

_exptl_special_details           
;
?
;

_diffrn_ambient_temperature      298(2)
_diffrn_radiation_wavelength     0.71073
_diffrn_radiation_type           MoK\a
_diffrn_radiation_source         'fine-focus sealed tube'
_diffrn_radiation_monochromator  graphite
_diffrn_measurement_device_type  'CCD area detector'
_diffrn_measurement_method       'phi and omega scans'
_diffrn_detector_area_resol_mean ?
_diffrn_standards_number         ?
_diffrn_standards_interval_count ?
_diffrn_standards_interval_time  ?
_diffrn_standards_decay_%        ?
_diffrn_reflns_number            8472
_diffrn_reflns_av_R_equivalents  0.1248
_diffrn_reflns_av_sigmaI/netI    0.2205
_diffrn_reflns_limit_h_min       -17
_diffrn_reflns_limit_h_max       24
_diffrn_reflns_limit_k_min       -20
_diffrn_reflns_limit_k_max       21
_diffrn_reflns_limit_l_min       -22
_diffrn_reflns_limit_l_max       22
_diffrn_reflns_theta_min         3.70
_diffrn_reflns_theta_max         25.03
_reflns_number_total             3001
_reflns_number_gt                1072
_reflns_threshold_expression     >2sigma(I)

_computing_data_collection       'Bruker SMART'
_computing_cell_refinement       'Bruker SMART'
_computing_data_reduction        'Bruker SHELXTL'
_computing_structure_solution    'SHELXS-97 (Sheldrick, 1990)'
_computing_structure_refinement  'SHELXL-97 (Sheldrick, 1997)'
_computing_molecular_graphics    'Bruker SHELXTL'
_computing_publication_material  'Bruker SHELXTL'

_refine_special_details          
;
Refinement of F^2^ against ALL reflections. The weighted R-factor wR and
goodness of fit S are based on F^2^, conventional R-factors R are based
on F, with F set to zero for negative F^2^. The threshold expression of
F^2^ > 2sigma(F^2^) is used only for calculating R-factors(gt) etc. and is
not relevant to the choice of reflections for refinement. R-factors based
on F^2^ are statistically about twice as large as those based on F, and R-
factors based on ALL data will be even larger.
;

_refine_ls_structure_factor_coef Fsqd
_refine_ls_matrix_type           full
_refine_ls_weighting_scheme      calc
_refine_ls_weighting_details     
'calc w=1/[\s^2^(Fo^2^)+(0.0231P)^2^+0.0000P] where P=(Fo^2^+2Fc^2^)/3'
_atom_sites_solution_primary     direct
_atom_sites_solution_secondary   difmap
_atom_sites_solution_hydrogens   geom
_refine_ls_hydrogen_treatment    mixed
_refine_ls_extinction_method     none
_refine_ls_extinction_coef       ?
_refine_ls_abs_structure_details 'Flack H D (1983), Acta Cryst. A39, 876-881'
_refine_ls_abs_structure_Flack   0.07(6)
_refine_ls_number_reflns         3001
_refine_ls_number_parameters     100
_refine_ls_number_restraints     1
_refine_ls_R_factor_all          0.1669
_refine_ls_R_factor_gt           0.0492
_refine_ls_wR_factor_ref         0.0993
_refine_ls_wR_factor_gt          0.0788
_refine_ls_goodness_of_fit_ref   0.728
_refine_ls_restrained_S_all      0.728
_refine_ls_shift/su_max          0.000
_refine_ls_shift/su_mean         0.000

loop_
_atom_site_label
_atom_site_type_symbol
_atom_site_fract_x
_atom_site_fract_y
_atom_site_fract_z
_atom_site_U_iso_or_equiv
_atom_site_adp_type
_atom_site_occupancy
_atom_site_symmetry_multiplicity
_atom_site_calc_flag
_atom_site_refinement_flags
_atom_site_disorder_assembly
_atom_site_disorder_group
Sn1 Sn 0.14504(4) 0.95545(5) 0.28470(5) 0.0891(3) Uani 1 1 d . . .
N1 N 0.1098(5) 0.8617(6) 0.2160(5) 0.086(3) Uani 1 1 d . . .
N2 N 0.0929(6) 0.7752(7) 0.1346(6) 0.107(4) Uani 1 1 d . . .
S1 S 0.06195(19) 0.8948(2) 0.35718(14) 0.1016(12) Uani 1 1 d . . .
S2 S -0.0181(3) 0.7616(3) 0.3356(2) 0.160(2) Uani 1 1 d . . .
C1 C 0.0387(7) 0.8199(6) 0.3051(8) 0.108(5) Uani 1 1 d . . .
C2 C 0.0649(7) 0.8144(8) 0.2379(6) 0.081(4) Uani 1 1 d . . .
C3 C 0.1293(8) 0.8384(10) 0.1511(9) 0.120(5) Uani 1 1 d . . .
H3 H 0.1609 0.8608 0.1234 0.144 Uiso 1 1 calc R . .
C4 C 0.0520(7) 0.7608(7) 0.1877(7) 0.096(4) Uani 1 1 d . . .
H4 H 0.0213 0.7226 0.1903 0.115 Uiso 1 1 calc R . .
C5 C 0.2473(7) 0.9142(9) 0.2909(7) 0.208(9) Uani 1 1 d . . .
H5A H 0.2489 0.8711 0.3203 0.312 Uiso 1 1 calc R . .
H5B H 0.2748 0.9526 0.3097 0.312 Uiso 1 1 calc R . .
H5C H 0.2623 0.9011 0.2454 0.312 Uiso 1 1 calc R . .
C6 C 0.1166(9) 1.0477(10) 0.2256(6) 0.157(7) Uani 1 1 d . . .
H6A H 0.0704 1.0555 0.2306 0.235 Uiso 1 1 calc R . .
H6B H 0.1267 1.0388 0.1777 0.235 Uiso 1 1 calc R . .
H6C H 0.1397 1.0911 0.2413 0.235 Uiso 1 1 calc R . .

loop_
_atom_site_aniso_label
_atom_site_aniso_U_11
_atom_site_aniso_U_22
_atom_site_aniso_U_33
_atom_site_aniso_U_23
_atom_site_aniso_U_13
_atom_site_aniso_U_12
Sn1 0.0983(6) 0.0991(6) 0.0700(4) -0.0266(5) 0.0066(5) -0.0069(6)
N1 0.103(8) 0.112(9) 0.044(6) -0.040(6) 0.013(6) -0.019(8)
N2 0.127(11) 0.130(12) 0.064(7) -0.023(7) 0.007(7) -0.022(8)
S1 0.123(3) 0.110(3) 0.071(2) -0.022(2) 0.0276(19) -0.016(2)
S2 0.195(5) 0.142(4) 0.143(3) -0.037(3) 0.079(3) -0.067(4)
C1 0.132(12) 0.063(9) 0.130(12) -0.046(8) 0.030(9) -0.012(8)
C2 0.104(11) 0.089(11) 0.050(8) -0.015(8) 0.030(7) -0.032(9)
C3 0.112(12) 0.138(13) 0.110(12) -0.036(9) 0.034(9) -0.073(10)
C4 0.136(12) 0.064(10) 0.088(10) -0.004(8) 0.041(9) -0.010(8)
C5 0.26(2) 0.27(2) 0.090(9) -0.135(15) -0.024(13) 0.103(15)
C6 0.232(18) 0.162(15) 0.077(9) -0.036(9) -0.028(11) -0.011(15)

_geom_special_details            
;
All esds (except the esd in the dihedral angle between two l.s. planes)
are estimated using the full covariance matrix. The cell esds are taken
into account individually in the estimation of esds in distances, angles
and torsion angles; correlations between esds in cell parameters are only
used when they are defined by crystal symmetry. An approximate (isotropic)
treatment of cell esds is used for estimating esds involving l.s. planes.
;

loop_
_geom_bond_atom_site_label_1
_geom_bond_atom_site_label_2
_geom_bond_distance
_geom_bond_site_symmetry_2
_geom_bond_publ_flag
Sn1 C6 2.092(16) . ?
Sn1 C5 2.219(13) . ?
Sn1 N1 2.260(9) . ?
Sn1 N2 2.311(11) 4 ?
Sn1 S1 2.454(3) . ?
N1 C2 1.319(13) . ?
N1 C3 1.379(16) . ?
N2 C4 1.348(14) . ?
N2 C3 1.392(17) . ?
N2 Sn1 2.311(11) 8_544 ?
S1 C1 1.743(12) . ?
S2 C1 1.671(14) . ?
C1 C2 1.406(16) . ?
C2 C4 1.391(15) . ?

loop_
_geom_angle_atom_site_label_1
_geom_angle_atom_site_label_2
_geom_angle_atom_site_label_3
_geom_angle
_geom_angle_site_symmetry_1
_geom_angle_site_symmetry_3
_geom_angle_publ_flag
C6 Sn1 C5 123.7(7) . . ?
C6 Sn1 N1 100.4(5) . . ?
C5 Sn1 N1 94.8(4) . . ?
C6 Sn1 N2 93.2(5) . 4 ?
C5 Sn1 N2 92.0(5) . 4 ?
N1 Sn1 N2 157.8(4) . 4 ?
C6 Sn1 S1 118.0(5) . . ?
C5 Sn1 S1 118.2(5) . . ?
N1 Sn1 S1 77.5(3) . . ?
N2 Sn1 S1 80.7(3) 4 . ?
C2 N1 C3 107.4(10) . . ?
C2 N1 Sn1 120.8(9) . . ?
C3 N1 Sn1 131.8(10) . . ?
C4 N2 C3 108.2(11) . . ?
C4 N2 Sn1 126.6(11) . 8_544 ?
C3 N2 Sn1 125.1(11) . 8_544 ?
C1 S1 Sn1 101.6(5) . . ?
C2 C1 S2 123.0(10) . . ?
C2 C1 S1 118.9(11) . . ?
S2 C1 S1 118.0(8) . . ?
N1 C2 C4 110.6(10) . . ?
N1 C2 C1 121.0(13) . . ?
C4 C2 C1 128.3(14) . . ?
N1 C3 N2 107.4(11) . . ?
N2 C4 C2 106.3(12) . . ?

_diffrn_measured_fraction_theta_max 0.976
_diffrn_reflns_theta_full        25.03
_diffrn_measured_fraction_theta_full 0.976
_refine_diff_density_max         0.342
_refine_diff_density_min         -0.285
_refine_diff_density_rms         0.067
