
#######################################################################
#
#                 Cambridge Crystallographic Data Centre
#                                CCDC
#
#######################################################################
#
# If this CIF has been generated from an entry in the Cambridge
# Structural Database, then it will include bibliographic, chemical,
# crystal, experimental, refinement or atomic coordinate data resulting
# from the CCDC's data processing and validation procedures.
#
#######################################################################

data_CSD_CIF_CARQOB
_audit_creation_date 2000-01-21
_audit_creation_method CSD-ConQuest-V1
_database_code_CSD CARQOB
_database_code_depnum_ccdc_archive 'CCDC 136688'
_chemical_formula_sum 'C48 H120 Ag6 I12 N6'
_chemical_formula_moiety
;
6(C8 H20 N1 1+),Ag6 I11 5-,I1 1-
;
_journal_coeditor_code "IUCr QA0172"
_journal_data_validation_number IUC9900122
_journal_coden_Cambridge 591
_journal_volume 55
_journal_year 1999
_journal_page_first 9900122
_journal_name_full 'Acta Crystallogr.,Sect.C:Cryst.Struct.Commun. '
loop_
_publ_author_name
"Yingjun Zhao"
"Weiping Su"
"Rong Cao"
"Maochun Hong"
_chemical_name_systematic
;
hexakis(Tetraethylammonium) 
tris(\m~4~-iodo)-bis(\m~3~-iodo)-hexaiodo-hexa-silver(i) iodide
;
_chemical_name_common
;
Teaching Subset: Fundamental Chemistry, Symmetry
;
_cell_volume   4134.721
_exptl_crystal_colour 'colorless'
_exptl_crystal_density_diffrn 2.371
_exptl_crystal_description 'hexagonal'
_diffrn_ambient_temperature ?
_diffrn_special_details
;
The study was carried out at room temperature,in the range 283-303K

;
#These two values have been output from a single CSD field.
_refine_ls_R_factor_gt 0.035
_refine_ls_wR_factor_gt 0.035
_symmetry_cell_setting hexagonal
_symmetry_space_group_name_H-M 'P 63/m'
_symmetry_Int_Tables_number 176
loop_
_symmetry_equiv_pos_site_id
_symmetry_equiv_pos_as_xyz
1 x,y,z
2 -y,x-y,z
3 -x+y,-x,z
4 y,-x+y,1/2+z
5 x-y,x,1/2+z
6 -x,-y,1/2+z
7 -x,-y,-z
8 y,-x+y,-z
9 x-y,x,-z
10 -y,x-y,-1/2-z
11 -x+y,-x,-1/2-z
12 x,y,-1/2-z
_cell_length_a 19.750(3)
_cell_length_b 19.750(3)
_cell_length_c 12.240(2)
_cell_angle_alpha 90
_cell_angle_beta 90
_cell_angle_gamma 120
_cell_formula_units_Z 2
loop_
_atom_type_symbol
_atom_type_radius_bond
C 0.68
H 0.23
Ag 1.59
I 1.40
N 0.68
loop_
_atom_site_label
_atom_site_type_symbol
_atom_site_fract_x
_atom_site_fract_y
_atom_site_fract_z
I1 I 0.82073(3) 0.44244(3) 0.25000
I2 I 0.73928(3) 0.59431(3) 0.47324(4)
I3 I 0.66670 0.33330 0.54171(6)
Ag1 Ag 0.70153(4) 0.45404(4) 0.38074(5)
I4 I 0.00000 0.00000 0.50000
N1 N 0.5297(4) 0.6232(4) 0.25000
C1 C 0.5839(6) 0.7106(6) 0.25000
H1 H 0.57250 0.73220 0.18610
H2 H 0.57250 0.73220 0.31390
C2 C 0.6700(7) 0.7372(9) 0.25000
H3 H 0.69970 0.79330 0.25000
H4 H 0.68260 0.71760 0.18600
H5 H 0.68260 0.71760 0.31400
C3 C 0.4475(5) 0.6110(6) 0.25000
H6 H 0.44170 0.63670 0.31390
H7 H 0.44170 0.63670 0.18610
C4 C 0.3836(8) 0.5290(7) 0.25000
H8 H 0.33420 0.52730 0.25000
H9 H 0.38750 0.50310 0.31400
H10 H 0.38750 0.50310 0.18600
C5 C 0.5429(5) 0.5856(4) 0.3476(5)
H11 H 0.59620 0.59550 0.34530
H12 H 0.50840 0.52950 0.34260
C6 C 0.5297(6) 0.6133(5) 0.4571(6)
H13 H 0.53940 0.58640 0.51500
H14 H 0.47670 0.60250 0.46140
H15 H 0.56470 0.66860 0.46420
N2 N 0.9520(4) 0.7673(4) 0.25000
C7 C 1.0019(3) 0.8090(3) 0.3496(5)
H16 H 1.05000 0.80700 0.34510
H17 H 1.01600 0.86350 0.34650
C8 C 0.9646(4) 0.7766(4) 0.4574(6)
H18 H 1.00020 0.80630 0.51490
H19 H 0.95180 0.72300 0.46260
H20 H 0.91780 0.77960 0.46400
C9 C 0.9274(5) 0.6808(4) 0.25000
H21 H 0.89540 0.65630 0.18600
H22 H 0.89540 0.65630 0.31400
C10 C 0.9963(6) 0.6654(6) 0.25000
H23 H 0.97670 0.61010 0.25000
H24 H 1.02760 0.68830 0.31400
H25 H 1.02760 0.68830 0.18600
C11 C 0.8766(5) 0.7689(5) 0.25000
H26 H 0.84650 0.74100 0.31390
H27 H 0.84650 0.74100 0.18610
C12 C 0.8866(6) 0.8518(6) 0.25000
H28 H 0.83610 0.84770 0.25000
H29 H 0.91500 0.87950 0.18600
H30 H 0.91500 0.87950 0.31400
I1A I 0.55756(3) 0.37829(3) 0.25000
Ag1A Ag 0.54596(4) 0.24749(4) 0.38074(5)
I1B I 0.62171(3) 0.17927(3) 0.25000
Ag1B Ag 0.75251(4) 0.29847(4) 0.38074(5)
Ag1K Ag 0.70153(4) 0.45404(4) 0.11926(5)
Ag1I Ag 0.54596(4) 0.24749(4) 0.11926(5)
Ag1J Ag 0.75251(4) 0.29847(4) 0.11926(5)
I2J I 0.85503(3) 0.26072(3) 0.02676(4)
I3J I 0.66660 0.33330 -0.04171(6)
I2K I 0.73928(3) 0.59431(3) 0.02676(4)
I2A I 0.40569(3) 0.14497(3) 0.47324(4)
I2I I 0.40569(3) 0.14497(3) 0.02676(4)
I2B I 0.85503(3) 0.26072(3) 0.47324(4)
C5K C 0.5429(5) 0.5856(4) 0.1524(5)
H11K H 0.59620 0.59550 0.15470
H12K H 0.50840 0.52950 0.15740
C6K C 0.5297(6) 0.6133(5) 0.0429(6)
H13K H 0.53940 0.58640 -0.01500
H14K H 0.47670 0.60250 0.03860
H15K H 0.56470 0.66860 0.03580
C7K C 1.0019(3) 0.8090(3) 0.1504(5)
H16K H 1.05000 0.80700 0.15490
H17K H 1.01600 0.86350 0.15350
C8K C 0.9646(4) 0.7766(4) 0.0426(6)
H18K H 1.00020 0.80630 -0.01490
H19K H 0.95180 0.72300 0.03740
H20K H 0.91780 0.77960 0.03600
#END
