
#######################################################################
#
#                 Cambridge Crystallographic Data Centre
#                                CCDC
#
#######################################################################
#
# If this CIF has been generated from an entry in the Cambridge
# Structural Database, then it will include bibliographic, chemical,
# crystal, experimental, refinement or atomic coordinate data resulting
# from the CCDC's data processing and validation procedures.
#
#######################################################################

data_CSD_CIF_CARTEN
_audit_creation_date 1971-12-31
_audit_creation_method CSD-ConQuest-V1
_database_code_CSD CARTEN
_database_code_depnum_ccdc_archive 'CCDC 1120466'
_chemical_formula_sum 'C40 H56'
_chemical_formula_moiety
;
C40 H56
;
_journal_coeditor_code "IUCr A04357"
_journal_coden_Cambridge 1
_journal_volume 17
_journal_year 1964
_journal_page_first 1224
_journal_name_full 'Acta Crystallogr. '
loop_
_publ_author_name
"C.Sterling"
_chemical_name_systematic
;
\b-Carotene
;
_chemical_name_common
;
Teaching Subset: Fundamental Chemistry, Symmetry
;
_cell_volume   1717.541
_exptl_special_details
;
exhibits strong vitamin A activity

;
_diffrn_ambient_temperature ?
_diffrn_special_details
;
The study was carried out at room temperature,in the range 283-303K

;
#These two values have been output from a single CSD field.
_refine_ls_R_factor_gt 0.19
_refine_ls_wR_factor_gt 0.19
loop_
_citation_database_id_CSD
_citation_special_details
KIXMOU "is a stereoisomer of this entry"
_symmetry_cell_setting monoclinic
_symmetry_space_group_name_H-M 'P 21/c'
_symmetry_Int_Tables_number 14
loop_
_symmetry_equiv_pos_site_id
_symmetry_equiv_pos_as_xyz
1 x,y,z
2 -x,1/2+y,1/2-z
3 -x,-y,-z
4 x,-1/2-y,-1/2+z
_cell_length_a 7.55
_cell_length_b 9.51
_cell_length_c 24.8
_cell_angle_alpha 90
_cell_angle_beta 105.3
_cell_angle_gamma 90
_cell_formula_units_Z 2
loop_
_atom_type_symbol
_atom_type_radius_bond
C 0.68
loop_
_atom_site_label
_atom_site_type_symbol
_atom_site_fract_x
_atom_site_fract_y
_atom_site_fract_z
C1 C 0.49600 1.14800 -0.18100
C2 C 0.24700 0.61700 -0.08800
C3 C 0.67800 1.07600 -0.15900
C4 C 0.47500 1.28000 -0.14100
C5 C 0.25100 0.52800 -0.03900
C6 C 0.17100 0.40100 -0.05300
C7 C 0.15000 0.29700 -0.00700
C8 C 0.21100 0.34600 0.05400
C9 C 0.07000 0.17200 -0.02700
C10 C 0.03800 0.05900 0.01300
C11 C 0.48600 1.23300 -0.23900
C12 C 0.38300 1.17600 -0.29000
C13 C 0.21700 1.10100 -0.29400
C14 C 0.20900 1.03000 -0.23500
C15 C 0.03900 0.94900 -0.24400
C16 C 0.33800 1.04900 -0.19000
C17 C 0.34400 0.97000 -0.13500
C18 C 0.29700 0.83700 -0.13500
C19 C 0.31700 0.75100 -0.08200
C20 C 0.38900 0.83200 -0.02500
C1B C -0.49600 -1.14800 0.18100
C2B C -0.24700 -0.61700 0.08800
C3B C -0.67800 -1.07600 0.15900
C4B C -0.47500 -1.28000 0.14100
C5B C -0.25100 -0.52800 0.03900
C6B C -0.17100 -0.40100 0.05300
C7B C -0.15000 -0.29700 0.00700
C8B C -0.21100 -0.34600 -0.05400
C9B C -0.07000 -0.17200 0.02700
C10B C -0.03800 -0.05900 -0.01300
C11B C -0.48600 -1.23300 0.23900
C12B C -0.38300 -1.17600 0.29000
C13B C -0.21700 -1.10100 0.29400
C14B C -0.20900 -1.03000 0.23500
C15B C -0.03900 -0.94900 0.24400
C16B C -0.33800 -1.04900 0.19000
C17B C -0.34400 -0.97000 0.13500
C18B C -0.29700 -0.83700 0.13500
C19B C -0.31700 -0.75100 0.08200
C20B C -0.38900 -0.83200 0.02500
#END
