####################################################################### 
# 
# This file contains crystal structure data downloaded from the 
# Cambridge Structural Database (CSD) hosted by the Cambridge 
# Crystallographic Data Centre (CCDC).
# 
# Full information about CCDC data access policies and citation 
# guidelines are available at http://www.ccdc.cam.ac.uk/access/V1 
# 
# Audit and citation data items may have been added by the CCDC. 
# Please retain this information to preserve the provenance of 
# this file and to allow appropriate attribution of the data. 
# 
#######################################################################

data_p
_audit_block_doi                 10.5517/ccxnmms
_database_code_depnum_ccdc_archive 'CCDC 853976'
loop_
_citation_id
_citation_doi
_citation_year
1 10.1016/j.molstruc.2012.01.052 2012
#TrackingRef 'p.cif'


_audit_update_record             
;
2011-11-15 deposited with the CCDC.	2024-07-09 downloaded from the CCDC.
;

_audit_creation_method           SHELXL-97
_chemical_name_systematic        
;
?
;
_chemical_name_common            ?
_chemical_melting_point          ?
_chemical_formula_moiety         'C50 H45 Ag3 N8 O7'
_chemical_formula_sum            'C50 H45 Ag3 N8 O7'
_chemical_formula_weight         1193.55

loop_
_atom_type_symbol
_atom_type_description
_atom_type_scat_dispersion_real
_atom_type_scat_dispersion_imag
_atom_type_scat_source
C C 0.0033 0.0016 'International Tables Vol C Tables 4.2.6.8 and 6.1.1.4'
H H 0.0000 0.0000 'International Tables Vol C Tables 4.2.6.8 and 6.1.1.4'
N N 0.0061 0.0033 'International Tables Vol C Tables 4.2.6.8 and 6.1.1.4'
O O 0.0106 0.0060 'International Tables Vol C Tables 4.2.6.8 and 6.1.1.4'
Ag Ag -0.8971 1.1015 'International Tables Vol C Tables 4.2.6.8 and 6.1.1.4'

_symmetry_cell_setting           orthorhombic
_symmetry_space_group_name_H-M   Cmca

loop_
_symmetry_equiv_pos_as_xyz
'x, y, z'
'-x, -y+1/2, z+1/2'
'-x, y+1/2, -z+1/2'
'x, -y, -z'
'x+1/2, y+1/2, z'
'-x+1/2, -y+1, z+1/2'
'-x+1/2, y+1, -z+1/2'
'x+1/2, -y+1/2, -z'
'-x, -y, -z'
'x, y-1/2, -z-1/2'
'x, -y-1/2, z-1/2'
'-x, y, z'
'-x+1/2, -y+1/2, -z'
'x+1/2, y, -z-1/2'
'x+1/2, -y, z-1/2'
'-x+1/2, y+1/2, z'

_cell_length_a                   21.901(5)
_cell_length_b                   30.645(7)
_cell_length_c                   14.201(3)
_cell_angle_alpha                90.00
_cell_angle_beta                 90.00
_cell_angle_gamma                90.00
_cell_volume                     9531(4)
_cell_formula_units_Z            8
_cell_measurement_temperature    173(2)
_cell_measurement_reflns_used    2036
_cell_measurement_theta_min      4.572
_cell_measurement_theta_max      45.239

_exptl_crystal_description       block
_exptl_crystal_colour            yellow
_exptl_crystal_size_max          0.20
_exptl_crystal_size_mid          0.20
_exptl_crystal_size_min          0.20
_exptl_crystal_density_meas      ?
_exptl_crystal_density_diffrn    1.664
_exptl_crystal_density_method    'not measured'
_exptl_crystal_F_000             4784
_exptl_absorpt_coefficient_mu    1.281
_exptl_absorpt_correction_type   multi-scan
_exptl_absorpt_correction_T_min  0.7836
_exptl_absorpt_correction_T_max  0.7836
_exptl_absorpt_process_details   'SADABS (Bruker, 2002)'

_exptl_special_details           
;
?
;

_diffrn_ambient_temperature      173(2)
_diffrn_radiation_wavelength     0.71073
_diffrn_radiation_type           MoK\a
_diffrn_radiation_source         'fine-focus sealed tube'
_diffrn_radiation_monochromator  graphite
_diffrn_measurement_device_type  'Bruker SMART CCD'
_diffrn_measurement_method       '\f and \w'
_diffrn_detector_area_resol_mean none
_diffrn_standards_number         none
_diffrn_standards_interval_count 0
_diffrn_standards_interval_time  none
_diffrn_standards_decay_%        ?
_diffrn_reflns_number            17914
_diffrn_reflns_av_R_equivalents  0.0758
_diffrn_reflns_av_sigmaI/netI    0.1033
_diffrn_reflns_limit_h_min       -25
_diffrn_reflns_limit_h_max       26
_diffrn_reflns_limit_k_min       -36
_diffrn_reflns_limit_k_max       28
_diffrn_reflns_limit_l_min       -13
_diffrn_reflns_limit_l_max       16
_diffrn_reflns_theta_min         1.83
_diffrn_reflns_theta_max         24.99
_reflns_number_total             4323
_reflns_number_gt                3134
_reflns_threshold_expression     >2sigma(I)

_computing_data_collection       'SMART (Bruker, 2002)'
_computing_cell_refinement       'SMART (Bruker, 2002)'
_computing_data_reduction        'SAINT (Bruker, 2002)'
_computing_structure_solution    'SHELXS-97 (Sheldrick, 1990)'
_computing_structure_refinement  'SHELXL-97 (Sheldrick, 1997)'
_computing_molecular_graphics    'DIAMOND (Brandenburg, 1999)'
_computing_publication_material  SHELXTL

_refine_special_details          
;
Refinement of F^2^ against ALL reflections. The weighted R-factor wR and
goodness of fit S are based on F^2^, conventional R-factors R are based
on F, with F set to zero for negative F^2^. The threshold expression of
F^2^ > 2sigma(F^2^) is used only for calculating R-factors(gt) etc. and is
not relevant to the choice of reflections for refinement. R-factors based
on F^2^ are statistically about twice as large as those based on F, and R-
factors based on ALL data will be even larger.
;

_refine_ls_structure_factor_coef Fsqd
_refine_ls_matrix_type           full
_refine_ls_weighting_scheme      calc
_refine_ls_weighting_details     
'calc w=1/[\s^2^(Fo^2^)+(0.0867P)^2^+189.5987P] where P=(Fo^2^+2Fc^2^)/3'
_atom_sites_solution_primary     direct
_atom_sites_solution_secondary   difmap
_atom_sites_solution_hydrogens   geom
_refine_ls_hydrogen_treatment    constr
_refine_ls_extinction_method     none
_refine_ls_extinction_coef       ?
_refine_ls_number_reflns         4323
_refine_ls_number_parameters     301
_refine_ls_number_restraints     6
_refine_ls_R_factor_all          0.1075
_refine_ls_R_factor_gt           0.0805
_refine_ls_wR_factor_ref         0.2230
_refine_ls_wR_factor_gt          0.2032
_refine_ls_goodness_of_fit_ref   1.047
_refine_ls_restrained_S_all      1.048
_refine_ls_shift/su_max          0.000
_refine_ls_shift/su_mean         0.000

loop_
_atom_site_label
_atom_site_type_symbol
_atom_site_fract_x
_atom_site_fract_y
_atom_site_fract_z
_atom_site_U_iso_or_equiv
_atom_site_adp_type
_atom_site_occupancy
_atom_site_symmetry_multiplicity
_atom_site_calc_flag
_atom_site_refinement_flags
_atom_site_disorder_assembly
_atom_site_disorder_group
Ag1 Ag 0.2500 0.21919(3) 0.2500 0.0316(3) Uani 1 2 d S . .
Ag2 Ag 0.2500 0.32757(3) 0.2500 0.0283(3) Uani 1 2 d S . .
Ag3 Ag 0.27104(6) 0.5000 1.0000 0.0448(4) Uani 1 2 d S . .
C1 C 0.0318(5) 0.3933(4) -0.1482(7) 0.042(3) Uani 1 1 d . . .
H1A H 0.0533 0.4108 -0.1925 0.050 Uiso 1 1 calc R . .
C2 C 0.0314(5) 0.3434(3) -0.0223(6) 0.032(2) Uani 1 1 d . . .
H2A H 0.0528 0.3258 0.0218 0.038 Uiso 1 1 calc R . .
C3 C 0.0634(4) 0.3685(3) -0.0855(6) 0.033(2) Uani 1 1 d . . .
C4 C 0.1326(5) 0.3695(4) -0.0914(7) 0.048(3) Uani 1 1 d . . .
H4A H 0.1451 0.3566 -0.1523 0.057 Uiso 1 1 calc R . .
H4B H 0.1461 0.4004 -0.0914 0.057 Uiso 1 1 calc R . .
C5 C 0.1815(5) 0.3023(4) -0.0243(7) 0.039(3) Uani 1 1 d . . .
H5A H 0.1740 0.2834 -0.0760 0.047 Uiso 1 1 calc R . .
C6 C 0.2095(5) 0.2927(3) 0.0541(7) 0.032(2) Uani 1 1 d . . .
H6A H 0.2266 0.2651 0.0688 0.039 Uiso 1 1 calc R . .
C7 C 0.1830(4) 0.3600(3) 0.0685(7) 0.034(2) Uani 1 1 d . . .
C8 C 0.1733(5) 0.4044(3) 0.1038(10) 0.052(3) Uani 1 1 d . . .
H8A H 0.1510 0.4214 0.0567 0.078 Uiso 1 1 calc R . .
H8B H 0.2129 0.4181 0.1162 0.078 Uiso 1 1 calc R . .
H8C H 0.1496 0.4032 0.1623 0.078 Uiso 1 1 calc R . .
C9 C 0.1316(4) 0.2496(3) 0.2586(6) 0.0224(19) Uani 1 1 d . . .
C10 C 0.0321(4) 0.2156(3) 0.2389(6) 0.024(2) Uani 1 1 d . . .
H10A H 0.0534 0.1886 0.2353 0.028 Uiso 1 1 calc R . .
C11 C 0.0639(4) 0.2534(3) 0.2440(6) 0.0207(18) Uani 1 1 d . . .
C12 C 0.0323(4) 0.2944(3) 0.2403(5) 0.0197(17) Uani 1 1 d . . .
C13 C 0.0633(4) 0.3349(3) 0.2360(6) 0.024(2) Uani 1 1 d . . .
H13A H 0.1067 0.3355 0.2361 0.029 Uiso 1 1 calc R . .
C14 C 0.0315(4) 0.3729(3) 0.2318(6) 0.029(2) Uani 1 1 d . . .
H14A H 0.0530 0.3998 0.2288 0.035 Uiso 1 1 calc R . .
C15 C 0.2944(6) 0.5825(4) 1.1298(7) 0.045(3) Uani 1 1 d . . .
H15A H 0.2778 0.5677 1.1826 0.054 Uiso 1 1 calc R . .
C16 C 0.3160(5) 0.6225(3) 1.1313(7) 0.041(3) Uani 1 1 d . . .
H16A H 0.3169 0.6417 1.1838 0.049 Uiso 1 1 calc R . .
C17 C 0.3258(4) 0.5952(3) 0.9899(7) 0.028(2) Uani 1 1 d . . .
C18 C 0.3435(5) 0.5917(4) 0.8904(7) 0.038(2) Uani 1 1 d . . .
H18A H 0.3316 0.5630 0.8661 0.058 Uiso 1 1 calc R . .
H18B H 0.3878 0.5952 0.8846 0.058 Uiso 1 1 calc R . .
H18C H 0.3229 0.6146 0.8540 0.058 Uiso 1 1 calc R . .
C19 C 0.3672(4) 0.6707(3) 1.0125(7) 0.029(2) Uani 1 1 d . . .
H19A H 0.3532 0.6949 1.0533 0.035 Uiso 1 1 calc R . .
H19B H 0.3544 0.6775 0.9473 0.035 Uiso 1 1 calc R . .
C20 C 0.4365(4) 0.6689(3) 1.0158(6) 0.025(2) Uani 1 1 d . . .
C21 C 0.4684(4) 0.7039(3) 0.9816(5) 0.0230(18) Uani 1 1 d . . .
H21A H 0.4469 0.7284 0.9575 0.028 Uiso 1 1 calc R . .
C22 C 0.4685(5) 0.6338(3) 1.0493(8) 0.039(2) Uani 1 1 d . . .
H22A H 0.4471 0.6091 1.0729 0.046 Uiso 1 1 calc R . .
C31 C 0.0357(13) 0.4988(9) 0.846(2) 0.067(7) Uiso 0.50 1 d P . .
C32 C 0.0669(8) 0.4970(8) 0.9217(13) 0.055(6) Uiso 0.50 1 d PD . .
C33 C 0.0328(12) 0.5000 1.0000 0.109(9) Uiso 1 2 d SD . .
C34 C 0.1369(8) 0.4885(9) 0.9235(10) 0.068(8) Uiso 0.50 1 d PD . .
C35 C 0.0587(13) 0.5063(9) 0.7517(16) 0.059(7) Uiso 0.50 1 d PD . .
H35A H 0.1005 0.5146 0.7491 0.070 Uiso 0.50 1 calc PR . .
C36 C 0.0310(2) 0.5034(13) 0.666(2) 0.121(14) Uiso 0.50 1 d PD . .
H36A H 0.0538 0.5015 0.6094 0.146 Uiso 0.50 1 calc PR . .
N1 N 0.2108(3) 0.3294(3) 0.1138(5) 0.0302(19) Uani 1 1 d . . .
N2 N 0.1645(4) 0.3468(3) -0.0165(6) 0.042(2) Uani 1 1 d . . .
N3 N 0.2994(4) 0.5650(2) 1.0407(6) 0.0314(19) Uani 1 1 d . . .
N4 N 0.3368(3) 0.6311(2) 1.0419(5) 0.0256(17) Uani 1 1 d . . .
O1 O 0.1565(3) 0.2168(2) 0.2198(5) 0.0312(15) Uani 1 1 d . . .
O2 O 0.1594(3) 0.2765(2) 0.3079(4) 0.0284(15) Uani 1 1 d . . .
O3 O 0.1634(9) 0.4768(6) 0.8508(12) 0.073(5) Uiso 0.50 1 d PD . .
O4 O 0.1554(8) 0.5000 1.0000 0.096(5) Uiso 1 2 d SD . .
O1W O 0.2500 0.5212(5) 0.7500 0.115(7) Uani 1 2 d S . .
H1WA H 0.2231 0.5075 0.7814 0.138 Uiso 0.50 1 d PR . .

loop_
_atom_site_aniso_label
_atom_site_aniso_U_11
_atom_site_aniso_U_22
_atom_site_aniso_U_33
_atom_site_aniso_U_23
_atom_site_aniso_U_13
_atom_site_aniso_U_12
Ag1 0.0177(5) 0.0292(6) 0.0481(7) 0.000 -0.0007(4) 0.000
Ag2 0.0252(6) 0.0330(6) 0.0266(5) 0.000 -0.0033(4) 0.000
Ag3 0.0449(7) 0.0216(6) 0.0681(8) -0.0010(6) 0.000 0.000
C1 0.036(6) 0.046(7) 0.043(6) 0.019(5) 0.000(5) -0.004(5)
C2 0.043(5) 0.035(6) 0.017(5) 0.012(4) -0.007(4) 0.008(5)
C3 0.028(5) 0.046(6) 0.025(5) 0.000(4) -0.001(4) -0.006(5)
C4 0.033(6) 0.079(9) 0.031(6) 0.023(6) -0.004(5) 0.001(6)
C5 0.039(6) 0.037(6) 0.041(6) -0.004(5) 0.009(5) -0.008(5)
C6 0.039(6) 0.022(5) 0.037(5) -0.002(4) 0.003(4) 0.009(4)
C7 0.019(5) 0.044(6) 0.040(6) 0.012(5) 0.004(4) -0.007(4)
C8 0.039(7) 0.017(5) 0.101(10) -0.001(6) 0.036(7) 0.000(5)
C9 0.021(5) 0.025(5) 0.021(5) 0.002(4) 0.009(4) 0.001(4)
C10 0.025(5) 0.023(5) 0.023(5) -0.006(4) 0.004(4) 0.004(4)
C11 0.019(4) 0.026(5) 0.018(4) -0.004(3) 0.001(4) -0.002(4)
C12 0.024(4) 0.025(4) 0.010(4) -0.009(3) 0.001(3) -0.001(4)
C13 0.021(5) 0.028(5) 0.024(5) 0.004(4) 0.003(3) -0.002(4)
C14 0.023(5) 0.025(5) 0.038(6) -0.004(4) -0.005(4) -0.003(4)
C15 0.068(8) 0.044(7) 0.024(5) 0.008(5) 0.014(5) -0.002(6)
C16 0.066(8) 0.030(6) 0.027(5) -0.010(4) 0.008(5) 0.002(5)
C17 0.023(5) 0.028(5) 0.033(5) 0.000(4) 0.001(4) 0.002(4)
C18 0.040(6) 0.042(6) 0.033(6) -0.005(5) 0.007(5) -0.003(5)
C19 0.027(5) 0.029(5) 0.031(5) 0.001(4) -0.001(4) 0.000(4)
C20 0.033(5) 0.022(5) 0.020(4) 0.004(4) 0.003(4) -0.001(4)
C21 0.034(5) 0.016(4) 0.019(4) 0.003(3) -0.001(3) 0.008(4)
C22 0.027(5) 0.035(6) 0.054(6) 0.018(5) 0.005(5) -0.009(5)
N1 0.022(4) 0.040(5) 0.029(4) -0.001(4) -0.005(3) 0.000(4)
N2 0.028(5) 0.058(6) 0.041(5) 0.021(4) -0.007(4) -0.001(4)
N3 0.030(5) 0.013(4) 0.051(5) 0.000(4) 0.004(4) -0.007(3)
N4 0.024(4) 0.023(4) 0.030(4) -0.001(3) -0.005(3) 0.004(3)
O1 0.013(3) 0.036(4) 0.045(4) -0.006(3) -0.001(3) 0.001(3)
O2 0.018(3) 0.034(4) 0.033(4) -0.006(3) -0.003(3) 0.002(3)
O1W 0.18(2) 0.041(9) 0.126(16) 0.000 -0.011(13) 0.000

_geom_special_details            
;
All esds (except the esd in the dihedral angle between two l.s. planes)
are estimated using the full covariance matrix. The cell esds are taken
into account individually in the estimation of esds in distances, angles
and torsion angles; correlations between esds in cell parameters are only
used when they are defined by crystal symmetry. An approximate (isotropic)
treatment of cell esds is used for estimating esds involving l.s. planes.
;

loop_
_geom_bond_atom_site_label_1
_geom_bond_atom_site_label_2
_geom_bond_distance
_geom_bond_site_symmetry_2
_geom_bond_publ_flag
Ag1 O1 2.093(6) 7_545 ?
Ag1 O1 2.093(6) . y
Ag1 O2 2.775(6) . y
Ag1 Ag2 3.3216(17) . y
Ag2 N1 2.116(7) 7_545 ?
Ag2 N1 2.116(7) . y
Ag2 O2 2.658(6) . y
Ag3 N3 2.165(7) . y
Ag3 N3 2.165(7) 4_567 ?
Ag3 O4 2.532(18) . y
C1 C3 1.360(14) . ?
C1 C1 1.39(2) 12 ?
C2 C2 1.37(2) 12 ?
C2 C3 1.376(13) . ?
C3 C4 1.519(14) . ?
C4 N2 1.450(12) . ?
C5 C6 1.306(14) . ?
C5 N2 1.416(14) . ?
C6 N1 1.407(12) . ?
C7 N1 1.292(12) . ?
C7 N2 1.337(13) . ?
C7 C8 1.464(15) . ?
C9 O2 1.241(11) . ?
C9 O1 1.269(11) . ?
C9 C11 1.503(12) . ?
C10 C11 1.353(12) . ?
C10 C10 1.405(18) 12 ?
C11 C12 1.437(13) . ?
C12 C13 1.415(13) . ?
C12 C12 1.416(17) 12 ?
C13 C14 1.358(13) . ?
C14 C14 1.382(18) 12 ?
C15 C16 1.315(15) . ?
C15 N3 1.379(13) . ?
C16 N4 1.374(12) . ?
C17 N3 1.307(12) . ?
C17 N4 1.347(12) . ?
C17 C18 1.470(13) . ?
C19 N4 1.445(12) . ?
C19 C20 1.520(13) . ?
C20 C21 1.368(12) . ?
C20 C22 1.370(13) . ?
C21 C21 1.386(18) 12_655 ?
C22 C22 1.38(2) 12_655 ?
C31 C32 1.28(3) . ?
C31 C35 1.45(4) . ?
C31 C31 1.57(6) 12 ?
C32 C33 1.344(10) . ?
C32 C34 1.554(10) . ?
C32 C32 2.23(4) 4_567 ?
C33 C32 1.344(10) 4_567 ?
C33 C33 1.44(5) 9_567 ?
C34 O4 1.212(10) . ?
C34 O3 1.236(10) . ?
C35 C36 1.361(10) . ?
C36 C36 1.357(10) 12 ?
O4 C34 1.212(10) 4_567 ?

loop_
_geom_angle_atom_site_label_1
_geom_angle_atom_site_label_2
_geom_angle_atom_site_label_3
_geom_angle
_geom_angle_site_symmetry_1
_geom_angle_site_symmetry_3
_geom_angle_publ_flag
O1 Ag1 O1 175.9(4) 7_545 . y
O1 Ag1 O2 131.4(2) 7_545 . y
O1 Ag1 O2 51.9(2) . . y
O1 Ag1 Ag2 92.04(18) 7_545 . y
O1 Ag1 Ag2 92.04(18) . . y
O2 Ag1 Ag2 50.72(13) . . y
N1 Ag2 N1 177.0(4) 7_545 . y
N1 Ag2 O2 92.0(3) 7_545 . y
N1 Ag2 O2 89.7(3) . . y
N1 Ag2 Ag1 91.5(2) 7_545 . y
N1 Ag2 Ag1 91.5(2) . . y
O2 Ag2 Ag1 53.92(13) . . y
N3 Ag3 N3 146.6(4) . 4_567 y
N3 Ag3 O4 106.7(2) . . y
N3 Ag3 O4 106.7(2) 4_567 . y
C3 C1 C1 120.6(6) . 12 ?
C2 C2 C3 120.7(6) 12 . ?
C1 C3 C2 118.7(9) . . ?
C1 C3 C4 117.5(9) . . ?
C2 C3 C4 123.8(9) . . ?
N2 C4 C3 115.5(8) . . ?
C6 C5 N2 105.9(9) . . ?
C5 C6 N1 110.1(9) . . ?
N1 C7 N2 111.9(10) . . ?
N1 C7 C8 124.9(10) . . ?
N2 C7 C8 123.2(10) . . ?
O2 C9 O1 124.1(8) . . ?
O2 C9 C11 120.6(8) . . ?
O1 C9 C11 115.2(8) . . ?
C11 C10 C10 121.0(5) . 12 ?
C10 C11 C12 120.0(8) . . ?
C10 C11 C9 116.7(8) . . ?
C12 C11 C9 123.2(8) . . ?
C13 C12 C12 118.6(5) . 12 ?
C13 C12 C11 122.6(8) . . ?
C12 C12 C11 118.8(5) 12 . ?
C14 C13 C12 120.5(9) . . ?
C13 C14 C14 120.8(6) . 12 ?
C16 C15 N3 110.5(9) . . ?
C15 C16 N4 106.4(9) . . ?
N3 C17 N4 110.8(8) . . ?
N3 C17 C18 126.6(9) . . ?
N4 C17 C18 122.6(9) . . ?
N4 C19 C20 114.9(8) . . ?
C21 C20 C22 118.5(9) . . ?
C21 C20 C19 118.1(8) . . ?
C22 C20 C19 123.4(8) . . ?
C20 C21 C21 120.7(5) . 12_655 ?
C20 C22 C22 120.8(6) . 12_655 ?
C32 C31 C35 127(3) . . ?
C32 C31 C31 122.4(15) . 12 ?
C35 C31 C31 110.3(16) . 12 ?
C33 C32 C31 113.4(19) . . ?
C33 C32 C34 123(2) . . ?
C31 C32 C34 123.3(18) . . ?
C33 C32 C32 33.8(14) . 4_567 ?
C31 C32 C32 146.8(15) . 4_567 ?
C34 C32 C32 89.9(9) . 4_567 ?
C32 C33 C32 112(3) 4_567 . ?
C32 C33 C33 123.8(14) 4_567 9_567 ?
C32 C33 C33 123.8(14) . 9_567 ?
O4 C34 O3 132.5(19) . . ?
O4 C34 C32 107.2(17) . . ?
O3 C34 C32 119.8(14) . . ?
C36 C35 C31 131(3) . . ?
C36 C36 C35 116.5(14) 12 . ?
C7 N1 C6 105.7(8) . . ?
C7 N1 Ag2 131.7(7) . . ?
C6 N1 Ag2 122.6(6) . . ?
C7 N2 C5 106.4(8) . . ?
C7 N2 C4 131.5(10) . . ?
C5 N2 C4 122.1(10) . . ?
C17 N3 C15 105.4(8) . . ?
C17 N3 Ag3 129.1(7) . . ?
C15 N3 Ag3 125.5(7) . . ?
C17 N4 C16 106.9(8) . . ?
C17 N4 C19 127.6(8) . . ?
C16 N4 C19 125.5(8) . . ?
C9 O1 Ag1 107.6(6) . . ?
C9 O2 Ag2 125.7(5) . . ?
C9 O2 Ag1 76.2(5) . . ?
Ag2 O2 Ag1 75.35(16) . . ?
C34 O4 C34 141(2) . 4_567 ?
C34 O4 Ag3 109.6(12) . . ?
C34 O4 Ag3 109.6(12) 4_567 . ?

loop_
_geom_hbond_atom_site_label_D
_geom_hbond_atom_site_label_H
_geom_hbond_atom_site_label_A
_geom_hbond_distance_DH
_geom_hbond_distance_HA
_geom_hbond_distance_DA
_geom_hbond_angle_DHA
_geom_hbond_site_symmetry_A
O1W H1WA O3 0.85 1.89 2.74(2) 179.7 .

_diffrn_measured_fraction_theta_max 1.000
_diffrn_reflns_theta_full        24.99
_diffrn_measured_fraction_theta_full 1.000
_refine_diff_density_max         1.763
_refine_diff_density_min         -0.861
_refine_diff_density_rms         0.190


