####################################################################### 
# 
# This file contains crystal structure data downloaded from the 
# Cambridge Structural Database (CSD) hosted by the Cambridge 
# Crystallographic Data Centre (CCDC).
# 
# Full information about CCDC data access policies and citation 
# guidelines are available at http://www.ccdc.cam.ac.uk/access/V1 
# 
# Audit and citation data items may have been added by the CCDC. 
# Please retain this information to preserve the provenance of 
# this file and to allow appropriate attribution of the data. 
# 
#######################################################################

data_1
_audit_block_doi                 10.5517/ccxf1hv
_database_code_depnum_ccdc_archive 'CCDC 846687'
loop_
_citation_id
_citation_doi
_citation_year
1 10.1021/ic202713e 2012
_audit_update_record             
;
2011-09-30 deposited with the CCDC.	2024-07-09 downloaded from the CCDC.
;
#TrackingRef '- compounds.CIF'


_audit_creation_method           SHELXL-97
_chemical_name_systematic        
;
?
;
_chemical_name_common            ?
_chemical_melting_point          ?
_chemical_formula_moiety         ?
_chemical_formula_sum            'C45 H38 N3 O9 Zn2'
_chemical_formula_weight         895.52

loop_
_atom_type_symbol
_atom_type_description
_atom_type_scat_dispersion_real
_atom_type_scat_dispersion_imag
_atom_type_scat_source
C C 0.0033 0.0016 'International Tables Vol C Tables 4.2.6.8 and 6.1.1.4'
H H 0.0000 0.0000 'International Tables Vol C Tables 4.2.6.8 and 6.1.1.4'
N N 0.0061 0.0033 'International Tables Vol C Tables 4.2.6.8 and 6.1.1.4'
O O 0.0106 0.0060 'International Tables Vol C Tables 4.2.6.8 and 6.1.1.4'
Zn Zn 0.2839 1.4301 'International Tables Vol C Tables 4.2.6.8 and 6.1.1.4'

_symmetry_cell_setting           Orthorhombic
_symmetry_space_group_name_H-M   Pcca

loop_
_symmetry_equiv_pos_as_xyz
'x, y, z'
'-x+1/2, -y, z'
'-x, y, -z+1/2'
'x+1/2, -y, -z+1/2'
'-x, -y, -z'
'x-1/2, y, -z'
'x, -y, z-1/2'
'-x-1/2, y, z-1/2'

_cell_length_a                   11.9887(4)
_cell_length_b                   18.6365(4)
_cell_length_c                   17.9807(6)
_cell_angle_alpha                90.00
_cell_angle_beta                 90.00
_cell_angle_gamma                90.00
_cell_volume                     4017.4(2)
_cell_formula_units_Z            4
_cell_measurement_temperature    293(2)
_cell_measurement_reflns_used    827
_cell_measurement_theta_min      3.18
_cell_measurement_theta_max      25.03

_exptl_crystal_description       rodlike
_exptl_crystal_colour            yellow
_exptl_crystal_size_max          0.26
_exptl_crystal_size_mid          0.14
_exptl_crystal_size_min          0.11
_exptl_crystal_density_meas      ?
_exptl_crystal_density_diffrn    1.481
_exptl_crystal_density_method    'not measured'
_exptl_crystal_F_000             1844
_exptl_absorpt_coefficient_mu    1.256
_exptl_absorpt_correction_type   none
_exptl_absorpt_correction_T_min  ?
_exptl_absorpt_correction_T_max  ?
_exptl_absorpt_process_details   none

_exptl_special_details           
;
?
;

_diffrn_ambient_temperature      293(2)
_diffrn_radiation_wavelength     0.71073
_diffrn_radiation_type           MoK\a
_diffrn_radiation_source         'fine-focus sealed tube'
_diffrn_radiation_monochromator  graphite
_diffrn_measurement_device_type  'Bruker P4'
_diffrn_measurement_method       '\w scans'
_diffrn_detector_area_resol_mean none
_diffrn_standards_number         none
_diffrn_standards_interval_count none
_diffrn_standards_interval_time  none
_diffrn_standards_decay_%        none
_diffrn_reflns_number            8182
_diffrn_reflns_av_R_equivalents  0.0274
_diffrn_reflns_av_sigmaI/netI    0.0354
_diffrn_reflns_limit_h_min       -9
_diffrn_reflns_limit_h_max       14
_diffrn_reflns_limit_k_min       -22
_diffrn_reflns_limit_k_max       14
_diffrn_reflns_limit_l_min       -13
_diffrn_reflns_limit_l_max       21
_diffrn_reflns_theta_min         2.27
_diffrn_reflns_theta_max         25.00
_reflns_number_total             3313
_reflns_number_gt                2691
_reflns_threshold_expression     >2sigma(I)

_computing_data_collection       ?
_computing_cell_refinement       ?
_computing_data_reduction        ?
_computing_structure_solution    'SHELXS-97 (Sheldrick, 1990)'
_computing_structure_refinement  'SHELXL-97 (Sheldrick, 1997)'
_computing_molecular_graphics    ?
_computing_publication_material  ?

_refine_special_details          
;
Refinement of F^2^ against ALL reflections. The weighted R-factor wR and
goodness of fit S are based on F^2^, conventional R-factors R are based
on F, with F set to zero for negative F^2^. The threshold expression of
F^2^ > 2sigma(F^2^) is used only for calculating R-factors(gt) etc. and is
not relevant to the choice of reflections for refinement. R-factors based
on F^2^ are statistically about twice as large as those based on F, and R-
factors based on ALL data will be even larger.
;

_refine_ls_structure_factor_coef Fsqd
_refine_ls_matrix_type           full
_refine_ls_weighting_scheme      calc
_refine_ls_weighting_details     
'calc w=1/[\s^2^(Fo^2^)+(0.0882P)^2^+3.7489P] where P=(Fo^2^+2Fc^2^)/3'
_atom_sites_solution_primary     direct
_atom_sites_solution_secondary   difmap
_atom_sites_solution_hydrogens   geom
_refine_ls_hydrogen_treatment    none
_refine_ls_extinction_method     none
_refine_ls_extinction_coef       ?
_refine_ls_number_reflns         3313
_refine_ls_number_parameters     245
_refine_ls_number_restraints     0
_refine_ls_R_factor_all          0.0624
_refine_ls_R_factor_gt           0.0456
_refine_ls_wR_factor_ref         0.1576
_refine_ls_wR_factor_gt          0.1388
_refine_ls_goodness_of_fit_ref   1.137
_refine_ls_restrained_S_all      1.137
_refine_ls_shift/su_max          0.008
_refine_ls_shift/su_mean         0.001

loop_
_atom_site_label
_atom_site_type_symbol
_atom_site_fract_x
_atom_site_fract_y
_atom_site_fract_z
_atom_site_U_iso_or_equiv
_atom_site_adp_type
_atom_site_occupancy
_atom_site_symmetry_multiplicity
_atom_site_calc_flag
_atom_site_refinement_flags
_atom_site_disorder_assembly
_atom_site_disorder_group
Zn1 Zn 0.38961(4) 0.00897(2) 0.19758(2) 0.0236(2) Uani 1 1 d . . .
O4 O 0.2500 0.0000 0.1468(2) 0.0308(10) Uani 1 2 d S . .
C2 C 0.5985(4) -0.0524(2) 0.1507(2) 0.0301(10) Uani 1 1 d . . .
O3 O 0.5052(3) -0.02658(16) 0.13231(16) 0.0397(8) Uani 1 1 d . . .
C4 C 0.6627(4) -0.0900(2) 0.0923(2) 0.0303(9) Uani 1 1 d . . .
O2 O 0.9223(3) -0.88950(15) -0.21632(17) 0.0367(7) Uani 1 1 d . . .
C8 C 0.8837(4) -0.2214(3) -0.2075(3) 0.0419(12) Uani 1 1 d . . .
H8A H 0.8740 -0.2073 -0.2567 0.050 Uiso 1 1 calc R . .
O1 O 0.6402(3) -0.04900(17) 0.21458(16) 0.0390(8) Uani 1 1 d . . .
C10 C 0.9481(5) -0.2804(2) -0.1915(2) 0.0406(12) Uani 1 1 d . . .
C11 C 0.6197(4) -0.0971(3) 0.0217(3) 0.0403(12) Uani 1 1 d . . .
H11A H 0.5505 -0.0774 0.0103 0.048 Uiso 1 1 calc R . .
C12 C 0.9309(5) -0.7401(3) -0.2025(3) 0.0524(15) Uani 1 1 d . . .
H12A H 0.8834 -0.7646 -0.1704 0.063 Uiso 1 1 calc R . .
N1 N 1.0000 -0.3196(3) -0.2500 0.0472(16) Uani 1 2 d S . .
C14 C 1.0000 -0.3958(3) -0.2500 0.0396(16) Uani 1 2 d S . .
C15 C 0.6795(4) -0.1336(3) -0.0324(3) 0.0440(12) Uani 1 1 d . . .
H15A H 0.6491 -0.1384 -0.0797 0.053 Uiso 1 1 calc R . .
C16 C 1.0000 -0.6268(3) -0.2500 0.0415(16) Uani 1 2 d S . .
C17 C 1.0000 -0.8587(3) -0.2500 0.0242(12) Uani 1 2 d S . .
C18 C 1.0000 -0.5471(3) -0.2500 0.0429(17) Uani 1 2 d S . .
C19 C 0.7836(4) -0.1633(2) -0.0177(2) 0.0393(11) Uani 1 1 d . . .
C20 C 0.8450(4) -0.2022(2) -0.0767(3) 0.0400(11) Uani 1 1 d . . .
C21 C 0.9321(5) -0.6659(3) -0.2023(3) 0.0570(16) Uani 1 1 d . . .
H21A H 0.8861 -0.6415 -0.1693 0.068 Uiso 1 1 calc R . .
C22 C 0.9142(5) -0.4341(3) -0.2179(3) 0.0541(15) Uani 1 1 d . . .
H22A H 0.8547 -0.4099 -0.1962 0.065 Uiso 1 1 calc R . .
C23 C 0.8266(5) -0.1550(3) 0.0537(3) 0.0522(14) Uani 1 1 d . . .
H23A H 0.8965 -0.1736 0.0651 0.063 Uiso 1 1 calc R . .
C24 C 1.0000 -0.7782(3) -0.2500 0.0313(14) Uani 1 2 d S . .
C25 C 0.7663(4) -0.1196(3) 0.1075(3) 0.0441(12) Uani 1 1 d . . .
H25A H 0.7958 -0.1153 0.1552 0.053 Uiso 1 1 calc R . .
C26 C 0.8333(4) -0.1830(2) -0.1510(2) 0.0402(11) Uani 1 1 d . . .
H26A H 0.7903 -0.1431 -0.1630 0.048 Uiso 1 1 calc R . .
C27 C 0.9162(5) -0.5079(3) -0.2176(4) 0.0534(15) Uani 1 1 d . . .
H27A H 0.8581 -0.5324 -0.1945 0.064 Uiso 1 1 calc R . .
C28 C 0.9640(5) -0.2998(3) -0.1179(3) 0.0575(15) Uani 1 1 d . . .
H28A H 1.0086 -0.3391 -0.1064 0.069 Uiso 1 1 calc R . .
C29 C 0.9134(5) -0.2607(3) -0.0608(3) 0.0567(15) Uani 1 1 d . . .
H29A H 0.9255 -0.2738 -0.0115 0.068 Uiso 1 1 calc R . .
N2 N 0.7894(12) -0.3939(8) 0.0494(7) 0.194(5) Uiso 1 1 d . . .
O5 O 0.7238(13) -0.4098(10) -0.0517(8) 0.292(7) Uiso 1 1 d . . .
C32 C 0.680(2) -0.3608(12) -0.0114(11) 0.244(8) Uiso 1 1 d . . .
H32A H 0.6232 -0.3268 -0.0125 0.292 Uiso 1 1 calc R . .
C31 C 0.8857(14) -0.4442(13) 0.0488(11) 0.270(10) Uiso 1 1 d . . .
H31A H 0.8871 -0.4699 0.0025 0.405 Uiso 1 1 calc R . .
H31B H 0.8785 -0.4776 0.0891 0.405 Uiso 1 1 calc R . .
H31C H 0.9538 -0.4176 0.0543 0.405 Uiso 1 1 calc R . .
C30 C 0.7689(14) -0.3431(9) 0.1122(11) 0.234(8) Uiso 1 1 d . . .
H30A H 0.8225 -0.3517 0.1509 0.351 Uiso 1 1 calc R . .
H30B H 0.6951 -0.3504 0.1313 0.351 Uiso 1 1 calc R . .
H30C H 0.7762 -0.2947 0.0947 0.351 Uiso 1 1 calc R . .

loop_
_atom_site_aniso_label
_atom_site_aniso_U_11
_atom_site_aniso_U_22
_atom_site_aniso_U_33
_atom_site_aniso_U_23
_atom_site_aniso_U_13
_atom_site_aniso_U_12
Zn1 0.0231(3) 0.0237(3) 0.0240(3) 0.00035(18) 0.00164(18) -0.00043(18)
O4 0.027(2) 0.033(2) 0.032(2) 0.000 0.000 -0.0034(17)
C2 0.037(3) 0.026(2) 0.028(2) -0.0023(18) 0.0074(19) -0.0006(19)
O3 0.0343(18) 0.0515(19) 0.0331(17) -0.0069(15) 0.0079(14) 0.0114(17)
C4 0.031(2) 0.035(2) 0.025(2) -0.0084(18) 0.0046(18) -0.0017(19)
O2 0.0397(18) 0.0209(14) 0.0497(19) 0.0009(13) 0.0093(15) -0.0014(14)
C8 0.060(3) 0.034(3) 0.032(3) 0.001(2) 0.013(2) 0.005(2)
O1 0.0441(19) 0.0455(19) 0.0275(17) -0.0123(14) 0.0009(14) 0.0116(15)
C10 0.059(3) 0.026(2) 0.037(3) -0.0013(19) 0.024(2) 0.001(2)
C11 0.033(3) 0.053(3) 0.034(3) -0.009(2) -0.0012(19) 0.010(2)
C12 0.064(4) 0.029(2) 0.064(4) 0.004(2) 0.030(3) -0.002(3)
N1 0.077(4) 0.022(2) 0.042(3) 0.000 0.034(3) 0.000
C14 0.056(4) 0.027(3) 0.036(4) 0.000 0.021(3) 0.000
C15 0.049(3) 0.052(3) 0.031(2) -0.009(2) 0.001(2) 0.008(3)
C16 0.048(4) 0.026(3) 0.051(4) 0.000 0.012(3) 0.000
C17 0.027(3) 0.020(3) 0.026(3) 0.000 -0.006(3) 0.000
C18 0.052(4) 0.026(3) 0.050(4) 0.000 0.017(3) 0.000
C19 0.043(3) 0.040(2) 0.034(3) -0.004(2) 0.008(2) 0.008(2)
C20 0.048(3) 0.034(2) 0.038(3) -0.006(2) 0.010(2) 0.005(2)
C21 0.069(4) 0.030(3) 0.072(4) -0.005(2) 0.037(3) 0.003(3)
C22 0.057(3) 0.032(3) 0.073(4) -0.002(2) 0.034(3) 0.002(2)
C23 0.040(3) 0.072(3) 0.044(3) -0.014(3) 0.002(2) 0.018(3)
C24 0.036(3) 0.022(3) 0.036(3) 0.000 0.004(3) 0.000
C25 0.043(3) 0.064(3) 0.025(2) -0.016(2) -0.005(2) 0.016(2)
C26 0.053(3) 0.032(2) 0.036(2) -0.0003(19) 0.009(2) 0.010(2)
C27 0.054(3) 0.030(2) 0.076(4) 0.003(2) 0.033(3) -0.003(2)
C28 0.081(4) 0.045(3) 0.047(3) 0.005(2) 0.023(3) 0.026(3)
C29 0.077(4) 0.058(3) 0.035(3) 0.005(2) 0.015(3) 0.026(3)

_geom_special_details            
;
All esds (except the esd in the dihedral angle between two l.s. planes)
are estimated using the full covariance matrix. The cell esds are taken
into account individually in the estimation of esds in distances, angles
and torsion angles; correlations between esds in cell parameters are only
used when they are defined by crystal symmetry. An approximate (isotropic)
treatment of cell esds is used for estimating esds involving l.s. planes.
;

loop_
_geom_bond_atom_site_label_1
_geom_bond_atom_site_label_2
_geom_bond_distance
_geom_bond_site_symmetry_2
_geom_bond_publ_flag
Zn1 O4 1.914(2) . ?
Zn1 O3 1.933(3) . ?
Zn1 O1 1.947(3) 3_655 ?
Zn1 O2 1.962(3) 6_565 ?
O4 Zn1 1.914(2) 2 ?
C2 O1 1.255(5) . ?
C2 O3 1.261(5) . ?
C2 C4 1.478(6) . ?
C4 C11 1.376(6) . ?
C4 C25 1.386(6) . ?
O2 C17 1.250(4) . ?
O2 Zn1 1.962(3) 6_645 ?
C8 C10 1.374(7) . ?
C8 C26 1.383(6) . ?
C8 H8A 0.9300 . ?
O1 Zn1 1.947(3) 3_655 ?
C10 C28 1.385(7) . ?
C10 N1 1.424(5) . ?
C11 C15 1.387(6) . ?
C11 H11A 0.9300 . ?
C12 C21 1.381(7) . ?
C12 C24 1.386(6) . ?
C12 H12A 0.9300 . ?
N1 C14 1.421(7) . ?
N1 C10 1.424(5) 3_754 ?
C14 C22 1.378(6) 3_754 ?
C14 C22 1.378(6) . ?
C15 C19 1.391(7) . ?
C15 H15A 0.9300 . ?
C16 C21 1.390(6) 3_754 ?
C16 C21 1.390(6) . ?
C16 C18 1.484(8) . ?
C17 O2 1.250(4) 3_754 ?
C17 C24 1.501(7) . ?
C18 C27 1.371(6) . ?
C18 C27 1.371(6) 3_754 ?
C19 C23 1.392(7) . ?
C19 C20 1.481(6) . ?
C20 C26 1.390(6) . ?
C20 C29 1.393(7) . ?
C21 H21A 0.9300 . ?
C22 C27 1.377(6) . ?
C22 H22A 0.9300 . ?
C23 C25 1.377(6) . ?
C23 H23A 0.9300 . ?
C24 C12 1.386(6) 3_754 ?
C25 H25A 0.9300 . ?
C26 H26A 0.9300 . ?
C27 H27A 0.9300 . ?
C28 C29 1.398(7) . ?
C28 H28A 0.9300 . ?
C29 H29A 0.9300 . ?
N2 C31 1.49(2) . ?
N2 C30 1.494(19) . ?
N2 C32 1.81(2) . ?
O5 C32 1.28(2) . ?
C32 H32A 0.9300 . ?
C31 H31A 0.9600 . ?
C31 H31B 0.9600 . ?
C31 H31C 0.9600 . ?
C30 H30A 0.9600 . ?
C30 H30B 0.9600 . ?
C30 H30C 0.9600 . ?

loop_
_geom_angle_atom_site_label_1
_geom_angle_atom_site_label_2
_geom_angle_atom_site_label_3
_geom_angle
_geom_angle_site_symmetry_1
_geom_angle_site_symmetry_3
_geom_angle_publ_flag
O4 Zn1 O3 107.90(14) . . ?
O4 Zn1 O1 100.25(13) . 3_655 ?
O3 Zn1 O1 115.73(14) . 3_655 ?
O4 Zn1 O2 109.93(9) . 6_565 ?
O3 Zn1 O2 106.96(13) . 6_565 ?
O1 Zn1 O2 115.64(13) 3_655 6_565 ?
Zn1 O4 Zn1 123.0(2) . 2 ?
O1 C2 O3 125.0(4) . . ?
O1 C2 C4 117.8(4) . . ?
O3 C2 C4 117.2(4) . . ?
C2 O3 Zn1 127.4(3) . . ?
C11 C4 C25 118.7(4) . . ?
C11 C4 C2 120.3(4) . . ?
C25 C4 C2 121.0(4) . . ?
C17 O2 Zn1 132.4(3) . 6_645 ?
C10 C8 C26 120.4(4) . . ?
C10 C8 H8A 119.8 . . ?
C26 C8 H8A 119.8 . . ?
C2 O1 Zn1 134.2(3) . 3_655 ?
C8 C10 C28 119.1(4) . . ?
C8 C10 N1 120.0(4) . . ?
C28 C10 N1 120.8(4) . . ?
C4 C11 C15 120.0(4) . . ?
C4 C11 H11A 120.0 . . ?
C15 C11 H11A 120.0 . . ?
C21 C12 C24 120.5(5) . . ?
C21 C12 H12A 119.7 . . ?
C24 C12 H12A 119.7 . . ?
C14 N1 C10 120.8(2) . . ?
C14 N1 C10 120.8(2) . 3_754 ?
C10 N1 C10 118.3(5) . 3_754 ?
C22 C14 C22 117.7(6) 3_754 . ?
C22 C14 N1 121.1(3) 3_754 . ?
C22 C14 N1 121.1(3) . . ?
C11 C15 C19 121.8(4) . . ?
C11 C15 H15A 119.1 . . ?
C19 C15 H15A 119.1 . . ?
C21 C16 C21 116.6(6) 3_754 . ?
C21 C16 C18 121.7(3) 3_754 . ?
C21 C16 C18 121.7(3) . . ?
O2 C17 O2 125.4(5) 3_754 . ?
O2 C17 C24 117.3(2) 3_754 . ?
O2 C17 C24 117.3(2) . . ?
C27 C18 C27 115.7(6) . 3_754 ?
C27 C18 C16 122.2(3) . . ?
C27 C18 C16 122.2(3) 3_754 . ?
C15 C19 C23 117.5(4) . . ?
C15 C19 C20 120.4(4) . . ?
C23 C19 C20 122.1(5) . . ?
C26 C20 C29 117.4(4) . . ?
C26 C20 C19 120.7(4) . . ?
C29 C20 C19 121.8(4) . . ?
C12 C21 C16 122.0(5) . . ?
C12 C21 H21A 119.0 . . ?
C16 C21 H21A 119.0 . . ?
C27 C22 C14 120.3(5) . . ?
C27 C22 H22A 119.8 . . ?
C14 C22 H22A 119.8 . . ?
C25 C23 C19 120.5(5) . . ?
C25 C23 H23A 119.7 . . ?
C19 C23 H23A 119.7 . . ?
C12 C24 C12 118.3(6) . 3_754 ?
C12 C24 C17 120.8(3) . . ?
C12 C24 C17 120.8(3) 3_754 . ?
C23 C25 C4 121.5(4) . . ?
C23 C25 H25A 119.3 . . ?
C4 C25 H25A 119.3 . . ?
C8 C26 C20 121.8(4) . . ?
C8 C26 H26A 119.1 . . ?
C20 C26 H26A 119.1 . . ?
C18 C27 C22 122.9(5) . . ?
C18 C27 H27A 118.5 . . ?
C22 C27 H27A 118.5 . . ?
C10 C28 C29 120.4(5) . . ?
C10 C28 H28A 119.8 . . ?
C29 C28 H28A 119.8 . . ?
C20 C29 C28 120.8(5) . . ?
C20 C29 H29A 119.6 . . ?
C28 C29 H29A 119.6 . . ?
C31 N2 C30 122.1(15) . . ?
C31 N2 C32 140.5(14) . . ?
C30 N2 C32 96.9(13) . . ?
O5 C32 N2 78.5(15) . . ?
O5 C32 H32A 140.8 . . ?
N2 C32 H32A 140.8 . . ?
N2 C31 H31A 109.5 . . ?
N2 C31 H31B 109.5 . . ?
H31A C31 H31B 109.5 . . ?
N2 C31 H31C 109.5 . . ?
H31A C31 H31C 109.5 . . ?
H31B C31 H31C 109.5 . . ?
N2 C30 H30A 109.5 . . ?
N2 C30 H30B 109.5 . . ?
H30A C30 H30B 109.5 . . ?
N2 C30 H30C 109.5 . . ?
H30A C30 H30C 109.5 . . ?
H30B C30 H30C 109.5 . . ?

_diffrn_measured_fraction_theta_max 0.934
_diffrn_reflns_theta_full        25.00
_diffrn_measured_fraction_theta_full 0.934
_refine_diff_density_max         0.724
_refine_diff_density_min         -0.652
_refine_diff_density_rms         0.232
