####################################################################### 
# 
# This file contains crystal structure data downloaded from the 
# Cambridge Structural Database (CSD) hosted by the Cambridge 
# Crystallographic Data Centre (CCDC).
# 
# Full information about CCDC data access policies and citation 
# guidelines are available at http://www.ccdc.cam.ac.uk/access/V1 
# 
# Audit and citation data items may have been added by the CCDC. 
# Please retain this information to preserve the provenance of 
# this file and to allow appropriate attribution of the data. 
# 
#######################################################################

data_DUT-43
_audit_block_doi                 10.5517/ccxk7g4
_database_code_depnum_ccdc_archive 'CCDC 850716'
loop_
_citation_id
_citation_doi
_citation_year
1 10.1039/c2dt12072k 2012
_audit_update_record             
;
2011-10-25 deposited with the CCDC.	2024-07-09 downloaded from the CCDC.
;
#TrackingRef '7807_web_deposit_cif_file_3_VolodymyrBon_1319553644.DUT43.cif'


_audit_creation_method           SHELXL-97
_chemical_name_systematic        
;
?
;
_chemical_name_common            ?
_chemical_melting_point          ?
_chemical_formula_moiety         ?
_chemical_formula_sum            'C273 H195 N4 O52 Zn10'
_chemical_formula_weight         5017.03

loop_
_atom_type_symbol
_atom_type_description
_atom_type_scat_dispersion_real
_atom_type_scat_dispersion_imag
_atom_type_scat_source
C C 0.0060 0.0030 'International Tables Vol C Tables 4.2.6.8 and 6.1.1.4'
H H 0.0000 0.0000 'International Tables Vol C Tables 4.2.6.8 and 6.1.1.4'
N N 0.0100 0.0050 'International Tables Vol C Tables 4.2.6.8 and 6.1.1.4'
O O 0.0180 0.0100 'International Tables Vol C Tables 4.2.6.8 and 6.1.1.4'
Zn Zn 0.0350 2.0980 'International Tables Vol C Tables 4.2.6.8 and 6.1.1.4'

_symmetry_cell_setting           Monoclinic
_symmetry_space_group_name_H-M   C2/c

loop_
_symmetry_equiv_pos_as_xyz
'x, y, z'
'-x, y, -z+1/2'
'x+1/2, y+1/2, z'
'-x+1/2, y+1/2, -z+1/2'
'-x, -y, -z'
'x, -y, z-1/2'
'-x+1/2, -y+1/2, -z'
'x+1/2, -y+1/2, z-1/2'

_cell_length_a                   23.934(5)
_cell_length_b                   41.860(8)
_cell_length_c                   45.532(9)
_cell_angle_alpha                90.00
_cell_angle_beta                 90.12(3)
_cell_angle_gamma                90.00
_cell_volume                     45617(16)
_cell_formula_units_Z            4
_cell_measurement_temperature    293(2)
_cell_measurement_reflns_used    ?
_cell_measurement_theta_min      ?
_cell_measurement_theta_max      ?

_exptl_crystal_description       block
_exptl_crystal_colour            colorless
_exptl_crystal_size_max          0.12
_exptl_crystal_size_mid          0.08
_exptl_crystal_size_min          0.05
_exptl_crystal_density_meas      ?
_exptl_crystal_density_diffrn    0.731
_exptl_crystal_density_method    'not measured'
_exptl_crystal_F_000             10308
_exptl_absorpt_coefficient_mu    1.003
_exptl_absorpt_correction_type   none
_exptl_absorpt_correction_T_min  ?
_exptl_absorpt_correction_T_max  ?
_exptl_absorpt_process_details   ?

_exptl_special_details           
;
?
;

_diffrn_ambient_temperature      296(2)
_diffrn_radiation_wavelength     0.88561
_diffrn_radiation_type           synchrotron
_diffrn_radiation_source         'BESSY BL MX-14.2'
_diffrn_radiation_monochromator  'Si 111'
_diffrn_measurement_device_type  'MX-225 CCD'
_diffrn_measurement_method       '\D\f scans'
_diffrn_reflns_number            132373
_diffrn_reflns_av_R_equivalents  0.0584
_diffrn_reflns_av_sigmaI/netI    0.0461
_diffrn_reflns_limit_h_min       -23
_diffrn_reflns_limit_h_max       23
_diffrn_reflns_limit_k_min       -48
_diffrn_reflns_limit_k_max       47
_diffrn_reflns_limit_l_min       -52
_diffrn_reflns_limit_l_max       52
_diffrn_reflns_theta_min         1.22
_diffrn_reflns_theta_max         30.60
_reflns_number_total             32809
_reflns_number_gt                24219
_reflns_threshold_expression     >2sigma(I)

_computing_data_collection       'marCCD 1994-2002'
_computing_cell_refinement       'mosflm 1.0.5 (Leslie, 1992)'
_computing_data_reduction        'scala (Howell, (1992)'
_computing_structure_solution    'SHELXS-97 (Sheldrick, 1997)'
_computing_structure_refinement  'SHELXL-97 (Sheldrick, 1997)'
_computing_molecular_graphics    'Diamond 3.1'
_computing_publication_material  WinGX


_refine_special_details          
;
Refinement of F^2^ against ALL reflections. The weighted R-factor wR and
goodness of fit S are based on F^2^, conventional R-factors R are based
on F, with F set to zero for negative F^2^. The threshold expression of
F^2^ > 2sigma(F^2^) is used only for calculating R-factors(gt) etc. and is
not relevant to the choice of reflections for refinement. R-factors based
on F^2^ are statistically about twice as large as those based on F, and R-
factors based on ALL data will be even larger.
;

_refine_ls_structure_factor_coef Fsqd
_refine_ls_matrix_type           full
_refine_ls_weighting_scheme      calc
_refine_ls_weighting_details     
'calc w=1/[\s^2^(Fo^2^)+(0.2000P)^2^+0.0000P] where P=(Fo^2^+2Fc^2^)/3'
_atom_sites_solution_primary     direct
_atom_sites_solution_secondary   difmap
_atom_sites_solution_hydrogens   geom
_refine_ls_hydrogen_treatment    constr
_refine_ls_extinction_method     none
_refine_ls_extinction_coef       ?
_refine_ls_number_reflns         32809
_refine_ls_number_parameters     1534
_refine_ls_number_restraints     0
_refine_ls_R_factor_all          0.1066
_refine_ls_R_factor_gt           0.0911
_refine_ls_wR_factor_ref         0.2840
_refine_ls_wR_factor_gt          0.2671
_refine_ls_goodness_of_fit_ref   1.129
_refine_ls_restrained_S_all      1.129
_refine_ls_shift/su_max          0.002
_refine_ls_shift/su_mean         0.000

loop_
_atom_site_label
_atom_site_type_symbol
_atom_site_fract_x
_atom_site_fract_y
_atom_site_fract_z
_atom_site_U_iso_or_equiv
_atom_site_adp_type
_atom_site_occupancy
_atom_site_symmetry_multiplicity
_atom_site_calc_flag
_atom_site_refinement_flags
_atom_site_disorder_assembly
_atom_site_disorder_group
Zn1 Zn 0.821240(19) 0.136802(9) 0.892340(9) 0.03890(15) Uani 1 1 d . . .
Zn2 Zn 0.997203(17) 0.142808(10) 1.212464(9) 0.03621(15) Uani 1 1 d . . .
Zn3 Zn 0.81837(2) 0.132178(11) 0.818918(10) 0.04606(16) Uani 1 1 d . . .
Zn4 Zn 0.12598(3) 0.636644(13) 0.415638(18) 0.0810(2) Uani 1 1 d . . .
Zn5 Zn 0.11707(6) 0.63695(2) 0.48558(3) 0.1453(5) Uani 1 1 d . . .
N1 N 0.4796(3) 0.29930(18) 0.04278(16) 0.129(2) Uani 1 1 d . . .
N2 N 0.2225(4) 0.2025(2) 0.35783(18) 0.153(3) Uani 1 1 d . . .
O1 O 0.81221(15) 0.14406(7) 0.93536(6) 0.0605(8) Uani 1 1 d . . .
O2 O 0.89767(18) 0.12578(11) 0.92730(8) 0.0937(13) Uani 1 1 d . . .
O3 O 0.91459(19) 0.12898(12) 1.17832(8) 0.1033(15) Uani 1 1 d . . .
O4 O 0.99823(14) 0.14602(7) 1.16967(6) 0.0557(7) Uani 1 1 d . . .
O5 O 1.07048(11) 0.16164(7) 1.22326(6) 0.0500(7) Uani 1 1 d . . .
O6 O 1.00190(16) 0.09852(7) 1.22547(7) 0.0733(10) Uani 1 1 d . . .
O7 O 0.94399(12) 0.17285(7) 1.22939(6) 0.0553(7) Uani 1 1 d . . .
O8 O 0.87252(13) 0.16722(7) 0.87412(7) 0.0566(8) Uani 1 1 d . . .
O9 O 0.88646(12) 0.15675(7) 0.82656(7) 0.0573(8) Uani 1 1 d . . .
O10 O 0.75741(14) 0.15890(9) 0.82955(7) 0.0757(10) Uani 1 1 d . . .
O11 O 0.74804(12) 0.15337(7) 0.87788(7) 0.0552(7) Uani 1 1 d . . .
O12 O 0.8347(2) 0.09104(8) 0.83470(10) 0.1064(16) Uani 1 1 d . . .
O13 O 0.81753(15) 0.09098(7) 0.88212(8) 0.0702(9) Uani 1 1 d . . .
O14 O 0.81851(18) 0.12801(9) 0.77443(8) 0.0867(11) Uani 1 1 d . . .
O15 O 0.1414(3) 0.59283(10) 0.42492(14) 0.144(2) Uani 1 1 d . . .
O16 O 0.1454(3) 0.59488(12) 0.47162(16) 0.174(3) Uani 1 1 d . . .
O17 O 0.18496(12) 0.63142(6) 0.50202(6) 0.0507(7) Uani 1 1 d . . .
O18 O 0.1095(5) 0.6417(2) 0.5211(3) 0.318(8) Uani 1 1 d . . .
O19 O 0.0692(5) 0.6095(2) 0.4987(5) 0.482(14) Uani 1 1 d . . .
O20 O 0.5472(2) 0.15008(13) 0.46523(14) 0.1295(19) Uani 1 1 d . . .
O21 O 0.56081(19) 0.16263(12) 0.41724(12) 0.1106(16) Uani 1 1 d . . .
O22 O -0.3239(2) 0.16997(11) 0.47375(10) 0.1046(14) Uani 1 1 d . . .
O23 O -0.30806(16) 0.16208(8) 0.42643(8) 0.0754(10) Uani 1 1 d . . .
O24 O 0.13945(19) 0.63396(10) 0.37190(11) 0.1024(14) Uani 1 1 d . . .
O25 O 0.4202(5) 0.3400(3) 0.0576(3) 0.261(6) Uani 1 1 d . . .
O26 O 0.2692(5) 0.1594(3) 0.3379(4) 0.336(8) Uani 1 1 d . . .
C1 C 0.8591(3) 0.13572(11) 0.94431(11) 0.0658(14) Uani 1 1 d . . .
C2 C 0.8719(2) 0.13783(11) 0.97687(9) 0.0624(13) Uani 1 1 d . . .
C3 C 0.8341(3) 0.14907(14) 0.99657(11) 0.0791(15) Uani 1 1 d . . .
H3 H 0.7996 0.1563 0.9899 0.095 Uiso 1 1 calc R . .
C4 C 0.8459(2) 0.14995(14) 1.02626(11) 0.0792(16) Uani 1 1 d . . .
H4 H 0.8186 0.1570 1.0393 0.095 Uiso 1 1 calc R . .
C5 C 0.8969(2) 0.14067(12) 1.03692(10) 0.0689(14) Uani 1 1 d . . .
C6 C 0.9343(3) 0.12881(15) 1.01709(11) 0.0838(17) Uani 1 1 d . . .
H6 H 0.9689 0.1218 1.0238 0.101 Uiso 1 1 calc R . .
C7 C 0.9223(3) 0.12678(15) 0.98730(11) 0.0810(16) Uani 1 1 d . . .
H7 H 0.9483 0.1180 0.9745 0.097 Uiso 1 1 calc R . .
C8 C 0.9113(2) 0.14061(12) 1.06860(11) 0.0715(14) Uani 1 1 d . . .
C9 C 0.9611(2) 0.15189(14) 1.07891(10) 0.0742(15) Uani 1 1 d . . .
H9 H 0.9874 0.1599 1.0658 0.089 Uiso 1 1 calc R . .
C10 C 0.9730(2) 0.15160(13) 1.10863(10) 0.0710(14) Uani 1 1 d . . .
H10 H 1.0071 0.1597 1.1150 0.085 Uiso 1 1 calc R . .
C11 C 0.9358(2) 0.13965(11) 1.12935(10) 0.0613(12) Uani 1 1 d . . .
C12 C 0.9488(2) 0.13786(11) 1.16140(10) 0.0636(13) Uani 1 1 d . . .
C13 C 1.08370(17) 0.17405(9) 1.24725(8) 0.0430(9) Uani 1 1 d . . .
C14 C 1.13762(17) 0.19231(9) 1.24831(9) 0.0466(9) Uani 1 1 d . . .
C15 C 1.1535(2) 0.20802(13) 1.27392(10) 0.0642(13) Uani 1 1 d . . .
H15 H 1.1305 0.2072 1.2903 0.077 Uiso 1 1 calc R . .
C16 C 1.2027(2) 0.22462(12) 1.27508(10) 0.0664(14) Uani 1 1 d . . .
H16 H 1.2121 0.2353 1.2923 0.080 Uiso 1 1 calc R . .
C17 C 1.23919(18) 0.22596(10) 1.25117(10) 0.0529(10) Uani 1 1 d . . .
C18 C 1.2225(2) 0.20919(13) 1.22590(10) 0.0688(14) Uani 1 1 d . . .
H18 H 1.2460 0.2088 1.2096 0.083 Uiso 1 1 calc R . .
C19 C 1.17298(19) 0.19367(11) 1.22479(9) 0.0576(12) Uani 1 1 d . . .
H19 H 1.1626 0.1836 1.2074 0.069 Uiso 1 1 calc R . .
C20 C 1.29308(18) 0.24320(9) 1.25189(10) 0.0509(10) Uani 1 1 d . . .
C21 C 1.29987(18) 0.27090(11) 1.26820(11) 0.0619(12) Uani 1 1 d . . .
H21 H 1.2701 0.2786 1.2792 0.074 Uiso 1 1 calc R . .
C22 C 1.34978(19) 0.28731(10) 1.26841(11) 0.0584(12) Uani 1 1 d . . .
H22 H 1.3530 0.3059 1.2795 0.070 Uiso 1 1 calc R . .
C23 C 1.39593(16) 0.27645(9) 1.25217(9) 0.0435(9) Uani 1 1 d . . .
C24 C 1.38830(19) 0.24862(10) 1.23584(12) 0.0633(13) Uani 1 1 d . . .
H24 H 1.4176 0.2408 1.2246 0.076 Uiso 1 1 calc R . .
C25 C 1.33861(19) 0.23265(11) 1.23605(12) 0.0696(15) Uani 1 1 d . . .
H25 H 1.3353 0.2140 1.2251 0.084 Uiso 1 1 calc R . .
C26 C 1.44981(16) 0.29408(8) 1.25143(8) 0.0408(9) Uani 1 1 d . . .
C27 C 1.44949(17) 0.32751(9) 1.25159(8) 0.0445(9) Uani 1 1 d . . .
H27 H 1.4158 0.3385 1.2528 0.053 Uiso 1 1 calc R . .
C28 C 1.5000 0.34439(11) 1.2500 0.0438(13) Uani 1 2 d S . .
C29 C 1.5000 0.37971(12) 1.2500 0.0442(13) Uani 1 2 d S . .
C30 C 1.53415(19) 0.39671(9) 1.23136(11) 0.0581(12) Uani 1 1 d . . .
H30 H 1.5572 0.3858 1.2184 0.070 Uiso 1 1 calc R . .
C31 C 1.5347(2) 0.42979(10) 1.23156(11) 0.0660(14) Uani 1 1 d . . .
H31 H 1.5589 0.4406 1.2191 0.079 Uiso 1 1 calc R . .
C32 C 1.5000 0.44716(14) 1.2500 0.0650(18) Uani 1 2 d S . .
C33 C 1.5000 0.48213(14) 1.2500 0.0643(18) Uani 1 2 d S . .
C34 C 1.5075(3) 0.50006(11) 1.22418(11) 0.0811(17) Uani 1 1 d . . .
H34 H 1.5120 0.4894 1.2064 0.097 Uiso 1 1 calc R . .
C35 C 1.5083(3) 0.53223(10) 1.22439(11) 0.0762(16) Uani 1 1 d . . .
H35 H 1.5147 0.5431 1.2069 0.091 Uiso 1 1 calc R . .
C36 C 1.5000 0.54976(14) 1.2500 0.0613(17) Uani 1 2 d S . .
C37 C 1.5000 0.27829(12) 1.2500 0.0477(14) Uani 1 2 d S . .
H37 H 1.5000 0.2561 1.2500 0.057 Uiso 1 2 calc SR . .
C38 C 1.0000 0.08532(13) 1.2500 0.0518(15) Uani 1 2 d S . .
C39 C 0.8850(3) 0.12853(14) 1.11892(11) 0.0807(16) Uani 1 1 d . . .
H39 H 0.8592 0.1205 1.1322 0.097 Uiso 1 1 calc R . .
C40 C 0.8716(3) 0.12890(14) 1.08978(10) 0.0802(16) Uani 1 1 d . . .
H40 H 0.8368 0.1216 1.0836 0.096 Uiso 1 1 calc R . .
C41 C 0.89971(18) 0.16945(9) 0.85056(9) 0.0491(10) Uani 1 1 d . . .
C42 C 0.73110(18) 0.16260(9) 0.85357(9) 0.0492(10) Uani 1 1 d . . .
C43 C 0.67681(18) 0.18037(10) 0.85218(9) 0.0507(10) Uani 1 1 d . . .
C44 C 0.6449(2) 0.18446(12) 0.87713(10) 0.0668(13) Uani 1 1 d . . .
H44 H 0.6576 0.1763 0.8949 0.080 Uiso 1 1 calc R . .
C45 C 0.5958(2) 0.20006(13) 0.87614(10) 0.0666(13) Uani 1 1 d . . .
H45 H 0.5749 0.2019 0.8932 0.080 Uiso 1 1 calc R . .
C46 C 0.5749(2) 0.21386(10) 0.84984(10) 0.0569(11) Uani 1 1 d . . .
C47 C 0.6086(2) 0.20999(12) 0.82490(10) 0.0669(13) Uani 1 1 d . . .
H47 H 0.5975 0.2192 0.8072 0.080 Uiso 1 1 calc R . .
C48 C 0.6576(2) 0.19286(12) 0.82600(10) 0.0661(13) Uani 1 1 d . . .
H48 H 0.6781 0.1897 0.8089 0.079 Uiso 1 1 calc R . .
C49 C 0.52162(19) 0.23172(10) 0.84939(10) 0.0551(11) Uani 1 1 d . . .
C50 C 0.4766(2) 0.22241(10) 0.86662(11) 0.0641(13) Uani 1 1 d . . .
H50 H 0.4798 0.2043 0.8783 0.077 Uiso 1 1 calc R . .
C51 C 0.4276(2) 0.23928(10) 0.86688(11) 0.0602(12) Uani 1 1 d . . .
H51 H 0.3981 0.2322 0.8785 0.072 Uiso 1 1 calc R . .
C52 C 0.42122(17) 0.26698(8) 0.84999(9) 0.0442(9) Uani 1 1 d . . .
C53 C 0.46607(18) 0.27612(9) 0.83275(10) 0.0545(11) Uani 1 1 d . . .
H53 H 0.4629 0.2944 0.8213 0.065 Uiso 1 1 calc R . .
C54 C 0.51476(19) 0.25910(10) 0.83213(11) 0.0592(12) Uani 1 1 d . . .
H54 H 0.5438 0.2658 0.8201 0.071 Uiso 1 1 calc R . .
C55 C 0.36878(18) 0.28551(8) 0.85093(9) 0.0451(9) Uani 1 1 d . . .
C56 C 0.36971(17) 0.31897(8) 0.85130(8) 0.0410(9) Uani 1 1 d . . .
H56 H 0.4037 0.3297 0.8503 0.049 Uiso 1 1 calc R . .
C57 C 0.32061(16) 0.33616(8) 0.85320(8) 0.0414(9) Uani 1 1 d . . .
C58 C 0.32219(17) 0.37205(9) 0.85408(9) 0.0474(10) Uani 1 1 d . . .
C59 C 0.28505(19) 0.38921(9) 0.87137(11) 0.0569(11) Uani 1 1 d . . .
H59 H 0.2587 0.3784 0.8826 0.068 Uiso 1 1 calc R . .
C60 C 0.2869(2) 0.42190(10) 0.87203(11) 0.0664(13) Uani 1 1 d . . .
H60 H 0.2615 0.4326 0.8839 0.080 Uiso 1 1 calc R . .
C61 C 0.3239(2) 0.43943(10) 0.85614(11) 0.0622(13) Uani 1 1 d . . .
C62 C 0.3254(2) 0.47477(10) 0.85665(11) 0.0645(13) Uani 1 1 d . . .
C63 C 0.3636(2) 0.42233(10) 0.83891(12) 0.0762(16) Uani 1 1 d . . .
H63 H 0.3907 0.4334 0.8283 0.091 Uiso 1 1 calc R . .
C64 C 0.3619(2) 0.38926(9) 0.83797(11) 0.0621(13) Uani 1 1 d . . .
H64 H 0.3875 0.3783 0.8264 0.075 Uiso 1 1 calc R . .
C65 C 0.27003(17) 0.32063(9) 0.85375(9) 0.0444(9) Uani 1 1 d . . .
H65 H 0.2372 0.3325 0.8546 0.053 Uiso 1 1 calc R . .
C66 C 0.26704(17) 0.28708(9) 0.85307(9) 0.0441(9) Uani 1 1 d . . .
C67 C 0.21282(17) 0.27079(8) 0.85346(9) 0.0452(9) Uani 1 1 d . . .
C68 C 0.2042(2) 0.24221(11) 0.83742(12) 0.0671(14) Uani 1 1 d . . .
H68 H 0.2335 0.2336 0.8266 0.081 Uiso 1 1 calc R . .
C69 C 0.1541(2) 0.22724(11) 0.83751(12) 0.0704(14) Uani 1 1 d . . .
H69 H 0.1502 0.2083 0.8270 0.084 Uiso 1 1 calc R . .
C70 C 0.10740(18) 0.23911(10) 0.85293(10) 0.0521(10) Uani 1 1 d . . .
C71 C 0.11644(19) 0.26714(10) 0.86832(11) 0.0588(12) Uani 1 1 d . . .
H71 H 0.0870 0.2759 0.8790 0.071 Uiso 1 1 calc R . .
C72 C 0.16709(19) 0.28268(10) 0.86855(11) 0.0590(12) Uani 1 1 d . . .
H72 H 0.1707 0.3016 0.8791 0.071 Uiso 1 1 calc R . .
C73 C 0.31748(16) 0.27030(9) 0.85144(9) 0.0455(10) Uani 1 1 d . . .
H73 H 0.3165 0.2481 0.8507 0.055 Uiso 1 1 calc R . .
C74 C 0.8260(2) 0.07730(11) 0.85835(12) 0.0622(12) Uani 1 1 d . . .
C75 C 0.8266(2) 0.04191(10) 0.85842(11) 0.0657(13) Uani 1 1 d . . .
C76 C 0.8120(3) 0.02413(10) 0.88285(12) 0.0826(17) Uani 1 1 d . . .
H76 H 0.8019 0.0346 0.9001 0.099 Uiso 1 1 calc R . .
C77 C 0.8120(3) -0.00832(11) 0.88220(12) 0.0785(16) Uani 1 1 d . . .
H77 H 0.8030 -0.0196 0.8991 0.094 Uiso 1 1 calc R . .
C78 C 0.8414(3) 0.02541(10) 0.83323(13) 0.093(2) Uani 1 1 d . . .
H78 H 0.8526 0.0367 0.8167 0.111 Uiso 1 1 calc R . .
C79 C 0.8399(3) -0.00776(11) 0.83222(13) 0.095(2) Uani 1 1 d . . .
H79 H 0.8487 -0.0183 0.8148 0.114 Uiso 1 1 calc R . .
C80 C 0.95242(19) 0.18874(10) 0.85084(9) 0.0528(10) Uani 1 1 d . . .
C81 C 0.9677(2) 0.20625(12) 0.87546(10) 0.0658(14) Uani 1 1 d . . .
H81 H 0.9442 0.2068 0.8917 0.079 Uiso 1 1 calc R . .
C82 C 1.0173(2) 0.22274(13) 0.87604(10) 0.0714(15) Uani 1 1 d . . .
H82 H 1.0263 0.2346 0.8927 0.086 Uiso 1 1 calc R . .
C83 C 1.05446(19) 0.22231(10) 0.85250(10) 0.0571(11) Uani 1 1 d . . .
C84 C 1.0374(2) 0.20451(14) 0.82783(11) 0.0818(18) Uani 1 1 d . . .
H84 H 1.0606 0.2037 0.8115 0.098 Uiso 1 1 calc R . .
C85 C 0.9877(2) 0.18842(13) 0.82727(10) 0.0681(14) Uani 1 1 d . . .
H85 H 0.9777 0.1770 0.8105 0.082 Uiso 1 1 calc R . .
C86 C 0.1479(3) 0.58066(13) 0.4472(2) 0.104(2) Uani 1 1 d . . .
C87 C 0.1505(3) 0.54485(12) 0.44911(17) 0.095(2) Uani 1 1 d . . .
C88 C 0.1419(4) 0.52930(16) 0.4769(2) 0.141(3) Uani 1 1 d . . .
H88 H 0.1358 0.5413 0.4938 0.169 Uiso 1 1 calc R . .
C89 C 0.1428(4) 0.49598(14) 0.47815(19) 0.135(3) Uani 1 1 d . . .
H89 H 0.1395 0.4856 0.4961 0.162 Uiso 1 1 calc R . .
C90 C 0.1488(3) 0.47772(12) 0.45167(15) 0.0871(18) Uani 1 1 d . . .
C91 C 0.1