####################################################################### 
# 
# This file contains crystal structure data downloaded from the 
# Cambridge Structural Database (CSD) hosted by the Cambridge 
# Crystallographic Data Centre (CCDC).
# 
# Full information about CCDC data access policies and citation 
# guidelines are available at http://www.ccdc.cam.ac.uk/access/V1 
# 
# Audit and citation data items may have been added by the CCDC. 
# Please retain this information to preserve the provenance of 
# this file and to allow appropriate attribution of the data. 
# 
#######################################################################

data_DUT-44
_audit_block_doi                 10.5517/ccxk7h5
_database_code_depnum_ccdc_archive 'CCDC 850717'
loop_
_citation_id
_citation_doi
_citation_year
1 10.1039/c2dt12072k 2012
_audit_update_record             
;
2011-10-25 deposited with the CCDC.	2024-07-09 downloaded from the CCDC.
;
#TrackingRef '7808_web_deposit_cif_file_4_VolodymyrBon_1319553644.DUT44.cif'


_audit_creation_method           SHELXL-97
_chemical_name_systematic        
;
?
;
_chemical_name_common            ?
_chemical_melting_point          ?
_chemical_formula_moiety         ?
_chemical_formula_sum            'C55 H49 Co2 N3 O12'
_chemical_formula_weight         1061.83

loop_
_atom_type_symbol
_atom_type_description
_atom_type_scat_dispersion_real
_atom_type_scat_dispersion_imag
_atom_type_scat_source
C C 0.0060 0.0030 'International Tables Vol C Tables 4.2.6.8 and 6.1.1.4'
H H 0.0000 0.0000 'International Tables Vol C Tables 4.2.6.8 and 6.1.1.4'
Co Co 0.3090 1.4430 'International Tables Vol C Tables 4.2.6.8 and 6.1.1.4'
N N 0.0100 0.0050 'International Tables Vol C Tables 4.2.6.8 and 6.1.1.4'
O O 0.0180 0.0100 'International Tables Vol C Tables 4.2.6.8 and 6.1.1.4'

_symmetry_cell_setting           Monoclinic
_symmetry_space_group_name_H-M   C2/c

loop_
_symmetry_equiv_pos_as_xyz
'x, y, z'
'-x, y, -z+1/2'
'x+1/2, y+1/2, z'
'-x+1/2, y+1/2, -z+1/2'
'-x, -y, -z'
'x, -y, z-1/2'
'-x+1/2, -y+1/2, -z'
'x+1/2, -y+1/2, z-1/2'

_cell_length_a                   39.776(8)
_cell_length_b                   24.693(5)
_cell_length_c                   21.823(4)
_cell_angle_alpha                90.00
_cell_angle_beta                 117.94(3)
_cell_angle_gamma                90.00
_cell_volume                     18936(6)
_cell_formula_units_Z            8
_cell_measurement_temperature    293(2)
_cell_measurement_reflns_used    ?
_cell_measurement_theta_min      ?
_cell_measurement_theta_max      ?

_exptl_crystal_description       prism
_exptl_crystal_colour            violet
_exptl_crystal_size_max          0.12
_exptl_crystal_size_mid          0.12
_exptl_crystal_size_min          0.12
_exptl_crystal_density_meas      ?
_exptl_crystal_density_diffrn    0.745
_exptl_crystal_density_method    'not measured'
_exptl_crystal_F_000             4400
_exptl_absorpt_coefficient_mu    0.695
_exptl_absorpt_correction_type   none
_exptl_absorpt_correction_T_min  ?
_exptl_absorpt_correction_T_max  ?
_exptl_absorpt_process_details   ?

_exptl_special_details           
;
?
;

_diffrn_ambient_temperature      296(2)
_diffrn_radiation_wavelength     0.88561
_diffrn_radiation_type           synchrotron
_diffrn_radiation_source         'BESSY BL MX-14.2'
_diffrn_radiation_monochromator  'Si 111'
_diffrn_measurement_device_type  'MX-225 CCD'
_diffrn_measurement_method       '\D\f scans'
_diffrn_reflns_number            57847
_diffrn_reflns_av_R_equivalents  0.0344
_diffrn_reflns_av_sigmaI/netI    0.0259
_diffrn_reflns_limit_h_min       -42
_diffrn_reflns_limit_h_max       41
_diffrn_reflns_limit_k_min       -28
_diffrn_reflns_limit_k_max       28
_diffrn_reflns_limit_l_min       -25
_diffrn_reflns_limit_l_max       25
_diffrn_reflns_theta_min         1.56
_diffrn_reflns_theta_max         30.60
_reflns_number_total             13628
_reflns_number_gt                10736
_reflns_threshold_expression     >2sigma(I)

_computing_data_collection       'marCCD 1994-2002'
_computing_cell_refinement       'mosflm 1.0.5 (Leslie, 1992)'
_computing_data_reduction        'scala (Howell, (1992)'
_computing_structure_solution    'SHELXS-97 (Sheldrick, 1997)'
_computing_structure_refinement  'SHELXL-97 (Sheldrick, 1997)'
_computing_molecular_graphics    'Diamond 3.1'
_computing_publication_material  WinGX

_refine_special_details          
;
Refinement of F^2^ against ALL reflections. The weighted R-factor wR and
goodness of fit S are based on F^2^, conventional R-factors R are based
on F, with F set to zero for negative F^2^. The threshold expression of
F^2^ > 2sigma(F^2^) is used only for calculating R-factors(gt) etc. and is
not relevant to the choice of reflections for refinement. R-factors based
on F^2^ are statistically about twice as large as those based on F, and R-
factors based on ALL data will be even larger.
;

_refine_ls_structure_factor_coef Fsqd
_refine_ls_matrix_type           full
_refine_ls_weighting_scheme      calc
_refine_ls_weighting_details     
'calc w=1/[\s^2^(Fo^2^)+(0.1709P)^2^+0.0000P] where P=(Fo^2^+2Fc^2^)/3'
_atom_sites_solution_primary     direct
_atom_sites_solution_secondary   difmap
_atom_sites_solution_hydrogens   geom
_refine_ls_hydrogen_treatment    constr
_refine_ls_extinction_method     SHELXL
_refine_ls_extinction_coef       0.00091(12)
_refine_ls_extinction_expression Fc^*^=kFc[1+0.001xFc^2^\l^3^/sin(2\q)]^-1/4^
_refine_ls_number_reflns         13628
_refine_ls_number_parameters     650
_refine_ls_number_restraints     8
_refine_ls_R_factor_all          0.0787
_refine_ls_R_factor_gt           0.0702
_refine_ls_wR_factor_ref         0.2242
_refine_ls_wR_factor_gt          0.2145
_refine_ls_goodness_of_fit_ref   1.086
_refine_ls_restrained_S_all      1.095
_refine_ls_shift/su_max          0.009
_refine_ls_shift/su_mean         0.000

loop_
_atom_site_label
_atom_site_type_symbol
_atom_site_fract_x
_atom_site_fract_y
_atom_site_fract_z
_atom_site_U_iso_or_equiv
_atom_site_adp_type
_atom_site_occupancy
_atom_site_symmetry_multiplicity
_atom_site_calc_flag
_atom_site_refinement_flags
_atom_site_disorder_assembly
_atom_site_disorder_group
Co1 Co 0.243183(12) 0.473734(14) 0.26312(2) 0.06496(19) Uani 1 1 d . . .
Co2 Co 0.294763(12) 0.490064(16) 0.43802(2) 0.07061(19) Uani 1 1 d . . .
N1 N 0.2879(2) 0.63039(18) 0.5395(4) 0.217(3) Uani 1 1 d D . .
N2 N 0.28238(19) 0.4032(2) 0.5925(3) 0.1570(19) Uani 1 1 d D . .
N3 N 0.23079(15) 0.46694(16) 0.1366(2) 0.1075(11) Uani 1 1 d . . .
O1 O 0.28952(7) 0.52166(8) 0.34350(13) 0.0803(6) Uani 1 1 d . . .
O2 O 0.23705(7) 0.48818(10) 0.40450(14) 0.0892(7) Uani 1 1 d . . .
O3 O 0.20194(7) 0.47354(10) 0.29087(13) 0.0846(6) Uani 1 1 d . . .
O4 O 0.29821(8) 0.41285(9) 0.40733(13) 0.0975(8) Uani 1 1 d . . .
O5 O 0.26609(8) 0.40064(9) 0.29206(14) 0.0922(7) Uani 1 1 d . . .
O6 O 0.29497(9) 0.56811(10) 0.47474(16) 0.1112(9) Uani 1 1 d . . .
O7 O 0.30220(9) 0.45776(11) 0.53298(14) 0.0996(8) Uani 1 1 d . . .
O8 O 0.35393(9) 0.49874(16) 0.4825(2) 0.1347(12) Uani 1 1 d . . .
O9 O 0.24440(8) 0.56053(10) 0.25366(15) 0.1067(9) Uani 1 1 d . . .
O10 O 0.26501(12) 0.47126(13) 0.1826(2) 0.1200(10) Uani 1 1 d . . .
O11 O 0.20672(8) 0.46390(11) 0.15759(14) 0.0959(7) Uani 1 1 d . . .
O12 O 0.22241(17) 0.4660(2) 0.0767(2) 0.198(2) Uani 1 1 d . . .
C1 C 0.20599(10) 0.48035(12) 0.3509(2) 0.0745(9) Uani 1 1 d . . .
C2 C 0.17110(10) 0.47955(13) 0.35891(18) 0.0779(9) Uani 1 1 d . . .
C3 C 0.17232(11) 0.48642(16) 0.4230(2) 0.0874(10) Uani 1 1 d . . .
H3 H 0.1957 0.4920 0.4619 0.105 Uiso 1 1 calc R . .
C4 C 0.14021(11) 0.48515(16) 0.43024(19) 0.0897(10) Uani 1 1 d . . .
H4 H 0.1422 0.4900 0.4740 0.108 Uiso 1 1 calc R . .
C5 C 0.10403(10) 0.47665(14) 0.37312(18) 0.0790(9) Uani 1 1 d . . .
C6 C 0.10288(11) 0.46972(16) 0.30904(19) 0.0894(10) Uani 1 1 d . . .
H6 H 0.0796 0.4639 0.2701 0.107 Uiso 1 1 calc R . .
C7 C 0.13539(11) 0.47126(16) 0.30165(19) 0.0859(10) Uani 1 1 d . . .
H7 H 0.1336 0.4667 0.2579 0.103 Uiso 1 1 calc R . .
C8 C 0.06958(9) 0.47440(14) 0.38095(17) 0.0764(9) Uani 1 1 d . . .
C9 C 0.06305(10) 0.50981(14) 0.42468(19) 0.0831(9) Uani 1 1 d . . .
H9 H 0.0818 0.5347 0.4512 0.100 Uiso 1 1 calc R . .
C10 C 0.03027(10) 0.50887(12) 0.42950(18) 0.0747(8) Uani 1 1 d . . .
H10 H 0.0270 0.5334 0.4586 0.090 Uiso 1 1 calc R . .
C11 C 0.00154(9) 0.47197(11) 0.39184(16) 0.0668(7) Uani 1 1 d . . .
C12 C 0.00785(10) 0.43477(14) 0.35085(18) 0.0840(9) Uani 1 1 d . . .
H12 H -0.0107 0.4090 0.3263 0.101 Uiso 1 1 calc R . .
C13 C 0.04144(11) 0.43533(15) 0.3458(2) 0.0920(10) Uani 1 1 d . . .
H13 H 0.0453 0.4094 0.3188 0.110 Uiso 1 1 calc R . .
C14 C -0.03524(8) 0.47178(10) 0.39499(15) 0.0638(7) Uani 1 1 d . . .
C15 C -0.05379(8) 0.42326(11) 0.39316(15) 0.0652(7) Uani 1 1 d . . .
H15 H -0.0421 0.3907 0.3930 0.078 Uiso 1 1 calc R . .
C16 C -0.08849(8) 0.42225(10) 0.39157(14) 0.0624(7) Uani 1 1 d . . .
C17 C -0.10867(8) 0.37016(11) 0.38695(16) 0.0690(7) Uani 1 1 d . . .
C18 C -0.14819(10) 0.36707(12) 0.3516(2) 0.0977(12) Uani 1 1 d . . .
H18 H -0.1624 0.3983 0.3329 0.117 Uiso 1 1 calc R . .
C19 C -0.16643(10) 0.31820(13) 0.3439(3) 0.1035(13) Uani 1 1 d . . .
H19 H -0.1929 0.3174 0.3204 0.124 Uiso 1 1 calc R . .
C20 C -0.14674(9) 0.26996(12) 0.36997(18) 0.0774(8) Uani 1 1 d . . .
C21 C -0.16665(9) 0.21696(11) 0.35705(18) 0.0772(8) Uani 1 1 d . . .
C22 C -0.20283(11) 0.21085(13) 0.3043(2) 0.1093(14) Uani 1 1 d . . .
H22 H -0.2154 0.2409 0.2777 0.131 Uiso 1 1 calc R . .
C23 C -0.22117(11) 0.16224(14) 0.2893(2) 0.1092(14) Uani 1 1 d . . .
H23 H -0.2456 0.1598 0.2523 0.131 Uiso 1 1 calc R . .
C24 C -0.20443(9) 0.11680(11) 0.32768(17) 0.0738(8) Uani 1 1 d . . .
C25 C -0.16825(11) 0.12128(13) 0.3794(2) 0.1021(12) Uani 1 1 d . . .
H25 H -0.1558 0.0908 0.4050 0.123 Uiso 1 1 calc R . .
C26 C -0.14967(11) 0.17061(15) 0.3945(2) 0.1104(14) Uani 1 1 d . . .
H26 H -0.1250 0.1727 0.4309 0.132 Uiso 1 1 calc R . .
C27 C -0.10735(10) 0.27429(14) 0.4054(3) 0.1140(15) Uani 1 1 d . . .
H27 H -0.0930 0.2432 0.4243 0.137 Uiso 1 1 calc R . .
C28 C -0.08879(10) 0.32257(13) 0.4135(2) 0.1077(14) Uani 1 1 d . . .
H28 H -0.0623 0.3234 0.4374 0.129 Uiso 1 1 calc R . .
C29 C -0.10600(9) 0.47136(10) 0.39230(15) 0.0641(7) Uani 1 1 d . . .
H29 H -0.1298 0.4712 0.3906 0.077 Uiso 1 1 calc R . .
C30 C -0.08803(9) 0.52010(10) 0.39557(16) 0.0652(7) Uani 1 1 d . . .
C31 C -0.10714(9) 0.57279(11) 0.39380(17) 0.0719(8) Uani 1 1 d . . .
C32 C -0.14560(9) 0.57992(12) 0.35028(19) 0.0827(9) Uani 1 1 d . . .
H32 H -0.1603 0.5510 0.3241 0.099 Uiso 1 1 calc R . .
C33 C -0.16237(9) 0.62978(12) 0.3455(2) 0.0894(10) Uani 1 1 d . . .
H33 H -0.1882 0.6337 0.3156 0.107 Uiso 1 1 calc R . .
C34 C -0.14231(10) 0.67370(12) 0.38309(19) 0.0836(9) Uani 1 1 d . . .
C35 C -0.16098(11) 0.72779(12) 0.37496(19) 0.0839(9) Uani 1 1 d . . .
C36 C -0.18756(10) 0.74664(13) 0.3129(2) 0.0883(10) Uani 1 1 d . . .
H36 H -0.1947 0.7247 0.2741 0.106 Uiso 1 1 calc R . .
C37 C -0.20451(11) 0.79643(13) 0.3039(2) 0.0884(10) Uani 1 1 d . . .
H37 H -0.2227 0.8076 0.2602 0.106 Uiso 1 1 calc R . .
C38 C -0.15022(13) 0.76205(14) 0.4325(2) 0.1041(12) Uani 1 1 d . . .
H38 H -0.1315 0.7510 0.4759 0.125 Uiso 1 1 calc R . .
C39 C -0.16726(13) 0.81211(14) 0.4250(2) 0.1082(13) Uani 1 1 d . . .
H39 H -0.1603 0.8338 0.4639 0.130 Uiso 1 1 calc R . .
C40 C -0.10359(11) 0.66585(13) 0.4285(2) 0.0991(12) Uani 1 1 d . . .
H40 H -0.0891 0.6947 0.4553 0.119 Uiso 1 1 calc R . .
C41 C -0.08667(10) 0.61643(13) 0.4343(2) 0.0945(11) Uani 1 1 d . . .
H41 H -0.0611 0.6120 0.4659 0.113 Uiso 1 1 calc R . .
C42 C -0.05296(9) 0.51987(11) 0.39661(16) 0.0674(8) Uani 1 1 d . . .
H42 H -0.0410 0.5526 0.3984 0.081 Uiso 1 1 calc R . .
C43 C 0.28823(11) 0.38537(12) 0.3529(2) 0.0822(9) Uani 1 1 d . . .
C44 C 0.30594(10) 0.33044(12) 0.36174(18) 0.0798(9) Uani 1 1 d . . .
C45 C 0.2845(2) 0.58153(18) 0.5163(3) 0.148(2) Uani 1 1 d . . .
H45 H 0.2736 0.5556 0.5322 0.178 Uiso 1 1 calc R . .
C46 C 0.3115(5) 0.6706(3) 0.5241(7) 0.409(14) Uani 1 1 d D . .
H46A H 0.3259 0.6921 0.5654 0.491 Uiso 1 1 calc R . .
H46B H 0.3296 0.6506 0.5148 0.491 Uiso 1 1 calc R . .
C47 C 0.2908(7) 0.7072(7) 0.4665(11) 0.540(19) Uani 1 1 d D . .
H47A H 0.2908 0.6931 0.4255 0.810 Uiso 1 1 calc R . .
H47B H 0.3028 0.7421 0.4772 0.810 Uiso 1 1 calc R . .
H47C H 0.2650 0.7105 0.4587 0.810 Uiso 1 1 calc R . .
C48 C 0.2859(6) 0.6404(4) 0.6058(9) 0.446(16) Uani 1 1 d D . .
H48A H 0.2853 0.6061 0.6270 0.535 Uiso 1 1 calc R . .
H48B H 0.3082 0.6603 0.6381 0.535 Uiso 1 1 calc R . .
C49 C 0.2517(6) 0.6713(7) 0.5903(10) 0.424(12) Uani 1 1 d D . .
H49A H 0.2501 0.7018 0.5618 0.635 Uiso 1 1 calc R . .
H49B H 0.2527 0.6839 0.6328 0.635 Uiso 1 1 calc R . .
H49C H 0.2297 0.6487 0.5662 0.635 Uiso 1 1 calc R . .
C50 C 0.2817(2) 0.4253(3) 0.5378(3) 0.154(2) Uani 1 1 d . . .
H50 H 0.2619 0.4138 0.4958 0.185 Uiso 1 1 calc R . .
C51 C 0.3096(4) 0.4260(4) 0.6609(5) 0.231(4) Uani 1 1 d D . .
H51A H 0.2993 0.4265 0.6933 0.277 Uiso 1 1 calc R . .
H51B H 0.3182 0.4619 0.6570 0.277 Uiso 1 1 calc R . .
C52 C 0.3403(4) 0.3842(9) 0.6799(11) 0.468(15) Uani 1 1 d D . .
H52A H 0.3632 0.4014 0.6848 0.703 Uiso 1 1 calc R . .
H52B H 0.3323 0.3573 0.6440 0.703 Uiso 1 1 calc R . .
H52C H 0.3452 0.3674 0.7229 0.703 Uiso 1 1 calc R . .
C53 C 0.2431(4) 0.3847(5) 0.5946(6) 0.275(7) Uani 1 1 d D . .
H53A H 0.2429 0.3926 0.6379 0.330 Uiso 1 1 calc R . .
H53B H 0.2198 0.3966 0.5549 0.330 Uiso 1 1 calc R . .
C54 C 0.2540(5) 0.3330(7) 0.5894(8) 0.373(10) Uani 1 1 d D . .
H54A H 0.2591 0.3306 0.5506 0.559 Uiso 1 1 calc R . .
H54B H 0.2339 0.3082 0.5828 0.559 Uiso 1 1 calc R . .
H54C H 0.2766 0.3238 0.6312 0.559 Uiso 1 1 calc R . .
C55 C 0.27498(10) 0.56391(12) 0.30763(19) 0.0768(8) Uani 1 1 d . . .

loop_
_atom_site_aniso_label
_atom_site_aniso_U_11
_atom_site_aniso_U_22
_atom_site_aniso_U_33
_atom_site_aniso_U_23
_atom_site_aniso_U_13
_atom_site_aniso_U_12
Co1 0.0727(3) 0.0440(2) 0.0880(3) -0.00093(15) 0.0458(2) 0.00005(15)
Co2 0.0734(3) 0.0491(3) 0.0938(3) -0.00086(17) 0.0429(2) 0.00022(16)
N1 0.435(10) 0.077(3) 0.283(7) -0.052(3) 0.288(7) -0.047(4)
N2 0.224(6) 0.134(4) 0.142(4) 0.031(3) 0.110(4) -0.017(4)
N3 0.130(4) 0.109(3) 0.094(3) 0.0100(18) 0.061(3) 0.016(2)
O1 0.0950(16) 0.0465(11) 0.1129(17) 0.0096(10) 0.0600(14) 0.0009(9)
O2 0.0800(16) 0.0928(16) 0.1060(18) -0.0111(13) 0.0529(15) -0.0052(12)
O3 0.0828(16) 0.0913(16) 0.0957(16) -0.0057(12) 0.0553(13) -0.0060(11)
O4 0.142(2) 0.0579(13) 0.1113(18) 0.0109(12) 0.0753(16) 0.0266(13)
O5 0.1146(18) 0.0536(12) 0.1074(18) 0.0049(11) 0.0512(15) 0.0141(12)
O6 0.148(2) 0.0628(14) 0.142(2) -0.0203(14) 0.084(2) -0.0124(14)
O7 0.122(2) 0.0801(16) 0.1040(18) 0.0093(13) 0.0594(16) -0.0013(14)
O8 0.092(2) 0.148(3) 0.154(3) 0.011(2) 0.049(2) -0.0057(18)
O9 0.125(2) 0.0527(13) 0.1149(19) 0.0047(12) 0.0336(18) -0.0203(12)
O10 0.128(3) 0.122(3) 0.135(3) 0.0096(19) 0.082(2) 0.0028(19)
O11 0.0965(18) 0.0909(17) 0.1046(18) -0.0065(13) 0.0508(16) -0.0073(13)
O12 0.243(6) 0.271(6) 0.098(3) 0.017(3) 0.095(3) 0.038(4)
C1 0.078(2) 0.0600(17) 0.100(2) -0.0035(15) 0.053(2) -0.0029(14)
C2 0.080(2) 0.0727(19) 0.091(2) -0.0071(15) 0.0481(19) -0.0051(15)
C3 0.067(2) 0.112(3) 0.089(2) -0.0142(19) 0.0415(19) -0.0068(17)
C4 0.075(2) 0.118(3) 0.083(2) -0.0169(19) 0.0434(19) -0.0076(18)
C5 0.071(2) 0.089(2) 0.087(2) -0.0104(16) 0.0457(18) -0.0049(15)
C6 0.073(2) 0.115(3) 0.079(2) -0.0127(18) 0.0352(18) -0.0109(18)
C7 0.079(2) 0.108(3) 0.083(2) -0.0105(18) 0.0491(19) -0.0108(18)
C8 0.0645(19) 0.089(2) 0.0798(19) -0.0088(15) 0.0375(16) -0.0071(15)
C9 0.077(2) 0.088(2) 0.088(2) -0.0171(17) 0.0414(18) -0.0146(16)
C10 0.078(2) 0.0688(18) 0.090(2) -0.0097(14) 0.0502(18) -0.0079(14)
C11 0.0695(19) 0.0578(16) 0.0821(18) -0.0035(13) 0.0428(15) -0.0040(12)
C12 0.078(2) 0.078(2) 0.106(2) -0.0194(17) 0.0509(19) -0.0140(16)
C13 0.093(2) 0.089(2) 0.110(3) -0.0240(19) 0.061(2) -0.0059(19)
C14 0.0663(18) 0.0511(15) 0.0761(17) -0.0058(11) 0.0352(14) -0.0032(11)
C15 0.0684(17) 0.0475(14) 0.0852(18) 0.0009(12) 0.0407(15) 0.0054(12)
C16 0.0658(17) 0.0458(13) 0.0790(17) -0.0006(11) 0.0368(14) -0.0028(11)
C17 0.0675(17) 0.0486(14) 0.099(2) 0.0018(13) 0.0457(16) -0.0024(12)
C18 0.082(2) 0.0456(16) 0.176(4) 0.0000(19) 0.070(2) 0.0037(14)
C19 0.073(2) 0.0578(19) 0.183(4) 0.000(2) 0.062(2) -0.0024(15)
C20 0.0765(19) 0.0486(15) 0.115(2) 0.0055(14) 0.0509(18) -0.0045(13)
C21 0.0776(19) 0.0460(15) 0.109(2) 0.0038(14) 0.0442(18) -0.0040(13)
C22 0.088(2) 0.0486(17) 0.153(3) 0.0163(19) 0.025(2) 0.0002(15)
C23 0.090(2) 0.0554(19) 0.136(3) 0.0090(19) 0.015(2) -0.0073(16)
C24 0.082(2) 0.0448(14) 0.099(2) 0.0029(13) 0.0462(18) -0.0067(13)
C25 0.098(2) 0.0531(18) 0.143(3) 0.0301(19) 0.046(2) -0.0027(16)
C26 0.081(2) 0.068(2) 0.144(3) 0.028(2) 0.022(2) -0.0149(17)
C27 0.082(2) 0.0575(19) 0.176(4) 0.032(2) 0.039(3) 0.0025(16)
C28 0.074(2) 0.0557(19) 0.164(4) 0.025(2) 0.031(2) 0.0006(15)
C29 0.0647(17) 0.0500(15) 0.0794(18) -0.0001(12) 0.0352(15) 0.0010(11)
C30 0.0679(18) 0.0472(14) 0.0815(18) -0.0013(12) 0.0358(15) 0.0010(11)
C31 0.0712(18) 0.0457(14) 0.098(2) -0.0047(13) 0.0390(16) 0.0000(12)
C32 0.0743(19) 0.0470(15) 0.120(3) -0.0061(1