####################################################################### 
# 
# This file contains crystal structure data downloaded from the 
# Cambridge Structural Database (CSD) hosted by the Cambridge 
# Crystallographic Data Centre (CCDC).
# 
# Full information about CCDC data access policies and citation 
# guidelines are available at http://www.ccdc.cam.ac.uk/access/V1 
# 
# Audit and citation data items may have been added by the CCDC. 
# Please retain this information to preserve the provenance of 
# this file and to allow appropriate attribution of the data. 
# 
#######################################################################

data_ic5944
_audit_block_doi                 10.5517/cc3xqj7
_database_code_depnum_ccdc_archive 'CCDC 116979'
loop_
_citation_id
_citation_doi
_citation_year
1 10.1002/(SICI)1521-3773(19990917)38:18<2730::AID-ANIE2730>3.3.CO;2-0 1999
_audit_update_record             
;
1999-03-24 deposited with the CCDC.	2024-07-09 downloaded from the CCDC.
;

_audit_creation_method           SHELXL
_chemical_name_systematic        
; 
? 
;
_chemical_name_common            ?
_chemical_formula_moiety         ?
_chemical_formula_structural     ?
_chemical_formula_analytical     ?
_chemical_formula_sum            'C40 H28 Co N8 O2'
_chemical_formula_weight         711.63
_chemical_melting_point          ?
_chemical_compound_source        ?

loop_
_atom_type_symbol
_atom_type_description
_atom_type_scat_dispersion_real
_atom_type_scat_dispersion_imag
_atom_type_scat_source
C C 0.0033 0.0016 'International Tables Vol C Tables 4.2.6.8 and 6.1.1.4'
H H 0.0000 0.0000 'International Tables Vol C Tables 4.2.6.8 and 6.1.1.4'
N N 0.0061 0.0033 'International Tables Vol C Tables 4.2.6.8 and 6.1.1.4'
O O 0.0106 0.0060 'International Tables Vol C Tables 4.2.6.8 and 6.1.1.4'
Co Co 0.3494 0.9721 'International Tables Vol C Tables 4.2.6.8 and 6.1.1.4'

_symmetry_cell_setting           Rhombohedral
_symmetry_space_group_name_H-M   R-3

loop_
_symmetry_equiv_pos_as_xyz
'x, y, z'
'-y, x-y, z'
'-x+y, -x, z'
'x+2/3, y+1/3, z+1/3'
'-y+2/3, x-y+1/3, z+1/3'
'-x+y+2/3, -x+1/3, z+1/3'
'x+1/3, y+2/3, z+2/3'
'-y+1/3, x-y+2/3, z+2/3'
'-x+y+1/3, -x+2/3, z+2/3'
'-x, -y, -z'
'y, -x+y, -z'
'x-y, x, -z'
'-x+2/3, -y+1/3, -z+1/3'
'y+2/3, -x+y+1/3, -z+1/3'
'x-y+2/3, x+1/3, -z+1/3'
'-x+1/3, -y+2/3, -z+2/3'
'y+1/3, -x+y+2/3, -z+2/3'
'x-y+1/3, x+2/3, -z+2/3'

_cell_length_a                   32.7423(3)
_cell_length_b                   32.7423(3)
_cell_length_c                   9.3124(2)
_cell_angle_alpha                90.00
_cell_angle_beta                 90.00
_cell_angle_gamma                120.00
_cell_volume                     8645.9(2)
_cell_formula_units_Z            9
_cell_measurement_temperature    295(2)
_cell_measurement_reflns_used    6029
_cell_measurement_theta_min      ?
_cell_measurement_theta_max      ?

_exptl_crystal_description       needle
_exptl_crystal_colour            'dark blue'
_exptl_crystal_size_max          0.55
_exptl_crystal_size_mid          0.05
_exptl_crystal_size_min          0.03
_exptl_crystal_density_meas      not_measured
_exptl_crystal_density_diffrn    1.230
_exptl_crystal_density_method    ?
_exptl_crystal_F_000             3303
_exptl_absorpt_coefficient_mu    0.490
_exptl_absorpt_correction_type   sadabs
_exptl_absorpt_correction_T_min  0.5352
_exptl_absorpt_correction_T_max  0.8622

_exptl_special_details           
; 
? 
;

_diffrn_ambient_temperature      295(2)
_diffrn_radiation_wavelength     0.71073
_diffrn_radiation_type           MoK\a
_diffrn_radiation_source         'fine-focus sealed tube'
_diffrn_radiation_monochromator  graphite
_diffrn_measurement_device       'Siemens SMART CCD'
_diffrn_measurement_method       '\w scans'
_diffrn_standards_number         ?
_diffrn_standards_interval_count ?
_diffrn_standards_interval_time  ?
_diffrn_standards_decay_%        0
_diffrn_reflns_number            13474
_diffrn_reflns_av_R_equivalents  0.0901
_diffrn_reflns_av_sigmaI/netI    0.0738
_diffrn_reflns_limit_h_min       -38
_diffrn_reflns_limit_h_max       38
_diffrn_reflns_limit_k_min       -35
_diffrn_reflns_limit_k_max       38
_diffrn_reflns_limit_l_min       -10
_diffrn_reflns_limit_l_max       11
_diffrn_reflns_theta_min         1.24
_diffrn_reflns_theta_max         25.03
_reflns_number_total             3397
_reflns_number_observed          2353
_reflns_observed_criterion       >2sigma(I)

_computing_data_collection       'Siemens SMART'
_computing_cell_refinement       'Siemens SAINT'
_computing_data_reduction        'Siemens SAINT'
_computing_structure_solution    'SHELXS-86 (Sheldrick, 1990)'
_computing_structure_refinement  'SHELXL-93 (Sheldrick, 1993)'
_computing_molecular_graphics    'Siemens SHELXTL'
_computing_publication_material  'Siemens SHELXTL'

_refine_special_details          
; 
Refinement on F^2^ for ALL reflections except for 0 with very negative F^2^ 
or flagged by the user for potential systematic errors.  Weighted R-factors 
wR and all goodnesses of fit S are based on F^2^, conventional R-factors R 
are based on F, with F set to zero for negative F^2^. The observed criterion 
of F^2^ > 2sigma(F^2^) is used only for calculating _R_factor_obs etc. and is 
not relevant to the choice of reflections for refinement.  R-factors based 
on F^2^ are statistically about twice as large as those based on F, and R- 
factors based on ALL data will be even larger. 
;

_refine_ls_structure_factor_coef Fsqd
_refine_ls_matrix_type           full
_refine_ls_weighting_scheme      
'calc w=1/[\s^2^(Fo^2^)+(0.1483P)^2^+46.2534P] where P=(Fo^2^+2Fc^2^)/3'
_atom_sites_solution_primary     direct
_atom_sites_solution_secondary   difmap
_atom_sites_solution_hydrogens   geom
_refine_ls_hydrogen_treatment    ?
_refine_ls_extinction_method     SHELXL
_refine_ls_extinction_coef       0.0024(4)
_refine_ls_extinction_expression Fc^*^=kFc[1+0.001xFc^2^\l^3^/sin(2\q)]^-1/4^
_refine_ls_number_reflns         3397
_refine_ls_number_parameters     233
_refine_ls_number_restraints     0
_refine_ls_R_factor_all          0.1294
_refine_ls_R_factor_obs          0.0938
_refine_ls_wR_factor_all         0.2852
_refine_ls_wR_factor_obs         0.2634
_refine_ls_goodness_of_fit_all   1.155
_refine_ls_goodness_of_fit_obs   1.289
_refine_ls_restrained_S_all      1.155
_refine_ls_restrained_S_obs      1.289
_refine_ls_shift/esd_max         0.002
_refine_ls_shift/esd_mean        0.000

loop_
_atom_site_label
_atom_site_type_symbol
_atom_site_fract_x
_atom_site_fract_y
_atom_site_fract_z
_atom_site_U_iso_or_equiv
_atom_site_thermal_displace_type
_atom_site_occupancy
_atom_site_calc_flag
_atom_site_refinement_flags
_atom_site_disorder_group
Co Co 0.8333 0.6667 2.1667 0.0283(5) Uani 1 d S .
N1 N 0.7984(2) 0.6651(2) 1.9884(5) 0.0313(12) Uani 1 d . .
N2 N 0.8348(2) 0.6101(2) 2.0963(5) 0.0318(12) Uani 1 d . .
N3 N 0.7387(4) 0.5017(4) 1.5052(10) 0.090(3) Uani 1 d . .
N4 N 0.9556(2) 0.5294(2) 2.4034(6) 0.0413(14) Uani 1 d . .
C1 C 0.7782(2) 0.6923(2) 1.9613(7) 0.039(2) Uani 1 d . .
C2 C 0.7512(3) 0.6773(3) 1.8320(8) 0.053(2) Uani 1 d . .
H2A H 0.7351(3) 0.6909(3) 1.7902(8) 0.064 Uiso 1 calc R .
C3 C 0.7534(3) 0.6402(3) 1.7820(8) 0.052(2) Uani 1 d . .
H3B H 0.7388(3) 0.6228(3) 1.6999(8) 0.062 Uiso 1 calc R .
C4 C 0.7829(2) 0.6323(2) 1.8798(7) 0.0364(15) Uani 1 d . .
C5 C 0.7921(2) 0.5951(2) 1.8675(7) 0.0365(15) Uani 1 d . .
C6 C 0.8169(2) 0.5858(2) 1.9688(7) 0.0360(15) Uani 1 d . .
C7 C 0.8290(3) 0.5488(3) 1.9546(8) 0.050(2) Uani 1 d . .
H7A H 0.8203(3) 0.5272(3) 1.8799(8) 0.060 Uiso 1 calc R .
C8 C 0.8551(3) 0.5518(3) 2.0697(8) 0.050(2) Uani 1 d . .
H8A H 0.8683(3) 0.5330(3) 2.0890(8) 0.060 Uiso 1 calc R .
C9 C 0.8587(2) 0.5899(2) 2.1579(7) 0.0346(15) Uani 1 d . .
C10 C 0.8840(2) 0.6043(2) 2.2860(7) 0.039(2) Uani 1 d . .
C11 C 0.7730(2) 0.5627(2) 1.7411(8) 0.044(2) Uani 1 d . .
C12 C 0.7893(3) 0.5781(3) 1.6015(8) 0.057(2) Uani 1 d . .
H12A H 0.8117(3) 0.6094(3) 1.5839(8) 0.068 Uiso 1 calc R .
C13 C 0.7717(4) 0.5461(4) 1.4911(9) 0.070(3) Uani 1 d . .
H13A H 0.7840(4) 0.5567(4) 1.3998(9) 0.084 Uiso 1 calc R .
C14 C 0.7228(4) 0.4871(3) 1.6355(14) 0.091(3) Uani 1 d . .
H14A H 0.6998(4) 0.4556(3) 1.6470(14) 0.109 Uiso 1 calc R .
C15 C 0.7379(3) 0.5157(3) 1.7587(10) 0.066(2) Uani 1 d . .
H15A H 0.7251(3) 0.5037(3) 1.8485(10) 0.079 Uiso 1 calc R .
C16 C 0.9093(2) 0.5784(2) 2.3295(7) 0.040(2) Uani 1 d . .
C17 C 0.9511(3) 0.5882(3) 2.2650(8) 0.052(2) Uani 1 d . .
H17A H 0.9643(3) 0.6116(3) 2.1949(8) 0.063 Uiso 1 calc R .
C18 C 0.9735(3) 0.5636(3) 2.3040(8) 0.048(2) Uani 1 d . .
H18A H 1.0019(3) 0.5709(3) 2.2599(8) 0.057 Uiso 1 calc R .
C19 C 0.9157(3) 0.5203(3) 2.4640(8) 0.049(2) Uani 1 d . .
H19A H 0.9031(3) 0.4967(3) 2.5332(8) 0.059 Uiso 1 calc R .
C20 C 0.8911(3) 0.5434(3) 2.4322(9) 0.053(2) Uani 1 d . .
H20A H 0.8630(3) 0.5355(3) 2.4790(9) 0.063 Uiso 1 calc R .
O1 O 0.5689(4) 0.2737(4) 1.3397(17) 0.180(5) Uani 1 d . .
H1A H 0.7566 0.3788 1.4123 0.200 Uiso 1 d . .
H1B H 0.7867 0.3966 1.2648 0.200 Uiso 1 d . .

loop_
_atom_site_aniso_label
_atom_site_aniso_U_11
_atom_site_aniso_U_22
_atom_site_aniso_U_33
_atom_site_aniso_U_23
_atom_site_aniso_U_13
_atom_site_aniso_U_12
Co 0.0238(7) 0.0346(7) 0.0279(7) 0.0052(5) 0.0017(5) 0.0157(5)
N1 0.029(3) 0.036(3) 0.032(3) 0.002(2) 0.001(2) 0.018(2)
N2 0.028(3) 0.036(3) 0.030(3) 0.002(2) 0.002(2) 0.015(2)
N3 0.120(8) 0.104(7) 0.069(6) -0.039(5) -0.034(5) 0.074(7)
N4 0.050(3) 0.046(3) 0.040(3) -0.008(3) -0.007(3) 0.033(3)
C1 0.041(4) 0.049(4) 0.034(4) 0.004(3) -0.004(3) 0.026(3)
C2 0.071(5) 0.068(5) 0.042(4) -0.006(4) -0.020(4) 0.051(4)
C3 0.057(5) 0.069(5) 0.042(4) -0.013(4) -0.019(4) 0.041(4)
C4 0.036(3) 0.043(4) 0.033(4) 0.002(3) -0.001(3) 0.022(3)
C5 0.033(3) 0.041(4) 0.033(4) -0.002(3) -0.003(3) 0.016(3)
C6 0.030(3) 0.040(3) 0.040(4) 0.003(3) 0.002(3) 0.019(3)
C7 0.062(5) 0.051(4) 0.051(5) -0.009(4) -0.006(4) 0.039(4)
C8 0.060(5) 0.056(4) 0.051(4) -0.008(4) -0.010(4) 0.042(4)
C9 0.035(3) 0.043(4) 0.035(4) 0.001(3) -0.002(3) 0.026(3)
C10 0.043(4) 0.047(4) 0.035(4) 0.004(3) -0.003(3) 0.028(3)
C11 0.045(4) 0.046(4) 0.048(4) -0.003(3) -0.010(3) 0.030(3)
C12 0.069(5) 0.075(5) 0.038(4) 0.000(4) -0.004(4) 0.044(5)
C13 0.093(7) 0.094(7) 0.045(5) -0.018(5) -0.016(5) 0.063(6)
C14 0.103(8) 0.051(5) 0.106(10) -0.032(6) -0.041(7) 0.029(5)
C15 0.073(6) 0.057(5) 0.067(6) -0.009(4) -0.020(5) 0.032(5)
C16 0.046(4) 0.053(4) 0.035(4) -0.003(3) -0.007(3) 0.035(3)
C17 0.056(5) 0.068(5) 0.047(4) 0.021(4) 0.007(4) 0.041(4)
C18 0.054(4) 0.067(5) 0.039(4) 0.006(4) 0.002(3) 0.043(4)
C19 0.048(4) 0.055(4) 0.056(5) 0.010(4) 0.006(3) 0.034(4)
C20 0.045(4) 0.065(5) 0.060(5) 0.019(4) 0.008(4) 0.037(4)
O1 0.133(9) 0.175(11) 0.245(14) -0.004(10) 0.009(9) 0.087(8)

_geom_special_details            
; 
All esds (except the esd in the dihedral angle between two l.s. planes) 
are estimated using the full covariance matrix.  The cell esds are taken 
into account individually in the estimation of esds in distances, angles 
and torsion angles; correlations between esds in cell parameters are only 
used when they are defined by crystal symmetry.  An approximate (isotropic) 
treatment of cell esds is used for estimating esds involving l.s. planes. 
;

loop_
_geom_bond_atom_site_label_1
_geom_bond_atom_site_label_2
_geom_bond_distance
_geom_bond_site_symmetry_2
_geom_bond_publ_flag
Co N2 1.986(5) 13_669 ?
Co N2 1.986(5) . ?
Co N1 2.002(5) . ?
Co N1 2.002(5) 13_669 ?
Co N4 2.292(5) 18_549 ?
Co N4 2.293(5) 9_664 ?
N1 C4 1.373(8) . ?
N1 C1 1.374(8) . ?
N2 C9 1.376(7) . ?
N2 C6 1.386(8) . ?
N3 C14 1.312(15) . ?
N3 C13 1.316(13) . ?
N4 C19 1.312(9) . ?
N4 C18 1.339(9) . ?
N4 Co 2.292(5) 5_655 ?
C1 C10 1.388(9) 13_669 ?
C1 C2 1.427(9) . ?
C2 C3 1.337(10) . ?
C3 C4 1.439(9) . ?
C4 C5 1.401(9) . ?
C5 C6 1.374(9) . ?
C5 C11 1.494(9) . ?
C6 C7 1.457(9) . ?
C7 C8 1.344(10) . ?
C8 C9 1.450(9) . ?
C9 C10 1.394(9) . ?
C10 C1 1.389(9) 13_669 ?
C10 C16 1.507(9) . ?
C11 C15 1.397(11) . ?
C11 C12 1.400(10) . ?
C12 C13 1.371(12) . ?
C14 C15 1.405(13) . ?
C16 C17 1.378(9) . ?
C16 C20 1.378(10) . ?
C17 C18 1.385(9) . ?
C19 C20 1.387(10) . ?

loop_
_geom_angle_atom_site_label_1
_geom_angle_atom_site_label_2
_geom_angle_atom_site_label_3
_geom_angle
_geom_angle_site_symmetry_1
_geom_angle_site_symmetry_3
_geom_angle_publ_flag
N2 Co N2 180.0 13_669 . ?
N2 Co N1 91.0(2) 13_669 . ?
N2 Co N1 89.0(2) . . ?
N2 Co N1 89.0(2) 13_669 13_669 ?
N2 Co N1 91.0(2) . 13_669 ?
N1 Co N1 179.994(2) . 13_669 ?
N2 Co N4 87.3(2) 13_669 18_549 ?
N2 Co N4 92.7(2) . 18_549 ?
N1 Co N4 84.3(2) . 18_549 ?
N1 Co N4 95.7(2) 13_669 18_549 ?
N2 Co N4 92.7(2) 13_669 9_664 ?
N2 Co N4 87.3(2) . 9_664 ?
N1 Co N4 95.7(2) . 9_664 ?
N1 Co N4 84.3(2) 13_669 9_664 ?
N4 Co N4 179.993(2) 18_549 9_664 ?
C4 N1 C1 105.2(5) . . ?
C4 N1 Co 128.0(4) . . ?
C1 N1 Co 126.1(4) . . ?
C9 N2 C6 105.0(5) . . ?
C9 N2 Co 126.5(4) . . ?
C6 N2 Co 128.1(4) . . ?
C14 N3 C13 116.9(8) . . ?
C19 N4 C18 117.3(6) . . ?
C19 N4 Co 120.2(5) . 5_655 ?
C18 N4 Co 121.1(5) . 5_655 ?
N1 C1 C10 125.4(6) . 13_669 ?
N1 C1 C2 110.2(6) . . ?
C10 C1 C2 124.4(6) 13_669 . ?
C3 C2 C1 107.6(6) . . ?
C2 C3 C4 106.6(6) . . ?
N1 C4 C5 125.7(6) . . ?
N1 C4 C3 110.3(5) . . ?
C5 C4 C3 124.0(6) . . ?
C6 C5 C4 123.0(6) . . ?
C6 C5 C11 118.0(6) . . ?
C4 C5 C11 119.0(6) . . ?
C5 C6 N2 126.1(6) . . ?
C5 C6 C7 123.8(6) . . ?
N2 C6 C7 110.1(6) . . ?
C8 C7 C6 107.2(6) . . ?
C7 C8 C9 106.8(6) . . ?
N2 C9 C10 125.4(6) . . ?
N2 C9 C8 111.0(5) . . ?
C10 C9 C8 123.7(6) . . ?
C1 C10 C9 125.0(6) 13_669 . ?
C1 C10 C16 118.8(6) 13_669 . ?
C9 C10 C16 116.2(6) . . ?
C15 C11 C12 117.4(7) . . ?
C15 C11 C5 120.8(7) . . ?
C12 C11 C5 121.8(7) . . ?
C13 C12 C11 119.0(9) . . ?
N3 C13 C12 124.6(9) . . ?
N3 C14 C15 124.7(10) . . ?
C11 C15 C14 117.4(9) . . ?
C17 C16 C20 117.5(6) . . ?
C17 C16 C10 120.8(6) . . ?
C20 C16 C10 121.6(6) . . ?
C16 C17 C18 120.3(7) . . ?
N4 C18 C17 121.9(7) . . ?
N4 C19 C20 124.6(7) . . ?
C16 C20 C19 118.3(7) . . ?

_refine_diff_density_max         1.539
_refine_diff_density_min         -0.477
_refine_diff_density_rms         0.198
