####################################################################### 
# 
# This file contains crystal structure data downloaded from the 
# Cambridge Structural Database (CSD) hosted by the Cambridge 
# Crystallographic Data Centre (CCDC).
# 
# Full information about CCDC data access policies and citation 
# guidelines are available at http://www.ccdc.cam.ac.uk/access/V1 
# 
# Audit and citation data items may have been added by the CCDC. 
# Please retain this information to preserve the provenance of 
# this file and to allow appropriate attribution of the data. 
# 
#######################################################################

data_ic5814
_audit_block_doi                 10.5517/cc3xqk8
_database_code_depnum_ccdc_archive 'CCDC 116980'
loop_
_citation_id
_citation_doi
_citation_year
1 10.1002/(SICI)1521-3773(19990917)38:18<2730::AID-ANIE2730>3.3.CO;2-0 1999
_audit_update_record             
;
1999-03-24 deposited with the CCDC.	2024-07-09 downloaded from the CCDC.
;

_audit_creation_method           SHELXL
_chemical_name_systematic        
; 
? 
;
_chemical_name_common            ?
_chemical_formula_moiety         ?
_chemical_formula_structural     ?
_chemical_formula_analytical     ?
_chemical_formula_sum            'C40 H28 Mn N8 O2'
_chemical_formula_weight         707.64
_chemical_melting_point          ?
_chemical_compound_source        ?

loop_
_atom_type_symbol
_atom_type_description
_atom_type_scat_dispersion_real
_atom_type_scat_dispersion_imag
_atom_type_scat_source
C C 0.0033 0.0016 'International Tables Vol C Tables 4.2.6.8 and 6.1.1.4'
H H 0.0000 0.0000 'International Tables Vol C Tables 4.2.6.8 and 6.1.1.4'
N N 0.0061 0.0033 'International Tables Vol C Tables 4.2.6.8 and 6.1.1.4'
O O 0.0106 0.0060 'International Tables Vol C Tables 4.2.6.8 and 6.1.1.4'
Mn Mn 0.3368 0.7283 'International Tables Vol C Tables 4.2.6.8 and 6.1.1.4'

_symmetry_cell_setting           Rhombohedral
_symmetry_space_group_name_H-M   R-3

loop_
_symmetry_equiv_pos_as_xyz
'x, y, z'
'-y, x-y, z'
'-x+y, -x, z'
'x+2/3, y+1/3, z+1/3'
'-y+2/3, x-y+1/3, z+1/3'
'-x+y+2/3, -x+1/3, z+1/3'
'x+1/3, y+2/3, z+2/3'
'-y+1/3, x-y+2/3, z+2/3'
'-x+y+1/3, -x+2/3, z+2/3'
'-x, -y, -z'
'y, -x+y, -z'
'x-y, x, -z'
'-x+2/3, -y+1/3, -z+1/3'
'y+2/3, -x+y+1/3, -z+1/3'
'x-y+2/3, x+1/3, -z+1/3'
'-x+1/3, -y+2/3, -z+2/3'
'y+1/3, -x+y+2/3, -z+2/3'
'x-y+1/3, x+2/3, -z+2/3'

_cell_length_a                   32.7624(2)
_cell_length_b                   32.7624(2)
_cell_length_c                   9.3410(1)
_cell_angle_alpha                90.00
_cell_angle_beta                 90.00
_cell_angle_gamma                120.00
_cell_volume                     8683.11(12)
_cell_formula_units_Z            9
_cell_measurement_temperature    295(2)
_cell_measurement_reflns_used    7885
_cell_measurement_theta_min      ?
_cell_measurement_theta_max      ?

_exptl_crystal_description       needle
_exptl_crystal_colour            'dark blue'
_exptl_crystal_size_max          0.50
_exptl_crystal_size_mid          0.12
_exptl_crystal_size_min          0.08
_exptl_crystal_density_meas      not_measured
_exptl_crystal_density_diffrn    1.218
_exptl_crystal_density_method    ?
_exptl_crystal_F_000             3285
_exptl_absorpt_coefficient_mu    0.386
_exptl_absorpt_correction_type   sadabs
_exptl_absorpt_correction_T_min  0.5454
_exptl_absorpt_correction_T_max  0.9280

_exptl_special_details           
; 
? 
;

_diffrn_ambient_temperature      295(2)
_diffrn_radiation_wavelength     0.71073
_diffrn_radiation_type           MoK\a
_diffrn_radiation_source         'fine-focus sealed tube'
_diffrn_radiation_monochromator  graphite
_diffrn_measurement_device       'Siemens SMART CCD'
_diffrn_measurement_method       '\w scans'
_diffrn_standards_number         ?
_diffrn_standards_interval_count ?
_diffrn_standards_interval_time  ?
_diffrn_standards_decay_%        0
_diffrn_reflns_number            17948
_diffrn_reflns_av_R_equivalents  0.1162
_diffrn_reflns_av_sigmaI/netI    0.1614
_diffrn_reflns_limit_h_min       -38
_diffrn_reflns_limit_h_max       38
_diffrn_reflns_limit_k_min       -38
_diffrn_reflns_limit_k_max       38
_diffrn_reflns_limit_l_min       -10
_diffrn_reflns_limit_l_max       11
_diffrn_reflns_theta_min         1.24
_diffrn_reflns_theta_max         25.02
_reflns_number_total             3407
_reflns_number_observed          2185
_reflns_observed_criterion       >2sigma(I)

_computing_data_collection       'Siemens SMART'
_computing_cell_refinement       'Siemens SAINT'
_computing_data_reduction        'Siemens SAINT'
_computing_structure_solution    'SHELXS-86 (Sheldrick, 1990)'
_computing_structure_refinement  'SHELXL-93 (Sheldrick, 1993)'
_computing_molecular_graphics    'Siemens SHELXTL'
_computing_publication_material  'Siemens SHELXTL'

_refine_special_details          
; 
Refinement on F^2^ for ALL reflections except for 0 with very negative F^2^ 
or flagged by the user for potential systematic errors.  Weighted R-factors 
wR and all goodnesses of fit S are based on F^2^, conventional R-factors R 
are based on F, with F set to zero for negative F^2^. The observed criterion 
of F^2^ > 2sigma(F^2^) is used only for calculating _R_factor_obs etc. and is 
not relevant to the choice of reflections for refinement.  R-factors based 
on F^2^ are statistically about twice as large as those based on F, and R- 
factors based on ALL data will be even larger. 
;

_refine_ls_structure_factor_coef Fsqd
_refine_ls_matrix_type           full
_refine_ls_weighting_scheme      
'calc w=1/[\s^2^(Fo^2^)+(0.0951P)^2^+0.0000P] where P=(Fo^2^+2Fc^2^)/3'
_atom_sites_solution_primary     direct
_atom_sites_solution_secondary   difmap
_atom_sites_solution_hydrogens   geom
_refine_ls_hydrogen_treatment    ?
_refine_ls_extinction_method     SHELXL
_refine_ls_extinction_coef       0.0068(6)
_refine_ls_extinction_expression Fc^*^=kFc[1+0.001xFc^2^\l^3^/sin(2\q)]^-1/4^
_refine_ls_number_reflns         3407
_refine_ls_number_parameters     233
_refine_ls_number_restraints     0
_refine_ls_R_factor_all          0.1267
_refine_ls_R_factor_obs          0.0736
_refine_ls_wR_factor_all         0.2416
_refine_ls_wR_factor_obs         0.2015
_refine_ls_goodness_of_fit_all   1.073
_refine_ls_goodness_of_fit_obs   1.124
_refine_ls_restrained_S_all      1.073
_refine_ls_restrained_S_obs      1.124
_refine_ls_shift/esd_max         -0.001
_refine_ls_shift/esd_mean        0.000

loop_
_atom_site_label
_atom_site_type_symbol
_atom_site_fract_x
_atom_site_fract_y
_atom_site_fract_z
_atom_site_U_iso_or_equiv
_atom_site_thermal_displace_type
_atom_site_occupancy
_atom_site_calc_flag
_atom_site_refinement_flags
_atom_site_disorder_group
Mn Mn 1.0000 0.5000 0.5000 0.0174(4) Uani 1 d S .
N1 N 0.9980(2) 0.53308(15) 0.6777(5) 0.0291(11) Uani 1 d . .
N2 N 0.9437(2) 0.44246(15) 0.5714(5) 0.0285(11) Uani 1 d . .
N3 N 0.8366(3) 0.4295(2) 1.1613(8) 0.075(2) Uani 1 d . .
N4 N 0.8628(2) 0.2407(2) 0.2616(5) 0.0376(13) Uani 1 d . .
C1 C 1.0260(2) 0.5808(2) 0.7061(6) 0.038(2) Uani 1 d . .
C2 C 1.0113(2) 0.5926(2) 0.8344(7) 0.054(2) Uani 1 d . .
H2A H 1.0248(2) 0.6223(2) 0.8760(7) 0.064 Uiso 1 calc R .
C3 C 0.9739(2) 0.5528(2) 0.8855(7) 0.050(2) Uani 1 d . .
H3B H 0.9569(2) 0.5498(2) 0.9685(7) 0.060 Uiso 1 calc R .
C4 C 0.9657(2) 0.5163(2) 0.7864(6) 0.0344(14) Uani 1 d . .
C5 C 0.9290(2) 0.4702(2) 0.7978(6) 0.0337(14) Uani 1 d . .
C6 C 0.9193(2) 0.4355(2) 0.6964(6) 0.0322(14) Uani 1 d . .
C7 C 0.8830(2) 0.3867(2) 0.7106(7) 0.052(2) Uani 1 d . .
H7A H 0.8623(2) 0.3738(2) 0.7871(7) 0.062 Uiso 1 calc R .
C8 C 0.8844(2) 0.3632(2) 0.5950(7) 0.050(2) Uani 1 d . .
H8A H 0.8647(2) 0.3314(2) 0.5746(7) 0.060 Uiso 1 calc R .
C9 C 0.9230(2) 0.3978(2) 0.5084(6) 0.0365(15) Uani 1 d . .
C10 C 0.9371(2) 0.3869(2) 0.3817(6) 0.0362(15) Uani 1 d . .
C11 C 0.8969(2) 0.4571(2) 0.9274(7) 0.041(2) Uani 1 d . .
C12 C 0.9121(3) 0.4556(2) 1.0633(7) 0.049(2) Uani 1 d . .
H12A H 0.9433(3) 0.4640(2) 1.0802(7) 0.059 Uiso 1 calc R .
C13 C 0.8803(3) 0.4413(3) 1.1733(8) 0.062(2) Uani 1 d . .
H13A H 0.8911(3) 0.4402(3) 1.2643(8) 0.074 Uiso 1 calc R .
C14 C 0.8221(3) 0.4315(3) 1.0316(10) 0.078(3) Uani 1 d . .
H14A H 0.7907(3) 0.4232(3) 1.0195(10) 0.094 Uiso 1 calc R .
C15 C 0.8500(3) 0.4449(3) 0.9158(9) 0.063(2) Uani 1 d . .
H15A H 0.8377(3) 0.4459(3) 0.8270(9) 0.076 Uiso 1 calc R .
C16 C 0.9116(2) 0.3360(2) 0.3390(6) 0.039(2) Uani 1 d . .
C17 C 0.9214(2) 0.3041(2) 0.4036(7) 0.048(2) Uani 1 d . .
H17A H 0.9441(2) 0.3138(2) 0.4752(7) 0.058 Uiso 1 calc R .
C18 C 0.8972(2) 0.2576(2) 0.3610(7) 0.047(2) Uani 1 d . .
H18A H 0.9050(2) 0.2367(2) 0.4033(7) 0.057 Uiso 1 calc R .
C19 C 0.8540(2) 0.2712(2) 0.2025(7) 0.048(2) Uani 1 d . .
H19A H 0.8306(2) 0.2604(2) 0.1327(7) 0.058 Uiso 1 calc R .
C20 C 0.8770(2) 0.3192(2) 0.2359(7) 0.052(2) Uani 1 d . .
H20A H 0.8690(2) 0.3393(2) 0.1894(7) 0.062 Uiso 1 calc R .
O1 O 0.7610(3) 0.3894(3) 1.3563(10) 0.175(4) Uani 1 d . .
H1A H 0.7566 0.3788 1.4823 0.200 Uiso 1 d . .
H1B H 0.7867 0.3966 1.2648 0.200 Uiso 1 d . .

loop_
_atom_site_aniso_label
_atom_site_aniso_U_11
_atom_site_aniso_U_22
_atom_site_aniso_U_33
_atom_site_aniso_U_23
_atom_site_aniso_U_13
_atom_site_aniso_U_12
Mn 0.0226(7) 0.0129(6) 0.0184(6) -0.0032(5) -0.0053(5) 0.0102(5)
N1 0.036(3) 0.024(3) 0.030(3) 0.001(2) -0.001(2) 0.017(2)
N2 0.034(3) 0.025(2) 0.028(3) -0.003(2) -0.003(2) 0.016(2)
N3 0.079(5) 0.064(4) 0.071(5) 0.006(4) 0.034(4) 0.026(4)
N4 0.041(3) 0.029(3) 0.037(3) -0.002(2) 0.001(2) 0.012(2)
C1 0.046(4) 0.026(3) 0.040(4) -0.008(3) -0.002(3) 0.017(3)
C2 0.070(5) 0.032(4) 0.046(4) -0.016(3) 0.011(4) 0.015(4)
C3 0.065(5) 0.039(4) 0.040(4) -0.011(3) 0.010(3) 0.021(4)
C4 0.039(3) 0.031(3) 0.033(4) -0.002(3) 0.001(3) 0.018(3)
C5 0.035(3) 0.035(3) 0.033(3) -0.001(3) 0.000(3) 0.019(3)
C6 0.035(3) 0.026(3) 0.038(4) -0.004(3) -0.001(3) 0.017(3)
C7 0.052(4) 0.037(4) 0.053(4) 0.003(3) 0.018(4) 0.013(3)
C8 0.059(4) 0.026(3) 0.051(4) -0.004(3) 0.014(4) 0.010(3)
C9 0.039(3) 0.027(3) 0.041(4) -0.003(3) -0.002(3) 0.015(3)
C10 0.044(4) 0.025(3) 0.034(4) -0.007(3) -0.004(3) 0.014(3)
C11 0.038(4) 0.030(3) 0.051(4) -0.006(3) 0.003(3) 0.013(3)
C12 0.059(5) 0.056(4) 0.027(4) 0.001(3) 0.003(3) 0.025(4)
C13 0.073(6) 0.059(5) 0.048(5) -0.002(4) 0.010(4) 0.029(4)
C14 0.051(5) 0.088(7) 0.084(7) -0.002(5) 0.025(5) 0.026(5)
C15 0.054(5) 0.067(5) 0.068(6) -0.009(4) 0.006(4) 0.031(4)
C16 0.046(4) 0.024(3) 0.036(4) -0.004(3) 0.002(3) 0.010(3)
C17 0.063(5) 0.034(4) 0.046(4) -0.011(3) -0.021(3) 0.022(3)
C18 0.058(4) 0.034(4) 0.048(4) -0.003(3) -0.008(4) 0.022(3)
C19 0.053(4) 0.033(4) 0.057(5) -0.010(3) -0.018(4) 0.020(3)
C20 0.061(5) 0.032(4) 0.058(5) -0.005(3) -0.020(4) 0.020(3)
O1 0.176(9) 0.183(9) 0.169(8) 0.051(7) 0.083(7) 0.094(8)

_geom_special_details            
; 
All esds (except the esd in the dihedral angle between two l.s. planes) 
are estimated using the full covariance matrix.  The cell esds are taken 
into account individually in the estimation of esds in distances, angles 
and torsion angles; correlations between esds in cell parameters are only 
used when they are defined by crystal symmetry.  An approximate (isotropic) 
treatment of cell esds is used for estimating esds involving l.s. planes. 
;

loop_
_geom_bond_atom_site_label_1
_geom_bond_atom_site_label_2
_geom_bond_distance
_geom_bond_site_symmetry_2
_geom_bond_publ_flag
Mn N2 1.981(4) . ?
Mn N2 1.981(4) 10_766 ?
Mn N1 2.002(4) 10_766 ?
Mn N1 2.002(4) . ?
Mn N4 2.294(5) 6_665 ?
Mn N4 2.294(5) 18_545 ?
N1 C4 1.367(7) . ?
N1 C1 1.387(7) . ?
N2 C6 1.369(7) . ?
N2 C9 1.397(7) . ?
N3 C13 1.286(9) . ?
N3 C14 1.315(10) . ?
N4 C19 1.295(7) . ?
N4 C18 1.346(8) . ?
N4 Mn 2.294(5) 8_644 ?
C1 C10 1.405(8) 10_766 ?
C1 C2 1.416(8) . ?
C2 C3 1.353(9) . ?
C3 C4 1.429(8) . ?
C4 C5 1.386(8) . ?
C5 C6 1.387(8) . ?
C5 C11 1.519(8) . ?
C6 C7 1.444(8) . ?
C7 C8 1.340(8) . ?
C8 C9 1.452(8) . ?
C9 C10 1.381(8) . ?
C10 C1 1.405(8) 10_766 ?
C10 C16 1.497(8) . ?
C11 C12 1.374(8) . ?
C11 C15 1.386(9) . ?
C12 C13 1.369(9) . ?
C14 C15 1.340(10) . ?
C16 C20 1.376(8) . ?
C16 C17 1.377(8) . ?
C17 C18 1.378(8) . ?
C19 C20 1.397(8) . ?

loop_
_geom_angle_atom_site_label_1
_geom_angle_atom_site_label_2
_geom_angle_atom_site_label_3
_geom_angle
_geom_angle_site_symmetry_1
_geom_angle_site_symmetry_3
_geom_angle_publ_flag
N2 Mn N2 180.0 . 10_766 ?
N2 Mn N1 91.8(2) . 10_766 ?
N2 Mn N1 88.2(2) 10_766 10_766 ?
N2 Mn N1 88.2(2) . . ?
N2 Mn N1 91.8(2) 10_766 . ?
N1 Mn N1 180.0 10_766 . ?
N2 Mn N4 87.4(2) . 6_665 ?
N2 Mn N4 92.6(2) 10_766 6_665 ?
N1 Mn N4 83.8(2) 10_766 6_665 ?
N1 Mn N4 96.2(2) . 6_665 ?
N2 Mn N4 92.6(2) . 18_545 ?
N2 Mn N4 87.4(2) 10_766 18_545 ?
N1 Mn N4 96.2(2) 10_766 18_545 ?
N1 Mn N4 83.8(2) . 18_545 ?
N4 Mn N4 179.997(1) 6_665 18_545 ?
C4 N1 C1 104.8(5) . . ?
C4 N1 Mn 128.8(4) . . ?
C1 N1 Mn 125.9(4) . . ?
C6 N2 C9 104.4(4) . . ?
C6 N2 Mn 129.3(4) . . ?
C9 N2 Mn 126.0(4) . . ?
C13 N3 C14 116.1(7) . . ?
C19 N4 C18 116.1(5) . . ?
C19 N4 Mn 120.8(4) . 8_644 ?
C18 N4 Mn 121.7(4) . 8_644 ?
N1 C1 C10 125.0(5) . 10_766 ?
N1 C1 C2 110.2(5) . . ?
C10 C1 C2 124.8(5) 10_766 . ?
C3 C2 C1 107.7(5) . . ?
C2 C3 C4 106.2(6) . . ?
N1 C4 C5 124.8(5) . . ?
N1 C4 C3 111.1(5) . . ?
C5 C4 C3 124.1(6) . . ?
C4 C5 C6 124.0(5) . . ?
C4 C5 C11 118.0(5) . . ?
C6 C5 C11 118.1(5) . . ?
N2 C6 C5 124.8(5) . . ?
N2 C6 C7 110.5(5) . . ?
C5 C6 C7 124.6(6) . . ?
C8 C7 C6 108.5(6) . . ?
C7 C8 C9 105.5(5) . . ?
C10 C9 N2 125.6(5) . . ?
C10 C9 C8 123.3(5) . . ?
N2 C9 C8 111.1(5) . . ?
C9 C10 C1 125.3(5) . 10_766 ?
C9 C10 C16 116.4(5) . . ?
C1 C10 C16 118.3(5) 10_766 . ?
C12 C11 C15 115.6(6) . . ?
C12 C11 C5 122.3(6) . . ?
C15 C11 C5 122.1(6) . . ?
C13 C12 C11 118.5(7) . . ?
N3 C13 C12 125.5(8) . . ?
N3 C14 C15 123.8(8) . . ?
C14 C15 C11 120.5(8) . . ?
C20 C16 C17 117.4(5) . . ?
C20 C16 C10 121.4(6) . . ?
C17 C16 C10 121.2(6) . . ?
C16 C17 C18 119.3(6) . . ?
N4 C18 C17 123.7(6) . . ?
N4 C19 C20 124.7(6) . . ?
C16 C20 C19 118.7(6) . . ?

_refine_diff_density_max         1.156
_refine_diff_density_min         -0.563
_refine_diff_density_rms         0.201
