
#######################################################################
#
#                 Cambridge Crystallographic Data Centre
#                                CCDC
#
#######################################################################
#
# If this CIF has been generated from an entry in the Cambridge
# Structural Database, then it will include bibliographic, chemical,
# crystal, experimental, refinement or atomic coordinate data resulting
# from the CCDC's data processing and validation procedures.
#
#######################################################################

data_CSD_CIF_CAYTUT
_audit_creation_date 2012-08-03
_audit_creation_method CSD-ConQuest-V1
_database_code_CSD CAYTUT
_database_code_depnum_ccdc_archive 'CCDC 881108'
_chemical_formula_sum 'C2 H10 B10 I2'
_chemical_formula_moiety
;
C2 H10 B10 I2
;
_journal_coden_Cambridge 9
_journal_volume 51
_journal_year 2012
_journal_page_first 2629
_journal_name_full 'Inorg.Chem. '
loop_
_publ_author_name
"A.V.Safronov"
"Y.V.Sevryugina"
"S.S.Jalisatgi"
"R.D.Kennedy"
"C.L.Barnes"
"M.F.Hawthorne"
_chemical_name_systematic
;
3,10-diiodo-1,2-dicarba-closo-dodecaborane(10)
;
_cell_volume   1201.239
_exptl_crystal_colour 'yellow'
_exptl_crystal_density_diffrn 2.19
_exptl_special_details
;
Absolute configuration

;
_exptl_crystal_description 'plate'
_diffrn_ambient_temperature 173
_diffrn_special_details
;
twin

;
#These two values have been output from a single CSD field.
_refine_ls_R_factor_gt 0.0206
_refine_ls_wR_factor_gt 0.0206
_symmetry_cell_setting tetragonal
_symmetry_space_group_name_H-M 'P 41'
_symmetry_Int_Tables_number 76
loop_
_symmetry_equiv_pos_site_id
_symmetry_equiv_pos_as_xyz
1 x,y,z
2 -x,-y,1/2+z
3 -y,x,1/4+z
4 y,-x,3/4+z
_cell_length_a 7.5280(3)
_cell_length_b 7.5280(3)
_cell_length_c 21.1968(15)
_cell_angle_alpha 90
_cell_angle_beta 90
_cell_angle_gamma 90
_cell_formula_units_Z 4
loop_
_atom_type_symbol
_atom_type_radius_bond
C 0.68
H 0.23
B 0.83
I 1.40
loop_
_atom_site_label
_atom_site_type_symbol
_atom_site_fract_x
_atom_site_fract_y
_atom_site_fract_z
C1 C -0.0680(12) 0.4558(10) 0.0589(4)
H1 H -0.193(3) 0.511(4) 0.0407(15)
C2 C -0.0590(11) 0.3682(11) 0.1350(5)
H2 H -0.181(3) 0.368(5) 0.1635(15)
B1 B -0.0281(12) 0.2259(12) 0.0679(5)
I1 I -0.23676(8) 0.04761(9) 0.039637(15)
B2 B 0.0901(10) 0.3547(11) 0.0120(4)
H3 H 0.06850 0.33980 -0.04010
B3 B 0.1374(10) 0.5595(11) 0.0456(4)
H4 H 0.14910 0.68180 0.01570
B4 B 0.0429(13) 0.5630(11) 0.1183(5)
H5 H -0.01220 0.68980 0.13780
B5 B 0.0997(11) 0.2027(10) 0.1357(4)
H6 H 0.08440 0.08360 0.16690
B6 B 0.1984(10) 0.1887(11) 0.0584(3)
H7 H 0.25000 0.06200 0.03770
B7 B 0.3080(11) 0.3974(12) 0.0437(4)
H8 H 0.43060 0.40710 0.01400
B8 B 0.2709(12) 0.5379(10) 0.1116(4)
I2 I 0.45859(9) 0.73534(8) 0.139529(13)
B9 B 0.1478(11) 0.4088(12) 0.1668(4)
H9 H 0.16790 0.42720 0.21880
B10 B 0.3090(12) 0.3020(14) 0.1210(4)
H10 H 0.43460 0.24850 0.14200
#END
