####################################################################### 
# 
# This file contains crystal structure data downloaded from the 
# Cambridge Structural Database (CSD) hosted by the Cambridge 
# Crystallographic Data Centre (CCDC).
# 
# Full information about CCDC data access policies and citation 
# guidelines are available at http://www.ccdc.cam.ac.uk/access/V1 
# 
# Audit and citation data items may have been added by the CCDC. 
# Please retain this information to preserve the provenance of 
# this file and to allow appropriate attribution of the data. 
# 
#######################################################################

data_ic6047
_audit_block_doi                 10.5517/cc3xql9
_database_code_depnum_ccdc_archive 'CCDC 116981'
loop_
_citation_id
_citation_doi
_citation_year
1 10.1002/(SICI)1521-3773(19990917)38:18<2730::AID-ANIE2730>3.3.CO;2-0 1999
_audit_update_record             
;
1999-03-24 deposited with the CCDC.	2024-07-09 downloaded from the CCDC.
;

_audit_creation_method           SHELXL
_chemical_name_systematic        
; 
? 
;
_chemical_name_common            ?
_chemical_formula_moiety         ?
_chemical_formula_structural     ?
_chemical_formula_analytical     ?
_chemical_formula_sum            'C44 H40 Mn N8 O4'
_chemical_formula_weight         799.78
_chemical_melting_point          ?
_chemical_compound_source        ?

loop_
_atom_type_symbol
_atom_type_description
_atom_type_scat_dispersion_real
_atom_type_scat_dispersion_imag
_atom_type_scat_source
C C 0.0033 0.0016 'International Tables Vol C Tables 4.2.6.8 and 6.1.1.4'
H H 0.0000 0.0000 'International Tables Vol C Tables 4.2.6.8 and 6.1.1.4'
N N 0.0061 0.0033 'International Tables Vol C Tables 4.2.6.8 and 6.1.1.4'
O O 0.0106 0.0060 'International Tables Vol C Tables 4.2.6.8 and 6.1.1.4'
Mn Mn 0.3368 0.7283 'International Tables Vol C Tables 4.2.6.8 and 6.1.1.4'

_symmetry_cell_setting           Rhombohedral
_symmetry_space_group_name_H-M   R-3

loop_
_symmetry_equiv_pos_as_xyz
'x, y, z'
'-y, x-y, z'
'-x+y, -x, z'
'x+2/3, y+1/3, z+1/3'
'-y+2/3, x-y+1/3, z+1/3'
'-x+y+2/3, -x+1/3, z+1/3'
'x+1/3, y+2/3, z+2/3'
'-y+1/3, x-y+2/3, z+2/3'
'-x+y+1/3, -x+2/3, z+2/3'
'-x, -y, -z'
'y, -x+y, -z'
'x-y, x, -z'
'-x+2/3, -y+1/3, -z+1/3'
'y+2/3, -x+y+1/3, -z+1/3'
'x-y+2/3, x+1/3, -z+1/3'
'-x+1/3, -y+2/3, -z+2/3'
'y+1/3, -x+y+2/3, -z+2/3'
'x-y+1/3, x+2/3, -z+2/3'

_cell_length_a                   33.3099(2)
_cell_length_b                   33.3099(2)
_cell_length_c                   9.3306(2)
_cell_angle_alpha                90.00
_cell_angle_beta                 90.00
_cell_angle_gamma                120.00
_cell_volume                     8965.8(2)
_cell_formula_units_Z            9
_cell_measurement_temperature    295(2)
_cell_measurement_reflns_used    6261
_cell_measurement_theta_min      ?
_cell_measurement_theta_max      ?

_exptl_crystal_description       needle
_exptl_crystal_colour            black
_exptl_crystal_size_max          0.45
_exptl_crystal_size_mid          0.07
_exptl_crystal_size_min          0.06
_exptl_crystal_density_meas      not_measured
_exptl_crystal_density_diffrn    1.333
_exptl_crystal_density_method    ?
_exptl_crystal_F_000             3753
_exptl_absorpt_coefficient_mu    0.385
_exptl_absorpt_correction_type   'sadabs (empirical)'
_exptl_absorpt_correction_T_min  0.7797
_exptl_absorpt_correction_T_max  0.8944

_exptl_special_details           
; 
? 
;

_diffrn_ambient_temperature      295(2)
_diffrn_radiation_wavelength     0.71073
_diffrn_radiation_type           MoK\a
_diffrn_radiation_source         'fine-focus sealed tube'
_diffrn_radiation_monochromator  graphite
_diffrn_measurement_device       'Siemens SMART CCD'
_diffrn_measurement_method       '\w scans'
_diffrn_standards_number         ?
_diffrn_standards_interval_count ?
_diffrn_standards_interval_time  ?
_diffrn_standards_decay_%        0
_diffrn_reflns_number            15211
_diffrn_reflns_av_R_equivalents  0.0644
_diffrn_reflns_av_sigmaI/netI    0.0540
_diffrn_reflns_limit_h_min       -37
_diffrn_reflns_limit_h_max       39
_diffrn_reflns_limit_k_min       -33
_diffrn_reflns_limit_k_max       39
_diffrn_reflns_limit_l_min       -11
_diffrn_reflns_limit_l_max       10
_diffrn_reflns_theta_min         1.22
_diffrn_reflns_theta_max         25.05
_reflns_number_total             3533
_reflns_number_observed          2582
_reflns_observed_criterion       >2sigma(I)

_computing_data_collection       'Siemens SMART'
_computing_cell_refinement       'Siemens SAINT'
_computing_data_reduction        'Siemens SAINT'
_computing_structure_solution    'SHELXS-86 (Sheldrick, 1990)'
_computing_structure_refinement  'SHELXL-93 (Sheldrick, 1993)'
_computing_molecular_graphics    'Siemens SHELXTL'
_computing_publication_material  'Siemens SHELXTL'

_refine_special_details          
; 
Refinement on F^2^ for ALL reflections except for 0 with very negative F^2^ 
or flagged by the user for potential systematic errors.  Weighted R-factors 
wR and all goodnesses of fit S are based on F^2^, conventional R-factors R 
are based on F, with F set to zero for negative F^2^. The observed criterion 
of F^2^ > 2sigma(F^2^) is used only for calculating _R_factor_obs etc. and is 
not relevant to the choice of reflections for refinement.  R-factors based 
on F^2^ are statistically about twice as large as those based on F, and R- 
factors based on ALL data will be even larger. 
;

_refine_ls_structure_factor_coef Fsqd
_refine_ls_matrix_type           full
_refine_ls_weighting_scheme      
'calc w=1/[\s^2^(Fo^2^)+(0.0997P)^2^+24.6779P] where P=(Fo^2^+2Fc^2^)/3'
_atom_sites_solution_primary     direct
_atom_sites_solution_secondary   difmap
_atom_sites_solution_hydrogens   geom
_refine_ls_hydrogen_treatment    ?
_refine_ls_extinction_method     SHELXL
_refine_ls_extinction_coef       0.0005(2)
_refine_ls_extinction_expression Fc^*^=kFc[1+0.001xFc^2^\l^3^/sin(2\q)]^-1/4^
_refine_ls_number_reflns         3533
_refine_ls_number_parameters     234
_refine_ls_number_restraints     0
_refine_ls_R_factor_all          0.0918
_refine_ls_R_factor_obs          0.0629
_refine_ls_wR_factor_all         0.1932
_refine_ls_wR_factor_obs         0.1746
_refine_ls_goodness_of_fit_all   1.094
_refine_ls_goodness_of_fit_obs   1.167
_refine_ls_restrained_S_all      1.094
_refine_ls_restrained_S_obs      1.167
_refine_ls_shift/esd_max         0.000
_refine_ls_shift/esd_mean        0.000

loop_
_atom_site_label
_atom_site_type_symbol
_atom_site_fract_x
_atom_site_fract_y
_atom_site_fract_z
_atom_site_U_iso_or_equiv
_atom_site_thermal_displace_type
_atom_site_occupancy
_atom_site_calc_flag
_atom_site_refinement_flags
_atom_site_disorder_group
Mn Mn 0.8333 0.6667 2.1667 0.0272(3) Uani 1 d S .
N1 N 0.79944(10) 0.66608(10) 1.9762(3) 0.0297(7) Uani 1 d . .
N2 N 0.83366(10) 0.60739(10) 2.0939(3) 0.0290(7) Uani 1 d . .
N3 N 0.7398(2) 0.5041(2) 1.5019(6) 0.0770(14) Uani 1 d . .
N4 N 0.95534(12) 0.53316(12) 2.4079(4) 0.0395(8) Uani 1 d . .
C1 C 0.77895(13) 0.69273(14) 1.9546(4) 0.0349(9) Uani 1 d . .
C2 C 0.7498(2) 0.6759(2) 1.8303(5) 0.0504(12) Uani 1 d . .
H2A H 0.7324(2) 0.6881(2) 1.7918(5) 0.061 Uiso 1 calc R .
C3 C 0.7521(2) 0.6391(2) 1.7791(5) 0.0469(11) Uani 1 d . .
H3B H 0.7368(2) 0.6214(2) 1.6990(5) 0.056 Uiso 1 calc R .
C4 C 0.78300(13) 0.63252(13) 1.8725(4) 0.0327(9) Uani 1 d . .
C5 C 0.79274(13) 0.59574(13) 1.8642(4) 0.0323(9) Uani 1 d . .
C6 C 0.81719(12) 0.58500(13) 1.9660(4) 0.0317(9) Uani 1 d . .
C7 C 0.8305(2) 0.5502(2) 1.9499(5) 0.0461(11) Uani 1 d . .
H7A H 0.8233(2) 0.5299(2) 1.8732(5) 0.055 Uiso 1 calc R .
C8 C 0.8556(2) 0.5527(2) 2.0680(5) 0.0455(11) Uani 1 d . .
H8A H 0.8687(2) 0.5344(2) 2.0872(5) 0.055 Uiso 1 calc R .
C9 C 0.85802(13) 0.58902(13) 2.1580(4) 0.0321(9) Uani 1 d . .
C10 C 0.88254(13) 0.60437(13) 2.2886(4) 0.0354(9) Uani 1 d . .
C11 C 0.77367(14) 0.56392(14) 1.7371(4) 0.0372(9) Uani 1 d . .
C12 C 0.7880(2) 0.5789(2) 1.5989(5) 0.0499(11) Uani 1 d . .
H12A H 0.8094(2) 0.6099(2) 1.5814(5) 0.060 Uiso 1 calc R .
C13 C 0.7707(2) 0.5482(2) 1.4876(6) 0.0636(14) Uani 1 d . .
H13A H 0.7815(2) 0.5592(2) 1.3959(6) 0.076 Uiso 1 calc R .
C14 C 0.7256(2) 0.4895(2) 1.6324(7) 0.078(2) Uani 1 d . .
H14A H 0.7036(2) 0.4583(2) 1.6446(7) 0.094 Uiso 1 calc R .
C15 C 0.7411(2) 0.5174(2) 1.7543(6) 0.0595(13) Uani 1 d . .
H15A H 0.7299(2) 0.5051(2) 1.8447(6) 0.071 Uiso 1 calc R .
C16 C 0.90809(14) 0.57997(14) 2.3322(4) 0.0361(9) Uani 1 d . .
C17 C 0.9498(2) 0.5904(2) 2.2691(5) 0.0493(12) Uani 1 d . .
H17A H 0.9629(2) 0.6135(2) 2.1998(5) 0.059 Uiso 1 calc R .
C18 C 0.9722(2) 0.5666(2) 2.3092(5) 0.0479(11) Uani 1 d . .
H18A H 1.0002(2) 0.5743(2) 2.2653(5) 0.057 Uiso 1 calc R .
C19 C 0.9155(2) 0.5235(2) 2.4689(5) 0.0486(11) Uani 1 d . .
H19A H 0.9034(2) 0.5004(2) 2.5384(5) 0.058 Uiso 1 calc R .
C20 C 0.8909(2) 0.5456(2) 2.4355(5) 0.0514(12) Uani 1 d . .
H20A H 0.8632(2) 0.5374(2) 2.4820(5) 0.062 Uiso 1 calc R .
O1 O 0.7043(3) 0.4281(3) 1.3038(8) 0.182(3) Uani 1 d . .
H1A H 0.6787 0.4456 1.3354 0.272 Uiso 1 d . .
H1B H 0.7319 0.4579 1.3760 0.272 Uiso 1 d . .
O2 O 0.6916 0.4624 1.0532 0.500 Uiso 1 d . .
H2 H 0.7120(93) 0.4867(5) 1.0180(16479) 0.750 Uiso 1 calc R .
C21 C 0.6964 0.4245 1.0021 0.500 Uiso 1 d . .
H21A H 0.7300 0.4402 1.0061(118) 0.600 Uiso 1 calc R .
H21B H 0.6868 0.4064 1.0897(118) 0.600 Uiso 1 calc R .
C22 C 0.6904 0.3891 0.9123 0.500 Uiso 1 d . .
H22A H 0.7066 0.3745 0.9502(118) 0.750 Uiso 1 calc R .
H22B H 0.7023 0.4015 0.8190(118) 0.750 Uiso 1 calc R .
H22C H 0.6579 0.3668 0.9050(118) 0.750 Uiso 1 calc R .

loop_
_atom_site_aniso_label
_atom_site_aniso_U_11
_atom_site_aniso_U_22
_atom_site_aniso_U_33
_atom_site_aniso_U_23
_atom_site_aniso_U_13
_atom_site_aniso_U_12
Mn 0.0247(5) 0.0307(5) 0.0323(5) 0.0033(3) -0.0007(3) 0.0185(4)
N1 0.030(2) 0.034(2) 0.033(2) 0.0045(13) 0.0021(13) 0.0217(15)
N2 0.024(2) 0.032(2) 0.035(2) 0.0069(13) 0.0011(13) 0.0169(14)
N3 0.096(4) 0.083(4) 0.066(3) -0.028(3) -0.029(3) 0.055(3)
N4 0.047(2) 0.041(2) 0.045(2) 0.000(2) -0.008(2) 0.032(2)
C1 0.036(2) 0.042(2) 0.037(2) 0.003(2) -0.002(2) 0.027(2)
C2 0.059(3) 0.061(3) 0.055(3) -0.005(2) -0.020(2) 0.048(3)
C3 0.054(3) 0.055(3) 0.045(2) -0.010(2) -0.020(2) 0.037(2)
C4 0.032(2) 0.037(2) 0.035(2) 0.002(2) -0.002(2) 0.021(2)
C5 0.030(2) 0.034(2) 0.035(2) 0.003(2) 0.001(2) 0.018(2)
C6 0.026(2) 0.035(2) 0.039(2) 0.001(2) 0.000(2) 0.019(2)
C7 0.061(3) 0.046(3) 0.047(3) -0.010(2) -0.010(2) 0.039(2)
C8 0.053(3) 0.051(3) 0.053(3) -0.007(2) -0.010(2) 0.041(2)
C9 0.033(2) 0.034(2) 0.038(2) 0.007(2) 0.002(2) 0.023(2)
C10 0.035(2) 0.038(2) 0.042(2) 0.007(2) 0.000(2) 0.025(2)
C11 0.037(2) 0.038(2) 0.042(2) -0.001(2) -0.006(2) 0.023(2)
C12 0.059(3) 0.054(3) 0.042(3) 0.001(2) 0.000(2) 0.032(2)
C13 0.078(4) 0.080(4) 0.046(3) -0.013(3) -0.013(3) 0.050(3)
C14 0.085(4) 0.046(3) 0.093(5) -0.020(3) -0.027(4) 0.024(3)
C15 0.063(3) 0.047(3) 0.060(3) -0.005(2) -0.012(3) 0.022(3)
C16 0.044(2) 0.042(2) 0.037(2) -0.001(2) -0.006(2) 0.033(2)
C17 0.049(3) 0.057(3) 0.058(3) 0.021(2) 0.005(2) 0.038(2)
C18 0.047(3) 0.061(3) 0.053(3) 0.012(2) 0.006(2) 0.041(2)
C19 0.055(3) 0.050(3) 0.055(3) 0.016(2) 0.003(2) 0.037(2)
C20 0.048(3) 0.066(3) 0.059(3) 0.019(2) 0.008(2) 0.043(2)
O1 0.195(7) 0.174(6) 0.162(6) -0.077(5) -0.047(5) 0.082(6)

_geom_special_details            
; 
All esds (except the esd in the dihedral angle between two l.s. planes) 
are estimated using the full covariance matrix.  The cell esds are taken 
into account individually in the estimation of esds in distances, angles 
and torsion angles; correlations between esds in cell parameters are only 
used when they are defined by crystal symmetry.  An approximate (isotropic) 
treatment of cell esds is used for estimating esds involving l.s. planes. 
;

loop_
_geom_bond_atom_site_label_1
_geom_bond_atom_site_label_2
_geom_bond_distance
_geom_bond_site_symmetry_2
_geom_bond_publ_flag
Mn N2 2.093(3) 13_669 ?
Mn N2 2.093(3) . ?
Mn N1 2.100(3) . ?
Mn N1 2.100(3) 13_669 ?
Mn N4 2.411(3) 18_549 ?
Mn N4 2.411(3) 9_664 ?
N1 C4 1.369(5) . ?
N1 C1 1.379(5) . ?
N2 C6 1.368(5) . ?
N2 C9 1.374(4) . ?
N3 C14 1.309(8) . ?
N3 C13 1.311(7) . ?
N4 C19 1.326(5) . ?
N4 C18 1.335(5) . ?
N4 Mn 2.411(3) 5_655 ?
C1 C10 1.409(6) 13_669 ?
C1 C2 1.434(6) . ?
C2 C3 1.354(6) . ?
C3 C4 1.446(5) . ?
C4 C5 1.418(5) . ?
C5 C6 1.409(5) . ?
C5 C11 1.503(5) . ?
C6 C7 1.441(5) . ?
C7 C8 1.360(6) . ?
C8 C9 1.440(6) . ?
C9 C10 1.413(5) . ?
C10 C1 1.409(6) 13_669 ?
C10 C16 1.497(5) . ?
C11 C12 1.379(6) . ?
C11 C15 1.387(6) . ?
C12 C13 1.367(7) . ?
C14 C15 1.394(7) . ?
C16 C20 1.383(6) . ?
C16 C17 1.384(6) . ?
C17 C18 1.383(5) . ?
C19 C20 1.384(6) . ?
O2 C21 1.43 . ?
C21 C22 1.38 . ?

loop_
_geom_angle_atom_site_label_1
_geom_angle_atom_site_label_2
_geom_angle_atom_site_label_3
_geom_angle
_geom_angle_site_symmetry_1
_geom_angle_site_symmetry_3
_geom_angle_publ_flag
N2 Mn N2 180.0 13_669 . ?
N2 Mn N1 91.55(11) 13_669 . ?
N2 Mn N1 88.45(11) . . ?
N2 Mn N1 88.45(11) 13_669 13_669 ?
N2 Mn N1 91.55(11) . 13_669 ?
N1 Mn N1 179.995(1) . 13_669 ?
N2 Mn N4 87.45(12) 13_669 18_549 ?
N2 Mn N4 92.55(12) . 18_549 ?
N1 Mn N4 83.60(12) . 18_549 ?
N1 Mn N4 96.40(11) 13_669 18_549 ?
N2 Mn N4 92.56(12) 13_669 9_664 ?
N2 Mn N4 87.44(12) . 9_664 ?
N1 Mn N4 96.40(11) . 9_664 ?
N1 Mn N4 83.60(12) 13_669 9_664 ?
N4 Mn N4 179.991(1) 18_549 9_664 ?
C4 N1 C1 107.3(3) . . ?
C4 N1 Mn 126.8(2) . . ?
C1 N1 Mn 123.7(2) . . ?
C6 N2 C9 107.6(3) . . ?
C6 N2 Mn 127.4(2) . . ?
C9 N2 Mn 124.2(2) . . ?
C14 N3 C13 116.6(5) . . ?
C19 N4 C18 116.8(3) . . ?
C19 N4 Mn 120.4(3) . 5_655 ?
C18 N4 Mn 122.1(3) . 5_655 ?
N1 C1 C10 125.2(3) . 13_669 ?
N1 C1 C2 108.8(3) . . ?
C10 C1 C2 125.9(3) 13_669 . ?
C3 C2 C1 107.8(4) . . ?
C2 C3 C4 106.9(4) . . ?
N1 C4 C5 125.0(3) . . ?
N1 C4 C3 109.1(3) . . ?
C5 C4 C3 125.8(4) . . ?
C6 C5 C4 126.4(4) . . ?
C6 C5 C11 116.5(3) . . ?
C4 C5 C11 117.0(3) . . ?
N2 C6 C5 125.1(3) . . ?
N2 C6 C7 109.2(3) . . ?
C5 C6 C7 125.7(4) . . ?
C8 C7 C6 107.0(4) . . ?
C7 C8 C9 107.4(3) . . ?
N2 C9 C10 125.3(3) . . ?
N2 C9 C8 108.8(3) . . ?
C10 C9 C8 125.9(3) . . ?
C1 C10 C9 128.7(3) 13_669 . ?
C1 C10 C16 116.4(3) 13_669 . ?
C9 C10 C16 114.9(3) . . ?
C12 C11 C15 116.6(4) . . ?
C12 C11 C5 122.3(4) . . ?
C15 C11 C5 121.0(4) . . ?
C13 C12 C11 120.0(5) . . ?
N3 C13 C12 124.1(5) . . ?
N3 C14 C15 124.4(5) . . ?
C11 C15 C14 118.2(5) . . ?
C20 C16 C17 116.9(4) . . ?
C20 C16 C10 121.8(4) . . ?
C17 C16 C10 121.3(4) . . ?
C18 C17 C16 120.1(4) . . ?
N4 C18 C17 123.0(4) . . ?
N4 C19 C20 124.0(4) . . ?
C16 C20 C19 119.2(4) . . ?
C22 C21 O2 157.7 . . ?

_refine_diff_density_max         0.413
_refine_diff_density_min         -0.512
_refine_diff_density_rms         0.083


