####################################################################### 
# 
# This file contains crystal structure data downloaded from the 
# Cambridge Structural Database (CSD) hosted by the Cambridge 
# Crystallographic Data Centre (CCDC).
# 
# Full information about CCDC data access policies and citation 
# guidelines are available at http://www.ccdc.cam.ac.uk/access/V1 
# 
# Audit and citation data items may have been added by the CCDC. 
# Please retain this information to preserve the provenance of 
# this file and to allow appropriate attribution of the data. 
# 
#######################################################################

data_jaz2
_audit_block_doi                 10.5517/cc4gdml
_database_code_depnum_ccdc_archive 'CCDC 133009'
loop_
_citation_id
_citation_doi
_citation_year
1 10.1002/(SICI)1521-3773(19991102)38:21<3165::AID-ANIE3165>3.0.CO;2-O 1999
_audit_update_record             
;
1999-07-28 deposited with the CCDC.	2024-07-09 downloaded from the CCDC.
;

_audit_creation_method           SHELXL-97
_chemical_name_systematic        
; 
? 
;
_chemical_name_common            ?
_chemical_melting_point          ?
_chemical_formula_moiety         ?
_chemical_formula_sum            'C40 H24 Cu3 Mo3 N8 O11'
_chemical_formula_weight         1271.11

loop_
_atom_type_symbol
_atom_type_description
_atom_type_scat_dispersion_real
_atom_type_scat_dispersion_imag
_atom_type_scat_source
C C 0.0033 0.0016 'International Tables Vol C Tables 4.2.6.8 and 6.1.1.4'
H H 0.0000 0.0000 'International Tables Vol C Tables 4.2.6.8 and 6.1.1.4'
N N 0.0061 0.0033 'International Tables Vol C Tables 4.2.6.8 and 6.1.1.4'
O O 0.0106 0.0060 'International Tables Vol C Tables 4.2.6.8 and 6.1.1.4'
Cu Cu 0.3201 1.2651 'International Tables Vol C Tables 4.2.6.8 and 6.1.1.4'
Mo Mo -1.6832 0.6857 'International Tables Vol C Tables 4.2.6.8 and 6.1.1.4'

_symmetry_cell_setting           Monoclinic
_symmetry_space_group_name_H-M   P2(1)/c

loop_
_symmetry_equiv_pos_as_xyz
'x, y, z'
'-x, y+1/2, -z+1/2'
'-x, -y, -z'
'x, -y-1/2, z-1/2'

_cell_length_a                   21.8453(4)
_cell_length_b                   21.84440(10)
_cell_length_c                   9.5879(2)
_cell_angle_alpha                90.00
_cell_angle_beta                 98.7850(10)
_cell_angle_gamma                90.00
_cell_volume                     4521.65(13)
_cell_formula_units_Z            4
_cell_measurement_temperature    293(2)
_cell_measurement_reflns_used    ?
_cell_measurement_theta_min      ?
_cell_measurement_theta_max      ?

_exptl_crystal_description       ?
_exptl_crystal_colour            ?
_exptl_crystal_size_max          .1
_exptl_crystal_size_mid          .04
_exptl_crystal_size_min          .03
_exptl_crystal_density_meas      ?
_exptl_crystal_density_diffrn    1.867
_exptl_crystal_density_method    'not measured'
_exptl_crystal_F_000             2484
_exptl_absorpt_coefficient_mu    2.258
_exptl_absorpt_correction_type   ?
_exptl_absorpt_correction_T_min  ?
_exptl_absorpt_correction_T_max  ?
_exptl_absorpt_process_details   ?

_exptl_special_details           
; 
? 
;

_diffrn_ambient_temperature      293(2)
_diffrn_radiation_wavelength     0.71073
_diffrn_radiation_type           MoK\a
_diffrn_radiation_source         'fine-focus sealed tube'
_diffrn_radiation_monochromator  graphite
_diffrn_measurement_device_type  ?
_diffrn_measurement_method       ?
_diffrn_detector_area_resol_mean ?
_diffrn_standards_number         ?
_diffrn_standards_interval_count ?
_diffrn_standards_interval_time  ?
_diffrn_standards_decay_%        ?
_diffrn_reflns_number            8873
_diffrn_reflns_av_R_equivalents  0.1278
_diffrn_reflns_av_sigmaI/netI    0.1010
_diffrn_reflns_limit_h_min       -26
_diffrn_reflns_limit_h_max       26
_diffrn_reflns_limit_k_min       0
_diffrn_reflns_limit_k_max       26
_diffrn_reflns_limit_l_min       0
_diffrn_reflns_limit_l_max       11
_diffrn_reflns_theta_min         0.94
_diffrn_reflns_theta_max         26.00
_reflns_number_total             8873
_reflns_number_gt                5009
_reflns_threshold_expression     >2sigma(I)

_computing_data_collection       ?
_computing_cell_refinement       ?
_computing_data_reduction        ?
_computing_structure_solution    'SHELXS-97 (Sheldrick, 1990)'
_computing_structure_refinement  'SHELXL-97 (Sheldrick, 1997)'
_computing_molecular_graphics    ?
_computing_publication_material  ?

_refine_special_details          
; 
Refinement of F^2^ against ALL reflections.  The weighted R-factor wR and 
goodness of fit S are based on F^2^, conventional R-factors R are based 
on F, with F set to zero for negative F^2^. The threshold expression of 
F^2^ > 2sigma(F^2^) is used only for calculating R-factors(gt) etc. and is 
not relevant to the choice of reflections for refinement.  R-factors based 
on F^2^ are statistically about twice as large as those based on F, and R- 
factors based on ALL data will be even larger. 
;

_refine_ls_structure_factor_coef Fsqd
_refine_ls_matrix_type           full
_refine_ls_weighting_scheme      calc
_refine_ls_weighting_details     
'calc w=1/[\s^2^(Fo^2^)+(0.1883P)^2^+123.7814P] where P=(Fo^2^+2Fc^2^)/3'
_atom_sites_solution_primary     direct
_atom_sites_solution_secondary   difmap
_atom_sites_solution_hydrogens   geom
_refine_ls_hydrogen_treatment    mixed
_refine_ls_extinction_method     none
_refine_ls_extinction_coef       ?
_refine_ls_number_reflns         8873
_refine_ls_number_parameters     346
_refine_ls_number_restraints     0
_refine_ls_R_factor_all          0.0850
_refine_ls_R_factor_gt           0.0630
_refine_ls_wR_factor_ref         0.1803
_refine_ls_wR_factor_gt          0.1666
_refine_ls_goodness_of_fit_ref   0.530
_refine_ls_restrained_S_all      0.530
_refine_ls_shift/su_max          0.000
_refine_ls_shift/su_mean         0.000

loop_
_atom_site_label
_atom_site_type_symbol
_atom_site_fract_x
_atom_site_fract_y
_atom_site_fract_z
_atom_site_U_iso_or_equiv
_atom_site_adp_type
_atom_site_occupancy
_atom_site_symmetry_multiplicity
_atom_site_calc_flag
_atom_site_refinement_flags
_atom_site_disorder_assembly
_atom_site_disorder_group
Mo1 Mo 0.35066(3) 0.32692(3) 0.11982(8) 0.01900(18) Uani 1 1 d . . .
Mo2 Mo 0.15959(3) 0.16313(3) -0.04439(8) 0.01948(18) Uani 1 1 d . . .
Mo3 Mo 0.26029(3) 0.25092(3) -0.18828(8) 0.02298(19) Uani 1 1 d . . .
Cu4 Cu 0.14841(5) 0.31015(4) 0.05379(12) 0.0210(3) Uani 1 1 d . . .
Cu5 Cu 0.32838(5) 0.17182(5) 0.04624(12) 0.0243(3) Uani 1 1 d . . .
Cu6 Cu 0.74789(5) 0.23960(5) 0.50316(11) 0.0188(2) Uiso 1 1 d . . .
O1 O 0.3194(3) 0.3956(3) 0.0583(7) 0.0315(17) Uani 1 1 d . . .
O2 O 0.3420(3) 0.3121(3) 0.3044(7) 0.0243(14) Uani 1 1 d . . .
O3 O 0.1506(3) 0.0923(3) 0.0316(8) 0.0311(16) Uani 1 1 d . . .
O4 O 0.2963(3) 0.3126(3) -0.2548(7) 0.0257(14) Uani 1 1 d . . .
O5 O 0.2286(3) 0.2059(3) -0.3365(7) 0.0259(14) Uani 1 1 d . . .
O6 O 0.1954(3) 0.2844(3) -0.1367(7) 0.0272(15) Uani 1 1 d . . .
O7 O 0.1176(3) 0.1626(3) -0.2158(8) 0.0299(16) Uani 1 1 d . . .
O8 O 0.4287(3) 0.3326(3) 0.1187(8) 0.0320(16) Uani 1 1 d . . .
O9 O 0.1301(3) 0.2214(3) 0.0621(7) 0.0268(14) Uani 1 1 d . . .
O10 O 0.3227(3) 0.2613(3) -0.0001(7) 0.0242(14) Uani 1 1 d . . .
O11 O 0.2424(3) 0.1723(3) -0.0536(6) 0.0208(13) Uani 1 1 d . . .
C1 C 1.0141(4) 0.3285(4) 1.0015(9) 0.0251(19) Uani 1 1 d . . .
H1A H 1.0189 0.3436 1.0932 0.030 Uiso 1 1 calc R . .
C2 C 1.0562(5) 0.3022(5) 0.8052(11) 0.031(2) Uiso 1 1 d . . .
H2A H 1.0916 0.2998 0.7624 0.038 Uiso 1 1 calc R . .
C3 C 0.9549(5) 0.3168(5) 0.9276(11) 0.035(2) Uiso 1 1 d . . .
H3A H 0.9207 0.3241 0.9720 0.042 Uiso 1 1 calc R . .
C4 C 0.9997(5) 0.2893(5) 0.7277(12) 0.036(2) Uiso 1 1 d . . .
H4A H 0.9965 0.2768 0.6341 0.043 Uiso 1 1 calc R . .
C5 C 0.9459(4) 0.2954(4) 0.7944(10) 0.0263(19) Uiso 1 1 d . . .
C6 C 0.8202(4) -0.0609(4) 0.3773(9) 0.0210(17) Uiso 1 1 d . . .
H6A H 0.8211 -0.0729 0.2846 0.025 Uiso 1 1 calc R . .
C7 C 0.8299(4) -0.0810(4) 0.6091(9) 0.0221(18) Uiso 1 1 d . . .
H7A H 0.8379 -0.1088 0.6830 0.027 Uiso 1 1 calc R . .
C8 C 0.8165(4) -0.0189(4) 0.6447(9) 0.0206(17) Uiso 1 1 d . . .
H8A H 0.8164 -0.0066 0.7375 0.025 Uiso 1 1 calc R . .
C9 C 0.8060(4) 0.0024(4) 0.4081(9) 0.0218(18) Uiso 1 1 d . . .
H9A H 0.7984 0.0301 0.3337 0.026 Uiso 1 1 calc R . .
C10 C 0.8035(4) 0.0214(4) 0.5323(9) 0.0207(17) Uiso 1 1 d . . .
C11 C 0.4954(5) 0.1756(5) 0.3368(12) 0.037(2) Uiso 1 1 d . . .
H11A H 0.5059 0.1709 0.4339 0.044 Uiso 1 1 calc R . .
C12 C 0.4333(5) 0.1706(5) 0.2665(12) 0.037(2) Uiso 1 1 d . . .
H12A H 0.4019 0.1632 0.3199 0.044 Uiso 1 1 calc R . .
C13 C 0.5396(4) 0.1882(4) 0.2488(9) 0.0194(17) Uiso 1 1 d . . .
C14 C 0.4606(4) 0.1835(4) 0.0478(10) 0.0256(19) Uiso 1 1 d . . .
H14A H 0.4487 0.1850 -0.0495 0.031 Uiso 1 1 calc R . .
C15 C 0.5248(4) 0.1895(4) 0.1051(9) 0.0190(17) Uiso 1 1 d . . .
H15A H 0.5550 0.1941 0.0472 0.023 Uiso 1 1 calc R . .
C16 C 0.6807(4) 0.5552(4) 0.3121(10) 0.027(2) Uiso 1 1 d . . .
H16A H 0.6772 0.5785 0.2301 0.032 Uiso 1 1 calc R . .
C17 C 0.6811(4) 0.5496(4) 0.5633(10) 0.027(2) Uiso 1 1 d . . .
H17A H 0.6762 0.5692 0.6469 0.033 Uiso 1 1 calc R . .
C18 C 0.7001(4) 0.4586(4) 0.4366(8) 0.0164(16) Uiso 1 1 d . . .
C19 C 0.6911(4) 0.4905(4) 0.3076(10) 0.0258(19) Uiso 1 1 d . . .
H19A H 0.6918 0.4703 0.2225 0.031 Uiso 1 1 calc R . .
C20 C 0.6937(4) 0.4870(4) 0.5586(9) 0.0195(17) Uiso 1 1 d . . .
H20A H 0.6978 0.4643 0.6416 0.023 Uiso 1 1 calc R . .
C21 C 0.8847(4) 0.2777(4) 0.7063(9) 0.0208(17) Uiso 1 1 d . . .
C22 C 0.8687(4) 0.2173(4) 0.6952(9) 0.0225(18) Uiso 1 1 d . . .
C23 C 0.9096(4) 0.1680(4) 0.7643(10) 0.0256(19) Uiso 1 1 d . . .
H23A H 0.9458 0.1722 0.8285 0.031 Uiso 1 1 calc R . .
C24 C 0.8815(4) 0.1149(4) 0.7116(9) 0.0206(17) Uiso 1 1 d . . .
H24A H 0.8964 0.0755 0.7309 0.025 Uiso 1 1 calc R . .
C25 C 0.8248(4) 0.1308(4) 0.6211(9) 0.0210(17) Uiso 1 1 d . . .
C26 C 0.7839(3) 0.0873(3) 0.5480(8) 0.0124(15) Uiso 1 1 d . . .
C27 C 0.7245(4) 0.1025(4) 0.4774(9) 0.0179(16) Uiso 1 1 d . . .
C28 C 0.6776(4) 0.0599(4) 0.4212(9) 0.0231(18) Uiso 1 1 d . . .
H28A H 0.6818 0.0175 0.4233 0.028 Uiso 1 1 calc R . .
C29 C 0.6273(4) 0.0900(4) 0.3659(9) 0.0216(18) Uiso 1 1 d . . .
H29A H 0.5891 0.0734 0.3287 0.026 Uiso 1 1 calc R . .
C30 C 0.6448(4) 0.1565(4) 0.3758(9) 0.0175(16) Uiso 1 1 d . . .
C31 C 0.6056(3) 0.2025(3) 0.3196(8) 0.0107(14) Uiso 1 1 d . . .
C32 C 0.6240(4) 0.2634(4) 0.3209(9) 0.0215(18) Uiso 1 1 d . . .
C33 C 0.5827(4) 0.3120(4) 0.2630(10) 0.0249(19) Uiso 1 1 d . . .
H33A H 0.5436 0.3075 0.2103 0.030 Uiso 1 1 calc R . .
C34 C 0.6125(4) 0.3651(4) 0.3007(9) 0.0228(18) Uiso 1 1 d . . .
H34A H 0.5973 0.4044 0.2807 0.027 Uiso 1 1 calc R . .
C35 C 0.6731(4) 0.3490(4) 0.3790(9) 0.0169(16) Uiso 1 1 d . . .
C36 C 0.7174(4) 0.3903(4) 0.4335(9) 0.0197(17) Uiso 1 1 d . . .
C37 C 0.7735(4) 0.3758(4) 0.5176(9) 0.0215(18) Uiso 1 1 d . . .
C38 C 0.8212(4) 0.4185(5) 0.5664(10) 0.029(2) Uiso 1 1 d . . .
H38A H 0.8198 0.4604 0.5494 0.034 Uiso 1 1 calc R . .
C39 C 0.8677(4) 0.3884(4) 0.6399(10) 0.0267(19) Uiso 1 1 d . . .
H39A H 0.9044 0.4050 0.6867 0.032 Uiso 1 1 calc R . .
C40 C 0.8506(4) 0.3254(4) 0.6333(9) 0.0204(17) Uiso 1 1 d . . .
N1 N 1.0616(4) 0.3182(4) 0.9418(8) 0.0249(16) Uiso 1 1 d . . .
N2 N 0.8319(3) -0.1015(3) 0.4813(8) 0.0223(15) Uiso 1 1 d . . .
N3 N 0.4187(3) 0.1761(3) 0.1283(7) 0.0187(14) Uiso 1 1 d . . .
N4 N 0.6764(3) 0.5812(3) 0.4336(7) 0.0170(14) Uiso 1 1 d . . .
N5 N 0.7026(3) 0.1616(3) 0.4520(7) 0.0160(14) Uiso 1 1 d . . .
N6 N 0.6784(3) 0.2866(3) 0.3937(7) 0.0136(13) Uiso 1 1 d . . .
N7 N 0.7913(3) 0.3187(3) 0.5591(7) 0.0171(14) Uiso 1 1 d . . .
N8 N 0.8164(3) 0.1929(3) 0.6137(7) 0.0162(14) Uiso 1 1 d . . .

loop_
_atom_site_aniso_label
_atom_site_aniso_U_11
_atom_site_aniso_U_22
_atom_site_aniso_U_33
_atom_site_aniso_U_23
_atom_site_aniso_U_13
_atom_site_aniso_U_12
Mo1 0.0124(3) 0.0172(4) 0.0247(4) -0.0039(3) -0.0059(3) -0.0013(3)
Mo2 0.0110(3) 0.0182(4) 0.0252(4) -0.0044(3) -0.0105(3) -0.0024(3)
Mo3 0.0197(4) 0.0176(4) 0.0260(4) 0.0005(3) -0.0146(3) 0.0002(3)
Cu4 0.0206(5) 0.0082(5) 0.0276(6) -0.0006(4) -0.0167(4) -0.0004(4)
Cu5 0.0198(5) 0.0182(5) 0.0282(6) -0.0021(4) -0.0179(4) 0.0026(4)
O1 0.030(3) 0.011(3) 0.042(4) -0.003(3) -0.032(3) 0.006(2)
O2 0.027(3) 0.018(3) 0.024(3) -0.003(2) -0.009(3) 0.000(2)
O3 0.031(4) 0.013(3) 0.045(4) -0.003(3) -0.010(3) -0.003(3)
O4 0.023(3) 0.020(3) 0.029(3) 0.006(3) -0.016(3) 0.001(2)
O5 0.017(3) 0.024(3) 0.035(4) 0.001(3) -0.002(3) -0.001(2)
O6 0.019(3) 0.017(3) 0.037(4) -0.002(3) -0.023(3) 0.000(2)
O7 0.017(3) 0.024(3) 0.043(4) -0.006(3) -0.016(3) 0.009(2)
O8 0.015(3) 0.039(4) 0.040(4) -0.011(3) -0.004(3) -0.005(3)
O9 0.027(3) 0.017(3) 0.031(4) 0.005(3) -0.012(3) -0.008(3)
O10 0.021(3) 0.014(3) 0.033(3) -0.001(3) -0.010(3) 0.002(2)
O11 0.018(3) 0.011(3) 0.028(3) 0.000(2) -0.012(2) 0.003(2)
C1 0.031(5) 0.028(5) 0.014(4) 0.004(3) -0.004(3) -0.003(4)

_geom_special_details            
; 
All esds (except the esd in the dihedral angle between two l.s. planes) 
are estimated using the full covariance matrix.  The cell esds are taken 
into account individually in the estimation of esds in distances, angles 
and torsion angles; correlations between esds in cell parameters are only 
used when they are defined by crystal symmetry.  An approximate (isotropic) 
treatment of cell esds is used for estimating esds involving l.s. planes. 
;

loop_
_geom_bond_atom_site_label_1
_geom_bond_atom_site_label_2
_geom_bond_distance
_geom_bond_site_symmetry_2
_geom_bond_publ_flag
Mo1 O8 1.712(6) . ?
Mo1 O1 1.715(6) . ?
Mo1 O2 1.837(7) . ?
Mo1 O10 1.880(6) . ?
Mo2 O3 1.734(7) . ?
Mo2 O7 1.755(6) . ?
Mo2 O9 1.811(7) . ?
Mo2 O11 1.835(6) . ?
Mo3 O4 1.730(6) . ?
Mo3 O6 1.734(7) . ?
Mo3 O5 1.779(7) . ?
Mo3 O10 2.101(6) . ?
Mo3 O11 2.219(6) . ?
Mo3 O2 2.264(6) 4_565 ?
Mo3 Cu5 3.0384(12) . ?
Cu4 O5 1.933(6) 4_566 ?
Cu4 O9 1.983(6) . ?
Cu4 N2 2.016(8) 2_655 ?
Cu4 N1 2.040(8) 1_454 ?
Cu4 O6 2.297(8) . ?
Cu5 O11 1.974(6) . ?
Cu5 N4 1.993(7) 2_645 ?
Cu5 O10 2.004(6) . ?
Cu5 N3 2.011(7) . ?
Cu5 O4 2.157(7) 4_566 ?
Cu5 O2 2.409(7) 4_565 ?
Cu6 N8 1.980(7) . ?
Cu6 N6 1.994(7) . ?
Cu6 N5 1.993(7) . ?
Cu6 N7 2.004(7) . ?
O2 Mo3 2.264(6) 4_566 ?
O2 Cu5 2.409(7) 4_566 ?
O4 Cu5 2.157(7) 4_565 ?
O5 Cu4 1.933(6) 4_565 ?
C1 N1 1.278(13) . ?
C1 C3 1.400(14) . ?
C2 N1 1.344(13) . ?
C2 C4 1.369(15) . ?
C3 C5 1.346(14) . ?
C4 C5 1.427(14) . ?
C5 C21 1.520(12) . ?
C6 N2 1.330(11) . ?
C6 C9 1.457(12) . ?
C7 N2 1.312(12) . ?
C7 C8 1.439(12) . ?
C8 C10 1.387(12) . ?
C9 C10 1.270(12) . ?
C10 C26 1.516(11) . ?
C11 C13 1.404(14) . ?
C11 C12 1.424(15) . ?
C12 N3 1.320(13) . ?
C13 C15 1.366(12) . ?
C13 C31 1.528(11) . ?
C14 N3 1.295(12) . ?
C14 C15 1.432(12) . ?
C16 N4 1.312(12) . ?
C16 C19 1.433(13) . ?
C17 C20 1.396(13) . ?
C17 N4 1.413(12) . ?
C18 C20 1.350(12) . ?
C18 C19 1.406(12) . ?
C18 C36 1.542(11) . ?
C21 C22 1.366(12) . ?
C21 C40 1.403(12) . ?
C22 N8 1.388(11) . ?
C22 C23 1.488(13) . ?
C23 C24 1.372(13) . ?
C24 C25 1.441(12) . ?
C25 N8 1.369(11) . ?
C25 C26 1.415(11) . ?
C26 C27 1.408(11) . ?
C27 N5 1.386(10) . ?
C27 C28 1.426(12) . ?
C28 C29 1.319(12) . ?
C29 C30 1.503(12) . ?
C30 N5 1.364(10) . ?
C30 C31 1.375(11) . ?
C31 C32 1.391(11) . ?
C32 N6 1.380(11) . ?
C32 C33 1.446(12) . ?
C33 C34 1.352(13) . ?
C34 C35 1.462(12) . ?
C35 C36 1.367(12) . ?
C35 N6 1.372(10) . ?
C36 C37 1.396(12) . ?
C37 N7 1.349(11) . ?
C37 C38 1.424(13) . ?
C38 C39 1.321(14) . ?
C39 C40 1.424(13) . ?
C40 N7 1.389(11) . ?
N1 Cu4 2.040(8) 1_656 ?
N2 Cu4 2.016(8) 2_645 ?
N4 Cu5 1.993(7) 2_655 ?

loop_
_geom_angle_atom_site_label_1
_geom_angle_atom_site_label_2
_geom_angle_atom_site_label_3
_geom_angle
_geom_angle_site_symmetry_1
_geom_angle_site_symmetry_3
_geom_angle_publ_flag
O8 Mo1 O1 106.2(4) . . ?
O8 Mo1 O2 105.5(3) . . ?
O1 Mo1 O2 113.1(3) . . ?
O8 Mo1 O10 106.4(3) . . ?
O1 Mo1 O10 112.4(3) . . ?
O2 Mo1 O10 112.5(3) . . ?
O3 Mo2 O7 108.1(3) . . ?
O3 Mo2 O9 108.5(3) . . ?
O7 Mo2 O9 110.6(3) . . ?
O3 Mo2 O11 107.0(3) . . ?
O7 Mo2 O11 109.5(3) . . ?
O9 Mo2 O11 112.9(3) . . ?
O4 Mo3 O6 102.4(3) . . ?
O4 Mo3 O5 106.2(3) . . ?
O6 Mo3 O5 103.0(3) . . ?
O4 Mo3 O10 87.8(3) . . ?
O6 Mo3 O10 99.3(3) . . ?
O5 Mo3 O10 150.2(3) . . ?
O4 Mo3 O11 161.4(2) . . ?
O6 Mo3 O11 86.3(3) . . ?
O5 Mo3 O11 87.4(3) . . ?
O10 Mo3 O11 74.5(2) . . ?
O4 Mo3 O2 93.2(3) . 4_565 ?
O6 Mo3 O2 161.6(3) . 4_565 ?
O5 Mo3 O2 81.5(3) . 4_565 ?
O10 Mo3 O2 71.4(2) . 4_565 ?
O11 Mo3 O2 76.0(2) . 4_565 ?
O4 Mo3 Cu5 121.12(19) . . ?
O6 Mo3 Cu5 111.0(2) . . ?
O5 Mo3 Cu5 111.3(2) . . ?
O10 Mo3 Cu5 41.04(16) . . ?
O11 Mo3 Cu5 40.47(14) . . ?
O2 Mo3 Cu5 51.55(16) 4_565 . ?
O5 Cu4 O9 88.4(3) 4_566 . ?
O5 Cu4 N2 93.7(3) 4_566 2_655 ?
O9 Cu4 N2 172.5(3) . 2_655 ?
O5 Cu4 N1 174.3(3) 4_566 1_454 ?
O9 Cu4 N1 85.9(3) . 1_454 ?
N2 Cu4 N1 92.0(3) 2_655 1_454 ?
O5 Cu4 O6 84.9(2) 4_566 . ?
O9 Cu4 O6 84.8(3) . . ?
N2 Cu4 O6 88.2(3) 2_655 . ?
N1 Cu4 O6 95.5(3) 1_454 . ?
O11 Cu5 N4 89.6(3) . 2_645 ?
O11 Cu5 O10 82.2(2) . . ?
N4 Cu5 O10 171.0(3) 2_645 . ?
O11 Cu5 N3 173.4(3) . . ?
N4 Cu5 N3 94.1(3) 2_645 . ?
O10 Cu5 N3 93.7(3) . . ?
O11 Cu5 O4 90.8(2) . 4_566 ?
N4 Cu5 O4 92.4(3) 2_645 4_566 ?
O10 Cu5 O4 91.4(3) . 4_566 ?
N3 Cu5 O4 94.5(3) . 4_566 ?
O11 Cu5 O2 77.3(2) . 4_565 ?
N4 Cu5 O2 104.8(2) 2_645 4_565 ?
O10 Cu5 O2 69.9(2) . 4_565 ?
N3 Cu5 O2 96.4(3) . 4_565 ?
O4 Cu5 O2 158.9(2) 4_566 4_565 ?
O11 Cu5 Mo3 46.85(18) . . ?
N4 Cu5 Mo3 127.6(2) 2_645 . ?
O10 Cu5 Mo3 43.49(17) . . ?
N3 Cu5 Mo3 127.1(2) . . ?
O4 Cu5 Mo3 112.09(16) 4_566 . ?
O2 Cu5 Mo3 47.39(15) 4_565 . ?
N8 Cu6 N6 179.4(3) . . ?
N8 Cu6 N5 89.8(3) . . ?
N6 Cu6 N5 90.1(3) . . ?
N8 Cu6 N7 90.7(3) . . ?
N6 Cu6 N7 89.3(3) . . ?
N5 Cu6 N7 178.0(3) . . ?
Mo1 O2 Mo3 109.6(3) . 4_566 ?
Mo1 O2 Cu5 