####################################################################### 
# 
# This file contains crystal structure data downloaded from the 
# Cambridge Structural Database (CSD) hosted by the Cambridge 
# Crystallographic Data Centre (CCDC).
# 
# Full information about CCDC data access policies and citation 
# guidelines are available at http://www.ccdc.cam.ac.uk/access/V1 
# 
# Audit and citation data items may have been added by the CCDC. 
# Please retain this information to preserve the provenance of 
# this file and to allow appropriate attribution of the data. 
# 
#######################################################################

data_3
_audit_block_doi                 10.5517/ccy1y0x
_database_code_depnum_ccdc_archive 'CCDC 865799'
loop_
_citation_id
_citation_doi
_citation_year
1 10.1039/c2cc35399g 2012
_audit_update_record             
;
2012-02-06 deposited with the CCDC.	2024-07-09 downloaded from the CCDC.
;
#TrackingRef '- 3.cif'


_audit_creation_method           SHELXL-97
_chemical_name_systematic        
;
?
;
_chemical_name_common            ?
_chemical_melting_point          ?
_chemical_formula_moiety         ?
_chemical_formula_sum            'C72 H59 Cd3 N7 O20'
_chemical_formula_weight         1679.46

loop_
_atom_type_symbol
_atom_type_description
_atom_type_scat_dispersion_real
_atom_type_scat_dispersion_imag
_atom_type_scat_source
C C 0.0033 0.0016 'International Tables Vol C Tables 4.2.6.8 and 6.1.1.4'
H H 0.0000 0.0000 'International Tables Vol C Tables 4.2.6.8 and 6.1.1.4'
N N 0.0061 0.0033 'International Tables Vol C Tables 4.2.6.8 and 6.1.1.4'
O O 0.0106 0.0060 'International Tables Vol C Tables 4.2.6.8 and 6.1.1.4'
Cd Cd -0.8075 1.2024 'International Tables Vol C Tables 4.2.6.8 and 6.1.1.4'

_symmetry_cell_setting           triclinic
_symmetry_space_group_name_H-M   P1

loop_
_symmetry_equiv_pos_as_xyz
'x, y, z'

_cell_length_a                   9.3592(14)
_cell_length_b                   15.488(2)
_cell_length_c                   16.108(3)
_cell_angle_alpha                78.217(2)
_cell_angle_beta                 78.133(2)
_cell_angle_gamma                84.160(2)
_cell_volume                     2232.5(6)
_cell_formula_units_Z            1
_cell_measurement_temperature    273(2)
_cell_measurement_reflns_used    ?
_cell_measurement_theta_min      ?
_cell_measurement_theta_max      ?

_exptl_crystal_description       plate
_exptl_crystal_colour            brown
_exptl_crystal_size_max          0.2
_exptl_crystal_size_mid          0.2
_exptl_crystal_size_min          0.05
_exptl_crystal_density_meas      ?
_exptl_crystal_density_diffrn    1.249
_exptl_crystal_density_method    'not measured'
_exptl_crystal_F_000             844
_exptl_absorpt_coefficient_mu    0.770
_exptl_absorpt_correction_type   multi-scan
_exptl_absorpt_correction_T_min  0.6157
_exptl_absorpt_correction_T_max  0.7453
_exptl_absorpt_process_details   sadabs

_exptl_special_details           
;
?
;

_diffrn_ambient_temperature      273(2)
_diffrn_radiation_wavelength     0.71073
_diffrn_radiation_type           MoK\a
_diffrn_radiation_source         'fine-focus sealed tube'
_diffrn_radiation_monochromator  graphite
_diffrn_measurement_device_type  ?
_diffrn_measurement_method       ?
_diffrn_detector_area_resol_mean ?
_diffrn_standards_number         ?
_diffrn_standards_interval_count ?
_diffrn_standards_interval_time  ?
_diffrn_standards_decay_%        ?
_diffrn_reflns_number            23177
_diffrn_reflns_av_R_equivalents  0.0264
_diffrn_reflns_av_sigmaI/netI    0.0656
_diffrn_reflns_limit_h_min       -11
_diffrn_reflns_limit_h_max       11
_diffrn_reflns_limit_k_min       -19
_diffrn_reflns_limit_k_max       19
_diffrn_reflns_limit_l_min       -19
_diffrn_reflns_limit_l_max       19
_diffrn_reflns_theta_min         1.32
_diffrn_reflns_theta_max         26.09
_reflns_number_total             17255
_reflns_number_gt                15120
_reflns_threshold_expression     >2sigma(I)

_computing_data_collection       ?
_computing_cell_refinement       ?
_computing_data_reduction        ?
_computing_structure_solution    'SHELXS-97 (Sheldrick, 1990)'
_computing_structure_refinement  'SHELXL-97 (Sheldrick, 1997)'
_computing_molecular_graphics    ?
_computing_publication_material  ?

_refine_special_details          
;
Refinement of F^2^ against ALL reflections. The weighted R-factor wR and
goodness of fit S are based on F^2^, conventional R-factors R are based
on F, with F set to zero for negative F^2^. The threshold expression of
F^2^ > 2sigma(F^2^) is used only for calculating R-factors(gt) etc. and is
not relevant to the choice of reflections for refinement. R-factors based
on F^2^ are statistically about twice as large as those based on F, and R-
factors based on ALL data will be even larger.
;

_refine_ls_structure_factor_coef Fsqd
_refine_ls_matrix_type           full
_refine_ls_weighting_scheme      calc
_refine_ls_weighting_details     
'calc w=1/[\s^2^(Fo^2^)+(0.0934P)^2^+0.0000P] where P=(Fo^2^+2Fc^2^)/3'
_atom_sites_solution_primary     direct
_atom_sites_solution_secondary   difmap
_atom_sites_solution_hydrogens   geom
_refine_ls_hydrogen_treatment    constr
_refine_ls_extinction_method     none
_refine_ls_extinction_coef       ?
_refine_ls_abs_structure_details 'Flack H D (1983), Acta Cryst. A39, 876-881'
_refine_ls_abs_structure_Flack   0.06(2)
_refine_ls_number_reflns         17255
_refine_ls_number_parameters     887
_refine_ls_number_restraints     3
_refine_ls_R_factor_all          0.0592
_refine_ls_R_factor_gt           0.0509
_refine_ls_wR_factor_ref         0.1524
_refine_ls_wR_factor_gt          0.1437
_refine_ls_goodness_of_fit_ref   1.053
_refine_ls_restrained_S_all      1.053
_refine_ls_shift/su_max          0.007
_refine_ls_shift/su_mean         0.001

loop_
_atom_site_label
_atom_site_type_symbol
_atom_site_fract_x
_atom_site_fract_y
_atom_site_fract_z
_atom_site_U_iso_or_equiv
_atom_site_adp_type
_atom_site_occupancy
_atom_site_symmetry_multiplicity
_atom_site_calc_flag
_atom_site_refinement_flags
_atom_site_disorder_assembly
_atom_site_disorder_group
Cd1 Cd 0.09064(4) 0.71769(3) -0.05520(3) 0.03467(12) Uani 1 1 d . . .
Cd2 Cd 0.43905(4) 0.63169(3) -0.12321(3) 0.03599(12) Uani 1 1 d . . .
Cd3 Cd -0.15358(5) 1.59800(3) -0.18747(3) 0.03794(14) Uani 1 1 d . . .
N1 N -0.0510(7) 1.2317(4) 0.1641(5) 0.0518(15) Uani 1 1 d . . .
N2 N -0.0153(8) 1.0779(4) 0.1914(5) 0.0543(17) Uani 1 1 d . . .
N3 N -0.0300(8) 1.1554(4) 0.0511(4) 0.0566(17) Uani 1 1 d . . .
N5 N -0.1068(7) 1.4708(4) -0.0893(4) 0.0457(14) Uani 1 1 d . . .
N6 N -0.0476(12) 1.1530(11) 0.4798(7) 0.107(4) Uani 1 1 d . . .
N4 N 0.0548(8) 0.8434(4) 0.0080(5) 0.0552(17) Uani 1 1 d . . .
C1 C 0.4687(8) -0.0027(4) 0.2833(4) 0.0382(15) Uani 1 1 d . . .
C2 C 0.3957(8) 0.0644(5) 0.2172(5) 0.0433(16) Uani 1 1 d . . .
H2A H 0.3438 0.0341 0.1866 0.052 Uiso 1 1 calc R . .
H2B H 0.3267 0.1049 0.2462 0.052 Uiso 1 1 calc R . .
C3 C 0.5622(9) 0.0432(5) 0.3236(5) 0.0456(16) Uani 1 1 d . . .
H3A H 0.5974 0.0021 0.3702 0.055 Uiso 1 1 calc R . .
H3B H 0.6462 0.0649 0.2809 0.055 Uiso 1 1 calc R . .
C4 C 0.3425(8) -0.0428(5) 0.3508(5) 0.0452(17) Uani 1 1 d . . .
H4A H 0.2895 0.0018 0.3818 0.054 Uiso 1 1 calc R . .
H4B H 0.2754 -0.0656 0.3232 0.054 Uiso 1 1 calc R . .
C5 C 0.5602(8) -0.0716(5) 0.2393(4) 0.0413(15) Uani 1 1 d . . .
H5A H 0.6442 -0.0455 0.1998 0.050 Uiso 1 1 calc R . .
H5B H 0.5954 -0.1181 0.2819 0.050 Uiso 1 1 calc R . .
C6 C 0.5628(9) 0.1742(5) 0.3777(5) 0.0450(17) Uani 1 1 d . . .
H6A H 0.6165 0.2091 0.3258 0.054 Uiso 1 1 calc R . .
H6B H 0.6322 0.1427 0.4121 0.054 Uiso 1 1 calc R . .
C7 C 0.4555(8) 0.2335(4) 0.4290(4) 0.0358(14) Uani 1 1 d . . .
C8 C 0.5458(9) 0.2873(5) 0.4655(5) 0.0422(17) Uani 1 1 d . . .
H8A H 0.5995 0.2488 0.5055 0.051 Uiso 1 1 calc R . .
H8B H 0.6153 0.3195 0.4193 0.051 Uiso 1 1 calc R . .
C10 C 0.3570(9) 0.1758(5) 0.5016(5) 0.0473(18) Uani 1 1 d . . .
H10A H 0.2919 0.2117 0.5380 0.057 Uiso 1 1 calc R . .
H10B H 0.2986 0.1416 0.4785 0.057 Uiso 1 1 calc R . .
C11 C 0.3563(8) 0.2911(4) 0.3750(4) 0.0385(14) Uani 1 1 d . . .
H11A H 0.3062 0.2554 0.3484 0.046 Uiso 1 1 calc R . .
H11B H 0.2837 0.3243 0.4104 0.046 Uiso 1 1 calc R . .
C12 C 0.3835(8) 0.4105(5) 0.2534(4) 0.0453(16) Uani 1 1 d . . .
C13 C 0.4774(9) 0.4695(6) 0.1940(6) 0.065(2) Uani 1 1 d . . .
H13A H 0.5765 0.4656 0.1960 0.078 Uiso 1 1 calc R . .
C14 C 0.3983(12) 0.4469(7) 0.6057(7) 0.078(3) Uani 1 1 d . . .
H14A H 0.3003 0.4497 0.6014 0.094 Uiso 1 1 calc R . .
C15 C 0.4030(10) 0.0463(6) 0.6068(6) 0.061(2) Uani 1 1 d . . .
C16 C 0.2617(9) 0.0265(6) 0.6312(5) 0.058(2) Uani 1 1 d . . .
H16A H 0.1906 0.0632 0.6064 0.070 Uiso 1 1 calc R . .
C17 C 0.2209(9) -0.0475(5) 0.6926(5) 0.056(2) Uani 1 1 d . . .
H17A H 0.1229 -0.0599 0.7104 0.067 Uiso 1 1 calc R . .
C18 C 0.4720(9) 0.1905(5) 0.1108(5) 0.056(2) Uani 1 1 d . . .
C19 C 0.3067(9) -0.1564(5) 0.4748(5) 0.0506(18) Uani 1 1 d . . .
C20 C 0.1602(10) -0.1382(6) 0.4889(6) 0.071(3) Uani 1 1 d . . .
H20A H 0.1178 -0.0946 0.4508 0.085 Uiso 1 1 calc R . .
C21 C -0.0123(9) 1.0811(5) 0.1057(5) 0.0504(18) Uani 1 1 d . . .
C22 C -0.0371(8) 1.1543(5) 0.2169(5) 0.0488(17) Uani 1 1 d . . .
C23 C -0.0510(9) 1.2300(5) 0.0837(5) 0.0484(18) Uani 1 1 d . . .
C24 C -0.0717(9) 1.3130(5) 0.0245(5) 0.0484(17) Uani 1 1 d . . .
C25 C -0.0794(16) 1.3144(6) -0.0595(6) 0.085(4) Uani 1 1 d . . .
H25A H -0.0695 1.2621 -0.0807 0.102 Uiso 1 1 calc R . .
C26 C -0.0811(10) 1.3935(5) 0.0495(6) 0.058(2) Uani 1 1 d . . .
H26A H -0.0764 1.3955 0.1062 0.069 Uiso 1 1 calc R . .
C27 C -0.0402(9) 1.1547(6) 0.3099(6) 0.057(2) Uani 1 1 d . . .
C28 C -0.0418(11) 1.2337(7) 0.3382(7) 0.071(3) Uani 1 1 d . . .
H28A H -0.0415 1.2875 0.2998 0.085 Uiso 1 1 calc R . .
C29 C -0.0458(13) 1.0775(7) 0.3713(7) 0.077(3) Uani 1 1 d . . .
H29A H -0.0478 1.0229 0.3559 0.093 Uiso 1 1 calc R . .
C30 C 0.0169(16) 0.9981(6) -0.0092(6) 0.089(4) Uani 1 1 d . . .
H30A H 0.0025 1.0512 -0.0464 0.107 Uiso 1 1 calc R . .
C31 C 0.0092(9) 0.9990(5) 0.0742(5) 0.0534(19) Uani 1 1 d . . .
C32 C 0.0318(9) -0.3060(5) 0.6879(5) 0.0487(18) Uani 1 1 d . . .
C33 C 0.1283(9) -0.2519(6) 0.6150(5) 0.0530(19) Uani 1 1 d . . .
C34 C 0.7368(7) -0.3053(4) -0.0572(4) 0.0297(12) Uani 1 1 d . . .
C35 C 0.6696(7) -0.2544(5) 0.0095(5) 0.0309(15) Uani 1 1 d . . .
C36 C 0.2124(8) 0.6105(5) 0.0685(4) 0.0412(15) Uani 1 1 d . . .
C37 C 0.2718(8) 0.5411(5) 0.1330(4) 0.0412(15) Uani 1 1 d . . .
C38 C 0.2377(9) 0.4186(6) 0.2528(5) 0.058(2) Uani 1 1 d . . .
H38A H 0.1755 0.3808 0.2933 0.070 Uiso 1 1 calc R . .
C39 C 0.1807(9) 0.4823(6) 0.1924(5) 0.055(2) Uani 1 1 d . . .
H39A H 0.0812 0.4859 0.1916 0.067 Uiso 1 1 calc R . .
C40 C 0.3274(10) -0.1027(5) 0.7271(5) 0.0505(19) Uani 1 1 d . . .
C41 C 0.5324(8) -0.2117(6) 0.0092(6) 0.054(2) Uani 1 1 d . . .
H41A H 0.4814 -0.2159 -0.0336 0.065 Uiso 1 1 calc R . .
C42 C 0.3764(9) 0.4381(5) -0.0416(5) 0.0527(19) Uani 1 1 d . . .
C43 C 0.7374(8) -0.2504(5) 0.0766(5) 0.0447(16) Uani 1 1 d . . .
H43A H 0.8258 -0.2825 0.0813 0.054 Uiso 1 1 calc R . .
C44 C 0.4715(9) -0.1638(6) 0.0710(6) 0.059(2) Uani 1 1 d . . .
H44A H 0.3793 -0.1352 0.0703 0.071 Uiso 1 1 calc R . .
C45 C 0.2851(10) -0.1825(5) 0.7969(5) 0.0496(19) Uani 1 1 d . . .
C46 C -0.0974(10) 1.4705(5) -0.0074(6) 0.058(2) Uani 1 1 d . . .
H46A H -0.1020 1.5240 0.0110 0.070 Uiso 1 1 calc R . .
C47 C 0.0335(10) 0.9165(5) 0.1240(6) 0.059(2) Uani 1 1 d . . .
H47A H 0.0361 0.9119 0.1822 0.070 Uiso 1 1 calc R . .
C48 C 0.0532(10) 0.8434(5) 0.0895(5) 0.056(2) Uani 1 1 d . . .
H48A H 0.0665 0.7894 0.1256 0.067 Uiso 1 1 calc R . .
C49 C 0.5451(9) -0.1577(6) 0.1332(6) 0.052(2) Uani 1 1 d . . .
C50 C 0.6768(9) -0.2002(6) 0.1358(5) 0.054(2) Uani 1 1 d . . .
H50A H 0.7268 -0.1952 0.1787 0.064 Uiso 1 1 calc R . .
C51 C 0.4142(8) 0.3516(5) 0.0111(6) 0.056(2) Uani 1 1 d . . .
C52 C 0.2761(11) -0.2701(8) 0.6006(7) 0.085(3) Uani 1 1 d . . .
H52A H 0.3185 -0.3149 0.6375 0.102 Uiso 1 1 calc R . .
C53 C 0.6334(14) 0.5414(6) 0.7238(5) 0.065(3) Uani 1 1 d . . .
C55 C -0.0439(13) 1.2307(10) 0.4219(8) 0.087(3) Uani 1 1 d . . .
H55A H -0.0428 1.2832 0.4413 0.104 Uiso 1 1 calc R . .
C57 C 0.4718(11) -0.0868(7) 0.6979(6) 0.082(3) Uani 1 1 d . . .
H57A H 0.5438 -0.1272 0.7175 0.098 Uiso 1 1 calc R . .
C58 C 0.5104(12) -0.0108(8) 0.6396(8) 0.107(5) Uani 1 1 d . . .
H58A H 0.6081 0.0022 0.6222 0.128 Uiso 1 1 calc R . .
C59 C 0.5034(10) 0.3929(6) 0.5583(6) 0.059(2) Uani 1 1 d . . .
C60 C 0.4432(12) 0.4944(6) 0.6573(7) 0.071(3) Uani 1 1 d . . .
H60A H 0.3749 0.5309 0.6868 0.085 Uiso 1 1 calc R . .
C61 C 0.5810(11) 0.4899(6) 0.6664(5) 0.054(2) Uani 1 1 d . . .
C62 C 0.3622(12) -0.2203(8) 0.5295(7) 0.091(4) Uani 1 1 d . . .
H62A H 0.4629 -0.2325 0.5201 0.110 Uiso 1 1 calc R . .
C63 C 0.0749(11) -0.1850(7) 0.5604(6) 0.075(3) Uani 1 1 d . . .
H63A H -0.0248 -0.1695 0.5716 0.090 Uiso 1 1 calc R . .
C64 C -0.1023(16) 1.3950(6) -0.1128(6) 0.089(4) Uani 1 1 d . . .
H64A H -0.1151 1.3948 -0.1685 0.107 Uiso 1 1 calc R . .
C65 C -0.0481(16) 1.0833(9) 0.4507(8) 0.096(4) Uani 1 1 d . . .
H65A H -0.0505 1.0304 0.4905 0.115 Uiso 1 1 calc R . .
C66 C 0.0443(17) 0.9244(6) -0.0415(6) 0.098(4) Uani 1 1 d . . .
H66A H 0.0569 0.9289 -0.1010 0.118 Uiso 1 1 calc R . .
C67 C 0.3402(13) 0.2126(8) 0.0913(11) 0.139(7) Uani 1 1 d . . .
H67A H 0.2679 0.1722 0.1084 0.167 Uiso 1 1 calc R . .
C68 C 0.3121(14) 0.2940(9) 0.0463(12) 0.143(7) Uani 1 1 d . . .
H68A H 0.2163 0.3108 0.0396 0.171 Uiso 1 1 calc R . .
C69 C 0.5371(12) 0.3330(8) 0.0403(10) 0.110(5) Uani 1 1 d . . .
H69A H 0.6033 0.3766 0.0297 0.132 Uiso 1 1 calc R . .
C70 C 0.5707(12) 0.2510(8) 0.0859(10) 0.122(6) Uani 1 1 d . . .
H70A H 0.6633 0.2377 0.0995 0.146 Uiso 1 1 calc R . .
C71 C 0.6844(12) 0.4348(8) 0.6237(7) 0.078(3) Uani 1 1 d . . .
H71A H 0.7812 0.4312 0.6306 0.094 Uiso 1 1 calc R . .
C72 C 0.4236(9) 0.5327(6) 0.1333(5) 0.064(3) Uani 1 1 d . . .
H72A H 0.4866 0.5699 0.0926 0.077 Uiso 1 1 calc R . .
C73 C 0.6430(12) 0.3853(9) 0.5710(8) 0.087(4) Uani 1 1 d . . .
H73A H 0.7113 0.3467 0.5443 0.105 Uiso 1 1 calc R . .
O1 O 0.4793(6) 0.1140(4) 0.3558(4) 0.0556(14) Uani 1 1 d . . .
O23 O 0.1998(5) 0.6057(3) -0.1326(3) 0.0400(11) Uani 1 1 d . . .
O2 O 0.5110(6) 0.1115(4) 0.1583(4) 0.0691(18) Uani 1 1 d . . .
O3 O 0.4010(6) -0.1116(4) 0.4082(4) 0.0612(15) Uani 1 1 d . . .
O4 O 0.4488(5) 0.3502(3) 0.3097(3) 0.0495(12) Uani 1 1 d . . .
O5 O 0.4479(7) 0.3469(4) 0.5086(4) 0.0636(16) Uani 1 1 d . . .
O6 O 0.4543(7) 0.1187(5) 0.5497(4) 0.080(2) Uani 1 1 d . . .
O7 O 0.4750(6) -0.1069(4) 0.1938(4) 0.0627(17) Uani 1 1 d . . .
O8 O -0.0983(7) -0.2811(4) 0.7077(4) 0.0694(17) Uani 1 1 d . . .
O9 O 0.0810(6) -0.3761(4) 0.7290(3) 0.0526(13) Uani 1 1 d . . .
O10 O 0.1523(6) -0.1949(4) 0.8186(3) 0.0548(14) Uani 1 1 d . . .
O11 O 0.0759(6) 0.6196(4) 0.0734(3) 0.0504(13) Uani 1 1 d . . .
O12 O 0.2964(5) 0.6564(3) 0.0103(3) 0.0415(11) Uani 1 1 d . . .
O14 O 0.6592(5) -0.3350(4) -0.0995(3) 0.0425(12) Uani 1 1 d . . .
O17 O 0.4753(6) 0.4931(4) -0.0645(4) 0.0616(16) Uani 1 1 d . . .
O18 O 0.2523(7) 0.4524(4) -0.0577(5) 0.086(2) Uani 1 1 d . . .
O19 O 0.7571(10) 0.5197(5) 0.7396(4) 0.080(2) Uani 1 1 d . . .
O20 O 0.8737(5) -0.3209(3) -0.0737(3) 0.0362(10) Uiso 1 1 d . . .
O21 O 0.3873(7) -0.2272(4) 0.8272(4) 0.0625(16) Uani 1 1 d . . .
O22 O 0.5438(10) 0.6025(4) 0.7488(4) 0.076(2) Uani 1 1 d . . .

loop_
_atom_site_aniso_label
_atom_site_aniso_U_11
_atom_site_aniso_U_22
_atom_site_aniso_U_33
_atom_site_aniso_U_23
_atom_site_aniso_U_13
_atom_site_aniso_U_12
Cd1 0.0354(2) 0.0279(2) 0.0405(3) 0.00127(19) -0.0139(2) -0.00341(19)
Cd2 0.0335(2) 0.0323(2) 0.0424(3) -0.0013(2) -0.0120(2) -0.00480(18)
Cd3 0.0424(3) 0.0359(3) 0.0367(3) -0.0104(2) -0.0054(2) -0.0053(2)
N1 0.054(4) 0.036(3) 0.068(4) -0.012(3) -0.017(3) -0.003(3)
N2 0.057(4) 0.036(3) 0.067(4) -0.003(3) -0.013(3) 0.000(3)
N3 0.070(5) 0.038(3) 0.059(4) -0.006(3) -0.012(3) 0.002(3)
N5 0.057(4) 0.036(3) 0.044(3) -0.007(3) -0.010(3) -0.003(3)
N6 0.083(7) 0.172(13) 0.066(6) -0.023(8) -0.022(5) 0.014(8)
N4 0.064(4) 0.031(3) 0.071(4) -0.004(3) -0.021(3) 0.003(3)
C1 0.044(4) 0.030(3) 0.040(4) -0.007(3) -0.005(3) -0.005(3)
C2 0.039(4) 0.038(4) 0.047(4) 0.000(3) -0.003(3) -0.005(3)
C3 0.055(4) 0.034(4) 0.052(4) -0.017(3) -0.014(3) 0.001(3)
C4 0.051(4) 0.040(4) 0.040(4) -0.006(3) 0.003(3) -0.007(3)
C5 0.050(4) 0.033(3) 0.041(4) -0.011(3) -0.003(3) -0.006(3)
C6 0.059(5) 0.031(4) 0.052(4) -0.007(3) -0.028(4) -0.007(3)
C7 0.052(4) 0.025(3) 0.031(3) -0.004(2) -0.012(3) -0.003(3)
C8 0.057(4) 0.036(4) 0.040(4) -0.013(3) -0.019(3) -0.003(3)
C10 0.065(5) 0.037(4) 0.037(4) 0.007(3) -0.015(3) -0.007(3)
C11 0.053(4) 0.029(3) 0.035(3) 0.002(3) -0.016(3) -0.008(3)
C12 0.051(4) 0.044(4) 0.037(3) 0.009(3) -0.013(3) -0.005(3)
C13 0.039(4) 0.068(6) 0.076(6) 0.025(5) -0.020(4) -0.011(4)
C14 0.064(6) 0.083(7) 0.106(8) -0.058(7) -0.035(6) 0.028(5)
C15 0.065(5) 0.045(5) 0.061(5) 0.030(4) -0.018(4) -0.015(4)
C16 0.056(5) 0.047(4) 0.062(5) 0.019(4) -0.021(4) 0.002(4)
C17 0.055(5) 0.050(4) 0.052(4) 0.016(4) -0.009(4) -0.004(4)
C18 0.043(4) 0.051(5) 0.061(5) 0.014(4) -0.003(4) -0.001(3)
C19 0.051(4) 0.049(4) 0.042(4) 0.004(3) -0.001(3) 0.001(3)
C20 0.062(5) 0.063(6) 0.068(6) 0.025(4) -0.003(4) -0.003(4)
C21 0.059(5) 0.030(4) 0.060(5) -0.002(3) -0.014(4) 0.001(3)
C22 0.043(4) 0.044(4) 0.059(4) -0.007(3) -0.009(3) -0.004(3)
C23 0.057(5) 0.030(4) 0.060(5) -0.009(3) -0.015(4) -0.002(3)
C24 0.051(4) 0.029(3) 0.065(5) -0.006(3) -0.014(4) -0.002(3)
C25 0.167(12) 0.034(4) 0.060(5) -0.020(4) -0.032(6) 0.011(6)
C26 0.082(6) 0.036(4) 0.060(5) -0.011(3) -0.027(4) 0.001(4)
C27 0.044(4) 0.059(5) 0.065(5) -0.007(4) -0.008(4) -0.005(4)
C28 0.068(6) 0.079(7) 0.071(6) -0.020(5) -0.009(5) -0.024(5)
C29 0.093(8) 0.057(6) 0.073(7) -0.004(5) -0.007(6) 0.008(5)
C30 0.166(12) 0.027(4) 0.066(6) 0.006(4) -0.027(7) 0.009(5)
C31 0.065(5) 0.034(4) 0.060(5) -0.003(3) -0.018(4) 0.000(3)
C32 0.059(5) 0.047(4) 0.039(4) 0.000(3) -0.010(3) -0.011(4)
C33 0.058(5) 0.056(5) 0.042(4) 0.000(3) -0.006(3) -0.013(4)
C34 0.034(3) 0.028(3) 