
#######################################################################
#
#                 Cambridge Crystallographic Data Centre
#                                CCDC
#
#######################################################################
#
# If this CIF has been generated from an entry in the Cambridge
# Structural Database, then it will include bibliographic, chemical,
# crystal, experimental, refinement or atomic coordinate data resulting
# from the CCDC's data processing and validation procedures.
#
#######################################################################

data_CSD_CIF_CBMZPN02
_audit_creation_date 1990-07-27
_audit_creation_method CSD-ConQuest-V1
_database_code_CSD CBMZPN02
_database_code_depnum_ccdc_archive 'CCDC 1121422'
_chemical_formula_sum 'C15 H12 N2 O1'
_chemical_formula_moiety
;
C15 H12 N2 O1
;
_journal_coden_Cambridge 582
_journal_volume 19
_journal_year 1989
_journal_page_first 641
_journal_name_full 'J.Crystallogr.Spectrosc.Res. '
loop_
_publ_author_name
"J.N.Lisgarten"
"R.A.Palmer"
"J.W.Saldanha"
_chemical_name_systematic
;
5H-Dibenz(b,f)azepine-5-carboxamide
;
_chemical_name_common
;
Carbamazepine; DrugBank: DB00564; Teaching Subset: Fundamental Chemistry, 
Drug Molecules
;
_cell_volume   1167.546
_exptl_crystal_density_diffrn 1.343
_exptl_special_details
;
polymorph III
analgesic, antiepileptic, anticonvulsant, bipolar disorder treatment, 
trigeminal neuralgia treatment, known auditory pitch lowering effect
;
_diffrn_ambient_temperature ?
_diffrn_special_details
;
The study was carried out at room temperature,in the range 283-303K

;
#These two values have been output from a single CSD field.
_refine_ls_R_factor_gt 0.084
_refine_ls_wR_factor_gt 0.084
_symmetry_cell_setting monoclinic
_symmetry_space_group_name_H-M 'P 21/n'
_symmetry_Int_Tables_number 14
loop_
_symmetry_equiv_pos_site_id
_symmetry_equiv_pos_as_xyz
1 x,y,z
2 1/2-x,1/2+y,1/2-z
3 -x,-y,-z
4 -1/2+x,-1/2-y,-1/2+z
_cell_length_a 7.534(1)
_cell_length_b 11.150(2)
_cell_length_c 13.917(3)
_cell_angle_alpha 90
_cell_angle_beta 92.94(4)
_cell_angle_gamma 90
_cell_formula_units_Z 4
loop_
_atom_type_symbol
_atom_type_radius_bond
C 0.68
H 0.23
N 0.68
O 0.68
loop_
_atom_site_label
_atom_site_type_symbol
_atom_site_fract_x
_atom_site_fract_y
_atom_site_fract_z
C1 C 0.2610(5) 0.3873(3) 0.6943(3)
C2 C 0.1017(6) 0.4458(3) 0.6762(3)
C3 C -0.0243(5) 0.4449(3) 0.7464(3)
C4 C 0.0102(5) 0.3854(3) 0.8313(3)
C5 C 0.3004(5) 0.3282(3) 0.7815(3)
C6 C 0.1695(5) 0.3270(3) 0.8493(2)
C7 C 0.5225(5) 0.3011(3) 0.9743(3)
C8 C 0.3465(5) 0.3119(3) 1.0013(3)
C9 C 0.3072(6) 0.3608(3) 1.0894(3)
C10 C 0.4439(7) 0.3972(3) 1.1534(3)
C11 C 0.6187(6) 0.3866(3) 1.1288(3)
C12 C 0.6569(6) 0.3394(4) 1.0398(3)
C13 C 0.5685(6) 0.2564(3) 0.8798(3)
C14 C 0.4738(6) 0.2703(3) 0.7977(3)
N1 N 0.2050(4) 0.2661(3) 0.9392(2)
C15 C 0.1187(5) 0.1596(3) 0.9584(3)
N2 N 0.1815(6) 0.1003(3) 1.0388(3)
O1 O -0.0064(4) 0.1220(2) 0.9062(2)
H1 H 0.35830 0.38760 0.64000
H2 H 0.07600 0.49170 0.60860
H3 H -0.14950 0.49030 0.73250
H4 H -0.08720 0.38530 0.88560
H5 H 0.17010 0.37110 1.10700
H6 H 0.41410 0.43470 1.22230
H7 H 0.72470 0.41450 1.17900
H8 H 0.79400 0.33080 1.02170
H9 H 0.69220 0.20970 0.87720
H10 H 0.53090 0.23400 0.73440
H11 H 0.12220 0.03400 1.06260
H12 H 0.28700 0.11730 1.08300
#END
