
#######################################################################
#
#                 Cambridge Crystallographic Data Centre
#                                CCDC
#
#######################################################################
#
# If this CIF has been generated from an entry in the Cambridge
# Structural Database, then it will include bibliographic, chemical,
# crystal, experimental, refinement or atomic coordinate data resulting
# from the CCDC's data processing and validation procedures.
#
#######################################################################

data_CSD_CIF_CBMZPN12
_audit_creation_date 2005-02-17
_audit_creation_method CSD-ConQuest-V1
_database_code_CSD CBMZPN12
_database_code_depnum_ccdc_archive 'CCDC 249934'
_chemical_formula_sum 'C15 H12 N2 O1'
_chemical_formula_moiety
;
C15 H12 N2 O1
;
_journal_coden_Cambridge 83
_journal_volume 91
_journal_year 2002
_journal_page_first 1186
_journal_name_full 'J.Pharm.Sci. '
loop_
_publ_author_name
"M.Lang"
"J.W.Kampf"
"A.J.Matzger"
_chemical_name_systematic
;
5H-Dibenz(b,f)azepine-5-carboxamide
;
_chemical_name_common
;
Carbamazepine; DrugBank: DB00564; Teaching Subset: Fundamental Chemistry, 
Drug Molecules
;
_cell_volume   2421.926
_exptl_crystal_colour 'colorless'
_exptl_crystal_density_diffrn 1.296
_exptl_special_details
;
polymorph IV
analgesic, antiepileptic, anticonvulsant, bipolar disorder treatment, 
trigeminal neuralgia treatment, known auditory pitch lowering effect
;
_exptl_crystal_description 'block'
_diffrn_ambient_temperature 158
#These two values have been output from a single CSD field.
_refine_ls_R_factor_gt 0.0357
_refine_ls_wR_factor_gt 0.0357
_symmetry_cell_setting monoclinic
_symmetry_space_group_name_H-M 'C 2/c'
_symmetry_Int_Tables_number 15
loop_
_symmetry_equiv_pos_site_id
_symmetry_equiv_pos_as_xyz
1 x,y,z
2 1/2+x,1/2+y,z
3 -x,y,1/2-z
4 1/2-x,1/2+y,1/2-z
5 -x,-y,-z
6 -1/2-x,-1/2-y,-z
7 x,-y,-1/2+z
8 -1/2+x,-1/2-y,-1/2+z
_cell_length_a 26.609(4)
_cell_length_b 6.9269(10)
_cell_length_c 13.957(2)
_cell_angle_alpha 90
_cell_angle_beta 109.702(2)
_cell_angle_gamma 90
_cell_formula_units_Z 8
loop_
_atom_type_symbol
_atom_type_radius_bond
C 0.68
H 0.23
N 0.68
O 0.68
loop_
_atom_site_label
_atom_site_type_symbol
_atom_site_fract_x
_atom_site_fract_y
_atom_site_fract_z
O1 O 0.07219(3) -0.00551(13) 0.03660(6)
N1 N 0.01451(5) 0.1802(2) -0.08412(10)
N2 N 0.10588(4) 0.23086(15) -0.03717(8)
C1 C 0.06402(5) 0.12780(19) -0.02568(9)
C2 C 0.15962(5) 0.16618(18) 0.01395(9)
C3 C 0.18407(5) 0.2041(2) 0.11679(10)
H1 H 0.1649(5) 0.278(2) 0.1521(11)
C4 C 0.23486(5) 0.1364(2) 0.16745(11)
H2 H 0.2518(6) 0.160(2) 0.2404(12)
C5 C 0.26147(5) 0.0297(2) 0.11551(11)
H3 H 0.2981(6) -0.0214(19) 0.1488(11)
C6 C 0.23759(5) -0.00475(19) 0.01286(11)
H4 H 0.2559(6) -0.073(2) -0.0243(11)
C7 C 0.18620(5) 0.06323(18) -0.0409(1)
C8 C 0.16329(6) 0.0269(2) -0.15031(11)
H5 H 0.1793(5) -0.091(2) -0.1715(10)
C9 C 0.12835(6) 0.1351(2) -0.22176(11)
H6 H 0.1205(6) 0.096(2) -0.2954(11)
C10 C 0.10543(5) 0.3185(2) -0.20777(9)
C11 C 0.09166(6) 0.4560(2) -0.28652(10)
H7 H 0.0970(6) 0.419(2) -0.3501(12)
C12 C 0.07308(6) 0.6360(2) -0.27455(11)
H8 H 0.0631(6) 0.735(2) -0.3304(13)
C13 C 0.06744(6) 0.6870(2) -0.18278(12)
H9 H 0.0549(6) 0.813(2) -0.1731(11)
C14 C 0.08000(5) 0.5551(2) -0.10388(11)
H10 H 0.0751(6) 0.591(2) -0.0384(11)
C15 C 0.09763(5) 0.37203(19) -0.11657(9)
H11 H -0.0140(6) 0.124(2) -0.0708(11)
H12 H 0.0092(6) 0.277(2) -0.1245(13)
#END
