
#######################################################################
#
#                 Cambridge Crystallographic Data Centre
#                                CCDC
#
#######################################################################
#
# If this CIF has been generated from an entry in the Cambridge
# Structural Database, then it will include bibliographic, chemical,
# crystal, experimental, refinement or atomic coordinate data resulting
# from the CCDC's data processing and validation procedures.
#
#######################################################################

data_CSD_CIF_CBMZPN10
_audit_creation_date 1982-07-05
_audit_creation_method CSD-ConQuest-V1
_database_code_CSD CBMZPN10
_database_code_depnum_ccdc_archive 'CCDC 1121424'
_chemical_formula_sum 'C15 H12 N2 O1'
_chemical_formula_moiety
;
C15 H12 N2 O1
;
_journal_coeditor_code "IUCr A20437"
_journal_coden_Cambridge 107
_journal_volume 37
_journal_year 1981
_journal_page_first 2242
_journal_name_full 'Acta Crystallogr.,Sect.B:Struct.Crystallogr.Cryst.Chem. '
loop_
_publ_author_name
"V.L.Himes"
"A.D.Mighell"
"W.H.DeCamp"
_chemical_name_systematic
;
5H-Dibenz(b,f)azepine-5-carboxamide
;
_chemical_name_common
;
Carbamazepine; DrugBank: DB00564; Teaching Subset: Fundamental Chemistry, 
Drug Molecules
;
_cell_volume   1168.303
_exptl_crystal_density_diffrn 1.343
_exptl_special_details
;
polymorph III
analgesic, antiepileptic, anticonvulsant, bipolar disorder treatment, 
trigeminal neuralgia treatment, known auditory pitch lowering effect
;
_diffrn_ambient_temperature ?
_diffrn_special_details
;
The study was carried out at room temperature,in the range 283-303K

;
#These two values have been output from a single CSD field.
_refine_ls_R_factor_gt 0.039
_refine_ls_wR_factor_gt 0.039
_symmetry_cell_setting monoclinic
_symmetry_space_group_name_H-M 'P 21/n'
_symmetry_Int_Tables_number 14
loop_
_symmetry_equiv_pos_site_id
_symmetry_equiv_pos_as_xyz
1 x,y,z
2 1/2-x,1/2+y,1/2-z
3 -x,-y,-z
4 -1/2+x,-1/2-y,-1/2+z
_cell_length_a 7.537(1)
_cell_length_b 11.156(2)
_cell_length_c 13.912(3)
_cell_angle_alpha 90
_cell_angle_beta 92.86(2)
_cell_angle_gamma 90
_cell_formula_units_Z 4
loop_
_atom_type_symbol
_atom_type_radius_bond
C 0.68
H 0.23
N 0.68
O 0.68
loop_
_atom_site_label
_atom_site_type_symbol
_atom_site_fract_x
_atom_site_fract_y
_atom_site_fract_z
C1 C 0.16994 0.32668 0.34962
C2 C 0.01090 0.38562 0.33145
C3 C -0.02326 0.44459 0.24505
C4 C 0.10271 0.44532 0.17676
C5 C 0.26145 0.38678 0.19460
C6 C 0.30031 0.32711 0.28150
C7 C 0.47319 0.26905 0.29760
C8 C 0.56837 0.25672 0.38023
C9 C 0.52177 0.30109 0.47435
C10 C 0.65596 0.33903 0.54086
C11 C 0.61769 0.38598 0.62857
C12 C 0.44418 0.39741 0.65297
C13 C 0.30745 0.36109 0.58908
C14 C 0.34668 0.31138 0.50150
C15 C 0.11896 0.15949 0.45882
N1 N 0.20460 0.26532 0.43921
N2 N 0.17919 0.10045 0.53826
O1 O -0.00559 0.12230 0.40655
H1 H -0.07500 0.38720 0.37920
H2 H -0.13620 0.48680 0.23280
H3 H 0.07790 0.48580 0.11370
H4 H 0.35530 0.38670 0.14760
H5 H 0.52930 0.24510 0.23680
H6 H 0.68520 0.22560 0.37770
H7 H 0.78440 0.33020 0.52310
H8 H 0.71690 0.41140 0.67520
H9 H 0.41230 0.42940 0.71480
H10 H 0.18440 0.36660 0.60590
H11 H 0.27160 0.12560 0.57280
H12 H 0.12740 0.03230 0.55380
#END
