
#######################################################################
#
#                 Cambridge Crystallographic Data Centre
#                                CCDC
#
#######################################################################
#
# If this CIF has been generated from an entry in the Cambridge
# Structural Database, then it will include bibliographic, chemical,
# crystal, experimental, refinement or atomic coordinate data resulting
# from the CCDC's data processing and validation procedures.
#
#######################################################################

data_CSD_CIF_CBMZPN11
_audit_creation_date 2004-05-25
_audit_creation_method CSD-ConQuest-V1
_database_code_CSD CBMZPN11
_database_code_depnum_ccdc_archive 'CCDC 185919'
_chemical_formula_sum 'C15 H12 N2 O1'
_chemical_formula_moiety
;
C15 H12 N2 O1
;
_journal_coden_Cambridge 83
_journal_volume 92
_journal_year 2003
_journal_page_first 2260
_journal_name_full 'J.Pharm.Sci. '
loop_
_publ_author_name
"A.L.Grzesiak"
"Meidong Lang"
"K.Kim"
"A.J.Matzger"
_chemical_name_systematic
;
5H-Dibenz(b,f)azepine-5-carboxamide
;
_chemical_name_common
;
Carbamazepine; DrugBank: DB00564; Teaching Subset: Fundamental Chemistry, 
Drug Molecules
;
_chemical_melting_point 464
_cell_volume   2344.824
_exptl_crystal_colour 'colorless'
_exptl_crystal_density_diffrn 1.339
_exptl_special_details
;
polymorph I
analgesic, antiepileptic, anticonvulsant, bipolar disorder treatment, 
trigeminal neuralgia treatment, known auditory pitch lowering effect
;
_exptl_crystal_description 'needle'
_exptl_crystal_preparation 'from the melt'
_diffrn_ambient_temperature 158
#These two values have been output from a single CSD field.
_refine_ls_R_factor_gt 0.0506
_refine_ls_wR_factor_gt 0.0506
_symmetry_cell_setting triclinic
_symmetry_space_group_name_H-M 'P -1'
_symmetry_Int_Tables_number 2
loop_
_symmetry_equiv_pos_site_id
_symmetry_equiv_pos_as_xyz
1 x,y,z
2 -x,-y,-z
_cell_length_a 5.1705(6)
_cell_length_b 20.574(2)
_cell_length_c 22.245(2)
_cell_angle_alpha 84.124(4)
_cell_angle_beta 88.008(4)
_cell_angle_gamma 85.187(4)
_cell_formula_units_Z 8
loop_
_atom_type_symbol
_atom_type_radius_bond
C 0.68
H 0.23
N 0.68
O 0.68
loop_
_atom_site_label
_atom_site_type_symbol
_atom_site_fract_x
_atom_site_fract_y
_atom_site_fract_z
O1 O 1.1832(4) 0.78222(11) 0.02198(9)
N1 N 1.0898(7) 0.73812(15) 0.11714(13)
H1 H 1.226(7) 0.7664(17) 0.1364(15)
H2 H 0.973(7) 0.7185(17) 0.1367(16)
N2 N 0.9406(5) 0.69441(12) 0.03381(11)
C1 C 1.0765(6) 0.74070(16) 0.05660(16)
C2 C 0.8799(7) 0.63496(15) 0.06982(14)
C3 C 0.6714(7) 0.63669(18) 0.11019(15)
H3 H 0.556(5) 0.6803(13) 0.1134(12)
C4 C 0.6178(8) 0.58036(19) 0.14709(16)
H4 H 0.460(6) 0.5822(14) 0.1758(14)
C5 C 0.7739(8) 0.5229(2) 0.14175(17)
H5 H 0.731(6) 0.4834(16) 0.1669(14)
C6 C 0.9834(8) 0.52120(18) 0.10170(16)
H6 H 1.099(6) 0.4831(15) 0.0971(13)
C7 C 1.0421(6) 0.57740(16) 0.06396(14)
C8 C 1.2642(7) 0.57388(18) 0.02203(17)
H7 H 1.402(7) 0.5415(16) 0.0359(14)
C9 C 1.2937(7) 0.60782(17) -0.03179(16)
H8 H 1.450(6) 0.5987(13) -0.0582(13)
C10 C 1.0986(7) 0.65518(15) -0.06193(15)
C11 C 1.0821(8) 0.65864(17) -0.12513(16)
H9 H 1.213(7) 0.6319(17) -0.1488(16)
C12 C 0.8857(8) 0.69802(18) -0.15483(18)
H10 H 0.865(6) 0.6990(14) -0.1995(14)
C13 C 0.7051(9) 0.73524(18) -0.12216(17)
H11 H 0.567(6) 0.7608(16) -0.1423(14)
C14 C 0.7229(8) 0.73391(17) -0.05994(16)
H12 H 0.595(6) 0.7594(13) -0.0381(12)
C15 C 0.9222(7) 0.69478(15) -0.03051(14)
O2 O 0.1701(4) 0.56099(10) 0.45267(9)
N3 N 0.2506(7) 0.45109(16) 0.45940(14)
H13 H 0.121(7) 0.4458(16) 0.4875(16)
H14 H 0.344(6) 0.4176(15) 0.4502(14)
N4 N 0.4447(5) 0.51641(12) 0.38254(11)
C16 C 0.2838(6) 0.51155(17) 0.43291(14)
C17 C 0.5238(6) 0.46105(15) 0.35013(14)
C18 C 0.7275(7) 0.41710(18) 0.37062(18)
H15 H 0.829(8) 0.4260(18) 0.4019(17)
C19 C 0.7940(9) 0.36168(19) 0.3412(2)
H16 H 0.935(6) 0.3380(15) 0.3570(14)
C20 C 0.6639(9) 0.35122(19) 0.2911(2)
H17 H 0.719(5) 0.3136(14) 0.2718(13)
C21 C 0.4595(8) 0.39470(18) 0.27023(17)
H18 H 0.365(6) 0.3853(14) 0.2345(14)
C22 C 0.3864(6) 0.45097(15) 0.29917(15)
C23 C 0.1705(7) 0.49615(18) 0.27572(15)
H19 H 0.041(6) 0.4738(14) 0.2541(13)
C24 C 0.1410(8) 0.56116(19) 0.27721(16)
H20 H 0.005(6) 0.5828(14) 0.2589(13)
C25 C 0.3176(6) 0.60211(15) 0.30180(14)
C26 C 0.3470(7) 0.66584(17) 0.27379(16)
H21 H 0.228(6) 0.6823(14) 0.2409(14)
C27 C 0.5271(7) 0.70386(18) 0.29249(16)
H22 H 0.549(6) 0.7474(15) 0.2731(13)
C28 C 0.6840(7) 0.68032(17) 0.34037(16)
H23 H 0.812(5) 0.7046(13) 0.3545(12)
C29 C 0.6557(7) 0.61857(16) 0.36993(15)
H24 H 0.765(6) 0.6036(15) 0.4043(14)
C30 C 0.4741(6) 0.58042(15) 0.35101(14)
O3 O 0.5164(4) 0.19421(10) 0.83735(9)
N5 N 0.5146(7) 0.12622(18) 0.92400(14)
H25 H 0.588(7) 0.1541(16) 0.9408(15)
H26 H 0.458(8) 0.0918(19) 0.9437(17)
N6 N 0.3357(5) 0.09756(12) 0.83753(11)
C31 C 0.4589(6) 0.14218(17) 0.86498(15)
C32 C 0.3086(7) 0.03189(16) 0.86448(14)
C33 C 0.1119(8) 0.01894(19) 0.90591(15)
H27 H -0.012(6) 0.0544(14) 0.9154(13)
C34 C 0.0916(9) -0.0445(2) 0.93315(17)
H28 H -0.056(7) -0.0506(16) 0.9616(15)
C35 C 0.2693(9) -0.0944(2) 0.91864(17)
H29 H 0.271(6) -0.1401(17) 0.9343(15)
C36 C 0.4669(8) -0.08210(18) 0.87691(17)
H30 H 0.590(7) -0.1189(17) 0.8630(15)
C37 C 0.4887(7) -0.01856(16) 0.84764(14)
C38 C 0.6898(8) -0.00831(17) 0.80126(16)
H31 H 0.842(5) -0.0353(13) 0.8012(12)
C39 C 0.6780(7) 0.03349(16) 0.75108(16)
H32 H 0.837(5) 0.0328(11) 0.7208(11)
C40 C 0.4570(6) 0.07975(15) 0.73273(14)
C41 C 0.4070(7) 0.09496(17) 0.67067(15)
H33 H 0.518(5) 0.0735(13) 0.6424(13)
C42 C 0.1952(7) 0.13544(17) 0.65139(17)
H34 H 0.177(7) 0.1451(16) 0.6092(16)
C43 C 0.0305(8) 0.16411(17) 0.69281(16)
H35 H -0.123(6) 0.1901(15) 0.6809(14)
C44 C 0.0763(7) 0.15087(16) 0.75448(16)
H36 H -0.042(6) 0.1699(15) 0.7834(14)
C45 C 0.2877(7) 0.10994(15) 0.77342(14)
O4 O 0.2888(4) 0.07013(10) 0.52222(10)
N7 N 0.2725(7) 0.01825(15) 0.43739(15)
H37 H 0.402(7) -0.0078(18) 0.4501(16)
H38 H 0.181(7) 0.0149(17) 0.4078(16)
N8 N 0.0340(5) 0.11749(12) 0.44591(11)
C46 C 0.2049(6) 0.06775(16) 0.47133(16)
C47 C -0.0151(6) 0.12527(15) 0.38218(14)
C48 C -0.1962(7) 0.08924(18) 0.35914(18)
H39 H -0.299(7) 0.0562(17) 0.3885(16)
C49 C -0.2391(9) 0.0951(2) 0.2976(2)
H40 H -0.368(6) 0.0700(15) 0.2844(14)
C50 C -0.0998(10) 0.1376(2) 0.2594(2)
H41 H -0.139(7) 0.1392(17) 0.2184(17)
C51 C 0.0811(9) 0.1729(2) 0.28227(17)
H42 H 0.188(6) 0.2049(14) 0.2542(13)
C52 C 0.1263(7) 0.16910(16) 0.34421(15)
C53 C 0.3131(8) 0.20926(17) 0.36698(18)
H43 H 0.441(6) 0.2205(14) 0.3398(14)
C54 C 0.3048(7) 0.23549(17) 0.41963(17)
H44 H 0.452(6) 0.2628(15) 0.4275(13)
C55 C 0.1034(6) 0.22911(15) 0.46711(14)
C56 C 0.0338(7) 0.28171(17) 0.50142(16)
H45 H 0.132(6) 0.3204(15) 0.4943(13)
C57 C -0.1680(7) 0.28005(18) 0.54357(17)
H46 H -0.204(6) 0.3186(14) 0.5649(13)
C58 C -0.3051(7) 0.22490(17) 0.55322(16)
H47 H -0.464(6) 0.2231(14) 0.5794(13)
C59 C -0.2390(7) 0.17181(17) 0.52056(15)
H48 H -0.334(6) 0.1349(15) 0.5269(13)
C60 C -0.0362(6) 0.17393(15) 0.47841(14)
#END
