
#######################################################################
#
#                 Cambridge Crystallographic Data Centre
#                                CCDC
#
#######################################################################
#
# If this CIF has been generated from an entry in the Cambridge
# Structural Database, then it will include bibliographic, chemical,
# crystal, experimental, refinement or atomic coordinate data resulting
# from the CCDC's data processing and validation procedures.
#
#######################################################################

data_CSD_CIF_CCXAPT
_audit_creation_date 1977-10-06
_audit_creation_method CSD-ConQuest-V1
_database_code_CSD CCXAPT
_database_code_depnum_ccdc_archive 'CCDC 1121641'
_chemical_formula_sum 'C12 H26 Cl2 N2 Pt1'
_chemical_formula_moiety
;
C12 H26 Cl2 N2 Pt1
;
_journal_coeditor_code "IUCr A14597"
_journal_coden_Cambridge 107
_journal_volume 33
_journal_year 1977
_journal_page_first 1194
_journal_name_full 'Acta Crystallogr.,Sect.B:Struct.Crystallogr.Cryst.Chem. '
loop_
_publ_author_name
"J.Iball"
"S.N.Scrimgeour"
_chemical_name_systematic
;
cis-Dichloro-bis(cyclohexylamine)-platinum(ii)
;
_chemical_name_common
;
Teaching Subset: Fundamental Chemistry
;
_cell_volume   1562.328
_exptl_crystal_density_diffrn 1.973
_exptl_special_details
;
The structure of this 'cis' form is probably an incorrect solution of the 
trans form. The trans form is correctly described in Acta Cryst. B34 2138 
(1978). A comparison of the 'cis' and trans structures is given in Acta 
Cryst. B36 1789 (1980)
;
_diffrn_ambient_temperature ?
_diffrn_special_details
;
The study was carried out at room temperature,in the range 283-303K

;
#These two values have been output from a single CSD field.
_refine_ls_R_factor_gt 0.054
_refine_ls_wR_factor_gt 0.054
loop_
_citation_database_id_CSD
_citation_special_details
TCAMPT "is a stereoisomer of this entry"
_symmetry_cell_setting orthorhombic
_symmetry_space_group_name_H-M 'P b c n'
_symmetry_Int_Tables_number 60
loop_
_symmetry_equiv_pos_site_id
_symmetry_equiv_pos_as_xyz
1 x,y,z
2 1/2-x,1/2-y,1/2+z
3 1/2+x,1/2-y,-z
4 -x,y,1/2-z
5 -x,-y,-z
6 -1/2+x,-1/2+y,-1/2-z
7 -1/2-x,-1/2+y,z
8 x,-y,-1/2+z
_cell_length_a 26.12(2)
_cell_length_b 6.660(6)
_cell_length_c 8.981(8)
_cell_angle_alpha 90
_cell_angle_beta 90
_cell_angle_gamma 90
_cell_formula_units_Z 4
loop_
_atom_type_symbol
_atom_type_radius_bond
C 0.68
H 0.23
Cl 0.99
N 0.68
Pt 1.50
loop_
_atom_site_label
_atom_site_type_symbol
_atom_site_fract_x
_atom_site_fract_y
_atom_site_fract_z
C1 C 0.20380 -0.33350 0.34460
C2 C 0.19880 -0.27590 0.18410
C3 C 0.14510 -0.31050 0.12710
C4 C 0.17060 -0.20020 0.43140
C5 C 0.11240 -0.21420 0.38190
C6 C 0.11060 -0.17490 0.22060
N1 N 0.05490 -0.20510 0.16260
Pt1 Pt 0.00000 -0.00070 0.25000
Cl1 Cl 0.05470 0.26850 0.28000
H1 H 0.24300 -0.31610 0.38070
H2 H 0.19230 -0.48810 0.35840
H3 H 0.20670 -0.11720 0.17420
H4 H 0.22600 -0.35930 0.11790
H5 H 0.14180 -0.27390 0.01040
H6 H 0.13500 -0.46610 0.14390
H7 H 0.17300 -0.24380 0.54700
H8 H 0.18420 -0.04790 0.41890
H9 H 0.09130 -0.09720 0.43820
H10 H 0.09600 -0.35850 0.40930
H11 H 0.12450 -0.02310 0.20830
H12 H 0.05530 -0.19240 0.04270
H13 H 0.04310 -0.35470 0.19380
N1C N -0.05490 -0.20510 0.33740
Cl1C Cl -0.05470 0.26850 0.22000
C6C C -0.11060 -0.17490 0.27940
H12C H -0.05530 -0.19240 0.45730
H13C H -0.04310 -0.35470 0.30620
C3C C -0.14510 -0.31050 0.37290
C5C C -0.11240 -0.21420 0.11810
H11C H -0.12450 -0.02310 0.29170
C2C C -0.19880 -0.27590 0.31590
H5C H -0.14180 -0.27390 0.48960
H6C H -0.13500 -0.46610 0.35610
C4C C -0.17060 -0.20020 0.06860
H9C H -0.09130 -0.09720 0.06180
H10C H -0.09600 -0.35850 0.09070
C1C C -0.20380 -0.33350 0.15540
H3C H -0.20670 -0.11720 0.32580
H4C H -0.22600 -0.35930 0.38210
H7C H -0.17300 -0.24380 -0.04700
H8C H -0.18420 -0.04790 0.08110
H1C H -0.24300 -0.31610 0.11930
H2C H -0.19230 -0.48810 0.14160
#END
