
#######################################################################
#
#                 Cambridge Crystallographic Data Centre
#                                CCDC
#
#######################################################################
#
# If this CIF has been generated from an entry in the Cambridge
# Structural Database, then it will include bibliographic, chemical,
# crystal, experimental, refinement or atomic coordinate data resulting
# from the CCDC's data processing and validation procedures.
#
#######################################################################

data_CSD_CIF_CEBGUL
_audit_creation_date 1984-08-24
_audit_creation_method CSD-ConQuest-V1
_database_code_CSD CEBGUL
_database_code_depnum_ccdc_archive 'CCDC 1121886'
_chemical_formula_sum 'C8 H9 N1 O2'
_chemical_formula_moiety
;
C8 H9 N1 O2
;
_journal_coden_Cambridge 603
_journal_volume 2
_journal_year 1983
_journal_page_first 219
_journal_name_full 'Jiegou Huaxue(Chin.)(Chin.J.Struct.Chem.) '
loop_
_publ_author_name
"Lin Xianti"
_chemical_name_systematic
;
Methyl p-aminobenzoate
;
_chemical_name_common
;
Teaching Subset: Fundamental Chemistry
;
_cell_volume   1567.072
_exptl_crystal_density_diffrn 1.281
_exptl_special_details
;
C2/c polymorph

;
_diffrn_ambient_temperature ?
_diffrn_special_details
;
The study was carried out at room temperature,in the range 283-303K

;
#These two values have been output from a single CSD field.
_refine_ls_R_factor_gt 0.045
_refine_ls_wR_factor_gt 0.045
_symmetry_cell_setting monoclinic
_symmetry_space_group_name_H-M 'C 2/c'
_symmetry_Int_Tables_number 15
loop_
_symmetry_equiv_pos_site_id
_symmetry_equiv_pos_as_xyz
1 x,y,z
2 1/2+x,1/2+y,z
3 -x,y,1/2-z
4 1/2-x,1/2+y,1/2-z
5 -x,-y,-z
6 -1/2-x,-1/2-y,-z
7 x,-y,-1/2+z
8 -1/2+x,-1/2-y,-1/2+z
_cell_length_a 16.242(2)
_cell_length_b 8.113(2)
_cell_length_c 12.724(2)
_cell_angle_alpha 90
_cell_angle_beta 69.17(1)
_cell_angle_gamma 90
_cell_formula_units_Z 8
loop_
_atom_type_symbol
_atom_type_radius_bond
C 0.68
H 0.23
N 0.68
O 0.68
loop_
_atom_site_label
_atom_site_type_symbol
_atom_site_fract_x
_atom_site_fract_y
_atom_site_fract_z
O1 O 0.46250 0.25570 0.58080
O2 O 0.46480 0.29190 0.40620
N1 N 0.10810 0.66450 0.66640
C1 C 0.34560 0.40410 0.55290
C2 C 0.30580 0.44810 0.66540
C3 C 0.22770 0.53590 0.70310
C4 C 0.18580 0.58020 0.62860
C5 C 0.22600 0.53680 0.51550
C6 C 0.30380 0.44960 0.47880
C7 C 0.42870 0.31170 0.51750
C8 C 0.54540 0.19780 0.36520
H1 H 0.33380 0.41720 0.71860
H2 H 0.20140 0.56700 0.78160
H3 H 0.19770 0.56840 0.46280
H4 H 0.33140 0.42070 0.39980
H5 H 0.56720 0.18910 0.28450
#END
