####################################################################### 
# 
# This file contains crystal structure data downloaded from the 
# Cambridge Structural Database (CSD) hosted by the Cambridge 
# Crystallographic Data Centre (CCDC).
# 
# Full information about CCDC data access policies and citation 
# guidelines are available at http://www.ccdc.cam.ac.uk/access/V1 
# 
# Audit and citation data items may have been added by the CCDC. 
# Please retain this information to preserve the provenance of 
# this file and to allow appropriate attribution of the data. 
# 
#######################################################################

data_dmso-f
_audit_block_doi                 10.5517/cc9cffh
_database_code_depnum_ccdc_archive 'CCDC 279106'
loop_
_citation_id
_citation_doi
_citation_year
1 10.1002/anie.200502597 2006
_audit_update_record             
;
2005-07-21 deposited with the CCDC.	2024-07-09 downloaded from the CCDC.
;

_audit_creation_method           SHELXL-97
_chemical_name_systematic        ?
_chemical_name_common            ?
_chemical_melting_point          ?
_chemical_formula_moiety         'C6 H14 Cl2 Cu N2, 2(C2 H6 O S)'
_chemical_formula_sum            'C10 H26 Cl2 Cu N2 O2 S2'
_chemical_formula_weight         404.89

loop_
_atom_type_symbol
_atom_type_description
_atom_type_scat_dispersion_real
_atom_type_scat_dispersion_imag
_atom_type_scat_source
C C 0.0033 0.0016 'International Tables Vol C Tables 4.2.6.8 and 6.1.1.4'
H H 0.0000 0.0000 'International Tables Vol C Tables 4.2.6.8 and 6.1.1.4'
Cl Cl 0.1484 0.1585 'International Tables Vol C Tables 4.2.6.8 and 6.1.1.4'
Cu Cu 0.3201 1.2651 'International Tables Vol C Tables 4.2.6.8 and 6.1.1.4'
N N 0.0061 0.0033 'International Tables Vol C Tables 4.2.6.8 and 6.1.1.4'
O O 0.0106 0.0060 'International Tables Vol C Tables 4.2.6.8 and 6.1.1.4'
S S 0.1246 0.1234 'International Tables Vol C Tables 4.2.6.8 and 6.1.1.4'

_symmetry_cell_setting           triclinic
_symmetry_space_group_name_H-M   'P -1'
_symmetry_int_tables_number      2
_symmetry_space_group_name_Hall  '-P 1'

loop_
_symmetry_equiv_pos_as_xyz
'x, y, z'
'-x, -y, -z'

_cell_length_a                   5.911(2)
_cell_length_b                   8.515(2)
_cell_length_c                   9.621(4)
_cell_angle_alpha                86.81(3)
_cell_angle_beta                 78.09(4)
_cell_angle_gamma                70.42(2)
_cell_volume                     446.4(3)
_cell_formula_units_Z            1
_cell_measurement_temperature    293(2)
_cell_measurement_reflns_used    1549
_cell_measurement_theta_min      3.36
_cell_measurement_theta_max      24.96

_exptl_crystal_description       block
_exptl_crystal_colour            'light purple'
_exptl_crystal_size_max          0.2
_exptl_crystal_size_mid          0.1
_exptl_crystal_size_min          0.1
_exptl_crystal_density_meas      ?
_exptl_crystal_density_diffrn    1.506
_exptl_crystal_density_method    'not measured'
_exptl_crystal_F_000             211
_exptl_absorpt_coefficient_mu    1.755
_exptl_absorpt_correction_type   Psi-scan
_exptl_absorpt_correction_T_min  0.809
_exptl_absorpt_correction_T_max  0.838
_exptl_absorpt_process_details   'North, Phillips & Mathews, 1968'

_exptl_special_details           
;
?
;

_diffrn_ambient_temperature      293(2)
_diffrn_radiation_probe          x-ray
_diffrn_radiation_type           MoK\a
_diffrn_radiation_wavelength     0.71073
_diffrn_source                   'fine-focus sealed tube'
_diffrn_radiation_monochromator  graphite
_diffrn_measurement_device_type  'Enraf-Nonius CAD4'
_diffrn_measurement_method       \w/2\q
_diffrn_detector_area_resol_mean ?
_diffrn_standards_number         3
_diffrn_standards_interval_count 150
_diffrn_standards_interval_time  ?
_diffrn_standards_decay_%        0.1
_diffrn_reflns_number            1646
_diffrn_reflns_av_R_equivalents  0.0334
_diffrn_reflns_av_sigmaI/netI    0.0565
_diffrn_reflns_limit_h_min       -6
_diffrn_reflns_limit_h_max       7
_diffrn_reflns_limit_k_min       -10
_diffrn_reflns_limit_k_max       10
_diffrn_reflns_limit_l_min       0
_diffrn_reflns_limit_l_max       11
_diffrn_reflns_theta_min         3.36
_diffrn_reflns_theta_max         24.96
_reflns_number_total             1547
_reflns_number_gt                1068
_reflns_threshold_expression     >2sigma(I)

_computing_data_collection       'CAD4 Software (Enraf-Nonius, 1989)'
_computing_cell_refinement       'CAD4 Software'
_computing_data_reduction        'MOLEN (Fair, 1990)'
_computing_structure_solution    'SHELXS-97 (Sheldrick, 1997)'
_computing_structure_refinement  'SHELXL-97 (Sheldrick, 1997)'
_computing_molecular_graphics    ?
_computing_publication_material  ?

_refine_special_details          
;
Refinement of F^2^ against ALL reflections. The weighted R-factor wR and
goodness of fit S are based on F^2^, conventional R-factors R are based
on F, with F set to zero for negative F^2^. The threshold expression of
F^2^ > 2sigma(F^2^) is used only for calculating R-factors(gt) etc. and is
not relevant to the choice of reflections for refinement. R-factors based
on F^2^ are statistically about twice as large as those based on F, and R-
factors based on ALL data will be even larger.
;

_refine_ls_structure_factor_coef Fsqd
_refine_ls_matrix_type           full
_refine_ls_weighting_scheme      calc
_refine_ls_weighting_details     
'calc w=1/[\s^2^(Fo^2^)+(0.0670P)^2^+0.1008P] where P=(Fo^2^+2Fc^2^)/3'
_atom_sites_solution_primary     direct
_atom_sites_solution_secondary   difmap
_atom_sites_solution_hydrogens   geom
_refine_ls_hydrogen_treatment    mixed
_refine_ls_extinction_method     none
_refine_ls_extinction_coef       ?
_refine_ls_number_reflns         1547
_refine_ls_number_parameters     96
_refine_ls_number_restraints     0
_refine_ls_R_factor_all          0.0825
_refine_ls_R_factor_gt           0.0410
_refine_ls_wR_factor_ref         0.1147
_refine_ls_wR_factor_gt          0.0985
_refine_ls_goodness_of_fit_ref   1.018
_refine_ls_restrained_S_all      1.018
_refine_ls_shift/su_max          0.000
_refine_ls_shift/su_mean         0.000

loop_
_atom_site_label
_atom_site_type_symbol
_atom_site_fract_x
_atom_site_fract_y
_atom_site_fract_z
_atom_site_U_iso_or_equiv
_atom_site_adp_type
_atom_site_occupancy
_atom_site_symmetry_multiplicity
_atom_site_calc_flag
_atom_site_refinement_flags
_atom_site_disorder_assembly
_atom_site_disorder_group
Cu1 Cu 0.5000 0.5000 0.0000 0.0262(3) Uani 1 2 d S . .
Cl1 Cl 0.80960(19) 0.52480(15) -0.17364(13) 0.0358(3) Uani 1 1 d . . .
S1 S 0.6211(3) 0.69458(19) 0.51107(15) 0.0480(4) Uani 1 1 d . . .
C1 C 0.0951(7) 0.8188(5) -0.0219(5) 0.0262(10) Uani 1 1 d . . .
H1 H 0.0014 0.7875 0.0650 0.031 Uiso 1 1 calc R . .
C2 C 0.2475(8) 0.9100(6) 0.0208(5) 0.0312(11) Uani 1 1 d . . .
H2A H 0.3460 0.9393 -0.0637 0.037 Uiso 1 1 calc R . .
H2B H 0.3578 0.8376 0.0773 0.037 Uiso 1 1 calc R . .
C3 C -0.0877(8) 0.9318(6) -0.1064(5) 0.0332(11) Uani 1 1 d . . .
H3A H 0.0003 0.9614 -0.1950 0.040 Uiso 1 1 calc R . .
H3B H -0.1905 0.8728 -0.1290 0.040 Uiso 1 1 calc R . .
O1 O 0.4114(7) 0.8055(6) 0.6171(4) 0.0655(13) Uani 1 1 d . . .
C12 C 0.8674(11) 0.7731(9) 0.4944(7) 0.0605(17) Uani 1 1 d . . .
H12A H 0.9338 0.7501 0.5793 0.091 Uiso 1 1 calc R . .
H12B H 0.8094 0.8913 0.4805 0.091 Uiso 1 1 calc R . .
H12C H 0.9925 0.7203 0.4144 0.091 Uiso 1 1 calc R . .
C11 C 0.5496(12) 0.7550(10) 0.3409(7) 0.073(2) Uani 1 1 d . . .
H11A H 0.4141 0.7219 0.3300 0.109 Uiso 1 1 calc R . .
H11B H 0.6894 0.7019 0.2684 0.109 Uiso 1 1 calc R . .
H11C H 0.5066 0.8738 0.3326 0.109 Uiso 1 1 calc R . .
N1 N 0.2548(7) 0.6624(5) -0.1018(4) 0.0275(9) Uani 1 1 d . . .
H100 H 0.169(9) 0.611(6) -0.127(5) 0.029(14) Uiso 1 1 d . . .
H101 H 0.336(9) 0.685(6) -0.188(6) 0.039(15) Uiso 1 1 d . . .

loop_
_atom_site_aniso_label
_atom_site_aniso_U_11
_atom_site_aniso_U_22
_atom_site_aniso_U_33
_atom_site_aniso_U_23
_atom_site_aniso_U_13
_atom_site_aniso_U_12
Cu1 0.0210(4) 0.0210(4) 0.0298(5) 0.0022(3) -0.0009(3) -0.0008(3)
Cl1 0.0223(6) 0.0405(7) 0.0366(7) 0.0116(6) 0.0000(5) -0.0053(5)
S1 0.0386(8) 0.0546(9) 0.0389(8) 0.0085(7) 0.0004(6) -0.0058(7)
C1 0.022(2) 0.021(2) 0.027(2) 0.0023(18) 0.0013(18) -0.0002(18)
C2 0.022(2) 0.028(2) 0.038(3) 0.001(2) -0.010(2) 0.0013(19)
C3 0.027(2) 0.027(2) 0.041(3) -0.003(2) -0.009(2) -0.001(2)
O1 0.048(2) 0.083(3) 0.035(2) 0.011(2) 0.0125(18) 0.004(2)
C12 0.045(3) 0.075(4) 0.056(4) -0.007(3) -0.004(3) -0.014(3)
C11 0.048(4) 0.113(6) 0.044(4) 0.005(4) -0.005(3) -0.013(4)
N1 0.0204(19) 0.0240(19) 0.031(2) -0.0031(17) 0.0012(17) -0.0011(16)

_geom_special_details            
;
All esds (except the esd in the dihedral angle between two l.s. planes)
are estimated using the full covariance matrix. The cell esds are taken
into account individually in the estimation of esds in distances, angles
and torsion angles; correlations between esds in cell parameters are only
used when they are defined by crystal symmetry. An approximate (isotropic)
treatment of cell esds is used for estimating esds involving l.s. planes.
;

loop_
_geom_bond_atom_site_label_1
_geom_bond_atom_site_label_2
_geom_bond_distance
_geom_bond_site_symmetry_2
_geom_bond_publ_flag
Cu1 N1 2.016(4) 2_665 ?
Cu1 N1 2.016(4) . ?
Cu1 Cl1 2.2677(15) 2_665 ?
Cu1 Cl1 2.2677(15) . ?
S1 O1 1.506(4) . ?
S1 C12 1.771(6) . ?
S1 C11 1.780(7) . ?
C1 C2 1.497(6) . ?
C1 N1 1.492(5) . ?
C1 C3 1.527(6) . ?
C1 H1 0.9800 . ?
C2 C3 1.528(6) 2_575 ?
C2 H2A 0.9700 . ?
C2 H2B 0.9700 . ?
C3 C2 1.528(6) 2_575 ?
C3 H3A 0.9700 . ?
C3 H3B 0.9700 . ?
C12 H12A 0.9600 . ?
C12 H12B 0.9600 . ?
C12 H12C 0.9600 . ?
C11 H11A 0.9600 . ?
C11 H11B 0.9600 . ?
C11 H11C 0.9600 . ?
N1 H100 0.85(5) . ?
N1 H101 0.91(6) . ?

loop_
_geom_angle_atom_site_label_1
_geom_angle_atom_site_label_2
_geom_angle_atom_site_label_3
_geom_angle
_geom_angle_site_symmetry_1
_geom_angle_site_symmetry_3
_geom_angle_publ_flag
N1 Cu1 N1 180.0 2_665 . ?
N1 Cu1 Cl1 89.86(13) 2_665 2_665 ?
N1 Cu1 Cl1 90.14(13) . 2_665 ?
N1 Cu1 Cl1 90.14(13) 2_665 . ?
N1 Cu1 Cl1 89.86(13) . . ?
Cl1 Cu1 Cl1 180.00(6) 2_665 . ?
O1 S1 C12 106.9(3) . . ?
O1 S1 C11 105.9(3) . . ?
C12 S1 C11 97.2(3) . . ?
C2 C1 N1 110.5(4) . . ?
C2 C1 C3 110.6(4) . . ?
N1 C1 C3 112.1(4) . . ?
C2 C1 H1 107.8 . . ?
N1 C1 H1 107.8 . . ?
C3 C1 H1 107.8 . . ?
C1 C2 C3 111.4(4) . 2_575 ?
C1 C2 H2A 109.4 . . ?
C3 C2 H2A 109.4 2_575 . ?
C1 C2 H2B 109.4 . . ?
C3 C2 H2B 109.4 2_575 . ?
H2A C2 H2B 108.0 . . ?
C2 C3 C1 110.4(4) 2_575 . ?
C2 C3 H3A 109.6 2_575 . ?
C1 C3 H3A 109.6 . . ?
C2 C3 H3B 109.6 2_575 . ?
C1 C3 H3B 109.6 . . ?
H3A C3 H3B 108.1 . . ?
S1 C12 H12A 109.5 . . ?
S1 C12 H12B 109.5 . . ?
H12A C12 H12B 109.5 . . ?
S1 C12 H12C 109.5 . . ?
H12A C12 H12C 109.5 . . ?
H12B C12 H12C 109.5 . . ?
S1 C11 H11A 109.5 . . ?
S1 C11 H11B 109.5 . . ?
H11A C11 H11B 109.5 . . ?
S1 C11 H11C 109.5 . . ?
H11A C11 H11C 109.5 . . ?
H11B C11 H11C 109.5 . . ?
C1 N1 Cu1 116.1(3) . . ?
C1 N1 H100 111(3) . . ?
Cu1 N1 H100 108(3) . . ?
C1 N1 H101 112(3) . . ?
Cu1 N1 H101 109(3) . . ?
H100 N1 H101 101(5) . . ?

_diffrn_measured_fraction_theta_max 0.995
_diffrn_reflns_theta_full        24.96
_diffrn_measured_fraction_theta_full 0.995
_refine_diff_density_max         0.436
_refine_diff_density_min         -0.911
_refine_diff_density_rms         0.102



