
#######################################################################
#
#                 Cambridge Crystallographic Data Centre
#                                CCDC
#
#######################################################################
#
# If this CIF has been generated from an entry in the Cambridge
# Structural Database, then it will include bibliographic, chemical,
# crystal, experimental, refinement or atomic coordinate data resulting
# from the CCDC's data processing and validation procedures.
#
#######################################################################

data_CSD_CIF_CECMOM
_audit_creation_date 2000-02-03
_audit_creation_method CSD-ConQuest-V1
_database_code_CSD CECMOM
_database_code_depnum_ccdc_archive 'CCDC 1122048'
_database_code_depnum_ccdc_journal 182/1108
_chemical_formula_sum 'C8 H5 N1 O2'
_chemical_formula_moiety
;
C8 H5 N1 O2
;
_journal_coden_Cambridge 182
_journal_year 1999
_journal_page_first 329
_journal_name_full 'Chem.Commun. '
loop_
_publ_author_name
"J.M.A.Robinson"
"D.Philp"
"B.M.Kariuki"
"K.D.M.Harris"
_chemical_name_systematic
;
1-Ethynyl-4-nitrobenzene
;
_chemical_name_common
;
Teaching Subset: Fundamental Chemistry, Symmetry
;
_cell_volume    360.101
_exptl_special_details
;
powder data

;
_diffrn_ambient_temperature ?
_diffrn_radiation_probe x-ray
_diffrn_source synchrotron
_diffrn_special_details
;
The study was carried out at room temperature,in the range 283-303K

;
#These two values have been output from a single CSD field.
_refine_ls_R_factor_gt 0.067
_refine_ls_wR_factor_gt 0.067
_symmetry_cell_setting triclinic
_symmetry_space_group_name_H-M 'P -1'
_symmetry_Int_Tables_number 2
loop_
_symmetry_equiv_pos_site_id
_symmetry_equiv_pos_as_xyz
1 x,y,z
2 -x,-y,-z
_cell_length_a 6.8261(8)
_cell_length_b 7.913(9)
_cell_length_c 7.4743(7)
_cell_angle_alpha 116.581(4)
_cell_angle_beta 91.556(4)
_cell_angle_gamma 92.749(9)
_cell_formula_units_Z 2
loop_
_atom_type_symbol
_atom_type_radius_bond
C 0.68
H 0.23
N 0.68
O 0.68
loop_
_atom_site_label
_atom_site_type_symbol
_atom_site_fract_x
_atom_site_fract_y
_atom_site_fract_z
C1 C 0.1051(13) -0.1087(12) 0.2520(33)
C2 C 0.1676(12) 0.0851(11) 0.3196(29)
C3 C 0.0394(12) 0.2128(11) 0.3177(29)
C4 C -0.1506(14) 0.1490(13) 0.247(4)
C5 C -0.2238(12) -0.0329(12) 0.1900(29)
C6 C -0.0939(12) -0.1650(11) 0.1848(29)
C7 C -0.2850(14) 0.2872(12) 0.2360(31)
C8 C -0.3946(15) 0.3988(15) 0.2357(35)
N1 N 0.2373(12) -0.2456(11) 0.2519(33)
O1 O 0.4110(11) -0.1981(10) 0.3064(19)
O2 O 0.1736(11) -0.4095(10) 0.2030(21)
H1 H 0.31690 0.13630 0.37640
H2 H 0.08520 0.36240 0.36850
H3 H -0.38010 -0.07330 0.14450
H4 H -0.14850 -0.31050 0.13590
H5 H -0.49510 0.49954 0.22500
#END
