
#######################################################################
#
#                 Cambridge Crystallographic Data Centre
#                                CCDC
#
#######################################################################
#
# If this CIF has been generated from an entry in the Cambridge
# Structural Database, then it will include bibliographic, chemical,
# crystal, experimental, refinement or atomic coordinate data resulting
# from the CCDC's data processing and validation procedures.
#
#######################################################################

data_CSD_CIF_CECZIT
_audit_creation_date 1984-10-09
_audit_creation_method CSD-ConQuest-V1
_database_code_CSD CECZIT
_database_code_depnum_ccdc_archive 'CCDC 1122110'
_chemical_formula_sum 'C14 H16 Mo1 N4 O4'
_chemical_formula_moiety
;
C14 H16 Mo1 N4 O4
;
_journal_coden_Cambridge 644
_journal_volume 38
_journal_year 1983
_journal_page_first 1598
_journal_name_full 'Z.Naturforsch.,B:Chem.Sci. '
loop_
_publ_author_name
"O.Scheidsteger"
"G.Huttner"
"V.Bejenke"
"W.Gartzke"
_chemical_name_systematic
;
cis-Tetracarbonyl-bis(1,3-dimethyl-4-imidazolin-2-ylidene)-molybdenum
;
_chemical_name_common
;
Teaching Subset: Fundamental Chemistry
;
_cell_volume   1719.605
_exptl_crystal_density_diffrn 1.546
_exptl_special_details
;
phase transition from trans-form at 133 deg.C

;
_diffrn_ambient_temperature ?
_diffrn_special_details
;
The study was carried out at room temperature,in the range 283-303K

;
#These two values have been output from a single CSD field.
_refine_ls_R_factor_gt 0.041
_refine_ls_wR_factor_gt 0.041
loop_
_citation_database_id_CSD
_citation_special_details
CECZEP "is a stereoisomer of this entry"
_symmetry_cell_setting monoclinic
_symmetry_space_group_name_H-M 'C 2/c'
_symmetry_Int_Tables_number 15
loop_
_symmetry_equiv_pos_site_id
_symmetry_equiv_pos_as_xyz
1 x,y,z
2 1/2+x,1/2+y,z
3 -x,y,1/2-z
4 1/2-x,1/2+y,1/2-z
5 -x,-y,-z
6 -1/2-x,-1/2-y,-z
7 x,-y,-1/2+z
8 -1/2+x,-1/2-y,-1/2+z
_cell_length_a 8.95(1)
_cell_length_b 14.33(1)
_cell_length_c 13.51(1)
_cell_angle_alpha 90
_cell_angle_beta 97.05(8)
_cell_angle_gamma 90
_cell_formula_units_Z 4
loop_
_atom_type_symbol
_atom_type_radius_bond
C 0.68
H 0.23
Mo 1.47
N 0.68
O 0.68
loop_
_atom_site_label
_atom_site_type_symbol
_atom_site_fract_x
_atom_site_fract_y
_atom_site_fract_z
Mo1 Mo 0.00000 0.15456 0.25000
C1 C 0.05820 0.05410 0.34560
O1 O 0.09300 -0.00930 0.39790
C2 C 0.21240 0.14410 0.21260
O2 O 0.33010 0.13030 0.19270
C3 C 0.07450 0.27030 0.36090
N1 N 0.04350 0.28000 0.45730
C4 C 0.10180 0.36120 0.50030
C5 C 0.16780 0.40590 0.43310
N2 N 0.15300 0.35000 0.34760
C6 C -0.03100 0.21050 0.51100
C7 C 0.22010 0.37610 0.25600
H1 H -0.14900 0.20800 0.48200
H2 H -0.02000 0.22900 0.58900
H3 H 0.02000 0.14300 0.50200
H4 H 0.21000 0.31800 0.20500
H5 H 0.33700 0.39300 0.27600
H6 H 0.16100 0.43600 0.22100
H7 H 0.09400 0.38400 0.57600
H8 H 0.22300 0.47300 0.44200
C1B C -0.05820 0.05410 0.15440
C2B C -0.21240 0.14410 0.28740
C3B C -0.07450 0.27030 0.13910
O1B O -0.09300 -0.00930 0.10210
O2B O -0.33010 0.13030 0.30730
N1B N -0.04350 0.28000 0.04270
N2B N -0.15300 0.35000 0.15240
C4B C -0.10180 0.36120 -0.00030
C6B C 0.03100 0.21050 -0.01100
C5B C -0.16780 0.40590 0.06690
C7B C -0.22010 0.37610 0.24400
H7B H -0.09400 0.38400 -0.07600
H1B H 0.14900 0.20800 0.01800
H2B H 0.02000 0.22900 -0.08900
H3B H -0.02000 0.14300 -0.00200
H8B H -0.22300 0.47300 0.05800
H4B H -0.21000 0.31800 0.29500
H5B H -0.33700 0.39300 0.22400
H6B H -0.16100 0.43600 0.27900
#END
