
#######################################################################
#
#                 Cambridge Crystallographic Data Centre
#                                CCDC
#
#######################################################################
#
# If this CIF has been generated from an entry in the Cambridge
# Structural Database, then it will include bibliographic, chemical,
# crystal, experimental, refinement or atomic coordinate data resulting
# from the CCDC's data processing and validation procedures.
#
#######################################################################

data_CSD_CIF_CECZEP
_audit_creation_date 1984-10-09
_audit_creation_method CSD-ConQuest-V1
_database_code_CSD CECZEP
_database_code_depnum_ccdc_archive 'CCDC 1122109'
_chemical_formula_sum 'C14 H16 Mo1 N4 O4'
_chemical_formula_moiety
;
C14 H16 Mo1 N4 O4
;
_journal_coden_Cambridge 644
_journal_volume 38
_journal_year 1983
_journal_page_first 1598
_journal_name_full 'Z.Naturforsch.,B:Chem.Sci. '
loop_
_publ_author_name
"O.Scheidsteger"
"G.Huttner"
"V.Bejenke"
"W.Gartzke"
_chemical_name_systematic
;
trans-Tetracarbonyl-bis(1,3-dimethyl-4-imidazolin-2-ylidene)-molybdenum
;
_chemical_name_common
;
Teaching Subset: Fundamental Chemistry
;
_cell_volume    837.438
_exptl_crystal_density_diffrn 1.59
_exptl_special_details
;
At 136 deg.C a = 11.87(1), b = 8.69(1), c = 15.48(1), beta = 147.43(3), v = 
859
phase transition to cis-form at 133 deg.C
;
_diffrn_ambient_temperature ?
_diffrn_special_details
;
The study was carried out at room temperature,in the range 283-303K

;
#These two values have been output from a single CSD field.
_refine_ls_R_factor_gt 0.032
_refine_ls_wR_factor_gt 0.032
loop_
_citation_database_id_CSD
_citation_special_details
CECZIT "is a stereoisomer of this entry"
_symmetry_cell_setting monoclinic
_symmetry_space_group_name_H-M 'P 21/c'
_symmetry_Int_Tables_number 14
loop_
_symmetry_equiv_pos_site_id
_symmetry_equiv_pos_as_xyz
1 x,y,z
2 -x,1/2+y,1/2-z
3 -x,-y,-z
4 x,-1/2-y,-1/2+z
_cell_length_a 11.76(1)
_cell_length_b 8.62(1)
_cell_length_c 15.35(1)
_cell_angle_alpha 90
_cell_angle_beta 147.44(3)
_cell_angle_gamma 90
_cell_formula_units_Z 2
loop_
_atom_type_symbol
_atom_type_radius_bond
C 0.68
H 0.23
Mo 1.47
N 0.68
O 0.68
loop_
_atom_site_label
_atom_site_type_symbol
_atom_site_fract_x
_atom_site_fract_y
_atom_site_fract_z
Mo1 Mo 0.00000 0.50000 0.50000
C1 C -0.09190 0.49810 0.56610
C2 C 0.07310 0.72630 0.56920
C3 C 0.33150 0.44280 0.75270
C4 C 0.62370 0.34020 1.00720
C5 C 0.69280 0.44730 0.99930
C6 C 0.27380 0.22630 0.82190
C7 C 0.53790 0.63310 0.79470
N1 N 0.40540 0.33610 0.85820
N2 N 0.51840 0.51140 0.84580
O1 O -0.14480 0.50260 0.60420
O2 O 0.11700 0.84960 0.61530
H1 H 0.10900 0.26000 0.71000
H2 H 0.32000 0.22600 0.92000
H3 H 0.29400 0.11000 0.80800
H4 H 0.42000 0.72400 0.73700
H5 H 0.50900 0.58600 0.71100
H6 H 0.69700 0.68000 0.90000
H7 H 0.71900 0.26800 1.11300
H8 H 0.85700 0.48000 1.09500
C1B C 0.09190 0.50190 0.43390
C2B C -0.07310 0.27370 0.43080
C3B C -0.33150 0.55720 0.24730
O1B O 0.14480 0.49740 0.39580
O2B O -0.11700 0.15040 0.38470
N1B N -0.40540 0.66390 0.14180
N2B N -0.51840 0.48860 0.15420
C4B C -0.62370 0.65980 -0.00720
C6B C -0.27380 0.77370 0.17810
C5B C -0.69280 0.55270 0.00070
C7B C -0.53790 0.36690 0.20530
H7B H -0.71900 0.73200 -0.11300
H1B H -0.10900 0.74000 0.29000
H2B H -0.32000 0.77400 0.08000
H3B H -0.29400 0.89000 0.19200
H8B H -0.85700 0.52000 -0.09500
H4B H -0.42000 0.27600 0.26300
H5B H -0.50900 0.41400 0.28900
H6B H -0.69700 0.32000 0.10000
#END
