
#######################################################################
#
#                 Cambridge Crystallographic Data Centre
#                                CCDC
#
#######################################################################
#
# If this CIF has been generated from an entry in the Cambridge
# Structural Database, then it will include bibliographic, chemical,
# crystal, experimental, refinement or atomic coordinate data resulting
# from the CCDC's data processing and validation procedures.
#
#######################################################################

data_CSD_CIF_CEFXAM
_audit_creation_date 1984-10-09
_audit_creation_method CSD-ConQuest-V1
_database_code_CSD CEFXAM
_database_code_depnum_ccdc_archive 'CCDC 1122334'
_chemical_formula_sum 'C8 H18 Cl2 Cu1 O9 S4'
_chemical_formula_moiety
;
C8 H18 Cu1 O1 S4 2+,2(Cl1 O4 1-)
;
_journal_coden_Cambridge 9
_journal_volume 22
_journal_year 1983
_journal_page_first 3661
_journal_name_full 'Inorg.Chem. '
loop_
_publ_author_name
"V.B.Pett"
"L.L.Diaddario Junior"
"E.R.Dockal"
"P.W.Corfield"
"C.Ceccarelli"
"M.D.Glick"
"L.A.Ochrymowycz"
"D.B.Rorabacher"
_chemical_name_systematic
;
Aqua-(1,4,7,10-tetrathiacyclododecane)-copper(ii) diperchlorate
;
_chemical_name_common
;
Teaching Subset: Fundamental Chemistry
;
_cell_volume   1901.736
_exptl_crystal_density_diffrn 1.82
_diffrn_ambient_temperature ?
_diffrn_special_details
;
The study was carried out at room temperature,in the range 283-303K

;
#These two values have been output from a single CSD field.
_refine_ls_R_factor_gt 0.127
_refine_ls_wR_factor_gt 0.127
_symmetry_cell_setting orthorhombic
_symmetry_space_group_name_H-M 'P b c 21'
_symmetry_Int_Tables_number 29
loop_
_symmetry_equiv_pos_site_id
_symmetry_equiv_pos_as_xyz
1 x,y,z
2 -x,1/2+y,z
3 x,1/2-y,1/2+z
4 -x,-y,1/2+z
_cell_length_a 9.010(2)
_cell_length_b 15.775(3)
_cell_length_c 13.380(2)
_cell_angle_alpha 90
_cell_angle_beta 90
_cell_angle_gamma 90
_cell_formula_units_Z 4
loop_
_atom_type_symbol
_atom_type_radius_bond
C 0.68
Cl 0.99
Cu 1.52
O 0.67
S 1.02
loop_
_atom_site_label
_atom_site_type_symbol
_atom_site_fract_x
_atom_site_fract_y
_atom_site_fract_z
Cu1 Cu 0.12650 0.12990 0.25000
S1 S 0.07840 0.01930 0.13800
S2 S 0.27810 0.20180 0.14110
S3 S 0.26460 0.19500 0.38000
S4 S 0.08370 0.03070 0.37490
O1 O -0.06850 0.20400 0.26030
C1 C 0.20820 0.06410 0.04570
C2 C 0.34080 0.11520 0.05820
C3 C 0.44130 0.22160 0.22650
C4 C 0.43680 0.18390 0.32200
C5 C 0.26340 0.10660 0.47730
C6 C 0.24670 0.02570 0.44280
C7 C 0.18200 -0.05610 0.31100
C8 C 0.10870 -0.07110 0.21770
Cl1 Cl 0.33950 0.47040 0.25390
O2 O 0.42760 0.48410 0.17290
O3 O 0.44030 0.44480 0.32280
O4 O 0.24340 0.40310 0.23670
O5 O 0.28930 0.52600 0.31850
Cl2 Cl 0.79330 0.25160 0.00010
O6 O 0.73690 0.24020 -0.09540
O7 O 0.69620 0.29310 0.06120
O8 O 0.90500 0.18910 0.00840
O9 O 0.82170 0.32950 -0.04160
#END
