
#######################################################################
#
#                 Cambridge Crystallographic Data Centre
#                                CCDC
#
#######################################################################
#
# If this CIF has been generated from an entry in the Cambridge
# Structural Database, then it will include bibliographic, chemical,
# crystal, experimental, refinement or atomic coordinate data resulting
# from the CCDC's data processing and validation procedures.
#
#######################################################################

data_CSD_CIF_CEFXOA
_audit_creation_date 1984-10-09
_audit_creation_method CSD-ConQuest-V1
_database_code_CSD CEFXOA
_database_code_depnum_ccdc_archive 'CCDC 1122337'
_chemical_formula_sum 'C12 H24 Cl2 Cu1 O8 S4'
_chemical_formula_moiety
;
C12 H24 Cl2 Cu1 O8 S4
;
_journal_coden_Cambridge 9
_journal_volume 22
_journal_year 1983
_journal_page_first 3661
_journal_name_full 'Inorg.Chem. '
loop_
_publ_author_name
"V.B.Pett"
"L.L.Diaddario Junior"
"E.R.Dockal"
"P.W.Corfield"
"C.Ceccarelli"
"M.D.Glick"
"L.A.Ochrymowycz"
"D.B.Rorabacher"
_chemical_name_systematic
;
(Diperchlorato-O)-(1,5,9,13-tetrathiacyclohexadecane)-copper(ii)
;
_chemical_name_common
;
Teaching Subset: Fundamental Chemistry
;
_cell_volume   1061.512
_exptl_crystal_density_diffrn 1.75
_diffrn_ambient_temperature ?
_diffrn_special_details
;
The study was carried out at room temperature,in the range 283-303K

;
#These two values have been output from a single CSD field.
_refine_ls_R_factor_gt 0.044
_refine_ls_wR_factor_gt 0.044
_symmetry_cell_setting monoclinic
_symmetry_space_group_name_H-M 'P 21/c'
_symmetry_Int_Tables_number 14
loop_
_symmetry_equiv_pos_site_id
_symmetry_equiv_pos_as_xyz
1 x,y,z
2 -x,1/2+y,1/2-z
3 -x,-y,-z
4 x,-1/2-y,-1/2+z
_cell_length_a 7.931(3)
_cell_length_b 9.613(5)
_cell_length_c 14.885(5)
_cell_angle_alpha 90
_cell_angle_beta 110.71(3)
_cell_angle_gamma 90
_cell_formula_units_Z 2
loop_
_atom_type_symbol
_atom_type_radius_bond
C 0.68
H 0.23
Cl 0.99
Cu 1.52
O 0.68
S 1.02
loop_
_atom_site_label
_atom_site_type_symbol
_atom_site_fract_x
_atom_site_fract_y
_atom_site_fract_z
Cu1 Cu 0.00000 0.00000 0.00000
S1 S -0.16530 -0.07920 -0.15500
S2 S 0.22750 0.08980 -0.05400
C1 C -0.17450 0.05470 -0.24350
C2 C 0.00870 0.08730 -0.24800
C3 C 0.12480 0.18170 -0.16750
C4 C 0.30800 0.24380 0.02120
C5 C 0.44680 0.20350 0.11890
C6 C -0.40020 -0.07280 -0.16400
Cl1 Cl 0.27210 -0.34000 0.06050
O1 O 0.29090 -0.40750 -0.01900
O2 O 0.43830 -0.27740 0.11730
O3 O 0.21860 -0.43530 0.11620
O4 O 0.14260 -0.23380 0.02790
H1 H -0.22955 0.14821 -0.22491
H2 H -0.26150 0.01876 -0.31337
H3 H -0.01068 0.13774 -0.31586
H4 H 0.08013 -0.00956 -0.24452
H5 H 0.23077 0.22582 -0.18833
H6 H 0.04125 0.26434 -0.15697
H7 H 0.19502 0.29440 0.03201
H8 H 0.36947 0.31441 -0.01457
H9 H 0.45912 0.28939 0.16767
H10 H 0.57435 0.18664 0.10977
H11 H -0.48617 -0.06671 -0.23869
H12 H -0.42144 0.01821 -0.12654
S1B S 0.16530 0.07920 0.15500
S2B S -0.22750 -0.08980 0.05400
O4B O -0.14260 0.23380 -0.02790
C6B C 0.40020 0.07280 0.16400
C5B C -0.44680 -0.20350 -0.11890
C1B C 0.17450 -0.05470 0.24350
C3B C -0.12480 -0.18170 0.16750
C4B C -0.30800 -0.24380 -0.02120
Cl1B Cl -0.27210 0.34000 -0.06050
H11B H 0.48617 0.06671 0.23869
H12B H 0.42144 -0.01821 0.12654
H9B H -0.45912 -0.28939 -0.16767
H10B H -0.57435 -0.18664 -0.10977
C2B C -0.00870 -0.08730 0.24800
H1B H 0.22955 -0.14821 0.22491
H2B H 0.26150 -0.01876 0.31337
H5B H -0.23077 -0.22582 0.18833
H6B H -0.04125 -0.26434 0.15697
H7B H -0.19502 -0.29440 -0.03201
H8B H -0.36947 -0.31441 0.01457
O1B O -0.29090 0.40750 0.01900
O2B O -0.43830 0.27740 -0.11730
O3B O -0.21860 0.43530 -0.11620
H3B H 0.01068 -0.13774 0.31586
H4B H -0.08013 0.00956 0.24452
#END
