####################################################################### 
# 
# This file contains crystal structure data downloaded from the 
# Cambridge Structural Database (CSD) hosted by the Cambridge 
# Crystallographic Data Centre (CCDC).
# 
# Full information about CCDC data access policies and citation 
# guidelines are available at http://www.ccdc.cam.ac.uk/access/V1 
# 
# Audit and citation data items may have been added by the CCDC. 
# Please retain this information to preserve the provenance of 
# this file and to allow appropriate attribution of the data. 
# 
#######################################################################

data_a
_audit_block_doi                 10.5517/cc8hdkp
_database_code_depnum_ccdc_archive 'CCDC 253132'
loop_
_citation_id
_citation_doi
_citation_year
1 10.1021/ic051810k 2006
_audit_update_record             
;
2004-10-18 deposited with the CCDC.	2024-07-09 downloaded from the CCDC.
;

_audit_creation_method           SHELXL-97
_chemical_name_systematic        
;
?
;
_chemical_name_common            ?
_chemical_melting_point          'not measured'
_chemical_formula_moiety         'C16.5 H11.5 Cd2 N1 O11.25'
_chemical_formula_sum            'C16.5 H11.5 Cd2 N1 O11.25'
_chemical_formula_weight         628.59

loop_
_atom_type_symbol
_atom_type_description
_atom_type_scat_dispersion_real
_atom_type_scat_dispersion_imag
_atom_type_scat_source
C C 0.0033 0.0016 'International Tables Vol C Tables 4.2.6.8 and 6.1.1.4'
H H 0.0000 0.0000 'International Tables Vol C Tables 4.2.6.8 and 6.1.1.4'
N N 0.0061 0.0033 'International Tables Vol C Tables 4.2.6.8 and 6.1.1.4'
O O 0.0106 0.0060 'International Tables Vol C Tables 4.2.6.8 and 6.1.1.4'
Cd Cd -0.8075 1.2024 'International Tables Vol C Tables 4.2.6.8 and 6.1.1.4'

_symmetry_cell_setting           tetragonal
_symmetry_space_group_name_H-M   P4(3)22

loop_
_symmetry_equiv_pos_as_xyz
'x, y, z'
'-x, -y, z+1/2'
'-y, x, z+3/4'
'y, -x, z+1/4'
'-x, y, -z'
'x, -y, -z+1/2'
'y, x, -z+1/4'
'-y, -x, -z+3/4'

_cell_length_a                   10.3503(4)
_cell_length_b                   10.3503(4)
_cell_length_c                   52.557(3)
_cell_angle_alpha                90.00
_cell_angle_beta                 90.00
_cell_angle_gamma                90.00
_cell_volume                     5630.4(4)
_cell_formula_units_Z            8
_cell_measurement_temperature    571(2)
_cell_measurement_reflns_used    ?
_cell_measurement_theta_min      ?
_cell_measurement_theta_max      ?

_exptl_crystal_description       block
_exptl_crystal_colour            colorless
_exptl_crystal_size_max          0.42
_exptl_crystal_size_mid          0.21
_exptl_crystal_size_min          0.21
_exptl_crystal_density_meas      none
_exptl_crystal_density_diffrn    1.492
_exptl_crystal_density_method    'not measured'
_exptl_crystal_F_000             2444
_exptl_absorpt_coefficient_mu    1.556
_exptl_absorpt_correction_type   none
_exptl_absorpt_correction_T_min  ?
_exptl_absorpt_correction_T_max  ?
_exptl_absorpt_process_details   ?

_exptl_special_details           
;
?
;

_diffrn_ambient_temperature      571(2)
_diffrn_radiation_wavelength     0.71073
_diffrn_radiation_type           MoK\a
_diffrn_radiation_source         'fine-focus sealed tube'
_diffrn_radiation_monochromator  graphite
_diffrn_measurement_device_type  'CCD area detector'
_diffrn_measurement_method       'phi and omega scans'
_diffrn_detector_area_resol_mean 9.00cm
_diffrn_standards_number         none
_diffrn_standards_interval_count none
_diffrn_standards_interval_time  none
_diffrn_standards_decay_%        none
_diffrn_reflns_number            34304
_diffrn_reflns_av_R_equivalents  0.0425
_diffrn_reflns_av_sigmaI/netI    0.0315
_diffrn_reflns_limit_h_min       -12
_diffrn_reflns_limit_h_max       13
_diffrn_reflns_limit_k_min       -13
_diffrn_reflns_limit_k_max       13
_diffrn_reflns_limit_l_min       -54
_diffrn_reflns_limit_l_max       69
_diffrn_reflns_theta_min         1.97
_diffrn_reflns_theta_max         28.14
_reflns_number_total             6550
_reflns_number_gt                5978
_reflns_threshold_expression     >2sigma(I)

_computing_data_collection       'Bruker SMART'
_computing_cell_refinement       'Bruker SMART'
_computing_data_reduction        'Bruker SAINT'
_computing_structure_solution    'SHELXS-97 (Sheldrick, 1990)'
_computing_structure_refinement  'SHELXL-97 (Sheldrick, 1997)'
_computing_molecular_graphics    SHELXP-97
_computing_publication_material  SHELXTL

_refine_special_details          
;
Refinement of F^2^ against ALL reflections. The weighted R-factor wR and
goodness of fit S are based on F^2^, conventional R-factors R are based
on F, with F set to zero for negative F^2^. The threshold expression of
F^2^ > 2sigma(F^2^) is used only for calculating R-factors(gt) etc. and is
not relevant to the choice of reflections for refinement. R-factors based
on F^2^ are statistically about twice as large as those based on F, and R-
factors based on ALL data will be even larger.
;

_refine_ls_structure_factor_coef Fsqd
_refine_ls_matrix_type           full
_refine_ls_weighting_scheme      calc
_refine_ls_weighting_details     
'calc w=1/[\s^2^(Fo^2^)+(0.1184P)^2^+0.8396P] where P=(Fo^2^+2Fc^2^)/3'
_atom_sites_solution_primary     direct
_atom_sites_solution_secondary   difmap
_atom_sites_solution_hydrogens   geom
_refine_ls_hydrogen_treatment    mixed
_refine_ls_extinction_method     none
_refine_ls_extinction_coef       ?
_refine_ls_abs_structure_details 'Flack H D (1983), Acta Cryst. A39, 876-881'
_refine_ls_abs_structure_Flack   -0.03(5)
_refine_ls_number_reflns         6550
_refine_ls_number_parameters     282
_refine_ls_number_restraints     40
_refine_ls_R_factor_all          0.0488
_refine_ls_R_factor_gt           0.0445
_refine_ls_wR_factor_ref         0.1514
_refine_ls_wR_factor_gt          0.1488
_refine_ls_goodness_of_fit_ref   1.043
_refine_ls_restrained_S_all      1.049
_refine_ls_shift/su_max          0.007
_refine_ls_shift/su_mean         0.000

loop_
_atom_site_label
_atom_site_type_symbol
_atom_site_fract_x
_atom_site_fract_y
_atom_site_fract_z
_atom_site_U_iso_or_equiv
_atom_site_adp_type
_atom_site_occupancy
_atom_site_symmetry_multiplicity
_atom_site_calc_flag
_atom_site_refinement_flags
_atom_site_disorder_assembly
_atom_site_disorder_group
Cd1 Cd 0.35845(4) 1.05972(4) 1.023612(7) 0.02259(12) Uani 1 1 d . . .
Cd2 Cd 0.24293(5) 0.85467(5) 1.078828(8) 0.03368(15) Uani 1 1 d . . .
N1 N -0.176(2) 0.753(3) 1.0408(6) 0.207(11) Uani 1 1 d DU . .
O1 O 0.3595(5) 1.0037(5) 0.98233(8) 0.0366(10) Uani 1 1 d . . .
O2 O 0.4714(5) 1.0718(6) 0.94956(9) 0.0437(13) Uani 1 1 d . . .
O3 O 0.2580(6) 1.1836(9) 0.86790(10) 0.074(2) Uani 1 1 d . . .
O4 O 0.0516(6) 1.1824(8) 0.86602(10) 0.0604(18) Uani 1 1 d . . .
O5 O -0.1318(5) 1.0874(6) 0.97835(8) 0.0432(12) Uani 1 1 d . . .
O6 O -0.2149(4) 1.0648(5) 0.93981(8) 0.0292(9) Uani 1 1 d . . .
O7 O 0.3418(6) 0.8485(5) 1.03678(9) 0.0415(12) Uani 1 1 d . . .
O8 O 0.3315(7) 0.6709(5) 1.05928(10) 0.0531(16) Uani 1 1 d . . .
O9 O 0.4088(6) 0.2579(5) 1.01150(12) 0.0518(15) Uani 1 1 d . . .
O10 O 0.0510(8) 0.7923(7) 1.06017(16) 0.073(2) Uani 1 1 d D . .
O11 O 0.4509(7) 0.9150(9) 1.09069(13) 0.075(2) Uani 1 1 d . . .
O12 O 0.379(3) 0.379(3) 0.1250 0.137(10) Uani 0.50 2 d SPU . .
C1 C 0.3682(6) 1.0507(7) 0.96051(11) 0.0299(12) Uani 1 1 d . . .
C2 C 0.2449(6) 1.0802(7) 0.94595(12) 0.0303(13) Uani 1 1 d . . .
C3 C 0.2548(6) 1.1117(8) 0.92059(13) 0.0386(17) Uani 1 1 d . . .
H3A H 0.3359 1.1199 0.9131 0.046 Uiso 1 1 calc R . .
C4 C 0.1423(7) 1.1320(7) 0.90571(11) 0.0352(14) Uani 1 1 d . . .
C5 C 0.0233(6) 1.1185(7) 0.91704(11) 0.0302(14) Uani 1 1 d . . .
H5A H -0.0511 1.1271 0.9073 0.036 Uiso 1 1 calc R . .
C6 C 0.0125(6) 1.0920(6) 0.94301(11) 0.0273(12) Uani 1 1 d . . .
C7 C 0.1238(6) 1.0725(6) 0.95758(11) 0.0274(12) Uani 1 1 d . . .
H7A H 0.1173 1.0545 0.9749 0.033 Uiso 1 1 calc R . .
C8 C 0.1521(7) 1.1666(9) 0.87792(12) 0.0445(17) Uani 1 1 d . . .
C9 C -0.1179(6) 1.0805(6) 0.95441(12) 0.0287(13) Uani 1 1 d . . .
C10 C 0.3659(7) 0.7297(6) 1.03987(13) 0.0335(14) Uani 1 1 d . . .
C11 C 0.4336(7) 0.6578(6) 1.01885(11) 0.0306(13) Uani 1 1 d . . .
C12 C 0.5000 0.7260(8) 1.0000 0.0260(17) Uani 1 2 d S . .
H12A H 0.5000 0.8159 1.0000 0.031 Uiso 1 2 calc SR . .
C13 C 0.4356(7) 0.5245(6) 1.01879(11) 0.0320(13) Uani 1 1 d . . .
H13A H 0.3931 0.4791 1.0316 0.038 Uiso 1 1 calc R . .
C14 C 0.5000 0.4584(9) 1.0000 0.0326(19) Uani 1 2 d S . .
C15 C 0.5000 0.3110(8) 1.0000 0.0313(19) Uani 1 2 d S . .
C16 C -0.067(2) 0.788(3) 1.0554(11) 0.43(3) Uani 1 1 d DU . .
H16A H -0.1030 0.8331 1.0690 0.515 Uiso 1 1 calc R . .
C17 C -0.115(3) 0.772(3) 1.0173(5) 0.220(14) Uani 1 1 d DU . .
H17A H -0.1757 0.7572 1.0038 0.331 Uiso 1 1 calc R . .
H17B H -0.0440 0.7130 1.0157 0.331 Uiso 1 1 calc R . .
H17C H -0.0836 0.8592 1.0163 0.331 Uiso 1 1 calc R . .
C18 C -0.256(3) 0.731(4) 1.0619(6) 0.282(19) Uani 1 1 d DU . .
H18A H -0.2072 0.7446 1.0772 0.424 Uiso 1 1 calc R . .
H18B H -0.2867 0.6434 1.0615 0.424 Uiso 1 1 calc R . .
H18C H -0.3277 0.7892 1.0614 0.424 Uiso 1 1 calc R . .

loop_
_atom_site_aniso_label
_atom_site_aniso_U_11
_atom_site_aniso_U_22
_atom_site_aniso_U_33
_atom_site_aniso_U_23
_atom_site_aniso_U_13
_atom_site_aniso_U_12
Cd1 0.0232(2) 0.0236(2) 0.0210(2) 0.00155(15) 0.00364(16) -0.00180(16)
Cd2 0.0453(3) 0.0348(3) 0.0210(2) -0.00085(18) 0.01243(18) 0.0020(2)
N1 0.192(13) 0.203(13) 0.225(13) -0.002(9) 0.012(9) 0.003(9)
O1 0.044(3) 0.043(3) 0.023(2) 0.0022(19) -0.007(2) 0.005(2)
O2 0.025(2) 0.075(4) 0.031(2) 0.002(3) -0.0011(19) 0.007(2)
O3 0.041(3) 0.147(7) 0.033(3) 0.038(4) 0.010(2) 0.000(4)
O4 0.048(3) 0.104(5) 0.029(3) 0.027(3) 0.000(2) -0.009(3)
O5 0.033(2) 0.075(4) 0.022(2) -0.003(2) 0.0098(19) -0.003(2)
O6 0.022(2) 0.037(2) 0.029(2) 0.0025(19) 0.0032(16) -0.0009(17)
O7 0.063(3) 0.025(2) 0.037(2) 0.003(2) 0.023(2) 0.008(2)
O8 0.086(4) 0.036(3) 0.037(3) 0.004(2) 0.034(3) 0.008(3)
O9 0.065(4) 0.025(3) 0.066(4) 0.006(2) 0.012(3) -0.004(2)
O10 0.062(4) 0.060(4) 0.097(6) -0.016(4) -0.008(4) 0.002(3)
O11 0.047(3) 0.131(7) 0.048(4) 0.017(4) -0.001(3) -0.017(4)
O12 0.139(10) 0.139(10) 0.132(13) 0.012(7) -0.012(7) 0.022(9)
C1 0.030(3) 0.039(3) 0.020(3) 0.001(2) -0.003(2) 0.001(3)
C2 0.022(3) 0.045(4) 0.023(3) 0.008(3) -0.004(2) 0.001(3)
C3 0.021(3) 0.067(5) 0.028(3) 0.012(3) 0.007(2) -0.003(3)
C4 0.031(3) 0.055(4) 0.019(3) 0.010(3) 0.001(2) -0.001(3)
C5 0.023(3) 0.046(4) 0.021(3) 0.009(3) -0.002(2) -0.002(2)
C6 0.028(3) 0.034(3) 0.020(3) 0.007(2) 0.002(2) -0.001(2)
C7 0.029(3) 0.038(3) 0.014(2) 0.003(2) 0.001(2) 0.002(2)
C8 0.033(3) 0.076(5) 0.024(3) 0.018(3) -0.001(3) -0.001(3)
C9 0.028(3) 0.029(3) 0.029(3) 0.005(2) 0.005(2) 0.000(2)
C10 0.045(4) 0.026(3) 0.030(3) -0.002(2) 0.014(3) -0.002(3)
C11 0.043(4) 0.026(3) 0.022(3) -0.002(2) 0.011(3) 0.002(3)
C12 0.038(5) 0.018(4) 0.023(4) 0.000 0.010(3) 0.000
C13 0.045(4) 0.026(3) 0.025(3) 0.005(2) 0.012(3) -0.001(3)
C14 0.035(5) 0.025(4) 0.038(5) 0.000 0.007(4) 0.000
C15 0.042(5) 0.019(4) 0.034(5) 0.000 0.008(4) 0.000
C16 0.48(5) 0.23(3) 0.58(5) -0.14(3) -0.02(4) 0.24(4)
C17 0.31(3) 0.15(2) 0.20(3) -0.060(19) -0.05(2) 0.08(2)
C18 0.33(4) 0.22(3) 0.30(3) 0.11(3) -0.09(3) 0.02(3)

_geom_special_details            
;
All esds (except the esd in the dihedral angle between two l.s. planes)
are estimated using the full covariance matrix. The cell esds are taken
into account individually in the estimation of esds in distances, angles
and torsion angles; correlations between esds in cell parameters are only
used when they are defined by crystal symmetry. An approximate (isotropic)
treatment of cell esds is used for estimating esds involving l.s. planes.
;

loop_
_geom_bond_atom_site_label_1
_geom_bond_atom_site_label_2
_geom_bond_distance
_geom_bond_site_symmetry_2
_geom_bond_publ_flag
Cd1 O9 2.210(5) 1_565 ?
Cd1 O1 2.246(4) . ?
Cd1 O2 2.259(5) 5_657 ?
Cd1 O7 2.300(5) . ?
Cd1 O5 2.366(5) 5_557 ?
Cd1 O6 2.430(4) 5_557 ?
Cd1 C9 2.754(6) 5_557 ?
Cd2 O4 2.270(5) 4_465 ?
Cd2 O10 2.308(8) . ?
Cd2 O11 2.326(7) . ?
Cd2 O8 2.348(5) . ?
Cd2 O6 2.403(5) 5_557 ?
Cd2 O7 2.436(4) . ?
Cd2 O3 2.440(6) 4_465 ?
Cd2 C8 2.699(6) 4_465 ?
N1 C18 1.397(18) . ?
N1 C16 1.416(18) . ?
N1 C17 1.404(18) . ?
O1 C1 1.249(7) . ?
O2 C1 1.233(8) . ?
O2 Cd1 2.259(5) 5_657 ?
O3 C8 1.229(9) . ?
O3 Cd2 2.440(6) 3_664 ?
O4 C8 1.224(9) . ?
O4 Cd2 2.270(5) 3_664 ?
O5 C9 1.268(7) . ?
O5 Cd1 2.366(5) 5_557 ?
O6 C9 1.274(8) . ?
O6 Cd2 2.403(5) 5_557 ?
O6 Cd1 2.430(4) 5_557 ?
O7 C10 1.265(8) . ?
O8 C10 1.240(8) . ?
O9 C15 1.248(7) . ?
O9 Cd1 2.210(5) 1_545 ?
O10 C16 1.246(19) . ?
C1 C2 1.519(8) . ?
C2 C3 1.376(9) . ?
C2 C7 1.397(9) . ?
C3 C4 1.418(9) . ?
C4 C5 1.375(9) . ?
C4 C8 1.508(8) . ?
C5 C6 1.397(8) . ?
C6 C7 1.398(9) . ?
C6 C9 1.481(8) . ?
C8 Cd2 2.699(6) 3_664 ?
C9 Cd1 2.754(6) 5_557 ?
C10 C11 1.505(8) . ?
C11 C13 1.380(9) . ?
C11 C12 1.397(7) . ?
C12 C11 1.397(7) 5_657 ?
C13 C14 1.374(8) . ?
C14 C13 1.374(8) 5_657 ?
C14 C15 1.526(12) . ?
C15 O9 1.248(7) 5_657 ?

loop_
_geom_angle_atom_site_label_1
_geom_angle_atom_site_label_2
_geom_angle_atom_site_label_3
_geom_angle
_geom_angle_site_symmetry_1
_geom_angle_site_symmetry_3
_geom_angle_publ_flag
O9 Cd1 O1 87.7(2) 1_565 . ?
O9 Cd1 O2 86.8(2) 1_565 5_657 ?
O1 Cd1 O2 127.82(19) . 5_657 ?
O9 Cd1 O7 170.7(2) 1_565 . ?
O1 Cd1 O7 92.61(17) . . ?
O2 Cd1 O7 85.6(2) 5_657 . ?
O9 Cd1 O5 96.2(2) 1_565 5_557 ?
O1 Cd1 O5 89.67(18) . 5_557 ?
O2 Cd1 O5 142.51(17) 5_657 5_557 ?
O7 Cd1 O5 93.1(2) . 5_557 ?
O9 Cd1 O6 110.61(19) 1_565 5_557 ?
O1 Cd1 O6 140.60(18) . 5_557 ?
O2 Cd1 O6 88.97(16) 5_657 5_557 ?
O7 Cd1 O6 74.73(16) . 5_557 ?
O5 Cd1 O6 54.93(15) 5_557 5_557 ?
O9 Cd1 C9 105.2(2) 1_565 5_557 ?
O1 Cd1 C9 115.5(2) . 5_557 ?
O2 Cd1 C9 116.03(18) 5_657 5_557 ?
O7 Cd1 C9 83.12(19) . 5_557 ?
O5 Cd1 C9 27.37(17) 5_557 5_557 ?
O6 Cd1 C9 27.56(17) 5_557 5_557 ?
O4 Cd2 O10 104.4(3) 4_465 . ?
O4 Cd2 O11 84.8(3) 4_465 . ?
O10 Cd2 O11 170.2(3) . . ?
O4 Cd2 O8 146.2(2) 4_465 . ?
O10 Cd2 O8 85.6(3) . . ?
O11 Cd2 O8 88.5(3) . . ?
O4 Cd2 O6 86.05(19) 4_465 5_557 ?
O10 Cd2 O6 88.6(2) . 5_557 ?
O11 Cd2 O6 88.8(2) . 5_557 ?
O8 Cd2 O6 127.01(16) . 5_557 ?
O4 Cd2 O7 155.3(2) 4_465 . ?
O10 Cd2 O7 88.2(3) . . ?
O11 Cd2 O7 82.0(2) . . ?
O8 Cd2 O7 54.39(16) . . ?
O6 Cd2 O7 72.83(15) 5_557 . ?
O4 Cd2 O3 53.9(2) 4_465 4_465 ?
O10 Cd2 O3 90.4(3) . 4_465 ?
O11 Cd2 O3 97.8(3) . 4_465 ?
O8 Cd2 O3 94.55(19) . 4_465 ?
O6 Cd2 O3 138.18(18) 5_557 4_465 ?
O7 Cd2 O3 148.93(18) . 4_465 ?
O4 Cd2 C8 26.8(2) 4_465 4_465 ?
O10 Cd2 C8 98.5(3) . 4_465 ?
O11 Cd2 C8 91.2(2) . 4_465 ?
O8 Cd2 C8 120.8(2) . 4_465 ?
O6 Cd2 C8 112.19(19) 5_557 4_465 ?
O7 Cd2 C8 171.6(2) . 4_465 ?
O3 Cd2 C8 27.1(2) 4_465 4_465 ?
C18 N1 C16 95(3) . . ?
C18 N1 C17 171(3) . . ?
C16 N1 C17 95(3) . . ?
C1 O1 Cd1 141.9(5) . . ?
C1 O2 Cd1 112.0(4) . 5_657 ?
C8 O3 Cd2 88.3(4) . 3_664 ?
C8 O4 Cd2 96.5(4) . 3_664 ?
C9 O5 Cd1 93.6(4) . 5_557 ?
C9 O6 Cd2 117.2(4) . 5_557 ?
C9 O6 Cd1 90.5(4) . 5_557 ?
Cd2 O6 Cd1 103.25(17) 5_557 5_557 ?
C10 O7 Cd1 161.4(5) . . ?
C10 O7 Cd2 89.5(4) . . ?
Cd1 O7 Cd2 106.22(18) . . ?
C10 O8 Cd2 94.3(4) . . ?
C15 O9 Cd1 136.6(5) . 1_545 ?
C16 O10 Cd2 159.7(19) . . ?
O2 C1 O1 124.1(6) . . ?
O2 C1 C2 117.2(5) . . ?
O1 C1 C2 118.7(6) . . ?
C3 C2 C7 120.3(6) . . ?
C3 C2 C1 118.2(6) . . ?
C7 C2 C1 121.5(5) . . ?
C2 C3 C4 120.5(6) . . ?
C5 C4 C3 118.8(5) . . ?
C5 C4 C8 120.2(6) . . ?
C3 C4 C8 121.0(6) . . ?
C4 C5 C6 120.9(6) . . ?
C5 C6 C7 119.9(6) . . ?
C5 C6 C9 118.9(6) . . ?
C7 C6 C9 121.2(5) . . ?
C2 C7 C6 119.4(5) . . ?
O4 C8 O3 121.3(6) . . ?
O4 C8 C4 118.0(6) . . ?
O3 C8 C4 120.6(6) . . ?
O4 C8 Cd2 56.7(3) . 3_664 ?
O3 C8 Cd2 64.7(4) . 3_664 ?
C4 C8 Cd2 173.8(5) . 3_664 ?
O5 C9 O6 121.0(6) . . ?
O5 C9 C6 120.0(6) . . ?
O6 C9 C6 119.0(5) . . ?
O5 C9 Cd1 59.0(3) . 5_557 ?
O6 C9 Cd1 62.0(3) . 5_557 ?
C6 C9 Cd1 179.1(5) . 5_557 ?
O8 C10 O7 121.7(6) . . ?
O8 C10 C11 119.7(6) . . ?
O7 C10 C11 118.6(6) . . ?
C13 C11 C12 119.8(6) . . ?
C13 C11 C10 120.2(5) . . ?
C12 C11 C10 120.0(6) . . ?
C11 C12 C11 119.3(8) 5_657 . ?
C11 C13 C14 120.4(6) . . ?
C13 C14 C13 120.3(8) . 5_657 ?
C13 C14 C15 119.9(4) . . ?
C13 C14 C15 119.9(4) 5_657 . ?
O9 C15 O9 127.8(9) . 5_657 ?
O9 C15 C14 116.1(4) . . ?
O9 C15 C14 116.1(4) 5_657 . ?
O10 C16 N1 154(4) . . ?

_diffrn_measured_fraction_theta_max 0.967
_diffrn_reflns_theta_full        28.14
_diffrn_measured_fraction_theta_full 0.967
_refine_diff_density_max         1.535
_refine_diff_density_min         -0.642
_refine_diff_density_rms         0.226
