
#######################################################################
#
#                 Cambridge Crystallographic Data Centre
#                                CCDC
#
#######################################################################
#
# If this CIF has been generated from an entry in the Cambridge
# Structural Database, then it will include bibliographic, chemical,
# crystal, experimental, refinement or atomic coordinate data resulting
# from the CCDC's data processing and validation procedures.
#
#######################################################################

data_CSD_CIF_CEIMPT
_audit_creation_date 1975-10-10
_audit_creation_method CSD-ConQuest-V1
_database_code_CSD CEIMPT
_database_code_depnum_ccdc_archive 'CCDC 1122581'
_chemical_formula_sum 'C4 H10 Cl2 N2 Pt1'
_chemical_formula_moiety
;
C4 H10 Cl2 N2 Pt1
;
_journal_coeditor_code "IUCr A12174"
_journal_coden_Cambridge 107
_journal_volume 31
_journal_year 1975
_journal_page_first 1435
_journal_name_full 'Acta Crystallogr.,Sect.B:Struct.Crystallogr.Cryst.Chem. '
loop_
_publ_author_name
"J.C.Barnes"
"J.Iball"
"T.J.R.Weakley"
_chemical_name_systematic
;
cis-Dichloro-bis(ethyleneimine) platinum(ii)
;
_chemical_name_common
;
Teaching Subset: Fundamental Chemistry
;
_cell_volume   1655.747
_exptl_crystal_density_diffrn 2.83
_exptl_special_details
;
Z-COORD C2 GIVEN AS .0542 IN TAB 1 SHOULD BE NEGATIVE AND X- COORD OF C2 
GIVEN AS .0032 SHOULD BE .0832
;
_diffrn_ambient_temperature ?
_diffrn_special_details
;
The study was carried out at room temperature,in the range 283-303K

;
#These two values have been output from a single CSD field.
_refine_ls_R_factor_gt 0.083
_refine_ls_wR_factor_gt 0.083
loop_
_citation_database_id_CSD
_citation_special_details
TEIMPT "is a stereoisomer of this entry"
_symmetry_cell_setting orthorhombic
_symmetry_space_group_name_H-M 'P b c a'
_symmetry_Int_Tables_number 61
loop_
_symmetry_equiv_pos_site_id
_symmetry_equiv_pos_as_xyz
1 x,y,z
2 1/2-x,-y,1/2+z
3 1/2+x,1/2-y,-z
4 -x,1/2+y,1/2-z
5 -x,-y,-z
6 -1/2+x,y,-1/2-z
7 -1/2-x,-1/2+y,z
8 x,-1/2-y,-1/2+z
_cell_length_a 16.16(2)
_cell_length_b 9.54(1)
_cell_length_c 10.74(1)
_cell_angle_alpha 90
_cell_angle_beta 90
_cell_angle_gamma 90
_cell_formula_units_Z 8
loop_
_atom_type_symbol
_atom_type_radius_bond
C 0.70
Cl 0.99
N 0.70
Pt 1.50
loop_
_atom_site_label
_atom_site_type_symbol
_atom_site_fract_x
_atom_site_fract_y
_atom_site_fract_z
Cl1 Cl 0.06930 0.02440 0.21730
Cl2 Cl 0.24910 0.02560 0.35560
C1 C 0.06880 0.30070 0.02630
C2 C 0.08320 0.18080 -0.05420
C3 C 0.35080 0.23350 0.04780
C4 C 0.39200 0.17280 0.16620
N1 N 0.15100 0.23860 0.03270
N2 N 0.28880 0.23920 0.16100
Pt1 Pt 0.19310 0.13680 0.18550
#END
