####################################################################### 
# 
# This file contains crystal structure data downloaded from the 
# Cambridge Structural Database (CSD) hosted by the Cambridge 
# Crystallographic Data Centre (CCDC).
# 
# Full information about CCDC data access policies and citation 
# guidelines are available at http://www.ccdc.cam.ac.uk/access/V1 
# 
# Audit and citation data items may have been added by the CCDC. 
# Please retain this information to preserve the provenance of 
# this file and to allow appropriate attribution of the data. 
# 
#######################################################################

data_1a
_audit_block_doi                 10.5517/ccx8jh5
_database_code_depnum_ccdc_archive 'CCDC 842347'
loop_
_citation_id
_citation_doi
_citation_year
1 10.1016/j.jssc.2012.07.018 2012
_audit_update_record             
;
2011-08-31 deposited with the CCDC.	2024-07-09 downloaded from the CCDC.
;
#TrackingRef '- Fans CIF.CIF'

#TrackingRef '- Fans CIF.CIF'


_audit_creation_method           SHELXL-97
_chemical_name_systematic        
;
?
;
_chemical_name_common            ?
_chemical_melting_point          ?
_chemical_formula_moiety         ?
_chemical_formula_sum            'C68 H44 Dy3 N7 O21'
_chemical_formula_weight         1782.60

loop_
_atom_type_symbol
_atom_type_description
_atom_type_scat_dispersion_real
_atom_type_scat_dispersion_imag
_atom_type_scat_source
C C 0.0033 0.0016 'International Tables Vol C Tables 4.2.6.8 and 6.1.1.4'
H H 0.0000 0.0000 'International Tables Vol C Tables 4.2.6.8 and 6.1.1.4'
N N 0.0061 0.0033 'International Tables Vol C Tables 4.2.6.8 and 6.1.1.4'
O O 0.0106 0.0060 'International Tables Vol C Tables 4.2.6.8 and 6.1.1.4'
Dy Dy -0.1892 4.4098 'International Tables Vol C Tables 4.2.6.8 and 6.1.1.4'

_symmetry_cell_setting           Triclinic
_symmetry_space_group_name_H-M   'P-1 '

loop_
_symmetry_equiv_pos_as_xyz
'x, y, z'
'-x, -y, -z'

_cell_length_a                   10.286(2)
_cell_length_b                   19.161(4)
_cell_length_c                   19.787(4)
_cell_angle_alpha                77.52(3)
_cell_angle_beta                 76.72(3)
_cell_angle_gamma                81.02(3)
_cell_volume                     3682.6(13)
_cell_formula_units_Z            2
_cell_measurement_temperature    293(2)
_cell_measurement_reflns_used    35465
_cell_measurement_theta_min      3.01
_cell_measurement_theta_max      27.48

_exptl_crystal_description       block
_exptl_crystal_colour            colorless
_exptl_crystal_size_max          0.10
_exptl_crystal_size_mid          0.10
_exptl_crystal_size_min          0.10
_exptl_crystal_density_meas      ?
_exptl_crystal_density_diffrn    1.608
_exptl_crystal_density_method    'not measured'
_exptl_crystal_F_000             1734
_exptl_absorpt_coefficient_mu    3.086
_exptl_absorpt_correction_type   multi-scan
_exptl_absorpt_correction_T_min  0.7477
_exptl_absorpt_correction_T_max  0.7477
_exptl_absorpt_process_details   ?

_exptl_special_details           
;
?
;

_diffrn_ambient_temperature      293(2)
_diffrn_radiation_wavelength     0.71073
_diffrn_radiation_type           MoK\a
_diffrn_radiation_source         'fine-focus sealed tube'
_diffrn_radiation_monochromator  graphite
_diffrn_measurement_device_type  'Bruker Smart APEX CCD area detector'
_diffrn_measurement_method       'phi and omega scans'
_diffrn_detector_area_resol_mean ?
_diffrn_standards_number         0
_diffrn_standards_interval_count 0
_diffrn_standards_interval_time  0
_diffrn_standards_decay_%        0
_diffrn_reflns_number            35465
_diffrn_reflns_av_R_equivalents  0.0361
_diffrn_reflns_av_sigmaI/netI    0.0496
_diffrn_reflns_limit_h_min       -13
_diffrn_reflns_limit_h_max       13
_diffrn_reflns_limit_k_min       -24
_diffrn_reflns_limit_k_max       24
_diffrn_reflns_limit_l_min       -25
_diffrn_reflns_limit_l_max       25
_diffrn_reflns_theta_min         3.01
_diffrn_reflns_theta_max         27.48
_reflns_number_total             16460
_reflns_number_gt                13883
_reflns_threshold_expression     >2sigma(I)

_computing_data_collection       'Bruker SMART'
_computing_cell_refinement       'Bruker SMART'
_computing_data_reduction        'Bruker SAINT'
_computing_structure_solution    'SHELXS-97 (Sheldrick, 1997)'
_computing_structure_refinement  'SHELXL-97 (Sheldrick, 1997)'
_computing_molecular_graphics    SHELXP-97
_computing_publication_material  SHELXTL

_refine_special_details          
;
Refinement of F^2^ against ALL reflections. The weighted R-factor wR and
goodness of fit S are based on F^2^, conventional R-factors R are based
on F, with F set to zero for negative F^2^. The threshold expression of
F^2^ > 2sigma(F^2^) is used only for calculating R-factors(gt) etc. and is
not relevant to the choice of reflections for refinement. R-factors based
on F^2^ are statistically about twice as large as those based on F, and R-
factors based on ALL data will be even larger.
;

_refine_ls_structure_factor_coef Fsqd
_refine_ls_matrix_type           full
_refine_ls_weighting_scheme      calc
_refine_ls_weighting_details     
'calc w=1/[\s^2^(Fo^2^)+(0.0443P)^2^+17.9631P] where P=(Fo^2^+2Fc^2^)/3'
_atom_sites_solution_primary     direct
_atom_sites_solution_secondary   difmap
_atom_sites_solution_hydrogens   geom
_refine_ls_hydrogen_treatment    mixed
_refine_ls_extinction_method     none
_refine_ls_extinction_coef       ?
_refine_ls_number_reflns         16460
_refine_ls_number_parameters     899
_refine_ls_number_restraints     24
_refine_ls_R_factor_all          0.0503
_refine_ls_R_factor_gt           0.0394
_refine_ls_wR_factor_ref         0.1144
_refine_ls_wR_factor_gt          0.1039
_refine_ls_goodness_of_fit_ref   1.091
_refine_ls_restrained_S_all      1.091
_refine_ls_shift/su_max          0.061
_refine_ls_shift/su_mean         0.001

loop_
_atom_site_label
_atom_site_type_symbol
_atom_site_fract_x
_atom_site_fract_y
_atom_site_fract_z
_atom_site_U_iso_or_equiv
_atom_site_adp_type
_atom_site_occupancy
_atom_site_symmetry_multiplicity
_atom_site_calc_flag
_atom_site_refinement_flags
_atom_site_disorder_assembly
_atom_site_disorder_group
Dy1 Dy 0.632997(13) 0.058325(7) 0.428431(8) 0.01969(3) Uani 1 1 d . . .
Dy2 Dy 0.183917(14) 0.519360(7) 0.432388(7) 0.01982(3) Uani 1 1 d . . .
Dy3 Dy -0.148438(13) 0.580028(8) 0.961409(7) 0.02136(3) Uani 1 1 d . . .
O1 O 0.8660(2) 0.01045(14) 0.43766(13) 0.0348(7) Uani 1 1 d . . .
O2 O 0.8150(2) 0.02828(13) 0.33312(13) 0.0315(6) Uani 1 1 d . . .
O3 O 0.4822(2) 0.02109(14) 0.37390(13) 0.0331(6) Uani 1 1 d . . .
O4 O 0.6456(2) 0.05436(12) 0.54460(12) 0.0290(6) Uani 1 1 d . . .
O5 O 0.4699(2) 0.15893(13) 0.45440(14) 0.0358(7) Uani 1 1 d . . .
O6 O 0.6130(2) -0.06112(11) 0.48239(14) 0.0318(6) Uani 1 1 d . . .
O7 O 0.1881(3) 0.39499(13) 0.47162(15) 0.0441(8) Uani 1 1 d . . .
O8 O 0.0054(3) 0.60331(14) 0.45133(15) 0.0448(7) Uani 1 1 d . . .
O9 O 0.1636(3) 0.51193(14) 0.55120(12) 0.0374(7) Uani 1 1 d . . .
O10 O 0.0333(2) 0.49048(14) 0.37365(12) 0.0337(6) Uani 1 1 d . . .
O11 O -0.1462(3) 0.55527(16) 1.08046(13) 0.0434(8) Uani 1 1 d . . .
O12 O 0.0126(3) 0.53643(14) 0.87232(13) 0.0383(7) Uani 1 1 d . . .
O13 O -0.1594(2) 0.45763(13) 0.98797(15) 0.0401(7) Uani 1 1 d . . .
O14 O 0.0239(2) 0.63720(14) 0.97212(14) 0.0390(7) Uani 1 1 d . . .
O15 O -0.3137(2) 0.68164(14) 0.98776(15) 0.0400(7) Uani 1 1 d . . .
O16 O -0.3823(2) 0.57403(14) 1.01789(14) 0.0375(7) Uani 1 1 d . . .
O17 O 0.4171(3) 0.47037(16) 0.44751(16) 0.0545(8) Uani 1 1 d . . .
O18 O 0.3600(3) 0.4679(2) 0.35107(15) 0.0644(11) Uani 1 1 d . . .
O19 O 0.5457(3) 0.4068(2) 0.3739(2) 0.0842(13) Uani 1 1 d . . .
N1 N 0.2204(3) 0.60777(18) 0.31417(16) 0.0397(9) Uani 1 1 d . . .
N2 N 0.3040(3) 0.62726(16) 0.42822(17) 0.0352(8) Uani 1 1 d . . .
N3 N 0.7681(3) 0.16252(16) 0.41506(19) 0.0435(9) Uani 1 1 d . . .
N4 N 0.6303(3) 0.15360(17) 0.31423(17) 0.0404(9) Uani 1 1 d . . .
N5 N -0.1234(3) 0.68900(16) 0.85502(15) 0.0335(8) Uani 1 1 d . . .
N6 N -0.2830(3) 0.58518(16) 0.86854(15) 0.0353(8) Uani 1 1 d . . .
N7 N 0.4445(3) 0.4481(2) 0.39099(19) 0.0479(10) Uani 1 1 d . . .
C1 C 1.0489(3) 0.00614(17) 0.33941(17) 0.0267(8) Uani 1 1 d . . .
C2 C 1.1435(3) -0.00083(17) 0.38103(18) 0.0267(8) Uani 1 1 d . . .
H2A H 1.1158 -0.0035 0.4296 0.032 Uiso 1 1 calc R . .
C3 C 1.2800(3) -0.00390(17) 0.35027(17) 0.0257(8) Uani 1 1 d . . .
C4 C 1.3193(3) -0.0004(2) 0.27819(19) 0.0358(10) Uani 1 1 d . . .
H4A H 1.4099 -0.0003 0.2570 0.043 Uiso 1 1 calc R . .
C5 C 1.2258(4) 0.0031(2) 0.23726(19) 0.0414(11) Uani 1 1 d . . .
H5A H 1.2540 0.0034 0.1891 0.050 Uiso 1 1 calc R . .
C6 C 1.0905(3) 0.0060(2) 0.26754(19) 0.0335(9) Uani 1 1 d . . .
H6B H 1.0276 0.0079 0.2399 0.040 Uiso 1 1 calc R . .
C7 C 0.9020(3) 0.01490(17) 0.37275(18) 0.0270(8) Uani 1 1 d . . .
C8 C 0.6191(3) 0.01349(18) 0.60281(17) 0.0277(8) Uani 1 1 d . . .
C9 C 0.2738(3) 0.17406(16) 0.54128(18) 0.0277(8) Uani 1 1 d . . .
C10 C 0.2432(3) 0.24651(16) 0.51411(18) 0.0252(8) Uani 1 1 d . . .
H10B H 0.2934 0.2674 0.4711 0.030 Uiso 1 1 calc R . .
C11 C 0.1397(3) 0.28778(17) 0.5499(2) 0.0317(9) Uani 1 1 d . . .
C12 C 0.0650(4) 0.2568(2) 0.6142(3) 0.0524(13) Uani 1 1 d . . .
H12A H -0.0050 0.2845 0.6387 0.063 Uiso 1 1 calc R . .
C13 C 0.0948(6) 0.1850(2) 0.6419(3) 0.0701(17) Uani 1 1 d . . .
H13A H 0.0438 0.1643 0.6847 0.084 Uiso 1 1 calc R . .
C14 C 0.1999(5) 0.14360(19) 0.6066(2) 0.0475(12) Uani 1 1 d . . .
H14B H 0.2214 0.0957 0.6263 0.057 Uiso 1 1 calc R . .
C15 C 0.3828(3) 0.12935(16) 0.50161(18) 0.0260(8) Uani 1 1 d . . .
C16 C 0.1049(3) 0.36532(17) 0.5212(2) 0.0324(8) Uani 1 1 d . . .
C17 C 0.1653(3) 0.48024(18) 0.67237(16) 0.0271(8) Uani 1 1 d . . .
C18 C 0.1040(3) 0.49159(16) 0.73941(15) 0.0221(7) Uani 1 1 d . . .
H18A H 0.0166 0.5143 0.7470 0.026 Uiso 1 1 calc R . .
C19 C 0.1691(3) 0.47004(17) 0.79600(16) 0.0258(8) Uani 1 1 d . . .
C20 C 0.2972(4) 0.4355(2) 0.7845(2) 0.0425(11) Uani 1 1 d . . .
H20A H 0.3411 0.4193 0.8221 0.051 Uiso 1 1 calc R . .
C21 C 0.3623(4) 0.4244(3) 0.7169(2) 0.0544(13) Uani 1 1 d . . .
H21A H 0.4495 0.4014 0.7094 0.065 Uiso 1 1 calc R . .
C22 C 0.2967(4) 0.4477(3) 0.66103(19) 0.0454(12) Uani 1 1 d . . .
H22A H 0.3407 0.4415 0.6157 0.054 Uiso 1 1 calc R . .
C23 C 0.0923(3) 0.50234(17) 0.61227(16) 0.0280(8) Uani 1 1 d . . .
C24 C 0.1042(3) 0.48496(18) 0.86803(16) 0.0275(8) Uani 1 1 d . . .
C25 C -0.2278(3) 0.34212(17) 1.00333(16) 0.0250(7) Uani 1 1 d . . .
C26 C -0.3604(3) 0.36945(19) 1.00144(17) 0.0288(8) Uani 1 1 d . . .
H26A H -0.3885 0.4177 1.0031 0.035 Uiso 1 1 calc R . .
C27 C -0.4506(3) 0.32508(19) 0.99708(17) 0.0294(8) Uani 1 1 d . . .
C28 C -0.4113(4) 0.2539(2) 0.9952(2) 0.0396(10) Uani 1 1 d . . .
H28A H -0.4730 0.2245 0.9924 0.048 Uiso 1 1 calc R . .
C29 C -0.2785(4) 0.2254(2) 0.9976(2) 0.0408(10) Uani 1 1 d . . .
H29A H -0.2514 0.1770 0.9962 0.049 Uiso 1 1 calc R . .
C30 C -0.1875(3) 0.2696(2) 1.0019(2) 0.0360(9) Uani 1 1 d . . .
H30A H -0.0991 0.2508 1.0039 0.043 Uiso 1 1 calc R . .
C31 C -0.1300(3) 0.39125(17) 1.00640(17) 0.0270(8) Uani 1 1 d . . .
C32 C -0.4073(3) 0.6420(2) 1.00429(18) 0.0323(9) Uani 1 1 d . . .
C33 C 0.8399(4) 0.1651(2) 0.4622(3) 0.0612(14) Uani 1 1 d . . .
H33A H 0.8408 0.1274 0.5007 0.073 Uiso 1 1 calc R . .
C34 C 0.9148(5) 0.2227(3) 0.4563(3) 0.0838(18) Uani 1 1 d . . .
H34A H 0.9642 0.2233 0.4900 0.101 Uiso 1 1 calc R . .
C35 C 0.9123(6) 0.2768(3) 0.4001(3) 0.0801(5) Uani 1 1 d U . .
H35A H 0.9613 0.3151 0.3954 0.096 Uiso 1 1 calc R . .
C36 C 0.8403(5) 0.2773(2) 0.3497(3) 0.0768(19) Uani 1 1 d . . .
C37 C 0.7679(4) 0.2170(2) 0.3587(3) 0.0525(13) Uani 1 1 d . . .
C38 C 0.8319(6) 0.3320(3) 0.2810(3) 0.0743(5) Uani 1 1 d U . .
H38A H 0.8727 0.3737 0.2739 0.089 Uiso 1 1 calc R . .
C39 C 0.7767(6) 0.3251(4) 0.2356(4) 0.0855(5) Uani 1 1 d U . .
H39A H 0.7808 0.3616 0.1958 0.103 Uiso 1 1 calc R . .
C40 C 0.7036(5) 0.2646(2) 0.2375(3) 0.0765(18) Uani 1 1 d . . .
C41 C 0.6399(6) 0.2539(3) 0.1892(3) 0.0796(5) Uani 1 1 d U . .
H41A H 0.6403 0.2878 0.1477 0.096 Uiso 1 1 calc R . .
C42 C 0.5771(6) 0.1970(3) 0.1991(3) 0.080(2) Uani 1 1 d . . .
H42A H 0.5363 0.1896 0.1642 0.096 Uiso 1 1 calc R . .
C43 C 0.5720(5) 0.1474(3) 0.2629(2) 0.0554(14) Uani 1 1 d . . .
H43A H 0.5251 0.1078 0.2697 0.067 Uiso 1 1 calc R . .
C44 C 0.6986(4) 0.2120(2) 0.3049(3) 0.0543(14) Uani 1 1 d . . .
C45 C 0.3539(4) 0.6350(2) 0.4811(2) 0.0514(12) Uani 1 1 d . . .
H45A H 0.3505 0.5978 0.5202 0.062 Uiso 1 1 calc R . .
C46 C 0.4121(5) 0.6961(3) 0.4820(3) 0.0712(14) Uani 1 1 d . . .
H46A H 0.4503 0.6982 0.5197 0.085 Uiso 1 1 calc R . .
C47 C 0.4113(6) 0.7519(3) 0.4270(3) 0.0793(17) Uani 1 1 d . . .
H47A H 0.4454 0.7939 0.4276 0.095 Uiso 1 1 calc R . .
C48 C 0.3604(5) 0.7466(2) 0.3702(3) 0.0630(16) Uani 1 1 d . . .
C49 C 0.3104(4) 0.68143(19) 0.3713(2) 0.0401(11) Uani 1 1 d . . .
C50 C 0.3543(8) 0.8016(3) 0.3078(5) 0.122(3) Uani 1 1 d . . .
H50A H 0.3813 0.8460 0.3069 0.147 Uiso 1 1 calc R . .
C51 C 0.3132(9) 0.7932(3) 0.2523(4) 0.115(3) Uani 1 1 d . . .
H51A H 0.3124 0.8308 0.2137 0.138 Uiso 1 1 calc R . .
C52 C 0.2702(6) 0.7270(3) 0.2507(3) 0.0747(18) Uani 1 1 d . . .
C53 C 0.2331(8) 0.7137(4) 0.1935(3) 0.102(3) Uani 1 1 d . . .
H53A H 0.2346 0.7493 0.1532 0.122 Uiso 1 1 calc R . .
C54 C 0.1937(7) 0.6489(4) 0.1945(3) 0.099(3) Uani 1 1 d . . .
H54A H 0.1705 0.6394 0.1549 0.119 Uiso 1 1 calc R . .
C55 C 0.1888(5) 0.5960(3) 0.2569(2) 0.0644(16) Uani 1 1 d . . .
H55A H 0.1624 0.5516 0.2576 0.077 Uiso 1 1 calc R . .
C56 C 0.2639(4) 0.6714(2) 0.3111(2) 0.0450(12) Uani 1 1 d . . .
C57 C -0.0534(4) 0.7436(2) 0.8500(2) 0.0413(10) Uani 1 1 d . . .
H57A H -0.0064 0.7423 0.8853 0.050 Uiso 1 1 calc R . .
C58 C -0.0474(5) 0.8026(2) 0.7943(3) 0.0562(14) Uani 1 1 d . . .
H58A H 0.0035 0.8393 0.7926 0.067 Uiso 1 1 calc R . .
C59 C -0.1170(5) 0.8060(3) 0.7425(3) 0.0588(15) Uani 1 1 d . . .
H59A H -0.1148 0.8455 0.7055 0.071 Uiso 1 1 calc R . .
C60 C -0.1916(4) 0.7502(2) 0.7449(2) 0.0451(12) Uani 1 1 d . . .
C61 C -0.1941(3) 0.6927(2) 0.80359(18) 0.0342(9) Uani 1 1 d . . .
C62 C -0.2678(5) 0.7492(3) 0.6924(2) 0.0558(14) Uani 1 1 d . . .
H62A H -0.2612 0.7850 0.6521 0.067 Uiso 1 1 calc R . .
C63 C -0.3475(5) 0.6982(3) 0.7004(2) 0.0567(14) Uani 1 1 d . . .
H63A H -0.3974 0.6998 0.6663 0.068 Uiso 1 1 calc R . .
C64 C -0.3573(4) 0.6408(2) 0.76075(19) 0.0413(10) Uani 1 1 d . . .
C65 C -0.4499(4) 0.5906(2) 0.7748(2) 0.0453(10) Uani 1 1 d . . .
H65A H -0.5066 0.5929 0.7438 0.054 Uiso 1 1 calc R . .
C66 C -0.4565(4) 0.5393(3) 0.8330(2) 0.0559(12) Uani 1 1 d . . .
H66A H -0.5186 0.5061 0.8433 0.067 Uiso 1 1 calc R . .
C67 C -0.3686(4) 0.5366(2) 0.8778(2) 0.0504(11) Uani 1 1 d . . .
H67A H -0.3696 0.4989 0.9164 0.060 Uiso 1 1 calc R . .
C68 C -0.2780(4) 0.6372(2) 0.81048(18) 0.0339(9) Uani 1 1 d . . .
OW1 O -0.207(2) 0.7605(13) 0.1671(12) 0.294(12) Uiso 0.50 1 d P . .
HW1A H -0.2599 0.7989 0.1592 0.441 Uiso 0.50 1 d PR . .
HW1B H -0.1292 0.7665 0.1424 0.441 Uiso 0.50 1 d PR . .
OW2 O -0.3246(16) 0.8454(9) 0.9340(9) 0.191(7) Uiso 0.50 1 d P . .
HW2A H -0.3588 0.8542 0.9751 0.286 Uiso 0.50 1 d PR . .
HW2B H -0.2626 0.8721 0.9142 0.286 Uiso 0.50 1 d PR . .
OW3 O 0.390(2) 0.9138(12) 0.0673(11) 0.121(7) Uiso 0.25 1 d P . .
HW3A H 0.3705 0.9593 0.0592 0.182 Uiso 0.25 1 d PR . .
HW3B H 0.4741 0.9034 0.0557 0.182 Uiso 0.25 1 d PR . .
OW4 O 0.829(2) 0.0371(14) 0.1385(13) 0.144(9) Uiso 0.25 1 d P . .
HW4A H 0.8734 0.0723 0.1175 0.216 Uiso 0.25 1 d PR . .
HW4B H 0.8799 -0.0021 0.1358 0.216 Uiso 0.25 1 d PR . .
OW5 O 0.748(3) -0.0204(17) 0.1936(16) 0.182(12) Uiso 0.25 1 d P . .
HW5A H 0.7137 -0.0590 0.1971 0.272 Uiso 0.25 1 d PR . .
HW5B H 0.7161 0.0124 0.1634 0.272 Uiso 0.25 1 d PR . .
OW6 O 0.140(2) 0.9480(13) 0.0843(12) 0.130(8) Uiso 0.25 1 d P . .
HW6A H 0.1090 0.9922 0.0787 0.195 Uiso 0.25 1 d PR . .
HW6B H 0.2243 0.9442 0.0677 0.195 Uiso 0.25 1 d PR . .

loop_
_atom_site_aniso_label
_atom_site_aniso_U_11
_atom_site_aniso_U_22
_atom_site_aniso_U_33
_atom_site_aniso_U_23
_atom_site_aniso_U_13
_atom_site_aniso_U_12
Dy1 0.01349(5) 0.01602(6) 0.02743(7) -0.00069(5) -0.00346(5) -0.00107(5)
Dy2 0.02182(6) 0.01939(6) 0.01690(6) -0.00371(5) -0.00413(5) 0.00249(5)
Dy3 0.01826(6) 0.02716(6) 0.01885(6) 0.00016(5) -0.00792(5) -0.00323(5)
O1 0.0206(10) 0.0508(14) 0.0289(12) -0.0049(11) -0.0028(9) 0.0013(10)
O2 0.0192(9) 0.0357(12) 0.0382(12) -0.0040(10) -0.0099(9) 0.0027(9)
O3 0.0183(9) 0.0475(13) 0.0322(12) -0.0005(10) -0.0041(9) -0.0111(9)
O4 0.0239(10) 0.0308(11) 0.0328(11) -0.0036(9) -0.0063(9) -0.0075(9)
O5 0.0289(11) 0.0233(11) 0.0472(14) 0.0003(10) -0.0009(11) 0.0015(10)
O6 0.0312(11) 0.0102(9) 0.0536(14) -0.0047(9) -0.0145(10) 0.0059(8)
O7 0.0502(15) 0.0214(11) 0.0541(16) -0.0033(11) -0.0081(13) 0.0074(11)
O8 0.0392(13) 0.0351(12) 0.0643(15) -0.0256(11) -0.0188(12) 0.0185(11)
O9 0.0465(13) 0.0497(14) 0.0162(10) -0.0086(10) -0.0027(10) -0.0080(12)
O10 0.0321(11) 0.0456(13) 0.0295(10) -0.0137(9) -0.0138(9) -0.0019(10)
O11 0.0434(13) 0.0652(17) 0.0198(11) 0.0024(11) -0.0115(10) -0.0075(13)
O12 0.0491(14) 0.0390(13) 0.0218(11) -0.0082(10) 0.0006(11) 0.0019(12)
O13 0.0344(12) 0.0262(11) 0.0562(16) -0.0002(11) -0.0067(12) -0.0068(10)
O14 0.0312(10) 0.0461(14) 0.0432(13) 0.0041(11) -0.0206(10) -0.0129(10)
O15 0.0228(10) 0.0450(13) 0.0539(15) -0.0066(12) -0.0092(11) -0.0104(10)
O16 0.0230(10) 0.0404(13) 0.0453(14) 0.0056(11) -0.0100(10) -0.0062(10)
O17 0.0408(13) 0.0670(16) 0.0694(15) -0.0406(13) -0.0257(12) 0.0132(13)
O18 0.0384(1