####################################################################### 
# 
# This file contains crystal structure data downloaded from the 
# Cambridge Structural Database (CSD) hosted by the Cambridge 
# Crystallographic Data Centre (CCDC).
# 
# Full information about CCDC data access policies and citation 
# guidelines are available at http://www.ccdc.cam.ac.uk/access/V1 
# 
# Audit and citation data items may have been added by the CCDC. 
# Please retain this information to preserve the provenance of 
# this file and to allow appropriate attribution of the data. 
# 
#######################################################################

data_ql1
_audit_block_doi                 10.5517/ccz24w1
_database_code_depnum_ccdc_archive 'CCDC 895803'
loop_
_citation_id
_citation_doi
_citation_year
1 10.1039/c2cc36003a 2012
_audit_update_record             
;
2012-08-12 deposited with the CCDC.	2024-07-09 downloaded from the CCDC.
;
#TrackingRef '- 2.cif'


_audit_creation_method           SHELXL-97
_chemical_name_systematic        
;
?
;
_chemical_name_common            ?
_chemical_melting_point          ?
_chemical_formula_moiety         'C127 H117 Co5 N15 O26'
_chemical_formula_sum            'C127 H117 Co5 N15 O26'
_chemical_formula_weight         2564.04

loop_
_atom_type_symbol
_atom_type_description
_atom_type_scat_dispersion_real
_atom_type_scat_dispersion_imag
_atom_type_scat_source
C C 0.0033 0.0016 'International Tables Vol C Tables 4.2.6.8 and 6.1.1.4'
H H 0.0000 0.0000 'International Tables Vol C Tables 4.2.6.8 and 6.1.1.4'
N N 0.0061 0.0033 'International Tables Vol C Tables 4.2.6.8 and 6.1.1.4'
O O 0.0106 0.0060 'International Tables Vol C Tables 4.2.6.8 and 6.1.1.4'
Co Co 0.3494 0.9721 'International Tables Vol C Tables 4.2.6.8 and 6.1.1.4'

_symmetry_cell_setting           Monoclinic
_symmetry_space_group_name_H-M   'C2/c '
_symmetry_space_group_name_hall  ' -C 2yc'

loop_
_symmetry_equiv_pos_as_xyz
'x, y, z'
'-x, y, -z+1/2'
'x+1/2, y+1/2, z'
'-x+1/2, y+1/2, -z+1/2'
'-x, -y, -z'
'x, -y, z-1/2'
'-x+1/2, -y+1/2, -z'
'x+1/2, -y+1/2, z-1/2'

_cell_length_a                   27.4499(17)
_cell_length_b                   17.0811(10)
_cell_length_c                   29.4964(18)
_cell_angle_alpha                90.00
_cell_angle_beta                 108.5660(10)
_cell_angle_gamma                90.00
_cell_volume                     13110.4(14)
_cell_formula_units_Z            4
_cell_measurement_temperature    296(2)
_cell_measurement_reflns_used    9429
_cell_measurement_theta_min      2.208
_cell_measurement_theta_max      26.364

_exptl_crystal_description       block
_exptl_crystal_colour            pink
_exptl_crystal_size_max          0.28
_exptl_crystal_size_mid          0.24
_exptl_crystal_size_min          0.22
_exptl_crystal_density_meas      ?
_exptl_crystal_density_diffrn    1.299
_exptl_crystal_density_method    'not measured'
_exptl_crystal_F_000             5312
_exptl_absorpt_coefficient_mu    0.693
_exptl_absorpt_correction_type   multi-scan
_exptl_absorpt_correction_T_min  0.8326
_exptl_absorpt_correction_T_max  0.8649
_exptl_absorpt_process_details   sadabs

_exptl_special_details           
;
?
;

_diffrn_ambient_temperature      296(2)
_diffrn_radiation_wavelength     0.71073
_diffrn_radiation_type           MoK\a
_diffrn_radiation_source         'fine-focus sealed tube'
_diffrn_radiation_monochromator  graphite
_diffrn_measurement_device_type  'Bruker Apex Smart CCD'
_diffrn_measurement_method       'phi and omega scans'
_diffrn_detector_area_resol_mean ?
_diffrn_standards_number         ?
_diffrn_standards_interval_count ?
_diffrn_standards_interval_time  ?
_diffrn_standards_decay_%        ?
_diffrn_reflns_number            58499
_diffrn_reflns_av_R_equivalents  0.0619
_diffrn_reflns_av_sigmaI/netI    0.0555
_diffrn_reflns_limit_h_min       -35
_diffrn_reflns_limit_h_max       34
_diffrn_reflns_limit_k_min       -21
_diffrn_reflns_limit_k_max       22
_diffrn_reflns_limit_l_min       -31
_diffrn_reflns_limit_l_max       38
_diffrn_reflns_theta_min         1.43
_diffrn_reflns_theta_max         27.53
_reflns_number_total             14987
_reflns_number_gt                10940
_reflns_threshold_expression     >2sigma(I)

_computing_data_collection       'Bruker SMART'
_computing_cell_refinement       'Bruker SMART'
_computing_data_reduction        'Bruker SAINT'
_computing_structure_solution    'SHELXS-97 (Sheldrick, 1990)'
_computing_structure_refinement  'SHELXL-97 (Sheldrick, 1997)'
_computing_molecular_graphics    'Bruker SHELXTL'
_computing_publication_material  'Bruker SHELXTL'

_refine_special_details          
;
Refinement of F^2^ against ALL reflections. The weighted R-factor wR and
goodness of fit S are based on F^2^, conventional R-factors R are based
on F, with F set to zero for negative F^2^. The threshold expression of
F^2^ > 2sigma(F^2^) is used only for calculating R-factors(gt) etc. and is
not relevant to the choice of reflections for refinement. R-factors based
on F^2^ are statistically about twice as large as those based on F, and R-
factors based on ALL data will be even larger.
;

_refine_ls_structure_factor_coef Fsqd
_refine_ls_matrix_type           full
_refine_ls_weighting_scheme      calc
_refine_ls_weighting_details     
'calc w=1/[\s^2^(Fo^2^)+(0.0631P)^2^+0.0000P] where P=(Fo^2^+2Fc^2^)/3'
_atom_sites_solution_primary     direct
_atom_sites_solution_secondary   difmap
_atom_sites_solution_hydrogens   geom
_refine_ls_hydrogen_treatment    constra
_refine_ls_extinction_method     none
_refine_ls_extinction_coef       ?
_refine_ls_number_reflns         14987
_refine_ls_number_parameters     669
_refine_ls_number_restraints     0
_refine_ls_R_factor_all          0.0612
_refine_ls_R_factor_gt           0.0426
_refine_ls_wR_factor_ref         0.1196
_refine_ls_wR_factor_gt          0.1125
_refine_ls_goodness_of_fit_ref   1.021
_refine_ls_restrained_S_all      1.021
_refine_ls_shift/su_max          0.003
_refine_ls_shift/su_mean         0.000

loop_
_atom_site_label
_atom_site_type_symbol
_atom_site_fract_x
_atom_site_fract_y
_atom_site_fract_z
_atom_site_U_iso_or_equiv
_atom_site_adp_type
_atom_site_occupancy
_atom_site_symmetry_multiplicity
_atom_site_calc_flag
_atom_site_refinement_flags
_atom_site_disorder_assembly
_atom_site_disorder_group
C1 C 0.88268(9) 0.80089(15) 0.88245(8) 0.0361(6) Uani 1 1 d . . .
H1 H 0.8686 0.8488 0.8866 0.043 Uiso 1 1 calc R . .
C2 C 0.86675(9) 0.76720(15) 0.83769(9) 0.0412(6) Uani 1 1 d . . .
H2 H 0.8425 0.7922 0.8124 0.049 Uiso 1 1 calc R . .
C3 C 0.88705(9) 0.69605(15) 0.83059(8) 0.0351(5) Uani 1 1 d . . .
C4 C 0.92141(9) 0.66024(14) 0.87024(8) 0.0366(6) Uani 1 1 d . . .
H4 H 0.9351 0.6114 0.8674 0.044 Uiso 1 1 calc R . .
C5 C 0.93504(9) 0.69759(14) 0.91381(8) 0.0338(5) Uani 1 1 d . . .
H5 H 0.9577 0.6724 0.9401 0.041 Uiso 1 1 calc R . .
C6 C 0.87329(9) 0.65717(15) 0.78348(8) 0.0373(6) Uani 1 1 d . . .
C7 C 0.82273(10) 0.65530(16) 0.75376(9) 0.0460(7) Uani 1 1 d . . .
H7 H 0.7977 0.6833 0.7620 0.055 Uiso 1 1 calc R . .
C8 C 0.80913(9) 0.61183(15) 0.71165(9) 0.0403(6) Uani 1 1 d . . .
C9 C 0.84628(9) 0.57115(14) 0.69887(8) 0.0380(6) Uani 1 1 d . . .
H9 H 0.8374 0.5410 0.6712 0.046 Uiso 1 1 calc R . .
C10 C 0.89696(9) 0.57600(13) 0.72799(8) 0.0319(5) Uani 1 1 d . . .
C11 C 0.91069(9) 0.61756(14) 0.76972(8) 0.0350(5) Uani 1 1 d . . .
H11 H 0.9449 0.6194 0.7889 0.042 Uiso 1 1 calc R . .
C12 C 0.75422(9) 0.60948(15) 0.68136(9) 0.0415(6) Uani 1 1 d . . .
C13 C 0.72847(10) 0.67693(16) 0.66286(10) 0.0521(7) Uani 1 1 d . . .
H13 H 0.7453 0.7250 0.6689 0.062 Uiso 1 1 calc R . .
C14 C 0.67781(10) 0.67308(16) 0.63539(10) 0.0484(7) Uani 1 1 d . . .
H14 H 0.6612 0.7195 0.6229 0.058 Uiso 1 1 calc R . .
C15 C 0.67594(10) 0.54267(16) 0.64433(10) 0.0486(7) Uani 1 1 d . . .
H15 H 0.6579 0.4956 0.6391 0.058 Uiso 1 1 calc R . .
C16 C 0.72695(11) 0.54112(16) 0.67103(10) 0.0559(8) Uani 1 1 d . . .
H16 H 0.7430 0.4937 0.6821 0.067 Uiso 1 1 calc R . .
C17 C 0.93204(9) 0.45961(13) 0.70976(8) 0.0325(5) Uani 1 1 d . . .
C18 C 0.92964(10) 0.42802(14) 0.66632(8) 0.0364(5) Uani 1 1 d . . .
H18 H 0.9292 0.4605 0.6409 0.044 Uiso 1 1 calc R . .
C19 C 0.92791(10) 0.34720(14) 0.66065(8) 0.0365(6) Uani 1 1 d . . .
C20 C 0.92897(10) 0.30009(15) 0.69929(8) 0.0389(6) Uani 1 1 d . . .
H20 H 0.9272 0.2460 0.6955 0.047 Uiso 1 1 calc R . .
C21 C 0.93263(10) 0.33210(14) 0.74348(8) 0.0362(5) Uani 1 1 d . . .
C22 C 0.93372(9) 0.41323(14) 0.74830(8) 0.0357(5) Uani 1 1 d . . .
H22 H 0.9356 0.4359 0.7775 0.043 Uiso 1 1 calc R . .
C23 C 0.92704(10) 0.31230(14) 0.61434(8) 0.0385(6) Uani 1 1 d . . .
C24 C 0.95377(12) 0.34673(16) 0.58681(10) 0.0513(7) Uani 1 1 d . . .
H24 H 0.9696 0.3951 0.5955 0.062 Uiso 1 1 calc R . .
C25 C 0.95679(12) 0.30919(15) 0.54664(9) 0.0473(7) Uani 1 1 d . . .
H25 H 0.9757 0.3328 0.5292 0.057 Uiso 1 1 calc R . .
C26 C 0.90601(11) 0.21039(16) 0.55653(9) 0.0428(6) Uani 1 1 d . . .
H26 H 0.8883 0.1641 0.5457 0.051 Uiso 1 1 calc R . .
C27 C 0.90174(11) 0.24321(16) 0.59724(9) 0.0469(7) Uani 1 1 d . . .
H27 H 0.8818 0.2191 0.6135 0.056 Uiso 1 1 calc R . .
C28 C 0.93611(10) 0.28081(14) 0.78553(8) 0.0366(5) Uani 1 1 d . . .
C29 C 0.94918(14) 0.20290(18) 0.78742(10) 0.0620(9) Uani 1 1 d . . .
H29 H 0.9570 0.1805 0.7618 0.074 Uiso 1 1 calc R . .
C30 C 0.95088(14) 0.15747(17) 0.82625(10) 0.0595(9) Uani 1 1 d . . .
H30 H 0.9591 0.1048 0.8255 0.071 Uiso 1 1 calc R . .
C31 C 0.93177(13) 0.26077(16) 0.86399(9) 0.0559(8) Uani 1 1 d . . .
H31 H 0.9268 0.2827 0.8911 0.067 Uiso 1 1 calc R . .
C32 C 0.92853(14) 0.30952(17) 0.82609(9) 0.0566(8) Uani 1 1 d . . .
H32 H 0.9211 0.3623 0.8280 0.068 Uiso 1 1 calc R . .
C33 C 0.88507(8) 0.97300(13) 0.97280(7) 0.0247(4) Uani 1 1 d . . .
C34 C 0.83037(8) 0.99684(13) 0.96523(8) 0.0299(5) Uani 1 1 d . . .
C35 C 0.81631(9) 1.07446(15) 0.96622(9) 0.0384(6) Uani 1 1 d . . .
H35 H 0.8414 1.1132 0.9742 0.046 Uiso 1 1 calc R . .
C36 C 0.76510(10) 1.09471(16) 0.95544(10) 0.0480(7) Uani 1 1 d . . .
H36 H 0.7557 1.1469 0.9558 0.058 Uiso 1 1 calc R . .
C37 C 0.72859(9) 1.03754(17) 0.94424(10) 0.0473(7) Uani 1 1 d . . .
C38 C 0.74142(10) 0.96030(17) 0.94332(11) 0.0519(7) Uani 1 1 d . . .
H38 H 0.7160 0.9220 0.9356 0.062 Uiso 1 1 calc R . .
C39 C 0.79235(9) 0.93994(15) 0.95401(10) 0.0447(6) Uani 1 1 d . . .
H39 H 0.8014 0.8875 0.9537 0.054 Uiso 1 1 calc R . .
C40 C 0.65424(9) 1.10795(16) 0.94990(10) 0.0440(7) Uani 1 1 d . . .
C41 C 0.67603(10) 1.13934(19) 0.99495(10) 0.0547(8) Uani 1 1 d . . .
H41 H 0.7094 1.1259 1.0129 0.066 Uiso 1 1 calc R . .
C42 C 0.64846(9) 1.19038(16) 1.01339(9) 0.0436(6) Uani 1 1 d . . .
H42 H 0.6637 1.2120 1.0435 0.052 Uiso 1 1 calc R . .
C43 C 0.59850(8) 1.20999(13) 0.98781(8) 0.0291(5) Uani 1 1 d . . .
C44 C 0.57704(9) 1.17713(14) 0.94254(9) 0.0373(6) Uani 1 1 d . . .
H44 H 0.5433 1.1891 0.9249 0.045 Uiso 1 1 calc R . .
C45 C 0.60465(9) 1.12752(16) 0.92341(9) 0.0427(6) Uani 1 1 d . . .
H45 H 0.5900 1.1073 0.8928 0.051 Uiso 1 1 calc R . .
C46 C 0.56745(8) 1.26362(12) 1.00772(7) 0.0245(4) Uani 1 1 d . . .
C47 C 1.03553(8) 1.05344(13) 1.10311(7) 0.0260(4) Uani 1 1 d . . .
C48 C 1.02799(9) 1.10290(13) 1.14198(8) 0.0303(5) Uani 1 1 d . . .
C49 C 1.05274(12) 1.08496(17) 1.18965(9) 0.0539(8) Uani 1 1 d . . .
H49 H 1.0752 1.0426 1.1973 0.065 Uiso 1 1 calc R . .
C50 C 1.04474(15) 1.12828(18) 1.22541(9) 0.0677(10) Uani 1 1 d . . .
H50 H 1.0626 1.1169 1.2572 0.081 Uiso 1 1 calc R . .
C51 C 1.00999(13) 1.18914(15) 1.21419(9) 0.0508(8) Uani 1 1 d . . .
C52 C 0.98622(12) 1.20970(15) 1.16768(9) 0.0454(7) Uani 1 1 d . . .
H52 H 0.9641 1.2525 1.1604 0.055 Uiso 1 1 calc R . .
C53 C 0.99513(10) 1.16678(14) 1.13163(8) 0.0386(6) Uani 1 1 d . . .
H53 H 0.9789 1.1808 1.0999 0.046 Uiso 1 1 calc R . .
Co1 Co 1.0000 1.0000 1.0000 0.02069(10) Uani 1 2 d S . .
Co2 Co 0.957324(10) 0.832066(16) 0.983004(9) 0.02103(8) Uani 1 1 d . . .
Co3 Co 1.071209(11) 0.891170(17) 1.080895(10) 0.02508(8) Uani 1 1 d . . .
N1 N 0.91741(7) 0.76798(11) 0.92025(6) 0.0286(4) Uani 1 1 d . . .
N2 N 0.65086(7) 0.60674(11) 0.62555(7) 0.0337(4) Uani 1 1 d . . .
N3 N 0.93416(8) 0.24068(11) 0.53121(7) 0.0332(4) Uani 1 1 d . . .
N4 N 0.94149(8) 0.18411(12) 0.86473(7) 0.0359(5) Uani 1 1 d . . .
O1 O 0.93557(6) 0.54017(9) 0.71406(6) 0.0358(4) Uani 1 1 d . . .
O2 O 0.67613(6) 1.05267(13) 0.92847(8) 0.0663(7) Uani 1 1 d . . .
O3 O 1.0000 1.23340(15) 1.2500 0.0692(10) Uani 1 2 d S . .
O4 O 0.89341(5) 0.90116(8) 0.97242(5) 0.0278(3) Uani 1 1 d . . .
O5 O 0.91863(5) 1.02607(9) 0.97857(5) 0.0269(3) Uani 1 1 d . . .
O6 O 0.59044(6) 1.29968(9) 1.04572(5) 0.0309(4) Uani 1 1 d . . .
O7 O 0.52053(5) 1.26870(9) 0.98500(5) 0.0317(4) Uani 1 1 d . . .
O8 O 1.06204(6) 0.99225(9) 1.11597(5) 0.0332(4) Uani 1 1 d . . .
O9 O 1.01460(5) 1.07504(8) 1.06019(5) 0.0251(3) Uani 1 1 d . . .
O10 O 0.99669(5) 0.90343(8) 1.03866(5) 0.0221(3) Uani 1 1 d . . .
O11 O 0.93732(14) 1.0460(2) 0.59674(14) 0.1170(13) Uani 1 1 d . . .
C56 C 0.9119(2) 0.9880(5) 0.5912(2) 0.139(3) Uani 1 1 d . . .
H56 H 0.9121 0.9556 0.5659 0.166 Uiso 1 1 calc R . .
N5 N 0.8822(3) 0.9642(5) 0.6187(4) 0.238(5) Uani 1 1 d . . .
C55 C 0.8523(4) 0.8875(6) 0.6054(4) 0.271(6) Uani 1 1 d . . .
H55A H 0.8645 0.8590 0.5831 0.325 Uiso 1 1 calc R . .
H55B H 0.8164 0.8988 0.5910 0.325 Uiso 1 1 calc R . .
H55C H 0.8572 0.8566 0.6337 0.325 Uiso 1 1 calc R . .
C54 C 0.8907(7) 1.0275(10) 0.6658(5) 0.493(16) Uani 1 1 d . . .
H54A H 0.9261 1.0273 0.6854 0.592 Uiso 1 1 calc R . .
H54B H 0.8696 1.0112 0.6846 0.592 Uiso 1 1 calc R . .
H54C H 0.8810 1.0794 0.6539 0.592 Uiso 1 1 calc R . .

loop_
_atom_site_aniso_label
_atom_site_aniso_U_11
_atom_site_aniso_U_22
_atom_site_aniso_U_33
_atom_site_aniso_U_23
_atom_site_aniso_U_13
_atom_site_aniso_U_12
C1 0.0303(12) 0.0390(14) 0.0327(12) -0.0096(10) 0.0013(10) 0.0067(10)
C2 0.0321(13) 0.0481(16) 0.0325(12) -0.0108(11) -0.0052(11) 0.0093(11)
C3 0.0240(11) 0.0467(15) 0.0315(12) -0.0136(10) 0.0045(10) -0.0003(10)
C4 0.0363(13) 0.0352(14) 0.0337(12) -0.0120(10) 0.0047(11) 0.0029(10)
C5 0.0364(13) 0.0333(13) 0.0271(11) -0.0022(9) 0.0034(10) 0.0017(10)
C6 0.0306(12) 0.0440(15) 0.0298(12) -0.0144(10) -0.0011(10) 0.0048(10)
C7 0.0334(13) 0.0561(17) 0.0394(14) -0.0188(12) -0.0013(11) 0.0103(12)
C8 0.0313(13) 0.0443(15) 0.0342(13) -0.0086(11) -0.0056(11) 0.0028(10)
C9 0.0422(14) 0.0385(14) 0.0262(11) -0.0098(10) 0.0010(11) -0.0002(11)
C10 0.0367(13) 0.0279(12) 0.0288(11) -0.0020(9) 0.0073(10) 0.0014(9)
C11 0.0285(12) 0.0404(14) 0.0288(12) -0.0054(10) -0.0011(10) 0.0041(10)
C12 0.0318(13) 0.0501(16) 0.0319(12) -0.0125(11) -0.0050(11) 0.0035(11)
C13 0.0400(15) 0.0432(16) 0.0568(17) -0.0016(13) -0.0075(13) -0.0085(12)
C14 0.0405(15) 0.0398(15) 0.0515(16) 0.0048(12) -0.0043(13) -0.0044(11)
C15 0.0415(15) 0.0380(16) 0.0526(16) -0.0006(12) -0.0042(13) -0.0064(11)
C16 0.0488(17) 0.0370(16) 0.0607(18) -0.0023(13) -0.0123(14) 0.0028(12)
C17 0.0343(13) 0.0327(13) 0.0316(12) -0.0025(9) 0.0122(10) 0.0047(10)
C18 0.0498(15) 0.0339(14) 0.0285(12) 0.0024(10) 0.0165(11) 0.0043(11)
C19 0.0501(15) 0.0338(14) 0.0293(12) 0.0008(10) 0.0178(11) 0.0069(11)
C20 0.0552(16) 0.0315(13) 0.0341(13) 0.0020(10) 0.0202(12) 0.0060(11)
C21 0.0428(14) 0.0390(14) 0.0294(12) 0.0026(10) 0.0151(11) 0.0078(11)
C22 0.0409(14) 0.0405(14) 0.0267(11) -0.0015(10) 0.0121(11) 0.0068(11)
C23 0.0537(16) 0.0350(14) 0.0301(12) 0.0009(10) 0.0179(12) 0.0061(11)
C24 0.084(2) 0.0345(15) 0.0455(15) -0.0104(12) 0.0342(16) -0.0141(14)
C25 0.074(2) 0.0378(15) 0.0379(14) -0.0058(11) 0.0292(14) -0.0144(13)
C26 0.0548(16) 0.0414(15) 0.0394(14) -0.0101(11) 0.0251(13) -0.0106(12)
C27 0.0663(19) 0.0427(16) 0.0443(15) -0.0057(12) 0.0356(14) -0.0106(13)
C28 0.0441(14) 0.0380(14) 0.0291(12) 0.0027(10) 0.0135(11) 0.0063(11)
C29 0.108(3) 0.0477(18) 0.0464(16) 0.0062(13) 0.0480(18) 0.0201(17)
C30 0.099(3) 0.0405(17) 0.0531(17) 0.0099(13) 0.0444(18) 0.0195(16)
C31 0.102(2) 0.0402(17) 0.0304(13) -0.0021(11) 0.0275(15) -0.0012(15)
C32 0.104(3) 0.0363(16) 0.0366(14) 0.0017(11) 0.0323(16) 0.0083(15)
C33 0.0244(11) 0.0313(12) 0.0187(10) 0.0004(8) 0.0071(9) 0.0062(9)
C34 0.0237(11) 0.0352(13) 0.0316(12) -0.0005(9) 0.0099(10) 0.0083(9)
C35 0.0309(12) 0.0381(14) 0.0476(15) -0.0055(11) 0.0144(11) 0.0089(10)
C36 0.0392(15) 0.0411(16) 0.0653(18) -0.0118(13) 0.0187(14) 0.0180(12)
C37 0.0255(13) 0.0620(19) 0.0548(16) -0.0178(14) 0.0135(12) 0.0127(12)
C38 0.0263(13) 0.0514(18) 0.080(2) -0.0152(15) 0.0192(14) 0.0021(11)
C39 0.0305(13) 0.0343(14) 0.0712(18) -0.0039(13) 0.0189(13) 0.0073(10)
C40 0.0246(12) 0.0530(17) 0.0543(16) -0.0206(13) 0.0123(12) 0.0112(10)
C41 0.0254(13) 0.077(2) 0.0525(16) -0.0201(15) 0.0003(12) 0.0212(13)
C42 0.0275(13) 0.0569(17) 0.0406(14) -0.0162(12) 0.0027(11) 0.0073(11)
C43 0.0236(11) 0.0302(12) 0.0342(12) -0.0024(9) 0.0104(10) 0.0059(9)
C44 0.0242(12) 0.0469(15) 0.0373(13) -0.0076(11) 0.0046(10) 0.0155(10)
C45 0.0293(13) 0.0542(17) 0.0396(14) -0.0173(12) 0.0039(11) 0.0131(11)
C46 0.0233(11) 0.0264(11) 0.0242(10) 0.0019(8) 0.0082(9) 0.0045(8)
C47 0.0265(11) 0.0294(12) 0.0234(10) -0.0014(9) 0.0098(9) 0.0022(9)
C48 0.0427(13) 0.0283(12) 0.0238(11) -0.0002(9) 0.0158(10) 0.0019(9)
C49 0.088(2) 0.0462(17) 0.0259(13) 0.0001(11) 0.0151(14) 0.0205(15)
C50 0.129(3) 0.0536(19) 0.0204(12) -0.0012(12) 0.0241(16) 0.0204(19)
C51 0.108(2) 0.0264(14) 0.0340(13) -0.0015(10) 0.0446(16) 0.0006(14)
C52 0.078(2) 0.0