####################################################################### 
# 
# This file contains crystal structure data downloaded from the 
# Cambridge Structural Database (CSD) hosted by the Cambridge 
# Crystallographic Data Centre (CCDC).
# 
# Full information about CCDC data access policies and citation 
# guidelines are available at http://www.ccdc.cam.ac.uk/access/V1 
# 
# Audit and citation data items may have been added by the CCDC. 
# Please retain this information to preserve the provenance of 
# this file and to allow appropriate attribution of the data. 
# 
#######################################################################

data_1
_audit_block_doi                 10.5517/cc105lyq
_database_code_depnum_ccdc_archive 'CCDC 928913'
loop_
_citation_id
_citation_doi
_citation_year
1 10.1016/j.inoche.2012.11.006 2013
_audit_update_record             
;
2013-03-13 deposited with the CCDC.	2024-07-09 downloaded from the CCDC.
;

_audit_creation_method           SHELXL-97
_chemical_name_systematic        
;
?
;
_chemical_name_common            ?
_chemical_melting_point          ?
_chemical_formula_moiety         ?
_chemical_formula_sum            'C26 H21 In3 N2 O20'
_chemical_formula_weight         1025.91

loop_
_atom_type_symbol
_atom_type_description
_atom_type_scat_dispersion_real
_atom_type_scat_dispersion_imag
_atom_type_scat_source
C C 0.0033 0.0016 'International Tables Vol C Tables 4.2.6.8 and 6.1.1.4'
H H 0.0000 0.0000 'International Tables Vol C Tables 4.2.6.8 and 6.1.1.4'
In In -0.7276 1.3100 'International Tables Vol C Tables 4.2.6.8 and 6.1.1.4'
O O 0.0106 0.0060 'International Tables Vol C Tables 4.2.6.8 and 6.1.1.4'
N N 0.0061 0.0033 'International Tables Vol C Tables 4.2.6.8 and 6.1.1.4'

_symmetry_cell_setting           Monoclinic
_symmetry_space_group_name_H-M   P21/c

loop_
_symmetry_equiv_pos_as_xyz
'x, y, z'
'-x, y+1/2, -z+1/2'
'-x, -y, -z'
'x, -y-1/2, z-1/2'

_cell_length_a                   7.2441(6)
_cell_length_b                   14.2018(12)
_cell_length_c                   17.147(2)
_cell_angle_alpha                90.00
_cell_angle_beta                 100.960(10)
_cell_angle_gamma                90.00
_cell_volume                     1731.9(3)
_cell_formula_units_Z            2
_cell_measurement_temperature    293(2)
_cell_measurement_reflns_used    1778
_cell_measurement_theta_min      3.3415
_cell_measurement_theta_max      28.7241

_exptl_crystal_description       block
_exptl_crystal_colour            yellow
_exptl_crystal_size_max          0.34
_exptl_crystal_size_mid          0.28
_exptl_crystal_size_min          0.24
_exptl_crystal_density_meas      ?
_exptl_crystal_density_diffrn    1.967
_exptl_crystal_density_method    'not measured'
_exptl_crystal_F_000             996
_exptl_absorpt_coefficient_mu    2.066
_exptl_absorpt_correction_type   multi-scan
_exptl_absorpt_correction_T_min  0.48779
_exptl_absorpt_correction_T_max  1.00000
_exptl_absorpt_process_details   
;
CrysAlisPro, Agilent Technologies,
Version 1.171.35.15 (release 03-08-2011 CrysAlis171 .NET)
(compiled Aug 3 2011,13:03:54)
Empirical absorption correction using spherical harmonics,
implemented in SCALE3 ABSPACK scaling algorithm.
;
_exptl_special_details           
;
?
;

_diffrn_ambient_temperature      293(2)
_diffrn_radiation_wavelength     0.71073
_diffrn_radiation_type           MoK\a
_diffrn_radiation_source         'fine-focus sealed tube'
_diffrn_radiation_monochromator  graphite
_diffrn_measurement_device_type  'multiwire proportional'
_diffrn_measurement_method       'phi and omega scans'
_diffrn_detector_area_resol_mean ?
_diffrn_reflns_number            4802
_diffrn_reflns_av_R_equivalents  0.0338
_diffrn_reflns_av_sigmaI/netI    0.0518
_diffrn_reflns_limit_h_min       -9
_diffrn_reflns_limit_h_max       5
_diffrn_reflns_limit_k_min       -17
_diffrn_reflns_limit_k_max       7
_diffrn_reflns_limit_l_min       -9
_diffrn_reflns_limit_l_max       21
_diffrn_reflns_theta_min         3.38
_diffrn_reflns_theta_max         26.37
_reflns_number_total             3059
_reflns_number_gt                2647
_reflns_threshold_expression     >2sigma(I)

_computing_data_collection       'Bruker FRAMBO'
_computing_cell_refinement       'Bruker FRAMBO'
_computing_data_reduction        'Bruker SAINT'
_computing_structure_solution    'SHELXS-97 (Sheldrick, 2008)'
_computing_structure_refinement  'SHELXL-97 (Sheldrick, 2008)'
_computing_molecular_graphics    'Bruker SHELXTL'
_computing_publication_material  'Bruker SHELXTL'

_refine_special_details          
;
Refinement of F^2^ against ALL reflections. The weighted R-factor wR and
goodness of fit S are based on F^2^, conventional R-factors R are based
on F, with F set to zero for negative F^2^. The threshold expression of
F^2^ > 2sigma(F^2^) is used only for calculating R-factors(gt) etc. and is
not relevant to the choice of reflections for refinement. R-factors based
on F^2^ are statistically about twice as large as those based on F, and R-
factors based on ALL data will be even larger.
;

_refine_ls_structure_factor_coef Fsqd
_refine_ls_matrix_type           full
_refine_ls_weighting_scheme      calc
_refine_ls_weighting_details     
'calc w=1/[\s^2^(Fo^2^)+(0.0627P)^2^+4.8380P] where P=(Fo^2^+2Fc^2^)/3'
_atom_sites_solution_primary     direct
_atom_sites_solution_secondary   difmap
_atom_sites_solution_hydrogens   geom
_refine_ls_hydrogen_treatment    constr
_refine_ls_extinction_method     none
_refine_ls_extinction_coef       ?
_refine_ls_number_reflns         3059
_refine_ls_number_parameters     187
_refine_ls_number_restraints     0
_refine_ls_R_factor_all          0.0544
_refine_ls_R_factor_gt           0.0473
_refine_ls_wR_factor_ref         0.1277
_refine_ls_wR_factor_gt          0.1233
_refine_ls_goodness_of_fit_ref   1.106
_refine_ls_restrained_S_all      1.106
_refine_ls_shift/su_max          0.001
_refine_ls_shift/su_mean         0.000

loop_
_atom_site_label
_atom_site_type_symbol
_atom_site_fract_x
_atom_site_fract_y
_atom_site_fract_z
_atom_site_U_iso_or_equiv
_atom_site_adp_type
_atom_site_occupancy
_atom_site_symmetry_multiplicity
_atom_site_calc_flag
_atom_site_refinement_flags
_atom_site_disorder_assembly
_atom_site_disorder_group
In1 In 1.03526(6) 0.09049(3) 0.55932(2) 0.01763(17) Uani 1 1 d . . .
In2 In 0.5000 0.5000 0.0000 0.01517(19) Uani 1 2 d S . .
C1 C 0.4377(9) 0.3448(5) 0.1268(4) 0.0200(14) Uani 1 1 d . . .
C2 C 0.4206(9) 0.1386(5) 0.3619(4) 0.0199(14) Uani 1 1 d . . .
C3 C 0.8322(9) 0.1159(5) 0.3857(4) 0.0195(14) Uani 1 1 d . . .
C4 C 0.5304(10) 0.1848(5) 0.3066(4) 0.0236(15) Uani 1 1 d . . .
C5 C 0.7367(9) 0.2780(5) 0.2094(4) 0.0232(15) Uani 1 1 d . . .
C6 C 0.8286(9) 0.2254(5) 0.2723(4) 0.0224(14) Uani 1 1 d . . .
H6A H 0.9591 0.2211 0.2820 0.027 Uiso 1 1 calc R . .
C7 C 0.4390(9) 0.2365(5) 0.2427(4) 0.0254(16) Uani 1 1 d . . .
H7A H 0.3083 0.2392 0.2323 0.031 Uiso 1 1 calc R . .
C8 C 0.7263(9) 0.1786(5) 0.3215(3) 0.0203(14) Uani 1 1 d . . .
C9 C 0.5401(9) 0.2849(5) 0.1930(4) 0.0233(15) Uani 1 1 d . . .
C10 C 0.8535(10) 0.3249(5) 0.1569(4) 0.0265(16) Uani 1 1 d . . .
O1 O 0.8476(7) 0.2957(4) 0.0881(3) 0.0338(13) Uani 1 1 d . . .
O2 O 0.9598(8) 0.3911(4) 0.1833(3) 0.0379(14) Uani 1 1 d . . .
O4 O 0.2703(7) 0.3216(3) 0.0985(3) 0.0254(11) Uani 1 1 d . . .
O5 O 0.5268(6) 0.4115(3) 0.1051(3) 0.0229(10) Uani 1 1 d . . .
O6 O 0.5195(7) 0.1198(3) 0.4310(3) 0.0236(10) Uani 1 1 d . . .
O7 O 0.2524(7) 0.1209(4) 0.3425(3) 0.0380(14) Uani 1 1 d . . .
O8 O 0.9294(6) 0.1572(3) 0.4446(3) 0.0226(10) Uani 1 1 d . . .
O9 O 0.8249(7) 0.0300(3) 0.3721(3) 0.0240(10) Uani 1 1 d . . .
O3 O 0.8063(6) -0.0130(3) 0.5286(2) 0.0165(9) Uani 1 1 d . . .
H3A H 0.8265 -0.0548 0.5748 0.020 Uiso 1 1 calc R . .

loop_
_atom_site_aniso_label
_atom_site_aniso_U_11
_atom_site_aniso_U_22
_atom_site_aniso_U_33
_atom_site_aniso_U_23
_atom_site_aniso_U_13
_atom_site_aniso_U_12
In1 0.0161(3) 0.0248(3) 0.0118(2) -0.00174(17) 0.0023(2) -0.00004(18)
In2 0.0151(4) 0.0213(3) 0.0092(3) 0.0000(2) 0.0027(3) 0.0002(2)
C1 0.016(4) 0.026(3) 0.019(3) 0.004(3) 0.006(3) 0.004(3)
C2 0.021(4) 0.025(3) 0.014(3) 0.005(3) 0.004(3) 0.003(3)
C3 0.015(4) 0.030(4) 0.017(3) 0.001(3) 0.011(3) 0.002(3)
C4 0.023(4) 0.030(3) 0.019(3) 0.005(3) 0.008(3) -0.001(3)
C5 0.017(4) 0.037(4) 0.015(3) 0.007(3) 0.001(3) -0.002(3)
C6 0.013(3) 0.035(4) 0.020(3) 0.009(3) 0.003(3) -0.001(3)
C7 0.013(4) 0.038(4) 0.024(4) 0.010(3) 0.002(3) 0.002(3)
C8 0.023(4) 0.031(3) 0.006(3) 0.003(3) 0.001(3) 0.002(3)
C9 0.017(4) 0.032(4) 0.021(3) 0.004(3) 0.003(3) 0.001(3)
C10 0.020(4) 0.032(4) 0.027(4) 0.014(3) 0.005(3) -0.001(3)
O1 0.029(3) 0.049(3) 0.025(3) 0.010(2) 0.009(2) -0.006(2)
O2 0.033(3) 0.056(4) 0.025(3) 0.005(3) 0.006(3) -0.019(3)
O4 0.021(3) 0.032(3) 0.022(2) 0.008(2) 0.002(2) 0.005(2)
O5 0.018(3) 0.032(3) 0.017(2) 0.0104(19) -0.002(2) -0.0005(19)
O6 0.025(3) 0.033(3) 0.012(2) 0.0036(19) 0.002(2) -0.004(2)
O7 0.019(3) 0.059(4) 0.035(3) 0.022(3) 0.004(3) -0.002(2)
O8 0.022(3) 0.026(2) 0.019(2) 0.002(2) 0.003(2) 0.001(2)
O9 0.027(3) 0.028(2) 0.017(2) 0.0028(19) 0.005(2) 0.006(2)
O3 0.015(2) 0.022(2) 0.011(2) 0.0060(17) -0.0005(19) -0.0028(18)

_geom_special_details            
;
All esds (except the esd in the dihedral angle between two l.s. planes)
are estimated using the full covariance matrix. The cell esds are taken
into account individually in the estimation of esds in distances, angles
and torsion angles; correlations between esds in cell parameters are only
used when they are defined by crystal symmetry. An approximate (isotropic)
treatment of cell esds is used for estimating esds involving l.s. planes.
;

loop_
_geom_bond_atom_site_label_1
_geom_bond_atom_site_label_2
_geom_bond_distance
_geom_bond_site_symmetry_2
_geom_bond_publ_flag
In1 O4 2.115(5) 4_666 ?
In1 O3 2.203(4) . ?
In1 O8 2.186(5) . ?
In1 O9 2.210(5) 3_756 ?
In1 O1 2.227(5) 4_566 ?
In1 O2 2.309(5) 4_566 ?
In1 O3 2.336(4) 3_756 ?
In1 C10 2.611(6) 4_566 ?
In1 In1 3.2574(9) 3_756 ?
In2 O6 2.092(4) 4_565 ?
In2 O6 2.092(4) 2_655 ?
In2 O5 2.175(4) . ?
In2 O5 2.175(4) 3_665 ?
In2 O3 2.188(4) 4_565 ?
In2 O3 2.188(4) 2_655 ?
C1 O4 1.262(8) . ?
C1 O5 1.243(8) . ?
C1 C9 1.497(9) . ?
C2 O7 1.226(8) . ?
C2 O6 1.292(8) . ?
C2 C4 1.500(8) . ?
C3 O9 1.240(8) . ?
C3 O8 1.262(8) . ?
C3 C8 1.508(9) . ?
C4 C7 1.379(10) . ?
C4 C8 1.396(9) . ?
C5 C6 1.375(9) . ?
C5 C9 1.402(9) . ?
C5 C10 1.503(8) . ?
C6 C8 1.393(8) . ?
C6 H6A 0.9300 . ?
C7 C9 1.405(9) . ?
C7 H7A 0.9300 . ?
C10 O1 1.245(9) . ?
C10 O2 1.244(9) . ?
C10 In1 2.611(6) 4_565 ?
O1 In1 2.227(5) 4_565 ?
O2 In1 2.309(5) 4_565 ?
O4 In1 2.115(5) 4_465 ?
O6 In2 2.092(4) 2_645 ?
O9 In1 2.210(5) 3_756 ?
O3 In2 2.187(4) 2_645 ?
O3 In1 2.336(4) 3_756 ?
O3 H3A 0.9800 . ?

loop_
_geom_angle_atom_site_label_1
_geom_angle_atom_site_label_2
_geom_angle_atom_site_label_3
_geom_angle
_geom_angle_site_symmetry_1
_geom_angle_site_symmetry_3
_geom_angle_publ_flag
O4 In1 O3 173.41(18) 4_666 . ?
O4 In1 O8 98.83(18) 4_666 . ?
O3 In1 O8 87.39(16) . . ?
O4 In1 O9 91.61(19) 4_666 3_756 ?
O3 In1 O9 81.89(17) . 3_756 ?
O8 In1 O9 149.44(16) . 3_756 ?
O4 In1 O1 89.39(19) 4_666 4_566 ?
O3 In1 O1 94.24(18) . 4_566 ?
O8 In1 O1 76.10(18) . 4_566 ?
O9 In1 O1 132.98(17) 3_756 4_566 ?
O4 In1 O2 87.57(19) 4_666 4_566 ?
O3 In1 O2 89.82(18) . 4_566 ?
O8 In1 O2 132.47(17) . 4_566 ?
O9 In1 O2 76.28(18) 3_756 4_566 ?
O1 In1 O2 56.80(19) 4_566 4_566 ?
O4 In1 O3 91.08(16) 4_666 3_756 ?
O3 In1 O3 88.33(14) . 3_756 ?
O8 In1 O3 75.85(15) . 3_756 ?
O9 In1 O3 75.31(15) 3_756 3_756 ?
O1 In1 O3 151.68(17) 4_566 3_756 ?
O2 In1 O3 151.51(17) 4_566 3_756 ?
O4 In1 C10 89.9(2) 4_666 4_566 ?
O3 In1 C10 90.69(19) . 4_566 ?
O8 In1 C10 104.1(2) . 4_566 ?
O9 In1 C10 104.5(2) 3_756 4_566 ?
O1 In1 C10 28.4(2) 4_566 4_566 ?
O2 In1 C10 28.5(2) 4_566 4_566 ?
O3 In1 C10 179.02(19) 3_756 4_566 ?
O4 In1 In1 133.27(12) 4_666 3_756 ?
O3 In1 In1 45.79(10) . 3_756 ?
O8 In1 In1 78.10(12) . 3_756 ?
O9 In1 In1 73.91(13) 3_756 3_756 ?
O1 In1 In1 132.94(14) 4_566 3_756 ?
O2 In1 In1 128.92(15) 4_566 3_756 ?
O3 In1 In1 42.54(10) 3_756 3_756 ?
C10 In1 In1 136.48(16) 4_566 3_756 ?
O6 In2 O6 180.0(2) 4_565 2_655 ?
O6 In2 O5 89.61(17) 4_565 . ?
O6 In2 O5 90.39(17) 2_655 . ?
O6 In2 O5 90.39(17) 4_565 3_665 ?
O6 In2 O5 89.61(17) 2_655 3_665 ?
O5 In2 O5 179.998(1) . 3_665 ?
O6 In2 O3 91.16(17) 4_565 4_565 ?
O6 In2 O3 88.84(17) 2_655 4_565 ?
O5 In2 O3 86.34(16) . 4_565 ?
O5 In2 O3 93.66(16) 3_665 4_565 ?
O6 In2 O3 88.84(17) 4_565 2_655 ?
O6 In2 O3 91.16(17) 2_655 2_655 ?
O5 In2 O3 93.66(16) . 2_655 ?
O5 In2 O3 86.34(16) 3_665 2_655 ?
O3 In2 O3 180.0 4_565 2_655 ?
O4 C1 O5 126.9(6) . . ?
O4 C1 C9 116.4(6) . . ?
O5 C1 C9 116.7(6) . . ?
O7 C2 O6 123.7(6) . . ?
O7 C2 C4 122.5(6) . . ?
O6 C2 C4 113.7(6) . . ?
O9 C3 O8 127.3(6) . . ?
O9 C3 C8 116.5(6) . . ?
O8 C3 C8 116.0(6) . . ?
C7 C4 C8 119.8(6) . . ?
C7 C4 C2 120.2(6) . . ?
C8 C4 C2 120.0(6) . . ?
C6 C5 C9 121.2(6) . . ?
C6 C5 C10 117.8(6) . . ?
C9 C5 C10 121.0(6) . . ?
C8 C6 C5 120.0(6) . . ?
C8 C6 H6A 120.0 . . ?
C5 C6 H6A 120.0 . . ?
C4 C7 C9 121.0(6) . . ?
C4 C7 H7A 119.5 . . ?
C9 C7 H7A 119.5 . . ?
C6 C8 C4 119.9(6) . . ?
C6 C8 C3 117.9(6) . . ?
C4 C8 C3 122.0(5) . . ?
C5 C9 C7 118.1(6) . . ?
C5 C9 C1 122.0(6) . . ?
C7 C9 C1 119.8(6) . . ?
O1 C10 O2 120.3(6) . . ?
O1 C10 C5 119.9(7) . . ?
O2 C10 C5 119.8(6) . . ?
O1 C10 In1 58.4(3) . 4_565 ?
O2 C10 In1 62.2(3) . 4_565 ?
C5 C10 In1 176.1(5) . 4_565 ?
C10 O1 In1 93.2(4) . 4_565 ?
C10 O2 In1 89.4(4) . 4_565 ?
C1 O4 In1 128.7(4) . 4_465 ?
C1 O5 In2 136.0(5) . . ?
C2 O6 In2 127.0(4) . 2_645 ?
C3 O8 In1 124.4(4) . . ?
C3 O9 In1 131.5(4) . 3_756 ?
In1 O3 In2 133.1(2) . 2_645 ?
In1 O3 In1 91.67(14) . 3_756 ?
In2 O3 In1 119.81(19) 2_645 3_756 ?
In1 O3 H3A 102.8 . . ?
In2 O3 H3A 102.8 2_645 . ?
In1 O3 H3A 102.8 3_756 . ?

_diffrn_measured_fraction_theta_max 0.986
_diffrn_reflns_theta_full        26.37
_diffrn_measured_fraction_theta_full 0.864
_refine_diff_density_max         2.080
_refine_diff_density_min         -1.074
_refine_diff_density_rms         0.190

#--------------------------------------------------
# SQUEEZE RESULTS
loop_
_platon_squeeze_void_nr
_platon_squeeze_void_average_x
_platon_squeeze_void_average_y
_platon_squeeze_void_average_z
_platon_squeeze_void_volume
_platon_squeeze_void_count_electrons
1 -0.033 0.000 0.000 391.2 -5.9
2 0.015 0.500 0.500 391.2 -5.7
_platon_squeeze_details          
;
;
#-----------------------------------------------------

