####################################################################### 
# 
# This file contains crystal structure data downloaded from the 
# Cambridge Structural Database (CSD) hosted by the Cambridge 
# Crystallographic Data Centre (CCDC).
# 
# Full information about CCDC data access policies and citation 
# guidelines are available at http://www.ccdc.cam.ac.uk/access/V1 
# 
# Audit and citation data items may have been added by the CCDC. 
# Please retain this information to preserve the provenance of 
# this file and to allow appropriate attribution of the data. 
# 
#######################################################################

data_Zn
_audit_block_doi                 10.5517/cc103v87
_database_code_depnum_ccdc_archive 'CCDC 927218'
loop_
_citation_id
_citation_doi
_citation_year
1 10.1021/cg3013574 2013
_audit_update_record             
;
2013-03-04 deposited with the CCDC.	2024-07-09 downloaded from the CCDC.
;

_audit_creation_method           SHELXL-97
_chemical_name_systematic        
;
?
;
_chemical_name_common            ?
_chemical_melting_point          ?
_chemical_formula_moiety         ?
_chemical_formula_sum            'C117 H72 N3 O18 Zn4'
_chemical_formula_weight         2069.26

loop_
_atom_type_symbol
_atom_type_description
_atom_type_scat_dispersion_real
_atom_type_scat_dispersion_imag
_atom_type_scat_source
C C 0.0033 0.0016 'International Tables Vol C Tables 4.2.6.8 and 6.1.1.4'
H H 0.0000 0.0000 'International Tables Vol C Tables 4.2.6.8 and 6.1.1.4'
N N 0.0061 0.0033 'International Tables Vol C Tables 4.2.6.8 and 6.1.1.4'
O O 0.0106 0.0060 'International Tables Vol C Tables 4.2.6.8 and 6.1.1.4'
Zn Zn 0.2839 1.4301 'International Tables Vol C Tables 4.2.6.8 and 6.1.1.4'

_symmetry_cell_setting           Orthorhombic
_symmetry_space_group_name_H-M   Pna2(1)

loop_
_symmetry_equiv_pos_as_xyz
'x, y, z'
'-x, -y, z+1/2'
'x+1/2, -y+1/2, z'
'-x+1/2, y+1/2, z+1/2'

_cell_length_a                   30.1777(17)
_cell_length_b                   21.4903(16)
_cell_length_c                   33.5299(18)
_cell_angle_alpha                90.00
_cell_angle_beta                 90.00
_cell_angle_gamma                90.00
_cell_volume                     21745(2)
_cell_formula_units_Z            4
_cell_measurement_temperature    293(2)
_cell_measurement_reflns_used    3834
_cell_measurement_theta_min      2.3119
_cell_measurement_theta_max      24.3601

_exptl_crystal_description       prism
_exptl_crystal_colour            yellow
_exptl_crystal_size_max          .28
_exptl_crystal_size_mid          .12
_exptl_crystal_size_min          .10
_exptl_crystal_density_meas      ?
_exptl_crystal_density_diffrn    0.632
_exptl_crystal_density_method    'not measured'
_exptl_crystal_F_000             4236
_exptl_absorpt_coefficient_mu    0.469
_exptl_absorpt_correction_T_min  0.65784
_exptl_absorpt_correction_T_max  1.00000
_exptl_absorpt_correction_type   multi-scan
_exptl_absorpt_process_details   
;
CrysAlisPro, Agilent Technologies,
Version 1.171.35.21 (release 20-01-2012 CrysAlis171 .NET)
(compiled Jan 23 2012,18:06:46)
Empirical absorption correction using spherical harmonics,
implemented in SCALE3 ABSPACK scaling algorithm.
;

_exptl_special_details           
;
?
;

_diffrn_ambient_temperature      293(2)
_diffrn_radiation_wavelength     0.71073
_diffrn_radiation_type           MoK\a
_diffrn_radiation_source         'Enhance (Mo) X-ray Source'
_diffrn_radiation_monochromator  graphite
_diffrn_measurement_device_type  'Xcalibur, Eos'
_diffrn_measurement_method       'phi and omega scans'
_diffrn_detector_area_resol_mean none
_diffrn_standards_number         none
_diffrn_standards_interval_count none
_diffrn_standards_interval_time  none
_diffrn_standards_decay_%        none
_diffrn_reflns_number            32620
_diffrn_reflns_av_R_equivalents  0.0676
_diffrn_reflns_av_sigmaI/netI    0.1450
_diffrn_reflns_limit_h_min       -28
_diffrn_reflns_limit_h_max       34
_diffrn_reflns_limit_k_min       -15
_diffrn_reflns_limit_k_max       20
_diffrn_reflns_limit_l_min       -38
_diffrn_reflns_limit_l_max       31
_diffrn_reflns_theta_min         2.32
_diffrn_reflns_theta_max         24.41
_reflns_number_total             19170
_reflns_number_gt                10773
_reflns_threshold_expression     >2sigma(I)

_computing_data_collection       'Bruker FRAMBO'
_computing_cell_refinement       'Bruker FRAMBO'
_computing_data_reduction        'Bruker SHELXTL'
_computing_structure_solution    'SHELXS-97 (Sheldrick, 1990)'
_computing_structure_refinement  'SHELXL-97 (Sheldrick, 1997)'
_computing_molecular_graphics    'Bruker SHELXTL'
_computing_publication_material  'Bruker SHELXTL'

_refine_special_details          
;
Refinement of F^2^ against ALL reflections. The weighted R-factor wR and
goodness of fit S are based on F^2^, conventional R-factors R are based
on F, with F set to zero for negative F^2^. The threshold expression of
F^2^ > 2sigma(F^2^) is used only for calculating R-factors(gt) etc. and is
not relevant to the choice of reflections for refinement. R-factors based
on F^2^ are statistically about twice as large as those based on F, and R-
factors based on ALL data will be even larger.
;

_refine_ls_structure_factor_coef Fsqd
_refine_ls_matrix_type           full
_refine_ls_weighting_scheme      calc
_refine_ls_weighting_details     
'calc w=1/[\s^2^(Fo^2^)+(0.0761P)^2^+0.0000P] where P=(Fo^2^+2Fc^2^)/3'
_atom_sites_solution_primary     direct
_atom_sites_solution_secondary   difmap
_atom_sites_solution_hydrogens   geom
_refine_ls_hydrogen_treatment    none
_refine_ls_extinction_method     none
_refine_ls_extinction_coef       ?
_refine_ls_abs_structure_details 'Flack H D (1983), Acta Cryst. A39, 876-881'
_refine_ls_abs_structure_Flack   0.055(14)
_refine_ls_number_reflns         19170
_refine_ls_number_parameters     1279
_refine_ls_number_restraints     1
_refine_ls_R_factor_all          0.1213
_refine_ls_R_factor_gt           0.0681
_refine_ls_wR_factor_ref         0.1788
_refine_ls_wR_factor_gt          0.1583
_refine_ls_goodness_of_fit_ref   0.910
_refine_ls_restrained_S_all      0.910
_refine_ls_shift/su_max          0.021
_refine_ls_shift/su_mean         0.001

loop_
_atom_site_label
_atom_site_type_symbol
_atom_site_fract_x
_atom_site_fract_y
_atom_site_fract_z
_atom_site_U_iso_or_equiv
_atom_site_adp_type
_atom_site_occupancy
_atom_site_symmetry_multiplicity
_atom_site_calc_flag
_atom_site_refinement_flags
_atom_site_disorder_assembly
_atom_site_disorder_group
Zn1 Zn -0.10259(4) 0.27502(6) 0.02990(4) 0.0580(4) Uani 1 1 d . . .
Zn2 Zn 0.00923(4) 0.21363(6) 0.05138(4) 0.0572(4) Uani 1 1 d . . .
Zn3 Zn -0.12944(4) -0.23172(6) -0.42736(4) 0.0558(4) Uani 1 1 d . . .
Zn4 Zn -0.23681(3) -0.22560(6) -0.46907(4) 0.0513(3) Uani 1 1 d . . .
O1 O -0.2400(2) 0.6993(3) -0.4382(2) 0.065(2) Uani 1 1 d . . .
O2 O -0.1833(2) 0.7341(3) -0.4001(2) 0.060(2) Uani 1 1 d . . .
O3 O -0.04151(19) 0.2731(3) 0.00971(16) 0.0345(16) Uani 1 1 d . . .
O4 O 0.0056(2) 0.1961(3) -0.0054(2) 0.058(2) Uani 1 1 d . . .
O5 O -0.3618(2) -0.2385(3) -0.51800(18) 0.064(2) Uani 1 1 d . . .
O6 O -0.2954(2) -0.2189(4) -0.4889(2) 0.064(2) Uani 1 1 d . . .
O7 O 0.0211(2) -0.7078(3) -0.9231(2) 0.069(2) Uani 1 1 d . . .
O8 O 0.0924(2) -0.6947(3) -0.9103(2) 0.058(2) Uani 1 1 d . . .
O9 O -0.1093(3) -0.6152(5) -0.9767(4) 0.146(4) Uani 1 1 d . . .
O10 O -0.1133(5) -0.6670(6) -0.9213(3) 0.113(4) Uani 1 1 d . . .
O11 O -0.1047(2) 0.1963(4) -0.9448(3) 0.087(3) Uani 1 1 d . . .
O12 O -0.0377(2) 0.1734(3) -0.9185(2) 0.066(2) Uani 1 1 d . . .
O13 O 0.1061(2) 0.1750(4) -0.8847(2) 0.061(2) Uani 1 1 d . . .
O14 O 0.0610(2) 0.1624(4) -0.9381(2) 0.076(3) Uani 1 1 d . . .
O15 O -0.1292(2) -0.2654(3) -0.48317(18) 0.0478(18) Uani 1 1 d . . .
O16 O -0.1972(2) -0.2499(4) -0.5114(2) 0.067(2) Uani 1 1 d . . .
O17 O -0.2383(2) -0.1443(3) -0.44243(19) 0.061(2) Uani 1 1 d . . .
O18 O -0.1640(2) -0.1488(3) -0.45051(19) 0.0511(18) Uani 1 1 d . . .
N1 N -0.1889(3) -0.2272(5) -0.7947(3) 0.067(3) Uani 1 1 d . . .
N2 N -0.1501(2) 0.2750(4) -0.2923(2) 0.0357(19) Uani 1 1 d . . .
N3 N -0.0201(2) -0.2671(4) -0.7858(2) 0.052(2) Uani 1 1 d . . .
C5 C -0.1796(3) -0.2840(6) -0.8128(4) 0.056(3) Uani 1 1 d . . .
C9 C -0.1624(3) 0.3347(5) -0.3055(3) 0.043(3) Uani 1 1 d . . .
C13 C -0.1575(3) 0.2223(5) -0.3155(3) 0.043(3) Uani 1 1 d . . .
C20 C -0.1284(3) 0.2692(6) -0.2540(3) 0.053(3) Uani 1 1 d . . .
C21 C -0.1984(3) 0.2113(5) -0.3319(3) 0.058(3) Uani 1 1 d . . .
H21A H -0.2208 0.2401 -0.3270 0.070 Uiso 1 1 calc R . .
C24 C -0.0093(3) -0.2080(6) -0.8016(3) 0.060(3) Uani 1 1 d . . .
C25 C -0.1740(4) -0.1694(5) -0.8128(3) 0.060(3) Uani 1 1 d . . .
C27 C -0.1857(3) 0.4510(5) -0.3372(4) 0.053(3) Uani 1 1 d . . .
C28 C -0.0230(4) 0.2325(6) -0.0155(3) 0.052(3) Uani 1 1 d . . .
C30 C -0.1956(3) 0.5122(5) -0.3556(4) 0.061(3) Uani 1 1 d . . .
C31 C 0.0056(3) -0.1420(6) -0.8584(3) 0.064(3) Uani 1 1 d . . .
H31A H 0.0064 -0.1379 -0.8860 0.077 Uiso 1 1 calc R . .
C32 C -0.0091(4) -0.3221(5) -0.8060(3) 0.055(3) Uani 1 1 d . . .
C36 C -0.0331(3) 0.1933(6) -0.0865(4) 0.073(4) Uani 1 1 d . . .
H36A H -0.0193 0.1569 -0.0779 0.088 Uiso 1 1 calc R . .
C37 C -0.1445(3) -0.0604(6) -0.8469(3) 0.067(3) Uani 1 1 d . . .
C38 C 0.0415(4) -0.6136(5) -0.8938(3) 0.051(3) Uani 1 1 d . . .
C39 C -0.0970(4) -0.2772(5) -0.6300(3) 0.061(3) Uani 1 1 d . . .
C41 C -0.0850(3) 0.2600(8) -0.1802(4) 0.076(4) Uani 1 1 d . . .
C42 C 0.0240(4) -0.4985(5) -0.8606(3) 0.073(3) Uani 1 1 d . . .
C43 C -0.2688(4) -0.2153(6) -0.6406(3) 0.069(4) Uani 1 1 d . . .
C44 C -0.1285(3) 0.2112(6) -0.2341(3) 0.063(3) Uani 1 1 d . . .
H44A H -0.1433 0.1770 -0.2447 0.075 Uiso 1 1 calc R . .
C45 C -0.1606(3) -0.2704(6) -0.5867(3) 0.074(4) Uani 1 1 d . . .
H45A H -0.1912 -0.2712 -0.5831 0.089 Uiso 1 1 calc R . .
C46 C -0.1303(6) -0.5613(12) -0.9166(10) 0.174(12) Uani 1 1 d . . .
C47 C -0.2086(3) 0.6301(6) -0.3911(3) 0.047(3) Uani 1 1 d . . .
C49 C -0.3234(4) -0.2513(6) -0.5920(4) 0.082(4) Uani 1 1 d . . .
H49A H -0.3487 -0.2749 -0.5872 0.098 Uiso 1 1 calc R . .
C50 C -0.1840(4) 0.5691(6) -0.3348(3) 0.074(3) Uani 1 1 d . . .
H50A H -0.1721 0.5673 -0.3093 0.089 Uiso 1 1 calc R . .
C51 C -0.2081(4) -0.2249(7) -0.7555(4) 0.071(3) Uani 1 1 d . . .
C52 C -0.1798(3) 0.3796(5) -0.2811(3) 0.059(3) Uani 1 1 d . . .
H52A H -0.1847 0.3715 -0.2542 0.071 Uiso 1 1 calc R . .
C53 C -0.2507(3) -0.2183(7) -0.6796(4) 0.065(3) Uani 1 1 d . . .
C54 C -0.0660(4) 0.2473(7) -0.1387(3) 0.065(3) Uani 1 1 d . . .
C55 C -0.0068(3) -0.1975(6) -0.8418(3) 0.065(3) Uani 1 1 d . . .
H55A H -0.0140 -0.2301 -0.8589 0.078 Uiso 1 1 calc R . .
C56 C 0.0337(4) 0.0377(6) -0.9087(3) 0.066(3) Uani 1 1 d . . .
H56A H 0.0260 0.0473 -0.9348 0.080 Uiso 1 1 calc R . .
C57 C -0.0374(3) -0.2688(5) -0.7458(4) 0.060(3) Uani 1 1 d . . .
C59 C -0.2302(4) -0.0287(7) -0.4045(4) 0.093(4) Uani 1 1 d . . .
H59A H -0.2583 -0.0465 -0.4042 0.112 Uiso 1 1 calc R . .
C60 C -0.0887(3) -0.2756(6) -0.5578(3) 0.067(4) Uani 1 1 d . . .
H60A H -0.0701 -0.2768 -0.5357 0.080 Uiso 1 1 calc R . .
C61 C -0.0778(3) -0.2751(6) -0.6704(4) 0.061(3) Uani 1 1 d . . .
C62 C -0.3042(4) -0.2206(6) -0.5618(3) 0.065(3) Uani 1 1 d . . .
C63 C 0.0112(4) -0.4345(5) -0.8422(3) 0.063(3) Uani 1 1 d . . .
C65 C -0.1485(4) 0.0305(6) -0.4054(4) 0.080(4) Uani 1 1 d . . .
H65A H -0.1210 0.0499 -0.4070 0.096 Uiso 1 1 calc R . .
C66 C 0.0228(3) -0.0151(6) -0.8935(3) 0.069(3) Uani 1 1 d . . .
H66A H 0.0099 -0.0447 -0.9101 0.083 Uiso 1 1 calc R . .
C67 C -0.1959(4) -0.0599(6) -0.4243(4) 0.066(3) Uani 1 1 d . . .
C68 C 0.0534(4) -0.6762(6) -0.9100(3) 0.055(3) Uani 1 1 d . . .
C69 C -0.1300(4) 0.0007(6) -0.8669(4) 0.087(4) Uani 1 1 d . . .
C70 C -0.1747(3) 0.1154(5) -0.3618(3) 0.058(3) Uani 1 1 d . . .
C71 C -0.2219(4) 0.5770(6) -0.4090(3) 0.072(3) Uani 1 1 d . . .
H71A H -0.2365 0.5796 -0.4333 0.086 Uiso 1 1 calc R . .
C72 C 0.0318(3) -0.3319(5) -0.8214(3) 0.060(3) Uani 1 1 d . . .
H72A H 0.0533 -0.3011 -0.8195 0.073 Uiso 1 1 calc R . .
C73 C 0.0296(3) -0.0307(5) -0.8518(4) 0.064(3) Uani 1 1 d . . .
C74 C -0.0107(3) -0.5382(7) -0.8782(4) 0.110(5) Uani 1 1 d . . .
H74A H -0.0401 -0.5254 -0.8783 0.132 Uiso 1 1 calc R . .
C75 C -0.1908(3) 0.6256(6) -0.3530(4) 0.077(4) Uani 1 1 d . . .
H75A H -0.1832 0.6618 -0.3395 0.093 Uiso 1 1 calc R . .
C76 C -0.0406(4) -0.3675(6) -0.8079(3) 0.081(4) Uani 1 1 d . . .
H76A H -0.0684 -0.3607 -0.7969 0.097 Uiso 1 1 calc R . .
C77 C -0.1406(4) 0.0896(6) -0.9069(4) 0.085(4) Uani 1 1 d . . .
H77A H -0.1592 0.1148 -0.9219 0.102 Uiso 1 1 calc R . .
C78 C -0.2021(4) -0.1212(6) -0.8174(3) 0.069(3) Uani 1 1 d . . .
H78A H -0.2313 -0.1255 -0.8087 0.083 Uiso 1 1 calc R . .
C79 C -0.1052(4) 0.2071(6) -0.1976(4) 0.079(4) Uani 1 1 d . . .
H79A H -0.1031 0.1688 -0.1847 0.095 Uiso 1 1 calc R . .
C80 C -0.1321(3) 0.1275(6) -0.3442(3) 0.080(4) Uani 1 1 d . . .
H80A H -0.1093 0.0990 -0.3476 0.096 Uiso 1 1 calc R . .
C81 C 0.0036(3) -0.1585(5) -0.7781(4) 0.072(3) Uani 1 1 d . . .
H81A H 0.0040 -0.1635 -0.7505 0.086 Uiso 1 1 calc R . .
C82 C -0.1304(4) -0.1642(5) -0.8257(3) 0.065(3) Uani 1 1 d . . .
H82A H -0.1107 -0.1971 -0.8225 0.078 Uiso 1 1 calc R . .
C83 C -0.2084(3) 0.1599(6) -0.3552(3) 0.067(3) Uani 1 1 d . . .
H83A H -0.2365 0.1548 -0.3661 0.081 Uiso 1 1 calc R . .
C84 C -0.0466(4) 0.1966(7) -0.1250(4) 0.088(4) Uani 1 1 d . . .
H84A H -0.0422 0.1629 -0.1419 0.106 Uiso 1 1 calc R . .
C85 C 0.0168(3) -0.0922(5) -0.8347(4) 0.056(3) Uani 1 1 d . . .
C86 C -0.3180(5) -0.2267(6) -0.5175(4) 0.073(4) Uani 1 1 d . . .
C87 C -0.1987(4) -0.1231(6) -0.4416(3) 0.065(3) Uani 1 1 d . . .
C88 C -0.2110(4) 0.6919(6) -0.4103(3) 0.056(3) Uani 1 1 d . . .
C89 C -0.0869(4) 0.3146(6) -0.2033(4) 0.073(4) Uani 1 1 d . . .
H89A H -0.0733 0.3498 -0.1928 0.088 Uiso 1 1 calc R . .
C90 C -0.1825(4) 0.0584(5) -0.3850(3) 0.063(3) Uani 1 1 d . . .
C91 C 0.0656(3) 0.0684(6) -0.8450(3) 0.076(4) Uani 1 1 d . . .
H91A H 0.0806 0.0981 -0.8299 0.091 Uiso 1 1 calc R . .
C92 C -0.1465(4) -0.4512(7) -0.8773(6) 0.098(5) Uani 1 1 d . . .
C93 C -0.1707(3) 0.4028(7) -0.3623(3) 0.065(3) Uani 1 1 d . . .
H93A H -0.1689 0.4095 -0.3897 0.079 Uiso 1 1 calc R . .
C94 C 0.0527(4) 0.0147(6) -0.8273(3) 0.088(4) Uani 1 1 d . . .
H94A H 0.0584 0.0073 -0.8004 0.105 Uiso 1 1 calc R . .
C95 C -0.1245(4) 0.1818(6) -0.3218(3) 0.068(3) Uani 1 1 d . . .
H95A H -0.0966 0.1895 -0.3113 0.082 Uiso 1 1 calc R . .
C96 C -0.1571(4) 0.0367(7) -0.8887(4) 0.105(5) Uani 1 1 d . . .
H96A H -0.1869 0.0262 -0.8915 0.126 Uiso 1 1 calc R . .
C98 C -0.1706(3) -0.3414(7) -0.8756(4) 0.084(4) Uani 1 1 d . . .
H98A H -0.1722 -0.3412 -0.9033 0.101 Uiso 1 1 calc R . .
C99 C -0.1667(4) -0.3359(7) -0.7932(4) 0.081(4) Uani 1 1 d . . .
H99A H -0.1636 -0.3341 -0.7656 0.097 Uiso 1 1 calc R . .
C100 C -0.3061(4) -0.2484(7) -0.6305(4) 0.097(5) Uani 1 1 d . . .
H10A H -0.3207 -0.2701 -0.6506 0.116 Uiso 1 1 calc R . .
C101 C -0.2237(3) 0.0280(7) -0.3852(4) 0.102(5) Uani 1 1 d . . .
H10B H -0.2475 0.0464 -0.3721 0.122 Uiso 1 1 calc R . .
C103 C -0.1333(4) -0.2684(5) -0.5545(3) 0.052(3) Uani 1 1 d . . .
C104 C -0.1899(3) 0.4364(5) -0.2969(3) 0.053(3) Uani 1 1 d . . .
H10C H -0.2002 0.4672 -0.2797 0.063 Uiso 1 1 calc R . .
C105 C 0.0657(3) -0.5211(7) -0.8637(3) 0.087(4) Uani 1 1 d . . .
H10D H 0.0893 -0.4968 -0.8551 0.104 Uiso 1 1 calc R . .
C106 C -0.2562(3) -0.2666(6) -0.7065(4) 0.075(4) Uani 1 1 d . . .
H10E H -0.2740 -0.2995 -0.6984 0.089 Uiso 1 1 calc R . .
C107 C -0.2149(3) 0.5201(6) -0.3930(3) 0.067(3) Uani 1 1 d . . .
H10F H -0.2232 0.4851 -0.4075 0.081 Uiso 1 1 calc R . .
C109 C -0.1063(4) 0.3204(6) -0.2385(3) 0.070(4) Uani 1 1 d . . .
H10G H -0.1052 0.3577 -0.2525 0.084 Uiso 1 1 calc R . .
C110 C -0.1424(4) -0.2712(6) -0.6255(3) 0.074(4) Uani 1 1 d . . .
H11A H -0.1607 -0.2678 -0.6477 0.089 Uiso 1 1 calc R . .
C112 C -0.0861(4) 0.0225(6) -0.8595(4) 0.086(4) Uani 1 1 d . . .
H11B H -0.0680 0.0001 -0.8422 0.104 Uiso 1 1 calc R . .
C113 C -0.0732(4) -0.2330(6) -0.7364(3) 0.081(4) Uani 1 1 d . . .
H11C H -0.0856 -0.2075 -0.7559 0.097 Uiso 1 1 calc R . .
C114 C -0.0913(4) -0.2339(6) -0.6993(4) 0.079(4) Uani 1 1 d . . .
H11D H -0.1136 -0.2055 -0.6932 0.094 Uiso 1 1 calc R . .
C116 C -0.1891(4) -0.0660(6) -0.8345(3) 0.083(4) Uani 1 1 d . . .
H11E H -0.2090 -0.0334 -0.8379 0.100 Uiso 1 1 calc R . .
C117 C 0.0737(3) -0.5775(5) -0.8790(4) 0.064(3) Uani 1 1 d . . .
H11F H 0.1027 -0.5922 -0.8793 0.077 Uiso 1 1 calc R . .
C118 C -0.0265(3) -0.3103(6) -0.7182(4) 0.069(3) Uani 1 1 d . . .
H11G H -0.0054 -0.3399 -0.7250 0.083 Uiso 1 1 calc R . .
C119 C -0.1556(4) -0.0287(6) -0.4245(3) 0.074(3) Uani 1 1 d . . .
H11H H -0.1318 -0.0471 -0.4377 0.089 Uiso 1 1 calc R . .
C120 C -0.2384(3) -0.2705(6) -0.7432(4) 0.067(3) Uani 1 1 d . . .
H12A H -0.2460 -0.3030 -0.7602 0.080 Uiso 1 1 calc R . .
C121 C -0.1579(3) -0.3923(7) -0.8127(5) 0.079(4) Uani 1 1 d . . .
H12B H -0.1516 -0.4279 -0.7980 0.095 Uiso 1 1 calc R . .
C122 C -0.0384(3) 0.2391(8) -0.0606(3) 0.074(4) Uani 1 1 d . . .
C123 C 0.0006(4) -0.5919(5) -0.8937(3) 0.068(3) Uani 1 1 d . . .
H12C H -0.0215 -0.6161 -0.9054 0.082 Uiso 1 1 calc R . .
C125 C -0.0707(4) 0.0721(6) -0.8760(4) 0.081(4) Uani 1 1 d . . .
H12D H -0.0422 0.0859 -0.8700 0.098 Uiso 1 1 calc R . .
C126 C -0.1589(3) 0.3472(6) -0.3470(4) 0.069(3) Uani 1 1 d . . .
H12F H -0.1483 0.3164 -0.3639 0.083 Uiso 1 1 calc R . .
C127 C -0.1131(8) -0.6339(15) -0.9424(4) 0.137(12) Uani 1 1 d . . .
C128 C -0.0582(3) 0.2978(6) -0.0737(4) 0.078(4) Uani 1 1 d . . .
H12E H -0.0610 0.3322 -0.0571 0.093 Uiso 1 1 calc R . .
C130 C -0.1802(3) -0.2884(6) -0.8535(5) 0.086(4) Uani 1 1 d . . .
H13A H -0.1876 -0.2526 -0.8676 0.103 Uiso 1 1 calc R . .
C131 C -0.0969(4) 0.1049(5) -0.9028(3) 0.070(3) Uani 1 1 d . . .
C133 C -0.1587(3) -0.3948(7) -0.8548(5) 0.078(4) Uani 1 1 d . . .
C134 C 0.0155(3) -0.1032(6) -0.7936(3) 0.070(3) Uani 1 1 d . . .
H13B H 0.0233 -0.0711 -0.7764 0.084 Uiso 1 1 calc R . .
C136 C -0.1171(3) -0.1104(6) -0.8430(3) 0.071(3) Uani 1 1 d . . .
H13C H -0.0882 -0.1075 -0.8525 0.085 Uiso 1 1 calc R . .
C137 C -0.1500(4) -0.5057(9) -0.8586(5) 0.110(6) Uani 1 1 d . . .
H13D H -0.15