####################################################################### 
# 
# This file contains crystal structure data downloaded from the 
# Cambridge Structural Database (CSD) hosted by the Cambridge 
# Crystallographic Data Centre (CCDC).
# 
# Full information about CCDC data access policies and citation 
# guidelines are available at http://www.ccdc.cam.ac.uk/access/V1 
# 
# Audit and citation data items may have been added by the CCDC. 
# Please retain this information to preserve the provenance of 
# this file and to allow appropriate attribution of the data. 
# 
#######################################################################

data_cucro4cu
_audit_block_doi                 10.5517/cc3yt94
_database_code_depnum_ccdc_archive 'CCDC 118026'
loop_
_citation_id
_citation_doi
_citation_year
1 10.1016/S0020-1693(99)00195-4 1999
_audit_update_record             
;
1999-04-07 deposited with the CCDC.	2024-07-09 downloaded from the CCDC.
;

#############################################################
#data_cucro4cu 

_audit_creation_method           'manual editing of form.cif'
_chemical_name_systematic        
; 
3,14-dimethyl-2,6,13,17-tetraazatricyclo[14,4,01.18,07.12]docosane copper(II) chromate 
;
_chemical_name_common            ?
_chemical_formula_moiety         ?
_chemical_formula_sum            'C20 H50 Cr Cu N4 O9'
_chemical_formula_weight         606.18

loop_
_atom_type_symbol
_atom_type_description
_atom_type_scat_dispersion_real
_atom_type_scat_dispersion_imag
_atom_type_scat_source
C C 0.0033 0.0016 'International Tables Vol C Tables 4.2.6.8 and 6.1.1.4'
H H 0.0000 0.0000 'International Tables Vol C Tables 4.2.6.8 and 6.1.1.4'
N N 0.0061 0.0033 'International Tables Vol C Tables 4.2.6.8 and 6.1.1.4'
O O 0.0106 0.0060 'International Tables Vol C Tables 4.2.6.8 and 6.1.1.4'
Cr Cr 0.3209 0.6236 'International Tables Vol C Tables 4.2.6.8 and 6.1.1.4'
Cu Cu 0.3201 1.2651 'International Tables Vol C Tables 4.2.6.8 and 6.1.1.4'

_symmetry_cell_setting           Triclinic
_symmetry_space_group_name_H-M   'P -1'

loop_
_symmetry_equiv_pos_as_xyz
'x, y, z'
'-x, -y, -z'

_cell_length_a                   9.6137(15)
_cell_length_b                   12.034(2)
_cell_length_c                   14.482(3)
_cell_angle_alpha                113.627(18)
_cell_angle_beta                 101.178(12)
_cell_angle_gamma                102.450(13)
_cell_volume                     1423.5(4)
_cell_formula_units_Z            2
_cell_measurement_temperature    288(2)
_cell_measurement_reflns_used    25
_cell_measurement_theta_min      10.03
_cell_measurement_theta_max      14.29

_exptl_crystal_description       block
_exptl_crystal_colour            'light black'
_exptl_crystal_size_max          0.13
_exptl_crystal_size_mid          0.10
_exptl_crystal_size_min          0.17
_exptl_crystal_density_meas      ?
_exptl_crystal_density_diffrn    1.414
_exptl_crystal_density_method    'not measured'
_exptl_crystal_F_000             646
_exptl_absorpt_coefficient_mu    1.179
_exptl_absorpt_correction_type   ?
_exptl_absorpt_correction_T_min  ?
_exptl_absorpt_correction_T_max  ?

_exptl_special_details           
; 
? 
;

_diffrn_ambient_temperature      288(2)
_diffrn_radiation_wavelength     0.71069
_diffrn_radiation_type           MoK\a
_diffrn_radiation_source         'fine-focus sealed tube'
_diffrn_radiation_monochromator  graphite
_diffrn_measurement_device_type  'Nnonius CAD-4'
_diffrn_measurement_method       'Theta/2theta scan b/p/b'
_diffrn_detector_area_resol_mean ?
_diffrn_standards_number         3
_diffrn_standards_interval_count ?
_diffrn_standards_interval_time  300
_diffrn_standards_decay_%        1.3
_diffrn_reflns_number            5327
_diffrn_reflns_av_R_equivalents  0.0472
_diffrn_reflns_av_sigmaI/netI    0.1610
_diffrn_reflns_limit_h_min       0
_diffrn_reflns_limit_h_max       11
_diffrn_reflns_limit_k_min       -14
_diffrn_reflns_limit_k_max       13
_diffrn_reflns_limit_l_min       -17
_diffrn_reflns_limit_l_max       16
_diffrn_reflns_theta_min         2.28
_diffrn_reflns_theta_max         25.17
_reflns_number_total             5117
_reflns_number_gt                1968
_reflns_threshold_expression     >2sigma(I)

_computing_data_collection       CAD4
_computing_cell_refinement       CAD4
_computing_data_reduction        CAD4
_computing_structure_solution    'SHELXS-97 (Sheldrick, 1990)'
_computing_structure_refinement  'SHELXL-97 (Sheldrick, 1997)'
_computing_molecular_graphics    'Ortep-3 for Windows (Farrugia, 1997)'
_computing_publication_material  'SHELXL-97 (Sheldrick, 1997)'

_refine_special_details          
; 
Refinement of F^2^ against ALL reflections.  The weighted R-factor wR and 
goodness of fit S are based on F^2^, conventional R-factors R are based 
on F, with F set to zero for negative F^2^. The threshold expression of 
F^2^ > 2sigma(F^2^) is used only for calculating R-factors(gt) etc. and is 
not relevant to the choice of reflections for refinement.  R-factors based 
on F^2^ are statistically about twice as large as those based on F, and R- 
factors based on ALL data will be even larger. 
;

_refine_ls_structure_factor_coef Fsqd
_refine_ls_matrix_type           full
_refine_ls_weighting_scheme      
'calc w=1/[\s^2^(Fo^2^)+(0.0300P)^2^+0.5000P] where P=(Fo^2^+2Fc^2^)/3'
_atom_sites_solution_primary     direct
_atom_sites_solution_secondary   difmap
_atom_sites_solution_hydrogens   geom
_refine_ls_hydrogen_treatment    mixed
_refine_ls_extinction_method     none
_refine_ls_extinction_coef       ?
_refine_ls_number_reflns         5117
_refine_ls_number_parameters     319
_refine_ls_number_restraints     0
_refine_ls_R_factor_all          0.0835
_refine_ls_R_factor_gt           0.0339
_refine_ls_wR_factor_ref         0.0842
_refine_ls_wR_factor_gt          0.0642
_refine_ls_goodness_of_fit_ref   0.540
_refine_ls_restrained_S_all      0.540
_refine_ls_shift/su_max          0.000
_refine_ls_shift/su_mean         0.000

loop_
_atom_site_label
_atom_site_type_symbol
_atom_site_fract_x
_atom_site_fract_y
_atom_site_fract_z
_atom_site_U_iso_or_equiv
_atom_site_adp_type
_atom_site_occupancy
_atom_site_calc_flag
_atom_site_refinement_flags
_atom_site_disorder_assembly
_atom_site_disorder_group
Cu1 Cu 0.0000 0.0000 0.0000 0.0340(2) Uani 1 d S . .
Cu2 Cu 0.0000 0.0000 0.5000 0.0351(2) Uani 1 d S . .
Cr Cr -0.00500(10) 0.10719(8) 0.28048(6) 0.0501(2) Uani 1 d . . .
O1 O 0.0247(4) 0.0131(3) 0.1742(3) 0.0771(12) Uani 1 d . . .
O2 O -0.1866(4) 0.0511(4) 0.2638(3) 0.0957(14) Uani 1 d . . .
O3 O 0.0370(4) 0.2497(4) 0.2888(3) 0.0932(13) Uani 1 d . . .
O4 O 0.0889(4) 0.1024(4) 0.3849(2) 0.0683(11) Uani 1 d . . .
OW1 O 0.3857(4) 0.1002(3) 0.3426(3) 0.0693(11) Uani 1 d . . .
OW2 O -0.4013(4) 0.1448(3) 0.2573(3) 0.0693(11) Uani 1 d . . .
OW3 O -0.1878(4) 0.3847(3) 0.3264(3) 0.0745(11) Uani 1 d . . .
OW4 O 0.5014(4) 0.6457(3) 0.4870(3) 0.0758(11) Uani 1 d . . .
OW5 O 0.2461(4) 0.4528(3) 0.4919(3) 0.0810(12) Uani 1 d . . .
N1 N -0.2007(3) 0.0193(3) -0.0413(3) 0.0267(8) Uani 1 d . . .
HN1 H -0.2166 0.0067 -0.1093 0.032 Uiso 1 calc R . .
N2 N 0.0781(3) 0.1945(3) 0.0730(2) 0.0227(8) Uani 1 d . . .
HN2 H 0.0812 0.2176 0.1415 0.027 Uiso 1 calc R . .
N3 N -0.2118(4) -0.0141(3) 0.4300(2) 0.0310(9) Uani 1 d . . .
HN3 H -0.2079 0.0071 0.3766 0.037 Uiso 1 calc R . .
N4 N -0.0640(3) -0.1875(3) 0.4076(2) 0.0226(8) Uani 1 d . . .
HN4 H -0.0863 -0.2222 0.4506 0.027 Uiso 1 calc R . .
C1 C -0.2426(4) -0.2652(4) 0.0193(3) 0.0471(13) Uani 1 d . . .
H1A H -0.1736 -0.3034 0.0414 0.071 Uiso 1 calc R . .
H1B H -0.3426 -0.3122 0.0106 0.071 Uiso 1 calc R . .
H1C H -0.2166 -0.1778 0.0721 0.071 Uiso 1 calc R . .
C2 C -0.2349(4) -0.2685(4) -0.0808(3) 0.0353(11) Uani 1 d . . .
H2 H -0.2617 -0.3582 -0.1340 0.042 Uiso 1 calc R . .
C3 C -0.3408(5) -0.2078(4) -0.1214(4) 0.0568(15) Uani 1 d . . .
H3A H -0.3229 -0.2067 -0.1847 0.068 Uiso 1 calc R . .
H3B H -0.4429 -0.2632 -0.1424 0.068 Uiso 1 calc R . .
C4 C -0.3297(4) -0.0742(4) -0.0462(4) 0.0467(13) Uani 1 d . . .
H4A H -0.4203 -0.0568 -0.0698 0.056 Uiso 1 calc R . .
H4B H -0.3203 -0.0671 0.0240 0.056 Uiso 1 calc R . .
C5 C -0.1897(4) 0.1561(4) 0.0210(3) 0.0328(11) Uani 1 d . . .
H5 H -0.1938 0.1707 0.0919 0.039 Uiso 1 calc R . .
C6 C -0.3157(4) 0.1929(4) -0.0302(4) 0.0460(13) Uani 1 d . . .
H6A H -0.3170 0.1729 -0.1023 0.055 Uiso 1 calc R . .
H6B H -0.4113 0.1419 -0.0335 0.055 Uiso 1 calc R . .
C7 C -0.2978(5) 0.3314(4) 0.0292(4) 0.0461(12) Uani 1 d . . .
H7A H -0.3104 0.3495 0.0981 0.055 Uiso 1 calc R . .
H7B H -0.3748 0.3513 -0.0093 0.055 Uiso 1 calc R . .
C8 C -0.1424(5) 0.4163(4) 0.0442(4) 0.0483(13) Uani 1 d . . .
H8A H -0.1352 0.4076 -0.0241 0.058 Uiso 1 calc R . .
H8B H -0.1293 0.5055 0.0891 0.058 Uiso 1 calc R . .
C9 C -0.0217(5) 0.3788(4) 0.0937(4) 0.0401(12) Uani 1 d . . .
H9A H -0.0225 0.3968 0.1651 0.048 Uiso 1 calc R . .
H9B H 0.0748 0.4306 0.0989 0.048 Uiso 1 calc R . .
C10 C -0.0392(4) 0.2398(4) 0.0322(3) 0.0309(10) Uani 1 d . . .
H10 H -0.0388 0.2247 -0.0395 0.037 Uiso 1 calc R . .
C11 C -0.0712(5) 0.2228(4) 0.7273(4) 0.0523(14) Uani 1 d . . .
H11A H 0.0234 0.2527 0.7810 0.078 Uiso 1 calc R . .
H11B H -0.1154 0.1319 0.7003 0.078 Uiso 1 calc R . .
H11C H -0.1369 0.2655 0.7574 0.078 Uiso 1 calc R . .
C12 C -0.0473(4) 0.2511(4) 0.6385(3) 0.0336(11) Uani 1 d . . .
H12 H -0.0022 0.3442 0.6679 0.040 Uiso 1 calc R . .
C13 C -0.1852(5) 0.2084(5) 0.5496(3) 0.0490(14) Uani 1 d . . .
H13A H -0.1563 0.2272 0.4955 0.059 Uiso 1 calc R . .
H13B H -0.2471 0.2600 0.5757 0.059 Uiso 1 calc R . .
C14 C -0.2799(5) 0.0705(5) 0.4977(3) 0.0530(14) Uani 1 d . . .
H14A H -0.2944 0.0456 0.5520 0.064 Uiso 1 calc R . .
H14B H -0.3776 0.0598 0.4550 0.064 Uiso 1 calc R . .
C15 C -0.3043(4) -0.1499(4) 0.3797(3) 0.0282(10) Uani 1 d . . .
H15 H -0.3207 -0.1720 0.4359 0.034 Uiso 1 calc R . .
C16 C -0.4554(5) -0.1840(5) 0.3025(4) 0.0577(15) Uani 1 d . . .
H16A H -0.4413 -0.1527 0.2516 0.069 Uiso 1 calc R . .
H16B H -0.5154 -0.1403 0.3410 0.069 Uiso 1 calc R . .
C17 C -0.5413(5) -0.3272(4) 0.2425(4) 0.0520(14) Uani 1 d . . .
H17A H -0.5756 -0.3551 0.2907 0.062 Uiso 1 calc R . .
H17B H -0.6289 -0.3431 0.1868 0.062 Uiso 1 calc R . .
C18 C -0.4476(5) -0.4039(4) 0.1944(4) 0.0592(15) Uani 1 d . . .
H18A H -0.5027 -0.4943 0.1656 0.071 Uiso 1 calc R . .
H18B H -0.4310 -0.3886 0.1359 0.071 Uiso 1 calc R . .
C19 C -0.2996(5) -0.3735(4) 0.2706(4) 0.0536(14) Uani 1 d . . .
H19A H -0.2408 -0.4206 0.2334 0.064 Uiso 1 calc R . .
H19B H -0.3143 -0.3991 0.3245 0.064 Uiso 1 calc R . .
C20 C -0.2171(4) -0.2310(4) 0.3221(3) 0.0322(10) Uani 1 d . . .
H20 H -0.1989 -0.2081 0.2667 0.039 Uiso 1 calc R . .

loop_
_atom_site_aniso_label
_atom_site_aniso_U_11
_atom_site_aniso_U_22
_atom_site_aniso_U_33
_atom_site_aniso_U_23
_atom_site_aniso_U_13
_atom_site_aniso_U_12
Cu1 0.0231(4) 0.0306(5) 0.0537(6) 0.0207(4) 0.0210(4) 0.0088(4)
Cu2 0.0238(4) 0.0415(5) 0.0305(5) 0.0066(4) 0.0064(4) 0.0146(4)
Cr 0.0708(6) 0.0564(6) 0.0382(5) 0.0280(4) 0.0278(5) 0.0270(5)
O1 0.123(3) 0.079(3) 0.061(3) 0.045(2) 0.057(2) 0.043(2)
O2 0.075(3) 0.156(4) 0.103(3) 0.092(3) 0.047(3) 0.041(3)
O3 0.105(3) 0.100(3) 0.070(3) 0.046(3) 0.027(3) 0.012(3)
O4 0.055(2) 0.122(3) 0.043(2) 0.045(2) 0.0148(18) 0.045(2)
OW1 0.067(2) 0.084(3) 0.088(3) 0.058(2) 0.033(2) 0.038(2)
OW2 0.070(3) 0.080(3) 0.066(3) 0.036(2) 0.019(2) 0.033(2)
OW3 0.091(3) 0.087(3) 0.077(3) 0.049(2) 0.040(2) 0.051(2)
OW4 0.073(3) 0.080(3) 0.081(3) 0.044(2) 0.021(2) 0.027(2)
OW5 0.090(3) 0.077(3) 0.073(3) 0.031(2) 0.021(2) 0.032(2)
N1 0.0177(18) 0.0243(19) 0.029(2) 0.0081(16) 0.0045(16) 0.0016(15)
N2 0.0204(18) 0.032(2) 0.0198(19) 0.0172(16) 0.0090(15) 0.0039(15)
N3 0.041(2) 0.039(2) 0.0139(18) 0.0056(17) 0.0166(17) 0.0221(18)
N4 0.0226(19) 0.0255(19) 0.0162(18) 0.0091(16) 0.0000(15) 0.0076(15)
C1 0.022(2) 0.076(4) 0.062(3) 0.043(3) 0.028(2) 0.017(2)
C2 0.029(2) 0.025(2) 0.044(3) 0.019(2) 0.001(2) -0.0011(19)
C3 0.020(3) 0.045(3) 0.095(4) 0.034(3) 0.016(3) -0.009(2)
C4 0.030(3) 0.054(3) 0.080(4) 0.043(3) 0.028(3) 0.025(2)
C5 0.035(3) 0.034(3) 0.030(3) 0.011(2) 0.018(2) 0.014(2)
C6 0.029(3) 0.050(3) 0.063(3) 0.025(3) 0.019(2) 0.019(2)
C7 0.046(3) 0.037(3) 0.057(3) 0.017(3) 0.023(3) 0.020(2)
C8 0.053(3) 0.037(3) 0.061(3) 0.025(3) 0.026(3) 0.013(2)
C9 0.049(3) 0.029(2) 0.053(3) 0.023(2) 0.023(3) 0.016(2)
C10 0.029(2) 0.032(2) 0.033(3) 0.014(2) 0.015(2) 0.009(2)
C11 0.062(3) 0.049(3) 0.061(3) 0.017(3) 0.055(3) 0.030(3)
C12 0.023(2) 0.042(3) 0.047(3) 0.026(2) 0.021(2) 0.015(2)
C13 0.049(3) 0.081(4) 0.028(3) 0.023(3) 0.011(2) 0.046(3)
C14 0.036(3) 0.088(4) 0.027(3) 0.019(3) -0.005(2) 0.032(3)
C15 0.014(2) 0.037(3) 0.022(2) 0.009(2) -0.0008(18) 0.0021(19)
C16 0.034(3) 0.083(4) 0.058(4) 0.036(3) 0.025(3) 0.007(3)
C17 0.024(3) 0.047(3) 0.061(4) 0.007(3) 0.008(2) 0.008(2)
C18 0.029(3) 0.053(3) 0.063(4) 0.006(3) 0.010(3) -0.002(2)
C19 0.043(3) 0.039(3) 0.073(4) 0.019(3) 0.022(3) 0.013(2)
C20 0.020(2) 0.041(3) 0.041(3) 0.020(2) 0.017(2) 0.011(2)

_geom_special_details            
; 
All esds (except the esd in the dihedral angle between two l.s. planes) 
are estimated using the full covariance matrix.  The cell esds are taken 
into account individually in the estimation of esds in distances, angles 
and torsion angles; correlations between esds in cell parameters are only 
used when they are defined by crystal symmetry.  An approximate (isotropic) 
treatment of cell esds is used for estimating esds involving l.s. planes. 
;

loop_
_geom_bond_atom_site_label_1
_geom_bond_atom_site_label_2
_geom_bond_distance
_geom_bond_site_symmetry_2
_geom_bond_publ_flag
Cu1 N1 1.998(3) . ?
Cu1 N1 1.998(3) 2 ?
Cu1 N2 2.028(3) . ?
Cu1 N2 2.028(3) 2 ?
Cu1 O1 2.425(3) . ?
Cu1 O1 2.425(3) 2 ?
Cu2 N4 1.981(3) 2_556 ?
Cu2 N4 1.981(3) . ?
Cu2 N3 2.029(3) . ?
Cu2 N3 2.029(3) 2_556 ?
Cr O3 1.623(4) . ?
Cr O1 1.626(3) . ?
Cr O4 1.634(3) . ?
Cr O2 1.662(4) . ?
N1 C4 1.452(5) . ?
N1 C5 1.494(5) . ?
N2 C10 1.476(4) . ?
N2 C2 1.534(4) 2 ?
N3 C15 1.470(5) . ?
N3 C14 1.470(5) . ?
N4 C12 1.548(4) 2_556 ?
N4 C20 1.554(4) . ?
C1 C2 1.450(5) . ?
C2 C3 1.532(5) . ?
C2 N2 1.534(4) 2 ?
C3 C4 1.504(6) . ?
C5 C10 1.511(5) . ?
C5 C6 1.537(5) . ?
C6 C7 1.489(5) . ?
C7 C8 1.537(5) . ?
C8 C9 1.492(5) . ?
C9 C10 1.499(5) . ?
C11 C12 1.502(5) . ?
C12 C13 1.481(5) . ?
C12 N4 1.548(4) 2_556 ?
C13 C14 1.494(6) . ?
C15 C16 1.509(5) . ?
C15 C20 1.524(5) . ?
C16 C17 1.521(6) . ?
C17 C18 1.494(6) . ?
C18 C19 1.490(6) . ?
C19 C20 1.512(5) . ?

loop_
_geom_angle_atom_site_label_1
_geom_angle_atom_site_label_2
_geom_angle_atom_site_label_3
_geom_angle
_geom_angle_site_symmetry_1
_geom_angle_site_symmetry_3
_geom_angle_publ_flag
N1 Cu1 N1 180.0 . 2 ?
N1 Cu1 N2 85.11(12) . . ?
N1 Cu1 N2 94.89(12) 2 . ?
N1 Cu1 N2 94.89(12) . 2 ?
N1 Cu1 N2 85.11(12) 2 2 ?
N2 Cu1 N2 180.0 . 2 ?
N1 Cu1 O1 103.17(13) . . ?
N1 Cu1 O1 76.83(13) 2 . ?
N2 Cu1 O1 87.45(12) . . ?
N2 Cu1 O1 92.55(12) 2 . ?
N1 Cu1 O1 76.83(13) . 2 ?
N1 Cu1 O1 103.17(13) 2 2 ?
N2 Cu1 O1 92.55(12) . 2 ?
N2 Cu1 O1 87.45(12) 2 2 ?
O1 Cu1 O1 180.0 . 2 ?
N4 Cu2 N4 180.0 2_556 . ?
N4 Cu2 N3 94.59(12) 2_556 . ?
N4 Cu2 N3 85.41(12) . . ?
N4 Cu2 N3 85.41(12) 2_556 2_556 ?
N4 Cu2 N3 94.59(12) . 2_556 ?
N3 Cu2 N3 180.0 . 2_556 ?
O3 Cr O1 107.47(19) . . ?
O3 Cr O4 113.5(2) . . ?
O1 Cr O4 110.83(18) . . ?
O3 Cr O2 110.2(2) . . ?
O1 Cr O2 106.8(2) . . ?
O4 Cr O2 107.93(17) . . ?
Cr O1 Cu1 134.66(19) . . ?
C4 N1 C5 114.8(3) . . ?
C4 N1 Cu1 117.4(2) . . ?
C5 N1 Cu1 109.1(2) . . ?
C10 N2 C2 112.3(3) . 2 ?
C10 N2 Cu1 108.0(2) . . ?
C2 N2 Cu1 121.4(2) 2 . ?
C15 N3 C14 112.2(3) . . ?
C15 N3 Cu2 107.6(2) . . ?
C14 N3 Cu2 116.4(2) . . ?
C12 N4 C20 112.6(3) 2_556 . ?
C12 N4 Cu2 120.7(2) 2_556 . ?
C20 N4 Cu2 109.5(2) . . ?
C1 C2 C3 112.9(4) . . ?
C1 C2 N2 112.5(3) . 2 ?
C3 C2 N2 105.3(3) . 2 ?
C4 C3 C2 117.1(4) . . ?
N1 C4 C3 110.5(3) . . ?
N1 C5 C10 107.9(3) . . ?
N1 C5 C6 113.3(3) . . ?
C10 C5 C6 109.8(3) . . ?
C7 C6 C5 112.6(4) . . ?
C6 C7 C8 110.9(3) . . ?
C9 C8 C7 110.6(4) . . ?
C8 C9 C10 112.8(4) . . ?
N2 C10 C9 116.8(3) . . ?
N2 C10 C5 108.3(3) . . ?
C9 C10 C5 110.5(3) . . ?
C13 C12 C11 114.9(4) . . ?
C13 C12 N4 107.9(3) . 2_556 ?
C11 C12 N4 110.0(3) . 2_556 ?
C12 C13 C14 117.5(4) . . ?
N3 C14 C13 112.2(4) . . ?
N3 C15 C16 115.0(4) . . ?
N3 C15 C20 108.4(3) . . ?
C16 C15 C20 108.9(3) . . ?
C15 C16 C17 113.8(4) . . ?
C18 C17 C16 112.3(4) . . ?
C19 C18 C17 113.8(4) . . ?
C18 C19 C20 109.4(4) . . ?
C19 C20 C15 113.0(3) . . ?
C19 C20 N4 113.7(3) . . ?
C15 C20 N4 104.7(3) . . ?

loop_
_geom_torsion_atom_site_label_1
_geom_torsion_atom_site_label_2
_geom_torsion_atom_site_label_3
_geom_torsion_atom_site_label_4
_geom_torsion
_geom_torsion_site_symmetry_1
_geom_torsion_site_symmetry_2
_geom_torsion_site_symmetry_3
_geom_torsion_site_symmetry_4
_geom_torsion_publ_flag
O3 Cr O1 Cu1 -34.3(3) . . . . ?
O4 Cr O1 Cu1 -158.8(3) . . . . ?
O2 Cr O1 Cu1 83.9(3) . . . . ?
N1 Cu1 O1 Cr -45.8(3) . . . . ?
N1 Cu1 O1 Cr 134.2(3) 2 . . . ?
N2 Cu1 O1 Cr 38.6(3) . . . . ?
N2 Cu1 O1 Cr -141.4(3) 2 . . . ?
O1 Cu1 O1 Cr -169(82) 2 . . . ?
N1 Cu1 N1 C4 133(54) 2 . . . ?
N2 Cu1 N1 C4 -145.2(3) . . . . ?
N2 Cu1 N1 C4 34.8(3) 2 . . . ?
O1 Cu1 N1 C4 -59.0(3) . . . . ?
O1 Cu1 N1 C4 121.0(3) 2 . . . ?
N1 Cu1 N1 C5 -94(54) 2 . . . ?
N2 Cu1 N1 C5 -12.4(2) . . . . ?
N2 Cu1 N1 C5 167.6(2) 2 . . . ?
O1 Cu1 N1 C5 73.8(3) . . . . ?
O1 Cu1 N1 C5 -106.2(3) 2 . . . ?
N1 Cu1 N2 C10 -15.5(2) . . . . ?
N1 Cu1 N2 C10 164.5(2) 2 . . . ?
N2 Cu1 N2 C10 92(38) 2 . . . ?
O1 Cu1 N2 C10 -118.9(2) . . . . ?
O1 Cu1 N2 C10 61.1(2) 2 . . . ?
N1 Cu1 N2 C2 -147.3(3) . . . 2 ?
N1 Cu1 N2 C2 32.7(3) 2 . . 2 ?
N2 Cu1 N2 C2 -40(38) 2 . . 2 ?
O1 Cu1 N2 C2 109.3(3) . . . 2 ?
O1 Cu1 N2 C2 -70.7(3) 2 . . 2 ?
N4 Cu2 N3 C15 -162.4(2) 2_556 . . . ?
N4 Cu2 N3 C15 17.6(2) . . . . ?
N3 Cu2 N3 C15 68(30) 2_556 . . . ?
N4 Cu2 N3 C14 -35.6(3) 2_556 . . . ?
N4 Cu2 N3 C14 144.4(3) . . . . ?
N3 Cu2 N3 C14 -165(30) 2_556 . . . ?
N4 Cu2 N4 C12 23(100) 2_556 . . 2_556 ?
N3 Cu2 N4 C12 145.0(3) . . . 2_556 ?
N3 Cu2 N4 C12 -35.0(3) 2_556 . . 2_556 ?
N4 Cu2 N4 C20 -110(100) 2_556 . . . ?
N3 Cu2 N4 C20 11.9(2) . . . . ?
N3 Cu2 N4 C20 -168.1(2) 2_556 . . . ?
C1 C2 C3 