####################################################################### 
# 
# This file contains crystal structure data downloaded from the 
# Cambridge Structural Database (CSD) hosted by the Cambridge 
# Crystallographic Data Centre (CCDC).
# 
# Full information about CCDC data access policies and citation 
# guidelines are available at http://www.ccdc.cam.ac.uk/access/V1 
# 
# Audit and citation data items may have been added by the CCDC. 
# Please retain this information to preserve the provenance of 
# this file and to allow appropriate attribution of the data. 
# 
#######################################################################

data_001229a
_audit_block_doi                 10.5517/cc7mwc2
_database_code_depnum_ccdc_archive 'CCDC 227644'
loop_
_citation_id
_citation_doi
_citation_year
1 10.1002/cjoc.200591236 2005
_audit_update_record             
;
2004-01-01 deposited with the CCDC.	2024-07-09 downloaded from the CCDC.
;

_audit_creation_method           SHELXL-97
_chemical_name_systematic        
;
?
;
_chemical_name_common            ?
_chemical_melting_point          ?
_chemical_formula_moiety         ?
_chemical_formula_sum            'C31 H24 Co N6 O8 S2'
_chemical_formula_weight         731.61

loop_
_atom_type_symbol
_atom_type_description
_atom_type_scat_dispersion_real
_atom_type_scat_dispersion_imag
_atom_type_scat_source
C C 0.0033 0.0016 'International Tables Vol C Tables 4.2.6.8 and 6.1.1.4'
H H 0.0000 0.0000 'International Tables Vol C Tables 4.2.6.8 and 6.1.1.4'
N N 0.0061 0.0033 'International Tables Vol C Tables 4.2.6.8 and 6.1.1.4'
O O 0.0106 0.0060 'International Tables Vol C Tables 4.2.6.8 and 6.1.1.4'
S S 0.1246 0.1234 'International Tables Vol C Tables 4.2.6.8 and 6.1.1.4'
Co Co 0.3494 0.9721 'International Tables Vol C Tables 4.2.6.8 and 6.1.1.4'

_symmetry_cell_setting           Tetragonal
_symmetry_space_group_name_H-M   P4(2)/n

loop_
_symmetry_equiv_pos_as_xyz
'x, y, z'
'-x+1/2, -y+1/2, z'
'-y, x+1/2, z+1/2'
'y+1/2, -x, z+1/2'
'-x, -y, -z'
'x-1/2, y-1/2, -z'
'y, -x-1/2, -z-1/2'
'-y-1/2, x, -z-1/2'

_cell_length_a                   13.451(2)
_cell_length_b                   13.451(2)
_cell_length_c                   25.498(6)
_cell_angle_alpha                90.00
_cell_angle_beta                 90.00
_cell_angle_gamma                90.00
_cell_volume                     4613.2(16)
_cell_formula_units_Z            4
_cell_measurement_temperature    293(2)
_cell_measurement_reflns_used    ?
_cell_measurement_theta_min      ?
_cell_measurement_theta_max      ?

_exptl_crystal_description       ?
_exptl_crystal_colour            ?
_exptl_crystal_size_max          0.20
_exptl_crystal_size_mid          0.20
_exptl_crystal_size_min          0.15
_exptl_crystal_density_meas      ?
_exptl_crystal_density_diffrn    1.053
_exptl_crystal_density_method    'not measured'
_exptl_crystal_F_000             1500
_exptl_absorpt_coefficient_mu    0.505
_exptl_absorpt_correction_type   none
_exptl_absorpt_correction_T_min  0.9058
_exptl_absorpt_correction_T_max  0.9281
_exptl_absorpt_process_details   ?

_exptl_special_details           
;
?
;

_diffrn_ambient_temperature      293(2)
_diffrn_radiation_wavelength     0.71073
_diffrn_radiation_type           MoK\a
_diffrn_radiation_source         'fine-focus sealed tube'
_diffrn_radiation_monochromator  graphite
_diffrn_measurement_device_type  'CCD area detector'
_diffrn_measurement_method       'phi and omega scans'
_diffrn_detector_area_resol_mean ?
_diffrn_standards_number         ?
_diffrn_standards_interval_count ?
_diffrn_standards_interval_time  ?
_diffrn_standards_decay_%        ?
_diffrn_reflns_number            18286
_diffrn_reflns_av_R_equivalents  0.1959
_diffrn_reflns_av_sigmaI/netI    0.1946
_diffrn_reflns_limit_h_min       -15
_diffrn_reflns_limit_h_max       16
_diffrn_reflns_limit_k_min       -16
_diffrn_reflns_limit_k_max       14
_diffrn_reflns_limit_l_min       -27
_diffrn_reflns_limit_l_max       30
_diffrn_reflns_theta_min         3.21
_diffrn_reflns_theta_max         25.02
_reflns_number_total             3930
_reflns_number_gt                1240
_reflns_threshold_expression     >2sigma(I)

_computing_data_collection       'Bruker SMART'
_computing_cell_refinement       'Bruker SMART'
_computing_data_reduction        'Bruker SHELXTL'
_computing_structure_solution    'SHELXS-97 (Sheldrick, 1990)'
_computing_structure_refinement  'SHELXL-97 (Sheldrick, 1997)'
_computing_molecular_graphics    'Bruker SHELXTL'
_computing_publication_material  'Bruker SHELXTL'

_refine_special_details          
;
Refinement of F^2^ against ALL reflections. The weighted R-factor wR and
goodness of fit S are based on F^2^, conventional R-factors R are based
on F, with F set to zero for negative F^2^. The threshold expression of
F^2^ > 2sigma(F^2^) is used only for calculating R-factors(gt) etc. and is
not relevant to the choice of reflections for refinement. R-factors based
on F^2^ are statistically about twice as large as those based on F, and R-
factors based on ALL data will be even larger.
;

_refine_ls_structure_factor_coef Fsqd
_refine_ls_matrix_type           full
_refine_ls_weighting_scheme      calc
_refine_ls_weighting_details     
'calc w=1/[\s^2^(Fo^2^)+(0.0500P)^2^+0.0000P] where P=(Fo^2^+2Fc^2^)/3'
_atom_sites_solution_primary     direct
_atom_sites_solution_secondary   difmap
_atom_sites_solution_hydrogens   geom
_refine_ls_hydrogen_treatment    mixed
_refine_ls_extinction_method     none
_refine_ls_extinction_coef       ?
_refine_ls_number_reflns         3930
_refine_ls_number_parameters     218
_refine_ls_number_restraints     0
_refine_ls_R_factor_all          0.2301
_refine_ls_R_factor_gt           0.0659
_refine_ls_wR_factor_ref         0.1701
_refine_ls_wR_factor_gt          0.1280
_refine_ls_goodness_of_fit_ref   0.994
_refine_ls_restrained_S_all      0.994
_refine_ls_shift/su_max          0.020
_refine_ls_shift/su_mean         0.002

loop_
_atom_site_label
_atom_site_type_symbol
_atom_site_fract_x
_atom_site_fract_y
_atom_site_fract_z
_atom_site_U_iso_or_equiv
_atom_site_adp_type
_atom_site_occupancy
_atom_site_symmetry_multiplicity
_atom_site_calc_flag
_atom_site_refinement_flags
_atom_site_disorder_assembly
_atom_site_disorder_group
Co1 Co 0.7500 0.7500 0.11176(4) 0.0507(4) Uani 1 2 d S . .
N1 N 0.8087(4) 0.6073(4) 0.1132(2) 0.0625(15) Uani 1 1 d . . .
C1 C 0.8735(6) 0.5530(6) 0.1068(3) 0.086(3) Uani 1 1 d . . .
S1 S 0.9648(2) 0.4793(2) 0.1021(2) 0.222(2) Uani 1 1 d . . .
O1 O 0.3471(4) 0.5400(4) 0.2568(2) 0.1026(18) Uani 1 1 d . . .
O2 O 0.3575(3) 0.6873(3) 0.29512(15) 0.0546(11) Uani 1 1 d . . .
O3 O 0.3169(3) 0.8528(4) 0.43244(15) 0.0611(12) Uani 1 1 d . . .
O4 O 0.4198(5) 0.9581(4) 0.3944(3) 0.143(3) Uani 1 1 d . . .
N11 N 0.6367(3) 0.7059(4) 0.16962(18) 0.0499(13) Uani 1 1 d . . .
N12 N 0.2905(4) 1.1417(4) 0.5500(2) 0.0565(14) Uani 1 1 d . . .
C11 C 0.5967(5) 0.7696(5) 0.2046(2) 0.0586(18) Uani 1 1 d . . .
C12 C 0.5157(5) 0.7462(5) 0.2360(2) 0.0560(18) Uani 1 1 d . . .
C13 C 0.4734(5) 0.6507(5) 0.2305(2) 0.0513(17) Uani 1 1 d . . .
C14 C 0.5166(5) 0.5822(5) 0.1948(2) 0.0548(17) Uani 1 1 d . . .
C15 C 0.5973(5) 0.6158(5) 0.1653(2) 0.0586(18) Uani 1 1 d . . .
C16 C 0.3887(5) 0.6173(5) 0.2627(2) 0.061(2) Uani 1 1 d . . .
C17 C 0.2745(4) 0.6596(5) 0.3280(2) 0.0554(17) Uani 1 1 d . . .
C18 C 0.2500 0.7500 0.3623(3) 0.0414(19) Uani 1 2 d S . .
C19 C 0.3395(4) 0.7722(5) 0.3958(2) 0.0587(18) Uani 1 1 d . . .
C20 C 0.3652(6) 0.9380(6) 0.4300(3) 0.073(2) Uani 1 1 d . . .
C21 C 0.3394(5) 1.0058(5) 0.4724(3) 0.0629(19) Uani 1 1 d . . .
C22 C 0.2727(6) 0.9844(5) 0.5107(3) 0.082(2) Uani 1 1 d . . .
C25 C 0.3777(7) 1.1002(7) 0.4735(3) 0.105(3) Uani 1 1 d . . .
C23 C 0.2524(5) 1.0522(6) 0.5508(3) 0.077(2) Uani 1 1 d . . .
C24 C 0.3562(6) 1.1660(5) 0.5133(3) 0.083(2) Uani 1 1 d . . .

loop_
_atom_site_aniso_label
_atom_site_aniso_U_11
_atom_site_aniso_U_22
_atom_site_aniso_U_33
_atom_site_aniso_U_23
_atom_site_aniso_U_13
_atom_site_aniso_U_12
Co1 0.0511(8) 0.0557(9) 0.0454(6) 0.000 0.000 -0.0011(7)
N1 0.059(4) 0.072(4) 0.057(3) -0.005(3) 0.006(3) -0.007(3)
C1 0.073(6) 0.059(5) 0.127(7) 0.001(5) 0.034(5) -0.001(4)
S1 0.089(2) 0.090(2) 0.487(7) 0.071(3) 0.085(3) 0.0244(17)
O1 0.112(4) 0.086(4) 0.110(4) -0.041(4) 0.052(4) -0.036(3)
O2 0.053(3) 0.066(3) 0.045(3) -0.009(2) 0.008(2) -0.006(2)
O3 0.056(3) 0.077(3) 0.051(3) -0.014(3) 0.009(2) 0.008(3)
O4 0.172(6) 0.110(5) 0.147(6) -0.037(4) 0.101(5) -0.040(4)
N11 0.048(3) 0.053(3) 0.048(3) 0.001(3) -0.003(3) 0.001(3)
N12 0.059(4) 0.054(4) 0.056(4) -0.001(3) 0.015(3) -0.006(3)
C11 0.068(5) 0.058(4) 0.050(4) -0.020(4) 0.001(4) 0.000(4)
C12 0.058(4) 0.052(4) 0.058(5) -0.008(3) -0.001(3) -0.006(3)
C13 0.049(4) 0.059(4) 0.046(4) -0.010(3) 0.003(3) -0.009(4)
C14 0.053(4) 0.059(4) 0.052(4) -0.009(3) 0.003(3) -0.004(3)
C15 0.067(5) 0.046(4) 0.062(4) -0.003(4) 0.001(4) -0.004(4)
C16 0.070(5) 0.050(4) 0.063(5) -0.024(4) 0.013(4) -0.014(4)
C17 0.044(4) 0.072(5) 0.050(4) -0.014(4) 0.024(3) -0.001(4)
C18 0.041(5) 0.042(5) 0.041(4) 0.000 0.000 -0.002(5)
C19 0.051(4) 0.075(5) 0.050(4) -0.028(4) -0.006(3) 0.001(4)
C20 0.076(6) 0.069(6) 0.073(6) -0.010(4) 0.032(4) -0.008(5)
C21 0.069(5) 0.056(5) 0.063(5) -0.010(4) 0.016(4) -0.012(4)
C22 0.099(6) 0.060(5) 0.088(5) -0.025(4) 0.046(5) -0.009(4)
C25 0.129(8) 0.098(7) 0.089(6) -0.024(5) 0.047(5) -0.035(6)
C23 0.070(5) 0.079(6) 0.082(5) -0.019(5) 0.022(4) 0.001(5)
C24 0.115(6) 0.067(5) 0.066(5) -0.015(4) 0.046(5) -0.020(5)

_geom_special_details            
;
All esds (except the esd in the dihedral angle between two l.s. planes)
are estimated using the full covariance matrix. The cell esds are taken
into account individually in the estimation of esds in distances, angles
and torsion angles; correlations between esds in cell parameters are only
used when they are defined by crystal symmetry. An approximate (isotropic)
treatment of cell esds is used for estimating esds involving l.s. planes.
;

loop_
_geom_bond_atom_site_label_1
_geom_bond_atom_site_label_2
_geom_bond_distance
_geom_bond_site_symmetry_2
_geom_bond_publ_flag
Co1 N1 2.076(6) . ?
Co1 N1 2.076(6) 2_665 ?
Co1 N11 2.202(5) 2_665 ?
Co1 N11 2.202(5) . ?
Co1 N12 2.214(5) 4_464 ?
Co1 N12 2.214(5) 3_754 ?
N1 C1 1.149(7) . ?
C1 S1 1.583(8) . ?
O1 C16 1.191(7) . ?
O2 C16 1.321(6) . ?
O2 C17 1.446(6) . ?
O3 C20 1.318(7) . ?
O3 C19 1.462(7) . ?
O4 C20 1.198(7) . ?
N11 C15 1.328(7) . ?
N11 C11 1.348(7) . ?
N12 C23 1.308(8) . ?
N12 C24 1.328(7) . ?
N12 Co1 2.214(5) 3_655 ?
C11 C12 1.388(8) . ?
C12 C13 1.413(8) . ?
C13 C14 1.419(8) . ?
C13 C16 1.474(8) . ?
C14 C15 1.396(8) . ?
C17 C18 1.532(7) . ?
C18 C19 1.508(7) 2_565 ?
C18 C19 1.508(7) . ?
C18 C17 1.532(7) 2_565 ?
C20 C21 1.456(9) . ?
C21 C22 1.357(8) . ?
C21 C25 1.370(9) . ?
C22 C23 1.396(8) . ?
C25 C24 1.378(9) . ?

loop_
_geom_angle_atom_site_label_1
_geom_angle_atom_site_label_2
_geom_angle_atom_site_label_3
_geom_angle
_geom_angle_site_symmetry_1
_geom_angle_site_symmetry_3
_geom_angle_publ_flag
N1 Co1 N1 177.9(3) . 2_665 ?
N1 Co1 N11 88.5(2) . 2_665 ?
N1 Co1 N11 90.1(2) 2_665 2_665 ?
N1 Co1 N11 90.1(2) . . ?
N1 Co1 N11 88.5(2) 2_665 . ?
N11 Co1 N11 95.9(2) 2_665 . ?
N1 Co1 N12 92.1(2) . 4_464 ?
N1 Co1 N12 89.4(2) 2_665 4_464 ?
N11 Co1 N12 176.7(2) 2_665 4_464 ?
N11 Co1 N12 87.44(18) . 4_464 ?
N1 Co1 N12 89.4(2) . 3_754 ?
N1 Co1 N12 92.1(2) 2_665 3_754 ?
N11 Co1 N12 87.44(18) 2_665 3_754 ?
N11 Co1 N12 176.65(19) . 3_754 ?
N12 Co1 N12 89.3(3) 4_464 3_754 ?
C1 N1 Co1 150.9(5) . . ?
N1 C1 S1 176.0(9) . . ?
C16 O2 C17 115.1(5) . . ?
C20 O3 C19 120.8(5) . . ?
C15 N11 C11 118.3(5) . . ?
C15 N11 Co1 117.8(4) . . ?
C11 N11 Co1 123.3(4) . . ?
C23 N12 C24 119.9(6) . . ?
C23 N12 Co1 119.9(4) . 3_655 ?
C24 N12 Co1 120.2(5) . 3_655 ?
N11 C11 C12 123.5(6) . . ?
C11 C12 C13 117.7(6) . . ?
C14 C13 C12 119.2(6) . . ?
C14 C13 C16 118.4(6) . . ?
C12 C13 C16 122.2(6) . . ?
C15 C14 C13 117.0(6) . . ?
N11 C15 C14 124.2(6) . . ?
O1 C16 O2 123.6(6) . . ?
O1 C16 C13 124.0(6) . . ?
O2 C16 C13 112.1(6) . . ?
O2 C17 C18 107.0(5) . . ?
C19 C18 C19 110.8(7) 2_565 . ?
C19 C18 C17 109.8(3) 2_565 . ?
C19 C18 C17 108.0(3) . . ?
C19 C18 C17 108.0(3) 2_565 2_565 ?
C19 C18 C17 109.8(3) . 2_565 ?
C17 C18 C17 110.6(7) . 2_565 ?
O3 C19 C18 110.1(4) . . ?
O4 C20 O3 122.3(7) . . ?
O4 C20 C21 124.5(8) . . ?
O3 C20 C21 113.1(7) . . ?
C22 C21 C25 115.4(7) . . ?
C22 C21 C20 124.0(7) . . ?
C25 C21 C20 120.4(7) . . ?
C21 C22 C23 121.2(7) . . ?
C21 C25 C24 122.2(7) . . ?
N12 C23 C22 120.8(7) . . ?
N12 C24 C25 120.0(7) . . ?

_diffrn_measured_fraction_theta_max 0.963
_diffrn_reflns_theta_full        25.02
_diffrn_measured_fraction_theta_full 0.963
_refine_diff_density_max         0.322
_refine_diff_density_min         -0.337
_refine_diff_density_rms         0.059

