
#######################################################################
#
#                 Cambridge Crystallographic Data Centre
#                                CCDC
#
#######################################################################
#
# If this CIF has been generated from an entry in the Cambridge
# Structural Database, then it will include bibliographic, chemical,
# crystal, experimental, refinement or atomic coordinate data resulting
# from the CCDC's data processing and validation procedures.
#
#######################################################################

data_CSD_CIF_CETXOO
_audit_creation_date 2000-02-03
_audit_creation_method CSD-ConQuest-V1
_database_code_CSD CETXOO
_database_code_depnum_ccdc_archive 'CCDC 114212'
_chemical_formula_sum 'C60 H148 In4 Ni1 Si12'
_chemical_formula_moiety
;
C40 H108 In4 Ni1 Si12,4(C5 H10)
;
_journal_coden_Cambridge 579
_journal_volume 18
_journal_year 1999
_journal_page_first 3778
_journal_name_full 'Organometallics '
loop_
_publ_author_name
"W.Uhl"
"M.Benter"
"S.Melle"
"W.Saak"
"G.Frenking"
"J.Uddin"
_chemical_name_systematic
;
tetrakis(tris(Trimethylsilyl)methylindate)-nickel cyclopentane solvate
;
_chemical_name_common
;
Teaching Subset: Fundamental Chemistry
;
_cell_volume  17197.486
_exptl_special_details
;
isotypic with the gallate analogue

;
_diffrn_ambient_temperature 193
_refine_special_details
;
The cyclopentane solvent molecules are disordered.

;
#These two values have been output from a single CSD field.
_refine_ls_R_factor_gt 0.0549
_refine_ls_wR_factor_gt 0.0549
_symmetry_cell_setting cubic
_symmetry_space_group_name_H-M 'F d 3'
_symmetry_Int_Tables_number 203
loop_
_symmetry_equiv_pos_site_id
_symmetry_equiv_pos_as_xyz
1 x,y,z
2 1/4-x,1/4-y,z
3 1/4-x,y,1/4-z
4 x,1/4-y,1/4-z
5 z,x,y
6 z,1/4-x,1/4-y
7 1/4-z,1/4-x,y
8 1/4-z,x,1/4-y
9 y,z,x
10 1/4-y,z,1/4-x
11 y,1/4-z,1/4-x
12 1/4-y,1/4-z,x
13 x,1/2+y,1/2+z
14 z,1/2+x,1/2+y
15 y,1/2+z,1/2+x
16 1/2+x,y,1/2+z
17 1/2+z,x,1/2+y
18 1/2+y,z,1/2+x
19 1/2+x,1/2+y,z
20 1/2+z,1/2+x,y
21 1/2+y,1/2+z,x
22 1/4-x,3/4-y,1/2+z
23 1/4-x,1/2+y,3/4-z
24 x,3/4-y,3/4-z
25 z,3/4-x,3/4-y
26 1/4-z,3/4-x,1/2+y
27 1/4-z,1/2+x,3/4-y
28 1/4-y,1/2+z,3/4-x
29 y,3/4-z,3/4-x
30 1/4-y,3/4-z,1/2+x
31 3/4-x,1/4-y,1/2+z
32 3/4-x,y,3/4-z
33 1/2+x,1/4-y,3/4-z
34 1/2+z,1/4-x,3/4-y
35 3/4-z,1/4-x,1/2+y
36 3/4-z,x,3/4-y
37 3/4-y,z,3/4-x
38 1/2+y,1/4-z,3/4-x
39 3/4-y,1/4-z,1/2+x
40 3/4-x,3/4-y,z
41 3/4-x,1/2+y,1/4-z
42 1/2+x,3/4-y,1/4-z
43 1/2+z,3/4-x,1/4-y
44 3/4-z,3/4-x,y
45 3/4-z,1/2+x,1/4-y
46 3/4-y,1/2+z,1/4-x
47 1/2+y,3/4-z,1/4-x
48 3/4-y,3/4-z,x
49 -x,-y,-z
50 -1/4+x,-1/4+y,-z
51 -1/4+x,-y,-1/4+z
52 -x,-1/4+y,-1/4+z
53 -z,-x,-y
54 -z,-1/4+x,-1/4+y
55 -1/4+z,-1/4+x,-y
56 -1/4+z,-x,-1/4+y
57 -y,-z,-x
58 -1/4+y,-z,-1/4+x
59 -y,-1/4+z,-1/4+x
60 -1/4+y,-1/4+z,-x
61 -x,-1/2-y,-1/2-z
62 -z,-1/2-x,-1/2-y
63 -y,-1/2-z,-1/2-x
64 -1/2-x,-y,-1/2-z
65 -1/2-z,-x,-1/2-y
66 -1/2-y,-z,-1/2-x
67 -1/2-x,-1/2-y,-z
68 -1/2-z,-1/2-x,-y
69 -1/2-y,-1/2-z,-x
70 -1/4+x,-3/4+y,-1/2-z
71 -1/4+x,-1/2-y,-3/4+z
72 -x,-3/4+y,-3/4+z
73 -z,-3/4+x,-3/4+y
74 -1/4+z,-3/4+x,-1/2-y
75 -1/4+z,-1/2-x,-3/4+y
76 -1/4+y,-1/2-z,-3/4+x
77 -y,-3/4+z,-3/4+x
78 -1/4+y,-3/4+z,-1/2-x
79 -3/4+x,-1/4+y,-1/2-z
80 -3/4+x,-y,-3/4+z
81 -1/2-x,-1/4+y,-3/4+z
82 -1/2-z,-1/4+x,-3/4+y
83 -3/4+z,-1/4+x,-1/2-y
84 -3/4+z,-x,-3/4+y
85 -3/4+y,-z,-3/4+x
86 -1/2-y,-1/4+z,-3/4+x
87 -3/4+y,-1/4+z,-1/2-x
88 -3/4+x,-3/4+y,-z
89 -3/4+x,-1/2-y,-1/4+z
90 -1/2-x,-3/4+y,-1/4+z
91 -1/2-z,-3/4+x,-1/4+y
92 -3/4+z,-3/4+x,-y
93 -3/4+z,-1/2-x,-1/4+y
94 -3/4+y,-1/2-z,-1/4+x
95 -1/2-y,-3/4+z,-1/4+x
96 -3/4+y,-3/4+z,-x
_cell_length_a 25.812(1)
_cell_length_b 25.812(1)
_cell_length_c 25.812(1)
_cell_angle_alpha 90
_cell_angle_beta 90
_cell_angle_gamma 90
_cell_formula_units_Z 8
loop_
_atom_type_symbol
_atom_type_radius_bond
C 0.68
H 0.23
In 1.63
Ni 1.04
Si 1.20
loop_
_atom_site_label
_atom_site_type_symbol
_atom_site_fract_x
_atom_site_fract_y
_atom_site_fract_z
C1 C -0.0185(20) 0.4545(18) 0.0046(17)
C2 C 0.0314(13) 0.4651(13) -0.0082(14)
C3 C -0.0777(13) 0.3457(18) -0.1300(14)
In1 In 0.07346(2) 0.17654(2) 0.07346(2)
Ni1 Ni 0.12500 0.12500 0.12500
Si1 Si 0.06919(7) 0.27783(7) -0.00006(7)
C4 C 0.0240(2) 0.2260(2) 0.0240(2)
C5 C 0.1347(3) 0.2509(3) -0.0165(3)
H1 H 0.1523(8) 0.2411(18) 0.0147(3)
H2 H 0.1546(8) 0.2768(7) -0.0344(18)
H3 H 0.1307(3) 0.2211(12) -0.0384(16)
C6 C 0.0835(3) 0.3292(3) 0.0497(3)
H4 H 0.1037(17) 0.3563(10) 0.0341(6)
H5 H 0.1025(17) 0.3142(5) 0.0779(10)
H6 H 0.0516(3) 0.3434(14) 0.0624(15)
C7 C 0.0437(4) 0.3120(3) -0.0590(3)
H7 H 0.0348(21) 0.2869(3) -0.0850(9)
H8 H 0.0698(8) 0.3349(16) -0.0723(13)
H9 H 0.0135(13) 0.3316(17) -0.0498(5)
C1M C 0.0046(20) 0.4815(18) -0.0455(17)
C1T C -0.0455(20) 0.5046(18) -0.0185(17)
C2M C -0.0082(13) 0.5314(13) -0.0349(14)
C2T C -0.0349(13) 0.4918(13) 0.0314(14)
C2IB C 0.0082(13) 0.4686(13) 0.0349(14)
C1IB C -0.0046(20) 0.5185(18) 0.0455(17)
C1PB C 0.0455(20) 0.4954(18) 0.0185(17)
C1VA C 0.0185(20) 0.5455(18) -0.0046(17)
C2VA C -0.0314(13) 0.5349(13) 0.0082(14)
C2PB C 0.0349(13) 0.5082(13) -0.0314(14)
C3E C -0.1300(13) 0.3277(18) -0.0957(14)
C3K C -0.0957(13) 0.3800(18) -0.0777(14)
C3W C -0.0777(13) 0.4043(18) -0.1200(14)
C3M C -0.1300(13) 0.4223(18) -0.1543(14)
C3AA C -0.0957(13) 0.3700(18) -0.1723(14)
C3T C -0.1543(13) 0.3700(18) -0.0777(14)
C3MA C -0.1723(13) 0.4043(18) -0.1300(14)
C3RA C -0.1200(13) 0.4223(18) -0.0957(14)
C3HA C -0.1200(13) 0.3277(18) -0.1543(14)
C3KA C -0.1543(13) 0.3800(18) -0.1723(14)
C3EA C -0.1723(13) 0.3457(18) -0.1200(14)
In1A In 0.17654(2) 0.07346(2) 0.07346(2)
C4A C 0.2260(2) 0.0240(2) 0.0240(2)
Si1A Si 0.18081(7) -0.02783(7) -0.00006(7)
C5A C 0.1153(3) -0.0009(3) -0.0165(3)
H1A H 0.0977(8) 0.0089(18) 0.0147(3)
H2A H 0.0954(8) -0.0268(7) -0.0344(18)
H3A H 0.1193(3) 0.0289(12) -0.0384(16)
C6A C 0.1665(3) -0.0792(3) 0.0497(3)
H4A H 0.1463(17) -0.1063(10) 0.0341(6)
H5A H 0.1475(17) -0.0642(5) 0.0779(10)
H6A H 0.1984(3) -0.0934(14) 0.0624(15)
C7A C 0.2063(4) -0.0620(3) -0.0590(3)
H7A H 0.2152(21) -0.0369(3) -0.0850(9)
H8A H 0.1802(8) -0.0849(16) -0.0723(13)
H9A H 0.2365(13) -0.0816(17) -0.0498(5)
Si1H Si 0.27783(7) -0.00006(7) 0.06919(7)
C5H C 0.2509(3) -0.0165(3) 0.1347(3)
H1H H 0.2411(8) 0.0147(18) 0.1523(3)
H2H H 0.2768(8) -0.0344(7) 0.1546(18)
H3H H 0.2211(3) -0.0384(12) 0.1307(16)
C6H C 0.3292(3) 0.0497(3) 0.0835(3)
H4H H 0.3563(17) 0.0341(10) 0.1037(6)
H5H H 0.3142(17) 0.0779(5) 0.1025(10)
H6H H 0.3434(3) 0.0624(14) 0.0516(15)
C7H C 0.3120(4) -0.0590(3) 0.0437(3)
H7H H 0.2869(21) -0.0850(3) 0.0348(9)
H8H H 0.3349(8) -0.0723(16) 0.0698(13)
H9H H 0.3316(13) -0.0498(17) 0.0135(5)
Si1G Si 0.25006(7) 0.06919(7) -0.02783(7)
C5G C 0.2665(3) 0.1347(3) -0.0009(3)
H1G H 0.2353(8) 0.1523(18) 0.0089(3)
H2G H 0.2844(8) 0.1546(7) -0.0268(18)
H3G H 0.2884(3) 0.1307(12) 0.0289(16)
C6G C 0.2003(3) 0.0835(3) -0.0792(3)
H4G H 0.2159(17) 0.1037(10) -0.1063(6)
H5G H 0.1721(17) 0.1025(5) -0.0642(10)
H6G H 0.1876(3) 0.0516(14) -0.0934(15)
C7G C 0.3090(4) 0.0437(3) -0.0620(3)
H7G H 0.3350(21) 0.0348(3) -0.0369(9)
H8G H 0.3223(8) 0.0698(16) -0.0849(13)
H9G H 0.2998(13) 0.0135(17) -0.0816(5)
In1B In 0.17654(2) 0.17654(2) 0.17654(2)
C4B C 0.2260(2) 0.2260(2) 0.2260(2)
Si1B Si 0.18081(7) 0.27783(7) 0.25006(7)
C5B C 0.1153(3) 0.2509(3) 0.2665(3)
H1B H 0.0977(8) 0.2411(18) 0.2353(3)
H2B H 0.0954(8) 0.2768(7) 0.2844(18)
H3B H 0.1193(3) 0.2211(12) 0.2884(16)
C6B C 0.1665(3) 0.3292(3) 0.2003(3)
H4B H 0.1463(17) 0.3563(10) 0.2159(6)
H5B H 0.1475(17) 0.3142(5) 0.1721(10)
H6B H 0.1984(3) 0.3434(14) 0.1876(15)
C7B C 0.2063(4) 0.3120(3) 0.3090(3)
H7B H 0.2152(21) 0.2869(3) 0.3350(9)
H8B H 0.1802(8) 0.3349(16) 0.3223(13)
H9B H 0.2365(13) 0.3316(17) 0.2998(5)
Si1J Si 0.27783(7) 0.25006(7) 0.18081(7)
C5J C 0.2509(3) 0.2665(3) 0.1153(3)
H1J H 0.2411(8) 0.2353(18) 0.0977(3)
H2J H 0.2768(8) 0.2844(7) 0.0954(18)
H3J H 0.2211(3) 0.2884(12) 0.1193(16)
C6J C 0.3292(3) 0.2003(3) 0.1665(3)
H4J H 0.3563(17) 0.2159(10) 0.1463(6)
H5J H 0.3142(17) 0.1721(5) 0.1475(10)
H6J H 0.3434(3) 0.1876(14) 0.1984(15)
C7J C 0.3120(4) 0.3090(3) 0.2063(3)
H7J H 0.2869(21) 0.3350(3) 0.2152(9)
H8J H 0.3349(8) 0.3223(16) 0.1802(13)
H9J H 0.3316(13) 0.2998(17) 0.2365(5)
Si1F Si 0.25006(7) 0.18081(7) 0.27783(7)
C5F C 0.2665(3) 0.1153(3) 0.2509(3)
H1F H 0.2353(8) 0.0977(18) 0.2411(3)
H2F H 0.2844(8) 0.0954(7) 0.2768(18)
H3F H 0.2884(3) 0.1193(12) 0.2211(16)
C6F C 0.2003(3) 0.1665(3) 0.3292(3)
H4F H 0.2159(17) 0.1463(10) 0.3563(6)
H5F H 0.1721(17) 0.1475(5) 0.3142(10)
H6F H 0.1876(3) 0.1984(14) 0.3434(15)
C7F C 0.3090(4) 0.2063(3) 0.3120(3)
H7F H 0.3350(21) 0.2152(3) 0.2869(9)
H8F H 0.3223(8) 0.1802(16) 0.3349(13)
H9F H 0.2998(13) 0.2365(17) 0.3316(5)
In1C In 0.07346(2) 0.07346(2) 0.17654(2)
C4C C 0.0240(2) 0.0240(2) 0.2260(2)
Si1C Si 0.06919(7) -0.02783(7) 0.25006(7)
C5C C 0.1347(3) -0.0009(3) 0.2665(3)
H1C H 0.1523(8) 0.0089(18) 0.2353(3)
H2C H 0.1546(8) -0.0268(7) 0.2844(18)
H3C H 0.1307(3) 0.0289(12) 0.2884(16)
C6C C 0.0835(3) -0.0792(3) 0.2003(3)
H4C H 0.1037(17) -0.1063(10) 0.2159(6)
H5C H 0.1025(17) -0.0642(5) 0.1721(10)
H6C H 0.0516(3) -0.0934(14) 0.1876(15)
C7C C 0.0437(4) -0.0620(3) 0.3090(3)
H7C H 0.0348(21) -0.0369(3) 0.3350(9)
H8C H 0.0698(8) -0.0849(16) 0.3223(13)
H9C H 0.0135(13) -0.0816(17) 0.2998(5)
Si1I Si -0.02783(7) -0.00006(7) 0.18081(7)
C5I C -0.0009(3) -0.0165(3) 0.1153(3)
H1I H 0.0089(8) 0.0147(18) 0.0977(3)
H2I H -0.0268(8) -0.0344(7) 0.0954(18)
H3I H 0.0289(3) -0.0384(12) 0.1193(16)
C6I C -0.0792(3) 0.0497(3) 0.1665(3)
H4I H -0.1063(17) 0.0341(10) 0.1463(6)
H5I H -0.0642(17) 0.0779(5) 0.1475(10)
H6I H -0.0934(3) 0.0624(14) 0.1984(15)
C7I C -0.0620(4) -0.0590(3) 0.2063(3)
H7I H -0.0369(21) -0.0850(3) 0.2152(9)
H8I H -0.0849(8) -0.0723(16) 0.1802(13)
H9I H -0.0816(13) -0.0498(17) 0.2365(5)
Si1D Si -0.00006(7) 0.06919(7) 0.27783(7)
C5D C -0.0165(3) 0.1347(3) 0.2509(3)
H1D H 0.0147(8) 0.1523(18) 0.2411(3)
H2D H -0.0344(8) 0.1546(7) 0.2768(18)
H3D H -0.0384(3) 0.1307(12) 0.2211(16)
C6D C 0.0497(3) 0.0835(3) 0.3292(3)
H4D H 0.0341(17) 0.1037(10) 0.3563(6)
H5D H 0.0779(17) 0.1025(5) 0.3142(10)
H6D H 0.0624(3) 0.0516(14) 0.3434(15)
C7D C -0.0590(4) 0.0437(3) 0.3120(3)
H7D H -0.0850(21) 0.0348(3) 0.2869(9)
H8D H -0.0723(8) 0.0698(16) 0.3349(13)
H9D H -0.0498(13) 0.0135(17) 0.3316(5)
Si1K Si -0.02783(7) 0.25006(7) 0.06919(7)
C5K C -0.0009(3) 0.2665(3) 0.1347(3)
H1K H 0.0089(8) 0.2353(18) 0.1523(3)
H2K H -0.0268(8) 0.2844(7) 0.1546(18)
H3K H 0.0289(3) 0.2884(12) 0.1307(16)
C6K C -0.0792(3) 0.2003(3) 0.0835(3)
H4K H -0.1063(17) 0.2159(10) 0.1037(6)
H5K H -0.0642(17) 0.1721(5) 0.1025(10)
H6K H -0.0934(3) 0.1876(14) 0.0516(15)
C7K C -0.0620(4) 0.3090(3) 0.0437(3)
H7K H -0.0369(21) 0.3350(3) 0.0348(9)
H8K H -0.0849(8) 0.3223(16) 0.0698(13)
H9K H -0.0816(13) 0.2998(17) 0.0135(5)
Si1E Si -0.00006(7) 0.18081(7) -0.02783(7)
C5E C -0.0165(3) 0.1153(3) -0.0009(3)
H1E H 0.0147(8) 0.0977(18) 0.0089(3)
H2E H -0.0344(8) 0.0954(7) -0.0268(18)
H3E H -0.0384(3) 0.1193(12) 0.0289(16)
C6E C 0.0497(3) 0.1665(3) -0.0792(3)
H4E H 0.0341(17) 0.1463(10) -0.1063(6)
H5E H 0.0779(17) 0.1475(5) -0.0642(10)
H6E H 0.0624(3) 0.1984(14) -0.0934(15)
C7E C -0.0590(4) 0.2063(3) -0.0620(3)
H7E H -0.0850(21) 0.2152(3) -0.0369(9)
H8E H -0.0723(8) 0.1802(16) -0.0849(13)
H9E H -0.0498(13) 0.2365(17) -0.0816(5)
#END
