####################################################################### 
# 
# This file contains crystal structure data downloaded from the 
# Cambridge Structural Database (CSD) hosted by the Cambridge 
# Crystallographic Data Centre (CCDC).
# 
# Full information about CCDC data access policies and citation 
# guidelines are available at http://www.ccdc.cam.ac.uk/access/V1 
# 
# Audit and citation data items may have been added by the CCDC. 
# Please retain this information to preserve the provenance of 
# this file and to allow appropriate attribution of the data. 
# 
#######################################################################

data_MOF-Fe/AgPF~6~-1
_audit_block_doi                 10.5517/ccnhxrs
_database_code_depnum_ccdc_archive 'CCDC 611126'
loop_
_citation_id
_citation_doi
_citation_year
1 10.1021/ja0645483 2006
_audit_update_record             
;
2006-06-13 deposited with the CCDC.	2024-07-09 downloaded from the CCDC.
;

_audit_creation_method           SHELXL-97
_chemical_name_systematic        
;
?
;
_chemical_name_common            MOF-Fe/AgPF~6~-1
_chemical_melting_point          ?
_chemical_formula_moiety         
'C42 H30 Ag Fe N9, F6 P, 1.5(C6 H6), 3.5(C2 H3 N)'
_chemical_formula_sum            'C58 H43.50 Ag F6 Fe N12.50 P'
_chemical_formula_weight         1224.24

loop_
_atom_type_symbol
_atom_type_description
_atom_type_scat_dispersion_real
_atom_type_scat_dispersion_imag
_atom_type_scat_source
C C 0.0033 0.0016 'International Tables Vol C Tables 4.2.6.8 and 6.1.1.4'
H H 0.0000 0.0000 'International Tables Vol C Tables 4.2.6.8 and 6.1.1.4'
N N 0.0061 0.0033 'International Tables Vol C Tables 4.2.6.8 and 6.1.1.4'
F F 0.0171 0.0103 'International Tables Vol C Tables 4.2.6.8 and 6.1.1.4'
P P 0.1023 0.0942 'International Tables Vol C Tables 4.2.6.8 and 6.1.1.4'
Fe Fe 0.3463 0.8444 'International Tables Vol C Tables 4.2.6.8 and 6.1.1.4'
Ag Ag -0.8971 1.1015 'International Tables Vol C Tables 4.2.6.8 and 6.1.1.4'

_symmetry_cell_setting           triclinic
_symmetry_space_group_name_H-M   'P -1'

loop_
_symmetry_equiv_pos_as_xyz
'x, y, z'
'-x, -y, -z'

_cell_length_a                   13.089(3)
_cell_length_b                   16.265(3)
_cell_length_c                   16.105(3)
_cell_angle_alpha                110.124(3)
_cell_angle_beta                 112.084(3)
_cell_angle_gamma                98.571(3)
_cell_volume                     2826.3(9)
_cell_formula_units_Z            2
_cell_measurement_temperature    100(2)
_cell_measurement_reflns_used    6401
_cell_measurement_theta_min      2.28
_cell_measurement_theta_max      27.1

_exptl_crystal_description       block
_exptl_crystal_colour            green
_exptl_crystal_size_max          0.47
_exptl_crystal_size_mid          0.41
_exptl_crystal_size_min          0.18
_exptl_crystal_density_meas      ?
_exptl_crystal_density_diffrn    1.439
_exptl_crystal_density_method    'not measured'
_exptl_crystal_F_000             1242
_exptl_absorpt_coefficient_mu    0.701
_exptl_absorpt_correction_type   multi-scan
_exptl_absorpt_correction_T_min  0.74562
_exptl_absorpt_correction_T_max  0.90491
_exptl_absorpt_process_details   'SADABS 2.10 (Sheldrick, 2004)'

_exptl_special_details           
;
?
;

_diffrn_ambient_temperature      100(2)
_diffrn_radiation_wavelength     0.71073
_diffrn_radiation_type           MoK\a
_diffrn_radiation_source         'fine-focus sealed tube'
_diffrn_radiation_monochromator  graphite
_diffrn_measurement_device_type  'Bruker APEX'
_diffrn_measurement_method       \w
_diffrn_detector_area_resol_mean 8.3
_diffrn_standards_number         0
_diffrn_standards_interval_count ?
_diffrn_standards_interval_time  ?
_diffrn_standards_decay_%        ?
_diffrn_reflns_number            23676
_diffrn_reflns_av_R_equivalents  0.0295
_diffrn_reflns_av_sigmaI/netI    0.0420
_diffrn_reflns_limit_h_min       -15
_diffrn_reflns_limit_h_max       14
_diffrn_reflns_limit_k_min       -19
_diffrn_reflns_limit_k_max       18
_diffrn_reflns_limit_l_min       -19
_diffrn_reflns_limit_l_max       19
_diffrn_reflns_theta_min         1.72
_diffrn_reflns_theta_max         25.35
_reflns_number_total             10208
_reflns_number_gt                7966
_reflns_threshold_expression     I>2\s(I)

_computing_data_collection       'SMART 5.054 (Bruker, 2003)'
_computing_cell_refinement       SMART
_computing_data_reduction        'SAINT 6.45A (Bruker, 2003)'
_computing_structure_solution    'SHELXS97 (Sheldrick, 1990)'
_computing_structure_refinement  'SHELXL97 (Sheldrick, 1997)'
_computing_molecular_graphics    'SHELXTL 5.1 (Sheldrick, 1994)'
_computing_publication_material  SHELXL97

_refine_special_details          
;
Refinement of F^2^ against ALL reflections. The weighted R-factor wR and
goodness of fit S are based on F^2^, conventional R-factors R are based
on F, with F set to zero for negative F^2^. The threshold expression of
F^2^ > 2sigma(F^2^) is used only for calculating R-factors(gt) etc. and is
not relevant to the choice of reflections for refinement. R-factors based
on F^2^ are statistically about twice as large as those based on F, and R-
factors based on ALL data will be even larger.

All H atoms were located in a difference map, placed in calculated
positions, and treated with a riding model. The H atoms for C58, C62, C72
and C74 of four acetonitrile molecules were not included because they could
not be located in the difference map.

The asymmetric unit contains two independent PF6 anions. One is situated
on an inversion center with the P atom on the special position at 50 %
occupancy. The second anion is disordered by proximity to an inversion
center, and was set to 50 % occupancy.

The asymmetric unit includes three disordered and partially occupied
benzene molecules and seven disordered and partially occupied acetonitrile
molecules. All of the partially occupied solvent molecules were set at
50 % assumed occupancy.

Atom C61 is isor.
;

_refine_ls_structure_factor_coef Fsqd
_refine_ls_matrix_type           full
_refine_ls_weighting_scheme      calc
_refine_ls_weighting_details     
'calc w=1/[\s^2^(Fo^2^)+(0.0824P)^2^+2.8685P] where P=(Fo^2^+2Fc^2^)/3'
_atom_sites_solution_primary     direct
_atom_sites_solution_secondary   difmap
_atom_sites_solution_hydrogens   geom
_refine_ls_hydrogen_treatment    constr
_refine_ls_extinction_method     none
_refine_ls_extinction_coef       ?
_refine_ls_number_reflns         10208
_refine_ls_number_parameters     899
_refine_ls_number_restraints     63
_refine_ls_R_factor_all          0.0683
_refine_ls_R_factor_gt           0.0508
_refine_ls_wR_factor_ref         0.1449
_refine_ls_wR_factor_gt          0.1347
_refine_ls_goodness_of_fit_ref   1.053
_refine_ls_restrained_S_all      1.063
_refine_ls_shift/su_max          0.002
_refine_ls_shift/su_mean         0.000

loop_
_atom_site_label
_atom_site_type_symbol
_atom_site_fract_x
_atom_site_fract_y
_atom_site_fract_z
_atom_site_U_iso_or_equiv
_atom_site_adp_type
_atom_site_occupancy
_atom_site_symmetry_multiplicity
_atom_site_calc_flag
_atom_site_refinement_flags
_atom_site_disorder_assembly
_atom_site_disorder_group
Ag1 Ag 0.76846(3) 0.95172(2) 0.27414(2) 0.04572(13) Uani 1 1 d . . .
Fe1 Fe 0.82085(4) 0.58756(3) 0.66803(4) 0.02110(14) Uani 1 1 d . . .
C1 C 0.6612(3) 0.4876(2) 0.4507(3) 0.0252(8) Uani 1 1 d . . .
H1 H 0.6359 0.4325 0.4558 0.030 Uiso 1 1 calc R . .
C2 C 0.6191(3) 0.4968(3) 0.3615(3) 0.0284(8) Uani 1 1 d . . .
H2 H 0.5631 0.4505 0.2974 0.034 Uiso 1 1 calc R . .
C3 C 0.6750(3) 0.5864(3) 0.3856(3) 0.0278(8) Uani 1 1 d . . .
H3 H 0.6644 0.6141 0.3411 0.033 Uiso 1 1 calc R . .
C4 C 0.7515(3) 0.6297(2) 0.4895(3) 0.0241(8) Uani 1 1 d . . .
C5 C 0.8259(3) 0.7198(2) 0.5458(3) 0.0276(8) Uani 1 1 d . . .
C6 C 0.9053(3) 0.7587(2) 0.6460(3) 0.0300(8) Uani 1 1 d . . .
C7 C 0.9888(4) 0.8486(3) 0.7047(3) 0.0412(10) Uani 1 1 d . . .
H7 H 0.9989 0.8952 0.6829 0.049 Uiso 1 1 calc R . .
C8 C 1.0513(4) 0.8560(3) 0.7972(3) 0.0461(11) Uani 1 1 d . . .
H8 H 1.1144 0.9078 0.8518 0.055 Uiso 1 1 calc R . .
C9 C 1.0041(4) 0.7721(3) 0.7963(3) 0.0364(9) Uani 1 1 d . . .
H9 H 1.0305 0.7592 0.8525 0.044 Uiso 1 1 calc R . .
C10 C 0.8188(3) 0.7796(2) 0.4929(3) 0.0309(9) Uani 1 1 d . . .
C11 C 0.9003(5) 0.7986(4) 0.4613(4) 0.0565(14) Uani 1 1 d . D .
H11 H 0.9646 0.7759 0.4755 0.068 Uiso 1 1 calc R . .
C12 C 0.8868(5) 0.8509(4) 0.4089(5) 0.0617(15) Uani 1 1 d . . .
H12 H 0.9432 0.8635 0.3874 0.074 Uiso 1 1 calc R D .
C13 C 0.7252(4) 0.8710(3) 0.4225(3) 0.0363(9) Uani 1 1 d . . .
H13 H 0.6644 0.8976 0.4110 0.044 Uiso 1 1 calc R D .
C14 C 0.7328(3) 0.8198(3) 0.4757(3) 0.0334(9) Uani 1 1 d . D .
H14 H 0.6784 0.8122 0.5005 0.040 Uiso 1 1 calc R . .
C15 C 0.6209(3) 0.6599(3) 0.6316(3) 0.0293(8) Uani 1 1 d . . .
H15 H 0.5954 0.6335 0.5618 0.035 Uiso 1 1 calc R . .
C16 C 0.5695(3) 0.7168(3) 0.6800(3) 0.0330(9) Uani 1 1 d . . .
H16 H 0.5054 0.7353 0.6495 0.040 Uiso 1 1 calc R . .
C17 C 0.6295(3) 0.7397(3) 0.7787(3) 0.0340(9) Uani 1 1 d . . .
H17 H 0.6151 0.7773 0.8303 0.041 Uiso 1 1 calc R . .
C18 C 0.7179(3) 0.6971(2) 0.7905(3) 0.0266(8) Uani 1 1 d . . .
C19 C 0.7992(3) 0.7004(2) 0.8777(3) 0.0284(8) Uani 1 1 d . . .
C20 C 0.8833(3) 0.6558(3) 0.8861(3) 0.0296(8) Uani 1 1 d . . .
C21 C 0.9611(4) 0.6502(3) 0.9718(3) 0.0414(10) Uani 1 1 d . . .
H21 H 0.9700 0.6800 1.0374 0.050 Uiso 1 1 calc R . .
C22 C 1.0209(4) 0.5942(3) 0.9427(3) 0.0489(12) Uani 1 1 d . . .
H22 H 1.0785 0.5769 0.9838 0.059 Uiso 1 1 calc R . .
C23 C 0.9809(4) 0.5669(3) 0.8402(3) 0.0385(10) Uani 1 1 d . . .
H23 H 1.0083 0.5275 0.8008 0.046 Uiso 1 1 calc R . .
C24 C 0.7954(3) 0.7563(2) 0.9715(3) 0.0301(8) Uani 1 1 d . . .
C25 C 0.8826(4) 0.8384(3) 1.0417(3) 0.0384(10) Uani 1 1 d . . .
H25 H 0.9477 0.8590 1.0326 0.046 Uiso 1 1 calc R . .
C26 C 0.8739(4) 0.8901(3) 1.1256(3) 0.0408(10) Uani 1 1 d . . .
H26 H 0.9344 0.9467 1.1732 0.049 Uiso 1 1 calc R . .
C27 C 0.7030(4) 0.7846(3) 1.0760(3) 0.0520(13) Uani 1 1 d . . .
H27 H 0.6403 0.7643 1.0879 0.062 Uiso 1 1 calc R . .
C28 C 0.7043(4) 0.7293(3) 0.9896(4) 0.0493(12) Uani 1 1 d . . .
H28 H 0.6428 0.6730 0.9430 0.059 Uiso 1 1 calc R . .
C29 C 0.6317(3) 0.4504(3) 0.6511(3) 0.0309(8) Uani 1 1 d . . .
H29 H 0.6069 0.4973 0.6846 0.037 Uiso 1 1 calc R . .
C30 C 0.5753(4) 0.3554(3) 0.6112(3) 0.0370(9) Uani 1 1 d . . .
H30 H 0.5077 0.3274 0.6132 0.044 Uiso 1 1 calc R . .
C31 C 0.6362(3) 0.3106(3) 0.5686(3) 0.0303(8) Uani 1 1 d . . .
H31 H 0.6181 0.2456 0.5344 0.036 Uiso 1 1 calc R . .
C32 C 0.7314(3) 0.3797(2) 0.5853(3) 0.0228(7) Uani 1 1 d . . .
C33 C 0.8193(3) 0.3684(2) 0.5583(3) 0.0226(7) Uani 1 1 d . . .
C34 C 0.9160(3) 0.4395(2) 0.5843(3) 0.0237(7) Uani 1 1 d . . .
C35 C 1.0169(3) 0.4308(3) 0.5739(3) 0.0313(9) Uani 1 1 d . . .
H35 H 1.0286 0.3748 0.5412 0.038 Uiso 1 1 calc R . .
C36 C 1.0948(3) 0.5182(3) 0.6200(3) 0.0328(9) Uani 1 1 d . . .
H36 H 1.1710 0.5343 0.6262 0.039 Uiso 1 1 calc R . .
C37 C 1.0401(3) 0.5790(3) 0.6560(3) 0.0276(8) Uani 1 1 d . . .
H37 H 1.0740 0.6443 0.6898 0.033 Uiso 1 1 calc R . .
C38 C 0.8090(3) 0.2730(2) 0.4955(3) 0.0258(8) Uani 1 1 d . . .
C39 C 0.8140(4) 0.2048(3) 0.5279(3) 0.0326(9) Uani 1 1 d . . .
H39 H 0.8255 0.2175 0.5935 0.039 Uiso 1 1 calc R . .
C40 C 0.8020(4) 0.1180(3) 0.4635(3) 0.0364(9) Uani 1 1 d . . .
H40 H 0.8061 0.0717 0.4869 0.044 Uiso 1 1 calc R . .
C41 C 0.7779(4) 0.1610(3) 0.3389(3) 0.0433(11) Uani 1 1 d . . .
H41 H 0.7648 0.1463 0.2725 0.052 Uiso 1 1 calc R . .
C42 C 0.7888(4) 0.2493(3) 0.3981(3) 0.0384(10) Uani 1 1 d . . .
H42 H 0.7825 0.2939 0.3725 0.046 Uiso 1 1 calc R . .
N1 N 0.7411(2) 0.56549(19) 0.5276(2) 0.0221(6) Uani 1 1 d . . .
N2 N 0.9176(3) 0.7125(2) 0.7064(2) 0.0274(7) Uani 1 1 d . . .
N3 N 0.7987(3) 0.8849(2) 0.3865(3) 0.0419(9) Uani 1 1 d . D .
N4 N 0.7098(3) 0.6482(2) 0.6965(2) 0.0254(6) Uani 1 1 d . . .
N5 N 0.8986(3) 0.6039(2) 0.8049(2) 0.0265(7) Uani 1 1 d . . .
N6 N 0.7855(3) 0.8652(2) 1.1436(2) 0.0372(8) Uani 1 1 d . . .
N7 N 0.7246(2) 0.46630(19) 0.6360(2) 0.0225(6) Uani 1 1 d . . .
N8 N 0.9331(2) 0.53314(19) 0.6365(2) 0.0238(6) Uani 1 1 d . . .
N9 N 0.7848(3) 0.0951(2) 0.3699(3) 0.0378(8) Uani 1 1 d . . .
P1 P 0.5000 1.0000 0.5000 0.0488(4) Uani 1 2 d S . .
F1 F 0.4602(4) 1.0830(3) 0.4848(3) 0.0953(12) Uani 1 1 d . . .
F2 F 0.5028(4) 0.9660(3) 0.3976(3) 0.1047(14) Uani 1 1 d . . .
F3 F 0.3697(3) 0.9428(3) 0.4508(4) 0.1170(16) Uani 1 1 d . . .
P2 P 0.5198(3) 0.4601(2) 0.9092(2) 0.0655(8) Uani 0.50 1 d P A -1
F4 F 0.4527(8) 0.3649(5) 0.8155(5) 0.098(3) Uani 0.50 1 d P A -1
F5 F 0.5850(10) 0.5563(7) 1.0063(7) 0.089(3) Uani 0.50 1 d P A -1
F6 F 0.4589(11) 0.4236(8) 0.9626(8) 0.110(4) Uani 0.50 1 d P A -1
F7 F 0.4159(7) 0.4978(5) 0.8677(6) 0.089(2) Uani 0.50 1 d P A -1
F8 F 0.6239(8) 0.4245(6) 0.9508(6) 0.114(3) Uani 0.50 1 d P A -1
F9 F 0.5789(8) 0.4973(6) 0.8553(6) 0.102(3) Uani 0.50 1 d P A -1
C43 C 0.4223(12) 0.5925(9) 0.1394(7) 0.107(6) Uani 0.50 1 d PG B -1
H43 H 0.4681 0.5595 0.1170 0.128 Uiso 0.50 1 calc PR B -1
C44 C 0.4649(8) 0.6884(9) 0.1908(8) 0.085(4) Uani 0.50 1 d PG B -1
H44 H 0.5397 0.7209 0.2034 0.102 Uiso 0.50 1 calc PR B -1
C45 C 0.3979(10) 0.7366(6) 0.2236(7) 0.096(9) Uani 0.50 1 d PG B -1
H45 H 0.4270 0.8021 0.2587 0.115 Uiso 0.50 1 calc PR B -1
C46 C 0.2884(10) 0.6891(9) 0.2051(8) 0.094(5) Uani 0.50 1 d PG B -1
H46 H 0.2426 0.7221 0.2275 0.112 Uiso 0.50 1 calc PR B -1
C47 C 0.2458(8) 0.5932(10) 0.1537(8) 0.115(7) Uani 0.50 1 d PG B -1
H47 H 0.1709 0.5607 0.1411 0.138 Uiso 0.50 1 calc PR B -1
C48 C 0.3128(13) 0.5449(6) 0.1209(6) 0.103(6) Uani 0.50 1 d PG B -1
H48 H 0.2837 0.4794 0.0858 0.124 Uiso 0.50 1 calc PR B -1
C49 C 0.1654(11) 1.0408(11) 0.1598(15) 0.060(4) Uani 0.50 1 d P C -1
H49 H 0.1447 1.0955 0.1679 0.071 Uiso 0.50 1 calc PR C -1
C50 C 0.1775(11) 0.9989(10) 0.0882(13) 0.049(3) Uani 0.50 1 d P C -1
H50 H 0.1721 1.0249 0.0428 0.059 Uiso 0.50 1 calc PR C -1
C51 C 0.1987(10) 0.9159(11) 0.0682(12) 0.057(4) Uani 0.50 1 d P C -1
H51 H 0.2063 0.8868 0.0096 0.068 Uiso 0.50 1 calc PR C -1
C52 C 0.2087(8) 0.8754(7) 0.1271(8) 0.052(2) Uani 0.50 1 d P C -1
H52 H 0.2203 0.8168 0.1106 0.063 Uiso 0.50 1 calc PR C -1
C53 C 0.2020(9) 0.9197(8) 0.2124(8) 0.056(3) Uani 0.50 1 d P C -1
H53 H 0.2100 0.8918 0.2566 0.068 Uiso 0.50 1 calc PR C -1
C54 C 0.1841(9) 1.0036(8) 0.2361(8) 0.060(3) Uani 0.50 1 d P C -1
H54 H 0.1835 1.0366 0.2973 0.072 Uiso 0.50 1 calc PR C -1
N10 N 0.5439(7) 0.9157(6) 0.1827(7) 0.055(2) Uani 0.50 1 d PD D -1
C55 C 0.5179(7) 0.9748(6) 0.2134(7) 0.044(2) Uani 0.50 1 d PD D -1
C56 C 0.4865(8) 1.0569(6) 0.2556(8) 0.048(2) Uani 0.50 1 d PD D -1
H56A H 0.5205 1.0795 0.3280 0.073 Uiso 0.50 1 calc PR D -1
H56B H 0.4016 1.0405 0.2271 0.073 Uiso 0.50 1 calc PR D -1
H56C H 0.5164 1.1053 0.2397 0.073 Uiso 0.50 1 calc PR D -1
N11 N -0.0013(14) 0.2622(10) 0.7695(10) 0.082(4) Uani 0.50 1 d PD E 5
C57 C 0.0730(12) 0.3150(13) 0.7907(18) 0.057(5) Uani 0.50 1 d PD E 5
C58 C 0.1722(17) 0.3882(14) 0.8139(19) 0.095(7) Uani 0.50 1 d PD E 5
N12 N 0.0718(13) 0.9613(8) 0.3525(9) 0.101(5) Uani 0.50 1 d PD F 3
C59 C 0.1091(13) 0.9231(11) 0.3153(13) 0.078(4) Uani 0.50 1 d PD F 3
C60 C 0.1607(17) 0.8672(15) 0.2576(13) 0.139(7) Uani 0.50 1 d PD F 3
H60A H 0.1318 0.8023 0.2435 0.209 Uiso 0.50 1 calc PR F 3
H60B H 0.2457 0.8902 0.2966 0.209 Uiso 0.50 1 calc PR F 3
H60C H 0.1386 0.8724 0.1948 0.209 Uiso 0.50 1 calc PR F 3
N13 N 0.3559(12) 0.7527(11) 0.8338(10) 0.133(6) Uani 0.50 1 d PD . .
C61 C 0.3447(8) 0.7321(6) 0.8805(7) 0.041(2) Uiso 0.50 1 d PD . .
C62 C 0.3258(14) 0.6939(10) 0.9466(10) 0.098(5) Uani 0.50 1 d PD . .
N14 N 0.5433(9) 0.8518(8) 0.1962(8) 0.083(3) Uani 0.50 1 d PD G 3
C63 C 0.4710(11) 0.8133(9) 0.2011(10) 0.075(4) Uani 0.50 1 d PD G 3
C64 C 0.3743(16) 0.7611(14) 0.2063(15) 0.101(7) Uani 0.50 1 d PD G 3
H64A H 0.3708 0.7978 0.2672 0.151 Uiso 0.50 1 calc PR G 3
H64B H 0.3861 0.7032 0.2070 0.151 Uiso 0.50 1 calc PR G 3
H64C H 0.3012 0.7473 0.1481 0.151 Uiso 0.50 1 calc PR G 3
C65 C 0.3498(17) 0.9916(13) 0.2002(19) 0.49(6) Uani 0.50 1 d PG H 3
H65 H 0.4211 0.9798 0.2268 0.584 Uiso 0.50 1 calc PR H 3
C66 C 0.3221(17) 1.0575(11) 0.2624(11) 0.164(11) Uani 0.50 1 d PG H 3
H66 H 0.3746 1.0907 0.3315 0.197 Uiso 0.50 1 calc PR H 3
C67 C 0.2177(19) 1.0748(9) 0.2236(17) 0.101(6) Uani 0.50 1 d PG H 3
H67 H 0.1988 1.1199 0.2661 0.122 Uiso 0.50 1 calc PR H 3
C68 C 0.1409(14) 1.0263(17) 0.1225(19) 0.22(2) Uani 0.50 1 d PG H 3
H68 H 0.0696 1.0382 0.0960 0.260 Uiso 0.50 1 calc PR H 3
C69 C 0.169(2) 0.9605(17) 0.0603(11) 0.18(2) Uani 0.50 1 d PG H 3
H69 H 0.1161 0.9273 -0.0088 0.222 Uiso 0.50 1 calc PR H 3
C70 C 0.273(3) 0.9431(13) 0.0991(17) 0.24(2) Uani 0.50 1 d PG H 3
H70 H 0.2919 0.8981 0.0566 0.291 Uiso 0.50 1 calc PR H 3
N15 N 0.631(2) 0.971(3) 0.019(3) 0.235(16) Uani 0.50 1 d PD I -4
C71 C 0.5497(19) 0.977(2) -0.0018(18) 0.107(9) Uani 0.50 1 d PD I -4
C72 C 0.442(3) 0.996(3) -0.054(3) 0.27(3) Uani 0.50 1 d PD I -4
N16 N 0.208(3) 0.421(4) 0.801(3) 0.35(3) Uani 0.50 1 d PD J 6
C73 C 0.129(3) 0.388(3) 0.796(2) 0.32(5) Uani 0.50 1 d PD J 6
C74 C 0.027(3) 0.3225(18) 0.781(3) 0.148(17) Uani 0.50 1 d PD J 6

loop_
_atom_site_aniso_label
_atom_site_aniso_U_11
_atom_site_aniso_U_22
_atom_site_aniso_U_33
_atom_site_aniso_U_23
_atom_site_aniso_U_13
_atom_site_aniso_U_12
Ag1 0.0850(3) 0.02613(19) 0.0381(2) 0.01190(15) 0.0379(2) 0.02866(18)
Fe1 0.0239(3) 0.0165(3) 0.0233(3) 0.0059(2) 0.0129(2) 0.0089(2)
C1 0.0253(19) 0.0211(18) 0.0282(19) 0.0075(16) 0.0