####################################################################### 
# 
# This file contains crystal structure data downloaded from the 
# Cambridge Structural Database (CSD) hosted by the Cambridge 
# Crystallographic Data Centre (CCDC).
# 
# Full information about CCDC data access policies and citation 
# guidelines are available at http://www.ccdc.cam.ac.uk/access/V1 
# 
# Audit and citation data items may have been added by the CCDC. 
# Please retain this information to preserve the provenance of 
# this file and to allow appropriate attribution of the data. 
# 
#######################################################################

data_MOF-Co/AgOTf-4
_audit_block_doi                 10.5517/ccnhy46
_database_code_depnum_ccdc_archive 'CCDC 611138'
loop_
_citation_id
_citation_doi
_citation_year
1 10.1021/ja0645483 2006
_audit_update_record             
;
2006-06-13 deposited with the CCDC.	2024-07-09 downloaded from the CCDC.
;

_audit_creation_method           SHELXL-97
_chemical_name_systematic        
;
?
;
_chemical_name_common            MOF-Co/AgOTf-4
_chemical_melting_point          ?
_chemical_formula_moiety         'C67 H42 Ag Co F3 N9 O3 S, 4(C6 H6), C2 H3 N'
_chemical_formula_sum            'C93 H69 Ag Co F3 N10 O3 S'
_chemical_formula_weight         1630.44

loop_
_atom_type_symbol
_atom_type_description
_atom_type_scat_dispersion_real
_atom_type_scat_dispersion_imag
_atom_type_scat_source
C C 0.0033 0.0016 'International Tables Vol C Tables 4.2.6.8 and 6.1.1.4'
H H 0.0000 0.0000 'International Tables Vol C Tables 4.2.6.8 and 6.1.1.4'
N N 0.0061 0.0033 'International Tables Vol C Tables 4.2.6.8 and 6.1.1.4'
O O 0.0106 0.0060 'International Tables Vol C Tables 4.2.6.8 and 6.1.1.4'
F F 0.0171 0.0103 'International Tables Vol C Tables 4.2.6.8 and 6.1.1.4'
S S 0.1246 0.1234 'International Tables Vol C Tables 4.2.6.8 and 6.1.1.4'
Co Co 0.3494 0.9721 'International Tables Vol C Tables 4.2.6.8 and 6.1.1.4'
Ag Ag -0.8971 1.1015 'International Tables Vol C Tables 4.2.6.8 and 6.1.1.4'

_symmetry_cell_setting           triclinic
_symmetry_space_group_name_H-M   'P -1'

loop_
_symmetry_equiv_pos_as_xyz
'x, y, z'
'-x, -y, -z'

_cell_length_a                   9.3693(9)
_cell_length_b                   19.3886(19)
_cell_length_c                   22.869(2)
_cell_angle_alpha                94.659(2)
_cell_angle_beta                 94.855(2)
_cell_angle_gamma                91.655(2)
_cell_volume                     4123.0(7)
_cell_formula_units_Z            2
_cell_measurement_temperature    100(2)
_cell_measurement_reflns_used    9719
_cell_measurement_theta_min      2.22
_cell_measurement_theta_max      27.5

_exptl_crystal_description       needle
_exptl_crystal_colour            red
_exptl_crystal_size_max          0.90
_exptl_crystal_size_mid          0.24
_exptl_crystal_size_min          0.20
_exptl_crystal_density_meas      ?
_exptl_crystal_density_diffrn    1.313
_exptl_crystal_density_method    'not measured'
_exptl_crystal_F_000             1676
_exptl_absorpt_coefficient_mu    0.527
_exptl_absorpt_correction_type   multi-scan
_exptl_absorpt_correction_T_min  0.66505
_exptl_absorpt_correction_T_max  0.92050
_exptl_absorpt_process_details   'SADABS 2.10 (Sheldrick, 2004)'

_exptl_special_details           
;
?
;

_diffrn_ambient_temperature      100(2)
_diffrn_radiation_wavelength     0.71073
_diffrn_radiation_type           MoK\a
_diffrn_radiation_source         'fine-focus sealed tube'
_diffrn_radiation_monochromator  graphite
_diffrn_measurement_device_type  'Bruker APEX'
_diffrn_measurement_method       \w
_diffrn_detector_area_resol_mean 8.3
_diffrn_standards_number         0
_diffrn_standards_interval_count ?
_diffrn_standards_interval_time  ?
_diffrn_standards_decay_%        ?
_diffrn_reflns_number            35002
_diffrn_reflns_av_R_equivalents  0.0261
_diffrn_reflns_av_sigmaI/netI    0.0432
_diffrn_reflns_limit_h_min       -11
_diffrn_reflns_limit_h_max       11
_diffrn_reflns_limit_k_min       -23
_diffrn_reflns_limit_k_max       23
_diffrn_reflns_limit_l_min       -27
_diffrn_reflns_limit_l_max       27
_diffrn_reflns_theta_min         1.33
_diffrn_reflns_theta_max         25.35
_reflns_number_total             14945
_reflns_number_gt                12486
_reflns_threshold_expression     I>2\s(I)

_computing_data_collection       'SMART 5.054 (Bruker, 2003)'
_computing_cell_refinement       SMART
_computing_data_reduction        'SAINT 6.45A (Bruker, 2003)'
_computing_structure_solution    'SHELXS97 (Sheldrick, 1990)'
_computing_structure_refinement  'SHELXL97 (Sheldrick, 1997)'
_computing_molecular_graphics    'SHELXTL 5.1 (Sheldrick, 1994)'
_computing_publication_material  SHELXL97

_refine_special_details          
;
Refinement of F^2^ against ALL reflections. The weighted R-factor wR and
goodness of fit S are based on F^2^, conventional R-factors R are based
on F, with F set to zero for negative F^2^. The threshold expression of
F^2^ > 2sigma(F^2^) is used only for calculating R-factors(gt) etc. and is
not relevant to the choice of reflections for refinement. R-factors based
on F^2^ are statistically about twice as large as those based on F, and R-
factors based on ALL data will be even larger.

All H atoms were located in a difference map, placed in calculated
positions and treated with a riding model.

The asymmetric unit includes 4 fully occ. benzene molecules and a fully
occ. acetonitrile molecule. The acetonitrile was treated as a rigid group.
Additional partially occ. and disordered solvent molecules were detected,
but acceptable atomic positions could not be deterimened. These additional
solvent molecules were treated as a diffuse contribution using the program
SQUEEZE (A. Spek, Platon Library). 423.2 Ang^3^ void space per cell; 64
electrons. One molecule of acetonitrile and one molecule of benzene require
64 electrons per unit cell.
;

_refine_ls_structure_factor_coef Fsqd
_refine_ls_matrix_type           full
_refine_ls_weighting_scheme      calc
_refine_ls_weighting_details     
'calc w=1/[\s^2^(Fo^2^)+(0.0656P)^2^+3.3228P] where P=(Fo^2^+2Fc^2^)/3'
_atom_sites_solution_primary     direct
_atom_sites_solution_secondary   difmap
_atom_sites_solution_hydrogens   geom
_refine_ls_hydrogen_treatment    constr
_refine_ls_extinction_method     none
_refine_ls_extinction_coef       ?
_refine_ls_number_reflns         14945
_refine_ls_number_parameters     982
_refine_ls_number_restraints     0
_refine_ls_R_factor_all          0.0569
_refine_ls_R_factor_gt           0.0468
_refine_ls_wR_factor_ref         0.1230
_refine_ls_wR_factor_gt          0.1188
_refine_ls_goodness_of_fit_ref   1.045
_refine_ls_restrained_S_all      1.045
_refine_ls_shift/su_max          0.002
_refine_ls_shift/su_mean         0.000

loop_
_atom_site_label
_atom_site_type_symbol
_atom_site_fract_x
_atom_site_fract_y
_atom_site_fract_z
_atom_site_U_iso_or_equiv
_atom_site_adp_type
_atom_site_occupancy
_atom_site_symmetry_multiplicity
_atom_site_calc_flag
_atom_site_refinement_flags
_atom_site_disorder_assembly
_atom_site_disorder_group
Ag1 Ag 1.76241(2) 1.093878(12) 0.027551(10) 0.02473(8) Uani 1 1 d . . .
Co1 Co 0.52828(4) 0.786137(19) 0.432786(16) 0.01638(10) Uani 1 1 d . . .
C1 C 0.4456(3) 0.80752(16) 0.30884(13) 0.0232(6) Uani 1 1 d . . .
H1 H 0.3509 0.7897 0.3111 0.028 Uiso 1 1 calc R . .
C2 C 0.4971(3) 0.83037(17) 0.25736(14) 0.0272(7) Uani 1 1 d . . .
H2 H 0.4448 0.8314 0.2200 0.033 Uiso 1 1 calc R . .
C3 C 0.6376(3) 0.85074(16) 0.27182(13) 0.0256(7) Uani 1 1 d . . .
H3 H 0.7017 0.8684 0.2462 0.031 Uiso 1 1 calc R . .
C4 C 0.6700(3) 0.84064(15) 0.33246(13) 0.0204(6) Uani 1 1 d . . .
C5 C 0.7961(3) 0.86064(14) 0.36685(13) 0.0193(6) Uani 1 1 d . . .
C6 C 0.8142(3) 0.85902(14) 0.42799(13) 0.0183(6) Uani 1 1 d . . .
C7 C 0.9347(3) 0.88355(15) 0.46751(14) 0.0219(6) Uani 1 1 d . . .
H7 H 1.0220 0.9033 0.4570 0.026 Uiso 1 1 calc R . .
C8 C 0.9010(3) 0.87322(15) 0.52297(13) 0.0225(6) Uani 1 1 d . . .
H8 H 0.9595 0.8851 0.5586 0.027 Uiso 1 1 calc R . .
C9 C 0.7626(3) 0.84162(15) 0.51749(13) 0.0219(6) Uani 1 1 d . . .
H9 H 0.7129 0.8287 0.5497 0.026 Uiso 1 1 calc R . .
C10 C 0.9181(3) 0.88706(16) 0.33600(13) 0.0227(6) Uani 1 1 d . . .
C11 C 0.9685(3) 0.84591(17) 0.28946(14) 0.0257(7) Uani 1 1 d . . .
H11 H 0.9263 0.8011 0.2786 0.031 Uiso 1 1 calc R . .
C12 C 1.0784(3) 0.86958(18) 0.25926(14) 0.0290(7) Uani 1 1 d . . .
H12 H 1.1124 0.8407 0.2282 0.035 Uiso 1 1 calc R . .
C13 C 1.1401(3) 0.93538(18) 0.27373(14) 0.0278(7) Uani 1 1 d . . .
C14 C 1.0924(3) 0.97694(17) 0.32053(14) 0.0276(7) Uani 1 1 d . . .
H14 H 1.1348 1.0218 0.3313 0.033 Uiso 1 1 calc R . .
C15 C 0.9825(3) 0.95197(16) 0.35111(14) 0.0242(7) Uani 1 1 d . . .
H15 H 0.9508 0.9801 0.3831 0.029 Uiso 1 1 calc R . .
C16 C 1.2471(3) 0.96133(18) 0.23888(15) 0.0321(8) Uani 1 1 d . . .
C17 C 1.3302(3) 0.98130(18) 0.20641(15) 0.0315(8) Uani 1 1 d . . .
C18 C 1.4270(3) 1.00555(18) 0.16681(14) 0.0279(7) Uani 1 1 d . . .
C19 C 1.4716(3) 0.96175(17) 0.12122(15) 0.0294(7) Uani 1 1 d . . .
H19 H 1.4385 0.9147 0.1158 0.035 Uiso 1 1 calc R . .
C20 C 1.5646(3) 0.98767(16) 0.08399(14) 0.0263(7) Uani 1 1 d . . .
H20 H 1.5941 0.9571 0.0530 0.032 Uiso 1 1 calc R . .
C21 C 1.5719(3) 1.09493(16) 0.13313(14) 0.0264(7) Uani 1 1 d . . .
H21 H 1.6072 1.1417 0.1375 0.032 Uiso 1 1 calc R . .
C22 C 1.4791(3) 1.07389(17) 0.17234(14) 0.0278(7) Uani 1 1 d . . .
H22 H 1.4511 1.1056 0.2028 0.033 Uiso 1 1 calc R . .
C23 C 0.7585(3) 0.68817(16) 0.42253(13) 0.0234(6) Uani 1 1 d . . .
H23 H 0.8271 0.7205 0.4429 0.028 Uiso 1 1 calc R . .
C24 C 0.7883(3) 0.61990(17) 0.40317(16) 0.0312(8) Uani 1 1 d . . .
H24 H 0.8775 0.5981 0.4084 0.037 Uiso 1 1 calc R . .
C25 C 0.6635(3) 0.59112(17) 0.37529(15) 0.0311(8) Uani 1 1 d . . .
H25 H 0.6496 0.5453 0.3572 0.037 Uiso 1 1 calc R . .
C26 C 0.5585(3) 0.64209(15) 0.37836(13) 0.0238(7) Uani 1 1 d . . .
C27 C 0.4121(3) 0.63455(15) 0.35948(13) 0.0225(6) Uani 1 1 d . . .
C28 C 0.3101(3) 0.68254(15) 0.37277(13) 0.0223(6) Uani 1 1 d . . .
C29 C 0.1603(3) 0.67771(16) 0.35558(14) 0.0258(7) Uani 1 1 d . . .
H29 H 0.1106 0.6414 0.3309 0.031 Uiso 1 1 calc R . .
C30 C 0.1013(3) 0.73522(16) 0.38130(14) 0.0253(7) Uani 1 1 d . . .
H30 H 0.0028 0.7460 0.3786 0.030 Uiso 1 1 calc R . .
C31 C 0.2149(3) 0.77507(16) 0.41245(13) 0.0226(6) Uani 1 1 d . . .
H31 H 0.2042 0.8182 0.4342 0.027 Uiso 1 1 calc R . .
C32 C 0.3594(3) 0.57140(16) 0.32117(14) 0.0266(7) Uani 1 1 d . . .
C33 C 0.4054(4) 0.55978(17) 0.26551(15) 0.0322(8) Uani 1 1 d . . .
H33 H 0.4812 0.5880 0.2542 0.039 Uiso 1 1 calc R . .
C34 C 0.3425(4) 0.50750(18) 0.22590(16) 0.0374(8) Uani 1 1 d . . .
H34 H 0.3744 0.5005 0.1876 0.045 Uiso 1 1 calc R . .
C35 C 0.2329(4) 0.46527(17) 0.24220(16) 0.0325(8) Uani 1 1 d . . .
C36 C 0.1905(4) 0.47517(18) 0.29848(16) 0.0369(8) Uani 1 1 d . . .
H36 H 0.1170 0.4458 0.3102 0.044 Uiso 1 1 calc R . .
C37 C 0.2532(4) 0.52710(17) 0.33806(16) 0.0351(8) Uani 1 1 d . . .
H37 H 0.2240 0.5327 0.3769 0.042 Uiso 1 1 calc R . .
C38 C 0.1629(4) 0.41226(17) 0.20134(16) 0.0338(8) Uani 1 1 d . . .
C39 C 0.1005(4) 0.36762(19) 0.16925(16) 0.0360(8) Uani 1 1 d . . .
C40 C 0.0270(4) 0.31177(17) 0.13233(15) 0.0298(7) Uani 1 1 d . . .
C41 C 0.1021(3) 0.25898(17) 0.10585(15) 0.0311(7) Uani 1 1 d . . .
H41 H 0.2039 0.2601 0.1100 0.037 Uiso 1 1 calc R . .
C42 C 0.0266(3) 0.20495(17) 0.07349(15) 0.0292(7) Uani 1 1 d . . .
H42 H 0.0794 0.1690 0.0558 0.035 Uiso 1 1 calc R . .
C43 C -0.1875(4) 0.25223(17) 0.08915(15) 0.0324(8) Uani 1 1 d . . .
H43 H -0.2890 0.2508 0.0825 0.039 Uiso 1 1 calc R . .
C44 C -0.1224(4) 0.30842(18) 0.12280(16) 0.0354(8) Uani 1 1 d . . .
H44 H -0.1779 0.3441 0.1392 0.042 Uiso 1 1 calc R . .
C45 C 0.4103(3) 0.92367(15) 0.42175(13) 0.0199(6) Uani 1 1 d . . .
H45 H 0.4348 0.9243 0.3823 0.024 Uiso 1 1 calc R . .
C46 C 0.3370(3) 0.97654(15) 0.45120(13) 0.0212(6) Uani 1 1 d . . .
H46 H 0.3035 1.0177 0.4357 0.025 Uiso 1 1 calc R . .
C47 C 0.3236(3) 0.95692(15) 0.50657(13) 0.0215(6) Uani 1 1 d . . .
H47 H 0.2791 0.9820 0.5371 0.026 Uiso 1 1 calc R . .
C48 C 0.3887(3) 0.89195(15) 0.51002(12) 0.0189(6) Uani 1 1 d . . .
C49 C 0.3945(3) 0.85060(15) 0.55708(12) 0.0190(6) Uani 1 1 d . . .
C50 C 0.4484(3) 0.78409(15) 0.55704(13) 0.0208(6) Uani 1 1 d . . .
C51 C 0.4565(3) 0.74068(16) 0.60393(14) 0.0255(7) Uani 1 1 d . . .
H51 H 0.4255 0.7511 0.6421 0.031 Uiso 1 1 calc R . .
C52 C 0.5173(4) 0.68089(17) 0.58400(15) 0.0297(7) Uani 1 1 d . . .
H52 H 0.5364 0.6418 0.6055 0.036 Uiso 1 1 calc R . .
C53 C 0.5459(3) 0.68847(15) 0.52566(14) 0.0234(7) Uani 1 1 d . . .
H53 H 0.5877 0.6541 0.5012 0.028 Uiso 1 1 calc R . .
C54 C 0.3380(3) 0.87990(15) 0.61249(12) 0.0209(6) Uani 1 1 d . . .
C55 C 0.4080(3) 0.93615(16) 0.64518(13) 0.0250(7) Uani 1 1 d . . .
H55 H 0.4927 0.9556 0.6322 0.030 Uiso 1 1 calc R . .
C56 C 0.3566(4) 0.96443(16) 0.69638(13) 0.0272(7) Uani 1 1 d . . .
H56 H 0.4062 1.0028 0.7184 0.033 Uiso 1 1 calc R . .
C57 C 0.2321(3) 0.93655(17) 0.71550(13) 0.0260(7) Uani 1 1 d . . .
C58 C 0.1606(3) 0.88068(18) 0.68263(14) 0.0286(7) Uani 1 1 d . . .
H58 H 0.0746 0.8619 0.6951 0.034 Uiso 1 1 calc R . .
C59 C 0.2135(3) 0.85216(17) 0.63189(13) 0.0264(7) Uani 1 1 d . . .
H59 H 0.1647 0.8134 0.6101 0.032 Uiso 1 1 calc R . .
C60 C 0.1740(3) 0.96468(18) 0.76794(14) 0.0297(7) Uani 1 1 d . . .
C61 C 0.1195(3) 0.98597(18) 0.81119(14) 0.0316(8) Uani 1 1 d . . .
C62 C 0.0451(3) 1.00996(18) 0.86062(13) 0.0277(7) Uani 1 1 d . . .
C63 C -0.0510(4) 0.96624(17) 0.88369(14) 0.0311(8) Uani 1 1 d . . .
H63 H -0.0655 0.9196 0.8676 0.037 Uiso 1 1 calc R . .
C64 C -0.1260(3) 0.99069(16) 0.93035(13) 0.0258(7) Uani 1 1 d . . .
H64 H -0.1910 0.9599 0.9458 0.031 Uiso 1 1 calc R . .
C65 C -0.0174(4) 1.0973(2) 0.93205(16) 0.0421(10) Uani 1 1 d . . .
H65 H -0.0058 1.1437 0.9489 0.051 Uiso 1 1 calc R . .
C66 C 0.0627(4) 1.0770(2) 0.88622(16) 0.0405(9) Uani 1 1 d . . .
H66 H 0.1289 1.1087 0.8725 0.049 Uiso 1 1 calc R . .
N1 N 0.5463(2) 0.81395(12) 0.35397(10) 0.0193(5) Uani 1 1 d . . .
N2 N 0.7107(2) 0.83222(12) 0.46121(10) 0.0177(5) Uani 1 1 d . . .
N3 N 1.6152(3) 1.05259(13) 0.08884(11) 0.0232(6) Uani 1 1 d . . .
N4 N 0.6221(3) 0.70190(12) 0.40872(10) 0.0194(5) Uani 1 1 d . . .
N5 N 0.3400(2) 0.74450(12) 0.40753(10) 0.0195(5) Uani 1 1 d . . .
N6 N -0.1170(3) 0.19968(13) 0.06532(11) 0.0264(6) Uani 1 1 d . . .
N7 N 0.4411(2) 0.87276(12) 0.45571(10) 0.0187(5) Uani 1 1 d . . .
N8 N 0.5070(3) 0.75016(12) 0.50874(11) 0.0200(5) Uani 1 1 d . . .
N9 N -0.1106(3) 1.05506(14) 0.95410(11) 0.0252(6) Uani 1 1 d . . .
S1 S 0.41863(8) 0.18674(4) 0.01379(4) 0.02876(18) Uani 1 1 d . . .
O1 O 0.4397(3) 0.22990(13) 0.06780(12) 0.0453(7) Uani 1 1 d . . .
O2 O 0.5492(2) 0.16549(12) -0.01115(11) 0.0349(6) Uani 1 1 d . . .
O3 O 0.3088(2) 0.13351(12) 0.01207(11) 0.0374(6) Uani 1 1 d . . .
C67 C 0.3468(5) 0.2445(3) -0.0381(2) 0.0627(14) Uani 1 1 d . . .
F1 F 0.4346(3) 0.29853(15) -0.04136(16) 0.0882(10) Uani 1 1 d . . .
F2 F 0.2218(3) 0.2691(2) -0.02286(17) 0.1102(14) Uani 1 1 d . . .
F3 F 0.3248(3) 0.2129(2) -0.09183(14) 0.0898(11) Uani 1 1 d . . .
C68 C 0.9878(5) 0.4358(2) 0.4347(2) 0.0598(12) Uani 1 1 d . . .
H68 H 1.0044 0.4808 0.4226 0.072 Uiso 1 1 calc R . .
C69 C 1.0827(4) 0.3847(2) 0.42433(19) 0.0521(11) Uani 1 1 d . . .
H69 H 1.1677 0.3953 0.4064 0.063 Uiso 1 1 calc R . .
C70 C 1.0573(5) 0.3186(2) 0.43938(17) 0.0466(10) Uani 1 1 d . . .
H70 H 1.1214 0.2831 0.4301 0.056 Uiso 1 1 calc R . .
C71 C 0.9380(4) 0.3046(2) 0.46795(17) 0.0445(9) Uani 1 1 d . . .
H71 H 0.9215 0.2593 0.4797 0.053 Uiso 1 1 calc R . .
C72 C 0.8435(4) 0.3543(2) 0.47961(18) 0.0493(10) Uani 1 1 d . . .
H72 H 0.7611 0.3438 0.4992 0.059 Uiso 1 1 calc R . .
C73 C 0.8671(5) 0.4207(3) 0.4630(2) 0.0640(13) Uani 1 1 d . . .
H73 H 0.8007 0.4556 0.4711 0.077 Uiso 1 1 calc R . .
C74 C 0.2629(7) 0.7008(3) 0.1785(3) 0.0797(16) Uani 1 1 d . . .
H74 H 0.3288 0.6935 0.2112 0.096 Uiso 1 1 calc R . .
C75 C 0.3109(6) 0.7306(3) 0.1305(2) 0.0717(14) Uani 1 1 d . . .
H75 H 0.4078 0.7467 0.1314 0.086 Uiso 1 1 calc R . .
C76 C 0.2223(6) 0.7366(3) 0.0838(3) 0.095(2) Uani 1 1 d . . .
H76 H 0.2566 0.7563 0.0507 0.114 Uiso 1 1 calc R . .
C77 C 0.0896(8) 0.7162(6) 0.0818(5) 0.200(6) Uani 1 1 d . . .
H77 H 0.0273 0.7206 0.0474 0.239 Uiso 1 1 calc R . .
C78 C 0.0384(8) 0.6881(7) 0.1297(5) 0.206(6) Uani 1 1 d . . .
H78 H -0.0591 0.6725 0.1279 0.248 Uiso 1 1 calc R . .
C79 C 0.1258(9) 0.6823(4) 0.1795(3) 0.123(3) Uani 1 1 d . . .
H79 H 0.0901 0.6656 0.2136 0.147 Uiso 1 1 calc R . .
C80 C 0.7756(5) 0.6424(3) 0.2466(2) 0.0672(14) Uani 1 1 d . . .
H80 H 0.7917 0.6755 0.2797 0.081 Uiso 1 1 calc R . .
C81 C 0.8414(5) 0.5807(3) 0.2471(2) 0.0627(13) Uani 1 1 d . . .
H81 H 0.9022 0.5709 0.2806 0.075 Uiso 1 1 calc R . .
C82 C 0.8205(7) 0.5330(3) 0.2000(3) 0.0808(16) Uani 1 1 d . . .
H82 H 0.8686 0.4905 0.1999 0.097 Uiso 1 1 calc R . .
C83 C 0.7282(8) 0.5470(4) 0.1518(3) 0.095(2) Uani 1 1 d . . .
H83 H 0.7118 0.5144 0.1185 0.114 Uiso 1 1 calc R . .
C84 C 0.6599(6) 0.6103(4) 0.1535(3) 0.090(2) Uani 1 1 d . . .
H84 H 0.5935 0.6201 0.1218 0.108 Uiso 1 1 calc R . .
C85 C 0.6878(6) 0.6572(3) 0.1997(3) 0.0825(18) Uani 1 1 d . . .
H85 H 0.6456 0.7012 0.1995 0.099 Uiso 1 1 calc R . .
C86 C 0.7466(6) 0.3679(3) 0.2897(3) 0.0810(17) Uani 1 1 d . . .
H86 H 0.8032 0.3976 0.3183 0.097 Uiso 1 1 calc R . .
C87 C 0.7757(6) 0.3009(3) 0.2817(2) 0.0661(13) Uani 1 1 d . . .
H87 H 0.8