####################################################################### 
# 
# This file contains crystal structure data downloaded from the 
# Cambridge Structural Database (CSD) hosted by the Cambridge 
# Crystallographic Data Centre (CCDC).
# 
# Full information about CCDC data access policies and citation 
# guidelines are available at http://www.ccdc.cam.ac.uk/access/V1 
# 
# Audit and citation data items may have been added by the CCDC. 
# Please retain this information to preserve the provenance of 
# this file and to allow appropriate attribution of the data. 
# 
#######################################################################

data_MOF-Co/AgPF~6~-4
_audit_block_doi                 10.5517/ccnhy35
_database_code_depnum_ccdc_archive 'CCDC 611137'
loop_
_citation_id
_citation_doi
_citation_year
1 10.1021/ja0645483 2006
_audit_update_record             
;
2006-06-13 deposited with the CCDC.	2024-07-09 downloaded from the CCDC.
;

_audit_creation_method           SHELXL-97
_chemical_name_systematic        
;
?
;
_chemical_name_common            MOF-Co/AgPF~6~-4
_chemical_melting_point          ?
_chemical_formula_moiety         'C66 H42 Ag Co N9, 4(C6 H6), F6 P'
_chemical_formula_sum            'C90 H66 Ag Co F6 N9 P'
_chemical_formula_weight         1585.29

loop_
_atom_type_symbol
_atom_type_description
_atom_type_scat_dispersion_real
_atom_type_scat_dispersion_imag
_atom_type_scat_source
C C 0.0033 0.0016 'International Tables Vol C Tables 4.2.6.8 and 6.1.1.4'
H H 0.0000 0.0000 'International Tables Vol C Tables 4.2.6.8 and 6.1.1.4'
N N 0.0061 0.0033 'International Tables Vol C Tables 4.2.6.8 and 6.1.1.4'
F F 0.0171 0.0103 'International Tables Vol C Tables 4.2.6.8 and 6.1.1.4'
P P 0.1023 0.0942 'International Tables Vol C Tables 4.2.6.8 and 6.1.1.4'
Co Co 0.3494 0.9721 'International Tables Vol C Tables 4.2.6.8 and 6.1.1.4'
Ag Ag -0.8971 1.1015 'International Tables Vol C Tables 4.2.6.8 and 6.1.1.4'

_symmetry_cell_setting           triclinic
_symmetry_space_group_name_H-M   'P -1'

loop_
_symmetry_equiv_pos_as_xyz
'x, y, z'
'-x, -y, -z'

_cell_length_a                   9.4026(13)
_cell_length_b                   19.385(3)
_cell_length_c                   22.645(3)
_cell_angle_alpha                93.820(2)
_cell_angle_beta                 95.353(2)
_cell_angle_gamma                92.800(2)
_cell_volume                     4094.0(10)
_cell_formula_units_Z            2
_cell_measurement_temperature    100(2)
_cell_measurement_reflns_used    5261
_cell_measurement_theta_min      2.18
_cell_measurement_theta_max      26.8

_exptl_crystal_description       plate
_exptl_crystal_colour            red
_exptl_crystal_size_max          0.44
_exptl_crystal_size_mid          0.17
_exptl_crystal_size_min          0.07
_exptl_crystal_density_meas      ?
_exptl_crystal_density_diffrn    1.286
_exptl_crystal_density_method    'not measured'
_exptl_crystal_F_000             1624
_exptl_absorpt_coefficient_mu    0.525
_exptl_absorpt_correction_type   multi-scan
_exptl_absorpt_correction_T_min  0.82614
_exptl_absorpt_correction_T_max  0.97220
_exptl_absorpt_process_details   'SADABS 2.10 (Sheldrick, 2004)'

_exptl_special_details           
;
?
;

_diffrn_ambient_temperature      100(2)
_diffrn_radiation_wavelength     0.71073
_diffrn_radiation_type           MoK\a
_diffrn_radiation_source         'fine-focus sealed tube'
_diffrn_radiation_monochromator  graphite
_diffrn_measurement_device_type  'Bruker APEX'
_diffrn_measurement_method       \w
_diffrn_detector_area_resol_mean 8.3
_diffrn_standards_number         0
_diffrn_standards_interval_count ?
_diffrn_standards_interval_time  ?
_diffrn_standards_decay_%        ?
_diffrn_reflns_number            33968
_diffrn_reflns_av_R_equivalents  0.0548
_diffrn_reflns_av_sigmaI/netI    0.1044
_diffrn_reflns_limit_h_min       -11
_diffrn_reflns_limit_h_max       11
_diffrn_reflns_limit_k_min       -23
_diffrn_reflns_limit_k_max       23
_diffrn_reflns_limit_l_min       -27
_diffrn_reflns_limit_l_max       27
_diffrn_reflns_theta_min         1.34
_diffrn_reflns_theta_max         25.35
_reflns_number_total             14809
_reflns_number_gt                9648
_reflns_threshold_expression     I>2\s(I)

_computing_data_collection       'SMART 5.054 (Bruker, 2003)'
_computing_cell_refinement       SMART
_computing_data_reduction        'SAINT 6.45A (Bruker, 2003)'
_computing_structure_solution    'SHELXS97 (Sheldrick, 1990)'
_computing_structure_refinement  'SHELXL97 (Sheldrick, 1997)'
_computing_molecular_graphics    'SHELXTL 5.1 (Sheldrick, 1994)'
_computing_publication_material  SHELXL97

_refine_special_details          
;
Refinement of F^2^ against ALL reflections. The weighted R-factor wR and
goodness of fit S are based on F^2^, conventional R-factors R are based
on F, with F set to zero for negative F^2^. The threshold expression of
F^2^ > 2sigma(F^2^) is used only for calculating R-factors(gt) etc. and is
not relevant to the choice of reflections for refinement. R-factors based
on F^2^ are statistically about twice as large as those based on F, and R-
factors based on ALL data will be even larger.

All H atoms were located in a difference map, placed in calculated
positions and treated with a riding model.

Asymmetric unit includes 4 fully occ and ordered benzene molecules. An
additional benzene molecule and two acetonitrile molecules were detected,
but were partially occ and disordered. These additional solvent molecules
were treated as a diffuse contribution using the program SQUEEZE (A. Spek,
Platon Library). 608.9 Ang^3^ void space per cell; 176.4 electrons. 4 molecules
of acetonitrile and 2 molecules of benzene require 424 electrons per unit cell.

Residual electron density in the vicinity of Co1 and Ag1 results from
truncation error.
;

_refine_ls_structure_factor_coef Fsqd
_refine_ls_matrix_type           full
_refine_ls_weighting_scheme      calc
_refine_ls_weighting_details     
'calc w=1/[\s^2^(Fo^2^)+(0.1443P)^2^] where P=(Fo^2^+2Fc^2^)/3'
_atom_sites_solution_primary     direct
_atom_sites_solution_secondary   difmap
_atom_sites_solution_hydrogens   geom
_refine_ls_hydrogen_treatment    constr
_refine_ls_extinction_method     none
_refine_ls_extinction_coef       ?
_refine_ls_number_reflns         14809
_refine_ls_number_parameters     973
_refine_ls_number_restraints     0
_refine_ls_R_factor_all          0.1213
_refine_ls_R_factor_gt           0.0845
_refine_ls_wR_factor_ref         0.2358
_refine_ls_wR_factor_gt          0.2210
_refine_ls_goodness_of_fit_ref   1.043
_refine_ls_restrained_S_all      1.043
_refine_ls_shift/su_max          0.001
_refine_ls_shift/su_mean         0.000

loop_
_atom_site_label
_atom_site_type_symbol
_atom_site_fract_x
_atom_site_fract_y
_atom_site_fract_z
_atom_site_U_iso_or_equiv
_atom_site_adp_type
_atom_site_occupancy
_atom_site_symmetry_multiplicity
_atom_site_calc_flag
_atom_site_refinement_flags
_atom_site_disorder_assembly
_atom_site_disorder_group
Ag1 Ag -0.22957(5) 1.08973(3) 1.02610(2) 0.02471(17) Uani 1 1 d . . .
Co1 Co 0.51925(8) 0.78863(4) 0.43076(4) 0.0218(2) Uani 1 1 d . . .
C1 C 0.5363(8) 0.6874(4) 0.5219(3) 0.0388(18) Uani 1 1 d . . .
H1 H 0.5759 0.6541 0.4964 0.047 Uiso 1 1 calc R . .
C2 C 0.5096(8) 0.6780(4) 0.5812(3) 0.0422(19) Uani 1 1 d . . .
H2 H 0.5290 0.6384 0.6026 0.051 Uiso 1 1 calc R . .
C3 C 0.4510(8) 0.7365(4) 0.6020(3) 0.0366(18) Uani 1 1 d . . .
H3 H 0.4211 0.7452 0.6406 0.044 Uiso 1 1 calc R . .
C4 C 0.4428(6) 0.7814(3) 0.5560(3) 0.0258(15) Uani 1 1 d . . .
C5 C 0.3908(6) 0.8483(3) 0.5569(3) 0.0243(15) Uani 1 1 d . . .
C6 C 0.3858(6) 0.8917(3) 0.5106(3) 0.0206(14) Uani 1 1 d . . .
C7 C 0.3226(6) 0.9562(3) 0.5078(3) 0.0250(15) Uani 1 1 d . . .
H7 H 0.2795 0.9801 0.5389 0.030 Uiso 1 1 calc R . .
C8 C 0.3345(6) 0.9779(3) 0.4525(3) 0.0220(14) Uani 1 1 d . . .
H8 H 0.3009 1.0192 0.4371 0.026 Uiso 1 1 calc R . .
C9 C 0.4079(6) 0.9259(3) 0.4226(3) 0.0219(14) Uani 1 1 d . . .
H9 H 0.4350 0.9286 0.3834 0.026 Uiso 1 1 calc R . .
C10 C 0.3367(6) 0.8753(4) 0.6132(3) 0.0275(15) Uani 1 1 d . . .
C11 C 0.4084(7) 0.9319(3) 0.6463(3) 0.0263(15) Uani 1 1 d . . .
H11 H 0.4931 0.9520 0.6333 0.032 Uiso 1 1 calc R . .
C12 C 0.3578(6) 0.9595(3) 0.6981(3) 0.0240(14) Uani 1 1 d . . .
H12 H 0.4063 0.9986 0.7199 0.029 Uiso 1 1 calc R . .
C13 C 0.2353(7) 0.9290(4) 0.7174(3) 0.0288(16) Uani 1 1 d . . .
C14 C 0.1633(7) 0.8730(4) 0.6847(3) 0.0313(16) Uani 1 1 d . . .
H14 H 0.0783 0.8530 0.6976 0.038 Uiso 1 1 calc R . .
C15 C 0.2149(6) 0.8460(4) 0.6331(3) 0.0265(15) Uani 1 1 d . . .
H15 H 0.1660 0.8069 0.6113 0.032 Uiso 1 1 calc R . .
C16 C 0.1785(7) 0.9573(4) 0.7701(3) 0.0288(16) Uani 1 1 d . . .
C17 C 0.1231(7) 0.9805(4) 0.8117(3) 0.0306(16) Uani 1 1 d . . .
C18 C 0.0492(6) 1.0047(4) 0.8615(3) 0.0232(14) Uani 1 1 d . . .
C19 C 0.0729(6) 1.0714(4) 0.8865(3) 0.0282(16) Uani 1 1 d . . .
H19 H 0.1433 1.1020 0.8731 0.034 Uiso 1 1 calc R . .
C20 C -0.0082(6) 1.0930(4) 0.9317(3) 0.0280(15) Uani 1 1 d . . .
H20 H 0.0071 1.1393 0.9485 0.034 Uiso 1 1 calc R . .
C21 C -0.1259(7) 0.9872(3) 0.9291(3) 0.0261(15) Uani 1 1 d . . .
H21 H -0.1946 0.9571 0.9441 0.031 Uiso 1 1 calc R . .
C22 C -0.0509(7) 0.9616(4) 0.8839(3) 0.0300(16) Uani 1 1 d . . .
H22 H -0.0677 0.9149 0.8683 0.036 Uiso 1 1 calc R . .
C23 C 0.2086(7) 0.7779(4) 0.4107(3) 0.0301(16) Uani 1 1 d . . .
H23 H 0.2004 0.8205 0.4331 0.036 Uiso 1 1 calc R . .
C24 C 0.0918(7) 0.7375(4) 0.3792(3) 0.0303(16) Uani 1 1 d . . .
H24 H -0.0059 0.7485 0.3766 0.036 Uiso 1 1 calc R . .
C25 C 0.1454(7) 0.6804(4) 0.3536(3) 0.0345(18) Uani 1 1 d . . .
H25 H 0.0929 0.6442 0.3294 0.041 Uiso 1 1 calc R . .
C26 C 0.2994(7) 0.6856(4) 0.3704(3) 0.0342(18) Uani 1 1 d . . .
C27 C 0.3964(7) 0.6383(4) 0.3560(3) 0.040(2) Uani 1 1 d . . .
C28 C 0.5434(7) 0.6463(4) 0.3730(3) 0.0382(19) Uani 1 1 d . . .
C29 C 0.6488(8) 0.5954(4) 0.3701(4) 0.053(2) Uani 1 1 d . . .
H29 H 0.6329 0.5494 0.3527 0.063 Uiso 1 1 calc R . .
C30 C 0.7720(9) 0.6237(4) 0.3958(4) 0.060(3) Uani 1 1 d . . .
H30 H 0.8609 0.6023 0.3989 0.072 Uiso 1 1 calc R . .
C31 C 0.7467(7) 0.6917(4) 0.4180(3) 0.0339(17) Uani 1 1 d . . .
H31 H 0.8170 0.7233 0.4391 0.041 Uiso 1 1 calc R . .
C32 C 0.3424(7) 0.5755(4) 0.3184(4) 0.051(2) Uani 1 1 d . . .
C33 C 0.3876(8) 0.5614(4) 0.2648(4) 0.046(2) Uani 1 1 d . . .
H33 H 0.4661 0.5879 0.2529 0.055 Uiso 1 1 calc R . .
C34 C 0.3193(9) 0.5073(4) 0.2260(4) 0.053(2) Uani 1 1 d . . .
H34 H 0.3489 0.4994 0.1873 0.064 Uiso 1 1 calc R . .
C35 C 0.2133(9) 0.4669(4) 0.2431(4) 0.060(3) Uani 1 1 d . . .
C36 C 0.1734(9) 0.4773(5) 0.3002(5) 0.066(3) Uani 1 1 d . . .
H36 H 0.1027 0.4470 0.3136 0.079 Uiso 1 1 calc R . .
C37 C 0.2357(10) 0.5311(5) 0.3374(4) 0.063(3) Uani 1 1 d . . .
H37 H 0.2067 0.5385 0.3763 0.075 Uiso 1 1 calc R . .
C38 C 0.1414(9) 0.4127(5) 0.2027(5) 0.062(3) Uani 1 1 d . . .
C39 C 0.0800(9) 0.3671(5) 0.1697(5) 0.062(3) Uani 1 1 d . . .
C40 C 0.0132(8) 0.3118(4) 0.1323(4) 0.053(2) Uani 1 1 d . . .
C41 C 0.0893(8) 0.2609(4) 0.1067(4) 0.047(2) Uani 1 1 d . . .
H41 H 0.1909 0.2642 0.1121 0.056 Uiso 1 1 calc R . .
C42 C 0.0213(7) 0.2063(4) 0.0738(3) 0.0350(17) Uani 1 1 d . . .
H42 H 0.0775 0.1718 0.0575 0.042 Uiso 1 1 calc R . .
C43 C -0.1989(8) 0.2485(4) 0.0842(3) 0.0406(19) Uani 1 1 d . . .
H43 H -0.2995 0.2455 0.0743 0.049 Uiso 1 1 calc R . .
C44 C -0.1380(7) 0.3062(4) 0.1205(4) 0.052(2) Uani 1 1 d . . .
H44 H -0.1960 0.3401 0.1366 0.062 Uiso 1 1 calc R . .
C45 C 0.7579(6) 0.8392(3) 0.5172(3) 0.0243(14) Uani 1 1 d . . .
H45 H 0.7096 0.8242 0.5495 0.029 Uiso 1 1 calc R . .
C46 C 0.8965(6) 0.8707(3) 0.5224(3) 0.0268(15) Uani 1 1 d . . .
H46 H 0.9568 0.8811 0.5583 0.032 Uiso 1 1 calc R . .
C47 C 0.9291(6) 0.8837(3) 0.4667(3) 0.0245(14) Uani 1 1 d . . .
H47 H 1.0166 0.9035 0.4560 0.029 Uiso 1 1 calc R . .
C48 C 0.8067(6) 0.8618(3) 0.4281(3) 0.0197(13) Uani 1 1 d . . .
C49 C 0.7887(6) 0.8654(3) 0.3658(3) 0.0210(14) Uani 1 1 d . . .
C50 C 0.6608(6) 0.8467(3) 0.3302(3) 0.0198(13) Uani 1 1 d . . .
C51 C 0.6298(6) 0.8574(3) 0.2696(3) 0.0255(15) Uani 1 1 d . . .
H51 H 0.6942 0.8758 0.2441 0.031 Uiso 1 1 calc R . .
C52 C 0.4899(6) 0.8364(3) 0.2546(3) 0.0254(15) Uani 1 1 d . . .
H52 H 0.4388 0.8370 0.2164 0.031 Uiso 1 1 calc R . .
C53 C 0.4354(6) 0.8135(3) 0.3062(3) 0.0245(15) Uani 1 1 d . . .
H53 H 0.3395 0.7967 0.3083 0.029 Uiso 1 1 calc R . .
C54 C 0.9098(6) 0.8931(4) 0.3350(3) 0.0247(15) Uani 1 1 d . . .
C55 C 0.9770(6) 0.9562(3) 0.3496(3) 0.0232(14) Uani 1 1 d . . .
H55 H 0.9462 0.9841 0.3815 0.028 Uiso 1 1 calc R . .
C56 C 1.0893(6) 0.9818(4) 0.3199(3) 0.0295(16) Uani 1 1 d . . .
H56 H 1.1346 1.0261 0.3317 0.035 Uiso 1 1 calc R . .
C57 C 1.1342(6) 0.9415(4) 0.2728(3) 0.0245(15) Uani 1 1 d . . .
C58 C 1.0682(6) 0.8749(4) 0.2579(3) 0.0267(15) Uani 1 1 d . . .
H58 H 1.0997 0.8463 0.2266 0.032 Uiso 1 1 calc R . .
C59 C 0.9595(7) 0.8516(4) 0.2883(3) 0.0278(15) Uani 1 1 d . . .
H59 H 0.9162 0.8066 0.2780 0.033 Uiso 1 1 calc R . .
C60 C 1.2440(7) 0.9676(4) 0.2389(3) 0.0298(16) Uani 1 1 d . . .
C61 C 1.3266(7) 0.9856(4) 0.2056(3) 0.0302(16) Uani 1 1 d . . .
C62 C 1.4236(6) 1.0084(4) 0.1647(3) 0.0236(14) Uani 1 1 d . . .
C63 C 1.4714(7) 1.0764(4) 0.1646(3) 0.0294(16) Uani 1 1 d . . .
H63 H 1.4402 1.1094 0.1929 0.035 Uiso 1 1 calc R . .
C64 C 1.5618(7) 1.0981(4) 0.1256(3) 0.0280(15) Uani 1 1 d . . .
H64 H 1.5931 1.1456 0.1272 0.034 Uiso 1 1 calc R . .
C65 C 1.5639(6) 0.9879(3) 0.0831(3) 0.0250(15) Uani 1 1 d . . .
H65 H 1.5968 0.9560 0.0544 0.030 Uiso 1 1 calc R . .
C66 C 1.4708(6) 0.9627(4) 0.1219(3) 0.0259(15) Uani 1 1 d . . .
H66 H 1.4401 0.9151 0.1191 0.031 Uiso 1 1 calc R . .
N1 N 0.4976(5) 0.7501(3) 0.5066(2) 0.0257(12) Uani 1 1 d . . .
N2 N 0.4342(5) 0.8736(3) 0.4551(2) 0.0198(11) Uani 1 1 d . . .
N3 N -0.1070(5) 1.0518(3) 0.9528(2) 0.0242(12) Uani 1 1 d . . .
N4 N 0.3306(5) 0.7479(3) 0.4046(2) 0.0258(13) Uani 1 1 d . . .
N5 N 0.6095(5) 0.7048(3) 0.4048(2) 0.0289(13) Uani 1 1 d . . .
N6 N -0.1230(6) 0.1982(3) 0.0629(2) 0.0324(14) Uani 1 1 d . . .
N7 N 0.7034(5) 0.8333(3) 0.4604(2) 0.0202(11) Uani 1 1 d . . .
N8 N 0.5379(5) 0.8188(3) 0.3519(2) 0.0219(12) Uani 1 1 d . . .
N9 N 1.6087(5) 1.0527(3) 0.0838(2) 0.0244(12) Uani 1 1 d . . .
P1 P 0.38845(19) 0.20554(11) 0.98802(9) 0.0370(5) Uani 1 1 d . . .
F1 F 0.3077(4) 0.1358(2) 1.00428(19) 0.0442(11) Uani 1 1 d . . .
F2 F 0.4121(5) 0.2306(2) 1.0570(2) 0.0552(13) Uani 1 1 d . . .
F3 F 0.5362(4) 0.1682(2) 0.9927(2) 0.0439(11) Uani 1 1 d . . .
F4 F 0.4680(5) 0.2748(2) 0.9730(3) 0.0659(15) Uani 1 1 d . . .
F5 F 0.3660(4) 0.1801(2) 0.91896(19) 0.0485(11) Uani 1 1 d . . .
F6 F 0.2398(5) 0.2414(3) 0.9828(2) 0.0616(14) Uani 1 1 d . . .
C67 C 0.7227(13) 0.3789(7) 0.2636(6) 0.095(4) Uani 1 1 d . . .
H67 H 0.7878 0.4122 0.2856 0.114 Uiso 1 1 calc R . .
C68 C 0.6179(11) 0.3997(6) 0.2264(7) 0.103(5) Uani 1 1 d . . .
H68 H 0.6067 0.4478 0.2237 0.124 Uiso 1 1 calc R . .
C69 C 0.5242(11) 0.3523(6) 0.1914(6) 0.081(4) Uani 1 1 d . . .
H69 H 0.4537 0.3674 0.1630 0.097 Uiso 1 1 calc R . .
C70 C 0.5367(10) 0.2829(5) 0.1990(4) 0.059(2) Uani 1 1 d . . .
H70 H 0.4705 0.2496 0.1774 0.071 Uiso 1 1 calc R . .
C71 C 0.6433(12) 0.2616(6) 0.2372(4) 0.064(3) Uani 1 1 d . . .
H71 H 0.6532 0.2135 0.2412 0.077 Uiso 1 1 calc R . .
C72 C 0.7376(13) 0.3097(6) 0.2705(5) 0.079(3) Uani 1 1 d . . .
H72 H 0.8114 0.2949 0.2976 0.095 Uiso 1 1 calc R . .
C73 C 0.9795(18) 0.4370(9) 0.4320(8) 0.131(6) Uani 1 1 d . . .
H73 H 0.9869 0.4801 0.4146 0.157 Uiso 1 1 calc R . .
C74 C 1.0831(19) 0.3873(10) 0.4294(9) 0.186(11) Uani 1 1 d . . .
H74 H 1.1762 0.3991 0.4188 0.223 Uiso 1 1 calc R . .
C75 C 1.047(2) 0.3251(8) 0.4418(6) 0.140(7) Uani 1 1 d . . .
H75 H 1.1023 0.2890 0.4272 0.168 Uiso 1 1 calc R . .
C76 C 0.9434(14) 0.3075(7) 0.4721(5) 0.086(3) Uani 1 1 d . . .
H76 H 0.9358 0.2625 0.4862 0.104 Uiso 1 1 calc R . .
C77 C 0.8503(13) 0.3521(8) 0.4830(6) 0.097(4) Uani 1 1 d . . .
H77 H 0.7721 0.3407 0.5049 0.116 Uiso 1 1 calc R . .
C78 C 0.8672(19) 0.4167(10) 0.4620(10) 0.166(8) Uani 1 1 d . . .
H78 H 0.7967 0.4491 0.4688 0.199 Uiso 1 1 calc R . .
C79 C 0.7585(11) 0.6477(7) 0.2393(5) 0.074(3) Uani 1 1 d . . .
H79 H 0.7633 0.6756 0.2757 0.089 Uiso 1 1 calc R . .
C80 C 0.8278(12) 0.5860(7) 0.2367(5) 0.076(3) Uani 1 1 d . . .
H80 H 0.8748 0.5706 0.2719 0.091 Uiso 1 1 calc R . .
C81 C 0.8293(13) 0.5485(7) 0.1857(6) 0.090(4) Uani 1 1 d . . .
H81 H 0.8847 0.5088 0.1842 0.108 Uiso 1 1 calc R . .
C82 C 0.751(2) 0.5663(8) 0.1342(8) 0.161(8) Uani 1 1 d . . .
H82 H 0.7516 0.5394 0.0976 0.194 Uiso 1 1 calc R . .
C83 C 0.673(2) 0.6235(9) 0.1380(6) 0.155(8) Uani 1 1 d . . .
H83 H 0.6093 0.6328 0.1046 0.186 Uiso 1 1 calc R . .
C84 C 0.6817(13) 0.6685(7) 0.1883(6) 0.092(4) Uani 1 1 d . . .
H84 H 0.6379 0.7116 0.1882 0.111 Uiso 1 1 calc R . .
C85 C 0.7419(15) 0.2893(7) 0.8216(6) 0.094(4) Uani 1 1 d . . .
H85 H 0.6773 0.2950 0.7877 0.113 Uiso 1 1 calc R . .
C86 C 0.6925(12) 0.2683(6) 0.8697(4) 0.077(3) Uani 1 1 d . . .
H86 H 0.5931 0.2578 0.8710 0.093 Uiso 1 1 calc R . .
C87 C 0.7821(11) 0.2620(7) 0.9152(6) 0.101(4) Uani 1 1 d . . .
H87 H 0.7423 0.2452 0.9489 0.121 Uiso 1 1 calc R . .
C88 C 0.9214(13) 0.2757(7) 0.9216(6) 0.096(4) Uani 1 1 d . . .
H88 H 0.9777 0.2730 0.9583 0.115 Uiso 1 1 calc R . .
C89 C 0.9802(17) 0.2946(8) 0.8700(9) 0.121(5) Uani 1 1 d . . .
H89 H 1.0806 0.3014 0.8689 0.145 Uiso 1 1 calc R . .
C90 C 0.883(2) 0.3031(6) 0.8193(6) 0.126(7) Uani 1 1 d . . .
H90 H 0.9176 0.3184 0.7839 0.151 Uiso 1 1 calc R . .

loop_
_atom_site_aniso_label
_atom_site_aniso_U_11
_atom_site_aniso_U_22
_atom_site_aniso_U_33
_