
#######################################################################
#
#                 Cambridge Crystallographic Data Centre
#                                CCDC
#
#######################################################################
#
# If this CIF has been generated from an entry in the Cambridge
# Structural Database, then it will include bibliographic, chemical,
# crystal, experimental, refinement or atomic coordinate data resulting
# from the CCDC's data processing and validation procedures.
#
#######################################################################

data_CSD_CIF_CEXNIC
_audit_creation_date 2000-02-03
_audit_creation_method CSD-ConQuest-V1
_database_code_CSD CEXNIC
_database_code_depnum_ccdc_archive 'CCDC 137090'
_database_code_depnum_ccdc_journal 188/185
_chemical_formula_sum 'C25 H48 Cl1 N3 O9'
_chemical_formula_moiety
;
C25 H30 N3 1+,Cl1 1-,9(H2 O1)
;
_journal_coden_Cambridge 188
_journal_year 1999
_journal_page_first 2241
_journal_name_full 'J.Chem.Soc.,Perkin Trans.2 '
loop_
_publ_author_name
"S.Lovell"
"B.J.Marquardt"
"B.Kahr"
_chemical_name_systematic
;
tris(p-(Dimethylamino)phenyl)methyl chloride nonahydrate
;
_chemical_name_common
;
Crystal violet chloride nonahydrate; 
N-(4-(bis(4-(dimethylamino)phenyl)methylene)cyclohexa-2,5-dien-1-ylidene)-N-me
thylmethanaminium chloride nonahydrate; Teaching Subset: Symmetry
;
_cell_volume   1598.137
_exptl_crystal_colour 'metallic green'
_exptl_crystal_density_diffrn 1.185
_exptl_crystal_description 'prism'
_diffrn_ambient_temperature 161
#These two values have been output from a single CSD field.
_refine_ls_R_factor_gt 0.0792
_refine_ls_wR_factor_gt 0.0792
_symmetry_cell_setting hexagonal
_symmetry_space_group_name_H-M 'P 31 c'
_symmetry_Int_Tables_number 159
loop_
_symmetry_equiv_pos_site_id
_symmetry_equiv_pos_as_xyz
1 x,y,z
2 -y,x-y,z
3 -x+y,-x,z
4 y,x,1/2+z
5 -x,-x+y,1/2+z
6 x-y,-y,1/2+z
_cell_length_a 15.7087(4)
_cell_length_b 15.7087(4)
_cell_length_c 7.4783(2)
_cell_angle_alpha 90
_cell_angle_beta 90
_cell_angle_gamma 120
_cell_formula_units_Z 2
loop_
_atom_type_symbol
_atom_type_radius_bond
C 0.68
H 0.23
Cl 0.99
N 0.68
O 0.68
loop_
_atom_site_label
_atom_site_type_symbol
_atom_site_fract_x
_atom_site_fract_y
_atom_site_fract_z
C1 C 0.66670 0.33330 0.4748(7)
C2 C 0.7716(2) 0.3966(2) 0.4767(4)
C3 C 0.9807(2) 0.5199(3) 0.4823(4)
C4 C 0.9362(2) 0.4246(2) 0.4067(4)
H1 H 0.98840 0.41550 0.33070
C5 C 0.8354(2) 0.3659(2) 0.4017(4)
H2 H 0.80610 0.29600 0.33090
C6 C 0.9182(2) 0.5521(2) 0.5565(4)
H3 H 0.95000 0.62370 0.61100
C7 C 0.8180(2) 0.4921(2) 0.5533(4)
H4 H 0.77830 0.52560 0.61000
C8 C 1.1436(3) 0.5388(3) 0.4350(5)
H5 H 1.22680 0.59510 0.47670
H6 H 1.12950 0.47760 0.53680
H7 H 1.12790 0.51210 0.29600
C9 C 1.1254(3) 0.6783(3) 0.5496(5)
H8 H 1.20240 0.72230 0.49380
H9 H 1.10680 0.72050 0.48730
H10 H 1.13260 0.67430 0.71300
N1 N 1.08011(17) 0.57901(18) 0.4865(4)
Cl1 Cl 1.00000 0.00000 0.252(3)
O1 O 1.00269(17) 0.81321(18) 0.2494(4)
H11 H 0.98710 0.83580 0.34900
H12 H 1.00180 0.83700 0.15230
O2 O 0.8960(3) 0.2019(4) 0.7506(12)
H13 H 0.88950 0.13500 0.81930
H14 H 0.93900 0.24050 0.64000
O3 O 0.9025(5) 0.2054(6) 0.2104(18)
H15 H 0.88070 0.17560 0.34770
H16 H 0.97720 0.24990 0.24570
C2A C 0.6034(2) 0.3750(2) 0.4767(4)
C5A C 0.6341(2) 0.4695(2) 0.4017(4)
C4A C 0.5754(2) 0.5116(2) 0.4067(4)
C3A C 0.4801(2) 0.4608(3) 0.4823(4)
C6A C 0.4479(2) 0.3661(2) 0.5565(4)
H3A H 0.37630 0.32630 0.61100
C7A C 0.5079(2) 0.3259(2) 0.5533(4)
H4A H 0.47440 0.25270 0.61000
N1A N 0.42099(17) 0.50110(18) 0.4865(4)
C8A C 0.4612(3) 0.6048(3) 0.4350(5)
H5A H 0.40490 0.63170 0.47670
H6A H 0.52240 0.65190 0.53680
H7A H 0.48790 0.61580 0.29600
C9A C 0.3217(3) 0.4471(3) 0.5496(5)
H8A H 0.27770 0.48010 0.49380
H9A H 0.27950 0.38630 0.48730
H10A H 0.32570 0.45830 0.71300
H1A H 0.58450 0.57290 0.33070
H2A H 0.70400 0.51010 0.33090
C2B C 0.6250(2) 0.2284(2) 0.4767(4)
C5B C 0.5305(2) 0.1646(2) 0.4017(4)
C4B C 0.4884(2) 0.0638(2) 0.4067(4)
C3B C 0.5392(2) 0.0193(3) 0.4823(4)
C6B C 0.6339(2) 0.0818(2) 0.5565(4)
H3B H 0.67370 0.05000 0.61100
C7B C 0.6741(2) 0.1820(2) 0.5533(4)
H4B H 0.74730 0.22170 0.61000
N1B N 0.49890(17) -0.08011(18) 0.4865(4)
C8B C 0.3952(3) -0.1436(3) 0.4350(5)
H5B H 0.36830 -0.22680 0.47670
H6B H 0.34810 -0.12950 0.53680
H7B H 0.38420 -0.12790 0.29600
C9B C 0.5529(3) -0.1254(3) 0.5496(5)
H8B H 0.51990 -0.20240 0.49380
H9B H 0.61370 -0.10680 0.48730
H10B H 0.54170 -0.13260 0.71300
H1B H 0.42710 0.01160 0.33070
H2B H 0.48990 0.19390 0.33090
#END
