####################################################################### 
# 
# This file contains crystal structure data downloaded from the 
# Cambridge Structural Database (CSD) hosted by the Cambridge 
# Crystallographic Data Centre (CCDC).
# 
# Full information about CCDC data access policies and citation 
# guidelines are available at http://www.ccdc.cam.ac.uk/access/V1 
# 
# Audit and citation data items may have been added by the CCDC. 
# Please retain this information to preserve the provenance of 
# this file and to allow appropriate attribution of the data. 
# 
#######################################################################

data_bjl1
_audit_block_doi                 10.5517/cc4h6tm
_database_code_depnum_ccdc_archive 'CCDC 133790'
loop_
_citation_id
_citation_doi
_citation_year
1 10.1515/ncrs-1999-0431 1999
_audit_update_record             
;
1999-08-24 deposited with the CCDC.	2024-07-09 downloaded from the CCDC.
;


#[Zn(4,4-bipy)(H~2~O)~2~(NO~3~)~2~]~n~: A One-Dimensional Coordination Polymer
#By Xiong, R.-G.; Lewandowski, B. J.; Huang, S. D.
#------------------------------------------------------------------------------
_audit_creation_date             1997-08-13
_audit_creation_method           'by teXsan v1.8'
#------------------------------------------------------------------------------
_computing_data_collection       'MSC/AFC Diffractometer Control'
_computing_cell_refinement       'MSC/AFC Diffractometer Control'
_computing_data_reduction        'teXsan (MSC, 1992-1997)'
_computing_structure_solution    
;
SIR92 (Altomare, et. al. 1993)
;
_computing_structure_refinement  'teXsan (MSC, 1992-1997)'
_computing_publication_material  'teXsan (MSC, 1992-1997)'
#------------------------------------------------------------------------------
_cell_length_a                   11.9053(8)
_cell_length_b                   19.348(1)
_cell_length_c                   7.4578(5)
_cell_angle_alpha                90
_cell_angle_beta                 90
_cell_angle_gamma                90
_cell_volume                     1717.9(2)
_cell_formula_units_Z            4
_cell_measurement_temperature    296.2
_cell_measurement_reflns_used    0
_cell_measurement_theta_min      0.0
_cell_measurement_theta_max      0.0
#------------------------------------------------------------------------------
_symmetry_cell_setting           orthorhombic
_symmetry_space_group_name_H-M   'P c c n    '

loop_
_atom_site_Wyckoff_symbol
_atom_site_symmetry_multiplicity
a 4
e 8
e 8
e 8
e 8
e 8
e 8
e 8
e 8
e 8
e 8
e 8
e 8
e 8
e 8
e 8
e 8
e 8

_symmetry_Int_Tables_number      56
_symmetry_space_group_name_Hall  ?

loop_
_symmetry_equiv_pos_as_xyz
'   +x,   +y,   +z'
'1/2-x,1/2-y,   +z'
'1/2+x,   -y,1/2-z'
'   -x,1/2+y,1/2-z'
'   -x,   -y,   -z'
'1/2+x,1/2+y,   -z'
'1/2-x,   +y,1/2+z'
'   +x,1/2-y,1/2+z'
#------------------------------------------------------------------------------

_exptl_crystal_description       rod
_exptl_crystal_colour            pale
_exptl_crystal_size_max          0.30
_exptl_crystal_size_mid          0.20
_exptl_crystal_size_min          0.20
_exptl_crystal_density_diffrn    1.475
_exptl_crystal_density_meas      'not measured'
_chemical_formula_weight         381.61
_chemical_formula_analytical     ?
_chemical_formula_sum            'C10 H12 N4 O8 Zn '
_chemical_formula_moiety         'C10 H12 N4 O8 Zn '
_chemical_formula_structural     ?
_chemical_compound_source        ?
_exptl_crystal_F_000             776.00
_exptl_absorpt_coefficient_mu    1.472
_exptl_absorpt_correction_type   sphere
_exptl_absorpt_correction_T_max  0.776
_exptl_absorpt_correction_T_min  0.771
_exptl_special_details           
;
?
;
#------------------------------------------------------------------------------
_diffrn_special_details          
;
?
;
_diffrn_ambient_temperature      296.2
_diffrn_radiation_wavelength     0.7107
_diffrn_radiation_type           'Mo K\a'
_diffrn_radiation_source         'X-ray tube'
_diffrn_radiation_monochromator  graphite
_diffrn_radiation_detector       CCD
_diffrn_measurement_device_type  'Quantum CCD'
_diffrn_detector_area_resol_mean ?
_diffrn_measurement_method       ?

_diffrn_standards_number         0
_diffrn_standards_interval_count 0
_diffrn_standards_decay_%        0.00

loop_
_diffrn_standard_refln_index_h
?
_diffrn_standard_refln_index_k   ?
_diffrn_standard_refln_index_l   ?

_diffrn_reflns_number            9066
_reflns_number_total             2056
_reflns_number_gt                1155
_reflns_number_obs               1155
_reflns_threshold_expression     I>3.00\s(I)
_diffrn_reflns_av_R_equivalents  0.01791
_diffrn_reflns_av_sigmaI/netI    0.060
_diffrn_reflns_theta_full        ?
_diffrn_measured_fraction_theta_max ?
_diffrn_measured_fraction_theta_full ?
_diffrn_reflns_limit_h_min       -15
_diffrn_reflns_limit_h_max       14
_diffrn_reflns_limit_k_min       -17
_diffrn_reflns_limit_k_max       24
_diffrn_reflns_limit_l_min       -9
_diffrn_reflns_limit_l_max       9
_diffrn_reflns_theta_min         1.05
_diffrn_reflns_theta_max         27.11
_diffrn_reflns_reduction_process 'Lp corrections applied'
_diffrn_orient_matrix_UB_11      0.00000
_diffrn_orient_matrix_UB_12      0.00000
_diffrn_orient_matrix_UB_13      0.00000
_diffrn_orient_matrix_UB_21      0.00000
_diffrn_orient_matrix_UB_22      0.00000
_diffrn_orient_matrix_UB_23      0.00000
_diffrn_orient_matrix_UB_31      0.00000
_diffrn_orient_matrix_UB_32      0.00000
_diffrn_orient_matrix_UB_33      0.00000

#------------------------------------------------------------------------------

loop_
_atom_type_symbol
_atom_type_oxidation_number
_atom_type_number_in_cell
_atom_type_scat_dispersion_real
_atom_type_scat_dispersion_imag
_atom_type_scat_source
C 0 40 0.002 0.002
;International Tables for Crystallography
(1992, Vol. C, Tables 4.2.6.8 and 6.1.1.1)
;
N 0 16 0.004 0.003
;International Tables for Crystallography
(1992, Vol. C, Tables 4.2.6.8 and 6.1.1.1)
;
O 0 32 0.008 0.006
;International Tables for Crystallography
(1992, Vol. C, Tables 4.2.6.8 and 6.1.1.1)
;
H 0 48 0.000 0.000
;International Tables for Crystallography
(1992, Vol. C, Table 6.1.1.2)
;
Zn 0 4 0.222 1.431
;International Tables for Crystallography
(1992, Vol. C, Tables 4.2.6.8 and 6.1.1.1)
;
#------------------------------------------------------------------------------

loop_
_atom_site_label
_atom_site_fract_x
_atom_site_fract_y
_atom_site_fract_z
_atom_site_U_iso_or_equiv
_atom_site_occupancy
_atom_site_refinement_flags
_atom_site_thermal_displace_type
_atom_site_calc_flag
_atom_site_calc_attached_atom
Zn 0.5000 0.0000 0.5000 0.0258(3) 0.500 S Uani d ?
O(1) 0.3886(4) -0.0348(3) 0.2857(7) 0.037(2) 1.000 . Uani d ?
O(2) 0.3367(5) -0.0686(4) 0.0254(7) 0.047(2) 1.000 . Uani d ?
O(3) 0.5141(5) -0.0671(4) 0.0940(9) 0.059(2) 1.000 . Uani d ?
O(4) 0.3788(4) -0.0509(3) 0.6586(7) 0.035(2) 1.000 . Uani d ?
N(1) 0.4048(5) 0.0930(3) 0.4983(9) 0.030(2) 1.000 . Uani d ?
N(2) 0.4152(5) -0.0571(4) 0.1346(8) 0.031(2) 1.000 . Uani d ?
C(1) 0.2929(6) 0.0932(4) 0.476(1) 0.038(2) 1.000 . Uani d ?
C(2) 0.2312(6) 0.1533(4) 0.475(1) 0.038(2) 1.000 . Uani d ?
C(3) 0.2826(5) 0.2173(3) 0.502(1) 0.027(2) 1.000 . Uani d ?
C(4) 0.3990(6) 0.2163(4) 0.527(1) 0.042(2) 1.000 . Uani d ?
C(5) 0.4548(6) 0.1538(4) 0.524(1) 0.041(2) 1.000 . Uani d ?
H(1) 0.2557 0.0503 0.4585 0.045 1.000 . Uiso c ?
H(2) 0.1522 0.1512 0.4578 0.046 1.000 . Uiso c ?
H(3) 0.4391 0.2581 0.5464 0.050 1.000 . Uiso c ?
H(4) 0.5338 0.1543 0.5418 0.049 1.000 . Uiso c ?
H(5) 0.3161 -0.0725 0.6033 0.042 1.000 . Uiso c ?
H(6) 0.3869 -0.0522 0.7853 0.042 1.000 . Uiso c ?


loop_
_atom_site_aniso_label
_atom_site_aniso_U_11
_atom_site_aniso_U_22
_atom_site_aniso_U_33
_atom_site_aniso_U_12
_atom_site_aniso_U_13
_atom_site_aniso_U_23
Zn 0.0212(5) 0.0237(6) 0.0326(6) 0.0059(5) -0.0008(6) -0.0001(7)
O(1) 0.030(3) 0.051(4) 0.029(3) 0.005(3) 0.001(2) -0.009(3)
O(2) 0.037(3) 0.075(4) 0.028(3) -0.004(3) -0.004(3) -0.009(3)
O(3) 0.029(4) 0.095(6) 0.053(4) 0.018(4) 0.004(3) -0.011(4)
O(4) 0.030(3) 0.048(4) 0.027(3) -0.004(3) -0.002(2) 0.001(3)
N(1) 0.023(3) 0.023(3) 0.043(4) 0.006(2) -0.002(4) -0.003(4)
N(2) 0.030(3) 0.037(4) 0.027(3) 0.006(3) 0.000(3) 0.000(3)
C(1) 0.025(4) 0.021(3) 0.066(6) 0.001(3) -0.008(4) -0.006(4)
C(2) 0.017(3) 0.029(4) 0.067(6) 0.005(3) -0.008(4) -0.002(4)
C(3) 0.023(3) 0.022(3) 0.037(4) 0.004(3) -0.001(4) -0.001(4)
C(4) 0.024(4) 0.022(4) 0.079(7) 0.001(3) -0.001(4) -0.003(5)
C(5) 0.021(3) 0.029(4) 0.074(7) 0.003(3) -0.008(4) -0.002(5)
#------------------------------------------------------------------------------
_refine_special_details          
;
?
;
_refine_ls_structure_factor_coef F
_refine_ls_matrix_type           full
_refine_ls_weighting_scheme      sigma
_refine_ls_weighting_details     'w = 1/[\s^2^(Fo) + 0.00207|Fo|^2^]'
_refine_ls_hydrogen_treatment    noref
_refine_ls_extinction_method     none
_refine_ls_extinction_coef       ?
_refine_ls_abs_structure_details ?
_refine_ls_abs_structure_Flack   ?
_refine_ls_number_reflns         1155
_refine_ls_number_parameters     106
_refine_ls_number_restraints     0
_refine_ls_number_constraints    0
_refine_ls_R_factor_all          0.073
_refine_ls_R_factor_gt           0.051
_refine_ls_wR_factor_all         0.104
_refine_ls_wR_factor_ref         0.092
_refine_ls_goodness_of_fit_all   1.56
_refine_ls_goodness_of_fit_ref   1.73
_refine_ls_shift/su_max          0.0001
_refine_ls_shift/su_mean         0.0001
_refine_diff_density_min         -0.39
_refine_diff_density_max         0.97
#------------------------------------------------------------------------------
_geom_special_details            
;
?
;

loop_
_geom_bond_atom_site_label_1
_geom_bond_atom_site_label_2
_geom_bond_distance
_geom_bond_site_symmetry_1
_geom_bond_site_symmetry_2
_geom_bond_publ_flag
Zn O(1) 2.183(5) . . yes
Zn O(1) 2.183(5) . 5_656 yes
Zn O(4) 2.110(5) . . yes
Zn O(4) 2.110(5) . 5_656 yes
Zn N(1) 2.127(5) . . yes
Zn N(1) 2.127(5) . 5_656 yes
O(1) N(2) 1.248(8) . . yes
O(2) N(2) 1.260(8) . . yes
O(3) N(2) 1.231(8) . . yes
O(4) H(5) 0.95 . . no
O(4) H(6) 0.95 . . no
N(1) C(1) 1.342(9) . . yes
N(1) C(5) 1.33(1) . . yes
C(1) C(2) 1.37(1) . . yes
C(1) H(1) 0.95 . . no
C(2) C(3) 1.40(1) . . yes
C(2) H(2) 0.95 . . no
C(3) C(3) 1.49(1) . 2 yes
C(3) C(4) 1.40(1) . . yes
C(4) C(5) 1.38(1) . . yes
C(4) H(3) 0.95 . . no
C(5) H(4) 0.95 . . no
#------------------------------------------------------------------------------

loop_
_geom_angle_atom_site_label_1
_geom_angle_atom_site_label_2
_geom_angle_atom_site_label_3
_geom_angle
_geom_angle_site_symmetry_1
_geom_angle_site_symmetry_2
_geom_angle_site_symmetry_3
_geom_angle_publ_flag
O(1) Zn O(1) 180.00 . . 5_656 yes
O(1) Zn O(4) 81.4(2) . . . yes
O(1) Zn O(4) 98.6(2) . . 5_656 yes
O(1) Zn N(1) 86.2(2) . . . yes
O(1) Zn N(1) 93.8(2) . . 5_656 yes
O(1) Zn O(4) 98.6(2) 5_656 . . yes
O(1) Zn O(4) 81.4(2) 5_656 . 5_656 yes
O(1) Zn N(1) 93.8(2) 5_656 . . yes
O(1) Zn N(1) 86.2(2) 5_656 . 5_656 yes
O(4) Zn O(4) 180.00 . . 5_656 yes
O(4) Zn N(1) 91.9(2) . . . yes
O(4) Zn N(1) 88.1(2) . . 5_656 yes
O(4) Zn N(1) 88.1(2) 5_656 . . yes
O(4) Zn N(1) 91.9(2) 5_656 . 5_656 yes
N(1) Zn N(1) 180.00 . . 5_656 yes
Zn O(1) N(2) 127.9(4) . . . yes
Zn O(4) H(5) 120.0 . . . no
Zn O(4) H(6) 120.0 . . . no
H(5) O(4) H(6) 120.0 . . . no
Zn N(1) C(1) 122.1(5) . . . yes
Zn N(1) C(5) 120.5(5) . . . yes
C(1) N(1) C(5) 117.3(6) . . . yes
O(1) N(2) O(2) 117.2(6) . . . yes
O(1) N(2) O(3) 121.2(6) . . . yes
O(2) N(2) O(3) 121.6(7) . . . yes
N(1) C(1) C(2) 122.2(7) . . . yes
N(1) C(1) H(1) 118.5 . . . no
C(2) C(1) H(1) 119.2 . . . no
C(1) C(2) C(3) 121.0(6) . . . yes
C(1) C(2) H(2) 119.6 . . . no
C(3) C(2) H(2) 119.4 . . . no
C(2) C(3) C(3) 121.8(7) . . 2 yes
C(2) C(3) C(4) 116.2(6) . . . yes
C(3) C(3) C(4) 122.0(8) 2 . . yes
C(3) C(4) C(5) 119.1(7) . . . yes
C(3) C(4) H(3) 120.5 . . . no
C(5) C(4) H(3) 120.4 . . . no
N(1) C(5) C(4) 124.1(7) . . . yes
N(1) C(5) H(4) 118.1 . . . no
C(4) C(5) H(4) 117.8 . . . no
#------------------------------------------------------------------------------

loop_
_geom_contact_atom_site_label_1
_geom_contact_atom_site_label_2
_geom_contact_distance
_geom_contact_site_symmetry_1
_geom_contact_site_symmetry_2
_geom_contact_publ_flag
O(1) O(2) 3.289(8) . 7 no
O(1) O(4) 3.337(7) . 7_554 no
O(2) O(4) 2.772(8) . 7_554 no
O(2) O(4) 2.802(8) . 1_554 no
O(2) O(3) 3.29(1) . 5_655 no
O(2) C(1) 3.51(1) . 7_554 no
O(3) O(3) 2.97(2) . 5_655 no
O(3) N(2) 3.07(1) . 5_655 no
O(3) C(2) 3.118(9) . 3 no
O(3) C(1) 3.398(9) . 3 no
O(4) N(2) 3.507(8) . 7 no
O(4) N(2) 3.578(9) . 1_556 no
#------------------------------------------------------------------------------

loop_
_geom_torsion_atom_site_label_1
_geom_torsion_atom_site_label_2
_geom_torsion_atom_site_label_3
_geom_torsion_atom_site_label_4
_geom_torsion_site_symmetry_1
_geom_torsion_site_symmetry_2
_geom_torsion_site_symmetry_3
_geom_torsion_site_symmetry_4
_geom_torsion
_geom_torsion_publ_flag
Zn O(1) N(2) O(2) . . . . -173.8(5) no
Zn O(1) N(2) O(3) . . . . 6(1) no
Zn O(1) N(2) O(2) . 5_656 5_656 5_656 173.8(5) no
Zn O(1) N(2) O(3) . 5_656 5_656 5_656 -6(1) no
Zn N(1) C(1) C(2) . . . . 179.8(7) no
Zn N(1) C(5) C(4) . . . . -179.3(8) no
Zn N(1) C(1) C(2) . 5_656 5_656 5_656 -179.8(7) no
Zn N(1) C(5) C(4) . 5_656 5_656 5_656 179.3(8) no
O(1) Zn O(1) N(2) . . 5_656 5_656 179.3(8) no
O(1) Zn N(1) C(1) . . . . 38.9(7) no
O(1) Zn N(1) C(5) . . . . -142.8(7) no
O(1) Zn N(1) C(1) . . 5_656 5_656 141.1(7) no
O(1) Zn N(1) C(5) . . 5_656 5_656 -37.2(7) no
O(4) Zn O(1) N(2) . . . . -141.4(7) no
O(4) Zn O(1) N(2) . . 5_656 5_656 -38.7(7) no
O(4) Zn N(1) C(1) . . . . -42.4(7) no
O(4) Zn N(1) C(5) . . . . 135.9(7) no
O(4) Zn N(1) C(1) . . 5_656 5_656 -137.6(7) no
O(4) Zn N(1) C(5) . . 5_656 5_656 44.1(7) no
N(1) Zn O(1) N(2) . . . . 126.1(7) no
N(1) Zn O(1) N(2) . . 5_656 5_656 53.9(7) no
N(1) Zn N(1) C(1) . . 5_656 5_656 53.9(7) no
N(1) Zn N(1) C(5) . . 5_656 5_656 53.9(7) no
N(1) C(1) C(2) C(3) . . . . -1(2) no
N(1) C(5) C(4) C(3) . . . . 0(2) no
C(1) N(1) C(5) C(4) . . . . -1(1) no
C(1) C(2) C(3) C(3) . . . 2 -180.0(7) no
C(1) C(2) C(3) C(4) . . . . 0(1) no
C(2) C(1) N(1) C(5) . . . . 1(1) no
C(2) C(3) C(3) C(2) . . 2 2 -161(1) no
C(2) C(3) C(3) C(4) . . 2 2 18.8(6) no
C(2) C(3) C(4) C(5) . . . . 0(1) no
C(3) C(3) C(4) C(5) . 2 2 2 -179.5(7) no
C(4) C(3) C(3) C(4) . . 2 2 -161(1) no

#------------------------------------------------------------------------------
