####################################################################### 
# 
# This file contains crystal structure data downloaded from the 
# Cambridge Structural Database (CSD) hosted by the Cambridge 
# Crystallographic Data Centre (CCDC).
# 
# Full information about CCDC data access policies and citation 
# guidelines are available at http://www.ccdc.cam.ac.uk/access/V1 
# 
# Audit and citation data items may have been added by the CCDC. 
# Please retain this information to preserve the provenance of 
# this file and to allow appropriate attribution of the data. 
# 
#######################################################################

data_2
_audit_block_doi                 10.5517/cc8r369
_database_code_depnum_ccdc_archive 'CCDC 260530'
loop_
_citation_id
_citation_doi
_citation_year
1 10.1016/j.ica.2006.09.032 2007
_audit_update_record             
;
2005-01-12 deposited with the CCDC.	2024-07-09 downloaded from the CCDC.
;
_audit_creation_method           SHELXL-97
_chemical_name_systematic        
;
?
;
_chemical_name_common            ?
_chemical_melting_point          ?
_chemical_formula_moiety         ?
_chemical_formula_sum            'C26 H26 Cl N5 Ni O7'
_chemical_formula_weight         614.68

loop_
_atom_type_symbol
_atom_type_description
_atom_type_scat_dispersion_real
_atom_type_scat_dispersion_imag
_atom_type_scat_source
C C 0.0033 0.0016 'International Tables Vol C Tables 4.2.6.8 and 6.1.1.4'
H H 0.0000 0.0000 'International Tables Vol C Tables 4.2.6.8 and 6.1.1.4'
N N 0.0061 0.0033 'International Tables Vol C Tables 4.2.6.8 and 6.1.1.4'
O O 0.0106 0.0060 'International Tables Vol C Tables 4.2.6.8 and 6.1.1.4'
Ni Ni 0.3393 1.1124 'International Tables Vol C Tables 4.2.6.8 and 6.1.1.4'
Cl Cl 0.1484 0.1585 'International Tables Vol C Tables 4.2.6.8 and 6.1.1.4'

_symmetry_cell_setting           Orthorhombic
_symmetry_space_group_name_H-M   C222(1)

loop_
_symmetry_equiv_pos_as_xyz
'x, y, z'
'-x, -y, z+1/2'
'-x, y, -z+1/2'
'x, -y, -z'
'x+1/2, y+1/2, z'
'-x+1/2, -y+1/2, z+1/2'
'-x+1/2, y+1/2, -z+1/2'
'x+1/2, -y+1/2, -z'

_cell_length_a                   10.710(10)
_cell_length_b                   20.088(18)
_cell_length_c                   27.63(3)
_cell_angle_alpha                90.00
_cell_angle_beta                 90.00
_cell_angle_gamma                90.00
_cell_volume                     5945(10)
_cell_formula_units_Z            8
_cell_measurement_temperature    173(2)
_cell_measurement_reflns_used    ?
_cell_measurement_theta_min      ?
_cell_measurement_theta_max      ?

_exptl_crystal_description       ?
_exptl_crystal_colour            ?
_exptl_crystal_size_max          ?
_exptl_crystal_size_mid          ?
_exptl_crystal_size_min          ?
_exptl_crystal_density_meas      ?
_exptl_crystal_density_diffrn    1.374
_exptl_crystal_density_method    'not measured'
_exptl_crystal_F_000             2544
_exptl_absorpt_coefficient_mu    0.792
_exptl_absorpt_correction_type   ?
_exptl_absorpt_correction_T_min  ?
_exptl_absorpt_correction_T_max  ?
_exptl_absorpt_process_details   ?

_exptl_special_details           
;
?
;

_diffrn_ambient_temperature      173(2)
_diffrn_radiation_wavelength     0.71073
_diffrn_radiation_type           MoK\a
_diffrn_radiation_source         'fine-focus sealed tube'
_diffrn_radiation_monochromator  graphite
_diffrn_measurement_device_type  ?
_diffrn_measurement_method       ?
_diffrn_detector_area_resol_mean ?
_diffrn_standards_number         ?
_diffrn_standards_interval_count ?
_diffrn_standards_interval_time  ?
_diffrn_standards_decay_%        ?
_diffrn_reflns_number            8181
_diffrn_reflns_av_R_equivalents  0.0380
_diffrn_reflns_av_sigmaI/netI    0.0941
_diffrn_reflns_limit_h_min       -11
_diffrn_reflns_limit_h_max       11
_diffrn_reflns_limit_k_min       -19
_diffrn_reflns_limit_k_max       21
_diffrn_reflns_limit_l_min       -30
_diffrn_reflns_limit_l_max       13
_diffrn_reflns_theta_min         2.03
_diffrn_reflns_theta_max         23.25
_reflns_number_total             4203
_reflns_number_gt                2961
_reflns_threshold_expression     >2sigma(I)

_computing_data_collection       ?
_computing_cell_refinement       ?
_computing_data_reduction        ?
_computing_structure_solution    'SHELXS-97 (Sheldrick, 1990)'
_computing_structure_refinement  'SHELXL-97 (Sheldrick, 1997)'
_computing_molecular_graphics    ?
_computing_publication_material  ?

_refine_special_details          
;
Refinement of F^2^ against ALL reflections. The weighted R-factor wR and
goodness of fit S are based on F^2^, conventional R-factors R are based
on F, with F set to zero for negative F^2^. The threshold expression of
F^2^ > 2sigma(F^2^) is used only for calculating R-factors(gt) etc. and is
not relevant to the choice of reflections for refinement. R-factors based
on F^2^ are statistically about twice as large as those based on F, and R-
factors based on ALL data will be even larger.
;

_refine_ls_structure_factor_coef Fsqd
_refine_ls_matrix_type           full
_refine_ls_weighting_scheme      calc
_refine_ls_weighting_details     
'calc w=1/[\s^2^(Fo^2^)+(0.1065P)^2^+0.0000P] where P=(Fo^2^+2Fc^2^)/3'
_atom_sites_solution_primary     direct
_atom_sites_solution_secondary   difmap
_atom_sites_solution_hydrogens   geom
_refine_ls_hydrogen_treatment    mixed
_refine_ls_extinction_method     none
_refine_ls_extinction_coef       ?
_refine_ls_abs_structure_details 'Flack H D (1983), Acta Cryst. A39, 876-881'
_refine_ls_abs_structure_Flack   0.04(3)
_refine_ls_number_reflns         4203
_refine_ls_number_parameters     339
_refine_ls_number_restraints     1
_refine_ls_R_factor_all          0.0801
_refine_ls_R_factor_gt           0.0620
_refine_ls_wR_factor_ref         0.1732
_refine_ls_wR_factor_gt          0.1622
_refine_ls_goodness_of_fit_ref   0.883
_refine_ls_restrained_S_all      0.886
_refine_ls_shift/su_max          0.002
_refine_ls_shift/su_mean         0.000

loop_
_atom_site_label
_atom_site_type_symbol
_atom_site_fract_x
_atom_site_fract_y
_atom_site_fract_z
_atom_site_U_iso_or_equiv
_atom_site_adp_type
_atom_site_occupancy
_atom_site_symmetry_multiplicity
_atom_site_calc_flag
_atom_site_refinement_flags
_atom_site_disorder_assembly
_atom_site_disorder_group
Ni1 Ni 0.67739(8) 0.21372(5) 0.51569(3) 0.0415(3) Uani 1 1 d . . .
O1 O 0.4934(4) 0.2220(3) 0.49272(19) 0.0494(13) Uani 1 1 d . . .
O2 O 0.3586(4) 0.2951(3) 0.45976(17) 0.0451(13) Uani 1 1 d . . .
O3 O 0.1765(17) -0.0026(8) 0.5585(6) 0.116(5) Uiso 0.50 1 d P . .
O4 O 0.0900(14) 0.0000 0.5000 0.146(5) Uiso 1 2 d S . .
O5 O 0.2793(6) 0.0587(4) 0.4984(3) 0.088(2) Uiso 1 1 d . . .
O6 O 0.4600(11) 0.0944(5) 0.2898(4) 0.153(4) Uiso 1 1 d . . .
O7 O 0.6441(16) 0.0418(9) 0.2661(7) 0.130(6) Uiso 0.50 1 d PD . .
O8 O 0.5000 0.0026(8) 0.2500 0.142(5) Uiso 1 2 d SD . .
O9 O 0.5839(16) 0.4603(8) 0.2461(8) 0.308(10) Uiso 1 1 d . . .
C1 C 0.4663(7) 0.2759(4) 0.4716(2) 0.043(2) Uani 1 1 d . . .
C2 C 0.5732(7) 0.3265(4) 0.4601(3) 0.0411(19) Uani 1 1 d . . .
H2A H 0.5688 0.3625 0.4850 0.049 Uiso 1 1 calc R . .
C3 C 0.5559(7) 0.3590(4) 0.4118(3) 0.044(2) Uani 1 1 d . . .
H3A H 0.6181 0.3952 0.4084 0.052 Uiso 1 1 calc R . .
H3B H 0.4719 0.3794 0.4106 0.052 Uiso 1 1 calc R . .
C4 C 0.5694(7) 0.3125(4) 0.3704(3) 0.042(2) Uani 1 1 d . . .
C5 C 0.6735(8) 0.3095(4) 0.3364(3) 0.047(2) Uani 1 1 d . . .
C6 C 0.7790(8) 0.3471(6) 0.3303(3) 0.074(3) Uani 1 1 d . . .
H6A H 0.7988 0.3809 0.3532 0.089 Uiso 1 1 calc R . .
C7 C 0.8580(10) 0.3361(7) 0.2907(4) 0.099(4) Uani 1 1 d . . .
H7A H 0.9276 0.3644 0.2851 0.119 Uiso 1 1 calc R . .
C8 C 0.8330(10) 0.2827(7) 0.2594(4) 0.107(4) Uani 1 1 d . . .
H8A H 0.8891 0.2735 0.2336 0.129 Uiso 1 1 calc R . .
C9 C 0.7292(9) 0.2436(6) 0.2653(3) 0.076(3) Uani 1 1 d . . .
H9A H 0.7123 0.2076 0.2440 0.092 Uiso 1 1 calc R . .
C10 C 0.6495(7) 0.2586(4) 0.3036(3) 0.050(2) Uani 1 1 d . . .
N5 N 0.5357(7) 0.2303(4) 0.3161(2) 0.062(2) Uani 1 1 d . . .
H5A H 0.4992 0.1971 0.3009 0.074 Uiso 1 1 calc R . .
C11 C 0.4889(9) 0.2626(4) 0.3564(3) 0.058(2) Uani 1 1 d . . .
H11A H 0.4126 0.2520 0.3721 0.070 Uiso 1 1 calc R . .
C12 C 0.6738(9) 0.1300(4) 0.6067(3) 0.060(2) Uani 1 1 d . . .
H12A H 0.7377 0.1603 0.6159 0.072 Uiso 1 1 calc R . .
C13 C 0.6359(9) 0.0851(5) 0.6406(3) 0.071(3) Uani 1 1 d . . .
H13A H 0.6702 0.0844 0.6723 0.085 Uiso 1 1 calc R . .
C14 C 0.5456(9) 0.0412(6) 0.6263(4) 0.083(3) Uani 1 1 d . . .
H14A H 0.5149 0.0087 0.6482 0.099 Uiso 1 1 calc R . .
C15 C 0.4999(10) 0.0443(5) 0.5801(4) 0.079(3) Uani 1 1 d . . .
H15A H 0.4378 0.0138 0.5696 0.095 Uiso 1 1 calc R . .
C16 C 0.5440(9) 0.0914(5) 0.5495(4) 0.064(3) Uani 1 1 d . . .
H16A H 0.5122 0.0932 0.5175 0.077 Uiso 1 1 calc R . .
C17 C 0.8122(10) 0.0954(5) 0.4685(3) 0.068(3) Uani 1 1 d . . .
H17A H 0.8466 0.0926 0.5001 0.082 Uiso 1 1 calc R . .
C18 C 0.8546(9) 0.0519(5) 0.4346(4) 0.074(3) Uani 1 1 d . . .
H18A H 0.9136 0.0183 0.4424 0.089 Uiso 1 1 calc R . .
C19 C 0.8084(11) 0.0587(6) 0.3887(4) 0.086(3) Uani 1 1 d . . .
H19A H 0.8381 0.0309 0.3633 0.103 Uiso 1 1 calc R . .
C20 C 0.7197(12) 0.1056(6) 0.3795(4) 0.086(4) Uani 1 1 d . . .
H20A H 0.6865 0.1104 0.3478 0.103 Uiso 1 1 calc R . .
C21 C 0.6780(10) 0.1462(4) 0.4164(3) 0.064(2) Uani 1 1 d . . .
H21A H 0.6139 0.1777 0.4099 0.077 Uiso 1 1 calc R . .
C22 C 0.7209(9) 0.3275(5) 0.5869(3) 0.065(3) Uani 1 1 d . . .
H22A H 0.7934 0.3342 0.5677 0.079 Uiso 1 1 calc R . .
C23 C 0.7048(14) 0.3659(6) 0.6275(5) 0.097(4) Uani 1 1 d . . .
H23A H 0.7636 0.3989 0.6368 0.117 Uiso 1 1 calc R . .
C24 C 0.5962(19) 0.3533(9) 0.6544(5) 0.129(7) Uani 1 1 d . . .
H24A H 0.5824 0.3772 0.6836 0.155 Uiso 1 1 calc R . .
C25 C 0.5105(13) 0.3079(7) 0.6397(4) 0.096(4) Uani 1 1 d . . .
H25A H 0.4352 0.3013 0.6572 0.115 Uiso 1 1 calc R . .
C26 C 0.5350(9) 0.2734(6) 0.6005(3) 0.072(3) Uani 1 1 d . . .
H26A H 0.4762 0.2408 0.5904 0.086 Uiso 1 1 calc R . .
Cl1 Cl 0.2095(3) -0.0029(2) 0.51186(15) 0.0532(11) Uiso 0.50 1 d P . .
Cl2 Cl 0.5281(4) 0.0595(2) 0.2485(2) 0.0569(12) Uiso 0.50 1 d P . .
N1 N 0.6955(5) 0.2928(3) 0.4660(2) 0.0440(16) Uani 1 1 d . . .
H1A H 0.7539 0.3227 0.4771 0.053 Uiso 1 1 calc R . .
H1B H 0.7223 0.2767 0.4366 0.053 Uiso 1 1 calc R . .
N2 N 0.6303(6) 0.1353(4) 0.5628(2) 0.0488(18) Uani 1 1 d . . .
N3 N 0.7241(6) 0.1426(4) 0.4602(3) 0.0539(19) Uani 1 1 d . . .
N4 N 0.6402(6) 0.2817(4) 0.5734(2) 0.0515(18) Uani 1 1 d . . .

loop_
_atom_site_aniso_label
_atom_site_aniso_U_11
_atom_site_aniso_U_22
_atom_site_aniso_U_33
_atom_site_aniso_U_23
_atom_site_aniso_U_13
_atom_site_aniso_U_12
Ni1 0.0290(5) 0.0518(6) 0.0437(5) 0.0053(5) -0.0038(5) -0.0029(5)
O1 0.034(3) 0.055(4) 0.059(3) 0.016(3) -0.004(2) -0.007(3)
O2 0.029(3) 0.058(4) 0.049(3) 0.007(3) 0.001(2) 0.002(3)
C1 0.043(5) 0.045(5) 0.040(4) -0.007(4) 0.013(3) -0.010(4)
C2 0.032(4) 0.043(5) 0.049(5) -0.004(4) -0.002(4) -0.001(4)
C3 0.040(5) 0.043(5) 0.048(5) 0.010(4) 0.008(4) -0.002(4)
C4 0.035(4) 0.052(5) 0.038(4) 0.005(4) 0.001(4) -0.008(4)
C5 0.037(4) 0.062(6) 0.043(4) 0.000(4) -0.002(4) -0.002(4)
C6 0.045(6) 0.115(9) 0.063(6) -0.003(6) 0.002(5) -0.006(6)
C7 0.053(7) 0.170(12) 0.074(7) -0.031(8) 0.024(6) -0.039(7)
C8 0.058(7) 0.194(13) 0.070(7) -0.035(9) 0.021(6) -0.010(10)
C9 0.055(7) 0.122(9) 0.052(6) -0.022(6) 0.006(5) 0.012(6)
C10 0.036(5) 0.073(6) 0.042(4) 0.004(4) -0.006(4) 0.000(4)
N5 0.054(4) 0.079(6) 0.054(4) -0.013(4) -0.005(4) -0.007(4)
C11 0.063(6) 0.070(6) 0.042(5) -0.001(4) 0.000(4) 0.001(5)
C12 0.051(5) 0.069(6) 0.061(5) 0.014(5) 0.000(5) 0.001(5)
C13 0.070(7) 0.081(7) 0.061(6) 0.026(6) -0.008(5) 0.008(6)
C14 0.061(7) 0.093(8) 0.095(9) 0.044(7) 0.021(6) -0.002(6)
C15 0.065(7) 0.078(8) 0.095(8) 0.030(6) -0.008(6) -0.006(6)
C16 0.063(6) 0.059(6) 0.071(6) 0.026(5) -0.008(5) -0.007(5)
C17 0.074(7) 0.062(6) 0.068(6) 0.008(5) -0.019(6) -0.005(6)
C18 0.068(7) 0.069(7) 0.085(7) -0.023(6) -0.016(6) 0.012(6)
C19 0.081(8) 0.081(8) 0.095(9) -0.021(7) 0.013(7) 0.000(7)
C20 0.121(11) 0.085(8) 0.051(6) -0.017(6) -0.009(6) -0.003(7)
C21 0.078(6) 0.062(6) 0.052(5) -0.002(5) -0.026(6) -0.004(6)
C22 0.077(7) 0.067(7) 0.052(6) -0.014(5) -0.014(5) 0.005(6)
C23 0.125(12) 0.068(8) 0.099(9) -0.011(7) -0.023(9) 0.026(8)
C24 0.181(18) 0.138(15) 0.069(9) -0.025(9) 0.002(10) 0.096(13)
C25 0.107(10) 0.108(11) 0.073(8) 0.016(8) 0.013(7) 0.045(9)
C26 0.063(6) 0.093(8) 0.059(6) 0.008(6) 0.014(5) 0.027(6)
N1 0.025(3) 0.064(4) 0.043(3) -0.002(3) -0.003(3) -0.003(4)
N2 0.036(4) 0.062(5) 0.048(4) 0.018(4) -0.002(3) -0.008(3)
N3 0.037(4) 0.059(5) 0.066(5) -0.003(4) -0.003(3) -0.001(4)
N4 0.044(4) 0.068(5) 0.043(4) 0.006(4) -0.001(3) 0.018(4)

_geom_special_details            
;
All esds (except the esd in the dihedral angle between two l.s. planes)
are estimated using the full covariance matrix. The cell esds are taken
into account individually in the estimation of esds in distances, angles
and torsion angles; correlations between esds in cell parameters are only
used when they are defined by crystal symmetry. An approximate (isotropic)
treatment of cell esds is used for estimating esds involving l.s. planes.
;

loop_
_geom_bond_atom_site_label_1
_geom_bond_atom_site_label_2
_geom_bond_distance
_geom_bond_site_symmetry_2
_geom_bond_publ_flag
Ni1 O2 2.063(5) 8_556 ?
Ni1 O1 2.076(5) . ?
Ni1 N1 2.108(6) . ?
Ni1 N2 2.105(7) . ?
Ni1 N4 2.137(7) . ?
Ni1 N3 2.156(7) . ?
O1 C1 1.265(9) . ?
O2 C1 1.259(9) . ?
O2 Ni1 2.063(5) 8_456 ?
O3 Cl1 1.336(17) . ?
O3 Cl1 1.979(19) 4_556 ?
O4 Cl1 1.322(14) . ?
O4 Cl1 1.322(14) 4_556 ?
O5 Cl1 1.376(8) 4_556 ?
O5 Cl1 1.492(9) . ?
O6 Cl2 1.275(11) 3_655 ?
O6 Cl2 1.523(13) . ?
O7 Cl2 1.380(18) . ?
O7 Cl2 1.920(19) 3_655 ?
O8 Cl2 1.184(15) . ?
O8 Cl2 1.184(15) 3_655 ?
C1 C2 1.563(10) . ?
C2 C3 1.496(10) . ?
C2 N1 1.484(9) . ?
C3 C4 1.484(11) . ?
C4 C11 1.376(11) . ?
C4 C5 1.459(10) . ?
C5 C6 1.369(12) . ?
C5 C10 1.391(11) . ?
C6 C7 1.401(13) . ?
C7 C8 1.405(14) . ?
C8 C9 1.370(15) . ?
C9 C10 1.393(12) . ?
C10 N5 1.389(10) . ?
N5 C11 1.383(10) . ?
C12 N2 1.304(10) . ?
C12 C13 1.363(12) . ?
C13 C14 1.368(13) . ?
C14 C15 1.369(14) . ?
C15 C16 1.353(12) . ?
C16 N2 1.329(11) . ?
C17 N3 1.356(11) . ?
C17 C18 1.360(13) . ?
C18 C19 1.369(14) . ?
C19 C20 1.362(14) . ?
C20 C21 1.381(13) . ?
C21 N3 1.309(10) . ?
C22 N4 1.315(11) . ?
C22 C23 1.374(14) . ?
C23 C24 1.40(2) . ?
C24 C25 1.357(19) . ?
C25 C26 1.313(15) . ?
C26 N4 1.363(11) . ?
Cl1 Cl1 0.666(8) 4_556 ?
Cl1 O5 1.376(8) 4_556 ?
Cl1 O3 1.979(19) 4_556 ?
Cl2 Cl2 0.606(9) 3_655 ?
Cl2 O6 1.275(11) 3_655 ?
Cl2 O7 1.920(19) 3_655 ?

loop_
_geom_angle_atom_site_label_1
_geom_angle_atom_site_label_2
_geom_angle_atom_site_label_3
_geom_angle
_geom_angle_site_symmetry_1
_geom_angle_site_symmetry_3
_geom_angle_publ_flag
O2 Ni1 O1 178.6(2) 8_556 . ?
O2 Ni1 N1 101.1(2) 8_556 . ?
O1 Ni1 N1 80.1(2) . . ?
O2 Ni1 N2 87.6(2) 8_556 . ?
O1 Ni1 N2 91.2(2) . . ?
N1 Ni1 N2 171.3(2) . . ?
O2 Ni1 N4 89.1(2) 8_556 . ?
O1 Ni1 N4 90.0(2) . . ?
N1 Ni1 N4 91.2(3) . . ?
N2 Ni1 N4 88.4(3) . . ?
O2 Ni1 N3 87.6(2) 8_556 . ?
O1 Ni1 N3 93.2(2) . . ?
N1 Ni1 N3 90.8(3) . . ?
N2 Ni1 N3 90.0(3) . . ?
N4 Ni1 N3 176.4(3) . . ?
C1 O1 Ni1 115.3(5) . . ?
C1 O2 Ni1 138.6(5) . 8_456 ?
Cl1 O3 Cl1 6.1(3) . 4_556 ?
Cl1 O4 Cl1 29.2(5) . 4_556 ?
Cl1 O5 Cl1 26.4(4) 4_556 . ?
Cl2 O6 Cl2 22.9(4) 3_655 . ?
Cl2 O7 Cl2 9.7(4) . 3_655 ?
Cl2 O8 Cl2 29.7(6) . 3_655 ?
O1 C1 O2 126.3(7) . . ?
O1 C1 C2 118.8(7) . . ?
O2 C1 C2 114.8(7) . . ?
C3 C2 N1 114.0(6) . . ?
C3 C2 C1 112.0(6) . . ?
N1 C2 C1 109.1(6) . . ?
C2 C3 C4 113.6(6) . . ?
C11 C4 C5 105.5(7) . . ?
C11 C4 C3 127.9(7) . . ?
C5 C4 C3 126.6(7) . . ?
C6 C5 C10 118.5(8) . . ?
C6 C5 C4 133.4(8) . . ?
C10 C5 C4 108.0(7) . . ?
C5 C6 C7 120.5(10) . . ?
C6 C7 C8 119.1(10) . . ?
C9 C8 C7 121.3(9) . . ?
C8 C9 C10 117.6(10) . . ?
N5 C10 C9 129.7(9) . . ?
N5 C10 C5 107.5(7) . . ?
C9 C10 C5 122.8(9) . . ?
C11 N5 C10 109.0(7) . . ?
N5 C11 C4 110.0(8) . . ?
N2 C12 C13 126.0(9) . . ?
C12 C13 C14 116.0(9) . . ?
C15 C14 C13 119.6(10) . . ?
C14 C15 C16 119.3(10) . . ?
N2 C16 C15 122.3(9) . . ?
N3 C17 C18 124.4(9) . . ?
C17 C18 C19 117.0(10) . . ?
C20 C19 C18 119.6(10) . . ?
C19 C20 C21 119.7(10) . . ?
N3 C21 C20 121.9(10) . . ?
N4 C22 C23 122.8(11) . . ?
C24 C23 C22 115.8(13) . . ?
C23 C24 C25 121.6(13) . . ?
C26 C25 C24 117.8(13) . . ?
C25 C26 N4 123.6(12) . . ?
Cl1 Cl1 O5 86.6(8) 4_556 4_556 ?
Cl1 Cl1 O3 161.6(10) 4_556 . ?
O5 Cl1 O3 110.2(8) 4_556 . ?
Cl1 Cl1 O4 75.4(2) 4_556 . ?
O5 Cl1 O4 120.7(5) 4_556 . ?
O3 Cl1 O4 89.0(8) . . ?
Cl1 Cl1 O5 67.0(7) 4_556 . ?
O5 Cl1 O5 110.6(6) 4_556 . ?
O3 Cl1 O5 111.7(9) . . ?
O4 Cl1 O5 112.7(4) . . ?
Cl1 Cl1 O3 12.3(7) 4_556 4_556 ?
O5 Cl1 O3 86.6(6) 4_556 4_556 ?
O3 Cl1 O3 154.1(13) . 4_556 ?
O4 Cl1 O3 65.3(6) . 4_556 ?
O5 Cl1 O3 78.3(6) . 4_556 ?
Cl2 Cl2 O8 75.2(3) 3_655 . ?
Cl2 Cl2 O6 102.2(11) 3_655 3_655 ?
O8 Cl2 O6 125.8(7) . 3_655 ?
Cl2 Cl2 O7 147.7(14) 3_655 . ?
O8 Cl2 O7 88.1(7) . . ?
O6 Cl2 O7 110.0(9) 3_655 . ?
Cl2 Cl2 O6 54.9(9) 3_655 . ?
O8 Cl2 O6 107.3(6) . . ?
O6 Cl2 O6 114.6(9) 3_655 . ?
O7 Cl2 O6 106.7(10) . . ?
Cl2 Cl2 O7 22.6(10) 3_655 3_655 ?
O8 Cl2 O7 65.4(6) . 3_655 ?
O6 Cl2 O7 91.4(8) 3_655 3_655 ?
O7 Cl2 O7 152.9(11) . 3_655 ?
O6 Cl2 O7 77.5(7) . 3_655 ?
C2 N1 Ni1 109.6(4) . . ?
C12 N2 C16 116.8(8) . . ?
C12 N2 Ni1 123.4(6) . . ?
C16 N2 Ni1 119.5(6) . . ?
C21 N3 C17 117.3(8) . . ?
C21 N3 Ni1 122.2(6) . . ?
C17 N3 Ni1 120.3(6) . . ?
C22 N4 C26 118.2(8) . . ?
C22 N4 Ni1 122.4(6) . . ?
C26 N4 Ni1 119.0(7) . . ?

_diffrn_measured_fraction_theta_max 0.990
_diffrn_reflns_theta_full        23.25
_diffrn_measured_fraction_theta_full 0.990
_refine_diff_density_max         0.889
_refine_diff_density_min         -0.502
_refine_diff_density_rms         0.093
