
#######################################################################
#
#                 Cambridge Crystallographic Data Centre
#                                CCDC
#
#######################################################################
#
# If this CIF has been generated from an entry in the Cambridge
# Structural Database, then it will include bibliographic, chemical,
# crystal, experimental, refinement or atomic coordinate data resulting
# from the CCDC's data processing and validation procedures.
#
#######################################################################

data_CSD_CIF_CEZNIE
_audit_creation_date 1985-02-07
_audit_creation_method CSD-ConQuest-V1
_database_code_CSD CEZNIE
_database_code_depnum_ccdc_archive 'CCDC 1124170'
_chemical_formula_sum 'C15 H15 Cu1 N5 O6'
_chemical_formula_moiety
;
C15 H13 Cu1 N4 O3 1+,N1 O2 1-,H2 O1
;
_journal_coden_Cambridge 155
_journal_volume 85
_journal_year 1984
_journal_page_first L19
_journal_name_full 'Inorg.Chim.Acta '
loop_
_publ_author_name
"R.Allmann"
"S.Kremer"
"D.Kucharzcyk"
_chemical_name_systematic
;
Aqua-nitrito-(2,2':6',2''-terpyridyl)-copper(ii) nitrite monohydrate
;
_chemical_name_common
;
Teaching Subset: Fundamental Chemistry
;
_cell_volume    876.418
_exptl_crystal_colour 'dark green'
_exptl_crystal_density_diffrn 1.61
_diffrn_ambient_temperature ?
_diffrn_special_details
;
The study was carried out at room temperature,in the range 283-303K

;
#These two values have been output from a single CSD field.
_refine_ls_R_factor_gt 0.035
_refine_ls_wR_factor_gt 0.035
_symmetry_cell_setting triclinic
_symmetry_space_group_name_H-M 'P -1'
_symmetry_Int_Tables_number 2
loop_
_symmetry_equiv_pos_site_id
_symmetry_equiv_pos_as_xyz
1 x,y,z
2 -x,-y,-z
_cell_length_a 13.508(6)
_cell_length_b 8.761(4)
_cell_length_c 8.177
_cell_angle_alpha 110.07(4)
_cell_angle_beta 86.06(4)
_cell_angle_gamma 105.31(4)
_cell_formula_units_Z 2
loop_
_atom_type_symbol
_atom_type_radius_bond
C 0.68
H 0.23
Cu 1.52
N 0.68
O 0.68
loop_
_atom_site_label
_atom_site_type_symbol
_atom_site_fract_x
_atom_site_fract_y
_atom_site_fract_z
Cu1 Cu 0.32380 0.13430 0.19650
N1 N 0.45040 0.07540 0.25340
C1 C 0.52810 0.17850 0.36520
C2 C 0.60710 0.12200 0.40230
C3 C 0.60550 -0.04480 0.32640
C4 C 0.52600 -0.15340 0.21020
C5 C 0.44990 -0.08870 0.17610
N2 N 0.30150 -0.09520 0.03770
C6 C 0.36310 -0.18780 0.05180
C7 C 0.34380 -0.35630 -0.05010
C8 C 0.26070 -0.42540 -0.16550
C9 C 0.19830 -0.32740 -0.17900
C10 C 0.22200 -0.15970 -0.07490
N3 N 0.20610 0.12210 0.04240
C11 C 0.16980 -0.03190 -0.07700
C12 C 0.09190 -0.06230 -0.19540
C13 C 0.05130 0.06850 -0.18920
C14 C 0.08760 0.22380 -0.06750
C15 C 0.16590 0.24790 0.04790
O1 O 0.22590 0.07290 0.40930
H1 H 0.19400 -0.01700 0.38300
H2 H 0.19300 0.14400 0.44800
O2 O 0.42640 0.41310 0.14420
N4 N 0.40120 0.47200 0.29090
O3 O 0.34830 0.36730 0.35820
O4 O 0.10280 0.29420 0.50400
H3 H 0.11600 0.35400 0.44700
H4 H 0.05400 0.30200 0.56900
O5 O 0.07950 -0.46530 0.35090
N5 N 0.14110 -0.35120 0.33410
O6 O 0.09580 -0.24190 0.33550
#END
