
#######################################################################
#
#                 Cambridge Crystallographic Data Centre
#                                CCDC
#
#######################################################################
#
# If this CIF has been generated from an entry in the Cambridge
# Structural Database, then it will include bibliographic, chemical,
# crystal, experimental, refinement or atomic coordinate data resulting
# from the CCDC's data processing and validation procedures.
#
#######################################################################

data_CSD_CIF_CHMOCO01
_audit_creation_date 2004-07-21
_audit_creation_method CSD-ConQuest-V1
_database_code_CSD CHMOCO01
_database_code_depnum_ccdc_archive 'CCDC 233887'
_chemical_formula_sum 'C10 H8 Mo1 O3'
_chemical_formula_moiety
;
C10 H8 Mo1 O3
;
_journal_coden_Cambridge 1078
_journal_year 2004
_journal_name_full 'CSD Communication(Private Communication) '
loop_
_publ_author_name
"M.Nieger"
"I.Vath"
"B.Ross"
_chemical_name_systematic
;
(\h^6^-Cyclohepta-1,3,5-triene)-tricarbonyl-molybdenum
;
_chemical_name_common
;
Teaching Subset: Fundamental Chemistry, Symmetry
;
_cell_volume    965.588
_exptl_crystal_colour 'dark red'
_exptl_crystal_density_diffrn 1.872
_exptl_special_details
;
contribution from Department of Inorganic Chemistry, Universitat Bonn, 
Gerhard-Domagk-Str. 1, D-53121 Bonn, Germany
;
_exptl_crystal_description 'blocks'
_diffrn_ambient_temperature 123
#These two values have been output from a single CSD field.
_refine_ls_R_factor_gt 0.0212
_refine_ls_wR_factor_gt 0.0212
_symmetry_cell_setting monoclinic
_symmetry_space_group_name_H-M 'P 21/n'
_symmetry_Int_Tables_number 14
loop_
_symmetry_equiv_pos_site_id
_symmetry_equiv_pos_as_xyz
1 x,y,z
2 1/2-x,1/2+y,1/2-z
3 -x,-y,-z
4 -1/2+x,-1/2-y,-1/2+z
_cell_length_a 12.1500(2)
_cell_length_b 7.0550(2)
_cell_length_c 12.3360(3)
_cell_angle_alpha 90
_cell_angle_beta 114.055(3)
_cell_angle_gamma 90
_cell_formula_units_Z 4
loop_
_atom_type_symbol
_atom_type_radius_bond
C 0.68
H 0.23
Mo 1.47
O 0.68
loop_
_atom_site_label
_atom_site_type_symbol
_atom_site_fract_x
_atom_site_fract_y
_atom_site_fract_z
Mo1 Mo 0.21102(2) 0.59446(3) 0.46608(2)
C1 C 0.0910(3) 0.3911(4) 0.3874(2)
O1 O 0.0183(2) 0.2829(3) 0.3361(2)
C2 C 0.3462(2) 0.4152(3) 0.5000(2)
O2 O 0.4247(2) 0.3095(3) 0.5265(2)
C3 C 0.2257(2) 0.5148(4) 0.6252(2)
O3 O 0.2397(2) 0.4631(3) 0.7181(2)
C4 C 0.1517(3) 0.7188(4) 0.2659(2)
H1 H 0.1362(3) 0.6136(4) 0.2136(2)
C5 C 0.2700(3) 0.7614(4) 0.3354(2)
H2 H 0.3282(3) 0.7197(4) 0.3077(2)
C6 C 0.3143(2) 0.8630(4) 0.4460(2)
H3 H 0.3970(2) 0.8978(4) 0.4772(2)
C7 C 0.2507(3) 0.9171(3) 0.5136(2)
H4 H 0.2951(3) 0.9864(3) 0.5841(2)
C8 C 0.1267(2) 0.8808(3) 0.4895(2)
H5 H 0.1021(2) 0.9075(3) 0.5518(2)
C9 C 0.0398(2) 0.8116(3) 0.3861(2)
H6 H -0.0279(2) 0.7505(3) 0.3904(2)
C10 C 0.0445(3) 0.8260(4) 0.2662(2)
H7 H -0.0304(3) 0.7732(4) 0.2047(2)
H8 H 0.0504(3) 0.9608(4) 0.2469(2)
#END
