
#######################################################################
#
#                 Cambridge Crystallographic Data Centre
#                                CCDC
#
#######################################################################
#
# If this CIF has been generated from an entry in the Cambridge
# Structural Database, then it will include bibliographic, chemical,
# crystal, experimental, refinement or atomic coordinate data resulting
# from the CCDC's data processing and validation procedures.
#
#######################################################################

data_CSD_CIF_CHOCAL
_audit_creation_date 1977-04-01
_audit_creation_method CSD-ConQuest-V1
_database_code_CSD CHOCAL
_database_code_depnum_ccdc_archive 'CCDC 1124450'
_chemical_formula_sum 'C27 H44 O1'
_chemical_formula_moiety
;
C27 H44 O1
;
_journal_coden_Cambridge 35
_journal_volume 41
_journal_year 1976
_journal_page_first 3476
_journal_name_full 'J.Org.Chem. '
loop_
_publ_author_name
"Trinh Toan"
"H.F.Deluca"
"L.F.Dahl"
_chemical_name_systematic
;
9,10-Secocholesta-5,7,10(19)-trien-3\b-ol
;
_chemical_name_common
;
Vitamin D!3$; cholecalciferol; Optimal-D; Vigantol; DrugBank: DB00169; 
Teaching Subset: Fundamental Chemistry, Drug Molecules, Essential Nutrients
;
_cell_volume   5172.327
_exptl_special_details
;
P212121 polymorph
D vitamin involved in intestinal absorption of calcium, iron, magnesium, 
phosphate and zinc.
;
_diffrn_ambient_temperature ?
_diffrn_special_details
;
The study was carried out at room temperature,in the range 283-303K

;
_refine_special_details
;
Crystal disorder in isopropyl fragment in one of the independent molecules 
accounts for unreasonable geometry. The three strongest peaks were taken as 
carbon atoms C25, C26 and C27. No hydrogens were calculated for these 
positions.
;
#These two values have been output from a single CSD field.
_refine_ls_R_factor_gt 0.087
_refine_ls_wR_factor_gt 0.087
_symmetry_cell_setting orthorhombic
_symmetry_space_group_name_H-M 'P 21 21 21'
_symmetry_Int_Tables_number 19
loop_
_symmetry_equiv_pos_site_id
_symmetry_equiv_pos_as_xyz
1 x,y,z
2 1/2+x,1/2-y,-z
3 -x,1/2+y,1/2-z
4 1/2-x,-y,1/2+z
_cell_length_a 19.730(4)
_cell_length_b 7.340(2)
_cell_length_c 35.716(6)
_cell_angle_alpha 90
_cell_angle_beta 90
_cell_angle_gamma 90
_cell_formula_units_Z 8
loop_
_atom_type_symbol
_atom_type_radius_bond
C 0.63
H 0.23
O 0.68
loop_
_atom_site_label
_atom_site_type_symbol
_atom_site_fract_x
_atom_site_fract_y
_atom_site_fract_z
O1 O 0.06990 0.74960 0.74960
C1 C 0.17990 0.92140 0.79800
C2 C 0.17980 0.89910 0.75550
C3 C 0.13990 0.72680 0.74220
C4 C 0.16350 0.55990 0.76310
C5 C 0.16770 0.58800 0.80480
C6 C 0.13960 0.46470 0.82760
C7 C 0.13970 0.46580 0.86780
C8 C 0.11670 0.33790 0.89120
C9 C 0.07460 0.16530 0.87940
C10 C 0.20250 0.75200 0.81660
C11 C 0.10780 -0.00680 0.89420
C12 C 0.12710 -0.00010 0.93650
C13 C 0.16690 0.17150 0.94710
C14 C 0.12640 0.33580 0.93420
C15 C 0.15630 0.50020 0.95300
C16 C 0.18230 0.42290 0.99020
C17 C 0.17180 0.21010 0.98890
C18 C 0.23630 0.16690 0.92760
C19 C 0.25440 0.74610 0.84030
C20 C 0.22340 0.11110 1.01270
C21 C 0.21530 -0.09850 1.01230
C22 C 0.22730 0.18050 1.05280
C23 C 0.16350 0.14470 1.07520
C24 C 0.16080 0.24690 1.11260
C25 C 0.19710 0.20750 1.14040
C26 C 0.19250 0.33470 1.17560
C27 C 0.19310 0.01990 1.15610
H1 H 0.05250 0.85330 0.73630
H2 H 0.12900 0.95500 0.80720
H3 H 0.21460 1.03170 0.80540
H4 H 0.15670 1.01870 0.74320
H5 H 0.23220 0.88660 0.74600
H6 H 0.14960 0.70820 0.71230
H7 H 0.12900 0.44820 0.75730
H8 H 0.21440 0.52350 0.75270
H9 H 0.11570 0.36020 0.81550
H10 H 0.15950 0.57680 0.87950
H11 H 0.02340 0.17690 0.89020
H12 H 0.07290 0.15880 0.84860
H13 H 0.07210 -0.12050 0.89040
H14 H 0.15350 -0.03430 0.87810
H15 H 0.08100 -0.00610 0.95310
H16 H 0.15860 -0.11920 0.94280
H17 H 0.07570 0.31820 0.94590
H18 H 0.11800 0.60520 0.95750
H19 H 0.19770 0.55750 0.93620
H20 H 0.15430 0.47990 1.01350
H21 H 0.23630 0.45200 0.99350
H22 H 0.12170 0.18330 1.00090
H23 H 0.26500 0.05070 0.93710
H24 H 0.26390 0.29270 0.93400
H25 H 0.22860 0.15890 0.89730
H26 H 0.26820 0.63060 0.85240
H27 H 0.28040 0.85990 0.84630
H28 H 0.27240 0.13920 1.00010
H29 H 0.25400 -0.15950 1.03000
H30 H 0.22080 -0.14850 0.98370
H31 H 0.16520 -0.13480 1.02290
H32 H 0.23600 0.32660 1.05190
H33 H 0.26930 0.11260 1.06650
H34 H 0.11990 0.18680 1.05830
H35 H 0.16030 -0.00060 1.08080
H36 H 0.10800 0.23320 1.12120
H37 H 0.17090 0.38800 1.10490
H38 H 0.24960 0.22230 1.13140
H39 H 0.22770 0.28270 1.19680
H40 H 0.14160 0.33360 1.18630
H41 H 0.20770 0.47230 1.16780
H42 H 0.22660 0.00900 1.18010
H43 H 0.20730 -0.07750 1.13480
H44 H 0.14080 -0.00610 1.16520
O2 O -0.02040 0.54420 0.78800
C28 C -0.08850 0.91390 0.85300
C29 C -0.07320 0.81690 0.81510
C30 C -0.03170 0.63770 0.82290
C31 C -0.07350 0.52220 0.84960
C32 C -0.09050 0.61260 0.88600
C33 C -0.07590 0.54430 0.91760
C34 C -0.08860 0.62440 0.95310
C35 C -0.08340 0.55690 0.98770
C36 C -0.06430 0.35630 0.99590
C37 C -0.12190 0.78750 0.87940
C38 C -0.01130 0.33940 1.02470
C39 C -0.02570 0.44810 1.05950
C40 C -0.03870 0.64860 1.05130
C41 C -0.09830 0.65100 1.02380
C42 C -0.12000 0.84970 1.02250
C43 C -0.11510 0.91280 1.06270
C44 C -0.07240 0.75700 1.08270
C45 C 0.02170 0.74130 1.03590
C46 C -0.17680 0.83770 0.89430
C47 C -0.02590 0.83750 1.11470
C48 C 0.01860 0.69790 1.13320
C49 C -0.07140 0.94590 1.14460
C50 C -0.03660 1.08090 1.16940
C51 C -0.08450 1.17560 1.19610
C52 C -0.09970 1.19350 1.21850
C53 C -0.14180 1.35450 1.23940
C54 C -0.15460 1.21020 1.24050
H45 H 0.01160 0.61690 0.77440
H46 H -0.12160 1.02830 0.84770
H47 H -0.04090 0.96000 0.86510
H48 H -0.12060 0.78100 0.80130
H49 H -0.04350 0.90560 0.79740
H50 H 0.01630 0.67160 0.83600
H51 H -0.12120 0.48870 0.83550
H52 H -0.04560 0.39770 0.85540
H53 H -0.05300 0.42270 0.91850
H54 H -0.10400 0.75380 0.95160
H55 H -0.10960 0.28620 1.00540
H56 H -0.04620 0.29630 0.97000
H57 H -0.00680 0.19700 1.03240
H58 H 0.03650 0.38740 1.01300
H59 H -0.07030 0.39180 1.07330
H60 H 0.01790 0.43800 1.07820
H61 H -0.13950 0.57590 1.03730
H62 H -0.17190 0.86290 1.01220
H63 H -0.08610 0.92890 1.00460
H64 H -0.16490 0.92370 1.07570
H65 H -0.08870 1.04270 1.06500
H66 H -0.10860 0.66650 1.09610
H67 H 0.06270 0.73630 1.05660
H68 H 0.00950 0.88360 1.03000
H69 H 0.03810 0.67420 1.01040
H70 H -0.20190 0.75740 0.91210
H71 H -0.19680 0.95890 0.88790
H72 H 0.00640 0.93920 1.10140
H73 H 0.04820 0.76570 1.15480
H74 H 0.05180 0.63960 1.11230
H75 H -0.01320 0.59380 1.14560
H76 H -0.09570 0.84500 1.16200
H77 H -0.11000 1.02030 1.12850
H78 H 0.00260 1.01100 1.18580
H79 H -0.01220 1.18670 1.15240
H80 H -0.13090 1.13680 1.18160
H81 H -0.07040 1.31400 1.18820
#END
