
#######################################################################
#
#                 Cambridge Crystallographic Data Centre
#                                CCDC
#
#######################################################################
#
# If this CIF has been generated from an entry in the Cambridge
# Structural Database, then it will include bibliographic, chemical,
# crystal, experimental, refinement or atomic coordinate data resulting
# from the CCDC's data processing and validation procedures.
#
#######################################################################

data_CSD_CIF_CHOCHL04
_audit_creation_date 2019-07-01
_audit_creation_method CSD-ConQuest-V1
_database_code_CSD CHOCHL04
_database_code_depnum_ccdc_archive 'CCDC 1937745'
_chemical_formula_sum 'C5 H14 Cl1 N1 O1'
_chemical_formula_moiety
;
C5 H14 N1 O1 1+,Cl1 1-
;
_journal_coden_Cambridge 1078
_journal_year 2019
_journal_name_full 'CSD Communication(Private Communication) '
loop_
_publ_author_name
"K.Edgehouse"
"Brian Chen"
"B.Gurkan"
"E.Pentzer"
_chemical_name_systematic
;
2-hydroxy-N,N,N-trimethylethan-1-aminium chloride
;
_chemical_name_common
;
Choline chloride; Teaching Subset: Essential Nutrients
;
_cell_volume    738.744
_exptl_crystal_colour 'colorless'
_exptl_crystal_density_diffrn 1.255
_exptl_special_details
;
Absolute configuration
alpha orthorhombic polymorph

;
_exptl_crystal_description 'blocky'
_diffrn_ambient_temperature 100
#These two values have been output from a single CSD field.
_refine_ls_R_factor_gt 0.0195
_refine_ls_wR_factor_gt 0.0195
_symmetry_cell_setting orthorhombic
_symmetry_space_group_name_H-M 'P 21 21 21'
_symmetry_Int_Tables_number 19
loop_
_symmetry_equiv_pos_site_id
_symmetry_equiv_pos_as_xyz
1 x,y,z
2 1/2-x,-y,1/2+z
3 -x,1/2+y,1/2-z
4 1/2+x,1/2-y,-z
_cell_length_a 5.8415(1)
_cell_length_b 10.9410(1)
_cell_length_c 11.5588(1)
_cell_angle_alpha 90
_cell_angle_beta 90
_cell_angle_gamma 90
_cell_formula_units_Z 4
loop_
_atom_type_symbol
_atom_type_radius_bond
C 0.68
H 0.23
Cl 0.99
N 0.68
O 0.68
loop_
_atom_site_label
_atom_site_type_symbol
_atom_site_fract_x
_atom_site_fract_y
_atom_site_fract_z
Cl1 Cl 0.16960(6) 0.71748(3) 0.27569(3)
O1 O 0.11754(19) 0.37854(12) 0.39023(10)
H1 H 0.03890 0.33699 0.34381
N1 N 0.5662(2) 0.49983(11) 0.50785(12)
C1 C 0.5201(3) 0.38283(14) 0.44116(14)
H2 H 0.66606 0.35444 0.40690
H3 H 0.46889 0.31950 0.49660
C2 C 0.3441(3) 0.39231(15) 0.34564(13)
H4 H 0.35813 0.47281 0.30718
H5 H 0.37348 0.32815 0.28710
C3 C 0.7276(3) 0.46758(15) 0.60456(15)
H6 H 0.86781 0.43215 0.57224
H7 H 0.65444 0.40811 0.65604
H8 H 0.76582 0.54150 0.64839
C4 C 0.3495(3) 0.55022(15) 0.55801(14)
H9 H 0.24522 0.57315 0.49526
H10 H 0.38481 0.62245 0.60487
H11 H 0.27680 0.48805 0.60672
C5 C 0.6786(3) 0.59480(15) 0.43344(14)
H12 H 0.81787 0.56070 0.39890
H13 H 0.71837 0.66595 0.48085
H14 H 0.57298 0.61977 0.37195
#END
