
#######################################################################
#
#                 Cambridge Crystallographic Data Centre
#                                CCDC
#
#######################################################################
#
# If this CIF has been generated from an entry in the Cambridge
# Structural Database, then it will include bibliographic, chemical,
# crystal, experimental, refinement or atomic coordinate data resulting
# from the CCDC's data processing and validation procedures.
#
#######################################################################

data_CSD_CIF_CHOEST21
_audit_creation_date 2002-05-31
_audit_creation_method CSD-ConQuest-V1
_database_code_CSD CHOEST21
_database_code_depnum_ccdc_archive 'CCDC 184885'
_chemical_formula_sum 'C27 H46 O1'
_chemical_formula_moiety
;
C27 H46 O1
;
_journal_coeditor_code "IUCr BK0099"
_journal_coden_Cambridge 622
_journal_volume 58
_journal_year 2002
_journal_page_first 260
_journal_name_full 'Acta Crystallogr.,Sect.B:Struct.Sci. '
loop_
_publ_author_name
"L.-Y.Hsu"
"J.W.Kampf"
"C.E.Nordman"
_chemical_name_systematic
;
Cholesterol
;
_chemical_name_common
;
Teaching Subset: Fundamental Chemistry; DrugBank: DB04540
;
_cell_volume  10151.150
_exptl_crystal_colour 'colorless'
_exptl_crystal_density_diffrn 1.012
_exptl_special_details
;
phase transition at 304.8 K
Large structure in which programming limits have been exceeded and atoms and 
bonds for 7 molecules have been deleted. A full set of data are available 
from the deposited CIF
;
_exptl_crystal_description 'plate'
_exptl_crystal_preparation 'dioxane'
_diffrn_ambient_temperature 310
_refine_special_details
;
In molecule C2 the terminal isopropyl group is disordered.

;
#These two values have been output from a single CSD field.
_refine_ls_R_factor_gt 0.0637
_refine_ls_wR_factor_gt 0.0637
_symmetry_cell_setting triclinic
_symmetry_space_group_name_H-M 'P 1'
_symmetry_Int_Tables_number 1
loop_
_symmetry_equiv_pos_site_id
_symmetry_equiv_pos_as_xyz
1 x,y,z
_cell_length_a 27.565(10)
_cell_length_b 38.624(16)
_cell_length_c 10.748(4)
_cell_angle_alpha 93.49(3)
_cell_angle_beta 90.90(3)
_cell_angle_gamma 117.15(3)
_cell_formula_units_Z 16
loop_
_atom_type_symbol
_atom_type_radius_bond
C 0.68
H 0.23
O 0.68
loop_
_atom_site_label
_atom_site_type_symbol
_atom_site_fract_x
_atom_site_fract_y
_atom_site_fract_z
O1 O 0.6608(4) 0.4229(2) 0.6027(5)
H1 H 0.658(4) 0.438(2) 0.673(5)
C1 C 0.6508(3) 0.3294(2) 0.7197(7)
H2 H 0.62780 0.31260 0.78070
H3 H 0.68850 0.33900 0.74930
C2 C 0.6385(4) 0.3644(3) 0.7111(7)
H4 H 0.60050 0.35500 0.68490
H5 H 0.64460 0.37820 0.79290
C3 C 0.6741(4) 0.3919(3) 0.6202(8)
H6 H 0.71240 0.40280 0.64990
C4 C 0.6663(3) 0.3697(2) 0.4923(7)
H7 H 0.63000 0.36260 0.45760
H8 H 0.69240 0.38700 0.43680
C5 C 0.6733(3) 0.3338(2) 0.4969(7)
C6 C 0.7034(3) 0.3260(3) 0.4164(7)
H9 H 0.72170 0.34460 0.36040
C7 C 0.7108(3) 0.2893(2) 0.4076(7)
H10 H 0.74730 0.29570 0.43900
H11 H 0.70720 0.27980 0.32060
C8 C 0.6695(3) 0.2573(2) 0.4807(7)
H12 H 0.63420 0.24480 0.43410
C9 C 0.6636(3) 0.2753(2) 0.6074(7)
H13 H 0.70050 0.28990 0.64630
C10 C 0.6413(3) 0.3048(2) 0.5935(7)
C11 C 0.6310(4) 0.2438(2) 0.6935(7)
H14 H 0.59320 0.23090 0.66250
H15 H 0.63230 0.25620 0.77550
C12 C 0.6503(4) 0.2123(2) 0.7077(7)
H16 H 0.68640 0.22410 0.74910
H17 H 0.62550 0.19230 0.75810
C13 C 0.6520(3) 0.1942(3) 0.5768(7)
C14 C 0.6895(3) 0.2271(2) 0.5017(7)
H18 H 0.72450 0.24070 0.54940
C15 C 0.6989(4) 0.2067(3) 0.3853(8)
H19 H 0.73270 0.22360 0.34840
H20 H 0.66900 0.19860 0.32360
C16 C 0.7018(4) 0.1709(3) 0.4355(9)
H21 H 0.73890 0.17440 0.43460
H22 H 0.67840 0.14740 0.38380
C17 C 0.6823(4) 0.1676(3) 0.5714(10)
H23 H 0.71520 0.18100 0.62670
C18 C 0.5935(3) 0.1703(3) 0.5183(8)
H24 H 0.57240 0.14990 0.57060
H25 H 0.59490 0.15910 0.43710
H26 H 0.57660 0.18710 0.51070
C19 C 0.5801(3) 0.2853(2) 0.5546(7)
H27 H 0.55990 0.26730 0.61460
H28 H 0.57430 0.27150 0.47400
H29 H 0.56790 0.30480 0.55090
C20 C 0.6536(5) 0.1258(3) 0.6071(11)
H30 H 0.62170 0.11180 0.54930
C21 C 0.6326(6) 0.1227(3) 0.7386(11)
H31 H 0.61030 0.13580 0.74650
H32 H 0.66290 0.13470 0.79850
H33 H 0.61130 0.09580 0.75360
C22 C 0.6898(5) 0.1054(3) 0.5905(12)
H34 H 0.71880 0.11610 0.65520
H35 H 0.70660 0.11130 0.51070
C23 C 0.6592(6) 0.0606(4) 0.5956(18)
H36 H 0.62960 0.04920 0.53240
H37 H 0.64400 0.05400 0.67670
C24 C 0.7013(8) 0.0443(5) 0.572(3)
H38 H 0.73120 0.06200 0.52470
H39 H 0.71620 0.04120 0.65040
C25 C 0.6696(14) 0.0045(9) 0.497(4)
H40 H 0.63890 0.00110 0.44210
C26 C 0.719(2) 0.0062(11) 0.437(6)
H41 H 0.70980 -0.01860 0.39340
H42 H 0.74720 0.01200 0.50000
H43 H 0.73130 0.02610 0.37950
C27 C 0.656(3) -0.0119(11) 0.628(5)
H44 H 0.63820 -0.03990 0.61810
H45 H 0.63270 -0.00290 0.66760
H46 H 0.68940 -0.00300 0.67780
O2 O 0.6161(3) 0.41311(19) 0.0731(5)
H47 H 0.609(3) 0.4195(14) 0.164(4)
C28 C 0.6054(3) 0.3174(2) 0.1700(7)
H48 H 0.60980 0.30930 0.25140
H49 H 0.63340 0.31640 0.11860
C29 C 0.6147(3) 0.3599(2) 0.1855(6)
H50 H 0.58960 0.36180 0.24450
H51 H 0.65160 0.37660 0.21910
C30 C 0.6063(3) 0.3736(3) 0.0630(7)
H52 H 0.63180 0.37130 0.00480
C31 C 0.5496(3) 0.3475(3) 0.0115(7)
H53 H 0.54500 0.35540 -0.07010
H54 H 0.52390 0.35080 0.06540
C32 C 0.5356(3) 0.3042(3) -0.0010(7)
C33 C 0.5134(4) 0.2822(3) -0.1069(8)
H55 H 0.50730 0.29440 -0.17300
C34 C 0.4974(4) 0.2396(3) -0.1289(8)
H56 H 0.51980 0.23620 -0.19230
H57 H 0.45970 0.22610 -0.16090
C35 C 0.5032(3) 0.2204(3) -0.0101(7)
H58 H 0.46990 0.21250 0.03610
C36 C 0.5511(3) 0.2495(2) 0.0726(6)
H59 H 0.58330 0.25680 0.02270
C37 C 0.5489(3) 0.2879(2) 0.1107(7)
C38 C 0.5605(4) 0.2297(3) 0.1845(8)
H60 H 0.59330 0.24830 0.23170
H61 H 0.53010 0.22310 0.23870
C39 C 0.5659(4) 0.1933(3) 0.1483(8)
H62 H 0.56890 0.18150 0.22300
H63 H 0.59890 0.20020 0.10340
C40 C 0.5172(4) 0.1642(3) 0.0671(8)
C41 C 0.5107(4) 0.1852(3) -0.0447(8)
H64 H 0.54570 0.19500 -0.08500
C42 C 0.4697(5) 0.1528(3) -0.1362(10)
H65 H 0.47540 0.16010 -0.22150
H66 H 0.43240 0.14620 -0.11640
C43 C 0.4829(5) 0.1185(3) -0.1155(10)
H67 H 0.44990 0.09540 -0.09820
H68 H 0.49790 0.11230 -0.18980
C44 C 0.5248(4) 0.1309(3) -0.0037(9)
H69 H 0.56110 0.14290 -0.03770
C45 C 0.4658(4) 0.1468(3) 0.1399(9)
H70 H 0.43580 0.12860 0.08560
H71 H 0.45790 0.16720 0.17300
H72 H 0.47110 0.13340 0.20720
C46 C 0.5060(3) 0.2822(3) 0.2095(7)
H73 H 0.51410 0.27190 0.28150
H74 H 0.47030 0.26440 0.17470
H75 H 0.50700 0.30690 0.23360
C47 C 0.5197(5) 0.0949(3) 0.0632(10)
H76 H 0.48280 0.08120 0.09350
C48 C 0.5611(6) 0.1088(3) 0.1751(10)
H77 H 0.55500 0.12670 0.23010
H78 H 0.59750 0.12150 0.14600
H79 H 0.55690 0.08670 0.21910
C49 C 0.5302(6) 0.0662(3) -0.0263(10)
H80 H 0.50700 0.06020 -0.10160
H81 H 0.56780 0.07900 -0.04980
C50 C 0.5192(7) 0.0281(4) 0.0302(13)
H82 H 0.54110 0.03380 0.10730
H83 H 0.48110 0.01430 0.04970
C51 C 0.5329(9) 0.0022(5) -0.0606(14)
H84 H 0.50610 -0.00720 -0.13020
H85 H 0.56820 0.01820 -0.09340
C52 C 0.5345(11) -0.0317(6) -0.009(2)
H86 H 0.49720 -0.05080 0.00800
C53 C 0.5538(14) -0.0474(7) -0.117(2)
H87 H 0.55570 -0.07050 -0.09520
H88 H 0.58930 -0.02820 -0.13720
H89 H 0.52870 -0.05370 -0.18750
C54 C 0.5686(14) -0.0252(7) 0.0975(19)
H90 H 0.56650 -0.04960 0.11940
H91 H 0.55710 -0.01390 0.16570
H92 H 0.60550 -0.00770 0.08020
O3 O 0.8399(3) 0.54554(18) 0.5853(5)
H93 H 0.848(4) 0.5605(14) 0.663(6)
C55 C 0.8312(4) 0.4480(2) 0.4832(8)
H94 H 0.81920 0.43260 0.40380
H95 H 0.80690 0.43290 0.54540
C56 C 0.8255(4) 0.4851(3) 0.4735(8)
H96 H 0.78770 0.47850 0.45360
H97 H 0.84730 0.49960 0.40700
C57 C 0.8445(4) 0.5102(2) 0.5967(8)
H98 H 0.82090 0.49580 0.66230
C58 C 0.9025(3) 0.5200(2) 0.6323(8)
H99 H 0.91230 0.53380 0.71440
H100 H 0.92650 0.53720 0.57360
C59 C 0.9113(3) 0.4838(2) 0.6334(7)
C60 C 0.9367(3) 0.4779(2) 0.7282(7)
H101 H 0.94880 0.49660 0.79530
C61 C 0.9480(3) 0.4434(2) 0.7375(6)
H102 H 0.98550 0.45260 0.76740
H103 H 0.92460 0.42670 0.79820
C62 C 0.9385(3) 0.4198(2) 0.6151(6)
H104 H 0.96970 0.43330 0.56340
C63 C 0.8867(3) 0.4154(2) 0.5470(6)
H105 H 0.85770 0.40440 0.60600
C64 C 0.8896(3) 0.4546(3) 0.5182(7)
C65 C 0.8690(3) 0.3850(2) 0.4326(7)
H106 H 0.83340 0.38050 0.40040
H107 H 0.89460 0.39570 0.36760
C66 C 0.8663(3) 0.3467(2) 0.4618(7)
H108 H 0.85690 0.32980 0.38540
H109 H 0.83730 0.33440 0.51870
C67 C 0.9197(3) 0.3505(3) 0.5201(7)
C68 C 0.9330(3) 0.3799(2) 0.6357(6)
H110 H 0.90150 0.36800 0.68760
C69 C 0.9790(3) 0.3761(3) 0.7054(8)
H111 H 1.01420 0.39290 0.67350
H112 H 0.97980 0.38290 0.79400
C70 C 0.9653(3) 0.3333(3) 0.6808(9)
H113 H 0.95570 0.32020 0.75750
H114 H 0.99650 0.33100 0.64870
C71 C 0.9156(3) 0.3142(3) 0.5821(8)
H115 H 0.88210 0.30380 0.62820
C72 C 0.9655(4) 0.3657(3) 0.4254(8)
H116 H 0.95610 0.34690 0.35510
H117 H 0.99930 0.36960 0.46490
H118 H 0.96950 0.38990 0.39770
C73 C 0.9287(4) 0.4732(3) 0.4102(7)
H119 H 0.92990 0.49790 0.39560
H120 H 0.91540 0.45610 0.33560
H121 H 0.96470 0.47710 0.43340
C74 C 0.9160(4) 0.2798(3) 0.5015(9)
H122 H 0.95010 0.29070 0.45770
C75 C 0.8699(5) 0.2622(3) 0.4009(10)
H123 H 0.86940 0.28260 0.35520
H124 H 0.83570 0.24870 0.43920
H125 H 0.87570 0.24430 0.34500
C76 C 0.9184(6) 0.2498(3) 0.5823(13)
H126 H 0.94460 0.24300 0.54330
H127 H 0.93640 0.26470 0.65990
C77 C 0.8831(8) 0.2185(5) 0.616(2)
H128 H 0.86780 0.20200 0.53920
H129 H 0.85450 0.22430 0.64690
C78 C 0.8891(11) 0.1911(6) 0.7118(18)
H130 H 0.91840 0.20660 0.77340
H131 H 0.85560 0.17830 0.75510
C79 C 0.9012(11) 0.1614(7) 0.646(2)
H132 H 0.93380 0.17150 0.59740
C80 C 0.8965(15) 0.1327(7) 0.731(2)
H133 H 0.90010 0.11180 0.68610
H134 H 0.86150 0.12260 0.76710
H135 H 0.92480 0.14450 0.79570
C81 C 0.8483(9) 0.1416(7) 0.574(2)
H136 H 0.84780 0.12090 0.51930
H137 H 0.84360 0.16010 0.52580
H138 H 0.81920 0.13110 0.63030
O4 O 0.8418(3) 0.55523(19) 0.0903(6)
H139 H 0.858(3) 0.5716(10) 0.180(4)
C82 C 0.7730(3) 0.4458(2) 0.0944(7)
H140 H 0.77870 0.44370 0.18230
H141 H 0.73590 0.42670 0.06920
C83 C 0.7789(4) 0.4868(3) 0.0775(8)
H142 H 0.76950 0.48840 -0.00860
H143 H 0.75390 0.49150 0.13000
C84 C 0.8360(4) 0.5173(3) 0.1109(8)
H144 H 0.84430 0.51650 0.19940
C85 C 0.8763(4) 0.5099(2) 0.0336(8)
H145 H 0.91320 0.52860 0.06180
H146 H 0.87110 0.51360 -0.05310
C86 C 0.8693(3) 0.4685(2) 0.0438(6)
C87 C 0.9120(3) 0.4625(3) 0.0704(7)
H147 H 0.94520 0.48450 0.08890
C88 C 0.9118(3) 0.4239(2) 0.0735(7)
H148 H 0.91780 0.41940 0.15910
H149 H 0.94160 0.42410 0.02600
C89 C 0.8579(3) 0.3908(2) 0.0195(7)
H150 H 0.85810 0.39050 -0.07170
C90 C 0.8095(3) 0.3974(2) 0.0630(6)
H151 H 0.81320 0.40060 0.15430
C91 C 0.8123(3) 0.4358(2) 0.0207(6)
C92 C 0.7548(3) 0.3622(2) 0.0301(8)
H152 H 0.74690 0.36070 -0.05890
H153 H 0.72680 0.36630 0.07260
C93 C 0.7510(3) 0.3223(2) 0.0643(8)
H154 H 0.75290 0.32180 0.15430
H155 H 0.71630 0.30120 0.03240
C94 C 0.7979(3) 0.3160(2) 0.0085(7)
C95 C 0.8519(3) 0.3518(2) 0.0564(7)
H156 H 0.85120 0.35300 0.14770
C96 C 0.8970(3) 0.3401(3) 0.0237(8)
H157 H 0.90820 0.34580 -0.06080
H158 H 0.92860 0.35350 0.08120
C97 C 0.8690(3) 0.2964(3) 0.0374(8)
H159 H 0.88610 0.29060 0.10720
H160 H 0.87290 0.28280 -0.03750
C98 C 0.8074(3) 0.2822(2) 0.0597(7)
H161 H 0.80360 0.28330 0.15020
C99 C 0.7921(3) 0.3110(2) -0.1364(6)
H162 H 0.82180 0.30730 -0.16850
H163 H 0.79270 0.33400 -0.16780
H164 H 0.75810 0.28870 -0.16230
C100 C 0.7953(3) 0.4310(2) -0.1205(6)
H165 H 0.75900 0.41010 -0.13510
H166 H 0.82020 0.42520 -0.16840
H167 H 0.79640 0.45490 -0.14510
C101 C 0.7716(3) 0.2401(3) 0.0093(8)
H168 H 0.77720 0.23760 -0.08000
C102 C 0.7109(3) 0.2273(2) 0.0269(8)
H169 H 0.68990 0.20070 -0.00530
H170 H 0.69980 0.24360 -0.01720
H171 H 0.70500 0.22970 0.11410
C103 C 0.7903(4) 0.2136(3) 0.0781(9)
H172 H 0.82880 0.22230 0.06570
H173 H 0.78610 0.21680 0.16680
C104 C 0.7591(5) 0.1703(3) 0.0354(12)
H174 H 0.76400 0.16660 -0.05280
H175 H 0.72050 0.16120 0.04690
C105 C 0.7797(6) 0.1460(4) 0.1106(14)
H176 H 0.81300 0.14770 0.07620
H177 H 0.78800 0.15670 0.19680
C106 C 0.736(1) 0.1027(4) 0.106(2)
H178 H 0.70150 0.09840 0.14180
C107 C 0.7311(13) 0.0878(6) -0.015(2)
H179 H 0.70470 0.06070 -0.02160
H180 H 0.76570 0.09020 -0.03990
H181 H 0.71940 0.10180 -0.06840
C108 C 0.7659(10) 0.0835(7) 0.169(2)
H182 H 0.77180 0.09190 0.25660
H183 H 0.80040 0.09070 0.13250
H184 H 0.74430 0.05560 0.15930
O5 O 0.1354(3) 0.4183(2) 0.5397(6)
H185 H 0.165(3) 0.4318(14) 0.610(7)
C109 C 0.1747(3) 0.3403(3) 0.4166(8)
H186 H 0.14380 0.32560 0.35820
H187 H 0.20730 0.34300 0.37600
C110 C 0.1792(4) 0.3811(3) 0.4462(9)
H188 H 0.21240 0.39690 0.49700
H189 H 0.18200 0.39350 0.36880
C111 C 0.1323(4) 0.3802(3) 0.5122(9)
H190 H 0.09930 0.36450 0.45910
C112 C 0.1270(4) 0.3600(3) 0.6337(8)
H191 H 0.09450 0.35740 0.67450
H192 H 0.15840 0.37560 0.69000
C113 C 0.1235(3) 0.3192(3) 0.6039(9)
C114 C 0.0821(4) 0.2878(3) 0.642(1)
H193 H 0.05370 0.29100 0.67790
C115 C 0.0776(4) 0.2475(3) 0.6314(10)
H194 H 0.04880 0.23130 0.56980
H195 H 0.06800 0.23620 0.71100
C116 C 0.1322(4) 0.2483(3) 0.5927(9)
H196 H 0.15890 0.25770 0.66380
C117 C 0.1537(3) 0.2748(3) 0.4872(9)
H197 H 0.12310 0.26590 0.42530
C118 C 0.1679(3) 0.3177(3) 0.5296(8)
C119 C 0.1991(4) 0.2714(3) 0.4202(10)
H198 H 0.23250 0.28460 0.47220
H199 H 0.20470 0.28450 0.34370
C120 C 0.1877(4) 0.2289(3) 0.3881(10)
H200 H 0.15980 0.21760 0.32100
H201 H 0.22070 0.22900 0.35720
C121 C 0.1699(4) 0.2034(3) 0.4932(11)
C122 C 0.1203(5) 0.2055(3) 0.5429(11)
H202 H 0.09340 0.19770 0.47270
C123 C 0.0963(5) 0.1749(4) 0.6359(13)
H203 H 0.05750 0.16640 0.64250
H204 H 0.11450 0.18440 0.71780
C124 C 0.1076(6) 0.1409(3) 0.5759(14)
H205 H 0.12600 0.13270 0.63630
H206 H 0.07370 0.11850 0.54610
C125 C 0.1450(6) 0.1590(4) 0.4646(12)
H207 H 0.12070 0.15250 0.38990
C126 C 0.2148(4) 0.2155(3) 0.5945(10)
H208 H 0.20160 0.19840 0.66090
H209 H 0.22540 0.24180 0.62630
H210 H 0.24570 0.21380 0.56030
C127 C 0.2202(4) 0.3366(3) 0.6163(9)
H211 H 0.25010 0.33640 0.57250
H212 H 0.21460 0.32220 0.68890
H213 H 0.22840 0.36310 0.64130
C128 C 0.1806(6) 0.1382(4) 0.4429(15)
H214 H 0.20400 0.14200 0.51750
C129 C 0.2164(6) 0.1566(4) 0.3288(15)
H215 H 0.23920 0.14420 0.31180
H216 H 0.23890 0.18400 0.34840
H217 H 0.19300 0.15260 0.25670
C130 C 0.1438(6) 0.0936(3) 0.4072(16)
H218 H 0.11520 0.08320 0.46600
H219 H 0.12660 0.09020 0.32480
C131 C 0.1779(7) 0.0706(4) 0.4078(19)
H220 H 0.20540 0.07980 0.34610
H221 H 0.19610 0.07450 0.48910
C132 C 0.1387(8) 0.0267(4) 0.377(2)
H222 H 0.11470 0.01680 0.44560
H223 H 0.11620 0.02360 0.30290
C133 C 0.1705(13) 0.0034(7) 0.356(4)
H224 H 0.19140 0.01080 0.28120
C134 C 0.206(2) 0.0082(12) 0.464(4)
H225 H 0.23400 0.03490 0.47560
H226 H 0.22340 -0.00840 0.45090
H227 H 0.18540 0.00150 0.53750
C135 C 0.1256(12) -0.0379(6) 0.338(4)
H228 H 0.09830 -0.03910 0.27880
H229 H 0.10940 -0.04610 0.41610
H230 H 0.14040 -0.05470 0.30700
O6 O 0.1187(3) 0.41050(19) 0.0493(6)
H231 H 0.131(3) 0.4301(8) 0.119(6)
C136 C 0.0319(4) 0.3141(3) 0.1845(8)
H232 H -0.00480 0.30330 0.21430
H233 H 0.05640 0.31620 0.25360
C137 C 0.0480(4) 0.3556(3) 0.1425(8)
H234 H 0.02090 0.35420 0.08100
H235 H 0.04850 0.37250 0.21370
C138 C 0.1032(4) 0.3727(3) 0.0872(8)
H236 H 0.13030 0.37390 0.14970
C139 C 0.1017(3) 0.3465(3) -0.0248(8)
H237 H 0.13760 0.35690 -0.05910
H238 H 0.07620 0.34620 -0.08860
C140 C 0.0848(3) 0.3053(3) 0.0094(8)
C141 C 0.1155(4) 0.2876(3) -0.0244(9)
H239 H 0.14630 0.30160 -0.06860
C142 C 0.1037(4) 0.2464(3) 0.0044(10)
H240 H 0.13030 0.24780 0.06740
H241 H 0.10750 0.23260 -0.07040
C143 C 0.0457(4) 0.2233(3) 0.0513(9)
H242 H 0.01950 0.21390 -0.02060
C144 C 0.0321(3) 0.2498(3) 0.1393(8)
H243 H 0.06110 0.26030 0.20540
C145 C 0.0341(3) 0.2854(3) 0.0784(8)
C146 C -0.0213(4) 0.2258(3) 0.2045(10)
H244 H -0.02600 0.24260 0.26880
H245 H -0.05180 0.21690 0.14390
C147 C -0.0224(5) 0.1903(3) 0.2640(11)
H246 H -0.05770 0.17560 0.29870
H247 H 0.00510 0.19920 0.33190
C148 C -0.0118(5) 0.1634(3) 0.1689(10)
C149 C 0.0424(4) 0.1884(3) 0.1147(10)
H248 H 0.06900 0.19910 0.18580
C150 C 0.0581(6) 0.1603(3) 0.0365(12)
H249 H 0.09730 0.17070 0.03260
H250 H 0.04150 0.15430 -0.04730
C151 C 0.0329(6) 0.1241(4) 0.1171(14)
H251 H 0.00970 0.10100 0.06370
H252 H 0.06200 0.12000 0.15410
C152 C -0.0008(6) 0.1302(4) 0.2211(13)
H253 H 0.02400 0.14200 0.29500
C153 C -0.0584(4) 0.1451(3) 0.0654(11)
H254 H -0.09220 0.12910 0.10220
H255 H -0.05020 0.12940 0.00510
H256 H -0.06160 0.16550 0.02490
C154 C -0.0157(3) 0.2726(3) -0.0163(8)
H257 H -0.04900 0.25960 0.02610
H258 H -0.01420 0.25510 -0.08180
H259 H -0.01460 0.29520 -0.05140
C155 C -0.0484(7) 0.0918(4) 0.2594(16)
H260 H -0.07330 0.07900 0.18610
C156 C -0.0794(8) 0.1022(5) 0.3591(19)
H261 H -0.09020 0.12070 0.32910
H262 H -0.05630 0.11330 0.43340
H263 H -0.11130 0.07900 0.37740
C157 C -0.0264(7) 0.0649(4) 0.3012(19)
H264 H -0.00590 0.07610 0.38010
H265 H -0.00100 0.06440 0.24080
C158 C -0.0685(8) 0.0229(5) 0.318(2)
H266 H -0.09130 0.01160 0.24200
H267 H -0.09160 0.02230 0.38550
C159 C -0.0370(9) -0.0011(6) 0.348(3)
H268 H -0.00730 0.00510 0.29220
H269 H -0.02150 0.00610 0.43280
C160 C -0.0745(17) -0.0437(7) 0.333(4)
H270 H -0.10900 -0.05230 0.28480
C161 C -0.038(2) -0.0610(14) 0.292(5)
H271 H -0.05510 -0.08840 0.30520
H272 H -0.00390 -0.04820 0.34060
H273 H -0.03120 -0.05750 0.20560
C162 C -0.076(3) -0.0406(14) 0.477(4)
H274 H -0.09550 -0.06630 0.50580
H275 H -0.09430 -0.02540 0.50170
H276 H -0.03950 -0.02820 0.51320
O7 O 0.3405(3) 0.55436(18) 0.6319(5)
H277 H 0.345(4) 0.5676(15) 0.712(5)
C163 C 0.3288(3) 0.4575(2) 0.5147(8)
H278 H 0.31450 0.44310 0.43450
H279 H 0.30650 0.44170 0.57820
C164 C 0.3231(4) 0.4948(3) 0.5167(8)
H280 H 0.34280 0.50990 0.44890
H281 H 0.28490 0.48830 0.50390
C165 C 0.3451(4) 0.5187(3) 0.6385(8)
H282 H 0.32280 0.50410 0.70550
C166 C 0.4033(3) 0.5268(2) 0.6647(7)
H283 H 0.42620 0.54420 0.60500
H284 H 0.41540 0.54000 0.74730
C167 C 0.4106(3) 0.4907(2) 0.6576(7)
C168 C 0.4365(3) 0.4830(2) 0.7454(7)
H285 H 0.44890 0.50060 0.81560
C169 C 0.4484(3) 0.4489(2) 0.7452(6)
H286 H 0.42560 0.43110 0.80410
H287 H 0.48620 0.45800 0.77330
C170 C 0.4385(3) 0.4266(2) 0.6152(7)
H288 H 0.46880 0.44120 0.56260
C171 C 0.3848(3) 0.4231(2) 0.5558(6)
H289 H 0.35650 0.41070 0.61540
C172 C 0.3874(3) 0.4634(2) 0.5367(7)
C173 C 0.3672(3) 0.3958(2) 0.4361(7)
H290 H 0.33200 0.39240 0.40540
H291 H 0.39330 0.40790 0.37300
C174 C 0.3634(3) 0.3559(2) 0.4552(7)
H292 H 0.35270 0.34010 0.37630
H293 H 0.33540 0.34280 0.51350
C175 C 0.4183(3) 0.3590(3) 0.5058(7)
C176 C 0.4335(3) 0.3861(2) 0.6267(7)
H294 H 0.40290 0.37330 0.68060
C177 C 0.4815(3) 0.3821(3) 0.6876(8)
H295 H 0.48430 0.38820 0.77720
H296 H 0.51570 0.39900 0.65230
C178 C 0.4654(3) 0.3385(3) 0.6551(8)
H297 H 0.45560 0.32440 0.72970
H298 H 0.49580 0.33590 0.61980
C179 C 0.4159(3) 0.3218(2) 0.5591(7)
H299 H 0.38310 0.31080 0.60740
C180 C 0.4635(3) 0.3747(3) 0.4107(7)
H300 H 0.46440 0.39750 0.37750
H301 H 0.45600 0.35500 0.34400
H302 H 0.49820 0.38130 0.45150
C181 C 0.4238(4) 0.4839(3) 0.4286(7)
H303 H 0.46000 0.48700 0.44470
H304 H 0.42520 0.50900 0.42270
H305 H 0.40870 0.46830 0.35160
C182 C 0.4140(4) 0.2884(2) 0.4729(7)
H306 H 0.44910 0.29730 0.43340
C183 C 0.3685(4) 0.2747(3) 0.3705(8)
H307 H 0.37330 0.29630 0.32340
H308 H 0.33370 0.26470 0.40790
H309 H 0.36980 0.25450 0.31600
C184 C 0.4051(4) 0.2537(3) 0.5493(8)
H310 H 0.43210 0.26320 0.61840
H311 H 0.36950 0.24410 0.58440
C185 C 0.4084(5) 0.2200(3) 0.4790(9)
H312 H 0.44590 0.22830 0.45710
H313 H 0.38620 0.21350 0.40190
C186 C 0.3898(6) 0.1839(3) 0.5498(11)
H314 H 0.35260 0.17580 0.57390
H315 H 0.41280 0.18990 0.62530
C187 C 0.3925(8) 0.1496(4) 0.4689(17)
H316 H 0.42930 0.15560 0.44340
C188 C 0.3672(12) 0.1144(6) 0.545(2)
H317 H 0.38350 0.12130 0.62800
H318 H 0.37350 0.09370 0.50670
H319 H 0.32870 0.10590 0.54790
C189 C 0.3497(13) 0.1328(8) 0.363(2)
H320 H 0.32090 0.13960 0.37970
H321 H 0.33510 0.10490 0.35540
H322 H 0.36590 0.14320 0.28670
C190? C 0.4518(10) 0.1544(9) 0.487(2)
H323? H 0.45580 0.14560 0.56680
H324? H 0.47770 0.18130 0.48410
H325? H 0.45820 0.13900 0.42210
#END
