
#######################################################################
#
#                 Cambridge Crystallographic Data Centre
#                                CCDC
#
#######################################################################
#
# If this CIF has been generated from an entry in the Cambridge
# Structural Database, then it will include bibliographic, chemical,
# crystal, experimental, refinement or atomic coordinate data resulting
# from the CCDC's data processing and validation procedures.
#
#######################################################################

data_CSD_CIF_CHOLES20
_audit_creation_date 1979-10-24
_audit_creation_method CSD-ConQuest-V1
_database_code_CSD CHOLES20
_database_code_depnum_ccdc_archive 'CCDC 1124488'
_chemical_formula_sum 'C27 H48 O2'
_chemical_formula_moiety
;
C27 H46 O1,H2 O1
;
_journal_coeditor_code "IUCr A17482"
_journal_coden_Cambridge 107
_journal_volume 35
_journal_year 1979
_journal_page_first 1123
_journal_name_full 'Acta Crystallogr.,Sect.B:Struct.Crystallogr.Cryst.Chem. '
loop_
_publ_author_name
"B.M.Craven"
_chemical_name_systematic
;
Cholesterol monohydrate
;
_chemical_name_common
;
Teaching Subset: Fundamental Chemistry
;
_cell_volume   5128.193
_exptl_special_details
;
triclinic III polymorph

;
_diffrn_ambient_temperature ?
_diffrn_special_details
;
The study was carried out at room temperature,in the range 283-303K

;
_symmetry_cell_setting triclinic
_symmetry_space_group_name_H-M 'P 1'
_symmetry_Int_Tables_number 1
loop_
_symmetry_equiv_pos_site_id
_symmetry_equiv_pos_as_xyz
1 x,y,z
_cell_length_a 12.39(3)
_cell_length_b 12.41(3)
_cell_length_c 34.36(6)
_cell_angle_alpha 91.9(1)
_cell_angle_beta 98.1(1)
_cell_angle_gamma 100.8(1)
_cell_formula_units_Z 8
loop_
_atom_type_symbol
_atom_type_radius_bond
C 0.68
O 0.68
loop_
_atom_site_label
_atom_site_type_symbol
_atom_site_fract_x
_atom_site_fract_y
_atom_site_fract_z
O1 O 0.03200 0.60200 0.52200
O2 O 0.52800 0.62100 0.51800
O3 O 0.48200 0.30400 0.48800
O4 O 0.98000 0.30500 0.49300
O5 O 0.36000 0.42600 0.52800
C1 C 0.25000 0.40700 0.62400
C2 C 0.25300 0.42900 0.58400
C3 C 0.36800 0.41600 0.57200
C4 C 0.36900 0.28200 0.57300
C5 C 0.37000 0.26400 0.61900
C6 C 0.44100 0.21600 0.63800
C7 C 0.44900 0.18600 0.67900
C8 C 0.35000 0.19700 0.69700
C9 C 0.30500 0.30300 0.67900
C10 C 0.27600 0.29100 0.63500
C11 C 0.20800 0.31700 0.70300
C12 C 0.23200 0.31900 0.75000
C13 C 0.27800 0.22100 0.76400
C14 C 0.37300 0.21200 0.74000
C15 C 0.42800 0.12100 0.76400
C16 C 0.39800 0.12700 0.80600
C17 C 0.33300 0.22500 0.80700
C18 C 0.18600 0.12200 0.75400
C19 C 0.17400 0.21100 0.62400
C20 C 0.25800 0.20800 0.83600
C21 C 0.19100 0.29600 0.83800
C22 C 0.33600 0.20400 0.87600
C23 C 0.26400 0.18400 0.91500
C24 C 0.18300 0.08100 0.90800
C25 C 0.14300 0.06200 0.95100
C26 C 0.03000 0.08000 0.95200
C27 C 0.13000 -0.05600 0.96000
O6 O 0.16300 -0.00100 0.48800
C28 C 0.24400 -0.00700 0.38600
C29 C 0.23700 -0.03700 0.43000
C30 C 0.18900 0.05300 0.44600
C31 C 0.07700 0.06500 0.42600
C32 C 0.10100 0.09400 0.38500
C33 C 0.05800 0.18400 0.36600
C34 C 0.06400 0.21900 0.32700
C35 C 0.08700 0.12600 0.30000
C36 C 0.17500 0.07100 0.32200
C37 C 0.15200 0.02300 0.36200
C38 C 0.22300 -0.00600 0.29600
C39 C 0.25700 0.04600 0.25600
C40 C 0.16200 0.09500 0.23600
C41 C 0.13000 0.17900 0.26300
C42 C 0.05800 0.24100 0.23700
C43 C 0.10500 0.24600 0.19900
C44 C 0.19700 0.17400 0.20400
C45 C 0.06600 0.00600 0.21900
C46 C 0.06800 -0.08700 0.35000
C47 C 0.20300 0.12200 0.15900
C48 C 0.27000 0.04600 0.16300
C49 C 0.25500 0.22500 0.13600
C50 C 0.23400 0.19500 0.08800
C51 C 0.28000 0.29800 0.06900
C52 C 0.40600 0.33300 0.08300
C53 C 0.44500 0.25000 0.05500
C54 C 0.44500 0.44000 0.06300
O7 O 0.97900 0.80600 0.49100
O8 O 0.01200 0.11100 0.52100
O9 O 0.49700 0.81900 0.48900
O10 O 0.53200 0.11500 0.52600
O11 O 0.35500 0.92500 0.52600
C55 C 0.25600 0.90400 0.62400
C56 C 0.25000 0.93000 0.58200
C57 C 0.36700 0.90900 0.56900
C58 C 0.36400 0.78700 0.57100
C59 C 0.37000 0.76500 0.61700
C60 C 0.44500 0.71700 0.63700
C61 C 0.44600 0.68800 0.67700
C62 C 0.35300 0.70300 0.69800
C63 C 0.30900 0.80300 0.68100
C64 C 0.27600 0.79400 0.63500
C65 C 0.20600 0.81600 0.70200
C66 C 0.23600 0.82200 0.74700
C67 C 0.27900 0.72200 0.76300
C68 C 0.37400 0.71100 0.73900
C69 C 0.42400 0.62000 0.76300
C70 C 0.41000 0.63200 0.80600
C71 C 0.33400 0.72600 0.80500
C72 C 0.18200 0.62100 0.75300
C73 C 0.16600 0.71200 0.62100
C74 C 0.25900 0.71300 0.83800
C75 C 0.19500 0.79900 0.83800
C76 C 0.33500 0.70700 0.87700
C77 C 0.26000 0.68400 0.91200
C78 C 0.18000 0.58400 0.90900
C79 C 0.14200 0.56000 0.95000
C80 C 0.03000 0.57500 0.94600
C81 C 0.13500 0.44200 0.96000
O12 O 0.65900 0.00100 0.48400
C82 C 0.75000 0.00100 0.38500
C83 C 0.73000 -0.03500 0.42800
C84 C 0.68900 0.05700 0.44600
C85 C 0.57600 0.06400 0.42400
C86 C 0.60000 0.09700 0.38300
C87 C 0.56000 0.18500 0.36500
C88 C 0.56100 0.21600 0.32700
C89 C 0.58800 0.12900 0.29800
C90 C 0.67500 0.07400 0.32100
C91 C 0.64900 0.02500 0.35900
C92 C 0.72600 -0.00200 0.29500
C93 C 0.75700 0.04900 0.25400
C94 C 0.66400 0.09600 0.23400
C95 C 0.63300 0.17900 0.26200
C96 C 0.55700 0.24300 0.23600
C97 C 0.60700 0.24600 0.19900
C98 C 0.69400 0.16900 0.20300
C99 C 0.56500 0.00400 0.21700
C100 C 0.56800 -0.08400 0.34900
C101 C 0.70600 0.12700 0.16000
C102 C 0.77600 0.04700 0.16200
C103 C 0.74600 0.22600 0.13500
C104 C 0.73400 0.19800 0.09200
C105 C 0.78800 0.30100 0.07000
C106 C 0.90800 0.33600 0.07800
C107 C 0.94200 0.25200 0.05100
C108 C 0.95500 0.44500 0.06200
O13 O 0.84400 0.42800 0.52900
C109 C 0.86400 0.30200 0.63000
C110 C 0.89500 0.33500 0.58600
C111 C 0.80800 0.39100 0.56800
C112 C 0.79200 0.49100 0.59300
C113 C 0.76300 0.45800 0.63100
C114 C 0.68400 0.49600 0.64800
C115 C 0.66400 0.48600 0.68600
C116 C 0.75500 0.44300 0.71600
C117 C 0.80400 0.36100 0.69300
C118 C 0.85100 0.40100 0.65600
C119 C 0.88400 0.31000 0.71800
C120 C 0.85200 0.27000 0.75800
C121 C 0.81700 0.36000 0.77900
C122 C 0.72500 0.39200 0.75300
C123 C 0.66100 0.46200 0.77800
C124 C 0.66600 0.40300 0.81600
C125 C 0.73900 0.31000 0.81300
C126 C 0.90200 0.44700 0.79300
C127 C 0.96300 0.49100 0.66600
C128 C 0.80400 0.29900 0.85200
C129 C 0.88800 0.22600 0.85200
C130 C 0.70900 0.24000 0.87500
C131 C 0.74600 0.22200 0.91500
C132 C 0.65600 0.18300 0.94500
C133 C 0.59500 0.07500 0.93200
C134 C 0.68200 0.01100 0.95400
C135 C 0.51500 0.06200 0.96600
O14 O 0.16900 0.47500 0.48800
C136 C 0.14600 0.59600 0.38700
C137 C 0.13800 0.59100 0.43100
C138 C 0.16500 0.48600 0.44300
C139 C 0.28100 0.48300 0.44100
C140 C 0.29000 0.48500 0.39600
C141 C 0.33800 0.41500 0.37500
C142 C 0.35500 0.42400 0.33300
C143 C 0.33800 0.53100 0.31300
C144 C 0.24000 0.57000 0.33100
C145 C 0.26000 0.58800 0.37500
C146 C 0.22000 0.67600 0.30800
C147 C 0.19900 0.65900 0.26500
C148 C 0.30200 0.62900 0.24900
C149 C 0.31100 0.52000 0.27300
C150 C 0.40300 0.47600 0.24900
C151 C 0.37700 0.51400 0.20600
C152 C 0.28600 0.58900 0.20800
C153 C 0.40500 0.72300 0.26000
C154 C 0.34500 0.68600 0.39300
C155 C 0.28200 0.65900 0.17500
C156 C 0.20000 0.72700 0.17400
C157 C 0.28700 0.60600 0.13400
C158 C 0.28300 0.67400 0.09500
C159 C 0.40200 0.75200 0.10100
C160 C 0.40500 0.83000 0.06500
C161 C 0.44500 0.76500 0.03500
C162 C 0.49000 0.93000 0.07700
O15 O 0.83500 0.93000 0.52800
C163 C 0.85800 0.80200 0.62700
C164 C 0.89000 0.83500 0.58500
C165 C 0.80700 0.89100 0.56600
C166 C 0.78500 0.98700 0.58900
C167 C 0.76200 0.95600 0.63000
C168 C 0.67900 0.99400 0.64700
C169 C 0.66200 0.98500 0.68600
C170 C 0.75200 0.94500 0.71300
C171 C 0.80200 0.85800 0.69000
C172 C 0.84900 0.90200 0.65300
C173 C 0.89000 0.81100 0.71700
C174 C 0.85000 0.77100 0.75600
C175 C 0.81700 0.85900 0.77900
C176 C 0.72200 0.89200 0.75000
C177 C 0.65700 0.95300 0.77600
C178 C 0.66500 0.90100 0.81500
C179 C 0.74700 0.81200 0.81200
C180 C 0.90500 0.95000 0.79400
C181 C 0.96000 0.99000 0.66400
C182 C 0.80600 0.79500 0.85300
C183 C 0.88700 0.72500 0.85200
C184 C 0.71000 0.74400 0.87700
C185 C 0.75500 0.72200 0.91800
C186 C 0.66000 0.68500 0.94600
C187 C 0.59500 0.57900 0.93600
C188 C 0.68500 0.51000 0.95500
C189 C 0.52000 0.56500 0.96500
O16 O 0.66300 0.47700 0.48500
C190 C 0.64400 0.59900 0.38600
C191 C 0.64300 0.59400 0.43000
C192 C 0.66400 0.49000 0.44200
C193 C 0.78500 0.48500 0.44000
C194 C 0.79600 0.49300 0.39400
C195 C 0.84100 0.42500 0.37600
C196 C 0.85200 0.42300 0.33200
C197 C 0.83400 0.53200 0.31400
C198 C 0.74100 0.57800 0.32900
C199 C 0.76300 0.59000 0.37400
C200 C 0.71800 0.67800 0.30800
C201 C 0.69900 0.66400 0.26300
C202 C 0.80100 0.63000 0.24900
C203 C 0.81900 0.52700 0.27100
C204 C 0.90000 0.47700 0.24700
C205 C 0.87700 0.51500 0.20600
C206 C 0.78800 0.58600 0.20700
C207 C 0.90800 0.72400 0.25700
C208 C 0.84200 0.69100 0.39100
C209 C 0.78300 0.65800 0.17100
C210 C 0.70000 0.73000 0.17200
C211 C 0.78100 0.60500 0.13300
C212 C 0.79200 0.66600 0.09500
C213 C 0.89600 0.75000 0.10100
C214 C 0.90400 0.82700 0.06300
C215 C 0.95000 0.76400 0.03700
C216 C 0.99500 0.93000 0.07600
#END
