####################################################################### 
# 
# This file contains crystal structure data downloaded from the 
# Cambridge Structural Database (CSD) hosted by the Cambridge 
# Crystallographic Data Centre (CCDC).
# 
# Full information about CCDC data access policies and citation 
# guidelines are available at http://www.ccdc.cam.ac.uk/access/V1 
# 
# Audit and citation data items may have been added by the CCDC. 
# Please retain this information to preserve the provenance of 
# this file and to allow appropriate attribution of the data. 
# 
#######################################################################

data_4
_audit_block_doi                 10.5517/cczkf31
_database_code_depnum_ccdc_archive 'CCDC 910473'
loop_
_citation_id
_citation_doi
_citation_year
1 10.1016/j.poly.2013.04.032 2013
_audit_update_record             
;
2012-11-12 deposited with the CCDC.	2024-07-09 downloaded from the CCDC.
;
#TrackingRef 'cif.cif'


_audit_creation_method           SHELXL-97
_chemical_name_systematic        
;
?
;
_chemical_name_common            ?
_chemical_melting_point          ?
_chemical_formula_moiety         ?
_chemical_formula_sum            'C46 H52 Ag2 Fe2 I2 N8 O2'
_chemical_formula_weight         1330.20

loop_
_atom_type_symbol
_atom_type_description
_atom_type_scat_dispersion_real
_atom_type_scat_dispersion_imag
_atom_type_scat_source
C C 0.0033 0.0016 'International Tables Vol C Tables 4.2.6.8 and 6.1.1.4'
H H 0.0000 0.0000 'International Tables Vol C Tables 4.2.6.8 and 6.1.1.4'
N N 0.0061 0.0033 'International Tables Vol C Tables 4.2.6.8 and 6.1.1.4'
O O 0.0106 0.0060 'International Tables Vol C Tables 4.2.6.8 and 6.1.1.4'
Fe Fe 0.3463 0.8444 'International Tables Vol C Tables 4.2.6.8 and 6.1.1.4'
Ag Ag -0.8971 1.1015 'International Tables Vol C Tables 4.2.6.8 and 6.1.1.4'
I I -0.4742 1.8119 'International Tables Vol C Tables 4.2.6.8 and 6.1.1.4'

_symmetry_cell_setting           Orthorhombic
_symmetry_space_group_name_H-M   Pna2(1)

loop_
_symmetry_equiv_pos_as_xyz
'x, y, z'
'-x, -y, z+1/2'
'x+1/2, -y+1/2, z'
'-x+1/2, y+1/2, z+1/2'

_cell_length_a                   15.928(4)
_cell_length_b                   10.507(3)
_cell_length_c                   28.672(7)
_cell_angle_alpha                90.00
_cell_angle_beta                 90.00
_cell_angle_gamma                90.00
_cell_volume                     4798(2)
_cell_formula_units_Z            4
_cell_measurement_temperature    113(2)
_cell_measurement_reflns_used    17662
_cell_measurement_theta_min      1.3
_cell_measurement_theta_max      27.9

_exptl_crystal_description       Prism
_exptl_crystal_colour            Colorless
_exptl_crystal_size_max          0.20
_exptl_crystal_size_mid          0.20
_exptl_crystal_size_min          0.10
_exptl_crystal_density_meas      ?
_exptl_crystal_density_diffrn    1.841
_exptl_crystal_density_method    'not measured'
_exptl_crystal_F_000             2608
_exptl_absorpt_coefficient_mu    2.730
_exptl_absorpt_correction_type   multi-scan
_exptl_absorpt_correction_T_min  0.6113
_exptl_absorpt_correction_T_max  0.7720
_exptl_absorpt_process_details   CrystalClear

_exptl_special_details           
;
?
;

_diffrn_ambient_temperature      113(2)
_diffrn_radiation_wavelength     0.71073
_diffrn_radiation_type           MoK\a
_diffrn_radiation_source         'rotating anode'
_diffrn_radiation_monochromator  multilayer
_diffrn_measurement_device_type  'Rigaku Saturn724 CCD'
_diffrn_measurement_method       '\w and \f scans'
_diffrn_detector_area_resol_mean 14.22
_diffrn_standards_number         0
_diffrn_standards_interval_count 0
_diffrn_standards_interval_time  0
_diffrn_standards_decay_%        0
_diffrn_reflns_number            41055
_diffrn_reflns_av_R_equivalents  0.0526
_diffrn_reflns_av_sigmaI/netI    0.0652
_diffrn_reflns_limit_h_min       -20
_diffrn_reflns_limit_h_max       20
_diffrn_reflns_limit_k_min       -13
_diffrn_reflns_limit_k_max       13
_diffrn_reflns_limit_l_min       -33
_diffrn_reflns_limit_l_max       37
_diffrn_reflns_theta_min         1.42
_diffrn_reflns_theta_max         27.88
_reflns_number_total             10920
_reflns_number_gt                9740
_reflns_threshold_expression     >2sigma(I)

_computing_data_collection       CrystalClear
_computing_cell_refinement       CrystalClear
_computing_data_reduction        CrystalClear
_computing_structure_solution    'SHELXS-97 (Sheldrick, 1990)'
_computing_structure_refinement  'SHELXL-97 (Sheldrick, 1997)'
_computing_molecular_graphics    'Bruker SHELXTL'
_computing_publication_material  'CrystalStructure 3.8'

_refine_special_details          
;
Refinement of F^2^ against ALL reflections. The weighted R-factor wR and
goodness of fit S are based on F^2^, conventional R-factors R are based
on F, with F set to zero for negative F^2^. The threshold expression of
F^2^ > 2sigma(F^2^) is used only for calculating R-factors(gt) etc. and is
not relevant to the choice of reflections for refinement. R-factors based
on F^2^ are statistically about twice as large as those based on F, and R-
factors based on ALL data will be even larger.
;

_refine_ls_structure_factor_coef Fsqd
_refine_ls_matrix_type           full
_refine_ls_weighting_scheme      calc
_refine_ls_weighting_details     
'calc w=1/[\s^2^(Fo^2^)+(0.0240P)^2^+0.0000P] where P=(Fo^2^+2Fc^2^)/3'
_atom_sites_solution_primary     direct
_atom_sites_solution_secondary   difmap
_atom_sites_solution_hydrogens   geom
_refine_ls_hydrogen_treatment    constr
_refine_ls_extinction_method     none
_refine_ls_extinction_coef       ?
_refine_ls_abs_structure_details 'Flack H D (1983), Acta Cryst. A39, 876-881'
_refine_ls_abs_structure_Flack   0.00(3)
_refine_ls_number_reflns         10920
_refine_ls_number_parameters     560
_refine_ls_number_restraints     1
_refine_ls_R_factor_all          0.0353
_refine_ls_R_factor_gt           0.0318
_refine_ls_wR_factor_ref         0.0751
_refine_ls_wR_factor_gt          0.0606
_refine_ls_goodness_of_fit_ref   1.074
_refine_ls_restrained_S_all      1.074
_refine_ls_shift/su_max          0.001
_refine_ls_shift/su_mean         0.000

loop_
_atom_site_label
_atom_site_type_symbol
_atom_site_fract_x
_atom_site_fract_y
_atom_site_fract_z
_atom_site_U_iso_or_equiv
_atom_site_adp_type
_atom_site_occupancy
_atom_site_symmetry_multiplicity
_atom_site_calc_flag
_atom_site_refinement_flags
_atom_site_disorder_assembly
_atom_site_disorder_group
Ag1 Ag 0.84643(2) 1.11372(4) 0.170485(13) 0.02562(9) Uani 1 1 d . . .
Ag2 Ag 0.93072(2) 0.88395(4) 0.222706(13) 0.02583(9) Uani 1 1 d . . .
I1 I 0.80814(2) 1.05007(3) 0.264788(12) 0.02399(8) Uani 1 1 d . . .
I2 I 0.97126(2) 0.95155(3) 0.129402(12) 0.02426(8) Uani 1 1 d . . .
Fe1 Fe 0.72023(4) 0.77824(8) 0.03644(3) 0.02202(16) Uani 1 1 d . . .
Fe2 Fe 1.04583(5) 1.21711(8) 0.35987(3) 0.02423(17) Uani 1 1 d . . .
N1 N 0.7380(2) 1.1785(4) 0.07920(14) 0.0198(9) Uani 1 1 d . . .
N2 N 0.7058(2) 1.3047(4) 0.13456(16) 0.0208(9) Uani 1 1 d . . .
N3 N 0.8326(3) 1.7158(4) 0.19755(16) 0.0248(10) Uani 1 1 d . . .
N4 N 0.9457(3) 0.2847(4) 0.19323(16) 0.0243(10) Uani 1 1 d . . .
N5 N 1.0726(2) 0.6938(4) 0.25836(15) 0.0213(9) Uani 1 1 d . . .
N6 N 1.0387(3) 0.8165(4) 0.31359(16) 0.0210(9) Uani 1 1 d . . .
C1 C 0.8360(4) 0.7024(6) 0.0259(2) 0.0394(16) Uani 1 1 d . . .
H1A H 0.8850 0.7082 0.0477 0.047 Uiso 1 1 calc R . .
C2 C 0.8153(4) 0.7907(6) -0.0102(2) 0.0352(14) Uani 1 1 d . . .
H2A H 0.8473 0.8696 -0.0183 0.042 Uiso 1 1 calc R . .
C3 C 0.7440(4) 0.7474(6) -0.03226(19) 0.0372(15) Uani 1 1 d . . .
H3A H 0.7151 0.7915 -0.0587 0.045 Uiso 1 1 calc R . .
C4 C 0.7167(4) 0.6340(6) -0.0113(2) 0.0388(15) Uani 1 1 d . . .
H4A H 0.6661 0.5834 -0.0204 0.047 Uiso 1 1 calc R . .
C5 C 0.7741(4) 0.6043(6) 0.0253(2) 0.0361(15) Uani 1 1 d . . .
H5A H 0.7713 0.5290 0.0465 0.043 Uiso 1 1 calc R . .
C6 C 0.7218(3) 0.8621(5) 0.10073(17) 0.0243(12) Uani 1 1 d . . .
H6A H 0.7693 0.8606 0.1235 0.029 Uiso 1 1 calc R . .
C7 C 0.6555(3) 0.7722(5) 0.09786(18) 0.0257(12) Uani 1 1 d . . .
H7A H 0.6486 0.6956 0.1182 0.031 Uiso 1 1 calc R . .
C8 C 0.6008(3) 0.8090(6) 0.0611(2) 0.0296(13) Uani 1 1 d . . .
H8A H 0.5490 0.7627 0.0510 0.035 Uiso 1 1 calc R . .
C9 C 0.6336(3) 0.9206(5) 0.0404(2) 0.0268(12) Uani 1 1 d . . .
H9A H 0.6087 0.9673 0.0134 0.032 Uiso 1 1 calc R . .
C10 C 0.7090(3) 0.9544(5) 0.06453(18) 0.0210(11) Uani 1 1 d . . .
C11 C 0.7659(3) 1.0643(5) 0.05409(18) 0.0207(11) Uani 1 1 d . . .
H11A H 0.8240 1.0428 0.0636 0.025 Uiso 1 1 calc R . .
H11B H 0.7659 1.0812 0.0201 0.025 Uiso 1 1 calc R . .
C12 C 0.6829(3) 1.2675(6) 0.0610(2) 0.0278(13) Uani 1 1 d . . .
H12A H 0.6634 1.2714 0.0297 0.033 Uiso 1 1 calc R . .
C13 C 0.6623(3) 1.3474(5) 0.0957(2) 0.0257(12) Uani 1 1 d . . .
H13A H 0.6256 1.4184 0.0940 0.031 Uiso 1 1 calc R . .
C14 C 0.7531(3) 1.1999(5) 0.12509(18) 0.0206(10) Uani 1 1 d . . .
C15 C 0.6981(3) 1.3622(5) 0.18048(18) 0.0271(12) Uani 1 1 d . . .
H15A H 0.7198 1.3018 0.2041 0.033 Uiso 1 1 calc R . .
H15B H 0.6380 1.3770 0.1873 0.033 Uiso 1 1 calc R . .
C16 C 0.7449(3) 1.4867(5) 0.18497(17) 0.0205(10) Uani 1 1 d . . .
C17 C 0.7253(3) 1.5689(5) 0.2215(2) 0.0270(12) Uani 1 1 d . . .
H17A H 0.6821 1.5483 0.2430 0.032 Uiso 1 1 calc R . .
C18 C 0.7701(3) 1.6810(5) 0.22578(19) 0.0275(12) Uani 1 1 d . . .
H18A H 0.7554 1.7370 0.2505 0.033 Uiso 1 1 calc R . .
C19 C 0.8500(3) 1.6380(5) 0.16220(18) 0.0211(11) Uani 1 1 d . . .
H19A H 0.8931 1.6620 0.1410 0.025 Uiso 1 1 calc R . .
C20 C 0.8084(3) 1.5234(5) 0.15460(18) 0.0218(11) Uani 1 1 d . . .
H20A H 0.8233 1.4708 0.1289 0.026 Uiso 1 1 calc R . .
C21 C 0.9291(3) 0.3610(5) 0.22908(19) 0.0253(12) Uani 1 1 d . . .
H21A H 0.8856 0.3370 0.2500 0.030 Uiso 1 1 calc R . .
C22 C 0.9714(3) 0.4727(5) 0.23753(18) 0.0215(11) Uani 1 1 d . . .
H22A H 0.9577 0.5230 0.2640 0.026 Uiso 1 1 calc R . .
C23 C 1.0342(3) 0.5115(5) 0.20719(18) 0.0214(11) Uani 1 1 d . . .
C24 C 1.0522(3) 0.4316(5) 0.1700(2) 0.0266(12) Uani 1 1 d . . .
H24A H 1.0953 0.4532 0.1485 0.032 Uiso 1 1 calc R . .
C25 C 1.0073(3) 0.3207(5) 0.16433(19) 0.0281(12) Uani 1 1 d . . .
H25A H 1.0206 0.2671 0.1387 0.034 Uiso 1 1 calc R . .
C26 C 1.0801(3) 0.6359(5) 0.21211(18) 0.0246(12) Uani 1 1 d . . .
H26A H 1.1402 0.6218 0.2052 0.030 Uiso 1 1 calc R . .
H26B H 1.0581 0.6964 0.1886 0.030 Uiso 1 1 calc R . .
C27 C 1.1173(3) 0.6534(6) 0.2969(2) 0.0276(12) Uani 1 1 d . . .
H27A H 1.1556 0.5842 0.2982 0.033 Uiso 1 1 calc R . .
C28 C 1.0958(3) 0.7314(5) 0.3320(2) 0.0262(12) Uani 1 1 d . . .
H28A H 1.1159 0.7286 0.3632 0.031 Uiso 1 1 calc R . .
C29 C 1.0232(3) 0.7954(5) 0.2678(2) 0.0211(11) Uani 1 1 d . . .
C30 C 1.0071(3) 0.9285(5) 0.34000(18) 0.0252(12) Uani 1 1 d . . .
H30A H 1.0033 0.9069 0.3735 0.030 Uiso 1 1 calc R . .
H30B H 0.9501 0.9508 0.3289 0.030 Uiso 1 1 calc R . .
C31 C 1.0647(3) 1.0408(5) 0.33365(18) 0.0219(11) Uani 1 1 d . . .
C32 C 1.0588(3) 1.1310(5) 0.29681(18) 0.0251(12) Uani 1 1 d . . .
H32A H 1.0168 1.1308 0.2709 0.030 Uiso 1 1 calc R . .
C33 C 1.1246(4) 1.2207(6) 0.3035(2) 0.0339(14) Uani 1 1 d . . .
H33A H 1.1358 1.2964 0.2833 0.041 Uiso 1 1 calc R . .
C34 C 1.1702(4) 1.1873(6) 0.3445(2) 0.0348(14) Uani 1 1 d . . .
H34A H 1.2189 1.2348 0.3579 0.042 Uiso 1 1 calc R . .
C35 C 1.1337(3) 1.0746(5) 0.36301(19) 0.0276(12) Uani 1 1 d . . .
H35A H 1.1522 1.0285 0.3917 0.033 Uiso 1 1 calc R . .
C36 C 0.9964(4) 1.2405(6) 0.42546(19) 0.0317(13) Uani 1 1 d . . .
H36A H 1.0100 1.1892 0.4538 0.038 Uiso 1 1 calc R . .
C37 C 1.0378(4) 1.3525(6) 0.4102(2) 0.0388(15) Uani 1 1 d . . .
H37A H 1.0865 1.3940 0.4261 0.047 Uiso 1 1 calc R . .
C38 C 0.9991(4) 1.3961(6) 0.3691(2) 0.0372(15) Uani 1 1 d . . .
H38A H 1.0150 1.4736 0.3510 0.045 Uiso 1 1 calc R . .
C39 C 0.9338(4) 1.3095(6) 0.3581(2) 0.0332(14) Uani 1 1 d . . .
H39A H 0.8953 1.3153 0.3306 0.040 Uiso 1 1 calc R . .
C40 C 0.9318(3) 1.2156(6) 0.39268(19) 0.0321(13) Uani 1 1 d . . .
H40A H 0.8921 1.1420 0.3937 0.039 Uiso 1 1 calc R . .
O1 O 0.8572(3) 0.1891(5) -0.06447(18) 0.0641(15) Uani 1 1 d . . .
N7 N 0.9296(3) 0.2282(6) 0.00110(19) 0.0451(14) Uani 1 1 d . . .
C41 C 0.8731(4) 0.2572(8) -0.0310(2) 0.0503(18) Uani 1 1 d . . .
H41 H 0.8432 0.3350 -0.0278 0.060 Uiso 1 1 calc R . .
C42 C 0.9436(5) 0.3097(8) 0.0410(3) 0.063(2) Uani 1 1 d . . .
H42A H 0.9075 0.3850 0.0387 0.095 Uiso 1 1 calc R . .
H42B H 1.0026 0.3364 0.0417 0.095 Uiso 1 1 calc R . .
H42C H 0.9303 0.2631 0.0696 0.095 Uiso 1 1 calc R . .
C43 C 0.9783(4) 0.1105(7) -0.0030(2) 0.0476(18) Uani 1 1 d . . .
H43A H 0.9631 0.0668 -0.0321 0.071 Uiso 1 1 calc R . .
H43B H 0.9660 0.0550 0.0236 0.071 Uiso 1 1 calc R . .
H43C H 1.0383 0.1308 -0.0034 0.071 Uiso 1 1 calc R . .
O2 O 0.8780(4) 0.6799(6) 0.46317(19) 0.0814(19) Uani 1 1 d . . .
N8 N 0.8402(3) 0.7104(6) 0.38949(18) 0.0427(14) Uani 1 1 d . . .
C44 C 0.8677(5) 0.6352(8) 0.4234(2) 0.057(2) Uani 1 1 d . . .
H44A H 0.8793 0.5480 0.4174 0.069 Uiso 1 1 calc R . .
C45 C 0.8136(4) 0.8409(7) 0.3994(3) 0.058(2) Uani 1 1 d . . .
H45A H 0.8280 0.8625 0.4317 0.088 Uiso 1 1 calc R . .
H45B H 0.7528 0.8481 0.3951 0.088 Uiso 1 1 calc R . .
H45C H 0.8423 0.8996 0.3782 0.088 Uiso 1 1 calc R . .
C46 C 0.8256(5) 0.6579(8) 0.3434(2) 0.054(2) Uani 1 1 d . . .
H46A H 0.8469 0.5704 0.3422 0.081 Uiso 1 1 calc R . .
H46B H 0.8548 0.7098 0.3201 0.081 Uiso 1 1 calc R . .
H46C H 0.7652 0.6579 0.3367 0.081 Uiso 1 1 calc R . .

loop_
_atom_site_aniso_label
_atom_site_aniso_U_11
_atom_site_aniso_U_22
_atom_site_aniso_U_33
_atom_site_aniso_U_23
_atom_site_aniso_U_13
_atom_site_aniso_U_12
Ag1 0.0258(2) 0.0247(2) 0.0264(2) -0.00241(18) -0.00418(16) 0.00048(16)
Ag2 0.0264(2) 0.0252(2) 0.02589(19) -0.00218(18) -0.00432(16) 0.00050(17)
I1 0.02229(16) 0.02201(19) 0.02766(16) 0.00013(15) 0.00318(13) 0.00040(13)
I2 0.02270(16) 0.02276(19) 0.02734(16) -0.00002(16) 0.00377(13) 0.00092(13)
Fe1 0.0223(4) 0.0220(4) 0.0218(4) -0.0030(3) 0.0003(3) -0.0009(3)
Fe2 0.0260(4) 0.0226(4) 0.0241(4) -0.0050(3) 0.0007(3) 0.0001(3)
N1 0.019(2) 0.017(2) 0.023(2) 0.0012(18) -0.0008(16) 0.0012(18)
N2 0.019(2) 0.019(2) 0.023(2) -0.002(2) -0.0003(18) -0.0043(18)
N3 0.027(2) 0.021(3) 0.027(2) -0.001(2) -0.0044(18) 0.0023(19)
N4 0.024(2) 0.022(3) 0.027(2) 0.002(2) -0.0028(18) -0.0036(19)
N5 0.017(2) 0.018(2) 0.029(2) -0.0053(19) -0.0003(17) 0.0012(18)
N6 0.019(2) 0.017(2) 0.027(2) -0.002(2) 0.0004(17) -0.0045(19)
C1 0.029(3) 0.052(4) 0.038(3) -0.020(3) 0.006(2) 0.008(3)
C2 0.039(3) 0.031(3) 0.035(3) -0.004(3) 0.014(3) -0.002(3)
C3 0.050(4) 0.043(4) 0.019(3) -0.006(3) 0.004(2) 0.001(3)
C4 0.047(4) 0.034(4) 0.036(3) -0.011(3) -0.002(3) 0.002(3)
C5 0.047(4) 0.026(3) 0.035(3) -0.007(3) 0.005(3) 0.007(3)
C6 0.031(3) 0.025(3) 0.017(2) -0.002(2) 0.001(2) 0.001(2)
C7 0.027(3) 0.025(3) 0.026(3) -0.002(2) 0.006(2) 0.002(2)
C8 0.017(3) 0.026(3) 0.045(3) -0.001(3) 0.006(2) -0.004(2)
C9 0.021(3) 0.023(3) 0.036(3) -0.001(2) -0.003(2) 0.000(2)
C10 0.022(3) 0.018(3) 0.023(2) -0.010(2) 0.004(2) -0.001(2)
C11 0.021(3) 0.019(3) 0.023(2) -0.004(2) -0.0012(19) 0.000(2)
C12 0.025(3) 0.030(3) 0.029(3) 0.002(2) -0.006(2) 0.002(2)
C13 0.020(3) 0.019(3) 0.038(3) 0.001(2) -0.005(2) 0.003(2)
C14 0.021(2) 0.015(3) 0.025(2) -0.002(2) 0.001(2) -0.006(2)
C15 0.024(3) 0.025(3) 0.032(3) -0.011(2) -0.001(2) 0.001(2)
C16 0.019(2) 0.017(3) 0.026(2) 0.001(2) -0.0018(19) 0.005(2)
C17 0.022(3) 0.025(3) 0.034(3) -0.003(2) 0.004(2) -0.002(2)
C18 0.025(3) 0.027(3) 0.031(3) -0.005(2) 0.001(2) 0.005(2)
C19 0.021(3) 0.019(3) 0.023(3) 0.002(2) 0.0005(19) 0.000(2)
C20 0.020(3) 0.024(3) 0.021(2) -0.003(2) 0.0012(18) 0.000(2)
C21 0.024(3) 0.031(3) 0.021(3) 0.002(2) -0.0041(19) -0.003(2)
C22 0.021(3) 0.021(3) 0.022(3) -0.004(2) 0.0033(18) 0.000(2)
C23 0.018(2) 0.016(3) 0.031(3) -0.003(2) 0.000(2) 0.001(2)
C24 0.025(3) 0.028(3) 0.027(3) -0.009(2) 0.006(2) -0.002(2)
C25 0.028(3) 0.032(3) 0.025(3) -0.010(2) 0.002(2) 0.006(2)
C26 0.026(3) 0.022(3) 0.025(3) -0.001(2) 0.012(2) -0.003(2)
C27 0.019(3) 0.027(3) 0.037(3) 0.001(3) -0.005(2) 0.004(2)
C28 0.022(3) 0.026(3) 0.030(3) 0.004(2) -0.003(2) 0.000(2)
C29 0.016(2) 0.021(3) 0.026(3) -0.001(2) -0.001(2) -0.001(2)
C30 0.028(3) 0.025(3) 0.023(3) -0.002(2) 0.001(2) -0.001(2)
C31 0.022(3) 0.021(3) 0.024(2) -0.003(2) 0.003(2) 0.004(2)
C32 0.029(3) 0.024(3) 0.022(2) -0.005(2) 0.002(2) 0.002(2)
C33 0.037(3) 0.024(3) 0.040(3) 0.001(3) 0.011(3) -0.007(3)
C34 0.023(3) 0.035(4) 0.047(4) -0.011(3) 0.005(2) -0.003(3)
C35 0.024(3) 0.029(3) 0.030(3) -0.003(2) -0.002(2) 0.004(2)
C36 0.036(3) 0.038(4) 0.022(3) -0.001(2) 0.000(2) 0.011(3)
C37 0.042(4) 0.042(4) 0.033(3) -0.019(3) -0.006(3) 0.008(3)
C38 0.050(4) 0.025(3) 0.037(3) -0.004(3) 0.006(3) 0.006(3)
C39 0.031(3) 0.041(4) 0.027(3) -0.006(3) -0.001(2) 0.009(3)
C40 0.029(3) 0.034(4) 0.033(3) -0.005(3) 0.007(2) 0.003(3)
O1 0.083(4) 0.072(4) 0.037(3) 0.001(3) 0.001(3) -0.001(3)
N7 0.029(3) 0.063(4) 0.043(3) 0.016(3) -0.002(2) -0.008(3)
C41 0.050(4) 0.067(5) 0.034(3) 0.014(3) 0.003(3) 0.002(4)
C42 0.049(4) 0.083(7) 0.058(5) -0.024(5) 0.006(4) -0.011(4)
C43 0.040(4) 0.058(5) 0.044(4) 0.013(3) -0.002(3) -0.007(3)
O2 0.099(5) 0.102(5) 0.043(3) -0.011(3) 0.002(3) -0.019(4)
N8 0.038(3) 0.056(4) 0.034(3) 0.004(3) 0.000(2) 0.004(3)
C44 0.074(5) 0.066(5) 0.032(4) -0.004(3) -0.004(3) 0.020(4)
C45 0.046(4) 0.050(5) 0.079(5) -0.004(4) 0.023(4) -0.007(4)
C46 0.053(4) 0.077(6) 0.033(3) -0.009(4) -0.004(3) 0.008(4)

_geom_special_details            
;
All esds (except the esd in the dihedral angle between two l.s. planes)
are estimated using the full covariance matrix. The cell esds are taken
into account individually in the estimation of esds in distances, angles
and torsion angles; correlations between esds in cell parameters are only
used when the