####################################################################### 
# 
# This file contains crystal structure data downloaded from the 
# Cambridge Structural Database (CSD) hosted by the Cambridge 
# Crystallographic Data Centre (CCDC).
# 
# Full information about CCDC data access policies and citation 
# guidelines are available at http://www.ccdc.cam.ac.uk/access/V1 
# 
# Audit and citation data items may have been added by the CCDC. 
# Please retain this information to preserve the provenance of 
# this file and to allow appropriate attribution of the data. 
# 
#######################################################################

data_p2
_audit_block_doi                 10.5517/cczfr26
_database_code_depnum_ccdc_archive 'CCDC 906938'
loop_
_citation_id
_citation_doi
_citation_year
1 10.1002/ejic.201300211 2013
_audit_update_record             
;
2012-10-21 deposited with the CCDC.	2024-07-09 downloaded from the CCDC.
;
#TrackingRef '906938.cif'


_audit_creation_method           SHELXL-97
_chemical_name_systematic        
;
?
;
_chemical_name_common            ?
_chemical_melting_point          ?
_chemical_formula_moiety         ?
_chemical_formula_sum            'C38 H44 Fe N10 O4 S2'
_chemical_formula_weight         824.82

loop_
_atom_type_symbol
_atom_type_description
_atom_type_scat_dispersion_real
_atom_type_scat_dispersion_imag
_atom_type_scat_source
C C 0.0033 0.0016 'International Tables Vol C Tables 4.2.6.8 and 6.1.1.4'
H H 0.0000 0.0000 'International Tables Vol C Tables 4.2.6.8 and 6.1.1.4'
Fe Fe 0.3463 0.8444 'International Tables Vol C Tables 4.2.6.8 and 6.1.1.4'
N N 0.0061 0.0033 'International Tables Vol C Tables 4.2.6.8 and 6.1.1.4'
O O 0.0106 0.0060 'International Tables Vol C Tables 4.2.6.8 and 6.1.1.4'
S S 0.1246 0.1234 'International Tables Vol C Tables 4.2.6.8 and 6.1.1.4'

_symmetry_cell_setting           monoclinic
_symmetry_space_group_name_H-M   ' P21/c'

loop_
_symmetry_equiv_pos_as_xyz
'x, y, z'
'-x, y+1/2, -z+1/2'
'-x, -y, -z'
'x, -y-1/2, z-1/2'

_cell_length_a                   13.8678(7)
_cell_length_b                   15.7099(8)
_cell_length_c                   20.4118(12)
_cell_angle_alpha                90.00
_cell_angle_beta                 100.280(2)
_cell_angle_gamma                90.00
_cell_volume                     4375.6(4)
_cell_formula_units_Z            4
_cell_measurement_temperature    173(2)
_cell_measurement_reflns_used    ?
_cell_measurement_theta_min      ?
_cell_measurement_theta_max      ?

_exptl_crystal_description       ?
_exptl_crystal_colour            ?
_exptl_crystal_size_max          0.40
_exptl_crystal_size_mid          0.30
_exptl_crystal_size_min          0.30
_exptl_crystal_density_meas      ?
_exptl_crystal_density_diffrn    1.252
_exptl_crystal_density_method    'not measured'
_exptl_crystal_F_000             1728
_exptl_absorpt_coefficient_mu    0.489
_exptl_absorpt_correction_type   ?
_exptl_absorpt_correction_T_min  0.8286
_exptl_absorpt_correction_T_max  0.8673
_exptl_absorpt_process_details   ?

_exptl_special_details           
;
?
;

_diffrn_ambient_temperature      173(2)
_diffrn_radiation_wavelength     0.71073
_diffrn_radiation_type           MoK\a
_diffrn_radiation_source         'fine-focus sealed tube'
_diffrn_radiation_monochromator  graphite
_diffrn_measurement_device_type  ?
_diffrn_measurement_method       ?
_diffrn_detector_area_resol_mean ?
_diffrn_standards_number         ?
_diffrn_standards_interval_count ?
_diffrn_standards_interval_time  ?
_diffrn_standards_decay_%        ?
_diffrn_reflns_number            33244
_diffrn_reflns_av_R_equivalents  0.0627
_diffrn_reflns_av_sigmaI/netI    0.0582
_diffrn_reflns_limit_h_min       -16
_diffrn_reflns_limit_h_max       16
_diffrn_reflns_limit_k_min       -18
_diffrn_reflns_limit_k_max       18
_diffrn_reflns_limit_l_min       -24
_diffrn_reflns_limit_l_max       24
_diffrn_reflns_theta_min         2.99
_diffrn_reflns_theta_max         25.35
_reflns_number_total             7951
_reflns_number_gt                5487
_reflns_threshold_expression     >2sigma(I)

_computing_data_collection       ?
_computing_cell_refinement       ?
_computing_data_reduction        ?
_computing_structure_solution    'SHELXS-97 (Sheldrick, 1990)'
_computing_structure_refinement  'SHELXL-97 (Sheldrick, 1997)'
_computing_molecular_graphics    ?
_computing_publication_material  ?

_refine_special_details          
;
Refinement of F^2^ against ALL reflections. The weighted R-factor wR and
goodness of fit S are based on F^2^, conventional R-factors R are based
on F, with F set to zero for negative F^2^. The threshold expression of
F^2^ > 2sigma(F^2^) is used only for calculating R-factors(gt) etc. and is
not relevant to the choice of reflections for refinement. R-factors based
on F^2^ are statistically about twice as large as those based on F, and R-
factors based on ALL data will be even larger.
;

_refine_ls_structure_factor_coef Fsqd
_refine_ls_matrix_type           full
_refine_ls_weighting_scheme      calc
_refine_ls_weighting_details     
'calc w=1/[\s^2^(Fo^2^)+(0.1465P)^2^+2.1647P] where P=(Fo^2^+2Fc^2^)/3'
_atom_sites_solution_primary     direct
_atom_sites_solution_secondary   difmap
_atom_sites_solution_hydrogens   geom
_refine_ls_hydrogen_treatment    mixed
_refine_ls_extinction_method     none
_refine_ls_extinction_coef       ?
_refine_ls_number_reflns         7951
_refine_ls_number_parameters     496
_refine_ls_number_restraints     0
_refine_ls_R_factor_all          0.1015
_refine_ls_R_factor_gt           0.0772
_refine_ls_wR_factor_ref         0.2556
_refine_ls_wR_factor_gt          0.2365
_refine_ls_goodness_of_fit_ref   1.046
_refine_ls_restrained_S_all      1.046
_refine_ls_shift/su_max          0.000
_refine_ls_shift/su_mean         0.000

loop_
_atom_site_label
_atom_site_type_symbol
_atom_site_fract_x
_atom_site_fract_y
_atom_site_fract_z
_atom_site_U_iso_or_equiv
_atom_site_adp_type
_atom_site_occupancy
_atom_site_symmetry_multiplicity
_atom_site_calc_flag
_atom_site_refinement_flags
_atom_site_disorder_assembly
_atom_site_disorder_group
Fe1 Fe 0.16651(4) 0.31206(4) 0.19501(3) 0.0561(2) Uani 1 1 d . . .
C1 C 0.3870(3) 0.3593(3) 0.2454(2) 0.0690(12) Uani 1 1 d . . .
H1A H 0.3761 0.3890 0.2042 0.083 Uiso 1 1 calc R . .
C2 C 0.4799(3) 0.3625(3) 0.2839(2) 0.0788(13) Uani 1 1 d . . .
H2B H 0.5310 0.3930 0.2690 0.095 Uiso 1 1 calc R . .
C3 C 0.4972(3) 0.3208(3) 0.3444(2) 0.0645(11) Uani 1 1 d . . .
C4 C 0.4192(3) 0.2775(3) 0.3625(2) 0.0762(13) Uani 1 1 d . . .
H4B H 0.4278 0.2476 0.4036 0.091 Uiso 1 1 calc R . .
C5 C 0.3298(3) 0.2777(4) 0.3214(2) 0.0765(13) Uani 1 1 d . . .
H5A H 0.2773 0.2482 0.3354 0.092 Uiso 1 1 calc R . .
C6 C 0.5964(3) 0.3183(3) 0.3838(2) 0.0688(12) Uani 1 1 d . . .
H6B H 0.6469 0.3512 0.3704 0.083 Uiso 1 1 calc R . .
C7 C 0.7316(3) 0.2310(3) 0.5189(2) 0.0732(12) Uani 1 1 d . . .
H7B H 0.6783 0.2049 0.5347 0.088 Uiso 1 1 calc R . .
C8 C 0.8320(3) 0.2209(3) 0.5563(2) 0.0625(10) Uani 1 1 d . . .
C9 C 0.8472(4) 0.1799(4) 0.6167(2) 0.0851(15) Uani 1 1 d . . .
H9A H 0.7932 0.1605 0.6355 0.102 Uiso 1 1 calc R . .
C10 C 0.9414(4) 0.1673(4) 0.6495(2) 0.0849(15) Uani 1 1 d . . .
H10A H 0.9503 0.1370 0.6904 0.102 Uiso 1 1 calc R . .
C11 C 1.0053(3) 0.2336(3) 0.5691(2) 0.0642(11) Uani 1 1 d . . .
H11A H 1.0607 0.2529 0.5519 0.077 Uiso 1 1 calc R . .
C12 C 0.9142(3) 0.2474(3) 0.5323(2) 0.0695(12) Uani 1 1 d . . .
H12A H 0.9075 0.2751 0.4903 0.083 Uiso 1 1 calc R . .
N1 N 0.3125(3) 0.3174(2) 0.26239(17) 0.0602(8) Uani 1 1 d . . .
N2 N 0.6154(3) 0.2728(3) 0.43554(19) 0.0778(11) Uani 1 1 d . . .
N3 N 0.7157(3) 0.2749(3) 0.46520(18) 0.0713(10) Uani 1 1 d . . .
N4 N 1.0204(3) 0.1942(2) 0.62830(17) 0.0613(9) Uani 1 1 d . . .
C25 C 0.2890(4) 0.2936(3) 0.0768(2) 0.0776(13) Uani 1 1 d . . .
N9 N 0.2370(3) 0.3025(2) 0.11306(18) 0.0643(9) Uani 1 1 d . . .
S1 S 0.3673(2) 0.2819(2) 0.02611(13) 0.1675(11) Uani 1 1 d . . .
C26 C 0.0797(3) 0.3072(3) 0.3317(2) 0.0695(12) Uani 1 1 d . . .
N10 N 0.0984(3) 0.3147(2) 0.27971(18) 0.0612(9) Uani 1 1 d . . .
S2 S 0.05133(14) 0.29699(16) 0.40507(8) 0.1284(7) Uani 1 1 d . . .
C13 C 0.2458(3) 0.1239(3) 0.2000(2) 0.0711(12) Uani 1 1 d . . .
H13A H 0.3049 0.1537 0.1983 0.085 Uiso 1 1 calc R . .
C14 C 0.2491(3) 0.0367(3) 0.2030(3) 0.0718(12) Uani 1 1 d . . .
H14A H 0.3092 0.0074 0.2039 0.086 Uiso 1 1 calc R . .
C15 C 0.1637(3) -0.0081(3) 0.2048(2) 0.0675(11) Uani 1 1 d . . .
C16 C 0.0781(4) 0.0387(3) 0.2022(3) 0.0796(13) Uani 1 1 d . . .
H16A H 0.0174 0.0104 0.2017 0.095 Uiso 1 1 calc R . .
C17 C 0.0815(4) 0.1260(3) 0.2003(3) 0.0782(13) Uani 1 1 d . . .
H17A H 0.0225 0.1570 0.1996 0.094 Uiso 1 1 calc R . .
C18 C 0.1608(4) -0.1012(3) 0.2104(2) 0.0729(12) Uani 1 1 d . . .
H18A H 0.0989 -0.1287 0.2048 0.087 Uiso 1 1 calc R . .
C19 C 0.2051(4) -0.2786(3) 0.1799(2) 0.0721(12) Uani 1 1 d . . .
H19A H 0.2004 -0.2532 0.1372 0.087 Uiso 1 1 calc R . .
C20 C 0.1912(3) -0.3700(3) 0.1846(2) 0.0658(11) Uani 1 1 d . . .
C21 C 0.1842(4) -0.4203(3) 0.1279(2) 0.0809(14) Uani 1 1 d . . .
H21A H 0.1866 -0.3949 0.0860 0.097 Uiso 1 1 calc R . .
C22 C 0.1737(4) -0.5064(3) 0.1327(2) 0.0780(13) Uani 1 1 d . . .
H22A H 0.1689 -0.5395 0.0933 0.094 Uiso 1 1 calc R . .
C23 C 0.1769(3) -0.4978(3) 0.2448(2) 0.0627(10) Uani 1 1 d . . .
H23A H 0.1742 -0.5246 0.2862 0.075 Uiso 1 1 calc R . .
C24 C 0.1878(3) -0.4120(3) 0.2441(2) 0.0694(11) Uani 1 1 d . . .
H24A H 0.1933 -0.3805 0.2843 0.083 Uiso 1 1 calc R . .
N5 N 0.1642(2) 0.1694(2) 0.19928(17) 0.0633(9) Uani 1 1 d . . .
N6 N 0.2367(3) -0.1456(2) 0.2221(2) 0.0753(10) Uani 1 1 d . . .
N7 N 0.2233(3) -0.2318(2) 0.2316(2) 0.0786(11) Uani 1 1 d . . .
N8 N 0.1697(2) -0.5469(2) 0.19033(15) 0.0609(9) Uani 1 1 d . . .
C27 C 0.2750(10) 0.4466(9) 0.4536(9) 0.281(10) Uani 1 1 d . . .
H27A H 0.2969 0.4483 0.4105 0.422 Uiso 1 1 calc R . .
H27B H 0.2548 0.3886 0.4624 0.422 Uiso 1 1 calc R . .
H27C H 0.3289 0.4642 0.4888 0.422 Uiso 1 1 calc R . .
C28 C 0.1902(9) 0.5059(6) 0.4521(4) 0.145(3) Uani 1 1 d . . .
C29 C 0.1510(15) 0.5106(8) 0.5099(6) 0.318(12) Uani 1 1 d . . .
H29A H 0.0977 0.5525 0.5040 0.477 Uiso 1 1 calc R . .
H29B H 0.2021 0.5280 0.5470 0.477 Uiso 1 1 calc R . .
H29C H 0.1254 0.4548 0.5195 0.477 Uiso 1 1 calc R . .
O1 O 0.1657(5) 0.5452(4) 0.4044(3) 0.155(2) Uani 1 1 d . . .
C30 C -0.2142(9) 0.5840(6) 0.1107(5) 0.180(4) Uani 1 1 d . . .
H30A H -0.2840 0.5714 0.1078 0.270 Uiso 1 1 calc R . .
H30B H -0.2058 0.6445 0.1014 0.270 Uiso 1 1 calc R . .
H30C H -0.1791 0.5705 0.1555 0.270 Uiso 1 1 calc R . .
C31 C -0.1750(8) 0.5329(5) 0.0622(4) 0.131(3) Uani 1 1 d . . .
C32 C -0.0822(8) 0.5383(9) 0.0581(8) 0.245(8) Uani 1 1 d . . .
H32A H -0.0678 0.4993 0.0236 0.368 Uiso 1 1 calc R . .
H32B H -0.0422 0.5229 0.1011 0.368 Uiso 1 1 calc R . .
H32C H -0.0669 0.5967 0.0466 0.368 Uiso 1 1 calc R . .
O2 O -0.2333(5) 0.4870(4) 0.0241(3) 0.160(2) Uani 1 1 d . . .
C33 C 0.4542(9) 0.5463(8) 0.0858(5) 0.199(5) Uani 1 1 d . . .
H33A H 0.4269 0.5950 0.1062 0.298 Uiso 1 1 calc R . .
H33B H 0.4012 0.5074 0.0669 0.298 Uiso 1 1 calc R . .
H33C H 0.4878 0.5664 0.0503 0.298 Uiso 1 1 calc R . .
C34 C 0.5199(8) 0.5041(9) 0.1333(5) 0.164(4) Uani 1 1 d . . .
C35 C 0.5756(9) 0.4295(6) 0.1209(6) 0.187(5) Uani 1 1 d . . .
H35A H 0.6175 0.4116 0.1624 0.281 Uiso 1 1 calc R . .
H35B H 0.6164 0.4433 0.0878 0.281 Uiso 1 1 calc R . .
H35C H 0.5304 0.3833 0.1040 0.281 Uiso 1 1 calc R . .
O3 O 0.5258(7) 0.5313(5) 0.1912(4) 0.206(3) Uani 1 1 d . . .
C36 C 0.4386(12) 0.6059(11) 0.4185(11) 0.317(11) Uani 1 1 d . . .
H36A H 0.4507 0.5565 0.4481 0.476 Uiso 1 1 calc R . .
H36B H 0.3683 0.6106 0.4009 0.476 Uiso 1 1 calc R . .
H36C H 0.4613 0.6577 0.4434 0.476 Uiso 1 1 calc R . .
C37 C 0.4878(9) 0.5963(10) 0.3674(10) 0.215(7) Uani 1 1 d . . .
C38 C 0.4613(11) 0.6679(10) 0.3204(8) 0.246(8) Uani 1 1 d . . .
H38A H 0.4894 0.6581 0.2803 0.369 Uiso 1 1 calc R . .
H38B H 0.4871 0.7212 0.3415 0.369 Uiso 1 1 calc R . .
H38C H 0.3898 0.6716 0.3082 0.369 Uiso 1 1 calc R . .
O4 O 0.5501(7) 0.5429(6) 0.3682(6) 0.236(4) Uani 1 1 d . . .

loop_
_atom_site_aniso_label
_atom_site_aniso_U_11
_atom_site_aniso_U_22
_atom_site_aniso_U_33
_atom_site_aniso_U_23
_atom_site_aniso_U_13
_atom_site_aniso_U_12
Fe1 0.0547(4) 0.0661(4) 0.0445(4) -0.0013(2) 0.0007(3) 0.0013(2)
C1 0.063(3) 0.087(3) 0.052(2) 0.016(2) -0.002(2) -0.012(2)
C2 0.066(3) 0.104(4) 0.062(3) 0.020(3) 0.000(2) -0.011(2)
C3 0.056(2) 0.082(3) 0.051(2) 0.004(2) -0.0028(19) 0.003(2)
C4 0.059(3) 0.111(4) 0.055(3) 0.024(2) 0.001(2) 0.002(2)
C5 0.054(2) 0.106(4) 0.067(3) 0.024(3) 0.005(2) -0.005(2)
C6 0.057(2) 0.093(3) 0.052(2) 0.008(2) -0.0018(19) -0.004(2)
C7 0.062(3) 0.106(4) 0.048(3) 0.002(2) 0.001(2) -0.001(2)
C8 0.058(2) 0.082(3) 0.046(2) -0.0005(19) 0.0027(18) 0.002(2)
C9 0.064(3) 0.132(5) 0.055(3) 0.023(3) -0.001(2) -0.017(3)
C10 0.070(3) 0.121(4) 0.058(3) 0.032(3) -0.004(2) -0.021(3)
C11 0.054(2) 0.088(3) 0.049(2) 0.010(2) 0.0064(18) 0.003(2)
C12 0.067(3) 0.093(3) 0.045(2) 0.014(2) 0.001(2) 0.002(2)
N1 0.059(2) 0.068(2) 0.0493(19) 0.0045(15) -0.0024(15) -0.0012(16)
N2 0.056(2) 0.114(3) 0.058(2) 0.010(2) -0.0040(17) 0.001(2)
N3 0.052(2) 0.101(3) 0.056(2) 0.007(2) -0.0020(16) 0.0011(19)
N4 0.063(2) 0.072(2) 0.0448(19) 0.0048(15) -0.0007(15) -0.0011(16)
C25 0.083(3) 0.092(3) 0.055(3) -0.003(2) 0.002(3) 0.006(3)
N9 0.066(2) 0.076(2) 0.051(2) -0.0050(16) 0.0098(18) 0.0026(17)
S1 0.185(2) 0.213(3) 0.1313(18) -0.0099(16) 0.1007(18) 0.0269(19)
C26 0.061(3) 0.089(3) 0.056(3) 0.003(2) 0.002(2) 0.002(2)
N10 0.058(2) 0.075(2) 0.049(2) 0.0000(16) 0.0056(16) 0.0022(16)
S2 0.1030(12) 0.223(2) 0.0635(9) 0.0272(11) 0.0255(8) 0.0046(12)
C13 0.059(2) 0.069(3) 0.086(3) -0.009(2) 0.012(2) 0.002(2)
C14 0.063(3) 0.066(3) 0.088(3) -0.006(2) 0.015(2) 0.005(2)
C15 0.072(3) 0.070(3) 0.060(3) -0.006(2) 0.009(2) -0.006(2)
C16 0.062(3) 0.081(3) 0.093(4) 0.007(3) 0.007(2) -0.008(2)
C17 0.064(3) 0.078(3) 0.090(4) 0.008(2) 0.007(2) -0.002(2)
C18 0.079(3) 0.068(3) 0.073(3) -0.004(2) 0.016(2) -0.013(2)
C19 0.084(3) 0.067(3) 0.066(3) -0.002(2) 0.014(2) 0.004(2)
C20 0.073(3) 0.067(3) 0.059(3) -0.001(2) 0.015(2) -0.001(2)
C21 0.109(4) 0.071(3) 0.061(3) 0.004(2) 0.009(3) -0.003(3)
C22 0.103(4) 0.074(3) 0.052(3) -0.003(2) 0.002(2) 0.001(3)
C23 0.072(3) 0.063(2) 0.052(2) 0.0020(19) 0.010(2) -0.003(2)
C24 0.076(3) 0.073(3) 0.059(3) -0.008(2) 0.012(2) 0.000(2)
N5 0.060(2) 0.066(2) 0.062(2) 0.0002(16) 0.0055(17) -0.0028(17)
N6 0.090(3) 0.061(2) 0.077(3) -0.0047(18) 0.019(2) -0.004(2)
N7 0.096(3) 0.066(2) 0.074(3) -0.0021(19) 0.018(2) -0.002(2)
N8 0.067(2) 0.067(2) 0.0455(19) 0.0006(15) 0.0016(16) -0.0008(16)
C27 0.171(11) 0.226(14) 0.39(2) 0.066(15) -0.092(14) -0.013(10)
C28 0.208(10) 0.144(7) 0.073(5) -0.001(5) -0.005(5) -0.034(7)
C29 0.66(4) 0.193(12) 0.149(10) -0.049(8) 0.195(17) -0.124(17)
O1 0.193(6) 0.172(5) 0.098(4) 0.001(4) 0.023(4) 0.006(4)
C30 0.236(12) 0.178(9) 0.126(7) -0.035(6) 0.033(7) -0.019(8)
C31 0.163(8) 0.129(6) 0.089(5) -0.011(4) -0.007(5) 0.015(6)
C32 0.115(8) 0.266(16) 0.35(2) 0.079(14) 0.043(10) 0.011(9)
O2 0.204(6) 0.156(5) 0.113(4) -0.010(4) 0.010(4) 0.002(5)
C33 0.197(11) 0.234(12) 0.143(8) 0.014(8) -0.027(8) 0.070(9)
C34 0.166(9) 0.229(12) 0.100(6) 0.010(7) 0.034(6) -0.056(9)
C35 0.223(12) 0.127(7) 0.234(13) -0.020(7) 0.100(10) 0.021(7)
O3 0.276(10) 0.197(7) 0.146(6) -0.004(5) 0.041(6) -0.016(6)
C36 0.226(16) 0.31(2) 0.46(3) -0.03(2) 0.20(2) -0.025(14)
C37 0.126(8) 0.211(13) 0.329(19) -0.141(13) 0.096(11) -0.004(8)
C38 0.190(13) 0.255(16) 0.259(17) 0.054(13) -0.049(12) 0.025(11)
O4 0.181(7) 0.200(8) 0.328(12) -0.073(8) 0.050(8) -0.014(6)

_geom_special_details            
;
All esds (except the esd in the dihedral angle between two l.s. planes)
are estimated using the full covariance matrix. The cell esds are taken
into account individually in the estimation of esds in distances, angles
and torsion angles; correlations between esds in cell parameters are only
used when they are defined by crystal symmetry. An approximate (isotropic)
treatment of cell esds is used for estimating esds involving l.s. planes.
;

loop_
_geom_bond_atom_site_label_1
_geom_bond_atom_site_label_2
_geom_bond_distance
_geom_bond_site_symmetry_2
_geom_bond_publ_flag
Fe1 N9 2.088(4) . ?
Fe1 N10 2.113(4) . ?
Fe1 N8 2.219(4) 1_565 ?
Fe1 N4 2.233(3) 4_465 ?
Fe1 N1 2.237(3) . ?
Fe1 N5 2.244(4) . ?
C1 N1 1.323(5) . ?
C1 C2 1.386(6) . ?
C1 H1A 0.9500 . ?
C2 C3 1.379(6) . ?
C2 H2B 0.9500 . ?
C3 C4 1.382(6) . ?
C3 C6 1.465(6) . ?
C4 C5 1.368(6) . ?
C4 H4B 0.9500 . ?
C5 N1 1.338(6) . ?
C5 H5A 0.9500 . ?
C6 N2 1.263(6) . ?
C6 H6B 0.9500 . ?
C7 N3 1.280(6) . ?
C7 C8 1.473(6) . ?
C7 H7B 0.9500 . ?
C8 C9 1.374(6) . ?
C8 C12 1.383(6) . ?
C9 C10 1.373(7) . ?
C9 H9A 0.9500 . ?
C10 N4 1.318(6) . ?
C10 H10A 0.9500 . ?
C11 N4 1.340(5) . ?
C11 C12 1.367(6) . ?
C11 H11A 0.9500 . ?
C12 H12A 0.9500 . ?
N2 N3 1.415(5) . ?
N4 Fe1 2.233(3) 4_666 ?
C25 N9 1.130(6) . ?
C25 S1 1.638(6) . ?
C26 N10 1.143(6) . ?
C26 S2 1.623(5) . ?
C13 N5 1.335(5) . ?
C13 C14 1.372(6) . ?
C13 H13A 0.9500 . ?
C14 C15 1.383(6) . ?
C14 H14A 0.9500 . ?
C15 C16 1.389(7) . ?
C15 C18 1.468(7) . ?
C16 C17 1.373(7) . ?
C16 H16A 0.9500 . ?
C17 N5 1.338(6) . ?
C17 H17A 0.9500 . ?
C18 N6 1.249(6) . ?
C18 H18A 0.9500 . ?
C19 N7 1.275(6) . ?
C19 C20 1.453(6) . ?
C19 H19A 0.9500 . ?
C20 C21 1.389(6) . ?
C20 C24 1.390(6) . ?
C21 C22 1.3