####################################################################### 
# 
# This file contains crystal structure data downloaded from the 
# Cambridge Structural Database (CSD) hosted by the Cambridge 
# Crystallographic Data Centre (CCDC).
# 
# Full information about CCDC data access policies and citation 
# guidelines are available at http://www.ccdc.cam.ac.uk/access/V1 
# 
# Audit and citation data items may have been added by the CCDC. 
# Please retain this information to preserve the provenance of 
# this file and to allow appropriate attribution of the data. 
# 
#######################################################################

data_p
_audit_block_doi                 10.5517/cczfr15
_database_code_depnum_ccdc_archive 'CCDC 906937'
loop_
_citation_id
_citation_doi
_citation_year
1 10.1002/ejic.201300211 2013
_audit_update_record             
;
2012-10-21 deposited with the CCDC.	2024-07-09 downloaded from the CCDC.
;
#TrackingRef '906936.cif'


_audit_creation_method           SHELXL-97
_chemical_name_systematic        
;
?
;
_chemical_name_common            ?
_chemical_melting_point          ?
_chemical_formula_moiety         ?
_chemical_formula_sum            'C30 H26 Fe N12 O2 S2'
_chemical_formula_weight         706.62

loop_
_atom_type_symbol
_atom_type_description
_atom_type_scat_dispersion_real
_atom_type_scat_dispersion_imag
_atom_type_scat_source
C C 0.0033 0.0016 'International Tables Vol C Tables 4.2.6.8 and 6.1.1.4'
H H 0.0000 0.0000 'International Tables Vol C Tables 4.2.6.8 and 6.1.1.4'
Fe Fe 0.3463 0.8444 'International Tables Vol C Tables 4.2.6.8 and 6.1.1.4'
N N 0.0061 0.0033 'International Tables Vol C Tables 4.2.6.8 and 6.1.1.4'
O O 0.0106 0.0060 'International Tables Vol C Tables 4.2.6.8 and 6.1.1.4'
S S 0.1246 0.1234 'International Tables Vol C Tables 4.2.6.8 and 6.1.1.4'

_symmetry_cell_setting           monoclinic
_symmetry_space_group_name_H-M   C2/c

loop_
_symmetry_equiv_pos_as_xyz
'x, y, z'
'-x, y, -z+1/2'
'x+1/2, y+1/2, z'
'-x+1/2, y+1/2, -z+1/2'
'-x, -y, -z'
'x, -y, z-1/2'
'-x+1/2, -y+1/2, -z'
'x+1/2, -y+1/2, z-1/2'

_cell_length_a                   23.0146(18)
_cell_length_b                   18.9142(15)
_cell_length_c                   8.6833(7)
_cell_angle_alpha                90.00
_cell_angle_beta                 104.926(7)
_cell_angle_gamma                90.00
_cell_volume                     3652.3(5)
_cell_formula_units_Z            4
_cell_measurement_temperature    200(2)
_cell_measurement_reflns_used    ?
_cell_measurement_theta_min      ?
_cell_measurement_theta_max      ?

_exptl_crystal_description       ?
_exptl_crystal_colour            ?
_exptl_crystal_size_max          0.40
_exptl_crystal_size_mid          0.30
_exptl_crystal_size_min          0.10
_exptl_crystal_density_meas      ?
_exptl_crystal_density_diffrn    1.285
_exptl_crystal_density_method    'not measured'
_exptl_crystal_F_000             1456
_exptl_absorpt_coefficient_mu    0.571
_exptl_absorpt_correction_type   multi-scan
_exptl_absorpt_correction_T_min  0.8037
_exptl_absorpt_correction_T_max  0.9451
_exptl_absorpt_process_details   ?

_exptl_special_details           
;
?
;

_diffrn_ambient_temperature      200(2)
_diffrn_radiation_wavelength     0.71073
_diffrn_radiation_type           MoK\a
_diffrn_radiation_source         'fine-focus sealed tube'
_diffrn_radiation_monochromator  graphite
_diffrn_measurement_device_type  ?
_diffrn_measurement_method       ?
_diffrn_detector_area_resol_mean ?
_diffrn_standards_number         ?
_diffrn_standards_interval_count ?
_diffrn_standards_interval_time  ?
_diffrn_standards_decay_%        ?
_diffrn_reflns_number            9609
_diffrn_reflns_av_R_equivalents  0.0550
_diffrn_reflns_av_sigmaI/netI    0.0720
_diffrn_reflns_limit_h_min       -16
_diffrn_reflns_limit_h_max       28
_diffrn_reflns_limit_k_min       -22
_diffrn_reflns_limit_k_max       23
_diffrn_reflns_limit_l_min       -10
_diffrn_reflns_limit_l_max       10
_diffrn_reflns_theta_min         2.83
_diffrn_reflns_theta_max         26.00
_reflns_number_total             3595
_reflns_number_gt                2651
_reflns_threshold_expression     >2sigma(I)

_computing_data_collection       ?
_computing_cell_refinement       ?
_computing_data_reduction        ?
_computing_structure_solution    'SHELXS-97 (Sheldrick, 1990)'
_computing_structure_refinement  'SHELXL-97 (Sheldrick, 1997)'
_computing_molecular_graphics    ?
_computing_publication_material  ?

_refine_special_details          
;
Refinement of F^2^ against ALL reflections. The weighted R-factor wR and
goodness of fit S are based on F^2^, conventional R-factors R are based
on F, with F set to zero for negative F^2^. The threshold expression of
F^2^ > 2sigma(F^2^) is used only for calculating R-factors(gt) etc. and is
not relevant to the choice of reflections for refinement. R-factors based
on F^2^ are statistically about twice as large as those based on F, and R-
factors based on ALL data will be even larger.
;

_refine_ls_structure_factor_coef Fsqd
_refine_ls_matrix_type           full
_refine_ls_weighting_scheme      calc
_refine_ls_weighting_details     
'calc w=1/[\s^2^(Fo^2^)+(0.1700P)^2^+6.8804P] where P=(Fo^2^+2Fc^2^)/3'
_atom_sites_solution_primary     direct
_atom_sites_solution_secondary   difmap
_atom_sites_solution_hydrogens   geom
_refine_ls_hydrogen_treatment    mixed
_refine_ls_extinction_method     none
_refine_ls_extinction_coef       ?
_refine_ls_number_reflns         3595
_refine_ls_number_parameters     213
_refine_ls_number_restraints     84
_refine_ls_R_factor_all          0.1207
_refine_ls_R_factor_gt           0.0919
_refine_ls_wR_factor_ref         0.2872
_refine_ls_wR_factor_gt          0.2629
_refine_ls_goodness_of_fit_ref   1.090
_refine_ls_restrained_S_all      1.087
_refine_ls_shift/su_max          0.000
_refine_ls_shift/su_mean         0.000

loop_
_atom_site_label
_atom_site_type_symbol
_atom_site_fract_x
_atom_site_fract_y
_atom_site_fract_z
_atom_site_U_iso_or_equiv
_atom_site_adp_type
_atom_site_occupancy
_atom_site_symmetry_multiplicity
_atom_site_calc_flag
_atom_site_refinement_flags
_atom_site_disorder_assembly
_atom_site_disorder_group
Fe1 Fe 0.0000 0.21112(5) 0.2500 0.0306(4) Uani 1 2 d S . .
C1 C 0.0795(3) 0.2925(3) 0.5407(7) 0.0479(14) Uani 1 1 d U . .
H1A H 0.0650 0.2564 0.5970 0.057 Uiso 1 1 calc R . .
C2 C 0.1202(3) 0.3404(3) 0.6259(7) 0.0493(14) Uani 1 1 d U . .
H2B H 0.1353 0.3352 0.7379 0.059 Uiso 1 1 calc R . .
C3 C 0.1390(2) 0.3959(3) 0.5485(7) 0.0449(13) Uani 1 1 d U . .
C4 C 0.1173(3) 0.3985(3) 0.3841(8) 0.0540(15) Uani 1 1 d U . .
H4B H 0.1291 0.4357 0.3252 0.065 Uiso 1 1 calc R . .
C5 C 0.0786(3) 0.3472(3) 0.3073(7) 0.0460(14) Uani 1 1 d U . .
H5A H 0.0647 0.3494 0.1944 0.055 Uiso 1 1 calc R . .
C6 C 0.1812(3) 0.4500(3) 0.6337(8) 0.0529(15) Uani 1 1 d U . .
H6A H 0.1864 0.4924 0.5801 0.063 Uiso 1 1 calc R . .
C7 C 0.3025(3) 0.4818(3) 0.8826(7) 0.0511(15) Uani 1 1 d U . .
H7A H 0.3156 0.4362 0.8610 0.061 Uiso 1 1 calc R . .
C8 C 0.3468(2) 0.5342(3) 0.9631(7) 0.0449(13) Uani 1 1 d U . .
C9 C 0.3312(2) 0.5962(3) 1.0232(7) 0.0435(13) Uani 1 1 d U . .
H9A H 0.2900 0.6072 1.0112 0.052 Uiso 1 1 calc R . .
C10 C 0.3751(2) 0.6429(3) 1.1012(7) 0.0440(13) Uani 1 1 d U . .
H10A H 0.3631 0.6850 1.1446 0.053 Uiso 1 1 calc R . .
C11 C 0.4480(3) 0.5726(4) 1.0566(10) 0.071(2) Uani 1 1 d U . .
H11A H 0.4893 0.5638 1.0647 0.086 Uiso 1 1 calc R . .
C12 C 0.4064(3) 0.5219(4) 0.9797(10) 0.0691(19) Uani 1 1 d U . .
H12A H 0.4194 0.4796 0.9398 0.083 Uiso 1 1 calc R . .
N1 N 0.05958(19) 0.2945(2) 0.3820(5) 0.0383(10) Uani 1 1 d . . .
N2 N 0.2098(3) 0.4413(3) 0.7730(8) 0.0723(18) Uani 1 1 d . . .
N3 N 0.2480(2) 0.4961(3) 0.8420(7) 0.0613(15) Uani 1 1 d . . .
N4 N 0.43409(18) 0.6314(2) 1.1183(5) 0.0407(11) Uani 1 1 d . . .
C13 C -0.0748(3) 0.1910(3) 0.5125(6) 0.0401(13) Uani 1 1 d . . .
N5 N -0.0464(2) 0.2075(2) 0.4294(6) 0.0449(11) Uani 1 1 d . . .
S1 S -0.11649(11) 0.16638(13) 0.6281(2) 0.0857(8) Uani 1 1 d . . .
C14 C 0.2135(6) 0.3192(7) 1.1273(15) 0.117(3) Uani 1 1 d U . .
C15 C 0.2345(6) 0.2676(8) 1.2613(16) 0.141(4) Uani 1 1 d U . .
H15A H 0.2648 0.2331 1.2487 0.212 Uiso 1 1 d R . .
H15B H 0.2006 0.2427 1.2857 0.212 Uiso 1 1 d R . .
H15C H 0.2525 0.3000 1.3485 0.212 Uiso 1 1 d R . .
N6 N 0.1688(10) 0.3647(12) 1.068(3) 0.272(9) Uani 1 1 d U . .
O1A O 0.0596(12) 0.4344(14) 0.957(3) 0.100(12) Uiso 0.27(2) 1 d P A 1
O1B O 0.0207(8) 0.4341(8) 0.8350(19) 0.176(8) Uiso 0.73(2) 1 d P . 2

loop_
_atom_site_aniso_label
_atom_site_aniso_U_11
_atom_site_aniso_U_22
_atom_site_aniso_U_33
_atom_site_aniso_U_23
_atom_site_aniso_U_13
_atom_site_aniso_U_12
Fe1 0.0221(5) 0.0268(6) 0.0348(6) 0.000 -0.0076(4) 0.000
C1 0.049(3) 0.040(3) 0.044(3) 0.004(2) -0.007(2) -0.012(2)
C2 0.047(3) 0.046(3) 0.043(3) -0.002(2) -0.011(2) -0.009(2)
C3 0.039(3) 0.040(3) 0.051(3) -0.013(2) 0.002(2) -0.005(2)
C4 0.060(3) 0.038(3) 0.059(3) 0.001(3) 0.007(3) -0.017(3)
C5 0.052(3) 0.038(3) 0.040(3) 0.001(2) -0.002(2) -0.010(2)
C6 0.049(3) 0.041(3) 0.063(4) -0.015(3) 0.005(3) -0.012(3)
C7 0.047(3) 0.035(3) 0.062(3) -0.013(3) -0.002(3) -0.008(2)
C8 0.031(2) 0.038(3) 0.060(3) -0.014(2) 0.002(2) -0.008(2)
C9 0.025(2) 0.042(3) 0.058(3) -0.009(2) 0.000(2) -0.002(2)
C10 0.026(2) 0.039(3) 0.061(3) -0.015(3) 0.001(2) -0.001(2)
C11 0.035(3) 0.056(4) 0.117(5) -0.047(4) 0.008(3) -0.005(3)
C12 0.038(3) 0.052(4) 0.111(5) -0.042(3) 0.007(3) -0.003(3)
N1 0.034(2) 0.033(2) 0.039(2) 0.0030(18) -0.0067(18) -0.0037(18)
N2 0.058(3) 0.043(3) 0.091(4) -0.009(3) -0.027(3) -0.017(3)
N3 0.038(3) 0.042(3) 0.086(4) -0.021(3) -0.016(3) -0.011(2)
N4 0.028(2) 0.038(3) 0.049(3) -0.011(2) -0.0018(18) -0.0015(18)
C13 0.043(3) 0.030(3) 0.040(3) -0.009(2) -0.002(2) 0.000(2)
N5 0.040(3) 0.045(3) 0.045(3) 0.002(2) 0.001(2) -0.001(2)
S1 0.0957(17) 0.1038(19) 0.0684(13) -0.0142(11) 0.0409(12) -0.0309(13)
C14 0.117(4) 0.117(4) 0.117(4) -0.0003(10) 0.0303(13) -0.0004(10)
C15 0.140(4) 0.141(4) 0.142(4) -0.0009(10) 0.0361(15) -0.0003(10)
N6 0.272(9) 0.272(9) 0.272(9) -0.0001(10) 0.070(2) -0.0003(10)

_geom_special_details            
;
All esds (except the esd in the dihedral angle between two l.s. planes)
are estimated using the full covariance matrix. The cell esds are taken
into account individually in the estimation of esds in distances, angles
and torsion angles; correlations between esds in cell parameters are only
used when they are defined by crystal symmetry. An approximate (isotropic)
treatment of cell esds is used for estimating esds involving l.s. planes.
;

loop_
_geom_bond_atom_site_label_1
_geom_bond_atom_site_label_2
_geom_bond_distance
_geom_bond_site_symmetry_2
_geom_bond_publ_flag
Fe1 N5 2.105(5) . ?
Fe1 N5 2.105(5) 2 ?
Fe1 N1 2.208(4) 2 ?
Fe1 N1 2.208(4) . ?
Fe1 N4 2.233(4) 3_444 ?
Fe1 N4 2.233(4) 4_546 ?
C1 N1 1.336(7) . ?
C1 C2 1.374(8) . ?
C1 H1A 0.9500 . ?
C2 C3 1.375(8) . ?
C2 H2B 0.9500 . ?
C3 C4 1.387(9) . ?
C3 C6 1.472(8) . ?
C4 C5 1.369(8) . ?
C4 H4B 0.9500 . ?
C5 N1 1.323(7) . ?
C5 H5A 0.9500 . ?
C6 N2 1.230(8) . ?
C6 H6A 0.9500 . ?
C7 N3 1.242(8) . ?
C7 C8 1.465(7) . ?
C7 H7A 0.9500 . ?
C8 C12 1.361(8) . ?
C8 C9 1.369(8) . ?
C9 C10 1.381(7) . ?
C9 H9A 0.9500 . ?
C10 N4 1.345(7) . ?
C10 H10A 0.9500 . ?
C11 N4 1.309(8) . ?
C11 C12 1.398(9) . ?
C11 H11A 0.9500 . ?
C12 H12A 0.9500 . ?
N2 N3 1.391(7) . ?
N4 Fe1 2.233(4) 3_556 ?
C13 N5 1.134(8) . ?
C13 S1 1.625(6) . ?
C14 N6 1.34(2) . ?
C14 C15 1.501(18) . ?
C15 H15A 0.9798 . ?
C15 H15B 0.9801 . ?
C15 H15C 0.9801 . ?
O1B O1B 1.54(3) 2_556 ?

loop_
_geom_angle_atom_site_label_1
_geom_angle_atom_site_label_2
_geom_angle_atom_site_label_3
_geom_angle
_geom_angle_site_symmetry_1
_geom_angle_site_symmetry_3
_geom_angle_publ_flag
N5 Fe1 N5 176.3(3) . 2 ?
N5 Fe1 N1 92.39(18) . 2 ?
N5 Fe1 N1 90.28(18) 2 2 ?
N5 Fe1 N1 90.28(18) . . ?
N5 Fe1 N1 92.39(18) 2 . ?
N1 Fe1 N1 88.8(2) 2 . ?
N5 Fe1 N4 87.10(18) . 3_444 ?
N5 Fe1 N4 90.38(18) 2 3_444 ?
N1 Fe1 N4 88.13(16) 2 3_444 ?
N1 Fe1 N4 175.86(16) . 3_444 ?
N5 Fe1 N4 90.38(18) . 4_546 ?
N5 Fe1 N4 87.10(18) 2 4_546 ?
N1 Fe1 N4 175.86(16) 2 4_546 ?
N1 Fe1 N4 88.13(16) . 4_546 ?
N4 Fe1 N4 95.1(2) 3_444 4_546 ?
N1 C1 C2 122.8(5) . . ?
N1 C1 H1A 118.6 . . ?
C2 C1 H1A 118.6 . . ?
C1 C2 C3 119.8(5) . . ?
C1 C2 H2B 120.1 . . ?
C3 C2 H2B 120.1 . . ?
C2 C3 C4 117.1(5) . . ?
C2 C3 C6 122.3(5) . . ?
C4 C3 C6 120.6(6) . . ?
C5 C4 C3 119.5(6) . . ?
C5 C4 H4B 120.2 . . ?
C3 C4 H4B 120.2 . . ?
N1 C5 C4 123.4(5) . . ?
N1 C5 H5A 118.3 . . ?
C4 C5 H5A 118.3 . . ?
N2 C6 C3 121.2(6) . . ?
N2 C6 H6A 119.4 . . ?
C3 C6 H6A 119.4 . . ?
N3 C7 C8 121.2(6) . . ?
N3 C7 H7A 119.4 . . ?
C8 C7 H7A 119.4 . . ?
C12 C8 C9 117.6(5) . . ?
C12 C8 C7 119.6(5) . . ?
C9 C8 C7 122.8(5) . . ?
C8 C9 C10 120.3(5) . . ?
C8 C9 H9A 119.9 . . ?
C10 C9 H9A 119.9 . . ?
N4 C10 C9 122.7(5) . . ?
N4 C10 H10A 118.6 . . ?
C9 C10 H10A 118.6 . . ?
N4 C11 C12 124.7(6) . . ?
N4 C11 H11A 117.6 . . ?
C12 C11 H11A 117.6 . . ?
C8 C12 C11 118.6(6) . . ?
C8 C12 H12A 120.7 . . ?
C11 C12 H12A 120.7 . . ?
C5 N1 C1 117.3(5) . . ?
C5 N1 Fe1 121.5(4) . . ?
C1 N1 Fe1 121.2(4) . . ?
C6 N2 N3 116.3(6) . . ?
C7 N3 N2 116.1(5) . . ?
C11 N4 C10 116.0(5) . . ?
C11 N4 Fe1 125.3(4) . 3_556 ?
C10 N4 Fe1 118.7(3) . 3_556 ?
N5 C13 S1 178.6(5) . . ?
C13 N5 Fe1 164.7(5) . . ?
N6 C14 C15 141.3(15) . . ?
C14 C15 H15A 116.3 . . ?
C14 C15 H15B 111.4 . . ?
H15A C15 H15B 109.5 . . ?
C14 C15 H15C 100.3 . . ?
H15A C15 H15C 109.5 . . ?
H15B C15 H15C 109.5 . . ?

_diffrn_measured_fraction_theta_max 0.999
_diffrn_reflns_theta_full        26.00
_diffrn_measured_fraction_theta_full 0.999
_refine_diff_density_max         1.790
_refine_diff_density_min         -0.624
_refine_diff_density_rms         0.108
