####################################################################### 
# 
# This file contains crystal structure data downloaded from the 
# Cambridge Structural Database (CSD) hosted by the Cambridge 
# Crystallographic Data Centre (CCDC).
# 
# Full information about CCDC data access policies and citation 
# guidelines are available at http://www.ccdc.cam.ac.uk/access/V1 
# 
# Audit and citation data items may have been added by the CCDC. 
# Please retain this information to preserve the provenance of 
# this file and to allow appropriate attribution of the data. 
# 
#######################################################################

data_440
_audit_block_doi                 10.5517/cczfr04
_database_code_depnum_ccdc_archive 'CCDC 906936'
loop_
_citation_id
_citation_doi
_citation_year
1 10.1002/ejic.201300211 2013
_audit_update_record             
;
2012-10-21 deposited with the CCDC.	2024-07-09 downloaded from the CCDC.
;
#TrackingRef '906936.cif'


_audit_creation_method           SHELXL-97
_chemical_name_systematic        
;
?
;
_chemical_name_common            ?
_chemical_melting_point          ?
_chemical_formula_moiety         ?
_chemical_formula_sum            'C30 H26 Fe N12 O2 S2'
_chemical_formula_weight         706.60

loop_
_atom_type_symbol
_atom_type_description
_atom_type_scat_dispersion_real
_atom_type_scat_dispersion_imag
_atom_type_scat_source
C C 0.0033 0.0016 'International Tables Vol C Tables 4.2.6.8 and 6.1.1.4'
H H 0.0000 0.0000 'International Tables Vol C Tables 4.2.6.8 and 6.1.1.4'
Fe Fe 0.3463 0.8444 'International Tables Vol C Tables 4.2.6.8 and 6.1.1.4'
N N 0.0061 0.0033 'International Tables Vol C Tables 4.2.6.8 and 6.1.1.4'
O O 0.0106 0.0060 'International Tables Vol C Tables 4.2.6.8 and 6.1.1.4'
S S 0.1246 0.1234 'International Tables Vol C Tables 4.2.6.8 and 6.1.1.4'

_symmetry_cell_setting           ' monoclinic'
_symmetry_space_group_name_H-M   C2/C

loop_
_symmetry_equiv_pos_as_xyz
'x, y, z'
'-x, y, -z+1/2'
'x+1/2, y+1/2, z'
'-x+1/2, y+1/2, -z+1/2'
'-x, -y, -z'
'x, -y, z-1/2'
'-x+1/2, -y+1/2, -z'
'x+1/2, -y+1/2, z-1/2'

_cell_length_a                   22.5417(15)
_cell_length_b                   18.8410(10)
_cell_length_c                   8.6041(5)
_cell_angle_alpha                90.00
_cell_angle_beta                 105.054(6)
_cell_angle_gamma                90.00
_cell_volume                     3528.8(4)
_cell_formula_units_Z            4
_cell_measurement_temperature    105(2)
_cell_measurement_reflns_used    ?
_cell_measurement_theta_min      ?
_cell_measurement_theta_max      ?

_exptl_crystal_description       ?
_exptl_crystal_colour            ?
_exptl_crystal_size_max          0.40
_exptl_crystal_size_mid          0.30
_exptl_crystal_size_min          0.10
_exptl_crystal_density_meas      ?
_exptl_crystal_density_diffrn    1.330
_exptl_crystal_density_method    'not measured'
_exptl_crystal_F_000             1456
_exptl_absorpt_coefficient_mu    0.591
_exptl_absorpt_correction_type   ?
_exptl_absorpt_correction_T_min  0.7979
_exptl_absorpt_correction_T_max  0.9432
_exptl_absorpt_process_details   ?

_exptl_special_details           
;
?
;

_diffrn_ambient_temperature      105(2)
_diffrn_radiation_wavelength     0.71073
_diffrn_radiation_type           MoK\a
_diffrn_radiation_source         'fine-focus sealed tube'
_diffrn_radiation_monochromator  graphite
_diffrn_measurement_device_type  ?
_diffrn_measurement_method       ?
_diffrn_detector_area_resol_mean ?
_diffrn_standards_number         ?
_diffrn_standards_interval_count ?
_diffrn_standards_interval_time  ?
_diffrn_standards_decay_%        ?
_diffrn_reflns_number            8385
_diffrn_reflns_av_R_equivalents  0.0469
_diffrn_reflns_av_sigmaI/netI    0.0660
_diffrn_reflns_limit_h_min       -25
_diffrn_reflns_limit_h_max       27
_diffrn_reflns_limit_k_min       -19
_diffrn_reflns_limit_k_max       23
_diffrn_reflns_limit_l_min       -10
_diffrn_reflns_limit_l_max       9
_diffrn_reflns_theta_min         2.86
_diffrn_reflns_theta_max         26.00
_reflns_number_total             3473
_reflns_number_gt                2650
_reflns_threshold_expression     >2sigma(I)

_computing_data_collection       ?
_computing_cell_refinement       ?
_computing_data_reduction        ?
_computing_structure_solution    'SHELXS-97 (Sheldrick, 1990)'
_computing_structure_refinement  'SHELXL-97 (Sheldrick, 1997)'
_computing_molecular_graphics    ?
_computing_publication_material  ?

_refine_special_details          
;
Refinement of F^2^ against ALL reflections. The weighted R-factor wR and
goodness of fit S are based on F^2^, conventional R-factors R are based
on F, with F set to zero for negative F^2^. The threshold expression of
F^2^ > 2sigma(F^2^) is used only for calculating R-factors(gt) etc. and is
not relevant to the choice of reflections for refinement. R-factors based
on F^2^ are statistically about twice as large as those based on F, and R-
factors based on ALL data will be even larger.
;

_refine_ls_structure_factor_coef Fsqd
_refine_ls_matrix_type           full
_refine_ls_weighting_scheme      calc
_refine_ls_weighting_details     
'calc w=1/[\s^2^(Fo^2^)+(0.1155P)^2^+10.9247P] where P=(Fo^2^+2Fc^2^)/3'
_atom_sites_solution_primary     direct
_atom_sites_solution_secondary   difmap
_atom_sites_solution_hydrogens   geom
_refine_ls_hydrogen_treatment    mixed
_refine_ls_extinction_method     none
_refine_ls_extinction_coef       ?
_refine_ls_number_reflns         3473
_refine_ls_number_parameters     223
_refine_ls_number_restraints     0
_refine_ls_R_factor_all          0.1087
_refine_ls_R_factor_gt           0.0852
_refine_ls_wR_factor_ref         0.2336
_refine_ls_wR_factor_gt          0.2159
_refine_ls_goodness_of_fit_ref   1.078
_refine_ls_restrained_S_all      1.078
_refine_ls_shift/su_max          0.000
_refine_ls_shift/su_mean         0.000

loop_
_atom_site_label
_atom_site_type_symbol
_atom_site_fract_x
_atom_site_fract_y
_atom_site_fract_z
_atom_site_U_iso_or_equiv
_atom_site_adp_type
_atom_site_occupancy
_atom_site_symmetry_multiplicity
_atom_site_calc_flag
_atom_site_refinement_flags
_atom_site_disorder_assembly
_atom_site_disorder_group
Fe1 Fe 0.0000 0.21509(5) 0.7500 0.0290(3) Uani 1 2 d S . .
N1 N 0.05829(19) 0.2942(2) 0.8767(5) 0.0369(10) Uani 1 1 d . . .
N2 N 0.2118(2) 0.4420(2) 1.2713(7) 0.0655(16) Uani 1 1 d . . .
N3 N 0.2499(2) 0.4982(2) 1.3414(7) 0.0593(14) Uani 1 1 d . . .
N4 N 0.43650(19) 0.6380(2) 1.6227(5) 0.0396(10) Uani 1 1 d . . .
C1 C 0.0776(3) 0.3478(3) 0.8000(6) 0.0441(13) Uani 1 1 d . . .
H1A H 0.0634 0.3502 0.6861 0.053 Uiso 1 1 calc R . .
C2 C 0.1169(3) 0.3990(3) 0.8781(6) 0.0496(14) Uani 1 1 d . . .
H2B H 0.1291 0.4361 0.8184 0.060 Uiso 1 1 calc R . .
C3 C 0.1389(3) 0.3972(3) 1.0436(7) 0.0435(13) Uani 1 1 d . . .
C4 C 0.1191(2) 0.3416(3) 1.1240(6) 0.0444(13) Uani 1 1 d . . .
H4B H 0.1334 0.3377 1.2377 0.053 Uiso 1 1 calc R . .
C5 C 0.0789(2) 0.2927(3) 1.0377(6) 0.0413(12) Uani 1 1 d . . .
H5A H 0.0648 0.2559 1.0947 0.050 Uiso 1 1 calc R . .
C6 C 0.1816(3) 0.4517(3) 1.1297(8) 0.0520(14) Uani 1 1 d . . .
H6A H 0.1862 0.4948 1.0767 0.062 Uiso 1 1 calc R . .
C7 C 0.3058(3) 0.4854(3) 1.3839(7) 0.0462(13) Uani 1 1 d . . .
H7A H 0.3200 0.4398 1.3632 0.055 Uiso 1 1 calc R . .
C8 C 0.3501(2) 0.5386(3) 1.4649(6) 0.0412(12) Uani 1 1 d . . .
C9 C 0.3331(2) 0.6005(3) 1.5280(6) 0.0405(12) Uani 1 1 d . . .
H9A H 0.2909 0.6105 1.5173 0.049 Uiso 1 1 calc R . .
C10 C 0.3770(2) 0.6469(3) 1.6054(7) 0.0409(12) Uani 1 1 d . . .
H10A H 0.3641 0.6884 1.6500 0.049 Uiso 1 1 calc R . .
C11 C 0.4529(3) 0.5811(4) 1.5574(10) 0.081(3) Uani 1 1 d . . .
H11A H 0.4952 0.5746 1.5622 0.097 Uiso 1 1 calc R . .
C12 C 0.4115(3) 0.5301(4) 1.4819(11) 0.086(3) Uani 1 1 d . . .
H12A H 0.4259 0.4885 1.4412 0.104 Uiso 1 1 calc R . .
N5 N 0.0455(2) 0.2113(2) 0.5765(5) 0.0396(10) Uani 1 1 d . . .
C13 C 0.0741(2) 0.1927(2) 0.4898(5) 0.0308(10) Uani 1 1 d . . .
S1 S 0.11406(8) 0.16644(9) 0.36944(18) 0.0584(5) Uani 1 1 d . . .
C14 C 0.2674(4) 0.7754(4) 1.7701(11) 0.080(2) Uani 1 1 d . . .
N6 N 0.2556(5) 0.7443(8) 1.6356(16) 0.172(4) Uani 1 1 d . . .
C15 C 0.3036(6) 0.8352(6) 1.8995(10) 0.176(8) Uani 1 1 d . . .
H15A H 0.2909 0.8310 1.9998 0.265 Uiso 1 1 calc R . .
H15B H 0.2934 0.8827 1.8541 0.265 Uiso 1 1 calc R . .
H15C H 0.3480 0.8276 1.9216 0.265 Uiso 1 1 calc R . .
O1A O 0.0525(9) 0.4343(7) 1.450(2) 0.110(8) Uani 0.412(19) 1 d P A 1
O1B O 0.0209(5) 0.4294(6) 1.3277(14) 0.088(4) Uani 0.588(19) 1 d P . 2

loop_
_atom_site_aniso_label
_atom_site_aniso_U_11
_atom_site_aniso_U_22
_atom_site_aniso_U_33
_atom_site_aniso_U_23
_atom_site_aniso_U_13
_atom_site_aniso_U_12
Fe1 0.0251(5) 0.0267(5) 0.0314(5) 0.000 0.0006(4) 0.000
N1 0.039(2) 0.038(2) 0.031(2) 0.0097(17) 0.0052(17) 0.0013(18)
N2 0.051(3) 0.036(3) 0.093(4) 0.013(3) -0.012(3) -0.009(2)
N3 0.044(3) 0.031(2) 0.094(4) -0.002(2) 0.002(3) -0.008(2)
N4 0.032(2) 0.032(2) 0.054(3) 0.0011(19) 0.0097(19) 0.0070(17)
C1 0.050(3) 0.044(3) 0.039(3) 0.009(2) 0.013(2) 0.005(3)
C2 0.072(4) 0.037(3) 0.043(3) 0.009(2) 0.022(3) -0.005(3)
C3 0.049(3) 0.031(3) 0.051(3) 0.002(2) 0.015(2) 0.002(2)
C4 0.040(3) 0.046(3) 0.041(3) 0.010(2) -0.001(2) 0.000(2)
C5 0.041(3) 0.042(3) 0.037(3) 0.014(2) 0.002(2) -0.002(2)
C6 0.063(4) 0.035(3) 0.063(4) -0.001(3) 0.024(3) -0.003(3)
C7 0.044(3) 0.033(3) 0.056(3) -0.004(2) 0.001(3) 0.006(2)
C8 0.037(3) 0.033(3) 0.051(3) -0.002(2) 0.007(2) 0.002(2)
C9 0.030(3) 0.033(3) 0.060(3) 0.004(2) 0.012(2) 0.003(2)
C10 0.037(3) 0.026(2) 0.065(3) -0.003(2) 0.024(2) 0.001(2)
C11 0.033(3) 0.057(4) 0.147(7) -0.051(4) 0.013(4) 0.011(3)
C12 0.040(4) 0.056(4) 0.158(8) -0.055(5) 0.016(4) 0.012(3)
N5 0.038(2) 0.041(2) 0.035(2) -0.0031(19) 0.0021(19) -0.0015(19)
C13 0.032(3) 0.026(2) 0.027(2) 0.0068(18) -0.0058(19) -0.0060(19)
S1 0.0598(10) 0.0780(12) 0.0425(8) 0.0133(7) 0.0225(7) 0.0157(8)
C14 0.056(5) 0.073(5) 0.099(6) -0.037(4) -0.002(4) 0.011(3)
N6 0.119(9) 0.200(11) 0.199(11) -0.024(11) 0.044(9) 0.019(9)
C15 0.280(15) 0.211(12) 0.085(6) 0.111(8) 0.132(9) 0.213(12)
O1A 0.185(18) 0.089(10) 0.063(12) -0.015(7) 0.047(12) -0.083(11)
O1B 0.081(7) 0.122(8) 0.063(7) -0.015(5) 0.024(5) -0.016(6)

_geom_special_details            
;
All esds (except the esd in the dihedral angle between two l.s. planes)
are estimated using the full covariance matrix. The cell esds are taken
into account individually in the estimation of esds in distances, angles
and torsion angles; correlations between esds in cell parameters are only
used when they are defined by crystal symmetry. An approximate (isotropic)
treatment of cell esds is used for estimating esds involving l.s. planes.
;

loop_
_geom_bond_atom_site_label_1
_geom_bond_atom_site_label_2
_geom_bond_distance
_geom_bond_site_symmetry_2
_geom_bond_publ_flag
Fe1 N5 2.021(5) . ?
Fe1 N5 2.021(5) 2_556 ?
Fe1 N1 2.095(4) . ?
Fe1 N1 2.095(4) 2_556 ?
Fe1 N4 2.132(4) 3_444 ?
Fe1 N4 2.132(4) 4_547 ?
N1 C1 1.340(7) . ?
N1 C5 1.342(6) . ?
N2 C6 1.245(8) . ?
N2 N3 1.398(7) . ?
N3 C7 1.240(7) . ?
N4 C11 1.307(7) . ?
N4 C10 1.322(6) . ?
N4 Fe1 2.132(4) 3_556 ?
C1 C2 1.362(8) . ?
C1 H1A 0.9500 . ?
C2 C3 1.381(8) . ?
C2 H2B 0.9500 . ?
C3 C4 1.391(7) . ?
C3 C6 1.468(8) . ?
C4 C5 1.369(7) . ?
C4 H4B 0.9500 . ?
C5 H5A 0.9500 . ?
C6 H6A 0.9500 . ?
C7 C8 1.458(7) . ?
C7 H7A 0.9500 . ?
C8 C12 1.362(8) . ?
C8 C9 1.382(7) . ?
C9 C10 1.359(7) . ?
C9 H9A 0.9500 . ?
C10 H10A 0.9500 . ?
C11 C12 1.380(9) . ?
C11 H11A 0.9500 . ?
C12 H12A 0.9500 . ?
N5 C13 1.160(6) . ?
C13 S1 1.616(5) . ?
C14 N6 1.262(14) . ?
C14 C15 1.644(16) . ?
C15 H15A 0.9800 . ?
C15 H15B 0.9800 . ?
C15 H15C 0.9800 . ?
O1B O1B 1.42(2) 2_557 ?

loop_
_geom_angle_atom_site_label_1
_geom_angle_atom_site_label_2
_geom_angle_atom_site_label_3
_geom_angle
_geom_angle_site_symmetry_1
_geom_angle_site_symmetry_3
_geom_angle_publ_flag
N5 Fe1 N5 176.0(2) . 2_556 ?
N5 Fe1 N1 92.24(16) . . ?
N5 Fe1 N1 90.60(17) 2_556 . ?
N5 Fe1 N1 90.60(16) . 2_556 ?
N5 Fe1 N1 92.24(16) 2_556 2_556 ?
N1 Fe1 N1 89.4(2) . 2_556 ?
N5 Fe1 N4 89.92(17) . 3_444 ?
N5 Fe1 N4 87.36(17) 2_556 3_444 ?
N1 Fe1 N4 176.84(16) . 3_444 ?
N1 Fe1 N4 88.32(15) 2_556 3_444 ?
N5 Fe1 N4 87.36(17) . 4_547 ?
N5 Fe1 N4 89.92(17) 2_556 4_547 ?
N1 Fe1 N4 88.32(15) . 4_547 ?
N1 Fe1 N4 176.84(16) 2_556 4_547 ?
N4 Fe1 N4 94.1(2) 3_444 4_547 ?
C1 N1 C5 117.0(4) . . ?
C1 N1 Fe1 121.3(3) . . ?
C5 N1 Fe1 121.6(3) . . ?
C6 N2 N3 115.5(5) . . ?
C7 N3 N2 116.3(5) . . ?
C11 N4 C10 116.7(5) . . ?
C11 N4 Fe1 123.5(4) . 3_556 ?
C10 N4 Fe1 119.8(3) . 3_556 ?
N1 C1 C2 122.9(5) . . ?
N1 C1 H1A 118.5 . . ?
C2 C1 H1A 118.5 . . ?
C1 C2 C3 120.4(5) . . ?
C1 C2 H2B 119.8 . . ?
C3 C2 H2B 119.8 . . ?
C2 C3 C4 117.0(5) . . ?
C2 C3 C6 121.1(5) . . ?
C4 C3 C6 121.9(5) . . ?
C5 C4 C3 119.4(5) . . ?
C5 C4 H4B 120.3 . . ?
C3 C4 H4B 120.3 . . ?
N1 C5 C4 123.3(5) . . ?
N1 C5 H5A 118.4 . . ?
C4 C5 H5A 118.4 . . ?
N2 C6 C3 120.8(5) . . ?
N2 C6 H6A 119.6 . . ?
C3 C6 H6A 119.6 . . ?
N3 C7 C8 121.6(5) . . ?
N3 C7 H7A 119.2 . . ?
C8 C7 H7A 119.2 . . ?
C12 C8 C9 115.8(5) . . ?
C12 C8 C7 121.4(5) . . ?
C9 C8 C7 122.8(5) . . ?
C10 C9 C8 119.6(5) . . ?
C10 C9 H9A 120.2 . . ?
C8 C9 H9A 120.2 . . ?
N4 C10 C9 124.2(5) . . ?
N4 C10 H10A 117.9 . . ?
C9 C10 H10A 117.9 . . ?
N4 C11 C12 122.7(6) . . ?
N4 C11 H11A 118.6 . . ?
C12 C11 H11A 118.6 . . ?
C8 C12 C11 120.9(5) . . ?
C8 C12 H12A 119.6 . . ?
C11 C12 H12A 119.6 . . ?
C13 N5 Fe1 163.6(4) . . ?
N5 C13 S1 179.8(5) . . ?
N6 C14 C15 152.6(11) . . ?
C14 C15 H15A 109.5 . . ?
C14 C15 H15B 109.5 . . ?
H15A C15 H15B 109.5 . . ?
C14 C15 H15C 109.5 . . ?
H15A C15 H15C 109.5 . . ?
H15B C15 H15C 109.5 . . ?

loop_
_geom_torsion_atom_site_label_1
_geom_torsion_atom_site_label_2
_geom_torsion_atom_site_label_3
_geom_torsion_atom_site_label_4
_geom_torsion
_geom_torsion_site_symmetry_1
_geom_torsion_site_symmetry_2
_geom_torsion_site_symmetry_3
_geom_torsion_site_symmetry_4
_geom_torsion_publ_flag
N5 Fe1 N1 C1 40.3(4) . . . . ?
N5 Fe1 N1 C1 -142.5(4) 2_556 . . . ?
N1 Fe1 N1 C1 -50.3(4) 2_556 . . . ?
N4 Fe1 N1 C1 -93(3) 3_444 . . . ?
N4 Fe1 N1 C1 127.6(4) 4_547 . . . ?
N5 Fe1 N1 C5 -138.3(4) . . . . ?
N5 Fe1 N1 C5 38.9(4) 2_556 . . . ?
N1 Fe1 N1 C5 131.1(5) 2_556 . . . ?
N4 Fe1 N1 C5 89(3) 3_444 . . . ?
N4 Fe1 N1 C5 -51.0(4) 4_547 . . . ?
C6 N2 N3 C7 -118.2(7) . . . . ?
C5 N1 C1 C2 0.6(8) . . . . ?
Fe1 N1 C1 C2 -178.1(4) . . . . ?
N1 C1 C2 C3 0.3(9) . . . . ?
C1 C2 C3 C4 -0.2(9) . . . . ?
C1 C2 C3 C6 179.5(5) . . . . ?
C2 C3 C4 C5 -0.9(8) . . . . ?
C6 C3 C4 C5 179.4(5) . . . . ?
C1 N1 C5 C4 -1.7(8) . . . . ?
Fe1 N1 C5 C4 177.0(4) . . . . ?
C3 C4 C5 N1 1.9(9) . . . . ?
N3 N2 C6 C3 -178.7(5) . . . . ?
C2 C3 C6 N2 -163.8(6) . . . . ?
C4 C3 C6 N2 15.8(9) . . . . ?
N2 N3 C7 C8 -177.3(5) . . . . ?
N3 C7 C8 C12 -166.3(7) . . . . ?
N3 C7 C8 C9 13.2(9) . . . . ?
C12 C8 C9 C10 -2.0(9) . . . . ?
C7 C8 C9 C10 178.4(5) . . . . ?
C11 N4 C10 C9 1.3(9) . . . . ?
Fe1 N4 C10 C9 -179.3(4) 3_556 . . . ?
C8 C9 C10 N4 1.6(8) . . . . ?
C10 N4 C11 C12 -3.7(12) . . . . ?
Fe1 N4 C11 C12 176.9(7) 3_556 . . . ?
C9 C8 C12 C11 -0.2(12) . . . . ?
C7 C8 C12 C11 179.4(7) . . . . ?
N4 C11 C12 C8 3.2(14) . . . . ?
N5 Fe1 N5 C13 -16.8(14) 2_556 . . . ?
N1 Fe1 N5 C13 118.5(14) . . . . ?
N1 Fe1 N5 C13 -152.1(14) 2_556 . . . ?
N4 Fe1 N5 C13 -63.8(14) 3_444 . . . ?
N4 Fe1 N5 C13 30.3(14) 4_547 . . . ?
Fe1 N5 C13 S1 -18(100) . . . . ?

_diffrn_measured_fraction_theta_max 0.999
_diffrn_reflns_theta_full        26.00
_diffrn_measured_fraction_theta_full 0.999
_refine_diff_density_max         1.493
_refine_diff_density_min         -0.830
_refine_diff_density_rms         0.099
