####################################################################### 
# 
# This file contains crystal structure data downloaded from the 
# Cambridge Structural Database (CSD) hosted by the Cambridge 
# Crystallographic Data Centre (CCDC).
# 
# Full information about CCDC data access policies and citation 
# guidelines are available at http://www.ccdc.cam.ac.uk/access/V1 
# 
# Audit and citation data items may have been added by the CCDC. 
# Please retain this information to preserve the provenance of 
# this file and to allow appropriate attribution of the data. 
# 
#######################################################################

data_Compound1
_audit_block_doi                 10.5517/ccz5pkc
_database_code_depnum_ccdc_archive 'CCDC 899203'
loop_
_citation_id
_citation_doi
_citation_year
1 10.1002/chem.201301744 2013
_audit_update_record             
;
2012-08-30 deposited with the CCDC.	2024-07-09 downloaded from the CCDC.
;
#TrackingRef 'compound1.cif'


_audit_creation_method           SHELXL-97
_chemical_name_systematic        
;
?
;
_chemical_name_common            Compound1
_chemical_melting_point          ?
_chemical_formula_moiety         'C54 H72 Cu4 N15 O24'
_chemical_formula_sum            'C54 H72 Cu4 N15 O24'
_chemical_formula_weight         1569.43

loop_
_atom_type_symbol
_atom_type_description
_atom_type_scat_dispersion_real
_atom_type_scat_dispersion_imag
_atom_type_scat_source
C C 0.0033 0.0016 'International Tables Vol C Tables 4.2.6.8 and 6.1.1.4'
H H 0.0000 0.0000 'International Tables Vol C Tables 4.2.6.8 and 6.1.1.4'
Cu Cu 0.3201 1.2651 'International Tables Vol C Tables 4.2.6.8 and 6.1.1.4'
N N 0.0061 0.0033 'International Tables Vol C Tables 4.2.6.8 and 6.1.1.4'
O O 0.0106 0.0060 'International Tables Vol C Tables 4.2.6.8 and 6.1.1.4'

_symmetry_cell_setting           Orthorhombic
_symmetry_space_group_name_H-M   'P 2 21 21'

loop_
_symmetry_equiv_pos_as_xyz
'x, y, z'
'-x, -y+1/2, z+1/2'
'x, -y, -z'
'-x, y+1/2, -z+1/2'

_cell_length_a                   8.280(5)
_cell_length_b                   15.304(5)
_cell_length_c                   27.239(5)
_cell_angle_alpha                90.000(5)
_cell_angle_beta                 90.000(5)
_cell_angle_gamma                90.000(5)
_cell_volume                     3452(2)
_cell_formula_units_Z            2
_cell_measurement_temperature    200(2)
_cell_measurement_reflns_used    ?
_cell_measurement_theta_min      ?
_cell_measurement_theta_max      ?

_exptl_crystal_description       'Rod shaped'
_exptl_crystal_colour            Blue
_exptl_crystal_size_max          0.10
_exptl_crystal_size_mid          0.08
_exptl_crystal_size_min          0.06
_exptl_crystal_density_meas      ?
_exptl_crystal_density_diffrn    1.510
_exptl_crystal_density_method    'not measured'
_exptl_crystal_F_000             1618
_exptl_absorpt_coefficient_mu    1.301
_exptl_absorpt_correction_type   multi-scan
_exptl_absorpt_correction_T_min  0.8809
_exptl_absorpt_correction_T_max  0.9260
_exptl_absorpt_process_details   'multi-scan absorption correction'

_exptl_special_details           
;
?
;

_diffrn_ambient_temperature      200(2)
_diffrn_radiation_wavelength     0.71069
_diffrn_radiation_type           MoK\a
_diffrn_radiation_source         'fine-focus sealed tube'
_diffrn_radiation_monochromator  graphite
_diffrn_measurement_device_type  ?
_diffrn_measurement_method       ?
_diffrn_detector_area_resol_mean ?
_diffrn_standards_number         ?
_diffrn_standards_interval_count ?
_diffrn_standards_interval_time  ?
_diffrn_standards_decay_%        ?
_diffrn_reflns_number            15855
_diffrn_reflns_av_R_equivalents  0.0263
_diffrn_reflns_av_sigmaI/netI    0.0489
_diffrn_reflns_limit_h_min       -10
_diffrn_reflns_limit_h_max       9
_diffrn_reflns_limit_k_min       -17
_diffrn_reflns_limit_k_max       19
_diffrn_reflns_limit_l_min       -34
_diffrn_reflns_limit_l_max       30
_diffrn_reflns_theta_min         2.57
_diffrn_reflns_theta_max         27.00
_reflns_number_total             7403
_reflns_number_gt                6782
_reflns_threshold_expression     >2\s(I)

_computing_data_collection       'Bruker SMART'
_computing_cell_refinement       'Bruker SMART'
_computing_data_reduction        'Bruker SAINT'
_computing_structure_solution    'SHELXL-97 (Sheldrick, 2008)'
_computing_structure_refinement  'SHELXL-97 (Sheldrick, 2008)'
_computing_molecular_graphics    'Bruker SHELXTL'
_computing_publication_material  'Bruker SHELXTL'

_refine_special_details          
;
Refinement of F^2^ against ALL reflections. The weighted R-factor wR and
goodness of fit S are based on F^2^, conventional R-factors R are based
on F, with F set to zero for negative F^2^. The threshold expression of
F^2^ > 2\s(F^2^) is used only for calculating R-factors(gt) etc. and is
not relevant to the choice of reflections for refinement. R-factors based
on F^2^ are statistically about twice as large as those based on F, and R-
factors based on ALL data will be even larger.
;

_refine_ls_structure_factor_coef Fsqd
_refine_ls_matrix_type           full
_refine_ls_weighting_scheme      calc
_refine_ls_weighting_details     
'calc w=1/[\s^2^(Fo^2^)+(0.0800P)^2^+2.6148P] where P=(Fo^2^+2Fc^2^)/3'
_atom_sites_solution_primary     direct
_atom_sites_solution_secondary   difmap
_atom_sites_solution_hydrogens   geom
_refine_ls_hydrogen_treatment    Riding
_refine_ls_extinction_method     none
_refine_ls_extinction_coef       ?
_refine_ls_abs_structure_details 'Flack H D (1983), Acta Cryst. A39, 876-881'
_refine_ls_abs_structure_Flack   0.034(17)
_refine_ls_number_reflns         7403
_refine_ls_number_parameters     439
_refine_ls_number_restraints     1
_refine_ls_R_factor_all          0.0529
_refine_ls_R_factor_gt           0.0479
_refine_ls_wR_factor_ref         0.1397
_refine_ls_wR_factor_gt          0.1367
_refine_ls_goodness_of_fit_ref   1.107
_refine_ls_restrained_S_all      1.107
_refine_ls_shift/su_max          1.629
_refine_ls_shift/su_mean         0.004

loop_
_atom_site_label
_atom_site_type_symbol
_atom_site_fract_x
_atom_site_fract_y
_atom_site_fract_z
_atom_site_U_iso_or_equiv
_atom_site_adp_type
_atom_site_occupancy
_atom_site_symmetry_multiplicity
_atom_site_calc_flag
_atom_site_refinement_flags
_atom_site_disorder_assembly
_atom_site_disorder_group
C1 C 0.9944(12) 1.3533(4) 0.3618(3) 0.069(2) Uani 1 1 d . . .
C2 C 1.020(3) 1.3160(6) 0.4116(3) 0.151(7) Uani 1 1 d . . .
H2A H 1.1136 1.3425 0.4269 0.181 Uiso 1 1 calc R . .
H2B H 0.9264 1.3275 0.4321 0.181 Uiso 1 1 calc R . .
C3 C 1.0435(7) 1.2241(4) 0.4067(2) 0.0448(14) Uani 1 1 d . . .
H3A H 0.9769 1.1922 0.4299 0.054 Uiso 1 1 calc R . .
H3B H 1.1558 1.2087 0.4121 0.054 Uiso 1 1 calc R . .
C4 C 0.9930(6) 1.2041(3) 0.35391(18) 0.0313(10) Uani 1 1 d . . .
H4 H 1.0781 1.1708 0.3374 0.038 Uiso 1 1 calc R . .
C5 C 0.8340(5) 1.1523(3) 0.35292(17) 0.0279(10) Uani 1 1 d . . .
C6 C 0.6048(5) 0.8276(3) 0.19576(17) 0.0278(10) Uani 1 1 d . . .
C7 C 0.4719(7) 0.8725(4) 0.1697(2) 0.0482(15) Uani 1 1 d . . .
H7A H 0.3718 0.8401 0.1728 0.058 Uiso 1 1 calc R . .
H7B H 0.4972 0.8798 0.1352 0.058 Uiso 1 1 calc R . .
C8 C 0.4597(7) 0.9599(4) 0.1951(2) 0.0477(15) Uani 1 1 d . . .
H8A H 0.3724 0.9599 0.2189 0.057 Uiso 1 1 calc R . .
H8B H 0.4408 1.0063 0.1715 0.057 Uiso 1 1 calc R . .
C9 C 0.6249(6) 0.9721(3) 0.22098(18) 0.0300(10) Uani 1 1 d . . .
H9 H 0.6950 1.0092 0.2008 0.036 Uiso 1 1 calc R . .
C10 C 0.6085(5) 1.0116(3) 0.27209(17) 0.0259(9) Uani 1 1 d . . .
C11 C 0.0329(5) 0.8414(3) 0.31086(19) 0.0317(11) Uani 1 1 d . . .
C12 C 0.0582(7) 0.7916(4) 0.3576(2) 0.0387(12) Uani 1 1 d . . .
H12A H 0.1192 0.7386 0.3515 0.046 Uiso 1 1 calc R . .
H12B H -0.0446 0.7760 0.3723 0.046 Uiso 1 1 calc R . .
C13 C 0.1513(6) 0.8523(3) 0.39091(18) 0.0345(11) Uani 1 1 d . . .
H13A H 0.2622 0.8329 0.3943 0.041 Uiso 1 1 calc R . .
H13B H 0.1020 0.8546 0.4232 0.041 Uiso 1 1 calc R . .
C14 C 0.1445(6) 0.9424(3) 0.36605(17) 0.0273(10) Uani 1 1 d . . .
H14 H 0.0654 0.9789 0.3833 0.033 Uiso 1 1 calc R . .
C15 C 0.3038(5) 0.9919(3) 0.36263(15) 0.0220(9) Uani 1 1 d . . .
C16 C 0.6762(5) 0.8518(3) 0.44535(17) 0.0263(9) Uani 1 1 d . . .
C17 C 0.7347(8) 0.7671(4) 0.4682(2) 0.0486(16) Uani 1 1 d . . .
H17A H 0.7540 0.7234 0.4431 0.058 Uiso 1 1 calc R . .
H17B H 0.8341 0.7766 0.4863 0.058 Uiso 1 1 calc R . .
C18 C 0.6027(8) 0.7387(3) 0.5019(2) 0.0442(13) Uani 1 1 d . . .
H18A H 0.6469 0.7187 0.5329 0.053 Uiso 1 1 calc R . .
H18B H 0.5410 0.6915 0.4873 0.053 Uiso 1 1 calc R . .
C19 C 0.4960(6) 0.8192(3) 0.50967(16) 0.0279(9) Uani 1 1 d . . .
H19 H 0.3822 0.8028 0.5062 0.033 Uiso 1 1 calc R . .
C20 C 0.5225(5) 0.8615(3) 0.55936(16) 0.0235(9) Uani 1 1 d . . .
C21 C 0.1201(8) 0.0000 0.5000 0.0373(16) Uani 1 2 d S . .
C22 C -0.0541(9) 0.0000 0.5000 0.056(2) Uani 1 2 d S . .
C23 C 0.524(3) 0.7568(7) 0.3097(4) 0.173(9) Uani 1 1 d . . .
C24 C 0.5053(17) 0.7024(6) 0.3523(3) 0.095(3) Uani 1 1 d . . .
C27 C 0.055(2) 0.1038(8) 0.2235(5) 0.130(5) Uani 1 1 d . . .
C28 C 0.204(3) 0.1656(13) 0.2216(8) 0.210(10) Uani 1 1 d . . .
C30 C 0.187(5) 0.4141(19) 0.5591(12) 0.46(4) Uani 1 1 d D . .
C31 C 0.1654(19) 0.3278(15) 0.5317(5) 0.164(9) Uani 1 1 d D . .
Cu1 Cu 0.64511(6) 1.00698(3) 0.375844(19) 0.02091(13) Uani 1 1 d . . .
Cu2 Cu 0.49071(6) 1.14084(3) 0.336374(19) 0.02258(14) Uani 1 1 d . . .
N1 N 0.9799(5) 1.2901(3) 0.33217(16) 0.0340(9) Uani 1 1 d . . .
H1 H 0.9634 1.2977 0.3013 0.041 Uiso 1 1 calc R . .
N2 N 0.6878(5) 0.8838(3) 0.22195(15) 0.0280(9) Uani 1 1 d . . .
H2 H 0.7724 0.8693 0.2383 0.034 Uiso 1 1 calc R . .
N3 N 0.0846(5) 0.9234(3) 0.31756(17) 0.0368(10) Uani 1 1 d . . .
H3 H 0.0822 0.9620 0.2946 0.044 Uiso 1 1 calc R . .
N4 N 0.5435(5) 0.8755(3) 0.46876(14) 0.0288(9) Uani 1 1 d . . .
H4A H 0.4888 0.9209 0.4605 0.035 Uiso 1 1 calc R . .
N5 N 0.2568(8) 0.0000 0.5000 0.064(2) Uani 1 2 d S . .
N6 N 0.465(3) 0.6592(8) 0.3831(4) 0.205(9) Uani 1 1 d . . .
N7 N 0.259(9) 0.469(2) 0.5617(18) 1.07(9) Uani 1 1 d . . .
N8 N 0.0116(8) 0.0217(3) 0.23426(19) 0.0552(14) Uani 1 1 d . . .
O1 O 0.8412(4) 1.0761(2) 0.36818(13) 0.0307(7) Uani 1 1 d . . .
O2 O 0.7104(4) 1.1921(2) 0.33823(15) 0.0351(8) Uani 1 1 d . . .
O3 O 0.9855(12) 1.4320(3) 0.3511(2) 0.114(3) Uani 1 1 d . . .
O4 O 0.6585(5) 0.9682(2) 0.30721(12) 0.0309(7) Uani 1 1 d . . .
O5 O 0.5429(5) 1.0855(2) 0.27328(13) 0.0362(8) Uani 1 1 d . . .
O6 O 0.6401(4) 0.7476(2) 0.19309(12) 0.0293(7) Uani 1 1 d . . .
O7 O 0.2981(4) 1.0641(2) 0.34160(15) 0.0344(8) Uani 1 1 d . . .
O8 O 0.4271(4) 0.9576(2) 0.37961(14) 0.0329(8) Uani 1 1 d . . .
O9 O -0.0277(5) 0.8131(3) 0.27272(14) 0.0421(9) Uani 1 1 d . . .
O10 O 0.6046(4) 1.0690(2) 0.43864(12) 0.0300(8) Uani 1 1 d . . .
O11 O 0.4605(4) 0.8226(2) 0.59503(12) 0.0316(8) Uani 1 1 d . . .
O12 O 0.7417(4) 0.8903(2) 0.41146(12) 0.0288(7) Uani 1 1 d . . .

loop_
_atom_site_aniso_label
_atom_site_aniso_U_11
_atom_site_aniso_U_22
_atom_site_aniso_U_33
_atom_site_aniso_U_23
_atom_site_aniso_U_13
_atom_site_aniso_U_12
C1 0.123(7) 0.038(3) 0.048(4) -0.001(3) 0.012(4) -0.017(4)
C2 0.35(2) 0.064(6) 0.038(4) 0.012(4) -0.031(9) -0.045(10)
C3 0.045(3) 0.048(3) 0.041(3) 0.012(3) -0.015(2) -0.012(2)
C4 0.023(2) 0.035(3) 0.036(3) 0.009(2) 0.001(2) -0.001(2)
C5 0.021(2) 0.037(3) 0.025(2) -0.001(2) 0.0018(17) 0.0006(19)
C6 0.028(2) 0.035(3) 0.021(2) -0.001(2) 0.0004(17) -0.0052(18)
C7 0.049(3) 0.037(3) 0.058(4) -0.001(3) -0.026(3) 0.000(2)
C8 0.051(3) 0.038(3) 0.054(4) -0.008(3) -0.030(3) 0.007(2)
C9 0.037(3) 0.030(2) 0.022(2) -0.0042(19) -0.004(2) -0.0011(19)
C10 0.029(2) 0.025(2) 0.024(2) -0.002(2) 0.0002(17) -0.0004(17)
C11 0.026(2) 0.037(3) 0.032(3) -0.002(2) -0.0059(19) -0.0033(18)
C12 0.046(3) 0.033(3) 0.038(3) -0.003(2) -0.007(2) -0.008(2)
C13 0.034(2) 0.039(3) 0.031(3) 0.005(2) -0.007(2) -0.010(2)
C14 0.0228(19) 0.028(2) 0.031(3) -0.0047(19) -0.0061(19) -0.0016(18)
C15 0.0242(18) 0.022(2) 0.020(2) -0.0058(18) -0.0030(15) 0.0004(17)
C16 0.030(2) 0.026(2) 0.023(2) 0.002(2) -0.0016(18) 0.0078(18)
C17 0.064(4) 0.038(3) 0.044(3) 0.020(3) 0.014(3) 0.027(3)
C18 0.079(4) 0.024(2) 0.029(3) 0.005(2) 0.008(3) 0.005(2)
C19 0.035(2) 0.027(2) 0.022(2) 0.0009(17) 0.0005(19) -0.008(2)
C20 0.0205(18) 0.027(2) 0.023(2) -0.0016(19) 0.0001(16) 0.0028(18)
C21 0.031(3) 0.041(4) 0.040(4) -0.011(4) 0.000 0.000
C22 0.027(3) 0.091(7) 0.052(5) -0.015(6) 0.000 0.000
C23 0.38(3) 0.069(6) 0.071(7) -0.010(5) 0.092(12) -0.074(11)
C24 0.160(10) 0.065(5) 0.060(5) -0.006(4) 0.022(7) -0.016(7)
C27 0.185(15) 0.074(7) 0.131(10) 0.003(7) -0.023(10) -0.035(8)
C28 0.27(3) 0.172(16) 0.189(18) -0.025(14) -0.138(18) 0.036(17)
C30 0.25(3) 0.67(9) 0.47(6) 0.44(6) 0.07(4) 0.18(5)
C31 0.091(8) 0.31(3) 0.096(9) 0.128(13) 0.012(7) 0.047(12)
Cu1 0.0220(2) 0.0214(3) 0.0193(2) 0.0011(2) -0.0009(2) 0.0025(2)
Cu2 0.0235(2) 0.0225(3) 0.0217(3) 0.0018(2) -0.0037(2) 0.0021(2)
N1 0.0278(19) 0.039(2) 0.035(2) 0.0103(19) 0.0004(18) -0.0029(17)
N2 0.0261(18) 0.030(2) 0.028(2) -0.0082(17) -0.0043(15) 0.0019(15)
N3 0.039(2) 0.037(2) 0.035(2) 0.009(2) -0.0163(19) -0.0086(19)
N4 0.0317(19) 0.034(2) 0.0204(19) 0.0026(17) 0.0024(15) 0.0089(16)
N5 0.030(3) 0.079(6) 0.082(6) -0.028(5) 0.000 0.000
N6 0.41(3) 0.118(9) 0.087(7) 0.028(7) 0.059(12) 0.010(13)
N7 2.0(2) 0.42(4) 0.80(8) -0.47(5) -0.70(10) 0.86(9)
N8 0.089(4) 0.035(3) 0.042(3) 0.016(2) -0.020(3) -0.018(3)
O1 0.0244(15) 0.0265(16) 0.041(2) 0.0059(15) -0.0016(15) 0.0022(13)
O2 0.0251(15) 0.0296(18) 0.051(2) 0.0091(18) -0.0039(16) -0.0017(13)
O3 0.243(9) 0.039(3) 0.059(3) 0.002(2) 0.022(5) 0.006(5)
O4 0.0433(19) 0.0275(17) 0.0219(17) -0.0027(13) -0.0015(15) 0.0046(15)
O5 0.057(2) 0.0279(18) 0.0241(17) -0.0001(15) -0.0012(16) 0.0090(15)
O6 0.0325(16) 0.0237(16) 0.0316(18) -0.0085(14) -0.0038(14) -0.0008(14)
O7 0.0265(15) 0.0281(18) 0.049(2) 0.0065(17) -0.0085(16) -0.0003(13)
O8 0.0235(15) 0.0387(19) 0.037(2) 0.0132(16) -0.0062(14) -0.0034(13)
O9 0.047(2) 0.041(2) 0.038(2) -0.0063(17) -0.0119(18) -0.0056(17)
O10 0.0432(19) 0.0283(17) 0.0183(16) -0.0003(14) -0.0011(14) 0.0119(14)
O11 0.044(2) 0.0293(18) 0.0216(16) 0.0011(14) 0.0038(14) -0.0141(14)
O12 0.0326(16) 0.0301(17) 0.0238(17) 0.0046(14) 0.0026(14) 0.0038(13)

_geom_special_details            
;
All s.u.'s (except the s.u. in the dihedral angle between two l.s. planes)
are estimated using the full covariance matrix. The cell s.u.'s are taken
into account individually in the estimation of s.u.'s in distances, angles
and torsion angles; correlations between s.u.'s in cell parameters are only
used when they are defined by crystal symmetry. An approximate (isotropic)
treatment of cell s.u.'s is used for estimating s.u.'s involving l.s. planes.
;

loop_
_geom_bond_atom_site_label_1
_geom_bond_atom_site_label_2
_geom_bond_distance
_geom_bond_site_symmetry_2
_geom_bond_publ_flag
C1 O3 1.241(8) . ?
C1 N1 1.267(8) . ?
C1 C2 1.486(11) . ?
C2 C3 1.426(12) . ?
C3 C4 1.529(8) . ?
C4 N1 1.447(6) . ?
C4 C5 1.537(7) . ?
C5 O1 1.239(6) . ?
C5 O2 1.256(6) . ?
C6 O6 1.261(6) . ?
C6 N2 1.311(6) . ?
C6 C7 1.479(7) . ?
C7 C8 1.510(8) . ?
C8 C9 1.550(7) . ?
C9 N2 1.449(6) . ?
C9 C10 1.524(6) . ?
C10 O4 1.236(6) . ?
C10 O5 1.256(6) . ?
C11 O9 1.233(6) . ?
C11 N3 1.339(6) . ?
C11 C12 1.498(7) . ?
C12 C13 1.510(7) . ?
C13 C14 1.537(7) . ?
C14 N3 1.440(6) . ?
C14 C15 1.524(6) . ?
C15 O8 1.238(5) . ?
C15 O7 1.246(6) . ?
C16 O12 1.222(6) . ?
C16 N4 1.320(6) . ?
C16 C17 1.517(7) . ?
C17 C18 1.492(8) . ?
C18 C19 1.531(7) . ?
C19 N4 1.462(6) . ?
C19 C20 1.516(6) . ?
C20 O11 1.249(6) . ?
C20 O10 1.264(5) 3_576 ?
C21 N5 1.132(10) . ?
C21 C22 1.442(10) . ?
C23 C24 1.436(13) . ?
C24 N6 1.121(13) . ?
C27 N8 1.340(12) . ?
C27 C28 1.56(3) . ?
C30 C31 1.53(2) . ?
C30 N7 1.04(8) . ?
Cu1 O1 1.949(3) . ?
Cu1 O8 1.960(3) . ?
Cu1 O4 1.965(3) . ?
Cu1 O10 1.985(3) . ?
Cu1 O12 2.184(3) . ?
Cu1 Cu2 2.6433(10) . ?
Cu2 O5 1.964(4) . ?
Cu2 O11 1.966(3) 3_576 ?
Cu2 O2 1.981(3) . ?
Cu2 O7 1.985(3) . ?
Cu2 O6 2.118(3) 4_655 ?
O6 Cu2 2.118(3) 4_645 ?
O10 C20 1.264(5) 3_576 ?
O11 Cu2 1.966(3) 3_576 ?

loop_
_geom_angle_atom_site_label_1
_geom_angle_atom_site_label_2
_geom_angle_atom_site_label_3
_geom_angle
_geom_angle_site_symmetry_1
_geom_angle_site_symmetry_3
_geom_angle_publ_flag
O3 C1 N1 125.9(7) . . ?
O3 C1 C2 126.6(7) . . ?
N1 C1 C2 107.5(6) . . ?
C3 C2 C1 108.3(7) . . ?
C2 C3 C4 104.3(6) . . ?
N1 C4 C3 102.9(4) . . ?
N1 C4 C5 113.4(4) . . ?
C3 C4 C5 110.7(4) . . ?
O1 C5 O2 127.1(4) . . ?
O1 C5 C4 116.0(4) . . ?
O2 C5 C4 116.9(4) . . ?
O6 C6 N2 123.1(4) . . ?
O6 C6 C7 126.6(4) . . ?
N2 C6 C7 110.2(4) . . ?
C6 C7 C8 104.0(4) . . ?
C7 C8 C9 104.8(4) . . ?
N2 C9 C10 112.7(4) . . ?
N2 C9 C8 102.3(4) . . ?
C10 C9 C8 112.6(4) . . ?
O4 C10 O5 127.5(4) . . ?
O4 C10 C9 117.7(4) . . ?
O5 C10 C9 114.8(4) . . ?
O9 C11 N3 125.1(5) . . ?
O9 C11 C12 126.5(5) . . ?
N3 C11 C12 108.4(4) . . ?
C11 C12 C13 105.6(4) . . ?
C12 C13 C14 105.6(4) . . ?
N3 C14 C15 110.0(4) . . ?
N3 C14 C13 103.6(4) . . ?
C15 C14 C13 116.2(4) . . ?
O8 C15 O7 125.4(4) . . ?
O8 C15 C14 118.7(4) . . ?
O7 C15 C14 115.8(4) . . ?
O12 C16 N4 127.0(4) . . ?
O12 C16 C17 125.5(4) . . ?
N4 C16 C17 107.6(4) . . ?
C18 C17 C16 105.5(4) . . ?
C17 C18 C19 105.8(4) . . ?
N4 C19 C20 113.0(4) . . ?
N4 C19 C18 102.3(4) . . ?
C20 C19 C18 112.5(4) . . ?
O11 C20 O10 126.