####################################################################### 
# 
# This file contains crystal structure data downloaded from the 
# Cambridge Structural Database (CSD) hosted by the Cambridge 
# Crystallographic Data Centre (CCDC).
# 
# Full information about CCDC data access policies and citation 
# guidelines are available at http://www.ccdc.cam.ac.uk/access/V1 
# 
# Audit and citation data items may have been added by the CCDC. 
# Please retain this information to preserve the provenance of 
# this file and to allow appropriate attribution of the data. 
# 
#######################################################################

data_Compound2
_audit_block_doi                 10.5517/ccz5pmf
_database_code_depnum_ccdc_archive 'CCDC 899205'
loop_
_citation_id
_citation_doi
_citation_year
1 10.1002/chem.201301744 2013
_audit_update_record             
;
2012-08-30 deposited with the CCDC.	2024-07-09 downloaded from the CCDC.
;
#TrackingRef 'compound2.cif'


_audit_creation_method           SHELXL-97
_chemical_name_systematic        
;
?
;
_chemical_name_common            Compound2
_chemical_melting_point          ?
_chemical_formula_moiety         'C54 H72 Cu4 N15 O24'
_chemical_formula_sum            'C54 H72 Cu4 N15 O24'
_chemical_formula_weight         1569.43

loop_
_atom_type_symbol
_atom_type_description
_atom_type_scat_dispersion_real
_atom_type_scat_dispersion_imag
_atom_type_scat_source
C C 0.0033 0.0016 'International Tables Vol C Tables 4.2.6.8 and 6.1.1.4'
H H 0.0000 0.0000 'International Tables Vol C Tables 4.2.6.8 and 6.1.1.4'
N N 0.0061 0.0033 'International Tables Vol C Tables 4.2.6.8 and 6.1.1.4'
O O 0.0106 0.0060 'International Tables Vol C Tables 4.2.6.8 and 6.1.1.4'
Cu Cu 0.3201 1.2651 'International Tables Vol C Tables 4.2.6.8 and 6.1.1.4'

_symmetry_cell_setting           Orthorhombic
_symmetry_space_group_name_H-M   'P 21 21 2'

loop_
_symmetry_equiv_pos_as_xyz
'x, y, z'
'-x, -y, z'
'x+1/2, -y+1/2, -z'
'-x+1/2, y+1/2, -z'

_cell_length_a                   15.3549(19)
_cell_length_b                   27.269(3)
_cell_length_c                   8.2486(10)
_cell_angle_alpha                90.00
_cell_angle_beta                 90.00
_cell_angle_gamma                90.00
_cell_volume                     3453.7(7)
_cell_formula_units_Z            2
_cell_measurement_temperature    200(2)
_cell_measurement_reflns_used    ?
_cell_measurement_theta_min      ?
_cell_measurement_theta_max      ?

_exptl_crystal_description       'Rod shaped'
_exptl_crystal_colour            Blue
_exptl_crystal_size_max          0.10
_exptl_crystal_size_mid          0.09
_exptl_crystal_size_min          0.08
_exptl_crystal_density_meas      ?
_exptl_crystal_density_diffrn    1.509
_exptl_crystal_density_method    'not measured'
_exptl_crystal_F_000             1618
_exptl_absorpt_coefficient_mu    1.301
_exptl_absorpt_correction_type   multi-scan
_exptl_absorpt_correction_T_min  0.8809
_exptl_absorpt_correction_T_max  0.9031
_exptl_absorpt_process_details   'multi-scan absorption'

_exptl_special_details           
;
?
;

_diffrn_ambient_temperature      200(2)
_diffrn_radiation_wavelength     0.71073
_diffrn_radiation_type           MoK\a
_diffrn_radiation_source         'fine-focus sealed tube'
_diffrn_radiation_monochromator  graphite
_diffrn_measurement_device_type  ?
_diffrn_measurement_method       ?
_diffrn_detector_area_resol_mean ?
_diffrn_reflns_number            20948
_diffrn_reflns_av_R_equivalents  0.0527
_diffrn_reflns_av_sigmaI/netI    0.0706
_diffrn_reflns_limit_h_min       -11
_diffrn_reflns_limit_h_max       21
_diffrn_reflns_limit_k_min       -36
_diffrn_reflns_limit_k_max       37
_diffrn_reflns_limit_l_min       -11
_diffrn_reflns_limit_l_max       6
_diffrn_reflns_theta_min         2.47
_diffrn_reflns_theta_max         29.19
_reflns_number_total             9143
_reflns_number_gt                7240
_reflns_threshold_expression     >2sigma(I)

_computing_data_collection       'Bruker SMART'
_computing_cell_refinement       'Bruker SMART'
_computing_data_reduction        'Bruker SAINT'
_computing_structure_solution    'SHELXL-97 (Sheldrick, 2008)'
_computing_structure_refinement  'SHELXL-97 (Sheldrick, 2008)'
_computing_molecular_graphics    'Bruker SHELXTL'
_computing_publication_material  'Bruker SHELXTL'

_refine_special_details          
;
Refinement of F^2^ against ALL reflections. The weighted R-factor wR and
goodness of fit S are based on F^2^, conventional R-factors R are based
on F, with F set to zero for negative F^2^. The threshold expression of
F^2^ > 2sigma(F^2^) is used only for calculating R-factors(gt) etc. and is
not relevant to the choice of reflections for refinement. R-factors based
on F^2^ are statistically about twice as large as those based on F, and R-
factors based on ALL data will be even larger.
;

_refine_ls_structure_factor_coef Fsqd
_refine_ls_matrix_type           full
_refine_ls_weighting_scheme      calc
_refine_ls_weighting_details     
'calc w=1/[\s^2^(Fo^2^)+(0.2000P)^2^+0.0200P] where P=(Fo^2^+2Fc^2^)/3'
_atom_sites_solution_primary     direct
_atom_sites_solution_secondary   difmap
_atom_sites_solution_hydrogens   geom
_refine_ls_hydrogen_treatment    mixed
_refine_ls_extinction_method     none
_refine_ls_extinction_coef       ?
_refine_ls_abs_structure_details 'Flack H D (1983), Acta Cryst. A39, 876-881'
_refine_ls_abs_structure_Flack   -0.006(14)
_refine_ls_number_reflns         9143
_refine_ls_number_parameters     439
_refine_ls_number_restraints     2
_refine_ls_R_factor_all          0.0556
_refine_ls_R_factor_gt           0.0433
_refine_ls_wR_factor_ref         0.1416
_refine_ls_wR_factor_gt          0.1284
_refine_ls_goodness_of_fit_ref   0.539
_refine_ls_restrained_S_all      0.538
_refine_ls_shift/su_max          8.126
_refine_ls_shift/su_mean         0.088

loop_
_atom_site_label
_atom_site_type_symbol
_atom_site_fract_x
_atom_site_fract_y
_atom_site_fract_z
_atom_site_U_iso_or_equiv
_atom_site_adp_type
_atom_site_occupancy
_atom_site_symmetry_multiplicity
_atom_site_calc_flag
_atom_site_refinement_flags
_atom_site_disorder_assembly
_atom_site_disorder_group
C1 C 0.3499(3) 1.1386(2) 1.0051(12) 0.078(2) Uani 1 1 d . . .
C2 C 0.3113(5) 1.0887(2) 1.049(2) 0.168(7) Uani 1 1 d . . .
H2A H 0.3290 1.0642 0.9703 0.202 Uiso 1 1 calc R . .
H2B H 0.3315 1.0785 1.1551 0.202 Uiso 1 1 calc R . .
C3 C 0.2191(3) 1.09362(17) 1.0491(6) 0.0422(10) Uani 1 1 d . . .
H3A H 0.1957 1.0871 1.1562 0.051 Uiso 1 1 calc R . .
H3B H 0.1929 1.0709 0.9729 0.051 Uiso 1 1 calc R . .
C4 C 0.2003(2) 1.14704(14) 0.9983(5) 0.0297(7) Uani 1 1 d . . .
H4A H 0.1676 1.1641 1.0834 0.036 Uiso 1 1 calc R . .
C5 C 0.1500(2) 1.14830(12) 0.8380(4) 0.0253(6) Uani 1 1 d . . .
C6 C -0.1490(2) 1.05347(13) 0.6804(4) 0.0266(7) Uani 1 1 d . . .
C7 C -0.2316(3) 1.03025(19) 0.7406(7) 0.0518(13) Uani 1 1 d . . .
H7A H -0.2759 1.0549 0.7596 0.062 Uiso 1 1 calc R . .
H7B H -0.2212 1.0126 0.8408 0.062 Uiso 1 1 calc R . .
C8 C -0.2595(3) 0.99547(18) 0.6076(7) 0.0495(12) Uani 1 1 d . . .
H8A H -0.3074 1.0092 0.5459 0.059 Uiso 1 1 calc R . .
H8B H -0.2776 0.9642 0.6527 0.059 Uiso 1 1 calc R . .
C9 C -0.1792(2) 0.98912(12) 0.5007(5) 0.0300(7) Uani 1 1 d . . .
H9 H -0.1956 0.9927 0.3865 0.036 Uiso 1 1 calc R . .
C10 C -0.1355(2) 0.93960(11) 0.5266(4) 0.0221(6) Uani 1 1 d . . .
C11 C 0.0118(2) 0.86239(12) 0.3080(4) 0.0239(7) Uani 1 1 d . . .
C12 C 0.0615(2) 0.86609(14) 0.1494(5) 0.0291(7) Uani 1 1 d . . .
H12 H 0.0253 0.8834 0.0699 0.035 Uiso 1 1 calc R . .
C13 C 0.1507(3) 0.89097(15) 0.1573(5) 0.0339(8) Uani 1 1 d . . .
H13A H 0.1486 0.9232 0.1079 0.041 Uiso 1 1 calc R . .
H13B H 0.1699 0.8943 0.2688 0.041 Uiso 1 1 calc R . .
C14 C 0.2117(3) 0.85722(16) 0.0631(6) 0.0392(9) Uani 1 1 d . . .
H14A H 0.2272 0.8718 -0.0403 0.047 Uiso 1 1 calc R . .
H14B H 0.2646 0.8512 0.1242 0.047 Uiso 1 1 calc R . .
C15 C 0.1621(3) 0.81060(15) 0.0383(5) 0.0320(8) Uani 1 1 d . . .
C16 C -0.0064(2) 0.77230(12) 0.6142(4) 0.0252(6) Uani 1 1 d . . .
C17 C 0.0339(2) 0.72151(14) 0.6299(5) 0.0289(7) Uani 1 1 d . . .
H17 H -0.0019 0.7012 0.7020 0.035 Uiso 1 1 calc R . .
C18 C 0.0440(3) 0.69582(19) 0.4647(6) 0.0489(12) Uani 1 1 d . . .
H18A H -0.0018 0.6718 0.4487 0.059 Uiso 1 1 calc R . .
H18B H 0.0419 0.7195 0.3770 0.059 Uiso 1 1 calc R . .
C19 C 0.1329(3) 0.67098(19) 0.4720(6) 0.0473(11) Uani 1 1 d . . .
H19A H 0.1270 0.6363 0.4961 0.057 Uiso 1 1 calc R . .
H19B H 0.1638 0.6747 0.3701 0.057 Uiso 1 1 calc R . .
C20 C 0.1793(2) 0.69688(13) 0.6050(5) 0.0269(7) Uani 1 1 d . . .
C1S C 0.2508(6) 0.8126(3) 0.5409(17) 0.123(4) Uani 1 1 d . . .
C2S C 0.3024(5) 0.8532(3) 0.5224(15) 0.106(3) Uani 1 1 d . . .
C3S C 0.0000 0.0000 -0.0484(8) 0.065(2) Uani 1 2 d S . .
C4S C 0.0000 0.0000 0.1251(7) 0.0398(13) Uani 1 2 d S . .
C5S C 0.4456(11) 0.9209(9) 0.182(8) 0.58(5) Uani 1 1 d D . .
C6S C 0.426(3) 0.967(2) 0.084(8) 1.24(15) Uani 1 1 d D . .
C7S C 0.9856(3) 0.73259(16) 0.0280(7) 0.0495(13) Uani 1 1 d . . .
C8S C 0.8991(4) 0.7227(3) 0.0696(13) 0.092(3) Uani 1 1 d . . .
Cu1 Cu 0.00388(3) 1.124198(14) 0.65065(5) 0.02060(10) Uani 1 1 d . . .
Cu2 Cu -0.13642(3) 0.835370(14) 0.49516(5) 0.02143(10) Uani 1 1 d . . .
N1 N 0.2876(2) 1.16776(12) 0.9829(4) 0.0346(7) Uani 1 1 d . . .
H1 H 0.2960 1.1982 0.9600 0.042 Uiso 1 1 calc R . .
N2 N -0.1248(2) 1.02977(11) 0.5491(4) 0.0281(6) Uani 1 1 d . . .
H2 H -0.0791 1.0380 0.4951 0.034 Uiso 1 1 calc R . .
N3 N 0.0802(2) 0.81741(13) 0.0890(5) 0.0388(8) Uani 1 1 d . . .
H3 H 0.0416 0.7946 0.0860 0.047 Uiso 1 1 calc R . .
N4 N 0.1225(2) 0.72340(11) 0.6904(4) 0.0281(6) Uani 1 1 d . . .
H4 H 0.1373 0.7402 0.7742 0.034 Uiso 1 1 calc R . .
N1S N 0.0000 0.0000 0.2612(7) 0.0689(19) Uani 1 2 d S . .
N2S N 0.3459(8) 0.8871(3) 0.500(2) 0.206(7) Uani 1 1 d . . .
N3S N 0.3348(15) 0.9669(5) 0.1646(13) 0.258(11) Uani 1 1 d D . .
N4S N 0.5038(13) 0.0555(11) 0.693(5) 0.54(3) Uani 1 1 d . . .
O1 O 0.4281(3) 1.14838(17) 1.0010(12) 0.134(3) Uani 1 1 d . . .
O2 O 0.18758(18) 1.16299(12) 0.7148(3) 0.0342(6) Uani 1 1 d . . .
O3 O 0.07279(16) 1.13276(10) 0.8467(3) 0.0295(5) Uani 1 1 d . . .
O4 O -0.11086(17) 1.08788(9) 0.7468(3) 0.0288(5) Uani 1 1 d . . .
O5 O -0.06745(18) 0.93784(9) 0.6095(3) 0.0307(6) Uani 1 1 d . . .
O6 O -0.17486(19) 0.90352(9) 0.4639(4) 0.0332(6) Uani 1 1 d . . .
O7 O 0.04628(19) 0.88041(11) 0.4327(3) 0.0334(6) Uani 1 1 d . . .
O8 O -0.06031(18) 0.84085(12) 0.3032(3) 0.0353(6) Uani 1 1 d . . .
O9 O 0.1918(2) 0.77279(11) -0.0228(4) 0.0439(7) Uani 1 1 d . . .
O10 O -0.08063(18) 0.77317(10) 0.5503(4) 0.0365(6) Uani 1 1 d . . .
O11 O 0.03655(17) 0.80771(9) 0.6642(4) 0.0319(6) Uani 1 1 d . . .
O12 O 0.25838(17) 0.69484(10) 0.6374(3) 0.0297(5) Uani 1 1 d . . .

loop_
_atom_site_aniso_label
_atom_site_aniso_U_11
_atom_site_aniso_U_22
_atom_site_aniso_U_33
_atom_site_aniso_U_23
_atom_site_aniso_U_13
_atom_site_aniso_U_12
C1 0.032(2) 0.043(3) 0.159(7) -0.014(4) -0.018(4) -0.0051(19)
C2 0.046(4) 0.037(3) 0.42(2) 0.021(7) -0.030(8) -0.002(3)
C3 0.045(2) 0.043(2) 0.039(2) 0.0124(18) -0.0065(19) -0.0004(19)
C4 0.0284(17) 0.0386(17) 0.0221(15) -0.0030(15) -0.0043(15) -0.0080(14)
C5 0.0254(16) 0.0246(14) 0.0257(15) -0.0019(13) -0.0008(14) -0.0001(13)
C6 0.0212(16) 0.0249(15) 0.0336(18) 0.0030(13) 0.0044(14) -0.0003(13)
C7 0.042(3) 0.047(3) 0.067(3) -0.014(2) 0.027(2) -0.018(2)
C8 0.0239(18) 0.034(2) 0.091(4) -0.017(2) 0.007(2) -0.0033(17)
C9 0.0275(16) 0.0242(15) 0.0384(17) 0.0005(14) -0.0077(17) 0.0008(12)
C10 0.0207(14) 0.0211(13) 0.0244(15) -0.0014(11) 0.0007(13) 0.0032(12)
C11 0.0241(17) 0.0220(13) 0.0258(15) -0.0033(11) -0.0036(13) 0.0052(12)
C12 0.0277(17) 0.0341(18) 0.0256(15) -0.0069(14) 0.0001(15) 0.0044(14)
C13 0.0295(19) 0.0351(18) 0.0371(19) -0.0050(16) 0.0083(17) -0.0035(15)
C14 0.030(2) 0.039(2) 0.049(2) -0.0052(19) 0.0076(18) -0.0013(17)
C15 0.0313(19) 0.0358(18) 0.0290(18) -0.0074(14) 0.0031(14) 0.0004(15)
C16 0.0189(15) 0.0254(14) 0.0314(16) 0.0015(12) 0.0028(14) 0.0040(14)
C17 0.0230(16) 0.0257(16) 0.038(2) -0.0012(15) 0.0023(15) 0.0058(13)
C18 0.034(2) 0.055(3) 0.057(3) -0.030(2) -0.013(2) 0.013(2)
C19 0.0271(19) 0.060(3) 0.055(3) -0.029(2) -0.0030(19) 0.0087(19)
C20 0.0261(17) 0.0235(15) 0.0312(17) -0.0016(13) 0.0035(14) 0.0046(14)
C1S 0.068(5) 0.079(5) 0.222(13) 0.068(7) 0.021(7) -0.001(4)
C2S 0.063(4) 0.089(5) 0.165(10) 0.034(6) 0.000(6) 0.012(4)
C3S 0.109(7) 0.056(4) 0.030(3) 0.000 0.000 0.016(5)
C4S 0.040(3) 0.044(3) 0.035(3) 0.000 0.000 0.015(3)
C5S 0.101(12) 0.21(2) 1.43(16) -0.20(5) 0.11(3) 0.071(13)
C6S 1.3(4) 0.39(11) 2.0(3) -0.40(13) -0.4(4) -0.02(17)
C7S 0.0226(19) 0.038(2) 0.087(4) -0.023(2) 0.016(2) -0.0121(15)
C8S 0.032(3) 0.076(4) 0.168(8) -0.020(5) 0.014(4) -0.015(3)
Cu1 0.01866(18) 0.02082(17) 0.02231(18) 0.00133(14) 0.00207(17) -0.00074(16)
Cu2 0.01816(18) 0.02188(17) 0.02425(18) -0.00382(16) -0.00204(16) -0.00068(14)
N1 0.0365(18) 0.0364(16) 0.0309(16) 0.0008(15) -0.0030(14) -0.0091(14)
N2 0.0223(15) 0.0248(13) 0.0372(15) -0.0006(12) 0.0079(12) 0.0008(11)
N3 0.0304(17) 0.0390(18) 0.047(2) -0.0208(15) 0.0075(16) -0.0056(15)
N4 0.0245(15) 0.0296(14) 0.0300(15) -0.0061(12) -0.0006(12) 0.0088(12)
N1S 0.091(5) 0.086(5) 0.030(3) 0.000 0.000 0.019(5)
N2S 0.183(11) 0.083(6) 0.35(2) 0.041(9) 0.047(14) -0.054(7)
N3S 0.50(3) 0.163(11) 0.109(7) -0.024(7) 0.073(12) -0.221(16)
N4S 0.136(12) 0.51(4) 0.97(7) 0.48(5) 0.22(3) 0.10(2)
O1 0.034(2) 0.060(3) 0.308(9) -0.037(5) 0.005(4) -0.0017(19)
O2 0.0275(13) 0.0499(16) 0.0251(12) 0.0031(12) -0.0005(10) -0.0085(13)
O3 0.0207(11) 0.0441(14) 0.0238(11) 0.0019(11) -0.0011(10) -0.0072(11)
O4 0.0241(12) 0.0283(12) 0.0339(13) -0.0018(10) 0.0076(11) -0.0051(10)
O5 0.0290(14) 0.0226(11) 0.0404(15) -0.0018(10) -0.0116(11) 0.0009(10)
O6 0.0329(14) 0.0223(11) 0.0443(16) -0.0049(11) -0.0133(12) -0.0002(10)
O7 0.0335(14) 0.0429(15) 0.0239(12) -0.0083(11) 0.0038(11) -0.0113(12)
O8 0.0275(13) 0.0499(16) 0.0285(12) -0.0084(12) -0.0006(10) -0.0064(13)
O9 0.0416(16) 0.0399(15) 0.0501(19) -0.0150(15) 0.0050(15) 0.0043(13)
O10 0.0270(13) 0.0251(12) 0.0575(18) -0.0016(12) -0.0073(13) 0.0040(11)
O11 0.0255(12) 0.0236(12) 0.0467(16) -0.0023(12) -0.0026(12) 0.0044(10)
O12 0.0229(12) 0.0356(13) 0.0307(13) -0.0076(11) 0.0000(11) 0.0084(10)

_geom_special_details            
;
All esds (except the esd in the dihedral angle between two l.s. planes)
are estimated using the full covariance matrix. The cell esds are taken
into account individually in the estimation of esds in distances, angles
and torsion angles; correlations between esds in cell parameters are only
used when they are defined by crystal symmetry. An approximate (isotropic)
treatment of cell esds is used for estimating esds involving l.s. planes.
;

loop_
_geom_bond_atom_site_label_1
_geom_bond_atom_site_label_2
_geom_bond_distance
_geom_bond_site_symmetry_2
_geom_bond_publ_flag
C1 O1 1.230(6) . ?
C1 N1 1.257(6) . ?
C1 C2 1.527(9) . ?
C2 C3 1.422(8) . ?
C3 C4 1.543(6) . ?
C4 N1 1.461(5) . ?
C4 C5 1.532(5) . ?
C5 O2 1.235(5) . ?
C5 O3 1.261(4) . ?
C6 O4 1.234(4) . ?
C6 N2 1.315(5) . ?
C6 C7 1.502(5) . ?
C7 C8 1.512(7) . ?
C8 C9 1.526(6) . ?
C9 N2 1.444(4) . ?
C9 C10 1.523(4) . ?
C10 O5 1.250(4) . ?
C10 O6 1.265(4) . ?
C11 O8 1.254(4) . ?
C11 O7 1.257(4) . ?
C11 C12 1.518(5) . ?
C12 N3 1.446(5) . ?
C12 C13 1.530(5) . ?
C13 C14 1.525(6) . ?
C14 C15 1.496(6) . ?
C15 O9 1.235(5) . ?
C15 N3 1.339(5) . ?
C16 O11 1.240(5) . ?
C16 O10 1.256(5) . ?
C16 C17 1.523(5) . ?
C17 N4 1.450(5) . ?
C17 C18 1.540(6) . ?
C18 C19 1.525(6) . ?
C19 C20 1.486(6) . ?
C20 O12 1.245(4) . ?
C20 N4 1.333(4) . ?
C1S C2S 1.369(12) . ?
C2S N2S 1.155(11) . ?
C3S C4S 1.431(9) . ?
C4S N1S 1.122(8) . ?
C5S C6S 1.53(2) . ?
C6S N3S 1.55(2) . ?
C7S C8S 1.398(7) . ?
Cu1 O3 1.946(3) . ?
Cu1 O7 1.960(3) 2_575 ?
Cu1 O11 1.961(3) 2_575 ?
Cu1 O5 1.982(3) 2_575 ?
Cu1 O4 2.171(3) . ?
Cu1 Cu2 2.6463(6) 2_575 ?
Cu2 O10 1.954(3) . ?
Cu2 O6 1.967(3) . ?
Cu2 O2 1.975(3) 2_575 ?
Cu2 O8 1.974(3) . ?
Cu2 O12 2.118(3) 3_466 ?
Cu2 Cu1 2.6462(6) 2_575 ?
O2 Cu2 1.975(3) 2_575 ?
O5 Cu1 1.982(3) 2_575 ?
O7 Cu1 1.960(3) 2_575 ?
O11 Cu1 1.961(3) 2_575 ?
O12 Cu2 2.117(3) 3_566 ?

loop_
_geom_angle_atom_site_label_1
_geom_angle_atom_site_label_2
_geom_angle_atom_site_label_3
_geom_angle
_geom_angle_site_symmetry_1
_geom_angle_site_symmetry_3
_geom_angle_publ_flag
O1 C1 N1 126.9(6) . . ?
O1 C1 C2 125.4(6) . . ?
N1 C1 C2 107.6(5) . . ?
C3 C2 C1 107.7(5) . . ?
C2 C3 C4 105.9(5) . . ?
N1 C4 C5 112.3(3) . . ?
N1 C4 C3 102.5(3) . . ?
C5 C4 C3 110.5(3) . . ?
O2 C5 O3 126.5(3) . . ?
O2 C5 C4 118.8(3) . . ?
O3 C5 C4 114.7(3) . . ?
O4 C6 N2 127.2(3) . . ?
O4 C6 C7 125.0(4) . . ?
N2 C6 C7 107.7(3) . . ?
C6 C7 C8 105.3(4) . . ?
C7 C8 C9 105.1(3) . . ?
N2 C9 C10 112.7(3) . . ?
N2 C9 C8 102.8(3) . . ?
C10 C9 C8 112.1(3) . . ?
O5 C10 O6 126.4(3) . . ?
O5 C10 C9 118.6(3) . . ?
O6 C10 C9 114.9(3) . . ?
O8 C11 O7 125.5(3) . . ?
O8 C11 C12 116.6(3) . . ?
O7 C11 C12 117.9(3) . . ?
N3 C12 C11 109.6(3) . . ?
N3 C12 C13 104.1(3) . . ?
C11 C12 C13 116.3(3) . . ?
C14 C13 C12 105.1(3) . . ?
