
#######################################################################
#
#                 Cambridge Crystallographic Data Centre
#                                CCDC
#
#######################################################################
#
# If this CIF has been generated from an entry in the Cambridge
# Structural Database, then it will include bibliographic, chemical,
# crystal, experimental, refinement or atomic coordinate data resulting
# from the CCDC's data processing and validation procedures.
#
#######################################################################

data_CSD_CIF_CIFKOS
_audit_creation_date 2007-10-09
_audit_creation_method CSD-ConQuest-V1
_database_code_CSD CIFKOS
_database_code_depnum_ccdc_archive 'CCDC 653574'
_chemical_formula_sum 'C35 H32 Cl1 N7 O20 Pu2'
_chemical_formula_moiety
;
C20 H16 N4 O8 Pu1,C15 H16 N3 O8 Pu1 1+,Cl1 O4 1-
;
_journal_coden_Cambridge 4
_journal_volume 129
_journal_year 2007
_journal_page_first 6674
_journal_name_full 'J.Am.Chem.Soc. '
loop_
_publ_author_name
"A.E.V.Gorden"
"Jide Xu"
"G.Szigethy"
"A.Oliver"
"D.K.Shuh"
"K.N.Raymond"
_chemical_name_systematic
;
tetrakis(1,2-Dioxypyridine)-plutonium(iv) 
diaqua-tris(1,2-dioxypyridine)-plutonium(iv) perchlorate
;
_chemical_name_common
;
Teaching Subset: Fundamental Chemistry
;
_cell_volume   2059.663
_exptl_crystal_colour 'black'
_exptl_crystal_density_diffrn 2.241
_exptl_crystal_description 'block'
_diffrn_ambient_temperature 293
_diffrn_radiation_probe x-ray
_diffrn_source synchrotron
_refine_special_details
;
The structure is disordered.

;
#These two values have been output from a single CSD field.
_refine_ls_R_factor_gt 0.0312
_refine_ls_wR_factor_gt 0.0312
_symmetry_cell_setting monoclinic
_symmetry_space_group_name_H-M 'P 21'
_symmetry_Int_Tables_number 4
loop_
_symmetry_equiv_pos_site_id
_symmetry_equiv_pos_as_xyz
1 x,y,z
2 -x,1/2+y,-z
_cell_length_a 8.8065(14)
_cell_length_b 20.935(3)
_cell_length_c 11.1771(18)
_cell_angle_alpha 90
_cell_angle_beta 91.779(2)
_cell_angle_gamma 90
_cell_formula_units_Z 2
loop_
_atom_type_symbol
_atom_type_radius_bond
C 0.68
H 0.23
Cl 0.99
N 0.68
O 0.68
Pu 1.53
loop_
_atom_site_label
_atom_site_type_symbol
_atom_site_fract_x
_atom_site_fract_y
_atom_site_fract_z
Pu1 Pu 0.86709(2) 0.680337(8) 0.736228(16)
O1 O 0.7703(7) 0.7539(3) 0.5847(5)
H1 H 0.817(7) 0.757(3) 0.508(3)
H2 H 0.700(8) 0.787(3) 0.605(2)
O2 O 0.8221(7) 0.7809(3) 0.8396(5)
H3 H 0.894(5) 0.8153(15) 0.833(6)
H4 H 0.754(7) 0.7817(12) 0.905(5)
O3 O 0.9838(7) 0.6438(2) 0.5682(4)
O4 O 1.0903(6) 0.7305(3) 0.6999(5)
O5 O 0.9227(7) 0.5797(3) 0.8078(5)
O6 O 0.9749(7) 0.6785(3) 0.9284(4)
O7 O 0.7201(6) 0.6093(3) 0.6222(5)
O8 O 0.6217(5) 0.6722(3) 0.7976(5)
N1 N 1.1097(7) 0.6709(3) 0.5344(5)
N2 N 0.9891(7) 0.5731(3) 0.9164(5)
N3 N 0.5807(7) 0.5951(3) 0.6578(5)
C1 C 1.1815(12) 0.6525(5) 0.4313(8)
H5 H 1.14110 0.61980 0.38400
C2 C 1.3102(11) 0.6823(7) 0.3996(8)
H6 H 1.35680 0.67080 0.32920
C3 C 1.3722(10) 0.7293(6) 0.4706(9)
H7 H 1.46250 0.74880 0.44990
C4 C 1.3010(11) 0.7473(5) 0.5720(9)
H8 H 1.34230 0.77960 0.61980
C5 C 1.1681(8) 0.7178(4) 0.6041(6)
C6 C 1.0305(10) 0.5131(4) 0.9549(7)
H9 H 1.00950 0.47730 0.90800
C7 C 1.1039(11) 0.5076(5) 1.0648(7)
H10 H 1.13700 0.46790 1.09200
C8 C 1.1281(12) 0.5604(5) 1.1335(8)
H11 H 1.17440 0.55610 1.20900
C9 C 1.0853(12) 0.6200(4) 1.0935(8)
H12 H 1.10180 0.65580 1.14130
C10 C 1.017(1) 0.6257(3) 0.9804(6)
C11 C 0.4958(9) 0.5491(4) 0.6024(7)
H13 H 0.53430 0.52670 0.53820
C12 C 0.3536(11) 0.5358(6) 0.6409(8)
H14 H 0.29600 0.50390 0.60350
C13 C 0.2958(11) 0.5690(6) 0.7337(10)
H15 H 0.19830 0.56030 0.75880
C14 C 0.3837(10) 0.6162(5) 0.7912(8)
H16 H 0.34520 0.63850 0.85540
C15 C 0.5303(8) 0.6297(4) 0.7519(6)
Pu2 Pu 0.87652(2) 0.819583(8) 1.226158(16)
O9 O 0.7269(7) 0.8838(3) 1.1015(5)
O10 O 0.6378(7) 0.8407(3) 1.3006(6)
O11 O 0.9488(7) 0.9199(3) 1.2916(4)
O12 O 0.9595(6) 0.8226(3) 1.4284(4)
O13 O 0.9844(7) 0.8410(3) 1.0403(5)
O14 O 1.1188(6) 0.7807(3) 1.2073(5)
O15 O 0.8242(6) 0.7263(2) 1.3318(4)
O16 O 0.7659(8) 0.7396(3) 1.1082(5)
N4 N 0.5975(8) 0.9049(3) 1.1385(6)
N5 N 0.9963(7) 0.9294(3) 1.4042(6)
N6 N 1.1256(7) 0.8218(4) 1.0217(5)
N7 N 0.7458(7) 0.6801(3) 1.2759(5)
C16 C 0.5074(10) 0.9462(5) 1.0743(9)
H17 H 0.54010 0.96200 1.00170
C17 C 0.3732(12) 0.9644(5) 1.1144(10)
H18 H 0.31340 0.99280 1.06970
C18 C 0.3233(13) 0.9419(6) 1.2191(12)
H19 H 0.22970 0.95530 1.24620
C19 C 0.4103(11) 0.8988(5) 1.2873(9)
H20 H 0.37620 0.88300 1.35950
C20 C 0.5478(9) 0.8806(3) 1.2442(7)
C21 C 1.0363(10) 0.9879(4) 1.4442(8)
H21 H 1.03170 1.02270 1.39250
C22 C 1.0832(12) 0.9961(4) 1.5594(8)
H22 H 1.11240 1.03630 1.58720
C23 C 1.0872(14) 0.9434(5) 1.6362(8)
H23 H 1.11520 0.94880 1.71650
C24 C 1.0508(12) 0.8850(4) 1.5949(7)
H24 H 1.05930 0.85000 1.64600
C25 C 0.9998(8) 0.8758(3) 1.4752(6)
C26 C 1.1935(10) 0.8346(6) 0.9169(7)
H25 H 1.14140 0.85730 0.85700
C27 C 1.3389(11) 0.8140(7) 0.8995(8)
H26 H 1.38470 0.82130 0.82690
C28 C 1.4166(10) 0.7824(5) 0.9903(9)
H27 H 1.51640 0.76960 0.97990
C29 C 1.3476(11) 0.7696(5) 1.0966(9)
H28 H 1.40040 0.74800 1.15750
C30 C 1.1989(9) 0.7892(4) 1.1124(6)
C31 C 0.695(1) 0.6284(4) 1.3353(7)
H29 H 0.71110 0.62540 1.41780
C32 C 0.6203(12) 0.5807(6) 1.2751(9)
H30 H 0.59050 0.54400 1.31490
C33 C 0.5894(12) 0.5877(5) 1.1535(9)
H31 H 0.53550 0.55600 1.11230
C34 C 0.6367(11) 0.6403(4) 1.0935(7)
H32 H 0.61420 0.64470 1.01210
C35 C 0.7203(8) 0.6881(3) 1.1556(5)
Cl1 Cl 0.6018(3) 0.91482(11) 0.6722(2)
O17 O 0.703(2) 0.8979(8) 0.7698(13)
O18 O 0.662(2) 0.9568(8) 0.5950(15)
O19 O 0.504(2) 0.9389(9) 0.7567(16)
O20 O 0.545(2) 0.8574(8) 0.6206(17)
O21? O 0.4478(15) 0.9245(7) 0.6292(15)
O22? O 0.676(2) 0.9768(8) 0.663(2)
O23? O 0.672(2) 0.8799(13) 0.572(2)
O24? O 0.617(3) 0.8481(7) 0.697(2)
#END
