####################################################################### 
# 
# This file contains crystal structure data downloaded from the 
# Cambridge Structural Database (CSD) hosted by the Cambridge 
# Crystallographic Data Centre (CCDC).
# 
# Full information about CCDC data access policies and citation 
# guidelines are available at http://www.ccdc.cam.ac.uk/access/V1 
# 
# Audit and citation data items may have been added by the CCDC. 
# Please retain this information to preserve the provenance of 
# this file and to allow appropriate attribution of the data. 
# 
#######################################################################

data_Zn(bisSALEN)
_audit_block_doi                 10.5517/ccz2mm8
_database_code_depnum_ccdc_archive 'CCDC 896260'
loop_
_citation_id
_citation_doi
_citation_year
1 10.1002/ejic.201300208 2013
_audit_update_record             
;
2012-08-14 deposited with the CCDC.	2024-07-09 downloaded from the CCDC.
;
#TrackingRef '896260.cif'


_audit_creation_method           SHELXTL
_chemical_name_systematic        
;
?
;
_chemical_name_common            ?
_chemical_melting_point          ?
_chemical_formula_moiety         ?
_chemical_formula_sum            'C74 H66 N9 O4 Zn2'
_chemical_formula_weight         1276.10

loop_
_atom_type_symbol
_atom_type_description
_atom_type_scat_dispersion_real
_atom_type_scat_dispersion_imag
_atom_type_scat_source
C C 0.0181 0.0091 'International Tables Vol C Tables 4.2.6.8 and 6.1.1.4'
H H 0.0000 0.0000 'International Tables Vol C Tables 4.2.6.8 and 6.1.1.4'
N N 0.0311 0.0180 'International Tables Vol C Tables 4.2.6.8 and 6.1.1.4'
O O 0.0492 0.0322 'International Tables Vol C Tables 4.2.6.8 and 6.1.1.4'
Zn Zn -1.5491 0.6778 'International Tables Vol C Tables 4.2.6.8 and 6.1.1.4'

_symmetry_cell_setting           Monoclinic
_symmetry_space_group_name_H-M   P2(1)/c

loop_
_symmetry_equiv_pos_as_xyz
'x, y, z'
'-x, y+1/2, -z+1/2'
'-x, -y, -z'
'x, -y-1/2, z-1/2'

_cell_length_a                   10.4189(12)
_cell_length_b                   18.863(2)
_cell_length_c                   22.224(3)
_cell_angle_alpha                90.00
_cell_angle_beta                 91.451(9)
_cell_angle_gamma                90.00
_cell_volume                     4366.3(9)
_cell_formula_units_Z            2
_cell_measurement_temperature    273(2)
_cell_measurement_reflns_used    2017
_cell_measurement_theta_min      2.48
_cell_measurement_theta_max      21.46

_exptl_crystal_description       block
_exptl_crystal_colour            red
_exptl_crystal_size_max          0.075
_exptl_crystal_size_mid          0.068
_exptl_crystal_size_min          0.044
_exptl_crystal_density_meas      ?
_exptl_crystal_density_diffrn    0.971
_exptl_crystal_density_method    'not measured'
_exptl_crystal_F_000             1330
_exptl_absorpt_coefficient_mu    1.010
_exptl_absorpt_correction_type   multi-scan
_exptl_absorpt_correction_T_min  0.927
_exptl_absorpt_correction_T_max  0.957
_exptl_absorpt_process_details   '(SADABS: Bruker, 1997)'

_exptl_special_details           
;
?
;

_diffrn_ambient_temperature      273(2)
_diffrn_radiation_wavelength     1.54178
_diffrn_radiation_type           CuK\a
_diffrn_radiation_source         'fine-focus sealed tube'
_diffrn_radiation_monochromator  graphite
_diffrn_measurement_device_type  'CCD area detector'
_diffrn_measurement_method       'phi and omega scans'
_diffrn_detector_area_resol_mean ?
_diffrn_standards_number         ?
_diffrn_standards_interval_count ?
_diffrn_standards_interval_time  ?
_diffrn_standards_decay_%        ?
_diffrn_reflns_number            11994
_diffrn_reflns_av_R_equivalents  0.0754
_diffrn_reflns_av_sigmaI/netI    0.1517
_diffrn_reflns_limit_h_min       -9
_diffrn_reflns_limit_h_max       9
_diffrn_reflns_limit_k_min       -16
_diffrn_reflns_limit_k_max       17
_diffrn_reflns_limit_l_min       -20
_diffrn_reflns_limit_l_max       20
_diffrn_reflns_theta_min         3.07
_diffrn_reflns_theta_max         44.50
_reflns_number_total             3123
_reflns_number_gt                1441
_reflns_threshold_expression     >2sigma(I)

_computing_data_collection       'X8 Prospector '
_computing_cell_refinement       'X8 Prospector '
_computing_data_reduction        'Bruker SAINT'
_computing_structure_solution    'SHELXS-97 (Sheldrick, 2008)'
_computing_structure_refinement  'SHELXL-97 (Sheldrick, 2008)'
_computing_molecular_graphics    'Bruker SHELXTL'
_computing_publication_material  'Bruker SHELXTL'

_refine_special_details          
;
Refinement of F^2^ against ALL reflections. The weighted R-factor wR and
goodness of fit S are based on F^2^, conventional R-factors R are based
on F, with F set to zero for negative F^2^. The threshold expression of
F^2^ > 2sigma(F^2^) is used only for calculating R-factors(gt) etc. and is
not relevant to the choice of reflections for refinement. R-factors based
on F^2^ are statistically about twice as large as those based on F, and R-
factors based on ALL data will be even larger.
;

_refine_ls_structure_factor_coef Fsqd
_refine_ls_matrix_type           full
_refine_ls_weighting_scheme      calc
_refine_ls_weighting_details     
'calc w=1/[\s^2^(Fo^2^)+(0.2000P)^2^+0.0000P] where P=(Fo^2^+2Fc^2^)/3'
_atom_sites_solution_primary     direct
_atom_sites_solution_secondary   difmap
_atom_sites_solution_hydrogens   geom
_refine_ls_hydrogen_treatment    constr
_refine_ls_extinction_method     none
_refine_ls_extinction_coef       ?
_refine_ls_number_reflns         3123
_refine_ls_number_parameters     393
_refine_ls_number_restraints     427
_refine_ls_R_factor_all          0.2270
_refine_ls_R_factor_gt           0.1247
_refine_ls_wR_factor_ref         0.3607
_refine_ls_wR_factor_gt          0.2949
_refine_ls_goodness_of_fit_ref   1.096
_refine_ls_restrained_S_all      1.044
_refine_ls_shift/su_max          0.000
_refine_ls_shift/su_mean         0.000

loop_
_atom_site_label
_atom_site_type_symbol
_atom_site_fract_x
_atom_site_fract_y
_atom_site_fract_z
_atom_site_U_iso_or_equiv
_atom_site_adp_type
_atom_site_occupancy
_atom_site_symmetry_multiplicity
_atom_site_calc_flag
_atom_site_refinement_flags
_atom_site_disorder_assembly
_atom_site_disorder_group
Zn1 Zn 0.2516(2) 0.50978(11) 0.36446(9) 0.0715(11) Uani 1 1 d U . .
O1 O 0.2535(11) 0.4568(6) 0.2899(5) 0.088(3) Uani 1 1 d U . .
O2 O 0.4381(11) 0.5209(6) 0.3706(5) 0.088(3) Uani 1 1 d U . .
N1 N 0.0846(12) 0.4557(7) 0.3890(6) 0.065(3) Uani 1 1 d U . .
N2 N 0.2450(13) 0.5298(7) 0.4572(6) 0.069(3) Uani 1 1 d U . .
C1 C 0.1213(15) 0.5156(8) 0.4805(7) 0.057(4) Uani 1 1 d U . .
C2 C 0.0423(16) 0.4760(8) 0.4461(7) 0.060(4) Uani 1 1 d U . .
C3 C -0.0797(15) 0.4615(8) 0.4636(7) 0.058(4) Uani 1 1 d U . .
H3 H -0.1353 0.4364 0.4381 0.070 Uiso 1 1 calc R . .
C4 C 0.0347(16) 0.4078(9) 0.3569(7) 0.072(4) Uani 1 1 d U . .
H4 H -0.0372 0.3865 0.3730 0.086 Uiso 1 1 calc R . .
C5 C 0.0695(16) 0.3809(9) 0.3004(7) 0.071(4) Uani 1 1 d U . .
C6 C 0.1810(18) 0.4098(10) 0.2683(8) 0.082(4) Uani 1 1 d U . .
C7 C 0.2072(18) 0.3706(10) 0.2109(8) 0.096(4) Uani 1 1 d DU . .
C8 C 0.1279(18) 0.3171(10) 0.1910(8) 0.092(5) Uani 1 1 d U . .
H8 H 0.1475 0.2951 0.1550 0.110 Uiso 1 1 calc R . .
C9 C 0.0181(17) 0.2930(9) 0.2214(8) 0.082(4) Uani 1 1 d DU . .
C10 C -0.0058(17) 0.3255(9) 0.2754(7) 0.078(4) Uani 1 1 d U . .
H10 H -0.0760 0.3099 0.2969 0.094 Uiso 1 1 calc R . .
C11 C 0.3344(19) 0.3910(10) 0.1810(7) 0.127(6) Uani 1 1 d DU . .
C12 C 0.4484(19) 0.3666(12) 0.2227(10) 0.162(8) Uani 1 1 d DU . .
H12A H 0.5281 0.3778 0.2042 0.243 Uiso 1 1 calc R . .
H12B H 0.4431 0.3163 0.2291 0.243 Uiso 1 1 calc R . .
H12C H 0.4442 0.3906 0.2607 0.243 Uiso 1 1 calc R . .
C13 C 0.331(2) 0.4700(11) 0.1608(11) 0.173(8) Uani 1 1 d DU . .
H13A H 0.4072 0.4810 0.1395 0.260 Uiso 1 1 calc R . .
H13B H 0.3258 0.5000 0.1956 0.260 Uiso 1 1 calc R . .
H13C H 0.2569 0.4779 0.1349 0.260 Uiso 1 1 calc R . .
C14 C 0.3358(10) 0.3533(6) 0.1189(4) 0.173(9) Uani 1 1 d DU . .
H14A H 0.4113 0.3671 0.0980 0.259 Uiso 1 1 calc R . .
H14B H 0.2608 0.3667 0.0956 0.259 Uiso 1 1 calc R . .
H14C H 0.3362 0.3029 0.1247 0.259 Uiso 1 1 calc R . .
C15 C -0.0539(10) 0.2325(6) 0.1998(4) 0.078(4) Uani 1 1 d RDU . .
C16 C -0.0890(10) 0.1819(6) 0.2418(4) 0.081(5) Uani 1 1 d RDU . .
H16 H -0.0699 0.1874 0.2827 0.098 Uiso 1 1 calc R . .
C17 C -0.1541(15) 0.1227(9) 0.2194(7) 0.076(4) Uani 1 1 d DU . .
H17 H -0.1828 0.0905 0.2479 0.091 Uiso 1 1 calc R . .
N3 N -0.1790(13) 0.1073(8) 0.1644(6) 0.078(4) Uani 1 1 d DU . .
C18 C -0.1449(17) 0.1559(9) 0.1248(8) 0.081(5) Uani 1 1 d DU . .
H18 H -0.1633 0.1480 0.0842 0.098 Uiso 1 1 calc R . .
C19 C -0.0836(17) 0.2174(9) 0.1414(7) 0.091(5) Uani 1 1 d DU . .
H19 H -0.0617 0.2498 0.1118 0.110 Uiso 1 1 calc R . .
C21 C 0.3377(16) 0.5563(8) 0.4874(8) 0.065(4) Uani 1 1 d U . .
H21 H 0.3237 0.5632 0.5282 0.078 Uiso 1 1 calc R . .
C22 C 0.4594(17) 0.5768(9) 0.4673(8) 0.070(4) Uani 1 1 d U . .
C23 C 0.5036(17) 0.5588(10) 0.4071(8) 0.074(4) Uani 1 1 d U . .
C24 C 0.6269(18) 0.5815(10) 0.3901(8) 0.084(4) Uani 1 1 d DU . .
C25 C 0.6994(16) 0.6212(10) 0.4301(9) 0.086(4) Uani 1 1 d U . .
H25 H 0.7779 0.6379 0.4170 0.103 Uiso 1 1 calc R . .
C27 C 0.5435(16) 0.6151(9) 0.5038(8) 0.076(4) Uani 1 1 d U . .
H27 H 0.5135 0.6257 0.5418 0.091 Uiso 1 1 calc R . .
C28 C 0.6769(15) 0.5677(10) 0.3273(8) 0.107(5) Uani 1 1 d DU . .
C29 C 0.6868(18) 0.4864(11) 0.3181(9) 0.125(6) Uani 1 1 d DU . .
H29A H 0.7159 0.4768 0.2783 0.187 Uiso 1 1 calc R . .
H29B H 0.6040 0.4652 0.3231 0.187 Uiso 1 1 calc R . .
H29C H 0.7467 0.4670 0.3472 0.187 Uiso 1 1 calc R . .
C30 C 0.8132(17) 0.5995(14) 0.3201(10) 0.159(8) Uani 1 1 d DU . .
H30A H 0.8432 0.5889 0.2806 0.238 Uiso 1 1 calc R . .
H30B H 0.8709 0.5792 0.3498 0.238 Uiso 1 1 calc R . .
H30C H 0.8099 0.6499 0.3255 0.238 Uiso 1 1 calc R . .
C31 C 0.5799(19) 0.6032(12) 0.2824(8) 0.137(7) Uani 1 1 d DU . .
H31A H 0.6054 0.5939 0.2419 0.205 Uiso 1 1 calc R . .
H31B H 0.5788 0.6534 0.2892 0.205 Uiso 1 1 calc R . .
H31C H 0.4957 0.5841 0.2882 0.205 Uiso 1 1 calc R . .
C26 C 0.6639(17) 0.6398(9) 0.4926(8) 0.082(4) Uani 1 1 d DU . .
C32 C 0.7393(17) 0.6855(10) 0.5308(8) 0.103(5) Uani 1 1 d DU . .
C33 C 0.7115(18) 0.6951(11) 0.5913(8) 0.118(5) Uani 1 1 d DU . .
H33 H 0.6461 0.6691 0.6086 0.142 Uiso 1 1 calc R . .
C34 C 0.781(2) 0.7435(12) 0.6257(9) 0.133(6) Uani 1 1 d DU . .
H34 H 0.7523 0.7520 0.6643 0.159 Uiso 1 1 calc R . .
N4 N 0.8809(19) 0.7779(10) 0.6105(8) 0.143(6) Uani 1 1 d DU . .
C35 C 0.915(2) 0.7645(12) 0.5547(10) 0.142(6) Uani 1 1 d DU . .
H35 H 0.9857 0.7881 0.5401 0.170 Uiso 1 1 calc R . .
C36 C 0.8505(19) 0.7176(11) 0.5164(9) 0.131(6) Uani 1 1 d DU . .
H36 H 0.8855 0.7077 0.4792 0.157 Uiso 1 1 calc R . .
N1S N 0.333(4) 0.7263(19) 0.0484(18) 0.161(12) Uiso 0.50 1 d PDU . .
C1S C 0.244(4) 0.785(2) 0.0230(17) 0.136(13) Uiso 0.50 1 d PDU . .
C2S C 0.231(4) 0.816(2) 0.0864(16) 0.112(13) Uiso 0.50 1 d PDU . .
C3S C 0.307(5) 0.699(3) 0.1124(19) 0.174(16) Uiso 0.50 1 d PDU . .
C4S C 0.381(6) 0.745(3) 0.159(3) 0.23(2) Uiso 0.50 1 d PDU . .

loop_
_atom_site_aniso_label
_atom_site_aniso_U_11
_atom_site_aniso_U_22
_atom_site_aniso_U_33
_atom_site_aniso_U_23
_atom_site_aniso_U_13
_atom_site_aniso_U_12
Zn1 0.0744(19) 0.0609(19) 0.0802(16) -0.0027(15) 0.0213(12) -0.0080(14)
O1 0.090(9) 0.076(9) 0.100(7) -0.016(6) 0.033(6) -0.036(6)
O2 0.079(6) 0.100(10) 0.085(7) -0.008(7) 0.018(5) -0.012(6)
N1 0.061(7) 0.057(9) 0.079(7) -0.024(6) 0.012(6) 0.003(6)
N2 0.048(7) 0.054(9) 0.105(7) -0.023(7) 0.019(6) -0.006(7)
C1 0.041(7) 0.048(10) 0.083(8) -0.024(8) 0.008(6) 0.002(7)
C2 0.044(7) 0.053(9) 0.083(8) -0.026(7) 0.006(6) 0.002(7)
C3 0.040(8) 0.055(10) 0.079(10) -0.012(9) 0.002(7) 0.009(8)
C4 0.071(9) 0.056(11) 0.089(9) -0.028(7) 0.033(7) 0.001(7)
C5 0.073(9) 0.059(10) 0.082(8) -0.027(7) 0.027(7) -0.011(7)
C6 0.091(10) 0.068(10) 0.089(8) -0.021(7) 0.036(7) -0.023(7)
C7 0.104(10) 0.087(10) 0.099(9) -0.028(7) 0.051(7) -0.033(8)
C8 0.094(11) 0.093(11) 0.090(10) -0.034(8) 0.037(8) -0.030(8)
C9 0.082(10) 0.083(10) 0.082(8) -0.030(7) 0.030(7) -0.020(7)
C10 0.083(10) 0.073(11) 0.080(9) -0.020(7) 0.023(8) -0.023(8)
C11 0.127(12) 0.129(12) 0.130(12) -0.049(11) 0.076(8) -0.058(11)
C12 0.103(12) 0.20(2) 0.186(17) -0.066(16) 0.069(11) -0.034(15)
C13 0.21(2) 0.145(13) 0.166(19) -0.015(12) 0.111(15) -0.080(14)
C14 0.18(2) 0.199(18) 0.142(14) -0.075(15) 0.109(11) -0.090(18)
C15 0.082(10) 0.082(10) 0.073(8) -0.023(7) 0.032(8) -0.019(7)
C16 0.076(11) 0.093(11) 0.075(8) -0.016(7) 0.024(8) -0.024(8)
C17 0.078(11) 0.082(11) 0.069(8) -0.008(8) 0.017(9) -0.016(8)
N3 0.075(9) 0.095(10) 0.065(8) -0.007(7) 0.011(8) 0.002(8)
C18 0.087(11) 0.087(12) 0.071(9) -0.013(7) 0.009(9) -0.008(9)
C19 0.102(12) 0.095(11) 0.078(8) -0.023(8) 0.015(9) -0.017(9)
C21 0.048(8) 0.057(10) 0.093(8) -0.015(8) 0.024(6) -0.008(8)
C22 0.051(8) 0.067(10) 0.091(8) 0.001(8) 0.016(6) -0.012(7)
C23 0.053(7) 0.080(10) 0.090(8) 0.002(8) 0.019(6) 0.004(7)
C24 0.055(8) 0.102(10) 0.096(8) 0.009(8) 0.022(6) 0.008(8)
C25 0.045(9) 0.096(12) 0.116(9) 0.007(9) 0.021(8) 0.001(8)
C27 0.050(9) 0.079(11) 0.098(9) 0.004(8) 0.009(7) -0.010(8)
C28 0.058(10) 0.160(12) 0.104(9) -0.002(10) 0.030(7) -0.002(10)
C29 0.085(14) 0.177(13) 0.114(14) -0.039(12) 0.021(12) 0.015(11)
C30 0.078(11) 0.24(2) 0.157(18) -0.016(18) 0.056(10) -0.036(14)
C31 0.117(14) 0.192(18) 0.102(11) 0.030(15) 0.013(11) -0.016(14)
C26 0.052(9) 0.077(10) 0.117(9) 0.000(8) 0.010(8) -0.013(7)
C32 0.062(10) 0.114(12) 0.133(9) -0.002(9) -0.001(9) -0.031(8)
C33 0.086(12) 0.131(13) 0.138(10) -0.019(11) 0.005(10) -0.035(9)
C34 0.107(14) 0.144(15) 0.147(12) -0.020(11) -0.009(11) -0.040(10)
N4 0.117(13) 0.150(13) 0.161(13) -0.007(12) -0.024(12) -0.053(9)
C35 0.102(13) 0.159(14) 0.164(14) 0.000(13) -0.015(11) -0.069(10)
C36 0.096(12) 0.142(14) 0.154(12) -0.002(11) 0.007(10) -0.068(10)

_geom_special_details            
;
All esds (except the esd in the dihedral angle between two l.s. planes)
are estimated using the full covariance matrix. The cell esds are taken
into account individually in the estimation of esds in distances, angles
and torsion angles; correlations between esds in cell parameters are only
used when they are defined by crystal symmetry. An approximate (isotropic)
treatment of cell esds is used for estimating esds involving l.s. planes.
;

loop_
_geom_bond_atom_site_label_1
_geom_bond_atom_site_label_2
_geom_bond_distance
_geom_bond_site_symmetry_2
_geom_bond_publ_flag
Zn1 O1 1.935(11) . ?
Zn1 O2 1.956(12) . ?
Zn1 N3 2.084(14) 2 ?
Zn1 N2 2.098(14) . ?
Zn1 N1 2.100(13) . ?
O1 C6 1.253(17) . ?
O2 C23 1.267(18) . ?
N1 C4 1.257(17) . ?
N1 C2 1.407(18) . ?
N2 C21 1.266(17) . ?
N2 C1 1.426(18) . ?
C1 C2 1.336(19) . ?
C1 C3 1.395(19) 3_566 ?
C2 C3 1.367(19) . ?
C3 C1 1.395(19) 3_566 ?
C3 H3 0.9300 . ?
C4 C5 1.410(19) . ?
C4 H4 0.9300 . ?
C5 C10 1.411(19) . ?
C5 C6 1.48(2) . ?
C6 C7 1.51(2) . ?
C7 C8 1.37(2) . ?
C7 C11 1.547(19) . ?
C8 C9 1.42(2) . ?
C8 H8 0.9300 . ?
C9 C10 1.377(19) . ?
C9 C15 1.441(15) . ?
C10 H10 0.9300 . ?
C11 C14 1.552(11) . ?
C11 C13 1.557(12) . ?
C11 C12 1.558(11) . ?
C12 H12A 0.9600 . ?
C12 H12B 0.9600 . ?
C12 H12C 0.9600 . ?
C13 H13A 0.9600 . ?
C13 H13B 0.9600 . ?
C13 H13C 0.9600 . ?
C14 H14A 0.9600 . ?
C14 H14B 0.9600 . ?
C14 H14C 0.9600 . ?
C15 C19 1.356(15) . ?
C15 C16 1.3900 . ?
C16 C17 1.393(15) . ?
C16 H16 0.9300 . ?
C17 N3 1.277(15) . ?
C17 H17 0.9300 . ?
N3 C18 1.325(16) . ?
N3 Zn1 2.084(14) 2_545 ?
C18 C19 1.371(17) . ?
C18 H18 0.9300 . ?
C19 H19 0.9300 . ?
C21 C22 1.41(2) . ?
C21 H21 0.9300 . ?
C22 C27 1.38(2) . ?
C22 C23 1.47(2) . ?
C23 C24 1.41(2) . ?
C24 C25 1.37(2) . ?
C24 C28 1.525(19) . ?
C25 C26 1.49(2) . ?
C25 H25 0.9300 . ?
C27 C26 1.37(2) . ?
C27 H27 0.9300 . ?
C28 C29 1.550(11) . ?
C28 C31 1.554(11) . ?
C28 C30 1.554(11) . ?
C29 H29A 0.9600 . ?
C29 H29B 0.9600 . ?
C29 H29C 0.9600 . ?
C30 H30A 0.9600 . ?
C30 H30B 0.9600 . ?
C30 H30C 0.9600 . ?
C31 H31A 0.9600 . ?
C31 H31B 0.9600 . ?
C31 H31C 0.9600 . ?
C26 C32 1.430(17) . ?
C32 C36 1.354(17) . ?
C32 C33 1.395(15) . ?
C33 C34 1.385(17) . ?
C33 H33 0.9300 . ?
C34 N4 1.275(18) . ?
C34 H34 0.9300 . ?
N4 C35 1.323(19) . ?
C35 C36 1.387(19) . ?
C35 H35 0.9300 . ?
C36 H36 0.9300 . ?
N1S C3S 1.540(2) . ?
N1S C1S 1.540(2) . ?
C1S C2S 1.540(2) . ?
C3S C4S 1.540(2) . ?

loop_
_geom_angle_atom_site_label_1
_geom_angle_atom_site_label_2
_geom_angle_atom_site_label_3
_geom_angle
_geom_angle_site_symmetry_1
_geom_angle_site_symmetry_3
_geom_angle_publ_flag
O1 Zn1 O2 94.8(5) . . ?
O1 Zn1 N3 101.7(5) . 2 ?
O2 Zn1 N3 106.2(5) . 2 ?
O1 Zn1 N2 159.3(5) . . ?
O2 Zn1 N2 88.2(5) . . ?
N3 Zn1 N2 97.1(5) 2 . ?
O1 Zn1 N1 89.9(5) . . ?
O2 Zn1 N1 149.5(5) . . ?
N3 Zn1 N1 102.3(5) 2 . ?
N2 Zn1 N1 77.5(5) . . ?
C6 O1 Zn1 132.3(12) . . ?
C23 O2 Zn1 128.6(12) . . ?
C4 N1 C2 125.0(15) . . ?
C4 N1 Zn1 122.3(12) . . ?
C2 N1 Zn1 112.5(10) . . ?
C21 N2 C1 124.5(15) . . ?
C21 N2 Zn1 123.3(12) . . ?
C1 N2 Zn1 112.0(10) . . ?
C2 C1 C3 118.7(15) . 3_566 ?
C2 C1 N2 116.5(16) . . ?
C3 C1 N2 124.7(15) 3_566 . ?
C1 C2 C3 120.9(15) . . ?
C1 C2 N1 117.7(16) . . ?
C3 C2 N1 121.1(15) . . ?
C2 C3 C1 120.2(15) . 3_566 ?
C2 C3 H3 119.9 . . ?
C1 C3 H3 119.9 3_566 . ?
N1 C4 C5 130.7(17) . . ?
N1 C4 H4 114.6 . . ?
C5 C4 H4 114.6 . . ?
C4 C5 C10 117.6(16) . . ?
C4 C5 C6 121.2(15) . 