####################################################################### 
# 
# This file contains crystal structure data downloaded from the 
# Cambridge Structural Database (CSD) hosted by the Cambridge 
# Crystallographic Data Centre (CCDC).
# 
# Full information about CCDC data access policies and citation 
# guidelines are available at http://www.ccdc.cam.ac.uk/access/V1 
# 
# Audit and citation data items may have been added by the CCDC. 
# Please retain this information to preserve the provenance of 
# this file and to allow appropriate attribution of the data. 
# 
#######################################################################

data_cbm
_audit_block_doi                 10.5517/ccz20wx
_database_code_depnum_ccdc_archive 'CCDC 895679'
loop_
_citation_id
_citation_doi
_citation_year
1 10.1016/j.micromeso.2013.03.052 2013
_audit_update_record             
;
2012-08-10 deposited with the CCDC.	2024-07-09 downloaded from the CCDC.
;
#TrackingRef '1-CbM.cif'


_audit_creation_method           SHELXL-97
_chemical_name_systematic        
;
?
;
_chemical_name_common            ?
_chemical_melting_point          ?
_chemical_formula_moiety         'C21 H17 Co3 N O15'
_chemical_formula_sum            'C21 H17 Co3 N O15'
_chemical_formula_weight         700.15

loop_
_platon_squeeze_void_nr
_platon_squeeze_void_average_x
_platon_squeeze_void_average_y
_platon_squeeze_void_average_z
_platon_squeeze_void_volume
_platon_squeeze_void_count_electrons
1 -0.010 0.000 -0.018 1532.6 127.9
2 0.023 0.500 -0.067 1532.6 127.9
_platon_squeeze_details          
;
The unit cell contains 5 DMF molecules, which have been treated as a
diffuse contribution to the overall scattering without specific atom
positions by SQUEEZE/PLATON.
;

loop_
_atom_type_symbol
_atom_type_description
_atom_type_scat_dispersion_real
_atom_type_scat_dispersion_imag
_atom_type_scat_source
C C 0.0033 0.0016 'International Tables Vol C Tables 4.2.6.8 and 6.1.1.4'
H H 0.0000 0.0000 'International Tables Vol C Tables 4.2.6.8 and 6.1.1.4'
Co Co 0.3494 0.9721 'International Tables Vol C Tables 4.2.6.8 and 6.1.1.4'
N N 0.0061 0.0033 'International Tables Vol C Tables 4.2.6.8 and 6.1.1.4'
O O 0.0106 0.0060 'International Tables Vol C Tables 4.2.6.8 and 6.1.1.4'

_symmetry_cell_setting           orthorhombic
_symmetry_space_group_name_H-M   Iba2

loop_
_symmetry_equiv_pos_as_xyz
'x, y, z'
'-x, -y, z'
'-x, y, z+1/2'
'x, -y, z+1/2'
'x+1/2, y+1/2, z+1/2'
'-x+1/2, -y+1/2, z+1/2'
'-x+1/2, y+1/2, z+1'
'x+1/2, -y+1/2, z+1'

_cell_length_a                   19.695(4)
_cell_length_b                   21.188(4)
_cell_length_c                   17.820(4)
_cell_angle_alpha                90.00
_cell_angle_beta                 90.00
_cell_angle_gamma                90.00
_cell_volume                     7436(3)
_cell_formula_units_Z            8
_cell_measurement_temperature    293(2)
_cell_measurement_reflns_used    426
_cell_measurement_theta_min      3.17
_cell_measurement_theta_max      58.21

_exptl_crystal_description       needle
_exptl_crystal_colour            blue
_exptl_crystal_size_max          0.24
_exptl_crystal_size_mid          0.08
_exptl_crystal_size_min          0.07
_exptl_crystal_density_meas      none
_exptl_crystal_density_diffrn    1.251
_exptl_crystal_density_method    'not measured'
_exptl_crystal_F_000             2808
_exptl_absorpt_coefficient_mu    1.376
_exptl_absorpt_correction_type   MULTI-SCAN
_exptl_absorpt_correction_T_min  0.876
_exptl_absorpt_correction_T_max  0.908
_exptl_absorpt_process_details   '(SADABS; Sheldrick, 1998)'

_exptl_special_details           
;
?
;

_diffrn_ambient_temperature      293(2)
_diffrn_radiation_wavelength     0.71073
_diffrn_radiation_type           MoK\a
_diffrn_radiation_source         'fine-focus sealed tube'
_diffrn_radiation_monochromator  graphite
_diffrn_measurement_device_type  'CCD area detector'

_diffrn_measurement_method       'phi and omega scans'
_diffrn_detector_area_resol_mean ?
_diffrn_standards_number         ?
_diffrn_standards_interval_count ?
_diffrn_standards_interval_time  ?
_diffrn_standards_decay_%        ?
_diffrn_reflns_number            27866
_diffrn_reflns_av_R_equivalents  0.1772
_diffrn_reflns_av_sigmaI/netI    0.1457
_diffrn_reflns_limit_h_min       -23
_diffrn_reflns_limit_h_max       23
_diffrn_reflns_limit_k_min       -25
_diffrn_reflns_limit_k_max       25
_diffrn_reflns_limit_l_min       -21
_diffrn_reflns_limit_l_max       21
_diffrn_reflns_theta_min         2.99
_diffrn_reflns_theta_max         25.00
_reflns_number_total             6505
_reflns_number_gt                4207
_reflns_threshold_expression     >2sigma(I)

_computing_data_collection       'Bruker SMART'

_computing_cell_refinement       'Bruker SMART'

_computing_data_reduction        'Bruker SAINT'

_computing_structure_solution    'SHELXS-97 (Sheldrick, 1990)'

_computing_structure_refinement  'SHELXL-97 (Sheldrick, 1997)'

_computing_molecular_graphics    'Bruker SHELXTL'

_computing_publication_material  'Bruker SHELXTL'

_refine_special_details          
;
Refinement of F^2^ against ALL reflections. The weighted R-factor wR and
goodness of fit S are based on F^2^, conventional R-factors R are based
on F, with F set to zero for negative F^2^. The threshold expression of
F^2^ > 2sigma(F^2^) is used only for calculating R-factors(gt) etc. and is
not relevant to the choice of reflections for refinement. R-factors based
on F^2^ are statistically about twice as large as those based on F, and R-
factors based on ALL data will be even larger.
;

_refine_ls_structure_factor_coef Fsqd
_refine_ls_matrix_type           full
_refine_ls_weighting_scheme      calc
_refine_ls_weighting_details     
'calc w=1/[\s^2^(Fo^2^)+(0.1800P)^2^+89.0000P] where P=(Fo^2^+2Fc^2^)/3'
_atom_sites_solution_primary     direct
_atom_sites_solution_secondary   difmap
_atom_sites_solution_hydrogens   geom
_refine_ls_hydrogen_treatment    mixed
_refine_ls_extinction_method     SHELXL
_refine_ls_extinction_coef       0.036(3)
_refine_ls_extinction_expression Fc^*^=kFc[1+0.001xFc^2^\l^3^/sin(2\q)]^-1/4^
_refine_ls_abs_structure_details 'Flack H D (1983), Acta Cryst. A39, 876-881'
_refine_ls_abs_structure_Flack   0.09(7)
_refine_ls_number_reflns         6505
_refine_ls_number_parameters     375
_refine_ls_number_restraints     42
_refine_ls_R_factor_all          0.0805
_refine_ls_R_factor_gt           0.0499
_refine_ls_wR_factor_ref         0.1733
_refine_ls_wR_factor_gt          0.1465
_refine_ls_goodness_of_fit_ref   1.097
_refine_ls_restrained_S_all      1.095
_refine_ls_shift/su_max          0.010
_refine_ls_shift/su_mean         0.000

loop_
_atom_site_label
_atom_site_type_symbol
_atom_site_fract_x
_atom_site_fract_y
_atom_site_fract_z
_atom_site_U_iso_or_equiv
_atom_site_adp_type
_atom_site_occupancy
_atom_site_symmetry_multiplicity
_atom_site_calc_flag
_atom_site_refinement_flags
_atom_site_disorder_assembly
_atom_site_disorder_group
O10 O 0.2866(8) 0.9415(7) 0.5544(7) 0.064(4) Uani 1 1 d . . .
O9 O 0.2334(10) 0.8498(7) 0.5561(8) 0.076(5) Uani 1 1 d . . .
C17 C 0.2616(13) 0.8961(12) 0.5200(14) 0.073(6) Uani 1 1 d . . .
C13 C 0.2623(9) 0.8936(9) 0.4366(9) 0.046(4) Uani 1 1 d . . .
C12 C 0.2351(14) 0.8410(12) 0.3966(11) 0.074(7) Uani 1 1 d . . .
H12 H 0.2220 0.8049 0.4227 0.089 Uiso 1 1 calc R . .
C15 C 0.2716(11) 0.9502(9) 0.3173(12) 0.062(5) Uani 1 1 d . . .
C16 C 0.2460(12) 0.8997(11) 0.2798(12) 0.067(6) Uani 1 1 d . . .
H16 H 0.2399 0.9012 0.2281 0.081 Uiso 1 1 calc R . .
C11 C 0.2282(11) 0.8432(9) 0.3217(10) 0.059(5) Uani 1 1 d . . .
C10 C 0.1986(9) 0.7860(10) 0.2802(13) 0.057(5) Uani 1 1 d . . .
O7 O 0.1795(10) 0.7418(7) 0.3203(7) 0.082(5) Uani 1 1 d . . .
O8 O 0.1916(8) 0.7916(8) 0.2127(7) 0.069(4) Uani 1 1 d . . .
Co3 Co 0.13432(12) 0.72464(12) 0.16173(14) 0.0531(8) Uani 1 1 d . . .
Co2 Co 0.16853(12) 0.64409(12) 0.31045(13) 0.0485(8) Uani 1 1 d . . .
Co1 Co 0.26210(12) 0.60001(12) 0.15875(15) 0.0536(8) Uani 1 1 d D . .
O3 O 0.3629(7) 0.7454(7) 0.5563(7) 0.054(3) Uani 1 1 d . . .
O4 O 0.4360(9) 0.8250(8) 0.5456(8) 0.068(4) Uani 1 1 d . . .
H4 H 0.4748 0.8126 0.5538 0.101 Uiso 1 1 calc R . .
O1 O 0.3212(6) 0.6588(9) 0.2191(7) 0.066(4) Uani 1 1 d . . .
O2 O 0.2725(8) 0.6427(9) 0.3274(8) 0.078(5) Uani 1 1 d . . .
O5 O 0.5608(6) 0.8418(7) 0.3059(8) 0.062(4) Uani 1 1 d . . .
O11 O 0.3327(8) 1.0475(6) 0.3087(10) 0.067(3) Uani 1 1 d . . .
O15 O 0.1546(10) 0.6378(10) 0.4288(10) 0.082(5) Uani 1 1 d D . .
O13 O 0.1718(6) 0.6451(7) 0.1938(7) 0.044(3) Uani 1 1 d . . .
O12 O 0.2567(9) 1.0207(8) 0.2228(8) 0.075(5) Uani 1 1 d . . .
O14 O 0.3466(10) 0.5513(12) 0.1222(12) 0.106(7) Uani 1 1 d D . .
O6 O 0.5458(8) 0.7675(8) 0.2171(7) 0.071(4) Uani 1 1 d . . .
C14 C 0.2859(8) 0.9468(11) 0.3986(10) 0.055(5) Uani 1 1 d . . .
H14 H 0.3095 0.9786 0.4232 0.066 Uiso 1 1 calc R . .
C4 C 0.4095(8) 0.7632(10) 0.4360(9) 0.048(4) Uani 1 1 d . . .
C3 C 0.3638(10) 0.7236(10) 0.4008(9) 0.050(4) Uani 1 1 d . . .
H3 H 0.3275 0.7076 0.4282 0.060 Uiso 1 1 calc R . .
C2 C 0.3704(12) 0.7069(11) 0.3262(8) 0.067(7) Uani 1 1 d . . .
C7 C 0.4215(11) 0.7314(11) 0.2851(12) 0.063(6) Uani 1 1 d . . .
H7 H 0.4243 0.7223 0.2342 0.076 Uiso 1 1 calc R . .
C6 C 0.4731(9) 0.7725(9) 0.3203(9) 0.050(4) Uani 1 1 d . . .
C5 C 0.4598(11) 0.7899(11) 0.3951(10) 0.062(5) Uani 1 1 d . . .
H5 H 0.4865 0.8210 0.4173 0.074 Uiso 1 1 calc R . .
C8 C 0.4041(11) 0.7840(15) 0.5196(14) 0.059(7) Uani 1 1 d . . .
C1 C 0.3197(9) 0.6643(12) 0.2857(10) 0.058(5) Uani 1 1 d . . .
C18 C 0.2877(11) 1.0096(12) 0.2818(9) 0.063(6) Uani 1 1 d . . .
C9 C 0.5303(10) 0.7955(11) 0.2772(15) 0.071(6) Uani 1 1 d . . .
C19 C 0.160(3) 0.673(2) 0.481(2) 0.109(18) Uani 1 1 d DU . .
H19 H 0.2030 0.6911 0.4789 0.191 Uiso 1 1 calc R . .
N1 N 0.129(3) 0.698(2) 0.542(2) 0.14(3) Uani 1 1 d DU . .
C21 C 0.083(4) 0.751(4) 0.531(4) 0.16(7) Uani 1 1 d DU . .
H21A H 0.0471 0.7485 0.5673 0.163 Uiso 1 1 calc R . .
H21B H 0.0642 0.7490 0.4814 0.163 Uiso 1 1 calc R . .
H21C H 0.1074 0.7896 0.5373 0.163 Uiso 1 1 calc R . .
C20 C 0.172(2) 0.707(2) 0.605(2) 0.141(15) Uani 1 1 d DU . .
H20A H 0.1735 0.7505 0.6182 0.112 Uiso 1 1 calc R . .
H20B H 0.2173 0.6924 0.5930 0.112 Uiso 1 1 calc R . .
H20C H 0.1551 0.6826 0.6466 0.112 Uiso 1 1 calc R . .
H14A H 0.341(3) 0.510(7) 0.101(17) 0.170 Uiso 1 1 d D . .
H14B H 0.386(4) 0.556(12) 0.150(11) 0.170 Uiso 1 1 d D . .
H13 H 0.194(7) 0.665(8) 0.161(11) 0.03(4) Uiso 1 1 d . . .

loop_
_atom_site_aniso_label
_atom_site_aniso_U_11
_atom_site_aniso_U_22
_atom_site_aniso_U_33
_atom_site_aniso_U_23
_atom_site_aniso_U_13
_atom_site_aniso_U_12
O10 0.092(10) 0.063(10) 0.038(6) 0.001(6) -0.007(6) -0.013(8)
O9 0.124(13) 0.063(10) 0.041(7) 0.004(6) -0.003(7) -0.047(9)
C17 0.089(15) 0.063(17) 0.067(13) 0.007(11) -0.015(12) -0.004(13)
C13 0.058(9) 0.045(11) 0.036(8) -0.003(7) -0.007(7) -0.018(8)
C12 0.115(18) 0.075(18) 0.032(9) 0.002(9) 0.001(10) -0.001(14)
C15 0.092(13) 0.032(11) 0.062(11) 0.002(9) 0.035(11) 0.003(9)
C16 0.089(14) 0.064(16) 0.049(10) 0.015(9) -0.019(10) -0.025(12)
C11 0.092(13) 0.047(13) 0.038(9) 0.006(8) 0.009(9) -0.028(10)
C10 0.049(9) 0.044(12) 0.080(14) -0.006(9) -0.001(9) 0.002(8)
O7 0.162(15) 0.051(9) 0.031(6) 0.003(6) 0.011(8) -0.056(10)
O8 0.084(10) 0.081(12) 0.041(7) -0.001(6) 0.002(6) -0.008(8)
Co3 0.0671(14) 0.0527(16) 0.0396(11) 0.0005(12) 0.0038(13) -0.0010(11)
Co2 0.0593(13) 0.0438(14) 0.0423(12) 0.0011(11) 0.0032(11) -0.0067(11)
Co1 0.0617(13) 0.0586(17) 0.0406(12) 0.0004(13) 0.0016(13) -0.0103(11)
O3 0.062(7) 0.055(9) 0.045(6) -0.007(6) 0.024(6) -0.010(6)
O4 0.094(11) 0.062(10) 0.047(7) -0.015(7) -0.011(7) -0.007(8)
O1 0.050(7) 0.116(14) 0.032(6) -0.006(6) 0.005(5) -0.027(8)
O2 0.076(9) 0.108(14) 0.051(8) -0.007(8) 0.006(7) -0.043(9)
O5 0.059(7) 0.072(10) 0.054(7) -0.017(7) 0.008(7) -0.031(7)
O11 0.082(9) 0.041(8) 0.077(8) -0.005(8) 0.009(8) 0.002(7)
O15 0.094(12) 0.086(14) 0.065(9) 0.004(8) 0.020(9) 0.013(9)
O13 0.055(7) 0.049(8) 0.028(5) -0.002(5) -0.010(5) -0.003(6)
O12 0.105(11) 0.061(10) 0.058(7) -0.001(7) -0.042(8) -0.030(8)
O14 0.088(12) 0.110(19) 0.120(15) 0.005(13) 0.002(11) 0.039(12)
O6 0.082(10) 0.082(12) 0.050(7) -0.011(7) 0.012(7) -0.022(9)
C14 0.041(8) 0.079(15) 0.045(9) 0.005(9) -0.011(7) -0.010(9)
C4 0.040(8) 0.060(13) 0.043(8) -0.009(8) 0.006(7) -0.014(8)
C3 0.060(10) 0.061(13) 0.029(8) 0.000(7) 0.000(7) -0.019(9)
C2 0.107(16) 0.072(15) 0.021(8) -0.004(7) 0.005(8) -0.051(13)
C7 0.078(12) 0.051(13) 0.061(11) -0.002(9) 0.001(10) -0.037(10)
C6 0.056(9) 0.054(11) 0.040(9) -0.014(8) -0.003(8) -0.007(8)
C5 0.079(13) 0.063(14) 0.043(9) -0.017(9) -0.010(9) 0.003(11)
C8 0.058(12) 0.065(12) 0.072(13) -0.008(14) -0.018(12) 0.008(13)
C1 0.045(9) 0.086(17) 0.044(11) -0.010(9) 0.003(8) 0.007(10)
C18 0.076(12) 0.082(17) 0.030(8) -0.001(9) -0.006(9) 0.009(12)
C9 0.059(11) 0.042(13) 0.111(17) -0.011(11) 0.033(12) -0.012(9)
C19 0.105(19) 0.11(2) 0.112(19) -0.002(10) 0.009(10) -0.005(10)
N1 0.14(4) 0.18(5) 0.10(4) -0.04(3) 0.03(3) 0.01(4)
C21 0.15(7) 0.16(7) 0.16(7) 0.000(10) 0.001(10) 0.001(10)
C20 0.17(3) 0.12(3) 0.13(2) -0.04(2) -0.02(2) -0.05(2)

_geom_special_details            
;
All esds (except the esd in the dihedral angle between two l.s. planes)
are estimated using the full covariance matrix. The cell esds are taken
into account individually in the estimation of esds in distances, angles
and torsion angles; correlations between esds in cell parameters are only
used when they are defined by crystal symmetry. An approximate (isotropic)
treatment of cell esds is used for estimating esds involving l.s. planes.
;

loop_
_geom_bond_atom_site_label_1
_geom_bond_atom_site_label_2
_geom_bond_distance
_geom_bond_site_symmetry_2
_geom_bond_publ_flag
O10 C17 1.24(3) . ?
O10 Co1 2.271(13) 6_565 ?
O9 C17 1.30(3) . ?
O9 Co1 2.118(15) 6_565 ?
C17 C13 1.49(3) . ?
C17 Co1 2.52(3) 6_565 ?
C13 C14 1.39(3) . ?
C13 C12 1.43(3) . ?
C12 C11 1.34(3) . ?
C12 H12 0.9300 . ?
C15 C16 1.36(3) . ?
C15 C18 1.44(3) . ?
C15 C14 1.48(3) . ?
C16 C11 1.45(3) . ?
C16 H16 0.9300 . ?
C11 C10 1.54(3) . ?
C10 O8 1.22(2) . ?
C10 O7 1.23(3) . ?
O7 Co2 2.089(14) . ?
O8 Co3 2.028(16) . ?
Co3 O13 1.927(14) . ?
Co3 O3 1.985(12) 6_564 ?
Co3 O6 2.010(15) 8_464 ?
Co3 H13 1.72(15) . ?
Co2 O11 2.047(14) 7_544 ?
Co2 O2 2.070(17) . ?
Co2 O13 2.079(12) . ?
Co2 O15 2.132(17) . ?
Co2 O5 2.145(12) 8_464 ?
Co1 O1 2.015(14) . ?
Co1 O14 2.063(19) . ?
Co1 O12 2.065(16) 7_544 ?
Co1 O13 2.114(13) . ?
Co1 O9 2.118(15) 6_564 ?
Co1 O10 2.271(13) 6_564 ?
Co1 C17 2.52(3) 6_564 ?
Co1 H13 1.93(15) . ?
O3 C8 1.32(3) . ?
O3 Co3 1.985(12) 6_565 ?
O4 C8 1.17(3) . ?
O4 H4 0.8200 . ?
O1 C1 1.19(2) . ?
O2 C1 1.27(3) . ?
O5 C9 1.26(3) . ?
O5 Co2 2.145(12) 8_564 ?
O11 C18 1.29(3) . ?
O11 Co2 2.047(14) 7_554 ?
O15 C19 1.207(19) . ?
O13 H13 0.84(18) . ?
O12 C18 1.24(2) . ?
O12 Co1 2.065(16) 7_554 ?
O14 H14B 0.93(2) . ?
O14 H14A 0.95(2) . ?
O14 H14A 0.95(2) . ?
O14 H14B 0.93(2) . ?
O6 C9 1.26(3) . ?
O6 Co3 2.010(14) 8_564 ?
C14 H14 0.9300 . ?
C4 C5 1.35(3) . ?
C4 C3 1.38(2) . ?
C4 C8 1.56(3) . ?
C3 C2 1.38(2) . ?
C3 H3 0.9300 . ?
C2 C7 1.35(3) . ?
C2 C1 1.53(3) . ?
C7 C6 1.48(2) . ?
C7 H7 0.9300 . ?
C6 C5 1.41(2) . ?
C6 C9 1.45(3) . ?
C5 H5 0.9300 . ?
C19 N1 1.339(19) . ?
C19 H19 0.9300 . ?
N1 C20 1.42(2) . ?
N1 C21 1.45(2) . ?
C21 H21A 0.9600 . ?
C21 H21B 0.9600 . ?
C21 H21C 0.9600 . ?
C20 H20A 0.9600 . ?
C20 H20B 0.9600 . ?
C20 H20C 0.9600 . ?

loop_
_geom_angle_atom_site_label_1
_geom_angle_atom_site_label_2
_geom_angle_atom_site_label_3
_geom_angle
_geom_angle_site_symmetry_1
_geom_angle_site_symmetry_3
_geom_angle_publ_flag
C17 O10 Co1 86.3(14) . 6_565 ?
C17 O9 Co1 91.7(14) . 6_565 ?
O10 C17 O9 121(2) . . ?
O10 C17 C13 121(2) . . ?
O9 C17 C13 118(2) . . ?
O10 C17 Co1 64.2(12) . 6_565 ?
O9 C17 Co1 57.3(12) . 6_565 ?
C13 C17 Co1 169.8(17) . 6_565 ?
C14 C13 C12 120.9(16) . . ?
C14 C13 C17 117.4(18) . . ?
C12 C13 C17 121.5(18) . . ?
C11 C12 C13 120(2) . . ?
C11 C12 H12 119.8 . . ?
C13 C12 H12 119.8 . . ?
C16 C15 C18 123.5(19) . . ?
C16 C15 C14 121.0(18) . . ?
C18 C15 C14 115.5(18) . . ?
C15 C16 C11 119.0(18) . . ?
C15 C16 H16 120.5 . . ?
C11 C16 H16 120.5 . . ?
C12 C11 C16 121(2) . . ?
C12 C11 C10 119.2(19) . . ?
C16 C11 C10 119.7(17) . . ?
O8 C10 O7 128(2) . . ?
O8 C10 C11 116.1(19) . . ?
O7 C10 C11 115.9(18) . . ?
C10 O7 Co2 137.2(14) . . ?
C10 O8 Co3 115.9(14) . . ?
O13 Co3 O3 123.4(6) . 6_564 ?
O13 Co3 O6 105.0(6) . 8_464 ?
O3 Co3 O6 117.5(6) 6_564 8_464 ?
O13 Co3 O8 105.5(6) . . ?
O3 Co3 O8 100.6(5) 6_564 . ?
O6 Co3 O8 101.8(7) 8_464 . ?
O13 Co3 H13 26(6) . . ?
O3 Co3 H13 102(7) 6_564 . ?
O6 Co3 H13 131(6) 8_464 . ?
O8 Co3 H13 98(5) . . ?
O11 Co2 O2 90.0(7) 7_544 . ?
O11 Co2 O13 89.7(6) 7_544 . ?
O2 Co2 O13 96.6(5) . . ?
O11 Co2 O7 173.4(7) 7_544 . ?
O2 Co2 O7 84.2(8) . . ?
O13 Co2 O7 94.0(5) . . ?
O11 Co2 O15 87.2(8) 7_544 . ?
O2 Co2 O15 89.0(6) . . ?
O13 Co2 O15 173.6(7) . . ?
O7 Co2 O15 89.6(7) . . ?
O11 Co2 O5 97.3(6) 7_544 8_464 ?
O2 Co2 O5 170.5(7) . 8_464 ?
O13 Co2 O5 89.5(5) . 8_464 ?
O7 Co2 O5 88.1(7) . 8_464 ?
O15 Co2 O5 85.4(6) . 8_464 ?
O1 Co1 O14 90.7(8) . . ?
O1 Co1 O12 10