####################################################################### 
# 
# This file contains crystal structure data downloaded from the 
# Cambridge Structural Database (CSD) hosted by the Cambridge 
# Crystallographic Data Centre (CCDC).
# 
# Full information about CCDC data access policies and citation 
# guidelines are available at http://www.ccdc.cam.ac.uk/access/V1 
# 
# Audit and citation data items may have been added by the CCDC. 
# Please retain this information to preserve the provenance of 
# this file and to allow appropriate attribution of the data. 
# 
#######################################################################

data_1
_audit_block_doi                 10.5517/ccy86q3
#TrackingRef 'web_deposit_cif_file_0_ZongzeLi_1366566463.revised CCDC 871835.cif'

_database_code_depnum_ccdc_archive 'CCDC 871835'
loop_
_citation_id
_citation_doi
_citation_year
1 10.1039/C3NJ00236E 2013
_audit_update_record             
;
2012-03-16 deposited with the CCDC.	2024-07-09 downloaded from the CCDC.
;
#TrackingRef '- 871835.cif'

_audit_creation_method           SHELXL-97
_chemical_name_systematic        
;
?
;
_chemical_name_common            ?
_chemical_melting_point          ?
_chemical_formula_moiety         ?
_chemical_formula_sum            'C42 H62 Co6 N8 O31'
_chemical_formula_weight         1528.58

loop_
_atom_type_symbol
_atom_type_description
_atom_type_scat_dispersion_real
_atom_type_scat_dispersion_imag
_atom_type_scat_source
C C 0.0033 0.0016 'International Tables Vol C Tables 4.2.6.8 and 6.1.1.4'
H H 0.0000 0.0000 'International Tables Vol C Tables 4.2.6.8 and 6.1.1.4'
N N 0.0061 0.0033 'International Tables Vol C Tables 4.2.6.8 and 6.1.1.4'
O O 0.0106 0.0060 'International Tables Vol C Tables 4.2.6.8 and 6.1.1.4'
Co Co 0.3494 0.9721 'International Tables Vol C Tables 4.2.6.8 and 6.1.1.4'

_symmetry_cell_setting           orthorhombic
_symmetry_space_group_name_H-M   P2(1)2(1)2(1)

loop_
_symmetry_equiv_pos_as_xyz
'x, y, z'
'-x+1/2, -y, z+1/2'
'x+1/2, -y+1/2, -z'
'-x, y+1/2, -z+1/2'

_cell_length_a                   15.0911(14)
_cell_length_b                   16.7006(16)
_cell_length_c                   24.236(2)
_cell_angle_alpha                90.00
_cell_angle_beta                 90.00
_cell_angle_gamma                90.00
_cell_volume                     6108.2(10)
_cell_formula_units_Z            4
_cell_measurement_temperature    298(2)
_cell_measurement_reflns_used    ?
_cell_measurement_theta_min      ?
_cell_measurement_theta_max      ?

_exptl_crystal_description       block
_exptl_crystal_colour            red
_exptl_crystal_size_max          0.20
_exptl_crystal_size_mid          0.18
_exptl_crystal_size_min          0.18
_exptl_crystal_density_meas      ?
_exptl_crystal_density_diffrn    1.662
_exptl_crystal_density_method    'not measured'
_exptl_crystal_F_000             3120
_exptl_absorpt_coefficient_mu    1.686
_exptl_absorpt_correction_type   multi-scan
_exptl_absorpt_correction_T_min  0.7291
_exptl_absorpt_correction_T_max  0.7512
_exptl_absorpt_process_details   'SADABS (Bruker, 2003)'

_exptl_special_details           
;
?
;

_diffrn_ambient_temperature      298(2)
_diffrn_radiation_wavelength     0.71073
_diffrn_radiation_type           MoK\a
_diffrn_radiation_source         'fine-focus sealed tube'
_diffrn_radiation_monochromator  graphite
_diffrn_measurement_device_type  'CCD area detector'
_diffrn_measurement_method       'phi and omega scans'
_diffrn_detector_area_resol_mean ?
_diffrn_standards_number         ?
_diffrn_standards_interval_count ?
_diffrn_standards_interval_time  ?
_diffrn_standards_decay_%        ?
_diffrn_reflns_number            42624
_diffrn_reflns_av_R_equivalents  0.0862
_diffrn_reflns_av_sigmaI/netI    0.1179
_diffrn_reflns_limit_h_min       -15
_diffrn_reflns_limit_h_max       19
_diffrn_reflns_limit_k_min       -20
_diffrn_reflns_limit_k_max       22
_diffrn_reflns_limit_l_min       -30
_diffrn_reflns_limit_l_max       31
_diffrn_reflns_theta_min         1.48
_diffrn_reflns_theta_max         28.39
_reflns_number_total             14508
_reflns_number_gt                9474
_reflns_threshold_expression     >2sigma(I)

_computing_data_collection       'Bruker SMART'
_computing_cell_refinement       'Bruker SMART'
_computing_data_reduction        'Bruker SAINT'
_computing_structure_solution    'SHELXS-97 (Sheldrick, 1990)'
_computing_structure_refinement  'SHELXL-97 (Sheldrick, 1997)'
_computing_molecular_graphics    'Diamond 3.1'
_computing_publication_material  'Diamond 3.1'

_refine_special_details          
;
Refinement of F^2^ against ALL reflections. The weighted R-factor wR and
goodness of fit S are based on F^2^, conventional R-factors R are based
on F, with F set to zero for negative F^2^. The threshold expression of
F^2^ > 2sigma(F^2^) is used only for calculating R-factors(gt) etc. and is
not relevant to the choice of reflections for refinement. R-factors based
on F^2^ are statistically about twice as large as those based on F, and R-
factors based on ALL data will be even larger.
;

_refine_ls_structure_factor_coef Fsqd
_refine_ls_matrix_type           full
_refine_ls_weighting_scheme      calc
_refine_ls_weighting_details     
'calc w=1/[\s^2^(Fo^2^)+(0.0010P)^2^+0.0000P] where P=(Fo^2^+2Fc^2^)/3'
_atom_sites_solution_primary     direct
_atom_sites_solution_secondary   difmap
_atom_sites_solution_hydrogens   geom
_refine_ls_hydrogen_treatment    constr
_refine_ls_extinction_method     none
_refine_ls_extinction_coef       ?
_refine_ls_abs_structure_details 'Flack H D (1983), Acta Cryst. A39, 876-881'
_refine_ls_abs_structure_Flack   0.010(12)
_refine_ls_number_reflns         14508
_refine_ls_number_parameters     559
_refine_ls_number_restraints     0
_refine_ls_R_factor_all          0.0763
_refine_ls_R_factor_gt           0.0481
_refine_ls_wR_factor_ref         0.0780
_refine_ls_wR_factor_gt          0.0721
_refine_ls_goodness_of_fit_ref   0.933
_refine_ls_restrained_S_all      0.933
_refine_ls_shift/su_max          0.000
_refine_ls_shift/su_mean         0.000

loop_
_atom_site_label
_atom_site_type_symbol
_atom_site_fract_x
_atom_site_fract_y
_atom_site_fract_z
_atom_site_U_iso_or_equiv
_atom_site_adp_type
_atom_site_occupancy
_atom_site_symmetry_multiplicity
_atom_site_calc_flag
_atom_site_refinement_flags
_atom_site_disorder_assembly
_atom_site_disorder_group
C1 C 1.3642(3) 0.6317(3) -0.1179(2) 0.0346(13) Uani 1 1 d . . .
H1A H 1.4172 0.6043 -0.1129 0.042 Uiso 1 1 calc R . .
C2 C 1.3667(3) 0.7142(3) -0.1282(2) 0.0414(15) Uani 1 1 d . . .
H2A H 1.4208 0.7404 -0.1318 0.050 Uiso 1 1 calc R . .
C3 C 1.2886(3) 0.7561(3) -0.13275(19) 0.0284(12) Uani 1 1 d . . .
C4 C 1.2098(4) 0.7138(3) -0.1276(2) 0.0450(15) Uani 1 1 d . . .
H4A H 1.1558 0.7404 -0.1298 0.054 Uiso 1 1 calc R . .
C5 C 1.2120(3) 0.6334(3) -0.1194(2) 0.0437(14) Uani 1 1 d . . .
H5A H 1.1585 0.6061 -0.1166 0.052 Uiso 1 1 calc R . .
C6 C 1.2929(3) 0.8445(3) -0.14445(18) 0.0281(11) Uani 1 1 d . . .
C7 C 1.2108(4) 0.5069(3) 0.0019(2) 0.0454(14) Uani 1 1 d . . .
H7A H 1.2600 0.5402 0.0045 0.055 Uiso 1 1 calc R . .
C8 C 1.1521(3) 0.5061(3) 0.0454(2) 0.0481(15) Uani 1 1 d . . .
H8A H 1.1611 0.5395 0.0756 0.058 Uiso 1 1 calc R . .
C9 C 1.0811(3) 0.4563(3) 0.0439(2) 0.0306(12) Uani 1 1 d . . .
C10 C 1.0703(3) 0.4099(3) -0.0018(2) 0.0386(14) Uani 1 1 d . . .
H10A H 1.0231 0.3743 -0.0041 0.046 Uiso 1 1 calc R . .
C11 C 1.1298(3) 0.4161(3) -0.0448(2) 0.0479(16) Uani 1 1 d . . .
H11A H 1.1198 0.3861 -0.0765 0.057 Uiso 1 1 calc R . .
C12 C 1.0157(3) 0.4511(3) 0.0908(2) 0.0309(12) Uani 1 1 d . . .
C13 C 0.7966(4) 0.2173(3) 0.0726(2) 0.0401(14) Uani 1 1 d . . .
H13 H 0.7821 0.1991 0.0374 0.048 Uiso 1 1 calc R . .
C14 C 0.7100(4) 0.3150(3) 0.2112(2) 0.0385(14) Uani 1 1 d . . .
H14 H 0.6763 0.2789 0.2316 0.046 Uiso 1 1 calc R . .
C15 C 0.5498(4) 0.4454(4) 0.0918(2) 0.082(2) Uani 1 1 d . . .
H15A H 0.5298 0.4169 0.1223 0.098 Uiso 1 1 calc R . .
C16 C 0.4994(4) 0.4413(4) 0.0437(2) 0.080(2) Uani 1 1 d . . .
H16A H 0.4467 0.4124 0.0435 0.096 Uiso 1 1 calc R . .
C17 C 0.5259(4) 0.4780(5) -0.0016(2) 0.077(2) Uani 1 1 d . . .
C18 C 0.6032(4) 0.5209(4) 0.0018(2) 0.070(2) Uani 1 1 d . . .
H18A H 0.6250 0.5482 -0.0287 0.084 Uiso 1 1 calc R . .
C19 C 0.6482(4) 0.5225(4) 0.0520(2) 0.069(2) Uani 1 1 d . . .
H19A H 0.7007 0.5516 0.0538 0.082 Uiso 1 1 calc R . .
C20 C 0.4759(3) 0.4762(3) -0.05550(19) 0.0294(12) Uani 1 1 d . . .
C21 C 0.5336(3) 0.5935(3) 0.2026(2) 0.0530(17) Uani 1 1 d . . .
H21A H 0.5554 0.6281 0.1758 0.064 Uiso 1 1 calc R . .
C22 C 0.4514(3) 0.6103(3) 0.2256(2) 0.0524(17) Uani 1 1 d . . .
H22A H 0.4171 0.6520 0.2118 0.063 Uiso 1 1 calc R . .
C23 C 0.4215(3) 0.5652(3) 0.2686(2) 0.0289(12) Uani 1 1 d . . .
C24 C 0.4738(3) 0.5034(3) 0.2862(2) 0.0448(15) Uani 1 1 d . . .
H24A H 0.4566 0.4725 0.3163 0.054 Uiso 1 1 calc R . .
C25 C 0.5538(3) 0.4867(3) 0.2585(2) 0.0403(14) Uani 1 1 d . . .
H25A H 0.5873 0.4432 0.2703 0.048 Uiso 1 1 calc R . .
C26 C 0.7918(3) 0.5162(3) 0.2869(2) 0.0477(16) Uani 1 1 d . . .
H26 H 0.7359 0.5081 0.3020 0.057 Uiso 1 1 calc R . .
C27 C 0.9836(3) 0.7194(3) 0.3534(2) 0.0360(13) Uani 1 1 d . . .
H27 H 0.9500 0.7585 0.3709 0.043 Uiso 1 1 calc R . .
C28 C 0.3335(3) 0.5799(3) 0.2965(2) 0.0278(11) Uani 1 1 d . . .
C29 C 1.0462(3) 0.6332(3) 0.2099(2) 0.0349(13) Uani 1 1 d . . .
H29 H 1.0342 0.6424 0.1728 0.042 Uiso 1 1 calc R . .
C30 C 0.9737(3) 0.3839(3) 0.2550(2) 0.0397(14) Uani 1 1 d . . .
H30 H 0.9782 0.3286 0.2589 0.048 Uiso 1 1 calc R . .
Co1 Co 1.29349(4) 0.46289(4) -0.10929(2) 0.02254(14) Uani 1 1 d . . .
Co2 Co 1.16536(4) 0.67268(3) 0.30570(3) 0.02272(15) Uani 1 1 d . . .
Co3 Co 0.98946(4) 0.54278(4) 0.31912(3) 0.02656(15) Uani 1 1 d . . .
Co4 Co 0.70021(4) 0.49673(4) 0.17073(2) 0.02396(15) Uani 1 1 d . . .
Co5 Co 0.90663(4) 0.52073(3) 0.18193(3) 0.02322(15) Uani 1 1 d . . .
Co6 Co 0.87505(4) 0.34796(4) 0.14522(3) 0.02477(16) Uani 1 1 d . . .
N1 N 1.2880(3) 0.5908(2) -0.11506(16) 0.0316(10) Uani 1 1 d . . .
N2 N 1.2017(3) 0.4638(2) -0.04274(15) 0.0293(9) Uani 1 1 d . . .
N3 N 0.6215(2) 0.4854(2) 0.09704(16) 0.0305(10) Uani 1 1 d . . .
N4 N 0.5836(2) 0.5295(2) 0.21678(15) 0.0302(10) Uani 1 1 d . . .
O1 O 0.81459(16) 0.45749(16) 0.13435(11) 0.0230(7) Uani 1 1 d . . .
H1B H 0.8173 0.4742 0.0956 0.028 Uiso 1 1 calc R . .
O2 O 1.12537(17) 0.55606(15) 0.32251(12) 0.0227(7) Uani 1 1 d . . .
H2B H 1.1495 0.5228 0.2928 0.027 Uiso 1 1 calc R . .
O3 O 1.3678(2) 0.87332(18) -0.14912(14) 0.0338(9) Uani 1 1 d . . .
O4 O 1.2197(2) 0.88141(17) -0.14939(13) 0.0311(8) Uani 1 1 d . . .
O5 O 1.0060(2) 0.50988(18) 0.12103(13) 0.0355(8) Uani 1 1 d . . .
O6 O 0.9752(2) 0.38441(19) 0.09366(13) 0.0369(9) Uani 1 1 d . . .
O7 O 0.8196(2) 0.28986(18) 0.07693(13) 0.0420(10) Uani 1 1 d . . .
O8 O 0.7914(2) 0.16727(16) 0.11154(12) 0.0288(7) Uani 1 1 d . . .
O9 O 0.7859(2) 0.29263(17) 0.19896(12) 0.0269(8) Uani 1 1 d . . .
O10 O 0.6733(2) 0.37946(19) 0.19963(15) 0.0440(10) Uani 1 1 d . . .
O11 O 0.51878(19) 0.4940(2) -0.09803(12) 0.0394(9) Uani 1 1 d . . .
O12 O 0.3948(2) 0.4578(2) -0.05223(12) 0.0349(8) Uani 1 1 d . . .
O13 O 0.79503(19) 0.52065(19) 0.23572(12) 0.0324(8) Uani 1 1 d . . .
O14 O 0.8523(2) 0.5212(2) 0.31925(13) 0.0499(10) Uani 1 1 d . . .
O15 O 0.9496(2) 0.6536(2) 0.34908(14) 0.0422(10) Uani 1 1 d . . .
O16 O 1.0597(2) 0.74033(17) 0.33679(13) 0.0303(8) Uani 1 1 d . . .
O17 O 0.31672(19) 0.53905(18) 0.33762(12) 0.0324(8) Uani 1 1 d . . .
O18 O 0.2854(2) 0.63357(18) 0.27427(13) 0.0338(8) Uani 1 1 d . . .
O19 O 1.1085(2) 0.67141(18) 0.22945(13) 0.0323(8) Uani 1 1 d . . .
O20 O 0.9954(2) 0.58180(18) 0.23417(12) 0.0286(8) Uani 1 1 d . . .
O21 O 1.0037(3) 0.42418(19) 0.29357(14) 0.0509(11) Uani 1 1 d . . .
O22 O 0.9384(2) 0.40806(18) 0.21183(13) 0.0360(9) Uani 1 1 d . . .

loop_
_atom_site_aniso_label
_atom_site_aniso_U_11
_atom_site_aniso_U_22
_atom_site_aniso_U_33
_atom_site_aniso_U_23
_atom_site_aniso_U_13
_atom_site_aniso_U_12
C1 0.029(3) 0.019(3) 0.055(4) 0.003(2) 0.008(3) 0.004(2)
C2 0.024(3) 0.022(3) 0.078(5) 0.004(3) 0.007(3) -0.002(2)
C3 0.030(3) 0.019(3) 0.036(3) -0.004(2) 0.007(2) 0.003(2)
C4 0.033(3) 0.033(3) 0.068(4) -0.001(3) 0.003(3) -0.007(3)
C5 0.028(3) 0.035(3) 0.068(4) 0.004(3) -0.007(3) -0.009(3)
C6 0.024(3) 0.027(3) 0.033(3) 0.007(2) 0.001(2) 0.003(2)
C7 0.051(4) 0.048(4) 0.037(3) -0.013(3) 0.010(3) -0.022(3)
C8 0.044(3) 0.059(4) 0.041(3) -0.019(3) 0.013(3) -0.022(3)
C9 0.024(3) 0.031(3) 0.037(3) 0.006(2) 0.008(2) 0.002(2)
C10 0.027(3) 0.047(4) 0.042(3) -0.017(3) 0.007(3) -0.012(3)
C11 0.051(4) 0.053(4) 0.040(4) -0.010(3) 0.012(3) -0.029(3)
C12 0.033(3) 0.026(3) 0.034(3) 0.003(2) 0.003(2) 0.004(3)
C13 0.063(4) 0.036(3) 0.021(3) 0.004(2) -0.011(3) 0.001(3)
C14 0.040(3) 0.018(3) 0.057(4) -0.002(2) 0.026(3) 0.002(3)
C15 0.091(5) 0.116(6) 0.038(4) 0.040(4) -0.022(4) -0.063(5)
C16 0.051(4) 0.148(7) 0.041(4) 0.025(4) -0.021(3) -0.060(4)
C17 0.045(4) 0.137(7) 0.047(4) 0.022(4) -0.022(3) -0.014(5)
C18 0.057(4) 0.119(6) 0.034(3) 0.021(4) -0.017(3) -0.036(4)
C19 0.055(4) 0.102(6) 0.048(4) 0.011(4) -0.011(3) -0.042(4)
C20 0.030(3) 0.027(3) 0.031(3) 0.000(2) -0.004(2) 0.004(2)
C21 0.042(4) 0.055(4) 0.063(4) 0.023(3) 0.024(3) 0.005(3)
C22 0.036(3) 0.041(4) 0.080(5) 0.019(3) 0.025(3) 0.017(3)
C23 0.018(3) 0.037(3) 0.032(3) -0.007(2) 0.002(2) 0.001(2)
C24 0.040(3) 0.048(4) 0.046(4) 0.019(3) 0.018(3) 0.017(3)
C25 0.029(3) 0.047(4) 0.045(3) 0.019(3) 0.013(2) 0.015(3)
C26 0.026(3) 0.090(5) 0.027(3) -0.002(3) 0.008(3) -0.018(3)
C27 0.036(3) 0.028(3) 0.045(3) -0.001(3) 0.008(3) 0.002(3)
C28 0.023(3) 0.021(3) 0.040(3) -0.002(2) -0.001(2) 0.004(2)
C29 0.035(3) 0.045(4) 0.025(3) 0.001(3) -0.007(2) -0.003(3)
C30 0.057(4) 0.020(3) 0.042(4) 0.000(2) -0.017(3) 0.009(3)
Co1 0.0210(3) 0.0227(3) 0.0239(3) 0.0001(3) 0.0015(3) -0.0003(3)
Co2 0.0204(3) 0.0207(3) 0.0270(4) -0.0003(3) -0.0005(3) 0.0002(3)
Co3 0.0228(3) 0.0297(4) 0.0272(4) -0.0009(3) -0.0026(3) -0.0043(3)
Co4 0.0188(3) 0.0255(3) 0.0275(4) 0.0002(3) -0.0007(3) 0.0006(3)
Co5 0.0211(3) 0.0221(3) 0.0265(4) 0.0002(3) 0.0001(3) -0.0010(3)
Co6 0.0255(4) 0.0209(4) 0.0279(4) 0.0001(3) 0.0033(3) -0.0017(3)
N1 0.022(2) 0.037(3) 0.035(3) 0.000(2) 0.006(2) -0.003(2)
N2 0.029(2) 0.026(2) 0.033(2) -0.0013(19) 0.002(2) -0.007(2)
N3 0.021(2) 0.036(3) 0.035(3) 0.002(2) -0.0063(19) -0.003(2)
N4 0.021(2) 0.029(2) 0.040(3) 0.001(2) 0.0045(19) 0.004(2)
O1 0.0181(17) 0.0240(17) 0.0268(17) -0.0002(14) -0.0028(13) -0.0010(14)
O2 0.0216(16) 0.0200(16) 0.0266(18) 0.0021(14) -0.0072(14) 0.0001(14)
O3 0.0231(19) 0.029(2) 0.050(2) 0.0103(17) 0.0010(17) 0.0008(16)
O4 0.030(2) 0.0237(18) 0.040(2) 0.0053(16) 0.0036(16) 0.0045(16)
O5 0.039(2) 0.031(2) 0.037(2) -0.0087(16) 0.0224(16) -0.0008(17)
O6 0.042(2) 0.029(2) 0.040(2) -0.0035(16) 0.0130(17) -0.0075(18)
O7 0.063(3) 0.023(2) 0.039(2) 0.0096(16) -0.0143(19) -0.0090(19)
O8 0.035(2) 0.0170(17) 0.0341(19) 0.0007(15) -0.0053(17) 0.0004(16)
O9 0.0222(18) 0.0282(18) 0.0303(19) 0.0019(15) 0.0059(15) 0.0001(15)
O10 0.036(2) 0.027(2) 0.069(3) 0.0112(19) 0.0253(19) 0.0071(17)
O11 0.0312(19) 0.068(3) 0.0193(18) 0.0005(17) -0.0003(15) -0.0057(19)
O12 0.0213(18) 0.050(2) 0.034(2) 0.0002(18) -0.0046(15) -0.0042(17)
O13 0.0229(17) 0.051(2) 0.0230(18) -0.0014(16) 0.0021(15) -0.0010(18)
O14 0.032(2) 0.090(3) 0.028(2) 0.005(2) -0.0041(17) -0.017(2)
O15 0.042(2) 0.033(2) 0.052(2) -0.0144(18) 0.0271(18) -0.0147(18)
O16 0.0267(19) 0.0258(19) 0.038(2) -0.0015(16) 0.0072(16) -0.0023(15)
O17 0.032(2) 0.0275(18) 0.037(2) 0.0125(16) 0.0109(15) 0.0039(16)
O18 0.029(2) 0.029(2) 0.043(2) 0.0027(16) 0.0085(17) 0.0031(17)
O19 0.036(2) 0.0267(19) 0.034(2) -0.0008(16) -0.0084(16) -0.0121(17)
O20 0.0257(19) 0.033(2) 0.0267(19) -0.0002(15) -0.0026(16) -0.0063(16)
O21 0.082(3) 0.027(2) 0.043(2) -0.0068(17) -0.031(2) 0.003(2)
O22 0.061(2) 0.0221(19) 0.025(2) 0.0029(15) -0.0117(17) 0.0088(17)

_geom_special_details            
;
All esds (except the esd in the dihedral angle between two l.s. planes)
are estimated using the full covariance matrix. The cell esds are taken
into account individually in the estimation of esds in distances, angles
and torsion angles; correlations between esds in cell parameters are only
used when they are defined by crystal symmetry. An approximate (isotropic)
treatment of cell esds is used for estimating esds involving l.s. planes.
;

loop_
_geom_bond_atom_site_label_1
_geom_bond_atom_site_label_2
_geom_bond_distance
_geom_bond_site_symmetry_2
_geom_bond_publ_flag
C1 N1 1.338(5) . ?
C1 C2 1.401(6) . ?
C1 H1A 0.9300 . ?
C2 C3 1.375(6) . ?
C2 H2A 0.9300 . ?
C3 C4 1.389(6) . ?
C3 C6 1.506(6) . ?
C4 C5 1.358(6) . ?
C4 H4A 0.9300 . ?
C5 N1 1.353(6) . ?
C5 H5A 0.9300 . ?
C6 O3 1.233(5) . ?
C6 O4 1.270(5) . ?
C7 N2 1.307(5) . ?
C7 C8 1.377(6) . ?
C7 H7A 0.9300 . ?
C8 C9 1.357(6) . ?
C8 H8A 0.9300 . ?
C9 C10 1.362(6) . ?
C9 C12 1.507(6) . ?
C10 C11 1.377(6) . ?
C10 H10A 0.9300 . ?
C11 N2 1.347(5) . ?
C11 H11A 0.9300 . ?
C12 O5 1.235(5) . ?
C12 O6 1.272(5) . ?
C13 O8 1.263(5) . ?
C13 O7 1.265(5) . ?
C13 H13 0.9300 . ?
C14 O9 1.241(5) . ?
C14 O10 1.244(5) . ?
C14 H14 0.9300 . ?
C15 N3 1.279(6) . ?
C15 C16 1.394(7) . ?
C15 H15A 0.9300 . ?
C16 C17 1.318(7) . ?
C16 H16A 0.9300 . ?
C17 C18 1.371(7) . ?
C17 C20 1.509(7) . ?
C18 C19 1.395(7) . ?
C18 H18A 0.9300 . ?
C19 N3 1.318(6) . ?
C19 H19A 0.9300 . ?
C20 O11 1.253(5) . ?
C20 O12 1.265(5) . ?
C21 