
#######################################################################
#
#                 Cambridge Crystallographic Data Centre
#                                CCDC
#
#######################################################################
#
# If this CIF has been generated from an entry in the Cambridge
# Structural Database, then it will include bibliographic, chemical,
# crystal, experimental, refinement or atomic coordinate data resulting
# from the CCDC's data processing and validation procedures.
#
#######################################################################

data_CSD_CIF_CIMNUH
_audit_creation_date 1985-03-28
_audit_creation_method CSD-ConQuest-V1
_database_code_CSD CIMNUH
_database_code_depnum_ccdc_archive 'CCDC 1125713'
_chemical_formula_sum 'C5 H2 O3'
_chemical_formula_moiety
;
C5 H2 O3
;
_journal_coeditor_code "IUCr A23849"
_journal_coden_Cambridge 591
_journal_volume 40
_journal_year 1984
_journal_page_first 1481
_journal_name_full 'Acta Crystallogr.,Sect.C:Cryst.Struct.Commun. '
loop_
_publ_author_name
"H.Irngartinger"
"M.Nixdorf"
"W.Dobler"
"R.Gleiter"
_chemical_name_systematic
;
Cyclopentene-1,2,3-trione
;
_chemical_name_common
;
Teaching Subset: Symmetry
;
_cell_volume    458.692
_exptl_crystal_colour 'red'
_exptl_crystal_density_diffrn 1.59
_diffrn_ambient_temperature ?
_diffrn_special_details
;
The study was carried out at room temperature,in the range 283-303K

;
#These two values have been output from a single CSD field.
_refine_ls_R_factor_gt 0.037
_refine_ls_wR_factor_gt 0.037
_symmetry_cell_setting tetragonal
_symmetry_space_group_name_H-M 'P 41 21 2'
_symmetry_Int_Tables_number 92
loop_
_symmetry_equiv_pos_site_id
_symmetry_equiv_pos_as_xyz
1 x,y,z
2 1/2-y,1/2+x,1/4+z
3 -x,-y,1/2+z
4 1/2+y,1/2-x,3/4+z
5 y,x,-z
6 1/2+x,1/2-y,3/4-z
7 -y,-x,1/2-z
8 1/2-x,1/2+y,1/4-z
_cell_length_a 5.701(1)
_cell_length_b 5.701(1)
_cell_length_c 14.113(2)
_cell_angle_alpha 90
_cell_angle_beta 90
_cell_angle_gamma 90
_cell_formula_units_Z 4
loop_
_atom_type_symbol
_atom_type_radius_bond
C 0.68
H 0.23
O 0.68
loop_
_atom_site_label
_atom_site_type_symbol
_atom_site_fract_x
_atom_site_fract_y
_atom_site_fract_z
O1 O 0.4697(5) 0.4697(5) 0.00000
O2 O 0.0269(5) 0.4768(5) 0.1070(2)
C1 C 0.3210(7) 0.3210(7) 0.00000
C2 C 0.0915(7) 0.3212(7) 0.0550(2)
C3 C -0.0246(6) 0.1004(7) 0.0310(3)
H1 H -0.182(6) 0.049(8) 0.056(3)
C2D C 0.3212(7) 0.0915(7) -0.0550(2)
C3D C 0.1004(6) -0.0246(7) -0.0310(3)
O2D O 0.4768(5) 0.0269(5) -0.1070(2)
H1D H 0.049(6) -0.182(8) -0.056(3)
#END
