
#######################################################################
#
#                 Cambridge Crystallographic Data Centre
#                                CCDC
#
#######################################################################
#
# If this CIF has been generated from an entry in the Cambridge
# Structural Database, then it will include bibliographic, chemical,
# crystal, experimental, refinement or atomic coordinate data resulting
# from the CCDC's data processing and validation procedures.
#
#######################################################################

data_CSD_CIF_CIPFEM
_audit_creation_date 1985-03-28
_audit_creation_method CSD-ConQuest-V1
_database_code_CSD CIPFEM
_database_code_depnum_ccdc_archive 'CCDC 1125944'
_chemical_formula_sum 'C30 H50 O1'
_chemical_formula_moiety
;
C30 H50 O1
;
_journal_coden_Cambridge 475
_journal_volume 14
_journal_year 1983
_journal_page_first 67
_journal_name_full 'Rev.Latinoam Quim. '
loop_
_publ_author_name
"J.Reyes"
"C.Hidalgo"
"F.R.Fronczek"
_chemical_name_systematic
;
epi-\b-Amyrin
;
_chemical_name_common
;
Olean-12-en-3alpha-ol; Teaching Subset: Fundamental Chemistry
;
_chemical_melting_point 469
_cell_volume   1300.595
_exptl_crystal_colour 'white'
_exptl_crystal_density_diffrn 1.089
_exptl_special_details
;
Melting point range 469-471K
No study temperature is reported

;
_diffrn_ambient_temperature ?
_diffrn_special_details
;
The study was carried out at room temperature,in the range 283-303K

;
#These two values have been output from a single CSD field.
_refine_ls_R_factor_gt 0.104
_refine_ls_wR_factor_gt 0.104
_chemical_compound_source
;
Sebastiana pavoniana
;
_symmetry_cell_setting monoclinic
_symmetry_space_group_name_H-M 'P 21'
_symmetry_Int_Tables_number 4
loop_
_symmetry_equiv_pos_site_id
_symmetry_equiv_pos_as_xyz
1 x,y,z
2 -x,1/2+y,-z
_cell_length_a 7.529(2)
_cell_length_b 11.497(2)
_cell_length_c 15.045(3)
_cell_angle_alpha 90
_cell_angle_beta 92.94(2)
_cell_angle_gamma 90
_cell_formula_units_Z 2
loop_
_atom_type_symbol
_atom_type_radius_bond
C 0.68
O 0.68
loop_
_atom_site_label
_atom_site_type_symbol
_atom_site_fract_x
_atom_site_fract_y
_atom_site_fract_z
O1 O 0.696(2) 0.08400 1.237(1)
C1 C 0.485(2) 0.234(1) 1.1119(11)
C2 C 0.473(2) 0.230(1) 1.2111(12)
C3 C 0.648(2) 0.200(2) 1.2615(11)
C4 C 0.804(2) 0.282(1) 1.2301(10)
C5 C 0.802(1) 0.292(1) 1.1288(8)
C6 C 0.951(2) 0.361(1) 1.0926(9)
C7 C 0.985(2) 0.333(1) 0.998(11)
C8 C 0.822(2) 0.339(1) 0.9317(8)
C9 C 0.657(1) 0.289(1) 0.9793(8)
C10 C 0.628(1) 0.317(1) 1.0756(9)
C11 C 0.492(2) 0.315(2) 0.9157(11)
C12 C 0.526(2) 0.295(2) 0.8207(9)
C13 C 0.677(2) 0.276(1) 0.7835(8)
C14 C 0.848(1) 0.275(1) 0.8444(8)
C15 C 1.010(2) 0.319(2) 0.7949(9)
C16 C 1.014(2) 0.280(2) 0.6981(10)
C17 C 0.843(2) 0.309(1) 0.6434(10)
C18 C 0.683(2) 0.257(1) 0.6873(10)
C19 C 0.667(2) 0.120(1) 0.6664(9)
C20 C 0.673(2) 0.092(1) 0.5697(11)
C21 C 0.839(2) 0.138(2) 0.5305(10)
C22 C 0.862(2) 0.276(2) 0.5448(11)
C23 C 0.566(2) 0.447(1) 1.0934(10)
C24 C 0.789(2) 0.478(1) 0.9140(11)
C25 C 0.887(2) 0.138(1) 0.8624(10)
C26 C 0.818(3) 0.446(2) 0.6455(13)
C27 C 0.981(3) 0.231(2) 1.2668(13)
C28 C 0.778(2) 0.404(2) 1.2780(12)
C29 C 0.505(3) 0.134(2) 0.5190(12)
C30 C 0.681(3) -0.042(2) 0.5562(13)
#END
