####################################################################### 
# 
# This file contains crystal structure data downloaded from the 
# Cambridge Structural Database (CSD) hosted by the Cambridge 
# Crystallographic Data Centre (CCDC).
# 
# Full information about CCDC data access policies and citation 
# guidelines are available at http://www.ccdc.cam.ac.uk/access/V1 
# 
# Audit and citation data items may have been added by the CCDC. 
# Please retain this information to preserve the provenance of 
# this file and to allow appropriate attribution of the data. 
# 
#######################################################################

data_shelxl
_audit_block_doi                 10.5517/cc10kjnr
_database_code_depnum_ccdc_archive 'CCDC 940374'
loop_
_citation_id
_citation_doi
_citation_year
1 10.1002/ejic.201300937 2013
_audit_update_record             
;
2013-05-21 deposited with the CCDC.	2024-07-09 downloaded from the CCDC.
;

_audit_creation_method           SHELXL-97
_chemical_name_systematic        
;
 ?
;
_chemical_name_common            ?
_chemical_melting_point          ?
_chemical_formula_moiety         ?
_chemical_formula_sum            'C45 H34 Dy4 N9 O41'
_chemical_formula_weight         2006.81

loop_
_atom_type_symbol
_atom_type_description
_atom_type_scat_dispersion_real
_atom_type_scat_dispersion_imag
_atom_type_scat_source
C C 0.0033 0.0016 'International Tables Vol C Tables 4.2.6.8 and 6.1.1.4'
H H 0.0000 0.0000 'International Tables Vol C Tables 4.2.6.8 and 6.1.1.4'
N N 0.0061 0.0033 'International Tables Vol C Tables 4.2.6.8 and 6.1.1.4'
O O 0.0106 0.0060 'International Tables Vol C Tables 4.2.6.8 and 6.1.1.4'
Dy Dy -0.1892 4.4098 'International Tables Vol C Tables 4.2.6.8 and 6.1.1.4'

_symmetry_cell_setting           trigonal
_symmetry_space_group_name_H-M   R-3

loop_
_symmetry_equiv_pos_as_xyz
'x, y, z'
'-y, x-y, z'
'-x+y, -x, z'
'x+2/3, y+1/3, z+1/3'
'-y+2/3, x-y+1/3, z+1/3'
'-x+y+2/3, -x+1/3, z+1/3'
'x+1/3, y+2/3, z+2/3'
'-y+1/3, x-y+2/3, z+2/3'
'-x+y+1/3, -x+2/3, z+2/3'
'-x, -y, -z'
'y, -x+y, -z'
'x-y, x, -z'
'-x+2/3, -y+1/3, -z+1/3'
'y+2/3, -x+y+1/3, -z+1/3'
'x-y+2/3, x+1/3, -z+1/3'
'-x+1/3, -y+2/3, -z+2/3'
'y+1/3, -x+y+2/3, -z+2/3'
'x-y+1/3, x+2/3, -z+2/3'

_cell_length_a                   16.587(5)
_cell_length_b                   16.587(5)
_cell_length_c                   44.711(5)
_cell_angle_alpha                90.000(5)
_cell_angle_beta                 90.000(5)
_cell_angle_gamma                120.000(5)
_cell_volume                     10653(5)
_cell_formula_units_Z            6
_cell_measurement_temperature    150(2)
_cell_measurement_reflns_used    ?
_cell_measurement_theta_min      ?
_cell_measurement_theta_max      ?

_exptl_crystal_description       prism
_exptl_crystal_colour            colorless
_exptl_crystal_size_max          0.3
_exptl_crystal_size_mid          0.2
_exptl_crystal_size_min          0.2
_exptl_crystal_density_meas      ?
_exptl_crystal_density_diffrn    1.877
_exptl_crystal_density_method    'not measured'
_exptl_crystal_F_000             5754
_exptl_absorpt_coefficient_mu    4.261
_exptl_absorpt_correction_type   multi-scan
_exptl_absorpt_correction_T_min  0.783
_exptl_absorpt_correction_T_max  0.791
_exptl_absorpt_process_details   
;
  [Sheldrick, G.M. (2002). SADABS Bruker AXS Inc., Madison, Wisconsin, USA]
;
_exptl_special_details           
;
 ?
;

_diffrn_ambient_temperature      150(2)
_diffrn_radiation_wavelength     0.71069
_diffrn_radiation_type           MoK\a
_diffrn_radiation_source         'fine-focus sealed tube'
_diffrn_radiation_monochromator  graphite
_diffrn_measurement_device_type  'APEXII, Bruker-AXS'
_diffrn_measurement_method       'CCD rotation images, thin slices'
_diffrn_detector_area_resol_mean ?
_diffrn_standards_number         ?
_diffrn_standards_interval_count ?
_diffrn_standards_interval_time  ?
_diffrn_standards_decay_%        ?
_diffrn_reflns_number            44355
_diffrn_reflns_av_R_equivalents  0.0519
_diffrn_reflns_av_sigmaI/netI    0.0677
_diffrn_reflns_limit_h_min       -29
_diffrn_reflns_limit_h_max       17
_diffrn_reflns_limit_k_min       -24
_diffrn_reflns_limit_k_max       26
_diffrn_reflns_limit_l_min       -79
_diffrn_reflns_limit_l_max       70
_diffrn_reflns_theta_min         1.37
_diffrn_reflns_theta_max         39.65
_reflns_number_total             14167
_reflns_number_gt                8711
_reflns_threshold_expression     >2sigma(I)

_computing_data_collection       ?
_computing_cell_refinement       ?
_computing_data_reduction        ?
_computing_structure_solution    ?
_computing_structure_refinement  'SHELXL-97 (Sheldrick, 1997)'
_computing_molecular_graphics    ?
_computing_publication_material  ?

_refine_special_details          
;
 Refinement of F^2^ against ALL reflections.  The weighted R-factor wR and
 goodness of fit S are based on F^2^, conventional R-factors R are based
 on F, with F set to zero for negative F^2^. The threshold expression of
 F^2^ > 2sigma(F^2^) is used only for calculating R-factors(gt) etc. and is
 not relevant to the choice of reflections for refinement.  R-factors based
 on F^2^ are statistically about twice as large as those based on F, and R-
 factors based on ALL data will be even larger.
;

_refine_ls_structure_factor_coef Fsqd
_refine_ls_matrix_type           full
_refine_ls_weighting_scheme      calc
_refine_ls_weighting_details     
'calc w=1/[\s^2^(Fo^2^)+(0.0822P)^2^+20.9166P] where P=(Fo^2^+2Fc^2^)/3'
_atom_sites_solution_primary     direct
_atom_sites_solution_secondary   difmap
_atom_sites_solution_hydrogens   geom
_refine_ls_hydrogen_treatment    mixed
_refine_ls_extinction_method     none
_refine_ls_extinction_coef       ?
_refine_ls_number_reflns         14167
_refine_ls_number_parameters     251
_refine_ls_number_restraints     6
_refine_ls_R_factor_all          0.0953
_refine_ls_R_factor_gt           0.0488
_refine_ls_wR_factor_ref         0.1672
_refine_ls_wR_factor_gt          0.1336
_refine_ls_goodness_of_fit_ref   1.038
_refine_ls_restrained_S_all      1.039
_refine_ls_shift/su_max          0.001
_refine_ls_shift/su_mean         0.000

loop_
_atom_site_label
_atom_site_type_symbol
_atom_site_fract_x
_atom_site_fract_y
_atom_site_fract_z
_atom_site_U_iso_or_equiv
_atom_site_adp_type
_atom_site_occupancy
_atom_site_symmetry_multiplicity
_atom_site_calc_flag
_atom_site_refinement_flags
_atom_site_disorder_assembly
_atom_site_disorder_group
Dy1 Dy 1.0000 0.0000 0.193672(7) 0.02556(7) Uani 1 3 d SD . .
Dy2 Dy 0.951754(12) 0.099724(12) 0.262547(4) 0.02146(5) Uani 1 1 d D . .
O9 O 0.42637(19) -0.1845(2) 0.34826(7) 0.0282(6) Uani 1 1 d . . .
O5 O 1.0000 0.0000 0.28126(10) 0.0219(8) Uani 1 3 d S . .
O4 O 1.0731(2) 0.1069(2) 0.23134(6) 0.0246(5) Uani 1 1 d D . .
O6 O 0.7695(2) -0.1406(2) 0.27847(7) 0.0320(6) Uani 1 1 d . . .
O10 O 0.9550(3) 0.4507(3) 0.12236(10) 0.0463(10) Uani 1 1 d . . .
O7 O 0.7945(2) 0.0051(2) 0.27495(7) 0.0313(6) Uani 1 1 d . . .
O2 O 0.9669(3) 0.1131(3) 0.17854(9) 0.0422(8) Uani 1 1 d . . .
O8 O 0.9019(3) 0.2070(3) 0.27760(9) 0.0459(9) Uani 1 1 d . . .
N2 N 0.4984(2) -0.1604(3) 0.33040(8) 0.0272(7) Uani 1 1 d . . .
O3 O 0.9364(2) 0.1708(3) 0.21981(8) 0.0364(7) Uani 1 1 d . . .
C13 C 0.6540(3) -0.1095(3) 0.29611(9) 0.0261(7) Uani 1 1 d . . .
N1 N 0.9537(3) 0.3846(3) 0.13894(10) 0.0388(9) Uani 1 1 d . . .
C6 C 0.7464(3) -0.0796(3) 0.28166(9) 0.0262(7) Uani 1 1 d . . .
C5 C 0.5171(3) -0.2261(3) 0.32062(10) 0.0285(8) Uani 1 1 d . . .
H5 H 0.4771 -0.2882 0.3254 0.034 Uiso 1 1 calc R . .
O1 O 1.0000 0.0000 0.14070(18) 0.073(3) Uani 1 3 d SD . .
C24 C 0.9700(5) 0.3203(4) 0.12619(12) 0.0487(13) Uani 1 1 d . . .
H24 H 0.9821 0.3234 0.1058 0.058 Uiso 1 1 calc R . .
C26 C 0.9517(3) 0.2460(3) 0.17346(11) 0.0343(9) Uani 1 1 d . . .
C27 C 0.9322(5) 0.3106(4) 0.18576(13) 0.0522(15) Uani 1 1 d . . .
H27 H 0.9179 0.3076 0.2060 0.063 Uiso 1 1 calc R . .
C28 C 0.9525(3) 0.1717(3) 0.19225(10) 0.0331(9) Uani 1 1 d . . .
C29 C 0.9340(5) 0.3801(5) 0.16806(16) 0.0577(16) Uani 1 1 d . . .
H29 H 0.9214 0.4238 0.1765 0.069 Uiso 1 1 calc R . .
C30 C 0.5946(3) -0.2020(3) 0.30363(9) 0.0275(7) Uani 1 1 d . . .
H30 H 0.6075 -0.2477 0.2971 0.033 Uiso 1 1 calc R . .
C33 C 0.6311(3) -0.0436(3) 0.30532(10) 0.0324(9) Uani 1 1 d . . .
H33 H 0.6685 0.0184 0.2999 0.039 Uiso 1 1 calc R . .
C45 C 0.5524(3) -0.0708(3) 0.32262(11) 0.0349(9) Uani 1 1 d . . .
H45 H 0.5369 -0.0267 0.3289 0.042 Uiso 1 1 calc R . .
O22 O 0.7177(10) 0.1736(9) 0.2693(3) 0.192(5) Uiso 1 1 d . . .
C47 C 0.9688(4) 0.2500(4) 0.14315(12) 0.0457(12) Uani 1 1 d . . .
H47 H 0.9795 0.2056 0.1342 0.055 Uiso 1 1 calc R . .
O51 O 1.0098(9) 0.3900(9) 0.2652(3) 0.178(5) Uiso 1 1 d D . .
C41 C 1.0818(13) 0.4051(12) 0.2456(4) 0.188(8) Uiso 1 1 d D . .
N42 N 1.1124(1) 0.4868(1) 0.2277(1) 0.259(10) Uiso 1 1 d D . .
C43 C 1.1212(1) 0.5750(1) 0.2412(1) 0.268(13) Uiso 1 1 d . . .
C42 C 1.1720(1) 0.4959(1) 0.1991(1) 0.256(12) Uiso 1 1 d . . .
O26 O 0.545(3) 0.121(2) 0.3215(9) 0.53(2) Uiso 1 1 d . . .
O36 O 0.795(2) 0.329(2) 0.2406(6) 0.452(17) Uiso 1 1 d . . .
O25 O 0.543(2) 0.070(2) 0.2644(6) 0.46(2) Uiso 1 1 d . . .
H1 H 1.0000 0.0000 0.1206(5) 0.15(8) Uiso 1 3 d SD . .
H8B H 0.9231 0.2483 0.2639 0.13(4) Uiso 1 1 d . . .
H8A H 0.8502 0.2013 0.2833 0.15(5) Uiso 1 1 d . . .
H4 H 1.116(2) 0.1661(18) 0.2293(9) 0.183 Uiso 1 1 d D . .

loop_
_atom_site_aniso_label
_atom_site_aniso_U_11
_atom_site_aniso_U_22
_atom_site_aniso_U_33
_atom_site_aniso_U_23
_atom_site_aniso_U_13
_atom_site_aniso_U_12
Dy1 0.02813(10) 0.02813(10) 0.02043(13) 0.000 0.000 0.01406(5)
Dy2 0.02031(8) 0.01996(8) 0.02368(9) 0.00166(6) 0.00151(6) 0.00975(6)
O9 0.0203(12) 0.0374(16) 0.0249(14) 0.0044(11) 0.0035(10) 0.0129(12)
O5 0.0225(13) 0.0225(13) 0.0208(19) 0.000 0.000 0.0112(6)
O4 0.0256(13) 0.0243(13) 0.0237(12) 0.0009(10) 0.0011(10) 0.0123(11)
O6 0.0260(14) 0.0383(17) 0.0354(16) 0.0103(13) 0.0041(12) 0.0189(13)
O10 0.0392(19) 0.0320(17) 0.060(2) 0.0179(16) -0.0148(17) 0.0119(15)
O7 0.0245(14) 0.0310(15) 0.0325(15) -0.0013(12) 0.0052(11) 0.0095(12)
O2 0.059(2) 0.0397(19) 0.0346(18) 0.0035(14) -0.0068(16) 0.0296(18)
O8 0.061(2) 0.042(2) 0.052(2) 0.0062(17) 0.0124(19) 0.0380(19)
N2 0.0183(14) 0.0346(18) 0.0264(15) 0.0061(13) 0.0015(11) 0.0116(13)
O3 0.0383(17) 0.0414(18) 0.0340(16) 0.0113(14) 0.0008(13) 0.0231(15)
C13 0.0199(16) 0.0325(19) 0.0251(16) 0.0045(14) 0.0000(13) 0.0125(15)
N1 0.0308(19) 0.0301(19) 0.047(2) 0.0101(17) -0.0106(17) 0.0090(16)
C6 0.0195(16) 0.0298(19) 0.0241(16) 0.0034(14) -0.0012(13) 0.0085(14)
C5 0.0231(17) 0.0292(19) 0.0294(19) 0.0026(15) 0.0009(14) 0.0103(15)
O1 0.095(4) 0.095(4) 0.029(4) 0.000 0.000 0.047(2)
C24 0.068(4) 0.053(3) 0.033(2) 0.012(2) -0.004(2) 0.036(3)
C26 0.032(2) 0.032(2) 0.036(2) 0.0098(17) -0.0067(17) 0.0134(18)
C27 0.078(4) 0.056(3) 0.038(3) 0.014(2) 0.003(3) 0.045(3)
C28 0.037(2) 0.032(2) 0.030(2) 0.0068(16) -0.0059(17) 0.0171(18)
C29 0.077(4) 0.050(3) 0.062(4) 0.013(3) 0.004(3) 0.044(3)
C30 0.0247(18) 0.0317(19) 0.0256(17) 0.0014(14) 0.0011(14) 0.0137(16)
C33 0.0287(19) 0.030(2) 0.036(2) 0.0083(17) 0.0089(16) 0.0127(17)
C45 0.037(2) 0.030(2) 0.042(2) 0.0102(18) 0.0117(19) 0.0200(19)
C47 0.065(4) 0.047(3) 0.037(3) 0.006(2) -0.005(2) 0.037(3)

_geom_special_details            
;
 All esds (except the esd in the dihedral angle between two l.s. planes)
 are estimated using the full covariance matrix.  The cell esds are taken
 into account individually in the estimation of esds in distances, angles
 and torsion angles; correlations between esds in cell parameters are only
 used when they are defined by crystal symmetry.  An approximate (isotropic)
 treatment of cell esds is used for estimating esds involving l.s. planes.
;

loop_
_geom_bond_atom_site_label_1
_geom_bond_atom_site_label_2
_geom_bond_distance
_geom_bond_site_symmetry_2
_geom_bond_publ_flag
Dy1 O4 2.302(3) . ?
Dy1 O4 2.302(3) 3_765 ?
Dy1 O4 2.302(3) 2_645 ?
Dy1 O2 2.305(3) 2_645 ?
Dy1 O2 2.305(3) 3_765 ?
Dy1 O2 2.305(3) . ?
Dy1 O1 2.369(8) . ?
Dy1 Dy2 3.7661(6) 3_765 ?
Dy1 Dy2 3.7661(6) . ?
Dy1 Dy2 3.7661(6) 2_645 ?
Dy2 O5 2.3239(18) . ?
Dy2 O3 2.326(3) . ?
Dy2 O7 2.341(3) . ?
Dy2 O6 2.344(3) 3_765 ?
Dy2 O4 2.375(3) 2_645 ?
Dy2 O8 2.403(4) . ?
Dy2 O4 2.403(3) . ?
Dy2 O9 2.500(3) 18_545 ?
Dy2 Dy2 3.7551(12) 3_765 ?
Dy2 Dy2 3.7551(12) 2_645 ?
O9 N2 1.321(4) . ?
O9 Dy2 2.500(3) 17 ?
O5 Dy2 2.3239(18) 2_645 ?
O5 Dy2 2.3239(18) 3_765 ?
O4 Dy2 2.375(3) 3_765 ?
O6 C6 1.257(5) . ?
O6 Dy2 2.344(3) 2_645 ?
O10 N1 1.315(5) . ?
O7 C6 1.257(5) . ?
O2 C28 1.268(6) . ?
N2 C45 1.342(6) . ?
N2 C5 1.347(6) . ?
O3 C28 1.259(6) . ?
C13 C33 1.385(6) . ?
C13 C30 1.389(6) . ?
C13 C6 1.501(6) . ?
N1 C29 1.335(9) . ?
N1 C24 1.350(8) . ?
C5 C30 1.370(6) . ?
C24 C47 1.384(7) . ?
C26 C27 1.379(8) . ?
C26 C47 1.379(7) . ?
C26 C28 1.498(6) . ?
C27 C29 1.386(8) . ?
C33 C45 1.386(6) . ?
O51 C41 1.398(15) . ?
C41 N42 1.43065 . ?
N42 C43 1.52065 . ?
N42 C42 1.57671 . ?

loop_
_geom_angle_atom_site_label_1
_geom_angle_atom_site_label_2
_geom_angle_atom_site_label_3
_geom_angle
_geom_angle_site_symmetry_1
_geom_angle_site_symmetry_3
_geom_angle_publ_flag
O4 Dy1 O4 72.37(11) . 3_765 ?
O4 Dy1 O4 72.37(11) . 2_645 ?
O4 Dy1 O4 72.37(11) 3_765 2_645 ?
O4 Dy1 O2 149.71(12) . 2_645 ?
O4 Dy1 O2 86.83(13) 3_765 2_645 ?
O4 Dy1 O2 80.57(12) 2_645 2_645 ?
O4 Dy1 O2 86.83(13) . 3_765 ?
O4 Dy1 O2 80.57(12) 3_765 3_765 ?
O4 Dy1 O2 149.71(12) 2_645 3_765 ?
O2 Dy1 O2 111.76(9) 2_645 3_765 ?
O4 Dy1 O2 80.57(12) . . ?
O4 Dy1 O2 149.71(12) 3_765 . ?
O4 Dy1 O2 86.83(13) 2_645 . ?
O2 Dy1 O2 111.76(9) 2_645 . ?
O2 Dy1 O2 111.76(9) 3_765 . ?
O4 Dy1 O1 137.02(7) . . ?
O4 Dy1 O1 137.02(7) 3_765 . ?
O4 Dy1 O1 137.02(7) 2_645 . ?
O2 Dy1 O1 72.93(10) 2_645 . ?
O2 Dy1 O1 72.93(10) 3_765 . ?
O2 Dy1 O1 72.93(10) . . ?
O4 Dy1 Dy2 37.02(7) . 3_765 ?
O4 Dy1 Dy2 37.77(7) 3_765 3_765 ?
O4 Dy1 Dy2 78.12(7) 2_645 3_765 ?
O2 Dy1 Dy2 124.40(11) 2_645 3_765 ?
O2 Dy1 Dy2 72.12(10) 3_765 3_765 ?
O2 Dy1 Dy2 117.53(10) . 3_765 ?
O1 Dy1 Dy2 144.854(9) . 3_765 ?
O4 Dy1 Dy2 37.77(7) . . ?
O4 Dy1 Dy2 78.12(7) 3_765 . ?
O4 Dy1 Dy2 37.02(7) 2_645 . ?
O2 Dy1 Dy2 117.54(10) 2_645 . ?
O2 Dy1 Dy2 124.40(11) 3_765 . ?
O2 Dy1 Dy2 72.12(10) . . ?
O1 Dy1 Dy2 144.854(10) . . ?
Dy2 Dy1 Dy2 59.807(15) 3_765 . ?
O4 Dy1 Dy2 78.12(7) . 2_645 ?
O4 Dy1 Dy2 37.02(7) 3_765 2_645 ?
O4 Dy1 Dy2 37.77(7) 2_645 2_645 ?
O2 Dy1 Dy2 72.12(10) 2_645 2_645 ?
O2 Dy1 Dy2 117.53(10) 3_765 2_645 ?
O2 Dy1 Dy2 124.40(11) . 2_645 ?
O1 Dy1 Dy2 144.854(9) . 2_645 ?
Dy2 Dy1 Dy2 59.807(15) 3_765 2_645 ?
Dy2 Dy1 Dy2 59.807(16) . 2_645 ?
O5 Dy2 O3 145.19(14) . . ?
O5 Dy2 O7 95.89(9) . . ?
O3 Dy2 O7 99.58(12) . . ?
O5 Dy2 O6 91.39(9) . 3_765 ?
O3 Dy2 O6 94.85(13) . 3_765 ?
O7 Dy2 O6 142.59(11) . 3_765 ?
O5 Dy2 O4 70.99(11) . 2_645 ?
O3 Dy2 O4 83.82(11) . 2_645 ?
O7 Dy2 O4 73.44(11) . 2_645 ?
O6 Dy2 O4 142.79(11) 3_765 2_645 ?
O5 Dy2 O8 142.63(15) . . ?
O3 Dy2 O8 71.87(13) . . ?
O7 Dy2 O8 75.48(13) . . ?
O6 Dy2 O8 76.61(14) 3_765 . ?
O4 Dy2 O8 136.28(13) 2_645 . ?
O5 Dy2 O4 70.48(11) . . ?
O3 Dy2 O4 78.45(11) . . ?
O7 Dy2 O4 142.73(11) . . ?
O6 Dy2 O4 73.96(10) 3_765 . ?
O4 Dy2 O4 69.34(14) 2_645 . ?
O8 Dy2 O4 135.73(12) . . ?
O5 Dy2 O9 68.66(13) . 18_545 ?
O3 Dy2 O9 145.85(11) . 18_545 ?
O7 Dy2 O9 73.71(10) . 18_545 ?
O6 Dy2 O9 75.03(10) 3_765 18_545 ?
O4 Dy2 O9 123.88(9) 2_645 18_545 ?
O8 Dy2 O9 74.05(12) . 18_545 ?
O4 Dy2 O9 127.16(10) . 18_545 ?
O5 Dy2 Dy2 36.10(6) . 3_765 ?
O3 Dy2 Dy2 116.28(9) . 3_765 ?
O7 Dy2 Dy2 130.52(8) . 3_765 ?
O6 Dy2 Dy2 69.71(8) 3_765 3_765 ?
O4 Dy2 Dy2 77.61(7) 2_645 3_765 ?
O8 Dy2 Dy2 145.75(11) . 3_765 ?
O4 Dy2 Dy2 37.93(7) . 3_765 ?
O9 Dy2 Dy2 91.12(7) 18_545 3_765 ?
O5 Dy2 Dy2 36.10(6) . 2_645 ?
O3 Dy2 Dy2 122.16(9) . 2_645 ?
O7 Dy2 Dy2 72.50(8) . 2_645 ?
O6 Dy2 Dy2 126.52(8) 3_765 2_645 ?
O4 Dy2 Dy2 38.47(7) 2_645 2_645 ?
O8 Dy2 Dy2 146.72(10) . 2_645 ?
O4 Dy2 Dy2 77.32(7) . 2_645 ?
O9 Dy2 Dy2 88.42(7) 18_545 2_645 ?
Dy2 Dy2 Dy2 60.0 3_765 2_645 ?
O5 Dy2 Dy1 75.96(11) . . ?
O3 Dy2 Dy1 69.65(9) . . ?
O7 Dy2 Dy1 108.04(8) . . ?
O6 Dy2 Dy1 109.32(8) 3_765 . ?
O4 Dy2 Dy1 35.71(7) 2_645 . ?
O8 Dy2 Dy1 141.41(10) . . ?
O4 Dy2 Dy1 35.92(7) . . ?
O9 Dy2 Dy1 144.50(7) 18_545 . ?
Dy2 Dy2 Dy1 60.096(8) 3_765 . ?
Dy2 Dy2 Dy1 60.096(8) 2_645 . ?
N2 O9 Dy2 124.7(2) . 17 ?
Dy2 O5 Dy2 107.79(11) 2_645 3_765 ?
Dy2 O5 Dy2 107.79(11) 2_645 . ?
Dy2 O5 Dy2 107.79(11) 3_765 . ?
Dy1 O4 Dy2 107.26(11) . 3_765 ?
Dy1 O4 Dy2 106.31(11) . . ?
Dy2 O4 Dy2 103.61(11) 3_765 . ?
C6 O6 Dy2 137.7(3) . 2_645 ?
C6 O7 Dy2 132.6(3) . . ?
C28 O2 Dy1 134.0(3) . . ?
O9 N2 C45 119.6(4) . . ?
O9 N2 C5 119.4(3) . . ?
C45 N2 C5 121.0(4) . . ?
C28 O3 Dy2 137.1(3) . . ?
C33 C13 C30 118.5(4) . . ?
C33 C13 C6 120.3(4) . . ?
C30 C13 C6 120.8(4) . . ?
O10 N1 C29 119.9(5) . . ?
O10 N1 C24 119.6(5) . . ?
C29 N1 C24 120.5(5) . . ?
O6 C6 O7 126.5(4) . . ?
O6 C6 C13 117.1(4) . . ?
O7 C6 C13 116.4(4) . . ?
N2 C5 C30 120.5(4) . . ?
N1 C24 C47 120.7(5) . . ?
C27 C26 C47 118.5(5) . . ?
C27 C26 C28 121.2(5) . . ?
C47 C26 C28 120.3(5) . . ?
C26 C27 C29 120.2(6) . . ?
O3 C28 O2 125.8(4) . . ?
O3 C28 C26 117.9(5) . . ?
O2 C28 C26 116.2(4) . . ?
N1 C29 C27 120.4(6) . . ?
C5 C30 C13 120.0(4) . . ?
C45 C33 C13 119.7(4) . . ?
N2 C45 C33 120.2(4) . . ?
C24 C47 C26 119.6(5) . . ?
N42 C41 O51 112.75 . . ?
C41 N42 C43 120.48 . . ?
C41 N42 C42 116.93 . . ?
C43 N42 C42 118.41 . . ?

_diffrn_measured_fraction_theta_max 0.985
_diffrn_reflns_theta_full        39.65
_diffrn_measured_fraction_theta_full 0.985
_refine_diff_density_max         2.570
_refine_diff_density_min         -2.122
_refine_diff_density_rms         0.491
