
#######################################################################
#
#                 Cambridge Crystallographic Data Centre
#                                CCDC
#
#######################################################################
#
# If this CIF has been generated from an entry in the Cambridge
# Structural Database, then it will include bibliographic, chemical,
# crystal, experimental, refinement or atomic coordinate data resulting
# from the CCDC's data processing and validation procedures.
#
#######################################################################

data_CSD_CIF_CIVFOC10
_audit_creation_date 1987-09-22
_audit_creation_method CSD-ConQuest-V1
_database_code_CSD CIVFOC10
_database_code_depnum_ccdc_archive 'CCDC 1126387'
_chemical_formula_sum 'C14 H21 N1 O6'
_chemical_formula_moiety
;
C4 H5 O6 1-,C10 H16 N1 1+
;
_journal_coden_Cambridge 188
_journal_year 1986
_journal_page_first 1881
_journal_name_full 'J.Chem.Soc.,Perkin Trans.2 '
loop_
_publ_author_name
"E.Fogassy"
"M.Acs"
"F.Faigl"
"K.Simon"
"J.Rohonczy"
"Z.Ecsery"
_chemical_name_systematic
;
(S)-(+)-N-Methylamphetamine (RR)-tartrate
;
_chemical_name_common
;
(S)-(+)-Methamphetamine (RR)-tartrate; Teaching Subset: Fundamental 
Chemistry, Drug Molecules
;
_chemical_melting_point 387
_cell_volume    769.388
_exptl_crystal_density_diffrn 1.292
_exptl_special_details
;
Melting point range 387-388K
y(C5) should be 0.1640 not 0.1840. x(H10) should be 0.525 not 0.552
;
_diffrn_ambient_temperature ?
_diffrn_special_details
;
The study was carried out at room temperature,in the range 283-303K

;
#These two values have been output from a single CSD field.
_refine_ls_R_factor_gt 0.037
_refine_ls_wR_factor_gt 0.037
loop_
_citation_database_id_CSD
_citation_special_details
FAKHOO "is a stereoisomer of this entry"
_symmetry_cell_setting monoclinic
_symmetry_space_group_name_H-M 'P 21'
_symmetry_Int_Tables_number 4
loop_
_symmetry_equiv_pos_site_id
_symmetry_equiv_pos_as_xyz
1 x,y,z
2 -x,1/2+y,-z
_cell_length_a 14.377(2)
_cell_length_b 6.854(1)
_cell_length_c 7.826(1)
_cell_angle_alpha 90
_cell_angle_beta 93.90(1)
_cell_angle_gamma 90
_cell_formula_units_Z 2
loop_
_atom_type_symbol
_atom_type_radius_bond
C 0.68
H 0.23
N 0.68
O 0.68
loop_
_atom_site_label
_atom_site_type_symbol
_atom_site_fract_x
_atom_site_fract_y
_atom_site_fract_z
C1 C 0.1606(1) -0.00880 0.4262(3)
N1 N 0.1750(1) 0.0000(4) 0.6159(2)
C2 C 0.2751(1) 0.0098(4) 0.6886(3)
C3 C 0.3181(2) -0.1905(5) 0.6836(4)
C4 C 0.3290(1) 0.1640(5) 0.5932(3)
C5 C 0.4232(2) 0.2066(4) 0.6839(3)
C6 C 0.5018(2) 0.1081(5) 0.6395(3)
C7 C 0.5881(2) 0.1473(8) 0.7210(4)
C8 C 0.5969(2) 0.2895(7) 0.8434(5)
C9 C 0.5208(2) 0.3902(6) 0.8883(4)
C10 C 0.4344(2) 0.3475(5) 0.8108(4)
H1 H 0.190(1) -0.125(4) 0.377(3)
H2 H 0.200(1) 0.089(4) 0.371(3)
H3 H 0.103(1) -0.030(5) 0.411(3)
H4 H 0.146(1) -0.114(4) 0.665(3)
H5 H 0.144(1) 0.112(4) 0.660(3)
H6 H 0.272(1) 0.045(4) 0.823(3)
H7 H 0.379(1) -0.198(4) 0.741(3)
H8 H 0.290(1) -0.291(5) 0.754(3)
H9 H 0.305(1) -0.245(5) 0.582(3)
H10 H 0.337(1) 0.126(4) 0.467(2)
H11 H 0.288(1) 0.286(4) 0.589(3)
H12 H 0.495(1) 0.011(5) 0.548(2)
H13 H 0.644(1) 0.074(4) 0.701(3)
H14 H 0.663(1) 0.326(5) 0.887(3)
H15 H 0.525(1) 0.464(6) 0.988(4)
H16 H 0.378(1) 0.419(4) 0.835(3)
O1 O 0.0984(1) -0.6418(3) 0.7114(1)
C11 C 0.1142(1) -0.5064(4) 0.8181(2)
O2 O 0.1055(1) -0.3293(3) 0.7859(2)
C12 C 0.1459(1) -0.5613(3) 1.0025(2)
O3 O 0.1542(1) -0.7652(2) 1.0295(2)
C13 C 0.0798(1) -0.4671(3) 1.1226(2)
O4 O -0.0134(1) -0.5248(2) 1.0781(1)
C14 C 0.1120(1) -0.5053(4) 1.3085(2)
O5 O 0.1919(1) -0.4841(3) 1.3597(2)
O6 O 0.0449(1) -0.5560(3) 1.4033(1)
H17 H 0.209(1) -0.506(4) 1.033(2)
H18 H 0.104(1) -0.821(4) 0.967(2)
H19 H 0.084(1) -0.327(4) 1.100(2)
H20 H -0.024(1) -0.642(5) 1.129(3)
H21 H 0.063(1) -0.556(4) 1.498(2)
#END
