
#######################################################################
#
#                 Cambridge Crystallographic Data Centre
#                                CCDC
#
#######################################################################
#
# If this CIF has been generated from an entry in the Cambridge
# Structural Database, then it will include bibliographic, chemical,
# crystal, experimental, refinement or atomic coordinate data resulting
# from the CCDC's data processing and validation procedures.
#
#######################################################################

data_CSD_CIF_CIVXIO10
_audit_creation_date 1985-08-16
_audit_creation_method CSD-ConQuest-V1
_database_code_CSD CIVXIO10
_database_code_depnum_ccdc_archive 'CCDC 1126513'
_chemical_formula_sum 'C3 H6 O1'
_chemical_formula_moiety
;
C3 H6 O1
;
_journal_coden_Cambridge 4
_journal_volume 106
_journal_year 1984
_journal_page_first 7118
_journal_name_full 'J.Am.Chem.Soc. '
loop_
_publ_author_name
"P.Luger"
"J.Buschmann"
_chemical_name_systematic
;
Oxetane
;
_chemical_name_common
;
Teaching Subset: Symmetry
;
_chemical_melting_point 174
_cell_volume    332.272
_exptl_crystal_density_diffrn 1.154
_diffrn_ambient_temperature 90
#These two values have been output from a single CSD field.
_refine_ls_R_factor_gt 0.038
_refine_ls_wR_factor_gt 0.038
_symmetry_cell_setting orthorhombic
_symmetry_space_group_name_H-M 'P n a m'
_symmetry_Int_Tables_number 62
loop_
_symmetry_equiv_pos_site_id
_symmetry_equiv_pos_as_xyz
1 x,y,z
2 -x,-y,1/2+z
3 1/2+x,1/2-y,1/2-z
4 1/2-x,1/2+y,-z
5 -x,-y,-z
6 x,y,-1/2-z
7 -1/2-x,-1/2+y,-1/2+z
8 -1/2+x,-1/2-y,z
_cell_length_a 8.620(4)
_cell_length_b 6.384(15)
_cell_length_c 6.038(13)
_cell_angle_alpha 90
_cell_angle_beta 90
_cell_angle_gamma 90
_cell_formula_units_Z 4
loop_
_atom_type_symbol
_atom_type_radius_bond
C 0.68
H 0.23
O 0.68
loop_
_atom_site_label
_atom_site_type_symbol
_atom_site_fract_x
_atom_site_fract_y
_atom_site_fract_z
C1 C 0.8750(1) 0.2307(2) 0.5788(2)
C2 C 0.9322(2) 0.3904(2) 0.75000
O1 O 0.8440(1) 0.0747(2) 0.75000
H1 H 0.949(2) 0.178(3) 0.476(3)
H2 H 0.778(2) 0.268(3) 0.504(3)
H3 H 1.044(3) 0.409(4) 0.75000
H4 H 0.883(3) 0.530(4) 0.75000
C1E C 0.8750(1) 0.2307(2) 0.9212(2)
H1E H 0.949(2) 0.178(3) 1.024(3)
H2E H 0.778(2) 0.268(3) 0.996(3)
#END
