####################################################################### 
# 
# This file contains crystal structure data downloaded from the 
# Cambridge Structural Database (CSD) hosted by the Cambridge 
# Crystallographic Data Centre (CCDC).
# 
# Full information about CCDC data access policies and citation 
# guidelines are available at http://www.ccdc.cam.ac.uk/access/V1 
# 
# Audit and citation data items may have been added by the CCDC. 
# Please retain this information to preserve the provenance of 
# this file and to allow appropriate attribution of the data. 
# 
#######################################################################

data_GE2_4b
_audit_block_doi                 10.5517/ccpr4bw
_database_code_depnum_ccdc_archive 'CCDC 647848'
loop_
_citation_id
_citation_doi
_citation_year
1 10.1021/ja0752540 2007
_audit_update_record             
;
2007-05-17 deposited with the CCDC.	2024-07-09 downloaded from the CCDC.
;


_audit_creation_method           SHELXL-97

_chemical_name_systematic        
;

?

;

_chemical_name_common            ?

_chemical_melting_point          ?

_chemical_formula_moiety         ?

_chemical_formula_sum            'C75 H84 I6 N12 O5.07 Zn3'

_chemical_formula_weight         2192.09



loop_

_atom_type_symbol

_atom_type_description

_atom_type_scat_dispersion_real

_atom_type_scat_dispersion_imag

_atom_type_scat_source












C C 0.0033 0.0016 'International Tables Vol C Tables 4.2.6.8 and 6.1.1.4'
H H 0.0000 0.0000 'International Tables Vol C Tables 4.2.6.8 and 6.1.1.4'
N N 0.0061 0.0033 'International Tables Vol C Tables 4.2.6.8 and 6.1.1.4'
O O 0.0106 0.0060 'International Tables Vol C Tables 4.2.6.8 and 6.1.1.4'
Zn Zn 0.2839 1.4301 'International Tables Vol C Tables 4.2.6.8 and 6.1.1.4'
I I -0.4742 1.8119 'International Tables Vol C Tables 4.2.6.8 and 6.1.1.4'



_symmetry_cell_setting           Orthorhombic

_symmetry_space_group_name_H-M   Pbca



loop_

_symmetry_equiv_pos_as_xyz








'x, y, z'
'-x+1/2, -y, z+1/2'
'-x, y+1/2, -z+1/2'
'x+1/2, -y+1/2, -z'
'-x, -y, -z'
'x-1/2, y, -z-1/2'
'x, -y-1/2, z-1/2'
'-x-1/2, y-1/2, z'



_cell_length_a                   27.449(4)
_cell_length_b                   13.707(2)
_cell_length_c                   45.248(7)
_cell_angle_alpha                90.00
_cell_angle_beta                 90.00
_cell_angle_gamma                90.00
_cell_volume                     17024(5)
_cell_formula_units_Z            8
_cell_measurement_temperature    82(2)
_cell_measurement_reflns_used    9979
_cell_measurement_theta_min      2.28
_cell_measurement_theta_max      23.67

_exptl_crystal_description       needle
_exptl_crystal_colour            yellow
_exptl_crystal_size_max          0.30
_exptl_crystal_size_mid          0.20
_exptl_crystal_size_min          0.15
_exptl_crystal_density_meas      0
_exptl_crystal_density_diffrn    1.711
_exptl_crystal_density_method    'not measured'
_exptl_crystal_F_000             8532
_exptl_absorpt_coefficient_mu    3.067
_exptl_absorpt_correction_type   multi_scan
_exptl_absorpt_correction_T_min  0.4597
_exptl_absorpt_correction_T_max  0.6562
_exptl_absorpt_process_details   SADABS

_exptl_special_details           
;
?
;

_diffrn_ambient_temperature      82(2)
_diffrn_radiation_wavelength     0.71073
_diffrn_radiation_type           MoK\a
_diffrn_radiation_source         'fine focus rotating anode'
_diffrn_radiation_monochromator  'focusing mirror'
_diffrn_measurement_device_type  'Bruker SMART CCD area detector system'
_diffrn_measurement_method       omega_scan
_diffrn_detector_area_resol_mean ?
_diffrn_standards_number         ?
_diffrn_standards_interval_count ?
_diffrn_standards_interval_time  ?
_diffrn_standards_decay_%        none
_diffrn_reflns_number            191324
_diffrn_reflns_av_R_equivalents  0.0674
_diffrn_reflns_av_sigmaI/netI    0.0441
_diffrn_reflns_limit_h_min       -36
_diffrn_reflns_limit_h_max       36
_diffrn_reflns_limit_k_min       -17
_diffrn_reflns_limit_k_max       17
_diffrn_reflns_limit_l_min       -60
_diffrn_reflns_limit_l_max       59
_diffrn_reflns_theta_min         1.72
_diffrn_reflns_theta_max         28.29
_reflns_number_total             20938
_reflns_number_gt                13293
_reflns_threshold_expression     >2sigma(I)

_computing_data_collection       'Bruker SMART'
_computing_cell_refinement       'Bruker SAINT'
_computing_data_reduction        'Bruker SAINT'
_computing_structure_solution    'SHELXS-97 (Sheldrick, 1990)'
_computing_structure_refinement  'SHELXL-97 (Sheldrick, 1997)'
_computing_molecular_graphics    'Bruker XP'
_computing_publication_material  'Bruker SHELXTL'

_refine_special_details          
;
Refinement of F^2^ against ALL reflections. The weighted R-factor wR and
goodness of fit S are based on F^2^, conventional R-factors R are based
on F, with F set to zero for negative F^2^. The threshold expression of
F^2^ > 2sigma(F^2^) is used only for calculating R-factors(gt) etc. and is
not relevant to the choice of reflections for refinement. R-factors based
on F^2^ are statistically about twice as large as those based on F, and R-
factors based on ALL data will be even larger.
Several restraints and constraints were applied to
disordered 2-hydroxytriphenylene (C101 to O101 and C121 to O121) and
propane-2-ol(C301 to O321) on the basis of
chemical symmetry of the molecules.
The occupancy factors of the disordered molecules converged as follows:
2-hydroxytriphenylene, 61%(C101 to O101) and 39%(C121 to O121);
Water 61%(O102) and 50%(O103).
Large residual electron density peaks sit around iodide atoms.
;

_refine_ls_structure_factor_coef Fsqd
_refine_ls_matrix_type           full
_refine_ls_weighting_scheme      calc
_refine_ls_weighting_details     
'calc w=1/[\s^2^(Fo^2^)+(0.0667P)^2^+96.6729P] where P=(Fo^2^+2Fc^2^)/3'
_atom_sites_solution_primary     direct
_atom_sites_solution_secondary   difmap
_atom_sites_solution_hydrogens   geom
_refine_ls_hydrogen_treatment    constr
_refine_ls_extinction_method     none
_refine_ls_extinction_coef       ?
_refine_ls_number_reflns         20938

_refine_ls_number_parameters     1091

_refine_ls_number_restraints     1102

_refine_ls_R_factor_all          0.1122

_refine_ls_R_factor_gt           0.0645

_refine_ls_wR_factor_ref         0.1811

_refine_ls_wR_factor_gt          0.1578

_refine_ls_goodness_of_fit_ref   1.120

_refine_ls_restrained_S_all      1.107

_refine_ls_shift/su_max          0.088

_refine_ls_shift/su_mean         0.002

loop_
_atom_site_label
_atom_site_type_symbol
_atom_site_fract_x
_atom_site_fract_y
_atom_site_fract_z
_atom_site_U_iso_or_equiv
_atom_site_adp_type
_atom_site_occupancy
_atom_site_symmetry_multiplicity
_atom_site_calc_flag
_atom_site_refinement_flags
_atom_site_disorder_assembly
_atom_site_disorder_group
























































































































































































































Zn1 Zn 0.74364(3) 0.65483(6) 0.185308(17) 0.0386(2) Uani 1 1 d . . .
Zn2 Zn 0.47171(3) 0.36423(6) 0.415829(19) 0.03758(19) Uani 1 1 d . . .
Zn3 Zn 0.94610(3) 0.33709(6) 0.422970(18) 0.0397(2) Uani 1 1 d . . .
I1 I 0.83332(2) 0.65735(6) 0.172129(14) 0.06752(19) Uani 1 1 d . . .
I2 I 0.69889(2) 0.81523(4) 0.192808(13) 0.05781(17) Uani 1 1 d . . .
I3 I 0.42000(2) 0.28030(5) 0.377398(17) 0.0694(2) Uani 1 1 d . . .
I4 I 0.49163(2) 0.28835(4) 0.465806(13) 0.05314(15) Uani 1 1 d . . .
I5 I 0.93315(3) 0.15551(4) 0.431276(14) 0.06502(19) Uani 1 1 d . . .
I6 I 1.01564(2) 0.41835(6) 0.395614(15) 0.0744(2) Uani 1 1 d . . .
C1 C 0.5826(3) 0.0461(5) 0.09747(15) 0.0398(16) Uani 1 1 d . . .
H1A H 0.5875 0.0147 0.1160 0.048 Uiso 1 1 calc R . .
C2 C 0.6008(3) 0.1378(6) 0.09372(17) 0.049(2) Uani 1 1 d . . .
H2A H 0.6180 0.1690 0.1093 0.059 Uiso 1 1 calc R . .
C3 C 0.5521(3) 0.0439(5) 0.05012(15) 0.0401(16) Uani 1 1 d . . .
H3A H 0.5354 0.0108 0.0347 0.048 Uiso 1 1 calc R . .
C4 C 0.5691(3) 0.1365(5) 0.04491(15) 0.0392(16) Uani 1 1 d . . .
H4A H 0.5638 0.1668 0.0263 0.047 Uiso 1 1 calc R . .
C5 C 0.5939(3) 0.1853(5) 0.06683(15) 0.0353(15) Uani 1 1 d . . .
C6 C 0.6092(3) 0.2875(5) 0.06377(15) 0.0363(15) Uani 1 1 d . . .
C7 C 0.5552(3) 0.4957(6) -0.03608(16) 0.050(2) Uani 1 1 d . . .
H7A H 0.5393 0.4645 -0.0522 0.060 Uiso 1 1 calc R . .
C8 C 0.5676(3) 0.4406(6) -0.01141(17) 0.055(2) Uani 1 1 d . . .
H8A H 0.5595 0.3733 -0.0105 0.066 Uiso 1 1 calc R . .
C9 C 0.5869(3) 0.6327(5) -0.01495(16) 0.0448(18) Uani 1 1 d . . .
H9A H 0.5936 0.7006 -0.0160 0.054 Uiso 1 1 calc R . .
C10 C 0.6006(3) 0.5833(5) 0.01014(15) 0.0461(19) Uani 1 1 d . . .
H10A H 0.6159 0.6164 0.0261 0.055 Uiso 1 1 calc R . .
C11 C 0.5915(3) 0.4844(5) 0.01158(14) 0.0360(15) Uani 1 1 d . . .
C12 C 0.6062(3) 0.4285(5) 0.03826(15) 0.0364(15) Uani 1 1 d . . .
C13 C 0.6883(4) 0.6221(6) 0.13117(18) 0.058(2) Uani 1 1 d . . .
H13A H 0.6895 0.6914 0.1308 0.069 Uiso 1 1 calc R . .
C14 C 0.6677(4) 0.5756(6) 0.10790(18) 0.058(2) Uani 1 1 d . . .
H14A H 0.6559 0.6118 0.0915 0.070 Uiso 1 1 calc R . .
C15 C 0.7023(4) 0.4795(6) 0.15469(18) 0.060(3) Uani 1 1 d . . .
H15A H 0.7151 0.4446 0.1711 0.071 Uiso 1 1 calc R . .
C16 C 0.6800(4) 0.4281(6) 0.13253(18) 0.055(2) Uani 1 1 d . . .
H16A H 0.6758 0.3595 0.1341 0.066 Uiso 1 1 calc R . .
C17 C 0.6639(3) 0.4768(5) 0.10817(15) 0.0393(16) Uani 1 1 d . . .
C18 C 0.6415(3) 0.4247(5) 0.08293(15) 0.0383(16) Uani 1 1 d . . .
C21 C 0.7705(3) 0.5394(5) 0.23807(14) 0.0342(15) Uani 1 1 d . . .
H21A H 0.8016 0.5383 0.2288 0.041 Uiso 1 1 calc R . .
C22 C 0.7662(3) 0.5027(5) 0.26622(14) 0.0348(15) Uani 1 1 d . . .
H22A H 0.7939 0.4783 0.2764 0.042 Uiso 1 1 calc R . .
C23 C 0.6894(3) 0.5729(5) 0.23583(16) 0.0422(17) Uani 1 1 d . . .
H23A H 0.6622 0.5973 0.2251 0.051 Uiso 1 1 calc R . .
C24 C 0.6817(3) 0.5362(5) 0.26340(16) 0.0398(16) Uani 1 1 d . . .
H24A H 0.6497 0.5341 0.2715 0.048 Uiso 1 1 calc R . .
C25 C 0.7210(3) 0.5020(4) 0.27945(14) 0.0318(14) Uani 1 1 d . . .
C26 C 0.7167(3) 0.4712(4) 0.31084(14) 0.0303(14) Uani 1 1 d . . .
C27 C 0.5382(3) 0.4162(7) 0.36607(19) 0.057(2) Uani 1 1 d . . .
H27A H 0.5083 0.4214 0.3556 0.068 Uiso 1 1 calc R . .
C28 C 0.5807(3) 0.4314(7) 0.35079(17) 0.050(2) Uani 1 1 d . . .
H28A H 0.5799 0.4464 0.3303 0.060 Uiso 1 1 calc R . .
C29 C 0.5782(3) 0.3900(5) 0.40914(15) 0.0375(16) Uani 1 1 d . . .
H29A H 0.5775 0.3765 0.4297 0.045 Uiso 1 1 calc R . .
C30 C 0.6225(3) 0.4039(5) 0.39570(16) 0.0399(16) Uani 1 1 d . . .
H30A H 0.6517 0.3994 0.4069 0.048 Uiso 1 1 calc R . .
C31 C 0.6245(2) 0.4245(4) 0.36567(15) 0.0315(14) Uani 1 1 d . . .
C32 C 0.6719(2) 0.4363(4) 0.35092(14) 0.0295(14) Uani 1 1 d . . .
C33 C 0.8402(3) 0.3676(5) 0.41384(15) 0.0345(15) Uani 1 1 d . . .
H33A H 0.8390 0.3457 0.4338 0.041 Uiso 1 1 calc R . .
C34 C 0.7975(3) 0.3842(5) 0.39950(14) 0.0323(14) Uani 1 1 d . . .
H34A H 0.7673 0.3736 0.4092 0.039 Uiso 1 1 calc R . .
C35 C 0.8853(2) 0.4133(5) 0.37334(14) 0.0320(14) Uani 1 1 d . . .
H35A H 0.9161 0.4240 0.3644 0.038 Uiso 1 1 calc R . .
C36 C 0.8439(2) 0.4321(5) 0.35721(14) 0.0317(14) Uani 1 1 d . . .
H36A H 0.8461 0.4549 0.3374 0.038 Uiso 1 1 calc R . .
C37 C 0.7985(2) 0.4168(4) 0.37046(13) 0.0270(13) Uani 1 1 d . . .
C38 C 0.7534(2) 0.4342(4) 0.35316(13) 0.0274(13) Uani 1 1 d . . .
N1 N 0.5582(2) -0.0018(4) 0.07618(12) 0.0351(13) Uani 1 1 d . . .
N2 N 0.5648(2) 0.5904(4) -0.03792(12) 0.0361(13) Uani 1 1 d . . .
N3 N 0.7068(2) 0.5764(4) 0.15430(13) 0.0406(14) Uani 1 1 d . . .
N4 N 0.5951(2) 0.3342(4) 0.03910(12) 0.0405(14) Uani 1 1 d . . .
N5 N 0.6288(2) 0.4774(4) 0.05943(13) 0.0415(14) Uani 1 1 d . . .
N6 N 0.6332(2) 0.3283(4) 0.08596(13) 0.0381(13) Uani 1 1 d . . .
N21 N 0.7330(2) 0.5763(4) 0.22326(12) 0.0346(13) Uani 1 1 d . . .
N22 N 0.5365(2) 0.3946(4) 0.39458(13) 0.0357(13) Uani 1 1 d . . .
N23 N 0.8837(2) 0.3805(4) 0.40132(11) 0.0317(12) Uani 1 1 d . . .
N24 N 0.6723(2) 0.4607(4) 0.32203(12) 0.0314(12) Uani 1 1 d . . .
N25 N 0.7113(2) 0.4227(4) 0.36738(12) 0.0303(12) Uani 1 1 d . . .
N26 N 0.7583(2) 0.4581(4) 0.32517(11) 0.0277(11) Uani 1 1 d . . .
C101 C 0.1947(5) 0.1841(5) 0.1443(3) 0.094(2) Uani 0.618(13) 1 d PDU A 1
C102 C 0.1527(5) 0.1721(6) 0.1278(3) 0.095(3) Uani 0.618(13) 1 d PDU A 1
H10B H 0.1218 0.1800 0.1369 0.114 Uiso 0.618(13) 1 calc PR A 1
C103 C 0.1552(6) 0.1489(7) 0.0980(3) 0.092(3) Uani 0.618(13) 1 d PDU A 1
C104 C 0.2005(7) 0.1381(8) 0.0845(3) 0.096(3) Uani 0.618(13) 1 d PDU A 1
H10C H 0.2024 0.1230 0.0640 0.115 Uiso 0.618(13) 1 calc PR A 1
C105 C 0.2430(6) 0.1493(8) 0.1009(3) 0.094(3) Uani 0.618(13) 1 d PDU A 1
H10D H 0.2740 0.1416 0.0918 0.113 Uiso 0.618(13) 1 calc PR A 1
C106 C 0.2400(5) 0.1721(7) 0.1311(3) 0.091(2) Uani 0.618(13) 1 d PDU A 1
C107 C 0.2822(5) 0.1845(7) 0.1481(3) 0.092(2) Uani 0.618(13) 1 d PDU A 1
C108 C 0.3280(6) 0.1731(9) 0.1353(3) 0.094(3) Uani 0.618(13) 1 d PDU A 1
H10E H 0.3308 0.1565 0.1150 0.113 Uiso 0.618(13) 1 calc PR A 1
C109 C 0.3698(5) 0.1862(11) 0.1524(4) 0.100(3) Uani 0.618(13) 1 d PDU A 1
H10F H 0.4010 0.1790 0.1437 0.120 Uiso 0.618(13) 1 calc PR A 1
C110 C 0.3658(6) 0.2098(10) 0.1822(4) 0.103(3) Uani 0.618(13) 1 d PDU A 1
H11A H 0.3943 0.2177 0.1939 0.124 Uiso 0.618(13) 1 calc PR A 1
C111 C 0.3198(6) 0.2217(8) 0.1949(3) 0.101(3) Uani 0.618(13) 1 d PDU A 1
H11B H 0.3169 0.2383 0.2152 0.121 Uiso 0.618(13) 1 calc PR A 1
C112 C 0.2783(5) 0.2092(7) 0.1778(3) 0.094(2) Uani 0.618(13) 1 d PDU A 1
C113 C 0.2324(6) 0.2206(8) 0.1912(3) 0.094(2) Uani 0.618(13) 1 d PDU A 1
C114 C 0.2285(7) 0.2444(10) 0.2212(3) 0.095(3) Uani 0.618(13) 1 d PDU A 1
H11C H 0.2572 0.2536 0.2326 0.115 Uiso 0.618(13) 1 calc PR A 1
C115 C 0.1830(7) 0.2546(12) 0.2345(3) 0.099(3) Uani 0.618(13) 1 d PDU A 1
H11D H 0.1806 0.2703 0.2549 0.119 Uiso 0.618(13) 1 calc PR A 1
C116 C 0.1411(7) 0.2417(12) 0.2176(3) 0.105(3) Uani 0.618(13) 1 d PDU A 1
H11E H 0.1099 0.2491 0.2265 0.126 Uiso 0.618(13) 1 calc PR A 1
C117 C 0.1448(6) 0.2181(10) 0.1879(3) 0.104(3) Uani 0.618(13) 1 d PDU A 1
H11F H 0.1161 0.2092 0.1765 0.124 Uiso 0.618(13) 1 calc PR A 1
C118 C 0.1906(6) 0.2073(7) 0.1745(3) 0.095(2) Uani 0.618(13) 1 d PDU A 1
O101 O 0.1115(6) 0.1410(8) 0.0864(3) 0.125(4) Uani 0.618(13) 1 d PDU A 1
H10G H 0.1139 0.1284 0.0683 0.188 Uiso 0.618(13) 1 calc PR A 1
O102 O 0.0588(7) 0.1655(13) 0.1356(6) 0.41(3) Uani 0.618(13) 1 d PDU A 1
O103 O 0.5501(15) 0.454(5) 0.2678(11) 0.35(3) Uani 0.50 1 d PU B 1
C121 C 0.2774(10) 0.2126(9) 0.1772(6) 0.094(2) Uani 0.382(13) 1 d PDU A 2
C122 C 0.3225(10) 0.2272(11) 0.1898(6) 0.098(3) Uani 0.382(13) 1 d PDU A 2
H12A H 0.3237 0.2468 0.2099 0.117 Uiso 0.382(13) 1 calc PR A 2
C123 C 0.3666(11) 0.2153(12) 0.1749(6) 0.103(3) Uani 0.382(13) 1 d PDU A 2
C124 C 0.3646(12) 0.1863(15) 0.1453(6) 0.101(3) Uani 0.382(13) 1 d PDU A 2
H12B H 0.3939 0.1775 0.1344 0.121 Uiso 0.382(13) 1 calc PR A 2
C125 C 0.3197(11) 0.1703(14) 0.1319(6) 0.096(3) Uani 0.382(13) 1 d PDU A 2
H12C H 0.3186 0.1502 0.1118 0.115 Uiso 0.382(13) 1 calc PR A 2
C126 C 0.2761(10) 0.1834(11) 0.1476(6) 0.093(2) Uani 0.382(13) 1 d PDU A 2
C127 C 0.2316(10) 0.1665(11) 0.1327(5) 0.092(2) Uani 0.382(13) 1 d PDU A 2
C128 C 0.2329(12) 0.1381(15) 0.1029(6) 0.095(3) Uani 0.382(13) 1 d PDU A 2
H12D H 0.2624 0.1295 0.0923 0.114 Uiso 0.382(13) 1 calc PR A 2
C129 C 0.1866(12) 0.1235(17) 0.0900(6) 0.099(3) Uani 0.382(13) 1 d PDU A 2
H12E H 0.1844 0.1040 0.0699 0.119 Uiso 0.382(13) 1 calc PR A 2
C130 C 0.1442(12) 0.1372(15) 0.1064(6) 0.097(3) Uani 0.382(13) 1 d PDU A 2
H13B H 0.1138 0.1268 0.0969 0.117 Uiso 0.382(13) 1 calc PR A 2
C131 C 0.1439(11) 0.1657(13) 0.1363(6) 0.096(3) Uani 0.382(13) 1 d PDU A 2
H13C H 0.1143 0.1742 0.1469 0.115 Uiso 0.382(13) 1 calc PR A 2
C132 C 0.1887(10) 0.1805(11) 0.1495(5) 0.093(2) Uani 0.382(13) 1 d PDU A 2
C133 C 0.1891(11) 0.2100(12) 0.1798(5) 0.095(2) Uani 0.382(13) 1 d PDU A 2
C134 C 0.1465(11) 0.2245(16) 0.1978(6) 0.099(3) Uani 0.382(13) 1 d PDU A 2
H13D H 0.1156 0.2135 0.1889 0.119 Uiso 0.382(13) 1 calc PR A 2
C135 C 0.1470(13) 0.254(2) 0.2279(6) 0.101(3) Uani 0.382(13) 1 d PDU A 2
H13E H 0.1176 0.2629 0.2387 0.121 Uiso 0.382(13) 1 calc PR A 2
C136 C 0.1924(13) 0.270(2) 0.2409(6) 0.097(3) Uani 0.382(13) 1 d PDU A 2
H13F H 0.1952 0.2891 0.2610 0.116 Uiso 0.382(13) 1 calc PR A 2
C137 C 0.2337(12) 0.2555(15) 0.2234(6) 0.094(3) Uani 0.382(13) 1 d PDU A 2
H13G H 0.2645 0.2665 0.2324 0.113 Uiso 0.382(13) 1 calc PR A 2
C138 C 0.2336(10) 0.2266(12) 0.1937(5) 0.093(2) Uani 0.382(13) 1 d PDU A 2
O121 O 0.4055(9) 0.2330(14) 0.1912(5) 0.114(6) Uani 0.382(13) 1 d PDU A 2
H12F H 0.4307 0.2193 0.1815 0.171 Uiso 0.382(13) 1 calc PR A 2
C201 C 0.8181(6) 0.4464(15) 0.0544(4) 0.152(6) Uani 1 1 d DU C 3
H20A H 0.8493 0.4458 0.0654 0.182 Uiso 1 1 calc R C 3
H20B H 0.8158 0.5097 0.0440 0.182 Uiso 1 1 calc R C 3
C202 C 0.8192(8) 0.3614(15) 0.0305(4) 0.171(8) Uani 1 1 d DU C 3
H20C H 0.7928 0.3711 0.0159 0.205 Uiso 1 1 calc R C 3
H20D H 0.8507 0.3620 0.0199 0.205 Uiso 1 1 calc R C 3
C203 C 0.8126(8) 0.2662(15) 0.0460(4) 0.179(8) Uani 1 1 d DU C 3
H20E H 0.8411 0.2544 0.0589 0.215 Uiso 1 1 calc R C 3
H20F H 0.8116 0.2133 0.0311 0.215 Uiso 1 1 calc R C 3
C204 C 0.7668(9) 0.2614(17) 0.0646(5) 0.214(10) Uani 1 1 d DU C 3
H20G H 0.7378 0.2769 0.0524 0.257 Uiso 1 1 calc R C 3
H20H H 0.7627 0.1954 0.0731 0.257 Uiso 1 1 calc R C 3
C205 C 0.7734(8) 0.3395(15) 0.0899(5) 0.182(8) Uani 1 1 d DU C 3
H20I H 0.7449 0.3381 0.1033 0.218 Uiso 1 1 calc R C 3
H20J H 0.8029 0.3246 0.1016 0.218 Uiso 1 1 calc R C 3
C206 C 0.7781(7) 0.4401(13) 0.0757(4) 0.163(7) Uani 1 1 d DU C 3
H20K H 0.7472 0.4561 0.0655 0.195 Uiso 1 1 calc R C 3
H20L H 0.7832 0.4893 0.0914 0.195 Uiso 1 1 calc R C 3
C211 C 0.7497(6) 0.4233(15) 0.4781(4) 0.151(7) Uani 1 1 d DU D 3
H21B H 0.7799 0.4456 0.4683 0.181 Uiso 1 1 calc R D 3
H21C H 0.7517 0.4422 0.4992 0.181 Uiso 1 1 calc R D 3
C212 C 0.7461(6) 0.3086(15) 0.4758(4) 0.149(7) Uani 1 1 d DU D 3
H21D H 0.7745 0.2788 0.4858 0.179 Uiso 1 1 calc R D 3
H21E H 0.7470 0.2891 0.4547 0.179 Uiso 1 1 calc R D 3
C213 C 0.6995(5) 0.2712(15) 0.4899(4) 0.155(7) Uani 1 1 d DU D 3
H21F H 0.6978 0.1994 0.4878 0.186 Uiso 1 1 calc R D 3
H21G H 0.6994 0.2872 0.5112 0.186 Uiso 1 1 calc R D 3
C214 C 0.6557(5) 0.3170(13) 0.4751(3) 0.122(5) Uani 1 1 d DU D 3
H21H H 0.6256 0.2939 0.4849 0.146 Uiso 1 1 calc R D 3
H21I H 0.6544 0.2