####################################################################### 
# 
# This file contains crystal structure data downloaded from the 
# Cambridge Structural Database (CSD) hosted by the Cambridge 
# Crystallographic Data Centre (CCDC).
# 
# Full information about CCDC data access policies and citation 
# guidelines are available at http://www.ccdc.cam.ac.uk/access/V1 
# 
# Audit and citation data items may have been added by the CCDC. 
# Please retain this information to preserve the provenance of 
# this file and to allow appropriate attribution of the data. 
# 
#######################################################################

data_W
_audit_block_doi                 10.5517/cc11mtq6
_database_code_depnum_ccdc_archive 'CCDC 972368'
loop_
_citation_id
_citation_doi
_citation_year
1 10.1021/ic4029386 2014
_audit_update_record             
;
2014-02-27 deposited with the CCDC.	2024-07-09 downloaded from the CCDC.
;

_audit_creation_method           SHELXL-97
_chemical_name_systematic        
; 
 ? 
;
_chemical_name_common            ?
_chemical_melting_point          ?
_chemical_formula_moiety         'C76 H88 N32 Ni4 W2, 16(H2 O)'
_chemical_formula_sum            'C76 H120 N32 Ni4 O16 W2'
_chemical_formula_weight         2340.58

loop_
_atom_type_symbol
_atom_type_description
_atom_type_scat_dispersion_real
_atom_type_scat_dispersion_imag
_atom_type_scat_source
C C 0.0033 0.0016 'International Tables Vol C Tables 4.2.6.8 and 6.1.1.4'
H H 0.0000 0.0000 'International Tables Vol C Tables 4.2.6.8 and 6.1.1.4'
N N 0.0061 0.0033 'International Tables Vol C Tables 4.2.6.8 and 6.1.1.4'
O O 0.0106 0.0060 'International Tables Vol C Tables 4.2.6.8 and 6.1.1.4'
Ni Ni 0.3393 1.1124 'International Tables Vol C Tables 4.2.6.8 and 6.1.1.4'
W W -0.8490 6.8722 'International Tables Vol C Tables 4.2.6.8 and 6.1.1.4'

_symmetry_cell_setting           monoclinic
_symmetry_space_group_name_H-M   P2(1)/n

loop_
_symmetry_equiv_pos_as_xyz
'x, y, z'
'-x+1/2, y+1/2, -z+1/2'
'-x, -y, -z'
'x-1/2, -y-1/2, z-1/2'

_cell_length_a                   26.2457(15)
_cell_length_b                   13.9671(8)
_cell_length_c                   29.8116(17)
_cell_angle_alpha                90.00
_cell_angle_beta                 95.3110(10)
_cell_angle_gamma                90.00
_cell_volume                     10881.3(11)
_cell_formula_units_Z            4
_cell_measurement_temperature    293(2)
_cell_measurement_reflns_used    2314
_cell_measurement_theta_min      2.378
_cell_measurement_theta_max      26.124

_exptl_crystal_description       block
_exptl_crystal_colour            red-brown
_exptl_crystal_size_max          0.17
_exptl_crystal_size_mid          0.13
_exptl_crystal_size_min          0.11
_exptl_crystal_density_meas      ?
_exptl_crystal_density_diffrn    1.429
_exptl_crystal_density_method    'not measured'
_exptl_crystal_F_000             4752
_exptl_absorpt_coefficient_mu    2.852
_exptl_absorpt_correction_type   multi-scan
_exptl_absorpt_correction_T_min  0.6428
_exptl_absorpt_correction_T_max  0.7444
_exptl_absorpt_process_details   sadabs

_exptl_special_details           
; 
 ? 
;

_diffrn_ambient_temperature      293(2)
_diffrn_radiation_wavelength     0.71073
_diffrn_radiation_type           MoK\a
_diffrn_radiation_source         'fine-focus sealed tube'
_diffrn_radiation_monochromator  graphite
_diffrn_measurement_device_type  'Bruker APEX II CCD area-detector'
_diffrn_measurement_method       '\f and \w scans'
_diffrn_detector_area_resol_mean ?
_diffrn_standards_number         ?
_diffrn_standards_interval_count ?
_diffrn_standards_interval_time  ?
_diffrn_standards_decay_%        ?
_diffrn_reflns_number            53153
_diffrn_reflns_av_R_equivalents  0.0392
_diffrn_reflns_av_sigmaI/netI    0.0487
_diffrn_reflns_limit_h_min       -29
_diffrn_reflns_limit_h_max       31
_diffrn_reflns_limit_k_min       -16
_diffrn_reflns_limit_k_max       15
_diffrn_reflns_limit_l_min       -35
_diffrn_reflns_limit_l_max       31
_diffrn_reflns_theta_min         1.65
_diffrn_reflns_theta_max         25.01
_reflns_number_total             19109
_reflns_number_gt                14357
_reflns_threshold_expression     >2sigma(I)

_computing_data_collection       'APEX2 (Bruker, 2004)'
_computing_cell_refinement       'SAINT-Plus (Bruker, 2001)'
_computing_data_reduction        SAINT-Plus
_computing_structure_solution    'SHELXS-97 (Sheldrick, 2008)'
_computing_structure_refinement  'SHELXL-97 (Sheldrick, 2008)'
_computing_molecular_graphics    'SHELXTL (Sheldrick, 2008)'
_computing_publication_material  SHELXTL

_refine_special_details          
; 
 Refinement of F^2^ against ALL reflections.  The weighted R-factor wR and 
 goodness of fit S are based on F^2^, conventional R-factors R are based 
 on F, with F set to zero for negative F^2^. The threshold expression of 
 F^2^ > 2sigma(F^2^) is used only for calculating R-factors(gt) etc. and is 
 not relevant to the choice of reflections for refinement.  R-factors based 
 on F^2^ are statistically about twice as large as those based on F, and R- 
 factors based on ALL data will be even larger. 
;

_refine_ls_structure_factor_coef Fsqd
_refine_ls_matrix_type           full
_refine_ls_weighting_scheme      calc
_refine_ls_weighting_details     
'calc w=1/[\s^2^(Fo^2^)+(0.0846P)^2^+33.9942P] where P=(Fo^2^+2Fc^2^)/3'
_atom_sites_solution_primary     direct
_atom_sites_solution_secondary   difmap
_atom_sites_solution_hydrogens   geom
_refine_ls_hydrogen_treatment    none
_refine_ls_extinction_method     none
_refine_ls_extinction_coef       ?
_refine_ls_number_reflns         19109
_refine_ls_number_parameters     1190
_refine_ls_number_restraints     0
_refine_ls_R_factor_all          0.0700
_refine_ls_R_factor_gt           0.0493
_refine_ls_wR_factor_ref         0.1538
_refine_ls_wR_factor_gt          0.1363
_refine_ls_goodness_of_fit_ref   1.032
_refine_ls_restrained_S_all      1.032
_refine_ls_shift/su_max          0.001
_refine_ls_shift/su_mean         0.000

loop_
_atom_site_label
_atom_site_type_symbol
_atom_site_fract_x
_atom_site_fract_y
_atom_site_fract_z
_atom_site_U_iso_or_equiv
_atom_site_adp_type
_atom_site_occupancy
_atom_site_symmetry_multiplicity
_atom_site_calc_flag
_atom_site_refinement_flags
_atom_site_disorder_assembly
_atom_site_disorder_group
W1 W 0.321518(10) 0.539231(19) 0.157138(8) 0.02834(9) Uani 1 1 d . . .
W2 W 0.178159(10) 0.84240(2) -0.151983(9) 0.03339(10) Uani 1 1 d . . .
Ni1 Ni 0.49901(4) 0.62811(7) 0.24625(4) 0.0474(3) Uani 1 1 d . . .
Ni2 Ni 0.26628(4) 0.88426(6) 0.21005(3) 0.0390(2) Uani 1 1 d . . .
Ni3 Ni 0.26218(4) 0.66557(7) -0.00813(3) 0.0436(2) Uani 1 1 d . . .
Ni4 Ni 0.26689(4) 0.66626(7) -0.27665(4) 0.0501(3) Uani 1 1 d . . .
O1 O 0.0285(6) 0.2449(13) 0.8800(6) 0.228(7) Uani 1 1 d . . .
H1A H 0.0439 0.3076 0.8940 0.274 Uiso 1 1 d R . .
H1B H 0.0490 0.1918 0.8871 0.274 Uiso 1 1 d R . .
O2 O 0.4285(11) 0.890(4) 0.0893(8) 0.58(4) Uani 1 1 d . . .
H2A H 0.4417 0.9339 0.1086 0.694 Uiso 1 1 d R . .
H2B H 0.4114 0.9305 0.0670 0.694 Uiso 1 1 d R . .
O3 O 0.4506(3) 0.1908(6) 0.2238(4) 0.100(3) Uani 1 1 d . . .
H1O3 H 0.4590 0.2396 0.2399 0.30(15) Uiso 1 1 d R . .
H2O3 H 0.4609 0.2000 0.1980 0.27(14) Uiso 1 1 d R . .
O4 O 0.4125(3) 0.9368(7) 0.8742(4) 0.121(3) Uani 1 1 d . . .
H1O4 H 0.3733 0.9349 0.8710 0.145 Uiso 1 1 d R . .
H2O4 H 0.4091 0.9764 0.8965 0.145 Uiso 1 1 d R . .
O5 O 0.5217(4) 0.8736(7) 0.6868(4) 0.133(4) Uani 1 1 d . . .
H1O5 H 0.5240 0.8303 0.6671 0.160 Uiso 1 1 d R . .
H2O5 H 0.5383 0.8549 0.7110 0.160 Uiso 1 1 d R . .
O6 O 0.2993(5) 0.2143(7) 0.0263(4) 0.150(4) Uani 1 1 d . . .
H1O6 H 0.3203 0.1702 0.0210 0.180 Uiso 1 1 d R . .
H2O6 H 0.3141 0.2509 0.0463 0.180 Uiso 1 1 d R . .
O7 O 0.0863(4) 0.5388(8) 0.1252(4) 0.145(4) Uani 1 1 d . . .
H7A H 0.1194 0.5426 0.1259 0.174 Uiso 1 1 d R . .
H7B H 0.0756 0.5715 0.1008 0.174 Uiso 1 1 d R . .
O8 O 0.2084(7) 0.1716(9) 0.9815(5) 0.208(7) Uani 1 1 d . . .
H1O8 H 0.2390 0.1919 0.9825 0.250 Uiso 1 1 d R . .
H2O8 H 0.2027 0.1382 0.9577 0.250 Uiso 1 1 d R . .
O9 O 0.1669(7) 0.3308(10) 0.0981(5) 0.220(7) Uani 1 1 d . . .
H1O9 H 0.1636 0.3038 0.1233 0.264 Uiso 1 1 d R . .
H2O9 H 0.1954 0.3602 0.1005 0.264 Uiso 1 1 d R . .
O10 O 0.5077(5) 0.8406(12) 0.8595(5) 0.208(7) Uani 1 1 d . . .
H110 H 0.4802 0.8731 0.8567 0.249 Uiso 1 1 d R . .
H210 H 0.5020 0.7904 0.8745 0.249 Uiso 1 1 d R . .
O11 O 0.0947(7) 0.566(2) 0.9190(8) 0.38(2) Uani 1 1 d . . .
H111 H 0.1169 0.5325 0.9346 0.461 Uiso 1 1 d R . .
H211 H 0.0819 0.6051 0.9367 0.461 Uiso 1 1 d R . .
O12 O 0.4407(8) 0.0576(13) 0.9460(7) 0.135(8) Uani 0.50 1 d P . .
H12A H 0.4564 0.0326 0.9710 0.162 Uiso 0.50 1 d PR . .
H12B H 0.4616 0.0627 0.9276 0.162 Uiso 0.50 1 d PR . .
O13 O 0.4973(6) 0.5343(18) 0.0422(5) 0.289(12) Uani 1 1 d . . .
H113 H 0.4716 0.5308 0.0576 0.347 Uiso 1 1 d R . .
H213 H 0.5020 0.5930 0.0364 0.347 Uiso 1 1 d R . .
O14 O 0.3930(11) 0.791(2) 0.1066(9) 0.194(16) Uani 0.50 1 d P . .
H114 H 0.3838 0.7438 0.0901 0.233 Uiso 0.50 1 d PR . .
H214 H 0.3807 0.7837 0.1318 0.233 Uiso 0.50 1 d PR . .
O15 O 0.6463(9) 0.614(3) 0.1938(10) 0.50(3) Uani 1 1 d . . .
H115 H 0.6392 0.6687 0.1828 0.594 Uiso 1 1 d R . .
H215 H 0.6434 0.6163 0.2220 0.594 Uiso 1 1 d R . .
O16 O 0.0991(15) 0.110(2) 0.8847(14) 0.68(5) Uani 1 1 d . . .
H116 H 0.1088 0.0868 0.8605 0.816 Uiso 1 1 d R . .
H216 H 0.1138 0.0782 0.9066 0.816 Uiso 1 1 d R . .
O17 O 0.5577(9) 0.7037(13) 0.9156(8) 0.309(12) Uani 1 1 d . . .
H117 H 0.5699 0.7048 0.9430 0.371 Uiso 1 1 d R . .
H217 H 0.5728 0.6591 0.9025 0.371 Uiso 1 1 d R . .
N1 N 0.4221(2) 0.6297(5) 0.2174(3) 0.0567(18) Uani 1 1 d . . .
N2 N 0.2981(3) 0.7666(4) 0.1785(2) 0.0472(16) Uani 1 1 d . . .
N3 N 0.2885(3) 0.6375(5) 0.0583(2) 0.0514(17) Uani 1 1 d . . .
N4 N 0.4170(4) 0.5221(13) 0.0941(4) 0.154(6) Uani 1 1 d . . .
N5 N 0.3897(3) 0.3589(5) 0.2049(3) 0.077(2) Uani 1 1 d . . .
N6 N 0.2815(5) 0.3467(6) 0.0996(3) 0.103(4) Uani 1 1 d . . .
N7 N 0.1949(3) 0.5446(7) 0.1438(3) 0.076(3) Uani 1 1 d . . .
N8 N 0.5092(3) 0.7631(5) 0.2323(3) 0.060(2) Uani 1 1 d . . .
N9 N 0.5253(3) 0.6223(7) 0.1821(3) 0.068(2) Uani 1 1 d . . .
N10 N 0.4897(3) 0.4869(6) 0.2569(4) 0.085(3) Uani 1 1 d . . .
H10 H 0.4568 0.4735 0.2464 0.102 Uiso 1 1 calc R . .
N11 N 0.4811(3) 0.6899(10) 0.3050(3) 0.087(3) Uani 1 1 d . . .
N12 N 0.0749(2) 0.8786(5) -0.2226(2) 0.0527(17) Uani 1 1 d . . .
N13 N 0.2311(3) 0.9380(4) 0.1552(2) 0.0462(16) Uani 1 1 d . . .
N14 N 0.2011(3) 0.8063(5) 0.2070(2) 0.0511(17) Uani 1 1 d . . .
N15 N 0.3018(3) 0.8444(5) 0.2709(2) 0.0572(19) Uani 1 1 d . . .
H15 H 0.2908 0.8860 0.2914 0.069 Uiso 1 1 calc R . .
N16 N 0.3211(3) 0.9811(5) 0.1899(3) 0.0526(17) Uani 1 1 d . . .
N17 N 0.2729(3) 0.4925(4) 0.2529(2) 0.0447(15) Uani 1 1 d . . .
N18 N 0.3315(3) 0.6986(6) -0.0223(2) 0.0547(18) Uani 1 1 d . . .
N19 N 0.2639(3) 0.8102(5) 0.0052(2) 0.0579(19) Uani 1 1 d . . .
N20 N 0.1901(3) 0.6314(6) 0.0058(2) 0.0617(19) Uani 1 1 d . . .
H20 H 0.1705 0.6374 -0.0209 0.074 Uiso 1 1 calc R . .
N21 N 0.2901(4) 0.5317(5) -0.0226(2) 0.062(2) Uani 1 1 d . . .
N22 N 0.2326(3) 0.6982(5) -0.0744(2) 0.0499(16) Uani 1 1 d . . .
N23 N 0.1987(4) 1.0001(6) -0.0701(3) 0.091(3) Uani 1 1 d . . .
N24 N 0.0831(4) 0.8315(9) -0.0872(3) 0.102(4) Uani 1 1 d . . .
N25 N 0.3036(3) 0.8804(7) -0.1441(3) 0.079(2) Uani 1 1 d . . .
N26 N 0.1247(4) 0.6282(6) -0.1692(3) 0.082(3) Uani 1 1 d . . .
N27 N 0.2213(3) 0.7717(5) -0.2472(2) 0.0537(17) Uani 1 1 d . . .
N28 N 0.3284(4) 0.7383(7) -0.2620(4) 0.092(3) Uani 1 1 d . . .
N29 N 0.2737(5) 0.7470(8) -0.3380(4) 0.092(3) Uani 1 1 d . . .
N30 N 0.2822(5) 0.6168(8) -0.2156(4) 0.101(3) Uani 1 1 d . . .
N31 N 0.2036(4) 0.5911(9) -0.3011(5) 0.109(4) Uani 1 1 d . . .
H31 H 0.2165 0.5371 -0.3129 0.131 Uiso 1 1 calc R . .
N32 N 0.1915(3) 1.0529(5) -0.1980(3) 0.063(2) Uani 1 1 d . . .
C1 C 0.3861(3) 0.6013(5) 0.1977(3) 0.0390(16) Uani 1 1 d . . .
C2 C 0.3050(3) 0.6861(5) 0.1703(2) 0.0350(15) Uani 1 1 d . . .
C3 C 0.3011(3) 0.6037(5) 0.0923(2) 0.0379(16) Uani 1 1 d . . .
C4 C 0.3838(4) 0.5270(8) 0.1161(3) 0.071(3) Uani 1 1 d . . .
C5 C 0.3655(3) 0.4194(5) 0.1877(3) 0.0478(19) Uani 1 1 d . . .
C6 C 0.2962(4) 0.4129(5) 0.1197(3) 0.058(2) Uani 1 1 d . . .
C7 C 0.2387(3) 0.5442(6) 0.1485(2) 0.0457(19) Uani 1 1 d . . .
C8 C 0.2925(3) 0.5113(5) 0.2218(2) 0.0331(15) Uani 1 1 d . . .
C9 C 0.5022(4) 0.8261(8) 0.2638(5) 0.078(3) Uani 1 1 d . . .
C10 C 0.5090(5) 0.9254(9) 0.2554(7) 0.109(5) Uani 1 1 d . . .
H10A H 0.5060 0.9734 0.2766 0.131 Uiso 1 1 calc R . .
C11 C 0.5209(7) 0.9420(13) 0.2110(10) 0.154(9) Uani 1 1 d . . .
H11 H 0.5248 1.0057 0.2029 0.185 Uiso 1 1 calc R . .
C12 C 0.5275(5) 0.8750(11) 0.1778(6) 0.110(5) Uani 1 1 d . . .
H12 H 0.5346 0.8916 0.1489 0.132 Uiso 1 1 calc R . .
C13 C 0.5229(4) 0.7853(8) 0.1911(4) 0.076(3) Uani 1 1 d . . .
C14 C 0.5337(4) 0.7008(10) 0.1648(4) 0.081(3) Uani 1 1 d . . .
C15 C 0.5556(7) 0.7177(15) 0.1203(5) 0.160(7) Uani 1 1 d . . .
H15A H 0.5905 0.6964 0.1223 0.240 Uiso 1 1 calc R . .
H15B H 0.5542 0.7849 0.1133 0.240 Uiso 1 1 calc R . .
H15C H 0.5359 0.6828 0.0970 0.240 Uiso 1 1 calc R . .
C16 C 0.5379(5) 0.5296(10) 0.1619(5) 0.099(4) Uani 1 1 d . . .
H16A H 0.5283 0.5323 0.1297 0.119 Uiso 1 1 calc R . .
H16B H 0.5746 0.5200 0.1664 0.119 Uiso 1 1 calc R . .
C17 C 0.5125(5) 0.4472(9) 0.1806(6) 0.105(5) Uani 1 1 d . . .
H17A H 0.5228 0.3904 0.1650 0.126 Uiso 1 1 calc R . .
H17B H 0.4759 0.4547 0.1732 0.126 Uiso 1 1 calc R . .
C18 C 0.5215(5) 0.4279(8) 0.2309(6) 0.112(5) Uani 1 1 d . . .
H18A H 0.5144 0.3610 0.2365 0.134 Uiso 1 1 calc R . .
H18B H 0.5571 0.4398 0.2408 0.134 Uiso 1 1 calc R . .
C19 C 0.4932(5) 0.4670(11) 0.3042(5) 0.118(5) Uani 1 1 d . . .
H19A H 0.5280 0.4788 0.3171 0.141 Uiso 1 1 calc R . .
H19B H 0.4856 0.3999 0.3088 0.141 Uiso 1 1 calc R . .
C20 C 0.4568(6) 0.5278(15) 0.3283(5) 0.136(7) Uani 1 1 d . . .
H20A H 0.4499 0.4938 0.3555 0.163 Uiso 1 1 calc R . .
H20B H 0.4248 0.5306 0.3093 0.163 Uiso 1 1 calc R . .
C21 C 0.4718(5) 0.6343(14) 0.3425(5) 0.130(6) Uani 1 1 d . . .
H21A H 0.4442 0.6629 0.3574 0.156 Uiso 1 1 calc R . .
H21B H 0.5021 0.6335 0.3636 0.156 Uiso 1 1 calc R . .
C22 C 0.4889(4) 0.7836(10) 0.3061(5) 0.083(4) Uani 1 1 d . . .
C23 C 0.4879(6) 0.8376(13) 0.3482(5) 0.147(7) Uani 1 1 d . . .
H23A H 0.4544 0.8336 0.3586 0.221 Uiso 1 1 calc R . .
H23B H 0.4962 0.9034 0.3431 0.221 Uiso 1 1 calc R . .
H23C H 0.5126 0.8111 0.3706 0.221 Uiso 1 1 calc R . .
C24 C 0.1843(3) 0.9122(6) 0.1456(3) 0.051(2) Uani 1 1 d . . .
C25 C 0.1533(4) 0.9635(9) 0.1117(4) 0.080(3) Uani 1 1 d . . .
H25 H 0.1196 0.9460 0.1031 0.096 Uiso 1 1 calc R . .
C26 C 0.1755(5) 1.0388(9) 0.0927(4) 0.088(4) Uani 1 1 d . . .
H26 H 0.1559 1.0739 0.0710 0.105 Uiso 1 1 calc R . .
C27 C 0.2247(5) 1.0666(8) 0.1033(3) 0.079(3) Uani 1 1 d . . .
H27 H 0.2387 1.1190 0.0896 0.095 Uiso 1 1 calc R . .
C28 C 0.2534(4) 1.0120(5) 0.1363(3) 0.056(2) Uani 1 1 d . . .
C29 C 0.3075(4) 1.0282(6) 0.1550(3) 0.060(2) Uani 1 1 d . . .
C30 C 0.3396(5) 1.0978(8) 0.1321(4) 0.088(4) Uani 1 1 d . . .
H30A H 0.3745 1.0761 0.1347 0.132 Uiso 1 1 calc R . .
H30B H 0.3379 1.1594 0.1461 0.132 Uiso 1 1 calc R . .
H30C H 0.3272 1.1026 0.1009 0.132 Uiso 1 1 calc R . .
C31 C 0.3724(4) 0.9837(8) 0.2129(4) 0.072(3) Uani 1 1 d . . .
H31A H 0.3865 1.0475 0.2105 0.087 Uiso 1 1 calc R . .
H31B H 0.3942 0.9396 0.1983 0.087 Uiso 1 1 calc R . .
C32 C 0.3727(4) 0.9574(8) 0.2617(4) 0.084(3) Uani 1 1 d . . .
H32A H 0.3497 1.0008 0.2752 0.101 Uiso 1 1 calc R . .
H32B H 0.4068 0.9695 0.2760 0.101 Uiso 1 1 calc R . .
C33 C 0.3578(4) 0.8547(7) 0.2737(4) 0.074(3) Uani 1 1 d . . .
H33A H 0.3718 0.8100 0.2532 0.088 Uiso 1 1 calc R . .
H33B H 0.3722 0.8396 0.3040 0.088 Uiso 1 1 calc R . .
C34 C 0.2849(5) 0.7479(6) 0.2843(3) 0.073(3) Uani 1 1 d . . .
H34A H 0.2983 0.7004 0.2647 0.088 Uiso 1 1 calc R . .
H34B H 0.2993 0.7347 0.3148 0.088 Uiso 1 1 calc R . .
C35 C 0.2290(4) 0.7379(6) 0.2821(3) 0.070(3) Uani 1 1 d . . .
H35A H 0.2162 0.7934 0.2970 0.084 Uiso 1 1 calc R . .
H35B H 0.2220 0.6826 0.3002 0.084 Uiso 1 1 calc R . .
C36 C 0.1963(4) 0.7271(7) 0.2367(4) 0.072(3) Uani 1 1 d . . .
H36A H 0.2063 0.6689 0.2221 0.087 Uiso 1 1 calc R . .
H36B H 0.1606 0.7205 0.2424 0.087 Uiso 1 1 calc R . .
C37 C 0.1688(3) 0.8298(7) 0.1739(4) 0.062(3) Uani 1 1 d . . .
C38 C 0.1198(4) 0.7773(10) 0.1610(5) 0.113(5) Uani 1 1 d . . .
H38A H 0.1273 0.7129 0.1526 0.170 Uiso 1 1 calc R . .
H38B H 0.1012 0.8092 0.1361 0.170 Uiso 1 1 calc R . .
H38C H 0.0994 0.7763 0.1862 0.170 Uiso 1 1 calc R . .
C39 C 0.3452(4) 0.7885(8) -0.0198(3) 0.071(3) Uani 1 1 d . . .
C40 C 0.3946(5) 0.8111(12) -0.0304(5) 0.112(5) Uani 1 1 d . . .
H40 H 0.4062 0.8741 -0.0294 0.134 Uiso 1 1 calc R . .
C41 C 0.4245(6) 0.7405(18) -0.0420(6) 0.145(7) Uani 1 1 d . . .
H41 H 0.4572 0.7562 -0.0492 0.174 Uiso 1 1 calc R . .
C42 C 0.4103(5) 0.6453(14) -0.0440(5) 0.120(5) Uani 1 1 d . . .
H42 H 0.4321 0.5973 -0.0524 0.144 Uiso 1 1 calc R . .
C43 C 0.3615(4) 0.6264(8) -0.0328(3) 0.070(3) Uani 1 1 d . . .
C44 C 0.3361(5) 0.5312(8) -0.0310(3) 0.077(3) Uani 1 1 d . . .
C45 C 0.3670(7) 0.4422(10) -0.0388(6) 0.145(7) Uani 1 1 d . . .
H45A H 0.3442 0.3909 -0.0485 0.218 Uiso 1 1 calc R . .
H45B H 0.3866 0.4245 -0.0113 0.218 Uiso 1 1 calc R . .
H45C H 0.3897 0.4549 -0.0616 0.218 Uiso 1 1 calc R . .
C46 C 0.2608(6) 0.4455(7) -0.0143(4) 0.101(4) Uani 1 1 d . . .
H46A H 0.2735 0.4188 0.0146 0.121 Uiso 1 1 calc R . .
H46B H 0.2663 0.3983 -0.0373 0.121 Uiso 1 1 calc R . .
C47 C 0.2043(6) 0.4633(9) -0.0143(4) 0.097(4) Uani 1 1 d . . .
H47A H 0.1881 0.4019 -0.0099 0.116 Uiso 1 1 calc R . .
H47B H 0.1920 0.4853 -0.0442 0.116 Uiso 1 1 calc R . .
C48 C 0.1847(5) 0.5325(9) 0.0190(4) 0.092(4) Uani 1 1 d . . .
H48A H 0.1489 0.5192 0.0219 0.110 Uiso 1 1 calc R . .
H48B H 0.2034 0.5226 0.0483 0.110 Uiso 1 1 calc R . .
C49 C 0.1709(4) 0.7045(9) 0.0354(4) 0.080(3) Uani 1 1 d . . .
H49A H 0.1359 0.6889 0.0405 0.0