####################################################################### 
# 
# This file contains crystal structure data downloaded from the 
# Cambridge Structural Database (CSD) hosted by the Cambridge 
# Crystallographic Data Centre (CCDC).
# 
# Full information about CCDC data access policies and citation 
# guidelines are available at http://www.ccdc.cam.ac.uk/access/V1 
# 
# Audit and citation data items may have been added by the CCDC. 
# Please retain this information to preserve the provenance of 
# this file and to allow appropriate attribution of the data. 
# 
#######################################################################

data_GE1_4a
_audit_block_doi                 10.5517/ccpr49v
_database_code_depnum_ccdc_archive 'CCDC 647847'
loop_
_citation_id
_citation_doi
_citation_year
1 10.1021/ja0752540 2007
_audit_update_record             
;
2007-05-17 deposited with the CCDC.	2024-07-09 downloaded from the CCDC.
;



_audit_creation_method           SHELXL-97

_chemical_name_systematic        
;

?

;

_chemical_name_common            ?
_chemical_melting_point          ?
_chemical_formula_moiety         ?
_chemical_formula_sum            'C79.20 H79.40 I6 N13 O2 Zn3'
_chemical_formula_weight         2202.87

loop_
_atom_type_symbol
_atom_type_description
_atom_type_scat_dispersion_real
_atom_type_scat_dispersion_imag
_atom_type_scat_source
C C 0.0033 0.0016 'International Tables Vol C Tables 4.2.6.8 and 6.1.1.4'
H H 0.0000 0.0000 'International Tables Vol C Tables 4.2.6.8 and 6.1.1.4'
N N 0.0061 0.0033 'International Tables Vol C Tables 4.2.6.8 and 6.1.1.4'
O O 0.0106 0.0060 'International Tables Vol C Tables 4.2.6.8 and 6.1.1.4'
Zn Zn 0.2839 1.4301 'International Tables Vol C Tables 4.2.6.8 and 6.1.1.4'
I I -0.4742 1.8119 'International Tables Vol C Tables 4.2.6.8 and 6.1.1.4'

_symmetry_cell_setting           Orthorhombic
_symmetry_space_group_name_H-M   Pbca

loop_
_symmetry_equiv_pos_as_xyz
'x, y, z'
'-x+1/2, -y, z+1/2'
'-x, y+1/2, -z+1/2'
'x+1/2, -y+1/2, -z'
'-x, -y, -z'
'x-1/2, y, -z-1/2'
'x, -y-1/2, z-1/2'
'-x-1/2, y-1/2, z'

_cell_length_a                   27.881(6)
_cell_length_b                   13.675(3)
_cell_length_c                   45.714(9)
_cell_angle_alpha                90.00
_cell_angle_beta                 90.00
_cell_angle_gamma                90.00
_cell_volume                     17430(6)
_cell_formula_units_Z            8
_cell_measurement_temperature    90(2)
_cell_measurement_reflns_used    9569
_cell_measurement_theta_min      2.271
_cell_measurement_theta_max      27.707

_exptl_crystal_description       needle
_exptl_crystal_colour            yellow
_exptl_crystal_size_max          0.10
_exptl_crystal_size_mid          0.10
_exptl_crystal_size_min          0.05
_exptl_crystal_density_meas      ?
_exptl_crystal_density_diffrn    1.679
_exptl_crystal_density_method    'not measured'
_exptl_crystal_F_000             8557
_exptl_absorpt_coefficient_mu    2.994
_exptl_absorpt_correction_type   multi_scan
_exptl_absorpt_correction_T_min  0.7539
_exptl_absorpt_correction_T_max  0.8647
_exptl_absorpt_process_details   SADABS

_exptl_special_details           
;
?
;

_diffrn_ambient_temperature      90(2)
_diffrn_radiation_wavelength     0.71073
_diffrn_radiation_type           MoK\a
_diffrn_radiation_source         'fine focus rotating anode'
_diffrn_radiation_monochromator  'focusing mirror'
_diffrn_measurement_device_type  'Bruker SMART CCD area detector system'
_diffrn_measurement_method       omega_scan
_diffrn_detector_area_resol_mean ?
_diffrn_standards_number         ?
_diffrn_standards_interval_count ?
_diffrn_standards_interval_time  ?
_diffrn_standards_decay_%        none
_diffrn_reflns_number            197466
_diffrn_reflns_av_R_equivalents  0.0455
_diffrn_reflns_av_sigmaI/netI    0.0289
_diffrn_reflns_limit_h_min       -37
_diffrn_reflns_limit_h_max       36
_diffrn_reflns_limit_k_min       -18
_diffrn_reflns_limit_k_max       18
_diffrn_reflns_limit_l_min       -59
_diffrn_reflns_limit_l_max       60
_diffrn_reflns_theta_min         1.71
_diffrn_reflns_theta_max         28.99
_reflns_number_total             22108
_reflns_number_gt                17113
_reflns_threshold_expression     >2sigma(I)

_computing_data_collection       'Bruker SMART'
_computing_cell_refinement       'Bruker SMART'
_computing_data_reduction        'Bruker SHELXTL'
_computing_structure_solution    'SHELXS-97 (Sheldrick, 1990)'
_computing_structure_refinement  'SHELXL-97 (Sheldrick, 1997)'
_computing_molecular_graphics    'Bruker XP'
_computing_publication_material  'Bruker SHELXTL'

_refine_special_details          
;
Refinement of F^2^ against ALL reflections. The weighted R-factor wR and
goodness of fit S are based on F^2^, conventional R-factors R are based
on F, with F set to zero for negative F^2^. The threshold expression of
F^2^ > 2sigma(F^2^) is used only for calculating R-factors(gt) etc. and is
not relevant to the choice of reflections for refinement. R-factors based
on F^2^ are statistically about twice as large as those based on F, and R-
factors based on ALL data will be even larger.
Several restraints and constraints were applied to cyclohexane(C301 > C336)
on the basis of chemical symmetry of the molecules.
The occupancy factors of the molecules converged as follows:
cyclohexane, 52%(C311 to C316) and 83%(C331 to C336).
Large residual electron density peaks sit around iodide atoms.
;

_refine_ls_structure_factor_coef Fsqd
_refine_ls_matrix_type           full
_refine_ls_weighting_scheme      calc
_refine_ls_weighting_details     
'calc w=1/[\s^2^(Fo^2^)+(0.0461P)^2^+85.4634P] where P=(Fo^2^+2Fc^2^)/3'
_atom_sites_solution_primary     direct
_atom_sites_solution_secondary   difmap
_atom_sites_solution_hydrogens   geom
_refine_ls_hydrogen_treatment    constr
_refine_ls_extinction_method     none
_refine_ls_extinction_coef       ?
_refine_ls_number_reflns         22108
_refine_ls_number_parameters     975
_refine_ls_number_restraints     411
_refine_ls_R_factor_all          0.0697
_refine_ls_R_factor_gt           0.0480
_refine_ls_wR_factor_ref         0.1228
_refine_ls_wR_factor_gt          0.1124
_refine_ls_goodness_of_fit_ref   1.101
_refine_ls_restrained_S_all      1.097
_refine_ls_shift/su_max          0.066
_refine_ls_shift/su_mean         0.002

loop_
_atom_site_label
_atom_site_type_symbol
_atom_site_fract_x
_atom_site_fract_y
_atom_site_fract_z
_atom_site_U_iso_or_equiv
_atom_site_adp_type
_atom_site_occupancy
_atom_site_symmetry_multiplicity
_atom_site_calc_flag
_atom_site_refinement_flags
_atom_site_disorder_assembly
_atom_site_disorder_group
Zn1 Zn 0.25596(2) -0.14480(4) -0.188942(11) 0.02192(11) Uani 1 1 d . . .
Zn2 Zn 0.442746(19) -0.16089(4) 0.070465(11) 0.02326(11) Uani 1 1 d . . .
Zn3 Zn -0.027768(19) -0.14969(4) 0.087198(13) 0.02646(12) Uani 1 1 d . . .
I1 I 0.303478(13) -0.30308(2) -0.195436(8) 0.03380(8) Uani 1 1 d . . .
I2 I 0.166978(13) -0.15294(3) -0.176839(8) 0.03693(9) Uani 1 1 d . . .
I3 I 0.433470(14) -0.34189(3) 0.058602(9) 0.03957(9) Uani 1 1 d . . .
I4 I 0.510702(12) -0.07902(3) 0.097964(7) 0.03719(9) Uani 1 1 d . . .
I5 I -0.010722(14) -0.22598(3) 0.037477(9) 0.04419(11) Uani 1 1 d . . .
I6 I -0.076495(15) -0.23398(3) 0.126915(11) 0.05058(12) Uani 1 1 d . . .
C1 C 0.31170(19) -0.1130(3) -0.13570(10) 0.0283(10) Uani 1 1 d . . .
H1A H 0.3111 -0.1824 -0.1358 0.034 Uiso 1 1 calc R . .
C2 C 0.33323(19) -0.0648(3) -0.11229(10) 0.0267(10) Uani 1 1 d . . .
H2A H 0.3465 -0.1008 -0.0965 0.032 Uiso 1 1 calc R . .
C3 C 0.2946(2) 0.0326(4) -0.15830(11) 0.0312(11) Uani 1 1 d . . .
H3A H 0.2814 0.0669 -0.1745 0.037 Uiso 1 1 calc R . .
C4 C 0.31577(19) 0.0857(3) -0.13601(11) 0.0286(10) Uani 1 1 d . . .
H4A H 0.3171 0.1550 -0.1369 0.034 Uiso 1 1 calc R . .
C5 C 0.33499(16) 0.0357(3) -0.11243(9) 0.0200(8) Uani 1 1 d . . .
C6 C 0.35780(16) 0.0884(3) -0.08762(10) 0.0204(8) Uani 1 1 d . . .
C7 C 0.4178(2) 0.4679(4) -0.10130(11) 0.0313(11) Uani 1 1 d . . .
H7A H 0.4130 0.5008 -0.1194 0.038 Uiso 1 1 calc R . .
C8 C 0.3998(2) 0.3753(4) -0.09807(11) 0.0315(11) Uani 1 1 d . . .
H8A H 0.3829 0.3450 -0.1136 0.038 Uiso 1 1 calc R . .
C9 C 0.44775(17) 0.4674(4) -0.05421(11) 0.0269(10) Uani 1 1 d . . .
H9A H 0.4643 0.5000 -0.0389 0.032 Uiso 1 1 calc R . .
C10 C 0.43060(18) 0.3745(4) -0.04929(11) 0.0281(10) Uani 1 1 d . . .
H10A H 0.4351 0.3436 -0.0309 0.034 Uiso 1 1 calc R . .
C11 C 0.40654(16) 0.3264(3) -0.07176(10) 0.0212(9) Uani 1 1 d . . .
C12 C 0.39062(15) 0.2234(3) -0.06828(10) 0.0202(9) Uani 1 1 d . . .
C13 C 0.44375(19) 0.0100(4) 0.02951(11) 0.0304(11) Uani 1 1 d . . .
H13A H 0.4625 0.0384 0.0446 0.036 Uiso 1 1 calc R . .
C14 C 0.43173(19) 0.0668(4) 0.00581(11) 0.0299(11) Uani 1 1 d . . .
H14A H 0.4422 0.1328 0.0046 0.036 Uiso 1 1 calc R . .
C15 C 0.4049(2) -0.1237(4) 0.01048(10) 0.0299(11) Uani 1 1 d . . .
H15A H 0.3962 -0.1908 0.0118 0.036 Uiso 1 1 calc R . .
C16 C 0.3910(2) -0.0712(4) -0.01399(10) 0.0301(11) Uani 1 1 d . . .
H16A H 0.3728 -0.1018 -0.0290 0.036 Uiso 1 1 calc R . .
C17 C 0.40386(17) 0.0260(3) -0.01642(9) 0.0216(9) Uani 1 1 d . . .
C18 C 0.39019(16) 0.0838(3) -0.04268(9) 0.0220(9) Uani 1 1 d . . .
C21 C 0.33760(16) -0.1342(3) 0.08142(10) 0.0222(9) Uani 1 1 d . . .
H21A H 0.3357 -0.1542 0.0615 0.027 Uiso 1 1 calc R . .
C22 C 0.29561(16) -0.1172(3) 0.09643(9) 0.0201(8) Uani 1 1 d . . .
H22A H 0.2655 -0.1233 0.0869 0.024 Uiso 1 1 calc R . .
C23 C 0.38327(15) -0.0961(3) 0.12161(9) 0.0197(8) Uani 1 1 d . . .
H23A H 0.4139 -0.0876 0.1303 0.024 Uiso 1 1 calc R . .
C24 C 0.34312(16) -0.0795(3) 0.13843(9) 0.0198(8) Uani 1 1 d . . .
H24A H 0.3461 -0.0605 0.1583 0.024 Uiso 1 1 calc R . .
C25 C 0.29818(15) -0.0910(3) 0.12573(9) 0.0171(8) Uani 1 1 d . . .
C26 C 0.25396(15) -0.0761(3) 0.14322(9) 0.0170(8) Uani 1 1 d . . .
C27 C 0.27256(16) 0.0294(3) 0.25873(9) 0.0202(8) Uani 1 1 d . . .
H27A H 0.3032 0.0295 0.2679 0.024 Uiso 1 1 calc R . .
C28 C 0.26838(16) -0.0068(3) 0.23054(9) 0.0199(8) Uani 1 1 d . . .
H28A H 0.2958 -0.0303 0.2204 0.024 Uiso 1 1 calc R . .
C29 C 0.19128(17) 0.0605(4) 0.26096(10) 0.0252(10) Uani 1 1 d . . .
H29A H 0.1643 0.0835 0.2716 0.030 Uiso 1 1 calc R . .
C30 C 0.18453(17) 0.0240(3) 0.23299(10) 0.0237(9) Uani 1 1 d . . .
H30A H 0.1533 0.0213 0.2247 0.028 Uiso 1 1 calc R . .
C31 C 0.22379(16) -0.0082(3) 0.21732(9) 0.0182(8) Uani 1 1 d . . .
C32 C 0.21901(15) -0.0395(3) 0.18628(9) 0.0172(8) Uani 1 1 d . . .
C33 C 0.04095(19) -0.1040(5) 0.13554(12) 0.0398(13) Uani 1 1 d . . .
H33A H 0.0127 -0.1070 0.1471 0.048 Uiso 1 1 calc R . .
C34 C 0.08452(18) -0.0880(5) 0.14943(11) 0.0378(13) Uani 1 1 d . . .
H34A H 0.0858 -0.0788 0.1700 0.045 Uiso 1 1 calc R . .
C35 C 0.07737(17) -0.1107(4) 0.09060(10) 0.0250(9) Uani 1 1 d . . .
H35A H 0.0753 -0.1175 0.0700 0.030 Uiso 1 1 calc R . .
C36 C 0.12188(16) -0.0962(3) 0.10319(10) 0.0225(9) Uani 1 1 d . . .
H36A H 0.1497 -0.0935 0.0912 0.027 Uiso 1 1 calc R . .
C37 C 0.12594(16) -0.0858(3) 0.13285(9) 0.0191(8) Uani 1 1 d . . .
C38 C 0.17329(15) -0.0734(3) 0.14682(9) 0.0180(8) Uani 1 1 d . . .
N1 N 0.29199(14) -0.0649(3) -0.15794(8) 0.0239(8) Uani 1 1 d . . .
N2 N 0.44205(13) 0.5141(3) -0.07991(9) 0.0233(8) Uani 1 1 d . . .
N3 N 0.43015(14) -0.0837(3) 0.03227(8) 0.0233(8) Uani 1 1 d . . .
N4 N 0.36770(13) 0.1832(3) -0.09088(8) 0.0206(7) Uani 1 1 d . . .
N5 N 0.40209(14) 0.1781(3) -0.04341(8) 0.0225(8) Uani 1 1 d . . .
N6 N 0.36792(14) 0.0351(3) -0.06399(8) 0.0215(8) Uani 1 1 d . . .
N21 N 0.38099(13) -0.1239(3) 0.09350(8) 0.0195(7) Uani 1 1 d . . .
N22 N 0.23478(14) 0.0642(3) 0.27344(8) 0.0211(8) Uani 1 1 d . . .
N23 N 0.03702(14) -0.1155(3) 0.10654(9) 0.0232(8) Uani 1 1 d . . .
N24 N 0.25982(13) -0.0522(3) 0.17148(7) 0.0169(7) Uani 1 1 d . . .
N25 N 0.17472(13) -0.0488(3) 0.17517(8) 0.0187(7) Uani 1 1 d . . .
N26 N 0.21192(13) -0.0873(3) 0.12983(8) 0.0174(7) Uani 1 1 d . . .
C101 C 0.2658(2) 0.2019(3) 0.17454(13) 0.0401(13) Uani 1 1 d DU A 1
C102 C 0.2387(3) 0.2268(3) 0.19895(15) 0.058(2) Uani 1 1 d DU A 1
H10B H 0.2047 0.2285 0.1978 0.069 Uiso 1 1 calc R A 1
C103 C 0.2615(4) 0.2489(4) 0.22461(14) 0.066(2) Uani 1 1 d DU A 1
H10C H 0.2426 0.2687 0.2408 0.079 Uiso 1 1 calc R A 1
C104 C 0.3097(4) 0.2440(4) 0.22819(16) 0.066(2) Uani 1 1 d DU A 1
H10D H 0.3240 0.2586 0.2465 0.079 Uiso 1 1 calc R A 1
C105 C 0.3384(3) 0.2166(5) 0.20387(17) 0.066(2) Uani 1 1 d DU A 1
H10E H 0.3722 0.2124 0.2058 0.079 Uiso 1 1 calc R A 1
C106 C 0.3158(2) 0.1953(4) 0.17634(13) 0.0406(13) Uani 1 1 d DU A 1
C107 C 0.3449(2) 0.1732(4) 0.15058(15) 0.0439(14) Uani 1 1 d DU A 1
C108 C 0.3958(3) 0.1681(5) 0.1515(2) 0.066(2) Uani 1 1 d DU A 1
H10F H 0.4116 0.1775 0.1697 0.079 Uiso 1 1 calc R A 1
C109 C 0.4229(3) 0.1500(5) 0.1270(3) 0.078(3) Uani 1 1 d DU A 1
H10G H 0.4568 0.1460 0.1284 0.093 Uiso 1 1 calc R A 1
C110 C 0.4004(3) 0.1378(5) 0.1004(2) 0.069(2) Uani 1 1 d DU A 1
H11A H 0.4191 0.1273 0.0833 0.082 Uiso 1 1 calc R A 1
C111 C 0.3520(3) 0.1407(4) 0.09849(16) 0.0527(18) Uani 1 1 d DU A 1
H11B H 0.3370 0.1313 0.0800 0.063 Uiso 1 1 calc R A 1
C112 C 0.3231(2) 0.1576(4) 0.12377(14) 0.0432(14) Uani 1 1 d DU A 1
C113 C 0.2706(2) 0.1566(3) 0.12175(12) 0.0344(12) Uani 1 1 d DU A 1
C114 C 0.2480(3) 0.1338(4) 0.09506(13) 0.0470(15) Uani 1 1 d DU A 1
H11C H 0.2668 0.1206 0.0782 0.056 Uiso 1 1 calc R A 1
C115 C 0.1978(3) 0.1307(5) 0.09326(18) 0.0578(19) Uani 1 1 d DU A 1
H11D H 0.1825 0.1153 0.0753 0.069 Uiso 1 1 calc R A 1
C116 C 0.1707(3) 0.1505(4) 0.11836(18) 0.0537(18) Uani 1 1 d DU A 1
H11E H 0.1366 0.1486 0.1176 0.064 Uiso 1 1 calc R A 1
C117 C 0.1928(2) 0.1719(4) 0.14321(16) 0.0467(15) Uani 1 1 d DU A 1
H11F H 0.1738 0.1848 0.1600 0.056 Uiso 1 1 calc R A 1
C118 C 0.2421(2) 0.1764(3) 0.14591(12) 0.0359(12) Uani 1 1 d DU A 1
C201 C 0.9293(3) 0.4444(8) 0.22867(17) 0.071(2) Uani 1 1 d U B 2
C202 C 0.9380(3) 0.5428(7) 0.22380(18) 0.070(2) Uani 1 1 d U B 2
H20A H 0.9448 0.5860 0.2395 0.084 Uiso 1 1 calc R B 2
C203 C 0.9363(3) 0.5754(7) 0.19541(19) 0.073(2) Uani 1 1 d U B 2
H20B H 0.9414 0.6429 0.1916 0.088 Uiso 1 1 calc R B 2
C204 C 0.9276(3) 0.5142(6) 0.17280(16) 0.064(2) Uani 1 1 d U B 2
H20C H 0.9272 0.5389 0.1534 0.076 Uiso 1 1 calc R B 2
C205 C 0.9191(3) 0.4139(7) 0.1778(2) 0.076(2) Uani 1 1 d U B 2
H20D H 0.9139 0.3702 0.1620 0.092 Uiso 1 1 calc R B 2
C206 C 0.9185(3) 0.3807(8) 0.2067(2) 0.087(3) Uani 1 1 d U B 2
H20E H 0.9106 0.3146 0.2110 0.104 Uiso 1 1 calc R B 2
N201 N 0.9305(3) 0.4012(12) 0.2585(2) 0.119(4) Uani 1 1 d U B 2
O201 O 0.9338(3) 0.4682(9) 0.27951(17) 0.145(4) Uani 1 1 d U B 2
O202 O 0.9313(4) 0.3111(10) 0.2623(3) 0.184(6) Uani 1 1 d U B 2
C301 C 0.2974(3) 0.4471(6) 0.02920(15) 0.0584(19) Uani 1 1 d DU C 3
H30B H 0.2946 0.5165 0.0233 0.070 Uiso 1 1 calc R C 3
H30C H 0.2960 0.4444 0.0508 0.070 Uiso 1 1 calc R C 3
C302 C 0.3447(3) 0.4083(6) 0.01920(15) 0.064(2) Uani 1 1 d DU C 3
H30D H 0.3708 0.4434 0.0295 0.077 Uiso 1 1 calc R C 3
H30E H 0.3484 0.4207 -0.0020 0.077 Uiso 1 1 calc R C 3
C303 C 0.3493(3) 0.2994(6) 0.02502(16) 0.0601(19) Uani 1 1 d DU C 3
H30F H 0.3792 0.2751 0.0159 0.072 Uiso 1 1 calc R C 3
H30G H 0.3519 0.2885 0.0464 0.072 Uiso 1 1 calc R C 3
C304 C 0.3076(3) 0.2415(7) 0.01337(18) 0.074(2) Uani 1 1 d DU C 3
H30H H 0.3104 0.1728 0.0200 0.089 Uiso 1 1 calc R C 3
H30I H 0.3086 0.2419 -0.0083 0.089 Uiso 1 1 calc R C 3
C305 C 0.2602(3) 0.2821(6) 0.02337(15) 0.067(2) Uani 1 1 d DU C 3
H30J H 0.2569 0.2716 0.0447 0.080 Uiso 1 1 calc R C 3
H30K H 0.2339 0.2463 0.0135 0.080 Uiso 1 1 calc R C 3
C306 C 0.2556(3) 0.3905(6) 0.01674(15) 0.067(2) Uani 1 1 d DU C 3
H30L H 0.2543 0.4003 -0.0047 0.081 Uiso 1 1 calc R C 3
H30M H 0.2253 0.4156 0.0252 0.081 Uiso 1 1 calc R C 3
C311 C -0.0166(6) 0.0888(12) 0.1717(4) 0.085(5) Uani 0.520(9) 1 d PDU D 3
H31A H -0.0489 0.0637 0.1667 0.102 Uiso 0.520(9) 1 calc PR D 3
H31B H 0.0036 0.0325 0.1773 0.102 Uiso 0.520(9) 1 calc PR D 3
C312 C -0.0205(8) 0.1559(18) 0.1963(5) 0.131(9) Uani 0.520(9) 1 d PDU D 3
H31C H -0.0286 0.1181 0.2141 0.157 Uiso 0.520(9) 1 calc PR D 3
H31D H -0.0471 0.2021 0.1925 0.157 Uiso 0.520(9) 1 calc PR D 3
C313 C 0.0244(9) 0.2129(18) 0.2018(4) 0.131(9) Uani 0.520(9) 1 d PDU D 3
H31E H 0.0174 0.2633 0.2168 0.158 Uiso 0.520(9) 1 calc PR D 3
H31F H 0.0487 0.1681 0.2102 0.158 Uiso 0.520(9) 1 calc PR D 3
C314 C 0.0458(8) 0.2625(12) 0.1756(3) 0.099(7) Uani 0.520(9) 1 d PDU D 3
H31G H 0.0771 0.2922 0.1808 0.119 Uiso 0.520(9) 1 calc PR D 3
H31H H 0.0242 0.3151 0.1687 0.119 Uiso 0.520(9) 1 calc PR D 3
C315 C 0.0527(6) 0.1878(10) 0.1518(3) 0.072(5) Uani 0.520(9) 1 d PDU D 3
H31I H 0.0763 0.1382 0.1582 0.087 Uiso 0.520(9) 1 calc PR D 3
H31J H 0.0653 0.2199 0.1340 0.087 Uiso 0.520(9) 1 calc PR D 3
C316 C 0.0049(6) 0.1385(13) 0.1451(4) 0.091(6) Uani 0.520(9) 1 d PDU D 3
H31K H -0.0179 0.1881 0.1376 0.109 Uiso 0.520(9) 1 calc PR D 3
H31L H 0.0098 0.0892 0.1295 0.109 Uiso 0.520(9) 1 calc PR D 3
C321 C 0.2750(5) 0.7445(8) 0.9368(3) 0.113(4) Uani 1 1 d DU E 3
H32A H 0.2768 0.8126 0.9295 0.136 Uiso 1 1 calc R E 3
H32B H 0.2447 0.7373 0.9479 0.136 Uiso 1 1 calc R E 3
C322 C 0.3153(5) 0.7259(8) 0.9561(3) 0.118(4) Uani 1 1 d DU E 3
H32C H 0.3133 0.7703 0.9731 0.142 Uiso 1 1 calc R E 3
H32D H 0.3455 0.7405 0.9456 0.142 Uiso 1 1 calc R E 3
C323 C 0.3164(5) 0.6228(8) 0.9666(2) 0.111(4) Uani 1 1 d DU E 3
H32E H 0.3458 0.6129 0.9783 0.133 Uiso 1 1 calc R E 3
H32F H 0.2885 0.6115 0.9795 0.133 Uiso 1 1 calc R E 3
C324 C 0.3155(3) 0.5490(7) 0.94254(18) 0.071(2) Uani 1 1 d DU E 3
H32G H 0.3471 0.5488 0.9326 0.086 Uiso 1 1 calc R E 3
H32H H 0.3105 0.4834 0.9511 0.086 Uiso 1 1 calc R E 3
C325 C 0.2776(3) 0.5673(7) 0.9204(2) 0.083(3) Uani 1 1 d DU E 3
H32I H 0.2462 0.5474 0.9286 0.099 Uiso 1 1 calc R E 3
H32J H 0.2840 0.5266 0.9030 0.099 Uiso 1 1 calc R E 3
C326 C 0.2751(4) 0.6745(7) 0.9112(2) 0.095(3) Uani 1 1 d DU E 3
H32K H 0.3029 0.6895 0.8985 0.115 Uiso 1 1 calc R E 3
H32L H 0.2456 0.6849 0.8996 0.115 Uiso 1 1 calc R E 3
C331 C 0.9426(9) 1.023(2) 0.2322(6) 0.