
#######################################################################
#
#                 Cambridge Crystallographic Data Centre
#                                CCDC
#
#######################################################################
#
# If this CIF has been generated from an entry in the Cambridge
# Structural Database, then it will include bibliographic, chemical,
# crystal, experimental, refinement or atomic coordinate data resulting
# from the CCDC's data processing and validation procedures.
#
#######################################################################

data_CSD_CIF_CIYWOX
_audit_creation_date 2008-08-28
_audit_creation_method CSD-ConQuest-V1
_database_code_CSD CIYWOX
_database_code_depnum_ccdc_archive 'CCDC 686058'
_chemical_formula_sum 'C216 H371 B3 Cu6 F12 N48 O118'
_chemical_formula_moiety
;
C216 H198 Cu6 N48 O30 6+,3(B1 F4 1-),3(H1 O1 1-),85(H2 O1)
;
_journal_coden_Cambridge 1147
_journal_volume 8
_journal_year 2008
_journal_page_first 802
_journal_name_full 'Cryst.Growth Des. '
loop_
_publ_author_name
"Yan Wang"
"T.Okamura"
"Wei-Yin Sun"
"N.Ueyama"
_chemical_name_systematic
;
octakis(\m~3~-N',N'',N'''-tris(Pyrid-4-ylmethyl)-1,3,5-benzenetricarboxamido)-
hexahydroxy-hexa-copper(ii) tris(tetrafluoroborate) trihydroxide hydrate
;
_chemical_name_common
;
Teaching Subset: Fundamental Chemistry, Symmetry
;
_cell_volume  22518.940
_exptl_crystal_colour 'blue'
_exptl_crystal_description 'block'
_diffrn_ambient_temperature 200
_refine_special_details
;
The tetrafluorobroate ion is disordered by symmetry.

;
#These two values have been output from a single CSD field.
_refine_ls_R_factor_gt 0.1573
_refine_ls_wR_factor_gt 0.1573
_symmetry_cell_setting cubic
_symmetry_space_group_name_H-M 'I 4 3 2'
_symmetry_Int_Tables_number 211
loop_
_symmetry_equiv_pos_site_id
_symmetry_equiv_pos_as_xyz
1 x,y,z
2 z,x,y
3 y,z,x
4 -x,-z,-y
5 -y,-x,-z
6 -z,-y,-x
7 x,-y,-z
8 z,-x,-y
9 y,-z,-x
10 -x,z,y
11 -y,x,z
12 -z,y,x
13 -x,y,-z
14 -z,x,-y
15 -y,z,-x
16 x,-z,y
17 y,-x,z
18 z,-y,x
19 -x,-y,z
20 -z,-x,y
21 -y,-z,x
22 x,z,-y
23 y,x,-z
24 z,y,-x
25 1/2+x,1/2+y,1/2+z
26 1/2+z,1/2+x,1/2+y
27 1/2+y,1/2+z,1/2+x
28 1/2-x,1/2-z,1/2-y
29 1/2-y,1/2-x,1/2-z
30 1/2-z,1/2-y,1/2-x
31 1/2+x,1/2-y,1/2-z
32 1/2+z,1/2-x,1/2-y
33 1/2+y,1/2-z,1/2-x
34 1/2-x,1/2+z,1/2+y
35 1/2-y,1/2+x,1/2+z
36 1/2-z,1/2+y,1/2+x
37 1/2-x,1/2+y,1/2-z
38 1/2-z,1/2+x,1/2-y
39 1/2-y,1/2+z,1/2-x
40 1/2+x,1/2-z,1/2+y
41 1/2+y,1/2-x,1/2+z
42 1/2+z,1/2-y,1/2+x
43 1/2-x,1/2-y,1/2+z
44 1/2-z,1/2-x,1/2+y
45 1/2-y,1/2-z,1/2+x
46 1/2+x,1/2+z,1/2-y
47 1/2+y,1/2+x,1/2-z
48 1/2+z,1/2+y,1/2-x
_cell_length_a 28.239(19)
_cell_length_b 28.239(19)
_cell_length_c 28.239(19)
_cell_angle_alpha 90
_cell_angle_beta 90
_cell_angle_gamma 90
_cell_formula_units_Z 2
loop_
_atom_type_symbol
_atom_type_radius_bond
C 0.68
H 0.23
B 0.83
Cu 1.52
F 0.64
N 0.68
O 0.68
loop_
_atom_site_label
_atom_site_type_symbol
_atom_site_fract_x
_atom_site_fract_y
_atom_site_fract_z
O1 O 0.75000 0.6431(4) 0.1431(4)
O2 O 0.0863(7) 0.2172(7) -0.0023(9)
O3 O 0.0482(4) 0.1285(5) 0.0014(7)
O4 O 0.1384(8) 0.2193(6) 0.0837(8)
O5 O 0.1350(3) 0.1350(3) 0.1350(3)
O6 O 0.9203(2) 0.0797(2) 0.0797(2)
Cu1 Cu 0.50000 0.50000 0.13609(7)
O7 O 0.6065(4) 0.7203(4) 0.2125(4)
O8 O 0.50000 0.50000 0.2210(4)
N1 N 0.6610(4) 0.6863(4) 0.1687(4)
H1 H 0.69070 0.67690 0.16730
N2 N 0.5413(2) 0.5573(2) 0.1333(3)
C1 C 0.6816(4) 0.7102(4) 0.2502(4)
C2 C 0.6769(4) 0.7454(4) 0.2819(5)
H2 H 0.65130 0.76710 0.27950
C3 C 0.6459(5) 0.7049(4) 0.2065(5)
C4 C 0.6316(7) 0.6803(5) 0.1287(5)
H3 H 0.65170 0.67730 0.10020
H4 H 0.61180 0.70900 0.12480
C5 C 0.5355(4) 0.5917(4) 0.1017(4)
H5 H 0.51060 0.58790 0.07940
C6 C 0.5619(6) 0.6315(6) 0.0983(5)
H6 H 0.55580 0.65460 0.07460
C7 C 0.5995(5) 0.6375(5) 0.1319(5)
C8 C 0.6043(6) 0.6038(5) 0.1655(4)
H7 H 0.62740 0.60750 0.18960
C9 C 0.5753(3) 0.5636(4) 0.1650(4)
H8 H 0.58030 0.53980 0.18840
F1? F 0.50000 0.50000 0.0419(5)
F2? F 0.514(8) 0.544(3) -0.0214(7)
F3? F 0.531(7) 0.467(6) -0.0218(7)
F4? F 0.456(2) 0.491(9) -0.0221(7)
B1? B 0.50000 0.50000 -0.0064(6)
Cu1E Cu 0.86391 0.50000 0.50000(7)
Cu1C Cu 0.50000 0.86391 0.50000(7)
Cu1D Cu 0.50000 0.50000 0.86391(7)
Cu1B Cu 0.50000 0.13609 0.50000(7)
Cu1A Cu 0.13609 0.50000 0.50000(7)
O7M O 0.7875(4) 0.6065(4) 0.2797(4)
O7E O 0.7875(4) 0.2797(4) 0.3935(4)
O7P O 0.7203(4) 0.3935(4) 0.2125(4)
O7J O 0.2797(4) 0.6065(4) 0.2125(4)
O7C O 0.3935(4) 0.7875(4) 0.2797(4)
O7H O 0.7203(4) 0.7875(4) 0.3935(4)
O7T O 0.2797(4) 0.7875(4) 0.6065(4)
O7L O 0.3935(4) 0.7203(4) 0.7875(4)
O7V O 0.7203(4) 0.6065(4) 0.7875(4)
O7O O 0.6065(4) 0.7875(4) 0.7203(4)
O7K O 0.7875(4) 0.7203(4) 0.6065(4)
O7S O 0.7875(4) 0.3935(4) 0.7203(4)
O7B O 0.7203(4) 0.2125(4) 0.6065(4)
O7U O 0.6065(4) 0.2125(4) 0.2797(4)
O7I O 0.3935(4) 0.2125(4) 0.7203(4)
O7Q O 0.2125(4) 0.2797(4) 0.6065(4)
O7G O 0.2125(4) 0.3935(4) 0.2797(4)
O7N O 0.2797(4) 0.2125(4) 0.3935(4)
O7R O 0.3935(4) 0.2797(4) 0.2125(4)
O7A O 0.2125(4) 0.6065(4) 0.7203(4)
O7W O 0.2125(4) 0.7203(4) 0.3935(4)
O7D O 0.2797(4) 0.3935(4) 0.7875(4)
O7F O 0.6065(4) 0.2797(4) 0.7875(4)
O8E O 0.77900 0.50000 0.5000(4)
O8C O 0.50000 0.77900 0.5000(4)
O8D O 0.50000 0.50000 0.7790(4)
O8B O 0.50000 0.22100 0.5000(4)
O8A O 0.22100 0.50000 0.5000(4)
N1M N 0.8313(4) 0.6610(4) 0.3137(4)
N1E N 0.8313(4) 0.3137(4) 0.3390(4)
N1P N 0.6863(4) 0.3390(4) 0.1687(4)
N1J N 0.3137(4) 0.6610(4) 0.1687(4)
N1C N 0.3390(4) 0.8313(4) 0.3137(4)
N1H N 0.6863(4) 0.8313(4) 0.3390(4)
N1T N 0.3137(4) 0.8313(4) 0.6610(4)
N1L N 0.3390(4) 0.6863(4) 0.8313(4)
N1V N 0.6863(4) 0.6610(4) 0.8313(4)
N1O N 0.6610(4) 0.8313(4) 0.6863(4)
N1K N 0.8313(4) 0.6863(4) 0.6610(4)
N1S N 0.8313(4) 0.3390(4) 0.6863(4)
N1B N 0.6863(4) 0.1687(4) 0.6610(4)
N1U N 0.6610(4) 0.1687(4) 0.3137(4)
N1I N 0.3390(4) 0.1687(4) 0.6863(4)
N1Q N 0.1687(4) 0.3137(4) 0.6610(4)
N1G N 0.1687(4) 0.3390(4) 0.3137(4)
N1N N 0.3137(4) 0.1687(4) 0.3390(4)
N1R N 0.3390(4) 0.3137(4) 0.1687(4)
N1A N 0.1687(4) 0.6610(4) 0.6863(4)
N1W N 0.1687(4) 0.6863(4) 0.3390(4)
N1D N 0.3137(4) 0.3390(4) 0.8313(4)
N1F N 0.6610(4) 0.3137(4) 0.8313(4)
H1M H 0.83270 0.69070 0.32310
H1E H 0.83270 0.32310 0.30930
H1P H 0.67690 0.30930 0.16730
H1J H 0.32310 0.69070 0.16730
H1C H 0.30930 0.83270 0.32310
H1H H 0.67690 0.83270 0.30930
H1T H 0.32310 0.83270 0.69070
H1L H 0.30930 0.67690 0.83270
H1V H 0.67690 0.69070 0.83270
H1O H 0.69070 0.83270 0.67690
H1K H 0.83270 0.67690 0.69070
H1S H 0.83270 0.30930 0.67690
H1B H 0.67690 0.16730 0.69070
H1U H 0.69070 0.16730 0.32310
H1I H 0.30930 0.16730 0.67690
H1Q H 0.16730 0.32310 0.69070
H1G H 0.16730 0.30930 0.32310
H1N H 0.32310 0.16730 0.30930
H1R H 0.30930 0.32310 0.16730
H1A H 0.16730 0.69070 0.67690
H1W H 0.16730 0.67690 0.30930
H1D H 0.32310 0.30930 0.83270
H1F H 0.69070 0.32310 0.83270
N2M N 0.8667(2) 0.5413(2) 0.4427(3)
N2E N 0.8667(2) 0.4427(2) 0.4587(3)
N2P N 0.5573(2) 0.4587(2) 0.1333(3)
N2J N 0.4427(2) 0.5413(2) 0.1333(3)
N2C N 0.4587(2) 0.8667(2) 0.4427(3)
N2H N 0.5573(2) 0.8667(2) 0.4587(3)
N2T N 0.4427(2) 0.8667(2) 0.5413(3)
N2L N 0.4587(2) 0.5573(2) 0.8667(3)
N2V N 0.5573(2) 0.5413(2) 0.8667(3)
N2O N 0.5413(2) 0.8667(2) 0.5573(3)
N2K N 0.8667(2) 0.5573(2) 0.5413(3)
N2S N 0.8667(2) 0.4587(2) 0.5573(3)
N2B N 0.5573(2) 0.1333(2) 0.5413(3)
N2U N 0.5413(2) 0.1333(2) 0.4427(3)
N2I N 0.4587(2) 0.1333(2) 0.5573(3)
N2Q N 0.1333(2) 0.4427(2) 0.5413(3)
N2G N 0.1333(2) 0.4587(2) 0.4427(3)
N2N N 0.4427(2) 0.1333(2) 0.4587(3)
N2R N 0.4587(2) 0.4427(2) 0.1333(3)
N2A N 0.1333(2) 0.5413(2) 0.5573(3)
N2W N 0.1333(2) 0.5573(2) 0.4587(3)
N2D N 0.4427(2) 0.4587(2) 0.8667(3)
N2F N 0.5413(2) 0.4427(2) 0.8667(3)
C1H C 0.7102(4) 0.7498(4) 0.3184(4)
C1M C 0.7498(4) 0.6816(4) 0.2898(4)
C1E C 0.7498(4) 0.2898(4) 0.3184(4)
C1U C 0.6816(4) 0.2502(4) 0.2898(4)
C1P C 0.7102(4) 0.3184(4) 0.2502(4)
C1J C 0.2898(4) 0.6816(4) 0.2502(4)
C1W C 0.2502(4) 0.7102(4) 0.3184(4)
C1C C 0.3184(4) 0.7498(4) 0.2898(4)
C1T C 0.2898(4) 0.7498(4) 0.6816(4)
C1A C 0.2502(4) 0.6816(4) 0.7102(4)
C1L C 0.3184(4) 0.7102(4) 0.7498(4)
C1V C 0.7102(4) 0.6816(4) 0.7498(4)
C1K C 0.7498(4) 0.7102(4) 0.6816(4)
C1O C 0.6816(4) 0.7498(4) 0.7102(4)
C1S C 0.7498(4) 0.3184(4) 0.7102(4)
C1F C 0.6816(4) 0.2898(4) 0.7498(4)
C1B C 0.7102(4) 0.2502(4) 0.6816(4)
C1I C 0.3184(4) 0.2502(4) 0.7102(4)
C1D C 0.2898(4) 0.3184(4) 0.7498(4)
C1Q C 0.2502(4) 0.2898(4) 0.6816(4)
C1G C 0.2502(4) 0.3184(4) 0.2898(4)
C1R C 0.3184(4) 0.2898(4) 0.2502(4)
C1N C 0.2898(4) 0.2502(4) 0.3184(4)
C2H C 0.7454(4) 0.7181(4) 0.3231(5)
C2M C 0.7181(4) 0.6769(4) 0.2546(5)
C2E C 0.7181(4) 0.2546(4) 0.3231(5)
C2U C 0.6769(4) 0.2819(4) 0.2546(5)
C2P C 0.7454(4) 0.3231(4) 0.2819(5)
C2J C 0.2546(4) 0.6769(4) 0.2819(5)
C2W C 0.2819(4) 0.7454(4) 0.3231(5)
C2C C 0.3231(4) 0.7181(4) 0.2546(5)
C2T C 0.2546(4) 0.7181(4) 0.6769(5)
C2A C 0.2819(4) 0.6769(4) 0.7454(5)
C2L C 0.3231(4) 0.7454(4) 0.7181(5)
C2V C 0.7454(4) 0.6769(4) 0.7181(5)
C2K C 0.7181(4) 0.7454(4) 0.6769(5)
C2O C 0.6769(4) 0.7181(4) 0.7454(5)
C2S C 0.7181(4) 0.3231(4) 0.7454(5)
C2F C 0.6769(4) 0.2546(4) 0.7181(5)
C2B C 0.7454(4) 0.2819(4) 0.6769(5)
C2I C 0.3231(4) 0.2819(4) 0.7454(5)
C2D C 0.2546(4) 0.3231(4) 0.7181(5)
C2Q C 0.2819(4) 0.2546(4) 0.6769(5)
C2G C 0.2819(4) 0.3231(4) 0.2546(5)
C2R C 0.3231(4) 0.2546(4) 0.2819(5)
C2N C 0.2546(4) 0.2819(4) 0.3231(5)
H2M H 0.72050 0.65130 0.23290
H2P H 0.76710 0.34870 0.27950
H2C H 0.34870 0.72050 0.23290
H2L H 0.34870 0.76710 0.72050
H2O H 0.65130 0.72050 0.76710
H2K H 0.72050 0.76710 0.65130
H2B H 0.76710 0.27950 0.65130
H2Q H 0.27950 0.23290 0.65130
H2N H 0.23290 0.27950 0.34870
H2R H 0.34870 0.23290 0.27950
H2G H 0.27950 0.34870 0.23290
H2D H 0.23290 0.34870 0.72050
H2I H 0.34870 0.27950 0.76710
H2F H 0.65130 0.23290 0.72050
H2S H 0.72050 0.34870 0.76710
H2V H 0.76710 0.65130 0.72050
H2A H 0.27950 0.65130 0.76710
H2T H 0.23290 0.72050 0.65130
H2W H 0.27950 0.76710 0.34870
H2J H 0.23290 0.65130 0.27950
H2U H 0.65130 0.27950 0.23290
H2E H 0.72050 0.23290 0.34870
H2H H 0.76710 0.72050 0.34870
C3M C 0.7935(5) 0.6459(4) 0.2951(5)
C3E C 0.7935(5) 0.2951(4) 0.3541(5)
C3P C 0.7049(5) 0.3541(4) 0.2065(5)
C3J C 0.2951(5) 0.6459(4) 0.2065(5)
C3C C 0.3541(5) 0.7935(4) 0.2951(5)
C3H C 0.7049(5) 0.7935(4) 0.3541(5)
C3T C 0.2951(5) 0.7935(4) 0.6459(5)
C3L C 0.3541(5) 0.7049(4) 0.7935(5)
C3V C 0.7049(5) 0.6459(4) 0.7935(5)
C3O C 0.6459(5) 0.7935(4) 0.7049(5)
C3K C 0.7935(5) 0.7049(4) 0.6459(5)
C3S C 0.7935(5) 0.3541(4) 0.7049(5)
C3B C 0.7049(5) 0.2065(4) 0.6459(5)
C3U C 0.6459(5) 0.2065(4) 0.2951(5)
C3I C 0.3541(5) 0.2065(4) 0.7049(5)
C3Q C 0.2065(5) 0.2951(4) 0.6459(5)
C3G C 0.2065(5) 0.3541(4) 0.2951(5)
C3N C 0.2951(5) 0.2065(4) 0.3541(5)
C3R C 0.3541(5) 0.2951(4) 0.2065(5)
C3A C 0.2065(5) 0.6459(4) 0.7049(5)
C3W C 0.2065(5) 0.7049(4) 0.3541(5)
C3D C 0.2951(5) 0.3541(4) 0.7935(5)
C3F C 0.6459(5) 0.2951(4) 0.7935(5)
C4M C 0.8713(7) 0.6316(5) 0.3197(5)
C4E C 0.8713(7) 0.3197(5) 0.3684(5)
C4P C 0.6803(7) 0.3684(5) 0.1287(5)
C4J C 0.3197(7) 0.6316(5) 0.1287(5)
C4C C 0.3684(7) 0.8713(5) 0.3197(5)
C4H C 0.6803(7) 0.8713(5) 0.3684(5)
C4T C 0.3197(7) 0.8713(5) 0.6316(5)
C4L C 0.3684(7) 0.6803(5) 0.8713(5)
C4V C 0.6803(7) 0.6316(5) 0.8713(5)
C4O C 0.6316(7) 0.8713(5) 0.6803(5)
C4K C 0.8713(7) 0.6803(5) 0.6316(5)
C4S C 0.8713(7) 0.3684(5) 0.6803(5)
C4B C 0.6803(7) 0.1287(5) 0.6316(5)
C4U C 0.6316(7) 0.1287(5) 0.3197(5)
C4I C 0.3684(7) 0.1287(5) 0.6803(5)
C4Q C 0.1287(7) 0.3197(5) 0.6316(5)
C4G C 0.1287(7) 0.3684(5) 0.3197(5)
C4N C 0.3197(7) 0.1287(5) 0.3684(5)
C4R C 0.3684(7) 0.3197(5) 0.1287(5)
C4A C 0.1287(7) 0.6316(5) 0.6803(5)
C4W C 0.1287(7) 0.6803(5) 0.3684(5)
C4D C 0.3197(7) 0.3684(5) 0.8713(5)
C4F C 0.6316(7) 0.3197(5) 0.8713(5)
H3M H 0.89980 0.65170 0.32270
H3P H 0.67730 0.34830 0.10020
H3C H 0.34830 0.89980 0.32270
H3H H 0.67730 0.89980 0.34830
H3L H 0.34830 0.67730 0.89980
H3O H 0.65170 0.89980 0.67730
H3K H 0.89980 0.67730 0.65170
H3B H 0.67730 0.10020 0.65170
H3U H 0.65170 0.10020 0.32270
H3Q H 0.10020 0.32270 0.65170
H3N H 0.32270 0.10020 0.34830
H3R H 0.34830 0.32270 0.10020
H3G H 0.10020 0.34830 0.32270
H3A H 0.10020 0.65170 0.67730
H3W H 0.10020 0.67730 0.34830
H3D H 0.32270 0.34830 0.89980
H3F H 0.65170 0.32270 0.89980
H3I H 0.34830 0.10020 0.67730
H3S H 0.89980 0.34830 0.67730
H3V H 0.67730 0.65170 0.89980
H3T H 0.32270 0.89980 0.65170
H3J H 0.32270 0.65170 0.10020
H3E H 0.89980 0.32270 0.34830
H4M H 0.87520 0.61180 0.29100
H4P H 0.70900 0.38820 0.12480
H4C H 0.38820 0.87520 0.29100
H4H H 0.70900 0.87520 0.38820
H4L H 0.38820 0.70900 0.87520
H4O H 0.61180 0.87520 0.70900
H4K H 0.87520 0.70900 0.61180
H4B H 0.70900 0.12480 0.61180
H4U H 0.61180 0.12480 0.29100
H4Q H 0.12480 0.29100 0.61180
H4N H 0.29100 0.12480 0.38820
H4R H 0.38820 0.29100 0.12480
H4G H 0.12480 0.38820 0.29100
H4A H 0.12480 0.61180 0.70900
H4W H 0.12480 0.70900 0.38820
H4D H 0.29100 0.38820 0.87520
H4F H 0.61180 0.29100 0.87520
H4I H 0.38820 0.12480 0.70900
H4S H 0.87520 0.38820 0.70900
H4V H 0.70900 0.61180 0.87520
H4T H 0.29100 0.87520 0.61180
H4J H 0.29100 0.61180 0.12480
H4E H 0.87520 0.29100 0.38820
C5M C 0.8983(4) 0.5355(4) 0.4083(4)
C5E C 0.8983(4) 0.4083(4) 0.4645(4)
C5P C 0.5917(4) 0.4645(4) 0.1017(4)
C5J C 0.4083(4) 0.5355(4) 0.1017(4)
C5C C 0.4645(4) 0.8983(4) 0.4083(4)
C5H C 0.5917(4) 0.8983(4) 0.4645(4)
C5T C 0.4083(4) 0.8983(4) 0.5355(4)
C5L C 0.4645(4) 0.5917(4) 0.8983(4)
C5V C 0.5917(4) 0.5355(4) 0.8983(4)
C5O C 0.5355(4) 0.8983(4) 0.5917(4)
C5K C 0.8983(4) 0.5917(4) 0.5355(4)
C5S C 0.8983(4) 0.4645(4) 0.5917(4)
C5B C 0.5917(4) 0.1017(4) 0.5355(4)
C5U C 0.5355(4) 0.1017(4) 0.4083(4)
C5I C 0.4645(4) 0.1017(4) 0.5917(4)
C5Q C 0.1017(4) 0.4083(4) 0.5355(4)
C5G C 0.1017(4) 0.4645(4) 0.4083(4)
C5N C 0.4083(4) 0.1017(4) 0.4645(4)
C5R C 0.4645(4) 0.4083(4) 0.1017(4)
C5A C 0.1017(4) 0.5355(4) 0.5917(4)
C5W C 0.1017(4) 0.5917(4) 0.4645(4)
C5D C 0.4083(4) 0.4645(4) 0.8983(4)
C5F C 0.5355(4) 0.4083(4) 0.8983(4)
H5E H 0.92060 0.41210 0.48940
H5J H 0.41210 0.51060 0.07940
H5H H 0.58790 0.92060 0.48940
H5T H 0.41210 0.92060 0.51060
H5V H 0.58790 0.51060 0.92060
H5O H 0.51060 0.92060 0.58790
H5S H 0.92060 0.48940 0.58790
H5U H 0.51060 0.07940 0.41210
H5I H 0.48940 0.07940 0.58790
H5G H 0.07940 0.48940 0.41210
H5N H 0.41210 0.07940 0.48940
H5R H 0.48940 0.41210 0.07940
H5A H 0.07940 0.51060 0.58790
H5W H 0.07940 0.58790 0.48940
H5Q H 0.07940 0.41210 0.51060
H5F H 0.51060 0.41210 0.92060
H5D H 0.41210 0.48940 0.92060
H5B H 0.58790 0.07940 0.51060
H5K H 0.92060 0.58790 0.51060
H5L H 0.48940 0.58790 0.92060
H5C H 0.48940 0.92060 0.41210
H5P H 0.58790 0.48940 0.07940
H5M H 0.92060 0.51060 0.41210
C6M C 0.9017(6) 0.5619(6) 0.3685(5)
C6E C 0.9017(6) 0.3685(6) 0.4381(5)
C6P C 0.6315(6) 0.4381(6) 0.0983(5)
C6J C 0.3685(6) 0.5619(6) 0.0983(5)
C6C C 0.4381(6) 0.9017(6) 0.3685(5)
C6H C 0.6315(6) 0.9017(6) 0.4381(5)
C6T C 0.3685(6) 0.9017(6) 0.5619(5)
C6L C 0.4381(6) 0.6315(6) 0.9017(5)
C6V C 0.6315(6) 0.5619(6) 0.9017(5)
C6O C 0.5619(6) 0.9017(6) 0.6315(5)
C6K C 0.9017(6) 0.6315(6) 0.5619(5)
C6S C 0.9017(6) 0.4381(6) 0.6315(5)
C6B C 0.6315(6) 0.0983(6) 0.5619(5)
C6U C 0.5619(6) 0.0983(6) 0.3685(5)
C6I C 0.4381(6) 0.0983(6) 0.6315(5)
C6Q C 0.0983(6) 0.3685(6) 0.5619(5)
C6G C 0.0983(6) 0.4381(6) 0.3685(5)
C6N C 0.3685(6) 0.0983(6) 0.4381(5)
C6R C 0.4381(6) 0.3685(6) 0.0983(5)
C6A C 0.0983(6) 0.5619(6) 0.6315(5)
C6W C 0.0983(6) 0.6315(6) 0.4381(5)
C6D C 0.3685(6) 0.4381(6) 0.9017(5)
C6F C 0.5619(6) 0.3685(6) 0.9017(5)
H6E H 0.92540 0.34540 0.44420
H6J H 0.34540 0.55580 0.07460
H6H H 0.65460 0.92540 0.44420
H6T H 0.34540 0.92540 0.55580
H6V H 0.65460 0.55580 0.92540
H6O H 0.55580 0.92540 0.65460
H6S H 0.92540 0.44420 0.65460
H6U H 0.55580 0.07460 0.34540
H6I H 0.44420 0.07460 0.65460
H6G H 0.07460 0.44420 0.34540
H6N H 0.34540 0.07460 0.44420
H6R H 0.44420 0.34540 0.07460
H6A H 0.07460 0.55580 0.65460
H6W H 0.07460 0.65460 0.44420
H6Q H 0.07460 0.34540 0.55580
H6F H 0.55580 0.34540 0.92540
H6D H 0.34540 0.44420 0.92540
H6B H 0.65460 0.07460 0.55580
H6K H 0.92540 0.65460 0.55580
H6L H 0.44420 0.65460 0.92540
H6C H 0.44420 0.92540 0.34540
H6P H 0.65460 0.44420 0.07460
H6M H 0.92540 0.55580 0.34540
C7M C 0.8681(5) 0.5995(5) 0.3625(5)
C7E C 0.8681(5) 0.3625(5) 0.4005(5)
C7P C 0.6375(5) 0.4005(5) 0.1319(5)
C7J C 0.3625(5) 0.5995(5) 0.1319(5)
C7C C 0.4005(5) 0.8681(5) 0.3625(5)
C7H C 0.6375(5) 0.8681(5) 0.4005(5)
C7T C 0.3625(5) 0.8681(5) 0.5995(5)
C7L C 0.4005(5) 0.6375(5) 0.8681(5)
C7V C 0.6375(5) 0.5995(5) 0.8681(5)
C7O C 0.5995(5) 0.8681(5) 0.6375(5)
C7K C 0.8681(5) 0.6375(5) 0.5995(5)
C7S C 0.8681(5) 0.4005(5) 0.6375(5)
C7B C 0.6375(5) 0.1319(5) 0.5995(5)
C7U C 0.5995(5) 0.1319(5) 0.3625(5)
C7I C 0.4005(5) 0.1319(5) 0.6375(5)
C7Q C 0.1319(5) 0.3625(5) 0.5995(5)
C7G C 0.1319(5) 0.4005(5) 0.3625(5)
C7N C 0.3625(5) 0.1319(5) 0.4005(5)
C7R C 0.4005(5) 0.3625(5) 0.1319(5)
C7A C 0.1319(5) 0.5995(5) 0.6375(5)
C7W C 0.1319(5) 0.6375(5) 0.4005(5)
C7D C 0.3625(5) 0.4005(5) 0.8681(5)
C7F C 0.5995(5) 0.3625(5) 0.8681(5)
C8H C 0.6038(6) 0.8345(5) 0.3957(4)
C8O C 0.6043(6) 0.8345(5) 0.6038(4)
C8U C 0.6043(6) 0.1655(5) 0.3962(4)
C8N C 0.3962(6) 0.1655(5) 0.3957(4)
C8R C 0.3957(6) 0.3962(5) 0.1655(4)
C8G C 0.1655(6) 0.3957(5) 0.3962(4)
C8A C 0.1655(6) 0.6043(5) 0.6038(4)
C8W C 0.1655(6) 0.6038(5) 0.3957(4)
C8Q C 0.1655(6) 0.3962(5) 0.6043(4)
C8F C 0.6043(6) 0.3962(5) 0.8345(4)
C8D C 0.3962(6) 0.3957(5) 0.8345(4)
C8I C 0.3957(6) 0.1655(5) 0.6038(4)
C8B C 0.6038(6) 0.1655(5) 0.6043(4)
C8S C 0.8345(6) 0.3957(5) 0.6038(4)
C8K C 0.8345(6) 0.6038(5) 0.6043(4)
C8V C 0.6038(6) 0.6043(5) 0.8345(4)
C8L C 0.3957(6) 0.6038(5) 0.8345(4)
C8T C 0.3962(6) 0.8345(5) 0.6043(4)
C8C C 0.3957(6) 0.8345(5) 0.3962(4)
C8J C 0.3962(6) 0.6043(5) 0.1655(4)
C8P C 0.6038(6) 0.3957(5) 0.1655(4)
C8E C 0.8345(6) 0.3962(5) 0.3957(4)
C8M C 0.8345(6) 0.6043(5) 0.3962(4)
H7H H 0.60750 0.81040 0.37260
H7O H 0.62740 0.81040 0.60750
H7U H 0.62740 0.18960 0.39250
H7N H 0.39250 0.18960 0.37260
H7R H 0.37260 0.39250 0.18960
H7G H 0.18960 0.37260 0.39250
H7A H 0.18960 0.62740 0.60750
H7W H 0.18960 0.60750 0.37260
H7Q H 0.18960 0.39250 0.62740
H7F H 0.62740 0.39250 0.81040
H7D H 0.39250 0.37260 0.81040
H7I H 0.37260 0.18960 0.60750
H7B H 0.60750 0.18960 0.62740
H7S H 0.81040 0.37260 0.60750
H7K H 0.81040 0.60750 0.62740
H7V H 0.60750 0.62740 0.81040
H7L H 0.37260 0.60750 0.81040
H7T H 0.39250 0.81040 0.62740
H7C H 0.37260 0.81040 0.39250
H7J H 0.39250 0.62740 0.18960
H7P H 0.60750 0.37260 0.18960
H7E H 0.81040 0.39250 0.37260
H7M H 0.81040 0.62740 0.39250
C9H C 0.5636(3) 0.8350(4) 0.4247(4)
C9O C 0.5753(3) 0.8350(4) 0.5636(4)
C9U C 0.5753(3) 0.1650(4) 0.4364(4)
C9N C 0.4364(3) 0.1650(4) 0.4247(4)
C9R C 0.4247(3) 0.4364(4) 0.1650(4)
C9G C 0.1650(3) 0.4247(4) 0.4364(4)
C9A C 0.1650(3) 0.5753(4) 0.5636(4)
C9W C 0.1650(3) 0.5636(4) 0.4247(4)
C9Q C 0.1650(3) 0.4364(4) 0.5753(4)
C9F C 0.5753(3) 0.4364(4) 0.8350(4)
C9D C 0.4364(3) 0.4247(4) 0.8350(4)
C9I C 0.4247(3) 0.1650(4) 0.5636(4)
C9B C 0.5636(3) 0.1650(4) 0.5753(4)
C9S C 0.8350(3) 0.4247(4) 0.5636(4)
C9K C 0.8350(3) 0.5636(4) 0.5753(4)
C9V C 0.5636(3) 0.5753(4) 0.8350(4)
C9L C 0.4247(3) 0.5636(4) 0.8350(4)
C9T C 0.4364(3) 0.8350(4) 0.5753(4)
C9C C 0.4247(3) 0.8350(4) 0.4364(4)
C9J C 0.4364(3) 0.5753(4) 0.1650(4)
C9P C 0.5636(3) 0.4247(4) 0.1650(4)
C9E C 0.8350(3) 0.4364(4) 0.4247(4)
C9M C 0.8350(3) 0.5753(4) 0.4364(4)
H8H H 0.53980 0.81160 0.41970
H8O H 0.58030 0.81160 0.53980
H8U H 0.58030 0.18840 0.46020
H8N H 0.46020 0.18840 0.41970
H8R H 0.41970 0.46020 0.18840
H8G H 0.18840 0.41970 0.46020
H8A H 0.18840 0.58030 0.53980
H8W H 0.18840 0.53980 0.41970
H8Q H 0.18840 0.46020 0.58030
H8F H 0.58030 0.46020 0.81160
H8D H 0.46020 0.41970 0.81160
H8I H 0.41970 0.18840 0.53980
H8B H 0.53980 0.18840 0.58030
H8S H 0.81160 0.41970 0.53980
H8K H 0.81160 0.53980 0.58030
H8V H 0.53980 0.58030 0.81160
H8L H 0.41970 0.53980 0.81160
H8T H 0.46020 0.81160 0.58030
H8C H 0.41970 0.81160 0.46020
H8J H 0.46020 0.58030 0.18840
H8P H 0.53980 0.41970 0.18840
H8E H 0.81160 0.46020 0.41970
H8M H 0.81160 0.58030 0.46020
#END
