####################################################################### 
# 
# This file contains crystal structure data downloaded from the 
# Cambridge Structural Database (CSD) hosted by the Cambridge 
# Crystallographic Data Centre (CCDC).
# 
# Full information about CCDC data access policies and citation 
# guidelines are available at http://www.ccdc.cam.ac.uk/access/V1 
# 
# Audit and citation data items may have been added by the CCDC. 
# Please retain this information to preserve the provenance of 
# this file and to allow appropriate attribution of the data. 
# 
#######################################################################

data_3_SRSR
_audit_block_doi                 10.5517/cc11mbdd
_database_code_depnum_ccdc_archive 'CCDC 971893'
loop_
_citation_id
_citation_doi
_citation_year
1 10.1002/chem.201304772 2014
_audit_update_record             
;
2013-11-14 deposited with the CCDC.	2024-07-09 downloaded from the CCDC.
;

_audit_creation_method           SHELXL-97
_chemical_name_systematic        
; 
 ? 
;
_chemical_name_common            ?
_chemical_melting_point          ?
_chemical_formula_moiety         ?
_chemical_formula_sum            'C59 H61 Gd N20 O10 W'
_chemical_formula_weight         1551.38
_chemical_absolute_configuration rmad

loop_
_atom_type_symbol
_atom_type_description
_atom_type_scat_dispersion_real
_atom_type_scat_dispersion_imag
_atom_type_scat_source
Gd Gd -0.1653 3.9035 'International Tables Vol C Tables 4.2.6.8 and 6.1.1.4'
W W -0.8490 6.8722 'International Tables Vol C Tables 4.2.6.8 and 6.1.1.4'
C C 0.0033 0.0016 'International Tables Vol C Tables 4.2.6.8 and 6.1.1.4'
H H 0.0000 0.0000 'International Tables Vol C Tables 4.2.6.8 and 6.1.1.4'
N N 0.0061 0.0033 'International Tables Vol C Tables 4.2.6.8 and 6.1.1.4'
O O 0.0106 0.0060 'International Tables Vol C Tables 4.2.6.8 and 6.1.1.4'

_symmetry_cell_setting           orthorhombic
_symmetry_space_group_name_H-M   'P 21 21 21'
_symmetry_space_group_name_Hall  'P 2ac 2ab 2bc'

loop_
_symmetry_equiv_pos_as_xyz
'x, y, z'
'x+1/2, -y+1/2, -z'
'-x, y+1/2, -z+1/2'
'-x+1/2, -y, z+1/2'

_cell_length_a                   17.2812(4)
_cell_length_b                   19.9181(6)
_cell_length_c                   19.9424(6)
_cell_angle_alpha                90.00
_cell_angle_beta                 90.00
_cell_angle_gamma                90.00
_cell_volume                     6864.3(3)
_cell_formula_units_Z            4
_cell_measurement_temperature    90(2)
_cell_measurement_reflns_used    ?
_cell_measurement_theta_min      ?
_cell_measurement_theta_max      ?

_exptl_crystal_description       needle
_exptl_crystal_colour            yellow
_exptl_crystal_size_max          0.40
_exptl_crystal_size_mid          0.13
_exptl_crystal_size_min          0.13
_exptl_crystal_density_meas      ?
_exptl_crystal_density_diffrn    1.501
_exptl_crystal_density_method    'not measured'
_exptl_crystal_F_000             3092
_exptl_absorpt_coefficient_mu    2.700
_exptl_absorpt_correction_type   multi-scan
_exptl_absorpt_correction_T_min  0.4114
_exptl_absorpt_correction_T_max  0.7204
_exptl_absorpt_process_details   'ABSCOR (Rigaku, 1995)'

_exptl_special_details           
; 
 ? 
;

_diffrn_ambient_temperature      90(2)
_diffrn_radiation_wavelength     0.71075
_diffrn_radiation_type           MoK\a
_diffrn_radiation_source         'fine-focus sealed tube'
_diffrn_radiation_monochromator  graphite
_diffrn_measurement_device_type  'Rigaku R-AXIS RAPID'
_diffrn_measurement_method       \w
_diffrn_detector_area_resol_mean ?
_diffrn_standards_number         ?
_diffrn_standards_interval_count ?
_diffrn_standards_interval_time  ?
_diffrn_standards_decay_%        ?
_diffrn_reflns_number            61250
_diffrn_reflns_av_R_equivalents  0.0737
_diffrn_reflns_av_sigmaI/netI    0.0713
_diffrn_reflns_limit_h_min       -22
_diffrn_reflns_limit_h_max       22
_diffrn_reflns_limit_k_min       -25
_diffrn_reflns_limit_k_max       25
_diffrn_reflns_limit_l_min       -25
_diffrn_reflns_limit_l_max       25
_diffrn_reflns_theta_min         3.12
_diffrn_reflns_theta_max         27.48
_reflns_number_total             15320
_reflns_number_gt                14095
_reflns_threshold_expression     >2sigma(I)

_computing_data_collection       'RAPID AUTO'
_computing_cell_refinement       'RAPID AUTO'
_computing_data_reduction        'RAPID AUTO'
_computing_structure_solution    'SHELXS-97 (Sheldrick, 1990)'
_computing_structure_refinement  'SHELXL-97 (Sheldrick, 1997)'
_computing_molecular_graphics    'Mercury 2.3'
_computing_publication_material  ?

_refine_special_details          
; 
 Refinement of F^2^ against ALL reflections.  The weighted R-factor wR and 
 goodness of fit S are based on F^2^, conventional R-factors R are based 
 on F, with F set to zero for negative F^2^. The threshold expression of 
 F^2^ > 2sigma(F^2^) is used only for calculating R-factors(gt) etc. and is 
 not relevant to the choice of reflections for refinement.  R-factors based 
 on F^2^ are statistically about twice as large as those based on F, and R- 
 factors based on ALL data will be even larger. 
;

_refine_ls_structure_factor_coef Fsqd
_refine_ls_matrix_type           full
_refine_ls_weighting_scheme      calc
_refine_ls_weighting_details     
'calc w=1/[\s^2^(Fo^2^)+(0.0035P)^2^+88.4110P] where P=(Fo^2^+2Fc^2^)/3'
_atom_sites_solution_primary     direct
_atom_sites_solution_secondary   difmap
_atom_sites_solution_hydrogens   geom
_refine_ls_hydrogen_treatment    mixed
_refine_ls_extinction_method     none
_refine_ls_extinction_coef       ?
_refine_ls_abs_structure_details 'Flack H D (1983), Acta Cryst. A39, 876-881'
_refine_ls_abs_structure_Flack   0.046(11)
_refine_ls_number_reflns         15320
_refine_ls_number_parameters     826
_refine_ls_number_restraints     41
_refine_ls_R_factor_all          0.0695
_refine_ls_R_factor_gt           0.0629
_refine_ls_wR_factor_ref         0.1351
_refine_ls_wR_factor_gt          0.1310
_refine_ls_goodness_of_fit_ref   1.091
_refine_ls_restrained_S_all      1.094
_refine_ls_shift/su_max          0.002
_refine_ls_shift/su_mean         0.000

loop_
_atom_site_label
_atom_site_type_symbol
_atom_site_fract_x
_atom_site_fract_y
_atom_site_fract_z
_atom_site_U_iso_or_equiv
_atom_site_adp_type
_atom_site_occupancy
_atom_site_symmetry_multiplicity
_atom_site_calc_flag
_atom_site_refinement_flags
_atom_site_disorder_assembly
_atom_site_disorder_group
W1 W 0.64811(2) 0.133292(18) 0.063592(19) 0.01937(9) Uani 1 1 d . . .
Gd1 Gd 0.41126(3) 0.33930(2) 0.12144(2) 0.02014(10) Uani 1 1 d . . .
O6 O 0.4536(4) 0.3564(3) 0.0091(3) 0.0255(15) Uani 1 1 d . . .
O5 O 0.3690(4) 0.2325(3) 0.0815(3) 0.0233(15) Uani 1 1 d . . .
O3 O 0.4363(4) 0.2654(3) 0.2117(4) 0.0290(16) Uani 1 1 d . . .
O4 O 0.3845(4) 0.4567(4) 0.1049(4) 0.0302(16) Uani 1 1 d . . .
O2 O 0.6249(4) 0.4298(4) 0.2291(4) 0.0369(19) Uani 1 1 d . . .
O1 O 0.2245(4) 0.3837(4) 0.2847(4) 0.0333(18) Uani 1 1 d . . .
O8 O 0.3249(5) 0.0300(5) 0.1250(6) 0.060(3) Uani 1 1 d . . .
O10 O 0.2212(8) 0.2504(6) 0.4302(7) 0.095(5) Uani 1 1 d DU . .
O9 O 0.2376(7) 0.2410(7) 0.5676(7) 0.094(4) Uani 1 1 d D . .
O7 O 0.9272(6) 0.0125(7) 0.2084(6) 0.085(4) Uani 1 1 d . . .
N6 N 0.8014(5) 0.0539(5) 0.1248(5) 0.037(2) Uani 1 1 d . . .
N4 N 0.6580(5) -0.0122(5) -0.0147(5) 0.035(2) Uani 1 1 d . . .
N2 N 0.5318(4) 0.2634(4) 0.0959(4) 0.0250(18) Uani 1 1 d . . .
N8 N 0.5639(5) 0.1722(5) -0.0811(5) 0.034(2) Uani 1 1 d . . .
N5 N 0.6133(5) 0.1036(6) 0.2242(5) 0.042(2) Uani 1 1 d . . .
N1 N 0.2891(5) 0.3489(4) 0.0467(4) 0.0271(19) Uani 1 1 d . . .
N3 N 0.4704(5) 0.0720(4) 0.0733(5) 0.031(2) Uani 1 1 d . . .
N7 N 0.7556(5) 0.2533(5) 0.1328(5) 0.035(2) Uani 1 1 d . . .
N15 N 0.4813(5) 0.3311(5) -0.0985(4) 0.031(2) Uani 1 1 d . . .
N14 N 0.3384(4) 0.1646(5) -0.0044(5) 0.034(2) Uani 1 1 d . . .
N12 N 0.4191(5) 0.1674(5) 0.2673(4) 0.034(2) Uani 1 1 d . . .
N13 N 0.3719(5) 0.5544(4) 0.0457(5) 0.032(2) Uani 1 1 d . . .
N11 N 0.5391(5) 0.3990(4) 0.1487(4) 0.028(2) Uani 1 1 d . . .
N10 N 0.4212(5) 0.3991(4) 0.2379(4) 0.0192(16) Uani 1 1 d . . .
N9 N 0.2878(5) 0.3413(5) 0.1966(4) 0.0272(18) Uani 1 1 d . . .
N17 N 0.0872(10) 0.0675(9) 0.4396(10) 0.102(6) Uani 1 1 d . . .
N16 N 0.4929(9) 0.2087(9) 0.5733(10) 0.094(5) Uani 1 1 d . . .
N19 N 0.8678(15) 0.4174(17) 0.2345(14) 0.168(12) Uani 1 1 d . . .
N20 N 0.829(2) 0.155(2) 0.3178(19) 0.238(13) Uani 1 1 d U . .
N21 N 0.5454(12) 0.2725(9) 0.3766(9) 0.107(6) Uani 1 1 d . . .
C6 C 0.7475(5) 0.0808(5) 0.1039(5) 0.028(2) Uani 1 1 d . . .
C4 C 0.6537(6) 0.0366(5) 0.0134(5) 0.025(2) Uani 1 1 d . . .
C2 C 0.5737(5) 0.2176(4) 0.0844(4) 0.0166(18) Uani 1 1 d U . .
C8 C 0.5950(5) 0.1605(5) -0.0302(5) 0.0223(18) Uani 1 1 d . . .
C5 C 0.6260(6) 0.1120(5) 0.1680(5) 0.025(2) Uani 1 1 d U . .
C1 C 0.2401(5) 0.3517(4) 0.0089(4) 0.0157(18) Uani 1 1 d U . .
C3 C 0.5332(6) 0.0926(5) 0.0688(6) 0.029(2) Uani 1 1 d . . .
C7 C 0.7184(6) 0.2111(5) 0.1091(5) 0.024(2) Uani 1 1 d . . .
C43 C 0.4343(6) 0.3377(5) -0.0475(5) 0.027(2) Uani 1 1 d . . .
C40 C 0.3874(6) 0.2005(5) 0.0301(5) 0.025(2) Uani 1 1 d . . .
C34 C 0.4413(6) 0.2030(5) 0.2172(5) 0.024(2) Uani 1 1 d . . .
C37 C 0.3643(6) 0.4870(5) 0.0527(6) 0.031(2) Uani 1 1 d . . .
C45 C 0.5648(6) 0.3431(6) -0.0907(6) 0.037(3) Uani 1 1 d . . .
H45A H 0.5781 0.3432 -0.0429 0.044 Uiso 1 1 calc R . .
H45B H 0.5782 0.3866 -0.1104 0.044 Uiso 1 1 calc R . .
H45C H 0.5937 0.3075 -0.1135 0.044 Uiso 1 1 calc R . .
C44 C 0.4543(8) 0.3059(10) -0.1654(7) 0.071(5) Uani 1 1 d . . .
H44A H 0.4143 0.3360 -0.1830 0.085 Uiso 1 1 calc R . .
H44B H 0.4329 0.2606 -0.1603 0.085 Uiso 1 1 calc R . .
H44C H 0.4981 0.3046 -0.1966 0.085 Uiso 1 1 calc R . .
C41 C 0.3642(7) 0.1264(6) -0.0611(7) 0.046(3) Uani 1 1 d . . .
H41A H 0.4029 0.0936 -0.0466 0.056 Uiso 1 1 calc R . .
H41B H 0.3871 0.1567 -0.0944 0.056 Uiso 1 1 calc R . .
H41C H 0.3200 0.1029 -0.0812 0.056 Uiso 1 1 calc R . .
C42 C 0.2575(6) 0.1563(6) 0.0151(6) 0.037(3) Uani 1 1 d . . .
H42A H 0.2322 0.2003 0.0166 0.044 Uiso 1 1 calc R . .
H42B H 0.2549 0.1354 0.0596 0.044 Uiso 1 1 calc R . .
H42C H 0.2311 0.1277 -0.0176 0.044 Uiso 1 1 calc R . .
C35 C 0.3796(8) 0.2003(7) 0.3248(6) 0.049(3) Uani 1 1 d . . .
H35A H 0.3333 0.2237 0.3088 0.059 Uiso 1 1 calc R . .
H35B H 0.4149 0.2326 0.3457 0.059 Uiso 1 1 calc R . .
H35C H 0.3647 0.1662 0.3578 0.059 Uiso 1 1 calc R . .
C36 C 0.4225(7) 0.0943(5) 0.2678(6) 0.036(3) Uani 1 1 d . . .
H36A H 0.4765 0.0797 0.2640 0.043 Uiso 1 1 calc R . .
H36B H 0.3927 0.0765 0.2299 0.043 Uiso 1 1 calc R . .
H36C H 0.4005 0.0774 0.3099 0.043 Uiso 1 1 calc R . .
C38 C 0.4076(9) 0.5950(6) 0.0994(6) 0.048(3) Uani 1 1 d . . .
H38A H 0.4610 0.5799 0.1066 0.057 Uiso 1 1 calc R . .
H38B H 0.3780 0.5895 0.1409 0.057 Uiso 1 1 calc R . .
H38C H 0.4077 0.6424 0.0862 0.057 Uiso 1 1 calc R . .
C39 C 0.3428(8) 0.5869(6) -0.0136(6) 0.044(3) Uani 1 1 d . . .
H39A H 0.2870 0.5789 -0.0173 0.053 Uiso 1 1 calc R . .
H39B H 0.3689 0.5686 -0.0532 0.053 Uiso 1 1 calc R . .
H39C H 0.3525 0.6352 -0.0107 0.053 Uiso 1 1 calc R . .
C19 C 0.3637(6) 0.4000(5) 0.2809(5) 0.025(2) Uani 1 1 d . . .
C20 C 0.3699(6) 0.4198(5) 0.3477(5) 0.030(2) Uani 1 1 d . . .
H20 H 0.3260 0.4203 0.3763 0.036 Uiso 1 1 calc R . .
C21 C 0.4419(6) 0.4386(5) 0.3710(6) 0.031(2) Uani 1 1 d . . .
H21 H 0.4491 0.4515 0.4164 0.037 Uiso 1 1 calc R . .
C22 C 0.5036(6) 0.4383(5) 0.3264(6) 0.031(2) Uani 1 1 d . . .
H22 H 0.5534 0.4521 0.3409 0.037 Uiso 1 1 calc R . .
C23 C 0.4924(6) 0.4179(5) 0.2608(6) 0.029(2) Uani 1 1 d . . .
C24 C 0.5511(6) 0.4148(5) 0.2099(6) 0.031(2) Uani 1 1 d . . .
C18 C 0.2894(5) 0.3720(5) 0.2520(5) 0.028(2) Uani 1 1 d . . .
C33 C 0.6745(6) 0.4177(6) 0.1692(7) 0.041(3) Uani 1 1 d . . .
H33 H 0.7074 0.3767 0.1749 0.049 Uiso 1 1 calc R . .
C25 C 0.6146(6) 0.4088(6) 0.1121(6) 0.036(3) Uani 1 1 d . . .
H25 H 0.6272 0.3693 0.0832 0.044 Uiso 1 1 calc R . .
C17 C 0.1622(6) 0.3604(6) 0.2421(5) 0.036(3) Uani 1 1 d . . .
H17 H 0.1338 0.3985 0.2205 0.043 Uiso 1 1 calc R . .
C9 C 0.2082(7) 0.3173(6) 0.1893(5) 0.035(3) Uani 1 1 d . . .
H9 H 0.1880 0.3230 0.1427 0.042 Uiso 1 1 calc R . .
C32 C 0.7219(6) 0.4779(6) 0.1529(7) 0.042(3) Uani 1 1 d . . .
H32A H 0.7261 0.5079 0.1924 0.050 Uiso 1 1 calc R . .
H32B H 0.7745 0.4647 0.1386 0.050 Uiso 1 1 calc R . .
C26 C 0.6182(7) 0.4714(5) 0.0745(6) 0.038(3) Uani 1 1 d . . .
C31 C 0.6806(7) 0.5116(7) 0.0980(7) 0.052(4) Uani 1 1 d . . .
C30 C 0.6936(7) 0.5748(6) 0.0674(8) 0.051(4) Uani 1 1 d . . .
H30 H 0.7362 0.6013 0.0816 0.061 Uiso 1 1 calc R . .
C29 C 0.6460(9) 0.5984(7) 0.0178(6) 0.049(3) Uani 1 1 d . . .
H29 H 0.6553 0.6410 -0.0019 0.059 Uiso 1 1 calc R . .
C28 C 0.5831(9) 0.5591(7) -0.0040(7) 0.055(4) Uani 1 1 d . . .
H28 H 0.5493 0.5756 -0.0377 0.066 Uiso 1 1 calc R . .
C27 C 0.5703(7) 0.4949(6) 0.0243(7) 0.041(3) Uani 1 1 d . . .
H27 H 0.5286 0.4679 0.0088 0.050 Uiso 1 1 calc R . .
C16 C 0.1081(6) 0.3131(7) 0.2778(6) 0.042(3) Uani 1 1 d . . .
H16A H 0.0549 0.3173 0.2599 0.051 Uiso 1 1 calc R . .
H16B H 0.1071 0.3227 0.3265 0.051 Uiso 1 1 calc R . .
C15 C 0.1400(7) 0.2427(5) 0.2647(6) 0.034(2) Uani 1 1 d . . .
C10 C 0.1963(6) 0.2451(6) 0.2165(6) 0.034(3) Uani 1 1 d . . .
C11 C 0.2341(6) 0.1866(6) 0.1934(5) 0.028(2) Uani 1 1 d . . .
H11 H 0.2732 0.1882 0.1600 0.034 Uiso 1 1 calc R . .
C12 C 0.2113(6) 0.1282(7) 0.2216(6) 0.036(3) Uani 1 1 d . . .
H12 H 0.2350 0.0878 0.2068 0.044 Uiso 1 1 calc R . .
C13 C 0.1547(7) 0.1240(6) 0.2714(5) 0.037(2) Uani 1 1 d . . .
H13 H 0.1410 0.0819 0.2906 0.044 Uiso 1 1 calc R . .
C14 C 0.1190(7) 0.1826(6) 0.2920(6) 0.038(3) Uani 1 1 d . . .
H14 H 0.0797 0.1810 0.3253 0.046 Uiso 1 1 calc R . .
C53 C 0.842(3) 0.314(2) 0.308(2) 0.28(3) Uani 1 1 d . . .
C52 C 0.865(3) 0.3668(18) 0.262(3) 0.26(3) Uani 1 1 d . . .
C55 C 0.7716(9) 0.0373(10) 0.3120(10) 0.073(5) Uani 1 1 d . . .
H55A H 0.8107 0.0174 0.2824 0.110 Uiso 1 1 calc R . .
H55B H 0.7211 0.0362 0.2897 0.110 Uiso 1 1 calc R . .
H55C H 0.7690 0.0117 0.3539 0.110 Uiso 1 1 calc R . .
C54 C 0.791(2) 0.103(2) 0.3259(18) 0.156(11) Uani 1 1 d U . .
C49 C -0.0143(11) 0.0019(11) 0.3656(10) 0.088(6) Uani 1 1 d . . .
H49A H 0.0118 -0.0350 0.3422 0.132 Uiso 1 1 calc R . .
H49B H -0.0371 0.0325 0.3326 0.132 Uiso 1 1 calc R . .
H49C H -0.0551 -0.0163 0.3944 0.132 Uiso 1 1 calc R . .
C48 C 0.0417(11) 0.0382(9) 0.4064(10) 0.070(5) Uani 1 1 d . . .
C46 C 0.4664(11) 0.2586(10) 0.5420(10) 0.079(6) Uani 1 1 d . . .
C47 C 0.4268(13) 0.3148(11) 0.5092(12) 0.112(8) Uani 1 1 d . . .
H47A H 0.3803 0.2982 0.4864 0.169 Uiso 1 1 calc R . .
H47B H 0.4615 0.3356 0.4764 0.169 Uiso 1 1 calc R . .
H47C H 0.4119 0.3481 0.5430 0.169 Uiso 1 1 calc R . .
C56 C 0.9823(8) -0.0140(9) 0.1637(9) 0.070(5) Uani 1 1 d . . .
H56A H 1.0013 0.0217 0.1343 0.105 Uiso 1 1 calc R . .
H56B H 0.9582 -0.0494 0.1366 0.105 Uiso 1 1 calc R . .
H56C H 1.0256 -0.0329 0.1891 0.105 Uiso 1 1 calc R . .
C57 C 0.2903(11) -0.0247(9) 0.0940(11) 0.097(7) Uani 1 1 d . . .
H57A H 0.2567 -0.0479 0.1261 0.146 Uiso 1 1 calc R . .
H57B H 0.3303 -0.0557 0.0781 0.146 Uiso 1 1 calc R . .
H57C H 0.2594 -0.0092 0.0558 0.146 Uiso 1 1 calc R . .
C50 C 0.5853(10) 0.2675(7) 0.3301(8) 0.057(4) Uani 1 1 d . . .
C51 C 0.6288(11) 0.2647(8) 0.2740(9) 0.076(5) Uani 1 1 d . . .
H51A H 0.5952 0.2676 0.2345 0.115 Uiso 1 1 calc R . .
H51B H 0.6574 0.2223 0.2730 0.115 Uiso 1 1 calc R . .
H51C H 0.6654 0.3023 0.2737 0.115 Uiso 1 1 calc R . .
C59 C 0.2941(16) 0.2823(19) 0.429(2) 0.200(13) Uani 1 1 d DU . .
C58 C 0.1798(10) 0.2184(12) 0.5107(9) 0.116(9) Uani 1 1 d D . .

loop_
_atom_site_aniso_label
_atom_site_aniso_U_11
_atom_site_aniso_U_22
_atom_site_aniso_U_33
_atom_site_aniso_U_23
_atom_site_aniso_U_13
_atom_site_aniso_U_12
W1 0.01873(16) 0.01234(16) 0.02703(18) 0.00302(15) 0.00000(15) 0.00056(14)
Gd1 0.0216(2) 0.0127(2) 0.0261(2) -0.00067(18) -0.00047(18) 0.00091(17)
O6 0.028(4) 0.018(4) 0.031(4) 0.002(3) 0.003(3) 0.001(3)
O5 0.021(4) 0.015(3) 0.034(4) 0.001(3) -0.002(2) 0.002(2)
O3 0.023(4) 0.019(4) 0.045(5) 0.001(3) -0.001(3) 0.000(3)
O4 0.041(4) 0.018(4) 0.032(4) -0.002(3) 0.001(3) -0.002(3)
O2 0.032(4) 0.026(4) 0.053(5) -0.020(4) -0.004(3) -0.005(3)
O1 0.031(4) 0.030(5) 0.038(4) -0.003(3) 0.010(3) 0.000(3)
O8 0.038(5) 0.067(7) 0.074(7) -0.005(6) 0.003(5) -0.014(4)
O10 0.107(9) 0.067(8) 0.112(10) -0.054(8) -0.041(8) 0.059(7)
O9 0.083(9) 0.122(11) 0.078(9) -0.001(9) -0.008(7) 0.025(8)
O7 0.051(7) 0.145(12) 0.059(7) 0.039(7) -0.013(5) 0.020(7)
N6 0.039(5) 0.040(6) 0.033(5) 0.009(4) 0.002(4) 0.004(4)
N4 0.026(5) 0.039(6) 0.040(5) 0.000(4) 0.003(4) -0.004(4)
N2 0.019(4) 0.017(4) 0.039(5) 0.005(4) -0.004(3) -0.003(3)
N8 0.025(5) 0.036(6) 0.040(6) 0.007(4) 0.003(4) 0.001(4)
N5 0.032(5) 0.060(7) 0.033(6) 0.001(5) 0.004(4) 0.004(5)
N1 0.038(5) 0.014(5) 0.030(5) -0.003(3) 0.009(3) 0.003(3)
N3 0.024(4) 0.020(5) 0.047(6) -0.003(4) -0.004(4) 0.004(3)
N7 0.026(5) 0.029(5) 0.051(6) -0.002(4) -0.002(4) -0.003(4)
N15 0.032(5) 0.031(5) 0.030(5) -0.006(4) 0.004(3) 0.003(4)
N14 0.017(4) 0.028(5) 0.056(6) -0.016(4) -0.008(4) 0.011(4)
N12 0.037(5) 0.027(5) 0.037(5) 0.002(4) 0.000(4) -0.005(4)
N13 0.037(5) 0.016(5) 0.043(6) 0.007(4) -0.006(4) 0.000(3)
N11 0.029(5) 0.013(4) 0.041(5) -0.017(4) 0.010(4) -0.006(3)
N10 0.032(4) 0.011(4) 0.014(4) -0.005(3) -0.003(3) 0.002(3)
N9 0.025(4) 0.026(5) 0.030(5) 0.000(4) -0.006(3) 0.004(4)
N17 0.078(11) 0.107(14) 0.121(14) 0.049(12) -0.016(12) -0.023(10)
N16 0.079(11) 0.086(12) 0.118(15) 0.019(11) -0.016(10) 0.009(9)
N19 0.122(19) 0.22(3) 0.16(2) -0.02(2) -0.089(17) 0.03(2)
N20 0.242(16) 0.219(15) 0.253(16) 0.013(10) -0.008(10) -0.020(9)
N21 0.155(17) 0.101(14) 0.064(10) 0.004(10) -0.021(12) 0.048(12)
C6 0.018(5) 0.022(6) 0.044(7) 0.010(4) -0.006(4) 0.005(4)
C4 0.022(5) 0.014(5) 0.038(6) -0.002(4) 0.010(4) 0.005(4)
C2 0.021(4) 0.006(3) 0.023(4) 0.001(3) -0.001(3) 0.004(3)
C8 0.018(4) 0.019(5) 0.030(5) 0.006(4) 0.003(4) 0.002(4)
C5 0.030(5) 0.015(4) 0.030(5) 0.016(4) -0.002(4) 0.001(3)
C1 0.014(3) 0.014(4) 0.019(3) 0.005(3) -0.008(3) 0.004(3)
C3 0.040(6) 0.014(5) 0.033(6) -0.001(4) -0.008(5) 0.004(4)
C7 0.024(5) 0.020(5) 0.027(6) -0.007(4) 0.003(