####################################################################### 
# 
# This file contains crystal structure data downloaded from the 
# Cambridge Structural Database (CSD) hosted by the Cambridge 
# Crystallographic Data Centre (CCDC).
# 
# Full information about CCDC data access policies and citation 
# guidelines are available at http://www.ccdc.cam.ac.uk/access/V1 
# 
# Audit and citation data items may have been added by the CCDC. 
# Please retain this information to preserve the provenance of 
# this file and to allow appropriate attribution of the data. 
# 
#######################################################################

data_3_RSRS
_audit_block_doi                 10.5517/cc11mbff
_database_code_depnum_ccdc_archive 'CCDC 971894'
loop_
_citation_id
_citation_doi
_citation_year
1 10.1002/chem.201304772 2014
_audit_update_record             
;
2013-11-14 deposited with the CCDC.	2024-07-09 downloaded from the CCDC.
;

_audit_creation_method           SHELXL-97
_chemical_name_systematic        
; 
 ? 
;
_chemical_name_common            ?
_chemical_melting_point          ?
_chemical_formula_moiety         ?
_chemical_formula_sum            'C59 H61 Gd N20 O10 W'
_chemical_formula_weight         1551.38
_chemical_absolute_configuration rmad

loop_
_atom_type_symbol
_atom_type_description
_atom_type_scat_dispersion_real
_atom_type_scat_dispersion_imag
_atom_type_scat_source
Gd Gd -0.1653 3.9035 'International Tables Vol C Tables 4.2.6.8 and 6.1.1.4'
W W -0.8490 6.8722 'International Tables Vol C Tables 4.2.6.8 and 6.1.1.4'
C C 0.0033 0.0016 'International Tables Vol C Tables 4.2.6.8 and 6.1.1.4'
H H 0.0000 0.0000 'International Tables Vol C Tables 4.2.6.8 and 6.1.1.4'
N N 0.0061 0.0033 'International Tables Vol C Tables 4.2.6.8 and 6.1.1.4'
O O 0.0106 0.0060 'International Tables Vol C Tables 4.2.6.8 and 6.1.1.4'

_symmetry_cell_setting           orthorhombic
_symmetry_space_group_name_H-M   'P 21 21 21'
_symmetry_space_group_name_Hall  'P 2ac 2ab 2bc'

loop_
_symmetry_equiv_pos_as_xyz
'x, y, z'
'x+1/2, -y+1/2, -z'
'-x, y+1/2, -z+1/2'
'-x+1/2, -y, z+1/2'

_cell_length_a                   17.2970(5)
_cell_length_b                   19.8958(6)
_cell_length_c                   19.8942(7)
_cell_angle_alpha                90.00
_cell_angle_beta                 90.00
_cell_angle_gamma                90.00
_cell_volume                     6846.3(4)
_cell_formula_units_Z            4
_cell_measurement_temperature    90(2)
_cell_measurement_reflns_used    ?
_cell_measurement_theta_min      ?
_cell_measurement_theta_max      ?

_exptl_crystal_description       needle
_exptl_crystal_colour            yellow
_exptl_crystal_size_max          0.30
_exptl_crystal_size_mid          0.08
_exptl_crystal_size_min          0.06
_exptl_crystal_density_meas      ?
_exptl_crystal_density_diffrn    1.505
_exptl_crystal_density_method    'not measured'
_exptl_crystal_F_000             3092
_exptl_absorpt_coefficient_mu    2.707
_exptl_absorpt_correction_type   multi-scan
_exptl_absorpt_correction_T_min  0.4973
_exptl_absorpt_correction_T_max  0.8544
_exptl_absorpt_process_details   'ABSCOR (Rigaku, 1995)'

_exptl_special_details           
; 
 ? 
;

_diffrn_ambient_temperature      90(2)
_diffrn_radiation_wavelength     0.71075
_diffrn_radiation_type           MoK\a
_diffrn_radiation_source         'fine-focus sealed tube'
_diffrn_radiation_monochromator  graphite
_diffrn_measurement_device_type  'Rigaku R-AXIS RAPID'
_diffrn_measurement_method       \w
_diffrn_detector_area_resol_mean ?
_diffrn_standards_number         ?
_diffrn_standards_interval_count ?
_diffrn_standards_interval_time  ?
_diffrn_standards_decay_%        ?
_diffrn_reflns_number            102792
_diffrn_reflns_av_R_equivalents  0.1682
_diffrn_reflns_av_sigmaI/netI    0.1156
_diffrn_reflns_limit_h_min       -22
_diffrn_reflns_limit_h_max       22
_diffrn_reflns_limit_k_min       -25
_diffrn_reflns_limit_k_max       25
_diffrn_reflns_limit_l_min       -25
_diffrn_reflns_limit_l_max       25
_diffrn_reflns_theta_min         3.12
_diffrn_reflns_theta_max         27.48
_reflns_number_total             15610
_reflns_number_gt                11618
_reflns_threshold_expression     >2sigma(I)

_computing_data_collection       'RAPID AUTO'
_computing_cell_refinement       'RAPID AUTO'
_computing_data_reduction        'RAPID AUTO'
_computing_structure_solution    'SHELXS-97 (Sheldrick, 1990)'
_computing_structure_refinement  'SHELXL-97 (Sheldrick, 1997)'
_computing_molecular_graphics    'Mercury 2.3'
_computing_publication_material  ?

_refine_special_details          
; 
 Refinement of F^2^ against ALL reflections.  The weighted R-factor wR and 
 goodness of fit S are based on F^2^, conventional R-factors R are based 
 on F, with F set to zero for negative F^2^. The threshold expression of 
 F^2^ > 2sigma(F^2^) is used only for calculating R-factors(gt) etc. and is 
 not relevant to the choice of reflections for refinement.  R-factors based 
 on F^2^ are statistically about twice as large as those based on F, and R- 
 factors based on ALL data will be even larger. 
;

_refine_ls_structure_factor_coef Fsqd
_refine_ls_matrix_type           full
_refine_ls_weighting_scheme      calc
_refine_ls_weighting_details     
'calc w=1/[\s^2^(Fo^2^)+(0.1126P)^2^+7.2979P] where P=(Fo^2^+2Fc^2^)/3'
_atom_sites_solution_primary     direct
_atom_sites_solution_secondary   difmap
_atom_sites_solution_hydrogens   geom
_refine_ls_hydrogen_treatment    mixed
_refine_ls_extinction_method     SHELXL
_refine_ls_extinction_coef       0.0030(2)
_refine_ls_extinction_expression Fc^*^=kFc[1+0.001xFc^2^\l^3^/sin(2\q)]^-1/4^
_refine_ls_abs_structure_details 'Flack H D (1983), Acta Cryst. A39, 876-881'
_refine_ls_abs_structure_Flack   0.031(14)
_refine_ls_number_reflns         15610
_refine_ls_number_parameters     827
_refine_ls_number_restraints     40
_refine_ls_R_factor_all          0.1081
_refine_ls_R_factor_gt           0.0815
_refine_ls_wR_factor_ref         0.2057
_refine_ls_wR_factor_gt          0.1883
_refine_ls_goodness_of_fit_ref   1.045
_refine_ls_restrained_S_all      1.047
_refine_ls_shift/su_max          0.001
_refine_ls_shift/su_mean         0.000

loop_
_atom_site_label
_atom_site_type_symbol
_atom_site_fract_x
_atom_site_fract_y
_atom_site_fract_z
_atom_site_U_iso_or_equiv
_atom_site_adp_type
_atom_site_occupancy
_atom_site_symmetry_multiplicity
_atom_site_calc_flag
_atom_site_refinement_flags
_atom_site_disorder_assembly
_atom_site_disorder_group
W1 W 0.35207(3) 0.63317(2) 0.56360(3) 0.03068(16) Uani 1 1 d . . .
Gd1 Gd 0.58897(4) 0.83921(3) 0.62146(3) 0.03183(18) Uani 1 1 d . . .
O5 O 0.6325(5) 0.7318(4) 0.5810(4) 0.033(2) Uani 1 1 d . . .
O6 O 0.5464(5) 0.8571(4) 0.5079(5) 0.036(2) Uani 1 1 d . . .
O4 O 0.6153(5) 0.9566(5) 0.6049(5) 0.039(2) Uani 1 1 d . . .
O1 O 0.7752(6) 0.8840(4) 0.7852(5) 0.044(2) Uani 1 1 d . . .
O2 O 0.3755(6) 0.9310(5) 0.7290(5) 0.047(3) Uani 1 1 d . . .
O3 O 0.5646(5) 0.7657(4) 0.7130(5) 0.036(2) Uani 1 1 d . . .
O10 O 0.7199(8) 0.2505(6) 0.4305(7) 0.076(4) Uani 1 1 d DU . .
O9 O 0.7381(7) 0.2581(7) 0.5680(8) 0.082(4) Uani 1 1 d D . .
O8 O 0.6746(7) 0.5310(6) 0.6250(7) 0.069(3) Uani 1 1 d . . .
O7 O 0.0731(8) 0.5126(9) 0.7086(7) 0.092(5) Uani 1 1 d . . .
N2 N 0.4685(6) 0.7651(5) 0.5958(5) 0.033(2) Uani 1 1 d . . .
N7 N 0.2446(7) 0.7539(6) 0.6336(6) 0.043(3) Uani 1 1 d . . .
N6 N 0.1979(7) 0.5547(6) 0.6253(7) 0.050(3) Uani 1 1 d . . .
N4 N 0.3420(7) 0.4870(6) 0.4853(7) 0.050(3) Uani 1 1 d . . .
N3 N 0.5285(6) 0.5723(6) 0.5720(6) 0.039(3) Uani 1 1 d . . .
N8 N 0.4366(7) 0.6728(6) 0.4189(6) 0.044(3) Uani 1 1 d . . .
N5 N 0.3887(8) 0.6028(7) 0.7237(7) 0.050(3) Uani 1 1 d . . .
N9 N 0.7129(6) 0.8407(6) 0.6970(6) 0.037(2) Uani 1 1 d . . .
N10 N 0.5791(7) 0.8987(5) 0.7376(6) 0.039(3) Uani 1 1 d . . .
N11 N 0.4632(6) 0.8986(6) 0.6483(6) 0.039(3) Uani 1 1 d . . .
N13 N 0.6288(8) 1.0540(5) 0.5476(7) 0.049(3) Uani 1 1 d . . .
N15 N 0.5188(7) 0.8322(6) 0.4016(6) 0.045(3) Uani 1 1 d . . .
N12 N 0.5806(7) 0.6672(6) 0.7671(6) 0.044(3) Uani 1 1 d . . .
N1 N 0.7113(5) 0.8484(5) 0.5473(6) 0.034(3) Uani 1 1 d . . .
N14 N 0.6616(6) 0.6635(6) 0.4939(6) 0.041(3) Uani 1 1 d . . .
N17 N 0.9174(13) 0.5662(10) 0.9440(12) 0.108(7) Uani 1 1 d . . .
N19 N 0.1271(15) 0.9232(17) 0.7310(15) 0.150(11) Uani 1 1 d U . .
N18 N 0.4544(17) 0.7722(10) 0.8772(12) 0.126(9) Uani 1 1 d . . .
N20 N 0.171(2) 0.6597(18) 0.8217(18) 0.185(11) Uani 1 1 d U . .
N16 N 0.4912(13) 0.2103(11) 0.4285(12) 0.101(6) Uani 1 1 d . . .
C3 C 0.4668(8) 0.5907(6) 0.5692(9) 0.044(3) Uani 1 1 d . . .
C4 C 0.3462(8) 0.5363(5) 0.5132(7) 0.033(3) Uani 1 1 d . . .
C5 C 0.3746(10) 0.6119(8) 0.6694(10) 0.058(4) Uani 1 1 d . . .
C6 C 0.2509(8) 0.5813(6) 0.6034(6) 0.032(3) Uani 1 1 d . . .
C7 C 0.2803(8) 0.7099(7) 0.6100(7) 0.039(3) Uani 1 1 d . . .
C2 C 0.4277(9) 0.7176(6) 0.5840(7) 0.039(3) Uani 1 1 d . . .
C8 C 0.4058(7) 0.6599(7) 0.4685(7) 0.035(3) Uani 1 1 d U . .
C1 C 0.7590(6) 0.8526(5) 0.5090(6) 0.026(3) Uani 1 1 d . . .
C9 C 0.7935(8) 0.8173(7) 0.6893(8) 0.046(4) Uani 1 1 d . . .
H9 H 0.8143 0.8232 0.6428 0.055 Uiso 1 1 calc R . .
C18 C 0.7087(8) 0.8727(6) 0.7524(7) 0.037(3) Uani 1 1 d . . .
C17 C 0.8390(8) 0.8587(7) 0.7438(7) 0.043(3) Uani 1 1 d . . .
H17 H 0.8677 0.8967 0.7225 0.052 Uiso 1 1 calc R . .
C19 C 0.6358(7) 0.8994(6) 0.7812(6) 0.029(3) Uani 1 1 d . . .
C20 C 0.6290(9) 0.9205(7) 0.8486(8) 0.046(4) Uani 1 1 d . . .
H20 H 0.6729 0.9222 0.8772 0.055 Uiso 1 1 calc R . .
C21 C 0.5588(10) 0.9381(6) 0.8709(9) 0.053(4) Uani 1 1 d . . .
H21 H 0.5515 0.9504 0.9166 0.063 Uiso 1 1 calc R . .
C22 C 0.4963(9) 0.9379(6) 0.8262(8) 0.044(4) Uani 1 1 d . . .
H22 H 0.4464 0.9513 0.8410 0.053 Uiso 1 1 calc R . .
C23 C 0.5077(8) 0.9183(6) 0.7607(7) 0.037(3) Uani 1 1 d . . .
C24 C 0.4476(8) 0.9157(6) 0.7108(8) 0.040(3) Uani 1 1 d . . .
C25 C 0.3857(8) 0.9097(7) 0.6122(8) 0.047(4) Uani 1 1 d . . .
H25 H 0.3722 0.8703 0.5833 0.057 Uiso 1 1 calc R . .
C33 C 0.3266(8) 0.9186(7) 0.6692(8) 0.043(3) Uani 1 1 d . . .
H33 H 0.2943 0.8774 0.6750 0.051 Uiso 1 1 calc R . .
C32 C 0.2777(8) 0.9789(7) 0.6523(9) 0.051(4) Uani 1 1 d . . .
H32A H 0.2252 0.9650 0.6381 0.061 Uiso 1 1 calc R . .
H32B H 0.2732 1.0094 0.6915 0.061 Uiso 1 1 calc R . .
C31 C 0.3192(10) 1.0118(8) 0.5968(9) 0.056(4) Uani 1 1 d . . .
C30 C 0.3065(8) 1.0751(7) 0.5671(9) 0.048(4) Uani 1 1 d . . .
H30 H 0.2640 1.1018 0.5814 0.058 Uiso 1 1 calc R . .
C29 C 0.3543(11) 1.0982(10) 0.5185(10) 0.071(6) Uani 1 1 d . . .
H29 H 0.3441 1.1413 0.4999 0.085 Uiso 1 1 calc R . .
C28 C 0.4189(11) 1.0618(9) 0.4937(10) 0.066(5) Uani 1 1 d . . .
H28 H 0.4520 1.0794 0.4599 0.079 Uiso 1 1 calc R . .
C27 C 0.4311(10) 0.9947(9) 0.5238(9) 0.057(4) Uani 1 1 d . . .
H27 H 0.4723 0.9671 0.5086 0.069 Uiso 1 1 calc R . .
C26 C 0.3834(9) 0.9728(7) 0.5734(8) 0.048(4) Uani 1 1 d . . .
C16 C 0.8927(10) 0.8131(10) 0.7782(9) 0.064(5) Uani 1 1 d . . .
H16A H 0.8939 0.8223 0.8270 0.077 Uiso 1 1 calc R . .
H16B H 0.9456 0.8178 0.7599 0.077 Uiso 1 1 calc R . .
C10 C 0.8035(9) 0.7464(8) 0.7165(7) 0.046(4) Uani 1 1 d . . .
C15 C 0.8603(9) 0.7421(8) 0.7641(7) 0.047(4) Uani 1 1 d . . .
C14 C 0.8823(8) 0.6828(7) 0.7920(8) 0.043(3) Uani 1 1 d . . .
H14 H 0.9222 0.6813 0.8248 0.052 Uiso 1 1 calc R . .
C13 C 0.8449(9) 0.6243(7) 0.7711(8) 0.052(4) Uani 1 1 d . . .
H13 H 0.8581 0.5823 0.7909 0.063 Uiso 1 1 calc R . .
C12 C 0.7888(9) 0.6271(9) 0.7219(8) 0.055(4) Uani 1 1 d . . .
H12 H 0.7645 0.5867 0.7075 0.066 Uiso 1 1 calc R . .
C11 C 0.7678(8) 0.6857(7) 0.6941(7) 0.042(3) Uani 1 1 d . . .
H11 H 0.7296 0.6868 0.6598 0.050 Uiso 1 1 calc R . .
C38 C 0.5928(10) 1.0946(8) 0.5995(8) 0.056(4) Uani 1 1 d . . .
H38A H 0.6209 1.0888 0.6418 0.067 Uiso 1 1 calc R . .
H38B H 0.5390 1.0803 0.6055 0.067 Uiso 1 1 calc R . .
H38C H 0.5941 1.1420 0.5862 0.067 Uiso 1 1 calc R . .
C37 C 0.6352(7) 0.9877(6) 0.5535(7) 0.036(3) Uani 1 1 d . . .
C39 C 0.6552(11) 1.0879(7) 0.4859(8) 0.059(5) Uani 1 1 d . . .
H39A H 0.6268 1.0701 0.4472 0.071 Uiso 1 1 calc R . .
H39B H 0.7106 1.0799 0.4797 0.071 Uiso 1 1 calc R . .
H39C H 0.6457 1.1363 0.4898 0.071 Uiso 1 1 calc R . .
C43 C 0.5666(8) 0.8379(7) 0.4508(6) 0.037(3) Uani 1 1 d . . .
C45 C 0.4369(8) 0.8443(7) 0.4060(8) 0.046(4) Uani 1 1 d . . .
H45A H 0.4278 0.8906 0.4209 0.055 Uiso 1 1 calc R . .
H45B H 0.4138 0.8130 0.4383 0.055 Uiso 1 1 calc R . .
H45C H 0.4133 0.8376 0.3617 0.055 Uiso 1 1 calc R . .
C44 C 0.5491(13) 0.8049(12) 0.3355(9) 0.085(7) Uani 1 1 d . . .
H44A H 0.5694 0.7594 0.3424 0.102 Uiso 1 1 calc R . .
H44B H 0.5904 0.8341 0.3187 0.102 Uiso 1 1 calc R . .
H44C H 0.5069 0.8034 0.3026 0.102 Uiso 1 1 calc R . .
C34 C 0.5585(8) 0.7032(6) 0.7170(7) 0.038(3) Uani 1 1 d . . .
C35 C 0.6221(11) 0.6989(9) 0.8259(9) 0.059(4) Uani 1 1 d . . .
H35A H 0.5888 0.7330 0.8465 0.071 Uiso 1 1 calc R . .
H35B H 0.6700 0.7200 0.8102 0.071 Uiso 1 1 calc R . .
H35C H 0.6345 0.6642 0.8592 0.071 Uiso 1 1 calc R . .
C36 C 0.5786(9) 0.5941(7) 0.7679(8) 0.049(4) Uani 1 1 d . . .
H36A H 0.5677 0.5783 0.8135 0.059 Uiso 1 1 calc R . .
H36B H 0.6288 0.5765 0.7531 0.059 Uiso 1 1 calc R . .
H36C H 0.5381 0.5782 0.7374 0.059 Uiso 1 1 calc R . .
C40 C 0.6133(8) 0.7012(6) 0.5299(7) 0.034(3) Uani 1 1 d . . .
C41 C 0.6338(9) 0.6261(7) 0.4392(8) 0.052(4) Uani 1 1 d . . .
H41A H 0.6107 0.6565 0.4061 0.062 Uiso 1 1 calc R . .
H41B H 0.5946 0.5942 0.4550 0.062 Uiso 1 1 calc R . .
H41C H 0.6766 0.6014 0.4185 0.062 Uiso 1 1 calc R . .
C42 C 0.7417(9) 0.6559(8) 0.5154(9) 0.054(4) Uani 1 1 d . . .
H42A H 0.7430 0.6362 0.5605 0.065 Uiso 1 1 calc R . .
H42B H 0.7669 0.7000 0.5161 0.065 Uiso 1 1 calc R . .
H42C H 0.7690 0.6263 0.4839 0.065 Uiso 1 1 calc R . .
C48 C 0.9560(14) 0.5404(10) 0.9084(11) 0.072(5) Uani 1 1 d . . .
C49 C 1.0144(13) 0.5049(15) 0.8662(12) 0.103(8) Uani 1 1 d . . .
H49A H 1.0659 0.5108 0.8858 0.155 Uiso 1 1 calc R . .
H49B H 1.0138 0.5236 0.8206 0.155 Uiso 1 1 calc R . .
H49C H 1.0018 0.4569 0.8643 0.155 Uiso 1 1 calc R . .
C52 C 0.129(2) 0.873(2) 0.7565(19) 0.135(10) Uani 1 1 d U . .
C53 C 0.149(3) 0.814(2) 0.802(2) 0.172(12) Uani 1 1 d U . .
C50 C 0.4139(14) 0.7682(9) 0.8296(11) 0.072(5) Uani 1 1 d . . .
C51 C 0.3690(13) 0.7654(9) 0.7765(10) 0.077(6) Uani 1 1 d . . .
H51A H 0.3384 0.7240 0.7778 0.116 Uiso 1 1 calc R . .
H51B H 0.4008 0.7659 0.7357 0.116 Uiso 1 1 calc R . .
H51C H 0.3342 0.8043 0.7763 0.116 Uiso 1 1 calc R . .
C54 C 0.210(2) 0.6042(17) 0.826(2) 0.165(17) Uani 1 1 d U . .
C55 C 0.2298(14) 0.5379(11) 0.8115(12) 0.089(6) Uani 1 1 d U . .
H55A H 0.1917 0.5183 0.7809 0.134 Uiso 1 1 calc R . .
H55B H 0.2310 0.5120 0.8534 0.134 Uiso 1 1 calc R . .
H55C H 0.2810 0.5369 0.7905 0.134 Uiso 1 1 calc R . .
C57 C 0.7095(11) 0.4745(8) 0.5918(11) 0.076(6) Uani 1 1 d . . .
H57A H 0.7524 0.4575 0.6192 0.114 Uiso 1 1 calc R . .
H57B H 0.7291 0.4884 0.5478 0.114 Uiso 1 1 calc R . .
H57C H 0.6709 0.4389 0.5859 0.114 Uiso 1 1 calc R . .
C46 C 0.4655(14) 0.2589(14) 0.4574(13) 0.095(8) Uani 1 1 d . . .
C47 C 0.4236(15) 0.3104(14) 0.4919(15) 0.114(9) Uani 1 1 d . . .
H47A H 0.4061 0.3442 0.4595 0.171 Uiso 1 1 calc R . .
H47B H 0.4573 0.3316 0.5253 0.171 Uiso 1 1 calc R . .
H47C H 0.3787 0.2905 0.5145 0.171 Uiso 1 1 calc R . .
C56 C 0.0180(10) 0.4842(11) 0.6642(11) 0.078(6) Uani 1 1 d . . .
H56A H -0.0259 0.4670 0.6901 0.117 Uiso 1 1 calc R . .
H56B H 0.0419 0.4473 0.6391 0.117 Uiso 1 1 calc R . .
H56C H -0.0001 0.5187 0.6327 0.117 Uiso 1 1 calc R . .
C58 C 0.6795(13) 0.2768(17) 0.5129(10) 0.147(13) Uani 1 1 d D . .
C59 C 0.7927(16) 0.227(2) 0.415(2) 0.162(12) Uani 1 1 d DU . .

loop_
_atom_site_aniso_label
_atom_site_aniso_U_11
_atom_site_aniso_U_22
_atom_site_aniso_U_33
_atom_site_aniso_U_23
_atom_site_aniso_U_13
_atom_site_aniso_U_12
W1 0.0275(2) 0.0233(2) 0.0413(3) 0.0019(2) -0.0006(2) -0.0007(2)
Gd1 0.0308(3) 0.0239(3) 0.0407(4) -0.0008(3) 0.0008(3) -0.0016(2)
O5 0.029(5) 0.026(4) 0.045(5) -0.004(4) 0.005(4) -0.008(3)
O6 0.035(5) 0.028(5) 0.046(5) 0.002(4) -0.008(4) 0.003(4)
O4 0.038(5) 0.037(5) 0.043(6) -0.007(4) -0.006(4) -0.008(4)
O1 0.044(6) 0.034(5) 0.056(6) -0.002(4) -0.010(5) -0.005(4)
O2 0.046(6) 0.034(5) 0.061(7) -0.018(5) 0.001(5) 0.006(4)
O3 0.044(5) 0.022(4) 0.042(5) -0.001(4) 0.004(4) 0.005(4)
O10 0.084(8) 0.051(7) 0.094(10) 0.027(7) -0.020(8) -0.027(6)
O9 0.052(7) 0.101(10) 0.091(10) 0.017(9) -0.020(8) 0.005(7)
O8 0.071(8) 0.053(7) 0.083(8) -0.007(6) -0.008(7) 0.019(6)
O7 0.056(8) 0.143(14) 0.076(9) 0.044(9) 0.026(7) 0.017(9)
N2 0.032(6) 0.031(6) 0.038(6) -0.001(5) 0.002(5) -0.003(5)
N7 0.036(6) 0.038(6) 0.055(8) 0.002(6) 0.001(6) 0.004(5)
N6 0.051(7) 0.049(7) 0.050(7) 0.004(6) 0.016(7) -0.012(6)
N4 0.039(7) 0.048(7) 0.062(8) -0.009(6) -0.020(6) 0.014(6)
N3 0.030(6) 0.039(6) 0.047(7) 0.000(5) 0.004(5) 0.001(5)
N8 0.040(6) 0.045(7) 0.046(7) 0.003(5) -0.002(5) -0.014(5)
N5 0.056(8) 0.046(7) 0.049(8) 0.012(6) -0.005(6) 0.010(6)
N9 0.032(5) 0.036(5) 0.042(6) 0.009(5) 0.006(5) 0.006(5)
N10 0.043(7) 0.030(5) 0.043(6) -0.012(5) 0.004(6) 0.000(5)
N11 0.036(6) 0.031(6) 0.050(7) -0.006(5) -0.005(5) 0.002(5)
N13 0.059(8) 0.025(5) 0.063(9) 0.009(5) 0.015(6) -0.001(5)
N15 0.045(7) 0.037(6) 0.052(7) 0.002(5) -0.009(6) -0.003(5)
N12 0.046(7) 0.043(6) 0.042(7) -0.002(5) 0.001(6) 0.001(6)
N1 0.016(5) 0.030(5) 0.055(7) 0.003(5) -0.006(5) -0.004(4)
N14 0.025(6) 0.037(6) 0.063(7) -0.003(6) 0.009(5) -0.008(5)
N17 0.116(17) 0.098(14) 0.111(16) 0.019(13) 0.056(15) 0.038(13)
N19 0.104(19) 0.17(2) 0.18(3) 0.034(18) 0.055(17) -0.041(16)
N18 0.21(3) 0.077(13) 0.092(15) 0.036(13) 0.026(19) -0.020(15)
N20 0.198(14) 0.158(12) 0.200(14) 0.011(10) 0.005(10) 0.028(9)
N16 0.105(16) 0.089(14) 0.110(16) 0.000(13) 0.023(13) -0.003(12)
C3 0.036(7) 0.016(6) 0.079(10) -0.010(7) -0.002(8) -0.008(5)
C4 0.036(7) 0.012(5) 0.050(7) -0.005(5) -0.005(6) -0.00