
#######################################################################
#
#                 Cambridge Crystallographic Data Centre
#                                CCDC
#
#######################################################################
#
# If this CIF has been generated from an entry in the Cambridge
# Structural Database, then it will include bibliographic, chemical,
# crystal, experimental, refinement or atomic coordinate data resulting
# from the CCDC's data processing and validation procedures.
#
#######################################################################

data_CSD_CIF_CLCAME01
_audit_creation_date 1984-02-21
_audit_creation_method CSD-ConQuest-V1
_database_code_CSD CLCAME01
_database_code_depnum_ccdc_archive 'CCDC 1127066'
_chemical_formula_sum 'C26 H44 Ce1 Cl6 N2'
_chemical_formula_moiety
;
2(C13 H22 N1 1+),Ce1 Cl6 2-
;
_journal_coden_Cambridge 233
_journal_volume 28
_journal_year 1983
_journal_page_first 597
_journal_name_full 'Zh.Neorg.Khim.(Russ.)(Russ.J.Inorg.Chem.) '
loop_
_publ_author_name
"V.M.Agre"
"Yu.M.Kiselev"
_chemical_name_systematic
;
bis(Triethylbenzylammonium) hexachloro-cerium(iv)
;
_chemical_name_common
;
Teaching Subset: Fundamental Chemistry
;
_cell_volume   1654.132
_exptl_crystal_colour 'orange-red'
_exptl_crystal_density_diffrn 1.48
_exptl_special_details
;
monoclinic polymorph

;
_diffrn_ambient_temperature ?
_diffrn_special_details
;
The study was carried out at room temperature,in the range 283-303K

;
#These two values have been output from a single CSD field.
_refine_ls_R_factor_gt 0.029
_refine_ls_wR_factor_gt 0.029
_symmetry_cell_setting monoclinic
_symmetry_space_group_name_H-M 'P 21/c'
_symmetry_Int_Tables_number 14
loop_
_symmetry_equiv_pos_site_id
_symmetry_equiv_pos_as_xyz
1 x,y,z
2 -x,1/2+y,1/2-z
3 -x,-y,-z
4 x,-1/2-y,-1/2+z
_cell_length_a 9.476(2)
_cell_length_b 14.658(3)
_cell_length_c 13.124(2)
_cell_angle_alpha 90
_cell_angle_beta 114.85(5)
_cell_angle_gamma 90
_cell_formula_units_Z 2
loop_
_atom_type_symbol
_atom_type_radius_bond
C 0.68
H 0.23
Ce 1.83
Cl 0.99
N 0.68
loop_
_atom_site_label
_atom_site_type_symbol
_atom_site_fract_x
_atom_site_fract_y
_atom_site_fract_z
Ce1 Ce 0.00000 0.50000 0.50000
Cl1 Cl 0.10690 0.50391 0.34768
Cl2 Cl 0.27100 0.55360 0.65093
Cl3 Cl 0.08810 0.33027 0.53768
N1 N 0.58760 0.22810 0.52160
C1 C 0.50440 0.27740 0.58150
C2 C 0.50090 0.38010 0.57170
C3 C 0.76020 0.25400 0.56970
C4 C 0.84580 0.24430 0.69660
C5 C 0.52150 0.25280 0.39820
C6 C 0.34630 0.23900 0.33440
C7 C 0.57000 0.12580 0.53780
C8 C 0.65690 0.06180 0.49600
C9 C 0.60400 0.03900 0.38260
C10 C 0.68160 -0.02560 0.34850
C11 C 0.80950 -0.07050 0.42640
C12 C 0.85830 -0.05070 0.53830
C13 C 0.78540 0.01580 0.57430
H1 H 0.57300 0.26500 0.67100
H2 H 0.40300 0.25000 0.56000
H3 H 0.44200 0.40200 0.61000
H4 H 0.45300 0.39800 0.49200
H5 H 0.60200 0.39700 0.60000
H6 H 0.81900 0.21200 0.53000
H7 H 0.76100 0.32400 0.54300
H8 H 0.83600 0.19300 0.71600
H9 H 0.95000 0.25200 0.71700
H10 H 0.78300 0.29000 0.72800
H11 H 0.55500 0.31600 0.39800
H12 H 0.59300 0.21800 0.36400
H13 H 0.32500 0.26800 0.26600
H14 H 0.31500 0.18200 0.34400
H15 H 0.28000 0.27600 0.33800
H16 H 0.60200 0.11800 0.62600
H17 H 0.45600 0.11600 0.49600
H18 H 0.51400 0.06500 0.32200
H19 H 0.64800 -0.03500 0.26400
H20 H 0.87500 -0.12400 0.40600
H21 H 0.96900 -0.07900 0.59400
H22 H 0.82500 0.03000 0.66200
Cl1B Cl -0.10690 0.49609 0.65232
Cl2B Cl -0.27100 0.44640 0.34907
Cl3B Cl -0.08810 0.66973 0.46232
#END
