
#######################################################################
#
#                 Cambridge Crystallographic Data Centre
#                                CCDC
#
#######################################################################
#
# If this CIF has been generated from an entry in the Cambridge
# Structural Database, then it will include bibliographic, chemical,
# crystal, experimental, refinement or atomic coordinate data resulting
# from the CCDC's data processing and validation procedures.
#
#######################################################################

data_CSD_CIF_CLCHTF
_audit_creation_date 1998-09-24
_audit_creation_method CSD-ConQuest-V1
_database_code_CSD CLCHTF
_database_code_depnum_ccdc_archive 'CCDC 1127082'
_database_code_depnum_ccdc_journal 186/726
_chemical_formula_sum 'C12 H20 Cl4 Te1'
_chemical_formula_moiety
;
C12 H20 Cl4 Te1
;
_journal_coden_Cambridge 186
_journal_year 1997
_journal_page_first 4367
_journal_name_full 'J.Chem.Soc.,Dalton Trans. '
loop_
_publ_author_name
"A.Achampong"
"A.W.Parkins"
_chemical_name_systematic
;
rac-Dichloro-bis(trans-2-chlorocyclohexyl)-tellurium
;
_chemical_name_common
;
Teaching Subset: Fundamental Chemistry
;
_chemical_melting_point 403
_cell_volume   1602.299
_exptl_crystal_colour 'colorless'
_exptl_crystal_density_diffrn 1.8
_exptl_special_details
;
Melting point range 403-404K

;
_exptl_crystal_description 'multifaceted roughly spherical'
_exptl_crystal_preparation 'glacial acetic acid'
_diffrn_ambient_temperature ?
_diffrn_special_details
;
The study was carried out at room temperature,in the range 283-303K

;
#These two values have been output from a single CSD field.
_refine_ls_R_factor_gt 0.06
_refine_ls_wR_factor_gt 0.06
loop_
_citation_database_id_CSD
_citation_special_details
CLCHTE "is a stereoisomer of this entry"
_symmetry_cell_setting monoclinic
_symmetry_space_group_name_H-M 'P 21/c'
_symmetry_Int_Tables_number 14
loop_
_symmetry_equiv_pos_site_id
_symmetry_equiv_pos_as_xyz
1 x,y,z
2 -x,1/2+y,1/2-z
3 -x,-y,-z
4 x,-1/2-y,-1/2+z
_cell_length_a 11.36(1)
_cell_length_b 13.60(1)
_cell_length_c 11.13(1)
_cell_angle_alpha 90
_cell_angle_beta 111.28(7)
_cell_angle_gamma 90
_cell_formula_units_Z 4
loop_
_atom_type_symbol
_atom_type_radius_bond
C 0.68
H 0.23
Cl 0.99
Te 1.47
loop_
_atom_site_label
_atom_site_type_symbol
_atom_site_fract_x
_atom_site_fract_y
_atom_site_fract_z
Te1 Te 0.26718(13) 0.38573(10) 0.19733(12)
Cl1 Cl 0.0502(5) 0.3393(4) 0.0536(6)
Cl2 Cl 0.4833(5) 0.4362(5) 0.3323(5)
Cl3 Cl 0.1134(6) 0.4089(5) 0.3980(6)
Cl4 Cl 0.4482(7) 0.2591(5) 0.0807(6)
C1 C 0.1954(19) 0.5233(15) 0.2453(18)
C2 C 0.2010(19) 0.5158(18) 0.3805(19)
C3 C 0.1424(24) 0.6069(22) 0.4175(21)
C4 C 0.216(3) 0.6976(20) 0.4045(25)
C5 C 0.2129(23) 0.7048(17) 0.2685(23)
C6 C 0.2715(23) 0.6154(17) 0.2319(19)
C7 C 0.3114(18) 0.4267(14) 0.0304(18)
C8 C 0.3367(19) 0.3373(16) -0.0344(19)
C9 C 0.3872(20) 0.3669(15) -0.137(2)
C10 C 0.284(3) 0.4269(21) -0.2401(21)
C11 C 0.247(3) 0.5116(17) -0.1815(21)
C12 C 0.2063(21) 0.4856(16) -0.0731(18)
H1 H 0.09700 0.52900 0.17700
H2 H 0.30000 0.50700 0.44700
H3 H 0.14500 0.60100 0.51600
H4 H 0.04500 0.61400 0.35300
H5 H 0.17600 0.76300 0.43000
H6 H 0.31400 0.69100 0.47100
H7 H 0.26500 0.77200 0.25800
H8 H 0.11700 0.71300 0.20100
H9 H 0.27300 0.62100 0.13500
H10 H 0.37000 0.60800 0.29900
H11 H 0.39700 0.47200 0.06900
H12 H 0.24800 0.29500 -0.07900
H13 H 0.47200 0.41200 -0.09400
H14 H 0.41400 0.30300 -0.18000
H15 H 0.20100 0.38000 -0.28400
H16 H 0.31700 0.45000 -0.31600
H17 H 0.33000 0.56000 -0.14500
H18 H 0.17300 0.55200 -0.25500
H19 H 0.18300 0.55200 -0.03000
H20 H 0.12000 0.44100 -0.10900
#END
