
#######################################################################
#
#                 Cambridge Crystallographic Data Centre
#                                CCDC
#
#######################################################################
#
# If this CIF has been generated from an entry in the Cambridge
# Structural Database, then it will include bibliographic, chemical,
# crystal, experimental, refinement or atomic coordinate data resulting
# from the CCDC's data processing and validation procedures.
#
#######################################################################

data_CSD_CIF_CLECOC
_audit_creation_date 1971-12-31
_audit_creation_method CSD-ConQuest-V1
_database_code_CSD CLECOC
_database_code_depnum_ccdc_archive 'CCDC 1127122'
_chemical_formula_sum 'C4 H18 Cl3 Co1 N4 O1'
_chemical_formula_moiety
;
C4 H16 Cl2 Co1 N4 1+,Cl1 1-,H2 O1
;
_journal_coden_Cambridge 49
_journal_volume 52
_journal_year 1965
_journal_page_first 618
_journal_name_full 'Naturwissenschaften '
loop_
_publ_author_name
"A.Hullen"
"K.Plieth"
"G.Ruban"
_chemical_name_systematic
;
(+-)cis-Dichloro-bis(ethylenediamine)-cobalt(iii) chloride monohydrate
;
_chemical_name_common
;
Teaching Subset: Fundamental Chemistry
;
_cell_volume   1152.168
_diffrn_ambient_temperature ?
_diffrn_special_details
;
The study was carried out at room temperature,in the range 283-303K

;
#These two values have been output from a single CSD field.
_refine_ls_R_factor_gt 0.116
_refine_ls_wR_factor_gt 0.116
loop_
_citation_database_id_CSD
_citation_special_details
CENCOC "is a stereoisomer of this entry"
_symmetry_cell_setting monoclinic
_symmetry_space_group_name_H-M 'P 21/c'
_symmetry_Int_Tables_number 14
loop_
_symmetry_equiv_pos_site_id
_symmetry_equiv_pos_as_xyz
1 x,y,z
2 -x,1/2+y,1/2-z
3 -x,-y,-z
4 x,-1/2-y,-1/2+z
_cell_length_a 12.0
_cell_length_b 6.87
_cell_length_c 16.48
_cell_angle_alpha 90
_cell_angle_beta 122.0
_cell_angle_gamma 90
_cell_formula_units_Z 4
loop_
_atom_type_symbol
_atom_type_radius_bond
C 0.68
Cl 0.99
Co 1.26
N 0.68
O 0.68
loop_
_atom_site_label
_atom_site_type_symbol
_atom_site_fract_x
_atom_site_fract_y
_atom_site_fract_z
Cl1 Cl -0.02700 0.26300 0.11900
Cl2 Cl 0.08800 0.69000 0.15100
Co1 Co 0.17600 0.39500 0.19400
C1 C 0.23800 0.20300 0.07700
C2 C 0.27400 0.04900 0.15300
C3 C 0.30400 0.48800 0.39400
C4 C 0.35600 0.60200 0.34500
N1 N 0.24500 0.11800 0.22200
N2 N 0.35700 0.51700 0.26500
N3 N 0.17500 0.39100 0.06400
N4 N 0.17500 0.39100 0.31600
Cl3 Cl 0.43400 -0.35000 0.11000
O1 O 0.24500 -0.06100 0.40000
#END
