
#######################################################################
#
#                 Cambridge Crystallographic Data Centre
#                                CCDC
#
#######################################################################
#
# If this CIF has been generated from an entry in the Cambridge
# Structural Database, then it will include bibliographic, chemical,
# crystal, experimental, refinement or atomic coordinate data resulting
# from the CCDC's data processing and validation procedures.
#
#######################################################################

data_CSD_CIF_CLPYSB
_audit_creation_date 1976-11-23
_audit_creation_method CSD-ConQuest-V1
_database_code_CSD CLPYSB
_database_code_depnum_ccdc_archive 'CCDC 1127410'
_chemical_formula_sum 'C10 H10 Br5 Cl2 N2 Sb1'
_chemical_formula_moiety
;
2(C5 H5 Cl1 N1 1+),Br5 Sb1 2-
;
_journal_coden_Cambridge 189
_journal_volume 5
_journal_year 1976
_journal_page_first 393
_journal_name_full 'Cryst.Struct.Commun. '
loop_
_publ_author_name
"J.M.Carola"
"D.D.Freedman"
"K.L.McLaughlin"
"P.C.Reim"
"W.J.Schmidt"
"R.G.Haas"
"W.J.Broome"
"E.A.DeCarlo"
"S.L.Lawton"
_chemical_name_systematic
;
2-Chloropyridinium pentabromoantimony(iii)
;
_chemical_name_common
;
Teaching Subset: Fundamental Chemistry
;
_cell_volume    957.947
_exptl_crystal_density_diffrn 2.6
_diffrn_ambient_temperature ?
_diffrn_special_details
;
The study was carried out at room temperature,in the range 283-303K

;
#These two values have been output from a single CSD field.
_refine_ls_R_factor_gt 0.098
_refine_ls_wR_factor_gt 0.098
_symmetry_cell_setting monoclinic
_symmetry_space_group_name_H-M 'P a'
_symmetry_Int_Tables_number 7
loop_
_symmetry_equiv_pos_site_id
_symmetry_equiv_pos_as_xyz
1 x,y,z
2 1/2+x,1/2-y,z
_cell_length_a 10.643(4)
_cell_length_b 15.856(10)
_cell_length_c 5.884(3)
_cell_angle_alpha 90
_cell_angle_beta 105.26(5)
_cell_angle_gamma 90
_cell_formula_units_Z 2
loop_
_atom_type_symbol
_atom_type_radius_bond
C 0.68
H 0.23
Br 1.21
Cl 0.99
N 0.68
Sb 1.46
loop_
_atom_site_label
_atom_site_type_symbol
_atom_site_fract_x
_atom_site_fract_y
_atom_site_fract_z
Br1 Br 0.01666 -0.00009 0.44205
Br2 Br -0.08108 0.16739 -0.03403
Br3 Br 0.25445 0.05621 0.08421
Br4 Br 0.08409 -0.16685 0.03232
Br5 Br -0.25412 -0.05495 -0.08116
Sb1 Sb 0.00000 0.00659 0.00000
Cl1 Cl -0.03200 0.38590 -0.22770
C1 C 0.06870 0.34540 -0.38200
C2 C 0.11640 0.39420 -0.54280
C3 C 0.18230 0.35480 -0.67280
C4 C 0.21290 0.26840 -0.64020
C5 C 0.15810 0.22730 -0.51750
H1 H 0.04800 0.22400 -0.26800
H2 H 0.10100 0.45600 -0.55800
H3 H 0.21100 0.38700 -0.79700
H4 H 0.27700 0.24100 -0.71500
H5 H 0.16700 0.16500 -0.52400
N1 N 0.08340 0.25870 -0.36690
Cl2 Cl 0.03380 -0.38520 0.22890
C6 C -0.20440 -0.34720 0.63950
C7 C -0.21540 -0.25620 0.63270
C8 C -0.15680 -0.21360 0.46040
C9 C -0.06100 -0.34280 0.39120
C10 C -0.11820 -0.38600 0.52490
H6 H -0.25700 -0.38200 0.72300
H7 H -0.25900 -0.22400 0.73700
H8 H -0.17600 -0.15300 0.41300
H9 H -0.03000 -0.22900 0.29200
H10 H -0.10100 -0.44800 0.54600
N2 N -0.08030 -0.25910 0.37680
#END
