
#######################################################################
#
#                 Cambridge Crystallographic Data Centre
#                                CCDC
#
#######################################################################
#
# If this CIF has been generated from an entry in the Cambridge
# Structural Database, then it will include bibliographic, chemical,
# crystal, experimental, refinement or atomic coordinate data resulting
# from the CCDC's data processing and validation procedures.
#
#######################################################################

data_CSD_CIF_CMPXPA
_audit_creation_date 1980-09-10
_audit_creation_method CSD-ConQuest-V1
_database_code_CSD CMPXPA
_database_code_depnum_ccdc_archive 'CCDC 1127741'
_chemical_formula_sum 'C10 H11 Cl1 O3'
_chemical_formula_moiety
;
C10 H11 Cl1 O3
;
_journal_coeditor_code "IUCr A18790"
_journal_coden_Cambridge 107
_journal_volume 36
_journal_year 1980
_journal_page_first 992
_journal_name_full 'Acta Crystallogr.,Sect.B:Struct.Crystallogr.Cryst.Chem. '
loop_
_publ_author_name
"G.Smith"
"C.H.L.Kennard"
"A.H.White"
"P.G.Hodgson"
_chemical_name_systematic
;
(+-)-2-(4-Chloro-2-methylphenoxy)-propionic acid
;
_chemical_name_common
;
Mecoprop; Teaching Subset: Fundamental Chemistry
;
_chemical_melting_point 363
_cell_volume   1057.729
_exptl_crystal_colour 'colorless'
_exptl_crystal_density_diffrn 1.35
_exptl_special_details
;
herbicidal agent

;
_diffrn_ambient_temperature ?
_diffrn_special_details
;
The study was carried out at room temperature,in the range 283-303K

;
#These two values have been output from a single CSD field.
_refine_ls_R_factor_gt 0.05
_refine_ls_wR_factor_gt 0.05
_symmetry_cell_setting monoclinic
_symmetry_space_group_name_H-M 'P 21/c'
_symmetry_Int_Tables_number 14
loop_
_symmetry_equiv_pos_site_id
_symmetry_equiv_pos_as_xyz
1 x,y,z
2 -x,1/2+y,1/2-z
3 -x,-y,-z
4 x,-1/2-y,-1/2+z
_cell_length_a 4.395(3)
_cell_length_b 6.813(5)
_cell_length_c 36.75(2)
_cell_angle_alpha 90
_cell_angle_beta 106.01(5)
_cell_angle_gamma 90
_cell_formula_units_Z 4
loop_
_atom_type_symbol
_atom_type_radius_bond
C 0.68
H 0.23
Cl 0.99
O 0.68
loop_
_atom_site_label
_atom_site_type_symbol
_atom_site_fract_x
_atom_site_fract_y
_atom_site_fract_z
Cl1 Cl 0.37650 0.75250 0.22380
O1 O -0.20210 1.30690 0.10220
O2 O -0.48170 1.06420 0.04460
O3 O -0.19740 1.18220 0.00830
C1 C -0.06440 1.16840 0.12960
C2 C -0.10140 1.20080 0.16490
C3 C 0.03080 1.07080 0.19400
C4 C 0.20340 0.91200 0.18650
C5 C 0.24600 0.87900 0.15200
C6 C 0.10820 1.00950 0.12250
C7 C -0.10140 1.32020 0.06900
C8 C -0.27650 1.17600 0.03920
C9 C -0.17000 1.53100 0.05520
C10 C -0.28300 1.38030 0.17240
H1 H -0.01370 1.09400 0.22200
H2 H 0.39320 0.76240 0.14290
H3 H 0.13440 0.99290 0.09960
H4 H 0.16230 1.26560 0.07630
H5 H -0.37210 1.07570 -0.01130
H6 H -0.35900 1.54790 0.05430
H7 H -0.05500 1.54000 0.04280
H8 H -0.06750 1.64640 0.08080
H9 H -0.37500 1.35320 0.19160
H10 H -0.20380 1.48950 0.16180
H11 H -0.54730 1.38630 0.15110
#END
