
#######################################################################
#
#                 Cambridge Crystallographic Data Centre
#                                CCDC
#
#######################################################################
#
# If this CIF has been generated from an entry in the Cambridge
# Structural Database, then it will include bibliographic, chemical,
# crystal, experimental, refinement or atomic coordinate data resulting
# from the CCDC's data processing and validation procedures.
#
#######################################################################

data_CSD_CIF_CMTUCU10
_audit_creation_date 1979-01-19
_audit_creation_method CSD-ConQuest-V1
_database_code_CSD CMTUCU10
_database_code_depnum_ccdc_archive 'CCDC 1127810'
_chemical_formula_sum 'C10 H24 Cl2 Cu1 N4 S2'
_chemical_formula_moiety
;
C10 H24 Cl2 Cu1 N4 S2
;
_journal_coden_Cambridge 9
_journal_volume 17
_journal_year 1978
_journal_page_first 1913
_journal_name_full 'Inorg.Chem. '
loop_
_publ_author_name
"E.A.H.Griffith"
"W.A.Spofford III"
"E.L.Amma"
_chemical_name_systematic
;
Dichloro-bis(tetramethylthiourea)-copper(ii)
;
_chemical_name_common
;
Teaching Subset: Fundamental Chemistry
;
_cell_volume    898.938
_exptl_crystal_density_diffrn 1.47
_diffrn_ambient_temperature ?
_diffrn_special_details
;
The study was carried out at room temperature,in the range 283-303K

;
#These two values have been output from a single CSD field.
_refine_ls_R_factor_gt 0.064
_refine_ls_wR_factor_gt 0.064
_symmetry_cell_setting monoclinic
_symmetry_space_group_name_H-M 'P 21'
_symmetry_Int_Tables_number 4
loop_
_symmetry_equiv_pos_site_id
_symmetry_equiv_pos_as_xyz
1 x,y,z
2 -x,1/2+y,-z
_cell_length_a 9.464(2)
_cell_length_b 8.550(1)
_cell_length_c 11.532(2)
_cell_angle_alpha 90
_cell_angle_beta 105.56(4)
_cell_angle_gamma 90
_cell_formula_units_Z 2
loop_
_atom_type_symbol
_atom_type_radius_bond
C 0.68
Cl 0.99
Cu 1.52
N 0.68
S 1.02
loop_
_atom_site_label
_atom_site_type_symbol
_atom_site_fract_x
_atom_site_fract_y
_atom_site_fract_z
Cu1 Cu 0.21580 0.75000 0.26920
Cl1 Cl 0.37710 0.79760 0.16240
Cl2 Cl 0.00070 0.81960 0.29900
S1 S 0.13170 0.50220 0.20480
S2 S 0.36600 0.87470 0.43530
C1 C 0.21400 0.44400 0.09400
N1 N 0.29900 0.31400 0.11300
N2 N 0.18400 0.51600 -0.01100
C2 C 0.30400 0.20800 0.00900
C3 C 0.36600 0.24600 0.23800
C4 C 0.30200 0.52800 -0.07700
C5 C 0.05800 0.62400 -0.05200
C6 C 0.28300 0.87200 0.55100
N3 N 0.21800 0.73600 0.57800
N4 N 0.27900 0.99700 0.61500
C7 C 0.08100 0.74100 0.61800
C8 C 0.26200 0.58500 0.54600
C9 C 0.30500 1.15900 0.56900
C10 C 0.28000 0.99600 0.74400
#END
