####################################################################### 
# 
# This file contains crystal structure data downloaded from the 
# Cambridge Structural Database (CSD) hosted by the Cambridge 
# Crystallographic Data Centre (CCDC).
# 
# Full information about CCDC data access policies and citation 
# guidelines are available at http://www.ccdc.cam.ac.uk/access/V1 
# 
# Audit and citation data items may have been added by the CCDC. 
# Please retain this information to preserve the provenance of 
# this file and to allow appropriate attribution of the data. 
# 
#######################################################################

data_COACET
#This CIF has been generated from an entry in the Cambridge Structural Database
_database_code_depnum_ccdc_archive 'CCDC 1127997'
_database_code_CSD               COACET
_audit_creation_method           'Created from the CSD'
_audit_update_record             
;
2024-07-09 downloaded from the CCDC.
;
_database_code_NBS               506652
_chemical_formula_moiety         '(C20 H30 Co5 O20)n,n(H2 O1)'
_chemical_name_systematic        
'catena(Deca-acetate-penta-cobalt(ii) monohydrate)'
_chemical_absolute_configuration unk
_diffrn_ambient_temperature      295
_exptl_crystal_density_diffrn    1.85
#These two values have been output from a single CSD field.
_refine_ls_R_factor_gt           0.096
_refine_ls_wR_factor_gt          0.096
_diffrn_radiation_probe          x-ray
_symmetry_cell_setting           orthorhombic
_symmetry_space_group_name_H-M   'P b c n'
_symmetry_Int_Tables_number      60
_space_group_name_Hall           '-P 2n 2ab'
loop_
_symmetry_equiv_pos_site_id
_symmetry_equiv_pos_as_xyz
1 x,y,z
2 1/2-x,1/2+y,z
3 x,-y,1/2+z
4 1/2-x,1/2-y,1/2+z
5 -x,-y,-z
6 1/2+x,1/2-y,-z
7 -x,y,1/2-z
8 1/2+x,1/2+y,1/2-z
_cell_length_a                   17.67
_cell_length_b                   22.22
_cell_length_c                   8.26
_cell_angle_alpha                90
_cell_angle_beta                 90
_cell_angle_gamma                90
_cell_volume                     3243.1
_cell_formula_units_Z            4
loop_
_atom_site_label
_atom_site_type_symbol
_atom_site_fract_x
_atom_site_fract_y
_atom_site_fract_z
Co1 Co 0.50000 0.35250 -0.25000
Co2 Co 0.32320 0.32080 -0.16170
Co3 Co 0.79750 0.30410 -0.02200
C1 C 0.39850 0.43140 -0.04190
C2 C 0.57430 0.36120 0.14710
C3 C 0.38950 0.48940 0.05000
C4 C 0.54720 0.24170 -0.48020
C5 C 0.53240 0.21760 -0.01660
C6 C 0.27470 0.19700 -0.34280
C7 C 0.30550 0.13270 -0.34300
C8 C 0.80600 0.39900 -0.17890
C9 C 0.81040 0.45800 -0.27760
C10 C 0.63100 0.34600 0.00520
O1 O 0.46010 0.41970 -0.10400
O2 O 0.69710 0.33260 0.05840
O4 O 0.39040 0.34740 -0.36280
O5 O 0.43670 0.28930 -0.10200
O6 O 0.34060 0.39860 -0.05050
O7 O 0.77970 0.35160 -0.24010
O8 O 0.26440 0.28270 0.04830
O9 O 0.19260 0.26930 0.27110
O10 O 0.40300 0.21800 0.06700
O11 O 0.83350 0.39530 -0.03740
Co2C Co 0.17680 0.17920 0.33830
O1F O 0.53990 0.41970 -0.39600
C1F C 0.60150 0.43140 -0.45810
C3F C 0.61050 0.48940 -0.55000
O6F O 0.65940 0.39860 -0.44950
Co2F Co 0.67680 0.32080 -0.33830
O4F O 0.60960 0.34740 -0.13720
O5F O 0.56330 0.28930 -0.39800
Co3E Co 0.29750 0.19590 0.02200
O8E O 0.76440 0.21730 -0.04830
O10E O 0.90300 0.28200 -0.06700
O9F O 0.80740 0.26930 0.22890
O8F O 0.73560 0.28270 -0.54830
O9E O 0.69260 0.23070 -0.27110
C4F C 0.45280 0.24170 -0.01980
O9C O 0.30740 0.23070 -0.22890
O7F O 0.22030 0.35160 -0.25990
Co3F Co 0.20250 0.30410 -0.47800
O2F O 0.30290 0.33260 -0.55840
C10F C 0.36900 0.34600 -0.50520
C2F C 0.42570 0.36120 -0.64710
O8C O 0.23560 0.21730 -0.45170
Co2C Co 0.17680 0.17920 -0.66170
O9 O 0.19260 0.26930 -0.72890
O10C O 0.09700 0.28200 -0.43300
O11F O 0.16650 0.39530 -0.46260
C8F C 0.19400 0.39900 -0.32110
C9F C 0.18960 0.45800 -0.22240
C6C C 0.22530 0.30300 0.15720
Co3F Co 0.20250 0.30410 0.52200
Co3C Co 0.70250 0.19590 -0.52200
O10F O 0.59700 0.21800 -0.56700
C5F C 0.46760 0.21760 -0.48340
C7C C 0.19450 0.36730 0.15700
O3 O 0.01900 0.44800 0.41820

#END
