####################################################################### 
# 
# This file contains crystal structure data downloaded from the 
# Cambridge Structural Database (CSD) hosted by the Cambridge 
# Crystallographic Data Centre (CCDC).
# 
# Full information about CCDC data access policies and citation 
# guidelines are available at http://www.ccdc.cam.ac.uk/access/V1 
# 
# Audit and citation data items may have been added by the CCDC. 
# Please retain this information to preserve the provenance of 
# this file and to allow appropriate attribution of the data. 
# 
#######################################################################

data_COBWEV
#This CIF has been generated from an entry in the Cambridge Structural Database
_database_code_depnum_ccdc_archive 'CCDC 1128108'
_database_code_CSD               COBWEV
loop_
_citation_id
_citation_doi
_citation_year
1 10.1016/0162-0134(84)85021-7 1984
_audit_creation_method           'Created from the CSD'
_audit_update_record             
;
2024-07-09 downloaded from the CCDC.
;
_database_code_NBS               554821
_chemical_formula_moiety         '(C18 H29 Cd2 N6 O16 P2)n,3n(H2 O1)'
_chemical_name_systematic        
"catena-(2'-Deoxycytidine-5'-monophosphato-cadmium(ii)) trihydrate"
_chemical_absolute_configuration unk
_diffrn_ambient_temperature      295
_exptl_crystal_density_diffrn    1.869
#These two values have been output from a single CSD field.
_refine_ls_R_factor_gt           0.106
_refine_ls_wR_factor_gt          0.106
_diffrn_radiation_probe          x-ray
_symmetry_cell_setting           monoclinic
_symmetry_space_group_name_H-M   'C 2'
_symmetry_Int_Tables_number      5
_space_group_name_Hall           'C 2y'
loop_
_symmetry_equiv_pos_site_id
_symmetry_equiv_pos_as_xyz
1 x,y,z
2 1/2+x,1/2+y,z
3 -x,y,-z
4 1/2-x,1/2+y,-z
_cell_length_a                   30.809(9)
_cell_length_b                   5.369(2)
_cell_length_c                   25.126(8)
_cell_angle_alpha                90
_cell_angle_beta                 127.61(2)
_cell_angle_gamma                90
_cell_volume                     3292.46
_cell_formula_units_Z            4
loop_
_atom_site_label
_atom_site_type_symbol
_atom_site_fract_x
_atom_site_fract_y
_atom_site_fract_z
Cd1 Cd -0.7360(1) 0.8850(7) -0.4232(1)
Cd2 Cd -0.3135(1) 0.0000 -0.0420(1)
O1 O -0.8126(9) 0.630(5) -0.4705(11)
O2 O -0.3206(9) -0.236(5) -0.1236(11)
P1 P -0.2982(5) -0.458(2) 0.0425(5)
P2 P -0.6690(4) 0.440(2) -0.4079(5)
O6 O -0.2696(9) -0.414(5) 0.1213(12)
O7 O -0.6079(9) 0.492(6) -0.3792(11)
O8 O -0.2597(9) -0.326(5) 0.0290(11)
O9 O -0.7035(9) 0.580(5) -0.4744(11)
O10 O -0.3545(11) -0.337(6) 0.0079(14)
O11 O -0.6784(9) 0.565(5) -0.3613(11)
O12 O -0.2971(11) -0.718(6) 0.0376(14)
O13 O -0.6739(9) 0.167(5) -0.4126(12)
N1 N -0.2542(11) -0.647(7) 0.2847(15)
N2 N -0.4598(15) 0.348(8) -0.2097(18)
C1 C -0.2464(16) -0.800(8) 0.3422(20)
C2 C -0.4092(15) 0.253(8) -0.1536(18)
O14 O -0.2041(10) -0.774(5) 0.4006(12)
O15 O -0.3660(10) 0.317(5) -0.1385(11)
N3 N -0.2860(12) -0.956(7) 0.3169(15)
N4 N -0.4037(13) 0.049(8) -0.1140(16)
C3 C -0.3314(15) -1.032(9) 0.2533(19)
C4 C -0.4564(18) -0.018(10) -0.1361(20)
N5 N -0.3660(12) -1.213(7) 0.2410(15)
N6 N -0.4559(15) -0.219(8) -0.1004(19)
C5 C -0.3396(15) -0.865(9) 0.1969(19)
C6 C -0.5101(17) 0.085(9) -0.1904(20)
C7 C -0.3009(15) -0.680(7) 0.2181(18)
C8 C -0.5165(18) 0.289(10) -0.2323(22)
C9 C -0.2094(16) -0.493(11) 0.3085(19)
C10 C -0.4537(18) 0.571(10) -0.2474(22)
C11 C -0.1584(15) -0.594(10) 0.3225(18)
C12 C -0.4519(24) 0.456(16) -0.3055(31)
C13 C -0.1749(16) -0.551(9) 0.2550(20)
C14 C -0.5083(22) 0.532(14) -0.3657(27)
C15 C -0.1967(14) -0.276(7) 0.2350(17)
C16 C -0.5311(19) 0.739(10) -0.3504(24)
O16 O -0.2349(10) -0.284(5) 0.2549(12)
O17 O -0.5018(13) 0.702(7) -0.2782(16)
O18 O -0.1263(11) -0.547(7) 0.2548(13)
O19 O -0.5050(22) 0.542(14) -0.4257(27)
C17 C -0.2376(14) -0.204(8) 0.1571(17)
C18 C -0.5925(18) 0.718(9) -0.3842(22)
Cd1C Cd -0.7640(1) 0.3850(7) -0.5768(1)
Cd1 Cd -0.7360(1) -0.1150(7) -0.4232(1)
O8C O -0.2403(9) 0.174(5) -0.0290(11)
O12 O -0.2971(11) 0.282(6) 0.0376(14)
Cd2C Cd -0.1865(1) -0.5000 0.0420(1)
Cd2 Cd -0.3135(1) -1.0000 -0.0420(1)
Cd1B Cd -0.2640(1) -1.1150(7) 0.4232(1)
O9C O -0.7965(9) 1.080(5) -0.5256(11)
O13 O -0.6739(9) 1.167(5) -0.4126(12)
N3B N -0.7140(12) 1.044(7) -0.3169(15)
O3 O -0.9553(13) 0.145(8) -0.9093(16)
O4 O -0.9043(18) 0.643(11) -0.9677(22)
O5 O -0.6101(14) 0.430(10) -0.5306(18)

#END
