
#######################################################################
#
#                 Cambridge Crystallographic Data Centre
#                                CCDC
#
#######################################################################
#
# If this CIF has been generated from an entry in the Cambridge
# Structural Database, then it will include bibliographic, chemical,
# crystal, experimental, refinement or atomic coordinate data resulting
# from the CCDC's data processing and validation procedures.
#
#######################################################################

data_CSD_CIF_COBZAU
_audit_creation_date 1985-05-09
_audit_creation_method CSD-ConQuest-V1
_database_code_CSD COBZAU
_database_code_depnum_ccdc_archive 'CCDC 1128124'
_chemical_formula_sum 'C24 H52 Cu1 O4 P2'
_chemical_formula_moiety
;
(C24 H52 Cu1 O4 P2)n
;
_journal_coden_Cambridge 15
_journal_volume 62
_journal_year 1984
_journal_page_first 891
_journal_name_full 'Can.J.Chem. '
loop_
_publ_author_name
"J.S.Haynes"
"K.W.Oliver"
"S.J.Rettig"
"R.C.Thompson"
"J.Trotter"
_chemical_name_systematic
;
catena-[(\m~2~-Di-n-hexylphosphinato)-copper(ii)]
;
_chemical_name_common
;
Teaching Subset: Fundamental Chemistry
;
_cell_volume   1537.798
_exptl_crystal_density_diffrn 1.145
_diffrn_ambient_temperature ?
_diffrn_special_details
;
The study was carried out at room temperature,in the range 283-303K

;
#These two values have been output from a single CSD field.
_refine_ls_R_factor_gt 0.045
_refine_ls_wR_factor_gt 0.045
_symmetry_cell_setting triclinic
_symmetry_space_group_name_H-M 'P -1'
_symmetry_Int_Tables_number 2
loop_
_symmetry_equiv_pos_site_id
_symmetry_equiv_pos_as_xyz
1 x,y,z
2 -x,-y,-z
_cell_length_a 9.800(3)
_cell_length_b 12.336(6)
_cell_length_c 13.352(8)
_cell_angle_alpha 88.53(3)
_cell_angle_beta 74.02(4)
_cell_angle_gamma 82.33(3)
_cell_formula_units_Z 2
loop_
_atom_type_symbol
_atom_type_radius_bond
C 0.68
H 0.23
Cu 1.52
O 0.68
P 1.05
loop_
_atom_site_label
_atom_site_type_symbol
_atom_site_fract_x
_atom_site_fract_y
_atom_site_fract_z
Cu1 Cu 0.25661(5) 0.48080(4) 0.48964(4)
P1 P 0.03754(11) 0.55705(10) 0.35525(10)
P2 P 0.47367(10) 0.41029(9) 0.62447(10)
O1 O 0.1297(3) 0.4768(2) 0.4045(2)
O2 O -0.1194(3) 0.5415(3) 0.3819(2)
O3 O 0.4140(2) 0.4029(2) 0.5320(2)
O4 O 0.6325(2) 0.4192(2) 0.5973(2)
C1 C 0.0532(5) 0.6936(4) 0.3863(4)
C2 C -0.0361(6) 0.7827(4) 0.3400(5)
C3 C -0.0182(7) 0.8966(5) 0.3650(6)
C4 C -0.1035(8) 0.9888(6) 0.3246(7)
C5 C -0.0841(11) 1.1021(6) 0.35190
C6 C -0.1726(13) 1.1886(8) 0.3312(9)
C7 C 0.1043(5) 0.5385(4) 0.2157(4)
C8 C 0.0976(6) 0.4272(6) 0.1784(6)
C9 C 0.1534(8) 0.4035(9) 0.0656(7)
C10 C 0.1387(21) 0.2922(19) 0.0332(17)
C11 C 0.1796(22) 0.2358(17) -0.0192(23)
C12 C 0.1580(14) 0.1233(12) -0.0416(11)
C13 C 0.4485(5) 0.2866(4) 0.6980(4)
C14 C 0.5263(6) 0.1849(4) 0.6367(5)
C15 C 0.5157(7) 0.0810(4) 0.6975(5)
C16 C 0.5961(8) -0.0205(5) 0.6396(6)
C17 C 0.5930(9) -0.1212(6) 0.6995(7)
C18 C 0.6681(10) -0.2194(6) 0.6427(7)
C19 C 0.3772(4) 0.5221(4) 0.7065(4)
C20 C 0.4298(5) 0.5428(4) 0.8024(5)
C21 C 0.3480(7) 0.6422(5) 0.8639(5)
C22 C 0.3951(9) 0.6710(7) 0.9557(6)
C23 C 0.3035(13) 0.7744(11) 1.0122(8)
C24 C 0.3328(16) 0.8108(16) 1.0869(13)
H1 H 0.02270 0.70170 0.46230
H2 H 0.15390 0.70580 0.36030
H3 H -0.00760 0.77380 0.26410
H4 H -0.13720 0.77210 0.36740
H5 H -0.04440 0.90360 0.44110
H6 H 0.08310 0.90620 0.33650
H7 H -0.07680 0.98270 0.24850
H8 H -0.20490 0.97940 0.35250
H9 H -0.09420 1.10330 0.42700
H10 H 0.01370 1.11480 0.31410
H11 H -0.20290 1.23830 0.39150
H12 H -0.12130 1.22710 0.26990
H13 H -0.25640 1.16190 0.31820
H14 H 0.04770 0.59100 0.18250
H15 H 0.20420 0.55360 0.19440
H16 H 0.15160 0.37550 0.21430
H17 H -0.00300 0.41390 0.19920
H18 H 0.10210 0.45620 0.02880
H19 H 0.25510 0.41350 0.04460
H20 H 0.14300 0.25240 0.09620
H21 H 0.04050 0.30380 0.02830
H22 H 0.16960 0.27330 -0.08250
H23 H 0.27900 0.22640 -0.01820
H24 H 0.06930 0.10380 0.00660
H25 H 0.15180 0.11960 -0.11340
H26 H 0.23890 0.07330 -0.03300
H27 H 0.48360 0.29220 0.75950
H28 H 0.34610 0.27900 0.72040
H29 H 0.48650 0.17710 0.57780
H30 H 0.62760 0.19520 0.61020
H31 H 0.55220 0.09010 0.75770
H32 H 0.41450 0.06970 0.72180
H33 H 0.55570 -0.03180 0.58170
H34 H 0.69620 -0.00740 0.61180
H35 H 0.63550 -0.11060 0.75640
H36 H 0.49280 -0.13350 0.72860
H37 H 0.65960 -0.28140 0.69050
H38 H 0.62580 -0.23290 0.58640
H39 H 0.76910 -0.20940 0.61350
H40 H 0.38350 0.58840 0.66420
H41 H 0.27700 0.50810 0.73140
H42 H 0.41830 0.47890 0.84770
H43 H 0.53120 0.55360 0.77870
H44 H 0.35650 0.70470 0.81670
H45 H 0.24740 0.62930 0.88890
H46 H 0.38610 0.60980 1.00440
H47 H 0.49550 0.68500 0.93220
H48 H 0.30940 0.83240 0.96020
H49 H 0.20460 0.75690 1.03640
H50 H 0.38430 0.75220 1.11770
H51 H 0.39330 0.86950 1.06330
H52 H 0.24470 0.83920 1.13820
O2A O 0.1194(3) 0.4585(3) 0.6181(2)
O4A O 0.3675(2) 0.5808(2) 0.4027(2)
Cu1A Cu -0.25661(5) 0.51920(4) 0.51036(4)
Cu1A* Cu 0.74339(5) 0.51920(4) 0.51036(4)
#END
