
#######################################################################
#
#                 Cambridge Crystallographic Data Centre
#                                CCDC
#
#######################################################################
#
# If this CIF has been generated from an entry in the Cambridge
# Structural Database, then it will include bibliographic, chemical,
# crystal, experimental, refinement or atomic coordinate data resulting
# from the CCDC's data processing and validation procedures.
#
#######################################################################

data_CSD_CIF_COCHCL01
_audit_creation_date 2001-11-07
_audit_creation_method CSD-ConQuest-V1
_database_code_CSD COCHCL01
_database_code_depnum_ccdc_archive 'CCDC 1128168'
_chemical_formula_sum 'C17 H22 Cl1 N1 O4'
_chemical_formula_moiety
;
C17 H22 N1 O4 1+,Cl1 1-
;
_journal_coden_Cambridge 1094
_journal_volume 10
_journal_year 1999
_journal_page_first 91
_journal_name_full 'Struct.Chem. '
loop_
_publ_author_name
"Naijue Zhu"
"A.Harrison"
"M.L.Trudell"
"C.L.Klein-Stevens"
_chemical_name_systematic
;
(-)-cocaine hydrochloride
;
_chemical_name_common
;
Teaching Subset: Drug Molecules
;
_cell_volume   1679.790
_exptl_crystal_colour 'colorless'
_exptl_special_details
;
inhibits dopamine uptake

;
_exptl_crystal_preparation '2-propanol'
_diffrn_ambient_temperature ?
_diffrn_special_details
;
The study was carried out at room temperature,in the range 283-303K

;
#These two values have been output from a single CSD field.
_refine_ls_R_factor_gt 0.035
_refine_ls_wR_factor_gt 0.035
_symmetry_cell_setting orthorhombic
_symmetry_space_group_name_H-M 'P 21 21 21'
_symmetry_Int_Tables_number 19
loop_
_symmetry_equiv_pos_site_id
_symmetry_equiv_pos_as_xyz
1 x,y,z
2 1/2-x,-y,1/2+z
3 1/2+x,1/2-y,-z
4 -x,1/2+y,1/2-z
_cell_length_a 7.622(1)
_cell_length_b 10.285(1)
_cell_length_c 21.428(3)
_cell_angle_alpha 90
_cell_angle_beta 90
_cell_angle_gamma 90
_cell_formula_units_Z 4
loop_
_atom_type_symbol
_atom_type_radius_bond
C 0.68
H 0.23
Cl 0.99
N 0.68
O 0.68
loop_
_atom_site_label
_atom_site_type_symbol
_atom_site_fract_x
_atom_site_fract_y
_atom_site_fract_z
Cl1 Cl 0.2463(3) 1.0478(2) 0.82117(8)
O1 O 0.5585(6) 1.0707(4) 0.6111(2)
O2 O 0.6832(6) 1.2139(4) 0.5454(2)
O3 O 0.6982(6) 1.1365(4) 0.7265(2)
O4 O 0.5413(5) 1.2784(4) 0.7811(2)
N1 N 0.1942(6) 1.2619(4) 0.7238(2)
C1 C 0.3240(8) 1.3504(5) 0.6907(3)
C2 C 0.4847(8) 1.2699(5) 0.6729(3)
C3 C 0.4251(9) 1.1655(6) 0.6268(3)
C4 C 0.2666(9) 1.0906(5) 0.6502(3)
C5 C 0.1235(8) 1.1843(6) 0.6691(3)
C6 C 0.0848(9) 1.2901(6) 0.6205(3)
C7 C 0.2161(9) 1.3996(6) 0.6362(3)
C8 C 0.6825(8) 1.1084(6) 0.5696(3)
C9 C 0.8132(8) 1.0040(6) 0.5564(3)
C10 C 0.8044(8) 0.8821(6) 0.5853(3)
C11 C 0.9280(1) 0.7884(7) 0.5707(3)
C12 C 1.0560(1) 0.8157(7) 0.5273(3)
C13 C 1.0660(1) 0.9357(8) 0.4985(3)
C14 C 0.9426(9) 1.0290(7) 0.5141(3)
C15 C 0.5865(8) 1.2169(6) 0.7287(3)
C16 C 0.6261(9) 1.2349(7) 0.8380(3)
C17 C 0.0573(9) 1.3343(6) 0.7584(3)
H1 H 0.246(9) 1.200(6) 0.756(3)
H2 H 0.351(8) 1.413(6) 0.720(3)
H3 H 0.584(7) 1.329(5) 0.651(2)
H4 H 0.408(6) 1.208(5) 0.592(2)
H5 H 0.238(8) 1.042(5) 0.614(2)
H6 H 0.283(7) 1.041(5) 0.690(2)
H7 H 0.032(8) 1.146(6) 0.680(3)
H8 H -0.041(9) 1.329(6) 0.627(3)
H9 H 0.113(7) 1.267(5) 0.570(2)
H10 H 0.152(7) 1.483(5) 0.639(2)
H11 H 0.291(8) 1.415(5) 0.593(2)
H12 H 0.726(8) 0.855(5) 0.624(2)
H13 H 0.932(8) 0.710(6) 0.598(3)
H14 H 1.138(7) 0.757(6) 0.524(2)
H15 H 1.143(7) 0.964(6) 0.470(2)
H16 H 0.951(8) 1.121(5) 0.496(3)
H17 H 0.585(8) 1.153(6) 0.849(3)
H18 H 0.74(1) 1.235(6) 0.834(3)
H19 H 0.576(8) 1.290(5) 0.868(2)
H20 H 0.117(7) 1.392(5) 0.787(2)
H21 H 0.002(7) 1.272(5) 0.787(2)
H22 H -0.002(8) 1.390(5) 0.728(3)
#END
