####################################################################### 
# 
# This file contains crystal structure data downloaded from the 
# Cambridge Structural Database (CSD) hosted by the Cambridge 
# Crystallographic Data Centre (CCDC).
# 
# Full information about CCDC data access policies and citation 
# guidelines are available at http://www.ccdc.cam.ac.uk/access/V1 
# 
# Audit and citation data items may have been added by the CCDC. 
# Please retain this information to preserve the provenance of 
# this file and to allow appropriate attribution of the data. 
# 
#######################################################################

data_IMP-17Cu
_audit_block_doi                 10.5517/cc12732h
_database_code_depnum_ccdc_archive 'CCDC 989925'
loop_
_citation_id
_citation_doi
_citation_year
1 10.1039/C4CE00486H 2014
_audit_update_record             
;
2014-03-04 deposited with the CCDC.	2024-07-09 downloaded from the CCDC.
;

_audit_creation_method           SHELXL-2013

#Dr. Robert Davies
#Refcode:- LINMOF1

_chemical_name_systematic        
;
 ?
;
_chemical_name_common            ?
_chemical_melting_point          ?
_chemical_formula_moiety         'C28 H16 Cu2 N16 O4 Si'
_chemical_formula_sum            'C28 H16 Cu2 N16 O4 Si'
_chemical_formula_weight         795.74

loop_
_atom_type_symbol
_atom_type_description
_atom_type_scat_dispersion_real
_atom_type_scat_dispersion_imag
_atom_type_scat_source
C C 0.0033 0.0016 'International Tables Vol C Tables 4.2.6.8 and 6.1.1.4'
H H 0.0000 0.0000 'International Tables Vol C Tables 4.2.6.8 and 6.1.1.4'
Cu Cu 0.3201 1.2651 'International Tables Vol C Tables 4.2.6.8 and 6.1.1.4'
N N 0.0061 0.0033 'International Tables Vol C Tables 4.2.6.8 and 6.1.1.4'
O O 0.0106 0.0060 'International Tables Vol C Tables 4.2.6.8 and 6.1.1.4'
Si Si 0.0817 0.0704 'International Tables Vol C Tables 4.2.6.8 and 6.1.1.4'

_space_group_crystal_system      cubic
_space_group_IT_number           230
_space_group_name_H-M_alt        'I a -3 d'
_space_group_name_Hall           '-I 4bd 2c 3'

_shelx_space_group_comment       
;
The symmetry employed for this shelxl refinement is uniquely defined
by the following loop, which should always be used as a source of
symmetry information in preference to the above space-group names.
They are only intended as comments.
;

loop_
_space_group_symop_operation_xyz
'x, y, z'
'-y+1/4, x+3/4, z+1/4'
'-x+1/2, -y, z+1/2'
'y+1/4, -x+1/4, z+3/4'
'x, -y, -z+1/2'
'y+1/4, x+3/4, -z+3/4'
'-x+1/2, y, -z'
'-y+1/4, -x+1/4, -z+1/4'
'z, x, y'
'-x+1/4, z+3/4, y+1/4'
'-z+1/2, -x, y+1/2'
'x+1/4, -z+1/4, y+3/4'
'z, -x, -y+1/2'
'x+1/4, z+3/4, -y+3/4'
'-z+1/2, x, -y'
'-x+1/4, -z+1/4, -y+1/4'
'y, z, x'
'y+1/2, -z+1/2, -x'
'z+3/4, y+1/4, -x+1/4'
'-y, z+1/2, -x+1/2'
'-z+1/4, -y+1/4, -x+1/4'
'-y+1/2, -z, x+1/2'
'z+3/4, -y+3/4, x+1/4'
'-z+3/4, y+1/4, x+3/4'
'x+1/2, y+1/2, z+1/2'
'-y+3/4, x+5/4, z+3/4'
'-x+1, -y+1/2, z+1'
'y+3/4, -x+3/4, z+5/4'
'x+1/2, -y+1/2, -z+1'
'y+3/4, x+5/4, -z+5/4'
'-x+1, y+1/2, -z+1/2'
'-y+3/4, -x+3/4, -z+3/4'
'z+1/2, x+1/2, y+1/2'
'-x+3/4, z+5/4, y+3/4'
'-z+1, -x+1/2, y+1'
'x+3/4, -z+3/4, y+5/4'
'z+1/2, -x+1/2, -y+1'
'x+3/4, z+5/4, -y+5/4'
'-z+1, x+1/2, -y+1/2'
'-x+3/4, -z+3/4, -y+3/4'
'y+1/2, z+1/2, x+1/2'
'y+1, -z+1, -x+1/2'
'z+5/4, y+3/4, -x+3/4'
'-y+1/2, z+1, -x+1'
'-z+3/4, -y+3/4, -x+3/4'
'-y+1, -z+1/2, x+1'
'z+5/4, -y+5/4, x+3/4'
'-z+5/4, y+3/4, x+5/4'
'-x, -y, -z'
'y-1/4, -x-3/4, -z-1/4'
'x-1/2, y, -z-1/2'
'-y-1/4, x-1/4, -z-3/4'
'-x, y, z-1/2'
'-y-1/4, -x-3/4, z-3/4'
'x-1/2, -y, z'
'y-1/4, x-1/4, z-1/4'
'-z, -x, -y'
'x-1/4, -z-3/4, -y-1/4'
'z-1/2, x, -y-1/2'
'-x-1/4, z-1/4, -y-3/4'
'-z, x, y-1/2'
'-x-1/4, -z-3/4, y-3/4'
'z-1/2, -x, y'
'x-1/4, z-1/4, y-1/4'
'-y, -z, -x'
'-y-1/2, z-1/2, x'
'-z-3/4, -y-1/4, x-1/4'
'y, -z-1/2, x-1/2'
'z-1/4, y-1/4, x-1/4'
'y-1/2, z, -x-1/2'
'-z-3/4, y-3/4, -x-1/4'
'z-3/4, -y-1/4, -x-3/4'
'-x+1/2, -y+1/2, -z+1/2'
'y+1/4, -x-1/4, -z+1/4'
'x, y+1/2, -z'
'-y+1/4, x+1/4, -z-1/4'
'-x+1/2, y+1/2, z'
'-y+1/4, -x-1/4, z-1/4'
'x, -y+1/2, z+1/2'
'y+1/4, x+1/4, z+1/4'
'-z+1/2, -x+1/2, -y+1/2'
'x+1/4, -z-1/4, -y+1/4'
'z, x+1/2, -y'
'-x+1/4, z+1/4, -y-1/4'
'-z+1/2, x+1/2, y'
'-x+1/4, -z-1/4, y-1/4'
'z, -x+1/2, y+1/2'
'x+1/4, z+1/4, y+1/4'
'-y+1/2, -z+1/2, -x+1/2'
'-y, z, x+1/2'
'-z-1/4, -y+1/4, x+1/4'
'y+1/2, -z, x'
'z+1/4, y+1/4, x+1/4'
'y, z+1/2, -x'
'-z-1/4, y-1/4, -x+1/4'
'z-1/4, -y+1/4, -x-1/4'

_cell_length_a                   36.1906(18)
_cell_length_b                   36.1906(18)
_cell_length_c                   36.1906(18)
_cell_angle_alpha                90
_cell_angle_beta                 90
_cell_angle_gamma                90
_cell_volume                     47401(7)
_cell_formula_units_Z            24
_cell_measurement_temperature    100(2)
_cell_measurement_reflns_used    24279
_cell_measurement_theta_min      3.1
_cell_measurement_theta_max      27.5

_exptl_crystal_description       Prism
_exptl_crystal_colour            blue-green
_exptl_crystal_density_meas      ?
_exptl_crystal_density_method    ?
_exptl_crystal_density_diffrn    0.669
_exptl_crystal_F_000             9600
_exptl_transmission_factor_min   ?
_exptl_transmission_factor_max   ?
_exptl_crystal_size_max          0.180
_exptl_crystal_size_mid          0.170
_exptl_crystal_size_min          0.090
_exptl_absorpt_coefficient_mu    0.580
_shelx_estimated_absorpt_T_min   0.903
_shelx_estimated_absorpt_T_max   0.950
_exptl_absorpt_correction_type   Multi-scan
_exptl_absorpt_correction_T_max  1.000
_exptl_absorpt_correction_T_min  0.158
_exptl_absorpt_process_details   
;
Rigaku CrystalClear-SM Expert 3.1 b24
;
_exptl_special_details           
;
 ?
;

_diffrn_ambient_temperature      100(2)
_diffrn_source_power             2.475
_diffrn_source_voltage           45.0
_diffrn_source_current           55.0
_diffrn_source                   'Rotating Anode'

_diffrn_radiation_wavelength     0.71075
_diffrn_radiation_type           MoK\a
_diffrn_radiation_collimation    'Confocal mirrors, HF Varimax '

_diffrn_detector                 'CCD plate'
_diffrn_detector_type            'Rigaku HG Saturn724+ (2x2 bin mode)'
_diffrn_detector_area_resol_mean 28.5714

_diffrn_measurement_device       'four-circle \k goniometer'
_diffrn_measurement_device_type  'Rigaku AFC12 (Right)'
_diffrn_measurement_method       'profile data from \w-scans'
_diffrn_measurement_specimen_support 'MiTeGen MicroMesh'
_diffrn_reflns_number            126009
_diffrn_reflns_av_unetI/netI     0.0391
_diffrn_reflns_av_R_equivalents  0.1161
_diffrn_reflns_limit_h_min       -43
_diffrn_reflns_limit_h_max       26
_diffrn_reflns_limit_k_min       -43
_diffrn_reflns_limit_k_max       43
_diffrn_reflns_limit_l_min       -43
_diffrn_reflns_limit_l_max       40
_diffrn_reflns_theta_min         3.083
_diffrn_reflns_theta_max         25.027
_diffrn_reflns_theta_full        25.242
_diffrn_measured_fraction_theta_max 0.998
_diffrn_measured_fraction_theta_full 0.973
_diffrn_reflns_Laue_measured_fraction_max 0.998
_diffrn_reflns_Laue_measured_fraction_full 0.973
_diffrn_reflns_point_group_measured_fraction_max 0.998
_diffrn_reflns_point_group_measured_fraction_full 0.973
_reflns_number_total             3498
_reflns_number_gt                1134
_reflns_threshold_expression     'I > 2\s(I)'
_reflns_Friedel_coverage         0.000
_reflns_Friedel_fraction_max     .
_reflns_Friedel_fraction_full    .

_reflns_special_details          
;
 Reflections were merged by SHELXL according to the crystal
 class for the calculation of statistics and refinement.
 
 Structure factors included contributions from the .fab file.
 
 _reflns_Friedel_fraction is defined as the number of unique
 Friedel pairs measured divided by the number that would be
 possible theoretically, ignoring centric projections and
 systematic absences.
;

_computing_data_collection       
;
Rigaku CrystalClear-SM Expert 3.1 b24
;
_computing_cell_refinement       
;
Rigaku CrystalClear-SM Expert 3.1 b24
;
_computing_data_reduction        
;
Rigaku CrystalClear-SM Expert 3.1 b24
;
_computing_structure_solution    'SHELXS-2013 (Sheldrick, 2013)'
_computing_structure_refinement  'SHELXL-2013 (Sheldrick, 2013)'
_computing_molecular_graphics    'ORTEP3 for Windows (Farrugia, 1997)'
_computing_publication_material  'WINGX (Farrugia, 1998)'

_refine_special_details          
;
 ?
;
_refine_ls_structure_factor_coef Fsqd
_refine_ls_matrix_type           full
_refine_ls_weighting_scheme      calc
_refine_ls_weighting_details     
'w=1/[\s^2^(Fo^2^)+(0.2000P)^2^] where P=(Fo^2^+2Fc^2^)/3'
_atom_sites_solution_primary     ?
_atom_sites_solution_secondary   ?
_atom_sites_solution_hydrogens   geom
_refine_ls_hydrogen_treatment    constr
_refine_ls_extinction_method     none
_refine_ls_extinction_coef       .
_refine_ls_number_reflns         3498
_refine_ls_number_parameters     104
_refine_ls_number_restraints     38
_refine_ls_R_factor_all          0.2228
_refine_ls_R_factor_gt           0.1359
_refine_ls_wR_factor_ref         0.4402
_refine_ls_wR_factor_gt          0.3710
_refine_ls_goodness_of_fit_ref   1.107
_refine_ls_restrained_S_all      1.121
_refine_ls_shift/su_max          0.000
_refine_ls_shift/su_mean         0.000

loop_
_atom_site_label
_atom_site_type_symbol
_atom_site_fract_x
_atom_site_fract_y
_atom_site_fract_z
_atom_site_U_iso_or_equiv
_atom_site_adp_type
_atom_site_occupancy
_atom_site_site_symmetry_order
_atom_site_calc_flag
_atom_site_refinement_flags_posn
_atom_site_refinement_flags_adp
_atom_site_refinement_flags_occupancy
_atom_site_disorder_assembly
_atom_site_disorder_group
Cu1 Cu 0.94043(3) 0.44043(3) 0.05957(3) 0.2264(13) Uani 1 3 d S TU P . .
Cu2 Cu 1.0000 0.5000 0.0000 0.1917(13) Uani 1 6 d S TU P . .
O1 O 0.9086(3) 0.4503(3) 0.1056(3) 0.392(5) Uani 1 1 d . U . . .
C1 C 1.0296(3) 0.4860(3) 0.1132(3) 0.207(3) Uani 1 1 d . U . . .
C2 C 1.05218(19) 0.49005(18) 0.14564(17) 0.218(3) Uani 1 1 d G U . . .
C3 C 1.04404(17) 0.46952(17) 0.1771(2) 0.297(6) Uani 1 1 d G U . . .
H3 H 1.0237 0.4530 0.1770 0.356 Uiso 1 1 calc R U . . .
C4 C 1.0657(2) 0.47321(19) 0.20856(17) 0.291(5) Uani 1 1 d G U . . .
H4 H 1.0601 0.4592 0.2300 0.349 Uiso 1 1 calc R U . . .
C5 C 1.09553(19) 0.49742(19) 0.20863(17) 0.228(3) Uani 1 1 d G U . . .
C6 C 1.10367(15) 0.51795(15) 0.1772(2) 0.231(4) Uani 1 1 d G U . . .
H6 H 1.1240 0.5345 0.1773 0.278 Uiso 1 1 calc R U . . .
C7 C 1.0820(2) 0.51426(15) 0.14571(17) 0.222(3) Uani 1 1 d G U . . .
H7 H 1.0876 0.5283 0.1242 0.266 Uiso 1 1 calc R U . . .
N1 N 0.9859(3) 0.4667(2) 0.0776(3) 0.230(3) Uani 1 1 d . U . . .
N2 N 1.0081(3) 0.4893(2) 0.0585(2) 0.213(3) Uani 1 1 d . U . . .
N3 N 1.0355(2) 0.5006(2) 0.0798(2) 0.208(2) Uani 1 1 d . U . . .
N4 N 0.9993(3) 0.4653(2) 0.1128(2) 0.228(3) Uani 1 1 d . U . . .
Si1 Si 1.1250 0.5000 0.2500 0.230(2) Uani 1 4 d S TU P . .

loop_
_atom_site_aniso_label
_atom_site_aniso_U_11
_atom_site_aniso_U_22
_atom_site_aniso_U_33
_atom_site_aniso_U_23
_atom_site_aniso_U_13
_atom_site_aniso_U_12
Cu1 0.2264(13) 0.2264(13) 0.2264(13) 0.0212(7) 0.0212(7) -0.0212(7)
Cu2 0.1917(13) 0.1917(13) 0.1917(13) 0.0039(8) 0.0039(8) -0.0039(8)
O1 0.359(9) 0.501(15) 0.317(10) 0.004(10) 0.095(7) 0.032(10)
C1 0.216(9) 0.208(8) 0.197(7) 0.011(7) 0.013(6) -0.004(6)
C2 0.240(9) 0.202(8) 0.212(7) 0.012(6) -0.005(6) -0.010(6)
C3 0.316(12) 0.316(12) 0.259(10) 0.114(10) -0.068(9) -0.097(9)
C4 0.281(12) 0.351(14) 0.240(9) 0.068(9) -0.019(7) -0.090(8)
C5 0.220(8) 0.236(9) 0.228(8) 0.006(6) 0.002(6) -0.010(6)
C6 0.252(9) 0.212(8) 0.230(8) 0.010(7) 0.003(6) -0.025(6)
C7 0.266(10) 0.182(7) 0.217(7) 0.010(6) 0.011(6) -0.034(6)
N1 0.247(6) 0.220(7) 0.221(6) 0.017(6) 0.005(5) -0.020(5)
N2 0.222(7) 0.202(6) 0.214(6) 0.012(5) -0.003(5) 0.012(5)
N3 0.196(6) 0.218(7) 0.210(6) -0.006(5) 0.001(5) -0.001(4)
N4 0.227(7) 0.228(7) 0.228(6) 0.017(6) -0.003(5) -0.014(5)
Si1 0.240(5) 0.226(3) 0.226(3) 0.000 0.000 0.000

_geom_special_details            
;
 All esds (except the esd in the dihedral angle between two l.s. planes)
 are estimated using the full covariance matrix.  The cell esds are taken
 into account individually in the estimation of esds in distances, angles
 and torsion angles; correlations between esds in cell parameters are only
 used when they are defined by crystal symmetry.  An approximate (isotropic)
 treatment of cell esds is used for estimating esds involving l.s. planes.
;

loop_
_geom_bond_atom_site_label_1
_geom_bond_atom_site_label_2
_geom_bond_distance
_geom_bond_site_symmetry_2
_geom_bond_publ_flag
Cu1 N1 2.008(9) 18_556 ?
Cu1 N1 2.008(9) 39_545 ?
Cu1 N1 2.008(9) . ?
Cu1 O1 2.056(9) 18_556 ?
Cu1 O1 2.056(9) 39_545 ?
Cu1 O1 2.056(9) . ?
Cu2 N2 2.172(9) . ?
Cu2 N2 2.172(9) 66_764 ?
Cu2 N2 2.172(9) 18_556 ?
Cu2 N2 2.172(9) 49_765 ?
Cu2 N2 2.172(9) 87_664 ?
Cu2 N2 2.172(9) 39_545 ?
C1 N4 1.329(11) . ?
C1 N3 1.337(11) . ?
C1 C2 1.438(11) . ?
C2 C3 1.3900 . ?
C2 C7 1.3900 . ?
C3 C4 1.3900 . ?
C3 H3 0.9500 . ?
C4 C5 1.3900 . ?
C4 H4 0.9500 . ?
C5 C6 1.3900 . ?
C5 Si1 1.841(6) . ?
C6 C7 1.3900 . ?
C6 H6 0.9500 . ?
C7 H7 0.9500 . ?
N1 N2 1.340(9) . ?
N1 N4 1.365(9) . ?
N2 N3 1.320(8) . ?
Si1 C5 1.841(10) 86_765 ?
Si1 C5 1.841(9) 5_565 ?
Si1 C5 1.841(8) 84_756 ?

loop_
_geom_angle_atom_site_label_1
_geom_angle_atom_site_label_2
_geom_angle_atom_site_label_3
_geom_angle
_geom_angle_site_symmetry_1
_geom_angle_site_symmetry_3
_geom_angle_publ_flag
N1 Cu1 N1 91.8(4) 18_556 39_545 ?
N1 Cu1 N1 91.8(4) 18_556 . ?
N1 Cu1 N1 91.8(4) 39_545 . ?
N1 Cu1 O1 96.6(4) 18_556 18_556 ?
N1 Cu1 O1 170.0(5) 39_545 18_556 ?
N1 Cu1 O1 93.4(4) . 18_556 ?
N1 Cu1 O1 93.4(4) 18_556 39_545 ?
N1 Cu1 O1 96.6(4) 39_545 39_545 ?
N1 Cu1 O1 170.0(5) . 39_545 ?
O1 Cu1 O1 77.5(5) 18_556 39_545 ?
N1 Cu1 O1 170.0(5) 18_556 . ?
N1 Cu1 O1 93.4(4) 39_545 . ?
N1 Cu1 O1 96.5(4) . . ?
O1 Cu1 O1 77.5(5) 18_556 . ?
O1 Cu1 O1 77.5(5) 39_545 . ?
N2 Cu2 N2 91.0(3) . 66_764 ?
N2 Cu2 N2 89.0(3) . 18_556 ?
N2 Cu2 N2 180.0(5) 66_764 18_556 ?
N2 Cu2 N2 180.0(5) . 49_765 ?
N2 Cu2 N2 89.0(3) 66_764 49_765 ?
N2 Cu2 N2 91.0(3) 18_556 49_765 ?
N2 Cu2 N2 91.0(3) . 87_664 ?
N2 Cu2 N2 89.0(3) 66_764 87_664 ?
N2 Cu2 N2 91.0(3) 18_556 87_664 ?
N2 Cu2 N2 89.0(3) 49_765 87_664 ?
N2 Cu2 N2 89.0(3) . 39_545 ?
N2 Cu2 N2 91.0(3) 66_764 39_545 ?
N2 Cu2 N2 89.0(3) 18_556 39_545 ?
N2 Cu2 N2 91.0(3) 49_765 39_545 ?
N2 Cu2 N2 180.0(6) 87_664 39_545 ?
N4 C1 N3 110.2(10) . . ?
N4 C1 C2 122.4(10) . . ?
N3 C1 C2 127.4(10) . . ?
C3 C2 C7 120.0 . . ?
C3 C2 C1 119.5(7) . . ?
C7 C2 C1 120.5(7) . . ?
C2 C3 C4 120.0 . . ?
C2 C3 H3 120.0 . . ?
C4 C3 H3 120.0 . . ?
C3 C4 C5 120.0 . . ?
C3 C4 H4 120.0 . . ?
C5 C4 H4 120.0 . . ?
C4 C5 C6 120.0 . . ?
C4 C5 Si1 118.9(5) . . ?
C6 C5 Si1 121.0(5) . . ?
C7 C6 C5 120.0 . . ?
C7 C6 H6 120.0 . . ?
C5 C6 H6 120.0 . . ?
C6 C7 C2 120.0 . . ?
C6 C7 H7 120.0 . . ?
C2 C7 H7 120.0 . . ?
N2 N1 N4 106.9(9) . . ?
N2 N1 Cu1 127.9(8) . . ?
N4 N1 Cu1 125.2(8) . . ?
N3 N2 N1 109.9(9) . . ?
N3 N2 Cu2 127.9(7) . . ?
N1 N2 Cu2 122.0(7) . . ?
N2 N3 C1 106.6(9) . . ?
C1 N4 N1 106.4(9) . . ?
C5 Si1 C5 109.6(5) . 86_765 ?
C5 Si1 C5 109.2(7) . 5_565 ?
C5 Si1 C5 109.6(6) 86_765 5_565 ?
C5 Si1 C5 109.6(5) . 84_756 ?
C5 Si1 C5 109.2(10) 86_765 84_756 ?
C5 Si1 C5 109.6(6) 5_565 84_756 ?

_refine_diff_density_max         0.242
_refine_diff_density_min         -0.258
_refine_diff_density_rms         0.066

_shelxl_version_number           2013-4

_shelx_res_file                  
;
TITL 2013ncs0234
CELL  0.71075  36.1906  36.1906  36.1906   90.000   90.000   90.000
ZERR    24.00   0.0018   0.0018   0.0018    0.000    0.000    0.000
LATT   2
SYMM  1/4 - Y, 3/4 + X, 1/4 + Z
SYMM  1/2 - X, - Y, 1/2 + Z
SYMM  1/4 + Y, 1/4 - X, 3/4 + Z
SYMM    X, - Y, 1/2 - Z
SYMM  1/4 + Y, 3/4 + X, 3/4 - Z
SYMM  1/2 - X,   Y, - Z
SYMM  1/4 - Y, 1/4 - X, 1/4 - Z
SYMM    Z,   X,   Y
SYMM  1/4 - X, 3/4 + Z, 1/4 + Y
SYMM  1/2 - Z, - X, 1/2 + Y
SYMM  1/4 + X, 1/4 - Z, 3/4 + Y
SYMM    Z, - X, 1/2 - Y
SYMM  1/4 + X, 3/4 + Z, 3/4 - Y
SYMM  1/2 - Z,   X, - Y
SYMM  1/4 - X, 1/4 - Z, 1/4 - Y
SYMM    Y,   Z,   X
SYMM  1/2 + Y, 1/2 - Z, - X
SYMM  3/4 + Z, 1/4 + Y, 1/4 - X
SYMM  - Y, 1/2 + Z, 1/2 - X
SYMM  1/4 - Z, 1/4 - Y, 1/4 - X
SYMM  1/2 - Y, - Z, 1/2 + X
SYMM  3/4 + Z, 3/4 - Y, 1/4 + X
SYMM  3/4 - Z, 1/4 + Y, 3/4 + X
SFAC  C    H    CU   N    O    SI
UNIT  672  384  48   384  96   24
MERG   2
ABIN
SHEL 10  0.84
delu
FMAP   2
PLAN    5
SIZE     0.090   0.170   0.180
ACTA
BOND   $H
L.S.  25
TEMP  -173.00
WGHT    0.200000
FVAR       0.09377
CU1   3    0.940428    0.440428    0.059572    10.33333    0.22639    0.22639 =
         0.22639    0.02124    0.02124   -0.02124
CU2   3    1.000000    0.500000    0.000000    10.16667    0.19168    0.19168 =
         0.19168    0.00387    0.00387   -0.00387
O1    5    0.908617    0.450281    0.105585    11.00000    0.35857    0.50150 =
         0.31677    0.00353    0.09520    0.03151
MOLE    1
C1    1    1.029598    0.485997    0.113192    11.00000    0.21573    0.20763 =
         0.19749    0.01061    0.01267   -0.00391
AFIX  66
C2    1    1.052179    0.490052    0.145641    11.00000    0.23987    0.20204 =
         0.21206    0.01224   -0.00466   -0.00980
C3    1    1.044037    0.469524    0.177065    11.00000    0.31586    0.31590 =
         0.25922    0.11431   -0.06796   -0.09750
AFIX  43
H3    2    1.023659    0.452977    0.177017    11.00000   -1.20000
AFIX  65
C4    1    1.065710    0.473207    0.208559    11.00000    0.28119    0.35079 =
         0.24009    0.06787   -0.01909   -0.08987
AFIX  43
H4    2    1.060145    0.459177    0.230035    11.00000   -1.20000
AFIX  65
C5    1    1.095525    0.497418    0.208629    11.00000    0.22035    0.23630 =
         0.22771    0.00573    0.00153   -0.01001
C6    1    1.103668    0.517946    0.177205    11.00000    0.25201    0.21189 =
         0.23035    0.00986    0.00344   -0.02457
AFIX  43
H6    2    1.124046    0.534493    0.177253    11.00000   -1.20000
AFIX  65
C7    1    1.081995    0.514263    0.145711    11.00000    0.26640    0.18230 =
         0.21738    0.01024    0.01066   -0.03400
AFIX  43
H7    2    1.087560    0.528293    0.124235    11.00000   -1.20000
AFIX   0
N1    4    0.985879    0.466652    0.077570    11.00000    0.24726    0.22042 =
         0.22100    0.01739    0.00459   -0.02016
N2    4    1.008086    0.489332    0.058514    11.00000    0.22237    0.20246 =
         0.21352    0.01164   -0.00313    0.01239
N3    4    1.035522    0.500571    0.079757    11.00000    0.19615    0.21767 =
         0.21037   -0.00636    0.00053   -0.00081
N4    4    0.999266    0.465293    0.112815    11.00000    0.22730    0.22834 =
         0.22768    0.01719   -0.00300   -0.01373
SI1   6    1.125000    0.500000    0.250000    10.25000    0.24019    0.22558 =
         0.22558    0.00000    0.00000    0.00000
HKLF    4

REM  2013ncs0234
REM R1 =  0.1359 for    1134 Fo > 4sig(Fo)  and  0.2228 for all    3498 data
REM    104 parameters refined using     38 restraints

END

WGHT      0.2000      0.0000

REM Highest difference peak  0.242,  deepest hole -0.258,  1-sigma level  0.066
Q1    1   1.0479  0.4870  0.1575  11.00000  0.05    0.24
Q2    1   1.0807  0.5058  0.1860  11.00000  0.05    0.23
Q3    1   0.8790  0.4478  0.1166  11.00000  0.05    0.22
Q4    1   1.1066  0.4980  0.2205  11.00000  0.05    0.21
Q5    1   1.0028  0.4996  0.0369  11.00000  0.05    0.18
;
_shelx_res_checksum              81397

_shelx_hkl_file                  
;
  -2  -1  -5 74.1100 3.87000   1
   1   2   5 66.7500 2.17000   1
  -1  -2  -5 68.6700 2.91000   1
   2   1   5 62.1100 2.56000   1
  -1  -5  -2 65.3800 2.67000   1
   1   5   2 67.3600 3.22000   1
   5   2   1 63.6400 2.36000   1
  -2  -5  -1 68.6800 2.60000   1
   2   5   1 66.3500 2.77000   1
  -2  -5  -1 68.0500 2.46000   1
   1   5   2 71.3700 2.98000   1
  -5  -1  -2 67.5100 2.18000   1
   2   5   1 68.7600 2.40000   1
  -1  -5  -2 64.8200 2.22000   1
  -5  -2  -1 63.9300 2.11000   1
   2   5   1 69.9600 2.58000   1
   5   1   2 65.2900 2.32000   1
   1   5   2 66.3700 2.04000   1
   1  -2  -5 71.9500 3.03000   1
  -2  -5   1 67.9300 2.23000   1
  -5   1  -2 67.8900 2.94000   1
  -2  -5   1 67.8100 2.88000   1
  -5   1  -2 64.3200 2.37000   1
  -2  -5   1 71.2500 3.19000   1
   2   5  -1 66.1800 2.49000   1
   2   5  -1 68.6900 2.14000   1
  -1   2   5 62.9900 2.95000   1
   2  -1   5 73.9700 4.20000   1
  -2   1  -5 65.6200 3.50000   1
   5  -1   2 69.5200 2.13000   1
   5  -1   2 65.7100 2.45000   1
   2   5  -1 67.6800 2.57000   1
  -2   1  -5 62.4000 2.65000   1
   1  -5  -2 68.2800 2.18000   1
  -1   5   2 70.2800 1.99000   1
   5   2  -1 67.3000 2.38000   1
   1  -5  -2 58.8900 2.75000   1
  -1   5   2 69.2900 3.47000   1
   1  -5  -2 66.0000 1.99000   1
  -5  -2   1 67.6200 2.76000   1
   2  -1  -5 71.6000 3.74000   1
  -1  -5   2 70.7800 3.13000   1
  -1  -5   2 70.5000 2.57000   1
   5  -2   1 69.3700 2.18000   1
   1   5  -2 71.6200 2.89000   1
   5  -2   1 63.9400 2.66000   1
   1   5  -2 66.0600 2.61000   1
   1   5  -2 59.4300 3.84000   1
  -1  -5   2 67.4500 4.11000   1
  -1   2  -5 68.4000 2.82000   1
  -5   2  -1 63.7100 2.73000   1
  -1   2  -5 71.8100 4.96000   1
  -5   2  -1 67.8100 3.09000   1
   1  -2   5 68.9800 4.15000   1
  -1  -5   2 67.8000 2.40000   1
   1  -2   5 71.6500 2.48000   1
   2  -5  -1 68.1700 2.80000   1
  -2   5   1 67.2900 3.34000   1
  -2   5   1 69.4800 3.41000   1
   5   1  -2 67.5100 2.18000   1
   2  -5  -1 61.9700 3.05000   1
  -2   5  -1 61.4700 3.72000   1
   1  -5   2 70.4900 3.99000   1
   1   2  -5 68.1600 4.65000   1
  -1   5  -2 70.7300 3.05000   1
  -2  -1   5 66.2500 3.60000   1
  -2   5  -1 65.1700 3.10000   1
  -1  -2   5 62.1600 2.91000   1
   2  -5   1 62.5900 2.07000   1
   1   2  -5 67.9300 2.40000   1
   1  -5   2 68.3900 2.74000   1
   2   1  -5 69.0500 4.16000   1
  -1   5  -2 70.5300 3.06000   1
  -1   5  -2 61.4200 4.49000   1
   5  -2  -1 63.3200 2.02000   1
   5  -2  -1 65.3800 1.89000   1
   5  -1  -2 70.3400 1.84000   1
   5  -1  -2 56.9700 1.96000   1
  -5   1   2 67.9600 2.32000   1
  -5   1   2 68.2300 2.30000   1
  -5   2   1 64.6300 2.21000   1
  -4   0  -4 400.330 11.4400   1
   0   4   4 417.490 10.8300   1
  -4   0  -4 418.030 13.1100   1
  -4  -4   0 435.890 12.8500   1
   4   4   0 415.410 11.4100   1
   4   4   0 397.170 10.4600   1
  -4  -4   0 418.900 10.5900   1
   0  -4   4 434.450 13.6900   1
   0  -4   4 417.080 12.0500   1
   0   4  -4 399.860 16.3000   1
   0   4  -4 414.990 12.4300   1
  -4   0   4 425.300 10.8300   1
   4  -4   0 436.320 13.6000   1
   4  -4   0 426.970 12.2400   1
  -4   0   4 440.660 13.4200   1
  -4   4   0 423.190 11.4700   1
  -4  -3  -3 0.69000 1.96000   1
  -3  -4  -3 -0.3300 1.71000   1
   4   3   3 0.29000 1.51000   1
   3   3   4 0.14000 1.45000   1
   3   4   3 1.80000 1.43000   1
  -3  -3  -4 0.52000 1.80000   1
  -3   0  -5 0.69000 3.15000   1
   3   0   5 1.61000 2.24000   1
  -5   0  -3 0.86000 1.60000   1
   5   0   3 0.92000 1.37000   1
   5   0   3 0.45000 1.60000   1
  -5   0  -3 -0.5600 2.15000   1
   0  -5  -3 0.61000 1.08000   1
   0  -5  -3 0.63000 2.06000   1
  -3  -5   0 -0.0500 1.37000   1
   0   5   3 0.85000 1.32000   1
  -3  -5   0 0.79000 2.25000   1
   0   3   5 0.01000 1.45000   1
   3   5   0 0.75000 2.11000   1
   3   5   0 0.70000 1.86000   1
   3   5   0 0.39000 1.70000   1
  -5  -3   0 0.72000 2.07000   1
  -3  -5   0 1.04000 2.01000   1
   0   5   3 -0.2300 1.29000   1
   5   3   0 0.33000 1.13000   1
   0   5   3 0.24000 1.72000   1
  -3   3  -4 -0.6600 4.06000   1
   3  -3   4 -0.8400 1.76000   1
   3  -3   4 1.12000 3.13000   1
  -3   3  -4 0.45000 1.50000   1
  -4   3  -3 1.66000 2.16000   1
   4  -3   3 0.99000 1.24000   1
  -4   3  -3 0.51000 3.42000   1
   4  -3   3 0.23000 2.78000   1
  -3  -4   3 0.45000 2.14000   1
  -4  -3   3 0.29000 1.97000   1
   3   4  -3 -0.0400 2.31000   1
   4   3  -3 -0.1600 1.72000   1
   3   4  -3 -0.3000 1.87000   1
  -4  -3   3 -0.3300 2.00000   1
   3   4  -3 0.40000 1.62000   1
   4   3  -3 1.80000 1.65000   1
  -3  -4   3 1.19000 1.84000   1
  -3  -4   3 -0.0700 2.62000   1
  -3  -4   3 -0.0400 2.23000   1
  -4  -3   3 0.28000 1.77000   1
  -4  -3   3 1.02000 0.89000   1
   4   3  -3 0.06000 1.20000   1
  -3  -4   3 0.40000 1.15000   1
  -3   3   4 -0.5600 0.42000   1
  -3   4   3 0.01000 1.58000   1
   3  -4  -3 0.77000 1.84000   1
   3  -3  -4 0.68000 1.69000   1
  -3  -3   4 0.21000 1.05000   1
   0  -3   5 1.34000 3.22000   1
   0   3  -5 -0.8200 3.92000   1
   3   3  -4 -0.3200 1.61000   1
  -3  -3   4 0.68000 1.95000   1
  -3   4  -3 -1.7500 3.58000   1
  -3   4  -3 0.22000 1.57000   1
   0   5  -3 -1.1800 3.89000   1
   0   3  -5 0.74000 1.91000   1
   0  -3   5 0.13000 1.55000   1
   3   3  -4 1.92000 2.90000   1
   3  -4   3 0.72000 1.89000   1
   3   3  -4 0.41000 1.55000   1
   0   5  -3 0.31000 2.13000   1
  -3  -3   4 -1.5900 2.82000   1
   0  -5   3 0.44000 1.78000   1
   0  -5   3 -0.7500 3.24000   1
   3  -4   3 -1.1200 3.04000   1
  -4   3   3 0.51000 1.97000   1
  -3   5   0 -0.3200 2.33000   1
   5   0  -3 1.68000 1.17000   1
   5   0  -3 0.80000 1.23000   1
   5  -3   0 1.01000 1.26000   1
  -3   0   5 0.97000 2.21000   1
   5  -3   0 -0.2600 1.41000   1
   3  -5   0 -0.1500 1.93000   1
  -5   0   3 -0.3000 1.37000   1
   3   0  -5 0.07000 3.15000   1
  -5   3   0 0.43000 1.84000   1
  -5   3   0 -0.2800 1.80000   1
  -3   5   0 1.10000 2.94000   1
   5   0  -3 0.30000 1.41000   1
  -3   5   0 0.60000 1.07000   1
  -5   0   3 0.88000 1.71000   1
   4  -3  -3 0.02000 1.46000   1
  -4   3   3 -0.1800 0.39000   1
   3  -5   0 0.05000 2.13000   1
   4   2   4 -0.6900 1.68000   1
   2   4   4 0.03000 1.34000   1
  -4  -4  -2 0.21000 2.04000   1
   4   4   2 0.20000 1.18000   1
  -2  -4  -4 -0.3500 1.63000   1
  -4  -2  -4 -0.0100 2.07000   1
   0   0  -6 -0.2500 3.30000   1
   4  -2   4 -0.6700 1.74000   1
   4  -2   4 0.09000 2.73000   1
  -4   2  -4 1.27000 2.16000   1
  -4   2  -4 1.27000 3.88000   1
   4   4  -2 1.93000 1.83000   1
  -4  -4   2 1.65000 2.21000   1
   0   6   0 1.20000 2.41000   1
   4   4  -2 0.37000 1.93000   1
   0   6   0 1.39000 1.74000   1
   0  -6   0 -0.8300 2.13000   1
   0  -6   0 -0.6000 2.15000   1
  -4  -4   2 -0.5700 2.32000   1
   0  -6   0 -0.1600 1.78000   1
   0  -6   0 1.70000 1.93000   1
  -4  -4   2 0.53000 1.30000   1
   4   4  -2 0.45000 1.31000   1
   2  -4  -4 0.35000 2.04000   1
   6   0   0 0.01000 1.14000   1
  -6   0   0 0.34000 1.77000   1
   6   0   0 -0.5400 1.38000   1
  -2   4  -4 4.41000 4.06000   1
  -2  -4   4 -0.0700 1.38000   1
  -2   4  -4 0.17000 2.38000   1
   2   4  -4 0.53000 2.55000   1
   2   4  -4 -1.0500 3.82000   1
   2  -4   4 0.86000 3.28000   1
   2   4  -4 0.40000 1.66000   1
   2  -4   4 0.20000 1.98000   1
  -2  -4   4 0.45000 3.31000   1
  -4  -2   4 -0.7900 2.27000   1
  -4  -2   4 -0.1500 1.95000   1
  -4  -2   4 1.21000 1.82000   1
   4  -4   2 -1.4200 2.69000   1
   4   2  -4 0.05000 1.52000   1
  -4   4  -2 0.09000 3.33000   1
  -4   4  -2 2.26000 2.35000   1
   4   2  -4 0.54000 1.20000   1
   4   2  -4 0.45000 2.34000   1
   4  -4   2 0.19000 2.08000   1
  -4   2   4 0.99000 1.02000   1
   4  -4  -2 -0.1200 1.75000   1
  -4   4   2 2.25000 1.62000   1
  -4   2   4 1.85000 1.22000   1
  -4   4   2 1.24000 2.27000   1
   4  -4  -2 -0.2900 1.22000   1
  -5  -2  -3 431.660 13.3700   1
   5   2   3 371.590 11.2700   1
   2   3   5 414.010 11.4200   1
  -3  -2  -5 430.390 13.3200   1
  -2  -5  -3 448.280 13.7000   1
  -2  -5  -3 412.500 12.9200   1
   3   2   5 398.740 11.4400   1
   2   5   3 418.880 11.5200   1
   5   3   2 402.840 11.7200   1
  -3  -5  -2 422.430 12.3500   1
   3   5   2 440.750 12.4800   1
  -5  -3  -2 424.170 13.1500   1
  -3  -5  -2 428.160 12.8500   1
  -2  -3  -5 433.930 12.5000   1
   1   1   6 237.280 7.76000   1
  -1  -1  -6 248.520 9.32000   1
  -1  -6  -1 236.320 7.14000   1
  -1  -6  -1 231.990 7.22000   1
  -6  -1  -1 247.740 7.35000   1
   1   6   1 238.310 7.92000   1
  -1  -6  -1 232.880 6.54000   1
   1   6   1 234.770 6.15000   1
   1   6   1 234.990 6.72000   1
   6   1   1 233.550 6.29000   1
  -3   2  -5 414.280 11.6400   1
   3  -2   5 419.270 15.9800   1
  -3   2  -5 439.190 18.1900   1
   3  -2   5 424.490 11.4700   1
   1  -1   6 243.270 9.34000   1
  -1   1  -6 243.930 10.5800   1
   2  -5  -3 429.540 13.4200   1
  -5   2  -3 413.640 15.6900   1
  -1   1   6 234.480 8.58000   1
   6  -1   1 230.800 6.08000   1
   1   6  -1 237.040 6.98000   1
  -3  -5   2 424.090 13.5700   1
   2  -3  -5 438.320 13.2100   1
  -5   2  -3 404.010 12.5700   1
   1  -6  -1 245.620 8.38000   1
  -3  -5   2 440.640 12.7100   1
   1  -6  -1 228.730 6.48000   1
  -5  -3   2 425.470 13.1400   1
   1  -6  -1 229.230 6.54000   1
   2  -5  -3 405.030 10.2600   1
  -1  -6   1 229.970 7.05000   1
  -1  -6   1 229.190 6.55000   1
  -6   1  -1 242.110 6.79000   1
  -1  -6   1 216.530 7.47000   1
  -1  -6   1 226.140 6.23000   1
   1   6  -1 230.280 7.13000   1
  -6  -1   1 244.660 6.85000   1
   1  -6  -1 241.290 7.46000   1
  -2   5   3 439.110 14.7800   1
   3   5  -2 430.240 11.9300   1
   1  -1  -6 247.550 10.0800   1
   6   1  -1 221.630 4.56000   1
  -2   5   3 425.490 11.3600   1
   5  -2   3 404.490 12.5700   1
   5  -2   3 422.370 12.2500   1
   5   3  -2 419.600 11.2300   1
  -2   5   3 423.660 10.2600   1
   3   5  -2 407.020 12.4000   1
   6   1  -1 232.550 6.13000   1
  -2   3   5 486.070 12.9900   1
   6  -1   1 230.570 5.94000   1
  -1   6   1 227.230 7.90000   1
  -3  -5   2 417.140 12.0700   1
   5   3  -2 434.460 12.7600   1
  -5   3  -2 424.090 17.9100   1
  -1   6  -1 236.720 9.33000   1
   2  -3   5 429.650 12.9300   1
   1  -6   1 244.610 10.1600   1
  -5   3  -2 428.040 13.3300   1
  -2  -5   3 421.230 12.0300   1
  -3   2   5 406.100 11.8500   1
  -2  -5   3 429.840 16.1200   1
  -2  -5   3 451.090 13.5100   1
   3  -2  -5 438.370 13.7300   1
   5  -3   2 425.480 12.5000   1
   5  -3   2 419.170 13.1400   1
   1  -6   1 209.280 6.80000   1
   2   5  -3 460.800 14.4700   1
  -2  -5   3 429.900 14.3400   1
   1  -6   1 232.540 5.89000   1
   1   1  -6 246.100 9.88000   1
  -2   3  -5 440.600 18.6800   1
  -2   3  -5 393.140 13.1400   1
  -1   6  -1 231.060 7.66000   1
  -1  -1   6 236.410 8.55000   1
   2  -3   5 449.260 16.8800   1
   2   5  -3 406.220 12.0500   1
  -5  -2   3 422.890 12.4800   1
  -6   1   1 236.470 6.17000   1
   3  -5  -2 445.700 13.8300   1
  -6   1   1 234.960 6.32000   1
   6  -1  -1 231.560 6.20000   1
  -3   5   2 425.150 12.9700   1
   5   2  -3 420.790 12.1800   1
  -5  -2   3 435.110 12.8700   1
   5   2  -3 431.250 12.2500   1
   3  -5  -2 416.980 12.4000   1
  -5  -2   3 434.120 13.0800   1
  -3   5   2 484.590 15.4600   1
  -2  -3   5 429.900 16.2000   1
   3   2  -5 423.790 15.8000   1
   2  -5   3 450.380 13.8200   1
   2  -5   3 432.670 15.8700   1
  -2   5  -3 438.050 17.6900   1
  -3  -2   5 418.630 14.9600   1
  -2   5  -3 411.170 13.4500   1
   3   2  -5 399.380 10.7500   1
  -2  -3   5 423.780 12.6700   1
  -3   5  -2 445.230 14.3900   1
  -3   5  -2 426.810 16.3900   1
   3  -5   2 438.270 13.5400   1
   3  -5   2 419.770 14.7600   1
   2   3  -5 434.130 17.7100   1
   2   3  -5 402.710 12.7900   1
   5  -2  -3 416.350 11.4700   1
   5  -2  -3 471.760 12.5900   1
   5  -3  -2 413.580 11.5700   1
  -5   3   2 444.390 12.9800   1
  -5   3   2 425.260 11.1600   1
  -5   3   2 393.340 9.31000   1
   5  -2  -3 420.320 10.8200   1
  -5   2   3 430.420 13.5200   1
   0   2   6 435.790 14.6700   1
   2   6   0 494.840 14.8300   1
   2   6   0 530.680 16.3500   1
  -2   0  -6 478.900 16.7300   1
  -2  -6   0 489.070 14.8200   1
   2   6   0 448.060 14.6800   1
  -2  -6   0 496.030 14.6300   1
   2   0   6 467.620 16.6800   1
  -2  -6   0 477.060 15.3000   1
   0  -2  -6 479.910 17.2200   1
   0   6   2 499.930 14.6700   1
   0   6   2 484.410 13.4900   1
  -6   0  -2 485.260 15.5700   1
   6   2   0 472.740 14.3600   1
   0  -6  -2 511.440 15.3000   1
   0  -6  -2 450.350 14.0100   1
  -6   0  -2 490.010 13.9200   1
   6   0   2 471.850 14.2900   1
  -6  -2   0 499.230 15.9200   1
   0   6   2 489.630 17.1700   1
   0   2  -6 495.350 15.4200   1
   2   0  -6 476.650 17.5800   1
   0  -6   2 514.510 15.3500   1
   0   6  -2 472.510 19.5200   1
   0   2  -6 477.760 19.9900   1
   0  -6   2 508.320 15.8400   1
   0   6  -2 486.100 15.2100   1
   0  -6   2 462.540 18.0100   1
   0  -2   6 458.440 17.7300   1
   0   6  -2 477.080 15.8100   1
  -2   6   0 485.240 16.4800   1
   2  -6   0 434.780 14.4500   1
  -2   6   0 459.600 18.2900   1
  -6   0   2 480.900 14.0800   1
   6   0  -2 494.840 13.1100   1
   6  -2   0 485.530 13.8000   1
   6  -2   0 459.660 13.1200   1
  -6   2   0 475.760 14.1700   1
  -6   2   0 510.190 16.0500   1
   5   1   4 3398.40 362.090   1
   4   5   1 4629.93 482.370   1
  -5  -1  -4 4418.48 451.200   1
   1   4   5 4616.74 474.050   1
   1   5   4 4506.70 454.250   1
  -5  -4  -1 4650.98 471.490   1
  -1  -5  -4 3683.73 379.820   1
  -1  -5  -4 4446.32 543.170   1
  -4  -5  -1 4562.04 470.940   1
   4   1   5 3723.96 387.810   1
  -4  -1  -5 4322.75 444.640   1
  -1  -4  -5 4597.39 471.640   1
   5   4   1 4526.23 459.850   1
  -4  -5  -1 4551.66 470.730   1
   5  -1   4 4515.82 501.490   1
  -4  -5   1 4545.67 498.630   1
  -4   1  -5 4435.57 468.500   1
  -5   1  -4 4463.71 486.100   1
   4  -1   5 3738.36 403.550   1
   4  -1   5 4626.23 488.120   1
  -4  -5   1 4528.43 488.210   1
  -4  -5   1 4588.16 499.730   1
   5  -1   4 4551.01 494.790   1
  -4   1  -5 4666.46 511.740   1
   4   5  -1 4762.30 508.910   1
   4   5  -1 4863.73 533.890   1
  -5   1  -4 4500.93 487.420   1
   4   5  -1 4612.44 504.200   1
   1  -4  -5 4622.12 494.460   1
   5   4  -1 4660.51 495.060   1
   5   4  -1 4853.64 514.980   1
  -5  -4   1 4447.77 471.120   1
   1  -5  -4 4347.29 603.190   1
  -1   5   4 4219.51 441.730   1
  -1   5   4 4388.02 859.970   1
   1  -5  -4 4500.59 481.990   1
  -1   4  -5 4296.90 492.680   1
  -1  -5   4 4591.14 494.670   1
  -1  -5   4 4749.05 483.950   1
   1  -4   5 4656.31 506.040   1
   1   5  -4 3100.60 349.320   1
   1   5  -4 4321.83 442.790   1
   1  -4   5 4329.89 493.840   1
  -1   4  -5 4380.80 467.910   1
   4  -5  -1 4634.05 507.130   1
   5   1  -4 4572.84 541.970   1
   5   1  -4 4609.13 502.410   1
  -5  -1   4 4499.39 481.140   1
  -4   5   1 4606.70 501.220   1
   5   1  -4 4934.33 532.810   1
   4  -1  -5 4694.64 479.130   1
  -5   4  -1 4458.27 458.960   1
  -5   4  -1 4469.23 476.130   1
  -4   1   5 4497.58 451.110   1
   5  -4   1 4366.09 451.580   1
   5  -4   1 4258.10 443.860   1
  -4   1   5 4430.43 462.040   1
  -5  -1   4 4779.01 512.700   1
  -1  -4   5 4534.16 480.580   1
  -1   5  -4 4538.72 497.100   1
   1   4  -5 4380.19 478.810   1
  -1   5  -4 4783.79 543.200   1
   1  -5   4 4358.82 498.230   1
   1  -5   4 4702.02 508.030   1
   1   4  -5 4361.55 461.610   1
  -1  -4   5 4412.63 494.540   1
  -4  -1   5 4470.04 496.140   1
  -4   5  -1 4342.02 472.110   1
   4  -5   1 4373.05 475.320   1
   4   1  -5 4707.52 515.960   1
  -5   4   1 4649.16 507.960   1
  -4   5  -1 4385.82 471.290   1
   4  -5   1 4848.18 519.230   1
  -5   1   4 4423.94 524.900   1
   5  -1  -4 4497.34 475.160   1
   5  -1  -4 4695.96 493.950   1
   5  -1  -4 4458.62 469.800   1
  -4  -1   5 4698.74 521.990   1
   5  -4  -1 4535.88 495.960   1
  -2  -6  -2 0.37000 2.19000   1
   2   6   2 0.67000 1.81000   1
   2   6   2 1.81000 2.10000   1
  -2  -2  -6 1.76000 2.85000   1
   2   2   6 0.58000 1.79000   1
   2   6   2 1.25000 2.65000   1
  -2  -6  -2 -1.0900 2.15000   1
  -6  -2  -2 0.50000 2.44000   1
   6   2   2 0.12000 1.82000   1
  -2  -6   2 1.01000 2.12000   1
  -2   2  -6 -0.3300 2.63000   1
   2   6  -2 -0.6000 1.63000   1
  -2  -6   2 0.45000 2.56000   1
  -2  -6   2 1.03000 2.46000   1
  -2   2  -6 1.81000 4.73000   1
  -2  -6   2 -0.2200 2.05000   1
   2  -2   6 -0.6800 2.52000   1
   2   6  -2 0.03000 2.11000   1
   2  -2   6 0.37000 2.08000   1
  -2  -6   2 -1.2200 2.89000   1
   2  -2  -6 1.92000 3.09000   1
  -6   2  -2 -0.1800 2.16000   1
   6  -2   2 0.15000 1.83000   1
   6  -2   2 0.58000 1.82000   1
  -6   2  -2 -1.2200 2.70000   1
   2  -6  -2 -0.1300 2.43000   1
   2  -6  -2 0.45000 2.16000   1
   2  -6  -2 1.39000 2.54000   1
   6   2  -2 -0.7100 1.81000   1
   2  -6  -2 0.13000 1.58000   1
  -6  -2   2 -0.0400 2.31000   1
  -2   6   2 0.12000 3.05000   1
   2  -6   2 2.21000 3.42000   1
  -2   6  -2 0.59000 1.98000   1
   2  -6   2 1.25000 2.39000   1
   2   2  -6 1.18000 2.58000   1
   2   2  -6 -0.6400 4.20000   1
  -2   6  -2 -0.1600 4.08000   1
  -2  -2   6 1.89000 3.48000   1
  -6   2   2 -0.9600 1.69000   1
  -6   2   2 -0.8200 1.81000   1
   6  -2  -2 0.33000 1.79000   1
  -3  -6  -1 7.22000 1.82000   1
  -3  -6  -1 8.06000 2.04000   1
   3   6   1 8.32000 2.21000   1
   3   6   1 8.96000 2.65000   1
   3   1   6 7.67000 2.43000   1
  -3  -1  -6 6.75000 3.56000   1
   3   6   1 9.40000 1.73000   1
  -6  -1  -3 6.59000 2.86000   1
  -6  -1  -3 7.50000 1.90000   1
  -1  -3  -6 6.64000 2.36000   1
   1   3   6 7.96000 1.74000   1
   6   1   3 7.42000 2.11000   1
  -6  -3  -1 8.72000 2.79000   1
   1   6   3 8.54000 2.16000   1
   1   6   3 12.7300 2.00000   1
   6   3   1 8.89000 1.51000   1
   1   6   3 10.5200 3.27000   1
   1   6   3 6.79000 1.75000   1
  -1  -6  -3 7.52000 2.00000   1
  -1  -6  -3 8.60000 2.62000   1
  -6   1  -3 6.49000 2.15000   1
  -6   1  -3 10.4900 3.03000   1
   6  -1   3 7.74000 1.53000   1
   1  -3  -6 8.06000 3.25000   1
   6  -1   3 9.43000 1.86000   1
   1  -6  -3 9.41000 2.39000   1
  -3   1  -6 8.88000 3.48000   1
  -6  -3   1 7.45000 2.75000   1
  -3  -6   1 8.96000 1.91000   1
  -3  -6   1 10.1300 3.27000   1
  -1   6   3 8.07000 1.28000   1
  -3  -6   1 8.01000 1.99000   1
  -1   6   3 8.93000 3.59000   1
   1  -6  -3 7.41000 1.93000   1
  -6  -3   1 7.41000 1.10000   1
   6   3  -1 7.69000 2.23000   1
  -3   1  -6 7.00000 1.87000   1
   3   6  -1 10.0100 2.41000   1
   3   6  -1 8.06000 2.63000   1
   3   6  -1 7.25000 2.25000   1
   1  -6  -3 7.93000 1.76000   1
   3  -1   6 6.67000 3.68000   1
  -1   6   3 13.7200 2.19000   1
   1   6  -3 8.94000 2.84000   1
   1  -3   6 9.82000 2.25000   1
   1   6  -3 6.59000 4.70000   1
  -1   3  -6 8.43000 2.79000   1
   1  -3   6 9.05000 4.28000   1
  -1  -6   3 9.46000 2.26000   1
  -1  -6   3 9.13000 4.19000   1
  -1   3  -6 10.7600 5.39000   1
  -1  -6   3 9.45000 2.42000   1
   1   6  -3 8.92000 2.61000   1
   6   1  -3 7.85000 1.82000   1
   6   1  -3 8.03000 1.85000   1
  -6   3  -1 8.23000 2.89000   1
   3  -6  -1 7.45000 2.61000   1
  -6  -1   3 8.62000 1.91000   1
  -6   3  -1 9.16000 2.55000   1
  -6  -1   3 7.70000 2.21000   1
   3  -6  -1 6.27000 3.00000   1
   6   1  -3 8.49000 1.20000   1
   6  -3   1 9.33000 2.08000   1
  -3   1   6 5.47000 2.47000   1
   6  -3   1 7.12000 2.41000   1
  -3   6   1 8.05000 3.24000   1
  -1  -3   6 10.2200 2.04000   1
  -1   6  -3 8.11000 3.07000   1
  -1  -3   6 8.51000 4.13000   1
  -1   6  -3 7.37000 5.02000   1
   1  -6   3 9.08000 2.51000   1
   1   3  -6 8.93000 2.38000   1
   1  -6   3 8.83000 4.06000   1
   1   3  -6 10.1500 5.14000   1
  -6   1   3 9.35000 1.97000   1
  -6   3   1 6.96000 2.23000   1
  -6   3   1 6.82000 2.29000   1
   6  -1  -3 6.76000 1.78000   1
  -6   1   3 8.01000 2.08000   1
   6  -3  -1 9.00000 2.22000   1
   6  -3  -1 7.38000 1.38000   1
   6  -1  -3 8.02000 1.41000   1
   3  -6   1 8.31000 2.58000   1
  -3  -1   6 7.44000 4.31000   1
  -3   6  -1 9.08000 1.97000   1
  -3   6  -1 8.27000 2.23000   1
   3   1  -6 6.07000 5.09000   1
  -3   6  -1 7.75000 3.82000   1
   4   4   4 4124.75 408.560   1
  -4  -4  -4 3945.21 391.500   1
   4  -4   4 4117.56 416.210   1
   4  -4   4 3829.04 404.220   1
  -4  -4   4 4187.43 424.520   1
  -4  -4   4 3819.73 396.480   1
   4   4  -4 4266.25 430.460   1
  -4   4  -4 4137.23 436.480   1
  -4  -4   4 4082.11 408.510   1
  -4  -4   4 4058.45 407.770   1
   4   4  -4 4230.89 424.240   1
  -4  -4   4 4106.61 411.950   1
  -4   4  -4 3930.60 396.380   1
   4  -4  -4 4035.25 403.700   1
  -4   4   4 4095.76 410.650   1
  -3  -5  -4 872.530 35.2200   1
  -4  -3  -5 918.110 37.8400   1
  -3  -4  -5 856.680 35.1600   1
  -4  -5  -3 924.150 37.4900   1
  -5  -3  -4 952.870 39.2100   1
   4   3   5 933.790 37.0300   1
   5   4   3 929.860 35.0800   1
   4   5   3 896.710 33.8200   1
   5   3   4 991.320 39.1300   1
   3   4   5 947.790 36.7400   1
   3   5   4 935.480 36.4500   1
  -5  -4  -3 939.470 38.7400   1
  -5   0  -5 1.87000 3.32000   1
  -5   0  -5 3.02000 2.64000   1
   5   0   5 2.58000 2.57000   1
   0   5   5 2.47000 1.81000   1
  -5  -5   0 2.54000 2.02000   1
  -5  -5   0 4.11000 3.20000   1
   5   5   0 2.98000 2.43000   1
   5   5   0 3.61000 1.87000   1
   5   5   0 1.55000 2.46000   1
   1   0   7 1.95000 4.67000   1
  -1   0  -7 1.13000 4.63000   1
   1   7   0 0.20000 2.09000   1
   1   7   0 -1.0000 2.38000   1
   0   1   7 1.08000 2.96000   1
  -1  -7   0 -0.5600 2.87000   1
   1   7   0 -1.2500 2.99000   1
   0  -1  -7 -1.3400 3.99000   1
  -1  -7   0 -1.7500 2.49000   1
  -1  -7   0 -0.3100 2.32000   1
   0   7   1 0.