####################################################################### 
# 
# This file contains crystal structure data downloaded from the 
# Cambridge Structural Database (CSD) hosted by the Cambridge 
# Crystallographic Data Centre (CCDC).
# 
# Full information about CCDC data access policies and citation 
# guidelines are available at http://www.ccdc.cam.ac.uk/access/V1 
# 
# Audit and citation data items may have been added by the CCDC. 
# Please retain this information to preserve the provenance of 
# this file and to allow appropriate attribution of the data. 
# 
#######################################################################

data_CP9
_audit_block_doi                 10.5517/cc121s96
_database_code_depnum_ccdc_archive 'CCDC 984817'
loop_
_citation_id
_citation_doi
_citation_year
1 10.1039/C4CE00273C 2014
_audit_update_record             
;
2014-02-03 deposited with the CCDC.	2024-07-09 downloaded from the CCDC.
;

_audit_creation_method           SHELXL-97
_chemical_name_systematic        
;
 ?
;
_chemical_name_common            ?
_chemical_melting_point          ?
_chemical_formula_moiety         'C66 H54 Cd Cl2 Co2 N12 O4, C3 H7 N O'
_chemical_formula_sum            'C69 H61 Cd Cl2 Co2 N13 O5'
_chemical_formula_weight         1453.47

loop_
_atom_type_symbol
_atom_type_description
_atom_type_scat_dispersion_real
_atom_type_scat_dispersion_imag
_atom_type_scat_source
C C 0.0033 0.0016 'International Tables Vol C Tables 4.2.6.8 and 6.1.1.4'
H H 0.0000 0.0000 'International Tables Vol C Tables 4.2.6.8 and 6.1.1.4'
N N 0.0061 0.0033 'International Tables Vol C Tables 4.2.6.8 and 6.1.1.4'
O O 0.0106 0.0060 'International Tables Vol C Tables 4.2.6.8 and 6.1.1.4'
Cl Cl 0.1484 0.1585 'International Tables Vol C Tables 4.2.6.8 and 6.1.1.4'
Co Co 0.3494 0.9721 'International Tables Vol C Tables 4.2.6.8 and 6.1.1.4'
Cd Cd -0.8075 1.2024 'International Tables Vol C Tables 4.2.6.8 and 6.1.1.4'

_symmetry_cell_setting           Monoclinic
_symmetry_space_group_name_H-M   'P2(1)/n  '

loop_
_symmetry_equiv_pos_as_xyz
'x, y, z'
'-x+1/2, y+1/2, -z+1/2'
'-x, -y, -z'
'x-1/2, -y-1/2, z-1/2'

_cell_length_a                   21.3913(5)
_cell_length_b                   14.0119(3)
_cell_length_c                   26.0194(7)
_cell_angle_alpha                90.00
_cell_angle_beta                 97.7030(10)
_cell_angle_gamma                90.00
_cell_volume                     7728.5(3)
_cell_formula_units_Z            4
_cell_measurement_temperature    173(2)
_cell_measurement_reflns_used    8992
_cell_measurement_theta_min      2.45
_cell_measurement_theta_max      26.72

_exptl_crystal_description       plate
_exptl_crystal_colour            dark-red
_exptl_crystal_size_max          0.10
_exptl_crystal_size_mid          0.05
_exptl_crystal_size_min          0.01
_exptl_crystal_density_meas      'not measured'
_exptl_crystal_density_diffrn    1.249
_exptl_crystal_density_method    'not measured'
_exptl_crystal_F_000             2968
_exptl_absorpt_coefficient_mu    0.818
_exptl_absorpt_correction_type   multi-scan
_exptl_absorpt_correction_T_min  0.9227
_exptl_absorpt_correction_T_max  0.9919
_exptl_absorpt_process_details   sadabs

_exptl_special_details           
;
 ?
;

_diffrn_ambient_temperature      173(2)
_diffrn_radiation_wavelength     0.71073
_diffrn_radiation_type           MoK\a
_diffrn_radiation_source         'fine-focus sealed tube'
_diffrn_radiation_monochromator  graphite
_diffrn_measurement_device_type  'Bruker APEX-II CCD'
_diffrn_measurement_method       '\f and \w scans'
_diffrn_detector_area_resol_mean ?
_diffrn_standards_number         ?
_diffrn_standards_interval_count ?
_diffrn_standards_interval_time  ?
_diffrn_standards_decay_%        ?
_diffrn_reflns_number            87748
_diffrn_reflns_av_R_equivalents  0.0659
_diffrn_reflns_av_sigmaI/netI    0.0769
_diffrn_reflns_limit_h_min       -29
_diffrn_reflns_limit_h_max       30
_diffrn_reflns_limit_k_min       -19
_diffrn_reflns_limit_k_max       18
_diffrn_reflns_limit_l_min       -36
_diffrn_reflns_limit_l_max       36
_diffrn_reflns_theta_min         1.58
_diffrn_reflns_theta_max         30.07
_reflns_number_total             22479
_reflns_number_gt                13193
_reflns_threshold_expression     >2sigma(I)

_computing_data_collection       'Bruker APEX2'
_computing_cell_refinement       'Bruker SAINT'
_computing_data_reduction        'Bruker SAINT'

_computing_structure_solution    'SHELXS-97 (Sheldrick, 2008)'
_computing_structure_refinement  'SHELXL-97 (Sheldrick, 2008)'
_computing_molecular_graphics    'Bruker SHELXTL'
_computing_publication_material  'Bruker SHELXTL'
_refine_special_details          
;
 Refinement of F^2^ against ALL reflections.  The weighted R-factor wR and
 goodness of fit S are based on F^2^, conventional R-factors R are based
 on F, with F set to zero for negative F^2^. The threshold expression of
 F^2^ > 2sigma(F^2^) is used only for calculating R-factors(gt) etc. and is
 not relevant to the choice of reflections for refinement.  R-factors based
 on F^2^ are statistically about twice as large as those based on F, and R-
 factors based on ALL data will be even larger.
;

_refine_ls_structure_factor_coef Fsqd
_refine_ls_matrix_type           full
_refine_ls_weighting_scheme      calc
_refine_ls_weighting_details     
'calc w=1/[\s^2^(Fo^2^)+(0.0868P)^2^+0.0000P] where P=(Fo^2^+2Fc^2^)/3'
_atom_sites_solution_primary     direct
_atom_sites_solution_secondary   difmap
_atom_sites_solution_hydrogens   geom
_refine_ls_hydrogen_treatment    constr
_refine_ls_extinction_method     none
_refine_ls_extinction_coef       ?
_refine_ls_number_reflns         22479
_refine_ls_number_parameters     814
_refine_ls_number_restraints     0
_refine_ls_R_factor_all          0.0980
_refine_ls_R_factor_gt           0.0592
_refine_ls_wR_factor_ref         0.1750
_refine_ls_wR_factor_gt          0.1615
_refine_ls_goodness_of_fit_ref   1.032
_refine_ls_restrained_S_all      1.032
_refine_ls_shift/su_max          0.001
_refine_ls_shift/su_mean         0.000

loop_
_atom_site_label
_atom_site_type_symbol
_atom_site_fract_x
_atom_site_fract_y
_atom_site_fract_z
_atom_site_U_iso_or_equiv
_atom_site_adp_type
_atom_site_occupancy
_atom_site_symmetry_multiplicity
_atom_site_calc_flag
_atom_site_refinement_flags
_atom_site_disorder_assembly
_atom_site_disorder_group
C1 C 0.36764(16) 0.2616(3) -0.31254(15) 0.0409(10) Uani 1 1 d . . .
H1 H 0.4047 0.2899 -0.2970 0.049 Uiso 1 1 calc R . .
C2 C 0.35116(18) 0.2512(3) -0.36661(15) 0.0410(10) Uani 1 1 d . . .
H2 H 0.3747 0.2703 -0.3924 0.049 Uiso 1 1 calc R . .
C3 C 0.29349(17) 0.2071(3) -0.37351(14) 0.0363(9) Uani 1 1 d . . .
H3 H 0.2698 0.1917 -0.4050 0.044 Uiso 1 1 calc R . .
C4 C 0.27664(16) 0.1894(3) -0.32326(14) 0.0323(8) Uani 1 1 d . . .
C5 C 0.22282(16) 0.1421(3) -0.31053(13) 0.0291(8) Uani 1 1 d . . .
C6 C 0.21188(15) 0.1224(3) -0.26038(14) 0.0316(8) Uani 1 1 d . . .
C7 C 0.16235(17) 0.0644(3) -0.24332(15) 0.0399(10) Uani 1 1 d . . .
H7 H 0.1286 0.0370 -0.2644 0.048 Uiso 1 1 calc R . .
C8 C 0.17449(18) 0.0575(3) -0.19017(16) 0.0420(10) Uani 1 1 d . . .
H8 H 0.1508 0.0244 -0.1685 0.050 Uiso 1 1 calc R . .
C9 C 0.22959(17) 0.1100(3) -0.17525(15) 0.0374(9) Uani 1 1 d . . .
H9 H 0.2481 0.1172 -0.1411 0.045 Uiso 1 1 calc R . .
C10 C 0.17554(16) 0.1107(3) -0.35423(13) 0.0306(8) Uani 1 1 d . . .
C11 C 0.14390(18) 0.1745(3) -0.38859(16) 0.0403(10) Uani 1 1 d . . .
H11 H 0.1522 0.2394 -0.3846 0.048 Uiso 1 1 calc R . .
C12 C 0.09977(17) 0.1434(3) -0.42917(14) 0.0354(9) Uani 1 1 d . . .
H12 H 0.0794 0.1881 -0.4520 0.042 Uiso 1 1 calc R . .
C13 C 0.11631(17) -0.0122(3) -0.40419(14) 0.0327(8) Uani 1 1 d . . .
H13 H 0.1077 -0.0768 -0.4095 0.039 Uiso 1 1 calc R . .
C14 C 0.16085(16) 0.0142(3) -0.36267(14) 0.0323(8) Uani 1 1 d . . .
H14 H 0.1808 -0.0320 -0.3406 0.039 Uiso 1 1 calc R . .
C15 C 0.35702(18) 0.2266(3) -0.10122(14) 0.0403(10) Uani 1 1 d . . .
H15 H 0.3944 0.1951 -0.1051 0.048 Uiso 1 1 calc R . .
C16 C 0.3361(2) 0.2460(4) -0.05362(15) 0.0530(13) Uani 1 1 d . . .
H16 H 0.3568 0.2304 -0.0210 0.064 Uiso 1 1 calc R . .
C17 C 0.2791(2) 0.2926(4) -0.06403(16) 0.0522(12) Uani 1 1 d . . .
H17 H 0.2540 0.3141 -0.0399 0.063 Uiso 1 1 calc R . .
C18 C 0.26600(17) 0.3013(3) -0.11880(14) 0.0353(9) Uani 1 1 d . . .
C19 C 0.21475(16) 0.3465(3) -0.14632(14) 0.0322(8) Uani 1 1 d . . .
C20 C 0.20869(16) 0.3647(3) -0.19952(13) 0.0306(8) Uani 1 1 d . . .
C21 C 0.16323(17) 0.4228(3) -0.23077(15) 0.0381(9) Uani 1 1 d . . .
H21 H 0.1272 0.4494 -0.2203 0.046 Uiso 1 1 calc R . .
C22 C 0.18190(18) 0.4321(3) -0.27808(16) 0.0402(10) Uani 1 1 d . . .
H22 H 0.1615 0.4662 -0.3061 0.048 Uiso 1 1 calc R . .
C23 C 0.23809(17) 0.3800(3) -0.27661(14) 0.0323(8) Uani 1 1 d . . .
H23 H 0.2611 0.3748 -0.3044 0.039 Uiso 1 1 calc R . .
C24 C 0.16346(17) 0.3795(3) -0.11718(14) 0.0344(9) Uani 1 1 d . . .
C25 C 0.1300(2) 0.3165(3) -0.09067(18) 0.0479(11) Uani 1 1 d . . .
H25 H 0.1370 0.2513 -0.0932 0.057 Uiso 1 1 calc R . .
C26 C 0.0863(2) 0.3492(3) -0.06045(18) 0.0471(11) Uani 1 1 d . . .
H26 H 0.0644 0.3049 -0.0431 0.056 Uiso 1 1 calc R . .
C27 C 0.10659(18) 0.5042(3) -0.08062(16) 0.0409(10) Uani 1 1 d . . .
H27 H 0.0990 0.5691 -0.0775 0.049 Uiso 1 1 calc R . .
C28 C 0.15108(19) 0.4743(3) -0.11153(17) 0.0443(11) Uani 1 1 d . . .
H28 H 0.1727 0.5194 -0.1286 0.053 Uiso 1 1 calc R . .
C29 C 0.48180(17) 0.4127(3) -0.19001(16) 0.0438(10) Uani 1 1 d . . .
H29A H 0.4787 0.4444 -0.2230 0.066 Uiso 1 1 calc R . .
H29B H 0.5249 0.3950 -0.1790 0.066 Uiso 1 1 calc R . .
H29C H 0.4677 0.4549 -0.1649 0.066 Uiso 1 1 calc R . .
C30 C 0.44147(16) 0.3252(3) -0.19492(13) 0.0321(8) Uani 1 1 d . . .
C31 C 0.46961(17) 0.2368(3) -0.18698(14) 0.0365(9) Uani 1 1 d . . .
H31 H 0.5133 0.2352 -0.1787 0.044 Uiso 1 1 calc R . .
C32 C 0.43771(16) 0.1496(3) -0.19032(14) 0.0337(9) Uani 1 1 d . . .
C33 C 0.47357(18) 0.0587(3) -0.18248(18) 0.0481(11) Uani 1 1 d . . .
H33A H 0.4610 0.0251 -0.1534 0.072 Uiso 1 1 calc R . .
H33B H 0.5179 0.0723 -0.1760 0.072 Uiso 1 1 calc R . .
H33C H 0.4650 0.0199 -0.2130 0.072 Uiso 1 1 calc R . .
C34 C 0.36687(17) 0.7094(4) 0.20150(16) 0.0488(12) Uani 1 1 d . . .
H34 H 0.4044 0.7361 0.2174 0.059 Uiso 1 1 calc R . .
C35 C 0.3503(2) 0.7005(4) 0.14767(17) 0.0604(14) Uani 1 1 d . . .
H35 H 0.3746 0.7195 0.1224 0.072 Uiso 1 1 calc R . .
C36 C 0.29276(19) 0.6595(3) 0.13927(16) 0.0465(11) Uani 1 1 d . . .
H36 H 0.2696 0.6453 0.1073 0.056 Uiso 1 1 calc R . .
C37 C 0.27452(16) 0.6423(3) 0.18903(14) 0.0354(9) Uani 1 1 d . . .
C38 C 0.22000(16) 0.5947(3) 0.20055(14) 0.0326(8) Uani 1 1 d . . .
C39 C 0.20896(16) 0.5694(3) 0.25047(14) 0.0328(8) Uani 1 1 d . . .
C40 C 0.16149(18) 0.5083(3) 0.26513(16) 0.0400(10) Uani 1 1 d . . .
H40 H 0.1287 0.4811 0.2428 0.048 Uiso 1 1 calc R . .
C41 C 0.17221(19) 0.4965(3) 0.31712(17) 0.0431(10) Uani 1 1 d . . .
H41 H 0.1486 0.4595 0.3372 0.052 Uiso 1 1 calc R . .
C42 C 0.22628(18) 0.5512(3) 0.33502(15) 0.0393(9) Uani 1 1 d . . .
H42 H 0.2442 0.5557 0.3695 0.047 Uiso 1 1 calc R . .
C43 C 0.17209(16) 0.5693(3) 0.15560(14) 0.0341(9) Uani 1 1 d . . .
C44 C 0.16428(17) 0.4786(3) 0.13558(14) 0.0342(9) Uani 1 1 d . . .
H44 H 0.1889 0.4288 0.1508 0.041 Uiso 1 1 calc R . .
C45 C 0.11976(16) 0.4611(3) 0.09266(14) 0.0312(8) Uani 1 1 d . . .
H45 H 0.1154 0.3993 0.0796 0.037 Uiso 1 1 calc R . .
C46 C 0.0907(2) 0.6188(3) 0.08840(18) 0.0571(14) Uani 1 1 d . . .
H46 H 0.0657 0.6676 0.0725 0.069 Uiso 1 1 calc R . .
C47 C 0.1341(2) 0.6406(3) 0.13031(19) 0.0609(15) Uani 1 1 d . . .
H47 H 0.1382 0.7032 0.1420 0.073 Uiso 1 1 calc R . .
C48 C 0.3496(2) 0.6699(4) 0.41211(16) 0.0532(12) Uani 1 1 d . . .
H48 H 0.3879 0.6407 0.4090 0.064 Uiso 1 1 calc R . .
C49 C 0.3245(2) 0.6817(5) 0.45942(18) 0.0766(18) Uani 1 1 d . . .
H49 H 0.3430 0.6619 0.4921 0.092 Uiso 1 1 calc R . .
C50 C 0.2685(2) 0.7272(4) 0.44811(18) 0.0695(16) Uani 1 1 d . . .
H50 H 0.2412 0.7441 0.4715 0.083 Uiso 1 1 calc R . .
C51 C 0.25931(19) 0.7444(3) 0.39370(16) 0.0439(11) Uani 1 1 d . . .
C52 C 0.21072(18) 0.7964(3) 0.36544(17) 0.0419(10) Uani 1 1 d . . .
C53 C 0.20684(17) 0.8184(3) 0.31259(17) 0.0391(10) Uani 1 1 d . . .
C54 C 0.16406(19) 0.8806(3) 0.2820(2) 0.0512(12) Uani 1 1 d . . .
H54 H 0.1289 0.9103 0.2923 0.061 Uiso 1 1 calc R . .
C55 C 0.1841(2) 0.8879(3) 0.2359(2) 0.0529(12) Uani 1 1 d . . .
H55 H 0.1658 0.9249 0.2082 0.063 Uiso 1 1 calc R . .
C56 C 0.23807(18) 0.8297(3) 0.23656(18) 0.0429(10) Uani 1 1 d . . .
H56 H 0.2608 0.8224 0.2088 0.052 Uiso 1 1 calc R . .
C57 C 0.1615(2) 0.8385(4) 0.3943(2) 0.0711(8) Uani 1 1 d . . .
C58 C 0.1129(2) 0.7880(4) 0.4089(2) 0.0711(8) Uani 1 1 d . . .
H58 H 0.1080 0.7240 0.3999 0.085 Uiso 1 1 calc R . .
C59 C 0.0705(2) 0.8316(4) 0.4371(2) 0.0711(8) Uani 1 1 d . . .
H59 H 0.0385 0.7942 0.4475 0.085 Uiso 1 1 calc R . .
C60 C 0.1182(2) 0.9740(4) 0.4348(2) 0.0711(8) Uani 1 1 d . . .
H60 H 0.1208 1.0387 0.4426 0.085 Uiso 1 1 calc R . .
C61 C 0.1630(2) 0.9322(3) 0.4065(2) 0.0711(8) Uani 1 1 d . . .
H61 H 0.1945 0.9703 0.3960 0.085 Uiso 1 1 calc R . .
C62 C 0.47831(17) 0.8598(3) 0.32288(16) 0.0435(10) Uani 1 1 d . . .
H62A H 0.4835 0.8821 0.2888 0.065 Uiso 1 1 calc R . .
H62B H 0.5188 0.8444 0.3416 0.065 Uiso 1 1 calc R . .
H62C H 0.4588 0.9089 0.3410 0.065 Uiso 1 1 calc R . .
C63 C 0.43740(16) 0.7728(3) 0.31849(13) 0.0383(10) Uani 1 1 d . . .
C64 C 0.46555(17) 0.6838(3) 0.32752(16) 0.0451(11) Uani 1 1 d . . .
H64 H 0.5091 0.6822 0.3368 0.054 Uiso 1 1 calc R . .
C65 C 0.43347(18) 0.5964(3) 0.32380(16) 0.0442(11) Uani 1 1 d . . .
C66 C 0.4695(2) 0.5045(3) 0.3319(2) 0.0680(16) Uani 1 1 d . . .
H66A H 0.4574 0.4719 0.3615 0.102 Uiso 1 1 calc R . .
H66B H 0.5139 0.5179 0.3378 0.102 Uiso 1 1 calc R . .
H66C H 0.4602 0.4650 0.3017 0.102 Uiso 1 1 calc R . .
N1 N 0.32338(13) 0.2256(2) -0.28649(11) 0.0306(7) Uani 1 1 d . . .
N2 N 0.25249(13) 0.1486(2) -0.21594(11) 0.0296(7) Uani 1 1 d . . .
N3 N 0.08564(13) 0.0500(2) -0.43644(10) 0.0276(6) Uani 1 1 d . . .
N4 N 0.31563(13) 0.2599(2) -0.14067(11) 0.0317(7) Uani 1 1 d . . .
N5 N 0.25464(12) 0.3386(2) -0.23006(11) 0.0275(6) Uani 1 1 d . . .
N6 N 0.07423(14) 0.4415(2) -0.05513(11) 0.0336(7) Uani 1 1 d . . .
N7 N 0.32167(13) 0.6744(2) 0.22703(11) 0.0332(7) Uani 1 1 d . . .
N8 N 0.24833(13) 0.5959(2) 0.29541(11) 0.0319(7) Uani 1 1 d . . .
N9 N 0.08282(14) 0.5302(2) 0.06940(11) 0.0303(7) Uani 1 1 d . . .
N10 N 0.31046(14) 0.7066(3) 0.37252(12) 0.0393(8) Uani 1 1 d . . .
N11 N 0.25201(13) 0.7865(2) 0.28218(12) 0.0321(7) Uani 1 1 d . . .
N12 N 0.07240(14) 0.9216(2) 0.45020(12) 0.0365(8) Uani 1 1 d . . .
O2 O 0.38214(10) 0.34007(18) -0.20878(9) 0.0305(6) Uani 1 1 d . . .
O1 O 0.37786(11) 0.14018(18) -0.19946(10) 0.0331(6) Uani 1 1 d . . .
O4 O 0.37842(11) 0.7871(2) 0.30520(10) 0.0365(6) Uani 1 1 d . . .
O3 O 0.37340(11) 0.58727(19) 0.31428(10) 0.0388(7) Uani 1 1 d . . .
Cl1 Cl 0.01307(4) 0.15748(7) -0.54971(4) 0.0371(2) Uani 1 1 d . . .
Cl2 Cl 0.01092(4) 0.67153(7) -0.03467(4) 0.0368(2) Uani 1 1 d . . .
Co1 Co 0.31885(2) 0.24191(4) -0.213285(17) 0.02762(12) Uani 1 1 d . . .
Co2 Co 0.31515(2) 0.68965(4) 0.299605(19) 0.03118(13) Uani 1 1 d . . .
Cd1 Cd 0.0000 0.0000 -0.5000 0.02241(9) Uani 1 2 d S . .
Cd2 Cd 0.0000 0.5000 0.0000 0.02354(9) Uani 1 2 d S . .
C67 C 0.0436(4) 0.2734(9) 0.6960(6) 0.211(8) Uani 1 1 d . . .
H67 H 0.0807 0.2381 0.7010 0.253 Uiso 1 1 calc R . .
C68 C -0.0475(3) 0.3299(7) 0.7337(6) 0.250(9) Uani 1 1 d . . .
H68A H -0.0394 0.3933 0.7470 0.376 Uiso 1 1 calc R . .
H68B H -0.0719 0.2955 0.7560 0.376 Uiso 1 1 calc R . .
H68C H -0.0705 0.3333 0.6995 0.376 Uiso 1 1 calc R . .
C69 C 0.0314(5) 0.2427(7) 0.7844(5) 0.218(7) Uani 1 1 d . . .
H69A H 0.0013 0.2528 0.8081 0.327 Uiso 1 1 calc R . .
H69B H 0.0706 0.2727 0.7976 0.327 Uiso 1 1 calc R . .
H69C H 0.0380 0.1754 0.7806 0.327 Uiso 1 1 calc R . .
N13 N 0.0065(3) 0.2854(4) 0.7320(3) 0.108(2) Uani 1 1 d . . .
O5 O 0.0196(4) 0.3229(4) 0.6458(3) 0.159(3) Uani 1 1 d . . .

loop_
_atom_site_aniso_label
_atom_site_aniso_U_11
_atom_site_aniso_U_22
_atom_site_aniso_U_33
_atom_site_aniso_U_23
_atom_site_aniso_U_13
_atom_site_aniso_U_12
C1 0.0191(17) 0.070(3) 0.0344(19) -0.0159(19) 0.0052(14) -0.0099(18)
C2 0.0301(19) 0.063(3) 0.0307(19) -0.0094(19) 0.0085(15) -0.0068(19)
C3 0.0313(19) 0.050(3) 0.0270(17) -0.0088(17) 0.0000(15) 0.0008(18)
C4 0.0240(17) 0.043(2) 0.0293(18) -0.0118(16) 0.0021(14) 0.0032(16)
C5 0.0215(16) 0.036(2) 0.0289(17) -0.0091(15) -0.0008(13) 0.0043(15)
C6 0.0177(16) 0.043(2) 0.0326(18) -0.0077(16) -0.0008(13) 0.0023(15)
C7 0.0213(17) 0.060(3) 0.038(2) -0.0065(19) 0.0013(15) -0.0040(17)
C8 0.0288(19) 0.056(3) 0.043(2) -0.004(2) 0.0114(17) -0.0037(19)
C9 0.0303(19) 0.048(3) 0.034(2) -0.0049(18) 0.0043(15) 0.0014(17)
C10 0.0208(16) 0.042(2) 0.0280(17) -0.0023(16) 0.0002(13) 0.0006(15)
C11 0.033(2) 0.033(2) 0.050(2) -0.0120(18) -0.0125(17) 0.0015(17)
C12 0.0326(19) 0.031(2) 0.038(2) -0.0017(16) -0.0135(16) 0.0029(16)
C13 0.0283(18) 0.039(2) 0.0297(18) 0.0008(16) -0.0013(14) -0.0012(16)
C14 0.0243(17) 0.040(2) 0.0299(18) 0.0009(16) -0.0049(14) -0.0054(15)
C15 0.0288(19) 0.061(3) 0.0292(18) -0.0034(18) -0.0023(15) 0.0077(18)
C16 0.049(3) 0.087(4) 0.0219(18) -0.003(2) 0.0006(17) 0.020(2)
C17 0.046(3) 0.081(4) 0.032(2) -0.007(2) 0.0110(18) 0.018(2)
C18 0.0277(18) 0.053(3) 0.0261(17) -0.0064(17) 0.0084(14) 0.0063(17)
C19 0.0256(17) 0.041(2) 0.0316(18) -0.0100(16) 0.0088(14) 0.0042(16)
C20 0.0212(16) 0.042(2) 0.0291(17) -0.0069(16) 0.0047(13) 0.0058(15)
C21 0.0221(17) 0.052(3) 0.041(2) -0.0025(19) 0.0055(15) 0.0089(17)
C22 0.034(2) 0.044(3) 0.041(2) 0.0018(18) -0.0023(17) 0.0082(18)
C23 0.0301(18) 0.038(2) 0.0291(18) -0.0016(16) 0.0047(14) 0.0005(16)
C24 0.0303(19) 0.042(2) 0.0329(19) 0.0004(17) 0.0113(15) 0.0079(17)
C25 0.055(3) 0.037(3) 0.058(3) -0.004(2) 0.031(2) 0.007(2)
C26 0.046(2) 0.041(3) 0.060(3) 0.0