####################################################################### 
# 
# This file contains crystal structure data downloaded from the 
# Cambridge Structural Database (CSD) hosted by the Cambridge 
# Crystallographic Data Centre (CCDC).
# 
# Full information about CCDC data access policies and citation 
# guidelines are available at http://www.ccdc.cam.ac.uk/access/V1 
# 
# Audit and citation data items may have been added by the CCDC. 
# Please retain this information to preserve the provenance of 
# this file and to allow appropriate attribution of the data. 
# 
#######################################################################

data_CP11
_audit_block_doi                 10.5517/cc121sc8
_database_code_depnum_ccdc_archive 'CCDC 984819'
loop_
_citation_id
_citation_doi
_citation_year
1 10.1039/C4CE00273C 2014
_audit_update_record             
;
2014-02-03 deposited with the CCDC.	2024-07-09 downloaded from the CCDC.
;

_audit_creation_method           SHELXL-97
_chemical_name_systematic        
;
 ?
;
_chemical_name_common            ?
_chemical_melting_point          ?
_chemical_formula_moiety         
'C134 H116 Br10 Cd5 Co4 N24 O10, 10(C3 H7 N O), 2(C H4 O) '
_chemical_formula_sum            'C166 H194 Br10 Cd5 Co4 N34 O22'
_chemical_formula_weight         4614.37

loop_
_atom_type_symbol
_atom_type_description
_atom_type_scat_dispersion_real
_atom_type_scat_dispersion_imag
_atom_type_scat_source
C C 0.0033 0.0016 'International Tables Vol C Tables 4.2.6.8 and 6.1.1.4'
H H 0.0000 0.0000 'International Tables Vol C Tables 4.2.6.8 and 6.1.1.4'
N N 0.0061 0.0033 'International Tables Vol C Tables 4.2.6.8 and 6.1.1.4'
O O 0.0106 0.0060 'International Tables Vol C Tables 4.2.6.8 and 6.1.1.4'
Co Co 0.3494 0.9721 'International Tables Vol C Tables 4.2.6.8 and 6.1.1.4'
Br Br -0.2901 2.4595 'International Tables Vol C Tables 4.2.6.8 and 6.1.1.4'
Cd Cd -0.8075 1.2024 'International Tables Vol C Tables 4.2.6.8 and 6.1.1.4'

_symmetry_cell_setting           Triclinic
_symmetry_space_group_name_H-M   'P-1   '

loop_
_symmetry_equiv_pos_as_xyz
'x, y, z'
'-x, -y, -z'

_cell_length_a                   12.1312(6)
_cell_length_b                   17.8056(8)
_cell_length_c                   22.2981(10)
_cell_angle_alpha                102.464(2)
_cell_angle_beta                 105.322(2)
_cell_angle_gamma                94.702(2)
_cell_volume                     4486.1(4)
_cell_formula_units_Z            1
_cell_measurement_temperature    173(2)
_cell_measurement_reflns_used    9806
_cell_measurement_theta_min      2.22
_cell_measurement_theta_max      26.50

_exptl_crystal_description       block
_exptl_crystal_colour            dark-red
_exptl_crystal_size_max          0.08
_exptl_crystal_size_mid          0.05
_exptl_crystal_size_min          0.05
_exptl_crystal_density_meas      'not measured'
_exptl_crystal_density_diffrn    1.708
_exptl_crystal_density_method    'not measured'
_exptl_crystal_F_000             2302
_exptl_absorpt_coefficient_mu    3.240
_exptl_absorpt_correction_type   multi-scan
_exptl_absorpt_correction_T_min  0.7816
_exptl_absorpt_correction_T_max  0.8548
_exptl_absorpt_process_details   sadabs

_exptl_special_details           
;
 ?
;

_diffrn_ambient_temperature      173(2)
_diffrn_radiation_wavelength     0.71073
_diffrn_radiation_type           MoK\a
_diffrn_radiation_source         'fine-focus sealed tube'
_diffrn_radiation_monochromator  graphite
_diffrn_measurement_device_type  'Bruker APEX-II CCD'
_diffrn_measurement_method       '\f and \w scans'
_diffrn_detector_area_resol_mean ?
_diffrn_standards_number         ?
_diffrn_standards_interval_count ?
_diffrn_standards_interval_time  ?
_diffrn_standards_decay_%        ?
_diffrn_reflns_number            136106
_diffrn_reflns_av_R_equivalents  0.0541
_diffrn_reflns_av_sigmaI/netI    0.0741
_diffrn_reflns_limit_h_min       -17
_diffrn_reflns_limit_h_max       15
_diffrn_reflns_limit_k_min       -24
_diffrn_reflns_limit_k_max       25
_diffrn_reflns_limit_l_min       -31
_diffrn_reflns_limit_l_max       28
_diffrn_reflns_theta_min         1.76
_diffrn_reflns_theta_max         29.37
_reflns_number_total             23807
_reflns_number_gt                14876
_reflns_threshold_expression     >2sigma(I)

_computing_data_collection       'Bruker APEX2'
_computing_cell_refinement       'Bruker SAINT'
_computing_data_reduction        'Bruker SAINT'

_computing_structure_solution    'SHELXS-97 (Sheldrick, 2008)'
_computing_structure_refinement  'SHELXL-97 (Sheldrick, 2008)'
_computing_molecular_graphics    'Bruker SHELXTL'
_computing_publication_material  'Bruker SHELXTL'

_refine_special_details          
;
 Refinement of F^2^ against ALL reflections.  The weighted R-factor wR and
 goodness of fit S are based on F^2^, conventional R-factors R are based
 on F, with F set to zero for negative F^2^. The threshold expression of
 F^2^ > 2sigma(F^2^) is used only for calculating R-factors(gt) etc. and is
 not relevant to the choice of reflections for refinement.  R-factors based
 on F^2^ are statistically about twice as large as those based on F, and R-
 factors based on ALL data will be even larger.
;

_refine_ls_structure_factor_coef Fsqd
_refine_ls_matrix_type           full
_refine_ls_weighting_scheme      calc
_refine_ls_weighting_details     
'calc w=1/[\s^2^(Fo^2^)+(0.0565P)^2^+12.7016P] where P=(Fo^2^+2Fc^2^)/3'
_atom_sites_solution_primary     direct
_atom_sites_solution_secondary   difmap
_atom_sites_solution_hydrogens   geom
_refine_ls_hydrogen_treatment    constr
_refine_ls_extinction_method     none
_refine_ls_extinction_coef       ?
_refine_ls_number_reflns         23807
_refine_ls_number_parameters     1051
_refine_ls_number_restraints     4
_refine_ls_R_factor_all          0.1093
_refine_ls_R_factor_gt           0.0529
_refine_ls_wR_factor_ref         0.1409
_refine_ls_wR_factor_gt          0.1216
_refine_ls_goodness_of_fit_ref   1.039
_refine_ls_restrained_S_all      1.041
_refine_ls_shift/su_max          0.003
_refine_ls_shift/su_mean         0.000

loop_
_atom_site_label
_atom_site_type_symbol
_atom_site_fract_x
_atom_site_fract_y
_atom_site_fract_z
_atom_site_U_iso_or_equiv
_atom_site_adp_type
_atom_site_occupancy
_atom_site_symmetry_multiplicity
_atom_site_calc_flag
_atom_site_refinement_flags
_atom_site_disorder_assembly
_atom_site_disorder_group
C1 C -0.2957(4) 0.3404(3) 1.2620(2) 0.0272(11) Uani 1 1 d . . .
H1 H -0.3247 0.3812 1.2837 0.033 Uiso 1 1 calc R . .
C2 C -0.2587(5) 0.3416(3) 1.2073(3) 0.0357(13) Uani 1 1 d . . .
H2 H -0.2588 0.3823 1.1873 0.043 Uiso 1 1 calc R . .
C3 C -0.2227(5) 0.2719(3) 1.1895(2) 0.0325(12) Uani 1 1 d . . .
H3 H -0.1940 0.2558 1.1548 0.039 Uiso 1 1 calc R . .
C4 C -0.2375(4) 0.2289(3) 1.2339(2) 0.0241(11) Uani 1 1 d . . .
C5 C -0.2052(4) 0.1567(3) 1.2380(2) 0.0248(11) Uani 1 1 d . . .
C6 C -0.2146(4) 0.1186(3) 1.2854(2) 0.0224(10) Uani 1 1 d . . .
C7 C -0.1795(5) 0.0465(3) 1.2933(3) 0.0324(12) Uani 1 1 d . . .
H7 H -0.1445 0.0145 1.2674 0.039 Uiso 1 1 calc R . .
C8 C -0.2068(4) 0.0327(3) 1.3458(3) 0.0314(12) Uani 1 1 d . . .
H8 H -0.1934 -0.0103 1.3627 0.038 Uiso 1 1 calc R . .
C9 C -0.2586(4) 0.0954(3) 1.3695(2) 0.0274(11) Uani 1 1 d . . .
H9 H -0.2862 0.1001 1.4051 0.033 Uiso 1 1 calc R . .
C10 C -0.1564(5) 0.1179(3) 1.1865(2) 0.0272(11) Uani 1 1 d . . .
C11 C -0.0412(5) 0.1348(3) 1.1906(2) 0.0355(13) Uani 1 1 d . . .
H11 H 0.0091 0.1692 1.2268 0.043 Uiso 1 1 calc R . .
C12 C -0.0014(5) 0.0997(3) 1.1401(2) 0.0350(13) Uani 1 1 d . . .
H12 H 0.0762 0.1121 1.1432 0.042 Uiso 1 1 calc R . .
C13 C -0.2246(5) 0.0636(4) 1.1334(3) 0.0491(17) Uani 1 1 d . . .
H13 H -0.3018 0.0486 1.1298 0.059 Uiso 1 1 calc R . .
C14 C -0.1780(5) 0.0312(4) 1.0851(3) 0.0441(16) Uani 1 1 d . . .
H14 H -0.2261 -0.0050 1.0492 0.053 Uiso 1 1 calc R . .
C15 C -0.3998(4) 0.3888(3) 1.3942(2) 0.0240(11) Uani 1 1 d . . .
H15 H -0.3389 0.3963 1.4314 0.029 Uiso 1 1 calc R . .
C16 C -0.4706(5) 0.4450(3) 1.3797(3) 0.0326(12) Uani 1 1 d . . .
H16 H -0.4655 0.4948 1.4048 0.039 Uiso 1 1 calc R . .
C17 C -0.5485(4) 0.4117(3) 1.3212(3) 0.0313(12) Uani 1 1 d . . .
H17 H -0.6065 0.4350 1.2991 0.038 Uiso 1 1 calc R . .
C18 C -0.5251(4) 0.3351(3) 1.3002(2) 0.0252(11) Uani 1 1 d . . .
C19 C -0.5822(4) 0.2808(3) 1.2429(2) 0.0251(11) Uani 1 1 d . . .
C20 C -0.5586(4) 0.2049(3) 1.2273(2) 0.0270(11) Uani 1 1 d . . .
C21 C -0.6227(5) 0.1428(3) 1.1754(3) 0.0352(13) Uani 1 1 d . . .
H21 H -0.6850 0.1462 1.1417 0.042 Uiso 1 1 calc R . .
C22 C -0.5772(5) 0.0775(3) 1.1836(3) 0.0418(15) Uani 1 1 d . . .
H22 H -0.6020 0.0277 1.1568 0.050 Uiso 1 1 calc R . .
C23 C -0.4855(5) 0.0993(3) 1.2401(3) 0.0324(12) Uani 1 1 d . . .
H23 H -0.4392 0.0653 1.2569 0.039 Uiso 1 1 calc R . .
C24 C -0.6744(4) 0.3060(3) 1.1965(2) 0.0276(11) Uani 1 1 d . . .
C25 C -0.6495(4) 0.3407(3) 1.1510(2) 0.0279(11) Uani 1 1 d . . .
H25 H -0.5752 0.3445 1.1466 0.034 Uiso 1 1 calc R . .
C26 C -0.7350(4) 0.3696(3) 1.1119(2) 0.0279(11) Uani 1 1 d . . .
H26 H -0.7158 0.3934 1.0821 0.033 Uiso 1 1 calc R . .
C27 C -0.8692(5) 0.3290(4) 1.1572(3) 0.0463(16) Uani 1 1 d . . .
H27 H -0.9449 0.3234 1.1593 0.056 Uiso 1 1 calc R . .
C28 C -0.7877(5) 0.2994(4) 1.1983(3) 0.0491(18) Uani 1 1 d . . .
H28 H -0.8092 0.2750 1.2273 0.059 Uiso 1 1 calc R . .
C29 C -0.0925(5) 0.3436(4) 1.5102(3) 0.0417(14) Uani 1 1 d . . .
H29A H -0.0287 0.3273 1.4955 0.063 Uiso 1 1 calc R . .
H29B H -0.0827 0.3368 1.5528 0.063 Uiso 1 1 calc R . .
H29C H -0.0954 0.3974 1.5107 0.063 Uiso 1 1 calc R . .
C30 C -0.2034(4) 0.2954(3) 1.4658(2) 0.0281(11) Uani 1 1 d . . .
C31 C -0.2810(5) 0.2607(3) 1.4906(2) 0.0343(13) Uani 1 1 d . . .
H31 H -0.2618 0.2689 1.5350 0.041 Uiso 1 1 calc R . .
C32 C -0.3858(5) 0.2144(3) 1.4547(2) 0.0286(11) Uani 1 1 d . . .
C33 C -0.4642(5) 0.1792(4) 1.4872(3) 0.0440(15) Uani 1 1 d . . .
H33A H -0.5433 0.1803 1.4650 0.066 Uiso 1 1 calc R . .
H33B H -0.4468 0.2087 1.5309 0.066 Uiso 1 1 calc R . .
H33C H -0.4522 0.1264 1.4864 0.066 Uiso 1 1 calc R . .
C34 C -0.8063(4) 0.4298(3) 0.5878(2) 0.0261(11) Uani 1 1 d . . .
H34 H -0.7798 0.4236 0.5517 0.031 Uiso 1 1 calc R . .
C35 C -0.8605(4) 0.4927(3) 0.6098(3) 0.0301(12) Uani 1 1 d . . .
H35 H -0.8763 0.5343 0.5914 0.036 Uiso 1 1 calc R . .
C36 C -0.8854(5) 0.4809(3) 0.6637(3) 0.0306(12) Uani 1 1 d . . .
H36 H -0.9215 0.5129 0.6889 0.037 Uiso 1 1 calc R . .
C37 C -0.8461(4) 0.4108(3) 0.6741(2) 0.0229(10) Uani 1 1 d . . .
C38 C -0.8461(4) 0.3782(3) 0.7253(2) 0.0254(11) Uani 1 1 d . . .
C39 C -0.8064(4) 0.3087(3) 0.7331(2) 0.0250(11) Uani 1 1 d . . .
C40 C -0.8137(5) 0.2683(3) 0.7814(3) 0.0328(12) Uani 1 1 d . . .
H40 H -0.8394 0.2860 0.8170 0.039 Uiso 1 1 calc R . .
C41 C -0.7756(5) 0.1992(3) 0.7649(3) 0.0359(13) Uani 1 1 d . . .
H41 H -0.7715 0.1602 0.7870 0.043 Uiso 1 1 calc R . .
C42 C -0.7437(5) 0.1975(3) 0.7084(3) 0.0306(12) Uani 1 1 d . . .
H42 H -0.7138 0.1566 0.6876 0.037 Uiso 1 1 calc R . .
C43 C -0.8868(4) 0.4238(3) 0.7782(2) 0.0245(11) Uani 1 1 d . . .
C44 C -0.8079(5) 0.4669(3) 0.8343(2) 0.0303(12) Uani 1 1 d . . .
H44 H -0.7291 0.4663 0.8403 0.036 Uiso 1 1 calc R . .
C45 C -0.8462(4) 0.5107(3) 0.8811(2) 0.0283(11) Uani 1 1 d . . .
H45 H -0.7914 0.5389 0.9187 0.034 Uiso 1 1 calc R . .
C46 C -1.0330(5) 0.4744(4) 0.8216(3) 0.0470(17) Uani 1 1 d . . .
H46 H -1.1111 0.4768 0.8167 0.056 Uiso 1 1 calc R . .
C47 C -1.0020(5) 0.4284(4) 0.7720(3) 0.0500(17) Uani 1 1 d . . .
H47 H -1.0583 0.4008 0.7349 0.060 Uiso 1 1 calc R . .
C48 C -0.6506(5) 0.1404(3) 0.5742(2) 0.0286(11) Uani 1 1 d . . .
H48 H -0.7151 0.1287 0.5384 0.034 Uiso 1 1 calc R . .
C49 C -0.5731(5) 0.0883(3) 0.5898(3) 0.0339(13) Uani 1 1 d . . .
H49 H -0.5768 0.0374 0.5671 0.041 Uiso 1 1 calc R . .
C50 C -0.4919(5) 0.1275(3) 0.6447(3) 0.0337(13) Uani 1 1 d . . .
H50 H -0.4290 0.1080 0.6669 0.040 Uiso 1 1 calc R . .
C51 C -0.5197(4) 0.2031(3) 0.6625(2) 0.0245(11) Uani 1 1 d . . .
C52 C -0.4631(4) 0.2626(3) 0.7171(2) 0.0272(11) Uani 1 1 d . . .
C53 C -0.4910(4) 0.3360(3) 0.7313(2) 0.0271(11) Uani 1 1 d . . .
C54 C -0.4333(5) 0.4003(3) 0.7851(2) 0.0336(13) Uani 1 1 d . . .
H54 H -0.3698 0.3994 0.8191 0.040 Uiso 1 1 calc R . .
C55 C -0.4882(5) 0.4624(3) 0.7773(3) 0.0355(13) Uani 1 1 d . . .
H55 H -0.4696 0.5120 0.8045 0.043 Uiso 1 1 calc R . .
C56 C -0.5790(5) 0.4368(3) 0.7199(2) 0.0291(11) Uani 1 1 d . . .
H56 H -0.6303 0.4684 0.7034 0.035 Uiso 1 1 calc R . .
C57 C -0.3630(4) 0.2445(3) 0.7654(2) 0.0292(12) Uani 1 1 d . . .
C58 C -0.2502(5) 0.2663(4) 0.7688(3) 0.0481(17) Uani 1 1 d . . .
H58 H -0.2328 0.2910 0.7390 0.058 Uiso 1 1 calc R . .
C59 C -0.1620(5) 0.2514(4) 0.8168(3) 0.0472(16) Uani 1 1 d . . .
H59 H -0.0860 0.2667 0.8184 0.057 Uiso 1 1 calc R . .
C60 C -0.2907(5) 0.1949(4) 0.8562(3) 0.0482(17) Uani 1 1 d . . .
H60 H -0.3062 0.1698 0.8863 0.058 Uiso 1 1 calc R . .
C61 C -0.3826(5) 0.2076(4) 0.8102(3) 0.0484(17) Uani 1 1 d . . .
H61 H -0.4579 0.1911 0.8095 0.058 Uiso 1 1 calc R . .
C62 C -0.6150(5) 0.3418(4) 0.4652(3) 0.0420(15) Uani 1 1 d . . .
H62A H -0.6344 0.3924 0.4621 0.063 Uiso 1 1 calc R . .
H62B H -0.6327 0.3082 0.4229 0.063 Uiso 1 1 calc R . .
H62C H -0.5340 0.3463 0.4864 0.063 Uiso 1 1 calc R . .
C63 C -0.6842(5) 0.3081(3) 0.5032(2) 0.0281(11) Uani 1 1 d . . .
C64 C -0.7879(5) 0.2595(3) 0.4708(2) 0.0332(13) Uani 1 1 d . . .
H64 H -0.8111 0.2492 0.4262 0.040 Uiso 1 1 calc R . .
C65 C -0.8598(4) 0.2248(3) 0.4996(2) 0.0303(12) Uani 1 1 d . . .
C66 C -0.9707(5) 0.1739(4) 0.4600(3) 0.0436(15) Uani 1 1 d . . .
H66A H -0.9578 0.1207 0.4511 0.065 Uiso 1 1 calc R . .
H66B H -0.9982 0.1887 0.4204 0.065 Uiso 1 1 calc R . .
H66C H -1.0272 0.1796 0.4832 0.065 Uiso 1 1 calc R . .
C82 C 0.0003(7) 0.0855(4) 0.8073(3) 0.065(2) Uani 1 1 d . . .
H82A H -0.0791 0.0707 0.8046 0.098 Uiso 1 1 calc R . .
H82B H 0.0405 0.0414 0.8088 0.098 Uiso 1 1 calc R . .
H82C H 0.0042 0.1039 0.7704 0.098 Uiso 1 1 calc R . .
N1 N -0.2839(3) 0.2733(2) 1.27857(18) 0.0209(8) Uani 1 1 d . . .
N2 N -0.2633(3) 0.1478(2) 1.33399(18) 0.0197(8) Uani 1 1 d . . .
N3 N -0.0686(4) 0.0490(2) 1.08735(19) 0.0263(9) Uani 1 1 d . . .
N4 N -0.4316(3) 0.3231(2) 1.34723(18) 0.0207(8) Uani 1 1 d . . .
N5 N -0.4729(3) 0.1750(2) 1.26695(19) 0.0222(9) Uani 1 1 d . . .
N6 N -0.8446(4) 0.3650(2) 1.1147(2) 0.0257(9) Uani 1 1 d . . .
N7 N -0.7977(3) 0.3800(2) 0.62539(18) 0.0213(8) Uani 1 1 d . . .
N8 N -0.7619(3) 0.2622(2) 0.68864(18) 0.0222(9) Uani 1 1 d . . .
N9 N -0.9574(4) 0.5153(2) 0.87585(19) 0.0262(9) Uani 1 1 d . . .
N10 N -0.6195(3) 0.2093(2) 0.61751(19) 0.0227(9) Uani 1 1 d . . .
N11 N -0.5829(3) 0.3620(2) 0.69193(18) 0.0213(9) Uani 1 1 d . . .
N12 N -0.1815(4) 0.2164(3) 0.8604(2) 0.0308(10) Uani 1 1 d . . .
O1 O -0.4233(3) 0.19702(19) 1.39363(16) 0.0249(7) Uani 1 1 d . . .
O2 O -0.2172(3) 0.29332(19) 1.40674(15) 0.0232(7) Uani 1 1 d . . .
O3 O -0.8384(3) 0.23182(19) 0.56010(16) 0.0257(8) Uani 1 1 d . . .
O4 O -0.6406(3) 0.32986(19) 0.56372(15) 0.0246(7) Uani 1 1 d . . .
O10 O 0.0522(4) 0.1452(3) 0.8634(2) 0.0494(11) Uani 1 1 d . . .
H10 H 0.1215 0.1430 0.8759 0.074 Uiso 1 1 calc R . .
Co1 Co -0.34777(5) 0.23532(4) 1.33901(3) 0.01793(14) Uani 1 1 d . . .
Co2 Co -0.70732(5) 0.29546(4) 0.62327(3) 0.01913(14) Uani 1 1 d . . .
Br1 Br -0.17182(5) 0.05434(3) 0.92300(3) 0.03284(13) Uani 1 1 d . . .
Br2 Br 0.13363(4) 0.14512(3) 1.02636(2) 0.02445(11) Uani 1 1 d . . .
Br3 Br 0.09779(4) 0.32805(3) 0.94653(2) 0.02715(12) Uani 1 1 d . . .
Br4 Br -0.13558(4) 0.27766(3) 1.03150(2) 0.02843(12) Uani 1 1 d . . .
Br5 Br -0.83848(4) 0.54359(3) 1.04967(2) 0.02558(11) Uani 1 1 d . . .
Cd1 Cd 0.0000 0.0000 1.0000 0.02175(11) Uani 1 2 d S . .
Cd2 Cd -0.03449(3) 0.19609(2) 0.945882(17) 0.02507(9) Uani 1 1 d . . .
Cd3 Cd -0.98638(3) 0.411052(19) 1.038479(16) 0.02095(9) Uani 1 1 d . . .
C67 C 0.3494(6) 0.1732(4) 0.9545(4) 0.0551(18) Uani 1 1 d . . .
H67 H 0.3208 0.2121 0.9786 0.066 Uiso 1 1 calc R . .
C68 C 0.5023(8) 0.0971(5) 0.9476(5) 0.090(3) Uani 1 1 d . . .
H68A H 0.4873 0.0482 0.9577 0.134 Uiso 1 1 calc R . .
H68B H 0.5843 0.1127 0.9587 0.134 Uiso 1 1 calc R . .
H68C H 0.4688 0.0917 0.9025 0.134 Uiso 1 1 calc R . .
C69 C 0.5096(9) 0.1887(6) 1.0510(4) 0.100(3) Uani 1 1 d . . .
H69A H 0.4771 0.2344 1.0649 0.150 Uiso 1 1 calc R . .
H69B H 0.5909 0.2027 1.0576 0.150 Uiso 1 1 calc R . .
H69C H 0.4983 0.1518 1.0752 0.150 Uiso 1 1 calc R . .
N13 N 0.4530(5) 0.1543(4) 0.9830(3) 0.0570(15) Uani 1 1 d . . .
O5 O 0.2908(4) 0.1428(3) 0.8993(2) 0.0648(14) Uani 1 1 d . . .
C70 C 0.2767(7) 0.1589(4) 0.3203(4) 0.062(2) Uani 1 1 d . . .
H70 H 0.3505 0.1747 0.3185 0.075 Uiso 1 1 calc R . .
C71 C 0.3431(8) 0.0410(6) 0.3358(6) 0.108(4) Uani 1 1 d . . .
H71A H 0.3154 -0.0067 0.3030 0.162 Uiso 1 1 calc R . .
H71B H 0.3614 0.0298 0.3772 0.162 Uiso 1 1 calc R . .
H71C H 0.4111 0.0667 0.3302 0.162 Uiso 1 1 calc R . .
C72 C 0.1473(8) 0.0588(6) 0.3356(6) 0.111(4) Uani 1 1 d . . .
H72A H 0.0969 0.0976 0.3359 0.166 Uiso 1 1 calc R . .
H72B H 0.1594 0.0417 0.3746 0.166 Uiso 1 1 calc R . .
H72C H 0.1127 0.0154 0.2995 0.166 Uiso 1 1 calc R . .
N14 N 0.2549(5) 0.0908(4) 0.3310(3) 0.0658(17) Uani 1 1 d . . .
O6 O 0.2024(5) 0.2044(3) 0.3123(2) 0.0674(14) Uani 1 1 d . . .
C73 C 0.7826(10) 0.1026(6) 0.5753(7) 0.125(5) Uani 1 1 d D . .
H73 H 0.7265 0.1291 0.5881 0.150 Uiso 1 1 calc R . .
C74 C 0.9766(8) 0.0841(6) 0.5901(6) 0.110(4) Uani 1 1 d . . .
H74A H 1.0009 0.0598 0.6249 0.165 Uiso 1 1 calc R . .
H74B H 1.0420 0.1155 0.5869 0.165 Uiso 1 1 calc R . .
H74C H 0.9441 0.0447 0.5508 0.165 Uiso 1 1 calc R . .
C75 C 0.9179(11) 0.2133(8) 0.6403(4) 0.164(7) Uani 1 1 d . . .
H75A H 0.8493 0.2374 0.6329 0.245 Uiso 1 1 calc R . .
H75B H 0.9762 0.2412 0.6282 0.245 Uiso 1 1 calc R . .
H75C H 0.9457 0.2140 0.6850 0.245 Uiso 1 1 calc R . .
N15 N 0.8912(5) 0.1321(4) 0.6016(3) 0.0696(19) Uani 1 1 d . . .
O7 O 0.7512(12) 0.0384(7) 0.5324(6) 0.238(7) Uani 1 1 d D . .
C76 C 0.5657(9) 0.3807(6) 1.0430(5) 0.0942(12) Uani 1 1 d D . .
H76 H 0.6322 0.3572 1.0496 0.113 Uiso 1 1 calc R . .
C77 C 0.4050(8) 0.4118(6) 0.9680(5) 0.0942(12) Uani 1 1 d D . .
H77A H 0.3391 0.3757 0.9399 0.141 Uiso 1 1 calc R . .
H77B H 0.