####################################################################### 
# 
# This file contains crystal structure data downloaded from the 
# Cambridge Structural Database (CSD) hosted by the Cambridge 
# Crystallographic Data Centre (CCDC).
# 
# Full information about CCDC data access policies and citation 
# guidelines are available at http://www.ccdc.cam.ac.uk/access/V1 
# 
# Audit and citation data items may have been added by the CCDC. 
# Please retain this information to preserve the provenance of 
# this file and to allow appropriate attribution of the data. 
# 
#######################################################################

data_compound(IV)
_audit_block_doi                 10.5517/ccps66v
_database_code_depnum_ccdc_archive 'CCDC 648867'
loop_
_citation_id
_citation_doi
_citation_year
1 10.1002/ejic.200800152 2008
_audit_update_record             
;
2007-05-28 deposited with the CCDC.	2024-07-09 downloaded from the CCDC.
;
#===========================================================================

_chemical_name_systematic        
;
?
;
_chemical_name_common            'Nickel carboxylate'
_chemical_melting_point          ?
_chemical_formula_moiety         ?
_chemical_formula_sum            'C22 H19 N2 Ni O7'
_chemical_formula_weight         482.10

loop_
_atom_type_symbol
_atom_type_description
_atom_type_scat_dispersion_real
_atom_type_scat_dispersion_imag
_atom_type_scat_source
C C 0.0033 0.0016 'International Tables Vol C Tables 4.2.6.8 and 6.1.1.4'
H H 0.0000 0.0000 'International Tables Vol C Tables 4.2.6.8 and 6.1.1.4'
N N 0.0061 0.0033 'International Tables Vol C Tables 4.2.6.8 and 6.1.1.4'
O O 0.0106 0.0060 'International Tables Vol C Tables 4.2.6.8 and 6.1.1.4'
Ni Ni 0.3393 1.1124 'International Tables Vol C Tables 4.2.6.8 and 6.1.1.4'

_symmetry_cell_setting           ?
_symmetry_space_group_name_H-M   ?

loop_
_symmetry_equiv_pos_as_xyz
'x, y, z'
'-x, -y, z'
'-x+1/2, y+1/2, -z+1/2'
'x+1/2, -y+1/2, -z+1/2'
'-x, -y, -z'
'x, y, -z'
'x-1/2, -y-1/2, z-1/2'
'-x-1/2, y-1/2, z-1/2'

_cell_length_a                   16.390(3)
_cell_length_b                   18.683(4)
_cell_length_c                   20.069(4)
_cell_angle_alpha                90.00
_cell_angle_beta                 90.00
_cell_angle_gamma                90.00
_cell_volume                     6145(2)
_cell_formula_units_Z            8
_cell_measurement_temperature    293(2)
_cell_measurement_reflns_used    7328
_cell_measurement_theta_min      2.18
_cell_measurement_theta_max      28.05

_exptl_crystal_description       'Block like'
_exptl_crystal_colour            'Bluish green'
_exptl_crystal_size_max          0.16
_exptl_crystal_size_mid          0.14
_exptl_crystal_size_min          0.10
_exptl_crystal_density_meas      ?
_exptl_crystal_density_diffrn    1.042
_exptl_crystal_density_method    'not measured'
_exptl_crystal_F_000             1992
_exptl_absorpt_coefficient_mu    0.664
_exptl_absorpt_correction_type   'multi - scan'
_exptl_absorpt_correction_T_min  0.9012
_exptl_absorpt_correction_T_max  0.9366
_exptl_absorpt_process_details   '(SADABS; Sheldrick, 1996)'

_exptl_special_details           
;
?
;

_diffrn_ambient_temperature      293(2)
_diffrn_radiation_wavelength     0.71073
_diffrn_radiation_type           MoK\a
_diffrn_radiation_source         'fine-focus sealed tube'
_diffrn_radiation_monochromator  graphite
_diffrn_measurement_device_type  'Bruker SMART CCD area detector'
_diffrn_measurement_method       '\f and \w scans'
_diffrn_detector_area_resol_mean ?
_diffrn_standards_number         ?
_diffrn_standards_interval_count ?
_diffrn_standards_interval_time  ?
_diffrn_standards_decay_%        ?
_diffrn_reflns_number            49669
_diffrn_reflns_av_R_equivalents  0.0530
_diffrn_reflns_av_sigmaI/netI    0.0372
_diffrn_reflns_limit_h_min       -21
_diffrn_reflns_limit_h_max       21
_diffrn_reflns_limit_k_min       -24
_diffrn_reflns_limit_k_max       24
_diffrn_reflns_limit_l_min       -23
_diffrn_reflns_limit_l_max       26
_diffrn_reflns_theta_min         2.18
_diffrn_reflns_theta_max         28.05
_reflns_number_total             7328
_reflns_number_gt                5230
_reflns_threshold_expression     >2sigma(I)

_computing_data_collection       'SMART (Bruker, 2000)'
_computing_cell_refinement       'SAINT (Bruker, 2000)'
_computing_data_reduction        SAINT
_computing_structure_solution    'SIR92 (Altomare et al., 1993)'
_computing_structure_refinement  'SHELXL-97 (Sheldrick, 1997)'
_computing_molecular_graphics    
'Ortep-3 for Windows (Farrugia, 1999) and CAMERON (Watkin et al., 1993)'
_computing_publication_material  'PLATON (Spek, 2003)'

_refine_special_details          
;
Refinement of F^2^ against ALL reflections. The weighted R-factor wR and
goodness of fit S are based on F^2^, conventional R-factors R are based on
F, with F set to zero for negative F^2^. The threshold expression of F^2^ >
2sigma(F^2^) is used only for calculating R-factors(gt) etc. and is not
relevant to the choice of reflections for refinement. R-factors based on
F^2^ are statistically about twice as large as those based on F, and R-
factors based on ALL data will be even larger.
;

_refine_ls_structure_factor_coef Fsqd
_refine_ls_matrix_type           full
_refine_ls_weighting_scheme      calc
_refine_ls_weighting_details     
'calc w=1/[\s^2^(Fo^2^)+(0.0982P)^2^+3.0948P] where P=(Fo^2^+2Fc^2^)/3'
_atom_sites_solution_primary     direct
_atom_sites_solution_secondary   difmap
_atom_sites_solution_hydrogens   geom
_refine_ls_hydrogen_treatment    mixed
_refine_ls_extinction_method     SHELXL
_refine_ls_extinction_coef       0.0005(2)
_refine_ls_extinction_expression Fc^*^=kFc[1+0.001xFc^2^\l^3^/sin(2\q)]^-1/4^
_refine_ls_number_reflns         7328
_refine_ls_number_parameters     307
_refine_ls_number_restraints     2
_refine_ls_R_factor_all          0.0982
_refine_ls_R_factor_gt           0.0680
_refine_ls_wR_factor_ref         0.1878
_refine_ls_wR_factor_gt          0.1686
_refine_ls_goodness_of_fit_ref   1.090
_refine_ls_restrained_S_all      1.090
_refine_ls_shift/su_max          0.001
_refine_ls_shift/su_mean         0.000

loop_
_atom_site_label
_atom_site_type_symbol
_atom_site_fract_x
_atom_site_fract_y
_atom_site_fract_z
_atom_site_U_iso_or_equiv
_atom_site_adp_type
_atom_site_occupancy
_atom_site_symmetry_multiplicity
_atom_site_calc_flag
_atom_site_refinement_flags
_atom_site_disorder_assembly
_atom_site_disorder_group

Ni1 Ni 0.34266(2) 0.02463(2) 0.229072(17) 0.03107(15) Uani 1 1 d . . .
O1 O 0.35650(15) -0.00610(15) 0.32371(11) 0.0477(6) Uani 1 1 d . . .
O2 O 0.44058(14) 0.09411(12) 0.23805(11) 0.0362(5) Uani 1 1 d D . .
O3 O 0.34765(12) 0.02768(11) 0.12354(11) 0.0370(5) Uani 1 1 d . . .
O4 O 0.41543(12) -0.05367(11) 0.17910(9) 0.0324(4) Uani 1 1 d . . .
O5 O 0.43391(17) 0.07697(15) 0.37097(11) 0.0558(7) Uani 1 1 d . . .
O6 O 0.2036(3) -0.1793(2) 0.55550(15) 0.1097(17) Uani 1 1 d . . .
O7 O 0.5940(2) -0.22185(18) -0.05514(13) 0.0812(11) Uani 1 1 d . . .
N1 N 0.26478(18) 0.10983(18) 0.24501(18) 0.0536(8) Uani 1 1 d . . .
N2 N 0.24233(16) -0.04515(16) 0.22184(13) 0.0418(6) Uani 1 1 d . . .
C1 C 0.3654(2) -0.00811(19) 0.43964(15) 0.0400(7) Uani 1 1 d . . .
C2 C 0.3122(2) -0.0652(2) 0.44042(17) 0.0557(10) Uani 1 1 d . . .
H2 H 0.2933 -0.0843 0.4005 0.067 Uiso 1 1 calc R . .
C3 C 0.2868(4) -0.0944(3) 0.5000 0.0624(17) Uani 1 2 d S . .
C4 C 0.3930(3) 0.0201(2) 0.5000 0.0347(9) Uani 1 2 d S . .
H4 H 0.4299 0.0578 0.5000 0.042 Uiso 1 2 calc SR . .
C5 C 0.38875(19) 0.02408(17) 0.37363(15) 0.0372(7) Uani 1 1 d . . .
C6 C 0.2261(5) -0.1537(4) 0.5000 0.079(2) Uani 1 2 d S . .
C11 C 0.42313(16) -0.05751(14) 0.06027(13) 0.0281(5) Uani 1 1 d . . .
C12 C 0.47880(18) -0.11292(15) 0.06027(14) 0.0332(6) Uani 1 1 d . . .
H12 H 0.4977 -0.1317 0.1003 0.040 Uiso 1 1 calc R . .
C13 C 0.5065(3) -0.1405(2) 0.0000 0.0357(9) Uani 1 2 d S . .
C14 C 0.3950(2) -0.0296(2) 0.0000 0.0288(8) Uani 1 2 d S . .
H14 H 0.3574 0.0077 0.0000 0.035 Uiso 1 2 calc SR . .
C15 C 0.39367(16) -0.02589(15) 0.12441(14) 0.0286(6) Uani 1 1 d . . .
C16 C 0.5688(4) -0.1989(3) 0.0000 0.0521(13) Uani 1 2 d S . .
C21 C 0.2515(2) 0.1570(2) 0.1979(3) 0.0678(12) Uani 1 1 d . . .
H21 H 0.2843 0.1563 0.1601 0.081 Uiso 1 1 calc R . .
C22 C 0.1900(3) 0.2080(2) 0.2025(4) 0.0940(19) Uani 1 1 d . . .
H22 H 0.1829 0.2404 0.1679 0.113 Uiso 1 1 calc R . .
C23 C 0.1405(3) 0.2114(3) 0.2559(4) 0.0836(18) Uani 1 1 d . . .
C24 C 0.1575(3) 0.1671(5) 0.3046(4) 0.108(3) Uani 1 1 d . . .
H24 H 0.1291 0.1721 0.3445 0.130 Uiso 1 1 calc R . .
C25 C 0.2177(3) 0.1111(4) 0.3000(3) 0.0887(17) Uani 1 1 d . . .
H25 H 0.2238 0.0773 0.3336 0.106 Uiso 1 1 calc R . .
C26 C 0.0704(3) 0.2646(3) 0.2593(5) 0.123(3) Uani 1 1 d . . .
H26A H 0.0682 0.2919 0.2182 0.148 Uiso 1 1 calc R . .
H26B H 0.0795 0.2977 0.2957 0.148 Uiso 1 1 calc R . .
C27 C -0.0115(3) 0.2252(3) 0.2698(4) 0.108(3) Uani 1 1 d . . .
H27A H -0.0074 0.1935 0.3079 0.130 Uiso 1 1 calc R . .
H27B H -0.0544 0.2598 0.2786 0.130 Uiso 1 1 calc R . .
C28 C -0.0321(3) 0.1832(3) 0.2094(4) 0.0906(17) Uani 1 1 d . . .
H28A H 0.0144 0.1536 0.1980 0.109 Uiso 1 1 calc R . .
H28B H -0.0408 0.2162 0.1728 0.109 Uiso 1 1 calc R . .
C29 C 0.1774(3) -0.0290(3) 0.1865(3) 0.0752(14) Uani 1 1 d . . .
H29 H 0.1772 0.0141 0.1634 0.090 Uiso 1 1 calc R . .
C30 C 0.1094(3) -0.0723(3) 0.1818(3) 0.0877(17) Uani 1 1 d . . .
H30 H 0.0655 -0.0581 0.1557 0.105 Uiso 1 1 calc R . .
C31 C 0.1064(2) -0.1356(2) 0.2153(3) 0.0662(12) Uani 1 1 d . . .
C32 C 0.1739(3) -0.1528(3) 0.2525(3) 0.0765(14) Uani 1 1 d . . .
H32 H 0.1749 -0.1953 0.2766 0.092 Uiso 1 1 calc R . .
C33 C 0.2411(2) -0.1072(2) 0.2543(2) 0.0577(10) Uani 1 1 d . . .
H33 H 0.2866 -0.1206 0.2790 0.069 Uiso 1 1 calc R . .
H2A H 0.4885(13) 0.087(3) 0.223(2) 0.078(15) Uiso 1 1 d D . .
H2B H 0.429(17) 0.065(13) 0.269(10) 0.47(13) Uiso 1 1 d D . .

loop_
_atom_site_aniso_label
_atom_site_aniso_U_11
_atom_site_aniso_U_22
_atom_site_aniso_U_33
_atom_site_aniso_U_23
_atom_site_aniso_U_13
_atom_site_aniso_U_12
Ni1 0.0296(2) 0.0423(2) 0.0213(2) -0.00466(14) 0.00312(14) -0.00059(15)
O1 0.0573(14) 0.0644(14) 0.0214(11) -0.0010(10) 0.0012(10) -0.0256(12)
O2 0.0364(12) 0.0403(11) 0.0318(11) -0.0047(9) 0.0079(9) -0.0029(9)
O3 0.0428(12) 0.0424(11) 0.0258(10) -0.0009(8) 0.0012(8) 0.0143(9)
O4 0.0353(10) 0.0420(11) 0.0198(9) 0.0000(8) -0.0021(8) 0.0058(8)
O5 0.0751(17) 0.0656(16) 0.0265(11) -0.0021(11) 0.0071(11) -0.0379(14)
O6 0.164(4) 0.126(3) 0.0399(16) 0.0016(17) 0.0056(19) -0.112(3)
O7 0.121(3) 0.086(2) 0.0360(15) -0.0005(13) 0.0056(15) 0.074(2)
N1 0.0364(15) 0.062(2) 0.0618(19) -0.0283(17) 0.0041(14) 0.0056(13)
N2 0.0340(13) 0.0566(16) 0.0349(14) -0.0056(12) 0.0013(11) -0.0077(12)
C1 0.0452(17) 0.0513(18) 0.0235(14) -0.0025(13) 0.0020(13) -0.0172(14)
C2 0.068(2) 0.072(3) 0.0262(16) -0.0040(15) -0.0003(16) -0.036(2)
C3 0.085(4) 0.072(4) 0.031(2) 0.000 0.000 -0.050(3)
C4 0.039(2) 0.044(2) 0.0211(19) 0.000 0.000 -0.0103(18)
C5 0.0408(16) 0.0493(17) 0.0214(14) -0.0029(12) 0.0016(12) -0.0106(13)
C6 0.115(5) 0.093(5) 0.031(3) 0.000 0.000 -0.072(4)
C11 0.0309(13) 0.0314(13) 0.0220(13) 0.0003(10) -0.0011(10) 0.0011(11)
C12 0.0411(16) 0.0344(14) 0.0241(14) 0.0017(11) -0.0010(12) 0.0069(12)
C13 0.046(2) 0.0343(19) 0.027(2) 0.000 0.000 0.0088(18)
C14 0.0277(18) 0.0302(18) 0.028(2) 0.000 0.000 0.0023(15)
C15 0.0297(13) 0.0334(13) 0.0228(13) -0.0021(11) 0.0000(10) 0.0011(11)
C16 0.075(4) 0.051(3) 0.030(2) 0.000 0.000 0.030(3)
C21 0.052(2) 0.045(2) 0.106(4) -0.002(2) 0.015(2) 0.0059(17)
C22 0.049(2) 0.043(2) 0.190(6) -0.010(3) 0.004(3) 0.0054(18)
C23 0.041(2) 0.057(3) 0.153(6) -0.051(3) 0.001(3) -0.0010(19)
C24 0.053(3) 0.165(7) 0.107(5) -0.079(5) 0.012(3) 0.024(3)
C25 0.056(2) 0.143(5) 0.067(3) -0.039(3) 0.012(2) 0.030(3)
C26 0.037(2) 0.064(3) 0.270(9) -0.070(4) 0.005(3) 0.004(2)
C27 0.038(2) 0.059(3) 0.228(8) -0.052(4) 0.007(3) 0.0061(19)
C28 0.053(3) 0.095(4) 0.124(5) 0.013(3) 0.002(3) -0.021(2)
C29 0.061(2) 0.077(3) 0.088(4) 0.024(2) -0.031(2) -0.019(2)
C30 0.054(3) 0.088(3) 0.121(5) 0.020(3) -0.035(3) -0.017(2)
C31 0.040(2) 0.069(3) 0.089(3) -0.012(2) -0.002(2) -0.0079(18)
C32 0.056(2) 0.057(2) 0.116(4) 0.014(3) -0.016(3) -0.013(2)
C33 0.0408(19) 0.056(2) 0.076(3) 0.003(2) -0.0107(18) -0.0045(16)

_geom_special_details            
;
All esds (except the esd in the dihedral angle between two l.s. planes)
are estimated using the full covariance matrix. The cell esds are taken
into account individually in the estimation of esds in distances, angles
and torsion angles; correlations between esds in cell parameters are only
used when they are defined by crystal symmetry. An approximate
(isotropic)
treatment of cell esds is used for estimating esds involving l.s. planes.
;

loop_
_geom_bond_atom_site_label_1
_geom_bond_atom_site_label_2
_geom_bond_distance
_geom_bond_site_symmetry_2
_geom_bond_publ_flag

Ni1 O1 1.997(2) . ?
Ni1 N1 2.065(3) . ?
Ni1 O2 2.072(2) . ?
Ni1 N2 2.103(3) . ?
Ni1 O3 2.120(2) . ?
Ni1 O4 2.137(2) . ?
Ni1 C15 2.450(3) . ?
O1 C5 1.265(4) . ?
O3 C15 1.253(3) . ?
O4 C15 1.265(3) . ?
O5 C5 1.236(4) . ?
O6 C6 1.267(4) . ?
O7 C16 1.256(3) . ?
N1 C21 1.310(6) . ?
N1 C25 1.347(6) . ?
N2 C29 1.314(5) . ?
N2 C33 1.330(5) . ?
C1 C2 1.378(5) . ?
C1 C4 1.396(4) . ?
C1 C5 1.505(4) . ?
C2 C3 1.378(4) . ?
C3 C2 1.378(4) 6_556 ?
C3 C6 1.490(7) . ?
C4 C1 1.396(4) 6_556 ?
C6 O6 1.267(4) 6_556 ?
C11 C12 1.380(4) . ?
C11 C14 1.395(3) . ?
C11 C15 1.496(4) . ?
C12 C13 1.391(3) . ?
C13 C12 1.391(3) 6 ?
C13 C16 1.495(6) . ?
C14 C11 1.395(3) 6 ?
C16 O7 1.256(3) 6 ?
C21 C22 1.389(6) . ?
C22 C23 1.345(9) . ?
C23 C24 1.311(10) . ?
C23 C26 1.521(7) . ?
C24 C25 1.441(8) . ?
C26 C27 1.545(7) . ?
C27 C28 1.483(9) . ?
C28 C31 1.512(6) 2 ?
C29 C30 1.380(6) . ?
C30 C31 1.361(7) . ?
C31 C32 1.373(7) . ?
C31 C28 1.512(6) 2 ?
C32 C33 1.392(6) . ?

loop_
_geom_angle_atom_site_label_1
_geom_angle_atom_site_label_2
_geom_angle_atom_site_label_3
_geom_angle
_geom_angle_site_symmetry_1
_geom_angle_site_symmetry_3
_geom_angle_publ_flag
O1 Ni1 N1 98.31(13) . . ?
O1 Ni1 O2 90.54(9) . . ?
N1 Ni1 O2 88.99(11) . . ?
O1 Ni1 N2 88.64(10) . . ?
N1 Ni1 N2 90.30(12) . . ?
O2 Ni1 N2 178.82(10) . . ?
O1 Ni1 O3 162.42(10) . . ?
N1 Ni1 O3 99.08(11) . . ?
O2 Ni1 O3 92.31(8) . . ?
N2 Ni1 O3 88.73(9) . . ?
O1 Ni1 O4 100.72(10) . . ?
N1 Ni1 O4 160.92(11) . . ?
O2 Ni1 O4 92.14(8) . . ?
N2 Ni1 O4 88.84(10) . . ?
O3 Ni1 O4 61.85(7) . . ?
O1 Ni1 C15 131.75(11) . . ?
N1 Ni1 C15 129.84(12) . . ?
O2 Ni1 C15 92.96(9) . . ?
N2 Ni1 C15 88.22(10) . . ?
O3 Ni1 C15 30.77(8) . . ?
O4 Ni1 C15 31.08(8) . . ?
C5 O1 Ni1 132.2(2) . . ?
C15 O3 Ni1 89.31(17) . . ?
C15 O4 Ni1 88.22(16) . . ?
C21 N1 C25 118.9(4) . . ?
C21 N1 Ni1 120.6(3) . . ?
C25 N1 Ni1 119.7(4) . . ?
C29 N2 C33 116.9(3) . . ?
C29 N2 Ni1 121.9(3) . . ?
C33 N2 Ni1 121.2(2) . . ?
C2 C1 C4 119.1(3) . . ?
C2 C1 C5 118.7(3) . . ?
C4 C1 C5 122.1(3) . . ?
C1 C2 C3 120.4(3) . . ?
C2 C3 C2 120.4(4) 6_556 . ?
C2 C3 C6 119.7(2) 6_556 . ?
C2 C3 C6 119.7(2) . . ?
C1 C4 C1 120.4(4) 6_556 . ?
O5 C5 O1 124.9(3) . . ?
O5 C5 C1 120.7(3) . . ?
O1 C5 C1 114.4(3) . . ?
O6 C6 O6 123.1(5) . 6_556 ?
O6 C6 C3 118.4(2) . . ?
O6 C6 C3 118.4(2) 6_556 . ?
C12 C11 C14 119.9(3) . . ?
C12 C11 C15 120.6(2) . . ?
C14 C11 C15 119.4(2) . . ?
C11 C12 C13 119.6(3) . . ?
C12 C13 C12 120.8(4) 6 . ?
C12 C13 C16 119.58(18) 6 . ?
C12 C13 C16 119.58(18) . . ?
C11 C14 C11 120.2(3) . 6 ?
O3 C15 O4 120.6(3) . . ?
O3 C15 C11 119.8(2) . . ?
O4 C15 C11 119.6(2) . . ?
O3 C15 Ni1 59.93(15) . . ?
O4 C15 Ni1 60.70(14) . . ?
C11 C15 Ni1 178.8(2) . . ?
O7 C16 O7 123.5(4) 6 . ?
O7 C16 C13 118.3(2) 6 . ?
O7 C16 C13 118.3(2) . . ?
N1 C21 C22 122.2(5) . . ?
C23 C22 C21 121.5(6) . . ?
C24 C23 C22 115.9(5) . . ?
C24 C23 C26 122.6(7) . . ?
C22 C23 C26 121.5(7) . . ?
C23 C24 C25 123.7(6) . . ?
N1 C25 C24 117.3(6) . . ?
C23 C26 C27 110.6(4) . . ?
C28 C27 C26 109.8(5) . . ?
C27 C28 C31 115.5(5) . 2 ?
N2 C29 C30 123.8(4) . . ?
C31 C30 C29 120.3(4) . . ?
C30 C31 C32 116.3(4) . . ?
C30 C31 C28 120.1(4) . 2 ?
C32 C31 C28 123.6(5) . 2 ?
C31 C32 C33 120.5(4) . . ?
N2 C33 C32 122.2(4) . . ?

_diffrn_measured_fraction_theta_max 0.955
_diffrn_reflns_theta_full        28.05
_diffrn_measured_fraction_theta_full 0.955
_refine_diff_density_max         0.930
_refine_diff_density_min         -0.361
_refine_diff_density_rms         0.093
