####################################################################### 
# 
# This file contains crystal structure data downloaded from the 
# Cambridge Structural Database (CSD) hosted by the Cambridge 
# Crystallographic Data Centre (CCDC).
# 
# Full information about CCDC data access policies and citation 
# guidelines are available at http://www.ccdc.cam.ac.uk/access/V1 
# 
# Audit and citation data items may have been added by the CCDC. 
# Please retain this information to preserve the provenance of 
# this file and to allow appropriate attribution of the data. 
# 
#######################################################################

data_d:\zhp\028\c2c
_audit_block_doi                 10.5517/ccppb8y
_database_code_depnum_ccdc_archive 'CCDC 646110'
loop_
_citation_id
_citation_doi
_citation_year
1 10.1016/j.ica.2007.11.020 2008
_audit_update_record             
;
2007-05-06 deposited with the CCDC.	2024-07-09 downloaded from the CCDC.
;

_audit_creation_method           SHELXL-97
_chemical_name_systematic        
;
?
;
_chemical_name_common            ?
_chemical_melting_point          ?
_chemical_formula_moiety         ?
_chemical_formula_sum            'C39 H44 N8 Ni2 O17 S2'
_chemical_formula_weight         1078.36

loop_
_atom_type_symbol
_atom_type_description
_atom_type_scat_dispersion_real
_atom_type_scat_dispersion_imag
_atom_type_scat_source
C C 0.0033 0.0016 'International Tables Vol C Tables 4.2.6.8 and 6.1.1.4'
H H 0.0000 0.0000 'International Tables Vol C Tables 4.2.6.8 and 6.1.1.4'
N N 0.0061 0.0033 'International Tables Vol C Tables 4.2.6.8 and 6.1.1.4'
O O 0.0106 0.0060 'International Tables Vol C Tables 4.2.6.8 and 6.1.1.4'
S S 0.1246 0.1234 'International Tables Vol C Tables 4.2.6.8 and 6.1.1.4'
Ni Ni 0.3393 1.1124 'International Tables Vol C Tables 4.2.6.8 and 6.1.1.4'

_symmetry_cell_setting           ?
_symmetry_space_group_name_H-M   ?

loop_
_symmetry_equiv_pos_as_xyz
'x, y, z'
'-x, y, -z+1/2'
'x+1/2, y+1/2, z'
'-x+1/2, y+1/2, -z+1/2'
'-x, -y, -z'
'x, -y, z-1/2'
'-x+1/2, -y+1/2, -z'
'x+1/2, -y+1/2, z-1/2'

_cell_length_a                   23.201(5)
_cell_length_b                   14.156(3)
_cell_length_c                   18.799(4)
_cell_angle_alpha                90.00
_cell_angle_beta                 117.79(3)
_cell_angle_gamma                90.00
_cell_volume                     5462.1(19)
_cell_formula_units_Z            4
_cell_measurement_temperature    291(2)
_cell_measurement_reflns_used    ?
_cell_measurement_theta_min      ?
_cell_measurement_theta_max      ?

_exptl_crystal_description       ?
_exptl_crystal_colour            ?
_exptl_crystal_size_max          0.20
_exptl_crystal_size_mid          0.17
_exptl_crystal_size_min          0.16
_exptl_crystal_density_meas      ?
_exptl_crystal_density_diffrn    1.311
_exptl_crystal_density_method    'not measured'
_exptl_crystal_F_000             2232
_exptl_absorpt_coefficient_mu    0.834
_exptl_absorpt_correction_type   ?
_exptl_absorpt_correction_T_min  0.8509
_exptl_absorpt_correction_T_max  0.8781
_exptl_absorpt_process_details   ?

_exptl_special_details           
;
?
;

_diffrn_ambient_temperature      291(2)
_diffrn_radiation_wavelength     0.71073
_diffrn_radiation_type           MoK\a
_diffrn_radiation_source         'fine-focus sealed tube'
_diffrn_radiation_monochromator  graphite
_diffrn_measurement_device_type  ?
_diffrn_measurement_method       ?
_diffrn_detector_area_resol_mean ?
_diffrn_standards_number         ?
_diffrn_standards_interval_count ?
_diffrn_standards_interval_time  ?
_diffrn_standards_decay_%        ?
_diffrn_reflns_number            7511
_diffrn_reflns_av_R_equivalents  0.0716
_diffrn_reflns_av_sigmaI/netI    0.1174
_diffrn_reflns_limit_h_min       -13
_diffrn_reflns_limit_h_max       27
_diffrn_reflns_limit_k_min       -16
_diffrn_reflns_limit_k_max       14
_diffrn_reflns_limit_l_min       -22
_diffrn_reflns_limit_l_max       20
_diffrn_reflns_theta_min         1.85
_diffrn_reflns_theta_max         25.00
_reflns_number_total             4428
_reflns_number_gt                2901
_reflns_threshold_expression     >2sigma(I)

_computing_data_collection       ?
_computing_cell_refinement       ?
_computing_data_reduction        ?
_computing_structure_solution    'SHELXS-97 (Sheldrick, 1990)'
_computing_structure_refinement  'SHELXL-97 (Sheldrick, 1997)'
_computing_molecular_graphics    ?
_computing_publication_material  ?

_refine_special_details          
;
Refinement of F^2^ against ALL reflections. The weighted R-factor wR and
goodness of fit S are based on F^2^, conventional R-factors R are based
on F, with F set to zero for negative F^2^. The threshold expression of
F^2^ > 2sigma(F^2^) is used only for calculating R-factors(gt) etc. and is
not relevant to the choice of reflections for refinement. R-factors based
on F^2^ are statistically about twice as large as those based on F, and R-
factors based on ALL data will be even larger.
;

_refine_ls_structure_factor_coef Fsqd
_refine_ls_matrix_type           full
_refine_ls_weighting_scheme      calc
_refine_ls_weighting_details     
'calc w=1/[\s^2^(Fo^2^)+(0.0709P)^2^+0.0000P] where P=(Fo^2^+2Fc^2^)/3'
_atom_sites_solution_primary     direct
_atom_sites_solution_secondary   difmap
_atom_sites_solution_hydrogens   geom
_refine_ls_hydrogen_treatment    mixed
_refine_ls_extinction_method     none
_refine_ls_extinction_coef       ?
_refine_ls_number_reflns         4428
_refine_ls_number_parameters     336
_refine_ls_number_restraints     16
_refine_ls_R_factor_all          0.1244
_refine_ls_R_factor_gt           0.0695
_refine_ls_wR_factor_ref         0.1527
_refine_ls_wR_factor_gt          0.1356
_refine_ls_goodness_of_fit_ref   1.008
_refine_ls_restrained_S_all      1.014
_refine_ls_shift/su_max          0.000
_refine_ls_shift/su_mean         0.000

loop_
_atom_site_label
_atom_site_type_symbol
_atom_site_fract_x
_atom_site_fract_y
_atom_site_fract_z
_atom_site_U_iso_or_equiv
_atom_site_adp_type
_atom_site_occupancy
_atom_site_symmetry_multiplicity
_atom_site_calc_flag
_atom_site_refinement_flags
_atom_site_disorder_assembly
_atom_site_disorder_group
Ni1 Ni 0.5000 0.43929(7) 0.7500 0.0376(3) Uani 1 2 d S . .
Ni2 Ni 0.2500 0.2500 0.5000 0.0298(3) Uani 1 2 d S . .
S1 S 0.36531(6) 0.41098(10) 0.57890(7) 0.0336(3) Uani 1 1 d . . .
C1 C 0.4790(3) 0.5990(4) 0.6360(3) 0.0441(14) Uani 1 1 d . . .
H1A H 0.4418 0.6087 0.6419 0.053 Uiso 1 1 calc R . .
C2 C 0.4860(3) 0.6493(5) 0.5778(4) 0.0586(18) Uani 1 1 d . . .
C3 C 0.5425(4) 0.6372(7) 0.5715(5) 0.093(3) Uani 1 1 d . . .
H3A H 0.5494 0.6719 0.5342 0.111 Uiso 1 1 calc R . .
C4 C 0.5875(4) 0.5745(7) 0.6198(5) 0.095(3) Uani 1 1 d . . .
H4A H 0.6252 0.5637 0.6152 0.114 Uiso 1 1 calc R . .
C5 C 0.5765(3) 0.5271(6) 0.6756(4) 0.071(2) Uani 1 1 d . . .
H5A H 0.6084 0.4853 0.7097 0.086 Uiso 1 1 calc R . .
C6 C 0.4353(4) 0.7175(5) 0.5229(4) 0.0650(19) Uani 1 1 d . . .
C7 C 0.3162(3) 0.7503(4) 0.4594(3) 0.0463(15) Uani 1 1 d . . .
C8 C 0.3189(4) 0.8478(4) 0.4685(4) 0.0585(18) Uani 1 1 d . . .
H8A H 0.3581 0.8772 0.5025 0.070 Uiso 1 1 calc R . .
C9 C 0.2627(4) 0.9016(5) 0.4263(4) 0.064(2) Uani 1 1 d . . .
H9A H 0.2645 0.9669 0.4326 0.077 Uiso 1 1 calc R . .
C10 C 0.2057(4) 0.8599(5) 0.3765(4) 0.0564(17) Uani 1 1 d . . .
H10A H 0.1688 0.8967 0.3478 0.068 Uiso 1 1 calc R . .
C11 C 0.2020(3) 0.7636(5) 0.3680(4) 0.0551(17) Uani 1 1 d . . .
H11A H 0.1622 0.7351 0.3352 0.066 Uiso 1 1 calc R . .
C12 C 0.2573(3) 0.7085(4) 0.4078(3) 0.0434(14) Uani 1 1 d . . .
C13 C 0.2260(3) 0.5677(4) 0.3240(3) 0.0505(16) Uani 1 1 d . . .
C14 C 0.2296(2) 0.4097(4) 0.3890(3) 0.0361(13) Uani 1 1 d . . .
H14A H 0.2292 0.4425 0.4316 0.043 Uiso 1 1 calc R . .
C15 C 0.2256(3) 0.4609(4) 0.3236(3) 0.0401(14) Uani 1 1 d . . .
C16 C 0.2239(3) 0.4116(5) 0.2593(3) 0.0565(17) Uani 1 1 d . . .
H16A H 0.2210 0.4436 0.2146 0.068 Uiso 1 1 calc R . .
C17 C 0.2263(3) 0.3153(5) 0.2622(3) 0.0614(19) Uani 1 1 d . . .
H17A H 0.2235 0.2810 0.2184 0.074 Uiso 1 1 calc R . .
C18 C 0.2330(3) 0.2689(4) 0.3303(3) 0.0496(16) Uani 1 1 d . . .
H18A H 0.2370 0.2035 0.3328 0.059 Uiso 1 1 calc R . .
C19 C 0.5625(5) 0.2640(8) 0.7070(6) 0.154(5) Uani 1 1 d U . .
H19A H 0.5577 0.2331 0.6590 0.231 Uiso 1 1 calc R . .
H19B H 0.5539 0.2197 0.7395 0.231 Uiso 1 1 calc R . .
H19C H 0.6062 0.2874 0.7367 0.231 Uiso 1 1 calc R . .
C20 C 0.5829(6) -0.0511(13) 0.5714(11) 0.118(7) Uani 0.50 1 d PDU . .
H20A H 0.5600 -0.0839 0.5954 0.177 Uiso 0.50 1 calc PR . .
H20B H 0.5592 -0.0572 0.5140 0.177 Uiso 0.50 1 calc PR . .
H20C H 0.5867 0.0145 0.5858 0.177 Uiso 0.50 1 calc PR . .
N1 N 0.5232(2) 0.5371(4) 0.6841(2) 0.0441(12) Uani 1 1 d . . .
N2 N 0.3724(3) 0.6943(4) 0.5045(3) 0.0505(13) Uani 1 1 d D . .
N3 N 0.2540(2) 0.6082(3) 0.3968(3) 0.0431(13) Uani 1 1 d . . .
N4 N 0.23397(19) 0.3156(3) 0.3933(2) 0.0340(10) Uani 1 1 d . . .
O1 O 0.4486(3) 0.7879(4) 0.4965(4) 0.114(2) Uani 1 1 d . . .
O2 O 0.2020(3) 0.6109(3) 0.2608(2) 0.0898(18) Uani 1 1 d . . .
O3 O 0.5200(2) 0.3367(3) 0.6868(3) 0.0784(16) Uani 1 1 d D . .
O4 O 0.40248(16) 0.4397(2) 0.66421(18) 0.0382(9) Uani 1 1 d . . .
O5 O 0.30399(16) 0.3658(2) 0.56734(19) 0.0359(9) Uani 1 1 d . . .
O6 O 0.40396(17) 0.3420(3) 0.5595(2) 0.0446(10) Uani 1 1 d . . .
O7 O 0.35118(18) 0.4946(3) 0.5276(2) 0.0470(10) Uani 1 1 d . . .
O8 O 0.33326(18) 0.1827(3) 0.5116(2) 0.0417(10) Uani 1 1 d D . .
O9 O 0.6444(3) -0.0897(5) 0.5989(4) 0.0346(17) Uani 0.50 1 d PD . .
H9B H 0.6434 -0.1457 0.6095 0.042 Uiso 0.50 1 calc PR . .
H8E H 0.357(3) 0.234(4) 0.520(3) 0.042 Uiso 1 1 d . . .
H3E H 0.271(3) 0.571(4) 0.430(3) 0.042 Uiso 1 1 d . . .
H8F H 0.340(2) 0.151(3) 0.472(2) 0.042 Uiso 1 1 d D . .
H2F H 0.364(2) 0.6349(15) 0.513(3) 0.042 Uiso 1 1 d D . .
H3F H 0.485(2) 0.333(6) 0.638(2) 0.11(3) Uiso 1 1 d D . .

loop_
_atom_site_aniso_label
_atom_site_aniso_U_11
_atom_site_aniso_U_22
_atom_site_aniso_U_33
_atom_site_aniso_U_23
_atom_site_aniso_U_13
_atom_site_aniso_U_12
Ni1 0.0287(5) 0.0402(6) 0.0367(5) 0.000 0.0091(4) 0.000
Ni2 0.0315(5) 0.0291(5) 0.0288(5) -0.0007(4) 0.0141(4) -0.0012(4)
S1 0.0315(7) 0.0337(8) 0.0327(7) -0.0025(6) 0.0125(6) -0.0027(6)
C1 0.040(3) 0.046(4) 0.048(3) 0.002(3) 0.022(3) -0.007(3)
C2 0.048(4) 0.073(5) 0.057(4) 0.009(4) 0.026(3) -0.011(4)
C3 0.064(5) 0.143(8) 0.085(5) 0.034(5) 0.046(4) -0.009(5)
C4 0.040(4) 0.175(10) 0.078(5) 0.032(6) 0.036(4) 0.017(5)
C5 0.040(4) 0.123(7) 0.050(4) 0.026(4) 0.021(3) 0.017(4)
C6 0.073(5) 0.056(4) 0.068(4) 0.014(4) 0.034(4) -0.010(4)
C7 0.065(4) 0.039(4) 0.050(3) 0.013(3) 0.039(3) 0.009(3)
C8 0.088(5) 0.039(4) 0.062(4) 0.002(3) 0.047(4) 0.001(4)
C9 0.118(7) 0.037(4) 0.066(4) 0.011(3) 0.067(5) 0.014(4)
C10 0.078(5) 0.044(4) 0.060(4) 0.014(3) 0.043(4) 0.010(4)
C11 0.070(4) 0.052(4) 0.056(4) 0.020(3) 0.040(3) 0.012(4)
C12 0.057(4) 0.043(4) 0.043(3) 0.007(3) 0.034(3) 0.002(3)
C13 0.064(4) 0.048(4) 0.046(4) 0.015(3) 0.031(3) 0.010(3)
C14 0.038(3) 0.044(4) 0.029(3) 0.002(3) 0.017(2) 0.000(3)
C15 0.044(3) 0.045(4) 0.032(3) 0.006(3) 0.019(2) 0.005(3)
C16 0.083(5) 0.053(4) 0.047(3) 0.005(3) 0.042(3) 0.008(4)
C17 0.099(5) 0.055(5) 0.043(3) -0.008(3) 0.044(3) -0.003(4)
C18 0.060(4) 0.043(4) 0.050(3) -0.010(3) 0.030(3) 0.000(3)
C19 0.134(7) 0.147(8) 0.149(7) -0.033(6) 0.039(6) 0.062(6)
C20 0.126(10) 0.126(11) 0.108(9) -0.013(8) 0.060(8) -0.017(8)
N1 0.029(3) 0.065(3) 0.041(2) -0.001(2) 0.018(2) 0.000(2)
N2 0.057(3) 0.039(3) 0.057(3) 0.008(3) 0.028(3) -0.007(3)
N3 0.059(3) 0.034(3) 0.035(3) 0.006(2) 0.021(2) 0.006(2)
N4 0.033(3) 0.039(3) 0.029(2) -0.002(2) 0.0132(19) -0.003(2)
O1 0.090(4) 0.106(5) 0.158(5) 0.072(4) 0.069(4) -0.001(4)
O2 0.162(5) 0.055(3) 0.040(2) 0.019(2) 0.038(3) 0.009(3)
O3 0.044(3) 0.072(3) 0.088(4) -0.028(3) 0.005(3) 0.024(2)
O4 0.0297(19) 0.043(2) 0.0334(17) -0.0059(16) 0.0074(15) -0.0003(17)
O5 0.033(2) 0.033(2) 0.0386(18) -0.0071(16) 0.0149(15) -0.0060(17)
O6 0.037(2) 0.051(2) 0.052(2) -0.0137(18) 0.0252(18) -0.0052(19)
O7 0.048(2) 0.038(2) 0.046(2) 0.0089(17) 0.0154(18) -0.0080(19)
O8 0.039(2) 0.038(2) 0.050(2) -0.0078(19) 0.0215(19) -0.0001(18)
O9 0.038(4) 0.046(4) 0.021(3) -0.009(3) 0.015(3) 0.025(4)

_geom_special_details            
;
All esds (except the esd in the dihedral angle between two l.s. planes)
are estimated using the full covariance matrix. The cell esds are taken
into account individually in the estimation of esds in distances, angles
and torsion angles; correlations between esds in cell parameters are only
used when they are defined by crystal symmetry. An approximate (isotropic)
treatment of cell esds is used for estimating esds involving l.s. planes.
;

loop_
_geom_bond_atom_site_label_1
_geom_bond_atom_site_label_2
_geom_bond_distance
_geom_bond_site_symmetry_2
_geom_bond_publ_flag
Ni1 O3 2.061(5) 2_656 ?
Ni1 O3 2.061(5) . ?
Ni1 O4 2.078(3) . ?
Ni1 O4 2.078(3) 2_656 ?
Ni1 N1 2.089(5) 2_656 ?
Ni1 N1 2.089(5) . ?
Ni2 O8 2.072(4) 7_556 ?
Ni2 O8 2.072(4) . ?
Ni2 N4 2.081(4) 7_556 ?
Ni2 N4 2.081(4) . ?
Ni2 O5 2.092(3) 7_556 ?
Ni2 O5 2.092(3) . ?
S1 O7 1.464(4) . ?
S1 O4 1.480(3) . ?
S1 O5 1.481(4) . ?
S1 O6 1.482(4) . ?
C1 N1 1.333(7) . ?
C1 C2 1.377(8) . ?
C1 H1A 0.9300 . ?
C2 C3 1.380(10) . ?
C2 C6 1.500(9) . ?
C3 C4 1.349(11) . ?
C3 H3A 0.9300 . ?
C4 C5 1.365(10) . ?
C4 H4A 0.9300 . ?
C5 N1 1.326(7) . ?
C5 H5A 0.9300 . ?
C6 O1 1.215(8) . ?
C6 N2 1.375(8) . ?
C7 C12 1.388(8) . ?
C7 C8 1.388(8) . ?
C7 N2 1.420(7) . ?
C8 C9 1.395(9) . ?
C8 H8A 0.9300 . ?
C9 C10 1.348(9) . ?
C9 H9A 0.9300 . ?
C10 C11 1.371(9) . ?
C10 H10A 0.9300 . ?
C11 C12 1.385(8) . ?
C11 H11A 0.9300 . ?
C12 N3 1.433(8) . ?
C13 O2 1.217(6) . ?
C13 N3 1.338(7) . ?
C13 C15 1.513(8) . ?
C14 N4 1.335(7) . ?
C14 C15 1.392(7) . ?
C14 H14A 0.9300 . ?
C15 C16 1.380(8) . ?
C16 C17 1.364(8) . ?
C16 H16A 0.9300 . ?
C17 C18 1.383(8) . ?
C17 H17A 0.9300 . ?
C18 N4 1.346(7) . ?
C18 H18A 0.9300 . ?
C19 O3 1.353(10) . ?
C19 H19A 0.9600 . ?
C19 H19B 0.9600 . ?
C19 H19C 0.9600 . ?
C20 O9 1.384(9) . ?
C20 H20A 0.9600 . ?
C20 H20B 0.9600 . ?
C20 H20C 0.9600 . ?
N2 H2F 0.892(10) . ?
N3 H3E 0.77(5) . ?
O3 H3F 0.902(10) . ?
O8 H8E 0.88(6) . ?
O8 H8F 0.944(10) . ?
O9 H9B 0.8200 . ?

loop_
_geom_angle_atom_site_label_1
_geom_angle_atom_site_label_2
_geom_angle_atom_site_label_3
_geom_angle
_geom_angle_site_symmetry_1
_geom_angle_site_symmetry_3
_geom_angle_publ_flag
O3 Ni1 O3 90.4(3) 2_656 . ?
O3 Ni1 O4 89.59(16) 2_656 . ?
O3 Ni1 O4 90.64(15) . . ?
O3 Ni1 O4 90.64(15) 2_656 2_656 ?
O3 Ni1 O4 89.59(16) . 2_656 ?
O4 Ni1 O4 179.7(2) . 2_656 ?
O3 Ni1 N1 86.3(2) 2_656 2_656 ?
O3 Ni1 N1 176.5(2) . 2_656 ?
O4 Ni1 N1 88.26(15) . 2_656 ?
O4 Ni1 N1 91.53(16) 2_656 2_656 ?
O3 Ni1 N1 176.5(2) 2_656 . ?
O3 Ni1 N1 86.3(2) . . ?
O4 Ni1 N1 91.53(16) . . ?
O4 Ni1 N1 88.26(15) 2_656 . ?
N1 Ni1 N1 97.0(3) 2_656 . ?
O8 Ni2 O8 180.0(2) 7_556 . ?
O8 Ni2 N4 92.58(16) 7_556 7_556 ?
O8 Ni2 N4 87.42(16) . 7_556 ?
O8 Ni2 N4 87.42(16) 7_556 . ?
O8 Ni2 N4 92.58(16) . . ?
N4 Ni2 N4 180.0 7_556 . ?
O8 Ni2 O5 91.76(15) 7_556 7_556 ?
O8 Ni2 O5 88.24(15) . 7_556 ?
N4 Ni2 O5 91.22(15) 7_556 7_556 ?
N4 Ni2 O5 88.78(15) . 7_556 ?
O8 Ni2 O5 88.24(15) 7_556 . ?
O8 Ni2 O5 91.76(15) . . ?
N4 Ni2 O5 88.78(15) 7_556 . ?
N4 Ni2 O5 91.22(15) . . ?
O5 Ni2 O5 180.00(12) 7_556 . ?
O7 S1 O4 109.3(2) . . ?
O7 S1 O5 110.4(2) . . ?
O4 S1 O5 108.2(2) . . ?
O7 S1 O6 110.3(2) . . ?
O4 S1 O6 109.5(2) . . ?
O5 S1 O6 109.2(2) . . ?
N1 C1 C2 122.7(6) . . ?
N1 C1 H1A 118.7 . . ?
C2 C1 H1A 118.7 . . ?
C1 C2 C3 118.2(6) . . ?
C1 C2 C6 122.3(6) . . ?
C3 C2 C6 119.5(6) . . ?
C4 C3 C2 119.5(7) . . ?
C4 C3 H3A 120.2 . . ?
C2 C3 H3A 120.2 . . ?
C3 C4 C5 118.4(7) . . ?
C3 C4 H4A 120.8 . . ?
C5 C4 H4A 120.8 . . ?
N1 C5 C4 124.0(6) . . ?
N1 C5 H5A 118.0 . . ?
C4 C5 H5A 118.0 . . ?
O1 C6 N2 122.4(7) . . ?
O1 C6 C2 122.8(7) . . ?
N2 C6 C2 114.8(6) . . ?
C12 C7 C8 118.9(6) . . ?
C12 C7 N2 120.6(5) . . ?
C8 C7 N2 120.4(6) . . ?
C7 C8 C9 119.8(7) . . ?
C7 C8 H8A 120.1 . . ?
C9 C8 H8A 120.1 . . ?
C10 C9 C8 120.6(7) . . ?
C10 C9 H9A 119.7 . . ?
C8 C9 H9A 119.7 . . ?
C9 C10 C11 120.3(7) . . ?
C9 C10 H10A 119.8 . . ?
C11 C10 H10A 119.8 . . ?
C10 C11 C12 120.3(7) . . ?
C10 C11 H11A 119.9 . . ?
C12 C11 H11A 119.9 . . ?
C11 C12 C7 120.0(6) . . ?
C11 C12 N3 120.4(6) . . ?
C7 C12 N3 119.6(5) . . ?
O2 C13 N3 124.5(6) . . ?
O2 C13 C15 119.9(6) . . ?
N3 C13 C15 115.6(5) . . ?
N4 C14 C15 123.0(5) . . ?
N4 C14 H14A 118.5 . . ?
C15 C14 H14A 118.5 . . ?
C16 C15 C14 118.2(5) . . ?
C16 C15 C13 120.5(5) . . ?
C14 C15 C13 121.2(5) . . ?
C17 C16 C15 119.2(6) . . ?
C17 C16 H16A 120.4 . . ?
C15 C16 H16A 120.4 . . ?
C16 C17 C18 119.7(6) . . ?
C16 C17 H17A 120.2 . . ?
C18 C17 H17A 120.2 . . ?
N4 C18 C17 122.0(6) . . ?
N4 C18 H18A 119.0 . . ?
C17 C18 H18A 119.0 . . ?
O3 C19 H19A 109.5 . . ?
O3 C19 H19B 109.5 . . ?
H19A C19 H19B 109.5 . . ?
O3 C19 H19C 109.5 . . ?
H19A C19 H19C 109.5 . . ?
H19B C19 H19C 109.5 . . ?
O9 C20 H20A 109.5 . . ?
O9 C20 H20B 109.5 . . ?
H20A C20 H20B 109.5 . . ?
O9 C20 H20C 109.5 . . ?
H20A C20 H20C 109.5 . . ?
H20B C20 H20C 109.5 . . ?
C5 N1 C1 117.1(5) . . ?
C5 N1 Ni1 120.9(5) . . ?
C1 N1 Ni1 120.5(4) . . ?
C6 N2 C7 126.0(5) . . ?
C6 N2 H2F 118(4) . . ?
C7 N2 H2F 114(3) . . ?
C13 N3 C12 122.7(5) . . ?
C13 N3 H3E 111(4) . . ?
C12 N3 H3E 126(4) . . ?
C14 N4 C18 117.9(5) . . ?
C14 N4 Ni2 118.5(3) . . ?
C18 N4 Ni2 123.4(4) . . ?
C19 O3 Ni1 134.9(5) . . ?
C19 O3 H3F 116(5) . . ?
Ni1 O3 H3F 107(5) . . ?
S1 O4 Ni1 135.5(2) . . ?
S1 O5 Ni2 133.7(2) . . ?
Ni2 O8 H8E 97(4) . . ?
Ni2 O8 H8F 128(3) . . ?
H8E O8 H8F 101(5) . . ?
C20 O9 H9B 109.5 . . ?

loop_
_geom_torsion_atom_site_label_1
_geom_torsion_atom_site_label_2
_geom_torsion_atom_site_label_3
_geom_torsion_atom_site_label_4
_geom_torsion
_geom_torsion_site_symmetry_1
_geom_torsion_site_symmetry_2
_geom_torsion_site_symmetry_3
_geom_torsion_site_symmetry_4
_geom_torsion_publ_flag
N1 C1 C2 C3 -2.4(10) . . . . ?
N1 C1 C2 C6 178.7(6) . . . . ?
C1 C2 C3 C4 2.5(12) . . . . ?
C6 C2 C3 C4 -178.7(8) . . . . ?
C2 C3 C4 C5 -2.2(14) . . . . ?
C3 C4 C5 N1 1.8(14) . . . . ?
C1 C2 C6 O1 148.3(7) . . . . ?
C3 C2 C6 O1 -30.5(11) 