####################################################################### 
# 
# This file contains crystal structure data downloaded from the 
# Cambridge Structural Database (CSD) hosted by the Cambridge 
# Crystallographic Data Centre (CCDC).
# 
# Full information about CCDC data access policies and citation 
# guidelines are available at http://www.ccdc.cam.ac.uk/access/V1 
# 
# Audit and citation data items may have been added by the CCDC. 
# Please retain this information to preserve the provenance of 
# this file and to allow appropriate attribution of the data. 
# 
#######################################################################

data_1
_audit_block_doi                 10.5517/cc12wccp
_database_code_depnum_ccdc_archive 'CCDC 1009402'
loop_
_citation_id
_citation_doi
_citation_year
1 10.1002/anie.201406554 2014
_audit_update_record             
;
2014-06-20 deposited with the CCDC.	2024-07-09 downloaded from the CCDC.
;

_audit_creation_method           SHELXL-97
_chemical_name_systematic        
; 
 ? 
;
_chemical_name_common            ?
_chemical_melting_point          ?
_chemical_formula_moiety         ?
_chemical_formula_sum            'C12 H16 Br2 N2 O5 Zn'
_chemical_formula_weight         493.46

loop_
_atom_type_symbol
_atom_type_description
_atom_type_scat_dispersion_real
_atom_type_scat_dispersion_imag
_atom_type_scat_source
C C 0.0033 0.0016 'International Tables Vol C Tables 4.2.6.8 and 6.1.1.4'
H H 0.0000 0.0000 'International Tables Vol C Tables 4.2.6.8 and 6.1.1.4'
N N 0.0061 0.0033 'International Tables Vol C Tables 4.2.6.8 and 6.1.1.4'
O O 0.0106 0.0060 'International Tables Vol C Tables 4.2.6.8 and 6.1.1.4'
Zn Zn 0.2839 1.4301 'International Tables Vol C Tables 4.2.6.8 and 6.1.1.4'
Br Br -0.2901 2.4595 'International Tables Vol C Tables 4.2.6.8 and 6.1.1.4'

_symmetry_cell_setting           monoclinic
_symmetry_space_group_name_H-M   Cc

loop_
_symmetry_equiv_pos_as_xyz
'x, y, z'
'x, -y, z+1/2'
'x+1/2, y+1/2, z'
'x+1/2, -y+1/2, z+1/2'

_cell_length_a                   20.698(2)
_cell_length_b                   10.7386(7)
_cell_length_c                   7.8871(6)
_cell_angle_alpha                90.00
_cell_angle_beta                 98.440(6)
_cell_angle_gamma                90.00
_cell_volume                     1734.0(3)
_cell_formula_units_Z            4
_cell_measurement_temperature    293(2)
_cell_measurement_reflns_used    2480
_cell_measurement_theta_min      3.5081
_cell_measurement_theta_max      27.4855

_exptl_crystal_description       Prism
_exptl_crystal_colour            Blue
_exptl_crystal_size_max          0.200
_exptl_crystal_size_mid          0.180
_exptl_crystal_size_min          0.160
_exptl_crystal_density_meas      ?
_exptl_crystal_density_diffrn    1.890
_exptl_crystal_density_method    'not measured'
_exptl_crystal_F_000             968
_exptl_absorpt_coefficient_mu    6.046
_exptl_absorpt_correction_type   Multi-scan
_exptl_absorpt_correction_T_min  0.5959
_exptl_absorpt_correction_T_max  1.0000
_exptl_absorpt_process_details   ?

_exptl_special_details           
; 
 ? 
;

_diffrn_ambient_temperature      293(2)
_diffrn_radiation_wavelength     0.71073
_diffrn_radiation_type           MoK\a
_diffrn_radiation_source         'fine-focus sealed tube'
_diffrn_radiation_monochromator  graphite
_diffrn_measurement_device_type  Saturn70
_diffrn_measurement_method       CCD_Profile_fitting
_diffrn_detector_area_resol_mean 28.5714
_diffrn_standards_number         ?
_diffrn_standards_interval_count ?
_diffrn_standards_interval_time  ?
_diffrn_standards_decay_%        ?
_diffrn_reflns_number            6201
_diffrn_reflns_av_R_equivalents  0.0323
_diffrn_reflns_av_sigmaI/netI    0.0596
_diffrn_reflns_limit_h_min       -25
_diffrn_reflns_limit_h_max       26
_diffrn_reflns_limit_k_min       -13
_diffrn_reflns_limit_k_max       13
_diffrn_reflns_limit_l_min       -10
_diffrn_reflns_limit_l_max       9
_diffrn_reflns_theta_min         4.87
_diffrn_reflns_theta_max         27.48
_reflns_number_total             3353
_reflns_number_gt                2941
_reflns_threshold_expression     >2sigma(I)

_computing_data_collection       ?
_computing_cell_refinement       ?
_computing_data_reduction        ?
_computing_structure_solution    'SHELXS-97 (Sheldrick, 1990)'
_computing_structure_refinement  'SHELXL-97 (Sheldrick, 1997)'
_computing_molecular_graphics    ?
_computing_publication_material  ?

_refine_special_details          
; 
 Refinement of F^2^ against ALL reflections.  The weighted R-factor wR and 
 goodness of fit S are based on F^2^, conventional R-factors R are based 
 on F, with F set to zero for negative F^2^. The threshold expression of 
 F^2^ > 2sigma(F^2^) is used only for calculating R-factors(gt) etc. and is 
 not relevant to the choice of reflections for refinement.  R-factors based 
 on F^2^ are statistically about twice as large as those based on F, and R- 
 factors based on ALL data will be even larger. 
;

_refine_ls_structure_factor_coef Fsqd
_refine_ls_matrix_type           full
_refine_ls_weighting_scheme      calc
_refine_ls_weighting_details     
'calc w=1/[\s^2^(Fo^2^)+(0.0598P)^2^+0.0000P] where P=(Fo^2^+2Fc^2^)/3'
_atom_sites_solution_primary     direct
_atom_sites_solution_secondary   difmap
_atom_sites_solution_hydrogens   geom
_refine_ls_hydrogen_treatment    mixed
_refine_ls_extinction_method     none
_refine_ls_extinction_coef       ?
_refine_ls_abs_structure_details 'Flack H D (1983), Acta Cryst. A39, 876-881'
_refine_ls_abs_structure_Flack   0.098(15)
_refine_ls_number_reflns         3353
_refine_ls_number_parameters     200
_refine_ls_number_restraints     2
_refine_ls_R_factor_all          0.0434
_refine_ls_R_factor_gt           0.0395
_refine_ls_wR_factor_ref         0.1010
_refine_ls_wR_factor_gt          0.0991
_refine_ls_goodness_of_fit_ref   1.002
_refine_ls_restrained_S_all      1.002
_refine_ls_shift/su_max          0.000
_refine_ls_shift/su_mean         0.000

loop_
_atom_site_label
_atom_site_type_symbol
_atom_site_fract_x
_atom_site_fract_y
_atom_site_fract_z
_atom_site_U_iso_or_equiv
_atom_site_adp_type
_atom_site_occupancy
_atom_site_symmetry_multiplicity
_atom_site_calc_flag
_atom_site_refinement_flags
_atom_site_disorder_assembly
_atom_site_disorder_group
Zn1 Zn 0.15199(3) 0.29431(5) -0.82868(6) 0.02978(16) Uani 1 1 d . . .
Br1 Br 0.13454(4) 0.09530(6) -0.95613(8) 0.0540(2) Uani 1 1 d . . .
Br2 Br 0.23062(3) 0.42658(6) -0.91921(8) 0.0526(2) Uani 1 1 d . . .
C1 C 0.0089(3) 0.3253(5) -0.9587(10) 0.0536(19) Uani 1 1 d . . .
H1A H 0.0099 0.2388 -0.9531 0.064 Uiso 1 1 calc R . .
C2 C -0.0489(3) 0.3828(6) -1.0172(11) 0.0528(18) Uani 1 1 d . . .
H2A H -0.0860 0.3351 -1.0517 0.063 Uiso 1 1 calc R . .
C3 C 0.0606(3) 0.5106(6) -0.9126(10) 0.0505(18) Uani 1 1 d . . .
H3A H 0.0981 0.5556 -0.8720 0.061 Uiso 1 1 calc R . .
C4 C 0.0041(3) 0.5762(5) -0.9736(11) 0.0516(19) Uani 1 1 d . . .
H4A H 0.0045 0.6627 -0.9792 0.062 Uiso 1 1 calc R . .
C5 C -0.0527(2) 0.5106(4) -1.0257(7) 0.0287(10) Uani 1 1 d . . .
C6 C -0.1153(2) 0.5753(4) -1.0917(7) 0.0268(10) Uani 1 1 d . . .
C7 C -0.1190(3) 0.7015(5) -1.1208(9) 0.0460(16) Uani 1 1 d . . .
H7A H -0.0819 0.7509 -1.0962 0.055 Uiso 1 1 calc R . .
C8 C -0.1789(3) 0.7548(5) -1.1877(9) 0.0410(14) Uani 1 1 d . . .
H8A H -0.1817 0.8402 -1.2068 0.049 Uiso 1 1 calc R . .
C9 C -0.1723(3) 0.5060(5) -1.1325(10) 0.0445(15) Uani 1 1 d . . .
H9A H -0.1715 0.4203 -1.1152 0.053 Uiso 1 1 calc R . .
C10 C -0.2305(3) 0.5644(5) -1.1990(9) 0.0455(16) Uani 1 1 d . . .
H10A H -0.2685 0.5178 -1.2255 0.055 Uiso 1 1 calc R . .
C11 C -0.2935(2) 0.7425(5) -1.3100(7) 0.0324(12) Uani 1 1 d . . .
H11A H -0.2968 0.8265 -1.2669 0.039 Uiso 1 1 calc R . .
H11B H -0.3305 0.6954 -1.2821 0.039 Uiso 1 1 calc R . .
C12 C -0.2962(3) 0.7467(5) -1.5002(7) 0.0338(12) Uani 1 1 d . . .
N1 N 0.0639(2) 0.3875(4) -0.9093(6) 0.0331(10) Uani 1 1 d . . .
N2 N -0.23199(19) 0.6844(4) -1.2245(5) 0.0274(9) Uani 1 1 d . . .
O2 O -0.35149(18) 0.7773(4) -1.5795(5) 0.0367(9) Uani 1 1 d . . .
O1 O -0.2468(2) 0.7246(4) -1.5655(6) 0.0481(11) Uani 1 1 d . . .
O1W O 0.0160(3) -0.1234(6) -0.0979(10) 0.0839(18) Uani 1 1 d . . .
O2W O -0.1291(3) -0.1293(8) -0.6400(12) 0.108(3) Uani 1 1 d . . .
O3W O -0.0585(4) -0.0007(9) -0.3643(11) 0.111(2) Uani 1 1 d . . .

loop_
_atom_site_aniso_label
_atom_site_aniso_U_11
_atom_site_aniso_U_22
_atom_site_aniso_U_33
_atom_site_aniso_U_23
_atom_site_aniso_U_13
_atom_site_aniso_U_12
Zn1 0.0277(3) 0.0296(3) 0.0304(3) 0.0031(2) -0.00118(19) 0.0052(2)
Br1 0.0576(4) 0.0418(3) 0.0603(4) -0.0047(3) 0.0013(3) -0.0001(3)
Br2 0.0523(4) 0.0501(4) 0.0555(4) -0.0011(3) 0.0081(3) -0.0049(3)
C1 0.034(3) 0.026(3) 0.093(5) 0.006(3) -0.014(3) 0.004(2)
C2 0.030(3) 0.030(3) 0.093(5) 0.004(3) -0.009(3) -0.004(2)
C3 0.024(3) 0.037(3) 0.083(5) 0.013(3) -0.015(3) -0.005(2)
C4 0.027(3) 0.022(3) 0.100(6) 0.003(3) -0.011(3) 0.002(2)
C5 0.020(2) 0.027(2) 0.038(3) 0.006(2) 0.0007(19) 0.0045(17)
C6 0.022(2) 0.026(2) 0.031(3) 0.0087(19) -0.0016(19) 0.0033(18)
C7 0.027(3) 0.027(3) 0.078(5) 0.010(3) -0.009(3) -0.005(2)
C8 0.025(3) 0.027(2) 0.068(4) 0.007(3) -0.002(3) 0.005(2)
C9 0.022(2) 0.026(2) 0.083(5) 0.018(3) -0.002(3) 0.0004(19)
C10 0.026(3) 0.040(3) 0.065(4) 0.012(3) -0.011(3) -0.007(2)
C11 0.022(3) 0.039(3) 0.033(3) 0.000(2) -0.003(2) 0.014(2)
C12 0.038(3) 0.024(2) 0.038(3) 0.000(2) 0.000(2) 0.010(2)
N1 0.022(2) 0.033(2) 0.042(3) 0.0066(19) -0.0019(18) 0.0015(16)
N2 0.0211(19) 0.033(2) 0.027(2) 0.0057(18) 0.0003(16) 0.0083(16)
O2 0.036(2) 0.044(2) 0.029(2) 0.0020(16) 0.0007(15) 0.0097(16)
O1 0.049(2) 0.058(3) 0.041(2) 0.011(2) 0.0172(19) 0.029(2)
O1W 0.070(4) 0.076(4) 0.106(5) -0.015(4) 0.011(3) -0.024(3)
O2W 0.055(4) 0.107(5) 0.154(7) 0.043(5) -0.013(4) 0.004(3)
O3W 0.125(7) 0.107(6) 0.104(6) -0.007(5) 0.022(5) 0.014(5)

_geom_special_details            
; 
 All esds (except the esd in the dihedral angle between two l.s. planes) 
 are estimated using the full covariance matrix.  The cell esds are taken 
 into account individually in the estimation of esds in distances, angles 
 and torsion angles; correlations between esds in cell parameters are only 
 used when they are defined by crystal symmetry.  An approximate (isotropic) 
 treatment of cell esds is used for estimating esds involving l.s. planes. 
;

loop_
_geom_bond_atom_site_label_1
_geom_bond_atom_site_label_2
_geom_bond_distance
_geom_bond_site_symmetry_2
_geom_bond_publ_flag
Zn1 O2 1.986(4) 3_546 ?
Zn1 N1 2.095(4) . ?
Zn1 Br2 2.3488(9) . ?
Zn1 Br1 2.3668(8) . ?
C1 N1 1.328(7) . ?
C1 C2 1.366(8) . ?
C1 H1A 0.9300 . ?
C2 C5 1.376(8) . ?
C2 H2A 0.9300 . ?
C3 N1 1.324(8) . ?
C3 C4 1.389(7) . ?
C3 H3A 0.9300 . ?
C4 C5 1.381(7) . ?
C4 H4A 0.9300 . ?
C5 C6 1.495(6) . ?
C6 C7 1.374(7) . ?
C6 C9 1.392(7) . ?
C7 C8 1.396(7) . ?
C7 H7A 0.9300 . ?
C8 N2 1.331(7) . ?
C8 H8A 0.9300 . ?
C9 C10 1.390(7) . ?
C9 H9A 0.9300 . ?
C10 N2 1.303(7) . ?
C10 H10A 0.9300 . ?
C11 N2 1.489(5) . ?
C11 C12 1.493(8) . ?
C11 H11A 0.9700 . ?
C11 H11B 0.9700 . ?
C12 O1 1.233(7) . ?
C12 O2 1.265(6) . ?
O2 Zn1 1.986(4) 3_454 ?

loop_
_geom_angle_atom_site_label_1
_geom_angle_atom_site_label_2
_geom_angle_atom_site_label_3
_geom_angle
_geom_angle_site_symmetry_1
_geom_angle_site_symmetry_3
_geom_angle_publ_flag
O2 Zn1 N1 100.85(18) 3_546 . ?
O2 Zn1 Br2 118.95(12) 3_546 . ?
N1 Zn1 Br2 103.26(13) . . ?
O2 Zn1 Br1 108.16(12) 3_546 . ?
N1 Zn1 Br1 103.35(13) . . ?
Br2 Zn1 Br1 119.10(4) . . ?
N1 C1 C2 122.8(5) . . ?
N1 C1 H1A 118.6 . . ?
C2 C1 H1A 118.6 . . ?
C5 C2 C1 120.6(5) . . ?
C5 C2 H2A 119.7 . . ?
C1 C2 H2A 119.7 . . ?
N1 C3 C4 123.5(5) . . ?
N1 C3 H3A 118.3 . . ?
C4 C3 H3A 118.3 . . ?
C5 C4 C3 118.8(5) . . ?
C5 C4 H4A 120.6 . . ?
C3 C4 H4A 120.6 . . ?
C2 C5 C4 117.0(4) . . ?
C2 C5 C6 121.4(5) . . ?
C4 C5 C6 121.6(4) . . ?
C7 C6 C9 117.7(4) . . ?
C7 C6 C5 122.7(5) . . ?
C9 C6 C5 119.6(4) . . ?
C6 C7 C8 119.4(5) . . ?
C6 C7 H7A 120.3 . . ?
C8 C7 H7A 120.3 . . ?
N2 C8 C7 120.6(5) . . ?
N2 C8 H8A 119.7 . . ?
C7 C8 H8A 119.7 . . ?
C6 C9 C10 120.2(5) . . ?
C6 C9 H9A 119.9 . . ?
C10 C9 H9A 119.9 . . ?
N2 C10 C9 120.3(5) . . ?
N2 C10 H10A 119.8 . . ?
C9 C10 H10A 119.8 . . ?
N2 C11 C12 111.7(4) . . ?
N2 C11 H11A 109.3 . . ?
C12 C11 H11A 109.3 . . ?
N2 C11 H11B 109.3 . . ?
C12 C11 H11B 109.3 . . ?
H11A C11 H11B 107.9 . . ?
O1 C12 O2 126.1(5) . . ?
O1 C12 C11 120.2(5) . . ?
O2 C12 C11 113.7(5) . . ?
C3 N1 C1 117.2(5) . . ?
C3 N1 Zn1 121.6(4) . . ?
C1 N1 Zn1 121.2(4) . . ?
C10 N2 C8 121.8(4) . . ?
C10 N2 C11 119.0(4) . . ?
C8 N2 C11 119.0(4) . . ?
C12 O2 Zn1 110.6(4) . 3_454 ?

_diffrn_measured_fraction_theta_max 0.941
_diffrn_reflns_theta_full        27.48
_diffrn_measured_fraction_theta_full 0.941
_refine_diff_density_max         0.486
_refine_diff_density_min         -0.651
_refine_diff_density_rms         0.094
