####################################################################### 
# 
# This file contains crystal structure data downloaded from the 
# Cambridge Structural Database (CSD) hosted by the Cambridge 
# Crystallographic Data Centre (CCDC).
# 
# Full information about CCDC data access policies and citation 
# guidelines are available at http://www.ccdc.cam.ac.uk/access/V1 
# 
# Audit and citation data items may have been added by the CCDC. 
# Please retain this information to preserve the provenance of 
# this file and to allow appropriate attribution of the data. 
# 
#######################################################################

data_str0207
_audit_block_doi                 10.5517/cc83qpr
_database_code_depnum_ccdc_archive 'CCDC 241914'
loop_
_citation_id
_citation_doi
_citation_year
1 10.1039/b417512n 2005
_audit_update_record             
;
2004-06-15 deposited with the CCDC.	2024-07-09 downloaded from the CCDC.
;

_audit_creation_method           SHELXL-97
_chemical_name_systematic        
;
?
;
_chemical_name_common            ?
_chemical_melting_point          ?
_chemical_formula_moiety         ?
_chemical_formula_sum            'C11 H15 Cu N3 O6'
_chemical_formula_weight         348.80

loop_
_atom_type_symbol
_atom_type_description
_atom_type_scat_dispersion_real
_atom_type_scat_dispersion_imag
_atom_type_scat_source
C C 0.0033 0.0016 'International Tables Vol C Tables 4.2.6.8 and 6.1.1.4'
H H 0.0000 0.0000 'International Tables Vol C Tables 4.2.6.8 and 6.1.1.4'
N N 0.0061 0.0033 'International Tables Vol C Tables 4.2.6.8 and 6.1.1.4'
O O 0.0106 0.0060 'International Tables Vol C Tables 4.2.6.8 and 6.1.1.4'
Cu Cu 0.3201 1.2651 'International Tables Vol C Tables 4.2.6.8 and 6.1.1.4'

_symmetry_cell_setting           monoclinic
_symmetry_space_group_name_H-M   P2(1)/c

loop_
_symmetry_equiv_pos_as_xyz
'x, y, z'
'-x, y+1/2, -z+1/2'
'-x, -y, -z'
'x, -y-1/2, z-1/2'

_cell_length_a                   11.1675(8)
_cell_length_b                   7.0642(5)
_cell_length_c                   17.2977(12)
_cell_angle_alpha                90.00
_cell_angle_beta                 100.7190(10)
_cell_angle_gamma                90.00
_cell_volume                     1340.80(16)
_cell_formula_units_Z            4
_cell_measurement_temperature    150(2)
_cell_measurement_reflns_used    ?
_cell_measurement_theta_min      ?
_cell_measurement_theta_max      ?

_exptl_crystal_description       block
_exptl_crystal_colour            blue
_exptl_crystal_size_max          0.80
_exptl_crystal_size_mid          0.12
_exptl_crystal_size_min          0.04
_exptl_crystal_density_meas      ?
_exptl_crystal_density_diffrn    1.728
_exptl_crystal_density_method    'not measured'
_exptl_crystal_F_000             716
_exptl_absorpt_coefficient_mu    1.662
_exptl_absorpt_correction_type   multi-scan
_exptl_absorpt_correction_T_min  0.3499
_exptl_absorpt_correction_T_max  0.9365
_exptl_absorpt_process_details   ?

_exptl_special_details           
;
?
;

_diffrn_ambient_temperature      150(2)
_diffrn_radiation_wavelength     0.71073
_diffrn_radiation_type           MoK\a
_diffrn_radiation_source         'fine-focus sealed tube'
_diffrn_radiation_monochromator  graphite
_diffrn_measurement_device_type  'Bruker SMART APEX diffractometer'
_diffrn_measurement_method       '\w rotation with narrow frames'
_diffrn_detector_area_resol_mean ?
_diffrn_standards_number         0
_diffrn_standards_interval_count ?
_diffrn_standards_interval_time  ?
_diffrn_standards_decay_%        ?
_diffrn_reflns_number            11381
_diffrn_reflns_av_R_equivalents  0.0296
_diffrn_reflns_av_sigmaI/netI    0.0289
_diffrn_reflns_limit_h_min       -14
_diffrn_reflns_limit_h_max       14
_diffrn_reflns_limit_k_min       -9
_diffrn_reflns_limit_k_max       9
_diffrn_reflns_limit_l_min       -22
_diffrn_reflns_limit_l_max       22
_diffrn_reflns_theta_min         2.40
_diffrn_reflns_theta_max         28.30
_reflns_number_total             3207
_reflns_number_gt                3003
_reflns_threshold_expression     I>2\s(I)

_computing_data_collection       'Bruker SMART'
_computing_cell_refinement       'Bruker SAINT'
_computing_data_reduction        'Bruker SAINT'
_computing_structure_solution    'SHELXS-97 (Sheldrick, 1990)'
_computing_structure_refinement  'SHELXL-97 (Sheldrick, 1997)'
_computing_molecular_graphics    ?
_computing_publication_material  ?

_refine_special_details          
;
Refinement of F^2^ against ALL reflections.  The weighted R-factor wR and
goodness of fit S are based on F^2^, conventional R-factors R are based
on F, with F set to zero for negative F^2^. The threshold expression of
F^2^ > 2sigma(F^2^) is used only for calculating R-factors(gt) etc. and is
not relevant to the choice of reflections for refinement.  R-factors based
on F^2^ are statistically about twice as large as those based on F, and R-
factors based on ALL data will be even larger.
;

_refine_ls_structure_factor_coef Fsqd
_refine_ls_matrix_type           full
_refine_ls_weighting_scheme      calc
_refine_ls_weighting_details     
'calc w=1/[\s^2^(Fo^2^)+(0.0281P)^2^+0.7589P] where P=(Fo^2^+2Fc^2^)/3'
_atom_sites_solution_primary     direct
_atom_sites_solution_secondary   difmap
_atom_sites_solution_hydrogens   geom
_refine_ls_hydrogen_treatment    mixed
_refine_ls_extinction_method     none
_refine_ls_extinction_coef       ?
_refine_ls_number_reflns         3207
_refine_ls_number_parameters     251
_refine_ls_number_restraints     0
_refine_ls_R_factor_all          0.0285
_refine_ls_R_factor_gt           0.0261
_refine_ls_wR_factor_ref         0.0640
_refine_ls_wR_factor_gt          0.0629
_refine_ls_goodness_of_fit_ref   1.048
_refine_ls_restrained_S_all      1.048
_refine_ls_shift/su_max          0.001
_refine_ls_shift/su_mean         0.000

loop_
_atom_site_label
_atom_site_type_symbol
_atom_site_fract_x
_atom_site_fract_y
_atom_site_fract_z
_atom_site_U_iso_or_equiv
_atom_site_adp_type
_atom_site_occupancy
_atom_site_symmetry_multiplicity
_atom_site_calc_flag
_atom_site_refinement_flags
_atom_site_disorder_assembly
_atom_site_disorder_group
Cu1 Cu 0.468466(16) 0.82238(3) 0.127776(10) 0.01204(7) Uani 1 1 d . . .
N1 N 0.33330(12) 0.74055(18) 0.04425(7) 0.0127(2) Uani 1 1 d . . .
N2 N 0.45458(13) 0.6904(2) -0.05265(8) 0.0159(3) Uani 1 1 d . . .
N3 N 0.58955(12) 0.81508(18) 0.05770(8) 0.0136(3) Uani 1 1 d . . .
O1 O 0.37177(10) 0.90608(17) 0.20669(6) 0.0170(2) Uani 1 1 d . . .
O2 O 0.56548(10) 0.96033(18) 0.21847(7) 0.0196(2) Uani 1 1 d . . .
O3 O 0.47160(10) 1.03549(16) 0.31883(6) 0.0165(2) Uani 1 1 d . . .
C1 C 0.22093(15) 0.7360(2) 0.06312(10) 0.0162(3) Uani 1 1 d . . .
C2 C 0.11798(16) 0.6839(2) 0.01116(11) 0.0201(3) Uani 1 1 d . . .
C3 C 0.12937(16) 0.6341(3) -0.06510(11) 0.0208(3) Uani 1 1 d . . .
C4 C 0.24176(15) 0.6369(2) -0.08554(10) 0.0184(3) Uani 1 1 d . . .
C5 C 0.34383(15) 0.6913(2) -0.02895(9) 0.0139(3) Uani 1 1 d . . .
C6 C 0.56824(14) 0.7516(2) -0.01648(9) 0.0137(3) Uani 1 1 d . . .
C7 C 0.66091(15) 0.7434(2) -0.06151(10) 0.0169(3) Uani 1 1 d . . .
C8 C 0.77637(16) 0.8000(2) -0.02847(10) 0.0190(3) Uani 1 1 d . . .
C9 C 0.79947(15) 0.8645(2) 0.04895(10) 0.0179(3) Uani 1 1 d . . .
C10 C 0.70507(14) 0.8708(2) 0.08929(10) 0.0163(3) Uani 1 1 d . . .
C11 C 0.46996(14) 0.9716(2) 0.25113(9) 0.0135(3) Uani 1 1 d . . .
H1 H 0.2189(17) 0.769(3) 0.1142(12) 0.014(4) Uiso 1 1 d . . .
H2 H 0.043(2) 0.680(3) 0.0271(13) 0.023(5) Uiso 1 1 d . . .
H3 H 0.0618(19) 0.600(3) -0.1017(13) 0.021(5) Uiso 1 1 d . . .
H4 H 0.2520(17) 0.607(3) -0.1327(13) 0.018(5) Uiso 1 1 d . . .
H7 H 0.6427(19) 0.702(3) -0.1108(14) 0.022(5) Uiso 1 1 d . . .
H8 H 0.8355(19) 0.797(3) -0.0581(12) 0.018(5) Uiso 1 1 d . . .
H9 H 0.8722(19) 0.902(3) 0.0717(12) 0.022(5) Uiso 1 1 d . . .
H10 H 0.7155(17) 0.913(3) 0.1417(12) 0.019(5) Uiso 1 1 d . . .
H11 H 0.453(2) 0.635(3) -0.0953(14) 0.027(6) Uiso 1 1 d . . .
O4 O 0.97659(14) 0.2352(2) 0.30642(9) 0.0301(3) Uani 1 1 d . . .
O5 O 0.84869(14) 0.5666(2) 0.27767(9) 0.0308(3) Uani 1 1 d . . .
O6 O 0.80754(13) 0.9546(2) 0.29562(9) 0.0294(3) Uani 1 1 d . . .
H41 H 1.026(3) 0.206(4) 0.2872(16) 0.035(7) Uiso 1 1 d . . .
H42 H 0.924(3) 0.144(4) 0.2978(16) 0.044(7) Uiso 1 1 d . . .
H51 H 0.894(3) 0.487(4) 0.2888(16) 0.042(8) Uiso 1 1 d . . .
H52 H 0.778(2) 0.532(4) 0.2770(15) 0.040(7) Uiso 1 1 d . . .
H61 H 0.739(2) 0.967(3) 0.2793(14) 0.031(6) Uiso 1 1 d . . .
H62 H 0.818(2) 0.844(4) 0.2897(16) 0.039(8) Uiso 1 1 d . . .

loop_
_atom_site_aniso_label
_atom_site_aniso_U_11
_atom_site_aniso_U_22
_atom_site_aniso_U_33
_atom_site_aniso_U_23
_atom_site_aniso_U_13
_atom_site_aniso_U_12
Cu1 0.01259(10) 0.01580(11) 0.00802(11) -0.00210(7) 0.00265(7) -0.00028(7)
N1 0.0152(6) 0.0128(6) 0.0101(6) -0.0007(5) 0.0020(5) 0.0004(5)
N2 0.0183(7) 0.0196(7) 0.0103(7) -0.0040(5) 0.0038(5) 0.0002(5)
N3 0.0162(6) 0.0139(6) 0.0114(6) 0.0013(5) 0.0040(5) 0.0013(5)
O1 0.0140(5) 0.0239(6) 0.0129(5) -0.0055(4) 0.0024(4) 0.0002(4)
O2 0.0159(5) 0.0274(6) 0.0164(6) -0.0088(5) 0.0053(4) -0.0042(5)
O3 0.0246(6) 0.0156(5) 0.0097(5) -0.0015(4) 0.0045(4) -0.0020(4)
C1 0.0180(7) 0.0171(8) 0.0140(8) -0.0013(6) 0.0045(6) -0.0004(6)
C2 0.0161(8) 0.0228(9) 0.0215(9) -0.0019(6) 0.0037(6) -0.0024(6)
C3 0.0186(8) 0.0226(8) 0.0192(8) -0.0033(7) -0.0016(6) -0.0032(7)
C4 0.0230(8) 0.0203(8) 0.0112(8) -0.0032(6) 0.0014(6) -0.0017(7)
C5 0.0171(7) 0.0119(7) 0.0127(7) 0.0000(5) 0.0024(6) 0.0011(6)
C6 0.0176(7) 0.0110(7) 0.0127(7) 0.0018(6) 0.0037(6) 0.0021(6)
C7 0.0207(8) 0.0182(8) 0.0130(8) -0.0013(6) 0.0067(6) 0.0011(6)
C8 0.0195(8) 0.0207(8) 0.0193(8) 0.0024(6) 0.0099(7) 0.0027(6)
C9 0.0154(8) 0.0198(8) 0.0189(8) 0.0019(6) 0.0035(6) -0.0004(6)
C10 0.0175(7) 0.0180(8) 0.0132(8) 0.0001(6) 0.0023(6) 0.0006(6)
C11 0.0162(7) 0.0122(7) 0.0120(7) 0.0014(5) 0.0026(5) 0.0013(6)
O4 0.0215(7) 0.0289(8) 0.0421(9) -0.0052(6) 0.0117(6) -0.0007(6)
O5 0.0211(7) 0.0263(8) 0.0473(9) 0.0072(6) 0.0117(6) -0.0013(6)
O6 0.0201(7) 0.0320(8) 0.0353(8) -0.0091(6) 0.0033(6) -0.0029(6)

_geom_special_details            
;
All esds (except the esd in the dihedral angle between two l.s. planes)
are estimated using the full covariance matrix.  The cell esds are taken
into account individually in the estimation of esds in distances, angles
and torsion angles; correlations between esds in cell parameters are only
used when they are defined by crystal symmetry.  An approximate (isotropic)
treatment of cell esds is used for estimating esds involving l.s. planes.
;

loop_
_geom_bond_atom_site_label_1
_geom_bond_atom_site_label_2
_geom_bond_distance
_geom_bond_site_symmetry_2
_geom_bond_publ_flag
Cu1 N1 1.9721(13) . ?
Cu1 N3 1.9774(14) . ?
Cu1 O1 1.9817(11) . ?
Cu1 O2 1.9881(11) . ?
Cu1 O3 2.2756(11) 2_645 ?
Cu1 C11 2.3773(16) . ?
N1 C5 1.339(2) . ?
N1 C1 1.355(2) . ?
N2 C5 1.373(2) . ?
N2 C6 1.376(2) . ?
N2 H11 0.83(2) . ?
N3 C6 1.338(2) . ?
N3 C10 1.362(2) . ?
O1 C11 1.3015(19) . ?
O2 C11 1.2991(19) . ?
O3 C11 1.2520(19) . ?
O3 Cu1 2.2756(11) 2_655 ?
C1 C2 1.371(2) . ?
C1 H1 0.92(2) . ?
C2 C3 1.394(3) . ?
C2 H2 0.93(2) . ?
C3 C4 1.366(2) . ?
C3 H3 0.92(2) . ?
C4 C5 1.411(2) . ?
C4 H4 0.87(2) . ?
C6 C7 1.407(2) . ?
C7 C8 1.369(2) . ?
C7 H7 0.89(2) . ?
C8 C9 1.392(2) . ?
C8 H8 0.91(2) . ?
C9 C10 1.369(2) . ?
C9 H9 0.87(2) . ?
C10 H10 0.94(2) . ?
O4 H41 0.73(3) . ?
O4 H42 0.86(3) . ?
O5 H51 0.76(3) . ?
O5 H52 0.82(3) . ?
O6 H61 0.77(3) . ?
O6 H62 0.80(3) . ?

loop_
_geom_angle_atom_site_label_1
_geom_angle_atom_site_label_2
_geom_angle_atom_site_label_3
_geom_angle
_geom_angle_site_symmetry_1
_geom_angle_site_symmetry_3
_geom_angle_publ_flag
N1 Cu1 N3 93.48(6) . . ?
N1 Cu1 O1 98.70(5) . . ?
N3 Cu1 O1 162.24(5) . . ?
N1 Cu1 O2 162.24(5) . . ?
N3 Cu1 O2 99.33(5) . . ?
O1 Cu1 O2 66.23(5) . . ?
N1 Cu1 O3 99.42(5) . 2_645 ?
N3 Cu1 O3 92.44(5) . 2_645 ?
O1 Cu1 O3 98.22(5) . 2_645 ?
O2 Cu1 O3 92.31(5) . 2_645 ?
N1 Cu1 C11 131.62(5) . . ?
N3 Cu1 C11 132.10(5) . . ?
O1 Cu1 C11 33.19(5) . . ?
O2 Cu1 C11 33.13(5) . . ?
O3 Cu1 C11 94.49(5) 2_645 . ?
C5 N1 C1 118.03(13) . . ?
C5 N1 Cu1 125.38(11) . . ?
C1 N1 Cu1 116.59(10) . . ?
C5 N2 C6 131.95(14) . . ?
C5 N2 H11 113.2(15) . . ?
C6 N2 H11 114.6(15) . . ?
C6 N3 C10 117.89(14) . . ?
C6 N3 Cu1 125.21(11) . . ?
C10 N3 Cu1 116.81(11) . . ?
C11 O1 Cu1 90.34(9) . . ?
C11 O2 Cu1 90.12(9) . . ?
C11 O3 Cu1 130.74(10) . 2_655 ?
N1 C1 C2 123.35(16) . . ?
N1 C1 H1 114.6(12) . . ?
C2 C1 H1 122.0(12) . . ?
C1 C2 C3 118.37(16) . . ?
C1 C2 H2 120.4(14) . . ?
C3 C2 H2 121.2(14) . . ?
C4 C3 C2 119.42(16) . . ?
C4 C3 H3 120.0(13) . . ?
C2 C3 H3 120.6(13) . . ?
C3 C4 C5 119.15(16) . . ?
C3 C4 H4 121.8(13) . . ?
C5 C4 H4 119.1(13) . . ?
N1 C5 N2 121.71(14) . . ?
N1 C5 C4 121.68(15) . . ?
N2 C5 C4 116.61(15) . . ?
N3 C6 N2 121.72(14) . . ?
N3 C6 C7 121.77(15) . . ?
N2 C6 C7 116.52(14) . . ?
C8 C7 C6 119.30(15) . . ?
C8 C7 H7 121.7(14) . . ?
C6 C7 H7 119.0(14) . . ?
C7 C8 C9 119.24(16) . . ?
C7 C8 H8 119.0(13) . . ?
C9 C8 H8 121.7(13) . . ?
C10 C9 C8 118.58(16) . . ?
C10 C9 H9 120.0(14) . . ?
C8 C9 H9 121.4(14) . . ?
N3 C10 C9 123.21(15) . . ?
N3 C10 H10 114.5(12) . . ?
C9 C10 H10 122.2(12) . . ?
O3 C11 O2 123.95(14) . . ?
O3 C11 O1 123.02(14) . . ?
O2 C11 O1 113.02(14) . . ?
O3 C11 Cu1 174.79(12) . . ?
O2 C11 Cu1 56.75(8) . . ?
O1 C11 Cu1 56.47(8) . . ?
H41 O4 H42 105(3) . . ?
H51 O5 H52 112(3) . . ?
H61 O6 H62 103(3) . . ?

loop_
_geom_torsion_atom_site_label_1
_geom_torsion_atom_site_label_2
_geom_torsion_atom_site_label_3
_geom_torsion_atom_site_label_4
_geom_torsion
_geom_torsion_site_symmetry_1
_geom_torsion_site_symmetry_2
_geom_torsion_site_symmetry_3
_geom_torsion_site_symmetry_4
_geom_torsion_publ_flag
N3 Cu1 N1 C5 4.02(13) . . . . ?
O1 Cu1 N1 C5 171.06(12) . . . . ?
O2 Cu1 N1 C5 140.28(16) . . . . ?
O3 Cu1 N1 C5 -89.04(13) 2_645 . . . ?
C11 Cu1 N1 C5 166.28(11) . . . . ?
N3 Cu1 N1 C1 -175.40(12) . . . . ?
O1 Cu1 N1 C1 -8.36(12) . . . . ?
O2 Cu1 N1 C1 -39.1(2) . . . . ?
O3 Cu1 N1 C1 91.54(12) 2_645 . . . ?
C11 Cu1 N1 C1 -13.14(15) . . . . ?
N1 Cu1 N3 C6 -5.89(13) . . . . ?
O1 Cu1 N3 C6 -139.27(16) . . . . ?
O2 Cu1 N3 C6 -173.56(12) . . . . ?
O3 Cu1 N3 C6 93.70(13) 2_645 . . . ?
C11 Cu1 N3 C6 -168.02(11) . . . . ?
N1 Cu1 N3 C10 177.47(12) . . . . ?
O1 Cu1 N3 C10 44.1(2) . . . . ?
O2 Cu1 N3 C10 9.81(12) . . . . ?
O3 Cu1 N3 C10 -82.93(11) 2_645 . . . ?
C11 Cu1 N3 C10 15.35(14) . . . . ?
N1 Cu1 O1 C11 -173.47(9) . . . . ?
N3 Cu1 O1 C11 -40.7(2) . . . . ?
O2 Cu1 O1 C11 -3.29(9) . . . . ?
O3 Cu1 O1 C11 85.61(9) 2_645 . . . ?
N1 Cu1 O2 C11 36.8(2) . . . . ?
N3 Cu1 O2 C11 172.47(9) . . . . ?
O1 Cu1 O2 C11 3.30(9) . . . . ?
O3 Cu1 O2 C11 -94.67(9) 2_645 . . . ?
C5 N1 C1 C2 -0.1(2) . . . . ?
Cu1 N1 C1 C2 179.39(13) . . . . ?
N1 C1 C2 C3 -0.4(3) . . . . ?
C1 C2 C3 C4 0.6(3) . . . . ?
C2 C3 C4 C5 -0.3(3) . . . . ?
C1 N1 C5 N2 -179.41(14) . . . . ?
Cu1 N1 C5 N2 1.2(2) . . . . ?
C1 N1 C5 C4 0.4(2) . . . . ?
Cu1 N1 C5 C4 -179.06(12) . . . . ?
C6 N2 C5 N1 -7.6(3) . . . . ?
C6 N2 C5 C4 172.60(16) . . . . ?
C3 C4 C5 N1 -0.2(2) . . . . ?
C3 C4 C5 N2 179.62(15) . . . . ?
C10 N3 C6 N2 179.21(14) . . . . ?
Cu1 N3 C6 N2 2.6(2) . . . . ?
C10 N3 C6 C7 -0.6(2) . . . . ?
Cu1 N3 C6 C7 -177.18(11) . . . . ?
C5 N2 C6 N3 5.6(3) . . . . ?
C5 N2 C6 C7 -174.63(16) . . . . ?
N3 C6 C7 C8 0.7(2) . . . . ?
N2 C6 C7 C8 -179.13(15) . . . . ?
C6 C7 C8 C9 0.0(2) . . . . ?
C7 C8 C9 C10 -0.6(3) . . . . ?
C6 N3 C10 C9 -0.1(2) . . . . ?
Cu1 N3 C10 C9 176.75(13) . . . . ?
C8 C9 C10 N3 0.8(3) . . . . ?
Cu1 O3 C11 O2 57.6(2) 2_655 . . . ?
Cu1 O3 C11 O1 -123.73(14) 2_655 . . . ?
Cu1 O3 C11 Cu1 153.6(12) 2_655 . . . ?
Cu1 O2 C11 O3 173.80(14) . . . . ?
Cu1 O2 C11 O1 -4.99(13) . . . . ?
Cu1 O1 C11 O3 -173.79(14) . . . . ?
Cu1 O1 C11 O2 5.01(13) . . . . ?
N1 Cu1 C11 O3 94.7(13) . . . . ?
N3 Cu1 C11 O3 -109.5(13) . . . . ?
O1 Cu1 C11 O3 86.1(13) . . . . ?
O2 Cu1 C11 O3 -99.5(13) . . . . ?
O3 Cu1 C11 O3 -12.1(13) 2_645 . . . ?
N1 Cu1 C11 O2 -165.84(9) . . . . ?
N3 Cu1 C11 O2 -10.03(12) . . . . ?
O1 Cu1 C11 O2 -174.48(14) . . . . ?
O3 Cu1 C11 O2 87.35(9) 2_645 . . . ?
N1 Cu1 C11 O1 8.65(12) . . . . ?
N3 Cu1 C11 O1 164.45(8) . . . . ?
O2 Cu1 C11 O1 174.48(14) . . . . ?
O3 Cu1 C11 O1 -98.17(9) 2_645 . . . ?

loop_
_geom_hbond_atom_site_label_D
_geom_hbond_atom_site_label_H
_geom_hbond_atom_site_label_A
_geom_hbond_distance_DH
_geom_hbond_distance_HA
_geom_hbond_distance_DA
_geom_hbond_angle_DHA
_geom_hbond_site_symmetry_A
N2 H11 O3 0.83(2) 1.96(2) 2.7715(18) 167(2) 4_575
O4 H41 O5 0.73(3) 2.18(3) 2.898(2) 168(3) 2_745
O4 H42 O6 0.86(3) 1.86(3) 2.720(2) 171(3) 1_545
O5 H51 O4 0.76(3) 2.00(3) 2.739(2) 165(3) .
O5 H52 O1 0.82(3) 1.96(3) 2.7691(18) 166(3) 2_645
O6 H61 O2 0.77(3) 2.03(3) 2.7835(19) 168(2) .
O6 H62 O5 0.80(3) 2.01(3) 2.806(2) 178(3) .

_diffrn_measured_fraction_theta_max 0.963
_diffrn_reflns_theta_full        26.00
_diffrn_measured_fraction_theta_full 0.993
_refine_diff_density_max         0.363
_refine_diff_density_min         -0.377
_refine_diff_density_rms         0.065

