####################################################################### 
# 
# This file contains crystal structure data downloaded from the 
# Cambridge Structural Database (CSD) hosted by the Cambridge 
# Crystallographic Data Centre (CCDC).
# 
# Full information about CCDC data access policies and citation 
# guidelines are available at http://www.ccdc.cam.ac.uk/access/V1 
# 
# Audit and citation data items may have been added by the CCDC. 
# Please retain this information to preserve the provenance of 
# this file and to allow appropriate attribution of the data. 
# 
#######################################################################

data_COJGAJ
#This CIF has been generated from an entry in the Cambridge Structural Database
_database_code_depnum_ccdc_archive 'CCDC 1128938'
_database_code_CSD               COJGAJ
loop_
_citation_id
_citation_doi
_citation_year
1 10.3891/acta.chem.scand.38a-0491 1984
_audit_creation_method           'Created from the CSD'
_audit_update_record             
;
2024-07-09 downloaded from the CCDC.
;
_database_code_NBS               555635
_chemical_formula_moiety         '(C11 H9 Cu1 N3 O3)n,3n(H2 O1)'
_chemical_name_systematic        
"catena-((\m~2~-Carbonato)-(2,2'-dipyridylamine)-copper(ii) trihydrate)"
_chemical_absolute_configuration unk
_diffrn_ambient_temperature      295
_exptl_crystal_density_diffrn    1.693
#These two values have been output from a single CSD field.
_refine_ls_R_factor_gt           0.023
_refine_ls_wR_factor_gt          0.023
_diffrn_radiation_probe          x-ray
_symmetry_cell_setting           monoclinic
_symmetry_space_group_name_H-M   'P 21/c'
_symmetry_Int_Tables_number      14
_space_group_name_Hall           '-P 2ybc'
loop_
_symmetry_equiv_pos_site_id
_symmetry_equiv_pos_as_xyz
1 x,y,z
2 -x,1/2+y,1/2-z
3 -x,-y,-z
4 x,1/2-y,1/2+z
_cell_length_a                   11.243(1)
_cell_length_b                   7.155(1)
_cell_length_c                   17.343(2)
_cell_angle_alpha                90
_cell_angle_beta                 101.15(1)
_cell_angle_gamma                90
_cell_volume                     1368.8
_exptl_crystal_colour            turquoise
_cell_formula_units_Z            4
loop_
_atom_site_label
_atom_site_type_symbol
_atom_site_fract_x
_atom_site_fract_y
_atom_site_fract_z
Cu1 Cu 0.53130(2) 0.18092(4) 0.37154(1)
O1 O 0.6271(1) 0.0972(2) 0.29336(8)
O2 O 0.4354(1) 0.0452(3) 0.28042(8)
O3 O 0.5286(1) -0.0322(2) 0.18127(8)
N1 N 0.6657(2) 0.2608(3) 0.45555(9)
N2 N 0.4113(2) 0.1869(2) 0.4410(1)
N3 N 0.5456(2) 0.3080(3) 0.55168(9)
C1 C 0.5299(2) 0.0330(3) 0.2489(1)
C2 C 0.6559(2) 0.3085(3) 0.5292(1)
C3 C 0.7569(2) 0.3608(4) 0.5855(1)
C4 C 0.8685(2) 0.3642(4) 0.5658(1)
C5 C 0.8800(2) 0.3163(4) 0.4901(1)
C6 C 0.7782(2) 0.2658(3) 0.4379(1)
C7 C 0.4324(2) 0.2484(3) 0.5160(1)
C8 C 0.3405(2) 0.2545(3) 0.5597(1)
C9 C 0.2263(2) 0.1989(3) 0.5267(1)
C10 C 0.2034(2) 0.1366(3) 0.4491(1)
C11 C 0.2963(2) 0.1322(3) 0.4096(1)
H1 H 0.549(2) 0.353(3) 0.589(1)
H2 H 0.745(2) 0.387(3) 0.634(1)
H3 H 0.931(2) 0.397(4) 0.601(1)
H4 H 0.956(2) 0.319(3) 0.472(1)
H5 H 0.782(2) 0.234(3) 0.387(1)
H6 H 0.355(2) 0.290(3) 0.608(1)
H7 H 0.163(2) 0.207(3) 0.553(1)
H8 H 0.131(2) 0.103(3) 0.427(1)
H9 H 0.286(2) 0.089(3) 0.359(1)
O3A O 0.4714(1) 0.4678(2) 0.31873(8)
Cu1A Cu 0.46870(2) -0.31908(4) 0.12846(1)
O4 O 0.8083(2) 0.5452(3) 0.2958(1)
H10 H 0.734(3) 0.533(4) 0.277(2)
H11 H 0.827(2) 0.647(4) 0.288(1)
O5 O 0.1528(2) 0.4318(3) 0.2195(1)
H12 H 0.108(2) 0.511(4) 0.210(1)
H13 H 0.225(3) 0.486(5) 0.218(2)
O6 O 0.9736(2) 0.2630(3) 0.3017(1)
H14 H 0.922(3) 0.351(5) 0.289(2)
H15 H 1.020(3) 0.279(4) 0.279(2)

#END
