####################################################################### 
# 
# This file contains crystal structure data downloaded from the 
# Cambridge Structural Database (CSD) hosted by the Cambridge 
# Crystallographic Data Centre (CCDC).
# 
# Full information about CCDC data access policies and citation 
# guidelines are available at http://www.ccdc.cam.ac.uk/access/V1 
# 
# Audit and citation data items may have been added by the CCDC. 
# Please retain this information to preserve the provenance of 
# this file and to allow appropriate attribution of the data. 
# 
#######################################################################

data_2
_audit_block_doi                 10.5517/ccnfxhg
_database_code_depnum_ccdc_archive 'CCDC 609196'
loop_
_citation_id
_citation_doi
_citation_year
1 10.1016/j.ica.2007.11.001 2008
_audit_update_record             
;
2006-05-26 deposited with the CCDC.	2024-07-09 downloaded from the CCDC.
;



_audit_creation_method           SHELXL-97

_chemical_name_systematic        
;

?

;

_chemical_name_common            ?

_chemical_melting_point          ?

_chemical_formula_moiety         ?

_chemical_formula_sum            'C18 H14 N4 O8 S Zn'

_chemical_formula_weight         511.76



loop_

_atom_type_symbol

_atom_type_description

_atom_type_scat_dispersion_real

_atom_type_scat_dispersion_imag

_atom_type_scat_source












C C 0.0033 0.0016 'International Tables Vol C Tables 4.2.6.8 and 6.1.1.4'
H H 0.0000 0.0000 'International Tables Vol C Tables 4.2.6.8 and 6.1.1.4'
N N 0.0061 0.0033 'International Tables Vol C Tables 4.2.6.8 and 6.1.1.4'
O O 0.0106 0.0060 'International Tables Vol C Tables 4.2.6.8 and 6.1.1.4'
S S 0.1246 0.1234 'International Tables Vol C Tables 4.2.6.8 and 6.1.1.4'
Zn Zn 0.2839 1.4301 'International Tables Vol C Tables 4.2.6.8 and 6.1.1.4'



_symmetry_cell_setting           Orthorhombic

_symmetry_space_group_name_H-M   Pccn



loop_

_symmetry_equiv_pos_as_xyz








'x, y, z'
'-x+1/2, -y+1/2, z'
'-x, y+1/2, -z+1/2'
'x+1/2, -y, -z+1/2'
'-x, -y, -z'
'x-1/2, y-1/2, -z'
'x, -y-1/2, z-1/2'
'-x-1/2, y, z-1/2'



_cell_length_a                   22.667(4)

_cell_length_b                   23.716(4)

_cell_length_c                   9.2454(15)

_cell_angle_alpha                90.00

_cell_angle_beta                 90.00

_cell_angle_gamma                90.00

_cell_volume                     4970.1(14)

_cell_formula_units_Z            8

_cell_measurement_temperature    291(2)

_cell_measurement_reflns_used    2855

_cell_measurement_theta_min      2.49

_cell_measurement_theta_max      23.70



_exptl_crystal_description       no

_exptl_crystal_colour            colorless

_exptl_crystal_size_max          no

_exptl_crystal_size_mid          no

_exptl_crystal_size_min          no

_exptl_crystal_density_meas      0

_exptl_crystal_density_diffrn    1.368

_exptl_crystal_density_method    'not measured'

_exptl_crystal_F_000             2080

_exptl_absorpt_coefficient_mu    1.118

_exptl_absorpt_correction_type   none

_exptl_absorpt_correction_T_min  no

_exptl_absorpt_correction_T_max  no

_exptl_absorpt_process_details   no



_exptl_special_details           
;

?

;



_diffrn_ambient_temperature      291(2)

_diffrn_radiation_wavelength     0.71073

_diffrn_radiation_type           MoK\a

_diffrn_radiation_source         'fine-focus sealed tube'

_diffrn_radiation_monochromator  graphite

_diffrn_measurement_device_type  'CCD area detector'

_diffrn_measurement_method       'phi and omega scans'

_diffrn_detector_area_resol_mean ?

_diffrn_standards_number         no

_diffrn_standards_interval_count no

_diffrn_standards_interval_time  no

_diffrn_standards_decay_%        no

_diffrn_reflns_number            15043

_diffrn_reflns_av_R_equivalents  0.0614

_diffrn_reflns_av_sigmaI/netI    0.0642

_diffrn_reflns_limit_h_min       -26

_diffrn_reflns_limit_h_max       26

_diffrn_reflns_limit_k_min       -28

_diffrn_reflns_limit_k_max       17

_diffrn_reflns_limit_l_min       -8

_diffrn_reflns_limit_l_max       11

_diffrn_reflns_theta_min         2.49

_diffrn_reflns_theta_max         25.50

_reflns_number_total             4578

_reflns_number_gt                2868

_reflns_threshold_expression     >2sigma(I)



_computing_data_collection       'Bruker SMART'

_computing_cell_refinement       'Bruker SMART'

_computing_data_reduction        'Bruker SAINT'

_computing_structure_solution    'SHELXS-97 (Sheldrick, 1990)'

_computing_structure_refinement  'SHELXL-97 (Sheldrick, 1997)'

_computing_molecular_graphics    'Bruker SHELXTL'

_computing_publication_material  'Bruker SHELXTL'



_refine_special_details          
;

Refinement of F^2^ against ALL reflections. The weighted R-factor wR and

goodness of fit S are based on F^2^, conventional R-factors R are based

on F, with F set to zero for negative F^2^. The threshold expression of

F^2^ > 2sigma(F^2^) is used only for calculating R-factors(gt) etc. and is

not relevant to the choice of reflections for refinement. R-factors based

on F^2^ are statistically about twice as large as those based on F, and R-

factors based on ALL data will be even larger.

;



_refine_ls_structure_factor_coef Fsqd

_refine_ls_matrix_type           full

_refine_ls_weighting_scheme      calc

_refine_ls_weighting_details     
'calc w=1/[\s^2^(Fo^2^)+(0.1501P)^2^+0.0000P] where P=(Fo^2^+2Fc^2^)/3'

_atom_sites_solution_primary     direct

_atom_sites_solution_secondary   difmap

_atom_sites_solution_hydrogens   geom

_refine_ls_hydrogen_treatment    constr

_refine_ls_extinction_method     none

_refine_ls_extinction_coef       ?

_refine_ls_number_reflns         4578

_refine_ls_number_parameters     291

_refine_ls_number_restraints     198

_refine_ls_R_factor_all          0.0971

_refine_ls_R_factor_gt           0.0667

_refine_ls_wR_factor_ref         0.2348

_refine_ls_wR_factor_gt          0.2154

_refine_ls_goodness_of_fit_ref   1.018

_refine_ls_restrained_S_all      1.013

_refine_ls_shift/su_max          0.001

_refine_ls_shift/su_mean         0.000



loop_

_atom_site_label

_atom_site_type_symbol

_atom_site_fract_x

_atom_site_fract_y

_atom_site_fract_z

_atom_site_U_iso_or_equiv

_atom_site_adp_type

_atom_site_occupancy

_atom_site_symmetry_multiplicity

_atom_site_calc_flag

_atom_site_refinement_flags

_atom_site_disorder_assembly

_atom_site_disorder_group















































Zn1 Zn 0.01124(3) 0.70788(2) 0.29043(7) 0.0317(2) Uani 1 1 d . . .
S1 S 0.00398(7) 0.81929(6) 0.12666(16) 0.0439(4) Uani 1 1 d U . .
O1 O 0.21994(19) 0.5630(2) -0.1187(4) 0.0613(12) Uani 1 1 d U . .
O2 O 0.21438(18) 0.4103(2) 0.1204(4) 0.0568(12) Uani 1 1 d U . .
O3 O 0.0290(3) 0.78488(17) 0.2418(5) 0.0647(14) Uani 1 1 d U . .
O4 O 0.0099(3) 0.7842(2) -0.0021(6) 0.0826(18) Uani 1 1 d U . .
O5 O 0.0341(3) 0.8711(2) 0.1122(7) 0.0944(18) Uani 1 1 d U . .
O6 O -0.0589(2) 0.8260(3) 0.1553(8) 0.109(2) Uani 1 1 d U . .
N1 N 0.07734(19) 0.65975(18) 0.2060(5) 0.0389(11) Uani 1 1 d U . .
N2 N 0.25187(17) 0.53392(18) 0.0993(5) 0.0347(10) Uani 1 1 d U . .
H2N H 0.2436 0.5319 0.1899 0.042 Uiso 1 1 calc R . .
N3 N 0.25035(17) 0.43672(17) -0.0968(5) 0.0313(10) Uani 1 1 d U . .
H3N H 0.2432 0.4386 -0.1880 0.038 Uiso 1 1 calc R . .
N4 N 0.06206(19) 0.32724(19) -0.2043(5) 0.0385(11) Uani 1 1 d U . .
C1 C 0.1011(3) 0.6172(2) 0.2792(6) 0.0485(15) Uani 1 1 d U . .
H1 H 0.0872 0.6091 0.3714 0.058 Uiso 1 1 calc R . .
C2 C 0.1463(3) 0.5847(2) 0.2211(6) 0.0486(15) Uani 1 1 d U . .
H2 H 0.1628 0.5556 0.2751 0.058 Uiso 1 1 calc R . .
C3 C 0.1661(2) 0.5953(2) 0.0858(6) 0.0356(12) Uani 1 1 d U . .
C4 C 0.1406(3) 0.6386(3) 0.0096(6) 0.0581(17) Uani 1 1 d U . .
H4 H 0.1526 0.6464 -0.0845 0.070 Uiso 1 1 calc R . .
C5 C 0.0975(3) 0.6698(3) 0.0737(7) 0.0595(18) Uani 1 1 d U . .
H5 H 0.0814 0.6997 0.0221 0.071 Uiso 1 1 calc R . .
C6 C 0.2152(2) 0.5621(2) 0.0133(6) 0.0367(13) Uani 1 1 d U . .
C7 C 0.3043(2) 0.5069(2) 0.0491(5) 0.0306(11) Uani 1 1 d U . .
C8 C 0.3581(2) 0.5279(2) 0.0983(6) 0.0405(13) Uani 1 1 d U . .
H8 H 0.3586 0.5581 0.1625 0.049 Uiso 1 1 calc R . .
C9 C 0.4107(2) 0.5042(2) 0.0526(7) 0.0482(15) Uani 1 1 d U . .
H9 H 0.4465 0.5185 0.0858 0.058 Uiso 1 1 calc R . .
C10 C 0.4099(2) 0.4594(2) -0.0423(6) 0.0439(14) Uani 1 1 d U . .
H10 H 0.4451 0.4434 -0.0736 0.053 Uiso 1 1 calc R . .
C11 C 0.3569(2) 0.4384(2) -0.0905(6) 0.0358(12) Uani 1 1 d U . .
H11 H 0.3567 0.4085 -0.1557 0.043 Uiso 1 1 calc R . .
C12 C 0.3038(2) 0.4608(2) -0.0437(5) 0.0291(11) Uani 1 1 d U . .
C13 C 0.2107(2) 0.4114(2) -0.0114(6) 0.0346(12) Uani 1 1 d U . .
C14 C 0.1592(2) 0.3823(2) -0.0851(5) 0.0327(12) Uani 1 1 d U . .
C15 C 0.1526(3) 0.3764(3) -0.2306(6) 0.0518(16) Uani 1 1 d U . .
H15 H 0.1810 0.3911 -0.2927 0.062 Uiso 1 1 calc R . .
C16 C 0.1041(3) 0.3488(3) -0.2869(6) 0.0486(15) Uani 1 1 d U . .
H16 H 0.1008 0.3451 -0.3867 0.058 Uiso 1 1 calc R . .
C17 C 0.0685(3) 0.3319(3) -0.0607(7) 0.069(2) Uani 1 1 d U . .
H17 H 0.0393 0.3173 -0.0007 0.083 Uiso 1 1 calc R . .
C18 C 0.1166(3) 0.3577(3) 0.0008(7) 0.0655(19) Uani 1 1 d U . .
H18 H 0.1204 0.3586 0.1009 0.079 Uiso 1 1 calc R . .
O7 O 0.5000 0.5000 0.5000 0.355(12) Uani 1 2 d SU . .
O8 O 0.2500 0.2500 0.836(4) 0.533(15) Uani 1 2 d SU . .
O9 O 0.1938(17) 0.6969(11) 0.548(3) 0.562(14) Uani 1 1 d U . .



loop_

_atom_site_aniso_label

_atom_site_aniso_U_11

_atom_site_aniso_U_22

_atom_site_aniso_U_33

_atom_site_aniso_U_23

_atom_site_aniso_U_13

_atom_site_aniso_U_12

































Zn1 0.0270(3) 0.0350(4) 0.0330(4) -0.0007(3) -0.0017(3) 0.0006(2)
S1 0.0632(10) 0.0338(8) 0.0346(8) 0.0036(6) 0.0031(7) 0.0053(6)
O1 0.063(3) 0.092(3) 0.029(2) -0.001(2) 0.004(2) 0.033(2)
O2 0.049(2) 0.100(3) 0.022(2) 0.000(2) -0.0028(18) -0.032(2)
O3 0.088(4) 0.046(2) 0.061(3) 0.014(2) -0.026(3) -0.013(2)
O4 0.129(5) 0.076(3) 0.043(3) -0.003(3) -0.003(3) 0.014(3)
O5 0.118(4) 0.053(3) 0.113(5) 0.019(3) 0.000(4) -0.033(3)
O6 0.056(3) 0.126(5) 0.146(6) 0.012(4) 0.028(4) 0.024(3)
N1 0.034(2) 0.043(2) 0.039(3) 0.001(2) 0.002(2) 0.007(2)
N2 0.033(2) 0.045(2) 0.026(2) -0.006(2) -0.0010(18) 0.0069(19)
N3 0.031(2) 0.039(2) 0.024(2) -0.0023(19) -0.0011(18) -0.0043(18)
N4 0.028(2) 0.052(3) 0.035(2) 0.003(2) -0.0022(19) -0.007(2)
C1 0.052(3) 0.055(3) 0.038(3) 0.008(3) 0.010(3) 0.018(3)
C2 0.052(3) 0.055(3) 0.039(3) 0.008(3) 0.009(3) 0.020(3)
C3 0.034(3) 0.042(3) 0.031(3) -0.004(2) 0.005(2) 0.004(2)
C4 0.064(4) 0.077(4) 0.034(3) 0.016(3) 0.016(3) 0.032(3)
C5 0.068(4) 0.060(4) 0.050(4) 0.019(3) 0.018(3) 0.035(3)
C6 0.036(3) 0.043(3) 0.031(3) -0.004(2) -0.001(2) 0.008(2)
C7 0.029(2) 0.034(3) 0.029(2) -0.001(2) 0.000(2) 0.001(2)
C8 0.039(3) 0.038(3) 0.044(3) -0.011(3) 0.000(3) 0.000(2)
C9 0.031(3) 0.049(3) 0.065(4) -0.006(3) -0.003(3) -0.007(2)
C10 0.026(3) 0.045(3) 0.061(4) -0.004(3) 0.008(3) 0.005(2)
C11 0.035(3) 0.038(3) 0.034(3) -0.007(2) 0.004(2) 0.003(2)
C12 0.025(2) 0.033(3) 0.029(3) 0.001(2) -0.001(2) -0.002(2)
C13 0.026(3) 0.044(3) 0.034(3) -0.004(2) 0.002(2) -0.003(2)
C14 0.027(3) 0.045(3) 0.025(3) -0.001(2) 0.001(2) -0.007(2)
C15 0.046(3) 0.079(4) 0.030(3) -0.005(3) 0.005(3) -0.025(3)
C16 0.045(3) 0.075(4) 0.025(3) 0.000(3) -0.001(2) -0.023(3)
C17 0.055(4) 0.115(5) 0.037(3) -0.007(4) 0.008(3) -0.045(4)
C18 0.057(4) 0.110(5) 0.029(3) -0.004(3) 0.002(3) -0.042(4)
O7 0.351(14) 0.353(14) 0.360(15) -0.018(9) 0.041(8) -0.009(9)
O8 0.540(16) 0.523(17) 0.536(17) 0.000 0.000 0.038(9)
O9 0.564(16) 0.560(16) 0.564(16) -0.010(9) -0.013(9) 0.022(9)



_geom_special_details            
;

All esds (except the esd in the dihedral angle between two l.s. planes)

are estimated using the full covariance matrix. The cell esds are taken

into account individually in the estimation of esds in distances, angles

and torsion angles; correlations between esds in cell parameters are only

used when they are defined by crystal symmetry. An approximate (isotropic)

treatment of cell esds is used for estimating esds involving l.s. planes.

;



loop_

_geom_bond_atom_site_label_1

_geom_bond_atom_site_label_2

_geom_bond_distance

_geom_bond_site_symmetry_2

_geom_bond_publ_flag


















































Zn1 O3 1.923(4) . ?
Zn1 O4 1.928(6) 7_576 ?
Zn1 N4 2.022(4) 5_565 ?
Zn1 N1 2.039(4) . ?
S1 O5 1.413(5) . ?
S1 O3 1.456(5) . ?
S1 O4 1.459(6) . ?
S1 O6 1.459(5) . ?
O1 C6 1.225(6) . ?
O2 C13 1.222(6) . ?
O4 Zn1 1.928(6) 7_575 ?
N1 C1 1.328(7) . ?
N1 C5 1.328(7) . ?
N2 C6 1.330(6) . ?
N2 C7 1.428(6) . ?
N2 H2N 0.8600 . ?
N3 C13 1.338(6) . ?
N3 C12 1.428(6) . ?
N3 H3N 0.8600 . ?
N4 C16 1.323(7) . ?
N4 C17 1.340(7) . ?
N4 Zn1 2.022(4) 5_565 ?
C1 C2 1.390(8) . ?
C1 H1 0.9300 . ?
C2 C3 1.353(7) . ?
C2 H2 0.9300 . ?
C3 C4 1.373(8) . ?
C3 C6 1.519(7) . ?
C4 C5 1.361(8) . ?
C4 H4 0.9300 . ?
C5 H5 0.9300 . ?
C7 C12 1.389(7) . ?
C7 C8 1.393(7) . ?
C8 C9 1.384(8) . ?
C8 H8 0.9300 . ?
C9 C10 1.378(8) . ?
C9 H9 0.9300 . ?
C10 C11 1.375(7) . ?
C10 H10 0.9300 . ?
C11 C12 1.385(7) . ?
C11 H11 0.9300 . ?
C13 C14 1.518(7) . ?
C14 C15 1.361(7) . ?
C14 C18 1.381(8) . ?
C15 C16 1.382(8) . ?
C15 H15 0.9300 . ?
C16 H16 0.9300 . ?
C17 C18 1.373(9) . ?
C17 H17 0.9300 . ?
C18 H18 0.9300 . ?



loop_

_geom_angle_atom_site_label_1

_geom_angle_atom_site_label_2

_geom_angle_atom_site_label_3

_geom_angle

_geom_angle_site_symmetry_1

_geom_angle_site_symmetry_3

_geom_angle_publ_flag
















































































O3 Zn1 O4 98.2(2) . 7_576 ?
O3 Zn1 N4 118.1(2) . 5_565 ?
O4 Zn1 N4 114.8(2) 7_576 5_565 ?
O3 Zn1 N1 106.8(2) . . ?
O4 Zn1 N1 116.6(2) 7_576 . ?
N4 Zn1 N1 102.87(19) 5_565 . ?
O5 S1 O3 111.7(3) . . ?
O5 S1 O4 112.1(4) . . ?
O3 S1 O4 103.9(3) . . ?
O5 S1 O6 113.2(4) . . ?
O3 S1 O6 108.0(4) . . ?
O4 S1 O6 107.4(4) . . ?
S1 O3 Zn1 128.4(3) . . ?
S1 O4 Zn1 139.2(4) . 7_575 ?
C1 N1 C5 117.8(5) . . ?
C1 N1 Zn1 121.9(4) . . ?
C5 N1 Zn1 120.3(4) . . ?
C6 N2 C7 123.5(4) . . ?
C6 N2 H2N 118.3 . . ?
C7 N2 H2N 118.3 . . ?
C13 N3 C12 123.2(4) . . ?
C13 N3 H3N 118.4 . . ?
C12 N3 H3N 118.4 . . ?
C16 N4 C17 117.5(5) . . ?
C16 N4 Zn1 121.5(4) . 5_565 ?
C17 N4 Zn1 120.9(4) . 5_565 ?
N1 C1 C2 121.6(5) . . ?
N1 C1 H1 119.2 . . ?
C2 C1 H1 119.2 . . ?
C3 C2 C1 119.9(5) . . ?
C3 C2 H2 120.0 . . ?
C1 C2 H2 120.0 . . ?
C2 C3 C4 118.3(5) . . ?
C2 C3 C6 123.7(5) . . ?
C4 C3 C6 118.0(5) . . ?
C5 C4 C3 119.0(5) . . ?
C5 C4 H4 120.5 . . ?
C3 C4 H4 120.5 . . ?
N1 C5 C4 123.4(5) . . ?
N1 C5 H5 118.3 . . ?
C4 C5 H5 118.3 . . ?
O1 C6 N2 123.3(5) . . ?
O1 C6 C3 119.7(5) . . ?
N2 C6 C3 117.0(4) . . ?
C12 C7 C8 119.3(5) . . ?
C12 C7 N2 123.2(4) . . ?
C8 C7 N2 117.5(4) . . ?
C9 C8 C7 120.6(5) . . ?
C9 C8 H8 119.7 . . ?
C7 C8 H8 119.7 . . ?
C10 C9 C8 119.7(5) . . ?
C10 C9 H9 120.2 . . ?
C8 C9 H9 120.2 . . ?
C11 C10 C9 119.9(5) . . ?
C11 C10 H10 120.1 . . ?
C9 C10 H10 120.1 . . ?
C10 C11 C12 121.2(5) . . ?
C10 C11 H11 119.4 . . ?
C12 C11 H11 119.4 . . ?
C11 C12 C7 119.3(4) . . ?
C11 C12 N3 118.4(4) . . ?
C7 C12 N3 122.3(4) . . ?
O2 C13 N3 123.6(5) . . ?
O2 C13 C14 119.4(5) . . ?
N3 C13 C14 117.1(4) . . ?
C15 C14 C18 116.6(5) . . ?
C15 C14 C13 125.1(5) . . ?
C18 C14 C13 118.2(5) . . ?
C14 C15 C16 120.6(5) . . ?
C14 C15 H15 119.7 . . ?
C16 C15 H15 119.7 . . ?
N4 C16 C15 122.6(5) . . ?
N4 C16 H16 118.7 . . ?
C15 C16 H16 118.7 . . ?
N4 C17 C18 122.2(6) . . ?
N4 C17 H17 118.9 . . ?
C18 C17 H17 118.9 . . ?
C17 C18 C14 120.4(6) . . ?
C17 C18 H18 119.8 . . ?
C14 C18 H18 119.8 . . ?



loop_

_geom_torsion_atom_site_label_1

_geom_torsion_atom_site_label_2

_geom_torsion_atom_site_label_3

_geom_torsion_atom_site_label_4

_geom_torsion

_geom_torsion_site_symmetry_1

_geom_torsion_site_symmetry_2

_geom_torsion_site_symmetry_3

_geom_torsion_site_symmetry_4

_geom_torsion_publ_flag






























































O5 S1 O3 Zn1 -171.7(4) . . . . ?
O4 S1 O3 Zn1 -50.7(5) . . . . ?
O6 S1 O3 Zn1 63.2(5) . . . . ?
O4 Zn1 O3 S1 -138.1(5) 7_576 . . . ?
N4 Zn1 O3 S1 -14.3(6) 5_565 . . . ?
N1 Zn1 O3 S1 100.8(5) . . . . ?
O5 S1 O4 Zn1 -38.8(7) . . . 7_575 ?
O3 S1 O4 Zn1 -159.5(6) . . . 7_575 ?
O6 S1 O4 Zn1 86.2(7) . . . 7_575 ?
O3 Zn1 N1 C1 137.9(5) . . . . ?
O4 Zn1 N1 C1 29.3(5) 7_576 . . . ?
N4 Zn1 N1 C1 -97.2(5) 5_565 . . . ?
O3 Zn1 N1 C5 -43.1(5) . . . . ?
O4 Zn1 N1 C5 -151.6(5) 7_576 . . . ?
N4 Zn1 N1 C5 81.9(5) 5_565 . . . ?
C5 N1 C1 C2 1.1(9) . . . . ?
Zn1 N1 C1 C2 -179.8(5) . . . . ?
N1 C1 C2 C3 -1.4(9) . . . . ?
C1 C2 C3 C4 0.0(9) . . . . ?
C1 C2 C3 C6 -180.0(5) . . . . ?
C2 C3 C4 C5 1.5(10) . . . . ?
C6 C3 C4 C5 -178.5(6) . . . . ?
C1 N1 C5 C4 0.6(10) . . . . ?
Zn1 N1 C5 C4 -178.5(6) . . . . ?
C3 C4 C5 N1 -1.9(11) . . . . ?
C7 N2 C6 O1 7.1(9) . . . . ?
C7 N2 C6 C3 -171.6(5) . . . . ?
C2 C3 C6 O1 159.8(6) . . . . ?
C4 C3 C6 O1 -20.2(8) . . . . ?
C2 C3 C6 N2 -21.4(8) . . . . ?
C4 C3 C6 N2 158.6(5) . . . . ?
C6 N2 C7 C12 -66.2(7) . . . . ?
C6 N2 C7 C8 114.6(6) . . . . ?
C12 C7 C8 C9 1.7(8) . . . . ?
N2 C7 C8 C9 -179.2(5) . . . . ?
C7 C8 C9 C10 -0.1(9) . . . . ?
C8 C9 C10 C11 -0.2(9) . . . . ?
C9 C10 C11 C12 -1.0(9) . . . . ?
C10 C11 C12 C7 2.6(8) . . . . ?
C10 C11 C12 N3 -179.4(5) . . . . ?
C8 C7 C12 C11 -2.9(7) . . . . ?
N2 C7 C12 C11 178.0(5) . . . . ?
C8 C7 C12 N3 179.2(5) . . . . ?
N2 C7 C12 N3 0.1(7) . . . . ?
C13 N3 C12 C11 117.0(6) . . . . ?
C13 N3 C12 C7 -65.1(7) . . . . ?
C12 N3 C13 O2 5.8(8) . . . . ?
C12 N3 C13 C14 -173.6(4) . . . . ?
O2 C13 C14 C15 -174.3(6) . . . . ?
N3 C13 C14 C15 5.1(8) . . . . ?
O2 C13 C14 C18 3.0(8) . . . . ?
N3 C13 C14 C18 -177.5(6) . . . . ?
C18 C14 C15 C16 2.2(10) . . . . ?
C13 C14 C15 C16 179.6(6) . . . . ?
C17 N4 C16 C15 -1.5(9) . . . . ?
Zn1 N4 C16 C15 175.4(5) 5_565 . . . ?
C14 C15 C16 N4 0.5(10) . . . . ?
C16 N4 C17 C18 -0.3(11) . . . . ?
Zn1 N4 C17 C18 -177.2(6) 5_565 . . . ?
N4 C17 C18 C14 3.0(12) . . . . ?
C15 C14 C18 C17 -3.9(10) . . . . ?
C13 C14 C18 C17 178.6(7) . . . . ?



loop_

_geom_hbond_atom_site_label_D

_geom_hbond_atom_site_label_H

_geom_hbond_atom_site_label_A

_geom_hbond_distance_DH

_geom_hbond_distance_HA

_geom_hbond_distance_DA

_geom_hbond_angle_DHA

_geom_hbond_site_symmetry_A


N2 H2N O1 0.86 2.09 2.772(6) 136.0 8_656
N3 H3N O2 0.86 2.12 2.805(6) 135.8 8_655



_diffrn_measured_fraction_theta_max 0.988

_diffrn_reflns_theta_full        25.50

_diffrn_measured_fraction_theta_full 0.988

_refine_diff_density_max         1.546

_refine_diff_density_min         -0.582

_refine_diff_density_rms         0.161



