####################################################################### 
# 
# This file contains crystal structure data downloaded from the 
# Cambridge Structural Database (CSD) hosted by the Cambridge 
# Crystallographic Data Centre (CCDC).
# 
# Full information about CCDC data access policies and citation 
# guidelines are available at http://www.ccdc.cam.ac.uk/access/V1 
# 
# Audit and citation data items may have been added by the CCDC. 
# Please retain this information to preserve the provenance of 
# this file and to allow appropriate attribution of the data. 
# 
#######################################################################

data_ZH3_43F_RT_SQZ
_audit_block_doi                 10.5517/cc11w6pt
_database_code_depnum_ccdc_archive 'CCDC 979466'
loop_
_citation_id
_citation_doi
_citation_year
1 10.1039/C4SC02157F 2014
_audit_update_record             
;
2014-01-02 deposited with the CCDC.	2024-07-09 downloaded from the CCDC.
;

_audit_creation_method           SHELXL-97
_chemical_name_systematic        
; 
 ? 
;
_chemical_name_common            ?
_chemical_melting_point          ?
_chemical_formula_moiety         'C40 H24 N2 O8 Zn2'
_chemical_formula_sum            'C40 H24 N2 O8 Zn2'
_chemical_formula_weight         791.39

loop_
_atom_type_symbol
_atom_type_description
_atom_type_scat_dispersion_real
_atom_type_scat_dispersion_imag
_atom_type_scat_source
C C 0.0033 0.0016 'International Tables Vol C Tables 4.2.6.8 and 6.1.1.4'
H H 0.0000 0.0000 'International Tables Vol C Tables 4.2.6.8 and 6.1.1.4'
N N 0.0061 0.0033 'International Tables Vol C Tables 4.2.6.8 and 6.1.1.4'
O O 0.0106 0.0060 'International Tables Vol C Tables 4.2.6.8 and 6.1.1.4'
Zn Zn 0.2839 1.4301 'International Tables Vol C Tables 4.2.6.8 and 6.1.1.4'

_symmetry_cell_setting           monoclinic
_symmetry_space_group_name_H-M   'C 2/c'
_symmetry_space_group_name_Hall  '-C 2yc'


loop_
_symmetry_equiv_pos_as_xyz
'x, y, z'
'-x, y, -z+1/2'
'x+1/2, y+1/2, z'
'-x+1/2, y+1/2, -z+1/2'
'-x, -y, -z'
'x, -y, z-1/2'
'-x+1/2, -y+1/2, -z'
'x+1/2, -y+1/2, z-1/2'

_cell_length_a                   33.559(7)
_cell_length_b                   22.171(4)
_cell_length_c                   19.706(4)
_cell_angle_alpha                90.00
_cell_angle_beta                 124.022(3)
_cell_angle_gamma                90.00
_cell_volume                     12152(4)
_cell_formula_units_Z            8
_cell_measurement_temperature    295(2)
_cell_measurement_reflns_used    ?
_cell_measurement_theta_min      ?
_cell_measurement_theta_max      ?

_exptl_crystal_description       needle
_exptl_crystal_colour            colorless
_exptl_crystal_size_max          0.35
_exptl_crystal_size_mid          0.18
_exptl_crystal_size_min          0.08
_exptl_crystal_density_meas      ?
_exptl_crystal_density_diffrn    0.865
_exptl_crystal_density_method    'not measured'
_exptl_crystal_F_000             3216
_exptl_absorpt_coefficient_mu    0.823
_exptl_absorpt_correction_type   multi-scan
_exptl_absorpt_correction_T_min  0.67
_exptl_absorpt_correction_T_max  0.74
_exptl_absorpt_process_details   'SADABS, Sheldrick(2008)'

_exptl_special_details           
; 
 ? 
;

_diffrn_ambient_temperature      295(2)
_diffrn_radiation_wavelength     0.71073
_diffrn_radiation_type           MoK\a
_diffrn_radiation_source         'fine-focus sealed tube'
_diffrn_radiation_monochromator  graphite
_diffrn_measurement_device_type  ?
_diffrn_measurement_method       ?
_diffrn_detector_area_resol_mean ?
_diffrn_standards_number         ?
_diffrn_standards_interval_count ?
_diffrn_standards_interval_time  ?
_diffrn_standards_decay_%        ?
_diffrn_reflns_number            50481
_diffrn_reflns_av_R_equivalents  0.0481
_diffrn_reflns_av_sigmaI/netI    0.0493
_diffrn_reflns_limit_h_min       -40
_diffrn_reflns_limit_h_max       40
_diffrn_reflns_limit_k_min       -27
_diffrn_reflns_limit_k_max       27
_diffrn_reflns_limit_l_min       -23
_diffrn_reflns_limit_l_max       24
_diffrn_reflns_theta_min         2.04
_diffrn_reflns_theta_max         25.68
_reflns_number_total             11534
_reflns_number_gt                7842
_reflns_threshold_expression     >2sigma(I)

_computing_data_collection       ?
_computing_cell_refinement       ?
_computing_data_reduction        ?
_computing_structure_solution    'SHELXS-97 (Sheldrick, 1990)'
_computing_structure_refinement  'SHELXL-97 (Sheldrick, 1997)'
_computing_molecular_graphics    ?
_computing_publication_material  ?

_refine_special_details          
; 
 Refinement of F^2^ against ALL reflections.  The weighted R-factor wR and 
 goodness of fit S are based on F^2^, conventional R-factors R are based 
 on F, with F set to zero for negative F^2^. The threshold expression of 
 F^2^ > 2sigma(F^2^) is used only for calculating R-factors(gt) etc. and is 
 not relevant to the choice of reflections for refinement.  R-factors based 
 on F^2^ are statistically about twice as large as those based on F, and R- 
 factors based on ALL data will be even larger. 
;

_refine_ls_structure_factor_coef Fsqd
_refine_ls_matrix_type           full
_refine_ls_weighting_scheme      calc
_refine_ls_weighting_details     
'calc w=1/[\s^2^(Fo^2^)+(0.0765P)^2^+0.0000P] where P=(Fo^2^+2Fc^2^)/3'
_atom_sites_solution_primary     direct
_atom_sites_solution_secondary   difmap
_atom_sites_solution_hydrogens   geom
_refine_ls_hydrogen_treatment    constr
_refine_ls_extinction_method     none
_refine_ls_extinction_coef       ?
_refine_ls_number_reflns         11534
_refine_ls_number_parameters     469
_refine_ls_number_restraints     0
_refine_ls_R_factor_all          0.0614
_refine_ls_R_factor_gt           0.0436
_refine_ls_wR_factor_ref         0.1304
_refine_ls_wR_factor_gt          0.1239
_refine_ls_goodness_of_fit_ref   1.002
_refine_ls_restrained_S_all      1.002
_refine_ls_shift/su_max          0.001
_refine_ls_shift/su_mean         0.000

loop_
_atom_site_label
_atom_site_type_symbol
_atom_site_fract_x
_atom_site_fract_y
_atom_site_fract_z
_atom_site_U_iso_or_equiv
_atom_site_adp_type
_atom_site_occupancy
_atom_site_symmetry_multiplicity
_atom_site_calc_flag
_atom_site_refinement_flags
_atom_site_disorder_assembly
_atom_site_disorder_group
Zn1 Zn 0.192746(9) 0.263583(12) 0.581209(16) 0.02654(10) Uani 1 1 d . . .
Zn2 Zn 0.089929(9) 0.236044(12) 0.481978(16) 0.02682(10) Uani 1 1 d . . .
N2 N -0.23480(7) 0.23110(9) 0.15514(13) 0.0357(5) Uani 1 1 d . . .
N1 N 0.01749(7) 0.22870(10) 0.40931(13) 0.0372(5) Uani 1 1 d . . .
O1 O 0.18876(6) 0.20336(9) 0.50070(11) 0.0473(5) Uani 1 1 d . . .
O3 O 0.10468(7) -0.16931(9) 0.06174(12) 0.0556(6) Uani 1 1 d . . .
O5 O 0.09861(7) 0.29654(9) 0.56562(12) 0.0546(5) Uani 1 1 d . . .
O7 O 0.17212(7) 0.67098(8) 0.99542(11) 0.0483(5) Uani 1 1 d . . .
O6 O 0.17597(7) 0.32012(9) 0.64097(12) 0.0525(5) Uani 1 1 d . . .
O8 O 0.09420(7) 0.69246(9) 0.92064(12) 0.0523(5) Uani 1 1 d . . .
O4 O 0.18213(7) -0.19257(9) 0.13440(13) 0.0553(6) Uani 1 1 d . . .
O2 O 0.11073(7) 0.18277(8) 0.42414(12) 0.0477(5) Uani 1 1 d . . .
C40 C -0.00685(14) 0.2520(3) 0.3395(3) 0.178(4) Uani 1 1 d . . .
H40 H 0.0098 0.2729 0.3220 0.213 Uiso 1 1 calc R . .
C25 C 0.12969(10) 0.66141(11) 0.93743(16) 0.0377(6) Uani 1 1 d . . .
C34 C -0.13526(9) 0.22751(12) 0.25660(17) 0.0418(7) Uani 1 1 d . . .
C33 C -0.08216(9) 0.22618(13) 0.30958(17) 0.0444(7) Uani 1 1 d . . .
C16 C 0.13352(11) 0.32618(12) 0.62008(17) 0.0436(7) Uani 1 1 d . . .
C9 C 0.14778(11) -0.16158(12) 0.12014(18) 0.0475(7) Uani 1 1 d . . .
C2 C 0.16174(9) 0.12613(12) 0.40265(17) 0.0421(7) Uani 1 1 d . . .
C1 C 0.15314(10) 0.17452(11) 0.44558(16) 0.0373(6) Uani 1 1 d . . .
C17 C 0.12319(10) 0.37319(14) 0.66164(18) 0.0528(8) Uani 1 1 d . . .
C3 C 0.12382(10) 0.09577(12) 0.33797(17) 0.0464(7) Uani 1 1 d . . .
H3 H 0.0924 0.1060 0.3192 0.056 Uiso 1 1 calc R . .
C4 C 0.13278(10) 0.05011(13) 0.30124(19) 0.0517(8) Uani 1 1 d . . .
C24 C 0.12037(10) 0.60949(12) 0.88290(17) 0.0413(7) Uani 1 1 d . . .
C38 C -0.15864(10) 0.26427(14) 0.1904(2) 0.0577(9) Uani 1 1 d . . .
H38 H -0.1411 0.2888 0.1780 0.069 Uiso 1 1 calc R . .
C29 C 0.15027(11) 0.45183(15) 0.7608(2) 0.0615(9) Uani 1 1 d . . .
C36 C -0.21218(10) 0.19491(15) 0.21985(18) 0.0571(9) Uani 1 1 d . . .
H36 H -0.2305 0.1709 0.2312 0.069 Uiso 1 1 calc R . .
C21 C 0.10205(11) 0.51408(15) 0.7793(2) 0.0627(10) Uani 1 1 d . . .
C30 C 0.16011(11) 0.40687(15) 0.72513(19) 0.0606(9) Uani 1 1 d . . .
H30 H 0.1918 0.3987 0.7435 0.073 Uiso 1 1 calc R . .
C6 C 0.13146(11) -0.03080(14) 0.2236(2) 0.0580(9) Uani 1 1 d . . .
C8 C 0.15823(11) -0.11003(14) 0.17625(19) 0.0574(9) Uani 1 1 d . . .
C7 C 0.12105(11) -0.07750(14) 0.17110(18) 0.0570(9) Uani 1 1 d . . .
H7 H 0.0892 -0.0876 0.1319 0.068 Uiso 1 1 calc R . .
C27 C 0.14896(10) 0.53253(15) 0.83712(19) 0.0573(9) Uani 1 1 d . . .
C26 C 0.15770(10) 0.57926(13) 0.88806(18) 0.0521(8) Uani 1 1 d . . .
H26 H 0.1892 0.5909 0.9268 0.063 Uiso 1 1 calc R . .
C20 C 0.10252(11) 0.46371(16) 0.7327(2) 0.0681(11) Uani 1 1 d . . .
C13 C 0.18020(10) 0.03532(15) 0.3292(2) 0.0607(9) Uani 1 1 d . . .
C19 C 0.06600(12) 0.43013(19) 0.6706(3) 0.0999(17) Uani 1 1 d . . .
H19 H 0.0342 0.4381 0.6519 0.120 Uiso 1 1 calc R . .
C15 C 0.20857(11) 0.11285(14) 0.42774(19) 0.0581(9) Uani 1 1 d . . .
H15 H 0.2339 0.1350 0.4700 0.070 Uiso 1 1 calc R . .
C18 C 0.07680(11) 0.38493(17) 0.6366(2) 0.0851(14) Uani 1 1 d . . .
H18 H 0.0521 0.3615 0.5953 0.102 Uiso 1 1 calc R . .
C5 C 0.09804(11) 0.01002(15) 0.2299(2) 0.0621(9) Uani 1 1 d . . .
H5A H 0.0777 -0.0126 0.2413 0.075 Uiso 1 1 calc R . .
H5B H 0.0780 0.0333 0.1802 0.075 Uiso 1 1 calc R . .
C35 C -0.16297(10) 0.19137(15) 0.27075(18) 0.0618(10) Uani 1 1 d . . .
H35 H -0.1486 0.1646 0.3146 0.074 Uiso 1 1 calc R . .
C39 C -0.05582(15) 0.2493(3) 0.2869(3) 0.181(4) Uani 1 1 d . . .
H39 H -0.0705 0.2644 0.2340 0.217 Uiso 1 1 calc R . .
C22 C 0.06398(11) 0.54521(17) 0.7726(2) 0.0809(13) Uani 1 1 d . . .
H22 H 0.0324 0.5342 0.7333 0.097 Uiso 1 1 calc R . .
C11 C 0.21597(12) -0.04516(19) 0.2839(2) 0.0973(16) Uani 1 1 d . . .
H11 H 0.2478 -0.0336 0.3204 0.117 Uiso 1 1 calc R . .
C12 C 0.17953(11) -0.01479(16) 0.2805(2) 0.0702(11) Uani 1 1 d . . .
C23 C 0.07346(11) 0.59182(15) 0.8241(2) 0.0651(10) Uani 1 1 d . . .
H23 H 0.0481 0.6124 0.8200 0.078 Uiso 1 1 calc R . .
C14 C 0.21803(11) 0.06816(16) 0.3917(2) 0.0723(11) Uani 1 1 d . . .
H14 H 0.2495 0.0597 0.4089 0.087 Uiso 1 1 calc R . .
C10 C 0.20460(12) -0.09271(18) 0.2327(2) 0.0958(15) Uani 1 1 d . . .
H10 H 0.2294 -0.1144 0.2361 0.115 Uiso 1 1 calc R . .
C31 C -0.00766(12) 0.1994(2) 0.4260(3) 0.130(2) Uani 1 1 d . . .
H31 H 0.0081 0.1785 0.4754 0.156 Uiso 1 1 calc R . .
C37 C -0.20774(10) 0.26560(14) 0.1417(2) 0.0545(9) Uani 1 1 d . . .
H37 H -0.2227 0.2918 0.0972 0.065 Uiso 1 1 calc R . .
C32 C -0.05716(12) 0.1957(3) 0.3768(3) 0.144(3) Uani 1 1 d . . .
H32 H -0.0729 0.1707 0.3924 0.173 Uiso 1 1 calc R . .
C28 C 0.18334(12) 0.49429(16) 0.8291(2) 0.0746(12) Uani 1 1 d . . .
H28A H 0.2017 0.5187 0.8151 0.090 Uiso 1 1 calc R . .
H28B H 0.2053 0.4725 0.8794 0.090 Uiso 1 1 calc R . .

loop_
_atom_site_aniso_label
_atom_site_aniso_U_11
_atom_site_aniso_U_22
_atom_site_aniso_U_33
_atom_site_aniso_U_23
_atom_site_aniso_U_13
_atom_site_aniso_U_12
Zn1 0.01900(15) 0.02725(17) 0.02753(16) -0.00110(11) 0.00944(13) -0.00062(11)
Zn2 0.01874(16) 0.02787(17) 0.02762(16) -0.00038(11) 0.00914(13) -0.00074(11)
N2 0.0221(11) 0.0406(13) 0.0357(12) 0.0052(10) 0.0110(10) 0.0019(9)
N1 0.0202(11) 0.0479(14) 0.0339(12) 0.0037(10) 0.0092(10) -0.0005(9)
O1 0.0407(11) 0.0483(12) 0.0440(11) -0.0208(9) 0.0182(10) -0.0016(9)
O3 0.0566(13) 0.0467(12) 0.0507(13) -0.0181(10) 0.0221(11) 0.0024(10)
O5 0.0453(12) 0.0588(13) 0.0500(12) -0.0256(11) 0.0208(11) 0.0018(10)
O7 0.0432(11) 0.0424(11) 0.0463(12) -0.0174(9) 0.0171(10) -0.0007(9)
O6 0.0426(12) 0.0573(13) 0.0580(13) -0.0222(10) 0.0285(11) -0.0001(10)
O8 0.0429(11) 0.0463(12) 0.0589(13) -0.0211(10) 0.0231(11) 0.0025(9)
O4 0.0525(13) 0.0468(12) 0.0635(14) -0.0213(10) 0.0305(12) 0.0021(10)
O2 0.0391(11) 0.0507(12) 0.0497(12) -0.0201(9) 0.0226(10) 0.0017(9)
C40 0.025(2) 0.340(9) 0.115(4) 0.130(5) 0.007(2) -0.022(3)
C25 0.0435(16) 0.0315(14) 0.0409(16) -0.0057(12) 0.0252(14) -0.0029(12)
C34 0.0199(13) 0.0546(19) 0.0394(16) 0.0059(13) 0.0095(12) -0.0034(12)
C33 0.0178(13) 0.063(2) 0.0385(16) 0.0084(13) 0.0069(12) -0.0033(12)
C16 0.0462(17) 0.0434(17) 0.0416(16) -0.0076(13) 0.0248(15) 0.0026(13)
C9 0.0548(19) 0.0375(16) 0.0455(18) -0.0128(13) 0.0252(16) -0.0018(14)
C2 0.0337(15) 0.0417(16) 0.0426(16) -0.0097(13) 0.0163(13) 0.0030(12)
C1 0.0379(15) 0.0334(14) 0.0364(15) -0.0022(12) 0.0183(13) 0.0038(12)
C17 0.0382(17) 0.0575(19) 0.0546(19) -0.0230(15) 0.0210(15) -0.0003(14)
C3 0.0310(15) 0.0472(17) 0.0515(18) -0.0189(14) 0.0173(14) 0.0000(12)
C4 0.0367(16) 0.0516(18) 0.0545(19) -0.0232(15) 0.0180(15) -0.0029(13)
C24 0.0381(16) 0.0403(15) 0.0453(17) -0.0107(13) 0.0231(14) -0.0017(12)
C38 0.0308(16) 0.072(2) 0.059(2) 0.0251(17) 0.0182(16) -0.0031(14)
C29 0.0386(17) 0.069(2) 0.064(2) -0.0328(17) 0.0209(17) -0.0009(15)
C36 0.0261(15) 0.078(2) 0.0549(19) 0.0287(17) 0.0152(14) -0.0011(14)
C21 0.0391(17) 0.066(2) 0.075(2) -0.0381(18) 0.0267(17) -0.0083(15)
C30 0.0350(16) 0.070(2) 0.065(2) -0.0272(17) 0.0212(16) 0.0053(15)
C6 0.0380(17) 0.059(2) 0.062(2) -0.0300(16) 0.0188(16) -0.0012(14)
C8 0.0405(17) 0.061(2) 0.055(2) -0.0244(16) 0.0171(16) 0.0020(15)
C7 0.0394(17) 0.060(2) 0.0538(19) -0.0266(16) 0.0151(15) -0.0036(14)
C27 0.0337(16) 0.066(2) 0.061(2) -0.0278(17) 0.0195(16) 0.0028(14)
C26 0.0318(15) 0.0539(19) 0.0539(19) -0.0198(15) 0.0136(15) 0.0017(13)
C20 0.0386(18) 0.075(2) 0.080(2) -0.0432(19) 0.0267(18) -0.0027(16)
C13 0.0335(16) 0.067(2) 0.061(2) -0.0293(17) 0.0135(15) 0.0058(14)
C19 0.0346(18) 0.116(3) 0.123(3) -0.084(3) 0.028(2) -0.008(2)
C15 0.0387(17) 0.062(2) 0.0540(19) -0.0270(16) 0.0139(16) 0.0026(15)
C18 0.0388(19) 0.100(3) 0.098(3) -0.067(2) 0.027(2) -0.0088(18)
C5 0.0418(17) 0.066(2) 0.064(2) -0.0327(17) 0.0212(17) -0.0013(15)
C35 0.0278(15) 0.086(2) 0.0514(19) 0.0374(17) 0.0098(14) 0.0034(15)
C39 0.029(2) 0.359(9) 0.107(4) 0.137(5) 0.009(2) -0.016(3)
C22 0.0357(17) 0.097(3) 0.097(3) -0.062(2) 0.0294(19) -0.0114(17)
C11 0.0363(19) 0.114(3) 0.100(3) -0.074(3) 0.012(2) 0.0041(19)
C12 0.0392(18) 0.070(2) 0.075(2) -0.0407(19) 0.0156(17) 0.0058(16)
C23 0.0354(17) 0.066(2) 0.082(2) -0.0379(19) 0.0259(17) -0.0068(15)
C14 0.0348(17) 0.078(2) 0.075(2) -0.039(2) 0.0128(17) 0.0092(16)
C10 0.048(2) 0.109(3) 0.097(3) -0.057(3) 0.020(2) 0.017(2)
C31 0.0309(19) 0.191(5) 0.120(4) 0.111(4) 0.013(2) -0.003(3)
C37 0.0288(15) 0.063(2) 0.057(2) 0.0274(16) 0.0156(15) 0.0031(14)
C32 0.0265(19) 0.210(6) 0.142(4) 0.127(4) 0.014(2) -0.004(3)
C28 0.0433(19) 0.078(2) 0.080(3) -0.044(2) 0.0207(18) 0.0011(17)

_geom_special_details            
; 
 All esds (except the esd in the dihedral angle between two l.s. planes) 
 are estimated using the full covariance matrix.  The cell esds are taken 
 into account individually in the estimation of esds in distances, angles 
 and torsion angles; correlations between esds in cell parameters are only 
 used when they are defined by crystal symmetry.  An approximate (isotropic) 
 treatment of cell esds is used for estimating esds involving l.s. planes. 
;

loop_
_geom_bond_atom_site_label_1
_geom_bond_atom_site_label_2
_geom_bond_distance
_geom_bond_site_symmetry_2
_geom_bond_publ_flag
Zn1 O6 2.0042(18) . ?
Zn1 O1 2.0199(17) . ?
Zn1 N2 2.021(2) 8_556 ?
Zn1 O4 2.0303(19) 6_556 ?
Zn1 O7 2.0329(18) 6_565 ?
Zn1 Zn2 2.9243(7) . ?
Zn2 O3 2.0086(18) 6_556 ?
Zn2 O5 2.0157(18) . ?
Zn2 O2 2.0180(18) . ?
Zn2 N1 2.023(2) . ?
Zn2 O8 2.0464(18) 6_565 ?
N2 C37 1.323(3) . ?
N2 C36 1.328(3) . ?
N2 Zn1 2.021(2) 8_455 ?
N1 C31 1.246(4) . ?
N1 C40 1.252(5) . ?
O1 C1 1.251(3) . ?
O3 C9 1.258(3) . ?
O3 Zn2 2.0086(18) 6 ?
O5 C16 1.245(3) . ?
O7 C25 1.248(3) . ?
O7 Zn1 2.0329(17) 6_566 ?
O6 C16 1.249(3) . ?
O8 C25 1.249(3) . ?
O8 Zn2 2.0464(18) 6_566 ?
O4 C9 1.232(3) . ?
O4 Zn1 2.0303(19) 6 ?
O2 C1 1.251(3) . ?
C40 C39 1.368(6) . ?
C25 C24 1.484(3) . ?
C34 C38 1.355(4) . ?
C34 C35 1.369(4) . ?
C34 C33 1.478(4) . ?
C33 C32 1.293(4) . ?
C33 C39 1.299(5) . ?
C16 C17 1.482(4) . ?
C9 C8 1.489(4) . ?
C2 C3 1.372(3) . ?
C2 C15 1.390(4) . ?
C2 C1 1.491(3) . ?
C17 C18 1.369(4) . ?
C17 C30 1.387(4) . ?
C3 C4 1.372(4) . ?
C4 C13 1.401(4) . ?
C4 C5 1.514(4) . ?
C24 C26 1.373(4) . ?
C24 C23 1.390(4) . ?
C38 C37 1.367(4) . ?
C29 C30 1.362(4) . ?
C29 C20 1.397(4) . ?
C29 C28 1.503(4) . ?
C36 C35 1.373(4) . ?
C21 C27 1.392(4) . ?
C21 C22 1.392(4) . ?
C21 C20 1.452(4) . ?
C6 C7 1.364(4) . ?
C6 C12 1.400(4) . ?
C6 C5 1.499(4) . ?
C8 C10 1.367(4) . ?
C8 C7 1.395(4) . ?
C27 C26 1.356(4) . ?
C27 C28 1.509(4) . ?
C20 C19 1.369(4) . ?
C13 C14 1.382(4) . ?
C13 C12 1.460(4) . ?
C19 C18 1.363(4) . ?
C15 C14 1.356(4) . ?
C22 C23 1.355(4) . ?
C11 C10 1.358(4) . ?
C11 C12 1.364(4) . ?
C31 C32 1.380(5) . ?

loop_
_geom_angle_atom_site_label_1
_geom_angle_atom_site_label_2
_geom_angle_atom_site_label_3
_geom_angle
_geom_angle_site_symmetry_1
_geom_angle_site_symmetry_3
_geom_angle_publ_flag
O6 Zn1 O1 163.33(8) . . ?
O6 Zn1 N2 99.21(8) . 8_556 ?
O1 Zn1 N2 97.42(8) . 8_556 ?
O6 Zn1 O4 89.63(9) . 6_556 ?
O1 Zn1 O4 86.52(9) . 6_556 ?
N2 Zn1 O4 99.26(8) 8_556 6_556 ?
O6 Zn1 O7 88.02(9) . 6_565 ?
O1 Zn1 O7 88.65(9) . 6_565 ?
N2 Zn1 O7 105.69(8) 8_556 6_565 ?
O4 Zn1 O7 155.00(8) 6_556 6_565 ?
O6 Zn1 Zn2 84.79(6) . . ?
O1 Zn1 Zn2 78.57(5) . . ?
N2 Zn1 Zn2 171.01(6) 8_556 . ?
O4 Zn1 Zn2 72.61(6) 6_556 . ?
O7 Zn1 Zn2 82.39(5) 6_565 . ?
O3 Zn2 O5 89.47(9) 6_556 . ?
O3 Zn2 O2 89.95(9) 6_556 . ?
O5 Zn2 O2 156.06(8) . . ?
O3 Zn2 N1 99.62(9) 6_556 . ?
O5 Zn2 N1 101.48(8) . . ?
O2 Zn2 N1 102.22(8) . . ?
O3 Zn2 O8 164.75(8) 6_556 6_565 ?
O5 Zn2 O8 86.66(9) . 6_565 ?
O2 Zn2 O8 87.66(9) . 6_565 ?
N1 Zn2 O8 95.61(8) . 6_565 ?
O3 Zn2 Zn1 87.05(6) 6_556 . ?
O5 Zn2 Zn1 74.79(6) . . ?
O2 Zn2 Zn1 81.27(5) . . ?
N1 Zn2 Zn1 172.41(6) . . ?
O8 Zn2 Zn1 77.70(5) 6_565 . ?
C37 N2 C36 117.0(2) . . ?
C37 N2 Zn1 120.37(18) . 8_455 ?
C36 N2 Zn1 122.57(18) . 8_455 ?
C31 N1 C40 112.5(3) . . ?
C31 N1 Zn2 125.3(2) . . ?
C40 N1 Zn2 122.1(2) . . ?
C1 O1 Zn1 129.14(17) . . ?
C9 O3 Zn2 118.03(18) . 6 ?
C16 O5 Zn2 133.79(19) . . ?
C25 O7 Zn1 124.47(17) . 6_566 ?
C16 O6 Zn1 121.14(18) . . ?
C25 O8 Zn2 129.93(17) . 6_566 ?
C9 O4 Zn1 136.62(19) . 6 ?
C1 O2 Zn2 125.63(17) . . ?
N1 C40 C39 125.7(4) . . ?
O7 C25 O8 125.4(2) . . ?
O7 C25 C24 117.7(2) . . ?
O8 C25 C24 116.9(2) . . ?
C38 C34 C35 117.0(2) . . ?
C38 C34 C33 120.8(3) . . ?
C35 C34 C33 122.2(3) . . ?
C32 C33 C39 112.5(3) . . ?
C32 C33 C34 124.7(3) . . ?
C39 C33 C34 122.2(3) . . ?
O5 C16 O6 125.2(3) . . ?
O5 C16 C17 116.7(3) . . ?
O6 C16 C17 118.0(3) . . ?
O4 C9 O3 125.7(3) . . ?
O4 C9 C8 117.2(3) . . ?
O3 C9 C8 117.1(3) . . ?
C3 C2 C15 120.2(2) . . ?
C3 C2 C1 120.5(2) . . ?
C15 C2 C1 119.3(2) . . ?
O1 C1 O2 124.9(2) . . ?
O1 C1 C2 117.8(2) . . ?
O2 C1 C2 117.3(2) . . ?
C18 C17 C30 119.0(3) . . ?
C18 C17 C16 120.3(3) . . ?
C30 C17 C16 120.7(3) . . ?
C2 C3 C4 119.3(3) . . ?
C3 C4 C13 120.1(3) . . ?
C3 C4 C5 129.9(3) . . ?
C13 C4 C5 110.0(2) . . ?
C26 C24 C23 119.0(3) . . ?
C26 C24 C25 120.7(2) . . ?
C23 C24 C25 120.2(2) . . ?
C34 C38 C37 120.7(3) . . ?
C30 C29 C20 119.3(3) . . ?
C30 C29 C28 130.5(3) . . ?
C20 C29 C28 110.1(3) . . ?
N2 C36 C35 122.9(3) . . ?
C27 C21 C22 119.3(3) . . ?
C27 C21 C20 109.6(3) . . ?
C22 C21 C20 131.0(3) . . ?
C29 C30 C17 120.5(3) . . ?
C7 C6 C12 119.4(3) . . ?
C7 C6 C5 129.4(3) . . ?
C12 C6 C5 111.2(2) . . ?
C10 C8 C7 118.6(3) . . ?
C10 C8 C9 120.5(3) . . ?
C7 C8 C9 120.9(3) . . ?
C6 C7 C8 119.9(3) . . ?
C26 C27 C21 120.5(3) . . ?
C26 C27 C28 130.2(3) . . ?
C21 C27 C28 109.3(3) . . ?
C27 C26 C24 120.5(3) . . ?
C19 C20 C29 120.4(3) . . ?
C19 C20 C21 131.5(3) . . ?
C29 C20 C21 108.1(3) . . ?
C14 C13 C4 120.1(3) . . ?
C14 C13 C12 131.0(3) . . ?
C4 C13 C12 108.9(3) . . ?
C18 C19 C20 119.2(3) . . ?
C14 C15 C2 121.2(3) . . ?
C19 C18 C17 121.6(3) . . ?
C6 C5 C4 102.0(2) . . ?
C34 C35 C36 119.6(3) . . ?
C33 C39 C40 121.0(4) . . ?
C23 C22 C21 119.2(3) . . ?
C10 C11 C12 118.4(3) . . ?
C11 C12 C6 120.9(3) . . ?
C11 C12 C13 131.3(3) . . ?
C6 C12 C13 107.8(3) . . ?
C22 C23 C24 121.4(3) . . ?
C15 C14 C13 119.0(3) . . ?
C11 C10 C8 122.7(3) . . ?
N1 C31 C32 124.9(4) . . ?
N2 C37 C38 122.7(3) . . ?
C33 C32 C31 121.7(3) . . ?
C29 C28 C27 102.8(2) . . ?

_diffrn_measured_fraction_theta_max 0.999
_diffrn_reflns_theta_full        25.68
_diffrn_measured_fraction_theta_full 0.999
_refine_diff_density_max         0.786
_refine_diff_density_min         -0.555
_refine_diff_density_rms         0.069
