####################################################################### 
# 
# This file contains crystal structure data downloaded from the 
# Cambridge Structural Database (CSD) hosted by the Cambridge 
# Crystallographic Data Centre (CCDC).
# 
# Full information about CCDC data access policies and citation 
# guidelines are available at http://www.ccdc.cam.ac.uk/access/V1 
# 
# Audit and citation data items may have been added by the CCDC. 
# Please retain this information to preserve the provenance of 
# this file and to allow appropriate attribution of the data. 
# 
#######################################################################

data_shelxl
_audit_block_doi                 10.5517/cc10ny4r
_database_code_depnum_ccdc_archive 'CCDC 943644'
loop_
_citation_id
_citation_doi
_citation_year
1 10.1039/c3ce41090k 2013
_audit_update_record             
;
2013-06-10 deposited with the CCDC.	2024-07-09 downloaded from the CCDC.
;

_audit_creation_method           SHELXL-97
_chemical_name_systematic        
; 
 ? 
;
_chemical_name_common            MMPF-8
_chemical_melting_point          Not
_chemical_formula_moiety         In
_chemical_formula_sum            'C72 H40 In2 N4 O10'
_chemical_formula_weight         1350.72

loop_
_atom_type_symbol
_atom_type_description
_atom_type_scat_dispersion_real
_atom_type_scat_dispersion_imag
_atom_type_scat_source
C C -0.0001 0.0005 'International Tables Vol C Tables 4.2.6.8 and 6.1.1.4'
H H 0.0000 0.0000 'International Tables Vol C Tables 4.2.6.8 and 6.1.1.4'
In In -1.6620 3.1826 'International Tables Vol C Tables 4.2.6.8 and 6.1.1.4'
N N 0.0005 0.0010 'International Tables Vol C Tables 4.2.6.8 and 6.1.1.4'
O O 0.0017 0.0018 'International Tables Vol C Tables 4.2.6.8 and 6.1.1.4'

_symmetry_cell_setting           monoclinic
_symmetry_space_group_name_H-M   Cc

loop_
_symmetry_equiv_pos_as_xyz
'x, y, z'
'x, -y, z+1/2'
'x+1/2, y+1/2, z'
'x+1/2, -y+1/2, z+1/2'

_cell_length_a                   41.982(2)
_cell_length_b                   21.5588(12)
_cell_length_c                   43.755(2)
_cell_angle_alpha                90.00
_cell_angle_beta                 92.6350(10)
_cell_angle_gamma                90.00
_cell_volume                     39560(4)
_cell_formula_units_Z            16
_cell_measurement_temperature    100(2)
_cell_measurement_reflns_used    ?
_cell_measurement_theta_min      ?
_cell_measurement_theta_max      ?

_exptl_crystal_description       block
_exptl_crystal_colour            red
_exptl_crystal_size_max          0.21
_exptl_crystal_size_mid          0.16
_exptl_crystal_size_min          0.14
_exptl_crystal_density_meas      ?
_exptl_crystal_density_diffrn    0.907
_exptl_crystal_density_method    'not measured'
_exptl_crystal_F_000             10848
_exptl_absorpt_coefficient_mu    0.606
_exptl_absorpt_correction_type   multi-scan
_exptl_absorpt_correction_T_min  0.8833
_exptl_absorpt_correction_T_max  0.9200
_exptl_absorpt_process_details   'SADABS; (Sheldrick, 2003)'

_exptl_special_details           
; 
 ? 
;

_diffrn_ambient_temperature      100(2)
_diffrn_radiation_wavelength     0.41328
_diffrn_radiation_type           synchrotron
_diffrn_radiation_source         synchrotron
_diffrn_radiation_monochromator  ?
_diffrn_measurement_device_type  'BRUKER SMART APEXII CCD'
_diffrn_measurement_method       'phi scans'
_diffrn_detector_area_resol_mean ?
_diffrn_reflns_number            147776
_diffrn_reflns_av_R_equivalents  0.0941
_diffrn_reflns_av_sigmaI/netI    0.0979
_diffrn_reflns_limit_h_min       -38
_diffrn_reflns_limit_h_max       39
_diffrn_reflns_limit_k_min       -19
_diffrn_reflns_limit_k_max       20
_diffrn_reflns_limit_l_min       -41
_diffrn_reflns_limit_l_max       41
_diffrn_reflns_theta_min         1.01
_diffrn_reflns_theta_max         11.35
_reflns_number_total             34753
_reflns_number_gt                21260
_reflns_threshold_expression     >2sigma(I)

_computing_data_collection       'APEX2 (Bruker, 2010)'
_computing_cell_refinement       'APEX2 (Bruker, 2010); SAINT (Bruker, 2009)'
_computing_data_reduction        'SAINT (Bruker, 2009);XPREP(Sheldrick,2008)'
_computing_structure_solution    'SHELXS-97 (Sheldrick, 2008)'
_computing_structure_refinement  'SHELXL-97 (Sheldrick, 2008); OLEX2 (2009)'
_computing_molecular_graphics    ?
_computing_publication_material  'APEX2 (Bruker, 2010)'
_refine_special_details          
; 
 Refinement of F^2^ against ALL reflections.  The weighted R-factor wR and 
 goodness of fit S are based on F^2^, conventional R-factors R are based 
 on F, with F set to zero for negative F^2^. The threshold expression of 
 F^2^ > 2sigma(F^2^) is used only for calculating R-factors(gt) etc. and is 
 not relevant to the choice of reflections for refinement.  R-factors based 
 on F^2^ are statistically about twice as large as those based on F, and R- 
 factors based on ALL data will be even larger. 
;

_refine_ls_structure_factor_coef Fsqd
_refine_ls_matrix_type           full
_refine_ls_weighting_scheme      calc
_refine_ls_weighting_details     
'calc w=1/[\s^2^(Fo^2^)+(0.0994P)^2^+0.0000P] where P=(Fo^2^+2Fc^2^)/3'
_atom_sites_solution_primary     direct
_atom_sites_solution_secondary   difmap
_atom_sites_solution_hydrogens   geom
_refine_ls_hydrogen_treatment    constr
_refine_ls_extinction_method     none
_refine_ls_extinction_coef       ?
_refine_ls_abs_structure_details 'Flack H D (1983), Acta Cryst. A39, 876-881'
_refine_ls_abs_structure_Flack   0.250(10)
_refine_ls_number_reflns         34753
_refine_ls_number_parameters     2786
_refine_ls_number_restraints     2063
_refine_ls_R_factor_all          0.1043
_refine_ls_R_factor_gt           0.0699
_refine_ls_wR_factor_ref         0.1891
_refine_ls_wR_factor_gt          0.1770
_refine_ls_goodness_of_fit_ref   1.049
_refine_ls_restrained_S_all      1.067
_refine_ls_shift/su_max          0.001
_refine_ls_shift/su_mean         0.000

loop_
_atom_site_label
_atom_site_type_symbol
_atom_site_fract_x
_atom_site_fract_y
_atom_site_fract_z
_atom_site_U_iso_or_equiv
_atom_site_adp_type
_atom_site_occupancy
_atom_site_symmetry_multiplicity
_atom_site_calc_flag
_atom_site_refinement_flags
_atom_site_disorder_assembly
_atom_site_disorder_group
In3 In 0.70749(3) 1.05183(5) 0.50499(2) 0.0762(4) Uani 1 1 d U . .
In5 In 0.45741(2) 0.54375(5) 0.63047(2) 0.0637(3) Uani 1 1 d U . .
In2 In 0.73933(3) 1.27178(6) 0.15932(2) 0.0843(4) Uani 1 1 d U . .
In1 In 0.99522(2) 1.44839(6) -0.08868(2) 0.0760(4) Uani 1 1 d U . .
In4 In 0.46020(3) 0.74095(8) 0.25595(3) 0.1245(6) Uani 1 1 d U . .
In7 In 0.18052(3) -0.04412(7) 0.06147(3) 0.1054(5) Uani 1 1 d U . .
In6 In 0.20736(3) 0.24726(7) 0.38160(3) 0.1052(5) Uani 1 1 d U . .
In8 In -0.06530(3) -0.26896(8) 0.31204(3) 0.1228(5) Uani 1 1 d U . .
O16 O 0.2470(3) 0.4344(5) 0.0442(3) 0.103(4) Uani 1 1 d DU . .
C230 C -0.0129(4) -0.2340(7) 0.2541(4) 0.095(4) Uani 1 1 d DU . .
O21 O 0.4181(2) 0.5596(5) 0.5913(2) 0.073(3) Uani 1 1 d U . .
N11 N 0.1610(3) 0.2160(5) 0.3827(2) 0.071(3) Uani 1 1 d U . .
O18 O 0.6713(3) 0.9535(6) 0.0397(2) 0.101(3) Uani 1 1 d DU . .
O28 O -0.0024(2) 0.0304(5) 0.5979(2) 0.076(3) Uani 1 1 d U . .
O7 O 0.5375(3) 0.9438(6) -0.0528(3) 0.110(4) Uani 1 1 d DU . .
N7 N 0.4625(3) 0.7304(5) 0.2095(2) 0.064(3) Uani 1 1 d U . .
O23 O 0.4186(2) 0.4704(5) 0.1623(2) 0.073(3) Uani 1 1 d U . .
O12 O 0.6679(2) 1.0656(5) 0.4661(2) 0.073(3) Uani 1 1 d DU . .
O4 O 0.9706(3) 1.4697(5) 0.3853(2) 0.081(3) Uani 1 1 d U . .
C216 C 0.2269(3) 0.3051(5) 0.4457(2) 0.044(3) Uani 1 1 d DU . .
N5 N 0.4600(3) 0.7539(5) 0.3031(3) 0.077(3) Uani 1 1 d U . .
O5 O 0.5181(3) 1.1378(5) 0.3885(2) 0.095(3) Uani 1 1 d U . .
C136 C 0.6657(4) 0.8947(8) 0.0396(3) 0.076(4) Uani 1 1 d DU . .
O25 O -0.0217(2) 0.0440(4) 0.1569(2) 0.083(3) Uani 1 1 d U . .
N4 N 0.7413(3) 1.2591(5) 0.1125(2) 0.060(3) Uani 1 1 d U . .
O2 O 0.9731(2) 1.3732(5) -0.0597(2) 0.071(3) Uani 1 1 d U . .
N1 N 0.7863(3) 1.3103(5) 0.1600(3) 0.072(3) Uani 1 1 d U . .
O22 O 0.4338(2) 0.4689(4) 0.6038(2) 0.071(3) Uani 1 1 d U . .
C177 C 0.2300(3) 0.2607(7) 0.3152(3) 0.069(4) Uani 1 1 d DU . .
O27 O -0.0177(2) 0.1237(4) 0.6076(2) 0.072(3) Uani 1 1 d U . .
O1 O 0.9564(2) 1.4702(5) -0.0555(2) 0.071(3) Uani 1 1 d U . .
C200 C 0.12875(19) 0.2103(4) 0.46121(17) 0.052(3) Uani 1 1 d GU . .
C212 C 0.13888(17) 0.1769(4) 0.4871(2) 0.072(4) Uani 1 1 d GU . .
H212 H 0.1605 0.1643 0.4897 0.086 Uiso 1 1 calc R . .
C211 C 0.1173(2) 0.1620(4) 0.50909(16) 0.088(4) Uani 1 1 d GU . .
H211 H 0.1243 0.1392 0.5268 0.106 Uiso 1 1 calc R . .
C203 C 0.0857(2) 0.1803(4) 0.50528(19) 0.061(3) Uani 1 1 d GDU . .
C202 C 0.07554(16) 0.2137(4) 0.4794(2) 0.093(4) Uani 1 1 d GU . .
H202 H 0.0539 0.2263 0.4768 0.112 Uiso 1 1 calc R . .
C201 C 0.0971(2) 0.2286(4) 0.45740(18) 0.100(5) Uani 1 1 d GU . .
H201 H 0.0902 0.2514 0.4397 0.120 Uiso 1 1 calc R . .
N12 N 0.2055(2) 0.2740(5) 0.4291(2) 0.054(2) Uani 1 1 d U . .
N3 N 0.6947(3) 1.2338(6) 0.1597(3) 0.082(3) Uani 1 1 d U . .
N6 N 0.4144(2) 0.7064(4) 0.2558(2) 0.054(2) Uani 1 1 d U . .
C213 C 0.1802(3) 0.2576(5) 0.4469(3) 0.049(3) Uani 1 1 d DU . .
O8 O 0.5193(3) 1.0374(6) -0.0674(3) 0.115(4) Uani 1 1 d DU . .
O14 O 0.2461(3) 0.5448(6) 0.4733(3) 0.101(4) Uani 1 1 d U . .
N9 N 0.2482(3) 0.2990(5) 0.3806(2) 0.064(3) Uani 1 1 d U . .
N10 N 0.2054(3) 0.2457(5) 0.3340(2) 0.065(3) Uani 1 1 d U . .
O26 O -0.0057(2) -0.0483(5) 0.1689(2) 0.087(3) Uani 1 1 d U . .
C36 C 0.7135(3) 1.2774(7) 0.2246(3) 0.071(4) Uani 1 1 d DU . .
C267 C -0.0869(4) -0.2837(8) 0.3792(4) 0.100(5) Uani 1 1 d DU . .
O24 O 0.4342(2) 0.3706(5) 0.1590(2) 0.076(3) Uani 1 1 d U . .
O17 O 0.6810(3) 0.8578(5) 0.0260(3) 0.104(4) Uani 1 1 d DU . .
C27 C 0.92761(19) 1.4836(4) 0.34832(18) 0.048(3) Uani 1 1 d GDU . .
C26 C 0.92752(19) 1.4202(4) 0.34239(19) 0.065(4) Uani 1 1 d GU . .
H26 H 0.9429 1.3941 0.3524 0.078 Uiso 1 1 calc R . .
C25 C 0.9049(2) 1.3951(3) 0.3217(2) 0.063(4) Uani 1 1 d GU . .
H25 H 0.9049 1.3518 0.3177 0.076 Uiso 1 1 calc R . .
C24 C 0.88238(19) 1.4333(4) 0.30702(19) 0.057(3) Uani 1 1 d GDU . .
C30 C 0.8825(2) 1.4967(4) 0.3130(2) 0.085(5) Uani 1 1 d GU . .
H30 H 0.8671 1.5228 0.3029 0.102 Uiso 1 1 calc R . .
C29 C 0.9051(2) 1.5218(3) 0.3336(2) 0.072(4) Uani 1 1 d GU . .
H29 H 0.9051 1.5651 0.3377 0.087 Uiso 1 1 calc R . .
C141 C 0.5238(4) 0.7854(7) 0.2290(3) 0.089(5) Uani 1 1 d DU . .
N2 N 0.7387(3) 1.2907(5) 0.2083(2) 0.070(3) Uani 1 1 d U . .
N13 N -0.0615(3) -0.2859(6) 0.2644(3) 0.090(3) Uani 1 1 d U . .
C100 C 0.2490(4) 0.5992(9) 0.4693(3) 0.076(5) Uani 1 1 d U . .
O33 O -0.2960(3) -0.4673(6) 0.0881(3) 0.123(4) Uani 1 1 d U . .
C142 C 0.5504(4) 0.8227(9) 0.2395(3) 0.122(6) Uani 1 1 d DU . .
H142 H 0.5651 0.8416 0.2265 0.146 Uiso 1 1 calc R . .
C231 C -0.0390(4) -0.2681(8) 0.2461(4) 0.103(4) Uani 1 1 d DU . .
C190 C -0.0047(3) 0.0101(8) 0.1721(3) 0.076(3) Uani 1 1 d DU . .
C64 C 0.5373(4) 1.0012(8) -0.0511(3) 0.097(5) Uani 1 1 d DU . .
C108 C 0.3968(3) 0.6842(6) 0.2314(3) 0.055(3) Uani 1 1 d DU . .
N15 N -0.0629(3) -0.2642(6) 0.3595(3) 0.101(3) Uani 1 1 d U . .
C126 C 0.4857(3) 0.7445(6) 0.1903(3) 0.062(4) Uani 1 1 d DU . .
O32 O 0.1415(4) -0.0360(7) 0.0956(4) 0.163(4) Uani 1 1 d U . .
C69 C 0.7188(3) 1.2351(5) 0.0948(2) 0.048(3) Uani 1 1 d DU . .
N16 N -0.0196(3) -0.2310(6) 0.3109(3) 0.095(3) Uani 1 1 d U . .
C17 C 0.8309(3) 1.3587(6) 0.1767(3) 0.059(3) Uani 1 1 d DU . .
H17 H 0.8458 1.3812 0.1894 0.070 Uiso 1 1 calc R . .
C109 C 0.4044(3) 0.6853(6) 0.2006(3) 0.059(3) Uani 1 1 d DU . .
C76 C 0.6241(2) 0.8822(3) 0.4173(2) 0.073(4) Uani 1 1 d GU . .
H76 H 0.6243 0.8383 0.4158 0.088 Uiso 1 1 calc R . .
C75 C 0.64508(19) 0.9121(4) 0.43798(18) 0.071(4) Uani 1 1 d GU . .
H75 H 0.6596 0.8886 0.4506 0.085 Uiso 1 1 calc R . .
C74 C 0.64477(19) 0.9764(4) 0.44021(17) 0.056(3) Uani 1 1 d GDU . .
C79 C 0.6235(2) 1.0108(3) 0.4218(2) 0.080(4) Uani 1 1 d GU . .
H79 H 0.6233 1.0548 0.4233 0.096 Uiso 1 1 calc R . .
C78 C 0.6025(2) 0.9810(5) 0.40115(18) 0.095(5) Uani 1 1 d GU . .
H78 H 0.5880 1.0045 0.3886 0.114 Uiso 1 1 calc RD . .
C77 C 0.6028(2) 0.9167(5) 0.39892(18) 0.077(4) Uani 1 1 d GDU . .
C123 C 0.4351(3) 0.7059(8) 0.1906(3) 0.093(5) Uani 1 1 d DU . .
C72 C 0.7652(3) 1.2731(6) 0.0941(3) 0.063(4) Uani 1 1 d DU . .
C199 C 0.1512(3) 0.2267(7) 0.4369(3) 0.071(4) Uani 1 1 d DU . .
C217 C 0.1392(5) -0.0938(11) 0.1004(5) 0.133(4) Uani 1 1 d DU . .
C33 C 0.7618(3) 1.3114(6) 0.2256(3) 0.053(3) Uani 1 1 d DU . .
C52 C 0.6500(4) 1.1839(8) 0.1746(3) 0.115(6) Uani 1 1 d DU . .
H52 H 0.6349 1.1668 0.1878 0.138 Uiso 1 1 calc R . .
C110 C 0.3820(2) 0.6588(4) 0.17723(18) 0.070(4) Uani 1 1 d GU . .
C111 C 0.3526(2) 0.6866(3) 0.1706(2) 0.069(4) Uani 1 1 d GU . .
H111 H 0.3470 0.7238 0.1807 0.083 Uiso 1 1 calc R . .
C112 C 0.33130(18) 0.6600(4) 0.1491(2) 0.090(5) Uani 1 1 d GU . .
H112 H 0.3112 0.6790 0.1446 0.108 Uiso 1 1 calc R . .
C113 C 0.3394(2) 0.6057(4) 0.13428(19) 0.075(4) Uani 1 1 d GU . .
C121 C 0.3688(2) 0.5778(4) 0.1409(2) 0.086(5) Uani 1 1 d GU . .
H121 H 0.3743 0.5407 0.1308 0.104 Uiso 1 1 calc R . .
C122 C 0.39005(18) 0.6044(5) 0.1624(2) 0.094(5) Uani 1 1 d GU . .
H122 H 0.4101 0.5854 0.1669 0.113 Uiso 1 1 calc R . .
C114 C 0.3158(2) 0.5761(5) 0.1112(2) 0.083(4) Uani 1 1 d GU . .
C115 C 0.2950(2) 0.6138(4) 0.0939(2) 0.076(4) Uani 1 1 d GU . .
H115 H 0.2959 0.6576 0.0963 0.091 Uiso 1 1 calc R . .
C116 C 0.2729(2) 0.5875(5) 0.0732(2) 0.079(4) Uani 1 1 d GU . .
H116 H 0.2587 0.6132 0.0613 0.094 Uiso 1 1 calc R . .
C117 C 0.2716(2) 0.5234(5) 0.0697(2) 0.074(4) Uani 1 1 d GU . .
C119 C 0.2923(3) 0.4857(4) 0.0869(2) 0.104(5) Uani 1 1 d GU . .
H119 H 0.2914 0.4419 0.0846 0.125 Uiso 1 1 calc R . .
C120 C 0.3145(2) 0.5120(5) 0.1077(2) 0.087(4) Uani 1 1 d GU . .
H120 H 0.3287 0.4863 0.1195 0.105 Uiso 1 1 calc R . .
C159 C 0.2669(3) 0.3250(7) 0.4051(3) 0.079(4) Uani 1 1 d DU . .
O11 O 0.6845(2) 0.9756(4) 0.4811(2) 0.072(3) Uani 1 1 d DU . .
C60 C 0.6022(2) 1.0927(4) 0.01394(18) 0.057(3) Uani 1 1 d GU . .
C61 C 0.5810(2) 1.1276(4) -0.0044(2) 0.099(5) Uani 1 1 d GU . .
H61 H 0.5807 1.1715 -0.0025 0.119 Uiso 1 1 calc R . .
C62 C 0.5603(2) 1.0983(5) -0.0255(2) 0.087(4) Uani 1 1 d GU . .
H62 H 0.5459 1.1221 -0.0380 0.104 Uiso 1 1 calc R . .
C63 C 0.5608(2) 1.0341(5) -0.0283(2) 0.096(5) Uani 1 1 d GDU . .
C65 C 0.5820(2) 0.9992(4) -0.0099(2) 0.092(4) Uani 1 1 d GU . .
H65 H 0.5823 0.9553 -0.0118 0.110 Uiso 1 1 calc R . .
C66 C 0.6026(2) 1.0285(4) 0.01117(19) 0.074(4) Uani 1 1 d GU . .
H66 H 0.6171 1.0047 0.0237 0.089 Uiso 1 1 calc R . .
C1 C 0.9571(3) 1.4136(8) -0.0480(3) 0.052(3) Uani 1 1 d U . .
O13 O 0.2311(3) 0.6333(6) 0.4796(3) 0.117(4) Uani 1 1 d U . .
N8 N 0.5059(3) 0.7725(6) 0.2566(3) 0.079(3) Uani 1 1 d U . .
C106 C 0.3667(3) 0.6677(6) 0.2720(3) 0.074(4) Uani 1 1 d DU . .
H106 H 0.3502 0.6560 0.2850 0.089 Uiso 1 1 calc R . .
O31 O 0.1548(3) -0.1201(6) 0.0816(3) 0.121(3) Uani 1 1 d U . .
C288 C -0.0019(4) -0.2199(9) 0.2851(4) 0.116(5) Uani 1 1 d DU . .
C87 C 0.4837(4) 0.7838(7) 0.3196(3) 0.086(3) Uani 1 1 d DU . .
C161 C 0.2939(3) 0.3503(6) 0.3638(3) 0.063(3) Uani 1 1 d DU . .
H161 H 0.3097 0.3645 0.3506 0.075 Uiso 1 1 calc R . .
C73 C 0.6667(3) 1.0112(6) 0.4638(3) 0.066(4) Uani 1 1 d DU . .
C23 C 0.85882(19) 1.4070(4) 0.28244(17) 0.072(4) Uani 1 1 d GDU . .
C22 C 0.86541(17) 1.3521(4) 0.26728(19) 0.071(4) Uani 1 1 d GU . .
H22 H 0.8851 1.3313 0.2715 0.085 Uiso 1 1 calc R . .
C21 C 0.8432(2) 1.3277(3) 0.24597(19) 0.083(5) Uani 1 1 d GU . .
H21 H 0.8478 1.2902 0.2356 0.100 Uiso 1 1 calc R . .
C20 C 0.81449(18) 1.3582(4) 0.23981(17) 0.056(3) Uani 1 1 d GDU . .
C32 C 0.80789(16) 1.4131(4) 0.2550(2) 0.074(4) Uani 1 1 d GU . .
H32 H 0.7882 1.4339 0.2508 0.089 Uiso 1 1 calc R . .
C31 C 0.8301(2) 1.4374(3) 0.27628(19) 0.077(4) Uani 1 1 d GU . .
H31 H 0.8256 1.4749 0.2866 0.092 Uiso 1 1 calc R . .
C2 C 0.93306(19) 1.3962(5) -0.02480(18) 0.071(4) Uani 1 1 d GU . .
C3 C 0.9127(2) 1.4399(4) -0.0129(2) 0.095(5) Uani 1 1 d GU . .
H3 H 0.9138 1.4820 -0.0193 0.114 Uiso 1 1 calc R . .
C4 C 0.8907(2) 1.4222(4) 0.0082(2) 0.090(4) Uani 1 1 d GDU . .
H4 H 0.8768 1.4521 0.0163 0.108 Uiso 1 1 calc R . .
C5 C 0.88911(19) 1.3606(5) 0.01749(17) 0.071(4) Uani 1 1 d GDU . .
C6 C 0.9095(2) 1.3169(4) 0.0056(2) 0.075(4) Uani 1 1 d GDU . .
H6 H 0.9084 1.2748 0.0119 0.090 Uiso 1 1 calc R . .
C7 C 0.9314(2) 1.3346(4) -0.0155(2) 0.101(5) Uani 1 1 d GU . .
H7 H 0.9453 1.3047 -0.0237 0.121 Uiso 1 1 calc R . .
C160 C 0.2936(3) 0.3590(6) 0.3945(3) 0.059(3) Uani 1 1 d DU . .
H160 H 0.3082 0.3832 0.4066 0.071 Uiso 1 1 calc R . .
C198 C 0.1424(3) 0.2022(6) 0.4071(3) 0.052(3) Uani 1 1 d DU . .
C162 C 0.2659(3) 0.3155(7) 0.3549(3) 0.071(4) Uani 1 1 d DU . .
C8 C 0.86369(19) 1.3388(4) 0.03818(18) 0.089(5) Uani 1 1 d GDU . .
C13 C 0.87048(16) 1.2946(4) 0.06064(19) 0.073(4) Uani 1 1 d GDU . .
H13 H 0.8904 1.2738 0.0614 0.088 Uiso 1 1 calc R . .
C12 C 0.8481(2) 1.2808(4) 0.08204(16) 0.066(4) Uani 1 1 d GU . .
H12 H 0.8527 1.2505 0.0974 0.079 Uiso 1 1 calc R . .
C11 C 0.81885(18) 1.3112(4) 0.08097(17) 0.058(3) Uani 1 1 d GU . .
C10 C 0.81206(17) 1.3555(4) 0.0585(2) 0.072(4) Uani 1 1 d GU . .
H10 H 0.7921 1.3763 0.0578 0.086 Uiso 1 1 calc R . .
C9 C 0.8345(2) 1.3693(