####################################################################### 
# 
# This file contains crystal structure data downloaded from the 
# Cambridge Structural Database (CSD) hosted by the Cambridge 
# Crystallographic Data Centre (CCDC).
# 
# Full information about CCDC data access policies and citation 
# guidelines are available at http://www.ccdc.cam.ac.uk/access/V1 
# 
# Audit and citation data items may have been added by the CCDC. 
# Please retain this information to preserve the provenance of 
# this file and to allow appropriate attribution of the data. 
# 
#######################################################################

data_COLVEE
#This CIF has been generated from an entry in the Cambridge Structural Database
_database_code_depnum_ccdc_archive 'CCDC 1129240'
_database_code_CSD               COLVEE
loop_
_citation_id
_citation_doi
_citation_year
1 10.1021/ic00185a009 1984
_audit_creation_method           'Created from the CSD'
_audit_update_record             
;
2024-07-09 downloaded from the CCDC.
;
_database_code_NBS               555849
_chemical_formula_moiety         '(C28 H24 Cl4 Cu2 N4 O4)n'
_chemical_name_systematic        
'catena-Dichloro-(diphenylethanedione dioxime)-copper(ii)'
_chemical_absolute_configuration unk
_diffrn_ambient_temperature      295
_exptl_crystal_density_diffrn    1.353
#These two values have been output from a single CSD field.
_refine_ls_R_factor_gt           0.049
_refine_ls_wR_factor_gt          0.049
_diffrn_radiation_probe          x-ray
_symmetry_cell_setting           orthorhombic
_symmetry_space_group_name_H-M   'P b c n'
_symmetry_Int_Tables_number      60
_space_group_name_Hall           '-P 2n 2ab'
loop_
_symmetry_equiv_pos_site_id
_symmetry_equiv_pos_as_xyz
1 x,y,z
2 1/2-x,1/2-y,1/2+z
3 1/2+x,1/2-y,-z
4 -x,y,1/2-z
5 -x,-y,-z
6 1/2+x,1/2+y,1/2-z
7 1/2-x,1/2+y,z
8 x,-y,1/2+z
_cell_length_a                   13.382(2)
_cell_length_b                   19.925(4)
_cell_length_c                   6.901(1)
_cell_angle_alpha                90
_cell_angle_beta                 90
_cell_angle_gamma                90
_cell_volume                     1840.06
_exptl_crystal_colour            green
_cell_formula_units_Z            2
loop_
_atom_site_label
_atom_site_type_symbol
_atom_site_fract_x
_atom_site_fract_y
_atom_site_fract_z
Cu1 Cu 0.0(1) 0.0298(1) 0.2500(1)
Cl1 Cl 0.1069(2) -0.0433(1) 0.1140(3)
N1 N 0.0800(5) 0.1079(4) 0.1587(8)
O1 O 0.1693(4) 0.1035(3) 0.0638(7)
C1 C 0.0475(5) 0.1683(5) 0.1933(9)
C2 C 0.0957(6) 0.2306(4) 0.1255(12)
C3 C 0.1238(7) 0.2796(5) 0.2542(14)
C4 C 0.1703(8) 0.3353(6) 0.1834(17)
C5 C 0.1842(8) 0.3461(6) -0.0116(20)
C6 C 0.1548(8) 0.2979(7) -0.1339(15)
C7 C 0.1115(7) 0.2383(5) -0.0708(13)
H1 H 0.110 0.271 0.402
H2 H 0.198 0.374 0.274
H3 H 0.213 0.397 -0.073
H4 H 0.168 0.299 -0.287
H5 H 0.088 0.198 -0.164
H6 H 0.190 0.056 0.055
Cl1D Cl -0.1069(2) 0.0433(1) -0.1140(3)
Cl1C Cl -0.1069(2) -0.0433(1) 0.3860(3)
Cl1G Cl 0.1069(2) 0.0433(1) 0.6140(3)
N1C N -0.0800(5) 0.1079(4) 0.3413(8)
Cu1D Cu 0.0(1) -0.0298(1) -0.2500(1)
C1C C -0.0475(5) 0.1683(5) 0.3067(9)
Cu1D Cu 0.0(1) -0.0298(1) 0.7500(1)
O1C O -0.1693(4) 0.1035(3) 0.4362(7)
Cl1C Cl -0.1069(2) -0.0433(1) -0.6140(3)
Cl1G Cl 0.1069(2) 0.0433(1) -0.3860(3)
N1D N -0.0800(5) -0.1079(4) -0.1587(8)
N1G N 0.0800(5) -0.1079(4) -0.3413(8)
C2C C -0.0957(6) 0.2306(4) 0.3745(12)
H6C H -0.190 0.056 0.445
O1D O -0.1693(4) -0.1035(3) -0.0638(7)
C1D C -0.0475(5) -0.1683(5) -0.1933(9)
O1G O 0.1693(4) -0.1035(3) -0.4362(7)
C1G C 0.0475(5) -0.1683(5) -0.3067(9)
C3C C -0.1238(7) 0.2796(5) 0.2458(14)
C7C C -0.1115(7) 0.2383(5) 0.5708(13)
H6D H -0.190 -0.056 -0.055
C2D C -0.0957(6) -0.2306(4) -0.1255(12)
H6G H 0.190 -0.056 -0.445
C2G C 0.0957(6) -0.2306(4) -0.3745(12)
C4C C -0.1703(8) 0.3353(6) 0.3166(17)
H1C H -0.110 0.271 0.098
C6C C -0.1548(8) 0.2979(7) 0.6339(15)
H5C H -0.088 0.198 0.664
C3D C -0.1238(7) -0.2796(5) -0.2542(14)
C7D C -0.1115(7) -0.2383(5) 0.0708(13)
C3G C 0.1238(7) -0.2796(5) -0.2458(14)
C7G C 0.1115(7) -0.2383(5) -0.5708(13)
C5C C -0.1842(8) 0.3461(6) 0.5116(20)
H2C H -0.198 0.374 0.226
H4C H -0.168 0.299 0.787
C4D C -0.1703(8) -0.3353(6) -0.1834(17)
H1D H -0.110 -0.271 -0.402
C6D C -0.1548(8) -0.2979(7) 0.1339(15)
H5D H -0.088 -0.198 0.164
C4G C 0.1703(8) -0.3353(6) -0.3166(17)
H1G H 0.110 -0.271 -0.098
C6G C 0.1548(8) -0.2979(7) -0.6339(15)
H5G H 0.088 -0.198 -0.664
H3C H -0.213 0.397 0.573
C5D C -0.1842(8) -0.3461(6) 0.0116(20)
H2D H -0.198 -0.374 -0.274
H4D H -0.168 -0.299 0.287
C5G C 0.1842(8) -0.3461(6) -0.5116(20)
H2G H 0.198 -0.374 -0.226
H4G H 0.168 -0.299 -0.787
H3D H -0.213 -0.397 0.073
H3G H 0.213 -0.397 -0.573

#END
