
#######################################################################
#
#                 Cambridge Crystallographic Data Centre
#                                CCDC
#
#######################################################################
#
# If this CIF has been generated from an entry in the Cambridge
# Structural Database, then it will include bibliographic, chemical,
# crystal, experimental, refinement or atomic coordinate data resulting
# from the CCDC's data processing and validation procedures.
#
#######################################################################

data_CSD_CIF_CONGRS
_audit_creation_date 1971-12-31
_audit_creation_method CSD-ConQuest-V1
_database_code_CSD CONGRS
_database_code_depnum_ccdc_archive 'CCDC 1129446'
_chemical_formula_sum 'C14 H20'
_chemical_formula_moiety
;
C14 H20
;
_journal_coden_Cambridge 4
_journal_volume 87
_journal_year 1965
_journal_page_first 918
_journal_name_full 'J.Am.Chem.Soc. '
loop_
_publ_author_name
"I.L.Karle"
"J.Karle"
_chemical_name_systematic
;
Congressane
;
_chemical_name_common
;
Teaching Subset: Symmetry
;
_cell_volume   1033.058
_diffrn_ambient_temperature ?
_diffrn_special_details
;
The study was carried out at room temperature,in the range 283-303K

;
#These two values have been output from a single CSD field.
_refine_ls_R_factor_gt 0.11
_refine_ls_wR_factor_gt 0.11
_symmetry_cell_setting cubic
_symmetry_space_group_name_H-M 'P a 3'
_symmetry_Int_Tables_number 205
loop_
_symmetry_equiv_pos_site_id
_symmetry_equiv_pos_as_xyz
1 x,y,z
2 z,x,y
3 y,z,x
4 -x,1/2+y,1/2-z
5 -z,1/2+x,1/2-y
6 -y,1/2+z,1/2-x
7 1/2-x,-y,1/2+z
8 1/2-z,-x,1/2+y
9 1/2-y,-z,1/2+x
10 1/2+x,1/2-y,-z
11 1/2+z,1/2-x,-y
12 1/2+y,1/2-z,-x
13 -x,-y,-z
14 -z,-x,-y
15 -y,-z,-x
16 x,-1/2-y,-1/2+z
17 z,-1/2-x,-1/2+y
18 y,-1/2-z,-1/2+x
19 -1/2+x,y,-1/2-z
20 -1/2+z,x,-1/2-y
21 -1/2+y,z,-1/2-x
22 -1/2-x,-1/2+y,z
23 -1/2-z,-1/2+x,y
24 -1/2-y,-1/2+z,x
_cell_length_a 10.109
_cell_length_b 10.109
_cell_length_c 10.109
_cell_angle_alpha 90
_cell_angle_beta 90
_cell_angle_gamma 90
_cell_formula_units_Z 4
loop_
_atom_type_symbol
_atom_type_radius_bond
C 0.68
H 0.20
loop_
_atom_site_label
_atom_site_type_symbol
_atom_site_fract_x
_atom_site_fract_y
_atom_site_fract_z
C1 C 0.13330 0.13330 0.13330
C2 C 0.21930 0.04560 0.04340
C3 C 0.13120 -0.04210 -0.04380
H1 H 0.19070 0.19070 0.19070
H2 H 0.25870 0.09730 -0.03200
H3 H 0.25230 -0.01200 0.09110
H4 H 0.18240 -0.10850 -0.09200
C2A C 0.04340 0.21930 0.04560
C2B C 0.04560 0.04340 0.21930
C3M C 0.04380 -0.13120 0.04210
C3N C 0.04210 0.04380 -0.13120
C3A C -0.04380 0.13120 -0.04210
H2A H -0.03200 0.25870 0.09730
H3A H 0.09110 0.25230 -0.01200
C3B C -0.04210 -0.04380 0.13120
H2B H 0.09730 -0.03200 0.25870
H3B H -0.01200 0.09110 0.25230
C2M C -0.04340 -0.21930 -0.04560
H4M H 0.09200 -0.18240 0.10850
C2N C -0.04560 -0.04340 -0.21930
H4N H 0.10850 0.09200 -0.18240
C3L C -0.13120 0.04210 0.04380
H4A H -0.09200 0.18240 -0.10850
H4B H -0.10850 -0.09200 0.18240
C1L C -0.13330 -0.13330 -0.13330
H2M H 0.03200 -0.25870 -0.09730
H3M H -0.09110 -0.25230 0.01200
H2N H -0.09730 0.03200 -0.25870
H3N H 0.01200 -0.09110 -0.25230
C2L C -0.21930 -0.04560 -0.04340
H4L H -0.18240 0.10850 0.09200
H1L H -0.19070 -0.19070 -0.19070
H2L H -0.25870 -0.09730 0.03200
H3L H -0.25230 0.01200 -0.09110
#END
