
#######################################################################
#
#                 Cambridge Crystallographic Data Centre
#                                CCDC
#
#######################################################################
#
# If this CIF has been generated from an entry in the Cambridge
# Structural Database, then it will include bibliographic, chemical,
# crystal, experimental, refinement or atomic coordinate data resulting
# from the CCDC's data processing and validation procedures.
#
#######################################################################

data_CSD_CIF_COPGOD
_audit_creation_date 1985-08-16
_audit_creation_method CSD-ConQuest-V1
_database_code_CSD COPGOD
_database_code_depnum_ccdc_archive 'CCDC 1129604'
_chemical_formula_sum 'C30 H30 Cd1 I2 N6'
_chemical_formula_moiety
;
C20 H20 Cd1 I2 N4,2(C5 H5 N1)
;
_journal_coeditor_code "IUCr A24061"
_journal_coden_Cambridge 591
_journal_volume 40
_journal_year 1984
_journal_page_first 2041
_journal_name_full 'Acta Crystallogr.,Sect.C:Cryst.Struct.Commun. '
loop_
_publ_author_name
"M.Ito"
"T.Shibata"
"Y.Saito"
_chemical_name_systematic
;
trans-Di-iodo-tetrakis(pyridine)-cadmium(ii) bis(pyridine)
;
_chemical_name_common
;
Teaching Subset: Fundamental Chemistry, Symmetry
;
_cell_volume   3175.531
_exptl_crystal_colour 'colorless'
_exptl_crystal_density_diffrn 1.759
_diffrn_ambient_temperature ?
_diffrn_special_details
;
The study was carried out at room temperature,in the range 283-303K

;
#These two values have been output from a single CSD field.
_refine_ls_R_factor_gt 0.058
_refine_ls_wR_factor_gt 0.058
_symmetry_cell_setting orthorhombic
_symmetry_space_group_name_H-M 'C c c a'
_symmetry_Int_Tables_number 68
loop_
_symmetry_equiv_pos_site_id
_symmetry_equiv_pos_as_xyz
1 x,y,z
2 1/2+x,1/2+y,z
3 1/2-x,y,1/2+z
4 -x,1/2+y,1/2+z
5 x,-y,-z
6 1/2+x,-y,1/2+z
7 1/2-x,-y,1/2-z
8 -x,-y,z
9 1/2-x,1/2-y,z
10 -x,1/2-y,1/2-z
11 x,1/2-y,1/2+z
12 1/2+x,1/2-y,-z
13 -x,y,-z
14 1/2-x,1/2+y,-z
15 x,1/2+y,1/2-z
16 1/2+x,y,1/2-z
_cell_length_a 11.620(2)
_cell_length_b 15.847(2)
_cell_length_c 17.245(4)
_cell_angle_alpha 90
_cell_angle_beta 90
_cell_angle_gamma 90
_cell_formula_units_Z 4
loop_
_atom_type_symbol
_atom_type_radius_bond
C 0.68
H 0.23
Cd 1.69
I 1.40
N 0.68
loop_
_atom_site_label
_atom_site_type_symbol
_atom_site_fract_x
_atom_site_fract_y
_atom_site_fract_z
I1 I 0.25553(5) 0.00000 0.00000
Cd1 Cd 0.00000 0.00000 0.00000
N1 N 0.00000 0.1494(4) 0.00000
N2 N 0.00000 0.00000 0.1423(5)
C1 C 0.0776(5) 0.1923(3) -0.0411(4)
C2 C 0.0794(5) 0.2795(3) -0.0429(4)
C3 C 0.00000 0.3242(5) 0.00000
C4 C 0.0841(7) 0.0402(4) 0.1834(4)
C5 C 0.0849(8) 0.0412(5) 0.2636(5)
C6 C 0.00000 0.00000 0.3039(7)
H1 H 0.150(6) 0.170(5) -0.065(4)
H2 H 0.150(6) 0.300(5) -0.065(5)
H3 H 0.00000 0.38800 0.00000
H4 H 0.160(5) 0.081(3) 0.155(3)
H5 H 0.160(5) 0.085(4) 0.280(4)
H6 H 0.00000 0.00000 0.370(6)
N3 N 0.25000 0.25000 0.2951(6)
C7 C 0.3325(9) 0.2075(8) 0.2574(5)
C8 C 0.3325(8) 0.2048(7) 0.1774(6)
C9 C 0.25000 0.25000 0.1375(7)
I1G I -0.25553(5) 0.00000 0.00000
N1D N 0.00000 -0.1494(4) 0.00000
N2D N 0.00000 0.00000 -0.1423(5)
C1L C -0.0776(5) 0.1923(3) 0.0411(4)
C4G C -0.0841(7) -0.0402(4) 0.1834(4)
C2L C -0.0794(5) 0.2795(3) 0.0429(4)
C5G C -0.0849(8) -0.0412(5) 0.2636(5)
C1D C 0.0776(5) -0.1923(3) 0.0411(4)
C1G C -0.0776(5) -0.1923(3) -0.0411(4)
C4D C 0.0841(7) -0.0402(4) -0.1834(4)
C4L C -0.0841(7) 0.0402(4) -0.1834(4)
H1L H -0.150(6) 0.170(5) 0.065(4)
H4G H -0.160(5) -0.081(3) 0.155(3)
H2L H -0.150(6) 0.300(5) 0.065(5)
H5G H -0.160(5) -0.085(4) 0.280(4)
C2D C 0.0794(5) -0.2795(3) 0.0429(4)
H1D H 0.150(6) -0.170(5) 0.065(4)
C2G C -0.0794(5) -0.2795(3) -0.0429(4)
H1G H -0.150(6) -0.170(5) -0.065(4)
C5D C 0.0849(8) -0.0412(5) -0.2636(5)
H4D H 0.160(5) -0.081(3) -0.155(3)
C5L C -0.0849(8) 0.0412(5) -0.2636(5)
H4L H -0.160(5) 0.081(3) -0.155(3)
C3D C 0.00000 -0.3242(5) 0.00000
H2D H 0.150(6) -0.300(5) 0.065(5)
H2G H -0.150(6) -0.300(5) -0.065(5)
C6D C 0.00000 0.00000 -0.3039(7)
H5D H 0.160(5) -0.085(4) -0.280(4)
H5L H -0.160(5) 0.085(4) -0.280(4)
H3D H 0.00000 -0.38800 0.00000
H6D H 0.00000 0.00000 -0.370(6)
C7H C 0.1675(9) 0.2925(8) 0.2574(5)
C8H C 0.1675(8) 0.2952(7) 0.1774(6)
#END
