####################################################################### 
# 
# This file contains crystal structure data downloaded from the 
# Cambridge Structural Database (CSD) hosted by the Cambridge 
# Crystallographic Data Centre (CCDC).
# 
# Full information about CCDC data access policies and citation 
# guidelines are available at http://www.ccdc.cam.ac.uk/access/V1 
# 
# Audit and citation data items may have been added by the CCDC. 
# Please retain this information to preserve the provenance of 
# this file and to allow appropriate attribution of the data. 
# 
#######################################################################

data_New2
_audit_block_doi                 10.5517/cc13cl02
_database_code_depnum_ccdc_archive 'CCDC 1024023'
loop_
_citation_id
_citation_doi
_citation_year
1 10.1021/ja209196t 2012
_audit_update_record             
;
2014-09-12 deposited with the CCDC.	2024-07-09 downloaded from the CCDC.
;

_audit_creation_method           SHELXL-97
_chemical_name_systematic        
; 
 ? 
;
_chemical_name_common            ?
_chemical_melting_point          ?
_chemical_formula_moiety         ?
_chemical_formula_sum            'C40 H32 Cd Mn N8 O44 P W12'
_chemical_formula_weight         3733.25

loop_
_atom_type_symbol
_atom_type_description
_atom_type_scat_dispersion_real
_atom_type_scat_dispersion_imag
_atom_type_scat_source
C C 0.0033 0.0016 'International Tables Vol C Tables 4.2.6.8 and 6.1.1.4'
H H 0.0000 0.0000 'International Tables Vol C Tables 4.2.6.8 and 6.1.1.4'
N N 0.0061 0.0033 'International Tables Vol C Tables 4.2.6.8 and 6.1.1.4'
O O 0.0106 0.0060 'International Tables Vol C Tables 4.2.6.8 and 6.1.1.4'
Mn Mn 0.3368 0.7283 'International Tables Vol C Tables 4.2.6.8 and 6.1.1.4'
P P 0.1023 0.0942 'International Tables Vol C Tables 4.2.6.8 and 6.1.1.4'
Cd Cd -0.8075 1.2024 'International Tables Vol C Tables 4.2.6.8 and 6.1.1.4'
W W -0.8490 6.8722 'International Tables Vol C Tables 4.2.6.8 and 6.1.1.4'

_symmetry_cell_setting           tetragonal
_symmetry_space_group_name_H-M   P4(2)/mmc

loop_
_symmetry_equiv_pos_as_xyz
'x, y, z'
'-x, -y, z'
'-y, x, z+1/2'
'y, -x, z+1/2'
'-x, y, -z'
'x, -y, -z'
'y, x, -z+1/2'
'-y, -x, -z+1/2'
'-x, -y, -z'
'x, y, -z'
'y, -x, -z-1/2'
'-y, x, -z-1/2'
'x, -y, z'
'-x, y, z'
'-y, -x, z-1/2'
'y, x, z-1/2'

_cell_length_a                   14.1159(6)
_cell_length_b                   14.1159(6)
_cell_length_c                   23.636(4)
_cell_angle_alpha                90.00
_cell_angle_beta                 90.00
_cell_angle_gamma                90.00
_cell_volume                     4709.7(9)
_cell_formula_units_Z            2
_cell_measurement_temperature    293(2)
_cell_measurement_reflns_used    8574
_cell_measurement_theta_min      3.88
_cell_measurement_theta_max      25.05

_exptl_crystal_description       block
_exptl_crystal_colour            brown
_exptl_crystal_size_max          0.32
_exptl_crystal_size_mid          0.22
_exptl_crystal_size_min          0.11
_exptl_crystal_density_meas      ?
_exptl_crystal_density_diffrn    2.633
_exptl_crystal_density_method    'not measured'
_exptl_crystal_F_000             3312
_exptl_absorpt_coefficient_mu    15.028
_exptl_absorpt_correction_type   empirical
_exptl_absorpt_correction_T_min  0.026
_exptl_absorpt_correction_T_max  0.191
_exptl_absorpt_process_details   ?

_exptl_special_details           
; 
 ? 
;

_diffrn_ambient_temperature      293(2)
_diffrn_radiation_wavelength     0.71073
_diffrn_radiation_type           MoK\a
_diffrn_radiation_source         'fine-focus sealed tube'
_diffrn_radiation_monochromator  graphite
_diffrn_measurement_device_type  ?
_diffrn_measurement_method       ?
_diffrn_detector_area_resol_mean ?
_diffrn_standards_number         ?
_diffrn_standards_interval_count ?
_diffrn_standards_interval_time  ?
_diffrn_standards_decay_%        ?
_diffrn_reflns_number            8574
_diffrn_reflns_av_R_equivalents  0.1337
_diffrn_reflns_av_sigmaI/netI    0.1953
_diffrn_reflns_limit_h_min       -11
_diffrn_reflns_limit_h_max       16
_diffrn_reflns_limit_k_min       -16
_diffrn_reflns_limit_k_max       10
_diffrn_reflns_limit_l_min       -18
_diffrn_reflns_limit_l_max       28
_diffrn_reflns_theta_min         3.88
_diffrn_reflns_theta_max         25.05
_reflns_number_total             2286
_reflns_number_gt                672
_reflns_threshold_expression     >2sigma(I)

_computing_data_collection       ?
_computing_cell_refinement       ?
_computing_data_reduction        ?
_computing_structure_solution    'SHELXS-97 (Sheldrick, 1990)'
_computing_structure_refinement  'SHELXL-97 (Sheldrick, 1997)'
_computing_molecular_graphics    ?
_computing_publication_material  ?

_refine_special_details          
; 
 Refinement of F^2^ against ALL reflections.  The weighted R-factor wR and 
 goodness of fit S are based on F^2^, conventional R-factors R are based 
 on F, with F set to zero for negative F^2^. The threshold expression of 
 F^2^ > 2sigma(F^2^) is used only for calculating R-factors(gt) etc. and is 
 not relevant to the choice of reflections for refinement.  R-factors based 
 on F^2^ are statistically about twice as large as those based on F, and R- 
 factors based on ALL data will be even larger. 
;

loop_
_platon_squeeze_void_nr
_platon_squeeze_void_average_x
_platon_squeeze_void_average_y
_platon_squeeze_void_average_z
_platon_squeeze_void_volume
_platon_squeeze_void_count_electrons
_platon_squeeze_void_content
1 -0.002 -0.018 0.000 867 453 ' '
2 -0.045 -0.003 0.500 867 448 ' '
_platon_squeeze_details          
;
;

_refine_ls_structure_factor_coef Fsqd
_refine_ls_matrix_type           full
_refine_ls_weighting_scheme      calc
_refine_ls_weighting_details     
'calc w=1/[\s^2^(Fo^2^)+(0.0501P)^2^+12.3510P] where P=(Fo^2^+2Fc^2^)/3'
_atom_sites_solution_primary     direct
_atom_sites_solution_secondary   difmap
_atom_sites_solution_hydrogens   geom
_refine_ls_hydrogen_treatment    constr
_refine_ls_extinction_method     none
_refine_ls_extinction_coef       ?
_refine_ls_number_reflns         2286
_refine_ls_number_parameters     94
_refine_ls_number_restraints     8
_refine_ls_R_factor_all          0.2411
_refine_ls_R_factor_gt           0.1050
_refine_ls_wR_factor_ref         0.2598
_refine_ls_wR_factor_gt          0.2143
_refine_ls_goodness_of_fit_ref   1.027
_refine_ls_restrained_S_all      1.027
_refine_ls_shift/su_max          0.000
_refine_ls_shift/su_mean         0.000

loop_
_atom_site_label
_atom_site_type_symbol
_atom_site_fract_x
_atom_site_fract_y
_atom_site_fract_z
_atom_site_U_iso_or_equiv
_atom_site_adp_type
_atom_site_occupancy
_atom_site_symmetry_multiplicity
_atom_site_calc_flag
_atom_site_refinement_flags
_atom_site_disorder_assembly
_atom_site_disorder_group
Cd1 Cd 1.0000 0.0000 0.2500 0.0479(15) Uani 1 8 d S . .
Mn1 Mn 0.5000 0.5000 0.2500 0.026(2) Uani 1 8 d S . .
W1 W 0.96429(19) 0.2841(2) 0.42573(13) 0.0935(12) Uani 0.50 1 d PD . .
W2 W 0.8181(4) 0.3220(4) 0.5000 0.1253(16) Uani 0.50 2 d SP . .
W3 W 0.78348(15) 0.46198(18) 0.42515(11) 0.0653(9) Uani 0.50 1 d P . .
W4 W 1.0000 0.5000 0.35147(10) 0.0928(10) Uani 1 4 d SD . .
P1 P 1.0000 0.5000 0.5000 0.015(2) Uiso 1 8 d SD . .
O1 O 0.8916(7) 0.5000 0.5000 0.11(3) Uiso 0.50 4 d SPD . .
O2 O 1.0000 0.5000 0.4353(4) 0.30(9) Uiso 0.50 4 d SPD . .
O3 O 1.0000 0.3918(7) 0.5000 0.26(4) Uiso 1 4 d SD . .
O4 O 0.759(3) 0.224(3) 0.5000 0.063(12) Uiso 0.50 2 d SP . .
O5 O 0.688(3) 0.434(2) 0.3946(18) 0.218(16) Uiso 1 1 d . . .
O6 O 1.0000 0.3824(19) 0.3686(11) 0.077(9) Uiso 1 2 d S . .
O7 O 0.7728(18) 0.4161(18) 0.4574(12) 0.108(8) Uiso 1 1 d . . .
O8 O 1.0000 0.5000 0.2825(16) 0.101(12) Uiso 1 4 d S . .
O9 O 1.067(2) 0.257(2) 0.5000 0.104(10) Uiso 1 2 d S . .
O10 O 0.871(3) 0.5000 0.3714(15) 0.122(13) Uiso 1 2 d S . .
O11 O 1.0000 0.2105(7) 0.3781(5) 0.131(9) Uiso 1 2 d SD . .
O12 O 0.5000 0.5000 0.3469(12) 0.050(8) Uiso 1 4 d S . .
O13 O 1.0000 0.0000 0.1502(18) 0.106(13) Uiso 1 4 d S . .
N1 N 0.6415(16) 0.5000 0.2494(10) 0.038(6) Uiso 1 2 d S . .
N2 N 0.8833(12) 0.1167(12) 0.2500 0.043(6) Uiso 1 2 d SD . .
C1 C 0.790(2) 0.4533(17) 0.2485(14) 0.094(10) Uiso 1 1 d . . .
H1A H 0.8435 0.4144 0.2481 0.113 Uiso 1 1 calc R . .
C2 C 0.6995(16) 0.4244(15) 0.2492(11) 0.050(6) Uiso 1 1 d . . .
C3 C 0.6701(13) 0.3299(13) 0.2500 0.035(7) Uiso 1 2 d S . .
C4 C 0.7490(16) 0.2510(16) 0.2500 0.040(6) Uiso 1 2 d SD . .
C5 C 0.778(3) 0.209(3) 0.304(2) 0.19(2) Uiso 1 1 d D . .
H5A H 0.7522 0.2266 0.3387 0.222 Uiso 1 1 calc R . .
C6 C 0.842(4) 0.147(4) 0.298(2) 0.26(3) Uiso 1 1 d D . .
H6A H 0.8626 0.1181 0.3313 0.308 Uiso 1 1 calc R . .

loop_
_atom_site_aniso_label
_atom_site_aniso_U_11
_atom_site_aniso_U_22
_atom_site_aniso_U_33
_atom_site_aniso_U_23
_atom_site_aniso_U_13
_atom_site_aniso_U_12
Cd1 0.0171(14) 0.0171(14) 0.110(5) 0.000 0.000 0.000
Mn1 0.023(3) 0.023(3) 0.032(5) 0.000 0.000 0.000
W1 0.107(3) 0.0852(19) 0.088(2) -0.0199(15) 0.0112(16) -0.0109(15)
W2 0.123(4) 0.134(5) 0.119(4) 0.000 0.000 -0.002(3)
W3 0.0403(12) 0.095(2) 0.0608(14) 0.0048(13) 0.0027(11) 0.0047(11)
W4 0.096(2) 0.130(3) 0.0523(14) 0.000 0.000 0.000

_geom_special_details            
; 
 All esds (except the esd in the dihedral angle between two l.s. planes) 
 are estimated using the full covariance matrix.  The cell esds are taken 
 into account individually in the estimation of esds in distances, angles 
 and torsion angles; correlations between esds in cell parameters are only 
 used when they are defined by crystal symmetry.  An approximate (isotropic) 
 treatment of cell esds is used for estimating esds involving l.s. planes. 
;

loop_
_geom_bond_atom_site_label_1
_geom_bond_atom_site_label_2
_geom_bond_distance
_geom_bond_site_symmetry_2
_geom_bond_publ_flag
Cd1 N2 2.33(2) . ?
Cd1 N2 2.33(2) 12_646 ?
Cd1 N2 2.33(2) 11_666 ?
Cd1 N2 2.33(2) 2_755 ?
Cd1 O13 2.36(4) 11_666 ?
Cd1 O13 2.36(4) . ?
Mn1 N1 2.00(2) . ?
Mn1 N1 2.00(2) 2_665 ?
Mn1 N1 2.00(2) 12_656 ?
Mn1 N1 2.00(2) 11_566 ?
Mn1 O12 2.29(3) . ?
Mn1 O12 2.29(3) 11_566 ?
W1 W1 1.008(5) 14_755 ?
W1 O11 1.613(8) . ?
W1 O9 1.849(10) 5_756 ?
W1 O6 2.00(3) . ?
W1 O9 2.308(19) . ?
W1 O3 2.376(7) . ?
W1 W2 2.761(5) . ?
W2 O4 1.62(4) . ?
W2 O7 1.79(3) . ?
W2 O7 1.79(3) 10_556 ?
W2 O9 1.86(3) 5_756 ?
W2 W3 2.697(5) . ?
W2 W3 2.697(5) 10_556 ?
W2 W1 2.761(5) 10_556 ?
W3 O7 1.01(3) . ?
W3 W3 1.073(5) 13_565 ?
W3 O5 1.58(4) . ?
W3 O10 1.85(3) . ?
W3 O7 1.89(3) 13_565 ?
W3 O5 2.12(4) 13_565 ?
W3 O1 2.397(7) . ?
W4 O8 1.63(4) . ?
W4 O6 1.71(3) . ?
W4 O6 1.71(3) 2_765 ?
W4 O10 1.88(4) 2_765 ?
W4 O10 1.88(4) . ?
W4 O2 1.982(10) . ?
P1 O3 1.528(10) . ?
P1 O3 1.528(10) 9_766 ?
P1 O2 1.528(10) 9_766 ?
P1 O2 1.528(10) . ?
P1 O1 1.530(10) 9_766 ?
P1 O1 1.530(10) . ?
O1 W3 2.397(7) 13_565 ?
O1 W3 2.397(7) 6_566 ?
O1 W3 2.397(7) 10_556 ?
O3 W1 2.376(7) 14_755 ?
O3 W1 2.376(7) 10_556 ?
O3 W1 2.376(7) 5_756 ?
O5 W3 2.12(4) 13_565 ?
O6 W1 2.00(3) 14_755 ?
O7 W3 1.89(3) 13_565 ?
O9 W1 1.849(10) 14_755 ?
O9 W1 1.850(10) 5_756 ?
O9 W2 1.86(3) 14_755 ?
O9 W1 2.308(19) 10_556 ?
O10 W3 1.85(3) 13_565 ?
O11 W1 1.613(8) 14_755 ?
N1 C2 1.34(2) 13_565 ?
N1 C2 1.34(2) . ?
N2 C6 1.349(10) 8_665 ?
N2 C6 1.349(10) . ?
C1 C1 1.32(5) 13_565 ?
C1 C2 1.35(3) . ?
C2 C3 1.40(2) . ?
C3 C2 1.40(2) 8_665 ?
C3 C4 1.57(4) . ?
C4 C5 1.46(5) 8_665 ?
C4 C5 1.46(5) . ?
C5 C6 1.27(7) . ?

loop_
_geom_angle_atom_site_label_1
_geom_angle_atom_site_label_2
_geom_angle_atom_site_label_3
_geom_angle
_geom_angle_site_symmetry_1
_geom_angle_site_symmetry_3
_geom_angle_publ_flag
N2 Cd1 N2 90.000(1) . 12_646 ?
N2 Cd1 N2 90.000(1) . 11_666 ?
N2 Cd1 N2 180.0(11) 12_646 11_666 ?
N2 Cd1 N2 179.999(1) . 2_755 ?
N2 Cd1 N2 90.000(1) 12_646 2_755 ?
N2 Cd1 N2 90.000(1) 11_666 2_755 ?
N2 Cd1 O13 90.0 . 11_666 ?
N2 Cd1 O13 90.001(1) 12_646 11_666 ?
N2 Cd1 O13 90.001(2) 11_666 11_666 ?
N2 Cd1 O13 90.0 2_755 11_666 ?
N2 Cd1 O13 90.0 . . ?
N2 Cd1 O13 89.999(1) 12_646 . ?
N2 Cd1 O13 89.999(2) 11_666 . ?
N2 Cd1 O13 90.0 2_755 . ?
O13 Cd1 O13 180.000(1) 11_666 . ?
N1 Mn1 N1 179.2(14) . 2_665 ?
N1 Mn1 N1 90.003(12) . 12_656 ?
N1 Mn1 N1 90.003(11) 2_665 12_656 ?
N1 Mn1 N1 90.003(11) . 11_566 ?
N1 Mn1 N1 90.003(12) 2_665 11_566 ?
N1 Mn1 N1 179.2(14) 12_656 11_566 ?
N1 Mn1 O12 90.4(7) . . ?
N1 Mn1 O12 90.4(7) 2_665 . ?
N1 Mn1 O12 89.6(7) 12_656 . ?
N1 Mn1 O12 89.6(7) 11_566 . ?
N1 Mn1 O12 89.6(7) . 11_566 ?
N1 Mn1 O12 89.6(7) 2_665 11_566 ?
N1 Mn1 O12 90.4(7) 12_656 11_566 ?
N1 Mn1 O12 90.4(7) 11_566 11_566 ?
O12 Mn1 O12 180.000(1) . 11_566 ?
W1 W1 O11 71.79(13) 14_755 . ?
W1 W1 O9 103.8(9) 14_755 5_756 ?
O11 W1 O9 127.2(10) . 5_756 ?
W1 W1 O6 75.4(2) 14_755 . ?
O11 W1 O6 84.0(8) . . ?
O9 W1 O6 147.5(12) 5_756 . ?
W1 W1 O9 51.1(6) 14_755 . ?
O11 W1 O9 103.2(7) . . ?
O9 W1 O9 52.7(14) 5_756 . ?
O6 W1 O9 118.0(9) . . ?
W1 W1 O3 77.75(7) 14_755 . ?
O11 W1 O3 149.5(2) . . ?
O9 W1 O3 58.8(9) 5_756 . ?
O6 W1 O3 90.1(8) . . ?
O9 W1 O3 53.9(7) . . ?
W1 W1 W2 138.35(9) 14_755 . ?
O11 W1 W2 143.3(3) . . ?
O9 W1 W2 42.2(9) 5_756 . ?
O6 W1 W2 118.9(5) . . ?
O9 W1 W2 91.0(6) . . ?
O3 W1 W2 64.22(11) . . ?
O4 W2 O7 116.8(13) . . ?
O4 W2 O7 116.8(13) . 10_556 ?
O7 W2 O7 68.7(16) . 10_556 ?
O4 W2 O9 91.7(17) . 5_756 ?
O7 W2 O9 132.6(11) . 5_756 ?
O7 W2 O9 132.6(11) 10_556 5_756 ?
O4 W2 W3 122.2(9) . . ?
O7 W2 W3 11.4(8) . . ?
O7 W2 W3 76.1(8) 10_556 . ?
O9 W2 W3 121.2(6) 5_756 . ?
O4 W2 W3 122.2(9) . 10_556 ?
O7 W2 W3 76.1(8) . 10_556 ?
O7 W2 W3 11.4(8) 10_556 10_556 ?
O9 W2 W3 121.2(6) 5_756 10_556 ?
W3 W2 W3 81.97(19) . 10_556 ?
O4 W2 W1 102.8(11) . 10_556 ?
O7 W2 W1 140.4(8) . 10_556 ?
O7 W2 W1 93.0(8) 10_556 10_556 ?
O9 W2 W1 41.8(3) 5_756 10_556 ?
W3 W2 W1 133.96(19) . 10_556 ?
W3 W2 W1 81.97(10) 10_556 10_556 ?
O4 W2 W1 102.8(11) . . ?
O7 W2 W1 93.0(8) . . ?
O7 W2 W1 140.4(8) 10_556 . ?
O9 W2 W1 41.8(3) 5_756 . ?
W3 W2 W1 81.97(10) . . ?
W3 W2 W1 133.96(19) 10_556 . ?
W1 W2 W1 78.9(2) 10_556 . ?
O7 W3 W3 129.8(14) . 13_565 ?
O7 W3 O5 93.2(19) . . ?
W3 W3 O5 104.6(11) 13_565 . ?
O7 W3 O10 143.3(17) . . ?
W3 W3 O10 73.2(3) 13_565 . ?
O5 W3 O10 109.2(19) . . ?
O7 W3 O7 106(2) . 13_565 ?
W3 W3 O7 24.3(8) 13_565 13_565 ?
O5 W3 O7 110.3(14) . 13_565 ?
O10 W3 O7 93.8(8) . 13_565 ?
O7 W3 O5 127.3(17) . 13_565 ?
W3 W3 O5 46.1(10) 13_565 13_565 ?
O5 W3 O5 59(2) . 13_565 ?
O10 W3 O5 89.4(14) . 13_565 ?
O7 W3 O5 56.9(13) 13_565 13_565 ?
O7 W3 O1 71.5(14) . . ?
W3 W3 O1 77.06(7) 13_565 . ?
O5 W3 O1 159.5(15) . . ?
O10 W3 O1 90.9(11) . . ?
O7 W3 O1 63.2(8) 13_565 . ?
O5 W3 O1 120.0(10) 13_565 . ?
O7 W3 W2 20.5(14) . . ?
W3 W3 W2 137.12(9) 13_565 . ?
O5 W3 W2 105.6(13) . . ?
O10 W3 W2 122.8(8) . . ?
O7 W3 W2 114.7(8) 13_565 . ?
O5 W3 W2 147.8(11) 13_565 . ?
O1 W3 W2 64.19(11) . . ?
O8 W4 O6 103.7(9) . . ?
O8 W4 O6 103.7(9) . 2_765 ?
O6 W4 O6 152.6(18) . 2_765 ?
O8 W4 O10 104.5(11) . 2_765 ?
O6 W4 O10 86.6(3) . 2_765 ?
O6 W4 O10 86.6(3) 2_765 2_765 ?
O8 W4 O10 104.5(11) . . ?
O6 W4 O10 86.6(3) . . ?
O6 W4 O10 86.6(3) 2_765 . ?
O10 W4 O10 151(2) 2_765 . ?
O8 W4 O2 180.000(4) . . ?
O6 W4 O2 76.3(9) . . ?
O6 W4 O2 76.3(9) 2_765 . ?
O10 W4 O2 75.5(11) 2_765 . ?
O10 W4 O2 75.5(11) . . ?
O3 P1 O3 179.998(1) . 9_766 ?
O3 P1 O2 90.000(1) . 9_766 ?
O3 P1 O2 90.002(1) 9_766 9_766 ?
O3 P1 O2 90.000(1) . . ?
O3 P1 O2 89.998(1) 9_766 . ?
O2 P1 O2 180.000(4) 9_766 . ?
O3 P1 O1 90.000(2) . 9_766 ?
O3 P1 O1 90.000(3) 9_766 9_766 ?
O2 P1 O1 90.002(2) 9_766 9_766 ?
O2 P1 O1 89.998(2) . 9_766 ?
O3 P1 O1 90.000(3) . . ?
O3 P1 O1 90.000(2) 9_766 . ?
O2 P1 O1 90.000(2) 9_766 . ?
O2 P1 O1 90.000(2) . . ?
O1 P1 O1 180.0 9_766 . ?
P1 O1 W3 129.55(19) . 13_565 ?
P1 O1 W3 129.54(19) . . ?
W3 O1 W3 25.87(14) 13_565 . ?
P1 O1 W3 129.54(19) . 6_566 ?
W3 O1 W3 95.1(4) 13_565 6_566 ?
W3 O1 W3 100.9(4) . 6_566 ?
P1 O1 W3 129.54(19) . 10_556 ?
W3 O1 W3 100.9(4) 13_565 10_556 ?
W3 O1 W3 95.1(4) . 10_556 ?
W3 O1 W3 25.87(14) 6_566 10_556 ?
P1 O2 W4 180.0 . . ?
P1 O3 W1 129.8(2) . 14_755 ?
P1 O3 W1 129.8(2) . . ?
W1 O3 W1 24.50(15) 14_755 . ?
P1 O3 W1 129.8(2) . 10_556 ?
W1 O3 W1 100.5(4) 14_755 10_556 ?
W1 O3 W1 95.2(4) . 10_556 ?
P1 O3 W1 129.8(2) . 5_756 ?
W1 O3 W1 95.2(4) 14_755 5_756 ?
W1 O3 W1 100.5(4) . 5_756 ?
W1 O3 W1 24.50(15) 10_556 5_756 ?
W3 O5 W3 29.3(6) . 13_565 ?
W4 O6 W1 146.4(14) . . ?
W4 O6 W1 146.4(14) . 14_755 ?
W1 O6 W1 29.2(4) . 14_755 ?
W3 O7 W2 148(2) . . ?
W3 O7 W3 25.9(8) . 13_565 ?
W2 O7 W3 151.3(15) . 13_565 ?
W1 O9 W1 143.3(17) 14_755 5_756 ?
W1 O9 W2 96.1(10) 14_755 14_755 ?
W1 O9 W2 96.1(10) 5_756 14_755 ?
W1 O9 W1 25.1(3) 14_755 . ?
W1 O9 W1 122.6(14) 5_756 . ?
W2 O9 W1 117.7(10) 14_755 . ?
W1 O9 W1 122.6(14) 14_755 10_556 ?
W1 O9 W1 25.1(3) 5_756 10_556 ?
W2 O9 W1 117.7(10) 14_755 10_556 ?
W1 O9 W1 99.0(11) . 10_556 ?
W3 O10 W3 33.7(6) . 13_565 ?
W3 O10 W4 144.9(18) . . ?
W3 O10 W4 144.9(18) 13_565 . ?
W1 O11 W1 36.4(3) . 14_755 ?
C2 N1 C2 105(2) 13_565 . ?
C2 N1 Mn1 127.5(12) 13_565 . ?
C2 N1 Mn1 127.5(12) . . ?
C6 N2 C6 116(7) 8_665 . ?
C6 N2 Cd1 122(4) 8_665 . ?
C6 N2 Cd1 122(4) . . ?
C1 C1 C2 107.7(15) 13_565 . ?
N1 C2 C1 110(2) . . ?
N1 C2 C3 125(2) . . ?
C1 C2 C3 125(2) . . ?
C2 C3 C2 125(3) . 8_665 ?
C2 C3 C4 117.7(14) . . ?
C2 C3 C4 117.7(14) 8_665 . ?
C5 C4 C5 122(5) 8_665 . ?
C5 C4 C3 119(3) 8_665 . ?
C5 C4 C3 119(3) . . ?
C6 C5 C4 113(6) . . ?
C5 C6 N2 128(7) . . ?

_diffrn_measured_fraction_theta_max 0.978
_diffrn_reflns_theta_full        25.05
_diffrn_measured_fraction_theta_full 0.978
_refine_diff_density_max         1.925
_refine_diff_density_min         -1.340
_refine_diff_density_rms         0.263
