####################################################################### 
# 
# This file contains crystal structure data downloaded from the 
# Cambridge Structural Database (CSD) hosted by the Cambridge 
# Crystallographic Data Centre (CCDC).
# 
# Full information about CCDC data access policies and citation 
# guidelines are available at http://www.ccdc.cam.ac.uk/access/V1 
# 
# Audit and citation data items may have been added by the CCDC. 
# Please retain this information to preserve the provenance of 
# this file and to allow appropriate attribution of the data. 
# 
#######################################################################

data_y84
_audit_block_doi                 10.5517/cc1293q6
_database_code_depnum_ccdc_archive 'CCDC 991867'
loop_
_citation_id
_citation_doi
_citation_year
1 10.1039/C4TA04001E 2014
_audit_update_record             
;
2014-03-14 deposited with the CCDC.	2024-07-09 downloaded from the CCDC.
;

_audit_creation_method           SHELXL-97
_chemical_name_systematic        
; 
 ? 
;
_chemical_name_common            ?
_chemical_melting_point          ?
_chemical_formula_moiety         'C23 H15 N2 O5 Zn, 1.5(C3 H7 N O)'
_chemical_formula_sum            'C27.50 H25.50 N3.50 O6.50 Zn'
_chemical_formula_weight         574.38

loop_
_atom_type_symbol
_atom_type_description
_atom_type_scat_dispersion_real
_atom_type_scat_dispersion_imag
_atom_type_scat_source
C C 0.0033 0.0016 'International Tables Vol C Tables 4.2.6.8 and 6.1.1.4'
H H 0.0000 0.0000 'International Tables Vol C Tables 4.2.6.8 and 6.1.1.4'
N N 0.0061 0.0033 'International Tables Vol C Tables 4.2.6.8 and 6.1.1.4'
O O 0.0106 0.0060 'International Tables Vol C Tables 4.2.6.8 and 6.1.1.4'
Zn Zn 0.2839 1.4301 'International Tables Vol C Tables 4.2.6.8 and 6.1.1.4'

_symmetry_cell_setting           Monoclinic
_symmetry_space_group_name_H-M   'C 2/c'
_symmetry_space_group_name_Hall  '-C 2yc'

loop_
_symmetry_equiv_pos_as_xyz
'x, y, z'
'-x, y, -z+1/2'
'x+1/2, y+1/2, z'
'-x+1/2, y+1/2, -z+1/2'
'-x, -y, -z'
'x, -y, z-1/2'
'-x+1/2, -y+1/2, -z'
'x+1/2, -y+1/2, z-1/2'

_cell_length_a                   14.900(4)
_cell_length_b                   24.324(6)
_cell_length_c                   16.253(6)
_cell_angle_alpha                90.00
_cell_angle_beta                 113.233(4)
_cell_angle_gamma                90.00
_cell_volume                     5413(3)
_cell_formula_units_Z            8
_cell_measurement_temperature    100(2)
_cell_measurement_reflns_used    9588
_cell_measurement_theta_min      2.67
_cell_measurement_theta_max      28.56

_exptl_crystal_description       plate
_exptl_crystal_colour            red-brown
_exptl_crystal_size_max          0.19
_exptl_crystal_size_mid          0.16
_exptl_crystal_size_min          0.04
_exptl_crystal_density_meas      ?
_exptl_crystal_density_diffrn    1.410
_exptl_crystal_density_method    'not measured'
_exptl_crystal_F_000             2376
_exptl_absorpt_coefficient_mu    0.957
_exptl_absorpt_correction_type   multi-scan
_exptl_absorpt_correction_T_min  0.873
_exptl_absorpt_correction_T_max  0.962
_exptl_absorpt_process_details   'APEX2 (Bruker, 2005)'

_exptl_special_details           
; 
 ? 
;

_diffrn_ambient_temperature      100(2)
_diffrn_radiation_wavelength     0.71073
_diffrn_radiation_type           MoK\a
_diffrn_radiation_source         'fine-focus sealed tube'
_diffrn_radiation_monochromator  graphite
_diffrn_measurement_device_type  'Bruker SMART APEX2 CCD area detector'
_diffrn_measurement_method       'phi and omega scans'
_diffrn_detector_area_resol_mean ?
_diffrn_standards_number         ?
_diffrn_standards_interval_count ?
_diffrn_standards_interval_time  ?
_diffrn_standards_decay_%        ?
_diffrn_reflns_number            41525
_diffrn_reflns_av_R_equivalents  0.0940
_diffrn_reflns_av_sigmaI/netI    0.0664
_diffrn_reflns_limit_h_min       -20
_diffrn_reflns_limit_h_max       20
_diffrn_reflns_limit_k_min       -33
_diffrn_reflns_limit_k_max       33
_diffrn_reflns_limit_l_min       -22
_diffrn_reflns_limit_l_max       22
_diffrn_reflns_theta_min         1.67
_diffrn_reflns_theta_max         29.00
_reflns_number_total             7129
_reflns_number_gt                4966
_reflns_threshold_expression     I>2\s(I)

_computing_data_collection       'APEX2 (Bruker, 2005)'
_computing_cell_refinement       'APEX2 (Bruker, 2005)'
_computing_data_reduction        'APEX2 (Bruker, 2005)'
_computing_structure_solution    'SHELXTL ver. 5.1 (Sheldrick, 1998)'
_computing_structure_refinement  'SHELXTL ver. 5.1 (Sheldrick, 1998)'
_computing_molecular_graphics    'SHELXTL ver. 5.1 (Sheldrick, 1998)'
_computing_publication_material  'SHELXTL ver. 5.1 (Sheldrick, 1998)'

_refine_special_details          
; 
 Refinement of F^2^ against ALL reflections.  The weighted R-factor wR and 
 goodness of fit S are based on F^2^, conventional R-factors R are based 
 on F, with F set to zero for negative F^2^. The threshold expression of 
 F^2^ > 2sigma(F^2^) is used only for calculating R-factors(gt) etc. and is 
 not relevant to the choice of reflections for refinement.  R-factors based 
 on F^2^ are statistically about twice as large as those based on F, and R- 
 factors based on ALL data will be even larger. 
;

_refine_ls_structure_factor_coef Fsqd
_refine_ls_matrix_type           full
_refine_ls_weighting_scheme      calc
_refine_ls_weighting_details     
'calc w=1/[\s^2^(Fo^2^)+(0.1340P)^2^+3.4500P] where P=(Fo^2^+2Fc^2^)/3'
_atom_sites_solution_primary     direct
_atom_sites_solution_secondary   difmap
_atom_sites_solution_hydrogens   geom
_refine_ls_hydrogen_treatment    constr
_refine_ls_extinction_method     SHELXL
_refine_ls_extinction_coef       0.0032(5)
_refine_ls_extinction_expression Fc^*^=kFc[1+0.001xFc^2^\l^3^/sin(2\q)]^-1/4^
_refine_ls_number_reflns         7129
_refine_ls_number_parameters     341
_refine_ls_number_restraints     4
_refine_ls_R_factor_all          0.1083
_refine_ls_R_factor_gt           0.0780
_refine_ls_wR_factor_ref         0.2387
_refine_ls_wR_factor_gt          0.2189
_refine_ls_goodness_of_fit_ref   1.161
_refine_ls_restrained_S_all      1.160
_refine_ls_shift/su_max          0.001
_refine_ls_shift/su_mean         0.000

loop_
_atom_site_label
_atom_site_type_symbol
_atom_site_fract_x
_atom_site_fract_y
_atom_site_fract_z
_atom_site_U_iso_or_equiv
_atom_site_adp_type
_atom_site_occupancy
_atom_site_symmetry_multiplicity
_atom_site_calc_flag
_atom_site_refinement_flags
_atom_site_disorder_assembly
_atom_site_disorder_group
Zn1 Zn 0.41865(3) 0.013454(19) 0.63776(4) 0.02764(19) Uani 1 1 d . . .
O1 O 0.4048(2) -0.32009(12) 0.6314(2) 0.0348(7) Uani 1 1 d . . .
O2 O 0.4768(2) -0.06168(11) 0.6429(2) 0.0332(7) Uani 1 1 d . . .
O3 O 0.3299(2) -0.06232(12) 0.6447(2) 0.0349(7) Uani 1 1 d . . .
O4 O 0.0343(2) -0.44166(12) 0.6461(2) 0.0334(7) Uani 1 1 d . . .
O5 O 0.1375(2) -0.44491(13) 0.7904(2) 0.0367(7) Uani 1 1 d . . .
N1 N 0.3320(2) 0.02875(14) 0.5067(3) 0.0266(7) Uani 1 1 d . . .
N2 N 0.0887(3) 0.00793(15) 0.1884(3) 0.0329(8) Uani 1 1 d . . .
C1 C 0.4036(3) -0.14930(17) 0.6431(3) 0.0304(9) Uani 1 1 d . . .
C2 C 0.4770(3) -0.17764(17) 0.6286(4) 0.0350(10) Uani 1 1 d . . .
H2A H 0.5285 -0.1577 0.6218 0.042 Uiso 1 1 calc R . .
C3 C 0.4762(3) -0.23436(18) 0.6241(4) 0.0357(10) Uani 1 1 d . . .
H3A H 0.5259 -0.2535 0.6129 0.043 Uiso 1 1 calc R . .
C4 C 0.4012(3) -0.26317(17) 0.6363(3) 0.0310(9) Uani 1 1 d . . .
C5 C 0.3270(3) -0.23553(18) 0.6511(4) 0.0370(11) Uani 1 1 d . . .
H5A H 0.2760 -0.2554 0.6588 0.044 Uiso 1 1 calc R . .
C6 C 0.3288(3) -0.17824(18) 0.6544(3) 0.0345(10) Uani 1 1 d . . .
H6A H 0.2787 -0.1589 0.6645 0.041 Uiso 1 1 calc R . .
C7 C 0.4022(3) -0.08827(17) 0.6442(3) 0.0297(9) Uani 1 1 d . . .
C8 C 0.3340(3) -0.34841(16) 0.6510(3) 0.0337(10) Uani 1 1 d . . .
C9 C 0.3527(3) -0.36286(19) 0.7391(4) 0.0380(11) Uani 1 1 d . . .
H9A H 0.4131 -0.3536 0.7861 0.046 Uiso 1 1 calc R . .
C10 C 0.2820(3) -0.39078(19) 0.7568(4) 0.0378(10) Uani 1 1 d . . .
H10A H 0.2946 -0.4019 0.8164 0.045 Uiso 1 1 calc R . .
C11 C 0.1918(3) -0.40299(15) 0.6884(3) 0.0290(9) Uani 1 1 d . . .
C12 C 0.1752(3) -0.38961(19) 0.6005(3) 0.0362(10) Uani 1 1 d . . .
H12A H 0.1151 -0.3992 0.5533 0.043 Uiso 1 1 calc R . .
C13 C 0.2466(3) -0.3622(2) 0.5818(4) 0.0386(11) Uani 1 1 d . . .
H13A H 0.2357 -0.3529 0.5218 0.046 Uiso 1 1 calc R . .
C14 C 0.1153(3) -0.43221(15) 0.7102(3) 0.0277(9) Uani 1 1 d . . .
C15 C 0.3690(3) 0.04884(16) 0.4498(3) 0.0294(9) Uani 1 1 d . . .
H15A H 0.4347 0.0614 0.4741 0.035 Uiso 1 1 calc R . .
C16 C 0.3185(3) 0.05240(18) 0.3595(3) 0.0311(9) Uani 1 1 d . . .
H16A H 0.3485 0.0669 0.3223 0.037 Uiso 1 1 calc R . .
C17 C 0.2221(3) 0.03434(17) 0.3230(3) 0.0308(9) Uani 1 1 d . . .
C18 C 0.1812(3) 0.01413(18) 0.3798(3) 0.0328(9) Uani 1 1 d . . .
H18A H 0.1154 0.0017 0.3566 0.039 Uiso 1 1 calc R . .
C19 C 0.2371(3) 0.01222(18) 0.4707(3) 0.0319(9) Uani 1 1 d . . .
H19A H 0.2082 -0.0011 0.5095 0.038 Uiso 1 1 calc R . .
C20 C 0.1698(3) 0.03223(18) 0.2239(3) 0.0319(9) Uani 1 1 d . . .
H20A H 0.1977 0.0494 0.1870 0.038 Uiso 1 1 calc R . .
C21 C 0.0449(3) 0.00599(18) 0.0932(3) 0.0302(9) Uani 1 1 d . . .
C22 C 0.0002(3) -0.04431(19) 0.0541(3) 0.0335(9) Uani 1 1 d . . .
H22A H 0.0002 -0.0744 0.0914 0.040 Uiso 1 1 calc R . .
C23 C 0.0434(3) 0.04976(18) 0.0382(3) 0.0350(10) Uani 1 1 d . . .
H23A H 0.0725 0.0837 0.0639 0.042 Uiso 1 1 calc R . .
O1S O 0.3959(11) -0.1929(7) 1.0076(11) 0.123(5) Uiso 0.65 1 d P A 1
N1S N 0.5019(11) -0.2076(6) 1.1553(10) 0.110(4) Uiso 0.65 1 d P . 1
C1S C 0.4315(12) -0.1845(7) 1.0895(11) 0.097(4) Uiso 0.65 1 d P A 1
H1SA H 0.4009 -0.1553 1.1076 0.117 Uiso 0.65 1 calc PR A 1
C2S C 0.5336(12) -0.1978(7) 1.2484(14) 0.118(6) Uiso 0.65 1 d P . 1
H2SA H 0.4910 -0.1712 1.2580 0.177 Uiso 0.65 1 d PR . 1
H2SB H 0.5310 -0.2315 1.2780 0.177 Uiso 0.65 1 d PR . 1
H2SC H 0.5993 -0.1840 1.2723 0.177 Uiso 0.65 1 d PR . 1
C3S C 0.5573(14) -0.2456(8) 1.1307(13) 0.129(6) Uiso 0.65 1 d P B 1
H3SA H 0.5292 -0.2500 1.0655 0.194 Uiso 0.65 1 calc PR B 1
H3SB H 0.5570 -0.2811 1.1591 0.194 Uiso 0.65 1 calc PR B 1
H3SC H 0.6246 -0.2323 1.1502 0.194 Uiso 0.65 1 calc PR B 1
O2S O 0.0347(13) -0.1589(7) 0.6914(12) 0.133(5) Uiso 0.50 1 d P . 1
N2S N 0.1405(11) -0.1716(6) 0.8420(9) 0.088(4) Uiso 0.50 1 d PD C 1
C4S C 0.0601(16) -0.1482(9) 0.7728(15) 0.107(6) Uiso 0.50 1 d P . 1
H4SA H 0.0221 -0.1217 0.7889 0.128 Uiso 0.50 1 d PR . 1
C5S C 0.1580(14) -0.1592(8) 0.9352(9) 0.089(5) Uiso 0.50 1 d PD C 1
H5SA H 0.2171 -0.1783 0.9750 0.133 Uiso 0.50 1 calc PR C 1
H5SB H 0.1021 -0.1715 0.9477 0.133 Uiso 0.50 1 calc PR C 1
H5SC H 0.1667 -0.1195 0.9452 0.133 Uiso 0.50 1 calc PR C 1
C6S C 0.2064(16) -0.2060(9) 0.8162(16) 0.112(7) Uiso 0.50 1 d PD C 1
H6SA H 0.2592 -0.2200 0.8702 0.169 Uiso 0.50 1 calc PR C 1
H6SB H 0.2342 -0.1839 0.7816 0.169 Uiso 0.50 1 calc PR C 1
H6SC H 0.1698 -0.2369 0.7797 0.169 Uiso 0.50 1 calc PR C 1
O3S O 0.2659(13) -0.1977(6) 0.8369(11) 0.077(4) Uiso 0.35 1 d P D 2
N3S N 0.2632(9) -0.1765(5) 0.9706(8) 0.045(3) Uiso 0.35 1 d PD D 2
C7S C 0.2188(16) -0.1812(9) 0.8848(14) 0.066(5) Uiso 0.35 1 d P D 2
H7SA H 0.1513 -0.1725 0.8564 0.079 Uiso 0.35 1 calc PR D 2
C8S C 0.2148(14) -0.1593(8) 1.0290(12) 0.060(4) Uiso 0.35 1 d PD D 2
H8SA H 0.1465 -0.1501 0.9925 0.090 Uiso 0.35 1 calc PR D 2
H8SB H 0.2482 -0.1270 1.0636 0.090 Uiso 0.35 1 calc PR D 2
H8SC H 0.2172 -0.1894 1.0700 0.090 Uiso 0.35 1 calc PR D 2
C9S C 0.3672(12) -0.1900(13) 1.012(2) 0.079(8) Uiso 0.35 1 d PD D 2
H9SA H 0.3900 -0.2003 0.9647 0.119 Uiso 0.35 1 calc PR D 2
H9SB H 0.3773 -0.2209 1.0531 0.119 Uiso 0.35 1 calc PR D 2
H9SC H 0.4040 -0.1580 1.0443 0.119 Uiso 0.35 1 calc PR D 2

loop_
_atom_site_aniso_label
_atom_site_aniso_U_11
_atom_site_aniso_U_22
_atom_site_aniso_U_33
_atom_site_aniso_U_23
_atom_site_aniso_U_13
_atom_site_aniso_U_12
Zn1 0.0205(3) 0.0225(3) 0.0444(3) -0.00205(19) 0.0177(2) -0.00277(17)
O1 0.0280(15) 0.0233(14) 0.060(2) 0.0065(13) 0.0243(15) -0.0023(11)
O2 0.0220(14) 0.0214(13) 0.055(2) -0.0001(13) 0.0143(14) -0.0078(11)
O3 0.0294(15) 0.0275(14) 0.059(2) 0.0025(14) 0.0299(15) -0.0004(12)
O4 0.0255(15) 0.0290(15) 0.0487(19) -0.0029(13) 0.0178(14) -0.0070(12)
O5 0.0298(16) 0.0369(16) 0.048(2) 0.0065(14) 0.0209(15) -0.0025(13)
N1 0.0196(15) 0.0242(15) 0.042(2) -0.0028(14) 0.0186(14) -0.0033(12)
N2 0.0235(17) 0.0328(18) 0.046(2) -0.0006(16) 0.0179(16) 0.0020(14)
C1 0.0237(19) 0.0232(19) 0.047(3) 0.0011(17) 0.0165(18) -0.0040(15)
C2 0.0207(19) 0.027(2) 0.064(3) 0.0018(19) 0.024(2) -0.0039(15)
C3 0.025(2) 0.027(2) 0.061(3) 0.0032(19) 0.023(2) -0.0025(16)
C4 0.0240(19) 0.0244(19) 0.049(3) 0.0023(17) 0.0190(19) -0.0032(15)
C5 0.029(2) 0.028(2) 0.065(3) 0.005(2) 0.030(2) -0.0049(17)
C6 0.027(2) 0.029(2) 0.056(3) 0.0031(19) 0.026(2) -0.0002(16)
C7 0.0230(19) 0.0236(18) 0.049(3) -0.0005(17) 0.0206(18) -0.0018(15)
C8 0.0244(19) 0.0212(18) 0.059(3) 0.0025(18) 0.020(2) -0.0042(15)
C9 0.029(2) 0.032(2) 0.050(3) 0.005(2) 0.012(2) -0.0113(18)
C10 0.031(2) 0.031(2) 0.048(3) 0.0052(19) 0.012(2) -0.0081(18)
C11 0.0261(19) 0.0158(16) 0.048(3) 0.0019(16) 0.0185(19) -0.0055(14)
C12 0.031(2) 0.033(2) 0.046(3) 0.0011(19) 0.016(2) -0.0063(18)
C13 0.028(2) 0.043(3) 0.050(3) 0.005(2) 0.021(2) -0.0097(19)
C14 0.0233(19) 0.0175(16) 0.047(3) 0.0019(16) 0.0184(18) -0.0019(14)
C15 0.0175(17) 0.0253(18) 0.052(3) -0.0002(17) 0.0204(18) -0.0036(14)
C16 0.0224(19) 0.033(2) 0.044(3) 0.0007(18) 0.0196(18) -0.0056(16)
C17 0.0211(18) 0.0266(18) 0.049(3) -0.0006(18) 0.0186(18) -0.0008(15)
C18 0.0152(17) 0.039(2) 0.048(3) 0.0000(19) 0.0163(18) -0.0017(16)
C19 0.0170(17) 0.039(2) 0.045(3) 0.0009(19) 0.0178(17) -0.0059(16)
C20 0.0235(19) 0.033(2) 0.045(3) 0.0025(19) 0.0196(18) 0.0028(16)
C21 0.0183(18) 0.036(2) 0.041(2) -0.0002(18) 0.0176(17) 0.0044(15)
C22 0.0217(19) 0.034(2) 0.049(3) 0.0028(19) 0.0186(19) 0.0009(16)
C23 0.025(2) 0.030(2) 0.052(3) 0.0008(19) 0.017(2) 0.0000(16)

_geom_special_details            
; 
 All esds (except the esd in the dihedral angle between two l.s. planes) 
 are estimated using the full covariance matrix.  The cell esds are taken 
 into account individually in the estimation of esds in distances, angles 
 and torsion angles; correlations between esds in cell parameters are only 
 used when they are defined by crystal symmetry.  An approximate (isotropic) 
 treatment of cell esds is used for estimating esds involving l.s. planes. 
;

loop_
_geom_bond_atom_site_label_1
_geom_bond_atom_site_label_2
_geom_bond_distance
_geom_bond_site_symmetry_2
_geom_bond_publ_flag
Zn1 O5 1.965(3) 4_556 ?
Zn1 O4 1.999(3) 3 ?
Zn1 O2 2.010(3) . ?
Zn1 N1 2.043(4) . ?
Zn1 O3 2.297(3) . ?
Zn1 C7 2.493(4) . ?
O1 C4 1.389(5) . ?
O1 C8 1.398(5) . ?
O2 C7 1.293(5) . ?
O3 C7 1.251(5) . ?
O4 C14 1.266(5) . ?
O4 Zn1 1.999(3) 3_445 ?
O5 C14 1.250(5) . ?
O5 Zn1 1.965(3) 4_546 ?
N1 C15 1.341(5) . ?
N1 C19 1.361(5) . ?
N2 C20 1.261(6) . ?
N2 C21 1.424(6) . ?
C1 C2 1.389(6) . ?
C1 C6 1.390(6) . ?
C1 C7 1.485(6) . ?
C2 C3 1.381(6) . ?
C2 H2A 0.9500 . ?
C3 C4 1.398(5) . ?
C3 H3A 0.9500 . ?
C4 C5 1.394(6) . ?
C5 C6 1.395(6) . ?
C5 H5A 0.9500 . ?
C6 H6A 0.9500 . ?
C8 C13 1.385(7) . ?
C8 C9 1.391(7) . ?
C9 C10 1.376(6) . ?
C9 H9A 0.9500 . ?
C10 C11 1.397(6) . ?
C10 H10A 0.9500 . ?
C11 C12 1.388(7) . ?
C11 C14 1.500(5) . ?
C12 C13 1.388(6) . ?
C12 H12A 0.9500 . ?
C13 H13A 0.9500 . ?
C15 C16 1.362(7) . ?
C15 H15A 0.9500 . ?
C16 C17 1.391(6) . ?
C16 H16A 0.9500 . ?
C17 C18 1.381(6) . ?
C17 C20 1.487(7) . ?
C18 C19 1.382(7) . ?
C18 H18A 0.9500 . ?
C19 H19A 0.9500 . ?
C20 H20A 0.9500 . ?
C21 C23 1.384(6) . ?
C21 C22 1.418(6) . ?
C22 C23 1.387(7) 5 ?
C22 H22A 0.9500 . ?
C23 C22 1.387(7) 5 ?
C23 H23A 0.9500 . ?
O1S C1S 1.24(2) . ?
N1S C1S 1.295(19) . ?
N1S C3S 1.40(2) . ?
N1S C2S 1.42(2) . ?
N1S C2S 1.85(3) 2_657 ?
C1S H1SA 0.9500 . ?
C2S C2S 1.02(3) 2_657 ?
C2S N1S 1.85(3) 2_657 ?
C2S H2SA 0.9600 . ?
C2S H2SB 0.9599 . ?
C2S H2SC 0.9601 . ?
C3S H3SA 0.9800 . ?
C3S H3SB 0.9800 . ?
C3S H3SC 0.9800 . ?
O2S C4S 1.25(3) . ?
O2S C4S 1.75(3) 2_556 ?
N2S C4S 1.40(2) . ?
N2S C5S 1.463(9) . ?
N2S C6S 1.471(10) . ?
C4S C4S 1.65(4) 2_556 ?
C4S O2S 1.75(3) 2_556 ?
C4S H4SA 0.9600 . ?
C5S H5SA 0.9800 . ?
C5S H5SB 0.9800 . ?
C5S H5SC 0.9800 . ?
C6S H6SA 0.9800 . ?
C6S H6SB 0.9800 . ?
C6S H6SC 0.9800 . ?
O3S C7S 1.30(3) . ?
N3S C7S 1.29(2) . ?
N3S C9S 1.463(10) . ?
N3S C8S 1.462(9) . ?
C7S H7SA 0.9500 . ?
C8S H8SA 0.9800 . ?
C8S H8SB 0.9800 . ?
C8S H8SC 0.9800 . ?
C9S H9SA 0.9800 . ?
C9S H9SB 0.9800 . ?
C9S H9SC 0.9800 . ?

loop_
_geom_angle_atom_site_label_1
_geom_angle_atom_site_label_2
_geom_angle_atom_site_label_3
_geom_angle
_geom_angle_site_symmetry_1
_geom_angle_site_symmetry_3
_geom_angle_publ_flag
O5 Zn1 O4 103.67(13) 4_556 3 ?
O5 Zn1 O2 136.17(14) 4_556 . ?
O4 Zn1 O2 98.51(12) 3 . ?
O5 Zn1 N1 106.49(14) 4_556 . ?
O4 Zn1 N1 98.30(13) 3 . ?
O2 Zn1 N1 107.08(14) . . ?
O5 Zn1 O3 89.77(12) 4_556 . ?
O4 Zn1 O3 158.84(12) 3 . ?
O2 Zn1 O3 61.01(11) . . ?
N1 Zn1 O3 93.33(13) . . ?
O5 Zn1 C7 114.50(14) 4_556 . ?
O4 Zn1 C7 129.47(13) 3 . ?
O2 Zn1 C7 31.08(12) . . ?
N1 Zn1 C7 101.09(14) . . ?
O3 Zn1 C7 29.94(12) . . ?
C4 O1 C8 115.4(3) . . ?
C7 O2 Zn1 95.5(2) . . ?
C7 O3 Zn1 83.7(2) . . ?
C14 O4 Zn1 132.2(3) . 3_445 ?
C14 O5 Zn1 138.3(3) . 4_546 ?
C15 N1 C19 116.8(4) . . ?
C15 N1 Zn1 121.5(3) . . ?
C19 N1 Zn1 121.1(3) . . ?
C20 N2 C21 117.3(4) . . ?
C2 C1 C6 119.8(4) . . ?
C2 C1 C7 120.9(4) . . ?
C6 C1 C7 119.2(4) . . ?
C3 C2 C1 