####################################################################### 
# 
# This file contains crystal structure data downloaded from the 
# Cambridge Structural Database (CSD) hosted by the Cambridge 
# Crystallographic Data Centre (CCDC).
# 
# Full information about CCDC data access policies and citation 
# guidelines are available at http://www.ccdc.cam.ac.uk/access/V1 
# 
# Audit and citation data items may have been added by the CCDC. 
# Please retain this information to preserve the provenance of 
# this file and to allow appropriate attribution of the data. 
# 
#######################################################################

data_1.[RhI(COMe)(CO)(CH3CN)]I
_audit_block_doi                 10.5517/cc126r56
_database_code_depnum_ccdc_archive 'CCDC 989587'
loop_
_citation_id
_citation_doi
_citation_year
1 10.1038/nchem.2045 2014
_audit_update_record             
;
2014-05-16 deposited with the CCDC.	2024-07-09 downloaded from the CCDC.
;

_audit_creation_method           SHELXL-2013
_chemical_name_systematic        
;
 ?
;
_chemical_name_common            ?
_chemical_melting_point          ?
_chemical_formula_moiety         ?
_chemical_formula_sum            'C80 H72 Cl0 I2 Mn3 N13 O14 Rh'
_chemical_formula_weight         1961.03

loop_
_atom_type_symbol
_atom_type_description
_atom_type_scat_dispersion_real
_atom_type_scat_dispersion_imag
_atom_type_scat_source
C C 0.0033 0.0016 'International Tables Vol C Tables 4.2.6.8 and 6.1.1.4'
H H 0.0000 0.0000 'International Tables Vol C Tables 4.2.6.8 and 6.1.1.4'
N N 0.0061 0.0033 'International Tables Vol C Tables 4.2.6.8 and 6.1.1.4'
O O 0.0106 0.0060 'International Tables Vol C Tables 4.2.6.8 and 6.1.1.4'
Mn Mn 0.3368 0.7283 'International Tables Vol C Tables 4.2.6.8 and 6.1.1.4'
Rh Rh -1.1178 0.9187 'International Tables Vol C Tables 4.2.6.8 and 6.1.1.4'
I I -0.4742 1.8119 'International Tables Vol C Tables 4.2.6.8 and 6.1.1.4'
Cl Cl 0.1484 0.1585 'International Tables Vol C Tables 4.2.6.8 and 6.1.1.4'

_space_group_crystal_system      monoclinic
_space_group_IT_number           11
_space_group_name_H-M_alt        'P 21/m'
_space_group_name_Hall           '-P 2yb'

_shelx_space_group_comment       
;
The symmetry employed for this shelxl refinement is uniquely defined
by the following loop, which should always be used as a source of
symmetry information in preference to the above space-group names.
They are only intended as comments.
;

loop_
_space_group_symop_operation_xyz
'x, y, z'
'-x, y+1/2, -z'
'-x, -y, -z'
'x, -y-1/2, z'

_cell_length_a                   12.3582(5)
_cell_length_b                   33.9509(15)
_cell_length_c                   12.9507(6)
_cell_angle_alpha                90
_cell_angle_beta                 99.890(4)
_cell_angle_gamma                90
_cell_volume                     5353.0(4)
_cell_formula_units_Z            2
_cell_measurement_temperature    105(8)
_cell_measurement_reflns_used    4822
_cell_measurement_theta_min      2.5687
_cell_measurement_theta_max      29.1299

_exptl_crystal_description       rod
_exptl_crystal_colour            orange
_exptl_crystal_density_meas      ?
_exptl_crystal_density_method    ?
_exptl_crystal_density_diffrn    1.217
_exptl_crystal_F_000             1962
_exptl_transmission_factor_min   ?
_exptl_transmission_factor_max   ?
_exptl_crystal_size_max          0.30
_exptl_crystal_size_mid          0.10
_exptl_crystal_size_min          0.09
_exptl_absorpt_coefficient_mu    1.128
_exptl_absorpt_correction_T_min  0.31270
_exptl_absorpt_correction_T_max  1.00000
_exptl_absorpt_correction_type   multi-scan
_exptl_absorpt_process_details   
;
CrysAlisPro, Agilent Technologies,
Version 1.171.35.21 (release 20-01-2012 CrysAlis171 .NET)
(compiled Jan 23 2012,18:06:46)
Empirical absorption correction using spherical harmonics,
 implemented in SCALE3 ABSPACK scaling algorithm.
;

_exptl_special_details           
;
 ?
;

_diffrn_ambient_temperature      105(8)
_diffrn_radiation_wavelength     0.71073
_diffrn_radiation_type           'Mo K\a'
_diffrn_radiation_source         'Enhance (Mo) X-ray Source'
_diffrn_radiation_monochromator  graphite
_diffrn_measurement_device_type  'Xcalibur, Eos'
_diffrn_measurement_method       'phi scans'
_diffrn_detector_area_resol_mean 16.1695
_diffrn_reflns_number            39247
_diffrn_reflns_av_unetI/netI     0.1585
_diffrn_reflns_av_R_equivalents  0.0852
_diffrn_reflns_limit_h_min       -15
_diffrn_reflns_limit_h_max       15
_diffrn_reflns_limit_k_min       -44
_diffrn_reflns_limit_k_max       39
_diffrn_reflns_limit_l_min       -17
_diffrn_reflns_limit_l_max       17
_diffrn_reflns_theta_min         2.574
_diffrn_reflns_theta_max         29.194
_diffrn_reflns_theta_full        27.000
_diffrn_measured_fraction_theta_max 0.866
_diffrn_measured_fraction_theta_full 0.989
_diffrn_reflns_Laue_measured_fraction_max 0.866
_diffrn_reflns_Laue_measured_fraction_full 0.989
_diffrn_reflns_point_group_measured_fraction_max 0.866
_diffrn_reflns_point_group_measured_fraction_full 0.989
_reflns_number_total             12747
_reflns_number_gt                6280
_reflns_threshold_expression     'I > 2\s(I)'
_reflns_Friedel_coverage         0.000
_reflns_Friedel_fraction_max     .
_reflns_Friedel_fraction_full    .

_reflns_special_details          
;
 Reflections were merged by SHELXL according to the crystal
 class for the calculation of statistics and refinement.
 
 _reflns_Friedel_fraction is defined as the number of unique
 Friedel pairs measured divided by the number that would be
 possible theoretically, ignoring centric projections and
 systematic absences.
;

_computing_data_collection       
;
CrysAlisPro, Agilent Technologies,
Version 1.171.35.21 (release 20-01-2012 CrysAlis171 .NET)
(compiled Jan 23 2012,18:06:46)
;
_computing_cell_refinement       
;
CrysAlisPro, Agilent Technologies,
Version 1.171.35.21 (release 20-01-2012 CrysAlis171 .NET)
(compiled Jan 23 2012,18:06:46)
;
_computing_data_reduction        
;
CrysAlisPro, Agilent Technologies,
Version 1.171.35.21 (release 20-01-2012 CrysAlis171 .NET)
(compiled Jan 23 2012,18:06:46)
;
_computing_structure_solution    'SHELXS-2013 (Sheldrick, 2013)'
_computing_structure_refinement  'SHELXL-2013 (Sheldrick, 2013)'
_computing_molecular_graphics    'X-Seed (Barbour, 2003)'
_computing_publication_material  'CIFTAB (Sheldrick)'

_refine_special_details          
;
 ?
;
_refine_ls_structure_factor_coef Fsqd
_refine_ls_matrix_type           full
_refine_ls_weighting_scheme      calc
_refine_ls_weighting_details     
'w=1/[\s^2^(Fo^2^)+(0.1735P)^2^] where P=(Fo^2^+2Fc^2^)/3'
_atom_sites_solution_primary     ?
_atom_sites_solution_secondary   ?
_atom_sites_solution_hydrogens   mixed
_refine_ls_hydrogen_treatment    constr
_refine_ls_extinction_method     none
_refine_ls_extinction_coef       .
_refine_ls_number_reflns         12747
_refine_ls_number_parameters     524
_refine_ls_number_restraints     14
_refine_ls_R_factor_all          0.1706
_refine_ls_R_factor_gt           0.1076
_refine_ls_wR_factor_ref         0.3271
_refine_ls_wR_factor_gt          0.2892
_refine_ls_goodness_of_fit_ref   1.001
_refine_ls_restrained_S_all      1.001
_refine_ls_shift/su_max          0.000
_refine_ls_shift/su_mean         0.000

loop_
_atom_site_label
_atom_site_type_symbol
_atom_site_fract_x
_atom_site_fract_y
_atom_site_fract_z
_atom_site_U_iso_or_equiv
_atom_site_adp_type
_atom_site_occupancy
_atom_site_site_symmetry_order
_atom_site_calc_flag
_atom_site_refinement_flags_posn
_atom_site_refinement_flags_adp
_atom_site_refinement_flags_occupancy
_atom_site_disorder_assembly
_atom_site_disorder_group
Mn1 Mn 0.20143(7) 0.06808(3) 0.10695(7) 0.0199(3) Uani 1 1 d . . . . .
Mn2 Mn 0.0000 0.0000 0.0000 0.0238(3) Uani 1 2 d S . P . .
Rh3 Rh 0.72855(9) -0.2500 0.19066(8) 0.0513(3) Uani 1 2 d S T P . .
I1 I 0.87112(16) -0.2500 0.40123(15) 0.0878(6) Uani 0.6 2 d S T P A 1
I2 I 0.6028(7) -0.2500 -0.0299(4) 0.204(3) Uani 0.4 2 d S T P A 2
C1 C 0.3017(5) 0.1444(2) 0.2476(5) 0.0254(14) Uani 1 1 d . . . . .
H1A H 0.3283 0.1686 0.2866 0.030 Uiso 1 1 calc R U . . .
H1B H 0.2390 0.1518 0.1928 0.030 Uiso 1 1 calc R U . . .
N11 N 0.3882(4) 0.12882(17) 0.1982(4) 0.0223(12) Uani 1 1 d . . . . .
N12 N 0.3624(4) 0.09860(17) 0.1306(4) 0.0203(11) Uani 1 1 d . . . . .
C13 C 0.4573(5) 0.0876(2) 0.1033(5) 0.0251(15) Uani 1 1 d . . . . .
C14 C 0.5427(5) 0.1120(2) 0.1530(5) 0.0280(15) Uani 1 1 d . . . . .
C15 C 0.4974(5) 0.1373(2) 0.2145(6) 0.0321(16) Uani 1 1 d . . . . .
C16 C 0.4565(6) 0.0538(2) 0.0277(6) 0.0381(18) Uani 1 1 d . . . . .
H16A H 0.4517 0.0289 0.0648 0.057 Uiso 1 1 calc R U . . .
H16B H 0.5242 0.0542 -0.0021 0.057 Uiso 1 1 calc R U . . .
H16C H 0.3930 0.0563 -0.0288 0.057 Uiso 1 1 calc R U . . .
C17 C 0.5505(6) 0.1684(3) 0.2892(8) 0.058(3) Uani 1 1 d . . . . .
H17A H 0.6295 0.1692 0.2880 0.087 Uiso 1 1 calc R U . . .
H17B H 0.5384 0.1623 0.3603 0.087 Uiso 1 1 calc R U . . .
H17C H 0.5180 0.1941 0.2680 0.087 Uiso 1 1 calc R U . . .
C21 C 0.6603(5) 0.1075(2) 0.1421(5) 0.0284(15) Uani 1 1 d . . . . .
C22 C 0.7100(5) 0.0703(2) 0.1498(6) 0.0329(16) Uani 1 1 d . . . . .
H22 H 0.6689 0.0480 0.1649 0.039 Uiso 1 1 calc R U . . .
C23 C 0.8152(5) 0.0655(2) 0.1362(6) 0.0299(16) Uani 1 1 d . . . . .
H23 H 0.8464 0.0398 0.1418 0.036 Uiso 1 1 calc R U . . .
C24 C 0.8783(6) 0.0968(2) 0.1145(6) 0.0380(18) Uani 1 1 d . . . . .
C25 C 0.8285(6) 0.1348(3) 0.1063(7) 0.0419(19) Uani 1 1 d . . . . .
H25 H 0.8688 0.1571 0.0901 0.050 Uiso 1 1 calc R U . . .
C26 C 0.7244(5) 0.1390(2) 0.1215(6) 0.0368(18) Uani 1 1 d . . . . .
H26 H 0.6934 0.1647 0.1179 0.044 Uiso 1 1 calc R U . . .
C27 C 0.9930(5) 0.0905(2) 0.1012(5) 0.0264(15) Uani 1 1 d . . . . .
O28 O 1.0272(3) 0.05505(15) 0.0964(4) 0.0285(11) Uani 1 1 d . . . . .
O29 O 1.0580(3) 0.11958(16) 0.0999(4) 0.0372(13) Uani 1 1 d . . . . .
N31 N 0.2641(4) 0.11713(18) 0.3185(4) 0.0251(12) Uani 1 1 d . . . . .
N32 N 0.2116(4) 0.08395(18) 0.2805(4) 0.0265(13) Uani 1 1 d . . . . .
C33 C 0.1829(5) 0.0652(2) 0.3613(5) 0.0308(16) Uani 1 1 d . . . . .
C34 C 0.2135(6) 0.0872(2) 0.4532(5) 0.0326(16) Uani 1 1 d . . . . .
C35 C 0.2696(5) 0.1201(2) 0.4236(5) 0.0319(17) Uani 1 1 d . . . . .
C36 C 0.1244(7) 0.0270(2) 0.3474(6) 0.0404(19) Uani 1 1 d . . . . .
H36A H 0.1025 0.0215 0.2725 0.061 Uiso 1 1 calc R U . . .
H36B H 0.0589 0.0282 0.3806 0.061 Uiso 1 1 calc R U . . .
H36C H 0.1731 0.0060 0.3800 0.061 Uiso 1 1 calc R U . . .
C37 C 0.3270(8) 0.1537(3) 0.4862(6) 0.059(3) Uani 1 1 d . . . . .
H37A H 0.3576 0.1717 0.4392 0.088 Uiso 0.5 1 calc R U P . .
H37B H 0.3865 0.1434 0.5391 0.088 Uiso 0.5 1 calc R U P . .
H37C H 0.2744 0.1680 0.5208 0.088 Uiso 0.5 1 calc R U P . .
H37D H 0.3214 0.1504 0.5602 0.088 Uiso 0.5 1 calc R U P . .
H37E H 0.2925 0.1786 0.4603 0.088 Uiso 0.5 1 calc R U P . .
H37F H 0.4046 0.1540 0.4786 0.088 Uiso 0.5 1 calc R U P . .
C41 C 0.1975(6) 0.0770(2) 0.5614(5) 0.0322(17) Uani 1 1 d . . . B 1
C42 C 0.2005(7) 0.0395(3) 0.5979(6) 0.050(2) Uani 1 1 d . . . B 1
H42 H 0.2145 0.0184 0.5539 0.060 Uiso 1 1 calc R U . B 1
C43 C 0.1827(7) 0.0314(3) 0.7025(6) 0.048(2) Uani 1 1 d . . . B 1
H43 H 0.1838 0.0050 0.7271 0.057 Uiso 1 1 calc R U . B 1
C44 C 0.1641(5) 0.0618(3) 0.7669(5) 0.0341(19) Uani 1 1 d . . . B 1
C45 C 0.1632(6) 0.0994(3) 0.7303(6) 0.0374(18) Uani 1 1 d . . . B 1
H45 H 0.1537 0.1205 0.7761 0.045 Uiso 1 1 calc R U . B 1
C46 C 0.1757(7) 0.1078(3) 0.6283(6) 0.048(2) Uani 1 1 d . . . B 1
H46 H 0.1697 0.1342 0.6035 0.058 Uiso 1 1 calc R U . B 1
C47 C 0.1508(5) 0.0536(2) 0.8763(5) 0.0266(15) Uani 1 1 d . . . . .
O48 O 0.1054(4) 0.02191(17) 0.8952(4) 0.0384(13) Uani 1 1 d . . . . .
O49 O 0.1862(4) 0.07925(17) 0.9437(3) 0.0335(12) Uani 1 1 d . . . . .
C51 C 0.5823(11) -0.2500 0.3652(10) 0.050(3) Uani 1 2 d S T P . .
H51A H 0.6603 -0.2500 0.3994 0.060 Uiso 1 2 calc R U P . .
H51B H 0.5368 -0.2500 0.4211 0.060 Uiso 1 2 calc R U P . .
N61 N 0.5605(6) -0.21553(18) 0.3051(5) 0.0413(16) Uani 1 1 d . . . . .
N62 N 0.6229(6) -0.20742(19) 0.2306(5) 0.0455(17) Uani 1 1 d . . . . .
C63 C 0.5833(7) -0.1724(2) 0.1851(6) 0.044(2) Uani 1 1 d . . . . .
C64 C 0.4983(7) -0.1590(2) 0.2356(6) 0.0393(19) Uani 1 1 d . . . . .
C65 C 0.4848(7) -0.1868(2) 0.3092(6) 0.043(2) Uani 1 1 d . . . . .
C66 C 0.6248(7) -0.1538(3) 0.0930(7) 0.049(2) Uani 1 1 d . . . . .
H66A H 0.6832 -0.1349 0.1188 0.074 Uiso 1 1 calc R U . . .
H66B H 0.5643 -0.1402 0.0484 0.074 Uiso 1 1 calc R U . . .
H66C H 0.6540 -0.1744 0.0523 0.074 Uiso 1 1 calc R U . . .
C67 C 0.4079(6) -0.1891(2) 0.3875(7) 0.046(2) Uani 1 1 d . . . . .
H67A H 0.3533 -0.2098 0.3664 0.069 Uiso 1 1 calc R U . . .
H67B H 0.3706 -0.1638 0.3902 0.069 Uiso 1 1 calc R U . . .
H67C H 0.4499 -0.1953 0.4569 0.069 Uiso 1 1 calc R U . . .
C71 C 0.4322(6) -0.1234(2) 0.2103(6) 0.042(2) Uani 1 1 d . . . . .
C72 C 0.3207(7) -0.1256(2) 0.1780(8) 0.053(2) Uani 1 1 d . . . . .
H72 H 0.2866 -0.1507 0.1765 0.063 Uiso 1 1 calc R U . . .
C73 C 0.2566(7) -0.0937(3) 0.1480(8) 0.053(2) Uani 1 1 d . . . . .
H73 H 0.1819 -0.0971 0.1166 0.064 Uiso 1 1 calc R U . . .
C74 C 0.3008(6) -0.0564(2) 0.1635(5) 0.0322(16) Uani 1 1 d . . . . .
C75 C 0.4154(6) -0.0529(2) 0.2008(6) 0.0352(17) Uani 1 1 d . . . . .
H75 H 0.4481 -0.0275 0.2098 0.042 Uiso 1 1 calc R U . . .
C76 C 0.4797(6) -0.0859(2) 0.2243(6) 0.0382(18) Uani 1 1 d . . . . .
H76 H 0.5561 -0.0832 0.2499 0.046 Uiso 1 1 calc R U . . .
C77 C 0.2329(5) -0.0217(2) 0.1323(5) 0.0283(15) Uani 1 1 d . . . . .
O78 O 0.2754(4) 0.01333(14) 0.1398(4) 0.0310(11) Uani 1 1 d . . . . .
O79 O 0.1303(4) -0.02695(17) 0.1008(4) 0.0400(13) Uani 1 1 d . . . . .
N91 N 0.8300(11) -0.2100(3) 0.1567(8) 0.083(3) Uani 0.5 1 d D . P A 1
C92 C 0.9056(7) -0.1933(3) 0.1525(11) 0.109(5) Uani 0.5 1 d D U P A 1
C93 C 0.9954(13) -0.1676(5) 0.1153(15) 0.051(5) Uani 0.5 1 d D . P A 1
H93A H 0.9633 -0.1425 0.0884 0.076 Uiso 0.5 1 calc R U P A 1
H93B H 1.0247 -0.1815 0.0597 0.076 Uiso 0.5 1 calc R U P A 1
H93C H 1.0548 -0.1627 0.1744 0.076 Uiso 0.5 1 calc R U P A 1
C94 C 0.8300(11) -0.2100(3) 0.1567(8) 0.083(3) Uani 0.5 1 d D . P A 2
O95 O 0.9056(7) -0.1933(3) 0.1525(11) 0.109(5) Uani 0.5 1 d D U P A 2
C100 C 0.6580 -0.2500 0.0450 0.150 Uiso 0.6 2 d S . P A 1
C102 C 0.7320 -0.2500 -0.0416 0.150 Uiso 0.6 2 d S . P A 1
H10A H 0.7715 -0.2751 -0.0398 0.225 Uiso 0.3 1 d . U P C 1
H10B H 0.7850 -0.2283 -0.0287 0.225 Uiso 0.3 1 d . U P D 1
H10C H 0.6859 -0.2466 -0.1106 0.225 Uiso 0.3 1 d . U P E 1
O101 O 0.5572 -0.2500 0.0521 0.150 Uiso 0.6 2 d S . P A 1
O106 O 0.8451 -0.2168 0.3811 0.150 Uiso 0.2 1 d . . P A 2
C104 C 0.8058 -0.2500 0.3444 0.150 Uiso 0.4 2 d S . P A 2
C105 C 0.8451 -0.2900 0.3966 0.150 Uiso 0.2 1 d . . P A 2
H10D H 0.7693 -0.2982 0.3979 0.225 Uiso 0.2 1 d . U P F 2
H10E H 0.8795 -0.2814 0.4668 0.225 Uiso 0.2 1 d . U P G 2
H10F H 0.8863 -0.3122 0.3746 0.225 Uiso 0.2 1 d . U P H 2
I3 I 0.3403(3) 0.2500 0.34579(13) 0.1229(13) Uani 0.5 2 d S T P . .

loop_
_atom_site_aniso_label
_atom_site_aniso_U_11
_atom_site_aniso_U_22
_atom_site_aniso_U_33
_atom_site_aniso_U_23
_atom_site_aniso_U_13
_atom_site_aniso_U_12
Mn1 0.0205(4) 0.0252(6) 0.0146(5) -0.0024(4) 0.0044(3) -0.0043(4)
Mn2 0.0239(6) 0.0301(9) 0.0185(7) -0.0035(6) 0.0070(5) -0.0100(6)
Rh3 0.0779(7) 0.0254(5) 0.0483(6) 0.000 0.0039(5) 0.000
I1 0.0950(13) 0.0988(17) 0.0630(11) 0.000 -0.0050(10) 0.000
I2 0.430(10) 0.044(2) 0.106(3) 0.000 -0.041(5) 0.000
C1 0.024(3) 0.024(4) 0.029(4) -0.004(3) 0.008(3) -0.001(3)
N11 0.026(2) 0.026(3) 0.019(3) -0.003(2) 0.012(2) -0.005(2)
N12 0.019(2) 0.030(3) 0.012(2) 0.000(2) 0.0023(19) 0.001(2)
C13 0.023(3) 0.037(4) 0.016(3) -0.005(3) 0.007(2) 0.000(3)
C14 0.021(3) 0.036(4) 0.029(4) 0.000(3) 0.007(3) -0.012(3)
C15 0.031(3) 0.037(5) 0.031(4) -0.008(3) 0.012(3) -0.011(3)
C16 0.035(4) 0.039(5) 0.043(5) -0.012(4) 0.015(3) -0.003(3)
C17 0.039(4) 0.071(7) 0.070(6) -0.040(5) 0.021(4) -0.034(4)
C21 0.024(3) 0.034(4) 0.030(4) 0.001(3) 0.011(3) 0.003(3)
C22 0.027(3) 0.031(4) 0.041(4) 0.005(3) 0.007(3) -0.008(3)
C23 0.026(3) 0.028(4) 0.037(4) 0.002(3) 0.008(3) 0.000(3)
C24 0.042(4) 0.039(5) 0.036(4) -0.010(4) 0.015(3) -0.003(3)
C25 0.036(4) 0.034(5) 0.060(5) -0.002(4) 0.021(4) -0.007(3)
C26 0.036(4) 0.026(4) 0.052(5) 0.006(4) 0.015(3) -0.004(3)
C27 0.023(3) 0.030(4) 0.027(3) -0.002(3) 0.005(3) -0.003(3)
O28 0.023(2) 0.038(3) 0.026(2) -0.017(2) 0.0093(19) -0.008(2)
O29 0.018(2) 0.043(3) 0.051(3) -0.005(3) 0.008(2) -0.003(2)
N31 0.032(3) 0.030(3) 0.016(3) -0.008(2) 0.011(2) -0.017(2)
N32 0.033(3) 0.027(3) 0.022(3) -0.011(2) 0.011(2) -0.018(2)
C33 0.032(3) 0.042(5) 0.018(3) -0.005(3) 0.002(3) -0.009(3)
C34 0.041(4) 0.033(4) 0.025(4) -0.003(3) 0.011(3) -0.014(3)
C35 0.029(3) 0.046(5) 0.024(3) -0.006(3) 0.014(3) -0.012(3)
C36 0.062(5) 0.032(5) 0.029(4) -0.012(3) 0.013(4) -0.030(4)
C37 0.081(6) 0.073(7) 0.018(4) -0.009(4) -0.004(4) -0.032(5)
C41 0.044(4) 0.042(5) 0.011(3) -0.007(3) 0.005(3) -0.020(