
#######################################################################
#
#                 Cambridge Crystallographic Data Centre
#                                CCDC
#
#######################################################################
#
# If this CIF has been generated from an entry in the Cambridge
# Structural Database, then it will include bibliographic, chemical,
# crystal, experimental, refinement or atomic coordinate data resulting
# from the CCDC's data processing and validation procedures.
#
#######################################################################

data_CSD_CIF_CORONE
_audit_creation_date 1971-12-31
_audit_creation_method CSD-ConQuest-V1
_database_code_CSD CORONE
_database_code_depnum_ccdc_archive 'CCDC 1129883'
_chemical_formula_sum 'C24 H12'
_chemical_formula_moiety
;
C24 H12
;
_journal_coden_Cambridge 3547
_journal_volume 289
_journal_year 1966
_journal_page_first 366
_journal_name_full 'Proc.R.Soc.London,Ser.A Maths.Phy.Sci. '
loop_
_publ_author_name
"J.K.Fawcett"
"J.Trotter"
_chemical_name_systematic
;
Coronene
;
_chemical_name_common
;
Teaching Subset: Fundamental Chemistry, Symmetry
;
_cell_volume    715.270
_exptl_special_details
;
alpha polymorph

;
_diffrn_ambient_temperature ?
_diffrn_special_details
;
The study was carried out at room temperature,in the range 283-303K

;
#These two values have been output from a single CSD field.
_refine_ls_R_factor_gt 0.157
_refine_ls_wR_factor_gt 0.157
_symmetry_cell_setting monoclinic
_symmetry_space_group_name_H-M 'P 21/a'
_symmetry_Int_Tables_number 14
loop_
_symmetry_equiv_pos_site_id
_symmetry_equiv_pos_as_xyz
1 x,y,z
2 1/2-x,1/2+y,-z
3 -x,-y,-z
4 -1/2+x,-1/2-y,z
_cell_length_a 16.119
_cell_length_b 4.702
_cell_length_c 10.102
_cell_angle_alpha 90
_cell_angle_beta 110.9
_cell_angle_gamma 90
_cell_formula_units_Z 2
loop_
_atom_type_symbol
_atom_type_radius_bond
C 0.68
H 0.20
loop_
_atom_site_label
_atom_site_type_symbol
_atom_site_fract_x
_atom_site_fract_y
_atom_site_fract_z
C1 C -0.12010 -0.40790 0.03810
C2 C -0.06060 -0.20290 0.01830
C3 C 0.00570 -0.08230 0.13800
C4 C -0.06660 -0.12100 -0.12060
C5 C -0.11220 -0.47880 0.17820
C6 C -0.04970 -0.36000 0.29130
C7 C 0.01210 -0.16070 0.27860
C8 C 0.07990 -0.03390 0.39410
C9 C 0.13640 0.15550 0.37610
C10 C -0.13390 -0.24440 -0.24100
C11 C -0.19090 -0.44900 -0.21670
C12 C -0.18430 -0.52860 -0.08470
H1 H -0.15740 -0.63380 0.19460
H2 H -0.04440 -0.42140 0.39400
H3 H 0.08270 -0.09550 0.49550
H4 H 0.18760 0.24620 0.46470
H5 H -0.24060 -0.54400 -0.30840
H6 H -0.22830 -0.68480 -0.06960
C4B C 0.06660 0.12100 0.12060
C3B C -0.00570 0.08230 -0.13800
C10B C 0.13390 0.24440 0.24100
C9B C -0.13640 -0.15550 -0.37610
C2B C 0.06060 0.20290 -0.01830
C7B C -0.01210 0.16070 -0.27860
C11B C 0.19090 0.44900 0.21670
C8B C -0.07990 0.03390 -0.39410
H4B H -0.18760 -0.24620 -0.46470
C1B C 0.12010 0.40790 -0.03810
C6B C 0.04970 0.36000 -0.29130
C12B C 0.18430 0.52860 0.08470
H5B H 0.24060 0.54400 0.30840
H3B H -0.08270 0.09550 -0.49550
C5B C 0.11220 0.47880 -0.17820
H2B H 0.04440 0.42140 -0.39400
H6B H 0.22830 0.68480 0.06960
H1B H 0.15740 0.63380 -0.19460
#END
