####################################################################### 
# 
# This file contains crystal structure data downloaded from the 
# Cambridge Structural Database (CSD) hosted by the Cambridge 
# Crystallographic Data Centre (CCDC).
# 
# Full information about CCDC data access policies and citation 
# guidelines are available at http://www.ccdc.cam.ac.uk/access/V1 
# 
# Audit and citation data items may have been added by the CCDC. 
# Please retain this information to preserve the provenance of 
# this file and to allow appropriate attribution of the data. 
# 
#######################################################################

data_yd0010_0m
_audit_block_doi                 10.5517/cc1309w9
_database_code_depnum_ccdc_archive 'CCDC 1013200'
loop_
_citation_id
_citation_doi
_citation_year
1 10.1016/j.molstruc.2014.12.040 2015
_audit_update_record             
;
2014-07-10 deposited with the CCDC.	2024-07-09 downloaded from the CCDC.
;

_audit_creation_method           SHELXL-97
_chemical_name_systematic        
; 
 ? 
;
_chemical_name_common            ?
_chemical_melting_point          ?
_chemical_formula_moiety         ?
_chemical_formula_sum            'C29 H19.25 Cd2 F6 N2 O10'
_chemical_formula_weight         894.51

loop_
_atom_type_symbol
_atom_type_description
_atom_type_scat_dispersion_real
_atom_type_scat_dispersion_imag
_atom_type_scat_source
C C 0.0033 0.0016 'International Tables Vol C Tables 4.2.6.8 and 6.1.1.4'
H H 0.0000 0.0000 'International Tables Vol C Tables 4.2.6.8 and 6.1.1.4'
Cd Cd -0.8075 1.2024 'International Tables Vol C Tables 4.2.6.8 and 6.1.1.4'
F F 0.0171 0.0103 'International Tables Vol C Tables 4.2.6.8 and 6.1.1.4'
N N 0.0061 0.0033 'International Tables Vol C Tables 4.2.6.8 and 6.1.1.4'
O O 0.0106 0.0060 'International Tables Vol C Tables 4.2.6.8 and 6.1.1.4'

_symmetry_cell_setting           ?
_symmetry_space_group_name_H-M   ?

loop_
_symmetry_equiv_pos_as_xyz
'x, y, z'
'-x, y+1/2, -z+1/2'
'-x, -y, -z'
'x, -y-1/2, z-1/2'

_cell_length_a                   16.0121(8)
_cell_length_b                   7.5502(4)
_cell_length_c                   27.8153(15)
_cell_angle_alpha                90.00
_cell_angle_beta                 99.7330(10)
_cell_angle_gamma                90.00
_cell_volume                     3314.3(3)
_cell_formula_units_Z            4
_cell_measurement_temperature    293(2)
_cell_measurement_reflns_used    ?
_cell_measurement_theta_min      ?
_cell_measurement_theta_max      ?

_exptl_crystal_description       ?
_exptl_crystal_colour            ?
_exptl_crystal_size_max          ?
_exptl_crystal_size_mid          ?
_exptl_crystal_size_min          ?
_exptl_crystal_density_meas      ?
_exptl_crystal_density_diffrn    1.793
_exptl_crystal_density_method    'not measured'
_exptl_crystal_F_000             1749
_exptl_absorpt_coefficient_mu    1.373
_exptl_absorpt_correction_type   ?
_exptl_absorpt_correction_T_min  ?
_exptl_absorpt_correction_T_max  ?
_exptl_absorpt_process_details   ?

_exptl_special_details           
; 
 ? 
;

_diffrn_ambient_temperature      293(2)
_diffrn_radiation_wavelength     0.71073
_diffrn_radiation_type           MoK\a
_diffrn_radiation_source         'fine-focus sealed tube'
_diffrn_radiation_monochromator  graphite
_diffrn_measurement_device_type  ?
_diffrn_measurement_method       ?
_diffrn_detector_area_resol_mean ?
_diffrn_standards_number         ?
_diffrn_standards_interval_count ?
_diffrn_standards_interval_time  ?
_diffrn_standards_decay_%        ?
_diffrn_reflns_number            16738
_diffrn_reflns_av_R_equivalents  0.0147
_diffrn_reflns_av_sigmaI/netI    0.0167
_diffrn_reflns_limit_h_min       -14
_diffrn_reflns_limit_h_max       19
_diffrn_reflns_limit_k_min       -9
_diffrn_reflns_limit_k_max       9
_diffrn_reflns_limit_l_min       -31
_diffrn_reflns_limit_l_max       33
_diffrn_reflns_theta_min         1.29
_diffrn_reflns_theta_max         25.50
_reflns_number_total             6166
_reflns_number_gt                5580
_reflns_threshold_expression     >2sigma(I)

_computing_data_collection       ?
_computing_cell_refinement       ?
_computing_data_reduction        ?
_computing_structure_solution    'SHELXS-97 (Sheldrick, 1990)'
_computing_structure_refinement  'SHELXL-97 (Sheldrick, 1997)'
_computing_molecular_graphics    ?
_computing_publication_material  ?

_refine_special_details          
; 
 Refinement of F^2^ against ALL reflections.  The weighted R-factor wR and 
 goodness of fit S are based on F^2^, conventional R-factors R are based 
 on F, with F set to zero for negative F^2^. The threshold expression of 
 F^2^ > 2sigma(F^2^) is used only for calculating R-factors(gt) etc. and is 
 not relevant to the choice of reflections for refinement.  R-factors based 
 on F^2^ are statistically about twice as large as those based on F, and R- 
 factors based on ALL data will be even larger. 
;

_refine_ls_structure_factor_coef Fsqd
_refine_ls_matrix_type           full
_refine_ls_weighting_scheme      calc
_refine_ls_weighting_details     
'calc w=1/[\s^2^(Fo^2^)+(0.0575P)^2^+5.4480P] where P=(Fo^2^+2Fc^2^)/3'
_atom_sites_solution_primary     direct
_atom_sites_solution_secondary   difmap
_atom_sites_solution_hydrogens   geom
_refine_ls_hydrogen_treatment    mixed
_refine_ls_extinction_method     none
_refine_ls_extinction_coef       ?
_refine_ls_number_reflns         6166
_refine_ls_number_parameters     457
_refine_ls_number_restraints     0
_refine_ls_R_factor_all          0.0314
_refine_ls_R_factor_gt           0.0257
_refine_ls_wR_factor_ref         0.0974
_refine_ls_wR_factor_gt          0.0850
_refine_ls_goodness_of_fit_ref   1.092
_refine_ls_restrained_S_all      1.092
_refine_ls_shift/su_max          0.001
_refine_ls_shift/su_mean         0.000

loop_
_atom_site_label
_atom_site_type_symbol
_atom_site_fract_x
_atom_site_fract_y
_atom_site_fract_z
_atom_site_U_iso_or_equiv
_atom_site_adp_type
_atom_site_occupancy
_atom_site_symmetry_multiplicity
_atom_site_calc_flag
_atom_site_refinement_flags
_atom_site_disorder_assembly
_atom_site_disorder_group
O13 O 0.547(3) 0.562(6) 0.2086(15) 0.093(12) Uiso 0.13 1 d P . .
O10 O 0.5934(14) 0.867(3) 0.1788(8) 0.109(7) Uiso 0.25 1 d P . .
O11 O 0.5190(12) 0.799(3) 0.8395(7) 0.090(5) Uiso 0.25 1 d P . .
O12 O 0.3901(12) 0.586(3) 0.2265(7) 0.085(5) Uiso 0.25 1 d P . .
Cd2 Cd 0.215607(15) 0.52604(3) 0.080136(8) 0.02019(9) Uani 1 1 d . . .
Cd1 Cd 0.150996(15) 0.04265(3) 0.046512(9) 0.02207(9) Uani 1 1 d . . .
O1 O 0.17731(18) 0.2637(3) 0.10964(9) 0.0323(6) Uani 1 1 d . . .
O2 O 0.30694(19) 0.3182(4) 0.14816(10) 0.0408(7) Uani 1 1 d . . .
O3 O 0.24574(15) -0.0928(3) 0.10858(8) 0.0252(5) Uani 1 1 d . . .
O4 O 0.21943(19) -0.3303(3) 0.15094(9) 0.0340(6) Uani 1 1 d . . .
O5 O -0.09657(16) 0.1990(4) 0.44264(10) 0.0385(7) Uani 1 1 d . . .
O6 O -0.03763(17) 0.4465(3) 0.42239(10) 0.0325(6) Uani 1 1 d . . .
O7 O 0.08121(15) 0.2400(3) 0.49984(8) 0.0266(5) Uani 1 1 d . . .
O8 O 0.17962(18) 0.0306(4) 0.50002(9) 0.0362(7) Uani 1 1 d . . .
O9 O 0.1117(2) -0.1137(5) -0.02887(12) 0.0375(7) Uani 1 1 d . . .
N1 N 0.34271(18) 0.6081(4) 0.05865(11) 0.0273(7) Uani 1 1 d . . .
N2 N 0.72262(18) 0.9055(4) -0.01664(11) 0.0286(7) Uani 1 1 d . . .
F1 F 0.3236(2) -0.2372(5) 0.32262(10) 0.0759(11) Uani 1 1 d . . .
F2 F 0.30796(18) -0.0116(5) 0.36690(11) 0.0604(8) Uani 1 1 d . . .
F3 F 0.2751(2) -0.2709(4) 0.38927(9) 0.0698(10) Uani 1 1 d . . .
F4 F 0.1155(3) -0.3807(4) 0.35374(10) 0.0780(11) Uani 1 1 d . . .
F5 F 0.0692(2) -0.3088(4) 0.27943(11) 0.0703(9) Uani 1 1 d . . .
F6 F 0.1886(3) -0.4423(3) 0.29804(11) 0.0760(11) Uani 1 1 d . . .
C1 C 0.2387(3) 0.2412(5) 0.14517(13) 0.0286(8) Uani 1 1 d . . .
C2 C 0.2227(2) 0.1310(5) 0.18848(12) 0.0264(7) Uani 1 1 d . . .
C3 C 0.2166(2) -0.0527(4) 0.18939(12) 0.0228(7) Uani 1 1 d . . .
C4 C 0.2030(2) -0.1380(5) 0.23186(12) 0.0248(7) Uani 1 1 d . . .
H4 H 0.2005 -0.2610 0.2324 0.030 Uiso 1 1 calc R . .
C5 C 0.1932(2) -0.0439(5) 0.27338(13) 0.0268(8) Uani 1 1 d . . .
C6 C 0.2002(3) 0.1394(5) 0.27210(14) 0.0404(10) Uani 1 1 d . . .
H6 H 0.1952 0.2052 0.2997 0.048 Uiso 1 1 calc R . .
C7 C 0.2146(3) 0.2256(5) 0.23041(14) 0.0417(10) Uani 1 1 d . . .
H7 H 0.2188 0.3484 0.2304 0.050 Uiso 1 1 calc R . .
C8 C 0.2283(2) -0.1662(5) 0.14643(12) 0.0236(7) Uani 1 1 d . . .
C9 C 0.1822(2) -0.1360(5) 0.32154(13) 0.0293(8) Uani 1 1 d . . .
C10 C 0.1385(4) -0.3177(6) 0.31327(16) 0.0511(13) Uani 1 1 d . . .
C11 C 0.2728(3) -0.1630(7) 0.35067(15) 0.0489(13) Uani 1 1 d . . .
C12 C 0.1263(3) -0.0247(5) 0.35052(13) 0.0272(8) Uani 1 1 d . . .
C13 C 0.0524(3) 0.0515(6) 0.32544(14) 0.0395(10) Uani 1 1 d . . .
H13 H 0.0384 0.0363 0.2919 0.047 Uiso 1 1 calc R . .
C14 C -0.0001(3) 0.1490(6) 0.34964(14) 0.0411(10) Uani 1 1 d . . .
H14 H -0.0492 0.1986 0.3322 0.049 Uiso 1 1 calc R . .
C15 C 0.0193(2) 0.1744(5) 0.39966(12) 0.0258(7) Uani 1 1 d . . .
C16 C 0.0921(2) 0.0966(5) 0.42539(12) 0.0217(7) Uani 1 1 d . . .
C17 C 0.1446(2) -0.0028(5) 0.40051(12) 0.0246(7) Uani 1 1 d . . .
H17 H 0.1930 -0.0553 0.4179 0.030 Uiso 1 1 calc R . .
C18 C -0.0414(2) 0.2796(5) 0.42417(12) 0.0253(7) Uani 1 1 d . . .
C19 C 0.1189(2) 0.1235(5) 0.47959(12) 0.0216(7) Uani 1 1 d . . .
C20 C 0.3458(3) 0.6583(7) 0.01294(15) 0.0412(10) Uani 1 1 d . . .
H20 H 0.2963 0.6531 -0.0100 0.049 Uiso 1 1 calc R . .
C21 C 0.4187(3) 0.7174(6) -0.00196(15) 0.0418(10) Uani 1 1 d . . .
H21 H 0.4172 0.7507 -0.0343 0.050 Uiso 1 1 calc R . .
C22 C 0.4941(2) 0.7277(5) 0.03049(14) 0.0281(8) Uani 1 1 d . . .
C23 C 0.4905(3) 0.6769(8) 0.07762(16) 0.0542(14) Uani 1 1 d . . .
H23 H 0.5389 0.6816 0.1014 0.065 Uiso 1 1 calc R . .
C24 C 0.4145(3) 0.6187(8) 0.08959(16) 0.0532(14) Uani 1 1 d . . .
H24 H 0.4142 0.5848 0.1217 0.064 Uiso 1 1 calc R . .
C25 C 0.5732(2) 0.7917(5) 0.01466(14) 0.0281(8) Uani 1 1 d . . .
C26 C 0.5774(2) 0.8170(6) -0.03429(14) 0.0352(9) Uani 1 1 d . . .
H26 H 0.5299 0.7956 -0.0578 0.042 Uiso 1 1 calc R . .
C27 C 0.6518(2) 0.8738(6) -0.04838(14) 0.0326(9) Uani 1 1 d . . .
H27 H 0.6525 0.8907 -0.0814 0.039 Uiso 1 1 calc R . .
C28 C 0.7184(2) 0.8839(6) 0.03067(14) 0.0352(9) Uani 1 1 d . . .
H28 H 0.7667 0.9074 0.0534 0.042 Uiso 1 1 calc R . .
C29 C 0.6464(2) 0.8287(6) 0.04776(14) 0.0362(9) Uani 1 1 d . . .
H29 H 0.6470 0.8164 0.0811 0.043 Uiso 1 1 calc R . .
H9A H 0.076(3) -0.064(7) -0.0480(19) 0.045(15) Uiso 1 1 d . . .
H9B H 0.102(3) -0.198(7) -0.0196(18) 0.040(16) Uiso 1 1 d . . .

loop_
_atom_site_aniso_label
_atom_site_aniso_U_11
_atom_site_aniso_U_22
_atom_site_aniso_U_33
_atom_site_aniso_U_23
_atom_site_aniso_U_13
_atom_site_aniso_U_12
Cd2 0.02467(15) 0.02114(15) 0.01575(14) -0.00123(9) 0.00621(10) -0.00284(9)
Cd1 0.02183(15) 0.02543(16) 0.01964(15) 0.00301(9) 0.00553(10) -0.00273(9)
O1 0.0524(17) 0.0235(13) 0.0198(12) 0.0026(10) 0.0026(12) -0.0012(12)
O2 0.0466(17) 0.0395(16) 0.0384(16) -0.0004(13) 0.0134(13) -0.0117(14)
O3 0.0300(13) 0.0296(13) 0.0175(12) 0.0005(10) 0.0082(10) 0.0024(10)
O4 0.0624(18) 0.0209(13) 0.0208(13) -0.0042(10) 0.0129(12) 0.0001(12)
O5 0.0302(14) 0.0517(18) 0.0353(15) -0.0113(13) 0.0108(12) -0.0083(13)
O6 0.0307(14) 0.0331(16) 0.0356(15) 0.0000(11) 0.0113(12) 0.0103(11)
O7 0.0298(13) 0.0296(13) 0.0205(12) -0.0077(10) 0.0046(10) 0.0053(10)
O8 0.0410(16) 0.0505(18) 0.0175(13) 0.0032(11) 0.0065(12) 0.0220(13)
O9 0.0462(19) 0.0331(18) 0.0327(17) 0.0008(14) 0.0051(14) -0.0023(15)
N1 0.0257(15) 0.0303(16) 0.0277(16) -0.0010(13) 0.0099(13) -0.0047(13)
N2 0.0245(15) 0.0348(17) 0.0286(16) 0.0016(14) 0.0104(13) -0.0018(13)
F1 0.074(2) 0.118(3) 0.0398(15) 0.0010(17) 0.0214(15) 0.062(2)
F2 0.0441(16) 0.091(2) 0.0453(16) -0.0117(15) 0.0046(13) 0.0056(15)
F3 0.101(2) 0.081(2) 0.0291(13) 0.0160(14) 0.0148(14) 0.0583(19)
F4 0.157(3) 0.0430(17) 0.0497(17) -0.0025(13) 0.063(2) -0.0171(19)
F5 0.094(2) 0.069(2) 0.0510(17) -0.0202(15) 0.0213(17) -0.0372(19)
F6 0.158(4) 0.0273(14) 0.0558(18) 0.0004(12) 0.057(2) 0.0172(17)
C1 0.050(2) 0.0187(17) 0.0202(18) -0.0020(14) 0.0141(16) -0.0008(16)
C2 0.038(2) 0.0228(18) 0.0189(17) 0.0005(14) 0.0065(15) 0.0011(15)
C3 0.0293(18) 0.0234(18) 0.0164(16) -0.0012(13) 0.0058(14) 0.0023(13)
C4 0.0349(19) 0.0208(17) 0.0199(17) -0.0009(13) 0.0083(14) 0.0031(14)
C5 0.040(2) 0.0250(19) 0.0170(17) 0.0007(13) 0.0096(15) 0.0066(15)
C6 0.075(3) 0.027(2) 0.0219(19) -0.0067(16) 0.0179(19) 0.005(2)
C7 0.081(3) 0.0211(19) 0.026(2) -0.0028(15) 0.015(2) -0.0005(19)
C8 0.0265(17) 0.0250(18) 0.0193(17) -0.0022(14) 0.0042(14) 0.0004(14)
C9 0.046(2) 0.0257(18) 0.0184(17) 0.0011(14) 0.0110(16) 0.0106(16)
C10 0.101(4) 0.029(2) 0.032(2) -0.0035(18) 0.035(3) -0.003(2)
C11 0.061(3) 0.065(3) 0.024(2) 0.005(2) 0.016(2) 0.036(3)
C12 0.039(2) 0.0254(18) 0.0190(17) -0.0009(14) 0.0107(15) 0.0070(15)
C13 0.046(2) 0.055(3) 0.0148(18) -0.0067(17) -0.0007(17) 0.017(2)
C14 0.038(2) 0.060(3) 0.0221(19) -0.0039(18) -0.0019(17) 0.022(2)
C15 0.0279(18) 0.0293(18) 0.0207(17) -0.0023(14) 0.0053(14) 0.0051(15)
C16 0.0279(17) 0.0225(17) 0.0151(16) -0.0007(13) 0.0052(13) 0.0012(14)
C17 0.0308(18) 0.0255(17) 0.0184(17) 0.0015(14) 0.0064(14) 0.0073(14)
C18 0.0190(16) 0.037(2) 0.0187(16) -0.0022(14) -0.0004(13) 0.0064(14)
C19 0.0255(17) 0.0243(18) 0.0163(16) 0.0008(13) 0.0076(13) -0.0001(13)
C20 0.030(2) 0.064(3) 0.030(2) 0.006(2) 0.0053(17) -0.015(2)
C21 0.033(2) 0.063(3) 0.030(2) 0.009(2) 0.0086(17) -0.014(2)
C22 0.0274(18) 0.0280(19) 0.0310(19) -0.0001(15) 0.0107(15) -0.0018(15)
C23 0.028(2) 0.100(4) 0.033(2) 0.013(2) 0.0026(18) -0.017(2)
C24 0.036(2) 0.098(4) 0.027(2) 0.012(2) 0.0084(18) -0.017(3)
C25 0.0261(18) 0.0289(19) 0.0310(19) 0.0012(15) 0.0097(15) -0.0014(15)
C26 0.0247(18) 0.052(3) 0.030(2) -0.0039(18) 0.0072(16) -0.0077(17)
C27 0.0286(19) 0.046(2) 0.0254(19) -0.0015(17) 0.0115(15) -0.0063(17)
C28 0.0256(18) 0.051(3) 0.030(2) 0.0051(18) 0.0063(16) -0.0055(17)
C29 0.032(2) 0.051(3) 0.027(2) 0.0058(17) 0.0101(16) -0.0042(18)

_geom_special_details            
; 
 All esds (except the esd in the dihedral angle between two l.s. planes) 
 are estimated using the full covariance matrix.  The cell esds are taken 
 into account individually in the estimation of esds in distances, angles 
 and torsion angles; correlations between esds in cell parameters are only 
 used when they are defined by crystal symmetry.  An approximate (isotropic) 
 treatment of cell esds is used for estimating esds involving l.s. planes. 
;

loop_
_geom_bond_atom_site_label_1
_geom_bond_atom_site_label_2
_geom_bond_distance
_geom_bond_site_symmetry_2
_geom_bond_publ_flag
Cd2 O4 2.240(2) 1_565 ?
Cd2 O8 2.247(3) 4_565 ?
Cd2 O1 2.268(3) . ?
Cd2 N1 2.301(3) . ?
Cd2 O5 2.309(3) 2 ?
Cd1 O6 2.259(2) 2_545 ?
Cd1 O7 2.266(2) 4_565 ?
Cd1 O3 2.333(2) . ?
Cd1 N2 2.347(3) 3_665 ?
Cd1 O9 2.396(3) . ?
Cd1 O1 2.407(3) . ?
O1 C1 1.282(4) . ?
O2 C1 1.228(5) . ?
O3 C8 1.262(4) . ?
O4 C8 1.256(4) . ?
O4 Cd2 2.240(2) 1_545 ?
O5 C18 1.252(4) . ?
O5 Cd2 2.309(3) 2_545 ?
O6 C18 1.263(5) . ?
O6 Cd1 2.259(2) 2 ?
O7 C19 1.253(4) . ?
O7 Cd1 2.266(2) 4_566 ?
O8 C19 1.254(4) . ?
O8 Cd2 2.247(3) 4_566 ?
O9 H9A 0.81(6) . ?
O9 H9B 0.71(5) . ?
N1 C24 1.316(5) . ?
N1 C20 1.335(5) . ?
N2 C27 1.336(5) . ?
N2 C28 1.339(5) . ?
N2 Cd1 2.347(3) 3_665 ?
F1 C11 1.340(5) . ?
F2 C11 1.320(6) . ?
F3 C11 1.343(5) . ?
F4 C10 1.330(5) . ?
F5 C10 1.330(6) . ?
F6 C10 1.349(5) . ?
C1 C2 1.521(5) . ?
C2 C3 1.391(5) . ?
C2 C7 1.392(5) . ?
C3 C4 1.394(5) . ?
C3 C8 1.507(5) . ?
C4 C5 1.387(5) . ?
C4 H4 0.9300 . ?
C5 C6 1.389(6) . ?
C5 C9 1.546(5) . ?
C6 C7 1.382(6) . ?
C6 H6 0.9300 . ?
C7 H7 0.9300 . ?
C9 C10 1.539(6) . ?
C9 C12 1.549(5) . ?
C9 C11 1.552(6) . ?
C12 C17 1.382(5) . ?
C12 C13 1.392(6) . ?
C13 C14 1.376(6) . ?
C13 H13 0.9300 . ?
C14 C15 1.387(5) . ?
C14 H14 0.9300 . ?
C15 C16 1.391(5) . ?
C15 C18 1.506(5) . ?
C16 C17 1.395(5) . ?
C16 C19 1.510(4) . ?
C17 H17 0.9300 . ?
C20 C21 1.377(5) . ?
C20 H20 0.9300 . ?
C21 C22 1.382(5) . ?
C21 H21 0.9300 . ?
C22 C23 1.376(6) . ?
C22 C25 1.490(5) . ?
C23 C24 1.386(6) . ?
C23 H23 0.9300 . ?
C24 H24 0.9300 . ?
C25 C26 1.388(5) . ?
C25 C29 1.392(5) . ?
C26 C27 1.384(5) . ?
C26 H26 0.9300 . ?
C27 H27 0.9300 . ?
C28 C29 1.383(5) . ?
C28 H28 0.9300 . ?
C29 H29 0.9300 . ?

loop_
_geom_angle_atom_site_label_1
_geom_angle_atom_site_label_2
_geom_angle_atom_site_label_3
_geom_angle
_geom_angle_site_symmetry_1
_geom_angle_site_symmetry_3
_geom_angle_publ_flag
O4 Cd2 O8 158.23(11) 1_565 4_565 ?
O4 Cd2 O1 94.22(9) 1_565 . ?
O8 Cd2 O1 98.79(9) 4_565 . ?
O4 Cd2 N1 101.78(11) 1_565 . ?
O8 Cd2 N1 83.31(10) 4_565 . ?
O1 Cd2 N1 129.37(11) . . ?
O4 Cd2 O5 82.31(10) 1_565 2 ?
O8 Cd2 O5 76.95(11) 4_565 2 ?
O1 Cd2 O5 109.39(10) . 2 ?
N1 Cd2 O5 120.12(11) . 2 ?
O6 Cd1 O7 95.84(9) 2_545 4_565 ?
O6 Cd1 O3 92.29(9) 2_545 . ?
O7 Cd1 O3 159.60(9) 4_565 . ?
O6 Cd1 N2 170.47(11) 2_545 3_665 ?
O7 Cd1 N2 92.73(10) 4_565 3_665 ?
O3 Cd1 N2 80.98(10) . 3_665 ?
O6 Cd1 O9 93.88(11) 2_545 . ?
O7 Cd1 O9 79.88(11) 4_565 . ?
O3 Cd1 O9 118.26(11) . . ?
N2 Cd1 O9 83.51(11) 3_665 . ?
O6 Cd1 O1 89.79(9) 2_545 . ?
O7 Cd1 O1 85.66(9) 4_565 . ?
O3 Cd1 O1 75.67(9) . . ?
N2 Cd1 O1 95.02(10) 3_665 . ?
O9 Cd1 O1 165.37(11) . . ?
C1 O1 Cd2 100.1(2) . . ?
C1 O1 Cd1 119.2(2) . . ?
Cd2 O1 Cd1 111.49(10) . . ?
C8 O3 Cd1 127.0(2) . . ?
C8 O4 Cd2 112.1(2) . 1_545 ?
C