
#######################################################################
#
#                 Cambridge Crystallographic Data Centre
#                                CCDC
#
#######################################################################
#
# If this CIF has been generated from an entry in the Cambridge
# Structural Database, then it will include bibliographic, chemical,
# crystal, experimental, refinement or atomic coordinate data resulting
# from the CCDC's data processing and validation procedures.
#
#######################################################################

data_CSD_CIF_COXDHN01
_audit_creation_date 1980-02-13
_audit_creation_method CSD-ConQuest-V1
_database_code_CSD COXDHN01
_database_code_depnum_ccdc_archive 'CCDC 1130489'
_chemical_formula_sum 'C10 H4 Cl4 O1'
_chemical_formula_moiety
;
C10 H4 Cl4 O1
;
_journal_coeditor_code "IUCr A17175"
_journal_coden_Cambridge 107
_journal_volume 35
_journal_year 1979
_journal_page_first 104
_journal_name_full 'Acta Crystallogr.,Sect.B:Struct.Crystallogr.Cryst.Chem. '
loop_
_publ_author_name
"F.P.A.Zweegers"
"C.A.G.O.Varma"
"R.A.G.de Graaff"
_chemical_name_systematic
;
2,3,4,4-Tetrachloro-1-oxo-1,4-dihydronaphthalene
;
_chemical_name_common
;
Teaching Subset: Fundamental Chemistry
;
_cell_volume   2157.329
_exptl_crystal_colour 'yellow'
_exptl_crystal_density_diffrn 1.749
_exptl_special_details
;
non-photochromic orthorhombic high temperature polymorph
Metastable at room temperature
An exact solution of this structure is impossible at this stage. In the paper 
the results of the refinment in Pnma are reported, but it is still possible 
that the space group is really Pn21a
;
_exptl_crystal_preparation 'slow evaporation of solution of the photochromic sample in o-xylene at 373 K'
_diffrn_ambient_temperature ?
_diffrn_special_details
;
The study was carried out at room temperature,in the range 283-303K

;
#These two values have been output from a single CSD field.
_refine_ls_R_factor_gt 0.071
_refine_ls_wR_factor_gt 0.071
_symmetry_cell_setting orthorhombic
_symmetry_space_group_name_H-M 'P n m a'
_symmetry_Int_Tables_number 62
loop_
_symmetry_equiv_pos_site_id
_symmetry_equiv_pos_as_xyz
1 x,y,z
2 1/2-x,-y,1/2+z
3 1/2+x,1/2-y,1/2-z
4 -x,1/2+y,-z
5 -x,-y,-z
6 -1/2+x,y,-1/2-z
7 -1/2-x,-1/2+y,-1/2+z
8 x,-1/2-y,z
_cell_length_a 22.755(6)
_cell_length_b 6.785(6)
_cell_length_c 13.973(6)
_cell_angle_alpha 90
_cell_angle_beta 90
_cell_angle_gamma 90
_cell_formula_units_Z 8
loop_
_atom_type_symbol
_atom_type_radius_bond
C 0.68
Cl 0.99
O 0.68
loop_
_atom_site_label
_atom_site_type_symbol
_atom_site_fract_x
_atom_site_fract_y
_atom_site_fract_z
C1 C 0.34060 0.25000 0.21950
C2 C 0.28930 0.25000 0.15900
C3 C 0.23380 0.25000 0.19170
C4 C 0.22240 0.25000 0.29900
C5 C 0.26830 0.25000 0.46040
C6 C 0.31680 0.25000 0.51840
C7 C 0.37190 0.25000 0.48590
C8 C 0.38030 0.25000 0.38430
C9 C 0.33220 0.25000 0.32470
C10 C 0.27510 0.25000 0.36250
Cl1 Cl 0.30140 0.25000 0.03760
Cl2 Cl 0.17380 0.25000 0.11990
O1 O 0.39010 0.25000 0.18620
Cl3 Cl 0.17840 0.46520 0.32400
Cl4 Cl 0.53610 0.96520 0.30300
C11 C 0.37550 0.75000 0.18870
C12 C 0.38580 0.75000 0.29520
C13 C 0.43960 0.75000 0.32970
C14 C 0.49300 0.75000 0.27060
C15 C 0.53220 0.75000 0.10710
C16 C 0.52420 0.75000 0.00320
C17 C 0.46760 0.75000 -0.02820
C18 C 0.42060 0.75000 0.02900
C19 C 0.42780 0.75000 0.12660
C20 C 0.48490 0.75000 0.16590
Cl5 Cl 0.32400 0.75000 0.36360
Cl6 Cl 0.45000 0.75000 0.45320
O2 O 0.32540 0.75000 0.15860
Cl3G Cl 0.17840 0.03480 0.32400
Cl4G Cl 0.53610 0.53480 0.30300
#END
