####################################################################### 
# 
# This file contains crystal structure data downloaded from the 
# Cambridge Structural Database (CSD) hosted by the Cambridge 
# Crystallographic Data Centre (CCDC).
# 
# Full information about CCDC data access policies and citation 
# guidelines are available at http://www.ccdc.cam.ac.uk/access/V1 
# 
# Audit and citation data items may have been added by the CCDC. 
# Please retain this information to preserve the provenance of 
# this file and to allow appropriate attribution of the data. 
# 
#######################################################################

data_CSD_CIF_COXNUY
_audit_block_doi                 10.5517/cc3gj02
_database_code_depnum_ccdc_archive 'CCDC 103323'
_audit_update_record             
;
1998-10-06 deposited with the CCDC.	2024-07-09 downloaded from the CCDC.
;
_audit_creation_date             2000-05-03
_audit_creation_method           CSD-ConQuest-V1
_database_code_CSD               COXNUY
_chemical_formula_sum            'C17 H26 Cu1 N2 O12 P1'
_chemical_formula_moiety         
;
(C17 H18 Cu1 N2 O8 P1)n,4n(H2 O1)
;
_chemical_name_systematic        
;
catena-(Aqua-(5'-phosphopyridoxylidene-DL-phenylalanineato)-copper(ii)
tetrahydrate)
;
_cell_volume                     1159.343
_exptl_crystal_colour            green
_exptl_special_details           
;
There are a number of bond discrepancies. y(O11) =0.0465,9 not 0.0645,9

;
_exptl_crystal_description       plate
_diffrn_ambient_temperature      ?
_diffrn_special_details          
;
The study was carried out at room temperature,in the range 283-303K

;
#These two values have been output from a single CSD field.
_refine_ls_R_factor_gt           0.084
_refine_ls_wR_factor_gt          0.084
_symmetry_cell_setting           triclinic
_symmetry_space_group_name_H-M   'P -1'
_symmetry_Int_Tables_number      2
loop_
_symmetry_equiv_pos_site_id
_symmetry_equiv_pos_as_xyz
1 x,y,z
2 -x,-y,-z
_cell_length_a                   8.697(2)
_cell_length_b                   13.039(3)
_cell_length_c                   12.418(3)
_cell_angle_alpha                110.49(2)
_cell_angle_beta                 108.61(2)
_cell_angle_gamma                63.65(1)
_cell_formula_units_Z            2
loop_
_atom_type_symbol
_atom_type_radius_bond
C 0.68
H 0.23
Cu 1.52
N 0.68
O 0.68
P 1.05
loop_
_atom_site_label
_atom_site_type_symbol
_atom_site_fract_x
_atom_site_fract_y
_atom_site_fract_z
Cu1 Cu 0.2161(3) 0.0646(2) 0.4892(2)
P1 P 0.7949(6) 0.2140(4) 0.3796(4)
O1 O 0.746(1) 0.2721(9) 0.5075(9)
O2 O 0.940(1) 0.0942(8) 0.3756(9)
O3 O 0.816(1) 0.3038(9) 0.346(1)
O4 O 0.632(1) 0.1850(8) 0.2955(9)
O5 O 0.205(1) 0.2225(9) 0.5499(9)
O6 O 0.293(1) -0.1097(8) 0.4240(9)
O7 O 0.412(2) -0.263(1) 0.285(1)
N1 N 0.250(2) 0.474(1) 0.534(1)
N2 N 0.321(1) 0.047(1) 0.357(1)
C1 C 0.328(2) 0.433(2) 0.439(2)
C2 C 0.372(2) 0.317(2) 0.378(2)
C3 C 0.328(2) 0.248(1) 0.412(2)
C4 C 0.247(2) 0.283(1) 0.510(2)
C5 C 0.212(2) 0.405(2) 0.572(2)
C6 C 0.459(2) 0.283(1) 0.277(2)
C7 C 0.132(2) 0.460(2) 0.676(2)
C8 C 0.370(2) 0.123(2) 0.346(1)
C9 C 0.355(2) -0.157(1) 0.330(1)
C10 C 0.354(2) -0.070(1) 0.273(1)
C11 C 0.198(2) -0.055(2) 0.167(2)
C12 C 0.181(3) 0.023(2) 0.098(2)
C13 C 0.273(3) -0.017(2) 0.012(2)
C14 C 0.263(3) 0.053(3) -0.048(2)
C15 C 0.165(5) 0.175(4) -0.015(3)
C16 C 0.066(3) 0.218(2) 0.069(2)
C17 C 0.080(3) 0.142(3) 0.125(2)
O8 O 0.172(1) 0.0465(9) 0.6281(9)
O9 O 0.017(4) 0.708(2) 0.253(2)
O10 O 0.365(3) 0.638(2) 0.885(2)
O11 O 0.431(4) 0.329(3) 0.912(3)
O12 O 0.333(6) 0.558(3) 0.223(3)
H1 H 0.35640 0.49480 0.41620
H2 H 0.37500 0.25550 0.19380
H3 H 0.47430 0.35890 0.26850
H4 H 0.00440 0.45180 0.65120
H5 H 0.21830 0.40940 0.74270
H6 H 0.10580 0.55460 0.72570
H7 H 0.45180 0.09020 0.27860
H8 H 0.47380 -0.10110 0.24080
H9 H 0.20890 -0.14020 0.10810
H10 H 0.07840 -0.01860 0.20020
H11 H 0.35620 -0.11120 -0.00920
H12 H 0.33830 0.01970 -0.12000
H13 H 0.17580 0.23340 -0.05680
H14 H -0.02950 0.31270 0.08100
H15 H 0.00520 0.17730 0.19380
O2* O -0.060(1) 0.0942(8) 0.3756(9)
Cu1* Cu 1.2161(3) 0.0646(2) 0.4892(2)
#END
