
#######################################################################
#
#                 Cambridge Crystallographic Data Centre
#                                CCDC
#
#######################################################################
#
# If this CIF has been generated from an entry in the Cambridge
# Structural Database, then it will include bibliographic, chemical,
# crystal, experimental, refinement or atomic coordinate data resulting
# from the CCDC's data processing and validation procedures.
#
#######################################################################

data_CSD_CIF_CPTCET10
_audit_creation_date 1973-04-16
_audit_creation_method CSD-ConQuest-V1
_database_code_CSD CPTCET10
_database_code_depnum_ccdc_archive 'CCDC 1131466'
_chemical_formula_sum 'C14 H9 Cl5'
_chemical_formula_moiety
;
C14 H9 Cl5
;
_journal_coden_Cambridge 188
_journal_year 1972
_journal_page_first 2148
_journal_name_full 'J.Chem.Soc.,Perkin Trans.2 '
loop_
_publ_author_name
"T.P.DeLacy"
"C.H.L.Kennard"
_chemical_name_systematic
;
1,1-bis(p-Chlorophenyl)-2,2,2-trichloroethane
;
_chemical_name_common
;
DDT; Teaching Subset: Fundamental Chemistry
;
_cell_volume   1508.701
_exptl_crystal_density_diffrn 1.56
_exptl_special_details
;
polymorph I
insecticidal activity

;
_diffrn_ambient_temperature ?
_diffrn_special_details
;
The study was carried out at room temperature,in the range 283-303K

;
#These two values have been output from a single CSD field.
_refine_ls_R_factor_gt 0.091
_refine_ls_wR_factor_gt 0.091
_symmetry_cell_setting orthorhombic
_symmetry_space_group_name_H-M 'P c a 21'
_symmetry_Int_Tables_number 29
loop_
_symmetry_equiv_pos_site_id
_symmetry_equiv_pos_as_xyz
1 x,y,z
2 1/2-x,y,1/2+z
3 1/2+x,-y,z
4 -x,-y,1/2+z
_cell_length_a 9.963(1)
_cell_length_b 19.200(2)
_cell_length_c 7.887(1)
_cell_angle_alpha 90
_cell_angle_beta 90
_cell_angle_gamma 90
_cell_formula_units_Z 4
loop_
_atom_type_symbol
_atom_type_radius_bond
C 0.68
Cl 0.99
loop_
_atom_site_label
_atom_site_type_symbol
_atom_site_fract_x
_atom_site_fract_y
_atom_site_fract_z
Cl1 Cl -0.11200 -0.03950 -0.33740
Cl2 Cl -0.05010 0.48800 -0.59610
Cl3 Cl -0.02520 0.20970 0.24090
Cl4 Cl 0.05370 0.34640 0.13380
Cl5 Cl 0.19070 0.22850 0.00040
C1 C -0.08480 0.18140 -0.15760
C2 C -0.05410 0.41890 -0.45070
C3 C -0.17830 0.39990 -0.37490
C4 C -0.18240 0.34770 -0.25780
C5 C 0.03130 0.25720 0.05990
C6 C -0.07280 0.25380 -0.07980
C7 C -0.17660 0.13630 -0.09300
C8 C -0.18730 0.06990 -0.14940
C9 C -0.10350 0.04500 -0.27110
C10 C -0.00590 0.08920 -0.34410
C11 C -0.00650 0.16010 -0.28620
C12 C -0.06530 0.31410 -0.21400
C13 C 0.05520 0.33350 -0.28750
C14 C 0.06210 0.38230 -0.41230
#END
