
#######################################################################
#
#                 Cambridge Crystallographic Data Centre
#                                CCDC
#
#######################################################################
#
# If this CIF has been generated from an entry in the Cambridge
# Structural Database, then it will include bibliographic, chemical,
# crystal, experimental, refinement or atomic coordinate data resulting
# from the CCDC's data processing and validation procedures.
#
#######################################################################

data_CSD_CIF_CRAMCB10
_audit_creation_date 1983-01-18
_audit_creation_method CSD-ConQuest-V1
_database_code_CSD CRAMCB10
_database_code_depnum_ccdc_archive 'CCDC 1131597'
_chemical_formula_sum 'C12 H29 Cl1 N1 O11.5'
_chemical_formula_moiety
;
C12 H24 O6,H4 N1 O1 1+,Cl1 O4 1-,0.5(H2 O1)
;
_journal_coden_Cambridge 4
_journal_volume 104
_journal_year 1982
_journal_page_first 1355
_journal_name_full 'J.Am.Chem.Soc. '
loop_
_publ_author_name
"K.N.Trueblood"
"C.B.Knobler"
"D.S.Lawrence"
"R.V.Stevens"
_chemical_name_systematic
;
1,4,7,10,13,16-Hexaoxacyclo-octadecane hydroxylammonium perchlorate clathrate 
hemihydrate
;
_chemical_name_common
;
18-Crown-6 hydroxylammonium perchlorate clathrate hemihydrate; Teaching 
Subset: Fundamental Chemistry
;
_cell_volume   3782.205
_exptl_crystal_density_diffrn 1.429
_diffrn_ambient_temperature 115
#These two values have been output from a single CSD field.
_refine_ls_R_factor_gt 0.066
_refine_ls_wR_factor_gt 0.066
_symmetry_cell_setting monoclinic
_symmetry_space_group_name_H-M 'C 2/c'
_symmetry_Int_Tables_number 15
loop_
_symmetry_equiv_pos_site_id
_symmetry_equiv_pos_as_xyz
1 x,y,z
2 1/2+x,1/2+y,z
3 -x,y,1/2-z
4 1/2-x,1/2+y,1/2-z
5 -x,-y,-z
6 -1/2-x,-1/2-y,-z
7 x,-y,-1/2+z
8 -1/2+x,-1/2-y,-1/2+z
_cell_length_a 19.410(5)
_cell_length_b 10.231(3)
_cell_length_c 21.321(5)
_cell_angle_alpha 90
_cell_angle_beta 116.71
_cell_angle_gamma 90
_cell_formula_units_Z 8
loop_
_atom_type_symbol
_atom_type_radius_bond
C 0.68
H 0.23
Cl 0.99
N 0.68
O 0.68
loop_
_atom_site_label
_atom_site_type_symbol
_atom_site_fract_x
_atom_site_fract_y
_atom_site_fract_z
O1 O 0.39151 0.46332 0.71911
C1 C 0.42702 0.49954 0.79146
C2 C 0.46686 0.38280 0.83534
O2 O 0.41102 0.28433 0.82674
C3 C 0.44581 0.17584 0.87270
C4 C 0.38653 0.07220 0.85984
O3 O 0.35748 0.02853 0.78891
C5 C 0.30889 -0.08399 0.77552
C6 C 0.27293 -0.11332 0.69856
O4 O 0.22526 -0.00566 0.66155
C7 C 0.18006 -0.03328 0.58873
C8 C 0.13352 0.08534 0.55413
O5 O 0.18495 0.18798 0.55783
C9 C 0.14582 0.30308 0.52141
C10 C 0.20368 0.40143 0.52382
O6 O 0.25285 0.43480 0.59549
C11 C 0.31023 0.52732 0.60073
C12 C 0.35261 0.57129 0.67564
H1 H 0.38800 0.53860 0.80320
H2 H 0.46670 0.56790 0.79720
H3 H 0.49070 0.40440 0.88160
H4 H 0.50660 0.35250 0.82260
H5 H 0.46690 0.20470 0.92080
H6 H 0.48730 0.13840 0.86550
H7 H 0.34340 0.10850 0.86850
H8 H 0.41120 0.00320 0.89550
H9 H 0.26880 -0.06810 0.78920
H10 H 0.33910 -0.15830 0.80520
H11 H 0.23960 -0.19490 0.69240
H12 H 0.30990 -0.12460 0.68300
H13 H 0.14410 -0.09650 0.58570
H14 H 0.21290 -0.05750 0.56960
H15 H 0.10300 0.11130 0.57850
H16 H 0.09880 0.06900 0.50880
H17 H 0.11180 0.34290 0.54310
H18 H 0.11440 0.27960 0.47510
H19 H 0.17840 0.47830 0.49950
H20 H 0.23540 0.36440 0.50240
H21 H 0.29010 0.60040 0.57030
H22 H 0.34810 0.48490 0.58810
H23 H 0.31770 0.61140 0.69230
H24 H 0.38940 0.63530 0.67710
N1 N 0.32953 0.20743 0.68106
O7 O 0.38161 0.15160 0.65888
H25 H 0.35170 0.25820 0.71410
H26 H 0.31590 0.16330 0.70190
H27 H 0.29790 0.23770 0.65020
H28 H 0.41480 0.10070 0.69150
Cl1 Cl 0.94572 0.29738 0.58193
O8 O 0.94892 0.16441 0.56195
O9 O 1.00816 0.31783 0.65165
O10 O 0.95499 0.38623 0.53401
O11 O 0.87387 0.32237 0.58343
O12 O 1.00000 0.50251 0.25000
H29 H 1.00300 0.55730 0.21900
H29B H 0.99700 0.55730 0.28100
#END
