
#######################################################################
#
#                 Cambridge Crystallographic Data Centre
#                                CCDC
#
#######################################################################
#
# If this CIF has been generated from an entry in the Cambridge
# Structural Database, then it will include bibliographic, chemical,
# crystal, experimental, refinement or atomic coordinate data resulting
# from the CCDC's data processing and validation procedures.
#
#######################################################################

data_CSD_CIF_CTPAUB
_audit_creation_date 1974-09-02
_audit_creation_method CSD-ConQuest-V1
_database_code_CSD CTPAUB
_database_code_depnum_ccdc_archive 'CCDC 1131963'
_chemical_formula_sum 'C39 H33 Au1 Cl1 P2'
_chemical_formula_moiety
;
C36 H30 Au1 Cl1 P2,0.5(C6 H6)
;
_journal_coden_Cambridge 9
_journal_volume 13
_journal_year 1974
_journal_page_first 805
_journal_name_full 'Inorg.Chem. '
loop_
_publ_author_name
"N.C.Baenziger"
"K.M.Dittemore"
"J.R.Doyle"
_chemical_name_systematic
;
Chloro-bis(triphenylphosphine) gold(i) benzene solvate
;
_chemical_name_common
;
Teaching Subset: Fundamental Chemistry
;
_cell_volume   1643.175
_exptl_crystal_density_diffrn 1.61
_exptl_special_details
;
H4 REMOVED COORDINATES APPEAR TO BE IN ERROR

;
_diffrn_ambient_temperature ?
_diffrn_special_details
;
The study was carried out at room temperature,in the range 283-303K

;
#These two values have been output from a single CSD field.
_refine_ls_R_factor_gt 0.064
_refine_ls_wR_factor_gt 0.064
_symmetry_cell_setting triclinic
_symmetry_space_group_name_H-M 'P -1'
_symmetry_Int_Tables_number 2
loop_
_symmetry_equiv_pos_site_id
_symmetry_equiv_pos_as_xyz
1 x,y,z
2 -x,-y,-z
_cell_length_a 10.187(1)
_cell_length_b 12.997(1)
_cell_length_c 16.596(1)
_cell_angle_alpha 52.54(1)
_cell_angle_beta 90.68(1)
_cell_angle_gamma 75.00(1)
_cell_formula_units_Z 2
loop_
_atom_type_symbol
_atom_type_radius_bond
C 0.68
H 0.30
Au 1.34
Cl 0.99
P 1.05
loop_
_atom_site_label
_atom_site_type_symbol
_atom_site_fract_x
_atom_site_fract_y
_atom_site_fract_z
Au1 Au 0.22086 0.13469 0.24049
Cl1 Cl 0.04350 0.02200 0.32170
C1 C 0.24630 0.43760 0.14900
C2 C 0.01330 0.28450 0.44760
C3 C 0.07320 0.47690 0.37550
C4 C 0.01150 0.40030 0.43600
C5 C 0.44100 0.21050 0.33920
C6 C 0.47720 0.20050 0.42510
C7 C 0.54300 0.16270 0.30590
C8 C 0.61620 0.15320 0.47080
C9 C 0.68460 0.11490 0.35210
C10 C 0.71850 0.10930 0.43370
C11 C 0.29500 0.21020 0.01100
C12 C 0.11200 0.51500 0.08560
C13 C 0.27700 0.20160 -0.06760
C14 C 0.29600 0.33660 -0.01810
C15 C 0.26230 0.31510 -0.17240
C16 C 0.28150 0.44760 -0.12050
C17 C 0.26630 0.44000 -0.19970
C18 C 0.26160 -0.05500 0.14380
C19 C 0.35390 -0.14190 0.13250
C20 C 0.12580 -0.05070 0.14420
C21 C 0.30830 -0.22860 0.12300
C22 C 0.07820 -0.13470 0.13330
C23 C 0.35510 0.48820 0.10800
C24 C 0.17450 -0.21830 0.11880
C25 C 0.50070 -0.01280 0.19640
C26 C 0.54900 -0.12790 0.29590
C27 C 0.60000 0.04090 0.13980
C28 C 0.69350 -0.19120 0.34430
C29 C 0.74050 -0.01550 0.18470
C30 C 0.78360 -0.13280 0.28560
C31 C 0.08850 0.64090 0.02010
C32 C 0.33280 0.61010 0.00530
C33 C 0.20210 0.68390 -0.05840
C34 C 0.15290 0.32490 0.33580
C35 C 0.07150 0.25000 0.39470
C36 C 0.15520 0.43910 0.33770
H1 H -0.07700 0.22500 0.49400
H2 H 0.07600 0.56700 0.36500
H3 H -0.07500 0.43100 0.47400
H4 H 0.39600 0.23100 0.45500
H5 H 0.51000 0.16300 0.24300
H6 H 0.64500 0.14900 0.53600
H7 H 0.76800 0.08200 0.32400
H8 H 0.82700 0.07100 0.46900
H9 H 0.02700 0.47900 0.11800
H10 H 0.27400 0.10600 -0.04800
H11 H 0.30900 0.34900 0.04000
H12 H 0.24800 0.30700 -0.23200
H13 H 0.28100 0.54300 -0.13900
H14 H 0.25800 0.52800 -0.27900
H15 H 0.46000 -0.14100 0.13100
H16 H 0.05700 0.01800 0.15400
H17 H 0.38000 -0.30400 0.12000
H18 H -0.02800 -0.13400 0.13400
H19 H 0.46000 0.43200 0.15700
H20 H 0.14200 -0.28000 0.10400
H21 H 0.47200 -0.17000 0.33700
H22 H 0.56700 0.13000 0.05800
H23 H 0.73400 -0.28200 0.42600
H24 H 0.81500 0.03000 0.14100
H25 H 0.89400 -0.18000 0.31900
H26 H 0.34000 0.61300 -0.06100
H27 H 0.20200 0.68700 0.00500
H28 H 0.07600 0.16300 0.40000
H29 H 0.22000 0.49800 0.28400
P1 P 0.26450 0.27670 0.27070
P2 P 0.31670 0.06690 0.14590
C37 C -0.38600 0.41600 -0.49910
C38 C -0.50190 0.49770 -0.58000
C39 C -0.39110 0.42190 -0.41540
H30 H -0.29700 0.35200 -0.50200
H31 H -0.50400 0.49400 -0.64300
H32 H -0.31100 0.36100 -0.34600
C39A C -0.60890 0.57810 -0.58460
C38A C -0.49810 0.50230 -0.42000
C37A C -0.61400 0.58400 -0.50090
H32A H -0.68900 0.63900 -0.65400
H31A H -0.49600 0.50600 -0.35700
H30A H -0.70300 0.64800 -0.49800
#END
