
#######################################################################
#
#                 Cambridge Crystallographic Data Centre
#                                CCDC
#
#######################################################################
#
# If this CIF has been generated from an entry in the Cambridge
# Structural Database, then it will include bibliographic, chemical,
# crystal, experimental, refinement or atomic coordinate data resulting
# from the CCDC's data processing and validation procedures.
#
#######################################################################

data_CSD_CIF_CTPOCO
_audit_creation_date 1977-07-22
_audit_creation_method CSD-ConQuest-V1
_database_code_CSD CTPOCO
_database_code_depnum_ccdc_archive 'CCDC 1131980'
_chemical_formula_sum 'C44 H28 Cl1 Co1 N4'
_chemical_formula_moiety
;
C44 H28 Cl1 Co1 N4
;
_journal_coden_Cambridge 7
_journal_volume 49
_journal_year 1976
_journal_page_first 3042
_journal_name_full 'Bull.Chem.Soc.Jpn. '
loop_
_publ_author_name
"T.Sakurai"
"K.Yamamoto"
"H.Naito"
"N.Nakamoto"
_chemical_name_systematic
;
Chloro-(\a,\b,\g,\d-tetraphenylporphinato) cobalt(iii)
;
_chemical_name_common
;
Teaching Subset: Fundamental Chemistry
;
_cell_volume   1818.921
_exptl_crystal_density_diffrn 1.292
_exptl_special_details
;
Absolute configuration
ONLY AVERAGE BOND LENGTHS GIVEN IN PAPER

;
_diffrn_ambient_temperature ?
_diffrn_special_details
;
The study was carried out at room temperature,in the range 283-303K

;
#These two values have been output from a single CSD field.
_refine_ls_R_factor_gt 0.088
_refine_ls_wR_factor_gt 0.088
_symmetry_cell_setting tetragonal
_symmetry_space_group_name_H-M 'I 4'
_symmetry_Int_Tables_number 79
loop_
_symmetry_equiv_pos_site_id
_symmetry_equiv_pos_as_xyz
1 x,y,z
2 1/2+x,1/2+y,1/2+z
3 -y,x,z
4 1/2-y,1/2+x,1/2+z
5 -x,-y,z
6 1/2-x,1/2-y,1/2+z
7 y,-x,z
8 1/2+y,1/2-x,1/2+z
_cell_length_a 13.693(2)
_cell_length_b 13.693(2)
_cell_length_c 9.701(2)
_cell_angle_alpha 90
_cell_angle_beta 90
_cell_angle_gamma 90
_cell_formula_units_Z 2
loop_
_atom_type_symbol
_atom_type_radius_bond
C 0.68
Cl 0.99
Co 1.33
N 0.68
loop_
_atom_site_label
_atom_site_type_symbol
_atom_site_fract_x
_atom_site_fract_y
_atom_site_fract_z
Co1 Co 0.00000 0.00000 0.00000
Cl1 Cl 0.00000 0.00000 0.22160
N1 N 0.13960 0.03870 -0.00570
C1 C 0.17620 0.13180 -0.00530
C2 C 0.28330 0.13170 0.00100
C3 C 0.30780 0.03560 0.00650
C4 C 0.22060 -0.02050 -0.00240
C5 C 0.12160 0.21800 -0.00400
C6 C 0.17700 0.31400 -0.00640
C7 C 0.18060 0.36720 0.12820
C8 C 0.23540 0.45680 0.12690
C9 C 0.27860 0.48820 -0.01160
C10 C 0.27420 0.43500 -0.12550
C11 C 0.22180 0.34490 -0.12510
N1B N -0.03870 0.13960 -0.00570
N1D N -0.13960 -0.03870 -0.00570
N1F N 0.03870 -0.13960 -0.00570
C5F C 0.21800 -0.12160 -0.00400
C4B C 0.02050 0.22060 -0.00240
C1B C -0.13180 0.17620 -0.00530
C1D C -0.17620 -0.13180 -0.00530
C4D C -0.22060 0.02050 -0.00240
C1F C 0.13180 -0.17620 -0.00530
C4F C -0.02050 -0.22060 -0.00240
C6F C 0.31400 -0.17700 -0.00640
C3B C -0.03560 0.30780 0.00650
C2B C -0.13170 0.28330 0.00100
C5B C -0.21800 0.12160 -0.00400
C2D C -0.28330 -0.13170 0.00100
C5D C -0.12160 -0.21800 -0.00400
C3D C -0.30780 -0.03560 0.00650
C2F C 0.13170 -0.28330 0.00100
C3F C 0.03560 -0.30780 0.00650
C7F C 0.36720 -0.18060 0.12820
C11F C 0.34490 -0.22180 -0.12510
C6B C -0.31400 0.17700 -0.00640
C6D C -0.17700 -0.31400 -0.00640
C8F C 0.45680 -0.23540 0.12690
C10F C 0.43500 -0.27420 -0.12550
C7B C -0.36720 0.18060 0.12820
C11B C -0.34490 0.22180 -0.12510
C7D C -0.18060 -0.36720 0.12820
C11D C -0.22180 -0.34490 -0.12510
C9F C 0.48820 -0.27860 -0.01160
C8B C -0.45680 0.23540 0.12690
C10B C -0.43500 0.27420 -0.12550
C8D C -0.23540 -0.45680 0.12690
C10D C -0.27420 -0.43500 -0.12550
C9B C -0.48820 0.27860 -0.01160
C9D C -0.27860 -0.48820 -0.01160
#END
