####################################################################### 
# 
# This file contains crystal structure data downloaded from the 
# Cambridge Structural Database (CSD) hosted by the Cambridge 
# Crystallographic Data Centre (CCDC).
# 
# Full information about CCDC data access policies and citation 
# guidelines are available at http://www.ccdc.cam.ac.uk/access/V1 
# 
# Audit and citation data items may have been added by the CCDC. 
# Please retain this information to preserve the provenance of 
# this file and to allow appropriate attribution of the data. 
# 
#######################################################################

data_Compound1'
_audit_block_doi                 10.5517/cc12lz8x
_database_code_depnum_ccdc_archive 'CCDC 1001339'
loop_
_citation_id
_citation_doi
_citation_year
1 10.1021/ic501477u 2014
_audit_update_record             
;
2014-05-06 deposited with the CCDC.	2024-07-09 downloaded from the CCDC.
;

_audit_creation_method           SHELXL-97
_chemical_name_systematic        
;
 ?
;
_chemical_name_common            ?
_chemical_melting_point          ?
_chemical_formula_moiety         'C16 H22 N12 O8 Zn'
_chemical_formula_sum            'C16 H22 N12 O8 Zn'
_chemical_formula_weight         575.83

loop_
_atom_type_symbol
_atom_type_description
_atom_type_scat_dispersion_real
_atom_type_scat_dispersion_imag
_atom_type_scat_source
C C 0.0033 0.0016 'International Tables Vol C Tables 4.2.6.8 and 6.1.1.4'
H H 0.0000 0.0000 'International Tables Vol C Tables 4.2.6.8 and 6.1.1.4'
N N 0.0061 0.0033 'International Tables Vol C Tables 4.2.6.8 and 6.1.1.4'
O O 0.0106 0.0060 'International Tables Vol C Tables 4.2.6.8 and 6.1.1.4'
Zn Zn 0.2839 1.4301 'International Tables Vol C Tables 4.2.6.8 and 6.1.1.4'

_symmetry_cell_setting           Monoclinic
_symmetry_space_group_name_H-M   'C 2/c'

loop_
_symmetry_equiv_pos_as_xyz
'x, y, z'
'-x, y, -z+1/2'
'x+1/2, y+1/2, z'
'-x+1/2, y+1/2, -z+1/2'
'-x, -y, -z'
'x, -y, z-1/2'
'-x+1/2, -y+1/2, -z'
'x+1/2, -y+1/2, z-1/2'

_cell_length_a                   27.511(5)
_cell_length_b                   23.284(5)
_cell_length_c                   18.752(5)
_cell_angle_alpha                90.000(5)
_cell_angle_beta                 131.079(5)
_cell_angle_gamma                90.000(5)
_cell_volume                     9055(4)
_cell_formula_units_Z            8
_cell_measurement_temperature    200(2)
_cell_measurement_reflns_used    ?
_cell_measurement_theta_min      ?
_cell_measurement_theta_max      ?

_exptl_crystal_description       ?
_exptl_crystal_colour            ?
_exptl_crystal_size_max          0.12
_exptl_crystal_size_mid          0.11
_exptl_crystal_size_min          0.10
_exptl_crystal_density_meas      ?
_exptl_crystal_density_diffrn    0.845
_exptl_crystal_density_method    'not measured'
_exptl_crystal_F_000             2368
_exptl_absorpt_coefficient_mu    0.579
_exptl_absorpt_correction_type   ?
_exptl_absorpt_correction_T_min  0.9338
_exptl_absorpt_correction_T_max  0.9444
_exptl_absorpt_process_details   ?

_exptl_special_details           
;
 ?
;

_diffrn_ambient_temperature      200(2)
_diffrn_radiation_wavelength     0.71069
_diffrn_radiation_type           MoK\a
_diffrn_radiation_source         'fine-focus sealed tube'
_diffrn_radiation_monochromator  graphite
_diffrn_measurement_device_type  ?
_diffrn_measurement_method       ?
_diffrn_detector_area_resol_mean ?
_diffrn_standards_number         ?
_diffrn_standards_interval_count ?
_diffrn_standards_interval_time  ?
_diffrn_standards_decay_%        ?
_diffrn_reflns_number            16616
_diffrn_reflns_av_R_equivalents  0.0582
_diffrn_reflns_av_sigmaI/netI    0.0480
_diffrn_reflns_limit_h_min       -24
_diffrn_reflns_limit_h_max       24
_diffrn_reflns_limit_k_min       -20
_diffrn_reflns_limit_k_max       20
_diffrn_reflns_limit_l_min       -16
_diffrn_reflns_limit_l_max       16
_diffrn_reflns_theta_min         1.39
_diffrn_reflns_theta_max         18.39
_reflns_number_total             3320
_reflns_number_gt                2485
_reflns_threshold_expression     >2\s(I)

_computing_data_collection       ?
_computing_cell_refinement       ?
_computing_data_reduction        ?
_computing_structure_solution    ?
_computing_structure_refinement  'SHELXL-97 (Sheldrick, 2008)'
_computing_molecular_graphics    ?
_computing_publication_material  ?

_refine_special_details          
;
 Refinement of F^2^ against ALL reflections.  The weighted R-factor wR and
 goodness of fit S are based on F^2^, conventional R-factors R are based
 on F, with F set to zero for negative F^2^. The threshold expression of
 F^2^ > 2\s(F^2^) is used only for calculating R-factors(gt) etc. and is
 not relevant to the choice of reflections for refinement.  R-factors based
 on F^2^ are statistically about twice as large as those based on F, and R-
 factors based on ALL data will be even larger.
;

_refine_ls_structure_factor_coef Fsqd
_refine_ls_matrix_type           full
_refine_ls_weighting_scheme      calc
_refine_ls_weighting_details     
'calc w=1/[\s^2^(Fo^2^)+(0.2000P)^2^+0.0000P] where P=(Fo^2^+2Fc^2^)/3'
_atom_sites_solution_primary     direct
_atom_sites_solution_secondary   difmap
_atom_sites_solution_hydrogens   geom
_refine_ls_hydrogen_treatment    mixed
_refine_ls_extinction_method     none
_refine_ls_extinction_coef       ?
_refine_ls_number_reflns         3320
_refine_ls_number_parameters     336
_refine_ls_number_restraints     12
_refine_ls_R_factor_all          0.0828
_refine_ls_R_factor_gt           0.0681
_refine_ls_wR_factor_ref         0.2208
_refine_ls_wR_factor_gt          0.2071
_refine_ls_goodness_of_fit_ref   0.891
_refine_ls_restrained_S_all      0.897
_refine_ls_shift/su_max          0.030
_refine_ls_shift/su_mean         0.001

loop_
_atom_site_label
_atom_site_type_symbol
_atom_site_fract_x
_atom_site_fract_y
_atom_site_fract_z
_atom_site_U_iso_or_equiv
_atom_site_adp_type
_atom_site_occupancy
_atom_site_symmetry_multiplicity
_atom_site_calc_flag
_atom_site_refinement_flags
_atom_site_disorder_assembly
_atom_site_disorder_group
C1 C 0.3138(4) 0.1957(4) 0.1473(6) 0.052(2) Uani 1 1 d . . .
H1 H 0.2895 0.2287 0.1160 0.063 Uiso 1 1 calc R . .
C2 C 0.3800(4) 0.2009(4) 0.2204(7) 0.082(3) Uani 1 1 d . . .
H2 H 0.3991 0.2370 0.2402 0.099 Uiso 1 1 calc R . .
C3 C 0.4155(4) 0.1543(4) 0.2616(6) 0.054(2) Uani 1 1 d . . .
C4 C 0.3857(6) 0.1025(4) 0.2365(8) 0.089(3) Uani 1 1 d . . .
H4 H 0.4093 0.0690 0.2662 0.106 Uiso 1 1 calc R . .
C5 C 0.3220(5) 0.1008(4) 0.1687(8) 0.098(4) Uani 1 1 d . . .
H5 H 0.3019 0.0652 0.1530 0.118 Uiso 1 1 calc R . .
C6 C 0.4926(4) 0.1612(5) 0.3441(6) 0.073(3) Uani 1 1 d . . .
C7 C 0.5293(4) 0.1054(4) 0.3931(8) 0.115(4) Uani 1 1 d . . .
H7A H 0.5635 0.1017 0.3919 0.173 Uiso 1 1 calc R . .
H7B H 0.5004 0.0735 0.3607 0.173 Uiso 1 1 calc R . .
H7C H 0.5471 0.1061 0.4575 0.173 Uiso 1 1 calc R . .
C8 C 0.1021(5) 0.2301(4) -0.0734(6) 0.049(2) Uani 1 1 d . . .
C9 C 0.1859(3) 0.0271(4) -0.0508(7) 0.046(2) Uani 1 1 d . . .
C10 C 0.1682(5) -0.0984(5) -0.1674(7) 0.075(3) Uani 1 1 d . . .
C11 C 0.1699(7) -0.1517(4) -0.1121(10) 0.144(6) Uani 1 1 d . . .
H11A H 0.1348 -0.1486 -0.1127 0.216 Uiso 1 1 calc R . .
H11B H 0.2100 -0.1517 -0.0478 0.216 Uiso 1 1 calc R . .
H11C H 0.1658 -0.1868 -0.1424 0.216 Uiso 1 1 calc R . .
C12 C 0.1426(4) 0.0827(4) 0.1119(6) 0.056(2) Uani 1 1 d . . .
H12 H 0.1250 0.0546 0.0656 0.067 Uiso 1 1 calc R . .
C13 C 0.1421(4) 0.0753(4) 0.1849(8) 0.055(2) Uani 1 1 d . . .
H13 H 0.1268 0.0407 0.1883 0.065 Uiso 1 1 calc R . .
C14 C 0.1619(5) 0.1147(5) 0.2493(7) 0.066(3) Uani 1 1 d . . .
C15 C 0.1862(5) 0.1668(4) 0.2440(8) 0.078(3) Uani 1 1 d . . .
H15 H 0.2000 0.1967 0.2865 0.093 Uiso 1 1 calc R . .
C16 C 0.1881(4) 0.1709(4) 0.1718(7) 0.058(2) Uani 1 1 d . . .
H16 H 0.2045 0.2046 0.1678 0.070 Uiso 1 1 calc R . .
N1 N 0.2850(3) 0.1469(3) 0.1214(4) 0.0440(18) Uani 1 1 d . . .
N2 N 0.1886(2) 0.0593(3) -0.1103(4) 0.0451(17) Uani 1 1 d . . .
N3 N 0.1960(3) 0.1194(3) -0.0923(4) 0.0511(18) Uani 1 1 d . . .
N4 N 0.0562(3) 0.1876(3) -0.1303(5) 0.0585(19) Uani 1 1 d . . .
N5 N 0.0785(3) 0.1334(3) -0.1124(4) 0.0451(18) Uani 1 1 d . . .
N6 N 0.0129(3) 0.2884(3) -0.1515(4) 0.0458(18) Uani 1 1 d . . .
N7 N 0.1682(3) 0.1299(3) 0.1078(5) 0.0509(19) Uani 1 1 d U . .
N8 N 0.1754(3) -0.0300(4) -0.0743(5) 0.066(2) Uani 1 1 d . . .
N9 N 0.1695(3) -0.0490(4) -0.1531(6) 0.064(2) Uani 1 1 d . . .
N10 N 0.0804(3) 0.2841(3) -0.0831(5) 0.058(2) Uani 1 1 d U . .
N1N N 0.7007(5) 0.1677(4) 0.6236(8) 0.087(3) Uani 1 1 d . . .
N2N N 0.9375(4) 0.0973(4) 0.8350(6) 0.065(2) Uani 1 1 d . . .
O1 O 0.1618(3) 0.2208(2) -0.0155(4) 0.0524(16) Uani 1 1 d . . .
O2 O 0.1886(2) 0.0451(3) 0.0128(4) 0.0638(18) Uani 1 1 d . . .
O1N O 0.6850(3) 0.1437(2) 0.5508(5) 0.0577(17) Uani 1 1 d . . .
O2N O 0.6618(4) 0.1745(4) 0.6348(5) 0.122(3) Uani 1 1 d . . .
O3N O 0.7592(4) 0.1865(3) 0.6898(5) 0.108(2) Uani 1 1 d . . .
O4N O 0.9335(2) 0.1366(2) 0.7827(4) 0.0621(17) Uani 1 1 d . . .
O5N O 0.8901(3) 0.0720(3) 0.8115(4) 0.0742(19) Uani 1 1 d . . .
O6N O 0.9919(3) 0.0859(2) 0.9127(4) 0.0736(19) Uani 1 1 d . . .
Zn1 Zn 0.18495(4) 0.13490(4) 0.01192(6) 0.0496(6) Uani 1 1 d . . .

loop_
_atom_site_aniso_label
_atom_site_aniso_U_11
_atom_site_aniso_U_22
_atom_site_aniso_U_33
_atom_site_aniso_U_23
_atom_site_aniso_U_13
_atom_site_aniso_U_12
C1 0.019(6) 0.039(6) 0.071(6) 0.013(5) 0.017(5) 0.009(5)
C2 0.041(7) 0.020(5) 0.141(9) 0.037(6) 0.040(7) 0.016(5)
C3 0.032(6) 0.071(7) 0.061(6) -0.005(6) 0.032(5) -0.006(6)
C4 0.062(9) 0.022(6) 0.144(10) 0.002(6) 0.051(8) -0.006(6)
C5 0.035(7) 0.026(6) 0.129(9) 0.001(6) 0.008(7) -0.002(6)
C6 0.037(7) 0.104(9) 0.074(7) 0.036(7) 0.035(6) 0.043(7)
C7 0.055(7) 0.064(7) 0.175(11) 0.061(7) 0.053(7) -0.006(6)
C8 0.052(8) 0.037(6) 0.075(6) 0.004(5) 0.050(6) 0.008(6)
C9 0.038(5) 0.031(7) 0.079(7) 0.005(6) 0.043(5) -0.009(4)
C10 0.104(8) 0.049(7) 0.119(9) -0.015(7) 0.093(7) -0.013(6)
C11 0.303(17) 0.033(6) 0.320(17) 0.000(8) 0.302(17) -0.010(8)
C12 0.033(5) 0.055(7) 0.068(7) 0.004(5) 0.028(5) 0.015(5)
C13 0.037(5) 0.064(7) 0.090(7) 0.026(7) 0.053(6) 0.010(5)
C14 0.086(7) 0.075(9) 0.079(7) -0.012(7) 0.073(6) 0.011(6)
C15 0.105(8) 0.021(6) 0.154(11) 0.002(6) 0.105(8) 0.006(5)
C16 0.093(7) 0.038(6) 0.085(7) -0.005(5) 0.076(6) -0.018(5)
N1 0.036(5) 0.038(4) 0.070(5) -0.015(4) 0.041(4) -0.001(5)
N2 0.023(4) 0.045(5) 0.071(5) -0.006(4) 0.032(4) -0.004(3)
N3 0.043(4) 0.046(5) 0.078(5) -0.006(4) 0.045(4) -0.005(3)
N4 0.033(4) 0.056(5) 0.079(5) -0.019(4) 0.033(4) -0.009(4)
N5 0.028(4) 0.028(4) 0.073(5) 0.008(3) 0.031(4) 0.014(3)
N6 0.041(5) 0.038(5) 0.072(5) -0.011(4) 0.043(4) -0.006(4)
N7 0.039(4) 0.036(4) 0.092(5) 0.000(4) 0.050(4) -0.014(3)
N8 0.075(5) 0.063(7) 0.099(6) -0.014(5) 0.075(5) -0.007(4)
N9 0.058(5) 0.056(6) 0.104(7) -0.016(5) 0.065(5) 0.000(4)
N10 0.020(4) 0.062(5) 0.094(5) -0.013(4) 0.037(4) -0.003(4)
N1N 0.067(7) 0.102(7) 0.123(9) 0.034(7) 0.076(8) 0.042(6)
N2N 0.017(5) 0.098(7) 0.058(6) -0.001(5) 0.016(5) -0.001(5)
O1 0.022(3) 0.069(4) 0.065(4) -0.013(3) 0.029(3) -0.007(3)
O2 0.073(5) 0.066(5) 0.084(4) -0.020(3) 0.066(4) -0.014(3)
O1N 0.044(4) 0.075(4) 0.076(4) 0.004(3) 0.049(4) 0.016(3)
O2N 0.096(6) 0.185(9) 0.136(7) -0.041(5) 0.099(6) 0.005(5)
O3N 0.068(5) 0.129(7) 0.107(6) -0.013(5) 0.050(5) 0.000(5)
O4N 0.043(4) 0.063(4) 0.067(4) 0.012(3) 0.030(4) -0.004(3)
O5N 0.015(4) 0.102(5) 0.082(4) 0.018(3) 0.022(3) -0.010(3)
O6N 0.030(4) 0.087(5) 0.073(4) 0.023(4) 0.020(4) -0.007(3)
Zn1 0.0297(8) 0.0506(9) 0.0698(9) -0.0082(5) 0.0333(7) -0.0072(4)

_geom_special_details            
;
 All s.u.'s (except the s.u. in the dihedral angle between two l.s. planes)
 are estimated using the full covariance matrix.  The cell s.u.'s are taken
 into account individually in the estimation of s.u.'s in distances, angles
 and torsion angles; correlations between s.u.'s in cell parameters are only
 used when they are defined by crystal symmetry.  An approximate (isotropic)
 treatment of cell s.u.'s is used for estimating s.u.'s involving l.s. planes.
;

loop_
_geom_bond_atom_site_label_1
_geom_bond_atom_site_label_2
_geom_bond_distance
_geom_bond_site_symmetry_2
_geom_bond_publ_flag
C1 N1 1.285(9) . ?
C1 C2 1.389(11) . ?
C2 C3 1.318(10) . ?
C3 C4 1.358(11) . ?
C3 C6 1.613(12) . ?
C4 C5 1.325(11) . ?
C5 N1 1.339(10) . ?
C6 N6 1.279(11) 8_556 ?
C6 C7 1.526(12) . ?
C8 O1 1.257(9) . ?
C8 N10 1.353(9) . ?
C8 N4 1.391(10) . ?
C9 O2 1.220(9) . ?
C9 N8 1.369(10) . ?
C9 N2 1.386(10) . ?
C10 N9 1.177(10) . ?
C10 C14 1.502(13) 6 ?
C10 C11 1.600(13) . ?
C12 N7 1.333(9) . ?
C12 C13 1.389(11) . ?
C13 C14 1.316(11) . ?
C14 C15 1.420(12) . ?
C14 C10 1.502(13) 6_556 ?
C15 C16 1.394(12) . ?
C16 N7 1.338(9) . ?
N1 Zn1 2.107(6) . ?
N2 N3 1.423(8) . ?
N3 Zn1 2.196(6) . ?
N4 N5 1.347(8) . ?
N5 Zn1 2.245(6) . ?
N6 C6 1.279(11) 8_455 ?
N6 N10 1.405(8) . ?
N7 Zn1 2.132(7) . ?
N8 N9 1.446(9) . ?
N1N O2N 1.228(9) . ?
N1N O1N 1.260(10) . ?
N1N O3N 1.304(10) . ?
N2N O5N 1.221(8) . ?
N2N O6N 1.252(8) . ?
N2N O4N 1.292(8) . ?
O1 Zn1 2.059(5) . ?
O2 Zn1 2.092(6) . ?

loop_
_geom_angle_atom_site_label_1
_geom_angle_atom_site_label_2
_geom_angle_atom_site_label_3
_geom_angle
_geom_angle_site_symmetry_1
_geom_angle_site_symmetry_3
_geom_angle_publ_flag
N1 C1 C2 122.2(7) . . ?
C3 C2 C1 119.6(8) . . ?
C2 C3 C4 118.7(8) . . ?
C2 C3 C6 118.8(9) . . ?
C4 C3 C6 122.3(9) . . ?
C5 C4 C3 118.4(8) . . ?
C4 C5 N1 124.2(8) . . ?
N6 C6 C7 130.8(8) 8_556 . ?
N6 C6 C3 113.3(7) 8_556 . ?
C7 C6 C3 115.2(9) . . ?
O1 C8 N10 119.1(8) . . ?
O1 C8 N4 123.6(7) . . ?
N10 C8 N4 117.4(8) . . ?
O2 C9 N8 121.0(8) . . ?
O2 C9 N2 126.8(8) . . ?
N8 C9 N2 112.1(9) . . ?
N9 C10 C14 116.7(9) . 6 ?
N9 C10 C11 128.8(10) . . ?
C14 C10 C11 114.4(9) 6 . ?
N7 C12 C13 120.5(8) . . ?
C14 C13 C12 123.5(8) . . ?
C13 C14 C15 117.5(8) . . ?
C13 C14 C10 118.3(10) . 6_556 ?
C15 C14 C10 123.4(10) . 6_556 ?
C16 C15 C14 116.5(8) . . ?
N7 C16 C15 124.6(7) . . ?
C1 N1 C5 116.6(7) . . ?
C1 N1 Zn1 124.9(6) . . ?
C5 N1 Zn1 118.5(6) . . ?
C9 N2 N3 114.7(7) . . ?
N2 N3 Zn1 106.9(4) . . ?
N5 N4 C8 116.1(6) . . ?
N4 N5 Zn1 108.3(4) . . ?
C6 N6 N10 112.5(6) 8_455 . ?
C12 N7 C16 117.2(7) . . ?
C12 N7 Zn1 120.6(7) . . ?
C16 N7 Zn1 121.9(6) . . ?
C9 N8 N9 119.0(7) . . ?
C10 N9 N8 119.9(8) . . ?
C8 N10 N6 113.0(7) . . ?
O2N N1N O1N 121.8(10) . . ?
O2N N1N O3N 117.6(11) . . ?
O1N N1N O3N 120.6(8) . . ?
O5N N2N O6N 119.7(8) . . ?
O5N N2N O4N 122.0(7) . . ?
O6N N2N O4N 118.3(7) . . ?
C8 O1 Zn1 113.3(5) . . ?
C9 O2 Zn1 111.4(5) . . ?
O1 Zn1 O2 167.9(2) . . ?
O1 Zn1 N1 96.1(3) . . ?
O2 Zn1 N1 95.8(3) . . ?
O1 Zn1 N7 93.5(2) . . ?
O2 Zn1 N7 88.5(3) . . ?
N1 Zn1 N7 93.0(2) . . ?
O1 Zn1 N3 98.0(2) . . ?
O2 Zn1 N3 79.0(2) . . ?
N1 Zn1 N3 91.9(2) . . ?
N7 Zn1 N3 167.0(3) . . ?
O1 Zn1 N5 77.2(2) . . ?
O2 Zn1 N5 90.9(2) . . ?
N1 Zn1 N5 172.3(3) . . ?
N7 Zn1 N5 91.0(2) . . ?
N3 Zn1 N5 85.6(2) . . ?

_diffrn_measured_fraction_theta_max 0.998
_diffrn_reflns_theta_full        18.39
_diffrn_measured_fraction_theta_full 0.998
_refine_diff_density_max         0.583
_refine_diff_density_min         -0.447
_refine_diff_density_rms         0.087
# SQUEEZE RESULTS (APPEND TO CIF)
# Note: Data are Listed for all Voids in the P1 Unit Cell
# i.e. Centre of Gravity, Solvent Accessible Volume,
# Recovered number of Electrons in the Void and
# Details about the Squeezed Material
loop_
_platon_squeeze_void_nr
_platon_squeeze_void_average_x
_platon_squeeze_void_average_y
_platon_squeeze_void_average_z
_platon_squeeze_void_volume
_platon_squeeze_void_count_electrons
_platon_squeeze_void_content
1 -0.097 0.295 0.001 5134 1801 ' '
_platon_squeeze_details          
;
The SQUEEZE routine of the program PLATON was used

in order to eliminate the contribution of disordered solvents molecules,

thereby a final model based only on the ordered part of the crystal structure

was obtained.



The SQUEEZE routine suggested that

a total potential solvent area volume of 5131.6Ang^3^[56.67% of cell volume],

and a void electron population of 1801 per cell.



Refinement after the SQUEEZE routine gave significantly improved R values.

[R values before SQUEEZE]

R1 = 0.2647, wR2 = 0.6100 for >2sigma(I) data

R1 = 0.3016, wR2 = 0.6427, GooF = S = 3.247 for all data

( 3320 data and 0 restraint / 334 parameters)

;
