####################################################################### 
# 
# This file contains crystal structure data downloaded from the 
# Cambridge Structural Database (CSD) hosted by the Cambridge 
# Crystallographic Data Centre (CCDC).
# 
# Full information about CCDC data access policies and citation 
# guidelines are available at http://www.ccdc.cam.ac.uk/access/V1 
# 
# Audit and citation data items may have been added by the CCDC. 
# Please retain this information to preserve the provenance of 
# this file and to allow appropriate attribution of the data. 
# 
#######################################################################

data_Compound1BF4
_audit_block_doi                 10.5517/cc12m1sj
_database_code_depnum_ccdc_archive 'CCDC 1001417'
loop_
_citation_id
_citation_doi
_citation_year
1 10.1021/ic501477u 2014
_audit_update_record             
;
2014-05-06 deposited with the CCDC.	2024-07-09 downloaded from the CCDC.
;

_audit_creation_method           SHELXL-97
_chemical_name_systematic        
;
 ?
;
_chemical_name_common            ?
_chemical_melting_point          ?
_chemical_formula_moiety         'C16 H22 B2 F8 N10 O2 Zn'
_chemical_formula_sum            'C16 H22 B2 F8 N10 O2 Zn'
_chemical_formula_weight         625.43

loop_
_atom_type_symbol
_atom_type_description
_atom_type_scat_dispersion_real
_atom_type_scat_dispersion_imag
_atom_type_scat_source
C C 0.0033 0.0016 'International Tables Vol C Tables 4.2.6.8 and 6.1.1.4'
B B 0.0013 0.0007 'International Tables Vol C Tables 4.2.6.8 and 6.1.1.4'
F F 0.0171 0.0103 'International Tables Vol C Tables 4.2.6.8 and 6.1.1.4'
Zn Zn 0.2839 1.4301 'International Tables Vol C Tables 4.2.6.8 and 6.1.1.4'
N N 0.0061 0.0033 'International Tables Vol C Tables 4.2.6.8 and 6.1.1.4'
O O 0.0106 0.0060 'International Tables Vol C Tables 4.2.6.8 and 6.1.1.4'
H H 0.0000 0.0000 'International Tables Vol C Tables 4.2.6.8 and 6.1.1.4'

_symmetry_cell_setting           Monoclinic
_symmetry_space_group_name_H-M   Cc

loop_
_symmetry_equiv_pos_as_xyz
'x, y, z'
'x, -y, z+1/2'
'x+1/2, y+1/2, z'
'x+1/2, -y+1/2, z+1/2'

_cell_length_a                   18.834(5)
_cell_length_b                   12.345(3)
_cell_length_c                   15.224(4)
_cell_angle_alpha                90.00
_cell_angle_beta                 106.163(6)
_cell_angle_gamma                90.00
_cell_volume                     3399.7(15)
_cell_formula_units_Z            4
_cell_measurement_temperature    200(2)
_cell_measurement_reflns_used    ?
_cell_measurement_theta_min      ?
_cell_measurement_theta_max      ?

_exptl_crystal_description       ?
_exptl_crystal_colour            ?
_exptl_crystal_size_max          0.14
_exptl_crystal_size_mid          0.11
_exptl_crystal_size_min          0.10
_exptl_crystal_density_meas      ?
_exptl_crystal_density_diffrn    1.222
_exptl_crystal_density_method    'not measured'
_exptl_crystal_F_000             1264
_exptl_absorpt_coefficient_mu    0.793
_exptl_absorpt_correction_type   ?
_exptl_absorpt_correction_T_min  0.8970
_exptl_absorpt_correction_T_max  0.9249
_exptl_absorpt_process_details   ?

_exptl_special_details           
;
 ?
;

_diffrn_ambient_temperature      200(2)
_diffrn_radiation_wavelength     0.71073
_diffrn_radiation_type           MoK\a
_diffrn_radiation_source         'fine-focus sealed tube'
_diffrn_radiation_monochromator  graphite
_diffrn_measurement_device_type  ?
_diffrn_measurement_method       ?
_diffrn_detector_area_resol_mean ?
_diffrn_standards_number         ?
_diffrn_standards_interval_count ?
_diffrn_standards_interval_time  ?
_diffrn_standards_decay_%        ?
_diffrn_reflns_number            6124
_diffrn_reflns_av_R_equivalents  0.0397
_diffrn_reflns_av_sigmaI/netI    0.0515
_diffrn_reflns_limit_h_min       -18
_diffrn_reflns_limit_h_max       16
_diffrn_reflns_limit_k_min       -11
_diffrn_reflns_limit_k_max       11
_diffrn_reflns_limit_l_min       -14
_diffrn_reflns_limit_l_max       14
_diffrn_reflns_theta_min         2.25
_diffrn_reflns_theta_max         20.01
_reflns_number_total             2923
_reflns_number_gt                2448
_reflns_threshold_expression     >2\s(I)

_computing_data_collection       ?
_computing_cell_refinement       ?
_computing_data_reduction        ?
_computing_structure_solution    ?
_computing_structure_refinement  'SHELXL-97 (Sheldrick, 2008)'
_computing_molecular_graphics    ?
_computing_publication_material  ?

_refine_special_details          
;
 Refinement of F^2^ against ALL reflections.  The weighted R-factor wR and
 goodness of fit S are based on F^2^, conventional R-factors R are based
 on F, with F set to zero for negative F^2^. The threshold expression of
 F^2^ > 2\s(F^2^) is used only for calculating R-factors(gt) etc. and is
 not relevant to the choice of reflections for refinement.  R-factors based
 on F^2^ are statistically about twice as large as those based on F, and R-
 factors based on ALL data will be even larger.
;

_refine_ls_structure_factor_coef Fsqd
_refine_ls_matrix_type           full
_refine_ls_weighting_scheme      calc
_refine_ls_weighting_details     
'calc w=1/[\s^2^(Fo^2^)+(0.2000P)^2^+0.0000P] where P=(Fo^2^+2Fc^2^)/3'
_atom_sites_solution_primary     direct
_atom_sites_solution_secondary   difmap
_atom_sites_solution_hydrogens   geom
_refine_ls_hydrogen_treatment    mixed
_refine_ls_extinction_method     none
_refine_ls_extinction_coef       ?
_refine_ls_abs_structure_details 'Flack H D (1983), Acta Cryst. A39, 876-881'
_refine_ls_abs_structure_Flack   0.42(3)
_refine_ls_number_reflns         2923
_refine_ls_number_parameters     342
_refine_ls_number_restraints     272
_refine_ls_R_factor_all          0.0728
_refine_ls_R_factor_gt           0.0615
_refine_ls_wR_factor_ref         0.2166
_refine_ls_wR_factor_gt          0.1949
_refine_ls_goodness_of_fit_ref   0.936
_refine_ls_restrained_S_all      0.959
_refine_ls_shift/su_max          0.027
_refine_ls_shift/su_mean         0.004

loop_
_atom_site_label
_atom_site_type_symbol
_atom_site_fract_x
_atom_site_fract_y
_atom_site_fract_z
_atom_site_U_iso_or_equiv
_atom_site_adp_type
_atom_site_occupancy
_atom_site_symmetry_multiplicity
_atom_site_calc_flag
_atom_site_refinement_flags
_atom_site_disorder_assembly
_atom_site_disorder_group
C12 C 0.9357(5) 0.1276(9) 0.4516(4) 0.059(6) Uani 1 1 d GU . .
H12 H 0.9477 0.1221 0.5150 0.070 Uiso 1 1 calc R . .
C13 C 0.9789(4) 0.1905(8) 0.4110(6) 0.035(5) Uani 1 1 d GU . .
H13 H 1.0199 0.2271 0.4471 0.042 Uiso 1 1 calc R . .
N6 N 0.9610(4) 0.1988(7) 0.3163(6) 0.028(4) Uani 1 1 d GU . .
C9 C 0.8998(5) 0.1441(8) 0.2622(4) 0.041(5) Uani 1 1 d GU . .
H9 H 0.8879 0.1496 0.1989 0.050 Uiso 1 1 calc R . .
C10 C 0.8566(4) 0.0811(7) 0.3029(6) 0.029(4) Uani 1 1 d GU . .
H10 H 0.8157 0.0446 0.2668 0.035 Uiso 1 1 calc R . .
C11 C 0.8745(5) 0.0729(8) 0.3976(6) 0.052(5) Uani 1 1 d GU . .
Zn2 Zn 1.00404(12) 0.32164(7) 0.24593(14) 0.0271(5) Uani 1 1 d . . .
C14 C 0.8217(8) 0.0015(11) 0.4353(10) 0.030(4) Uani 1 1 d . . .
N5 N 0.9434(6) 0.4460(10) 0.2932(8) 0.029(3) Uani 1 1 d U . .
N2 N 0.7474(5) 0.4875(9) 0.1115(6) 0.021(3) Uani 1 1 d U . .
C3 C 1.1344(5) 0.0662(8) 0.0978(6) 0.005(3) Uani 1 1 d U . .
N10 N 1.0652(6) 0.4493(11) 0.1934(8) 0.047(4) Uani 1 1 d DU . .
C15 C 0.8534(7) -0.0438(11) 0.5330(8) 0.022(4) Uani 1 1 d U . .
H15A H 0.8200 -0.0279 0.5687 0.032 Uiso 1 1 calc R . .
H15B H 0.9005 -0.0108 0.5608 0.032 Uiso 1 1 calc R . .
H15C H 0.8595 -0.1208 0.5301 0.032 Uiso 1 1 calc R . .
N7 N 0.7605(6) -0.0121(10) 0.3783(7) 0.026(3) Uani 1 1 d DU . .
N3 N 0.7969(6) 0.4268(10) 0.0863(7) 0.032(3) Uani 1 1 d U . .
H3 H 0.7872 0.4020 0.0314 0.038 Uiso 1 1 calc R . .
N1 N 1.0536(5) 0.2088(9) 0.1766(7) 0.022(3) Uani 1 1 d U . .
C1 C 1.1068(8) 0.1501(12) 0.2223(9) 0.041(5) Uani 1 1 d U . .
H1 H 1.1193 0.1563 0.2857 0.049 Uiso 1 1 calc R . .
C2 C 1.1472(8) 0.0787(12) 0.1868(10) 0.048(5) Uani 1 1 d U . .
H2 H 1.1844 0.0384 0.2262 0.057 Uiso 1 1 calc R . .
C4 C 1.0745(5) 0.1228(8) 0.0465(6) 0.005(3) Uani 1 1 d U . .
H4 H 1.0602 0.1168 -0.0169 0.006 Uiso 1 1 calc R . .
C5 C 1.0360(7) 0.1883(9) 0.0898(8) 0.018(4) Uani 1 1 d U . .
H5 H 0.9934 0.2209 0.0536 0.021 Uiso 1 1 calc R . .
O2 O 1.0989(6) 0.3385(8) 0.3534(6) 0.027(3) Uani 1 1 d U . .
O1 O 0.9099(6) 0.3449(8) 0.1287(7) 0.030(3) Uani 1 1 d U . .
C16 C 1.1454(8) 0.4117(11) 0.3410(9) 0.023(3) Uani 1 1 d U . .
N9 N 1.1317(6) 0.4593(10) 0.2691(7) 0.034(3) Uani 1 1 d DU . .
H9A H 1.1648 0.5037 0.2619 0.041 Uiso 1 1 calc R . .
C7 C 0.6807(7) 0.5020(11) 0.0562(9) 0.020(3) Uani 1 1 d U . .
N4 N 0.8753(6) 0.4656(10) 0.2313(7) 0.032(3) Uani 1 1 d U . .
H4A H 0.8432 0.5100 0.2412 0.039 Uiso 1 1 calc R . .
C8 C 0.8644(8) 0.4039(12) 0.1494(10) 0.032(4) Uani 1 1 d U . .
C6 C 0.6622(7) 0.4588(12) -0.0359(9) 0.034(4) Uani 1 1 d U . .
H6A H 0.6718 0.5126 -0.0767 0.051 Uiso 1 1 calc R . .
H6B H 0.6108 0.4395 -0.0549 0.051 Uiso 1 1 calc R . .
H6C H 0.6917 0.3957 -0.0372 0.051 Uiso 1 1 calc R . .
F8 F 0.7161(6) 0.7843(8) 0.5633(7) 0.057(3) Uani 1 1 d D . .
F6 F 0.6725(7) 0.8916(10) 0.6498(9) 0.126(5) Uani 1 1 d DU . .
F5 F 0.6175(6) 0.7283(11) 0.6082(8) 0.092(4) Uani 1 1 d D . .
B2 B 0.6782(13) 0.7920(19) 0.6267(15) 0.076(8) Uani 1 1 d DU . .
B1 B 0.8421(10) 0.6906(16) 0.3780(14) 0.054(6) Uani 1 1 d DU . .
F3 F 0.9003(6) 0.6257(9) 0.4297(7) 0.104(4) Uani 1 1 d D . .
F1 F 0.7874(5) 0.7177(7) 0.4206(6) 0.052(3) Uani 1 1 d . . .
F4 F 0.8203(6) 0.6494(12) 0.2987(9) 0.136(6) Uani 1 1 d . . .
F2 F 0.8854(8) 0.7829(11) 0.3840(10) 0.115(5) Uani 1 1 d . . .
N8 N 0.7075(5) -0.0758(8) 0.4081(6) 0.017(3) Uani 1 1 d DU . .
H8 H 0.7151 -0.1022 0.4622 0.021 Uiso 1 1 calc R . .
F7 F 0.7265(6) 0.7357(9) 0.7116(6) 0.113(4) Uani 1 1 d D . .

loop_
_atom_site_aniso_label
_atom_site_aniso_U_11
_atom_site_aniso_U_22
_atom_site_aniso_U_33
_atom_site_aniso_U_23
_atom_site_aniso_U_13
_atom_site_aniso_U_12
C12 0.029(8) 0.083(12) 0.062(10) -0.015(8) 0.009(7) -0.003(8)
C13 0.019(7) 0.036(7) 0.045(8) 0.003(5) 0.003(6) -0.008(5)
N6 0.021(5) 0.028(5) 0.034(5) -0.003(3) 0.006(3) -0.008(3)
C9 0.042(5) 0.042(5) 0.041(5) -0.0006(11) 0.0117(16) -0.0014(11)
C10 0.023(5) 0.035(5) 0.030(5) -0.004(3) 0.007(3) -0.018(3)
C11 0.051(5) 0.052(5) 0.052(5) -0.0006(11) 0.0144(18) -0.0001(11)
Zn2 0.0139(7) 0.0232(7) 0.0443(8) 0.0015(11) 0.0084(5) 0.0017(9)
C14 0.026(7) 0.019(7) 0.045(8) -0.008(6) 0.013(6) -0.002(6)
N5 0.022(4) 0.030(5) 0.033(4) -0.002(3) 0.001(3) 0.000(3)
N2 0.020(3) 0.020(3) 0.022(3) -0.0002(10) 0.0057(13) 0.0014(11)
C3 0.004(3) 0.005(3) 0.005(3) 0.0008(11) 0.0013(13) -0.0009(11)
N10 0.021(5) 0.043(6) 0.063(6) 0.019(5) -0.009(5) -0.025(4)
C15 0.021(4) 0.022(4) 0.022(4) 0.0004(11) 0.0060(14) -0.0004(11)
N7 0.026(3) 0.026(3) 0.028(3) 0.0008(11) 0.0077(13) -0.0011(11)
N3 0.031(3) 0.032(3) 0.032(3) -0.0009(10) 0.0090(14) 0.0012(10)
N1 0.021(4) 0.021(4) 0.024(4) 0.006(3) 0.006(3) 0.003(3)
C1 0.042(5) 0.047(6) 0.037(5) 0.005(3) 0.015(3) 0.015(3)
C2 0.047(5) 0.048(5) 0.048(5) 0.0004(11) 0.0133(17) 0.0016(11)
C4 0.005(3) 0.005(3) 0.005(3) -0.0002(11) 0.0012(13) 0.0007(11)
C5 0.017(4) 0.018(4) 0.018(4) 0.0004(11) 0.0046(14) 0.0003(11)
O2 0.023(3) 0.029(3) 0.031(3) 0.0031(19) 0.011(2) -0.0059(19)
O1 0.029(3) 0.030(3) 0.031(3) -0.0009(10) 0.0087(12) 0.0008(11)
C16 0.022(4) 0.022(4) 0.023(4) 0.0006(11) 0.0066(14) -0.0003(11)
N9 0.025(4) 0.036(5) 0.037(5) 0.005(3) 0.002(3) -0.005(3)
C7 0.019(4) 0.019(4) 0.020(4) 0.0000(11) 0.0050(14) -0.0002(11)
N4 0.025(4) 0.037(5) 0.033(4) -0.012(3) 0.004(3) 0.011(3)
C8 0.032(4) 0.032(4) 0.033(4) -0.0011(11) 0.0091(15) 0.0005(11)
C6 0.033(4) 0.034(4) 0.034(4) 0.0004(11) 0.0090(15) 0.0002(11)
F8 0.071(7) 0.043(6) 0.067(7) 0.007(6) 0.033(6) 0.021(6)
F6 0.119(7) 0.101(7) 0.158(8) -0.070(6) 0.040(6) 0.025(6)
F5 0.052(7) 0.126(11) 0.107(10) -0.042(8) 0.039(7) 0.002(8)
B2 0.090(15) 0.056(12) 0.065(13) -0.040(11) -0.006(12) -0.004(11)
B1 0.061(10) 0.059(10) 0.057(9) -0.014(7) 0.043(8) -0.018(7)
F3 0.096(7) 0.121(9) 0.098(7) 0.014(7) 0.032(6) 0.064(7)
F1 0.072(7) 0.036(6) 0.054(6) 0.003(5) 0.030(6) -0.002(6)
F4 0.074(7) 0.190(14) 0.145(11) -0.140(11) 0.030(7) -0.008(8)
F2 0.124(11) 0.107(9) 0.138(12) -0.054(9) 0.075(10) -0.054(9)
N8 0.017(3) 0.017(3) 0.018(3) 0.0003(10) 0.0054(12) -0.0016(10)
F7 0.154(10) 0.126(9) 0.058(6) -0.018(6) 0.028(7) 0.007(8)

_geom_special_details            
;
 All s.u.'s (except the s.u. in the dihedral angle between two l.s. planes)
 are estimated using the full covariance matrix.  The cell s.u.'s are taken
 into account individually in the estimation of s.u.'s in distances, angles
 and torsion angles; correlations between s.u.'s in cell parameters are only
 used when they are defined by crystal symmetry.  An approximate (isotropic)
 treatment of cell s.u.'s is used for estimating s.u.'s involving l.s. planes.
;

loop_
_geom_bond_atom_site_label_1
_geom_bond_atom_site_label_2
_geom_bond_distance
_geom_bond_site_symmetry_2
_geom_bond_publ_flag
C12 C13 1.3900 . ?
C12 C11 1.3900 . ?
C12 H12 0.9300 . ?
C13 N6 1.3900 . ?
C13 H13 0.9300 . ?
N6 C9 1.3900 . ?
N6 Zn2 2.141(7) . ?
C9 C10 1.3900 . ?
C9 H9 0.9300 . ?
C10 C11 1.3900 . ?
C10 H10 0.9300 . ?
C11 C14 1.553(15) . ?
Zn2 O1 2.156(10) . ?
Zn2 O2 2.070(10) . ?
Zn2 N5 2.154(12) . ?
Zn2 N1 2.116(9) . ?
Zn2 N10 2.229(12) . ?
C14 N7 1.246(17) . ?
C14 C15 1.544(19) . ?
N5 N4 1.385(15) . ?
N2 N3 1.332(14) . ?
N2 C7 1.316(15) . ?
C3 C2 1.317(15) . ?
C3 C4 1.372(12) . ?
C3 C7 1.448(16) 3_545 ?
N10 N9 1.452(13) . ?
C15 H15A 0.9600 . ?
C15 H15B 0.9600 . ?
C15 H15C 0.9600 . ?
N7 N8 1.439(12) . ?
N3 C8 1.393(18) . ?
N3 H3 0.8600 . ?
N1 C5 1.294(14) . ?
N1 C1 1.275(15) . ?
C1 C2 1.370(17) . ?
C1 H1 0.9300 . ?
C2 H2 0.9300 . ?
C4 C5 1.372(13) . ?
C4 H4 0.9300 . ?
C5 H5 0.9300 . ?
O2 C16 1.308(16) . ?
O1 C8 1.231(16) . ?
C16 N9 1.205(15) . ?
C16 N8 1.331(16) 3 ?
N9 H9A 0.8600 . ?
C7 C6 1.449(18) . ?
C7 C3 1.448(16) 3_455 ?
N4 C8 1.427(18) . ?
N4 H4A 0.8600 . ?
C6 H6A 0.9600 . ?
C6 H6B 0.9600 . ?
C6 H6C 0.9600 . ?
F8 B2 1.352(18) . ?
F6 B2 1.29(2) . ?
F5 B2 1.35(2) . ?
B2 F7 1.53(3) . ?
B1 F4 1.27(2) . ?
B1 F1 1.40(2) . ?
B1 F2 1.39(2) . ?
B1 F3 1.408(17) . ?
N8 C16 1.331(16) 3_445 ?
N8 H8 0.8600 . ?

loop_
_geom_angle_atom_site_label_1
_geom_angle_atom_site_label_2
_geom_angle_atom_site_label_3
_geom_angle
_geom_angle_site_symmetry_1
_geom_angle_site_symmetry_3
_geom_angle_publ_flag
C13 C12 C11 120.0 . . ?
C13 C12 H12 120.0 . . ?
C11 C12 H12 120.0 . . ?
N6 C13 C12 120.0 . . ?
N6 C13 H13 120.0 . . ?
C12 C13 H13 120.0 . . ?
C13 N6 C9 120.0 . . ?
C13 N6 Zn2 123.6(5) . . ?
C9 N6 Zn2 114.5(5) . . ?
C10 C9 N6 120.0 . . ?
C10 C9 H9 120.0 . . ?
N6 C9 H9 120.0 . . ?
C11 C10 C9 120.0 . . ?
C11 C10 H10 120.0 . . ?
C9 C10 H10 120.0 . . ?
C10 C11 C12 120.0 . . ?
C10 C11 C14 115.4(8) . . ?
C12 C11 C14 124.6(8) . . ?
O1 Zn2 O2 166.1(2) . . ?
O1 Zn2 N6 99.8(4) . . ?
O2 Zn2 N6 92.3(3) . . ?
O1 Zn2 N5 78.0(4) . . ?
O2 Zn2 N5 94.9(4) . . ?
N6 Zn2 N5 91.6(4) . . ?
O1 Zn2 N1 92.9(4) . . ?
O2 Zn2 N1 93.2(4) . . ?
N6 Zn2 N1 93.7(3) . . ?
N5 Zn2 N1 170.1(4) . . ?
O1 Zn2 N10 89.8(4) . . ?
O2 Zn2 N10 78.1(4) . . ?
N6 Zn2 N10 170.4(4) . . ?
N5 Zn2 N10 89.5(3) . . ?
N1 Zn2 N10 86.7(5) . . ?
N7 C14 C11 112.5(13) . . ?
N7 C14 C15 131.0(13) . . ?
C11 C14 C15 116.4(11) . . ?
N4 N5 Zn2 112.0(9) . . ?
N3 N2 C7 120.8(11) . . ?
C2 C3 C4 114.3(9) . . ?
C2 C3 C7 123.7(10) . 3_545 ?
C4 C3 C7 121.9(9) . 3_545 ?
N9 N10 Zn2 101.1(8) . . ?
C14 C15 H15A 109.5 . . ?
C14 C15 H15B 109.5 . . ?
H15A C15 H15B 109.5 . . ?
C14 C15 H15C 109.5 . . ?
H15A C15 H15C 109.5 . . ?
H15B C15 H15C 109.5 . . ?
C14 N7 N8 116.2(12) . . ?
N2 N3 C8 119.5(11) . . ?
N2 N3 H3 120.2 . . ?
C8 N3 H3 120.2 . . ?
C5 N1 C1 112.7(10) . . ?
C5 N1 Zn2 127.9(8) . . ?
C1 N1 Zn2 119.4(9) . . ?
N1 C1 C2 126.0(12) . . ?
N1 C1 H1 117.0 . . ?
C2 C1 H1 117.0 . . ?
C1 C2 C3 121.3(12) . . ?
C1 C2 H2 119.3 . . ?
C3 C2 H2 119.4 . . ?
C5 C4 C3 119.2(9) . . ?
C5 C4 H4 120.4 . . ?
C3 C4 H4 120.4 . . ?
N1 C5 C4 125.9(10) . . ?
N1 C5 H5 117.0 . . ?
C4 C5 H5 117.0 . . ?
C16 O2 Zn2 114.9(8) . . ?
C8 O1 Zn2 109.8(10) . . ?
N9 C16 N8 124.1(13) . 3 ?
N9 C16 O2 119.0(13) . . ?
N8 C16 O2 116.8(12) 3 . ?
C16 N9 N10 126.8(12) . . ?
C16 N9 H9A 116.6 . . ?
N10 N9 H9A 116.6 . . ?
N2 C7 C6 119.9(12) . . ?
N2 C7 C3 112.2(11) . 3_455 ?
C6 C7 C3 127.8(11) . 3_455 ?
N5 N4 C8 112.5(11) . . ?
N5 N4 H4A 123.8 . . ?
C8 N4 H4A 123.8 . . ?
O1 C8 N3 120.8(14) . . ?
O1 C8 N4 126.7(14) . . ?
N3 C8 N4 112.1(13) . . ?
C7 C6 H6A 109.5 . . ?
C7 C6 H6B 109.5 . . ?
H6A C6 H6B 109.5 . . ?
C7 C6 H6C 109.5 . . ?
H6A C6 H6C 109.5 . . ?
H6B C6 H6C 109.5 . . ?
F6 B2 F5 118.7(19) . . ?
F6 B2 F8 111.2(19) . . ?
F5 B2 F8 113.3(16) . . ?
F6 B2 F7 106.1(15) . . ?
F5 B2 F7 100.5(17) . . ?
F8 B2 F7 105.3(16) . . ?
F4 B1 F1 116.7(16) . . ?
F4 B1 F2 114.9(17) . . ?
F1 B1 F2 105.5(15) . . ?
F4 B1 F3 107.4(16) . . ?
F1 B1 F3 115.7(14) . . ?
F2 B1 F3 94.6(14) . . ?
C16 N8 N7 111.1(10) 3_445 . ?
C16 N8 H8 124.5 3_445 . ?
N7 N8 H8 124.5 . . ?

loop_
_geom_torsion_atom_site_label_1
_geom_torsion_atom_site_label_2
_geom_torsion_atom_site_label_3
_geom_torsion_atom_site_label_4
_geom_torsion
_geom_torsion_site_symmetry_1
_geom_torsion_site_symmetry_2
_geom_torsion_site_symmetry_3
_geom_torsion_site_symmetry_4
_geom_torsion_publ_flag
C11 C12 C13 N6 0.0 . . . . ?
C12 C13 N6 C9 0.0 . . . . ?
C12 C13 N6 Zn2 163.7(6) . . . . ?
C13 N6 C9 C10 0.0 . . . . ?
Zn2 N6 C9 C10 -165.1(6) . . . . ?
N6 C9 C10 C11 0.0 . . . . ?
C9 C10 C11 C12 0.0 . . . . ?
C9 C10 C11 C14 179.3(9) . . . . ?
C13 C12 C11 C10 0.0 . . . . ?
C13 C12 C11 C14 -179.2(10) . . . . ?
C13 N6 Zn2 O1 -146.1(6) . . . . ?
C9 N6 Zn2 O1 18.4(5) . . . . ?
C13 N6 Zn2 O2 27.0(6) . . . . ?
C9 N6 Zn2 O2 -168.5(5) . . . . ?
C13 N6 Zn2 N5 -68.0(6) . . . . ?
C9 N6 Zn2 N5 96.5(5) . . . . ?
C13 N6 Zn2 N1 120.4(5) . . . . ?
C9 N6 Zn2 N1 -75.1(5) . . . . ?
C13 N6 Zn2 N10 29(3) . . . . ?
C9 N6 Zn2 N10 -167(3) . . . . ?
C10 C11 C14 N7 -19.4(14) . 