####################################################################### 
# 
# This file contains crystal structure data downloaded from the 
# Cambridge Structural Database (CSD) hosted by the Cambridge 
# Crystallographic Data Centre (CCDC).
# 
# Full information about CCDC data access policies and citation 
# guidelines are available at http://www.ccdc.cam.ac.uk/access/V1 
# 
# Audit and citation data items may have been added by the CCDC. 
# Please retain this information to preserve the provenance of 
# this file and to allow appropriate attribution of the data. 
# 
#######################################################################

data_xb4819_0m
_audit_block_doi                 10.5517/cc12lysd
_database_code_depnum_ccdc_archive 'CCDC 1001324'
loop_
_citation_id
_citation_doi
_citation_year
1 10.1002/zaac.201400217 2014
_audit_update_record             
;
2014-05-06 deposited with the CCDC.	2024-07-09 downloaded from the CCDC.
;

_audit_creation_method           SHELXL-97
_chemical_name_systematic        
; 
 ? 
;
_chemical_name_common            ?
_chemical_melting_point          ?
_chemical_formula_moiety         ?
_chemical_formula_sum            'C60 H46 N6 O22 Zn3 '
_chemical_formula_weight         1398.26

loop_
_atom_type_symbol
_atom_type_description
_atom_type_scat_dispersion_real
_atom_type_scat_dispersion_imag
_atom_type_scat_source
C C 0.0033 0.0016 'International Tables Vol C Tables 4.2.6.8 and 6.1.1.4'
H H 0.0000 0.0000 'International Tables Vol C Tables 4.2.6.8 and 6.1.1.4'
N N 0.0061 0.0033 'International Tables Vol C Tables 4.2.6.8 and 6.1.1.4'
O O 0.0106 0.0060 'International Tables Vol C Tables 4.2.6.8 and 6.1.1.4'
Zn Zn 0.2839 1.4301 'International Tables Vol C Tables 4.2.6.8 and 6.1.1.4'

_symmetry_cell_setting           Monoclinic
_symmetry_space_group_name_H-M   C2/c

loop_
_symmetry_equiv_pos_as_xyz
'x, y, z'
'-x, y, -z+1/2'
'x+1/2, y+1/2, z'
'-x+1/2, y+1/2, -z+1/2'
'-x, -y, -z'
'x, -y, z-1/2'
'-x+1/2, -y+1/2, -z'
'x+1/2, -y+1/2, z-1/2'

_cell_length_a                   28.654(3)
_cell_length_b                   15.0332(16)
_cell_length_c                   16.5899(18)
_cell_angle_alpha                90.00
_cell_angle_beta                 119.904(2)
_cell_angle_gamma                90.00
_cell_volume                     6194.8(11)
_cell_formula_units_Z            4
_cell_measurement_temperature    296(2)
_cell_measurement_reflns_used    3485
_cell_measurement_theta_min      2.882
_cell_measurement_theta_max      22.378

_exptl_crystal_description       block
_exptl_crystal_colour            colorless
_exptl_crystal_size_max          0.28
_exptl_crystal_size_mid          0.24
_exptl_crystal_size_min          0.20
_exptl_crystal_density_meas      ?
_exptl_crystal_density_diffrn    1.492
_exptl_crystal_density_method    'not measured'
_exptl_crystal_F_000             2842
_exptl_absorpt_coefficient_mu    1.235
_exptl_absorpt_correction_type   multi-scan
_exptl_absorpt_correction_T_min  0.715
_exptl_absorpt_correction_T_max  0.781
_exptl_absorpt_process_details   sadabs

_exptl_special_details           
; 
 ? 
;

_diffrn_ambient_temperature      296(2)
_diffrn_radiation_wavelength     0.71073
_diffrn_radiation_type           MoK\a
_diffrn_radiation_source         'fine-focus sealed tube'
_diffrn_radiation_monochromator  graphite
_diffrn_measurement_device_type  ?
_diffrn_measurement_method       ?
_diffrn_detector_area_resol_mean ?
_diffrn_standards_number         ?
_diffrn_standards_interval_count ?
_diffrn_standards_interval_time  ?
_diffrn_standards_decay_%        ?
_diffrn_reflns_number            15434
_diffrn_reflns_av_R_equivalents  0.0403
_diffrn_reflns_av_sigmaI/netI    0.0485
_diffrn_reflns_limit_h_min       -34
_diffrn_reflns_limit_h_max       23
_diffrn_reflns_limit_k_min       -16
_diffrn_reflns_limit_k_max       17
_diffrn_reflns_limit_l_min       -19
_diffrn_reflns_limit_l_max       19
_diffrn_reflns_theta_min         1.58
_diffrn_reflns_theta_max         25.10
_reflns_number_total             5519
_reflns_number_gt                4128
_reflns_threshold_expression     >2sigma(I)

_computing_data_collection       ?
_computing_cell_refinement       ?
_computing_data_reduction        ?
_computing_structure_solution    'SHELXS-97 (Sheldrick, 1990)'
_computing_structure_refinement  'SHELXL-97 (Sheldrick, 1997)'
_computing_molecular_graphics    ?
_computing_publication_material  ?

_refine_special_details          
; 
 Refinement of F^2^ against ALL reflections.  The weighted R-factor wR and 
 goodness of fit S are based on F^2^, conventional R-factors R are based 
 on F, with F set to zero for negative F^2^. The threshold expression of 
 F^2^ > 2sigma(F^2^) is used only for calculating R-factors(gt) etc. and is 
 not relevant to the choice of reflections for refinement.  R-factors based 
 on F^2^ are statistically about twice as large as those based on F, and R- 
 factors based on ALL data will be even larger. 
;

_refine_ls_structure_factor_coef Fsqd
_refine_ls_matrix_type           full
_refine_ls_weighting_scheme      calc
_refine_ls_weighting_details     
'calc w=1/[\s^2^(Fo^2^)+(0.2154P)^2^+4.3347P] where P=(Fo^2^+2Fc^2^)/3'
_atom_sites_solution_primary     direct
_atom_sites_solution_secondary   difmap
_atom_sites_solution_hydrogens   geom
_refine_ls_hydrogen_treatment    mixed
_refine_ls_extinction_method     none
_refine_ls_extinction_coef       ?
_refine_ls_number_reflns         5519
_refine_ls_number_parameters     391
_refine_ls_number_restraints     24
_refine_ls_R_factor_all          0.0945
_refine_ls_R_factor_gt           0.0742
_refine_ls_wR_factor_ref         0.2733
_refine_ls_wR_factor_gt          0.2426
_refine_ls_goodness_of_fit_ref   1.000
_refine_ls_restrained_S_all      1.024
_refine_ls_shift/su_max          0.000
_refine_ls_shift/su_mean         0.000

loop_
_atom_site_label
_atom_site_type_symbol
_atom_site_fract_x
_atom_site_fract_y
_atom_site_fract_z
_atom_site_U_iso_or_equiv
_atom_site_adp_type
_atom_site_occupancy
_atom_site_symmetry_multiplicity
_atom_site_calc_flag
_atom_site_refinement_flags
_atom_site_disorder_assembly
_atom_site_disorder_group
Zn1 Zn 0.36124(3) 0.19766(5) 0.68724(5) 0.0469(3) Uani 1 1 d . . .
Zn2 Zn 0.5000 0.28606(6) 0.2500 0.0434(3) Uani 1 2 d SU . .
N1 N 0.29134(19) 0.1279(3) 0.6242(3) 0.0471(11) Uani 1 1 d . . .
N2 N 0.4125(2) 0.1278(3) 0.8008(4) 0.0486(12) Uani 1 1 d . . .
N3 N 0.05958(19) -0.1286(3) 0.3381(3) 0.0464(11) Uani 1 1 d . . .
O1 O 0.4817(3) 0.2720(5) 0.3843(5) 0.1020(18) Uani 1 1 d U . .
O2 O 0.4472(2) 0.2001(4) 0.2553(5) 0.0846(15) Uani 1 1 d U . .
O3 O 0.1513(2) 0.1788(3) 0.2996(4) 0.0654(13) Uani 1 1 d . . .
O4 O 0.1871(3) 0.2149(4) 0.2138(5) 0.087(2) Uani 1 1 d . . .
O5 O 0.28033(16) 0.0970(3) 0.3877(3) 0.0516(10) Uani 1 1 d . . .
O6 O 0.3802(2) 0.2079(3) 0.5880(3) 0.0576(12) Uani 1 1 d . . .
O7 O 0.3845(2) 0.0616(3) 0.5781(3) 0.0679(13) Uani 1 1 d . . .
C1 C 0.4469(4) 0.2198(6) 0.3271(8) 0.077(2) Uani 1 1 d . . .
C2 C 0.4033(3) 0.1855(4) 0.3432(6) 0.0571(17) Uani 1 1 d . . .
C3 C 0.3555(3) 0.1591(5) 0.2695(5) 0.0627(18) Uani 1 1 d . . .
H3 H 0.3509 0.1605 0.2099 0.075 Uiso 1 1 calc R . .
C4 C 0.3135(3) 0.1302(5) 0.2822(5) 0.0609(18) Uani 1 1 d . . .
H4 H 0.2804 0.1155 0.2312 0.073 Uiso 1 1 calc R . .
C5 C 0.3213(2) 0.1235(4) 0.3707(4) 0.0466(14) Uani 1 1 d . . .
C6 C 0.3692(2) 0.1487(4) 0.4466(4) 0.0453(13) Uani 1 1 d . . .
C7 C 0.4090(3) 0.1834(4) 0.4308(5) 0.0546(16) Uani 1 1 d . . .
H7 H 0.4403 0.2057 0.4807 0.065 Uiso 1 1 calc R . .
C8 C 0.3790(2) 0.1366(4) 0.5445(4) 0.0475(14) Uani 1 1 d . . .
C9 C 0.2432(3) 0.0353(4) 0.3240(5) 0.0502(15) Uani 1 1 d . . .
C10 C 0.2583(4) -0.0530(5) 0.3282(6) 0.075(2) Uani 1 1 d . . .
H10 H 0.2930 -0.0702 0.3724 0.091 Uiso 1 1 calc R . .
C11 C 0.2239(5) -0.1139(5) 0.2699(8) 0.098(3) Uani 1 1 d . . .
H11 H 0.2351 -0.1722 0.2708 0.117 Uiso 1 1 calc R . .
C12 C 0.1691(4) -0.0871(6) 0.2053(7) 0.085(3) Uani 1 1 d . . .
H12 H 0.1440 -0.1292 0.1669 0.102 Uiso 1 1 calc R . .
C13 C 0.1541(3) 0.0006(5) 0.2009(5) 0.0625(18) Uani 1 1 d . . .
H13 H 0.1191 0.0181 0.1585 0.075 Uiso 1 1 calc R . .
C14 C 0.1915(2) 0.0634(4) 0.2601(4) 0.0470(14) Uani 1 1 d . . .
C15 C 0.1760(2) 0.1592(4) 0.2568(4) 0.0494(14) Uani 1 1 d . . .
C16 C 0.2927(3) 0.0382(4) 0.6185(5) 0.0546(16) Uani 1 1 d . . .
H16 H 0.3257 0.0094 0.6518 0.065 Uiso 1 1 calc R . .
C17 C 0.2475(3) -0.0119(4) 0.5654(5) 0.0551(16) Uani 1 1 d . . .
H17 H 0.2502 -0.0734 0.5636 0.066 Uiso 1 1 calc R . .
C18 C 0.1979(2) 0.0290(4) 0.5146(4) 0.0463(13) Uani 1 1 d . . .
C19 C 0.1960(2) 0.1216(4) 0.5206(4) 0.0516(15) Uani 1 1 d . . .
H19 H 0.1633 0.1515 0.4877 0.062 Uiso 1 1 calc R . .
C20 C 0.2427(3) 0.1681(4) 0.5755(4) 0.0525(15) Uani 1 1 d . . .
H20 H 0.2408 0.2296 0.5794 0.063 Uiso 1 1 calc R . .
C21 C 0.1492(2) -0.0244(4) 0.4538(4) 0.0480(14) Uani 1 1 d . . .
C22 C 0.1391(4) -0.1067(6) 0.4847(6) 0.081(2) Uani 1 1 d . . .
H22 H 0.1625 -0.1276 0.5444 0.097 Uiso 1 1 calc R . .
C23 C 0.0938(3) -0.1552(6) 0.4241(6) 0.076(2) Uani 1 1 d . . .
H23 H 0.0871 -0.2086 0.4446 0.091 Uiso 1 1 calc R . .
C24 C 0.0678(3) -0.0512(6) 0.3099(6) 0.088(3) Uani 1 1 d . . .
H24 H 0.0433 -0.0323 0.2500 0.105 Uiso 1 1 calc R . .
C25 C 0.1123(3) 0.0045(6) 0.3662(6) 0.080(2) Uani 1 1 d . . .
H25 H 0.1164 0.0593 0.3443 0.096 Uiso 1 1 calc R . .
C26 C 0.4500(3) 0.0734(6) 0.8020(5) 0.068(2) Uani 1 1 d . . .
H26 H 0.4526 0.0696 0.7484 0.082 Uiso 1 1 calc R . .
C27 C 0.4847(3) 0.0228(6) 0.8776(5) 0.068(2) Uani 1 1 d . . .
H27 H 0.5098 -0.0137 0.8742 0.082 Uiso 1 1 calc R . .
C28 C 0.4821(2) 0.0266(4) 0.9587(4) 0.0462(13) Uani 1 1 d . . .
C29 C 0.4431(4) 0.0828(6) 0.9569(6) 0.091(3) Uani 1 1 d . . .
H29 H 0.4393 0.0876 1.0092 0.109 Uiso 1 1 calc R . .
C30 C 0.4095(4) 0.1323(6) 0.8772(6) 0.084(3) Uani 1 1 d . . .
H30 H 0.3840 0.1698 0.8784 0.101 Uiso 1 1 calc R . .
O8 O 0.3726(4) 0.1236(7) 0.0688(6) 0.140(3) Uiso 1 1 d . . .
O9 O 0.4956(6) 0.4090(10) 0.5187(11) 0.217(5) Uiso 1 1 d . . .
O10 O 0.4863(9) 0.3191(16) 0.6639(15) 0.336(11) Uiso 1 1 d . . .
O11 O 0.2258(14) 0.731(3) 0.517(3) 0.48(2) Uiso 1 1 d . . .

loop_
_atom_site_aniso_label
_atom_site_aniso_U_11
_atom_site_aniso_U_22
_atom_site_aniso_U_33
_atom_site_aniso_U_23
_atom_site_aniso_U_13
_atom_site_aniso_U_12
Zn1 0.0458(5) 0.0413(5) 0.0443(5) 0.0063(3) 0.0154(4) 0.0026(3)
Zn2 0.0391(6) 0.0421(5) 0.0508(6) 0.000 0.0237(5) 0.000
N1 0.045(3) 0.038(3) 0.049(3) 0.009(2) 0.016(2) -0.001(2)
N2 0.047(3) 0.044(3) 0.046(3) 0.012(2) 0.017(2) 0.003(2)
N3 0.045(3) 0.044(3) 0.048(3) 0.004(2) 0.021(2) -0.002(2)
O1 0.100(2) 0.103(2) 0.104(2) 0.0034(10) 0.0517(12) -0.0035(10)
O2 0.088(3) 0.073(3) 0.128(4) 0.021(3) 0.080(3) 0.009(3)
O3 0.091(4) 0.043(2) 0.083(3) -0.004(2) 0.059(3) -0.002(2)
O4 0.115(5) 0.060(3) 0.120(6) 0.021(3) 0.083(5) 0.006(3)
O5 0.048(2) 0.064(3) 0.051(2) -0.008(2) 0.030(2) -0.007(2)
O6 0.074(3) 0.045(2) 0.061(3) -0.001(2) 0.039(3) -0.001(2)
O7 0.084(3) 0.053(3) 0.062(3) 0.013(2) 0.033(3) 0.013(2)
C1 0.080(6) 0.063(5) 0.112(7) 0.025(5) 0.066(6) 0.017(4)
C2 0.062(4) 0.039(3) 0.086(5) 0.018(3) 0.049(4) 0.009(3)
C3 0.078(5) 0.060(4) 0.072(5) -0.006(4) 0.054(4) -0.007(4)
C4 0.062(4) 0.076(5) 0.061(4) -0.007(3) 0.043(4) -0.004(3)
C5 0.049(3) 0.044(3) 0.056(4) 0.000(3) 0.033(3) 0.003(3)
C6 0.046(3) 0.035(3) 0.059(4) 0.005(3) 0.030(3) 0.009(2)
C7 0.050(4) 0.041(3) 0.076(5) 0.013(3) 0.033(3) 0.007(3)
C8 0.039(3) 0.046(3) 0.050(3) 0.013(3) 0.017(3) 0.007(3)
C9 0.059(4) 0.046(3) 0.063(4) 0.001(3) 0.043(3) -0.004(3)
C10 0.084(5) 0.058(4) 0.101(6) -0.005(4) 0.059(5) 0.006(4)
C11 0.146(10) 0.042(4) 0.143(9) -0.005(5) 0.101(9) -0.001(5)
C12 0.122(8) 0.058(5) 0.099(7) -0.040(5) 0.072(6) -0.045(5)
C13 0.062(4) 0.062(4) 0.064(4) -0.015(4) 0.033(3) -0.021(4)
C14 0.058(4) 0.044(3) 0.049(3) -0.006(3) 0.034(3) -0.010(3)
C15 0.043(3) 0.046(3) 0.050(4) -0.001(3) 0.017(3) -0.001(3)
C16 0.043(3) 0.040(3) 0.065(4) 0.007(3) 0.015(3) 0.001(3)
C17 0.052(4) 0.037(3) 0.067(4) 0.004(3) 0.023(3) 0.001(3)
C18 0.051(3) 0.041(3) 0.043(3) 0.003(3) 0.021(3) 0.001(3)
C19 0.046(3) 0.047(3) 0.053(4) 0.006(3) 0.017(3) 0.002(3)
C20 0.056(4) 0.039(3) 0.051(4) 0.006(3) 0.019(3) 0.005(3)
C21 0.047(3) 0.045(3) 0.051(3) 0.003(3) 0.023(3) -0.002(3)
C22 0.082(5) 0.075(5) 0.073(5) 0.002(4) 0.029(4) -0.015(4)
C23 0.075(5) 0.063(5) 0.085(6) 0.005(4) 0.036(5) -0.014(4)
C24 0.067(5) 0.089(6) 0.081(6) 0.014(5) 0.018(4) -0.016(5)
C25 0.085(6) 0.067(5) 0.078(5) 0.015(4) 0.033(4) -0.014(4)
C26 0.058(4) 0.102(6) 0.043(4) 0.022(4) 0.023(3) 0.030(4)
C27 0.054(4) 0.089(6) 0.056(4) 0.015(4) 0.023(3) 0.027(4)
C28 0.046(3) 0.045(3) 0.042(3) 0.004(3) 0.017(3) -0.001(3)
C29 0.114(7) 0.107(7) 0.067(5) 0.047(5) 0.058(5) 0.065(6)
C30 0.103(6) 0.089(6) 0.070(5) 0.040(4) 0.050(5) 0.055(5)

_geom_special_details            
; 
 All esds (except the esd in the dihedral angle between two l.s. planes) 
 are estimated using the full covariance matrix.  The cell esds are taken 
 into account individually in the estimation of esds in distances, angles 
 and torsion angles; correlations between esds in cell parameters are only 
 used when they are defined by crystal symmetry.  An approximate (isotropic) 
 treatment of cell esds is used for estimating esds involving l.s. planes. 
;

loop_
_geom_bond_atom_site_label_1
_geom_bond_atom_site_label_2
_geom_bond_distance
_geom_bond_site_symmetry_2
_geom_bond_publ_flag
Zn1 O3 1.924(5) 7_556 ?
Zn1 O6 1.980(5) . ?
Zn1 N2 2.013(5) . ?
Zn1 N1 2.029(5) . ?
Zn2 O2 2.025(5) . ?
Zn2 O2 2.025(5) 2_655 ?
Zn2 N3 2.052(5) 3 ?
Zn2 N3 2.052(5) 4 ?
Zn2 O1 2.539(7) . ?
N1 C16 1.353(8) . ?
N1 C20 1.357(8) . ?
N2 C30 1.315(9) . ?
N2 C26 1.342(9) . ?
N3 C24 1.318(10) . ?
N3 C23 1.326(9) . ?
N3 Zn2 2.052(5) 3_445 ?
O1 C1 1.252(12) . ?
O2 C1 1.232(11) . ?
O3 C15 1.262(8) . ?
O3 Zn1 1.924(5) 7_556 ?
O4 C15 1.240(8) . ?
O5 C5 1.394(7) . ?
O5 C9 1.409(8) . ?
O6 C8 1.284(8) . ?
O7 C8 1.232(8) . ?
C1 C2 1.491(10) . ?
C2 C3 1.363(10) . ?
C2 C7 1.380(10) . ?
C3 C4 1.391(9) . ?
C4 C5 1.375(9) . ?
C5 C6 1.376(9) . ?
C6 C7 1.392(8) . ?
C6 C8 1.514(9) . ?
C9 C10 1.387(10) . ?
C9 C14 1.389(9) . ?
C10 C11 1.340(13) . ?
C11 C12 1.449(14) . ?
C12 C13 1.378(12) . ?
C13 C14 1.399(9) . ?
C14 C15 1.500(9) . ?
C16 C17 1.373(9) . ?
C17 C18 1.382(9) . ?
C18 C19 1.398(8) . ?
C18 C21 1.486(9) . ?
C19 C20 1.376(9) . ?
C21 C25 1.374(10) . ?
C21 C22 1.423(10) . ?
C22 C23 1.389(11) . ?
C24 C25 1.418(12) . ?
C26 C27 1.377(9) . ?
C27 C28 1.386(10) . ?
C28 C29 1.388(10) . ?
C28 C28 1.472(11) 5_657 ?
C29 C30 1.400(10) . ?

loop_
_geom_angle_atom_site_label_1
_geom_angle_atom_site_label_2
_geom_angle_atom_site_label_3
_geom_angle
_geom_angle_site_symmetry_1
_geom_angle_site_symmetry_3
_geom_angle_publ_flag
O3 Zn1 O6 99.38(19) 7_556 . ?
O3 Zn1 N2 119.2(2) 7_556 . ?
O6 Zn1 N2 116.4(2) . . ?
O3 Zn1 N1 111.4(2) 7_556 . ?
O6 Zn1 N1 102.8(2) . . ?
N2 Zn1 N1 106.5(2) . . ?
O2 Zn2 O2 100.7(3) . 2_655 ?
O2 Zn2 N3 137.9(2) . 3 ?
O2 Zn2 N3 93.2(2) 2_655 3 ?
O2 Zn2 N3 93.2(2) . 4 ?
O2 Zn2 N3 137.9(2) 2_655 4 ?
N3 Zn2 N3 102.6(3) 3 4 ?
O2 Zn2 O1 54.8(3) . . ?
O2 Zn2 O1 118.1(3) 2_655 . ?
N3 Zn2 O1 83.6(2) 3 . ?
N3 Zn2 O1 102.4(2) 4 . ?
C16 N1 C20 117.4(5) . . ?
C16 N1 Zn1 119.7(4) . . ?
C20 N1 Zn1 122.3(4) . . ?
C30 N2 C26 117.0(5) . . ?
C30 N2 Zn1 120.5(5) . . ?
C26 N2 Zn1 122.4(4) . . ?
C24 N3 C23 118.7(6) . . ?
C24 N3 Zn2 122.1(5) . 3_445 ?
C23 N3 Zn2 118.9(5) . 3_445 ?
C1 O1 Zn2 79.8(6) . . ?
C1 O2 Zn2 104.8(6) . . ?
C15 O3 Zn1 118.5(4) . 7_556 ?
C5 O5 C9 115.7(4) . . ?
C8 O6 Zn1 117.5(4) . . ?
O2 C1 O1 119.7(8) . . ?
O2 C1 C2 120.0(9) . . ?
O1 C1 C2 120.2(9) . . ?
C3 C2 C7 118.4(6) . . ?
C3 C2 C1 119.8(7) . . ?
C7 C2 C1 121.8(8) . . ?
C2 C3 C4 120.9(7) . . ?
C5 C4 C3 119.6(7) . . ?
C4 C5 C6 120.9(5) . . ?
C4 C5 O5 122.2(6) . . ?
C6 C5 O5 116.8(5) . . ?
C5 C6 C7 117.9(6) . . ?
C5 C6 C8 121.0(5) . . ?
C7 C6 C8 121.1(6) . . ?
C2 C7 C6 122.0(7) . . ?
O7 C8 O6 123.2(6) . . ?
O7 C8 C6 120.7(6) . . ?
O6 C8 C6 116.1(5) . . ?
C10 C9 C14 121.1(7) . . ?
C10 C9 O5 119.5(6) . . ?
C14 C9 O5 119.4(5) . . ?
C11 C10 C9 121.3(9) . . ?
C10 C11 C12 118.7(8) . . ?
C13 C12 C11 120.0(7) . . ?
C12 C13 C14 119.9(8) . . ?
C9 C14 C13 118.9(6) . . ?
C9 C14 C15 120.3(5) . . ?
C13 C14 C15 120.8(6) . . ?
O4 C15 O3 122.9(6) . . ?
O4 C15 C14 120.8(6) . . ?
O3 C15 C14 116.3(5) . . ?
N1 C16 C17 122.7(6) . . ?
C16 C17 C18 120.1(6) . . ?
C17 C18 C19 117.7(6) . . ?
C17 C18 C21 120.4(5) . . ?
C19 C18 C21 121.9(5) . . ?
C20 C19 C18 119.5(6) . . ?
N1 C20 C19 122.7(6) . . ?
C25 C21 C22 118.0(7) . . ?
C25 C21 C18 120.9(6) . . ?
C22 C21 C18 121.1(6) . . ?
C23 C22 C21 118.6(8) . . ?
N3 C23 C22 122.9(7) . . ?
N3 C24 C25 123.2(8) . . ?
C21 C25 C24 118.3(7) . . ?
N2 C26 C27 124.0(6) . . ?
C26 C27 C28 119.8(6) . . ?
C27 C28 C29 115.8(6) . . ?
C27 C28 C28 122.1(7) . 5_657 ?
C29 C28 C28 122.1(7) . 5_657 ?
C28 C29 C30 120.8(7) . . ?
N2 C30 C29 122.5(7) . . ?

_diffrn_measured_fraction_theta_max 1.000
_diffrn_reflns_theta_full        25.10
_diffrn_measured_fraction_theta_full 1.000
_refine_diff_density_max         1.295
_refine_diff_density_min         -0.801
_refine_diff_density_rms         0.119
