####################################################################### 
# 
# This file contains crystal structure data downloaded from the 
# Cambridge Structural Database (CSD) hosted by the Cambridge 
# Crystallographic Data Centre (CCDC).
# 
# Full information about CCDC data access policies and citation 
# guidelines are available at http://www.ccdc.cam.ac.uk/access/V1 
# 
# Audit and citation data items may have been added by the CCDC. 
# Please retain this information to preserve the provenance of 
# this file and to allow appropriate attribution of the data. 
# 
#######################################################################

data_Compound1ClO4
_audit_block_doi                 10.5517/cc12lz7w
_database_code_depnum_ccdc_archive 'CCDC 1001338'
loop_
_citation_id
_citation_doi
_citation_year
1 10.1021/ic501477u 2014
_audit_update_record             
;
2014-05-06 deposited with the CCDC.	2024-07-09 downloaded from the CCDC.
;

_audit_creation_method           SHELXL-97
_chemical_name_systematic        
; 
 ? 
;
_chemical_name_common            ?
_chemical_melting_point          ?
_chemical_formula_moiety         'C16 H20 Cl2 N10 O10 Zn'
_chemical_formula_sum            'C16 H20 Cl2 N10 O10 Zn'
_chemical_formula_weight         648.69

loop_
_atom_type_symbol
_atom_type_description
_atom_type_scat_dispersion_real
_atom_type_scat_dispersion_imag
_atom_type_scat_source
C C 0.0033 0.0016 'International Tables Vol C Tables 4.2.6.8 and 6.1.1.4'
H H 0.0000 0.0000 'International Tables Vol C Tables 4.2.6.8 and 6.1.1.4'
N N 0.0061 0.0033 'International Tables Vol C Tables 4.2.6.8 and 6.1.1.4'
O O 0.0106 0.0060 'International Tables Vol C Tables 4.2.6.8 and 6.1.1.4'
Cl Cl 0.1484 0.1585 'International Tables Vol C Tables 4.2.6.8 and 6.1.1.4'
Zn Zn 0.2839 1.4301 'International Tables Vol C Tables 4.2.6.8 and 6.1.1.4'

_symmetry_cell_setting           Monoclinic
_symmetry_space_group_name_H-M   C2/c

loop_
_symmetry_equiv_pos_as_xyz
'x, y, z'
'-x, y, -z+1/2'
'x+1/2, y+1/2, z'
'-x+1/2, y+1/2, -z+1/2'
'-x, -y, -z'
'x, -y, z-1/2'
'-x+1/2, -y+1/2, -z'
'x+1/2, -y+1/2, z-1/2'

_cell_length_a                   18.740(4)
_cell_length_b                   12.600(2)
_cell_length_c                   15.198(3)
_cell_angle_alpha                90.00
_cell_angle_beta                 105.597(4)
_cell_angle_gamma                90.00
_cell_volume                     3456.5(12)
_cell_formula_units_Z            4
_cell_measurement_temperature    200(2)
_cell_measurement_reflns_used    ?
_cell_measurement_theta_min      ?
_cell_measurement_theta_max      ?

_exptl_crystal_description       ?
_exptl_crystal_colour            ?
_exptl_crystal_size_max          ?
_exptl_crystal_size_mid          ?
_exptl_crystal_size_min          ?
_exptl_crystal_density_meas      ?
_exptl_crystal_density_diffrn    1.247
_exptl_crystal_density_method    'not measured'
_exptl_crystal_F_000             1320
_exptl_absorpt_coefficient_mu    0.918
_exptl_absorpt_correction_type   ?
_exptl_absorpt_correction_T_min  ?
_exptl_absorpt_correction_T_max  ?
_exptl_absorpt_process_details   ?

_exptl_special_details           
; 
 ? 
;

_diffrn_ambient_temperature      200(2)
_diffrn_radiation_wavelength     0.71073
_diffrn_radiation_type           MoK\a
_diffrn_radiation_source         'fine-focus sealed tube'
_diffrn_radiation_monochromator  graphite
_diffrn_measurement_device_type  ?
_diffrn_measurement_method       ?
_diffrn_detector_area_resol_mean ?
_diffrn_reflns_number            14263
_diffrn_reflns_av_R_equivalents  0.0190
_diffrn_reflns_av_sigmaI/netI    0.0171
_diffrn_reflns_limit_h_min       -23
_diffrn_reflns_limit_h_max       23
_diffrn_reflns_limit_k_min       -15
_diffrn_reflns_limit_k_max       15
_diffrn_reflns_limit_l_min       -18
_diffrn_reflns_limit_l_max       18
_diffrn_reflns_theta_min         1.97
_diffrn_reflns_theta_max         26.23
_reflns_number_total             3470
_reflns_number_gt                3078
_reflns_threshold_expression     >2sigma(I)

_computing_data_collection       ?
_computing_cell_refinement       ?
_computing_data_reduction        ?
_computing_structure_solution    'SHELXS-97 (Sheldrick, 2008)'
_computing_structure_refinement  'SHELXL-97 (Sheldrick, 2008)'
_computing_molecular_graphics    ?
_computing_publication_material  ?

_refine_special_details          
; 
 Refinement of F^2^ against ALL reflections.  The weighted R-factor wR and 
 goodness of fit S are based on F^2^, conventional R-factors R are based 
 on F, with F set to zero for negative F^2^. The threshold expression of 
 F^2^ > 2sigma(F^2^) is used only for calculating R-factors(gt) etc. and is 
 not relevant to the choice of reflections for refinement.  R-factors based 
 on F^2^ are statistically about twice as large as those based on F, and R- 
 factors based on ALL data will be even larger. 
;

_refine_ls_structure_factor_coef Fsqd
_refine_ls_matrix_type           full
_refine_ls_weighting_scheme      calc
_refine_ls_weighting_details     
'calc w=1/[\s^2^(Fo^2^)+(0.2000P)^2^+0.0000P] where P=(Fo^2^+2Fc^2^)/3'
_atom_sites_solution_primary     direct
_atom_sites_solution_secondary   difmap
_atom_sites_solution_hydrogens   geom
_refine_ls_hydrogen_treatment    mixed
_refine_ls_extinction_method     none
_refine_ls_extinction_coef       ?
_refine_ls_number_reflns         3470
_refine_ls_number_parameters     178
_refine_ls_number_restraints     0
_refine_ls_R_factor_all          0.0765
_refine_ls_R_factor_gt           0.0713
_refine_ls_wR_factor_ref         0.2838
_refine_ls_wR_factor_gt          0.2706
_refine_ls_goodness_of_fit_ref   1.334
_refine_ls_restrained_S_all      1.334
_refine_ls_shift/su_max          0.066
_refine_ls_shift/su_mean         0.005

loop_
_atom_site_label
_atom_site_type_symbol
_atom_site_fract_x
_atom_site_fract_y
_atom_site_fract_z
_atom_site_U_iso_or_equiv
_atom_site_adp_type
_atom_site_occupancy
_atom_site_symmetry_multiplicity
_atom_site_calc_flag
_atom_site_refinement_flags
_atom_site_disorder_assembly
_atom_site_disorder_group
C1 C 0.85977(19) 0.5993(3) 0.1552(3) 0.0273(8) Uani 1 1 d . . .
C2 C 0.6817(2) 0.5008(3) 0.0628(2) 0.0250(8) Uani 1 1 d . . .
C3 C 0.6330(2) 0.4342(3) 0.1030(3) 0.0267(8) Uani 1 1 d . . .
C4 C 0.5695(2) 0.3806(3) 0.0494(3) 0.0309(9) Uani 1 1 d . . .
H4 H 0.5547 0.3898 -0.0136 0.037 Uiso 1 1 calc R . .
C5 C 0.5300(2) 0.3150(3) 0.0914(3) 0.0309(9) Uani 1 1 d . . .
H5 H 0.4885 0.2806 0.0552 0.037 Uiso 1 1 calc R . .
C6 C 0.6072(2) 0.3525(4) 0.2329(3) 0.0346(9) Uani 1 1 d . . .
H6 H 0.6200 0.3438 0.2960 0.041 Uiso 1 1 calc R . .
C7 C 0.6488(2) 0.4193(4) 0.1962(3) 0.0376(10) Uani 1 1 d . . .
H7 H 0.6883 0.4555 0.2346 0.045 Uiso 1 1 calc R . .
C8 C 0.6550(2) 0.5440(3) -0.0338(3) 0.0319(9) Uani 1 1 d . . .
H9A H 0.6613 0.6197 -0.0328 0.048 Uiso 1 1 calc R . .
H9B H 0.6035 0.5271 -0.0585 0.048 Uiso 1 1 calc R . .
H9C H 0.6832 0.5126 -0.0712 0.048 Uiso 1 1 calc R . .
Cl1 Cl 0.84214(10) 0.30451(13) 0.37672(11) 0.0647(5) Uani 1 1 d . . .
N1 N 0.54834(19) 0.2982(3) 0.1818(2) 0.0282(7) Uani 1 1 d . . .
N2 N 0.74474(17) 0.5176(2) 0.1164(2) 0.0259(7) Uani 1 1 d . . .
N3 N 0.79494(18) 0.5778(3) 0.0901(2) 0.0295(8) Uani 1 1 d . . .
N4 N 0.86935(18) 0.5492(3) 0.2352(3) 0.0368(9) Uani 1 1 d . . .
N5 N 0.9383(2) 0.5587(3) 0.3001(3) 0.0421(10) Uani 1 1 d . . .
O1 O 0.90549(15) 0.6628(2) 0.1382(2) 0.0289(6) Uani 1 1 d . . .
O2 O 0.8228(4) 0.3453(5) 0.2906(4) 0.105(2) Uani 1 1 d . . .
O3 O 0.8940(5) 0.3925(8) 0.4304(5) 0.170(4) Uani 1 1 d . . .
O4 O 0.8928(3) 0.2228(5) 0.3937(4) 0.099(2) Uani 1 1 d . . .
O5 O 0.7874(2) 0.2885(3) 0.4244(3) 0.0575(10) Uani 1 1 d . . .
Zn1 Zn 1.0000 0.68289(4) 0.2500 0.0244(3) Uani 1 2 d S . .

loop_
_atom_site_aniso_label
_atom_site_aniso_U_11
_atom_site_aniso_U_22
_atom_site_aniso_U_33
_atom_site_aniso_U_23
_atom_site_aniso_U_13
_atom_site_aniso_U_12
C1 0.0158(16) 0.0273(18) 0.037(2) 0.0013(15) 0.0035(14) -0.0064(13)
C2 0.0217(18) 0.0248(16) 0.0273(18) -0.0019(14) 0.0046(14) -0.0036(13)
C3 0.0196(17) 0.0296(18) 0.0292(18) -0.0070(15) 0.0037(14) -0.0064(14)
C4 0.0221(18) 0.036(2) 0.0296(19) 0.0016(15) -0.0023(15) -0.0095(15)
C5 0.021(2) 0.035(2) 0.034(2) -0.0021(15) 0.0027(17) -0.0112(14)
C6 0.036(2) 0.041(2) 0.0279(19) -0.0085(17) 0.0107(17) -0.0167(19)
C7 0.030(2) 0.047(2) 0.033(2) -0.0135(18) 0.0035(17) -0.0209(18)
C8 0.0249(19) 0.035(2) 0.032(2) 0.0023(16) 0.0025(15) -0.0074(15)
Cl1 0.0877(12) 0.0641(9) 0.0538(9) 0.0271(6) 0.0386(8) 0.0277(8)
N1 0.0201(16) 0.0352(16) 0.0315(17) -0.0081(14) 0.0106(14) -0.0087(13)
N2 0.0205(15) 0.0214(14) 0.0335(17) 0.0020(12) 0.0037(13) -0.0046(11)
N3 0.0225(16) 0.0277(16) 0.0364(18) 0.0060(13) 0.0046(13) -0.0067(12)
N4 0.0215(17) 0.0394(18) 0.0414(19) 0.0179(15) -0.0056(14) -0.0094(14)
N5 0.0266(18) 0.043(2) 0.045(2) 0.0200(17) -0.0118(15) -0.0147(15)
O1 0.0181(13) 0.0286(13) 0.0373(15) 0.0089(11) 0.0025(11) -0.0054(10)
O2 0.111(5) 0.100(4) 0.099(4) 0.047(3) 0.018(4) 0.006(4)
O3 0.201(8) 0.206(9) 0.117(5) -0.022(6) 0.064(5) -0.151(8)
O4 0.080(3) 0.124(5) 0.110(4) 0.065(4) 0.054(3) 0.046(4)
O5 0.055(2) 0.053(2) 0.069(3) -0.0157(19) 0.025(2) -0.0052(19)
Zn1 0.0149(4) 0.0222(4) 0.0343(5) 0.000 0.0034(3) 0.000

_geom_special_details            
; 
 All esds (except the esd in the dihedral angle between two l.s. planes) 
 are estimated using the full covariance matrix.  The cell esds are taken 
 into account individually in the estimation of esds in distances, angles 
 and torsion angles; correlations between esds in cell parameters are only 
 used when they are defined by crystal symmetry.  An approximate (isotropic) 
 treatment of cell esds is used for estimating esds involving l.s. planes. 
;

loop_
_geom_bond_atom_site_label_1
_geom_bond_atom_site_label_2
_geom_bond_distance
_geom_bond_site_symmetry_2
_geom_bond_publ_flag
C1 O1 1.249(5) . ?
C1 N4 1.338(5) . ?
C1 N3 1.372(5) . ?
C2 N2 1.260(5) . ?
C2 C3 1.485(5) . ?
C2 C8 1.520(5) . ?
C3 C7 1.380(6) . ?
C3 C4 1.420(5) . ?
C4 C5 1.376(6) . ?
C4 H4 0.9300 . ?
C5 N1 1.341(6) . ?
C5 H5 0.9300 . ?
C6 N1 1.351(5) . ?
C6 C7 1.364(6) . ?
C6 H6 0.9300 . ?
C7 H7 0.9300 . ?
C8 H9A 0.9600 . ?
C8 H9B 0.9600 . ?
C8 H9C 0.9600 . ?
Cl1 O2 1.362(6) . ?
Cl1 O4 1.377(5) . ?
Cl1 O5 1.420(4) . ?
Cl1 O3 1.553(7) . ?
N1 Zn1 2.124(4) 3_445 ?
N2 N3 1.351(4) . ?
N4 N5 1.404(5) . ?
N5 Zn1 2.201(4) . ?
O1 Zn1 2.114(3) . ?
Zn1 O1 2.114(3) 2_755 ?
Zn1 N1 2.124(4) 4_655 ?
Zn1 N1 2.124(4) 3 ?
Zn1 N5 2.201(4) 2_755 ?

loop_
_geom_angle_atom_site_label_1
_geom_angle_atom_site_label_2
_geom_angle_atom_site_label_3
_geom_angle
_geom_angle_site_symmetry_1
_geom_angle_site_symmetry_3
_geom_angle_publ_flag
O1 C1 N4 123.9(3) . . ?
O1 C1 N3 120.1(3) . . ?
N4 C1 N3 116.0(3) . . ?
N2 C2 C3 113.7(3) . . ?
N2 C2 C8 124.9(3) . . ?
C3 C2 C8 121.4(3) . . ?
C7 C3 C4 116.1(4) . . ?
C7 C3 C2 120.9(3) . . ?
C4 C3 C2 123.1(3) . . ?
C5 C4 C3 119.5(4) . . ?
C5 C4 H4 120.2 . . ?
C3 C4 H4 120.2 . . ?
N1 C5 C4 123.2(4) . . ?
N1 C5 H5 118.4 . . ?
C4 C5 H5 118.4 . . ?
N1 C6 C7 123.1(4) . . ?
N1 C6 H6 118.5 . . ?
C7 C6 H6 118.5 . . ?
C6 C7 C3 121.0(3) . . ?
C6 C7 H7 119.5 . . ?
C3 C7 H7 119.5 . . ?
C2 C8 H9A 109.5 . . ?
C2 C8 H9B 109.5 . . ?
H9A C8 H9B 109.5 . . ?
C2 C8 H9C 109.5 . . ?
H9A C8 H9C 109.5 . . ?
H9B C8 H9C 109.5 . . ?
O2 Cl1 O4 117.0(4) . . ?
O2 Cl1 O5 120.2(4) . . ?
O4 Cl1 O5 110.7(3) . . ?
O2 Cl1 O3 101.7(4) . . ?
O4 Cl1 O3 97.6(6) . . ?
O5 Cl1 O3 105.6(3) . . ?
C5 N1 C6 117.0(3) . . ?
C5 N1 Zn1 125.6(3) . 3_445 ?
C6 N1 Zn1 117.1(3) . 3_445 ?
C2 N2 N3 120.7(3) . . ?
N2 N3 C1 116.7(3) . . ?
C1 N4 N5 118.2(3) . . ?
N4 N5 Zn1 106.6(2) . . ?
C1 O1 Zn1 112.6(2) . . ?
O1 Zn1 O1 166.27(15) . 2_755 ?
O1 Zn1 N1 95.67(13) . 4_655 ?
O1 Zn1 N1 93.72(12) 2_755 4_655 ?
O1 Zn1 N1 93.72(12) . 3 ?
O1 Zn1 N1 95.67(13) 2_755 3 ?
N1 Zn1 N1 93.65(19) 4_655 3 ?
O1 Zn1 N5 92.37(12) . 2_755 ?
O1 Zn1 N5 77.79(11) 2_755 2_755 ?
N1 Zn1 N5 171.30(13) 4_655 2_755 ?
N1 Zn1 N5 89.14(16) 3 2_755 ?
O1 Zn1 N5 77.79(11) . . ?
O1 Zn1 N5 92.37(12) 2_755 . ?
N1 Zn1 N5 89.14(16) 4_655 . ?
N1 Zn1 N5 171.30(13) 3 . ?
N5 Zn1 N5 89.3(2) 2_755 . ?

_diffrn_measured_fraction_theta_max 0.998
_diffrn_reflns_theta_full        26.23
_diffrn_measured_fraction_theta_full 0.998
_refine_diff_density_max         2.062
_refine_diff_density_min         -1.506
_refine_diff_density_rms         0.119
# SQUEEZE RESULTS (APPEND TO CIF)
# Note: Data are Listed for all Voids in the P1 Unit Cell
# i.e. Centre of Gravity, Solvent Accessible Volume,
# Recovered number of Electrons in the Void and
# Details about the Squeezed Material
loop_
_platon_squeeze_void_nr
_platon_squeeze_void_average_x
_platon_squeeze_void_average_y
_platon_squeeze_void_average_z
_platon_squeeze_void_volume
_platon_squeeze_void_count_electrons
_platon_squeeze_void_content
1 0.991 0.250 0.241 609 182 ' '
2 0.491 0.750 0.241 609 182 ' '
_platon_squeeze_details          
;
The SQUEEZE routine of the program PLATON was used

in order to eliminate the contribution of disordered solvents molecules,

thereby a final model based only on the ordered part of the crystal structure

was obtained.



The SQUEEZE routine suggested that

a total potential solvent area volume of 1223.4Ang^3^[35.4% of cell volume],

and a void electron population of 364 per cell.



Refinement after the SQUEEZE routine gave significantly improved R values.

[R values before SQUEEZE]

R1 = 0.1270, wR2 = 0.4146 for >2sigma(I) data

R1 = 0.1343, wR2 = 0.4271, GooF = S = 2.119 for all data

( 3470 data and 0 restraint / 178 parameters)

;
