####################################################################### 
# 
# This file contains crystal structure data downloaded from the 
# Cambridge Structural Database (CSD) hosted by the Cambridge 
# Crystallographic Data Centre (CCDC).
# 
# Full information about CCDC data access policies and citation 
# guidelines are available at http://www.ccdc.cam.ac.uk/access/V1 
# 
# Audit and citation data items may have been added by the CCDC. 
# Please retain this information to preserve the provenance of 
# this file and to allow appropriate attribution of the data. 
# 
#######################################################################

data_1
_audit_block_doi                 10.5517/cc1jd143
_database_code_depnum_ccdc_archive 'CCDC 1411744'
loop_
_citation_id
_citation_doi
_citation_year
1 10.1021/jacs.5b02480 2015
_audit_update_record             
;
2015-05-26 deposited with the CCDC.	2024-07-09 downloaded from the CCDC.
;

_audit_creation_method           SHELXL-97
_chemical_name_systematic        ?

_chemical_name_common            'uranium polycarboxylate'
_chemical_melting_point          ?
_chemical_formula_moiety         UO2(C27H15O6)
_chemical_formula_sum            'C27 H15 O8 U'
_chemical_formula_weight         705.42

loop_
_atom_type_symbol
_atom_type_description
_atom_type_scat_dispersion_real
_atom_type_scat_dispersion_imag
_atom_type_scat_source
C C 0.0033 0.0016 'International Tables Vol C Tables 4.2.6.8 and 6.1.1.4'
H H 0.0000 0.0000 'International Tables Vol C Tables 4.2.6.8 and 6.1.1.4'
O O 0.0106 0.0060 'International Tables Vol C Tables 4.2.6.8 and 6.1.1.4'
U U -9.6767 9.6646 'International Tables Vol C Tables 4.2.6.8 and 6.1.1.4'

_symmetry_cell_setting           TRIGONAL
_symmetry_space_group_name_H-M   P3121

loop_
_symmetry_equiv_pos_as_xyz
'x, y, z'
'-y, x-y, z+1/3'
'-x+y, -x, z+2/3'
'y, x, -z'
'x-y, -y, -z+2/3'
'-x, -x+y, -z+1/3'

_cell_length_a                   17.3260(5)
_cell_length_b                   17.3260(5)
_cell_length_c                   39.892(2)
_cell_angle_alpha                90.00
_cell_angle_beta                 90.00
_cell_angle_gamma                120.00
_cell_volume                     10370.8(7)
_cell_formula_units_Z            12
_cell_measurement_temperature    273(2)
_cell_measurement_reflns_used    15863
_cell_measurement_theta_min      2.35
_cell_measurement_theta_max      27.54

_exptl_crystal_description       thin-plate
_exptl_crystal_colour            yellow
_exptl_crystal_size_max          0.05
_exptl_crystal_size_mid          0.02
_exptl_crystal_size_min          0.01
_exptl_crystal_density_meas      ?
_exptl_crystal_density_diffrn    1.355
_exptl_crystal_density_method    'not measured'
_exptl_crystal_F_000             3996
_exptl_absorpt_coefficient_mu    4.730
_exptl_absorpt_correction_type   numerical
_exptl_absorpt_correction_T_min  0.893
_exptl_absorpt_correction_T_max  0.954
_exptl_absorpt_process_details   multi-scan

_exptl_special_details           
; 
SADABS-2010/1 (Bruker,2010) was used for absorption correction.
wR2(int) was 0.1807 before and 0.1066 after correction.
The Ratio of minimum to maximum transmission is 0.9361.
The \l/2 correction factor is 0.0015.
;

_diffrn_ambient_temperature      273(2)
_diffrn_radiation_wavelength     0.71073
_diffrn_radiation_type           MoK\a
_diffrn_radiation_source         'fine-focus sealed tube'
_diffrn_radiation_monochromator  graphite
_diffrn_measurement_device_type  ?
_diffrn_measurement_method       ?
_diffrn_detector_area_resol_mean ?
_diffrn_standards_number         ?
_diffrn_standards_interval_count ?
_diffrn_standards_interval_time  ?
_diffrn_standards_decay_%        ?
_diffrn_reflns_number            94269
_diffrn_reflns_av_R_equivalents  0.0709
_diffrn_reflns_av_sigmaI/netI    0.0674
_diffrn_reflns_limit_h_min       -22
_diffrn_reflns_limit_h_max       22
_diffrn_reflns_limit_k_min       -22
_diffrn_reflns_limit_k_max       22
_diffrn_reflns_limit_l_min       -51
_diffrn_reflns_limit_l_max       51
_diffrn_reflns_theta_min         2.35
_diffrn_reflns_theta_max         27.54
_reflns_number_total             15863
_reflns_number_gt                12421
_reflns_threshold_expression     >2sigma(I)

_computing_data_collection       ?
_computing_cell_refinement       ?
_computing_data_reduction        ?
_computing_structure_solution    'SHELXS-97 (Sheldrick, 1990)'
_computing_structure_refinement  'SHELXL-97 (Sheldrick, 1997)'
_computing_molecular_graphics    ?
_computing_publication_material  ?

_refine_special_details          
; 

Refinement of F^2^ against ALL reflections.  The weighted R-factor wR and 
goodness of fit S are based on F^2^, conventional R-factors R are based 
on F, with F set to zero for negative F^2^. The threshold expression of 
F^2^ > 2sigma(F^2^) is used only for calculating R-factors(gt) etc. and is 
not relevant to the choice of reflections for refinement.  R-factors based 
on F^2^ are statistically about twice as large as those based on F, and R- 
factors based on ALL data will be even larger. 

;

_refine_ls_structure_factor_coef Fsqd
_refine_ls_matrix_type           full
_refine_ls_weighting_scheme      calc
_refine_ls_weighting_details     
;
calc w=1/[\s^2^(Fo^2^)+(0.1000P)^2^+0.0000P] where P=(Fo^2^+2Fc^2^)/3
;
_atom_sites_solution_primary     direct
_atom_sites_solution_secondary   difmap
_atom_sites_solution_hydrogens   geom
_refine_ls_hydrogen_treatment    mixed
_refine_ls_extinction_method     none
_refine_ls_extinction_coef       ?
_refine_ls_abs_structure_details 'Flack H D (1983), Acta Cryst. A39, 876-881'
_refine_ls_abs_structure_Flack   0.160(11)
_refine_ls_number_reflns         15863
_refine_ls_number_parameters     650
_refine_ls_number_restraints     78
_refine_ls_R_factor_all          0.0676
_refine_ls_R_factor_gt           0.0475
_refine_ls_wR_factor_ref         0.1299
_refine_ls_wR_factor_gt          0.1213
_refine_ls_goodness_of_fit_ref   0.855
_refine_ls_restrained_S_all      0.864
_refine_ls_shift/su_max          0.001
_refine_ls_shift/su_mean         0.000

loop_
_atom_site_label
_atom_site_type_symbol
_atom_site_fract_x
_atom_site_fract_y
_atom_site_fract_z
_atom_site_U_iso_or_equiv
_atom_site_adp_type
_atom_site_occupancy
_atom_site_symmetry_multiplicity
_atom_site_calc_flag
_atom_site_refinement_flags
_atom_site_disorder_assembly
_atom_site_disorder_group
U2 U 0.604670(19) 0.086773(19) 0.447890(8) 0.03221(9) Uani 1 1 d . . .
O2 O 0.6074(4) 0.1037(4) 0.49181(16) 0.0468(15) Uani 1 1 d . . .
O4 O 0.7399(5) 1.0744(5) 0.44755(17) 0.0433(18) Uani 1 1 d U . .
O6 O 0.6011(5) 0.0712(4) 0.40379(16) 0.0544(17) Uani 1 1 d . . .
O8 O 1.4587(5) 1.0766(4) 0.44596(19) 0.053(2) Uani 1 1 d . . .
O9 O 0.7439(5) 0.2328(5) 0.44458(18) 0.0470(19) Uani 1 1 d U . .
O12 O 1.4563(4) 0.9561(4) 0.45493(19) 0.0487(19) Uani 1 1 d . . .
O15 O 0.6206(4) 0.2366(4) 0.43939(19) 0.0458(17) Uani 1 1 d . . .
O16 O 0.6143(4) 0.9497(5) 0.45574(19) 0.0489(18) Uani 1 1 d U . .
C4 C 0.8389(5) 0.8454(5) 0.45577(18) 0.0248(16) Uani 1 1 d . . .
C5 C 0.7468(6) 0.9412(5) 0.4530(2) 0.0325(18) Uani 1 1 d . . .
C6 C 0.8467(5) 0.5628(5) 0.45079(19) 0.0298(17) Uani 1 1 d . . .
C8 C 1.4142(5) 0.9933(5) 0.4519(2) 0.0280(17) Uani 1 1 d U . .
C9 C 1.3189(5) 0.9469(6) 0.4557(2) 0.0321(19) Uani 1 1 d . . .
C15 C 0.8954(5) 0.6616(4) 0.45515(17) 0.0221(15) Uani 1 1 d . . .
C17 C 0.9817(6) 0.8444(5) 0.46140(19) 0.0298(17) Uani 1 1 d . . .
H17A H 1.0114 0.9060 0.4642 0.036 Uiso 1 1 calc R . .
C18 C 0.9869(5) 0.7097(5) 0.45861(18) 0.0243(16) Uani 1 1 d . . .
H18A H 1.0189 0.6797 0.4587 0.029 Uiso 1 1 calc R . .
C25 C 0.8814(5) 0.9376(6) 0.4474(2) 0.033(2) Uani 1 1 d . . .
H25A H 0.9418 0.9667 0.4422 0.040 Uiso 1 1 calc R . .
C27 C 1.2731(5) 0.8610(6) 0.4687(2) 0.038(2) Uani 1 1 d . . .
H27A H 1.3050 0.8335 0.4752 0.046 Uiso 1 1 calc R . .
C28 C 0.7500(5) 0.8061(5) 0.4629(2) 0.0260(17) Uani 1 1 d . . .
H28A H 0.7194 0.7460 0.4687 0.031 Uiso 1 1 calc R . .
C30 C 0.8879(5) 0.7967(5) 0.45680(19) 0.0221(16) Uani 1 1 d . . .
C31 C 1.1797(5) 0.8143(5) 0.4724(2) 0.0325(19) Uani 1 1 d . . .
H31A H 1.1511 0.7576 0.4818 0.039 Uiso 1 1 calc R . .
C32 C 1.1735(5) 0.9394(5) 0.4495(2) 0.038(2) Uani 1 1 d . . .
H32A H 1.1407 0.9661 0.4430 0.045 Uiso 1 1 calc R . .
C33 C 1.0305(5) 0.7980(5) 0.4618(2) 0.0280(17) Uani 1 1 d . . .
C34 C 0.8385(5) 0.9853(5) 0.4466(2) 0.040(2) Uani 1 1 d . . .
H34A H 0.8696 1.0460 0.4420 0.048 Uiso 1 1 calc R . .
C35 C 0.7059(7) 0.2769(5) 0.4424(2) 0.044(2) Uani 1 1 d . . .
C37 C 1.2682(5) 0.9872(5) 0.4468(3) 0.041(2) Uani 1 1 d U . .
H37A H 1.2970 1.0457 0.4390 0.049 Uiso 1 1 calc R . .
C39 C 0.8810(6) 0.5104(6) 0.4628(2) 0.042(2) Uani 1 1 d . . .
H39A H 0.9354 0.5373 0.4739 0.050 Uiso 1 1 calc R . .
C40 C 0.8500(5) 0.7077(5) 0.45429(18) 0.0244(16) Uani 1 1 d . . .
H40A H 0.7884 0.6749 0.4518 0.029 Uiso 1 1 calc R . .
C53 C 0.7546(5) 0.3756(5) 0.4443(2) 0.0315(18) Uani 1 1 d . . .
C52 C 0.7634(7) 0.5163(6) 0.4342(3) 0.051(3) Uani 1 1 d . . .
H52A H 0.7387 0.5484 0.4250 0.062 Uiso 1 1 calc R . .
C50 C 1.1304(5) 0.8529(5) 0.46189(19) 0.0262(17) Uani 1 1 d . . .
C46 C 0.7185(6) 0.4256(6) 0.4311(3) 0.060(3) Uani 1 1 d . . .
H46A H 0.6637 0.3969 0.4203 0.072 Uiso 1 1 calc R . .
C45 C 0.6961(6) 0.9888(6) 0.45184(19) 0.0272(17) Uani 1 1 d U . .
C44 C 0.7041(5) 0.8517(5) 0.4619(2) 0.0309(18) Uani 1 1 d . . .
H44A H 0.6437 0.8223 0.4672 0.037 Uiso 1 1 calc R . .
C42 C 0.8353(5) 0.4194(5) 0.4582(2) 0.035(2) Uani 1 1 d U . .
H42A H 0.8619 0.3870 0.4652 0.042 Uiso 1 1 calc R . .
U1 U 0.294410(19) 0.481922(18) 0.380173(9) 0.03340(9) Uani 1 1 d . . .
O1 O 0.2978(4) 0.4927(4) 0.33640(17) 0.0476(15) Uani 1 1 d . . .
O3 O 0.2952(5) 0.4751(4) 0.42440(17) 0.0568(17) Uani 1 1 d . . .
O5 O 1.1608(5) 1.3360(4) 0.37996(17) 0.0399(17) Uani 1 1 d . . .
O7 O 1.1591(5) 0.4924(4) 0.38078(19) 0.053(2) Uani 1 1 d . . .
O10 O 1.2874(4) 1.3388(5) 0.37774(17) 0.0426(18) Uani 1 1 d . . .
O11 O 0.4424(5) 0.4955(4) 0.37684(19) 0.054(2) Uani 1 1 d . . .
O13 O 1.2832(4) 0.6182(4) 0.38667(18) 0.0458(17) Uani 1 1 d . . .
O14 O 0.4418(4) 0.6199(5) 0.38458(16) 0.0387(16) Uani 1 1 d U . .
C1 C 1.1504(6) 1.1922(5) 0.3774(2) 0.0326(18) Uani 1 1 d . . .
C2 C 1.0571(6) 0.7193(5) 0.37542(19) 0.0264(17) Uani 1 1 d . . .
C3 C 1.0586(5) 1.0114(4) 0.37538(17) 0.0214(15) Uani 1 1 d . . .
C7 C 0.9136(5) 0.7227(5) 0.3732(2) 0.0322(18) Uani 1 1 d . . .
H7A H 0.8820 0.6607 0.3737 0.039 Uiso 1 1 calc R . .
C10 C 1.0083(5) 0.9090(5) 0.37425(18) 0.0277(16) Uani 1 1 d . . .
C11 C 1.0070(5) 0.7668(5) 0.37452(18) 0.0224(15) Uani 1 1 d . . .
C12 C 1.2000(5) 0.5770(5) 0.3842(2) 0.0234(16) Uani 1 1 d U . .
C13 C 1.2002(6) 1.2930(5) 0.3786(2) 0.0342(18) Uani 1 1 d . . .
C14 C 1.0529(5) 0.8589(5) 0.3751(2) 0.0319(18) Uani 1 1 d . . .
H14A H 1.1148 0.8890 0.3761 0.038 Uiso 1 1 calc R . .
C16 C 1.0612(5) 1.1467(5) 0.3789(2) 0.0338(19) Uani 1 1 d . . .
H16A H 1.0297 1.1772 0.3799 0.041 Uiso 1 1 calc R . .
C19 C 0.5819(5) 0.6267(5) 0.3767(2) 0.0287(17) Uani 1 1 d . . .
C20 C 1.1496(6) 0.6244(6) 0.3810(2) 0.039(2) Uani 1 1 d U . .
C21 C 1.0180(5) 1.0589(5) 0.3788(2) 0.035(2) Uani 1 1 d . . .
H21A H 0.9564 1.0288 0.3813 0.042 Uiso 1 1 calc R . .
C22 C 1.1532(5) 1.0566(5) 0.3742(2) 0.0319(19) Uani 1 1 d . . .
H22A H 1.1839 1.0254 0.3730 0.038 Uiso 1 1 calc R . .
C23 C 0.6264(6) 0.5840(6) 0.3673(2) 0.043(2) Uani 1 1 d . . .
H23A H 0.5955 0.5232 0.3626 0.052 Uiso 1 1 calc R . .
C24 C 0.7179(6) 0.6319(6) 0.3647(3) 0.044(2) Uani 1 1 d . . .
H24A H 0.7471 0.6023 0.3574 0.053 Uiso 1 1 calc R . .
C26 C 0.9149(5) 0.8608(5) 0.37070(19) 0.0268(17) Uani 1 1 d . . .
H26A H 0.8849 0.8923 0.3679 0.032 Uiso 1 1 calc R . .
C29 C 1.1981(6) 1.1490(5) 0.3748(2) 0.038(2) Uani 1 1 d . . .
H29A H 1.2599 1.1812 0.3736 0.046 Uiso 1 1 calc R . .
C36 C 1.0141(7) 0.6291(6) 0.3712(3) 0.051(3) Uani 1 1 d . . .
H36A H 0.9536 0.5986 0.3661 0.061 Uiso 1 1 calc R . .
C38 C 0.6304(6) 0.7202(6) 0.3829(2) 0.040(2) Uani 1 1 d U . .
H38A H 0.6007 0.7509 0.3881 0.048 Uiso 1 1 calc R . .
C54 C 0.7691(5) 0.7221(5) 0.3724(2) 0.0273(17) Uani 1 1 d . . .
C51 C 0.7216(5) 0.7641(5) 0.3812(2) 0.040(2) Uani 1 1 d . . .
H51A H 0.7531 0.8247 0.3862 0.048 Uiso 1 1 calc R . .
C49 C 1.1901(6) 0.7127(6) 0.3855(3) 0.050(2) Uani 1 1 d U . .
H49A H 1.2511 0.7438 0.3897 0.060 Uiso 1 1 calc R . .
C48 C 1.1448(7) 0.7599(7) 0.3842(3) 0.055(3) Uani 1 1 d U . .
H48A H 1.1748 0.8203 0.3895 0.066 Uiso 1 1 calc R . .
C47 C 0.8657(6) 0.7686(6) 0.37112(19) 0.0321(19) Uani 1 1 d . . .
C43 C 0.4819(6) 0.5803(8) 0.3775(3) 0.050(3) Uani 1 1 d . . .
C41 C 1.0602(7) 0.5814(6) 0.3745(3) 0.065(3) Uani 1 1 d . . .
H41A H 1.0291 0.5197 0.3722 0.078 Uiso 1 1 calc R . .

loop_
_atom_site_aniso_label
_atom_site_aniso_U_11
_atom_site_aniso_U_22
_atom_site_aniso_U_33
_atom_site_aniso_U_23
_atom_site_aniso_U_13
_atom_site_aniso_U_12
U2 0.01738(15) 0.01782(14) 0.0614(2) 0.00127(13) -0.00176(14) 0.00880(12)
O2 0.027(3) 0.040(4) 0.073(4) -0.003(3) -0.001(3) 0.016(3)
O4 0.029(3) 0.036(3) 0.079(4) 0.001(3) 0.002(3) 0.027(3)
O6 0.055(4) 0.039(4) 0.063(4) -0.005(3) -0.006(4) 0.020(3)
O8 0.027(4) 0.013(3) 0.114(6) 0.009(3) 0.002(4) 0.005(3)
O9 0.032(3) 0.035(3) 0.092(5) -0.003(3) -0.002(3) 0.030(3)
O12 0.016(3) 0.011(3) 0.119(6) -0.001(3) -0.005(3) 0.007(3)
O15 0.018(3) 0.009(3) 0.104(5) 0.004(3) -0.003(3) 0.002(2)
O16 0.013(3) 0.033(4) 0.101(5) 0.002(3) 0.005(3) 0.012(3)
C4 0.023(4) 0.024(4) 0.035(4) 0.004(3) 0.006(3) 0.018(3)
C5 0.035(5) 0.023(4) 0.049(5) -0.007(4) -0.009(4) 0.022(4)
C6 0.018(4) 0.026(4) 0.043(4) 0.003(3) -0.003(3) 0.009(3)
C8 0.018(3) 0.016(3) 0.048(4) 0.003(3) -0.004(3) 0.007(3)
C9 0.013(4) 0.031(4) 0.045(5) -0.006(4) -0.010(3) 0.005(3)
C15 0.023(4) 0.013(3) 0.035(4) 0.001(3) 0.006(3) 0.013(3)
C17 0.029(4) 0.020(4) 0.044(4) 0.007(3) 0.012(4) 0.014(3)
C18 0.022(4) 0.015(3) 0.041(4) -0.003(3) -0.002(3) 0.013(3)
C25 0.011(4) 0.033(5) 0.052(5) 0.005(4) 0.003(3) 0.009(3)
C27 0.017(4) 0.032(5) 0.064(6) 0.019(4) -0.005(4) 0.011(4)
C28 0.015(4) 0.017(4) 0.050(5) 0.014(3) 0.003(3) 0.011(3)
C30 0.014(3) 0.015(4) 0.039(4) 0.001(3) -0.001(3) 0.009(3)
C31 0.012(4) 0.023(4) 0.056(5) 0.004(4) -0.010(4) 0.004(3)
C32 0.023(4) 0.010(4) 0.068(6) 0.008(4) -0.022(4) -0.001(3)
C33 0.015(3) 0.025(4) 0.047(5) -0.004(4) -0.003(3) 0.013(3)
C34 0.018(4) 0.008(3) 0.093(7) 0.011(4) 0.020(4) 0.005(3)
C35 0.050(6) 0.013(4) 0.057(5) 0.001(4) 0.002(5) 0.008(4)
C37 0.015(4) 0.017(4) 0.079(6) 0.010(4) 0.006(4) 0.000(3)
C39 0.023(4) 0.033(5) 0.077(6) -0.011(4) -0.007(4) 0.021(4)
C40 0.011(3) 0.022(4) 0.035(4) 0.007(3) 0.002(3) 0.005(3)
C53 0.008(3) 0.019(4) 0.063(5) 0.002(4) -0.002(3) 0.003(3)
C52 0.040(5) 0.033(5) 0.084(7) 0.011(5) -0.011(5) 0.020(4)
C50 0.014(3) 0.015(4) 0.049(5) -0.009(3) -0.008(3) 0.007(3)
C46 0.033(5) 0.018(4) 0.125(9) -0.014(5) -0.030(6) 0.009(4)
C45 0.027(2) 0.025(2) 0.037(2) 0.0018(17) -0.0031(17) 0.0180(17)
C44 0.018(4) 0.029(4) 0.043(5) -0.007(4) -0.008(3) 0.009(4)
C42 0.025(4) 0.011(3) 0.059(5) 0.004(3) -0.010(4) 0.001(3)
U1 0.01660(15) 0.01663(14) 0.0670(2) -0.00804(14) -0.00343(14) 0.00833(12)
O1 0.024(3) 0.020(3) 0.093(5) -0.011(3) -0.002(3) 0.007(2)
O3 0.050(4) 0.044(4) 0.077(4) -0.007(3) -0.007(4) 0.024(4)
O5 0.021(3) 0.017(3) 0.077(5) -0.005(3) 0.000(3) 0.005(3)
O7 0.025(4) 0.016(3) 0.110(6) -0.004(3) -0.003(3) 0.005(3)
O10 0.017(3) 0.019(3) 0.086(5) 0.006(3) 0.005(3) 0.004(3)
O11 0.015(3) 0.022(3) 0.114(6) -0.013(4) 0.005(3) 0.002(3)
O13 0.030(4) 0.016(3) 0.094(5) -0.011(3) -0.007(3) 0.013(3)
O14 0.017(3) 0.035(3) 0.070(3) -0.014(3) -0.006(2) 0.017(2)
C1 0.043(5) 0.010(3) 0.047(5) 0.000(3) -0.001(4) 0.015(4)
C2 0.031(4) 0.016(4) 0.042(4) 0.003(3) 0.006(4) 0.019(3)
C3 0.011(3) 0.017(3) 0.035(4) -0.004(3) -0.002(3) 0.005(3)
C7 0.019(4) 0.015(3) 0.053(5) 0.010(3) 0.003(4) 0.002(3)
C10 0.024(4) 0.020(4) 0.036(4) 0.008(3) 0.005(3) 0.009(4)
C11 0.022(4) 0.012(3) 0.039(4) 0.005(3) 0.003(3) 0.013(3)
C12 0.006(3) 0.007(3) 0.058(4) -0.002(3) 0.002(3) 0.004(2)
C13 0.028(4) 0.024(4) 0.055(5) -0.003(4) 0.001(4) 0.017(4)
C14 0.016(4) 0.019(4) 0.061(5) -0.002(4) 0.005(3) 0.008(3)
C16 0.017(4) 0.017(4) 0.064(6) 0.002(4) 0.004(4) 0.005(3)
C19 0.018(4) 0.018(4) 0.047(5) -0.004(4) 0.001(3) 0.007(3)
C20 0.033(4) 0.021(4) 0.075(5) -0.006(4) 0.000(4) 0.022(3)
C21 0.018(4) 0.017(4) 0.060(5) -0.003(4) 0.001(4) 0.000(3)
C22 0.008(3) 0.014(4) 0.069(6) 0.006(4) -0.002(4) 0.001(3)
C23 0.024(4) 0.041(5) 0.066(6) -0.023(5) -0.002(4) 0.017(4)
C24 0.027(5) 0.027(5) 0.085(7) -0.018(5) 0.005(4) 0.018(4)
C26 0.018(4) 0.020(4) 0.043(4) 0.010(4) 0.008(3) 0.010(3)
C29 0.030(5) 0.016(4) 0.057(5) 0.008(4) 0.003(4) 0.004(4)
C36 0.036(5) 0.031(5) 0.094(8) -0.015(5) -0.025(5) 0.023(4)
C38 0.021(4) 0.034(4) 0.075(6) -0.002(4) -0.006(4) 0.022(4)
C54 0.008(3) 0.025(4) 0.046(5) -0.008(4) -0.004(3) 0.006(3)
C51 0.017(4) 0.010(3) 0.090(7) -0.015(4) 0.001(4) 0.004(3)
C49 0.024(4) 0.015(4) 0.094(6) -0.001(4) -0.005(4) -0.003(3)
C48 0.040(5) 0.022(4) 0.093(6) -0.004(4) 0.005(5) 0.008(4)
C47 0.039(5) 0.025(4) 0.033(4) 0.006(4) 0.005(4) 0.016(4)
C43 0.024(5) 0.057(7) 0.073(7) -0.029(6) -0.025(5) 0.023(5)
C41 0.044(6) 0.014(4) 0.133(10) -0.024(5) -0.022(6) 0.012(4)

_geom_special_details            
; 
 All esds (except the esd in the dihedral angle between two l.s. planes) 
 are estimated using the full covariance matrix.  The cell esds are taken 
 into account individually in the estimation of esds in distances, angles 
 and torsion angles; correlations between esds in cell parameters are only 
 used when they are defined by crystal symmetry.  An approximate (isotropic) 
 treatment of cell esds is used for estimating esds in