####################################################################### 
# 
# This file contains crystal structure data downloaded from the 
# Cambridge Structural Database (CSD) hosted by the Cambridge 
# Crystallographic Data Centre (CCDC).
# 
# Full information about CCDC data access policies and citation 
# guidelines are available at http://www.ccdc.cam.ac.uk/access/V1 
# 
# Audit and citation data items may have been added by the CCDC. 
# Please retain this information to preserve the provenance of 
# this file and to allow appropriate attribution of the data. 
# 
#######################################################################

data_2
_audit_block_doi                 10.5517/cc1jd154
_database_code_depnum_ccdc_archive 'CCDC 1411745'
loop_
_citation_id
_citation_doi
_citation_year
1 10.1021/jacs.5b02480 2015
_audit_update_record             
;
2015-05-26 deposited with the CCDC.	2024-07-09 downloaded from the CCDC.
;

_audit_creation_method           SHELXL-97
_chemical_name_systematic        
; 
 ? 
;
_chemical_name_common            'uranium polycarboxylate'
_chemical_melting_point          ?
_chemical_formula_moiety         UO2(C21O6H11)
_chemical_formula_sum            'C21 H11 O8 U'
_chemical_formula_weight         629.33

loop_
_atom_type_symbol
_atom_type_description
_atom_type_scat_dispersion_real
_atom_type_scat_dispersion_imag
_atom_type_scat_source
C C 0.0033 0.0016 'International Tables Vol C Tables 4.2.6.8 and 6.1.1.4'
H H 0.0000 0.0000 'International Tables Vol C Tables 4.2.6.8 and 6.1.1.4'
O O 0.0106 0.0060 'International Tables Vol C Tables 4.2.6.8 and 6.1.1.4'
U U -9.6767 9.6646 'International Tables Vol C Tables 4.2.6.8 and 6.1.1.4'

_symmetry_cell_setting           hexagonal
_symmetry_space_group_name_H-M   P-62c

loop_
_symmetry_equiv_pos_as_xyz
'x, y, z'
'-y, x-y, z'
'-x+y, -x, z'
'x, y, -z+1/2'
'-y, x-y, -z+1/2'
'-x+y, -x, -z+1/2'
'y, x, -z'
'x-y, -y, -z'
'-x, -x+y, -z'
'y, x, z+1/2'
'x-y, -y, z+1/2'
'-x, -x+y, z+1/2'

_cell_length_a                   18.4811(6)
_cell_length_b                   18.4811(6)
_cell_length_c                   17.2261(13)
_cell_angle_alpha                90.00
_cell_angle_beta                 90.00
_cell_angle_gamma                120.00
_cell_volume                     5095.3(5)
_cell_formula_units_Z            6
_cell_measurement_temperature    273(2)
_cell_measurement_reflns_used    4019
_cell_measurement_theta_min      2.20
_cell_measurement_theta_max      27.48

_exptl_crystal_description       needle
_exptl_crystal_colour            yellow
_exptl_crystal_size_max          0.05
_exptl_crystal_size_mid          0.02
_exptl_crystal_size_min          0.01
_exptl_crystal_density_meas      ?
_exptl_crystal_density_diffrn    1.231
_exptl_crystal_density_method    'not measured'
_exptl_crystal_F_000             1758
_exptl_absorpt_coefficient_mu    4.805
_exptl_absorpt_correction_type   numerical
_exptl_absorpt_correction_T_min  0.891
_exptl_absorpt_correction_T_max  0.953
_exptl_absorpt_process_details   multi-scan

_exptl_special_details           
; 
SADABS-2010/1 (Bruker,2010) was used for absorption correction.
wR2(int) was 0.1202 before and 0.0872 after correction.
The Ratio of minimum to maximum transmission is 0.9349.
The \l/2 correction factor is 0.0015. 
;

_diffrn_ambient_temperature      273(2)
_diffrn_radiation_wavelength     0.71073
_diffrn_radiation_type           MoK\a
_diffrn_radiation_source         'Bruker Turbo X-ray Source'
_diffrn_radiation_monochromator  graphite
_diffrn_measurement_device_type  ?
_diffrn_measurement_method       ?
_diffrn_detector_area_resol_mean ?
_diffrn_standards_number         ?
_diffrn_standards_interval_count ?
_diffrn_standards_interval_time  ?
_diffrn_standards_decay_%        ?
_diffrn_reflns_number            25801
_diffrn_reflns_av_R_equivalents  0.1614
_diffrn_reflns_av_sigmaI/netI    0.1330
_diffrn_reflns_limit_h_min       -23
_diffrn_reflns_limit_h_max       16
_diffrn_reflns_limit_k_min       -21
_diffrn_reflns_limit_k_max       16
_diffrn_reflns_limit_l_min       -20
_diffrn_reflns_limit_l_max       21
_diffrn_reflns_theta_min         2.20
_diffrn_reflns_theta_max         27.48
_reflns_number_total             4019
_reflns_number_gt                2960
_reflns_threshold_expression     >2sigma(I)

_computing_data_collection       ?
_computing_cell_refinement       ?
_computing_data_reduction        ?
_computing_structure_solution    'SHELXS-97 (Sheldrick, 1990)'
_computing_structure_refinement  'SHELXL-97 (Sheldrick, 1997)'
_computing_molecular_graphics    ?
_computing_publication_material  ?

_refine_special_details          
; 
 Refinement of F^2^ against ALL reflections.  The weighted R-factor wR and 
 goodness of fit S are based on F^2^, conventional R-factors R are based 
 on F, with F set to zero for negative F^2^. The threshold expression of 
 F^2^ > 2sigma(F^2^) is used only for calculating R-factors(gt) etc. and is 
 not relevant to the choice of reflections for refinement.  R-factors based 
 on F^2^ are statistically about twice as large as those based on F, and R- 
 factors based on ALL data will be even larger. 
;

_refine_ls_structure_factor_coef Fsqd
_refine_ls_matrix_type           full
_refine_ls_weighting_scheme      calc
_refine_ls_weighting_details     
;
calc w=1/[\s^2^(Fo^2^)+(0.1000P)^2^+0.0000P] where P=(Fo^2^+2Fc^2^)/3
;
_atom_sites_solution_primary     direct
_atom_sites_solution_secondary   difmap
_atom_sites_solution_hydrogens   geom
_refine_ls_hydrogen_treatment    mixed
_refine_ls_extinction_method     none
_refine_ls_extinction_coef       ?
_refine_ls_abs_structure_details 'Flack H D (1983), Acta Cryst. A39, 876-881'
_refine_ls_abs_structure_Flack   0.165(19)
_refine_ls_number_reflns         4019
_refine_ls_number_parameters     146
_refine_ls_number_restraints     40
_refine_ls_R_factor_all          0.0909
_refine_ls_R_factor_gt           0.0587
_refine_ls_wR_factor_ref         0.1370
_refine_ls_wR_factor_gt          0.1230
_refine_ls_goodness_of_fit_ref   0.811
_refine_ls_restrained_S_all      0.809
_refine_ls_shift/su_max          0.001
_refine_ls_shift/su_mean         0.000

loop_
_atom_site_label
_atom_site_type_symbol
_atom_site_fract_x
_atom_site_fract_y
_atom_site_fract_z
_atom_site_U_iso_or_equiv
_atom_site_adp_type
_atom_site_occupancy
_atom_site_symmetry_multiplicity
_atom_site_calc_flag
_atom_site_refinement_flags
_atom_site_disorder_assembly
_atom_site_disorder_group
U1 U 0.41509(3) 1.06778(3) 0.2500 0.01641(16) Uani 1 2 d S . .
O2 O 0.4227(4) 1.0743(4) 0.3906(4) 0.0269(14) Uani 1 1 d . . .
O4 O 0.4692(6) 1.0139(6) 0.2500 0.021(2) Uani 1 2 d S . .
O5 O 0.3599(6) 1.1254(6) 0.2500 0.020(2) Uani 1 2 d S . .
O1 O 0.5300(4) 1.1705(4) 0.3295(4) 0.0234(18) Uani 1 1 d . . .
C5 C 0.6369(5) 1.1812(6) 0.6043(5) 0.014(2) Uani 1 1 d DU . .
C8 C 0.6821(5) 1.1958(5) 0.6802(5) 0.014(2) Uani 1 1 d DU . .
C4 C 0.6731(6) 1.2209(6) 0.5376(6) 0.018(2) Uani 1 1 d DU . .
H4A H 0.7297 1.2605 0.5393 0.021 Uiso 1 1 calc R . .
C2 C 0.5458(5) 1.1476(5) 0.4639(5) 0.014(2) Uani 1 1 d DU . .
C12 C 0.6399(7) 1.1833(8) 0.7500 0.013(3) Uani 1 2 d SDU . .
H12A H 0.5833 1.1664 0.7500 0.015 Uiso 1 2 calc SR . .
C7 C 0.5063(6) 1.1065(6) 0.5313(5) 0.016(2) Uani 1 1 d D . .
H7A H 0.4493 1.0684 0.5301 0.020 Uiso 1 1 calc R . .
C1 C 0.4973(6) 1.1329(6) 0.3930(5) 0.020(2) Uani 1 1 d . . .
C3 C 0.6337(5) 1.2078(5) 0.4678(6) 0.015(2) Uani 1 1 d D . .
H3A H 0.6628 1.2370 0.4238 0.018 Uiso 1 1 calc R . .
C6 C 0.5497(5) 1.1206(6) 0.6016(5) 0.014(2) Uani 1 1 d D . .
H6A H 0.5221 1.0908 0.6460 0.016 Uiso 1 1 calc R . .
C9 C 0.7657(6) 1.2245(6) 0.6800(6) 0.023(2) Uani 1 1 d DU . .
H9A H 0.7940 1.2352 0.6330 0.028 Uiso 1 1 calc R . .
C10 C 0.8098(9) 1.2381(10) 0.7500 0.031(4) Uani 1 2 d SD . .
C11 C 0.8983(11) 1.2796(10) 0.7500 0.029(4) Uani 1 2 d S . .
O3 O 0.9433(4) 1.3002(5) 0.6856(4) 0.0252(17) Uani 1 1 d . . .

loop_
_atom_site_aniso_label
_atom_site_aniso_U_11
_atom_site_aniso_U_22
_atom_site_aniso_U_33
_atom_site_aniso_U_23
_atom_site_aniso_U_13
_atom_site_aniso_U_12
U1 0.0234(3) 0.0190(3) 0.0072(2) 0.000 0.000 0.0109(2)
O2 0.031(4) 0.025(4) 0.020(3) -0.005(3) -0.007(3) 0.010(4)
O4 0.024(5) 0.022(6) 0.023(6) 0.000 0.000 0.017(4)
O5 0.023(6) 0.019(5) 0.020(6) 0.000 0.000 0.012(4)
O1 0.029(4) 0.017(4) 0.013(4) 0.002(3) -0.001(3) 0.003(3)
C5 0.020(4) 0.015(4) 0.008(4) -0.006(3) 0.003(3) 0.009(3)
C8 0.015(4) 0.006(4) 0.015(5) -0.007(4) 0.000(4) 0.001(3)
C4 0.012(3) 0.014(4) 0.018(4) -0.003(3) -0.001(3) -0.001(3)
C2 0.020(4) 0.011(4) 0.004(4) 0.000(3) -0.003(3) 0.003(3)
C12 0.013(4) 0.013(5) 0.004(4) 0.000 0.000 0.000(3)
C7 0.015(5) 0.011(5) 0.007(5) -0.003(4) 0.000(4) -0.005(4)
C1 0.028(6) 0.011(5) 0.007(5) 0.003(4) -0.001(4) -0.001(5)
C3 0.014(5) 0.006(4) 0.025(6) 0.003(4) 0.001(4) 0.004(4)
C6 0.012(5) 0.018(5) 0.006(5) 0.004(4) -0.004(4) 0.005(4)
C9 0.027(5) 0.025(5) 0.015(5) 0.006(4) -0.010(4) 0.011(4)
C10 0.015(8) 0.035(10) 0.018(9) 0.000 0.000 -0.005(7)
C11 0.040(10) 0.038(9) 0.006(8) 0.000 0.000 0.018(9)
O3 0.024(4) 0.037(4) 0.014(4) 0.002(3) 0.002(3) 0.014(3)

_geom_special_details            
; 
 All esds (except the esd in the dihedral angle between two l.s. planes) 
 are estimated using the full covariance matrix.  The cell esds are taken 
 into account individually in the estimation of esds in distances, angles 
 and torsion angles; correlations between esds in cell parameters are only 
 used when they are defined by crystal symmetry.  An approximate (isotropic) 
 treatment of cell esds is used for estimating esds involving l.s. planes. 
;

loop_
_geom_bond_atom_site_label_1
_geom_bond_atom_site_label_2
_geom_bond_distance
_geom_bond_site_symmetry_2
_geom_bond_publ_flag
U1 O4 1.728(8) . ?
U1 O5 1.805(9) . ?
U1 O2 2.426(6) . ?
U1 O2 2.426(6) 4 ?
U1 O1 2.440(7) . ?
U1 O1 2.440(7) 4 ?
U1 O3 2.480(7) 10_454 ?
U1 O3 2.480(7) 7_456 ?
U1 C1 2.828(9) . ?
U1 C1 2.828(9) 4 ?
U1 C11 2.870(16) 7_456 ?
O2 C1 1.259(10) . ?
O1 C1 1.275(11) . ?
C5 C4 1.348(13) . ?
C5 C6 1.431(12) . ?
C5 C8 1.501(12) . ?
C8 C9 1.360(13) . ?
C8 C12 1.387(10) . ?
C4 C3 1.363(13) . ?
C2 C7 1.379(12) . ?
C2 C3 1.439(12) . ?
C2 C1 1.458(12) . ?
C12 C8 1.387(10) 4_556 ?
C7 C6 1.404(12) . ?
C9 C10 1.406(12) . ?
C10 C9 1.406(12) 4_556 ?
C10 C11 1.42(2) . ?
C11 O3 1.323(11) . ?
C11 O3 1.323(11) 4_556 ?
C11 U1 2.870(16) 7_566 ?
O3 U1 2.480(7) 7_566 ?

loop_
_geom_angle_atom_site_label_1
_geom_angle_atom_site_label_2
_geom_angle_atom_site_label_3
_geom_angle
_geom_angle_site_symmetry_1
_geom_angle_site_symmetry_3
_geom_angle_publ_flag
O4 U1 O5 179.2(5) . . ?
O4 U1 O2 89.59(16) . . ?
O5 U1 O2 90.36(16) . . ?
O4 U1 O2 89.59(16) . 4 ?
O5 U1 O2 90.36(16) . 4 ?
O2 U1 O2 173.8(3) . 4 ?
O4 U1 O1 85.3(3) . . ?
O5 U1 O1 94.0(3) . . ?
O2 U1 O1 52.8(2) . . ?
O2 U1 O1 121.0(2) 4 . ?
O4 U1 O1 85.3(3) . 4 ?
O5 U1 O1 94.0(3) . 4 ?
O2 U1 O1 121.0(2) . 4 ?
O2 U1 O1 52.8(2) 4 4 ?
O1 U1 O1 68.2(3) . 4 ?
O4 U1 O3 86.5(3) . 10_454 ?
O5 U1 O3 94.2(3) . 10_454 ?
O2 U1 O3 119.6(2) . 10_454 ?
O2 U1 O3 66.5(2) 4 10_454 ?
O1 U1 O3 168.8(2) . 10_454 ?
O1 U1 O3 118.6(2) 4 10_454 ?
O4 U1 O3 86.5(3) . 7_456 ?
O5 U1 O3 94.2(3) . 7_456 ?
O2 U1 O3 66.5(2) . 7_456 ?
O2 U1 O3 119.6(2) 4 7_456 ?
O1 U1 O3 118.6(2) . 7_456 ?
O1 U1 O3 168.8(2) 4 7_456 ?
O3 U1 O3 53.2(3) 10_454 7_456 ?
O4 U1 C1 84.4(3) . . ?
O5 U1 C1 95.2(3) . . ?
O2 U1 C1 26.3(2) . . ?
O2 U1 C1 147.5(3) 4 . ?
O1 U1 C1 26.7(2) . . ?
O1 U1 C1 94.8(3) 4 . ?
O3 U1 C1 144.4(2) 10_454 . ?
O3 U1 C1 91.9(3) 7_456 . ?
O4 U1 C1 84.4(3) . 4 ?
O5 U1 C1 95.2(3) . 4 ?
O2 U1 C1 147.5(3) . 4 ?
O2 U1 C1 26.3(2) 4 4 ?
O1 U1 C1 94.8(3) . 4 ?
O1 U1 C1 26.7(2) 4 4 ?
O3 U1 C1 91.9(3) 10_454 4 ?
O3 U1 C1 144.4(2) 7_456 4 ?
C1 U1 C1 121.2(4) . 4 ?
O4 U1 C11 79.1(5) . 7_456 ?
O5 U1 C11 101.6(5) . 7_456 ?
O2 U1 C11 92.95(14) . 7_456 ?
O2 U1 C11 92.95(14) 4 7_456 ?
O1 U1 C11 142.5(2) . 7_456 ?
O1 U1 C11 142.5(2) 4 7_456 ?
O3 U1 C11 27.41(18) 10_454 7_456 ?
O3 U1 C11 27.41(18) 7_456 7_456 ?
C1 U1 C11 117.0(2) . 7_456 ?
C1 U1 C11 117.0(2) 4 7_456 ?
C1 O2 U1 94.9(5) . . ?
C1 O1 U1 93.9(5) . . ?
C4 C5 C6 117.2(8) . . ?
C4 C5 C8 124.4(8) . . ?
C6 C5 C8 118.4(8) . . ?
C9 C8 C12 120.1(9) . . ?
C9 C8 C5 119.3(8) . . ?
C12 C8 C5 120.6(8) . . ?
C5 C4 C3 125.4(9) . . ?
C7 C2 C3 117.9(8) . . ?
C7 C2 C1 119.7(8) . . ?
C3 C2 C1 122.2(8) . . ?
C8 C12 C8 120.0(11) 4_556 . ?
C2 C7 C6 121.9(8) . . ?
O2 C1 O1 117.2(8) . . ?
O2 C1 C2 119.6(8) . . ?
O1 C1 C2 122.6(8) . . ?
O2 C1 U1 58.7(5) . . ?
O1 C1 U1 59.4(5) . . ?
C2 C1 U1 163.4(7) . . ?
C4 C3 C2 118.3(9) . . ?
C7 C6 C5 119.2(8) . . ?
C8 C9 C10 120.7(10) . . ?
C9 C10 C9 118.1(14) . 4_556 ?
C9 C10 C11 120.4(7) . . ?
C9 C10 C11 120.4(7) 4_556 . ?
O3 C11 O3 114.0(14) . 4_556 ?
O3 C11 C10 123.0(7) . . ?
O3 C11 C10 123.0(7) 4_556 . ?
O3 C11 U1 59.6(7) . 7_566 ?
O3 C11 U1 59.6(7) 4_556 7_566 ?
C10 C11 U1 158.9(12) . 7_566 ?
C11 O3 U1 93.0(7) . 7_566 ?

_diffrn_measured_fraction_theta_max 0.993
_diffrn_reflns_theta_full        27.48
_diffrn_measured_fraction_theta_full 0.993
_refine_diff_density_max         1.485
_refine_diff_density_min         -1.404
_refine_diff_density_rms         0.183


# SQUEEZE RESULTS
# Note: Data are Listed for all Voids in the P1 Unit Cell
# i.e. Centre of Gravity, Solvent Accessible Volume,
# Recovered number of Electrons in the Void and
# Details about the Squeezed Material
#loop_
# _platon_squeeze_void_nr
#  _platon_squeeze_void_average_x
#  _platon_squeeze_void_average_y
#  _platon_squeeze_void_average_z
#  _platon_squeeze_void_volume
#  _platon_squeeze_void_count_electrons
#  _platon_squeeze_void_content
#   1 -0.002 -0.001 -0.015      2713      1157 ' '
#_platon_squeeze_details                           ?
