####################################################################### 
# 
# This file contains crystal structure data downloaded from the 
# Cambridge Structural Database (CSD) hosted by the Cambridge 
# Crystallographic Data Centre (CCDC).
# 
# Full information about CCDC data access policies and citation 
# guidelines are available at http://www.ccdc.cam.ac.uk/access/V1 
# 
# Audit and citation data items may have been added by the CCDC. 
# Please retain this information to preserve the provenance of 
# this file and to allow appropriate attribution of the data. 
# 
#######################################################################

data_q1
_audit_block_doi                 10.5517/cc1jd4sv
_database_code_depnum_ccdc_archive 'CCDC 1411857'
loop_
_citation_id
_citation_doi
_citation_year
1 10.1021/acs.inorgchem.5b00592 2015
_audit_update_record             
;
2015-07-09 deposited with the CCDC.	2024-07-09 downloaded from the CCDC.
;
_audit_creation_method           SHELXL-97
_chemical_name_systematic        
; 
 ? 
;
_chemical_absolute_configuration rmad
_chemical_name_common            ?
_chemical_melting_point          ?
_chemical_formula_moiety         ?
_chemical_formula_sum            ' C129 H239.5 N30.5 Ni4 O46'
_chemical_formula_weight         3188.7

loop_
_atom_type_symbol
_atom_type_description
_atom_type_scat_dispersion_real
_atom_type_scat_dispersion_imag
_atom_type_scat_source
C C 0.0181 0.0091 'International Tables Vol C Tables 4.2.6.8 and 6.1.1.4'
H H 0.0000 0.0000 'International Tables Vol C Tables 4.2.6.8 and 6.1.1.4'
N N 0.0311 0.0180 'International Tables Vol C Tables 4.2.6.8 and 6.1.1.4'
O O 0.0492 0.0322 'International Tables Vol C Tables 4.2.6.8 and 6.1.1.4'
Ni Ni -3.0029 0.5091 'International Tables Vol C Tables 4.2.6.8 and 6.1.1.4'

_symmetry_cell_setting           Orthorhombic
_symmetry_space_group_name_H-M   P2(1)2(1)2

loop_
_symmetry_equiv_pos_as_xyz
'x, y, z'
'-x, -y, z'
'-x+1/2, y+1/2, -z'
'x+1/2, -y+1/2, -z'

_cell_length_a                   29.042(3)
_cell_length_b                   30.750(5)
_cell_length_c                   9.4483(17)
_cell_angle_alpha                90.00
_cell_angle_beta                 90.00
_cell_angle_gamma                90.00
_cell_volume                     8438(2)
_cell_formula_units_Z            4
_cell_measurement_temperature    150(2)
_cell_measurement_reflns_used    2033
_cell_measurement_theta_min      3.2497
_cell_measurement_theta_max      66.8691

_exptl_crystal_description       prism
_exptl_crystal_colour            pink
_exptl_crystal_size_max          0.32
_exptl_crystal_size_mid          0.10
_exptl_crystal_size_min          0.08
_exptl_crystal_density_meas      ?
_exptl_crystal_density_diffrn    1.059
_exptl_crystal_density_method    'not measured'
_exptl_crystal_F_000             2864
_exptl_absorpt_coefficient_mu    1.006
_exptl_absorpt_correction_type   multi-scan
_exptl_absorpt_correction_T_min  0.7390
_exptl_absorpt_correction_T_max  0.9238
_exptl_absorpt_process_details   
;
CrysAlisPro, Agilent Technologies,
Version 1.171.36.20 (release 27-06-2012 CrysAlis171 .NET)
(compiled Jul 11 2012,15:38:31)
Empirical absorption correction using spherical harmonics,
 implemented in SCALE3 ABSPACK scaling algorithm.
;
_exptl_special_details           
; 
 ? 
;

_diffrn_ambient_temperature      150(2)
_diffrn_radiation_wavelength     1.54178
_diffrn_radiation_type           CuK\a
_diffrn_radiation_source         'Enhance Ultra (Cu) X-ray Source'
_diffrn_radiation_monochromator  mirror
_diffrn_measurement_device_type  'Xcalibur, Atlas, Gemini ultra'
_diffrn_detector_area_resol_mean 10.5058
_diffrn_reflns_number            17336
_diffrn_reflns_av_R_equivalents  0.1392
_diffrn_reflns_av_sigmaI/netI    0.1599
_diffrn_measurement_method       'omega scans'
_diffrn_standards_number         ?
_diffrn_standards_interval_count ?
_diffrn_standards_interval_time  ?
_diffrn_standards_decay_%        ?
_diffrn_reflns_limit_h_min       -32
_diffrn_reflns_limit_h_max       33
_diffrn_reflns_limit_k_min       -34
_diffrn_reflns_limit_k_max       35
_diffrn_reflns_limit_l_min       -10
_diffrn_reflns_limit_l_max       7
_diffrn_reflns_theta_min         3.25
_diffrn_reflns_theta_max         63.00
_reflns_number_total             11134
_reflns_number_gt                6652
_reflns_threshold_expression     >2sigma(I)

_computing_data_collection       ?
_computing_cell_refinement       ?
_computing_data_reduction        ?
_computing_structure_solution    'SHELXS-97 (Sheldrick, 1990)'
_computing_structure_refinement  'SHELXL-97 (Sheldrick, 1997)'
_computing_molecular_graphics    ?
_computing_publication_material  ?

_refine_special_details          
; 
 Refinement of F^2^ against ALL reflections.  The weighted R-factor wR and 
 goodness of fit S are based on F^2^, conventional R-factors R are based 
 on F, with F set to zero for negative F^2^. The threshold expression of 
 F^2^ > 2sigma(F^2^) is used only for calculating R-factors(gt) etc. and is 
 not relevant to the choice of reflections for refinement.  R-factors based 
 on F^2^ are statistically about twice as large as those based on F, and R- 
 factors based on ALL data will be even larger. 
;

_refine_ls_structure_factor_coef Fsqd
_refine_ls_matrix_type           full
_refine_ls_weighting_scheme      calc
_refine_ls_weighting_details     
'calc w=1/[\s^2^(Fo^2^)+(0.0000P)^2^+149.0141P] where P=(Fo^2^+2Fc^2^)/3'
_atom_sites_solution_primary     direct
_atom_sites_solution_secondary   difmap
_atom_sites_solution_hydrogens   geom
_refine_ls_hydrogen_treatment    constr
_refine_ls_extinction_method     none
_refine_ls_extinction_coef       ?
_refine_ls_abs_structure_details 'Flack H D (1983), Acta Cryst. A39, 876-881'
_refine_ls_abs_structure_Flack   0.01(2)
_refine_ls_number_reflns         11134
_refine_ls_number_parameters     765
_refine_ls_number_restraints     8
_refine_ls_R_factor_all          0.1015
_refine_ls_R_factor_gt           0.0952
_refine_ls_wR_factor_ref         0.2463
_refine_ls_wR_factor_gt          0.2255
_refine_ls_goodness_of_fit_ref   1.096
_refine_ls_restrained_S_all      1.051
_refine_ls_shift/su_max          0.000
_refine_ls_shift/su_mean         0.000

loop_
_atom_site_label
_atom_site_type_symbol
_atom_site_fract_x
_atom_site_fract_y
_atom_site_fract_z
_atom_site_U_iso_or_equiv
_atom_site_adp_type
_atom_site_occupancy
_atom_site_symmetry_multiplicity
_atom_site_calc_flag
_atom_site_refinement_flags
_atom_site_disorder_assembly
_atom_site_disorder_group
O9 O 0.5174(5) 0.2517(5) -0.0669(15) 0.074(3) Uani 1 1 d U . .
C47 C 0.5514(7) 0.2455(6) 0.011(2) 0.073(2) Uani 1 1 d DU . .
C48 C 0.6267(5) 0.2721(3) 0.0933(16) 0.073(2) Uani 1 1 d GU . .
H48 H 0.6370 0.2431 0.1068 0.088 Uiso 1 1 calc R . .
C49 C 0.5817(4) 0.2800(4) 0.0501(16) 0.072(2) Uani 1 1 d GDU . .
C53 C 0.5666(3) 0.3225(4) 0.0302(15) 0.074(2) Uani 1 1 d GU . .
H53 H 0.5359 0.3279 0.0007 0.089 Uiso 1 1 calc R . .
C50 C 0.5966(5) 0.3570(3) 0.0535(16) 0.075(3) Uani 1 1 d GU . .
H50 H 0.5862 0.3861 0.0399 0.090 Uiso 1 1 calc R . .
C52 C 0.6415(4) 0.3491(4) 0.0967(16) 0.076(3) Uani 1 1 d GDU . .
C51 C 0.6566(3) 0.3067(4) 0.1165(15) 0.075(3) Uani 1 1 d GU . .
H51 H 0.6874 0.3013 0.1460 0.090 Uiso 1 1 calc R . .
C54 C 0.6751(6) 0.3851(6) 0.1305(19) 0.078(3) Uani 1 1 d DU . .
H54A H 0.7065 0.3747 0.1081 0.093 Uiso 1 1 calc R . .
H54B H 0.6685 0.4100 0.0674 0.093 Uiso 1 1 calc R . .
C1 C 0.7159(3) 0.1803(3) 1.0778(14) 0.022(3) Uani 1 1 d DU . .
H1A H 0.7267 0.1954 1.1640 0.026 Uiso 1 1 calc R . .
H1B H 0.7113 0.2025 1.0035 0.026 Uiso 1 1 calc R . .
C2 C 0.7963(5) 0.1707(4) 0.986(2) 0.063(5) Uani 1 1 d DU . .
H2A H 0.8141 0.1805 1.0698 0.076 Uiso 1 1 calc R . .
H2B H 0.7903 0.1961 0.9245 0.076 Uiso 1 1 calc R . .
C3 C 0.8226(4) 0.1358(4) 0.9058(12) 0.022(3) Uani 1 1 d DU . .
H3A H 0.8513 0.1484 0.8666 0.027 Uiso 1 1 calc R . .
H3B H 0.8312 0.1121 0.9716 0.027 Uiso 1 1 calc R . .
C4 C 0.8148(5) 0.0790(4) 0.7214(14) 0.046(4) Uani 1 1 d DU . .
H4A H 0.8461 0.0867 0.6882 0.055 Uiso 1 1 calc R . .
H4B H 0.8181 0.0561 0.7943 0.055 Uiso 1 1 calc R . .
C5 C 0.7447(3) 0.0415(4) 0.6292(19) 0.050(4) Uani 1 1 d DU . .
H5A H 0.7483 0.0161 0.6926 0.060 Uiso 1 1 calc R . .
H5B H 0.7314 0.0312 0.5387 0.060 Uiso 1 1 calc R . .
C6 C 0.6698(4) 0.0508(5) 0.7266(19) 0.055(5) Uani 1 1 d DU . .
H6A H 0.6753 0.0240 0.7826 0.065 Uiso 1 1 calc R . .
H6B H 0.6531 0.0432 0.6387 0.065 Uiso 1 1 calc R . .
C7 C 0.6438(6) 0.0846(6) 0.8122(18) 0.071(6) Uani 1 1 d DU . .
H7A H 0.6330 0.1076 0.7468 0.085 Uiso 1 1 calc R . .
H7B H 0.6161 0.0706 0.8531 0.085 Uiso 1 1 calc R . .
C8 C 0.6448(5) 0.1427(5) 0.9927(15) 0.049(4) Uani 1 1 d DU . .
H8A H 0.6396 0.1655 0.9205 0.059 Uiso 1 1 calc R . .
H8B H 0.6145 0.1329 1.0282 0.059 Uiso 1 1 calc R . .
C9 C 0.6710(5) 0.1399(4) 1.2539(11) 0.044(4) Uani 1 1 d DU . .
H9A H 0.7028 0.1371 1.2910 0.053 Uiso 1 1 calc R . .
H9B H 0.6571 0.1105 1.2494 0.053 Uiso 1 1 calc R . .
C10 C 0.6427(3) 0.1692(4) 1.3496(15) 0.037(4) Uani 1 1 d DU . .
H10A H 0.6453 0.1585 1.4481 0.044 Uiso 1 1 calc R . .
H10B H 0.6560 0.1988 1.3468 0.044 Uiso 1 1 calc R . .
C11 C 0.7836(5) 0.0895(5) 0.4742(14) 0.053(5) Uani 1 1 d DU . .
H11A H 0.7714 0.1184 0.5016 0.063 Uiso 1 1 calc R . .
H11B H 0.7620 0.0759 0.4062 0.063 Uiso 1 1 calc R . .
C12 C 0.8312(5) 0.0940(8) 0.4089(17) 0.083(7) Uani 1 1 d DU . .
H12A H 0.8509 0.1135 0.4661 0.100 Uiso 1 1 calc R . .
H12B H 0.8464 0.0654 0.3999 0.100 Uiso 1 1 calc R . .
C14 C 1.0160(7) 0.3669(5) 0.1844(18) 0.077(2) Uani 1 1 d DU . .
H14A H 0.9946 0.3858 0.2380 0.092 Uiso 1 1 calc R . .
H14B H 1.0401 0.3854 0.1413 0.092 Uiso 1 1 calc R . .
C15 C 1.0377(6) 0.3335(5) 0.282(2) 0.078(2) Uani 1 1 d DU . .
H15A H 1.0650 0.3207 0.2355 0.094 Uiso 1 1 calc R . .
H15B H 1.0483 0.3482 0.3698 0.094 Uiso 1 1 calc R . .
C16 C 1.0328(5) 0.2632(5) 0.386(2) 0.080(2) Uani 1 1 d DU . .
H16A H 1.0561 0.2528 0.3176 0.096 Uiso 1 1 calc R . .
H16B H 1.0493 0.2749 0.4696 0.096 Uiso 1 1 calc R . .
C17 C 0.9808(6) 0.2049(5) 0.315(2) 0.081(2) Uani 1 1 d DU . .
H17A H 0.9699 0.1762 0.3486 0.097 Uiso 1 1 calc R . .
H17B H 1.0029 0.1998 0.2369 0.097 Uiso 1 1 calc R . .
C18 C 0.9202(6) 0.2097(5) 0.1339(15) 0.064(4) Uani 1 1 d DU . .
H18A H 0.9013 0.1845 0.1638 0.076 Uiso 1 1 calc R . .
H18B H 0.9449 0.1988 0.0712 0.076 Uiso 1 1 calc R . .
C19 C 0.8901(5) 0.2413(5) 0.052(2) 0.064(4) Uani 1 1 d DU . .
H19A H 0.8737 0.2266 -0.0271 0.077 Uiso 1 1 calc R . .
H19B H 0.8674 0.2559 0.1137 0.077 Uiso 1 1 calc R . .
C20 C 0.9000(5) 0.3093(5) -0.062(2) 0.079(2) Uani 1 1 d DU . .
H20A H 0.8820 0.2992 -0.1452 0.095 Uiso 1 1 calc R . .
H20B H 0.8781 0.3208 0.0086 0.095 Uiso 1 1 calc R . .
C22 C 0.9594(5) 0.3623(7) -0.370(2) 0.083(2) Uani 1 1 d DU . .
H22A H 0.9375 0.3514 -0.4423 0.100 Uiso 1 1 calc R . .
H22B H 0.9519 0.3929 -0.3478 0.100 Uiso 1 1 calc R . .
C23 C 0.9714(7) 0.2416(6) 0.544(2) 0.083(2) Uani 1 1 d DU . .
H23A H 0.9445 0.2563 0.5011 0.099 Uiso 1 1 calc R . .
H23B H 0.9869 0.2625 0.6078 0.099 Uiso 1 1 calc R . .
C24 C 0.9553(7) 0.2023(6) 0.6288(17) 0.084(2) Uani 1 1 d DU . .
H24A H 0.9342 0.1850 0.5688 0.101 Uiso 1 1 calc R . .
H24B H 0.9825 0.1839 0.6497 0.101 Uiso 1 1 calc R . .
C25 C 0.6280(5) 0.4269(5) 0.4812(14) 0.071(3) Uani 1 1 d DU . .
H25 H 0.6506 0.4502 0.5067 0.085 Uiso 1 1 calc R . .
C26 C 0.6313(5) 0.4220(5) 0.3215(15) 0.070(3) Uani 1 1 d DU . .
H26 H 0.6058 0.4020 0.2928 0.084 Uiso 1 1 calc R . .
C27 C 0.6226(5) 0.4656(5) 0.2435(19) 0.071(3) Uani 1 1 d DU . .
H27A H 0.6455 0.4875 0.2735 0.085 Uiso 1 1 calc R . .
H27B H 0.6254 0.4614 0.1400 0.085 Uiso 1 1 calc R . .
C28 C 0.5737(5) 0.4810(7) 0.2812(14) 0.071(3) Uani 1 1 d DU . .
H28A H 0.5672 0.5087 0.2318 0.085 Uiso 1 1 calc R . .
H28B H 0.5510 0.4592 0.2484 0.085 Uiso 1 1 calc R . .
C29 C 0.5683(7) 0.4877(5) 0.4419(15) 0.073(3) Uani 1 1 d DU . .
H29A H 0.5362 0.4964 0.4636 0.087 Uiso 1 1 calc R . .
H29B H 0.5891 0.5112 0.4738 0.087 Uiso 1 1 calc R . .
C30 C 0.5800(5) 0.4453(6) 0.5212(19) 0.073(3) Uani 1 1 d DU . .
H30A H 0.5562 0.4232 0.4996 0.088 Uiso 1 1 calc R . .
H30B H 0.5792 0.4510 0.6243 0.088 Uiso 1 1 calc R . .
C31 C 0.7288(5) 0.1988(4) 0.661(2) 0.054(2) Uani 1 1 d DU . .
C32 C 0.6994(4) 0.2345(3) 0.6297(12) 0.054(2) Uani 1 1 d GDU . .
C33 C 0.6654(4) 0.2493(3) 0.7212(10) 0.054(2) Uani 1 1 d GU . .
H33 H 0.6594 0.2341 0.8068 0.065 Uiso 1 1 calc R . .
C34 C 0.6401(3) 0.2862(4) 0.6875(11) 0.055(2) Uani 1 1 d GU . .
H34 H 0.6169 0.2963 0.7500 0.066 Uiso 1 1 calc R . .
C35 C 0.6489(4) 0.3084(3) 0.5622(12) 0.053(2) Uani 1 1 d GDU . .
C36 C 0.6830(4) 0.2936(3) 0.4706(10) 0.052(2) Uani 1 1 d GU . .
H36 H 0.6890 0.3088 0.3850 0.062 Uiso 1 1 calc R . .
C37 C 0.7082(3) 0.2566(4) 0.5044(11) 0.054(2) Uani 1 1 d GU . .
H37 H 0.7315 0.2465 0.4418 0.065 Uiso 1 1 calc R . .
C38 C 0.6176(5) 0.3463(4) 0.532(2) 0.055(3) Uani 1 1 d DU . .
H38A H 0.6077 0.3455 0.4318 0.066 Uiso 1 1 calc R . .
H38B H 0.5898 0.3443 0.5924 0.066 Uiso 1 1 calc R . .
C39 C 0.7614(6) 0.5314(5) 0.917(2) 0.058(2) Uani 1 1 d DU . .
C40 C 0.7291(4) 0.5006(3) 0.8650(13) 0.059(2) Uani 1 1 d GDU . .
C41 C 0.7475(3) 0.4672(4) 0.7834(13) 0.058(2) Uani 1 1 d GU . .
H41 H 0.7796 0.4667 0.7633 0.070 Uiso 1 1 calc R . .
C42 C 0.7191(4) 0.4347(3) 0.7311(12) 0.060(2) Uani 1 1 d GU . .
H42 H 0.7316 0.4119 0.6753 0.072 Uiso 1 1 calc R . .
C43 C 0.6722(4) 0.4354(3) 0.7605(13) 0.059(2) Uani 1 1 d GDU . .
C44 C 0.6538(3) 0.4687(4) 0.8422(14) 0.060(2) Uani 1 1 d GU . .
H44 H 0.6217 0.4693 0.8622 0.072 Uiso 1 1 calc R . .
C45 C 0.6822(4) 0.5013(3) 0.8944(12) 0.059(2) Uani 1 1 d GU . .
H45 H 0.6697 0.5241 0.9502 0.070 Uiso 1 1 calc R . .
C46 C 0.6428(6) 0.3989(5) 0.7117(17) 0.059(2) Uani 1 1 d DU . .
H46A H 0.6523 0.3725 0.7645 0.071 Uiso 1 1 calc R . .
H46B H 0.6107 0.4054 0.7399 0.071 Uiso 1 1 calc R . .
C55 C 0.8750(5) 0.3164(6) 0.325(2) 0.063(2) Uani 1 1 d DU . .
C56 C 0.8363(3) 0.3449(3) 0.3328(13) 0.059(2) Uani 1 1 d GDU . .
C57 C 0.8350(3) 0.3771(4) 0.2298(12) 0.056(2) Uani 1 1 d GU . .
H57 H 0.8600 0.3803 0.1656 0.068 Uiso 1 1 calc R . .
C58 C 0.7972(4) 0.4047(3) 0.2207(11) 0.056(2) Uani 1 1 d GU . .
H58 H 0.7963 0.4267 0.1503 0.067 Uiso 1 1 calc R . .
C59 C 0.7607(3) 0.3999(3) 0.3145(13) 0.054(2) Uani 1 1 d GDU . .
C60 C 0.7620(3) 0.3677(4) 0.4175(12) 0.057(2) Uani 1 1 d GU . .
H60 H 0.7370 0.3645 0.4817 0.068 Uiso 1 1 calc R . .
C61 C 0.7998(4) 0.3401(3) 0.4266(12) 0.058(2) Uani 1 1 d GU . .
H61 H 0.8007 0.3181 0.4970 0.069 Uiso 1 1 calc R . .
C62 C 0.7173(4) 0.4253(5) 0.300(2) 0.055(3) Uani 1 1 d DU . .
H62A H 0.7135 0.4431 0.3863 0.066 Uiso 1 1 calc R . .
H62B H 0.7211 0.4456 0.2194 0.066 Uiso 1 1 calc R . .
N1 N 0.6718(4) 0.1602(4) 1.1084(11) 0.057(4) Uani 1 1 d DU . .
N2 N 0.7526(4) 0.1502(4) 1.0304(16) 0.054(4) Uani 1 1 d DU . .
H2 H 0.7592 0.1317 1.1056 0.065 Uiso 1 1 calc R . .
N3 N 0.7943(5) 0.1179(4) 0.7893(14) 0.064(4) Uani 1 1 d DU . .
H3 H 0.7932 0.1393 0.7199 0.077 Uiso 1 1 calc R . .
N4 N 0.7894(3) 0.0610(3) 0.6032(10) 0.027(3) Uani 1 1 d DU . .
N5 N 0.7135(4) 0.0736(4) 0.6952(13) 0.042(3) Uani 1 1 d DU . .
H5 H 0.7062 0.0930 0.6230 0.051 Uiso 1 1 calc R . .
N6 N 0.6697(5) 0.1056(5) 0.9285(16) 0.069(5) Uani 1 1 d DU . .
H6 H 0.6713 0.0847 0.9996 0.082 Uiso 1 1 calc R . .
N8 N 0.9908(5) 0.3428(5) 0.0731(17) 0.077(2) Uani 1 1 d DU . .
H8 H 1.0128 0.3341 0.0076 0.092 Uiso 1 1 calc R . .
N9 N 1.0052(5) 0.2983(4) 0.3204(19) 0.079(2) Uani 1 1 d DU . .
H9 H 0.9865 0.3094 0.3916 0.095 Uiso 1 1 calc R . .
N11 N 0.9411(5) 0.2300(5) 0.2605(14) 0.060(4) Uani 1 1 d DU . .
H11 H 0.9195 0.2359 0.3305 0.072 Uiso 1 1 calc R . .
N12 N 0.9254(5) 0.2720(5) -0.001(2) 0.081(5) Uani 1 1 d DU . .
H12 H 0.9428 0.2586 -0.0713 0.097 Uiso 1 1 calc R . .
N13 N 0.6425(5) 0.3879(4) 0.5614(14) 0.062(3) Uani 1 1 d DU . .
N14 N 0.6747(4) 0.4007(4) 0.2778(14) 0.047(4) Uani 1 1 d DU . .
Ni1 Ni 0.73130(14) 0.11138(8) 0.8604(4) 0.0690(10) Uani 1 1 d . . .
Ni2 Ni 0.96634(12) 0.28698(11) 0.1645(4) 0.0689(10) Uani 1 1 d . . .
O1 O 0.5936(3) 0.1719(5) 1.3124(15) 0.071(4) Uani 1 1 d DU . .
H1 H 0.5908 0.1731 1.2240 0.106 Uiso 1 1 calc R . .
O2 O 0.8217(5) 0.1130(6) 0.2690(16) 0.093(5) Uani 1 1 d DU . .
H2C H 0.8467 0.1171 0.2260 0.139 Uiso 1 1 calc R . .
O3 O 1.0072(5) 0.3580(5) -0.4194(16) 0.086(3) Uani 1 1 d DU . .
H3C H 1.0328 0.3567 -0.3831 0.129 Uiso 1 1 d R . .
O4 O 0.9318(5) 0.2120(5) 0.7628(15) 0.089(3) Uani 1 1 d DU . .
H4 H 0.9058 0.2214 0.7483 0.133 Uiso 1 1 d R . .
O5 O 0.7068(4) 0.1663(4) 0.7452(13) 0.055(2) Uani 1 1 d U . .
O6 O 0.7681(4) 0.1918(4) 0.6148(13) 0.056(2) Uani 1 1 d U . .
O7 O 0.7413(4) 0.5562(4) 1.0146(13) 0.057(2) Uani 1 1 d U . .
O8 O 0.7985(4) 0.5350(4) 0.8873(15) 0.066(3) Uani 1 1 d U . .
O10 O 0.5579(5) 0.2078(5) 0.0907(15) 0.076(3) Uani 1 1 d U . .
O11 O 0.8712(4) 0.2802(5) 0.3972(15) 0.070(3) Uani 1 1 d U . .
O12 O 0.9119(5) 0.3229(4) 0.2618(15) 0.068(2) Uani 1 1 d U . .
N7 N 0.9309(5) 0.3439(5) -0.1063(15) 0.079(2) Uani 1 1 d DU . .
N10 N 1.0042(5) 0.2270(5) 0.4299(15) 0.081(2) Uani 1 1 d DU . .
C13 C 0.9572(6) 0.3696(5) -0.006(2) 0.078(2) Uani 1 1 d DU . .
H13A H 0.9359 0.3837 0.0613 0.094 Uiso 1 1 calc R . .
H13B H 0.9738 0.3928 -0.0579 0.094 Uiso 1 1 calc R . .
C21 C 0.9585(7) 0.3342(7) -0.2380(17) 0.081(2) Uani 1 1 d DU . .
H21A H 0.9488 0.3049 -0.2695 0.097 Uiso 1 1 calc R . .
H21B H 0.9909 0.3314 -0.2069 0.097 Uiso 1 1 calc R . .

loop_
_atom_site_aniso_label
_atom_site_aniso_U_11
_atom_site_aniso_U_22
_atom_site_aniso_U_33
_atom_site_aniso_U_23
_atom_site_aniso_U_13
_atom_site_aniso_U_12
O9 0.073(4) 0.072(4) 0.077(4) 0.001(3) -0.007(3) -0.002(3)
C47 0.072(3) 0.072(3) 0.075(4) 0.001(3) -0.005(3) -0.002(3)
C48 0.072(3) 0.073(3) 0.075(4) 0.001(3) -0.001(3) -0.003(3)
C49 0.072(3) 0.071(3) 0.073(3) 0.001(3) -0.001(3) -0.003(2)
C53 0.0