
#######################################################################
#
#                 Cambridge Crystallographic Data Centre
#                                CCDC
#
#######################################################################
#
# If this CIF has been generated from an entry in the Cambridge
# Structural Database, then it will include bibliographic, chemical,
# crystal, experimental, refinement or atomic coordinate data resulting
# from the CCDC's data processing and validation procedures.
#
#######################################################################

data_CSD_CIF_CUHXUY
_audit_creation_date 1985-11-27
_audit_creation_method CSD-ConQuest-V1
_database_code_CSD CUHXUY
_database_code_depnum_ccdc_archive 'CCDC 1132830'
_chemical_formula_sum 'C12 H13 Br2 N4 O6 Tc1'
_chemical_formula_moiety
;
C12 H13 Br2 N4 O6 Tc1
;
_journal_coden_Cambridge 9
_journal_volume 23
_journal_year 1984
_journal_page_first 3968
_journal_name_full 'Inorg.Chem. '
loop_
_publ_author_name
"P.H.Fackler"
"M.E.Kastner"
"M.J.Clarke"
_chemical_name_systematic
;
Dibromo-ethoxo-oxo-bis(4-nitropyridine)-technetium(v)
;
_chemical_name_common
;
Teaching Subset: Fundamental Chemistry
;
_cell_volume    927.048
_exptl_crystal_colour 'emerald-green'
_exptl_crystal_density_diffrn 2.03
_diffrn_ambient_temperature ?
_diffrn_special_details
;
The study was carried out at room temperature,in the range 283-303K

;
#These two values have been output from a single CSD field.
_refine_ls_R_factor_gt 0.043
_refine_ls_wR_factor_gt 0.043
_symmetry_cell_setting triclinic
_symmetry_space_group_name_H-M 'P -1'
_symmetry_Int_Tables_number 2
loop_
_symmetry_equiv_pos_site_id
_symmetry_equiv_pos_as_xyz
1 x,y,z
2 -x,-y,-z
_cell_length_a 10.820(1)
_cell_length_b 11.146(2)
_cell_length_c 9.006(1)
_cell_angle_alpha 102.82(1)
_cell_angle_beta 108.11(1)
_cell_angle_gamma 64.53(1)
_cell_formula_units_Z 2
loop_
_atom_type_symbol
_atom_type_radius_bond
C 0.68
H 0.23
Br 1.21
N 0.68
O 0.68
Tc 1.35
loop_
_atom_site_label
_atom_site_type_symbol
_atom_site_fract_x
_atom_site_fract_y
_atom_site_fract_z
Tc1 Tc 0.3901(1) 0.3621(1) 0.1019(1)
Br1 Br 0.2254(1) 0.5137(1) 0.2805(2)
Br2 Br 0.5394(1) 0.1973(1) -0.0806(1)
O1 O 0.2642(7) 0.2778(7) 0.0279(8)
O2 O 0.4877(7) 0.4553(7) 0.1748(8)
O3 O 0.7449(12) -0.1162(12) 0.6387(14)
O4 O 0.8324(10) 0.0381(12) 0.7664(13)
O5 O -0.0393(12) 0.7177(11) -0.5486(14)
O6 O 0.0646(14) 0.8553(13) -0.4160(16)
N1 N 0.5134(9) 0.2342(9) 0.2864(11)
N2 N 0.2676(9) 0.4934(10) -0.0784(11)
N3 N 0.7569(13) -0.0096(14) 0.6529(16)
N4 N 0.0457(15) 0.7551(16) -0.4289(16)
C1 C 0.5775(14) 0.2836(13) 0.4243(15)
C2 C 0.6583(14) 0.2072(15) 0.5465(15)
C3 C 0.6700(13) 0.0786(14) 0.5238(16)
C4 C 0.6071(14) 0.0244(12) 0.3866(15)
C5 C 0.5276(13) 0.1074(13) 0.2700(15)
C6 C 0.2403(13) 0.6256(13) -0.0472(13)
C7 C 0.1686(13) 0.7142(12) -0.1598(16)
C8 C 0.1251(12) 0.6598(14) -0.3084(15)
C9 C 0.1489(14) 0.5260(15) -0.3465(15)
C10 C 0.2211(13) 0.4465(12) -0.2274(16)
C11 C 0.1334(13) 0.2690(14) 0.0051(16)
C12 C 0.1272(16) 0.1458(15) -0.0894(15)
H1 H 0.55390 0.39730 0.45210
H2 H 0.70740 0.24010 0.66320
H3 H 0.62040 -0.08910 0.34560
H4 H 0.49160 0.06210 0.13540
H5 H 0.25450 0.66950 0.07370
H6 H 0.14760 0.82060 -0.14210
H7 H 0.12340 0.46990 -0.47980
H8 H 0.24420 0.33640 -0.24910
H9 H 0.12850 0.28990 0.11880
H10 H 0.05870 0.36270 -0.03120
H11 H 0.15100 0.14570 -0.19010
H12 H 0.02450 0.14620 -0.05640
H13 H 0.19810 0.05290 -0.03120
#END
