
#######################################################################
#
#                 Cambridge Crystallographic Data Centre
#                                CCDC
#
#######################################################################
#
# If this CIF has been generated from an entry in the Cambridge
# Structural Database, then it will include bibliographic, chemical,
# crystal, experimental, refinement or atomic coordinate data resulting
# from the CCDC's data processing and validation procedures.
#
#######################################################################

data_CSD_CIF_CUKCIU02
_audit_creation_date 1992-08-10
_audit_creation_method CSD-ConQuest-V1
_database_code_CSD CUKCIU02
_database_code_depnum_ccdc_archive 'CCDC 1132984'
_chemical_formula_sum 'C4 H8 O2'
_chemical_formula_moiety
;
C4 H8 O2
;
_journal_coden_Cambridge 4
_journal_volume 113
_journal_year 1991
_journal_page_first 9148
_journal_name_full 'J.Am.Chem.Soc. '
loop_
_publ_author_name
"T.Koritsanszky"
"M.K.Strumpel"
"J.Buschmann"
"P.Luger"
"N.K.Hansen"
"V.Pichon-Pesme"
_chemical_name_systematic
;
1,4-Dioxane
;
_chemical_name_common
;
Teaching Subset: Symmetry
;
_cell_volume    222.917
_exptl_crystal_density_diffrn 1.304
_exptl_special_details
;
low temperature polymorph II

;
_diffrn_ambient_temperature 106
#These two values have been output from a single CSD field.
_refine_ls_R_factor_gt 0.024
_refine_ls_wR_factor_gt 0.024
_symmetry_cell_setting monoclinic
_symmetry_space_group_name_H-M 'P 21/n'
_symmetry_Int_Tables_number 14
loop_
_symmetry_equiv_pos_site_id
_symmetry_equiv_pos_as_xyz
1 x,y,z
2 1/2-x,1/2+y,1/2-z
3 -x,-y,-z
4 -1/2+x,-1/2-y,-1/2+z
_cell_length_a 5.715(2)
_cell_length_b 6.458(2)
_cell_length_c 6.131(2)
_cell_angle_alpha 90
_cell_angle_beta 99.89(3)
_cell_angle_gamma 90
_cell_formula_units_Z 2
loop_
_atom_type_symbol
_atom_type_radius_bond
C 0.68
H 0.23
O 0.68
loop_
_atom_site_label
_atom_site_type_symbol
_atom_site_fract_x
_atom_site_fract_y
_atom_site_fract_z
O1 O 0.71569(4) 0.61369(4) 0.52560(5)
C1 C 0.50042(6) 0.70663(6) 0.56763(6)
C2 C 0.66224(6) 0.45595(6) 0.36109(6)
H1 H 0.425(1) 0.775(1) 0.430(1)
H2 H 0.543(1) 0.811(1) 0.683(1)
H3 H 0.589(1) 0.516(1) 0.223(1)
H4 H 0.810(1) 0.396(1) 0.336(1)
O1B O 0.28431(4) 0.38631(4) 0.47440(5)
C1B C 0.49958(6) 0.29337(6) 0.43237(6)
C2B C 0.33776(6) 0.54405(6) 0.63891(6)
H1B H 0.575(1) 0.225(1) 0.570(1)
H2B H 0.457(1) 0.189(1) 0.317(1)
H3B H 0.411(1) 0.484(1) 0.777(1)
H4B H 0.190(1) 0.604(1) 0.664(1)
#END
