
#######################################################################
#
#                 Cambridge Crystallographic Data Centre
#                                CCDC
#
#######################################################################
#
# If this CIF has been generated from an entry in the Cambridge
# Structural Database, then it will include bibliographic, chemical,
# crystal, experimental, refinement or atomic coordinate data resulting
# from the CCDC's data processing and validation procedures.
#
#######################################################################

data_CSD_CIF_CUKRAB02
_audit_creation_date 2021-11-04
_audit_creation_method CSD-ConQuest-V1
_database_code_CSD CUKRAB02
_database_code_depnum_ccdc_archive 'CCDC 889926'
_chemical_formula_sum 'C3 H13 Cl2 N3 O1 Pt1'
_chemical_formula_moiety
;
C3 H7 N1 O1,H6 Cl2 N2 Pt1
;
_journal_coden_Cambridge 1828
_journal_volume 68
_journal_year 2012
_journal_page_first m863
_journal_name_full 'Acta Crystallogr.,Sect.E:Cryst.Commun. '
loop_
_publ_author_name
"D.H.Johnston"
"N.A.Miller"
"C.B.Tacket"
_chemical_name_systematic
;
cis-Diamine-dichloro-platinum(ii) N,N-dimethylformamide solvate
;
_chemical_name_common
;
cisplatin N,N-dimethylformamide solvate; Teaching Subset: Fundamental 
Chemistry, Drug Molecules
;
_cell_volume    465.470
_exptl_crystal_colour 'yellow'
_exptl_crystal_density_diffrn 2.662
_exptl_special_details
;
P-1 polymorph
treatment for several types of cancer

;
_exptl_crystal_description 'plate'
_diffrn_ambient_temperature 200
#These two values have been output from a single CSD field.
_refine_ls_R_factor_gt 0.0279
_refine_ls_wR_factor_gt 0.0279
_symmetry_cell_setting triclinic
_symmetry_space_group_name_H-M 'P -1'
_symmetry_Int_Tables_number 2
loop_
_symmetry_equiv_pos_site_id
_symmetry_equiv_pos_as_xyz
1 x,y,z
2 -x,-y,-z
_cell_length_a 6.2344(9)
_cell_length_b 6.8196(11)
_cell_length_c 11.5833(18)
_cell_angle_alpha 105.285(4)
_cell_angle_beta 96.061(4)
_cell_angle_gamma 97.809(4)
_cell_formula_units_Z 2
loop_
_atom_type_symbol
_atom_type_radius_bond
C 0.68
H 0.23
Cl 0.99
N 0.68
O 0.68
Pt 1.36
loop_
_atom_site_label
_atom_site_type_symbol
_atom_site_fract_x
_atom_site_fract_y
_atom_site_fract_z
Pt1 Pt 0.55286(4) 0.74780(4) 0.49265(2)
Cl1 Cl 0.6813(3) 0.6374(3) 0.31075(18)
Cl2 Cl 0.8971(3) 0.7991(3) 0.60324(18)
N1 N 0.4361(11) 0.8403(11) 0.6522(6)
H1 H 0.54430 0.92660 0.70890
H2 H 0.38940 0.72810 0.67720
H3 H 0.32220 0.90760 0.64190
N2 N 0.2485(11) 0.6999(11) 0.3960(6)
H4 H 0.17060 0.79430 0.43450
H5 H 0.17860 0.57060 0.38970
H6 H 0.26040 0.71350 0.32080
O1 O 1.2567(10) 0.8302(10) 1.1506(5)
N3 N 0.9601(11) 0.7534(9) 1.0048(6)
C1 C 0.7242(15) 0.7227(15) 0.9760(9)
H7 H 0.65980 0.75110 1.05100
H8 H 0.66940 0.57970 0.92790
H9 H 0.68360 0.81650 0.92940
C2 C 1.0852(17) 0.7125(15) 0.9063(8)
H10 H 1.24110 0.76120 0.93740
H11 H 1.03890 0.78450 0.84760
H12 H 1.06080 0.56370 0.86670
C3 C 1.0583(16) 0.8090(13) 1.1198(7)
H13 H 0.96860 0.83390 1.18180
#END
