
#######################################################################
#
#                 Cambridge Crystallographic Data Centre
#                                CCDC
#
#######################################################################
#
# If this CIF has been generated from an entry in the Cambridge
# Structural Database, then it will include bibliographic, chemical,
# crystal, experimental, refinement or atomic coordinate data resulting
# from the CCDC's data processing and validation procedures.
#
#######################################################################

data_CSD_CIF_CUKRIJ
_audit_creation_date 1985-11-27
_audit_creation_method CSD-ConQuest-V1
_database_code_CSD CUKRIJ
_database_code_depnum_ccdc_archive 'CCDC 1133048'
_chemical_formula_sum 'C9 H27 Cl4 P3 Ta1'
_chemical_formula_moiety
;
C9 H27 Cl4 P3 Ta1
;
_journal_coden_Cambridge 9
_journal_volume 23
_journal_year 1984
_journal_page_first 4046
_journal_name_full 'Inorg.Chem. '
loop_
_publ_author_name
"F.A.Cotton"
"S.A.Duraj"
"W.J.Roth"
_chemical_name_systematic
;
tris(Trimethylphosphine)-tetrachloro-tantalum(iv)
;
_chemical_name_common
;
Teaching Subset: Fundamental Chemistry
;
_cell_volume   2038.534
_exptl_crystal_colour 'black red'
_exptl_crystal_density_diffrn 1.795
_diffrn_ambient_temperature ?
_diffrn_special_details
;
The study was carried out at room temperature,in the range 283-303K

;
#These two values have been output from a single CSD field.
_refine_ls_R_factor_gt 0.0372
_refine_ls_wR_factor_gt 0.0372
_symmetry_cell_setting monoclinic
_symmetry_space_group_name_H-M 'P 21/c'
_symmetry_Int_Tables_number 14
loop_
_symmetry_equiv_pos_site_id
_symmetry_equiv_pos_as_xyz
1 x,y,z
2 -x,1/2+y,1/2-z
3 -x,-y,-z
4 x,-1/2-y,-1/2+z
_cell_length_a 15.000(3)
_cell_length_b 11.714(3)
_cell_length_c 11.606(3)
_cell_angle_alpha 90
_cell_angle_beta 91.56(2)
_cell_angle_gamma 90
_cell_formula_units_Z 4
loop_
_atom_type_symbol
_atom_type_radius_bond
C 0.68
Cl 0.99
P 1.05
Ta 1.43
loop_
_atom_site_label
_atom_site_type_symbol
_atom_site_fract_x
_atom_site_fract_y
_atom_site_fract_z
Ta1 Ta -0.25554(3) -0.01822(3) 0.21911(4)
C1 C -0.0258(8) -0.128(1) 0.284(1)
Cl1 Cl -0.2361(3) -0.1278(3) 0.3945(3)
C2 C -0.0716(9) -0.143(1) 0.038(1)
Cl2 Cl -0.1379(2) 0.1130(3) 0.1586(3)
C3 C -0.134(1) 0.119(1) 0.475(1)
Cl3 Cl -0.3767(2) 0.1191(3) 0.1860(4)
C4 C -0.325(1) 0.121(1) 0.498(1)
Cl4 Cl -0.2788(2) -0.0643(3) 0.0161(3)
C5 C -0.240(1) 0.283(1) 0.348(1)
P1 P -0.1199(2) -0.1554(3) 0.1823(3)
C6 C -0.3791(9) -0.305(1) 0.219(2)
P2 P -0.2379(2) 0.1322(3) 0.3888(3)
C7 C -0.4813(9) -0.128(1) 0.108(1)
P3 P -0.3981(2) -0.1492(3) 0.2228(3)
C8 C -0.4645(9) -0.129(2) 0.353(1)
C9 C -0.1346(9) -0.309(1) 0.198(1)
#END
