####################################################################### 
# 
# This file contains crystal structure data downloaded from the 
# Cambridge Structural Database (CSD) hosted by the Cambridge 
# Crystallographic Data Centre (CCDC).
# 
# Full information about CCDC data access policies and citation 
# guidelines are available at http://www.ccdc.cam.ac.uk/access/V1 
# 
# Audit and citation data items may have been added by the CCDC. 
# Please retain this information to preserve the provenance of 
# this file and to allow appropriate attribution of the data. 
# 
#######################################################################

data_yjgpl9
_audit_block_doi                 10.5517/cctkk52
_database_code_depnum_ccdc_archive 'CCDC 761644'
loop_
_citation_id
_citation_doi
_citation_year
1 10.1016/j.jssc.2009.07.019 2009
_audit_update_record             
;
2010-01-15 deposited with the CCDC.	2024-07-09 downloaded from the CCDC.
;

_audit_creation_method           SHELXL-97
_chemical_name_systematic        
;
?
;
_chemical_name_common            ?
_chemical_melting_point          ?
_chemical_formula_moiety         ?
_chemical_formula_sum            'C13 H34 La2 N4 O17 P4'
_chemical_formula_weight         910.10

loop_
_atom_type_symbol
_atom_type_description
_atom_type_scat_dispersion_real
_atom_type_scat_dispersion_imag
_atom_type_scat_source
C C 0.0033 0.0016 'International Tables Vol C Tables 4.2.6.8 and 6.1.1.4'
H H 0.0000 0.0000 'International Tables Vol C Tables 4.2.6.8 and 6.1.1.4'
N N 0.0061 0.0033 'International Tables Vol C Tables 4.2.6.8 and 6.1.1.4'
O O 0.0106 0.0060 'International Tables Vol C Tables 4.2.6.8 and 6.1.1.4'
P P 0.1023 0.0942 'International Tables Vol C Tables 4.2.6.8 and 6.1.1.4'
La La -0.2871 2.4523 'International Tables Vol C Tables 4.2.6.8 and 6.1.1.4'

_symmetry_cell_setting           Triclinic
_symmetry_space_group_name_H-M   'P -1'

loop_
_symmetry_equiv_pos_as_xyz
'x, y, z'
'-x, -y, -z'

_cell_length_a                   5.7630(13)
_cell_length_b                   10.213(2)
_cell_length_c                   11.649(2)
_cell_angle_alpha                84.2420(16)
_cell_angle_beta                 89.0510(17)
_cell_angle_gamma                82.8760(18)
_cell_volume                     676.9(2)
_cell_formula_units_Z            1
_cell_measurement_temperature    93.2
_cell_measurement_radiation      MoK\a
_cell_measurement_wavelength     0.71069
_cell_measurement_reflns_used    4685
_cell_measurement_theta_min      1.69
_cell_measurement_theta_max      28.08

_exptl_crystal_description       Chip
_exptl_crystal_colour            Colorless
_exptl_crystal_size_min          0.010
_exptl_crystal_size_mid          0.020
_exptl_crystal_size_max          0.150
_exptl_crystal_density_meas      ?
_exptl_crystal_density_diffrn    2.233
_exptl_crystal_density_method    'not measured'
_exptl_crystal_F_000             446
_exptl_absorpt_coefficient_mu    3.432
_exptl_absorpt_correction_type   multi-scan
_exptl_absorpt_correction_T_min  0.7023
_exptl_absorpt_correction_T_max  1.0000
_exptl_absorpt_process_details   
;
Shape and scale corrections using equivalent reflections.
Shape function based on spherical harmonics.
Highest even and odd order for spherical harmonics: 4 and 1
Laue group: -1
Friedel opposites are equivalent.
;
_exptl_special_details           ?



_diffrn_ambient_temperature      293(2)
_diffrn_radiation_wavelength     0.70926
_diffrn_radiation_type           'Mo K\a'
_diffrn_radiation_source         'fine-focus sealed tube'
_diffrn_radiation_monochromator  graphite
_diffrn_measurement_device_type  'AFC7 four-circle goniometer'
_diffrn_measurement_method       'profile data'
_diffrn_detector_area_resol_mean 7.315
_diffrn_standards_number         ?
_diffrn_standards_interval_count ?
_diffrn_standards_interval_time  ?
_diffrn_standards_decay_%        ?
_diffrn_reflns_number            3987
_diffrn_reflns_av_R_equivalents  0.0354
_diffrn_reflns_av_sigmaI/netI    0.0283
_diffrn_reflns_limit_h_min       -4
_diffrn_reflns_limit_h_max       6
_diffrn_reflns_limit_k_min       -13
_diffrn_reflns_limit_k_max       12
_diffrn_reflns_limit_l_min       -14
_diffrn_reflns_limit_l_max       12
_diffrn_reflns_theta_min         1.75
_diffrn_reflns_theta_max         27.21
_reflns_number_total             2379
_reflns_number_gt                2168
_reflns_threshold_expression     >2sigma(I)

_computing_data_collection       'CrystalClear (Rigaku Corp., 2004'
_computing_cell_refinement       'CrystalClear (Rigaku Corp., 2004'
_computing_data_reduction        'CrystalClear (Rigaku Corp., 2004'
_computing_structure_solution    'SHELXS-97 (Shledrick 1990)'
_computing_structure_refinement  'SHELXL-97 (Sheldrick, 1997)'
_computing_molecular_graphics    'Bruker SHELXTL'
_computing_publication_material  'Bruker SHELXTL'

_refine_special_details          
;
Refinement of F2^ against ALL reflections. The weighted R-factor wR and
goodness of fit S are based on F2^, conventional R-factors R are based
on F, with F set to zero for negative F2^. The threshold expression of
F2^ > 2sigma(F2^) is used only for calculating R-factors(gt) etc. and is
not relevant to the choice of reflections for refinement. R-factors based
on F2^ are statistically about twice as large as those based on F, and R-
factors based on ALL data will be even larger.
;

_refine_ls_structure_factor_coef Fsqd
_refine_ls_matrix_type           full
_refine_ls_weighting_scheme      calc
_refine_ls_weighting_details     
'calc w=1/[\s2^(Fo2^)+(0.0835P)2^+6.9550P] where P=(Fo2^+2Fc2^)/3'
_atom_sites_solution_primary     direct
_atom_sites_solution_secondary   difmap
_atom_sites_solution_hydrogens   geom
_refine_ls_hydrogen_treatment    constr
_refine_ls_extinction_method     none
_refine_ls_extinction_coef       ?
_refine_ls_number_reflns         2379
_refine_ls_number_parameters     174
_refine_ls_number_restraints     0
_refine_ls_R_factor_all          0.0522
_refine_ls_R_factor_gt           0.0461
_refine_ls_wR_factor_ref         0.1303
_refine_ls_wR_factor_gt          0.1242
_refine_ls_goodness_of_fit_ref   1.081
_refine_ls_restrained_S_all      1.081
_refine_ls_shift/su_max          0.133
_refine_ls_shift/su_mean         0.002

loop_
_atom_site_label
_atom_site_type_symbol
_atom_site_fract_x
_atom_site_fract_y
_atom_site_fract_z
_atom_site_U_iso_or_equiv
_atom_site_adp_type
_atom_site_occupancy
_atom_site_symmetry_multiplicity
_atom_site_calc_flag
_atom_site_refinement_flags
_atom_site_disorder_assembly
_atom_site_disorder_group
La1 La 0.78229(7) 0.85477(4) 0.52805(3) 0.01014(19) Uani 1 1 d . . .
P1 P 0.2792(3) 0.82991(18) 0.33873(17) 0.0102(4) Uani 1 1 d . . .
P2 P 0.3298(3) 0.83987(19) 0.69054(17) 0.0112(4) Uani 1 1 d . . .
O1 O 0.5041(9) 0.7775(5) 0.4029(5) 0.0128(11) Uani 1 1 d . . .
O2 O 0.1163(9) 0.9271(5) 0.4067(4) 0.0116(11) Uani 1 1 d . . .
O3 O 0.3140(9) 0.8903(5) 0.2149(5) 0.0167(11) Uani 1 1 d . . .
O4 O 0.1129(9) 0.7814(5) 0.6576(4) 0.0127(11) Uani 1 1 d . . .
O5 O 0.5553(9) 0.7422(5) 0.7016(5) 0.0145(11) Uani 1 1 d . . .
O6 O 0.3926(9) 0.9582(5) 0.6083(5) 0.0126(11) Uani 1 1 d . . .
N1 N 0.0203(10) 0.6275(6) 0.4300(5) 0.0116(13) Uani 1 1 d . . .
N2 N 0.4007(11) 0.9710(6) 0.8915(5) 0.0118(12) Uani 1 1 d . . .
H2 H 0.4885 1.0172 0.8403 0.014 Uiso 1 1 calc R . .
C1 C 0.1092(12) 0.6939(7) 0.3217(6) 0.0115(14) Uani 1 1 d . . .
H1A H -0.0233 0.7278 0.2724 0.014 Uiso 1 1 calc R . .
H1B H 0.2056 0.6278 0.2819 0.014 Uiso 1 1 calc R . .
C2 C 0.2168(12) 0.5498(7) 0.4976(7) 0.0117(15) Uani 1 1 d . . .
H2A H 0.3208 0.6100 0.5210 0.014 Uiso 1 1 calc R . .
H2B H 0.3051 0.4897 0.4489 0.014 Uiso 1 1 calc R . .
C3 C -0.1334(13) 0.5292(7) 0.3963(7) 0.0126(15) Uani 1 1 d . . .
H3A H -0.0467 0.4695 0.3467 0.015 Uiso 1 1 calc R . .
H3B H -0.2671 0.5756 0.3536 0.015 Uiso 1 1 calc R . .
C4 C 0.2332(13) 0.9045(8) 0.8259(7) 0.0124(15) Uani 1 1 d . . .
H4A H 0.0948 0.9677 0.8098 0.015 Uiso 1 1 calc R . .
H4B H 0.1855 0.8315 0.8769 0.015 Uiso 1 1 calc R . .
C5 C 0.2725(13) 1.0639(8) 0.9675(7) 0.0147(15) Uani 1 1 d . . .
H5A H 0.1744 1.0157 1.0206 0.018 Uiso 1 1 calc R . .
H5B H 0.1718 1.1311 0.9208 0.018 Uiso 1 1 calc R . .
C6 C 0.5597(14) 0.8690(8) 0.9638(7) 0.0152(15) Uani 1 1 d . . .
H6A H 0.6486 0.8099 0.9145 0.018 Uiso 1 1 calc R . .
H6B H 0.4673 0.8166 1.0165 0.018 Uiso 1 1 calc R . .
O11 O 0.659(4) 0.534(2) 0.8677(17) 0.055(5) Uiso 0.50 1 d P . .
O12 O 0.795(4) 0.595(2) 1.0888(17) 0.065(5) Uiso 0.50 1 d P . .
O13 O -0.008(5) 0.621(3) 0.862(2) 0.086(7) Uiso 0.50 1 d P . .
O14 O 0.525(4) 0.519(2) 0.8518(18) 0.065(5) Uiso 0.50 1 d P . .
O15 O 0.796(6) 0.559(3) 0.864(2) 0.090(7) Uiso 0.50 1 d P . .

loop_
_atom_site_aniso_label
_atom_site_aniso_U_11
_atom_site_aniso_U_22
_atom_site_aniso_U_33
_atom_site_aniso_U_23
_atom_site_aniso_U_13
_atom_site_aniso_U_12
La1 0.0074(3) 0.0098(3) 0.0135(3) -0.00097(17) 0.00008(16) -0.00257(16)
P1 0.0080(9) 0.0104(9) 0.0132(10) -0.0021(7) 0.0002(7) -0.0039(7)
P2 0.0090(9) 0.0118(9) 0.0135(10) -0.0013(7) 0.0002(7) -0.0035(7)
O1 0.008(2) 0.014(3) 0.018(3) -0.006(2) 0.000(2) -0.003(2)
O2 0.008(2) 0.014(3) 0.014(3) -0.002(2) 0.0011(19) -0.004(2)
O3 0.015(3) 0.019(3) 0.017(3) -0.001(2) 0.004(2) -0.007(2)
O4 0.009(3) 0.013(3) 0.016(3) -0.002(2) 0.001(2) -0.001(2)
O5 0.009(3) 0.014(3) 0.019(3) 0.003(2) 0.001(2) 0.000(2)
O6 0.011(3) 0.010(3) 0.017(3) -0.001(2) 0.002(2) -0.003(2)
N1 0.008(3) 0.013(3) 0.013(3) 0.003(2) -0.001(2) -0.003(2)
N2 0.009(3) 0.015(3) 0.011(3) -0.002(2) 0.003(2) -0.003(2)
C1 0.008(3) 0.014(4) 0.013(4) -0.003(3) -0.004(3) -0.002(3)
C2 0.007(3) 0.008(3) 0.020(4) -0.001(3) -0.006(3) -0.002(3)
C3 0.012(4) 0.011(4) 0.014(4) -0.003(3) -0.003(3) 0.003(3)
C4 0.009(3) 0.016(4) 0.014(4) -0.006(3) 0.002(3) -0.005(3)
C5 0.010(3) 0.016(4) 0.019(4) -0.004(3) -0.003(3) 0.001(3)
C6 0.015(4) 0.013(4) 0.018(4) -0.003(3) 0.000(3) -0.001(3)

_geom_special_details            
;
All esds (except the esd in the dihedral angle between two l.s. planes)
are estimated using the full covariance matrix. The cell esds are taken
into account individually in the estimation of esds in distances, angles
and torsion angles; correlations between esds in cell parameters are only
used when they are defined by crystal symmetry. An approximate (isotropic)
treatment of cell esds is used for estimating esds involving l.s. planes.
;

loop_
_geom_bond_atom_site_label_1
_geom_bond_atom_site_label_2
_geom_bond_distance
_geom_bond_site_symmetry_2
_geom_bond_publ_flag
La1 O1 2.437(5) . ?
La1 O4 2.446(5) 1_655 ?
La1 O6 2.480(5) 2_676 ?
La1 O2 2.511(5) 1_655 ?
La1 O2 2.561(5) 2_676 ?
La1 O6 2.564(5) . ?
La1 O5 2.634(5) . ?
La1 N1 2.875(6) 1_655 ?
La1 P2 3.2067(19) . ?
La1 La1 4.1143(10) 2_776 ?
La1 La1 4.1353(10) 2_676 ?
P1 O1 1.519(5) . ?
P1 O3 1.531(6) . ?
P1 O2 1.547(5) . ?
P1 C1 1.824(7) . ?
P2 O4 1.521(5) . ?
P2 O5 1.536(5) . ?
P2 O6 1.541(5) . ?
P2 C4 1.823(7) . ?
O2 La1 2.511(5) 1_455 ?
O2 La1 2.561(5) 2_676 ?
O4 La1 2.446(5) 1_455 ?
O6 La1 2.480(5) 2_676 ?
N1 C1 1.486(9) . ?
N1 C2 1.488(9) . ?
N1 C3 1.502(9) . ?
N1 La1 2.875(6) 1_455 ?
N2 C5 1.484(10) . ?
N2 C6 1.499(10) . ?
N2 C4 1.506(9) . ?
N2 H2 0.9100 . ?
C1 H1A 0.9700 . ?
C1 H1B 0.9700 . ?
C2 C3 1.511(11) 2_566 ?
C2 H2A 0.9700 . ?
C2 H2B 0.9700 . ?
C3 C2 1.511(11) 2_566 ?
C3 H3A 0.9700 . ?
C3 H3B 0.9700 . ?
C4 H4A 0.9700 . ?
C4 H4B 0.9700 . ?
C5 C6 1.531(11) 2_677 ?
C5 H5A 0.9700 . ?
C5 H5B 0.9700 . ?
C6 C5 1.531(11) 2_677 ?
C6 H6A 0.9700 . ?
C6 H6B 0.9700 . ?
O11 O14 0.83(2) . ?
O11 O15 0.86(3) . ?
O13 O15 1.36(4) 1_455 ?
O14 O15 1.68(3) . ?
O15 O13 1.36(4) 1_655 ?

loop_
_geom_angle_atom_site_label_1
_geom_angle_atom_site_label_2
_geom_angle_atom_site_label_3
_geom_angle
_geom_angle_site_symmetry_1
_geom_angle_site_symmetry_3
_geom_angle_publ_flag
O1 La1 O4 143.55(17) . 1_655 ?
O1 La1 O6 70.13(17) . 2_676 ?
O4 La1 O6 143.40(17) 1_655 2_676 ?
O1 La1 O2 108.56(17) . 1_655 ?
O4 La1 O2 78.76(17) 1_655 1_655 ?
O6 La1 O2 74.51(17) 2_676 1_655 ?
O1 La1 O2 139.18(17) . 2_676 ?
O4 La1 O2 77.27(17) 1_655 2_676 ?
O6 La1 O2 70.88(17) 2_676 2_676 ?
O2 La1 O2 71.58(19) 1_655 2_676 ?
O1 La1 O6 78.80(17) . . ?
O4 La1 O6 120.03(17) 1_655 . ?
O6 La1 O6 69.87(19) 2_676 . ?
O2 La1 O6 138.43(16) 1_655 . ?
O2 La1 O6 76.98(16) 2_676 . ?
O1 La1 O5 86.43(17) . . ?
O4 La1 O5 81.28(16) 1_655 . ?
O6 La1 O5 124.31(16) 2_676 . ?
O2 La1 O5 159.92(17) 1_655 . ?
O2 La1 O5 106.07(16) 2_676 . ?
O6 La1 O5 56.06(16) . . ?
O1 La1 N1 72.95(17) . 1_655 ?
O4 La1 N1 76.13(17) 1_655 1_655 ?
O6 La1 N1 117.14(17) 2_676 1_655 ?
O2 La1 N1 71.52(17) 1_655 1_655 ?
O2 La1 N1 137.80(16) 2_676 1_655 ?
O6 La1 N1 145.15(16) . 1_655 ?
O5 La1 N1 101.58(17) . 1_655 ?
O1 La1 P2 77.35(13) . . ?
O4 La1 P2 104.48(13) 1_655 . ?
O6 La1 P2 96.08(12) 2_676 . ?
O2 La1 P2 165.67(12) 1_655 . ?
O2 La1 P2 95.30(11) 2_676 . ?
O6 La1 P2 28.28(12) . . ?
O5 La1 P2 28.39(12) . . ?
N1 La1 P2 122.78(12) 1_655 . ?
O1 La1 La1 131.71(12) . 2_776 ?
O4 La1 La1 75.16(12) 1_655 2_776 ?
O6 La1 La1 68.48(12) 2_676 2_776 ?
O2 La1 La1 36.21(12) 1_655 2_776 ?
O2 La1 La1 35.38(11) 2_676 2_776 ?
O6 La1 La1 108.44(11) . 2_776 ?
O5 La1 La1 138.20(12) . 2_776 ?
N1 La1 La1 105.53(12) 1_655 2_776 ?
P2 La1 La1 130.45(4) . 2_776 ?
O1 La1 La1 71.08(12) . 2_676 ?
O4 La1 La1 142.35(12) 1_655 2_676 ?
O6 La1 La1 35.60(12) 2_676 2_676 ?
O2 La1 La1 107.68(12) 1_655 2_676 ?
O2 La1 La1 70.36(12) 2_676 2_676 ?
O6 La1 La1 34.27(12) . 2_676 ?
O5 La1 La1 89.54(12) . 2_676 ?
N1 La1 La1 141.48(12) 1_655 2_676 ?
P2 La1 La1 61.15(4) . 2_676 ?
La1 La1 La1 88.63(2) 2_776 2_676 ?
O1 P1 O3 114.6(3) . . ?
O1 P1 O2 112.4(3) . . ?
O3 P1 O2 110.6(3) . . ?
O1 P1 C1 109.9(3) . . ?
O3 P1 C1 103.8(3) . . ?
O2 P1 C1 104.7(3) . . ?
O4 P2 O5 115.3(3) . . ?
O4 P2 O6 115.1(3) . . ?
O5 P2 O6 105.1(3) . . ?
O4 P2 C4 100.7(3) . . ?
O5 P2 C4 113.6(3) . . ?
O6 P2 C4 107.0(3) . . ?
O4 P2 La1 123.8(2) . . ?
O5 P2 La1 54.6(2) . . ?
O6 P2 La1 52.0(2) . . ?
C4 P2 La1 135.2(2) . . ?
P1 O1 La1 139.1(3) . . ?
P1 O2 La1 122.3(3) . 1_455 ?
P1 O2 La1 125.9(3) . 2_676 ?
La1 O2 La1 108.42(19) 1_455 2_676 ?
P2 O4 La1 135.2(3) . 1_455 ?
P2 O5 La1 97.0(2) . . ?
P2 O6 La1 142.4(3) . 2_676 ?
P2 O6 La1 99.7(3) . . ?
La1 O6 La1 110.13(19) 2_676 . ?
C1 N1 C2 110.4(6) . . ?
C1 N1 C3 107.3(5) . . ?
C2 N1 C3 106.5(6) . . ?
C1 N1 La1 99.6(4) . 1_455 ?
C2 N1 La1 116.9(4) . 1_455 ?
C3 N1 La1 115.5(4) . 1_455 ?
C5 N2 C6 109.0(6) . . ?
C5 N2 C4 110.9(6) . . ?
C6 N2 C4 110.1(6) . . ?
C5 N2 H2 108.9 . . ?
C6 N2 H2 108.9 . . ?
C4 N2 H2 108.9 . . ?
N1 C1 P1 115.9(5) . . ?
N1 C1 H1A 108.3 . . ?
P1 C1 H1A 108.3 . . ?
N1 C1 H1B 108.3 . . ?
P1 C1 H1B 108.3 . . ?
H1A C1 H1B 107.4 . . ?
N1 C2 C3 112.4(6) . 2_566 ?
N1 C2 H2A 109.1 . . ?
C3 C2 H2A 109.1 2_566 . ?
N1 C2 H2B 109.1 . . ?
C3 C2 H2B 109.1 2_566 . ?
H2A C2 H2B 107.9 . . ?
N1 C3 C2 110.4(6) . 2_566 ?
N1 C3 H3A 109.6 . . ?
C2 C3 H3A 109.6 2_566 . ?
N1 C3 H3B 109.6 . . ?
C2 C3 H3B 109.6 2_566 . ?
H3A C3 H3B 108.1 . . ?
N2 C4 P2 118.9(5) . . ?
N2 C4 H4A 107.6 . . ?
P2 C4 H4A 107.6 . . ?
N2 C4 H4B 107.6 . . ?
P2 C4 H4B 107.6 . . ?
H4A C4 H4B 107.0 . . ?
N2 C5 C6 111.6(6) . 2_677 ?
N2 C5 H5A 109.3 . . ?
C6 C5 H5A 109.3 2_677 . ?
N2 C5 H5B 109.3 . . ?
C6 C5 H5B 109.3 2_677 . ?
H5A C5 H5B 108.0 . . ?
N2 C6 C5 110.4(6) . 2_677 ?
N2 C6 H6A 109.6 . . ?
C5 C6 H6A 109.6 2_677 . ?
N2 C6 H6B 109.6 . . ?
C5 C6 H6B 109.6 2_677 . ?
H6A C6 H6B 108.1 . . ?
O14 O11 O15 163(4) . . ?
O11 O14 O15 9(2) . . ?
O11 O15 O13 170(4) . 1_655 ?
O11 O15 O14 8(2) . . ?
O13 O15 O14 166(3) 1_655 . ?

_diffrn_measured_fraction_theta_max 0.783
_diffrn_reflns_theta_full        27.21
_diffrn_measured_fraction_theta_full 0.783
_refine_diff_density_max         2.907
_refine_diff_density_min         -1.143
_refine_diff_density_rms         0.265
