
#######################################################################
#
#                 Cambridge Crystallographic Data Centre
#                                CCDC
#
#######################################################################
#
# If this CIF has been generated from an entry in the Cambridge
# Structural Database, then it will include bibliographic, chemical,
# crystal, experimental, refinement or atomic coordinate data resulting
# from the CCDC's data processing and validation procedures.
#
#######################################################################

data_CSD_CIF_CUMNON
_audit_creation_date 1985-11-27
_audit_creation_method CSD-ConQuest-V1
_database_code_CSD CUMNON
_database_code_depnum_ccdc_archive 'CCDC 1133264'
_chemical_formula_sum 'C4 H16 Cl6 N3 Sb1'
_chemical_formula_moiety
;
C4 H16 N3 3+,Cl6 Sb1 3-
;
_journal_coden_Cambridge 155
_journal_volume 89
_journal_year 1984
_journal_page_first 151
_journal_name_full 'Inorg.Chim.Acta '
loop_
_publ_author_name
"I.M.Vezzosi"
"L.P.Battaglia"
"A.B.Corradi"
_chemical_name_systematic
;
Diethylenetriammonium hexachloro-antimony(iii)
;
_chemical_name_common
;
Teaching Subset: Fundamental Chemistry
;
_cell_volume    728.523
_exptl_crystal_colour 'colorless'
_exptl_crystal_density_diffrn 2.01
_diffrn_ambient_temperature ?
_diffrn_special_details
;
The study was carried out at room temperature,in the range 283-303K

;
#These two values have been output from a single CSD field.
_refine_ls_R_factor_gt 0.0365
_refine_ls_wR_factor_gt 0.0365
_symmetry_cell_setting triclinic
_symmetry_space_group_name_H-M 'P -1'
_symmetry_Int_Tables_number 2
loop_
_symmetry_equiv_pos_site_id
_symmetry_equiv_pos_as_xyz
1 x,y,z
2 -x,-y,-z
_cell_length_a 10.016(3)
_cell_length_b 10.076(3)
_cell_length_c 8.123(2)
_cell_angle_alpha 67.96(3)
_cell_angle_beta 105.88(3)
_cell_angle_gamma 100.03(3)
_cell_formula_units_Z 2
loop_
_atom_type_symbol
_atom_type_radius_bond
C 0.68
H 0.23
Cl 0.99
N 0.68
Sb 1.73
loop_
_atom_site_label
_atom_site_type_symbol
_atom_site_fract_x
_atom_site_fract_y
_atom_site_fract_z
Sb1 Sb 0.24760 0.26350 0.22600
Cl1 Cl 0.3485(1) 0.5131(1) 0.0873(1)
Cl2 Cl 0.1482(2) 0.2615(2) -0.0937(2)
Cl3 Cl 0.0449(1) 0.3562(1) 0.2375(1)
Cl4 Cl 0.1094(1) -0.0130(1) 0.3565(2)
Cl5 Cl 0.3833(1) 0.2913(1) 0.5698(2)
Cl6 Cl 0.5316(2) 0.1525(2) 0.2719(2)
H1 H 0.7213(50) -0.0773(50) 1.1979(50)
H2 H 0.7184(50) 0.0675(50) 1.2684(60)
H3 H 0.8736(50) 0.0521(60) 1.0006(70)
H4 H 0.8511(50) 0.210(6) 1.032(7)
H5 H 0.6127(50) 0.0144(60) 0.9145(70)
H6 H 0.6059(50) 0.1883(60) 0.9136(70)
H7 H 0.5886(40) 0.1912(40) 0.6087(50)
N1 N 0.7789(5) 0.0183(5) 1.2185(6)
H8 H 0.7485(40) 0.1125(40) 0.6846(50)
C1 C 0.8046(5) 0.1046(6) 1.0338(7)
H9 H 0.7047(50) 0.4001(50) 0.6762(70)
C2 C 0.6673(5) 0.1195(5) 0.8944(6)
H10 H 0.8648(50) 0.3212(50) 0.7589(70)
N2 N 0.6890(4) 0.1833(4) 0.7033(5)
H11 H 0.8288(60) 0.3101(60) 0.4424(70)
C3 C 0.7658(5) 0.3287(5) 0.6614(7)
H12 H 0.8705(60) 0.4808(60) 0.4647(70)
C4 C 0.7919(6) 0.3921(6) 0.4707(7)
H13 H 0.7014(50) 0.4999(40) 0.2037(70)
N3 N 0.6649(5) 0.4443(5) 0.3275(6)
H14 H 0.6206(50) 0.5191(50) 0.3602(60)
H15 H 0.876(5) -0.0097(50) 1.317(5)
H16 H 0.5865(50) 0.3599(50) 0.3082(60)
#END
