
#######################################################################
#
#                 Cambridge Crystallographic Data Centre
#                                CCDC
#
#######################################################################
#
# If this CIF has been generated from an entry in the Cambridge
# Structural Database, then it will include bibliographic, chemical,
# crystal, experimental, refinement or atomic coordinate data resulting
# from the CCDC's data processing and validation procedures.
#
#######################################################################

data_CSD_CIF_CUNGAT
_audit_creation_date 1985-11-27
_audit_creation_method CSD-ConQuest-V1
_database_code_CSD CUNGAT
_database_code_depnum_ccdc_archive 'CCDC 1133340'
_chemical_formula_sum 'C3 H6 N2 O2'
_chemical_formula_moiety
;
C3 H6 N2 O2
;
_journal_coden_Cambridge 188
_journal_year 1985
_journal_page_first 251
_journal_name_full 'J.Chem.Soc.,Perkin Trans.2 '
loop_
_publ_author_name
"E.N.Gate"
"M.A.Meek"
"C.H.Schwalbe"
"M.F.G.Stevens"
"M.D.Threadgill"
_chemical_name_systematic
;
N-Methyl-2-nitroethenamine
;
_chemical_name_common
;
Teaching Subset: Fundamental Chemistry
;
_chemical_melting_point 394
_cell_volume    480.703
_exptl_crystal_colour 'orange-brown'
_exptl_crystal_density_diffrn 1.411
_exptl_special_details
;
Melting point range 394-396K

;
_diffrn_ambient_temperature ?
_diffrn_special_details
;
The study was carried out at room temperature,in the range 283-303K

;
#These two values have been output from a single CSD field.
_refine_ls_R_factor_gt 0.049
_refine_ls_wR_factor_gt 0.049
_symmetry_cell_setting monoclinic
_symmetry_space_group_name_H-M 'P 21/c'
_symmetry_Int_Tables_number 14
loop_
_symmetry_equiv_pos_site_id
_symmetry_equiv_pos_as_xyz
1 x,y,z
2 -x,1/2+y,1/2-z
3 -x,-y,-z
4 x,-1/2-y,-1/2+z
_cell_length_a 3.915(3)
_cell_length_b 12.009(7)
_cell_length_c 10.271(7)
_cell_angle_alpha 90
_cell_angle_beta 95.46(6)
_cell_angle_gamma 90
_cell_formula_units_Z 4
loop_
_atom_type_symbol
_atom_type_radius_bond
C 0.68
H 0.23
N 0.68
O 0.68
loop_
_atom_site_label
_atom_site_type_symbol
_atom_site_fract_x
_atom_site_fract_y
_atom_site_fract_z
C1 C 0.1565(17) 0.1746(5) 0.2765(6)
C2 C 0.3130(16) 0.1302(4) 0.3881(5)
C3 C -0.0868(21) 0.0011(5) 0.1868(8)
N1 N -0.0208(13) 0.1201(4) 0.1834(5)
N2 N 0.5044(14) 0.1971(4) 0.4764(5)
O1 O 0.6331(13) 0.1541(3) 0.5805(4)
O2 O 0.5501(12) 0.2974(3) 0.4535(3)
H1 H 0.178(11) 0.250(4) 0.261(4)
H2 H 0.312(11) 0.053(3) 0.417(4)
H3 H -0.142(18) 0.161(4) 0.108(5)
H4 H -0.210(15) -0.020(4) 0.105(4)
H5 H 0.145(14) -0.044(4) 0.187(5)
H6 H -0.188(18) -0.023(5) 0.272(5)
#END
