####################################################################### 
# 
# This file contains crystal structure data downloaded from the 
# Cambridge Structural Database (CSD) hosted by the Cambridge 
# Crystallographic Data Centre (CCDC).
# 
# Full information about CCDC data access policies and citation 
# guidelines are available at http://www.ccdc.cam.ac.uk/access/V1 
# 
# Audit and citation data items may have been added by the CCDC. 
# Please retain this information to preserve the provenance of 
# this file and to allow appropriate attribution of the data. 
# 
#######################################################################

data_c:
_audit_block_doi                 10.5517/cc1j13qd
_database_code_depnum_ccdc_archive 'CCDC 1401253'
loop_
_citation_id
_citation_doi
_citation_year
1 10.1039/C5SC01801C 2015
_audit_update_record             
;
2015-05-15 deposited with the CCDC.	2024-07-09 downloaded from the CCDC.
;
_audit_creation_method           SHELXL-97
_chemical_name_systematic        
; 
 tris(iso-nicotinoyl)cyclotriguaiacyclene copper triflate
;
_chemical_name_common            ?
_chemical_melting_point          ?
_chemical_formula_moiety         ?
_chemical_formula_sum            'C108 H102 Cu2 F12 N10 O36 S4'
_chemical_formula_weight         2599.32

loop_
_atom_type_symbol
_atom_type_description
_atom_type_scat_dispersion_real
_atom_type_scat_dispersion_imag
_atom_type_scat_source
C C 0.0181 0.0091 'International Tables Vol C Tables 4.2.6.8 and 6.1.1.4'
H H 0.0000 0.0000 'International Tables Vol C Tables 4.2.6.8 and 6.1.1.4'
N N 0.0311 0.0180 'International Tables Vol C Tables 4.2.6.8 and 6.1.1.4'
O O 0.0492 0.0322 'International Tables Vol C Tables 4.2.6.8 and 6.1.1.4'
Cu Cu -1.9646 0.5888 'International Tables Vol C Tables 4.2.6.8 and 6.1.1.4'
S S 0.3331 0.5567 'International Tables Vol C Tables 4.2.6.8 and 6.1.1.4'
F F 0.0727 0.0534 'International Tables Vol C Tables 4.2.6.8 and 6.1.1.4'

_symmetry_cell_setting           Triclinic
_symmetry_space_group_name_H-M   P-1

loop_
_symmetry_equiv_pos_as_xyz
'x, y, z'
'-x, -y, -z'

_cell_length_a                   14.4856(3)
_cell_length_b                   18.0721(4)
_cell_length_c                   30.4166(7)
_cell_angle_alpha                96.787(2)
_cell_angle_beta                 93.193(2)
_cell_angle_gamma                102.088(2)
_cell_volume                     7704.9(3)
_cell_formula_units_Z            2
_cell_measurement_temperature    120(2)
_cell_measurement_reflns_used    ?
_cell_measurement_theta_min      ?
_cell_measurement_theta_max      ?

_exptl_crystal_description       plate
_exptl_crystal_colour            blue
_exptl_crystal_size_max          0.2
_exptl_crystal_size_mid          0.1
_exptl_crystal_size_min          0.2
_exptl_crystal_density_meas      ?
_exptl_crystal_density_diffrn    1.120
_exptl_crystal_density_method    'not measured'
_exptl_crystal_F_000             2676
_exptl_absorpt_coefficient_mu    1.538
_exptl_absorpt_correction_type   multi-scan
_exptl_absorpt_correction_T_min  0.7484
_exptl_absorpt_correction_T_max  0.8614
_exptl_absorpt_process_details   ?

_exptl_special_details           
; 
 ? 
;

_diffrn_ambient_temperature      120(2)
_diffrn_radiation_wavelength     1.54184
_diffrn_radiation_type           CuK\a
_diffrn_radiation_source         'fine-focus sealed tube'
_diffrn_radiation_monochromator  graphite
_diffrn_measurement_device_type  'Agilent Supernova'
_diffrn_measurement_method       ?
_diffrn_detector_area_resol_mean ?
_diffrn_standards_number         ?
_diffrn_standards_interval_count ?
_diffrn_standards_interval_time  ?
_diffrn_standards_decay_%        ?
_diffrn_reflns_number            52923
_diffrn_reflns_av_R_equivalents  0.0294
_diffrn_reflns_av_sigmaI/netI    0.0405
_diffrn_reflns_limit_h_min       -12
_diffrn_reflns_limit_h_max       15
_diffrn_reflns_limit_k_min       -19
_diffrn_reflns_limit_k_max       20
_diffrn_reflns_limit_l_min       -34
_diffrn_reflns_limit_l_max       26
_diffrn_reflns_theta_min         3.08
_diffrn_reflns_theta_max         62.21
_reflns_number_total             23197
_reflns_number_gt                16042
_reflns_threshold_expression     >2sigma(I)

_computing_data_collection       ?
_computing_cell_refinement       ?
_computing_data_reduction        ?
_computing_structure_solution    'SHELXS-97 (Sheldrick, 1990)'
_computing_structure_refinement  'SHELXL-97 (Sheldrick, 1997)'
_computing_molecular_graphics    ?
_computing_publication_material  ?

_refine_special_details          SQUEEZE

_refine_ls_structure_factor_coef Fsqd
_refine_ls_matrix_type           full
_refine_ls_weighting_scheme      calc
_refine_ls_weighting_details     
'calc w=1/[\s^2^(Fo^2^)+(0.2000P)^2^+0.0000P] where P=(Fo^2^+2Fc^2^)/3'
_atom_sites_solution_primary     direct
_atom_sites_solution_secondary   difmap
_atom_sites_solution_hydrogens   geom
_refine_ls_hydrogen_treatment    noref
_refine_ls_extinction_method     none
_refine_ls_extinction_coef       ?
_refine_ls_number_reflns         23197
_refine_ls_number_parameters     1452
_refine_ls_number_restraints     2
_refine_ls_R_factor_all          0.1253
_refine_ls_R_factor_gt           0.1063
_refine_ls_wR_factor_ref         0.3235
_refine_ls_wR_factor_gt          0.2998
_refine_ls_goodness_of_fit_ref   1.224
_refine_ls_restrained_S_all      1.225
_refine_ls_shift/su_max          0.001
_refine_ls_shift/su_mean         0.000

loop_
_atom_site_label
_atom_site_type_symbol
_atom_site_fract_x
_atom_site_fract_y
_atom_site_fract_z
_atom_site_U_iso_or_equiv
_atom_site_adp_type
_atom_site_occupancy
_atom_site_symmetry_multiplicity
_atom_site_calc_flag
_atom_site_refinement_flags
_atom_site_disorder_assembly
_atom_site_disorder_group
Cu1 Cu 0.96962(5) 0.52390(3) 0.29794(3) 0.0602(3) Uani 1 1 d . . .
S1 S 0.64548(11) 0.14539(11) 0.34711(7) 0.0884(5) Uani 1 1 d . . .
F1 F 0.7702(3) 0.1468(3) 0.28876(17) 0.1207(14) Uani 1 1 d . . .
O1 O 0.6271(4) 0.7375(3) 0.01247(16) 0.1130(17) Uani 1 1 d . . .
N1 N 0.8466(4) 0.9493(4) -0.13027(15) 0.0904(17) Uani 1 1 d . . .
C1 C 0.4714(3) 0.8893(3) 0.07309(14) 0.0508(11) Uani 1 1 d . . .
Cu2 Cu 2.09251(6) 1.04031(7) 0.18759(2) 0.0874(4) Uani 1 1 d . . .
S2 S 2.04142(17) 1.21865(17) 0.16684(7) 0.1171(7) Uani 1 1 d . . .
F2 F 0.8217(3) 0.2200(3) 0.34961(16) 0.1274(16) Uani 1 1 d . . .
O2 O 0.6261(3) 0.8703(3) -0.01934(12) 0.0950(14) Uani 1 1 d . . .
N2 N 0.9006(3) 0.5998(2) 0.27583(14) 0.0561(10) Uani 1 1 d . . .
C2 C 0.5261(4) 0.9026(3) 0.03753(15) 0.0598(12) Uani 1 1 d . . .
H2 H 0.5289 0.9494 0.0257 0.072 Uiso 1 1 calc R . .
S3 S 2.14795(11) 0.85789(13) 0.18979(6) 0.0917(6) Uani 1 1 d . . .
F3 F 0.8049(3) 0.1007(3) 0.34614(18) 0.1283(18) Uani 1 1 d . . .
O3 O 0.7628(4) 0.8957(6) 0.02120(17) 0.176(4) Uani 1 1 d . . .
N3 N 0.8655(3) 1.4378(2) 0.26677(16) 0.0669(12) Uani 1 1 d . . .
C3 C 0.5768(4) 0.8522(4) 0.01824(18) 0.0729(16) Uani 1 1 d . . .
F4 F 1.9398(8) 1.3152(6) 0.1835(3) 0.242(4) Uani 1 1 d . . .
O4 O 0.6453(4) 1.1960(2) 0.11382(14) 0.0938(14) Uani 1 1 d . . .
N4 N 1.0679(3) 0.6105(2) 0.33234(14) 0.0533(10) Uani 1 1 d . . .
C4 C 0.5765(4) 0.7844(4) 0.03424(19) 0.0747(16) Uani 1 1 d . . .
F5 F 1.8606(5) 1.2031(5) 0.1585(3) 0.199(3) Uani 1 1 d . . .
O5 O 0.6527(3) 1.19911(19) 0.20263(12) 0.0681(9) Uani 1 1 d . . .
N5 N 1.9570(3) 0.5525(2) 0.68352(15) 0.0632(11) Uani 1 1 d . . .
C5 C 0.5223(4) 0.7677(4) 0.06988(17) 0.0702(14) Uani 1 1 d . . .
H5 H 0.5197 0.7205 0.0810 0.084 Uiso 1 1 calc R . .
F6 F 1.9253(6) 1.2317(6) 0.2260(3) 0.214(4) Uani 1 1 d . . .
O6 O 0.5670(3) 1.2824(3) 0.18154(18) 0.1016(15) Uani 1 1 d . . .
N6 N 2.0369(3) 1.0357(3) 0.24570(14) 0.0740(14) Uani 1 1 d . . .
C6 C 0.4720(3) 0.8189(3) 0.08931(15) 0.0577(12) Uani 1 1 d . . .
F7 F 2.1441(4) 0.8548(4) 0.27568(16) 0.153(2) Uani 1 1 d . . .
O7 O 0.6828(3) 0.8718(3) 0.28207(13) 0.0798(11) Uani 1 1 d . . .
N7 N 1.8323(3) 0.9078(4) 0.12770(15) 0.0830(15) Uani 1 1 d . . .
C7 C 0.4220(4) 0.7984(3) 0.12971(15) 0.0559(11) Uani 1 1 d . . .
H7A H 0.3676 0.8235 0.1320 0.067 Uiso 1 1 calc R . .
H7B H 0.3970 0.7425 0.1263 0.067 Uiso 1 1 calc R . .
F8 F 2.1713(3) 0.7544(4) 0.2403(2) 0.148(2) Uani 1 1 d . . .
O8 O 0.6622(2) 0.7390(2) 0.22895(12) 0.0649(9) Uani 1 1 d . . .
N8 N 2.3458(4) 1.1780(5) 0.2531(2) 0.112(2) Uani 1 1 d . . .
C8 C 0.4866(3) 0.8223(2) 0.17162(14) 0.0430(9) Uani 1 1 d . . .
F9 F 2.2801(3) 0.8579(3) 0.25190(16) 0.1326(18) Uani 1 1 d . . .
O9 O 0.7975(3) 0.8153(2) 0.21172(15) 0.0768(11) Uani 1 1 d . . .
N9 N 0.8843(6) 0.3003(5) 0.4465(3) 0.131(3) Uani 1 1 d . . .
C9 C 0.5452(3) 0.7748(3) 0.18306(15) 0.0508(11) Uani 1 1 d . . .
H9 H 0.5403 0.7273 0.1649 0.061 Uiso 1 1 calc R . .
O10 O 1.0616(3) 0.5314(2) 0.23351(15) 0.0892(13) Uani 1 1 d . . .
C10 C 0.6090(3) 0.7930(3) 0.21878(18) 0.0586(12) Uani 1 1 d . . .
O11 O 0.8818(3) 0.5176(2) 0.36222(14) 0.0798(11) Uani 1 1 d . . .
C11 C 0.6184(4) 0.8597(3) 0.24649(15) 0.0566(12) Uani 1 1 d . . .
O12 O 1.4289(2) 0.8653(2) 0.36601(10) 0.0614(9) Uani 1 1 d . . .
C12 C 0.5602(3) 0.9099(3) 0.23634(16) 0.0584(12) Uani 1 1 d . . .
H12 H 0.5663 0.9573 0.2547 0.070 Uiso 1 1 calc R . .
O13 O 1.3514(2) 0.76962(17) 0.42013(11) 0.0556(8) Uani 1 1 d . . .
C13 C 0.4926(3) 0.8906(3) 0.19903(14) 0.0499(11) Uani 1 1 d . . .
O14 O 1.2506(2) 0.8494(2) 0.42481(14) 0.0743(11) Uani 1 1 d . . .
C14 C 0.4350(3) 0.9486(3) 0.19172(15) 0.0527(11) Uani 1 1 d . . .
H14A H 0.3758 0.9226 0.1734 0.063 Uiso 1 1 calc R . .
H14B H 0.4170 0.9693 0.2208 0.063 Uiso 1 1 calc R . .
O15 O 1.5890(3) 0.6697(2) 0.60112(14) 0.0754(11) Uani 1 1 d . . .
C15 C 0.4838(3) 1.0138(3) 0.16948(15) 0.0501(11) Uani 1 1 d . . .
O16 O 1.7805(2) 0.71094(19) 0.60591(11) 0.0589(8) Uani 1 1 d . . .
C16 C 0.5391(3) 1.0784(3) 0.19411(15) 0.0499(11) Uani 1 1 d . . .
H16 H 0.5411 1.0826 0.2256 0.060 Uiso 1 1 calc R . .
O17 O 1.7699(3) 0.7553(2) 0.67650(13) 0.0782(11) Uani 1 1 d . . .
C17 C 0.5915(4) 1.1373(3) 0.17503(17) 0.0619(13) Uani 1 1 d . . .
O18 O 1.99313(18) 0.90880(17) 0.44390(9) 0.0451(7) Uani 1 1 d . . .
C18 C 0.5902(4) 1.1352(3) 0.12913(19) 0.0701(15) Uani 1 1 d . . .
O19 O 1.89820(19) 0.96840(18) 0.38407(9) 0.0465(7) Uani 1 1 d . . .
C19 C 0.5312(4) 1.0708(3) 0.10262(19) 0.0724(15) Uani 1 1 d . . .
H19 H 0.5272 1.0684 0.0712 0.087 Uiso 1 1 calc R . .
O20 O 1.9876(2) 1.08664(18) 0.40658(9) 0.0499(7) Uani 1 1 d . . .
C20 C 0.4791(4) 1.0110(3) 0.12210(17) 0.0599(12) Uani 1 1 d . . .
O21 O 1.9815(3) 0.9668(3) 0.15543(11) 0.0865(13) Uani 1 1 d . . .
C21 C 0.4198(4) 0.9463(3) 0.09101(16) 0.0622(13) Uani 1 1 d . . .
H21A H 0.3668 0.9206 0.1068 0.075 Uiso 1 1 calc R . .
H21B H 0.3921 0.9672 0.0660 0.075 Uiso 1 1 calc R . .
O22 O 2.2037(3) 1.1181(3) 0.21699(13) 0.1049(16) Uani 1 1 d . . .
C22 C 0.6290(8) 0.6641(5) 0.0312(3) 0.142(4) Uani 1 1 d . . .
H22A H 0.6518 0.6757 0.0628 0.213 Uiso 1 1 calc R . .
H22B H 0.6715 0.6372 0.0151 0.213 Uiso 1 1 calc R . .
H22C H 0.5650 0.6318 0.0281 0.213 Uiso 1 1 calc R . .
O23 O 0.5922(4) 0.0783(3) 0.3142(3) 0.137(2) Uani 1 1 d . . .
C23 C 0.7174(5) 0.8997(7) -0.0125(2) 0.140(4) Uani 1 1 d . . .
O24 O 0.6244(3) 0.2135(3) 0.33775(18) 0.0957(14) Uani 1 1 d . . .
C24 C 0.7602(5) 0.9146(6) -0.0547(2) 0.109(3) Uani 1 1 d . . .
O25 O 0.6520(4) 0.1299(6) 0.3886(2) 0.193(4) Uani 1 1 d . . .
C25 C 0.8585(7) 0.9207(7) -0.0559(3) 0.152(4) Uani 1 1 d . . .
H25 H 0.8956 0.9139 -0.0306 0.183 Uiso 1 1 calc R . .
O26 O 2.0241(4) 1.1421(3) 0.17548(16) 0.1075(16) Uani 1 1 d . . .
C26 C 0.9000(7) 0.9366(8) -0.0941(3) 0.164(5) Uani 1 1 d . . .
H26 H 0.9659 0.9389 -0.0957 0.197 Uiso 1 1 calc R . .
O27 O 2.1111(6) 1.2641(6) 0.1968(3) 0.184(3) Uani 1 1 d . . .
C27 C 0.7568(5) 0.9290(5) -0.1295(2) 0.098(2) Uani 1 1 d . . .
H27 H 0.7185 0.9267 -0.1562 0.117 Uiso 1 1 calc R . .
O28 O 2.0450(7) 1.2315(5) 0.1227(2) 0.175(3) Uani 1 1 d . . .
C28 C 0.7127(5) 0.9105(5) -0.0926(2) 0.101(2) Uani 1 1 d . . .
H28 H 0.6456 0.8943 -0.0947 0.122 Uiso 1 1 calc R . .
O29 O 2.1698(3) 0.9420(3) 0.19971(13) 0.0853(12) Uani 1 1 d . . .
C29 C 0.7151(6) 0.9513(6) 0.3021(3) 0.123(3) Uani 1 1 d . . .
H29A H 0.7300 0.9837 0.2787 0.185 Uiso 1 1 calc R . .
H29B H 0.7719 0.9562 0.3222 0.185 Uiso 1 1 calc R . .
H29C H 0.6650 0.9671 0.3188 0.185 Uiso 1 1 calc R . .
O30 O 2.0495(3) 0.8212(4) 0.18493(17) 0.1132(17) Uani 1 1 d . . .
C30 C 0.7579(4) 0.7603(3) 0.22666(19) 0.0678(14) Uani 1 1 d . . .
O31 O 2.2056(3) 0.8291(3) 0.15720(18) 0.1105(17) Uani 1 1 d . . .
C31 C 0.8063(3) 0.7026(3) 0.24326(17) 0.0577(12) Uani 1 1 d . . .
C32 C 0.7581(4) 0.6441(3) 0.2645(2) 0.0669(14) Uani 1 1 d . . .
H32 H 0.6923 0.6384 0.2679 0.080 Uiso 1 1 calc R . .
C33 C 0.8079(4) 0.5945(3) 0.2804(2) 0.0677(14) Uani 1 1 d . . .
H33 H 0.7752 0.5548 0.2952 0.081 Uiso 1 1 calc R . .
C34 C 0.9470(4) 0.6570(3) 0.25483(18) 0.0597(12) Uani 1 1 d . . .
H34 H 1.0126 0.6613 0.2512 0.072 Uiso 1 1 calc R . .
C35 C 0.9010(4) 0.7091(3) 0.23859(18) 0.0614(13) Uani 1 1 d . . .
H35 H 0.9349 0.7491 0.2243 0.074 Uiso 1 1 calc R . .
C36 C 0.6277(11) 1.2008(8) 0.0671(3) 0.221(8) Uani 1 1 d . . .
H36A H 0.6494 1.1597 0.0494 0.332 Uiso 1 1 calc R . .
H36B H 0.6621 1.2503 0.0603 0.332 Uiso 1 1 calc R . .
H36C H 0.5596 1.1956 0.0599 0.332 Uiso 1 1 calc R . .
C37 C 0.6360(4) 1.2692(4) 0.2005(2) 0.0771(16) Uani 1 1 d . . .
C38 C 0.7154(4) 1.3263(3) 0.2243(2) 0.0767(16) Uani 1 1 d . . .
C39 C 0.7499(4) 1.3226(3) 0.2663(2) 0.0748(16) Uani 1 1 d . . .
H39 H 0.7233 1.2811 0.2814 0.090 Uiso 1 1 calc R . .
C40 C 0.8254(4) 1.3807(3) 0.2873(2) 0.0714(15) Uani 1 1 d . . .
H40 H 0.8479 1.3785 0.3170 0.086 Uiso 1 1 calc R . .
C41 C 0.8327(5) 1.4390(4) 0.2241(2) 0.0831(18) Uani 1 1 d . . .
H41 H 0.8646 1.4781 0.2086 0.100 Uiso 1 1 calc R . .
C42 C 0.7571(5) 1.3874(4) 0.2022(2) 0.0901(19) Uani 1 1 d . . .
H42 H 0.7335 1.3925 0.1732 0.108 Uiso 1 1 calc R . .
C43 C 1.5764(2) 0.9509(2) 0.47033(13) 0.0361(9) Uani 1 1 d . . .
C44 C 1.5443(3) 0.9385(3) 0.42584(14) 0.0437(10) Uani 1 1 d . . .
H44 H 1.5749 0.9714 0.4064 0.052 Uiso 1 1 calc R . .
C45 C 1.4689(3) 0.8797(3) 0.40895(14) 0.0461(10) Uani 1 1 d . . .
C46 C 1.4278(3) 0.8316(2) 0.43768(16) 0.0477(10) Uani 1 1 d . . .
C47 C 1.4581(3) 0.8411(2) 0.48180(15) 0.0446(10) Uani 1 1 d . . .
H47 H 1.4279 0.8067 0.5006 0.054 Uiso 1 1 calc R . .
C48 C 1.5332(3) 0.9013(2) 0.49940(13) 0.0377(9) Uani 1 1 d . . .
C49 C 1.5597(3) 0.9126(2) 0.54889(13) 0.0392(9) Uani 1 1 d . . .
H49A H 1.5009 0.9033 0.5644 0.047 Uiso 1 1 calc R . .
H49B H 1.5926 0.9665 0.5581 0.047 Uiso 1 1 calc R . .
C50 C 1.6226(3) 0.8616(2) 0.56394(12) 0.0380(9) Uani 1 1 d . . .
C51 C 1.5771(3) 0.7904(3) 0.57460(15) 0.0490(10) Uani 1 1 d . . .
H51 H 1.5098 0.7765 0.5719 0.059 Uiso 1 1 calc R . .
C52 C 1.6276(3) 0.7406(3) 0.58884(16) 0.0548(11) Uani 1 1 d . . .
C53 C 1.7263(3) 0.7618(3) 0.59246(15) 0.0501(11) Uani 1 1 d . . .
C54 C 1.7715(3) 0.8314(3) 0.58242(14) 0.0449(10) Uani 1 1 d . . .
H54 H 1.8387 0.8448 0.5852 0.054 Uiso 1 1 calc R . .
C55 C 1.7205(3) 0.8834(2) 0.56801(12) 0.0369(9) Uani 1 1 d . . .
C56 C 1.7757(3) 0.9593(2) 0.55784(12) 0.0372(9) Uani 1 1 d . . .
H56A H 1.7378 0.9982 0.5645 0.045 Uiso 1 1 calc R . .
H56B H 1.8346 0.9744 0.5779 0.045 Uiso 1 1 calc R . .
C57 C 1.8018(3) 0.9597(2) 0.51044(13) 0.0362(8) Uani 1 1 d . . .
C58 C 1.8816(3) 0.9309(2) 0.49905(12) 0.0368(9) Uani 1 1 d . . .
H58 H 1.9131 0.9087 0.5206 0.044 Uiso 1 1 calc R . .
C59 C 1.9155(3) 0.9339(2) 0.45768(13) 0.0421(9) Uani 1 1 d . . .
C60 C 1.8657(3) 0.9655(2) 0.42673(12) 0.0395(9) Uani 1 1 d . . .
C61 C 1.7875(3) 0.9930(2) 0.43655(13) 0.0391(9) Uani 1 1 d . . .
H61 H 1.7563 1.0146 0.4147 0.047 Uiso 1 1 calc R . .
C62 C 1.7528(3) 0.9898(2) 0.47819(13) 0.0369(9) Uani 1 1 d . . .
C63 C 1.6604(3) 1.0159(2) 0.48562(13) 0.0369(9) Uani 1 1 d . . .
H63A H 1.6585 1.0336 0.5176 0.044 Uiso 1 1 calc R . .
H63B H 1.6573 1.0592 0.4689 0.044 Uiso 1 1 calc R . .
C64 C 1.4618(10) 0.9123(9) 0.3392(3) 0.262(11) Uani 1 1 d . . .
H64A H 1.4663 0.9647 0.3532 0.392 Uiso 1 1 calc R . .
H64B H 1.4193 0.9024 0.3119 0.392 Uiso 1 1 calc R . .
H64C H 1.5248 0.9055 0.3319 0.392 Uiso 1 1 calc R . .
C65 C 1.2682(3) 0.7887(3) 0.41171(17) 0.0571(12) Uani 1 1 d . . .
C66 C 1.1993(3) 0.7246(3) 0.38378(16) 0.0525(11) Uani 1 1 d . . .
C67 C 1.1027(4) 0.7226(3) 0.3851(2) 0.0735(16) Uani 1 1 d . . .
H67 H 1.0807 0.7603 0.4035 0.088 Uiso 1 1 calc R . .
C68 C 1.0403(4) 0.6639(3) 0.3588(2) 0.0687(15) Uani 1 1 d . . .
H68 H 0.9744 0.6617 0.3596 0.082 Uiso 1 1 calc R . .
C69 C 1.1624(3) 0.6144(3) 0.33037(18) 0.0576(12) Uani 1 1 d . . .
H69 H 1.1824 0.5775 0.3103 0.069 Uiso 1 1 calc R . .
C70 C 1.2301(3) 0.6695(2) 0.35624(16) 0.0509(11) Uani 1 1 d . . .
H70 H 1.2957 0.6698 0.3553 0.061 Uiso 1 1 calc R . .
C71 C 1.4882(4) 0.6460(4) 0.5968(3) 0.103(2) Uani 1 1 d . . .
H71A H 1.4611 0.6825 0.6157 0.155 Uiso 1 1 calc R . .
H71B H 1.4696 0.5952 0.6061 0.155 Uiso 1 1 calc R . .
H71C H 1.4647 0.6442 0.5658 0.155 Uiso 1 1 calc R . .
C72 C 1.7966(4) 0.7127(3) 0.64975(18) 0.0578(12) Uani 1 1 d . . .
C73 C 1.8515(4) 0.6547(3) 0.66049(17) 0.0580(12) Uani 1 1 d . . .
C74 C 1.8834(4) 0.6569(3) 0.7044(2) 0.0713(15) Uani 1 1 d . . .
H74 H 1.8700 0.6932 0.7271 0.086 Uiso 1 1 calc R . .
C75 C 1.9351(5) 0.6047(3) 0.7139(2) 0.0805(17) Uani 1 1 d . . .
H75 H 1.9571 0.6055 0.7440 0.097 Uiso 1 1 calc R . .
C76 C 1.9233(4) 0.5508(3) 0.6428(2) 0.0741(16) Uani 1 1 d . . .
H76 H 1.9352 0.5121 0.6213 0.089 Uiso 1 1 calc R . .
C77 C 1.8709(4) 0.6010(3) 0.6283(2) 0.0706(14) Uani 1 1 d . . .
H77 H 1.8498 0.5984 0.5979 0.085 Uiso 1 1 calc R . .
C78 C 2.0399(3) 0.8721(3) 0.47461(15) 0.0470(10) Uani 1 1 d . . .
H78A H 2.0534 