####################################################################### 
# 
# This file contains crystal structure data downloaded from the 
# Cambridge Structural Database (CSD) hosted by the Cambridge 
# Crystallographic Data Centre (CCDC).
# 
# Full information about CCDC data access policies and citation 
# guidelines are available at http://www.ccdc.cam.ac.uk/access/V1 
# 
# Audit and citation data items may have been added by the CCDC. 
# Please retain this information to preserve the provenance of 
# this file and to allow appropriate attribution of the data. 
# 
#######################################################################

data_c:
_audit_block_doi                 10.5517/cc1j13nb
_database_code_depnum_ccdc_archive 'CCDC 1401251'
loop_
_citation_id
_citation_doi
_citation_year
1 10.1039/C5SC01801C 2015
_audit_update_record             
;
2015-05-15 deposited with the CCDC.	2024-07-09 downloaded from the CCDC.
;
_audit_creation_method           SHELXL-97
_chemical_name_systematic        
; 
 tris(4-pyridyl-methyl)cyclotriguaiacyclene copper triflate
;
_chemical_name_common            ?
_chemical_melting_point          ?
_chemical_formula_moiety         ?
_chemical_formula_sum            'C168 H156 Cu3 F0 N12 O27 S0'
_chemical_formula_weight         2965.67

loop_
_atom_type_symbol
_atom_type_description
_atom_type_scat_dispersion_real
_atom_type_scat_dispersion_imag
_atom_type_scat_source
C C 0.0181 0.0091 'International Tables Vol C Tables 4.2.6.8 and 6.1.1.4'
H H 0.0000 0.0000 'International Tables Vol C Tables 4.2.6.8 and 6.1.1.4'
Cu Cu -1.9646 0.5888 'International Tables Vol C Tables 4.2.6.8 and 6.1.1.4'
F F 0.0727 0.0534 'International Tables Vol C Tables 4.2.6.8 and 6.1.1.4'
N N 0.0311 0.0180 'International Tables Vol C Tables 4.2.6.8 and 6.1.1.4'
O O 0.0492 0.0322 'International Tables Vol C Tables 4.2.6.8 and 6.1.1.4'
S S 0.3331 0.5567 'International Tables Vol C Tables 4.2.6.8 and 6.1.1.4'

_symmetry_cell_setting           Monoclinic
_symmetry_space_group_name_H-M   C2/c

loop_
_symmetry_equiv_pos_as_xyz
'x, y, z'
'-x, y, -z+1/2'
'x+1/2, y+1/2, z'
'-x+1/2, y+1/2, -z+1/2'
'-x, -y, -z'
'x, -y, z-1/2'
'-x+1/2, -y+1/2, -z'
'x+1/2, -y+1/2, z-1/2'

_cell_length_a                   57.029(2)
_cell_length_b                   34.131(3)
_cell_length_c                   24.4704(6)
_cell_angle_alpha                90.00
_cell_angle_beta                 95.496(2)
_cell_angle_gamma                90.00
_cell_volume                     47412(5)
_cell_formula_units_Z            4
_cell_measurement_temperature    120(2)
_cell_measurement_reflns_used    ?
_cell_measurement_theta_min      ?
_cell_measurement_theta_max      ?

_exptl_crystal_description       needles
_exptl_crystal_colour            lilac
_exptl_crystal_size_max          0.10
_exptl_crystal_size_mid          0.08
_exptl_crystal_size_min          0.03
_exptl_crystal_density_meas      ?
_exptl_crystal_density_diffrn    0.415
_exptl_crystal_density_method    'not measured'
_exptl_crystal_F_000             6204
_exptl_absorpt_coefficient_mu    0.353
_exptl_absorpt_correction_type   multi-scan
_exptl_absorpt_correction_T_min  0.9655
_exptl_absorpt_correction_T_max  0.9895
_exptl_absorpt_process_details   ?

_exptl_special_details           
; 
 ? 
;

_diffrn_ambient_temperature      120(2)
_diffrn_radiation_wavelength     1.54184
_diffrn_radiation_type           CuK\a
_diffrn_radiation_source         'fine-focus sealed tube'
_diffrn_radiation_monochromator  graphite
_diffrn_measurement_device_type  'Agilent Supernova'
_diffrn_measurement_method       ?
_diffrn_detector_area_resol_mean ?
_diffrn_standards_number         ?
_diffrn_standards_interval_count ?
_diffrn_standards_interval_time  ?
_diffrn_standards_decay_%        ?
_diffrn_reflns_number            41076
_diffrn_reflns_av_R_equivalents  0.0861
_diffrn_reflns_av_sigmaI/netI    0.0896
_diffrn_reflns_limit_h_min       -51
_diffrn_reflns_limit_h_max       51
_diffrn_reflns_limit_k_min       -24
_diffrn_reflns_limit_k_max       30
_diffrn_reflns_limit_l_min       -22
_diffrn_reflns_limit_l_max       20
_diffrn_reflns_theta_min         3.35
_diffrn_reflns_theta_max         44.49
_reflns_number_total             18507
_reflns_number_gt                11082
_reflns_threshold_expression     >2sigma(I)

_computing_data_collection       ?
_computing_cell_refinement       ?
_computing_data_reduction        ?
_computing_structure_solution    'SHELXS-97 (Sheldrick, 1990)'
_computing_structure_refinement  'SHELXL-97 (Sheldrick, 1997)'
_computing_molecular_graphics    ?
_computing_publication_material  ?

_refine_special_details          SQUEEZE

_refine_ls_structure_factor_coef Fsqd
_refine_ls_matrix_type           full
_refine_ls_weighting_scheme      calc
_refine_ls_weighting_details     
'calc w=1/[\s^2^(Fo^2^)+(0.1597P)^2^+0.0000P] where P=(Fo^2^+2Fc^2^)/3'
_atom_sites_solution_primary     direct
_atom_sites_solution_secondary   difmap
_atom_sites_solution_hydrogens   geom
_refine_ls_hydrogen_treatment    noref
_refine_ls_extinction_method     none
_refine_ls_extinction_coef       ?
_refine_ls_number_reflns         18507
_refine_ls_number_parameters     953
_refine_ls_number_restraints     0
_refine_ls_R_factor_all          0.1146
_refine_ls_R_factor_gt           0.0900
_refine_ls_wR_factor_ref         0.2508
_refine_ls_wR_factor_gt          0.2352
_refine_ls_goodness_of_fit_ref   0.946
_refine_ls_restrained_S_all      0.946
_refine_ls_shift/su_max          0.000
_refine_ls_shift/su_mean         0.000

loop_
_atom_site_label
_atom_site_type_symbol
_atom_site_fract_x
_atom_site_fract_y
_atom_site_fract_z
_atom_site_U_iso_or_equiv
_atom_site_adp_type
_atom_site_occupancy
_atom_site_symmetry_multiplicity
_atom_site_calc_flag
_atom_site_refinement_flags
_atom_site_disorder_assembly
_atom_site_disorder_group
Cu1 Cu 0.217143(14) -0.13431(2) 0.27670(3) 0.0817(3) Uani 1 1 d . . .
Cu2 Cu 0.0000 0.20725(5) 0.2500 0.1137(5) Uani 1 2 d S . .
O1 O 0.22476(8) 0.07326(13) 0.1015(2) 0.1333(17) Uani 1 1 d . . .
O2 O 0.19120(7) 0.02132(13) 0.10288(19) 0.1077(13) Uani 1 1 d . . .
O3 O 0.15740(8) 0.27882(13) 0.05673(19) 0.1175(14) Uani 1 1 d . . .
O4 O 0.20092(8) 0.25745(10) 0.06363(15) 0.0895(11) Uani 1 1 d . . .
O5 O 0.08192(9) 0.07072(16) 0.0685(2) 0.1354(16) Uani 1 1 d . . .
O6 O 0.07220(7) 0.14467(16) 0.0627(2) 0.1244(15) Uani 1 1 d . . .
O7 O 0.13945(7) 0.03128(10) 0.44090(14) 0.0788(10) Uani 1 1 d . . .
O8 O 0.18365(6) 0.01722(11) 0.43747(13) 0.0762(10) Uani 1 1 d . . .
O9 O 0.25912(7) 0.16281(12) 0.41643(16) 0.0930(11) Uani 1 1 d . . .
O10 O 0.24408(6) 0.23542(12) 0.41156(15) 0.0843(11) Uani 1 1 d . . .
O11 O 0.13080(7) 0.27060(17) 0.4172(2) 0.1367(18) Uani 1 1 d . . .
O12 O 0.10052(8) 0.21553(13) 0.42888(18) 0.1108(14) Uani 1 1 d . . .
O25 O 0.18188(7) -0.16865(11) 0.28049(14) 0.1048(13) Uani 1 1 d . . .
O27 O 0.0000 0.2778(2) 0.2500 0.139(2) Uani 1 2 d S . .
N1 N 0.20278(11) -0.09489(15) 0.22261(18) 0.0791(13) Uani 1 1 d . . .
N2 N 0.26472(12) 0.32640(14) 0.17211(19) 0.0864(14) Uani 1 1 d . . .
N3 N 0.02350(9) 0.2035(2) 0.1960(3) 0.1172(19) Uani 1 1 d . . .
N4 N 0.21292(10) -0.09620(13) 0.33731(19) 0.0792(13) Uani 1 1 d . . .
N5 N 0.27011(9) 0.33772(15) 0.28573(18) 0.0738(12) Uani 1 1 d . . .
N6 N 0.02537(9) 0.2034(2) 0.3111(3) 0.1011(17) Uani 1 1 d . . .
C1 C 0.16664(10) 0.08053(18) -0.0160(2) 0.0699(15) Uani 1 1 d . . .
C2 C 0.16913(11) 0.05101(16) 0.0244(3) 0.0732(15) Uani 1 1 d . . .
H2 H 0.1570 0.0320 0.0250 0.088 Uiso 1 1 calc R . .
C3 C 0.18779(13) 0.04824(19) 0.0621(2) 0.0782(16) Uani 1 1 d . . .
C4 C 0.20612(12) 0.0764(2) 0.0591(2) 0.0860(17) Uani 1 1 d . . .
C5 C 0.20469(10) 0.10552(17) 0.0200(3) 0.0761(16) Uani 1 1 d . . .
H5 H 0.2172 0.1238 0.0185 0.091 Uiso 1 1 calc R . .
C6 C 0.18546(12) 0.10774(16) -0.0161(2) 0.0714(15) Uani 1 1 d . . .
C7 C 0.18401(9) 0.14240(16) -0.0572(2) 0.0711(15) Uani 1 1 d . . .
H7A H 0.1998 0.1475 -0.0695 0.085 Uiso 1 1 calc R . .
H7B H 0.1731 0.1357 -0.0898 0.085 Uiso 1 1 calc R . .
C8 C 0.17550(11) 0.17780(17) -0.0308(2) 0.0691(14) Uani 1 1 d . . .
C9 C 0.19204(10) 0.20066(19) 0.0024(2) 0.0744(15) Uani 1 1 d . . .
H9 H 0.2081 0.1928 0.0066 0.089 Uiso 1 1 calc R . .
C10 C 0.18522(13) 0.23521(19) 0.0297(2) 0.0762(16) Uani 1 1 d . . .
C11 C 0.16210(15) 0.24404(19) 0.0261(2) 0.0843(17) Uani 1 1 d . . .
C12 C 0.14503(12) 0.2236(2) -0.0055(2) 0.0841(17) Uani 1 1 d . . .
H12 H 0.1291 0.2319 -0.0082 0.101 Uiso 1 1 calc R . .
C13 C 0.15162(11) 0.1902(2) -0.0335(2) 0.0779(16) Uani 1 1 d . . .
C14 C 0.13224(10) 0.16812(15) -0.0679(2) 0.0729(15) Uani 1 1 d . . .
H14A H 0.1211 0.1872 -0.0865 0.087 Uiso 1 1 calc R . .
H14B H 0.1393 0.1529 -0.0966 0.087 Uiso 1 1 calc R . .
C15 C 0.11896(10) 0.1408(2) -0.0341(2) 0.0782(16) Uani 1 1 d . . .
C16 C 0.10121(10) 0.15700(17) -0.0047(3) 0.0815(17) Uani 1 1 d . . .
H16 H 0.0974 0.1841 -0.0079 0.098 Uiso 1 1 calc R . .
C17 C 0.08930(12) 0.1327(3) 0.0291(3) 0.103(2) Uani 1 1 d . . .
C18 C 0.09475(13) 0.0905(2) 0.0326(3) 0.100(2) Uani 1 1 d . . .
C19 C 0.11160(13) 0.07645(18) 0.0047(3) 0.0915(18) Uani 1 1 d . . .
H19 H 0.1149 0.0492 0.0078 0.110 Uiso 1 1 calc R . .
C20 C 0.12506(10) 0.0988(2) -0.0293(2) 0.0769(16) Uani 1 1 d . . .
C21 C 0.14405(9) 0.08065(15) -0.0550(2) 0.0679(14) Uani 1 1 d . . .
H13A H 0.1468 0.0951 -0.0889 0.081 Uiso 1 1 calc R . .
H13B H 0.1397 0.0534 -0.0654 0.081 Uiso 1 1 calc R . .
C22 C 0.24437(14) 0.1007(2) 0.1004(3) 0.145(3) Uani 1 1 d . . .
H14G H 0.2394 0.1267 0.1121 0.217 Uiso 1 1 calc R . .
H14H H 0.2491 0.1024 0.0630 0.217 Uiso 1 1 calc R . .
H14I H 0.2577 0.0916 0.1253 0.217 Uiso 1 1 calc R . .
C23 C 0.17395(10) -0.00816(17) 0.1070(2) 0.0779(16) Uani 1 1 d . . .
H14J H 0.1701 -0.0209 0.0709 0.093 Uiso 1 1 calc R . .
H14K H 0.1594 0.0035 0.1187 0.093 Uiso 1 1 calc R . .
C24 C 0.18365(11) -0.0374(2) 0.1480(2) 0.0729(15) Uani 1 1 d . . .
C25 C 0.17127(10) -0.07012(19) 0.1565(2) 0.0701(15) Uani 1 1 d . . .
H25 H 0.1559 -0.0735 0.1384 0.084 Uiso 1 1 calc R . .
C26 C 0.18141(14) -0.09977(18) 0.1927(3) 0.0899(19) Uani 1 1 d . . .
H26 H 0.1731 -0.1236 0.1961 0.108 Uiso 1 1 calc R . .
C27 C 0.21470(11) -0.0620(2) 0.2150(2) 0.0886(18) Uani 1 1 d . . .
H27 H 0.2297 -0.0592 0.2352 0.106 Uiso 1 1 calc R . .
C28 C 0.20691(12) -0.03048(19) 0.1792(2) 0.0971(19) Uani 1 1 d . . .
H28 H 0.2158 -0.0073 0.1756 0.117 Uiso 1 1 calc R . .
C29 C 0.13283(13) 0.2898(2) 0.0547(4) 0.182(4) Uani 1 1 d . . .
H16A H 0.1243 0.2705 0.0750 0.273 Uiso 1 1 calc R . .
H16B H 0.1260 0.2907 0.0164 0.273 Uiso 1 1 calc R . .
H16C H 0.1315 0.3157 0.0715 0.273 Uiso 1 1 calc R . .
C30 C 0.22567(11) 0.24874(16) 0.0621(2) 0.0882(17) Uani 1 1 d . . .
H16D H 0.2303 0.2521 0.0244 0.106 Uiso 1 1 calc R . .
H16E H 0.2291 0.2214 0.0740 0.106 Uiso 1 1 calc R . .
C31 C 0.23901(12) 0.27734(18) 0.1012(2) 0.0779(16) Uani 1 1 d . . .
C32 C 0.22845(11) 0.30358(19) 0.1340(3) 0.0856(17) Uani 1 1 d . . .
H32 H 0.2118 0.3051 0.1316 0.103 Uiso 1 1 calc R . .
C33 C 0.24138(14) 0.32716(17) 0.1694(2) 0.0871(17) Uani 1 1 d . . .
H33 H 0.2337 0.3444 0.1926 0.105 Uiso 1 1 calc R . .
C34 C 0.27619(11) 0.30196(17) 0.1395(2) 0.0773(16) Uani 1 1 d . . .
H34 H 0.2929 0.3024 0.1405 0.093 Uiso 1 1 calc R . .
C35 C 0.26314(12) 0.27675(17) 0.1053(2) 0.0753(15) Uani 1 1 d . . .
H35 H 0.2710 0.2585 0.0840 0.090 Uiso 1 1 calc R . .
C36 C 0.08687(16) 0.0299(3) 0.0749(4) 0.192(4) Uani 1 1 d . . .
H15A H 0.1008 0.0263 0.1013 0.288 Uiso 1 1 calc R . .
H15B H 0.0899 0.0187 0.0394 0.288 Uiso 1 1 calc R . .
H15C H 0.0733 0.0167 0.0885 0.288 Uiso 1 1 calc R . .
C37 C 0.06998(11) 0.1874(2) 0.0668(3) 0.109(2) Uani 1 1 d . . .
H15D H 0.0628 0.1988 0.0318 0.131 Uiso 1 1 calc R . .
H15E H 0.0855 0.1998 0.0766 0.131 Uiso 1 1 calc R . .
C38 C 0.05432(12) 0.1926(2) 0.1112(3) 0.0957(19) Uani 1 1 d . . .
C39 C 0.03992(14) 0.2240(2) 0.1102(3) 0.112(2) Uani 1 1 d . . .
H39 H 0.0398 0.2419 0.0805 0.134 Uiso 1 1 calc R . .
C40 C 0.02462(12) 0.2311(3) 0.1528(4) 0.128(2) Uani 1 1 d . . .
H40 H 0.0153 0.2542 0.1519 0.154 Uiso 1 1 calc R . .
C41 C 0.03874(15) 0.1725(3) 0.1967(3) 0.134(3) Uani 1 1 d . . .
H160 H 0.0388 0.1540 0.2258 0.161 Uiso 1 1 calc R . .
C42 C 0.05404(13) 0.1670(2) 0.1570(4) 0.124(2) Uani 1 1 d . . .
H42 H 0.0647 0.1455 0.1603 0.149 Uiso 1 1 calc R . .
C43 C 0.16433(11) 0.11113(15) 0.53235(18) 0.0597(14) Uani 1 1 d . . .
C44 C 0.14686(10) 0.08720(17) 0.5029(2) 0.0699(14) Uani 1 1 d . . .
H44 H 0.1306 0.0920 0.5048 0.084 Uiso 1 1 calc R . .
C45 C 0.15462(11) 0.05576(17) 0.4704(2) 0.0681(15) Uani 1 1 d . . .
C46 C 0.17902(11) 0.04861(16) 0.4700(2) 0.0565(13) Uani 1 1 d . . .
C47 C 0.19447(9) 0.07134(17) 0.4991(2) 0.0642(14) Uani 1 1 d . . .
H47 H 0.2108 0.0661 0.4981 0.077 Uiso 1 1 calc R . .
C48 C 0.18776(9) 0.10321(15) 0.53173(19) 0.0538(13) Uani 1 1 d . . .
C49 C 0.20740(9) 0.12799(14) 0.5603(2) 0.0690(15) Uani 1 1 d . . .
H10A H 0.2204 0.1105 0.5745 0.083 Uiso 1 1 calc R . .
H10B H 0.2014 0.1413 0.5920 0.083 Uiso 1 1 calc R . .
C50 C 0.21708(9) 0.15873(17) 0.5232(2) 0.0618(13) Uani 1 1 d . . .
C51 C 0.23308(10) 0.14697(16) 0.4885(2) 0.0689(14) Uani 1 1 d . . .
H51 H 0.2381 0.1204 0.4894 0.083 Uiso 1 1 calc R . .
C52 C 0.24220(10) 0.1728(2) 0.4519(2) 0.0735(15) Uani 1 1 d . . .
C53 C 0.23393(11) 0.2111(2) 0.4491(2) 0.0732(15) Uani 1 1 d . . .
C54 C 0.21807(9) 0.22348(16) 0.4849(2) 0.0684(14) Uani 1 1 d . . .
H54 H 0.2134 0.2502 0.4848 0.082 Uiso 1 1 calc R . .
C55 C 0.20866(9) 0.19719(17) 0.5212(2) 0.0590(13) Uani 1 1 d . . .
C56 C 0.18985(10) 0.21330(15) 0.5545(2) 0.0786(16) Uani 1 1 d . . .
H56A H 0.1935 0.2409 0.5641 0.094 Uiso 1 1 calc R . .
H56B H 0.1899 0.1983 0.5891 0.094 Uiso 1 1 calc R . .
C57 C 0.16515(9) 0.21108(18) 0.5230(2) 0.0572(13) Uani 1 1 d . . .
C58 C 0.15883(12) 0.24182(18) 0.4878(3) 0.0956(19) Uani 1 1 d . . .
H58 H 0.1691 0.2638 0.4872 0.115 Uiso 1 1 calc R . .
C59 C 0.13731(13) 0.2416(2) 0.4523(3) 0.0903(18) Uani 1 1 d . . .
C60 C 0.12196(12) 0.2131(2) 0.4594(3) 0.0884(18) Uani 1 1 d . . .
C61 C 0.12860(11) 0.18292(17) 0.4973(3) 0.0778(16) Uani 1 1 d . . .
H61 H 0.1178 0.1621 0.5007 0.093 Uiso 1 1 calc R . .
C62 C 0.14928(11) 0.18158(17) 0.5291(2) 0.0580(13) Uani 1 1 d . . .
C63 C 0.15424(9) 0.14538(16) 0.5633(2) 0.0722(15) Uani 1 1 d . . .
H63A H 0.1394 0.1367 0.5776 0.087 Uiso 1 1 calc R . .
H63B H 0.1655 0.1521 0.5951 0.087 Uiso 1 1 calc R . .
C64 C 0.11443(10) 0.03573(17) 0.4453(3) 0.105(2) Uani 1 1 d . . .
H10C H 0.1096 0.0625 0.4352 0.157 Uiso 1 1 calc R . .
H10D H 0.1111 0.0305 0.4832 0.157 Uiso 1 1 calc R . .
H10E H 0.1057 0.0172 0.4206 0.157 Uiso 1 1 calc R . .
C65 C 0.20762(9) 0.00172(18) 0.4436(2) 0.0859(17) Uani 1 1 d . . .
H10F H 0.2189 0.0218 0.4331 0.103 Uiso 1 1 calc R . .
H10G H 0.2121 -0.0059 0.4822 0.103 Uiso 1 1 calc R . .
C66 C 0.20804(11) -0.03189(16) 0.4082(2) 0.0654(14) Uani 1 1 d . . .
C67 C 0.23030(11) -0.05301(18) 0.4092(2) 0.0834(16) Uani 1 1 d . . .
H67 H 0.2436 -0.0457 0.4334 0.100 Uiso 1 1 calc R . .
C68 C 0.23129(11) -0.08442(18) 0.3730(3) 0.0815(16) Uani 1 1 d . . .
H68 H 0.2457 -0.0984 0.3733 0.098 Uiso 1 1 calc R . .
C69 C 0.19304(11) -0.0747(2) 0.3396(2) 0.0805(17) Uani 1 1 d . . .
H69 H 0.1799 -0.0822 0.3151 0.097 Uiso 1 1 calc R . .
C70 C 0.18973(10) -0.04422(16) 0.3722(2) 0.0618(14) Uani 1 1 d . . .
H70 H 0.1749 -0.0313 0.3704 0.074 Uiso 1 1 calc R . .
C71 C 0.26386(15) 0.12176(19) 0.4073(3) 0.148(3) Uani 1 1 d . . .
H12A H 0.2490 0.1078 0.3982 0.222 Uiso 1 1 calc R . .
H12B H 0.2721 0.1105 0.4407 0.222 Uiso 1 1 calc R . .
H12C H 0.2738 0.1192 0.3770 0.222 Uiso 1 1 calc R . .
C72 C 0.23579(8) 0.27540(14) 0.4086(2) 0.0631(14) Uani 1 1 d . . .
H12D H 0.2388 0.2881 0.4450 0.076 Uiso 1 1 calc R . .
H12E H 0.2186 0.2760 0.3977 0.076 Uiso 1 1 calc R . .
C73 C 0.24852(11) 0.2965(2) 0.3675(2) 0.0846(17) Uani 1 1 d . . .
C74 C 0.26573(10) 0.27745(18) 0.3356(3) 0.0905(18) Uani 1 1 d . . .
H74 H 0.2697 0.2507 0.3420 0.109 Uiso 1 1 calc R . .
C75 C 0.27633(10) 0.2987(2) 0.2953(2) 0.0870(19) Uani 1 1 d . . .
H75 H 0.2877 0.2866 0.2749 0.104 Uiso 1 1 calc R . .
C76 C 0.25472(12) 0.35445(16) 0.3148(3) 0.0827(17) Uani 1 1 d . . .
H76 H 0.2512 0.3813 0.3082 0.099 Uiso 1 1 calc R . .
C77 C 0.24301(10) 0.3348(2) 0.3557(2) 0.0827(16) Uani 1 1 d . . .
H77 H 0.2315 0.3480 0.3745 0.099 Uiso 1 1 calc R . .
C78 C 0.14715(14) 0.3025(2) 0.4113(4) 0.186(4) Uani 1 1 d . . .
H11A H 0.1610 0.2926 0.3947 0.278 Uiso 1 1 calc R . .
H11B H 0.1521 0.3136 0.4474 0.278 Uiso 1 1 calc R . .
H11C H 0.1394 0.3228 0.3876 0.278 Uiso 1 1 calc R . .
C79 C 0.08349(11) 0.18440(19) 0.4335(3) 0.0981(19) Uani 1 1 d . . .
H11D H 0.0780 0.1843 0.4707 0.118 Uiso 1 1 calc R . .
H11E H 0.0907 0.1586 0.4270 0.118 Uiso 1 1 calc R . .
C80 C 0.06362(11) 0.1921(2) 0.3916(3) 0.0940(19) Uani 1 1 d . . .
C81 C 0.06360(10) 0.2258(2) 0.3578(3) 0.102(2) Uani 1 1 d . . .
H81 H 0.0758 0.2449 0.3616 0.123 Uiso 1 1 calc R . .
C82 C 0.04289(15) 0.2289(2) 0.3156(3) 0.116(2) Uani 1 1 d . . .
H82 H 0.0423 0.2503 0.2908 0.139 Uiso 1 1 calc R . .
C83 C 0.02563(11) 0.1749(3) 0.3467(4) 0.126(3) Uani 1 1 d . . .
H83 H 0.0124 0.1580 0.3455 0.151 Uiso 1 1 calc R . .
C84 C 0.04469(15) 0.1679(2) 0.3869(3) 0.119(2) Uani 1 1 d . . .
H84 H 0.0442 0.1461 0.4109 0.143 Uiso 1 1 calc R . .

loop_
_atom_site_aniso_label
_atom_site_aniso_U_11
_atom_site_aniso_U_22
_atom_site_aniso_U_33
_atom_site_aniso_U_23
_atom_site_aniso_U_13
_atom_site_aniso_U_12
Cu1 0.1131(7) 0.0701(6) 0.0615(5) -0.0024(4) 0.0059(4) 0.0235(5)
Cu2 0.0562(8) 0.1779(14) 0.1061(10) 0.000 0.0027(7) 0.000
O1 0.096(3) 0.119(4) 0.173(4) 0.041(3) -0.050(3) -0.024(3)
O2 0.105(3) 0.079(3) 0.132(4) 0.021(3) -0.031(3) -0.011(3)
O3 0.111(4) 0.098(3) 0.145(4) -0.023(3) 0.019(3) 0.004(3)
O4 0.094(3) 0.083(3) 0.091(3) -0.029(2) 0.011(2) -0.021(3)
O5 0.152(4) 0.104(4) 0.160(4) 0.007(3) 0.069(4) -0.003(3)
O6 0.078(3) 0.125(4) 0.177(4) -0.016(3) 0.048(3) -0.013(3)
O7 0.072(3) 0.065(2) 0.096(3) -0.014(2) -0.009(2) -0.006(2)
O8 0.088(3) 0.082(3) 0.0