####################################################################### 
# 
# This file contains crystal structure data downloaded from the 
# Cambridge Structural Database (CSD) hosted by the Cambridge 
# Crystallographic Data Centre (CCDC).
# 
# Full information about CCDC data access policies and citation 
# guidelines are available at http://www.ccdc.cam.ac.uk/access/V1 
# 
# Audit and citation data items may have been added by the CCDC. 
# Please retain this information to preserve the provenance of 
# this file and to allow appropriate attribution of the data. 
# 
#######################################################################

data_c:\
_audit_block_doi                 10.5517/cc1j13th
_database_code_depnum_ccdc_archive 'CCDC 1401256'
loop_
_citation_id
_citation_doi
_citation_year
1 10.1039/C5SC01801C 2015
_audit_update_record             
;
2015-05-15 deposited with the CCDC.	2024-07-09 downloaded from the CCDC.
;
_audit_creation_method           SHELXL-97
_chemical_name_systematic        
; 
 bromo[tris(4-pyridyl)methyl)cyclotriguaiacyclene]copper(II) bromide
;
_chemical_name_common            ?
_chemical_melting_point          ?
_chemical_formula_moiety         ?
_chemical_formula_sum            'C93 H105 Br3 Cu2 N6 O16.50 S4.50'
_chemical_formula_weight         2081.91

loop_
_atom_type_symbol
_atom_type_description
_atom_type_scat_dispersion_real
_atom_type_scat_dispersion_imag
_atom_type_scat_source
C C 0.0033 0.0016 'International Tables Vol C Tables 4.2.6.8 and 6.1.1.4'
H H 0.0000 0.0000 'International Tables Vol C Tables 4.2.6.8 and 6.1.1.4'
Br Br -0.2901 2.4595 'International Tables Vol C Tables 4.2.6.8 and 6.1.1.4'
Cu Cu 0.3201 1.2651 'International Tables Vol C Tables 4.2.6.8 and 6.1.1.4'
N N 0.0061 0.0033 'International Tables Vol C Tables 4.2.6.8 and 6.1.1.4'
O O 0.0106 0.0060 'International Tables Vol C Tables 4.2.6.8 and 6.1.1.4'
S S 0.1246 0.1234 'International Tables Vol C Tables 4.2.6.8 and 6.1.1.4'

_symmetry_cell_setting           Triclinic
_symmetry_space_group_name_H-M   P-1

loop_
_symmetry_equiv_pos_as_xyz
'x, y, z'
'-x, -y, -z'

_cell_length_a                   15.4223(10)
_cell_length_b                   19.5085(12)
_cell_length_c                   28.1607(17)
_cell_angle_alpha                100.656(4)
_cell_angle_beta                 105.671(3)
_cell_angle_gamma                102.750(4)
_cell_volume                     7682.0(8)
_cell_formula_units_Z            2
_cell_measurement_temperature    150(2)
_cell_measurement_reflns_used    ?
_cell_measurement_theta_min      ?
_cell_measurement_theta_max      ?

_exptl_crystal_description       block
_exptl_crystal_colour            green
_exptl_crystal_size_max          0.15
_exptl_crystal_size_mid          0.10
_exptl_crystal_size_min          0.10
_exptl_crystal_density_meas      ?
_exptl_crystal_density_diffrn    0.900
_exptl_crystal_density_method    'not measured'
_exptl_crystal_F_000             2144
_exptl_absorpt_coefficient_mu    1.160
_exptl_absorpt_correction_type   multi-scan
_exptl_absorpt_correction_T_min  0.8453
_exptl_absorpt_correction_T_max  0.8928
_exptl_absorpt_process_details   ?

_exptl_special_details           
; 
 ? 
;

_diffrn_ambient_temperature      150(2)
_diffrn_radiation_wavelength     0.71073
_diffrn_radiation_type           MoK\a
_diffrn_radiation_source         'fine-focus sealed tube'
_diffrn_radiation_monochromator  graphite
_diffrn_measurement_device_type  'Bruker X8'
_diffrn_measurement_method       ?
_diffrn_detector_area_resol_mean ?
_diffrn_standards_number         ?
_diffrn_standards_interval_count ?
_diffrn_standards_interval_time  ?
_diffrn_standards_decay_%        ?
_diffrn_reflns_number            154927
_diffrn_reflns_av_R_equivalents  0.0607
_diffrn_reflns_av_sigmaI/netI    0.0666
_diffrn_reflns_limit_h_min       -18
_diffrn_reflns_limit_h_max       18
_diffrn_reflns_limit_k_min       -23
_diffrn_reflns_limit_k_max       23
_diffrn_reflns_limit_l_min       -33
_diffrn_reflns_limit_l_max       33
_diffrn_reflns_theta_min         0.78
_diffrn_reflns_theta_max         25.00
_reflns_number_total             27015
_reflns_number_gt                16957
_reflns_threshold_expression     >2sigma(I)

_computing_data_collection       ?
_computing_cell_refinement       ?
_computing_data_reduction        ?
_computing_structure_solution    'SHELXS-97 (Sheldrick, 1990)'
_computing_structure_refinement  'SHELXL-97 (Sheldrick, 1997)'
_computing_molecular_graphics    ?
_computing_publication_material  ?

_refine_special_details          SQUEEZE

_refine_ls_structure_factor_coef Fsqd
_refine_ls_matrix_type           full
_refine_ls_weighting_scheme      calc
_refine_ls_weighting_details     
'calc w=1/[\s^2^(Fo^2^)+(0.2000P)^2^+0.0000P] where P=(Fo^2^+2Fc^2^)/3'
_atom_sites_solution_primary     direct
_atom_sites_solution_secondary   difmap
_atom_sites_solution_hydrogens   geom
_refine_ls_hydrogen_treatment    noref
_refine_ls_extinction_method     none
_refine_ls_extinction_coef       ?
_refine_ls_number_reflns         27015
_refine_ls_number_parameters     1044
_refine_ls_number_restraints     47
_refine_ls_R_factor_all          0.1479
_refine_ls_R_factor_gt           0.1149
_refine_ls_wR_factor_ref         0.3488
_refine_ls_wR_factor_gt          0.3304
_refine_ls_goodness_of_fit_ref   1.248
_refine_ls_restrained_S_all      1.249
_refine_ls_shift/su_max          0.002
_refine_ls_shift/su_mean         0.000

loop_
_atom_site_label
_atom_site_type_symbol
_atom_site_fract_x
_atom_site_fract_y
_atom_site_fract_z
_atom_site_U_iso_or_equiv
_atom_site_adp_type
_atom_site_occupancy
_atom_site_symmetry_multiplicity
_atom_site_calc_flag
_atom_site_refinement_flags
_atom_site_disorder_assembly
_atom_site_disorder_group
Br1 Br 0.84923(6) 0.10832(4) 0.55790(3) 0.0527(2) Uani 1 1 d . . .
Br2 Br 0.66648(5) -0.00528(4) 0.40202(3) 0.0532(2) Uani 1 1 d . . .
Br3 Br 0.13219(9) 0.49506(7) 0.09955(5) 0.1018(4) Uani 1 1 d . . .
Cu1 Cu 0.76162(6) 0.10944(4) 0.46645(4) 0.0418(2) Uani 1 1 d . . .
Cu2 Cu 0.21988(9) 0.43022(6) 0.03545(4) 0.0802(4) Uani 1 1 d . . .
S2 S 0.5483(2) 0.63109(19) 0.33506(14) 0.1045(10) Uiso 1 1 d . . .
S3 S 0.4261(4) 0.5768(3) 0.5508(2) 0.1628(18) Uiso 1 1 d . . .
S4 S 0.9371(2) 0.63037(17) 0.20734(12) 0.0931(8) Uiso 1 1 d . . .
S5 S 0.7268(6) 0.3082(5) 0.6176(4) 0.132(3) Uiso 0.50 1 d P . .
O1 O 0.1404(4) -0.2236(3) 0.1765(2) 0.0588(14) Uani 1 1 d . . .
O2 O 0.0856(4) -0.1953(3) 0.25656(19) 0.0594(14) Uani 1 1 d . . .
O3 O 0.1621(3) 0.1272(3) 0.3892(2) 0.0541(13) Uani 1 1 d . . .
O4 O 0.2308(4) 0.2294(3) 0.3520(2) 0.0630(15) Uani 1 1 d . . .
O5 O 0.3661(5) 0.1716(4) 0.1544(2) 0.0789(18) Uani 1 1 d . . .
O6 O 0.3441(5) 0.0361(4) 0.1019(2) 0.092(2) Uani 1 1 d . . .
O7 O 0.8288(4) 0.4419(2) 0.39945(19) 0.0478(12) Uani 1 1 d . B .
O8 O 0.8201(5) 0.4405(3) 0.3065(2) 0.0652(16) Uani 1 1 d D . .
O9 O 0.6260(5) 0.6743(3) 0.2077(2) 0.0769(19) Uani 1 1 d . . .
O10 O 0.5825(4) 0.7766(3) 0.2610(2) 0.0714(17) Uani 1 1 d . B .
O11 O 0.6289(4) 0.8017(3) 0.4938(2) 0.0666(16) Uani 1 1 d D . .
O12 O 0.6733(4) 0.6935(3) 0.5250(2) 0.0641(15) Uani 1 1 d . A .
O13 O 0.2153(5) 0.5132(4) -0.0043(3) 0.0815(18) Uiso 1 1 d . . .
O14 O 0.4941(7) 0.5655(6) 0.2853(4) 0.142(3) Uiso 1 1 d . . .
O15 O 0.8544(5) 0.5673(4) 0.1947(3) 0.095(2) Uiso 1 1 d . . .
O16 O 0.4107(7) 0.5865(5) 0.4944(4) 0.123(3) Uiso 1 1 d . . .
O17 O 0.720(2) 0.369(2) 0.6588(13) 0.227(13) Uiso 0.50 1 d P . .
N1 N -0.0947(5) -0.3628(4) 0.0157(2) 0.0628(19) Uani 1 1 d . . .
N2 N -0.1199(4) 0.1022(3) 0.4470(2) 0.0374(12) Uani 1 1 d . . .
N3 N 0.2385(5) 0.3485(4) 0.0724(3) 0.0638(19) Uani 1 1 d . . .
N4 N 0.7824(4) 0.2179(3) 0.4612(2) 0.0361(12) Uani 1 1 d . . .
N5 N 0.3486(6) 0.4902(4) 0.0806(3) 0.065(2) Uani 1 1 d . . .
N6 N 0.3669(8) 0.8893(6) 0.5255(5) 0.036(3) Uiso 0.50 1 d PDU . 1
C1 C 0.4513(5) -0.0375(4) 0.2626(3) 0.0477(18) Uani 1 1 d . . .
H1A H 0.4965 -0.0154 0.2975 0.057 Uiso 1 1 calc R . .
H1B H 0.4788 -0.0698 0.2435 0.057 Uiso 1 1 calc R . .
C2 C 0.3591(5) -0.0824(3) 0.2654(3) 0.0394(15) Uani 1 1 d . . .
C3 C 0.2973(5) -0.1361(4) 0.2215(3) 0.0473(18) Uani 1 1 d . . .
H3 H 0.3167 -0.1482 0.1925 0.057 Uiso 1 1 calc R . .
C4 C 0.2056(5) -0.1725(4) 0.2205(3) 0.0425(16) Uani 1 1 d . . .
C5 C 0.1756(5) -0.1583(4) 0.2619(3) 0.0477(18) Uani 1 1 d . . .
C6 C 0.2391(4) -0.1072(4) 0.3076(2) 0.0372(15) Uani 1 1 d . . .
H6 H 0.2206 -0.0989 0.3372 0.045 Uiso 1 1 calc R . .
C7 C 0.3287(4) -0.0690(4) 0.3093(2) 0.0357(14) Uani 1 1 d . . .
C8 C 0.3867(4) -0.0091(4) 0.3583(3) 0.0399(16) Uani 1 1 d . . .
H8A H 0.3790 -0.0263 0.3882 0.048 Uiso 1 1 calc R . .
H8B H 0.4541 0.0019 0.3613 0.048 Uiso 1 1 calc R . .
C9 C 0.3563(4) 0.0585(4) 0.3580(2) 0.0352(14) Uani 1 1 d . . .
C10 C 0.2773(4) 0.0621(3) 0.3764(2) 0.0339(14) Uani 1 1 d . . .
H10 H 0.2516 0.0246 0.3902 0.041 Uiso 1 1 calc R . .
C11 C 0.2402(5) 0.1190(4) 0.3739(3) 0.0475(18) Uani 1 1 d . . .
C12 C 0.2720(6) 0.1764(4) 0.3530(3) 0.055(2) Uani 1 1 d . . .
C13 C 0.3549(5) 0.1760(4) 0.3388(3) 0.0475(18) Uani 1 1 d . . .
H13 H 0.3831 0.2161 0.3281 0.057 Uiso 1 1 calc R . .
C14 C 0.3959(4) 0.1179(4) 0.3404(3) 0.0434(17) Uani 1 1 d . . .
C15 C 0.4785(4) 0.1177(4) 0.3201(2) 0.0361(15) Uani 1 1 d . . .
H15A H 0.5223 0.1674 0.3316 0.043 Uiso 1 1 calc R . .
H15B H 0.5128 0.0851 0.3347 0.043 Uiso 1 1 calc R . .
C16 C 0.4477(4) 0.0927(4) 0.2625(3) 0.0374(15) Uani 1 1 d . . .
C17 C 0.4246(5) 0.1419(4) 0.2334(3) 0.0459(17) Uani 1 1 d . . .
H17 H 0.4329 0.1904 0.2513 0.055 Uiso 1 1 calc R . .
C18 C 0.3920(5) 0.1247(5) 0.1824(3) 0.059(2) Uani 1 1 d . . .
C19 C 0.3780(6) 0.0516(5) 0.1546(3) 0.059(2) Uani 1 1 d . . .
C20 C 0.4031(5) 0.0016(4) 0.1826(3) 0.0473(17) Uani 1 1 d . . .
H20 H 0.3979 -0.0463 0.1649 0.057 Uiso 1 1 calc R . .
C21 C 0.4357(4) 0.0224(4) 0.2363(3) 0.0418(16) Uani 1 1 d . . .
C22 C 0.1628(6) -0.2288(5) 0.1296(3) 0.060(2) Uani 1 1 d . . .
H22A H 0.2144 -0.2516 0.1306 0.072 Uiso 1 1 calc R . .
H22B H 0.1817 -0.1801 0.1236 0.072 Uiso 1 1 calc R . .
C23 C 0.0727(6) -0.2761(5) 0.0885(3) 0.063(2) Uani 1 1 d . . .
C24 C -0.0039(7) -0.2489(5) 0.0732(3) 0.070(2) Uani 1 1 d . . .
H24 H 0.0007 -0.1998 0.0878 0.084 Uiso 1 1 calc R . .
C25 C -0.0874(6) -0.2942(5) 0.0362(3) 0.059(2) Uani 1 1 d . . .
H25 H -0.1393 -0.2756 0.0257 0.071 Uiso 1 1 calc R . .
C26 C -0.0201(6) -0.3927(6) 0.0277(4) 0.072(3) Uani 1 1 d . . .
H26 H -0.0256 -0.4411 0.0107 0.087 Uiso 1 1 calc R . .
C27 C 0.1209(5) 0.0705(4) 0.4078(3) 0.0476(18) Uani 1 1 d . . .
H27A H 0.1682 0.0667 0.4381 0.057 Uiso 1 1 calc R . .
H27B H 0.1010 0.0239 0.3813 0.057 Uiso 1 1 calc R . .
C28 C 0.0377(5) 0.0826(4) 0.4220(3) 0.0396(15) Uani 1 1 d . . .
C29 C -0.0130(4) 0.0326(4) 0.4404(3) 0.0407(16) Uani 1 1 d . . .
H29 H 0.0062 -0.0091 0.4459 0.049 Uiso 1 1 calc R . .
C30 C -0.0903(4) 0.0436(4) 0.4506(3) 0.0469(18) Uani 1 1 d . . .
H30 H -0.1263 0.0068 0.4611 0.056 Uiso 1 1 calc R . .
C31 C -0.0704(5) 0.1509(4) 0.4294(3) 0.0445(17) Uani 1 1 d . . .
H31 H -0.0903 0.1930 0.4260 0.053 Uiso 1 1 calc R . .
C32 C 0.0078(5) 0.1442(4) 0.4158(3) 0.0487(18) Uani 1 1 d . . .
H32 H 0.0399 0.1799 0.4029 0.058 Uiso 1 1 calc R . .
C34 C 0.2994(16) 0.1967(11) 0.1623(8) 0.199(11) Uani 1 1 d . . .
H34A H 0.3194 0.2239 0.1987 0.239 Uiso 1 1 calc R . .
H34B H 0.2437 0.1554 0.1560 0.239 Uiso 1 1 calc R . .
C35 C 0.2704(8) 0.2482(6) 0.1282(4) 0.076(3) Uani 1 1 d . . .
C36 C 0.1966(8) 0.2731(6) 0.1233(5) 0.094(4) Uani 1 1 d . . .
H36 H 0.1520 0.2547 0.1389 0.112 Uiso 1 1 calc R . .
C37 C 0.1807(8) 0.3239(6) 0.0972(4) 0.081(3) Uani 1 1 d . . .
H37 H 0.1282 0.3420 0.0967 0.097 Uiso 1 1 calc R . .
C38 C 0.3158(8) 0.3280(6) 0.0761(3) 0.079(3) Uani 1 1 d . . .
H38 H 0.3611 0.3507 0.0624 0.095 Uiso 1 1 calc R . .
C39 C 0.3311(7) 0.2727(5) 0.1002(4) 0.074(3) Uani 1 1 d . . .
H39 H 0.3805 0.2519 0.0980 0.089 Uiso 1 1 calc R . .
C40 C 0.0437(6) -0.1615(5) 0.2928(4) 0.069(2) Uani 1 1 d . . .
H40A H 0.0587 -0.1787 0.3237 0.103 Uiso 1 1 calc R . .
H40B H -0.0247 -0.1751 0.2768 0.103 Uiso 1 1 calc R . .
H40C H 0.0692 -0.1085 0.3017 0.103 Uiso 1 1 calc R . .
C41 C 0.2628(7) 0.2855(6) 0.3260(5) 0.092(4) Uani 1 1 d . . .
H41A H 0.3279 0.3139 0.3454 0.137 Uiso 1 1 calc R . .
H41B H 0.2224 0.3179 0.3240 0.137 Uiso 1 1 calc R . .
H41C H 0.2592 0.2614 0.2914 0.137 Uiso 1 1 calc R . .
C42 C 0.3233(14) -0.0417(7) 0.0736(5) 0.153(7) Uani 1 1 d . . .
H42A H 0.3697 -0.0463 0.0563 0.230 Uiso 1 1 calc R . .
H42B H 0.2602 -0.0577 0.0483 0.230 Uiso 1 1 calc R . .
H42C H 0.3262 -0.0721 0.0978 0.230 Uiso 1 1 calc R . .
C43 C 0.9414(4) 0.7132(3) 0.4566(2) 0.0312(13) Uani 1 1 d . . .
H43A H 0.9853 0.7514 0.4488 0.037 Uiso 1 1 calc R . .
H43B H 0.9758 0.7043 0.4890 0.037 Uiso 1 1 calc R . .
C44 C 0.9104(4) 0.6437(3) 0.4141(3) 0.0347(14) Uani 1 1 d . . .
C45 C 0.8870(4) 0.5763(3) 0.4274(3) 0.0380(15) Uani 1 1 d . B .
H45 H 0.8925 0.5765 0.4619 0.046 Uiso 1 1 calc R . .
C46 C 0.8561(5) 0.5105(4) 0.3903(3) 0.0435(17) Uani 1 1 d . . .
C47 C 0.8490(5) 0.5088(3) 0.3408(3) 0.0464(17) Uani 1 1 d . B .
C48 C 0.8750(5) 0.5733(3) 0.3272(3) 0.0383(15) Uani 1 1 d . . .
H48 H 0.8725 0.5718 0.2930 0.046 Uiso 1 1 calc R B .
C49 C 0.9051(4) 0.6411(3) 0.3639(2) 0.0331(14) Uani 1 1 d . B .
C50 C 0.9264(4) 0.7095(3) 0.3436(2) 0.0349(14) Uani 1 1 d . . .
H50A H 0.9746 0.7496 0.3714 0.042 Uiso 1 1 calc R B .
H50B H 0.9526 0.6986 0.3156 0.042 Uiso 1 1 calc R . .
C51 C 0.8395(4) 0.7346(3) 0.3240(3) 0.0391(16) Uani 1 1 d . B .
C52 C 0.7758(5) 0.6953(4) 0.2738(3) 0.0411(16) Uani 1 1 d . . .
H52 H 0.7907 0.6576 0.2538 0.049 Uiso 1 1 calc R B .
C53 C 0.6933(6) 0.7121(4) 0.2547(3) 0.0507(19) Uani 1 1 d . B .
C54 C 0.8475(6) 0.4430(4) 0.4525(3) 0.056(2) Uani 1 1 d . . .
H54A H 0.8085 0.4688 0.4673 0.067 Uiso 1 1 calc R B .
H54B H 0.9145 0.4678 0.4721 0.067 Uiso 1 1 calc R . .
C55 C 0.7305(5) 0.8058(4) 0.3313(3) 0.0407(16) Uani 1 1 d . B .
H55 H 0.7144 0.8436 0.3505 0.049 Uiso 1 1 calc R . .
C56 C 0.8165(5) 0.7903(3) 0.3524(3) 0.0380(15) Uani 1 1 d . . .
C57 C 0.8726(5) 0.8305(3) 0.4078(3) 0.0445(17) Uani 1 1 d . B .
H57A H 0.9383 0.8286 0.4149 0.053 Uiso 1 1 calc R . .
H57B H 0.8732 0.8823 0.4135 0.053 Uiso 1 1 calc R . .
C58 C 0.8310(4) 0.7974(3) 0.4439(2) 0.0351(14) Uani 1 1 d . . .
C59 C 0.7558(5) 0.8189(4) 0.4535(3) 0.0449(17) Uani 1 1 d . A .
H59 H 0.7393 0.8581 0.4413 0.054 Uiso 1 1 calc R . .
C60 C 0.7022(5) 0.7839(4) 0.4814(3) 0.0490(19) Uani 1 1 d . A .
C61 C 0.7284(5) 0.7260(4) 0.5005(3) 0.0468(17) Uani 1 1 d . . .
C62 C 0.8076(4) 0.7083(3) 0.4924(2) 0.0340(14) Uani 1 1 d . A .
H62 H 0.8283 0.6722 0.5070 0.041 Uiso 1 1 calc R . .
C63 C 0.8574(4) 0.7411(3) 0.4639(2) 0.0338(14) Uani 1 1 d . A .
C65 C 0.8222(5) 0.3619(4) 0.4543(3) 0.0450(18) Uani 1 1 d . B .
C66 C 0.8478(5) 0.3461(4) 0.5017(3) 0.0449(17) Uani 1 1 d . . .
H66 H 0.8798 0.3840 0.5322 0.054 Uiso 1 1 calc R B .
C67 C 0.8256(4) 0.2737(3) 0.5033(3) 0.0400(16) Uani 1 1 d . B .
H67 H 0.8418 0.2631 0.5356 0.048 Uiso 1 1 calc R . .
C68 C 0.7584(5) 0.2335(4) 0.4152(3) 0.0502(19) Uani 1 1 d . B .
H68 H 0.7281 0.1950 0.3849 0.060 Uiso 1 1 calc R . .
C69 C 0.7781(5) 0.3068(4) 0.4120(3) 0.054(2) Uani 1 1 d . . .
H69 H 0.7599 0.3170 0.3796 0.065 Uiso 1 1 calc R B .
C70 C 0.6335(7) 0.6065(6) 0.1796(4) 0.078(3) Uani 1 1 d . . .
H70A H 0.6583 0.5785 0.2034 0.093 Uiso 1 1 calc R . .
H70B H 0.6759 0.6163 0.1593 0.093 Uiso 1 1 calc R . .
C71 C 0.5375(7) 0.5660(5) 0.1460(4) 0.073(3) Uani 1 1 d . . .
C72 C 0.4642(8) 0.5402(5) 0.1647(3) 0.073(3) Uani 1 1 d . . .
H72 H 0.4759 0.5482 0.2005 0.088 Uiso 1 1 calc R . .
C73 C 0.3783(6) 0.5046(5) 0.1324(3) 0.065(2) Uani 1 1 d . . .
H73 H 0.3324 0.4871 0.1473 0.078 Uiso 1 1 calc R . .
C74 C 0.4189(9) 0.5150(6) 0.0626(4) 0.095(4) Uani 1 1 d . . .
H74 H 0.4046 0.5054 0.0266 0.114 Uiso 1 1 calc R . .
C75 C 0.5082(7) 0.5526(5) 0.0918(4) 0.078(3) Uani 1 1 d . . .
H75 H 0.5523 0.5703 0.0759 0.094 Uiso 1 1 calc R . .
C76 C 0.6110(9) 0.8693(7) 0.4805(5) 0.034(3) Uiso 0.50 1 d PDU A 1
H76A H 0.5949 0.8635 0.4432 0.041 Uiso 0.50 1 calc PR A 1
H76B H 0.6671 0.9117 0.4982 0.041 Uiso 0.50 1 calc PR A 1
C77 C 0.5272(7) 0.8795(6) 0.4985(5) 0.024(2) Uiso 0.50 1 d PDU A 1
C78 C 0.4930(10) 0.8369(9) 0.5286(6) 0.032(5) Uiso 0.50 1 d PDU A 1
H78 H 0.5259 0.8044 0.5405 0.039 Uiso 0.50 1 calc PR A 1
C79 C 0.4121(9) 0.8409(9) 0.5413(5) 0.033(4) Uiso 0.50 1 d PDU A 1
H79 H 0.3892 0.8104 0.5605 0.040 Uiso 0.50 1 calc PR A 1
C80 C 0.3999(9) 0.9315(8) 0.4959(5) 0.056(6) Uiso 0.55(3) 1 d PDU A 1
H80 H 0.3664 0.9634 0.4833 0.067 Uiso 0.50 1 calc PR A 1
C81 C 0.4808(7) 0.9278(6) 0.4845(5) 0.033(3) Uiso 0.50 1 d PDU A 1
H81 H 0.5044 0.9599 0.4663 0.039 Uiso 0.50 1 calc PR A 1
C82 C 0.7006(7) 0.6378(6) 0.5474(5) 0.097(4) Uani 1 1 d . . .
H82A H 0.7030 0.5987 0.5209 0.146 Uiso 1 1 calc R A .
H82B H 0.6546 0.6181 0.5632 0.146 Uiso 1 1 calc R . .
H82C H 0.7627 0.6587 0.5735 0.146 Uiso 1 1 calc R . .
C83 C 0.5533(7) 0.8246(5) 0.2947(4) 0.086(3) Uani 1 1 d . . .
H83A H 0.5900 0.8750 0.3003 0.130 Uiso 1 1 calc R . .
H83B H 0.5635 0.8119 0.3274 0.130 Uiso 1 1 calc R . .
H83C H 0.4864 0.8197 0.2793 0.130 Uiso 1 1 calc R . .
C84 C 0.8050(12) 0.4413(8) 0.2528(5) 0.038(4) Uiso 0.45 1 d PDU B 1
H84A H 0.7864 0.3913 0.2316 0.056 Uiso 0.45 1 calc PR B 1
H84B H 0.8633 0.4691 0.2494 0.056 Uiso 0.45 1 calc PR B 1
H84C H 0.7552 0.4642 0.2416 0.056 Uiso 0.45 1 calc PR B 1
C87 C 0.6529(7) 0.6160(6) 0.3598(4) 0.078(3) Uiso 1 1 d . . .
H87A H 0.6914 0.6249 0.3378 0.116 Uiso 1 1 calc R . .
H87B H 0.6426 0.5654 0.3620 0.116 Uiso 1 1 calc R . .
H87C H 0.6854 0.6489 0.3941 0.116 Uiso 1 1 calc R . .
C88 C 0.4966(11) 0.6110(9) 0.3823(6) 0.135(5) Uiso 1 1 d . . .
H88A H 0.4333 0.6171 0.3734 0.202 Uiso 1 1 calc R . .
H88B H 0.5354 0.6443 0.4157 0.202 Uiso 1 1 calc R . .
H88C H 0.4929 0.5607 0.3838 0.202 Uiso 1 1 calc R . .
C89 C 0.4498(13) 0.6687(10) 0.5688(7) 0.160(6) Uiso 1 1 d . . .
H89A H 0.4253 0.6823 0.5967 0.239 Uiso 1 1 calc R . .
H89B H 0.4200 0.6858 0.5397 0.239 Uiso 1 1 calc R . .
H89C H 0.5