
#######################################################################
#
#                 Cambridge Crystallographic Data Centre
#                                CCDC
#
#######################################################################
#
# If this CIF has been generated from an entry in the Cambridge
# Structural Database, then it will include bibliographic, chemical,
# crystal, experimental, refinement or atomic coordinate data resulting
# from the CCDC's data processing and validation procedures.
#
#######################################################################

data_CSD_CIF_CURFIH
_audit_creation_date 2020-05-11
_audit_creation_method CSD-ConQuest-V1
_database_code_CSD CURFIH
_database_code_depnum_ccdc_archive 'CCDC 1944201'
_chemical_formula_sum 'C63 H88 Co1 N14 O14 P1'
_chemical_formula_moiety
;
C63 H88 Co1 N14 O14 P1
;
_journal_coden_Cambridge 2038
_journal_volume 6
_journal_year 2020
_journal_page_first 1755
_journal_name_full 'Chem (Cell Press) '
loop_
_publ_author_name
"A.R.Tyler"
"R.Ragbirsingh"
"C.J.McMonagle"
"P.G.Waddell"
"S.E.Heaps"
"J.W.Steed"
"Paul Thaw"
"M.J.Hall"
"M.R.Probert"
_chemical_name_systematic
;
Vitamin B12 unknown solvate
;
_chemical_name_common
;
Teaching Subset: Essential Nutrients
;
_cell_volume   9107.279
_exptl_crystal_colour 'reddish red'
_exptl_crystal_density_diffrn 0.989
_exptl_special_details
;
Absolute configuration
compound as supplied

;
_exptl_crystal_description 'needle'
_exptl_crystal_preparation 'high throughput micro-crystallisation'
_diffrn_ambient_temperature 100
_diffrn_radiation_probe x-ray
_diffrn_source synchrotron
_refine_special_details
;
Disordered solvent molecules were not modelled and the disordered density was 
taken into account using the The MASK/OLEX2 program.
;
#These two values have been output from a single CSD field.
_refine_ls_R_factor_gt 0.0563
_refine_ls_wR_factor_gt 0.0563
_symmetry_cell_setting orthorhombic
_symmetry_space_group_name_H-M 'P 21 21 21'
_symmetry_Int_Tables_number 19
loop_
_symmetry_equiv_pos_site_id
_symmetry_equiv_pos_as_xyz
1 x,y,z
2 1/2-x,-y,1/2+z
3 -x,1/2+y,1/2-z
4 1/2+x,1/2-y,-z
_cell_length_a 15.871(3)
_cell_length_b 22.034(4)
_cell_length_c 26.043(4)
_cell_angle_alpha 90
_cell_angle_beta 90
_cell_angle_gamma 90
_cell_formula_units_Z 4
loop_
_atom_type_symbol
_atom_type_radius_bond
C 0.68
H 0.23
Co 1.26
N 0.68
O 0.68
P 1.05
loop_
_atom_site_label
_atom_site_type_symbol
_atom_site_fract_x
_atom_site_fract_y
_atom_site_fract_z
Co1 Co 0.26115(4) 0.59557(3) 0.24836(3)
P1 P 0.51697(10) 0.76633(8) 0.52335(7)
O1 O 0.3674(3) 0.6846(2) 0.41733(15)
H1 H 0.37297 0.66903 0.38810
O2 O 0.5061(2) 0.5933(2) 0.40516(18)
O3 O 0.5930(3) 0.7392(2) 0.54681(17)
O4 O 0.5303(3) 0.83351(18) 0.50460(16)
O5 O 0.2392(3) 0.88885(19) 0.3492(2)
O6 O 0.4380(3) 0.7667(2) 0.55478(17)
N1 N 0.3677(3) 0.5644(2) 0.39503(19)
O7 O 0.5695(3) 0.8251(2) 0.3342(2)
N2 N 0.2212(2) 0.5157(2) 0.23356(17)
N3 N 0.1518(3) 0.61901(19) 0.26778(17)
N4 N 0.3757(3) 0.5803(2) 0.23149(18)
O8 O 0.4995(2) 0.73445(18) 0.46943(16)
N5 N 0.2852(2) 0.67800(18) 0.25832(19)
N6 N 0.2905(3) 0.5688(2) 0.32219(18)
N7 N 0.4931(3) 0.8586(2) 0.4023(2)
H2 H 0.44308 0.86160 0.41663
O9 O -0.1173(3) 0.7192(3) 0.2332(2)
N8 N 0.2188(3) 0.9408(2) 0.2730(2)
H3 H 0.16838 0.94674 0.25943
H4 H 0.23138 0.97254 0.29252
O10 O 0.2145(3) 0.3631(3) 0.1046(2)
O11 O -0.1761(3) 0.5319(2) 0.3900(3)
C1 C 0.4067(3) 0.5255(3) 0.2174(2)
O12 O 0.7494(3) 0.5714(2) 0.2081(3)
C2 C 0.3518(3) 0.7112(2) 0.2524(2)
N9 N -0.1340(3) 0.6104(3) 0.4366(2)
H5 H -0.14947 0.59379 0.46582
H6 H -0.11078 0.64667 0.43637
C3 C 0.1414(3) 0.6791(2) 0.2931(2)
C4 C 0.3599(3) 0.5878(3) 0.3452(2)
H7 H 0.39991 0.61411 0.32970
C5 C 0.1736(4) 0.5010(3) 0.3569(2)
H8 H 0.13912 0.50434 0.32717
C6 C -0.1455(4) 0.5808(3) 0.3929(3)
C7 C 0.0358(3) 0.7227(3) 0.2296(2)
H9 H 0.06877 0.76078 0.22854
H10 H 0.06084 0.69473 0.20410
C8 C 0.4044(3) 0.6457(2) 0.4551(2)
H11 H 0.36845 0.64068 0.48632
C9 C 0.2190(3) 0.8886(3) 0.3039(3)
O13 O 0.6267(5) 0.5764(3) 0.4843(3)
H12 H 0.64803 0.58981 0.51153
C10 C 0.0475(3) 0.6943(2) 0.2832(2)
C11 C 0.2096(3) 0.7172(2) 0.2637(2)
H13 H 0.18735 0.72511 0.22844
C12 C 0.1353(4) 0.4983(3) 0.2264(2)
C13 C 0.1865(3) 0.8320(2) 0.2767(2)
H14 H 0.18036 0.84067 0.23960
H15 H 0.13009 0.82162 0.29041
C14 C 0.3972(4) 0.8183(3) 0.2883(3)
H16 H 0.44785 0.82448 0.26677
H17 H 0.37139 0.85868 0.29393
N10 N 0.0730(4) 0.3602(3) 0.0985(2)
H18 H 0.07501 0.32465 0.08318
H19 H 0.02410 0.37767 0.10440
C15 C -0.0246(3) 0.6006(3) 0.3340(2)
H20 H -0.01651 0.55609 0.33306
H21 H 0.01030 0.61682 0.36235
C16 C 0.4348(3) 0.6846(3) 0.2384(2)
C17 C 0.3327(3) 0.7785(2) 0.2568(2)
C18 C 0.0082(3) 0.6288(2) 0.2810(2)
H22 H -0.03885 0.62850 0.25546
C19 C 0.5988(3) 0.8499(3) 0.4702(3)
H23 H 0.62329 0.81191 0.45540
C20 C 0.1660(3) 0.6772(3) 0.3491(2)
H24 H 0.13333 0.64560 0.36661
H25 H 0.15429 0.71662 0.36498
H26 H 0.22621 0.66806 0.35206
C21 C 0.5110(3) 0.7249(3) 0.2327(3)
H27 H 0.49271 0.76691 0.22751
H28 H 0.54417 0.71155 0.20304
H29 H 0.54551 0.72232 0.26381
C22 C 0.4955(3) 0.6691(3) 0.4678(3)
H30 H 0.51516 0.65164 0.50118
C23 C -0.1163(4) 0.6138(3) 0.3456(3)
H31 H -0.12384 0.65803 0.35062
H32 H -0.15136 0.60135 0.31596
C24 C 0.3577(4) 0.4724(3) 0.2145(3)
H33 H 0.38621 0.43554 0.20685
C25 C 0.1460(4) 0.4663(3) 0.3976(3)
C26 C 0.2734(4) 0.4694(2) 0.2216(2)
C27 C 0.2745(4) 0.4951(3) 0.4473(3)
H34 H 0.30861 0.49164 0.47715
N11 N 0.7252(3) 0.6573(2) 0.2485(2)
H35 H 0.75836 0.67609 0.22655
H36 H 0.70056 0.67780 0.27327
C28 C 0.1346(4) 0.4346(3) 0.2027(3)
C29 C 0.3237(4) 0.8066(3) 0.2031(2)
H37 H 0.37737 0.80318 0.18475
H38 H 0.30829 0.84948 0.20640
H39 H 0.27974 0.78504 0.18403
C30 C 0.5503(4) 0.6463(3) 0.4244(3)
H40 H 0.55873 0.67775 0.39714
C31 C 0.5649(4) 0.5861(3) 0.2772(3)
H41 H 0.55962 0.62613 0.29414
H42 H 0.53352 0.55630 0.29835
N12 N -0.0583(3) 0.7787(3) 0.1748(2)
H43 H -0.10762 0.79313 0.16518
H44 H -0.01202 0.79161 0.15972
C32 C 0.2463(3) 0.7773(2) 0.2840(2)
H45 H 0.25664 0.77239 0.32165
C33 C 0.4282(4) 0.5850(3) 0.4300(3)
H46 H 0.43520 0.55384 0.45754
C34 C 0.4245(4) 0.7950(3) 0.3379(2)
H47 H 0.43613 0.75101 0.33473
H48 H 0.37832 0.80014 0.36309
C35 C 0.2976(4) 0.5292(3) 0.4050(3)
C36 C 0.4420(4) 0.6237(3) 0.2293(2)
C37 C 0.0805(3) 0.5928(2) 0.2601(2)
C38 C -0.0191(4) 0.5137(4) 0.2219(4)
H49 H -0.01856 0.49643 0.18726
H50 H -0.05794 0.54826 0.22300
H51 H -0.03751 0.48278 0.24650
C39 C 0.2234(3) 0.4087(3) 0.2188(3)
H52 H 0.24667 0.38185 0.19125
C40 C -0.0538(4) 0.7372(3) 0.2123(3)
C41 C 0.2508(4) 0.5315(2) 0.3581(2)
N13 N 0.2184(5) 0.6281(3) 0.1360(3)
C42 C 0.5228(3) 0.5897(3) 0.2234(3)
H53 H 0.56076 0.61204 0.19928
C43 C 0.5650(4) 0.8886(3) 0.4269(3)
H54 H 0.54721 0.92855 0.44047
H55 H 0.60999 0.89550 0.40118
C44 C 0.1451(4) 0.3880(3) 0.1130(3)
C45 C 0.7124(4) 0.5977(3) 0.2442(3)
C46 C 0.0658(4) 0.3913(3) 0.2197(3)
H56 H 0.05547 0.39648 0.25650
H57 H 0.08357 0.34943 0.21293
H58 H 0.01403 0.39994 0.20056
C47 C 0.4945(4) 0.5306(3) 0.1987(3)
C48 C 0.0083(3) 0.7346(3) 0.3259(3)
H59 H 0.00180 0.71065 0.35737
H60 H -0.04695 0.74929 0.31465
H61 H 0.04540 0.76926 0.33264
C49 C 0.0703(3) 0.5353(3) 0.2361(3)
C50 C 0.5010(4) 0.8258(3) 0.3576(3)
C51 C 0.6664(4) 0.8815(3) 0.5029(3)
H62 H 0.63985 0.91264 0.52436
H63 H 0.70810 0.90054 0.48030
H64 H 0.69432 0.85153 0.52487
C52 C 0.2208(4) 0.3745(3) 0.2714(3)
H65 H 0.19266 0.40068 0.29710
H66 H 0.18665 0.33723 0.26752
C53 C 0.6592(4) 0.5677(3) 0.2766(3)
H67 H 0.68124 0.57262 0.31195
H68 H 0.66224 0.52397 0.26824
C54 C 0.1926(4) 0.4645(3) 0.4420(3)
N14 N 0.3632(4) 0.3238(4) 0.3754(4)
H69 H 0.35943 0.31027 0.40710
H70 H 0.41171 0.33722 0.36362
C55 C 0.1384(4) 0.4450(3) 0.1405(3)
H71 H 0.08690 0.46662 0.12919
H72 H 0.18754 0.47085 0.13197
C56 C 0.2356(4) 0.6150(3) 0.1763(3)
C57 C 0.6338(4) 0.6215(4) 0.4446(3)
H73 H 0.66540 0.60374 0.41553
H74 H 0.66740 0.65585 0.45810
C58 C 0.2971(7) 0.3238(5) 0.3459(5)
C59 C 0.5448(4) 0.4736(3) 0.2070(4)
H75 H 0.54905 0.46534 0.24392
H76 H 0.60144 0.47884 0.19267
H77 H 0.51680 0.43949 0.18997
C60 C 0.0633(4) 0.4336(4) 0.3965(3)
H78 H 0.03297 0.44405 0.36494
H79 H 0.02956 0.44558 0.42634
H80 H 0.07322 0.38969 0.39749
O14 O 0.2312(5) 0.3059(4) 0.3608(3)
C61 C 0.4900(5) 0.5386(4) 0.1380(3)
H81 H 0.50949 0.50129 0.12132
H82 H 0.52614 0.57254 0.12759
H83 H 0.43177 0.54694 0.12773
C62 C 0.1664(6) 0.4304(4) 0.4882(3)
H84 H 0.10907 0.44231 0.49784
H85 H 0.20503 0.43954 0.51658
H86 H 0.16787 0.38681 0.48089
C63 C 0.3074(5) 0.3573(4) 0.2913(4)
H87 H 0.34246 0.39416 0.29533
H88 H 0.33563 0.32991 0.26659
#END
