####################################################################### 
# 
# This file contains crystal structure data downloaded from the 
# Cambridge Structural Database (CSD) hosted by the Cambridge 
# Crystallographic Data Centre (CCDC).
# 
# Full information about CCDC data access policies and citation 
# guidelines are available at http://www.ccdc.cam.ac.uk/access/V1 
# 
# Audit and citation data items may have been added by the CCDC. 
# Please retain this information to preserve the provenance of 
# this file and to allow appropriate attribution of the data. 
# 
#######################################################################

data_joef086
_audit_block_doi                 10.5517/cctkmlk
_database_code_depnum_ccdc_archive 'CCDC 761719'
loop_
_citation_id
_citation_doi
_citation_year
1 10.1039/c001557a 2010
_audit_update_record             
;
2010-01-14 deposited with the CCDC.	2024-07-09 downloaded from the CCDC.
;
#TrackingRef 'joef086.cif'


_audit_creation_method           SHELXL-97
_chemical_name_systematic        
;
?
;
_chemical_name_common            ?
_chemical_melting_point          ?
_chemical_formula_moiety         ?
_chemical_formula_sum            'C85 H84 N6 O16 Rh2'
_chemical_formula_weight         1651.40

loop_
_atom_type_symbol
_atom_type_description
_atom_type_scat_dispersion_real
_atom_type_scat_dispersion_imag
_atom_type_scat_source
C C 0.0033 0.0016 'International Tables Vol C Tables 4.2.6.8 and 6.1.1.4'
H H 0.0000 0.0000 'International Tables Vol C Tables 4.2.6.8 and 6.1.1.4'
N N 0.0061 0.0033 'International Tables Vol C Tables 4.2.6.8 and 6.1.1.4'
O O 0.0106 0.0060 'International Tables Vol C Tables 4.2.6.8 and 6.1.1.4'
Rh Rh -1.1178 0.9187 'International Tables Vol C Tables 4.2.6.8 and 6.1.1.4'

_symmetry_cell_setting           Orthorhombic
_symmetry_space_group_name_H-M   P2(1)2(1)2(1)

loop_
_symmetry_equiv_pos_as_xyz
'x, y, z'
'-x+1/2, -y, z+1/2'
'-x, y+1/2, -z+1/2'
'x+1/2, -y+1/2, -z'

_cell_length_a                   13.412(3)
_cell_length_b                   21.783(5)
_cell_length_c                   27.323(6)
_cell_angle_alpha                90.00
_cell_angle_beta                 90.00
_cell_angle_gamma                90.00
_cell_volume                     7982(3)
_cell_formula_units_Z            4
_cell_measurement_temperature    170(2)
_cell_measurement_reflns_used    1024
_cell_measurement_theta_min      2.42
_cell_measurement_theta_max      28.19

_exptl_crystal_description       block
_exptl_crystal_colour            purple
_exptl_crystal_size_max          0.23
_exptl_crystal_size_mid          0.21
_exptl_crystal_size_min          0.17
_exptl_crystal_density_meas      ?
_exptl_crystal_density_diffrn    1.374
_exptl_crystal_density_method    'not measured'
_exptl_crystal_F_000             3416
_exptl_absorpt_coefficient_mu    0.483
_exptl_absorpt_correction_type   multi-scan
_exptl_absorpt_correction_T_min  0.8986
_exptl_absorpt_correction_T_max  0.9206
_exptl_absorpt_process_details   'SADABS (Sheldrick, 2003)'

_exptl_special_details           
;
Data collection is performed with four batch runs at
\f = 0.00 \% (600 frames), at \f = 90.00 \%
(600 frames), at \f = 180 \% (600 frames) and
at \f = 270 \% (600 frames).
Frame width = 0.30 \& in \w. Data is
merged, corrected for decay, and treated with
multi-scan absorption corrections.
;

_diffrn_ambient_temperature      170(2)
_diffrn_radiation_wavelength     0.71073
_diffrn_radiation_type           MoK\a
_diffrn_radiation_source         'fine-focus sealed tube'
_diffrn_radiation_monochromator  graphite
_diffrn_measurement_device_type  'Bruker AXS APEX diffractometer'
_diffrn_measurement_method       \w
_diffrn_detector_area_resol_mean 836.6
_diffrn_standards_number         0
_diffrn_standards_interval_count 0
_diffrn_standards_interval_time  0
_diffrn_standards_decay_%        1
_diffrn_reflns_number            94308
_diffrn_reflns_av_R_equivalents  0.0469
_diffrn_reflns_av_sigmaI/netI    0.0329
_diffrn_reflns_limit_h_min       -17
_diffrn_reflns_limit_h_max       17
_diffrn_reflns_limit_k_min       -28
_diffrn_reflns_limit_k_max       28
_diffrn_reflns_limit_l_min       -36
_diffrn_reflns_limit_l_max       36
_diffrn_reflns_theta_min         1.49
_diffrn_reflns_theta_max         28.31
_reflns_number_total             19746
_reflns_number_gt                18922
_reflns_threshold_expression     >2sigma(I)

_computing_data_collection       'SMART (Bruker, 2002)'
_computing_cell_refinement       'SAINT (Bruker, 2002)'
_computing_data_reduction        SAINT
_computing_structure_solution    'SHELXS-97 (Sheldrick, 1990)'
_computing_structure_refinement  'SHELXL-97 (Sheldrick, 1997)'
_computing_molecular_graphics    'SHELXTL (Sheldrick, 2001)'
_computing_publication_material  'SHELXTL (Sheldrick, 2001)'

_refine_special_details          
;
Refinement of F^2^ against ALL reflections. The weighted R-factor wR and
goodness of fit S are based on F^2^, conventional R-factors R are based
on F, with F set to zero for negative F^2^. The threshold expression of
F^2^ > 2sigma(F^2^) is used only for calculating R-factors(gt) etc. and is
not relevant to the choice of reflections for refinement. R-factors based
on F^2^ are statistically about twice as large as those based on F, and R-
factors based on ALL data will be even larger.
;

_refine_ls_structure_factor_coef Fsqd
_refine_ls_matrix_type           full
_refine_ls_weighting_scheme      calc
_refine_ls_weighting_details     
'calc w=1/[\s^2^(Fo^2^)+(0.0455P)^2^+1.8574P] where P=(Fo^2^+2Fc^2^)/3'
_atom_sites_solution_primary     direct
_atom_sites_solution_secondary   difmap
_atom_sites_solution_hydrogens   geom
_refine_ls_hydrogen_treatment    constr
_refine_ls_extinction_method     none
_refine_ls_extinction_coef       ?
_refine_ls_abs_structure_details 
'Flack H D (1983), Acta Cryst. A39, 876-881; 9019 Friedel pairs measured'
_refine_ls_abs_structure_Flack   -0.043(11)
_refine_ls_number_reflns         19746
_refine_ls_number_parameters     997
_refine_ls_number_restraints     0
_refine_ls_R_factor_all          0.0317
_refine_ls_R_factor_gt           0.0297
_refine_ls_wR_factor_ref         0.0772
_refine_ls_wR_factor_gt          0.0748
_refine_ls_goodness_of_fit_ref   1.028
_refine_ls_restrained_S_all      1.028
_refine_ls_shift/su_max          0.003
_refine_ls_shift/su_mean         0.000

loop_
_atom_site_label
_atom_site_type_symbol
_atom_site_fract_x
_atom_site_fract_y
_atom_site_fract_z
_atom_site_U_iso_or_equiv
_atom_site_adp_type
_atom_site_occupancy
_atom_site_symmetry_multiplicity
_atom_site_calc_flag
_atom_site_refinement_flags
_atom_site_disorder_assembly
_atom_site_disorder_group
Rh1 Rh 0.660739(12) 0.040182(7) 0.024841(5) 0.01842(4) Uani 1 1 d . . .
Rh2 Rh 0.655716(12) -0.015420(7) 0.100417(5) 0.01840(4) Uani 1 1 d . . .
N1 N 0.44468(14) 0.18228(8) 0.09628(7) 0.0254(4) Uani 1 1 d . . .
N2 N 0.36791(13) -0.05466(8) -0.02575(7) 0.0272(4) Uani 1 1 d . . .
N3 N 0.75296(14) -0.14986(8) -0.05314(7) 0.0250(4) Uani 1 1 d . . .
N4 N 0.92442(14) 0.15229(9) 0.09928(7) 0.0279(4) Uani 1 1 d . . .
N5 N 0.67586(14) 0.08262(8) -0.04903(6) 0.0259(4) Uani 1 1 d . . .
N6 N 0.84003(16) 0.06197(8) -0.32659(6) 0.0253(3) Uani 1 1 d . . .
O1 O 0.59629(11) 0.11223(7) 0.06112(5) 0.0222(3) Uani 1 1 d . . .
O2 O 0.58923(12) 0.05851(7) 0.13183(5) 0.0239(3) Uani 1 1 d . . .
O3 O 0.37189(13) 0.08910(8) 0.07659(7) 0.0324(4) Uani 1 1 d . . .
O4 O 0.48956(15) 0.28484(8) 0.09512(7) 0.0380(4) Uani 1 1 d . . .
O5 O 0.52319(11) 0.00839(7) 0.00902(5) 0.0237(3) Uani 1 1 d . . .
O6 O 0.51838(11) -0.04580(7) 0.07958(5) 0.0246(3) Uani 1 1 d . . .
O7 O 0.50400(14) -0.11979(9) -0.03564(7) 0.0401(4) Uani 1 1 d . . .
O8 O 0.24543(14) 0.01720(9) -0.04317(7) 0.0416(4) Uani 1 1 d . . .
O9 O 0.71988(11) -0.03660(7) -0.00648(5) 0.0241(3) Uani 1 1 d . . .
O10 O 0.71852(12) -0.08751(7) 0.06554(5) 0.0239(3) Uani 1 1 d . . .
O11 O 0.82212(14) -0.06970(8) -0.09875(6) 0.0391(4) Uani 1 1 d . . .
O12 O 0.66798(14) -0.24015(7) -0.03435(6) 0.0358(4) Uani 1 1 d . . .
O13 O 0.79771(11) 0.07243(7) 0.04509(5) 0.0238(3) Uani 1 1 d . . .
O14 O 0.79369(11) 0.01995(7) 0.11609(5) 0.0248(3) Uani 1 1 d . . .
O15 O 1.03791(15) 0.17371(10) 0.03783(8) 0.0486(5) Uani 1 1 d . . .
O16 O 0.79074(15) 0.16315(9) 0.15214(7) 0.0411(4) Uani 1 1 d . . .
C1 C 0.57326(15) 0.10502(9) 0.10563(8) 0.0219(4) Uani 1 1 d . . .
C2 C 0.52298(17) 0.16091(10) 0.12972(7) 0.0240(4) Uani 1 1 d . . .
H2A H 0.5746 0.1940 0.1299 0.029 Uiso 1 1 calc R . .
C3 C 0.48674(18) 0.15509(11) 0.18354(8) 0.0303(5) Uani 1 1 d . . .
C4 C 0.5776(2) 0.14196(14) 0.21618(9) 0.0385(6) Uani 1 1 d . . .
H4A H 0.5569 0.1415 0.2506 0.058 Uiso 1 1 calc R . .
H4B H 0.6279 0.1740 0.2113 0.058 Uiso 1 1 calc R . .
H4C H 0.6060 0.1020 0.2075 0.058 Uiso 1 1 calc R . .
C5 C 0.4066(2) 0.10574(13) 0.19004(9) 0.0390(6) Uani 1 1 d . . .
H5A H 0.3882 0.1029 0.2247 0.058 Uiso 1 1 calc R . .
H5B H 0.4327 0.0661 0.1789 0.058 Uiso 1 1 calc R . .
H5C H 0.3477 0.1166 0.1707 0.058 Uiso 1 1 calc R . .
C6 C 0.4433(2) 0.21746(13) 0.19913(10) 0.0432(6) Uani 1 1 d . . .
H6A H 0.4245 0.2158 0.2338 0.065 Uiso 1 1 calc R . .
H6B H 0.3844 0.2267 0.1793 0.065 Uiso 1 1 calc R . .
H6C H 0.4935 0.2496 0.1943 0.065 Uiso 1 1 calc R . .
C7 C 0.37792(17) 0.14428(11) 0.07085(8) 0.0272(4) Uani 1 1 d . . .
C8 C 0.32087(17) 0.18518(11) 0.03803(8) 0.0283(5) Uani 1 1 d . . .
C9 C 0.24679(18) 0.17140(13) 0.00470(9) 0.0339(5) Uani 1 1 d . . .
H9A H 0.2241 0.1306 -0.0003 0.041 Uiso 1 1 calc R . .
C10 C 0.20708(19) 0.22089(14) -0.02124(10) 0.0394(6) Uani 1 1 d . . .
H10A H 0.1558 0.2134 -0.0445 0.047 Uiso 1 1 calc R . .
C11 C 0.2395(2) 0.28020(14) -0.01434(10) 0.0422(6) Uani 1 1 d . . .
H11A H 0.2097 0.3125 -0.0325 0.051 Uiso 1 1 calc R . .
C12 C 0.3149(2) 0.29369(12) 0.01867(10) 0.0384(6) Uani 1 1 d . . .
H12A H 0.3383 0.3345 0.0231 0.046 Uiso 1 1 calc R . .
C13 C 0.35468(18) 0.24488(10) 0.04490(8) 0.0304(5) Uani 1 1 d . . .
C14 C 0.43734(18) 0.24358(10) 0.08075(8) 0.0287(4) Uani 1 1 d . . .
C15 C 0.48165(16) -0.02644(9) 0.03984(7) 0.0228(4) Uani 1 1 d . . .
C16 C 0.37282(15) -0.04257(10) 0.02729(8) 0.0257(4) Uani 1 1 d . . .
H16A H 0.3346 -0.0037 0.0323 0.031 Uiso 1 1 calc R . .
C17 C 0.31871(17) -0.09119(11) 0.05898(9) 0.0319(5) Uani 1 1 d . . .
C18 C 0.3122(2) -0.06757(15) 0.11158(10) 0.0428(6) Uani 1 1 d . . .
H18A H 0.2700 -0.0952 0.1309 0.064 Uiso 1 1 calc R . .
H18B H 0.2831 -0.0263 0.1116 0.064 Uiso 1 1 calc R . .
H18C H 0.3791 -0.0661 0.1259 0.064 Uiso 1 1 calc R . .
C19 C 0.2118(2) -0.09666(15) 0.03894(12) 0.0463(7) Uani 1 1 d . . .
H19A H 0.1736 -0.1250 0.0595 0.069 Uiso 1 1 calc R . .
H19B H 0.2140 -0.1122 0.0053 0.069 Uiso 1 1 calc R . .
H19C H 0.1800 -0.0562 0.0393 0.069 Uiso 1 1 calc R . .
C20 C 0.3687(2) -0.15436(12) 0.05644(12) 0.0433(7) Uani 1 1 d . . .
H20A H 0.3329 -0.1831 0.0777 0.065 Uiso 1 1 calc R . .
H20B H 0.4381 -0.1509 0.0674 0.065 Uiso 1 1 calc R . .
H20C H 0.3671 -0.1694 0.0227 0.065 Uiso 1 1 calc R . .
C21 C 0.43610(18) -0.08998(11) -0.05256(9) 0.0312(5) Uani 1 1 d . . .
C22 C 0.40683(19) -0.08270(12) -0.10496(9) 0.0344(5) Uani 1 1 d . . .
C23 C 0.4441(2) -0.11092(15) -0.14620(11) 0.0466(7) Uani 1 1 d . . .
H23A H 0.4978 -0.1393 -0.1445 0.056 Uiso 1 1 calc R . .
C24 C 0.3984(3) -0.09552(17) -0.19090(11) 0.0537(8) Uani 1 1 d . . .
H24A H 0.4220 -0.1138 -0.2203 0.064 Uiso 1 1 calc R . .
C25 C 0.3206(3) -0.05476(15) -0.19311(10) 0.0523(8) Uani 1 1 d . . .
H25A H 0.2917 -0.0455 -0.2240 0.063 Uiso 1 1 calc R . .
C26 C 0.2829(2) -0.02643(13) -0.15119(10) 0.0434(6) Uani 1 1 d . . .
H26A H 0.2292 0.0019 -0.1528 0.052 Uiso 1 1 calc R . .
C27 C 0.32778(18) -0.04185(11) -0.10715(9) 0.0331(5) Uani 1 1 d . . .
C28 C 0.30500(18) -0.02093(11) -0.05654(9) 0.0311(5) Uani 1 1 d . . .
C29 C 0.73571(15) -0.08290(10) 0.02000(8) 0.0226(4) Uani 1 1 d . . .
C30 C 0.78483(17) -0.13979(10) -0.00230(7) 0.0231(4) Uani 1 1 d . . .
H30A H 0.7577 -0.1754 0.0166 0.028 Uiso 1 1 calc R . .
C31 C 0.89989(18) -0.14094(11) 0.00677(9) 0.0294(5) Uani 1 1 d . . .
C32 C 0.9180(2) -0.15862(16) 0.06043(10) 0.0456(7) Uani 1 1 d . . .
H32A H 0.9892 -0.1549 0.0679 0.068 Uiso 1 1 calc R . .
H32B H 0.8966 -0.2011 0.0658 0.068 Uiso 1 1 calc R . .
H32C H 0.8798 -0.1312 0.0818 0.068 Uiso 1 1 calc R . .
C33 C 0.9489(2) -0.07824(14) -0.00235(13) 0.0488(7) Uani 1 1 d . . .
H33A H 1.0209 -0.0814 0.0033 0.073 Uiso 1 1 calc R . .
H33B H 0.9204 -0.0478 0.0200 0.073 Uiso 1 1 calc R . .
H33C H 0.9368 -0.0655 -0.0362 0.073 Uiso 1 1 calc R . .
C34 C 0.9468(2) -0.18981(15) -0.02525(12) 0.0520(8) Uani 1 1 d . . .
H34A H 1.0181 -0.1929 -0.0177 0.078 Uiso 1 1 calc R . .
H34B H 0.9383 -0.1787 -0.0598 0.078 Uiso 1 1 calc R . .
H34C H 0.9145 -0.2294 -0.0190 0.078 Uiso 1 1 calc R . .
C35 C 0.69526(18) -0.20260(11) -0.06368(9) 0.0285(5) Uani 1 1 d . . .
C36 C 0.67877(19) -0.20171(12) -0.11780(9) 0.0332(5) Uani 1 1 d . . .
C37 C 0.6289(2) -0.24298(14) -0.14769(11) 0.0445(7) Uani 1 1 d . . .
H37A H 0.5959 -0.2781 -0.1348 0.053 Uiso 1 1 calc R . .
C38 C 0.6297(3) -0.22999(16) -0.19792(12) 0.0533(8) Uani 1 1 d . . .
H38A H 0.5957 -0.2569 -0.2196 0.064 Uiso 1 1 calc R . .
C39 C 0.6782(2) -0.17953(16) -0.21686(10) 0.0498(8) Uani 1 1 d . . .
H39A H 0.6779 -0.1727 -0.2512 0.060 Uiso 1 1 calc R . .
C40 C 0.7277(2) -0.13846(14) -0.18624(9) 0.0408(6) Uani 1 1 d . . .
H40A H 0.7610 -0.1034 -0.1989 0.049 Uiso 1 1 calc R . .
C41 C 0.72624(19) -0.15086(12) -0.13665(8) 0.0310(5) Uani 1 1 d . . .
C42 C 0.77388(17) -0.11618(11) -0.09538(8) 0.0281(4) Uani 1 1 d . . .
C43 C 0.83285(16) 0.05640(9) 0.08611(7) 0.0226(4) Uani 1 1 d . . .
C44 C 0.93555(16) 0.08536(10) 0.09673(9) 0.0267(4) Uani 1 1 d . . .
H44A H 0.9757 0.0778 0.0665 0.032 Uiso 1 1 calc R . .
C45 C 0.99905(18) 0.05837(12) 0.13914(10) 0.0343(5) Uani 1 1 d . . .
C46 C 1.0140(2) -0.01035(13) 0.12938(12) 0.0441(6) Uani 1 1 d . . .
H46A H 1.0617 -0.0271 0.1531 0.066 Uiso 1 1 calc R . .
H46B H 1.0399 -0.0161 0.0962 0.066 Uiso 1 1 calc R . .
H46C H 0.9501 -0.0317 0.1327 0.066 Uiso 1 1 calc R . .
C47 C 0.9516(2) 0.06807(15) 0.18947(10) 0.0463(7) Uani 1 1 d . . .
H47A H 0.9489 0.1121 0.1968 0.069 Uiso 1 1 calc R . .
H47B H 0.9916 0.0472 0.2144 0.069 Uiso 1 1 calc R . .
H47C H 0.8839 0.0512 0.1895 0.069 Uiso 1 1 calc R . .
C48 C 1.1019(2) 0.08951(16) 0.13815(14) 0.0528(8) Uani 1 1 d . . .
H48A H 1.0943 0.1334 0.1450 0.079 Uiso 1 1 calc R . .
H48B H 1.1321 0.0840 0.1058 0.079 Uiso 1 1 calc R . .
H48C H 1.1449 0.0709 0.1631 0.079 Uiso 1 1 calc R . .
C49 C 0.98030(19) 0.19125(12) 0.06828(10) 0.0347(5) Uani 1 1 d . . .
C50 C 0.9490(2) 0.25479(12) 0.08075(10) 0.0361(5) Uani 1 1 d . . .
C51 C 0.9803(2) 0.31070(13) 0.06183(12) 0.0451(7) Uani 1 1 d . . .
H51A H 1.0316 0.3130 0.0379 0.054 Uiso 1 1 calc R . .
C52 C 0.9331(3) 0.36324(14) 0.07942(13) 0.0524(8) Uani 1 1 d . . .
H52A H 0.9532 0.4023 0.0676 0.063 Uiso 1 1 calc R . .
C53 C 0.8580(3) 0.35960(13) 0.11365(13) 0.0522(8) Uani 1 1 d . . .
H53A H 0.8267 0.3963 0.1245 0.063 Uiso 1 1 calc R . .
C54 C 0.8268(2) 0.30331(13) 0.13282(11) 0.0438(6) Uani 1 1 d . . .
H54A H 0.7755 0.3009 0.1567 0.053 Uiso 1 1 calc R . .
C55 C 0.87401(19) 0.25131(12) 0.11534(9) 0.0348(5) Uani 1 1 d . . .
C56 C 0.85444(18) 0.18538(11) 0.12622(9) 0.0307(5) Uani 1 1 d . . .
C57 C 0.70275(18) 0.08197(10) -0.08872(8) 0.0270(4) Uani 1 1 d . . .
C58 C 0.73329(19) 0.08005(11) -0.13943(8) 0.0292(5) Uani 1 1 d . . .
C59 C 0.6925(2) 0.03507(13) -0.16935(9) 0.0428(6) Uani 1 1 d . . .
H59A H 0.6459 0.0064 -0.1566 0.051 Uiso 1 1 calc R . .
C60 C 0.7206(2) 0.03244(13) -0.21805(9) 0.0444(7) Uani 1 1 d . . .
H60A H 0.6930 0.0021 -0.2390 0.053 Uiso 1 1 calc R . .
C61 C 0.78915(19) 0.07437(11) -0.23606(8) 0.0296(5) Uani 1 1 d . . .
C62 C 0.8305(2) 0.11928(11) -0.20615(8) 0.0321(5) Uani 1 1 d . . .
H62A H 0.8774 0.1478 -0.2189 0.039 Uiso 1 1 calc R . .
C63 C 0.8020(2) 0.12182(12) -0.15719(8) 0.0324(5) Uani 1 1 d . . .
H63A H 0.8296 0.1521 -0.1361 0.039 Uiso 1 1 calc R . .
C64 C 0.81915(18) 0.06922(11) -0.28671(8) 0.0289(5) Uani 1 1 d . . .
C65 C 0.4751(4) 0.18664(19) 0.34415(13) 0.0679(11) Uani 1 1 d . . .
H65A H 0.5228 0.1612 0.3284 0.082 Uiso 1 1 calc R . .
C66 C 0.3962(5) 0.1610(2) 0.36762(17) 0.0855(14) Uani 1 1 d . . .
H66A H 0.3893 0.1176 0.3685 0.103 Uiso 1 1 calc R . .
C67 C 0.3260(5) 0.1974(4) 0.3902(2) 0.115(2) Uani 1 1 d . . .
H67A H 0.2697 0.1793 0.4056 0.138 Uiso 1 1 calc R . .
C68 C 0.3376(6) 0.2582(5) 0.3903(3) 0.143(4) Uani 1 1 d . . .
H68A H 0.2905 0.2832 0.4070 0.171 Uiso 1 1 calc R . .
C69 C 0.4134(5) 0.2842(2) 0.3678(2) 0.096(2) Uani 1 1 d . . .
H69A H 0.4192 0.3276 0.3681 0.115 Uiso 1 1 calc R . .
C70 C 0.4860(4) 0.2495(2) 0.34318(14) 0.0754(13) Uani 1 1 d . . .
C71 C 0.5714(5) 0.2758(3) 0.31820(19) 0.124(3) Uani 1 1 d . . .
H71A H 0.5591 0.3195 0.3119 0.186 Uiso 1 1 calc R . .
H71B H 0.5819 0.2544 0.2871 0.186 Uiso 1 1 calc R . .
H71C H 0.6308 0.2714 0.3388 0.186 Uiso 1 1 calc R . .
C72 C 0.5021(2) 0.49036(15) 0.16141(14) 0.0546(8) Uani 1 1 d . . .
H72A H 0.4637 0.5222 0.1470 0.066 Uiso 1 1 calc R . .
C73 C 0.5254(3) 0.49310(17) 0.21027(15) 0.0626(9) Uani 1 1 d . . .
H73A H 0.5026 0.5269 0.2292 0.075 Uiso 1 1 calc R . .
C74 C 0.5807(3) 0.44840(19) 0.23214(14) 0.0641(10) Uani 1 1 d . . .
H74A H 0.5970 0.4511 0.2659 0.077 Uiso 1 1 calc R . .
C75 C 0.6129(3) 0.39898(16) 0.20449(13) 0.0542(8) Uani 1 1 d . . .
H75A H 0.6509 0.3673 0.2194 0.065 Uiso 1 1 calc R . .
C76 C 0.5901(2) 0.39558(13) 0.15533(12) 0.0441(6) Uani 1 1 d . . .
H76A H 0.6129 0.3616 0.1366 0.053 Uiso 1 1 calc R . .
C77 C 0.5341(2) 0.44131(12) 0.13289(12) 0.0424(6) Uani 1 1 d . . .
C78 C 0.5092(3) 0.43813(16) 0.07896(13) 0.05