####################################################################### 
# 
# This file contains crystal structure data downloaded from the 
# Cambridge Structural Database (CSD) hosted by the Cambridge 
# Crystallographic Data Centre (CCDC).
# 
# Full information about CCDC data access policies and citation 
# guidelines are available at http://www.ccdc.cam.ac.uk/access/V1 
# 
# Audit and citation data items may have been added by the CCDC. 
# Please retain this information to preserve the provenance of 
# this file and to allow appropriate attribution of the data. 
# 
#######################################################################

data_2_[(AgL)OTf].2CH3CN.13/6H2O
_audit_block_doi                 10.5517/cct2qj3
_database_code_depnum_ccdc_archive 'CCDC 747395'
loop_
_citation_id
_citation_doi
_citation_year
1 10.1039/b923365b 2010
_audit_update_record             
;
2009-09-09 deposited with the CCDC.	2024-07-09 downloaded from the CCDC.
;
#TrackingRef 'CIF-2.txt'


_audit_creation_method           SHELXL-97
_chemical_name_systematic        
;
?
;
_chemical_name_common            ?
_chemical_melting_point          ?
_chemical_formula_moiety         ?
_chemical_formula_sum            'C52 H61.33 Ag B F3 N6 O5.17 S'
_chemical_formula_weight         1060.81

loop_
_atom_type_symbol
_atom_type_description
_atom_type_scat_dispersion_real
_atom_type_scat_dispersion_imag
_atom_type_scat_source
C C 0.0181 0.0091 'International Tables Vol C Tables 4.2.6.8 and 6.1.1.4'
H H 0.0000 0.0000 'International Tables Vol C Tables 4.2.6.8 and 6.1.1.4'
N N 0.0311 0.0180 'International Tables Vol C Tables 4.2.6.8 and 6.1.1.4'
O O 0.0492 0.0322 'International Tables Vol C Tables 4.2.6.8 and 6.1.1.4'
Ag Ag 0.1306 4.2820 'International Tables Vol C Tables 4.2.6.8 and 6.1.1.4'
B B 0.0090 0.0039 'International Tables Vol C Tables 4.2.6.8 and 6.1.1.4'
S S 0.3331 0.5567 'International Tables Vol C Tables 4.2.6.8 and 6.1.1.4'
F F 0.0727 0.0534 'International Tables Vol C Tables 4.2.6.8 and 6.1.1.4'

_symmetry_cell_setting           Orthorhombic
_symmetry_space_group_name_H-M   P2(1)2(1)2(1)

loop_
_symmetry_equiv_pos_as_xyz
'x, y, z'
'-x+1/2, -y, z+1/2'
'-x, y+1/2, -z+1/2'
'x+1/2, -y+1/2, -z'

_cell_length_a                   13.6581(2)
_cell_length_b                   32.4156(5)
_cell_length_c                   40.5791(6)
_cell_angle_alpha                90.00
_cell_angle_beta                 90.00
_cell_angle_gamma                90.00
_cell_volume                     17965.8(5)
_cell_formula_units_Z            12
_cell_measurement_temperature    123(2)
_cell_measurement_reflns_used    15204
_cell_measurement_theta_min      2.73
_cell_measurement_theta_max      50.32

_exptl_crystal_description       Block
_exptl_crystal_colour            colorless
_exptl_crystal_size_max          0.10
_exptl_crystal_size_mid          0.08
_exptl_crystal_size_min          0.08
_exptl_crystal_density_meas      ?
_exptl_crystal_density_diffrn    1.177
_exptl_crystal_density_method    'not measured'
_exptl_crystal_F_000             6620
_exptl_absorpt_coefficient_mu    3.475
_exptl_absorpt_correction_type   Multi-scan
_exptl_absorpt_correction_T_min  0.620
_exptl_absorpt_correction_T_max  0.75
_exptl_absorpt_process_details   'SADABS (Sheldrick, 1996)'

_exptl_special_details           
;
?
;

_diffrn_ambient_temperature      123(2)
_diffrn_radiation_wavelength     1.54178
_diffrn_radiation_type           CuK\a
_diffrn_radiation_source         'fine-focus sealed tube'
_diffrn_radiation_monochromator  graphite
_diffrn_measurement_device_type  ?
_diffrn_measurement_method       ?
_diffrn_detector_area_resol_mean ?
_diffrn_standards_number         ?
_diffrn_standards_interval_count ?
_diffrn_standards_interval_time  ?
_diffrn_standards_decay_%        ?
_diffrn_reflns_number            35420
_diffrn_reflns_av_R_equivalents  0.0426
_diffrn_reflns_av_sigmaI/netI    0.0761
_diffrn_reflns_limit_h_min       -12
_diffrn_reflns_limit_h_max       13
_diffrn_reflns_limit_k_min       -31
_diffrn_reflns_limit_k_max       29
_diffrn_reflns_limit_l_min       -38
_diffrn_reflns_limit_l_max       37
_diffrn_reflns_theta_min         2.73
_diffrn_reflns_theta_max         50.32
_reflns_number_total             15204
_reflns_number_gt                12187
_reflns_threshold_expression     >2sigma(I)

_computing_data_collection       'SMART (Bruker, 1997)'
_computing_cell_refinement       'SAINT (Bruker, 1999)'
_computing_data_reduction        SAINT
_computing_structure_solution    'SHELXS-97 (Sheldrick, 1990)'
_computing_structure_refinement  'SHELXL-97 (Sheldrick, 1997)'
_computing_molecular_graphics    'SHELXTL-PLUS (Sheldrick, 1990)'
_computing_publication_material  SHELXL-97

_refine_special_details          
;
Refinement of F^2^ against ALL reflections. The weighted R-factor wR and
goodness of fit S are based on F^2^, conventional R-factors R are based
on F, with F set to zero for negative F^2^. The threshold expression of
F^2^ > 2sigma(F^2^) is used only for calculating R-factors(gt) etc. and is
not relevant to the choice of reflections for refinement. R-factors based
on F^2^ are statistically about twice as large as those based on F, and R-
factors based on ALL data will be even larger.
;

_refine_ls_structure_factor_coef Fsqd
_refine_ls_matrix_type           full
_refine_ls_weighting_scheme      calc
_refine_ls_weighting_details     
'calc w=1/[\s^2^(Fo^2^)+(0.1700P)^2^+0.0000P] where P=(Fo^2^+2Fc^2^)/3'
_atom_sites_solution_primary     direct
_atom_sites_solution_secondary   difmap
_atom_sites_solution_hydrogens   geom
_refine_ls_hydrogen_treatment    constr
_refine_ls_extinction_method     none
_refine_ls_extinction_coef       ?
_refine_ls_abs_structure_details 'Flack H D (1983), Acta Cryst. A39, 876-881'
_refine_ls_abs_structure_Flack   0.057(12)
_refine_ls_number_reflns         15204
_refine_ls_number_parameters     1464
_refine_ls_number_restraints     79
_refine_ls_R_factor_all          0.1155
_refine_ls_R_factor_gt           0.0968
_refine_ls_wR_factor_ref         0.2562
_refine_ls_wR_factor_gt          0.2381
_refine_ls_goodness_of_fit_ref   1.164
_refine_ls_restrained_S_all      1.191
_refine_ls_shift/su_max          0.000
_refine_ls_shift/su_mean         0.000

loop_
_atom_site_label
_atom_site_type_symbol
_atom_site_fract_x
_atom_site_fract_y
_atom_site_fract_z
_atom_site_U_iso_or_equiv
_atom_site_adp_type
_atom_site_occupancy
_atom_site_symmetry_multiplicity
_atom_site_calc_flag
_atom_site_refinement_flags
_atom_site_disorder_assembly
_atom_site_disorder_group
Ag1 Ag -0.31588(8) 0.30431(4) 0.86983(3) 0.0860(4) Uani 1 1 d . . .
Ag2 Ag 0.23574(12) 0.24452(4) 0.49934(4) 0.1134(6) Uani 1 1 d . . .
Ag3 Ag 1.05127(8) -0.21307(4) 0.37639(3) 0.0840(4) Uani 1 1 d . . .
B1 B 0.3134(12) 0.4195(5) 1.0022(4) 0.065(4) Uani 1 1 d . . .
B2 B -0.2823(14) 0.0914(5) 0.6627(4) 0.072(5) Uani 1 1 d . . .
B3 B 0.7199(11) 0.0861(5) 0.3249(3) 0.053(4) Uani 1 1 d . . .
N1 N -0.1738(8) 0.3142(4) 0.8979(3) 0.112(5) Uani 1 1 d G . .
C1 C -0.1562(8) 0.2954(4) 0.9281(3) 0.108(6) Uani 1 1 d G . .
H1A H -0.1969 0.2743 0.9354 0.129 Uiso 1 1 calc R . .
C2 C -0.0778(9) 0.3081(4) 0.9474(3) 0.107(6) Uani 1 1 d G . .
H2A H -0.0660 0.2956 0.9676 0.128 Uiso 1 1 calc R . .
C3 C -0.0170(7) 0.3397(4) 0.9365(3) 0.087(5) Uani 1 1 d G . .
C4 C -0.0346(10) 0.3585(4) 0.9063(3) 0.141(9) Uani 1 1 d G . .
H4A H 0.0061 0.3796 0.8990 0.169 Uiso 1 1 calc R . .
C5 C -0.1130(11) 0.3457(5) 0.8870(3) 0.153(10) Uani 1 1 d G . .
H5A H -0.1248 0.3583 0.8668 0.184 Uiso 1 1 calc R . .
C6 C 0.0652(13) 0.3544(5) 0.9578(4) 0.082(5) Uani 1 1 d . . .
C7 C 0.0460(11) 0.3816(5) 0.9839(4) 0.075(4) Uani 1 1 d . . .
C8 C 0.1246(11) 0.4015(4) 0.9988(3) 0.068(4) Uani 1 1 d . . .
C9 C 0.2245(10) 0.3924(4) 0.9882(3) 0.055(3) Uani 1 1 d . . .
C10 C 0.2396(10) 0.3640(4) 0.9639(3) 0.065(4) Uani 1 1 d . . .
C11 C 0.1621(11) 0.3446(5) 0.9486(4) 0.074(4) Uani 1 1 d . . .
C12 C 0.1759(11) 0.3097(6) 0.9222(5) 0.107(6) Uani 1 1 d D . .
H12A H 0.2445 0.3057 0.9181 0.160 Uiso 1 1 calc R . .
H12B H 0.1440 0.3177 0.9021 0.160 Uiso 1 1 calc R . .
H12C H 0.1477 0.2846 0.9302 0.160 Uiso 1 1 calc R . .
C13 C 0.3447(10) 0.3552(5) 0.9519(4) 0.086(5) Uani 1 1 d D . .
H13A H 0.3431 0.3350 0.9347 0.129 Uiso 1 1 calc R . .
H13B H 0.3831 0.3449 0.9700 0.129 Uiso 1 1 calc R . .
H13C H 0.3734 0.3802 0.9438 0.129 Uiso 1 1 calc R . .
C14 C 0.1070(9) 0.4319(5) 1.0281(3) 0.074(4) Uani 1 1 d D . .
H14A H 0.0380 0.4341 1.0323 0.111 Uiso 1 1 calc R . .
H14B H 0.1328 0.4586 1.0226 0.111 Uiso 1 1 calc R . .
H14C H 0.1393 0.4217 1.0474 0.111 Uiso 1 1 calc R . .
C15 C -0.0598(9) 0.3912(5) 0.9943(4) 0.091(5) Uani 1 1 d D . .
H15A H -0.0593 0.4101 1.0125 0.137 Uiso 1 1 calc R . .
H15B H -0.0918 0.3661 1.0008 0.137 Uiso 1 1 calc R . .
H15C H -0.0944 0.4032 0.9761 0.137 Uiso 1 1 calc R . .
N2 N 0.8189(8) 0.3087(4) 1.0918(3) 0.122(3) Uani 1 1 d G . .
C16 C 0.7560(10) 0.3362(4) 1.1074(2) 0.122(3) Uani 1 1 d G . .
H16A H 0.7673 0.3439 1.1291 0.146 Uiso 1 1 calc R . .
C17 C 0.6761(9) 0.3522(4) 1.0904(3) 0.122(3) Uani 1 1 d G . .
H17A H 0.6339 0.3706 1.1008 0.146 Uiso 1 1 calc R . .
C18 C 0.6591(9) 0.3407(4) 1.0579(3) 0.122(3) Uani 1 1 d G . .
C19 C 0.7221(10) 0.3132(5) 1.0424(2) 0.122(3) Uani 1 1 d G . .
H19A H 0.7108 0.3055 1.0206 0.146 Uiso 1 1 calc R . .
C20 C 0.8020(9) 0.2972(4) 1.0593(3) 0.122(3) Uani 1 1 d G . .
H20A H 0.8441 0.2788 1.0489 0.146 Uiso 1 1 calc R . .
C21 C 0.5711(11) 0.3590(5) 1.0420(4) 0.073(4) Uani 1 1 d . . .
C22 C 0.4817(11) 0.3450(4) 1.0504(3) 0.064(4) Uani 1 1 d . . .
C23 C 0.3970(10) 0.3640(4) 1.0391(3) 0.058(4) Uani 1 1 d D . .
C24 C 0.4028(11) 0.3963(4) 1.0155(3) 0.064(4) Uani 1 1 d . . .
C25 C 0.4967(9) 0.4088(4) 1.0047(3) 0.063(4) Uani 1 1 d . . .
C26 C 0.5827(11) 0.3898(6) 1.0188(4) 0.079(5) Uani 1 1 d . . .
C27 C 0.6888(12) 0.4022(6) 1.0093(5) 0.113(6) Uani 1 1 d D . .
H27A H 0.6870 0.4233 0.9927 0.170 Uiso 1 1 calc R . .
H27B H 0.7229 0.3785 1.0009 0.170 Uiso 1 1 calc R . .
H27C H 0.7222 0.4125 1.0284 0.170 Uiso 1 1 calc R . .
C28 C 0.5055(11) 0.4406(5) 0.9787(4) 0.084(5) Uani 1 1 d D . .
H28A H 0.5735 0.4459 0.9744 0.127 Uiso 1 1 calc R . .
H28B H 0.4745 0.4656 0.9860 0.127 Uiso 1 1 calc R . .
H28C H 0.4743 0.4310 0.9590 0.127 Uiso 1 1 calc R . .
C29 C 0.2936(10) 0.3498(5) 1.0496(4) 0.090(5) Uani 1 1 d D . .
H29A H 0.2990 0.3281 1.0656 0.135 Uiso 1 1 calc R . .
H29B H 0.2589 0.3397 1.0306 0.135 Uiso 1 1 calc R . .
H29C H 0.2586 0.3726 1.0589 0.135 Uiso 1 1 calc R . .
C30 C 0.4785(12) 0.3066(5) 1.0748(4) 0.101(5) Uani 1 1 d D . .
H30A H 0.4116 0.2992 1.0791 0.152 Uiso 1 1 calc R . .
H30B H 0.5100 0.3138 1.0952 0.152 Uiso 1 1 calc R . .
H30C H 0.5119 0.2837 1.0650 0.152 Uiso 1 1 calc R . .
N3 N 0.2785(8) 0.6865(2) 1.0018(3) 0.079(4) Uani 1 1 d G . .
C31 C 0.2223(7) 0.6649(3) 1.0245(2) 0.080(4) Uani 1 1 d G . .
H31A H 0.1810 0.6790 1.0388 0.096 Uiso 1 1 calc R . .
C32 C 0.2279(7) 0.6221(3) 1.0259(2) 0.073(4) Uani 1 1 d G . .
H32A H 0.1902 0.6076 1.0411 0.088 Uiso 1 1 calc R . .
C33 C 0.2896(8) 0.6010(2) 1.0045(3) 0.066(4) Uani 1 1 d G . .
C34 C 0.3459(7) 0.6226(3) 0.9818(2) 0.085(5) Uani 1 1 d G . .
H34A H 0.3872 0.6085 0.9675 0.102 Uiso 1 1 calc R . .
C35 C 0.3403(7) 0.6654(3) 0.9804(2) 0.081(5) Uani 1 1 d G . .
H35A H 0.3779 0.6799 0.9652 0.097 Uiso 1 1 calc R . .
C36 C 0.2961(9) 0.5547(4) 1.0042(3) 0.062(4) Uani 1 1 d . . .
C37 C 0.3316(9) 0.5331(5) 1.0314(3) 0.058(3) Uani 1 1 d . . .
C38 C 0.3317(9) 0.4909(5) 1.0312(3) 0.055(3) Uani 1 1 d . . .
C39 C 0.3015(9) 0.4678(4) 1.0043(3) 0.054(3) Uani 1 1 d . . .
C40 C 0.2689(9) 0.4903(4) 0.9754(3) 0.054(3) Uani 1 1 d . . .
C41 C 0.2608(9) 0.5326(5) 0.9763(3) 0.064(4) Uani 1 1 d . . .
C42 C 0.2077(13) 0.5560(5) 0.9484(3) 0.081(5) Uani 1 1 d . . .
H42A H 0.2072 0.5850 0.9533 0.122 Uiso 1 1 calc R . .
H42B H 0.1417 0.5462 0.9466 0.122 Uiso 1 1 calc R . .
H42C H 0.2414 0.5515 0.9279 0.122 Uiso 1 1 calc R . .
C43 C 0.2413(11) 0.4684(5) 0.9435(3) 0.074(4) Uani 1 1 d . . .
H43A H 0.2215 0.4884 0.9274 0.111 Uiso 1 1 calc R . .
H43B H 0.1882 0.4497 0.9476 0.111 Uiso 1 1 calc R . .
H43C H 0.2967 0.4533 0.9353 0.111 Uiso 1 1 calc R . .
C44 C 0.3643(11) 0.4661(4) 1.0629(3) 0.077(4) Uani 1 1 d D . .
H44A H 0.3821 0.4851 1.0800 0.115 Uiso 1 1 calc R . .
H44B H 0.4196 0.4490 1.0577 0.115 Uiso 1 1 calc R . .
H44C H 0.3111 0.4491 1.0703 0.115 Uiso 1 1 calc R . .
C45 C 0.3804(12) 0.5595(4) 1.0593(3) 0.073(4) Uani 1 1 d D . .
H45A H 0.4040 0.5415 1.0764 0.109 Uiso 1 1 calc R . .
H45B H 0.3330 0.5782 1.0684 0.109 Uiso 1 1 calc R . .
H45C H 0.4341 0.5749 1.0503 0.109 Uiso 1 1 calc R . .
N4 N -0.3298(6) 0.2591(3) 0.8297(2) 0.079(4) Uani 1 1 d G . .
C46 C -0.3525(9) 0.2710(3) 0.7977(2) 0.109(6) Uani 1 1 d G . .
H46A H -0.3708 0.2981 0.7933 0.131 Uiso 1 1 calc R . .
C47 C -0.3479(10) 0.2424(4) 0.77215(17) 0.105(6) Uani 1 1 d G . .
H47A H -0.3631 0.2504 0.7507 0.126 Uiso 1 1 calc R . .
C48 C -0.3206(8) 0.2019(3) 0.7786(2) 0.078(5) Uani 1 1 d G . .
C49 C -0.2979(8) 0.1900(2) 0.8106(2) 0.094(5) Uani 1 1 d G . .
H49A H -0.2796 0.1629 0.8150 0.113 Uiso 1 1 calc R . .
C50 C -0.3025(7) 0.2186(3) 0.83615(17) 0.069(4) Uani 1 1 d G . .
H50A H -0.2873 0.2106 0.8576 0.083 Uiso 1 1 calc R . .
C51 C -0.3125(12) 0.1703(5) 0.7500(4) 0.077(4) Uani 1 1 d . . .
C52 C -0.3945(14) 0.1569(6) 0.7356(4) 0.093(5) Uani 1 1 d . . .
C53 C -0.3873(11) 0.1301(5) 0.7073(4) 0.075(4) Uani 1 1 d . . .
C54 C -0.2933(12) 0.1167(5) 0.6970(3) 0.070(4) Uani 1 1 d . . .
C55 C -0.2108(13) 0.1300(5) 0.7135(3) 0.079(5) Uani 1 1 d . . .
C56 C -0.2147(10) 0.1570(4) 0.7410(3) 0.068(4) Uani 1 1 d . . .
C57 C -0.1287(11) 0.1726(5) 0.7587(3) 0.081(5) Uani 1 1 d . . .
H57A H -0.1495 0.1906 0.7761 0.122 Uiso 1 1 calc R . .
H57B H -0.0873 0.1874 0.7437 0.122 Uiso 1 1 calc R . .
H57C H -0.0930 0.1498 0.7679 0.122 Uiso 1 1 calc R . .
C58 C -0.1065(12) 0.1128(5) 0.7071(4) 0.086(5) Uani 1 1 d . . .
H58A H -0.1081 0.0945 0.6884 0.128 Uiso 1 1 calc R . .
H58B H -0.0846 0.0979 0.7262 0.128 Uiso 1 1 calc R . .
H58C H -0.0625 0.1352 0.7027 0.128 Uiso 1 1 calc R . .
C59 C -0.4819(11) 0.1177(6) 0.6905(5) 0.100(6) Uani 1 1 d . . .
H59A H -0.4675 0.1001 0.6721 0.149 Uiso 1 1 calc R . .
H59B H -0.5154 0.1419 0.6829 0.149 Uiso 1 1 calc R . .
H59C H -0.5228 0.1032 0.7058 0.149 Uiso 1 1 calc R . .
C60 C -0.4940(12) 0.1679(7) 0.7478(6) 0.129(8) Uani 1 1 d . . .
H60A H -0.4883 0.1855 0.7667 0.193 Uiso 1 1 calc R . .
H60B H -0.5286 0.1432 0.7537 0.193 Uiso 1 1 calc R . .
H60C H -0.5293 0.1822 0.7307 0.193 Uiso 1 1 calc R . .
N5 N 0.1336(9) 0.2043(3) 0.5296(3) 0.112(5) Uani 1 1 d GU . .
C61 C 0.1598(7) 0.1974(3) 0.5623(3) 0.097(5) Uani 1 1 d G . .
H61A H 0.2198 0.2068 0.5701 0.116 Uiso 1 1 calc R . .
C62 C 0.0962(8) 0.1767(3) 0.5832(2) 0.070(4) Uani 1 1 d G . .
H62A H 0.1137 0.1721 0.6051 0.084 Uiso 1 1 calc R . .
C63 C 0.0064(7) 0.1627(3) 0.5716(2) 0.078(4) Uani 1 1 d G . .
C64 C -0.0198(8) 0.1696(4) 0.5389(3) 0.118(7) Uani 1 1 d G . .
H64A H -0.0799 0.1603 0.5311 0.142 Uiso 1 1 calc R . .
C65 C 0.0438(11) 0.1904(4) 0.5179(2) 0.123(7) Uani 1 1 d GU . .
H65A H 0.0263 0.1950 0.4961 0.148 Uiso 1 1 calc R . .
C66 C -0.0669(11) 0.1433(6) 0.5943(4) 0.075(4) Uani 1 1 d . . .
C67 C -0.0572(14) 0.1026(5) 0.6060(4) 0.078(5) Uani 1 1 d . . .
C68 C -0.1275(11) 0.0856(4) 0.6257(3) 0.059(3) Uani 1 1 d . . .
C69 C -0.2069(11) 0.1099(5) 0.6372(3) 0.066(4) Uani 1 1 d . . .
C70 C -0.2164(9) 0.1502(4) 0.6262(4) 0.066(4) Uani 1 1 d . . .
C71 C -0.1477(14) 0.1672(5) 0.6051(4) 0.082(5) Uani 1 1 d . . .
C72 C -0.1622(12) 0.2122(5) 0.5942(5) 0.092(5) Uani 1 1 d . . .
H72A H -0.2213 0.2228 0.6038 0.138 Uiso 1 1 calc R . .
H72B H -0.1667 0.2134 0.5707 0.138 Uiso 1 1 calc R . .
H72C H -0.1075 0.2284 0.6015 0.138 Uiso 1 1 calc R . .
C73 C -0.3071(13) 0.1768(5) 0.6349(5) 0.102(5) Uani 1 1 d . . .
H73A H -0.3482 0.1620 0.6500 0.153 Uiso 1 1 calc R . .
H73B H -0.3432 0.1827 0.6151 0.153 Uiso 1 1 calc R . .
H73C H -0.2861 0.2022 0.6448 0.153 Uiso 1 1 calc R . .
C74 C -0.1127(12) 0.0419(5) 0.6366(3) 0.075(4) Uani 1 1 d . . .
H74A H -0.1665 0.0336 0.6503 0.113 Uiso 1 1 calc R . .
H74B H -0.0528 0.0399 0.6488 0.113 Uiso 1 1 calc R . .
H74C H -0.1094 0.0243 0.6176 0.113 Uiso 1 1 calc R . .
C75 C 0.0288(11) 0.0784(5) 0.5927(4) 0.075(4) Uani 1 1 d . . .
H75A H 0.0279 0.0510 0.6018 0.112 Uiso 1 1 calc R . .
H75B H 0.0887 0.0919 0.5987 0.112 Uiso 1 1 calc R . .
H75C H 0.0242 0.0768 0.5691 0.112 Uiso 1 1 calc R . .
N6 N -0.6084(7) -0.1341(2) 0.6324(2) 0.0868(18) Uani 1 1 d GU . .
C76 C -0.6357(6) -0.1066(3) 0.6570(2) 0.0868(18) Uani 1 1 d GU . .
H76A H -0.6874 -0.1131 0.6710 0.104 Uiso 1 1 calc R . .
C77 C -0.5857(8) -0.0696(3) 0.6607(2) 0.0868(18) Uani 1 1 d G . .
H77A H -0.6040 -0.0512 0.6772 0.104 Uiso 1 1 calc R . .
C78 C -0.5084(7) -0.0600(3) 0.6398(3) 0.0868(18) Uani 1 1 d G . .
C79 C -0.4811(7) -0.0875(3) 0.6152(2) 0.0868(18) Uani 1 1 d G . .
H79A H -0.4294 -0.0810 0.6012 0.104 Uiso 1 1 calc R . .
C80 C -0.5311(7) -0.1245(3) 0.6115(2) 0.0868(18) Uani 1 1 d G . .
H80A H -0.5128 -0.1429 0.5950 0.104 Uiso 1 1 calc R . .
C81 C -0.4535(10) -0.0202(4) 0.6444(3) 0.060(4) Uani 1 1 d . . .
C82 C -0.3875(13) -0.0172(5) 0.6731(3) 0.076(4) Uani 1 1 d D . .
C83 C -0.3374(11) 0.0183(5) 0.6783(3) 0.069(4) Uani 1 1 d D . .
C84 C -0.3453(11) 0.0517(5) 0.6569(3) 0.068(4) Uani 1 1 d . . .
C85 C -0.4072(11) 0.0468(4) 0.6281(3) 0.068(4) Uani 1 1 d D . .
C86 C -0.4612(11) 0.0118(5) 0.6233(3) 0.065(4) Uani 1 1 d . . .
C87 C -0.5316(14) 0.0084(5) 0.5942(4) 0.104(6) Uani 1 1 d D . .
H87A H -0.5643 0.0343 0.5910 0.157 Uiso 1 1 calc R . .
H87B H -0.5791 -0.0127 0.5986 0.157 Uiso 1 1 calc R . .
H87C H -0.4955 0.0015 0.5746 0.157 Uiso 1 1 calc R . .
C88 C -0.4210(14) 0.0850(4) 0.6051(3) 0.088(5) Uani 1 1 d D . .
H88A H -0.4624 0.0776 0.5869 0.133 Uiso 1 1 calc R . .
H88B H -0.3584 0.0937 0.5969 0.133 Uiso 1 1 calc R . .
H88C H -0.4507 0.1070 0.6173 0.133 Uiso 1 1 calc R . .
C89 C -0.2685(12) 0.0211(5) 0.7088(3) 0.087(5) Uani 1 1 d D . .
H89A H -0.2713 -0.0043 0.7209 0.1