####################################################################### 
# 
# This file contains crystal structure data downloaded from the 
# Cambridge Structural Database (CSD) hosted by the Cambridge 
# Crystallographic Data Centre (CCDC).
# 
# Full information about CCDC data access policies and citation 
# guidelines are available at http://www.ccdc.cam.ac.uk/access/V1 
# 
# Audit and citation data items may have been added by the CCDC. 
# Please retain this information to preserve the provenance of 
# this file and to allow appropriate attribution of the data. 
# 
#######################################################################

data_F-MOF4
_audit_block_doi                 10.5517/cct0bpt
_database_code_depnum_ccdc_archive 'CCDC 745106'
loop_
_citation_id
_citation_doi
_citation_year
1 10.1039/b917483d 2010
2 10.1021/cg101414x 2011
_audit_update_record             
;
2009-08-21 deposited with the CCDC.	2024-07-09 downloaded from the CCDC.
;

_audit_creation_method           SHELXL-97
_chemical_name_systematic        
;
?
;
_chemical_name_common            'F-MOF 4'
_chemical_melting_point          ?
_chemical_formula_moiety         
'2(C23 H15 Cu F6 N O4), 0.82(C6 H6 N), 3(C3 H7 N O)'
_chemical_formula_sum            'C59.94 H55.94 Cu2 F12 N5.82 O11'
_chemical_formula_weight         1389.02

loop_
_atom_type_symbol
_atom_type_description
_atom_type_scat_dispersion_real
_atom_type_scat_dispersion_imag
_atom_type_scat_source
C C 0.0033 0.0016 'International Tables Vol C Tables 4.2.6.8 and 6.1.1.4'
Cu Cu 0.3201 1.2651 'International Tables Vol C Tables 4.2.6.8 and 6.1.1.4'
F F 0.0171 0.0103 'International Tables Vol C Tables 4.2.6.8 and 6.1.1.4'
N N 0.0061 0.0033 'International Tables Vol C Tables 4.2.6.8 and 6.1.1.4'
O O 0.0106 0.0060 'International Tables Vol C Tables 4.2.6.8 and 6.1.1.4'
H H 0.0000 0.0000 'International Tables Vol C Tables 4.2.6.8 and 6.1.1.4'

_symmetry_cell_setting           Monoclinic
_symmetry_space_group_name_H-M   P2(1)/c

loop_
_symmetry_equiv_pos_as_xyz
'x, y, z'
'-x, y+1/2, -z+1/2'
'-x, -y, -z'
'x, -y-1/2, z-1/2'

_cell_length_a                   25.643(8)
_cell_length_b                   11.004(3)
_cell_length_c                   24.351(7)
_cell_angle_alpha                90.00
_cell_angle_beta                 115.518(5)
_cell_angle_gamma                90.00
_cell_volume                     6201(3)
_cell_formula_units_Z            4
_cell_measurement_temperature    293(2)
_cell_measurement_reflns_used    5776
_cell_measurement_theta_min      2.40
_cell_measurement_theta_max      25.36

_exptl_crystal_description       Cubic
_exptl_crystal_colour            Green
_exptl_crystal_size_max          0.20
_exptl_crystal_size_mid          0.19
_exptl_crystal_size_min          0.18
_exptl_crystal_density_meas      ?
_exptl_crystal_density_diffrn    1.488
_exptl_crystal_density_method    'not measured'
_exptl_crystal_F_000             2842
_exptl_absorpt_coefficient_mu    0.785
_exptl_absorpt_correction_type   multi-scan
_exptl_absorpt_correction_T_min  0.8588
_exptl_absorpt_correction_T_max  0.8716
_exptl_absorpt_process_details   'Blessing, Acta Cryst. (1995) A51 33-58'

_exptl_special_details           
;
?
;

_diffrn_ambient_temperature      293(2)
_diffrn_radiation_wavelength     0.71073
_diffrn_radiation_type           MoK\a
_diffrn_radiation_source         'fine-focus sealed tube'
_diffrn_radiation_monochromator  graphite
_diffrn_measurement_device_type  'phi and omega scans'
_diffrn_measurement_method       'CCD area detector'
_diffrn_detector_area_resol_mean ?
_diffrn_standards_number         ?
_diffrn_standards_interval_count ?
_diffrn_standards_interval_time  ?
_diffrn_standards_decay_%        ?
_diffrn_reflns_number            44864
_diffrn_reflns_av_R_equivalents  0.0665
_diffrn_reflns_av_sigmaI/netI    0.0801
_diffrn_reflns_limit_h_min       -31
_diffrn_reflns_limit_h_max       31
_diffrn_reflns_limit_k_min       -13
_diffrn_reflns_limit_k_max       13
_diffrn_reflns_limit_l_min       -29
_diffrn_reflns_limit_l_max       30
_diffrn_reflns_theta_min         0.88
_diffrn_reflns_theta_max         26.06
_reflns_number_total             12226
_reflns_number_gt                7364
_reflns_threshold_expression     >2sigma(I)

_computing_data_collection       'Bruker SMART'
_computing_cell_refinement       'Bruker SMART'
_computing_data_reduction        'Bruker SAINT'
_computing_structure_solution    'SHELXS-97 (Sheldrick, 1990)'
_computing_structure_refinement  'SHELXL-97 (Sheldrick, 1997)'
_computing_molecular_graphics    'Bruker SHELXTL'
_computing_publication_material  'Bruker SHELXTL'

_refine_special_details          
;
Refinement of F^2^ against ALL reflections. The weighted R-factor wR and
goodness of fit S are based on F^2^, conventional R-factors R are based
on F, with F set to zero for negative F^2^. The threshold expression of
F^2^ > 2sigma(F^2^) is used only for calculating R-factors(gt) etc. and is
not relevant to the choice of reflections for refinement. R-factors based
on F^2^ are statistically about twice as large as those based on F, and R-
factors based on ALL data will be even larger.
;

_refine_ls_structure_factor_coef Fsqd
_refine_ls_matrix_type           full
_refine_ls_weighting_scheme      calc
_refine_ls_weighting_details     
'calc w=1/[\s^2^(Fo^2^)+(0.0607P)^2^+0.0000P] where P=(Fo^2^+2Fc^2^)/3'
_atom_sites_solution_primary     direct
_atom_sites_solution_secondary   difmap
_atom_sites_solution_hydrogens   geom
_refine_ls_hydrogen_treatment    constr
_refine_ls_extinction_method     none
_refine_ls_extinction_coef       ?
_refine_ls_number_reflns         12226
_refine_ls_number_parameters     804
_refine_ls_number_restraints     3
_refine_ls_R_factor_all          0.0990
_refine_ls_R_factor_gt           0.0557
_refine_ls_wR_factor_ref         0.1439
_refine_ls_wR_factor_gt          0.1278
_refine_ls_goodness_of_fit_ref   0.986
_refine_ls_restrained_S_all      0.986
_refine_ls_shift/su_max          0.001
_refine_ls_shift/su_mean         0.000

loop_
_atom_site_label
_atom_site_type_symbol
_atom_site_fract_x
_atom_site_fract_y
_atom_site_fract_z
_atom_site_U_iso_or_equiv
_atom_site_adp_type
_atom_site_occupancy
_atom_site_symmetry_multiplicity
_atom_site_calc_flag
_atom_site_refinement_flags
_atom_site_disorder_assembly
_atom_site_disorder_group
C1 C 0.43389(16) 0.9521(3) 0.38938(17) 0.0145(8) Uani 1 1 d . . .
C2 C 0.39531(15) 0.9138(3) 0.32562(17) 0.0145(8) Uani 1 1 d . . .
C3 C 0.34683(16) 0.9811(3) 0.28998(18) 0.0209(9) Uani 1 1 d . . .
H3 H 0.3385 1.0518 0.3056 0.025 Uiso 1 1 calc R . .
C4 C 0.31041(16) 0.9447(3) 0.23119(17) 0.0200(9) Uani 1 1 d . . .
H4 H 0.2779 0.9908 0.2081 0.024 Uiso 1 1 calc R . .
C5 C 0.32203(15) 0.8396(3) 0.20637(17) 0.0149(8) Uani 1 1 d . . .
C6 C 0.37094(16) 0.7718(3) 0.24347(17) 0.0179(9) Uani 1 1 d . . .
H6 H 0.3793 0.7004 0.2284 0.021 Uiso 1 1 calc R . .
C7 C 0.40676(16) 0.8083(3) 0.30142(17) 0.0170(9) Uani 1 1 d . . .
H7 H 0.4391 0.7619 0.3248 0.020 Uiso 1 1 calc R . .
C8 C 0.28279(15) 0.7908(3) 0.14247(17) 0.0172(9) Uani 1 1 d . . .
C9 C 0.31887(15) 0.7327(3) 0.11239(16) 0.0149(8) Uani 1 1 d . . .
C10 C 0.30530(16) 0.6225(3) 0.08120(17) 0.0193(9) Uani 1 1 d . . .
H10 H 0.2726 0.5799 0.0773 0.023 Uiso 1 1 calc R . .
C11 C 0.34030(16) 0.5760(3) 0.05590(17) 0.0187(9) Uani 1 1 d . . .
H11 H 0.3313 0.5016 0.0358 0.022 Uiso 1 1 calc R . .
C12 C 0.38877(16) 0.6399(3) 0.06031(17) 0.0168(9) Uani 1 1 d . . .
C13 C 0.40194(16) 0.7504(3) 0.09053(16) 0.0162(9) Uani 1 1 d . . .
H13 H 0.4340 0.7941 0.0934 0.019 Uiso 1 1 calc R . .
C14 C 0.36759(16) 0.7957(3) 0.11639(17) 0.0190(9) Uani 1 1 d . . .
H14 H 0.3771 0.8696 0.1369 0.023 Uiso 1 1 calc R . .
C15 C 0.42827(16) 0.5876(3) 0.03451(17) 0.0158(9) Uani 1 1 d . . .
C16 C 0.21461(16) 0.6860(3) 0.36079(17) 0.0180(9) Uani 1 1 d . . .
C17 C 0.24630(18) 0.5821(4) 0.40465(19) 0.0272(11) Uani 1 1 d . . .
C18 C 0.25989(17) 0.7679(4) 0.3529(2) 0.0273(10) Uani 1 1 d . . .
C19 C 0.17983(16) 0.7542(3) 0.38996(17) 0.0179(9) Uani 1 1 d . . .
C20 C 0.12887(15) 0.7000(3) 0.38525(17) 0.0175(9) Uani 1 1 d . . .
H20 H 0.1168 0.6270 0.3644 0.021 Uiso 1 1 calc R . .
C21 C 0.09632(16) 0.7534(3) 0.41116(17) 0.0190(9) Uani 1 1 d . . .
H21 H 0.0629 0.7152 0.4084 0.023 Uiso 1 1 calc R . .
C22 C 0.11291(15) 0.8636(3) 0.44129(17) 0.0145(8) Uani 1 1 d . . .
C23 C 0.16302(16) 0.9183(4) 0.44600(17) 0.0207(9) Uani 1 1 d . . .
H23 H 0.1741 0.9929 0.4656 0.025 Uiso 1 1 calc R . .
C24 C 0.19717(17) 0.8627(4) 0.42157(18) 0.0223(10) Uani 1 1 d . . .
H24 H 0.2318 0.8985 0.4265 0.027 Uiso 1 1 calc R . .
C25 C 0.07475(15) 0.9206(3) 0.46711(17) 0.0168(9) Uani 1 1 d . . .
C26 C 0.17448(15) 0.6402(3) 0.29655(17) 0.0152(8) Uani 1 1 d . . .
C27 C 0.12882(16) 0.7159(3) 0.25917(17) 0.0173(9) Uani 1 1 d . . .
H27 H 0.1228 0.7894 0.2744 0.021 Uiso 1 1 calc R . .
C28 C 0.09286(15) 0.6831(3) 0.20038(17) 0.0148(8) Uani 1 1 d . . .
H28 H 0.0623 0.7336 0.1767 0.018 Uiso 1 1 calc R . .
C29 C 0.10181(15) 0.5747(3) 0.17596(17) 0.0152(9) Uani 1 1 d . . .
C30 C 0.14644(16) 0.4985(3) 0.21256(17) 0.0193(9) Uani 1 1 d . . .
H30 H 0.1523 0.4252 0.1971 0.023 Uiso 1 1 calc R . .
C31 C 0.18246(16) 0.5311(3) 0.27228(18) 0.0206(9) Uani 1 1 d . . .
H31 H 0.2122 0.4793 0.2963 0.025 Uiso 1 1 calc R . .
C32 C 0.06461(16) 0.5432(3) 0.11114(18) 0.0168(9) Uani 1 1 d . . .
C33 C 0.44352(15) 1.3688(3) 0.45117(17) 0.0159(9) Uani 1 1 d . . .
H33 H 0.4595 1.3462 0.4249 0.019 Uiso 1 1 calc R . .
C34 C 0.41579(16) 1.3167(3) 0.52567(18) 0.0208(9) Uani 1 1 d . . .
H34 H 0.4115 1.2582 0.5510 0.025 Uiso 1 1 calc R . .
C35 C 0.39828(17) 1.4345(4) 0.52848(19) 0.0282(10) Uani 1 1 d . . .
H35 H 0.3829 1.4552 0.5555 0.034 Uiso 1 1 calc R . .
C36 C 0.40415(17) 1.5205(4) 0.49035(19) 0.0262(10) Uani 1 1 d . . .
H36 H 0.3932 1.6004 0.4920 0.031 Uiso 1 1 calc R . .
C37 C 0.42624(16) 1.4884(3) 0.44978(18) 0.0209(9) Uani 1 1 d . . .
C38 C 0.43039(18) 1.5776(4) 0.4051(2) 0.0304(11) Uani 1 1 d . . .
H38A H 0.3936 1.5837 0.3704 0.046 Uiso 1 1 calc R . .
H38B H 0.4589 1.5501 0.3922 0.046 Uiso 1 1 calc R . .
H38C H 0.4413 1.6558 0.4241 0.046 Uiso 1 1 calc R . .
C39 C 0.06986(15) 0.1502(3) 0.06772(18) 0.0181(9) Uani 1 1 d . . .
H39 H 0.0728 0.1947 0.1014 0.022 Uiso 1 1 calc R . .
C40 C 0.08198(16) 0.0267(3) 0.0753(2) 0.0246(10) Uani 1 1 d . . .
C41 C 0.07748(17) -0.0370(4) 0.0248(2) 0.0308(11) Uani 1 1 d . . .
H41 H 0.0848 -0.1201 0.0274 0.037 Uiso 1 1 calc R . .
C42 C 0.06193(18) 0.0232(4) -0.0299(2) 0.0370(12) Uani 1 1 d . . .
H42 H 0.0593 -0.0185 -0.0642 0.044 Uiso 1 1 calc R . .
C43 C 0.05036(17) 0.1458(4) -0.0328(2) 0.0269(10) Uani 1 1 d . . .
H43 H 0.0394 0.1860 -0.0697 0.032 Uiso 1 1 calc R . .
C44 C 0.09784(19) -0.0316(4) 0.1360(2) 0.0413(13) Uani 1 1 d . . .
H44A H 0.0646 -0.0333 0.1445 0.062 Uiso 1 1 calc R . .
H44B H 0.1281 0.0144 0.1669 0.062 Uiso 1 1 calc R . .
H44C H 0.1110 -0.1130 0.1354 0.062 Uiso 1 1 calc R . .
C45 C 0.4347(5) 0.1288(11) 0.2006(6) 0.175(5) Uiso 0.824(4) 1 d P . .
H45A H 0.3948 0.1052 0.1808 0.263 Uiso 0.824(4) 1 calc PR . .
H45B H 0.4551 0.0749 0.2341 0.263 Uiso 0.824(4) 1 calc PR . .
H45C H 0.4513 0.1245 0.1721 0.263 Uiso 0.824(4) 1 calc PR . .
C47 C 0.4392(3) 0.2593(7) 0.2244(4) 0.075(2) Uiso 0.824(4) 1 d PD . .
C48 C 0.4401(3) 0.3606(8) 0.1900(4) 0.095(3) Uiso 0.824(4) 1 d PD . .
H47 H 0.4293 0.3498 0.1487 0.114 Uiso 0.824(4) 1 calc PR . .
C49 C 0.4553(5) 0.4697(12) 0.2129(6) 0.160(5) Uiso 0.824(4) 1 d PD . .
H48 H 0.4548 0.5376 0.1899 0.192 Uiso 0.824(4) 1 calc PR . .
C50 C 0.4756(6) 0.4733(14) 0.2868(8) 0.203(6) Uiso 0.824(4) 1 d PD . .
C46 C 0.4514(3) 0.2637(8) 0.2853(4) 0.094(3) Uiso 0.824(4) 1 d PD . .
H50 H 0.4511 0.1949 0.3073 0.112 Uiso 0.824(4) 1 calc PR . .
N21 N 0.4640(3) 0.3752(7) 0.3105(3) 0.095(2) Uiso 0.824(4) 1 d PD . .
C51 C 0.1981(3) 0.2267(6) 0.0126(3) 0.086(2) Uani 1 1 d . . .
H51A H 0.2215 0.2084 -0.0082 0.128 Uiso 1 1 calc R . .
H51B H 0.1681 0.2826 -0.0113 0.128 Uiso 1 1 calc R . .
H51C H 0.1810 0.1532 0.0185 0.128 Uiso 1 1 calc R . .
C52 C 0.2050(2) 0.3105(5) 0.1095(3) 0.0683(18) Uani 1 1 d . . .
H52A H 0.1893 0.2372 0.1178 0.102 Uiso 1 1 calc R . .
H52B H 0.1742 0.3665 0.0880 0.102 Uiso 1 1 calc R . .
H52C H 0.2315 0.3465 0.1471 0.102 Uiso 1 1 calc R . .
C53 C 0.2901(3) 0.2923(5) 0.0937(4) 0.090(3) Uani 1 1 d . . .
H53 H 0.3113 0.3182 0.1336 0.108 Uiso 1 1 calc R . .
C54 C 0.0538(2) 0.2450(5) 0.2182(2) 0.0605(16) Uani 1 1 d . . .
H54A H 0.0324 0.1702 0.2093 0.091 Uiso 1 1 calc R . .
H54B H 0.0928 0.2290 0.2245 0.091 Uiso 1 1 calc R . .
H54C H 0.0360 0.3001 0.1846 0.091 Uiso 1 1 calc R . .
C55 C 0.0803(3) 0.2288(9) 0.3293(3) 0.162(5) Uani 1 1 d . . .
H55A H 0.0708 0.2645 0.3598 0.243 Uiso 1 1 calc R . .
H55B H 0.1215 0.2282 0.3435 0.243 Uiso 1 1 calc R . .
H55C H 0.0660 0.1470 0.3215 0.243 Uiso 1 1 calc R . .
C56 C 0.0304(3) 0.4046(6) 0.2736(3) 0.074(2) Uani 1 1 d . . .
H56 H 0.0135 0.4454 0.2366 0.089 Uiso 1 1 calc R . .
C57 C 0.3126(2) 0.2944(4) 0.3187(3) 0.0606(17) Uani 1 1 d . . .
H57A H 0.3492 0.2542 0.3316 0.091 Uiso 1 1 calc R . .
H57B H 0.3181 0.3723 0.3382 0.091 Uiso 1 1 calc R . .
H57C H 0.2957 0.3053 0.2754 0.091 Uiso 1 1 calc R . .
C58 C 0.2930(2) 0.1860(5) 0.3983(2) 0.0675(19) Uani 1 1 d . . .
H58A H 0.2631 0.1402 0.4025 0.101 Uiso 1 1 calc R . .
H58B H 0.3012 0.2577 0.4231 0.101 Uiso 1 1 calc R . .
H58C H 0.3273 0.1372 0.4112 0.101 Uiso 1 1 calc R . .
C59 C 0.2240(2) 0.1802(4) 0.2920(3) 0.0443(13) Uani 1 1 d . . .
H59 H 0.2017 0.1305 0.3043 0.053 Uiso 1 1 calc R . .
C60 C 0.24057(16) 0.7013(4) 0.15090(19) 0.0226(10) Uani 1 1 d . . .
C61 C 0.24681(17) 0.8939(4) 0.09848(19) 0.0245(10) Uani 1 1 d . . .
Cu1 Cu 0.473028(18) 1.10608(4) 0.49159(2) 0.01242(13) Uani 1 1 d . . .
Cu2 Cu 0.026190(18) 0.39320(4) 0.00674(2) 0.01246(13) Uani 1 1 d . . .
F1 F 0.27408(10) 0.6207(2) 0.46198(10) 0.0363(7) Uani 1 1 d . . .
F2 F 0.20979(10) 0.4946(2) 0.40406(10) 0.0318(6) Uani 1 1 d . . .
F3 F 0.28630(10) 0.5280(2) 0.39048(10) 0.0363(7) Uani 1 1 d . . .
F4 F 0.30381(9) 0.8003(2) 0.40649(11) 0.0358(7) Uani 1 1 d . . .
F5 F 0.28376(9) 0.7140(2) 0.32013(10) 0.0326(6) Uani 1 1 d . . .
F6 F 0.23592(10) 0.8717(2) 0.32393(11) 0.0300(6) Uani 1 1 d . . .
F24 F 0.20652(9) 0.9414(2) 0.11357(10) 0.0294(6) Uani 1 1 d . . .
F25 F 0.21911(9) 0.8533(2) 0.04143(10) 0.0292(6) Uani 1 1 d . . .
F26 F 0.28069(9) 0.9858(2) 0.09773(10) 0.0274(6) Uani 1 1 d . . .
F30 F 0.26871(9) 0.6007(2) 0.18030(10) 0.0272(6) Uani 1 1 d . . .
F31 F 0.19761(9) 0.6644(2) 0.09807(10) 0.0314(6) Uani 1 1 d . . .
F32 F 0.21556(9) 0.7494(2) 0.18374(10) 0.0277(6) Uani 1 1 d . . .
N1 N 0.05435(13) 0.2086(3) 0.01532(14) 0.0167(7) Uani 1 1 d . . .
N5 N 0.43864(12) 1.2838(3) 0.48800(14) 0.0144(7) Uani 1 1 d . . .
N10 N 0.0541(2) 0.2996(5) 0.2734(2) 0.0639(14) Uani 1 1 d . . .
N11 N 0.27423(16) 0.2205(3) 0.3353(2) 0.0428(11) Uani 1 1 d . . .
N13 N 0.2348(2) 0.2826(3) 0.0730(2) 0.0502(12) Uani 1 1 d . . .
O1 O 0.08299(10) 1.0310(2) 0.48287(12) 0.0207(6) Uani 1 1 d . . .
O2 O 0.03707(11) 0.8530(2) 0.47044(12) 0.0226(7) Uani 1 1 d . . .
O3 O 0.07285(11) 0.4424(2) 0.09139(11) 0.0204(6) Uani 1 1 d . . .
O4 O 0.02723(11) 0.6203(2) 0.08007(12) 0.0207(6) Uani 1 1 d . . .
O5 O 0.47246(11) 0.8780(2) 0.42160(12) 0.0206(6) Uani 1 1 d . . .
O6 O 0.42503(11) 1.0549(2) 0.40710(12) 0.0234(7) Uani 1 1 d . . .
O7 O 0.46651(11) 0.6561(2) 0.03328(12) 0.0212(6) Uani 1 1 d . . .
O8 O 0.41949(10) 0.4782(2) 0.01680(12) 0.0217(6) Uani 1 1 d . . .
O10 O 0.3161(2) 0.2680(4) 0.0618(3) 0.130(2) Uani 1 1 d . . .
O11 O 0.0279(2) 0.4553(5) 0.3174(2) 0.0985(16) Uani 1 1 d . . .
O9A O 0.20511(15) 0.2034(3) 0.23760(18) 0.0591(11) Uani 1 1 d . . .

loop_
_atom_site_aniso_label
_atom_site_aniso_U_11
_atom_site_aniso_U_22
_atom_site_aniso_U_33
_atom_site_aniso_U_23
_atom_site_aniso_U_13
_atom_site_aniso_U_12
C1 0.017(2) 0.017(2) 0.014(2) -0.0001(18) 0.0106(18) -0.0031(17)
C2 0.017(2) 0.014(2) 0.014(2) 0.0001(17) 0.0076(18) -0.0008(16)
C3 0.024(2) 0.019(2) 0.020(2) -0.0043(18) 0.009(2) 0.0042(18)
C4 0.019(2) 0.022(2) 0.015(2) -0.0020(18) 0.0032(19) 0.0074(17)
C5 0.017(2) 0.017(2) 0.014(2) -0.0011(17) 0.0101(18) -0.0023(16)
C6 0.023(2) 0.015(2) 0.016(2) -0.0003(18) 0.0095(19) 0.0029(17)
C7 0.020(2) 0.017(2) 0.013(2) 0.0024(17) 0.0064(19) 0.0024(17)
C8 0.014(2) 0.025(2) 0.012(2) -0.0028(18) 0.0055(18) 0.0003(17)
C9 0.016(2) 0.020(2) 0.008(2) -0.0002(17) 0.0049(17) 0.0052(16)
C10 0.0124(19) 0.025(2) 0.017(2) -0.0058(18) 0.0027(18) -0.0055(17)
C11 0.024(2) 0.015(2) 0.016(2) -0.0056(17) 0.0077(19) -0.0001(17)
C12 0.020(2) 0.018(2) 0.011(2) 0.0028(17) 0.0054(18) 0.0048(17)
C13 0.018(2) 0.017(2) 0.013(2) 0.0020(17) 0.0059(18) -0.0016(17)
C14 0.027(2) 0.013(2) 0.019(2) -0.0014(18) 0.012(2) 0.0021(17)
C15 0.018(2) 0.016(2) 0.011(2) 0.0020(17) 0.0035(18) 0.0057(17)
C16 0.017(2) 0.024(2) 0.012(2) -0.0025(18) 0.0050(18) 0.0015(17)
C17 0.025(2) 0.043(3) 0.012(2) 0.000(2) 0.007(2) 0.016(2)
C18 0.018(2) 0.043(3) 0.020(3) -0.013(2) 0.008(2) 0.003(2)
C19 0.018(2) 0.022(2) 0.014(2) -0.0008(18) 0.0066(19) 0.0029(17)
C20 0.021(2) 0.016(2) 0.014(2) -0.0026(17) 0.0064(19) -0.0002(17)
C21 0.017(2) 0.019(2) 0.022(2) 0.0027(18) 0.0096(19) -0.0006(17)
C22 0.018(2) 0.015(2) 0.012(2) 0.0029(17) 0.0074(18) 0.0063(16)
C23 0.024(2) 0.023(2) 0.015(2) -0.0049(18) 0.008(2) -0.0021(18)
C24 0.019(2) 0.030(2) 0.019(2) -0.0040(19) 0.009(2) -0.0031(18)
C25 0.017(2) 0.017(2) 0.015(2) 0.0032(18) 0.0054(19) 0.0037(17)
C26 0.016(2) 0.021(2) 0.009(2) -0.0032(17) 0.0067(18) -0.0016(16)
C27 0.022(2) 0.015(2) 0.016(2) -0.0035(18) 0.0097(19) 0.0007(17)
C28 0.015(2) 0.015(2) 0.014(2) 0.0009(17) 0.0065(18) -0.0009(16)
C29 0.017(2) 0.015(2) 0.014(2) 0.0024(17) 0.0068(18) -0.0017(16)
C30 0.027(2) 0.018(2) 0.014(2) -0.0039(18) 0.0094(19) 0.0049(18)
C31 0.021(2) 0.024(2) 0.018(2) 0.0016(19) 0.0089(19) 0.0088(17)
C32 0.017(2) 0.019(2) 0.017(2) 0.0002(19) 0.0091(19) -0.0036(17)
C33 0.0135(19) 0.017(2) 0.013(2) -0.0039(17) 0.0010(18) -0.0035(16)
C34 0.023(2) 0.020(2) 0.022(2) 0.0038(18) 0.0