
#######################################################################
#
#                 Cambridge Crystallographic Data Centre
#                                CCDC
#
#######################################################################
#
# If this CIF has been generated from an entry in the Cambridge
# Structural Database, then it will include bibliographic, chemical,
# crystal, experimental, refinement or atomic coordinate data resulting
# from the CCDC's data processing and validation procedures.
#
#######################################################################

data_CSD_CIF_CUYWUP
_audit_creation_date 2011-01-12
_audit_creation_method CSD-ConQuest-V1
_database_code_CSD CUYWUP
_database_code_depnum_ccdc_archive 'CCDC 767368'
_chemical_formula_sum 'C41 H46 Cu2 N2 O16'
_chemical_formula_moiety
;
(C33 H28 Cu2 O14)n,2n(C4 H9 N1 O1)
;
_journal_coden_Cambridge 1350
_journal_volume 12
_journal_year 2010
_journal_page_first 2008
_journal_name_full 'CrystEngComm '
loop_
_publ_author_name
"Li-Li Liang"
"Jun Zhang"
"Shi-Bin Ren"
"Gen-Wu Ge"
"Yi-Zhi Li"
"Hong-Bin Du"
"Xiao-Zeng You"
_chemical_name_systematic
;
catena-((\m~8~-tetrakis((4-carboxylatophenyl)oxymethyl)methane)-di-copper(ii) 
dimethylacetamide solvate)
;
_chemical_name_common
;
Teaching Subset: MOFs
;
_cell_volume   5210.474
_exptl_crystal_colour 'blue'
_exptl_crystal_density_diffrn 1.211
_exptl_crystal_description 'rectangular'
_diffrn_ambient_temperature 291
_refine_special_details
;
The SQUEEZE/PLATON program has been used to model some disordered unspecified 
solvent molecules.
;
#These two values have been output from a single CSD field.
_refine_ls_R_factor_gt 0.0463
_refine_ls_wR_factor_gt 0.0463
_symmetry_cell_setting orthorhombic
_symmetry_space_group_name_H-M 'P n n a'
_symmetry_Int_Tables_number 52
loop_
_symmetry_equiv_pos_site_id
_symmetry_equiv_pos_as_xyz
1 x,y,z
2 1/2-x,-y,z
3 1/2-x,1/2+y,1/2-z
4 x,1/2-y,1/2-z
5 -x,-y,-z
6 -1/2+x,y,-z
7 -1/2+x,-1/2-y,-1/2+z
8 -x,-1/2+y,-1/2+z
_cell_length_a 27.353(4)
_cell_length_b 17.844(3)
_cell_length_c 10.6753(17)
_cell_angle_alpha 90
_cell_angle_beta 90
_cell_angle_gamma 90
_cell_formula_units_Z 4
loop_
_atom_type_symbol
_atom_type_radius_bond
C 0.68
H 0.23
Cu 1.02
N 0.68
O 0.77
loop_
_atom_site_label
_atom_site_type_symbol
_atom_site_fract_x
_atom_site_fract_y
_atom_site_fract_z
C1 C 0.5324(1) 0.94725(15) -0.2983(3)
C2 C 0.55345(9) 0.91404(15) -0.1810(3)
C3 C 0.57409(11) 0.84554(18) -0.1837(3)
H1 H 0.57550 0.81990 -0.25940
C4 C 0.59360(11) 0.81153(16) -0.0762(3)
H2 H 0.60620 0.76320 -0.07950
C5 C 0.59366(10) 0.85206(16) 0.0361(2)
C6 C 0.57310(11) 0.92150(17) 0.0398(3)
H3 H 0.57280 0.94810 0.11470
C7 C 0.55230(11) 0.95347(17) -0.0681(3)
H4 H 0.53790 1.00060 -0.06430
C8 C 0.64271(9) 0.76015(15) 0.1338(2)
H5 H 0.66380 0.76430 0.06120
H6 H 0.62190 0.71670 0.12240
C9 C 0.67347(11) 0.75000 0.25000
C10 C 0.70461(9) 0.81901(15) 0.2685(3)
H7 H 0.72340 0.82970 0.19350
H8 H 0.68430 0.86210 0.28770
C11 C 0.78012(10) 0.84097(15) 0.3836(3)
C12 C 0.81217(10) 0.81246(17) 0.4690(3)
H9 H 0.80340 0.77090 0.51650
C13 C 0.85677(10) 0.84416(16) 0.4853(3)
H10 H 0.87980 0.82030 0.53560
C14 C 0.86834(9) 0.91008(16) 0.4294(2)
C15 C 0.83391(10) 0.94365(16) 0.3491(3)
H11 H 0.84080 0.98980 0.31280
C16 C 0.79055(10) 0.90896(17) 0.3242(3)
H12 H 0.76830 0.93020 0.26870
C17 C 0.91707(11) 0.94615(15) 0.4524(3)
Cu1 Cu 0.486780(12) 1.060205(17) -0.43887(3)
O1 O 0.51326(6) 1.01030(11) -0.28977(18)
O2 O 0.53665(7) 0.9094(1) -0.39577(18)
O3 O 0.61306(6) 0.82613(10) 0.14407(16)
O4 O 0.73689(7) 0.80203(10) 0.37252(18)
O5 O 0.92428(6) 1.01023(10) 0.40622(17)
O6 O 0.94672(6) 0.9091(1) 0.51603(17)
O7 O 0.46992(6) 1.16459(11) -0.34320(17)
H13 H 0.48040 1.20610 -0.39380
H14 H 0.48660 1.16600 -0.26410
C18 C 0.88296(11) 0.89305(16) -0.0996(3)
H15 H 0.91000 0.91400 -0.14480
H16 H 0.86320 0.93280 -0.06620
H17 H 0.86360 0.86290 -0.15520
C19 C 0.87045(11) 0.83349(18) 0.1219(3)
H18 H 0.86510 0.78090 0.13530
H19 H 0.83960 0.85810 0.10940
H20 H 0.88650 0.85450 0.19370
C20 C 0.94862(11) 0.80505(17) -0.0041(3)
C21 C 0.96220(11) 0.74589(18) 0.0922(3)
H21 H 0.93500 0.73770 0.14760
H22 H 0.98990 0.76270 0.13980
H23 H 0.97020 0.69990 0.05030
N1 N 0.90210(9) 0.84432(14) 0.0076(2)
O8 O 0.97963(7) 0.82635(12) -0.08181(19)
C1C C 0.5324(1) 0.55275(15) 0.7983(3)
C2C C 0.55345(9) 0.58596(15) 0.6810(3)
C3C C 0.57409(11) 0.65446(18) 0.6837(3)
H1C H 0.57550 0.68010 0.75940
C4C C 0.59360(11) 0.68847(16) 0.5762(3)
H2C H 0.60620 0.73680 0.57950
C5C C 0.59366(10) 0.64794(16) 0.4639(2)
C6C C 0.57310(11) 0.57850(17) 0.4602(3)
H3C H 0.57280 0.55190 0.38530
C7C C 0.55230(11) 0.54653(17) 0.5681(3)
H4C H 0.53790 0.49940 0.56430
C8C C 0.64271(9) 0.73985(15) 0.3662(2)
H5C H 0.66380 0.73570 0.43880
H6C H 0.62190 0.78330 0.37760
C10C C 0.70461(9) 0.68099(15) 0.2315(3)
H7C H 0.72340 0.67030 0.30650
H8C H 0.68430 0.63790 0.21230
C11C C 0.78012(10) 0.65903(15) 0.1164(3)
C12C C 0.81217(10) 0.68754(17) 0.0310(3)
H9C H 0.80340 0.72910 -0.01650
C13C C 0.85677(10) 0.65584(16) 0.0147(3)
H10C H 0.87980 0.67970 -0.03560
C14C C 0.86834(9) 0.58992(16) 0.0706(2)
C15C C 0.83391(10) 0.55635(16) 0.1509(3)
H11C H 0.84080 0.51020 0.18720
C16C C 0.79055(10) 0.59104(17) 0.1758(3)
H12C H 0.76830 0.56980 0.23130
C17C C 0.91707(11) 0.55385(15) 0.0476(3)
Cu1C Cu 0.486780(12) 0.439795(17) 0.93887(3)
Cu1D Cu 0.513220(12) 0.939795(17) -0.56113(3)
Cu1E Cu 0.986780(12) 1.060205(17) 0.43887(3)
Cu1A Cu 1.013220(12) 0.939795(17) 0.56113(3)
Cu1G Cu 0.513220(12) 0.560205(17) 1.06113(3)
Cu1F Cu 0.986780(12) 0.439795(17) 0.06113(3)
Cu1B Cu 1.013220(12) 0.560205(17) -0.06113(3)
O1C O 0.51326(6) 0.48970(11) 0.78977(18)
O2C O 0.53665(7) 0.5906(1) 0.89577(18)
O2D O 0.46335(7) 1.0906(1) -0.60423(18)
O2G O 0.46335(7) 0.4094(1) 1.10423(18)
O3C O 0.61306(6) 0.67387(10) 0.35593(16)
O4C O 0.73689(7) 0.69797(10) 0.12748(18)
O5C O 0.92428(6) 0.48977(10) 0.09378(17)
O5E O 0.42428(6) 1.01023(10) -0.40622(17)
O5F O 0.42428(6) 0.48977(10) 0.90622(17)
O6C O 0.94672(6) 0.5909(1) -0.01603(17)
O6A O 0.55328(6) 1.0909(1) -0.48397(17)
O6B O 0.55328(6) 0.4091(1) 0.98397(17)
O7C O 0.46992(6) 0.33541(11) 0.84320(17)
H13C H 0.48040 0.29390 0.89380
H14C H 0.48660 0.33400 0.76410
#END
