
#######################################################################
#
#                 Cambridge Crystallographic Data Centre
#                                CCDC
#
#######################################################################
#
# If this CIF has been generated from an entry in the Cambridge
# Structural Database, then it will include bibliographic, chemical,
# crystal, experimental, refinement or atomic coordinate data resulting
# from the CCDC's data processing and validation procedures.
#
#######################################################################

data_CSD_CIF_CUZCEF
_audit_creation_date 1986-03-24
_audit_creation_method CSD-ConQuest-V1
_database_code_CSD CUZCEF
_database_code_depnum_ccdc_archive 'CCDC 1134333'
_chemical_formula_sum 'C24 H20 As1 Cl4 N1 Tc1'
_chemical_formula_moiety
;
C24 H20 As1 1+,Cl4 N1 Tc1 1-
;
_journal_coden_Cambridge 186
_journal_year 1984
_journal_page_first 2395
_journal_name_full 'J.Chem.Soc.,Dalton Trans. '
loop_
_publ_author_name
"J.Baldas"
"J.F.Boas"
"J.Bonnyman"
"G.A.Williams"
_chemical_name_systematic
;
Tetraphenylarsonium tetrachloro-nitrido-technetium(vi)
;
_chemical_name_common
;
Teaching Subset: Fundamental Chemistry
;
_chemical_melting_point 545
_cell_volume   1258.319
_exptl_crystal_colour 'orange-red'
_exptl_crystal_density_diffrn 1.684
_exptl_special_details
;
Melting point range 545-547K
Isostructural with the Os analogue

;
_diffrn_ambient_temperature ?
_diffrn_special_details
;
The study was carried out at room temperature,in the range 283-303K

;
#These two values have been output from a single CSD field.
_refine_ls_R_factor_gt 0.031
_refine_ls_wR_factor_gt 0.031
_symmetry_cell_setting tetragonal
_symmetry_space_group_name_H-M 'P 4/n'
_symmetry_Int_Tables_number 85
loop_
_symmetry_equiv_pos_site_id
_symmetry_equiv_pos_as_xyz
1 x,y,z
2 1/2-y,x,z
3 1/2-x,1/2-y,z
4 y,1/2-x,z
5 -x,-y,-z
6 -1/2+y,-x,-z
7 -1/2+x,-1/2+y,-z
8 -y,-1/2+x,-z
_cell_length_a 12.707(2)
_cell_length_b 12.707(2)
_cell_length_c 7.793(1)
_cell_angle_alpha 90
_cell_angle_beta 90
_cell_angle_gamma 90
_cell_formula_units_Z 2
loop_
_atom_type_symbol
_atom_type_radius_bond
C 0.68
H 0.23
As 1.21
Cl 0.99
N 0.68
Tc 1.30
loop_
_atom_site_label
_atom_site_type_symbol
_atom_site_fract_x
_atom_site_fract_y
_atom_site_fract_z
Tc1 Tc 0.25000 0.25000 0.12073(6)
N1 N 0.25000 0.25000 -0.0821(7)
Cl1 Cl 0.3415(1) 0.4025(1) 0.1895(1)
As1 As 0.25000 0.75000 0.00000
C1 C 0.3686(2) 0.7373(2) 0.1480(4)
C2 C 0.4435(2) 0.6605(3) 0.1195(4)
C3 C 0.5255(3) 0.6494(3) 0.2351(5)
C4 C 0.5306(3) 0.7138(3) 0.3767(5)
C5 C 0.4570(3) 0.7905(3) 0.4039(5)
C6 C 0.3745(3) 0.8031(3) 0.2896(4)
H1 H 0.446(3) 0.613(3) 0.019(5)
H2 H 0.576(3) 0.595(3) 0.217(5)
H3 H 0.588(4) 0.702(3) 0.449(6)
H4 H 0.460(3) 0.835(3) 0.509(5)
H5 H 0.318(3) 0.854(3) 0.316(5)
Cl1A Cl 0.0975(1) 0.3415(1) 0.1895(1)
Cl1B Cl 0.1585(1) 0.0975(1) 0.1895(1)
Cl1C Cl 0.4025(1) 0.1585(1) 0.1895(1)
C1E C 0.2373(2) 0.6314(2) -0.1480(4)
C1B C 0.1314(2) 0.7627(2) 0.1480(4)
C1G C 0.2627(2) 0.8686(2) -0.1480(4)
C2E C 0.1605(2) 0.5565(3) -0.1195(4)
C6E C 0.3031(3) 0.6255(3) -0.2896(4)
C2B C 0.0565(2) 0.8395(3) 0.1195(4)
C6B C 0.1255(3) 0.6969(3) 0.2896(4)
C2G C 0.3395(2) 0.9435(3) -0.1195(4)
C6G C 0.1969(3) 0.8745(3) -0.2896(4)
C3E C 0.1494(3) 0.4745(3) -0.2351(5)
H1E H 0.113(3) 0.554(3) -0.019(5)
C5E C 0.2905(3) 0.5430(3) -0.4039(5)
H5E H 0.354(3) 0.682(3) -0.316(5)
C3B C -0.0255(3) 0.8506(3) 0.2351(5)
H1B H 0.054(3) 0.887(3) 0.019(5)
C5B C 0.0430(3) 0.7095(3) 0.4039(5)
H5B H 0.182(3) 0.646(3) 0.316(5)
C3G C 0.3506(3) 1.0255(3) -0.2351(5)
H1G H 0.387(3) 0.946(3) -0.019(5)
C5G C 0.2095(3) 0.9570(3) -0.4039(5)
H5G H 0.146(3) 0.818(3) -0.316(5)
C4E C 0.2138(3) 0.4694(3) -0.3767(5)
H2E H 0.095(3) 0.424(3) -0.217(5)
H4E H 0.335(3) 0.540(3) -0.509(5)
C4B C -0.0306(3) 0.7862(3) 0.3767(5)
H2B H -0.076(3) 0.905(3) 0.217(5)
H4B H 0.040(3) 0.665(3) 0.509(5)
C4G C 0.2862(3) 1.0306(3) -0.3767(5)
H2G H 0.405(3) 1.076(3) -0.217(5)
H4G H 0.165(3) 0.960(3) -0.509(5)
H3E H 0.202(4) 0.412(3) -0.449(6)
H3B H -0.088(4) 0.798(3) 0.449(6)
H3G H 0.298(4) 1.088(3) -0.449(6)
#END
