
#######################################################################
#
#                 Cambridge Crystallographic Data Centre
#                                CCDC
#
#######################################################################
#
# If this CIF has been generated from an entry in the Cambridge
# Structural Database, then it will include bibliographic, chemical,
# crystal, experimental, refinement or atomic coordinate data resulting
# from the CCDC's data processing and validation procedures.
#
#######################################################################

data_CSD_CIF_CYACAC
_audit_creation_date 1978-09-01
_audit_creation_method CSD-ConQuest-V1
_database_code_CSD CYACAC
_database_code_depnum_ccdc_archive 'CCDC 1134504'
_chemical_formula_sum 'C3 H3 N1 O2'
_chemical_formula_moiety
;
C3 H3 N1 O2
;
_journal_coeditor_code "IUCr A16034"
_journal_coden_Cambridge 107
_journal_volume 34
_journal_year 1978
_journal_page_first 1396
_journal_name_full 'Acta Crystallogr.,Sect.B:Struct.Crystallogr.Cryst.Chem. '
loop_
_publ_author_name
"J.A.Kanters"
"G.Roelofsen"
"L.H.Straver"
_chemical_name_systematic
;
Cyanoacetic acid
;
_chemical_name_common
;
Teaching Subset: Fundamental Chemistry
;
_cell_volume    400.340
_exptl_crystal_density_diffrn 1.411
_exptl_special_details
;
triclinic beta polymorph

;
_diffrn_ambient_temperature ?
_diffrn_special_details
;
The study was carried out at room temperature,in the range 283-303K

;
#These two values have been output from a single CSD field.
_refine_ls_R_factor_gt 0.062
_refine_ls_wR_factor_gt 0.062
_symmetry_cell_setting triclinic
_symmetry_space_group_name_H-M 'P -1'
_symmetry_Int_Tables_number 2
loop_
_symmetry_equiv_pos_site_id
_symmetry_equiv_pos_as_xyz
1 x,y,z
2 -x,-y,-z
_cell_length_a 5.536(3)
_cell_length_b 7.793(3)
_cell_length_c 9.936(3)
_cell_angle_alpha 86.24(4)
_cell_angle_beta 84.89(3)
_cell_angle_gamma 69.77(2)
_cell_formula_units_Z 4
loop_
_atom_type_symbol
_atom_type_radius_bond
C 0.68
H 0.23
N 0.68
O 0.68
loop_
_atom_site_label
_atom_site_type_symbol
_atom_site_fract_x
_atom_site_fract_y
_atom_site_fract_z
N1 N -0.33680 -0.36150 -0.21630
C1 C 0.16680 -0.33910 -0.43760
C2 C -0.08450 -0.20570 -0.38330
C3 C -0.22540 -0.29390 -0.28890
O1 O 0.28480 -0.26240 -0.52900
O2 O 0.24800 -0.49770 -0.39880
H1 H -0.05100 -0.09600 -0.35600
H2 H -0.18600 -0.16200 -0.46800
H3 H 0.42800 -0.34800 -0.54700
N2 N -0.29240 -0.05650 0.30950
C4 C 0.12780 -0.24040 0.03620
C5 C -0.12990 -0.24220 0.09480
C6 C -0.22290 -0.13530 0.21530
O3 O 0.20390 -0.34680 -0.06940
O4 O 0.24620 -0.15340 0.07640
H4 H -0.24100 -0.19600 0.03900
H5 H -0.12200 -0.37000 0.11700
H6 H 0.33400 -0.35200 -0.09400
#END
