
#######################################################################
#
#                 Cambridge Crystallographic Data Centre
#                                CCDC
#
#######################################################################
#
# If this CIF has been generated from an entry in the Cambridge
# Structural Database, then it will include bibliographic, chemical,
# crystal, experimental, refinement or atomic coordinate data resulting
# from the CCDC's data processing and validation procedures.
#
#######################################################################

data_CSD_CIF_CYOCDL
_audit_creation_date 1980-04-09
_audit_creation_method CSD-ConQuest-V1
_database_code_CSD CYOCDL
_database_code_depnum_ccdc_archive 'CCDC 1134668'
_chemical_formula_sum 'C8 H16 O2'
_chemical_formula_moiety
;
C8 H16 O2
;
_journal_coden_Cambridge 188
_journal_year 1979
_journal_page_first 1527
_journal_name_full 'J.Chem.Soc.,Perkin Trans.2 '
loop_
_publ_author_name
"R.W.Miller"
"A.T.McPhail"
_chemical_name_systematic
;
cis-Cyclo-octane-1,5-diol
;
_chemical_name_common
;
Teaching Subset: Fundamental Chemistry
;
_cell_volume    823.281
_exptl_crystal_density_diffrn 1.162
_exptl_special_details
;
C5 z should be 0.2667 not 0.2267

;
_diffrn_ambient_temperature ?
_diffrn_special_details
;
The study was carried out at room temperature,in the range 283-303K

;
#These two values have been output from a single CSD field.
_refine_ls_R_factor_gt 0.035
_refine_ls_wR_factor_gt 0.035
_symmetry_cell_setting monoclinic
_symmetry_space_group_name_H-M 'C c'
_symmetry_Int_Tables_number 9
loop_
_symmetry_equiv_pos_site_id
_symmetry_equiv_pos_as_xyz
1 x,y,z
2 1/2+x,1/2+y,z
3 x,-y,1/2+z
4 1/2+x,1/2-y,1/2+z
_cell_length_a 9.119(4)
_cell_length_b 11.717(5)
_cell_length_c 8.118(4)
_cell_angle_alpha 90
_cell_angle_beta 108.35(5)
_cell_angle_gamma 90
_cell_formula_units_Z 4
loop_
_atom_type_symbol
_atom_type_radius_bond
C 0.68
O 0.68
loop_
_atom_site_label
_atom_site_type_symbol
_atom_site_fract_x
_atom_site_fract_y
_atom_site_fract_z
C1 C 0.58500 0.14410 0.50200
C2 C 0.71570 0.08040 0.46370
C3 C 0.81070 0.14760 0.37090
C4 C 0.72090 0.22520 0.22350
C5 C 0.71680 0.35210 0.26670
C6 C 0.64030 0.38650 0.40090
C7 C 0.71490 0.34180 0.58400
C8 C 0.63530 0.23890 0.63590
O1 O 0.49700 0.06590 0.57090
O2 O 0.87100 0.39710 0.32840
#END
