
#######################################################################
#
#                 Cambridge Crystallographic Data Centre
#                                CCDC
#
#######################################################################
#
# If this CIF has been generated from an entry in the Cambridge
# Structural Database, then it will include bibliographic, chemical,
# crystal, experimental, refinement or atomic coordinate data resulting
# from the CCDC's data processing and validation procedures.
#
#######################################################################

data_CSD_CIF_CYTIDI11
_audit_creation_date 2003-08-07
_audit_creation_method CSD-ConQuest-V1
_database_code_CSD CYTIDI11
_database_code_depnum_ccdc_archive 'CCDC 207855'
_chemical_formula_sum 'C9 H13 N3 O5'
_chemical_formula_moiety
;
C9 H13 N3 O5
;
_journal_coden_Cambridge 1257
_journal_volume 7
_journal_year 2002
_journal_page_first 271
_journal_name_full 'Enantiomer '
loop_
_publ_author_name
"S.Sato"
"T.Yoshida"
"T.Hori"
_chemical_name_systematic
;
4-Amino-1-\b-D-ribofuranosyl-2(1H)-pyrimidinone
;
_chemical_name_common
;
beta-Cytidine; Teaching Subset: Fundamental Chemistry; DrugBank: DB02097
;
_cell_volume   1056.602
_exptl_crystal_colour 'colorless'
_exptl_crystal_density_diffrn 1.529
_exptl_special_details
;
Absolute configuration

;
_exptl_crystal_description 'plate'
_exptl_crystal_preparation 'aqueous ethanol'
_diffrn_ambient_temperature 297.2
#These two values have been output from a single CSD field.
_refine_ls_R_factor_gt 0.0232
_refine_ls_wR_factor_gt 0.0232
loop_
_citation_database_id_CSD
_citation_special_details
ACYTID "is a stereoisomer of this entry"
_symmetry_cell_setting orthorhombic
_symmetry_space_group_name_H-M 'P 21 21 21'
_symmetry_Int_Tables_number 19
loop_
_symmetry_equiv_pos_site_id
_symmetry_equiv_pos_as_xyz
1 x,y,z
2 1/2-x,-y,1/2+z
3 1/2+x,1/2-y,-z
4 -x,1/2+y,1/2-z
_cell_length_a 13.985(1)
_cell_length_b 14.765(1)
_cell_length_c 5.117(1)
_cell_angle_alpha 90
_cell_angle_beta 90
_cell_angle_gamma 90
_cell_formula_units_Z 4
loop_
_atom_type_symbol
_atom_type_radius_bond
C 0.68
H 0.23
N 0.68
O 0.68
loop_
_atom_site_label
_atom_site_type_symbol
_atom_site_fract_x
_atom_site_fract_y
_atom_site_fract_z
N1 N 0.03717(5) 0.17449(5) 0.3801(1)
C1 C 0.02902(6) 0.24667(5) 0.2081(2)
O1 O -0.04608(4) 0.29162(4) 0.2100(1)
N2 N 0.10261(6) 0.26691(5) 0.0469(1)
C2 C 0.17946(6) 0.21355(6) 0.0415(2)
N3 N 0.24698(7) 0.23337(7) -0.1305(2)
C3 C 0.18958(6) 0.13919(7) 0.2147(2)
C4 C 0.11754(7) 0.12220(7) 0.3809(2)
C5 C -0.04474(6) 0.15639(5) 0.5581(2)
O2 O -0.01404(4) 0.10095(4) 0.7654(1)
C6 C -0.12530(6) 0.10559(6) 0.4184(2)
O3 O -0.21442(4) 0.13012(5) 0.5305(1)
C7 C -0.09738(6) 0.00807(5) 0.4719(2)
O4 O -0.17486(4) -0.05196(4) 0.4388(1)
C8 C -0.06034(6) 0.01292(6) 0.7507(2)
C9 C 0.01012(7) -0.06025(6) 0.8270(2)
O5 O 0.08269(5) -0.07486(5) 0.6395(1)
H1 H 0.2322(9) 0.2789(8) -0.260(3)
H2 H 0.301(1) 0.2071(9) -0.126(3)
H3 H 0.2437(10) 0.1032(8) 0.208(3)
H4 H 0.1212(8) 0.0746(7) 0.495(2)
H5 H -0.0672(7) 0.2145(7) 0.622(2)
H6 H -0.1261(7) 0.1172(6) 0.244(2)
H7 H -0.2378(9) 0.0861(9) 0.618(3)
H8 H -0.0436(6) -0.0077(7) 0.354(2)
H9 H -0.1564(9) -0.1085(10) 0.447(3)
H10 H -0.1138(7) 0.0126(7) 0.873(2)
H11 H -0.0262(8) -0.1170(8) 0.851(2)
H12 H 0.0463(8) -0.0470(8) 0.990(3)
H13 H 0.066(1) -0.115(1) 0.527(3)
#END
