####################################################################### 
# 
# This file contains crystal structure data downloaded from the 
# Cambridge Structural Database (CSD) hosted by the Cambridge 
# Crystallographic Data Centre (CCDC).
# 
# Full information about CCDC data access policies and citation 
# guidelines are available at http://www.ccdc.cam.ac.uk/access/V1 
# 
# Audit and citation data items may have been added by the CCDC. 
# Please retain this information to preserve the provenance of 
# this file and to allow appropriate attribution of the data. 
# 
#######################################################################

data_compound_1
_audit_block_doi                 10.5517/ccw65fn
_database_code_depnum_ccdc_archive 'CCDC 810291'
loop_
_citation_id
_citation_doi
_citation_year
1 10.1002/anie.201102329 2011
_audit_update_record             
;
2011-01-28 deposited with the CCDC.	2024-07-09 downloaded from the CCDC.
;
#TrackingRef 'Crystal Structures Angew. Chem..cif'


_audit_creation_method           SHELXL-97
_chemical_name_systematic        
;
?
;
_chemical_name_common            ?
_chemical_melting_point          ?
_chemical_formula_moiety         'C16 H10 Cu N4 O4'
_chemical_formula_sum            'C16 H10 Cu N4 O4'
_chemical_formula_weight         385.82

loop_
_atom_type_symbol
_atom_type_description
_atom_type_scat_dispersion_real
_atom_type_scat_dispersion_imag
_atom_type_scat_source
C C 0.0033 0.0016 'International Tables Vol C Tables 4.2.6.8 and 6.1.1.4'
H H 0.0000 0.0000 'International Tables Vol C Tables 4.2.6.8 and 6.1.1.4'
Cu Cu 0.3201 1.2651 'International Tables Vol C Tables 4.2.6.8 and 6.1.1.4'
N N 0.0061 0.0033 'International Tables Vol C Tables 4.2.6.8 and 6.1.1.4'
O O 0.0106 0.0060 'International Tables Vol C Tables 4.2.6.8 and 6.1.1.4'

_symmetry_cell_setting           monoclinic
_symmetry_space_group_name_H-M   'P 21/c'
_symmetry_Int_Tables_number      14
_symmetry_space_group_name_Hall  '-P 2ybc'


loop_
_symmetry_equiv_pos_as_xyz
'x, y, z'
'-x, y+1/2, -z+1/2'
'-x, -y, -z'
'x, -y-1/2, z-1/2'

_cell_length_a                   14.0087(12)
_cell_length_b                   13.3191(8)
_cell_length_c                   14.8297(14)
_cell_angle_alpha                90.00
_cell_angle_beta                 93.116(7)
_cell_angle_gamma                90.00
_cell_volume                     2762.9(4)
_cell_formula_units_Z            4
_cell_measurement_temperature    293(2)
_cell_measurement_reflns_used    10964
_cell_measurement_theta_min      1.95
_cell_measurement_theta_max      28.38

_exptl_crystal_description       prism
_exptl_crystal_colour            blue
_exptl_crystal_size_max          0.37
_exptl_crystal_size_mid          0.35
_exptl_crystal_size_min          0.32
_exptl_crystal_density_meas      ?
_exptl_crystal_density_diffrn    0.928
_exptl_crystal_density_method    'not measured'
_exptl_crystal_F_000             780
_exptl_absorpt_coefficient_mu    0.808
_exptl_absorpt_correction_type   numerical
_exptl_absorpt_correction_T_min  0.8564
_exptl_absorpt_correction_T_max  0.9557
_exptl_absorpt_process_details   'STOE X-RED'

_exptl_special_details           
;
?
;

_diffrn_ambient_temperature      293(2)
_diffrn_radiation_wavelength     0.71073
_diffrn_radiation_type           MoK\a
_diffrn_radiation_source         'fine-focus sealed tube'
_diffrn_radiation_monochromator  graphite
_diffrn_measurement_device_type  'STOE IPDS-2T'
_diffrn_measurement_method       '\w scans'
_diffrn_detector_area_resol_mean 6.67
_diffrn_standards_number         none
_diffrn_standards_interval_count ?
_diffrn_standards_interval_time  ?
_diffrn_standards_decay_%        ?
_diffrn_reflns_number            11820
_diffrn_reflns_av_R_equivalents  0.0387
_diffrn_reflns_av_sigmaI/netI    0.0373
_diffrn_reflns_limit_h_min       -16
_diffrn_reflns_limit_h_max       16
_diffrn_reflns_limit_k_min       -15
_diffrn_reflns_limit_k_max       15
_diffrn_reflns_limit_l_min       -17
_diffrn_reflns_limit_l_max       15
_diffrn_reflns_theta_min         2.06
_diffrn_reflns_theta_max         24.99
_reflns_number_total             4772
_reflns_number_gt                3418
_reflns_threshold_expression     >2sigma(I)

_computing_data_collection       'STOE X-AREA'
_computing_cell_refinement       'STOE X-AREA'
_computing_data_reduction        'STOE X-AREA, STOE X-RED'
_computing_structure_solution    'SHELXS-97 Sheldrick, G. M. (2008) Acta Cryst.'
_computing_structure_refinement  'SHELXL-97 Sheldrick, G. M. (2008) Acta Cryst.'
_computing_molecular_graphics    'DIAMOND 3.2'
_computing_publication_material  'WinGX publication routines (Farrugia, 1999)'


_refine_special_details          
;
Refinement of F^2^ against ALL reflections. The weighted R-factor wR and
goodness of fit S are based on F^2^, conventional R-factors R are based
on F, with F set to zero for negative F^2^. The threshold expression of
F^2^ > 2sigma(F^2^) is used only for calculating R-factors(gt) etc. and is
not relevant to the choice of reflections for refinement. R-factors based
on F^2^ are statistically about twice as large as those based on F, and R-
factors based on ALL data will be even larger.
;

_refine_ls_structure_factor_coef Fsqd
_refine_ls_matrix_type           full
_refine_ls_weighting_scheme      calc
_refine_ls_weighting_details     
'calc w=1/[\s^2^(Fo^2^)+(0.2000P)^2^+0.0000P] where P=(Fo^2^+2Fc^2^)/3'
_atom_sites_solution_primary     direct
_atom_sites_solution_secondary   difmap
_atom_sites_solution_hydrogens   geom
_refine_ls_hydrogen_treatment    constr
_refine_ls_extinction_method     SHELXL
_refine_ls_extinction_coef       0.035(4)
_refine_ls_extinction_expression Fc^*^=kFc[1+0.001xFc^2^\l^3^/sin(2\q)]^-1/4^
_refine_ls_number_reflns         4772
_refine_ls_number_parameters     231
_refine_ls_number_restraints     0
_refine_ls_R_factor_all          0.0621
_refine_ls_R_factor_gt           0.0530
_refine_ls_wR_factor_ref         0.1711
_refine_ls_wR_factor_gt          0.1591
_refine_ls_goodness_of_fit_ref   0.664
_refine_ls_restrained_S_all      0.664
_refine_ls_shift/su_max          0.000
_refine_ls_shift/su_mean         0.000

loop_
_atom_site_label
_atom_site_type_symbol
_atom_site_fract_x
_atom_site_fract_y
_atom_site_fract_z
_atom_site_U_iso_or_equiv
_atom_site_adp_type
_atom_site_occupancy
_atom_site_symmetry_multiplicity
_atom_site_calc_flag
_atom_site_refinement_flags
_atom_site_disorder_assembly
_atom_site_disorder_group
C1 C 0.3668(3) 0.4920(3) 0.1381(3) 0.0761(11) Uani 1 1 d . . .
C2 C 0.28932(19) 0.4371(2) 0.18284(18) 0.0572(7) Uani 1 1 d . . .
C3 C 0.26454(17) 0.34075(19) 0.15442(17) 0.0508(6) Uani 1 1 d . . .
H3 H 0.2982 0.3088 0.1104 0.061 Uiso 1 1 calc R . .
C4 C 0.18900(16) 0.29324(17) 0.19268(15) 0.0447(5) Uani 1 1 d . . .
C5 C 0.13907(17) 0.33807(18) 0.26027(16) 0.0474(5) Uani 1 1 d . . .
H5 H 0.0887 0.3047 0.2856 0.057 Uiso 1 1 calc R . .
C6 C 0.16520(19) 0.4321(2) 0.28901(17) 0.0531(6) Uani 1 1 d . . .
C7 C 0.2405(2) 0.4810(2) 0.25134(19) 0.0606(8) Uani 1 1 d . . .
H7 H 0.2586 0.5443 0.2724 0.073 Uiso 1 1 calc R . .
C8 C 0.1145(2) 0.4786(2) 0.3666(2) 0.0591(8) Uani 1 1 d . . .
C9 C 0.0401(2) 0.2557(2) 0.0378(2) 0.0758(9) Uani 1 1 d . . .
H9A H 0.0837 0.2937 0.0036 0.114 Uiso 1 1 calc R . .
H9B H 0.0084 0.2998 0.0779 0.114 Uiso 1 1 calc R . .
H9C H -0.0066 0.2241 -0.0026 0.114 Uiso 1 1 calc R . .
C10 C 0.09515(17) 0.17546(19) 0.09295(16) 0.0487(6) Uani 1 1 d . . .
C11 C 0.19275(17) 0.10168(19) 0.19075(16) 0.0484(6) Uani 1 1 d . . .
C12 C 0.26625(18) 0.0819(2) 0.26370(18) 0.0550(6) Uani 1 1 d . . .
C13 C 0.2853(3) 0.1455(3) 0.3362(2) 0.0779(9) Uani 1 1 d . . .
H13 H 0.2524 0.2058 0.3404 0.093 Uiso 1 1 calc R . .
C14 C 0.3527(3) 0.1188(3) 0.4016(2) 0.0799(9) Uani 1 1 d . . .
H14 H 0.3649 0.1622 0.4500 0.096 Uiso 1 1 calc R . .
C15 C 0.3846(3) -0.0257(3) 0.3303(3) 0.0885(12) Uani 1 1 d . . .
H15 H 0.4192 -0.0851 0.3278 0.106 Uiso 1 1 calc R . .
C16 C 0.3189(3) -0.0061(3) 0.2612(3) 0.0867(11) Uani 1 1 d . . .
H16 H 0.3096 -0.0509 0.2135 0.104 Uiso 1 1 calc R . .
Cu1 Cu 0.5000 0.0000 0.5000 0.0754(3) Uani 1 2 d S . .
Cu2 Cu 0.0000 0.0000 0.0000 0.0454(2) Uani 1 2 d S . .
N1 N 0.16114(14) 0.19427(14) 0.16125(13) 0.0458(5) Uani 1 1 d . . .
N2 N 0.08777(15) 0.07854(16) 0.08265(14) 0.0499(5) Uani 1 1 d . . .
N3 N 0.14880(16) 0.03127(18) 0.14430(15) 0.0534(5) Uani 1 1 d . . .
N4 N 0.40205(17) 0.0329(2) 0.39933(16) 0.0621(6) Uani 1 1 d . . .
O1 O 0.41333(15) 0.44318(19) 0.08511(14) 0.0759(7) Uani 1 1 d . . .
O2 O 0.3805(3) 0.5803(3) 0.1561(4) 0.192(3) Uani 1 1 d . . .
O3 O 0.04775(14) 0.42824(14) 0.39708(12) 0.0569(5) Uani 1 1 d . . .
O4 O 0.1392(2) 0.56187(19) 0.3975(2) 0.0933(9) Uani 1 1 d . . .

loop_
_atom_site_aniso_label
_atom_site_aniso_U_11
_atom_site_aniso_U_22
_atom_site_aniso_U_33
_atom_site_aniso_U_23
_atom_site_aniso_U_13
_atom_site_aniso_U_12
C1 0.072(2) 0.077(2) 0.081(3) -0.0041(16) 0.023(2) -0.0232(16)
C2 0.0530(14) 0.0647(15) 0.0545(15) -0.0009(12) 0.0093(12) -0.0099(12)
C3 0.0442(12) 0.0646(15) 0.0444(13) -0.0022(11) 0.0109(10) -0.0023(11)
C4 0.0436(11) 0.0508(13) 0.0395(12) -0.0006(9) 0.0003(9) -0.0009(10)
C5 0.0437(12) 0.0580(13) 0.0407(12) 0.0007(10) 0.0031(10) -0.0036(10)
C6 0.0551(14) 0.0593(14) 0.0456(13) -0.0056(11) 0.0087(11) -0.0011(11)
C7 0.0626(19) 0.0552(15) 0.065(2) -0.0068(11) 0.0123(16) -0.0105(12)
C8 0.0588(17) 0.0648(16) 0.0538(18) -0.0107(13) 0.0055(14) 0.0037(13)
C9 0.0751(19) 0.076(2) 0.073(2) -0.0158(15) -0.0210(16) 0.0015(16)
C10 0.0467(12) 0.0595(14) 0.0393(12) -0.0020(10) -0.0031(10) -0.0021(10)
C11 0.0467(12) 0.0550(13) 0.0430(13) -0.0026(10) -0.0023(10) 0.0015(10)
C12 0.0495(13) 0.0644(16) 0.0501(14) -0.0006(11) -0.0056(11) 0.0064(12)
C13 0.086(2) 0.088(2) 0.0568(17) -0.0108(15) -0.0217(16) 0.0314(18)
C14 0.087(2) 0.092(2) 0.0582(18) -0.0049(16) -0.0154(16) 0.0254(19)
C15 0.091(3) 0.092(2) 0.081(3) -0.009(2) -0.017(2) 0.035(2)
C16 0.086(3) 0.089(2) 0.082(3) -0.0223(17) -0.025(2) 0.0230(17)
Cu1 0.0530(4) 0.1327(6) 0.0409(4) 0.0077(2) 0.0051(3) 0.0415(3)
Cu2 0.0491(3) 0.0528(3) 0.0344(3) 0.00015(15) 0.0020(2) -0.00768(16)
N1 0.0457(10) 0.0530(11) 0.0382(10) -0.0026(8) -0.0019(8) -0.0012(8)
N2 0.0527(11) 0.0518(11) 0.0448(11) 0.0027(9) -0.0010(9) -0.0031(9)
N3 0.0557(13) 0.0552(11) 0.0487(12) -0.0015(10) -0.0039(10) 0.0034(10)
N4 0.0543(13) 0.0823(15) 0.0491(13) -0.0015(12) -0.0021(10) 0.0192(12)
O1 0.0633(12) 0.1148(18) 0.0505(11) -0.0130(11) 0.0114(10) -0.0382(12)
O2 0.179(4) 0.089(2) 0.324(7) -0.028(3) 0.153(5) -0.057(2)
O3 0.0646(11) 0.0615(10) 0.0456(9) -0.0009(8) 0.0121(8) 0.0060(9)
O4 0.0986(18) 0.0801(16) 0.1046(19) -0.0431(14) 0.0355(16) -0.0188(14)

_geom_special_details            
;
All esds (except the esd in the dihedral angle between two l.s. planes)
are estimated using the full covariance matrix. The cell esds are taken
into account individually in the estimation of esds in distances, angles
and torsion angles; correlations between esds in cell parameters are only
used when they are defined by crystal symmetry. An approximate (isotropic)
treatment of cell esds is used for estimating esds involving l.s. planes.
;

loop_
_geom_bond_atom_site_label_1
_geom_bond_atom_site_label_2
_geom_bond_distance
_geom_bond_site_symmetry_2
_geom_bond_publ_flag
C1 O2 1.219(4) . ?
C1 O1 1.233(5) . ?
C1 C2 1.494(4) . ?
C2 C7 1.384(4) . ?
C2 C3 1.389(4) . ?
C3 C4 1.381(3) . ?
C3 H3 0.9300 . ?
C4 C5 1.388(3) . ?
C4 N1 1.445(3) . ?
C5 C6 1.366(4) . ?
C5 H5 0.9300 . ?
C6 C7 1.383(4) . ?
C6 C8 1.517(4) . ?
C7 H7 0.9300 . ?
C8 O4 1.242(4) . ?
C8 O3 1.256(4) . ?
C9 C10 1.529(4) . ?
C9 H9A 0.9600 . ?
C9 H9B 0.9600 . ?
C9 H9C 0.9600 . ?
C10 N2 1.303(3) . ?
C10 N1 1.357(3) . ?
C11 N3 1.299(3) . ?
C11 N1 1.374(3) . ?
C11 C12 1.476(3) . ?
C12 C13 1.384(4) . ?
C12 C16 1.386(4) . ?
C13 C14 1.363(4) . ?
C13 H13 0.9300 . ?
C14 N4 1.338(4) . ?
C14 H14 0.9300 . ?
C15 N4 1.300(5) . ?
C15 C16 1.364(6) . ?
C15 H15 0.9300 . ?
C16 H16 0.9300 . ?
Cu1 O1 1.9510(19) 4_566 ?
Cu1 O1 1.9510(19) 2_645 ?
Cu1 N4 2.020(2) . ?
Cu1 N4 2.020(2) 3_656 ?
Cu2 O3 1.9497(17) 4_565 ?
Cu2 O3 1.9497(17) 2_545 ?
Cu2 N2 1.986(2) . ?
Cu2 N2 1.986(2) 3 ?
N2 N3 1.370(3) . ?
O1 Cu1 1.9510(19) 2_655 ?
O3 Cu2 1.9497(17) 2 ?

loop_
_geom_angle_atom_site_label_1
_geom_angle_atom_site_label_2
_geom_angle_atom_site_label_3
_geom_angle
_geom_angle_site_symmetry_1
_geom_angle_site_symmetry_3
_geom_angle_publ_flag
O2 C1 O1 124.5(4) . . ?
O2 C1 C2 119.0(4) . . ?
O1 C1 C2 116.5(3) . . ?
C7 C2 C3 119.2(2) . . ?
C7 C2 C1 121.3(3) . . ?
C3 C2 C1 119.5(3) . . ?
C4 C3 C2 118.9(2) . . ?
C4 C3 H3 120.6 . . ?
C2 C3 H3 120.6 . . ?
C3 C4 C5 121.8(2) . . ?
C3 C4 N1 119.0(2) . . ?
C5 C4 N1 119.2(2) . . ?
C6 C5 C4 118.9(2) . . ?
C6 C5 H5 120.6 . . ?
C4 C5 H5 120.6 . . ?
C5 C6 C7 120.2(2) . . ?
C5 C6 C8 118.9(2) . . ?
C7 C6 C8 120.8(3) . . ?
C6 C7 C2 121.0(3) . . ?
C6 C7 H7 119.5 . . ?
C2 C7 H7 119.5 . . ?
O4 C8 O3 122.8(3) . . ?
O4 C8 C6 120.9(3) . . ?
O3 C8 C6 116.3(3) . . ?
C10 C9 H9A 109.5 . . ?
C10 C9 H9B 109.5 . . ?
H9A C9 H9B 109.5 . . ?
C10 C9 H9C 109.5 . . ?
H9A C9 H9C 109.5 . . ?
H9B C9 H9C 109.5 . . ?
N2 C10 N1 108.5(2) . . ?
N2 C10 C9 126.5(2) . . ?
N1 C10 C9 125.0(2) . . ?
N3 C11 N1 110.1(2) . . ?
N3 C11 C12 123.5(2) . . ?
N1 C11 C12 126.4(2) . . ?
C13 C12 C16 117.2(3) . . ?
C13 C12 C11 123.9(3) . . ?
C16 C12 C11 118.8(3) . . ?
C14 C13 C12 119.3(3) . . ?
C14 C13 H13 120.3 . . ?
C12 C13 H13 120.3 . . ?
N4 C14 C13 122.9(3) . . ?
N4 C14 H14 118.5 . . ?
C13 C14 H14 118.5 . . ?
N4 C15 C16 124.6(3) . . ?
N4 C15 H15 117.7 . . ?
C16 C15 H15 117.7 . . ?
C15 C16 C12 118.6(3) . . ?
C15 C16 H16 120.7 . . ?
C12 C16 H16 120.7 . . ?
O1 Cu1 O1 180.00(9) 4_566 2_645 ?
O1 Cu1 N4 88.41(9) 4_566 . ?
O1 Cu1 N4 91.59(9) 2_645 . ?
O1 Cu1 N4 91.59(9) 4_566 3_656 ?
O1 Cu1 N4 88.41(9) 2_645 3_656 ?
N4 Cu1 N4 180.0 . 3_656 ?
O3 Cu2 O3 180.00(14) 4_565 2_545 ?
O3 Cu2 N2 89.87(8) 4_565 . ?
O3 Cu2 N2 90.13(8) 2_545 . ?
O3 Cu2 N2 90.13(8) 4_565 3 ?
O3 Cu2 N2 89.87(8) 2_545 3 ?
N2 Cu2 N2 180.00(18) . 3 ?
C10 N1 C11 105.5(2) . . ?
C10 N1 C4 124.8(2) . . ?
C11 N1 C4 129.8(2) . . ?
C10 N2 N3 109.5(2) . . ?
C10 N2 Cu2 129.53(18) . . ?
N3 N2 Cu2 120.84(17) . . ?
C11 N3 N2 106.4(2) . . ?
C15 N4 C14 117.2(3) . . ?
C15 N4 Cu1 122.9(2) . . ?
C14 N4 Cu1 119.9(2) . . ?
C1 O1 Cu1 125.2(2) . 2_655 ?
C8 O3 Cu2 108.31(18) . 2 ?

_diffrn_measured_fraction_theta_max 0.981
_diffrn_reflns_theta_full        24.99
_diffrn_measured_fraction_theta_full 0.981
_refine_diff_density_max         0.345
_refine_diff_density_min         -0.384
_refine_diff_density_rms         0.077


