
#######################################################################
#
#                 Cambridge Crystallographic Data Centre
#                                CCDC
#
#######################################################################
#
# If this CIF has been generated from an entry in the Cambridge
# Structural Database, then it will include bibliographic, chemical,
# crystal, experimental, refinement or atomic coordinate data resulting
# from the CCDC's data processing and validation procedures.
#
#######################################################################

data_CSD_CIF_DACMOR01
_audit_creation_date 1996-06-14
_audit_creation_method CSD-ConQuest-V1
_database_code_CSD DACMOR01
_database_code_depnum_ccdc_archive 'CCDC 126379'
_chemical_formula_sum 'C21 H23 N1 O5'
_chemical_formula_moiety
;
C21 H23 N1 O5
;
_journal_coeditor_code "IUCr AB1311"
_journal_coden_Cambridge 591
_journal_volume 52
_journal_year 1996
_journal_page_first 698
_journal_name_full 'Acta Crystallogr.,Sect.C:Cryst.Struct.Commun. '
loop_
_publ_author_name
"J.R.Deschamps"
"C.George"
"J.L.Flippen-Anderson"
_chemical_name_systematic
;
7,8-Didehydro-4,5\a-epoxy-17-methyl-morphinan-3,6\a-diol diacetate
;
_chemical_name_common
;
Diacetylmorphine, Heroin; DrugBank: DB01452; Teaching Subset: Fundamental 
Chemistry, Drug Molecules
;
_cell_volume   1860.786
_exptl_crystal_colour 'colorless'
_exptl_crystal_density_diffrn 1.319
_exptl_special_details
;
monoclinic polymorph
analgesic, sedative

;
_diffrn_ambient_temperature ?
_diffrn_special_details
;
The study was carried out at room temperature,in the range 283-303K

;
#These two values have been output from a single CSD field.
_refine_ls_R_factor_gt 0.0481
_refine_ls_wR_factor_gt 0.0481
_symmetry_cell_setting monoclinic
_symmetry_space_group_name_H-M 'P 21'
_symmetry_Int_Tables_number 4
loop_
_symmetry_equiv_pos_site_id
_symmetry_equiv_pos_as_xyz
1 x,y,z
2 -x,1/2+y,-z
_cell_length_a 7.381(1)
_cell_length_b 32.096(2)
_cell_length_c 7.884(1)
_cell_angle_alpha 90
_cell_angle_beta 94.94(11)
_cell_angle_gamma 90
_cell_formula_units_Z 4
loop_
_atom_type_symbol
_atom_type_radius_bond
C 0.68
H 0.23
N 0.68
O 0.68
loop_
_atom_site_label
_atom_site_type_symbol
_atom_site_fract_x
_atom_site_fract_y
_atom_site_fract_z
O1 O -0.0290(6) 0.21828(14) 0.9851(6)
C1 C 0.2093(8) 0.2234(2) 1.4139(8)
H1 H 0.2037(8) 0.2099(2) 1.5176(8)
O2 O 0.2078(5) 0.29327(12) 0.9770(5)
C2 C 0.1027(9) 0.2100(2) 1.2730(8)
H2 H 0.0316(9) 0.1862(2) 1.2816(8)
C3 C 0.0979(8) 0.2308(2) 1.1182(8)
O3 O 0.189(1) 0.1871(3) 0.8574(8)
O4 O 0.0586(5) 0.37410(12) 0.9479(5)
C4 C 0.2083(8) 0.2649(2) 1.1090(7)
C5 C 0.3209(8) 0.3286(2) 1.0387(7)
H3 H 0.4038(8) 0.3360(2) 0.9528(7)
O5 O 0.2497(8) 0.4046(2) 0.7818(6)
C6 C 0.2062(8) 0.3668(2) 1.0776(7)
H4 H 0.2863(8) 0.3912(2) 1.0795(7)
C7 C 0.1308(8) 0.3646(2) 1.2453(8)
H5 H 0.0085(8) 0.3702(2) 1.2549(8)
C8 C 0.2395(8) 0.3544(2) 1.3815(8)
H6 H 0.1972(8) 0.3547(2) 1.4893(8)
C9 C 0.5286(8) 0.3187(2) 1.5108(8)
H7 H 0.5273(8) 0.3369(2) 1.6104(8)
C10 C 0.4283(9) 0.2784(2) 1.5518(8)
H8 H 0.5164(9) 0.2588(2) 1.6042(8)
H9 H 0.3429(9) 0.2848(2) 1.6349(8)
C11 C 0.3260(8) 0.2572(2) 1.4016(7)
C12 C 0.3293(7) 0.2754(2) 1.2439(7)
C13 C 0.4336(7) 0.3139(2) 1.2037(7)
C14 C 0.4325(8) 0.3423(2) 1.3582(7)
H10 H 0.5021(8) 0.3676(2) 1.3376(7)
C15 C 0.6345(8) 0.3044(2) 1.1707(8)
H11 H 0.6366(8) 0.2842(2) 1.0794(8)
H12 H 0.6921(8) 0.3297(2) 1.1350(8)
C16 C 0.7406(9) 0.2874(2) 1.3296(9)
H13 H 0.6977(9) 0.2596(2) 1.3522(9)
H14 H 0.8682(9) 0.2855(2) 1.3099(9)
N1 N 0.7217(7) 0.3132(2) 1.4757(7)
C17 C 0.8356(11) 0.2977(3) 1.6263(11)
H15 H 0.8202(11) 0.3155(3) 1.7220(11)
H16 H 0.9610(11) 0.2978(3) 1.6025(11)
H17 H 0.7995(11) 0.2699(3) 1.6520(11)
C18 C 0.0323(11) 0.1934(2) 0.8645(8)
C19 C -0.1182(13) 0.1772(3) 0.7433(10)
H18 H -0.2328(13) 0.1867(3) 0.7775(10)
H19 H -0.1159(13) 0.1473(3) 0.7442(10)
H20 H -0.1025(13) 0.1871(3) 0.6306(10)
C20 C 0.0987(10) 0.3953(2) 0.8098(8)
C21 C -0.0673(11) 0.4060(2) 0.6958(9)
H21 H -0.1732(11) 0.3956(2) 0.7442(9)
H22 H -0.0588(11) 0.3937(2) 0.5859(9)
H23 H -0.0764(11) 0.4357(2) 0.6841(9)
O6 O 0.4553(6) 0.12531(14) 0.3081(6)
C22 C 0.4015(9) 0.0917(2) 0.7494(10)
H24 H 0.3599(9) 0.1028(2) 0.8478(10)
O7 O 0.6238(7) 0.04226(14) 0.3357(5)
C23 C 0.3962(10) 0.1155(2) 0.6042(11)
H25 H 0.3464(10) 0.1421(2) 0.6054(11)
C24 C 0.4626(9) 0.1011(2) 0.4572(9)
O8 O 0.7157(11) 0.1536(3) 0.3845(9)
O9 O 0.9753(7) 0.0568(2) 0.3785(7)
C25 C 0.5313(8) 0.0614(2) 0.4585(8)
C26 C 0.7266(10) 0.0078(2) 0.4197(8)
H26 H 0.7308(10) -0.0157(2) 0.3409(8)
O10 O 1.0664(12) 0.0147(2) 0.1841(8)
C27 C 0.9246(9) 0.0221(2) 0.4799(11)
H27 H 1.0060(9) -0.0011(2) 0.4578(11)
C28 C 0.9569(9) 0.0325(3) 0.6602(10)
H28 H 1.0404(9) 0.0534(3) 0.6919(10)
C29 C 0.8745(9) 0.0140(2) 0.7789(10)
H29 H 0.9097(9) 0.0200(2) 0.8923(10)
C30 C 0.5878(8) -0.0191(2) 0.8755(7)
H30 H 0.6568(8) -0.0270(2) 0.9824(7)
C31 C 0.4995(10) 0.0238(2) 0.9062(8)
H31 H 0.3835(10) 0.0191(2) 0.9523(8)
H32 H 0.5766(10) 0.0387(2) 0.9917(8)
C32 C 0.4682(8) 0.0511(2) 0.7516(7)
C33 C 0.5261(7) 0.0367(2) 0.6004(7)
C34 C 0.6145(8) -0.0045(2) 0.5714(7)
C35 C 0.7261(8) -0.0165(2) 0.7379(7)
H33 H 0.7795(8) -0.0442(2) 0.7242(7)
C36 C 0.4745(9) -0.0383(2) 0.5241(8)
H34 H 0.3989(9) -0.0298(2) 0.4234(8)
H35 H 0.5367(9) -0.0638(2) 0.4973(8)
C37 C 0.3548(8) -0.0467(2) 0.6681(8)
H36 H 0.2747(8) -0.0231(2) 0.6801(8)
H37 H 0.2800(8) -0.0710(2) 0.6407(8)
N2 N 0.4639(7) -0.05363(14) 0.8276(6)
C38 C 0.3504(10) -0.0640(2) 0.9653(9)
H38 H 0.4264(10) -0.0684(2) 1.0688(9)
H39 H 0.2827(10) -0.0889(2) 0.9364(9)
H40 H 0.2677(10) -0.0415(2) 0.9808(9)
C39 C 0.5904(9) 0.1510(2) 0.2855(9)
C40 C 0.5651(10) 0.1735(2) 0.1226(9)
H41 H 0.4498(10) 0.1661(2) 0.0648(9)
H42 H 0.6607(10) 0.1662(2) 0.0530(9)
H43 H 0.5682(10) 0.2030(2) 0.1436(9)
C41 C 1.0375(10) 0.0493(3) 0.2297(9)
C42 C 1.0651(13) 0.0878(3) 0.1328(11)
H44 H 1.0318(13) 0.1115(3) 0.1979(11)
H45 H 0.9907(13) 0.0870(3) 0.0268(11)
H46 H 1.1906(13) 0.0901(3) 0.1108(11)
#END
