####################################################################### 
# 
# This file contains crystal structure data downloaded from the 
# Cambridge Structural Database (CSD) hosted by the Cambridge 
# Crystallographic Data Centre (CCDC).
# 
# Full information about CCDC data access policies and citation 
# guidelines are available at http://www.ccdc.cam.ac.uk/access/V1 
# 
# Audit and citation data items may have been added by the CCDC. 
# Please retain this information to preserve the provenance of 
# this file and to allow appropriate attribution of the data. 
# 
#######################################################################

data_Rh125
_audit_block_doi                 10.5517/cc7rp2q
_database_code_depnum_ccdc_archive 'CCDC 231293'
loop_
_citation_id
_citation_doi
_citation_year
1 10.1016/j.ica.2004.02.017 2004
_audit_update_record             
;
2004-02-12 deposited with the CCDC.	2024-07-09 downloaded from the CCDC.
;

_audit_creation_method           SHELXL-97
_chemical_name_systematic        
;catena-poly[bis{(di-m-acetato-bis(2,2'-bipyridine)dirhodium)}]
tetrafluoroborate-1,4-dioxane
;

_chemical_name_common            
"[bis{(di-m-acetato-bis(2,2'-bipyridine)dirhodium)}] tetrafluoroborate"
_chemical_formula_moiety         '[Rh4(OOCH)4(C10H8N2)4][BF4].0.5C4H8O2'
_chemical_formula_sum            'C23 H20 B0.50 F2 N4 O4.50 Rh2'
_chemical_formula_weight         673.66

loop_
_atom_type_symbol
_atom_type_description
_atom_type_scat_dispersion_real
_atom_type_scat_dispersion_imag
_atom_type_scat_source
C C 0.0033 0.0016 'International Tables Vol C Tables 4.2.6.8 and 6.1.1.4'
H H 0.0000 0.0000 'International Tables Vol C Tables 4.2.6.8 and 6.1.1.4'
N N 0.0061 0.0033 'International Tables Vol C Tables 4.2.6.8 and 6.1.1.4'
O O 0.0106 0.0060 'International Tables Vol C Tables 4.2.6.8 and 6.1.1.4'
Rh Rh -1.1178 0.9187 'International Tables Vol C Tables 4.2.6.8 and 6.1.1.4'
B B 0.0013 0.0007 'International Tables Vol C Tables 4.2.6.8 and 6.1.1.4'
F F 0.0171 0.0103 'International Tables Vol C Tables 4.2.6.8 and 6.1.1.4'

_symmetry_cell_setting           Monoclinic
_symmetry_space_group_name_H-M   C2/c

loop_
_symmetry_equiv_pos_as_xyz
'x, y, z'
'-x, y, -z+1/2'
'x+1/2, y+1/2, z'
'-x+1/2, y+1/2, -z+1/2'
'-x, -y, -z'
'x, -y, z-1/2'
'-x+1/2, -y+1/2, -z'
'x+1/2, -y+1/2, z-1/2'

_cell_length_a                   23.505(5)
_cell_length_b                   13.044(3)
_cell_length_c                   21.936(4)
_cell_angle_alpha                90.00
_cell_angle_beta                 115.33(3)
_cell_angle_gamma                90.00
_cell_volume                     6079(2)
_cell_formula_units_Z            8
_cell_measurement_temperature    100(2)
_cell_measurement_reflns_used    2300
_cell_measurement_theta_min      3.49
_cell_measurement_theta_max      25.08

_exptl_crystal_description       ?
_exptl_crystal_colour            ?
_exptl_crystal_size_max          0.12
_exptl_crystal_size_mid          0.06
_exptl_crystal_size_min          0.06
_exptl_crystal_density_meas      ?
_exptl_crystal_density_diffrn    1.472
_exptl_crystal_density_method    'not measured'
_exptl_crystal_F_000             2660
_exptl_absorpt_coefficient_mu    1.130
_exptl_absorpt_correction_type   |Fo|-Fc|
_exptl_absorpt_correction_T_min  0.8763
_exptl_absorpt_correction_T_max  0.9353

_exptl_special_details           
;
?
;

_diffrn_ambient_temperature      100(2)
_diffrn_radiation_wavelength     0.71073
_diffrn_radiation_type           MoK\a
_diffrn_radiation_source         'fine-focus sealed tube'
_diffrn_radiation_monochromator  graphite
_diffrn_measurement_device_type  'Kuma KM4CCD'
_diffrn_measurement_method       '\w scan'
_diffrn_detector_area_resol_mean ?
_diffrn_standards_number         'none (area detector data)'
_diffrn_standards_interval_count ?
_diffrn_standards_interval_time  ?
_diffrn_standards_decay_%        ?
_diffrn_reflns_number            8002
_diffrn_reflns_av_R_equivalents  0.1205
_diffrn_reflns_av_sigmaI/netI    0.0989
_diffrn_reflns_limit_h_min       -28
_diffrn_reflns_limit_h_max       28
_diffrn_reflns_limit_k_min       -11
_diffrn_reflns_limit_k_max       15
_diffrn_reflns_limit_l_min       -25
_diffrn_reflns_limit_l_max       26
_diffrn_reflns_theta_min         3.49
_diffrn_reflns_theta_max         25.08
_reflns_number_total             2810
_reflns_number_gt                2754
_reflns_threshold_expression     >2sigma(I)

_computing_data_collection       'Oxford Diffraction (Poland) Sp. z o.o'
_computing_cell_refinement       'Oxford Diffraction (Poland) Sp. z o.o'
_computing_data_reduction        'Oxford Diffraction (Poland) Sp. z o.o'
_computing_structure_solution    'SHELXS-97 (Sheldrick, 1990)'
_computing_structure_refinement  'SHELXL-97 (Sheldrick, 1997)'
_computing_molecular_graphics    'SHELXTL-NT V5.1, Bruker AXS 1999'
_computing_publication_material  'SHELXL-97 (Sheldrick, 1997)'

_refine_special_details          
;
Refinement of F^2^ against ALL reflections.  The weighted R-factor wR and
goodness of fit S are based on F^2^, conventional R-factors R are based
on F, with F set to zero for negative F^2^. The threshold expression of
F^2^ > 2sigma(F^2^) is used only for calculating R-factors(gt) etc. and is
not relevant to the choice of reflections for refinement.  R-factors based
on F^2^ are statistically about twice as large as those based on F, and R-
factors based on ALL data will be even larger.
;

_refine_ls_structure_factor_coef Fsqd
_refine_ls_matrix_type           full
_refine_ls_weighting_scheme      
'calc w=1/[\s^2^(Fo^2^)+(0.1044P)^2^+238.4338P] where P=(Fo^2^+2Fc^2^)/3'
_atom_sites_solution_primary     direct
_atom_sites_solution_secondary   difmap
_atom_sites_solution_hydrogens   geom
_refine_ls_hydrogen_treatment    mixed
_refine_ls_extinction_method     SHELXL
_refine_ls_extinction_coef       0.0010(2)
_refine_ls_extinction_expression Fc^*^=kFc[1+0.001xFc^2^\l^3^/sin(2\q)]^-1/4^
_refine_ls_number_reflns         2810
_refine_ls_number_parameters     322
_refine_ls_number_restraints     0
_refine_ls_R_factor_all          0.0958
_refine_ls_R_factor_gt           0.0938
_refine_ls_wR_factor_ref         0.2547
_refine_ls_wR_factor_gt          0.2533
_refine_ls_goodness_of_fit_ref   1.249
_refine_ls_restrained_S_all      1.249
_refine_ls_shift/su_max          0.007
_refine_ls_shift/su_mean         0.001

loop_
_atom_site_label
_atom_site_type_symbol
_atom_site_fract_x
_atom_site_fract_y
_atom_site_fract_z
_atom_site_U_iso_or_equiv
_atom_site_adp_type
_atom_site_occupancy
_atom_site_calc_flag
_atom_site_refinement_flags
_atom_site_disorder_assembly
_atom_site_disorder_group
Rh1 Rh 0.00745(7) 0.51960(15) 0.19154(9) 0.0350(6) Uani 1 d . . .
Rh2 Rh 0.00183(7) 0.50971(16) 0.06714(8) 0.0323(6) Uani 1 d . . .
O1 O -0.0811(6) 0.5806(11) 0.1406(7) 0.038(4) Uani 1 d . . .
O2 O -0.0937(6) 0.5274(12) 0.0379(7) 0.038(4) Uani 1 d . . .
O3 O -0.0331(7) 0.3765(11) 0.1705(8) 0.041(4) Uani 1 d . . .
O4 O -0.0133(6) 0.3561(11) 0.0791(8) 0.041(4) Uani 1 d . . .
O5 O -0.2172(11) 0.2015(18) -0.0328(13) 0.027(6) Uiso 0.50 d P . .
N1 N 0.0541(8) 0.6525(15) 0.2136(9) 0.042(5) Uani 1 d . . .
N2 N 0.0946(7) 0.4693(14) 0.2425(9) 0.041(5) Uani 1 d . . .
N3 N 0.0190(7) 0.6540(13) 0.0559(9) 0.032(4) Uani 1 d . . .
N4 N 0.0943(7) 0.5032(13) 0.0971(9) 0.036(4) Uani 1 d . . .
C1 C 0.0278(12) 0.7472(16) 0.1961(13) 0.053(7) Uani 1 d . . .
H1 H -0.0168 0.7533 0.1766 0.063 Uiso 1 calc R . .
C2 C 0.0628(14) 0.8325(19) 0.2055(13) 0.063(8) Uani 1 d . . .
H2 H 0.0431 0.8972 0.1910 0.076 Uiso 1 calc R . .
C3 C 0.1281(13) 0.825(2) 0.2366(12) 0.061(7) Uani 1 d . . .
H3 H 0.1536 0.8839 0.2431 0.074 Uiso 1 calc R . .
C4 C 0.1549(11) 0.7302(18) 0.2579(11) 0.048(6) Uani 1 d . . .
H4 H 0.1994 0.7243 0.2810 0.057 Uiso 1 calc R . .
C5 C 0.1183(10) 0.6441(18) 0.2462(11) 0.041(6) Uani 1 d . . .
C6 C 0.1402(9) 0.5434(19) 0.2623(10) 0.041(5) Uani 1 d . . .
C7 C 0.2027(9) 0.5137(19) 0.2968(10) 0.047(6) Uani 1 d . . .
H7 H 0.2343 0.5652 0.3119 0.056 Uiso 1 calc R . .
C8 C 0.2210(10) 0.412(2) 0.3101(11) 0.053(7) Uani 1 d . . .
H8 H 0.2641 0.3934 0.3323 0.063 Uiso 1 calc R . .
C9 C 0.1729(11) 0.339(2) 0.2894(11) 0.054(7) Uani 1 d . . .
H9 H 0.1827 0.2679 0.2980 0.065 Uiso 1 calc R . .
C10 C 0.1124(11) 0.3701(19) 0.2570(11) 0.045(6) Uani 1 d . . .
H10 H 0.0803 0.3194 0.2435 0.054 Uiso 1 calc R . .
C11 C -0.0257(13) 0.7286(17) 0.0274(11) 0.059(8) Uani 1 d . . .
H11 H -0.0687 0.7132 0.0150 0.071 Uiso 1 calc R . .
C12 C -0.0092(12) 0.8231(18) 0.0167(13) 0.053(6) Uani 1 d . . .
H12 H -0.0416 0.8714 -0.0063 0.064 Uiso 1 calc R . .
C13 C 0.0489(13) 0.8516(18) 0.0365(14) 0.057(7) Uani 1 d . . .
H13 H 0.0586 0.9205 0.0306 0.069 Uiso 1 calc R . .
C14 C 0.0971(14) 0.779(2) 0.0667(13) 0.066(8) Uani 1 d . . .
H14 H 0.1402 0.7978 0.0830 0.079 Uiso 1 calc R . .
C15 C 0.0789(10) 0.6799(16) 0.0716(10) 0.039(5) Uani 1 d . . .
C16 C 0.1228(11) 0.595(2) 0.0977(11) 0.047(6) Uani 1 d . . .
C17 C 0.1873(10) 0.5984(19) 0.1196(12) 0.046(6) Uani 1 d . . .
H17 H 0.2069 0.6624 0.1204 0.056 Uiso 1 calc R . .
C18 C 0.2239(9) 0.512(2) 0.1401(12) 0.054(7) Uani 1 d . . .
H18 H 0.2684 0.5170 0.1566 0.065 Uiso 1 calc R . .
C19 C 0.1956(9) 0.419(2) 0.1366(11) 0.048(6) Uani 1 d . . .
H19 H 0.2190 0.3574 0.1470 0.057 Uiso 1 calc R . .
C20 C 0.1303(10) 0.420(2) 0.1170(11) 0.045(6) Uani 1 d . . .
H20 H 0.1106 0.3567 0.1181 0.054 Uiso 1 calc R . .
C21 C -0.1130(10) 0.5623(16) 0.0786(12) 0.043(6) Uani 1 d . . .
H21 H -0.1568 0.5769 0.0610 0.052 Uiso 1 calc R . .
C22 C -0.0292(11) 0.3248(18) 0.1233(14) 0.056(8) Uani 1 d . . .
H22 H -0.0396 0.2542 0.1215 0.067 Uiso 1 calc R . .
C23 C -0.2711(18) 0.159(3) -0.026(2) 0.032(9) Uiso 0.50 d P . .
H23A H -0.2555 0.1189 0.0156 0.045 Uiso 0.50 d P . .
H23B H -0.2923 0.1119 -0.0622 0.045 Uiso 0.50 d P . .
C24 C -0.3138(15) 0.233(3) -0.0234(18) 0.024(8) Uiso 0.50 d P . .
H24A H -0.3490 0.1996 -0.0200 0.045 Uiso 0.50 d P . .
H24B H -0.3302 0.2723 -0.0646 0.045 Uiso 0.50 d P . .
B1 B 0.1354(19) 0.113(3) 0.175(2) 0.026(9) Uiso 0.50 d P . .
F1 F 0.1766(10) 0.1831(17) 0.1696(12) 0.038(5) Uiso 0.50 d P . .
F2 F 0.1355(11) 0.027(2) 0.1367(12) 0.048(6) Uiso 0.50 d P . .
F3 F 0.1530(12) 0.085(2) 0.2369(14) 0.055(7) Uiso 0.50 d P . .
F4 F 0.0786(10) 0.1588(17) 0.1508(12) 0.039(5) Uiso 0.50 d P . .

loop_
_atom_site_aniso_label
_atom_site_aniso_U_11
_atom_site_aniso_U_22
_atom_site_aniso_U_33
_atom_site_aniso_U_23
_atom_site_aniso_U_13
_atom_site_aniso_U_12
Rh1 0.0298(10) 0.0421(10) 0.0292(9) -0.0005(9) 0.0091(8) 0.0001(7)
Rh2 0.0245(8) 0.0431(12) 0.0264(8) 0.0022(7) 0.0081(6) 0.0022(7)
O1 0.030(7) 0.047(9) 0.028(8) 0.006(7) 0.004(6) 0.013(7)
O2 0.030(7) 0.054(9) 0.029(8) 0.001(8) 0.010(6) -0.001(7)
O3 0.033(8) 0.038(8) 0.043(9) -0.003(7) 0.008(7) -0.002(6)
O4 0.030(8) 0.031(8) 0.048(10) 0.011(8) 0.005(7) -0.003(6)
N1 0.028(9) 0.055(12) 0.036(11) -0.001(9) 0.009(8) -0.014(8)
N2 0.030(9) 0.034(10) 0.046(11) -0.004(9) 0.005(8) 0.004(8)
N3 0.009(7) 0.038(10) 0.040(10) -0.011(8) 0.002(7) 0.003(6)
N4 0.025(8) 0.036(11) 0.034(9) 0.006(8) 0.000(7) 0.002(7)
C1 0.056(14) 0.029(12) 0.054(16) -0.005(11) 0.006(12) 0.004(10)
C2 0.09(2) 0.036(14) 0.048(16) 0.004(11) 0.012(15) -0.003(13)
C3 0.079(19) 0.057(16) 0.037(14) 0.000(12) 0.015(14) -0.006(14)
C4 0.040(12) 0.052(14) 0.036(13) -0.006(11) 0.002(10) -0.009(11)
C5 0.032(12) 0.053(14) 0.030(13) -0.006(10) 0.006(10) -0.004(10)
C6 0.023(9) 0.071(16) 0.024(10) 0.001(11) 0.005(8) -0.004(10)
C7 0.032(10) 0.066(16) 0.033(11) -0.003(11) 0.005(9) -0.022(11)
C8 0.028(11) 0.086(19) 0.029(13) 0.019(12) -0.002(10) 0.017(12)
C9 0.043(14) 0.067(16) 0.030(13) -0.010(12) -0.005(11) 0.015(12)
C10 0.041(13) 0.056(15) 0.028(13) -0.005(10) 0.005(11) 0.002(11)
C11 0.075(17) 0.035(13) 0.032(13) -0.001(10) -0.012(13) 0.021(12)
C12 0.063(16) 0.037(14) 0.056(17) 0.000(11) 0.021(13) -0.006(11)
C13 0.073(18) 0.029(12) 0.066(18) 0.002(12) 0.027(15) 0.000(12)
C14 0.081(19) 0.062(17) 0.045(16) -0.009(13) 0.020(14) -0.038(15)
C15 0.052(13) 0.034(11) 0.026(11) -0.009(9) 0.011(10) -0.003(10)
C16 0.042(13) 0.085(19) 0.014(11) -0.009(11) 0.013(10) -0.007(12)
C17 0.034(12) 0.059(15) 0.033(13) -0.001(11) 0.002(10) -0.016(11)
C18 0.024(10) 0.081(19) 0.048(14) 0.000(13) 0.006(9) -0.013(12)
C19 0.021(10) 0.078(17) 0.031(13) 0.006(12) -0.002(9) 0.020(11)
C20 0.040(12) 0.063(16) 0.023(12) 0.000(11) 0.005(10) -0.002(11)
C21 0.029(10) 0.042(13) 0.043(14) -0.004(10) 0.002(11) 0.005(9)
C22 0.044(14) 0.032(13) 0.059(18) 0.007(12) -0.010(13) -0.015(11)

_geom_special_details            
;
All esds (except the esd in the dihedral angle between two l.s. planes)
are estimated using the full covariance matrix.  The cell esds are taken
into account individually in the estimation of esds in distances, angles
and torsion angles; correlations between esds in cell parameters are only
used when they are defined by crystal symmetry.  An approximate (isotropic)
treatment of cell esds is used for estimating esds involving l.s. planes.
;

loop_
_geom_bond_atom_site_label_1
_geom_bond_atom_site_label_2
_geom_bond_distance
_geom_bond_site_symmetry_2
_geom_bond_publ_flag
Rh1 N2 1.979(15) . ?
Rh1 N1 1.996(18) . ?
Rh1 O1 2.054(13) . ?
Rh1 O3 2.056(15) . ?
Rh1 Rh2 2.678(3) . ?
Rh1 Rh1 2.733(4) 2 ?
Rh2 N3 1.962(18) . ?
Rh2 N4 1.986(16) . ?
Rh2 O2 2.068(13) . ?
Rh2 O4 2.071(14) . ?
Rh2 Rh2 2.921(3) 5_565 ?
O1 C21 1.26(3) . ?
O2 C21 1.25(3) . ?
O3 C22 1.27(3) . ?
O4 C22 1.25(3) . ?
O5 C24 1.42(4) 7_455 ?
O5 C23 1.45(5) . ?
N1 C1 1.36(3) . ?
N1 C5 1.37(3) . ?
N2 C10 1.35(3) . ?
N2 C6 1.37(3) . ?
N3 C15 1.34(3) . ?
N3 C11 1.37(3) . ?
N4 C20 1.33(3) . ?
N4 C16 1.37(3) . ?
C1 C2 1.35(3) . ?
C2 C3 1.39(4) . ?
C3 C4 1.37(3) . ?
C4 C5 1.37(3) . ?
C5 C6 1.40(3) . ?
C6 C7 1.39(3) . ?
C7 C8 1.38(3) . ?
C8 C9 1.40(3) . ?
C9 C10 1.35(3) . ?
C11 C12 1.34(3) . ?
C12 C13 1.30(3) . ?
C13 C14 1.40(4) . ?
C14 C15 1.38(3) . ?
C15 C16 1.45(3) . ?
C16 C17 1.38(3) . ?
C17 C18 1.37(3) . ?
C18 C19 1.37(3) . ?
C19 C20 1.41(3) . ?
C23 C24 1.41(5) . ?
C24 O5 1.42(4) 7_455 ?
B1 F3 1.30(5) . ?
B1 F4 1.35(5) . ?
B1 F1 1.37(5) . ?
B1 F2 1.39(5) . ?

loop_
_geom_angle_atom_site_label_1
_geom_angle_atom_site_label_2
_geom_angle_atom_site_label_3
_geom_angle
_geom_angle_site_symmetry_1
_geom_angle_site_symmetry_3
_geom_angle_publ_flag
N2 Rh1 N1 79.8(7) . . ?
N2 Rh1 O1 176.5(7) . . ?
N1 Rh1 O1 96.8(7) . . ?
N2 Rh1 O3 95.4(6) . . ?
N1 Rh1 O3 174.9(6) . . ?
O1 Rh1 O3 88.0(6) . . ?
N2 Rh1 Rh2 98.5(6) . . ?
N1 Rh1 Rh2 94.1(5) . . ?
O1 Rh1 Rh2 82.4(4) . . ?
O3 Rh1 Rh2 84.9(5) . . ?
N2 Rh1 Rh1 89.2(6) . 2 ?
N1 Rh1 Rh1 92.9(5) . 2 ?
O1 Rh1 Rh1 90.2(4) . 2 ?
O3 Rh1 Rh1 88.7(5) . 2 ?
Rh2 Rh1 Rh1 170.39(10) . 2 ?
N3 Rh2 N4 80.1(7) . . ?
N3 Rh2 O2 96.2(6) . . ?
N4 Rh2 O2 175.9(7) . . ?
N3 Rh2 O4 178.1(6) . . ?
N4 Rh2 O4 98.0(6) . . ?
O2 Rh2 O4 85.7(6) . . ?
N3 Rh2 Rh1 99.1(5) . . ?
N4 Rh2 Rh1 95.5(5) . . ?
O2 Rh2 Rh1 83.4(4) . . ?
O4 Rh2 Rh1 81.6(5) . . ?
N3 Rh2 Rh2 82.9(5) . 5_565 ?
N4 Rh2 Rh2 83.4(5) . 5_565 ?
O2 Rh2 Rh2 97.9(4) . 5_565 ?
O4 Rh2 Rh2 96.4(5) . 5_565 ?
Rh1 Rh2 Rh2 177.57(14) . 5_565 ?
C21 O1 Rh1 120.7(14) . . ?
C21 O2 Rh2 119.9(13) . . ?
C22 O3 Rh1 118.5(16) . . ?
C22 O4 Rh2 122.7(16) . . ?
C24 O5 C23 107(3) 7_455 . ?
C1 N1 C5 119(2) . . ?
C1 N1 Rh1 125.7(15) . . ?
C5 N1 Rh1 115.2(16) . . ?
C10 N2 C6 118.6(18) . . ?
C10 N2 Rh1 126.1(15) . . ?
C6 N2 Rh1 115.2(14) . . ?
C15 N3 C11 117(2) . . ?
C15 N3 Rh2 117.3(13) . . ?
C11 N3 Rh2 125.5(16) . . ?
C20 N4 C16 118.3(19) . . ?
C20 N4 Rh2 126.5(15) . . ?
C16 N4 Rh2 115.2(14) . . ?
C2 C1 N1 122(2) . . ?
C1 C2 C3 119(3) . . ?
C4 C3 C2 119(3) . . ?
C3 C4 C5 121(2) . . ?
N1 C5 C4 120(2) . . ?
N1 C5 C6 114.2(19) . . ?
C4 C5 C6 126(2) . . ?
N2 C6 C7 119(2) . . ?
N2 C6 C5 115.4(18) . . ?
C7 C6 C5 126(2) . . ?
C8 C7 C6 123(2) . . ?
C7 C8 C9 117.0(19) . . ?
C10 C9 C8 119(2) . . ?
C9 C10 N2 124(2) . . ?
C12 C11 N3 121(3) . . ?
C13 C12 C11 123(2) . . ?
C12 C13 C14 119(2) . . ?
C15 C14 C13 117(2) . . ?
N3 C15 C14 123(2) . . ?
N3 C15 C16 113.6(19) . . ?
C14 C15 C16 124(2) . . ?
N4 C16 C17 119(2) . . ?
N4 C16 C15 113.6(19) . . ?
C17 C16 C15 127(2) . . ?
C18 C17 C16 122(2) . . ?
C17 C18 C19 119.0(19) . . ?
C18 C19 C20 117(2) . . ?
N4 C20 C19 124(2) . . ?
O2 C21 O1 127.4(19) . . ?
O4 C22 O3 128(2) . . ?
C24 C23 O5 114(3) . . ?
C23 C24 O5 110(3) . 7_455 ?
F3 B1 F4 110(4) . . ?
F3 B1 F1 111(3) . . ?
F4 B1 F1 107(3) . . ?
F3 B1 F2 109(3) . . ?
F4 B1 F2 113(3) . . ?
F1 B1 F2 108(3) . . ?

loop_
_geom_torsion_atom_site_label_1
_geom_torsion_atom_site_label_2
_geom_torsion_atom_site_label_3
_geom_torsion_atom_site_label_4
_geom_torsion
_geom_torsion_site_symmetry_1
_geom_torsion_site_symmetry_2
_geom_torsion_site_symmetry_3
_geom_torsion_site_symmetry_4
_geom_torsion_publ_flag
N2 Rh1 Rh2 N3 -98.7(7) . . . . ?
N1 Rh1 Rh2 N3 -18.4(7) . . . . ?
O1 Rh1 Rh2 N3 78.0(6) . . . . ?
O3 Rh1 Rh2 N3 166.6(6) . . . . ?
Rh1 Rh1 Rh2 N3 117.9(6) 2 . . . ?
N2 Rh1 Rh2 N4 -17.9(7) . . . . ?
N1 Rh1 Rh2 N4 62.4(8) . . . . ?
O1 Rh1 Rh2 N4 158.8(7) . . . . ?
O3 Rh1 Rh2 N4 -112.6(7) . . . . ?
Rh1 Rh1 Rh2 N4 -161.3(6) 2 . . . ?
N2 Rh1 Rh2 O2 166.1(7) . . . . ?
N1 Rh1 Rh2 O2 -113.7(7) . . . . ?
O1 Rh1 Rh2 O2 -17.3(6) . . . . ?
O3 Rh1 Rh2 O2 71.4(6) . . . . ?
Rh1 Rh1 Rh2 O2 22.7(6) 2 . . . ?
N2 Rh1 Rh2 O4 79.5(7) . . . . ?
N1 Rh1 Rh2 O4 159.8(7) . . . . ?
O1 Rh1 Rh2 O4 -103.9(6) . . . . ?
O3 Rh1 Rh2 O4 -15.2(5) . . . . ?
Rh1 Rh1 Rh2 O4 -63.9(6) 2 . . . ?
N2 Rh1 Rh2 Rh2 45(3) . . . 5_565 ?
N1 Rh1 Rh2 Rh2 125(3) . . . 5_565 ?
O1 Rh1 Rh2 Rh2 -138(3) . . . 5_565 ?
O3 Rh1 Rh2 Rh2 -49(3) . . . 5_565 ?
Rh1 Rh1 Rh2 Rh2 -98(3) 2 . . 5_565 ?
N2 Rh1 O1 C21 128(11) . . . . ?
N1 Rh1 O1 C21 116.1(18) . . . . ?
O3 Rh1 O1 C21 -62.3(18) . . . . ?
Rh2 Rh1 O1 C21 22.9(16) . . . . ?
Rh1 Rh1 O1 C21 -151.0(17) 2 . . . ?
N3 Rh2 O2 C21 -79.5(17) . . . . ?
N4 Rh2 O2 C21 -54(1