
#######################################################################
#
#                 Cambridge Crystallographic Data Centre
#                                CCDC
#
#######################################################################
#
# If this CIF has been generated from an entry in the Cambridge
# Structural Database, then it will include bibliographic, chemical,
# crystal, experimental, refinement or atomic coordinate data resulting
# from the CCDC's data processing and validation procedures.
#
#######################################################################

data_CSD_CIF_DADXOW
_audit_creation_date 2004-12-02
_audit_creation_method CSD-ConQuest-V1
_database_code_CSD DADXOW
_database_code_depnum_ccdc_archive 'CCDC 247097'
_chemical_formula_sum 'C9 H18 N2 Ni1 O4 S4'
_chemical_formula_moiety
;
C9 H18 N2 Ni1 S2,2(O2 S1)
;
_journal_coden_Cambridge 9
_journal_volume 43
_journal_year 2004
_journal_page_first 4702
_journal_name_full 'Inorg.Chem. '
loop_
_publ_author_name
"M.L.Golden"
"J.C.Yarbrough"
"J.H.Reibenspies"
"M.Y.Darensbourg"
_chemical_name_systematic
;
(1,3-bis(mercaptoethyl)-1,3-diazacycloheptane)-nickel(ii) sulfur dioxide 
solvate
;
_chemical_name_common
;
Teaching Subset: Fundamental Chemistry
;
_cell_volume   1489.324
_exptl_crystal_colour 'ruby red'
_exptl_crystal_density_diffrn 1.807
_exptl_special_details
;
oxygen-sensitive

;
_exptl_crystal_description 'block'
_exptl_crystal_preparation 'acetonitrile'
_diffrn_ambient_temperature 173
#These two values have been output from a single CSD field.
_refine_ls_R_factor_gt 0.0207
_refine_ls_wR_factor_gt 0.0207
_symmetry_cell_setting monoclinic
_symmetry_space_group_name_H-M 'P 21/c'
_symmetry_Int_Tables_number 14
loop_
_symmetry_equiv_pos_site_id
_symmetry_equiv_pos_as_xyz
1 x,y,z
2 -x,1/2+y,1/2-z
3 -x,-y,-z
4 x,-1/2-y,-1/2+z
_cell_length_a 10.308(4)
_cell_length_b 13.334(5)
_cell_length_c 10.842(4)
_cell_angle_alpha 90
_cell_angle_beta 91.963(6)
_cell_angle_gamma 90
_cell_formula_units_Z 4
loop_
_atom_type_symbol
_atom_type_radius_bond
C 0.68
H 0.23
N 0.68
Ni 1.50
O 0.68
S 1.02
loop_
_atom_site_label
_atom_site_type_symbol
_atom_site_fract_x
_atom_site_fract_y
_atom_site_fract_z
Ni1 Ni 0.81929(3) 0.501858(18) 0.24948(2)
N1 N 0.64790(17) 0.55499(13) 0.26709(15)
N2 N 0.85639(17) 0.63665(13) 0.19886(15)
S1 S 0.75711(5) 0.35415(4) 0.30355(5)
S2 S 1.01278(5) 0.45398(4) 0.20631(5)
C1 C 0.5838(2) 0.38072(16) 0.3087(2)
H1 H 0.54240 0.36830 0.22840
H2 H 0.54400 0.33730 0.36850
C2 C 0.5660(2) 0.48916(15) 0.3445(2)
H3 H 0.47540 0.50780 0.33290
H4 H 0.59050 0.49810 0.43100
C3 C 0.5909(2) 0.56225(16) 0.13790(19)
H5 H 0.49890 0.57670 0.14140
H6 H 0.60050 0.49820 0.09690
C4 C 0.6561(2) 0.64375(16) 0.0627(2)
H7 H 0.62750 0.63640 -0.02300
H8 H 0.62600 0.70850 0.09070
C5 C 0.8033(2) 0.64388(16) 0.06905(19)
H9 H 0.83490 0.58770 0.02180
H10 H 0.83460 0.70510 0.03190
C6 C 0.6606(2) 0.65763(16) 0.3229(2)
H11 H 0.66290 0.65260 0.41220
H12 H 0.58630 0.69830 0.29750
C7 C 0.7851(2) 0.70691(16) 0.2805(2)
H13 H 0.76410 0.76810 0.23570
H14 H 0.84000 0.72430 0.35180
C8 C 0.9987(2) 0.65837(16) 0.2049(2)
H15 H 1.02760 0.66700 0.29030
H16 H 1.01550 0.72030 0.16120
C9 C 1.0732(2) 0.57377(15) 0.1481(2)
H17 H 1.16500 0.58060 0.16930
H18 H 1.06210 0.57600 0.05890
S3 S 1.14386(5) 0.46340(4) 0.41049(5)
O1 O 1.26761(14) 0.42588(11) 0.36882(14)
O2 O 1.07441(15) 0.39053(12) 0.48349(14)
S4 S 0.73455(5) 0.25910(4) 0.08814(5)
O3 O 0.65159(17) 0.33006(12) 0.02249(15)
O4 O 0.66812(17) 0.17122(12) 0.13075(15)
#END
