
#######################################################################
#
#                 Cambridge Crystallographic Data Centre
#                                CCDC
#
#######################################################################
#
# If this CIF has been generated from an entry in the Cambridge
# Structural Database, then it will include bibliographic, chemical,
# crystal, experimental, refinement or atomic coordinate data resulting
# from the CCDC's data processing and validation procedures.
#
#######################################################################

data_CSD_CIF_DAKVUG
_audit_creation_date 1986-04-23
_audit_creation_method CSD-ConQuest-V1
_database_code_CSD DAKVUG
_database_code_depnum_ccdc_archive 'CCDC 1135842'
_chemical_formula_sum 'C20 H28 Br4'
_chemical_formula_moiety
;
C20 H28 Br1 1+,Br3 1-
;
_journal_coden_Cambridge 4
_journal_volume 107
_journal_year 1985
_journal_page_first 4504
_journal_name_full 'J.Am.Chem.Soc. '
loop_
_publ_author_name
"H.Slebocka-Tilk"
"R.G.Ball"
"R.S.Brown"
_chemical_name_systematic
;
Adamantylidene-adamantane-bromonium tribromide
;
_chemical_name_common
;
Teaching Subset: Fundamental Chemistry
;
_chemical_melting_point 433
_cell_volume   2015.199
_exptl_crystal_colour 'orange'
_exptl_crystal_density_diffrn 1.938
_exptl_special_details
;
Melting point range 433-435K

;
_diffrn_ambient_temperature ?
_diffrn_special_details
;
The study was carried out at room temperature,in the range 283-303K

;
#These two values have been output from a single CSD field.
_refine_ls_R_factor_gt 0.041
_refine_ls_wR_factor_gt 0.041
_symmetry_cell_setting monoclinic
_symmetry_space_group_name_H-M 'P 21/c'
_symmetry_Int_Tables_number 14
loop_
_symmetry_equiv_pos_site_id
_symmetry_equiv_pos_as_xyz
1 x,y,z
2 -x,1/2+y,1/2-z
3 -x,-y,-z
4 x,-1/2-y,-1/2+z
_cell_length_a 7.404(3)
_cell_length_b 7.320(1)
_cell_length_c 37.354(8)
_cell_angle_alpha 90
_cell_angle_beta 95.49(3)
_cell_angle_gamma 90
_cell_formula_units_Z 4
loop_
_atom_type_symbol
_atom_type_radius_bond
C 0.68
H 0.23
Br 1.21
loop_
_atom_site_label
_atom_site_type_symbol
_atom_site_fract_x
_atom_site_fract_y
_atom_site_fract_z
Br1 Br 0.4761(1) 0.1487(1) 0.14354(2)
C1 C 0.6691(9) -0.0581(9) 0.1580(2)
C2 C 0.811(1) 0.010(1) 0.1865(2)
C3 C 0.720(1) 0.047(1) 0.2215(2)
C4 C 0.632(1) -0.126(1) 0.2340(2)
C5 C 0.771(1) -0.277(1) 0.2407(2)
C6 C 0.857(1) -0.316(1) 0.2060(2)
C7 C 0.714(1) -0.377(1) 0.1761(2)
C8 C 0.5687(9) -0.225(1) 0.1696(2)
C9 C 0.484(1) -0.186(1) 0.2043(2)
C10 C 0.9513(9) -0.145(1) 0.1933(2)
C11 C 0.6801(9) -0.015(1) 0.1191(2)
C12 C 0.589(1) -0.130(1) 0.0889(2)
C13 C 0.742(1) -0.248(1) 0.0753(2)
C14 C 0.887(1) -0.129(1) 0.0615(2)
C15 C 0.805(1) -0.008(1) 0.0306(2)
C16 C 0.656(1) 0.111(1) 0.0443(2)
C17 C 0.740(1) 0.233(1) 0.0751(2)
C18 C 0.8221(9) 0.113(1) 0.1065(2)
C19 C 0.970(1) -0.011(1) 0.0927(2)
C20 C 0.509(1) -0.008(1) 0.0579(2)
H1 H 0.87300 0.13000 0.17900
H2 H 0.62100 0.14800 0.21600
H3 H 0.81900 0.09100 0.24200
H4 H 0.57500 -0.09900 0.25800
H5 H 0.70600 -0.39500 0.24900
H6 H 0.87100 -0.23600 0.26100
H7 H 0.95300 -0.42100 0.21200
H8 H 0.65200 -0.49800 0.18400
H9 H 0.77600 -0.40000 0.15200
H10 H 0.46400 -0.26300 0.15000
H11 H 0.42000 -0.30500 0.21300
H12 H 0.38700 -0.08100 0.20000
H13 H 1.00900 -0.17400 0.16900
H14 H 1.05300 -0.10400 0.21300
H15 H 0.48300 -0.20900 0.09800
H16 H 0.68600 -0.33300 0.05400
H17 H 0.80000 -0.32900 0.09700
H18 H 0.98700 -0.21200 0.05200
H19 H 0.74900 -0.09000 0.00900
H20 H 0.90600 0.07700 0.02200
H21 H 0.59700 0.19200 0.02300
H22 H 0.63900 0.31700 0.08400
H23 H 0.84200 0.31400 0.06600
H24 H 0.87400 0.19900 0.12700
H25 H 1.02500 -0.09500 0.11400
H26 H 1.07300 0.07100 0.08400
H27 H 0.40800 0.07500 0.06700
H28 H 0.45200 -0.09100 0.03700
Br2 Br 0.2261(1) 0.4758(1) 0.08832(2)
Br3 Br 0.1785(1) 0.4273(1) 0.15895(2)
Br4 Br 0.2736(2) 0.5052(2) 0.02560(3)
#END
