
#######################################################################
#
#                 Cambridge Crystallographic Data Centre
#                                CCDC
#
#######################################################################
#
# If this CIF has been generated from an entry in the Cambridge
# Structural Database, then it will include bibliographic, chemical,
# crystal, experimental, refinement or atomic coordinate data resulting
# from the CCDC's data processing and validation procedures.
#
#######################################################################

data_CSD_CIF_DALQOW
_audit_creation_date 2000-02-17
_audit_creation_method CSD-ConQuest-V1
_database_code_CSD DALQOW
_database_code_depnum_ccdc_archive 'CCDC 101130'
_chemical_formula_sum 'C9 H15 N1'
_chemical_formula_moiety
;
C9 H15 N1
;
_journal_coden_Cambridge 179
_journal_volume 38
_journal_year 1999
_journal_page_first 2430
_journal_name_full 'Angew.Chem.,Int.Ed. '
loop_
_publ_author_name
"A.de Meijere"
"V.Chaplinski"
"H.Winsel"
"M.A.Kusnetsov"
"P.Rademacher"
"R.Boese"
"T.Haumann"
"M.Traetteberg"
"P.von R.Schleyer"
"T.Zywietz"
"Haijun Jiao"
"P.Merstetter"
"F.Gerson"
_chemical_name_systematic
;
Tricyclopropylamine
;
_chemical_name_common
;
Teaching Subset: Fundamental Chemistry
;
_chemical_melting_point 235
_cell_volume    859.035
_exptl_crystal_colour 'colorless'
_exptl_crystal_density_diffrn 1.061
_exptl_special_details
;
The space group is P21/n, not P21/c

;
_exptl_crystal_description 'cylindric'
_diffrn_ambient_temperature 130
#These two values have been output from a single CSD field.
_refine_ls_R_factor_gt 0.0464
_refine_ls_wR_factor_gt 0.0464
_symmetry_cell_setting monoclinic
_symmetry_space_group_name_H-M 'P 21/n'
_symmetry_Int_Tables_number 14
loop_
_symmetry_equiv_pos_site_id
_symmetry_equiv_pos_as_xyz
1 x,y,z
2 1/2-x,1/2+y,1/2-z
3 -x,-y,-z
4 -1/2+x,-1/2-y,-1/2+z
_cell_length_a 7.906(3)
_cell_length_b 11.896(4)
_cell_length_c 9.236(3)
_cell_angle_alpha 90
_cell_angle_beta 98.53(3)
_cell_angle_gamma 90
_cell_formula_units_Z 4
loop_
_atom_type_symbol
_atom_type_radius_bond
C 0.68
H 0.23
N 0.68
loop_
_atom_site_label
_atom_site_type_symbol
_atom_site_fract_x
_atom_site_fract_y
_atom_site_fract_z
N1 N 0.38544(6) 0.84481(4) 0.82209(6)
C1 C 0.43794(8) 0.91573(5) 0.70954(7)
H1 H 0.3776(15) 0.9024(10) 0.6101(11)
C2 C 0.49113(11) 1.03462(6) 0.74652(10)
H2 H 0.4935(15) 1.056(1) 0.8493(13)
H3 H 0.4592(17) 1.0932(12) 0.6760(14)
C3 C 0.62238(10) 0.94807(7) 0.71952(10)
H4 H 0.6703(16) 0.9532(11) 0.6294(14)
H5 H 0.6969(16) 0.9228(11) 0.8013(12)
C4 C 0.43427(9) 0.72956(5) 0.80148(7)
H6 H 0.3944(15) 0.6996(10) 0.7044(12)
C5 C 0.60513(10) 0.69040(8) 0.87618(10)
H7 H 0.6719(17) 0.7461(11) 0.9392(13)
H8 H 0.6697(17) 0.6391(11) 0.8222(14)
C6 C 0.44311(10) 0.65002(6) 0.92790(9)
H9 H 0.4058(16) 0.5722(11) 0.9035(13)
H10 H 0.4196(16) 0.6815(10) 1.0201(13)
C7 C 0.20232(8) 0.85259(6) 0.81832(7)
H11 H 0.1339(15) 0.8223(10) 0.7314(13)
C8 C 0.12832(11) 0.83720(7) 0.95748(10)
H12 H 0.2111(18) 0.8242(11) 1.0482(15)
H13 H 0.0176(17) 0.7966(11) 0.9506(13)
C9 C 0.13141(11) 0.95167(7) 0.88882(10)
H14 H 0.0254(16) 0.9832(11) 0.8445(14)
H15 H 0.2131(17) 1.0037(13) 0.9405(14)
#END
