
#######################################################################
#
#                 Cambridge Crystallographic Data Centre
#                                CCDC
#
#######################################################################
#
# If this CIF has been generated from an entry in the Cambridge
# Structural Database, then it will include bibliographic, chemical,
# crystal, experimental, refinement or atomic coordinate data resulting
# from the CCDC's data processing and validation procedures.
#
#######################################################################

data_CSD_CIF_DAMFIG
_audit_creation_date 1986-04-23
_audit_creation_method CSD-ConQuest-V1
_database_code_CSD DAMFIG
_database_code_depnum_ccdc_archive 'CCDC 1135989'
_chemical_formula_sum 'C16 H40 I4 N2 Te1'
_chemical_formula_moiety
;
2(C8 H20 N1 1+),I4 Te1 2-
;
_journal_coden_Cambridge 644
_journal_volume 40
_journal_year 1985
_journal_page_first 251
_journal_name_full 'Z.Naturforsch.,B:Chem.Sci. '
loop_
_publ_author_name
"S.Pohl"
"W.Saak"
"B.Krebs"
_chemical_name_systematic
;
bis(Tetraethylammonium) tetraiodo-tellurate(ii)
;
_chemical_name_common
;
Teaching Subset: Fundamental Chemistry, Symmetry
;
_cell_volume   1513.613
_exptl_crystal_colour 'brown'
_exptl_crystal_density_diffrn 1.97
_diffrn_ambient_temperature ?
_diffrn_special_details
;
The study was carried out at room temperature,in the range 283-303K

;
#These two values have been output from a single CSD field.
_refine_ls_R_factor_gt 0.054
_refine_ls_wR_factor_gt 0.054
_symmetry_cell_setting tetragonal
_symmetry_space_group_name_H-M 'I 4/m m m'
_symmetry_Int_Tables_number 139
loop_
_symmetry_equiv_pos_site_id
_symmetry_equiv_pos_as_xyz
1 x,y,z
2 1/2+x,1/2+y,1/2+z
3 -y,x,z
4 1/2-y,1/2+x,1/2+z
5 -x,-y,z
6 1/2-x,1/2-y,1/2+z
7 y,-x,z
8 1/2+y,1/2-x,1/2+z
9 x,-y,-z
10 1/2+x,1/2-y,1/2-z
11 -y,-x,-z
12 1/2-y,1/2-x,1/2-z
13 -x,y,-z
14 1/2-x,1/2+y,1/2-z
15 y,x,-z
16 1/2+y,1/2+x,1/2-z
17 -x,-y,-z
18 -1/2-x,-1/2-y,-1/2-z
19 y,-x,-z
20 -1/2+y,-1/2-x,-1/2-z
21 x,y,-z
22 -1/2+x,-1/2+y,-1/2-z
23 -y,x,-z
24 -1/2-y,-1/2+x,-1/2-z
25 -x,y,z
26 -1/2-x,-1/2+y,-1/2+z
27 y,x,z
28 -1/2+y,-1/2+x,-1/2+z
29 x,-y,z
30 -1/2+x,-1/2-y,-1/2+z
31 -y,-x,z
32 -1/2-y,-1/2-x,-1/2+z
_cell_length_a 10.617(2)
_cell_length_b 10.617(2)
_cell_length_c 13.428(4)
_cell_angle_alpha 90
_cell_angle_beta 90
_cell_angle_gamma 90
_cell_formula_units_Z 2
loop_
_atom_type_symbol
_atom_type_radius_bond
C 0.68
I 1.40
N 0.68
Te 1.47
loop_
_atom_site_label
_atom_site_type_symbol
_atom_site_fract_x
_atom_site_fract_y
_atom_site_fract_z
Te1 Te 0.00000 0.00000 0.00000
I1 I 0.1988(1) 0.1988(1) 0.00000
N1 N 0.00000 0.50000 0.25000
C1 C 0.1121(15) 0.50000 0.1799(11)
C2 C 0.2373(16) 0.50000 0.2314(17)
I1P I -0.1988(1) -0.1988(1) 0.00000
I1B I -0.1988(1) 0.1988(1) 0.00000
I1R I 0.1988(1) -0.1988(1) 0.00000
C1S C 0.0000(15) 0.38790 0.3201(11)
C1D C -0.1121(15) 0.50000 0.1799(11)
C1W C 0.0000(15) 0.61210 0.3201(11)
C2S C 0.0000(16) 0.26270 0.2686(17)
C2D C -0.2373(16) 0.50000 0.2314(17)
C2W C 0.0000(16) 0.73730 0.2686(17)
#END
