####################################################################### 
# 
# This file contains crystal structure data downloaded from the 
# Cambridge Structural Database (CSD) hosted by the Cambridge 
# Crystallographic Data Centre (CCDC).
# 
# Full information about CCDC data access policies and citation 
# guidelines are available at http://www.ccdc.cam.ac.uk/access/V1 
# 
# Audit and citation data items may have been added by the CCDC. 
# Please retain this information to preserve the provenance of 
# this file and to allow appropriate attribution of the data. 
# 
#######################################################################

data_ga024
_audit_block_doi                 10.5517/cc8543n
_database_code_depnum_ccdc_archive 'CCDC 243260'
loop_
_citation_id
_citation_doi
_citation_year
1 10.1002/chem.200400671 2004
_audit_update_record             
;
2004-06-29 deposited with the CCDC.	2024-07-09 downloaded from the CCDC.
;

_audit_creation_method           SHELXL-97
_chemical_name_systematic        
;
?
;
_chemical_name_common            ?
_chemical_melting_point          ?
_chemical_formula_moiety         'C58 H52 Cl2 Cu8 O18, 1.5(C4 H10 O)'
_chemical_formula_sum            'C64 H67 Cl2 Cu8 O19.50'
_chemical_formula_weight         1727.40

loop_
_atom_type_symbol
_atom_type_description
_atom_type_scat_dispersion_real
_atom_type_scat_dispersion_imag
_atom_type_scat_source
C C 0.0033 0.0016 'International Tables Vol C Tables 4.2.6.8 and 6.1.1.4'
H H 0.0000 0.0000 'International Tables Vol C Tables 4.2.6.8 and 6.1.1.4'
Cl Cl 0.1484 0.1585 'International Tables Vol C Tables 4.2.6.8 and 6.1.1.4'
Cu Cu 0.3201 1.2651 'International Tables Vol C Tables 4.2.6.8 and 6.1.1.4'
O O 0.0106 0.0060 'International Tables Vol C Tables 4.2.6.8 and 6.1.1.4'

_symmetry_cell_setting           triclinic
_symmetry_space_group_name_H-M   'P -1'
_symmetry_space_group_name_Hall  '-P 1'

loop_
_symmetry_equiv_pos_as_xyz
'x, y, z'
'-x, -y, -z'

_cell_length_a                   10.640(4)
_cell_length_b                   13.525(5)
_cell_length_c                   13.566(4)
_cell_angle_alpha                101.278(6)
_cell_angle_beta                 101.665(6)
_cell_angle_gamma                96.568(6)
_cell_volume                     1850.8(11)
_cell_formula_units_Z            1
_cell_measurement_temperature    293(2)
_cell_measurement_reflns_used    ?
_cell_measurement_theta_min      ?
_cell_measurement_theta_max      ?

_exptl_crystal_description       ?
_exptl_crystal_colour            ?
_exptl_crystal_size_max          ?
_exptl_crystal_size_mid          ?
_exptl_crystal_size_min          ?
_exptl_crystal_density_meas      ?
_exptl_crystal_density_diffrn    1.550
_exptl_crystal_density_method    'not measured'
_exptl_crystal_F_000             873
_exptl_absorpt_coefficient_mu    2.389
_exptl_absorpt_correction_type   ?
_exptl_absorpt_correction_T_min  ?
_exptl_absorpt_correction_T_max  ?
_exptl_absorpt_process_details   ?

_exptl_special_details           
;
?
;

_diffrn_ambient_temperature      293(2)
_diffrn_radiation_wavelength     0.71073
_diffrn_radiation_type           MoK\a
_diffrn_radiation_source         'fine-focus sealed tube'
_diffrn_radiation_monochromator  graphite
_diffrn_measurement_device_type  ?
_diffrn_measurement_method       ?
_diffrn_detector_area_resol_mean ?
_diffrn_standards_number         ?
_diffrn_standards_interval_count ?
_diffrn_standards_interval_time  ?
_diffrn_standards_decay_%        ?
_diffrn_reflns_number            11980
_diffrn_reflns_av_R_equivalents  0.0392
_diffrn_reflns_av_sigmaI/netI    0.1230
_diffrn_reflns_limit_h_min       -14
_diffrn_reflns_limit_h_max       14
_diffrn_reflns_limit_k_min       -17
_diffrn_reflns_limit_k_max       8
_diffrn_reflns_limit_l_min       -17
_diffrn_reflns_limit_l_max       18
_diffrn_reflns_theta_min         1.57
_diffrn_reflns_theta_max         28.30
_reflns_number_total             8420
_reflns_number_gt                4713
_reflns_threshold_expression     I>2sigma(I)

_computing_data_collection       ?
_computing_cell_refinement       ?
_computing_data_reduction        ?
_computing_structure_solution    'SHELXS-97 (Sheldrick, 1990)'
_computing_structure_refinement  'SHELXL-97 (Sheldrick, 1997)'
_computing_molecular_graphics    ?
_computing_publication_material  ?

_refine_special_details          
;
Refinement of F^2^ against ALL reflections.  The weighted R-factor wR and
goodness of fit S are based on F^2^, conventional R-factors R are based
on F, with F set to zero for negative F^2^. The threshold expression of
F^2^ > 2sigma(F^2^) is used only for calculating R-factors(gt) etc. and is
not relevant to the choice of reflections for refinement.  R-factors based
on F^2^ are statistically about twice as large as those based on F, and R-
factors based on ALL data will be even larger.
;

_refine_ls_structure_factor_coef Fsqd
_refine_ls_matrix_type           full
_refine_ls_weighting_scheme      calc
_refine_ls_weighting_details     
'calc w=1/[\s^2^(Fo^2^)+(0.0506P)^2^] where P=(Fo^2^+2Fc^2^)/3'
_atom_sites_solution_primary     direct
_atom_sites_solution_secondary   difmap
_atom_sites_solution_hydrogens   geom
_refine_ls_hydrogen_treatment    constr
_refine_ls_extinction_method     none
_refine_ls_extinction_coef       ?
_refine_ls_number_reflns         8420
_refine_ls_number_parameters     392
_refine_ls_number_restraints     0
_refine_ls_R_factor_all          0.1081
_refine_ls_R_factor_gt           0.0514
_refine_ls_wR_factor_ref         0.1200
_refine_ls_wR_factor_gt          0.1075
_refine_ls_goodness_of_fit_ref   0.893
_refine_ls_restrained_S_all      0.893
_refine_ls_shift/su_max          0.001
_refine_ls_shift/su_mean         <0.001

loop_
_atom_site_label
_atom_site_type_symbol
_atom_site_fract_x
_atom_site_fract_y
_atom_site_fract_z
_atom_site_U_iso_or_equiv
_atom_site_adp_type
_atom_site_occupancy
_atom_site_symmetry_multiplicity
_atom_site_calc_flag
_atom_site_refinement_flags
_atom_site_disorder_assembly
_atom_site_disorder_group
Cu1 Cu -0.64930(6) 0.34962(5) -0.65664(5) 0.02571(17) Uani 1 1 d . . .
Cu2 Cu -0.11381(6) 0.58037(5) -0.23267(5) 0.02542(17) Uani 1 1 d . . .
Cu3 Cu -0.25013(5) 0.52091(5) -0.50408(4) 0.02172(16) Uani 1 1 d . . .
Cu4 Cu 0.05949(5) 0.53687(5) -0.37870(4) 0.02158(16) Uani 1 1 d . . .
Cl1 Cl -0.42078(12) 0.39625(11) -0.65029(10) 0.0348(3) Uani 1 1 d . . .
O1 O 0.3620(3) 0.2053(3) -0.6716(2) 0.0310(9) Uani 1 1 d . . .
O2 O 0.3311(3) 0.3564(2) -0.5104(2) 0.0247(8) Uani 1 1 d . . .
O3 O 0.1539(3) 0.4239(3) -0.4017(2) 0.0238(8) Uani 1 1 d . . .
O4 O 0.0138(3) 0.4917(3) -0.2605(2) 0.0247(8) Uani 1 1 d . . .
O5 O -0.1564(3) 0.5097(3) -0.1316(2) 0.0280(8) Uani 1 1 d . . .
O6 O -0.3013(3) 0.5143(2) -0.3751(2) 0.0221(8) Uani 1 1 d . . .
O7 O -0.2246(3) 0.6796(3) -0.2108(2) 0.0307(9) Uani 1 1 d . . .
O8 O -0.0425(3) 0.6367(2) -0.3351(2) 0.0261(8) Uani 1 1 d . . .
O9 O -0.1202(3) 0.4312(2) -0.5037(2) 0.0202(7) Uani 1 1 d . . .
C1 C 0.3379(5) 0.0366(4) -0.6515(4) 0.0280(12) Uani 1 1 d . . .
C2 C 0.3158(6) 0.0017(4) -0.7580(4) 0.0448(16) Uani 1 1 d . . .
H2A H 0.3077 0.0473 -0.8013 0.054 Uiso 1 1 calc R . .
C3 C 0.3061(6) -0.1016(5) -0.7988(5) 0.0517(18) Uani 1 1 d . . .
H3A H 0.2879 -0.1250 -0.8701 0.062 Uiso 1 1 calc R . .
C4 C 0.3222(5) -0.1695(4) -0.7381(5) 0.0421(15) Uani 1 1 d . . .
H4A H 0.3182 -0.2383 -0.7675 0.050 Uiso 1 1 calc R . .
C5 C 0.3444(6) -0.1366(4) -0.6332(5) 0.0451(16) Uani 1 1 d . . .
H5A H 0.3551 -0.1828 -0.5907 0.054 Uiso 1 1 calc R . .
C6 C 0.3510(5) -0.0337(4) -0.5907(4) 0.0356(14) Uani 1 1 d . . .
H6A H 0.3644 -0.0117 -0.5195 0.043 Uiso 1 1 calc R . .
C7 C 0.3455(5) 0.1490(4) -0.6100(4) 0.0259(12) Uani 1 1 d . . .
C8 C 0.3284(4) 0.1829(4) -0.5095(4) 0.0255(12) Uani 1 1 d . . .
H8A H 0.3233 0.1345 -0.4697 0.031 Uiso 1 1 calc R . .
C9 C 0.3184(4) 0.2818(4) -0.4648(4) 0.0218(11) Uani 1 1 d . . .
C10 C 0.2895(4) 0.3035(4) -0.3599(3) 0.0214(11) Uani 1 1 d . . .
C11 C 0.3490(5) 0.2541(4) -0.2869(4) 0.0301(13) Uani 1 1 d . . .
H11A H 0.4087 0.2125 -0.3039 0.036 Uiso 1 1 calc R . .
C12 C 0.3228(5) 0.2645(4) -0.1897(4) 0.0333(13) Uani 1 1 d . . .
C13 C 0.2250(5) 0.3200(4) -0.1711(4) 0.0324(13) Uani 1 1 d . . .
H13A H 0.2014 0.3242 -0.1083 0.039 Uiso 1 1 calc R . .
C14 C 0.1600(4) 0.3697(4) -0.2422(4) 0.0218(11) Uani 1 1 d . . .
C15 C 0.2018(4) 0.3692(4) -0.3355(4) 0.0202(11) Uani 1 1 d . . .
C16 C 0.3952(6) 0.2138(5) -0.1099(4) 0.0486(18) Uani 1 1 d . . .
H16C H 0.3863 0.2457 -0.0425 0.073 Uiso 1 1 calc R . .
H16B H 0.4856 0.2212 -0.1114 0.073 Uiso 1 1 calc R . .
H16A H 0.3595 0.1426 -0.1254 0.073 Uiso 1 1 calc R . .
C17 C 0.0482(4) 0.4178(4) -0.2167(3) 0.0209(11) Uani 1 1 d . . .
C18 C -0.0183(5) 0.3846(4) -0.1477(4) 0.0273(12) Uani 1 1 d . . .
H18A H 0.0020 0.3258 -0.1265 0.033 Uiso 1 1 calc R . .
C19 C -0.1129(5) 0.4317(4) -0.1077(4) 0.0246(11) Uani 1 1 d . . .
C20 C -0.1718(5) 0.3899(4) -0.0295(4) 0.0288(12) Uani 1 1 d . . .
C21 C -0.1264(5) 0.3151(4) 0.0161(4) 0.0349(14) Uani 1 1 d . . .
H21A H -0.0573 0.2864 -0.0035 0.042 Uiso 1 1 calc R . .
C22 C -0.1805(6) 0.2808(5) 0.0906(4) 0.0444(15) Uani 1 1 d . . .
H22A H -0.1490 0.2291 0.1196 0.053 Uiso 1 1 calc R . .
C23 C -0.2824(6) 0.3247(5) 0.1214(5) 0.0534(18) Uani 1 1 d . . .
H23A H -0.3191 0.3033 0.1718 0.064 Uiso 1 1 calc R . .
C24 C -0.3266(6) 0.3978(5) 0.0777(5) 0.0524(18) Uani 1 1 d . . .
H24A H -0.3944 0.4271 0.0989 0.063 Uiso 1 1 calc R . .
C25 C -0.2750(5) 0.4321(4) 0.0016(4) 0.0441(16) Uani 1 1 d . . .
H25A H -0.3091 0.4825 -0.0283 0.053 Uiso 1 1 calc R . .
C26 C -0.0263(5) 0.7414(4) -0.3375(4) 0.0311(13) Uani 1 1 d . . .
H26A H 0.0644 0.7696 -0.3163 0.047 Uiso 1 1 calc R . .
H26B H -0.0723 0.7770 -0.2915 0.047 Uiso 1 1 calc R . .
H26C H -0.0601 0.7485 -0.4065 0.047 Uiso 1 1 calc R . .
C27 C -0.2723(7) 0.7034(6) -0.1226(4) 0.067(2) Uani 1 1 d . . .
H27A H -0.2019 0.7165 -0.0626 0.101 Uiso 1 1 calc R . .
H27B H -0.3348 0.6471 -0.1206 0.101 Uiso 1 1 calc R . .
H27C H -0.3130 0.7631 -0.1234 0.101 Uiso 1 1 calc R . .
C28 C -0.3740(5) 0.4258(4) -0.3585(4) 0.0355(14) Uani 1 1 d . . .
H28A H -0.4344 0.4464 -0.3177 0.053 Uiso 1 1 calc R . .
H28B H -0.3157 0.3883 -0.3229 0.053 Uiso 1 1 calc R . .
H28C H -0.4207 0.3832 -0.4239 0.053 Uiso 1 1 calc R . .
C29 C -0.1496(5) 0.3313(4) -0.4858(4) 0.0321(13) Uani 1 1 d . . .

loop_
_atom_site_aniso_label
_atom_site_aniso_U_11
_atom_site_aniso_U_22
_atom_site_aniso_U_33
_atom_site_aniso_U_23
_atom_site_aniso_U_13
_atom_site_aniso_U_12
Cu1 0.0287(3) 0.0247(4) 0.0262(4) 0.0050(3) 0.0103(3) 0.0085(3)
Cu2 0.0262(3) 0.0296(4) 0.0239(3) 0.0048(3) 0.0112(3) 0.0109(3)
Cu3 0.0211(3) 0.0227(4) 0.0253(3) 0.0063(3) 0.0114(3) 0.0072(3)
Cu4 0.0210(3) 0.0233(4) 0.0233(3) 0.0055(3) 0.0094(3) 0.0066(3)
Cl1 0.0218(6) 0.0419(9) 0.0359(8) -0.0056(6) 0.0103(6) 0.0034(6)
O1 0.044(2) 0.023(2) 0.028(2) 0.0026(17) 0.0137(17) 0.0097(18)
O2 0.0290(19) 0.023(2) 0.0257(19) 0.0060(16) 0.0122(15) 0.0084(16)
O3 0.0202(17) 0.031(2) 0.0246(19) 0.0094(16) 0.0105(15) 0.0084(16)
O4 0.0255(18) 0.031(2) 0.0208(18) 0.0042(16) 0.0099(15) 0.0114(16)
O5 0.0273(19) 0.036(2) 0.0254(19) 0.0071(17) 0.0135(15) 0.0099(17)
O6 0.0257(18) 0.0188(19) 0.0271(19) 0.0068(15) 0.0146(15) 0.0068(15)
O7 0.034(2) 0.038(2) 0.0225(19) 0.0025(16) 0.0100(16) 0.0163(18)
O8 0.0315(19) 0.023(2) 0.030(2) 0.0083(16) 0.0156(16) 0.0089(16)
O9 0.0192(17) 0.0193(18) 0.0242(18) 0.0083(15) 0.0074(14) 0.0015(15)
C1 0.031(3) 0.022(3) 0.032(3) 0.000(2) 0.013(2) 0.009(2)
C2 0.068(4) 0.030(3) 0.037(4) 0.003(3) 0.015(3) 0.013(3)
C3 0.084(5) 0.036(4) 0.031(3) -0.003(3) 0.015(3) 0.003(4)
C4 0.047(4) 0.018(3) 0.057(4) -0.005(3) 0.017(3) 0.002(3)
C5 0.052(4) 0.025(3) 0.059(4) 0.008(3) 0.015(3) 0.010(3)
C6 0.040(3) 0.031(3) 0.035(3) 0.000(3) 0.014(3) 0.007(3)
C7 0.024(3) 0.024(3) 0.032(3) 0.006(2) 0.009(2) 0.009(2)
C8 0.029(3) 0.021(3) 0.026(3) 0.004(2) 0.005(2) 0.010(2)
C9 0.018(2) 0.024(3) 0.023(3) 0.004(2) 0.005(2) 0.005(2)
C10 0.021(2) 0.024(3) 0.019(3) 0.002(2) 0.004(2) 0.007(2)
C11 0.026(3) 0.037(3) 0.030(3) 0.008(3) 0.007(2) 0.016(3)
C12 0.041(3) 0.036(3) 0.029(3) 0.012(3) 0.011(3) 0.018(3)
C13 0.045(3) 0.041(4) 0.020(3) 0.013(3) 0.014(2) 0.017(3)
C14 0.021(3) 0.021(3) 0.026(3) 0.007(2) 0.011(2) 0.003(2)
C15 0.017(2) 0.016(3) 0.025(3) 0.003(2) 0.003(2) -0.002(2)
C16 0.059(4) 0.074(5) 0.027(3) 0.019(3) 0.017(3) 0.044(4)
C17 0.018(2) 0.027(3) 0.017(3) 0.002(2) 0.003(2) 0.002(2)
C18 0.033(3) 0.027(3) 0.029(3) 0.010(2) 0.016(2) 0.010(2)
C19 0.026(3) 0.028(3) 0.021(3) 0.007(2) 0.007(2) 0.002(2)
C20 0.024(3) 0.027(3) 0.030(3) -0.001(2) 0.007(2) -0.005(2)
C21 0.041(3) 0.040(4) 0.026(3) 0.004(3) 0.018(3) 0.004(3)
C22 0.057(4) 0.046(4) 0.032(3) 0.014(3) 0.014(3) -0.003(3)
C23 0.069(5) 0.048(4) 0.045(4) 0.003(3) 0.037(4) -0.011(4)
C24 0.057(4) 0.045(4) 0.066(5) 0.003(4) 0.051(4) 0.004(3)
C25 0.047(4) 0.034(4) 0.057(4) 0.006(3) 0.030(3) 0.005(3)
C26 0.033(3) 0.028(3) 0.036(3) 0.009(3) 0.013(3) 0.009(3)
C27 0.087(5) 0.100(6) 0.029(3) 0.009(4) 0.025(4) 0.061(5)
C28 0.036(3) 0.035(3) 0.038(3) 0.007(3) 0.014(3) 0.004(3)
C29 0.036(3) 0.020(3) 0.043(3) 0.010(3) 0.014(3) 0.000(2)

_geom_special_details            
;
All esds (except the esd in the dihedral angle between two l.s. planes)
are estimated using the full covariance matrix.  The cell esds are taken
into account individually in the estimation of esds in distances, angles
and torsion angles; correlations between esds in cell parameters are only
used when they are defined by crystal symmetry.  An approximate (isotropic)
treatment of cell esds is used for estimating esds involving l.s. planes.
;

loop_
_geom_bond_atom_site_label_1
_geom_bond_atom_site_label_2
_geom_bond_distance
_geom_bond_site_symmetry_2
_geom_bond_publ_flag
Cu1 O1 1.943(3) 1_455 ?
Cu1 O7 1.953(3) 2_464 ?
Cu1 O6 1.962(3) 2_464 ?
Cu1 O2 2.023(3) 1_455 ?
Cu1 Cl1 2.4208(16) . ?
Cu1 Cu3 2.9738(10) 2_464 ?
Cu1 Cu2 3.0126(11) 2_464 ?
Cu2 O7 1.904(3) . ?
Cu2 O5 1.914(3) . ?
Cu2 O8 1.948(3) . ?
Cu2 O4 1.956(3) . ?
Cu2 O6 2.422(3) . ?
Cu2 Cu4 2.9900(10) . ?
Cu2 Cu1 3.0126(11) 2_464 ?
Cu3 O9 1.941(3) . ?
Cu3 O2 1.949(3) 2_564 ?
Cu3 O6 1.950(3) . ?
Cu3 O3 1.993(3) 2_564 ?
Cu3 Cl1 2.5708(15) . ?
Cu3 Cu4 2.9043(10) 2_564 ?
Cu3 Cu1 2.9738(10) 2_464 ?
Cu4 O8 1.906(3) . ?
Cu4 O3 1.932(3) . ?
Cu4 O9 1.943(3) 2_564 ?
Cu4 O4 1.952(3) . ?
Cu4 O9 2.385(3) . ?
Cu4 Cu3 2.9043(10) 2_564 ?
O1 C7 1.260(6) . ?
O1 Cu1 1.943(3) 1_655 ?
O2 C9 1.290(6) . ?
O2 Cu3 1.949(3) 2_564 ?
O2 Cu1 2.023(3) 1_655 ?
O3 C15 1.332(5) . ?
O3 Cu3 1.993(3) 2_564 ?
O4 C17 1.309(5) . ?
O5 C19 1.272(6) . ?
O6 C28 1.431(6) . ?
O6 Cu1 1.962(3) 2_464 ?
O7 C27 1.388(6) . ?
O7 Cu1 1.953(3) 2_464 ?
O8 C26 1.415(6) . ?
O9 C29 1.429(6) . ?
O9 Cu4 1.943(3) 2_564 ?
C1 C6 1.377(7) . ?
C1 C2 1.392(7) . ?
C1 C7 1.500(7) . ?
C2 C3 1.382(7) . ?
C2 H2A 0.9300 . ?
C3 C4 1.352(8) . ?
C3 H3A 0.9300 . ?
C4 C5 1.369(8) . ?
C4 H4A 0.9300 . ?
C5 C6 1.386(7) . ?
C5 H5A 0.9300 . ?
C6 H6A 0.9300 . ?
C7 C8 1.406(6) . ?
C8 C9 1.382(6) . ?
C8 H8A 0.9300 . ?
C9 C10 1.497(6) . ?
C10 C11 1.389(7) . ?
C10 C15 1.403(6) . ?
C11 C12 1.386(7) . ?
C11 H11A 0.9300 . ?
C12 C13 1.386(6) . ?
C12 C16 1.520(7) . ?
C13 C14 1.396(7) . ?
C13 H13A 0.9300 . ?
C14 C15 1.424(6) . ?
C14 C17 1.487(6) . ?
C16 H16C 0.9600 . ?
C16 H16B 0.9600 . ?
C16 H16A 0.9600 . ?
C17 C18 1.392(6) . ?
C18 C19 1.395(6) . ?
C18 H18A 0.9300 . ?
C19 C20 1.503(7) . ?
C20 C21 1.370(7) . ?
C20 C25 1.394(7) . ?
C21 C22 1.388(7) . ?
C21 H21A 0.9300 . ?
C22 C23 1.391(8) . ?
C22 H22A 0.9300 . ?
C23 C24 1.331(9) . ?
C23 H23A 0.9300 . ?
C24 C25 1.394(8) . ?
C24 H24A 0.9300 . ?
C25 H25A 0.9300 . ?
C26 H26A 0.9600 . ?
C26 H26B 0.9600 . ?
C26 H26C 0.9600 . ?
C27 H27A 0.9600 . ?
C27 H27B 0.9600 . ?
C27 H27C 0.9600 . ?
C28 H28A 0.9600 . ?
C28 H28B 0.9600 . ?
C28 H28C 0.9600 . ?

loop_
_geom_angle_atom_site_label_1
_geom_angle_atom_site_label_2
_geom_angle_atom_site_label_3
_geom_angle
_geom_angle_site_symmetry_1
_geom_angle_site_symmetry_3
_geom_angle_publ_flag
O1 Cu1 O7 90.51(14) 1_455 2_464 ?
O1 Cu1 O6 164.85(14) 1_455 2_464 ?
O7 Cu1 O6 88.95(13) 2_464 2_464 ?
O1 Cu1 O2 89.30(13) 1_455 1_455 ?
O7 Cu1 O2 132.56(14) 2_464 1_455 ?
O6 Cu1 O2 79.98(13) 2_464 1_455 ?
O1 Cu1 Cl1 93.23(11) 1_455 . ?
O7 Cu1 Cl1 119.43(11) 2_464 . ?
O6 Cu1 Cl1 100.21(10) 2_464 . ?
O2 Cu1 Cl1 107.94(10) 1_455 . ?
O1 Cu1 Cu3 126.64(10) 1_455 2_464 ?
O7 Cu1 Cu3 109.82(9) 2_464 2_464 ?
O6 Cu1 Cu3 40.36(9) 2_464 2_464 ?
O2 Cu1 Cu3 40.59(9) 1_455 2_464 ?
Cl1 Cu1 Cu3 115.25(4) . 2_464 ?
O1 Cu1 Cu2 121.13(11) 1_455 2_464 ?
O7 Cu1 Cu2 38.06(9) 2_464 2_464 ?
O6 Cu1 Cu2 53.34(9) 2_464 2_464 ?
O2 Cu1 Cu2 106.29(9) 1_455 2_464 ?
Cl1 Cu1 Cu2 131.06(5) . 2_464 ?
Cu3 Cu1 Cu2 73.14(3) 2_464 2_464 ?
O7 Cu2 O5 95.54(14) . . ?
O7 Cu2 O8 95.49(14) . . ?
O5 Cu2 O8 168.68(13) . . ?
O7 Cu2 O4 172.69(15) . . ?
O5 Cu2 O4 90.91(14) . . ?
O8 Cu2 O4 77.93(13) . . ?
O7 Cu2 O6 77.68(12) . . ?
O5 Cu2 O6 101.22(13) . . ?
O8 Cu2 O6 83.63(12) . . ?
O4 Cu2 O6 104.46(12) . . ?
O7 Cu2 Cu4 133.82(11) . . ?
O5 Cu2 Cu4 130.58(10) . . ?
O8 Cu2 Cu4 38.61(9) . . ?
O4 Cu2 Cu4 40.05(10) . . ?
O6 Cu2 Cu4 89.35(7) . . ?
O7 Cu2 Cu1 39.22(10) . 2_464 ?
O5 Cu2 Cu1 110.54(10) . 2_464 ?
O8 Cu2 Cu1 79.83(10) . 2_464 ?
O4 Cu2 Cu1 140.48(9) . 2_464 ?
O6 Cu2 Cu1 40.53(7) . 2_464 ?
Cu4 Cu2 Cu1 108.48(3) . 2_464 ?
O9 Cu3 O2 161.77(13) . 2_564 ?
O9 Cu3 O6 101.72(13) . . ?
O2 Cu3 O6 82.13(13) 2_564 . ?
O9 Cu3 O3 81.40(13) . 2_564 ?
O2 Cu3 O3 88.40(13) 2_564 2_564 ?
O6 Cu3 O3 157.36(13) . 2_564 ?
O9 Cu3 Cl1 94.28(10) . . ?
O2 Cu3 Cl1 101.61(10) 2_564 . ?
O6 Cu3 Cl1 107.30(10) . . ?
O3 Cu3 Cl1 94.71(10) 2_564 . ?
O9 Cu3 Cu4 41.62(9) . 2_564 ?
O2 Cu3 Cu4 129.85(10) 2_564 2_564 ?
O6 Cu3 Cu4 142.59(9) . 2_564 ?
O3 Cu3 Cu4 41.46(9) 2_564 2_564 ?
Cl1 Cu3 Cu4 86.78(4) . 2_564 ?
O9 Cu3 Cu1 1