
#######################################################################
#
#                 Cambridge Crystallographic Data Centre
#                                CCDC
#
#######################################################################
#
# If this CIF has been generated from an entry in the Cambridge
# Structural Database, then it will include bibliographic, chemical,
# crystal, experimental, refinement or atomic coordinate data resulting
# from the CCDC's data processing and validation procedures.
#
#######################################################################

data_CSD_CIF_DAMROY
_audit_creation_date 2000-02-17
_audit_creation_method CSD-ConQuest-V1
_database_code_CSD DAMROY
_database_code_depnum_ccdc_archive 'CCDC 121788'
_chemical_formula_sum 'C13 H2 As1 Cl3 F16 Xe2'
_chemical_formula_moiety
;
C12 Cl1 F10 Xe2 1+,As1 F6 1-,C1 H2 Cl2
;
_journal_coden_Cambridge 179
_journal_volume 38
_journal_year 1999
_journal_page_first 2554
_journal_name_full 'Angew.Chem.,Int.Ed. '
loop_
_publ_author_name
"H.-J.Frohn"
"T.Schroer"
"G.Henkel"
_chemical_name_systematic
;
(\m~2~-Chloro)-bis(pentafluorophenyl)-xenon(ii) hexafluoroarsenate 
dichloromethane solvate
;
_chemical_name_common
;
Teaching Subset: Fundamental Chemistry
;
_chemical_melting_point 373
_cell_volume   2323.992
_exptl_crystal_colour 'colorless'
_exptl_crystal_density_diffrn 2.589
_diffrn_ambient_temperature 150
#These two values have been output from a single CSD field.
_refine_ls_R_factor_gt 0.0513
_refine_ls_wR_factor_gt 0.0513
_symmetry_cell_setting monoclinic
_symmetry_space_group_name_H-M 'P 21/c'
_symmetry_Int_Tables_number 14
loop_
_symmetry_equiv_pos_site_id
_symmetry_equiv_pos_as_xyz
1 x,y,z
2 -x,1/2+y,1/2-z
3 -x,-y,-z
4 x,-1/2-y,-1/2+z
_cell_length_a 8.391(2)
_cell_length_b 20.588(5)
_cell_length_c 13.541(3)
_cell_angle_alpha 90
_cell_angle_beta 96.55(1)
_cell_angle_gamma 90
_cell_formula_units_Z 4
loop_
_atom_type_symbol
_atom_type_radius_bond
C 0.68
H 0.23
As 1.21
Cl 0.99
F 0.64
Xe 1.62
loop_
_atom_site_label
_atom_site_type_symbol
_atom_site_fract_x
_atom_site_fract_y
_atom_site_fract_z
Xe1 Xe 0.41246(7) 0.73640(3) 0.35721(4)
Xe2 Xe 0.35933(7) 0.50476(3) 0.32934(4)
Cl1 Cl 0.4971(3) 0.62199(11) 0.26671(18)
C1 C 0.2665(10) 0.4143(4) 0.3688(7)
C2 C 0.238(1) 0.4039(5) 0.4659(7)
C3 C 0.1895(11) 0.3435(5) 0.4923(7)
C4 C 0.1716(11) 0.2941(5) 0.4221(7)
C5 C 0.2000(11) 0.3044(4) 0.3268(7)
C6 C 0.2457(10) 0.3658(5) 0.2992(6)
F1 F 0.2570(7) 0.4512(3) 0.5319(4)
F2 F 0.1606(7) 0.3314(3) 0.5853(4)
F3 F 0.1229(7) 0.2355(3) 0.4493(5)
F4 F 0.1860(8) 0.2567(3) 0.2602(5)
F5 F 0.2757(7) 0.3766(3) 0.2050(4)
C7 C 0.3481(11) 0.8223(4) 0.4289(6)
C8 C 0.1911(12) 0.8400(5) 0.4242(6)
C9 C 0.1520(11) 0.8962(5) 0.4697(7)
C10 C 0.2675(12) 0.9342(5) 0.5185(7)
C11 C 0.4273(12) 0.9160(4) 0.5234(7)
C12 C 0.4663(10) 0.8597(4) 0.4786(6)
F6 F 0.0753(6) 0.8025(3) 0.3768(4)
F7 F -0.0030(7) 0.9135(3) 0.4667(5)
F8 F 0.2307(8) 0.9884(3) 0.5641(5)
F9 F 0.5400(7) 0.9532(3) 0.5717(4)
F10 F 0.6196(6) 0.8417(3) 0.4833(4)
As1 As 0.27925(10) 0.64879(4) 0.60545(6)
F11 F 0.3878(7) 0.6149(3) 0.7070(4)
F12 F 0.1366(7) 0.5898(3) 0.6038(5)
F13 F 0.3846(7) 0.6036(3) 0.5290(4)
F14 F 0.4254(6) 0.7082(3) 0.6061(5)
F15 F 0.1750(6) 0.6847(3) 0.5042(4)
F16 F 0.1784(7) 0.6949(3) 0.6822(4)
C13 C 0.1117(12) 0.0951(5) 0.3042(8)
H1 H 0.18230 0.11970 0.26760
H2 H 0.15180 0.09750 0.37340
Cl2 Cl 0.1152(4) 0.01482(14) 0.2659(3)
Cl3 Cl -0.0785(3) 0.13035(13) 0.2865(2)
#END
