####################################################################### 
# 
# This file contains crystal structure data downloaded from the 
# Cambridge Structural Database (CSD) hosted by the Cambridge 
# Crystallographic Data Centre (CCDC).
# 
# Full information about CCDC data access policies and citation 
# guidelines are available at http://www.ccdc.cam.ac.uk/access/V1 
# 
# Audit and citation data items may have been added by the CCDC. 
# Please retain this information to preserve the provenance of 
# this file and to allow appropriate attribution of the data. 
# 
#######################################################################

data_complex2
_audit_block_doi                 10.5517/cc3fsq0
_database_code_depnum_ccdc_archive 'CCDC 102632'
loop_
_citation_id
_citation_doi
_citation_year
1 10.1016/S0277-5387(98)00392-1 1999
_audit_update_record             
;
1998-08-10 deposited with the CCDC.	2024-07-09 downloaded from the CCDC.
;

_audit_creation_method           SHELXL

_chemical_name_common            ?
_chemical_formula_moiety         ?
_chemical_formula_structural     ?
_chemical_formula_analytical     ?
_chemical_formula_sum            'C32 H50 Bi2 N2 O S20'
_chemical_formula_weight         1537.90
_chemical_melting_point          ?
_chemical_compound_source        ?

loop_
_atom_type_symbol
_atom_type_description
_atom_type_scat_dispersion_real
_atom_type_scat_dispersion_imag
_atom_type_scat_source
C C 0.0033 0.0016 'International Tables Vol C Tables 4.2.6.8 and 6.1.1.4'
H H 0.0000 0.0000 'International Tables Vol C Tables 4.2.6.8 and 6.1.1.4'
N N 0.0061 0.0033 'International Tables Vol C Tables 4.2.6.8 and 6.1.1.4'
S S 0.1246 0.1234 'International Tables Vol C Tables 4.2.6.8 and 6.1.1.4'
Bi Bi -4.1077 10.2566 'International Tables Vol C Tables 4.2.6.8 and 6.1.1.4'
O O 0.0106 0.0060 'International Tables Vol C Tables 4.2.6.8 and 6.1.1.4'

_symmetry_cell_setting           Triclinic
_symmetry_space_group_name_H-M   P-1

loop_
_symmetry_equiv_pos_as_xyz
'x, y, z'
'-x, -y, -z'

_cell_length_a                   7.503(6)
_cell_length_b                   17.799(9)
_cell_length_c                   21.180(8)
_cell_angle_alpha                77.75(5)
_cell_angle_beta                 80.09(3)
_cell_angle_gamma                78.55(3)
_cell_volume                     2683.8(26)
_cell_formula_units_Z            2
_cell_measurement_temperature    293(2)
_cell_measurement_reflns_used    ?
_cell_measurement_theta_min      ?
_cell_measurement_theta_max      ?

_exptl_crystal_description       ?
_exptl_crystal_colour            black
_exptl_crystal_size_max          0.30
_exptl_crystal_size_mid          0.15
_exptl_crystal_size_min          0.10
_exptl_crystal_density_meas      ?
_exptl_crystal_density_diffrn    1.903
_exptl_crystal_density_method    ?
_exptl_crystal_F_000             1500
_exptl_absorpt_coefficient_mu    7.356
_exptl_absorpt_correction_type   SADABS
_exptl_absorpt_correction_T_min  0.455478
_exptl_absorpt_correction_T_max  1.0

_exptl_special_details           
; 
? 
;

_diffrn_ambient_temperature      293(2)
_diffrn_radiation_wavelength     0.71073
_diffrn_radiation_type           MoK\a
_diffrn_radiation_source         'fine-focus sealed tube'
_diffrn_radiation_monochromator  graphite
_diffrn_measurement_device       'Siemens P4'
_diffrn_measurement_method       '\w scans'
_diffrn_standards_number         ?
_diffrn_standards_interval_count ?
_diffrn_standards_interval_time  ?
_diffrn_standards_decay_%        ?
_diffrn_reflns_number            10653
_diffrn_reflns_av_R_equivalents  0.0323
_diffrn_reflns_av_sigmaI/netI    0.0865
_diffrn_reflns_limit_h_min       -8
_diffrn_reflns_limit_h_max       8
_diffrn_reflns_limit_k_min       -8
_diffrn_reflns_limit_k_max       19
_diffrn_reflns_limit_l_min       -23
_diffrn_reflns_limit_l_max       23
_diffrn_reflns_theta_min         1.68
_diffrn_reflns_theta_max         23.25
_reflns_number_total             7543
_reflns_number_observed          4312
_reflns_observed_criterion       >2sigma(I)

_computing_data_collection       'Siemens XSCANS'
_computing_cell_refinement       'Siemens XSCANS'
_computing_data_reduction        'Siemens SHELXTL'
_computing_structure_solution    'SHELXS-86 (Sheldrick, 1990)'
_computing_structure_refinement  'SHELXL-93 (Sheldrick, 1993)'
_computing_molecular_graphics    'Siemens SHELXTL'
_computing_publication_material  'Siemens SHELXTL'

_refine_ls_structure_factor_coef Fsqd
_refine_ls_matrix_type           full
_refine_ls_weighting_scheme      
;calc w=1/[\s^2^(Fo^2^)+(0.0446P)^2^+0.0000P] where P=(Fo^2^+2Fc^2^)/3
;

_atom_sites_solution_primary     direct
_atom_sites_solution_secondary   difmap
_atom_sites_solution_hydrogens   geom
_refine_ls_hydrogen_treatment    ?
_refine_ls_extinction_method     none
_refine_ls_extinction_coef       ?
_refine_ls_number_reflns         7543
_refine_ls_number_parameters     489
_refine_ls_number_restraints     0
_refine_ls_R_factor_all          0.0991
_refine_ls_R_factor_obs          0.0441
_refine_ls_wR_factor_all         0.1137
_refine_ls_wR_factor_obs         0.0939
_refine_ls_goodness_of_fit_all   0.984
_refine_ls_goodness_of_fit_obs   1.101
_refine_ls_restrained_S_all      0.984
_refine_ls_restrained_S_obs      1.101
_refine_ls_shift/esd_max         -0.003
_refine_ls_shift/esd_mean        0.000

loop_
_atom_site_label
_atom_site_type_symbol
_atom_site_fract_x
_atom_site_fract_y
_atom_site_fract_z
_atom_site_U_iso_or_equiv
_atom_site_thermal_displace_type
_atom_site_occupancy
_atom_site_calc_flag
_atom_site_refinement_flags
_atom_site_disorder_group
Bi1 Bi 0.23591(6) 0.02037(3) 0.00433(2) 0.0365(2) Uani 1 d . .
S1 S 0.4920(4) 0.1010(2) -0.0852(2) 0.0434(9) Uani 1 d . .
S2 S 0.3591(5) 0.0981(2) 0.0775(2) 0.0487(9) Uani 1 d . .
S3 S 0.4918(5) 0.2710(2) -0.0918(2) 0.0524(10) Uani 1 d . .
S4 S 0.3584(4) 0.2697(2) 0.0424(2) 0.0466(10) Uani 1 d . .
S5 S 0.4313(5) 0.4199(2) -0.0422(2) 0.0680(12) Uani 1 d . .
S6 S -0.0064(4) 0.1474(2) -0.0327(2) 0.0460(9) Uani 1 d . .
S7 S -0.0564(4) 0.0117(2) 0.1085(2) 0.0443(9) Uani 1 d . .
S8 S -0.1785(4) 0.2627(2) 0.0520(2) 0.0473(10) Uani 1 d . .
S9 S -0.2453(5) 0.1506(2) 0.1680(2) 0.0500(9) Uani 1 d . .
S10 S -0.3803(6) 0.3203(3) 0.1700(2) 0.0769(13) Uani 1 d . .
C1 C 0.4574(15) 0.1804(7) -0.0457(6) 0.040(3) Uani 1 d . .
C2 C 0.4008(16) 0.1781(7) 0.0190(7) 0.041(3) Uani 1 d . .
C3 C 0.4265(15) 0.3261(7) -0.0312(6) 0.046(3) Uani 1 d . .
C4 C -0.1056(15) 0.1645(8) 0.0448(7) 0.041(3) Uani 1 d . .
C5 C -0.1321(16) 0.1124(8) 0.0988(7) 0.044(3) Uani 1 d . .
C6 C -0.2757(15) 0.2495(8) 0.1320(6) 0.046(4) Uani 1 d . .
Bi2 Bi 0.23861(6) 0.52151(3) 0.50240(2) 0.0384(2) Uani 1 d . .
S11 S 0.4409(4) 0.5172(2) 0.6052(2) 0.0452(9) Uani 1 d . .
S12 S 0.3915(5) 0.6491(2) 0.4635(2) 0.0480(9) Uani 1 d . .
S13 S 0.4301(5) 0.6579(2) 0.6628(2) 0.0506(9) Uani 1 d . .
S14 S 0.3610(5) 0.7677(2) 0.5467(2) 0.0472(10) Uani 1 d . .
S15 S 0.3841(6) 0.8285(3) 0.6639(2) 0.0757(13) Uani 1 d . .
S16 S -0.0052(5) 0.5985(2) 0.4134(2) 0.0486(9) Uani 1 d . .
S17 S -0.0303(5) 0.5997(2) 0.5751(2) 0.0486(9) Uani 1 d . .
S18 S -0.1716(5) 0.7681(2) 0.4043(2) 0.0549(10) Uani 1 d . .
S19 S -0.1716(4) 0.7695(2) 0.5386(2) 0.0469(9) Uani 1 d . .
S20 S -0.3117(5) 0.9172(2) 0.4527(2) 0.0716(12) Uani 1 d . .
C7 C 0.4241(15) 0.6180(7) 0.5950(6) 0.036(3) Uani 1 d . .
C8 C 0.3976(15) 0.6701(8) 0.5390(7) 0.040(3) Uani 1 d . .
C9 C 0.3868(16) 0.7555(8) 0.6265(7) 0.052(4) Uani 1 d . .
C10 C -0.0918(17) 0.6794(7) 0.4515(6) 0.043(3) Uani 1 d . .
C11 C -0.0955(14) 0.6782(7) 0.5161(6) 0.036(3) Uani 1 d . .
C12 C -0.2226(15) 0.8225(7) 0.4648(6) 0.042(3) Uani 1 d . .
N1 N 0.0837(13) 0.4903(6) 0.1786(5) 0.046(3) Uani 1 d . .
N2 N 0.2391(14) 0.0135(6) 0.3224(5) 0.043(3) Uani 1 d . .
C111 C 0.2522(19) 0.5035(9) 0.2020(7) 0.068(4) Uani 1 d . .
H11A H 0.3149(19) 0.5381(9) 0.1675(7) 0.081 Uiso 1 calc R .
H11B H 0.3345(19) 0.4541(9) 0.2096(7) 0.081 Uiso 1 calc R .
C112 C 0.2153(23) 0.5382(11) 0.2642(8) 0.095(6) Uani 1 d . .
H11C H 0.3293(23) 0.5446(11) 0.2754(8) 0.143 Uiso 1 calc R .
H11D H 0.1565(23) 0.5037(11) 0.2991(8) 0.143 Uiso 1 calc R .
H11E H 0.1368(23) 0.5880(11) 0.2570(8) 0.143 Uiso 1 calc R .
C121 C -0.0465(18) 0.5665(8) 0.1638(8) 0.064(4) Uani 1 d . .
H12A H -0.0808(18) 0.5885(8) 0.2032(8) 0.077 Uiso 1 calc R .
H12B H -0.1573(18) 0.5555(8) 0.1524(8) 0.077 Uiso 1 calc R .
C122 C 0.0289(21) 0.6277(9) 0.1090(8) 0.087(5) Uani 1 d . .
H12C H -0.0625(21) 0.6738(9) 0.1031(8) 0.131 Uiso 1 calc R .
H12D H 0.0599(21) 0.6073(9) 0.0693(8) 0.131 Uiso 1 calc R .
H12E H 0.1365(21) 0.6404(9) 0.1203(8) 0.131 Uiso 1 calc R .
C131 C 0.1520(18) 0.4543(9) 0.1176(7) 0.062(4) Uani 1 d . .
H13A H 0.2164(18) 0.4906(9) 0.0852(7) 0.074 Uiso 1 calc R .
H13B H 0.2395(18) 0.4072(9) 0.1286(7) 0.074 Uiso 1 calc R .
C132 C 0.0020(20) 0.4343(10) 0.0874(8) 0.084(6) Uani 1 d . .
H13C H 0.0556(20) 0.4122(10) 0.0495(8) 0.126 Uiso 1 calc R .
H13D H -0.0838(20) 0.4808(10) 0.0751(8) 0.126 Uiso 1 calc R .
H13E H -0.0607(20) 0.3973(10) 0.1185(8) 0.126 Uiso 1 calc R .
C141 C -0.0258(19) 0.4383(9) 0.2299(7) 0.069(5) Uani 1 d . .
H14A H -0.1338(19) 0.4330(9) 0.2127(7) 0.083 Uiso 1 calc R .
H14B H -0.0674(19) 0.4632(9) 0.2676(7) 0.083 Uiso 1 calc R .
C142 C 0.0810(22) 0.3570(9) 0.2517(8) 0.084(5) Uani 1 d . .
H14C H 0.0037(22) 0.3271(9) 0.2842(8) 0.126 Uiso 1 calc R .
H14D H 0.1865(22) 0.3614(9) 0.2698(8) 0.126 Uiso 1 calc R .
H14E H 0.1201(22) 0.3313(9) 0.2149(8) 0.126 Uiso 1 calc R .
C211 C 0.1294(19) 0.0707(8) 0.2723(7) 0.062(4) Uani 1 d . .
H21A H 0.1459(19) 0.0484(8) 0.2333(7) 0.074 Uiso 1 calc R .
H21B H 0.0002(19) 0.0754(8) 0.2898(7) 0.074 Uiso 1 calc R .
C212 C 0.1771(22) 0.1498(9) 0.2534(8) 0.089(5) Uani 1 d . .
H21C H 0.1010(22) 0.1808(9) 0.2220(8) 0.133 Uiso 1 calc R .
H21D H 0.3037(22) 0.1464(9) 0.2345(8) 0.133 Uiso 1 calc R .
H21E H 0.1576(22) 0.1735(9) 0.2912(8) 0.133 Uiso 1 calc R .
C221 C 0.4406(19) 0.0027(9) 0.2968(7) 0.066(4) Uani 1 d . .
H22A H 0.5067(19) -0.0326(9) 0.3299(7) 0.079 Uiso 1 calc R .
H22B H 0.4813(19) 0.0526(9) 0.2899(7) 0.079 Uiso 1 calc R .
C222 C 0.4926(21) -0.0290(9) 0.2338(7) 0.085(5) Uani 1 d . .
H22C H 0.6230(21) -0.0339(9) 0.2211(7) 0.127 Uiso 1 calc R .
H22D H 0.4311(21) 0.0061(9) 0.2001(7) 0.127 Uiso 1 calc R .
H22E H 0.4566(21) -0.0792(9) 0.2402(7) 0.127 Uiso 1 calc R .
C231 C 0.1644(19) -0.0622(8) 0.3340(7) 0.059(4) Uani 1 d . .
H23A H 0.0338(19) -0.0518(8) 0.3491(7) 0.071 Uiso 1 calc R .
H23B H 0.1795(19) -0.0797(8) 0.2928(7) 0.071 Uiso 1 calc R .
C232 C 0.2532(23) -0.1273(9) 0.3827(9) 0.096(6) Uani 1 d . .
H23C H 0.1979(23) -0.1727(9) 0.3870(9) 0.145 Uiso 1 calc R .
H23D H 0.2360(23) -0.1114(9) 0.4242(9) 0.145 Uiso 1 calc R .
H23E H 0.3820(23) -0.1393(9) 0.3678(9) 0.145 Uiso 1 calc R .
C241 C 0.2223(18) 0.0437(9) 0.3857(7) 0.059(4) Uani 1 d . .
H24A H 0.2899(18) 0.0045(9) 0.4162(7) 0.071 Uiso 1 calc R .
H24B H 0.2794(18) 0.0899(9) 0.3767(7) 0.071 Uiso 1 calc R .
C242 C 0.0287(19) 0.0637(9) 0.4176(7) 0.072(5) Uani 1 d . .
H24C H 0.0294(19) 0.0822(9) 0.4570(7) 0.108 Uiso 1 calc R .
H24D H -0.0283(19) 0.0180(9) 0.4279(7) 0.108 Uiso 1 calc R .
H24E H -0.0388(19) 0.1036(9) 0.3884(7) 0.108 Uiso 1 calc R .
O O -0.1563(17) 0.7319(7) 0.2449(6) 0.103(4) Uiso 1 d . .
C01 C -0.0901(26) 0.8041(12) 0.2204(10) 0.124(7) Uiso 1 d . .
H01A H -0.1449(26) 0.8417(12) 0.2484(10) 0.149 Uiso 1 calc R .
H01B H -0.1206(26) 0.8257(12) 0.1768(10) 0.149 Uiso 1 calc R .
C02 C 0.1109(25) 0.7867(12) 0.2196(10) 0.127(8) Uiso 1 d . .
H02A H 0.1612(25) 0.8337(12) 0.2035(10) 0.190 Uiso 1 calc R .
H02B H 0.1632(25) 0.7495(12) 0.1918(10) 0.190 Uiso 1 calc R .
H02C H 0.1389(25) 0.7654(12) 0.2631(10) 0.190 Uiso 1 calc R .
C04 C -0.4193(22) 0.6699(10) 0.2821(9) 0.096(6) Uiso 1 d . .
H04A H -0.5509(22) 0.6791(10) 0.2904(9) 0.144 Uiso 1 calc R .
H04B H -0.3703(22) 0.6448(10) 0.3217(9) 0.144 Uiso 1 calc R .
H04C H -0.3795(22) 0.6370(10) 0.2500(9) 0.144 Uiso 1 calc R .
C03 C -0.3560(25) 0.7418(12) 0.2585(10) 0.107(6) Uiso 1 d . .
H03A H -0.3987(25) 0.7753(12) 0.2907(10) 0.128 Uiso 1 calc R .
H03B H -0.4079(25) 0.7675(12) 0.2190(10) 0.128 Uiso 1 calc R .

loop_
_atom_site_aniso_label
_atom_site_aniso_U_11
_atom_site_aniso_U_22
_atom_site_aniso_U_33
_atom_site_aniso_U_23
_atom_site_aniso_U_13
_atom_site_aniso_U_12
Bi1 0.0316(3) 0.0380(3) 0.0421(4) -0.0137(3) -0.0052(2) -0.0039(2)
S1 0.049(2) 0.044(2) 0.038(2) -0.012(2) -0.004(2) -0.006(2)
S2 0.065(2) 0.047(2) 0.038(2) -0.004(2) -0.012(2) -0.018(2)
S3 0.059(2) 0.045(2) 0.047(2) -0.004(2) 0.004(2) -0.008(2)
S4 0.048(2) 0.046(2) 0.049(3) -0.016(2) -0.003(2) -0.013(2)
S5 0.070(3) 0.041(2) 0.087(3) -0.011(2) 0.005(2) -0.013(2)
S6 0.053(2) 0.045(2) 0.033(2) -0.007(2) -0.006(2) 0.007(2)
S7 0.054(2) 0.037(2) 0.040(2) -0.010(2) -0.001(2) -0.006(2)
S8 0.046(2) 0.042(2) 0.052(2) -0.015(2) -0.005(2) 0.003(2)
S9 0.056(2) 0.053(2) 0.041(2) -0.020(2) 0.001(2) -0.005(2)
S10 0.090(3) 0.062(3) 0.077(3) -0.043(3) 0.001(2) 0.010(2)
C1 0.035(7) 0.047(9) 0.035(9) -0.010(7) -0.005(6) 0.003(6)
C2 0.042(8) 0.039(8) 0.046(9) -0.015(7) -0.015(6) -0.003(6)
C3 0.036(7) 0.043(8) 0.058(10) -0.006(7) -0.008(6) -0.005(6)
C4 0.034(7) 0.045(9) 0.046(10) -0.019(8) -0.001(6) -0.001(6)
C5 0.041(8) 0.053(9) 0.044(9) -0.024(8) 0.001(7) -0.016(7)
C6 0.029(7) 0.065(10) 0.048(9) -0.023(8) -0.010(6) 0.001(6)
Bi2 0.0338(3) 0.0402(3) 0.0446(4) -0.0154(3) -0.0051(2) -0.0063(2)
S11 0.051(2) 0.039(2) 0.047(2) -0.011(2) -0.013(2) -0.002(2)
S12 0.060(2) 0.050(2) 0.037(2) -0.011(2) -0.005(2) -0.015(2)
S13 0.057(2) 0.057(2) 0.043(2) -0.023(2) -0.011(2) -0.005(2)
S14 0.053(2) 0.038(2) 0.055(3) -0.016(2) -0.007(2) -0.011(2)
S15 0.089(3) 0.069(3) 0.084(3) -0.046(3) -0.015(2) -0.013(2)
S16 0.058(2) 0.047(2) 0.044(2) -0.013(2) -0.013(2) -0.006(2)
S17 0.053(2) 0.048(2) 0.036(2) -0.001(2) -0.001(2) 0.000(2)
S18 0.067(2) 0.048(2) 0.051(2) -0.003(2) -0.021(2) -0.008(2)
S19 0.044(2) 0.041(2) 0.055(3) -0.014(2) -0.009(2) 0.001(2)
S20 0.071(3) 0.046(2) 0.098(4) -0.008(2) -0.033(2) 0.002(2)
C7 0.038(7) 0.039(8) 0.031(8) -0.009(7) -0.006(6) -0.004(6)
C8 0.027(7) 0.045(9) 0.053(10) -0.021(8) -0.008(6) -0.001(6)
C9 0.036(8) 0.059(10) 0.070(11) -0.034(9) -0.006(7) -0.004(7)
C10 0.060(9) 0.037(8) 0.037(9) -0.001(7) -0.017(7) -0.015(7)
C11 0.026(7) 0.033(8) 0.046(9) -0.008(7) -0.002(6) 0.000(6)
C12 0.032(7) 0.044(8) 0.050(9) -0.001(7) -0.009(6) -0.009(6)
N1 0.041(6) 0.046(7) 0.044(7) -0.004(6) -0.004(5) 0.003(6)
N2 0.053(7) 0.042(7) 0.035(7) -0.003(6) -0.016(5) -0.005(6)
C111 0.073(11) 0.065(11) 0.065(11) -0.010(9) -0.003(9) -0.020(9)
C112 0.124(15) 0.105(16) 0.074(14) -0.029(12) -0.031(11) -0.031(12)
C121 0.056(10) 0.057(10) 0.078(12) -0.022(9) 0.006(8) -0.010(8)
C122 0.087(12) 0.064(12) 0.103(16) -0.004(11) -0.014(11) -0.006(10)
C131 0.066(10) 0.054(10) 0.057(11) -0.011(9) 0.001(8) 0.005(8)
C132 0.078(12) 0.087(13) 0.107(15) -0.055(12) -0.023(10) -0.011(10)
C141 0.068(10) 0.070(12) 0.059(11) -0.002(9) 0.018(8) -0.019(9)
C142 0.111(14) 0.060(12) 0.075(13) 0.002(10) -0.004(10) -0.021(10)
C211 0.069(10) 0.057(10) 0.059(11) 0.003(9) -0.021(8) -0.010(8)
C212 0.123(15) 0.066(13) 0.070(13) 0.005(10) -0.028(10) -0.007(11)
C221 0.072(11) 0.053(10) 0.061(11) 0.003(9) 0.008(8) -0.014(8)
C222 0.122(14) 0.069(12) 0.048(11) -0.008(10) 0.008(9) -0.001(10)
C231 0.073(10) 0.047(9) 0.059(11) -0.008(8) -0.002(8) -0.025(8)
C232 0.131(16) 0.045(11) 0.112(17) -0.009(11) -0.021(12) -0.015(10)
C241 0.069(10) 0.057(10) 0.059(11) -0.017(9) -0.013(8) -0.016(8)
C242 0.079(11) 0.074(12) 0.067(12) -0.029(10) 0.000(9) -0.013(9)

loop_
_geom_bond_atom_site_label_1
_geom_bond_atom_site_label_2
_geom_bond_distance
_geom_bond_site_symmetry_2
_geom_bond_publ_flag
Bi1 S2 2.660(3) . ?
Bi1 S6 2.672(4) . ?
Bi1 S7 2.833(4) . ?
Bi1 S1 2.834(4) . ?
Bi1 S1 3.107(4) 2_655 ?
Bi1 S7 3.138(4) 2 ?
S1 C1 1.746(12) . ?
S1 Bi1 3.107(4) 2_655 ?
S2 C2 1.720(14) . ?
S3 C3 1.725(13) . ?
S3 C1 1.741(13) . ?
S4 C3 1.721(13) . ?
S4 C2 1.757(12) . ?
S5 C3 1.643(13) . ?
S6 C4 1.744(13) . ?
S7 C5 1.748(14) . ?
S8 C6 1.711(13) . ?
S8 C4 1.756(13) . ?
S9 C6 1.750(14) . ?
S9 C5 1.760(12) . ?
S10 C6 1.636(12) . ?
C1 C2 1.36(2) . ?
C4 C5 1.32(2) . ?
Bi2 S12 2.659(4) . ?
Bi2 S17 2.666(4) . ?
Bi2 S16 2.806(4) . ?
Bi2 S11 2.841(3) . ?
Bi2 S11 3.094(4) 2_666 ?
Bi2 S16 3.099(4) 2_566 ?
S11 C7 1.743(13) . ?
S11 Bi2 3.095(4) 2_666 ?
S12 C8 1.728(13) . ?
S13 C9 1.735(15) . ?
S13 C7 1.743(12) . ?
S14 C9 1.698(14) . ?
S14 C8 1.741(13) . ?
S15 C9 1.653(13) . ?
S16 C10 1.758(13) . ?
S16 Bi2 3.099(4) 2_566 ?
S17 C11 1.719(13) . ?
S18 C12 1.713(13) . ?
S18 C10 1.734(13) . ?
S19 C12 1.709(13) . ?
S19 C11 1.750(12) . ?
S20 C12 1.668(13) . ?
C7 C8 1.36(2) . ?
C10 C11 1.36(2) . ?
N1 C141 1.51(2) . ?
N1 C111 1.51(2) . ?
N1 C121 1.51(2) . ?
N1 C131 1.528(15) . ?
N2 C221 1.504(14) . ?
N2 C231 1.52(2) . ?
N2 C241 1.525(15) . ?
N2 C211 1.53(2) . ?
C111 C112 1.53(2) . ?
C121 C122 1.53(2) . ?
C131 C132 1.52(2) . ?
C141 C142 1.53(2) . ?
C211 C212 1.48(2) . ?
C221 C222 1.52(2) . ?
C231 C232 1.51(2) . ?
C241 C242 1.50(2) . ?
O C01 1.43(2) . ?
O C03 1.46(2) . ?
C01 C02 1.48(2) . ?
C04 C03 1.41(2) . ?

loop_
_geom_angle_atom_site_label_1
_geom_angle_atom_site_label_2
_geom_angle_atom_site_label_3
_geom_angle
_geom_angle_site_symmetry_1
_geom_angle_site_symmetry_3
_geom_angle_publ_flag
S2 Bi1 S6 89.57(12) . . ?
S2 Bi1 S7 83.05(11) . . ?
S6 Bi1 S7 77.26(11) . . ?
S2 Bi1 S1 76.66(10) . . ?
S6 Bi1 S1 84.16(11) . . ?
S7 Bi1 S1 152.51(10) . . ?
S2 Bi1 S1 73.65(10) . 2_655 ?
S6 Bi1 S1 161.53(9) . 2_655 ?
S7 Bi1 S1 92.77(11) . 2_655 ?
S1 Bi1 S1 99.00(10) . 2_655 ?
S2 Bi1 S7 159.93(10) . 2 ?
S6 Bi1 S7 72.59(10) . 2 ?
S7 Bi1 S7 101.30(9) . 2 ?
S1 Bi1 S7 92.09(10) . 2 ?
S1 Bi1 S7 125.16(9) 2_655 2 ?
C1 S1 Bi1 95.3(4) . . ?
C1 S1 Bi1 101.9(4) . 2_655 ?
Bi1 S1 Bi1 81.00(10) . 2_655 ?
C2 S2 Bi1 98.5(4) . . ?
C3 S3 C1 99.0(6) . . ?
C3 S4 C2 99.5(6) . . ?
C4 S6 Bi1 97.8(5) . . ?
C5 S7 Bi1 95.3(4) . . ?
C6 S8 C4 98.8(7) . . ?
C6 S9 C5 98.1(7) . . ?
C2 C1 S3 116.2(10) . . ?
C2 C1 S1 125.1(11) . . ?
S3 C1 S1 118.7(7) . . ?
C1 C2 S2 127.5(10) . . ?
C1 C2 S4 114.0(10) . . ?
S2 C2 S4 118.4(7) . . ?
S5 C3 S4 124.5(8) . . ?
S5 C3 S3 124.3(8) . . ?
S4 C3 S3 111.2(7) . . ?
C5 C4 S6 127.8(10) . . ?
C5 C4 S8 116.2(10) . . ?
S6 C4 S8 116.0(8) . . ?
C4 C5 S7 126.6(10) . . ?
C4 C5 S9 115.5(10) . . ?
S7 C5 S9 117.8(8) . . ?
S10 C6 S8 124.3(9) . . ?
S10 C6 S9 124.4(8) . . ?
S8 C6 S9 111.3(7) . . ?
S12 Bi2 S17 89.41(11) . . ?
S12 Bi2 S16