####################################################################### 
# 
# This file contains crystal structure data downloaded from the 
# Cambridge Structural Database (CSD) hosted by the Cambridge 
# Crystallographic Data Centre (CCDC).
# 
# Full information about CCDC data access policies and citation 
# guidelines are available at http://www.ccdc.cam.ac.uk/access/V1 
# 
# Audit and citation data items may have been added by the CCDC. 
# Please retain this information to preserve the provenance of 
# this file and to allow appropriate attribution of the data. 
# 
#######################################################################

data_1
_audit_block_doi                 10.5517/ccxtk7h
_database_code_depnum_ccdc_archive 'CCDC 858707'
loop_
_citation_id
_citation_doi
_citation_year
1 10.1039/c2dt12392d 2012
_audit_update_record             
;
2011-12-13 deposited with the CCDC.	2024-07-09 downloaded from the CCDC.
;
#TrackingRef '- Combo.cif'


_audit_creation_method           SHELXL-97
_chemical_name_systematic        
;
?
;
_chemical_name_common            ?
_chemical_melting_point          ?
_chemical_formula_moiety         'C108 H68 Cd5 O28'
_chemical_formula_sum            'C108 H60 Cd5 O28'
_chemical_formula_weight         2367.61

loop_
_atom_type_symbol
_atom_type_description
_atom_type_scat_dispersion_real
_atom_type_scat_dispersion_imag
_atom_type_scat_source
C C 0.0033 0.0016 'International Tables Vol C Tables 4.2.6.8 and 6.1.1.4'
H H 0.0000 0.0000 'International Tables Vol C Tables 4.2.6.8 and 6.1.1.4'
Cd Cd -0.8075 1.2024 'International Tables Vol C Tables 4.2.6.8 and 6.1.1.4'
Cl Cl 0.1484 0.1585 'International Tables Vol C Tables 4.2.6.8 and 6.1.1.4'
N N 0.0061 0.0033 'International Tables Vol C Tables 4.2.6.8 and 6.1.1.4'
O O 0.0106 0.0060 'International Tables Vol C Tables 4.2.6.8 and 6.1.1.4'

_symmetry_cell_setting           Monoclinic
_symmetry_space_group_name_H-M   'C 2/c'
_symmetry_space_group_name_Hall  '-C 2yc'

loop_
_symmetry_equiv_pos_as_xyz
'x, y, z'
'-x, y, -z+1/2'
'x+1/2, y+1/2, z'
'-x+1/2, y+1/2, -z+1/2'
'-x, -y, -z'
'x, -y, z-1/2'
'-x+1/2, -y+1/2, -z'
'x+1/2, -y+1/2, z-1/2'

_cell_length_a                   35.859(7)
_cell_length_b                   17.020(3)
_cell_length_c                   27.824(6)
_cell_angle_alpha                90.00
_cell_angle_beta                 122.73(3)
_cell_angle_gamma                90.00
_cell_volume                     14285(7)
_cell_formula_units_Z            4
_cell_measurement_temperature    293(2)
_cell_measurement_reflns_used    540
_cell_measurement_theta_min      2.74
_cell_measurement_theta_max      24.83

_exptl_crystal_description       sheet
_exptl_crystal_colour            colorless
_exptl_crystal_size_max          0.30
_exptl_crystal_size_mid          0.24
_exptl_crystal_size_min          0.07
_exptl_crystal_density_meas      ?
_exptl_crystal_density_diffrn    1.101
_exptl_crystal_density_method    'not measured'
_exptl_crystal_F_000             4688.0
_exptl_absorpt_coefficient_mu    0.787
_exptl_absorpt_correction_type   none
_exptl_absorpt_correction_T_min  0.793
_exptl_absorpt_correction_T_max  0.945
_exptl_absorpt_process_details   ?

_exptl_special_details           
;
?
;

_diffrn_ambient_temperature      293(2)
_diffrn_radiation_wavelength     0.71073
_diffrn_radiation_type           MoK\a
_diffrn_radiation_source         'fine-focus sealed tube'
_diffrn_radiation_monochromator  graphite
_diffrn_measurement_device_type  'Bruker P4'
_diffrn_measurement_method       '\w scans'
_diffrn_detector_area_resol_mean ?
_diffrn_standards_number         none
_diffrn_standards_interval_count none
_diffrn_standards_interval_time  0
_diffrn_standards_decay_%        none
_diffrn_reflns_number            40888
_diffrn_reflns_av_R_equivalents  0.0432
_diffrn_reflns_av_sigmaI/netI    0.0497
_diffrn_reflns_limit_h_min       -38
_diffrn_reflns_limit_h_max       42
_diffrn_reflns_limit_k_min       -20
_diffrn_reflns_limit_k_max       13
_diffrn_reflns_limit_l_min       -32
_diffrn_reflns_limit_l_max       33
_diffrn_reflns_theta_min         1.35
_diffrn_reflns_theta_max         25.15
_reflns_number_total             12800
_reflns_number_gt                9907
_reflns_threshold_expression     >2sigma(I)

_computing_data_collection       'Bruker XSCANS'
_computing_cell_refinement       'Bruker XSCANS'
_computing_data_reduction        'Bruker SHELXTL'
_computing_structure_solution    'SHELXS-97 (Sheldrick, 1990)'
_computing_structure_refinement  'SHELXL-97 (Sheldrick, 1997)'
_computing_molecular_graphics    'Bruker SHELXTL'
_computing_publication_material  'Bruker SHELXTL'

_refine_special_details          
;
Refinement of F^2^ against ALL reflections. The weighted R-factor wR and
goodness of fit S are based on F^2^, conventional R-factors R are based
on F, with F set to zero for negative F^2^. The threshold expression of
F^2^ > 2sigma(F^2^) is used only for calculating R-factors(gt) etc. and is
not relevant to the choice of reflections for refinement. R-factors based
on F^2^ are statistically about twice as large as those based on F, and R-
factors based on ALL data will be even larger.
;

_refine_ls_structure_factor_coef Fsqd
_refine_ls_matrix_type           full
_refine_ls_weighting_scheme      calc
_refine_ls_weighting_details     
'calc w=1/[\s^2^(Fo^2^)+(0.1400P)^2^+43.0000P] where P=(Fo^2^+2Fc^2^)/3'
_atom_sites_solution_primary     direct
_atom_sites_solution_secondary   difmap
_atom_sites_solution_hydrogens   geom
_refine_ls_hydrogen_treatment    constr
_refine_ls_extinction_method     none
_refine_ls_extinction_coef       ?
_refine_ls_number_reflns         12710
_refine_ls_number_parameters     637
_refine_ls_number_restraints     0
_refine_ls_R_factor_all          0.0821
_refine_ls_R_factor_gt           0.0682
_refine_ls_wR_factor_ref         0.2143
_refine_ls_wR_factor_gt          0.2056
_refine_ls_goodness_of_fit_ref   1.049
_refine_ls_restrained_S_all      1.049
_refine_ls_shift/su_max          0.001
_refine_ls_shift/su_mean         0.000

loop_
_atom_site_label
_atom_site_type_symbol
_atom_site_fract_x
_atom_site_fract_y
_atom_site_fract_z
_atom_site_U_iso_or_equiv
_atom_site_adp_type
_atom_site_occupancy
_atom_site_symmetry_multiplicity
_atom_site_calc_flag
_atom_site_refinement_flags
_atom_site_disorder_assembly
_atom_site_disorder_group
Cd1 Cd 0.362567(15) 0.20083(3) 0.547927(17) 0.03395(16) Uani 1 1 d . . .
Cd2 Cd 0.482140(18) 0.17746(3) 0.62953(2) 0.04910(19) Uani 1 1 d . . .
Cd3 Cd 0.2500 0.7500 0.0000 0.03158(18) Uani 1 2 d S . .
O1 O 0.08179(19) 0.6140(3) -0.0580(2) 0.0532(13) Uani 1 1 d . . .
O1W O 0.4586(2) 0.1752(4) 0.6926(2) 0.0764(19) Uani 1 1 d . . .
O2 O 0.0482(2) 0.5217(3) -0.1197(3) 0.083(2) Uani 1 1 d . . .
O2W O 0.5254(2) 0.2830(5) 0.6849(3) 0.106(3) Uani 1 1 d . . .
O3 O 0.34484(19) -0.0961(3) 0.0772(2) 0.0515(13) Uani 1 1 d . . .
O4 O 0.27452(18) -0.1260(3) 0.0094(2) 0.0455(12) Uani 1 1 d . . .
O5 O 0.32779(15) 0.2103(3) 0.45511(17) 0.0386(10) Uani 1 1 d . . .
O6 O 0.26471(15) 0.2722(3) 0.43252(18) 0.0385(10) Uani 1 1 d . . .
O7 O 0.47269(17) 0.2591(3) 0.5513(2) 0.0571(14) Uani 1 1 d . . .
O8 O 0.42465(14) 0.2746(2) 0.57774(17) 0.0338(9) Uani 1 1 d . . .
O9 O 0.0446(2) 0.3986(5) 0.2129(3) 0.090(2) Uani 1 1 d . . .
O10 O 0.0389(2) 0.3806(4) 0.1294(3) 0.0784(19) Uani 1 1 d . . .
O11 O 0.38270(19) 0.7487(4) 0.1413(2) 0.0607(15) Uani 1 1 d . . .
O12 O 0.32151(16) 0.7089(3) 0.06429(19) 0.0437(12) Uani 1 1 d . . .
C1 C 0.2010(3) 0.3128(4) 0.0893(3) 0.0430(17) Uani 1 1 d . . .
C2 C 0.2160(3) 0.2523(4) 0.0712(3) 0.0467(19) Uani 1 1 d . . .
H2A H 0.2063 0.2489 0.0328 0.056 Uiso 1 1 calc R . .
C3 C 0.2459(3) 0.1949(4) 0.1098(3) 0.0458(18) Uani 1 1 d . . .
C4 C 0.2594(3) 0.2008(4) 0.1671(3) 0.0466(18) Uani 1 1 d . . .
H4A H 0.2790 0.1638 0.1932 0.056 Uiso 1 1 calc R . .
C5 C 0.2442(3) 0.2605(4) 0.1861(3) 0.0415(16) Uani 1 1 d . . .
C6 C 0.2149(2) 0.3173(4) 0.1467(3) 0.0420(16) Uani 1 1 d . . .
H6A H 0.2048 0.3580 0.1591 0.050 Uiso 1 1 calc R . .
C7 C 0.1703(3) 0.3725(4) 0.0476(3) 0.0423(16) Uani 1 1 d . . .
C8 C 0.1365(3) 0.3500(4) -0.0073(3) 0.0480(18) Uani 1 1 d . . .
H8A H 0.1333 0.2974 -0.0178 0.058 Uiso 1 1 calc R . .
C9 C 0.1073(3) 0.4061(4) -0.0467(3) 0.0511(19) Uani 1 1 d . . .
H9A H 0.0856 0.3910 -0.0837 0.061 Uiso 1 1 calc R . .
C10 C 0.1112(3) 0.4853(4) -0.0300(3) 0.0482(17) Uani 1 1 d . . .
C11 C 0.1444(3) 0.5066(4) 0.0241(3) 0.0430(16) Uani 1 1 d . . .
H11A H 0.1478 0.5591 0.0350 0.052 Uiso 1 1 calc R . .
C12 C 0.1729(2) 0.4514(4) 0.0623(3) 0.0454(17) Uani 1 1 d . . .
H12A H 0.1946 0.4672 0.0991 0.054 Uiso 1 1 calc R . .
C13 C 0.2605(2) 0.1288(4) 0.0905(3) 0.0368(14) Uani 1 1 d . . .
C14 C 0.3058(2) 0.1109(4) 0.1183(3) 0.0425(16) Uani 1 1 d . . .
H14A H 0.3267 0.1433 0.1474 0.051 Uiso 1 1 calc R . .
C15 C 0.3197(3) 0.0453(4) 0.1026(3) 0.0467(17) Uani 1 1 d . . .
H15A H 0.3498 0.0357 0.1199 0.056 Uiso 1 1 calc R . .
C16 C 0.2895(2) -0.0055(3) 0.0620(3) 0.0359(14) Uani 1 1 d . . .
C17 C 0.2451(3) 0.0117(4) 0.0336(3) 0.0450(17) Uani 1 1 d . . .
H17A H 0.2248 -0.0218 0.0048 0.054 Uiso 1 1 calc R . .
C18 C 0.2296(2) 0.0782(4) 0.0469(3) 0.0445(16) Uani 1 1 d . . .
H18A H 0.1994 0.0890 0.0273 0.053 Uiso 1 1 calc R . .
C19 C 0.2567(2) 0.2615(3) 0.2467(2) 0.0324(13) Uani 1 1 d . . .
C20 C 0.2995(2) 0.2376(4) 0.2910(3) 0.0409(15) Uani 1 1 d . . .
H20A H 0.3209 0.2256 0.2829 0.049 Uiso 1 1 calc R . .
C21 C 0.3096(2) 0.2322(4) 0.3465(3) 0.0398(15) Uani 1 1 d . . .
H21A H 0.3377 0.2153 0.3751 0.048 Uiso 1 1 calc R . .
C22 C 0.2795(2) 0.2509(3) 0.3604(2) 0.0335(14) Uani 1 1 d . . .
C23 C 0.2377(2) 0.2773(4) 0.3176(3) 0.0344(14) Uani 1 1 d . . .
H23A H 0.2171 0.2920 0.3265 0.041 Uiso 1 1 calc R . .
C24 C 0.2267(2) 0.2816(3) 0.2612(2) 0.0301(13) Uani 1 1 d . . .
H24A H 0.1985 0.2983 0.2328 0.036 Uiso 1 1 calc R . .
C25 C 0.0786(3) 0.5430(5) -0.0723(4) 0.059(2) Uani 1 1 d . . .
C26 C 0.3034(3) -0.0816(4) 0.0482(3) 0.0430(17) Uani 1 1 d . . .
C27 C 0.2917(2) 0.2437(4) 0.4219(3) 0.0332(14) Uani 1 1 d . . .
C28 C 0.3193(2) 0.4723(4) 0.3438(3) 0.0342(14) Uani 1 1 d . . .
C29 C 0.2749(2) 0.4661(3) 0.3235(3) 0.0353(14) Uani 1 1 d . . .
H29A H 0.2665 0.4394 0.3454 0.042 Uiso 1 1 calc R . .
C30 C 0.2418(2) 0.4983(4) 0.2713(3) 0.0391(15) Uani 1 1 d . . .
C31 C 0.2552(2) 0.5406(4) 0.2404(3) 0.0407(15) Uani 1 1 d . . .
H31A H 0.2339 0.5638 0.2061 0.049 Uiso 1 1 calc R . .
C32 C 0.2999(2) 0.5487(4) 0.2599(3) 0.0387(15) Uani 1 1 d . . .
C33 C 0.3309(2) 0.5125(4) 0.3100(3) 0.0378(15) Uani 1 1 d . . .
H33A H 0.3606 0.5147 0.3218 0.045 Uiso 1 1 calc R . .
C34 C 0.3529(2) 0.4320(4) 0.3982(3) 0.0371(14) Uani 1 1 d . . .
C35 C 0.3894(2) 0.3953(4) 0.4028(3) 0.0455(17) Uani 1 1 d . . .
H35A H 0.3944 0.3999 0.3735 0.055 Uiso 1 1 calc R . .
C36 C 0.4182(2) 0.3519(4) 0.4514(3) 0.0426(16) Uani 1 1 d . . .
H36A H 0.4428 0.3277 0.4549 0.051 Uiso 1 1 calc R . .
C37 C 0.41009(19) 0.3447(3) 0.4950(2) 0.0319(13) Uani 1 1 d . . .
C38 C 0.3743(2) 0.3830(4) 0.4904(3) 0.0342(14) Uani 1 1 d . . .
H38A H 0.3695 0.3800 0.5201 0.041 Uiso 1 1 calc R . .
C39 C 0.34561(19) 0.4257(3) 0.4418(2) 0.0308(13) Uani 1 1 d . . .
H39A H 0.3212 0.4504 0.4385 0.037 Uiso 1 1 calc R . .
C40 C 0.1938(2) 0.4833(4) 0.2491(3) 0.0383(15) Uani 1 1 d . . .
C41 C 0.1799(2) 0.4623(4) 0.2841(3) 0.0407(15) Uani 1 1 d . . .
H41A H 0.2001 0.4645 0.3234 0.049 Uiso 1 1 calc R . .
C42 C 0.1368(2) 0.4376(4) 0.2638(3) 0.0488(17) Uani 1 1 d . . .
H42A H 0.1283 0.4235 0.2888 0.059 Uiso 1 1 calc R . .
C43 C 0.1063(2) 0.4345(4) 0.2041(3) 0.0480(18) Uani 1 1 d . . .
C44 C 0.1193(2) 0.4555(4) 0.1683(3) 0.0491(18) Uani 1 1 d . . .
H44A H 0.0988 0.4534 0.1290 0.059 Uiso 1 1 calc R . .
C45 C 0.1618(3) 0.4799(4) 0.1883(3) 0.0508(18) Uani 1 1 d . . .
H45A H 0.1699 0.4940 0.1628 0.061 Uiso 1 1 calc R . .
C46 C 0.3132(3) 0.5895(5) 0.2240(3) 0.0501(19) Uani 1 1 d . . .
C47 C 0.3500(3) 0.6342(5) 0.2472(3) 0.055(2) Uani 1 1 d . . .
H47A H 0.3682 0.6379 0.2868 0.065 Uiso 1 1 calc R . .
C48 C 0.3616(2) 0.6748(5) 0.2141(3) 0.055(2) Uani 1 1 d . . .
H48A H 0.3866 0.7070 0.2313 0.066 Uiso 1 1 calc R . .
C49 C 0.3357(2) 0.6673(5) 0.1544(3) 0.0449(17) Uani 1 1 d . . .
C50 C 0.2990(3) 0.6201(4) 0.1307(3) 0.0465(18) Uani 1 1 d . . .
H50A H 0.2819 0.6141 0.0913 0.056 Uiso 1 1 calc R . .
C51 C 0.2867(3) 0.5813(4) 0.1632(3) 0.0443(16) Uani 1 1 d . . .
H51A H 0.2614 0.5500 0.1460 0.053 Uiso 1 1 calc R . .
C52 C 0.4383(2) 0.2893(4) 0.5438(3) 0.0389(15) Uani 1 1 d . . .
C53 C 0.0598(2) 0.4020(5) 0.1805(4) 0.057(2) Uani 1 1 d . . .
C54 C 0.3473(3) 0.7110(5) 0.1189(3) 0.0479(18) Uani 1 1 d . . .

loop_
_atom_site_aniso_label
_atom_site_aniso_U_11
_atom_site_aniso_U_22
_atom_site_aniso_U_33
_atom_site_aniso_U_23
_atom_site_aniso_U_13
_atom_site_aniso_U_12
Cd1 0.0311(3) 0.0486(3) 0.0192(2) -0.00443(17) 0.0117(2) -0.0118(2)
Cd2 0.0392(3) 0.0462(3) 0.0280(3) 0.0045(2) -0.0041(2) 0.0099(2)
Cd3 0.0356(4) 0.0371(3) 0.0277(3) 0.0088(2) 0.0208(3) 0.0128(3)
O1 0.065(4) 0.044(3) 0.064(3) 0.015(2) 0.044(3) 0.016(2)
O1W 0.100(5) 0.076(4) 0.033(3) 0.018(3) 0.023(3) 0.021(4)
O2 0.074(4) 0.059(3) 0.055(4) 0.019(3) -0.005(3) 0.015(3)
O2W 0.060(4) 0.091(5) 0.077(5) -0.016(4) -0.022(4) -0.019(4)
O3 0.059(4) 0.063(3) 0.046(3) 0.000(2) 0.038(3) 0.011(3)
O4 0.068(3) 0.033(2) 0.041(3) 0.006(2) 0.033(3) 0.007(2)
O5 0.033(3) 0.059(3) 0.018(2) 0.0015(19) 0.010(2) -0.013(2)
O6 0.045(3) 0.047(2) 0.028(2) -0.0070(19) 0.022(2) -0.013(2)
O7 0.040(3) 0.066(3) 0.057(3) 0.031(3) 0.021(3) 0.028(3)
O8 0.028(2) 0.031(2) 0.029(2) 0.0062(17) 0.0067(19) -0.0035(17)
O9 0.040(4) 0.122(6) 0.069(4) 0.017(4) 0.004(3) -0.033(4)
O10 0.052(4) 0.083(4) 0.062(4) -0.006(3) 0.006(3) -0.021(3)
O11 0.050(3) 0.094(4) 0.038(3) 0.026(3) 0.024(3) 0.009(3)
O12 0.045(3) 0.062(3) 0.032(2) 0.021(2) 0.026(2) 0.031(2)
C1 0.062(5) 0.034(3) 0.024(3) 0.004(2) 0.018(3) 0.014(3)
C2 0.075(5) 0.041(3) 0.025(3) 0.005(3) 0.028(4) 0.024(3)
C3 0.067(5) 0.043(4) 0.026(3) 0.003(3) 0.024(4) 0.017(3)
C4 0.066(5) 0.042(4) 0.024(3) 0.009(3) 0.019(3) 0.020(3)
C5 0.056(4) 0.041(3) 0.021(3) 0.000(2) 0.018(3) 0.006(3)
C6 0.052(4) 0.040(3) 0.029(3) -0.002(3) 0.019(3) 0.022(3)
C7 0.060(5) 0.044(3) 0.026(3) 0.011(3) 0.026(3) 0.023(3)
C8 0.062(5) 0.034(3) 0.029(3) 0.002(3) 0.012(3) 0.008(3)
C9 0.060(5) 0.043(4) 0.031(4) -0.003(3) 0.012(4) 0.006(3)
C10 0.057(5) 0.047(4) 0.032(4) 0.004(3) 0.019(4) 0.007(3)
C11 0.065(5) 0.030(3) 0.032(3) 0.006(3) 0.024(4) 0.002(3)
C12 0.042(4) 0.060(4) 0.023(3) -0.005(3) 0.010(3) 0.001(3)
C13 0.041(4) 0.037(3) 0.027(3) 0.009(2) 0.016(3) 0.015(3)
C14 0.053(4) 0.041(4) 0.029(3) -0.005(3) 0.019(3) 0.005(3)
C15 0.049(4) 0.043(4) 0.047(4) 0.003(3) 0.025(4) 0.011(3)
C16 0.051(4) 0.032(3) 0.038(3) 0.010(3) 0.033(3) 0.012(3)
C17 0.060(5) 0.040(3) 0.042(4) -0.010(3) 0.032(4) -0.005(3)
C18 0.044(4) 0.053(4) 0.037(4) -0.010(3) 0.023(3) -0.002(3)
C19 0.033(3) 0.034(3) 0.025(3) -0.003(2) 0.013(3) -0.001(3)
C20 0.041(4) 0.062(4) 0.023(3) -0.004(3) 0.019(3) 0.003(3)
C21 0.036(4) 0.059(4) 0.029(3) 0.006(3) 0.021(3) 0.006(3)
C22 0.037(4) 0.041(3) 0.015(3) -0.008(2) 0.009(3) -0.021(3)
C23 0.032(3) 0.038(3) 0.031(3) -0.009(3) 0.016(3) -0.009(3)
C24 0.030(3) 0.027(3) 0.026(3) -0.004(2) 0.011(3) -0.009(2)
C25 0.048(5) 0.049(4) 0.052(5) 0.015(4) 0.009(4) 0.000(4)
C26 0.074(6) 0.032(3) 0.036(4) 0.004(3) 0.038(4) 0.003(3)
C27 0.040(4) 0.042(3) 0.022(3) -0.011(2) 0.020(3) -0.018(3)
C28 0.035(4) 0.039(3) 0.030(3) 0.006(2) 0.019(3) 0.008(3)
C29 0.039(4) 0.031(3) 0.038(3) 0.008(2) 0.021(3) 0.006(3)
C30 0.043(4) 0.033(3) 0.036(3) 0.000(3) 0.018(3) 0.006(3)
C31 0.046(4) 0.040(3) 0.027(3) 0.013(3) 0.014(3) 0.010(3)
C32 0.033(4) 0.054(4) 0.032(3) 0.016(3) 0.020(3) 0.005(3)
C33 0.028(3) 0.057(4) 0.029(3) 0.014(3) 0.016(3) 0.006(3)
C34 0.028(3) 0.044(3) 0.029(3) 0.004(3) 0.008(3) -0.003(3)
C35 0.036(4) 0.064(4) 0.041(4) 0.024(3) 0.023(3) 0.015(3)
C36 0.032(4) 0.058(4) 0.035(4) 0.022(3) 0.016(3) 0.014(3)
C37 0.022(3) 0.034(3) 0.029(3) 0.008(2) 0.006(3) 0.003(2)
C38 0.028(3) 0.043(3) 0.031(3) 0.008(3) 0.015(3) 0.000(3)
C39 0.022(3) 0.039(3) 0.024(3) 0.009(2) 0.008(3) 0.002(2)
C40 0.027(3) 0.044(4) 0.036(3) 0.002(3) 0.011(3) 0.005(3)
C41 0.029(3) 0.057(4) 0.027(3) -0.007(3) 0.009(3) -0.003(3)
C42 0.034(4) 0.056(4) 0.043(4) -0.006(3) 0.012(3) -0.002(3)
C43 0.029(4) 0.041(4) 0.050(4) 0.004(3) 0.005(3) -0.015(3)
C44 0.029(4) 0.058(4) 0.039(4) 0.005(3) 0.005(3) -0.006(3)
C45 0.051(5) 0.043(4) 0.038(4) -0.002(3) 0.011(4) 0.006(3)
C46 0.044(4) 0.067(5) 0.039(4) 0.030(3) 0.022(4) 0.010(4)
C47 0.048(5) 0.079(5) 0.044(4) 0.030(4) 0.030(4) 0.019(4)
C48 0.026(4) 0.098(6) 0.038(4) 0.032(4) 0.016(3) 0.017(4)
C49 0.042(4) 0.066(4) 0.034(4) 0.021(3) 0.025(3) 0.016(4)
C50 0.052(5) 0.060(4) 0.034(4) 0.018(3) 0.028(4) 0.024(4)
C51 0.050(4) 0.049(4) 0.040(4) 0.007(3) 0.028(4) 0.006(3)
C52 0.037(4) 0.035(3) 0.036(4) 0.019(3) 0.014(3) 0.002(3)
C53 0.020(4) 0.052(4) 0.063(5) 0.005(4) -0.001(4) -0.012(3)
C54 0.047(5) 0.063(5) 0.033(4) 0.018(3) 0.021(4) 0.021(4)

_geom_special_details            
;
All esds (except the esd in the dihedral angle between two l.s. planes)
are estimated using the full covariance matrix. The cell esds are taken
into account individually in the estimation of esds in distances, angles
and torsion angles; correlations between esds in cell parameters are only
used when they are defined by crystal symmetry. An approximate (isotropic)
treatment of cell esds is used for estimating esds involving l.s. planes.
;

loop_
_geom_bond_atom_site_label_1
_geom_bond_atom_site_label_2
_geom_bond_distance
_geom_bond_site_symmetry_2
_geom_bond_publ_flag
Cd1 O5 2.184(4) . ?
Cd1 O3 2.192(5) 6_556 ?
Cd1 O8 2.286(4) . ?
Cd1 O12 2.337(5) 6_566 ?
Cd1 O1 2.374(5) 4_545 ?
Cd1 O11 2.446(5) 6_566 ?
Cd1 C54 2.761(7) 6_566 ?
Cd1 Cd3 3.5988(11) 4_545 ?
Cd1 Cd2 3.6292(15) . ?
Cd2 O10 2.266(7) 8_556 ?
Cd2 O1W 2.325(7) . ?
Cd2 O2W 2.328(7) . ?
Cd2 O1 2.334(5) 4_545 ?
Cd2 O8 2.418(4) . ?
Cd2 O7 2.446(5) . ?
Cd2 O9 2.541(6) 8_556 ?
Cd2 C53 2.706(7) 8_556 ?
Cd2 C52 2.780(6) . ?
Cd2 O2 2.822(6) 4_545 ?
Cd