
#######################################################################
#
#                 Cambridge Crystallographic Data Centre
#                                CCDC
#
#######################################################################
#
# If this CIF has been generated from an entry in the Cambridge
# Structural Database, then it will include bibliographic, chemical,
# crystal, experimental, refinement or atomic coordinate data resulting
# from the CCDC's data processing and validation procedures.
#
#######################################################################

data_CSD_CIF_DASKOY
_audit_creation_date 2005-10-20
_audit_creation_method CSD-ConQuest-V1
_database_code_CSD DASKOY
_database_code_depnum_ccdc_archive 'CCDC 265517'
_chemical_formula_sum 'C12 H60 F14 N8 O9 Zr2'
_chemical_formula_moiety
;
2(C6 H21 N4 3+),2(F7 Zr1 3-),9(H2 O1)
;
_journal_coden_Cambridge 198
_journal_volume 126
_journal_year 2005
_journal_page_first 1072
_journal_name_full 'J.Fluorine Chem. '
loop_
_publ_author_name
"M.A.Saada"
"A.Hemon-Ribaud"
"M.Leblanc"
"V.Maisonneuve"
_chemical_name_systematic
;
bis(tris(2-Ammonioethyl)amine) bis(heptafluoro-zirconium(iv)) nonahydrate
;
_chemical_name_common
;
Teaching Subset: Fundamental Chemistry
;
_cell_volume   2600.663
_exptl_crystal_density_diffrn 1.741
_diffrn_ambient_temperature 293
#These two values have been output from a single CSD field.
_refine_ls_R_factor_gt 0.0763
_refine_ls_wR_factor_gt 0.0763
_symmetry_cell_setting rhombohedral
_symmetry_space_group_name_H-M 'R 3 2'
_symmetry_Int_Tables_number 155
loop_
_symmetry_equiv_pos_site_id
_symmetry_equiv_pos_as_xyz
1 x,y,z
2 -y,x-y,z
3 y,x,-z
4 -x+y,-x,z
5 -x,-x+y,-z
6 x-y,-y,-z
7 2/3+x,1/3+y,1/3+z
8 2/3-y,1/3+x-y,1/3+z
9 2/3+y,1/3+x,1/3-z
10 2/3-x+y,1/3-x,1/3+z
11 2/3-x,1/3-x+y,1/3-z
12 2/3+x-y,1/3-y,1/3-z
13 1/3+x,2/3+y,2/3+z
14 1/3-y,2/3+x-y,2/3+z
15 1/3+y,2/3+x,2/3-z
16 1/3-x+y,2/3-x,2/3+z
17 1/3-x,2/3-x+y,2/3-z
18 1/3+x-y,2/3-y,2/3-z
_cell_length_a 8.871(2)
_cell_length_b 8.871(2)
_cell_length_c 38.16(1)
_cell_angle_alpha 90
_cell_angle_beta 90
_cell_angle_gamma 120
_cell_formula_units_Z 3
loop_
_atom_type_symbol
_atom_type_radius_bond
C 0.68
H 0.23
F 0.64
N 0.68
O 0.68
Zr 1.56
loop_
_atom_site_label
_atom_site_type_symbol
_atom_site_fract_x
_atom_site_fract_y
_atom_site_fract_z
Zr1 Zr 0.33330 0.66670 0.03960(3)
F1 F 0.141(2) 0.578(3) 0.0747(5)
F2 F 0.215(2) 0.4103(8) 0.02799(15)
F3 F 0.33330 0.66670 -0.0152(2)
N1 N 0.00000 0.00000 0.0882(2)
N2 N 0.3085(8) 0.152(3) 0.04225(16)
H1 H 0.32060 0.06200 0.03590
H2 H 0.39160 0.24850 0.03230
H3 H 0.20470 0.13350 0.03540
C1 C 0.1736(12) 0.0391(13) 0.1006(2)
H4 H 0.17760 -0.06810 0.10100
H5 H 0.18860 0.08130 0.12460
C2 C 0.3222(10) 0.170(3) 0.0792(2)
H6 H 0.34010 0.28440 0.08500
H7 H 0.42600 0.16790 0.08640
O1 O 0.00000 0.00000 0.00000
O2 O 1.00000 0.00000 0.1935(3)
O3 O 0.0315(10) 0.5143(14) 0.14557(18)
F1A F 0.422(2) 0.563(3) 0.0747(5)
F1C F 0.437(2) 0.859(3) 0.0747(5)
F2A F 0.5897(20) 0.8047(8) 0.02799(15)
F2C F 0.1953(20) 0.7850(8) 0.02799(15)
N2A N -0.1520(8) 0.1565(30) 0.04225(16)
N2C N -0.1565(8) -0.3085(30) 0.04225(16)
H1A H -0.06200 0.25860 0.03590
H1C H -0.25860 -0.32060 0.03590
H2A H -0.24850 0.14310 0.03230
H2C H -0.14310 -0.39160 0.03230
H3A H -0.13350 0.07120 0.03540
H3C H -0.07120 -0.20470 0.03540
C1A C -0.0391(12) 0.1345(13) 0.1006(2)
C1C C -0.1345(12) -0.1736(13) 0.1006(2)
H4A H 0.06810 0.24570 0.10100
H4C H -0.24570 -0.17760 0.10100
H5A H -0.08130 0.10730 0.12460
H5C H -0.10730 -0.18860 0.12460
C2A C -0.170(1) 0.1522(30) 0.0792(2)
C2C C -0.1522(10) -0.3222(30) 0.0792(2)
H6A H -0.28440 0.05570 0.08500
H6C H -0.05570 -0.34010 0.08500
H7A H -0.16790 0.25810 0.08640
H7C H -0.25810 -0.42600 0.08640
#END
