####################################################################### 
# 
# This file contains crystal structure data downloaded from the 
# Cambridge Structural Database (CSD) hosted by the Cambridge 
# Crystallographic Data Centre (CCDC).
# 
# Full information about CCDC data access policies and citation 
# guidelines are available at http://www.ccdc.cam.ac.uk/access/V1 
# 
# Audit and citation data items may have been added by the CCDC. 
# Please retain this information to preserve the provenance of 
# this file and to allow appropriate attribution of the data. 
# 
#######################################################################

data_5
_audit_block_doi                 10.5517/ccxjz7m
_database_code_depnum_ccdc_archive 'CCDC 850461'
loop_
_citation_id
_citation_doi
_citation_year
1 10.1021/cg201417y 2012
_audit_update_record             
;
2011-10-25 deposited with the CCDC.	2024-07-09 downloaded from the CCDC.
;
#TrackingRef 'all.CIF'


_audit_creation_method           SHELXL-97
_chemical_name_systematic        
;
?
;
_chemical_name_common            ?
_chemical_melting_point          ?
_chemical_formula_moiety         ?
_chemical_formula_sum            'C28 H46 Ag B F4 N8 O6'
_chemical_formula_weight         785.41

loop_
_atom_type_symbol
_atom_type_description
_atom_type_scat_dispersion_real
_atom_type_scat_dispersion_imag
_atom_type_scat_source
C C 0.0033 0.0016 'International Tables Vol C Tables 4.2.6.8 and 6.1.1.4'
H H 0.0000 0.0000 'International Tables Vol C Tables 4.2.6.8 and 6.1.1.4'
B B 0.0013 0.0007 'International Tables Vol C Tables 4.2.6.8 and 6.1.1.4'
N N 0.0061 0.0033 'International Tables Vol C Tables 4.2.6.8 and 6.1.1.4'
O O 0.0106 0.0060 'International Tables Vol C Tables 4.2.6.8 and 6.1.1.4'
F F 0.0171 0.0103 'International Tables Vol C Tables 4.2.6.8 and 6.1.1.4'
Ag Ag -0.8971 1.1015 'International Tables Vol C Tables 4.2.6.8 and 6.1.1.4'

_symmetry_cell_setting           monoclinic
_symmetry_space_group_name_H-M   'P 21/c '

loop_
_symmetry_equiv_pos_as_xyz
'x, y, z'
'-x, y+1/2, -z+1/2'
'-x, -y, -z'
'x, -y-1/2, z-1/2'

_cell_length_a                   8.8012(2)
_cell_length_b                   29.8243(9)
_cell_length_c                   13.6026(4)
_cell_angle_alpha                90.00
_cell_angle_beta                 99.818(3)
_cell_angle_gamma                90.00
_cell_volume                     3518.25(17)
_cell_formula_units_Z            4
_cell_measurement_temperature    293(2)
_cell_measurement_reflns_used    10284
_cell_measurement_theta_min      2.9028
_cell_measurement_theta_max      29.1558

_exptl_crystal_description       block
_exptl_crystal_colour            colorless
_exptl_crystal_size_max          0.36
_exptl_crystal_size_mid          0.22
_exptl_crystal_size_min          0.20
_exptl_crystal_density_meas      ?
_exptl_crystal_density_diffrn    1.483
_exptl_crystal_density_method    'not measured'
_exptl_crystal_F_000             1624
_exptl_absorpt_coefficient_mu    0.645
_exptl_absorpt_correction_type   multi-scan
_exptl_absorpt_correction_T_min  0.94627
_exptl_absorpt_correction_T_max  1.00000
_exptl_absorpt_process_details   'SADABS, Sheldrick (1996)'

_exptl_special_details           
;
?
;

_diffrn_ambient_temperature      293(2)
_diffrn_radiation_wavelength     0.71073
_diffrn_radiation_type           MoK\a
_diffrn_radiation_source         'fine-focus sealed tube'
_diffrn_radiation_monochromator  graphite
_diffrn_measurement_device_type  'Bruker SMART 1000 CCD'
_diffrn_measurement_method       '\f and \w scans'
_diffrn_detector_area_resol_mean 16.0690
_diffrn_reflns_number            18277
_diffrn_reflns_av_R_equivalents  0.0304
_diffrn_reflns_av_sigmaI/netI    0.0513
_diffrn_reflns_limit_h_min       -11
_diffrn_reflns_limit_h_max       11
_diffrn_reflns_limit_k_min       -33
_diffrn_reflns_limit_k_max       39
_diffrn_reflns_limit_l_min       -10
_diffrn_reflns_limit_l_max       18
_diffrn_reflns_theta_min         2.91
_diffrn_reflns_theta_max         29.22
_reflns_number_total             8234
_reflns_number_gt                6526
_reflns_threshold_expression     >2sigma(I)

_computing_data_collection       'Bruker SMART'
_computing_cell_refinement       'Bruker SAINT'
_computing_data_reduction        'Bruker SAINT'
_computing_structure_solution    'SHELXS97 (Sheldrick, 2008)'
_computing_structure_refinement  'SHELXL97 (Sheldrick, 2008)'
_computing_molecular_graphics    SHELXTL
_computing_publication_material  SHELXTL



_refine_special_details          
;
Refinement of F^2^ against ALL reflections. The weighted R-factor wR and
goodness of fit S are based on F^2^, conventional R-factors R are based
on F, with F set to zero for negative F^2^. The threshold expression of
F^2^ > 2sigma(F^2^) is used only for calculating R-factors(gt) etc. and is
not relevant to the choice of reflections for refinement. R-factors based
on F^2^ are statistically about twice as large as those based on F, and R-
factors based on ALL data will be even larger.
;

_refine_ls_structure_factor_coef Fsqd
_refine_ls_matrix_type           full
_refine_ls_weighting_scheme      calc
_refine_ls_weighting_details     
'calc w=1/[\s^2^(Fo^2^)+(0.0000P)^2^+17.1758P] where P=(Fo^2^+2Fc^2^)/3'
_atom_sites_solution_primary     direct
_atom_sites_solution_secondary   difmap
_atom_sites_solution_hydrogens   geom
_refine_ls_hydrogen_treatment    constr
_refine_ls_extinction_method     none
_refine_ls_extinction_coef       ?
_refine_ls_number_reflns         8234
_refine_ls_number_parameters     433
_refine_ls_number_restraints     0
_refine_ls_R_factor_all          0.0829
_refine_ls_R_factor_gt           0.0635
_refine_ls_wR_factor_ref         0.1288
_refine_ls_wR_factor_gt          0.1253
_refine_ls_goodness_of_fit_ref   1.298
_refine_ls_restrained_S_all      1.298
_refine_ls_shift/su_max          0.001
_refine_ls_shift/su_mean         0.000

loop_
_atom_site_label
_atom_site_type_symbol
_atom_site_fract_x
_atom_site_fract_y
_atom_site_fract_z
_atom_site_U_iso_or_equiv
_atom_site_adp_type
_atom_site_occupancy
_atom_site_symmetry_multiplicity
_atom_site_calc_flag
_atom_site_refinement_flags
_atom_site_disorder_assembly
_atom_site_disorder_group
Ag Ag 0.34527(4) 0.736760(11) 0.08130(2) 0.01809(8) Uani 1 1 d . . .
O1 O 0.0818(4) 0.74394(10) 0.3969(2) 0.0273(8) Uani 1 1 d . . .
O2 O -0.3600(4) 0.74405(10) 0.7881(2) 0.0271(8) Uani 1 1 d . . .
N1 N 0.2671(4) 0.79188(12) 0.1591(2) 0.0153(7) Uani 1 1 d . . .
N2 N 0.0392(4) 0.81736(11) 0.3575(2) 0.0143(7) Uani 1 1 d . . .
H2A H -0.0074 0.8410 0.3730 0.017 Uiso 1 1 calc R . .
N3 N -0.3691(4) 0.66786(12) 0.7872(2) 0.0156(7) Uani 1 1 d . . .
H3A H -0.3331 0.6447 0.7613 0.019 Uiso 1 1 calc R . .
N4 N -0.5864(4) 0.68295(11) 0.9948(2) 0.0148(7) Uani 1 1 d . . .
C1 C 0.2781(5) 0.83282(15) 0.1218(3) 0.0216(10) Uani 1 1 d . . .
H1A H 0.3315 0.8367 0.0691 0.026 Uiso 1 1 calc R . .
C2 C 0.2125(5) 0.86969(15) 0.1593(3) 0.0242(10) Uani 1 1 d . . .
H2B H 0.2218 0.8980 0.1322 0.029 Uiso 1 1 calc R . .
C3 C 0.1327(5) 0.86411(15) 0.2378(3) 0.0208(10) Uani 1 1 d . . .
H3B H 0.0864 0.8886 0.2632 0.025 Uiso 1 1 calc R . .
C4 C 0.1223(4) 0.82173(14) 0.2783(3) 0.0126(8) Uani 1 1 d . . .
C5 C 0.1920(5) 0.78613(14) 0.2368(3) 0.0160(9) Uani 1 1 d . . .
H5A H 0.1867 0.7576 0.2634 0.019 Uiso 1 1 calc R . .
C6 C 0.0243(5) 0.78006(14) 0.4124(3) 0.0151(8) Uani 1 1 d . . .
C7 C -0.0637(5) 0.78697(14) 0.4977(3) 0.0157(8) Uani 1 1 d . . .
H7A H -0.1487 0.8074 0.4765 0.019 Uiso 1 1 calc R . .
H7B H 0.0041 0.8007 0.5532 0.019 Uiso 1 1 calc R . .
C8 C -0.1268(5) 0.74335(14) 0.5325(3) 0.0151(8) Uani 1 1 d . . .
H8A H -0.0439 0.7216 0.5458 0.018 Uiso 1 1 calc R . .
H8B H -0.2041 0.7315 0.4795 0.018 Uiso 1 1 calc R . .
C9 C -0.1984(5) 0.74932(14) 0.6262(3) 0.0149(9) Uani 1 1 d . . .
H9A H -0.1213 0.7609 0.6797 0.018 Uiso 1 1 calc R . .
H9B H -0.2816 0.7710 0.6133 0.018 Uiso 1 1 calc R . .
C10 C -0.2606(5) 0.70510(14) 0.6583(3) 0.0146(8) Uani 1 1 d . . .
H10A H -0.3367 0.6937 0.6040 0.018 Uiso 1 1 calc R . .
H10B H -0.1768 0.6836 0.6703 0.018 Uiso 1 1 calc R . .
C11 C -0.3336(5) 0.70840(14) 0.7509(3) 0.0152(8) Uani 1 1 d . . .
C12 C -0.4575(4) 0.65939(14) 0.8619(3) 0.0134(8) Uani 1 1 d . . .
C13 C -0.5079(5) 0.61590(14) 0.8732(3) 0.0201(9) Uani 1 1 d . . .
H13A H -0.4812 0.5930 0.8329 0.024 Uiso 1 1 calc R . .
C14 C -0.5981(5) 0.60676(15) 0.9446(3) 0.0213(10) Uani 1 1 d . . .
H14A H -0.6322 0.5777 0.9529 0.026 Uiso 1 1 calc R . .
C15 C -0.6370(5) 0.64113(14) 1.0034(3) 0.0180(9) Uani 1 1 d . . .
H15A H -0.7001 0.6351 1.0501 0.022 Uiso 1 1 calc R . .
C16 C -0.4992(4) 0.69234(14) 0.9251(3) 0.0134(8) Uani 1 1 d . . .
H16A H -0.4657 0.7216 0.9190 0.016 Uiso 1 1 calc R . .
B B -0.2985(6) 0.49688(18) 0.2677(4) 0.0234(11) Uani 1 1 d . . .
F1 F -0.3342(4) 0.47526(12) 0.3515(2) 0.0453(8) Uani 1 1 d . . .
F2 F -0.2135(4) 0.53470(10) 0.2983(3) 0.0515(9) Uani 1 1 d . . .
F3 F -0.4320(4) 0.50817(12) 0.2046(2) 0.0477(9) Uani 1 1 d . . .
F4 F -0.2113(4) 0.46845(10) 0.2199(2) 0.0441(8) Uani 1 1 d . . .
O3 O 0.1929(4) 0.66708(12) 0.1906(2) 0.0272(8) Uani 1 1 d . . .
O4 O 0.4745(3) 0.80208(10) -0.0451(2) 0.0213(7) Uani 1 1 d . . .
O5 O 0.9223(4) 0.59811(11) -0.0713(2) 0.0272(8) Uani 1 1 d . . .
O6 O 0.7350(4) 0.59451(11) -0.3142(2) 0.0323(8) Uani 1 1 d . . .
N5 N -0.0033(5) 0.64229(13) 0.2660(3) 0.0245(9) Uani 1 1 d . . .
N6 N 0.5184(4) 0.86217(13) -0.1386(3) 0.0217(8) Uani 1 1 d . . .
N7 N 0.8371(4) 0.52570(12) -0.0808(3) 0.0220(8) Uani 1 1 d . . .
N8 N 0.7763(5) 0.52797(13) -0.3848(3) 0.0278(9) Uani 1 1 d . . .
C17 C 0.1302(5) 0.66283(15) 0.2642(3) 0.0218(10) Uani 1 1 d . . .
H17A H 0.1806 0.6751 0.3238 0.026 Uiso 1 1 calc R . .
C18 C -0.0742(7) 0.64297(19) 0.3554(4) 0.0401(14) Uani 1 1 d . . .
H18A H -0.0048 0.6567 0.4091 0.060 Uiso 1 1 calc R . .
H18B H -0.0960 0.6128 0.3735 0.060 Uiso 1 1 calc R . .
H18C H -0.1684 0.6598 0.3424 0.060 Uiso 1 1 calc R . .
C19 C -0.0923(6) 0.62277(17) 0.1768(3) 0.0304(11) Uani 1 1 d . . .
H19A H -0.0338 0.6241 0.1234 0.046 Uiso 1 1 calc R . .
H19B H -0.1867 0.6392 0.1584 0.046 Uiso 1 1 calc R . .
H19C H -0.1153 0.5921 0.1895 0.046 Uiso 1 1 calc R . .
C20 C 0.4825(5) 0.81956(14) -0.1261(3) 0.0192(9) Uani 1 1 d . . .
H20A H 0.4619 0.8016 -0.1827 0.023 Uiso 1 1 calc R . .
C21 C 0.5508(7) 0.89147(17) -0.0530(4) 0.0392(14) Uani 1 1 d . . .
H21A H 0.5499 0.8744 0.0068 0.059 Uiso 1 1 calc R . .
H21B H 0.4736 0.9145 -0.0582 0.059 Uiso 1 1 calc R . .
H21C H 0.6504 0.9050 -0.0507 0.059 Uiso 1 1 calc R . .
C22 C 0.5129(6) 0.88100(18) -0.2378(4) 0.0339(12) Uani 1 1 d . . .
H22A H 0.4895 0.8577 -0.2868 0.051 Uiso 1 1 calc R . .
H22B H 0.6112 0.8940 -0.2428 0.051 Uiso 1 1 calc R . .
H22C H 0.4347 0.9037 -0.2494 0.051 Uiso 1 1 calc R . .
C23 C 0.9178(5) 0.56021(16) -0.1071(3) 0.0227(10) Uani 1 1 d . . .
H23A H 0.9759 0.5551 -0.1571 0.027 Uiso 1 1 calc R . .
C24 C 0.7397(6) 0.53020(17) -0.0053(4) 0.0295(11) Uani 1 1 d . . .
H24A H 0.7467 0.5603 0.0202 0.044 Uiso 1 1 calc R . .
H24B H 0.7732 0.5095 0.0481 0.044 Uiso 1 1 calc R . .
H24C H 0.6347 0.5238 -0.0344 0.044 Uiso 1 1 calc R . .
C25 C 0.8419(6) 0.48194(16) -0.1271(4) 0.0298(12) Uani 1 1 d . . .
H25A H 0.9105 0.4830 -0.1749 0.045 Uiso 1 1 calc R . .
H25B H 0.7404 0.4739 -0.1602 0.045 Uiso 1 1 calc R . .
H25C H 0.8781 0.4600 -0.0768 0.045 Uiso 1 1 calc R . .
C26 C 0.7017(6) 0.55512(17) -0.3318(3) 0.0260(11) Uani 1 1 d . . .
H26A H 0.6185 0.5434 -0.3064 0.031 Uiso 1 1 calc R . .
C27 C 0.7323(11) 0.4815(2) -0.4002(5) 0.070(2) Uani 1 1 d . . .
H27A H 0.6466 0.4752 -0.3671 0.105 Uiso 1 1 calc R . .
H27B H 0.8177 0.4627 -0.3733 0.105 Uiso 1 1 calc R . .
H27C H 0.7032 0.4758 -0.4703 0.105 Uiso 1 1 calc R . .
C28 C 0.9036(6) 0.54402(19) -0.4299(4) 0.0367(13) Uani 1 1 d . . .
H28A H 0.9202 0.5753 -0.4150 0.055 Uiso 1 1 calc R . .
H28B H 0.8799 0.5400 -0.5009 0.055 Uiso 1 1 calc R . .
H28C H 0.9951 0.5274 -0.4037 0.055 Uiso 1 1 calc R . .

loop_
_atom_site_aniso_label
_atom_site_aniso_U_11
_atom_site_aniso_U_22
_atom_site_aniso_U_33
_atom_site_aniso_U_23
_atom_site_aniso_U_13
_atom_site_aniso_U_12
Ag 0.01618(14) 0.02390(15) 0.01570(14) -0.00572(14) 0.00701(11) 0.00059(14)
O1 0.0387(18) 0.0191(16) 0.0309(17) 0.0054(13) 0.0250(15) 0.0080(14)
O2 0.0409(19) 0.0187(16) 0.0277(17) -0.0033(13) 0.0230(15) -0.0022(14)
N1 0.0139(16) 0.0232(18) 0.0092(16) -0.0017(14) 0.0027(14) -0.0012(14)
N2 0.0149(16) 0.0159(16) 0.0137(16) -0.0010(13) 0.0069(14) 0.0024(13)
N3 0.0171(17) 0.0184(17) 0.0127(16) -0.0010(13) 0.0062(14) 0.0027(14)
N4 0.0138(16) 0.0199(17) 0.0106(16) -0.0010(13) 0.0022(14) -0.0001(14)
C1 0.024(2) 0.024(2) 0.019(2) 0.0012(17) 0.0134(18) -0.0004(18)
C2 0.031(2) 0.020(2) 0.024(2) 0.0080(18) 0.012(2) 0.0011(19)
C3 0.024(2) 0.019(2) 0.022(2) 0.0001(17) 0.0112(19) 0.0044(18)
C4 0.0085(18) 0.021(2) 0.0067(18) -0.0001(15) -0.0028(15) -0.0011(15)
C5 0.0158(19) 0.019(2) 0.0147(19) -0.0009(16) 0.0068(17) -0.0023(16)
C6 0.0123(18) 0.021(2) 0.0117(19) -0.0010(16) 0.0013(16) -0.0015(16)
C7 0.0149(19) 0.020(2) 0.0128(19) -0.0016(16) 0.0041(16) 0.0020(16)
C8 0.0136(18) 0.022(2) 0.0105(18) 0.0022(16) 0.0035(15) 0.0014(16)
C9 0.0126(19) 0.023(2) 0.0094(18) 0.0009(15) 0.0008(16) 0.0008(15)
C10 0.0142(18) 0.019(2) 0.0109(19) -0.0008(15) 0.0030(16) 0.0001(16)
C11 0.0111(18) 0.020(2) 0.015(2) 0.0012(16) 0.0044(16) 0.0013(16)
C12 0.0083(18) 0.021(2) 0.0090(18) 0.0019(15) -0.0023(15) 0.0026(16)
C13 0.025(2) 0.019(2) 0.018(2) -0.0028(17) 0.0095(18) 0.0023(18)
C14 0.027(2) 0.019(2) 0.019(2) -0.0016(17) 0.0076(19) -0.0050(18)
C15 0.018(2) 0.024(2) 0.014(2) 0.0015(16) 0.0066(17) -0.0015(17)
C16 0.0102(18) 0.021(2) 0.0082(18) -0.0011(15) -0.0010(15) -0.0012(16)
B 0.026(3) 0.021(2) 0.024(3) 0.000(2) 0.005(2) 0.002(2)
F1 0.0491(19) 0.058(2) 0.0331(17) 0.0119(15) 0.0200(15) 0.0048(17)
F2 0.057(2) 0.0261(16) 0.064(2) -0.0030(16) -0.0095(19) -0.0082(16)
F3 0.0367(18) 0.059(2) 0.0426(19) 0.0030(17) -0.0058(16) 0.0082(16)
F4 0.061(2) 0.0387(18) 0.0386(17) 0.0007(14) 0.0243(16) 0.0200(16)
O3 0.0207(16) 0.040(2) 0.0220(17) 0.0026(15) 0.0072(14) 0.0053(15)
O4 0.0207(16) 0.0244(16) 0.0189(15) 0.0035(13) 0.0036(13) 0.0019(13)
O5 0.0364(19) 0.0259(17) 0.0191(16) 0.0016(13) 0.0045(15) -0.0095(15)
O6 0.048(2) 0.0265(18) 0.0255(18) -0.0012(14) 0.0166(16) 0.0113(16)
N5 0.031(2) 0.0235(19) 0.0208(19) -0.0047(16) 0.0097(17) -0.0033(17)
N6 0.023(2) 0.0236(19) 0.0170(19) 0.0008(15) 0.0002(16) -0.0034(16)
N7 0.027(2) 0.0201(18) 0.0187(19) 0.0029(15) 0.0035(16) -0.0028(16)
N8 0.042(2) 0.023(2) 0.0176(19) -0.0039(16) 0.0033(18) -0.0002(18)
C17 0.020(2) 0.023(2) 0.022(2) -0.0018(18) 0.0028(19) 0.0057(18)
C18 0.048(3) 0.048(3) 0.030(3) -0.013(2) 0.022(2) -0.022(3)
C19 0.038(3) 0.031(3) 0.022(2) -0.004(2) 0.005(2) -0.011(2)
C20 0.017(2) 0.021(2) 0.019(2) 0.0008(17) 0.0027(18) 0.0043(17)
C21 0.062(4) 0.023(3) 0.029(3) -0.001(2) -0.005(3) -0.008(3)
C22 0.036(3) 0.037(3) 0.028(3) 0.014(2) 0.002(2) -0.007(2)
C23 0.023(2) 0.029(2) 0.015(2) 0.0041(18) 0.0005(18) -0.0014(19)
C24 0.031(3) 0.033(3) 0.027(3) 0.007(2) 0.012(2) -0.005(2)
C25 0.037(3) 0.023(2) 0.025(3) 0.0001(19) -0.005(2) -0.001(2)
C26 0.026(2) 0.040(3) 0.011(2) 0.0020(19) 0.0009(19) 0.003(2)
C27 0.146(8) 0.030(3) 0.033(3) -0.013(3) 0.017(4) -0.023(4)
C28 0.032(3) 0.048(3) 0.032(3) -0.015(2) 0.010(2) 0.007(2)

_geom_special_details            
;
All esds (except the esd in the dihedral angle between two l.s. planes)
are estimated using the full covariance matrix. The cell esds are taken
into account individually in the estimation of esds in distances, angles
and torsion angles; correlations between esds in cell parameters are only
used when they are defined by crystal symmetry. An approximate (isotropic)
treatment of cell esds is used for estimating esds involving l.s. planes.
;

loop_
_geom_bond_atom_site_label_1
_geom_bond_atom_site_label_2
_geom_bond_distance
_geom_bond_site_symmetry_2
_geom_bond_publ_flag
Ag N1 2.131(3) . ?
Ag N4 2.136(3) 1_654 ?
O1 C6 1.223(5) . ?
O2 C11 1.217(5) . ?
N1 C1 1.332(5) . ?
N1 C5 1.349(5) . ?
N2 C6 1.358(5) . ?
N2 C4 1.408(5) . ?
N2 H2A 0.8600 . ?
N3 C11 1.363(5) . ?
N3 C12 1.403(5) . ?
N3 H3A 0.8600 . ?
N4 C15 1.336(5) . ?
N4 C16 1.347(5) . ?
N4 Ag 2.136(3) 1_456 ?
C1 C2 1.379(6) . ?
C1 H1A 0.9300 . ?
C2 C3 1.385(6) . ?
C2 H2B 0.9300 . ?
C3 C4 1.388(6) . ?
C3 H3B 0.9300 . ?
C4 C5 1.393(6) . ?
C5 H5A 0.9300 . ?
C6 C7 1.515(5) . ?
C7 C8 1.521(6) . ?
C7 H7A 0.9700 . ?
C7 H7B 0.9700 . ?
C8 C9 1.526(5) . ?
C8 H8A 0.9700 . ?
C8 H8B 0.9700 . ?
C9 C10 1.520(6) . ?
C9 H9A 0.9700 . ?
C9 H9B 0.9700 . ?
C10 C11 1.512(5) . ?
C10 H10A 0.9700 . ?
C10 H10B 0.9700 . ?
C12 C13 1.388(6) . ?
C12 C16 1.396(5) . ?
C13 C14 1.382(6) . ?
C13 H13A 0.9300 . ?
C14 C15 1.379(6) . ?
C14 H14A 0.9300 . ?
C15 H15A 0.9300 . ?
C16 H16A 0.9300 . ?
B F3 1.374(6) . ?
B F2 1.378(6) . ?
B F4 1.379(6) . ?
B F1 1.391(6) . ?
O3 C17 1.229(5) . ?
O4 C20 1.232(5) . ?
O5 C23 1.229(5) . ?
O6 C26 1.225(6) . ?
N5 C17 1.329(6) . ?
N5 C19 1.450(6) . ?
N5 C18 1.458(6) . ?
N6 C20 1.327(6) . ?
N6 C21 1.445(6) . ?
N6 C22 1.455(6) . ?
N7 C23 1.334(6) . ?
N7 C24 1.452(6) . ?
N7 C25 1.453(6) . ?
N8 C26 1.330(6) . ?
N8 C27 1.444(7) . ?
N8 C28 1.447(6) . ?
C17 H17A 0.9300 . ?
C18 H18A 0.9600 . ?
C18 H18B 0.9600 . ?
C18 H18C 0.9600 . ?
C19 H19A 0.9600 . ?
C19 H19B 0.9600 . ?
C19 H19C 0.9600 . ?
C20 H20A 0.9300 . ?
C21 H21A 0.9600 . ?
C21 H21B 0.9600 . ?
C21 H21C 0.9600 . ?
C22 H22A 0.9600 . ?
C22 H22B 0.9600 . ?
C22 H22C 0.9600 . ?
C23 H23A 0.9300 . ?
C24 H24A 0.9600 . ?
C24 H24B 0.9600 . ?
C24 H24C 0.9600 . ?
C25 H25A 0.9600 . ?
C25 H25B 0.9600 . ?
C25 H25C 0.9600 . ?
C26 H26A 0.9300 . ?
C27 H27A 0.9600 . ?
C27 H27B 0.9600 . ?
C27 H27