####################################################################### 
# 
# This file contains crystal structure data downloaded from the 
# Cambridge Structural Database (CSD) hosted by the Cambridge 
# Crystallographic Data Centre (CCDC).
# 
# Full information about CCDC data access policies and citation 
# guidelines are available at http://www.ccdc.cam.ac.uk/access/V1 
# 
# Audit and citation data items may have been added by the CCDC. 
# Please retain this information to preserve the provenance of 
# this file and to allow appropriate attribution of the data. 
# 
#######################################################################

data_4
_audit_block_doi                 10.5517/ccxjz6l
_database_code_depnum_ccdc_archive 'CCDC 850460'
loop_
_citation_id
_citation_doi
_citation_year
1 10.1021/cg201417y 2012
_audit_update_record             
;
2011-10-25 deposited with the CCDC.	2024-07-09 downloaded from the CCDC.
;
#TrackingRef 'all.CIF'


_audit_creation_method           SHELXL-97
_chemical_name_systematic        
;
?
;
_chemical_name_common            ?
_chemical_melting_point          ?
_chemical_formula_moiety         ?
_chemical_formula_sum            'C28 H46 Ag F6 N8 O6 P'
_chemical_formula_weight         843.57

loop_
_atom_type_symbol
_atom_type_description
_atom_type_scat_dispersion_real
_atom_type_scat_dispersion_imag
_atom_type_scat_source
C C 0.0033 0.0016 'International Tables Vol C Tables 4.2.6.8 and 6.1.1.4'
H H 0.0000 0.0000 'International Tables Vol C Tables 4.2.6.8 and 6.1.1.4'
N N 0.0061 0.0033 'International Tables Vol C Tables 4.2.6.8 and 6.1.1.4'
O O 0.0106 0.0060 'International Tables Vol C Tables 4.2.6.8 and 6.1.1.4'
F F 0.0171 0.0103 'International Tables Vol C Tables 4.2.6.8 and 6.1.1.4'
P P 0.1023 0.0942 'International Tables Vol C Tables 4.2.6.8 and 6.1.1.4'
Ag Ag -0.8971 1.1015 'International Tables Vol C Tables 4.2.6.8 and 6.1.1.4'

_symmetry_cell_setting           monoclinic
_symmetry_space_group_name_H-M   'P 21/c '

loop_
_symmetry_equiv_pos_as_xyz
'x, y, z'
'-x, y+1/2, -z+1/2'
'-x, -y, -z'
'x, -y-1/2, z-1/2'

_cell_length_a                   8.4346(4)
_cell_length_b                   31.3587(13)
_cell_length_c                   14.0692(6)
_cell_angle_alpha                90.00
_cell_angle_beta                 98.772(4)
_cell_angle_gamma                90.00
_cell_volume                     3677.7(3)
_cell_formula_units_Z            4
_cell_measurement_temperature    295(2)
_cell_measurement_reflns_used    7913
_cell_measurement_theta_min      2.9419
_cell_measurement_theta_max      29.0072

_exptl_crystal_description       block
_exptl_crystal_colour            colorless
_exptl_crystal_size_max          0.5
_exptl_crystal_size_mid          0.2
_exptl_crystal_size_min          0.2
_exptl_crystal_density_meas      ?
_exptl_crystal_density_diffrn    1.524
_exptl_crystal_density_method    'not measured'
_exptl_crystal_F_000             1736
_exptl_absorpt_coefficient_mu    0.672
_exptl_absorpt_correction_type   multi-scan
_exptl_absorpt_correction_T_min  0.94242
_exptl_absorpt_correction_T_max  1.00000
_exptl_absorpt_process_details   'SADABS, Sheldrick (1996)'

_exptl_special_details           
;
?
;

_diffrn_ambient_temperature      295(2)
_diffrn_radiation_wavelength     0.71073
_diffrn_radiation_type           MoK\a
_diffrn_radiation_source         'fine-focus sealed tube'
_diffrn_radiation_monochromator  graphite
_diffrn_measurement_device_type  'Bruker SMART 1000 CCD'
_diffrn_measurement_method       '\f and \w scans'
_diffrn_detector_area_resol_mean 16.0690
_diffrn_reflns_number            17028
_diffrn_reflns_av_R_equivalents  0.0281
_diffrn_reflns_av_sigmaI/netI    0.0529
_diffrn_reflns_limit_h_min       -11
_diffrn_reflns_limit_h_max       10
_diffrn_reflns_limit_k_min       -43
_diffrn_reflns_limit_k_max       35
_diffrn_reflns_limit_l_min       -16
_diffrn_reflns_limit_l_max       18
_diffrn_reflns_theta_min         2.95
_diffrn_reflns_theta_max         29.12
_reflns_number_total             8420
_reflns_number_gt                6392
_reflns_threshold_expression     >2sigma(I)

_computing_data_collection       'Bruker SMART'
_computing_cell_refinement       'Bruker SAINT'
_computing_data_reduction        'Bruker SAINT'
_computing_structure_solution    'SHELXS97 (Sheldrick, 2008)'
_computing_structure_refinement  'SHELXL97 (Sheldrick, 2008)'
_computing_molecular_graphics    SHELXTL
_computing_publication_material  SHELXTL


_refine_special_details          
;
Refinement of F^2^ against ALL reflections. The weighted R-factor wR and
goodness of fit S are based on F^2^, conventional R-factors R are based
on F, with F set to zero for negative F^2^. The threshold expression of
F^2^ > 2sigma(F^2^) is used only for calculating R-factors(gt) etc. and is
not relevant to the choice of reflections for refinement. R-factors based
on F^2^ are statistically about twice as large as those based on F, and R-
factors based on ALL data will be even larger.
;

_refine_ls_structure_factor_coef Fsqd
_refine_ls_matrix_type           full
_refine_ls_weighting_scheme      calc
_refine_ls_weighting_details     
'calc w=1/[\s^2^(Fo^2^)+(0.0391P)^2^+15.7651P] where P=(Fo^2^+2Fc^2^)/3'
_atom_sites_solution_primary     direct
_atom_sites_solution_secondary   difmap
_atom_sites_solution_hydrogens   geom
_refine_ls_hydrogen_treatment    constr
_refine_ls_extinction_method     none
_refine_ls_extinction_coef       ?
_refine_ls_number_reflns         8420
_refine_ls_number_parameters     451
_refine_ls_number_restraints     0
_refine_ls_R_factor_all          0.0783
_refine_ls_R_factor_gt           0.0588
_refine_ls_wR_factor_ref         0.1342
_refine_ls_wR_factor_gt          0.1292
_refine_ls_goodness_of_fit_ref   1.080
_refine_ls_restrained_S_all      1.080
_refine_ls_shift/su_max          0.064
_refine_ls_shift/su_mean         0.001

loop_
_atom_site_label
_atom_site_type_symbol
_atom_site_fract_x
_atom_site_fract_y
_atom_site_fract_z
_atom_site_U_iso_or_equiv
_atom_site_adp_type
_atom_site_occupancy
_atom_site_symmetry_multiplicity
_atom_site_calc_flag
_atom_site_refinement_flags
_atom_site_disorder_assembly
_atom_site_disorder_group
Ag Ag 0.15525(4) 0.742678(11) 0.49868(2) 0.02041(10) Uani 1 1 d . . .
O1 O -0.1598(4) 0.74206(10) 0.7797(2) 0.0243(7) Uani 1 1 d . . .
O2 O -0.5871(4) 0.74088(10) 1.1780(2) 0.0279(7) Uani 1 1 d . . .
O3 O 0.3376(5) 0.66758(14) 0.3897(3) 0.0509(11) Uani 1 1 d . . .
O4 O 0.0441(4) 0.80283(10) 0.6103(2) 0.0263(7) Uani 1 1 d . . .
O5 O -0.1085(5) 0.90045(12) 1.4142(3) 0.0466(10) Uani 1 1 d . . .
N1 N 0.0838(4) 0.68898(11) 0.5761(2) 0.0176(7) Uani 1 1 d . . .
N2 N -0.1237(4) 0.67043(11) 0.7850(2) 0.0171(7) Uani 1 1 d . . .
H2A H -0.1471 0.6479 0.8147 0.021 Uiso 1 1 calc R . .
N3 N -0.5365(4) 0.81074(11) 1.2125(2) 0.0175(7) Uani 1 1 d . . .
H3A H -0.4847 0.8325 1.1961 0.021 Uiso 1 1 calc R . .
N4 N -0.7679(4) 0.79223(11) 1.4120(2) 0.0167(7) Uani 1 1 d . . .
N5 N 0.3462(5) 0.62283(13) 0.2638(3) 0.0291(9) Uani 1 1 d . . .
N6 N -0.0723(5) 0.84052(12) 0.7183(3) 0.0261(9) Uani 1 1 d . . .
N7 N -0.2449(5) 0.96167(12) 1.4293(3) 0.0264(8) Uani 1 1 d . . .
C1 C -0.0017(5) 0.69657(13) 0.6479(3) 0.0163(8) Uani 1 1 d . . .
H1A H -0.0342 0.7243 0.6584 0.020 Uiso 1 1 calc R . .
C2 C -0.0423(5) 0.66387(13) 0.7066(3) 0.0154(8) Uani 1 1 d . . .
C3 C 0.0055(5) 0.62245(14) 0.6885(3) 0.0220(9) Uani 1 1 d . . .
H3B H -0.0214 0.5998 0.7257 0.026 Uiso 1 1 calc R . .
C4 C 0.0929(6) 0.61554(14) 0.6151(3) 0.0260(10) Uani 1 1 d . . .
H4B H 0.1257 0.5881 0.6023 0.031 Uiso 1 1 calc R . .
C5 C 0.1319(5) 0.64943(14) 0.5603(3) 0.0215(9) Uani 1 1 d . . .
H5A H 0.1928 0.6446 0.5115 0.026 Uiso 1 1 calc R . .
C6 C -0.1704(5) 0.70823(13) 0.8200(3) 0.0157(8) Uani 1 1 d . . .
C7 C -0.2357(5) 0.70370(14) 0.9141(3) 0.0179(8) Uani 1 1 d . . .
H7A H -0.1513 0.6929 0.9627 0.022 Uiso 1 1 calc R . .
H7B H -0.3217 0.6829 0.9058 0.022 Uiso 1 1 calc R . .
C8 C -0.2990(5) 0.74516(14) 0.9501(3) 0.0189(8) Uani 1 1 d . . .
H8A H -0.2118 0.7655 0.9625 0.023 Uiso 1 1 calc R . .
H8B H -0.3795 0.7569 0.9004 0.023 Uiso 1 1 calc R . .
C9 C -0.3726(5) 0.73892(14) 1.0417(3) 0.0194(9) Uani 1 1 d . . .
H9A H -0.4600 0.7186 1.0295 0.023 Uiso 1 1 calc R . .
H9B H -0.2923 0.7273 1.0916 0.023 Uiso 1 1 calc R . .
C10 C -0.4352(5) 0.78056(13) 1.0763(3) 0.0190(9) Uani 1 1 d . . .
H10A H -0.5062 0.7937 1.0237 0.023 Uiso 1 1 calc R . .
H10B H -0.3457 0.7998 1.0949 0.023 Uiso 1 1 calc R . .
C11 C -0.5249(5) 0.77456(14) 1.1606(3) 0.0187(8) Uani 1 1 d . . .
C12 C -0.6225(5) 0.81708(13) 1.2894(3) 0.0156(8) Uani 1 1 d . . .
C13 C -0.6409(5) 0.85868(14) 1.3190(3) 0.0209(9) Uani 1 1 d . . .
H13A H -0.5974 0.8812 1.2884 0.025 Uiso 1 1 calc R . .
C14 C -0.7244(5) 0.86640(14) 1.3941(3) 0.0224(9) Uani 1 1 d . . .
H14A H -0.7383 0.8942 1.4146 0.027 Uiso 1 1 calc R . .
C15 C -0.7872(5) 0.83250(14) 1.4386(3) 0.0201(9) Uani 1 1 d . . .
H15A H -0.8447 0.8379 1.4887 0.024 Uiso 1 1 calc R . .
C16 C -0.6886(4) 0.78442(13) 1.3378(3) 0.0162(8) Uani 1 1 d . . .
H16A H -0.6776 0.7564 1.3183 0.019 Uiso 1 1 calc R . .
C17 C 0.3753(8) 0.61813(19) 0.1657(4) 0.0440(14) Uani 1 1 d . . .
H17A H 0.4145 0.6446 0.1439 0.066 Uiso 1 1 calc R . .
H17B H 0.2771 0.6106 0.1253 0.066 Uiso 1 1 calc R . .
H17C H 0.4535 0.5961 0.1627 0.066 Uiso 1 1 calc R . .
C18 C 0.2779(10) 0.5868(2) 0.3053(5) 0.062(2) Uani 1 1 d . . .
H18A H 0.2634 0.5935 0.3700 0.094 Uiso 1 1 calc R . .
H18B H 0.3486 0.5628 0.3058 0.094 Uiso 1 1 calc R . .
H18C H 0.1761 0.5800 0.2680 0.094 Uiso 1 1 calc R . .
C19 C 0.3700(6) 0.65962(16) 0.3101(4) 0.0299(11) Uani 1 1 d . . .
H19A H 0.4159 0.6815 0.2789 0.036 Uiso 1 1 calc R . .
C20 C -0.1053(9) 0.84410(18) 0.8163(4) 0.0500(17) Uani 1 1 d . . .
H20A H -0.0438 0.8232 0.8559 0.075 Uiso 1 1 calc R . .
H20B H -0.2175 0.8394 0.8173 0.075 Uiso 1 1 calc R . .
H20C H -0.0765 0.8721 0.8406 0.075 Uiso 1 1 calc R . .
C21 C -0.1654(7) 0.86707(17) 0.6459(4) 0.0427(14) Uani 1 1 d . . .
H21A H -0.1374 0.8605 0.5839 0.064 Uiso 1 1 calc R . .
H21B H -0.1427 0.8966 0.6605 0.064 Uiso 1 1 calc R . .
H21C H -0.2776 0.8617 0.6453 0.064 Uiso 1 1 calc R . .
C22 C 0.0222(5) 0.81020(14) 0.6929(3) 0.0207(9) Uani 1 1 d . . .
H22A H 0.0761 0.7932 0.7415 0.025 Uiso 1 1 calc R . .
C23 C -0.2467(7) 1.00764(17) 1.4254(5) 0.0430(14) Uani 1 1 d . . .
H23A H -0.1510 1.0176 1.4035 0.064 Uiso 1 1 calc R . .
H23B H -0.2515 1.0189 1.4884 0.064 Uiso 1 1 calc R . .
H23C H -0.3389 1.0170 1.3818 0.064 Uiso 1 1 calc R . .
C24 C -0.3836(7) 0.9409(2) 1.4575(5) 0.0512(16) Uani 1 1 d . . .
H24A H -0.3690 0.9105 1.4568 0.077 Uiso 1 1 calc R . .
H24B H -0.4776 0.9485 1.4133 0.077 Uiso 1 1 calc R . .
H24C H -0.3962 0.9499 1.5212 0.077 Uiso 1 1 calc R . .
C25 C -0.1208(7) 0.93930(16) 1.4109(4) 0.0346(12) Uani 1 1 d . . .
H25A H -0.0346 0.9545 1.3938 0.042 Uiso 1 1 calc R . .
P P 0.20001(19) 0.49540(4) 0.75122(10) 0.0348(3) Uani 1 1 d . . .
F1 F 0.2449(5) 0.53554(12) 0.8173(3) 0.0677(11) Uani 1 1 d . . .
F2 F 0.1151(5) 0.47409(12) 0.8326(3) 0.0744(13) Uani 1 1 d . . .
F3 F 0.0308(6) 0.51952(15) 0.7191(4) 0.0966(17) Uani 1 1 d . . .
F4 F 0.1451(8) 0.45597(13) 0.6857(3) 0.111(2) Uani 1 1 d . . .
F5 F 0.3558(6) 0.47200(17) 0.7878(5) 0.115(2) Uani 1 1 d . . .
F6 F 0.2662(8) 0.51729(13) 0.6678(3) 0.112(2) Uani 1 1 d . . .
O6 O -0.4167(6) 0.89039(14) 1.1659(4) 0.0707(16) Uani 1 1 d . . .
N8 N -0.3310(6) 0.93840(16) 1.0681(4) 0.0439(12) Uani 1 1 d . . .
C28 C -0.3686(10) 0.9269(3) 1.1455(6) 0.078(3) Uani 1 1 d . . .
H28A H -0.3608 0.9473 1.1940 0.094 Uiso 1 1 calc R . .
C26 C -0.2643(12) 0.9775(3) 1.0424(7) 0.102(3) Uani 1 1 d . . .
H26A H -0.2637 0.9976 1.0939 0.154 Uiso 1 1 calc R . .
H26B H -0.3277 0.9885 0.9852 0.154 Uiso 1 1 calc R . .
H26C H -0.1564 0.9728 1.0308 0.154 Uiso 1 1 calc R . .
C27 C -0.3353(12) 0.9059(3) 0.9889(6) 0.102(3) Uani 1 1 d . . .
H27A H -0.3819 0.8799 1.0078 0.154 Uiso 1 1 calc R . .
H27B H -0.2281 0.9005 0.9770 0.154 Uiso 1 1 calc R . .
H27C H -0.3986 0.9167 0.9314 0.154 Uiso 1 1 calc R . .

loop_
_atom_site_aniso_label
_atom_site_aniso_U_11
_atom_site_aniso_U_22
_atom_site_aniso_U_33
_atom_site_aniso_U_23
_atom_site_aniso_U_13
_atom_site_aniso_U_12
Ag 0.01868(15) 0.02264(16) 0.02152(16) 0.00681(15) 0.00820(11) 0.00181(14)
O1 0.0364(17) 0.0162(14) 0.0229(16) 0.0033(13) 0.0131(13) 0.0046(14)
O2 0.0355(18) 0.0262(17) 0.0258(17) -0.0095(15) 0.0165(14) -0.0113(15)
O3 0.067(3) 0.057(3) 0.033(2) -0.019(2) 0.020(2) -0.022(2)
O4 0.0301(17) 0.0278(18) 0.0232(17) -0.0020(14) 0.0105(13) 0.0023(14)
O5 0.081(3) 0.026(2) 0.037(2) -0.0044(17) 0.024(2) 0.014(2)
N1 0.0193(17) 0.0180(18) 0.0164(17) 0.0003(14) 0.0061(14) 0.0018(14)
N2 0.0208(17) 0.0164(17) 0.0163(17) 0.0002(14) 0.0094(14) -0.0019(14)
N3 0.0166(16) 0.0212(18) 0.0166(17) -0.0002(14) 0.0084(13) -0.0018(14)
N4 0.0137(16) 0.0209(18) 0.0159(17) 0.0006(14) 0.0035(13) -0.0014(14)
N5 0.039(2) 0.025(2) 0.024(2) -0.0016(17) 0.0055(18) -0.0033(17)
N6 0.044(2) 0.020(2) 0.0160(19) -0.0026(15) 0.0088(16) 0.0012(17)
N7 0.032(2) 0.0202(19) 0.028(2) -0.0007(17) 0.0063(17) 0.0007(16)
C1 0.0160(19) 0.017(2) 0.016(2) 0.0000(16) 0.0022(15) 0.0020(16)
C2 0.0157(19) 0.017(2) 0.0135(19) -0.0015(16) 0.0016(15) -0.0012(16)
C3 0.031(2) 0.015(2) 0.022(2) 0.0018(17) 0.0086(18) -0.0010(18)
C4 0.038(3) 0.016(2) 0.026(2) -0.0017(18) 0.011(2) 0.0055(19)
C5 0.026(2) 0.022(2) 0.017(2) -0.0022(18) 0.0086(17) 0.0032(18)
C6 0.0128(18) 0.020(2) 0.0140(19) -0.0011(16) 0.0015(15) 0.0005(16)
C7 0.020(2) 0.023(2) 0.0108(19) -0.0002(16) 0.0038(15) -0.0016(17)
C8 0.020(2) 0.024(2) 0.0128(19) -0.0031(17) 0.0033(15) -0.0016(17)
C9 0.022(2) 0.019(2) 0.018(2) -0.0020(17) 0.0045(16) -0.0026(17)
C10 0.018(2) 0.017(2) 0.022(2) 0.0009(17) 0.0051(16) 0.0004(16)
C11 0.0167(19) 0.023(2) 0.016(2) -0.0003(17) 0.0027(15) -0.0001(17)
C12 0.0111(18) 0.020(2) 0.016(2) 0.0003(16) 0.0030(15) 0.0005(15)
C13 0.023(2) 0.019(2) 0.022(2) 0.0010(18) 0.0071(17) -0.0041(17)
C14 0.025(2) 0.018(2) 0.026(2) -0.0056(18) 0.0099(18) -0.0023(18)
C15 0.019(2) 0.026(2) 0.017(2) -0.0028(18) 0.0092(16) 0.0001(17)
C16 0.0126(18) 0.017(2) 0.019(2) -0.0013(17) 0.0015(15) 0.0017(15)
C17 0.068(4) 0.040(3) 0.028(3) -0.005(2) 0.021(3) 0.005(3)
C18 0.098(6) 0.040(4) 0.055(4) -0.006(3) 0.030(4) -0.027(4)
C19 0.031(3) 0.032(3) 0.030(3) -0.002(2) 0.012(2) -0.004(2)
C20 0.097(5) 0.032(3) 0.027(3) -0.008(2) 0.026(3) 0.003(3)
C21 0.061(4) 0.029(3) 0.037(3) -0.005(2) 0.002(3) 0.020(3)
C22 0.022(2) 0.019(2) 0.019(2) 0.0031(18) -0.0012(17) -0.0045(17)
C23 0.051(3) 0.026(3) 0.055(4) 0.006(3) 0.018(3) 0.008(2)
C24 0.030(3) 0.046(4) 0.076(5) 0.014(3) 0.006(3) -0.005(3)
C25 0.050(3) 0.029(3) 0.030(3) 0.000(2) 0.022(2) 0.005(2)
P 0.0570(9) 0.0174(6) 0.0307(7) -0.0010(5) 0.0094(6) 0.0020(6)
F1 0.086(3) 0.051(2) 0.068(3) -0.028(2) 0.016(2) -0.019(2)
F2 0.095(3) 0.042(2) 0.100(3) 0.003(2) 0.061(3) 0.002(2)
F3 0.088(3) 0.065(3) 0.122(4) 0.013(3) -0.032(3) 0.012(3)
F4 0.231(7) 0.043(2) 0.068(3) -0.029(2) 0.056(4) -0.051(3)
F5 0.059(3) 0.082(4) 0.202(6) 0.042(4) 0.016(3) 0.035(3)
F6 0.239(7) 0.036(2) 0.083(3) 0.004(2) 0.100(4) -0.006(3)
O6 0.074(3) 0.040(3) 0.113(4) 0.033(3) 0.061(3) 0.007(2)
N8 0.047(3) 0.039(3) 0.045(3) 0.014(2) 0.006(2) -0.012(2)
C28 0.076(5) 0.082(6) 0.085(6) 0.038(5) 0.039(5) 0.020(4)
C26 0.117(8) 0.083(6) 0.112(8) 0.054(6) 0.032(6) -0.017(6)
C27 0.107(7) 0.126(9) 0.070(6) -0.035(6) -0.002(5) 0.004(7)

_geom_special_details            
;
All esds (except the esd in the dihedral angle between two l.s. planes)
are estimated using the full covariance matrix. The cell esds are taken
into account individually in the estimation of esds in distances, angles
and torsion angles; correlations between esds in cell parameters are only
used when they are defined by crystal symmetry. An approximate (isotropic)
treatment of cell esds is used for estimating esds involving l.s. planes.
;

loop_
_geom_bond_atom_site_label_1
_geom_bond_atom_site_label_2
_geom_bond_distance
_geom_bond_site_symmetry_2
_geom_bond_publ_flag
Ag N1 2.142(3) . ?
Ag N4 2.136(3) 1_654 ?
O1 C6 1.213(5) . ?
O2 C11 1.220(5) . ?
O3 C19 1.218(6) . ?
O4 C22 1.226(5) . ?
O5 C25 1.223(6) . ?
N1 C5 1.334(5) . ?
N1 C1 1.348(5) . ?
N2 C6 1.365(5) . ?
N2 C2 1.400(5) . ?
N2 H2A 0.8600 . ?
N3 C11 1.360(5) . ?
N3 C12 1.406(5) . ?
N3 H3A 0.8600 . ?
N4 C15 1.334(5) . ?
N4 C16 1.345(5) . ?
N4 Ag 2.136(3) 1_456 ?
N5 C19 1.325(6) . ?
N5 C18 1.433(7) . ?
N5 C17 1.445(6) . ?
N6 C22 1.324(6) . ?
N6 C20 1.453(6) . ?
N6 C21 1.451(6) . ?
N7 C25 1.318(6) . ?
N7 C23 1.443(6) . ?
N7 C24 1.446(7) . ?
C1 C2 1.392(6) . ?
C1 H1A 0.9300 . ?
C2 C3 1.395(6) . ?
C3 C4 1.375(6) . ?
C3 H3B 0.9300 . ?
C4 C5 1.381(6) . ?
C4 H4B 0.9300 . ?
C5 H5A 0.9300 . ?
C6 C7 1.516(5) . ?
C7 C8 1.521(6) . ?
C7 H7A 0.9700 . ?
C7 H7B 0.9700 . ?
C8 C9 1.526(5) . ?
C8 H8A 0.9700 . ?
C8 H8B 0.9700 . ?
C9 C10 1.516(6) . ?
C9 H9A 0.9700 . ?
C9 H9B 0.9700 . ?
C10 C11 1.514(6) . ?
C10 H10A 0.9700 . ?
C10 H10B 0.9700 . ?
C12 C13 1.385(6) . ?
C12 C16 1.393(6) . ?
C13 C14 1.378(6) . ?
C13 H13A 0.9300 . ?
C14 C15 1.380(6) . ?
C14 H14A 0.9300 . ?
C15 H15A 0.9300 . ?
C16 H16A 0.9300 . ?
C17 H17A 0.9600 . ?
C17 H17B 0.9600 . ?
C17 H17C 0.9600 . ?
C18 H18A 0.9600 . ?
C18 H18B 0.9600 . ?
C18 H18C 0.9600 . ?
C19 H19A 0.9300 . ?
C20 H20A 0.9600 . ?
C20 H20B 0.9600 . ?
C20 H20C 0.9600 . ?
C21 H21A 0.9600 . ?
C21 H21B 0.9600 . ?
C21 H21C 0.9600 . ?
C22 H22A 0.9300 . ?
C23 H23A 0.9600 . ?
C23 H23B 0.9600 . ?
C23 H23C 0.9600 . ?
C24 H24A 0.9600 . ?
C24 H24B 0.9600 . ?
C24 H24C 0.9600 . ?
C25 H25A 0.9300 . ?
P F5 1.52