####################################################################### 
# 
# This file contains crystal structure data downloaded from the 
# Cambridge Structural Database (CSD) hosted by the Cambridge 
# Crystallographic Data Centre (CCDC).
# 
# Full information about CCDC data access policies and citation 
# guidelines are available at http://www.ccdc.cam.ac.uk/access/V1 
# 
# Audit and citation data items may have been added by the CCDC. 
# Please retain this information to preserve the provenance of 
# this file and to allow appropriate attribution of the data. 
# 
#######################################################################

data_1
_audit_block_doi                 10.5517/ccygnz0
_database_code_depnum_ccdc_archive 'CCDC 878043'
loop_
_citation_id
_citation_doi
_citation_year
1 10.1021/cg201552g 2012
_audit_update_record             
;
2012-04-24 deposited with the CCDC.	2024-07-09 downloaded from the CCDC.
;

_audit_creation_method           SHELXL-97
_chemical_name_systematic        
;
?
;
_chemical_name_common            ?
_chemical_melting_point          ?
_chemical_formula_moiety         'C44 H30 O15 Zn4'
_chemical_formula_sum            'C44 H30 O15 Zn4'
_chemical_formula_weight         1060.24

loop_
_atom_type_symbol
_atom_type_description
_atom_type_scat_dispersion_real
_atom_type_scat_dispersion_imag
_atom_type_scat_source
C C 0.0033 0.0016 'International Tables Vol C Tables 4.2.6.8 and 6.1.1.4'
H H 0.0000 0.0000 'International Tables Vol C Tables 4.2.6.8 and 6.1.1.4'
O O 0.0106 0.0060 'International Tables Vol C Tables 4.2.6.8 and 6.1.1.4'
Zn Zn 0.2839 1.4301 'International Tables Vol C Tables 4.2.6.8 and 6.1.1.4'

_symmetry_cell_setting           orthorhombic
_symmetry_space_group_name_H-M   'P b c n '
_symmetry_space_group_name_Hall  '-P 2n 2ab '

loop_
_symmetry_equiv_pos_as_xyz
'x, y, z'
'-x+1/2, -y+1/2, z+1/2'
'-x, y, -z+1/2'
'x+1/2, -y+1/2, -z'
'-x, -y, -z'
'x-1/2, y-1/2, -z-1/2'
'x, -y, z-1/2'
'-x-1/2, y-1/2, z'

_cell_length_a                   33.291(7)
_cell_length_b                   24.518(5)
_cell_length_c                   16.748(4)
_cell_angle_alpha                90.00
_cell_angle_beta                 90.00
_cell_angle_gamma                90.00
_cell_volume                     13670(5)
_cell_formula_units_Z            8
_cell_measurement_temperature    293(2)
_cell_measurement_reflns_used    4973
_cell_measurement_theta_min      1.59
_cell_measurement_theta_max      22.840

_exptl_crystal_description       block
_exptl_crystal_colour            colorless
_exptl_crystal_size_max          0.30
_exptl_crystal_size_mid          0.26
_exptl_crystal_size_min          0.21
_exptl_crystal_density_meas      ?
_exptl_crystal_density_diffrn    1.030
_exptl_crystal_density_method    'not measured'
_exptl_crystal_F_000             4272
_exptl_absorpt_coefficient_mu    1.431
_exptl_absorpt_correction_type   multi-scan
_exptl_absorpt_correction_T_min  0.657
_exptl_absorpt_correction_T_max  0.740
_exptl_absorpt_process_details   'SADABS; Bruker, 2000'

_exptl_special_details           
;
?
;

_diffrn_ambient_temperature      293(2)
_diffrn_radiation_wavelength     0.71073
_diffrn_radiation_type           MoK\a
_diffrn_radiation_source         'fine-focus sealed tube'
_diffrn_radiation_monochromator  graphite
_diffrn_measurement_device_type  'phi and omega scans'
_diffrn_measurement_method       ?
_diffrn_detector_area_resol_mean ?
_diffrn_standards_number         ?
_diffrn_standards_interval_count ?
_diffrn_standards_interval_time  ?
_diffrn_standards_decay_%        ?
_diffrn_reflns_number            76410
_diffrn_reflns_av_R_equivalents  0.0784
_diffrn_reflns_av_sigmaI/netI    0.0704
_diffrn_reflns_limit_h_min       -29
_diffrn_reflns_limit_h_max       42
_diffrn_reflns_limit_k_min       -29
_diffrn_reflns_limit_k_max       31
_diffrn_reflns_limit_l_min       -21
_diffrn_reflns_limit_l_max       21
_diffrn_reflns_theta_min         1.91
_diffrn_reflns_theta_max         27.00
_reflns_number_total             14856
_reflns_number_gt                8840
_reflns_threshold_expression     >2sigma(I)

_computing_data_collection       'SMART (Bruker, 2000)'
_computing_cell_refinement       'SMART (Bruker, 2000)'
_computing_data_reduction        'SMART (Bruker, 2000)'
_computing_structure_solution    'SHELXS-97 (Sheldrick, 2008)'
_computing_structure_refinement  'SHELXL-97 (Sheldrick, 2008)'
_computing_molecular_graphics    SHELXTL
_computing_publication_material  SHELXTL

_refine_special_details          
;
Refinement of F^2^ against ALL reflections. The weighted R-factor wR and
goodness of fit S are based on F^2^, conventional R-factors R are based
on F, with F set to zero for negative F^2^. The threshold expression of
F^2^ > 2sigma(F^2^) is used only for calculating R-factors(gt) etc. and is
not relevant to the choice of reflections for refinement. R-factors based
on F^2^ are statistically about twice as large as those based on F, and R-
factors based on ALL data will be even larger.
;

_refine_ls_structure_factor_coef Fsqd
_refine_ls_matrix_type           full
_refine_ls_weighting_scheme      calc
_refine_ls_weighting_details     
'calc w=1/[\s^2^(Fo^2^)+(0.0800P)^2^+1.8800P] where P=(Fo^2^+2Fc^2^)/3'
_atom_sites_solution_primary     direct
_atom_sites_solution_secondary   difmap
_atom_sites_solution_hydrogens   geom
_refine_ls_hydrogen_treatment    constr
_refine_ls_extinction_method     none
_refine_ls_extinction_coef       ?
_refine_ls_number_reflns         14856
_refine_ls_number_parameters     532
_refine_ls_number_restraints     0
_refine_ls_R_factor_all          0.1038
_refine_ls_R_factor_gt           0.0630
_refine_ls_wR_factor_ref         0.1796
_refine_ls_wR_factor_gt          0.1632
_refine_ls_goodness_of_fit_ref   1.099
_refine_ls_restrained_S_all      1.099
_refine_ls_shift/su_max          0.000
_refine_ls_shift/su_mean         0.000

loop_
_atom_site_label
_atom_site_type_symbol
_atom_site_fract_x
_atom_site_fract_y
_atom_site_fract_z
_atom_site_U_iso_or_equiv
_atom_site_adp_type
_atom_site_occupancy
_atom_site_symmetry_multiplicity
_atom_site_calc_flag
_atom_site_refinement_flags
_atom_site_disorder_assembly
_atom_site_disorder_group
C1 C 0.97766(15) 0.79348(18) 1.0405(3) 0.0507(11) Uani 1 1 d . . .
C2 C 1.01627(7) 0.81573(13) 1.06919(18) 0.0490(11) Uani 1 1 d G . .
C3 C 1.01739(7) 0.84661(14) 1.13876(18) 0.0655(14) Uani 1 1 d G . .
H3 H 0.9939 0.8530 1.1673 0.079 Uiso 1 1 calc R . .
C4 C 1.05363(8) 0.86789(14) 1.16572(16) 0.0654(15) Uani 1 1 d G . .
H4 H 1.0544 0.8886 1.2123 0.078 Uiso 1 1 calc R . .
C5 C 1.08876(6) 0.85830(13) 1.12311(19) 0.0482(10) Uani 1 1 d G . .
C6 C 1.08764(7) 0.82742(13) 1.05354(18) 0.0608(13) Uani 1 1 d G . .
H6 H 1.1111 0.8210 1.0250 0.073 Uiso 1 1 calc R . .
C7 C 1.05140(9) 0.80613(13) 1.02658(16) 0.0629(13) Uani 1 1 d G . .
H7 H 1.0506 0.7855 0.9800 0.075 Uiso 1 1 calc R . .
C8 C 1.12607(12) 0.88594(17) 1.1589(3) 0.0490(11) Uani 1 1 d . . .
H8 H 1.1253 0.8817 1.2171 0.059 Uiso 1 1 calc R . .
C9 C 1.12647(10) 0.94656(8) 1.13912(19) 0.0519(11) Uani 1 1 d G . .
C10 C 1.14659(10) 0.98163(11) 1.19064(16) 0.0650(15) Uani 1 1 d G . .
H10 H 1.1582 0.9681 1.2372 0.078 Uiso 1 1 calc R . .
C11 C 1.14939(10) 1.03684(10) 1.17263(17) 0.0655(14) Uani 1 1 d G . .
H11 H 1.1629 1.0603 1.2071 0.079 Uiso 1 1 calc R . .
C12 C 1.13208(11) 1.05698(8) 1.10311(19) 0.0588(12) Uani 1 1 d G . .
C13 C 1.11196(10) 1.02192(11) 1.05159(16) 0.0641(14) Uani 1 1 d G . .
H13 H 1.1004 1.0354 1.0051 0.077 Uiso 1 1 calc R . .
C14 C 1.10916(9) 0.96671(10) 1.06960(17) 0.0615(13) Uani 1 1 d G . .
H14A H 1.0957 0.9432 1.0351 0.074 Uiso 1 1 calc R . .
C15 C 1.16477(13) 0.85843(17) 1.1271(3) 0.0465(10) Uani 1 1 d . . .
C16 C 1.18680(15) 0.8769(2) 1.0611(3) 0.0666(15) Uani 1 1 d . . .
H16 H 1.1771 0.9061 1.0315 0.080 Uiso 1 1 calc R . .
C17 C 1.18079(15) 0.8154(2) 1.1703(4) 0.0693(16) Uani 1 1 d . . .
H17 H 1.1673 0.8021 1.2150 0.083 Uiso 1 1 calc R . .
C18 C 0.90522(15) 0.72197(18) 0.7867(2) 0.0483(11) Uani 1 1 d . . .
C19 C 0.91441(9) 0.69899(13) 0.70736(13) 0.0515(11) Uani 1 1 d G . .
C20 C 0.94925(8) 0.66844(14) 0.69772(14) 0.0672(14) Uani 1 1 d G . .
H20 H 0.9667 0.6636 0.7405 0.081 Uiso 1 1 calc R . .
C21 C 0.95799(8) 0.64506(13) 0.62413(17) 0.0575(12) Uani 1 1 d G . .
H21 H 0.9813 0.6246 0.6177 0.069 Uiso 1 1 calc R . .
C22 C 0.93191(9) 0.65224(12) 0.56019(13) 0.0501(11) Uani 1 1 d G . .
C23 C 0.89707(8) 0.68279(13) 0.56982(14) 0.0535(12) Uani 1 1 d G . .
H23 H 0.8796 0.6876 0.5270 0.064 Uiso 1 1 calc R . .
C24 C 0.88832(8) 0.70617(13) 0.64341(17) 0.0595(13) Uani 1 1 d G . .
H24 H 0.8650 0.7266 0.6499 0.071 Uiso 1 1 calc R . .
C25 C 0.94287(15) 0.62218(16) 0.4815(3) 0.0491(10) Uani 1 1 d . . .
H25 H 0.9721 0.6245 0.4753 0.059 Uiso 1 1 calc R . .
C26 C 0.92433(14) 0.64824(17) 0.4090(3) 0.0476(11) Uani 1 1 d . . .
C27 C 0.88691(17) 0.6320(2) 0.3798(3) 0.0685(15) Uani 1 1 d . . .
H27 H 0.8723 0.6059 0.4076 0.082 Uiso 1 1 calc R . .
C28 C 0.94442(17) 0.68947(18) 0.3695(3) 0.0571(12) Uani 1 1 d . . .
H28 H 0.9692 0.7015 0.3883 0.068 Uiso 1 1 calc R . .
C29 C 0.77881(14) 0.70850(19) 0.9370(3) 0.0503(11) Uani 1 1 d . . .
C30 C 0.73923(14) 0.68767(19) 0.9167(3) 0.0548(12) Uani 1 1 d . . .
C31 C 0.72085(17) 0.6460(2) 0.9599(3) 0.0711(16) Uani 1 1 d . . .
H31 H 0.7334 0.6338 1.0062 0.085 Uiso 1 1 calc R . .
C32 C 0.71744(16) 0.7084(2) 0.8531(3) 0.0651(14) Uani 1 1 d . . .
H32 H 0.7272 0.7385 0.8255 0.078 Uiso 1 1 calc R . .
C33 C 0.87689(17) 0.7172(2) 1.1925(3) 0.0559(12) Uani 1 1 d . . .
C34 C 0.89187(15) 0.69509(18) 1.2708(3) 0.0543(12) Uani 1 1 d . . .
C35 C 0.87104(18) 0.6539(2) 1.3102(3) 0.0676(14) Uani 1 1 d . . .
H35 H 0.8467 0.6412 1.2901 0.081 Uiso 1 1 calc R . .
C36 C 0.92799(17) 0.7125(2) 1.3031(3) 0.0627(13) Uani 1 1 d . . .
H36 H 0.9415 0.7411 1.2785 0.075 Uiso 1 1 calc R . .
C37 C 0.86599(16) 0.88323(19) 0.9180(3) 0.0572(12) Uani 1 1 d . . .
C38 C 0.90868(16) 0.60957(19) 1.0007(3) 0.0567(12) Uani 1 1 d . . .
C39 C 0.91578(15) 0.55042(18) 0.9949(3) 0.0516(11) Uani 1 1 d . . .
C40 C 0.89080(16) 0.51352(18) 1.0331(3) 0.0617(13) Uani 1 1 d . . .
H40 H 0.8681 0.5256 1.0603 0.074 Uiso 1 1 calc R . .
C41 C 0.90009(17) 0.45798(19) 1.0304(3) 0.0654(14) Uani 1 1 d . . .
H41 H 0.8840 0.4334 1.0582 0.079 Uiso 1 1 calc R . .
C42 C 0.93199(14) 0.43892(19) 0.9884(3) 0.0520(11) Uani 1 1 d . . .
C43 C 0.95696(16) 0.4758(2) 0.9504(3) 0.0602(13) Uani 1 1 d . . .
H43 H 0.9794 0.4635 0.9226 0.072 Uiso 1 1 calc R . .
C44 C 0.94849(16) 0.53111(19) 0.9538(3) 0.0560(12) Uani 1 1 d . . .
H44 H 0.9653 0.5556 0.9277 0.067 Uiso 1 1 calc R . .
O1 O 0.84631(10) 0.85232(12) 0.8726(2) 0.0611(9) Uani 1 1 d . . .
O2 O 0.94665(10) 0.81641(13) 1.0687(2) 0.0578(9) Uani 1 1 d . . .
O3 O 0.97793(9) 0.75481(13) 0.9931(2) 0.0550(8) Uani 1 1 d . . .
O4 O 0.87241(10) 0.62244(13) 1.0188(2) 0.0619(9) Uani 1 1 d . . .
O5 O 0.93567(9) 0.64137(12) 0.9810(2) 0.0550(8) Uani 1 1 d . . .
O6 O 0.93136(10) 0.71781(13) 0.84018(19) 0.0557(8) Uani 1 1 d . . .
O7 O 0.87161(11) 0.74388(13) 0.79811(18) 0.0578(8) Uani 1 1 d . . .
O8 O 0.79432(9) 0.74561(14) 0.8956(2) 0.0579(8) Uani 1 1 d . . .
O9 O 0.79477(9) 0.68721(13) 0.9971(2) 0.0589(9) Uani 1 1 d . . .
O10 O 0.89294(10) 0.76070(14) 1.1689(2) 0.0626(9) Uani 1 1 d . . .
O11 O 0.84971(11) 0.69169(14) 1.1582(2) 0.0626(9) Uani 1 1 d . . .
O12 O 0.87921(8) 0.74959(11) 0.98841(16) 0.0419(6) Uani 1 1 d . . .
O13 O 0.88531(11) 0.86739(14) 0.9738(2) 0.0684(10) Uani 1 1 d . . .
O1W O 0.81606(11) 0.80980(14) 1.0756(2) 0.0675(10) Uani 1 1 d . . .
H1X H 0.8055 0.7826 1.0400 0.081 Uiso 1 1 d R . .
H1Y H 0.8079 0.8017 1.1292 0.081 Uiso 1 1 d R . .
O2W O 0.88022(11) 0.87684(15) 1.1395(2) 0.0737(11) Uani 1 1 d . . .
H2X H 0.8540 0.8921 1.1314 0.088 Uiso 1 1 d R . .
H2Y H 0.9002 0.9033 1.1253 0.088 Uiso 1 1 d R . .
Zn1 Zn 0.849274(15) 0.775346(19) 0.89737(3) 0.04223(14) Uani 1 1 d . . .
Zn2 Zn 0.929623(15) 0.71959(2) 0.95618(3) 0.04439(15) Uani 1 1 d . . .
Zn3 Zn 0.847712(16) 0.69441(2) 1.04327(3) 0.05107(16) Uani 1 1 d . . .
Zn4 Zn 0.886301(17) 0.80927(2) 1.06814(3) 0.04952(16) Uani 1 1 d . . .

loop_
_atom_site_aniso_label
_atom_site_aniso_U_11
_atom_site_aniso_U_22
_atom_site_aniso_U_33
_atom_site_aniso_U_23
_atom_site_aniso_U_13
_atom_site_aniso_U_12
C1 0.058(3) 0.039(2) 0.054(3) -0.001(2) -0.011(2) -0.006(2)
C2 0.045(3) 0.052(3) 0.051(3) -0.007(2) -0.0053(19) -0.001(2)
C3 0.049(3) 0.099(4) 0.048(3) -0.022(3) 0.000(2) -0.009(3)
C4 0.036(2) 0.079(3) 0.082(4) -0.041(3) 0.003(2) -0.005(2)
C5 0.042(2) 0.045(2) 0.057(3) -0.001(2) 0.007(2) -0.0067(19)
C6 0.039(3) 0.062(3) 0.081(4) -0.020(3) 0.006(2) 0.010(2)
C7 0.062(3) 0.061(3) 0.065(3) -0.018(2) 0.010(3) -0.004(2)
C8 0.035(2) 0.045(2) 0.067(3) 0.003(2) 0.004(2) -0.0030(18)
C9 0.042(3) 0.042(2) 0.072(3) 0.001(2) -0.011(2) 0.0056(19)
C10 0.076(4) 0.054(3) 0.065(3) 0.022(2) -0.023(3) -0.033(3)
C11 0.080(4) 0.052(3) 0.065(3) 0.003(2) -0.017(3) -0.012(3)
C12 0.070(3) 0.050(3) 0.056(3) 0.002(2) -0.011(2) -0.006(2)
C13 0.066(3) 0.055(3) 0.071(3) 0.001(2) -0.023(3) 0.000(2)
C14 0.069(3) 0.049(3) 0.066(3) 0.001(2) -0.023(3) 0.000(2)
C15 0.036(2) 0.042(2) 0.062(3) 0.008(2) -0.004(2) -0.0030(18)
C16 0.051(3) 0.075(3) 0.074(4) 0.027(3) 0.011(2) 0.015(3)
C17 0.048(3) 0.069(3) 0.091(4) 0.039(3) 0.026(3) 0.015(2)
C18 0.061(3) 0.050(3) 0.034(2) -0.0047(18) 0.009(2) -0.012(2)
C19 0.056(3) 0.063(3) 0.036(2) -0.006(2) -0.0006(19) 0.000(2)
C20 0.051(3) 0.093(4) 0.057(3) -0.020(3) -0.009(2) 0.022(3)
C21 0.064(3) 0.065(3) 0.043(3) -0.011(2) -0.008(2) 0.010(2)
C22 0.049(3) 0.055(3) 0.047(3) -0.007(2) -0.0056(19) -0.006(2)
C23 0.054(3) 0.065(3) 0.042(3) -0.003(2) -0.007(2) 0.005(2)
C24 0.076(4) 0.056(3) 0.046(3) -0.006(2) -0.012(2) 0.026(3)
C25 0.061(3) 0.039(2) 0.047(3) -0.0043(19) -0.009(2) 0.004(2)
C26 0.064(3) 0.034(2) 0.045(3) 0.0045(18) -0.010(2) 0.005(2)
C27 0.072(4) 0.070(3) 0.064(3) 0.014(3) -0.021(3) -0.014(3)
C28 0.070(3) 0.047(3) 0.053(3) 0.003(2) -0.010(2) -0.010(2)
C29 0.040(2) 0.052(3) 0.059(3) -0.003(2) 0.001(2) -0.001(2)
C30 0.046(3) 0.055(3) 0.064(3) 0.006(2) -0.007(2) -0.006(2)
C31 0.069(4) 0.071(3) 0.074(4) 0.022(3) -0.027(3) -0.026(3)
C32 0.063(3) 0.058(3) 0.075(4) 0.012(3) -0.029(3) -0.015(2)
C33 0.070(3) 0.056(3) 0.041(3) 0.007(2) -0.007(2) 0.005(3)
C34 0.066(3) 0.047(3) 0.050(3) -0.003(2) -0.009(2) 0.001(2)
C35 0.074(4) 0.060(3) 0.069(4) 0.016(3) -0.010(3) -0.003(3)
C36 0.082(4) 0.059(3) 0.048(3) 0.012(2) -0.012(2) -0.015(3)
C37 0.066(3) 0.040(3) 0.065(3) 0.006(2) 0.002(3) -0.003(2)
C38 0.064(3) 0.043(3) 0.063(3) 0.014(2) -0.013(2) 0.007(2)
C39 0.060(3) 0.045(2) 0.050(3) 0.006(2) -0.012(2) -0.004(2)
C40 0.071(3) 0.041(3) 0.074(4) -0.002(2) 0.019(3) 0.001(2)
C41 0.087(4) 0.045(3) 0.064(3) 0.007(2) 0.030(3) 0.002(3)
C42 0.060(3) 0.048(2) 0.048(3) -0.009(2) -0.005(2) -0.004(2)
C43 0.070(3) 0.053(3) 0.058(3) -0.003(2) 0.013(2) -0.009(2)
C44 0.066(3) 0.044(3) 0.058(3) 0.007(2) 0.003(2) -0.008(2)
O1 0.081(3) 0.0357(16) 0.067(2) 0.0114(15) -0.0080(18) -0.0142(16)
O2 0.051(2) 0.0549(19) 0.068(2) -0.0244(16) -0.0016(16) -0.0042(15)
O3 0.0463(18) 0.0564(19) 0.062(2) -0.0145(16) -0.0083(15) -0.0030(15)
O4 0.063(2) 0.0520(19) 0.071(2) 0.0147(16) 0.0121(18) 0.0005(16)
O5 0.060(2) 0.0413(16) 0.064(2) 0.0066(15) 0.0030(16) 0.0034(15)
O6 0.067(2) 0.058(2) 0.0425(17) -0.0095(14) -0.0022(16) 0.0078(16)
O7 0.069(2) 0.065(2) 0.0390(18) -0.0098(15) 0.0022(15) 0.0046(18)
O8 0.0418(18) 0.071(2) 0.061(2) 0.0105(17) -0.0118(15) -0.0093(16)
O9 0.055(2) 0.061(2) 0.061(2) 0.0166(16) -0.0099(17) -0.0145(15)
O10 0.068(2) 0.069(2) 0.0512(19) 0.0162(16) -0.0202(16) -0.0167(18)
O11 0.076(3) 0.068(2) 0.044(2) 0.0135(16) -0.0078(17) -0.0110(18)
O12 0.0423(16) 0.0380(15) 0.0455(16) -0.0011(13) -0.0077(13) -0.0006(12)
O13 0.080(3) 0.052(2) 0.073(2) 0.0155(18) -0.006(2) -0.0152(18)
O1W 0.061(2) 0.073(2) 0.068(2) -0.0103(18) 0.0169(17) -0.0005(18)
O2W 0.067(2) 0.074(2) 0.081(3) -0.035(2) 0.0045(19) 0.0184(19)
Zn1 0.0437(3) 0.0395(3) 0.0435(3) 0.0004(2) -0.0022(2) -0.0022(2)
Zn2 0.0444(3) 0.0424(3) 0.0463(3) -0.0057(2) -0.0063(2) -0.0021(2)
Zn3 0.0522(3) 0.0545(3) 0.0465(3) 0.0091(2) -0.0022(2) -0.0025(2)
Zn4 0.0582(3) 0.0475(3) 0.0428(3) -0.0058(2) -0.0034(2) 0.0007(2)

_geom_special_details            
;
All esds (except the esd in the dihedral angle between two l.s. planes)
are estimated using the full covariance matrix. The cell esds are taken
into account individually in the estimation of esds in distances, angles
and torsion angles; correlations between esds in cell parameters are only
used when they are defined by crystal symmetry. An approximate (isotropic)
treatment of cell esds is used for estimating esds involving l.s. planes.
;

loop_
_geom_bond_atom_site_label_1
_geom_bond_atom_site_label_2
_geom_bond_distance
_geom_bond_site_symmetry_2
_geom_bond_publ_flag
C1 O3 1.236(5) . ?
C1 O2 1.267(6) . ?
C1 C2 1.477(5) . ?
C2 C3 1.3900 . ?
C2 C7 1.3900 . ?
C3 C4 1.3900 . ?
C3 H3 0.9300 . ?
C4 C5 1.3900 . ?
C4 H4 0.9300 . ?
C5 C6 1.3900 . ?
C5 C8 1.537(5) . ?
C6 C7 1.3900 . ?
C6 H6 0.9300 . ?
C7 H7 0.9300 . ?
C8 C9 1.523(5) . ?
C8 C15 1.549(6) . ?
C8 H8 0.9800 . ?
C9 C10 1.3900 . ?
C9 C14 1.3900 . ?
C10 C11 1.3900 . ?
C10 H10 0.9300 . ?
C11 C12 1.3900 . ?
C11 H11 0.9300 . ?
C12 C13 1.3900 . ?
C12 C37 1.509(5) 5_777 ?
C13 C14 1.3900 . ?
C13 H13 0.