####################################################################### 
# 
# This file contains crystal structure data downloaded from the 
# Cambridge Structural Database (CSD) hosted by the Cambridge 
# Crystallographic Data Centre (CCDC).
# 
# Full information about CCDC data access policies and citation 
# guidelines are available at http://www.ccdc.cam.ac.uk/access/V1 
# 
# Audit and citation data items may have been added by the CCDC. 
# Please retain this information to preserve the provenance of 
# this file and to allow appropriate attribution of the data. 
# 
#######################################################################

data_1
_audit_block_doi                 10.5517/ccwzysk
_database_code_depnum_ccdc_archive 'CCDC 834110'
loop_
_citation_id
_citation_doi
_citation_year
1 10.1021/cg201257j 2012
_audit_update_record             
;
2011-07-13 deposited with the CCDC.	2024-07-09 downloaded from the CCDC.
;
#TrackingRef '2 glycol.cif'


_audit_creation_method           SHELXL-97
_chemical_name_systematic        
;
?
;
_chemical_name_common            ?
_chemical_melting_point          ?
_chemical_formula_moiety         'C36 H34 Co2 I2 N8 O8, 3(C2 H6 O2)'
_chemical_formula_sum            'C42 H52 Co2 I2 N8 O14'
_chemical_formula_weight         1264.58

loop_
_atom_type_symbol
_atom_type_description
_atom_type_scat_dispersion_real
_atom_type_scat_dispersion_imag
_atom_type_scat_source
C C 0.0033 0.0016 'International Tables Vol C Tables 4.2.6.8 and 6.1.1.4'
H H 0.0000 0.0000 'International Tables Vol C Tables 4.2.6.8 and 6.1.1.4'
N N 0.0061 0.0033 'International Tables Vol C Tables 4.2.6.8 and 6.1.1.4'
O O 0.0106 0.0060 'International Tables Vol C Tables 4.2.6.8 and 6.1.1.4'
Co Co 0.3494 0.9721 'International Tables Vol C Tables 4.2.6.8 and 6.1.1.4'
I I -0.4742 1.8119 'International Tables Vol C Tables 4.2.6.8 and 6.1.1.4'

_symmetry_cell_setting           monoclinic
_symmetry_space_group_name_Hall  '-P 2ybc'
_symmetry_space_group_name_H-M   'P 21/c'

loop_
_symmetry_equiv_pos_as_xyz
'x, y, z'
'-x, y+1/2, -z+1/2'
'-x, -y, -z'
'x, -y-1/2, z-1/2'

_cell_length_a                   15.131(4)
_cell_length_b                   19.269(10)
_cell_length_c                   18.433(6)
_cell_angle_alpha                90.00
_cell_angle_beta                 108.89(3)
_cell_angle_gamma                90.00
_cell_volume                     5085(3)
_cell_formula_units_Z            4
_cell_measurement_temperature    296(2)
_cell_measurement_reflns_used    3880
_cell_measurement_theta_min      2.9830
_cell_measurement_theta_max      29.3509

_exptl_crystal_description       block
_exptl_crystal_colour            purple
_exptl_crystal_size_max          0.24
_exptl_crystal_size_mid          0.20
_exptl_crystal_size_min          0.18
_exptl_crystal_density_meas      ?
_exptl_crystal_density_diffrn    1.652
_exptl_crystal_density_method    'not measured'
_exptl_crystal_F_000             2528
_exptl_absorpt_coefficient_mu    1.936
_exptl_absorpt_correction_type   multi-scan
_exptl_absorpt_correction_T_min  0.6537
_exptl_absorpt_correction_T_max  0.7220
_exptl_absorpt_process_details   'SADABS(Bruker, 2009)'

_exptl_special_details           
;
?
;

_diffrn_ambient_temperature      296(2)
_diffrn_radiation_wavelength     0.71073
_diffrn_radiation_type           MoK\a
_diffrn_radiation_source         'fine-focus sealed tube'
_diffrn_radiation_monochromator  graphite
_diffrn_measurement_device_type  'Bruker Smart APEX II CCD area detector'
_diffrn_measurement_method       'phi and omega scans'
_diffrn_detector_area_resol_mean ?
_diffrn_standards_number         ?
_diffrn_standards_interval_count ?
_diffrn_standards_interval_time  ?
_diffrn_standards_decay_%        ?
_diffrn_reflns_number            23454
_diffrn_reflns_av_R_equivalents  0.0522
_diffrn_reflns_av_sigmaI/netI    0.0777
_diffrn_reflns_limit_h_min       -17
_diffrn_reflns_limit_h_max       17
_diffrn_reflns_limit_k_min       -22
_diffrn_reflns_limit_k_max       22
_diffrn_reflns_limit_l_min       -21
_diffrn_reflns_limit_l_max       21
_diffrn_reflns_theta_min         2.99
_diffrn_reflns_theta_max         25.00
_reflns_number_total             8934
_reflns_number_gt                5737
_reflns_threshold_expression     >2sigma(I)

_computing_data_collection       'APEX 2(Bruker, 2009)'
_computing_cell_refinement       'APEX 2'
_computing_data_reduction        'SAINT(Bruker, 2009)'
_computing_structure_solution    'SHELXS-97 (Sheldrick, 2008)'
_computing_structure_refinement  'SHELXL-97 (Sheldrick, 2008)'
_computing_molecular_graphics    'SHELXTL(Bruker, 2009)'
_computing_publication_material  SHELXTL

_refine_special_details          
;
Refinement of F^2^ against ALL reflections. The weighted R-factor wR and
goodness of fit S are based on F^2^, conventional R-factors R are based
on F, with F set to zero for negative F^2^. The threshold expression of
F^2^ > 2sigma(F^2^) is used only for calculating R-factors(gt) etc. and is
not relevant to the choice of reflections for refinement. R-factors based
on F^2^ are statistically about twice as large as those based on F, and R-
factors based on ALL data will be even larger.
;

_refine_ls_structure_factor_coef Fsqd
_refine_ls_matrix_type           full
_refine_ls_weighting_scheme      calc
_refine_ls_weighting_details     
'calc w=1/[\s^2^(Fo^2^)+(0.0495P)^2^+0.0000P] where P=(Fo^2^+2Fc^2^)/3'
_atom_sites_solution_primary     direct
_atom_sites_solution_secondary   difmap
_atom_sites_solution_hydrogens   geom
_refine_ls_hydrogen_treatment    constr
_refine_ls_extinction_method     none
_refine_ls_extinction_coef       ?
_refine_ls_number_reflns         8934
_refine_ls_number_parameters     618
_refine_ls_number_restraints     1
_refine_ls_R_factor_all          0.1015
_refine_ls_R_factor_gt           0.0538
_refine_ls_wR_factor_ref         0.1260
_refine_ls_wR_factor_gt          0.1082
_refine_ls_goodness_of_fit_ref   0.986
_refine_ls_restrained_S_all      0.987
_refine_ls_shift/su_max          0.002
_refine_ls_shift/su_mean         0.000

loop_
_atom_site_label
_atom_site_type_symbol
_atom_site_fract_x
_atom_site_fract_y
_atom_site_fract_z
_atom_site_U_iso_or_equiv
_atom_site_adp_type
_atom_site_occupancy
_atom_site_symmetry_multiplicity
_atom_site_calc_flag
_atom_site_refinement_flags
_atom_site_disorder_assembly
_atom_site_disorder_group
Co1 Co 1.06206(5) 0.69522(4) 0.69340(4) 0.03114(19) Uani 1 1 d . . .
Co2 Co 0.46861(5) 1.19991(4) 0.80667(4) 0.0328(2) Uani 1 1 d . . .
O1 O 0.3085(3) 1.3620(2) 0.3375(2) 0.0554(12) Uani 1 1 d . . .
O2 O 0.4283(3) 1.2942(2) 0.39704(19) 0.0421(10) Uani 1 1 d . . .
O3 O 0.4884(3) 1.2247(2) 0.66801(19) 0.0484(11) Uani 1 1 d . . .
O4 O 0.3786(3) 1.2458(2) 0.71871(18) 0.0478(11) Uani 1 1 d . . .
O5 O 1.0965(3) 0.70732(19) 0.60025(18) 0.0371(9) Uani 1 1 d . . .
O6 O 1.2045(3) 0.6286(2) 0.6539(2) 0.0501(11) Uani 1 1 d . . .
O7 O 1.0474(3) 0.7849(2) 0.33131(19) 0.0462(10) Uani 1 1 d . . .
O8 O 1.1552(2) 0.7577(2) 0.28049(18) 0.0437(10) Uani 1 1 d . . .
O9 O 0.8582(5) 0.4431(4) 0.0308(3) 0.116(2) Uani 1 1 d . . .
H9 H 0.8894 0.4083 0.0306 0.174 Uiso 1 1 calc R . .
O10 O 0.6960(4) 0.4511(3) 0.0797(3) 0.0903(17) Uani 1 1 d . . .
H10A H 0.6527 0.4308 0.0881 0.135 Uiso 1 1 calc R . .
O11 O 0.0184(4) 0.3507(4) 0.0628(3) 0.103(2) Uani 1 1 d . . .
H11 H 0.0107 0.3340 0.1012 0.155 Uiso 1 1 calc R . .
O12 O 0.1800(4) 0.3286(4) 0.1922(3) 0.113(2) Uani 1 1 d . . .
H12 H 0.2293 0.3358 0.2268 0.169 Uiso 1 1 calc R . .
O13 O 0.3133(5) 0.0498(5) 0.5329(6) 0.202(5) Uani 1 1 d . . .
H13C H 0.3125 0.0308 0.4911 0.304 Uiso 1 1 d R . .
O14 O 0.5437(5) 0.1205(5) 0.5875(4) 0.132(3) Uani 1 1 d . . .
H14A H 0.5389 0.1533 0.6143 0.199 Uiso 1 1 calc R . .
N1 N 0.9486(3) 0.7585(2) 0.6592(2) 0.0398(12) Uani 1 1 d . . .
N2 N 0.8164(3) 0.8099(3) 0.6489(3) 0.0477(13) Uani 1 1 d . . .
N3 N 0.5976(3) 1.0156(3) 0.7869(3) 0.0436(12) Uani 1 1 d . . .
N4 N 0.5064(3) 1.1012(2) 0.7951(2) 0.0350(11) Uani 1 1 d . . .
N5 N 1.0143(3) 0.5978(2) 0.6974(2) 0.0334(11) Uani 1 1 d . . .
N6 N 0.9148(3) 0.5181(3) 0.7041(3) 0.0445(12) Uani 1 1 d . . .
N7 N 0.7058(4) 0.3256(3) 0.8636(3) 0.0556(14) Uani 1 1 d . . .
N8 N 0.5801(3) 0.2630(2) 0.8476(2) 0.0417(12) Uani 1 1 d . . .
I1 I 0.09589(3) 1.40411(3) 0.52948(3) 0.0808(2) Uani 1 1 d . . .
I2 I 1.41095(3) 0.57419(3) 0.46070(2) 0.06488(18) Uani 1 1 d . . .
C1 C 0.2194(4) 1.3556(3) 0.5291(3) 0.0411(15) Uani 1 1 d . . .
C2 C 0.2477(4) 1.3595(3) 0.4657(3) 0.0422(15) Uani 1 1 d . . .
H2 H 0.2120 1.3841 0.4228 0.051 Uiso 1 1 calc R . .
C3 C 0.3286(4) 1.3273(3) 0.4650(3) 0.0317(13) Uani 1 1 d . . .
C4 C 0.3823(4) 1.2928(3) 0.5301(3) 0.0341(13) Uani 1 1 d . . .
H4 H 0.4384 1.2727 0.5308 0.041 Uiso 1 1 calc R . .
C5 C 0.3542(4) 1.2878(3) 0.5935(3) 0.0333(13) Uani 1 1 d . . .
C6 C 0.2721(4) 1.3192(3) 0.5925(3) 0.0405(15) Uani 1 1 d . . .
H6 H 0.2521 1.3158 0.6350 0.049 Uiso 1 1 calc R . .
C7 C 0.3565(4) 1.3292(3) 0.3936(3) 0.0381(14) Uani 1 1 d . . .
C8 C 0.4126(4) 1.2497(3) 0.6638(3) 0.0374(14) Uani 1 1 d . . .
C9 C 1.2964(4) 0.6338(3) 0.4640(3) 0.0366(14) Uani 1 1 d . . .
C10 C 1.2513(4) 0.6759(3) 0.4031(3) 0.0341(13) Uani 1 1 d . . .
H10 H 1.2730 0.6794 0.3614 0.041 Uiso 1 1 calc R . .
C11 C 1.1730(4) 0.7135(3) 0.4040(3) 0.0312(13) Uani 1 1 d . . .
C12 C 1.1446(4) 0.7103(3) 0.4674(3) 0.0348(14) Uani 1 1 d . . .
H12A H 1.0929 0.7359 0.4686 0.042 Uiso 1 1 calc R . .
C13 C 1.1919(3) 0.6695(3) 0.5298(3) 0.0286(12) Uani 1 1 d . . .
C14 C 1.2676(4) 0.6301(3) 0.5277(3) 0.0340(13) Uani 1 1 d . . .
H14 H 1.2987 0.6016 0.5687 0.041 Uiso 1 1 calc R . .
C15 C 1.1199(4) 0.7557(3) 0.3346(3) 0.0364(13) Uani 1 1 d . . .
C16 C 1.1636(4) 0.6673(3) 0.6008(3) 0.0359(14) Uani 1 1 d . . .
C17 C 0.9189(4) 0.7941(3) 0.5918(3) 0.0541(18) Uani 1 1 d . . .
H17 H 0.9502 0.7956 0.5559 0.065 Uiso 1 1 calc R . .
C18 C 0.8386(5) 0.8266(4) 0.5846(3) 0.0586(19) Uani 1 1 d . . .
H18 H 0.8046 0.8547 0.5442 0.070 Uiso 1 1 calc R . .
C19 C 0.8846(4) 0.7696(3) 0.6921(3) 0.0452(16) Uani 1 1 d . . .
H19 H 0.8868 0.7516 0.7395 0.054 Uiso 1 1 calc R . .
C20 C 0.7336(4) 0.8333(3) 0.6661(4) 0.0550(17) Uani 1 1 d . . .
H20A H 0.7125 0.7965 0.6925 0.066 Uiso 1 1 calc R . .
H20B H 0.6840 0.8427 0.6185 0.066 Uiso 1 1 calc R . .
C21 C 0.7515(4) 0.8971(3) 0.7147(4) 0.0539(17) Uani 1 1 d . . .
H21A H 0.7791 0.9324 0.6913 0.065 Uiso 1 1 calc R . .
H21B H 0.7955 0.8864 0.7648 0.065 Uiso 1 1 calc R . .
C22 C 0.6612(4) 0.9246(3) 0.7237(3) 0.0472(16) Uani 1 1 d . . .
H22A H 0.6213 0.9428 0.6750 0.057 Uiso 1 1 calc R . .
H22B H 0.6281 0.8872 0.7390 0.057 Uiso 1 1 calc R . .
C23 C 0.6824(4) 0.9803(3) 0.7822(4) 0.0597(18) Uani 1 1 d . . .
H23A H 0.7159 0.9605 0.8319 0.072 Uiso 1 1 calc R . .
H23B H 0.7228 1.0143 0.7702 0.072 Uiso 1 1 calc R . .
C24 C 0.5239(5) 0.9864(3) 0.8026(4) 0.066(2) Uani 1 1 d . . .
H24 H 0.5137 0.9395 0.8088 0.079 Uiso 1 1 calc R . .
C25 C 0.4686(4) 1.0402(3) 0.8071(4) 0.0537(17) Uani 1 1 d . . .
H25 H 0.4124 1.0360 0.8171 0.064 Uiso 1 1 calc R . .
C26 C 0.5849(4) 1.0840(3) 0.7832(3) 0.0374(14) Uani 1 1 d . . .
H26 H 0.6261 1.1156 0.7735 0.045 Uiso 1 1 calc R . .
C27 C 0.9373(4) 0.5847(3) 0.7137(3) 0.0389(14) Uani 1 1 d . . .
H27 H 0.9031 0.6179 0.7299 0.047 Uiso 1 1 calc R . .
C28 C 1.0416(4) 0.5350(3) 0.6768(3) 0.0463(15) Uani 1 1 d . . .
H28 H 1.0946 0.5275 0.6627 0.056 Uiso 1 1 calc R . .
C29 C 0.9794(5) 0.4859(3) 0.6802(4) 0.0588(18) Uani 1 1 d . . .
H29 H 0.9808 0.4390 0.6684 0.071 Uiso 1 1 calc R . .
C30 C 0.8310(4) 0.4871(4) 0.7157(4) 0.0623(19) Uani 1 1 d . . .
H30A H 0.7927 0.5238 0.7260 0.075 Uiso 1 1 calc R . .
H30B H 0.7944 0.4638 0.6690 0.075 Uiso 1 1 calc R . .
C31 C 0.8551(4) 0.4370(3) 0.7798(4) 0.0559(18) Uani 1 1 d . . .
H31A H 0.8974 0.4587 0.8252 0.067 Uiso 1 1 calc R . .
H31B H 0.8868 0.3975 0.7669 0.067 Uiso 1 1 calc R . .
C32 C 0.7672(4) 0.4119(3) 0.7967(4) 0.0565(18) Uani 1 1 d . . .
H32A H 0.7418 0.4497 0.8185 0.068 Uiso 1 1 calc R . .
H32B H 0.7202 0.3979 0.7493 0.068 Uiso 1 1 calc R . .
C33 C 0.7894(5) 0.3530(4) 0.8506(4) 0.0615(19) Uani 1 1 d . . .
H33A H 0.8187 0.3165 0.8302 0.074 Uiso 1 1 calc R . .
H33B H 0.8335 0.3680 0.8991 0.074 Uiso 1 1 calc R . .
C34 C 0.6465(4) 0.2793(3) 0.8199(3) 0.0492(17) Uani 1 1 d . . .
H34 H 0.6519 0.2608 0.7749 0.059 Uiso 1 1 calc R . .
C35 C 0.5990(5) 0.3018(4) 0.9128(3) 0.0581(19) Uani 1 1 d . . .
H35 H 0.5635 0.3014 0.9456 0.070 Uiso 1 1 calc R . .
C36 C 0.6748(5) 0.3404(4) 0.9230(4) 0.067(2) Uani 1 1 d . . .
H36 H 0.7013 0.3713 0.9629 0.080 Uiso 1 1 calc R . .
C38 C 0.8579(6) 0.4558(5) 0.1056(4) 0.095(3) Uani 1 1 d . . .
H38A H 0.8523 0.5053 0.1124 0.114 Uiso 1 1 calc R . .
H38B H 0.9169 0.4407 0.1417 0.114 Uiso 1 1 calc R . .
C39 C 0.7813(6) 0.4200(4) 0.1225(4) 0.086(3) Uani 1 1 d . . .
H39A H 0.7809 0.3713 0.1091 0.103 Uiso 1 1 calc R . .
H39B H 0.7897 0.4232 0.1768 0.103 Uiso 1 1 calc R . .
C40 C 0.0974(7) 0.3923(5) 0.0841(5) 0.099(3) Uani 1 1 d . . .
H40A H 0.0885 0.4289 0.1172 0.119 Uiso 1 1 calc R . .
H40B H 0.1030 0.4142 0.0384 0.119 Uiso 1 1 calc R . .
C41 C 0.1850(7) 0.3571(5) 0.1234(5) 0.118(4) Uani 1 1 d . . .
H41A H 0.1959 0.3207 0.0911 0.142 Uiso 1 1 calc R . .
H41B H 0.2364 0.3898 0.1344 0.142 Uiso 1 1 calc R . .
C42 C 0.4487(10) 0.0995(7) 0.5363(6) 0.164(6) Uani 1 1 d D . .
H42A H 0.4095 0.1399 0.5186 0.197 Uiso 1 1 calc R . .
H42B H 0.4531 0.0742 0.4921 0.197 Uiso 1 1 calc R . .
C43 C 0.4108(10) 0.0553(6) 0.5833(6) 0.157(5) Uani 1 1 d D . .
H43A H 0.4154 0.0771 0.6318 0.189 Uiso 1 1 calc R . .
H43B H 0.4414 0.0104 0.5928 0.189 Uiso 1 1 calc R . .

loop_
_atom_site_aniso_label
_atom_site_aniso_U_11
_atom_site_aniso_U_22
_atom_site_aniso_U_33
_atom_site_aniso_U_23
_atom_site_aniso_U_13
_atom_site_aniso_U_12
Co1 0.0352(4) 0.0360(5) 0.0262(4) -0.0002(3) 0.0154(3) 0.0002(4)
Co2 0.0403(5) 0.0352(5) 0.0265(4) 0.0016(3) 0.0158(3) 0.0043(4)
O1 0.070(3) 0.070(3) 0.030(2) 0.012(2) 0.021(2) 0.005(3)
O2 0.056(3) 0.050(3) 0.029(2) 0.0017(18) 0.0272(18) 0.001(2)
O3 0.054(3) 0.060(3) 0.033(2) 0.007(2) 0.0161(19) 0.016(2)
O4 0.061(3) 0.063(3) 0.0250(19) 0.0131(19) 0.0212(18) 0.018(2)
O5 0.043(2) 0.043(2) 0.032(2) 0.0018(18) 0.0219(17) 0.009(2)
O6 0.042(2) 0.075(3) 0.035(2) 0.018(2) 0.0160(18) 0.011(2)
O7 0.045(2) 0.055(3) 0.038(2) 0.003(2) 0.0128(18) 0.022(2)
O8 0.054(2) 0.056(3) 0.0249(19) 0.0092(18) 0.0182(18) 0.006(2)
O9 0.102(5) 0.169(8) 0.073(4) -0.001(4) 0.022(3) 0.013(5)
O10 0.075(4) 0.097(5) 0.093(4) 0.021(3) 0.018(3) 0.009(4)
O11 0.104(5) 0.119(5) 0.096(4) -0.003(4) 0.045(4) -0.041(4)
O12 0.062(4) 0.206(7) 0.076(4) 0.009(4) 0.028(3) -0.003(4)
O13 0.100(6) 0.170(8) 0.265(10) -0.118(8) -0.040(6) 0.027(6)
O14 0.105(5) 0.173(8) 0.120(6) -0.060(5) 0.038(4) 0.017(5)
N1 0.043(3) 0.043(3) 0.040(3) 0.003(2) 0.023(2) 0.012(2)
N2 0.047(3) 0.051(4) 0.051(3) -0.006(3) 0.024(3) 0.011(3)
N3 0.045(3) 0.035(3) 0.058(3) -0.001(3) 0.027(3) 0.010(3)
N4 0.037(3) 0.035(3) 0.037(2) -0.001(2) 0.019(2) 0.002(2)
N5 0.032(3) 0.034(3) 0.036(2) 0.004(2) 0.014(2) -0.001(2)
N6 0.043(3) 0.046(3) 0.049(3) -0.002(3) 0.021(2) -0.013(3)
N7 0.063(4) 0.054(4) 0.057(3) -0.001(3) 0.029(3) -0.012(3)
N8 0.050(3) 0.042(3) 0.037(3) 0.000(2) 0.019(2) -0.004(3)
I1 0.0517(3) 0.1351(6) 0.0524(3) -0.0075(3) 0.0124(2) 0.0376(3)
I2 0.0509(3) 0.0897(4) 0.0568(3) -0.0030(3) 0.0213(2) 0.0319(3)
C1 0.040(3) 0.053(4) 0.033(3) -0.005(3) 0.015(3) 0.010(3)
C2 0.049(4) 0.049(4) 0.026(3) 0.004(3) 0.008(3) 0.002(3)
C3 0.036(3) 0.033(3) 0.025(3) 0.000(2) 0.009(2) 0.003(3)
C4 0.036(3) 0.035(3) 0.035(3) -0.004(3) 0.017(2) 0.005(3)
C5 0.037(3) 0.038(4) 0.027(3) 0.004(2) 0.013(2) 0.009(3)
C6 0.044(4) 0.056(4) 0.027(3) -0.003(3) 0.018(3) 0.002(3)
C7 0.048(4) 0.036(4) 0.033(3) -0.006(3) 0.017(3) -0.009(3)
C8 0.048(4) 0.035(4) 0.032(3) -0.001(3) 0.017(3) 0.004(3)
C9 0.034(3) 0.049(4) 0.030(3) -0.004(3) 0.014(2) 0.013(3)
C10 0.041(3) 0.041(4) 0.026(3) -0.002(3) 0.018(2) 0.005(3)
C11 0.039(3) 0.033(3) 0.023(3) -0.001(2) 0.011(2) 0.002(3)
C12 0.037(3) 0.044(4) 0.026(3) 0.000(3) 0.014(2) 0.005(3)
C13 0.031(3) 0.028(3) 0.029(3) -0.001(2) 0.012(2) 0.005(3)
C14 0.043(3) 0.033(3) 0.023(3) 0.003(2) 0.007(2) 0.006(3)
C15 0.052(4) 0.031(3) 0.026(3) -0.002(3) 0.012(3) -0.003(3)
C16 0.037(3) 0.047(4) 0.025(3) -0.002(3) 0.012(2) -0.007(3)
C17 0.060(4) 0.065(5) 0.048(4) 0.021(3) 0.032(3) 0.024(4)
C18 0.064(5) 0.068(5) 0.047(4) 0.014(3) 0.023(3) 0.030(4)
C19 0.058(4) 0.045(4) 0.045(3) 0.008(3) 0.033(3) 0.019(3)
C20 0.042(4) 0.061(5) 0.069(4) -0.012(4) 0.027(3) 0.008(4)
C21 0.060(5) 0.041(4) 0.072(4) 0.001(3) 0.037(4) 0.011(3)
C22 0.046(4) 0.046(4) 0.056(4) -0.007(3) 0.024(3) 0.005(3)
C23 0.047(4) 0.054(5) 0.082(5) -0.011(4) 0.026(4) 0.014(4)
C24 0.081(5) 0.033(4) 0.110(6) -0.002(4) 0.067(5) -0.008(4)
C25 0.057(4) 0.043(4) 0.079(4) 0.001(4) 0.047(4) -0.003(4)
C26 0.040(3) 0.038(4) 0.038(3) -0.006(3) 0.018(3) -0.006(3)
C27 0.039(4) 0.042(4) 0.038(3) 0.002(3) 0.016(3) -0.005(3)
C28 0.045(4) 0.044(4) 0.057(4) -0.003(3) 0.026(3) 0.004(3)
C29 0.072(5) 0.035(4) 0.079(5) -0.017(4) 0.038(4) -0.015(4)
C30 0.056(4) 0.062(5) 0.074(4) 0.006(4) 0.027(4) -0.016(4)
C31 0.058(4) 0.043(4) 0.075(4) 0.003(4) 0.033(4) -0.005(3)
C32 0.058(4) 0.047(4) 0.068(4) 0.000(4) 0.026(4) -0.008(4)
C33 0.061(5) 0.059(5) 0.068(4) 0.013(4) 0.026(4) -0.009(4)
C34 0.060(4) 0.055(4) 0.039(3) -0.009(3) 0.025(3) -0.017(4)
C35 0.063(5) 0.067(5) 0.056(4) -0.018(4) 0.036(3) -0.021(4)
C36 0.083(6) 0.069(5) 0.058(4) -0.022(4) 0.036(4) -0.018(5)
C38 0.074(6) 0.129(9) 0.069(6) -0.020(5) 0.006(4) 0.018(6)
C39 0.090(7) 0.089(7) 0.065(5) 0.012(5) 0.009(5) 0.034(6)
C40 0.111(8) 0.103(8) 0.087(6) -0.012(6) 0.035(6) -0.024(7)
C41 0.128(8) 0.168(10) 0.087(6) 0.059(6) 0.073(6) 0.090(8)
C42 0.214(16) 0.179(14) 0.085(8) -0.029(9) 0.028(10) 0.091(12)
