
#######################################################################
#
#                 Cambridge Crystallographic Data Centre
#                                CCDC
#
#######################################################################
#
# If this CIF has been generated from an entry in the Cambridge
# Structural Database, then it will include bibliographic, chemical,
# crystal, experimental, refinement or atomic coordinate data resulting
# from the CCDC's data processing and validation procedures.
#
#######################################################################

data_CSD_CIF_DAXKAP
_audit_creation_date 2006-02-13
_audit_creation_method CSD-ConQuest-V1
_database_code_CSD DAXKAP
_database_code_depnum_ccdc_archive 'CCDC 275429'
_chemical_formula_sum 'C10 H12 O3'
_chemical_formula_moiety
;
C10 H12 O3
;
_journal_coden_Cambridge 1090
_journal_volume 16
_journal_year 2005
_journal_page_first 3361
_journal_name_full 'Tetrahedron:Asymm. '
loop_
_publ_author_name
"A.A.Bredikhin"
"E.I.Strunskaya"
"D.V.Zakharychev"
"D.B.Krivolapov"
"I.A.Litvinov"
_chemical_name_systematic
;
rac-1,2-Epoxy-3-(2-methoxyphenyloxy)propane
;
_chemical_name_common
;
Teaching Subset: Fundamental Chemistry
;
_chemical_melting_point 311
_cell_volume    932.540
_exptl_crystal_colour 'colorless'
_exptl_crystal_density_diffrn 1.284
_exptl_special_details
;
Melting point range 311-313K

;
_exptl_crystal_description 'needle'
_exptl_crystal_preparation 'ethanol'
_diffrn_ambient_temperature 293
#These two values have been output from a single CSD field.
_refine_ls_R_factor_gt 0.0566
_refine_ls_wR_factor_gt 0.0566
_symmetry_cell_setting orthorhombic
_symmetry_space_group_name_H-M 'P 21 21 21'
_symmetry_Int_Tables_number 19
loop_
_symmetry_equiv_pos_site_id
_symmetry_equiv_pos_as_xyz
1 x,y,z
2 1/2-x,-y,1/2+z
3 1/2+x,1/2-y,-z
4 -x,1/2+y,1/2-z
_cell_length_a 5.068(2)
_cell_length_b 18.168(7)
_cell_length_c 10.128(7)
_cell_angle_alpha 90
_cell_angle_beta 90
_cell_angle_gamma 90
_cell_formula_units_Z 4
loop_
_atom_type_symbol
_atom_type_radius_bond
C 0.68
H 0.23
O 0.68
loop_
_atom_site_label
_atom_site_type_symbol
_atom_site_fract_x
_atom_site_fract_y
_atom_site_fract_z
O1 O 1.0952(6) 0.61498(12) 0.2333(2)
O2 O 0.7633(6) 0.72090(13) 0.2485(3)
C1 C 0.9345(9) 0.61342(19) 0.3412(3)
C2 C 0.7528(9) 0.67182(18) 0.3506(4)
C3 C 0.9370(8) 0.5603(2) 0.4372(4)
H1 H 1.05570 0.52140 0.43110
O3 O 0.7210(9) 0.87605(19) 0.1146(3)
C4 C 0.7656(9) 0.5639(2) 0.5425(4)
H2 H 0.76990 0.52730 0.60680
C5 C 0.5906(9) 0.6200(2) 0.5537(4)
H3 H 0.47600 0.62240 0.62530
C6 C 0.5423(9) 0.76906(18) 0.2342(4)
H4 H 0.53510 0.80300 0.30800
H5 H 0.38000 0.74080 0.23300
C7 C 0.5849(10) 0.67434(19) 0.4562(4)
H6 H 0.46490 0.71290 0.46320
C8 C 1.2773(9) 0.5566(2) 0.2159(4)
H7 H 1.37540 0.56420 0.13590
H8 H 1.18340 0.51080 0.21030
H9 H 1.39650 0.55510 0.28950
C9 C 0.5711(11) 0.8105(2) 0.1085(4)
H10 H 0.59700 0.78040 0.02920
C10 C 0.4443(14) 0.8795(3) 0.0883(5)
H11 H 0.32970 0.89770 0.15770
H12 H 0.38900 0.89180 -0.00070
#END
