
#######################################################################
#
#                 Cambridge Crystallographic Data Centre
#                                CCDC
#
#######################################################################
#
# If this CIF has been generated from an entry in the Cambridge
# Structural Database, then it will include bibliographic, chemical,
# crystal, experimental, refinement or atomic coordinate data resulting
# from the CCDC's data processing and validation procedures.
#
#######################################################################

data_CSD_CIF_DAYNUN
_audit_creation_date 2006-02-13
_audit_creation_method CSD-ConQuest-V1
_database_code_CSD DAYNUN
_database_code_depnum_ccdc_archive 'CCDC 293969'
_chemical_formula_sum 'C5 H8 O5'
_chemical_formula_moiety
;
C5 H8 O5
;
_journal_coeditor_code "IUCr OM6268"
_journal_coden_Cambridge 1370
_journal_volume 61
_journal_year 2005
_journal_page_first o4104
_journal_name_full 'Acta Crystallogr.,Sect.E:Struct.Rep.Online '
loop_
_publ_author_name
"Xiang-Jiu He"
"E.Lobkovsky"
"Rui Hai Liu"
_chemical_name_systematic
;
Methyl 3-carboxy-2-hydroxypropanoate
;
_chemical_name_common
;
Teaching Subset: Fundamental Chemistry
;
_cell_volume    652.037
_exptl_crystal_colour 'colorless'
_exptl_crystal_density_diffrn 1.509
_exptl_special_details
;
potential biological activity

;
_exptl_crystal_description 'block'
_exptl_crystal_preparation 'dichloromethane'
_diffrn_ambient_temperature 173
#These two values have been output from a single CSD field.
_refine_ls_R_factor_gt 0.0312
_refine_ls_wR_factor_gt 0.0312
_chemical_compound_source
;
cranberry, Vaccinium macrocarpon Stevens cultivar
;
_symmetry_cell_setting monoclinic
_symmetry_space_group_name_H-M 'C 2'
_symmetry_Int_Tables_number 5
loop_
_symmetry_equiv_pos_site_id
_symmetry_equiv_pos_as_xyz
1 x,y,z
2 -x,y,-z
3 1/2+x,1/2+y,z
4 1/2-x,1/2+y,-z
_cell_length_a 22.699(5)
_cell_length_b 4.1854(9)
_cell_length_c 6.9782(15)
_cell_angle_alpha 90
_cell_angle_beta 100.415(18)
_cell_angle_gamma 90
_cell_formula_units_Z 4
loop_
_atom_type_symbol
_atom_type_radius_bond
C 0.68
H 0.23
O 0.68
loop_
_atom_site_label
_atom_site_type_symbol
_atom_site_fract_x
_atom_site_fract_y
_atom_site_fract_z
O1 O 0.25707(3) 0.9660(3) 0.24422(10)
H1 H 0.2392(8) 1.024(6) 0.117(3)
O2 O 0.30772(3) 0.6119(2) 0.10029(10)
O3 O 0.42670(3) 0.81550(17) 0.38465(10)
H2 H 0.4604(7) 0.745(4) 0.361(2)
O4 O 0.47584(3) 0.5139(2) 0.72298(10)
O5 O 0.38839(3) 0.28696(18) 0.73931(9)
C1 C 0.29831(3) 0.7457(2) 0.24497(11)
C2 C 0.33131(4) 0.6772(2) 0.44659(11)
H3 H 0.3302(6) 0.868(4) 0.529(2)
H4 H 0.3112(6) 0.506(4) 0.502(2)
C3 C 0.39473(4) 0.5632(2) 0.44873(12)
H5 H 0.3960(6) 0.372(4) 0.3703(19)
C4 C 0.42474(3) 0.4564(2) 0.65146(11)
C5 C 0.41331(5) 0.1663(3) 0.93099(13)
H6 H 0.4446(8) 0.013(5) 0.923(2)
H7 H 0.3819(7) 0.062(5) 0.973(2)
H8 H 0.4271(8) 0.341(6) 1.004(3)
#END
