
#######################################################################
#
#                 Cambridge Crystallographic Data Centre
#                                CCDC
#
#######################################################################
#
# If this CIF has been generated from an entry in the Cambridge
# Structural Database, then it will include bibliographic, chemical,
# crystal, experimental, refinement or atomic coordinate data resulting
# from the CCDC's data processing and validation procedures.
#
#######################################################################

data_CSD_CIF_DBBZPN
_audit_creation_date 1971-12-31
_audit_creation_method CSD-ConQuest-V1
_database_code_CSD DBBZPN
_database_code_depnum_ccdc_archive 'CCDC 1137223'
_chemical_formula_sum 'C38 H34 Br2 Ni1 P2'
_chemical_formula_moiety
;
C38 H34 Br2 Ni1 P2
;
_journal_coden_Cambridge 89
_journal_year 1970
_journal_page_first 1688
_journal_name_full 'J.Chem.Soc.A '
loop_
_publ_author_name
"B.T.Kilbourn"
"H.M.Powell"
_chemical_name_systematic
;
Dibromo-bis(benzyldiphenylphosphine)-nickel(ii)
;
_chemical_name_common
;
Teaching Subset: Fundamental Chemistry
;
_cell_volume   2573.165
_exptl_crystal_density_diffrn 1.49
_exptl_special_details
;
paramagnetic polymorph

;
_diffrn_ambient_temperature ?
_diffrn_special_details
;
The study was carried out at room temperature,in the range 283-303K

;
#These two values have been output from a single CSD field.
_refine_ls_R_factor_gt 0.099
_refine_ls_wR_factor_gt 0.099
_symmetry_cell_setting triclinic
_symmetry_space_group_name_H-M 'P -1'
_symmetry_Int_Tables_number 2
loop_
_symmetry_equiv_pos_site_id
_symmetry_equiv_pos_as_xyz
1 x,y,z
2 -x,-y,-z
_cell_length_a 11.44(1)
_cell_length_b 10.81(1)
_cell_length_c 26.68(2)
_cell_angle_alpha 81.6(1)
_cell_angle_beta 97.1(1)
_cell_angle_gamma 127.9(1)
_cell_formula_units_Z 3
loop_
_atom_type_symbol
_atom_type_radius_bond
C 0.68
Br 1.09
Ni 1.40
P 1.05
loop_
_atom_site_label
_atom_site_type_symbol
_atom_site_fract_x
_atom_site_fract_y
_atom_site_fract_z
Br1 Br 0.11370 0.18510 0.05820
C1 C 0.36840 0.12340 0.04030
C2 C 0.26610 -0.01000 -0.05420
C3 C 0.33750 0.15480 -0.08660
C4 C 0.23500 0.17610 -0.11790
C5 C 0.30220 0.31710 -0.14900
C6 C 0.45550 0.43230 -0.14680
C7 C 0.55070 0.40560 -0.11360
C8 C 0.48490 0.26530 -0.08600
C9 C 0.42290 0.06250 0.07470
C10 C 0.12930 -0.20780 0.03790
C11 C 0.16100 -0.29860 0.02280
C12 C 0.12630 -0.43580 0.05360
C13 C 0.05950 -0.47300 0.09930
C14 C 0.02860 -0.38420 0.11520
C15 C 0.05710 -0.24530 0.08440
C16 C 0.55930 0.16660 0.10070
C17 C 0.63650 0.33220 0.09010
C18 C 0.58230 0.39150 0.05420
C19 C 0.44270 0.29000 0.02860
Ni1 Ni 0.00000 0.00000 0.00000
P1 P 0.19050 -0.01400 0.00520
Br2 Br -0.16260 -0.50780 0.24230
Br3 Br -0.18780 -0.66530 0.39170
C20 C 0.27010 -0.35620 0.39690
C21 C 0.21640 -0.46010 0.44190
C22 C 0.29060 -0.39270 0.48570
C23 C 0.41250 -0.23210 0.48580
C24 C 0.46160 -0.13750 0.44140
C25 C 0.38460 -0.20120 0.39510
C26 C 0.12820 -0.63870 0.34360
C27 C 0.06920 -0.70850 0.29450
C28 C -0.07710 -0.78820 0.27690
C29 C -0.12110 -0.84400 0.22510
C30 C -0.01940 -0.81720 0.19900
C31 C 0.11620 -0.74710 0.21070
C32 C 0.17300 -0.68540 0.25950
C33 C 0.29160 -0.33760 0.28800
C34 C 0.44140 -0.29790 0.29600
C35 C 0.53310 -0.22040 0.25700
C36 C 0.48710 -0.19410 0.20830
C37 C 0.34630 -0.22960 0.20050
C38 C 0.25180 -0.29890 0.24170
C39 C 0.07650 -0.13860 0.39120
C40 C 0.06910 -0.23460 0.43410
C41 C 0.11000 -0.18230 0.48200
C42 C 0.15300 -0.02830 0.48670
C43 C 0.15490 0.06420 0.44540
C44 C 0.12270 0.01120 0.39560
C45 C -0.13460 -0.20500 0.30970
C46 C -0.26170 -0.31250 0.34710
C47 C -0.26620 -0.23960 0.38800
C48 C -0.38010 -0.33660 0.42150
C49 C -0.48120 -0.49600 0.41780
C50 C -0.48090 -0.56760 0.37930
C51 C -0.37240 -0.47490 0.34220
C52 C 0.16950 -0.06540 0.28820
C53 C 0.31300 0.02870 0.30920
C54 C 0.43340 0.13640 0.27320
C55 C 0.40170 0.14150 0.22320
C56 C 0.25900 0.04770 0.20610
C57 C 0.12870 -0.07460 0.23800
Ni2 Ni -0.05470 -0.47060 0.32530
P2 P 0.01780 -0.22000 0.33030
P3 P 0.16310 -0.44450 0.33700
Br1A Br -0.11370 -0.18510 -0.05820
P1A P -0.19050 0.01400 -0.00520
C1A C -0.36840 -0.12340 -0.04030
C2A C -0.26610 0.01000 0.05420
C10A C -0.12930 0.20780 -0.03790
C9A C -0.42290 -0.06250 -0.07470
C19A C -0.44270 -0.29000 -0.02860
C3A C -0.33750 -0.15480 0.08660
C11A C -0.16100 0.29860 -0.02280
C15A C -0.05710 0.24530 -0.08440
C16A C -0.55930 -0.16660 -0.10070
C18A C -0.58230 -0.39150 -0.05420
C4A C -0.23500 -0.17610 0.11790
C8A C -0.48490 -0.26530 0.08600
C12A C -0.12630 0.43580 -0.05360
C14A C -0.02860 0.38420 -0.11520
C17A C -0.63650 -0.33220 -0.09010
C5A C -0.30220 -0.31710 0.14900
C7A C -0.55070 -0.40560 0.11360
C13A C -0.05950 0.47300 -0.09930
C6A C -0.45550 -0.43230 0.14680
#END
