
#######################################################################
#
#                 Cambridge Crystallographic Data Centre
#                                CCDC
#
#######################################################################
#
# If this CIF has been generated from an entry in the Cambridge
# Structural Database, then it will include bibliographic, chemical,
# crystal, experimental, refinement or atomic coordinate data resulting
# from the CCDC's data processing and validation procedures.
#
#######################################################################

data_CSD_CIF_DBENCR03
_audit_creation_date 1971-12-31
_audit_creation_method CSD-ConQuest-V1
_database_code_CSD DBENCR03
_database_code_depnum_ccdc_archive 'CCDC 1137243'
_chemical_formula_sum 'C12 H12 Cr1'
_chemical_formula_moiety
;
C12 H12 Cr1
;
_journal_coden_Cambridge 36
_journal_volume 5
_journal_year 1966
_journal_page_first 490
_journal_name_full 'J.Organomet.Chem. '
loop_
_publ_author_name
"E.Keulen"
"F.Jellinek"
_chemical_name_systematic
;
bis(\h^6^-Benzene)-chromium(0)
;
_chemical_name_common
;
Teaching Subset: Fundamental Chemistry, Symmetry
;
_cell_volume    871.805
_diffrn_ambient_temperature 100
_symmetry_cell_setting cubic
_symmetry_space_group_name_H-M 'P a 3'
_symmetry_Int_Tables_number 205
loop_
_symmetry_equiv_pos_site_id
_symmetry_equiv_pos_as_xyz
1 x,y,z
2 z,x,y
3 y,z,x
4 -x,1/2+y,1/2-z
5 -z,1/2+x,1/2-y
6 -y,1/2+z,1/2-x
7 1/2-x,-y,1/2+z
8 1/2-z,-x,1/2+y
9 1/2-y,-z,1/2+x
10 1/2+x,1/2-y,-z
11 1/2+z,1/2-x,-y
12 1/2+y,1/2-z,-x
13 -x,-y,-z
14 -z,-x,-y
15 -y,-z,-x
16 x,-1/2-y,-1/2+z
17 z,-1/2-x,-1/2+y
18 y,-1/2-z,-1/2+x
19 -1/2+x,y,-1/2-z
20 -1/2+z,x,-1/2-y
21 -1/2+y,z,-1/2-x
22 -1/2-x,-1/2+y,z
23 -1/2-z,-1/2+x,y
24 -1/2-y,-1/2+z,x
_cell_length_a 9.553
_cell_length_b 9.553
_cell_length_c 9.553
_cell_angle_alpha 90
_cell_angle_beta 90
_cell_angle_gamma 90
_cell_formula_units_Z 4
loop_
_atom_type_symbol
_atom_type_radius_bond
C 0.68
H 0.20
Cr 1.28
loop_
_atom_site_label
_atom_site_type_symbol
_atom_site_fract_x
_atom_site_fract_y
_atom_site_fract_z
Cr1 Cr 0.00000 0.00000 0.00000
C1 C 0.14710 0.16770 -0.02330
C2 C 0.04710 0.02640 0.21740
H1 H 0.17400 0.21000 -0.10900
H2 H 0.00700 -0.02300 0.29000
C2A C 0.21740 0.04710 0.02640
C1A C -0.02330 0.14710 0.16770
C2B C 0.02640 0.21740 0.04710
C1B C 0.16770 -0.02330 0.14710
C1L C -0.14710 -0.16770 0.02330
C2M C -0.21740 -0.04710 -0.02640
C1M C 0.02330 -0.14710 -0.16770
C2N C -0.02640 -0.21740 -0.04710
C1N C -0.16770 0.02330 -0.14710
C2L C -0.04710 -0.02640 -0.21740
H1M H 0.10900 -0.17400 -0.21000
H2L H -0.00700 0.02300 -0.29000
H2M H -0.29000 -0.00700 0.02300
H1N H -0.21000 0.10900 -0.17400
H1L H -0.17400 -0.21000 0.10900
H2N H 0.02300 -0.29000 -0.00700
H1A H -0.10900 0.17400 0.21000
H2A H 0.29000 0.00700 -0.02300
H1B H 0.21000 -0.10900 0.17400
H2B H -0.02300 0.29000 0.00700
#END
