
#######################################################################
#
#                 Cambridge Crystallographic Data Centre
#                                CCDC
#
#######################################################################
#
# If this CIF has been generated from an entry in the Cambridge
# Structural Database, then it will include bibliographic, chemical,
# crystal, experimental, refinement or atomic coordinate data resulting
# from the CCDC's data processing and validation procedures.
#
#######################################################################

data_CSD_CIF_DBRING01
_audit_creation_date 1980-12-11
_audit_creation_method CSD-ConQuest-V1
_database_code_CSD DBRING01
_database_code_depnum_ccdc_archive 'CCDC 1137310'
_chemical_formula_sum 'C16 H8 Br2 N2 O2'
_chemical_formula_moiety
;
C16 H8 Br2 N2 O2
;
_journal_coden_Cambridge 3
_journal_volume 34
_journal_year 1980
_journal_page_first 171
_journal_name_full 'Acta Chem.Scand. '
loop_
_publ_author_name
"S.Larsen"
"F.Watjen"
_chemical_name_systematic
;
6,6'-Dibromo-indigo
;
_chemical_name_common
;
Tyrian purple; Teaching Subset: Fundamental Chemistry, Symmetry
;
_cell_volume    686.551
_exptl_crystal_colour 'dark violet'
_exptl_crystal_density_diffrn 2.032
_diffrn_ambient_temperature ?
_diffrn_special_details
;
The study was carried out at room temperature,in the range 283-303K

;
#These two values have been output from a single CSD field.
_refine_ls_R_factor_gt 0.037
_refine_ls_wR_factor_gt 0.037
_symmetry_cell_setting monoclinic
_symmetry_space_group_name_H-M 'P 21/c'
_symmetry_Int_Tables_number 14
loop_
_symmetry_equiv_pos_site_id
_symmetry_equiv_pos_as_xyz
1 x,y,z
2 -x,1/2+y,1/2-z
3 -x,-y,-z
4 x,-1/2-y,-1/2+z
_cell_length_a 12.609(16)
_cell_length_b 4.842(2)
_cell_length_c 11.611(12)
_cell_angle_alpha 90
_cell_angle_beta 104.42(6)
_cell_angle_gamma 90
_cell_formula_units_Z 2
loop_
_atom_type_symbol
_atom_type_radius_bond
C 0.68
H 0.23
Br 1.21
N 0.68
O 0.68
loop_
_atom_site_label
_atom_site_type_symbol
_atom_site_fract_x
_atom_site_fract_y
_atom_site_fract_z
Br1 Br 0.42643 0.03890 0.15096
N1 N 0.08900 0.72860 0.08560
C1 C 0.04300 0.91540 -0.00110
C2 C 0.10200 0.89950 -0.09720
C3 C 0.18630 0.69390 -0.05650
C4 C 0.27040 0.59500 -0.10440
C5 C 0.34030 0.39880 -0.04320
C6 C 0.32640 0.30510 0.06640
C7 C 0.24470 0.39440 0.11700
C8 C 0.17470 0.59500 0.05410
O1 O 0.08060 1.04010 -0.18910
H1 H 0.07500 0.70400 0.13900
H2 H 0.27600 0.66200 -0.18300
H3 H 0.39400 0.32700 -0.07000
H4 H 0.24000 0.31600 0.19400
C1B C -0.04300 1.08460 0.00110
N1B N -0.08900 1.27140 -0.08560
C2B C -0.10200 1.10050 0.09720
C8B C -0.17470 1.40500 -0.05410
H1B H -0.07500 1.29600 -0.13900
C3B C -0.18630 1.30610 0.05650
O1B O -0.08060 0.95990 0.18910
C7B C -0.24470 1.60560 -0.11700
C4B C -0.27040 1.40500 0.10440
C6B C -0.32640 1.69490 -0.06640
H4B H -0.24000 1.68400 -0.19400
C5B C -0.34030 1.60120 0.04320
H2B H -0.27600 1.33800 0.18300
Br1B Br -0.42643 1.96110 -0.15096
H3B H -0.39400 1.67300 0.07000
#END
