
#######################################################################
#
#                 Cambridge Crystallographic Data Centre
#                                CCDC
#
#######################################################################
#
# If this CIF has been generated from an entry in the Cambridge
# Structural Database, then it will include bibliographic, chemical,
# crystal, experimental, refinement or atomic coordinate data resulting
# from the CCDC's data processing and validation procedures.
#
#######################################################################

data_CSD_CIF_DCLBEN03
_audit_creation_date 1975-07-10
_audit_creation_method CSD-ConQuest-V1
_database_code_CSD DCLBEN03
_database_code_depnum_ccdc_archive 'CCDC 1137445'
_chemical_formula_sum 'C6 H4 Cl2'
_chemical_formula_moiety
;
C6 H4 Cl2
;
_journal_coeditor_code "IUCr A12048"
_journal_coden_Cambridge 107
_journal_volume 31
_journal_year 1975
_journal_page_first 911
_journal_name_full 'Acta Crystallogr.,Sect.B:Struct.Crystallogr.Cryst.Chem. '
loop_
_publ_author_name
"G.L.Wheeler"
"S.D.Colson"
_chemical_name_systematic
;
p-Dichlorobenzene
;
_chemical_name_common
;
Teaching Subset: Fundamental Chemistry
;
_cell_volume    305.378
_exptl_special_details
;
monoclinic gamma polymorph
X-COORDINATE OF C2 GIVEN AS .0827 IN TAB 1 SHOULD BE .1827
;
_diffrn_ambient_temperature 100
#These two values have been output from a single CSD field.
_refine_ls_R_factor_gt 0.047
_refine_ls_wR_factor_gt 0.047
_symmetry_cell_setting monoclinic
_symmetry_space_group_name_H-M 'P 21/c'
_symmetry_Int_Tables_number 14
loop_
_symmetry_equiv_pos_site_id
_symmetry_equiv_pos_as_xyz
1 x,y,z
2 -x,1/2+y,1/2-z
3 -x,-y,-z
4 x,-1/2-y,-1/2+z
_cell_length_a 8.624(2)
_cell_length_b 6.021(2)
_cell_length_c 7.414(2)
_cell_angle_alpha 90
_cell_angle_beta 127.51(1)
_cell_angle_gamma 90
_cell_formula_units_Z 2
loop_
_atom_type_symbol
_atom_type_radius_bond
C 0.68
H 0.23
Cl 0.99
loop_
_atom_site_label
_atom_site_type_symbol
_atom_site_fract_x
_atom_site_fract_y
_atom_site_fract_z
Cl1 Cl 0.35790 -0.31970 0.23240
C1 C 0.15810 -0.13900 0.10070
C2 C 0.18270 0.07010 0.19390
C3 C -0.02160 -0.21110 -0.09190
H1 H 0.31200 0.11700 0.33400
H2 H -0.03800 -0.36600 -0.19300
C3B C 0.02160 0.21110 0.09190
C2B C -0.18270 -0.07010 -0.19390
C1B C -0.15810 0.13900 -0.10070
H2B H 0.03800 0.36600 0.19300
H1B H -0.31200 -0.11700 -0.33400
Cl1B Cl -0.35790 0.31970 -0.23240
#END
