####################################################################### 
# 
# This file contains crystal structure data downloaded from the 
# Cambridge Structural Database (CSD) hosted by the Cambridge 
# Crystallographic Data Centre (CCDC).
# 
# Full information about CCDC data access policies and citation 
# guidelines are available at http://www.ccdc.cam.ac.uk/access/V1 
# 
# Audit and citation data items may have been added by the CCDC. 
# Please retain this information to preserve the provenance of 
# this file and to allow appropriate attribution of the data. 
# 
#######################################################################

data_3
_audit_block_doi                 10.5517/ccy9n51
_database_code_depnum_ccdc_archive 'CCDC 873213'
loop_
_citation_id
_citation_doi
_citation_year
1 10.1016/j.poly.2012.07.079 2012
_audit_update_record             
;
2012-03-26 deposited with the CCDC.	2024-07-09 downloaded from the CCDC.
;
#TrackingRef 'sunwy-SC.cif'


_audit_creation_method           SHELXL-97
_chemical_name_systematic        
;
?
;
_chemical_name_common            ?
_chemical_melting_point          ?
_chemical_formula_moiety         ?
_chemical_formula_sum            'C36 H40 Ag3 F18 N10 O5 Sb3'
_chemical_formula_weight         1723.64

loop_
_atom_type_symbol
_atom_type_description
_atom_type_scat_dispersion_real
_atom_type_scat_dispersion_imag
_atom_type_scat_source
C C 0.0033 0.0016 'International Tables Vol C Tables 4.2.6.8 and 6.1.1.4'
H H 0.0000 0.0000 'International Tables Vol C Tables 4.2.6.8 and 6.1.1.4'
N N 0.0061 0.0033 'International Tables Vol C Tables 4.2.6.8 and 6.1.1.4'
O O 0.0106 0.0060 'International Tables Vol C Tables 4.2.6.8 and 6.1.1.4'
F F 0.0171 0.0103 'International Tables Vol C Tables 4.2.6.8 and 6.1.1.4'
Ag Ag -0.8971 1.1015 'International Tables Vol C Tables 4.2.6.8 and 6.1.1.4'
Sb Sb -0.5866 1.5461 'International Tables Vol C Tables 4.2.6.8 and 6.1.1.4'

_symmetry_cell_setting           Orthorhombic
_symmetry_space_group_name_H-M   Pnma

loop_
_symmetry_equiv_pos_as_xyz
'x, y, z'
'-x+1/2, -y, z+1/2'
'-x, y+1/2, -z'
'x+1/2, -y+1/2, -z+1/2'
'-x, -y, -z'
'x-1/2, y, -z-1/2'
'x, -y-1/2, z'
'-x-1/2, y-1/2, z-1/2'

_cell_length_a                   16.3512(9)
_cell_length_b                   33.8821(19)
_cell_length_c                   10.7399(6)
_cell_angle_alpha                90.00
_cell_angle_beta                 90.00
_cell_angle_gamma                90.00
_cell_volume                     5950.0(6)
_cell_formula_units_Z            4
_cell_measurement_temperature    293(2)
_cell_measurement_reflns_used    3916
_cell_measurement_theta_min      2.27
_cell_measurement_theta_max      19.87

_exptl_crystal_description       ?
_exptl_crystal_colour            ?
_exptl_crystal_size_max          0.18
_exptl_crystal_size_mid          0.15
_exptl_crystal_size_min          0.11
_exptl_crystal_density_meas      ?
_exptl_crystal_density_diffrn    1.924
_exptl_crystal_density_method    'not measured'
_exptl_crystal_F_000             3288
_exptl_absorpt_coefficient_mu    2.411
_exptl_absorpt_correction_type   multi-scan
_exptl_absorpt_correction_T_min  0.6708
_exptl_absorpt_correction_T_max  0.7774
_exptl_absorpt_process_details   sadabs

_exptl_special_details           
;
?
;

_diffrn_ambient_temperature      293(2)
_diffrn_radiation_wavelength     0.71073
_diffrn_radiation_type           MoK\a
_diffrn_radiation_source         'fine-focus sealed tube'
_diffrn_radiation_monochromator  graphite
_diffrn_measurement_device_type  ?
_diffrn_measurement_method       ?
_diffrn_detector_area_resol_mean ?
_diffrn_standards_number         ?
_diffrn_standards_interval_count ?
_diffrn_standards_interval_time  ?
_diffrn_standards_decay_%        ?
_diffrn_reflns_number            28920
_diffrn_reflns_av_R_equivalents  0.0883
_diffrn_reflns_av_sigmaI/netI    0.0632
_diffrn_reflns_limit_h_min       -19
_diffrn_reflns_limit_h_max       19
_diffrn_reflns_limit_k_min       -27
_diffrn_reflns_limit_k_max       40
_diffrn_reflns_limit_l_min       -12
_diffrn_reflns_limit_l_max       12
_diffrn_reflns_theta_min         1.99
_diffrn_reflns_theta_max         25.01
_reflns_number_total             5343
_reflns_number_gt                2960
_reflns_threshold_expression     >2sigma(I)

_computing_data_collection       'Bruker SMART'
_computing_cell_refinement       'Bruker SMART'
_computing_data_reduction        'Bruker SAINT'
_computing_structure_solution    'SHELXS-97 (Sheldrick, 1990)'
_computing_structure_refinement  'SHELXL-97 (Sheldrick, 1997)'
_computing_molecular_graphics    'Bruker SHELXTL'
_computing_publication_material  'Bruker SHELXTL'

_refine_special_details          
;
Refinement of F^2^ against ALL reflections. The weighted R-factor wR and
goodness of fit S are based on F^2^, conventional R-factors R are based
on F, with F set to zero for negative F^2^. The threshold expression of
F^2^ > 2sigma(F^2^) is used only for calculating R-factors(gt) etc. and is
not relevant to the choice of reflections for refinement. R-factors based
on F^2^ are statistically about twice as large as those based on F, and R-
factors based on ALL data will be even larger.
;

_refine_ls_structure_factor_coef Fsqd
_refine_ls_matrix_type           full
_refine_ls_weighting_scheme      calc
_refine_ls_weighting_details     
'calc w=1/[\s^2^(Fo^2^)+(0.0980P)^2^+0.0000P] where P=(Fo^2^+2Fc^2^)/3'
_atom_sites_solution_primary     direct
_atom_sites_solution_secondary   difmap
_atom_sites_solution_hydrogens   geom
_refine_ls_hydrogen_treatment    constr
_refine_ls_extinction_method     none
_refine_ls_extinction_coef       ?
_refine_ls_number_reflns         5343
_refine_ls_number_parameters     353
_refine_ls_number_restraints     12
_refine_ls_R_factor_all          0.0933
_refine_ls_R_factor_gt           0.0566
_refine_ls_wR_factor_ref         0.1727
_refine_ls_wR_factor_gt          0.1573
_refine_ls_goodness_of_fit_ref   0.914
_refine_ls_restrained_S_all      0.915
_refine_ls_shift/su_max          0.000
_refine_ls_shift/su_mean         0.000

loop_
_atom_site_label
_atom_site_type_symbol
_atom_site_fract_x
_atom_site_fract_y
_atom_site_fract_z
_atom_site_U_iso_or_equiv
_atom_site_adp_type
_atom_site_occupancy
_atom_site_symmetry_multiplicity
_atom_site_calc_flag
_atom_site_refinement_flags
_atom_site_disorder_assembly
_atom_site_disorder_group
Ag1 Ag 0.12980(4) 0.05901(2) 0.36429(6) 0.0680(3) Uani 1 1 d . . .
Ag2 Ag -0.08833(8) 0.2500 0.39341(13) 0.1034(5) Uani 1 2 d S . .
C1 C -0.1234(6) 0.1691(3) 0.2707(10) 0.084(3) Uani 1 1 d . . .
H1 H -0.1512 0.1848 0.2137 0.101 Uiso 1 1 calc R . .
C2 C -0.1202(5) 0.1292(3) 0.2498(8) 0.065(2) Uani 1 1 d . . .
H2 H -0.1461 0.1182 0.1811 0.078 Uiso 1 1 calc R . .
C3 C -0.0784(5) 0.1061(3) 0.3317(7) 0.056(2) Uani 1 1 d . . .
C4 C -0.0430(5) 0.1244(3) 0.4370(8) 0.064(2) Uani 1 1 d . . .
H4 H -0.0142 0.1095 0.4949 0.076 Uiso 1 1 calc R . .
C5 C -0.0513(5) 0.1637(3) 0.4529(10) 0.077(3) Uani 1 1 d . . .
H5 H -0.0303 0.1752 0.5247 0.092 Uiso 1 1 calc R . .
C6 C -0.0688(5) 0.0638(2) 0.3126(8) 0.055(2) Uani 1 1 d . . .
C7 C -0.1040(5) 0.0062(3) 0.2265(10) 0.090(3) Uani 1 1 d . . .
H7A H -0.0891 0.0021 0.1400 0.108 Uiso 1 1 calc R . .
H7B H -0.1468 -0.0123 0.2488 0.108 Uiso 1 1 calc R . .
C8 C -0.0304(5) 0.0017(3) 0.3109(10) 0.080(3) Uani 1 1 d . . .
H8A H -0.0436 -0.0144 0.3828 0.096 Uiso 1 1 calc R . .
H8B H 0.0150 -0.0103 0.2666 0.096 Uiso 1 1 calc R . .
C9 C 0.3171(5) 0.0317(3) -0.1071(8) 0.068(2) Uani 1 1 d . . .
H9 H 0.3542 0.0344 -0.1722 0.081 Uiso 1 1 calc R . .
C10 C 0.2834(4) 0.0660(2) -0.0553(8) 0.059(2) Uani 1 1 d . . .
H10 H 0.2991 0.0907 -0.0839 0.071 Uiso 1 1 calc R . .
C11 C 0.2272(4) 0.0623(2) 0.0378(7) 0.0507(19) Uani 1 1 d . . .
C12 C 0.2051(5) 0.0248(2) 0.0773(8) 0.061(2) Uani 1 1 d . . .
H12 H 0.1666 0.0212 0.1400 0.073 Uiso 1 1 calc R . .
C13 C 0.2425(5) -0.0073(2) 0.0199(8) 0.065(2) Uani 1 1 d . . .
H13 H 0.2270 -0.0325 0.0447 0.078 Uiso 1 1 calc R . .
C14 C 0.1927(5) 0.0976(2) 0.0960(8) 0.057(2) Uani 1 1 d . . .
C15 C 0.1658(6) 0.1626(3) 0.1070(9) 0.079(3) Uani 1 1 d . . .
H15A H 0.1221 0.1754 0.0613 0.095 Uiso 1 1 calc R . .
H15B H 0.2061 0.1822 0.1305 0.095 Uiso 1 1 calc R . .
C16 C 0.1327(6) 0.1414(2) 0.2209(9) 0.081(3) Uani 1 1 d . . .
H16A H 0.1574 0.1517 0.2964 0.097 Uiso 1 1 calc R . .
H16B H 0.0738 0.1444 0.2265 0.097 Uiso 1 1 calc R . .
C17 C 0.1976(6) 0.1512(3) 0.7034(9) 0.093(3) Uani 1 1 d . . .
H17A H 0.1520 0.1683 0.7195 0.140 Uiso 1 1 calc R . .
H17B H 0.2430 0.1665 0.6736 0.140 Uiso 1 1 calc R . .
H17C H 0.2128 0.1379 0.7789 0.140 Uiso 1 1 calc R . .
C18 C 0.1743(6) 0.1217(3) 0.6083(10) 0.078(3) Uani 1 1 d . . .
F1 F 0.2479(7) 0.2067(4) 0.4292(13) 0.292(8) Uani 1 1 d . . .
F2 F 0.2156(18) 0.2500 0.2644(13) 0.346(15) Uani 1 2 d S . .
F3 F 0.1048(9) 0.2133(4) 0.4216(15) 0.307(8) Uani 1 1 d . . .
F4 F 0.1867(18) 0.2500 0.5932(12) 0.332(15) Uani 1 2 d S . .
F5 F -0.0159(6) 0.8496(2) 0.1179(12) 0.234(6) Uani 1 1 d . . .
F6 F 0.0655(8) 0.8917(5) 0.2759(9) 0.302(9) Uani 1 1 d . . .
F7 F -0.0634(5) 0.9195(2) 0.1637(9) 0.164(3) Uani 1 1 d . . .
F8 F 0.0835(6) 0.9470(3) 0.1175(9) 0.190(4) Uani 1 1 d . . .
F9 F 0.0055(5) 0.9059(3) -0.0481(8) 0.205(5) Uani 1 1 d . . .
F10 F 0.1302(5) 0.8757(4) 0.0530(10) 0.227(5) Uani 1 1 d . . .
N1 N -0.0884(5) 0.1868(2) 0.3696(9) 0.078(2) Uani 1 1 d . . .
N2 N -0.0102(4) 0.0422(2) 0.3486(6) 0.0618(18) Uani 1 1 d . . .
N3 N 0.1589(6) 0.0986(3) 0.5354(9) 0.102(3) Uani 1 1 d . . .
N4 N 0.1556(4) 0.09945(19) 0.2015(6) 0.0604(17) Uani 1 1 d . . .
N5 N 0.2991(4) -0.0040(2) -0.0682(6) 0.0585(17) Uani 1 1 d . . .
O1 O -0.1299(3) 0.04636(18) 0.2477(6) 0.0769(18) Uani 1 1 d . . .
O2 O 0.2027(4) 0.13155(16) 0.0336(5) 0.0699(16) Uani 1 1 d . . .
O3 O 0.8969(12) 0.2500 0.6515(16) 0.176(6) Uani 0.90 2 d SPU . .
O3' O 0.751(3) 0.2500 0.587(5) 0.032(13) Uani 0.10 2 d SPU . .
Sb1 Sb 0.18154(6) 0.2500 0.42725(10) 0.0840(3) Uani 1 2 d S . .
Sb2 Sb 0.03476(4) 0.89628(3) 0.11689(7) 0.0916(3) Uani 1 1 d . . .

loop_
_atom_site_aniso_label
_atom_site_aniso_U_11
_atom_site_aniso_U_22
_atom_site_aniso_U_33
_atom_site_aniso_U_23
_atom_site_aniso_U_13
_atom_site_aniso_U_12
Ag1 0.0752(5) 0.0688(5) 0.0601(5) 0.0020(3) -0.0073(3) 0.0017(4)
Ag2 0.1069(9) 0.0625(7) 0.1407(12) 0.000 0.0272(8) 0.000
C1 0.072(7) 0.101(8) 0.079(7) 0.016(6) 0.000(6) 0.019(6)
C2 0.064(5) 0.073(6) 0.058(6) 0.003(5) 0.003(4) 0.005(5)
C3 0.045(4) 0.079(6) 0.044(5) -0.004(4) 0.012(4) 0.002(4)
C4 0.066(5) 0.063(6) 0.061(6) 0.002(5) 0.009(4) 0.002(4)
C5 0.079(6) 0.072(7) 0.078(7) -0.001(5) -0.009(5) -0.003(5)
C6 0.046(5) 0.066(6) 0.052(5) -0.008(4) 0.004(4) 0.000(4)
C7 0.062(6) 0.092(8) 0.116(9) -0.036(6) -0.010(6) -0.003(6)
C8 0.081(6) 0.057(6) 0.101(8) -0.011(5) -0.011(6) 0.003(5)
C9 0.065(6) 0.074(6) 0.065(6) 0.006(5) 0.015(4) 0.005(5)
C10 0.056(5) 0.058(5) 0.063(6) 0.013(4) 0.011(4) -0.006(4)
C11 0.053(5) 0.057(5) 0.042(4) -0.002(4) -0.004(4) 0.005(4)
C12 0.064(5) 0.061(5) 0.057(5) -0.001(4) 0.017(4) 0.001(4)
C13 0.066(5) 0.060(5) 0.068(6) 0.002(4) 0.008(5) -0.011(5)
C14 0.052(5) 0.064(6) 0.055(5) 0.002(4) -0.006(4) -0.009(4)
C15 0.100(7) 0.058(6) 0.079(7) -0.002(5) 0.002(6) 0.004(5)
C16 0.105(7) 0.061(6) 0.076(7) -0.009(5) 0.011(6) 0.013(5)
C17 0.122(8) 0.090(7) 0.067(7) -0.011(6) -0.009(6) -0.006(6)
C18 0.084(7) 0.084(7) 0.066(7) 0.011(6) 0.002(5) 0.016(6)
F1 0.290(14) 0.307(14) 0.279(15) 0.100(12) 0.087(12) 0.181(13)
F2 0.75(5) 0.205(16) 0.086(10) 0.000 0.036(18) 0.000
F3 0.338(16) 0.209(11) 0.37(2) -0.064(12) 0.039(13) -0.161(12)
F4 0.74(5) 0.179(14) 0.079(9) 0.000 -0.050(16) 0.000
F5 0.192(9) 0.100(6) 0.41(2) -0.035(8) -0.066(9) -0.025(6)
F6 0.318(14) 0.51(2) 0.079(6) 0.053(9) -0.049(8) -0.227(15)
F7 0.140(6) 0.135(6) 0.217(9) -0.036(6) 0.071(6) -0.022(5)
F8 0.176(8) 0.212(10) 0.182(9) -0.016(6) 0.036(6) -0.113(7)
F9 0.158(7) 0.362(14) 0.096(6) -0.033(7) -0.029(6) 0.035(9)
F10 0.128(6) 0.396(16) 0.158(9) -0.050(10) -0.006(6) 0.109(8)
N1 0.076(5) 0.062(5) 0.097(7) 0.002(5) 0.018(5) 0.008(4)
N2 0.058(4) 0.064(5) 0.064(5) -0.003(4) -0.005(4) -0.002(4)
N3 0.111(7) 0.120(8) 0.075(6) -0.040(6) -0.017(5) 0.005(6)
N4 0.069(4) 0.062(4) 0.051(4) 0.000(3) 0.003(4) 0.002(4)
N5 0.056(4) 0.064(5) 0.056(4) -0.004(4) -0.010(3) 0.004(4)
O1 0.053(3) 0.083(4) 0.095(5) -0.015(4) -0.011(3) 0.002(3)
O2 0.091(4) 0.057(4) 0.061(4) 0.007(3) 0.014(3) 0.003(3)
O3 0.210(10) 0.149(9) 0.170(10) 0.000 0.025(8) 0.000
O3' 0.029(15) 0.036(16) 0.030(16) 0.000 0.008(10) 0.000
Sb1 0.1055(8) 0.0661(6) 0.0802(7) 0.000 0.0119(6) 0.000
Sb2 0.0756(5) 0.1238(7) 0.0753(5) -0.0323(4) -0.0002(4) -0.0191(4)

_geom_special_details            
;
All esds (except the esd in the dihedral angle between two l.s. planes)
are estimated using the full covariance matrix. The cell esds are taken
into account individually in the estimation of esds in distances, angles
and torsion angles; correlations between esds in cell parameters are only
used when they are defined by crystal symmetry. An approximate (isotropic)
treatment of cell esds is used for estimating esds involving l.s. planes.
;

loop_
_geom_bond_atom_site_label_1
_geom_bond_atom_site_label_2
_geom_bond_distance
_geom_bond_site_symmetry_2
_geom_bond_publ_flag
Ag1 N4 2.261(7) . ?
Ag1 N5 2.313(7) 2 ?
Ag1 N3 2.325(9) . ?
Ag1 N2 2.365(7) . ?
Ag2 N1 2.158(8) 7_565 ?
Ag2 N1 2.158(8) . ?
C1 N1 1.346(12) . ?
C1 C2 1.372(13) . ?
C1 H1 0.9300 . ?
C2 C3 1.363(11) . ?
C2 H2 0.9300 . ?
C3 C4 1.414(11) . ?
C3 C6 1.457(11) . ?
C4 C5 1.349(12) . ?
C4 H4 0.9300 . ?
C5 N1 1.334(12) . ?
C5 H5 0.9300 . ?
C6 N2 1.266(10) . ?
C6 O1 1.353(9) . ?
C7 O1 1.443(10) . ?
C7 C8 1.515(12) . ?
C7 H7A 0.9700 . ?
C7 H7B 0.9700 . ?
C8 N2 1.468(10) . ?
C8 H8A 0.9700 . ?
C8 H8B 0.9700 . ?
C9 N5 1.315(10) . ?
C9 C10 1.399(11) . ?
C9 H9 0.9300 . ?
C10 C11 1.364(10) . ?
C10 H10 0.9300 . ?
C11 C12 1.389(10) . ?
C11 C14 1.462(11) . ?
C12 C13 1.390(11) . ?
C12 H12 0.9300 . ?
C13 N5 1.328(10) . ?
C13 H13 0.9300 . ?
C14 N4 1.287(10) . ?
C14 O2 1.342(9) . ?
C15 O2 1.446(10) . ?
C15 C16 1.517(12) . ?
C15 H15A 0.9700 . ?
C15 H15B 0.9700 . ?
C16 N4 1.485(10) . ?
C16 H16A 0.9700 . ?
C16 H16B 0.9700 . ?
C17 C18 1.479(14) . ?
C17 H17A 0.9600 . ?
C17 H17B 0.9600 . ?
C17 H17C 0.9600 . ?
C18 N3 1.134(12) . ?
F1 Sb1 1.825(10) . ?
F2 Sb1 1.836(15) . ?
F3 Sb1 1.768(10) . ?
F4 Sb1 1.784(13) . ?
F5 Sb2 1.786(8) . ?
F6 Sb2 1.787(9) . ?
F7 Sb2 1.857(8) . ?
F8 Sb2 1.895(8) . ?
F9 Sb2 1.864(9) . ?
F10 Sb2 1.841(8) . ?
N5 Ag1 2.313(7) 2_554 ?
Sb1 F3 1.768(10) 7_565 ?
Sb1 F1 1.825(10) 7_565 ?

loop_
_geom_angle_atom_site_label_1
_geom_angle_atom_site_label_2
_geom_angle_atom_site_label_3
_geom_angle
_geom_angle_site_symmetry_1
_geom_angle_site_symmetry_3
_geom_angle_publ_flag
N4 Ag1 N5 129.6(2) . 2 ?
N4 Ag1 N3 102.9(3) . . ?
N5 Ag1 N3 96.6(3) 2 . ?
N4 Ag1 N2 105.8(2) . . ?
N5 Ag1 N2 108.3(2) 2 . ?
N3 Ag1 N2 113.2(3) . . ?
N1 Ag2 N1 166.4(5) 7_565 . ?
N1 C1 C2 123.4(9) . . ?
N1 C1 H1 118.3 . . ?
C2 C1 H1 118.3 . . ?
C3 C2 C1 118.7(9) . . ?
C3 C2 H2 120.6 . . ?
C1 C2 H2 120.6 . . ?
C2 C3 C4 117.9(8) . . ?
C2 C3 C6 122.0(8) . . ?
C4 C3 C6 120.1(8) . . ?
C5 C4 C3 119.6(9) . . ?
C5 C4 H4 120.2 . . ?
C3 C4 H4 120.2 . . ?
N1 C5 C4 122.6(9) . . ?
N1 C5 H5 118.7 . . ?
C4 C5 H5 118.7 . . ?
N2 C6 O1 117.7(7) . . ?
N2 C6 C3 127.4(8) . . ?
O1 C6 C3 114.9(7) . . ?
O1 C7 C8 103.5(7) . . ?
O1 C7 H7A 111.1 . . ?
C8 C7 H7A 111.1 . . ?
O1 C7 H7B 111.1 . . ?
C8 C7 H7B 111.1 . . ?
H7A C7 H7B 109.0 . . ?
N2 C8 C7 104.4(7) . . ?
N2 C8 H8A 110.9 . . ?
C7 C8 H8A 110.9 . . ?
N2 C8 H8B 110.9 . . ?
C7 C8 H8B 110.9 . . ?
H8A C8 H8B 108.9 . . ?
N5 C9 C10 123.3(8) . . ?
N5 C9 H9 118.3 . . ?
C10 C9 H9 118.3 . . ?
C11 C10 C9 118.8(7) . . ?
C11 C10 H10 120.6 . . ?
C9 C10 H10 120.6 . . ?
C10 C11 C12 118.8(7) . . ?
C10 C11 C14 120.0(7) . . ?
C12 C11 C14 121.2(7) . . ?
C11 C12 C13 117.8(7) . . ?
C11 C12 H12 121.1 . . ?
C13 C12 H12 121.1 . . ?
N5 C13 C12 123.9(8) . . ?
N5 C13 H13 118.1 . . ?
C12 C13 H13 118.1 . . ?
N4 C14 O2 117.1(7) . . ?
N4 C14 C11 126.8(8) . . ?
O2 C14 C11 116.1(7) . . ?
O2 C15 C16 104.2(7) . . ?
O2 C15 H15A 110.9 . . ?
C16 C15 H15A 110.9 . . ?
O2 C15 H15B 110.9 . . ?
C16 C15 H15B 110.9 . . ?
H15A C15 H15B 108.9 . . ?
N4 C16 C15 104.5(7) . . ?
N4 C16 H16A 110.9 . . ?
C15 C16 H16A 110.9 . . ?
N4 C16 H16B 110.9 . . ?
C15 C16 H16B 110.9 . . ?
H16A C16 H16B 108.9 . . ?
C18 C17 H17A 109.5 . . ?
C18 C17 H17B 109.5 . . ?
H17A C17 H17B 109.5 . . ?
C18 C17 H17C 109.5 . . ?
H17A C17 H17C 109.5 . . ?
H17B C17 H17C 109.5 . . ?
N3 C18 C17 177.9(11) . . ?
C5 N1 C1 117.5(8) . . ?
C5 N1 Ag2 120.1(7) . . ?
C1 N1 Ag2 122.3(7) . . ?
C6 N2 C8 106.6(7) . . ?
C6 N2 Ag1 127.9(6) . . ?
C8 N2 Ag1 117.6(5) . . ?
C18 N3 Ag1 171.3(10) . . ?
C14 N4 C16 106.8(7) . . ?
C14 N4 Ag1 137.6(6) . . ?
C16 N4 Ag1 115.2(5) . . ?
C9 N5 C13 117.3(7) . . ?
C9 N5 Ag1 122.0(6) . 2_554 ?
C13 N5 Ag1 120.5(6) . 2_554 ?
C6 O1 C7 106.0(6) . . ?
C14 O2 C15 107.4(6) . . ?
F3 Sb1 F3 89.5(11) 7_565 . ?
F3 Sb1 F4 93.9(9) 7_565 . ?
F3 Sb1 F4 93.9(9) . . ?
F3 Sb1 F1 81.8(7) 7_565 7_565 ?
F3 Sb1 F1 171.2(8) . 7_565 ?
F4 Sb1 F1 87.7(7) . 7_565 ?
F3 Sb1 F1 171.2(8) 7_565 . ?
F3 Sb1 F1 81.8(7) . . ?
F4 Sb1 F1 87.7(7) . . ?
F1 Sb1 F1 107.0(10) 7_565 . ?
F3 Sb1 F2 100.6(8) 7_565 . ?
F3 Sb1 F2 100.6(8) . . ?
F4 Sb1 F2 159.6(12) . . ?
F1 Sb1 F2 80.2(7) 7_565 . ?
F1 Sb1 F2 80.2(7) . . ?
F5 Sb2 F6 92.7(6) . . ?
F5 Sb2 F10 93.4(5) . . ?
F6 Sb2 F10 94.9(6) . . ?
F5 Sb2 F7 88.4(4) . . ?
F6 Sb2 F7 91.2(7) . . ?
F10 Sb2 F7 173.6(5) . . ?
F5 Sb2 F9 92.4(5) . . ?
F6 Sb2 F9 174.8(6) . . ?
F10 Sb2 F9 86.0(4) . . ?
F7 Sb2 F9 87.8(4) . . ?
F5 Sb2 F8 177.2(5) . . ?
F6 Sb2 F8 87.6(5) . . ?
F10 Sb2 F8 89.3(5) . . ?
F7 Sb2 F8 88.8(4) . . ?
F9 Sb2 F8 87.3(5) . . ?

loop_
_geom_tor