####################################################################### 
# 
# This file contains crystal structure data downloaded from the 
# Cambridge Structural Database (CSD) hosted by the Cambridge 
# Crystallographic Data Centre (CCDC).
# 
# Full information about CCDC data access policies and citation 
# guidelines are available at http://www.ccdc.cam.ac.uk/access/V1 
# 
# Audit and citation data items may have been added by the CCDC. 
# Please retain this information to preserve the provenance of 
# this file and to allow appropriate attribution of the data. 
# 
#######################################################################

data_c:\frames
_audit_block_doi                 10.5517/ccxzvf4
_database_code_depnum_ccdc_archive 'CCDC 863797'
loop_
_citation_id
_citation_doi
_citation_year
1 10.1002/anie.201200758 2012
_audit_update_record             
;
2012-01-20 deposited with the CCDC.	2024-07-09 downloaded from the CCDC.
;

_audit_creation_method           SHELXL-97
_chemical_name_systematic        
;
[{bis(pyridin-4-yl)-2,2?-bipyridine-5,5?-dicarboxamide}isophthalate zinc copper] dimethyl formamide clathrate
;
_chemical_name_common            ?
_chemical_melting_point          ?
_chemical_formula_moiety         'C30 H20 Cu0.33 N6 O6 Zn'
_chemical_formula_sum            'C30 H20 Cu0.33 N6 O6 Zn'
_chemical_formula_weight         646.97

loop_
_atom_type_symbol
_atom_type_description
_atom_type_scat_dispersion_real
_atom_type_scat_dispersion_imag
_atom_type_scat_source
C C 0.0033 0.0016 'International Tables Vol C Tables 4.2.6.8 and 6.1.1.4'
H H 0.0000 0.0000 'International Tables Vol C Tables 4.2.6.8 and 6.1.1.4'
N N 0.0061 0.0033 'International Tables Vol C Tables 4.2.6.8 and 6.1.1.4'
O O 0.0106 0.0060 'International Tables Vol C Tables 4.2.6.8 and 6.1.1.4'
Cu Cu 0.3201 1.2651 'International Tables Vol C Tables 4.2.6.8 and 6.1.1.4'
Zn Zn 0.2839 1.4301 'International Tables Vol C Tables 4.2.6.8 and 6.1.1.4'

_symmetry_cell_setting           hexagonal
_symmetry_space_group_name_Hall  'P 64 2c'
_symmetry_space_group_name_H-M   'P 64 2 2'

loop_
_symmetry_equiv_pos_as_xyz
'x, y, z'
'x-y, x, z+2/3'
'-y, x-y, z+1/3'
'-x, -y, z'
'-x+y, -x, z+2/3'
'y, -x+y, z+1/3'
'x-y, -y, -z'
'-x, -x+y, -z+2/3'
'y, x, -z+1/3'
'-y, -x, -z+1/3'
'-x+y, y, -z'
'x, x-y, -z+2/3'

_cell_length_a                   16.314(3)
_cell_length_b                   16.314(3)
_cell_length_c                   25.510(7)
_cell_angle_alpha                90.00
_cell_angle_beta                 90.00
_cell_angle_gamma                120.00
_cell_volume                     5880(2)
_cell_formula_units_Z            6
_cell_measurement_temperature    150(2)
_cell_measurement_reflns_used    7509
_cell_measurement_theta_min      2.54
_cell_measurement_theta_max      23.4

_exptl_crystal_description       hexagon
_exptl_crystal_colour            brown
_exptl_crystal_size_max          0.10
_exptl_crystal_size_mid          0.10
_exptl_crystal_size_min          0.08
_exptl_crystal_density_meas      ?
_exptl_crystal_density_diffrn    1.096
_exptl_crystal_density_method    'not measured'
_exptl_crystal_F_000             1978
_exptl_absorpt_coefficient_mu    0.772
_exptl_absorpt_correction_type   multi-scan
_exptl_absorpt_correction_T_min  0.9206
_exptl_absorpt_correction_T_max  0.9357
_exptl_absorpt_process_details   'SADABS (Bruker, 2009)'

_exptl_special_details           
;
?
;

_diffrn_ambient_temperature      150(2)
_diffrn_radiation_wavelength     0.68890
_diffrn_radiation_type           Synchrotron
_diffrn_source                   Synchrotron
_diffrn_radiation_monochromator  Synchrotron
_diffrn_detector                 CCD
_diffrn_measurement_device       
;
CrystalLogic Kappa (3 circle)
;
_diffrn_measurement_device_type  
;
Rigaku Saturn724+ (2x2 bin mode)
;
_diffrn_measurement_method       \w-scans
_diffrn_detector_area_resol_mean ?
_diffrn_reflns_number            46050
_diffrn_reflns_av_R_equivalents  0.0618
_diffrn_reflns_av_sigmaI/netI    0.0304
_diffrn_reflns_limit_h_min       -19
_diffrn_reflns_limit_h_max       19
_diffrn_reflns_limit_k_min       -19
_diffrn_reflns_limit_k_max       19
_diffrn_reflns_limit_l_min       -21
_diffrn_reflns_limit_l_max       29
_diffrn_reflns_theta_min         2.08
_diffrn_reflns_theta_max         24.38
_reflns_number_total             3498
_reflns_number_gt                3126
_reflns_threshold_expression     >2sigma(I)

_computing_data_collection       
;
CrystalClear-SM Expert 2.0 r5 (Rigaku, 2010)
;
_computing_cell_refinement       
;
CrystalClear-SM Expert 2.0 r5 (Rigaku, 2010)
;
_computing_data_reduction        SAINT
_computing_structure_solution    'SHELXS-97 (Sheldrick, 2008)'
_computing_structure_refinement  'SHELXL-97 (Sheldrick, 2008)'
_computing_molecular_graphics    'X-Seed (Barbour 2001)'
_computing_publication_material  'X-Seed (Barbour 2001)'

_refine_special_details          
;
Refinement of F^2^ against ALL reflections. The weighted R-factor wR and
goodness of fit S are based on F^2^, conventional R-factors R are based
on F, with F set to zero for negative F^2^. The threshold expression of
F^2^ > 2sigma(F^2^) is used only for calculating R-factors(gt) etc. and is
not relevant to the choice of reflections for refinement. R-factors based
on F^2^ are statistically about twice as large as those based on F, and R-
factors based on ALL data will be even larger.
Restraints were employed on some anisotropic displacement parameters and
some aryl rings were restrained to be flat, some inter-atomic
distances were reatrained to be the same.
;

_refine_ls_structure_factor_coef Fsqd
_refine_ls_matrix_type           full
_refine_ls_weighting_scheme      calc
_refine_ls_weighting_details     
'calc w=1/[\s^2^(Fo^2^)+(0.0924P)^2^+3.8065P] where P=(Fo^2^+2Fc^2^)/3'
_atom_sites_solution_primary     direct
_atom_sites_solution_secondary   difmap
_atom_sites_solution_hydrogens   geom
_refine_ls_hydrogen_treatment    constr
_refine_ls_extinction_method     none
_refine_ls_extinction_coef       ?
_refine_ls_abs_structure_details 'Flack H D (1983), Acta Cryst. A39, 876-881'
_refine_ls_abs_structure_Flack   0.00(3)
_refine_ls_number_reflns         3498
_refine_ls_number_parameters     201
_refine_ls_number_restraints     28
_refine_ls_R_factor_all          0.0667
_refine_ls_R_factor_gt           0.0596
_refine_ls_wR_factor_ref         0.1674
_refine_ls_wR_factor_gt          0.1632
_refine_ls_goodness_of_fit_ref   1.091
_refine_ls_restrained_S_all      1.105
_refine_ls_shift/su_max          0.000
_refine_ls_shift/su_mean         0.000

loop_
_atom_site_label
_atom_site_type_symbol
_atom_site_fract_x
_atom_site_fract_y
_atom_site_fract_z
_atom_site_U_iso_or_equiv
_atom_site_adp_type
_atom_site_occupancy
_atom_site_symmetry_multiplicity
_atom_site_calc_flag
_atom_site_refinement_flags
_atom_site_disorder_assembly
_atom_site_disorder_group
Zn1 Zn 0.29179(3) 0.58358(5) 0.0000 0.0584(3) Uani 1 2 d S . .
Cu2 Cu 0.5000 0.0000 0.0000 0.0664(5) Uani 0.66 4 d SP . .
N2 N 0.3416(3) 0.4929(3) 0.01804(16) 0.0586(10) Uani 1 1 d . . .
C3 C 0.3597(5) 0.4469(5) -0.0171(2) 0.0843(18) Uani 1 1 d . . .
H3 H 0.3503 0.4558 -0.0530 0.101 Uiso 1 1 calc R . .
C4 C 0.3925(5) 0.3848(5) -0.0048(2) 0.0891(18) Uani 1 1 d . . .
H4 H 0.4098 0.3564 -0.0319 0.107 Uiso 1 1 calc R . .
C5 C 0.3992(4) 0.3656(4) 0.0456(2) 0.0612(12) Uani 1 1 d . . .
C6 C 0.3826(5) 0.4154(5) 0.0834(2) 0.0745(15) Uani 1 1 d . . .
H6 H 0.3914 0.4074 0.1194 0.089 Uiso 1 1 calc R . .
C7 C 0.3528(4) 0.4774(4) 0.0678(2) 0.0685(15) Uani 1 1 d . . .
H7 H 0.3397 0.5106 0.0941 0.082 Uiso 1 1 calc R . .
N8 N 0.4275(3) 0.2994(3) 0.05664(16) 0.0661(11) Uani 1 1 d . . .
H8 H 0.4414 0.2755 0.0294 0.079 Uiso 1 1 calc R . .
C9 C 0.4360(5) 0.2678(4) 0.1039(2) 0.0818(19) Uani 1 1 d . . .
O10 O 0.4183(7) 0.2916(6) 0.1438(2) 0.176(4) Uani 1 1 d . . .
C11 C 0.4571(4) 0.1886(4) 0.1041(2) 0.0693(14) Uani 1 1 d . . .
C12 C 0.4684(6) 0.1543(5) 0.1515(2) 0.099(3) Uani 1 1 d . . .
H12 H 0.4653 0.1838 0.1829 0.119 Uiso 1 1 calc R . .
C13 C 0.4836(6) 0.0813(4) 0.1546(2) 0.0822(18) Uani 1 1 d . . .
H13 H 0.4885 0.0574 0.1877 0.099 Uiso 1 1 calc R . .
N14 N 0.4832(4) 0.0715(4) 0.06211(19) 0.0809(13) Uani 1 1 d . . .
C14 C 0.4924(4) 0.0406(3) 0.10794(19) 0.0573(11) Uani 1 1 d . . .
C15 C 0.4667(5) 0.1447(5) 0.0596(2) 0.084(2) Uani 1 1 d . . .
H15 H 0.4614 0.1671 0.0262 0.101 Uiso 1 1 calc R . .
O16 O 0.2945(3) 0.6292(3) 0.07207(15) 0.0784(11) Uani 1 1 d . . .
O17 O 0.2384(4) 0.7046(3) 0.0285(2) 0.123(2) Uani 1 1 d . . .
C18 C 0.2651(5) 0.6855(4) 0.0690(3) 0.0858(19) Uani 1 1 d . . .
C19 C 0.2876(2) 0.7124(2) 0.1667 0.092(3) Uani 1 2 d SDU . .
H19 H 0.3212 0.6788 0.1667 0.110 Uiso 1 2 calc SR . .
C20 C 0.2511(7) 0.7244(6) 0.1204(3) 0.130(3) Uani 1 1 d DU . .
C21 C 0.2035(10) 0.7732(9) 0.1201(4) 0.246(7) Uani 1 1 d DU . .
H21 H 0.1790 0.7828 0.0884 0.295 Uiso 1 1 calc R . .
C22 C 0.1917(4) 0.8083(4) 0.1667 0.300(11) Uani 1 2 d SDU . .
H22 H 0.1580 0.8420 0.1667 0.359 Uiso 1 2 calc SR . .

loop_
_atom_site_aniso_label
_atom_site_aniso_U_11
_atom_site_aniso_U_22
_atom_site_aniso_U_33
_atom_site_aniso_U_23
_atom_site_aniso_U_13
_atom_site_aniso_U_12
Zn1 0.0577(3) 0.0574(4) 0.0599(5) 0.000 -0.0142(3) 0.0287(2)
Cu2 0.0738(9) 0.0629(10) 0.0589(11) 0.000 0.000 0.0315(5)
N2 0.054(2) 0.062(2) 0.063(3) 0.0064(19) -0.0034(18) 0.0313(19)
C3 0.127(5) 0.100(4) 0.055(3) -0.002(3) -0.005(3) 0.078(4)
C4 0.141(6) 0.097(4) 0.060(4) 0.002(3) 0.009(4) 0.082(4)
C5 0.064(3) 0.059(3) 0.068(3) 0.007(2) 0.013(2) 0.036(2)
C6 0.105(4) 0.094(4) 0.057(3) 0.003(3) 0.006(3) 0.074(4)
C7 0.084(4) 0.076(3) 0.068(4) 0.016(3) 0.017(3) 0.057(3)
N8 0.092(3) 0.071(3) 0.055(2) 0.007(2) 0.015(2) 0.056(3)
C9 0.138(6) 0.083(4) 0.065(4) 0.008(3) 0.021(3) 0.086(4)
O10 0.387(13) 0.216(7) 0.072(3) 0.004(4) 0.016(5) 0.261(9)
C11 0.090(4) 0.071(3) 0.066(3) 0.007(3) 0.015(3) 0.055(3)
C12 0.187(8) 0.096(4) 0.061(4) 0.005(3) 0.017(4) 0.105(5)
C13 0.152(6) 0.081(3) 0.047(3) 0.001(2) 0.008(3) 0.083(4)
N14 0.120(4) 0.089(3) 0.062(3) 0.005(2) 0.007(3) 0.074(3)
C14 0.074(3) 0.055(2) 0.051(3) 0.006(2) 0.006(2) 0.038(2)
C15 0.146(6) 0.097(4) 0.056(3) -0.007(3) -0.006(3) 0.097(5)
O16 0.098(3) 0.080(2) 0.065(2) -0.0214(18) -0.0286(19) 0.051(2)
O17 0.161(5) 0.081(3) 0.110(4) -0.006(3) -0.082(4) 0.047(3)
C18 0.105(4) 0.068(3) 0.087(4) -0.018(3) -0.052(4) 0.044(3)
C19 0.104(5) 0.104(5) 0.109(6) -0.066(5) -0.066(5) 0.084(5)
C20 0.197(8) 0.142(6) 0.131(6) -0.070(5) -0.103(6) 0.143(7)
C21 0.402(16) 0.281(12) 0.242(11) -0.175(10) -0.225(12) 0.311(13)
C22 0.43(2) 0.43(2) 0.289(17) -0.241(17) -0.241(17) 0.41(2)

_geom_special_details            
;
All esds (except the esd in the dihedral angle between two l.s. planes)
are estimated using the full covariance matrix. The cell esds are taken
into account individually in the estimation of esds in distances, angles
and torsion angles; correlations between esds in cell parameters are only
used when they are defined by crystal symmetry. An approximate (isotropic)
treatment of cell esds is used for estimating esds involving l.s. planes.
;

loop_
_geom_bond_atom_site_label_1
_geom_bond_atom_site_label_2
_geom_bond_distance
_geom_bond_site_symmetry_2
_geom_bond_publ_flag
Zn1 O16 1.975(4) 11 ?
Zn1 O16 1.975(4) . ?
Zn1 N2 2.066(4) . ?
Zn1 N2 2.066(4) 11 ?
Cu2 N14 2.066(5) . ?
Cu2 N14 2.066(5) 7 ?
Cu2 N14 2.066(5) 11_655 ?
Cu2 N14 2.066(5) 4_655 ?
N2 C3 1.295(7) . ?
N2 C7 1.325(6) . ?
C3 C4 1.397(9) . ?
C3 H3 0.9500 . ?
C4 C5 1.342(8) . ?
C4 H4 0.9500 . ?
C5 C6 1.371(7) . ?
C5 N8 1.399(6) . ?
C6 C7 1.382(7) . ?
C6 H6 0.9500 . ?
C7 H7 0.9500 . ?
N8 C9 1.346(7) . ?
N8 H8 0.8800 . ?
C9 O10 1.174(7) . ?
C9 C11 1.495(7) . ?
C11 C12 1.382(8) . ?
C11 C15 1.391(7) . ?
C12 C13 1.336(7) . ?
C12 H12 0.9500 . ?
C13 C14 1.405(7) . ?
C13 H13 0.9500 . ?
N14 C14 1.311(7) . ?
N14 C15 1.350(7) . ?
C14 C14 1.464(9) 4_655 ?
C15 H15 0.9500 . ?
O16 C18 1.234(7) . ?
O17 C18 1.220(7) . ?
C18 C20 1.521(10) . ?
C19 C20 1.379(7) 10_665 ?
C19 C20 1.379(7) . ?
C19 H19 0.9500 . ?
C20 C21 1.362(8) . ?
C21 C22 1.374(10) . ?
C21 H21 0.9500 . ?
C22 C21 1.374(10) 10_665 ?
C22 H22 0.9500 . ?

loop_
_geom_angle_atom_site_label_1
_geom_angle_atom_site_label_2
_geom_angle_atom_site_label_3
_geom_angle
_geom_angle_site_symmetry_1
_geom_angle_site_symmetry_3
_geom_angle_publ_flag
O16 Zn1 O16 141.9(2) 11 . ?
O16 Zn1 N2 106.55(17) 11 . ?
O16 Zn1 N2 96.87(16) . . ?
O16 Zn1 N2 96.87(16) 11 11 ?
O16 Zn1 N2 106.56(17) . 11 ?
N2 Zn1 N2 103.3(2) . 11 ?
N14 Cu2 N14 131.0(3) . 7 ?
N14 Cu2 N14 121.4(3) . 11_655 ?
N14 Cu2 N14 79.8(3) 7 11_655 ?
N14 Cu2 N14 79.8(3) . 4_655 ?
N14 Cu2 N14 121.4(3) 7 4_655 ?
N14 Cu2 N14 131.0(3) 11_655 4_655 ?
C3 N2 C7 117.5(4) . . ?
C3 N2 Zn1 123.1(4) . . ?
C7 N2 Zn1 119.4(3) . . ?
N2 C3 C4 123.0(5) . . ?
N2 C3 H3 118.5 . . ?
C4 C3 H3 118.5 . . ?
C5 C4 C3 119.3(5) . . ?
C5 C4 H4 120.3 . . ?
C3 C4 H4 120.3 . . ?
C4 C5 C6 118.2(5) . . ?
C4 C5 N8 118.0(5) . . ?
C6 C5 N8 123.7(5) . . ?
C5 C6 C7 118.6(5) . . ?
C5 C6 H6 120.7 . . ?
C7 C6 H6 120.7 . . ?
N2 C7 C6 123.1(5) . . ?
N2 C7 H7 118.5 . . ?
C6 C7 H7 118.5 . . ?
C9 N8 C5 127.8(4) . . ?
C9 N8 H8 116.1 . . ?
C5 N8 H8 116.1 . . ?
O10 C9 N8 124.1(5) . . ?
O10 C9 C11 119.0(5) . . ?
N8 C9 C11 116.4(5) . . ?
C12 C11 C15 115.6(5) . . ?
C12 C11 C9 119.1(5) . . ?
C15 C11 C9 125.3(5) . . ?
C13 C12 C11 122.4(5) . . ?
C13 C12 H12 118.8 . . ?
C11 C12 H12 118.8 . . ?
C12 C13 C14 118.6(5) . . ?
C12 C13 H13 120.7 . . ?
C14 C13 H13 120.7 . . ?
C14 N14 C15 119.6(5) . . ?
C14 N14 Cu2 113.2(3) . . ?
C15 N14 Cu2 127.2(4) . . ?
N14 C14 C13 121.0(4) . . ?
N14 C14 C14 116.9(3) . 4_655 ?
C13 C14 C14 122.1(3) . 4_655 ?
N14 C15 C11 122.8(5) . . ?
N14 C15 H15 118.6 . . ?
C11 C15 H15 118.6 . . ?
C18 O16 Zn1 106.2(4) . . ?
O17 C18 O16 124.3(7) . . ?
O17 C18 C20 118.4(6) . . ?
O16 C18 C20 116.9(5) . . ?
C20 C19 C20 120.5(7) 10_665 . ?
C20 C19 H19 119.7 10_665 . ?
C20 C19 H19 119.7 . . ?
C21 C20 C19 120.0(7) . . ?
C21 C20 C18 119.2(6) . . ?
C19 C20 C18 120.9(5) . . ?
C20 C21 C22 118.7(9) . . ?
C20 C21 H21 120.7 . . ?
C22 C21 H21 120.7 . . ?
C21 C22 C21 122.2(10) 10_665 . ?
C21 C22 H22 118.9 10_665 . ?
C21 C22 H22 118.9 . . ?

loop_
_geom_torsion_atom_site_label_1
_geom_torsion_atom_site_label_2
_geom_torsion_atom_site_label_3
_geom_torsion_atom_site_label_4
_geom_torsion
_geom_torsion_site_symmetry_1
_geom_torsion_site_symmetry_2
_geom_torsion_site_symmetry_3
_geom_torsion_site_symmetry_4
_geom_torsion_publ_flag
O16 Zn1 N2 C3 -25.8(5) 11 . . . ?
O16 Zn1 N2 C3 -175.5(5) . . . . ?
N2 Zn1 N2 C3 75.6(5) 11 . . . ?
O16 Zn1 N2 C7 156.7(4) 11 . . . ?
O16 Zn1 N2 C7 7.0(4) . . . . ?
N2 Zn1 N2 C7 -101.8(4) 11 . . . ?
C7 N2 C3 C4 -1.8(10) . . . . ?
Zn1 N2 C3 C4 -179.3(5) . . . . ?
N2 C3 C4 C5 5.1(11) . . . . ?
C3 C4 C5 C6 -6.4(10) . . . . ?
C3 C4 C5 N8 176.7(6) . . . . ?
C4 C5 C6 C7 4.8(9) . . . . ?
N8 C5 C6 C7 -178.5(6) . . . . ?
C3 N2 C7 C6 0.1(9) . . . . ?
Zn1 N2 C7 C6 177.7(5) . . . . ?
C5 C6 C7 N2 -1.6(9) . . . . ?
C4 C5 N8 C9 -177.8(7) . . . . ?
C6 C5 N8 C9 5.6(10) . . . . ?
C5 N8 C9 O10 1.5(13) . . . . ?
C5 N8 C9 C11 173.3(6) . . . . ?
O10 C9 C11 C12 -9.0(12) . . . . ?
N8 C9 C11 C12 178.8(7) . . . . ?
O10 C9 C11 C15 171.0(9) . . . . ?
N8 C9 C11 C15 -1.2(11) . . . . ?
C15 C11 C12 C13 -2.7(12) . . . . ?
C9 C11 C12 C13 177.3(8) . . . . ?
C11 C12 C13 C14 2.7(13) . . . . ?
N14 Cu2 N14 C14 124.2(5) 7 . . . ?
N14 Cu2 N14 C14 -131.0(5) 11_655 . . . ?
N14 Cu2 N14 C14 1.1(3) 4_655 . . . ?
N14 Cu2 N14 C15 -57.4(6) 7 . . . ?
N14 Cu2 N14 C15 47.4(6) 11_655 . . . ?
N14 Cu2 N14 C15 179.6(8) 4_655 . . . ?
C15 N14 C14 C13 1.1(10) . . . . ?
Cu2 N14 C14 C13 179.7(5) . . . . ?
C15 N14 C14 C14 178.4(7) . . . 4_655 ?
Cu2 N14 C14 C14 -3.1(8) . . . 4_655 ?
C12 C13 C14 N14 -1.9(11) . . . . ?
C12 C13 C14 C14 -179.0(8) . . . 4_655 ?
C14 N14 C15 C11 -1.2(11) . . . . ?
Cu2 N14 C15 C11 -179.5(5) . . . . ?
C12 C11 C15 N14 1.9(11) . . . . ?
C9 C11 C15 N14 -178.1(7) . . . . ?
O16 Zn1 O16 C18 52.4(4) 11 . . . ?
N2 Zn1 O16 C18 -179.3(4) . . . . ?
N2 Zn1 O16 C18 -73.2(4) 11 . . . ?
Zn1 O16 C18 O17 1.6(9) . . . . ?
Zn1 O16 C18 C20 174.4(6) . . . . ?
C20 C19 C20 C21 0.5(9) 10_665 . . . ?
C20 C19 C20 C18 179.3(10) 10_665 . . . ?
O17 C18 C20 C21 4.7(13) . . . . ?
O16 C18 C20 C21 -168.5(10) . . . . ?
O17 C18 C20 C19 -174.0(7) . . . . ?
O16 C18 C20 C19 12.7(12) . . . . ?
C19 C20 C21 C22 -1.0(17) . . . . ?
C18 C20 C21 C22 -179.8(10) . . . . ?
C20 C21 C22 C21 0.5(8) . . . 10_665 ?

_diffrn_measured_fraction_theta_max 0.979
_diffrn_reflns_theta_full        24.38
_diffrn_measured_fraction_theta_full 0.979
_refine_diff_density_max         0.252
_refine_diff_density_min         -0.276
_refine_diff_density_rms         0.059

loop_
_platon_squeeze_void_nr
_platon_squeeze_void_average_x
_platon_squeeze_void_average_y
_platon_squeeze_void_average_z
_platon_squeeze_void_volume
_platon_squeeze_void_count_electrons
_platon_squeeze_void_content
1 0.000 0.000 -0.003 2184 266 ' '
_platon_squeeze_details          
;
;


