####################################################################### 
# 
# This file contains crystal structure data downloaded from the 
# Cambridge Structural Database (CSD) hosted by the Cambridge 
# Crystallographic Data Centre (CCDC).
# 
# Full information about CCDC data access policies and citation 
# guidelines are available at http://www.ccdc.cam.ac.uk/access/V1 
# 
# Audit and citation data items may have been added by the CCDC. 
# Please retain this information to preserve the provenance of 
# this file and to allow appropriate attribution of the data. 
# 
#######################################################################

data_www
_audit_block_doi                 10.5517/cc99vbr
_database_code_depnum_ccdc_archive 'CCDC 277584'
loop_
_citation_id
_citation_doi
_citation_year
1 10.1016/j.molstruc.2005.08.013 2006
_audit_update_record             
;
2005-07-07 deposited with the CCDC.	2024-07-09 downloaded from the CCDC.
;

_audit_creation_method           SHELXL-97
_chemical_name_systematic        
;
?
;
_chemical_name_common            ?
_chemical_melting_point          ?
_chemical_formula_moiety         ?
_chemical_formula_sum            'C18 H22 N4 O8 Zn'
_chemical_formula_weight         487.77

loop_
_atom_type_symbol
_atom_type_description
_atom_type_scat_dispersion_real
_atom_type_scat_dispersion_imag
_atom_type_scat_source
Zn Zn 0.2839 1.4301 'International Tables Vol C Tables 4.2.6.8 and 6.1.1.4'
C C 0.0033 0.0016 'International Tables Vol C Tables 4.2.6.8 and 6.1.1.4'
H H 0.0000 0.0000 'International Tables Vol C Tables 4.2.6.8 and 6.1.1.4'
N N 0.0061 0.0033 'International Tables Vol C Tables 4.2.6.8 and 6.1.1.4'
O O 0.0106 0.0060 'International Tables Vol C Tables 4.2.6.8 and 6.1.1.4'

_symmetry_cell_setting           Monoclinic
_symmetry_space_group_name_Hall  '-P 2ybc'
_symmetry_space_group_name_H-M   'P 21/c'
_symmetry_Int_Tables_number      14

loop_
_symmetry_equiv_pos_as_xyz
'x, y, z'
'-x, y+1/2, -z+1/2'
'-x, -y, -z'
'x, -y-1/2, z-1/2'

_cell_length_a                   7.0453(14)
_cell_length_b                   13.906(3)
_cell_length_c                   22.344(5)
_cell_angle_alpha                90.00
_cell_angle_beta                 91.64(3)
_cell_angle_gamma                90.00
_cell_volume                     2188.2(8)
_cell_formula_units_Z            4
_cell_measurement_temperature    293(2)
_cell_measurement_reflns_used    20458
_cell_measurement_theta_min      3.07
_cell_measurement_theta_max      27.48

_exptl_crystal_description       block
_exptl_crystal_colour            colorless
_exptl_crystal_size_max          0.34
_exptl_crystal_size_mid          0.26
_exptl_crystal_size_min          0.12
_exptl_crystal_density_meas      ?
_exptl_crystal_density_diffrn    1.481
_exptl_crystal_density_method    'not measured'
_exptl_crystal_F_000             1008
_exptl_absorpt_coefficient_mu    1.173
_exptl_absorpt_correction_type   multi-scan
_exptl_absorpt_correction_T_min  0.678
_exptl_absorpt_correction_T_max  0.754
_exptl_absorpt_process_details   'ABSCOR by T.Higashi 8 March, 1995'

_exptl_special_details           
;
?
;

_diffrn_ambient_temperature      293(2)
_diffrn_radiation_wavelength     0.71073
_diffrn_radiation_type           MoK\a
_diffrn_radiation_source         'Rotation anode'
_diffrn_radiation_monochromator  graphite
_diffrn_measurement_device_type  'Rigaku RAXIS RAPID IP'
_diffrn_measurement_method       Oscillation
_diffrn_detector_area_resol_mean 0.01
_diffrn_standards_number         ?
_diffrn_standards_interval_count ?
_diffrn_standards_interval_time  ?
_diffrn_standards_decay_%        ?
_diffrn_reflns_number            20458
_diffrn_reflns_av_R_equivalents  0.0607
_diffrn_reflns_av_sigmaI/netI    0.0583
_diffrn_reflns_limit_h_min       -8
_diffrn_reflns_limit_h_max       8
_diffrn_reflns_limit_k_min       -17
_diffrn_reflns_limit_k_max       18
_diffrn_reflns_limit_l_min       -28
_diffrn_reflns_limit_l_max       28
_diffrn_reflns_theta_min         3.07
_diffrn_reflns_theta_max         27.48
_reflns_number_total             4899
_reflns_number_gt                3291
_reflns_threshold_expression     >2sigma(I)

_computing_data_collection       'RAPID AUTO'
_computing_cell_refinement       'RAPID AUTO'
_computing_data_reduction        'RAPID AUTO'
_computing_structure_solution    'SHELXS-97 (Sheldrick, 1990)'
_computing_structure_refinement  'SHELXL-97 (Sheldrick, 1997)'
_computing_molecular_graphics    ?
_computing_publication_material  ?

_refine_special_details          
;
Refinement of F^2^ against ALL reflections. The weighted R-factor wR and
goodness of fit S are based on F^2^, conventional R-factors R are based
on F, with F set to zero for negative F^2^. The threshold expression of
F^2^ > 2sigma(F^2^) is used only for calculating R-factors(gt) etc. and is
not relevant to the choice of reflections for refinement. R-factors based
on F^2^ are statistically about twice as large as those based on F, and R-
factors based on ALL data will be even larger.
;

_refine_ls_structure_factor_coef Fsqd
_refine_ls_matrix_type           full
_refine_ls_weighting_scheme      calc
_refine_ls_weighting_details     
'calc w=1/[\s^2^(Fo^2^)+(0.0716P)^2^+0.0000P] where P=(Fo^2^+2Fc^2^)/3'
_atom_sites_solution_primary     direct
_atom_sites_solution_secondary   difmap
_atom_sites_solution_hydrogens   geom
_refine_ls_hydrogen_treatment    mixed
_refine_ls_extinction_method     none
_refine_ls_extinction_coef       ?
_refine_ls_number_reflns         4899
_refine_ls_number_parameters     280
_refine_ls_number_restraints     0
_refine_ls_R_factor_all          0.0785
_refine_ls_R_factor_gt           0.0479
_refine_ls_wR_factor_ref         0.1336
_refine_ls_wR_factor_gt          0.1215
_refine_ls_goodness_of_fit_ref   1.041
_refine_ls_restrained_S_all      1.041
_refine_ls_shift/su_max          0.000
_refine_ls_shift/su_mean         0.000

loop_
_atom_site_label
_atom_site_type_symbol
_atom_site_fract_x
_atom_site_fract_y
_atom_site_fract_z
_atom_site_U_iso_or_equiv
_atom_site_adp_type
_atom_site_occupancy
_atom_site_symmetry_multiplicity
_atom_site_calc_flag
_atom_site_refinement_flags
_atom_site_disorder_assembly
_atom_site_disorder_group
Zn1 Zn 0.39704(5) 0.41405(3) 0.192783(16) 0.03992(14) Uani 1 1 d . . .
C1 C 0.2324(4) 0.1721(2) 0.21302(15) 0.0443(7) Uani 1 1 d . . .
H1A H 0.3622 0.1661 0.2210 0.053 Uiso 1 1 calc R . .
C2 C 0.1103(4) 0.1094(2) 0.23829(15) 0.0419(7) Uani 1 1 d . . .
H2A H 0.1561 0.0606 0.2633 0.050 Uiso 1 1 calc R . .
C3 C -0.0844(4) 0.1187(2) 0.22644(13) 0.0366(6) Uani 1 1 d . . .
C4 C -0.1451(4) 0.1925(3) 0.18984(15) 0.0462(8) Uani 1 1 d . . .
H4A H -0.2743 0.2005 0.1818 0.055 Uiso 1 1 calc R . .
C5 C -0.0184(4) 0.2546(3) 0.16501(15) 0.0477(8) Uani 1 1 d . . .
H5A H -0.0608 0.3044 0.1403 0.057 Uiso 1 1 calc R . .
C6 C -0.2243(4) 0.0496(2) 0.25297(14) 0.0416(7) Uani 1 1 d . . .
C7 C 1.0540(4) 0.5838(3) 0.05369(15) 0.0453(8) Uani 1 1 d . . .
H7A H 1.1840 0.5787 0.0614 0.054 Uiso 1 1 calc R . .
C8 C 0.9309(4) 0.5363(2) 0.08949(13) 0.0401(7) Uani 1 1 d . . .
H8A H 0.9779 0.4995 0.1214 0.048 Uiso 1 1 calc R . .
C9 C 0.7368(4) 0.5424(2) 0.07868(13) 0.0361(6) Uani 1 1 d . . .
C10 C 0.7994(5) 0.6428(3) -0.00504(15) 0.0535(9) Uani 1 1 d . . .
H10A H 0.7544 0.6782 -0.0378 0.064 Uiso 1 1 calc R . .
C11 C 0.6743(4) 0.5961(2) 0.03035(14) 0.0438(8) Uani 1 1 d . . .
H11A H 0.5448 0.6008 0.0216 0.053 Uiso 1 1 calc R . .
C12 C 0.6028(4) 0.4918(2) 0.11812(13) 0.0371(7) Uani 1 1 d . . .
C13 C 0.6636(6) 0.3512(3) 0.28531(15) 0.0596(10) Uani 1 1 d . . .
H13A H 0.7452 0.3894 0.2636 0.071 Uiso 1 1 calc R . .
C14 C 0.9386(8) 0.3175(5) 0.3504(3) 0.120(2) Uani 1 1 d . . .
H14A H 0.9996 0.3599 0.3230 0.181 Uiso 1 1 calc R . .
H14B H 0.9977 0.2553 0.3492 0.181 Uiso 1 1 calc R . .
H14C H 0.9505 0.3431 0.3902 0.181 Uiso 1 1 calc R . .
C15 C 0.6118(8) 0.2468(4) 0.3686(2) 0.0969(17) Uani 1 1 d . . .
H15A H 0.4842 0.2485 0.3523 0.145 Uiso 1 1 calc R . .
H15B H 0.6133 0.2695 0.4092 0.145 Uiso 1 1 calc R . .
H15C H 0.6584 0.1819 0.3677 0.145 Uiso 1 1 calc R . .
C16 C 0.810(5) 0.059(2) 0.0527(10) 0.60(4) Uani 1 1 d . . .
H16A H 0.8871 0.1012 0.0322 0.724 Uiso 1 1 calc R . .
C17 C 0.5455(12) 0.1593(6) 0.0453(4) 0.152(3) Uani 1 1 d . . .
H17A H 0.4123 0.1612 0.0532 0.228 Uiso 1 1 calc R . .
H17B H 0.5632 0.1648 0.0030 0.228 Uiso 1 1 calc R . .
H17C H 0.6084 0.2117 0.0656 0.228 Uiso 1 1 calc R . .
C18 C 0.516(3) 0.0068(11) 0.0983(4) 0.378(16) Uani 1 1 d . . .
H18A H 0.3849 0.0264 0.0984 0.568 Uiso 1 1 calc R . .
H18B H 0.5652 0.0040 0.1387 0.568 Uiso 1 1 calc R . .
H18C H 0.5249 -0.0555 0.0801 0.568 Uiso 1 1 calc R . .
N1 N 0.1689(4) 0.24221(19) 0.17694(11) 0.0415(6) Uani 1 1 d . . .
N2 N 0.9900(4) 0.6380(2) 0.00737(13) 0.0502(7) Uani 1 1 d . . .
N3 N 0.7328(5) 0.3082(3) 0.33280(14) 0.0701(10) Uani 1 1 d . . .
N4 N 0.621(2) 0.0737(5) 0.0656(3) 0.208(5) Uani 1 1 d . . .
O1 O -0.1585(3) -0.02591(17) 0.27673(10) 0.0491(6) Uani 1 1 d . . .
O2 O -0.3947(3) 0.06881(19) 0.25037(13) 0.0616(7) Uani 1 1 d . . .
O3 O 0.4275(3) 0.49994(19) 0.10866(10) 0.0517(6) Uani 1 1 d . . .
O4 O 0.6677(3) 0.44309(18) 0.16169(10) 0.0483(6) Uani 1 1 d . . .
O5 O 0.2928(3) 0.29927(17) 0.14938(10) 0.0504(6) Uani 1 1 d . . .
O6 O 1.1083(4) 0.6833(2) -0.02599(13) 0.0789(9) Uani 1 1 d . . .
O7 O 0.4968(4) 0.34474(19) 0.26707(11) 0.0573(6) Uani 1 1 d . . .
O8 O 0.857(6) -0.018(3) 0.0728(9) 0.93(4) Uani 1 1 d . . .

loop_
_atom_site_aniso_label
_atom_site_aniso_U_11
_atom_site_aniso_U_22
_atom_site_aniso_U_33
_atom_site_aniso_U_23
_atom_site_aniso_U_13
_atom_site_aniso_U_12
Zn1 0.0362(2) 0.0363(2) 0.0477(2) 0.00396(16) 0.01016(15) 0.00129(15)
C1 0.0321(15) 0.0444(19) 0.0563(19) 0.0044(15) 0.0011(14) 0.0009(13)
C2 0.0385(16) 0.0360(18) 0.0513(18) 0.0082(14) 0.0010(14) 0.0038(13)
C3 0.0361(15) 0.0346(16) 0.0391(16) 0.0010(13) 0.0022(12) 0.0018(12)
C4 0.0358(16) 0.048(2) 0.0551(19) 0.0114(15) 0.0044(14) 0.0057(13)
C5 0.0462(18) 0.046(2) 0.0508(19) 0.0162(15) 0.0053(15) 0.0058(15)
C6 0.0443(18) 0.0433(19) 0.0373(16) 0.0005(14) 0.0049(13) -0.0041(14)
C7 0.0295(15) 0.056(2) 0.0498(18) -0.0005(16) -0.0001(13) -0.0059(14)
C8 0.0369(16) 0.0454(19) 0.0378(16) 0.0034(13) -0.0021(13) 0.0014(13)
C9 0.0355(15) 0.0377(17) 0.0351(15) -0.0020(12) 0.0018(12) -0.0033(12)
C10 0.054(2) 0.061(2) 0.0456(18) 0.0153(17) 0.0023(15) 0.0016(17)
C11 0.0380(16) 0.053(2) 0.0398(16) 0.0086(14) -0.0019(13) 0.0023(14)
C12 0.0399(16) 0.0352(17) 0.0366(15) -0.0051(13) 0.0063(12) -0.0023(12)
C13 0.091(3) 0.042(2) 0.0447(19) 0.0035(16) 0.001(2) 0.0004(19)
C14 0.127(5) 0.115(5) 0.116(4) 0.014(4) -0.059(4) -0.006(4)
C15 0.147(5) 0.080(4) 0.064(3) 0.030(3) 0.002(3) 0.010(3)
C16 0.94(7) 0.53(4) 0.32(2) -0.25(3) -0.30(3) 0.61(5)
C17 0.204(8) 0.122(7) 0.130(6) 0.013(5) 0.006(5) -0.001(6)
C18 0.84(4) 0.211(14) 0.092(6) -0.030(8) 0.101(13) -0.28(2)
N1 0.0451(14) 0.0343(15) 0.0458(14) 0.0000(12) 0.0133(12) -0.0006(11)
N2 0.0523(16) 0.0502(19) 0.0490(16) 0.0032(13) 0.0145(13) -0.0120(13)
N3 0.100(3) 0.056(2) 0.0533(18) 0.0076(16) -0.0134(18) 0.0067(19)
N4 0.471(17) 0.074(4) 0.078(4) -0.012(3) -0.032(7) 0.031(7)
O1 0.0475(12) 0.0442(14) 0.0555(13) 0.0122(11) -0.0014(10) -0.0061(10)
O2 0.0385(13) 0.0637(18) 0.0832(19) 0.0129(14) 0.0128(12) -0.0024(11)
O3 0.0348(12) 0.0611(17) 0.0592(14) 0.0067(12) 0.0025(10) -0.0075(10)
O4 0.0483(13) 0.0541(15) 0.0428(12) 0.0134(10) 0.0061(10) -0.0010(10)
O5 0.0589(14) 0.0416(14) 0.0516(13) -0.0016(11) 0.0202(11) -0.0146(11)
O6 0.0705(18) 0.084(2) 0.083(2) 0.0225(17) 0.0255(15) -0.0250(16)
O7 0.0646(16) 0.0551(17) 0.0523(14) 0.0145(12) 0.0060(12) 0.0017(12)
O8 1.49(7) 0.92(5) 0.361(19) -0.15(3) -0.21(3) 1.02(6)

_geom_special_details            
;
All esds (except the esd in the dihedral angle between two l.s. planes)
are estimated using the full covariance matrix. The cell esds are taken
into account individually in the estimation of esds in distances, angles
and torsion angles; correlations between esds in cell parameters are only
used when they are defined by crystal symmetry. An approximate (isotropic)
treatment of cell esds is used for estimating esds involving l.s. planes.
;

loop_
_geom_bond_atom_site_label_1
_geom_bond_atom_site_label_2
_geom_bond_distance
_geom_bond_site_symmetry_2
_geom_bond_publ_flag
Zn1 O5 1.997(2) . ?
Zn1 O1 2.013(2) 2 ?
Zn1 O7 2.028(2) . ?
Zn1 O4 2.088(2) . ?
Zn1 O3 2.242(2) . ?
Zn1 C12 2.488(3) . ?
Zn1 C6 2.566(3) 2 ?
C1 N1 1.334(4) . ?
C1 C2 1.360(4) . ?
C1 H1A 0.9300 . ?
C2 C3 1.395(4) . ?
C2 H2A 0.9300 . ?
C3 C4 1.374(4) . ?
C3 C6 1.510(4) . ?
C4 C5 1.370(5) . ?
C4 H4A 0.9300 . ?
C5 N1 1.349(4) . ?
C5 H5A 0.9300 . ?
C6 O2 1.230(4) . ?
C6 O1 1.259(4) . ?
C6 Zn1 2.567(3) 2_545 ?
C7 N2 1.348(4) . ?
C7 C8 1.367(4) . ?
C7 H7A 0.9300 . ?
C8 C9 1.384(4) . ?
C8 H8A 0.9300 . ?
C9 C11 1.375(4) . ?
C9 C12 1.487(4) . ?
C10 C11 1.365(5) . ?
C10 N2 1.365(4) . ?
C10 H10A 0.9300 . ?
C11 H11A 0.9300 . ?
C12 O3 1.252(3) . ?
C12 O4 1.261(4) . ?
C13 O7 1.236(4) . ?
C13 N3 1.301(5) . ?
C13 H13A 0.9300 . ?
C14 N3 1.497(6) . ?
C14 H14A 0.9600 . ?
C14 H14B 0.9600 . ?
C14 H14C 0.9600 . ?
C15 N3 1.461(6) . ?
C15 H15A 0.9600 . ?
C15 H15B 0.9600 . ?
C15 H15C 0.9600 . ?
C16 O8 1.21(3) . ?
C16 N4 1.39(4) . ?
C16 H16A 0.9300 . ?
C17 N4 1.374(10) . ?
C17 H17A 0.9600 . ?
C17 H17B 0.9600 . ?
C17 H17C 0.9600 . ?
C18 N4 1.407(13) . ?
C18 H18A 0.9600 . ?
C18 H18B 0.9600 . ?
C18 H18C 0.9600 . ?
N1 O5 1.342(3) . ?
N2 O6 1.297(4) . ?
O1 Zn1 2.013(2) 2_545 ?

loop_
_geom_angle_atom_site_label_1
_geom_angle_atom_site_label_2
_geom_angle_atom_site_label_3
_geom_angle
_geom_angle_site_symmetry_1
_geom_angle_site_symmetry_3
_geom_angle_publ_flag
O5 Zn1 O1 101.36(9) . 2 ?
O5 Zn1 O7 97.57(10) . . ?
O1 Zn1 O7 101.15(10) 2 . ?
O5 Zn1 O4 108.65(10) . . ?
O1 Zn1 O4 144.28(10) 2 . ?
O7 Zn1 O4 93.77(10) . . ?
O5 Zn1 O3 93.52(9) . . ?
O1 Zn1 O3 99.42(9) 2 . ?
O7 Zn1 O3 154.16(9) . . ?
O4 Zn1 O3 60.51(8) . . ?
O5 Zn1 C12 103.58(9) . . ?
O1 Zn1 C12 123.70(10) 2 . ?
O7 Zn1 C12 124.08(10) . . ?
O4 Zn1 C12 30.41(9) . . ?
O3 Zn1 C12 30.12(8) . . ?
O5 Zn1 C6 130.06(10) . 2 ?
O1 Zn1 C6 28.80(9) 2 2 ?
O7 Zn1 C6 96.91(10) . 2 ?
O4 Zn1 C6 117.72(10) . 2 ?
O3 Zn1 C6 93.60(10) . 2 ?
C12 Zn1 C6 106.92(10) . 2 ?
N1 C1 C2 120.9(3) . . ?
N1 C1 H1A 119.5 . . ?
C2 C1 H1A 119.5 . . ?
C1 C2 C3 119.5(3) . . ?
C1 C2 H2A 120.3 . . ?
C3 C2 H2A 120.3 . . ?
C4 C3 C2 118.0(3) . . ?
C4 C3 C6 120.9(3) . . ?
C2 C3 C6 121.1(3) . . ?
C5 C4 C3 121.1(3) . . ?
C5 C4 H4A 119.4 . . ?
C3 C4 H4A 119.4 . . ?
N1 C5 C4 119.0(3) . . ?
N1 C5 H5A 120.5 . . ?
C4 C5 H5A 120.5 . . ?
O2 C6 O1 123.3(3) . . ?
O2 C6 C3 119.4(3) . . ?
O1 C6 C3 117.4(3) . . ?
O2 C6 Zn1 72.93(19) . 2_545 ?
O1 C6 Zn1 50.38(16) . 2_545 ?
C3 C6 Zn1 167.5(2) . 2_545 ?
N2 C7 C8 121.1(3) . . ?
N2 C7 H7A 119.5 . . ?
C8 C7 H7A 119.5 . . ?
C7 C8 C9 120.6(3) . . ?
C7 C8 H8A 119.7 . . ?
C9 C8 H8A 119.7 . . ?
C11 C9 C8 117.6(3) . . ?
C11 C9 C12 121.9(3) . . ?
C8 C9 C12 120.5(3) . . ?
C11 C10 N2 120.4(3) . . ?
C11 C10 H10A 119.8 . . ?
N2 C10 H10A 119.8 . . ?
C10 C11 C9 121.1(3) . . ?
C10 C11 H11A 119.5 . . ?
C9 C11 H11A 119.5 . . ?
O3 C12 O4 120.9(3) . . ?
O3 C12 C9 119.8(3) . . ?
O4 C12 C9 119.3(3) . . ?
O3 C12 Zn1 64.01(16) . . ?
O4 C12 Zn1 56.94(16) . . ?
C9 C12 Zn1 174.2(2) . . ?
O7 C13 N3 124.5(4) . . ?
O7 C13 H13A 117.7 . . ?
N3 C13 H13A 117.7 . . ?
N3 C14 H14A 109.5 . . ?
N3 C14 H14B 109.5 . . ?
H14A C14 H14B 109.5 . . ?
N3 C14 H14C 109.5 . . ?
H14A C14 H14C 109.5 . . ?
H14B C14 H14C 109.5 . . ?
N3 C15 H15A 109.5 . . ?
N3 C15 H15B 109.5 . . ?
H15A C15 H15B 109.5 . . ?
N3 C15 H15C 109.5 . . ?
H15A C15 H15C 109.5 . . ?
H15B C15 H15C 109.5 . . ?
O8 C16 N4 108(4) . . ?
O8 C16 H16A 125.9 . . ?
N4 C16 H16A 125.9 . . ?
N4 C17 H17A 109.5 . . ?
N4 C17 H17B 109.5 . . ?
H17A C17 H17B 109.5 . . ?
N4 C17 H17C 109.5 . . ?
H17A C17 H17C 109.5 . . ?
H17B C17 H17C 109.5 . . ?
N4 C18 H18A 109.5 . . ?
N4 C18 H18B 109.5 . . ?
H18A C18 H18B 109.5 . . ?
N4 C18 H18C 109.5 . . ?
H18A C18 H18C 109.5 . . ?
H18B C18 H18C 109.5 . . ?
C1 N1 O5 119.8(3) . . ?
C1 N1 C5 121.5(3) . . ?
O5 N1 C5 118.6(3) . . ?
O6 N2 C7 120.4(3) . . ?
O6 N2 C10 120.3(3) . . ?
C7 N2 C10 119.3(3) . . ?
C13 N3 C15 120.3(4) . . ?
C13 N3 C14 120.8(4) . . ?
C15 N3 C14 118.9(4) . . ?
C17 N4 C16 115.1(16) . . ?
C17 N4 C18 122.6(17) . . ?
C16 N4 C18 122.2(18) . . ?
C6 O1 Zn1 100.8(2) . 2_545 ?
C12 O3 Zn1 85.86(18) . . ?
C12 O4 Zn1 92.65(18) . . ?
N1 O5 Zn1 119.00(17) . . ?
C13 O7 Zn1 122.6(2) . . ?

_diffrn_measured_fraction_theta_max 0.977
_diffrn_reflns_theta_full        27.48
_diffrn_measured_fraction_theta_full 0.977
_refine_diff_density_max         0.515
_refine_diff_density_min         -0.424
_refine_diff_density_rms         0.068
