
#######################################################################
#
#                 Cambridge Crystallographic Data Centre
#                                CCDC
#
#######################################################################
#
# If this CIF has been generated from an entry in the Cambridge
# Structural Database, then it will include bibliographic, chemical,
# crystal, experimental, refinement or atomic coordinate data resulting
# from the CCDC's data processing and validation procedures.
#
#######################################################################

data_CSD_CIF_DEDWUE
_audit_creation_date 1986-07-02
_audit_creation_method CSD-ConQuest-V1
_database_code_CSD DEDWUE
_database_code_depnum_ccdc_archive 'CCDC 1137955'
_chemical_formula_sum 'C36 H44 Fe1 N4'
_chemical_formula_moiety
;
C36 H44 Fe1 N4
;
_journal_coden_Cambridge 4
_journal_volume 107
_journal_year 1985
_journal_page_first 4207
_journal_name_full 'J.Am.Chem.Soc. '
loop_
_publ_author_name
"S.H.Strauss"
"M.E.Silver"
"K.M.Long"
"R.G.Thompson"
"R.A.Hudgens"
"K.Spartalian"
"J.A.Ibers"
_chemical_name_systematic
;
2,3,7,8,12,13,17,18-Octaethylporphyrinato-iron(ii)
;
_chemical_name_common
;
Teaching Subset: Fundamental Chemistry
;
_cell_volume    781.080
_exptl_crystal_colour 'dark purple'
_exptl_crystal_density_diffrn 1.255
_diffrn_ambient_temperature ?
_diffrn_special_details
;
The study was carried out at room temperature,in the range 283-303K

;
#These two values have been output from a single CSD field.
_refine_ls_R_factor_gt 0.072
_refine_ls_wR_factor_gt 0.072
_symmetry_cell_setting triclinic
_symmetry_space_group_name_H-M 'P -1'
_symmetry_Int_Tables_number 2
loop_
_symmetry_equiv_pos_site_id
_symmetry_equiv_pos_as_xyz
1 x,y,z
2 -x,-y,-z
_cell_length_a 4.812(1)
_cell_length_b 13.252(1)
_cell_length_c 13.369(1)
_cell_angle_alpha 113.13(1)
_cell_angle_beta 92.20(1)
_cell_angle_gamma 93.20(1)
_cell_formula_units_Z 1
loop_
_atom_type_symbol
_atom_type_radius_bond
C 0.68
H 0.23
Fe 1.34
N 0.68
loop_
_atom_site_label
_atom_site_type_symbol
_atom_site_fract_x
_atom_site_fract_y
_atom_site_fract_z
Fe1 Fe 0.00000 0.00000 0.00000
N1 N 0.2893(11) 0.06095(38) -0.0673(4)
N2 N 0.0801(11) 0.13013(40) 0.14203(42)
C1 C 0.3688(15) 0.01765(53) -0.17326(53)
C2 C 0.5817(15) 0.08677(55) -0.19101(56)
C3 C 0.6422(15) 0.17333(54) -0.09441(58)
C4 C 0.4637(14) 0.15650(52) -0.01968(55)
C5 C 0.4479(15) 0.22864(50) 0.09010(57)
C6 C 0.2671(16) 0.21741(53) 0.16242(55)
C7 C 0.2512(16) 0.29698(53) 0.27488(53)
C8 C 0.0619(16) 0.25555(52) 0.31929(54)
C9 C -0.0508(16) 0.15150(54) 0.23813(53)
C10 C 0.2533(16) -0.08399(58) -0.25158(53)
C11 C 0.7038(16) 0.06938(56) -0.29712(61)
C12 C 0.5429(21) 0.11818(74) -0.36279(63)
C13 C 0.8481(16) 0.27073(62) -0.06937(57)
C14 C 0.7106(21) 0.36714(64) -0.07781(75)
C15 C 0.4208(17) 0.40599(58) 0.32017(53)
C16 C 0.3017(20) 0.49077(57) 0.28244(66)
C17 C -0.0294(16) 0.30264(51) 0.43426(57)
C18 C 0.1167(19) 0.25835(63) 0.50799(56)
H1 H 0.32600 -0.10740 -0.32200
H2 H 0.57900 0.29100 0.11700
H3 H 0.70600 -0.00800 -0.33700
H4 H 0.89000 0.10200 -0.28200
H5 H 0.99100 0.25100 -0.12100
H6 H 0.93300 0.29200 0.00200
H7 H 0.60500 0.39500 0.29700
H8 H 0.42700 0.43500 0.39800
H9 H -0.22500 0.28500 0.43300
H10 H 0.00800 0.38000 0.46400
H11 H 0.66800 0.16400 -0.38400
H12 H 0.45900 0.06000 -0.42700
H13 H 0.40400 0.16000 -0.32200
H14 H 0.84000 0.41100 -0.09800
H15 H 0.55600 0.34100 -0.12900
H16 H 0.64700 0.41200 -0.00800
H17 H 0.44700 0.52400 0.25700
H18 H 0.16100 0.45600 0.22600
H19 H 0.22500 0.54600 0.34200
H20 H 0.10000 0.18000 0.47500
H21 H 0.31000 0.28300 0.51800
H22 H 0.03600 0.28200 0.57600
N1A N -0.2893(11) -0.06095(38) 0.0673(4)
N2A N -0.0801(11) -0.13013(40) -0.14203(42)
C10A C -0.2533(16) 0.08399(58) 0.25158(53)
C9A C 0.0508(16) -0.15150(54) -0.23813(53)
C1A C -0.3688(15) -0.01765(53) 0.17326(53)
C4A C -0.4637(14) -0.15650(52) 0.01968(55)
C6A C -0.2671(16) -0.21741(53) -0.16242(55)
H1A H -0.32600 0.10740 0.32200
C8A C -0.0619(16) -0.25555(52) -0.31929(54)
C2A C -0.5817(15) -0.08677(55) 0.19101(56)
C3A C -0.6422(15) -0.17333(54) 0.09441(58)
C5A C -0.4479(15) -0.22864(50) -0.09010(57)
C7A C -0.2512(16) -0.29698(53) -0.27488(53)
C17A C 0.0294(16) -0.30264(51) -0.43426(57)
C11A C -0.7038(16) -0.06938(56) 0.29712(61)
C13A C -0.8481(16) -0.27073(62) 0.06937(57)
H2A H -0.57900 -0.29100 -0.11700
C15A C -0.4208(17) -0.40599(58) -0.32017(53)
C18A C -0.1167(19) -0.25835(63) -0.50799(56)
H9A H 0.22500 -0.28500 -0.43300
H10A H -0.00800 -0.38000 -0.46400
C12A C -0.5429(21) -0.11818(74) 0.36279(63)
H3A H -0.70600 0.00800 0.33700
H4A H -0.89000 -0.10200 0.28200
C14A C -0.7106(21) -0.36714(64) 0.07781(75)
H5A H -0.99100 -0.25100 0.12100
H6A H -0.93300 -0.29200 -0.00200
C16A C -0.3017(20) -0.49077(57) -0.28244(66)
H7A H -0.60500 -0.39500 -0.29700
H8A H -0.42700 -0.43500 -0.39800
H20A H -0.10000 -0.18000 -0.47500
H21A H -0.31000 -0.28300 -0.51800
H22A H -0.03600 -0.28200 -0.57600
H11A H -0.66800 -0.16400 0.38400
H12A H -0.45900 -0.06000 0.42700
H13A H -0.40400 -0.16000 0.32200
H14A H -0.84000 -0.41100 0.09800
H15A H -0.55600 -0.34100 0.12900
H16A H -0.64700 -0.41200 0.00800
H17A H -0.44700 -0.52400 -0.25700
H18A H -0.16100 -0.45600 -0.22600
H19A H -0.22500 -0.54600 -0.34200
#END
