####################################################################### 
# 
# This file contains crystal structure data downloaded from the 
# Cambridge Structural Database (CSD) hosted by the Cambridge 
# Crystallographic Data Centre (CCDC).
# 
# Full information about CCDC data access policies and citation 
# guidelines are available at http://www.ccdc.cam.ac.uk/access/V1 
# 
# Audit and citation data items may have been added by the CCDC. 
# Please retain this information to preserve the provenance of 
# this file and to allow appropriate attribution of the data. 
# 
#######################################################################

data_060828d
_audit_block_doi                 10.5517/ccxzz3y
_database_code_depnum_ccdc_archive 'CCDC 863911'
loop_
_citation_id
_citation_doi
_citation_year
1 10.1016/j.ica.2012.04.007 2012
2 10.1016/j.ica.2013.04.004 2013
_audit_update_record             
;
2012-01-21 deposited with the CCDC.	2024-07-09 downloaded from the CCDC.
;
#TrackingRef '060828d.cif'


_audit_creation_method           SHELXL-97
_chemical_name_systematic        
;
?
;
_chemical_name_common            ?
_chemical_melting_point          ?
_chemical_formula_moiety         ?
_chemical_formula_sum            'C108 H108 N12 O36 Pr2'
_chemical_formula_weight         2429.87

loop_
_atom_type_symbol
_atom_type_description
_atom_type_scat_dispersion_real
_atom_type_scat_dispersion_imag
_atom_type_scat_source
C C 0.0033 0.0016 'International Tables Vol C Tables 4.2.6.8 and 6.1.1.4'
H H 0.0000 0.0000 'International Tables Vol C Tables 4.2.6.8 and 6.1.1.4'
N N 0.0061 0.0033 'International Tables Vol C Tables 4.2.6.8 and 6.1.1.4'
O O 0.0106 0.0060 'International Tables Vol C Tables 4.2.6.8 and 6.1.1.4'
Pr Pr -0.2180 2.8214 'International Tables Vol C Tables 4.2.6.8 and 6.1.1.4'

_symmetry_cell_setting           Triclinic
_symmetry_space_group_name_H-M   P-1

loop_
_symmetry_equiv_pos_as_xyz
'x, y, z'
'-x, -y, -z'

_cell_length_a                   11.729(6)
_cell_length_b                   17.716(9)
_cell_length_c                   20.360(10)
_cell_angle_alpha                69.109(6)
_cell_angle_beta                 89.186(6)
_cell_angle_gamma                89.739(7)
_cell_volume                     3952(3)
_cell_formula_units_Z            1
_cell_measurement_temperature    293(2)
_cell_measurement_reflns_used    4896
_cell_measurement_theta_min      2.308
_cell_measurement_theta_max      22.662

_exptl_crystal_description       ?
_exptl_crystal_colour            ?
_exptl_crystal_size_max          0.46
_exptl_crystal_size_mid          0.45
_exptl_crystal_size_min          0.31
_exptl_crystal_density_meas      0
_exptl_crystal_density_diffrn    1.021
_exptl_crystal_density_method    'not measured'
_exptl_crystal_F_000             1244
_exptl_absorpt_coefficient_mu    0.671
_exptl_absorpt_correction_type   multi-scan
_exptl_absorpt_correction_T_min  0.7478
_exptl_absorpt_correction_T_max  0.8190
_exptl_absorpt_process_details   sadabs

_exptl_special_details           
;
?
;

_diffrn_ambient_temperature      293(2)
_diffrn_radiation_wavelength     0.71073
_diffrn_radiation_type           MoK\a
_diffrn_radiation_source         'fine-focus sealed tube'
_diffrn_radiation_monochromator  graphite
_diffrn_measurement_device_type  'CCD area detector'
_diffrn_measurement_method       'phi and omega scans'
_diffrn_detector_area_resol_mean ?
_diffrn_standards_number         ?
_diffrn_standards_interval_count ?
_diffrn_standards_interval_time  ?
_diffrn_standards_decay_%        ?
_diffrn_reflns_number            20017
_diffrn_reflns_av_R_equivalents  0.0713
_diffrn_reflns_av_sigmaI/netI    0.1792
_diffrn_reflns_limit_h_min       -13
_diffrn_reflns_limit_h_max       13
_diffrn_reflns_limit_k_min       -21
_diffrn_reflns_limit_k_max       16
_diffrn_reflns_limit_l_min       -24
_diffrn_reflns_limit_l_max       24
_diffrn_reflns_theta_min         2.03
_diffrn_reflns_theta_max         25.01
_reflns_number_total             13537
_reflns_number_gt                6262
_reflns_threshold_expression     >2sigma(I)

_computing_data_collection       'Bruker SMART'
_computing_cell_refinement       'Bruker SMART'
_computing_data_reduction        'Bruker SAINT'
_computing_structure_solution    'SHELXS-97 (Sheldrick, 1990)'
_computing_structure_refinement  'SHELXL-97 (Sheldrick, 1997)'
_computing_molecular_graphics    'Bruker SHELXTL'
_computing_publication_material  'Bruker SHELXTL'

_refine_special_details          
;
Refinement of F^2^ against ALL reflections. The weighted R-factor wR and
goodness of fit S are based on F^2^, conventional R-factors R are based
on F, with F set to zero for negative F^2^. The threshold expression of
F^2^ > 2sigma(F^2^) is used only for calculating R-factors(gt) etc. and is
not relevant to the choice of reflections for refinement. R-factors based
on F^2^ are statistically about twice as large as those based on F, and R-
factors based on ALL data will be even larger.
;

_refine_ls_structure_factor_coef Fsqd
_refine_ls_matrix_type           full
_refine_ls_weighting_scheme      calc
_refine_ls_weighting_details     
'calc w=1/[\s^2^(Fo^2^)+(0.0777P)^2^+0.0000P] where P=(Fo^2^+2Fc^2^)/3'
_atom_sites_solution_primary     direct
_atom_sites_solution_secondary   difmap
_atom_sites_solution_hydrogens   geom
_refine_ls_hydrogen_treatment    mixed
_refine_ls_extinction_method     none
_refine_ls_extinction_coef       ?
_refine_ls_number_reflns         13537
_refine_ls_number_parameters     712
_refine_ls_number_restraints     1135
_refine_ls_R_factor_all          0.1681
_refine_ls_R_factor_gt           0.0759
_refine_ls_wR_factor_ref         0.2099
_refine_ls_wR_factor_gt          0.1725
_refine_ls_goodness_of_fit_ref   1.000
_refine_ls_restrained_S_all      1.009
_refine_ls_shift/su_max          0.000
_refine_ls_shift/su_mean         0.000

loop_
_atom_site_label
_atom_site_type_symbol
_atom_site_fract_x
_atom_site_fract_y
_atom_site_fract_z
_atom_site_U_iso_or_equiv
_atom_site_adp_type
_atom_site_occupancy
_atom_site_symmetry_multiplicity
_atom_site_calc_flag
_atom_site_refinement_flags
_atom_site_disorder_assembly
_atom_site_disorder_group
Pr1 Pr 0.41434(4) 0.68491(4) 0.21004(3) 0.0601(2) Uani 1 1 d . . .
N1 N 0.6184(6) 0.5330(5) 0.3886(4) 0.072(2) Uani 1 1 d . . .
H1 H 0.6549 0.5133 0.4274 0.086 Uiso 1 1 calc R . .
N2 N 0.6974(5) 0.6099(5) 0.0995(5) 0.089(3) Uani 1 1 d . . .
H2 H 0.7637 0.5982 0.0872 0.107 Uiso 1 1 calc R . .
N3 N 0.6503(6) 0.8781(6) 0.1119(4) 0.096(3) Uani 1 1 d . . .
H3 H 0.7143 0.9034 0.1038 0.115 Uiso 1 1 calc R . .
N4 N 0.2386(7) 0.7895(6) 0.2432(5) 0.080(2) Uani 1 1 d . . .
N5 N 0.3122(9) 0.5213(7) 0.2623(5) 0.081(3) Uani 1 1 d . . .
N6 N 0.3113(6) 0.7101(6) 0.0720(5) 0.075(2) Uani 1 1 d . . .
O1 O 0.7066(5) 0.5616(6) 0.4959(3) 0.110(3) Uani 1 1 d . . .
O2 O 0.5006(4) 0.6275(4) 0.3246(3) 0.0726(18) Uani 1 1 d . . .
O3 O 0.8434(8) 0.4759(6) 0.3506(5) 0.141(3) Uani 1 1 d U . .
O4 O 0.9155(4) 0.5911(4) 0.1255(3) 0.0761(19) Uani 1 1 d . . .
O5 O 0.5958(4) 0.6527(4) 0.1712(3) 0.0720(18) Uani 1 1 d . . .
O6 O 0.6700(8) 0.5008(9) 0.0236(7) 0.166(3) Uani 1 1 d U . .
O7 O 0.8316(4) 0.9242(4) 0.1597(3) 0.0743(18) Uani 1 1 d . . .
O8 O 0.5239(4) 0.8045(4) 0.1918(3) 0.0805(19) Uani 1 1 d . . .
O9 O 0.6695(10) 0.9854(9) -0.0301(6) 0.206(4) Uani 1 1 d U . .
O10 O 0.3062(5) 0.7487(4) 0.2867(3) 0.086(2) Uani 1 1 d . . .
O11 O 0.2491(7) 0.7835(6) 0.1839(5) 0.123(3) Uani 1 1 d . . .
O12 O 0.1677(7) 0.8329(6) 0.2560(5) 0.129(3) Uani 1 1 d . . .
O13 O 0.2678(5) 0.5783(5) 0.2761(3) 0.084(2) Uani 1 1 d . . .
O14 O 0.4067(6) 0.5341(5) 0.2304(4) 0.093(2) Uani 1 1 d . . .
O15 O 0.2636(9) 0.4563(6) 0.2802(5) 0.149(4) Uani 1 1 d . . .
O16 O 0.2794(5) 0.6551(4) 0.1256(4) 0.092(2) Uani 1 1 d . . .
O17 O 0.3950(5) 0.7484(5) 0.0774(3) 0.092(2) Uani 1 1 d . . .
O18 O 0.2637(6) 0.7218(5) 0.0154(4) 0.121(3) Uani 1 1 d . . .
C1 C 0.7961(8) 0.5508(8) 0.5479(5) 0.103(3) Uani 1 1 d U . .
H1A H 0.8105 0.6014 0.5547 0.123 Uiso 1 1 calc R . .
H1B H 0.7725 0.5110 0.5927 0.123 Uiso 1 1 calc R . .
C2 C 0.8990(7) 0.5237(8) 0.5223(5) 0.084(3) Uani 1 1 d U . .
C3 C 0.9803(10) 0.5809(8) 0.4871(5) 0.095(3) Uani 1 1 d U . .
C4 C 1.0825(8) 0.5557(8) 0.4660(5) 0.088(3) Uani 1 1 d U . .
C5 C 0.9586(12) 0.6706(9) 0.4715(7) 0.141(5) Uani 1 1 d U . .
H5A H 0.8830 0.6777 0.4871 0.212 Uiso 1 1 calc R . .
H5B H 0.9658 0.6996 0.4218 0.212 Uiso 1 1 calc R . .
H5C H 1.0133 0.6908 0.4958 0.212 Uiso 1 1 calc R . .
C6 C 1.1738(10) 0.6188(9) 0.4345(6) 0.153(5) Uani 1 1 d U . .
H6A H 1.1911 0.6452 0.4670 0.230 Uiso 1 1 calc R . .
H6B H 1.1470 0.6579 0.3914 0.230 Uiso 1 1 calc R . .
H6C H 1.2413 0.5933 0.4252 0.230 Uiso 1 1 calc R . .
C7 C 0.5549(7) 0.5959(7) 0.3786(5) 0.065(2) Uani 1 1 d U . .
C8 C 0.5448(7) 0.6293(6) 0.4368(5) 0.075(2) Uani 1 1 d U . .
C9 C 0.6179(7) 0.6103(7) 0.4945(5) 0.083(3) Uani 1 1 d U . .
C10 C 0.5975(8) 0.6459(8) 0.5451(5) 0.097(3) Uani 1 1 d U . .
H10 H 0.6461 0.6350 0.5831 0.117 Uiso 1 1 calc R . .
C11 C 0.5095(9) 0.6948(8) 0.5392(6) 0.098(3) Uani 1 1 d U . .
H11 H 0.4967 0.7159 0.5744 0.118 Uiso 1 1 calc R . .
C12 C 0.4373(8) 0.7154(8) 0.4845(6) 0.097(3) Uani 1 1 d U . .
H12A H 0.3772 0.7510 0.4810 0.117 Uiso 1 1 calc R . .
C13 C 0.4570(8) 0.6812(7) 0.4337(5) 0.088(3) Uani 1 1 d U . .
H13 H 0.4079 0.6942 0.3957 0.105 Uiso 1 1 calc R . .
C14 C 0.6304(8) 0.4944(7) 0.3367(6) 0.091(3) Uani 1 1 d U . .
H14A H 0.6251 0.5351 0.2900 0.110 Uiso 1 1 calc R . .
H14B H 0.5682 0.4565 0.3427 0.110 Uiso 1 1 calc R . .
C15 C 0.7394(9) 0.4514(8) 0.3428(6) 0.092(3) Uani 1 1 d U . .
C16 C 0.7479(11) 0.3887(9) 0.3284(7) 0.122(3) Uani 1 1 d U . .
H16 H 0.6909 0.3613 0.3147 0.146 Uiso 1 1 calc R . .
C17 C 0.8662(14) 0.3692(12) 0.3377(9) 0.155(4) Uani 1 1 d U . .
H17 H 0.8960 0.3202 0.3385 0.186 Uiso 1 1 calc R . .
C18 C 0.9228(13) 0.4205(10) 0.3444(8) 0.135(4) Uani 1 1 d U . .
H18A H 1.0019 0.4232 0.3453 0.162 Uiso 1 1 calc R . .
C19 C 1.0275(6) 0.5742(6) 0.1038(5) 0.075(2) Uani 1 1 d U . .
H19A H 1.0689 0.5387 0.1439 0.090 Uiso 1 1 calc R . .
H19B H 1.0705 0.6240 0.0832 0.090 Uiso 1 1 calc R . .
C20 C 1.0130(7) 0.4531(7) 0.0696(6) 0.081(3) Uani 1 1 d U . .
C21 C 1.0118(6) 0.5346(7) 0.0507(6) 0.066(2) Uani 1 1 d U . .
C22 C 0.9975(7) 0.5827(7) -0.0190(7) 0.080(3) Uani 1 1 d U . .
C23 C 1.0258(12) 0.3993(8) 0.1476(7) 0.140(5) Uani 1 1 d U . .
H23A H 0.9966 0.4274 0.1768 0.210 Uiso 1 1 calc R . .
H23B H 1.1049 0.3869 0.1575 0.210 Uiso 1 1 calc R . .
H23C H 0.9838 0.3500 0.1570 0.210 Uiso 1 1 calc R . .
C24 C 0.9890(11) 0.6753(7) -0.0418(7) 0.125(4) Uani 1 1 d U . .
H24A H 0.9558 0.6970 -0.0876 0.188 Uiso 1 1 calc R . .
H24B H 1.0638 0.6977 -0.0434 0.188 Uiso 1 1 calc R . .
H24C H 0.9420 0.6891 -0.0087 0.188 Uiso 1 1 calc R . .
C25 C 0.6892(6) 0.6362(6) 0.1525(5) 0.065(2) Uani 1 1 d U . .
C26 C 0.7934(6) 0.6446(5) 0.1912(4) 0.0537(18) Uani 1 1 d U . .
C27 C 0.9047(6) 0.6227(5) 0.1765(5) 0.0582(19) Uani 1 1 d U . .
C28 C 0.9951(7) 0.6332(5) 0.2138(5) 0.068(2) Uani 1 1 d U . .
H28 H 1.0683 0.6195 0.2038 0.082 Uiso 1 1 calc R . .
C29 C 0.9777(7) 0.6641(6) 0.2662(5) 0.071(2) Uani 1 1 d U . .
H29 H 1.0393 0.6709 0.2919 0.085 Uiso 1 1 calc R . .
C30 C 0.8705(7) 0.6851(6) 0.2810(5) 0.072(2) Uani 1 1 d U . .
H30 H 0.8590 0.7054 0.3168 0.086 Uiso 1 1 calc R . .
C31 C 0.7800(7) 0.6759(5) 0.2424(5) 0.065(2) Uani 1 1 d U . .
H31 H 0.7076 0.6916 0.2517 0.078 Uiso 1 1 calc R . .
C32 C 0.5975(8) 0.5999(9) 0.0608(7) 0.120(3) Uani 1 1 d U . .
H32A H 0.5478 0.5590 0.0926 0.144 Uiso 1 1 calc R . .
H32B H 0.5555 0.6503 0.0441 0.144 Uiso 1 1 calc R . .
C33 C 0.6264(10) 0.5773(12) 0.0036(10) 0.126(4) Uani 1 1 d U . .
C34 C 0.6167(12) 0.5993(13) -0.0606(10) 0.159(4) Uani 1 1 d U . .
H34 H 0.5855 0.6484 -0.0886 0.191 Uiso 1 1 calc R . .
C35 C 0.6577(13) 0.5422(14) -0.0852(10) 0.156(4) Uani 1 1 d U . .
H35 H 0.6618 0.5489 -0.1326 0.187 Uiso 1 1 calc R . .
C36 C 0.6883(12) 0.4815(13) -0.0379(11) 0.153(4) Uani 1 1 d U . .
H36 H 0.7168 0.4338 -0.0412 0.183 Uiso 1 1 calc R . .
C37 C 0.9493(7) 0.9440(6) 0.1490(5) 0.075(2) Uani 1 1 d U . .
H37A H 0.9954 0.8969 0.1731 0.090 Uiso 1 1 calc R . .
H37B H 0.9676 0.9860 0.1673 0.090 Uiso 1 1 calc R . .
C38 C 0.9734(7) 1.0537(6) 0.0320(5) 0.063(2) Uani 1 1 d U . .
C39 C 0.9731(6) 0.9730(6) 0.0705(5) 0.062(2) Uani 1 1 d U . .
C40 C 0.9985(7) 0.9179(6) 0.0397(5) 0.065(2) Uani 1 1 d U . .
C41 C 0.9391(10) 1.1137(7) 0.0655(6) 0.119(4) Uani 1 1 d U . .
H41A H 0.8887 1.0881 0.1047 0.179 Uiso 1 1 calc R . .
H41B H 0.9008 1.1585 0.0317 0.179 Uiso 1 1 calc R . .
H41C H 1.0058 1.1327 0.0816 0.179 Uiso 1 1 calc R . .
C42 C 0.9941(9) 0.8284(5) 0.0798(5) 0.091(3) Uani 1 1 d U . .
H42A H 1.0693 0.8091 0.0952 0.137 Uiso 1 1 calc R . .
H42B H 0.9662 0.8015 0.0498 0.137 Uiso 1 1 calc R . .
H42C H 0.9441 0.8175 0.1198 0.137 Uiso 1 1 calc R . .
C43 C 0.6112(7) 0.8473(6) 0.1779(5) 0.074(2) Uani 1 1 d U . .
C44 C 0.6784(7) 0.8591(6) 0.2353(5) 0.074(2) Uani 1 1 d U . .
C45 C 0.7876(8) 0.8945(6) 0.2260(5) 0.076(2) Uani 1 1 d U . .
C46 C 0.8461(9) 0.8971(7) 0.2838(5) 0.097(3) Uani 1 1 d U . .
H46 H 0.9184 0.9200 0.2780 0.116 Uiso 1 1 calc R . .
C47 C 0.7966(10) 0.8652(7) 0.3506(6) 0.108(3) Uani 1 1 d U . .
H47 H 0.8361 0.8663 0.3895 0.129 Uiso 1 1 calc R . .
C48 C 0.6905(9) 0.8325(7) 0.3588(6) 0.100(3) Uani 1 1 d U . .
H48 H 0.6575 0.8119 0.4035 0.120 Uiso 1 1 calc R . .
C49 C 0.6314(9) 0.8294(7) 0.3025(5) 0.090(3) Uani 1 1 d U . .
H49 H 0.5587 0.8070 0.3093 0.108 Uiso 1 1 calc R . .
C50 C 0.5899(9) 0.8707(8) 0.0539(6) 0.126(3) Uani 1 1 d U . .
H50 H 0.5195 0.8453 0.0582 0.151 Uiso 1 1 calc R . .
C51 C 0.6489(12) 0.9059(12) -0.0099(8) 0.148(4) Uani 1 1 d U . .
C52 C 0.7087(15) 0.8845(13) -0.0595(10) 0.189(5) Uani 1 1 d U . .
H52 H 0.7161 0.8315 -0.0578 0.226 Uiso 1 1 calc R . .
C53 C 0.7539(16) 0.9469(13) -0.1092(9) 0.186(5) Uani 1 1 d DU . .
H53 H 0.8001 0.9449 -0.1461 0.223 Uiso 1 1 calc R . .
C54 C 0.7209(14) 1.0168(13) -0.0975(9) 0.190(5) Uani 1 1 d DU . .
H54 H 0.7304 1.0704 -0.1267 0.228 Uiso 1 1 calc R . .

loop_
_atom_site_aniso_label
_atom_site_aniso_U_11
_atom_site_aniso_U_22
_atom_site_aniso_U_33
_atom_site_aniso_U_23
_atom_site_aniso_U_13
_atom_site_aniso_U_12
Pr1 0.0318(2) 0.0948(4) 0.0471(3) -0.0174(2) 0.00015(17) -0.0084(2)
N1 0.067(5) 0.098(6) 0.044(4) -0.016(4) -0.015(4) 0.004(4)
N2 0.029(3) 0.164(8) 0.116(7) -0.102(7) -0.010(4) 0.000(4)
N3 0.070(5) 0.149(8) 0.057(5) -0.022(5) 0.002(4) -0.049(5)
N4 0.047(5) 0.112(8) 0.075(7) -0.025(6) -0.001(5) -0.001(5)
N5 0.091(7) 0.087(8) 0.063(6) -0.023(6) -0.006(5) -0.012(6)
N6 0.053(5) 0.106(7) 0.058(6) -0.018(5) -0.004(4) 0.001(5)
O1 0.059(4) 0.218(9) 0.060(4) -0.059(5) -0.025(3) 0.028(5)
O2 0.045(3) 0.119(5) 0.042(3) -0.014(3) -0.015(3) 0.002(3)
O3 0.111(5) 0.146(5) 0.143(5) -0.025(4) -0.004(4) 0.007(4)
O4 0.026(3) 0.126(5) 0.114(5) -0.089(5) -0.002(3) 0.002(3)
O5 0.032(3) 0.123(5) 0.070(4) -0.046(4) 0.004(3) 0.006(3)
O6 0.101(6) 0.244(9) 0.193(8) -0.128(8) -0.003(5) -0.008(6)
O7 0.051(3) 0.101(5) 0.055(4) -0.008(3) 0.005(3) -0.034(3)
O8 0.044(3) 0.111(5) 0.075(4) -0.019(4) 0.006(3) -0.031(3)
O9 0.164(7) 0.229(9) 0.145(7) 0.032(7) -0.006(6) -0.039(7)
O10 0.070(4) 0.117(6) 0.059(4) -0.019(4) 0.004(3) 0.028(4)
O11 0.114(6) 0.176(9) 0.089(6) -0.057(6) -0.043(5) 0.064(6)
O12 0.086(5) 0.167(8) 0.153(8) -0.080(7) -0.017(5) 0.058(6)
O13 0.060(4) 0.120(7) 0.063(4) -0.021(4) 0.014(3) -0.036(4)
O14 0.059(4) 0.133(7) 0.095(5) -0.050(5) -0.014(4) 0.003(4)
O15 0.217(10) 0.112(7) 0.109(7) -0.026(6) -0.014(6) -0.078(7)
O16 0.080(4) 0.106(5) 0.068(5) -0.001(4) -0.026(4) -0.033(4)
O17 0.056(4) 0.143(6) 0.060(4) -0.014(4) -0.007(3) -0.035(4)
O18 0.114(6) 0.174(8) 0.062(5) -0.024(5) -0.043(4) -0.016(5)
C1 0.067(5) 0.166(7) 0.063(5) -0.025(5) -0.015(4) 0.011(5)
C2 0.045(5) 0.146(8) 0.045(5) -0.015(6) -0.012(4) -0.007(6)
C3 0.084(6) 0.127(8) 0.058(6) -0.012(6) -0.028(5) -0.010(6)
C4 0.055(5) 0.137(8) 0.046(5) 0.001(6) -0.010(4) -0.029(6)
C5 0.158(10) 0.149(11) 0.098(8) -0.021(8) -0.032(8) 0.016(9)
C6 0.114(9) 0.197(12) 0.099(8) 0.009(8) -0.021(7) -0.073(9)
C7 0.035(4) 0.103(6) 0.051(5) -0.021(5) 0.000(4) -0.007(4)
C8 0.043(4) 0.119(5) 0.057(4) -0.024(4) 0.003(4) -0.015(4)
C9 0.042(4) 0.146(6) 0.053(5) -0.024(5) 0.002(4) -0.014(4)
C10 0.064(5) 0.164(7) 0.060(5) -0.035(5) -0.008(4) 0.001(5)
C11 0.076(6) 0.156(7) 0.065(5) -0.043(6) 0.006(5) -0.003(6)
C12 0.067(5) 0.149(7) 0.070(6) -0.033(5) 0.011(5) -0.001(5)
C13 0.056(4) 0.139(6) 0.060(5) -0.025(5) 0.004(4) -0.021(5)
C14 0.071(5) 0.109(5) 0.095(5) -0.038(5) -0.011(4) -0.007(4)
C15 0.066(5) 0.110(6) 0.095(5) -0.032(5) -0.002(5) -0.006(5)
C16 0.102(7) 0.135(8) 0.157(7) -0.087(6) -0.017(6) 0.014(6)
C17 0.130(8) 0.158(8) 0.175(8) -0.058(8) 0.013(7) 0.015(7)
C18 0.094(7) 0.158(8) 0.153(7) -0.055(7) 0.000(7) 0.019(7)
C19 0.042(4) 0.095(6) 0.105(6) -0.056(5) 0.006(4) -0.002(4)
C20 0.063(5) 0.094(7) 0.102(7) -0.053(6) 0.011(5) -0.003(5)
C21 0.038(4) 0.084(6) 0.102(6) -0.067(5) 0.005(4) -0.001(4)
C22 0.053(5) 0.086(7) 0.119(7) -0.056(6) 0.001(5) -0.004(5)
C23 0.159(11) 0.129(10) 0.138(11) -0.055(9) 0.000(9) -0.021(9)
C24 0.152(10) 0.090(9) 0.147(10) -0.058(8) -0.012(8) -0.013(7)
C25 0.031(4) 0.096(5) 0.074(5) -0.039(4) 0.001(4) -0.006(4)
C26 0.036(3) 0.073(4) 0.063(4) -0.038(4) 0.001(3) -0.007(3)
C27 0.039(4) 0.073(5) 0.072(4) -0.038(4) 0.000(3) -0.008(3)
C28 0.046(4) 0.084(5) 0.083(5) -0.041(4) -0.005(4) -0.007(4)
C29 0.052(4) 0.089(5) 0.074(5) -0.031(5) -0.015(4) -0.014(4)
C30 0.063(4) 0.095(5) 0.065(4) -0.038(4) 0.003(4) -0.010(4)
C31 0.048(4) 0.087(4) 0.066(4) -0.034(4) 0.000(3) -0.010(3)
C32 0.065(5) 0.