####################################################################### 
# 
# This file contains crystal structure data downloaded from the 
# Cambridge Structural Database (CSD) hosted by the Cambridge 
# Crystallographic Data Centre (CCDC).
# 
# Full information about CCDC data access policies and citation 
# guidelines are available at http://www.ccdc.cam.ac.uk/access/V1 
# 
# Audit and citation data items may have been added by the CCDC. 
# Please retain this information to preserve the provenance of 
# this file and to allow appropriate attribution of the data. 
# 
#######################################################################

data_compound2
_audit_block_doi                 10.5517/ccycz08
_database_code_depnum_ccdc_archive 'CCDC 875440'
loop_
_citation_id
_citation_doi
_citation_year
1 10.1016/j.ica.2012.06.008 2012
_audit_update_record             
;
2012-04-10 deposited with the CCDC.	2024-07-09 downloaded from the CCDC.
;

_audit_creation_method           SHELXL-97
_chemical_name_systematic        
;
?
;
_chemical_name_common            ?
_chemical_melting_point          ?
_chemical_formula_moiety         'C6 H4 Cu N5'
_chemical_formula_sum            'C6 H4 Cu N5'
_chemical_formula_weight         209.69

loop_
_atom_type_symbol
_atom_type_description
_atom_type_scat_dispersion_real
_atom_type_scat_dispersion_imag
_atom_type_scat_source
C C 0.0033 0.0016 'International Tables Vol C Tables 4.2.6.8 and 6.1.1.4'
H H 0.0000 0.0000 'International Tables Vol C Tables 4.2.6.8 and 6.1.1.4'
N N 0.0061 0.0033 'International Tables Vol C Tables 4.2.6.8 and 6.1.1.4'
O O 0.0106 0.0060 'International Tables Vol C Tables 4.2.6.8 and 6.1.1.4'
P P 0.1023 0.0942 'International Tables Vol C Tables 4.2.6.8 and 6.1.1.4'
Cu Cu 0.3201 1.2651 'International Tables Vol C Tables 4.2.6.8 and 6.1.1.4'

_symmetry_cell_setting           Monoclinic
_symmetry_space_group_name_H-M   P21/c

loop_
_symmetry_equiv_pos_as_xyz
'x, y, z'
'-x, y+1/2, -z+1/2'
'-x, -y, -z'
'x, -y-1/2, z-1/2'

_cell_length_a                   3.5504(7)
_cell_length_b                   17.710(4)
_cell_length_c                   13.212(3)
_cell_angle_alpha                90.00
_cell_angle_beta                 90.136(7)
_cell_angle_gamma                90.00
_cell_volume                     830.8(3)
_cell_formula_units_Z            4
_cell_measurement_temperature    98(2)
_cell_measurement_reflns_used    884
_cell_measurement_theta_min      2.97
_cell_measurement_theta_max      28.09

_exptl_crystal_description       plate
_exptl_crystal_colour            blue
_exptl_crystal_size_max          .14
_exptl_crystal_size_mid          .11
_exptl_crystal_size_min          .06
_exptl_crystal_density_meas      ?
_exptl_crystal_density_diffrn    1.677
_exptl_crystal_density_method    'not measured'
_exptl_crystal_F_000             416
_exptl_absorpt_coefficient_mu    2.576
_exptl_absorpt_correction_type   multi-scan
_exptl_absorpt_correction_T_min  0.719
_exptl_absorpt_correction_T_max  0.857
_exptl_absorpt_process_details   'SADABS (Bruker, 1998)'

_exptl_special_details           
;
?
;

_diffrn_ambient_temperature      98(2)
_diffrn_radiation_wavelength     0.71073
_diffrn_radiation_type           MoK\a
_diffrn_radiation_source         'fine-focus sealed tube'
_diffrn_radiation_monochromator  graphite
_diffrn_measurement_device_type  'Bruker APEX-II CCD'
_diffrn_measurement_method       '\f and \w scans'
_diffrn_detector_area_resol_mean 512
_diffrn_reflns_number            4662
_diffrn_reflns_av_R_equivalents  0.0203
_diffrn_reflns_av_sigmaI/netI    0.0273
_diffrn_reflns_limit_h_min       -4
_diffrn_reflns_limit_h_max       4
_diffrn_reflns_limit_k_min       -23
_diffrn_reflns_limit_k_max       23
_diffrn_reflns_limit_l_min       -17
_diffrn_reflns_limit_l_max       13
_diffrn_reflns_theta_min         1.92
_diffrn_reflns_theta_max         28.07
_reflns_number_total             2032
_reflns_number_gt                1629
_reflns_threshold_expression     >2sigma(I)

_computing_data_collection       'Bruker SMART (Bruker, 1998)'
_computing_cell_refinement       'Bruker SAINT (Bruker, 1998)'
_computing_data_reduction        'Bruker SAINT'
_computing_structure_solution    'SHELXS-97 (Sheldrick, 2008)'
_computing_structure_refinement  'SHELXL-97 (Sheldrick, 2008)'
_computing_molecular_graphics    'CrystalMaker (Palmer, 2006)'
_computing_publication_material  'Bruker SHELXTL (Sheldrick, 2008)'

_refine_special_details          
;
Refinement of F^2^ against ALL reflections. The weighted R-factor wR and
goodness of fit S are based on F^2^, conventional R-factors R are based
on F, with F set to zero for negative F^2^. The threshold expression of
F^2^ > 2sigma(F^2^) is used only for calculating R-factors(gt) etc. and is
not relevant to the choice of reflections for refinement. R-factors based
on F^2^ are statistically about twice as large as those based on F, and R-
factors based on ALL data will be even larger.
;

_refine_ls_structure_factor_coef Fsqd
_refine_ls_matrix_type           full
_refine_ls_weighting_scheme      calc
_refine_ls_weighting_details     
'calc w=1/[\s^2^(Fo^2^)+(0.1384P)^2^+0.0000P] where P=(Fo^2^+2Fc^2^)/3'
_atom_sites_solution_primary     direct
_atom_sites_solution_secondary   difmap
_atom_sites_solution_hydrogens   geom
_refine_ls_hydrogen_treatment    none
_refine_ls_extinction_method     none
_refine_ls_extinction_coef       ?
_refine_ls_number_reflns         1404
_refine_ls_number_parameters     109
_refine_ls_number_restraints     0
_refine_ls_R_factor_all          0.0760
_refine_ls_R_factor_gt           0.0630
_refine_ls_wR_factor_ref         0.2174
_refine_ls_wR_factor_gt          0.2053
_refine_ls_goodness_of_fit_ref   1.237
_refine_ls_restrained_S_all      1.237
_refine_ls_shift/su_max          0.000
_refine_ls_shift/su_mean         0.000

loop_
_atom_site_label
_atom_site_type_symbol
_atom_site_fract_x
_atom_site_fract_y
_atom_site_fract_z
_atom_site_U_iso_or_equiv
_atom_site_adp_type
_atom_site_occupancy
_atom_site_symmetry_multiplicity
_atom_site_calc_flag
_atom_site_refinement_flags
_atom_site_disorder_assembly
_atom_site_disorder_group
Cu1 Cu 0.3478(3) 0.43859(4) 0.59860(6) 0.0120(4) Uani 1 1 d . . .
C1 C 0.0803(19) 0.3579(4) 0.7784(5) 0.0135(13) Uani 1 1 d . . .
H1 H 0.0749 0.4068 0.8081 0.016 Uiso 1 1 calc R . .
C2 C 0.2153(18) 0.2809(4) 0.6414(5) 0.0127(13) Uani 1 1 d . . .
H2 H 0.3085 0.2745 0.5744 0.015 Uiso 1 1 calc R . .
C3 C 0.1016(19) 0.2178(4) 0.6942(5) 0.0131(13) Uani 1 1 d . . .
H3 H 0.1099 0.1696 0.6625 0.016 Uiso 1 1 calc R . .
C4 C 0.9759(17) 0.2759(4) 0.2924(5) 0.0104(13) Uani 1 1 d . . .
C5 C 0.9655(18) 0.2035(4) 0.3364(5) 0.0136(14) Uani 1 1 d . . .
H5 H 0.8819 0.1967 0.4043 0.016 Uiso 1 1 calc R . .
C6 C 0.8491(19) 0.3402(4) 0.3525(5) 0.0119(13) Uani 1 1 d . . .
N1 N 0.6266(15) 0.4074(3) 0.4697(4) 0.0108(11) Uani 1 1 d . . .
N2 N 0.7045(17) 0.3357(3) 0.4453(5) 0.0124(11) Uani 1 1 d . . .
N3 N 0.8619(16) 0.4134(3) 0.3186(4) 0.0113(11) Uani 1 1 d . . .
N4 N 0.2801(17) 0.5473(3) 0.6054(4) 0.0111(11) Uani 1 1 d . . .
N5 N 0.2012(16) 0.3509(3) 0.6801(4) 0.0112(11) Uani 1 1 d . . .

loop_
_atom_site_aniso_label
_atom_site_aniso_U_11
_atom_site_aniso_U_22
_atom_site_aniso_U_33
_atom_site_aniso_U_23
_atom_site_aniso_U_13
_atom_site_aniso_U_12
Cu1 0.0205(5) 0.0065(5) 0.0091(5) 0.0009(3) 0.0005(3) 0.0001(3)
C1 0.021(3) 0.009(3) 0.010(3) -0.001(2) 0.001(3) -0.001(3)
C2 0.016(3) 0.014(3) 0.008(3) 0.003(2) 0.001(2) 0.000(2)
C3 0.015(3) 0.008(3) 0.017(3) 0.001(2) -0.001(3) -0.002(2)
C4 0.012(3) 0.008(3) 0.012(3) 0.000(2) -0.002(2) 0.001(2)
C5 0.014(3) 0.015(3) 0.011(3) 0.000(3) -0.002(2) -0.001(3)
C6 0.014(3) 0.012(3) 0.009(3) -0.003(2) -0.004(2) 0.003(2)
N1 0.014(2) 0.005(3) 0.014(3) -0.001(2) -0.001(2) 0.000(2)
N2 0.017(3) 0.007(3) 0.014(3) 0.000(2) -0.002(2) 0.002(2)
N3 0.016(3) 0.009(3) 0.008(2) -0.002(2) -0.001(2) 0.001(2)
N4 0.016(3) 0.007(2) 0.011(3) -0.001(2) 0.001(2) -0.001(2)
N5 0.017(3) 0.009(3) 0.008(2) 0.004(2) 0.002(2) 0.001(2)

_geom_special_details            
;
All esds (except the esd in the dihedral angle between two l.s. planes)
are estimated using the full covariance matrix. The cell esds are taken
into account individually in the estimation of esds in distances, angles
and torsion angles; correlations between esds in cell parameters are only
used when they are defined by crystal symmetry. An approximate (isotropic)
treatment of cell esds is used for estimating esds involving l.s. planes.
;

loop_
_geom_bond_atom_site_label_1
_geom_bond_atom_site_label_2
_geom_bond_distance
_geom_bond_site_symmetry_2
_geom_bond_publ_flag
Cu1 N4 1.939(6) . ?
Cu1 N5 1.956(6) . ?
Cu1 N1 2.041(6) . ?
C1 N5 1.370(9) . ?
C1 C5 1.388(10) 4_466 ?
C1 H1 0.9500 . ?
C2 N5 1.339(9) . ?
C2 C3 1.373(10) . ?
C2 H2 0.9500 . ?
C3 C4 1.374(9) 4_466 ?
C3 H3 0.9500 . ?
C4 C3 1.374(9) 4_665 ?
C4 C5 1.406(9) . ?
C4 C6 1.455(9) . ?
C5 C1 1.388(9) 4_665 ?
C5 H5 0.9500 . ?
C6 N2 1.329(9) . ?
C6 N3 1.368(9) . ?
N1 N4 1.315(8) 3_666 ?
N1 N2 1.335(8) . ?
N3 N4 1.318(8) 3_666 ?
N4 N1 1.315(8) 3_666 ?
N4 N3 1.318(8) 3_666 ?

loop_
_geom_angle_atom_site_label_1
_geom_angle_atom_site_label_2
_geom_angle_atom_site_label_3
_geom_angle
_geom_angle_site_symmetry_1
_geom_angle_site_symmetry_3
_geom_angle_publ_flag
N4 Cu1 N5 136.6(2) . . ?
N4 Cu1 N1 111.5(2) . . ?
N5 Cu1 N1 111.8(2) . . ?
N5 C1 C5 122.9(6) . 4_466 ?
N5 C1 H1 118.6 . . ?
C5 C1 H1 118.6 4_466 . ?
N5 C2 C3 123.1(6) . . ?
N5 C2 H2 118.4 . . ?
C3 C2 H2 118.4 . . ?
C2 C3 C4 120.5(7) . 4_466 ?
C2 C3 H3 119.8 . . ?
C4 C3 H3 119.8 4_466 . ?
C3 C4 C5 118.1(6) 4_665 . ?
C3 C4 C6 123.4(6) 4_665 . ?
C5 C4 C6 118.6(6) . . ?
C1 C5 C4 118.4(6) 4_665 . ?
C1 C5 H5 120.8 4_665 . ?
C4 C5 H5 120.8 . . ?
N2 C6 N3 111.6(6) . . ?
N2 C6 C4 125.0(6) . . ?
N3 C6 C4 123.4(6) . . ?
N4 N1 N2 110.1(5) 3_666 . ?
N4 N1 Cu1 125.7(5) 3_666 . ?
N2 N1 Cu1 123.8(4) . . ?
C6 N2 N1 104.2(5) . . ?
N4 N3 C6 103.7(5) 3_666 . ?
N1 N4 N3 110.3(6) 3_666 3_666 ?
N1 N4 Cu1 122.4(5) 3_666 . ?
N3 N4 Cu1 127.2(5) 3_666 . ?
C2 N5 C1 117.0(6) . . ?
C2 N5 Cu1 120.9(4) . . ?
C1 N5 Cu1 122.1(5) . . ?

_diffrn_measured_fraction_theta_max 1.000
_diffrn_reflns_theta_full        27.18
_diffrn_measured_fraction_theta_full 1.000
_refine_diff_density_max         1.236
_refine_diff_density_min         -0.636
_refine_diff_density_rms         0.204
