####################################################################### 
# 
# This file contains crystal structure data downloaded from the 
# Cambridge Structural Database (CSD) hosted by the Cambridge 
# Crystallographic Data Centre (CCDC).
# 
# Full information about CCDC data access policies and citation 
# guidelines are available at http://www.ccdc.cam.ac.uk/access/V1 
# 
# Audit and citation data items may have been added by the CCDC. 
# Please retain this information to preserve the provenance of 
# this file and to allow appropriate attribution of the data. 
# 
#######################################################################

data_MOF123
_audit_block_doi                 10.5517/ccxkq8f
_database_code_depnum_ccdc_archive 'CCDC 851175'
loop_
_citation_id
_citation_doi
_citation_year
1 10.1002/anie.201202925 2012
#Added by publCIF



_audit_update_record             
;
2011-10-27 deposited with the CCDC.	2024-07-09 downloaded from the CCDC.
;
#TrackingRef '1.cif'



_symmetry_space_group_name_hall  '-C 2y'
#Added by publCIF




_cell_special_details            ?

_audit_creation_method           SHELXL-97
_chemical_name_systematic        
;
?
;
_chemical_name_common            MOF-123
_chemical_melting_point          ?
_chemical_formula_moiety         ?
_chemical_formula_sum            'C46 H29 N7 O34 Zn7'
_chemical_formula_weight         1681.35

loop_
_atom_type_symbol
_atom_type_description
_atom_type_scat_dispersion_real
_atom_type_scat_dispersion_imag
_atom_type_scat_source
C C 0.0033 0.0016 'International Tables Vol C Tables 4.2.6.8 and 6.1.1.4'
H H 0.0000 0.0000 'International Tables Vol C Tables 4.2.6.8 and 6.1.1.4'
N N 0.0061 0.0033 'International Tables Vol C Tables 4.2.6.8 and 6.1.1.4'
O O 0.0106 0.0060 'International Tables Vol C Tables 4.2.6.8 and 6.1.1.4'
Zn Zn 0.2839 1.4301 'International Tables Vol C Tables 4.2.6.8 and 6.1.1.4'

_symmetry_cell_setting           monoclinic
_symmetry_space_group_name_H-M   C2/m

loop_
_symmetry_equiv_pos_as_xyz
'x, y, z'
'-x, y, -z'
'x+1/2, y+1/2, z'
'-x+1/2, y+1/2, -z'
'-x, -y, -z'
'x, -y, z'
'-x+1/2, -y+1/2, -z'
'x+1/2, -y+1/2, z'

_cell_length_a                   18.7789(11)
_cell_length_b                   17.8270(11)
_cell_length_c                   14.3603(9)
_cell_angle_alpha                90.00
_cell_angle_beta                 93.827(1)
_cell_angle_gamma                90.00
_cell_volume                     4796.7(5)
_cell_formula_units_Z            2
_cell_measurement_temperature    173(2)
_cell_measurement_reflns_used    3968
_cell_measurement_theta_min      2.14
_cell_measurement_theta_max      28.25

_exptl_crystal_description       plate
_exptl_crystal_colour            clear
_exptl_crystal_size_max          0.25
_exptl_crystal_size_mid          0.24
_exptl_crystal_size_min          0.20
_exptl_crystal_density_meas      ?
_exptl_crystal_density_diffrn    1.164
_exptl_crystal_density_method    'not measured'
_exptl_crystal_F_000             1672
_exptl_absorpt_coefficient_mu    1.785
_exptl_absorpt_correction_type   SADABS
_exptl_absorpt_correction_T_min  0.6639
_exptl_absorpt_correction_T_max  0.7166
_exptl_absorpt_process_details   ?

_exptl_special_details           
;
?
;

_diffrn_ambient_temperature      173(2)
_diffrn_radiation_wavelength     0.71073
_diffrn_radiation_type           MoK\a
_diffrn_radiation_source         'fine-focus sealed tube'
_diffrn_radiation_monochromator  graphite
_diffrn_measurement_device_type  'Bruker SMART CCD'
_diffrn_measurement_method       ?
_diffrn_detector_area_resol_mean ?
_diffrn_standards_number         ?
_diffrn_standards_interval_count ?
_diffrn_standards_interval_time  ?
_diffrn_standards_decay_%        0
_diffrn_reflns_number            13423
_diffrn_reflns_av_R_equivalents  0.0414
_diffrn_reflns_av_sigmaI/netI    0.0593
_diffrn_reflns_limit_h_min       -23
_diffrn_reflns_limit_h_max       11
_diffrn_reflns_limit_k_min       -22
_diffrn_reflns_limit_k_max       21
_diffrn_reflns_limit_l_min       -17
_diffrn_reflns_limit_l_max       17
_diffrn_reflns_theta_min         1.58
_diffrn_reflns_theta_max         26.37
_reflns_number_total             5050
_reflns_number_gt                3559
_reflns_threshold_expression     >2sigma(I)

_computing_data_collection       'Bruker SMART'
_computing_cell_refinement       'Bruker SAINT'
_computing_data_reduction        'Bruker SAINT'
_computing_structure_solution    'SHELXS-97 (Sheldrick, 1990)'
_computing_structure_refinement  'SHELXL-97 (Sheldrick, 1997)'
_computing_molecular_graphics    'Bruker XP'
_computing_publication_material  'Bruker XCIF'

_refine_special_details          
;
Refinement of F^2^ against ALL reflections. The weighted R-factor wR and
goodness of fit S are based on F^2^, conventional R-factors R are based
on F, with F set to zero for negative F^2^. The threshold expression of
F^2^ > 2sigma(F^2^) is used only for calculating R-factors(gt) etc. and is
not relevant to the choice of reflections for refinement. R-factors based
on F^2^ are statistically about twice as large as those based on F, and R-
factors based on ALL data will be even larger.
;

_refine_ls_structure_factor_coef Fsqd
_refine_ls_matrix_type           full
_refine_ls_weighting_scheme      calc
_refine_ls_weighting_details     
'calc w=1/[\s^2^(Fo^2^)+(0.0672P)^2^+25.4285P] where P=(Fo^2^+2Fc^2^)/3'
_atom_sites_solution_primary     direct
_atom_sites_solution_secondary   difmap
_atom_sites_solution_hydrogens   geom
_refine_ls_hydrogen_treatment    mixed
_refine_ls_extinction_method     none
_refine_ls_extinction_coef       ?
_refine_ls_number_reflns         5050
_refine_ls_number_parameters     233
_refine_ls_number_restraints     8
_refine_ls_R_factor_all          0.0849
_refine_ls_R_factor_gt           0.0516
_refine_ls_wR_factor_ref         0.1428
_refine_ls_wR_factor_gt          0.1271
_refine_ls_goodness_of_fit_ref   1.025
_refine_ls_restrained_S_all      1.030
_refine_ls_shift/su_max          0.244
_refine_ls_shift/su_mean         0.008

loop_
_atom_site_label
_atom_site_type_symbol
_atom_site_fract_x
_atom_site_fract_y
_atom_site_fract_z
_atom_site_U_iso_or_equiv
_atom_site_adp_type
_atom_site_occupancy
_atom_site_symmetry_multiplicity
_atom_site_calc_flag
_atom_site_refinement_flags
_atom_site_disorder_assembly
_atom_site_disorder_group
Zn1 Zn 0.5000 0.0000 1.0000 0.0234(3) Uani 1 4 d S . .
Zn2 Zn 0.33810(4) 0.0000 1.00940(6) 0.0226(2) Uani 1 2 d S . .
Zn3 Zn 0.40718(3) 0.08895(3) 0.84231(4) 0.01865(16) Uani 1 1 d . . .
O1 O 0.4115(2) 0.0000 0.9196(3) 0.0193(9) Uani 1 2 d S . .
O2 O 0.56083(18) 0.08174(18) 0.9220(3) 0.0307(8) Uani 1 1 d . . .
O3 O 0.48027(17) 0.16686(17) 0.8725(2) 0.0269(8) Uani 1 1 d . . .
O4 O 0.81646(17) 0.35915(19) 0.8453(2) 0.0295(8) Uani 1 1 d . . .
O5 O 0.77416(18) 0.41308(19) 0.9716(2) 0.0320(8) Uani 1 1 d . . .
O6 O 0.5860(3) 0.1251(3) 0.7271(4) 0.0859(19) Uani 1 1 d . . .
O7 O 0.6836(6) 0.1675(7) 0.6816(7) 0.271(8) Uani 1 1 d . . .
O8 O 0.4251(2) 0.06305(19) 0.7139(2) 0.0347(9) Uani 1 1 d . . .
O9 O 0.5095(18) 0.184(2) 0.601(4) 0.41(5) Uiso 0.25 1 d PD . .
O10 O 0.4058(12) 0.157(2) 0.567(3) 0.22(2) Uiso 0.25 1 d PD . .
O11 O 0.3054(4) 0.0000 1.1356(4) 0.0470(18) Uani 1 2 d S . .
N1 N 0.6373(4) 0.1662(5) 0.7376(5) 0.105(3) Uani 1 1 d . . .
N2 N 0.4706(6) 0.1428(11) 0.5739(14) 0.166(18) Uiso 0.25 1 d PD . .
N3 N 0.2834(13) 0.0000 1.2931(9) 0.194(9) Uani 1 2 d S . .
C1 C 0.6005(2) 0.2053(3) 0.8933(3) 0.0243(10) Uani 1 1 d . . .
C2 C 0.6478(3) 0.2112(4) 0.8238(4) 0.0531(18) Uani 1 1 d . . .
C3 C 0.7029(3) 0.2633(4) 0.8267(4) 0.0515(18) Uani 1 1 d . . .
H3A H 0.7348 0.2652 0.7781 0.062 Uiso 1 1 calc R . .
C4 C 0.7108(2) 0.3119(3) 0.9007(3) 0.0238(10) Uani 1 1 d . . .
C5 C 0.6642(3) 0.3071(3) 0.9705(4) 0.0329(12) Uani 1 1 d . . .
H5A H 0.6691 0.3407 1.0219 0.040 Uiso 1 1 calc R . .
C6 C 0.6100(3) 0.2540(3) 0.9669(4) 0.0324(12) Uani 1 1 d . . .
H6A H 0.5790 0.2513 1.0165 0.039 Uiso 1 1 calc R . .
C7 C 0.5433(2) 0.1460(3) 0.8948(3) 0.0232(10) Uani 1 1 d . . .
C8 C 0.7717(2) 0.3667(3) 0.9067(3) 0.0228(10) Uani 1 1 d . . .
C9 C 0.4360(4) 0.0000 0.6783(5) 0.0273(15) Uani 1 2 d S . .
C10 C 0.4671(3) 0.0000 0.5833(5) 0.0304(17) Uani 1 2 d SD . .
C11 C 0.4837(2) 0.0671(3) 0.5414(3) 0.0473(16) Uani 1 1 d D . .
C12 C 0.3269(9) 0.0000 1.2055(15) 0.120(6) Uani 1 2 d S . .
H12A H 0.3774 0.0000 1.2153 0.144 Uiso 0.50 2 calc SPR . .
C13 C 0.2110(12) 0.0000 1.278(2) 0.57(6) Uani 1 2 d S . .
H13A H 0.1928 0.0000 1.3401 0.679 Uiso 0.50 2 d SP . .
H13B H 0.1989 0.0440 1.2465 0.679 Uiso 0.50 1 d P . .
C14 C 0.3318(12) 0.0000 1.3902(13) 0.199(11) Uani 1 2 d S . .
H14A H 0.3012 0.0000 1.4389 0.239 Uiso 0.50 2 d SP . .
H14B H 0.3627 -0.0440 1.3944 0.239 Uiso 0.50 1 d P . .

loop_
_atom_site_aniso_label
_atom_site_aniso_U_11
_atom_site_aniso_U_22
_atom_site_aniso_U_33
_atom_site_aniso_U_23
_atom_site_aniso_U_13
_atom_site_aniso_U_12
Zn1 0.0149(5) 0.0181(5) 0.0365(7) 0.000 -0.0030(5) 0.000
Zn2 0.0221(4) 0.0174(4) 0.0291(4) 0.000 0.0084(3) 0.000
Zn3 0.0158(3) 0.0143(3) 0.0265(3) 0.0001(2) 0.0069(2) 0.0012(2)
O1 0.014(2) 0.015(2) 0.029(3) 0.000 0.0019(19) 0.000
O2 0.0217(18) 0.0219(17) 0.049(2) 0.0053(16) 0.0026(16) -0.0024(15)
O3 0.0192(17) 0.0196(16) 0.042(2) 0.0010(15) 0.0039(15) -0.0061(14)
O4 0.0233(18) 0.0289(18) 0.037(2) -0.0012(15) 0.0099(16) -0.0102(15)
O5 0.0244(18) 0.0317(19) 0.041(2) -0.0074(17) 0.0112(16) -0.0113(16)
O6 0.084(4) 0.103(4) 0.075(4) -0.044(3) 0.035(3) -0.064(4)
O7 0.297(12) 0.353(14) 0.187(9) -0.211(10) 0.199(9) -0.278(12)
O8 0.050(2) 0.0258(18) 0.0306(19) 0.0006(15) 0.0200(18) 0.0068(17)
O11 0.062(4) 0.063(4) 0.016(3) 0.000 0.002(3) 0.000
N1 0.104(6) 0.136(7) 0.083(5) -0.062(5) 0.059(5) -0.083(5)
N3 0.28(2) 0.25(2) 0.056(9) 0.000 0.040(12) 0.000
C1 0.018(2) 0.025(2) 0.030(3) 0.005(2) 0.005(2) -0.004(2)
C2 0.050(4) 0.062(4) 0.050(4) -0.029(3) 0.022(3) -0.031(3)
C3 0.048(4) 0.059(4) 0.052(4) -0.021(3) 0.033(3) -0.035(3)
C4 0.021(2) 0.023(2) 0.028(3) 0.003(2) 0.002(2) -0.005(2)
C5 0.034(3) 0.028(3) 0.038(3) -0.005(2) 0.013(2) -0.009(2)
C6 0.029(3) 0.032(3) 0.038(3) -0.006(2) 0.015(2) -0.010(2)
C7 0.019(2) 0.022(2) 0.028(3) -0.001(2) 0.004(2) -0.0039(19)
C8 0.017(2) 0.022(2) 0.030(3) 0.005(2) 0.002(2) -0.0010(19)
C9 0.023(4) 0.033(4) 0.026(4) 0.000 0.012(3) 0.000
C10 0.036(4) 0.028(4) 0.030(4) 0.000 0.021(3) 0.000
C11 0.077(5) 0.026(3) 0.043(3) -0.002(2) 0.032(3) -0.003(3)
C12 0.106(13) 0.078(10) 0.19(2) 0.000 0.080(14) 0.000
C13 0.040(12) 1.44(17) 0.22(3) 0.000 -0.013(16) 0.000
C14 0.18(2) 0.34(4) 0.079(13) 0.000 0.027(14) 0.000

_geom_special_details            
;
All e.s.d.'s (except the e.s.d. in the dihedral angle between two l.s. planes)
are estimated using the full covariance matrix. The cell e.s.d.'s are taken
into account individually in the estimation of e.s.d.'s in distances, angles
and torsion angles; correlations between e.s.d.'s in cell parameters are only
used when they are defined by crystal symmetry. An approximate (isotropic)
treatment of cell e.s.d.'s is used for estimating e.s.d.'s involving l.s.
planes.
;

loop_
_geom_bond_atom_site_label_1
_geom_bond_atom_site_label_2
_geom_bond_distance
_geom_bond_site_symmetry_2
_geom_bond_publ_flag
Zn1 O1 1.959(4) 5_657 ?
Zn1 O1 1.959(4) . ?
Zn1 O2 2.203(3) 6 ?
Zn1 O2 2.203(3) 2_657 ?
Zn1 O2 2.203(3) 5_657 ?
Zn1 O2 2.203(3) . ?
Zn1 Zn2 3.0523(8) . ?
Zn1 Zn2 3.0523(8) 5_657 ?
Zn2 O11 1.952(6) . ?
Zn2 O1 1.949(4) . ?
Zn2 O5 2.012(3) 3_445 ?
Zn2 O5 2.012(3) 8_455 ?
Zn3 O1 1.934(3) . ?
Zn3 O4 1.942(3) 8_455 ?
Zn3 O8 1.952(3) . ?
Zn3 O3 1.980(3) . ?
O1 Zn3 1.934(3) 6 ?
O2 C7 1.247(6) . ?
O3 C7 1.262(5) . ?
O4 C8 1.265(6) . ?
O4 Zn3 1.942(3) 8 ?
O5 C8 1.245(6) . ?
O5 Zn2 2.012(3) 3 ?
O6 N1 1.212(7) . ?
O7 N1 1.223(9) . ?
O8 C9 1.257(4) . ?
O9 N2 1.089(18) . ?
O10 N2 1.242(18) . ?
O11 C12 1.06(2) . ?
N1 C2 1.478(8) . ?
N2 C11 1.455(18) . ?
N3 C13 1.36(3) . ?
N3 C12 1.55(2) . ?
N3 C14 1.61(3) . ?
C1 C6 1.370(7) . ?
C1 C2 1.384(7) . ?
C1 C7 1.508(6) . ?
C2 C3 1.389(8) . ?
C3 C4 1.372(7) . ?
C4 C5 1.376(7) . ?
C4 C8 1.503(6) . ?
C5 C6 1.389(7) . ?
C9 O8 1.257(4) 6 ?
C9 C10 1.519(9) . ?
C10 C11 1.383(6) 6 ?
C10 C11 1.383(6) . ?
C11 C11 1.373(11) 2_656 ?

loop_
_geom_angle_atom_site_label_1
_geom_angle_atom_site_label_2
_geom_angle_atom_site_label_3
_geom_angle
_geom_angle_site_symmetry_1
_geom_angle_site_symmetry_3
_geom_angle_publ_flag
O1 Zn1 O1 180.000(1) 5_657 . ?
O1 Zn1 O2 81.46(13) 5_657 6 ?
O1 Zn1 O2 98.54(13) . 6 ?
O1 Zn1 O2 98.54(13) 5_657 2_657 ?
O1 Zn1 O2 81.46(13) . 2_657 ?
O2 Zn1 O2 180.00(16) 6 2_657 ?
O1 Zn1 O2 98.54(13) 5_657 5_657 ?
O1 Zn1 O2 81.46(13) . 5_657 ?
O2 Zn1 O2 97.19(18) 6 5_657 ?
O2 Zn1 O2 82.81(18) 2_657 5_657 ?
O1 Zn1 O2 81.46(13) 5_657 . ?
O1 Zn1 O2 98.54(13) . . ?
O2 Zn1 O2 82.81(18) 6 . ?
O2 Zn1 O2 97.19(18) 2_657 . ?
O2 Zn1 O2 180.000(1) 5_657 . ?
O1 Zn1 Zn2 141.46(13) 5_657 . ?
O1 Zn1 Zn2 38.54(13) . . ?
O2 Zn1 Zn2 125.05(9) 6 . ?
O2 Zn1 Zn2 54.95(9) 2_657 . ?
O2 Zn1 Zn2 54.95(9) 5_657 . ?
O2 Zn1 Zn2 125.05(9) . . ?
O1 Zn1 Zn2 38.54(13) 5_657 5_657 ?
O1 Zn1 Zn2 141.46(13) . 5_657 ?
O2 Zn1 Zn2 54.95(9) 6 5_657 ?
O2 Zn1 Zn2 125.05(9) 2_657 5_657 ?
O2 Zn1 Zn2 125.05(9) 5_657 5_657 ?
O2 Zn1 Zn2 54.95(9) . 5_657 ?
Zn2 Zn1 Zn2 180.0 . 5_657 ?
O11 Zn2 O1 153.4(2) . . ?
O11 Zn2 O5 91.79(17) . 3_445 ?
O1 Zn2 O5 104.92(13) . 3_445 ?
O11 Zn2 O5 91.79(16) . 8_455 ?
O1 Zn2 O5 104.92(13) . 8_455 ?
O5 Zn2 O5 100.7(2) 3_445 8_455 ?
O11 Zn2 Zn1 114.6(2) . . ?
O1 Zn2 Zn1 38.76(13) . . ?
O5 Zn2 Zn1 124.49(10) 3_445 . ?
O5 Zn2 Zn1 124.49(10) 8_455 . ?
O1 Zn3 O4 112.43(16) . 8_455 ?
O1 Zn3 O8 110.18(15) . . ?
O4 Zn3 O8 109.89(15) 8_455 . ?
O1 Zn3 O3 116.56(15) . . ?
O4 Zn3 O3 104.91(14) 8_455 . ?
O8 Zn3 O3 102.25(15) . . ?
Zn3 O1 Zn3 110.1(2) 6 . ?
Zn3 O1 Zn2 112.03(14) 6 . ?
Zn3 O1 Zn2 112.03(14) . . ?
Zn3 O1 Zn1 109.86(14) 6 . ?
Zn3 O1 Zn1 109.86(14) . . ?
Zn2 O1 Zn1 102.7(2) . . ?
C7 O2 Zn1 129.2(3) . . ?
C7 O3 Zn3 118.3(3) . . ?
C8 O4 Zn3 126.1(3) . 8 ?
C8 O5 Zn2 134.8(3) . 3 ?
C9 O8 Zn3 129.7(4) . . ?
C12 O11 Zn2 139.3(11) . . ?
O6 N1 O7 121.6(7) . . ?
O6 N1 C2 119.5(6) . . ?
O7 N1 C2 118.6(6) . . ?
O9 N2 O10 121(3) . . ?
O9 N2 C11 128(2) . . ?
O10 N2 C11 110.7(16) . . ?
C13 N3 C12 116(2) . . ?
C13 N3 C14 130(2) . . ?
C12 N3 C14 113.9(19) . . ?
C6 C1 C2 116.8(5) . . ?
C6 C1 C7 119.3(4) . . ?
C2 C1 C7 123.7(5) . . ?
C1 C2 C3 122.8(5) . . ?
C1 C2 N1 120.5(5) . . ?
C3 C2 N1 116.4(5) . . ?
C4 C3 C2 119.1(5) . . ?
C3 C4 C5 119.0(5) . . ?
C3 C4 C8 119.8(4) . . ?
C5 C4 C8 121.2(4) . . ?
C4 C5 C6 121.0(5) . . ?
C1 C6 C5 121.2(5) . . ?
O2 C7 O3 125.0(4) . . ?
O2 C7 C1 118.4(4) . . ?
O3 C7 C1 116.5(4) . . ?
O5 C8 O4 126.9(4) . . ?
O5 C8 C4 117.6(4) . . ?
O4 C8 C4 115.5(4) . . ?
O8 C9 O8 126.7(6) . 6 ?
O8 C9 C10 116.6(3) . . ?
O8 C9 C10 116.6(3) 6 . ?
C11 C10 C11 119.6(7) 6 . ?
C11 C10 C9 120.1(3) 6 . ?
C11 C10 C9 120.1(3) . . ?
C11 C11 C10 120.2(3) 2_656 . ?
C11 C11 N2 111.9(10) 2_656 . ?
C10 C11 N2 127.9(10) . . ?
O11 C12 N3 125.8(18) . . ?

_diffrn_measured_fraction_theta_max 0.996
_diffrn_reflns_theta_full        26.37
_diffrn_measured_fraction_theta_full 0.996
_refine_diff_density_max         1.010
_refine_diff_density_min         -1.040
_refine_diff_density_rms         0.130
