####################################################################### 
# 
# This file contains crystal structure data downloaded from the 
# Cambridge Structural Database (CSD) hosted by the Cambridge 
# Crystallographic Data Centre (CCDC).
# 
# Full information about CCDC data access policies and citation 
# guidelines are available at http://www.ccdc.cam.ac.uk/access/V1 
# 
# Audit and citation data items may have been added by the CCDC. 
# Please retain this information to preserve the provenance of 
# this file and to allow appropriate attribution of the data. 
# 
#######################################################################

data__Template_texray.inf_2
_audit_block_doi                 10.5517/cc9y007
_database_code_depnum_ccdc_archive 'CCDC 295988'
loop_
_citation_id
_citation_doi
_citation_year
1 10.1246/bcsj.79.738 2006
_audit_update_record             
;
2006-01-24 deposited with the CCDC.	2024-07-09 downloaded from the CCDC.
;

#==============================================================================

_audit_creation_date             2003-04-07
_audit_creation_method           'by CrystalStructure v2.00'

#==============================================================================
# CHEMICAL DATA

_chemical_formula_sum            'C28 H30 Fe N6 O S2 '
_chemical_formula_moiety         'C28 H30 Fe N6 O S2 '
_chemical_formula_weight         586.55
_chemical_melting_point          ?

#==============================================================================

# CRYSTAL DATA
_symmetry_cell_setting           orthorhombic
_symmetry_space_group_name_H-M   Ibam
_symmetry_Int_Tables_number      72
loop_
_symmetry_equiv_pos_as_xyz
x,y,z
-x,-y,-z
x+1/2,y+1/2,z+1/2
-x+1/2,-y+1/2,-z+1/2
-x+1/2,y+1/2,z
x+1/2,-y+1/2,-z
-x,y,z+1/2
x,-y,-z+1/2
x+1/2,-y+1/2,z
-x+1/2,y+1/2,-z
x,-y,z+1/2
-x,y,-z+1/2
-x,-y,z
x,y,-z
-x+1/2,-y+1/2,z+1/2
x+1/2,y+1/2,-z+1/2

#------------------------------------------------------------------------------

_cell_length_a                   13.2420(7)
_cell_length_b                   16.8644(9)
_cell_length_c                   16.8296(8)
_cell_angle_alpha                90
_cell_angle_beta                 90
_cell_angle_gamma                90
_cell_volume                     3758.4(3)
_cell_formula_units_Z            4
_cell_measurement_reflns_used    ?
_cell_measurement_theta_min      ?
_cell_measurement_theta_max      ?
_cell_measurement_temperature    296.1

#------------------------------------------------------------------------------

_exptl_crystal_description       NONE
_exptl_crystal_colour            NONE
_exptl_crystal_size_max          0.00
_exptl_crystal_size_mid          0.00
_exptl_crystal_size_min          0.00
_exptl_crystal_density_diffrn    1.037
_exptl_crystal_density_meas      ?
_exptl_crystal_density_method    'not measured'
_exptl_absorpt_coefficient_mu    0.536
_exptl_absorpt_correction_type   none

#==============================================================================

# EXPERIMENTAL DATA

_diffrn_radiation_type           'Mo K\a'
_diffrn_radiation_wavelength     0.7107
_diffrn_measurement_device_type  ?
_diffrn_reflns_number            7389
_diffrn_reflns_av_R_equivalents  0.052
_diffrn_reflns_theta_max         27.98
_diffrn_measured_fraction_theta_max 0.9064
_diffrn_reflns_theta_full        27.98
_diffrn_measured_fraction_theta_full 0.9064
_diffrn_reflns_limit_h_min       -17
_diffrn_reflns_limit_h_max       0
_diffrn_reflns_limit_k_min       -22
_diffrn_reflns_limit_k_max       22
_diffrn_reflns_limit_l_min       -19
_diffrn_reflns_limit_l_max       19

#==============================================================================

# REFINEMENT DATA

_refine_special_details          
;
Refinement using reflections with F^2^ > 3.0 sigma(F^2^).
The weighted R-factor (wR), goodness of fit (S) and R-factor (gt) are
based on F, with F set to zero for negative F. The threshold expression of
F^2^ > 2.0 sigma(F^2^) is used only for calculating R-factor (gt).
;
_reflns_number_total             2286
_reflns_number_gt                1432
_reflns_threshold_expression     F^2^>2.0\s(F^2^)
_refine_ls_structure_factor_coef F
_refine_ls_R_factor_gt           0.1270
_refine_ls_wR_factor_ref         0.1760
_refine_ls_hydrogen_treatment    refall
_refine_ls_number_reflns         1432
_refine_ls_number_parameters     93
_refine_ls_goodness_of_fit_ref   8.607
_refine_ls_weighting_scheme      sigma
_refine_ls_weighting_details     'w = 1/\s^2^(Fo)'
_refine_ls_shift/su_max          0.0000
_refine_diff_density_max         1.44
_refine_diff_density_min         -0.64
_refine_ls_extinction_method     
'Larson (1970) Crystallographic Computing eq. 22'
_refine_ls_extinction_coef       1392.0(30)

loop_
_atom_type_symbol
_atom_type_description
_atom_type_scat_dispersion_real
_atom_type_scat_dispersion_imag
_atom_type_scat_source
N N 0.011 0.006
;
International Tables for Crystallography
(1992, Vol. C, Tables 4.2.6.8 and 6.1.1.4)
;
S S 0.148 0.159
;
International Tables for Crystallography
(1992, Vol. C, Tables 4.2.6.8 and 6.1.1.4)
;
Fe Fe 0.349 0.972
;
International Tables for Crystallography
(1992, Vol. C, Tables 4.2.6.8 and 6.1.1.4)
;
O O 0.017 0.010
;
International Tables for Crystallography
(1992, Vol. C, Tables 4.2.6.8 and 6.1.1.4)
;
H H 0.000 0.000
;
International Tables for Crystallography
(1992, Vol. C, Table 6.1.1.4)
;
C C 0.006 0.003
;
International Tables for Crystallography
(1992, Vol. C, Tables 4.2.6.8 and 6.1.1.4)
;

#==============================================================================

# ATOMIC COORDINATES AND THERMAL PARAMETERS

loop_
_atom_site_label
_atom_site_type_symbol
_atom_site_fract_x
_atom_site_fract_y
_atom_site_fract_z
_atom_site_U_iso_or_equiv
_atom_site_adp_type
_atom_site_occupancy
_atom_site_symmetry_multiplicity
_atom_site_calc_flag
_atom_site_refinement_flags
_atom_site_disorder_assembly
_atom_site_disorder_group
Fe1 Fe 0.5000 0.0000 0.5000 0.0269(7) Uani 1.00 4 d S . .
S1 S 0.1989(6) 0.1649(5) 0.5000 0.135(3) Uani 1.00 2 d S . .
N1 N 0.3620(11) 0.0673(7) 0.5000 0.041(4) Uani 1.00 2 d S . .
N2 N 0.5590(7) 0.0791(4) 0.5965(4) 0.036(3) Uani 1.00 1 d . . .
C1 C 0.2942(13) 0.1071(11) 0.5000 0.052(6) Uani 1.00 2 d S . .
C2 C 0.6344(10) 0.0534(6) 0.6439(7) 0.057(4) Uani 1.00 1 d . . .
C3 C 0.6806(10) 0.1035(7) 0.7006(7) 0.057(4) Uani 1.00 1 d . . .
C4 C 0.6526(10) 0.1773(6) 0.7094(6) 0.044(3) Uani 1.00 1 d . . .
C5 C 0.5743(10) 0.2032(6) 0.6606(7) 0.058(4) Uani 1.00 1 d . . .
C6 C 0.5298(8) 0.1542(5) 0.6053(6) 0.041(3) Uani 1.00 1 d . . .
C7 C 0.7039(9) 0.2321(7) 0.7678(6) 0.051(4) Uani 1.00 1 d . . .
H1 H 0.6567(10) 0.0002(6) 0.6346(7) 0.069(5) Uiso 1.00 1 c . . .
H2 H 0.7259(10) 0.0781(7) 0.7411(7) 0.068(4) Uiso 1.00 1 c . . .
H3 H 0.4761(8) 0.1733(5) 0.5670(6) 0.049(4) Uiso 1.00 1 c . . .
H4 H 0.5665(10) 0.2483(6) 0.6578(7) 0.070(5) Uiso 1.00 1 c . . .
H5 H 0.6607(9) 0.2800(7) 0.7792(6) 0.062(4) Uiso 1.00 1 c . . .
H6 H 0.7238(9) 0.2020(7) 0.8192(6) 0.061(4) Uiso 1.00 1 c . . .


loop_
_atom_site_aniso_label
_atom_site_aniso_U_11
_atom_site_aniso_U_22
_atom_site_aniso_U_33
_atom_site_aniso_U_12
_atom_site_aniso_U_13
_atom_site_aniso_U_23
Fe1 0.034(2) 0.0189(13) 0.028(1) -0.012(2) 0.0000 0.0000
S1 0.098(6) 0.137(7) 0.172(8) 0.075(6) 0.0000 0.0000
N1 0.044(9) 0.037(7) 0.044(8) -0.011(7) 0.0000 0.0000
N2 0.054(6) 0.029(4) 0.024(5) -0.011(4) -0.004(4) -0.004(3)
C1 0.029(10) 0.060(11) 0.068(12) 0.005(9) 0.0000 0.0000
C2 0.088(10) 0.036(6) 0.048(7) 0.007(7) -0.035(7) -0.014(5)
C3 0.075(9) 0.048(7) 0.046(8) -0.005(7) -0.029(6) -0.008(5)
C4 0.067(8) 0.035(6) 0.031(6) -0.013(6) -0.002(6) -0.008(5)
C5 0.084(10) 0.027(5) 0.062(8) -0.014(7) -0.003(8) -0.017(5)
C6 0.053(8) 0.030(5) 0.039(6) -0.002(5) -0.003(5) -0.010(4)
C7 0.059(8) 0.058(7) 0.036(8) -0.017(6) -0.004(5) -0.020(5)

#==============================================================================

_computing_data_collection       Unknown
_computing_cell_refinement       Unknown
_computing_data_reduction        CrystalStructure
_computing_structure_solution    SIR92
_computing_structure_refinement  CRYSTALS
_computing_publication_material  'CrystalStructure Ver. 2.00'
_computing_molecular_graphics    ?

#==============================================================================

# MOLECULAR GEOMETRY

_geom_special_details            
;
ENTER SPECIAL DETAILS OF THE MOLECULAR GEOMETRY
;

loop_
_geom_bond_atom_site_label_1
_geom_bond_site_symmetry_1
_geom_bond_atom_site_label_2
_geom_bond_site_symmetry_2
_geom_bond_distance
_geom_bond_publ_flag
Fe1 . N1 . 2.151(14) yes
Fe1 . N2 . 2.242(7) yes
S1 . C1 . 1.594(18) yes
N1 . C1 . 1.121(19) yes
N2 . C2 . 1.350(13) yes
N2 . C6 . 1.332(11) yes
C2 . C3 . 1.413(14) yes
C2 . H1 . 0.958 no
C3 . C4 . 1.308(14) yes
C3 . H2 . 1.004 no
C4 . C5 . 1.392(16) yes
C4 . C7 . 1.511(14) yes
C5 . C6 . 1.377(13) yes
C5 . H4 . 0.769 no
C6 . H3 . 1.012 no
C7 . H5 . 1.009 no
C7 . H6 . 1.036 no
loop_
_geom_angle_atom_site_label_1
_geom_angle_site_symmetry_1
_geom_angle_atom_site_label_2
_geom_angle_site_symmetry_2
_geom_angle_atom_site_label_3
_geom_angle_site_symmetry_3
_geom_angle
_geom_angle_publ_flag
N1 . Fe1 . N2 . 89.0(3) yes
Fe1 . N1 . C1 . 175.0(13) yes
Fe1 . N2 . C2 . 119.7(6) yes
Fe1 . N2 . C6 . 123.0(7) yes
C2 . N2 . C6 . 117.0(9) yes
S1 . C1 . N1 . 179.2(17) yes
N2 . C2 . C3 . 121.8(10) yes
N2 . C2 . H1 . 115.6(5) no
C3 . C2 . H1 . 122.5(7) no
C2 . C3 . C4 . 121.5(11) yes
C2 . C3 . H2 . 117.5(7) no
C4 . C3 . H2 . 119.9(7) no
C3 . C4 . C5 . 116.3(10) yes
C3 . C4 . C7 . 121.9(11) yes
C5 . C4 . C7 . 121.8(10) yes
C4 . C5 . C6 . 121.9(10) yes
C4 . C5 . H4 . 116.5(6) no
C6 . C5 . H4 . 119.7(7) no
N2 . C6 . C5 . 121.4(10) yes
N2 . C6 . H3 . 115.9(6) no
C5 . C6 . H3 . 122.6(7) no
C4 . C7 . H5 . 111.0(7) no
C4 . C7 . H6 . 111.0(6) no
H5 . C7 . H6 . 112.132 no

loop_
_geom_torsion_atom_site_label_1
_geom_torsion_site_symmetry_1
_geom_torsion_atom_site_label_2
_geom_torsion_site_symmetry_2
_geom_torsion_atom_site_label_3
_geom_torsion_site_symmetry_3
_geom_torsion_atom_site_label_4
_geom_torsion_site_symmetry_4
_geom_torsion
_geom_torsion_publ_flag
N2 . Fe1 . N1 . C1 . 46.4(18) yes
N1 . Fe1 . N2 . C2 . 158.2(14) yes
N1 . Fe1 . N2 . C6 . -28.4(16) yes
Fe1 . N1 . C1 . S1 . 0.0(88) yes
Fe1 . N2 . C2 . C3 . 173.9(11) yes
C6 . N2 . C2 . C3 . 0.1(22) yes
Fe1 . N2 . C6 . C5 . -173.9(9) yes
C2 . N2 . C6 . C5 . -0.4(22) yes
N2 . C2 . C3 . C4 . -0.3(22) yes
C2 . C3 . C4 . C5 . 0.7(22) yes
C2 . C3 . C4 . C7 . -177.9(14) yes
C3 . C4 . C5 . C6 . -0.9(24) yes
C7 . C4 . C5 . C6 . 177.7(14) yes
C4 . C5 . C6 . N2 . 0.8(22) yes

loop_
_geom_contact_atom_site_label_1
_geom_contact_site_symmetry_1
_geom_contact_atom_site_label_2
_geom_contact_site_symmetry_2
_geom_contact_distance
_geom_contact_publ_flag
Fe1 . N1 . 2.151(14) yes
Fe1 . N1 2_656 2.151(14) yes
Fe1 . N2 . 2.242(7) yes
Fe1 . N2 2_656 2.242(7) yes
Fe1 . N2 13_655 2.242(7) yes
Fe1 . N2 14_556 2.242(7) yes
Fe1 . C1 . 3.269(18) yes
Fe1 . C1 2_656 3.269(18) yes
Fe1 . C2 . 3.14(1) yes
Fe1 . C2 2_656 3.14(1) yes
Fe1 . C2 13_655 3.14(1) yes
Fe1 . C2 14_556 3.14(1) yes
Fe1 . C6 . 3.171(9) yes
Fe1 . C6 2_656 3.171(9) yes
Fe1 . C6 13_655 3.171(9) yes
Fe1 . C6 14_556 3.171(9) yes
Fe1 . H1 . 3.072(11) no
Fe1 . H1 2_656 3.072(11) no
Fe1 . H1 13_655 3.072(11) no
Fe1 . H1 14_556 3.072(11) no
Fe1 . H3 . 3.149(9) no
Fe1 . H3 2_656 3.149(9) no
Fe1 . H3 13_655 3.149(9) no
Fe1 . H3 14_556 3.149(9) no
S1 . N1 . 2.715(15) yes
S1 . C1 . 1.594(18) yes
S1 . H4 6_456 3.503(13) no
S1 . H4 9_455 3.503(13) no
S1 . H6 7_544 3.271(12) no
S1 . H6 12_546 3.271(12) no
N1 . N2 . 3.079(15) yes
N1 . N2 2_656 3.135(13) yes
N1 . N2 13_655 3.135(13) yes
N1 . N2 14_556 3.079(15) yes
N1 . C1 . 1.121(19) yes
N1 . C2 2_656 3.164(13) yes
N1 . C2 13_655 3.164(13) yes
N1 . C6 . 3.197(15) yes
N1 . C6 14_556 3.197(15) yes
N1 . H1 2_656 2.547(11) no
N1 . H1 13_655 2.547(11) no
N1 . H3 . 2.598(14) no
N1 . H3 14_556 2.598(14) no
N2 . N2 13_655 3.091(15) yes
N2 . N2 14_556 3.250(15) yes
N2 . C2 . 1.350(13) yes
N2 . C2 13_655 3.490(14) yes
N2 . C3 . 2.414(14) yes
N2 . C4 . 2.808(12) yes
N2 . C5 . 2.363(12) yes
N2 . C6 . 1.332(11) yes
N2 . H1 . 1.964(14) no
N2 . H1 13_655 3.218(15) no
N2 . H2 . 3.286(14) no
N2 . H3 . 1.994(13) no
N2 . H3 14_556 3.363(12) no
N2 . H4 . 3.037(12) no
C1 . H1 2_656 2.971(16) no
C1 . H1 13_655 2.971(16) no
C1 . H3 . 2.884(19) no
C1 . H3 14_556 2.884(19) no
C1 . H6 7_544 3.446(14) no
C1 . H6 12_546 3.446(14) no
C2 . C3 . 1.413(14) yes
C2 . C4 . 2.375(14) yes
C2 . C5 . 2.664(16) yes
C2 . C6 . 2.287(15) yes
C2 . H1 . 0.958 no
C2 . H2 . 2.077(14) no
C2 . H2 8_446 3.183(17) no
C2 . H3 . 3.188(16) no
C2 . H4 . 3.417(16) no
C3 . C4 . 1.308(14) yes
C3 . C5 . 2.294(17) yes
C3 . C6 . 2.700(16) yes
C3 . C7 . 2.466(14) yes
C3 . C7 4_656 3.211(16) yes
C3 . H1 . 2.089(14) no
C3 . H1 8_446 3.294(16) no
C3 . H2 . 1.004 no
C3 . H2 8_446 3.27(2) no
C3 . H4 . 2.961(16) no
C3 . H5 . 3.269(15) no
C3 . H5 4_656 2.897(16) no
C3 . H6 . 2.661(14) no
C3 . H6 4_656 3.532(16) no
C4 . C5 . 1.392(16) yes
C4 . C6 . 2.421(16) yes
C4 . C7 . 1.511(14) yes
C4 . C7 4_656 2.468(15) yes
C4 . H1 . 3.242(14) no
C4 . H2 . 2.007(16) no
C4 . H3 . 3.347(16) no
C4 . H4 . 1.867(16) no
C4 . H5 . 2.096(14) no
C4 . H5 4_656 2.582(16) no
C4 . H6 . 2.117(15) no
C4 . H6 4_656 2.656(15) no
C5 . C5 12_546 3.60(2) yes
C5 . C6 . 1.377(13) yes
C5 . C7 . 2.538(16) yes
C5 . C7 4_656 3.356(17) yes
C5 . H2 . 3.212(17) no
C5 . H3 . 2.104(15) no
C5 . H4 . 0.769 no
C5 . H5 . 2.641(14) no
C5 . H5 12_546 3.521(17) no
C5 . H6 . 3.323(16) no
C5 . H6 4_656 3.133(16) no
C6 . C6 14_556 3.54(2) yes
C6 . H1 . 3.133(15) no
C6 . H3 . 1.012 no
C6 . H3 14_556 3.00(2) no
C6 . H4 . 1.881(13) no
C7 . C7 4_656 1.49(2) yes
C7 . H2 . 2.652(16) no
C7 . H2 4_656 3.336(16) no
C7 . H4 . 2.611(17) no
C7 . H4 4_656 3.304(18) no
C7 . H5 . 1.009 no
C7 . H5 4_656 1.97(2) no
C7 . H6 . 1.036 no
C7 . H6 4_656 2.07(2) no
H1 . H2 . 2.403(13) no
H1 . H2 8_446 2.638(17) no
H1 . H3 13_655 3.598(15) no
H2 . H2 8_446 2.65(2) no
H2 . H5 . 3.571(16) no
H2 . H5 4_656 2.845(16) no
H2 . H6 . 2.470(15) no
H3 . H3 14_556 2.26(2) no
H3 . H4 . 2.317(14) no
H3 . H6 12_546 3.302(15) no
H4 . H4 12_546 3.57(2) no
H4 . H5 . 2.453(15) no
H4 . H5 12_546 3.235(18) no
H4 . H6 . 3.511(17) no
H4 . H6 4_656 2.926(17) no
H5 . H5 4_656 2.75(2) no
H5 . H6 . 1.69690(6) no
H5 . H6 4_656 2.27(2) no
H6 . H6 4_656 2.92(2) no

