
#######################################################################
#
#                 Cambridge Crystallographic Data Centre
#                                CCDC
#
#######################################################################
#
# If this CIF has been generated from an entry in the Cambridge
# Structural Database, then it will include bibliographic, chemical,
# crystal, experimental, refinement or atomic coordinate data resulting
# from the CCDC's data processing and validation procedures.
#
#######################################################################

data_CSD_CIF_DEMTEU
_audit_creation_date 1986-07-24
_audit_creation_method CSD-ConQuest-V1
_database_code_CSD DEMTEU
_database_code_depnum_ccdc_archive 'CCDC 1138729'
_chemical_formula_sum 'C16 H14 O2'
_chemical_formula_moiety
;
C16 H14 O2
;
_journal_coden_Cambridge 35
_journal_volume 50
_journal_year 1985
_journal_page_first 3184
_journal_name_full 'J.Org.Chem. '
loop_
_publ_author_name
"Z.Rappoport"
"A.Gazit"
_chemical_name_systematic
;
(E)-\a-Phenyl-\b-methoxy-cinnamaldehyde
;
_chemical_name_common
;
Teaching Subset: Fundamental Chemistry
;
_chemical_melting_point 406
_cell_volume    634.040
_exptl_crystal_colour 'white'
_exptl_crystal_density_diffrn 1.248
_diffrn_ambient_temperature ?
_diffrn_special_details
;
The study was carried out at room temperature,in the range 283-303K

;
#These two values have been output from a single CSD field.
_refine_ls_R_factor_gt 0.049
_refine_ls_wR_factor_gt 0.049
_symmetry_cell_setting triclinic
_symmetry_space_group_name_H-M 'P -1'
_symmetry_Int_Tables_number 2
loop_
_symmetry_equiv_pos_site_id
_symmetry_equiv_pos_as_xyz
1 x,y,z
2 -x,-y,-z
_cell_length_a 8.707(2)
_cell_length_b 9.615(3)
_cell_length_c 7.736(2)
_cell_angle_alpha 95.91(6)
_cell_angle_beta 99.55(5)
_cell_angle_gamma 85.52
_cell_formula_units_Z 2
loop_
_atom_type_symbol
_atom_type_radius_bond
C 0.68
H 0.23
O 0.68
loop_
_atom_site_label
_atom_site_type_symbol
_atom_site_fract_x
_atom_site_fract_y
_atom_site_fract_z
O1 O 0.8702(1) 0.0321(1) 0.2465(2)
O2 O 1.0962(1) 0.3928(1) 0.6363(2)
C1 C 1.0006(1) 0.2084(1) 0.4423(2)
C2 C 0.9814(2) 0.3043(1) 0.5805(2)
C3 C 0.8702(2) 0.1238(2) 0.3665(2)
C4 C 1.1476(1) 0.1878(1) 0.3660(2)
C5 C 1.1456(2) 0.1781(2) 0.1845(2)
C6 C 1.2839(2) 0.1570(2) 0.1143(2)
C7 C 1.4253(2) 0.1458(2) 0.2241(2)
C8 C 1.4284(2) 0.1543(2) 0.4046(2)
C9 C 1.2917(2) 0.1746(2) 0.4746(2)
C10 C 0.8421(2) 0.3192(1) 0.6728(2)
C11 C 0.8184(2) 0.2167(2) 0.7780(2)
C12 C 0.6907(2) 0.2312(2) 0.8660(2)
C13 C 0.5864(2) 0.3458(2) 0.8488(2)
C14 C 0.6089(2) 0.4482(2) 0.7438(3)
C15 C 0.7374(2) 0.4361(2) 0.6564(2)
C16 C 1.1072(2) 0.4709(2) 0.8049(2)
H1 H 0.779(2) 0.140(2) 0.425(3)
H2 H 1.053(2) 0.188(2) 0.109(2)
H3 H 1.279(2) 0.147(2) -0.016(3)
H4 H 1.522(3) 0.134(2) 0.171(3)
H5 H 1.535(3) 0.145(2) 0.479(3)
H6 H 1.293(2) 0.180(2) 0.601(2)
H7 H 0.892(2) 0.133(2) 0.787(3)
H8 H 0.676(2) 0.158(2) 0.936(3)
H9 H 0.496(2) 0.350(2) 0.917(3)
H10 H 0.544(3) 0.528(2) 0.736(3)
H11 H 0.755(2) 0.505(2) 0.583(3)
H12 H 1.202(3) 0.523(3) 0.820(3)
H13 H 1.113(3) 0.402(3) 0.897(4)
H14 H 1.022(4) 0.538(3) 0.808(4)
#END
