
#######################################################################
#
#                 Cambridge Crystallographic Data Centre
#                                CCDC
#
#######################################################################
#
# If this CIF has been generated from an entry in the Cambridge
# Structural Database, then it will include bibliographic, chemical,
# crystal, experimental, refinement or atomic coordinate data resulting
# from the CCDC's data processing and validation procedures.
#
#######################################################################

data_CSD_CIF_DENZUR
_audit_creation_date 1986-07-24
_audit_creation_method CSD-ConQuest-V1
_database_code_CSD DENZUR
_database_code_depnum_ccdc_archive 'CCDC 1138869'
_chemical_formula_sum 'C12 H24 Hg1 I2 O6'
_chemical_formula_moiety
;
C12 H24 Hg1 I2 O6
;
_journal_coeditor_code "IUCr A25577"
_journal_coden_Cambridge 591
_journal_volume 42
_journal_year 1986
_journal_page_first 51
_journal_name_full 'Acta Crystallogr.,Sect.C:Cryst.Struct.Commun. '
loop_
_publ_author_name
"D.A.Pears"
"J.F.Stoddart"
"J.Crosby"
"B.L.Allwood"
"D.J.Williams"
_chemical_name_systematic
;
(1,4,7,10,13,16-Hexaoxacyclo-octadecane)-di-iodo-mercury(ii)
;
_chemical_name_common
;
18-Crown-6 mercury(ii) iodide; Teaching Subset: Fundamental Chemistry, 
Symmetry
;
_cell_volume    964.898
_exptl_crystal_density_diffrn 2.47
_exptl_special_details
;
monoclinic polymorph

;
_diffrn_ambient_temperature ?
_diffrn_special_details
;
The study was carried out at room temperature,in the range 283-303K

;
#These two values have been output from a single CSD field.
_refine_ls_R_factor_gt 0.036
_refine_ls_wR_factor_gt 0.036
_symmetry_cell_setting monoclinic
_symmetry_space_group_name_H-M 'C 2/m'
_symmetry_Int_Tables_number 12
loop_
_symmetry_equiv_pos_site_id
_symmetry_equiv_pos_as_xyz
1 x,y,z
2 1/2+x,1/2+y,z
3 -x,y,-z
4 1/2-x,1/2+y,-z
5 -x,-y,-z
6 -1/2-x,-1/2-y,-z
7 x,-y,z
8 -1/2+x,-1/2-y,z
_cell_length_a 13.049(5)
_cell_length_b 11.241(3)
_cell_length_c 9.285(2)
_cell_angle_alpha 90
_cell_angle_beta 134.89(3)
_cell_angle_gamma 90
_cell_formula_units_Z 2
loop_
_atom_type_symbol
_atom_type_radius_bond
C 0.68
H 0.23
Hg 1.82
I 1.20
O 0.68
loop_
_atom_site_label
_atom_site_type_symbol
_atom_site_fract_x
_atom_site_fract_y
_atom_site_fract_z
Hg1 Hg 0.00000 0.00000 0.00000
I1 I -0.2758(1) 0.00000 -0.3399(2)
O1 O -0.0486(13) 0.00000 0.2572(18)
C1 C -0.1247(14) 0.1057(13) 0.2204(20)
C2 C -0.0435(17) 0.2101(14) 0.2501(21)
O2 O -0.0632(9) 0.2195(7) 0.0793(13)
C3 C 0.0146(17) 0.3138(12) 0.0957(24)
H1 H -0.21890 0.10560 0.08350
H2 H -0.13430 0.10950 0.31370
H3 H 0.05740 0.19830 0.37020
H4 H -0.07630 0.28110 0.26500
H5 H -0.01430 0.38800 0.10930
H6 H 0.11630 0.30180 0.21200
I1D I 0.2758(1) 0.00000 0.3399(2)
O1D O 0.0486(13) 0.00000 -0.2572(18)
O2D O 0.0632(9) -0.2195(7) -0.0793(13)
O2B O 0.0632(9) 0.2195(7) -0.0793(13)
O2F O -0.0632(9) -0.2195(7) 0.0793(13)
C1F C -0.1247(14) -0.1057(13) 0.2204(20)
C3B C -0.0146(17) 0.3138(12) -0.0957(24)
C1D C 0.1247(14) -0.1057(13) -0.2204(20)
C1B C 0.1247(14) 0.1057(13) -0.2204(20)
C2D C 0.0435(17) -0.2101(14) -0.2501(21)
C3D C -0.0146(17) -0.3138(12) -0.0957(24)
C2B C 0.0435(17) 0.2101(14) -0.2501(21)
C2F C -0.0435(17) -0.2101(14) 0.2501(21)
C3F C 0.0146(17) -0.3138(12) 0.0957(24)
H1F H -0.21890 -0.10560 0.08350
H2F H -0.13430 -0.10950 0.31370
H5B H 0.01430 0.38800 -0.10930
H6B H -0.11630 0.30180 -0.21200
H1D H 0.21890 -0.10560 -0.08350
H2D H 0.13430 -0.10950 -0.31370
H1B H 0.21890 0.10560 -0.08350
H2B H 0.13430 0.10950 -0.31370
H3D H -0.05740 -0.19830 -0.37020
H4D H 0.07630 -0.28110 -0.26500
H5D H 0.01430 -0.38800 -0.10930
H6D H -0.11630 -0.30180 -0.21200
H3B H -0.05740 0.19830 -0.37020
H4B H 0.07630 0.28110 -0.26500
H3F H 0.05740 -0.19830 0.37020
H4F H -0.07630 -0.28110 0.26500
H5F H -0.01430 -0.38800 0.10930
H6F H 0.11630 -0.30180 0.21200
#END
