####################################################################### 
# 
# This file contains crystal structure data downloaded from the 
# Cambridge Structural Database (CSD) hosted by the Cambridge 
# Crystallographic Data Centre (CCDC).
# 
# Full information about CCDC data access policies and citation 
# guidelines are available at http://www.ccdc.cam.ac.uk/access/V1 
# 
# Audit and citation data items may have been added by the CCDC. 
# Please retain this information to preserve the provenance of 
# this file and to allow appropriate attribution of the data. 
# 
#######################################################################

data_CuCl2(bpa)2
_audit_block_doi                 10.5517/cc9wxwy
_database_code_depnum_ccdc_archive 'CCDC 294961'
loop_
_citation_id
_citation_doi
_citation_year
1 10.1016/j.molstruc.2006.03.106 2006
_audit_update_record             
;
2006-01-12 deposited with the CCDC.	2024-07-09 downloaded from the CCDC.
;

_audit_creation_method           SHELXL-97
_chemical_name_systematic        
;
?
;
_chemical_name_common            ?
_chemical_melting_point          ?
_chemical_formula_moiety         'C20 H18 Cl2 Cu N6, 3(C3 H7 N O), 1.50(H2 O)'
_chemical_formula_sum            'C29 H42 Cl2 Cu N9 O4.50'
_chemical_formula_weight         723.16

loop_
_atom_type_symbol
_atom_type_description
_atom_type_scat_dispersion_real
_atom_type_scat_dispersion_imag
_atom_type_scat_source
C C 0.0033 0.0016 'International Tables Vol C Tables 4.2.6.8 and 6.1.1.4'
H H 0.0000 0.0000 'International Tables Vol C Tables 4.2.6.8 and 6.1.1.4'
N N 0.0061 0.0033 'International Tables Vol C Tables 4.2.6.8 and 6.1.1.4'
Cl Cl 0.1484 0.1585 'International Tables Vol C Tables 4.2.6.8 and 6.1.1.4'
Cu Cu 0.3201 1.2651 'International Tables Vol C Tables 4.2.6.8 and 6.1.1.4'
O O 0.0106 0.0060 'International Tables Vol C Tables 4.2.6.8 and 6.1.1.4'

_symmetry_cell_setting           Orthorhombic
_symmetry_space_group_name_H-M   'P b c n'
_symmetry_space_group_name_Hall  '-P 2n 2ab'

loop_
_symmetry_equiv_pos_as_xyz
'x, y, z'
'-x+1/2, -y+1/2, z+1/2'
'x+1/2, -y+1/2, -z'
'-x, y, -z+1/2'
'-x, -y, -z'
'x-1/2, y-1/2, -z-1/2'
'-x-1/2, y-1/2, z'
'x, -y, z-1/2'

_cell_length_a                   12.876(2)
_cell_length_b                   17.760(3)
_cell_length_c                   14.835(3)
_cell_angle_alpha                90.00
_cell_angle_beta                 90.00
_cell_angle_gamma                90.00
_cell_volume                     3392.4(11)
_cell_formula_units_Z            4
_cell_measurement_temperature    164(2)
_cell_measurement_reflns_used    6185
_cell_measurement_theta_min      2.39
_cell_measurement_theta_max      23.84

_exptl_crystal_description       block
_exptl_crystal_colour            'dark blue'
_exptl_crystal_size_max          0.60
_exptl_crystal_size_mid          0.60
_exptl_crystal_size_min          0.32
_exptl_crystal_density_meas      ?
_exptl_crystal_density_diffrn    1.416
_exptl_crystal_density_method    'not measured'
_exptl_crystal_F_000             1512
_exptl_absorpt_coefficient_mu    0.851
_exptl_absorpt_correction_type   multi-scan
_exptl_absorpt_correction_T_min  0.5253502
_exptl_absorpt_correction_T_max  0.762
_exptl_absorpt_process_details   'Bruker SADABS, 1996'

_exptl_special_details           
;
?
;

_diffrn_ambient_temperature      164(2)
_diffrn_radiation_wavelength     0.71073
_diffrn_radiation_type           MoK\a
_diffrn_radiation_source         'fine-focus sealed tube'
_diffrn_radiation_monochromator  graphite
_diffrn_measurement_device_type  'CCD area detector'
_diffrn_measurement_method       'phi and omega scans'
_diffrn_detector_area_resol_mean ?
_diffrn_standards_number         ?
_diffrn_standards_interval_count ?
_diffrn_standards_interval_time  ?
_diffrn_standards_decay_%        ?
_diffrn_reflns_number            24178
_diffrn_reflns_av_R_equivalents  0.0857
_diffrn_reflns_av_sigmaI/netI    0.0972
_diffrn_reflns_limit_h_min       -10
_diffrn_reflns_limit_h_max       16
_diffrn_reflns_limit_k_min       -15
_diffrn_reflns_limit_k_max       22
_diffrn_reflns_limit_l_min       -17
_diffrn_reflns_limit_l_max       18
_diffrn_reflns_theta_min         1.95
_diffrn_reflns_theta_max         26.51
_reflns_number_total             3453
_reflns_number_gt                1901
_reflns_threshold_expression     >2sigma(I)

_computing_data_collection       'Bruker SMART'
_computing_cell_refinement       'Bruker SMART'
_computing_data_reduction        'Bruker SAINT'
_computing_structure_solution    'Bruker SHELXTL'
_computing_structure_refinement  'SHELXL-97 (Sheldrick, 1997)'
_computing_molecular_graphics    'Bruker SHELXTL'
_computing_publication_material  'Bruker SHELXTL'

_refine_special_details          
;
The contributions to the diffraction pattern of the diffuse solvent were
removed and modified F~o~^2^ values were written to a new HKL file. The number
of electrons thus estimated was included in the final formula, formula weight,
calculated density, \m and F(000) and was 540 e-- per unit cell. The residual
electron density in the asymmetric unit was assigned to one and a half
molecules of DMF solvent and three quarters of a molecule of H2O solvent
[540/8 = 67.5 e-- per ligand molecule. 40 \\times 1.5(DMF) + 10 \\times
0.75(H2O) = 67.5 e--].
Refinement of F^2^ against ALL reflections. The weighted R-factor wR and
goodness of fit S are based on F^2^, conventional R-factors R are based
on F, with F set to zero for negative F^2^. The threshold expression of
F^2^ > 2sigma(F^2^) is used only for calculating R-factors(gt) etc. and is
not relevant to the choice of reflections for refinement. R-factors based
on F^2^ are statistically about twice as large as those based on F, and R-
factors based on ALL data will be even larger.
;

_refine_ls_structure_factor_coef Fsqd
_refine_ls_matrix_type           full
_refine_ls_weighting_scheme      calc
_refine_ls_weighting_details     
'calc w=1/[\s^2^(Fo^2^)+(0.0892P)^2^+0.0000P] where P=(Fo^2^+2Fc^2^)/3'
_atom_sites_solution_primary     direct
_atom_sites_solution_secondary   difmap
_atom_sites_solution_hydrogens   geom
_refine_ls_hydrogen_treatment    constr
_refine_ls_extinction_method     none
_refine_ls_extinction_coef       ?
_refine_ls_number_reflns         3453
_refine_ls_number_parameters     132
_refine_ls_number_restraints     0
_refine_ls_R_factor_all          0.1199
_refine_ls_R_factor_gt           0.0623
_refine_ls_wR_factor_ref         0.1656
_refine_ls_wR_factor_gt          0.1526
_refine_ls_goodness_of_fit_ref   0.953
_refine_ls_restrained_S_all      0.953
_refine_ls_shift/su_max          0.000
_refine_ls_shift/su_mean         0.000

loop_
_atom_site_label
_atom_site_type_symbol
_atom_site_fract_x
_atom_site_fract_y
_atom_site_fract_z
_atom_site_U_iso_or_equiv
_atom_site_adp_type
_atom_site_occupancy
_atom_site_symmetry_multiplicity
_atom_site_calc_flag
_atom_site_refinement_flags
_atom_site_disorder_assembly
_atom_site_disorder_group
C1 C 0.3896(3) 0.2361(2) 0.1069(3) 0.0395(12) Uani 1 1 d . . .
H1 H 0.4154 0.1971 0.0715 0.047 Uiso 1 1 calc R . .
C2 C 0.3306(4) 0.2879(3) 0.0682(3) 0.0452(13) Uani 1 1 d . . .
H2 H 0.3159 0.2846 0.0069 0.054 Uiso 1 1 calc R . .
C3 C 0.2906(4) 0.3470(2) 0.1187(3) 0.0400(12) Uani 1 1 d . . .
C4 C 0.3141(4) 0.3492(2) 0.2061(3) 0.0359(11) Uani 1 1 d . . .
H4 H 0.2889 0.3875 0.2428 0.043 Uiso 1 1 calc R . .
C5 C 0.3762(4) 0.2938(2) 0.2404(3) 0.0351(11) Uani 1 1 d . . .
H5 H 0.3933 0.2963 0.3012 0.042 Uiso 1 1 calc R . .
C6 C 0.1772(4) 0.4569(2) 0.1161(3) 0.0392(12) Uani 1 1 d . . .
C7 C 0.2287(4) 0.5061(2) 0.1680(4) 0.0474(14) Uani 1 1 d . . .
H7 H 0.2990 0.4992 0.1798 0.057 Uiso 1 1 calc R . .
C8 C 0.4246(4) -0.0289(2) 0.0980(3) 0.0420(12) Uani 1 1 d . . .
H8 H 0.4621 -0.0607 0.0603 0.050 Uiso 1 1 calc R . .
C9 C 0.4704(3) 0.0315(2) 0.1351(3) 0.0298(10) Uani 1 1 d . . .
H9 H 0.5403 0.0400 0.1231 0.036 Uiso 1 1 calc R . .
C10 C 0.3218(4) 0.0657(2) 0.2030(3) 0.0405(12) Uani 1 1 d . . .
H10 H 0.2854 0.0990 0.2397 0.049 Uiso 1 1 calc R . .
N1 N 0.4136(3) 0.23727(17) 0.1932(2) 0.0295(9) Uani 1 1 d . . .
N2 N 0.2231(3) 0.39426(19) 0.0790(2) 0.0497(12) Uani 1 1 d . . .
H2A H 0.2068 0.3842 0.0241 0.060 Uiso 1 1 calc R . .
N3 N 0.4216(3) 0.07864(18) 0.1871(2) 0.0277(8) Uani 1 1 d . . .
Cl1 Cl 0.64066(9) 0.16665(6) 0.10341(9) 0.0530(4) Uani 1 1 d . . .
Cu1 Cu 0.5000 0.15973(4) 0.2500 0.0311(2) Uani 1 2 d S . .

loop_
_atom_site_aniso_label
_atom_site_aniso_U_11
_atom_site_aniso_U_22
_atom_site_aniso_U_33
_atom_site_aniso_U_23
_atom_site_aniso_U_13
_atom_site_aniso_U_12
C1 0.051(3) 0.025(2) 0.042(3) -0.008(2) -0.004(2) 0.010(2)
C2 0.063(3) 0.044(3) 0.028(3) -0.010(2) -0.018(2) 0.024(3)
C3 0.049(3) 0.022(2) 0.050(3) -0.007(2) -0.004(2) 0.013(2)
C4 0.053(3) 0.018(2) 0.036(3) -0.0061(19) -0.002(2) 0.016(2)
C5 0.053(3) 0.020(2) 0.032(3) -0.001(2) 0.001(2) 0.003(2)
C6 0.049(3) 0.031(2) 0.037(3) -0.004(2) -0.020(2) 0.016(2)
C7 0.040(3) 0.024(2) 0.079(4) -0.005(2) -0.009(3) 0.012(2)
C8 0.068(4) 0.024(2) 0.034(3) -0.005(2) 0.020(2) -0.005(2)
C9 0.025(2) 0.028(2) 0.037(3) -0.001(2) 0.0026(19) 0.0007(19)
C10 0.041(3) 0.020(2) 0.060(3) -0.005(2) 0.007(2) 0.003(2)
N1 0.042(2) 0.0209(18) 0.026(2) -0.0043(16) -0.0036(17) 0.0056(17)
N2 0.090(3) 0.036(2) 0.023(2) -0.0086(17) -0.024(2) 0.034(2)
N3 0.030(2) 0.0271(19) 0.026(2) 0.0004(16) 0.0016(16) 0.0024(16)
Cl1 0.0533(8) 0.0376(7) 0.0682(9) -0.0148(6) 0.0362(7) -0.0142(6)
Cu1 0.0430(5) 0.0171(3) 0.0331(4) 0.000 -0.0116(4) 0.000

_geom_special_details            
;
All esds (except the esd in the dihedral angle between two l.s. planes)
are estimated using the full covariance matrix. The cell esds are taken
into account individually in the estimation of esds in distances, angles
and torsion angles; correlations between esds in cell parameters are only
used when they are defined by crystal symmetry. An approximate (isotropic)
treatment of cell esds is used for estimating esds involving l.s. planes.
;

loop_
_geom_bond_atom_site_label_1
_geom_bond_atom_site_label_2
_geom_bond_distance
_geom_bond_site_symmetry_2
_geom_bond_publ_flag
C1 N1 1.318(5) . ?
C1 C2 1.323(6) . ?
C2 C3 1.389(6) . ?
C3 C4 1.332(6) . ?
C3 N2 1.344(5) . ?
C4 C5 1.366(6) . ?
C5 N1 1.315(5) . ?
C6 C7 1.341(6) . ?
C6 C8 1.362(6) 7_665 ?
C6 N2 1.375(5) . ?
C7 C10 1.346(6) 7_665 ?
C8 C9 1.341(5) . ?
C8 C6 1.362(6) 7_655 ?
C9 N3 1.300(5) . ?
C10 N3 1.327(5) . ?
C10 C7 1.346(6) 7_655 ?
N1 Cu1 1.960(3) . ?
N3 Cu1 1.991(3) . ?
Cu1 N1 1.960(3) 4_655 ?
Cu1 N3 1.991(3) 4_655 ?

loop_
_geom_angle_atom_site_label_1
_geom_angle_atom_site_label_2
_geom_angle_atom_site_label_3
_geom_angle
_geom_angle_site_symmetry_1
_geom_angle_site_symmetry_3
_geom_angle_publ_flag
N1 C1 C2 123.1(4) . . ?
C1 C2 C3 120.2(4) . . ?
C4 C3 N2 123.7(4) . . ?
C4 C3 C2 117.6(4) . . ?
N2 C3 C2 118.4(4) . . ?
C3 C4 C5 118.3(4) . . ?
N1 C5 C4 124.5(4) . . ?
C7 C6 C8 118.0(4) . 7_665 ?
C7 C6 N2 123.0(4) . . ?
C8 C6 N2 119.0(4) 7_665 . ?
C6 C7 C10 119.6(4) . 7_665 ?
C9 C8 C6 119.4(4) . 7_655 ?
N3 C9 C8 123.1(4) . . ?
N3 C10 C7 122.3(4) . 7_655 ?
C5 N1 C1 116.3(4) . . ?
C5 N1 Cu1 121.1(3) . . ?
C1 N1 Cu1 122.7(3) . . ?
C3 N2 C6 127.5(4) . . ?
C9 N3 C10 117.6(4) . . ?
C9 N3 Cu1 119.9(3) . . ?
C10 N3 Cu1 122.2(3) . . ?
N1 Cu1 N1 90.74(19) 4_655 . ?
N1 Cu1 N3 175.69(14) 4_655 . ?
N1 Cu1 N3 91.09(13) . . ?
N1 Cu1 N3 91.09(13) 4_655 4_655 ?
N1 Cu1 N3 175.69(14) . 4_655 ?
N3 Cu1 N3 87.35(19) . 4_655 ?

_diffrn_measured_fraction_theta_max 0.977
_diffrn_reflns_theta_full        25.00
_diffrn_measured_fraction_theta_full 1.000
_refine_diff_density_max         0.632
_refine_diff_density_min         -0.676
_refine_diff_density_rms         0.078
