####################################################################### 
# 
# This file contains crystal structure data downloaded from the 
# Cambridge Structural Database (CSD) hosted by the Cambridge 
# Crystallographic Data Centre (CCDC).
# 
# Full information about CCDC data access policies and citation 
# guidelines are available at http://www.ccdc.cam.ac.uk/access/V1 
# 
# Audit and citation data items may have been added by the CCDC. 
# Please retain this information to preserve the provenance of 
# this file and to allow appropriate attribution of the data. 
# 
#######################################################################

data_Compound5
_audit_block_doi                 10.5517/ccnxzn5
_database_code_depnum_ccdc_archive 'CCDC 623678'
loop_
_citation_id
_citation_doi
_citation_year
1 10.1021/ic060891x 2006
_audit_update_record             
;
2006-10-11 deposited with the CCDC.	2024-07-09 downloaded from the CCDC.
;

_audit_creation_method           SHELXL-97
_chemical_name_systematic        
;
?
;
_chemical_name_common            ?
_chemical_melting_point          ?
_chemical_formula_moiety         ?
_chemical_formula_sum            'C83 H84 Cd Cl4 N7 O15.50'
_chemical_formula_weight         1681.77

loop_
_atom_type_symbol
_atom_type_description
_atom_type_scat_dispersion_real
_atom_type_scat_dispersion_imag
_atom_type_scat_source
C C 0.0033 0.0016 'International Tables Vol C Tables 4.2.6.8 and 6.1.1.4'
H H 0.0000 0.0000 'International Tables Vol C Tables 4.2.6.8 and 6.1.1.4'
N N 0.0061 0.0033 'International Tables Vol C Tables 4.2.6.8 and 6.1.1.4'
O O 0.0106 0.0060 'International Tables Vol C Tables 4.2.6.8 and 6.1.1.4'
Cl Cl 0.1484 0.1585 'International Tables Vol C Tables 4.2.6.8 and 6.1.1.4'
Cd Cd -0.8075 1.2024 'International Tables Vol C Tables 4.2.6.8 and 6.1.1.4'

_symmetry_cell_setting           Monoclinic
_symmetry_space_group_name_H-M   C2

loop_
_symmetry_equiv_pos_as_xyz
'x, y, z'
'-x, y, -z'
'x+1/2, y+1/2, z'
'-x+1/2, y+1/2, -z'

_cell_length_a                   27.796(8)
_cell_length_b                   31.895(11)
_cell_length_c                   10.176(3)
_cell_angle_alpha                90.00
_cell_angle_beta                 103.40(3)
_cell_angle_gamma                90.00
_cell_volume                     8776(5)
_cell_formula_units_Z            4
_cell_measurement_temperature    173(2)
_cell_measurement_reflns_used    ?
_cell_measurement_theta_min      1.97
_cell_measurement_theta_max      23.33

_exptl_crystal_description       Bloc
_exptl_crystal_colour            'Light Green'
_exptl_crystal_size_max          0.80
_exptl_crystal_size_mid          0.60
_exptl_crystal_size_min          0.30
_exptl_crystal_density_meas      ?
_exptl_crystal_density_diffrn    1.273
_exptl_crystal_density_method    'not measured'
_exptl_crystal_F_000             3484
_exptl_absorpt_coefficient_mu    0.435
_exptl_absorpt_correction_type   empirical
_exptl_absorpt_process_details   'SADABS (Sheldrick, 1996)'
_exptl_absorpt_correction_T_min  0.5910
_exptl_absorpt_correction_T_max  1.0000

_exptl_special_details           
;
?
;

_diffrn_ambient_temperature      173(2)
_diffrn_radiation_wavelength     0.71073
_diffrn_radiation_type           MoK\a
_diffrn_radiation_source         'fine-focus sealed tube'
_diffrn_radiation_monochromator  graphite
_diffrn_measurement_device_type  ?
_diffrn_measurement_method       ?
_diffrn_detector_area_resol_mean ?
_diffrn_standards_number         none
_diffrn_standards_interval_count none
_diffrn_standards_interval_time  none
_diffrn_standards_decay_%        none
_diffrn_reflns_number            34151
_diffrn_reflns_av_R_equivalents  0.0517
_diffrn_reflns_av_sigmaI/netI    0.0645
_diffrn_reflns_limit_h_min       -28
_diffrn_reflns_limit_h_max       30
_diffrn_reflns_limit_k_min       -35
_diffrn_reflns_limit_k_max       35
_diffrn_reflns_limit_l_min       -11
_diffrn_reflns_limit_l_max       11
_diffrn_reflns_theta_min         1.97
_diffrn_reflns_theta_max         23.33
_reflns_number_total             12421
_reflns_number_gt                9604
_reflns_threshold_expression     >2sigma(I)

_computing_data_collection       'Siemens SMART'
_computing_cell_refinement       'Siemens SMART & SAINT'
_computing_data_reduction        'Siemens XPREP'
_computing_structure_solution    'Siemens SHELXTL'
_computing_structure_refinement  'Siemens SHELXTL'
_computing_molecular_graphics    ?
_computing_publication_material  ?

_refine_special_details          
;
Refinement of F^2^ against ALL reflections. The weighted R-factor wR and
goodness of fit S are based on F^2^, conventional R-factors R are based
on F, with F set to zero for negative F^2^. The threshold expression of
F^2^ > 2sigma(F^2^) is used only for calculating R-factors(gt) etc. and is
not relevant to the choice of reflections for refinement. R-factors based
on F^2^ are statistically about twice as large as those based on F, and R-
factors based on ALL data will be even larger.
;

_refine_ls_structure_factor_coef Fsqd
_refine_ls_matrix_type           full
_refine_ls_weighting_scheme      calc
_refine_ls_weighting_details     
'calc w=1/[\s^2^(Fo^2^)+(0.1724P)^2^+22.2336P] where P=(Fo^2^+2Fc^2^)/3'
_atom_sites_solution_primary     direct
_atom_sites_solution_secondary   difmap
_atom_sites_solution_hydrogens   geom
_refine_ls_hydrogen_treatment    mixed
_refine_ls_extinction_method     none
_refine_ls_extinction_coef       ?
_refine_ls_abs_structure_details 'Flack H D (1983), Acta Cryst. A39, 876-881'
_refine_ls_abs_structure_Flack   0.01(4)
_refine_ls_number_reflns         12421
_refine_ls_number_parameters     937
_refine_ls_number_restraints     4
_refine_ls_R_factor_ref          0.1186
_refine_ls_R_factor_gt           0.0940
_refine_ls_wR_factor_ref         0.2597
_refine_ls_wR_factor_gt          0.2398
_refine_ls_goodness_of_fit_ref   1.050
_refine_ls_restrained_S_all      1.050
_refine_ls_shift/su_max          0.002
_refine_ls_shift/su_mean         0.000

loop_
_atom_site_label
_atom_site_type_symbol
_atom_site_fract_x
_atom_site_fract_y
_atom_site_fract_z
_atom_site_U_iso_or_equiv
_atom_site_adp_type
_atom_site_occupancy
_atom_site_symmetry_multiplicity
_atom_site_calc_flag
_atom_site_refinement_flags
_atom_site_disorder_assembly
_atom_site_disorder_group
Cd1 Cd 1.0000 -0.91122(3) 0.5000 0.0614(4) Uani 1 2 d S . .
Cd2 Cd 0.5000 -0.65885(3) 0.0000 0.0568(4) Uani 1 2 d S . .
Cl1 Cl 0.77718(17) -0.43403(11) 1.0052(5) 0.1025(14) Uani 1 1 d . . .
Cl2 Cl 1.00330(17) -0.67037(19) 1.2421(6) 0.1337(19) Uani 1 1 d . . .
Cl3 Cl 0.33176(14) -0.31787(12) 1.0361(4) 0.0846(10) Uani 1 1 d . . .
Cl4 Cl 0.20793(19) -0.62943(11) 0.5419(5) 0.1067(15) Uani 1 1 d . . .
O1 O 0.9223(3) -0.9347(2) 0.3421(8) 0.061(2) Uani 1 1 d . . .
O2 O 0.7322(5) -0.6786(3) 1.0873(14) 0.103(4) Uani 1 1 d . . .
O3 O 0.7287(3) -0.6546(3) 0.7597(10) 0.077(2) Uani 1 1 d . . .
O4 O 0.1496(3) -0.4281(3) 0.3968(9) 0.087(3) Uani 1 1 d . . .
O5 O 0.6262(9) -0.6434(8) 0.347(2) 0.223(10) Uiso 1 1 d D . .
O6 O 0.9493(5) -0.8854(5) 0.2434(16) 0.148(6) Uani 1 1 d . . .
O7 O 0.8924(5) -0.9245(4) 0.1329(10) 0.108(4) Uani 1 1 d . . .
O8 O 0.5732(4) -0.6670(4) 0.1775(15) 0.113(4) Uani 1 1 d D . .
O9 O 0.5698(14) -0.6054(13) 0.362(4) 0.308(15) Uiso 1 1 d . . .
O10 O 0.2902(4) -0.3930(3) 0.4167(10) 0.081(3) Uani 1 1 d . . .
N1 N 0.9182(4) -0.9176(3) 0.2309(14) 0.069(3) Uani 1 1 d . . .
N2 N 0.0331(4) -0.2115(2) 0.8854(12) 0.055(3) Uani 1 1 d . . .
N3 N 0.9526(4) -0.8584(4) 0.5691(13) 0.079(4) Uani 1 1 d . . .
N4 N 0.5857(10) -0.6435(11) 0.264(3) 0.207(13) Uiso 1 1 d D . .
N5 N 0.4545(4) -0.6092(3) 0.0923(11) 0.053(3) Uani 1 1 d . . .
N6 N 0.5361(4) -0.4571(3) 1.3712(10) 0.060(3) Uani 1 1 d . . .
C1 C 0.8837(5) -0.7335(3) 0.7927(16) 0.076(4) Uani 1 1 d . . .
H1A H 0.9186 -0.7299 0.8132 0.092 Uiso 1 1 calc R . .
C2 C 0.7050(7) -0.7456(5) 1.104(2) 0.115(6) Uani 1 1 d . . .
H2A H 0.6803 -0.7630 1.1328 0.173 Uiso 1 1 calc R . .
H2B H 0.7382 -0.7546 1.1515 0.173 Uiso 1 1 calc R . .
H2C H 0.7015 -0.7487 1.0064 0.173 Uiso 1 1 calc R . .
C3 C 0.8057(5) -0.6941(4) 0.7815(14) 0.066(4) Uani 1 1 d . . .
H3A H 0.7923 -0.7092 0.7009 0.079 Uiso 1 1 calc R . .
C4 C 0.9027(5) -0.8603(4) 0.5514(13) 0.068(3) Uani 1 1 d . . .
H4A H 0.8857 -0.8828 0.4993 0.082 Uiso 1 1 calc R . .
C5 C 0.8751(5) -0.6808(4) 0.9649(14) 0.069(3) Uani 1 1 d . . .
C6 C 0.5432(5) -0.4456(5) 1.2483(14) 0.087(4) Uani 1 1 d . . .
H6A H 0.5249 -0.4220 1.2075 0.105 Uiso 1 1 calc R . .
C7 C 0.6974(6) -0.6990(5) 1.138(2) 0.097(5) Uani 1 1 d . . .
H7A H 0.6637 -0.6894 1.0930 0.116 Uiso 1 1 calc R . .
H7B H 0.7028 -0.6947 1.2362 0.116 Uiso 1 1 calc R . .
C8 C 0.9725(4) -0.8257(4) 0.6292(16) 0.073(4) Uani 1 1 d . . .
H8A H 1.0071 -0.8227 0.6390 0.087 Uiso 1 1 calc R . .
C9 C 0.8450(5) -0.6511(4) 1.0133(15) 0.073(4) Uani 1 1 d . . .
C10 C 0.7967(5) -0.5116(4) 0.9269(17) 0.081(4) Uani 1 1 d . . .
H10A' H 0.8184 -0.4986 0.8795 0.097 Uiso 1 1 calc R . .
C11 C 0.5991(5) -0.4962(4) 1.2331(14) 0.065(3) Uani 1 1 d . . .
C12 C 0.8664(6) -0.6295(5) 1.1361(18) 0.088(5) Uani 1 1 d . . .
H12A H 0.8465 -0.6104 1.1720 0.106 Uiso 1 1 calc R . .
C13 C 0.9427(6) -0.6636(7) 1.1504(19) 0.115(6) Uani 1 1 d . . .
C14 C 0.7692(5) -0.4866(4) 0.9973(14) 0.073(4) Uani 1 1 d . . .
C15 C 0.9234(5) -0.6863(4) 1.0371(14) 0.075(4) Uiso 1 1 d . . .
H15A H 0.9436 -0.7064 1.0069 0.090 Uiso 1 1 calc R . .
C16 C 0.5741(5) -0.4644(5) 1.1752(16) 0.082(4) Uani 1 1 d . . .
H16A H 0.5766 -0.4544 1.0890 0.099 Uiso 1 1 calc R . .
C17 C 0.5914(6) -0.5136(4) 1.3517(18) 0.085(4) Uani 1 1 d . . .
H17A H 0.6086 -0.5383 1.3879 0.102 Uiso 1 1 calc R . .
C18 C 0.8755(4) -0.8321(3) 0.6035(13) 0.064(3) Uani 1 1 d . . .
H18A H 0.8411 -0.8368 0.5931 0.076 Uiso 1 1 calc R . .
C19 C 0.8539(4) -0.7006(4) 0.8480(13) 0.057(3) Uani 1 1 d . . .
C20 C 0.8956(5) -0.7985(4) 0.6677(16) 0.069(4) Uani 1 1 d . . .
C21 C 0.9119(6) -0.6352(6) 1.200(2) 0.105(5) Uani 1 1 d . . .
H21A H 0.9248 -0.6201 1.2809 0.126 Uiso 1 1 calc R . .
C22 C 0.9485(5) -0.7938(4) 0.6820(16) 0.078(4) Uani 1 1 d . . .
H22A H 0.9659 -0.7700 0.7253 0.093 Uiso 1 1 calc R . .
C23 C 0.7758(4) -0.6655(4) 0.8304(15) 0.072(4) Uani 1 1 d . . .
C24 C 0.8666(5) -0.7654(4) 0.7219(14) 0.065(3) Uani 1 1 d . . .
H24A H 0.8317 -0.7687 0.7009 0.078 Uiso 1 1 calc R . .
C25 C 0.6626(5) -0.5494(3) 1.2125(14) 0.071(4) Uani 1 1 d . . .
H25A H 0.6589 -0.5609 1.2956 0.086 Uiso 1 1 calc R . .
C26 C 0.7316(5) -0.5503(4) 1.0733(14) 0.063(4) Uani 1 1 d . . .
C27 C 0.7305(5) -0.6366(4) 1.0780(17) 0.072(4) Uani 1 1 d . . .
C28 C 0.7613(4) -0.6170(4) 1.0030(14) 0.061(3) Uani 1 1 d . . .
C29 C 0.7003(5) -0.6115(4) 1.1378(18) 0.079(5) Uani 1 1 d . . .
H29A H 0.6786 -0.6254 1.1833 0.095 Uiso 1 1 calc R . .
C30 C 0.7923(5) -0.5541(4) 0.9263(15) 0.069(4) Uani 1 1 d . . .
H30A H 0.8093 -0.5708 0.8743 0.083 Uiso 1 1 calc R . .
C31 C 0.6993(6) -0.5700(6) 1.137(2) 0.100(6) Uani 1 1 d . . .
C32 C 0.5567(5) -0.4935(5) 1.4207(14) 0.079(4) Uani 1 1 d . . .
H32A H 0.5490 -0.5059 1.4982 0.095 Uiso 1 1 calc R . .
C33 C 0.7377(4) -0.5038(4) 1.0668(14) 0.062(3) Uani 1 1 d . . .
H33A H 0.7193 -0.4860 1.1118 0.074 Uiso 1 1 calc R . .
C34 C 0.7951(5) -0.6450(4) 0.9487(17) 0.074(4) Uani 1 1 d . . .
C35 C 0.7632(4) -0.5726(4) 1.0013(14) 0.064(4) Uani 1 1 d . . .
C36 C 0.6690(14) -0.6933(18) 0.663(5) 0.43(5) Uani 1 1 d . . .
H36A H 0.6616 -0.7184 0.6063 0.639 Uiso 1 1 calc R . .
H36B H 0.6440 -0.6717 0.6296 0.639 Uiso 1 1 calc R . .
H36C H 0.6685 -0.7005 0.7564 0.639 Uiso 1 1 calc R . .
C37 C 0.6367(5) -0.5161(4) 1.1618(14) 0.077(4) Uani 1 1 d . . .
H37A H 0.6414 -0.5042 1.0801 0.093 Uiso 1 1 calc R . .
C41 C 0.4416(4) -0.5448(3) 0.1854(12) 0.054(3) Uani 1 1 d . . .
H41A H 0.4541 -0.5174 0.2090 0.065 Uiso 1 1 calc R . .
C42 C 0.1705(5) -0.3564(4) 0.6828(14) 0.065(3) Uani 1 1 d . . .
C43 C 0.2310(9) -0.3600(7) 0.2465(19) 0.172(13) Uani 1 1 d . . .
H43A H 0.2269 -0.3458 0.1592 0.258 Uiso 1 1 calc R . .
H43B H 0.2212 -0.3411 0.3114 0.258 Uiso 1 1 calc R . .
H43C H 0.2102 -0.3852 0.2354 0.258 Uiso 1 1 calc R . .
C44 C 0.3235(4) -0.5360(3) 0.2984(11) 0.046(3) Uani 1 1 d . . .
H44A H 0.3109 -0.5638 0.2860 0.056 Uiso 1 1 calc R . .
C45 C 0.2047(5) -0.5058(4) 0.5858(13) 0.063(3) Uani 1 1 d . . .
H45A H 0.1893 -0.4864 0.6339 0.075 Uiso 1 1 calc R . .
C46 C 0.0804(5) -0.2738(3) 0.8898(13) 0.063(3) Uani 1 1 d . . .
H46A H 0.0985 -0.2956 0.9427 0.076 Uiso 1 1 calc R . .
C47 C 0.2474(5) -0.4479(3) 0.4933(13) 0.050(3) Uani 1 1 d . . .
C48 C 0.2198(5) -0.5756(3) 0.5259(15) 0.070(4) Uani 1 1 d . . .
C49 C 0.2511(5) -0.5630(4) 0.4544(13) 0.063(3) Uani 1 1 d . . .
H49A H 0.2671 -0.5834 0.4114 0.075 Uiso 1 1 calc R . .
C50 C 0.4699(4) -0.5721(3) 0.1362(11) 0.051(3) Uani 1 1 d . . .
H50A H 0.5026 -0.5640 0.1335 0.061 Uiso 1 1 calc R . .
C51 C 0.1952(6) -0.5483(5) 0.5924(16) 0.086(5) Uani 1 1 d . . .
H51A H 0.1723 -0.5583 0.6414 0.103 Uiso 1 1 calc R . .
C52 C 0.1447(5) -0.3248(4) 0.7484(15) 0.074(4) Uani 1 1 d . . .
H52A H 0.1568 -0.3201 0.8425 0.089 Uiso 1 1 calc R . .
C53 C 0.7033(6) -0.6822(5) 0.660(2) 0.096(5) Uani 1 1 d . . .
H53A H 0.7000 -0.6680 0.5717 0.115 Uiso 1 1 calc R . .
H53B H 0.7249 -0.7068 0.6595 0.115 Uiso 1 1 calc R . .
C54 C 0.3944(3) -0.5549(3) 0.2034(11) 0.037(2) Uani 1 1 d . . .
C55 C 0.2844(6) -0.3724(5) 0.2978(16) 0.083(4) Uani 1 1 d . . .
H55A H 0.2948 -0.3907 0.2307 0.100 Uiso 1 1 calc R . .
H55B H 0.3055 -0.3470 0.3104 0.100 Uiso 1 1 calc R . .
C56 C 0.3775(4) -0.5956(3) 0.1500(13) 0.061(3) Uani 1 1 d . . .
H56A H 0.3457 -0.6053 0.1555 0.074 Uiso 1 1 calc R . .
C57 C 0.1054(5) -0.3024(5) 0.6838(13) 0.073(4) Uani 1 1 d . . .
H57A H 0.0939 -0.3058 0.5890 0.087 Uiso 1 1 calc R . .
C58 C 0.0294(4) -0.2104(4) 0.7494(15) 0.071(4) Uani 1 1 d . . .
H58A H 0.0104 -0.1888 0.6975 0.086 Uiso 1 1 calc R . .
C59 C 0.0565(5) -0.2451(3) 0.9492(13) 0.060(3) Uani 1 1 d . . .
H59A H 0.0562 -0.2490 1.0416 0.072 Uiso 1 1 calc R . .
C60 C 0.3657(4) -0.5276(3) 0.2569(10) 0.047(3) Uani 1 1 d . . .
H60A H 0.3767 -0.4993 0.2661 0.056 Uiso 1 1 calc R . .
C61 C 0.2379(4) -0.4909(4) 0.5066(11) 0.048(3) Uani 1 1 d . . .
C62 C 0.2969(4) -0.4031(3) 0.7410(11) 0.051(3) Uani 1 1 d . . .
H62A H 0.3138 -0.4245 0.7048 0.062 Uiso 1 1 calc R . .
C63 C 0.3212(5) -0.3814(4) 0.8490(13) 0.067(3) Uani 1 1 d . . .
H63A H 0.3546 -0.3884 0.8887 0.081 Uiso 1 1 calc R . .
C64 C 0.3040(5) -0.4649(3) 0.3542(12) 0.054(3) Uani 1 1 d . . .
H64A H 0.3266 -0.4551 0.3040 0.065 Uiso 1 1 calc R . .
C65 C 0.2958(4) -0.5051(3) 0.3617(10) 0.040(2) Uani 1 1 d . . .
C66 C 0.0788(4) -0.2718(4) 0.7573(15) 0.063(3) Uani 1 1 d . . .
C67 C 0.2612(4) -0.5220(4) 0.4404(10) 0.042(2) Uani 1 1 d . . .
C69 C 0.2204(4) -0.4157(5) 0.5647(9) 0.054(3) Uani 1 1 d . . .
C70 C 0.2789(6) -0.4354(4) 0.4213(13) 0.067(4) Uani 1 1 d . . .
C71 C 0.0535(5) -0.2406(5) 0.6819(17) 0.085(4) Uani 1 1 d . . .
H71A H 0.0517 -0.2388 0.5877 0.102 Uiso 1 1 calc R . .
C72 C 0.4067(4) -0.6202(3) 0.0923(13) 0.061(3) Uani 1 1 d . . .
H72A H 0.3936 -0.6457 0.0505 0.073 Uiso 1 1 calc R . .
C73 C 0.2227(5) -0.3622(4) 0.7391(12) 0.063(3) Uani 1 1 d . . .
C74 C 0.1483(5) -0.3778(5) 0.5752(13) 0.073(4) Uani 1 1 d . . .
H74A H 0.1140 -0.3730 0.5393 0.088 Uiso 1 1 calc R . .
C75 C 0.2484(4) -0.3951(3) 0.6819(11) 0.051(3) Uani 1 1 d . . .
C76 C 0.2983(5) -0.3475(4) 0.9075(12) 0.062(3) Uani 1 1 d . . .
C77 C 0.2510(4) -0.3402(4) 0.8495(13) 0.060(3) Uani 1 1 d . . .
H77A H 0.2351 -0.3183 0.8861 0.073 Uiso 1 1 calc R . .
C78 C 0.1720(4) -0.4068(4) 0.5114(12) 0.062(3) Uani 1 1 d . . .
C79 C 0.1037(8) -0.4141(11) 0.320(3) 0.188(14) Uani 1 1 d . . .
H79A H 0.1059 -0.3841 0.2967 0.226 Uiso 1 1 calc R . .
H79B H 0.0781 -0.4171 0.3731 0.226 Uiso 1 1 calc R . .
C80 C 0.0903(10) -0.441(2) 0.193(4) 0.55(7) Uani 1 1 d . . .
H80A H 0.0588 -0.4308 0.1362 0.832 Uiso 1 1 calc R . .
H80B H 0.0872 -0.4700 0.2171 0.832 Uiso 1 1 calc R . .
H80C H 0.1163 -0.4379 0.1424 0.832 Uiso 1 1 calc R . .
O101 O 0.2944(15) -0.2385(12) 1.406(4) 0.291(15) Uiso 1 1 d . . .
O102 O 1.0000 -0.8275(6) 1.0000 0.124(6) Uiso 1 2 d S . .
N101 N 0.3740(7) -0.2323(6) 1.3735(18) 0.138(6) Uiso 1 1 d . . .
C101 C 0.4023(5) -0.2700(4) 1.3063(14) 0.074(3) Uiso 1 1 d . . .
H10B H 0.3776 -0.2874 1.2459 0.112 Uiso 1 1 calc R . .
H10C H 0.4217 -0.2876 1.3786 0.112 Uiso 1 1 calc R . .
H10D H 0.4244 -0.2574 1.2549 0.112 Uiso 1 1 calc R . .
C102 C 0.4108(6) -0.2020(5) 1.4768(15) 0.094(4) Uiso 1 1 d . . .
H10E H 0.3914 -0.1809 1.5120 0.141 Uiso 1 1 calc R . .
H10F H 0.4333 -0.1881 1.4296 0.141 Uiso 1 1 calc R . .
H10G H 0.4300 -0.2187 1.5518 0.141 Uiso 1 1 calc R . .
C103 C 0.3240(7) -0.2410(6) 1.3809(17) 0.091(4) Uiso 1 1 d . . .
H10H H 0.3170 -0.2645 1.3218 0.109 Uiso 1 1 calc R . .
C104 C 1.0200(12) -0.7885(10) 0.963(3) 0.090(8) Uiso 0.50 1 d P . .
C105 C 0.9993(8) -0.7556(7) 1.0445(18) 0.051(5) Uiso 0.50 1 d P . .
C114 C 1.1099(16) -0.5979(14) 1.286(4) 0.119(12) Uiso 0.50 1 d P . .
H11A H 1.1238 -0.5902 1.2093 0.179 Uiso 0.50 1 calc PR . .
H11B H 1.0851 -0.6199 1.2590 0.179 Uiso 0.50 1 calc PR . .
H11C H 1.1365 -0.6081 1.3603 0.179 Uiso 0.50 1 calc PR . .
O110 O 1.0000 -0.564(3) 1.0000 0.43(4) Uiso 1 2 d S . .
O104 O 1.1019(10) -0.2417(9) 1.326(3) 0.123(8) Uiso 0.50 1 d P . .
H10K H 1.1241 -0.2313 1.2923 0.185 Uiso 0.50 1 calc PR . .
C108 C 1.0450(12) -0.3130(11) 1.295(3) 0.098(9) Uiso 0.50 1 d P . .
H10L H 1.0444 -0.3373 1.2351 0.146 Uiso 0.50 1 calc PR . .
H10M H 1.0126 -0.2992 1.2729 0.146 Uiso 0.50 1 calc PR . .
H10N H 1.0525 -0.3223 1.3888 0.146 Uiso 0.50 1 calc PR . .
C109 C 1.089(4) -0.279(3) 1.271(10) 0.27(4) Uiso 0.50 1 d P . .
H10O H 1.1202 -0.2950 1.2910 0.328 Uiso 0.50 1 calc PR . .
H10P H 1.0813 -0.2733 1.1728 0.328 Uiso 0.50 1 calc PR . .
O105 O 0.5000 -0.8577(18) 0.5000 0.33(2) Uiso 1 2 d S . .
C112 C 0.925(2) -0.488(2) 1.299(6) 0.17(2) Uiso 0.50 1 d PD . .
H11