####################################################################### 
# 
# This file contains crystal structure data downloaded from the 
# Cambridge Structural Database (CSD) hosted by the Cambridge 
# Crystallographic Data Centre (CCDC).
# 
# Full information about CCDC data access policies and citation 
# guidelines are available at http://www.ccdc.cam.ac.uk/access/V1 
# 
# Audit and citation data items may have been added by the CCDC. 
# Please retain this information to preserve the provenance of 
# this file and to allow appropriate attribution of the data. 
# 
#######################################################################

data_Compound_1
_audit_block_doi                 10.5517/ccnxzj1
_database_code_depnum_ccdc_archive 'CCDC 623674'
loop_
_citation_id
_citation_doi
_citation_year
1 10.1021/ic060891x 2006
_audit_update_record             
;
2006-10-11 deposited with the CCDC.	2024-07-09 downloaded from the CCDC.
;

_audit_creation_method           SHELXL-97
_chemical_name_systematic        
;
?
;
_chemical_name_common            ?
_chemical_melting_point          ?
_chemical_formula_moiety         ?
_chemical_formula_sum            'C102 H128 Cl8 N12 O32 Zn2'
_chemical_formula_weight         2448.50

loop_
_atom_type_symbol
_atom_type_description
_atom_type_scat_dispersion_real
_atom_type_scat_dispersion_imag
_atom_type_scat_source
C C 0.0033 0.0016 'International Tables Vol C Tables 4.2.6.8 and 6.1.1.4'
H H 0.0000 0.0000 'International Tables Vol C Tables 4.2.6.8 and 6.1.1.4'
N N 0.0061 0.0033 'International Tables Vol C Tables 4.2.6.8 and 6.1.1.4'
O O 0.0106 0.0060 'International Tables Vol C Tables 4.2.6.8 and 6.1.1.4'
Cl Cl 0.1484 0.1585 'International Tables Vol C Tables 4.2.6.8 and 6.1.1.4'
Zn Zn 0.2839 1.4301 'International Tables Vol C Tables 4.2.6.8 and 6.1.1.4'

_symmetry_cell_setting           triclinic
_symmetry_space_group_name_H-M   P1

loop_
_symmetry_equiv_pos_as_xyz
'x, y, z'

_cell_length_a                   11.1367(15)
_cell_length_b                   15.470(2)
_cell_length_c                   17.573(3)
_cell_angle_alpha                83.056(2)
_cell_angle_beta                 88.764(2)
_cell_angle_gamma                87.531(2)
_cell_volume                     3002.2(7)
_cell_formula_units_Z            1
_cell_measurement_temperature    173(2)
_cell_measurement_reflns_used    ?
_cell_measurement_theta_min      1.33
_cell_measurement_theta_max      23.30

_exptl_crystal_description       Bloc
_exptl_crystal_colour            Colorless
_exptl_crystal_size_max          0.80
_exptl_crystal_size_mid          0.30
_exptl_crystal_size_min          0.30
_exptl_crystal_density_meas      ?
_exptl_crystal_density_diffrn    1.354
_exptl_crystal_density_method    'not measured'
_exptl_crystal_F_000             1276
_exptl_absorpt_coefficient_mu    0.655
_exptl_absorpt_correction_type   empirical
_exptl_absorpt_process_details   'SADABS (Sheldrick, 1996)'
_exptl_absorpt_correction_T_min  0.7198
_exptl_absorpt_correction_T_max  1.0000

_exptl_special_details           
;
?
;

_diffrn_ambient_temperature      173(2)
_diffrn_radiation_wavelength     0.71073
_diffrn_radiation_type           MoK\a
_diffrn_radiation_source         'fine-focus sealed tube'
_diffrn_radiation_monochromator  graphite
_diffrn_measurement_device_type  ?
_diffrn_measurement_method       ?
_diffrn_detector_area_resol_mean ?
_diffrn_standards_number         none
_diffrn_standards_interval_count none
_diffrn_standards_interval_time  none
_diffrn_standards_decay_%        none
_diffrn_reflns_number            13611
_diffrn_reflns_av_R_equivalents  0.0320
_diffrn_reflns_av_sigmaI/netI    0.0732
_diffrn_reflns_limit_h_min       -12
_diffrn_reflns_limit_h_max       12
_diffrn_reflns_limit_k_min       -17
_diffrn_reflns_limit_k_max       14
_diffrn_reflns_limit_l_min       -18
_diffrn_reflns_limit_l_max       19
_diffrn_reflns_theta_min         1.33
_diffrn_reflns_theta_max         23.30
_reflns_number_total             12558
_reflns_number_gt                9554
_reflns_threshold_expression     >2sigma(I)

_computing_data_collection       'Siemens SMART'
_computing_cell_refinement       'Siemens SMART & SAINT'
_computing_data_reduction        'Siemens XPREP'
_computing_structure_solution    'Siemens SHELXTL'
_computing_structure_refinement  'Siemens SHELXTL'
_computing_molecular_graphics    ?
_computing_publication_material  ?

_refine_special_details          
;
Refinement of F^2^ against ALL reflections. The weighted R-factor wR and
goodness of fit S are based on F^2^, conventional R-factors R are based
on F, with F set to zero for negative F^2^. The threshold expression of
F^2^ > 2sigma(F^2^) is used only for calculating R-factors(gt) etc. and is
not relevant to the choice of reflections for refinement. R-factors based
on F^2^ are statistically about twice as large as those based on F, and R-
factors based on ALL data will be even larger.
;

_refine_ls_structure_factor_coef Fsqd
_refine_ls_matrix_type           full
_refine_ls_weighting_scheme      calc
_refine_ls_weighting_details     
'calc w=1/[\s^2^(Fo^2^)+(0.1851P)^2^+10.5682P] where P=(Fo^2^+2Fc^2^)/3'
_atom_sites_solution_primary     direct
_atom_sites_solution_secondary   difmap
_atom_sites_solution_hydrogens   geom
_refine_ls_hydrogen_treatment    mixed
_refine_ls_extinction_method     SHELXL
_refine_ls_extinction_coef       0.024(3)
_refine_ls_extinction_expression Fc^*^=kFc[1+0.001xFc^2^\l^3^/sin(2\q)]^-1/4^
_refine_ls_abs_structure_details 'Flack H D (1983), Acta Cryst. A39, 876-881'
_refine_ls_abs_structure_Flack   0.11(3)
_refine_ls_number_reflns         12558
_refine_ls_number_parameters     1242
_refine_ls_number_restraints     11
_refine_ls_R_factor_ref          0.1348
_refine_ls_R_factor_gt           0.1096
_refine_ls_wR_factor_ref         0.3023
_refine_ls_wR_factor_gt          0.2740
_refine_ls_goodness_of_fit_ref   1.042
_refine_ls_restrained_S_all      1.042
_refine_ls_shift/su_max          0.003
_refine_ls_shift/su_mean         0.000

loop_
_atom_site_label
_atom_site_type_symbol
_atom_site_fract_x
_atom_site_fract_y
_atom_site_fract_z
_atom_site_U_iso_or_equiv
_atom_site_adp_type
_atom_site_occupancy
_atom_site_symmetry_multiplicity
_atom_site_calc_flag
_atom_site_refinement_flags
_atom_site_disorder_assembly
_atom_site_disorder_group
Zn1 Zn -0.03392(11) -1.16235(8) 1.89229(7) 0.0467(5) Uani 1 1 d . . .
Zn2 Zn -1.21541(12) -2.17427(8) 2.34962(8) 0.0540(6) Uani 1 1 d . . .
Cl1 Cl -0.1604(4) -0.7932(4) 1.3670(3) 0.0963(16) Uani 1 1 d . . .
Cl2 Cl 0.2507(11) -0.2230(5) 1.3225(6) 0.214(6) Uani 1 1 d . . .
Cl3 Cl -0.5109(5) -2.0810(4) 1.9140(4) 0.118(2) Uani 1 1 d . . .
Cl4 Cl -1.0164(5) -1.5494(5) 1.4914(3) 0.112(2) Uani 1 1 d . . .
Cl5 Cl 0.7310(5) -0.8295(4) 0.6915(4) 0.1098(18) Uani 1 1 d . . .
Cl6 Cl 0.8578(5) 0.3340(4) 0.1038(3) 0.0830(14) Uani 1 1 d . . .
Cl7 Cl -1.4224(6) -2.1327(4) 2.2038(4) 0.1086(19) Uani 1 1 d . . .
Cl8 Cl -1.5033(10) -3.3207(11) 2.8131(7) 0.203(5) Uani 1 1 d . . .
O1 O 0.5047(11) -0.6494(10) 1.4700(9) 0.094(4) Uani 1 1 d . . .
O2 O 0.4984(8) -0.7153(7) 1.2929(7) 0.070(3) Uani 1 1 d . . .
O3 O -0.1578(15) -1.1698(12) 1.7911(10) 0.116(5) Uiso 1 1 d . . .
O4 O -0.1426(13) -1.0482(11) 1.9353(9) 0.100(5) Uani 1 1 d . . .
O5 O 0.1143(14) -1.1687(8) 1.9832(8) 0.088(4) Uani 1 1 d . . .
O6 O 0.0696(18) -1.2830(11) 1.8470(12) 0.134(7) Uani 1 1 d D . .
O7 O -0.9482(9) -1.6470(7) 1.8531(6) 0.071(3) Uani 1 1 d . . .
O8 O -0.5796(10) -1.6614(9) 1.8537(8) 0.082(4) Uani 1 1 d . . .
O9 O -1.378(2) -2.1944(13) 2.2652(13) 0.156(8) Uani 1 1 d . . .
O10 O -1.3079(13) -2.0605(10) 2.4041(9) 0.093(4) Uani 1 1 d . . .
O11 O -1.060(2) -2.1762(15) 2.4400(13) 0.171(9) Uani 1 1 d . . .
O12 O -1.140(2) -2.2982(13) 2.3033(13) 0.142(8) Uani 1 1 d . . .
O13 O 0.831(5) -0.757(4) 0.739(3) 0.27(3) Uiso 1 1 d . . .
O14 O 0.7448(18) -0.9073(15) 0.7449(14) 0.174(9) Uani 1 1 d . . .
O15 O 0.7983(15) -0.8267(17) 0.6240(11) 0.163(8) Uani 1 1 d . . .
O16 O 0.607(2) -0.8403(17) 0.6737(14) 0.172(8) Uiso 1 1 d . . .
O17 O 0.843(3) 0.403(2) 0.0456(18) 0.215(11) Uiso 1 1 d . . .
O18 O 0.795(2) 0.2637(15) 0.0894(18) 0.199(11) Uani 1 1 d . . .
O19 O 0.9793(15) 0.3050(14) 0.1150(13) 0.156(8) Uani 1 1 d . . .
O20 O 0.8179(15) 0.3634(15) 0.1715(8) 0.142(7) Uani 1 1 d . . .
O21 O 1.197(2) -0.016(2) 1.3077(17) 0.169(11) Uiso 1 1 d D . .
O22 O -1.313(2) -2.1204(19) 2.1509(16) 0.193(9) Uiso 1 1 d . . .
O23 O -1.523(2) -2.1646(14) 2.1674(17) 0.187(10) Uani 1 1 d . . .
O24 O -1.436(2) -2.0486(12) 2.2232(16) 0.171(9) Uani 1 1 d . . .
O25 O -1.614(3) -3.276(2) 2.832(2) 0.235(13) Uiso 1 1 d . . .
O26 O -1.422(3) -3.290(2) 2.8573(19) 0.213(11) Uiso 1 1 d . . .
O27 O -1.392(6) -3.362(4) 2.781(4) 0.17(3) Uiso 1 1 d . . .
O28 O -1.522(7) -3.401(6) 2.864(5) 0.25(4) Uiso 1 1 d . . .
O29 O 1.405(5) -0.089(4) 0.556(3) 0.16(2) Uiso 1 1 d . . .
O30 O 0.254(2) -1.5282(17) 2.1237(15) 0.176(8) Uiso 1 1 d D . .
H30B H 0.2931 -1.5761 2.1304 0.264 Uiso 1 1 calc R . .
N1 N 0.0722(14) -1.0613(13) 1.8074(8) 0.082(5) Uani 1 1 d . . .
N2 N 0.8586(15) -0.2569(9) 0.9737(10) 0.083(5) Uani 1 1 d . . .
N3 N -0.290(2) -1.1167(17) 1.7126(16) 0.141(8) Uiso 1 1 d . . .
N4 N -0.2670(14) -0.9429(12) 1.9775(11) 0.092(5) Uani 1 1 d . . .
N5 N 0.272(2) -1.2503(18) 2.0417(13) 0.141(9) Uani 1 1 d . . .
N6 N 0.078(4) -1.374(3) 1.750(3) 0.238(15) Uiso 1 1 d D . .
N7 N -1.1197(17) -2.0865(16) 2.2575(11) 0.116(7) Uani 1 1 d . . .
N10 N -1.4630(17) -1.9696(12) 2.4371(11) 0.103(6) Uani 1 1 d . . .
N11 N 1.2890(16) -0.2257(11) 0.6083(13) 0.110(6) Uani 1 1 d . . .
N12 N -1.119(2) -2.4396(15) 2.2871(16) 0.144(10) Uani 1 1 d . . .
N13 N 1.2697(16) 0.0730(17) 1.2004(13) 0.135(9) Uani 1 1 d D . .
C1 C 0.1855(17) -1.0828(13) 1.7882(10) 0.083(5) Uani 1 1 d . . .
H1A H 0.2273 -1.1342 1.8102 0.100 Uiso 1 1 calc R . .
C2 C 0.2377(15) -1.0210(11) 1.7315(9) 0.070(5) Uani 1 1 d . . .
H2A H 0.3188 -1.0332 1.7170 0.084 Uiso 1 1 calc R . .
C3 C 0.1849(15) -0.9473(11) 1.6960(9) 0.059(4) Uani 1 1 d . . .
C4 C 0.0659(13) -0.9371(11) 1.7231(11) 0.070(5) Uani 1 1 d . . .
H4A H 0.0185 -0.8888 1.7000 0.084 Uiso 1 1 calc R . .
C5 C 0.0145(15) -0.9905(13) 1.7793(12) 0.085(6) Uani 1 1 d . . .
H5A H -0.0635 -0.9765 1.7983 0.102 Uiso 1 1 calc R . .
C6 C 0.2369(15) -0.8912(10) 1.6393(10) 0.062(4) Uani 1 1 d . . .
H6A H 0.3222 -0.8910 1.6383 0.074 Uiso 1 1 calc R . .
C7 C 0.1788(14) -0.8355(12) 1.5840(9) 0.064(4) Uani 1 1 d . . .
H7A H 0.0935 -0.8353 1.5861 0.076 Uiso 1 1 calc R . .
C8 C 0.2322(12) -0.7760(9) 1.5219(8) 0.052(3) Uani 1 1 d . . .
C9 C 0.1628(12) -0.7502(10) 1.4547(8) 0.052(3) Uani 1 1 d . . .
C10 C 0.0430(14) -0.7800(11) 1.4446(11) 0.072(4) Uani 1 1 d . . .
H10D H 0.0045 -0.8168 1.4840 0.086 Uiso 1 1 calc R . .
C11 C -0.0135(13) -0.7535(10) 1.3765(10) 0.065(4) Uani 1 1 d . . .
C12 C 0.0342(14) -0.7032(11) 1.3143(9) 0.063(4) Uani 1 1 d . . .
H12A H -0.0096 -0.6880 1.2685 0.075 Uiso 1 1 calc R . .
C13 C 0.1521(14) -0.6754(11) 1.3222(9) 0.064(4) Uani 1 1 d . . .
H13A H 0.1886 -0.6417 1.2799 0.077 Uiso 1 1 calc R . .
C14 C 0.2174(12) -0.6953(10) 1.3899(9) 0.053(4) Uani 1 1 d . . .
C15 C 0.3289(14) -0.6653(11) 1.4009(10) 0.062(4) Uani 1 1 d . . .
C16 C 0.3896(13) -0.6870(11) 1.4673(8) 0.050(4) Uani 1 1 d . . .
C17 C 0.3408(13) -0.7473(11) 1.5271(9) 0.054(4) Uani 1 1 d . . .
H17A H 0.3873 -0.7667 1.5710 0.064 Uiso 1 1 calc R . .
C18 C 0.5777(14) -0.6820(12) 1.5355(9) 0.061(4) Uani 1 1 d . . .
H18A H 0.5901 -0.7461 1.5395 0.074 Uiso 1 1 calc R . .
H18B H 0.5400 -0.6662 1.5837 0.074 Uiso 1 1 calc R . .
C19 C 0.6909(16) -0.6385(18) 1.5192(13) 0.105(7) Uani 1 1 d . . .
H19A H 0.7470 -0.6568 1.5608 0.158 Uiso 1 1 calc R . .
H19B H 0.6760 -0.5753 1.5150 0.158 Uiso 1 1 calc R . .
H19C H 0.7256 -0.6544 1.4709 0.158 Uiso 1 1 calc R . .
C20 C 0.5874(17) -0.8513(14) 1.2551(13) 0.096(6) Uani 1 1 d . . .
H20A H 0.6447 -0.8729 1.2179 0.144 Uiso 1 1 calc R . .
H20B H 0.5083 -0.8746 1.2486 0.144 Uiso 1 1 calc R . .
H20C H 0.6153 -0.8703 1.3072 0.144 Uiso 1 1 calc R . .
C21 C 0.5777(16) -0.7484(10) 1.2414(9) 0.068(4) Uani 1 1 d . . .
H21A H 0.6581 -0.7250 1.2468 0.082 Uiso 1 1 calc R . .
H21B H 0.5505 -0.7294 1.1886 0.082 Uiso 1 1 calc R . .
C22 C 0.3867(13) -0.6007(10) 1.3377(9) 0.060(4) Uani 1 1 d . . .
C23 C 0.3540(15) -0.5110(11) 1.3332(10) 0.069(4) Uani 1 1 d . . .
C24 C 0.2654(18) -0.4802(14) 1.3785(10) 0.091(6) Uani 1 1 d . . .
H24A H 0.2232 -0.5205 1.4132 0.110 Uiso 1 1 calc R . .
C25 C 0.234(3) -0.3904(15) 1.3758(13) 0.122(9) Uani 1 1 d . . .
H25A H 0.1745 -0.3696 1.4094 0.146 Uiso 1 1 calc R . .
C26 C 0.295(3) -0.3327(15) 1.321(2) 0.165(16) Uani 1 1 d . . .
C27 C 0.374(2) -0.3564(13) 1.2822(12) 0.108(8) Uani 1 1 d . . .
H27A H 0.4116 -0.3128 1.2482 0.129 Uiso 1 1 calc R . .
C28 C 0.4211(16) -0.4479(10) 1.2810(9) 0.073(5) Uani 1 1 d . . .
C29 C 0.5141(14) -0.4796(11) 1.2372(10) 0.070(4) Uani 1 1 d . . .
C30 C 0.5406(14) -0.5644(11) 1.2383(9) 0.070(5) Uani 1 1 d . . .
H30A H 0.6026 -0.5837 1.2055 0.084 Uiso 1 1 calc R . .
C31 C 0.4746(12) -0.6287(9) 1.2898(8) 0.052(4) Uani 1 1 d . . .
C32 C 0.5824(17) -0.4225(12) 1.1847(10) 0.082(5) Uani 1 1 d . . .
H32A H 0.5829 -0.3640 1.1961 0.098 Uiso 1 1 calc R . .
C33 C 0.6456(14) -0.4381(12) 1.1221(12) 0.081(5) Uani 1 1 d . . .
H33A H 0.6449 -0.4961 1.1096 0.097 Uiso 1 1 calc R . .
C34 C 0.809(3) -0.3304(17) 0.9508(16) 0.128(9) Uani 1 1 d . . .
H34A H 0.8171 -0.3417 0.8989 0.153 Uiso 1 1 calc R . .
C35 C 0.749(3) -0.3862(18) 1.0024(16) 0.142(11) Uani 1 1 d . . .
H35A H 0.7279 -0.4396 0.9855 0.171 Uiso 1 1 calc R . .
C36 C 0.7182(17) -0.3756(12) 1.0684(11) 0.074(5) Uani 1 1 d . . .
C37 C 0.777(2) -0.3098(16) 1.0990(15) 0.117(9) Uani 1 1 d . . .
H37A H 0.7688 -0.3044 1.1521 0.141 Uiso 1 1 calc R . .
C38 C 0.850(3) -0.252(2) 1.0522(14) 0.126(9) Uani 1 1 d . . .
H38A H 0.8920 -0.2089 1.0741 0.151 Uiso 1 1 calc R . .
C39 C -0.244(2) -1.1402(17) 1.7746(16) 0.106(7) Uiso 1 1 d . . .
H39A H -0.2953 -1.1305 1.8169 0.127 Uiso 1 1 calc R . .
C40 C -0.417(4) -1.080(3) 1.679(3) 0.226(19) Uiso 1 1 d . . .
H40A H -0.4794 -1.0894 1.7194 0.339 Uiso 1 1 calc R . .
H40B H -0.4372 -1.1109 1.6359 0.339 Uiso 1 1 calc R . .
H40C H -0.4133 -1.0176 1.6619 0.339 Uiso 1 1 calc R . .
C41 C -0.162(6) -1.053(5) 1.675(4) 0.33(3) Uiso 1 1 d . . .
H41A H -0.0913 -1.0707 1.7063 0.489 Uiso 1 1 calc R . .
H41B H -0.1815 -0.9907 1.6774 0.489 Uiso 1 1 calc R . .
H41C H -0.1452 -1.0626 1.6219 0.489 Uiso 1 1 calc R . .
C42 C -0.216(2) -1.0266(18) 1.9769(14) 0.112(7) Uani 1 1 d . . .
H42A H -0.2451 -1.0704 2.0147 0.134 Uiso 1 1 calc R . .
C43 C -0.348(3) -0.916(2) 2.0329(15) 0.163(14) Uani 1 1 d . . .
H43A H -0.3642 -0.9663 2.0711 0.245 Uiso 1 1 calc R . .
H43B H -0.4226 -0.8939 2.0084 0.245 Uiso 1 1 calc R . .
H43C H -0.3124 -0.8707 2.0582 0.245 Uiso 1 1 calc R . .
C44 C -0.233(2) -0.8731(17) 1.9249(14) 0.115(8) Uani 1 1 d . . .
H44A H -0.1608 -0.8899 1.8968 0.172 Uiso 1 1 calc R . .
H44B H -0.2173 -0.8232 1.9521 0.172 Uiso 1 1 calc R . .
H44C H -0.2987 -0.8570 1.8886 0.172 Uiso 1 1 calc R . .
C45 C 0.215(2) -1.2084(11) 1.9857(15) 0.104(8) Uani 1 1 d . . .
H45A H 0.2558 -1.2070 1.9376 0.125 Uiso 1 1 calc R . .
C46 C 0.216(3) -1.263(3) 2.124(2) 0.173(12) Uiso 1 1 d . . .
H46A H 0.1377 -1.2311 2.1243 0.259 Uiso 1 1 calc R . .
H46B H 0.2693 -1.2412 2.1601 0.259 Uiso 1 1 calc R . .
H46C H 0.2040 -1.3253 2.1394 0.259 Uiso 1 1 calc R . .
C47 C 0.388(3) -1.289(2) 2.0347(18) 0.169(13) Uani 1 1 d . . .
H47A H 0.4279 -1.2623 1.9881 0.253 Uiso 1 1 calc R . .
H47B H 0.3814 -1.3518 2.0317 0.253 Uiso 1 1 calc R . .
H47C H 0.4354 -1.2812 2.0795 0.253 Uiso 1 1 calc R . .
C48 C 0.029(6) -1.306(5) 1.785(3) 0.143(4) Uiso 1 1 d D . .
H48A H -0.0389 -1.2749 1.7620 0.226 Uiso 1 1 calc R . .
C49 C 0.165(3) -1.419(3) 1.788(2) 0.168(13) Uiso 1 1 d D . .
H49A H 0.1722 -1.3992 1.8387 0.252 Uiso 1 1 calc R . .
H49B H 0.2415 -1.4115 1.7597 0.252 Uiso 1 1 calc R . .
H49C H 0.1471 -1.4813 1.7948 0.252 Uiso 1 1 calc R . .
C50 C 0.087(7) -1.395(5) 1.678(3) 0.34(4) Uiso 1 1 d D . .
H50A H 0.0205 -1.3656 1.6479 0.511 Uiso 1 1 calc R . .
H50B H 0.0820 -1.4581 1.6793 0.511 Uiso 1 1 calc R . .
H50C H 0.1635 -1.3762 1.6551 0.511 Uiso 1 1 calc R . .
C51 C -1.1305(16) -1.9954(11) 2.2575(11) 0.078(5) Uani 1 1 d . . .
H51A H -1.1658 -1.9710 2.3002 0.093 Uiso 1 1 calc R . .
C52 C -1.0900(14) -1.9430(10) 2.1959(9) 0.065(4) Uani 1 1 d . . .
H52A H -1.1061 -1.8821 2.1952 0.078 Uiso 1 1 calc R . .
C53 C -1.0274(15) -1.9705(10) 2.1340(9) 0.061(4) Uani 1 1 d . . .
C54 C -1.013(2) -2.0621(12) 2.1420(13) 0.106(8) Uani 1 1 d . . .
H54A H -0.9692 -2.0883 2.1031 0.128 Uiso 1 1 calc R . .
C55 C -1.0577(18) -2.1153(12) 2.2028(13) 0.096(7) Uani 1 1 d . . .
H55A H -1.0423 -2.1764 2.2047 0.115 Uiso 1 1 calc R . .
C56 C -0.9833(13) -1.9124(10) 2.0731(9) 0.061(4) Uani 1 1 d . . .
H56A H -0.9963 -1.8522 2.0780 0.074 Uiso 1 1 calc R . .
C57 C -0.9235(13) -1.9313(11) 2.0072(9) 0.064(4) Uani 1 1 d . . .
H57A H -0.9147 -1.9912 2.0002 0.077 Uiso 1 1 calc R . .
C58 C -0.8734(14) -1.8710(10) 1.9481(8) 0.060(4) Uani 1 1 d . . .
C59 C -0.7676(12) -1.8877(10) 1.9090(9) 0.058(4) Uani 1 1 d . . .
C60 C -0.6931(16) -1.9661(12) 1.9299(12) 0.081(5) Uani 1 1 d . . .
H6