####################################################################### 
# 
# This file contains crystal structure data downloaded from the 
# Cambridge Structural Database (CSD) hosted by the Cambridge 
# Crystallographic Data Centre (CCDC).
# 
# Full information about CCDC data access policies and citation 
# guidelines are available at http://www.ccdc.cam.ac.uk/access/V1 
# 
# Audit and citation data items may have been added by the CCDC. 
# Please retain this information to preserve the provenance of 
# this file and to allow appropriate attribution of the data. 
# 
#######################################################################

data_Compound2
_audit_block_doi                 10.5517/ccnxzk2
_database_code_depnum_ccdc_archive 'CCDC 623675'
loop_
_citation_id
_citation_doi
_citation_year
1 10.1021/ic060891x 2006
_audit_update_record             
;
2006-10-11 deposited with the CCDC.	2024-07-09 downloaded from the CCDC.
;

_audit_creation_method           SHELXL-97
_chemical_name_systematic        
;
?
;
_chemical_name_common            ?
_chemical_melting_point          ?
_chemical_formula_moiety         ?
_chemical_formula_sum            'C103 H123 Cd2 Cl8 N13 O29'
_chemical_formula_weight         2515.54

loop_
_atom_type_symbol
_atom_type_description
_atom_type_scat_dispersion_real
_atom_type_scat_dispersion_imag
_atom_type_scat_source
C C 0.0033 0.0016 'International Tables Vol C Tables 4.2.6.8 and 6.1.1.4'
H H 0.0000 0.0000 'International Tables Vol C Tables 4.2.6.8 and 6.1.1.4'
N N 0.0061 0.0033 'International Tables Vol C Tables 4.2.6.8 and 6.1.1.4'
O O 0.0106 0.0060 'International Tables Vol C Tables 4.2.6.8 and 6.1.1.4'
Cl Cl 0.1484 0.1585 'International Tables Vol C Tables 4.2.6.8 and 6.1.1.4'
Cd Cd -0.8075 1.2024 'International Tables Vol C Tables 4.2.6.8 and 6.1.1.4'

_symmetry_cell_setting           triclinic
_symmetry_space_group_name_H-M   P1

loop_
_symmetry_equiv_pos_as_xyz
'x, y, z'

_cell_length_a                   11.151(2)
_cell_length_b                   15.498(2)
_cell_length_c                   17.514(4)
_cell_angle_alpha                82.93(2)
_cell_angle_beta                 89.19(3)
_cell_angle_gamma                87.64(3)
_cell_volume                     3001.1(9)
_cell_formula_units_Z            1
_cell_measurement_temperature    173(2)
_cell_measurement_reflns_used    ?
_cell_measurement_theta_min      1.87
_cell_measurement_theta_max      23.39

_exptl_crystal_description       Bloc
_exptl_crystal_colour            Colorless
_exptl_crystal_size_max          0.80
_exptl_crystal_size_mid          0.50
_exptl_crystal_size_min          0.50
_exptl_crystal_density_meas      ?
_exptl_crystal_density_diffrn    1.392
_exptl_crystal_density_method    'not measured'
_exptl_crystal_F_000             1296
_exptl_absorpt_coefficient_mu    0.608
_exptl_absorpt_correction_type   empirical
_exptl_absorpt_process_details   'SADABS (Sheldrick, 1996)'
_exptl_absorpt_correction_T_min  0.5938
_exptl_absorpt_correction_T_max  1.0000

_exptl_special_details           
;
?
;

_diffrn_ambient_temperature      173(2)
_diffrn_radiation_wavelength     0.71073
_diffrn_radiation_type           MoK\a
_diffrn_radiation_source         'fine-focus sealed tube'
_diffrn_radiation_monochromator  graphite
_diffrn_measurement_device_type  ?
_diffrn_measurement_method       ?
_diffrn_detector_area_resol_mean ?
_diffrn_standards_number         none
_diffrn_standards_interval_count none
_diffrn_standards_interval_time  none
_diffrn_standards_decay_%        none
_diffrn_reflns_number            34805
_diffrn_reflns_av_R_equivalents  0.0382
_diffrn_reflns_av_sigmaI/netI    0.0566
_diffrn_reflns_limit_h_min       -12
_diffrn_reflns_limit_h_max       12
_diffrn_reflns_limit_k_min       -17
_diffrn_reflns_limit_k_max       17
_diffrn_reflns_limit_l_min       -19
_diffrn_reflns_limit_l_max       19
_diffrn_reflns_theta_min         1.87
_diffrn_reflns_theta_max         23.39
_reflns_number_total             16289
_reflns_number_gt                12825
_reflns_threshold_expression     >2sigma(I)

_computing_data_collection       'Siemens SMART'
_computing_cell_refinement       'Siemens SMART & SAINT'
_computing_data_reduction        'Siemens XPREP'
_computing_structure_solution    'Siemens SHELXTL'
_computing_structure_refinement  'Siemens SHELXTL'
_computing_molecular_graphics    ?
_computing_publication_material  ?

_refine_special_details          
;
Refinement of F^2^ against ALL reflections. The weighted R-factor wR and
goodness of fit S are based on F^2^, conventional R-factors R are based
on F, with F set to zero for negative F^2^. The threshold expression of
F^2^ > 2sigma(F^2^) is used only for calculating R-factors(gt) etc. and is
not relevant to the choice of reflections for refinement. R-factors based
on F^2^ are statistically about twice as large as those based on F, and R-
factors based on ALL data will be even larger.
;

_refine_ls_structure_factor_coef Fsqd
_refine_ls_matrix_type           full
_refine_ls_weighting_scheme      calc
_refine_ls_weighting_details     
'calc w=1/[\s^2^(Fo^2^)+(0.1317P)^2^+3.2112P] where P=(Fo^2^+2Fc^2^)/3'
_atom_sites_solution_primary     direct
_atom_sites_solution_secondary   difmap
_atom_sites_solution_hydrogens   geom
_refine_ls_hydrogen_treatment    mixed
_refine_ls_extinction_method     SHELXL
_refine_ls_extinction_coef       0.0000(5)
_refine_ls_extinction_expression Fc^*^=kFc[1+0.001xFc^2^\l^3^/sin(2\q)]^-1/4^
_refine_ls_abs_structure_details 'Flack H D (1983), Acta Cryst. A39, 876-881'
_refine_ls_abs_structure_Flack   -0.02(3)
_refine_ls_number_reflns         16289
_refine_ls_number_parameters     1372
_refine_ls_number_restraints     10
_refine_ls_R_factor_ref          0.0906
_refine_ls_R_factor_gt           0.0704
_refine_ls_wR_factor_ref         0.2036
_refine_ls_wR_factor_gt          0.1856
_refine_ls_goodness_of_fit_ref   1.051
_refine_ls_restrained_S_all      1.051
_refine_ls_shift/su_max          0.002
_refine_ls_shift/su_mean         0.000

loop_
_atom_site_label
_atom_site_type_symbol
_atom_site_fract_x
_atom_site_fract_y
_atom_site_fract_z
_atom_site_U_iso_or_equiv
_atom_site_adp_type
_atom_site_occupancy
_atom_site_symmetry_multiplicity
_atom_site_calc_flag
_atom_site_refinement_flags
_atom_site_disorder_assembly
_atom_site_disorder_group
Cd1 Cd 0.65015(6) 1.39910(4) 0.52639(4) 0.0622(3) Uani 1 1 d . . .
Cd2 Cd -2.52951(7) 1.38743(4) 0.98449(4) 0.0671(3) Uani 1 1 d . . .
Cl1 Cl -0.0584(6) 1.3414(2) 0.9590(3) 0.149(3) Uani 1 1 d . . .
Cl2 Cl -0.4762(3) 0.7708(2) 1.00066(18) 0.0685(8) Uani 1 1 d . . .
Cl3 Cl -1.8262(3) 1.4793(2) 0.5471(3) 0.0888(11) Uani 1 1 d . . .
Cl4 Cl -2.3327(3) 2.0160(3) 0.12481(17) 0.0815(10) Uani 1 1 d . . .
Cl5 Cl -2.7363(3) 1.42951(18) 0.8373(2) 0.0777(9) Uani 1 1 d . . .
Cl6 Cl 0.5436(3) 0.89644(18) 0.73768(13) 0.0559(7) Uani 1 1 d . . .
Cl7 Cl -0.5853(3) 0.7309(2) 1.32551(19) 0.0814(9) Uani 1 1 d . . .
Cl8 Cl 0.1848(7) 0.2411(5) 0.4453(4) 0.084(2) Uani 0.50 1 d P . .
Cl9 Cl -1.0311(11) 0.3358(7) 1.2386(9) 0.133(4) Uani 0.50 1 d P . .
O1 O 0.1807(5) 0.8444(4) 0.9274(4) 0.0442(15) Uani 1 1 d . . .
O2 O 0.1869(6) 0.9102(5) 1.1038(4) 0.0511(19) Uani 1 1 d . . .
O3 O 0.7962(9) 1.3915(6) 0.6210(6) 0.079(3) Uani 1 1 d . . .
O4 O 0.7513(10) 1.2842(7) 0.4819(8) 0.097(4) Uani 1 1 d . . .
O5 O 0.5237(14) 1.3937(7) 0.4259(6) 0.099(4) Uani 1 1 d . . .
O6 O 0.5437(9) 1.5181(5) 0.5688(5) 0.072(2) Uani 1 1 d . . .
O7 O -2.2638(5) 1.9152(4) 0.4878(3) 0.0461(15) Uani 1 1 d . . .
O8 O -1.8933(6) 1.9018(5) 0.4866(4) 0.0516(18) Uani 1 1 d . . .
O9 O -2.6214(9) 1.5054(5) 1.0372(5) 0.064(2) Uani 1 1 d . . .
O10 O -2.4520(12) 1.2656(7) 0.9371(7) 0.115(5) Uani 1 1 d . . .
O11 O -2.3790(11) 1.3741(9) 1.0682(9) 0.137(5) Uani 1 1 d . . .
O12 O -2.6912(10) 1.3689(6) 0.8997(6) 0.091(3) Uani 1 1 d . . .
O13 O -2.6395(13) 1.4399(10) 0.7808(9) 0.154(6) Uani 1 1 d . . .
O14 O -2.7600(11) 1.5127(6) 0.8599(7) 0.113(3) Uani 1 1 d . . .
O15 O -2.8349(11) 1.3942(7) 0.8027(7) 0.113(4) Uani 1 1 d . . .
O16 O -1.048(5) 0.906(2) 0.684(3) 0.17(3) Uiso 1 1 d D . .
O17 O -2.1184(11) 1.5474(9) 0.9330(9) 0.118(4) Uani 1 1 d . . .
O19 O 0.528(2) 0.9666(9) 0.6794(8) 0.191(8) Uani 1 1 d . . .
O20 O 0.4821(11) 0.8240(7) 0.7194(9) 0.131(5) Uani 1 1 d . . .
O21 O 0.6684(9) 0.8695(7) 0.7459(8) 0.117(4) Uani 1 1 d . . .
O22 O 0.5036(9) 0.9247(7) 0.8057(5) 0.093(3) Uani 1 1 d . . .
O23 O -0.5588(9) 0.7976(7) 1.3560(6) 0.138(3) Uiso 1 1 d . . .
O24 O -0.7081(11) 0.7240(12) 1.3027(8) 0.168(7) Uani 1 1 d . . .
O25 O -0.5681(10) 0.6546(8) 1.3764(6) 0.116(4) Uani 1 1 d . . .
O26 O -0.5146(9) 0.7300(8) 1.2576(6) 0.110(3) Uani 1 1 d . . .
O27 O 0.180(5) 0.284(3) 0.376(3) 0.25(2) Uiso 0.50 1 d PD . .
O28 O 0.211(5) 0.173(2) 0.444(3) 0.23(2) Uani 0.50 1 d PD . .
O29 O 0.244(3) 0.284(2) 0.4865(19) 0.148(10) Uiso 0.50 1 d P . .
O30 O 0.0646(16) 0.2834(14) 0.4649(13) 0.100(6) Uani 0.50 1 d P . .
O31 O -0.958(5) 0.329(3) 1.283(3) 0.17(2) Uiso 0.50 1 d PD . .
O32 O -1.138(4) 0.3640(18) 1.2707(18) 0.179(15) Uani 0.50 1 d P . .
O33 O -1.077(3) 0.280(2) 1.177(2) 0.174(15) Uani 0.50 1 d P . .
O34 O -0.956(4) 0.417(3) 1.1895(18) 0.22(3) Uani 0.50 1 d PD . .
N1 N 0.5393(9) 1.3024(6) 0.6077(6) 0.054(2) Uani 1 1 d . . .
N2 N -0.2416(9) 0.4973(6) 1.4447(5) 0.054(2) Uani 1 1 d . . .
N3 N 0.9545(11) 1.3134(8) 0.6771(7) 0.083(3) Uani 1 1 d . . .
N4 N 0.777(4) 1.186(2) 0.3870(14) 0.28(2) Uani 1 1 d D . .
N5 N 0.386(2) 1.4439(16) 0.3368(13) 0.164(9) Uani 1 1 d . . .
N6 N 0.4149(9) 1.6174(7) 0.6112(6) 0.070(3) Uani 1 1 d . . .
N7 N -2.4337(9) 1.4773(6) 0.8947(6) 0.062(3) Uani 1 1 d . . .
N8 N -1.6378(15) 2.2986(8) 0.0727(8) 0.107(5) Uani 1 1 d . . .
N9 N -2.7789(10) 1.5931(6) 1.0702(6) 0.070(3) Uani 1 1 d . . .
N10 N -2.4320(15) 1.1218(9) 0.9240(10) 0.115(6) Uani 1 1 d . . .
N11 N -2.288(3) 1.508(2) 1.144(2) 0.238(13) Uiso 1 1 d . . .
N12 N -2.0452(9) 1.6387(8) 0.8315(8) 0.088(4) Uani 1 1 d . . .
N13 N -1.121(3) 1.0382(19) 0.6833(13) 0.104(17) Uiso 1 1 d D . .
C1 C 0.5268(15) 1.3090(9) 0.6807(8) 0.089(5) Uani 1 1 d . . .
H1A H 0.5668 1.3542 0.7007 0.107 Uiso 1 1 calc R . .
C2 C 0.4585(13) 1.2542(10) 0.7312(8) 0.086(4) Uani 1 1 d . . .
H2A H 0.4502 1.2643 0.7835 0.103 Uiso 1 1 calc R . .
C3 C 0.4031(9) 1.1857(6) 0.7063(6) 0.046(2) Uani 1 1 d . . .
C4 C 0.4293(13) 1.1721(8) 0.6299(8) 0.080(4) Uani 1 1 d . . .
H4A H 0.4023 1.1224 0.6093 0.097 Uiso 1 1 calc R . .
C5 C 0.4968(12) 1.2344(9) 0.5850(7) 0.078(4) Uani 1 1 d . . .
H5A H 0.5124 1.2253 0.5331 0.094 Uiso 1 1 calc R . .
C6 C 0.3299(9) 1.1252(6) 0.7555(6) 0.052(3) Uani 1 1 d . . .
H6A H 0.3250 1.0680 0.7419 0.062 Uiso 1 1 calc R . .
C7 C 0.2693(8) 1.1438(6) 0.8183(5) 0.044(2) Uani 1 1 d . . .
H7A H 0.2724 1.2014 0.8312 0.053 Uiso 1 1 calc R . .
C8 C 0.1981(8) 1.0818(6) 0.8689(5) 0.043(2) Uani 1 1 d . . .
C9 C 0.1045(8) 1.1136(6) 0.9166(5) 0.045(2) Uani 1 1 d . . .
C10 C 0.0733(12) 1.2033(7) 0.9164(7) 0.075(4) Uani 1 1 d . . .
H10A H 0.1157 1.2457 0.8840 0.090 Uiso 1 1 calc R . .
C11 C -0.0200(18) 1.2292(8) 0.9640(10) 0.112(7) Uani 1 1 d . . .
C12 C -0.0868(14) 1.1699(8) 1.0123(8) 0.089(5) Uani 1 1 d . . .
H12A H -0.1526 1.1884 1.0422 0.106 Uiso 1 1 calc R . .
C13 C -0.0526(11) 1.0855(7) 1.0141(6) 0.066(3) Uani 1 1 d . . .
H13A H -0.0946 1.0450 1.0488 0.079 Uiso 1 1 calc R . .
C14 C 0.0406(8) 1.0511(6) 0.9689(5) 0.043(2) Uani 1 1 d . . .
C15 C 0.0708(8) 0.9634(6) 0.9728(4) 0.0357(19) Uani 1 1 d . . .
C16 C 0.1594(8) 0.9343(5) 0.9233(5) 0.0342(19) Uani 1 1 d . . .
C17 C 0.2205(8) 0.9948(6) 0.8713(5) 0.039(2) Uani 1 1 d . . .
H17A H 0.2788 0.9741 0.8372 0.047 Uiso 1 1 calc R . .
C18 C 0.2621(8) 0.8126(6) 0.8725(6) 0.044(2) Uani 1 1 d . . .
H18A H 0.3424 0.8364 0.8770 0.052 Uiso 1 1 calc R . .
H18B H 0.2327 0.8302 0.8196 0.052 Uiso 1 1 calc R . .
C19 C 0.2689(10) 0.7161(6) 0.8897(7) 0.057(3) Uani 1 1 d . . .
H19A H 0.3227 0.6917 0.8524 0.085 Uiso 1 1 calc R . .
H19B H 0.1886 0.6935 0.8862 0.085 Uiso 1 1 calc R . .
H19C H 0.2999 0.6996 0.9417 0.085 Uiso 1 1 calc R . .
C20 C 0.3749(10) 0.9256(9) 1.1536(8) 0.073(3) Uani 1 1 d . . .
H20A H 0.4285 0.9078 1.1970 0.110 Uiso 1 1 calc R . .
H20B H 0.3620 0.9890 1.1474 0.110 Uiso 1 1 calc R . .
H20C H 0.4112 0.9076 1.1065 0.110 Uiso 1 1 calc R . .
C21 C 0.2591(10) 0.8842(7) 1.1684(6) 0.052(3) Uani 1 1 d . . .
H21A H 0.2711 0.8201 1.1760 0.063 Uiso 1 1 calc R . .
H21B H 0.2205 0.9029 1.2152 0.063 Uiso 1 1 calc R . .
C22 C 0.0152(8) 0.8983(6) 1.0348(6) 0.039(2) Uani 1 1 d . . .
C23 C -0.1008(7) 0.8667(6) 1.0258(5) 0.033(2) Uani 1 1 d . . .
C24 C -0.1660(10) 0.8878(6) 0.9571(5) 0.050(3) Uani 1 1 d . . .
H24A H -0.1292 0.9224 0.9154 0.059 Uiso 1 1 calc R . .
C25 C -0.2813(9) 0.8607(6) 0.9475(5) 0.044(2) Uani 1 1 d . . .
H25A H -0.3247 0.8771 0.9013 0.053 Uiso 1 1 calc R . .
C26 C -0.3309(8) 0.8064(6) 1.0114(5) 0.044(2) Uani 1 1 d . . .
C27 C -0.2714(8) 0.7825(6) 1.0786(6) 0.045(2) Uani 1 1 d . . .
H27A H -0.3090 0.7471 1.1194 0.054 Uiso 1 1 calc R . .
C28 C -0.1523(7) 0.8106(5) 1.0878(5) 0.0332(19) Uani 1 1 d . . .
C29 C -0.0844(7) 0.7853(5) 1.1554(5) 0.036(2) Uani 1 1 d . . .
C30 C 0.0286(8) 0.8180(6) 1.1611(5) 0.032(2) Uani 1 1 d . . .
H30A H 0.0739 0.8024 1.2066 0.038 Uiso 1 1 calc R . .
C31 C 0.0768(8) 0.8741(6) 1.1001(5) 0.032(2) Uani 1 1 d . . .
C32 C -0.1363(8) 0.7265(6) 1.2194(5) 0.038(2) Uani 1 1 d . . .
H32A H -0.2212 0.7279 1.2248 0.045 Uiso 1 1 calc R . .
C33 C -0.0724(9) 0.6707(6) 1.2711(5) 0.040(2) Uani 1 1 d . . .
H33A H 0.0127 0.6690 1.2679 0.047 Uiso 1 1 calc R . .
C34 C -0.2988(8) 0.5678(7) 1.4146(6) 0.051(2) Uani 1 1 d . . .
H34A H -0.3779 0.5795 1.4326 0.062 Uiso 1 1 calc R . .
C35 C -0.2496(8) 0.6279(6) 1.3567(5) 0.045(2) Uani 1 1 d . . .
H35A H -0.2954 0.6777 1.3349 0.054 Uiso 1 1 calc R . .
C36 C -0.1318(10) 0.6125(7) 1.3322(6) 0.045(3) Uani 1 1 d . . .
C37 C -0.0724(9) 0.5376(6) 1.3654(5) 0.048(2) Uani 1 1 d . . .
H37A H 0.0084 0.5244 1.3515 0.058 Uiso 1 1 calc R . .
C38 C -0.1335(10) 0.4814(7) 1.4200(6) 0.059(3) Uani 1 1 d . . .
H38A H -0.0934 0.4284 1.4402 0.071 Uiso 1 1 calc R . .
C39 C 0.8949(13) 1.3480(8) 0.6193(8) 0.080(4) Uani 1 1 d . . .
H39A H 0.9274 1.3407 0.5699 0.096 Uiso 1 1 calc R . .
C40 C 0.903(2) 1.3109(15) 0.7555(10) 0.135(7) Uani 1 1 d . . .
H40A H 0.8261 1.3436 0.7535 0.203 Uiso 1 1 calc R . .
H40B H 0.9586 1.3371 0.7883 0.203 Uiso 1 1 calc R . .
H40C H 0.8914 1.2503 0.7769 0.203 Uiso 1 1 calc R . .
C41 C 1.0728(14) 1.2668(10) 0.6712(9) 0.100(5) Uani 1 1 d . . .
H41A H 1.1009 1.2745 0.6176 0.150 Uiso 1 1 calc R . .
H41B H 1.0647 1.2047 0.6883 0.150 Uiso 1 1 calc R . .
H41C H 1.1310 1.2905 0.7037 0.150 Uiso 1 1 calc R . .
C42 C 0.747(4) 1.2631(15) 0.430(3) 0.32(3) Uani 1 1 d . . .
H42A H 0.7099 1.3081 0.3958 0.379 Uiso 1 1 calc R . .
C43 C 0.8645(18) 1.1429(13) 0.460(3) 0.29(3) Uani 1 1 d . . .
H43A H 0.8570 1.1790 0.5022 0.442 Uiso 1 1 calc R . .
H43B H 0.9482 1.1405 0.4425 0.442 Uiso 1 1 calc R . .
H43C H 0.8396 1.0839 0.4784 0.442 Uiso 1 1 calc R . .
C44 C 0.730(5) 1.165(4) 0.321(3) 0.35(3) Uiso 1 1 d D . .
H44A H 0.6674 1.2084 0.3022 0.532 Uiso 1 1 calc R . .
H44B H 0.6956 1.1075 0.3303 0.532 Uiso 1 1 calc R . .
H44C H 0.7939 1.1639 0.2817 0.532 Uiso 1 1 calc R . .
C45 C 0.4292(17) 1.4299(14) 0.4027(18) 0.125(10) Uani 1 1 d . . .
H45A H 0.3803 1.4512 0.4416 0.150 Uiso 1 1 calc R . .
C46 C 0.485(2) 1.485(2) 0.2889(15) 0.209(16) Uani 1 1 d . . .
H46A H 0.5612 1.4526 0.3021 0.314 Uiso 1 1 calc R . .
H46B H 0.4917 1.5454 0.2990 0.314 Uiso 1 1 calc R . .
H46C H 0.4686 1.4836 0.2343 0.314 Uiso 1 1 calc R . .
C47 C 0.261(2) 1.4873(16) 0.3201(19) 0.182(11) Uani 1 1 d . . .
H47A H 0.2016 1.4578 0.3547 0.273 Uiso 1 1 calc R . .
H47B H 0.2399 1.4832 0.2666 0.273 Uiso 1 1 calc R . .
H47C H 0.2622 1.5487 0.3284 0.273 Uiso 1 1 calc R . .
C48 C 0.4640(12) 1.5374(9) 0.6108(8) 0.079(4) Uani 1 1 d . . .
H48A H 0.4333 1.4924 0.6466 0.095 Uiso 1 1 calc R . .
C49 C 0.3236(14) 1.6340(11) 0.6660(9) 0.101(5) Uani 1 1 d . . .
H49A H 0.3043 1.5793 0.6971 0.152 Uiso 1 1 calc R . .
H49B H 0.2517 1.6592 0.6390 0.152 Uiso 1 1 calc R . .
H49C H 0.3523 1.6748 0.6995 0.152 Uiso 1 1 calc R . .
C50 C 0.4529(13) 1.6901(9) 0.5597(9) 0.084(4) Uani 1 1 d . . .
H50A H 0.5159 1.6707 0.5253 0.126 Uiso 1 1 calc R . .
H50B H 0.4844 1.7337 0.5892 0.126 Uiso 1 1 calc R . .
H50C H 0.3845 1.7157 0.5291 0.126 Uiso 1 1 calc R . .
C51 C -2.4476(9) 1.5637(6) 0.8914(5) 0.049(2) Uani 1 1 d . . .
H51A H -2.4912 1.5870 0.9316 0.059 Uiso 1 1 calc R . .
C52 C -2.4016(9) 1.6215(6) 0.8318(5) 0.048(2) Uani 1 1 d . . .
H52A H -2.4094 1.6823 0.8349 0.057 Uiso 1 1 calc R . .
C53 C -2.3444(9) 1.5922(6) 0.7680(6) 0.045(2) Uani 1 1 d . . .
C54 C -2.3289(12) 1.4995(7) 0.7743(7) 0.071(4) Uani 1 1 d . . .
H54A H -2.2860 1.4737 0.7350 0.086 Uiso 1 1 calc R . .
C55 C -2.3735(13) 1.4484(7) 0.8341(8) 0.079(4) Uani 1 1 d . . .
H55A H -2.3623 1.3873 0.8343 0.095 Uiso 1 1 calc R . .
C56 C -2.2993(8) 1.6513(6) 0.7062(5) 0.043(2) Uani 1 1 d . . .
H56A H -2.3122 1.7117 0.7098 0.052 Uiso 1 1 calc R . .
C57 C -2.2395(8) 1.6291(6) 0.6426(5) 0.044(2) Uani 1 1 d . . .
H57A H -2.2289 1.5690 0.6372 0.053 Uiso 1 1 calc R . .
C58 C -2.1898(8) 1.6930(5) 0.5814(5) 0.036(2) Uani 1 1 d . . .
C59 C -2.0804(8) 1.6736(5) 0.5425(5) 0.040(2) Uani 1 1 d . . .
C60 C -2.0122(10) 1.5953(7) 0.5602(6) 0.055(3) Uani 1 1 d . . .
H60A H -2.0420 1.5524 0.5984 0.066 