####################################################################### 
# 
# This file contains crystal structure data downloaded from the 
# Cambridge Structural Database (CSD) hosted by the Cambridge 
# Crystallographic Data Centre (CCDC).
# 
# Full information about CCDC data access policies and citation 
# guidelines are available at http://www.ccdc.cam.ac.uk/access/V1 
# 
# Audit and citation data items may have been added by the CCDC. 
# Please retain this information to preserve the provenance of 
# this file and to allow appropriate attribution of the data. 
# 
#######################################################################

data_Compound6
_audit_block_doi                 10.5517/ccnxzp6
_database_code_depnum_ccdc_archive 'CCDC 623679'
loop_
_citation_id
_citation_doi
_citation_year
1 10.1021/ic060891x 2006
_audit_update_record             
;
2006-10-11 deposited with the CCDC.	2024-07-09 downloaded from the CCDC.
;

_audit_creation_method           SHELXL-97
_chemical_name_systematic        
;
?
;
_chemical_name_common            ?
_chemical_melting_point          ?
_chemical_formula_moiety         ?
_chemical_formula_sum            'C87 H93 Cl6 N5 Ni O10'
_chemical_formula_weight         1640.07

loop_
_atom_type_symbol
_atom_type_description
_atom_type_scat_dispersion_real
_atom_type_scat_dispersion_imag
_atom_type_scat_source
C C 0.0033 0.0016 'International Tables Vol C Tables 4.2.6.8 and 6.1.1.4'
H H 0.0000 0.0000 'International Tables Vol C Tables 4.2.6.8 and 6.1.1.4'
N N 0.0061 0.0033 'International Tables Vol C Tables 4.2.6.8 and 6.1.1.4'
O O 0.0106 0.0060 'International Tables Vol C Tables 4.2.6.8 and 6.1.1.4'
Cl Cl 0.1484 0.1585 'International Tables Vol C Tables 4.2.6.8 and 6.1.1.4'
Ni Ni 0.3393 1.1124 'International Tables Vol C Tables 4.2.6.8 and 6.1.1.4'

_symmetry_cell_setting           Monoclinic
_symmetry_space_group_name_H-M   C2

loop_
_symmetry_equiv_pos_as_xyz
'x, y, z'
'-x, y, -z'
'x+1/2, y+1/2, z'
'-x+1/2, y+1/2, -z'

_cell_length_a                   27.1399(9)
_cell_length_b                   31.3132(8)
_cell_length_c                   10.8308(8)
_cell_angle_alpha                90.00
_cell_angle_beta                 99.655(4)
_cell_angle_gamma                90.00
_cell_volume                     9074.0(8)
_cell_formula_units_Z            4
_cell_measurement_temperature    173(2)
_cell_measurement_reflns_used    ?
_cell_measurement_theta_min      1.91
_cell_measurement_theta_max      23.26

_exptl_crystal_description       Bloc
_exptl_crystal_colour            Green
_exptl_crystal_size_max          0.80
_exptl_crystal_size_mid          0.60
_exptl_crystal_size_min          0.50
_exptl_crystal_density_meas      ?
_exptl_crystal_density_diffrn    1.201
_exptl_crystal_density_method    'not measured'
_exptl_crystal_F_000             3440
_exptl_absorpt_coefficient_mu    0.446
_exptl_absorpt_correction_type   empirical
_exptl_absorpt_process_details   'SADABS (Sheldrick, 1996)'
_exptl_absorpt_correction_T_min  0.4611
_exptl_absorpt_correction_T_max  1.0000

_exptl_special_details           
;
?
;

_diffrn_ambient_temperature      173(2)
_diffrn_radiation_wavelength     0.71073
_diffrn_radiation_type           MoK\a
_diffrn_radiation_source         'fine-focus sealed tube'
_diffrn_radiation_monochromator  graphite
_diffrn_measurement_device_type  ?
_diffrn_measurement_method       ?
_diffrn_detector_area_resol_mean ?
_diffrn_standards_number         none
_diffrn_standards_interval_count none
_diffrn_standards_interval_time  none
_diffrn_standards_decay_%        none
_diffrn_reflns_number            36748
_diffrn_reflns_av_R_equivalents  0.0677
_diffrn_reflns_av_sigmaI/netI    0.1193
_diffrn_reflns_limit_h_min       -29
_diffrn_reflns_limit_h_max       30
_diffrn_reflns_limit_k_min       -34
_diffrn_reflns_limit_k_max       34
_diffrn_reflns_limit_l_min       -11
_diffrn_reflns_limit_l_max       11
_diffrn_reflns_theta_min         1.91
_diffrn_reflns_theta_max         23.26
_reflns_number_total             12450
_reflns_number_gt                6719
_reflns_threshold_expression     >2sigma(I)

_computing_data_collection       'Siemens SMART'
_computing_cell_refinement       'Siemens SMART & SAINT'
_computing_data_reduction        'Siemens XPREP'
_computing_structure_solution    'Siemens SHELXTL'
_computing_structure_refinement  'Siemens SHELXTL'
_computing_molecular_graphics    ?
_computing_publication_material  ?

_refine_special_details          
;
Refinement of F^2^ against ALL reflections. The weighted R-factor wR and
goodness of fit S are based on F^2^, conventional R-factors R are based
on F, with F set to zero for negative F^2^. The threshold expression of
F^2^ > 2sigma(F^2^) is used only for calculating R-factors(gt) etc. and is
not relevant to the choice of reflections for refinement. R-factors based
on F^2^ are statistically about twice as large as those based on F, and R-
factors based on ALL data will be even larger.
;

_refine_ls_structure_factor_coef Fsqd
_refine_ls_matrix_type           full
_refine_ls_weighting_scheme      calc
_refine_ls_weighting_details     
'calc w=1/[\s^2^(Fo^2^)+(0.1842P)^2^+0.0000P] where P=(Fo^2^+2Fc^2^)/3'
_atom_sites_solution_primary     direct
_atom_sites_solution_secondary   difmap
_atom_sites_solution_hydrogens   geom
_refine_ls_hydrogen_treatment    mixed
_refine_ls_extinction_method     none
_refine_ls_extinction_coef       ?
_refine_ls_abs_structure_details 'Flack H D (1983), Acta Cryst. A39, 876-881'
_refine_ls_abs_structure_Flack   -0.01(3)
_refine_ls_number_reflns         12450
_refine_ls_number_parameters     905
_refine_ls_number_restraints     3
_refine_ls_R_factor_ref          0.1755
_refine_ls_R_factor_gt           0.0953
_refine_ls_wR_factor_ref         0.3025
_refine_ls_wR_factor_gt          0.2439
_refine_ls_goodness_of_fit_ref   1.033
_refine_ls_restrained_S_all      1.033
_refine_ls_shift/su_max          0.003
_refine_ls_shift/su_mean         0.000

loop_
_atom_site_label
_atom_site_type_symbol
_atom_site_fract_x
_atom_site_fract_y
_atom_site_fract_z
_atom_site_U_iso_or_equiv
_atom_site_adp_type
_atom_site_occupancy
_atom_site_symmetry_multiplicity
_atom_site_calc_flag
_atom_site_refinement_flags
_atom_site_disorder_assembly
_atom_site_disorder_group
Ni1 Ni 0.5000 0.73253(6) 0.5000 0.0350(6) Uani 1 2 d S . .
Ni2 Ni 0.5000 0.48903(6) 1.0000 0.0512(7) Uani 1 2 d S . .
Cl1 Cl 0.56797(13) 0.49130(10) 1.1823(4) 0.0612(10) Uani 1 1 d . . .
Cl2 Cl 0.78069(18) 0.72017(13) -0.0466(5) 0.0936(14) Uani 1 1 d . . .
Cl3 Cl 0.77225(18) 0.51139(13) 0.4351(5) 0.0929(15) Uani 1 1 d . . .
Cl4 Cl 0.43619(10) 0.73033(10) 0.3132(3) 0.0413(7) Uani 1 1 d . . .
Cl5 Cl 0.66528(19) 0.82077(17) -0.0244(5) 0.1141(17) Uani 1 1 d . . .
Cl6 Cl 1.00207(16) 0.47086(16) 0.2335(5) 0.1072(16) Uani 1 1 d . . .
O1 O 0.7161(4) 0.7586(3) 0.5853(11) 0.080(3) Uani 1 1 d . . .
O2 O 0.7339(4) 0.4892(3) -0.2226(10) 0.071(3) Uani 1 1 d . . .
O3 O 0.7324(4) 0.4732(3) 0.0885(11) 0.074(3) Uani 1 1 d . . .
O4 O 0.8478(4) 0.7202(4) 0.5717(13) 0.094(4) Uani 1 1 d . . .
N1 N 0.9600(3) 0.2801(3) -0.4199(8) 0.031(2) Uiso 1 1 d . . .
N2 N 0.5399(3) 0.6849(3) 0.4149(8) 0.032(2) Uani 1 1 d . . .
N3 N 0.5394(4) 0.5347(3) 0.9134(11) 0.050(3) Uani 1 1 d . . .
N4 N 0.9632(4) 0.9396(3) 0.0850(14) 0.063(4) Uani 1 1 d . . .
C1 C 0.5596(4) 0.6515(4) 0.4722(11) 0.046(3) Uani 1 1 d . . .
H1A H 0.5526 0.6457 0.5536 0.055 Uiso 1 1 calc R . .
C2 C 0.9817(5) 0.3125(4) -0.3562(13) 0.054(4) Uani 1 1 d . . .
H2A H 1.0171 0.3143 -0.3467 0.064 Uiso 1 1 calc R . .
C3 C 0.7003(5) 0.5849(5) 0.1127(15) 0.065(4) Uani 1 1 d . . .
C4 C 0.8816(4) 0.3096(4) -0.3876(11) 0.043(3) Uani 1 1 d . . .
H4A H 0.8462 0.3073 -0.4034 0.051 Uiso 1 1 calc R . .
C5 C 0.5491(4) 0.6925(3) 0.2964(13) 0.047(3) Uani 1 1 d . . .
H5A H 0.5344 0.7168 0.2526 0.056 Uiso 1 1 calc R . .
C6 C 0.5797(4) 0.6657(4) 0.2369(13) 0.051(3) Uani 1 1 d . . .
H6A H 0.5849 0.6710 0.1537 0.061 Uiso 1 1 calc R . .
C7 C 0.8902(5) 0.4075(4) -0.1904(13) 0.058(4) Uani 1 1 d . . .
H7A H 0.9255 0.4099 -0.1689 0.070 Uiso 1 1 calc R . .
C8 C 0.7306(5) 0.5152(4) 0.0723(13) 0.054(4) Uani 1 1 d . . .
C9 C 0.7629(6) 0.5330(5) 0.0012(15) 0.066(4) Uani 1 1 d . . .
C10 C 0.9094(4) 0.2803(4) -0.4367(12) 0.046(3) Uani 1 1 d . . .
H10A H 0.8922 0.2582 -0.4865 0.055 Uiso 1 1 calc R . .
C11 C 0.6972(5) 0.5405(4) 0.1249(14) 0.058(4) Uani 1 1 d . . .
H11A H 0.6730 0.5280 0.1679 0.069 Uiso 1 1 calc R . .
C12 C 0.6367(5) 0.6027(4) 0.2547(13) 0.057(4) Uani 1 1 d . . .
H12A H 0.6405 0.5743 0.2863 0.069 Uiso 1 1 calc R . .
C13 C 0.7346(5) 0.6055(5) 0.0442(14) 0.059(4) Uani 1 1 d . . .
C14 C 0.5912(5) 0.6230(3) 0.4210(12) 0.047(3) Uani 1 1 d . . .
H14A H 0.6046 0.5988 0.4677 0.056 Uiso 1 1 calc R . .
C15 C 0.9152(5) 0.8761(4) 0.0719(18) 0.070(4) Uani 1 1 d . . .
H15A H 0.8974 0.8542 0.0224 0.084 Uiso 1 1 calc R . .
C16 C 0.6630(5) 0.6129(4) 0.1686(15) 0.062(4) Uani 1 1 d . . .
H16A H 0.6586 0.6412 0.1367 0.075 Uiso 1 1 calc R . .
C17 C 0.6024(4) 0.6301(3) 0.3069(12) 0.038(3) Uani 1 1 d . . .
C18 C 0.7979(5) 0.5023(4) -0.0502(14) 0.052(4) Uani 1 1 d . . .
C19 C 0.9042(5) 0.3436(4) -0.3135(13) 0.052(4) Uani 1 1 d . . .
C20 C 0.6979(9) 0.4511(6) 0.138(3) 0.138(9) Uani 1 1 d . . .
H20A H 0.6641 0.4588 0.0933 0.166 Uiso 1 1 calc R . .
H20B H 0.6999 0.4589 0.2270 0.166 Uiso 1 1 calc R . .
C21 C 0.6999(4) 0.6425(4) 0.6374(12) 0.040(3) Uani 1 1 d . . .
C22 C 0.8963(9) 0.7296(9) 0.631(2) 0.148(9) Uani 1 1 d . . .
H22A H 0.9206 0.7203 0.5777 0.178 Uiso 1 1 calc R . .
H22B H 0.9000 0.7608 0.6442 0.178 Uiso 1 1 calc R . .
C23 C 0.9648(5) 0.9393(4) 0.2083(16) 0.065(4) Uani 1 1 d . . .
H23A H 0.9821 0.9617 0.2564 0.079 Uiso 1 1 calc R . .
C24 C 0.9424(6) 0.9079(5) 0.2696(19) 0.088(5) Uani 1 1 d . . .
H24A H 0.9441 0.9092 0.3578 0.106 Uiso 1 1 calc R . .
C25 C 0.9181(7) 0.8755(5) 0.203(2) 0.094(6) Uani 1 1 d . . .
C26 C 0.9380(5) 0.9082(4) 0.0151(14) 0.059(4) Uani 1 1 d . . .
H26A H 0.9360 0.9083 -0.0733 0.070 Uiso 1 1 calc R . .
C27 C 0.8262(7) 0.7390(4) 0.4685(19) 0.081(5) Uani 1 1 d . . .
C28 C 0.7058(12) 0.8203(7) 0.696(3) 0.209(14) Uani 1 1 d . . .
H28A H 0.6939 0.8300 0.7720 0.313 Uiso 1 1 calc R . .
H28B H 0.6864 0.8344 0.6228 0.313 Uiso 1 1 calc R . .
H28C H 0.7412 0.8277 0.7016 0.313 Uiso 1 1 calc R . .
C29 C 0.7000(7) 0.7764(5) 0.6845(18) 0.085(5) Uani 1 1 d . . .
H29A H 0.7182 0.7629 0.7616 0.102 Uiso 1 1 calc R . .
H29B H 0.6642 0.7696 0.6796 0.102 Uiso 1 1 calc R . .
C30 C 0.6951(5) 0.6866(4) 0.6500(13) 0.048(3) Uani 1 1 d . . .
H30A H 0.6754 0.6980 0.7067 0.058 Uiso 1 1 calc R . .
C31 C 0.8012(6) 0.6398(5) -0.1055(15) 0.074(5) Uani 1 1 d . . .
H31A H 0.8230 0.6518 -0.1563 0.089 Uiso 1 1 calc R . .
C32 C 0.7510(5) 0.6987(4) 0.4989(13) 0.048(3) Uani 1 1 d . . .
C33 C 0.7546(5) 0.6532(4) 0.4809(14) 0.050(4) Uani 1 1 d . . .
C34 C 0.7847(5) 0.6372(4) 0.3980(14) 0.062(4) Uani 1 1 d . . .
H34A H 0.8028 0.6562 0.3536 0.074 Uiso 1 1 calc R . .
C35 C 0.7875(6) 0.5954(5) 0.3827(13) 0.063(4) Uani 1 1 d . . .
H35A H 0.8052 0.5845 0.3210 0.076 Uiso 1 1 calc R . .
C36 C 0.7656(5) 0.5677(5) 0.4537(17) 0.071(5) Uani 1 1 d . . .
C37 C 0.7363(5) 0.5820(4) 0.5397(12) 0.046(3) Uani 1 1 d . . .
H37A H 0.7208 0.5622 0.5876 0.055 Uiso 1 1 calc R . .
C38 C 0.7303(4) 0.6252(4) 0.5538(11) 0.037(3) Uani 1 1 d . . .
C39 C 0.7198(5) 0.7138(4) 0.5778(14) 0.053(4) Uani 1 1 d . . .
C40 C 0.6712(5) 0.6140(4) 0.7053(13) 0.052(4) Uani 1 1 d . . .
H40A H 0.6831 0.5855 0.7186 0.063 Uiso 1 1 calc R . .
C41 C 0.6305(4) 0.6240(4) 0.7497(12) 0.043(3) Uani 1 1 d . . .
H41A H 0.6200 0.6530 0.7426 0.052 Uiso 1 1 calc R . .
C42 C 0.5207(5) 0.5722(4) 0.8646(12) 0.049(3) Uani 1 1 d . . .
H42A H 0.4864 0.5783 0.8631 0.059 Uiso 1 1 calc R . .
C43 C 0.5501(4) 0.6021(3) 0.8169(12) 0.044(3) Uani 1 1 d . . .
H43A H 0.5358 0.6288 0.7884 0.053 Uiso 1 1 calc R . .
C44 C 0.6001(5) 0.5943(4) 0.8092(12) 0.045(3) Uani 1 1 d . . .
C45 C 0.6198(5) 0.5556(4) 0.8642(12) 0.054(3) Uani 1 1 d . . .
H45A H 0.6541 0.5490 0.8662 0.065 Uiso 1 1 calc R . .
C46 C 0.5890(5) 0.5270(4) 0.9157(12) 0.049(3) Uani 1 1 d . . .
H46A H 0.6032 0.5014 0.9534 0.059 Uiso 1 1 calc R . .
C47 C 0.9055(11) 0.7091(10) 0.743(3) 0.191(13) Uiso 1 1 d . . .
H47A H 0.9393 0.7159 0.7852 0.287 Uiso 1 1 calc R . .
H47B H 0.9026 0.6782 0.7288 0.287 Uiso 1 1 calc R . .
H47C H 0.8812 0.7183 0.7947 0.287 Uiso 1 1 calc R . .
C48 C 0.7959(6) 0.5956(4) -0.0940(15) 0.072(5) Uani 1 1 d . . .
H48A H 0.8129 0.5775 -0.1434 0.087 Uiso 1 1 calc R . .
C49 C 0.7720(5) 0.6661(5) -0.0370(14) 0.061(4) Uani 1 1 d . . .
C50 C 0.7401(6) 0.6499(4) 0.0305(14) 0.061(4) Uani 1 1 d . . .
H50A H 0.7203 0.6687 0.0706 0.073 Uiso 1 1 calc R . .
C51 C 0.7661(5) 0.5762(5) -0.0113(14) 0.058(4) Uani 1 1 d . . .
C52 C 0.8528(6) 0.7682(5) 0.3989(17) 0.083(5) Uani 1 1 d . . .
H52A H 0.8874 0.7733 0.4260 0.099 Uiso 1 1 calc R . .
C53 C 0.8274(6) 0.7891(5) 0.2912(17) 0.073(5) Uani 1 1 d . . .
C54 C 0.7457(6) 0.8031(4) 0.1419(14) 0.064(4) Uani 1 1 d . . .
H54A H 0.7606 0.8254 0.1013 0.077 Uiso 1 1 calc R . .
C55 C 0.9566(5) 0.3457(4) -0.2997(11) 0.049(3) Uani 1 1 d . . .
H55A H 0.9748 0.3683 -0.2545 0.059 Uiso 1 1 calc R . .
C56 C 0.8725(5) 0.3751(4) -0.2655(14) 0.059(4) Uani 1 1 d . . .
H56A H 0.8373 0.3725 -0.2889 0.071 Uiso 1 1 calc R . .
C57 C 0.6766(7) 0.7587(6) 0.170(2) 0.095(6) Uani 1 1 d . . .
H57A H 0.6426 0.7515 0.1415 0.114 Uiso 1 1 calc R . .
C58 C 0.7001(7) 0.7934(5) 0.1018(17) 0.083(5) Uani 1 1 d . . .
C59 C 0.7008(6) 0.7388(5) 0.2640(14) 0.063(4) Uani 1 1 d . . .
H59A H 0.6846 0.7167 0.3019 0.076 Uiso 1 1 calc R . .
C60 C 0.7494(6) 0.7485(4) 0.3115(13) 0.051(3) Uani 1 1 d . . .
C61 C 0.7752(6) 0.7817(4) 0.2452(16) 0.073(5) Uani 1 1 d . . .
C62 C 0.8541(6) 0.8189(5) 0.2175(18) 0.088(5) Uani 1 1 d . . .
H62A H 0.8455 0.8196 0.1288 0.106 Uiso 1 1 calc R . .
C63 C 0.8896(7) 0.8441(5) 0.2745(19) 0.094(6) Uani 1 1 d . . .
H63A H 0.8978 0.8429 0.3632 0.113 Uiso 1 1 calc R . .
C64 C 0.6602(7) 0.4755(7) -0.361(2) 0.116(7) Uani 1 1 d . . .
H64A H 0.6445 0.4552 -0.4239 0.175 Uiso 1 1 calc R . .
H64B H 0.6625 0.5036 -0.3994 0.175 Uiso 1 1 calc R . .
H64C H 0.6400 0.4779 -0.2939 0.175 Uiso 1 1 calc R . .
C65 C 0.7796(5) 0.4805(4) -0.1585(15) 0.061(4) Uani 1 1 d . . .
C66 C 0.7056(7) 0.4029(5) 0.127(3) 0.160(11) Uani 1 1 d . . .
H66A H 0.6796 0.3877 0.1627 0.240 Uiso 1 1 calc R . .
H66B H 0.7385 0.3951 0.1732 0.240 Uiso 1 1 calc R . .
H66C H 0.7034 0.3951 0.0388 0.240 Uiso 1 1 calc R . .
C67 C 0.8475(5) 0.4966(5) 0.0160(15) 0.063(4) Uani 1 1 d . . .
C68 C 0.7092(6) 0.4609(5) -0.3086(15) 0.072(4) Uani 1 1 d . . .
H68A H 0.7067 0.4329 -0.2676 0.086 Uiso 1 1 calc R . .
H68B H 0.7288 0.4568 -0.3770 0.086 Uiso 1 1 calc R . .
C69 C 0.8114(5) 0.4483(4) -0.2066(14) 0.058(4) Uani 1 1 d . . .
H69A H 0.7998 0.4333 -0.2821 0.070 Uiso 1 1 calc R . .
C70 C 0.9432(6) 0.4805(6) 0.1465(18) 0.092(5) Uani 1 1 d . . .
C71 C 0.9132(6) 0.5128(6) 0.1906(17) 0.086(5) Uani 1 1 d . . .
H71A H 0.9244 0.5285 0.2650 0.103 Uiso 1 1 calc R . .
C72 C 0.9279(6) 0.4561(4) 0.0432(16) 0.071(4) Uani 1 1 d . . .
H72A H 0.9490 0.4345 0.0192 0.085 Uiso 1 1 calc R . .
C73 C 0.8792(5) 0.4635(4) -0.0290(13) 0.055(4) Uani 1 1 d . . .
C74 C 0.8669(6) 0.5198(5) 0.1187(15) 0.075(5) Uani 1 1 d . . .
H74A H 0.8471 0.5423 0.1429 0.090 Uiso 1 1 calc R . .
C75 C 0.8595(5) 0.4403(4) -0.1371(14) 0.057(4) Uani 1 1 d . . .
C76 C 0.7762(5) 0.7298(4) 0.4188(15) 0.061(4) Uani 1 1 d . . .
O12 O 0.0000 0.3767(6) 0.0000 0.108(5) Uiso 1 2 d SD . .
C86 C 0.0120(8) 0.3033(6) -0.002(3) 0.042(6) Uiso 0.50 1 d P . .
C87 C 0.0000 0.3349(9) 0.0000 0.22(2) Uiso 1 2 d SD . .
C77 C 0.6565(17) 0.9218(14) -1.286(4) 0.244(17) Uiso 1 1 d . . .
C78 C 0.5788(13) 0.9448(11) -1.484(3) 0.208(13) Uiso 1 1 d . . .
C79 C 0.5859(11) 0.8879(11) -1.345(3) 0.165(10) Uiso 1 1 d . . .
N5 N 0.6164(8) 0.9157(7) -1.3634(18) 0.136(6) Uiso 1 1 d . . .
O5 O 0.5888(8) 0.8710(8) -1.255(2) 0.214(9) Uiso 1 1 d . . .
O6 O 0.8882(9) 0.6423(8) -1.803(2) 0.214(9) Uiso 1 1 d . . .
C80 C 0.9626(16) 0.7019(14) -1.641(4) 0.239(16) Uiso 1 1 d . . .
C81 C 0.9247(15) 0.6746(14) -1.733(4) 0.227(15) Uiso 1 1 d . . .
O7 O 0.8847(12) 0.5479(10) -1.314(3) 0.280(12) Uiso 1 1 d . . .
C83 C 0.9244(12) 0.5669(11) -1.520(3) 0.195(12) Uiso 1 1 d . . .
C82 C 0.932(2) 0.566(2) -1.370(6) 0.22(3) Uiso 1 1 d . . .
C88 C 1.0110(16) 0.7965(16) -1.212(4) 0.210(19) Uiso 1 1 d . . .
C89 C 1.0000(18) 0.7907(13) -1.066(3) 0.257(18) Uiso 1 1 d . . .
O10 O 0.854(2) 0.841(2) -1.332(6) 0.16(4) Uiso 1 1 d D . .
C90 C 0.831(2) 0.8679(17) -1.400(5) 0.20(2) Uiso 1 1 d D . .
C91 C 0.7938(15) 0.8644(13) -1.496(4) 0.225(15) Uiso 1 1 d . . .
O101 O 0.996(3) 0.7949(15) -1.546(4) 0.24(2) Uiso 0.50 1 d P . .
O102 O 0.958(2) 0.8351(18) -1.404(5) 0.23(2) Uiso 0.50 1 d P . .
C84 C 0.9482(18) 1.0152(16) 0.463(4) 0.138(15) Uiso 0.50 1 d P . .
O8 O 1.0000 1.0308(13) 0.5000 0.260(16) Uiso 1 2 d S . .
C92 C 0.9669(16) 0.9667(15) 0.529(4) 0.131(15) Uiso 0.50 1 d P . .
O9 O 0.9599(5) 0.8210(4) -1.1714(12) 0.176(4) Uiso 1 1 d . . .

loop_
_atom_site_aniso_label
_atom_site_aniso_U_11
_atom_site_aniso_U_22
_atom_site_aniso_U_33
_atom_site_aniso_U_23
_atom_site_aniso_U_13
_atom_site_aniso_U_12
Ni1 0.0401(12) 0.0252(12) 0.0467(13) 0.000 0.0276(10) 0.000
Ni2 0.0533(15) 0.0240(13) 0.088(2) 0.000 0.0460(14) 0.000
Cl1 0.063(2) 0.042(2) 0.088(3) 0.0046(19) 0.041(2) 0.0042(17)
Cl2 0.109(3) 0.057(3) 0.124(4) -0.003(2) 0.048(3) 0.017(2)
Cl3 0.123(4) 0.046(2) 0.127(4) -0.003(2) 0.071(3) 0.013(2)
Cl4 0.0421(17) 0.0380(17) 0.0486(18) -0.0011(16) 0.0214(13) -0.0010(15)
Cl5 0.116(4) 0.109(4) 0.123(4) 0.039(3) 0.035(3) 0.020(3)
Cl6 0.074(3) 0.103(3) 0.139(4) -0.041(3) 0.001(3) 0.024(3)
O1 0.107(8) 0.033(6) 0.121(9) -0.016(6) 0.080(7) -0.022(5)
O2 0.053(6) 0.068(7) 0.094(8) -0.015(6) 0.018(6) 0.0