
#######################################################################
#
#                 Cambridge Crystallographic Data Centre
#                                CCDC
#
#######################################################################
#
# If this CIF has been generated from an entry in the Cambridge
# Structural Database, then it will include bibliographic, chemical,
# crystal, experimental, refinement or atomic coordinate data resulting
# from the CCDC's data processing and validation procedures.
#
#######################################################################

data_CSD_CIF_DEQZUV
_audit_creation_date 2006-12-20
_audit_creation_method CSD-ConQuest-V1
_database_code_CSD DEQZUV
_database_code_depnum_ccdc_archive 'CCDC 612879'
_chemical_formula_sum 'C9 H12 O4'
_chemical_formula_moiety
;
C9 H12 O4
;
_journal_coden_Cambridge 16
_journal_volume 62
_journal_year 2006
_journal_page_first 10914
_journal_name_full 'Tetrahedron '
loop_
_publ_author_name
"L.L.Etchells"
"M.Helliwell"
"N.M.Kershaw"
"A.Sardarian"
"R.C.Whitehead"
_chemical_name_systematic
;
(2Z,4E)-3-Hydroxy-6-oxo-octa-2,4-dienoic acid methyl ester
;
_chemical_name_common
;
Teaching Subset: Fundamental Chemistry
;
_chemical_melting_point 343.35
_cell_volume    930.593
_exptl_crystal_colour 'colorless'
_exptl_crystal_density_diffrn 1.315
_exptl_special_details
;
Melting point range 343.35-345.05K

;
_exptl_crystal_description 'plate'
_diffrn_ambient_temperature 100
#These two values have been output from a single CSD field.
_refine_ls_R_factor_gt 0.041
_refine_ls_wR_factor_gt 0.041
_symmetry_cell_setting monoclinic
_symmetry_space_group_name_H-M 'P 21/c'
_symmetry_Int_Tables_number 14
loop_
_symmetry_equiv_pos_site_id
_symmetry_equiv_pos_as_xyz
1 x,y,z
2 -x,1/2+y,1/2-z
3 -x,-y,-z
4 x,-1/2-y,-1/2+z
_cell_length_a 3.970(5)
_cell_length_b 25.875(5)
_cell_length_c 9.245(5)
_cell_angle_alpha 90
_cell_angle_beta 101.507(5)
_cell_angle_gamma 90
_cell_formula_units_Z 4
loop_
_atom_type_symbol
_atom_type_radius_bond
C 0.68
H 0.23
O 0.68
loop_
_atom_site_label
_atom_site_type_symbol
_atom_site_fract_x
_atom_site_fract_y
_atom_site_fract_z
O1 O 0.6235(4) 0.47662(5) 0.84092(14)
O2 O 0.2353(4) 0.48948(5) 0.63100(15)
O3 O -0.0748(4) 0.40672(5) 0.49613(14)
H1 H -0.03710 0.43780 0.50470
O4 O -0.3985(4) 0.22421(5) 0.39661(15)
C1 C 0.6890(6) 0.53185(7) 0.8420(2)
H2 H 0.76030 0.54150 0.75240
H3 H 0.86720 0.54040 0.92500
H4 H 0.48280 0.55020 0.84920
C2 C 0.3876(5) 0.46007(7) 0.7257(2)
C3 C 0.3313(5) 0.40479(7) 0.7240(2)
H5 H 0.44920 0.38480 0.80130
C4 C 0.1119(5) 0.38175(7) 0.6130(2)
C5 C 0.0592(5) 0.32598(7) 0.6103(2)
H6 H 0.18380 0.30670 0.68780
C6 C -0.1557(5) 0.30053(7) 0.5042(2)
H7 H -0.28370 0.31980 0.42760
C7 C -0.2032(5) 0.24426(7) 0.5006(2)
C8 C -0.0138(5) 0.21199(7) 0.6271(2)
H8 H -0.08200 0.22300 0.71730
H9 H 0.23080 0.21840 0.63820
C9 C -0.0781(6) 0.15445(7) 0.6078(2)
H10 H -0.31940 0.14760 0.59730
H11 H 0.04620 0.13650 0.69270
H12 H -0.00170 0.14280 0.52110
#END
