
#######################################################################
#
#                 Cambridge Crystallographic Data Centre
#                                CCDC
#
#######################################################################
#
# If this CIF has been generated from an entry in the Cambridge
# Structural Database, then it will include bibliographic, chemical,
# crystal, experimental, refinement or atomic coordinate data resulting
# from the CCDC's data processing and validation procedures.
#
#######################################################################

data_CSD_CIF_DERWAY
_audit_creation_date 1986-07-24
_audit_creation_method CSD-ConQuest-V1
_database_code_CSD DERWAY
_database_code_depnum_ccdc_archive 'CCDC 1139103'
_chemical_formula_sum 'C8 H10'
_chemical_formula_moiety
;
C8 H10
;
_journal_coden_Cambridge 615
_journal_volume 11
_journal_year 1985
_journal_page_first 37
_journal_name_full 'Synth.Met. '
loop_
_publ_author_name
"R.H.Baughman"
"B.E.Kohler"
"I.J.Levy"
"C.Spangler"
_chemical_name_systematic
;
trans,trans-1,3,5,7-Octatetraene
;
_chemical_name_common
;
Teaching Subset: Fundamental Chemistry
;
_cell_volume    348.032
_exptl_crystal_colour 'pale yellow'
_exptl_crystal_density_diffrn 1.013
_diffrn_ambient_temperature 168.15
#These two values have been output from a single CSD field.
_refine_ls_R_factor_gt 0.056
_refine_ls_wR_factor_gt 0.056
_symmetry_cell_setting monoclinic
_symmetry_space_group_name_H-M 'P 21/c'
_symmetry_Int_Tables_number 14
loop_
_symmetry_equiv_pos_site_id
_symmetry_equiv_pos_as_xyz
1 x,y,z
2 -x,1/2+y,1/2-z
3 -x,-y,-z
4 x,-1/2-y,-1/2+z
_cell_length_a 10.228(8)
_cell_length_b 4.120(1)
_cell_length_c 8.313(3)
_cell_angle_alpha 90
_cell_angle_beta 96.53(4)
_cell_angle_gamma 90
_cell_formula_units_Z 2
loop_
_atom_type_symbol
_atom_type_radius_bond
C 0.68
H 0.23
loop_
_atom_site_label
_atom_site_type_symbol
_atom_site_fract_x
_atom_site_fract_y
_atom_site_fract_z
C1 C 0.0657(3) 0.0614(8) 0.0247(3)
C2 C 0.1481(3) -0.0541(8) 0.1461(3)
C3 C 0.2795(3) 0.0693(9) 0.1948(4)
C4 C 0.3614(3) -0.0465(10) 0.3182(4)
H1 H 0.090(3) 0.259(7) -0.036(3)
H2 H 0.125(3) -0.265(7) 0.200(3)
H3 H 0.311(2) 0.221(6) 0.127(3)
H4 H 0.337(3) -0.283(10) 0.387(5)
H5 H 0.440(3) 0.074(7) 0.358(4)
C1B C -0.0657(3) -0.0614(8) -0.0247(3)
C2B C -0.1481(3) 0.0541(8) -0.1461(3)
H1B H -0.090(3) -0.259(7) 0.036(3)
C3B C -0.2795(3) -0.0693(9) -0.1948(4)
H2B H -0.125(3) 0.265(7) -0.200(3)
C4B C -0.3614(3) 0.0465(10) -0.3182(4)
H3B H -0.311(2) -0.221(6) -0.127(3)
H4B H -0.337(3) 0.283(10) -0.387(5)
H5B H -0.440(3) -0.074(7) -0.358(4)
#END
