
#######################################################################
#
#                 Cambridge Crystallographic Data Centre
#                                CCDC
#
#######################################################################
#
# If this CIF has been generated from an entry in the Cambridge
# Structural Database, then it will include bibliographic, chemical,
# crystal, experimental, refinement or atomic coordinate data resulting
# from the CCDC's data processing and validation procedures.
#
#######################################################################

data_CSD_CIF_DETLIX11
_audit_creation_date 1989-07-31
_audit_creation_method CSD-ConQuest-V1
_database_code_CSD DETLIX11
_database_code_depnum_ccdc_archive 'CCDC 1139309'
_chemical_formula_sum 'C21 H44.74 N12.5 O20.12 P2 Pt1'
_chemical_formula_moiety
;
C20 H30 N12 O13 P2 Pt1,0.5(C2 H5 N1 O2),6.12(H2 O1)
;
_journal_coden_Cambridge 4
_journal_volume 110
_journal_year 1988
_journal_page_first 7368
_journal_name_full 'J.Am.Chem.Soc. '
loop_
_publ_author_name
"S.E.Sherman"
"D.Gibson"
"A.H.-J.Wang"
"S.J.Lippard"
_chemical_name_systematic
;
cis(Diammine-deoxy(guanosine-5'-phosphate-3',5'-guanosine-5'-phosphate-N,N')-p
latinum(ii)) hemikis(glycine) hydrate
;
_chemical_name_common
;
Teaching Subset: Fundamental Chemistry
;
_cell_volume  21799.238
_exptl_crystal_colour 'colorless'
_exptl_crystal_density_diffrn 1.282
_exptl_special_details
;
polymorph I
OW5 deleted as it forms short contacts to OW3 and OW4; there are a number of 
bond discrepancies
;
_diffrn_ambient_temperature ?
_diffrn_special_details
;
The study was carried out at room temperature,in the range 283-303K

;
_refine_special_details
;
Atoms C4' and C5' of the 3'-sugar residue of molecule 2 are disordered over 2 
positions with occupancies of 0.46 and 0.54, respectively. Further unresolved 
disorder is present in sugar residues of the other molecules, in solvent 
glycine molecules and in water molecules.
;
#These two values have been output from a single CSD field.
_refine_ls_R_factor_gt 0.082
_refine_ls_wR_factor_gt 0.082
_symmetry_cell_setting orthorhombic
_symmetry_space_group_name_H-M 'P 21 21 2'
_symmetry_Int_Tables_number 18
loop_
_symmetry_equiv_pos_site_id
_symmetry_equiv_pos_as_xyz
1 x,y,z
2 1/2+x,1/2-y,-z
3 1/2-x,1/2+y,-z
4 -x,-y,z
_cell_length_a 31.326(8)
_cell_length_b 35.679(9)
_cell_length_c 19.504(4)
_cell_angle_alpha 90
_cell_angle_beta 90
_cell_angle_gamma 90
_cell_formula_units_Z 16
loop_
_atom_type_symbol
_atom_type_radius_bond
C 0.69
N 0.73
O 0.73
P 1.00
Pt 1.50
loop_
_atom_site_label
_atom_site_type_symbol
_atom_site_fract_x
_atom_site_fract_y
_atom_site_fract_z
Pt1 Pt 0.28511(4) 0.56624(3) -0.10010(7)
P1 P 0.3865(4) 0.6337(3) 0.0589(7)
O1 O 0.3380(12) 0.6257(10) 0.0362(16)
O2 O 0.3877(10) 0.6734(7) 0.0929(17)
O3 O 0.4039(12) 0.6035(8) 0.1022(19)
O4 O 0.4106(8) 0.6373(8) -0.0145(14)
O5 O 0.4768(8) 0.6550(7) -0.1797(15)
P2 P 0.4500(5) 0.6829(4) -0.2270(9)
O6 O 0.4160(12) 0.7027(8) -0.188(2)
O7 O 0.4812(14) 0.7065(10) -0.268(2)
O8 O 0.4249(12) 0.6534(11) -0.2779(19)
N1 N 0.3461(7) 0.5505(6) -0.0868(12)
C1 C 0.3616(9) 0.5174(8) -0.0601(16)
C2 C 0.3812(9) 0.5735(9) -0.1033(16)
C3 C 0.4068(9) 0.5189(8) -0.0644(16)
N2 N 0.4332(7) 0.4898(6) -0.0473(12)
C4 C 0.4128(9) 0.4608(8) -0.0248(15)
N3 N 0.4345(8) 0.4296(7) -0.0035(13)
N4 N 0.3695(7) 0.4581(6) -0.0169(12)
C5 C 0.3418(9) 0.4859(7) -0.0337(14)
O9 O 0.3027(7) 0.4819(6) -0.0260(11)
N5 N 0.4162(8) 0.5504(7) -0.0924(13)
C6 C 0.4595(11) 0.5641(11) -0.1039(19)
C7 C 0.4612(14) 0.5895(11) -0.166(2)
C8 C 0.4542(12) 0.6281(10) -0.1362(19)
C9 C 0.4735(13) 0.6218(10) -0.068(2)
O10 O 0.4753(7) 0.5852(7) -0.0486(12)
C10 C 0.4524(13) 0.6464(12) -0.013(2)
N6 N 0.2941(7) 0.5635(7) -0.2042(12)
C11 C 0.3157(11) 0.5882(11) -0.2401(18)
N7 N 0.3235(10) 0.5756(9) -0.3038(17)
C12 C 0.3076(12) 0.5384(11) -0.306(2)
C13 C 0.2918(10) 0.5290(8) -0.2426(15)
C14 C 0.2735(9) 0.4948(8) -0.2314(15)
O11 O 0.2536(8) 0.4837(7) -0.1785(14)
N8 N 0.2790(9) 0.4718(7) -0.2859(14)
C15 C 0.2947(10) 0.4812(9) -0.3482(16)
N9 N 0.2920(9) 0.4549(8) -0.3921(15)
N10 N 0.3102(9) 0.5163(8) -0.3627(15)
C16 C 0.3515(16) 0.5937(14) -0.357(2)
C17 C 0.3319(18) 0.6316(16) -0.367(3)
C18 C 0.366(3) 0.655(2) -0.377(5)
O12 O 0.3740(18) 0.6389(16) -0.465(3)
C19 C 0.399(2) 0.6298(19) -0.383(4)
O13 O 0.3907(12) 0.5889(11) -0.3401(19)
C20 C 0.441(2) 0.635(2) -0.332(4)
N11 N 0.2796(7) 0.5707(5) 0.0031(10)
N12 N 0.2236(8) 0.5826(7) -0.1146(12)
Pt2 Pt 0.28056(4) 0.43811(4) 0.19252(6)
P3 P 0.3476(3) 0.3546(2) 0.0272(5)
O14 O 0.3281(7) 0.3929(5) 0.0173(11)
O15 O 0.3187(7) 0.3301(6) 0.0738(12)
O16 O 0.3566(9) 0.3316(6) -0.0376(12)
O17 O 0.3913(6) 0.3643(5) 0.0681(11)
O18 O 0.4348(9) 0.3084(5) 0.2412(14)
P4 P 0.4006(5) 0.2873(3) 0.2834(7)
O19 O 0.3624(13) 0.2846(9) 0.2420(16)
O20 O 0.4226(10) 0.2549(8) 0.3143(19)
O21 O 0.3904(14) 0.3190(8) 0.339(2)
N13 N 0.3440(7) 0.4427(6) 0.1753(12)
C21 C 0.3684(10) 0.4746(9) 0.1521(17)
C22 C 0.3701(9) 0.4149(9) 0.1881(16)
C23 C 0.4097(9) 0.4614(8) 0.1520(16)
N14 N 0.4463(8) 0.4840(7) 0.1384(13)
C24 C 0.4354(10) 0.5179(8) 0.1213(16)
N15 N 0.4646(9) 0.5433(8) 0.1040(15)
N16 N 0.3934(8) 0.5313(7) 0.1134(13)
C25 C 0.3589(10) 0.5105(9) 0.1248(16)
O22 O 0.3233(7) 0.5222(6) 0.1162(11)
N17 N 0.4108(8) 0.4273(7) 0.1787(13)
C26 C 0.4497(10) 0.4042(9) 0.1931(17)
C27 C 0.4395(11) 0.3767(9) 0.2443(19)
C28 C 0.4241(12) 0.342(1) 0.2072(19)
C29 C 0.4468(11) 0.3452(10) 0.1439(18)
O23 O 0.4617(7) 0.3837(6) 0.1349(11)
C30 C 0.4214(11) 0.3359(9) 0.0809(18)
N18 N 0.2913(8) 0.4378(7) 0.2911(13)
C31 C 0.3052(11) 0.4075(11) 0.330(2)
N19 N 0.3132(10) 0.4205(9) 0.3946(18)
C32 C 0.3087(11) 0.4574(10) 0.402(2)
C33 C 0.2991(11) 0.4704(10) 0.3321(19)
C34 C 0.2922(14) 0.5067(12) 0.319(2)
O24 O 0.2929(9) 0.5224(8) 0.2651(15)
N20 N 0.3016(9) 0.5276(8) 0.3782(16)
C35 C 0.3093(12) 0.5144(11) 0.444(2)
N21 N 0.3152(11) 0.5372(10) 0.4919(19)
N22 N 0.3151(9) 0.4791(8) 0.4559(15)
C36 C 0.3288(15) 0.3925(12) 0.456(2)
C37 C 0.2927(15) 0.3618(13) 0.467(2)
C38 C 0.317(3) 0.318(3) 0.489(5)
O25 O 0.3324(19) 0.3391(17) 0.562(3)
C39 C 0.35400 0.33400 0.45600
O26 O 0.3685(12) 0.3777(10) 0.4259(19)
C40 C 0.418(5) 0.324(4) 0.401(9)
N23 N 0.2697(7) 0.4376(6) 0.0912(11)
N24 N 0.2164(8) 0.4267(6) 0.2120(12)
Pt3 Pt 0.20756(4) 0.41686(3) -0.06430(7)
P5 P 0.2592(4) 0.3672(3) -0.2940(5)
O27 O 0.2543(8) 0.3988(6) -0.2479(12)
O28 O 0.2668(10) 0.3760(7) -0.3670(11)
O29 O 0.2943(9) 0.3389(7) -0.2732(14)
O30 O 0.2152(10) 0.3433(5) -0.2829(12)
O31 O 0.1105(11) 0.2904(11) -0.282(2)
P6 P 0.0848(9) 0.3261(9) -0.3098(17)
O32 O 0.1137(14) 0.3611(12) -0.328(3)
O33 O 0.0543(18) 0.3094(14) -0.357(2)
O34 O 0.0641(15) 0.3445(14) -0.243(3)
N25 N 0.2036(9) 0.3636(7) -0.0674(15)
C41 C 0.2097(13) 0.3380(11) -0.012(2)
C42 C 0.2005(12) 0.3432(11) -0.117(2)
C43 C 0.2022(14) 0.2993(13) -0.042(2)
N26 N 0.2067(11) 0.2672(9) 0.0012(18)
C44 C 0.2116(16) 0.2738(13) 0.064(3)
N27 N 0.2116(13) 0.2437(12) 0.105(2)
N28 N 0.2152(12) 0.3095(10) 0.097(2)
C45 C 0.2149(14) 0.3431(12) 0.063(2)
O35 O 0.2139(9) 0.3711(7) 0.0920(13)
N29 N 0.1969(9) 0.3046(8) -0.1086(16)
C46 C 0.1908(11) 0.2706(10) -0.1484(19)
C47 C 0.1453(16) 0.2728(14) -0.174(3)
C48 C 0.1485(16) 0.2981(15) -0.245(3)
C49 C 0.1864(11) 0.2817(10) -0.2683(19)
O36 O 0.2156(9) 0.2756(7) -0.2095(14)
C50 C 0.2095(14) 0.3074(10) -0.320(2)
N30 N 0.1453(8) 0.4152(8) -0.0419(14)
C51 C 0.1172(12) 0.4033(10) -0.087(2)
N31 N 0.0779(9) 0.4128(8) -0.0634(16)
C52 C 0.0784(12) 0.4265(10) 0.002(2)
C53 C 0.1225(13) 0.4329(12) 0.010(2)
C54 C 0.1358(12) 0.4518(10) 0.072(2)
O37 O 0.1739(7) 0.4647(6) 0.0881(12)
N32 N 0.1010(8) 0.4630(7) 0.1147(14)
C55 C 0.0620(13) 0.4533(11) 0.096(2)
N33 N 0.0338(12) 0.4662(10) 0.150(2)
N34 N 0.0483(10) 0.4380(9) 0.0440(17)
C56 C 0.0323(16) 0.3975(15) -0.089(3)
C57 C 0.0300(17) 0.4136(16) -0.160(3)
C58 C 0.000(3) 0.382(2) -0.199(4)
O38 O -0.051(2) 0.3989(17) -0.167(3)
C59 C 0.013(2) 0.346(2) -0.152(4)
O39 O 0.0428(12) 0.3628(11) -0.105(2)
C60 C 0.037(3) 0.322(2) -0.205(4)
N35 N 0.2708(8) 0.4150(7) -0.0975(12)
N36 N 0.2091(8) 0.4739(7) -0.0603(14)
Pt4 Pt 0.22875(4) 0.58871(3) 0.16723(7)
P7 P 0.2982(7) 0.6332(4) 0.3938(9)
O40 O 0.2916(13) 0.6006(8) 0.3487(19)
O41 O 0.2983(15) 0.6219(13) 0.464(2)
O42 O 0.3324(16) 0.6597(10) 0.383(3)
O43 O 0.2571(12) 0.6600(7) 0.3833(14)
O44 O 0.1459(18) 0.7035(15) 0.4154(18)
P8 P 0.1251(14) 0.6647(10) 0.4407(18)
O45 O 0.154(3) 0.6367(17) 0.444(3)
O46 O 0.0972(16) 0.6773(15) 0.493(2)
O47 O 0.0980(15) 0.6489(12) 0.371(2)
N37 N 0.2247(8) 0.6427(7) 0.1725(13)
C61 C 0.215(1) 0.6663(8) 0.1159(15)
C62 C 0.2264(10) 0.6651(8) 0.2280(16)
C63 C 0.2152(13) 0.7037(11) 0.144(2)
N38 N 0.2004(9) 0.7374(8) 0.1078(16)
C64 C 0.1987(13) 0.7324(11) 0.038(2)
N39 N 0.1936(12) 0.7594(12) -0.001(2)
N40 N 0.2034(9) 0.6951(8) 0.0112(15)
C65 C 0.2145(11) 0.6622(9) 0.0454(17)
O48 O 0.2196(9) 0.6349(7) 0.0155(13)
N41 N 0.2189(10) 0.7007(8) 0.2111(15)
C66 C 0.2105(13) 0.7339(11) 0.264(2)
C67 C 0.1691(15) 0.7214(13) 0.305(3)
C68 C 0.1776(16) 0.6968(16) 0.359(3)
C69 C 0.2172(16) 0.7200(13) 0.380(2)
O49 O 0.2413(8) 0.7294(7) 0.3152(15)
C70 C 0.2556(17) 0.6939(15) 0.416(3)
N42 N 0.1632(8) 0.5861(8) 0.1589(14)
C71 C 0.1370(13) 0.6015(11) 0.209(2)
N43 N 0.0969(11) 0.5901(10) 0.1897(18)
C72 C 0.0976(12) 0.5709(11) 0.127(2)
C73 C 0.1397(10) 0.5696(9) 0.1044(17)
C74 C 0.1497(12) 0.5525(10) 0.0425(19)
O50 O 0.1860(6) 0.5443(5) 0.0213(11)
N44 N 0.1119(9) 0.5394(8) 0.0097(15)
C75 C 0.0725(13) 0.5433(11) 0.035(2)
N45 N 0.0448(11) 0.5332(9) -0.0077(18)
N46 N 0.064(1) 0.5599(9) 0.0935(17)
C76 C 0.0566(14) 0.5981(13) 0.237(2)
C77 C 0.0622(17) 0.5753(16) 0.308(3)
C78 C 0.032(2) 0.608(2) 0.343(4)
O51 O -0.0146(15) 0.5951(13) 0.327(3)
C79 C 0.0388(19) 0.6459(17) 0.308(3)
O52 O 0.0610(11) 0.6358(10) 0.2434(18)
C80 C 0.069(2) 0.678(2) 0.351(4)
N47 N 0.2942(7) 0.5937(6) 0.1847(12)
N48 N 0.2308(9) 0.5311(7) 0.1656(15)
O53 O 0.264(2) 0.1253(19) 0.463(4)
O54 O 0.1999(11) 0.5901(10) 0.3459(18)
O55 O 0.1886(13) 0.5149(11) 0.297(2)
O56 O 0.1051(17) 0.5011(14) 0.247(3)
O57 O 0.3206(14) 0.0683(13) 0.245(2)
O58 O 0.342(1) 0.9027(9) 0.2323(18)
O59 O 0.3197(18) 0.6783(16) 0.208(3)
O60 O 0.3095(7) 0.3410(6) 0.2058(12)
O61 O 0.1555(10) 0.1598(8) 0.1644(17)
O62 O 0.082(4) 0.344(3) 0.136(6)
O63 O 0.2008(14) 0.1687(12) 0.047(2)
O64 O 0.3815(16) 0.7285(14) 0.027(3)
O65 O 0.1981(9) 0.8196(8) 0.1422(15)
O66 O 0.285(2) 0.168(2) 0.133(4)
O67 O 0.334(2) 0.2372(19) 0.134(4)
O68 O 0.470(2) 0.732(2) 0.133(4)
O69 O 0.427(2) 0.7497(18) -0.085(4)
O70 O 0.50000 0.00000 0.242(5)
O71 O 0.075(3) 0.332(3) 0.237(6)
O72 O 0.224(4) 0.185(3) 0.245(6)
O73 O 0.2263(17) 0.3244(14) 0.261(3)
O74 O 0.366(2) 0.739(2) -0.272(4)
O75 O 0.046(2) 0.4788(19) 0.315(4)
O76 O 0.069(3) 0.127(3) -0.228(6)
O77 O 0.059(3) 0.757(3) 0.465(6)
O78 O -0.052(5) 0.297(4) -0.406(9)
O79 O 0.3654(11) 0.0064(9) 0.1144(18)
O80 O 0.4317(16) 0.0083(13) 0.139(2)
C81 C 0.3926(18) 0.0051(14) 0.153(3)
C82 C 0.396(2) -0.013(2) 0.233(4)
N49 N 0.338(2) -0.0155(17) 0.243(3)
O81 O 0.93100 0.01140 0.25910
O82 O 0.91140 0.03410 0.35850
C83 C 0.91330 0.03630 0.28820
C84 C 0.91760 0.08050 0.26000
N50 N 0.88030 0.07720 0.20090
#END
