
#######################################################################
#
#                 Cambridge Crystallographic Data Centre
#                                CCDC
#
#######################################################################
#
# If this CIF has been generated from an entry in the Cambridge
# Structural Database, then it will include bibliographic, chemical,
# crystal, experimental, refinement or atomic coordinate data resulting
# from the CCDC's data processing and validation procedures.
#
#######################################################################

data_CSD_CIF_DEXRII
_audit_creation_date 2007-03-29
_audit_creation_method CSD-ConQuest-V1
_database_code_CSD DEXRII
_database_code_depnum_ccdc_archive 'CCDC 620238'
_chemical_formula_sum 'C23 H42 B1 N9 O3 Zn1'
_chemical_formula_moiety
;
C23 H40 B1 N9 O2 Zn1,H2 O1
;
_journal_coden_Cambridge 9
_journal_volume 46
_journal_year 2007
_journal_page_first 360
_journal_name_full 'Inorg.Chem. '
loop_
_publ_author_name
"F.E.Jernigan III"
"N.A.Sieracki"
"M.T.Taylor"
"A.S.Jenkins"
"S.E.Engel"
"B.W.Rowe"
"F.A.Jove"
"G.P.A.Yap"
"E.T.Papish"
"G.M.Ferrence"
_chemical_name_systematic
;
(Acetato-O,O')-(hydrogen 
tris(3-t-butyl-5-methyl-1,2,4-triazolato)borato)-zinc(ii) monohydrate
;
_chemical_name_common
;
Teaching Subset: Fundamental Chemistry
;
_cell_volume   2897.277
_exptl_crystal_colour 'colorless'
_exptl_crystal_density_diffrn 1.304
_exptl_crystal_description 'plate'
_exptl_crystal_preparation 'diethyl ether'
_diffrn_ambient_temperature 120
#These two values have been output from a single CSD field.
_refine_ls_R_factor_gt 0.0773
_refine_ls_wR_factor_gt 0.0773
_symmetry_cell_setting monoclinic
_symmetry_space_group_name_H-M 'P 21/c'
_symmetry_Int_Tables_number 14
loop_
_symmetry_equiv_pos_site_id
_symmetry_equiv_pos_as_xyz
1 x,y,z
2 -x,1/2+y,1/2-z
3 -x,-y,-z
4 x,-1/2-y,-1/2+z
_cell_length_a 9.764(4)
_cell_length_b 33.236(7)
_cell_length_c 9.820(3)
_cell_angle_alpha 90
_cell_angle_beta 114.61(3)
_cell_angle_gamma 90
_cell_formula_units_Z 4
loop_
_atom_type_symbol
_atom_type_radius_bond
C 0.68
H 0.23
B 0.83
N 0.68
O 0.68
Zn 1.40
loop_
_atom_site_label
_atom_site_type_symbol
_atom_site_fract_x
_atom_site_fract_y
_atom_site_fract_z
Zn1 Zn 0.12545(6) 0.145053(15) 0.13655(6)
B1 B 0.2538(6) 0.06325(15) 0.2584(5)
H1 H 0.298(7) 0.0350(16) 0.302(6)
N1 N 0.3244(5) 0.13685(11) 0.3319(4)
N2 N 0.3557(5) 0.09622(11) 0.3610(4)
N3 N 0.5377(5) 0.12946(11) 0.5407(4)
N4 N 0.0084(4) 0.10224(11) 0.2014(4)
N5 N 0.0932(4) 0.06754(11) 0.2501(4)
N6 N -0.1254(5) 0.05617(12) 0.2582(5)
N7 N 0.1963(5) 0.10415(11) 0.0176(4)
N8 N 0.2454(5) 0.06891(11) 0.0981(4)
N9 N 0.2543(5) 0.05946(12) -0.1198(4)
O1 O -0.0775(5) 0.17522(12) -0.0649(5)
O2 O 0.1031(5) 0.20426(12) 0.1225(5)
C1 C 0.4372(6) 0.15539(14) 0.4431(5)
C2 C 0.4835(5) 0.09321(13) 0.4862(5)
C3 C 0.4540(6) 0.20088(13) 0.4615(5)
C4 C 0.5973(7) 0.21046(17) 0.5999(7)
H2 H 0.60380 0.23950 0.61790
H3 H 0.68510 0.20150 0.58390
H4 H 0.59520 0.19650 0.68690
C5 C 0.3178(7) 0.21829(15) 0.4801(6)
H5 H 0.32110 0.24770 0.47720
H6 H 0.32000 0.20970 0.57640
H7 H 0.22500 0.20870 0.39860
C6 C 0.4648(7) 0.21900(15) 0.3230(6)
H8 H 0.48110 0.24810 0.33670
H9 H 0.37090 0.21380 0.23460
H10 H 0.54920 0.20670 0.30900
C7 C 0.5566(6) 0.05429(14) 0.5561(6)
H11 H 0.64960 0.05980 0.64500
H12 H 0.58030 0.03880 0.48380
H13 H 0.48770 0.03880 0.58530
C8 C -0.1220(6) 0.09399(13) 0.2079(5)
C9 C 0.0088(6) 0.04083(14) 0.2830(5)
C10 C -0.2560(6) 0.12179(15) 0.1582(6)
C11 C -0.3340(7) 0.12098(18) -0.0145(7)
H14 H -0.26040 0.12750 -0.05510
H15 H -0.41570 0.14080 -0.04980
H16 H -0.37530 0.09410 -0.04830
C12 C -0.2057(7) 0.16495(15) 0.2156(7)
H17 H -0.16310 0.16520 0.32530
H18 H -0.29280 0.18300 0.17590
H19 H -0.12930 0.17400 0.18200
C13 C -0.3658(7) 0.10754(18) 0.2223(8)
H20 H -0.31160 0.10370 0.33070
H21 H -0.41140 0.08200 0.17520
H22 H -0.44490 0.12780 0.20200
C14 C 0.0584(6) -0.00138(13) 0.3337(6)
H23 H -0.02400 -0.01600 0.34370
H24 H 0.14600 -0.00080 0.43060
H25 H 0.08560 -0.01490 0.25970
C15 C 0.2026(6) 0.09691(14) -0.1124(5)
C16 C 0.2776(6) 0.04275(14) 0.0119(5)
C17 C 0.1540(6) 0.12618(14) -0.2424(5)
C18 C 0.2103(7) 0.16880(15) -0.1860(6)
H26 H 0.32070 0.16900 -0.13980
H27 H 0.17280 0.17690 -0.11170
H28 H 0.17330 0.18760 -0.27040
C19 C -0.0183(7) 0.12552(18) -0.3222(6)
H29 H -0.05200 0.09870 -0.36470
H30 H -0.05230 0.14560 -0.40270
H31 H -0.06080 0.13180 -0.25020
C20 C 0.2203(8) 0.11353(18) -0.3527(6)
H32 H 0.33050 0.11420 -0.30220
H33 H 0.18580 0.13210 -0.43790
H34 H 0.18700 0.08620 -0.38860
C21 C 0.3301(6) 0.00041(14) 0.0571(6)
H35 H 0.34530 -0.01300 -0.02450
H36 H 0.25410 -0.01430 0.07820
H37 H 0.42530 0.00080 0.14700
C22 C -0.0148(7) 0.20650(16) 0.0026(7)
C23 C -0.0789(8) 0.24779(17) -0.0553(8)
H38 H -0.18920 0.24650 -0.10060
H39 H -0.04390 0.25660 -0.13070
H40 H -0.04500 0.26700 0.02790
O3 O -0.3173(5) -0.00282(13) 0.3158(5)
H41 H -0.312(8) -0.022(2) 0.278(8)
H42 H -0.269(8) 0.017(2) 0.300(8)
#END
