####################################################################### 
# 
# This file contains crystal structure data downloaded from the 
# Cambridge Structural Database (CSD) hosted by the Cambridge 
# Crystallographic Data Centre (CCDC).
# 
# Full information about CCDC data access policies and citation 
# guidelines are available at http://www.ccdc.cam.ac.uk/access/V1 
# 
# Audit and citation data items may have been added by the CCDC. 
# Please retain this information to preserve the provenance of 
# this file and to allow appropriate attribution of the data. 
# 
#######################################################################

data_n120428e
_audit_block_doi                 10.5517/cczkfnl
_database_code_depnum_ccdc_archive 'CCDC 910490'
loop_
_citation_id
_citation_doi
_citation_year
1 10.1002/zaac.201300033 2013
_audit_update_record             
;
2012-11-12 deposited with the CCDC.	2024-07-09 downloaded from the CCDC.
;
#TrackingRef 'N120428E.cif'


_audit_creation_method           SHELXL-97
_chemical_name_systematic        
;
?
;
_chemical_name_common            ?
_chemical_melting_point          ?
_chemical_formula_moiety         ?
_chemical_formula_sum            'C30 H24 Mn3 N12 O12'
_chemical_formula_weight         909.43

loop_
_atom_type_symbol
_atom_type_description
_atom_type_scat_dispersion_real
_atom_type_scat_dispersion_imag
_atom_type_scat_source
C C 0.0033 0.0016 'International Tables Vol C Tables 4.2.6.8 and 6.1.1.4'
H H 0.0000 0.0000 'International Tables Vol C Tables 4.2.6.8 and 6.1.1.4'
N N 0.0061 0.0033 'International Tables Vol C Tables 4.2.6.8 and 6.1.1.4'
O O 0.0106 0.0060 'International Tables Vol C Tables 4.2.6.8 and 6.1.1.4'
Mn Mn 0.3368 0.7283 'International Tables Vol C Tables 4.2.6.8 and 6.1.1.4'

_symmetry_cell_setting           Rhombohedral
_symmetry_space_group_name_H-M   R-3

loop_
_symmetry_equiv_pos_as_xyz
'x, y, z'
'-y, x-y, z'
'-x+y, -x, z'
'x+2/3, y+1/3, z+1/3'
'-y+2/3, x-y+1/3, z+1/3'
'-x+y+2/3, -x+1/3, z+1/3'
'x+1/3, y+2/3, z+2/3'
'-y+1/3, x-y+2/3, z+2/3'
'-x+y+1/3, -x+2/3, z+2/3'
'-x, -y, -z'
'y, -x+y, -z'
'x-y, x, -z'
'-x+2/3, -y+1/3, -z+1/3'
'y+2/3, -x+y+1/3, -z+1/3'
'x-y+2/3, x+1/3, -z+1/3'
'-x+1/3, -y+2/3, -z+2/3'
'y+1/3, -x+y+2/3, -z+2/3'
'x-y+1/3, x+2/3, -z+2/3'

_cell_length_a                   28.801(8)
_cell_length_b                   28.801(8)
_cell_length_c                   7.473(2)
_cell_angle_alpha                90.00
_cell_angle_beta                 90.00
_cell_angle_gamma                120.00
_cell_volume                     5368(2)
_cell_formula_units_Z            6
_cell_measurement_temperature    173(2)
_cell_measurement_reflns_used    3034
_cell_measurement_theta_min      2.45
_cell_measurement_theta_max      27.88

_exptl_crystal_description       block
_exptl_crystal_colour            colourless
_exptl_crystal_size_max          0.14
_exptl_crystal_size_mid          0.07
_exptl_crystal_size_min          0.06
_exptl_crystal_density_meas      none
_exptl_crystal_density_diffrn    1.688
_exptl_crystal_density_method    'not measured'
_exptl_crystal_F_000             2754
_exptl_absorpt_coefficient_mu    1.123
_exptl_absorpt_correction_type   multi-scan
_exptl_absorpt_correction_T_min  0.8587
_exptl_absorpt_correction_T_max  0.9357
_exptl_absorpt_process_details   sadabs

_exptl_special_details           
;
?
;

_diffrn_ambient_temperature      173(2)
_diffrn_radiation_wavelength     0.71073
_diffrn_radiation_type           MoK\a
_diffrn_radiation_source         'fine-focus sealed tube'
_diffrn_radiation_monochromator  graphite
_diffrn_measurement_device_type  'Bruker APEX-II CCD'
_diffrn_measurement_method       '\f and \w scans'
_diffrn_detector_area_resol_mean ?
_diffrn_standards_number         0
_diffrn_standards_interval_count ?
_diffrn_standards_interval_time  ?
_diffrn_standards_decay_%        ?
_diffrn_reflns_number            8814
_diffrn_reflns_av_R_equivalents  0.0568
_diffrn_reflns_av_sigmaI/netI    0.0453
_diffrn_reflns_limit_h_min       -34
_diffrn_reflns_limit_h_max       33
_diffrn_reflns_limit_k_min       -28
_diffrn_reflns_limit_k_max       34
_diffrn_reflns_limit_l_min       -6
_diffrn_reflns_limit_l_max       8
_diffrn_reflns_theta_min         1.41
_diffrn_reflns_theta_max         24.99
_reflns_number_total             2067
_reflns_number_gt                1705
_reflns_threshold_expression     >2sigma(I)

_computing_data_collection       'Bruker APEX2'
_computing_cell_refinement       'Bruker SAINT'
_computing_data_reduction        'Bruker SAINT'
_computing_structure_solution    'SHELXS-97 (Sheldrick, 1990)'
_computing_structure_refinement  'SHELXL-97 (Sheldrick, 1997)'
_computing_molecular_graphics    'Bruker SHELXTL'
_computing_publication_material  'Bruker SHELXTL'

_refine_special_details          
;
Refinement of F^2^ against ALL reflections. The weighted R-factor wR and
goodness of fit S are based on F^2^, conventional R-factors R are based
on F, with F set to zero for negative F^2^. The threshold expression of
F^2^ > 2sigma(F^2^) is used only for calculating R-factors(gt) etc. and is
not relevant to the choice of reflections for refinement. R-factors based
on F^2^ are statistically about twice as large as those based on F, and R-
factors based on ALL data will be even larger.
;

_refine_ls_structure_factor_coef Fsqd
_refine_ls_matrix_type           full
_refine_ls_weighting_scheme      calc
_refine_ls_weighting_details     
'calc w=1/[\s^2^(Fo^2^)+(0.0444P)^2^+19.7915P] where P=(Fo^2^+2Fc^2^)/3'
_atom_sites_solution_primary     direct
_atom_sites_solution_secondary   difmap
_atom_sites_solution_hydrogens   geom
_refine_ls_hydrogen_treatment    constr
_refine_ls_extinction_method     none
_refine_ls_extinction_coef       ?
_refine_ls_number_reflns         2067
_refine_ls_number_parameters     172
_refine_ls_number_restraints     0
_refine_ls_R_factor_all          0.0517
_refine_ls_R_factor_gt           0.0386
_refine_ls_wR_factor_ref         0.1024
_refine_ls_wR_factor_gt          0.0953
_refine_ls_goodness_of_fit_ref   1.070
_refine_ls_restrained_S_all      1.070
_refine_ls_shift/su_max          0.001
_refine_ls_shift/su_mean         0.000

loop_
_atom_site_label
_atom_site_type_symbol
_atom_site_fract_x
_atom_site_fract_y
_atom_site_fract_z
_atom_site_U_iso_or_equiv
_atom_site_adp_type
_atom_site_occupancy
_atom_site_symmetry_multiplicity
_atom_site_calc_flag
_atom_site_refinement_flags
_atom_site_disorder_assembly
_atom_site_disorder_group
Mn1 Mn 0.559113(18) 1.024224(19) 0.73532(6) 0.01728(18) Uani 1 1 d . . .
N1 N 0.56551(11) 0.96216(11) 1.0860(3) 0.0207(6) Uani 1 1 d . . .
H1 H 0.5512 0.9775 1.1497 0.025 Uiso 1 1 calc R . .
N2 N 0.57618(11) 0.96963(11) 0.9076(3) 0.0205(6) Uani 1 1 d . . .
N3 N 0.60011(11) 0.91271(11) 1.0182(3) 0.0201(6) Uani 1 1 d . . .
N4 N 0.61606(14) 0.93661(14) 0.7140(4) 0.0404(8) Uani 1 1 d . . .
H4A H 0.6051 0.9444 0.6112 0.048 Uiso 1 1 d R . .
H4B H 0.6233 0.9098 0.7018 0.048 Uiso 1 1 d R . .
O1 O 0.53810(9) 0.96532(9) 0.5209(3) 0.0213(5) Uani 1 1 d . . .
O2 O 0.45373(9) 0.92271(9) 0.4233(3) 0.0249(5) Uani 1 1 d . . .
O3 O 0.47491(9) 0.97470(8) 0.8090(3) 0.0193(5) Uani 1 1 d . . .
O4 O 0.42525(9) 0.92498(9) 1.0344(3) 0.0228(5) Uani 1 1 d . . .
C1 C 0.59686(12) 0.93901(13) 0.8731(4) 0.0192(7) Uani 1 1 d . . .
C2 C 0.57981(13) 0.92880(14) 1.1482(4) 0.0224(7) Uani 1 1 d . . .
H2 H 0.5762 0.9176 1.2694 0.027 Uiso 1 1 calc R . .
C3 C 0.47515(12) 0.88378(13) 0.6599(4) 0.0189(7) Uani 1 1 d . . .
C4 C 0.45714(12) 0.88508(13) 0.8314(4) 0.0187(7) Uani 1 1 d . . .
C5 C 0.44431(14) 0.84293(14) 0.9483(5) 0.0251(8) Uani 1 1 d . . .
H5 H 0.4321 0.8438 1.0656 0.030 Uiso 1 1 calc R . .
C6 C 0.44925(15) 0.79967(14) 0.8949(5) 0.0297(8) Uani 1 1 d . . .
H6 H 0.4410 0.7711 0.9759 0.036 Uiso 1 1 calc R . .
C7 C 0.46612(14) 0.79807(14) 0.7247(5) 0.0288(8) Uani 1 1 d . . .
H7 H 0.4687 0.7679 0.6873 0.035 Uiso 1 1 calc R . .
C8 C 0.47934(13) 0.83978(13) 0.6073(5) 0.0231(7) Uani 1 1 d . . .
H8 H 0.4914 0.8384 0.4900 0.028 Uiso 1 1 calc R . .
C9 C 0.49017(13) 0.92811(13) 0.5256(4) 0.0192(7) Uani 1 1 d . . .
C10 C 0.45170(13) 0.93091(13) 0.8972(4) 0.0190(7) Uani 1 1 d . . .

loop_
_atom_site_aniso_label
_atom_site_aniso_U_11
_atom_site_aniso_U_22
_atom_site_aniso_U_33
_atom_site_aniso_U_23
_atom_site_aniso_U_13
_atom_site_aniso_U_12
Mn1 0.0150(3) 0.0176(3) 0.0196(3) 0.00220(19) 0.00138(18) 0.0084(2)
N1 0.0234(15) 0.0236(15) 0.0203(14) -0.0024(11) -0.0006(11) 0.0156(13)
N2 0.0208(15) 0.0230(15) 0.0201(14) 0.0007(11) -0.0001(11) 0.0129(13)
N3 0.0211(15) 0.0203(14) 0.0220(14) 0.0011(11) -0.0004(11) 0.0126(12)
N4 0.051(2) 0.050(2) 0.0340(18) 0.0041(15) 0.0029(15) 0.0353(19)
O1 0.0226(13) 0.0206(12) 0.0181(11) 0.0011(9) 0.0025(9) 0.0087(11)
O2 0.0290(13) 0.0191(12) 0.0253(12) 0.0005(9) -0.0079(10) 0.0112(11)
O3 0.0192(12) 0.0176(12) 0.0223(12) 0.0041(9) 0.0033(9) 0.0101(10)
O4 0.0249(13) 0.0213(12) 0.0201(12) 0.0005(9) 0.0056(10) 0.0100(10)
C1 0.0158(16) 0.0206(17) 0.0222(17) 0.0000(13) -0.0007(13) 0.0099(14)
C2 0.0257(18) 0.0263(18) 0.0186(16) 0.0013(13) -0.0003(13) 0.0157(16)
C3 0.0136(16) 0.0181(17) 0.0255(17) 0.0011(13) -0.0020(13) 0.0083(14)
C4 0.0169(16) 0.0205(17) 0.0190(15) 0.0019(12) -0.0008(12) 0.0096(14)
C5 0.0273(19) 0.0236(18) 0.0240(18) 0.0033(14) 0.0032(14) 0.0123(16)
C6 0.033(2) 0.0235(19) 0.036(2) 0.0113(15) 0.0068(16) 0.0169(17)
C7 0.030(2) 0.0245(19) 0.038(2) 0.0031(15) 0.0050(16) 0.0179(17)
C8 0.0219(18) 0.0199(17) 0.0280(18) 0.0000(13) 0.0028(13) 0.0109(15)
C9 0.0267(19) 0.0180(17) 0.0167(15) -0.0021(12) -0.0016(13) 0.0139(16)
C10 0.0169(16) 0.0210(17) 0.0190(16) -0.0006(13) -0.0024(13) 0.0094(14)

_geom_special_details            
;
All esds (except the esd in the dihedral angle between two l.s. planes)
are estimated using the full covariance matrix. The cell esds are taken
into account individually in the estimation of esds in distances, angles
and torsion angles; correlations between esds in cell parameters are only
used when they are defined by crystal symmetry. An approximate (isotropic)
treatment of cell esds is used for estimating esds involving l.s. planes.
;

loop_
_geom_bond_atom_site_label_1
_geom_bond_atom_site_label_2
_geom_bond_distance
_geom_bond_site_symmetry_2
_geom_bond_publ_flag
Mn1 O2 2.108(2) 10_676 ?
Mn1 O4 2.155(2) 10_677 ?
Mn1 O3 2.182(2) . ?
Mn1 O1 2.187(2) . ?
Mn1 N3 2.199(3) 9_564 ?
Mn1 N2 2.268(3) . ?
N1 C2 1.306(4) . ?
N1 N2 1.361(4) . ?
N1 H1 0.8800 . ?
N2 C1 1.313(4) . ?
N3 C2 1.331(4) . ?
N3 C1 1.352(4) . ?
N3 Mn1 2.198(3) 5_665 ?
N4 C1 1.328(5) . ?
N4 H4A 0.8998 . ?
N4 H4B 0.9002 . ?
O1 C9 1.255(4) . ?
O2 C9 1.244(4) . ?
O2 Mn1 2.108(2) 10_676 ?
O3 C10 1.276(4) . ?
O4 C10 1.237(4) . ?
O4 Mn1 2.155(2) 10_677 ?
C2 H2 0.9500 . ?
C3 C8 1.389(5) . ?
C3 C4 1.390(4) . ?
C3 C9 1.508(4) . ?
C4 C5 1.387(5) . ?
C4 C10 1.488(4) . ?
C5 C6 1.381(5) . ?
C5 H5 0.9500 . ?
C6 C7 1.371(5) . ?
C6 H6 0.9500 . ?
C7 C8 1.379(5) . ?
C7 H7 0.9500 . ?
C8 H8 0.9500 . ?

loop_
_geom_angle_atom_site_label_1
_geom_angle_atom_site_label_2
_geom_angle_atom_site_label_3
_geom_angle
_geom_angle_site_symmetry_1
_geom_angle_site_symmetry_3
_geom_angle_publ_flag
O2 Mn1 O4 90.54(9) 10_676 10_677 ?
O2 Mn1 O3 94.32(9) 10_676 . ?
O4 Mn1 O3 91.67(9) 10_677 . ?
O2 Mn1 O1 93.99(9) 10_676 . ?
O4 Mn1 O1 173.80(9) 10_677 . ?
O3 Mn1 O1 83.78(8) . . ?
O2 Mn1 N3 93.72(10) 10_676 9_564 ?
O4 Mn1 N3 88.09(9) 10_677 9_564 ?
O3 Mn1 N3 171.96(9) . 9_564 ?
O1 Mn1 N3 95.83(9) . 9_564 ?
O2 Mn1 N2 177.83(10) 10_676 . ?
O4 Mn1 N2 88.47(9) 10_677 . ?
O3 Mn1 N2 87.64(9) . . ?
O1 Mn1 N2 87.13(9) . . ?
N3 Mn1 N2 84.32(10) 9_564 . ?
C2 N1 N2 109.6(3) . . ?
C2 N1 H1 125.2 . . ?
N2 N1 H1 125.2 . . ?
C1 N2 N1 103.2(2) . . ?
C1 N2 Mn1 133.0(2) . . ?
N1 N2 Mn1 123.75(19) . . ?
C2 N3 C1 103.0(3) . . ?
C2 N3 Mn1 123.1(2) . 5_665 ?
C1 N3 Mn1 132.7(2) . 5_665 ?
C1 N4 H4A 123.1 . . ?
C1 N4 H4B 114.6 . . ?
H4A N4 H4B 112.7 . . ?
C9 O1 Mn1 113.67(19) . . ?
C9 O2 Mn1 134.3(2) . 10_676 ?
C10 O3 Mn1 129.7(2) . . ?
C10 O4 Mn1 131.5(2) . 10_677 ?
N2 C1 N4 123.4(3) . . ?
N2 C1 N3 113.6(3) . . ?
N4 C1 N3 122.8(3) . . ?
N1 C2 N3 110.6(3) . . ?
N1 C2 H2 124.7 . . ?
N3 C2 H2 124.7 . . ?
C8 C3 C4 119.3(3) . . ?
C8 C3 C9 117.7(3) . . ?
C4 C3 C9 123.0(3) . . ?
C5 C4 C3 119.8(3) . . ?
C5 C4 C10 117.9(3) . . ?
C3 C4 C10 122.3(3) . . ?
C6 C5 C4 120.3(3) . . ?
C6 C5 H5 119.8 . . ?
C4 C5 H5 119.8 . . ?
C7 C6 C5 119.8(3) . . ?
C7 C6 H6 120.1 . . ?
C5 C6 H6 120.1 . . ?
C6 C7 C8 120.6(3) . . ?
C6 C7 H7 119.7 . . ?
C8 C7 H7 119.7 . . ?
C7 C8 C3 120.2(3) . . ?
C7 C8 H8 119.9 . . ?
C3 C8 H8 119.9 . . ?
O2 C9 O1 126.0(3) . . ?
O2 C9 C3 115.9(3) . . ?
O1 C9 C3 118.0(3) . . ?
O4 C10 O3 123.1(3) . . ?
O4 C10 C4 118.8(3) . . ?
O3 C10 C4 118.1(3) . . ?

loop_
_geom_torsion_atom_site_label_1
_geom_torsion_atom_site_label_2
_geom_torsion_atom_site_label_3
_geom_torsion_atom_site_label_4
_geom_torsion
_geom_torsion_site_symmetry_1
_geom_torsion_site_symmetry_2
_geom_torsion_site_symmetry_3
_geom_torsion_site_symmetry_4
_geom_torsion_publ_flag
C2 N1 N2 C1 0.1(3) . . . . ?
C2 N1 N2 Mn1 -179.8(2) . . . . ?
O2 Mn1 N2 C1 -85(3) 10_676 . . . ?
O4 Mn1 N2 C1 -148.0(3) 10_677 . . . ?
O3 Mn1 N2 C1 120.2(3) . . . . ?
O1 Mn1 N2 C1 36.4(3) . . . . ?
N3 Mn1 N2 C1 -59.8(3) 9_564 . . . ?
O2 Mn1 N2 N1 95(3) 10_676 . . . ?
O4 Mn1 N2 N1 31.9(2) 10_677 . . . ?
O3 Mn1 N2 N1 -59.9(2) . . . . ?
O1 Mn1 N2 N1 -143.8(2) . . . . ?
N3 Mn1 N2 N1 120.1(2) 9_564 . . . ?
O2 Mn1 O1 C9 -95.7(2) 10_676 . . . ?
O4 Mn1 O1 C9 41.2(9) 10_677 . . . ?
O3 Mn1 O1 C9 -1.8(2) . . . . ?
N3 Mn1 O1 C9 170.2(2) 9_564 . . . ?
N2 Mn1 O1 C9 86.2(2) . . . . ?
O2 Mn1 O3 C10 174.2(3) 10_676 . . . ?
O4 Mn1 O3 C10 -95.1(3) 10_677 . . . ?
O1 Mn1 O3 C10 80.7(3) . . . . ?
N3 Mn1 O3 C10 -7.0(8) 9_564 . . . ?
N2 Mn1 O3 C10 -6.7(3) . . . . ?
N1 N2 C1 N4 -176.0(3) . . . . ?
Mn1 N2 C1 N4 3.9(5) . . . . ?
N1 N2 C1 N3 -0.1(4) . . . . ?
Mn1 N2 C1 N3 179.8(2) . . . . ?
C2 N3 C1 N2 0.1(4) . . . . ?
Mn1 N3 C1 N2 -167.0(2) 5_665 . . . ?
C2 N3 C1 N4 176.0(3) . . . . ?
Mn1 N3 C1 N4 8.9(5) 5_665 . . . ?
N2 N1 C2 N3 -0.1(4) . . . . ?
C1 N3 C2 N1 0.0(4) . . . . ?
Mn1 N3 C2 N1 168.7(2) 5_665 . . . ?
C8 C3 C4 C5 0.9(5) . . . . ?
C9 C3 C4 C5 -179.7(3) . . . . ?
C8 C3 C4 C10 179.9(3) . . . . ?
C9 C3 C4 C10 -0.6(5) . . . . ?
C3 C4 C5 C6 -0.1(5) . . . . ?
C10 C4 C5 C6 -179.2(3) . . . . ?
C4 C5 C6 C7 -1.0(6) . . . . ?
C5 C6 C7 C8 1.4(6) . . . . ?
C6 C7 C8 C3 -0.7(5) . . . . ?
C4 C3 C8 C7 -0.5(5) . . . . ?
C9 C3 C8 C7 -180.0(3) . . . . ?
Mn1 O2 C9 O1 -24.0(5) 10_676 . . . ?
Mn1 O2 C9 C3 159.6(2) 10_676 . . . ?
Mn1 O1 C9 O2 105.7(3) . . . . ?
Mn1 O1 C9 C3 -78.0(3) . . . . ?
C8 C3 C9 O2 87.2(4) . . . . ?
C4 C3 C9 O2 -92.3(4) . . . . ?
C8 C3 C9 O1 -89.5(4) . . . . ?
C4 C3 C9 O1 91.0(4) . . . . ?
Mn1 O4 C10 O3 -44.3(4) 10_677 . . . ?
Mn1 O4 C10 C4 135.4(2) 10_677 . . . ?
Mn1 O3 C10 O4 123.6(3) . . . . ?
Mn1 O3 C10 C4 -56.1(4) . . . . ?
C5 C4 C10 O4 -16.0(4) . . . . ?
C3 C4 C10 O4 164.9(3) . . . . ?
C5 C4 C10 O3 163.7(3) . . . . ?
C3 C4 C10 O3 -15.4(5) . . . . ?

_diffrn_measured_fraction_theta_max 0.983
_diffrn_reflns_theta_full        24.99
_diffrn_measured_fraction_theta_full 0.983
_refine_diff_density_max         1.201
_refine_diff_density_min         -0.385
_refine_diff_density_rms         0.078
