####################################################################### 
# 
# This file contains crystal structure data downloaded from the 
# Cambridge Structural Database (CSD) hosted by the Cambridge 
# Crystallographic Data Centre (CCDC).
# 
# Full information about CCDC data access policies and citation 
# guidelines are available at http://www.ccdc.cam.ac.uk/access/V1 
# 
# Audit and citation data items may have been added by the CCDC. 
# Please retain this information to preserve the provenance of 
# this file and to allow appropriate attribution of the data. 
# 
#######################################################################

data_DEYDOA
#This CIF has been generated from an entry in the Cambridge Structural Database
_database_code_depnum_ccdc_archive 'CCDC 1139700'
_database_code_CSD               DEYDOA
loop_
_citation_id
_citation_doi
_citation_year
1 10.1007/BF00663275 1984
_audit_creation_method           'Created from the CSD'
_audit_update_record             
;
2024-07-09 downloaded from the CCDC.
;
_database_code_NBS               562781
_chemical_formula_moiety         '(C10 H16 Cd1 N6 Ni1)n,n(C7 H9 N1)'
_chemical_name_systematic        
'catena-(1,6-Diamino-hexane-cadmium(ii))-tetracyano-nickel(ii) o-toluidine clathrate'
_chemical_absolute_configuration unk
_diffrn_ambient_temperature      295
_exptl_crystal_density_diffrn    1.61842
#These two values have been output from a single CSD field.
_refine_ls_R_factor_gt           0.033
_refine_ls_wR_factor_gt          0.033
_diffrn_radiation_probe          x-ray
_symmetry_cell_setting           monoclinic
_symmetry_space_group_name_H-M   'P 2/m'
_symmetry_Int_Tables_number      10
_space_group_name_Hall           '-P 2y'
loop_
_symmetry_equiv_pos_site_id
_symmetry_equiv_pos_as_xyz
1 x,y,z
2 -x,y,-z
3 -x,-y,-z
4 x,-y,z
_cell_length_a                   9.541(2)
_cell_length_b                   7.569(2)
_cell_length_c                   7.199(1)
_cell_angle_alpha                90
_cell_angle_beta                 100.3(1)
_cell_angle_gamma                90
_cell_volume                     511.504
_cell_formula_units_Z            1
loop_
_atom_site_label
_atom_site_type_symbol
_atom_site_fract_x
_atom_site_fract_y
_atom_site_fract_z
Cd1 Cd 0.00000 0.00000 0.00000
Ni1 Ni 0.00000 0.50000 0.50000
N1 N 0.0636(5) 0.2211(5) 0.2313(5)
N2 N -0.2308(6) 0.00000 0.0594(7)
C1 C 0.0418(4) 0.3268(5) 0.3350(5)
C2 C -0.2523(7) 0.00000 0.2595(9)
C3 C -0.4068(7) 0.00000 0.2786(8)
C4 C -0.4242(7) 0.00000 0.486(1)
H1 H -0.28422 -0.11610 -0.00814
H2 H -0.20155 -0.11610 0.33003
H3 H -0.45835 -0.11610 0.20900
H4 H -0.37177 -0.11610 0.55465
N1B N -0.0636(5) -0.2211(5) -0.2313(5)
N1A N -0.0636(5) 0.2211(5) -0.2313(5)
N1C N 0.0636(5) -0.2211(5) 0.2313(5)
N2B N 0.2308(6) 0.00000 -0.0594(7)
H1C H -0.28422 0.11610 -0.00814
C1B C -0.0418(4) 0.6732(5) 0.6650(5)
C1A C -0.0418(4) 0.3268(5) 0.6650(5)
C1C C 0.0418(4) 0.6732(5) 0.3350(5)
H2C H -0.20155 0.11610 0.33003
H3C H -0.45835 0.11610 0.20900
C4B C -0.5758(7) 0.00000 0.514(1)
H4C H -0.37177 0.11610 0.55465
H1B H 0.28422 0.11610 0.00814
H1A H 0.28422 -0.11610 0.00814
N1B N -0.0636(5) 0.7789(5) 0.7687(5)
N1A N -0.0636(5) 0.2211(5) 0.7687(5)
N1C N 0.0636(5) 0.7789(5) 0.2313(5)
C3B C -0.5932(7) 0.00000 0.7214(8)
H4B H -0.62823 0.11610 0.44535
H4A H -0.62823 -0.11610 0.44535
C2B C -0.7477(7) 0.00000 0.7405(9)
H3B H -0.54165 0.11610 0.79100
H3A H -0.54165 -0.11610 0.79100
Cd1 Cd 0.00000 1.00000 1.00000
Cd1 Cd 0.00000 0.00000 1.00000
Cd1 Cd 0.00000 1.00000 0.00000
N2A N -0.7692(6) 0.00000 0.9406(7)
H2A H -0.79845 -0.11610 0.66997
H2B H -0.79845 0.11610 0.66997
Cd1 Cd -1.00000 0.00000 1.00000
H1A H -0.71578 -0.11610 1.00814
H1B H -0.71578 0.11610 1.00814

#END
