####################################################################### 
# 
# This file contains crystal structure data downloaded from the 
# Cambridge Structural Database (CSD) hosted by the Cambridge 
# Crystallographic Data Centre (CCDC).
# 
# Full information about CCDC data access policies and citation 
# guidelines are available at http://www.ccdc.cam.ac.uk/access/V1 
# 
# Audit and citation data items may have been added by the CCDC. 
# Please retain this information to preserve the provenance of 
# this file and to allow appropriate attribution of the data. 
# 
#######################################################################

data_120325g
_audit_block_doi                 10.5517/cczhp26
_database_code_depnum_ccdc_archive 'CCDC 908798'
loop_
_citation_id
_citation_doi
_citation_year
1 10.1007/s11243-012-9688-y 2013
_audit_update_record             
;
2012-11-01 deposited with the CCDC.	2024-07-09 downloaded from the CCDC.
;
#TrackingRef '3.cif'


_audit_creation_method           SHELXL-97
_chemical_name_systematic        
;
?
;
_chemical_name_common            ?
_chemical_melting_point          ?
_chemical_formula_moiety         ?
_chemical_formula_sum            'C40 H48 Ag2 N4 O11'
_chemical_formula_weight         976.56

loop_
_atom_type_symbol
_atom_type_description
_atom_type_scat_dispersion_real
_atom_type_scat_dispersion_imag
_atom_type_scat_source
C C 0.0033 0.0016 'International Tables Vol C Tables 4.2.6.8 and 6.1.1.4'
H H 0.0000 0.0000 'International Tables Vol C Tables 4.2.6.8 and 6.1.1.4'
N N 0.0061 0.0033 'International Tables Vol C Tables 4.2.6.8 and 6.1.1.4'
O O 0.0106 0.0060 'International Tables Vol C Tables 4.2.6.8 and 6.1.1.4'
Ag Ag -0.8971 1.1015 'International Tables Vol C Tables 4.2.6.8 and 6.1.1.4'

_symmetry_cell_setting           Monoclinic
_symmetry_space_group_name_H-M   P2(1)/c

loop_
_symmetry_equiv_pos_as_xyz
'x, y, z'
'-x, y+1/2, -z+1/2'
'-x, -y, -z'
'x, -y-1/2, z-1/2'

_cell_length_a                   18.4823(19)
_cell_length_b                   24.555(3)
_cell_length_c                   9.1493(8)
_cell_angle_alpha                90.00
_cell_angle_beta                 96.7120(10)
_cell_angle_gamma                90.00
_cell_volume                     4123.7(7)
_cell_formula_units_Z            4
_cell_measurement_temperature    298(2)
_cell_measurement_reflns_used    5456
_cell_measurement_theta_min      2.89
_cell_measurement_theta_max      26.413

_exptl_crystal_description       block
_exptl_crystal_colour            colorless
_exptl_crystal_size_max          0.45
_exptl_crystal_size_mid          0.21
_exptl_crystal_size_min          0.14
_exptl_crystal_density_meas      ?
_exptl_crystal_density_diffrn    ?
_exptl_crystal_density_method    'not measured'
_exptl_crystal_F_000             1992
_exptl_absorpt_coefficient_mu    1.013
_exptl_absorpt_correction_type   multi-scan
_exptl_absorpt_correction_T_min  0.6585
_exptl_absorpt_correction_T_max  0.8711
_exptl_absorpt_process_details   sadabs

_exptl_special_details           
;
?
;

_diffrn_ambient_temperature      298(2)
_diffrn_radiation_wavelength     0.71073
_diffrn_radiation_type           MoK\a
_diffrn_radiation_source         'fine-focus sealed tube'
_diffrn_radiation_monochromator  graphite
_diffrn_measurement_device_type  'CCD area detector'
_diffrn_measurement_method       'phi and omega scans'
_diffrn_detector_area_resol_mean ?
_diffrn_standards_number         ?
_diffrn_standards_interval_count ?
_diffrn_standards_interval_time  ?
_diffrn_standards_decay_%        ?
_diffrn_reflns_number            20424
_diffrn_reflns_av_R_equivalents  0.0708
_diffrn_reflns_av_sigmaI/netI    0.0763
_diffrn_reflns_limit_h_min       -21
_diffrn_reflns_limit_h_max       13
_diffrn_reflns_limit_k_min       -29
_diffrn_reflns_limit_k_max       26
_diffrn_reflns_limit_l_min       -10
_diffrn_reflns_limit_l_max       10
_diffrn_reflns_theta_min         2.37
_diffrn_reflns_theta_max         25.02
_reflns_number_total             7252
_reflns_number_gt                4529
_reflns_threshold_expression     >2sigma(I)

_computing_data_collection       'Bruker SMART'
_computing_cell_refinement       'Bruker SMART'
_computing_data_reduction        'Bruker SAINT'
_computing_structure_solution    'SHELXS-97 (Sheldrick, 1990)'
_computing_structure_refinement  'SHELXL-97 (Sheldrick, 1997)'
_computing_molecular_graphics    'Bruker SHELXTL'
_computing_publication_material  'Bruker SHELXTL'

_refine_special_details          
;
Refinement of F^2^ against ALL reflections. The weighted R-factor wR and
goodness of fit S are based on F^2^, conventional R-factors R are based
on F, with F set to zero for negative F^2^. The threshold expression of
F^2^ > 2sigma(F^2^) is used only for calculating R-factors(gt) etc. and is
not relevant to the choice of reflections for refinement. R-factors based
on F^2^ are statistically about twice as large as those based on F, and R-
factors based on ALL data will be even larger.
;

_refine_ls_structure_factor_coef Fsqd
_refine_ls_matrix_type           full
_refine_ls_weighting_scheme      calc
_refine_ls_weighting_details     
'calc w=1/[\s^2^(Fo^2^)+(0.0338P)^2^+5.8920P] where P=(Fo^2^+2Fc^2^)/3'
_atom_sites_solution_primary     direct
_atom_sites_solution_secondary   difmap
_atom_sites_solution_hydrogens   geom
_refine_ls_hydrogen_treatment    constr
_refine_ls_extinction_method     none
_refine_ls_extinction_coef       ?
_refine_ls_number_reflns         7252
_refine_ls_number_parameters     514
_refine_ls_number_restraints     0
_refine_ls_R_factor_all          0.0884
_refine_ls_R_factor_gt           0.0466
_refine_ls_wR_factor_ref         0.1222
_refine_ls_wR_factor_gt          0.0988
_refine_ls_goodness_of_fit_ref   1.023
_refine_ls_restrained_S_all      1.023
_refine_ls_shift/su_max          0.001
_refine_ls_shift/su_mean         0.000

loop_
_atom_site_label
_atom_site_type_symbol
_atom_site_fract_x
_atom_site_fract_y
_atom_site_fract_z
_atom_site_U_iso_or_equiv
_atom_site_adp_type
_atom_site_occupancy
_atom_site_symmetry_multiplicity
_atom_site_calc_flag
_atom_site_refinement_flags
_atom_site_disorder_assembly
_atom_site_disorder_group
Ag1 Ag 0.49456(3) 0.518217(17) 0.82066(5) 0.05501(17) Uani 1 1 d . . .
Ag2 Ag 0.01643(3) 0.498132(17) 0.74433(5) 0.05242(16) Uani 1 1 d . . .
N1 N 0.5015(3) 0.58249(16) 0.9825(5) 0.0405(11) Uani 1 1 d . . .
N2 N 0.5034(2) 0.45820(16) 0.6496(5) 0.0386(11) Uani 1 1 d . . .
N3 N -0.0066(3) 0.55912(17) 0.9021(5) 0.0418(11) Uani 1 1 d . . .
N4 N 0.0192(2) 0.43547(16) 0.5811(5) 0.0390(11) Uani 1 1 d . . .
O1 O 0.7876(2) 0.35881(14) 0.5719(4) 0.0538(11) Uani 1 1 d . . .
O2 O 0.7335(2) 0.54976(15) 1.0203(5) 0.0524(10) Uani 1 1 d . . .
O3 O 0.7252(3) 0.59468(16) 0.8083(5) 0.0732(13) Uani 1 1 d . . .
O4 O 0.8073(2) 0.10710(14) 0.7081(5) 0.0542(11) Uani 1 1 d . . .
O5 O 0.6911(2) 0.11993(15) 0.7422(5) 0.0579(11) Uani 1 1 d . . .
O6 O 0.3505(2) 0.51304(14) 0.7847(5) 0.0618(12) Uani 1 1 d . . .
H6C H 0.3251 0.4960 0.8416 0.074 Uiso 1 1 d R . .
H6D H 0.3362 0.5459 0.7788 0.074 Uiso 1 1 d R . .
O7 O 0.1561(2) 0.50313(15) 0.7803(5) 0.0585(12) Uani 1 1 d . . .
H7C H 0.1880 0.4865 0.8382 0.070 Uiso 1 1 d R . .
H7D H 0.1667 0.5368 0.7819 0.070 Uiso 1 1 d R . .
O8 O 0.7597(3) 0.6364(2) 0.2203(6) 0.1017(18) Uani 1 1 d . . .
H8C H 0.7482 0.6331 0.3071 0.122 Uiso 1 1 d R . .
H8D H 0.7485 0.6072 0.1730 0.122 Uiso 1 1 d R . .
O9 O 0.7312(3) 0.6458(2) 0.5261(7) 0.121(2) Uani 1 1 d . . .
H9C H 0.7290 0.6272 0.6038 0.145 Uiso 1 1 d R . .
H9D H 0.7356 0.6792 0.5505 0.145 Uiso 1 1 d R . .
O10 O 0.6908(5) 0.7003(3) 0.8614(9) 0.202(4) Uani 1 1 d . . .
H10C H 0.7031 0.6674 0.8504 0.242 Uiso 1 1 d R . .
H10D H 0.7083 0.7108 0.9467 0.242 Uiso 1 1 d R . .
O11 O 0.7472(5) 0.7429(3) 0.1461(10) 0.226(5) Uani 1 1 d . . .
H11E H 0.7510 0.7096 0.1709 0.271 Uiso 1 1 d R . .
H11F H 0.7300 0.7604 0.2144 0.271 Uiso 1 1 d R . .
C1 C 0.5639(3) 0.6069(2) 1.0353(6) 0.0499(15) Uani 1 1 d . . .
H1 H 0.6075 0.5909 1.0165 0.060 Uiso 1 1 calc R . .
C2 C 0.5671(3) 0.6540(2) 1.1152(6) 0.0474(15) Uani 1 1 d . . .
H2 H 0.6120 0.6692 1.1494 0.057 Uiso 1 1 calc R . .
C3 C 0.5031(3) 0.6792(2) 1.1453(6) 0.0402(13) Uani 1 1 d . . .
C4 C 0.4387(3) 0.6535(2) 1.0916(6) 0.0450(14) Uani 1 1 d . . .
H4 H 0.3943 0.6685 1.1088 0.054 Uiso 1 1 calc R . .
C5 C 0.4403(3) 0.6058(2) 1.0128(6) 0.0467(14) Uani 1 1 d . . .
H5 H 0.3963 0.5892 0.9791 0.056 Uiso 1 1 calc R . .
C6 C 0.5655(3) 0.4411(2) 0.6049(6) 0.0439(14) Uani 1 1 d . . .
H6 H 0.6088 0.4555 0.6506 0.053 Uiso 1 1 calc R . .
C7 C 0.5695(3) 0.4033(2) 0.4954(6) 0.0453(14) Uani 1 1 d . . .
H7 H 0.6144 0.3932 0.4677 0.054 Uiso 1 1 calc R . .
C8 C 0.5060(3) 0.3805(2) 0.4268(6) 0.0414(14) Uani 1 1 d . . .
C9 C 0.4415(3) 0.3991(2) 0.4716(7) 0.0576(17) Uani 1 1 d . . .
H9 H 0.3974 0.3854 0.4278 0.069 Uiso 1 1 calc R . .
C10 C 0.4421(3) 0.4376(2) 0.5795(7) 0.0492(15) Uani 1 1 d . . .
H10 H 0.3978 0.4501 0.6052 0.059 Uiso 1 1 calc R . .
C11 C 0.5031(3) 0.7334(2) 1.2229(6) 0.0480(15) Uani 1 1 d . . .
H11A H 0.5479 0.7373 1.2885 0.058 Uiso 1 1 calc R . .
H11B H 0.4627 0.7347 1.2816 0.058 Uiso 1 1 calc R . .
C12 C 0.4962(3) 0.7803(2) 1.1118(6) 0.0486(15) Uani 1 1 d . . .
H12A H 0.5373 0.7793 1.0549 0.058 Uiso 1 1 calc R . .
H12B H 0.4522 0.7754 1.0443 0.058 Uiso 1 1 calc R . .
C13 C 0.4938(3) 0.8356(2) 1.1857(6) 0.0500(15) Uani 1 1 d . . .
H13A H 0.4502 0.8382 1.2348 0.060 Uiso 1 1 calc R . .
H13B H 0.5358 0.8395 1.2592 0.060 Uiso 1 1 calc R . .
C14 C 0.0486(3) 0.5839(2) 0.9830(6) 0.0467(15) Uani 1 1 d . . .
H14 H 0.0958 0.5722 0.9746 0.056 Uiso 1 1 calc R . .
C15 C 0.0387(3) 0.6257(2) 1.0781(6) 0.0469(15) Uani 1 1 d . . .
H15 H 0.0789 0.6417 1.1321 0.056 Uiso 1 1 calc R . .
C16 C -0.0305(3) 0.6443(2) 1.0941(6) 0.0387(13) Uani 1 1 d . . .
C17 C -0.0869(3) 0.6183(2) 1.0127(7) 0.0493(15) Uani 1 1 d . . .
H17 H -0.1347 0.6289 1.0200 0.059 Uiso 1 1 calc R . .
C18 C -0.0728(3) 0.5762(2) 0.9196(7) 0.0522(16) Uani 1 1 d . . .
H18 H -0.1122 0.5589 0.8664 0.063 Uiso 1 1 calc R . .
C19 C 0.0837(3) 0.4153(2) 0.5555(7) 0.0523(16) Uani 1 1 d . . .
H19 H 0.1257 0.4315 0.6018 0.063 Uiso 1 1 calc R . .
C20 C 0.0909(3) 0.3715(2) 0.4637(7) 0.0530(16) Uani 1 1 d . . .
H20 H 0.1370 0.3587 0.4506 0.064 Uiso 1 1 calc R . .
C21 C 0.0298(3) 0.3468(2) 0.3911(6) 0.0408(13) Uani 1 1 d . . .
C22 C -0.0366(3) 0.3688(2) 0.4145(6) 0.0425(14) Uani 1 1 d . . .
H22 H -0.0793 0.3543 0.3665 0.051 Uiso 1 1 calc R . .
C23 C -0.0398(3) 0.4122(2) 0.5087(6) 0.0436(14) Uani 1 1 d . . .
H23 H -0.0853 0.4261 0.5225 0.052 Uiso 1 1 calc R . .
C24 C -0.0421(3) 0.6928(2) 1.1911(6) 0.0482(15) Uani 1 1 d . . .
H24A H -0.0077 0.6915 1.2796 0.058 Uiso 1 1 calc R . .
H24B H -0.0910 0.6917 1.2199 0.058 Uiso 1 1 calc R . .
C25 C -0.0316(3) 0.74573(19) 1.1070(6) 0.0475(15) Uani 1 1 d . . .
H25A H 0.0158 0.7449 1.0712 0.057 Uiso 1 1 calc R . .
H25B H -0.0683 0.7477 1.0223 0.057 Uiso 1 1 calc R . .
C26 C 0.0367(3) 0.2966(2) 0.2989(6) 0.0485(15) Uani 1 1 d . . .
H26A H 0.0831 0.2970 0.2592 0.058 Uiso 1 1 calc R . .
H26B H -0.0018 0.2962 0.2172 0.058 Uiso 1 1 calc R . .
C27 C 0.7333(3) 0.5522(2) 0.8830(7) 0.0440(14) Uani 1 1 d . . .
C28 C 0.7453(3) 0.4995(2) 0.8008(6) 0.0385(13) Uani 1 1 d . . .
C29 C 0.7530(3) 0.4996(2) 0.6513(7) 0.0424(14) Uani 1 1 d . . .
H29 H 0.7497 0.5324 0.6000 0.051 Uiso 1 1 calc R . .
C30 C 0.7653(3) 0.4522(2) 0.5778(6) 0.0424(14) Uani 1 1 d . . .
H30 H 0.7703 0.4531 0.4779 0.051 Uiso 1 1 calc R . .
C31 C 0.7704(3) 0.40323(19) 0.6536(6) 0.0353(12) Uani 1 1 d . . .
C32 C 0.7629(3) 0.4018(2) 0.8031(6) 0.0387(13) Uani 1 1 d . . .
H32 H 0.7660 0.3690 0.8543 0.046 Uiso 1 1 calc R . .
C33 C 0.7507(3) 0.4500(2) 0.8742(6) 0.0393(13) Uani 1 1 d . . .
H33 H 0.7461 0.4492 0.9743 0.047 Uiso 1 1 calc R . .
C34 C 0.7520(3) 0.1360(2) 0.7146(6) 0.0398(13) Uani 1 1 d . . .
C35 C 0.7604(3) 0.1957(2) 0.6813(6) 0.0348(12) Uani 1 1 d . . .
C36 C 0.7053(3) 0.2332(2) 0.6953(7) 0.0489(15) Uani 1 1 d . . .
H36 H 0.6621 0.2214 0.7278 0.059 Uiso 1 1 calc R . .
C37 C 0.7132(3) 0.2877(2) 0.6622(7) 0.0506(16) Uani 1 1 d . . .
H37 H 0.6753 0.3120 0.6705 0.061 Uiso 1 1 calc R . .
C38 C 0.7774(3) 0.3058(2) 0.6168(6) 0.0395(13) Uani 1 1 d . . .
C39 C 0.8326(3) 0.2697(2) 0.6021(6) 0.0488(15) Uani 1 1 d . . .
H39 H 0.8760 0.2817 0.5708 0.059 Uiso 1 1 calc R . .
C40 C 0.8236(3) 0.2151(2) 0.6342(6) 0.0470(15) Uani 1 1 d . . .
H40 H 0.8613 0.1908 0.6236 0.056 Uiso 1 1 calc R . .

loop_
_atom_site_aniso_label
_atom_site_aniso_U_11
_atom_site_aniso_U_22
_atom_site_aniso_U_33
_atom_site_aniso_U_23
_atom_site_aniso_U_13
_atom_site_aniso_U_12
Ag1 0.0839(4) 0.0309(2) 0.0524(3) -0.0045(2) 0.0172(3) 0.0076(2)
Ag2 0.0786(4) 0.0314(2) 0.0489(3) -0.0045(2) 0.0142(2) -0.0003(2)
N1 0.059(3) 0.026(2) 0.038(3) 0.002(2) 0.007(2) 0.008(2)
N2 0.048(3) 0.027(2) 0.042(3) 0.003(2) 0.013(2) 0.009(2)
N3 0.053(3) 0.032(2) 0.042(3) 0.003(2) 0.014(2) 0.002(2)
N4 0.050(3) 0.027(2) 0.039(3) 0.001(2) 0.003(2) -0.007(2)
O1 0.086(3) 0.026(2) 0.056(3) -0.0005(19) 0.036(2) 0.0014(18)
O2 0.064(3) 0.040(2) 0.055(3) -0.009(2) 0.010(2) 0.0045(18)
O3 0.118(4) 0.031(2) 0.072(3) 0.000(2) 0.015(3) 0.016(2)
O4 0.057(3) 0.033(2) 0.073(3) 0.002(2) 0.014(2) 0.0100(18)
O5 0.052(3) 0.037(2) 0.086(3) 0.005(2) 0.011(2) -0.0115(18)
O6 0.056(3) 0.038(2) 0.097(4) -0.002(2) 0.031(2) 0.0072(18)
O7 0.058(3) 0.037(2) 0.076(3) -0.008(2) -0.009(2) -0.0071(18)
O8 0.113(4) 0.083(4) 0.109(5) -0.034(3) 0.011(3) 0.006(3)
O9 0.112(5) 0.114(5) 0.145(6) 0.000(4) 0.047(4) -0.008(3)
O10 0.367(12) 0.077(5) 0.179(8) 0.003(5) 0.100(8) 0.002(6)
O11 0.388(14) 0.101(6) 0.206(10) -0.010(6) 0.104(9) -0.012(7)
C1 0.060(4) 0.042(4) 0.049(4) 0.005(3) 0.010(3) 0.016(3)
C2 0.051(4) 0.040(3) 0.052(4) 0.000(3) 0.010(3) 0.000(3)
C3 0.061(4) 0.029(3) 0.032(3) 0.007(2) 0.010(3) 0.004(3)
C4 0.050(4) 0.044(3) 0.044(4) 0.002(3) 0.018(3) 0.015(3)
C5 0.051(4) 0.043(3) 0.048(4) -0.001(3) 0.014(3) 0.002(3)
C6 0.042(3) 0.042(3) 0.048(4) -0.001(3) 0.005(3) 0.002(3)
C7 0.045(4) 0.036(3) 0.056(4) 0.000(3) 0.012(3) 0.007(3)
C8 0.061(4) 0.024(3) 0.040(3) 0.005(2) 0.013(3) -0.002(3)
C9 0.048(4) 0.051(4) 0.075(5) -0.018(4) 0.012(3) -0.010(3)
C10 0.044(4) 0.037(3) 0.068(4) -0.002(3) 0.013(3) 0.004(3)
C11 0.073(4) 0.040(3) 0.032(4) 0.000(3) 0.012(3) 0.009(3)
C12 0.085(4) 0.029(3) 0.033(3) 0.000(3) 0.013(3) 0.007(3)
C13 0.076(4) 0.033(3) 0.041(4) -0.003(3) 0.010(3) 0.001(3)
C14 0.049(4) 0.037(3) 0.055(4) -0.003(3) 0.009(3) 0.003(3)
C15 0.048(4) 0.045(3) 0.048(4) -0.008(3) 0.005(3) -0.003(3)
C16 0.055(4) 0.028(3) 0.036(3) 0.007(2) 0.016(3) -0.002(2)
C17 0.046(4) 0.042(3) 0.063(4) -0.003(3) 0.019(3) -0.001(3)
C18 0.049(4) 0.046(4) 0.063(4) -0.009(3) 0.012(3) -0.013(3)
C19 0.047(4) 0.045(4) 0.062(4) -0.005(3) -0.004(3) 0.000(3)
C20 0.049(4) 0.045(4) 0.065(4) -0.011(3) 0.006(3) 0.005(3)
C21 0.061(4) 0.032(3) 0.030(3) 0.007(2) 0.007(3) -0.004(3)
C22 0.049(4) 0.035(3) 0.043(4) 0.004(3) 0.003(3) -0.005(3)
C23 0.050(4) 0.038(3) 0.044(4) 0.004(3) 0.008(3) 0.002(3)
C24 0.072(4) 0.030(3) 0.046(4) 0.004(3) 0.023(3) 0.001(3)
C25 0.075(4) 0.028(3) 0.041(4) 0.004(3) 0.014(3) 0.002(3)
C26 0.074(4) 0.034(3) 0.038(3) -0.003(3) 0.009(3) -0.002(3)
C27 0.040(3) 0.032(3) 0.061(4) -0.003(3) 0.009(3) -0.001(2)
C28 0.032(3) 0.034(3) 0.048(4) 0.000(3) 0.001(2) 0.003(2)
C29 0.049(3) 0.024(3) 0.056(4) 0.007(3) 0.009(3) 0.000(2)
C30 0.048(3) 0.039(3) 0.041(3) 0.002(3) 0.008(3) 0.001(2)
C31 0.042(3) 0.023(3) 0.043(4) 0.000(2) 0.011(3) -0.001(2)
C32 0.050(3) 0.025(3) 0.041(4) 0.003(2) 0.003(3) -0.001(2)
C33 0.042(3) 0.041(3) 0.036(3) -0.001(3) 0.005(3) -0.001(2)
C34 0.055(4) 0.030(3) 0.035(3) -0.003(2) 0.005(3) -0.001(3)
C35 0.035(3) 0.032(3) 0.037(3) -0.003(2) 0.003(2) -0.004(2)
C36 0.045(3) 0.037(3) 0.068(4) -0.003(3) 0.020(3) -0.003(3)
C37 0.045(4) 0.030(3) 0.080(5) -0.005(3) 0.018(3) 0.009(2)
C38 0.052(4) 0.030(3) 0.038(3) -0.001(2) 0.013(3) -0.003(2)
C39 0.047(4) 0.040(3) 0.064(4) -0.003(3) 0.027(3) -0.003(3)
C40 0.040(3) 0.039(3) 0.064(4) 0.001(3) 0.012(3) 0.008(2)

_geom_special_details            
;
All esds (except the esd in the dihedral angle between two l.s. planes)
are estimated using the full covariance matrix. The cell esds are taken
into account individually in the estimation of esds in distances, angles
and torsion angles; correlations between esds in cell parameters are only
used when they are defined by crystal symmetry. An approximate (isotropic)
treatment of cell esds is used for estimating esds involving l.s. planes.
;

loop_
_geom_bond_atom_site_label_1
_geom_bond_atom_site_label_2
_geom_bond_distance
_geom_bond_site_symmetry_2
_geom_bond_publ_flag
Ag1 N1 2.158(4) . ?
Ag1 N2 2.170(4) . ?
Ag1 O6 2.647(4) . ?
Ag2 N4 2.149(4) . ?
Ag2 N3 2.156(4) . ?
Ag2 O7 2.566(4) . ?
N1 C5 1.324(6) . ?
N1 C1 1.339(7) . ?
N2 C6 1.331(6) . ?
N2 C10 1.334(7) . ?
N3 C18 1.321(7) . ?
N3 C14 1.334(7) . ?
N4 C23 1.335(6) . ?
N4 C19 1.338(7) . ?
O1 C31 1.380(6) . ?
O1 C38 1.385(6) . ?
O2 C27 1.257(7) . ?
O3 C27 1.246(6) . ?
O4 C34 1.251(6) . ?
O5 C34 1.245(6) . ?
O6 H6C 0.8501 . ?
O6 H6D 0.8499 . ?
O7 H7C 0.8499 . ?
O7 H7D 0.8500 . ?
O8 H8C 0.8500 . ?
O8 H8D 0.8500 . ?
O9 H9C 0.8500 . ?
O9 H9D 0.8502 . ?
O10 H10C 0.8499 . ?
O10 H10D 0.8501 . ?
O11 H11E 0.8499 . ?
O11 H11F 0.8500 . ?
C1 C2 1.366(7) . ?
C1 H1 0.9300 . ?
C2 C3 1.390(7) . ?
C2 H2 0.9300 . ?
C3 C4 1.385(7) . ?
C3 C11 1.508(7) . ?
C4 C5 1.377(7) . ?
C4 H4 0.9300 . ?
C5 H5 0.9300 . ?
C6 C7 1.373(7) . ?
C6 H6 0.9300 . ?
C7 C8 1.383(7) . ?
C7 H7 0.9300 . ?
C8 C9 1.382(8) . ?
C8 C13 1.509(7) 2_646 ?
C9 C10 1.366(8) . ?
C9 H9 0.9300 . ?
C10 H10 0.9300 . ?
C11 C12 1.532(7) . ?
C11 H11A 0.9700 . ?
C11 H11B 0.9700 . ?
C12 C13 1.519(7) . ?
C12 H12A 0.9700 . ?
C12 H12B 0.9700 . ?
C13 C8 1.509(7) 2_656 ?
C13 H13A 0.9700 . ?
C13 H13B 0.9700 . ?
C14 C15 1.373(7) . ?
C14 H14 0.9300 . ?
C