####################################################################### 
# 
# This file contains crystal structure data downloaded from the 
# Cambridge Structural Database (CSD) hosted by the Cambridge 
# Crystallographic Data Centre (CCDC).
# 
# Full information about CCDC data access policies and citation 
# guidelines are available at http://www.ccdc.cam.ac.uk/access/V1 
# 
# Audit and citation data items may have been added by the CCDC. 
# Please retain this information to preserve the provenance of 
# this file and to allow appropriate attribution of the data. 
# 
#######################################################################

data_1
_audit_block_doi                 10.5517/cczzywr
_database_code_depnum_ccdc_archive 'CCDC 923486'
loop_
_citation_id
_citation_doi
_citation_year
1 10.1016/j.inoche.2013.09.018 2013
_audit_update_record             
;
2013-02-05 deposited with the CCDC.	2024-07-09 downloaded from the CCDC.
;
#TrackingRef '17546_web_deposit_cif_file_0_HongqingHao_1360076883.hqhao_1.cif'


_audit_creation_method           SHELXL-97
_chemical_name_systematic        
;
?
;
_chemical_name_common            ?
_chemical_melting_point          ?
_chemical_formula_moiety         ?
_chemical_formula_sum            'C40 H48 Ag2 N4 O11'
_chemical_formula_weight         976.56

loop_
_atom_type_symbol
_atom_type_description
_atom_type_scat_dispersion_real
_atom_type_scat_dispersion_imag
_atom_type_scat_source
C C 0.0033 0.0016 'International Tables Vol C Tables 4.2.6.8 and 6.1.1.4'
H H 0.0000 0.0000 'International Tables Vol C Tables 4.2.6.8 and 6.1.1.4'
N N 0.0061 0.0033 'International Tables Vol C Tables 4.2.6.8 and 6.1.1.4'
O O 0.0106 0.0060 'International Tables Vol C Tables 4.2.6.8 and 6.1.1.4'
Ag Ag -0.8971 1.1015 'International Tables Vol C Tables 4.2.6.8 and 6.1.1.4'

_symmetry_cell_setting           monoclinic
_symmetry_space_group_name_H-M   P2(1)/c

loop_
_symmetry_equiv_pos_as_xyz
'x, y, z'
'-x, y+1/2, -z+1/2'
'-x, -y, -z'
'x, -y-1/2, z-1/2'

_cell_length_a                   18.365(3)
_cell_length_b                   24.337(4)
_cell_length_c                   9.0221(17)
_cell_angle_alpha                90.00
_cell_angle_beta                 96.940(4)
_cell_angle_gamma                90.00
_cell_volume                     4002.8(13)
_cell_formula_units_Z            4
_cell_measurement_temperature    273(2)
_cell_measurement_reflns_used    21691
_cell_measurement_theta_min      1.12
_cell_measurement_theta_max      26.00

_exptl_crystal_description       Block
_exptl_crystal_colour            colorless
_exptl_crystal_size_max          0.22
_exptl_crystal_size_mid          0.19
_exptl_crystal_size_min          0.18
_exptl_crystal_density_meas      'not measured'
_exptl_crystal_density_diffrn    1.621
_exptl_crystal_density_method    'not measured'
_exptl_crystal_F_000             1992
_exptl_absorpt_coefficient_mu    1.044
_exptl_absorpt_correction_type   empirical
_exptl_absorpt_correction_T_min  0.8029
_exptl_absorpt_correction_T_max  0.8344
_exptl_absorpt_process_details   'SADABS (Sheldrick, 1996)'

_exptl_special_details           
;
?
;

_diffrn_ambient_temperature      273(2)
_diffrn_radiation_wavelength     0.71073
_diffrn_radiation_type           MoK\a
_diffrn_radiation_source         'fine-focus sealed tube'
_diffrn_radiation_monochromator  graphite
_diffrn_measurement_device_type  'Smart Apex'
_diffrn_measurement_method       'phi and omega scan'
_diffrn_detector_area_resol_mean ?
_diffrn_standards_number         0
_diffrn_standards_interval_count ?
_diffrn_standards_interval_time  ?
_diffrn_standards_decay_%        0
_diffrn_reflns_number            21691
_diffrn_reflns_av_R_equivalents  0.0312
_diffrn_reflns_av_sigmaI/netI    0.0389
_diffrn_reflns_limit_h_min       -21
_diffrn_reflns_limit_h_max       22
_diffrn_reflns_limit_k_min       -30
_diffrn_reflns_limit_k_max       28
_diffrn_reflns_limit_l_min       -10
_diffrn_reflns_limit_l_max       11
_diffrn_reflns_theta_min         1.12
_diffrn_reflns_theta_max         26.00
_reflns_number_total             7823
_reflns_number_gt                7054
_reflns_threshold_expression     >2sigma(I)

_computing_data_collection       'SMART (Bruker,2001)'
_computing_cell_refinement       'SMART (Bruker,2001)'
_computing_data_reduction        'SMART (Bruker,2001)'
_computing_structure_solution    'SHELXS-97 (Sheldrick, 1990)'
_computing_structure_refinement  'SHELXL-97 (Sheldrick, 1997)'
_computing_molecular_graphics    'ORTEPII (Johnson, 1976)'
_computing_publication_material  'SHELXL97 (Sheldrick, 1997)'

_refine_special_details          
;
Refinement of F^2^ against ALL reflections. The weighted R-factor wR and
goodness of fit S are based on F^2^, conventional R-factors R are based
on F, with F set to zero for negative F^2^. The threshold expression of
F^2^ > 2sigma(F^2^) is used only for calculating R-factors(gt) etc. and is
not relevant to the choice of reflections for refinement. R-factors based
on F^2^ are statistically about twice as large as those based on F, and R-
factors based on ALL data will be even larger.
;

_refine_ls_structure_factor_coef Fsqd
_refine_ls_matrix_type           full
_refine_ls_weighting_scheme      calc
_refine_ls_weighting_details     
'calc w=1/[\s^2^(Fo^2^)+(0.0377P)^2^+3.0876P] where P=(Fo^2^+2Fc^2^)/3'
_atom_sites_solution_primary     direct
_atom_sites_solution_secondary   difmap
_atom_sites_solution_hydrogens   geom
_refine_ls_hydrogen_treatment    mixed
_refine_ls_extinction_method     none
_refine_ls_extinction_coef       ?
_refine_ls_number_reflns         7823
_refine_ls_number_parameters     562
_refine_ls_number_restraints     18
_refine_ls_R_factor_all          0.0490
_refine_ls_R_factor_gt           0.0426
_refine_ls_wR_factor_ref         0.0947
_refine_ls_wR_factor_gt          0.0918
_refine_ls_goodness_of_fit_ref   1.147
_refine_ls_restrained_S_all      1.146
_refine_ls_shift/su_max          0.001
_refine_ls_shift/su_mean         0.000

loop_
_atom_site_label
_atom_site_type_symbol
_atom_site_fract_x
_atom_site_fract_y
_atom_site_fract_z
_atom_site_U_iso_or_equiv
_atom_site_adp_type
_atom_site_occupancy
_atom_site_symmetry_multiplicity
_atom_site_calc_flag
_atom_site_refinement_flags
_atom_site_disorder_assembly
_atom_site_disorder_group
Ag1 Ag 0.005802(16) 0.482393(10) 0.68223(3) 0.02895(9) Uani 1 1 d . . .
N1 N -0.00106(15) 0.41876(11) 0.5158(3) 0.0225(6) Uani 1 1 d . . .
N2 N 0.00368(15) 0.04185(11) 0.6449(3) 0.0220(6) Uani 1 1 d . . .
C4 C 0.06355(19) 0.34794(13) 0.4050(4) 0.0249(7) Uani 1 1 d . . .
H4A H 0.1085 0.3330 0.3885 0.030 Uiso 1 1 calc R . .
C13 C 0.06736(18) 0.05851(13) 0.6021(4) 0.0245(7) Uani 1 1 d . . .
H13A H 0.1107 0.0435 0.6492 0.029 Uiso 1 1 calc R . .
C7 C 0.0067(2) 0.22130(13) 0.3816(4) 0.0250(7) Uani 1 1 d . . .
H7A H -0.0348 0.2221 0.4386 0.030 Uiso 1 1 calc R . .
H7B H 0.0509 0.2265 0.4507 0.030 Uiso 1 1 calc R . .
C2 C 0.06138(19) 0.39561(13) 0.4857(4) 0.0247(7) Uani 1 1 d . . .
H2A H 0.1055 0.4126 0.5211 0.030 Uiso 1 1 calc R . .
C11 C 0.07159(18) 0.09694(13) 0.4912(4) 0.0222(7) Uani 1 1 d . . .
H11A H 0.1170 0.1072 0.4645 0.027 Uiso 1 1 calc R . .
C10 C -0.05687(19) 0.10258(14) 0.4632(4) 0.0279(8) Uani 1 1 d . . .
H10A H -0.1008 0.1168 0.4170 0.033 Uiso 1 1 calc R . .
C5 C -0.00076(18) 0.32226(13) 0.3484(3) 0.0211(7) Uani 1 1 d . . .
C9 C 0.00852(18) 0.12020(12) 0.4200(4) 0.0208(7) Uani 1 1 d . . .
C8 C 0.01001(19) 0.16527(13) 0.3066(4) 0.0234(7) Uani 1 1 d . . .
H8A H -0.0315 0.1613 0.2299 0.028 Uiso 1 1 calc R . .
H8B H 0.0546 0.1626 0.2593 0.028 Uiso 1 1 calc R . .
C3 C -0.06539(19) 0.34734(13) 0.3750(4) 0.0250(7) Uani 1 1 d . . .
H3A H -0.1101 0.3323 0.3357 0.030 Uiso 1 1 calc R . .
C12 C -0.05761(19) 0.06390(14) 0.5748(4) 0.0267(8) Uani 1 1 d . . .
H12A H -0.1025 0.0528 0.6023 0.032 Uiso 1 1 calc R . .
C1 C -0.06388(19) 0.39437(13) 0.4592(4) 0.0250(7) Uani 1 1 d . . .
H1A H -0.1081 0.4100 0.4777 0.030 Uiso 1 1 calc R . .
C6 C -0.00043(19) 0.26826(13) 0.2693(4) 0.0239(7) Uani 1 1 d . . .
H6A H 0.0402 0.2671 0.2101 0.029 Uiso 1 1 calc R . .
H6B H -0.0456 0.2641 0.2024 0.029 Uiso 1 1 calc R . .
Ag2 Ag 0.485428(16) 0.502164(10) 0.75660(3) 0.02815(9) Uani 1 1 d . . .
N3 N 0.48306(15) 0.56512(11) 0.9221(3) 0.0232(6) Uani 1 1 d . . .
N4 N 0.49223(15) 0.94104(11) 0.9026(3) 0.0229(6) Uani 1 1 d . . .
C22 C 0.46864(19) 0.85653(13) 1.0996(4) 0.0230(7) Uani 1 1 d . . .
C17 C 0.53879(19) 0.63148(13) 1.0933(4) 0.0242(7) Uani 1 1 d . . .
H17A H 0.5815 0.6463 1.1433 0.029 Uiso 1 1 calc R . .
O2W O 0.34568(15) 0.49766(10) 0.7179(3) 0.0335(6) Uani 1 1 d D . .
C18 C 0.47148(18) 0.65302(13) 1.1156(4) 0.0214(7) Uani 1 1 d . . .
C19 C 0.4640(2) 0.70326(13) 1.2088(4) 0.0259(8) Uani 1 1 d . . .
H19A H 0.5025 0.7036 1.2925 0.031 Uiso 1 1 calc R . .
H19B H 0.4171 0.7026 1.2480 0.031 Uiso 1 1 calc R . .
C15 C 0.54258(19) 0.58815(13) 0.9974(4) 0.0249(7) Uani 1 1 d . . .
H15A H 0.5885 0.5742 0.9840 0.030 Uiso 1 1 calc R . .
C24 C 0.53816(19) 0.87495(14) 1.0840(4) 0.0271(8) Uani 1 1 d . . .
H24A H 0.5785 0.8593 1.1405 0.032 Uiso 1 1 calc R . .
C25 C 0.42518(19) 0.92384(14) 0.9190(4) 0.0286(8) Uani 1 1 d . . .
H25A H 0.3857 0.9408 0.8628 0.034 Uiso 1 1 calc R . .
C20 C 0.4694(2) 0.75473(13) 1.1147(4) 0.0278(8) Uani 1 1 d . . .
H20A H 0.5176 0.7559 1.0810 0.033 Uiso 1 1 calc R . .
H20B H 0.4334 0.7524 1.0270 0.033 Uiso 1 1 calc R . .
C16 C 0.41041(19) 0.62823(14) 1.0408(4) 0.0284(8) Uani 1 1 d . . .
H16A H 0.3639 0.6409 1.0542 0.034 Uiso 1 1 calc R . .
C26 C 0.5482(2) 0.91653(14) 0.9848(4) 0.0283(8) Uani 1 1 d . . .
H26A H 0.5957 0.9279 0.9748 0.034 Uiso 1 1 calc R . .
C14 C 0.41800(19) 0.58501(14) 0.9466(4) 0.0278(8) Uani 1 1 d . . .
H14A H 0.3759 0.5688 0.8977 0.033 Uiso 1 1 calc R . .
C21 C 0.4571(2) 0.80785(13) 1.1973(4) 0.0252(8) Uani 1 1 d . . .
H21A H 0.4076 0.8085 1.2244 0.030 Uiso 1 1 calc R . .
H21B H 0.4910 0.8098 1.2883 0.030 Uiso 1 1 calc R . .
C23 C 0.41095(19) 0.88233(14) 1.0147(4) 0.0280(8) Uani 1 1 d . . .
H23A H 0.3629 0.8717 1.0221 0.034 Uiso 1 1 calc R . .
O1 O 0.23274(13) 0.55142(9) 0.5218(3) 0.0252(5) Uani 1 1 d . . .
O3 O 0.30789(13) 0.10686(9) 0.2037(3) 0.0288(6) Uani 1 1 d . . .
O4 O 0.19174(13) 0.11975(9) 0.2435(3) 0.0300(6) Uani 1 1 d . . .
C32 C 0.26550(18) 0.45373(13) 0.0743(4) 0.0232(7) Uani 1 1 d . . .
H32A H 0.2705 0.4545 -0.0270 0.028 Uiso 1 1 calc R . .
C31 C 0.26287(18) 0.40317(13) 0.3022(4) 0.0224(7) Uani 1 1 d . . .
H31A H 0.2663 0.3700 0.3538 0.027 Uiso 1 1 calc R . .
O2 O 0.22550(15) 0.59734(9) 0.3085(3) 0.0345(6) Uani 1 1 d . . .
C39 C 0.26099(18) 0.19634(13) 0.1790(4) 0.0208(7) Uani 1 1 d . . .
C34 C 0.27808(19) 0.30679(13) 0.1144(4) 0.0227(7) Uani 1 1 d . . .
C35 C 0.21377(19) 0.28853(13) 0.1627(4) 0.0282(8) Uani 1 1 d . . .
H35A H 0.1759 0.3131 0.1730 0.034 Uiso 1 1 calc R . .
C38 C 0.32443(18) 0.21541(13) 0.1280(4) 0.0250(7) Uani 1 1 d . . .
H38A H 0.3618 0.1908 0.1150 0.030 Uiso 1 1 calc R . .
C33 C 0.27069(17) 0.40462(12) 0.1513(4) 0.0206(7) Uani 1 1 d . . .
C27 C 0.23315(17) 0.55425(13) 0.3826(4) 0.0228(7) Uani 1 1 d . . .
C36 C 0.33322(19) 0.27029(14) 0.0962(4) 0.0257(8) Uani 1 1 d . . .
H36A H 0.3763 0.2825 0.0627 0.031 Uiso 1 1 calc R . .
C30 C 0.25289(18) 0.50151(13) 0.1486(4) 0.0229(7) Uani 1 1 d . . .
H30A H 0.2494 0.5346 0.0965 0.027 Uiso 1 1 calc R . .
C37 C 0.20602(19) 0.23374(14) 0.1954(4) 0.0281(8) Uani 1 1 d . . .
H37A H 0.1629 0.2217 0.2293 0.034 Uiso 1 1 calc R . .
C40 C 0.25265(18) 0.13594(13) 0.2124(4) 0.0230(7) Uani 1 1 d . . .
C28 C 0.24530(17) 0.50142(12) 0.3003(4) 0.0201(7) Uani 1 1 d . . .
C29 C 0.24987(17) 0.45161(13) 0.3753(4) 0.0214(7) Uani 1 1 d . . .
H29A H 0.2441 0.4507 0.4763 0.026 Uiso 1 1 calc R . .
O3W O 0.23180(15) 0.64561(11) 0.0245(3) 0.0364(6) Uani 1 1 d D . .
O4W O 0.26456(16) 0.63848(11) 0.7233(3) 0.0391(7) Uani 1 1 d D . .
O1W O 0.15004(14) 0.48785(10) 0.7179(3) 0.0316(6) Uani 1 1 d D . .
O5 O 0.28908(14) 0.36002(9) 0.0698(3) 0.0283(6) Uani 1 1 d . . .
O5W O 0.17338(18) 0.70137(12) 0.3574(4) 0.0468(8) Uani 1 1 d D . .
O6W O 0.2323(3) 0.75538(13) 0.1375(4) 0.0730(12) Uani 1 1 d D . .
H4WA H 0.246(2) 0.6344(16) 0.802(3) 0.041(13) Uiso 1 1 d D . .
H5WA H 0.191(2) 0.6694(9) 0.353(4) 0.048(13) Uiso 1 1 d D . .
H3WA H 0.235(3) 0.6802(8) 0.044(4) 0.063(16) Uiso 1 1 d D . .
H4WB H 0.251(3) 0.6142(16) 0.660(4) 0.068(17) Uiso 1 1 d D . .
H3WB H 0.232(2) 0.6302(13) 0.110(3) 0.038(12) Uiso 1 1 d D . .
H5WB H 0.190(3) 0.7159(18) 0.440(4) 0.10(2) Uiso 1 1 d D . .
H6WA H 0.217(3) 0.7409(19) 0.213(4) 0.09(2) Uiso 1 1 d D . .
H6WB H 0.250(3) 0.7864(12) 0.160(5) 0.079(19) Uiso 1 1 d D . .
H2WA H 0.3325(19) 0.4646(8) 0.718(4) 0.036(11) Uiso 1 1 d D . .
H1WA H 0.172(2) 0.4581(10) 0.738(4) 0.044(13) Uiso 1 1 d D . .
H2WB H 0.316(2) 0.5156(13) 0.658(4) 0.057(15) Uiso 1 1 d D . .
H1WB H 0.172(2) 0.5067(13) 0.659(4) 0.053(15) Uiso 1 1 d D . .

loop_
_atom_site_aniso_label
_atom_site_aniso_U_11
_atom_site_aniso_U_22
_atom_site_aniso_U_33
_atom_site_aniso_U_23
_atom_site_aniso_U_13
_atom_site_aniso_U_12
Ag1 0.04342(18) 0.01861(14) 0.02584(16) -0.00298(11) 0.00833(12) 0.00321(11)
N1 0.0304(16) 0.0187(13) 0.0188(15) 0.0019(11) 0.0045(12) 0.0013(12)
N2 0.0324(16) 0.0156(13) 0.0188(15) -0.0006(11) 0.0063(12) -0.0022(11)
C4 0.0270(18) 0.0259(17) 0.0225(19) 0.0009(14) 0.0060(14) 0.0056(14)
C13 0.0241(18) 0.0212(16) 0.0278(19) 0.0010(14) 0.0013(14) 0.0010(14)
C7 0.041(2) 0.0190(16) 0.0147(17) -0.0017(13) 0.0033(15) 0.0006(15)
C2 0.0266(19) 0.0242(17) 0.0226(18) 0.0025(14) 0.0002(14) -0.0012(14)
C11 0.0245(18) 0.0241(17) 0.0195(17) -0.0001(13) 0.0088(14) -0.0020(14)
C10 0.0250(19) 0.0291(18) 0.029(2) 0.0028(15) 0.0023(15) 0.0050(15)
C5 0.0318(19) 0.0221(16) 0.0093(16) 0.0020(13) 0.0025(13) 0.0040(14)
C9 0.0280(18) 0.0161(15) 0.0187(17) -0.0042(13) 0.0041(14) 0.0012(13)
C8 0.0320(19) 0.0213(17) 0.0170(17) -0.0018(14) 0.0035(14) 0.0031(14)
C3 0.0247(18) 0.0239(17) 0.0260(19) 0.0025(14) 0.0021(14) -0.0019(14)
C12 0.0252(18) 0.0252(17) 0.031(2) -0.0006(15) 0.0091(15) -0.0015(14)
C1 0.0261(19) 0.0236(17) 0.0266(19) 0.0043(14) 0.0082(15) 0.0070(14)
C6 0.035(2) 0.0220(17) 0.0150(17) 0.0015(13) 0.0035(14) 0.0033(14)
Ag2 0.04060(17) 0.01939(14) 0.02507(16) -0.00192(11) 0.00647(12) 0.00070(11)
N3 0.0281(16) 0.0192(14) 0.0223(16) -0.0012(12) 0.0029(12) 0.0003(12)
N4 0.0282(16) 0.0173(13) 0.0239(16) -0.0011(12) 0.0056(12) 0.0017(11)
C22 0.034(2) 0.0172(16) 0.0187(17) -0.0050(13) 0.0079(14) 0.0012(14)
C17 0.0257(18) 0.0232(17) 0.0228(18) 0.0016(14) -0.0010(14) -0.0043(14)
O2W 0.0334(15) 0.0210(13) 0.0429(18) -0.0026(12) -0.0077(13) -0.0023(11)
C18 0.0283(18) 0.0197(16) 0.0167(17) 0.0048(13) 0.0047(14) -0.0015(13)
C19 0.036(2) 0.0232(17) 0.0188(18) -0.0003(14) 0.0052(15) -0.0005(15)
C15 0.0224(18) 0.0261(17) 0.0265(19) 0.0062(14) 0.0040(14) 0.0035(14)
C24 0.0284(19) 0.0278(18) 0.0245(19) 0.0016(15) 0.0012(15) 0.0018(15)
C25 0.0272(19) 0.0291(19) 0.030(2) 0.0026(15) 0.0051(15) 0.0088(15)
C20 0.041(2) 0.0243(18) 0.0205(19) -0.0010(14) 0.0122(16) -0.0006(15)
C16 0.0227(18) 0.0289(18) 0.034(2) -0.0021(16) 0.0042(15) 0.0011(14)
C26 0.0271(19) 0.0280(18) 0.030(2) -0.0031(16) 0.0065(15) -0.0022(15)
C14 0.0252(19) 0.0266(18) 0.031(2) -0.0006(15) 0.0005(15) -0.0029(14)
C21 0.034(2) 0.0191(16) 0.0238(19) -0.0016(14) 0.0103(15) -0.0006(14)
C23 0.0209(18) 0.0291(18) 0.036(2) 0.0003(16) 0.0118(15) -0.0005(14)
O1 0.0322(14) 0.0221(12) 0.0215(13) -0.0044(10) 0.0046(10) 0.0005(10)
O3 0.0289(14) 0.0196(12) 0.0382(15) -0.0019(11) 0.0047(11) 0.0039(10)
O4 0.0249(13) 0.0229(12) 0.0425(16) 0.0019(11) 0.0052(11) -0.0040(10)
C32 0.0243(18) 0.0242(17) 0.0216(18) 0.0008(14) 0.0050(14) 0.0011(14)
C31 0.0270(18) 0.0171(15) 0.0229(19) 0.0032(13) 0.0017(14) -0.0008(13)
O2 0.0560(18) 0.0190(12) 0.0290(15) 0.0011(10) 0.0071(13) 0.0067(11)
C39 0.0247(18) 0.0195(16) 0.0172(17) -0.0037(13) -0.0017(13) -0.0020(13)
C34 0.0326(19) 0.0161(15) 0.0192(17) -0.0012(13) 0.0027(14) -0.0009(14)
C35 0.0263(19) 0.0209(17) 0.039(2) -0.0015(15) 0.0102(16) 0.0041(14)
C38 0.0235(18) 0.0197(16) 0.032(2) -0.0008(14) 0.0050(15) 0.0053(13)
C33 0.0176(16) 0.0187(16) 0.0261(19) -0.0032(13) 0.0057(14) -0.0003(13)
C27 0.0175(17) 0.0223(17) 0.028(2) -0.0023(14) 0.0007(14) -0.0007(13)
C36 0.0247(18) 0.0246(17) 0.030(2) -0.0022(15) 0.0109(15) -0.0037(14)
C30 0.0254(18) 0.0180(16) 0.0248(19) 0.0038(14) 0.0019(14) 0.0014(13)
C37 0.0223(18) 0.0224(17) 0.040(2) -0.0028(16) 0.0071(16) 0.0002(14)
C40 0.0288(19) 0.0212(16) 0.0170(17) -0.0026(13) -0.0051(14) -0.0004(14)
C28 0.0160(16) 0.0204(16) 0.0232(19) -0.0001(13) 0.0000(13) -0.0013(12)
C29 0.0210(17) 0.0228(17) 0.0201(18) 0.0019(13) 0.0013(13) -0.0015(13)
O3W 0.0407(16) 0.0334(15) 0.0369(17) 0.0009(13) 0.0116(13) 0.0013(12)
O4W 0.0485(18) 0.0348(15) 0.0352(17) -0.0092(14) 0.0096(14) -0.0009(13)
O1W 0.0294(14) 0.0226(13) 0.0450(18) 0.0012(12) 0.0130(12) 0.0046(11)
O5 0.0425(15) 0.0166(11) 0.0282(14) -0.0011(10) 0.0141(12) -0.0010(10)
O5W 0.067(2) 0.0307(16) 0.045(2) 0.0014(14) 0.0146(16) 0.0086(15)
O6W 0.153(4) 0.0288(18) 0.043(2) 0.0024(15) 0.034(2) -0.004(2)

_geom_special_details            
;
All esds (except the esd in the dihedral angle between two l.s. planes)
are estimated using the full covariance matrix. The cell esds are taken
into account individually in the estimation of esds in distances, angles
and torsion angles; correlations between esds in cell parameters are only
used when they are defined by crystal symmetry. An approximate (isotropic)
treatment of cell esds is used for estimating esds in