
#######################################################################
#
#                 Cambridge Crystallographic Data Centre
#                                CCDC
#
#######################################################################
#
# If this CIF has been generated from an entry in the Cambridge
# Structural Database, then it will include bibliographic, chemical,
# crystal, experimental, refinement or atomic coordinate data resulting
# from the CCDC's data processing and validation procedures.
#
#######################################################################

data_CSD_CIF_DFIMZP01
_audit_creation_date 1991-04-18
_audit_creation_method CSD-ConQuest-V1
_database_code_CSD DFIMZP01
_database_code_depnum_ccdc_archive 'CCDC 1139904'
_chemical_formula_sum 'C11 H16 N4 O4'
_chemical_formula_moiety
;
C11 H16 N4 O4
;
_journal_coden_Cambridge 646
_journal_volume 8
_journal_year 1990
_journal_page_first 199
_journal_name_full 'J.Biomol.Struct.Dyn. '
loop_
_publ_author_name
"M.B.Cox"
"P.Arjunan"
"S.K.Arora"
_chemical_name_systematic
;
Pentostatin
;
_chemical_name_common
;
2'-Deoxycoformycin; Nipent; DrugBank: DB00552; PDB Chemical Component code: 
DCF; Teaching Subset: Drug Molecules, 'Bound' Drugs
;
_cell_volume    589.764
_exptl_crystal_colour 'colorless'
_exptl_crystal_density_diffrn 1.368
_exptl_special_details
;
agent for treatment of certain haematological cancers and antibiotic activity
Dx reported as 1.368; we calculate 1.51
;
_diffrn_ambient_temperature ?
_diffrn_special_details
;
The study was carried out at room temperature,in the range 283-303K

;
#These two values have been output from a single CSD field.
_refine_ls_R_factor_gt 0.047
_refine_ls_wR_factor_gt 0.047
_symmetry_cell_setting monoclinic
_symmetry_space_group_name_H-M 'P 21'
_symmetry_Int_Tables_number 4
loop_
_symmetry_equiv_pos_site_id
_symmetry_equiv_pos_as_xyz
1 x,y,z
2 -x,1/2+y,-z
_cell_length_a 4.960(1)
_cell_length_b 10.746(3)
_cell_length_c 11.279(4)
_cell_angle_alpha 90
_cell_angle_beta 101.18(2)
_cell_angle_gamma 90
_cell_formula_units_Z 2
loop_
_atom_type_symbol
_atom_type_radius_bond
C 0.68
H 0.23
N 0.68
O 0.68
loop_
_atom_site_label
_atom_site_type_symbol
_atom_site_fract_x
_atom_site_fract_y
_atom_site_fract_z
N1 N 0.2677(5) 0.53100 0.2901(2)
C1 C 0.2704(7) 0.4744(4) 0.3939(2)
N2 N 0.0781(5) 0.3839(4) 0.3829(2)
N3 N -0.2676(5) 0.2980(4) 0.2264(2)
C2 C -0.3900(7) 0.2853(4) 0.1157(3)
N4 N -0.3454(6) 0.3415(3) 0.0144(2)
C3 C -0.0998(7) 0.4065(4) -0.0072(3)
C4 C -0.0070(7) 0.5138(4) 0.0781(3)
O1 O -0.2085(6) 0.6101(3) 0.0576(2)
C5 C 0.0635(7) 0.4725(4) 0.2071(3)
C6 C -0.0577(7) 0.3823(4) 0.2618(2)
C7 C -0.0035(7) 0.3121(3) 0.4810(3)
C8 C 0.2160(8) 0.2243(4) 0.5483(2)
C9 C 0.3442(7) 0.2992(4) 0.6606(2)
O2 O 0.4416(6) 0.2257(3) 0.7659(2)
C10 C 0.1083(6) 0.3792(4) 0.6833(3)
O3 O -0.0626(4) 0.4009(3) 0.5670(2)
C11 C 0.1860(8) 0.5038(4) 0.7441(3)
O4 O 0.3748(6) 0.5661(3) 0.6839(2)
H1 H 0.396(8) 0.487(3) 0.471(3)
H2 H -0.563(8) 0.225(3) 0.100(3)
H3 H -0.446(8) 0.309(4) -0.051(3)
H4 H 0.064(8) 0.348(3) -0.001(3)
H5 H -0.121(7) 0.435(4) -0.094(3)
H6 H 0.176(7) 0.547(3) 0.054(3)
H7 H -0.236(7) 0.633(4) 0.132(3)
H8 H -0.174(7) 0.266(3) 0.442(3)
H9 H 0.138(7) 0.152(4) 0.575(3)
H10 H 0.363(8) 0.208(4) 0.492(3)
H11 H 0.502(8) 0.345(3) 0.643(3)
H12 H 0.562(8) 0.160(3) 0.748(3)
H13 H -0.022(8) 0.331(3) 0.737(3)
H14 H 0.271(8) 0.487(3) 0.825(3)
H15 H 0.027(8) 0.565(3) 0.750(3)
H16 H 0.372(8) 0.642(4) 0.700(3)
#END
