
#######################################################################
#
#                 Cambridge Crystallographic Data Centre
#                                CCDC
#
#######################################################################
#
# If this CIF has been generated from an entry in the Cambridge
# Structural Database, then it will include bibliographic, chemical,
# crystal, experimental, refinement or atomic coordinate data resulting
# from the CCDC's data processing and validation procedures.
#
#######################################################################

data_CSD_CIF_DHPRTO
_audit_creation_date 1972-06-21
_audit_creation_method CSD-ConQuest-V1
_database_code_CSD DHPRTO
_database_code_depnum_ccdc_archive 'CCDC 1140025'
_chemical_formula_sum 'C21 H28 O5'
_chemical_formula_moiety
;
C21 H28 O5
;
_journal_coden_Cambridge 189
_journal_volume 1
_journal_year 1972
_journal_page_first 13
_journal_name_full 'Cryst.Struct.Commun. '
loop_
_publ_author_name
"J.P.Declercq"
"G.Germain"
"M.van Meerssche"
_chemical_name_systematic
;
Cortisone
;
_chemical_name_common
;
Teaching Subset: Fundamental Chemistry, Drug Molecules
;
_cell_volume   1848.202
_diffrn_ambient_temperature ?
_diffrn_special_details
;
The study was carried out at room temperature,in the range 283-303K

;
#These two values have been output from a single CSD field.
_refine_ls_R_factor_gt 0.058
_refine_ls_wR_factor_gt 0.058
_symmetry_cell_setting orthorhombic
_symmetry_space_group_name_H-M 'P 21 21 21'
_symmetry_Int_Tables_number 19
loop_
_symmetry_equiv_pos_site_id
_symmetry_equiv_pos_as_xyz
1 x,y,z
2 1/2+x,1/2-y,-z
3 -x,1/2+y,1/2-z
4 1/2-x,-y,1/2+z
_cell_length_a 10.04
_cell_length_b 23.649
_cell_length_c 7.784
_cell_angle_alpha 90
_cell_angle_beta 90
_cell_angle_gamma 90
_cell_formula_units_Z 4
loop_
_atom_type_symbol
_atom_type_radius_bond
C 0.68
H 0.20
O 0.68
loop_
_atom_site_label
_atom_site_type_symbol
_atom_site_fract_x
_atom_site_fract_y
_atom_site_fract_z
C1 C 0.17820 -0.36500 -0.45260
C2 C 0.10220 -0.34560 -0.29170
C3 C 0.09870 -0.24270 -0.41110
C4 C 0.15160 -0.18250 -0.39600
C5 C 0.09420 -0.15770 -0.22890
C6 C 0.13390 -0.19560 -0.07780
C7 C 0.09360 -0.16090 0.08050
C8 C 0.12050 -0.09880 0.02470
C9 C 0.15210 -0.10000 -0.16950
C10 C -0.05720 -0.15280 -0.24760
C11 C -0.04670 -0.35750 -0.30760
C12 C 0.20390 -0.42910 -0.46050
C13 C 0.09530 -0.05010 -0.26800
C14 C 0.16550 -0.03260 -0.43200
C15 C 0.27730 -0.44690 -0.30400
C16 C 0.23640 -0.42160 -0.14230
C17 C 0.15330 -0.37690 -0.13280
C18 C 0.10710 -0.35540 0.03610
C19 C 0.13570 -0.29170 0.05890
C20 C 0.08470 -0.25670 -0.09210
C21 C 0.13590 -0.28180 -0.26340
H1 H 0.27260 -0.34360 -0.44680
H2 H 0.13540 -0.35030 -0.56060
H3 H 0.25150 -0.18720 -0.37190
H4 H 0.13130 -0.15990 -0.50650
H5 H 0.23930 -0.19770 -0.09330
H6 H 0.14440 -0.17300 0.18910
H7 H -0.00230 -0.16910 0.11170
H8 H 0.21280 -0.08390 0.08160
H9 H 0.04460 -0.07530 0.05890
H10 H -0.09890 -0.19070 -0.27690
H11 H -0.09520 -0.13120 -0.15420
H12 H -0.06590 -0.12610 -0.35040
H13 H -0.09060 -0.33420 -0.39140
H14 H -0.09850 -0.34840 -0.20100
H15 H -0.07600 -0.40670 -0.27410
H16 H 0.24500 -0.43560 -0.56890
H17 H 0.08560 -0.44780 -0.46660
H18 H 0.26780 -0.01770 -0.40290
H19 H 0.18600 -0.06490 -0.51320
H20 H 0.27120 -0.44000 -0.03250
H21 H 0.15310 -0.37750 0.13490
H22 H 0.01100 -0.35910 0.04160
H23 H 0.23280 -0.28430 0.06580
H24 H 0.10330 -0.28120 0.18300
H25 H -0.00710 -0.25540 -0.09780
H26 H 0.23670 -0.27870 -0.24610
O1 O 0.02950 -0.25670 -0.53110
O2 O 0.29320 -0.10240 -0.19960
O3 O -0.00520 -0.02580 -0.22340
O4 O 0.09990 0.01220 -0.51790
O5 O 0.36810 -0.48190 -0.30890
#END
