####################################################################### 
# 
# This file contains crystal structure data downloaded from the 
# Cambridge Structural Database (CSD) hosted by the Cambridge 
# Crystallographic Data Centre (CCDC).
# 
# Full information about CCDC data access policies and citation 
# guidelines are available at http://www.ccdc.cam.ac.uk/access/V1 
# 
# Audit and citation data items may have been added by the CCDC. 
# Please retain this information to preserve the provenance of 
# this file and to allow appropriate attribution of the data. 
# 
#######################################################################

data_2
_audit_block_doi                 10.5517/ccz0lp7
_database_code_depnum_ccdc_archive 'CCDC 894309'
loop_
_citation_id
_citation_doi
_citation_year
1 10.1021/ic400182u 2013
_audit_update_record             
;
2012-07-31 deposited with the CCDC.	2024-07-09 downloaded from the CCDC.
;
#TrackingRef '12948_web_deposit_cif_file_1_JanDemel_1343718366.MOF-Eu-TPPS actyvated.cif'


_audit_creation_method           SHELXL-97
_chemical_name_systematic        
;
?
;
_chemical_name_common            ?
_chemical_melting_point          ?
_chemical_formula_moiety         ?
_chemical_formula_sum            'C88 H64 Eu6 N8 O34 S8'
_chemical_formula_weight         2945.71

loop_
_atom_type_symbol
_atom_type_description
_atom_type_scat_dispersion_real
_atom_type_scat_dispersion_imag
_atom_type_scat_source
C C 0.0033 0.0016 'International Tables Vol C Tables 4.2.6.8 and 6.1.1.4'
H H 0.0000 0.0000 'International Tables Vol C Tables 4.2.6.8 and 6.1.1.4'
N N 0.0061 0.0033 'International Tables Vol C Tables 4.2.6.8 and 6.1.1.4'
O O 0.0106 0.0060 'International Tables Vol C Tables 4.2.6.8 and 6.1.1.4'
S S 0.1246 0.1234 'International Tables Vol C Tables 4.2.6.8 and 6.1.1.4'
Eu Eu -0.1578 3.6682 'International Tables Vol C Tables 4.2.6.8 and 6.1.1.4'

_symmetry_cell_setting           Monoclinic
_symmetry_space_group_name_H-M   C2/c

loop_
_symmetry_equiv_pos_as_xyz
'x, y, z'
'-x, y, -z+1/2'
'x+1/2, y+1/2, z'
'-x+1/2, y+1/2, -z+1/2'
'-x, -y, -z'
'x, -y, z-1/2'
'-x+1/2, -y+1/2, -z'
'x+1/2, -y+1/2, z-1/2'

_cell_length_a                   45.950(2)
_cell_length_b                   9.1496(5)
_cell_length_c                   31.3267(15)
_cell_angle_alpha                90.00
_cell_angle_beta                 124.2110(10)
_cell_angle_gamma                90.00
_cell_volume                     10891.6(9)
_cell_formula_units_Z            4
_cell_measurement_temperature    200(2)
_cell_measurement_reflns_used    6102
_cell_measurement_theta_min      2.32
_cell_measurement_theta_max      25.08

_exptl_crystal_description       parallelepiped
_exptl_crystal_colour            black
_exptl_crystal_size_max          0.18
_exptl_crystal_size_mid          0.12
_exptl_crystal_size_min          0.04
_exptl_crystal_density_meas      ?
_exptl_crystal_density_diffrn    1.796
_exptl_crystal_density_method    'not measured'
_exptl_crystal_F_000             5704
_exptl_absorpt_coefficient_mu    3.635
_exptl_absorpt_correction_type   multi-scan
_exptl_absorpt_correction_T_min  0.5607
_exptl_absorpt_correction_T_max  0.8682
_exptl_absorpt_process_details   'SADABS (Sheldrick, V2.10)'

_exptl_special_details           
;
'Blessing, Acta Cryst. (1995) A51, 33-38'
;

_diffrn_ambient_temperature      200(2)
_diffrn_radiation_wavelength     0.71073
_diffrn_radiation_type           MoK\a
_diffrn_radiation_source         'fine-focus sealed tube'
_diffrn_radiation_monochromator  graphite
_diffrn_measurement_device_type  'Bruker APEX-II CCD'
_diffrn_measurement_method       '\f and \w scans'
_diffrn_detector_area_resol_mean 512x512
_diffrn_standards_number         0
_diffrn_standards_interval_count ?
_diffrn_standards_interval_time  ?
_diffrn_standards_decay_%        ?
_diffrn_reflns_number            22413
_diffrn_reflns_av_R_equivalents  0.0404
_diffrn_reflns_av_sigmaI/netI    0.0577
_diffrn_reflns_limit_h_min       -54
_diffrn_reflns_limit_h_max       54
_diffrn_reflns_limit_k_min       -10
_diffrn_reflns_limit_k_max       10
_diffrn_reflns_limit_l_min       -33
_diffrn_reflns_limit_l_max       37
_diffrn_reflns_theta_min         1.07
_diffrn_reflns_theta_max         25.11
_reflns_number_total             9559
_reflns_number_gt                7497
_reflns_threshold_expression     >2sigma(I)

_computing_data_collection       'Bruker APEX2'
_computing_cell_refinement       'Bruker SAINT'
_computing_data_reduction        'Bruker SAINT'
_computing_structure_solution    'SHELXS-97 (Sheldrick, 1990)'
_computing_structure_refinement  'SHELXL-97 (Sheldrick, 1997)'
_computing_molecular_graphics    'Bruker SHELXTL'
_computing_publication_material  'Bruker SHELXTL'

_refine_special_details          
;
Refinement of F^2^ against ALL reflections. The weighted R-factor wR and
goodness of fit S are based on F^2^, conventional R-factors R are based
on F, with F set to zero for negative F^2^. The threshold expression of
F^2^ > 2sigma(F^2^) is used only for calculating R-factors(gt) etc. and is
not relevant to the choice of reflections for refinement. R-factors based
on F^2^ are statistically about twice as large as those based on F, and R-
factors based on ALL data will be even larger.
;

_refine_ls_structure_factor_coef Fsqd
_refine_ls_matrix_type           full
_refine_ls_weighting_scheme      calc
_refine_ls_weighting_details     
'calc w=1/[\s^2^(Fo^2^)+(0.0508P)^2^+151.6774P] where P=(Fo^2^+2Fc^2^)/3'
_atom_sites_solution_primary     direct
_atom_sites_solution_secondary   difmap
_atom_sites_solution_hydrogens   geom
_refine_ls_hydrogen_treatment    constr
_refine_ls_extinction_method     none
_refine_ls_extinction_coef       ?
_refine_ls_number_reflns         9559
_refine_ls_number_parameters     652
_refine_ls_number_restraints     0
_refine_ls_R_factor_all          0.0668
_refine_ls_R_factor_gt           0.0452
_refine_ls_wR_factor_ref         0.1283
_refine_ls_wR_factor_gt          0.1154
_refine_ls_goodness_of_fit_ref   1.163
_refine_ls_restrained_S_all      1.163
_refine_ls_shift/su_max          0.001
_refine_ls_shift/su_mean         0.000

loop_
_atom_site_label
_atom_site_type_symbol
_atom_site_fract_x
_atom_site_fract_y
_atom_site_fract_z
_atom_site_U_iso_or_equiv
_atom_site_adp_type
_atom_site_occupancy
_atom_site_symmetry_multiplicity
_atom_site_calc_flag
_atom_site_refinement_flags
_atom_site_disorder_assembly
_atom_site_disorder_group
Eu1 Eu 0.197367(6) 0.42375(3) 0.427156(8) 0.01586(6) Uani 1 1 d . . .
Eu2 Eu 0.201471(6) 0.05456(3) 0.481495(9) 0.01862(7) Uani 1 1 d . . .
Eu3 Eu 0.252440(6) 0.11664(3) 0.424381(9) 0.01792(7) Uani 1 1 d . . .
S1 S 0.11654(3) 0.78011(15) -0.11592(5) 0.0244(4) Uani 1 1 d . . .
S2 S 0.18565(3) 0.29976(15) 0.30841(5) 0.0229(4) Uani 1 1 d . . .
S3 S -0.18131(3) -0.32252(14) -0.00305(4) 0.0192(3) Uani 1 1 d . . .
S4 S -0.19548(3) 0.18878(14) -0.38201(4) 0.0197(3) Uani 1 1 d . . .
O1 O 0.21210(8) 0.1917(4) 0.43571(13) 0.0287(10) Uani 1 1 d . . .
O2 O 0.24474(7) 0.5241(4) 0.50651(11) 0.0182(9) Uani 1 1 d . . .
O3 O 0.24722(8) 0.1100(4) 0.56928(12) 0.0220(10) Uani 1 1 d . . .
O4 O 0.30400(8) 0.1937(4) 0.50204(12) 0.0221(10) Uani 1 1 d . . .
O5W O 0.27570(18) 0.1815(9) 0.3729(3) 0.0402(16) Uani 0.50 1 d P . .
O6W O 0.17656(18) 0.0693(9) 0.5379(3) 0.0402(16) Uani 0.50 1 d P . .
O11 O 0.13724(7) 0.6597(4) -0.11737(12) 0.0253(10) Uani 1 1 d . . .
O12 O 0.13941(8) 0.8852(4) -0.07505(14) 0.0300(11) Uani 1 1 d . . .
O13 O 0.09289(9) 0.8488(5) -0.16493(14) 0.0404(13) Uani 1 1 d . . .
O21 O 0.20139(10) 0.1606(4) 0.33382(13) 0.0346(12) Uani 1 1 d . . .
O22 O 0.20680(9) 0.3757(5) 0.29474(14) 0.0405(13) Uani 1 1 d . . .
O23 O 0.17705(8) 0.3903(4) 0.33815(12) 0.0223(10) Uani 1 1 d . . .
O31 O -0.19788(8) -0.4228(4) -0.04708(12) 0.0229(10) Uani 1 1 d . . .
O32 O -0.16914(8) -0.3949(4) 0.04564(12) 0.0225(10) Uani 1 1 d . . .
O33 O -0.20398(8) -0.1968(4) -0.01205(12) 0.0241(10) Uani 1 1 d . . .
O41 O -0.20453(8) 0.3387(4) -0.40037(12) 0.0225(10) Uani 1 1 d . . .
O42 O -0.22551(8) 0.1147(4) -0.38755(12) 0.0230(10) Uani 1 1 d . . .
O43 O -0.18027(8) 0.1081(4) -0.40547(12) 0.0235(10) Uani 1 1 d . . .
N1 N -0.02660(9) 0.3332(5) -0.09373(14) 0.0217(12) Uani 1 1 d . . .
H1 H -0.0244 0.3093 -0.0649 0.026 Uiso 1 1 calc R . .
C2 C -0.00193(11) 0.4098(6) -0.09650(18) 0.0237(14) Uani 1 1 d . . .
C3 C -0.01498(13) 0.4183(6) -0.14945(19) 0.0299(16) Uani 1 1 d . . .
H3 H -0.0031 0.4612 -0.1633 0.036 Uiso 1 1 calc R . .
C4 C -0.04762(13) 0.3545(7) -0.17758(19) 0.0317(17) Uani 1 1 d . . .
H4 H -0.0626 0.3483 -0.2141 0.038 Uiso 1 1 calc R . .
C5 C -0.05503(12) 0.2992(6) -0.14223(17) 0.0228(15) Uani 1 1 d . . .
C6 C 0.02918(12) 0.4682(6) -0.05413(18) 0.0248(15) Uani 1 1 d . . .
C7 C 0.04238(11) 0.4375(6) -0.00313(18) 0.0221(14) Uani 1 1 d . . .
N8 N 0.02834(9) 0.3348(5) 0.01301(14) 0.0210(12) Uani 1 1 d . . .
C9 C 0.05078(11) 0.3295(6) 0.06621(18) 0.0211(14) Uani 1 1 d . . .
C10 C 0.07869(12) 0.4385(6) 0.08390(19) 0.0265(15) Uani 1 1 d . . .
H10 H 0.0973 0.4581 0.1186 0.032 Uiso 1 1 calc R . .
C11 C 0.07280(12) 0.5060(6) 0.04122(19) 0.0288(16) Uani 1 1 d . . .
H11 H 0.0862 0.5840 0.0405 0.035 Uiso 1 1 calc R . .
C12 C 0.04940(12) 0.2334(6) 0.09929(17) 0.0218(14) Uani 1 1 d . . .
C13 C 0.02122(11) 0.1377(6) 0.08540(18) 0.0231(14) Uani 1 1 d . . .
N14 N -0.01015(9) 0.1320(5) 0.03823(14) 0.0204(12) Uani 1 1 d . . .
H14 H -0.0155 0.1839 0.0111 0.024 Uiso 1 1 calc R . .
C15 C -0.03227(12) 0.0324(6) 0.03954(17) 0.0210(14) Uani 1 1 d . . .
C16 C -0.01331(12) -0.0292(6) 0.08977(19) 0.0274(15) Uani 1 1 d . . .
H16 H -0.0217 -0.1018 0.1020 0.033 Uiso 1 1 calc R . .
C17 C 0.01910(12) 0.0342(6) 0.11744(19) 0.0274(16) Uani 1 1 d . . .
H17 H 0.0373 0.0128 0.1523 0.033 Uiso 1 1 calc R . .
C18 C -0.06777(11) 0.0110(6) -0.00063(18) 0.0216(14) Uani 1 1 d . . .
C19 C -0.08412(12) 0.0826(6) -0.04878(18) 0.0231(14) Uani 1 1 d . . .
N20 N -0.06691(9) 0.1477(5) -0.06816(14) 0.0201(12) Uani 1 1 d . . .
C21 C -0.09249(11) 0.1810(6) -0.11824(18) 0.0224(14) Uani 1 1 d . . .
C22 C -0.12709(11) 0.1469(7) -0.13033(19) 0.0276(16) Uani 1 1 d . . .
H22 H -0.1490 0.1627 -0.1623 0.033 Uiso 1 1 calc R . .
C23 C -0.12199(12) 0.0881(6) -0.08720(19) 0.0275(16) Uani 1 1 d . . .
H23 H -0.1398 0.0563 -0.0827 0.033 Uiso 1 1 calc R . .
C24 C -0.08579(12) 0.2352(6) -0.15411(18) 0.0224(14) Uani 1 1 d . . .
C25 C 0.05095(12) 0.5554(7) -0.06660(19) 0.0280(15) Uani 1 1 d . . .
C26 C 0.03626(12) 0.6740(7) -0.1024(2) 0.0329(16) Uani 1 1 d . . .
H26 H 0.0129 0.7056 -0.1157 0.039 Uiso 1 1 calc R . .
C27 C 0.05584(13) 0.7441(7) -0.1180(2) 0.0357(18) Uani 1 1 d . . .
H27 H 0.0459 0.8215 -0.1424 0.043 Uiso 1 1 calc R . .
C28 C 0.09076(11) 0.6971(6) -0.09665(19) 0.0263(15) Uani 1 1 d . . .
C29 C 0.10467(15) 0.5888(7) -0.0615(2) 0.045(2) Uani 1 1 d . . .
H29 H 0.1284 0.5598 -0.0464 0.055 Uiso 1 1 calc R . .
C30 C 0.08445(14) 0.5188(7) -0.0472(2) 0.0419(19) Uani 1 1 d . . .
H30 H 0.0948 0.4419 -0.0226 0.050 Uiso 1 1 calc R . .
C31 C 0.08121(12) 0.2305(6) 0.15371(18) 0.0238(14) Uani 1 1 d . . .
C32 C 0.11295(12) 0.1842(7) 0.1618(2) 0.0300(16) Uani 1 1 d . . .
H32 H 0.1129 0.1414 0.1342 0.036 Uiso 1 1 calc R . .
C33 C 0.14457(13) 0.1998(7) 0.20978(19) 0.0310(17) Uani 1 1 d . . .
H33 H 0.1660 0.1693 0.2147 0.037 Uiso 1 1 calc R . .
C34 C 0.14465(11) 0.2598(6) 0.25021(17) 0.0216(14) Uani 1 1 d . . .
C35 C 0.11296(12) 0.2968(7) 0.24356(18) 0.0276(15) Uani 1 1 d . . .
H35 H 0.1127 0.3327 0.2718 0.033 Uiso 1 1 calc R . .
C36 C 0.08184(12) 0.2808(7) 0.1952(2) 0.0291(16) Uani 1 1 d . . .
H36 H 0.0603 0.3057 0.1909 0.035 Uiso 1 1 calc R . .
C37 C -0.09094(11) -0.0889(6) 0.00504(18) 0.0213(14) Uani 1 1 d . . .
C38 C -0.11255(12) -0.1849(6) -0.03522(19) 0.0249(15) Uani 1 1 d . . .
H38 H -0.1087 -0.1993 -0.0618 0.030 Uiso 1 1 calc R . .
C39 C -0.13959(12) -0.2603(6) -0.03725(18) 0.0251(15) Uani 1 1 d . . .
H39 H -0.1550 -0.3205 -0.0661 0.030 Uiso 1 1 calc R . .
C40 C -0.14397(11) -0.2477(6) 0.00224(17) 0.0190(13) Uani 1 1 d . . .
C41 C -0.12064(11) -0.1637(6) 0.04546(18) 0.0227(14) Uani 1 1 d . . .
H41 H -0.1228 -0.1595 0.0738 0.027 Uiso 1 1 calc R . .
C42 C -0.09425(12) -0.0864(6) 0.04678(18) 0.0263(15) Uani 1 1 d . . .
H42 H -0.0781 -0.0307 0.0766 0.032 Uiso 1 1 calc R . .
C43 C -0.11422(12) 0.2210(6) -0.21045(17) 0.0221(14) Uani 1 1 d . . .
C44 C -0.14267(12) 0.3110(6) -0.23405(19) 0.0265(16) Uani 1 1 d . . .
H44 H -0.1454 0.3821 -0.2144 0.032 Uiso 1 1 calc R . .
C45 C -0.16817(12) 0.2992(6) -0.28760(19) 0.0266(16) Uani 1 1 d . . .
H45 H -0.1885 0.3599 -0.3041 0.032 Uiso 1 1 calc R . .
C46 C -0.16322(12) 0.1991(6) -0.31532(17) 0.0192(14) Uani 1 1 d . . .
C47 C -0.13471(12) 0.1061(6) -0.29248(19) 0.0262(15) Uani 1 1 d . . .
H47 H -0.1318 0.0363 -0.3123 0.031 Uiso 1 1 calc R . .
C48 C -0.11032(12) 0.1178(7) -0.23949(19) 0.0287(16) Uani 1 1 d . . .
H48 H -0.0906 0.0540 -0.2228 0.034 Uiso 1 1 calc R . .

loop_
_atom_site_aniso_label
_atom_site_aniso_U_11
_atom_site_aniso_U_22
_atom_site_aniso_U_33
_atom_site_aniso_U_23
_atom_site_aniso_U_13
_atom_site_aniso_U_12
Eu1 0.01467(8) 0.01467(12) 0.01606(9) -0.00052(9) 0.00732(7) 0.00063(9)
Eu2 0.01725(9) 0.01504(13) 0.02022(10) -0.00113(9) 0.00849(7) -0.00007(10)
Eu3 0.01734(9) 0.01635(13) 0.01697(9) -0.00072(9) 0.00777(7) 0.00073(10)
S1 0.0152(4) 0.0266(7) 0.0304(5) 0.0085(5) 0.0123(4) 0.0013(5)
S2 0.0193(5) 0.0260(7) 0.0181(5) -0.0027(5) 0.0074(4) 0.0019(5)
S3 0.0183(4) 0.0183(6) 0.0230(5) -0.0013(5) 0.0129(3) -0.0020(5)
S4 0.0208(5) 0.0162(6) 0.0169(5) -0.0003(5) 0.0075(4) -0.0007(5)
O1 0.0363(13) 0.0196(19) 0.0444(15) 0.0080(14) 0.0312(11) 0.0102(15)
O2 0.0145(12) 0.0224(19) 0.0136(13) -0.0019(13) 0.0053(10) 0.0011(13)
O3 0.0192(14) 0.0173(18) 0.0194(14) -0.0050(13) 0.0047(11) 0.0015(14)
O4 0.0226(14) 0.0169(18) 0.0222(14) -0.0022(13) 0.0099(11) -0.0038(14)
O5W 0.054(2) 0.039(4) 0.049(2) 0.007(2) 0.0428(16) 0.000(3)
O6W 0.054(2) 0.039(4) 0.049(2) 0.007(2) 0.0428(16) 0.000(3)
O11 0.0145(12) 0.030(2) 0.0317(15) -0.0016(15) 0.0135(10) 0.0015(14)
O12 0.0227(14) 0.019(2) 0.0449(18) -0.0013(15) 0.0168(12) -0.0022(15)
O13 0.0271(15) 0.058(3) 0.0331(17) 0.0227(18) 0.0148(12) 0.0100(19)
O21 0.0383(18) 0.026(2) 0.0189(16) -0.0023(15) 0.0037(14) 0.0101(17)
O22 0.0324(15) 0.053(3) 0.0405(17) -0.0100(18) 0.0230(12) -0.0126(18)
O23 0.0195(13) 0.0219(19) 0.0205(14) -0.0043(14) 0.0082(10) 0.0000(14)
O31 0.0264(13) 0.0160(18) 0.0265(14) -0.0041(13) 0.0151(10) -0.0030(14)
O32 0.0199(13) 0.0201(19) 0.0260(14) 0.0004(14) 0.0119(10) -0.0018(14)
O33 0.0247(14) 0.0170(18) 0.0298(15) -0.0031(14) 0.0149(11) 0.0001(14)
O41 0.0317(15) 0.0132(18) 0.0182(14) 0.0061(13) 0.0113(11) 0.0048(14)
O42 0.0220(13) 0.0236(19) 0.0175(14) -0.0017(14) 0.0075(10) -0.0063(14)
O43 0.0237(13) 0.0208(19) 0.0230(14) -0.0051(14) 0.0113(10) -0.0005(14)
N1 0.0189(15) 0.029(2) 0.0171(16) -0.0029(16) 0.0098(12) -0.0057(17)
C2 0.0224(18) 0.026(3) 0.025(2) -0.001(2) 0.0149(14) -0.005(2)
C3 0.035(2) 0.029(3) 0.031(2) 0.003(2) 0.0215(16) -0.005(2)
C4 0.031(2) 0.038(3) 0.020(2) 0.003(2) 0.0110(17) -0.005(2)
C5 0.024(2) 0.026(3) 0.0130(19) -0.0014(19) 0.0069(15) 0.000(2)
C6 0.0271(19) 0.025(3) 0.026(2) -0.001(2) 0.0171(15) 0.000(2)
C7 0.0181(18) 0.019(3) 0.030(2) -0.002(2) 0.0141(15) 0.001(2)
N8 0.0120(15) 0.029(2) 0.0199(16) -0.0005(17) 0.0079(12) -0.0040(17)
C9 0.0122(17) 0.026(3) 0.022(2) -0.001(2) 0.0074(14) 0.001(2)
C10 0.0152(19) 0.032(3) 0.027(2) -0.007(2) 0.0083(16) -0.007(2)
C11 0.024(2) 0.027(3) 0.034(2) -0.009(2) 0.0160(16) -0.007(2)
C12 0.0198(19) 0.027(3) 0.0134(19) -0.005(2) 0.0062(14) 0.001(2)
C13 0.0155(18) 0.032(3) 0.020(2) 0.001(2) 0.0089(14) 0.000(2)
N14 0.0154(15) 0.023(2) 0.0190(16) 0.0020(16) 0.0071(12) -0.0020(17)
C15 0.0274(19) 0.018(3) 0.0224(19) -0.0026(19) 0.0168(14) -0.004(2)
C16 0.027(2) 0.031(3) 0.025(2) 0.004(2) 0.0156(15) 0.000(2)
C17 0.024(2) 0.026(3) 0.023(2) 0.006(2) 0.0084(17) 0.007(2)
C18 0.0180(18) 0.022(3) 0.024(2) -0.006(2) 0.0116(14) -0.007(2)
C19 0.0224(19) 0.022(3) 0.025(2) -0.002(2) 0.0134(15) -0.005(2)
N20 0.0172(15) 0.022(2) 0.0206(16) 0.0005(16) 0.0104(12) -0.0029(17)
C21 0.0169(18) 0.022(3) 0.027(2) 0.000(2) 0.0113(15) -0.005(2)
C22 0.0102(18) 0.043(3) 0.023(2) 0.000(2) 0.0057(15) -0.003(2)
C23 0.0136(18) 0.035(3) 0.030(2) 0.002(2) 0.0102(15) 0.001(2)
C24 0.0204(19) 0.024(3) 0.019(2) -0.008(2) 0.0091(15) -0.003(2)
C25 0.0200(19) 0.040(3) 0.026(2) 0.003(2) 0.0136(15) 0.001(2)
C26 0.0224(19) 0.040(4) 0.043(2) 0.003(2) 0.0221(16) 0.000(2)
C27 0.028(2) 0.033(3) 0.043(3) 0.011(3) 0.0184(19) 0.006(2)
C28 0.0131(18) 0.028(3) 0.034(2) -0.001(2) 0.0112(16) -0.006(2)
C29 0.032(3) 0.037(4) 0.060(3) 0.017(3) 0.022(2) 0.004(3)
C30 0.040(3) 0.036(4) 0.048(3) 0.018(3) 0.024(2) 0.009(3)
C31 0.0211(19) 0.028(3) 0.024(2) -0.007(2) 0.0134(15) -0.006(2)
C32 0.021(2) 0.042(3) 0.024(2) -0.009(2) 0.0111(16) 0.002(2)
C33 0.017(2) 0.043(4) 0.028(2) -0.005(2) 0.0094(16) 0.006(2)
C34 0.0150(18) 0.031(3) 0.0144(19) -0.001(2) 0.0055(14) -0.002(2)
C35 0.0246(19) 0.041(3) 0.020(2) -0.009(2) 0.0142(15) 0.002(2)
C36 0.0108(18) 0.040(3) 0.031(2) -0.003(2) 0.0086(16) -0.001(2)
C37 0.0134(18) 0.025(3) 0.019(2) 0.002(2) 0.0053(14) 0.002(2)
C38 0.0249(19) 0.028(3) 0.027(2) -0.004(2) 0.0173(15) -0.002(2)
C39 0.027(2) 0.024(3) 0.026(2) -0.012(2) 0.0164(15) -0.003(2)
C40 0.0225(18) 0.013(2) 0.0260(19) 0.0043(18) 0.0165(14) 0.0013(19)
C41 0.0202(18) 0.032(3) 0.0191(19) 0.003(2) 0.0130(14) 0.000(2)
C42 0.0183(19) 0.038(3) 0.021(2) -0.004(2) 0.0095(15) -0.006(2)
C43 0.0197(19) 0.026(3) 0.016(2) 0.004(2) 0.0068(15) -0.003(2)
C4