
#######################################################################
#
#                 Cambridge Crystallographic Data Centre
#                                CCDC
#
#######################################################################
#
# If this CIF has been generated from an entry in the Cambridge
# Structural Database, then it will include bibliographic, chemical,
# crystal, experimental, refinement or atomic coordinate data resulting
# from the CCDC's data processing and validation procedures.
#
#######################################################################

data_CSD_CIF_DIBSUC
_audit_creation_date 1986-09-02
_audit_creation_method CSD-ConQuest-V1
_database_code_CSD DIBSUC
_database_code_depnum_ccdc_archive 'CCDC 1140169'
_chemical_formula_sum 'C41 H24 F12 La1 N1 O8 S4'
_chemical_formula_moiety
;
C32 H16 F12 La1 O8 S4 1-,C9 H8 N1 1+
;
_journal_coden_Cambridge 634
_journal_volume 14
_journal_year 1984
_journal_page_first 140
_journal_name_full 'Zhongguo Kexue Jishu Daxue Xuebao(Chin.)(J.Chin.Univ.Sci.Tech.Suppl) '
loop_
_publ_author_name
"Wei Anzhi"
"Teng Maikun"
"Dai Jinbi"
"Liang Dongcai"
"Sun Jiabin"
_chemical_name_systematic
;
Quinolinium 
tetrakis(4,4,4-trifluoro-1-(2-thienyl)-1,3-butadione)-lanthanum(iii)
;
_chemical_name_common
;
Teaching Subset: Fundamental Chemistry
;
_cell_volume   2574.440
_exptl_crystal_density_diffrn 1.5
_diffrn_ambient_temperature ?
_diffrn_special_details
;
The study was carried out at room temperature,in the range 283-303K

;
#These two values have been output from a single CSD field.
_refine_ls_R_factor_gt 0.073
_refine_ls_wR_factor_gt 0.073
_symmetry_cell_setting triclinic
_symmetry_space_group_name_H-M 'P -1'
_symmetry_Int_Tables_number 2
loop_
_symmetry_equiv_pos_site_id
_symmetry_equiv_pos_as_xyz
1 x,y,z
2 -x,-y,-z
_cell_length_a 19.752
_cell_length_b 12.361
_cell_length_c 10.988
_cell_angle_alpha 98.08
_cell_angle_beta 98.95
_cell_angle_gamma 99.61
_cell_formula_units_Z 2
loop_
_atom_type_symbol
_atom_type_radius_bond
C 0.68
H 0.23
F 0.64
La 1.87
N 0.68
O 0.68
S 1.02
loop_
_atom_site_label
_atom_site_type_symbol
_atom_site_fract_x
_atom_site_fract_y
_atom_site_fract_z
C1 C 0.2037(7) 0.3051(11) 0.9292(10)
C2 C 0.2250(11) 0.2451(19) 0.8474(17)
C3 C 0.1939(10) 0.2395(18) 0.7140(15)
N1 N 0.1475(9) 0.3038(14) 0.6821(14)
C4 C 0.0820(9) 0.4484(16) 0.7561(15)
C5 C 0.0643(10) 0.5110(16) 0.8508(17)
C6 C 0.0922(10) 0.5069(15) 0.9771(16)
C7 C 0.1376(9) 0.4392(13) 1.0019(13)
C8 C 0.1589(8) 0.3704(13) 0.9054(12)
C9 C 0.1278(8) 0.3739(14) 0.7768(13)
H1 H 0.223(8) 0.303(13) 1.014(16)
H2 H 0.262(8) 0.203(12) 0.872(15)
H3 H 0.208(9) 0.185(14) 0.645(16)
H4 H 0.063(8) 0.453(13) 0.666(15)
H5 H 0.026(8) 0.568(12) 0.834(14)
H6 H 0.077(8) 0.561(12) 1.051(14)
H7 H 0.160(8) 0.444(12) 1.094(14)
La1 La 0.20940 0.2201(1) 0.3046(1)
S1 S 0.4589(3) 0.1500(5) 0.4900(6)
S2 S -0.0518(3) 0.1927(7) -0.1051(6)
S3 S 0.2117(3) -0.0927(4) -0.0586(4)
S4 S 0.3833(3) 0.3848(6) 0.7044(6)
F1 F 0.4061(6) 0.5629(10) 0.1847(14)
F2 F 0.3003(7) 0.5617(10) 0.1983(16)
F3 F 0.3250(8) 0.4777(13) 0.0342(12)
F4 F -0.0787(6) 0.2389(21) 0.3337(11)
F5 F -0.0235(11) 0.1715(22) 0.4616(18)
F6 F 0.0019(9) 0.3302(17) 0.4608(16)
F7 F 0.3067(8) 0.0296(10) 0.6287(11)
F8 F 0.2092(7) -0.0710(13) 0.6025(11)
F9 F 0.2918(8) -0.1385(11) 0.5407(10)
F10 F 0.1542(8) 0.6701(10) 0.4634(12)
F11 F 0.0842(7) 0.5464(12) 0.3476(22)
F12 F 0.1639(11) 0.6265(13) 0.2797(14)
O1 O 0.3377(5) 0.2056(8) 0.3417(9)
O2 O 0.2768(5) 0.3254(8) 0.1696(8)
O3 O 0.1192(5) 0.1863(8) 0.1133(7)
O4 O 0.0930(5) 0.2068(9) 0.3620(7)
O5 O 0.2163(5) 0.0440(7) 0.1789(8)
O6 O 0.2184(5) 0.0776(7) 0.4366(8)
O7 O 0.2691(5) 0.3433(8) 0.4999(8)
O8 O 0.1774(5) 0.4102(8) 0.3232(8)
C10 C 0.4580(8) 0.2676(13) 0.4234(13)
C11 C 0.5238(7) 0.3364(14) 0.4478(14)
C12 C 0.5723(9) 0.2867(19) 0.5169(19)
C13 C 0.5445(10) 0.1874(21) 0.5443(20)
C14 C 0.3913(7) 0.2800(12) 0.3547(12)
C15 C 0.3910(7) 0.3795(12) 0.2966(14)
C16 C 0.3367(7) 0.3910(11) 0.2115(12)
C17 C 0.3441(10) 0.5000(15) 0.1587(17)
C18 C 0.0217(7) 0.1581(11) -0.0468(11)
C19 C 0.0563(5) 0.0954(8) -0.1449(7)
C20 C 0.0047(11) 0.0842(18) -0.2601(15)
C21 C -0.0526(12) 0.1375(23) -0.2470(16)
C22 C 0.0549(7) 0.1848(11) 0.0881(11)
C23 C 0.0113(7) 0.2027(13) 0.1737(11)
C24 C 0.0354(7) 0.2141(12) 0.3046(12)
C25 C -0.0203(9) 0.2344(21) 0.3859(14)
C26 C 0.2337(8) -0.1295(11) 0.0850(13)
C27 C 0.248(1) -0.2323(14) 0.0759(15)
C28 C 0.2391(12) -0.2868(15) -0.0536(18)
C29 C 0.2207(10) -0.2186(16) -0.1315(16)
C30 C 0.2337(7) -0.0476(12) 0.1962(13)
C31 C 0.2525(8) -0.0745(12) 0.3189(13)
C32 C 0.2432(7) -0.0090(12) 0.4238(12)
C33 C 0.2646(10) -0.0473(15) 0.5492(15)
C34 C 0.3352(8) 0.4772(13) 0.6652(13)
C35 C 0.3561(6) 0.5925(9) 0.7488(9)
C36 C 0.4163(12) 0.5739(18) 0.8345(17)
C37 C 0.4360(9) 0.4691(18) 0.8173(17)
C38 C 0.2778(7) 0.4418(12) 0.5544(12)
C39 C 0.2380(8) 0.5194(12) 0.5148(13)
C40 C 0.1903(7) 0.4958(11) 0.4050(13)
C41 C 0.1479(10) 0.5855(14) 0.3778(16)
H8 H 0.535(8) 0.423(12) 0.424(14)
H9 H 0.626(8) 0.315(13) 0.548(15)
H10 H 0.578(8) 0.130(12) 0.588(14)
H11 H 0.440(8) 0.445(12) 0.328(14)
H12 H 0.092(8) 0.080(13) -0.137(14)
H13 H 0.012(8) 0.034(13) -0.354(15)
H14 H -0.093(9) 0.134(14) -0.320(16)
H15 H -0.041(7) 0.203(12) 0.139(14)
H16 H 0.265(9) -0.267(14) 0.152(16)
H17 H 0.250(8) -0.371(12) -0.081(14)
H18 H 0.210(8) -0.246(12) -0.235(14)
H19 H 0.276(8) -0.150(12) 0.325(14)
H20 H 0.334(8) 0.646(12) 0.740(14)
H21 H 0.442(8) 0.633(12) 0.907(14)
H22 H 0.482(9) 0.448(14) 0.867(16)
H23 H 0.243(8) 0.602(12) 0.571(14)
#END
