####################################################################### 
# 
# This file contains crystal structure data downloaded from the 
# Cambridge Structural Database (CSD) hosted by the Cambridge 
# Crystallographic Data Centre (CCDC).
# 
# Full information about CCDC data access policies and citation 
# guidelines are available at http://www.ccdc.cam.ac.uk/access/V1 
# 
# Audit and citation data items may have been added by the CCDC. 
# Please retain this information to preserve the provenance of 
# this file and to allow appropriate attribution of the data. 
# 
#######################################################################

data_mo_20110111f_0m
_audit_block_doi                 10.5517/ccynn3b
_database_code_depnum_ccdc_archive 'CCDC 883782'
loop_
_citation_id
_citation_doi
_citation_year
1 10.1080/00958972.2013.790965 2013
_audit_update_record             
;
2012-05-24 deposited with the CCDC.	2024-07-09 downloaded from the CCDC.
;
#TrackingRef 'mo_20110111F_0m.cif'


_audit_creation_method           SHELXL-97
_chemical_name_systematic        
;
?
;
_chemical_name_common            ?
_chemical_melting_point          ?
_chemical_formula_moiety         'C22 H21 N2 O7 Zn, C3 H7 N O'
_chemical_formula_sum            'C25 H28 N3 O8 Zn'
_chemical_formula_weight         563.87

loop_
_atom_type_symbol
_atom_type_description
_atom_type_scat_dispersion_real
_atom_type_scat_dispersion_imag
_atom_type_scat_source
C C 0.0033 0.0016 'International Tables Vol C Tables 4.2.6.8 and 6.1.1.4'
H H 0.0000 0.0000 'International Tables Vol C Tables 4.2.6.8 and 6.1.1.4'
N N 0.0061 0.0033 'International Tables Vol C Tables 4.2.6.8 and 6.1.1.4'
O O 0.0106 0.0060 'International Tables Vol C Tables 4.2.6.8 and 6.1.1.4'
Zn Zn 0.2839 1.4301 'International Tables Vol C Tables 4.2.6.8 and 6.1.1.4'

_symmetry_cell_setting           Triclinic
_symmetry_space_group_name_H-M   'P -1'
_symmetry_space_group_name_Hall  '-P 1'

loop_
_symmetry_equiv_pos_as_xyz
'x, y, z'
'-x, -y, -z'

_cell_length_a                   8.5866(6)
_cell_length_b                   11.9990(8)
_cell_length_c                   14.0365(9)
_cell_angle_alpha                109.0130(10)
_cell_angle_beta                 103.5130(10)
_cell_angle_gamma                97.318(2)
_cell_volume                     1296.46(15)
_cell_formula_units_Z            2
_cell_measurement_temperature    298(2)
_cell_measurement_reflns_used    9873
_cell_measurement_theta_min      2.50
_cell_measurement_theta_max      28.46

_exptl_crystal_description       Prism
_exptl_crystal_colour            Colorless
_exptl_crystal_size_max          0.35
_exptl_crystal_size_mid          0.29
_exptl_crystal_size_min          0.25
_exptl_crystal_density_meas      ?
_exptl_crystal_density_diffrn    1.444
_exptl_crystal_density_method    'not measured'
_exptl_crystal_F_000             586
_exptl_absorpt_coefficient_mu    1.000
_exptl_absorpt_correction_type   Multi-scan
_exptl_absorpt_correction_T_min  0.7210
_exptl_absorpt_correction_T_max  0.7881
_exptl_absorpt_process_details   'SADABS (Bruker, 2002)'

_diffrn_ambient_temperature      298(2)
_diffrn_radiation_wavelength     0.71073
_diffrn_radiation_type           MoK\a
_diffrn_radiation_source         'fine-focus sealed tube'
_diffrn_radiation_monochromator  graphite
_diffrn_measurement_device_type  'Bruker APEX II area-detector diffractometer'
_diffrn_measurement_method       '\f and \w scans'
_diffrn_detector_area_resol_mean ?
_diffrn_standards_number         ?
_diffrn_standards_interval_count ?
_diffrn_standards_interval_time  ?
_diffrn_standards_decay_%        ?
_diffrn_reflns_number            17971
_diffrn_reflns_av_R_equivalents  0.0191
_diffrn_reflns_av_sigmaI/netI    0.0187
_diffrn_reflns_limit_h_min       -10
_diffrn_reflns_limit_h_max       10
_diffrn_reflns_limit_k_min       -14
_diffrn_reflns_limit_k_max       14
_diffrn_reflns_limit_l_min       -16
_diffrn_reflns_limit_l_max       16
_diffrn_reflns_theta_min         1.61
_diffrn_reflns_theta_max         25.10
_reflns_number_total             4589
_reflns_number_gt                4308
_reflns_threshold_expression     I>2\s(I)

_computing_data_collection       'SMART (Bruker, 2002)'
_computing_cell_refinement       'SAINT (Bruker, 2002)'
_computing_data_reduction        SAINT
_computing_structure_solution    'SHELXS-97 (Sheldrick, 1997)'
_computing_structure_refinement  'SHELXL-97 (Sheldrick, 1997)'
_computing_molecular_graphics    'XP (Bruker, 2002)'
_computing_publication_material  'SHELXL-97 (Bruker, 2002)'

_refine_special_details          
;
Refinement of F^2^ against ALL reflections. The weighted R-factor wR and
goodness of fit S are based on F^2^, conventional R-factors R are based
on F, with F set to zero for negative F^2^. The threshold expression of
F^2^ > 2sigma(F^2^) is used only for calculating R-factors(gt) etc. and is
not relevant to the choice of reflections for refinement. R-factors based
on F^2^ are statistically about twice as large as those based on F, and R-
factors based on ALL data will be even larger.
;

_refine_ls_structure_factor_coef Fsqd
_refine_ls_matrix_type           full
_refine_ls_weighting_scheme      calc
_refine_ls_weighting_details     
'calc w=1/[\s^2^(Fo^2^)+(0.0831P)^2^+0.6783P] where P=(Fo^2^+2Fc^2^)/3'
_atom_sites_solution_primary     direct
_atom_sites_solution_secondary   difmap
_atom_sites_solution_hydrogens   geom
_refine_ls_hydrogen_treatment    constr
_refine_ls_extinction_method     none
_refine_ls_extinction_coef       ?
_refine_ls_number_reflns         4589
_refine_ls_number_parameters     334
_refine_ls_number_restraints     24
_refine_ls_R_factor_all          0.0419
_refine_ls_R_factor_gt           0.0396
_refine_ls_wR_factor_ref         0.1255
_refine_ls_wR_factor_gt          0.1232
_refine_ls_goodness_of_fit_ref   1.075
_refine_ls_restrained_S_all      1.122
_refine_ls_shift/su_max          0.001
_refine_ls_shift/su_mean         0.000

loop_
_atom_site_label
_atom_site_type_symbol
_atom_site_fract_x
_atom_site_fract_y
_atom_site_fract_z
_atom_site_U_iso_or_equiv
_atom_site_adp_type
_atom_site_occupancy
_atom_site_symmetry_multiplicity
_atom_site_calc_flag
_atom_site_refinement_flags
_atom_site_disorder_assembly
_atom_site_disorder_group
Zn1 Zn 0.97518(3) 1.24099(2) 0.44066(2) 0.03966(14) Uani 1 1 d . . .
O1 O 0.8100(2) 1.08683(16) 0.35156(15) 0.0426(4) Uani 1 1 d . . .
O2 O 0.5859(3) 1.15026(19) 0.2939(2) 0.0699(7) Uani 1 1 d . . .
O3 O 0.2988(3) 0.58602(17) 0.08389(14) 0.0458(5) Uani 1 1 d . . .
O4 O 0.1454(3) 0.42927(17) -0.41446(15) 0.0504(5) Uani 1 1 d . . .
O5 O -0.0133(3) 0.27822(17) -0.40312(15) 0.0520(5) Uani 1 1 d . . .
O6 O 1.0747(3) 1.29536(18) 0.33779(17) 0.0581(6) Uani 1 1 d . . .
O7 O 0.9636(6) 0.8667(5) 0.1068(7) 0.211(4) Uani 1 1 d . . .
O8 O 0.7948(3) 1.34595(17) 0.42752(17) 0.0530(5) Uani 1 1 d . . .
H8A H 0.8104 1.4099 0.4141 0.079 Uiso 1 1 d R . .
H8B H 0.7111 1.2936 0.3828 0.079 Uiso 1 1 d R . .
N1 N 1.1704(3) 1.1452(2) 0.4566(2) 0.0474(6) Uani 1 1 d . . .
N2 N 1.2421(4) 1.4256(3) 0.3018(2) 0.0660(8) Uani 1 1 d U . .
N3 N 0.8159(4) 0.9947(3) 0.0742(3) 0.0672(8) Uani 1 1 d . . .
C1 C 0.6600(3) 1.0701(2) 0.3017(2) 0.0386(5) Uani 1 1 d . . .
C2 C 0.5657(3) 0.9408(2) 0.24638(18) 0.0345(5) Uani 1 1 d . . .
C3 C 0.3970(3) 0.9160(2) 0.2040(2) 0.0401(6) Uani 1 1 d . . .
H3 H 0.3431 0.9795 0.2121 0.048 Uiso 1 1 calc R . .
C4 C 0.3072(3) 0.7986(3) 0.1497(2) 0.0434(6) Uani 1 1 d . . .
H4 H 0.1937 0.7829 0.1221 0.052 Uiso 1 1 calc R . .
C5 C 0.3875(3) 0.7053(2) 0.13705(19) 0.0376(5) Uani 1 1 d . . .
C6 C 0.5541(4) 0.7267(2) 0.1790(2) 0.0480(7) Uani 1 1 d . . .
H6 H 0.6069 0.6626 0.1705 0.058 Uiso 1 1 calc R . .
C7 C 0.6436(3) 0.8447(2) 0.2343(2) 0.0471(6) Uani 1 1 d . . .
H7 H 0.7567 0.8595 0.2636 0.057 Uiso 1 1 calc R . .
C8 C 0.2477(3) 0.5428(2) -0.02463(19) 0.0358(5) Uani 1 1 d . . .
C9 C 0.1350(3) 0.4332(2) -0.0738(2) 0.0410(6) Uani 1 1 d . . .
H9 H 0.0957 0.3944 -0.0338 0.049 Uiso 1 1 calc R . .
C10 C 0.0810(3) 0.3818(2) -0.1823(2) 0.0400(6) Uani 1 1 d . . .
H10 H 0.0054 0.3080 -0.2151 0.048 Uiso 1 1 calc R . .
C11 C 0.1380(3) 0.4387(2) -0.24351(19) 0.0366(5) Uani 1 1 d . . .
C12 C 0.2505(4) 0.5488(2) -0.1925(2) 0.0430(6) Uani 1 1 d . . .
H12 H 0.2891 0.5882 -0.2324 0.052 Uiso 1 1 calc R . .
C13 C 0.3064(3) 0.6011(2) -0.0837(2) 0.0428(6) Uani 1 1 d . . .
H13 H 0.3825 0.6746 -0.0506 0.051 Uiso 1 1 calc R . .
C14 C 0.0871(3) 0.3793(2) -0.3605(2) 0.0417(6) Uani 1 1 d . . .
C15 C 1.1464(3) 1.0270(3) 0.4294(3) 0.0503(7) Uani 1 1 d . . .
H15 H 1.0393 0.9814 0.3981 0.060 Uiso 1 1 calc R . .
C16 C 1.2710(4) 0.9672(3) 0.4446(3) 0.0500(7) Uani 1 1 d . . .
H16 H 1.2465 0.8835 0.4238 0.060 Uiso 1 1 calc R . .
C17 C 1.4306(3) 1.0300(2) 0.4900(2) 0.0402(6) Uani 1 1 d . . .
C18 C 1.4562(4) 1.1531(3) 0.5146(4) 0.0895(16) Uani 1 1 d . . .
H18 H 1.5625 1.2003 0.5422 0.107 Uiso 1 1 calc R . .
C19 C 1.3262(4) 1.2056(3) 0.4985(4) 0.0936(17) Uani 1 1 d . . .
H19 H 1.3476 1.2892 0.5180 0.112 Uiso 1 1 calc R . .
C20 C 1.1510(4) 1.3964(3) 0.3554(2) 0.0497(7) Uani 1 1 d U . .
H20 H 1.1431 1.4587 0.4132 0.060 Uiso 1 1 calc R . .
C21 C 1.2584(11) 1.3355(7) 0.2106(6) 0.157(3) Uani 1 1 d U . .
H21A H 1.3173 1.2792 0.2292 0.236 Uiso 1 1 d R . .
H21B H 1.3152 1.3740 0.1744 0.236 Uiso 1 1 d R . .
H21C H 1.1498 1.2933 0.1654 0.236 Uiso 1 1 d R . .
C22 C 1.3211(6) 1.5479(4) 0.3248(4) 0.0906(13) Uani 1 1 d U . .
H22A H 1.3006 1.6004 0.3865 0.136 Uiso 1 1 d R . .
H22B H 1.2789 1.5712 0.2663 0.136 Uiso 1 1 d R . .
H22C H 1.4372 1.5540 0.3373 0.136 Uiso 1 1 d R . .
C23 C 0.9461(6) 0.9711(6) 0.1267(6) 0.115(2) Uani 1 1 d . . .
H23 H 1.0266 1.0342 0.1798 0.139 Uiso 1 1 calc R . .
C24 C 0.6815(8) 0.8998(5) -0.0037(4) 0.1118(18) Uani 1 1 d . . .
H24A H 0.7099 0.8229 -0.0131 0.168 Uiso 1 1 d R . .
H24B H 0.6602 0.9119 -0.0695 0.168 Uiso 1 1 d R . .
H24C H 0.5850 0.9015 0.0197 0.168 Uiso 1 1 d R . .
C25 C 0.7962(7) 1.1166(4) 0.0962(4) 0.0926(14) Uani 1 1 d . . .
H25A H 0.8923 1.1712 0.1493 0.139 Uiso 1 1 d R . .
H25B H 0.7018 1.1262 0.1211 0.139 Uiso 1 1 d R . .
H25C H 0.7815 1.1342 0.0331 0.139 Uiso 1 1 d R . .

loop_
_atom_site_aniso_label
_atom_site_aniso_U_11
_atom_site_aniso_U_22
_atom_site_aniso_U_33
_atom_site_aniso_U_23
_atom_site_aniso_U_13
_atom_site_aniso_U_12
Zn1 0.0436(2) 0.0312(2) 0.0313(2) 0.00597(14) 0.00214(14) -0.00430(13)
O1 0.0394(9) 0.0312(9) 0.0392(10) 0.0048(8) -0.0033(8) -0.0039(7)
O2 0.0484(12) 0.0322(10) 0.103(2) 0.0117(11) -0.0029(12) 0.0027(9)
O3 0.0582(12) 0.0323(9) 0.0304(9) 0.0066(7) 0.0011(8) -0.0110(8)
O4 0.0737(14) 0.0360(10) 0.0345(10) 0.0094(8) 0.0123(9) 0.0039(9)
O5 0.0699(13) 0.0330(10) 0.0317(9) 0.0023(8) 0.0002(9) -0.0087(9)
O6 0.0767(15) 0.0404(11) 0.0451(11) 0.0067(9) 0.0205(11) -0.0088(10)
O7 0.121(4) 0.177(5) 0.450(12) 0.206(7) 0.129(5) 0.101(4)
O8 0.0641(13) 0.0301(10) 0.0521(12) 0.0098(9) 0.0056(10) 0.0029(9)
N1 0.0418(12) 0.0382(12) 0.0464(13) 0.0082(10) 0.0002(10) -0.0014(10)
N2 0.0759(18) 0.0524(15) 0.0594(16) 0.0075(12) 0.0323(14) -0.0089(13)
N3 0.078(2) 0.0614(18) 0.0645(18) 0.0247(15) 0.0191(16) 0.0215(15)
C1 0.0394(13) 0.0309(12) 0.0362(13) 0.0058(10) 0.0074(10) 0.0002(10)
C2 0.0370(12) 0.0304(12) 0.0265(11) 0.0047(9) 0.0037(9) 0.0005(10)
C3 0.0377(13) 0.0337(13) 0.0426(14) 0.0090(11) 0.0083(11) 0.0063(10)
C4 0.0311(12) 0.0417(14) 0.0438(14) 0.0094(11) 0.0009(10) -0.0018(10)
C5 0.0435(13) 0.0324(12) 0.0257(11) 0.0061(10) 0.0028(10) -0.0043(10)
C6 0.0457(15) 0.0316(13) 0.0524(16) 0.0070(12) 0.0007(12) 0.0081(11)
C7 0.0335(13) 0.0375(14) 0.0533(16) 0.0074(12) -0.0018(11) 0.0022(11)
C8 0.0401(12) 0.0294(12) 0.0287(12) 0.0056(10) 0.0039(10) 0.0021(10)
C9 0.0427(13) 0.0346(13) 0.0363(13) 0.0095(10) 0.0075(11) -0.0066(10)
C10 0.0409(13) 0.0284(12) 0.0357(13) 0.0053(10) 0.0010(10) -0.0069(10)
C11 0.0405(13) 0.0268(11) 0.0326(13) 0.0055(10) 0.0028(10) 0.0025(10)
C12 0.0554(16) 0.0313(12) 0.0345(13) 0.0101(11) 0.0087(12) -0.0034(11)
C13 0.0511(15) 0.0266(12) 0.0351(13) 0.0049(10) 0.0030(11) -0.0100(11)
C14 0.0517(15) 0.0302(12) 0.0337(13) 0.0067(11) 0.0043(11) 0.0047(11)
C15 0.0365(13) 0.0449(15) 0.0571(17) 0.0166(13) 0.0017(12) -0.0052(11)
C16 0.0450(14) 0.0342(14) 0.0605(18) 0.0150(13) 0.0067(13) -0.0040(11)
C17 0.0425(13) 0.0333(13) 0.0340(13) 0.0076(10) 0.0044(10) -0.0030(10)
C18 0.0416(17) 0.0335(16) 0.147(4) 0.006(2) -0.013(2) -0.0048(13)
C19 0.0490(19) 0.0307(16) 0.154(4) 0.008(2) -0.013(2) -0.0031(14)
C20 0.0595(16) 0.0420(15) 0.0424(14) 0.0107(12) 0.0161(13) 0.0052(13)
C21 0.183(5) 0.143(4) 0.143(4) 0.025(3) 0.104(4) -0.007(3)
C22 0.107(3) 0.070(2) 0.089(3) 0.026(2) 0.042(2) -0.012(2)
C23 0.075(3) 0.128(5) 0.192(7) 0.106(5) 0.047(4) 0.043(3)
C24 0.135(5) 0.095(4) 0.081(3) 0.012(3) 0.021(3) 0.016(3)
C25 0.122(4) 0.076(3) 0.077(3) 0.033(2) 0.011(3) 0.034(3)

_geom_special_details            
;
All esds (except the esd in the dihedral angle between two l.s. planes)
are estimated using the full covariance matrix. The cell esds are taken
into account individually in the estimation of esds in distances, angles
and torsion angles; correlations between esds in cell parameters are only
used when they are defined by crystal symmetry. An approximate (isotropic)
treatment of cell esds is used for estimating esds involving l.s. planes.
;

loop_
_geom_bond_atom_site_label_1
_geom_bond_atom_site_label_2
_geom_bond_distance
_geom_bond_site_symmetry_2
_geom_bond_publ_flag
Zn1 O1 1.9982(17) . ?
Zn1 O5 2.066(2) 1_666 ?
Zn1 O6 2.071(2) . ?
Zn1 O8 2.130(2) . ?
Zn1 N1 2.159(3) . ?
Zn1 O4 2.480(2) 1_666 ?
O1 C1 1.269(3) . ?
O2 C1 1.238(3) . ?
O3 C8 1.377(3) . ?
O3 C5 1.395(3) . ?
O4 C14 1.257(3) . ?
O4 Zn1 2.480(2) 1_444 ?
O5 C14 1.262(3) . ?
O5 Zn1 2.066(2) 1_444 ?
O6 C20 1.219(4) . ?
O7 C23 1.228(7) . ?
O8 H8A 0.8499 . ?
O8 H8B 0.8500 . ?
N1 C15 1.318(4) . ?
N1 C19 1.329(4) . ?
N2 C20 1.296(4) . ?
N2 C21 1.431(7) . ?
N2 C22 1.432(5) . ?
N3 C23 1.305(6) . ?
N3 C25 1.435(5) . ?
N3 C24 1.445(6) . ?
C1 C2 1.506(3) . ?
C2 C3 1.383(4) . ?
C2 C7 1.389(4) . ?
C3 C4 1.382(4) . ?
C3 H3 0.9300 . ?
C4 C5 1.373(4) . ?
C4 H4 0.9300 . ?
C5 C6 1.369(4) . ?
C6 C7 1.388(4) . ?
C6 H6 0.9300 . ?
C7 H7 0.9300 . ?
C8 C9 1.384(3) . ?
C8 C13 1.384(4) . ?
C9 C10 1.378(4) . ?
C9 H9 0.9300 . ?
C10 C11 1.392(4) . ?
C10 H10 0.9300 . ?
C11 C12 1.388(4) . ?
C11 C14 1.490(3) . ?
C12 C13 1.384(4) . ?
C12 H12 0.9300 . ?
C13 H13 0.9300 . ?
C15 C16 1.376(4) . ?
C15 H15 0.9300 . ?
C16 C17 1.367(4) . ?
C16 H16 0.9300 . ?
C17 C18 1.378(4) . ?
C17 C17 1.487(6) 2_876 ?
C18 C19 1.359(5) . ?
C18 H18 0.9300 . ?
C19 H19 0.9300 . ?
C20 H20 0.9300 . ?
C21 H21A 0.9600 . ?
C21 H21B 0.9600 . ?
C21 H21C 0.9600 . ?
C22 H22A 0.9600 . ?
C22 H22B 0.9600 . ?
C22 H22C 0.9600 . ?
C23 H23 0.9300 . ?
C24 H24A 0.9600 . ?
C24 H24B 0.9600 . ?
C24 H24C 0.9600 . ?
C25 H25A 0.9600 . ?
C25 H25B 0.9600 . ?
C25 H25C 0.9600 . ?

loop_
_geom_angle_atom_site_label_1
_geom_angle_atom_site_label_2
_geom_angle_atom_site_label_3
_geom_angle
_geom_angle_site_symmetry_1
_geom_angle_site_symmetry_3
_geom_angle_publ_flag
O1 Zn1 O5 109.03(8) . 1_666 ?
O1 Zn1 O6 105.81(8) . . ?
O5 Zn1 O6 145.07(8) 1_666 . ?
O1 Zn1 O8 92.03(8) . . ?
O5 Zn1 O8 89.97(9) 1_666 . ?
O6 Zn1 O8 91.28(9) . . ?
O1 Zn1 N1 91.52(8) . . ?
O5 Zn1 N1 90.16(10) 1_666 . ?
O6 Zn1 N1 86.43(10) . . ?
O8 Zn1 N1 176.19(8) . . ?
O1 Zn1 O4 165.37(8) . 1_666 ?
O5 Zn1 O4 56.92(7) 1_666 1_666 ?
O6 Zn1 O4 88.48(7) . 1_666 ?
O8 Zn1 O4 84.37(8) . 1_666 ?
N1 Zn1 O4 92.52(8) . 1_666 ?
C1 O1 Zn1 129.74(17) . . ?
C8 O3 C5 117.91(19) . . ?
C14 O4 Zn1 81.31(15) . 1_444 ?
C14 O5 Zn1 100.29(17) . 1_444 ?
C20 O6 Zn1 126.3(2) . . ?
Zn1 O8 H8A 122.9 . . ?
Zn1 O8 H8B 102.4 . . ?
H8A O8 H8B 112.2 . . ?
C15 N1 C19 115.6(3) . . ?
C15 N1 Zn1 124.04(19) . . ?
C19 N1 Zn1 120.3(2) . . ?
C20 N2 C21 120.3(4) . . ?
C20 N2 C22 122.9(3) . . ?
C21 N2 C22 116.7(4) . . ?
C23 N3 C25 121.0(5) . . ?
C23 N3 C24 121.9(5) . . ?
C25 N3 C24 117.0(4) . . ?
O2 C1 O1 125.8(2) . . ?
O2 C1 C2 117.7(2) . . ?
O1 C1 C2 116.4(2) . . ?
C3 C2 C7 118.6(2) . . ?
C3 C2 C1 119.5(2) . . ?
C7 C2 C1 121.9(2) . . ?
C4 C3 C2 121.1(2) . . ?
C4 C3 H3 119.5 . . ?
C2 C3 H3 119.5 . . ?
C5 C4 C3 119.2(2) . . ?
C5 C4 H4 120.4 . . ?
C3 C4 H4 120.4 . . ?
C6 C5 C4 121.1(2) . . ?
C6 C5 O3 118.8(2) . . ?
C4 C5 O3 120.1(2) . . ?
C5 C6 C7 119.5(3) . . ?
C5 C6 H6 120.3 . . ?
C7 C6 H6 120.3 . . ?
C6 C7 C2 120.5(2) . . ?
C6 C7 H7 119.7 . . ?
C2 C7 H7 119.7 . . ?
O3 C8 C9 116.0(2) . . ?
O3 C8 C13 123.5(2) . . ?
C9 C8 C13 120.4(2) . . ?
C10 C9 C8 119.8(2) . . ?
C10 C9 H9 120.1 . . ?
C8 C9 H9 120.1 . . ?
C9 C10 C11 120.9(2) . . ?
C9 C10 H10 119.5 . . ?
C11 C10 H10 119.5 . . ?
C12 C11 C10 118.3(2) . . ?
C12 C11 C14 120.9(2) . . ?
C10 C11 C14 120.7(2) . . ?
C13 C12 C11 121.3(2) . . ?
C13 C12 H12 119.3 . . ?
C11 C12 H12 119.3 . . ?
C8 C13 C12 119.2(2) . . ?
C8 C13 H13 120.4 . . ?
C12 C13 H13 120.4 . . ?
O4 C14 O5 121.4(2) . . ?
O4 C14 C11 120.0(2) . . ?
O5 C14 C11 118.5(2) . . ?
N1 C15 C16 123.7(3) . . ?
N1 C15 H15 118.2 . . ?
C16 C15 H15 118.2 . . ?
C17 C16 C15 120.4(3) . . ?
C17 C16 H16 119.8 . . ?
C15 C16 H16 119.8 . . ?
C16 C17 C18 115.8(3) . . ?
C16 C17 C17 122.6(3) . 2_876 ?
C18 C1