####################################################################### 
# 
# This file contains crystal structure data downloaded from the 
# Cambridge Structural Database (CSD) hosted by the Cambridge 
# Crystallographic Data Centre (CCDC).
# 
# Full information about CCDC data access policies and citation 
# guidelines are available at http://www.ccdc.cam.ac.uk/access/V1 
# 
# Audit and citation data items may have been added by the CCDC. 
# Please retain this information to preserve the provenance of 
# this file and to allow appropriate attribution of the data. 
# 
#######################################################################

data_2
_audit_block_doi                 10.5517/ccynn29
_database_code_depnum_ccdc_archive 'CCDC 883781'
loop_
_citation_id
_citation_doi
_citation_year
1 10.1080/00958972.2013.790965 2013
_audit_update_record             
;
2012-05-24 deposited with the CCDC.	2024-07-09 downloaded from the CCDC.
;
#TrackingRef '2.cif'


_audit_creation_method           SHELXL-97
_chemical_name_systematic        
;
?
;
_chemical_name_common            ?
_chemical_melting_point          ?
_chemical_formula_moiety         ?
_chemical_formula_sum            'C24 H20 N2 O7 Zn'
_chemical_formula_weight         513.79

loop_
_atom_type_symbol
_atom_type_description
_atom_type_scat_dispersion_real
_atom_type_scat_dispersion_imag
_atom_type_scat_source
C C 0.0033 0.0016 'International Tables Vol C Tables 4.2.6.8 and 6.1.1.4'
H H 0.0000 0.0000 'International Tables Vol C Tables 4.2.6.8 and 6.1.1.4'
N N 0.0061 0.0033 'International Tables Vol C Tables 4.2.6.8 and 6.1.1.4'
O O 0.0106 0.0060 'International Tables Vol C Tables 4.2.6.8 and 6.1.1.4'
Zn Zn 0.2839 1.4301 'International Tables Vol C Tables 4.2.6.8 and 6.1.1.4'

_symmetry_cell_setting           Triclinic
_symmetry_space_group_name_H-M   'P -1'
_symmetry_space_group_name_Hall  '-P 1'

loop_
_symmetry_equiv_pos_as_xyz
'x, y, z'
'-x, -y, -z'

_cell_length_a                   9.7165(5)
_cell_length_b                   11.0980(6)
_cell_length_c                   14.6325(12)
_cell_angle_alpha                104.177(2)
_cell_angle_beta                 95.665(2)
_cell_angle_gamma                112.6330(10)
_cell_volume                     1378.79(15)
_cell_formula_units_Z            2
_cell_measurement_temperature    298(2)
_cell_measurement_reflns_used    5021
_cell_measurement_theta_min      2.38
_cell_measurement_theta_max      27.31

_exptl_crystal_description       Prism
_exptl_crystal_colour            Colorless
_exptl_crystal_size_max          0.31
_exptl_crystal_size_mid          0.23
_exptl_crystal_size_min          0.15
_exptl_crystal_density_meas      0
_exptl_crystal_density_diffrn    1.238
_exptl_crystal_density_method    'not measured'
_exptl_crystal_F_000             528
_exptl_absorpt_coefficient_mu    0.931
_exptl_absorpt_correction_type   Multi-scan
_exptl_absorpt_correction_T_min  0.7613
_exptl_absorpt_correction_T_max  0.8730
_exptl_absorpt_process_details   'SADABS (Bruker, 2002)'

_diffrn_ambient_temperature      298(2)
_diffrn_radiation_wavelength     0.71073
_diffrn_radiation_type           MoK\a
_diffrn_radiation_source         'fine-focus sealed tube'
_diffrn_radiation_monochromator  graphite
_diffrn_measurement_device_type  'Bruker APEX II area-detector diffractometer'
_diffrn_measurement_method       '\f and \w scans'
_diffrn_detector_area_resol_mean ?
_diffrn_standards_number         ?
_diffrn_standards_interval_count ?
_diffrn_standards_interval_time  ?
_diffrn_standards_decay_%        ?
_diffrn_reflns_number            19514
_diffrn_reflns_av_R_equivalents  0.0916
_diffrn_reflns_av_sigmaI/netI    0.0605
_diffrn_reflns_limit_h_min       -11
_diffrn_reflns_limit_h_max       11
_diffrn_reflns_limit_k_min       -13
_diffrn_reflns_limit_k_max       13
_diffrn_reflns_limit_l_min       -17
_diffrn_reflns_limit_l_max       17
_diffrn_reflns_theta_min         2.38
_diffrn_reflns_theta_max         25.10
_reflns_number_total             4767
_reflns_number_gt                4054
_reflns_threshold_expression     I>2\s(I)

_computing_data_collection       'SMART (Bruker, 2002)'
_computing_cell_refinement       'SAINT (Bruker, 2002)'
_computing_data_reduction        SAINT
_computing_structure_solution    'SHELXS-97 (Sheldrick, 1997)'
_computing_structure_refinement  'SHELXL-97 (Sheldrick, 1997)'
_computing_molecular_graphics    'XP (Bruker, 2002)'
_computing_publication_material  'SHELXL-97 (Bruker, 2002)'

_refine_special_details          
;
Refinement of F^2^ against ALL reflections. The weighted R-factor wR and
goodness of fit S are based on F^2^, conventional R-factors R are based
on F, with F set to zero for negative F^2^. The threshold expression of
F^2^ > 2sigma(F^2^) is used only for calculating R-factors(gt) etc. and is
not relevant to the choice of reflections for refinement. R-factors based
on F^2^ are statistically about twice as large as those based on F, and R-
factors based on ALL data will be even larger.
;

_refine_ls_structure_factor_coef Fsqd
_refine_ls_matrix_type           full
_refine_ls_weighting_scheme      calc
_refine_ls_weighting_details     
'calc w=1/[\s^2^(Fo^2^)+(0.1734P)^2^+0.0000P] where P=(Fo^2^+2Fc^2^)/3'
_atom_sites_solution_primary     direct
_atom_sites_solution_secondary   difmap
_atom_sites_solution_hydrogens   geom
_refine_ls_hydrogen_treatment    constr
_refine_ls_extinction_method     none
_refine_ls_extinction_coef       ?
_refine_ls_number_reflns         4767
_refine_ls_number_parameters     334
_refine_ls_number_restraints     30
_refine_ls_R_factor_all          0.0886
_refine_ls_R_factor_gt           0.0771
_refine_ls_wR_factor_ref         0.2171
_refine_ls_wR_factor_gt          0.2054
_refine_ls_goodness_of_fit_ref   1.065
_refine_ls_restrained_S_all      1.074
_refine_ls_shift/su_max          0.005
_refine_ls_shift/su_mean         0.000

loop_
_atom_site_label
_atom_site_type_symbol
_atom_site_fract_x
_atom_site_fract_y
_atom_site_fract_z
_atom_site_U_iso_or_equiv
_atom_site_adp_type
_atom_site_occupancy
_atom_site_symmetry_multiplicity
_atom_site_calc_flag
_atom_site_refinement_flags
_atom_site_disorder_assembly
_atom_site_disorder_group
Zn1 Zn 0.25616(5) 0.68566(4) -0.05397(3) 0.0383(2) Uani 1 1 d . . .
O1 O 0.2405(4) 0.6452(3) 0.1018(2) 0.0492(7) Uani 1 1 d . . .
O2 O 0.2809(4) 0.8365(3) 0.0672(2) 0.0492(7) Uani 1 1 d . . .
O3 O 0.2511(4) 1.0384(4) 0.5050(2) 0.0561(8) Uani 1 1 d . . .
O4 O 0.2533(3) 0.7793(4) 0.8438(2) 0.0456(7) Uani 1 1 d . . .
O5 O 0.0159(5) 0.7505(9) 0.8160(5) 0.124(3) Uani 1 1 d . . .
O6 O 0.0138(4) 0.5980(4) -0.0752(3) 0.0568(9) Uani 1 1 d . . .
H6A H -0.0184 0.6170 -0.1235 0.085 Uiso 1 1 d R . .
H6B H -0.0421 0.5154 -0.0793 0.085 Uiso 1 1 d R . .
O7 O 0.7543(17) 0.7469(15) 0.7591(11) 0.062(3) Uani 0.25 1 d PU . .
H7D H 0.6686 0.7475 0.7659 0.093 Uiso 0.25 1 d PR . .
H7A H 0.7598 0.6782 0.7724 0.093 Uiso 0.25 1 d PR . .
O8 O 0.549(2) 0.3647(19) 0.3373(14) 0.080(4) Uani 0.25 1 d PU . .
H8B H 0.5226 0.2819 0.3040 0.121 Uiso 0.25 1 d PR . .
H8C H 0.6453 0.4083 0.3489 0.121 Uiso 0.25 1 d PR . .
O9 O 0.182(2) 0.541(2) 0.4634(14) 0.086(5) Uani 0.25 1 d PU . .
H9A H 0.1919 0.6026 0.5148 0.129 Uiso 0.25 1 d PR . .
H9C H 0.2492 0.5113 0.4716 0.129 Uiso 0.25 1 d PR . .
O10 O 0.677(3) 0.637(2) 0.4502(17) 0.103(6) Uani 0.25 1 d PU . .
H10A H 0.7221 0.6473 0.4040 0.154 Uiso 0.25 1 d PR . .
H10C H 0.6164 0.5525 0.4377 0.154 Uiso 0.25 1 d PR . .
N1 N 0.2697(4) 0.4993(4) -0.1169(3) 0.0505(9) Uani 1 1 d . . .
N2 N 0.4978(4) 0.7448(4) -0.0368(2) 0.0398(7) Uani 1 1 d . . .
C1 C 0.1504(7) 0.3779(6) -0.1550(6) 0.088(2) Uani 1 1 d . . .
H1 H 0.0536 0.3728 -0.1508 0.105 Uiso 1 1 calc R . .
C2 C 0.1632(8) 0.2587(7) -0.2005(8) 0.110(3) Uani 1 1 d . . .
H2 H 0.0771 0.1777 -0.2326 0.131 Uiso 1 1 calc R . .
C3 C 0.3062(8) 0.2646(6) -0.1966(6) 0.088(2) Uani 1 1 d . . .
H3 H 0.3194 0.1850 -0.2208 0.106 Uiso 1 1 calc R . .
C4 C 0.4317(6) 0.3891(6) -0.1563(4) 0.0610(13) Uani 1 1 d . . .
H4 H 0.5299 0.3950 -0.1557 0.073 Uiso 1 1 calc R . .
C5 C 0.4089(5) 0.5046(5) -0.1171(3) 0.0457(10) Uani 1 1 d . . .
C6 C 0.5364(5) 0.6425(5) -0.0739(3) 0.0465(10) Uani 1 1 d . . .
C7 C 0.6867(6) 0.6647(8) -0.0673(6) 0.095(2) Uani 1 1 d . . .
H7 H 0.7128 0.5917 -0.0876 0.114 Uiso 1 1 calc R . .
C8 C 0.7978(10) 0.7970(9) -0.0302(7) 0.103(2) Uani 1 1 d U . .
H8 H 0.9000 0.8152 -0.0280 0.124 Uiso 1 1 calc R . .
C9 C 0.7547(7) 0.9049(7) 0.0045(7) 0.094(2) Uani 1 1 d . . .
H9 H 0.8272 0.9955 0.0291 0.113 Uiso 1 1 calc R . .
C10 C 0.6057(6) 0.8720(5) 0.0008(4) 0.0569(12) Uani 1 1 d . . .
H10 H 0.5766 0.9419 0.0257 0.068 Uiso 1 1 calc R . .
C11 C 0.2594(5) 0.7673(5) 0.1266(3) 0.0418(9) Uani 1 1 d . . .
C12 C 0.2574(4) 0.8375(4) 0.2274(3) 0.0374(8) Uani 1 1 d . . .
C13 C 0.2718(5) 0.9708(5) 0.2532(3) 0.0428(9) Uani 1 1 d . . .
H13 H 0.2824 1.0174 0.2075 0.051 Uiso 1 1 calc R . .
C14 C 0.2706(5) 1.0357(5) 0.3473(3) 0.0442(9) Uani 1 1 d . . .
H14 H 0.2812 1.1258 0.3646 0.053 Uiso 1 1 calc R . .
C15 C 0.2536(5) 0.9665(5) 0.4144(3) 0.0425(9) Uani 1 1 d . . .
C16 C 0.2373(5) 0.8328(5) 0.3897(3) 0.0463(10) Uani 1 1 d . . .
H16 H 0.2228 0.7855 0.4350 0.056 Uiso 1 1 calc R . .
C17 C 0.2429(5) 0.7692(5) 0.2960(3) 0.0454(10) Uani 1 1 d . . .
H17 H 0.2368 0.6806 0.2796 0.054 Uiso 1 1 calc R . .
C18 C 0.2269(5) 0.9727(5) 0.5747(3) 0.0475(10) Uani 1 1 d . . .
C19 C 0.0825(7) 0.9252(10) 0.5940(5) 0.093(3) Uani 1 1 d . . .
H19 H 0.0036 0.9341 0.5590 0.112 Uiso 1 1 calc R . .
C20 C 0.0571(7) 0.8632(10) 0.6672(6) 0.098(3) Uani 1 1 d . . .
H20 H -0.0406 0.8267 0.6790 0.118 Uiso 1 1 calc R . .
C21 C 0.1749(5) 0.8561(6) 0.7214(3) 0.0505(11) Uani 1 1 d . . .
C22 C 0.3185(5) 0.9113(5) 0.7038(3) 0.0455(10) Uani 1 1 d . . .
H22 H 0.3996 0.9094 0.7419 0.055 Uiso 1 1 calc R . .
C23 C 0.3448(5) 0.9695(5) 0.6304(3) 0.0493(10) Uani 1 1 d . . .
H23 H 0.4428 1.0064 0.6191 0.059 Uiso 1 1 calc R . .
C24 C 0.1430(5) 0.7869(6) 0.7989(3) 0.0553(12) Uani 1 1 d . . .

loop_
_atom_site_aniso_label
_atom_site_aniso_U_11
_atom_site_aniso_U_22
_atom_site_aniso_U_33
_atom_site_aniso_U_23
_atom_site_aniso_U_13
_atom_site_aniso_U_12
Zn1 0.0384(3) 0.0430(3) 0.0388(3) 0.0121(2) 0.0126(2) 0.0220(2)
O1 0.0494(16) 0.0529(18) 0.0489(17) 0.0137(14) 0.0183(13) 0.0249(14)
O2 0.0680(18) 0.0546(17) 0.0363(14) 0.0182(13) 0.0258(13) 0.0317(15)
O3 0.080(2) 0.064(2) 0.0317(14) 0.0204(14) 0.0205(14) 0.0332(18)
O4 0.0418(15) 0.0666(19) 0.0379(14) 0.0227(13) 0.0124(12) 0.0277(14)
O5 0.062(2) 0.253(8) 0.142(5) 0.164(6) 0.060(3) 0.084(4)
O6 0.0383(15) 0.062(2) 0.084(2) 0.0418(18) 0.0186(15) 0.0230(15)
O7 0.063(4) 0.060(4) 0.064(4) 0.022(3) 0.014(3) 0.027(3)
O8 0.081(5) 0.080(5) 0.080(5) 0.023(3) 0.018(3) 0.034(3)
O9 0.085(6) 0.088(6) 0.086(6) 0.029(3) 0.016(3) 0.038(3)
O10 0.103(7) 0.101(7) 0.103(7) 0.029(3) 0.026(3) 0.044(4)
N1 0.0398(18) 0.048(2) 0.057(2) 0.0004(16) 0.0039(16) 0.0230(16)
N2 0.0359(16) 0.0454(18) 0.0389(16) 0.0127(14) 0.0102(13) 0.0176(14)
C1 0.046(3) 0.052(3) 0.134(6) -0.017(3) 0.001(3) 0.021(2)
C2 0.062(4) 0.055(3) 0.169(8) -0.020(4) -0.011(4) 0.022(3)
C3 0.080(4) 0.058(3) 0.109(5) -0.016(3) 0.001(4) 0.041(3)
C4 0.056(3) 0.061(3) 0.062(3) -0.001(2) 0.010(2) 0.034(2)
C5 0.037(2) 0.056(2) 0.042(2) 0.0032(18) 0.0084(16) 0.0236(19)
C6 0.040(2) 0.053(2) 0.043(2) 0.0050(18) 0.0132(17) 0.0221(19)
C7 0.042(3) 0.083(4) 0.135(6) -0.009(4) 0.025(3) 0.027(3)
C8 0.083(3) 0.103(3) 0.119(3) 0.017(2) 0.033(2) 0.042(2)
C9 0.053(3) 0.070(4) 0.133(6) 0.012(4) 0.030(4) 0.009(3)
C10 0.050(3) 0.045(2) 0.068(3) 0.012(2) 0.009(2) 0.017(2)
C11 0.040(2) 0.053(2) 0.040(2) 0.0188(18) 0.0168(16) 0.0228(18)
C12 0.0313(18) 0.051(2) 0.0325(19) 0.0175(16) 0.0113(14) 0.0159(16)
C13 0.044(2) 0.056(2) 0.0350(19) 0.0245(18) 0.0162(16) 0.0208(18)
C14 0.052(2) 0.051(2) 0.039(2) 0.0197(18) 0.0180(17) 0.026(2)
C15 0.042(2) 0.056(2) 0.0318(18) 0.0153(17) 0.0127(15) 0.0200(18)
C16 0.058(2) 0.051(2) 0.0357(19) 0.0234(18) 0.0170(18) 0.022(2)
C17 0.049(2) 0.050(2) 0.041(2) 0.0196(18) 0.0142(18) 0.0207(19)
C18 0.057(2) 0.060(3) 0.0345(19) 0.0196(18) 0.0192(18) 0.028(2)
C19 0.058(3) 0.179(8) 0.082(4) 0.093(5) 0.024(3) 0.057(4)
C20 0.051(3) 0.197(8) 0.103(5) 0.114(6) 0.039(3) 0.063(4)
C21 0.043(2) 0.084(3) 0.037(2) 0.030(2) 0.0153(17) 0.032(2)
C22 0.042(2) 0.064(3) 0.039(2) 0.0209(19) 0.0120(16) 0.028(2)
C23 0.044(2) 0.061(3) 0.046(2) 0.021(2) 0.0194(18) 0.021(2)
C24 0.046(2) 0.096(4) 0.045(2) 0.039(2) 0.020(2) 0.039(3)

_geom_special_details            
;
All esds (except the esd in the dihedral angle between two l.s. planes)
are estimated using the full covariance matrix. The cell esds are taken
into account individually in the estimation of esds in distances, angles
and torsion angles; correlations between esds in cell parameters are only
used when they are defined by crystal symmetry. An approximate (isotropic)
treatment of cell esds is used for estimating esds involving l.s. planes.
;

loop_
_geom_bond_atom_site_label_1
_geom_bond_atom_site_label_2
_geom_bond_distance
_geom_bond_site_symmetry_2
_geom_bond_publ_flag
Zn1 O4 2.023(3) 1_554 ?
Zn1 O2 2.039(3) . ?
Zn1 N1 2.108(4) . ?
Zn1 O6 2.129(3) . ?
Zn1 N2 2.150(3) . ?
Zn1 O1 2.437(3) . ?
Zn1 C11 2.567(4) . ?
O1 C11 1.247(6) . ?
O2 C11 1.275(5) . ?
O3 C15 1.378(5) . ?
O3 C18 1.381(6) . ?
O4 C24 1.243(5) . ?
O4 Zn1 2.023(3) 1_556 ?
O5 C24 1.215(6) . ?
O6 H6A 0.8500 . ?
O6 H6B 0.8500 . ?
O7 H7D 0.8500 . ?
O7 H7A 0.8500 . ?
O8 H8B 0.8499 . ?
O8 H8C 0.8500 . ?
O9 H9A 0.8500 . ?
O9 H9C 0.8500 . ?
O10 H10A 0.8501 . ?
O10 H10C 0.8500 . ?
N1 C5 1.331(5) . ?
N1 C1 1.331(7) . ?
N2 C10 1.327(6) . ?
N2 C6 1.338(6) . ?
C1 C2 1.385(9) . ?
C1 H1 0.9300 . ?
C2 C3 1.361(10) . ?
C2 H2 0.9300 . ?
C3 C4 1.380(8) . ?
C3 H3 0.9300 . ?
C4 C5 1.381(7) . ?
C4 H4 0.9300 . ?
C5 C6 1.479(6) . ?
C6 C7 1.373(7) . ?
C7 C8 1.374(11) . ?
C7 H7 0.9300 . ?
C8 C9 1.413(12) . ?
C8 H8 0.9300 . ?
C9 C10 1.342(9) . ?
C9 H9 0.9300 . ?
C10 H10 0.9300 . ?
C11 C12 1.496(6) . ?
C12 C13 1.381(6) . ?
C12 C17 1.386(6) . ?
C13 C14 1.393(6) . ?
C13 H13 0.9300 . ?
C14 C15 1.373(6) . ?
C14 H14 0.9300 . ?
C15 C16 1.379(7) . ?
C16 C17 1.397(6) . ?
C16 H16 0.9300 . ?
C17 H17 0.9300 . ?
C18 C23 1.356(7) . ?
C18 C19 1.381(8) . ?
C19 C20 1.402(8) . ?
C19 H19 0.9300 . ?
C20 C21 1.366(7) . ?
C20 H20 0.9300 . ?
C21 C22 1.371(6) . ?
C21 C24 1.511(6) . ?
C22 C23 1.380(6) . ?
C22 H22 0.9300 . ?
C23 H23 0.9300 . ?

loop_
_geom_angle_atom_site_label_1
_geom_angle_atom_site_label_2
_geom_angle_atom_site_label_3
_geom_angle
_geom_angle_site_symmetry_1
_geom_angle_site_symmetry_3
_geom_angle_publ_flag
O4 Zn1 O2 101.13(13) 1_554 . ?
O4 Zn1 N1 108.54(15) 1_554 . ?
O2 Zn1 N1 148.96(15) . . ?
O4 Zn1 O6 92.33(13) 1_554 . ?
O2 Zn1 O6 92.25(15) . . ?
N1 Zn1 O6 95.40(14) . . ?
O4 Zn1 N2 92.20(13) 1_554 . ?
O2 Zn1 N2 93.52(14) . . ?
N1 Zn1 N2 76.72(14) . . ?
O6 Zn1 N2 171.85(13) . . ?
O4 Zn1 O1 158.18(13) 1_554 . ?
O2 Zn1 O1 58.08(12) . . ?
N1 Zn1 O1 93.12(15) . . ?
O6 Zn1 O1 82.75(12) . . ?
N2 Zn1 O1 95.45(12) . . ?
O4 Zn1 C11 130.07(14) 1_554 . ?
O2 Zn1 C11 29.40(13) . . ?
N1 Zn1 C11 121.31(15) . . ?
O6 Zn1 C11 86.14(14) . . ?
N2 Zn1 C11 96.11(13) . . ?
O1 Zn1 C11 28.71(12) . . ?
C11 O1 Zn1 81.5(2) . . ?
C11 O2 Zn1 98.9(3) . . ?
C15 O3 C18 118.7(4) . . ?
C24 O4 Zn1 128.5(3) . 1_556 ?
Zn1 O6 H6A 106.0 . . ?
Zn1 O6 H6B 125.1 . . ?
H6A O6 H6B 109.7 . . ?
H7D O7 H7A 109.5 . . ?
H8B O8 H8C 109.5 . . ?
H9A O9 H9C 109.5 . . ?
H10A O10 H10C 109.5 . . ?
C5 N1 C1 118.2(4) . . ?
C5 N1 Zn1 116.8(3) . . ?
C1 N1 Zn1 125.0(3) . . ?
C10 N2 C6 119.6(4) . . ?
C10 N2 Zn1 125.5(3) . . ?
C6 N2 Zn1 114.7(3) . . ?
N1 C1 C2 123.4(6) . . ?
N1 C1 H1 118.3 . . ?
C2 C1 H1 118.3 . . ?
C3 C2 C1 117.5(6) . . ?
C3 C2 H2 121.2 . . ?
C1 C2 H2 121.2 . . ?
C2 C3 C4 119.8(5) . . ?
C2 C3 H3 120.1 . . ?
C4 C3 H3 120.1 . . ?
C5 C4 C3 118.9(5) . . ?
C5 C4 H4 120.6 . . ?
C3 C4 H4 120.6 . . ?
N1 C5 C4 121.9(4) . . ?
N1 C5 C6 115.5(4) . . ?
C4 C5 C6 122.6(4) . . ?
N2 C6 C7 121.2(5) . . ?
N2 C6 C5 116.2(4) . . ?
C7 C6 C5 122.6(4) . . ?
C6 C7 C8 118.8(6) . . ?
C6 C7 H7 120.6 . . ?
C8 C7 H7 120.6 . . ?
C7 C8 C9 119.2(7) . . ?
C7 C8 H8 120.4 . . ?
C9 C8 H8 120.4 . . ?
C10 C9 C8 117.7(7) . . ?
C10 C9 H9 121.1 . . ?
C8 C9 H9 121.1 . . ?
N2 C10 C9 123.2(5) . . ?
N2 C10 H10 118.4 . . ?
C9 C10 H10 118.4 . . ?
O1 C11 O2 121.4(4) . . ?
O1 C11 C12 120.9(4) . . ?
O2 C11 C12 117.7(4) . . ?
O1 C11 Zn1 69.8(2) . . ?
O2 C11 Zn1 51.70(19) . . ?
C12 C11 Zn1 168.9(3) . . ?
C13 C12 C17 119.6(4) . . ?
C13 C12 C11 120.5(4) . . ?
C17 C12 C11 119.9(4) . . ?
C12 C13 C14 120.2(4) . . ?
C12 C13 H13 119.9 . . ?
C14 C13 H13 119.9 . . ?
C15 C14 C13 119.8(4) . . ?
C15 C14 H14 120.1 . . ?
C13 C14 H14 120.1 . . ?
C14 C15 O3 115.6(4) . . ?
C14 C15 C16 120.8(4) . . ?
O3 C15 C16 123.6(4) . . ?
C15 C16 C17 119.2(4) . . ?
C15 C16 H16 120.4 . . ?
C17 C16 H16 120.4 . . ?
C12 C17 C16 120.3(4) . . ?
C12 C17 H17 119.8 . . ?
C16 C17 H17 119.8 . . ?
C23 C18 C19 120.8(4) . . ?
C23 C18 O3 121.0(4) . . ?
C19 C18 O3 117.8(4) . . ?
C18 C19 C20 118.7(5) . . ?
C18 C19 H19 120.6 . . ?
C20 C19 H19 120.6 . . ?
C21 C20 C19 120.4(5) . . ?
C21 C20 H20 119.8 . . ?
C19 C20 H20 119.8 . . ?
C20 C21 C22 119.2(4) . . ?
C20 C21 C24 119.0(4) . . ?
C22 C21 C24 121.8(4) . . ?
C21 C22 C23 121.2(4) . . ?
C21 C22 H22 119.4 . . ?
C23 C22 H22 119.4 . . ?
C18 C23 C22 119.5(4) . . ?
C18 C23 H23 120.2 . . ?
C22 C23 H23 120.2 . . ?
O5 C24 O4 125.4(4) . . ?
O5 C24 C21 118.2(4) . . ?
O4 C24 C21 116.2(4) . . ?

loop_
_geom_hbond_atom_site_label_D
_geom_hbond_atom_site_label_H
_geom_hbond_atom_site_label_A
_geom_hbond_distance_DH
_geom_hbond_distance_HA
_geom_hbond_distance_DA
_geom_hbond_angle_DHA
_geom_hbond_site_symmetry_A
O7 H7D O8 0.85 2.17 2.78(2) 128.0 2_666
O10 H10C O8 0.85 2.05 2.77(3) 141.7 .
O6 H6A O5 0.85 1.85 2.588(6) 144.9 1_554
O6 H6B O1 0.85 1.99 2.776(5) 154.2 2_565
O9 H9C O10 0.85 2.49 3.22(3) 144.3 2_666

_diffrn_measured_fraction_theta_max 0.968
_diffrn_reflns_theta_full        25.10
_diffrn_measured_fraction_theta_full 0.968
_refine_diff_density_max         1.284
_refine_diff_density_min         -0.600
_refine_diff_density_rms         0.134
