####################################################################### 
# 
# This file contains crystal structure data downloaded from the 
# Cambridge Structural Database (CSD) hosted by the Cambridge 
# Crystallographic Data Centre (CCDC).
# 
# Full information about CCDC data access policies and citation 
# guidelines are available at http://www.ccdc.cam.ac.uk/access/V1 
# 
# Audit and citation data items may have been added by the CCDC. 
# Please retain this information to preserve the provenance of 
# this file and to allow appropriate attribution of the data. 
# 
#######################################################################

data__Znobaazpy-3
_audit_block_doi                 10.5517/ccpnpnn
_database_code_depnum_ccdc_archive 'CCDC 645502'
loop_
_citation_id
_citation_doi
_citation_year
1 10.1016/j.jorganchem.2006.07.048 2007
_audit_update_record             
;
2007-05-01 deposited with the CCDC.	2024-07-09 downloaded from the CCDC.
;
#--------------------------------------------------------------------------
# CHEMICAL DATA
_chemical_formula_sum            'C31 H40 N6 O9 Zn '
_chemical_formula_moiety         ?
_chemical_formula_weight         706.07
_chemical_melting_point          ?
#--------------------------------------------------------------------------
# CRYSTAL DATA
_symmetry_cell_setting           triclinic
_symmetry_space_group_name_H-M   'P -1 '
_symmetry_Int_Tables_number      2
loop_
_symmetry_equiv_pos_as_xyz
x,y,z
-x,-y,-z
_cell_length_a                   9.792(6)
_cell_length_b                   14.138(8)
_cell_length_c                   14.475(8)
_cell_angle_alpha                99.660(6)
_cell_angle_beta                 103.095(5)
_cell_angle_gamma                107.615(5)
_cell_volume                     1798(1)
_cell_formula_units_Z            2
_cell_measurement_reflns_used    7351
_cell_measurement_theta_min      0.9
_cell_measurement_theta_max      15.8
_cell_measurement_temperature    293.2
#--------------------------------------------------------------------------
_exptl_crystal_description       prism
_exptl_crystal_colour            colorless
_exptl_crystal_size_max          0.200
_exptl_crystal_size_mid          0.200
_exptl_crystal_size_min          0.200
_exptl_crystal_size_rad          ?
_exptl_crystal_density_diffrn    1.303
_exptl_crystal_density_meas      ?
_exptl_crystal_density_method    'not measured'
_exptl_absorpt_coefficient_mu    0.740
_exptl_absorpt_correction_type   none
_exptl_absorpt_process_details   empirical
_exptl_absorpt_correction_T_min  0.656
_exptl_absorpt_correction_T_max  0.863
#--------------------------------------------------------------------
# EXPERIMENTAL DATA
_diffrn_radiation_type           'Mo K\a'
_diffrn_radiation_wavelength     0.7107
_diffrn_measurement_device_type  'Rigaku/MSC Mercury CCD'
_diffrn_measurement_method       \w
_diffrn_detector_area_resol_mean 14.62
_diffrn_reflns_number            16795
_diffrn_reflns_av_R_equivalents  0.033
_diffrn_reflns_theta_max         30.00
_diffrn_measured_fraction_theta_max 0.9130
_diffrn_reflns_theta_full        30.00
_diffrn_measured_fraction_theta_full 0.9130
_diffrn_reflns_limit_h_min       -13
_diffrn_reflns_limit_h_max       13
_diffrn_reflns_limit_k_min       -18
_diffrn_reflns_limit_k_max       19
_diffrn_reflns_limit_l_min       -18
_diffrn_reflns_limit_l_max       20
#--------------------------------------------------------------------
# REFINEMENT DATA
_refine_special_details          
;
Refinement using reflections with F^2^ > 2.0 sigma(F^2^). The weighted R-factor
(wR), goodness of fit (S) and R-factor (gt) are based on F, with F set to zero
for negative F. The threshold expression of F^2^ > 2.0 sigma(F^2^) is used only
for calculating R-factor (gt).
;
_reflns_number_total             9555
_reflns_number_gt                6197
_reflns_threshold_expression     F^2^>2.0\s(F^2^)
_refine_ls_structure_factor_coef F
_refine_ls_R_factor_gt           0.0821
_refine_ls_wR_factor_ref         0.0859
_refine_ls_hydrogen_treatment    noref
_refine_ls_number_reflns         6197
_refine_ls_number_parameters     424
_refine_ls_goodness_of_fit_ref   1.636
_refine_ls_weighting_scheme      calc
_refine_ls_weighting_details     'w = 1/[\s^2^(Fo) + 0.00063|Fo|^2^]'
_refine_ls_shift/su_max          0.0047
_refine_diff_density_max         0.67
_refine_diff_density_min         -0.62
_refine_ls_extinction_method     none
_refine_ls_extinction_coef       ?
_refine_ls_abs_structure_details ?
_refine_ls_abs_structure_Flack   ?
loop_
_atom_type_symbol
_atom_type_description
_atom_type_scat_dispersion_real
_atom_type_scat_dispersion_imag
_atom_type_scat_source
H H 0.000 0.000
;International Tables for Crystallography
(1992, Vol. C, Table 6.1.1.2)
;
Zn Zn 0.284 1.430
;International Tables for Crystallography
(1992, Vol. C, Tables 4.2.6.8 and 6.1.1.1)
;
C C 0.003 0.002
;International Tables for Crystallography
(1992, Vol. C, Tables 4.2.6.8 and 6.1.1.1)
;
O O 0.011 0.006
;International Tables for Crystallography
(1992, Vol. C, Tables 4.2.6.8 and 6.1.1.1)
;
N N 0.006 0.003
;International Tables for Crystallography
(1992, Vol. C, Tables 4.2.6.8 and 6.1.1.1)
;
#--------------------------------------------------------------------
# ATOMIC COORDINATES AND DISPLACEMENT PARAMETERS
loop_
_atom_site_label
_atom_site_type_symbol
_atom_site_fract_x
_atom_site_fract_y
_atom_site_fract_z
_atom_site_U_iso_or_equiv
_atom_site_adp_type
_atom_site_occupancy
_atom_site_calc_flag
_atom_site_refinement_flags
_atom_site_disorder_assembly
_atom_site_disorder_group
Zn(1) Zn 1.37847(5) 0.53938(3) 0.67977(3) 0.0415(1) Uani 1.00 d . . .
O(1) O 1.3996(4) 0.6721(2) 0.6298(2) 0.0600(9) Uani 1.00 d . . .
O(2) O 1.5712(4) 0.6838(2) 0.7616(3) 0.0694(10) Uani 1.00 d . . .
O(3) O 1.5284(3) 1.4673(2) 0.6172(2) 0.0645(9) Uani 1.00 d . . .
O(4) O 1.4527(4) 1.4340(2) 0.7428(2) 0.0652(10) Uani 1.00 d . . .
O(5) O 1.8240(3) 1.1373(2) 0.7130(2) 0.0583(9) Uani 1.00 d . . .
O(6) O 1.1962(3) 0.4464(2) 0.5652(2) 0.0538(8) Uani 1.00 d . . .
O(7) O 1.5035(6) 1.1596(4) 0.9522(4) 0.144(2) Uani 1.00 d . . .
O(8) O 1.0422(9) 1.2415(7) 1.0552(8) 0.288(4) Uani 1.00 d . . .
O(9) O 1.1827(9) 0.9438(6) 0.5938(6) 0.222(3) Uani 1.00 d . . .
N(1) N 1.2491(4) 0.5506(2) 0.7763(2) 0.0439(9) Uani 1.00 d . . .
N(2) N 1.0441(4) 0.5419(3) 1.0022(3) 0.056(1) Uani 1.00 d . . .
N(3) N 1.0895(4) 0.3672(3) 0.4051(3) 0.0514(10) Uani 1.00 d . . .
N(4) N 1.3194(6) 1.0070(4) 0.9166(4) 0.096(2) Uani 1.00 d . . .
N(5) N 1.2161(6) 1.3174(4) 0.9921(4) 0.085(2) Uani 1.00 d . . .
N(6) N 1.1938(6) 1.1016(4) 0.5800(4) 0.099(2) Uani 1.00 d . . .
C(1) C 1.5176(5) 0.7239(3) 0.6971(3) 0.050(1) Uani 1.00 d . . .
C(2) C 1.5971(4) 0.8342(3) 0.7032(3) 0.044(1) Uani 1.00 d . . .
C(3) C 1.5223(5) 0.8867(3) 0.6508(3) 0.051(1) Uani 1.00 d . . .
C(4) C 1.5947(5) 0.9894(3) 0.6561(3) 0.055(1) Uani 1.00 d . . .
C(5) C 1.7419(4) 1.0373(3) 0.7113(3) 0.047(1) Uani 1.00 d . . .
C(6) C 1.8165(5) 0.9868(3) 0.7639(3) 0.055(1) Uani 1.00 d . . .
C(7) C 1.7435(5) 0.8853(3) 0.7614(3) 0.053(1) Uani 1.00 d . . .
C(8) C 1.5249(5) 1.4207(3) 0.6831(3) 0.052(1) Uani 1.00 d . . .
C(9) C 1.6063(5) 1.3469(3) 0.6917(3) 0.046(1) Uani 1.00 d . . .
C(10) C 1.6096(5) 1.2998(3) 0.7692(3) 0.052(1) Uani 1.00 d . . .
C(11) C 1.6809(5) 1.2293(3) 0.7760(3) 0.053(1) Uani 1.00 d . . .
C(12) C 1.7468(4) 1.2055(3) 0.7061(3) 0.046(1) Uani 1.00 d . . .
C(13) C 1.7434(5) 1.2498(3) 0.6279(3) 0.053(1) Uani 1.00 d . . .
C(14) C 1.6734(5) 1.3215(3) 0.6212(3) 0.050(1) Uani 1.00 d . . .
C(15) C 1.2964(5) 0.6267(3) 0.8568(3) 0.050(1) Uani 1.00 d . . .
C(16) C 1.2287(5) 0.6268(3) 0.9305(3) 0.055(1) Uani 1.00 d . . .
C(17) C 1.1055(5) 0.5424(3) 0.9211(3) 0.047(1) Uani 1.00 d . . .
C(18) C 1.0514(5) 0.4638(3) 0.8370(3) 0.060(1) Uani 1.00 d . . .
C(19) C 1.1247(5) 0.4706(3) 0.7657(3) 0.058(1) Uani 1.00 d . . .
C(20) C 1.2054(5) 0.4234(3) 0.4813(3) 0.049(1) Uani 1.00 d . . .
C(21) C 0.9403(6) 0.3293(4) 0.4158(4) 0.078(2) Uani 1.00 d . . .
C(22) C 1.1064(7) 0.3404(6) 0.3079(4) 0.095(2) Uani 1.00 d . . .
C(23) C 1.423(1) 1.0787(8) 0.913(1) 0.241(5) Uani 1.00 d . . .
C(24) C 1.262(2) 1.018(1) 0.9962(9) 0.272(6) Uani 1.00 d . . .
C(25) C 1.238(2) 0.9105(9) 0.855(1) 0.263(7) Uani 1.00 d . . .
C(26) C 1.158(1) 1.3081(9) 1.0640(8) 0.178(4) Uani 1.00 d . . .
C(27) C 1.159(2) 1.2476(9) 0.9018(8) 0.266(6) Uani 1.00 d . . .
C(28) C 1.351(1) 1.3951(7) 1.0113(9) 0.211(4) Uani 1.00 d . . .
C(29) C 1.201(1) 1.0083(9) 0.5497(9) 0.185(5) Uani 1.00 d . . .
C(30) C 1.165(1) 1.142(2) 0.6573(9) 0.365(8) Uani 1.00 d . . .
C(31) C 1.217(1) 1.1660(8) 0.5137(8) 0.201(5) Uani 1.00 d . . .
H(1) H 1.4213 0.8522 0.6112 0.0618 Uiso 1.00 calc . . .
H(2) H 1.5427 1.0259 0.6218 0.0659 Uiso 1.00 calc . . .
H(3) H 1.9183 1.0212 0.8021 0.0657 Uiso 1.00 calc . . .
H(4) H 1.7941 0.8509 0.7997 0.0642 Uiso 1.00 calc . . .
H(5) H 1.5629 1.3162 0.8174 0.0622 Uiso 1.00 calc . . .
H(6) H 1.6840 1.1976 0.8290 0.0636 Uiso 1.00 calc . . .
H(7) H 1.7884 1.2315 0.5793 0.0634 Uiso 1.00 calc . . .
H(8) H 1.6714 1.3531 0.5682 0.0603 Uiso 1.00 calc . . .
H(9) H 1.3821 0.6847 0.8640 0.0594 Uiso 1.00 calc . . .
H(10) H 1.2661 0.6836 0.9863 0.0656 Uiso 1.00 calc . . .
H(11) H 0.9649 0.4057 0.8280 0.0716 Uiso 1.00 calc . . .
H(12) H 1.0858 0.4168 0.7072 0.0700 Uiso 1.00 calc . . .
H(13) H 1.3013 0.4474 0.4713 0.0587 Uiso 1.00 calc . . .
H(14) H 0.9136 0.3856 0.4405 0.0933 Uiso 1.00 calc . . .
H(15) H 0.8706 0.2906 0.3538 0.0933 Uiso 1.00 calc . . .
H(16) H 0.9391 0.2868 0.4602 0.0933 Uiso 1.00 calc . . .
H(17) H 1.0110 0.3007 0.2623 0.1143 Uiso 1.00 calc . . .
H(18) H 1.1485 0.4013 0.2889 0.1143 Uiso 1.00 calc . . .
H(19) H 1.1707 0.3017 0.3091 0.1143 Uiso 1.00 calc . . .
H(20) H 1.4457 1.0591 0.8533 0.2895 Uiso 1.00 calc . . .
H(21) H 1.3206 1.0822 1.0415 0.3267 Uiso 1.00 calc . . .
H(22) H 1.1613 1.0138 0.9738 0.3267 Uiso 1.00 calc . . .
H(23) H 1.2659 0.9642 1.0276 0.3267 Uiso 1.00 calc . . .
H(24) H 1.1367 0.9046 0.8303 0.3159 Uiso 1.00 calc . . .
H(25) H 1.2791 0.9001 0.8027 0.3159 Uiso 1.00 calc . . .
H(26) H 1.2428 0.8604 0.8911 0.3159 Uiso 1.00 calc . . .
H(27) H 1.2096 1.3559 1.1261 0.2135 Uiso 1.00 calc . . .
H(28) H 1.0681 1.1963 0.8998 0.3196 Uiso 1.00 calc . . .
H(29) H 1.1386 1.2818 0.8520 0.3196 Uiso 1.00 calc . . .
H(30) H 1.2291 1.2165 0.8915 0.3196 Uiso 1.00 calc . . .
H(31) H 1.4234 1.3875 1.0626 0.2528 Uiso 1.00 calc . . .
H(32) H 1.3827 1.3923 0.9539 0.2528 Uiso 1.00 calc . . .
H(33) H 1.3396 1.4593 1.0306 0.2528 Uiso 1.00 calc . . .
H(34) H 1.2217 0.9928 0.4891 0.2220 Uiso 1.00 calc . . .
H(35) H 1.2455 1.2040 0.6928 0.4384 Uiso 1.00 calc . . .
H(36) H 1.0752 1.1560 0.6378 0.4384 Uiso 1.00 calc . . .
H(37) H 1.1529 1.0954 0.6976 0.4384 Uiso 1.00 calc . . .
H(38) H 1.2983 1.2285 0.5473 0.2415 Uiso 1.00 calc . . .
H(39) H 1.2403 1.1319 0.4602 0.2415 Uiso 1.00 calc . . .
H(40) H 1.1290 1.1803 0.4898 0.2415 Uiso 1.00 calc . . .

loop_
_atom_site_aniso_label
_atom_site_aniso_U_11
_atom_site_aniso_U_22
_atom_site_aniso_U_33
_atom_site_aniso_U_12
_atom_site_aniso_U_13
_atom_site_aniso_U_23
Zn(1) 0.0429(2) 0.0349(2) 0.0477(2) 0.0103(2) 0.0196(2) 0.0107(2)
O(1) 0.060(2) 0.040(1) 0.074(2) 0.008(1) 0.021(2) 0.015(1)
O(2) 0.067(2) 0.054(2) 0.093(2) 0.018(2) 0.028(2) 0.035(2)
O(3) 0.061(2) 0.060(2) 0.085(2) 0.027(1) 0.022(2) 0.036(2)
O(4) 0.074(2) 0.058(2) 0.076(2) 0.035(1) 0.032(2) 0.017(2)
O(5) 0.046(2) 0.034(1) 0.098(2) 0.013(1) 0.025(2) 0.022(1)
O(6) 0.049(2) 0.057(2) 0.049(2) 0.008(1) 0.021(1) 0.007(1)
O(7) 0.134(4) 0.094(3) 0.150(5) -0.028(3) 0.046(4) 0.010(3)
O(8) 0.138(6) 0.314(9) 0.44(1) 0.029(6) 0.101(7) 0.238(7)
O(9) 0.190(7) 0.204(6) 0.288(8) 0.079(5) 0.026(6) 0.147(5)
N(1) 0.045(2) 0.042(2) 0.046(2) 0.011(1) 0.021(1) 0.012(1)
N(2) 0.058(2) 0.052(2) 0.053(2) 0.009(2) 0.029(2) 0.008(2)
N(3) 0.044(2) 0.058(2) 0.049(2) 0.016(2) 0.014(2) 0.009(2)
N(4) 0.086(4) 0.075(3) 0.102(4) -0.003(3) 0.021(3) 0.029(3)
N(5) 0.082(3) 0.086(3) 0.073(3) 0.019(3) 0.011(3) 0.020(3)
N(6) 0.082(4) 0.094(4) 0.108(4) 0.025(3) 0.019(3) 0.018(3)
C(1) 0.052(2) 0.041(2) 0.067(3) 0.017(2) 0.034(2) 0.016(2)
C(2) 0.048(2) 0.035(2) 0.056(2) 0.018(2) 0.024(2) 0.015(2)
C(3) 0.042(2) 0.046(2) 0.059(3) 0.011(2) 0.009(2) 0.010(2)
C(4) 0.052(2) 0.043(2) 0.072(3) 0.018(2) 0.016(2) 0.022(2)
C(5) 0.045(2) 0.029(2) 0.067(3) 0.010(2) 0.021(2) 0.013(2)
C(6) 0.045(2) 0.040(2) 0.069(3) 0.009(2) 0.009(2) 0.011(2)
C(7) 0.047(2) 0.042(2) 0.070(3) 0.016(2) 0.011(2) 0.021(2)
C(8) 0.048(2) 0.035(2) 0.065(3) 0.011(2) 0.011(2) 0.006(2)
C(9) 0.047(2) 0.035(2) 0.054(2) 0.013(2) 0.011(2) 0.011(2)
C(10) 0.061(3) 0.042(2) 0.056(2) 0.018(2) 0.026(2) 0.013(2)
C(11) 0.061(3) 0.042(2) 0.060(2) 0.017(2) 0.021(2) 0.023(2)
C(12) 0.043(2) 0.029(2) 0.064(3) 0.010(2) 0.016(2) 0.012(2)
C(13) 0.056(2) 0.049(2) 0.060(2) 0.020(2) 0.029(2) 0.014(2)
C(14) 0.055(2) 0.047(2) 0.054(2) 0.019(2) 0.020(2) 0.020(2)
C(15) 0.052(2) 0.041(2) 0.051(2) 0.007(2) 0.023(2) 0.009(2)
C(16) 0.062(3) 0.042(2) 0.048(2) 0.004(2) 0.022(2) -0.001(2)
C(17) 0.051(2) 0.044(2) 0.047(2) 0.014(2) 0.023(2) 0.009(2)
C(18) 0.055(3) 0.052(2) 0.056(3) -0.003(2) 0.027(2) 0.000(2)
C(19) 0.055(3) 0.055(2) 0.049(2) -0.002(2) 0.026(2) -0.001(2)
C(20) 0.044(2) 0.048(2) 0.056(2) 0.014(2) 0.021(2) 0.012(2)
C(21) 0.044(3) 0.096(4) 0.077(4) 0.013(3) 0.014(2) 0.008(3)
C(22) 0.072(4) 0.143(6) 0.057(3) 0.029(4) 0.019(3) 0.004(3)
C(23) 0.100(7) 0.156(7) 0.42(2) -0.011(6) -0.005(9) 0.167(8)
C(24) 0.31(1) 0.49(2) 0.213(9) 0.28(1) 0.185(8) 0.205(10)
C(25) 0.27(2) 0.125(9) 0.27(2) 0.003(10) -0.04(1) 0.013(10)
C(26) 0.142(7) 0.270(10) 0.180(8) 0.115(7) 0.045(6) 0.132(7)
C(27) 0.45(2) 0.181(9) 0.115(8) 0.18(1) -0.05(1) -0.030(7)
C(28) 0.110(7) 0.162(7) 0.30(1) 0.005(6) -0.049(7) 0.131(7)
C(29) 0.148(9) 0.194(10) 0.20(1) 0.072(8) 0.001(8) 0.068(8)
C(30) 0.17(1) 0.56(3) 0.188(10) -0.01(1) 0.113(8) -0.16(1)
C(31) 0.19(1) 0.158(9) 0.170(9) -0.022(8) 0.005(8) 0.054(7)
#--------------------------------------------------------------------
_computing_data_collection       .
_computing_cell_refinement       .
_computing_data_reduction        'teXsan Ver. 1.11'
_computing_structure_solution    SIR92
_computing_structure_refinement  'teXsan Ver. 1.10'
_computing_publication_material  'teXsan Ver. 1.11'
_computing_molecular_graphics    ?
#--------------------------------------------------------------------
_geom_special_details            
;
?
;
loop_
_geom_bond_atom_site_label_1
_geom_bond_atom_site_label_2
_geom_bond_distance
_geom_bond_site_symmetry_1
_geom_bond_site_symmetry_2
_geom_bond_publ_flag
Zn(1) O(1) 2.091(3) . . yes
Zn(1) O(2) 2.231(3) . . yes
Zn(1) O(3) 2.283(4) . 1_545 yes
Zn(1) O(4) 2.096(3) . 1_545 yes
Zn(1) O(6) 2.042(3) . . yes
Zn(1) N(1) 2.105(3) . . yes
O(1) O(2) 2.182(5) . . yes
O(1) C(1) 1.248(5) . . yes
O(2) C(1) 1.266(5) . . yes
O(3) C(8) 1.249(5) . . yes
O(4) C(8) 1.258(6) . . yes
O(5) C(5) 1.391(4) . . yes
O(5) C(12) 1.397(5) . . yes
O(6) C(20) 1.235(5) . . yes
O(7) C(23) 1.13(1) . . yes
O(8) C(26) 1.20(1) . . yes
O(9) C(29) 1.19(1) . . yes
N(1) C(15) 1.327(5) . . yes
N(1) C(19) 1.346(5) . . yes
N(2) N(2) 1.218(6) . 2_767 yes
N(2) C(17) 1.434(5) . . yes
N(3) C(20) 1.315(5) . . yes
N(3) C(21) 1.450(6) . . yes
N(3) C(22) 1.454(7) . . yes
N(4) C(23) 1.220(9) . . yes
N(4) C(24) 1.40(1) . . yes
N(4) C(25) 1.38(1) . . yes
N(5) C(26) 1.30(1) . . yes
N(5) C(27) 1.38(1) . . yes
N(5) C(28) 1.370(9) . . yes
N(6) C(29) 1.35(1) . . yes
N(6) C(30) 1.30(1) . . yes
N(6) C(31) 1.44(1) . . yes
C(1) C(2) 1.495(5) . . yes
C(2) C(3) 1.388(6) . . yes
C(2) C(7) 1.381(6) . . yes
C(3) C(4) 1.390(6) . . yes
C(4) C(5) 1.372(6) . . yes
C(5) C(6) 1.368(6) . . yes
C(6) C(7) 1.386(5) . . yes
C(8) C(9) 1.496(6) . . yes
C(9) C(10) 1.397(6) . . yes
C(9) C(14) 1.388(6) . . yes
C(10) C(11) 1.383(6) . . yes
C(11) C(12) 1.366(6) . . yes
C(12) C(13) 1.381(6) . . yes
C(13) C(14) 1.390(6) . . yes
C(15) C(16) 1.377(6) . . yes
C(16) C(17) 1.378(5) . . yes
C(17) C(18) 1.376(6) . . yes
C(18) C(19) 1.384(6) . . yes
#--------------------------------------------------------------------
loop_
_geom_angle_atom_site_label_1
_geom_angle_atom_site_label_2
_geom_angle_atom_site_label_3
_geom_angle
_geom_angle_site_symmetry_1
_geom_angle_site_symmetry_2
_geom_angle_site_symmetry_3
_geom_angle_publ_flag
O(1) Zn(1) O(2) 60.5(1) . . . yes
O(1) Zn(1) O(3) 105.5(1) . . 1_545 yes
O(1) Zn(1) O(4) 156.4(1) . . 1_545 yes
O(1) Zn(1) O(6) 95.3(1) . . . yes
O(1) Zn(1) N(1) 102.6(1) . . . yes
O(2) Zn(1) O(3) 92.3(1) . . 1_545 yes
O(2) Zn(1) O(4) 99.7(1) . . 1_545 yes
O(2) Zn(1) O(6) 155.5(1) . . . yes
O(2) Zn(1) N(1) 96.0(1) . . . yes
O(3) Zn(1) O(4) 59.6(1) 1_545 . 1_545 yes
O(3) Zn(1) O(6) 90.6(1) 1_545 . . yes
O(3) Zn(1) N(1) 151.2(1) 1_545 . . yes
O(4) Zn(1) O(6) 102.7(1) 1_545 . . yes
O(4) Zn(1) N(1) 91.7(1) 1_545 . . yes
O(6) Zn(1) N(1) 93.2(1) . . . yes
Zn(1) O(1) O(2) 62.9(1) . . . yes
Zn(1) O(1) C(1) 92.9(3) . . . yes
Zn(1) O(2) O(1) 56.6(1) . . . yes
Zn(1) O(2) C(1) 86.1(2) . . . yes
Zn(1) O(3) C(8) 85.5(3) 1_565 . . yes
Zn(1) O(4) C(8) 93.8(3) 1_565 . . yes
C(5) O(5) C(12) 117.1(3) . . . yes
Zn(1) O(6) C(20) 121.7(3) . . . yes
Zn(1) N(1) C(15) 122.6(3) . . . yes
Zn(1) N(1) C(19) 119.2(3) . . . yes
C(15) N(1) C(19) 117.3(4) . . . yes
N(2) N(2) C(17) 113.3(4) 2_767 . . yes
C(20) N(3) C(21) 120.7(4) . . . yes
C(20) N(3) C(22) 121.4(4) . . . yes
C(21) N(3) C(22) 117.9(4) . . . yes
C(23) N(4) C(24) 119(1) . . . yes
C(23) N(4) C(25) 132(1) . . . yes
C(24) N(4) C(25) 108(1) . . . yes
C(26) N(5) C(27) 123.7(10) . . . yes
C(26) N(5) C(28) 117.6(8) . . . yes
C(27) N(5) C(28) 118(1) . . . yes
C(29) N(6) C(30) 130(1) . . . yes
C(29) N(6) C(31) 114.4(9) . . . yes
C(30) N(6) C(31) 114(1) . . . yes
O(1) C(1) O(2) 120.5(4) . . . yes
O(1) C(1) C(2) 120.6(4) . . . yes
O(2) C(1) C(2) 119.0(4) . . . yes
C(1) C(2) C(3) 119.6(4) . . . yes
C(1) C(2) C(7) 121.0(4) . . . yes
C(3) C(2) C(7) 119.3(3) . . . yes
C(2) C(3) C(4) 120.3(4) . . . yes
C(3) C(4) C(5) 119.2(4) . . . yes
O(5) C(5) C(4) 121.9(4) . . . yes
O(5) C(5) C(6) 117.0(4) . . . yes
C(4) C(5) C(6) 121.0(3) . . . yes
C(5) C(6) C(7) 119.9(4) . . . yes
C(2) C(7) C(6) 120.1(4) . . . yes
O(3) C(8) O(4) 121.1(4) . . . yes
O(3) C(8) C(9) 120.0(4) . . . yes
O(4) C(8) C(9) 118.9(4) . . . yes
C(8) C(9) C(10) 119.7(4) . . . yes
C(8) C(9) C(14) 120.8(4) . . . yes
C(10) C(9) C(14) 119.5(4) . . . yes
C(9) C(10) C(11) 120.0(4) . . . yes
C(10) C(11) C(12) 119.6(4) . . . yes
O(5) C(12) C(11) 120.8(4) . . . yes
O(5) C(12) C(13) 117.6(4) . . . yes
C(11) C(12) C(13) 121.6(4) . . . yes
C(12) C(13) C(14) 119.1(4) . . . yes
C(9) C(14) C(13) 120.2(4) . . . yes
N(1) C(15) C(16) 124.0(4) . . . yes
C(15) C(16) C(17) 118.3(4) . . . yes
N(2) C(17) C(16) 116.9(4) . . . yes
N(2) C(17) C(18) 124.3(4) . . . yes
C(16) C(17) C(18) 118.8(4) . . . yes
C(17) C(18) C(19) 119.2(4) . . . yes
N(1) C(19) C(18) 122.3(4) . . . yes
O(6) C(20) N(3) 123.4(4) . . . yes
O(7) C(23) N(4) 144(1) . . . yes
O(8) C(26) N(5) 122(1) . . . yes
O(9) C(29) N(6) 124(1) . . . yes

#--------------------------------------------------------------------
loop_
_geom_torsion_atom_site_label_1
_geom_torsion_atom_site_label_2
_geom_torsion_atom_site_label_3
_geom_torsion_atom_site_label_4
_geom_torsion
_geom_torsion_site_symmetry_1
_geom_torsion_site_symmetry_2
_geom_torsion_site_symmetry_3
_geom_torsion_site_symmetry_4
_geom_torsion_publ_flag
Zn(1) O(1) O(2) C(1) 178.8(5) . . . . yes
Zn(1) O(1) C(1) O(2) -1.0(5) . . . . yes
Zn(1) O(1) C(1) C(2) 179.4(3) . . . . yes
Zn(1) O(2) O(1) C(1) -178.8(5) . . . . yes
Zn(1) O(2) C(1) O(1) 1.0(4) . . . . yes
Zn(1) O(2) C(1) C(2) -179.5(4) . . . . yes
Zn(1) O(6) N(3) C(20) 5.0(6) . . . . yes
Zn(1) O(6) N(3) C(21) -174.4(4) . . . . yes
Zn(1) O(6) N(3) C(22) 6.9(9) . . . . yes
Zn(1) O(6) C(20) N(3) -177.2(3) . . . . yes
Zn(1) N(1) C(15) C(16) -167.3(4) . . . . yes
Zn(1) N(1) C(15) C(19) -169.4(6) . . . . yes
Zn(1) N(1) C(19) C(15) 169.8(5) . . . . yes
Zn(1) N(1) C(19) C(18) 166.7(4) . . . . yes
O(1) Zn(1) O(2) C(1) -0.6(3) . . . . yes
O(1) Zn(1) O(6) N(3) 65.9(4) . . . . yes
O(1) Zn(1) O(6) C(20) 68.8(3) . . . . yes
O(1) Zn(1) N(1) C(15) -62.5(3) . . . . yes
O(1) Zn(1) N(1) C(19) 128.3(3) . . . . yes
O(1) O(2) Zn(1) O(3) 106.6(1) . . . 1_545 yes
O(1) O(2) Zn(1) O(4) 166.1(1) 