####################################################################### 
# 
# This file contains crystal structure data downloaded from the 
# Cambridge Structural Database (CSD) hosted by the Cambridge 
# Crystallographic Data Centre (CCDC).
# 
# Full information about CCDC data access policies and citation 
# guidelines are available at http://www.ccdc.cam.ac.uk/access/V1 
# 
# Audit and citation data items may have been added by the CCDC. 
# Please retain this information to preserve the provenance of 
# this file and to allow appropriate attribution of the data. 
# 
#######################################################################

data__Znobabpe-4
_audit_block_doi                 10.5517/ccpnppp
_database_code_depnum_ccdc_archive 'CCDC 645503'
loop_
_citation_id
_citation_doi
_citation_year
1 10.1016/j.jorganchem.2006.07.048 2007
_audit_update_record             
;
2007-05-01 deposited with the CCDC.	2024-07-09 downloaded from the CCDC.
;
#------------------------------------------------------------------------------
# CHEMICAL DATA
_chemical_formula_sum            'C46 H50 N4 O16 Zn2 '
_chemical_formula_moiety         ?
_chemical_formula_weight         1045.68
_chemical_melting_point          ?
#------------------------------------------------------------------------------
# CRYSTAL DATA
_symmetry_cell_setting           monoclinic
_symmetry_space_group_name_H-M   'C 1 2/c 1'
_symmetry_Int_Tables_number      15
loop_
_symmetry_equiv_pos_as_xyz
x,y,z
-x,y,1/2-z
-x,-y,-z
x,-y,1/2+z
1/2+x,1/2+y,z
1/2-x,1/2+y,1/2-z
1/2-x,1/2-y,-z
1/2+x,1/2-y,1/2+z
_cell_length_a                   27.21(2)
_cell_length_b                   17.77(1)
_cell_length_c                   22.99(2)
_cell_angle_alpha                90
_cell_angle_beta                 110.29(1)
_cell_angle_gamma                90
_cell_volume                     10424(14)
_cell_formula_units_Z            4
_cell_measurement_reflns_used    6487
_cell_measurement_theta_min      3.0
_cell_measurement_theta_max      27.5
_cell_measurement_temperature    253.2
#------------------------------------------------------------------------------
_exptl_crystal_description       prism
_exptl_crystal_colour            colorless
_exptl_crystal_size_max          0.200
_exptl_crystal_size_mid          0.200
_exptl_crystal_size_min          0.200
_exptl_crystal_size_rad          ?
_exptl_crystal_density_diffrn    0.666
_exptl_crystal_density_meas      ?
_exptl_crystal_density_method    'not measured'
_exptl_absorpt_coefficient_mu    0.494
_exptl_absorpt_correction_type   none
_exptl_absorpt_process_details   empirical
_exptl_absorpt_correction_T_min  0.639
_exptl_absorpt_correction_T_max  0.906
#------------------------------------------------------------------------------
# EXPERIMENTAL DATA
_diffrn_radiation_type           'Mo K\a'
_diffrn_radiation_wavelength     0.7107
_diffrn_measurement_device_type  'Rigaku/MSC Mercury CCD'
_diffrn_measurement_method       \w
_diffrn_detector_area_resol_mean ?
_diffrn_reflns_number            340
_diffrn_reflns_av_R_equivalents  0.068
_diffrn_reflns_theta_max         27.49
_diffrn_measured_fraction_theta_max 0.9956
_diffrn_reflns_theta_full        27.49
_diffrn_measured_fraction_theta_full 0.9956
_diffrn_reflns_limit_h_min       -34
_diffrn_reflns_limit_h_max       35
_diffrn_reflns_limit_k_min       -18
_diffrn_reflns_limit_k_max       22
_diffrn_reflns_limit_l_min       -29
_diffrn_reflns_limit_l_max       29
#------------------------------------------------------------------------------
# REFINEMENT DATA
_refine_special_details          
;
Refinement using reflections with F^2^ > 3.0 sigma(F^2^). The weighted R-factor
(wR), goodness of fit (S) and R-factor (gt) are based on F, with F set to zero
for negative F. The threshold expression of F^2^ > 3.0 sigma(F^2^) is used only
for calculating R-factor (gt).
;
_reflns_number_total             11896
_reflns_number_gt                2748
_reflns_threshold_expression     F^2^>3.0\s(F^2^)
_refine_ls_structure_factor_coef F
_refine_ls_R_factor_gt           0.0867
_refine_ls_wR_factor_ref         0.0974
_refine_ls_hydrogen_treatment    ?
_refine_ls_number_reflns         2748
_refine_ls_number_parameters     269
_refine_ls_goodness_of_fit_ref   1.825
_refine_ls_weighting_scheme      calc
_refine_ls_weighting_details     'w = 1/[\s^2^(Fo) + 0.00063|Fo|^2^]'
_refine_ls_shift/su_max          0.0080
_refine_diff_density_max         0.34
_refine_diff_density_min         -0.31
_refine_ls_extinction_method     none
_refine_ls_extinction_coef       ?
_refine_ls_abs_structure_details ?
_refine_ls_abs_structure_Flack   0.00000
loop_
_atom_type_symbol
_atom_type_description
_atom_type_scat_dispersion_real
_atom_type_scat_dispersion_imag
_atom_type_scat_source
C C 0.003 0.002
;International Tables for Crystallography
(1992, Vol. C, Tables 4.2.6.8 and 6.1.1.1)
;
H H 0.000 0.000
;International Tables for Crystallography
(1992, Vol. C, Table 6.1.1.2)
;
N N 0.006 0.003
;International Tables for Crystallography
(1992, Vol. C, Tables 4.2.6.8 and 6.1.1.1)
;
O O 0.011 0.006
;International Tables for Crystallography
(1992, Vol. C, Tables 4.2.6.8 and 6.1.1.1)
;
Zn Zn 0.284 1.430
;International Tables for Crystallography
(1992, Vol. C, Tables 4.2.6.8 and 6.1.1.1)
;
#------------------------------------------------------------------------------
# ATOMIC COORDINATES AND DISPLACEMENT PARAMETERS
loop_
_atom_site_label
_atom_site_type_symbol
_atom_site_fract_x
_atom_site_fract_y
_atom_site_fract_z
_atom_site_U_iso_or_equiv
_atom_site_adp_type
_atom_site_occupancy
_atom_site_calc_flag
_atom_site_refinement_flags
_atom_site_disorder_assembly
_atom_site_disorder_group
Zn(1) Zn 0.20481(3) 0.19862(4) 0.48728(4) 0.0530(2) Uani 1.00 d . . .
O(1) O 0.1858(2) 0.2909(3) 0.5287(2) 0.075(2) Uani 1.00 d . . .
O(2) O 0.2530(2) 0.3692(3) 0.5489(2) 0.073(2) Uani 1.00 d . . .
O(3) O 0.1061(2) 0.5486(4) 0.6620(3) 0.137(2) Uani 1.00 d . . .
O(4) O 0.1783(2) 0.7465(3) 0.9062(2) 0.068(2) Uani 1.00 d . . .
O(5) O 0.2459(2) 0.6673(3) 0.9276(2) 0.078(2) Uani 1.00 d . . .
O(6) O 0.0253(7) 0.3187(9) 0.3810(9) 0.3690 Uiso 1.00 d G . .
O(7) O 0.263(2) 0.576(3) 0.468(2) 0.99(3) Uani 1.00 d . . .
O(8) O 0.0056(6) 0.216(1) 0.2941(8) 0.40(1) Uani 1.00 d . . .
N(1) N 0.1421(2) 0.1362(3) 0.4847(3) 0.075(2) Uani 1.00 d . . .
N(3) N 0.0641(6) 0.4410(9) 0.4201(7) 0.3690 Uiso 1.00 d G . .
C(1) C 0.2084(3) 0.3513(4) 0.5497(3) 0.056(2) Uani 1.00 d . . .
C(2) C 0.1826(3) 0.4052(4) 0.5783(3) 0.068(2) Uani 1.00 d . . .
C(3) C 0.1342(3) 0.3877(5) 0.5860(4) 0.088(3) Uani 1.00 d . . .
C(4) C 0.1101(3) 0.4326(5) 0.6156(4) 0.092(3) Uani 1.00 d . . .
C(5) C 0.1325(4) 0.5007(5) 0.6376(4) 0.093(3) Uani 1.00 d . . .
C(6) C 0.1808(4) 0.5211(5) 0.6322(5) 0.113(4) Uani 1.00 d . . .
C(7) C 0.2054(3) 0.4719(5) 0.6021(4) 0.089(3) Uani 1.00 d . . .
C(8) C 0.1328(3) 0.5831(5) 0.7184(4) 0.093(3) Uani 1.00 d . . .
C(9) C 0.1107(3) 0.6458(5) 0.7311(4) 0.101(3) Uani 1.00 d . . .
C(10) C 0.1325(3) 0.6816(4) 0.7896(4) 0.079(3) Uani 1.00 d . . .
C(11) C 0.1768(3) 0.6526(4) 0.8313(3) 0.069(2) Uani 1.00 d . . .
C(12) C 0.1993(3) 0.5891(5) 0.8187(4) 0.083(3) Uani 1.00 d . . .
C(13) C 0.1761(3) 0.5534(5) 0.7615(4) 0.094(3) Uani 1.00 d . . .
C(14) C 0.2029(3) 0.6924(4) 0.8931(3) 0.065(2) Uani 1.00 d . . .
C(15) C 0.0962(4) 0.1419(6) 0.4419(5) 0.137(4) Uani 1.00 d . . .
C(16) C 0.0518(4) 0.1081(7) 0.4396(6) 0.189(5) Uani 1.00 d . . .
C(17) C 0.0534(4) 0.0567(6) 0.4836(5) 0.126(4) Uani 1.00 d . . .
C(18) C 0.1008(5) 0.0452(9) 0.5281(6) 0.235(5) Uani 1.00 d . . .
C(19) C 0.1455(4) 0.0815(6) 0.5261(5) 0.174(4) Uani 1.00 d . . .
C(20) C 0.0035(4) 0.0144(6) 0.4804(5) 0.143(5) Uani 1.00 d . . .
C(21) C 0.0666(6) 0.3656(9) 0.3950(7) 0.3690 Uiso 1.00 d G . .
C(22) C 0.1117(8) 0.494(1) 0.436(1) 0.3691 Uiso 1.00 d . . .
C(23) C 0.0138(8) 0.467(1) 0.431(1) 0.3691 Uiso 1.00 d . . .
H(1) H 0.1177 0.3415 0.5693 0.1057 Uiso 1.00 calc . . .
H(2) H 0.0784 0.4173 0.6208 0.1104 Uiso 1.00 calc . . .
H(3) H 0.1968 0.5677 0.6486 0.1354 Uiso 1.00 calc . . .
H(4) H 0.2379 0.4855 0.5985 0.1069 Uiso 1.00 calc . . .
H(5) H 0.0802 0.6662 0.7008 0.1215 Uiso 1.00 calc . . .
H(6) H 0.1165 0.7250 0.7993 0.0942 Uiso 1.00 calc . . .
H(7) H 0.2304 0.5693 0.8484 0.0999 Uiso 1.00 calc . . .
H(8) H 0.1907 0.5081 0.7528 0.1123 Uiso 1.00 calc . . .
H(9) H 0.0940 0.1741 0.4080 0.1645 Uiso 1.00 calc . . .
H(10) H 0.0196 0.1199 0.4077 0.2272 Uiso 1.00 calc . . .
H(11) H 0.1036 0.0117 0.5613 0.2826 Uiso 1.00 calc . . .
H(12) H 0.1789 0.0673 0.5544 0.2084 Uiso 1.00 calc . . .
H(13) H -0.0239 0.0128 0.4412 0.1725 Uiso 1.00 calc . . .
H(14) H 0.1026(7) 0.347(1) 0.388(1) 0.3690 Uiso 1.00 calc G . .
H(15) H 0.1436(8) 0.466(2) 0.426(2) 0.3690 Uiso 1.00 calc G . .
H(16) H 0.101(1) 0.546(1) 0.408(1) 0.3690 Uiso 1.00 calc G . .
H(17) H 0.1249(10) 0.508(1) 0.486(1) 0.3690 Uiso 1.00 calc G . .
H(18) H -0.0157(7) 0.422(1) 0.417(1) 0.3690 Uiso 1.00 calc G . .
H(19) H 0.023(1) 0.480(1) 0.480(1) 0.3690 Uiso 1.00 calc G . .
H(20) H -0.0016(9) 0.518(1) 0.403(2) 0.3690 Uiso 1.00 calc G . .

loop_
_atom_site_aniso_label
_atom_site_aniso_U_11
_atom_site_aniso_U_22
_atom_site_aniso_U_33
_atom_site_aniso_U_12
_atom_site_aniso_U_13
_atom_site_aniso_U_23
Zn(1) 0.0530(4) 0.0527(4) 0.0626(5) -0.0181(5) 0.0320(3) -0.0035(5)
O(1) 0.078(3) 0.061(3) 0.104(4) -0.007(2) 0.055(3) -0.021(2)
O(2) 0.062(3) 0.069(3) 0.089(4) -0.024(3) 0.028(3) -0.031(3)
O(3) 0.086(4) 0.199(6) 0.107(5) 0.068(4) 0.009(3) -0.089(4)
O(4) 0.060(3) 0.083(3) 0.062(3) 0.013(3) 0.022(3) -0.014(3)
O(5) 0.074(4) 0.098(4) 0.060(4) 0.024(3) 0.019(3) -0.002(3)
O(7) 1.01(8) 1.00(7) 0.61(5) 0.07(7) -0.15(5) 0.39(5)
O(8) 0.26(2) 0.51(2) 0.37(2) 0.01(2) 0.01(2) 0.11(2)
N(1) 0.049(3) 0.079(4) 0.110(5) -0.030(3) 0.044(3) -0.021(3)
C(1) 0.064(4) 0.063(4) 0.044(5) -0.003(3) 0.024(4) 0.003(3)
C(2) 0.071(5) 0.072(4) 0.062(5) 0.013(3) 0.026(4) -0.010(4)
C(3) 0.077(5) 0.098(6) 0.103(7) -0.013(5) 0.049(4) -0.037(5)
C(4) 0.074(6) 0.125(6) 0.093(6) 0.000(5) 0.049(5) -0.028(5)
C(5) 0.078(5) 0.124(6) 0.055(6) 0.021(4) -0.006(5) -0.029(5)
C(6) 0.082(6) 0.108(7) 0.143(9) -0.003(5) 0.031(6) -0.072(6)
C(7) 0.077(6) 0.083(5) 0.109(7) -0.019(4) 0.035(5) -0.023(5)
C(8) 0.082(6) 0.118(6) 0.086(5) 0.037(4) 0.040(4) -0.018(4)
C(9) 0.088(6) 0.127(7) 0.073(5) 0.052(5) 0.008(5) -0.031(5)
C(10) 0.065(5) 0.089(6) 0.076(5) 0.025(4) 0.017(3) -0.016(4)
C(11) 0.077(5) 0.082(5) 0.052(4) 0.029(4) 0.026(3) 0.006(3)
C(12) 0.075(6) 0.095(5) 0.080(5) 0.046(4) 0.027(4) -0.008(4)
C(13) 0.081(6) 0.096(6) 0.099(6) 0.028(5) 0.025(4) -0.038(5)
C(14) 0.074(4) 0.075(5) 0.054(4) 0.021(4) 0.034(3) 0.007(4)
C(15) 0.059(5) 0.151(8) 0.173(10) -0.048(6) 0.004(5) 0.067(7)
C(16) 0.064(6) 0.25(1) 0.20(1) -0.105(6) -0.018(7) 0.123(8)
C(17) 0.117(6) 0.152(8) 0.142(8) -0.083(6) 0.088(5) -0.054(5)
C(18) 0.149(7) 0.36(1) 0.16(1) -0.197(8) 0.004(6) 0.088(10)
C(19) 0.135(7) 0.194(9) 0.162(9) -0.063(7) 0.014(7) 0.139(6)
C(20) 0.127(7) 0.170(10) 0.17(1) -0.099(6) 0.104(7) -0.034(8)
#------------------------------------------------------------------------------
_computing_data_collection       G
_computing_cell_refinement       G
_computing_data_reduction        'teXsan Ver. 1.11'
_computing_structure_solution    'DIRDIF94 (PATTY)'
_computing_structure_refinement  'teXsan Ver. 1.10'
_computing_publication_material  'teXsan Ver. 1.11'
_computing_molecular_graphics    ?
#------------------------------------------------------------------------------
_geom_special_details            
;
?
;
loop_
_geom_bond_atom_site_label_1
_geom_bond_atom_site_label_2
_geom_bond_distance
_geom_bond_site_symmetry_1
_geom_bond_site_symmetry_2
_geom_bond_publ_flag
Zn(1) O(1) 2.050(5) . . yes
Zn(1) O(2) 2.032(6) . 7_556 yes
Zn(1) O(4) 2.003(5) . 4_564 yes
Zn(1) O(5) 2.030(4) . 6_546 yes
Zn(1) N(1) 2.019(6) . . yes
O(1) C(1) 1.248(8) . . yes
O(2) C(1) 1.261(10) . . yes
O(3) C(5) 1.36(1) . . yes
O(3) C(8) 1.39(1) . . yes
O(4) C(14) 1.266(10) . . yes
O(5) C(14) 1.247(8) . . yes
O(8) O(8) 1.94(3) . 2_555 yes
N(1) C(15) 1.30(1) . . yes
N(1) C(19) 1.34(1) . . yes
C(1) C(2) 1.47(1) . . yes
C(2) C(3) 1.42(1) . . yes
C(2) C(7) 1.36(1) . . yes
C(3) C(4) 1.36(1) . . yes
C(4) C(5) 1.37(1) . . yes
C(5) C(6) 1.41(2) . . yes
C(6) C(7) 1.42(2) . . yes
C(8) C(9) 1.35(1) . . yes
C(8) C(13) 1.36(1) . . yes
C(9) C(10) 1.42(1) . . yes
C(10) C(11) 1.356(10) . . yes
C(11) C(12) 1.36(1) . . yes
C(11) C(14) 1.52(1) . . yes
C(12) C(13) 1.40(1) . . yes
C(15) C(16) 1.34(2) . . yes
C(16) C(17) 1.35(2) . . yes
C(17) C(18) 1.36(1) . . yes
C(17) C(20) 1.53(2) . . yes
C(18) C(19) 1.39(2) . . yes
C(20) C(20) 1.11(3) . 3_556 yes
C(21) N(3) 1.47(2) . . yes
C(21) O(6) 1.35(2) . . yes
N(3) C(24) 1.54(3) . . yes
N(3) C(25) 1.54(3) . . yes
#------------------------------------------------------------------------------
loop_
_geom_angle_atom_site_label_1
_geom_angle_atom_site_label_2
_geom_angle_atom_site_label_3
_geom_angle
_geom_angle_site_symmetry_1
_geom_angle_site_symmetry_2
_geom_angle_site_symmetry_3
_geom_angle_publ_flag
O(1) Zn(1) O(2) 159.1(2) . . 7_556 yes
O(1) Zn(1) O(4) 88.5(2) . . 4_564 yes
O(1) Zn(1) O(5) 87.7(2) . . 6_546 yes
O(1) Zn(1) N(1) 96.1(2) . . . yes
O(2) Zn(1) O(4) 88.9(2) 7_556 . 4_564 yes
O(2) Zn(1) O(5) 87.4(2) 7_556 . 6_546 yes
O(2) Zn(1) N(1) 104.7(2) 7_556 . . yes
O(4) Zn(1) O(5) 159.3(2) 4_564 . 6_546 yes
O(4) Zn(1) N(1) 102.2(2) 4_564 . . yes
O(5) Zn(1) N(1) 98.5(2) 6_546 . . yes
Zn(1) O(1) C(1) 134.3(5) . . . yes
Zn(1) O(2) C(1) 122.7(4) 7_556 . . yes
C(5) O(3) C(8) 118.9(7) . . . yes
Zn(1) O(4) C(14) 122.8(4) 4_565 . . yes
Zn(1) O(5) C(14) 132.5(5) 6_556 . . yes
Zn(1) N(1) C(15) 124.1(7) . . . yes
Zn(1) N(1) C(19) 121.8(6) . . . yes
C(15) N(1) C(19) 114.0(8) . . . yes
O(1) C(1) O(2) 123.9(7) . . . yes
O(1) C(1) C(2) 119.1(7) . . . yes
O(2) C(1) C(2) 116.9(6) . . . yes
C(1) C(2) C(3) 121.3(7) . . . yes
C(1) C(2) C(7) 121.7(8) . . . yes
C(3) C(2) C(7) 116.9(8) . . . yes
C(2) C(3) C(4) 124.3(8) . . . yes
C(3) C(4) C(5) 118.3(9) . . . yes
O(3) C(5) C(4) 118.5(9) . . . yes
O(3) C(5) C(6) 121.2(8) . . . yes
C(4) C(5) C(6) 120.2(9) . . . yes
C(5) C(6) C(7) 119.7(8) . . . yes
C(2) C(7) C(6) 120.4(9) . . . yes
O(3) C(8) C(9) 116.1(7) . . . yes
O(3) C(8) C(13) 123.4(8) . . . yes
C(9) C(8) C(13) 120.2(8) . . . yes
C(8) C(9) C(10) 120.4(7) . . . yes
C(9) C(10) C(11) 118.5(8) . . . yes
C(10) C(11) C(12) 121.4(7) . . . yes
C(10) C(11) C(14) 119.6(7) . . . yes
C(12) C(11) C(14) 119.0(6) . . . yes
C(11) C(12) C(13) 119.0(7) . . . yes
C(8) C(13) C(12) 120.4(8) . . . yes
O(4) C(14) O(5) 125.4(6) . . . yes
O(4) C(14) C(11) 117.4(6) . . . yes
O(5) C(14) C(11) 117.2(7) . . . yes
N(1) C(15) C(16) 127(1) . . . yes
C(15) C(16) C(17) 118.7(9) . . . yes
C(16) C(17) C(18) 116(1) . . . yes
C(16) C(17) C(20) 119.8(8) . . . yes
C(18) C(17) C(20) 123(1) . . . yes
C(17) C(18) C(19) 121(1) . . . yes
N(1) C(19) C(18) 120.9(9) . . . yes
C(17) C(20) C(20) 126(1) . . 3_556 yes
N(3) C(21) O(6) 120(1) . . . yes
C(21) N(3) C(24) 119(1) . . . yes
C(21) N(3) C(25) 120(1) . . . yes
C(24) N(3) C(25) 120(1) . . . yes
#------------------------------------------------------------------------------
loop_
_geom_torsion_atom_site_label_1
_geom_torsion_atom_site_label_2
_geom_torsion_atom_site_label_3
_geom_torsion_atom_site_label_4
_geom_torsion
_geom_torsion_site_symmetry_1
_geom_torsion_site_symmetry_2
_geom_torsion_site_symmetry_3
_geom_torsion_site_symmetry_4
_geom_torsion_publ_flag
Zn(1) O(1) C(1) O(2) 0(1) . . . . yes
Zn(1) O(1) C(1) C(2) -178.4(5) . . . . yes
Zn(1) O(2) C(1) O(1) 0.0(9) . 7_556 7_556 7_556 yes
Zn(1) O(2) C(1) C(2) -179.0(4) . 7_556 7_556 7_556 yes
Zn(1) N(1) C(15) C(16) -173(1) . . . . yes
Zn(1) N(1) C(19) C(18) 172.3(10) . . . . yes
O(1) Zn(1) O(2) C(1) 1.0(9) . . 7_556 7_556 yes
O(1) Zn(1) N(1) C(15) 82.9(8) . . . . yes
O(1) Zn(1) N(1) C(19) -101.0(8) . . . . yes
O(1) C(1) C(2) C(3) 4(1) . . . . yes
O(1) C(1) C(2) C(7) 180.0(7) . . . . yes
O(2) Zn(1) Zn(1) O(2) -180.0 . 7_556 . 7_556 yes
O(2) Zn(1) Zn(1) O(4) 90.5(2) . 7_556 . 4_564 yes
O(2) Zn(1) Zn(1) O(5) -91.2(2) . 7_556 . 6_546 yes
O(2) Zn(1) Zn(1) N(1) -33.7(9) . 7_556 . . yes
O(2) Zn(1) O(1) C(1) 1.3(10) . 7_556 7_556 7_556 yes
O(2) Zn(1) N(1) C(15) 99.0(8) . 7_556 7_556 7_556 yes
O(2) Zn(1) N(1) C(19) -77.1(8) . 7_556 7_556 7_556 yes
O(2) C(1) C(2) C(3) -174.9(7) . . . . yes
O(2) C(1) C(2) C(7) 0(1) . . . . yes
O(3) C(5) C(4) C(3) 174.0(7) . . . . yes
O(3) C(5) C(6) C(7) -175.2(8) . . . . yes
O(3) C(8) C(9) C(10) 174.8(9) . . . . yes
O(3) C(8) C(13) C(12) -176.5(9) . . . . yes
O(4) C(14) C(11) C(10) 8(1) . . . . yes
O(4) C(14) C(11) C(12) -172.7(8) . . . . yes
O(5) C(14) C(11) C(10) -173.9(8) . . . . yes
O(5) C(14) C(11) C(12) 4(1) . . . . yes
N(1) Zn(1) O(1) C(1) 173.5(6) . . . . yes
N(1) Zn(1) O(2) C(1) -173.6(5) . . 7_556 7_556 yes
N(1) C(15) C(16) C(17) -5(2) . . . . yes
N(1) C(19) C(18) C(17) 8(2) . . . . yes
C(1) C(2) C(3) C(4) 175.5(7) . . . . yes
C(1) C(2) C(7) C(6) -176.8(7) . . . . yes
C(2) C(3) C(4) C(5) 2(1) . . . . yes
C(2) C(7) C(6) C(5) 0(1) . . . . yes
C(3) C(2) C(7) C(6) 0(1) . . . . yes
C(3) C(4) C(5) C(6) -3(1) . . . . yes
C(4) C(3) C(2) C(7) 0(1) . . . . yes
C(4) C(5) O(3) C(8) 133.1(9) . . . . yes
C(4) C(5) C(6) C(7) 1(1) . . . . yes
C(5) O(3) C(8) C(9) 160.1(9) . . . . yes
C(5) O(3) C(8) C(13) -25(1) . . . . yes
C(6) C(5) O(3) C(8) -49(1) . . . . yes
C(8) C(9) C(10) C(11) 1(1) . . . . yes
C(8) C(13) C(12) C(11) 2(1) . . . . yes
C(9) C(8) C(13) C(12) -2(1) . . . . yes
C(9) C(10) C(11) C(12) -2(1) . . . . yes
C(9) C(10) C(11) C(14) 176.6(8) . . . . yes
C(10) C(9) C(8) C(13) 0(1) . . . . yes
C(10) C(11) C(12) C(13) 0(1) . . . . yes
C(13) C(12) C(11) C(14) -178.7(8) . . . . yes
C(15) N(1) C(19) C(18) -11(1) . . . . yes
C(15) C(16) C(17) C(18) 1(1) . . . . yes
C(15) C(16) C(17) C(20) -177(1) . . . . yes
C(16) C(15) N(1) C(19) 10(1) . . . . yes
C(16) C(17) C(18) C(19) -3(2) . . . . yes
C(16) C(17) C(20) C(20) -159(1) . . . 3_556 yes
C(17) C(20) C(20) C(17) -180.0000(1) . . 3_556 3_556 yes
C(18) C(17) C(20) C(20) 21(2) . . . 3_556 yes
C(19) C(18) C(17) C(20) 175(1) . . . . yes
C(24) N(3) C(21) O(6) 180.0 . . . . yes
C(25) N(3) C(21) O(6) 0(2) . . . . yes
C(25) N(3) C(21) O(6) 0(2) . . . . yes
#------------------------------------------------------------------------------
loop_
_geom_contact_atom_site_label_1
_geom_contact_atom_site_label_2
_geom_contact_distance
_geom_contact_site_symmetry_1
_geom_contact_site_symmetry_2
_geom_contact_publ_flag
O(3) C(25) 3.23(2) . 3_566 ?
O(4) N(1) 3.130(9) . 4_565 ?
O(4) C(15) 3.29(1) . 4_565 ?
O(4) C(1) 3.442(9) . 6_556 ?
O(4) C(1) 3.563(9) . 4_565 ?
O(4) C(21) 3.57(2) . 4_565 ?
O(5) N(1) 3.066(7) . 6_556 ?
O(5) C(19) 3.16(1) . 6_556 ?
O(5) C(1) 3.32(1) . 4_565 ?
O(5) C(1) 3.473(9) . 6_556 ?
O(8) O(6) 2.62(3) . . ?
O(8) C(21) 3.54(2) . . ?
C(2) C(24) 3.54(2) . . ?
C(10) C(21) 3.58(2) . 4_565 ?
#------------------------------------------------------------------------------

