
#######################################################################
#
#                 Cambridge Crystallographic Data Centre
#                                CCDC
#
#######################################################################
#
# If this CIF has been generated from an entry in the Cambridge
# Structural Database, then it will include bibliographic, chemical,
# crystal, experimental, refinement or atomic coordinate data resulting
# from the CCDC's data processing and validation procedures.
#
#######################################################################

data_CSD_CIF_DIGOXN10
_audit_creation_date 1981-02-05
_audit_creation_method CSD-ConQuest-V1
_database_code_CSD DIGOXN10
_database_code_depnum_ccdc_archive 'CCDC 1140600'
_chemical_formula_sum 'C41 H64 O14'
_chemical_formula_moiety
;
C41 H64 O14
;
_journal_coeditor_code "IUCr A19006"
_journal_coden_Cambridge 107
_journal_volume 36
_journal_year 1980
_journal_page_first 1811
_journal_name_full 'Acta Crystallogr.,Sect.B:Struct.Crystallogr.Cryst.Chem. '
loop_
_publ_author_name
"K.Go"
"G.Kartha"
"J.P.Chen"
_chemical_name_systematic
;
Digoxin
;
_chemical_name_common
;
Lanadicor; DrugBank: DB00390; PDB Chemical Component code: DGX; Teaching 
Subset: Fundamental Chemistry, Drug Molecules
;
_cell_volume    990.023
_exptl_crystal_density_diffrn 1.3
_exptl_special_details
;
Digoxin is widely used in the treatment of various heart conditions.
No study temperature is reported
;
_diffrn_ambient_temperature ?
_diffrn_special_details
;
The study was carried out at room temperature,in the range 283-303K

;
#These two values have been output from a single CSD field.
_refine_ls_R_factor_gt 0.042
_refine_ls_wR_factor_gt 0.042
_chemical_compound_source
;
Digitalis lanata
;
_symmetry_cell_setting triclinic
_symmetry_space_group_name_H-M 'P 1'
_symmetry_Int_Tables_number 1
loop_
_symmetry_equiv_pos_site_id
_symmetry_equiv_pos_as_xyz
1 x,y,z
_cell_length_a 7.404(2)
_cell_length_b 12.781(2)
_cell_length_c 12.677(2)
_cell_angle_alpha 91.15(1)
_cell_angle_beta 119.89(2)
_cell_angle_gamma 104.78(2)
_cell_formula_units_Z 1
loop_
_atom_type_symbol
_atom_type_radius_bond
C 0.68
H 0.23
O 0.68
loop_
_atom_site_label
_atom_site_type_symbol
_atom_site_fract_x
_atom_site_fract_y
_atom_site_fract_z
C1 C 1.15940 0.16590 0.73130
C2 C 1.02760 0.07960 0.61400
C3 C 0.80430 0.09550 0.52800
C4 C 0.68790 0.09760 0.59700
C5 C 0.81860 0.18660 0.71250
C6 C 0.69230 0.19270 0.77720
C7 C 0.67080 0.09430 0.84110
C8 C 0.89390 0.08250 0.93310
C9 C 1.01910 0.07240 0.86760
C10 C 1.04610 0.17410 0.80390
C11 C 1.23580 0.05110 0.95680
C12 C 1.19720 -0.04790 1.01580
C13 C 1.09340 -0.03360 1.09250
C14 C 0.87430 -0.00830 1.00810
C15 C 0.71330 -0.12100 0.93580
C16 C 0.76710 -0.19420 1.03490
C17 C 1.01850 -0.15110 1.12170
C18 C 1.25330 0.05610 1.20600
C19 C 1.19070 0.27950 0.90130
C20 C 1.10090 -0.15510 1.25550
C21 C 1.00220 -0.12500 1.32510
C22 C 1.27210 -0.18670 1.33300
C23 C 1.30360 -0.17320 1.45540
O1 O 0.82050 0.19820 0.48350
O2 O 1.39650 -0.07420 1.09260
O3 O 0.79520 0.02280 1.08460
O4 O 1.15390 -0.13100 1.45250
O5 O 1.44250 -0.19260 1.55180
C24 C 0.89690 0.21490 0.40360
C25 C 0.78730 0.29160 0.32100
C26 C 0.88450 0.33510 0.24330
C27 C 1.13420 0.37790 0.32410
C28 C 1.22970 0.29680 0.40670
C29 C 1.47150 0.34820 0.49860
C30 C 1.21320 0.48620 0.19230
C31 C 1.38120 0.51570 0.15420
C32 C 1.34230 0.60500 0.07380
C33 C 1.10290 0.57430 -0.02920
C34 C 0.94920 0.54250 0.01960
C35 C 0.70870 0.50160 -0.08050
C36 C 0.98350 0.64310 -0.21700
C37 C 0.94960 0.74550 -0.27190
C38 C 0.86390 0.72100 -0.40960
C39 C 1.00710 0.66690 -0.43150
C40 C 1.05290 0.57230 -0.36080
C41 C 1.22500 0.53230 -0.36520
O6 O 1.12820 0.26840 0.47730
O7 O 0.82790 0.25010 0.14470
O8 O 1.23690 0.39560 0.25250
O9 O 0.99930 0.45310 0.08470
O10 O 1.40570 0.70460 0.15320
O11 O 1.06970 0.66730 -0.08990
O12 O 1.13940 0.61120 -0.23320
O13 O 0.64590 0.64950 -0.47560
O14 O 0.90670 0.62860 -0.56100
H1 H 1.31340 0.16130 0.79060
H2 H 1.18970 0.23340 0.71130
H3 H 1.10570 0.08140 0.57120
H4 H 0.99740 0.00660 0.63490
H5 H 0.73570 0.03280 0.45670
H6 H 0.53300 0.11170 0.54290
H7 H 0.65620 0.02720 0.61730
H8 H 0.84910 0.25230 0.68150
H9 H 0.74160 0.25730 0.83040
H10 H 0.53760 0.19560 0.71120
H11 H 0.58970 0.09410 0.88280
H12 H 0.58760 0.03100 0.78620
H13 H 0.98280 0.15480 0.99080
H14 H 0.93000 0.01080 0.80760
H15 H 1.30790 0.03550 0.91170
H16 H 1.33320 0.11450 1.02210
H17 H 1.09050 -0.11040 0.94450
H18 H 0.56830 -0.10920 0.90270
H19 H 0.75170 -0.13280 0.87820
H20 H 0.69350 -0.18800 1.08480
H21 H 0.71230 -0.27400 1.00140
H22 H 1.09180 -0.19400 1.09510
H23 H 1.19220 0.05650 1.25980
H24 H 1.30910 0.12550 1.18900
H25 H 1.39160 0.03930 1.25220
H26 H 1.13060 0.29100 0.95270
H27 H 1.19310 0.34220 0.85140
H28 H 1.32480 0.27300 0.94450
H29 H 0.97220 -0.04600 1.30920
H30 H 0.85900 -0.17900 1.30440
H31 H 1.36480 -0.21840 1.31570
H32 H 1.48860 -0.04780 1.07170
H33 H 0.82830 0.09620 1.09790
H34 H 0.88360 0.14680 0.36210
H35 H 0.64020 0.25280 0.26470
H36 H 0.81810 0.36350 0.38780
H37 H 0.81970 0.39540 0.20650
H38 H 1.18040 0.44940 0.37950
H39 H 1.19480 0.23340 0.35580
H40 H 1.50880 0.28700 0.52980
H41 H 1.55490 0.36260 0.44920
H42 H 1.46870 0.41580 0.53990
H43 H 1.22400 0.54760 0.25150
H44 H 1.52220 0.54690 0.22400
H45 H 1.37650 0.45430 0.10980
H46 H 1.43170 0.61180 0.03500
H47 H 1.07300 0.51370 -0.08330
H48 H 0.98170 0.60540 0.07880
H49 H 0.68580 0.42890 -0.14690
H50 H 0.66990 0.57270 -0.13120
H51 H 0.59790 0.47680 -0.04470
H52 H 0.82500 0.57950 -0.26050
H53 H 0.82650 0.76120 -0.25270
H54 H 1.10420 0.80010 -0.22690
H55 H 0.87820 0.80390 -0.44320
H56 H 1.17430 0.73170 -0.39200
H57 H 0.89420 0.50900 -0.40310
H58 H 1.15460 0.52130 -0.46020
H59 H 1.22910 0.46520 -0.30400
H60 H 1.38240 0.59720 -0.33020
H61 H 0.90320 0.28580 0.10400
H62 H 1.37110 0.76670 0.09780
H63 H 0.51920 0.67650 -0.48880
H64 H 0.74090 0.62320 -0.58340
#END
