
#######################################################################
#
#                 Cambridge Crystallographic Data Centre
#                                CCDC
#
#######################################################################
#
# If this CIF has been generated from an entry in the Cambridge
# Structural Database, then it will include bibliographic, chemical,
# crystal, experimental, refinement or atomic coordinate data resulting
# from the CCDC's data processing and validation procedures.
#
#######################################################################

data_CSD_CIF_DIJHIN01
_audit_creation_date 1992-01-27
_audit_creation_method CSD-ConQuest-V1
_database_code_CSD DIJHIN01
_database_code_depnum_ccdc_archive 'CCDC 1140791'
_chemical_formula_sum 'C18 H30 Mo1'
_chemical_formula_moiety
;
C18 H30 Mo1
;
_journal_coden_Cambridge 579
_journal_volume 10
_journal_year 1991
_journal_page_first 2509
_journal_name_full 'Organometallics '
loop_
_publ_author_name
"Sock Sung Yun"
"Sung Kwon Kang"
"Il-Hwan Suh"
"Yun Dong Choi"
"In Soon Chang"
_chemical_name_systematic
;
tris(\h^4^-Dimethyl-1,3-butadiene)-molybdenum(0)
;
_chemical_name_common
;
Teaching Subset: Fundamental Chemistry, Symmetry
;
_cell_volume    812.434
_exptl_crystal_colour 'yellow'
_exptl_crystal_density_diffrn 1.375
_diffrn_ambient_temperature ?
_diffrn_special_details
;
The study was carried out at room temperature,in the range 283-303K

;
#These two values have been output from a single CSD field.
_refine_ls_R_factor_gt 0.0226
_refine_ls_wR_factor_gt 0.0226
_symmetry_cell_setting triclinic
_symmetry_space_group_name_H-M 'P -1'
_symmetry_Int_Tables_number 2
loop_
_symmetry_equiv_pos_site_id
_symmetry_equiv_pos_as_xyz
1 x,y,z
2 -x,-y,-z
_cell_length_a 9.554(2)
_cell_length_b 12.312(2)
_cell_length_c 7.060(2)
_cell_angle_alpha 97.66(2)
_cell_angle_beta 90.38(2)
_cell_angle_gamma 99.07(1)
_cell_formula_units_Z 2
loop_
_atom_type_symbol
_atom_type_radius_bond
C 0.68
H 0.23
Mo 1.47
loop_
_atom_site_label
_atom_site_type_symbol
_atom_site_fract_x
_atom_site_fract_y
_atom_site_fract_z
Mo1 Mo 0.33180 0.23030 0.24310
C1 C 0.3682(3) 0.3489(2) 0.5166(4)
C2 C 0.2438(3) 0.3785(2) 0.4359(4)
C3 C 0.2511(3) 0.4054(2) 0.2493(4)
C4 C 0.3825(3) 0.4003(2) 0.1536(4)
C5 C 0.1108(4) 0.3789(3) 0.5488(4)
C6 C 0.1252(4) 0.4361(3) 0.1514(4)
C7 C 0.1450(3) 0.1420(2) 0.3804(4)
C8 C 0.1755(3) 0.0575(2) 0.2339(4)
C9 C 0.1817(3) 0.0832(2) 0.0470(4)
C10 C 0.1582(3) 0.1925(2) 0.0197(4)
C11 C 0.1976(3) -0.0544(2) 0.2802(4)
C12 C 0.2133(3) 0.0013(3) -0.1192(4)
C13 C 0.4663(3) 0.1246(2) 0.3750(4)
C14 C 0.5682(3) 0.2158(2) 0.3369(4)
C15 C 0.5739(3) 0.2417(2) 0.1498(4)
C16 C 0.4754(3) 0.1751(2) 0.0117(4)
C17 C 0.6668(3) 0.2823(3) 0.4932(5)
C18 C 0.6773(3) 0.3362(3) 0.0927(5)
H1 H 0.3655(32) 0.3264(26) 0.6311(43)
H2 H 0.4585(28) 0.3967(23) 0.5045(40)
H3 H 0.4654(29) 0.4381(23) 0.2261(39)
H4 H 0.3875(32) 0.4117(26) 0.0258(44)
H5 H 0.0193(34) 0.3507(27) 0.4746(46)
H6 H 0.1106(34) 0.4492(29) 0.6017(46)
H7 H 0.0977(36) 0.328(3) 0.6322(49)
H8 H 0.0362(31) 0.3889(25) 0.1691(42)
H9 H 0.1257(32) 0.5127(27) 0.1817(43)
H10 H 0.1328(34) 0.4261(28) 0.0221(47)
H11 H 0.1501(31) 0.1267(25) 0.4975(41)
H12 H 0.0636(29) 0.1789(24) 0.3571(39)
H13 H 0.0713(30) 0.2157(25) 0.0709(41)
H14 H 0.1712(26) 0.2110(23) -0.0970(39)
H15 H 0.2592(33) -0.0858(26) 0.2092(45)
H16 H 0.1049(35) -0.1066(28) 0.2619(47)
H17 H 0.2214(35) -0.0531(28) 0.3966(48)
H18 H 0.2782(36) -0.0429(29) -0.0892(48)
H19 H 0.1229(33) -0.0438(27) -0.1695(44)
H20 H 0.2571(34) 0.0378(28) -0.2098(45)
H21 H 0.4593(32) 0.1156(27) 0.4964(46)
H22 H 0.4528(28) 0.0556(23) 0.2911(39)
H23 H 0.4578(28) 0.0978(23) 0.0044(39)
H24 H 0.4727(30) 0.1983(25) -0.1072(40)
H25 H 0.6885(33) 0.3603(28) 0.4845(45)
H26 H 0.7594(36) 0.2596(30) 0.4886(48)
H27 H 0.6267(35) 0.2678(29) 0.6065(47)
H28 H 0.6984(32) 0.3988(27) 0.1901(45)
H29 H 0.7681(37) 0.3104(30) 0.0646(49)
H30 H 0.6423(35) 0.3596(29) -0.0130(48)
#END
