
#######################################################################
#
#                 Cambridge Crystallographic Data Centre
#                                CCDC
#
#######################################################################
#
# If this CIF has been generated from an entry in the Cambridge
# Structural Database, then it will include bibliographic, chemical,
# crystal, experimental, refinement or atomic coordinate data resulting
# from the CCDC's data processing and validation procedures.
#
#######################################################################

data_CSD_CIF_DIJSIZ
_audit_creation_date 2007-11-02
_audit_creation_method CSD-ConQuest-V1
_database_code_CSD DIJSIZ
_database_code_depnum_ccdc_archive 'CCDC 630771'
_chemical_formula_sum 'C6 H12 Cl6 Co1 O12 Os2'
_chemical_formula_moiety
;
H12 Co1 O6 2+,2(C3 Cl3 O3 Os1 1-)
;
_journal_coden_Cambridge 1290
_journal_year 2007
_journal_page_first 3497
_journal_name_full 'Eur.J.Inorg.Chem. '
loop_
_publ_author_name
"M.Jakonen"
"P.Hirva"
"T.Nivajarvi"
"M.Kallinen"
"M.Haukka"
_chemical_name_systematic
;
Hexa-aqua-cobalt(ii) bis(tricarbonyl-trichloro-osmium(ii))
;
_chemical_name_common
;
Teaching Subset: Fundamental Chemistry
;
_cell_volume    530.389
_exptl_crystal_colour 'colorless'
_exptl_crystal_density_diffrn 2.906
_exptl_crystal_description 'plate'
_diffrn_ambient_temperature 120
#These two values have been output from a single CSD field.
_refine_ls_R_factor_gt 0.0496
_refine_ls_wR_factor_gt 0.0496
_symmetry_cell_setting triclinic
_symmetry_space_group_name_H-M 'P -1'
_symmetry_Int_Tables_number 2
loop_
_symmetry_equiv_pos_site_id
_symmetry_equiv_pos_as_xyz
1 x,y,z
2 -x,-y,-z
_cell_length_a 6.2750(12)
_cell_length_b 6.3310(13)
_cell_length_c 13.877(3)
_cell_angle_alpha 87.455(11)
_cell_angle_beta 77.067(11)
_cell_angle_gamma 80.810(12)
_cell_formula_units_Z 1
loop_
_atom_type_symbol
_atom_type_radius_bond
C 0.68
H 0.23
Cl 0.99
Co 1.33
O 0.68
Os 1.37
loop_
_atom_site_label
_atom_site_type_symbol
_atom_site_fract_x
_atom_site_fract_y
_atom_site_fract_z
Os1 Os 0.37149(10) 0.37828(8) 0.81006(4)
Cl1 Cl 0.5635(6) 0.5129(5) 0.6544(3)
Cl2 Cl 0.0290(6) 0.5559(5) 0.7731(3)
Cl3 Cl 0.3293(6) 0.0730(5) 0.7211(3)
O1 O 0.0936(19) 0.2121(16) 0.9961(9)
O2 O 0.7890(18) 0.1209(17) 0.8547(8)
O3 O 0.4370(18) 0.7591(16) 0.9191(9)
C1 C 0.207(2) 0.276(2) 0.9260(12)
C2 C 0.637(2) 0.220(2) 0.8352(10)
C3 C 0.411(3) 0.621(3) 0.8779(11)
Co1 Co 0.00000 1.00000 0.50000
O4 O 0.3061(18) 0.8352(16) 0.5154(8)
H1 H 0.37870 0.74930 0.55150
H2 H 0.36990 0.80030 0.45540
O5 O -0.0755(18) 0.7222(16) 0.4445(8)
H3 H 0.01560 0.59950 0.43680
H4 H -0.13540 0.73670 0.39420
O6 O 0.1475(18) 1.0742(16) 0.3581(8)
H5 H 0.09900 1.15060 0.31370
H6 H 0.28970 1.05610 0.34080
O4A O -0.3061(18) 1.1648(16) 0.4846(8)
H1A H -0.37870 1.25070 0.44850
H2A H -0.36990 1.19970 0.54460
O5A O 0.0755(18) 1.2778(16) 0.5555(8)
H3A H -0.01560 1.40050 0.56320
H4A H 0.13540 1.26330 0.60580
O6A O -0.1475(18) 0.9258(16) 0.6419(8)
H5A H -0.09900 0.84940 0.68630
H6A H -0.28970 0.94390 0.65920
#END
