####################################################################### 
# 
# This file contains crystal structure data downloaded from the 
# Cambridge Structural Database (CSD) hosted by the Cambridge 
# Crystallographic Data Centre (CCDC).
# 
# Full information about CCDC data access policies and citation 
# guidelines are available at http://www.ccdc.cam.ac.uk/access/V1 
# 
# Audit and citation data items may have been added by the CCDC. 
# Please retain this information to preserve the provenance of 
# this file and to allow appropriate attribution of the data. 
# 
#######################################################################

data_3
_audit_block_doi                 10.5517/ccp5050
_database_code_depnum_ccdc_archive 'CCDC 630421'
loop_
_citation_id
_citation_doi
_citation_year
1 10.1021/cg070100h 2007
_audit_update_record             
;
2006-12-08 deposited with the CCDC.	2024-07-09 downloaded from the CCDC.
;

_audit_creation_method           SHELXL-97
_chemical_name_systematic        
;
?
;
_chemical_name_common            ?
_chemical_melting_point          ?
_chemical_formula_moiety         ?
_chemical_formula_sum            'C38 H42 Cl8 Cu N8 O14'
_chemical_formula_weight         1181.94

loop_
_atom_type_symbol
_atom_type_description
_atom_type_scat_dispersion_real
_atom_type_scat_dispersion_imag
_atom_type_scat_source
C C 0.0033 0.0016 'International Tables Vol C Tables 4.2.6.8 and 6.1.1.4'
H H 0.0000 0.0000 'International Tables Vol C Tables 4.2.6.8 and 6.1.1.4'
N N 0.0061 0.0033 'International Tables Vol C Tables 4.2.6.8 and 6.1.1.4'
O O 0.0106 0.0060 'International Tables Vol C Tables 4.2.6.8 and 6.1.1.4'
Cl Cl 0.1484 0.1585 'International Tables Vol C Tables 4.2.6.8 and 6.1.1.4'
Cu Cu 0.3201 1.2651 'International Tables Vol C Tables 4.2.6.8 and 6.1.1.4'

_symmetry_cell_setting           Monoclinic
_symmetry_space_group_name_H-M   C2/m

loop_
_symmetry_equiv_pos_as_xyz
'x, y, z'
'-x, y, -z'
'x+1/2, y+1/2, z'
'-x+1/2, y+1/2, -z'
'-x, -y, -z'
'x, -y, z'
'-x+1/2, -y+1/2, -z'
'x+1/2, -y+1/2, z'

_cell_length_a                   9.5913(19)
_cell_length_b                   21.013(4)
_cell_length_c                   12.284(3)
_cell_angle_alpha                90.00
_cell_angle_beta                 101.78(3)
_cell_angle_gamma                90.00
_cell_volume                     2423.6(8)
_cell_formula_units_Z            2
_cell_measurement_temperature    293(2)
_cell_measurement_reflns_used    25
_cell_measurement_theta_min      8
_cell_measurement_theta_max      12

_exptl_crystal_description       plates
_exptl_crystal_colour            purple
_exptl_crystal_size_max          0.15
_exptl_crystal_size_mid          0.15
_exptl_crystal_size_min          0.10
_exptl_crystal_density_meas      none
_exptl_crystal_density_diffrn    1.620
_exptl_crystal_density_method    'not measured'
_exptl_crystal_F_000             1206
_exptl_absorpt_coefficient_mu    0.964
_exptl_absorpt_correction_type   none
_exptl_absorpt_correction_T_min  ?
_exptl_absorpt_correction_T_max  ?
_exptl_absorpt_process_details   ?

_exptl_special_details           
;
?
;

_diffrn_ambient_temperature      293(2)
_diffrn_radiation_wavelength     0.71073
_diffrn_radiation_type           MoK\a
_diffrn_radiation_source         'fine-focus sealed tube'
_diffrn_radiation_monochromator  graphite
_diffrn_measurement_device_type  CAD4
_diffrn_measurement_method       \w-scan
_diffrn_detector_area_resol_mean ?
_diffrn_standards_number         3
_diffrn_standards_interval_count ?
_diffrn_standards_interval_time  60
_diffrn_standards_decay_%        0
_diffrn_reflns_number            2286
_diffrn_reflns_av_R_equivalents  0.0338
_diffrn_reflns_av_sigmaI/netI    0.0525
_diffrn_reflns_limit_h_min       0
_diffrn_reflns_limit_h_max       11
_diffrn_reflns_limit_k_min       0
_diffrn_reflns_limit_k_max       24
_diffrn_reflns_limit_l_min       -14
_diffrn_reflns_limit_l_max       14
_diffrn_reflns_theta_min         1.69
_diffrn_reflns_theta_max         24.97
_reflns_number_total             2148
_reflns_number_gt                1350
_reflns_threshold_expression     >2sigma(I)

_computing_data_collection       CAD4
_computing_cell_refinement       CAD4
_computing_data_reduction        CAD4
_computing_structure_solution    'SHELXS-97 (Sheldrick, 1990)'
_computing_structure_refinement  'SHELXL-97 (Sheldrick, 1997)'
_computing_molecular_graphics    ?
_computing_publication_material  ?

_refine_special_details          
;
Refinement of F^2^ against ALL reflections. The weighted R-factor wR and
goodness of fit S are based on F^2^, conventional R-factors R are based
on F, with F set to zero for negative F^2^. The threshold expression of
F^2^ > 2sigma(F^2^) is used only for calculating R-factors(gt) etc. and is
not relevant to the choice of reflections for refinement. R-factors based
on F^2^ are statistically about twice as large as those based on F, and R-
factors based on ALL data will be even larger.
;

_refine_ls_structure_factor_coef Fsqd
_refine_ls_matrix_type           full
_refine_ls_weighting_scheme      calc
_refine_ls_weighting_details     
'calc w=1/[\s^2^(Fo^2^)+(0.1872P)^2^+0.0000P] where P=(Fo^2^+2Fc^2^)/3'
_atom_sites_solution_primary     direct
_atom_sites_solution_secondary   difmap
_atom_sites_solution_hydrogens   geom
_refine_ls_hydrogen_treatment    mixed
_refine_ls_extinction_method     none
_refine_ls_extinction_coef       ?
_refine_ls_number_reflns         2148
_refine_ls_number_parameters     140
_refine_ls_number_restraints     0
_refine_ls_R_factor_all          0.1223
_refine_ls_R_factor_gt           0.0776
_refine_ls_wR_factor_ref         0.2382
_refine_ls_wR_factor_gt          0.2138
_refine_ls_goodness_of_fit_ref   0.899
_refine_ls_restrained_S_all      0.899
_refine_ls_shift/su_max          0.000
_refine_ls_shift/su_mean         0.000

loop_
_atom_site_label
_atom_site_type_symbol
_atom_site_fract_x
_atom_site_fract_y
_atom_site_fract_z
_atom_site_U_iso_or_equiv
_atom_site_adp_type
_atom_site_occupancy
_atom_site_symmetry_multiplicity
_atom_site_calc_flag
_atom_site_refinement_flags
_atom_site_disorder_assembly
_atom_site_disorder_group
Cu1 Cu 0.5000 -0.5000 0.5000 0.0511(5) Uani 1 4 d S . .
Cl1 Cl 0.0993(2) -0.5000 0.3204(2) 0.0875(9) Uani 1 2 d S . .
C1 C -0.2623(15) -0.5000 -0.0417(11) 0.105(4) Uiso 1 2 d S . .
H1 H -0.1900 -0.5000 -0.0877 0.126 Uiso 1 2 calc SR . .
Cl2 Cl -0.4279(5) -0.5000 -0.1253(3) 0.1512(17) Uani 1 2 d S . .
Cl3 Cl -0.2462(6) -0.5695(2) 0.0386(4) 0.211(2) Uani 1 1 d . . .
O101 O -0.0253(8) -0.5000 0.3602(9) 0.131(3) Uani 1 2 d S . .
O102 O 0.1081(8) -0.4456(4) 0.2509(6) 0.161(3) Uani 1 1 d . . .
O103 O 0.2244(6) -0.5000 0.4032(5) 0.0668(15) Uani 1 2 d S . .
O16 O 0.7527(4) -0.2830(2) 0.1578(4) 0.0748(12) Uani 1 1 d . . .
N11 N 0.5425(4) -0.4316(2) 0.3957(3) 0.0511(11) Uani 1 1 d . . .
C11 C 0.6717(6) -0.4215(4) 0.3735(6) 0.080(2) Uani 1 1 d . . .
H11 H 0.7471 -0.4467 0.4092 0.096 Uiso 1 1 calc R . .
C13 C 0.5936(5) -0.3374(3) 0.2473(4) 0.0484(12) Uani 1 1 d . . .
C14 C 0.4579(6) -0.3475(3) 0.2690(5) 0.0623(15) Uani 1 1 d . . .
H14 H 0.3813 -0.3229 0.2338 0.075 Uiso 1 1 calc R . .
C15 C 0.4392(6) -0.3936(3) 0.3424(6) 0.0653(16) Uani 1 1 d . . .
H15 H 0.3483 -0.3991 0.3563 0.078 Uiso 1 1 calc R . .
C12 C 0.6984(6) -0.3757(4) 0.3003(5) 0.076(2) Uani 1 1 d . . .
H12 H 0.7901 -0.3711 0.2872 0.092 Uiso 1 1 calc R . .
C16 C 0.6281(5) -0.2862(3) 0.1709(4) 0.0478(12) Uani 1 1 d . . .
N21 N 0.5276(4) -0.2464(2) 0.1245(3) 0.0512(10) Uani 1 1 d . . .
H21 H 0.4432 -0.2522 0.1363 0.061 Uiso 1 1 calc R . .
C21 C 0.5502(5) -0.1935(3) 0.0546(4) 0.0528(12) Uani 1 1 d . . .
H21A H 0.6469 -0.1951 0.0425 0.063 Uiso 1 1 calc . . .
H21B H 0.5394 -0.1540 0.0930 0.063 Uiso 1 1 calc . . .

loop_
_atom_site_aniso_label
_atom_site_aniso_U_11
_atom_site_aniso_U_22
_atom_site_aniso_U_33
_atom_site_aniso_U_23
_atom_site_aniso_U_13
_atom_site_aniso_U_12
Cu1 0.0584(9) 0.0639(8) 0.0375(7) 0.000 0.0251(6) 0.000
Cl1 0.0501(12) 0.151(2) 0.0595(13) 0.000 0.0061(10) 0.000
Cl2 0.159(4) 0.210(5) 0.081(2) 0.000 0.017(2) 0.000
Cl3 0.284(5) 0.191(3) 0.188(3) 0.082(3) 0.118(4) 0.126(4)
O101 0.056(4) 0.191(9) 0.157(8) 0.000 0.049(5) 0.000
O102 0.140(6) 0.225(8) 0.109(5) 0.094(6) 0.000(4) -0.009(6)
O103 0.053(3) 0.090(4) 0.056(3) 0.000 0.008(3) 0.000
O16 0.047(2) 0.089(3) 0.096(3) 0.023(2) 0.031(2) 0.003(2)
N11 0.047(2) 0.068(3) 0.043(2) -0.0020(19) 0.0206(19) -0.001(2)
C11 0.052(3) 0.120(5) 0.072(4) 0.049(4) 0.022(3) 0.022(3)
C13 0.044(3) 0.065(3) 0.039(2) 0.003(2) 0.015(2) -0.001(2)
C14 0.037(3) 0.076(4) 0.078(4) 0.023(3) 0.022(3) 0.005(3)
C15 0.040(3) 0.077(4) 0.086(4) 0.015(3) 0.028(3) 0.004(3)
C12 0.037(3) 0.137(6) 0.060(3) 0.039(4) 0.021(3) 0.014(3)
C16 0.035(2) 0.070(3) 0.045(3) 0.000(2) 0.022(2) -0.003(2)
N21 0.039(2) 0.070(3) 0.050(2) 0.009(2) 0.0212(19) 0.001(2)
C21 0.051(3) 0.064(3) 0.048(3) -0.002(2) 0.020(2) -0.004(3)

_geom_special_details            
;
All esds (except the esd in the dihedral angle between two l.s. planes)
are estimated using the full covariance matrix. The cell esds are taken
into account individually in the estimation of esds in distances, angles
and torsion angles; correlations between esds in cell parameters are only
used when they are defined by crystal symmetry. An approximate (isotropic)
treatment of cell esds is used for estimating esds involving l.s. planes.
;

loop_
_geom_bond_atom_site_label_1
_geom_bond_atom_site_label_2
_geom_bond_distance
_geom_bond_site_symmetry_2
_geom_bond_publ_flag
Cu1 N11 2.021(4) 6_545 ?
Cu1 N11 2.021(4) . ?
Cu1 N11 2.021(4) 2_656 ?
Cu1 N11 2.021(4) 5_646 ?
Cl1 O101 1.379(8) . ?
Cl1 O103 1.406(6) . ?
Cl1 O102 1.439(7) 6_545 ?
Cl1 O102 1.439(7) . ?
C1 Cl2 1.707(14) . ?
C1 Cl3 1.751(8) 6_545 ?
C1 Cl3 1.751(8) . ?
O16 C16 1.240(6) . ?
N11 C15 1.335(7) . ?
N11 C11 1.340(7) . ?
C11 C12 1.376(8) . ?
C13 C12 1.347(8) . ?
C13 C14 1.397(7) . ?
C13 C16 1.509(7) . ?
C14 C15 1.360(8) . ?
C16 N21 1.315(7) . ?
N21 C21 1.448(7) . ?
C21 C21 1.483(11) 2_655 ?

loop_
_geom_angle_atom_site_label_1
_geom_angle_atom_site_label_2
_geom_angle_atom_site_label_3
_geom_angle
_geom_angle_site_symmetry_1
_geom_angle_site_symmetry_3
_geom_angle_publ_flag
N11 Cu1 N11 90.6(2) 6_545 . ?
N11 Cu1 N11 180.0(3) 6_545 2_656 ?
N11 Cu1 N11 89.4(2) . 2_656 ?
N11 Cu1 N11 89.4(2) 6_545 5_646 ?
N11 Cu1 N11 180.00(18) . 5_646 ?
N11 Cu1 N11 90.6(2) 2_656 5_646 ?
O101 Cl1 O103 114.7(5) . . ?
O101 Cl1 O102 111.7(4) . 6_545 ?
O103 Cl1 O102 106.5(4) . 6_545 ?
O101 Cl1 O102 111.7(4) . . ?
O103 Cl1 O102 106.5(3) . . ?
O102 Cl1 O102 105.1(7) 6_545 . ?
Cl2 C1 Cl3 107.7(5) . 6_545 ?
Cl2 C1 Cl3 107.7(5) . . ?
Cl3 C1 Cl3 113.0(8) 6_545 . ?
C15 N11 C11 115.4(5) . . ?
C15 N11 Cu1 120.7(3) . . ?
C11 N11 Cu1 123.9(4) . . ?
N11 C11 C12 123.2(5) . . ?
C12 C13 C14 116.7(5) . . ?
C12 C13 C16 119.3(4) . . ?
C14 C13 C16 123.9(5) . . ?
C15 C14 C13 119.2(5) . . ?
N11 C15 C14 124.5(5) . . ?
C13 C12 C11 120.9(5) . . ?
O16 C16 N21 123.4(5) . . ?
O16 C16 C13 117.3(5) . . ?
N21 C16 C13 119.3(4) . . ?
C16 N21 C21 124.1(4) . . ?
N21 C21 C21 112.8(4) . 2_655 ?

_diffrn_measured_fraction_theta_max 0.977
_diffrn_reflns_theta_full        24.97
_diffrn_measured_fraction_theta_full 0.977
_refine_diff_density_max         0.662
_refine_diff_density_min         -0.652
_refine_diff_density_rms         0.100
