####################################################################### 
# 
# This file contains crystal structure data downloaded from the 
# Cambridge Structural Database (CSD) hosted by the Cambridge 
# Crystallographic Data Centre (CCDC).
# 
# Full information about CCDC data access policies and citation 
# guidelines are available at http://www.ccdc.cam.ac.uk/access/V1 
# 
# Audit and citation data items may have been added by the CCDC. 
# Please retain this information to preserve the provenance of 
# this file and to allow appropriate attribution of the data. 
# 
#######################################################################

data_5
_audit_block_doi                 10.5517/ccp5083
_database_code_depnum_ccdc_archive 'CCDC 630424'
loop_
_citation_id
_citation_doi
_citation_year
1 10.1021/cg070100h 2007
_audit_update_record             
;
2006-12-08 deposited with the CCDC.	2024-07-09 downloaded from the CCDC.
;

_audit_creation_method           SHELXL-97
_chemical_name_systematic        
;
?
;
_chemical_name_common            ?
_chemical_melting_point          ?
_chemical_formula_moiety         ?
_chemical_formula_sum            'C28 H32 Cu F12 N8 O6 P2'
_chemical_formula_weight         930.10

loop_
_atom_type_symbol
_atom_type_description
_atom_type_scat_dispersion_real
_atom_type_scat_dispersion_imag
_atom_type_scat_source
C C 0.0033 0.0016 'International Tables Vol C Tables 4.2.6.8 and 6.1.1.4'
H H 0.0000 0.0000 'International Tables Vol C Tables 4.2.6.8 and 6.1.1.4'
N N 0.0061 0.0033 'International Tables Vol C Tables 4.2.6.8 and 6.1.1.4'
O O 0.0106 0.0060 'International Tables Vol C Tables 4.2.6.8 and 6.1.1.4'
F F 0.0171 0.0103 'International Tables Vol C Tables 4.2.6.8 and 6.1.1.4'
P P 0.1023 0.0942 'International Tables Vol C Tables 4.2.6.8 and 6.1.1.4'
Cu Cu 0.3201 1.2651 'International Tables Vol C Tables 4.2.6.8 and 6.1.1.4'

_symmetry_cell_setting           Triclinic
_symmetry_space_group_name_H-M   P-1

loop_
_symmetry_equiv_pos_as_xyz
'x, y, z'
'-x, -y, -z'

_cell_length_a                   11.787(2)
_cell_length_b                   15.941(3)
_cell_length_c                   16.312(3)
_cell_angle_alpha                65.77(3)
_cell_angle_beta                 75.63(3)
_cell_angle_gamma                86.96(3)
_cell_volume                     2703.4(9)
_cell_formula_units_Z            2
_cell_measurement_temperature    293(2)
_cell_measurement_reflns_used    25
_cell_measurement_theta_min      9
_cell_measurement_theta_max      13

_exptl_crystal_description       'reactangular blocks'
_exptl_crystal_colour            Blue
_exptl_crystal_size_max          0.15
_exptl_crystal_size_mid          0.10
_exptl_crystal_size_min          0.10
_exptl_crystal_density_meas      'not meausred'
_exptl_crystal_density_diffrn    1.143
_exptl_crystal_density_method    'not measured'
_exptl_crystal_F_000             942
_exptl_absorpt_coefficient_mu    0.541
_exptl_absorpt_correction_type   none
_exptl_absorpt_correction_T_min  ?
_exptl_absorpt_correction_T_max  ?
_exptl_absorpt_process_details   ?

_exptl_special_details           
;
?
;

_diffrn_ambient_temperature      293(2)
_diffrn_radiation_wavelength     0.71073
_diffrn_radiation_type           MoK\a
_diffrn_radiation_source         'fine-focus sealed tube'
_diffrn_radiation_monochromator  graphite
_diffrn_measurement_device_type  CAD4
_diffrn_measurement_method       \w-scans
_diffrn_detector_area_resol_mean ?
_diffrn_standards_number         3
_diffrn_standards_interval_count ?
_diffrn_standards_interval_time  60
_diffrn_standards_decay_%        0
_diffrn_reflns_number            9944
_diffrn_reflns_av_R_equivalents  0.0252
_diffrn_reflns_av_sigmaI/netI    0.0920
_diffrn_reflns_limit_h_min       0
_diffrn_reflns_limit_h_max       13
_diffrn_reflns_limit_k_min       -18
_diffrn_reflns_limit_k_max       18
_diffrn_reflns_limit_l_min       -18
_diffrn_reflns_limit_l_max       19
_diffrn_reflns_theta_min         1.40
_diffrn_reflns_theta_max         24.97
_reflns_number_total             9437
_reflns_number_gt                4840
_reflns_threshold_expression     >2sigma(I)

_computing_data_collection       CAD4
_computing_cell_refinement       CAD4
_computing_data_reduction        CAD4
_computing_structure_solution    'SHELXS-97 (Sheldrick, 1990)'
_computing_structure_refinement  'SHELXL-97 (Sheldrick, 1997)'
_computing_molecular_graphics    ?
_computing_publication_material  ?

_refine_special_details          
;
Refinement of F^2^ against ALL reflections. The weighted R-factor wR and
goodness of fit S are based on F^2^, conventional R-factors R are based
on F, with F set to zero for negative F^2^. The threshold expression of
F^2^ > 2sigma(F^2^) is used only for calculating R-factors(gt) etc. and is
not relevant to the choice of reflections for refinement. R-factors based
on F^2^ are statistically about twice as large as those based on F, and R-
factors based on ALL data will be even larger.
;

_refine_ls_structure_factor_coef Fsqd
_refine_ls_matrix_type           full
_refine_ls_weighting_scheme      calc
_refine_ls_weighting_details     
'calc w=1/[\s^2^(Fo^2^)+(0.1168P)^2^+0.6837P] where P=(Fo^2^+2Fc^2^)/3'
_atom_sites_solution_primary     direct
_atom_sites_solution_secondary   difmap
_atom_sites_solution_hydrogens   geom
_refine_ls_hydrogen_treatment    mixed
_refine_ls_extinction_method     none
_refine_ls_extinction_coef       ?
_refine_ls_number_reflns         9437
_refine_ls_number_parameters     451
_refine_ls_number_restraints     0
_refine_ls_R_factor_all          0.1205
_refine_ls_R_factor_gt           0.0790
_refine_ls_wR_factor_ref         0.2619
_refine_ls_wR_factor_gt          0.2056
_refine_ls_goodness_of_fit_ref   1.116
_refine_ls_restrained_S_all      1.116
_refine_ls_shift/su_max          0.000
_refine_ls_shift/su_mean         0.000

loop_
_atom_site_label
_atom_site_type_symbol
_atom_site_fract_x
_atom_site_fract_y
_atom_site_fract_z
_atom_site_U_iso_or_equiv
_atom_site_adp_type
_atom_site_occupancy
_atom_site_symmetry_multiplicity
_atom_site_calc_flag
_atom_site_refinement_flags
_atom_site_disorder_assembly
_atom_site_disorder_group
Cu1 Cu 0.35556(6) -0.32781(4) 0.21366(4) 0.0525(3) Uani 1 1 d . . .
P1 P -0.14855(19) -0.45322(18) 0.31723(16) 0.0922(7) Uani 1 1 d . . .
O1W O 0.4959(4) -0.2560(3) 0.2456(3) 0.0636(11) Uani 1 1 d . . .
O2W O 0.2038(4) -0.4087(3) 0.1789(3) 0.0628(11) Uani 1 1 d . . .
N11A N 0.3271(4) -0.2097(3) 0.1104(3) 0.0467(11) Uani 1 1 d . . .
C11A C 0.3059(7) -0.2100(5) 0.0331(4) 0.0745(19) Uani 1 1 d . . .
H11A H 0.2963 -0.2662 0.0301 0.089 Uiso 1 1 calc R . .
C12A C 0.2980(7) -0.1289(4) -0.0425(4) 0.075(2) Uani 1 1 d . . .
H12A H 0.2808 -0.1308 -0.0944 0.090 Uiso 1 1 calc R . .
C13A C 0.3164(5) -0.0435(4) -0.0392(3) 0.0562(15) Uani 1 1 d . . .
C14A C 0.3378(6) -0.0448(4) 0.0405(4) 0.0625(16) Uani 1 1 d . . .
H14A H 0.3494 0.0101 0.0453 0.075 Uiso 1 1 calc R . .
C15A C 0.3418(5) -0.1276(4) 0.1125(4) 0.0577(15) Uani 1 1 d . . .
H15A H 0.3554 -0.1270 0.1660 0.069 Uiso 1 1 calc R . .
C16A C 0.3114(6) 0.0483(4) -0.1177(5) 0.0715(19) Uani 1 1 d . . .
O16A O 0.3563(5) 0.1158(3) -0.1194(4) 0.0976(18) Uani 1 1 d . . .
N21A N 0.3721(4) 0.5482(3) -0.6856(3) 0.0510(12) Uani 1 1 d . . .
C21A C 0.2775(5) 0.4901(4) -0.6307(4) 0.0595(15) Uani 1 1 d . . .
H21A H 0.2048 0.5062 -0.6433 0.071 Uiso 1 1 calc R . .
C22A C 0.2838(6) 0.4097(4) -0.5581(4) 0.0650(17) Uani 1 1 d . . .
H22A H 0.2169 0.3714 -0.5225 0.078 Uiso 1 1 calc R . .
C23A C 0.3938(5) 0.3848(4) -0.5372(4) 0.0571(15) Uani 1 1 d . . .
C24A C 0.4879(6) 0.4438(4) -0.5902(4) 0.0600(15) Uani 1 1 d . . .
H24A H 0.5603 0.4305 -0.5761 0.072 Uiso 1 1 calc R . .
C25A C 0.4779(5) 0.5235(4) -0.6649(4) 0.0616(16) Uani 1 1 d . . .
H25A H 0.5446 0.5614 -0.7022 0.074 Uiso 1 1 calc R . .
C26A C 0.4051(6) 0.2989(4) -0.4558(4) 0.0590(15) Uani 1 1 d . . .
O26A O 0.4880(4) 0.2967(3) -0.4210(3) 0.0855(15) Uani 1 1 d . . .
N31A N 0.2612(6) 0.0486(4) -0.1825(4) 0.094(2) Uani 1 1 d . . .
H31A H 0.2346 -0.0027 -0.1780 0.112 Uiso 1 1 calc R . .
N32A N 0.3308(5) 0.2269(3) -0.4271(3) 0.0781(17) Uani 1 1 d . . .
H32A H 0.2764 0.2319 -0.4553 0.094 Uiso 1 1 calc R . .
C31A C 0.2501(7) 0.1340(6) -0.2613(5) 0.105(3) Uani 1 1 d . . .
H31B H 0.2639 0.1865 -0.2487 0.126 Uiso 1 1 calc . . .
H31C H 0.1711 0.1357 -0.2693 0.126 Uiso 1 1 calc . . .
C32A C 0.3378(8) 0.1402(5) -0.3500(6) 0.100(3) Uani 1 1 d . . .
H32B H 0.4166 0.1353 -0.3409 0.120 Uiso 1 1 calc . . .
H32C H 0.3215 0.0894 -0.3643 0.120 Uiso 1 1 calc . . .
N11B N 0.4891(4) -0.3513(3) 0.1184(3) 0.0534(12) Uani 1 1 d . . .
C11B C 0.5651(6) -0.2848(4) 0.0577(4) 0.0675(18) Uani 1 1 d . . .
H11B H 0.5589 -0.2283 0.0619 0.081 Uiso 1 1 calc R . .
C12B C 0.6527(6) -0.2915(4) -0.0115(4) 0.0721(19) Uani 1 1 d . . .
H12B H 0.7062 -0.2422 -0.0508 0.086 Uiso 1 1 calc R . .
C13B C 0.6596(5) -0.3740(4) -0.0214(3) 0.0498(13) Uani 1 1 d . . .
C14B C 0.5831(6) -0.4439(4) 0.0407(4) 0.0655(17) Uani 1 1 d . . .
H14B H 0.5876 -0.5011 0.0378 0.079 Uiso 1 1 calc R . .
C15B C 0.4968(5) -0.4303(4) 0.1096(4) 0.0595(15) Uani 1 1 d . . .
H15B H 0.4429 -0.4786 0.1508 0.071 Uiso 1 1 calc R . .
C16B C 0.7466(6) -0.3889(5) -0.1001(4) 0.0669(17) Uani 1 1 d . . .
O16B O 0.7460(5) -0.4637(4) -0.1045(4) 0.115(2) Uani 1 1 d . . .
N21B N 1.2285(4) -0.3008(3) -0.6907(3) 0.0472(11) Uani 1 1 d . . .
C21B C 1.1244(5) -0.2738(4) -0.7041(4) 0.0603(16) Uani 1 1 d . . .
H21B H 1.1100 -0.2640 -0.7609 0.072 Uiso 1 1 calc R . .
C22B C 1.0367(6) -0.2595(4) -0.6398(4) 0.0645(16) Uani 1 1 d . . .
H22B H 0.9640 -0.2427 -0.6523 0.077 Uiso 1 1 calc R . .
C23B C 1.0563(5) -0.2701(4) -0.5552(4) 0.0570(15) Uani 1 1 d . . .
C24B C 1.1655(6) -0.2982(5) -0.5421(4) 0.0722(19) Uani 1 1 d . . .
H24B H 1.1833 -0.3073 -0.4866 0.087 Uiso 1 1 calc R . .
C25B C 1.2480(5) -0.3127(4) -0.6095(4) 0.0629(17) Uani 1 1 d . . .
H25B H 1.3208 -0.3317 -0.5985 0.075 Uiso 1 1 calc R . .
C26B C 0.9576(6) -0.2544(5) -0.4852(4) 0.0689(18) Uani 1 1 d . . .
O26B O 0.8758(4) -0.2096(4) -0.5066(3) 0.0803(14) Uani 1 1 d . . .
N31B N 0.8247(6) -0.3210(5) -0.1591(4) 0.105(2) Uani 1 1 d . . .
H31D H 0.8237 -0.2706 -0.1516 0.126 Uiso 1 1 calc R . .
N32B N 0.9640(6) -0.2963(6) -0.3979(4) 0.124(3) Uani 1 1 d . . .
H32D H 1.0231 -0.3291 -0.3863 0.149 Uiso 1 1 calc R . .
C31B C 0.9122(9) -0.3285(8) -0.2361(6) 0.120(3) Uani 1 1 d . . .
H31E H 0.9852 -0.2970 -0.2447 0.144 Uiso 1 1 calc . . .
H31F H 0.9268 -0.3928 -0.2216 0.144 Uiso 1 1 calc . . .
C32B C 0.8748(9) -0.2900(9) -0.3184(7) 0.140(4) Uani 1 1 d . . .
H32E H 0.8594 -0.2258 -0.3324 0.168 Uiso 1 1 calc . . .
H32F H 0.8021 -0.3219 -0.3099 0.168 Uiso 1 1 calc . . .
F101 F -0.1790(8) -0.3638(5) 0.3310(5) 0.190(3) Uani 1 1 d . . .
F102 F -0.1145(8) -0.5462(5) 0.3063(5) 0.187(3) Uani 1 1 d . . .
F103 F -0.0481(5) -0.4002(7) 0.2289(4) 0.201(4) Uani 1 1 d . . .
F104 F -0.2323(5) -0.4356(5) 0.2534(4) 0.156(2) Uani 1 1 d . . .
F105 F -0.2477(5) -0.5091(5) 0.4073(4) 0.145(2) Uani 1 1 d . . .
F106 F -0.0639(6) -0.4740(5) 0.3828(5) 0.167(3) Uani 1 1 d . . .

loop_
_atom_site_aniso_label
_atom_site_aniso_U_11
_atom_site_aniso_U_22
_atom_site_aniso_U_33
_atom_site_aniso_U_23
_atom_site_aniso_U_13
_atom_site_aniso_U_12
Cu1 0.0600(5) 0.0458(4) 0.0291(3) -0.0027(3) 0.0040(3) 0.0105(3)
P1 0.0650(12) 0.1165(18) 0.0840(14) -0.0391(13) -0.0025(10) 0.0028(12)
O1W 0.066(3) 0.068(3) 0.046(2) -0.0153(19) -0.0076(19) -0.004(2)
O2W 0.068(3) 0.068(3) 0.043(2) -0.0180(19) -0.0067(19) 0.007(2)
N11A 0.053(3) 0.047(2) 0.028(2) -0.0123(18) 0.0044(18) 0.005(2)
C11A 0.112(6) 0.065(4) 0.049(3) -0.020(3) -0.030(4) 0.004(4)
C12A 0.109(6) 0.050(3) 0.041(3) 0.008(3) -0.021(3) 0.000(3)
C13A 0.063(4) 0.047(3) 0.032(3) 0.006(2) -0.005(2) -0.006(3)
C14A 0.092(5) 0.041(3) 0.048(3) -0.012(3) -0.018(3) 0.006(3)
C15A 0.077(4) 0.051(3) 0.035(3) -0.007(2) -0.017(3) 0.016(3)
C16A 0.067(4) 0.048(4) 0.064(4) 0.012(3) -0.016(3) -0.002(3)
O16A 0.126(4) 0.043(3) 0.095(4) 0.010(2) -0.041(3) -0.014(3)
N21A 0.049(3) 0.048(2) 0.029(2) -0.0016(18) 0.0119(18) 0.006(2)
C21A 0.061(4) 0.053(3) 0.041(3) -0.004(2) 0.001(3) -0.001(3)
C22A 0.076(4) 0.040(3) 0.043(3) 0.012(2) 0.000(3) -0.012(3)
C23A 0.067(4) 0.042(3) 0.043(3) 0.002(2) -0.013(3) -0.003(3)
C24A 0.067(4) 0.057(3) 0.037(3) -0.003(3) -0.012(3) 0.009(3)
C25A 0.042(3) 0.059(3) 0.054(3) -0.005(3) 0.008(3) 0.004(3)
C26A 0.071(4) 0.055(3) 0.030(3) 0.003(2) -0.013(3) 0.001(3)
O26A 0.092(3) 0.078(3) 0.061(3) 0.012(2) -0.045(3) -0.004(3)
N31A 0.125(5) 0.050(3) 0.078(4) 0.020(3) -0.059(4) -0.001(3)
N32A 0.103(4) 0.044(3) 0.056(3) 0.020(2) -0.035(3) -0.003(3)
C31A 0.095(6) 0.102(6) 0.066(5) 0.030(4) -0.039(4) 0.003(5)
C32A 0.139(7) 0.049(4) 0.083(5) 0.022(4) -0.059(5) -0.011(4)
N11B 0.069(3) 0.042(2) 0.029(2) -0.0041(18) 0.005(2) -0.006(2)
C11B 0.083(5) 0.051(3) 0.050(3) -0.017(3) 0.008(3) 0.002(3)
C12B 0.079(4) 0.055(4) 0.061(4) -0.023(3) 0.021(3) -0.003(3)
C13B 0.053(3) 0.063(3) 0.031(3) -0.022(2) -0.002(2) 0.011(3)
C14B 0.077(4) 0.056(4) 0.049(3) -0.020(3) 0.004(3) 0.009(3)
C15B 0.055(3) 0.044(3) 0.057(3) -0.007(3) 0.003(3) -0.011(3)
C16B 0.072(4) 0.078(4) 0.045(3) -0.028(3) 0.000(3) 0.003(4)
O16B 0.122(5) 0.107(4) 0.114(4) -0.078(4) 0.037(4) -0.009(4)
N21B 0.054(3) 0.041(2) 0.029(2) -0.0026(17) -0.0028(19) 0.006(2)
C21B 0.063(4) 0.072(4) 0.031(3) -0.007(3) -0.012(3) 0.009(3)
C22B 0.066(4) 0.078(4) 0.046(3) -0.030(3) -0.004(3) 0.019(3)
C23B 0.058(4) 0.058(3) 0.038(3) -0.010(2) 0.000(2) 0.009(3)
C24B 0.067(4) 0.112(5) 0.026(3) -0.025(3) -0.001(3) 0.008(4)
C25B 0.048(3) 0.089(4) 0.044(3) -0.026(3) -0.004(3) 0.021(3)
C26B 0.059(4) 0.090(5) 0.046(3) -0.024(3) -0.003(3) 0.020(4)
O26B 0.063(3) 0.104(4) 0.067(3) -0.038(3) -0.004(2) 0.023(3)
N31B 0.126(6) 0.103(5) 0.074(4) -0.058(4) 0.035(4) -0.012(4)
N32B 0.116(6) 0.200(8) 0.042(3) -0.051(4) -0.007(3) 0.087(6)
C31B 0.124(8) 0.166(9) 0.060(5) -0.060(6) 0.021(5) 0.002(7)
C32B 0.118(8) 0.202(11) 0.086(6) -0.075(7) 0.015(6) 0.066(8)
F101 0.270(10) 0.146(6) 0.156(6) -0.075(5) -0.039(6) 0.030(6)
F102 0.266(9) 0.164(6) 0.159(6) -0.087(5) -0.075(6) 0.077(6)
F103 0.096(4) 0.313(10) 0.114(5) -0.024(6) 0.008(4) -0.025(5)
F104 0.084(4) 0.233(7) 0.141(5) -0.061(5) -0.042(4) 0.015(4)
F105 0.092(4) 0.205(6) 0.105(4) -0.056(4) 0.024(3) -0.024(4)
F106 0.124(5) 0.224(7) 0.148(5) -0.056(5) -0.060(4) -0.009(5)

_geom_special_details            
;
All esds (except the esd in the dihedral angle between two l.s. planes)
are estimated using the full covariance matrix. The cell esds are taken
into account individually in the estimation of esds in distances, angles
and torsion angles; correlations between esds in cell parameters are only
used when they are defined by crystal symmetry. An approximate (isotropic)
treatment of cell esds is used for estimating esds involving l.s. planes.
;

loop_
_geom_bond_atom_site_label_1
_geom_bond_atom_site_label_2
_geom_bond_distance
_geom_bond_site_symmetry_2
_geom_bond_publ_flag
Cu1 N21A 2.025(4) 1_546 ?
Cu1 N11A 2.026(4) . ?
Cu1 N21B 2.046(4) 1_456 ?
Cu1 N11B 2.058(4) . ?
Cu1 O1W 2.332(4) . ?
P1 F101 1.542(7) . ?
P1 F104 1.543(6) . ?
P1 F103 1.566(6) . ?
P1 F106 1.567(6) . ?
P1 F102 1.584(7) . ?
P1 F105 1.582(5) . ?
N11A C15A 1.345(7) . ?
N11A C11A 1.347(7) . ?
C11A C12A 1.391(8) . ?
C12A C13A 1.414(9) . ?
C13A C14A 1.376(8) . ?
C13A C16A 1.508(7) . ?
C14A C15A 1.368(7) . ?
C16A O16A 1.211(8) . ?
C16A N31A 1.331(9) . ?
N21A C21A 1.355(7) . ?
N21A C25A 1.367(7) . ?
N21A Cu1 2.025(4) 1_564 ?
C21A C22A 1.355(7) . ?
C22A C23A 1.417(9) . ?
C23A C24A 1.353(8) . ?
C23A C26A 1.495(7) . ?
C24A C25A 1.377(7) . ?
C26A O26A 1.238(7) . ?
C26A N32A 1.329(8) . ?
N31A C31A 1.466(7) . ?
N32A C32A 1.454(7) . ?
C31A C32A 1.525(13) . ?
N11B C11B 1.306(7) . ?
N11B C15B 1.320(7) . ?
C11B C12B 1.364(8) . ?
C12B C13B 1.384(8) . ?
C13B C14B 1.345(8) . ?
C13B C16B 1.526(7) . ?
C14B C15B 1.398(8) . ?
C16B O16B 1.224(8) . ?
C16B N31B 1.324(9) . ?
N21B C21B 1.318(7) . ?
N21B C25B 1.335(7) . ?
N21B Cu1 2.046(4) 1_654 ?
C21B C22B 1.362(8) . ?
C22B C23B 1.396(8) . ?
C23B C24B 1.379(8) . ?
C23B C26B 1.505(8) . ?
C24B C25B 1.365(7) . ?
C26B O26B 1.205(7) . ?
C26B N32B 1.322(8) . ?
N31B C31B 1.457(9) . ?
N32B C32B 1.488(8) . ?
C31B C32B 1.401(13) . ?

loop_
_geom_angle_atom_site_label_1
_geom_angle_atom_site_label_2
_geom_angle_atom_site_label_3
_geom_angle
_geom_angle_site_symmetry_1
_geom_angle_site_symmetry_3
_geom_angle_publ_flag
N21A Cu1 N11A 174.5(2) 1_546 . ?
N21A Cu1 N21B 89.02(16) 1_546 1_456 ?
N11A Cu1 N21B 90.95(16) . 1_456 ?
N21A Cu1 N11B 91.36(16) 1_546 . ?
N11A Cu1 N11B 88.93(16) . . ?
N21B Cu1 N11B 177.23(19) 1_456 . ?
N21A Cu1 O1W 92.38(18) 1_546 . ?
N11A Cu1 O1W 93.11(17) . . ?
N21B Cu1 O1W 89.44(17) 1_456 . ?
N11B Cu1 O1W 87.80(17) . . ?
F101 P1 F104 92.5(5) . . ?
F101 P1 F103 91.0(5) . . ?
F104 P1 F103 88.5(4) . . ?
F101 P1 F106 88.9(5) . . ?
F104 P1 F106 178.5(5) . . ?
F103 P1 F106 92.1(4) . . ?
F101 P1 F102 177.7(5) . . ?
F104 P1 F102 89.8(4) . . ?
F103 P1 F102 89.5(5) . . ?
F106 P1 F102 88.9(4) . . ?
F101 P1 F105 90.2(4) . . ?
F104 P1 F105 92.5(3) . . ?
F103 P1 F105 178.4(5) . . ?
F106 P1 F105 86.8(4) . . ?
F102 P1 F105 89.3(4) . . ?
C15A N11A C11A 117.8(5) . . ?
C15A N11A Cu1 120.7(4) . . ?
C11A N11A Cu1 121.1(4) . . ?
N11A C11A C12A 122.0(6) . . ?
C11A C12A C13A 119.0(6) . . ?
C14A C13A C12A 118.0(5) . . ?
C14A C13A C16A 118.7(6) . . ?
C12A C13A C16A 123.3(6) . . ?
C15A C14A C13A 119.3(6) . . ?
N11A C15A C14A 123.9(5) . . ?
O16A C16A N31A 124.4(6) . . ?
O16A C16A C13A 118.4(6) . . ?
N31A C16A C13A 117.1(6) . . ?
C21A N21A C25A 117.3(5) . . ?
C21A N21A Cu1 121.4(4) . 1_564 ?
C25A 