
#######################################################################
#
#                 Cambridge Crystallographic Data Centre
#                                CCDC
#
#######################################################################
#
# If this CIF has been generated from an entry in the Cambridge
# Structural Database, then it will include bibliographic, chemical,
# crystal, experimental, refinement or atomic coordinate data resulting
# from the CCDC's data processing and validation procedures.
#
#######################################################################

data_CSD_CIF_DILCIL
_audit_creation_date 2007-11-02
_audit_creation_method CSD-ConQuest-V1
_database_code_CSD DILCIL
_database_code_depnum_ccdc_archive 'CCDC 660162'
_chemical_formula_sum 'C12 H22 Cu1 O14 S2'
_chemical_formula_moiety
;
H12 Cu1 O6 2+,2(C6 H5 O4 S1 1-)
;
_journal_coeditor_code "IUCr BI2224"
_journal_coden_Cambridge 1370
_journal_volume 63
_journal_year 2007
_journal_page_first m2414
_journal_name_full 'Acta Crystallogr.,Sect.E:Struct.Rep.Online '
loop_
_publ_author_name
"Yin-Qiu Liu"
"Xi-Rui Zeng"
_chemical_name_systematic
;
Hexaaqua-copper(ii) bis(4-hydroxybenzenesulfonate)
;
_chemical_name_common
;
Teaching Subset: Fundamental Chemistry
;
_cell_volume   1008.507
_exptl_crystal_colour 'blue'
_exptl_crystal_density_diffrn 1.706
_exptl_crystal_description 'block'
_diffrn_ambient_temperature 293
#These two values have been output from a single CSD field.
_refine_ls_R_factor_gt 0.0273
_refine_ls_wR_factor_gt 0.0273
_symmetry_cell_setting monoclinic
_symmetry_space_group_name_H-M 'P 21/n'
_symmetry_Int_Tables_number 14
loop_
_symmetry_equiv_pos_site_id
_symmetry_equiv_pos_as_xyz
1 x,y,z
2 1/2-x,1/2+y,1/2-z
3 -x,-y,-z
4 -1/2+x,-1/2-y,-1/2+z
_cell_length_a 6.9299(13)
_cell_length_b 6.1868(12)
_cell_length_c 23.531(4)
_cell_angle_alpha 90
_cell_angle_beta 91.528(2)
_cell_angle_gamma 90
_cell_formula_units_Z 2
loop_
_atom_type_symbol
_atom_type_radius_bond
C 0.68
H 0.23
Cu 1.52
O 0.68
S 1.02
loop_
_atom_site_label
_atom_site_type_symbol
_atom_site_fract_x
_atom_site_fract_y
_atom_site_fract_z
Cu1 Cu 0.50000 1.00000 0.00000
O1 O 0.4870(2) 0.7127(2) 0.03289(6)
O2 O 0.6894(2) 1.1065(2) 0.08131(6)
O3 O 0.2623(2) 1.0915(2) 0.03679(7)
H1 H 0.7892(16) 1.032(3) 0.0829(13)
H2 H 0.234(3) 1.2081(16) 0.0517(9)
H3 H 0.395(2) 0.662(4) 0.0504(9)
H4 H 0.741(3) 1.2271(14) 0.0803(14)
H5 H 0.193(3) 1.012(2) 0.0558(10)
H6 H 0.575(2) 0.653(4) 0.0513(10)
S1 S 0.00308(6) 0.60798(7) 0.098056(18)
C1 C -0.0610(3) 0.6358(4) 0.26714(9)
H7 H -0.10900 0.73340 0.29330
C2 C 0.0787(3) 0.3434(3) 0.18887(8)
H8 H 0.12540 0.24550 0.16260
C3 C -0.0607(3) 0.6884(3) 0.21002(9)
H9 H -0.10750 0.82190 0.19780
C4 C 0.0092(3) 0.5428(3) 0.17107(8)
C5 C 0.0783(3) 0.2909(4) 0.24607(9)
H10 H 0.12380 0.15660 0.25820
C6 C 0.0103(3) 0.4375(4) 0.28548(9)
O4 O 0.1696(2) 0.5037(2) 0.07292(7)
O5 O -0.1792(2) 0.5252(2) 0.07440(7)
O6 O 0.0127(2) 0.8432(2) 0.09386(6)
O7 O 0.0198(3) 0.3770(3) 0.34066(6)
H11 H -0.02490 0.47310 0.36040
O1B O 0.5130(2) 1.2873(2) -0.03289(6)
O2B O 0.3106(2) 0.8935(2) -0.08131(6)
O3B O 0.7377(2) 0.9085(2) -0.03679(7)
H1B H 0.2108(16) 0.968(3) -0.0829(13)
H2B H 0.766(3) 0.7919(16) -0.0517(9)
H3B H 0.605(2) 1.338(4) -0.0504(9)
H4B H 0.259(3) 0.7729(14) -0.0803(14)
H5B H 0.807(3) 0.988(2) -0.0558(10)
H6B H 0.425(2) 1.347(4) -0.0513(10)
#END
