####################################################################### 
# 
# This file contains crystal structure data downloaded from the 
# Cambridge Structural Database (CSD) hosted by the Cambridge 
# Crystallographic Data Centre (CCDC).
# 
# Full information about CCDC data access policies and citation 
# guidelines are available at http://www.ccdc.cam.ac.uk/access/V1 
# 
# Audit and citation data items may have been added by the CCDC. 
# Please retain this information to preserve the provenance of 
# this file and to allow appropriate attribution of the data. 
# 
#######################################################################

data_2
_audit_block_doi                 10.5517/cc10nvxf
_database_code_depnum_ccdc_archive 'CCDC 943575'
loop_
_citation_id
_citation_doi
_citation_year
1 10.1021/cg400913f 2013
_audit_update_record             
;
2013-06-09 deposited with the CCDC.	2024-07-09 downloaded from the CCDC.
;

_audit_creation_method           SHELXL-97
_chemical_name_systematic        
; 
 ? 
;
_chemical_name_common            ?
_chemical_melting_point          ?
_chemical_formula_moiety         ?
_chemical_formula_sum            'C61 H71 In2 N7 O21'
_chemical_formula_weight         1467.89

loop_
_atom_type_symbol
_atom_type_description
_atom_type_scat_dispersion_real
_atom_type_scat_dispersion_imag
_atom_type_scat_source
C C 0.0033 0.0016 'International Tables Vol C Tables 4.2.6.8 and 6.1.1.4'
H H 0.0000 0.0000 'International Tables Vol C Tables 4.2.6.8 and 6.1.1.4'
In In -0.7276 1.3100 'International Tables Vol C Tables 4.2.6.8 and 6.1.1.4'
N N 0.0061 0.0033 'International Tables Vol C Tables 4.2.6.8 and 6.1.1.4'
O O 0.0106 0.0060 'International Tables Vol C Tables 4.2.6.8 and 6.1.1.4'

_symmetry_cell_setting           Monoclinic
_symmetry_space_group_name_H-M   'p 21'

loop_
_symmetry_equiv_pos_as_xyz
'x, y, z'
'-x, y+1/2, -z'

_cell_length_a                   9.9183(16)
_cell_length_b                   22.930(4)
_cell_length_c                   15.082(3)
_cell_angle_alpha                90.00
_cell_angle_beta                 103.957(3)
_cell_angle_gamma                90.00
_cell_volume                     3328.8(10)
_cell_formula_units_Z            2
_cell_measurement_temperature    296(2)
_cell_measurement_reflns_used    ?
_cell_measurement_theta_min      1.39
_cell_measurement_theta_max      24.74

_exptl_crystal_description       rodlike
_exptl_crystal_colour            colourless
_exptl_crystal_size_max          0.20
_exptl_crystal_size_mid          0.10
_exptl_crystal_size_min          0.10
_exptl_crystal_density_meas      ?
_exptl_crystal_density_diffrn    1.464
_exptl_crystal_density_method    'not measured'
_exptl_crystal_F_000             1504
_exptl_absorpt_coefficient_mu    0.771
_exptl_absorpt_correction_type   multi-scan
_exptl_absorpt_correction_T_min  0.8611
_exptl_absorpt_correction_T_max  0.9269
_exptl_absorpt_process_details   'SADABS (Sheldrick, 1996)'

_exptl_special_details           
; 
 ? 
;

_diffrn_ambient_temperature      296(2)
_diffrn_radiation_wavelength     0.71073
_diffrn_radiation_type           MoK\a
_diffrn_radiation_source         'fine-focus sealed tube'
_diffrn_radiation_monochromator  graphite
_diffrn_measurement_device_type  'Bruker APEX CCD area-detector'
_diffrn_measurement_method       '\w scans'
_diffrn_detector_area_resol_mean ?
_diffrn_standards_number         ?
_diffrn_standards_interval_count ?
_diffrn_standards_interval_time  ?
_diffrn_standards_decay_%        ?
_diffrn_reflns_number            16401
_diffrn_reflns_av_R_equivalents  0.0566
_diffrn_reflns_av_sigmaI/netI    0.1459
_diffrn_reflns_limit_h_min       -11
_diffrn_reflns_limit_h_max       11
_diffrn_reflns_limit_k_min       -26
_diffrn_reflns_limit_k_max       26
_diffrn_reflns_limit_l_min       -17
_diffrn_reflns_limit_l_max       9
_diffrn_reflns_theta_min         1.39
_diffrn_reflns_theta_max         24.74
_reflns_number_total             11222
_reflns_number_gt                6878
_reflns_threshold_expression     >2sigma(I)

_computing_data_collection       'SMART (Bruker, 1997)'
_computing_cell_refinement       'SMART (Bruker, 1997)'
_computing_data_reduction        'SAINT (Bruker, 1999)'
_computing_structure_solution    'SHELXS-97 (Sheldrick, 1990)'
_computing_structure_refinement  'SHELXL-97 (Sheldrick, 1997)'
_computing_molecular_graphics    'SHELXTL-PLUS (Sheldrick, 1990)'
_computing_publication_material  SHELXL-97

_refine_special_details          
; 
 Refinement of F^2^ against ALL reflections.  The weighted R-factor wR and 
 goodness of fit S are based on F^2^, conventional R-factors R are based 
 on F, with F set to zero for negative F^2^. The threshold expression of 
 F^2^ > 2sigma(F^2^) is used only for calculating R-factors(gt) etc. and is 
 not relevant to the choice of reflections for refinement.  R-factors based 
 on F^2^ are statistically about twice as large as those based on F, and R- 
 factors based on ALL data will be even larger. 
;

_refine_ls_structure_factor_coef Fsqd
_refine_ls_matrix_type           full
_refine_ls_weighting_scheme      calc
_refine_ls_weighting_details     
'calc w=1/[\s^2^(Fo^2^)+(0.1063P)^2^+0.0000P] where P=(Fo^2^+2Fc^2^)/3'
_atom_sites_solution_primary     direct
_atom_sites_solution_secondary   difmap
_atom_sites_solution_hydrogens   geom
_refine_ls_hydrogen_treatment    mixed
_refine_ls_extinction_method     none
_refine_ls_extinction_coef       ?
_refine_ls_abs_structure_details 'Flack H D (1983), Acta Cryst. A39, 876-881'
_refine_ls_abs_structure_Flack   0.32(5)
_refine_ls_number_reflns         11222
_refine_ls_number_parameters     736
_refine_ls_number_restraints     8
_refine_ls_R_factor_all          0.1360
_refine_ls_R_factor_gt           0.0722
_refine_ls_wR_factor_ref         0.2104
_refine_ls_wR_factor_gt          0.1734
_refine_ls_goodness_of_fit_ref   1.009
_refine_ls_restrained_S_all      1.009
_refine_ls_shift/su_max          0.045
_refine_ls_shift/su_mean         0.002

loop_
_atom_site_label
_atom_site_type_symbol
_atom_site_fract_x
_atom_site_fract_y
_atom_site_fract_z
_atom_site_U_iso_or_equiv
_atom_site_adp_type
_atom_site_occupancy
_atom_site_symmetry_multiplicity
_atom_site_calc_flag
_atom_site_refinement_flags
_atom_site_disorder_assembly
_atom_site_disorder_group
In1 In 0.54521(10) -0.07995(4) 0.63848(8) 0.0307(3) Uani 1 1 d . . .
In2 In 0.06404(9) 0.15088(4) 1.17455(8) 0.0318(3) Uani 1 1 d . . .
C23 C -0.0240(19) 0.1954(9) 0.8419(14) 0.054(6) Uani 1 1 d . . .
H23 H -0.0111 0.1553 0.8477 0.064 Uiso 1 1 calc R . .
C40 C 0.6530(15) -0.1208(7) 0.9702(11) 0.032(4) Uani 1 1 d . . .
H40 H 0.6510 -0.0803 0.9659 0.038 Uiso 1 1 calc R . .
O7 O 0.0312(12) 0.1489(8) 1.0166(8) 0.060(3) Uani 1 1 d . . .
O3 O -0.2216(9) -0.0874(5) 0.6378(7) 0.042(3) Uani 1 1 d . . .
O13 O 0.6013(11) -0.0699(6) 0.7962(8) 0.041(3) Uani 1 1 d . . .
O4 O -0.3131(9) -0.0024(4) 0.6405(7) 0.038(3) Uani 1 1 d . . .
O11 O 0.9152(10) 0.0826(5) 1.1651(8) 0.047(3) Uani 1 1 d . . .
O5 O 0.1132(12) 0.1406(6) 0.3333(8) 0.048(3) Uani 1 1 d . . .
O1 O 0.3080(9) -0.0888(6) 0.6513(8) 0.057(3) Uani 1 1 d . . .
O2 O 0.3963(10) -0.0067(5) 0.6253(8) 0.051(3) Uani 1 1 d . . .
O9 O 0.1975(10) 0.0718(4) 1.1722(8) 0.046(3) Uani 1 1 d . . .
O12 O 0.8111(11) 0.1650(6) 1.1831(10) 0.074(5) Uani 1 1 d . . .
O6 O 0.0993(10) 0.2247(5) 0.2717(8) 0.043(3) Uani 1 1 d . . .
C2 C 0.0432(11) -0.0342(7) 0.6384(9) 0.032(4) Uani 1 1 d U . .
H2 H 0.0413 -0.0744 0.6300 0.039 Uiso 1 1 calc R . .
O14 O 0.5903(12) -0.1570(5) 0.7342(7) 0.051(3) Uani 1 1 d . . .
C3 C 0.1597(15) -0.0004(8) 0.6437(11) 0.041(4) Uani 1 1 d . . .
C10 C 0.1854(14) 0.2160(7) 0.5988(11) 0.030(4) Uani 1 1 d . . .
C31 C 0.5550(13) 0.1059(7) 1.1764(9) 0.030(4) Uani 1 1 d . . .
H31 H 0.5557 0.1460 1.1862 0.036 Uiso 1 1 calc R . .
C39 C 0.6365(14) -0.1534(8) 0.8939(12) 0.037(4) Uani 1 1 d . . .
C26 C 0.4372(12) 0.0768(6) 1.1700(9) 0.023(3) Uani 1 1 d . . .
C9 C 0.1903(14) 0.1830(6) 0.6839(10) 0.034(4) Uani 1 1 d . . .
H9A H 0.2681 0.1561 0.6948 0.041 Uiso 1 1 calc R . .
H9B H 0.2050 0.2099 0.7349 0.041 Uiso 1 1 calc R . .
C7 C -0.0741(15) -0.0009(7) 0.6471(10) 0.035(4) Uani 1 1 d . . .
C1 C 0.2944(15) -0.0334(7) 0.6390(11) 0.037(4) Uani 1 1 d . . .
C34 C 0.6734(18) -0.1479(7) 1.0576(11) 0.039(4) Uani 1 1 d . . .
C41 C 0.6118(16) -0.1257(9) 0.8068(13) 0.044(5) Uani 1 1 d . . .
C18 C -0.0462(14) 0.2225(9) 0.7589(14) 0.046(5) Uani 1 1 d . . .
O8 O 0.0039(11) 0.2299(6) 1.0824(8) 0.050(3) Uani 1 1 d . . .
C30 C 0.6782(13) 0.0786(7) 1.1690(10) 0.030(4) Uani 1 1 d . . .
C11 C 0.2165(17) 0.2732(7) 0.5980(12) 0.041(4) Uani 1 1 d . . .
H11 H 0.2486 0.2911 0.6544 0.050 Uiso 1 1 calc R . .
C22 C -0.0215(17) 0.2313(7) 0.9182(12) 0.041(4) Uani 1 1 d . . .
C29 C 0.6768(15) 0.0177(7) 1.1529(11) 0.036(4) Uani 1 1 d . . .
H29 H 0.7554 -0.0003 1.1419 0.043 Uiso 1 1 calc R . .
C33 C 0.6766(15) -0.1084(7) 1.1392(10) 0.037(4) Uani 1 1 d . . .
H33A H 0.6942 -0.1323 1.1939 0.045 Uiso 1 1 calc R . .
H33B H 0.7541 -0.0816 1.1454 0.045 Uiso 1 1 calc R . .
C14 C 0.1516(17) 0.2228(7) 0.4313(12) 0.041(4) Uani 1 1 d . . .
C37 C 0.6493(16) -0.2131(7) 0.9015(13) 0.042(4) Uani 1 1 d . . .
H37 H 0.6391 -0.2348 0.8482 0.051 Uiso 1 1 calc R . .
C15 C 0.1532(15) 0.1903(7) 0.5139(12) 0.038(4) Uani 1 1 d . . .
H15 H 0.1318 0.1507 0.5094 0.046 Uiso 1 1 calc R . .
C24 C 0.0059(19) 0.1981(10) 1.0156(13) 0.042(5) Uani 1 1 d . . .
C32 C 0.8085(16) 0.1120(8) 1.1742(11) 0.039(4) Uani 1 1 d . . .
C8 C -0.2110(14) -0.0318(7) 0.6433(10) 0.031(4) Uani 1 1 d . . .
C35 C 0.6768(17) -0.2096(7) 1.0628(12) 0.042(4) Uani 1 1 d . . .
H35 H 0.6785 -0.2277 1.1183 0.050 Uiso 1 1 calc R . .
C13 C 0.1894(19) 0.2817(8) 0.4414(14) 0.065(6) Uani 1 1 d . . .
H13 H 0.2029 0.3031 0.3919 0.079 Uiso 1 1 calc R . .
C6 C 0.0582(11) 0.0891(7) 0.6639(9) 0.023(3) Uani 1 1 d . . .
N1 N 0.0632(10) 0.1506(11) 0.6790(7) 0.033(2) Uani 1 1 d . . .
C5 C -0.0684(16) 0.0561(8) 0.6558(10) 0.039(4) Uani 1 1 d . . .
H5 H -0.1495 0.0762 0.6569 0.047 Uiso 1 1 calc R . .
C28 C 0.5560(13) -0.0169(7) 1.1532(10) 0.032(4) Uani 1 1 d . . .
C36 C 0.6775(19) -0.2435(9) 0.9865(13) 0.057(5) Uani 1 1 d . . .
H36 H 0.6951 -0.2834 0.9906 0.068 Uiso 1 1 calc R . .
C27 C 0.4358(13) 0.0141(6) 1.1609(10) 0.032(4) Uani 1 1 d . . .
H27 H 0.3545 -0.0063 1.1602 0.038 Uiso 1 1 calc R . .
C17 C -0.0652(18) 0.1859(7) 0.6697(12) 0.042(4) Uani 1 1 d . . .
H17A H -0.1456 0.1606 0.6621 0.050 Uiso 1 1 calc R . .
H17B H -0.0784 0.2113 0.6169 0.050 Uiso 1 1 calc R . .
C16 C 0.1206(14) 0.1935(7) 0.3418(11) 0.029(4) Uani 1 1 d . . .
C20 C -0.0434(15) 0.3136(7) 0.8320(13) 0.042(4) Uani 1 1 d . . .
H20 H -0.0387 0.3540 0.8291 0.051 Uiso 1 1 calc R . .
C19 C -0.0582(16) 0.2833(7) 0.7502(13) 0.043(4) Uani 1 1 d . . .
H19 H -0.0749 0.3020 0.6939 0.051 Uiso 1 1 calc R . .
C12 C 0.2058(19) 0.3067(7) 0.5239(15) 0.060(6) Uani 1 1 d . . .
H12 H 0.2097 0.3471 0.5295 0.072 Uiso 1 1 calc R . .
C21 C -0.0354(19) 0.2911(8) 0.9110(13) 0.050(5) Uani 1 1 d . . .
H21 H -0.0389 0.3141 0.9612 0.060 Uiso 1 1 calc RD . .
C4 C 0.1658(15) 0.0570(7) 0.6527(10) 0.032(4) Uani 1 1 d . . .
H4 H 0.2482 0.0758 0.6513 0.038 Uiso 1 1 calc R . .
N2 N 0.5533(10) -0.0750(9) 1.1353(8) 0.036(3) Uani 1 1 d . . .
C44 C 0.4137(18) -0.2049(8) 1.2103(14) 0.055(5) Uani 1 1 d . . .
H44 H 0.4078 -0.2235 1.1547 0.066 Uiso 1 1 calc R . .
C43 C 0.4306(17) -0.1457(7) 1.2159(12) 0.035(4) Uani 1 1 d . . .
C48 C 0.4407(15) -0.1195(8) 1.2985(12) 0.036(4) Uani 1 1 d . . .
H48 H 0.4416 -0.0789 1.3002 0.044 Uiso 1 1 calc R . .
C47 C 0.4492(15) -0.1471(9) 1.3754(13) 0.040(5) Uani 1 1 d . . .
C45 C 0.405(2) -0.2375(9) 1.2855(13) 0.053(5) Uani 1 1 d . . .
H45 H 0.3835 -0.2770 1.2798 0.064 Uiso 1 1 calc R . .
C46 C 0.4306(18) -0.2089(7) 1.3734(13) 0.048(5) Uani 1 1 d . . .
H46 H 0.4347 -0.2300 1.4267 0.057 Uiso 1 1 calc R . .
C42 C 0.4351(14) -0.1133(7) 1.1300(10) 0.035(4) Uani 1 1 d . . .
H42A H 0.4339 -0.1417 1.0821 0.042 Uiso 1 1 calc R . .
H42B H 0.3511 -0.0902 1.1116 0.042 Uiso 1 1 calc R . .
O16 O 0.5042(14) -0.0655(6) 0.4783(9) 0.054(4) Uani 1 1 d . . .
O15 O 0.4909(15) -0.1511(6) 0.5408(9) 0.064(4) Uani 1 1 d . . .
C53 C 0.647(2) 0.1444(9) 0.9298(13) 0.086(6) Uani 1 1 d . . .
H53A H 0.7108 0.1417 0.9887 0.130 Uiso 1 1 calc R . .
H53B H 0.5536 0.1457 0.9372 0.130 Uiso 1 1 calc R . .
H53C H 0.6657 0.1792 0.8995 0.130 Uiso 1 1 calc R . .
N4 N 0.6637(15) 0.0926(6) 0.8739(12) 0.064(4) Uani 1 1 d . . .
O18 O 0.4957(13) 0.1242(6) 0.7560(10) 0.092(5) Uani 1 1 d . . .
C54 C 0.5880(18) 0.0872(8) 0.7896(13) 0.058(5) Uani 1 1 d . . .
H54 H 0.6027 0.0556 0.7544 0.069 Uiso 1 1 calc R . .
C52 C 0.764(2) 0.0485(9) 0.9207(16) 0.095(7) Uani 1 1 d . . .
H52A H 0.8075 0.0619 0.9811 0.142 Uiso 1 1 calc R . .
H52B H 0.8332 0.0424 0.8869 0.142 Uiso 1 1 calc R . .
H52C H 0.7161 0.0126 0.9246 0.142 Uiso 1 1 calc R . .
N6 N 0.5228(19) 0.0711(8) 0.4900(11) 0.086(5) Uani 1 1 d . . .
H6A H 0.6093 0.0659 0.4823 0.103 Uiso 1 1 calc R . .
H6B H 0.5051 0.0410 0.5240 0.103 Uiso 1 1 calc R . .
C59 C 0.522(3) 0.1235(10) 0.5411(14) 0.109(9) Uani 1 1 d . . .
H59A H 0.5958 0.1222 0.5956 0.163 Uiso 1 1 calc R . .
H59B H 0.4346 0.1271 0.5574 0.163 Uiso 1 1 calc R . .
H59C H 0.5351 0.1564 0.5047 0.163 Uiso 1 1 calc R . .
C58 C 0.433(3) 0.0679(11) 0.4067(19) 0.129(11) Uani 1 1 d . . .
H58A H 0.4404 0.0304 0.3801 0.194 Uiso 1 1 calc R . .
H58B H 0.4539 0.0978 0.3678 0.194 Uiso 1 1 calc R . .
H58C H 0.3395 0.0731 0.4133 0.194 Uiso 1 1 calc R . .
C38 C 0.4809(19) -0.1222(11) 0.4636(15) 0.055(6) Uani 1 1 d . . .
C60 C 0.841(2) 0.2981(10) 0.1947(16) 0.106(8) Uiso 1 1 d . . .
H60A H 0.7742 0.3117 0.2265 0.159 Uiso 1 1 calc R . .
H60B H 0.8911 0.2656 0.2270 0.159 Uiso 1 1 calc R . .
H60C H 0.7942 0.2861 0.1341 0.159 Uiso 1 1 calc R . .
N7 N 0.950(3) 0.3505(12) 0.1888(18) 0.174(10) Uiso 1 1 d . . .
H7A H 0.9801 0.3680 0.2435 0.209 Uiso 1 1 calc R . .
H7B H 0.9096 0.3775 0.1475 0.209 Uiso 1 1 calc R . .
C61 C 1.083(6) 0.317(4) 0.156(2) 0.48(5) Uiso 1 1 d . . .
H61A H 1.1494 0.3455 0.1481 0.717 Uiso 1 1 calc R . .
H61B H 1.0473 0.2967 0.0997 0.717 Uiso 1 1 calc R . .
H61C H 1.1265 0.2896 0.2024 0.717 Uiso 1 1 calc R . .
N3 N 0.2561(17) 0.0282(8) 0.9253(12) 0.077(5) Uiso 1 1 d . . .
O10 O 0.2973(9) 0.1580(6) 1.1830(6) 0.038(2) Uiso 1 1 d . . .
O17 O 0.1302(16) -0.0458(7) 0.9802(11) 0.110(5) Uiso 1 1 d . . .
N5 N 0.894(2) 0.0043(9) 0.3874(13) 0.094(6) Uiso 1 1 d . . .
C49 C 0.288(2) 0.0879(10) 0.9182(16) 0.095(7) Uiso 1 1 d . . .
H49A H 0.3652 0.0915 0.8901 0.142 Uiso 1 1 calc R . .
H49B H 0.3127 0.1050 0.9780 0.142 Uiso 1 1 calc R . .
H49C H 0.2090 0.1078 0.8815 0.142 Uiso 1 1 calc R . .
O19 O 0.763(3) 0.0786(11) 0.4264(17) 0.175(10) Uiso 1 1 d . . .
C25 C 0.3028(14) 0.1020(6) 1.1749(10) 0.031(3) Uiso 1 1 d . . .
C51 C 0.363(2) -0.0139(9) 0.9043(14) 0.081(6) Uiso 1 1 d . . .
H51A H 0.3362 -0.0532 0.9140 0.121 Uiso 1 1 calc R . .
H51B H 0.4522 -0.0058 0.9437 0.121 Uiso 1 1 calc R . .
H51C H 0.3670 -0.0092 0.8417 0.121 Uiso 1 1 calc R . .
C50 C 0.150(2) 0.0066(11) 0.9662(15) 0.093(7) Uiso 1 1 d . . .
H50 H 0.0912 0.0337 0.9836 0.112 Uiso 1 1 calc R . .
C56 C 0.865(3) 0.0512(14) 0.4000(19) 0.119(9) Uiso 1 1 d . . .
H56 H 0.9301 0.0775 0.3887 0.142 Uiso 1 1 calc R . .
C55 C 0.794(3) -0.0360(14) 0.398(2) 0.167(14) Uiso 1 1 d . . .
H55A H 0.8249 -0.0747 0.3887 0.251 Uiso 1 1 calc R . .
H55B H 0.7083 -0.0282 0.3538 0.251 Uiso 1 1 calc R . .
H55C H 0.7793 -0.0329 0.4584 0.251 Uiso 1 1 calc R . .
C57 C 1.032(3) -0.0090(14) 0.365(2) 0.161(12) Uiso 1 1 d . . .
H57A H 1.0414 -0.0504 0.3587 0.241 Uiso 1 1 calc R . .
H57B H 1.1067 0.0053 0.4126 0.241 Uiso 1 1 calc R . .
H57C H 1.0351 0.0096 0.3082 0.241 Uiso 1 1 calc R . .
O20 O 0.0187(16) 0.4615(7) 0.8848(11) 0.110(5) Uiso 1 1 d . . .
O21 O 0.4694(15) 0.2206(7) 0.3416(10) 0.092(4) Uiso 1 1 d . . .

loop_
_atom_site_aniso_label
_atom_site_aniso_U_11
_atom_site_aniso_U_22
_atom_site_aniso_U_33
_atom_site_aniso_U_23
_atom_site_aniso_U_13
_atom_site_aniso_U_12
In1 0.0256(5) 0.0296(6) 0.0389(7) 0.0007(7) 0.0120(4) -0.0005(5)
In2 0.0266(5) 0.0300(6) 0.0414(7) -0.0017(6) 0.0133(4) 0.0009(5)
C23 0.075(14) 0.055(13) 0.041(13) 0.017(11) 0.032(11) 0.016(10)
C40 0.043(9) 0.020(9) 0.034(11) -0.007(7) 0.012(7) -0.002(7)
O7 0.093(9) 0.043(8) 0.037(8) 0.015(8) 0.006(6) -0.004(9)
O3 0.033(5) 0.031(6) 0.065(7) -0.004(6) 0.021(5) 0.005(5)
O13 0.057(7) 0.036(9) 0.033(7) 0.000(6) 0.017(5) 0.008(6)
O4 0.019(5) 0.035(6) 0.065(8) -0.009(5) 0.020(5) -0.007(4)
O11 0.024(6) 0.057(8) 0.061(8) -0.006(6) 0.010(5) 0.001(5)
O5 0.060(7) 0.043(10) 0.045(8) -0.002(7) 0.017(6) 0.005(7)
O1 0.018(5) 0.048(9) 0.107(10) -0.018(7) 0.022(5) 0.003(5)
O2 0.018(5) 0.068(8) 0.073(9) 0.013(6) 0.022(5) 0.004(5)
O9 0.033(6) 0.025(6) 0.077(9) -0.002(5) 0.005(6) -0.012(5)
O12 0.031(6) 0.060(11) 0.128(13) 0.003(8) 0.010(7) -0.019(6)
O6 0.039(6) 0.053(8) 0.032(8) -0.002(6) 0.002(5) 0.018(5)
C2 0.014(6) 0.038(7) 0.046(8) 0.001(6) 0.010(5) 0.002(5)
O14 0.084(9) 0.049(8) 0.024(7) 0.006(6) 0.021(6) 0.023(6)
C3 0.025(8) 0.056(12) 0.039(11) -0.009(8) 0.000(7) 0.003(7)
C10 0.023(8) 0.027(9) 0.035(11) -0.014(8) -0.003(7) 0.001(6)
C31 0.032(8) 0.024(8) 0.037(10) -0.008(6) 0.012(7) 0.004(6)
C39 0.023(8) 0.044(12) 0.046(13) 0.009(9) 0.012(7) 0.002(7)
C26 0.012(6) 0.026(8) 0.032(9) -0.003(6) 0.010(6) 0.003(5)
C9 0.032(8) 0.028(9) 0.041(11) -0.017(7) 0.004(7) 0.004(6)
C7 0.039(9) 0.033(10) 0.027(10) -0.006(7) -0.004(7) -0.001(7)
C1 0.036(9) 0.032(9) 0.038(11) -0.008(7) -0.002(7) 0.003(7)
C34 0.070(12) 0.025(10) 0.029(11) -0.004(7) 0.024(8) 0.016(8)
C41 0.029(9) 0.061(14) 0.039(14) 0.0