####################################################################### 
# 
# This file contains crystal structure data downloaded from the 
# Cambridge Structural Database (CSD) hosted by the Cambridge 
# Crystallographic Data Centre (CCDC).
# 
# Full information about CCDC data access policies and citation 
# guidelines are available at http://www.ccdc.cam.ac.uk/access/V1 
# 
# Audit and citation data items may have been added by the CCDC. 
# Please retain this information to preserve the provenance of 
# this file and to allow appropriate attribution of the data. 
# 
#######################################################################

data_13sd009
_audit_block_doi                 10.5517/cc10s712
_database_code_depnum_ccdc_archive 'CCDC 946803'
loop_
_citation_id
_citation_doi
_citation_year
1 10.1021/cg400972k 2013
_audit_update_record             
;
2013-06-24 deposited with the CCDC.	2024-07-09 downloaded from the CCDC.
;

_audit_creation_date             2013-05-31T11:27:18-00:00
_audit_creation_method           'WinGX routine CIF_UPDATE'

#----------------------------------------------------------------------------#
#                   CHEMICAL INFORMATION                                     #
#----------------------------------------------------------------------------#

_chemical_name_systematic        
;
 ?
;
_chemical_formula_sum            'C40 H54 Mn4 N2 O22'
_chemical_formula_moiety         'C40 H54 Mn4 N2 O22'
_chemical_formula_weight         1134.61
_chemical_absolute_configuration ad

#----------------------------------------------------------------------------#
#                   UNIT CELL INFORMATION                                    #
#----------------------------------------------------------------------------#

_symmetry_cell_setting           TRIGONAL
_symmetry_space_group_name_H-M   'R 3 c'
_symmetry_space_group_name_Hall  'R 3 -2"c'
loop_
_symmetry_equiv_pos_as_xyz
'x, y, z'
'-y, x-y, z'
'-x+y, -x, z'
'-x+y, y, z+1/2'
'x, x-y, z+1/2'
'-y, -x, z+1/2'
'x+2/3, y+1/3, z+1/3'
'-y+2/3, x-y+1/3, z+1/3'
'-x+y+2/3, -x+1/3, z+1/3'
'-x+y+2/3, y+1/3, z+5/6'
'x+2/3, x-y+1/3, z+5/6'
'-y+2/3, -x+1/3, z+5/6'
'x+1/3, y+2/3, z+2/3'
'-y+1/3, x-y+2/3, z+2/3'
'-x+y+1/3, -x+2/3, z+2/3'
'-x+y+1/3, y+2/3, z+7/6'
'x+1/3, x-y+2/3, z+7/6'
'-y+1/3, -x+2/3, z+7/6'

_cell_length_a                   46.2653(5)
_cell_length_b                   46.2653(5)
_cell_length_c                   15.95404(18)
_cell_angle_alpha                90
_cell_angle_beta                 90
_cell_angle_gamma                120
_cell_volume                     29574.1(6)
_cell_formula_units_Z            18
_cell_measurement_temperature    150(2)
_cell_measurement_reflns_used    18817
_cell_measurement_theta_min      2.218
_cell_measurement_theta_max      23.884

#----------------------------------------------------------------------------#
#                   CRYSTAL INFORMATION                                      #
#----------------------------------------------------------------------------#

_exptl_crystal_description       rod
_exptl_crystal_colour            brown
_exptl_crystal_size_max          0.3612
_exptl_crystal_size_mid          0.0649
_exptl_crystal_size_min          0.0558
_exptl_crystal_density_diffrn    1.147
_exptl_crystal_density_method    'not measured'
_exptl_crystal_F_000             10512
loop_
_exptl_crystal_face_index_h
_exptl_crystal_face_index_k
_exptl_crystal_face_index_l
_exptl_crystal_face_perp_dist
0 -1 0 0.0279
0 0 -1 0.1806
-1 0 0 0.0279
0 0 1 0.1806
1 0 0 0.0279
-1 1 0 0.0283
1 -1 0 0.0283
0 1 0 0.0279

_exptl_special_details           
;
 ?
;

#----------------------------------------------------------------------------#
#                   ABSORPTION CORRECTION                                    #
#----------------------------------------------------------------------------#

_exptl_absorpt_coefficient_mu    0.811
_exptl_absorpt_correction_type   multi-scan
_exptl_absorpt_process_details   
;
        CrysAlisPro, Agilent Technologies,
        Version 1.171.36.28 (release 01-02-2013 CrysAlis171 .NET)
        (compiled Feb  1 2013,16:14:44)
        Empirical absorption correction using spherical harmonics,
 implemented in SCALE3 ABSPACK scaling algorithm.
;
_exptl_absorpt_correction_T_min  0.72649
_exptl_absorpt_correction_T_max  1

#----------------------------------------------------------------------------#
#                   DATA COLLECTION                                          #
#----------------------------------------------------------------------------#

_diffrn_ambient_temperature      150(2)
_diffrn_radiation_wavelength     0.71073
_diffrn_radiation_type           MoK\a
_diffrn_radiation_source         'SuperNova (Mo) X-ray Source'
_diffrn_radiation_monochromator  mirror
_diffrn_detector_area_resol_mean 16.0965
_diffrn_orient_matrix_ub_11      -0.0003842
_diffrn_orient_matrix_ub_12      -0.0154469
_diffrn_orient_matrix_ub_13      -0.0043855
_diffrn_orient_matrix_ub_21      0.017623
_diffrn_orient_matrix_ub_22      0.0086233
_diffrn_orient_matrix_ub_23      -0.0042367
_diffrn_orient_matrix_ub_31      0.0016501
_diffrn_orient_matrix_ub_32      -0.0007033
_diffrn_orient_matrix_ub_33      0.0440318
_diffrn_measurement_device_type  'SuperNova, Single source at offset, Eos'
_diffrn_measurement_method       '\w scans'
_diffrn_reflns_av_R_equivalents  0.0458
_diffrn_reflns_av_unetI/netI     0.0382
_diffrn_reflns_number            66922
_diffrn_reflns_limit_h_min       -57
_diffrn_reflns_limit_h_max       56
_diffrn_reflns_limit_k_min       -57
_diffrn_reflns_limit_k_max       57
_diffrn_reflns_limit_l_min       -19
_diffrn_reflns_limit_l_max       19
_diffrn_reflns_theta_min         1.52
_diffrn_reflns_theta_max         26.37
_diffrn_reflns_theta_full        25
_diffrn_measured_fraction_theta_full 1
_diffrn_measured_fraction_theta_max 1
_reflns_number_total             13414
_reflns_number_gt                11129
_reflns_threshold_expression     >2\s(I)

#----------------------------------------------------------------------------#
#                   COMPUTER PROGRAMS USED                                   #
#----------------------------------------------------------------------------#

_computing_data_collection       
;
        CrysAlisPro, Agilent Technologies,
        Version 1.171.36.28 (release 01-02-2013 CrysAlis171 .NET)
        (compiled Feb  1 2013,16:14:44)
;
_computing_cell_refinement       
;
        CrysAlisPro, Agilent Technologies,
        Version 1.171.36.28 (release 01-02-2013 CrysAlis171 .NET)
        (compiled Feb  1 2013,16:14:44)
;
_computing_data_reduction        
;
        CrysAlisPro, Agilent Technologies,
        Version 1.171.36.28 (release 01-02-2013 CrysAlis171 .NET)
        (compiled Feb  1 2013,16:14:44)
;
_computing_structure_refinement  'SHELXL-97 (Sheldrick, 2008)'

#----------------------------------------------------------------------------#
#                   STRUCTURE SOLUTION
#----------------------------------------------------------------------------#

_atom_sites_solution_primary     direct
_atom_sites_solution_secondary   difmap
_atom_sites_solution_hydrogens   geom

#----------------------------------------------------------------------------#
#                   REFINEMENT INFORMATION                                   #
#----------------------------------------------------------------------------#

_refine_special_details          
;
 Refinement of F^2^ against ALL reflections.  The weighted R-factor wR and
 goodness of fit S are based on F^2^, conventional R-factors R are based
 on F, with F set to zero for negative F^2^. The threshold expression of
 F^2^ > 2\s(F^2^) is used only for calculating R-factors(gt) etc. and is
 not relevant to the choice of reflections for refinement.  R-factors based
 on F^2^ are statistically about twice as large as those based on F, and R-
 factors based on ALL data will be even larger.
;
_refine_ls_structure_factor_coef Fsqd
_refine_ls_matrix_type           full
_refine_ls_weighting_scheme      calc
_refine_ls_weighting_details     
'calc w=1/[\s^2^(Fo^2^)+(0.0790P)^2^+0.0000P] where P=(Fo^2^+2Fc^2^)/3'
_refine_ls_hydrogen_treatment    constr
_refine_ls_extinction_method     none
_refine_ls_number_reflns         13414
_refine_ls_number_parameters     614
_refine_ls_number_restraints     48
_refine_ls_R_factor_all          0.0623
_refine_ls_R_factor_gt           0.0503
_refine_ls_wR_factor_ref         0.1355
_refine_ls_wR_factor_gt          0.1294
_refine_ls_goodness_of_fit_ref   1.091
_refine_ls_restrained_S_all      1.109
_refine_ls_shift/su_max          0.002
_refine_ls_shift/su_mean         0
_refine_ls_abs_structure_details 'Flack H D (1983), Acta Cryst. A39, 876-881'
_refine_ls_abs_structure_Flack   0.112(15)
_refine_diff_density_max         0.534
_refine_diff_density_min         -0.371
_refine_diff_density_rms         0.056
# SQUEEZE RESULTS (APPEND TO CIF)
# Note: Data are Listed for all Voids in the P1 Unit Cell
# i.e. Centre of Gravity, Solvent Accessible Volume,
# Recovered number of Electrons in the Void and
# Details about the Squeezed Material
loop_
_platon_squeeze_void_nr
_platon_squeeze_void_average_x
_platon_squeeze_void_average_y
_platon_squeeze_void_average_z
_platon_squeeze_void_volume
_platon_squeeze_void_count_electrons
_platon_squeeze_void_content
1 0.000 0.000 0.017 2658 184 ' '
2 0.101 0.425 0.940 7 0 ' '
3 0.101 0.675 0.440 7 0 ' '
4 0.333 0.667 0.666 2647 184 ' '
5 0.241 0.009 0.274 7 0 ' '
6 0.241 0.232 0.774 7 0 ' '
7 0.325 0.425 0.440 8 0 ' '
8 0.325 0.899 0.940 7 0 ' '
9 0.434 0.092 0.607 7 0 ' '
10 0.434 0.342 0.107 7 0 ' '
11 0.667 0.333 0.333 2660 184 ' '
12 0.575 0.675 0.940 8 0 ' '
13 0.575 0.899 0.440 7 0 ' '
14 0.658 0.092 0.107 7 0 ' '
15 0.658 0.566 0.607 7 0 ' '
16 0.768 0.009 0.774 7 0 ' '
17 0.768 0.759 0.274 7 0 ' '
18 0.908 0.342 0.607 7 0 ' '
19 0.908 0.566 0.107 7 0 ' '
20 0.991 0.232 0.274 7 0 ' '
21 0.991 0.759 0.774 7 0 ' '
_platon_squeeze_details          
;
;

#----------------------------------------------------------------------------#
#                   ATOMIC TYPES, COORDINATES AND THERMAL PARAMETERS         #
#----------------------------------------------------------------------------#

loop_
_atom_type_symbol
_atom_type_description
_atom_type_scat_dispersion_real
_atom_type_scat_dispersion_imag
_atom_type_scat_source
C C 0.0033 0.0016 'International Tables Vol C Tables 4.2.6.8 and 6.1.1.4'
H H 0 0 'International Tables Vol C Tables 4.2.6.8 and 6.1.1.4'
Mn Mn 0.3368 0.7283 'International Tables Vol C Tables 4.2.6.8 and 6.1.1.4'
N N 0.0061 0.0033 'International Tables Vol C Tables 4.2.6.8 and 6.1.1.4'
O O 0.0106 0.006 'International Tables Vol C Tables 4.2.6.8 and 6.1.1.4'

loop_
_atom_site_label
_atom_site_type_symbol
_atom_site_fract_x
_atom_site_fract_y
_atom_site_fract_z
_atom_site_U_iso_or_equiv
_atom_site_adp_type
_atom_site_occupancy
_atom_site_symmetry_multiplicity
_atom_site_calc_flag
_atom_site_refinement_flags
_atom_site_disorder_assembly
_atom_site_disorder_group
Mn1 Mn 0.552506(15) 0.633107(15) 0.41697(4) 0.04314(16) Uani 1 1 d . . .
Mn2 Mn 0.594695(16) 0.713386(16) 0.38827(4) 0.04547(16) Uani 1 1 d . . .
Mn3 Mn 0.632794(17) 0.761543(16) 0.56765(4) 0.05004(18) Uani 1 1 d . . .
Mn4 Mn 0.535992(15) 0.582732(15) 0.23968(4) 0.04653(17) Uani 1 1 d . . .
C1 C 0.47002(11) 0.57000(11) 0.4456(3) 0.0489(10) Uani 1 1 d . . .
C2 C 0.48258(10) 0.57811(10) 0.3622(3) 0.0428(9) Uani 1 1 d . . .
C3 C 0.45777(11) 0.56919(12) 0.3004(3) 0.0512(11) Uani 1 1 d . . .
C4 C 0.42359(12) 0.55058(13) 0.3186(3) 0.0604(13) Uani 1 1 d . . .
H4 H 0.4077 0.5438 0.2746 0.072 Uiso 1 1 calc R . .
C5 C 0.41314(11) 0.54209(14) 0.4001(3) 0.0640(14) Uani 1 1 d . . .
C6 C 0.43626(11) 0.55235(13) 0.4619(3) 0.0569(12) Uani 1 1 d . . .
H6 H 0.429 0.5472 0.5184 0.068 Uiso 1 1 calc R . .
C7 C 0.49123(11) 0.57982(15) 0.5183(3) 0.0653(14) Uani 1 1 d . . .
H7 H 0.4808 0.5703 0.5703 0.078 Uiso 1 1 calc R . .
C8 C 0.36761(15) 0.5146(2) 0.4954(4) 0.111(3) Uani 1 1 d . . .
H8A H 0.3432 0.5015 0.4959 0.167 Uiso 1 1 calc R . .
H8B H 0.375 0.535 0.5284 0.167 Uiso 1 1 calc R . .
H8C H 0.3768 0.5015 0.5197 0.167 Uiso 1 1 calc R . .
O1 O 0.52189(8) 0.59954(10) 0.5198(2) 0.0679(10) Uani 1 1 d . . .
O2 O 0.51426(6) 0.59277(7) 0.34562(17) 0.0418(6) Uani 1 1 d . . .
O3 O 0.49539(9) 0.59223(9) 0.1866(2) 0.0651(9) Uani 1 1 d . . .
O4 O 0.44368(12) 0.57381(18) 0.1667(3) 0.123(2) Uani 1 1 d . . .
O5 O 0.37906(9) 0.52334(12) 0.4110(3) 0.0922(14) Uani 1 1 d . . .
N1 N 0.46629(11) 0.57893(11) 0.2138(3) 0.0638(11) Uani 1 1 d . . .
C13 C 0.59938(10) 0.68337(11) 0.5622(3) 0.0445(9) Uani 1 1 d . . .
C14 C 0.60312(14) 0.65646(13) 0.6054(4) 0.0697(14) Uani 1 1 d . . .
H14 H 0.5856 0.6343 0.5835 0.084 Uiso 1 1 calc R . .
C15 C 0.5993(2) 0.65693(17) 0.6996(4) 0.112(3) Uani 1 1 d . . .
H15A H 0.5766 0.652 0.7131 0.167 Uiso 1 1 calc R . .
H15B H 0.6154 0.679 0.7214 0.167 Uiso 1 1 calc R . .
H15C H 0.6034 0.6401 0.7253 0.167 Uiso 1 1 calc R . .
C16 C 0.63861(19) 0.6620(2) 0.5810(7) 0.137(4) Uani 1 1 d . . .
H16A H 0.642 0.6449 0.6083 0.205 Uiso 1 1 calc R . .
H16B H 0.6559 0.6842 0.5995 0.205 Uiso 1 1 calc R . .
H16C H 0.6399 0.6602 0.5201 0.205 Uiso 1 1 calc R . .
O8 O 0.58674(7) 0.67756(7) 0.48789(19) 0.0467(7) Uani 1 1 d . . .
O9 O 0.61133(8) 0.71041(8) 0.5964(2) 0.0543(8) Uani 1 1 d . . .
C17 C 0.58316(10) 0.66174(10) 0.2401(3) 0.0448(10) Uani 1 1 d D . .
C18 C 0.60171(11) 0.68995(11) 0.1788(3) 0.0532(11) Uani 1 1 d D . .
H18 H 0.6152 0.7111 0.2111 0.064 Uiso 1 1 calc R . .
C19 C 0.62497(16) 0.68387(13) 0.1257(4) 0.085(2) Uani 1 1 d D . .
H19A H 0.6373 0.7028 0.0877 0.128 Uiso 1 1 calc R . .
H19B H 0.612 0.6634 0.0929 0.128 Uiso 1 1 calc R . .
H19C H 0.6407 0.6814 0.1619 0.128 Uiso 1 1 calc R . .
C20 C 0.57700(18) 0.69374(18) 0.1247(5) 0.101(2) Uani 1 1 d D . .
H20A H 0.5891 0.7121 0.0849 0.152 Uiso 1 1 calc R . .
H20B H 0.5627 0.6986 0.1602 0.152 Uiso 1 1 calc R . .
H20C H 0.5632 0.673 0.0938 0.152 Uiso 1 1 calc R . .
O10 O 0.58174(7) 0.66790(7) 0.31713(18) 0.0464(7) Uani 1 1 d . . .
O11 O 0.56890(8) 0.63273(7) 0.21148(19) 0.0551(8) Uani 1 1 d . . .
C9 C 0.51946(15) 0.67671(18) 0.3832(6) 0.1037(18) Uani 1 1 d DU . .
C10 C 0.4864(2) 0.6747(3) 0.3564(8) 0.164(3) Uani 1 1 d DU . .
H10 H 0.4672 0.6549 0.3833 0.197 Uiso 1 1 calc R . .
C11 C 0.4838(3) 0.6705(4) 0.2603(9) 0.232(5) Uani 1 1 d DU . .
H11A H 0.4831 0.6496 0.2451 0.348 Uiso 1 1 calc R . .
H11B H 0.5032 0.6893 0.234 0.348 Uiso 1 1 calc R . .
H11C H 0.4634 0.6698 0.2407 0.348 Uiso 1 1 calc R . .
C12 C 0.4874(3) 0.7047(3) 0.3854(10) 0.205(4) Uani 1 1 d DU . .
H12A H 0.4949 0.7088 0.4439 0.307 Uiso 1 1 calc R . .
H12B H 0.4651 0.702 0.3813 0.307 Uiso 1 1 calc R . .
H12C H 0.503 0.7236 0.3508 0.307 Uiso 1 1 calc R . .
O6 O 0.51742(9) 0.65041(10) 0.4177(3) 0.0801(12) Uani 1 1 d U . .
O7 O 0.54518(10) 0.70234(10) 0.3663(3) 0.0879(13) Uani 1 1 d U . .
C21 C 0.57408(11) 0.57925(11) 0.3981(3) 0.0484(10) Uani 1 1 d . . .
C22 C 0.57668(17) 0.55470(15) 0.4545(4) 0.0768(16) Uani 1 1 d . . .
H22 H 0.5868 0.5434 0.4224 0.092 Uiso 1 1 calc R . .
C23 C 0.5400(2) 0.52829(15) 0.4777(5) 0.115(3) Uani 1 1 d . . .
H23A H 0.5273 0.5181 0.4264 0.172 Uiso 1 1 calc R . .
H23B H 0.5297 0.5392 0.5081 0.172 Uiso 1 1 calc R . .
H23C H 0.54 0.511 0.5133 0.172 Uiso 1 1 calc R . .
C24 C 0.5983(2) 0.57174(18) 0.5310(4) 0.0880(19) Uani 1 1 d . . .
H24A H 0.6009 0.5553 0.5641 0.132 Uiso 1 1 calc R . .
H24B H 0.5876 0.5813 0.5654 0.132 Uiso 1 1 calc R . .
H24C H 0.6203 0.5895 0.5128 0.132 Uiso 1 1 calc R . .
O12 O 0.57900(7) 0.60673(7) 0.4253(2) 0.0498(7) Uani 1 1 d . . .
O13 O 0.56431(8) 0.56940(7) 0.3231(2) 0.0510(7) Uani 1 1 d . . .
C25 C 0.58218(12) 0.78093(12) 0.3707(3) 0.0525(11) Uani 1 1 d . . .
C26 C 0.58456(11) 0.77025(11) 0.4534(3) 0.0461(10) Uani 1 1 d . . .
C27 C 0.56982(12) 0.77958(13) 0.5179(3) 0.0579(12) Uani 1 1 d . . .
C28 C 0.55483(14) 0.79900(15) 0.5014(3) 0.0675(14) Uani 1 1 d . . .
H28 H 0.5456 0.8051 0.5465 0.081 Uiso 1 1 calc R . .
C29 C 0.55331(14) 0.80929(15) 0.4215(4) 0.0698(14) Uani 1 1 d . . .
C30 C 0.56705(13) 0.80033(14) 0.3575(3) 0.0632(13) Uani 1 1 d . . .
H30 H 0.5663 0.8075 0.3022 0.076 Uiso 1 1 calc R . .
C31 C 0.59492(14) 0.77287(14) 0.2990(3) 0.0630(13) Uani 1 1 d . . .
H31 H 0.5943 0.7832 0.2481 0.076 Uiso 1 1 calc R . .
C32 C 0.5378(2) 0.8400(2) 0.3314(4) 0.114(3) Uani 1 1 d . . .
H32A H 0.5287 0.8551 0.3337 0.171 Uiso 1 1 calc R . .
H32B H 0.5232 0.8205 0.2971 0.171 Uiso 1 1 calc R . .
H32C H 0.5601 0.8517 0.3066 0.171 Uiso 1 1 calc R . .
O14 O 0.60639(9) 0.75459(9) 0.2948(2) 0.0623(9) Uani 1 1 d . . .
O15 O 0.59889(7) 0.75281(7) 0.46755(18) 0.0466(7) Uani 1 1 d . . .
O16 O 0.58555(10) 0.75750(11) 0.6296(2) 0.0720(10) Uani 1 1 d . . .
O17 O 0.54703(18) 0.7696(2) 0.6520(3) 0.172(4) Uani 1 1 d . . .
O18 O 0.53973(13) 0.82938(14) 0.4149(3) 0.0988(16) Uani 1 1 d . . .
N2 N 0.56790(14) 0.76807(16) 0.6031(3) 0.0837(15) Uani 1 1 d . . .
C33 C 0.67186(11) 0.75707(10) 0.4097(3) 0.0459(10) Uani 1 1 d . . .
C34 C 0.70253(13) 0.77591(14) 0.3568(3) 0.0651(14) Uani 1 1 d . . .
H34 H 0.7224 0.7805 0.3914 0.078 Uiso 1 1 calc R . .
C35 C 0.70182(15) 0.75594(18) 0.2788(4) 0.0826(18) Uani 1 1 d . . .
H35A H 0.7223 0.7691 0.2461 0.124 Uiso 1 1 calc R . .
H35B H 0.6824 0.7511 0.2443 0.124 Uiso 1 1 calc R . .
H35C H 0.7004 0.735 0.2964 0.124 Uiso 1 1 calc R . .
C36 C 0.7052(2) 0.80978(15) 0.3336(4) 0.101(2) Uani 1 1 d . . .
H36A H 0.7256 0.8233 0.3011 0.152 Uiso 1 1 calc R . .
H36B H 0.7059 0.8217 0.3849 0.152 Uiso 1 1 calc R . .
H36C H 0.6858 0.8057 0.3 0.152 Uiso 1 1 calc R . .
O22 O 0.64675(7) 0.73287(7) 0.38035(19) 0.0485(7) Uani 1 1 d . . .
O23 O 0.67265(7) 0.76877(7) 0.48328(19) 0.0486(7) Uani 1 1 d . . .
C38 C 0.49540(12) 0.50673(12) 0.2334(4) 0.0764(18) Uani 1 1 d . . .
C39 C 0.46111(18) 0.47527(14) 0.2332(8) 0.134(4) Uani 1 1 d . . .
H39 H 0.4597 0.472 0.171 0.161 Uiso 1 1 calc R . .
C40 C 0.43388(17) 0.4795(2) 0.2398(7) 0.135(4) Uani 1 1 d . . .
H40A H 0.4366 0.4974 0.202 0.203 Uiso 1 1 calc R . .
H40B H 0.4319 0.4854 0.2977 0.203 Uiso 1 1 calc R . .
H40C H 0.4137 0.4587 0.2244 0.203 Uiso 1 1 calc R . .
C41 C 0.46171(18) 0.44506(16) 0.2534(5) 0.108(3) Uani 1 1 d . . .
H41A H 0.4805 0.4452 0.2245 0.162 Uiso 1 1 calc R . .
H41B H 0.4408 0.4256 0.2353 0.162 Uiso 1 1 calc R . .
H41C H 0.4643 0.4439 0.3141 0.162 Uiso 1 1 calc R . .
O20 O 0.49645(8) 0.53377(8) 0.2288(3) 0.0717(11) Uani 1 1 d . . .
O21 O 0.52077(10) 0.50263(8) 0.2396(3) 0.0881(15) Uani 1 1 d . . .

loop_
_atom_site_aniso_label
_atom_site_aniso_U_11
_atom_site_aniso_U_22
_atom_site_aniso_U_33
_atom_site_aniso_U_23
_atom_site_aniso_U_13
_atom_site_aniso_U_12
Mn1 0.0377(3) 0.0376(3) 0.0491(4) -0.0126(3) -0.0009(3) 0.0150(3)
Mn2 0.0473(4) 0.0397(3) 0.0519(4) -0.0157(3) -0.0145(3) 0.0236(3)
Mn3 0.0548(4) 0.0482(4) 0.0599(4) -0.0235(3) -0.0272(3) 0.0354(3)
Mn4 0.0416(3) 0.0328(3) 0.0520(4) -0.0107(3) 0.0143(3) 0.0087(3)
C1 0.042(2) 0.054(2) 0.040(