
#######################################################################
#
#                 Cambridge Crystallographic Data Centre
#                                CCDC
#
#######################################################################
#
# If this CIF has been generated from an entry in the Cambridge
# Structural Database, then it will include bibliographic, chemical,
# crystal, experimental, refinement or atomic coordinate data resulting
# from the CCDC's data processing and validation procedures.
#
#######################################################################

data_CSD_CIF_DIRCIS
_audit_creation_date 2013-11-08
_audit_creation_method CSD-ConQuest-V1
_database_code_CSD DIRCIS
_database_code_depnum_ccdc_archive 'CCDC 969369'
_chemical_formula_sum 'C20 H23 F1 N6 O6'
_chemical_formula_moiety
;
C20 H21 F1 N6 O5,H2 O1
;
_journal_coeditor_code "sj5363"
_journal_coden_Cambridge 1370
_journal_volume 69
_journal_year 2013
_journal_page_first o1743
_journal_name_full 'Acta Crystallogr.,Sect.E:Struct.Rep.Online '
loop_
_publ_author_name
"T.S.Yamuna"
"J.P.Jasinski"
"B.J.Anderson"
"H.S.Yathirajan"
"M.Kaur"
_chemical_name_systematic
;
N-(4-Fluorobenzyl)-5-hydroxy-1-methyl-2-(2-(((5-methyl-1,3,4-oxadiazol-2-yl)ca
rbonyl)amino)propan-2-yl)-6-oxo-1,6-dihydropyrimidine-4-carboxamide 
monohydrate
;
_chemical_name_common
;
Raltegravir monohydrate; PDB Chemical Component code: RLT; Teaching Subset: 
Drug Molecules, 'Bound' Drugs
;
_cell_volume   1057.435
_exptl_crystal_colour 'colorless'
_exptl_crystal_density_diffrn 1.452
_exptl_crystal_description 'irregular'
_diffrn_ambient_temperature 173
#These two values have been output from a single CSD field.
_refine_ls_R_factor_gt 0.0674
_refine_ls_wR_factor_gt 0.0674
_symmetry_cell_setting triclinic
_symmetry_space_group_name_H-M 'P -1'
_symmetry_Int_Tables_number 2
loop_
_symmetry_equiv_pos_site_id
_symmetry_equiv_pos_as_xyz
1 x,y,z
2 -x,-y,-z
_cell_length_a 8.3860(6)
_cell_length_b 11.8610(9)
_cell_length_c 12.1102(9)
_cell_angle_alpha 110.481(7)
_cell_angle_beta 108.093(7)
_cell_angle_gamma 92.329(6)
_cell_formula_units_Z 2
loop_
_atom_type_symbol
_atom_type_radius_bond
C 0.68
H 0.23
F 0.64
N 0.68
O 0.68
loop_
_atom_site_label
_atom_site_type_symbol
_atom_site_fract_x
_atom_site_fract_y
_atom_site_fract_z
F1 F 1.1554(2) 0.33688(15) 1.31637(13)
O1 O 0.7785(2) 0.36533(14) 0.09901(14)
O2 O 0.7121(2) 0.44719(13) 0.32679(14)
O3 O 0.50567(19) -0.13326(13) 0.34626(15)
O4 O 0.76855(19) -0.16476(12) 0.52110(14)
H1 H 0.85700 -0.16290 0.57890
O5 O 1.04993(19) -0.05743(13) 0.70762(13)
N1 N 0.7540(2) 0.26143(14) 0.33868(14)
H2 H 0.76610 0.18750 0.29500
N2 N 0.62443(18) 0.06543(13) 0.40189(13)
N3 N 0.87875(19) 0.15547(13) 0.57317(13)
N4 N 1.1487(2) 0.14234(15) 0.76091(14)
H3 H 1.13340 0.20690 0.74140
N5 N 0.7269(2) 0.17737(16) 0.08576(16)
N6 N 0.7475(3) 0.17321(18) -0.02828(18)
C1 C 0.7546(2) 0.28635(15) 0.46715(16)
C2 C 0.7531(2) 0.16307(15) 0.48264(15)
C3 C 0.6221(2) -0.04688(16) 0.41474(17)
C4 C 0.7677(2) -0.05480(15) 0.51363(16)
C5 C 0.8866(2) 0.04642(15) 0.58924(15)
C6 C 1.0360(2) 0.04108(16) 0.69173(16)
C7 C 1.2983(3) 0.1521(2) 0.86874(18)
H4 H 1.39510 0.20620 0.87310
H5 H 1.33060 0.07050 0.85680
C8 C 1.2642(2) 0.20230(17) 0.99030(17)
C9 C 1.1883(3) 0.12534(17) 1.02977(18)
H6 H 1.16190 0.04010 0.98100
C10 C 1.1498(3) 0.17008(19) 1.13923(19)
H7 H 1.09590 0.11700 1.16520
C11 C 1.1919(3) 0.2928(2) 1.20832(18)
C12 C 1.2710(4) 0.3723(2) 1.1741(2)
H8 H 1.30070 0.45700 1.22520
C13 C 1.3067(4) 0.3264(2) 1.0637(2)
H9 H 1.36040 0.38000 1.03830
C14 C 0.7364(3) 0.34282(17) 0.28320(18)
C15 C 0.7465(3) 0.28953(17) 0.15403(18)
C16 C 0.7766(3) 0.2857(2) -0.0153(2)
C17 C 0.8092(5) 0.3338(3) -0.1049(3)
H10 H 0.71480 0.37410 -0.13490
H11 H 0.81900 0.26640 -0.17630
H12 H 0.91530 0.39280 -0.06280
C18 C 0.6015(3) 0.34431(18) 0.4921(2)
H13 H 0.62080 0.43110 0.50630
H14 H 0.58850 0.33580 0.56660
H15 H 0.49790 0.30290 0.41920
C19 C 0.9184(3) 0.37382(17) 0.56034(19)
H16 H 1.01680 0.33750 0.54640
H17 H 0.92340 0.38890 0.64640
H18 H 0.91980 0.45120 0.54800
C20 C 0.4769(2) 0.06994(17) 0.29878(17)
H19 H 0.38370 0.09350 0.33000
H20 H 0.43960 -0.01070 0.23020
H21 H 0.50980 0.13000 0.26770
O6 O 0.6377(4) 0.63744(18) 0.2332(2)
H22 H 0.62550 0.69000 0.29770
H23 H 0.66300 0.57410 0.24780
#END
