####################################################################### 
# 
# This file contains crystal structure data downloaded from the 
# Cambridge Structural Database (CSD) hosted by the Cambridge 
# Crystallographic Data Centre (CCDC).
# 
# Full information about CCDC data access policies and citation 
# guidelines are available at http://www.ccdc.cam.ac.uk/access/V1 
# 
# Audit and citation data items may have been added by the CCDC. 
# Please retain this information to preserve the provenance of 
# this file and to allow appropriate attribution of the data. 
# 
#######################################################################

data_import
_audit_block_doi                 10.5517/cczszxm
_database_code_depnum_ccdc_archive 'CCDC 917752'
loop_
_citation_id
_citation_doi
_citation_year
1 10.1002/chem.201303086 2013
_audit_update_record             
;
2012-12-31 deposited with the CCDC.	2024-07-09 downloaded from the CCDC.
;
#TrackingRef '16927_web_deposit_cif_file_2_Myung-HoChoi_1358406991.SNU-151_cifdep.cif'


_audit_creation_date             2013-01-17T15:59:13-00:00
_audit_creation_method           'WinGX routine CIF_UPDATE'

#----------------------------------------------------------------------------#
# CHEMICAL INFORMATION #
#----------------------------------------------------------------------------#

_chemical_name_systematic        
;
?
;
_chemical_formula_moiety         'C142 H94 N6 O26 Zn5'
_chemical_formula_sum            'C142 H94 N6 O26 Zn5'
_chemical_formula_weight         2627.08
_chemical_compound_source        'synthesis as described'

#----------------------------------------------------------------------------#
# UNIT CELL INFORMATION #
#----------------------------------------------------------------------------#

_symmetry_cell_setting           triclinic
_symmetry_space_group_name_H-M   'P -1'
_symmetry_space_group_name_Hall  '-P 1'
_symmetry_Int_Tables_number      2
loop_
_symmetry_equiv_pos_as_xyz
'x, y, z'
'-x, -y, -z'

_cell_length_a                   16.158(3)
_cell_length_b                   18.171(4)
_cell_length_c                   18.955(4)
_cell_angle_alpha                99.19(3)
_cell_angle_beta                 106.28(3)
_cell_angle_gamma                116.34(3)
_cell_volume                     4519(3)
_cell_formula_units_Z            1
_cell_measurement_temperature    100(2)
_cell_measurement_reflns_used    80521
_cell_measurement_theta_min      0.40106
_cell_measurement_theta_max      28.227
_cell_measurement_wavelength     0.69999

#----------------------------------------------------------------------------#
# CRYSTAL INFORMATION #
#----------------------------------------------------------------------------#

_exptl_crystal_description       prism
_exptl_crystal_colour            brown
_exptl_crystal_size_max          0.1
_exptl_crystal_size_mid          0.1
_exptl_crystal_size_min          0.1
_exptl_crystal_density_diffrn    0.965
_exptl_crystal_density_method    'not measured'
_exptl_crystal_F_000             1346
_exptl_special_details           
;
?
;

#----------------------------------------------------------------------------#
# ABSORPTION CORRECTION #
#----------------------------------------------------------------------------#

_exptl_absorpt_coefficient_mu    0.646
_exptl_absorpt_correction_type   empirical
_exptl_absorpt_process_details   'HKL3000 Scalepack'

#----------------------------------------------------------------------------#
# DATA COLLECTION #
#----------------------------------------------------------------------------#

_diffrn_ambient_temperature      100(2)
_diffrn_radiation_wavelength     0.69999
_diffrn_radiation_type           synchrotron
_diffrn_radiation_monochromator  'Si(111) double crystal monochromator'
_diffrn_radiation_probe          x-ray
_diffrn_measurement_device_type  'ADSC Q210 CCD area detector'
_diffrn_measurement_method       'omega scan'
_diffrn_reflns_av_R_equivalents  0
_diffrn_reflns_av_unetI/netI     0.0235
_diffrn_reflns_number            16832
_diffrn_reflns_limit_h_min       0
_diffrn_reflns_limit_h_max       20
_diffrn_reflns_limit_k_min       -22
_diffrn_reflns_limit_k_max       20
_diffrn_reflns_limit_l_min       -23
_diffrn_reflns_limit_l_max       22
_diffrn_reflns_theta_min         1.71
_diffrn_reflns_theta_max         25.75
_diffrn_reflns_theta_full        25.75
_diffrn_measured_fraction_theta_full 0.93
_diffrn_measured_fraction_theta_max 0.93
_reflns_number_total             16832
_reflns_number_gt                13990
_reflns_threshold_expression     >2sigma(I)

#----------------------------------------------------------------------------#
# COMPUTER PROGRAMS USED #
#----------------------------------------------------------------------------#

_computing_data_collection       'PAL ADSC Quantum-210 ADX Program'
_computing_cell_refinement       HKL3000
_computing_data_reduction        HKL3000
_computing_structure_solution    'SHELXS-97 (Sheldrick, 1997)'
_computing_structure_refinement  'SHELXL-97 (Sheldrick, 1997)'
_computing_molecular_graphics    'Ortep-3 for Windows (Farrugia, 1997)'
_computing_publication_material  'WinGX publication routines (Farrugia, 1999)'

#----------------------------------------------------------------------------#
# REFINEMENT INFORMATION #
#----------------------------------------------------------------------------#

_refine_special_details          
;
Refinement of F^2^ against ALL reflections. The weighted R-factor wR and
goodness of fit S are based on F^2^, conventional R-factors R are based
on F, with F set to zero for negative F^2^. The threshold expression of
F^2^ > 2sigma(F^2^) is used only for calculating R-factors(gt) etc. and is
not relevant to the choice of reflections for refinement. R-factors based
on F^2^ are statistically about twice as large as those based on F, and R-
factors based on ALL data will be even larger.
;
_refine_ls_structure_factor_coef Fsqd
_refine_ls_matrix_type           full
_refine_ls_weighting_scheme      calc
_refine_ls_weighting_details     
'calc w=1/[\s^2^(Fo^2^)+(0.2000P)^2^+0.0000P] where P=(Fo^2^+2Fc^2^)/3'
_atom_sites_solution_primary     direct
_atom_sites_solution_secondary   difmap
_atom_sites_solution_hydrogens   geom
_refine_ls_hydrogen_treatment    constr
_refine_ls_extinction_method     none
_refine_ls_number_reflns         16832
_refine_ls_number_parameters     808
_refine_ls_number_restraints     3
_refine_ls_R_factor_all          0.112
_refine_ls_R_factor_gt           0.1059
_refine_ls_wR_factor_ref         0.3371
_refine_ls_wR_factor_gt          0.3253
_refine_ls_goodness_of_fit_ref   1.539
_refine_ls_restrained_S_all      1.544
_refine_ls_shift/su_max          0.001
_refine_ls_shift/su_mean         0
_refine_diff_density_max         1.559
_refine_diff_density_min         -3.119
_refine_diff_density_rms         0.125

#----------------------------------------------------------------------------#
# ATOMIC TYPES, COORDINATES AND THERMAL PARAMETERS #
#----------------------------------------------------------------------------#

loop_
_atom_type_symbol
_atom_type_description
_atom_type_scat_dispersion_real
_atom_type_scat_dispersion_imag
_atom_type_scat_source
C C 0.003 0.0016 'International Tables Vol C Tables 4.2.6.8 and 6.1.1.4'
H H 0 0 'International Tables Vol C Tables 4.2.6.8 and 6.1.1.4'
N N 0.0059 0.0032 'International Tables Vol C Tables 4.2.6.8 and 6.1.1.4'
O O 0.0105 0.0059 'International Tables Vol C Tables 4.2.6.8 and 6.1.1.4'
Zn Zn 0.2937 1.3976 'International Tables Vol C Tables 4.2.6.8 and 6.1.1.4'

loop_
_atom_site_label
_atom_site_type_symbol
_atom_site_fract_x
_atom_site_fract_y
_atom_site_fract_z
_atom_site_U_iso_or_equiv
_atom_site_adp_type
_atom_site_occupancy
_atom_site_symmetry_multiplicity
_atom_site_calc_flag
_atom_site_refinement_flags
_atom_site_disorder_assembly
_atom_site_disorder_group
O5 O 0.3152(2) 0.86159(17) 0.10803(17) 0.0581(6) Uani 1 1 d . . .
O8 O 0.1180(3) 0.8543(2) 0.1008(2) 0.0755(9) Uani 1 1 d . . .
O6 O 0.1922(3) 0.77144(19) -0.00602(19) 0.0749(8) Uani 1 1 d . . .
O10 O -0.0513(3) 0.8660(2) -0.06362(17) 0.0725(8) Uani 1 1 d . . .
O7 O 0.1597(2) 0.79779(19) 0.1882(2) 0.0690(7) Uani 1 1 d . . .
O3 O 0.3591(3) 1.0047(2) 0.2328(2) 0.0902(11) Uani 1 1 d . . .
O9 O 0.0370(3) 0.8054(2) -0.08828(19) 0.0837(10) Uani 1 1 d . . .
O1 O 0.3578(3) 0.8168(2) 0.26639(19) 0.0772(9) Uani 1 1 d . . .
O12 O 0.1493(3) 1.0112(2) 0.0452(2) 0.0816(9) Uani 1 1 d . . .
O2 O 0.5062(3) 0.9268(3) 0.2881(2) 0.0905(10) Uani 1 1 d . . .
O11 O 0.2550(3) 0.9767(2) 0.0199(2) 0.0858(10) Uani 1 1 d . . .
C45 C -0.0353(3) 0.8208(3) -0.1077(3) 0.0680(11) Uani 1 1 d D . .
C23 C 0.2696(3) 0.7908(3) 0.0512(2) 0.0600(9) Uani 1 1 d . . .
O4 O 0.3277(3) 0.9797(3) 0.3336(3) 0.1060(13) Uani 1 1 d . . .
C12 C 0.3630(4) 1.0289(3) 0.2988(3) 0.0721(11) Uani 1 1 d D . .
O13 O -0.0282(4) 0.9729(3) 0.0964(3) 0.1067(13) Uani 1 1 d . . .
C56 C 0.2290(4) 1.0313(3) 0.0346(3) 0.0814(13) Uani 1 1 d D . .
C67 C 0.0263(5) 0.9679(4) 0.1535(5) 0.0956(16) Uani 1 1 d . . .
H67 H 0.0835 0.9691 0.1508 0.115 Uiso 1 1 calc R . .
N3 N 0.0125(6) 0.9611(4) 0.2154(5) 0.1235(19) Uani 1 1 d . . .
C70 C 0.0751(9) 0.9495(8) 0.2805(6) 0.157(4) Uani 1 1 d . . .
H70A H 0.121 0.9378 0.264 0.189 Uiso 1 1 calc R . .
H70B H 0.0314 0.898 0.2897 0.189 Uiso 1 1 calc R . .
C68 C -0.0786(11) 0.9684(10) 0.2200(10) 0.209(7) Uani 1 1 d . . .
H68A H -0.0624 0.9955 0.2743 0.251 Uiso 1 1 calc R . .
H68B H -0.0852 1.0075 0.1927 0.251 Uiso 1 1 calc R . .
C71 C 0.1359(13) 1.0225(8) 0.3563(8) 0.192(5) Uani 1 1 d . . .
H71A H 0.1692 1.0052 0.3947 0.287 Uiso 1 1 calc R . .
H71B H 0.0923 1.0367 0.373 0.287 Uiso 1 1 calc R . .
H71C H 0.1852 1.0725 0.3499 0.287 Uiso 1 1 calc R . .
C69 C -0.1779(16) 0.8871(10) 0.1887(9) 0.217(7) Uani 1 1 d . . .
H69A H -0.2264 0.8997 0.198 0.326 Uiso 1 1 calc R . .
H69B H -0.1729 0.8466 0.214 0.326 Uiso 1 1 calc R . .
H69C H -0.1989 0.8622 0.1337 0.326 Uiso 1 1 calc R . .
Zn1 Zn 0.30431(3) 0.87873(3) 0.21282(3) 0.0546(2) Uani 1 1 d . . .
Zn2 Zn 0.15344(3) 0.86212(3) 0.01036(2) 0.0583(2) Uani 1 1 d . . .
Zn3 Zn 0 1 0 0.1017(4) Uani 1 2 d S . .
N1 N 0.5584(2) 0.5390(2) 0.1427(2) 0.0553(7) Uani 1 1 d . . .
C44 C -0.3142(3) 0.6229(2) 0.0999(2) 0.0483(7) Uani 1 1 d . . .
H44 H -0.3605 0.6312 0.0655 0.058 Uiso 1 1 calc R . .
C29 C 0.4040(3) 0.7613(2) 0.1087(2) 0.0566(8) Uani 1 1 d . . .
H29 H 0.4429 0.819 0.1412 0.068 Uiso 1 1 calc R . .
C36 C -0.0418(3) 0.6953(3) 0.1652(2) 0.0562(8) Uani 1 1 d . . .
H36 H 0.0054 0.6878 0.1994 0.067 Uiso 1 1 calc R . .
C3 C 0.4440(4) 0.7214(3) 0.3146(2) 0.0634(10) Uani 1 1 d . . .
H3 H 0.3747 0.693 0.2876 0.076 Uiso 1 1 calc R . .
C27 C 0.3831(3) 0.6180(2) 0.0664(2) 0.0512(8) Uani 1 1 d . . .
C37 C -0.1445(3) 0.6492(2) 0.1567(2) 0.0517(8) Uani 1 1 d . . .
C38 C -0.2134(3) 0.6637(2) 0.1054(2) 0.0494(7) Uani 1 1 d . . .
C43 C 0.6557(3) 0.5723(2) 0.1434(2) 0.0522(8) Uani 1 1 d . . .
C30 C 0.4230(3) 0.5624(2) 0.0759(2) 0.0521(8) Uani 1 1 d . . .
H30 H 0.385 0.5047 0.0435 0.063 Uiso 1 1 calc R . .
C16 C 0.5113(3) 1.3063(3) 0.4121(2) 0.0637(10) Uani 1 1 d . . .
C28 C 0.4420(3) 0.7055(2) 0.1164(2) 0.0518(8) Uani 1 1 d . . .
C33 C 0.5398(3) 0.7356(2) 0.1737(2) 0.0542(8) Uani 1 1 d . . .
H33 H 0.5799 0.7935 0.2057 0.065 Uiso 1 1 calc R . .
C26 C 0.2895(3) 0.5902(3) 0.0088(2) 0.0620(9) Uani 1 1 d . . .
H26 H 0.2515 0.5334 -0.0256 0.074 Uiso 1 1 calc R . .
N2 N 0.6276(3) 0.5455(2) 0.4442(2) 0.0679(9) Uani 1 1 d . . .
C31 C 0.5156(3) 0.5922(2) 0.1316(2) 0.0524(8) Uani 1 1 d . . .
C39 C -0.1806(3) 0.7187(3) 0.0629(2) 0.0605(9) Uani 1 1 d . . .
H39 H -0.2268 0.7264 0.0277 0.073 Uiso 1 1 calc R . .
C22 C 0.5574(3) 1.3984(3) 0.4487(2) 0.0590(9) Uani 1 1 d . . .
H22 H 0.5686 1.42 0.5005 0.071 Uiso 1 1 calc R . .
C65 C 0.4946(3) 0.4494(2) 0.1266(2) 0.0504(7) Uani 1 1 d . . .
C35 C -0.0124(3) 0.7496(2) 0.1244(2) 0.0537(8) Uani 1 1 d . . .
C55 C -0.3107(3) 0.6474(3) -0.4281(2) 0.0596(9) Uani 1 1 d . . .
H55 H -0.3595 0.6612 -0.4479 0.072 Uiso 1 1 calc R . .
C34 C 0.0959(3) 0.8029(3) 0.1375(3) 0.0589(9) Uani 1 1 d . . .
C64 C 0.4144(3) 0.4236(3) 0.1531(2) 0.0622(9) Uani 1 1 d . . .
H64 H 0.407 0.4658 0.1807 0.075 Uiso 1 1 calc R . .
C15 C 0.4941(3) 1.2741(3) 0.3347(2) 0.0652(10) Uani 1 1 d . . .
C1 C 0.4553(5) 0.8561(4) 0.2933(3) 0.0818(14) Uani 1 1 d . . .
C47 C -0.1025(3) 0.7125(3) -0.2388(2) 0.0653(10) Uani 1 1 d . . .
H47 H -0.0546 0.6982 -0.218 0.078 Uiso 1 1 calc R . .
C49 C -0.2421(3) 0.6915(3) -0.3489(2) 0.0569(8) Uani 1 1 d . . .
C21 C 0.5844(3) 0.4537(3) 0.4088(2) 0.0640(10) Uani 1 1 d . . .
C40 C -0.0837(3) 0.7609(3) 0.0717(2) 0.0624(9) Uani 1 1 d . . .
H40 H -0.0636 0.7975 0.0431 0.075 Uiso 1 1 calc R . .
C41 C -0.1788(3) 0.5925(3) 0.1973(3) 0.0659(10) Uani 1 1 d . . .
H41 H -0.1344 0.5802 0.2289 0.079 Uiso 1 1 calc R . .
C8 C 0.4313(3) 0.5856(3) 0.3329(2) 0.0629(9) Uani 1 1 d . . .
H8 H 0.3619 0.5559 0.3053 0.076 Uiso 1 1 calc R . .
C59 C 0.3594(3) 1.2752(3) 0.0989(2) 0.0657(11) Uani 1 1 d . . .
C17 C 0.4760(4) 1.2459(3) 0.4511(3) 0.0715(11) Uani 1 1 d . . .
H17 H 0.4851 1.2665 0.5025 0.086 Uiso 1 1 calc R . .
C63 C 0.3504(3) 0.3401(3) 0.1387(3) 0.0641(9) Uani 1 1 d . . .
H63 H 0.2983 0.325 0.1558 0.077 Uiso 1 1 calc R . .
C46 C -0.1055(3) 0.7754(3) -0.1932(2) 0.0593(9) Uani 1 1 d D . .
C25 C 0.2524(3) 0.6447(3) 0.0017(2) 0.0666(10) Uani 1 1 d . . .
H25 H 0.1898 0.6247 -0.037 0.08 Uiso 1 1 calc R . .
C66 C 0.5077(3) 0.3875(2) 0.0887(2) 0.0545(8) Uani 1 1 d . . .
H66 H 0.5603 0.4042 0.0721 0.065 Uiso 1 1 calc R . .
C60 C 0.4421(3) 1.2982(2) 0.0744(2) 0.0618(9) Uani 1 1 d . . .
C54 C -0.3070(3) 0.5862(3) -0.4750(2) 0.0614(9) Uani 1 1 d . . .
C50 C -0.2433(3) 0.7576(3) -0.2998(2) 0.0594(9) Uani 1 1 d . . .
H50 H -0.2908 0.7729 -0.3192 0.071 Uiso 1 1 calc R . .
C48 C -0.1710(3) 0.6676(3) -0.3182(2) 0.0659(10) Uani 1 1 d . . .
C24 C 0.3097(3) 0.7317(2) 0.0535(2) 0.0577(9) Uani 1 1 d . . .
C32 C 0.5740(3) 0.6807(3) 0.1816(2) 0.0570(8) Uani 1 1 d . . .
H32 H 0.6367 0.7008 0.2202 0.068 Uiso 1 1 calc R . .
C14 C 0.4447(3) 1.1814(3) 0.2987(2) 0.0677(11) Uani 1 1 d . . .
H14 H 0.4348 1.1596 0.2473 0.081 Uiso 1 1 calc R . .
C58 C 0.2901(3) 1.1873(3) 0.0827(2) 0.0634(9) Uani 1 1 d . . .
H58 H 0.2349 1.1717 0.096 0.076 Uiso 1 1 calc R . .
C2 C 0.4999(4) 0.8071(3) 0.3263(2) 0.0702(11) Uani 1 1 d . . .
C42 C 0.7250(3) 0.5548(3) 0.1920(3) 0.0648(10) Uani 1 1 d . . .
H42 H 0.7042 0.5175 0.2199 0.078 Uiso 1 1 calc R . .
C18 C 0.4289(4) 1.1582(3) 0.4149(3) 0.0751(11) Uani 1 1 d . . .
H18 H 0.4079 1.1203 0.4424 0.09 Uiso 1 1 calc R . .
C13 C 0.4119(3) 1.1248(3) 0.3371(3) 0.0720(11) Uani 1 1 d D . .
C57 C 0.3040(4) 1.1246(3) 0.0474(3) 0.0752(12) Uani 1 1 d D . .
C51 C -0.1751(3) 0.7999(3) -0.2238(2) 0.0580(8) Uani 1 1 d . . .
H51 H -0.1752 0.8449 -0.1926 0.07 Uiso 1 1 calc R . .
C20 C 0.5683(4) 1.4222(3) 0.3298(2) 0.0698(11) Uani 1 1 d . . .
H20 H 0.5872 1.4606 0.3024 0.084 Uiso 1 1 calc R . .
C9 C 0.4751(3) 0.5418(3) 0.3634(2) 0.0630(9) Uani 1 1 d . . .
H9 H 0.4357 0.483 0.3563 0.076 Uiso 1 1 calc R . .
C11 C 0.6375(3) 0.6723(3) 0.4130(2) 0.0694(11) Uani 1 1 d . . .
H11 H 0.7071 0.7008 0.4382 0.083 Uiso 1 1 calc R . .
C52 C -0.1701(4) 0.6018(3) -0.3693(3) 0.0757(13) Uani 1 1 d . . .
H52 H -0.1231 0.5858 -0.3504 0.091 Uiso 1 1 calc R . .
C5 C 0.5943(3) 0.7195(3) 0.3835(2) 0.0644(10) Uani 1 1 d . . .
C19 C 0.5251(4) 1.3353(3) 0.2945(2) 0.0742(13) Uani 1 1 d . . .
H19 H 0.5153 1.315 0.2429 0.089 Uiso 1 1 calc R . .
C10 C 0.5818(3) 0.5870(3) 0.4064(2) 0.0630(10) Uani 1 1 d . . .
C53 C -0.2354(4) 0.5622(3) -0.4445(3) 0.0750(12) Uani 1 1 d . . .
H53 H -0.2337 0.5189 -0.4764 0.09 Uiso 1 1 calc R . .
C4 C 0.4877(3) 0.6730(3) 0.3420(2) 0.0622(9) Uani 1 1 d . . .
C6 C 0.6522(4) 0.8077(3) 0.3949(3) 0.0777(12) Uani 1 1 d . . .
H6 H 0.7219 0.8364 0.4203 0.093 Uiso 1 1 calc R . .
C62 C 0.3812(5) 1.1450(3) 0.0241(3) 0.0864(14) Uani 1 1 d . . .
H62 H 0.3882 1.1005 0 0.104 Uiso 1 1 calc R . .
C7 C 0.6069(4) 0.8532(3) 0.3686(3) 0.0752(12) Uani 1 1 d . . .
H7 H 0.6454 0.9127 0.3784 0.09 Uiso 1 1 calc R . .
C61 C 0.4506(4) 1.2311(3) 0.0354(3) 0.0772(13) Uani 1 1 d . . .
H61 H 0.5015 1.2438 0.0173 0.093 Uiso 1 1 calc R . .

loop_
_atom_site_aniso_label
_atom_site_aniso_U_11
_atom_site_aniso_U_22
_atom_site_aniso_U_33
_atom_site_aniso_U_23
_atom_site_aniso_U_13
_atom_site_aniso_U_12
O5 0.0614(15) 0.0429(14) 0.0695(16) 0.0128(12) 0.0224(13) 0.0304(13)
O8 0.0686(18) 0.073(2) 0.117(3) 0.056(2) 0.0482(19) 0.0470(17)
O6 0.0769(19) 0.0481(16) 0.0762(18) 0.0080(13) -0.0009(15) 0.0364(15)
O10 0.081(2) 0.0631(19) 0.0565(15) 0.0093(13) 0.0097(14) 0.0378(17)
O7 0.0499(14) 0.0553(17) 0.089(2) 0.0257(15) 0.0189(14) 0.0216(13)
O3 0.085(2) 0.069(2) 0.095(3) 0.0004(18) 0.0053(19) 0.049(2)
O9 0.082(2) 0.0580(19) 0.0735(19) -0.0003(14) -0.0156(16) 0.0409(18)
O1 0.085(2) 0.097(2) 0.0739(18) 0.0390(17) 0.0259(16) 0.066(2)
O12 0.0663(19) 0.070(2) 0.091(2) 0.0313(18) 0.0208(17) 0.0267(17)
O2 0.095(3) 0.078(2) 0.090(2) 0.032(2) 0.015(2) 0.050(2)
O11 0.086(2) 0.060(2) 0.092(2) 0.0249(17) 0.0167(18) 0.0329(18)
C45 0.066(2) 0.048(2) 0.061(2) 0.0182(18) -0.0053(19) 0.024(2)
C23 0.058(2) 0.048(2) 0.066(2) 0.0122(17) 0.0117(17) 0.0307(19)
O4 0.097(3) 0.065(2) 0.132(4) 0.015(2) 0.037(3) 0.034(2)
C12 0.061(2) 0.074(3) 0.073(3) 0.015(2) 0.010(2) 0.041(2)
O13 0.100(3) 0.096(3) 0.130(4) 0.047(3) 0.045(3) 0.052(3)
C56 0.085(3) 0.062(3) 0.063(2) 0.013(2) 0.008(2) 0.027(3)
C67 0.089(4) 0.079(4) 0.117(5) 0.034(3) 0.047(4) 0.039(3)
N3 0.127(5) 0.113(5) 0.132(5) 0.043(4) 0.044(4) 0.067(4)
C70 0.177(10) 0.151(9) 0.123(7) 0.031(6) 0.063(7) 0.072(8)
C68 0.202(12) 0.150(11) 0.246(15) 0.030(10) 0.151(12) 0.042(10)
C71 0.295(17) 0.170(11) 0.170(10) 0.080(9) 0.140(12) 0.131(12)
C69 0.32(2) 0.191(15) 0.188(13) 0.061(11) 0.108(14) 0.168(17)
Zn1 0.0459(3) 0.0466(3) 0.0622(3) 0.0169(2) 0.0093(2) 0.0243(2)
Zn2 0.0572(3) 0.0386(3) 0.0563(3) 0.0101(2) -0.0015(2) 0.0227(2)
Zn3 0.0962(7) 0.0864(7) 0.1103(8) 0.0285(6) 0.0264(6) 0.0474(6)
N1 0.0450(15) 0.0412(16) 0.0739(19) 0.0165(14) 0.0212(14) 0.0199(13)
C44 0.0427(16) 0.0413(18) 0.0511(17) 0.0095(14) 0.0081(13) 0.0221(15)
C29 0.0552(19) 0.045(2) 0.058(2) 0.0055(15) 0.0153(16) 0.0245(17)
C36 0.0476(18) 0.057(2) 0.060(2) 0.0246(17) 0.0128(15) 0.0271(17)
C3 0.075(3) 0.082(3) 0.0473(18) 0.0233(19) 0.0185(18) 0.054(2)
C27 0.0