####################################################################### 
# 
# This file contains crystal structure data downloaded from the 
# Cambridge Structural Database (CSD) hosted by the Cambridge 
# Crystallographic Data Centre (CCDC).
# 
# Full information about CCDC data access policies and citation 
# guidelines are available at http://www.ccdc.cam.ac.uk/access/V1 
# 
# Audit and citation data items may have been added by the CCDC. 
# Please retain this information to preserve the provenance of 
# this file and to allow appropriate attribution of the data. 
# 
#######################################################################

data_import
_audit_block_doi                 10.5517/cczszwl
_database_code_depnum_ccdc_archive 'CCDC 917751'
loop_
_citation_id
_citation_doi
_citation_year
1 10.1002/chem.201303086 2013
_audit_update_record             
;
2012-12-31 deposited with the CCDC.	2024-07-09 downloaded from the CCDC.
;
#TrackingRef '18104_web_deposit_cif_file_0_Myung-HoChoi_1362037497.SNU-150.cif'


_audit_creation_date             2013-01-17T15:13:08-00:00
_audit_creation_method           'WinGX routine CIF_UPDATE'

#----------------------------------------------------------------------------#
# CHEMICAL INFORMATION #
#----------------------------------------------------------------------------#

_chemical_name_systematic        
;
?
;
_chemical_formula_moiety         'C66 H36 N3 O13 Zn4'
_chemical_formula_sum            'C66 H36 N2 O13 Zn4'
_chemical_formula_weight         1326.45
_chemical_compound_source        'synthesis as described'

#----------------------------------------------------------------------------#
# UNIT CELL INFORMATION #
#----------------------------------------------------------------------------#

_symmetry_cell_setting           cubic
_symmetry_space_group_name_H-M   'P a -3'
_symmetry_space_group_name_Hall  '-P 2ac 2ab 3'
_symmetry_Int_Tables_number      205
loop_
_symmetry_equiv_pos_as_xyz
'x, y, z'
'-x+1/2, -y, z+1/2'
'x+1/2, -y+1/2, -z'
'-x, y+1/2, -z+1/2'
'y, z, x'
'-y+1/2, -z, x+1/2'
'y+1/2, -z+1/2, -x'
'-y, z+1/2, -x+1/2'
'z, x, y'
'-z, x+1/2, -y+1/2'
'-z+1/2, -x, y+1/2'
'z+1/2, -x+1/2, -y'
'-x, -y, -z'
'x-1/2, y, -z-1/2'
'-x-1/2, y-1/2, z'
'x, -y-1/2, z-1/2'
'-y, -z, -x'
'y-1/2, z, -x-1/2'
'-y-1/2, z-1/2, x'
'y, -z-1/2, x-1/2'
'-z, -x, -y'
'z, -x-1/2, y-1/2'
'z-1/2, x, -y-1/2'
'-z-1/2, x-1/2, y'

_cell_length_a                   27.3095(6)
_cell_length_b                   27.3095(6)
_cell_length_c                   27.3095(6)
_cell_angle_alpha                90
_cell_angle_beta                 90
_cell_angle_gamma                90
_cell_volume                     20367.7(8)
_cell_formula_units_Z            8
_cell_measurement_temperature    120(2)
_cell_measurement_reflns_used    6421
_cell_measurement_theta_min      0.998
_cell_measurement_theta_max      25.028
_cell_measurement_wavelength     0.71073

#----------------------------------------------------------------------------#
# CRYSTAL INFORMATION #
#----------------------------------------------------------------------------#

_exptl_crystal_description       prism
_exptl_crystal_colour            green
_exptl_crystal_size_max          0.1
_exptl_crystal_size_mid          0.1
_exptl_crystal_size_min          0.1
_exptl_crystal_density_diffrn    0.865
_exptl_crystal_density_method    'not measured'
_exptl_crystal_F_000             5360
_exptl_special_details           
;
?
;

#----------------------------------------------------------------------------#
# ABSORPTION CORRECTION #
#----------------------------------------------------------------------------#

_exptl_absorpt_coefficient_mu    0.97
_exptl_absorpt_correction_type   none

#----------------------------------------------------------------------------#
# DATA COLLECTION #
#----------------------------------------------------------------------------#

_diffrn_ambient_temperature      120(2)
_diffrn_radiation_wavelength     0.71073
_diffrn_radiation_type           MoK\a
_diffrn_radiation_monochromator  graphite
_diffrn_radiation_probe          x-ray
_diffrn_reflns_av_R_equivalents  0.0463
_diffrn_reflns_av_unetI/netI     0.0613
_diffrn_reflns_number            11598
_diffrn_reflns_limit_h_min       -32
_diffrn_reflns_limit_h_max       32
_diffrn_reflns_limit_k_min       -22
_diffrn_reflns_limit_k_max       22
_diffrn_reflns_limit_l_min       -22
_diffrn_reflns_limit_l_max       22
_diffrn_reflns_theta_min         1.29
_diffrn_reflns_theta_max         25.03
_diffrn_reflns_theta_full        25.03
_diffrn_measured_fraction_theta_full 1
_diffrn_measured_fraction_theta_max 1
_reflns_number_total             6011
_reflns_number_gt                3797
_reflns_threshold_expression     >2sigma(I)

#----------------------------------------------------------------------------#
# COMPUTER PROGRAMS USED #
#----------------------------------------------------------------------------#

_computing_structure_solution    'SHELXS-97 (Sheldrick, 1997)'
_computing_structure_refinement  'SHELXL-97 (Sheldrick, 1997)'
_computing_molecular_graphics    'Ortep-3 for Windows (Farrugia, 1997)'
_computing_publication_material  'WinGX publication routines (Farrugia, 1999)'

#----------------------------------------------------------------------------#
# REFINEMENT INFORMATION #
#----------------------------------------------------------------------------#

_refine_special_details          
;
Refinement of F^2^ against ALL reflections. The weighted R-factor wR and
goodness of fit S are based on F^2^, conventional R-factors R are based
on F, with F set to zero for negative F^2^. The threshold expression of
F^2^ > 2sigma(F^2^) is used only for calculating R-factors(gt) etc. and is
not relevant to the choice of reflections for refinement. R-factors based
on F^2^ are statistically about twice as large as those based on F, and R-
factors based on ALL data will be even larger.
;
_refine_ls_structure_factor_coef Fsqd
_refine_ls_matrix_type           full
_refine_ls_weighting_scheme      calc
_refine_ls_weighting_details     
'calc w=1/[\s^2^(Fo^2^)+(0.1469P)^2^+0.0000P] where P=(Fo^2^+2Fc^2^)/3'
_atom_sites_solution_primary     direct
_atom_sites_solution_secondary   difmap
_atom_sites_solution_hydrogens   geom
_refine_ls_hydrogen_treatment    constr
_refine_ls_extinction_method     none
_refine_ls_number_reflns         6011
_refine_ls_number_parameters     256
_refine_ls_number_restraints     0
_refine_ls_R_factor_all          0.097
_refine_ls_R_factor_gt           0.0771
_refine_ls_wR_factor_ref         0.2187
_refine_ls_wR_factor_gt          0.209
_refine_ls_goodness_of_fit_ref   0.999
_refine_ls_restrained_S_all      0.999
_refine_ls_shift/su_max          0
_refine_ls_shift/su_mean         0
_refine_diff_density_max         4.17
_refine_diff_density_min         -1.125
_refine_diff_density_rms         0.181

#----------------------------------------------------------------------------#
# ATOMIC TYPES, COORDINATES AND THERMAL PARAMETERS #
#----------------------------------------------------------------------------#

loop_
_atom_type_symbol
_atom_type_description
_atom_type_scat_dispersion_real
_atom_type_scat_dispersion_imag
_atom_type_scat_source
C C 0.0033 0.0016 'International Tables Vol C Tables 4.2.6.8 and 6.1.1.4'
H H 0 0 'International Tables Vol C Tables 4.2.6.8 and 6.1.1.4'
N N 0.0061 0.0033 'International Tables Vol C Tables 4.2.6.8 and 6.1.1.4'
O O 0.0106 0.006 'International Tables Vol C Tables 4.2.6.8 and 6.1.1.4'
Zn Zn 0.2839 1.4301 'International Tables Vol C Tables 4.2.6.8 and 6.1.1.4'

loop_
_atom_site_label
_atom_site_type_symbol
_atom_site_fract_x
_atom_site_fract_y
_atom_site_fract_z
_atom_site_U_iso_or_equiv
_atom_site_adp_type
_atom_site_occupancy
_atom_site_symmetry_multiplicity
_atom_site_calc_flag
_atom_site_refinement_flags
_atom_site_disorder_assembly
_atom_site_disorder_group
O3 O 0.26426(13) 0.26819(13) 0.13849(12) 0.0331(9) Uani 1 1 d . . .
O1 O 0.25303(10) 0.25303(10) 0.25303(10) 0.0160(11) Uani 1 3 d S . .
C15 C 0.30120(17) 0.50569(19) 0.18527(19) 0.0286(12) Uani 1 1 d . . .
C14 C 0.28355(19) 0.45771(19) 0.19727(18) 0.0295(12) Uani 1 1 d . . .
H14 H 0.2502 0.4512 0.1954 0.035 Uiso 1 1 calc R . .
C13 C 0.31449(18) 0.42215(18) 0.21107(17) 0.0276(12) Uani 1 1 d . . .
C20 C 0.28737(18) 0.58928(18) 0.15971(19) 0.0310(12) Uani 1 1 d . . .
H20 H 0.266 0.6143 0.1509 0.037 Uiso 1 1 calc R . .
N2 N 0.35494(16) 0.64506(16) 0.14506(16) 0.0284(17) Uani 1 3 d S . .
C12 C 0.29538(17) 0.37312(18) 0.22533(18) 0.0242(11) Uani 1 1 d . . .
C18 C 0.36540(19) 0.43173(19) 0.21494(19) 0.0358(13) Uani 1 1 d . . .
H18 H 0.3866 0.4074 0.2259 0.043 Uiso 1 1 calc R . .
C21 C 0.33809(18) 0.59826(17) 0.16024(17) 0.0266(12) Uani 1 1 d . . .
C19 C 0.26905(19) 0.54404(17) 0.17205(19) 0.0314(12) Uani 1 1 d . . .
H19 H 0.2354 0.5387 0.1717 0.038 Uiso 1 1 calc R . .
C22 C 0.36921(19) 0.56113(18) 0.17331(19) 0.0349(13) Uani 1 1 d . . .
H22 H 0.4028 0.5667 0.173 0.042 Uiso 1 1 calc R . .
C17 C 0.38308(19) 0.47649(19) 0.2026(2) 0.0354(13) Uani 1 1 d . . .
H17 H 0.4166 0.4823 0.2042 0.042 Uiso 1 1 calc R . .
C16 C 0.35149(18) 0.51425(19) 0.18740(17) 0.0301(12) Uani 1 1 d . . .
O4 O 0.25399(13) 0.35986(13) 0.20872(13) 0.0376(9) Uani 1 1 d . . .
O5 O 0.32125(13) 0.34736(13) 0.25370(13) 0.0362(9) Uani 1 1 d . . .
Zn1 Zn 0.23288(2) 0.29185(2) 0.19780(2) 0.0230(2) Uani 1 1 d . . .
Zn2 Zn 0.29475(2) 0.29475(2) 0.29475(2) 0.0233(3) Uani 1 3 d S . .
O2 O 0.16186(13) 0.28744(13) 0.19300(12) 0.0317(9) Uani 1 1 d . . .
C7 C 0.30140(19) 0.25234(19) 0.04364(18) 0.0339(13) Uani 1 1 d . . .
H7 H 0.2936 0.2844 0.0523 0.041 Uiso 1 1 calc R . .
C2 C 0.29692(17) 0.21444(19) 0.07873(19) 0.0289(12) Uani 1 1 d . . .
C5 C 0.32737(18) 0.19346(18) -0.01661(19) 0.0295(12) Uani 1 1 d . . .
C1 C 0.28149(17) 0.22636(19) 0.12989(17) 0.0258(11) Uani 1 1 d . . .
C6 C 0.3169(2) 0.24241(19) -0.0022(2) 0.0368(13) Uani 1 1 d . . .
H6 H 0.3208 0.2678 -0.0246 0.044 Uiso 1 1 calc R . .
N1 N 0.37585(16) 0.12415(16) -0.12415(16) 0.0273(17) Uani 1 3 d S . .
C4 C 0.32129(18) 0.15510(18) 0.01761(18) 0.0298(12) Uani 1 1 d . . .
C3 C 0.30595(18) 0.16686(19) 0.0654(2) 0.0328(12) Uani 1 1 d . . .
H3 H 0.3019 0.142 0.0883 0.039 Uiso 1 1 calc R . .
C11 C 0.34473(18) 0.18145(19) -0.06444(18) 0.0326(13) Uani 1 1 d . . .
H11 H 0.3494 0.2063 -0.0872 0.039 Uiso 1 1 calc R . .
C10 C 0.35455(18) 0.13475(18) -0.07733(17) 0.0288(12) Uani 1 1 d . . .
C8 C 0.3303(2) 0.1071(2) 0.0026(2) 0.0430(15) Uani 1 1 d . . .
H8 H 0.3251 0.0817 0.0247 0.052 Uiso 1 1 calc R . .
C9 C 0.3464(2) 0.0963(2) -0.04326(19) 0.0389(14) Uani 1 1 d . . .
H9 H 0.352 0.0639 -0.0523 0.047 Uiso 1 1 calc R . .

loop_
_atom_site_aniso_label
_atom_site_aniso_U_11
_atom_site_aniso_U_22
_atom_site_aniso_U_33
_atom_site_aniso_U_23
_atom_site_aniso_U_13
_atom_site_aniso_U_12
O3 0.040(2) 0.040(2) 0.0187(19) -0.0025(16) 0.0028(16) 0.0048(17)
O1 0.0160(11) 0.0160(11) 0.0160(11) 0.0025(13) 0.0025(13) 0.0025(13)
C15 0.022(3) 0.037(3) 0.027(3) 0.002(2) -0.003(2) -0.002(2)
C14 0.025(3) 0.032(3) 0.032(3) 0.001(2) 0.003(2) -0.005(2)
C13 0.030(3) 0.026(3) 0.027(3) 0.006(2) 0.000(2) -0.003(2)
C20 0.030(3) 0.027(3) 0.036(3) 0.002(2) -0.006(2) -0.002(2)
N2 0.0284(17) 0.0284(17) 0.0284(17) 0.011(2) -0.011(2) -0.011(2)
C12 0.023(3) 0.024(3) 0.025(3) 0.002(2) 0.005(2) 0.002(2)
C18 0.031(3) 0.034(3) 0.042(3) 0.013(3) -0.006(3) -0.005(2)
C21 0.034(3) 0.024(3) 0.023(3) 0.003(2) -0.010(2) -0.012(2)
C19 0.025(3) 0.025(3) 0.043(3) 0.008(2) -0.004(2) -0.005(2)
C22 0.029(3) 0.031(3) 0.045(3) 0.002(2) -0.007(2) -0.012(2)
C17 0.022(3) 0.033(3) 0.051(4) 0.005(3) -0.006(2) -0.008(2)
C16 0.031(3) 0.036(3) 0.023(3) 0.004(2) -0.005(2) -0.001(2)
O4 0.034(2) 0.028(2) 0.051(2) 0.0099(17) -0.0017(18) 0.0003(17)
O5 0.034(2) 0.031(2) 0.044(2) 0.0083(18) -0.0025(17) -0.0059(17)
Zn1 0.0233(4) 0.0237(4) 0.0220(3) 0.0012(2) 0.0002(2) 0.0016(2)
Zn2 0.0233(3) 0.0233(3) 0.0233(3) 0.0006(2) 0.0006(2) 0.0006(2)
O2 0.028(2) 0.042(2) 0.0243(19) 0.0005(16) -0.0014(16) 0.0080(16)
C7 0.041(3) 0.032(3) 0.029(3) -0.006(2) 0.009(2) -0.004(2)
C2 0.024(3) 0.035(3) 0.027(3) -0.008(2) 0.010(2) -0.002(2)
C5 0.025(3) 0.027(3) 0.037(3) -0.010(2) 0.003(2) -0.003(2)
C1 0.022(3) 0.037(3) 0.019(3) -0.007(2) -0.006(2) 0.004(2)
C6 0.049(4) 0.027(3) 0.035(3) 0.005(2) 0.002(3) -0.006(3)
N1 0.0273(17) 0.0273(17) 0.0273(17) -0.018(2) 0.018(2) -0.018(2)
C4 0.029(3) 0.025(3) 0.036(3) -0.001(2) 0.009(2) -0.006(2)
C3 0.033(3) 0.030(3) 0.035(3) 0.003(2) 0.006(2) -0.007(2)
C11 0.036(3) 0.034(3) 0.028(3) -0.005(2) 0.004(2) -0.008(2)
C10 0.026(3) 0.030(3) 0.030(3) -0.018(2) 0.007(2) -0.008(2)
C8 0.057(4) 0.037(3) 0.035(3) 0.006(3) 0.008(3) -0.008(3)
C9 0.047(4) 0.037(3) 0.033(3) -0.010(3) 0.010(3) -0.006(3)


#----------------------------------------------------------------------------#
# MOLECULAR GEOMETRY #
#----------------------------------------------------------------------------#

_geom_special_details            
;
All esds (except the esd in the dihedral angle between two l.s. planes)
are estimated using the full covariance matrix. The cell esds are taken
into account individually in the estimation of esds in distances, angles
and torsion angles; correlations between esds in cell parameters are only
used when they are defined by crystal symmetry. An approximate (isotropic)
treatment of cell esds is used for estimating esds involving l.s. planes.
;
loop_
_geom_bond_atom_site_label_1
_geom_bond_atom_site_label_2
_geom_bond_distance
_geom_bond_site_symmetry_2
_geom_bond_publ_flag
O3 C1 1.258(6) . ?
O3 Zn1 1.943(3) . ?
O1 Zn1 1.9238(15) 5 ?
O1 Zn1 1.9238(15) . ?
O1 Zn1 1.9238(15) 9 ?
O1 Zn2 1.974(5) . ?
C15 C16 1.394(7) . ?
C15 C19 1.414(7) . ?
C15 C14 1.434(7) . ?
C14 C13 1.341(7) . ?
C13 C18 1.419(7) . ?
C13 C12 1.489(7) . ?
C20 C19 1.375(7) . ?
C20 C21 1.407(7) . ?
N2 C21 1.420(5) 8_655 ?
N2 C21 1.420(5) 11_564 ?
N2 C21 1.420(5) . ?
C12 O5 1.263(6) . ?
C12 O4 1.271(6) . ?
C18 C17 1.357(7) . ?
C21 C22 1.370(7) . ?
C22 C16 1.422(7) . ?
C17 C16 1.407(7) . ?
O4 Zn1 1.968(4) . ?
O5 Zn2 1.961(3) . ?
Zn1 O2 1.948(4) . ?
Zn1 Zn2 3.1417(9) . ?
Zn2 O5 1.961(3) 5 ?
Zn2 O5 1.961(3) 9 ?
Zn2 Zn1 3.1417(9) 5 ?
Zn2 Zn1 3.1417(9) 9 ?
O2 C1 1.272(6) 9 ?
C7 C6 1.349(7) . ?
C7 C2 1.416(7) . ?
C2 C3 1.372(7) . ?
C2 C1 1.495(7) . ?
C5 C4 1.414(7) . ?
C5 C6 1.422(7) . ?
C5 C11 1.428(7) . ?
C1 O2 1.272(6) 5 ?
N1 C10 1.434(5) 6_554 ?
N1 C10 1.434(5) 12 ?
N1 C10 1.434(5) . ?
C4 C8 1.395(7) . ?
C4 C3 1.408(7) . ?
C11 C10 1.350(7) . ?
C10 C9 1.421(7) . ?
C8 C9 1.360(7) . ?

loop_
_geom_angle_atom_site_label_1
_geom_angle_atom_site_label_2
_geom_angle_atom_site_label_3
_geom_angle
_geom_angle_site_symmetry_1
_geom_angle_site_symmetry_3
_geom_angle_publ_flag
C1 O3 Zn1 128.5(3) . . ?
Zn1 O1 Zn1 111.43(13) 5 . ?
Zn1 O1 Zn1 111.43(13) 5 9 ?
Zn1 O1 Zn1 111.43(13) . 9 ?
Zn1 O1 Zn2 107.43(14) 5 . ?
Zn1 O1 Zn2 107.43(14) . . ?
Zn1 O1 Zn2 107.43(14) 9 . ?
C16 C15 C19 119.9(5) . . ?
C16 C15 C14 118.3(5) . . ?
C19 C15 C14 121.8(4) . . ?
C13 C14 C15 120.9(5) . . ?
C14 C13 C18 120.3(5) . . ?
C14 C13 C12 120.2(5) . . ?
C18 C13 C12 119.3(4) . . ?
C19 C20 C21 120.8(5) . . ?
C21 N2 C21 117.4(2) 8_655 11_564 ?
C21 N2 C21 117.4(2) 8_655 . ?
C21 N2 C21 117.4(2) 11_564 . ?
O5 C12 O4 123.9(5) . . ?
O5 C12 C13 117.7(4) . . ?
O4 C12 C13 118.3(4) . . ?
C17 C18 C13 119.8(5) . . ?
C22 C21 C20 119.0(4) . . ?
C22 C21 N2 122.8(5) . . ?
C20 C21 N2 118.2(4) . . ?
C20 C19 C15 120.1(5) . . ?
C21 C22 C16 121.7(5) . . ?
C18 C17 C16 121.0(5) . . ?
C15 C16 C17 119.6(5) . . ?
C15 C16 C22 118.4(5) . . ?
C17 C16 C22 122.1(5) . . ?
C12 O4 Zn1 125.7(3) . . ?
C12 O5 Zn2 123.5(3) . . ?
O1 Zn1 O3 110.13(12) . . ?
O1 Zn1 O2 107.66(13) . . ?
O3 Zn1 O2 111.25(14) . . ?
O1 Zn1 O4 108.53(17) . . ?
O3 Zn1 O4 108.12(15) . . ?
O2 Zn1 O4 111.12(15) . . ?
O1 Zn1 Zn2 36.82(14) . . ?
O3 Zn1 Zn2 118.28(10) . . ?
O2 Zn1 Zn2 126.43(10) . . ?
O4 Zn1 Zn2 72.00(10) . . ?
O5 Zn2 O5 111.07(10) 5 . ?
O5 Zn2 O5 111.07(10) 5 9 ?
O5 Zn2 O5 111.07(10) . 9 ?
O5 Zn2 O1 107.82(11) 5 . ?
O5 Zn2 O1 107.82(11) . . ?
O5 Zn2 O1 107.82(11) 9 . ?
O5 Zn2 Zn1 74.64(10) 5 5 ?
O5 Zn2 Zn1 108.63(11) . 5 ?
O5 Zn2 Zn1 133.68(11) 9 5 ?
O1 Zn2 Zn1 35.749(14) . 5 ?
O5 Zn2 Zn1 133.68(11) 5 . ?
O5 Zn2 Zn1 74.64(10) . . ?
O5 Zn2 Zn1 108.63(11) 9 . ?
O1 Zn2 Zn1 35.749(14) . . ?
Zn1 Zn2 Zn1 60.79(2) 5 . ?
O5 Zn2 Zn1 108.63(11) 5 9 ?
O5 Zn2 Zn1 133.68(11) . 9 ?
O5 Zn2 Zn1 74.64(10) 9 9 ?
O1 Zn2 Zn1 35.749(14) . 9 ?
Zn1 Zn2 Zn1 60.79(2) 5 9 ?
Zn1 Zn2 Zn1 60.79(2) . 9 ?
C1 O2 Zn1 130.0(3) 9 . ?
C6 C7 C2 120.5(5) . . ?
C3 C2 C7 119.8(5) . . ?
C3 C2 C1 120.3(5) . . ?
C7 C2 C1 119.8(5) . . ?
C4 C5 C6 119.3(5) . . ?
C4 C5 C11 118.3(5) . . ?
C6 C5 C11 122.4(5) . . ?
O3 C1 O2 124.8(4) . 5 ?
O3 C1 C2 118.5(5) . . ?
O2 C1 C2 116.7(4) 5 . ?
C7 C6 C5 120.6(5) . . ?
C10 N1 C10 117.4(2) 6_554 12 ?
C10 N1 C10 117.4(2) 6_554 . ?
C10 N1 C10 117.4(2) 12 . ?
C8 C4 C3 122.6(5) . . ?
C8 C4 C5 118.8(5) . . ?
C3 C4 C5 118.6(5) . . ?
C2 C3 C4 121.0(5) . . ?
C10 C11 C5 121.4(5) . . ?
C11 C10 C9 119.7(4) . . ?
C11 C10 N1 120.2(5) . . ?
C9 C10 N1 119.9(5) . . ?
C9 C8 C4 122.1(5) . . ?
C8 C9 C10 119.6(5) . . ?

loop_
_geom_torsion_atom_site_label_1
_geom_torsion_atom_site_label_2
_geom_torsion_atom_site_label_3
_geom_torsion_atom_site_label_4
_geom_torsion
_geom_torsion_site_symmetry_1
_geom_torsion_site_symmetry_2
_geom_torsion_site_symmetry_3
_geom_torsion_site_symmetry_4
_geom_torsion_publ_flag
C9 C10 N1 C10 -54.7(5) . . . 6_556 ?
C20 C21 N2 C21 -54.2(9) . . . 11_564 ?

# SQUEEZE RESULTS (APPEND TO CIF)
# Note: Data are Listed for all Voids in the P1 Unit Cell
# i.e. Centre of Gravity, Solvent Accessible Volume,
# Recovered number of Electrons in the Void and
# Details about the Squeezed Material
loop_
_platon_squeeze_void_nr
_platon_squeeze_void_average_x
_platon_squeeze_void_average_y
_platon_squeeze_void_average_z
_platon_squeeze_void_volume
_platon_squeeze_void_count_electrons
_platon_squeeze_void_content
1 -0.002 -0.012 -0.001 11438 6116 ' '
_platon_squeeze_details          
;
;


