
#######################################################################
#
#                 Cambridge Crystallographic Data Centre
#                                CCDC
#
#######################################################################
#
# If this CIF has been generated from an entry in the Cambridge
# Structural Database, then it will include bibliographic, chemical,
# crystal, experimental, refinement or atomic coordinate data resulting
# from the CCDC's data processing and validation procedures.
#
#######################################################################

data_CSD_CIF_DIRYUY
_audit_creation_date 1986-11-20
_audit_creation_method CSD-ConQuest-V1
_database_code_CSD DIRYUY
_database_code_depnum_ccdc_archive 'CCDC 1141621'
_chemical_formula_sum 'C12 H28 I2 O6 Sm1'
_chemical_formula_moiety
;
C12 H28 I2 O6 Sm1
;
_journal_coden_Cambridge 9
_journal_volume 24
_journal_year 1985
_journal_page_first 3082
_journal_name_full 'Inorg.Chem. '
loop_
_publ_author_name
"V.Chebolu"
"R.R.Whittle"
"A.Sen"
_chemical_name_systematic
;
trans-bis(2,5,8-Trioxanonane-O,O',O'')-di-iodo-samarium(ii)
;
_chemical_name_common
;
bis(Diglyme-O,O',O'')-di-iodo-samarium(ii); Teaching Subset: Fundamental 
Chemistry
;
_cell_volume   1071.186
_exptl_crystal_colour 'dark brown'
_exptl_crystal_density_diffrn 2.084
_exptl_special_details
;
In Bond Table, O2-C5 should read O3-C5

;
_diffrn_ambient_temperature ?
_diffrn_special_details
;
The study was carried out at room temperature,in the range 283-303K

;
#These two values have been output from a single CSD field.
_refine_ls_R_factor_gt 0.037
_refine_ls_wR_factor_gt 0.037
loop_
_citation_database_id_CSD
_citation_special_details
FIRTIJ "is a stereoisomer of this entry"
_symmetry_cell_setting monoclinic
_symmetry_space_group_name_H-M 'P 21/n'
_symmetry_Int_Tables_number 14
loop_
_symmetry_equiv_pos_site_id
_symmetry_equiv_pos_as_xyz
1 x,y,z
2 1/2-x,1/2+y,1/2-z
3 -x,-y,-z
4 -1/2+x,-1/2-y,-1/2+z
_cell_length_a 8.674(1)
_cell_length_b 9.726(3)
_cell_length_c 13.086(3)
_cell_angle_alpha 90
_cell_angle_beta 104.0(3)
_cell_angle_gamma 90
_cell_formula_units_Z 2
loop_
_atom_type_symbol
_atom_type_radius_bond
C 0.68
H 0.27
I 1.40
O 0.68
Sm 1.80
loop_
_atom_site_label
_atom_site_type_symbol
_atom_site_fract_x
_atom_site_fract_y
_atom_site_fract_z
Sm1 Sm 0.00000 0.00000 0.00000
I1 I 0.19296(7) 0.27325(5) -0.04404(4)
O1 O -0.1994(6) 0.1836(6) 0.0584(4)
O2 O 0.0120(6) 0.0463(6) 0.2033(4)
O3 O 0.2669(6) -0.0473(6) 0.1516(4)
C1 C -0.258(1) 0.301(1) -0.001(1)
C2 C -0.202(1) 0.1949(9) 0.1677(7)
C3 C -0.1415(9) 0.0668(9) 0.2209(6)
C4 C 0.101(1) -0.058(1) 0.2678(5)
C5 C 0.267(1) -0.040(1) 0.2587(8)
C6 C 0.423(1) -0.019(1) 0.135(1)
H1 H -0.301(7) 0.337(7) -0.054(5)
H2 H -0.187(7) 0.376(6) 0.038(5)
H3 H -0.396(8) 0.292(7) 0.027(5)
H4 H -0.326(8) 0.239(7) 0.168(5)
H5 H -0.133(9) 0.260(7) 0.211(5)
H6 H -0.108(8) 0.098(7) 0.319(5)
H7 H -0.207(9) -0.010(7) 0.199(6)
H8 H 0.046(8) -0.182(7) 0.239(5)
H9 H 0.106(8) -0.070(7) 0.329(5)
H10 H 0.315(9) 0.014(7) 0.298(6)
H11 H 0.323(8) -0.123(6) 0.293(5)
H12 H 0.505(8) -0.103(7) 0.146(5)
H13 H 0.463(9) 0.030(7) 0.207(5)
H14 H 0.417(9) 0.002(7) 0.062(6)
I1B I -0.19296(7) -0.27325(5) 0.04404(4)
O1B O 0.1994(6) -0.1836(6) -0.0584(4)
O2B O -0.0120(6) -0.0463(6) -0.2033(4)
O3B O -0.2669(6) 0.0473(6) -0.1516(4)
C1B C 0.258(1) -0.301(1) 0.001(1)
C2B C 0.202(1) -0.1949(9) -0.1677(7)
C3B C 0.1415(9) -0.0668(9) -0.2209(6)
C4B C -0.101(1) 0.058(1) -0.2678(5)
C5B C -0.267(1) 0.040(1) -0.2587(8)
C6B C -0.423(1) 0.019(1) -0.135(1)
H1B H 0.301(7) -0.337(7) 0.054(5)
H2B H 0.187(7) -0.376(6) -0.038(5)
H3B H 0.396(8) -0.292(7) -0.027(5)
H4B H 0.326(8) -0.239(7) -0.168(5)
H5B H 0.133(9) -0.260(7) -0.211(5)
H6B H 0.108(8) -0.098(7) -0.319(5)
H7B H 0.207(9) 0.010(7) -0.199(6)
H8B H -0.046(8) 0.182(7) -0.239(5)
H9B H -0.106(8) 0.070(7) -0.329(5)
H10B H -0.315(9) -0.014(7) -0.298(6)
H11B H -0.323(8) 0.123(6) -0.293(5)
H12B H -0.505(8) 0.103(7) -0.146(5)
H13B H -0.463(9) -0.030(7) -0.207(5)
H14B H -0.417(9) -0.002(7) -0.062(6)
#END
