####################################################################### 
# 
# This file contains crystal structure data downloaded from the 
# Cambridge Structural Database (CSD) hosted by the Cambridge 
# Crystallographic Data Centre (CCDC).
# 
# Full information about CCDC data access policies and citation 
# guidelines are available at http://www.ccdc.cam.ac.uk/access/V1 
# 
# Audit and citation data items may have been added by the CCDC. 
# Please retain this information to preserve the provenance of 
# this file and to allow appropriate attribution of the data. 
# 
#######################################################################

data_i4m_sq
_audit_block_doi                 10.5517/cc113dbw
_database_code_depnum_ccdc_archive 'CCDC 956577'
loop_
_citation_id
_citation_doi
_citation_year
1 10.1002/anie.201307340 2014
_audit_update_record             
;
2013-08-19 deposited with the CCDC.	2024-07-09 downloaded from the CCDC.
;

_audit_creation_method           SHELXL-97
_chemical_name_systematic        
; 
 ? 
;
_chemical_name_common            ?
_chemical_melting_point          ?
_chemical_formula_moiety         '(Zr6 O8) O8 (C53 H32 O8)2'
_chemical_formula_sum            'C106 H64 O32 Zr6'
_chemical_formula_weight         2396.89

loop_
_atom_type_symbol
_atom_type_description
_atom_type_scat_dispersion_real
_atom_type_scat_dispersion_imag
_atom_type_scat_source
C C 0.0033 0.0016 'International Tables Vol C Tables 4.2.6.8 and 6.1.1.4'
H H 0.0000 0.0000 'International Tables Vol C Tables 4.2.6.8 and 6.1.1.4'
O O 0.0106 0.0060 'International Tables Vol C Tables 4.2.6.8 and 6.1.1.4'
Zr Zr -2.9673 0.5597 'International Tables Vol C Tables 4.2.6.8 and 6.1.1.4'

_symmetry_cell_setting           Tetragonal
_symmetry_space_group_name_H-M   I4/m

loop_
_symmetry_equiv_pos_as_xyz
'x, y, z'
'-y, x, z'
'-x, -y, z'
'y, -x, z'
'x+1/2, y+1/2, z+1/2'
'-y+1/2, x+1/2, z+1/2'
'-x+1/2, -y+1/2, z+1/2'
'y+1/2, -x+1/2, z+1/2'
'-x, -y, -z'
'y, -x, -z'
'x, y, -z'
'-y, x, -z'
'-x+1/2, -y+1/2, -z+1/2'
'y+1/2, -x+1/2, -z+1/2'
'x+1/2, y+1/2, -z+1/2'
'-y+1/2, x+1/2, -z+1/2'

_cell_length_a                   19.936(4)
_cell_length_b                   19.936(4)
_cell_length_c                   42.251(8)
_cell_angle_alpha                90.00
_cell_angle_beta                 90.00
_cell_angle_gamma                90.00
_cell_volume                     16792(6)
_cell_formula_units_Z            2
_cell_measurement_temperature    110(2)
_cell_measurement_reflns_used    5691
_cell_measurement_theta_min      2.2592
_cell_measurement_theta_max      19.6596

_exptl_crystal_description       'Distorted Octahedron'
_exptl_crystal_colour            transparent
_exptl_crystal_size_max          0.50
_exptl_crystal_size_mid          0.35
_exptl_crystal_size_min          0.35
_exptl_crystal_density_meas      'not measured'
_exptl_crystal_density_diffrn    0.474
_exptl_crystal_density_method    'not measured'
_exptl_crystal_F_000             2392
_exptl_absorpt_coefficient_mu    0.204
_exptl_absorpt_correction_type   multi-scan
_exptl_absorpt_correction_T_min  0.9049
_exptl_absorpt_correction_T_max  0.9321
_exptl_absorpt_process_details   'SADABS (Sheldrick, 2008)'

_exptl_special_details           
; 
 ? 
;

_diffrn_ambient_temperature      110(2)
_diffrn_radiation_wavelength     0.71073
_diffrn_radiation_type           MoK\a
_diffrn_radiation_source         'fine-focus sealed tube'
_diffrn_radiation_monochromator  graphite
_diffrn_measurement_device_type  'Bruker SMART APEX II CCD area detector'
_diffrn_measurement_method       'phi and omega scans'
_diffrn_detector_area_resol_mean ?
_diffrn_reflns_number            87257
_diffrn_reflns_av_R_equivalents  0.1048
_diffrn_reflns_av_sigmaI/netI    0.0853
_diffrn_reflns_limit_h_min       -24
_diffrn_reflns_limit_h_max       24
_diffrn_reflns_limit_k_min       -24
_diffrn_reflns_limit_k_max       24
_diffrn_reflns_limit_l_min       -52
_diffrn_reflns_limit_l_max       52
_diffrn_reflns_theta_min         1.44
_diffrn_reflns_theta_max         26.00
_reflns_number_total             8387
_reflns_number_gt                3298
_reflns_threshold_expression     >2sigma(I)

_computing_data_collection       'APEX2  (Bruker, 2008)'
_computing_cell_refinement       'SAINT+ ver. (Bruker, 2001)'
_computing_data_reduction        'SAINT+ ver. (Bruker, 2001)'
_computing_structure_solution    'SHELXS-97 (Sheldrick, 2008)'
_computing_structure_refinement  'SHELXL-97 (Sheldrick, 2008)'
_computing_molecular_graphics    'SHELXTL (Sheldrick, 2008)'
_computing_publication_material  'SHELXTL (Sheldrick, 2008)'

_refine_special_details          
; 
 Refinement of F^2^ against ALL reflections.  The weighted R-factor wR and 
 goodness of fit S are based on F^2^, conventional R-factors R are based 
 on F, with F set to zero for negative F^2^. The threshold expression of 
 F^2^ > 2sigma(F^2^) is used only for calculating R-factors(gt) etc. and is 
 not relevant to the choice of reflections for refinement.  R-factors based 
 on F^2^ are statistically about twice as large as those based on F, and R- 
 factors based on ALL data will be even larger. 
;

_refine_ls_structure_factor_coef Fsqd
_refine_ls_matrix_type           full
_refine_ls_weighting_scheme      calc
_refine_ls_weighting_details     
'calc w=1/[\s^2^(Fo^2^)+(0.0300P)^2^+96.0000P] where P=(Fo^2^+2Fc^2^)/3'
_atom_sites_solution_primary     direct
_atom_sites_solution_secondary   difmap
_atom_sites_solution_hydrogens   geom
_refine_ls_hydrogen_treatment    constr
_refine_ls_extinction_method     none
_refine_ls_extinction_coef       ?
_refine_ls_number_reflns         8387
_refine_ls_number_parameters     70
_refine_ls_number_restraints     4
_refine_ls_R_factor_all          0.2058
_refine_ls_R_factor_gt           0.1002
_refine_ls_wR_factor_ref         0.2489
_refine_ls_wR_factor_gt          0.2282
_refine_ls_goodness_of_fit_ref   1.003
_refine_ls_restrained_S_all      1.003
_refine_ls_shift/su_max          0.000
_refine_ls_shift/su_mean         0.000

loop_
_atom_site_label
_atom_site_type_symbol
_atom_site_fract_x
_atom_site_fract_y
_atom_site_fract_z
_atom_site_U_iso_or_equiv
_atom_site_adp_type
_atom_site_occupancy
_atom_site_symmetry_multiplicity
_atom_site_calc_flag
_atom_site_refinement_flags
_atom_site_disorder_assembly
_atom_site_disorder_group
Zr1 Zr 0.0000 0.0000 0.05781(2) 0.0856(5) Uani 1 4 d S . .
Zr2 Zr 0.00084(8) 0.12513(6) 0.0000 0.1209(6) Uani 1 2 d S . .
O1 O 0.0008(3) 0.0924(3) 0.08443(8) 0.1070(17) Uani 1 1 d . . .
O2 O -0.0785(6) 0.2005(5) 0.0000 0.200(5) Uani 1 2 d S . .
O3 O 0.0031(4) 0.1762(3) 0.04792(9) 0.156(3) Uani 1 1 d . . .
O4 O 0.0909(6) 0.1934(5) 0.0000 0.189(5) Uani 1 2 d S . .
O5 O -0.0645(3) 0.0635(3) 0.02831(10) 0.1302(19) Uani 1 1 d . . .
C1 C -0.0008(7) 0.1516(6) 0.07725(18) 0.1903(16) Uani 1 1 d . . .
C2 C 0.0037(4) 0.2026(3) 0.10251(9) 0.1903(16) Uani 1 1 d G . .
C3 C -0.0080(4) 0.1804(2) 0.13321(12) 0.1903(16) Uani 1 1 d G . .
H3A H -0.0183 0.1345 0.1370 0.228 Uiso 1 1 calc R . .
C4 C -0.0045(4) 0.2252(3) 0.15836(8) 0.1903(16) Uani 1 1 d G . .
H4A H -0.0125 0.2100 0.1793 0.228 Uiso 1 1 calc R . .
C5 C 0.0106(4) 0.2922(3) 0.15281(9) 0.1903(16) Uani 1 1 d G . .
C6 C 0.0223(4) 0.3144(2) 0.12212(12) 0.1903(16) Uani 1 1 d G . .
H6A H 0.0326 0.3603 0.1183 0.228 Uiso 1 1 calc R . .
C7 C 0.0188(4) 0.2696(3) 0.09697(8) 0.1903(16) Uani 1 1 d G . .
H7A H 0.0268 0.2848 0.0760 0.228 Uiso 1 1 calc R . .
C8 C 0.0117(4) 0.3420(2) 0.18031(8) 0.1903(16) Uani 1 1 d GD . .
C9 C -0.0423(4) 0.3416(3) 0.20112(10) 0.1903(16) Uani 1 1 d GD . .
H9A H -0.0752 0.3073 0.1997 0.228 Uiso 1 1 calc R . .
C10 C -0.0481(3) 0.3915(3) 0.22394(9) 0.1903(16) Uani 1 1 d GD . .
H10A H -0.0851 0.3913 0.2382 0.228 Uiso 1 1 calc R . .
C11 C 0.0000(3) 0.4417(2) 0.22596(7) 0.1903(16) Uani 1 1 d GD . .
C12 C 0.0540(3) 0.4421(2) 0.20516(11) 0.1903(16) Uani 1 1 d GD . .
H12A H 0.0870 0.4764 0.2065 0.228 Uiso 1 1 calc R . .
C13 C 0.0599(3) 0.3922(3) 0.18233(10) 0.1903(16) Uani 1 1 d GD . .
H13A H 0.0968 0.3925 0.1681 0.228 Uiso 1 1 calc R . .
C14 C 0.0000 0.5000 0.2500 0.1903(16) Uani 1 4 d SD . .

loop_
_atom_site_aniso_label
_atom_site_aniso_U_11
_atom_site_aniso_U_22
_atom_site_aniso_U_33
_atom_site_aniso_U_23
_atom_site_aniso_U_13
_atom_site_aniso_U_12
Zr1 0.1148(8) 0.1148(8) 0.0273(5) 0.000 0.000 0.000
Zr2 0.2168(15) 0.1167(10) 0.0293(4) 0.000 0.000 0.0021(9)
O1 0.182(5) 0.102(4) 0.037(2) -0.003(2) 0.003(3) -0.001(4)
O2 0.372(15) 0.157(8) 0.072(5) 0.000 0.000 0.150(9)
O3 0.308(8) 0.127(5) 0.033(2) -0.002(3) 0.013(3) -0.003(5)
O4 0.354(14) 0.160(8) 0.052(4) 0.000 0.000 -0.112(9)
O5 0.177(6) 0.155(5) 0.059(3) 0.025(3) -0.029(3) 0.006(4)
C1 0.374(5) 0.145(3) 0.0521(12) -0.0244(15) 0.018(2) -0.028(3)
C2 0.374(5) 0.145(3) 0.0521(12) -0.0244(15) 0.018(2) -0.028(3)
C3 0.374(5) 0.145(3) 0.0521(12) -0.0244(15) 0.018(2) -0.028(3)
C4 0.374(5) 0.145(3) 0.0521(12) -0.0244(15) 0.018(2) -0.028(3)
C5 0.374(5) 0.145(3) 0.0521(12) -0.0244(15) 0.018(2) -0.028(3)
C6 0.374(5) 0.145(3) 0.0521(12) -0.0244(15) 0.018(2) -0.028(3)
C7 0.374(5) 0.145(3) 0.0521(12) -0.0244(15) 0.018(2) -0.028(3)
C8 0.374(5) 0.145(3) 0.0521(12) -0.0244(15) 0.018(2) -0.028(3)
C9 0.374(5) 0.145(3) 0.0521(12) -0.0244(15) 0.018(2) -0.028(3)
C10 0.374(5) 0.145(3) 0.0521(12) -0.0244(15) 0.018(2) -0.028(3)
C11 0.374(5) 0.145(3) 0.0521(12) -0.0244(15) 0.018(2) -0.028(3)
C12 0.374(5) 0.145(3) 0.0521(12) -0.0244(15) 0.018(2) -0.028(3)
C13 0.374(5) 0.145(3) 0.0521(12) -0.0244(15) 0.018(2) -0.028(3)
C14 0.374(5) 0.145(3) 0.0521(12) -0.0244(15) 0.018(2) -0.028(3)

_geom_special_details            
; 
 All esds (except the esd in the dihedral angle between two l.s. planes) 
 are estimated using the full covariance matrix.  The cell esds are taken 
 into account individually in the estimation of esds in distances, angles 
 and torsion angles; correlations between esds in cell parameters are only 
 used when they are defined by crystal symmetry.  An approximate (isotropic) 
 treatment of cell esds is used for estimating esds involving l.s. planes. 
;

loop_
_geom_bond_atom_site_label_1
_geom_bond_atom_site_label_2
_geom_bond_distance
_geom_bond_site_symmetry_2
_geom_bond_publ_flag
Zr1 O5 2.193(5) 2 ?
Zr1 O5 2.193(5) 4 ?
Zr1 O5 2.193(5) 3 ?
Zr1 O5 2.193(5) . ?
Zr1 O1 2.158(5) . ?
Zr1 O1 2.158(5) 4 ?
Zr1 O1 2.158(5) 2 ?
Zr1 O1 2.158(5) 3 ?
Zr1 Zr2 3.4913(12) . ?
Zr1 Zr2 3.4913(12) 2 ?
Zr1 Zr2 3.4913(12) 9 ?
Zr1 Zr2 3.4913(12) 10 ?
Zr2 O5 2.110(5) 4 ?
Zr2 O5 2.110(5) 10 ?
Zr2 O2 2.182(9) . ?
Zr2 O5 2.153(6) 11 ?
Zr2 O5 2.153(6) . ?
Zr2 O4 2.253(9) . ?
Zr2 O3 2.267(4) . ?
Zr2 O3 2.267(4) 11 ?
Zr2 Zr1 3.4914(12) 9 ?
Zr2 Zr2 3.5278(18) 2 ?
Zr2 Zr2 3.5279(18) 10 ?
O1 C1 1.220(11) . ?
O3 C1 1.335(9) . ?
O5 Zr2 2.110(5) 2 ?
C1 C2 1.477(9) . ?
C2 C3 1.3900 . ?
C2 C7 1.3900 . ?
C3 C4 1.3900 . ?
C3 H3A 0.9500 . ?
C4 C5 1.3900 . ?
C4 H4A 0.9500 . ?
C5 C6 1.3900 . ?
C5 C8 1.528(5) . ?
C6 C7 1.3900 . ?
C6 H6A 0.9500 . ?
C7 H7A 0.9500 . ?
C8 C9 1.3900 . ?
C8 C13 1.3900 . ?
C9 C10 1.3900 . ?
C9 H9A 0.9500 . ?
C10 C11 1.3900 . ?
C10 H10A 0.9500 . ?
C11 C12 1.3900 . ?
C11 C14 1.543(4) . ?
C12 C13 1.3900 . ?
C12 H12A 0.9500 . ?
C13 H13A 0.9500 . ?
C14 C11 1.543(4) 16 ?
C14 C11 1.543(4) 3_565 ?
C14 C11 1.543(6) 14_455 ?

loop_
_geom_angle_atom_site_label_1
_geom_angle_atom_site_label_2
_geom_angle_atom_site_label_3
_geom_angle
_geom_angle_site_symmetry_1
_geom_angle_site_symmetry_3
_geom_angle_publ_flag
O5 Zr1 O5 110.7(3) 2 4 ?
O5 Zr1 O5 71.15(14) 2 3 ?
O5 Zr1 O5 71.15(14) 4 3 ?
O5 Zr1 O5 71.15(14) 2 . ?
O5 Zr1 O5 71.15(14) 4 . ?
O5 Zr1 O5 110.7(3) 3 . ?
O5 Zr1 O1 143.2(2) 2 . ?
O5 Zr1 O1 78.00(19) 4 . ?
O5 Zr1 O1 141.7(2) 3 . ?
O5 Zr1 O1 78.92(18) . . ?
O5 Zr1 O1 141.7(2) 2 4 ?
O5 Zr1 O1 78.92(18) 4 4 ?
O5 Zr1 O1 78.00(19) 3 4 ?
O5 Zr1 O1 143.2(2) . 4 ?
O1 Zr1 O1 74.23(10) . 4 ?
O5 Zr1 O1 78.92(18) 2 2 ?
O5 Zr1 O1 141.7(2) 4 2 ?
O5 Zr1 O1 143.2(2) 3 2 ?
O5 Zr1 O1 78.00(19) . 2 ?
O1 Zr1 O1 74.23(10) . 2 ?
O1 Zr1 O1 117.2(2) 4 2 ?
O5 Zr1 O1 78.00(19) 2 3 ?
O5 Zr1 O1 143.2(2) 4 3 ?
O5 Zr1 O1 78.92(18) 3 3 ?
O5 Zr1 O1 141.7(2) . 3 ?
O1 Zr1 O1 117.2(2) . 3 ?
O1 Zr1 O1 74.23(10) 4 3 ?
O1 Zr1 O1 74.23(10) 2 3 ?
O5 Zr1 Zr2 91.37(15) 2 . ?
O5 Zr1 Zr2 34.99(15) 4 . ?
O5 Zr1 Zr2 90.69(14) 3 . ?
O5 Zr1 Zr2 36.16(15) . . ?
O1 Zr1 Zr2 75.82(11) . . ?
O1 Zr1 Zr2 111.45(14) 4 . ?
O1 Zr1 Zr2 111.34(14) 2 . ?
O1 Zr1 Zr2 167.03(12) 3 . ?
O5 Zr1 Zr2 36.16(15) 2 2 ?
O5 Zr1 Zr2 90.69(14) 4 2 ?
O5 Zr1 Zr2 91.37(15) 3 2 ?
O5 Zr1 Zr2 34.99(15) . 2 ?
O1 Zr1 Zr2 111.45(14) . 2 ?
O1 Zr1 Zr2 167.03(12) 4 2 ?
O1 Zr1 Zr2 75.82(11) 2 2 ?
O1 Zr1 Zr2 111.34(14) 3 2 ?
Zr2 Zr1 Zr2 60.69(2) . 2 ?
O5 Zr1 Zr2 34.99(15) 2 9 ?
O5 Zr1 Zr2 91.37(15) 4 9 ?
O5 Zr1 Zr2 36.16(15) 3 9 ?
O5 Zr1 Zr2 90.69(14) . 9 ?
O1 Zr1 Zr2 167.02(12) . 9 ?
O1 Zr1 Zr2 111.34(14) 4 9 ?
O1 Zr1 Zr2 111.45(14) 2 9 ?
O1 Zr1 Zr2 75.82(11) 3 9 ?
Zr2 Zr1 Zr2 91.21(4) . 9 ?
Zr2 Zr1 Zr2 60.69(2) 2 9 ?
O5 Zr1 Zr2 90.69(14) 2 10 ?
O5 Zr1 Zr2 36.16(15) 4 10 ?
O5 Zr1 Zr2 34.99(15) 3 10 ?
O5 Zr1 Zr2 91.37(15) . 10 ?
O1 Zr1 Zr2 111.33(14) . 10 ?
O1 Zr1 Zr2 75.82(11) 4 10 ?
O1 Zr1 Zr2 167.03(12) 2 10 ?
O1 Zr1 Zr2 111.45(14) 3 10 ?
Zr2 Zr1 Zr2 60.69(2) . 10 ?
Zr2 Zr1 Zr2 91.21(4) 2 10 ?
Zr2 Zr1 Zr2 60.69(2) 9 10 ?
O5 Zr2 O5 69.1(3) 4 10 ?
O5 Zr2 O2 145.47(13) 4 . ?
O5 Zr2 O2 145.47(13) 10 . ?
O5 Zr2 O5 110.2(3) 4 11 ?
O5 Zr2 O5 73.5(3) 10 11 ?
O2 Zr2 O5 87.4(3) . 11 ?
O5 Zr2 O5 73.5(3) 4 . ?
O5 Zr2 O5 110.2(3) 10 . ?
O2 Zr2 O5 87.4(3) . . ?
O5 Zr2 O5 67.5(3) 11 . ?
O5 Zr2 O4 82.8(3) 4 . ?
O5 Zr2 O4 82.8(3) 10 . ?
O2 Zr2 O4 99.3(5) . . ?
O5 Zr2 O4 145.75(14) 11 . ?
O5 Zr2 O4 145.75(14) . . ?
O5 Zr2 O3 74.9(2) 4 . ?
O5 Zr2 O3 138.8(2) 10 . ?
O2 Zr2 O3 72.9(2) . . ?
O5 Zr2 O3 139.9(2) 11 . ?
O5 Zr2 O3 76.8(2) . . ?
O4 Zr2 O3 73.3(2) . . ?
O5 Zr2 O3 138.8(2) 4 11 ?
O5 Zr2 O3 74.9(2) 10 11 ?
O2 Zr2 O3 72.9(2) . 11 ?
O5 Zr2 O3 76.8(2) 11 11 ?
O5 Zr2 O3 139.9(2) . 11 ?
O4 Zr2 O3 73.3(2) . 11 ?
O3 Zr2 O3 126.6(3) . 11 ?
O5 Zr2 Zr1 36.56(14) 4 . ?
O5 Zr2 Zr1 89.42(16) 10 . ?
O2 Zr2 Zr1 119.2(2) . . ?
O5 Zr2 Zr1 88.74(15) 11 . ?
O5 Zr2 Zr1 36.93(14) . . ?
O4 Zr2 Zr1 115.82(19) . . ?
O3 Zr2 Zr1 72.31(13) . . ?
O3 Zr2 Zr1 161.07(14) 11 . ?
O5 Zr2 Zr1 89.42(16) 4 9 ?
O5 Zr2 Zr1 36.56(14) 10 9 ?
O2 Zr2 Zr1 119.2(2) . 9 ?
O5 Zr2 Zr1 36.93(14) 11 9 ?
O5 Zr2 Zr1 88.74(15) . 9 ?
O4 Zr2 Zr1 115.8(2) . 9 ?
O3 Zr2 Zr1 161.08(14) . 9 ?
O3 Zr2 Zr1 72.31(13) 11 9 ?
Zr1 Zr2 Zr1 88.79(4) . 9 ?
O5 Zr2 Zr2 91.08(16) 4 2 ?
O5 Zr2 Zr2 91.08(16) 10 2 ?
O2 Zr2 Zr2 88.1(3) . 2 ?
O5 Zr2 Zr2 33.77(13) 11 2 ?
O5 Zr2 Zr2 33.77(13) . 2 ?
O4 Zr2 Zr2 172.6(3) . 2 ?
O3 Zr2 Zr2 109.25(17) . 2 ?
O3 Zr2 Zr2 109.25(17) 11 2 ?
Zr1 Zr2 Zr2 59.653(11) . 2 ?
Zr1 Zr2 Zr2 59.654(11) 9 2 ?
O5 Zr2 Zr2 34.55(13) 4 10 ?
O5 Zr2 Zr2 34.55(13) 10 10 ?
O2 Zr2 Zr2 178.1(3) . 10 ?
O5 Zr2 Zr2 91.06(15) 11 10 ?
O5 Zr2 Zr2 91.06(15) . 10 ?
O4 Zr2 Zr2 82.6(3) . 10 ?
O3 Zr2 Zr2 107.80(17) . 10 ?
O3 Zr2 Zr2 107.80(17) 11 10 ?
Zr1 Zr2 Zr2 59.653(11) . 10 ?
Zr1 Zr2 Zr2 59.653(11) 9 10 ?
Zr2 Zr2 Zr2 90.0 2 10 ?
C1 O1 Zr1 134.1(5) . . ?
C1 O3 Zr2 131.5(6) . . ?
Zr2 O5 Zr2 111.67(19) 2 . ?
Zr2 O5 Zr1 108.4(2) 2 . ?
Zr2 O5 Zr1 106.9(3) . . ?
O1 C1 O3 125.8(8) . . ?
O1 C1 C2 119.0(7) . . ?
O3 C1 C2 114.5(9) . . ?
C3 C2 C7 120.0 . . ?
C3 C2 C1 116.4(6) . . ?
C7 C2 C1 123.6(6) . . ?
C2 C3 C4 120.0 . . ?
C2 C3 H3A 120.0 . . ?
C4 C3 H3A 120.0 . . ?
C5 C4 C3 120.0 . . ?
C5 C4 H4A 120.0 . . ?
C3 C4 H4A 120.0 . . ?
C4 C5 C6 120.0 . . ?
C4 C5 C8 120.0(4) . . ?
C6 C5 C8 120.0(4) . . ?
C7 C6 C5 120.0 . . ?
C7 C6 H6A 120.0 . . ?
C5 C6 H6A 120.0 . . ?
C6 C7 C2 120.0 . . ?
C6 C7 H7A 120.0 . . ?
C2 C7 H7A 120.0 . . ?
C9 C8 C13 120.0 . . ?
C9 C8 C5 117.8(5) . . ?
C13 C8 C5 121.6(5) . . ?
C10 C9 C8 120.0 . . ?
C10 C9 H9A 120.0 . . ?
C8 C9 H9A 120.0 . . ?
C9 C10 C11 120.0 . . ?
C9 C10 H10A 120.0 . . ?
C11 C10 H10A 120.0 . . ?
C10 C11 C12 120.0 . . ?
C10 C11 C14 125.6(3) . . ?
C12 C11 C14 114.4(3) . . ?
C13 C12 C11 120.0 . . ?
C13 C12 H12A 120.0 . . ?
C11 C12 H12A 120.0 . . ?
C12 C13 C8 120.0 . . ?
C12 C13 H13A 120.0 . . ?
C8 C13 H13A 120.0 . . ?
C11 C14 C11 115.7(3) 16 3_565 ?
C11 C14 C11 97.7(4) 16 14_455 ?
C11 C14 C11 115.7(3) 3_565 14_455 ?
C11 C14 C11 115.7(3) 16 . ?
C11 C14 C11 97.7(3) 3_565 . ?
C11 C14 C11 115.7(2) 14_455 . ?

loop_
_geom_torsion_atom_site_label_1
_geom_torsion_atom_site_label_2
_geom_torsion_atom_site_label_3
_geom_torsion_atom_site_label_4
_geom_torsion
_geom_torsion_site_symmetry_1
_geom_torsion_site_symmetry_2
_geom_torsion_site_symmetry_3
_geom_torsion_site_symmetry_4
_geom_torsion_publ_flag
O5 Zr1 Zr2 O5 -125.7(3) 2 . . 4 ?
O5 Zr1 Zr2 O5 -54.50(14) 3 . . 4 ?
O5 Zr1 Zr2 O5 179.8(4) . . . 4 ?
O1 Zr1 Zr2 O5 89.3(3) . . . 4 ?
O1 Zr1 Zr2 O5 22.9(3) 4 . . 4 ?
O1 Zr1 Zr2 O5 155.7(3) 2 . . 4 ?
O1 Zr1 Zr2 O5 -91.0(7) 3 . . 4 ?
Zr2 Zr1 Zr2 O5 -145.7(3) 2 . . 4 ?
Zr2 Zr1 Zr2 O5 -90.7(3) 9 . . 4 ?
Zr2 Zr1 Zr2 O5 -35.6(3) 10 . . 4 ?
O5 Zr1 Zr2 O5 -71.6(2) 2 . . 10 ?
O5 Zr1 Zr2 O5 54.1(3) 4 . . 10 ?
O5 Zr1 Zr2 O5 -0.4(2) 3 . . 10 ?
O5 Zr1 Zr2 O5 -126.1(3) . . . 10 ?
O1 Zr1 Zr2 O5 143.4(2) . . . 10 ?
O1 Zr1 Zr2 O5 77.0(2) 4 . . 10 ?
O1 Zr1 Zr2 O5 -150.2(2) 2 . . 10 ?
O1 Zr1 Zr2 O5 -36.9(7) 3 . . 10 ?
Zr2 Zr1 Zr2 O5 -91.59(14) 2 . . 10 ?
Zr2 Zr1 Zr2 O5 -36.56(14) 9 . . 10 ?
Zr2 Zr1 Zr2 O5 18.46(14) 10 . . 10 ?
O5 Zr1 Zr2 O2 88.2(4) 2 . . . ?
O5 Zr1 Zr2 O2 -146.1(4) 4 . . . ?
O5 Zr1 Zr2 O2 159.4(4) 3 . . . ?
O5 Zr1 Zr2 O2 33.7(4) . . . . ?
O1 Zr1 Zr2 O2 -56.8(3) . . . . ?
O1 Zr1 Zr2 O2 -123.2(3) 4 . . . ?
O1 Zr1 Zr2 O2 9.6(3) 2 . . . ?
O1 Zr1 Zr2 O2 122.9(7) 3 . . . ?
Zr2 Zr1 Zr2 O2 68.2(3) 2 . . . ?
Zr2 Zr1 Zr2 O2 123.2(3) 9 . . . ?
Zr2 Zr1 Zr2 O2 178.3(3) 10 . . . ?
O5 Zr1 Zr2 O5 1.9(2) 2 . . 11 ?
O5 Zr1 Zr2 O5 127.6(3) 4 . . 11 ?
O5 Zr1 Zr2 O5 73.1(3) 3 . . 11 ?
O5 Zr1 Zr2 O5 -52.6(2) . . . 11 ?
O1 Zr1 Zr2 O5 -143.1(2) . . . 11 ?
O1 Zr1 Zr2 O5 150.5(2) 4 . . 11 ?
O1 Zr1 Zr2 O5 -76.7(2) 2 . . 11 ?
O1 Zr1 Zr2 O5 36.6(7) 3 . . 11 ?
Zr2 Zr1 Zr2 O5 -18.08(14) 2 . . 11 ?
Zr2 Zr1 Zr2 O5 36.94(14) 9 . . 11 ?
Zr2 Zr1 Zr2 O5 91.96(14) 10 . . 11 ?
O5 Zr1 Zr2 O5 54.52(14) 2 . . . ?
O5 Zr1 Zr2 O5 -179.8(4) 4 . . . ?
O5 Zr1 Zr2 O5 125.7(3) 3 . . . ?
O1 Zr1 Zr2 O5 -90.6(3) . . . . ?
O1 Zr1 Zr2 O5 -157.0(3) 4 . . . ?
O1 Zr1 Zr2 O5 -24.1(3) 2 . . . ?
O1 Zr1 Zr2 O5 89.2(7) 3 . . . ?
Zr2 Zr1 Zr2 O5 34.5(2) 2 . . . ?
Zr2 Zr1 Zr2 O5 89.5(2) 9 . . . ?
Zr2 Zr1 Zr2 O5 144.5(2) 10 . . . ?
O5 Zr1 Zr2 O4 -153.3(3) 2 . . . ?
O5 Zr1 Zr2 O4 -27.6(4) 4 . . . ?
O5 Zr1 Zr2 O4 -82.1(3) 3 . . . ?
O5 Zr1 Zr2 O4 152.2(4) . . . . ?
O1 Zr1 Zr2 O4 61.7(3) . . . . ?
O1 Zr1 Zr2 O4 -4.7(3) 4 . . . ?
O1 Zr1 Zr2 O4 128.1(3) 2 . . . ?
O1 Zr1 Zr2 O4 -118.6(7) 3 . . . ?
Zr2 Zr1 Zr2 O4 -173.3(3) 2 . . . ?
Zr2 Zr1 Zr2 O4 -118.3(3) 9 . . . ?
Zr2 Zr1 Zr2 O4 -63.3(3) 10 . . . ?
O5 Zr1 Zr2 O3 146.0(2) 2 . . . ?
O5 Zr1 Zr2 O3 -88.3(3) 4 . . . ?
O5 Zr1 Zr2 O3 -142.8(2) 3 . . . ?
O5 Zr1 Zr2 O3 91.5(3) . . . . ?
O1 Zr1 Zr2 O3 0.9(2) . . . . ?
O1 Zr1 Zr2 O3 -65.4(2) 4 . . . ?
O1 Zr1 Zr2 O3 67.4(2) 2 . . . ?
O1 Zr1 Zr2 O3 -179.3(7) 3 . . . ?
Zr2 Zr1 Zr2 O3 126.0(2) 2 . . . ?
Zr2 Zr1 Zr2 O3 -179.0(2) 9 . . . ?
Zr2 Zr1 Zr2 O3 -124.0(2) 10 . . . ?
O5 Zr1 Zr2 O3 -38.0(6) 2 . . 11 ?
O5 Zr1 Zr2 O3 87.7(7) 4 . . 11 ?
O5 Zr1 Zr2 O3 33.2(6) 3 . . 11 ?
O5 Zr1 Zr2 O3 -92.5(6) . . . 11 ?
O1 Zr1 Zr2 O3 176.9(6) . . . 11 ?
O1 Zr1 Zr2 O3 110.5(6) 4 . . 11 ?
O1 Zr1 Zr2 O3 -116.6(6) 2 . . 11 ?
O1 Zr1 Zr2 O3 -3.3(9) 3 . . 11 ?
Zr2 Zr1 Zr2 O3 -58.0(6) 2 . . 11 ?
Zr2 Zr1 Zr2 O3 -3.0(6) 9 . . 11 ?
Zr2 Zr1 Zr2 O3 52.0(6) 10 . . 11 ?
O5 Zr1 Zr2 Zr1 -35.00(15) 2 . . 9 ?
O5 Zr1 Zr2 Zr1 90.7(3) 4 . . 9 ?
O5 Zr1 Zr2 Zr1 36.16(15) 3 . . 9 ?
O5 Zr1 Zr2 Zr1 -89.5(2) . . . 9 ?
O1 Zr1 Zr2 Zr1 179.92(16) . . . 9 ?
O1 Zr1 Zr2 Zr1 113.53(14) 4 . . 9 ?
O1 Zr1 Zr2 Zr1 -113.63(14) 2 . . 9 ?
O1 Zr1 Zr2 Zr1 -0.3(7) 3 . . 9 ?
Zr2 Zr1 Zr2 Zr1 -55.023(9) 2 . . 9 ?
Zr2 Zr1 Zr2 Zr1 0.0 9 . . 9 ?
Zr2 Zr1 Zr2 Zr1 55.022(9) 10 . . 9 ?
O5 Zr1 Zr2 Zr2 20.03(15) 2 . . 2 ?
O5 Zr1 Zr2 Zr2 145.7(3) 4 . . 2 ?
O5 Zr1 Zr2 Zr2 91.18(15) 3 . . 2 ?
O5 Zr1 Zr2 Zr2 -34.5(2) . . . 2 ?
O1 Zr1 Zr2 Zr2 -125.05(16) . . . 2 ?
O1 Zr1 Zr2 Zr2 168.55(14) 4 . . 2 ?
O1 Zr1 Zr2 Zr2 -58.61(14) 2 . . 2 ?
O1 Zr1 Zr2 Zr2 54.7(7) 3 . . 2 ?
Zr2 Zr1 Zr2 Zr2 55.022(9) 9 . . 2 ?
Zr2 Zr1 Zr2 Zr2 110.045(19) 10 . . 2 ?
O5 Zr1 Zr2 Zr2 -90.02(15) 2 . . 10 ?
O5 Zr1 Zr2 Zr2 35.6(3) 4 . . 10 ?
O5 Zr1 Zr2 Zr2 -18.86(15) 3 . . 10 ?
O5 Zr1 Zr2 Zr2 -144.5(2) . . . 10 ?
O1 Zr1 Zr2 Zr2 124.90(16) . . . 10 ?
O1 Zr1 Zr2 Zr2 58.51(14) 4 . . 10 ?
O1 Zr1 Zr2 Zr2 -168.66(14) 2 . . 10 ?
O1 Zr1 Zr2 Zr2 -55.4(7) 3 . . 10 ?
Zr2 Zr1 Zr2 Zr2 -110.045(19) 2 . . 10 ?
Zr2 Zr1 Zr2 Zr2 -55.023(9) 9 . . 10 ?
O5 Zr1 O1 C1 -70.1(12) 2 . . . ?
O5 Zr1 O1 C1 38.5(12) 4 . . . ?
O5 Zr1 O1 C1 75.2(12) 3 . . . ?
O5 Zr1 O1 C1 -34.3(12) . . . . ?
O1 Zr1 O1 C1 120.2(12) 4 . . . ?
O1 Zr1 O1 C1 -114.8(12) 2 . . . ?
O1 Zr1 O1 C1 -177.3(12) 3 . . . ?
Zr2 Zr1 O1 C1 2.6(