####################################################################### 
# 
# This file contains crystal structure data downloaded from the 
# Cambridge Structural Database (CSD) hosted by the Cambridge 
# Crystallographic Data Centre (CCDC).
# 
# Full information about CCDC data access policies and citation 
# guidelines are available at http://www.ccdc.cam.ac.uk/access/V1 
# 
# Audit and citation data items may have been added by the CCDC. 
# Please retain this information to preserve the provenance of 
# this file and to allow appropriate attribution of the data. 
# 
#######################################################################

data_100118a
_audit_block_doi                 10.5517/cc10gffb
_database_code_depnum_ccdc_archive 'CCDC 937391'
loop_
_citation_id
_citation_doi
_citation_year
1 10.1016/j.inoche.2013.06.033 2013
_audit_update_record             
;
2013-05-04 deposited with the CCDC.	2024-07-09 downloaded from the CCDC.
;

_audit_creation_method           SHELXL-97
_chemical_name_systematic        
; 
 ? 
;
_chemical_name_common            ?
_chemical_melting_point          ?
_chemical_formula_moiety         ?
_chemical_formula_sum            'C28 H9 Mn4 N5 O25'
_chemical_formula_weight         1035.16

loop_
_atom_type_symbol
_atom_type_description
_atom_type_scat_dispersion_real
_atom_type_scat_dispersion_imag
_atom_type_scat_source
C C 0.0033 0.0016 'International Tables Vol C Tables 4.2.6.8 and 6.1.1.4'
H H 0.0000 0.0000 'International Tables Vol C Tables 4.2.6.8 and 6.1.1.4'
N N 0.0061 0.0033 'International Tables Vol C Tables 4.2.6.8 and 6.1.1.4'
O O 0.0106 0.0060 'International Tables Vol C Tables 4.2.6.8 and 6.1.1.4'
Mn Mn 0.3368 0.7283 'International Tables Vol C Tables 4.2.6.8 and 6.1.1.4'

_symmetry_cell_setting           Monoclinic
_symmetry_space_group_name_H-M   P2(1)/c

loop_
_symmetry_equiv_pos_as_xyz
'x, y, z'
'-x, y+1/2, -z+1/2'
'-x, -y, -z'
'x, -y-1/2, z-1/2'

_cell_length_a                   14.9309(18)
_cell_length_b                   14.8692(19)
_cell_length_c                   20.076(2)
_cell_angle_alpha                90.00
_cell_angle_beta                 108.944(2)
_cell_angle_gamma                90.00
_cell_volume                     4215.6(9)
_cell_formula_units_Z            4
_cell_measurement_temperature    296(2)
_cell_measurement_reflns_used    8848
_cell_measurement_theta_min      2.56
_cell_measurement_theta_max      27.90

_exptl_crystal_description       ?
_exptl_crystal_colour            ?
_exptl_crystal_size_max          0.20
_exptl_crystal_size_mid          0.20
_exptl_crystal_size_min          0.20
_exptl_crystal_density_meas      ?
_exptl_crystal_density_diffrn    1.631
_exptl_crystal_density_method    'not measured'
_exptl_crystal_F_000             2048
_exptl_absorpt_coefficient_mu    1.264
_exptl_absorpt_correction_type   multi-scan
_exptl_absorpt_correction_T_min  0.7862
_exptl_absorpt_correction_T_max  0.7862
_exptl_absorpt_process_details   ?

_exptl_special_details           
; 
 ? 
;

_diffrn_ambient_temperature      296(2)
_diffrn_radiation_wavelength     0.71073
_diffrn_radiation_type           MoK\a
_diffrn_radiation_source         'fine-focus sealed tube'
_diffrn_radiation_monochromator  graphite
_diffrn_measurement_device_type  'CCD area detector'
_diffrn_measurement_method       'phi and omega scans'
_diffrn_detector_area_resol_mean ?
_diffrn_standards_number         ?
_diffrn_standards_interval_count ?
_diffrn_standards_interval_time  ?
_diffrn_standards_decay_%        ?
_diffrn_reflns_number            20877
_diffrn_reflns_av_R_equivalents  0.0308
_diffrn_reflns_av_sigmaI/netI    0.0340
_diffrn_reflns_limit_h_min       -15
_diffrn_reflns_limit_h_max       17
_diffrn_reflns_limit_k_min       -14
_diffrn_reflns_limit_k_max       17
_diffrn_reflns_limit_l_min       -21
_diffrn_reflns_limit_l_max       23
_diffrn_reflns_theta_min         1.74
_diffrn_reflns_theta_max         25.00
_reflns_number_total             7390
_reflns_number_gt                5740
_reflns_threshold_expression     >2sigma(I)

_computing_data_collection       'Bruker SMART'
_computing_cell_refinement       'Bruker SMART'
_computing_data_reduction        'Bruker SAINT'
_computing_structure_solution    'SHELXS-97 (Sheldrick, 1990)'
_computing_structure_refinement  'SHELXL-97 (Sheldrick, 1997)'
_computing_molecular_graphics    'Bruker SHELXTL'
_computing_publication_material  'Bruker SHELXTL'

_refine_special_details          
; 
 Refinement of F^2^ against ALL reflections.  The weighted R-factor wR and 
 goodness of fit S are based on F^2^, conventional R-factors R are based 
 on F, with F set to zero for negative F^2^. The threshold expression of 
 F^2^ > 2sigma(F^2^) is used only for calculating R-factors(gt) etc. and is 
 not relevant to the choice of reflections for refinement.  R-factors based 
 on F^2^ are statistically about twice as large as those based on F, and R- 
 factors based on ALL data will be even larger. 
;

_refine_ls_structure_factor_coef Fsqd
_refine_ls_matrix_type           full
_refine_ls_weighting_scheme      calc
_refine_ls_weighting_details     
'calc w=1/[\s^2^(Fo^2^)+(0.1404P)^2^+0.0000P] where P=(Fo^2^+2Fc^2^)/3'
_atom_sites_solution_primary     direct
_atom_sites_solution_secondary   difmap
_atom_sites_solution_hydrogens   geom
_refine_ls_hydrogen_treatment    constr
_refine_ls_extinction_method     none
_refine_ls_extinction_coef       ?
_refine_ls_number_reflns         7390
_refine_ls_number_parameters     559
_refine_ls_number_restraints     18
_refine_ls_R_factor_all          0.0777
_refine_ls_R_factor_gt           0.0656
_refine_ls_wR_factor_ref         0.1833
_refine_ls_wR_factor_gt          0.1756
_refine_ls_goodness_of_fit_ref   1.013
_refine_ls_restrained_S_all      1.030
_refine_ls_shift/su_max          0.001
_refine_ls_shift/su_mean         0.000

loop_
_atom_site_label
_atom_site_type_symbol
_atom_site_fract_x
_atom_site_fract_y
_atom_site_fract_z
_atom_site_U_iso_or_equiv
_atom_site_adp_type
_atom_site_occupancy
_atom_site_symmetry_multiplicity
_atom_site_calc_flag
_atom_site_refinement_flags
_atom_site_disorder_assembly
_atom_site_disorder_group
O20 O 0.4086(2) 0.52363(18) 0.98207(15) 0.0236(6) Uani 1 1 d . . .
O12 O 0.5687(2) 0.67594(19) 1.00980(17) 0.0316(7) Uani 1 1 d . . .
O19 O 0.4806(3) 0.6854(2) 0.86326(18) 0.0467(10) Uani 1 1 d . . .
O11 O 0.4844(3) 0.6856(2) 0.62871(18) 0.0417(9) Uani 1 1 d . . .
O17 O 0.6002(3) 0.2954(3) 0.8493(2) 0.0547(11) Uani 1 1 d . . .
O15 O 0.2778(3) 0.4748(3) 0.62400(19) 0.0560(11) Uani 1 1 d . . .
O18 O 0.3923(3) 0.7974(3) 0.8045(2) 0.0573(11) Uani 1 1 d . . .
O14 O -0.0135(3) 0.5755(4) 0.4477(3) 0.0769(15) Uani 1 1 d . . .
O13 O -0.0264(3) 0.5605(4) 0.3396(3) 0.0713(14) Uani 1 1 d . . .
C23 C 0.4226(4) 0.7538(3) 1.1091(3) 0.0326(11) Uani 1 1 d . . .
C24 C 0.3242(4) 0.4972(3) 0.5852(3) 0.0350(11) Uani 1 1 d . . .
O26 O 0.5908(2) 0.47573(18) 0.52602(15) 0.0226(6) Uani 1 1 d . . .
O16 O 0.4244(3) 0.6118(2) 0.73209(18) 0.0514(10) Uani 1 1 d . . .
C26 C 0.8796(3) 0.4887(4) 1.1023(3) 0.0364(11) Uani 1 1 d . . .
O10 O 0.4131(3) 0.3218(3) 0.7235(3) 0.0694(13) Uani 1 1 d . . .
N1 N 0.8009(3) 0.2725(3) 0.8220(3) 0.0507(12) Uani 1 1 d . . .
N4 N 0.9813(3) 0.4884(4) 1.1318(3) 0.0575(14) Uani 1 1 d . . .
O21 O 0.0821(4) 0.7284(4) 0.9575(4) 0.099(2) Uani 1 1 d . . .
N3 N 0.1219(4) 0.7358(4) 0.9139(4) 0.0681(17) Uani 1 1 d . . .
O23 O 1.0183(3) 0.4840(5) 1.1954(3) 0.0906(17) Uani 1 1 d U . .
O22 O 0.0805(4) 0.7389(4) 0.8525(5) 0.114(2) Uani 1 1 d . . .
O27 O 1.0279(3) 0.4912(4) 1.0926(2) 0.0793(16) Uani 1 1 d . . .
N2 N 0.9482(6) 0.2290(6) 0.8525(6) 0.136(3) Uani 1 1 d U . .
C30 C 0.8886(7) 0.2977(7) 0.8432(6) 0.115(3) Uani 1 1 d U . .
H30 H 0.9077 0.3574 0.8512 0.138 Uiso 1 1 calc R . .
C31 C 0.4177(4) 0.7453(3) 0.8558(2) 0.0318(11) Uani 1 1 d . . .
C28 C 0.8080(6) 0.1811(5) 0.8190(5) 0.088(3) Uani 1 1 d . . .
H28 H 0.7560 0.1427 0.8049 0.106 Uiso 1 1 calc R . .
C29 C 0.8945(8) 0.1541(6) 0.8380(7) 0.135(5) Uani 1 1 d . . .
H29 H 0.9157 0.0949 0.8411 0.162 Uiso 1 1 calc R . .
Mn1 Mn 0.51366(5) 0.56737(4) 0.57040(3) 0.0230(2) Uani 1 1 d . . .
Mn2 Mn 0.51242(5) 0.56731(4) 0.93579(3) 0.0235(2) Uani 1 1 d . . .
Mn3 Mn 0.68273(5) 0.36347(4) 0.79414(3) 0.0273(2) Uani 1 1 d . . .
Mn4 Mn 0.39710(5) 0.46854(5) 0.72396(4) 0.0339(2) Uani 1 1 d . . .
O5 O 0.6220(2) 0.5288(2) 0.89402(16) 0.0316(7) Uani 1 1 d . . .
O4 O 0.5589(2) 0.4643(2) 0.76372(16) 0.0338(7) Uani 1 1 d . . .
O3 O 0.4136(3) 0.5009(2) 0.60990(17) 0.0385(8) Uani 1 1 d . . .
O1 O 0.6244(2) 0.5277(2) 0.66367(16) 0.0317(7) Uani 1 1 d . . .
C14 C 0.4198(3) 0.7485(3) 0.9821(2) 0.0264(10) Uani 1 1 d . . .
O7 O 0.4156(2) 0.4984(3) 0.84850(17) 0.0398(8) Uani 1 1 d . . .
O2 O 0.7436(2) 0.4467(2) 0.73068(17) 0.0368(8) Uani 1 1 d . . .
O6 O 0.7414(2) 0.4445(2) 0.88801(17) 0.0340(8) Uani 1 1 d . . .
C21 C 0.7408(3) 0.4860(3) 1.0009(2) 0.0247(9) Uani 1 1 d . . .
O9 O 0.5677(2) 0.82423(19) 1.02202(18) 0.0313(7) Uani 1 1 d . . .
C51 C 0.7408(3) 0.4752(3) 0.6150(2) 0.0238(9) Uani 1 1 d . . .
C19 C 0.5274(3) 0.7500(3) 1.0066(2) 0.0233(9) Uani 1 1 d . . .
C15 C 0.3690(4) 0.7482(3) 0.9097(2) 0.0300(10) Uani 1 1 d . . .
C3 C 0.3177(3) 0.5218(3) 0.4572(2) 0.0208(8) Uani 1 1 d . . .
C1 C 0.6992(3) 0.4825(3) 0.6736(2) 0.0251(9) Uani 1 1 d . . .
O8 O 0.2815(3) 0.4662(3) 0.76876(19) 0.0569(11) Uani 1 1 d . . .
C13 C 0.3706(4) 0.7465(3) 1.0310(3) 0.0296(10) Uani 1 1 d . . .
C10 C 0.2718(3) 0.5050(3) 0.8808(2) 0.0288(10) Uani 1 1 d . . .
C4 C 0.2706(3) 0.5182(3) 0.5087(2) 0.0296(10) Uani 1 1 d . . .
C20 C 0.6984(3) 0.4854(3) 0.9225(2) 0.0265(10) Uani 1 1 d . . .
C22 C 0.8362(3) 0.4858(3) 1.0295(2) 0.0344(11) Uani 1 1 d . . .
H22 H 0.8734 0.4837 1.0003 0.041 Uiso 1 1 calc R . .
C12 C 0.1742(3) 0.5046(4) 0.8531(3) 0.0367(11) Uani 1 1 d . . .
H12 H 0.1446 0.5000 0.8047 0.044 Uiso 1 1 calc R . .
N5 N 0.0208(3) 0.5594(3) 0.4013(3) 0.0506(12) Uani 1 1 d . . .
C11 C 0.3175(3) 0.5141(3) 0.9541(2) 0.0212(9) Uani 1 1 d . . .
C7 C 0.1633(3) 0.5373(3) 0.3676(3) 0.0321(10) Uani 1 1 d . . .
H7 H 0.1263 0.5425 0.3206 0.039 Uiso 1 1 calc R . .
C5 C 0.1747(3) 0.5308(3) 0.4901(3) 0.0359(11) Uani 1 1 d . . .
H5 H 0.1456 0.5316 0.5246 0.043 Uiso 1 1 calc R . .
C9 C 0.3258(4) 0.4902(3) 0.8302(3) 0.0355(11) Uani 1 1 d . . .
C16 C 0.2695(4) 0.7469(3) 0.8871(3) 0.0406(13) Uani 1 1 d . . .
H16 H 0.2347 0.7496 0.8394 0.049 Uiso 1 1 calc R . .
C17 C 0.2244(4) 0.7417(3) 0.9375(4) 0.0458(15) Uani 1 1 d . . .
C6 C 0.1211(3) 0.5423(3) 0.4199(3) 0.0370(11) Uani 1 1 d . . .
C18 C 0.2731(4) 0.7409(3) 1.0084(3) 0.0376(12) Uani 1 1 d . . .
H18 H 0.2408 0.7366 1.0408 0.045 Uiso 1 1 calc R . .

loop_
_atom_site_aniso_label
_atom_site_aniso_U_11
_atom_site_aniso_U_22
_atom_site_aniso_U_33
_atom_site_aniso_U_23
_atom_site_aniso_U_13
_atom_site_aniso_U_12
O20 0.0236(16) 0.0226(14) 0.0245(16) 0.0044(12) 0.0076(13) 0.0022(12)
O12 0.0291(17) 0.0204(15) 0.0410(19) -0.0029(13) 0.0054(15) 0.0050(12)
O19 0.077(3) 0.039(2) 0.0292(19) 0.0071(15) 0.0241(19) 0.0206(19)
O11 0.063(2) 0.0351(18) 0.0309(19) 0.0028(14) 0.0215(18) 0.0150(17)
O17 0.077(3) 0.050(2) 0.051(2) 0.0088(19) 0.039(2) -0.013(2)
O15 0.046(2) 0.099(3) 0.0267(19) 0.010(2) 0.0164(18) -0.010(2)
O18 0.089(3) 0.045(2) 0.033(2) 0.0206(18) 0.012(2) 0.016(2)
O14 0.040(3) 0.128(5) 0.074(3) 0.017(3) 0.034(3) 0.018(3)
O13 0.035(2) 0.112(4) 0.058(3) -0.006(3) 0.002(2) 0.008(2)
C23 0.042(3) 0.024(2) 0.040(3) 0.0042(19) 0.024(2) 0.0018(19)
C24 0.035(3) 0.041(3) 0.030(3) -0.004(2) 0.011(2) -0.006(2)
O26 0.0198(15) 0.0249(14) 0.0215(15) -0.0028(12) 0.0046(13) 0.0036(11)
O16 0.085(3) 0.0368(19) 0.038(2) 0.0003(16) 0.027(2) 0.0032(19)
C26 0.023(2) 0.052(3) 0.033(3) -0.009(2) 0.007(2) -0.005(2)
O10 0.067(3) 0.047(2) 0.096(4) -0.004(2) 0.029(3) -0.006(2)
N1 0.041(3) 0.043(2) 0.067(3) 0.003(2) 0.016(3) 0.006(2)
N4 0.034(3) 0.098(4) 0.038(3) -0.010(3) 0.008(2) -0.003(3)
O21 0.037(3) 0.107(4) 0.160(6) -0.007(4) 0.040(4) -0.004(3)
N3 0.031(3) 0.052(3) 0.108(5) -0.002(3) 0.005(4) 0.001(2)
O23 0.045(3) 0.167(5) 0.051(3) -0.013(3) 0.003(2) 0.001(3)
O22 0.036(3) 0.117(5) 0.154(7) -0.002(4) -0.020(4) -0.008(3)
O27 0.035(2) 0.150(5) 0.058(3) -0.006(3) 0.023(2) -0.012(3)
N2 0.079(5) 0.105(6) 0.202(8) 0.005(6) 0.017(5) 0.029(4)
C30 0.079(5) 0.074(5) 0.176(8) -0.005(5) 0.021(5) 0.001(4)
C31 0.039(3) 0.022(2) 0.026(2) -0.0001(18) 0.000(2) 0.0030(19)
C28 0.083(5) 0.040(4) 0.129(8) 0.002(4) 0.018(5) -0.010(4)
C29 0.100(7) 0.056(5) 0.228(14) -0.010(6) 0.024(8) 0.048(5)
Mn1 0.0278(4) 0.0213(3) 0.0197(4) -0.0003(2) 0.0075(3) 0.0035(2)
Mn2 0.0281(4) 0.0222(3) 0.0219(4) 0.0032(2) 0.0105(3) 0.0044(2)
Mn3 0.0344(4) 0.0270(4) 0.0220(4) -0.0003(3) 0.0111(3) -0.0004(3)
Mn4 0.0351(4) 0.0438(4) 0.0245(4) -0.0004(3) 0.0121(3) -0.0025(3)
O5 0.0377(19) 0.0389(18) 0.0209(16) -0.0006(13) 0.0133(15) 0.0058(14)
O4 0.0367(19) 0.0396(18) 0.0249(17) 0.0025(14) 0.0098(15) 0.0040(14)
O3 0.040(2) 0.052(2) 0.0228(17) 0.0018(15) 0.0093(16) -0.0032(16)
O1 0.0350(19) 0.0385(18) 0.0223(16) 0.0016(13) 0.0104(15) 0.0048(14)
C14 0.035(3) 0.0145(19) 0.031(2) -0.0012(17) 0.012(2) 0.0021(16)
O7 0.040(2) 0.058(2) 0.0276(18) -0.0051(16) 0.0183(16) -0.0079(16)
O2 0.0331(19) 0.051(2) 0.0257(18) 0.0111(15) 0.0087(15) 0.0009(15)
O6 0.0312(18) 0.0478(19) 0.0249(17) -0.0090(14) 0.0117(15) 0.0019(14)
C21 0.027(2) 0.026(2) 0.022(2) -0.0034(17) 0.0093(19) -0.0020(17)
O9 0.0297(17) 0.0189(14) 0.047(2) -0.0049(13) 0.0151(15) -0.0026(12)
C51 0.023(2) 0.021(2) 0.025(2) 0.0030(17) 0.0053(19) 0.0024(16)
C19 0.025(2) 0.025(2) 0.020(2) -0.0016(17) 0.0076(19) 0.0001(16)
C15 0.036(3) 0.021(2) 0.028(2) -0.0010(18) 0.003(2) 0.0022(17)
C3 0.020(2) 0.0188(19) 0.021(2) 0.0007(16) 0.0030(18) 0.0007(15)
C1 0.026(2) 0.028(2) 0.018(2) 0.0043(17) 0.0020(19) -0.0047(18)
O8 0.046(2) 0.102(3) 0.025(2) -0.016(2) 0.0145(18) -0.012(2)
C13 0.041(3) 0.019(2) 0.034(3) -0.0027(18) 0.019(2) -0.0013(18)
C10 0.029(2) 0.034(2) 0.022(2) -0.0012(18) 0.007(2) -0.0001(19)
C4 0.030(2) 0.034(2) 0.027(2) -0.0009(19) 0.012(2) -0.0008(19)
C20 0.027(2) 0.028(2) 0.027(2) -0.0047(18) 0.013(2) -0.0059(18)
C22 0.029(3) 0.052(3) 0.027(3) -0.004(2) 0.015(2) -0.001(2)
C12 0.030(3) 0.054(3) 0.025(3) -0.004(2) 0.008(2) -0.005(2)
N5 0.037(3) 0.059(3) 0.054(3) 0.005(2) 0.013(3) -0.004(2)
C11 0.021(2) 0.0170(18) 0.025(2) 0.0026(16) 0.0073(19) 0.0033(15)
C7 0.028(3) 0.030(2) 0.033(3) 0.0057(19) 0.003(2) -0.0034(19)
C5 0.027(3) 0.052(3) 0.032(3) -0.007(2) 0.014(2) -0.004(2)
C9 0.035(3) 0.045(3) 0.028(3) -0.002(2) 0.012(2) -0.008(2)
C16 0.037(3) 0.027(2) 0.046(3) -0.001(2) -0.002(3) 0.0037(19)
C17 0.023(3) 0.024(2) 0.087(5) -0.002(2) 0.013(3) 0.0018(18)
C6 0.024(2) 0.045(3) 0.044(3) 0.004(2) 0.014(2) 0.003(2)
C18 0.035(3) 0.025(2) 0.056(3) -0.004(2) 0.019(3) -0.0039(19)

_geom_special_details            
; 
 All esds (except the esd in the dihedral angle between two l.s. planes) 
 are estimated using the full covariance matrix.  The cell esds are taken 
 into account individually in the estimation of esds in distances, angles 
 and torsion angles; correlations between esds in cell parameters are only 
 used when they are defined by crystal symmetry.  An approximate (isotropic) 
 treatment of cell esds is used for estimating esds involving l.s. planes. 
;

loop_
_geom_bond_atom_site_label_1
_geom_bond_atom_site_label_2
_geom_bond_distance
_geom_bond_site_symmetry_2
_geom_bond_publ_flag
O20 C11 1.299(5) . ?
O20 Mn2 2.151(3) . ?
O20 Mn2 2.163(3) 3_667 ?
O12 C19 1.254(5) . ?
O12 Mn2 2.171(3) . ?
O19 C31 1.267(6) . ?
O19 Mn2 2.231(3) . ?
O11 C23 1.258(6) 4_575 ?
O11 Mn1 2.232(3) . ?
O17 C23 1.239(5) 3_667 ?
O17 Mn3 2.157(4) . ?
O15 C24 1.243(6) . ?
O15 Mn4 2.210(4) . ?
O18 C31 1.245(6) . ?
O18 Mn3 2.169(4) 2_656 ?
O14 N5 1.223(6) . ?
O13 N5 1.210(6) . ?
C23 O17 1.239(6) 3_667 ?
C23 O11 1.258(6) 4_576 ?
C23 C13 1.511(7) . ?
C24 O3 1.266(6) . ?
C24 C4 1.517(7) . ?
O26 C3 1.297(5) 3_666 ?
O26 Mn1 2.152(3) 3_666 ?
O26 Mn1 2.155(3) . ?
O16 Mn4 2.165(4) . ?
C26 C12 1.385(7) 3_667 ?
C26 C22 1.394(7) . ?
C26 N4 1.441(7) . ?
O10 Mn4 2.195(4) . ?
N1 C30 1.293(10) . ?
N1 C28 1.365(8) . ?
N1 Mn3 2.149(5) . ?
N4 O27 1.207(6) . ?
N4 O23 1.219(6) . ?
O21 N3 1.212(8) . ?
N3 O22 1.189(9) . ?
N3 C17 1.450(7) . ?
N2 C30 1.329(12) . ?
N2 C29 1.348(13) . ?
C30 H30 0.9300 . ?
C31 C15 1.487(7) . ?
C28 C29 1.287(12) . ?
C28 H28 0.9300 . ?
C29 H29 0.9300 . ?
Mn1 O1 2.140(3) . ?
Mn1 O3 2.146(3) . ?
Mn1 O26 2.152(3) 3_666 ?
Mn1 O9 2.168(3) 4_575 ?
Mn2 O7 2.137(3) . ?
Mn2 O5 2.144(3) . ?
Mn2 O20 2.163(3) 3_667 ?
Mn3 O6 2.167(3) . ?
Mn3 O18 2.169(4) 2_646 ?
Mn3 O2 2.175(3) . ?
Mn3 O4 2.304(3) . ?
Mn4 O8 2.191(4) . ?
Mn4 O4 2.286(3) . ?
Mn4 O3 2.429(3) . ?
Mn4 O7 2.465(3) . ?
O5 C20 1.274(6) . ?
O1 C1 1.263(5) . ?
C14 C13 1.405(6) . ?
C14 C15 1.406(6) . ?
C14 C19 1.519(6) . ?
O7 C9 1.276(6) . ?
O2 C1 1.242(5) . ?
O6 C20 1.245(5) . ?
C21 C22 1.352(6) . ?
C21 C11 1.443(6) 3_667 ?
C21 C20 1.494(6) . ?
O9 C19 1.247(5) . ?
O9 Mn1 2.168(3) 4_576 ?
C51 C7 1.372(6) 3_666 ?
C51 C3 1.429(6) 3_666 ?
C51 C1 1.502(6) . ?
C15 C16 1.405(7) . ?
C3 O26 1.297(5) 3_666 ?
C3 C4 1.429(6) . ?
C3 C51 1.429(6) 3_666 ?
O8 C9 1.247(6) . ?
C13 C18 1.379(