####################################################################### 
# 
# This file contains crystal structure data downloaded from the 
# Cambridge Structural Database (CSD) hosted by the Cambridge 
# Crystallographic Data Centre (CCDC).
# 
# Full information about CCDC data access policies and citation 
# guidelines are available at http://www.ccdc.cam.ac.uk/access/V1 
# 
# Audit and citation data items may have been added by the CCDC. 
# Please retain this information to preserve the provenance of 
# this file and to allow appropriate attribution of the data. 
# 
#######################################################################

data_a
_audit_block_doi                 10.5517/cc10s9x0
_database_code_depnum_ccdc_archive 'CCDC 946892'
loop_
_citation_id
_citation_doi
_citation_year
1 10.1016/j.inoche.2013.07.001 2013
_audit_update_record             
;
2013-06-25 deposited with the CCDC.	2024-07-09 downloaded from the CCDC.
;

_audit_creation_method           SHELXL-97
_chemical_name_systematic        
; 
 ? 
;
_chemical_name_common            ?
_chemical_melting_point          ?
_chemical_formula_moiety         'C33 H25 N O16 Zn4'
_chemical_formula_sum            'C33 H25 N O16 Zn4'
_chemical_formula_weight         953.10

loop_
_atom_type_symbol
_atom_type_description
_atom_type_scat_dispersion_real
_atom_type_scat_dispersion_imag
_atom_type_scat_source
C C 0.0033 0.0016 'International Tables Vol C Tables 4.2.6.8 and 6.1.1.4'
H H 0.0000 0.0000 'International Tables Vol C Tables 4.2.6.8 and 6.1.1.4'
N N 0.0061 0.0033 'International Tables Vol C Tables 4.2.6.8 and 6.1.1.4'
O O 0.0106 0.0060 'International Tables Vol C Tables 4.2.6.8 and 6.1.1.4'
Zn Zn 0.2839 1.4301 'International Tables Vol C Tables 4.2.6.8 and 6.1.1.4'

_symmetry_cell_setting           Orthorhombic
_symmetry_space_group_name_H-M   'P 21 21 21'
_symmetry_space_group_name_Hall  'P 2ac 2ab'

loop_
_symmetry_equiv_pos_as_xyz
'x, y, z'
'-x+1/2, -y, z+1/2'
'x+1/2, -y+1/2, -z'
'-x, y+1/2, -z+1/2'

_cell_length_a                   18.478(5)
_cell_length_b                   12.181(4)
_cell_length_c                   23.055(7)
_cell_angle_alpha                90.00
_cell_angle_beta                 90.00
_cell_angle_gamma                90.00
_cell_volume                     5189(3)
_cell_formula_units_Z            4
_cell_measurement_temperature    293(2)
_cell_measurement_reflns_used    15814
_cell_measurement_theta_min      2.0020
_cell_measurement_theta_max      27.5087

_exptl_crystal_description       block
_exptl_crystal_colour            colorless
_exptl_crystal_size_max          0.20
_exptl_crystal_size_mid          0.18
_exptl_crystal_size_min          0.16
_exptl_crystal_density_meas      ?
_exptl_crystal_density_diffrn    1.220
_exptl_crystal_density_method    'not measured'
_exptl_crystal_F_000             1860
_exptl_absorpt_coefficient_mu    1.879
_exptl_absorpt_correction_type   Multi-scan
_exptl_absorpt_correction_T_min  0.8419
_exptl_absorpt_correction_T_max  1.0000
_exptl_absorpt_process_details   crystalclear

_exptl_special_details           
; 
 ? 
;

_diffrn_ambient_temperature      293(2)
_diffrn_radiation_wavelength     0.71073
_diffrn_radiation_type           MoK\a
_diffrn_radiation_source         'fine-focus sealed tube'
_diffrn_radiation_monochromator  graphite
_diffrn_measurement_device_type  'Bruker P4'
_diffrn_measurement_method       '\w scans'
_diffrn_detector_area_resol_mean ?
_diffrn_standards_number         none
_diffrn_standards_interval_count 0
_diffrn_standards_interval_time  none
_diffrn_standards_decay_%        none
_diffrn_reflns_number            40859
_diffrn_reflns_av_R_equivalents  0.1024
_diffrn_reflns_av_sigmaI/netI    0.0929
_diffrn_reflns_limit_h_min       -23
_diffrn_reflns_limit_h_max       23
_diffrn_reflns_limit_k_min       -15
_diffrn_reflns_limit_k_max       15
_diffrn_reflns_limit_l_min       -29
_diffrn_reflns_limit_l_max       26
_diffrn_reflns_theta_min         2.08
_diffrn_reflns_theta_max         27.47
_reflns_number_total             11836
_reflns_number_gt                10355
_reflns_threshold_expression     >2sigma(I)

_computing_data_collection       'Bruker XSCANS'
_computing_cell_refinement       'Bruker XSCANS'
_computing_data_reduction        'Bruker SHELXTL'
_computing_structure_solution    'SHELXS-97 (Sheldrick, 1990)'
_computing_structure_refinement  'SHELXL-97 (Sheldrick, 1997)'
_computing_molecular_graphics    'Bruker SHELXTL'
_computing_publication_material  'Bruker SHELXTL'

_refine_special_details          
; 
 Refinement of F^2^ against ALL reflections.  The weighted R-factor wR and 
 goodness of fit S are based on F^2^, conventional R-factors R are based 
 on F, with F set to zero for negative F^2^. The threshold expression of 
 F^2^ > 2sigma(F^2^) is used only for calculating R-factors(gt) etc. and is 
 not relevant to the choice of reflections for refinement.  R-factors based 
 on F^2^ are statistically about twice as large as those based on F, and R- 
 factors based on ALL data will be even larger. 
;

_refine_ls_structure_factor_coef Fsqd
_refine_ls_matrix_type           full
_refine_ls_weighting_scheme      calc
_refine_ls_weighting_details     
'calc w=1/[\s^2^(Fo^2^)+(0.0732P)^2^+0.0000P] where P=(Fo^2^+2Fc^2^)/3'
_atom_sites_solution_primary     direct
_atom_sites_solution_secondary   difmap
_atom_sites_solution_hydrogens   geom
_refine_ls_hydrogen_treatment    mixed
_refine_ls_extinction_method     none
_refine_ls_extinction_coef       ?
_refine_ls_abs_structure_details 'Flack H D (1983), Acta Cryst. A39, 876-881'
_refine_ls_abs_structure_Flack   0.072(14)
_refine_ls_number_reflns         11836
_refine_ls_number_parameters     487
_refine_ls_number_restraints     28
_refine_ls_R_factor_all          0.0545
_refine_ls_R_factor_gt           0.0506
_refine_ls_wR_factor_ref         0.1379
_refine_ls_wR_factor_gt          0.1345
_refine_ls_goodness_of_fit_ref   1.004
_refine_ls_restrained_S_all      1.021
_refine_ls_shift/su_max          0.001
_refine_ls_shift/su_mean         0.000

loop_
_atom_site_label
_atom_site_type_symbol
_atom_site_fract_x
_atom_site_fract_y
_atom_site_fract_z
_atom_site_U_iso_or_equiv
_atom_site_adp_type
_atom_site_occupancy
_atom_site_symmetry_multiplicity
_atom_site_calc_flag
_atom_site_refinement_flags
_atom_site_disorder_assembly
_atom_site_disorder_group
Zn1 Zn 0.29917(2) 1.23754(4) 0.18567(2) 0.02559(12) Uani 1 1 d . . .
Zn2 Zn 0.20014(2) 1.23794(4) 0.29952(2) 0.02576(12) Uani 1 1 d . . .
Zn3 Zn 0.17020(2) 1.06638(4) 0.20422(2) 0.02704(12) Uani 1 1 d . . .
Zn4 Zn 0.31982(2) 1.06147(4) 0.28798(2) 0.02833(12) Uani 1 1 d . . .
C1 C 0.1140(2) 1.4627(4) 0.1750(2) 0.0339(10) Uani 1 1 d . . .
C2 C 0.0461(2) 1.4898(4) 0.19855(19) 0.0336(10) Uani 1 1 d . . .
H2A H 0.0306 1.4566 0.2327 0.040 Uiso 1 1 calc R . .
C3 C 0.0023(2) 1.5658(4) 0.17096(18) 0.0306(9) Uani 1 1 d . . .
C4 C 0.0251(2) 1.6159(4) 0.1202(2) 0.0335(10) Uani 1 1 d . . .
H4A H -0.0045 1.6670 0.1020 0.040 Uiso 1 1 calc R . .
C5 C 0.0921(2) 1.5901(4) 0.09624(18) 0.0313(10) Uani 1 1 d . . .
C6 C 0.1348(2) 1.5126(4) 0.1234(2) 0.0299(9) Uani 1 1 d . . .
H6A H 0.1788 1.4931 0.1066 0.036 Uiso 1 1 calc R . .
C7 C 0.1611(2) 1.3805(4) 0.20324(19) 0.0299(9) Uani 1 1 d . . .
C8 C -0.0690(2) 1.5948(4) 0.1986(2) 0.0361(10) Uani 1 1 d . . .
C9 C 0.1171(3) 1.6485(4) 0.04146(19) 0.0349(10) Uani 1 1 d . . .
C10 C 0.0688(3) 1.6923(5) 0.0029(2) 0.0523(15) Uani 1 1 d . . .
H10A H 0.0195 1.6833 0.0095 0.063 Uiso 1 1 calc R . .
C11 C 0.0913(3) 1.7497(5) -0.0458(2) 0.0508(14) Uani 1 1 d . . .
H11A H 0.0574 1.7813 -0.0705 0.061 Uiso 1 1 calc R . .
C12 C 0.1644(2) 1.7598(4) -0.05743(19) 0.0368(10) Uani 1 1 d . . .
C13 C 0.2134(3) 1.7101(5) -0.0197(2) 0.0458(13) Uani 1 1 d . . .
H13A H 0.2627 1.7145 -0.0274 0.055 Uiso 1 1 calc R . .
C14 C 0.1900(2) 1.6547(5) 0.0288(2) 0.0429(12) Uani 1 1 d . . .
H14A H 0.2235 1.6213 0.0531 0.051 Uiso 1 1 calc R . .
C15 C 0.1906(3) 1.8181(4) -0.11105(19) 0.0357(10) Uani 1 1 d . . .
C16 C 0.4970(2) 1.0360(4) 0.17268(18) 0.0296(9) Uani 1 1 d . . .
C17 C 0.5427(2) 0.9648(3) 0.20083(18) 0.0268(8) Uani 1 1 d . . .
H17A H 0.5277 0.9299 0.2346 0.032 Uiso 1 1 calc R . .
C18 C 0.6123(2) 0.9448(4) 0.17860(18) 0.0297(9) Uani 1 1 d . . .
C19 C 0.6338(3) 0.9982(4) 0.1273(2) 0.0397(11) Uani 1 1 d . . .
H19A H 0.6799 0.9858 0.1124 0.048 Uiso 1 1 calc R . .
C20 C 0.5871(2) 1.0692(4) 0.0987(2) 0.0366(10) Uani 1 1 d . . .
C21 C 0.5190(2) 1.0899(4) 0.1224(2) 0.0332(10) Uani 1 1 d . . .
H21A H 0.4881 1.1399 0.1046 0.040 Uiso 1 1 calc R . .
C22 C 0.4233(2) 1.0650(3) 0.19760(16) 0.0237(8) Uani 1 1 d . . .
C23 C 0.6631(2) 0.8687(3) 0.20925(18) 0.0260(8) Uani 1 1 d . . .
C24 C 0.6104(3) 1.1289(4) 0.04575(19) 0.0374(11) Uani 1 1 d . . .
C25 C 0.5600(3) 1.1603(5) 0.0025(2) 0.0531(15) Uani 1 1 d . . .
H25A H 0.5116 1.1402 0.0061 0.064 Uiso 1 1 calc R . .
C26 C 0.5829(3) 1.2226(5) -0.0464(3) 0.0547(15) Uani 1 1 d . . .
H26A H 0.5493 1.2458 -0.0738 0.066 Uiso 1 1 calc R . .
C27 C 0.6552(3) 1.2483(5) -0.0531(2) 0.0444(12) Uani 1 1 d . . .
C28 C 0.7031(3) 1.2094(6) -0.0140(3) 0.0647(19) Uani 1 1 d . . .
H28A H 0.7520 1.2241 -0.0196 0.078 Uiso 1 1 calc R . .
C29 C 0.6829(3) 1.1486(7) 0.0343(3) 0.079(3) Uani 1 1 d . . .
H29A H 0.7181 1.1209 0.0590 0.095 Uiso 1 1 calc R . .
C30 C 0.6790(3) 1.3163(4) -0.10478(19) 0.0394(11) Uani 1 1 d . . .
C31 C 0.4207(4) 1.3452(7) 0.1309(4) 0.102(2) Uani 1 1 d DU . .
H31A H 0.4392 1.3258 0.1670 0.122 Uiso 1 1 calc R . .
C32 C 0.5445(4) 1.4083(8) 0.0994(5) 0.147(4) Uani 1 1 d DU . .
H32A H 0.5562 1.3784 0.1367 0.221 Uiso 1 1 calc R . .
H32B H 0.5549 1.4855 0.0991 0.221 Uiso 1 1 calc R . .
H32C H 0.5728 1.3722 0.0701 0.221 Uiso 1 1 calc R . .
C33 C 0.4461(8) 1.4350(11) 0.0322(5) 0.212(6) Uani 1 1 d DU . .
H33A H 0.4875 1.4615 0.0114 0.318 Uiso 1 1 calc R . .
H33B H 0.4126 1.4943 0.0383 0.318 Uiso 1 1 calc R . .
H33C H 0.4229 1.3781 0.0101 0.318 Uiso 1 1 calc R . .
O1 O 0.24784(12) 1.1384(3) 0.24341(11) 0.0251(6) Uani 1 1 d . . .
O1W O 0.2852(3) 0.9211(4) 0.3177(3) 0.0931(18) Uani 1 1 d . . .
H1WA H 0.2401 0.9151 0.3321 0.112 Uiso 1 1 d R . .
H1WB H 0.3146 0.8622 0.3170 0.112 Uiso 1 1 d R . .
O2W O 0.1845(4) 0.9113(5) 0.1734(3) 0.129(3) Uani 1 1 d . . .
H2WA H 0.2108 0.8624 0.1936 0.155 Uiso 1 1 d R . .
H2WB H 0.1641 0.8917 0.1394 0.155 Uiso 1 1 d R . .
O2 O 0.22282(16) 1.3625(3) 0.18058(14) 0.0333(7) Uani 1 1 d . . .
O3 O 0.13799(16) 1.3359(3) 0.25027(14) 0.0382(8) Uani 1 1 d . . .
O4 O -0.08482(16) 1.5493(3) 0.24576(14) 0.0421(8) Uani 1 1 d . . .
O5 O -0.10781(16) 1.6646(3) 0.17144(14) 0.0405(8) Uani 1 1 d . . .
O6 O 0.14176(19) 1.8600(3) -0.14342(13) 0.0439(9) Uani 1 1 d . . .
O7 O 0.2569(2) 1.8244(3) -0.12069(15) 0.0447(9) Uani 1 1 d . . .
O8 O 0.38427(16) 1.1268(3) 0.16945(13) 0.0329(7) Uani 1 1 d . . .
O9 O 0.40803(16) 1.0187(3) 0.24540(14) 0.0369(7) Uani 1 1 d . . .
O10 O 0.72610(15) 0.8610(3) 0.18730(14) 0.0316(7) Uani 1 1 d . . .
O11 O 0.63902(15) 0.8176(3) 0.25237(13) 0.0323(7) Uani 1 1 d . . .
O12 O 0.62874(18) 1.3474(3) -0.13847(14) 0.0458(9) Uani 1 1 d . . .
O13 O 0.74353(17) 1.3347(3) -0.11236(13) 0.0371(8) Uani 1 1 d . . .
O14 O 0.35685(18) 1.3311(3) 0.12109(15) 0.0486(9) Uani 1 1 d U . .
N1 N 0.4689(4) 1.3915(8) 0.0877(4) 0.152(3) Uani 1 1 d DU . .

loop_
_atom_site_aniso_label
_atom_site_aniso_U_11
_atom_site_aniso_U_22
_atom_site_aniso_U_33
_atom_site_aniso_U_23
_atom_site_aniso_U_13
_atom_site_aniso_U_12
Zn1 0.0160(2) 0.0279(2) 0.0328(2) -0.00074(19) 0.00125(17) 0.00154(19)
Zn2 0.0159(2) 0.0297(2) 0.0317(2) -0.00120(19) 0.00048(17) -0.00286(19)
Zn3 0.0232(2) 0.0336(3) 0.0243(2) -0.0020(2) 0.00272(18) -0.0059(2)
Zn4 0.0215(2) 0.0362(3) 0.0273(2) 0.0002(2) 0.00380(18) 0.0043(2)
C1 0.0182(19) 0.049(3) 0.034(2) 0.004(2) 0.0064(17) 0.0106(18)
C2 0.0202(19) 0.052(3) 0.029(2) 0.001(2) 0.0085(16) 0.0087(19)
C3 0.030(2) 0.033(2) 0.029(2) 0.0022(19) 0.0073(17) 0.0006(18)
C4 0.030(2) 0.043(2) 0.027(2) -0.0018(19) 0.0048(18) 0.0100(19)
C5 0.025(2) 0.044(3) 0.025(2) 0.0019(18) 0.0033(17) 0.0069(18)
C6 0.0200(19) 0.035(2) 0.035(2) 0.0031(19) 0.0101(17) 0.0068(17)
C7 0.0191(19) 0.040(2) 0.031(2) 0.0030(19) 0.0053(17) 0.0004(17)
C8 0.024(2) 0.048(3) 0.036(3) -0.002(2) 0.0006(18) 0.0091(19)
C9 0.033(2) 0.041(2) 0.031(2) 0.002(2) 0.0077(18) 0.005(2)
C10 0.028(2) 0.080(4) 0.049(3) 0.012(3) 0.004(2) 0.006(3)
C11 0.036(3) 0.084(4) 0.032(2) 0.013(3) 0.0033(19) 0.010(3)
C12 0.035(2) 0.046(3) 0.029(2) 0.003(2) 0.0034(18) -0.005(2)
C13 0.024(2) 0.076(4) 0.037(3) 0.011(3) 0.0054(19) 0.009(2)
C14 0.024(2) 0.063(3) 0.042(3) 0.019(2) -0.0006(19) 0.010(2)
C15 0.030(2) 0.046(3) 0.031(2) -0.0002(19) 0.0016(18) 0.003(2)
C16 0.025(2) 0.041(2) 0.023(2) 0.0036(17) 0.0037(16) 0.0103(17)
C17 0.0191(18) 0.034(2) 0.027(2) 0.0023(17) 0.0071(15) 0.0068(15)
C18 0.027(2) 0.038(2) 0.024(2) 0.0060(19) 0.0033(16) 0.0040(18)
C19 0.030(2) 0.044(3) 0.045(3) 0.012(2) 0.017(2) 0.011(2)
C20 0.032(2) 0.044(3) 0.035(2) 0.011(2) 0.0083(18) 0.012(2)
C21 0.021(2) 0.046(3) 0.033(2) 0.0130(19) 0.0027(17) 0.0116(19)
C22 0.0209(18) 0.034(2) 0.0167(17) -0.0032(16) 0.0047(14) 0.0050(16)
C23 0.0203(19) 0.033(2) 0.0245(19) 0.0032(17) 0.0101(16) 0.0043(16)
C24 0.032(2) 0.054(3) 0.026(2) 0.013(2) 0.0124(18) 0.017(2)
C25 0.037(3) 0.075(4) 0.048(3) 0.021(3) 0.012(2) 0.017(3)
C26 0.034(3) 0.077(4) 0.053(3) 0.021(3) -0.002(2) 0.001(3)
C27 0.039(3) 0.056(3) 0.039(2) 0.018(2) 0.016(2) 0.021(2)
C28 0.023(2) 0.104(5) 0.067(4) 0.041(4) 0.001(2) 0.003(3)
C29 0.026(3) 0.142(7) 0.070(4) 0.070(5) -0.002(3) 0.002(3)
C30 0.046(3) 0.044(3) 0.028(2) 0.0003(19) 0.010(2) 0.009(2)
C31 0.099(5) 0.109(5) 0.097(5) -0.024(4) 0.019(4) -0.033(4)
C32 0.058(5) 0.139(8) 0.245(11) -0.069(8) -0.006(6) -0.023(6)
C33 0.293(13) 0.210(13) 0.132(9) 0.074(9) -0.077(10) -0.066(12)
O1 0.0159(13) 0.0314(17) 0.0279(15) -0.0024(11) 0.0047(12) -0.0005(10)
O1W 0.084(3) 0.049(2) 0.146(5) 0.039(3) 0.058(3) -0.002(2)
O2W 0.193(7) 0.065(3) 0.130(5) -0.025(3) 0.057(5) 0.007(4)
O2 0.0219(14) 0.0346(16) 0.0435(18) 0.0063(14) 0.0073(13) 0.0069(12)
O3 0.0232(15) 0.0501(19) 0.0413(18) 0.0135(16) 0.0042(14) 0.0067(14)
O4 0.0296(16) 0.067(2) 0.0297(16) 0.0083(16) 0.0105(13) 0.0193(16)
O5 0.0227(15) 0.066(2) 0.0329(17) 0.0084(16) 0.0044(13) 0.0135(15)
O6 0.0398(19) 0.068(2) 0.0242(16) 0.0028(16) 0.0044(14) 0.0050(17)
O7 0.049(2) 0.056(2) 0.0288(17) 0.0004(16) 0.0000(15) -0.0177(17)
O8 0.0240(14) 0.0431(17) 0.0317(16) 0.0028(14) 0.0025(12) 0.0097(13)
O9 0.0263(15) 0.0452(18) 0.0391(18) 0.0088(15) 0.0102(13) 0.0100(14)
O10 0.0187(13) 0.0352(16) 0.0408(18) 0.0072(14) 0.0031(12) 0.0086(12)
O11 0.0191(14) 0.0415(17) 0.0361(16) 0.0110(14) -0.0022(12) 0.0072(13)
O12 0.0317(18) 0.071(3) 0.0344(18) 0.0208(18) 0.0110(14) 0.0158(17)
O13 0.0287(16) 0.057(2) 0.0250(16) 0.0028(15) 0.0026(12) -0.0009(15)
O14 0.0354(18) 0.062(2) 0.049(2) 0.0066(18) 0.0101(16) -0.0058(17)
N1 0.144(6) 0.160(6) 0.151(6) -0.028(6) 0.048(5) -0.067(5)

_geom_special_details            
; 
 All esds (except the esd in the dihedral angle between two l.s. planes) 
 are estimated using the full covariance matrix.  The cell esds are taken 
 into account individually in the estimation of esds in distances, angles 
 and torsion angles; correlations between esds in cell parameters are only 
 used when they are defined by crystal symmetry.  An approximate (isotropic) 
 treatment of cell esds is used for estimating esds involving l.s. planes. 
;

loop_
_geom_bond_atom_site_label_1
_geom_bond_atom_site_label_2
_geom_bond_distance
_geom_bond_site_symmetry_2
_geom_bond_publ_flag
Zn1 O1 2.032(3) . ?
Zn1 O11 2.073(3) 4_655 ?
Zn1 O2 2.078(3) . ?
Zn1 O8 2.105(3) . ?
Zn1 O14 2.157(3) . ?
Zn1 O13 2.165(3) 3_475 ?
Zn1 Zn3 3.1951(9) . ?
Zn1 Zn2 3.1997(10) . ?
Zn1 Zn4 3.2108(10) . ?
Zn2 O1 1.980(3) . ?
Zn2 O3 2.008(3) . ?
Zn2 O5 2.039(3) 4_545 ?
Zn2 O10 2.049(3) 4_655 ?
Zn2 O7 2.142(4) 2_585 ?
Zn2 Zn3 3.0824(9) . ?
Zn2 Zn4 3.0954(9) . ?
Zn3 O1 1.909(3) . ?
Zn3 O4 1.965(3) 4_545 ?
Zn3 O12 1.997(3) 3_475 ?
Zn3 O2W 2.035(5) . ?
Zn3 Zn4 3.3728(10) . ?
Zn4 O1 1.924(3) . ?
Zn4 O1W 1.950(4) . ?
Zn4 O9 1.973(3) . ?
Zn4 O6 1.980(3) 2_585 ?
C1 C6 1.391(6) . ?
C1 C2 1.407(5) . ?
C1 C7 1.477(6) . ?
C2 C3 1.384(6) . ?
C2 H2A 0.9300 . ?
C3 C4 1.385(6) . ?
C3 C8 1.506(6) . ?
C4 C5 1.391(6) . ?
C4 H4A 0.9300 . ?
C5 C6 1.380(6) . ?
C5 C9 1.521(6) . ?
C6 H6A 0.9300 . ?
C7 O2 1.274(5) . ?
C7 O3 1.286(5) . ?
C8 O4 1.256(6) . ?
C8 O5 1.276(5) . ?
C9 C10 1.369(7) . ?
C9 C14 1.380(6) . ?
C10 C11 1.386(7) . ?
C10 H10A 0.9300 . ?
C11 C12 1.382(6) . ?
C11 H11A 0.9300 . ?
C12 C13 1.394(7) . ?
C12 C15 1.506(6) . ?
C13 C14 1.375(7) . ?
C13 H13A 0.9300 . ?
C14 H14A 0.9300 . ?
C15 O7 1.248(6) . ?
C15 O6 1.277(6) . ?
C16 C17 1.374(5) . ?
C16 C21 1.393(6) . ?
C16 C22 1.521(5) . ?
C17 C18 1.404(5) . ?
C17 H17A 0.9300 . ?
C18 C19 1.408(6) . ?
C18 C23 1.497(6) . ?
C19 C20 1.388(6) . ?
C19 H19A 0.9300 . ?
C20 C21 1.396(6) . ?
C20 C24 1.484(6) . ?
C21 H21A 0.9300 . ?
C22 O8 1.227(5) . ?
C22 O9 1.269(5) . ?
C23 O11 1.254(5) . ?
C23 O10 1.273(5) . ?
C24 C29 1.387(7) . ?
C24 C25 1.417(7) . ?
C25 C26 1.423(7) . ?
C25 H25A 0.9300 . ?
C26 C27 1.380(7) . ?
C26 H26A 0.9300 . ?
C27 C28 1.350(7) . ?
C27 C30 1.517(6) . ?
C28 C29 1.388(7) . ?
C28 H28A 