####################################################################### 
# 
# This file contains crystal structure data downloaded from the 
# Cambridge Structural Database (CSD) hosted by the Cambridge 
# Crystallographic Data Centre (CCDC).
# 
# Full information about CCDC data access policies and citation 
# guidelines are available at http://www.ccdc.cam.ac.uk/access/V1 
# 
# Audit and citation data items may have been added by the CCDC. 
# Please retain this information to preserve the provenance of 
# this file and to allow appropriate attribution of the data. 
# 
#######################################################################

data_C2c_squeeze
_audit_block_doi                 10.5517/cc10m30r
_database_code_depnum_ccdc_archive 'CCDC 941873'
loop_
_citation_id
_citation_doi
_citation_year
1 10.1002/chem.201402270 2014
_audit_update_record             
;
2013-05-29 deposited with the CCDC.	2024-07-09 downloaded from the CCDC.
;


#=============================================================================
# start Validation Reply Form
#
# Alerts Level A
#

_vrf_PLAT201_C2c_squeeze         
;
PROBLEM: Isotropic non-H Atoms in Main Residue(s)  
RESPONSE: As described in the technical section given as Electronic 
Supporting Information, the molecular unit was found to be severely
affected by positional disorder, most likely arising from the combined
effect of thermal vibrations, the presence of large voids in the structure
(with unaccounted solvent molecules) and molecular disorder associated
with the bridge between the two porphyrin rings. As a consequence, only
the core carbon and nitrogen atoms, alongside with the crystallographically
independent Zn2+ cation, could be refined by assuming anisotropic 
displacement parameters. All remaining atoms were included in the final
structural model with individual isotropic thermal parameters. 
;

_vrf_PLAT241_C2c_squeeze         
;
PROBLEM: Check High      Ueq as Compared to Neighbors  
RESPONSE: As explained in _vrf_PLAT201, the atoms composing the perypheral
substituent groups are significanly more affected by thermal disorder 
than those of the core porphyrin molecule. In this way, for the same 
molecular unit, the ratio between Ueq is, thus, high, hence giving rise to
this alert. For the specific alert related to C15 please see _vrf_PLAT213.
;

#
# Alerts Level B
#
_vrf_PLAT026_C2c_squeeze         
;
PROBLEM: Ratio Observed / Unique Reflections too Low ....         32 Perc
RESPONSE: Please see our response to _vrf_RINTA01.
;

_vrf_PLAT220_C2c_squeeze         
;
PROBLEM: Large Non-Solvent    C     Ueq(max)/Ueq(min) 
RESPONSE: Please see our response to _vrf_PLAT241.
;

_vrf_PLAT222_C2c_squeeze         
;
PROBLEM: Large Non-Solvent    H    Uiso(max)/Uiso(min) 
RESPONSE: As stated in the technical section of the manuscript, all 
hydrogen atoms were included in the structural model in typical riding
motion. Because of the high Ueq values of the peripheral carbon atoms
with respect to those of the core of the molecule, the Uiso values of
the attached hydrogen atoms are, thus, also higher than those 
attached to core carbon atoms, hence giving rise to this alert.
;

_vrf_PLAT910_C2c_squeeze         
;
PROBLEM: Missing # of FCF Reflections Below Th(Min)
RESPONSE: Data is 98.8% complete. 
;


#
# Alerts Level C
#
_vrf_RFACR01_C2c_squeeze         
;
PROBLEM: The value of the weighted R factor is > 0.25
RESPONSE: Please see our response to _vrf_RINTA01.
;

_vrf_RINTA01_C2c_squeeze         
;
PROBLEM: The value of Rint is greater than 0.12
RESPONSE: Even though the crystal was a relatively big plate, it diffracted
very poorly at high angle. Please note: several crystals were tested with
that selected for data collection being the best. Indeed, the mean I/s 
drops quickly with increasing resolution being below 1.0 for a resolution
better than 1 A. In addition, throughout the entire angular range the 
Rint was systematically high being only below 0.10 for resolutions lower
than 1.81 A. We attribute this poor diffracting quality to the 
non-centrosymmetric molecule which does not pack well in the solid state.
This leads to the presence of channels with highly disorder solvent 
molecules which further increases the smeared out electron density, 
ultimately leading to the observed high Rint values (and also to high
R-values for the adjustement parameters).
;

_vrf_PLAT020_C2c_squeeze         
;
PROBLEM: The value of Rint is greater than 0.12 .........      0.131      
RESPONSE: Please see our response to _vrf_RINTA01.
;


_vrf_PLAT213_C2c_squeeze         
;
PROBLEM: Atom C15             has ADP max/min Ratio 
RESPONSE: Due to the centrosymmetric model for this space group (C2/c),
atom C15 is also supposedly connected to the aromatic bridging group. The
constraint to this space group imposes significant local hindrance on this
atom ultimately leading to this alert.
;

_vrf_PLAT230_C2c_squeeze         
;
PROBLEM: Hirshfeld Test Diff for    N1     --  C1      
RESPONSE: This alert arises due to the poor quality of the data set.
Please see also our response to _vrf_RINTA01 for additional details.
;

_vrf_PLAT234_C2c_squeeze         
;
PROBLEM: Large Hirshfeld Difference     
RESPONSE: This alert arises due to the poor quality of the data set.
Please see also our response to _vrf_RINTA01 for additional details.
;

_vrf_PLAT242_C2c_squeeze         
;
PROBLEM: Check Low       Ueq as Compared to Neighbors      
RESPONSE: Please see our response to _vrf_PLAT241.
;

_vrf_PLAT341_C2c_squeeze         
;
PROBLEM: Low Bond Precision on  C-C Bonds      
RESPONSE: This alert arises due to the poor quality of the data set.
Please see also our response to _vrf_RINTA01 for additional details.
;

_vrf_PLAT366_C2c_squeeze         
;
PROBLEM: Short? C(sp?)-C(sp?) Bond  C9     -   C10         
RESPONSE: This alert arises due to the poor quality of the data set.
Please see also our response to _vrf_RINTA01 for additional details.
;

_vrf_PLAT369_C2c_squeeze         
;
PROBLEM: Long   C(sp2)-C(sp2) Bond  C12    -   C33           
RESPONSE: This alert arises due to the poor quality of the data set.
Please see also our response to _vrf_RINTA01 for additional details.
;

_vrf_PLAT410_C2c_squeeze         
;
PROBLEM: Short Intra H...H Contact  H15    ..  H47             
RESPONSE: This short contact arises from the crystal symmetry and 
does not occur in the real structure: because of the presence of only
one porphyrin ring in the asymmetric unit for space group C 2/c, a 
second aromatic bridging molecule is generated leading to this close
proximity. In reality, when H15 is present H47 is absent and vice-versa.
;

_vrf_PLAT303_C2c_squeeze         
;
PROBLEM: Full Occupancy H-Atom  H15    with # Connections       1.50                 
RESPONSE: This alert arises solely from the crystal symmetry and 
does not occur in the real structure: because of the presence of only
one porphyrin ring in the asymmetric unit for space group C 2/c, a 
second aromatic bridging molecule is generated leading to this close
proximity. In reality, when H15 is present only one connection
exists which is to C15.
;

_vrf_PLAT906_C2c_squeeze         
;
PROBLEM: Large K value in the Analysis of Variance          
RESPONSE: K is large only for the ewakest reflections with Fc/Fcmax 
lower than 0.010.
;

# end Validation Reply Form
#=============================================================================


# ===========================================================================
_audit_creation_method           'SHELXL-97, manual editing plus enCIFer'
_audit_creation_date             '27 May 2013'
# ============================================================================

_chemical_name_systematic        
; 
 ? 
;
_chemical_name_common            ?
_chemical_melting_point          ?
_chemical_formula_moiety         'C95 H61 N9 Zn2'
_chemical_formula_sum            'C95 H61 N9 Zn2'
_chemical_formula_weight         1459.27

loop_
_atom_type_symbol
_atom_type_description
_atom_type_scat_dispersion_real
_atom_type_scat_dispersion_imag
_atom_type_scat_source
C C 0.0033 0.0016 'International Tables Vol C Tables 4.2.6.8 and 6.1.1.4'
H H 0.0000 0.0000 'International Tables Vol C Tables 4.2.6.8 and 6.1.1.4'
N N 0.0061 0.0033 'International Tables Vol C Tables 4.2.6.8 and 6.1.1.4'
Zn Zn 0.2839 1.4301 'International Tables Vol C Tables 4.2.6.8 and 6.1.1.4'

#==============================================================================
# CRYSTAL DATA
#==============================================================================

_symmetry_cell_setting           Monoclinic
_symmetry_space_group_name_H-M   'C 2/c'
_symmetry_space_group_name_Hall  '-C 2yc'

loop_
_symmetry_equiv_pos_as_xyz
'x, y, z'
'-x, y, -z+1/2'
'x+1/2, y+1/2, z'
'-x+1/2, y+1/2, -z+1/2'
'-x, -y, -z'
'x, -y, z-1/2'
'-x+1/2, -y+1/2, -z'
'x+1/2, -y+1/2, z-1/2'

_cell_length_a                   29.978(4)
_cell_length_b                   18.696(2)
_cell_length_c                   18.525(2)
_cell_angle_alpha                90.00
_cell_angle_beta                 117.550(6)
_cell_angle_gamma                90.00
_cell_volume                     9205.4(19)
_cell_formula_units_Z            4
_cell_measurement_temperature    150(2)
_cell_measurement_reflns_used    2913
_cell_measurement_theta_min      2.32
_cell_measurement_theta_max      18.50

_exptl_crystal_description       Plate
_exptl_crystal_colour            Violet
_exptl_crystal_size_max          0.18
_exptl_crystal_size_mid          0.10
_exptl_crystal_size_min          0.05
_exptl_crystal_density_meas      ?
_exptl_crystal_density_diffrn    1.053
_exptl_crystal_density_method    'not measured'
_exptl_crystal_F_000             3016
_exptl_absorpt_coefficient_mu    0.566
_exptl_absorpt_correction_type   Multi-scan
_exptl_absorpt_correction_T_min  0.9050
_exptl_absorpt_correction_T_max  0.9722
_exptl_absorpt_process_details   
;
 SADABS (Sheldrick, 1997)
;


#==============================================================================
# EXPERIMENTAL DATA
#============================================================================== 

_exptl_special_details           
; 
 ? 
;

_diffrn_ambient_temperature      150(2)
_diffrn_radiation_wavelength     0.71073
_diffrn_radiation_type           MoK\a
_diffrn_radiation_source         'fine-focus sealed tube'
_diffrn_radiation_monochromator  graphite
_diffrn_measurement_device_type  'Bruker X8 Kappa CCD APEX II'
_diffrn_measurement_method       '\w / \f scans'
_diffrn_detector_area_resol_mean ?
_diffrn_standards_number         0
_diffrn_standards_interval_count .
_diffrn_standards_interval_time  .
_diffrn_standards_decay_%        ?
_diffrn_reflns_number            30935
_diffrn_reflns_av_R_equivalents  0.1313
_diffrn_reflns_av_sigmaI/netI    0.2631
_diffrn_reflns_limit_h_min       -36
_diffrn_reflns_limit_h_max       36
_diffrn_reflns_limit_k_min       -22
_diffrn_reflns_limit_k_max       19
_diffrn_reflns_limit_l_min       -22
_diffrn_reflns_limit_l_max       19
_diffrn_reflns_theta_min         3.52
_diffrn_reflns_theta_max         25.35
_reflns_number_total             8337
_reflns_number_gt                2676
_reflns_threshold_expression     I>2\s(I)

_computing_data_collection       'APEX2 (Bruker, 2006)'
_computing_cell_refinement       'APEX2 (Bruker, 2006)'
_computing_data_reduction        'SAINT+ (Bruker, 2005)'
_computing_structure_solution    'SHELXTL (Sheldrick, 2008)'
_computing_structure_refinement  'SHELXTL (Sheldrick, 2008)'
_computing_molecular_graphics    'DIAMOND (Brandenburg, 2009)'
_computing_publication_material  'SHELXTL (Sheldrick, 2008)'


#=============================================================================
# REFINEMENT DATA
#=============================================================================

_refine_special_details          
; 
 Refinement of F^2^ against ALL reflections.  The weighted R-factor wR and 
 goodness of fit S are based on F^2^, conventional R-factors R are based 
 on F, with F set to zero for negative F^2^. The threshold expression of 
 F^2^ > 2sigma(F^2^) is used only for calculating R-factors(gt) etc. and is 
 not relevant to the choice of reflections for refinement.  R-factors based 
 on F^2^ are statistically about twice as large as those based on F, and R- 
 factors based on ALL data will be even larger. 
;

_refine_ls_structure_factor_coef Fsqd
_refine_ls_matrix_type           full
_refine_ls_weighting_scheme      calc
_refine_ls_weighting_details     
'calc w=1/[\s^2^(Fo^2^)+(0.0800P)^2^+0.0000P] where P=(Fo^2^+2Fc^2^)/3'
_atom_sites_solution_primary     direct
_atom_sites_solution_secondary   difmap
_atom_sites_solution_hydrogens   geom
_refine_ls_hydrogen_treatment    constr
_refine_ls_extinction_method     none
_refine_ls_extinction_coef       ?
_refine_ls_number_reflns         8337
_refine_ls_number_parameters     294
_refine_ls_number_restraints     120
_refine_ls_R_factor_all          0.2274
_refine_ls_R_factor_gt           0.0997
_refine_ls_wR_factor_ref         0.2543
_refine_ls_wR_factor_gt          0.2304
_refine_ls_goodness_of_fit_ref   1.075
_refine_ls_restrained_S_all      1.069
_refine_ls_shift/su_max          0.000
_refine_ls_shift/su_mean         0.000


#=============================================================================
# ATOMIC COORDINATES AND DISPLACEMENT PARAMETERS
#=============================================================================

loop_
_atom_site_label
_atom_site_type_symbol
_atom_site_fract_x
_atom_site_fract_y
_atom_site_fract_z
_atom_site_U_iso_or_equiv
_atom_site_adp_type
_atom_site_occupancy
_atom_site_symmetry_multiplicity
_atom_site_calc_flag
_atom_site_refinement_flags
_atom_site_disorder_assembly
_atom_site_disorder_group
Zn1 Zn 0.32408(3) 0.13063(5) 0.19392(6) 0.0548(4) Uani 1 1 d . . .
N1 N 0.3745(2) 0.1956(4) 0.2842(3) 0.0459(17) Uani 1 1 d . . .
N2 N 0.3818(2) 0.0623(3) 0.2117(4) 0.0515(18) Uani 1 1 d . . .
N3 N 0.2800(2) 0.0839(3) 0.0819(4) 0.0496(17) Uani 1 1 d . . .
N4 N 0.2729(2) 0.2134(3) 0.1619(4) 0.0487(17) Uani 1 1 d . . .
C1 C 0.4241(3) 0.1785(5) 0.3370(5) 0.052(2) Uani 1 1 d U . .
C2 C 0.4496(3) 0.1153(5) 0.3363(4) 0.047(2) Uani 1 1 d U . .
C3 C 0.4296(3) 0.0583(5) 0.2798(5) 0.052(2) Uani 1 1 d U . .
C4 C 0.4547(3) -0.0055(5) 0.2792(6) 0.060(2) Uani 1 1 d U . .
H4 H 0.4877 -0.0192 0.3181 0.072 Uiso 1 1 calc R . .
C5 C 0.4238(3) -0.0426(4) 0.2142(6) 0.057(2) Uani 1 1 d U . .
H5 H 0.4305 -0.0885 0.1994 0.068 Uiso 1 1 calc R . .
C6 C 0.3773(3) -0.0007(5) 0.1686(6) 0.064(3) Uani 1 1 d U . .
C7 C 0.3365(4) -0.0180(5) 0.0941(6) 0.069(3) Uani 1 1 d U . .
C8 C 0.2914(3) 0.0233(5) 0.0531(5) 0.063(3) Uani 1 1 d U . .
C9 C 0.2502(4) 0.0056(6) -0.0262(6) 0.077(3) Uani 1 1 d U . .
C10 C 0.2148(4) 0.0546(6) -0.0384(6) 0.084(3) Uani 1 1 d U . .
H10 H 0.1826 0.0567 -0.0844 0.101 Uiso 1 1 calc R . .
C11 C 0.2329(3) 0.1024(5) 0.0276(5) 0.051(2) Uani 1 1 d U . .
C12 C 0.2075(3) 0.1595(5) 0.0344(5) 0.050(2) Uani 1 1 d U . .
C13 C 0.2252(3) 0.2108(5) 0.0959(5) 0.051(2) Uani 1 1 d U . .
C14 C 0.1988(3) 0.2717(5) 0.1009(6) 0.095(4) Uani 1 1 d U . .
H14 H 0.1651 0.2834 0.0634 0.114 Uiso 1 1 calc R . .
C15 C 0.2285(4) 0.3103(5) 0.1663(7) 0.140(5) Uani 1 1 d U . .
H15 H 0.2197 0.3537 0.1832 0.169 Uiso 1 1 calc R . .
C16 C 0.2760(3) 0.2744(4) 0.2065(6) 0.069(3) Uani 1 1 d U . .
C17 C 0.3209(3) 0.2960(4) 0.2747(5) 0.061(2) Uani 1 1 d U . .
C18 C 0.3658(3) 0.2617(4) 0.3066(5) 0.051(2) Uani 1 1 d U . .
C19 C 0.4121(3) 0.2870(5) 0.3748(4) 0.052(2) Uani 1 1 d U . .
H19 H 0.4161 0.3317 0.4016 0.062 Uiso 1 1 calc R . .
C20 C 0.4479(3) 0.2379(4) 0.3938(5) 0.051(2) Uani 1 1 d U . .
H20 H 0.4817 0.2407 0.4354 0.061 Uiso 1 1 calc R . .
C21 C 0.50238(15) 0.1061(3) 0.4016(3) 0.054(2) Uiso 1 1 d G . .
C22 C 0.5420(2) 0.1186(3) 0.3839(3) 0.062(2) Uiso 1 1 d G . .
H22 H 0.5353 0.1315 0.3302 0.074 Uiso 1 1 calc R . .
C23 C 0.59137(17) 0.1122(3) 0.4447(3) 0.072(3) Uiso 1 1 d G . .
H23 H 0.6184 0.1207 0.4326 0.087 Uiso 1 1 calc R . .
C24 C 0.60114(16) 0.0933(3) 0.5232(3) 0.077(3) Uiso 1 1 d G . .
H24 H 0.6349 0.0889 0.5648 0.092 Uiso 1 1 calc R . .
C25 C 0.5615(2) 0.0808(3) 0.5409(3) 0.088(3) Uiso 1 1 d G . .
H25 H 0.5682 0.0679 0.5946 0.106 Uiso 1 1 calc R . .
C26 C 0.51215(19) 0.0872(3) 0.4801(3) 0.076(3) Uiso 1 1 d G . .
H26 H 0.4851 0.0787 0.4922 0.091 Uiso 1 1 calc R . .
C27 C 0.3414(3) -0.0891(4) 0.0605(4) 0.091(3) Uiso 1 1 d G . .
C28 C 0.3703(3) -0.0925(4) 0.0197(4) 0.093(3) Uiso 1 1 d G . .
H28 H 0.3859 -0.0505 0.0130 0.112 Uiso 1 1 calc R . .
C29 C 0.3764(3) -0.1573(5) -0.0115(4) 0.113(4) Uiso 1 1 d G . .
H29 H 0.3961 -0.1597 -0.0394 0.136 Uiso 1 1 calc R . .
C30 C 0.3536(3) -0.2187(3) -0.0018(5) 0.162(5) Uiso 1 1 d G . .
H30 H 0.3577 -0.2630 -0.0231 0.194 Uiso 1 1 calc R . .
C31 C 0.3247(3) -0.2153(4) 0.0390(5) 0.183(6) Uiso 1 1 d G . .
H31 H 0.3091 -0.2573 0.0457 0.220 Uiso 1 1 calc R . .
C32 C 0.3186(3) -0.1505(5) 0.0702(4) 0.149(5) Uiso 1 1 d G . .
H32 H 0.2989 -0.1481 0.0981 0.179 Uiso 1 1 calc R . .
C33 C 0.15212(17) 0.1691(3) -0.0275(3) 0.060(2) Uiso 1 1 d G . .
C34 C 0.1392(2) 0.1957(3) -0.1047(4) 0.073(3) Uiso 1 1 d G . .
H34 H 0.1648 0.2074 -0.1194 0.088 Uiso 1 1 calc R . .
C35 C 0.0889(2) 0.2052(3) -0.1605(3) 0.093(3) Uiso 1 1 d G . .
H35 H 0.0801 0.2234 -0.2133 0.112 Uiso 1 1 calc R . .
C36 C 0.05149(17) 0.1881(3) -0.1390(3) 0.091(3) Uiso 1 1 d G . .
H36 H 0.0171 0.1946 -0.1771 0.109 Uiso 1 1 calc R . .
C37 C 0.0644(2) 0.1615(3) -0.0618(4) 0.092(3) Uiso 1 1 d G . .
H37 H 0.0388 0.1498 -0.0471 0.111 Uiso 1 1 calc R . .
C38 C 0.1147(2) 0.1520(3) -0.0060(3) 0.078(3) Uiso 1 1 d G . .
H38 H 0.1235 0.1339 0.0468 0.093 Uiso 1 1 calc R . .
C39 C 0.3210(3) 0.3676(4) 0.3079(5) 0.086(3) Uiso 1 1 d G . .
C40 C 0.3405(3) 0.4259(5) 0.2853(4) 0.107(4) Uiso 1 1 d G . .
H40 H 0.3529 0.4199 0.2469 0.129 Uiso 1 1 calc R . .
C41 C 0.3419(3) 0.4928(4) 0.3189(6) 0.151(5) Uiso 1 1 d G . .
H41 H 0.3552 0.5326 0.3034 0.181 Uiso 1 1 calc R . .
C42 C 0.3237(4) 0.5015(5) 0.3751(6) 0.215(7) Uiso 1 1 d G . .
H42 H 0.3246 0.5472 0.3980 0.258 Uiso 1 1 calc R . .
C43 C 0.3041(4) 0.4432(7) 0.3977(6) 0.301(11) Uiso 1 1 d G . .
H43 H 0.2917 0.4492 0.4361 0.361 Uiso 1 1 calc R . .
C44 C 0.3028(3) 0.3763(5) 0.3641(6) 0.204(7) Uiso 1 1 d G . .
H44 H 0.2894 0.3365 0.3795 