####################################################################### 
# 
# This file contains crystal structure data downloaded from the 
# Cambridge Structural Database (CSD) hosted by the Cambridge 
# Crystallographic Data Centre (CCDC).
# 
# Full information about CCDC data access policies and citation 
# guidelines are available at http://www.ccdc.cam.ac.uk/access/V1 
# 
# Audit and citation data items may have been added by the CCDC. 
# Please retain this information to preserve the provenance of 
# this file and to allow appropriate attribution of the data. 
# 
#######################################################################

data_Cc_squeeze
_audit_block_doi                 10.5517/cc10m2zp
_database_code_depnum_ccdc_archive 'CCDC 941872'
loop_
_citation_id
_citation_doi
_citation_year
1 10.1002/chem.201402270 2014
_audit_update_record             
;
2013-05-29 deposited with the CCDC.	2024-07-09 downloaded from the CCDC.
;


#=============================================================================
# start Validation Reply Form
#
# Alerts Level A
#
_vrf_ATOM007_Cc_squeeze          
;
PROBLEM: _atom_site_aniso_label is missing.
RESPONSE: The modelling of the crystal structure in the non-centrosymmetric
Cc space group did not allow the refinement of any non-hydrogen atom using
anisotropic displacement parameters. As a consequence this field is absent
from the CIF file hence the alert.
;


_vrf_PLAT026_Cc_squeeze          
;
PROBLEM: Ratio Observed / Unique Reflections too Low ....         29 Perc.
RESPONSE: Even though the crystal was a relatively big plate, it diffracted
very poorly at high angle. Please note: several crystals were tested with
that selected for data collection being the best. Indeed, the mean I/s 
drops quickly with increasing resolution being below 1.0 for a resolution
better than 1 A. In addition, throughout the entire angular range the 
Rint was systematically high being only below 0.10 for resolutions lower
than 1.81 A. We attribute this poor diffracting quality to the 
non-centrosymmetric molecule which does not pack well in the solid state.
This leads to the presence of channels with highly disorder solvent 
molecules which further increases the smeared out electron density, 
ultimately leading to the observed high Rint values (and also to high
R-values for the adjustement parameters).
;

_vrf_PLAT201_Cc_squeeze          
;
PROBLEM: Isotropic non-H Atoms in Main Residue(s)  
RESPONSE: As described in the technical section given as Electronic 
Supporting Information, the molecular unit was found to be severely
affected by positional disorder, most likely arising from the combined
effect of thermal vibrations, the presence of large voids in the structure
(with unaccounted solvent molecules) and molecular disorder associated
with the bridge between the two porphyrin rings. As a consequence,
for this non-centrosymmetric space group, all atoms were included in 
the final structural model with individual isotropic thermal parameters. 
;

_vrf_PLAT241_Cc_squeeze          
;
PROBLEM: Check High      Ueq as Compared to Neighbors 
RESPONSE: The atoms composing the perypheral substituent groups are 
significanly more affected by thermal disorder than those of the core 
porphyrin molecules. In this way, for the same molecular unit, the 
ratio between Ueq is, thus, high, hence giving rise to this alert. 
;

#
# Alerts Level B
#
_vrf_PLAT111_Cc_squeeze          
;
PROBLEM: ADDSYM Detects (Pseudo) Centre of Symmetry 
RESPONSE: A second structural model has been refined in the centrosymmetric
C2/c space group and it is presented in the publication.
;

_vrf_PLAT210_Cc_squeeze          
;
PROBLEM: No Anisotropic ADP's Found in CIF 
RESPONSE: Please see our response to _vrf_ATOM007.
;

_vrf_PLAT242_Cc_squeeze          
;
PROBLEM: Check Low       Ueq as Compared to Neighbors 
RESPONSE: Please see our response to _vrf_PLAT241.
;

_vrf_PLAT341_Cc_squeeze          
;
PROBLEM: Low Bond Precision on  C-C Bonds      
RESPONSE: This alert arises due to the poor quality of the data set.
Please see also our response to _vrf_PLAT026 for additional details.
;

_vrf_PLAT369_C2c_squeeze         
;
PROBLEM: Long   C(sp2)-C(sp2) Bond  C12    -   C33           
RESPONSE: This alert arises due to the poor quality of the data set.
Please see also our response to _vrf_PLAT026 for additional details.
;

#
# Alerts Level B
#
_vrf_PLAT363_C2c_squeeze         
;
PROBLEM: Long   C(sp3)-C(sp2) Bond  C89    -   C93             
RESPONSE: This alert arises due to the poor quality of the data set.
Please see also our response to _vrf_PLAT026 for additional details.
;

_vrf_PLAT906_Cc_squeeze          
;
PROBLEM: Large K value in the Analysis of Variance          
RESPONSE: K is large only for the ewakest reflections with Fc/Fcmax 
lower than 0.010.
;

# end Validation Reply Form
#=============================================================================


# ===========================================================================
_audit_creation_method           'SHELXL-97, manual editing plus enCIFer'
_audit_creation_date             '27 May 2013'
# ============================================================================

_chemical_name_systematic        
; 
 ? 
;
_chemical_name_common            ?
_chemical_melting_point          ?
_chemical_formula_moiety         'C95 H61 N9 Zn2'
_chemical_formula_sum            'C95 H61 N9 Zn2'
_chemical_formula_weight         1459.27

loop_
_atom_type_symbol
_atom_type_description
_atom_type_scat_dispersion_real
_atom_type_scat_dispersion_imag
_atom_type_scat_source
C C 0.0033 0.0016 'International Tables Vol C Tables 4.2.6.8 and 6.1.1.4'
H H 0.0000 0.0000 'International Tables Vol C Tables 4.2.6.8 and 6.1.1.4'
N N 0.0061 0.0033 'International Tables Vol C Tables 4.2.6.8 and 6.1.1.4'
Zn Zn 0.2839 1.4301 'International Tables Vol C Tables 4.2.6.8 and 6.1.1.4'

#==============================================================================
# CRYSTAL DATA
#==============================================================================

_symmetry_cell_setting           Monoclinic
_symmetry_space_group_name_H-M   'C c'
_symmetry_space_group_name_Hall  'C -2yc'


loop_
_symmetry_equiv_pos_as_xyz
'x, y, z'
'x, -y, z+1/2'
'x+1/2, y+1/2, z'
'x+1/2, -y+1/2, z+1/2'

_cell_length_a                   29.978(4)
_cell_length_b                   18.696(3)
_cell_length_c                   18.525(3)
_cell_angle_alpha                90.00
_cell_angle_beta                 117.550(6)
_cell_angle_gamma                90.00
_cell_volume                     9205(2)
_cell_formula_units_Z            4
_cell_measurement_temperature    150(2)
_cell_measurement_reflns_used    2913
_cell_measurement_theta_min      2.32
_cell_measurement_theta_max      18.50

_exptl_crystal_description       Plate
_exptl_crystal_colour            Violet
_exptl_crystal_size_max          0.18
_exptl_crystal_size_mid          0.10
_exptl_crystal_size_min          0.05
_exptl_crystal_density_meas      ?
_exptl_crystal_density_diffrn    1.053
_exptl_crystal_density_method    'not measured'
_exptl_crystal_F_000             3016
_exptl_absorpt_coefficient_mu    0.566
_exptl_absorpt_correction_type   Multi-scan
_exptl_absorpt_correction_T_min  0.9050
_exptl_absorpt_correction_T_max  0.9722
_exptl_absorpt_process_details   
;
 SADABS (Sheldrick, 1997)
;


#==============================================================================
# EXPERIMENTAL DATA
#============================================================================== 

_exptl_special_details           
; 
 ? 
;

_diffrn_ambient_temperature      150(2)
_diffrn_radiation_wavelength     0.71073
_diffrn_radiation_type           MoK\a
_diffrn_radiation_source         'fine-focus sealed tube'
_diffrn_radiation_monochromator  graphite
_diffrn_measurement_device_type  'Bruker X8 Kappa CCD APEX II'
_diffrn_measurement_method       '\w / \f scans'
_diffrn_detector_area_resol_mean ?
_diffrn_standards_number         0
_diffrn_standards_interval_count .
_diffrn_standards_interval_time  .
_diffrn_standards_decay_%        ?
_diffrn_reflns_number            30936
_diffrn_reflns_av_R_equivalents  0.1127
_diffrn_reflns_av_sigmaI/netI    0.3268
_diffrn_reflns_limit_h_min       -36
_diffrn_reflns_limit_h_max       36
_diffrn_reflns_limit_k_min       -22
_diffrn_reflns_limit_k_max       19
_diffrn_reflns_limit_l_min       -22
_diffrn_reflns_limit_l_max       19
_diffrn_reflns_theta_min         3.52
_diffrn_reflns_theta_max         25.35
_reflns_number_total             14387
_reflns_number_gt                4236
_reflns_threshold_expression     I>2\s(I)

_computing_data_collection       'APEX2 (Bruker, 2006)'
_computing_cell_refinement       'APEX2 (Bruker, 2006)'
_computing_data_reduction        'SAINT+ (Bruker, 2005)'
_computing_structure_solution    'SHELXTL (Sheldrick, 2008)'
_computing_structure_refinement  'SHELXTL (Sheldrick, 2008)'
_computing_molecular_graphics    'DIAMOND (Brandenburg, 2009)'
_computing_publication_material  'SHELXTL (Sheldrick, 2008)'


#=============================================================================
# REFINEMENT DATA
#=============================================================================

_refine_special_details          
; 
 Refinement of F^2^ against ALL reflections.  The weighted R-factor wR and 
 goodness of fit S are based on F^2^, conventional R-factors R are based 
 on F, with F set to zero for negative F^2^. The threshold expression of 
 F^2^ > 2sigma(F^2^) is used only for calculating R-factors(gt) etc. and is 
 not relevant to the choice of reflections for refinement.  R-factors based 
 on F^2^ are statistically about twice as large as those based on F, and R- 
 factors based on ALL data will be even larger. 
;

_refine_ls_structure_factor_coef Fsqd
_refine_ls_matrix_type           full
_refine_ls_weighting_scheme      calc
_refine_ls_weighting_details     
'calc w=1/[\s^2^(Fo^2^)+(0.0500P)^2^+0.0000P] where P=(Fo^2^+2Fc^2^)/3'
_atom_sites_solution_primary     direct
_atom_sites_solution_secondary   difmap
_atom_sites_solution_hydrogens   geom
_refine_ls_hydrogen_treatment    constr
_refine_ls_extinction_method     none
_refine_ls_extinction_coef       ?
_refine_ls_abs_structure_details 'Flack H D (1983), Acta Cryst. A39, 876-881'
_refine_ls_abs_structure_Flack   0.42(3)
_refine_ls_number_reflns         14387
_refine_ls_number_parameters     318
_refine_ls_number_restraints     2
_refine_ls_R_factor_all          0.2372
_refine_ls_R_factor_gt           0.0973
_refine_ls_wR_factor_ref         0.2143
_refine_ls_wR_factor_gt          0.1872
_refine_ls_goodness_of_fit_ref   1.030
_refine_ls_restrained_S_all      1.030
_refine_ls_shift/su_max          0.001
_refine_ls_shift/su_mean         0.000


#=============================================================================
# ATOMIC COORDINATES AND DISPLACEMENT PARAMETERS
#=============================================================================

loop_
_atom_site_label
_atom_site_type_symbol
_atom_site_fract_x
_atom_site_fract_y
_atom_site_fract_z
_atom_site_U_iso_or_equiv
_atom_site_adp_type
_atom_site_occupancy
_atom_site_symmetry_multiplicity
_atom_site_calc_flag
_atom_site_refinement_flags
_atom_site_disorder_assembly
_atom_site_disorder_group
Zn1 Zn 0.54379(6) 0.86970(12) 0.80461(8) 0.0546(7) Uiso 1 1 d . . .
Zn2 Zn 0.39577(6) 0.63104(12) 0.41681(8) 0.0535(7) Uiso 1 1 d . . .
N1 N 0.5909(4) 0.8069(6) 0.8891(6) 0.031(3) Uiso 1 1 d . . .
N2 N 0.6034(5) 0.9350(7) 0.8240(7) 0.038(4) Uiso 1 1 d . . .
N3 N 0.4961(6) 0.9162(8) 0.6879(9) 0.074(5) Uiso 1 1 d . . .
N4 N 0.4955(5) 0.7906(8) 0.7747(8) 0.055(4) Uiso 1 1 d . . .
N6 N 0.3403(5) 0.6965(7) 0.3198(7) 0.043(4) Uiso 1 1 d . . .
N5 N 0.4489(4) 0.7150(7) 0.4513(7) 0.032(3) Uiso 1 1 d . . .
N7 N 0.3394(5) 0.5597(7) 0.4008(7) 0.048(4) Uiso 1 1 d . . .
N8 N 0.4364(4) 0.5842(6) 0.5235(6) 0.024(3) Uiso 1 1 d . . .
C1 C 0.6403(5) 0.8206(8) 0.9455(8) 0.038(4) Uiso 1 1 d . . .
C2 C 0.6723(7) 0.8905(11) 0.9490(12) 0.088(7) Uiso 1 1 d . . .
C3 C 0.6479(5) 0.9392(7) 0.8805(8) 0.032(4) Uiso 1 1 d . . .
C4 C 0.6733(7) 1.0030(10) 0.8880(11) 0.067(6) Uiso 1 1 d . . .
H4 H 0.7050 1.0176 0.9302 0.080 Uiso 1 1 calc R . .
C5 C 0.6404(6) 1.0408(10) 0.8174(10) 0.063(6) Uiso 1 1 d . . .
H5 H 0.6465 1.0851 0.7983 0.075 Uiso 1 1 calc R . .
C6 C 0.5978(8) 0.9995(12) 0.7825(13) 0.085(7) Uiso 1 1 d . . .
C7 C 0.5605(6) 1.0206(9) 0.7105(10) 0.048(5) Uiso 1 1 d . . .
C8 C 0.5092(8) 0.9806(12) 0.6622(12) 0.079(7) Uiso 1 1 d . . .
C9 C 0.4710(5) 0.9885(9) 0.5807(9) 0.063(5) Uiso 1 1 d . . .
H9 H 0.4711 1.0240 0.5441 0.076 Uiso 1 1 calc R . .
C10 C 0.4325(6) 0.9364(8) 0.5608(10) 0.071(5) Uiso 1 1 d . . .
H10 H 0.4026 0.9302 0.5110 0.085 Uiso 1 1 calc R . .
C11 C 0.4499(7) 0.8950(10) 0.6349(11) 0.053(6) Uiso 1 1 d . . .
C12 C 0.4297(6) 0.8391(9) 0.6476(9) 0.036(4) Uiso 1 1 d . . .
C13 C 0.4415(5) 0.7917(8) 0.7056(8) 0.034(4) Uiso 1 1 d . . .
C14 C 0.4144(5) 0.7314(7) 0.7201(8) 0.051(4) Uiso 1 1 d . . .
H14 H 0.3802 0.7204 0.6842 0.061 Uiso 1 1 calc R . .
C15 C 0.4414(5) 0.6950(6) 0.7862(7) 0.043(4) Uiso 1 1 d . . .
C16 C 0.4956(7) 0.7278(10) 0.8234(11) 0.082(6) Uiso 1 1 d . . .
C17 C 0.5434(6) 0.7032(8) 0.8916(9) 0.041(4) Uiso 1 1 d . . .
C18 C 0.5829(5) 0.7426(7) 0.9094(7) 0.031(4) Uiso 1 1 d . . .
C19 C 0.6315(4) 0.7185(7) 0.9836(7) 0.018(3) Uiso 1 1 d . . .
H19 H 0.6328 0.6744 1.0101 0.022 Uiso 1 1 calc R . .
C20 C 0.6695(6) 0.7588(8) 1.0085(9) 0.048(5) Uiso 1 1 d . . .
H20 H 0.7033 0.7540 1.0498 0.058 Uiso 1 1 calc R . .
C21 C 0.7226(3) 0.8992(5) 1.0131(6) 0.050(5) Uiso 1 1 d G . .
C22 C 0.7611(4) 0.8825(5) 0.9941(5) 0.028(4) Uiso 1 1 d G . .
H22 H 0.7534 0.8677 0.9405 0.033 Uiso 1 1 calc R . .
C23 C 0.8110(3) 0.8873(5) 1.0535(7) 0.094(8) Uiso 1 1 d G . .
H23 H 0.8373 0.8759 1.0405 0.113 Uiso 1 1 calc R . .
C24 C 0.8223(3) 0.9089(6) 1.1319(6) 0.059(5) Uiso 1 1 d G . .
H24 H 0.8564 0.9122 1.1725 0.070 Uiso 1 1 calc R . .
C25 C 0.7838(5) 0.9257(6) 1.1509(5) 0.107(8) Uiso 1 1 d G . .
H25 H 0.7915 0.9404 1.2045 0.129 Uiso 1 1 calc R . .
C26 C 0.7339(4) 0.9208(6) 1.0915(7) 0.081(6) Uiso 1 1 d G . .
H26 H 0.7076 0.9322 1.1045 0.097 Uiso 1 1 calc R . .
C27 C 0.5596(4) 1.0837(5) 0.6593(6) 0.076(5) Uiso 1 1 d G . .
C28 C 0.5945(4) 1.0915(5) 0.6300(6) 0.057(5) Uiso 1 1 d G . .
H28 H 0.6133 1.0513 0.6280 0.069 Uiso 1 1 calc R . .
C29 C 0.6019(4) 1.1580(6) 0.6038(6) 0.079(6) Uiso 1 1 d G . .
H29 H 0.6258 1.1633 0.5838 0.095 Uiso 1 1 calc R . .
C30 C 0.5744(5) 1.2168(5) 0.6067(7) 0.098(7) Uiso 1 1 d G . .
H30 H 0.5795 1.2622 0.5888 0.117 Uiso 1 1 calc R . .
C31 C 0.5395(4) 1.2090(6) 0.6360(7) 0.163(9) Uiso 1 1 d G . .
H31 H 0.5207 1.2492 0.6380 0.196 Uiso 1 1 calc R . .
C32 C 0.5321(4) 1.1425(7) 0.6622(6) 0.112(6) Uiso 1 1 d G . .
H32 H 0.5083 1.1372 0.6822 0.135 Uiso 1 1 calc R . .
C33 C 0.3719(4) 0.8406(7) 0.5795(8) 0.092(7) Uiso 1 1 d G . .
C34 C 0.3574(4) 0.8114(6) 0.5029(9) 0.108(8) Uiso 1 1 d G . .
H34 H 0.3821 0.7977 0.4871 0.130 Uiso 1 1 calc R . .
C35 C 0.3066(5) 0.8022(5) 0.4493(6) 0.072(6) Uiso 1 1 d G . .
H35 H 0.2967 0.7822 0.3969 0.086 Uiso 1 1 calc R . .
C36 C 0.2704(3) 0.8223(7) 0.4724(8) 0.106(7) Uiso 1 1 d G . .
H36 H 0.2357 0.8160 0.4358 0.128 Uiso 1 1 calc R . .
C37 C 0.2849(6) 0.8515(7) 0.5490(9) 0.180(11) Uiso 1 1 d G . .
H37 H 0.2602 0.8652 0.5648 0.216 Uiso 1 1 calc R . .
C38 C 0.3357(6) 0.8607(6) 0.6026(6) 0.166(10) Uiso 1 1 d G . .
H38 H 0.3456 0.8807 0.6549 0.200 Uiso 1 1 calc R . .
C39 C 0.5363(4) 0.6361(5) 0.9277(6) 0.059(4) Uiso 1 1 d G . .
C40 C 0.5535(4) 0.5743(7) 0.9068(6) 0.104(6) Uiso 1 1 d G . .
H40 H 0.5610 0.5748 0.8623 0.125 Uiso 1 1 calc R . .
C41 C 0.5596(4) 0.5118(5) 0.9510(7) 0.107(6) Uiso 1 1 d G . .
H41 H 0.5713 0.4696 0.9367 0.129 Uiso 1 1 calc R . .
C42 C 0.5486(4) 0.5110(5) 1.0160(7) 0.126(7) Uiso 1 1 d G . .
H42 H 0.5527 0.4682 1.0462 0.152 Uiso 1 1 calc R . .
C43 C 0.5314(4) 0.5727(7) 1.0369(6) 0.112(6) Uiso 1 1 d G . .
H43 H 0.5238 0.5722 1.0814 0.134 Uiso 1 1 calc R . .
C44 C 0.5253(4) 0.6353(5) 0.9927(7) 0.109(6) Uiso 1 1 d G . .
H44 H 0.5135 0.6775 1.0070 0.131 Uiso 1 1 calc R . .
C45 C 0.4431(6) 0.7724(8) 0.4121(9) 0.040(4) Uiso 1 1 d . . .
C46 C 0.4027(7) 0.7969(10) 0.3459(11) 0.073(6) Uiso 1 1 d . . .
C47 C 0.3486(6) 0.7639(8) 0.2916(9) 0.051(5) Uiso 1 1 d . . .
C48 C 0.3059(6) 0.7951(10) 0.2303(10) 0.080(6) Uiso 1 1 d . . .
H48 H 0.2996 0.8399 0.2031 0.096 Uiso 1 1 calc R . .
C49 C 0.2749(6) 0.7346(8) 0.2234(8) 0.040(5) Uiso 1 1 d . . .
H49 H 0.2417 0.7351 0.1798 0.048 Uiso 1 1 calc R . .
C50 C 0.2881(6) 0.6771(9) 0.2723(9) 0.050(5) Uiso 1 1 d . . .
C51 C 0.2719(4) 0.6164(7) 0.2755(7) 0.013(3) Uiso 1 1 d . . .
C52 C 0.2903(5) 0.5587(8) 0.3219(8) 0.037(4) Uiso 1 1 d . . .
C53 C 0.2656(7) 0.4925(9) 0.3306(10) 0.056(6) Uiso 1 1 d . . .
H53 H 0.2320 0.4785 0.2949 0.067 Uiso 1 1 calc R . .
C54 C 0.2957(5) 0.4577(9) 0.3922(9) 0.038(4) Uiso 1 1 d . . .
H54 H 0.2890 0.4108 0.4045 0.045 Uiso 1 1 calc R . .
C55 C 0.3421(6) 0.4969(8) 0.4430(9) 0.043(5) Uiso 1 1 d . . .
C56 C 0.3872(7) 0.4845(10) 0.5209(11) 0.071(6) Uiso 1 1 d . . .
C57 C 0.4259(6) 0.5226(9) 0.5552(10) 0.045(5) Uiso 1 1 d . . .
C58 C 0.4718(6) 0.4948(9) 0.6321(10) 0.065(5) Uiso 1 1 d . . .
C59 C 0.5053(5) 0.5428(8) 0.6460(8) 0.052(4) Uiso 1 1 d . . .
H59 H 0.