####################################################################### 
# 
# This file contains crystal structure data downloaded from the 
# Cambridge Structural Database (CSD) hosted by the Cambridge 
# Crystallographic Data Centre (CCDC).
# 
# Full information about CCDC data access policies and citation 
# guidelines are available at http://www.ccdc.cam.ac.uk/access/V1 
# 
# Audit and citation data items may have been added by the CCDC. 
# Please retain this information to preserve the provenance of 
# this file and to allow appropriate attribution of the data. 
# 
#######################################################################

data_061017ma
_audit_block_doi                 10.5517/ccq8dmz
_database_code_depnum_ccdc_archive 'CCDC 663481'
loop_
_citation_id
_citation_doi
_citation_year
1 10.1002/ejic.200701211 2008
_audit_update_record             
;
2007-10-11 deposited with the CCDC.	2024-07-09 downloaded from the CCDC.
;

_audit_creation_method           SHELXL-97
_chemical_name_systematic        
;
?
;
_chemical_name_common            ?
_chemical_melting_point          ?
_chemical_formula_moiety         ?
_chemical_formula_sum            'C16 H32 O4 Sn2'
_chemical_formula_weight         525.80

loop_
_atom_type_symbol
_atom_type_description
_atom_type_scat_dispersion_real
_atom_type_scat_dispersion_imag
_atom_type_scat_source
C C 0.0033 0.0000 'International Tables Vol C Tables 4.2.6.8 and 6.1.1.4'
H H 0.0000 0.0000 'International Tables Vol C Tables 4.2.6.8 and 6.1.1.4'
O O 0.0106 0.0000 'International Tables Vol C Tables 4.2.6.8 and 6.1.1.4'
Sn Sn -0.6537 0.0000 'International Tables Vol C Tables 4.2.6.8 and 6.1.1.4'

_symmetry_cell_setting           Orthorhombic
_symmetry_space_group_name_H-M   P2(1)2(1)2

loop_
_symmetry_equiv_pos_as_xyz
'x, y, z'
'-x, -y, z'
'-x+1/2, y+1/2, -z'
'x+1/2, -y+1/2, -z'

_cell_length_a                   19.5005(7)
_cell_length_b                   19.6857(7)
_cell_length_c                   6.7171(3)
_cell_angle_alpha                90.00
_cell_angle_beta                 90.00
_cell_angle_gamma                90.00
_cell_volume                     2578.57(17)
_cell_formula_units_Z            4
_cell_measurement_temperature    273(2)
_cell_measurement_reflns_used    12887
_cell_measurement_theta_min      2.34
_cell_measurement_theta_max      25.776

_exptl_crystal_description       block
_exptl_crystal_colour            colourless
_exptl_crystal_size_max          0.38
_exptl_crystal_size_mid          0.28
_exptl_crystal_size_min          0.18
_exptl_crystal_density_meas      ?
_exptl_crystal_density_diffrn    1.354
_exptl_crystal_density_method    'not measured'
_exptl_crystal_F_000             1040
_exptl_absorpt_coefficient_mu    1.947
_exptl_absorpt_correction_type   multi-scan
_exptl_absorpt_correction_T_min  0.5249
_exptl_absorpt_correction_T_max  0.7207
_exptl_absorpt_process_details   sadabs

_exptl_special_details           
;
?
;

_diffrn_ambient_temperature      273(2)
_diffrn_radiation_wavelength     0.71073
_diffrn_radiation_type           MoK\a
_diffrn_radiation_source         'fine-focus sealed tube'
_diffrn_radiation_monochromator  graphite
_diffrn_measurement_device_type  'CCD area detector'
_diffrn_measurement_method       'phi and omega scans'
_diffrn_detector_area_resol_mean ?
_diffrn_standards_number         ?
_diffrn_standards_interval_count ?
_diffrn_standards_interval_time  ?
_diffrn_standards_decay_%        ?
_diffrn_reflns_number            29370
_diffrn_reflns_av_R_equivalents  0.0328
_diffrn_reflns_av_sigmaI/netI    0.0152
_diffrn_reflns_limit_h_min       -23
_diffrn_reflns_limit_h_max       22
_diffrn_reflns_limit_k_min       -22
_diffrn_reflns_limit_k_max       23
_diffrn_reflns_limit_l_min       -7
_diffrn_reflns_limit_l_max       7
_diffrn_reflns_theta_min         1.47
_diffrn_reflns_theta_max         25.00
_reflns_number_total             2611
_reflns_number_gt                2479
_reflns_threshold_expression     >2sigma(I)

_computing_data_collection       'Bruker SMART'
_computing_cell_refinement       'Bruker SMART'
_computing_data_reduction        'Bruker SAINT'
_computing_structure_solution    'SHELXS-97 (Sheldrick, 1990)'
_computing_structure_refinement  'SHELXL-97 (Sheldrick, 1997)'
_computing_molecular_graphics    'Bruker SHELXTL'
_computing_publication_material  'Bruker SHELXTL'

_refine_special_details          
;
Refinement of F^2^ against ALL reflections. The weighted R-factor wR and
goodness of fit S are based on F^2^, conventional R-factors R are based
on F, with F set to zero for negative F^2^. The threshold expression of
F^2^ > 2sigma(F^2^) is used only for calculating R-factors(gt) etc. and is
not relevant to the choice of reflections for refinement. R-factors based
on F^2^ are statistically about twice as large as those based on F, and R-
factors based on ALL data will be even larger.
;

_refine_ls_structure_factor_coef Fsqd
_refine_ls_matrix_type           full
_refine_ls_weighting_scheme      calc
_refine_ls_weighting_details     
'calc w=1/[\s^2^(Fo^2^)+(0.1110P)^2^+0.5734P] where P=(Fo^2^+2Fc^2^)/3'
_atom_sites_solution_primary     direct
_atom_sites_solution_secondary   difmap
_atom_sites_solution_hydrogens   geom
_refine_ls_hydrogen_treatment    constr
_refine_ls_extinction_method     none
_refine_ls_extinction_coef       ?
_refine_ls_abs_structure_details 'Flack H D (1983), Acta Cryst. A39, 876-881'
_chemical_absolute_configuration unk
_refine_ls_number_reflns         2611
_refine_ls_number_parameters     205
_refine_ls_number_restraints     0
_refine_ls_R_factor_all          0.0324
_refine_ls_R_factor_gt           0.0305
_refine_ls_wR_factor_ref         0.1241
_refine_ls_wR_factor_gt          0.1214
_refine_ls_goodness_of_fit_ref   1.007
_refine_ls_restrained_S_all      1.007
_refine_ls_shift/su_max          0.001
_refine_ls_shift/su_mean         0.000

loop_
_atom_site_label
_atom_site_type_symbol
_atom_site_fract_x
_atom_site_fract_y
_atom_site_fract_z
_atom_site_U_iso_or_equiv
_atom_site_adp_type
_atom_site_occupancy
_atom_site_symmetry_multiplicity
_atom_site_calc_flag
_atom_site_refinement_flags
_atom_site_disorder_assembly
_atom_site_disorder_group
Sn1 Sn 0.53338(3) 0.18290(3) 0.04835(9) 0.0482(2) Uani 1 1 d . . .
Sn2 Sn 0.18649(3) 0.53071(3) 0.10101(9) 0.0499(2) Uani 1 1 d . . .
O1 O 0.4424(3) 0.2274(3) 0.1517(14) 0.072(2) Uani 1 1 d . . .
O2 O 0.3721(3) 0.1502(3) 0.0196(12) 0.0653(17) Uani 1 1 d . . .
O3 O 0.2287(3) 0.4406(3) 0.2141(12) 0.0634(17) Uani 1 1 d . . .
O4 O 0.1516(3) 0.3731(3) 0.0730(11) 0.0617(16) Uani 1 1 d . . .
C1 C 0.3818(4) 0.1994(4) 0.1251(15) 0.054(2) Uani 1 1 d . . .
C2 C 0.3252(4) 0.2335(4) 0.2457(12) 0.0453(17) Uani 1 1 d . . .
C3 C 0.3131(4) 0.3106(4) 0.1869(13) 0.0486(17) Uani 1 1 d . . .
C4 C 0.2393(4) 0.3229(4) 0.2790(12) 0.0474(17) Uani 1 1 d . . .
H4 H 0.2454 0.3354 0.4191 0.057 Uiso 1 1 calc R . .
C5 C 0.2023(4) 0.2545(4) 0.2731(15) 0.056(2) Uani 1 1 d . . .
H5A H 0.1826 0.2443 0.4023 0.067 Uiso 1 1 calc R . .
H5B H 0.1658 0.2554 0.1753 0.067 Uiso 1 1 calc R . .
C6 C 0.2556(4) 0.2009(4) 0.2172(16) 0.056(2) Uani 1 1 d . . .
H6A H 0.2510 0.1613 0.3020 0.068 Uiso 1 1 calc R . .
H6B H 0.2496 0.1869 0.0798 0.068 Uiso 1 1 calc R . .
C7 C 0.3455(6) 0.2246(6) 0.4679(17) 0.076(3) Uani 1 1 d . . .
H7A H 0.3893 0.2454 0.4908 0.114 Uiso 1 1 calc R . .
H7B H 0.3480 0.1771 0.4993 0.114 Uiso 1 1 calc R . .
H7C H 0.3117 0.2459 0.5509 0.114 Uiso 1 1 calc R . .
C8 C 0.3106(6) 0.3142(6) -0.0404(16) 0.074(3) Uani 1 1 d . . .
H8A H 0.2774 0.2824 -0.0894 0.111 Uiso 1 1 calc R . .
H8B H 0.3550 0.3033 -0.0936 0.111 Uiso 1 1 calc R . .
H8C H 0.2979 0.3593 -0.0807 0.111 Uiso 1 1 calc R . .
C9 C 0.3652(5) 0.3592(5) 0.265(3) 0.093(4) Uani 1 1 d . . .
H9A H 0.3668 0.3563 0.4072 0.140 Uiso 1 1 calc R . .
H9B H 0.3530 0.4045 0.2258 0.140 Uiso 1 1 calc R . .
H9C H 0.4094 0.3480 0.2108 0.140 Uiso 1 1 calc R . .
C10 C 0.5247(5) 0.0906(5) 0.2062(16) 0.068(2) Uani 1 1 d . . .
H10A H 0.4789 0.0861 0.2571 0.102 Uiso 1 1 calc R . .
H10B H 0.5567 0.0904 0.3149 0.102 Uiso 1 1 calc R . .
H10C H 0.5345 0.0533 0.1185 0.102 Uiso 1 1 calc R . .
C11 C 0.5938(5) 0.2601(6) 0.1863(19) 0.081(3) Uani 1 1 d . . .
H11A H 0.6071 0.2931 0.0884 0.122 Uiso 1 1 calc R . .
H11B H 0.6341 0.2401 0.2439 0.122 Uiso 1 1 calc R . .
H11C H 0.5675 0.2819 0.2887 0.122 Uiso 1 1 calc R . .
C12 C 0.5170(5) 0.1904(7) -0.2570(15) 0.072(3) Uani 1 1 d . . .
H12A H 0.4856 0.1556 -0.2984 0.108 Uiso 1 1 calc R . .
H12B H 0.5598 0.1848 -0.3259 0.108 Uiso 1 1 calc R . .
H12C H 0.4981 0.2342 -0.2876 0.108 Uiso 1 1 calc R . .
C13 C 0.2023(4) 0.3814(4) 0.1761(14) 0.0519(19) Uani 1 1 d . . .
C14 C 0.2664(5) 0.5886(5) 0.2364(17) 0.067(2) Uani 1 1 d . . .
H14A H 0.2771 0.5697 0.3644 0.101 Uiso 1 1 calc R . .
H14B H 0.2516 0.6348 0.2522 0.101 Uiso 1 1 calc R . .
H14C H 0.3065 0.5873 0.1534 0.101 Uiso 1 1 calc R . .
C15 C 0.1952(6) 0.5138(5) -0.2099(15) 0.073(3) Uani 1 1 d . . .
H15A H 0.2420 0.5199 -0.2502 0.109 Uiso 1 1 calc R . .
H15B H 0.1666 0.5454 -0.2799 0.109 Uiso 1 1 calc R . .
H15C H 0.1809 0.4682 -0.2404 0.109 Uiso 1 1 calc R . .
C16 C 0.0923(4) 0.5258(4) 0.2599(15) 0.062(2) Uani 1 1 d . . .
H16A H 0.0830 0.4796 0.2962 0.094 Uiso 1 1 calc R . .
H16B H 0.0559 0.5425 0.1772 0.094 Uiso 1 1 calc R . .
H16C H 0.0955 0.5531 0.3779 0.094 Uiso 1 1 calc R . .

loop_
_atom_site_aniso_label
_atom_site_aniso_U_11
_atom_site_aniso_U_22
_atom_site_aniso_U_33
_atom_site_aniso_U_23
_atom_site_aniso_U_13
_atom_site_aniso_U_12
Sn1 0.0348(3) 0.0458(3) 0.0641(4) -0.0034(2) -0.0023(2) -0.0014(2)
Sn2 0.0422(3) 0.0441(3) 0.0633(4) -0.0034(2) 0.0012(2) -0.0029(2)
O1 0.032(3) 0.060(4) 0.125(6) -0.018(4) 0.008(4) 0.004(2)
O2 0.046(3) 0.054(3) 0.096(5) -0.018(4) 0.011(3) 0.005(2)
O3 0.054(3) 0.041(3) 0.095(5) -0.003(3) -0.003(4) 0.006(2)
O4 0.054(3) 0.048(3) 0.083(4) 0.003(3) -0.010(3) 0.006(2)
C1 0.037(4) 0.047(4) 0.079(6) 0.003(4) 0.003(4) 0.010(3)
C2 0.037(3) 0.047(4) 0.053(4) 0.002(3) -0.004(3) 0.008(3)
C3 0.040(3) 0.045(4) 0.060(4) -0.002(4) 0.005(4) 0.006(4)
C4 0.041(3) 0.050(4) 0.052(4) -0.003(4) 0.005(3) 0.009(3)
C5 0.036(4) 0.055(4) 0.076(6) 0.008(4) 0.011(4) 0.003(3)
C6 0.048(4) 0.041(4) 0.080(6) -0.005(4) 0.012(4) 0.004(3)
C7 0.070(6) 0.095(7) 0.063(6) 0.011(6) -0.014(5) 0.020(5)
C8 0.069(6) 0.083(6) 0.071(6) 0.026(6) 0.027(5) 0.027(6)
C9 0.052(5) 0.058(6) 0.169(13) -0.026(7) -0.008(7) -0.005(4)
C10 0.059(5) 0.066(5) 0.079(6) 0.007(5) 0.015(5) 0.004(4)
C11 0.056(5) 0.087(7) 0.102(8) -0.029(7) -0.001(6) -0.014(5)
C12 0.052(5) 0.098(8) 0.066(5) 0.012(6) -0.017(4) -0.016(5)
C13 0.042(4) 0.054(4) 0.059(5) -0.001(4) 0.006(4) 0.004(3)
C14 0.072(6) 0.054(5) 0.076(6) 0.000(5) -0.014(5) -0.008(4)
C15 0.096(8) 0.056(5) 0.065(6) -0.008(4) 0.004(6) -0.017(5)
C16 0.053(4) 0.059(5) 0.075(5) 0.009(5) 0.007(4) 0.004(4)

_geom_special_details            
;
All esds (except the esd in the dihedral angle between two l.s. planes)
are estimated using the full covariance matrix. The cell esds are taken
into account individually in the estimation of esds in distances, angles
and torsion angles; correlations between esds in cell parameters are only
used when they are defined by crystal symmetry. An approximate (isotropic)
treatment of cell esds is used for estimating esds involving l.s. planes.
;

loop_
_geom_bond_atom_site_label_1
_geom_bond_atom_site_label_2
_geom_bond_distance
_geom_bond_site_symmetry_2
_geom_bond_publ_flag
Sn1 C12 2.081(10) . ?
Sn1 O1 2.098(6) . ?
Sn1 C10 2.111(10) . ?
Sn1 C11 2.135(10) . ?
Sn2 O3 2.098(6) . ?
Sn2 C15 2.122(10) . ?
Sn2 C16 2.127(9) . ?
Sn2 C14 2.134(9) . ?
O1 C1 1.316(9) . ?
O2 C1 1.216(11) . ?
O3 C13 1.298(10) . ?
O4 C13 1.218(10) . ?
C1 C2 1.525(11) . ?
C2 C6 1.513(11) . ?
C2 C7 1.554(13) . ?
C2 C3 1.586(11) . ?
C3 C9 1.490(13) . ?
C3 C8 1.529(13) . ?
C3 C4 1.585(10) . ?
C4 C13 1.525(11) . ?
C4 C5 1.529(11) . ?
C4 H4 0.9800 . ?
C5 C6 1.527(11) . ?
C5 H5A 0.9700 . ?
C5 H5B 0.9700 . ?
C6 H6A 0.9700 . ?
C6 H6B 0.9700 . ?
C7 H7A 0.9600 . ?
C7 H7B 0.9600 . ?
C7 H7C 0.9600 . ?
C8 H8A 0.9600 . ?
C8 H8B 0.9600 . ?
C8 H8C 0.9600 . ?
C9 H9A 0.9600 . ?
C9 H9B 0.9600 . ?
C9 H9C 0.9600 . ?
C10 H10A 0.9600 . ?
C10 H10B 0.9600 . ?
C10 H10C 0.9600 . ?
C11 H11A 0.9600 . ?
C11 H11B 0.9600 . ?
C11 H11C 0.9600 . ?
C12 H12A 0.9600 . ?
C12 H12B 0.9600 . ?
C12 H12C 0.9600 . ?
C14 H14A 0.9600 . ?
C14 H14B 0.9600 . ?
C14 H14C 0.9600 . ?
C15 H15A 0.9600 . ?
C15 H15B 0.9600 . ?
C15 H15C 0.9600 . ?
C16 H16A 0.9600 . ?
C16 H16B 0.9600 . ?
C16 H16C 0.9600 . ?

loop_
_geom_angle_atom_site_label_1
_geom_angle_atom_site_label_2
_geom_angle_atom_site_label_3
_geom_angle
_geom_angle_site_symmetry_1
_geom_angle_site_symmetry_3
_geom_angle_publ_flag
C12 Sn1 O1 99.6(4) . . ?
C12 Sn1 C10 122.9(5) . . ?
O1 Sn1 C10 97.2(3) . . ?
C12 Sn1 C11 117.5(5) . . ?
O1 Sn1 C11 91.5(4) . . ?
C10 Sn1 C11 116.0(5) . . ?
O3 Sn2 C15 101.1(4) . . ?
O3 Sn2 C16 96.8(3) . . ?
C15 Sn2 C16 123.8(4) . . ?
O3 Sn2 C14 90.6(3) . . ?
C15 Sn2 C14 116.4(4) . . ?
C16 Sn2 C14 116.2(4) . . ?
C1 O1 Sn1 122.7(5) . . ?
C13 O3 Sn2 122.2(6) . . ?
O2 C1 O1 123.5(7) . . ?
O2 C1 C2 123.3(7) . . ?
O1 C1 C2 113.2(7) . . ?
C6 C2 C1 113.3(7) . . ?
C6 C2 C7 107.7(8) . . ?
C1 C2 C7 106.1(7) . . ?
C6 C2 C3 103.9(6) . . ?
C1 C2 C3 113.3(7) . . ?
C7 C2 C3 112.6(7) . . ?
C9 C3 C8 109.9(11) . . ?
C9 C3 C4 112.6(8) . . ?
C8 C3 C4 110.7(8) . . ?
C9 C3 C2 115.2(8) . . ?
C8 C3 C2 107.3(8) . . ?
C4 C3 C2 100.6(6) . . ?
C13 C4 C5 115.5(6) . . ?
C13 C4 C3 111.7(7) . . ?
C5 C4 C3 106.5(6) . . ?
C13 C4 H4 107.6 . . ?
C5 C4 H4 107.6 . . ?
C3 C4 H4 107.6 . . ?
C6 C5 C4 107.1(6) . . ?
C6 C5 H5A 110.3 . . ?
C4 C5 H5A 110.3 . . ?
C6 C5 H5B 110.3 . . ?
C4 C5 H5B 110.3 . . ?
H5A C5 H5B 108.6 . . ?
C2 C6 C5 106.6(7) . . ?
C2 C6 H6A 110.4 . . ?
C5 C6 H6A 110.4 . . ?
C2 C6 H6B 110.4 . . ?
C5 C6 H6B 110.4 . . ?
H6A C6 H6B 108.6 . . ?
C2 C7 H7A 109.5 . . ?
C2 C7 H7B 109.5 . . ?
H7A C7 H7B 109.5 . . ?
C2 C7 H7C 109.5 . . ?
H7A C7 H7C 109.5 . . ?
H7B C7 H7C 109.5 . . ?
C3 C8 H8A 109.5 . . ?
C3 C8 H8B 109.5 . . ?
H8A C8 H8B 109.5 . . ?
C3 C8 H8C 109.5 . . ?
H8A C8 H8C 109.5 . . ?
H8B C8 H8C 109.5 . . ?
C3 C9 H9A 109.5 . . ?
C3 C9 H9B 109.5 . . ?
H9A C9 H9B 109.5 . . ?
C3 C9 H9C 109.5 . . ?
H9A C9 H9C 109.5 . . ?
H9B C9 H9C 109.5 . . ?
Sn1 C10 H10A 109.5 . . ?
Sn1 C10 H10B 109.5 . . ?
H10A C10 H10B 109.5 . . ?
Sn1 C10 H10C 109.5 . . ?
H10A C10 H10C 109.5 . . ?
H10B C10 H10C 109.5 . . ?
Sn1 C11 H11A 109.5 . . ?
Sn1 C11 H11B 109.5 . . ?
H11A C11 H11B 109.5 . . ?
Sn1 C11 H11C 109.5 . . ?
H11A C11 H11C 109.5 . . ?
H11B C11 H11C 109.5 . . ?
Sn1 C12 H12A 109.5 . . ?
Sn1 C12 H12B 109.5 . . ?
H12A C12 H12B 109.5 . . ?
Sn1 C12 H12C 109.5 . . ?
H12A C12 H12C 109.5 . . ?
H12B C12 H12C 109.5 . . ?
O4 C13 O3 123.6(8) . . ?
O4 C13 C4 122.7(7) . . ?
O3 C13 C4 113.6(7) . . ?
Sn2 C14 H14A 109.5 . . ?
Sn2 C14 H14B 109.5 . . ?
H14A C14 H14B 109.5 . . ?
Sn2 C14 H14C 109.5 . . ?
H14A C14 H14C 109.5 . . ?
H14B C14 H14C 109.5 . . ?
Sn2 C15 H15A 109.5 . . ?
Sn2 C15 H15B 109.5 . . ?
H15A C15 H15B 109.5 . . ?
Sn2 C15 H15C 109.5 . . ?
H15A C15 H15C 109.5 . . ?
H15B C15 H15C 109.5 . . ?
Sn2 C16 H16A 109.5 . . ?
Sn2 C16 H16B 109.5 . . ?
H16A C16 H16B 109.5 . . ?
Sn2 C16 H16C 109.5 . . ?
H16A C16 H16C 109.5 . . ?
H16B C16 H16C 109.5 . . ?

loop_
_geom_torsion_atom_site_label_1
_geom_torsion_atom_site_label_2
_geom_torsion_atom_site_label_3
_geom_torsion_atom_site_label_4
_geom_torsion
_geom_torsion_site_symmetry_1
_geom_torsion_site_symmetry_2
_geom_torsion_site_symmetry_3
_geom_torsion_site_symmetry_4
_geom_torsion_publ_flag
C12 Sn1 O1 C1 66.4(9) . . . . ?
C10 Sn1 O1 C1 -58.8(9) . . . . ?
C11 Sn1 O1 C1 -175.3(9) . . . . ?
C15 Sn2 O3 C13 -60.8(8) . . . . ?
C16 Sn2 O3 C13 65.6(7) . . . . ?
C14 Sn2 O3 C13 -177.9(8) . . . . ?
Sn1 O1 C1 O2 -9.0(14) . . . . ?
Sn1 O1 C1 C2 169.0(6) . . . . ?
O2 C1 C2 C6 -1.3(12) . . . . ?
O1 C1 C2 C6 -179.4(8) . . . . ?
O2 C1 C2 C7 116.5(10) . . . . ?
O1 C1 C2 C7 -61.5(10) . . . . ?
O2 C1 C2 C3 -119.5(9) . . . . ?
O1 C1 C2 C3 62.5(10) . . . . ?
C6 C2 C3 C9 160.1(10) . . . . ?
C1 C2 C3 C9 -76.5(11) . . . . ?
C7 C2 C3 C9 43.9(12) . . . . ?
C6 C2 C3 C8 -77.1(9) . . . . ?
C1 C2 C3 C8 46.3(10) . . . . ?
C7 C2 C3 C8 166.7(9) . . . . ?
C6 C2 C3 C4 38.7(8) . . . . ?
C1 C2 C3 C4 162.2(7) . . . . ?
C7 C2 C3 C4 -77.5(8) . . . . ?
C9 C3 C4 C13 80.3(11) . . . . ?
C8 C3 C4 C13 -43.2(11) . . . . ?
C2 C3 C4 C13 -156.5(7) . . . . ?
C9 C3 C4 C5 -152.8(10) . . . . ?
C8 C3 C4 C5 83.7(10) . . . . ?
C2 C3 C4 C5 -29.6(8) . . . . ?
C13 C4 C5 C6 134.6(8) . . . . ?
C3 C4 C5 C6 10.0(10) . . . . ?
C1 C2 C6 C5 -157.6(8) . . . . ?
C7 C2 C6 C5 85.4(9) . . . . ?
C3 C2 C6 C5 -34.2(9) . . . . ?
C4 C5 C6 C2 15.2(11) . . . . ?
Sn2 O3 C13 O4 0.1(13) . . . . ?
Sn2 O3 C13 C4 -177.9(5) . . . . ?
C5 C4 C13 O4 -9.7(12) . . . . ?
C3 C4 C13 O4 112.2(9) . . . . ?
C5 C4 C13 O3 168.3(7) . . . . ?
C3 C4 C13 O3 -69.8(9) . . . . ?

_diffrn_measured_fraction_theta_max 1.000
_diffrn_reflns_theta_full        25.00
_diffrn_measured_fraction_theta_full 1.000
_refine_diff_density_max         1.391
_refine_diff_density_min         -0.276
_refine_diff_density_rms         0.165
