
#######################################################################
#
#                 Cambridge Crystallographic Data Centre
#                                CCDC
#
#######################################################################
#
# If this CIF has been generated from an entry in the Cambridge
# Structural Database, then it will include bibliographic, chemical,
# crystal, experimental, refinement or atomic coordinate data resulting
# from the CCDC's data processing and validation procedures.
#
#######################################################################

data_CSD_CIF_DIYNUV
_audit_creation_date 2008-09-09
_audit_creation_method CSD-ConQuest-V1
_database_code_CSD DIYNUV
_database_code_depnum_ccdc_archive 'CCDC 674101'
_chemical_formula_sum 'C47 H45 N2 O6'
_chemical_formula_moiety
;
C44 H39 N2 O6,0.5(C6 H12)
;
_journal_coden_Cambridge 16
_journal_volume 64
_journal_year 2008
_journal_page_first 4416
_journal_name_full 'Tetrahedron '
loop_
_publ_author_name
"K.Wright"
"L.Dutot"
"M.Wakselman"
"J.-P.Mazaleyrat"
"M.Crisma"
"F.Formaggio"
"C.Toniolo"
_chemical_name_systematic
;
(3R,4R) 
4-(9-fluorenylmethoxycarbonylamino)-1-oxyl-2,2,5,5-tetramethylpyrrolidine-3-ca
rboxylic acid (aR)-2'-hydroxy-1,1'-binaphthalene-2-yl ester cyclohexane 
solvate
;
_chemical_name_common
;
Teaching Subset: Fundamental Chemistry
;
_chemical_melting_point 414
_cell_volume   4583.780
_exptl_crystal_colour 'colorless'
_exptl_crystal_density_diffrn 1.063
_exptl_special_details
;
Melting point range 414-416K

;
_exptl_crystal_description 'rod'
_diffrn_ambient_temperature 293
#These two values have been output from a single CSD field.
_refine_ls_R_factor_gt 0.0784
_refine_ls_wR_factor_gt 0.0784
_symmetry_cell_setting monoclinic
_symmetry_space_group_name_H-M 'P 21'
_symmetry_Int_Tables_number 4
loop_
_symmetry_equiv_pos_site_id
_symmetry_equiv_pos_as_xyz
1 x,y,z
2 -x,1/2+y,-z
_cell_length_a 18.738(3)
_cell_length_b 10.457(2)
_cell_length_c 25.136(4)
_cell_angle_alpha 90
_cell_angle_beta 111.46(8)
_cell_angle_gamma 90
_cell_formula_units_Z 4
loop_
_atom_type_symbol
_atom_type_radius_bond
C 0.68
H 0.23
N 0.68
O 0.68
loop_
_atom_site_label
_atom_site_type_symbol
_atom_site_fract_x
_atom_site_fract_y
_atom_site_fract_z
C1 C 0.7007(6) 0.4997(10) 0.0344(4)
C2 C 0.7292(5) 0.4615(11) -0.0070(6)
H1 H 0.78000 0.47790 -0.00200
C3 C 0.6816(9) 0.3989(12) -0.0559(5)
H2 H 0.70060 0.37330 -0.08360
C4 C 0.6056(8) 0.3744(11) -0.0633(4)
H3 H 0.57380 0.33240 -0.09610
C5 C 0.5772(5) 0.4125(12) -0.0219(6)
H4 H 0.52640 0.39610 -0.02690
C6 C 0.6248(7) 0.4752(12) 0.0269(5)
C7 C 0.6080(8) 0.5315(12) 0.0723(5)
C8 C 0.5431(6) 0.5291(14) 0.0866(6)
H5 H 0.49800 0.49240 0.06180
C9 C 0.5455(7) 0.5815(15) 0.1381(7)
H6 H 0.50210 0.57990 0.14770
C10 C 0.6129(9) 0.6364(15) 0.1752(5)
H7 H 0.61460 0.67150 0.20960
C11 C 0.6779(7) 0.6388(14) 0.1608(5)
H8 H 0.72300 0.67550 0.18570
C12 C 0.6754(7) 0.5863(13) 0.1094(6)
C13 C 0.7389(10) 0.5741(17) 0.0860(7)
H9 H 0.75240 0.65870 0.07590
C14 C 0.8064(10) 0.513(2) 0.1272(7)
H10 H 0.79450 0.42620 0.13470
H11 H 0.82380 0.56010 0.16300
O1 O 0.8666(7) 0.5129(11) 0.1021(5)
C15 C 0.9217(11) 0.4176(15) 0.1201(8)
O2 O 0.9235(7) 0.3494(13) 0.1578(5)
N1 N 0.9632(7) 0.4183(11) 0.0888(5)
H12 H 0.95750 0.47780 0.06400
C16 C 1.0868(7) 0.3689(12) 0.0825(6)
H13 H 1.06630 0.42110 0.04790
C17 C 1.0197(7) 0.3176(11) 0.0958(6)
H14 H 1.03800 0.28670 0.13540
C18 C 0.9892(9) 0.2052(12) 0.0552(6)
N2 N 1.0569(8) 0.1685(10) 0.0463(5)
O3 O 1.0593(7) 0.0577(10) 0.0211(5)
C19 C 1.1268(8) 0.2513(10) 0.0684(6)
C20 C 1.1559(9) 0.2761(15) 0.0207(7)
H15 H 1.18050 0.20050 0.01400
H16 H 1.19220 0.34520 0.03120
H17 H 1.11370 0.29830 -0.01350
C21 C 1.1843(9) 0.1909(13) 0.1186(6)
H18 H 1.16200 0.17330 0.14660
H19 H 1.22720 0.24740 0.13450
H20 H 1.20120 0.11230 0.10730
C22 C 0.9229(9) 0.2352(17) 0.0007(7)
H21 H 0.91490 0.32600 -0.00250
H22 H 0.87740 0.19390 0.00120
H23 H 0.93420 0.20470 -0.03140
C23 C 0.9656(10) 0.0933(15) 0.0869(7)
H24 H 0.94890 0.02140 0.06160
H25 H 0.92460 0.12100 0.09840
H26 H 1.00880 0.06890 0.12000
C24 C 1.1403(8) 0.4527(12) 0.1299(7)
O4 O 1.1423(6) 0.4528(10) 0.1777(5)
O5 O 1.3578(6) 0.4272(9) 0.2630(4)
H27 H 1.33840 0.49810 0.26150
C25 C 1.3029(4) 0.6106(5) 0.1699(3)
C26 C 1.2238(4) 0.6251(6) 0.1452(3)
C27 C 1.1903(3) 0.7417(7) 0.1489(3)
H28 H 1.13740 0.75140 0.13240
C28 C 1.2359(3) 0.8438(6) 0.1774(3)
H29 H 1.21340 0.92170 0.17980
C29 C 1.3150(3) 0.8293(4) 0.2021(2)
C30 C 1.3485(3) 0.7127(5) 0.1983(2)
C31 C 1.4276(3) 0.6982(6) 0.2230(3)
H30 H 1.45000 0.62020 0.22060
C32 C 1.4732(3) 0.8003(8) 0.2515(3)
H31 H 1.52610 0.79060 0.26800
C33 C 1.4396(4) 0.9168(7) 0.2552(3)
H32 H 1.47010 0.98510 0.27420
C34 C 1.3605(4) 0.9313(5) 0.2305(3)
H33 H 1.33810 1.00930 0.23300
C35 C 1.3375(4) 0.4789(7) 0.1636(3)
C36 C 1.3620(5) 0.3983(8) 0.2108(3)
C37 C 1.3923(5) 0.2788(8) 0.2069(3)
H34 H 1.40870 0.22490 0.23850
C38 C 1.3980(5) 0.2399(6) 0.1557(3)
H35 H 1.41820 0.16000 0.15310
C39 C 1.3735(3) 0.3205(6) 0.1085(3)
C40 C 1.3432(3) 0.4400(5) 0.1124(3)
C41 C 1.3187(4) 0.5205(7) 0.0651(3)
H36 H 1.29850 0.60050 0.06780
C42 C 1.3245(5) 0.4816(9) 0.0140(3)
H37 H 1.30810 0.53550 -0.01760
C43 C 1.3547(5) 0.3622(9) 0.0101(3)
H38 H 1.35850 0.33620 -0.02420
C44 C 1.3792(5) 0.2816(7) 0.0573(3)
H39 H 1.39940 0.20170 0.05470
O6 O 1.1779(5) 0.5331(8) 0.1079(4)
C45 C 0.2051(6) 0.2383(9) 0.5305(4)
C46 C 0.2386(5) 0.2003(10) 0.4920(5)
H40 H 0.29000 0.21780 0.49960
C47 C 0.1952(7) 0.136(1) 0.4423(4)
H41 H 0.21760 0.11050 0.41660
C48 C 0.1183(7) 0.1098(10) 0.4310(4)
H42 H 0.08930 0.06680 0.39770
C49 C 0.0848(5) 0.1479(11) 0.4695(5)
H43 H 0.03330 0.13040 0.46200
C50 C 0.1282(6) 0.2121(10) 0.5192(4)
C51 C 0.1075(7) 0.2733(11) 0.5675(4)
C52 C 0.0392(5) 0.2759(13) 0.5773(6)
H44 H -0.00380 0.23400 0.55250
C53 C 0.0353(6) 0.3411(15) 0.6244(7)
H45 H -0.01040 0.34280 0.63100
C54 C 0.0997(9) 0.4037(14) 0.6616(5)
H46 H 0.09710 0.44730 0.69300
C55 C 0.1680(7) 0.4011(12) 0.6517(5)
H47 H 0.21100 0.44300 0.67660
C56 C 0.1719(5) 0.3359(12) 0.6047(5)
C57 C 0.2389(8) 0.3082(16) 0.5830(7)
H48 H 0.25540 0.39090 0.57310
C58 C 0.3033(8) 0.2530(18) 0.6255(7)
H49 H 0.29060 0.16700 0.63360
H50 H 0.31670 0.30270 0.66030
O7 O 0.3677(5) 0.2481(10) 0.6077(4)
C59 C 0.4192(9) 0.1429(14) 0.6248(7)
O8 O 0.4164(6) 0.0662(10) 0.6597(5)
N3 N 0.4668(6) 0.1454(11) 0.5960(5)
H51 H 0.46400 0.20850 0.57340
C60 C 0.5861(7) 0.0953(12) 0.5830(6)
H52 H 0.56270 0.14970 0.54940
C61 C 0.5231(7) 0.0454(11) 0.6015(6)
H53 H 0.54540 0.01800 0.64150
C62 C 0.4868(9) -0.0704(12) 0.5637(6)
N4 N 0.5474(8) -0.0995(11) 0.5436(5)
O9 O 0.5453(7) -0.2066(11) 0.5146(5)
C63 C 0.6196(8) -0.0244(12) 0.5644(6)
C64 C 0.6410(9) 0.0096(16) 0.5135(6)
H54 H 0.68080 0.07290 0.52460
H55 H 0.59680 0.04300 0.48330
H56 H 0.65880 -0.06560 0.50020
C65 C 0.6810(7) -0.0898(14) 0.6077(6)
H57 H 0.66190 -0.12960 0.63430
H58 H 0.72040 -0.02960 0.62760
H59 H 0.70190 -0.15390 0.59020
C66 C 0.4191(9) -0.0465(16) 0.5132(8)
H60 H 0.43260 0.00640 0.48710
H61 H 0.38110 -0.00380 0.52400
H62 H 0.39880 -0.12630 0.49500
C67 C 0.4717(11) -0.1817(14) 0.5972(8)
H63 H 0.44490 -0.15130 0.62080
H64 H 0.51960 -0.21910 0.62090
H65 H 0.44110 -0.24490 0.57110
C68 C 0.6403(7) 0.1737(12) 0.6285(6)
O10 O 0.6626(5) 0.1585(9) 0.6790(4)
O11 O 0.6675(5) 0.2723(8) 0.6046(4)
C69 C 0.7965(4) 0.3434(5) 0.6654(3)
C70 C 0.7173(4) 0.3581(7) 0.6431(3)
C71 C 0.6846(3) 0.4729(8) 0.6504(3)
H66 H 0.63160 0.48270 0.63550
C72 C 0.7311(4) 0.5730(6) 0.6799(3)
H67 H 0.70920 0.64980 0.68470
C73 C 0.8103(4) 0.5583(5) 0.7021(2)
C74 C 0.8430(3) 0.4435(5) 0.6949(2)
C75 C 0.9223(3) 0.4288(7) 0.7171(3)
H68 H 0.94410 0.35200 0.71230
C76 C 0.9687(4) 0.5289(9) 0.7467(3)
H69 H 1.02170 0.51900 0.76150
C77 C 0.9360(5) 0.6437(8) 0.7539(3)
H70 H 0.96710 0.71070 0.77370
C78 C 0.8568(5) 0.6584(6) 0.7317(3)
H71 H 0.83490 0.73520 0.73650
C79 C 0.8279(4) 0.2176(6) 0.6532(3)
C80 C 0.8549(5) 0.1332(8) 0.6990(3)
C81 C 0.8862(5) 0.0166(8) 0.6923(3)
H72 H 0.90430 -0.03990 0.72290
C82 C 0.8906(4) -0.0156(6) 0.6400(4)
H73 H 0.91160 -0.09360 0.63550
C83 C 0.8636(3) 0.0689(6) 0.5942(3)
C84 C 0.8323(3) 0.1855(5) 0.6008(3)
C85 C 0.8053(4) 0.2699(7) 0.5551(3)
H74 H 0.78430 0.34800 0.55950
C86 C 0.8097(5) 0.2378(10) 0.5027(3)
H75 H 0.79160 0.29430 0.47210
C87 C 0.8410(5) 0.1211(10) 0.4961(3)
H76 H 0.84400 0.09960 0.46110
C88 C 0.8680(5) 0.0367(8) 0.5418(3)
H77 H 0.88900 -0.04130 0.53740
O12 O 0.8547(7) 0.1645(9) 0.7509(4)
H78 H 0.87180 0.10470 0.77300
C89 C 0.905(3) 0.264(4) 0.3551(18)
H79 H 0.95530 0.22580 0.37350
H80 H 0.86670 0.19660 0.34740
C90 C 0.891(2) 0.365(5) 0.3931(14)
H81 H 0.89920 0.33110 0.43080
H82 H 0.92430 0.43810 0.39680
C91 C 0.8080(19) 0.400(4) 0.3617(15)
H83 H 0.77680 0.32390 0.34780
H84 H 0.78780 0.44760 0.38600
C92 C 0.8106(19) 0.480(4) 0.3131(15)
H85 H 0.80170 0.56860 0.32040
H86 H 0.76940 0.45380 0.27830
C93 C 0.886(2) 0.471(4) 0.3041(19)
H87 H 0.92700 0.50900 0.33580
H88 H 0.88260 0.51350 0.26900
C94 C 0.900(2) 0.329(4) 0.3004(17)
H89 H 0.85790 0.29160 0.26870
H90 H 0.94690 0.31530 0.29370
C95 C 0.622(3) 0.036(6) 0.203(2)
H91 H 0.63190 0.02180 0.24330
H92 H 0.57820 -0.01580 0.18080
C96 C 0.605(4) 0.178(6) 0.188(2)
H93 H 0.64910 0.23300 0.20580
H94 H 0.56050 0.20940 0.19460
C97 C 0.590(2) 0.146(5) 0.1253(16)
H95 H 0.57620 0.05660 0.11690
H96 H 0.55060 0.19950 0.09960
C98 C 0.666(2) 0.173(3) 0.1212(15)
H97 H 0.66170 0.16450 0.08170
H98 H 0.68070 0.26010 0.13320
C99 C 0.725(2) 0.084(6) 0.158(2)
H99 H 0.76790 0.13140 0.18420
H100 H 0.74480 0.03130 0.13400
C100 C 0.689(3) -0.001(5) 0.190(2)
H101 H 0.67630 -0.08050 0.16920
H102 H 0.72940 -0.02000 0.22640
#END
