
#######################################################################
#
#                 Cambridge Crystallographic Data Centre
#                                CCDC
#
#######################################################################
#
# If this CIF has been generated from an entry in the Cambridge
# Structural Database, then it will include bibliographic, chemical,
# crystal, experimental, refinement or atomic coordinate data resulting
# from the CCDC's data processing and validation procedures.
#
#######################################################################

data_CSD_CIF_DLASPA02
_audit_creation_date 1990-05-24
_audit_creation_method CSD-ConQuest-V1
_database_code_CSD DLASPA02
_database_code_depnum_ccdc_archive 'CCDC 1142399'
_chemical_formula_sum 'C4 H7 N1 O4'
_chemical_formula_moiety
;
C4 H7 N1 O4
;
_journal_coeditor_code "IUCr MU0011"
_journal_coden_Cambridge 591
_journal_volume 45
_journal_year 1989
_journal_page_first 906
_journal_name_full 'Acta Crystallogr.,Sect.C:Cryst.Struct.Commun. '
loop_
_publ_author_name
"A.Sequeira"
"H.Rajagopal"
"H.Ramanadham"
_chemical_name_systematic
;
DL-Aspartic acid
;
_chemical_name_common
;
Teaching Subset: Fundamental Chemistry
;
_cell_volume   1073.191
_exptl_crystal_density_diffrn 1.65
_exptl_special_details
;
monoclinic polymorph

;
_diffrn_ambient_temperature ?
_diffrn_radiation_probe 'neutron radiation'
_diffrn_special_details
;
The study was carried out at room temperature,in the range 283-303K

;
#These two values have been output from a single CSD field.
_refine_ls_R_factor_gt 0.042
_refine_ls_wR_factor_gt 0.042
loop_
_citation_database_id_CSD
_citation_special_details
LASPRT "is a stereoisomer of this entry"
_symmetry_cell_setting monoclinic
_symmetry_space_group_name_H-M 'C 2/c'
_symmetry_Int_Tables_number 15
loop_
_symmetry_equiv_pos_site_id
_symmetry_equiv_pos_as_xyz
1 x,y,z
2 1/2+x,1/2+y,z
3 -x,y,1/2-z
4 1/2-x,1/2+y,1/2-z
5 -x,-y,-z
6 -1/2-x,-1/2-y,-z
7 x,-y,-1/2+z
8 -1/2+x,-1/2-y,-1/2+z
_cell_length_a 18.96(1)
_cell_length_b 7.43(1)
_cell_length_c 9.20(1)
_cell_angle_alpha 90
_cell_angle_beta 124.1(1)
_cell_angle_gamma 90
_cell_formula_units_Z 8
loop_
_atom_type_symbol
_atom_type_radius_bond
C 0.68
H 0.23
N 0.68
O 0.68
loop_
_atom_site_label
_atom_site_type_symbol
_atom_site_fract_x
_atom_site_fract_y
_atom_site_fract_z
N1 N 0.6549(1) 0.2989(3) 0.4847(2)
C1 C 0.6537(1) 0.3690(3) 0.6352(3)
C2 C 0.7449(1) 0.3857(3) 0.7981(2)
O1 O 0.8029(1) 0.3237(4) 0.7865(3)
O2 O 0.7544(1) 0.4631(3) 0.9285(3)
C3 C 0.5991(1) 0.2523(4) 0.6717(3)
C4 C 0.5069(1) 0.2500(3) 0.5185(3)
O3 O 0.4825(1) 0.3266(4) 0.3819(3)
O4 O 0.4570(2) 0.1616(4) 0.5486(4)
H1 H 0.6891(3) 0.3824(8) 0.4578(5)
H2 H 0.6820(3) 0.1731(9) 0.5092(6)
H3 H 0.5944(3) 0.2955(6) 0.3748(7)
H4 H 0.6273(2) 0.5016(7) 0.6002(6)
H5 H 0.6225(3) 0.1162(9) 0.7052(7)
H6 H 0.6021(2) 0.3033(8) 0.7837(7)
H7 H 0.3942(3) 0.1669(6) 0.4422(6)
#END
