
#######################################################################
#
#                 Cambridge Crystallographic Data Centre
#                                CCDC
#
#######################################################################
#
# If this CIF has been generated from an entry in the Cambridge
# Structural Database, then it will include bibliographic, chemical,
# crystal, experimental, refinement or atomic coordinate data resulting
# from the CCDC's data processing and validation procedures.
#
#######################################################################

data_CSD_CIF_DLHIST
_audit_creation_date 1974-06-21
_audit_creation_method CSD-ConQuest-V1
_database_code_CSD DLHIST
_database_code_depnum_ccdc_archive 'CCDC 1142411'
_chemical_formula_sum 'C6 H9 N3 O2'
_chemical_formula_moiety
;
C6 H9 N3 O2
;
_journal_coeditor_code "IUCr A10816"
_journal_coden_Cambridge 107
_journal_volume 30
_journal_year 1974
_journal_page_first 204
_journal_name_full 'Acta Crystallogr.,Sect.B:Struct.Crystallogr.Cryst.Chem. '
loop_
_publ_author_name
"P.Edington"
"M.M.Harding"
_chemical_name_systematic
;
DL-Histidine
;
_chemical_name_common
;
Teaching Subset: Fundamental Chemistry, Essential Nutrients
;
_cell_volume    677.870
_exptl_crystal_density_diffrn 1.525
_diffrn_ambient_temperature ?
_diffrn_special_details
;
The study was carried out at room temperature,in the range 283-303K

;
#These two values have been output from a single CSD field.
_refine_ls_R_factor_gt 0.13
_refine_ls_wR_factor_gt 0.13
loop_
_citation_database_id_CSD
_citation_special_details
LHISTD "is a stereoisomer of this entry"
_symmetry_cell_setting monoclinic
_symmetry_space_group_name_H-M 'P 21/c'
_symmetry_Int_Tables_number 14
loop_
_symmetry_equiv_pos_site_id
_symmetry_equiv_pos_as_xyz
1 x,y,z
2 -x,1/2+y,1/2-z
3 -x,-y,-z
4 x,-1/2-y,-1/2+z
_cell_length_a 8.983(2)
_cell_length_b 8.087(3)
_cell_length_c 9.415(2)
_cell_angle_alpha 90
_cell_angle_beta 97.65(2)
_cell_angle_gamma 90
_cell_formula_units_Z 4
loop_
_atom_type_symbol
_atom_type_radius_bond
C 0.68
H 0.20
N 0.68
O 0.68
loop_
_atom_site_label
_atom_site_type_symbol
_atom_site_fract_x
_atom_site_fract_y
_atom_site_fract_z
C1 C -0.03070 0.36000 0.24140
C2 C 0.13240 0.32720 0.21990
C3 C 0.23790 0.45110 0.30660
C4 C 0.39210 0.38190 0.35210
C5 C 0.56130 0.22890 0.47030
C6 C 0.52680 0.42950 0.31100
H1 H 0.16400 0.20100 0.25100
H2 H 0.14100 0.45600 0.03300
H3 H 0.06800 0.26900 0.00900
H4 H 0.25100 0.29100 0.05000
H5 H 0.24700 0.56300 0.24300
H6 H 0.18900 0.49000 0.40100
H7 H 0.61400 0.13700 0.54300
H8 H 0.74400 0.33400 0.37800
H9 H 0.54700 0.52700 0.23300
N1 N 0.14930 0.33610 0.06560
N2 N 0.41580 0.25580 0.45210
N3 N 0.63330 0.32930 0.38580
O1 O -0.12110 0.41070 0.13840
O2 O -0.06240 0.33360 0.36490
#END
