
#######################################################################
#
#                 Cambridge Crystallographic Data Centre
#                                CCDC
#
#######################################################################
#
# If this CIF has been generated from an entry in the Cambridge
# Structural Database, then it will include bibliographic, chemical,
# crystal, experimental, refinement or atomic coordinate data resulting
# from the CCDC's data processing and validation procedures.
#
#######################################################################

data_CSD_CIF_DLILEU02
_audit_creation_date 2001-01-15
_audit_creation_method CSD-ConQuest-V1
_database_code_CSD DLILEU02
_database_code_depnum_ccdc_archive 'CCDC 148921'
_chemical_formula_sum 'C6 H13 N1 O2'
_chemical_formula_moiety
;
C6 H13 N1 O2
;
_journal_coeditor_code "IUCr OS0046"
_journal_coden_Cambridge 622
_journal_volume 56
_journal_year 2000
_journal_page_first 720
_journal_name_full 'Acta Crystallogr.,Sect.B:Struct.Sci. '
loop_
_publ_author_name
"B.Dalhus"
"C.H.Gorbitz"
_chemical_name_systematic
;
rac-2-Amino-3-methylpentanoic acid
;
_chemical_name_common
;
DL-Isoleucine; Teaching Subset: Fundamental Chemistry
;
_cell_volume    347.020
_exptl_crystal_colour 'colorless'
_exptl_crystal_density_diffrn 1.255
_exptl_crystal_description 'plate'
_diffrn_ambient_temperature 150
#These two values have been output from a single CSD field.
_refine_ls_R_factor_gt 0.0576
_refine_ls_wR_factor_gt 0.0576
loop_
_citation_database_id_CSD
_citation_special_details
DAILEU "is a stereoisomer of this entry"
LISLEU "is a stereoisomer of this entry"
XADVED "is a stereoisomer of this entry"
XADVIH "is a stereoisomer of this entry"
_symmetry_cell_setting triclinic
_symmetry_space_group_name_H-M 'P -1'
_symmetry_Int_Tables_number 2
loop_
_symmetry_equiv_pos_site_id
_symmetry_equiv_pos_as_xyz
1 x,y,z
2 -x,-y,-z
_cell_length_a 5.2289(1)
_cell_length_b 5.4102(1)
_cell_length_c 13.1095(3)
_cell_angle_alpha 96.332(1)
_cell_angle_beta 90.622(1)
_cell_angle_gamma 109.493(1)
_cell_formula_units_Z 2
loop_
_atom_type_symbol
_atom_type_radius_bond
C 0.68
H 0.23
N 0.68
O 0.68
loop_
_atom_site_label
_atom_site_type_symbol
_atom_site_fract_x
_atom_site_fract_y
_atom_site_fract_z
O1 O 0.80323(9) 0.75963(8) 0.58960(4)
O2 O 0.36212(9) 0.63846(9) 0.62394(4)
N1 N 0.81846(10) 0.26922(9) 0.57840(4)
H1 H 0.988(3) 0.389(3) 0.6066(10)
H2 H 0.812(3) 0.114(3) 0.5854(10)
H3 H 0.803(3) 0.282(3) 0.5104(10)
C1 C 0.58380(11) 0.59662(10) 0.61346(4)
C2 C 0.58889(10) 0.32193(10) 0.63253(4)
H4 H 0.422(2) 0.1918(16) 0.6033(4)
C3 C 0.61101(12) 0.29197(11) 0.74779(5)
H5 H 0.6824(9) 0.1440(18) 0.75333(8)
C4 C 0.81181(15) 0.54061(14) 0.80856(6)
H6 H 0.9808(15) 0.6004(11) 0.7712(5)
H7 H 0.8542(14) 0.5001(6) 0.8772(6)
H8 H 0.730(1) 0.6817(13) 0.8165(6)
C5 C 0.33004(15) 0.2148(2) 0.79270(6)
H9 H 0.2639(7) 0.3641(15) 0.79461(6)
H10 H 0.2044(12) 0.0679(14) 0.7474(4)
C6 C 0.3293(2) 0.1342(2) 0.90085(7)
H11 H 0.1417(19) 0.077(2) 0.9240(4)
H12 H 0.444(2) 0.2862(17) 0.9484(5)
H13 H 0.402(2) -0.013(2) 0.9001(2)
#END
