
#######################################################################
#
#                 Cambridge Crystallographic Data Centre
#                                CCDC
#
#######################################################################
#
# If this CIF has been generated from an entry in the Cambridge
# Structural Database, then it will include bibliographic, chemical,
# crystal, experimental, refinement or atomic coordinate data resulting
# from the CCDC's data processing and validation procedures.
#
#######################################################################

data_CSD_CIF_DLLEUC
_audit_creation_date 1975-07-10
_audit_creation_method CSD-ConQuest-V1
_database_code_CSD DLLEUC
_database_code_depnum_ccdc_archive 'CCDC 1142418'
_chemical_formula_sum 'C6 H13 N1 O2'
_chemical_formula_moiety
;
C6 H13 N1 O2
;
_journal_coeditor_code "IUCr A11973"
_journal_coden_Cambridge 107
_journal_volume 31
_journal_year 1975
_journal_page_first 601
_journal_name_full 'Acta Crystallogr.,Sect.B:Struct.Crystallogr.Cryst.Chem. '
loop_
_publ_author_name
"B.di Blasio"
"C.Pedone"
"A.Sirigu"
_chemical_name_systematic
;
DL-Leucine
;
_chemical_name_common
;
Teaching Subset: Fundamental Chemistry, Essential Nutrients
;
_cell_volume    365.688
_exptl_crystal_density_diffrn 1.285
_exptl_special_details
;
Dm and dx given as 1.290 and 1.285 respectively; we calculate 1.19. B- AND 
C-AXIS HAVE BEEN INTERCHANGED.(ERRATA ACTA CRYST.(1975)B31,601)
;
_diffrn_ambient_temperature ?
_diffrn_special_details
;
The study was carried out at room temperature,in the range 283-303K

;
#These two values have been output from a single CSD field.
_refine_ls_R_factor_gt 0.058
_refine_ls_wR_factor_gt 0.058
loop_
_citation_database_id_CSD
_citation_special_details
LEUCIN "is a stereoisomer of this entry"
ZZZRKY "is a stereoisomer of this entry"
_symmetry_cell_setting triclinic
_symmetry_space_group_name_H-M 'P -1'
_symmetry_Int_Tables_number 2
loop_
_symmetry_equiv_pos_site_id
_symmetry_equiv_pos_as_xyz
1 x,y,z
2 -x,-y,-z
_cell_length_a 14.12
_cell_length_b 5.19
_cell_length_c 5.39
_cell_angle_alpha 111.1
_cell_angle_beta 86.4
_cell_angle_gamma 97.0
_cell_formula_units_Z 2
loop_
_atom_type_symbol
_atom_type_radius_bond
C 0.68
H 0.23
N 0.68
O 0.68
loop_
_atom_site_label
_atom_site_type_symbol
_atom_site_fract_x
_atom_site_fract_y
_atom_site_fract_z
C1 C -0.10810 -0.10890 0.44480
C2 C -0.13240 -0.12570 0.72030
C3 C -0.23680 -0.23790 0.74160
C4 C -0.30910 -0.03910 0.75180
C5 C -0.40820 -0.20130 0.68270
C6 C -0.31260 0.19020 1.02360
H1 H -0.11570 0.05430 0.84640
H2 H -0.41090 -0.31910 0.52730
H3 H -0.35750 0.31630 1.01560
H4 H -0.25430 0.27730 1.07300
H5 H -0.33530 0.09330 1.17550
H6 H -0.07490 -0.31530 0.94870
H7 H -0.00860 -0.26960 0.74010
H8 H -0.08990 -0.49360 0.66260
H9 H -0.25030 -0.42010 0.58730
H10 H -0.24590 -0.28180 0.91090
H11 H -0.28650 0.04540 0.61230
H12 H -0.46000 -0.06710 0.69960
H13 H -0.43030 -0.29940 0.87270
N1 N -0.07100 -0.31790 0.76630
O1 O -0.11280 0.11540 0.41470
O2 O -0.08710 -0.32910 0.26730
#END
