
#######################################################################
#
#                 Cambridge Crystallographic Data Centre
#                                CCDC
#
#######################################################################
#
# If this CIF has been generated from an entry in the Cambridge
# Structural Database, then it will include bibliographic, chemical,
# crystal, experimental, refinement or atomic coordinate data resulting
# from the CCDC's data processing and validation procedures.
#
#######################################################################

data_CSD_CIF_DLLYSC11
_audit_creation_date 2002-11-01
_audit_creation_method CSD-ConQuest-V1
_database_code_CSD DLLYSC11
_database_code_depnum_ccdc_archive 'CCDC 1142422'
_chemical_formula_sum 'C6 H15 Cl1 N2 O2'
_chemical_formula_moiety
;
C6 H15 N2 O2 1+,Cl1 1-
;
_journal_coden_Cambridge 4
_journal_volume 124
_journal_year 2002
_journal_page_first 3407
_journal_name_full 'J.Am.Chem.Soc. '
loop_
_publ_author_name
"R.Flaig"
"T.Koritsanszky"
"B.Dittrich"
"A.Wagner"
"P.Luger"
_chemical_name_systematic
;
DL-Lysine hydrogen chloride
;
_chemical_name_common
;
Teaching Subset: Fundamental Chemistry, Essential Nutrients
;
_cell_volume    840.763
_exptl_crystal_density_diffrn 1.443
_diffrn_ambient_temperature 100
#These two values have been output from a single CSD field.
_refine_ls_R_factor_gt 0.0261
_refine_ls_wR_factor_gt 0.0261
_symmetry_cell_setting monoclinic
_symmetry_space_group_name_H-M 'P 21/c'
_symmetry_Int_Tables_number 14
loop_
_symmetry_equiv_pos_site_id
_symmetry_equiv_pos_as_xyz
1 x,y,z
2 -x,1/2+y,1/2-z
3 -x,-y,-z
4 x,-1/2-y,-1/2+z
_cell_length_a 9.157(1)
_cell_length_b 11.166(2)
_cell_length_c 8.547(1)
_cell_angle_alpha 90
_cell_angle_beta 105.83(3)
_cell_angle_gamma 90
_cell_formula_units_Z 4
loop_
_atom_type_symbol
_atom_type_radius_bond
C 0.68
H 0.23
Cl 0.99
N 0.68
O 0.68
loop_
_atom_site_label
_atom_site_type_symbol
_atom_site_fract_x
_atom_site_fract_y
_atom_site_fract_z
Cl1 Cl 0.041188(9) 0.657328(11) 0.454985(13)
O1 O -0.54738(4) 0.63815(5) 0.56533(6)
O2 O -0.43757(5) 0.77394(6) 0.75230(7)
N1 N -0.28114(4) 0.57760(5) 0.50490(6)
N2 N -0.27362(4) 0.29000(5) 1.20234(6)
C1 C -0.43371(4) 0.68625(5) 0.66014(6)
C2 C -0.27814(4) 0.63054(4) 0.67116(6)
C3 C -0.24503(4) 0.53039(5) 0.79901(6)
C4 C -0.21895(4) 0.57526(4) 0.97357(5)
C5 C -0.17911(4) 0.47315(4) 1.09782(5)
C6 C -0.31811(4) 0.40040(5) 1.10333(5)
H1 H -0.32021 0.63809 0.41473
H2 H -0.17452 0.54896 0.50428
H3 H -0.35323 0.50385 0.48500
H4 H -0.18951 0.69891 0.70030
H5 H -0.33879 0.46688 0.76481
H6 H -0.14402 0.48224 0.79028
H7 H -0.31897 0.62203 0.98805
H8 H -0.12708 0.64067 0.99961
H9 H -0.12575 0.50696 1.21966
H10 H -0.09725 0.41287 1.06741
H11 H -0.39124 0.45272 1.15896
H12 H -0.38508 0.36932 0.98451
H13 H -0.20763 0.31253 1.31813
H14 H -0.37181 0.24866 1.21411
H15 H -0.21112 0.23065 1.15243
#END
