
#######################################################################
#
#                 Cambridge Crystallographic Data Centre
#                                CCDC
#
#######################################################################
#
# If this CIF has been generated from an entry in the Cambridge
# Structural Database, then it will include bibliographic, chemical,
# crystal, experimental, refinement or atomic coordinate data resulting
# from the CCDC's data processing and validation procedures.
#
#######################################################################

data_CSD_CIF_DLMALC
_audit_creation_date 1981-09-30
_audit_creation_method CSD-ConQuest-V1
_database_code_CSD DLMALC
_database_code_depnum_ccdc_archive 'CCDC 1142423'
_chemical_formula_sum 'C4 H6 O5'
_chemical_formula_moiety
;
C4 H6 O5
;
_journal_coden_Cambridge 54
_journal_volume 90
_journal_year 1981
_journal_page_first 161
_journal_name_full 'Bull.Soc.Chim.Belg. '
loop_
_publ_author_name
"J.F.J.van Loock"
"M.van Havere"
"A.T.H.Lenstra"
_chemical_name_systematic
;
(+-)-Malic acid
;
_chemical_name_common
;
Teaching Subset: Fundamental Chemistry; DrugBank: DB12751
;
_cell_volume    540.558
_exptl_crystal_density_diffrn 1.648
_exptl_special_details
;
alpha, Cc polymorph

;
_diffrn_ambient_temperature ?
_diffrn_special_details
;
The study was carried out at room temperature,in the range 283-303K

;
_refine_special_details
;
Carboxyl functions show local disorder of H atom positions.

;
#These two values have been output from a single CSD field.
_refine_ls_R_factor_gt 0.055
_refine_ls_wR_factor_gt 0.055
loop_
_citation_database_id_CSD
_citation_special_details
COFRUK "is a stereoisomer of this entry"
_symmetry_cell_setting monoclinic
_symmetry_space_group_name_H-M 'C c'
_symmetry_Int_Tables_number 9
loop_
_symmetry_equiv_pos_site_id
_symmetry_equiv_pos_as_xyz
1 x,y,z
2 1/2+x,1/2+y,z
3 x,-y,1/2+z
4 1/2+x,1/2-y,1/2+z
_cell_length_a 13.053(4)
_cell_length_b 8.724(4)
_cell_length_c 4.878(3)
_cell_angle_alpha 90
_cell_angle_beta 103.31(3)
_cell_angle_gamma 90
_cell_formula_units_Z 4
loop_
_atom_type_symbol
_atom_type_radius_bond
C 0.68
H 0.23
O 0.68
loop_
_atom_site_label
_atom_site_type_symbol
_atom_site_fract_x
_atom_site_fract_y
_atom_site_fract_z
O1 O 0.80500 0.13910 0.24000
O2 O 0.75000 0.37080 0.08200
O3 O 0.40430 0.14170 0.30900
O4 O 0.45410 0.37280 0.45300
O5 O 0.66890 0.14790 0.58700
C1 C 0.73940 0.25000 0.20900
C2 C 0.64700 0.26500 0.35800
C3 C 0.54500 0.25000 0.14400
C4 C 0.45810 0.24800 0.30900
H1 H 0.64410 0.38230 0.44510
H2 H 0.53380 0.34080 -0.00820
H3 H 0.54370 0.13640 0.03360
#END
