
#######################################################################
#
#                 Cambridge Crystallographic Data Centre
#                                CCDC
#
#######################################################################
#
# If this CIF has been generated from an entry in the Cambridge
# Structural Database, then it will include bibliographic, chemical,
# crystal, experimental, refinement or atomic coordinate data resulting
# from the CCDC's data processing and validation procedures.
#
#######################################################################

data_CSD_CIF_DLMALC11
_audit_creation_date 1986-03-24
_audit_creation_method CSD-ConQuest-V1
_database_code_CSD DLMALC11
_database_code_depnum_ccdc_archive 'CCDC 1142425'
_chemical_formula_sum 'C4 H6 O5'
_chemical_formula_moiety
;
C4 H6 O5
;
_journal_coeditor_code "IUCr A24829"
_journal_coden_Cambridge 591
_journal_volume 41
_journal_year 1985
_journal_page_first 956
_journal_name_full 'Acta Crystallogr.,Sect.C:Cryst.Struct.Commun. '
loop_
_publ_author_name
"P.van der Sluis"
"J.Kroon"
_chemical_name_systematic
;
(+-)-Malic acid
;
_chemical_name_common
;
Teaching Subset: Fundamental Chemistry; DrugBank: DB12751
;
_cell_volume    547.561
_exptl_crystal_density_diffrn 1.626
_exptl_special_details
;
beta, P21/c polymorph

;
_diffrn_ambient_temperature ?
_diffrn_special_details
;
The study was carried out at room temperature,in the range 283-303K

;
#These two values have been output from a single CSD field.
_refine_ls_R_factor_gt 0.049
_refine_ls_wR_factor_gt 0.049
loop_
_citation_database_id_CSD
_citation_special_details
COFRUK "is a stereoisomer of this entry"
_symmetry_cell_setting monoclinic
_symmetry_space_group_name_H-M 'P 21/c'
_symmetry_Int_Tables_number 14
loop_
_symmetry_equiv_pos_site_id
_symmetry_equiv_pos_as_xyz
1 x,y,z
2 -x,1/2+y,1/2-z
3 -x,-y,-z
4 x,-1/2-y,-1/2+z
_cell_length_a 4.889(1)
_cell_length_b 8.815(1)
_cell_length_c 13.036(2)
_cell_angle_alpha 90
_cell_angle_beta 102.93(1)
_cell_angle_gamma 90
_cell_formula_units_Z 4
loop_
_atom_type_symbol
_atom_type_radius_bond
C 0.68
H 0.23
O 0.68
loop_
_atom_site_label
_atom_site_type_symbol
_atom_site_fract_x
_atom_site_fract_y
_atom_site_fract_z
O1 O 0.2215(4) -0.0999(2) 0.4482(2)
O2 O 0.0838(4) 0.1384(2) 0.4042(2)
O3 O 0.2703(5) -0.1139(2) 0.0574(2)
O4 O 0.4625(4) 0.1108(2) 0.0977(2)
O5 O 0.5754(4) -0.0942(3) 0.3154(2)
C1 C 0.2207(5) 0.0128(3) 0.3954(2)
C2 C 0.3745(5) 0.0209(3) 0.3065(2)
C3 C 0.1591(6) 0.0123(4) 0.2017(2)
C4 C 0.3107(5) 0.0076(3) 0.1137(2)
H1 H -0.018(7) 0.143(4) 0.462(3)
H2 H 0.451(6) 0.118(3) 0.308(2)
H3 H 0.488(9) -0.178(6) 0.338(4)
H4 H 0.056(8) -0.072(4) 0.193(3)
H5 H 0.057(7) 0.103(3) 0.196(2)
H6 H 0.402(8) -0.123(4) 0.001(3)
#END
