
#######################################################################
#
#                 Cambridge Crystallographic Data Centre
#                                CCDC
#
#######################################################################
#
# If this CIF has been generated from an entry in the Cambridge
# Structural Database, then it will include bibliographic, chemical,
# crystal, experimental, refinement or atomic coordinate data resulting
# from the CCDC's data processing and validation procedures.
#
#######################################################################

data_CSD_CIF_DOGPIY
_audit_creation_date 1987-03-27
_audit_creation_method CSD-ConQuest-V1
_database_code_CSD DOGPIY
_database_code_depnum_ccdc_archive 'CCDC 1143511'
_chemical_formula_sum 'C13 H36 B1 N1 Si4'
_chemical_formula_moiety
;
C13 H36 B1 N1 Si4
;
_journal_coden_Cambridge 48
_journal_volume 119
_journal_year 1986
_journal_page_first 1117
_journal_name_full 'Chem.Ber. '
loop_
_publ_author_name
"M.Haase"
"U.Klingebiel"
"R.Boese"
"M.Polk"
_chemical_name_systematic
;
t-Butylnitrido-tris(trimethylsilyl)silyl-borane
;
_chemical_name_common
;
Teaching Subset: Fundamental Chemistry
;
_chemical_melting_point 320.15
_cell_volume   2372.159
_exptl_crystal_density_diffrn 0.92
_diffrn_ambient_temperature ?
_diffrn_special_details
;
The study was carried out at room temperature,in the range 283-303K

;
#These two values have been output from a single CSD field.
_refine_ls_R_factor_gt 0.052
_refine_ls_wR_factor_gt 0.052
_symmetry_cell_setting monoclinic
_symmetry_space_group_name_H-M 'P 21/c'
_symmetry_Int_Tables_number 14
loop_
_symmetry_equiv_pos_site_id
_symmetry_equiv_pos_as_xyz
1 x,y,z
2 -x,1/2+y,1/2-z
3 -x,-y,-z
4 x,-1/2-y,-1/2+z
_cell_length_a 9.349(5)
_cell_length_b 10.097(4)
_cell_length_c 25.181(21)
_cell_angle_alpha 90
_cell_angle_beta 93.66(3)
_cell_angle_gamma 90
_cell_formula_units_Z 4
loop_
_atom_type_symbol
_atom_type_radius_bond
C 0.68
H 0.23
B 0.83
N 0.68
Si 1.20
loop_
_atom_site_label
_atom_site_type_symbol
_atom_site_fract_x
_atom_site_fract_y
_atom_site_fract_z
Si1 Si 0.2840(1) 0.7883(1) 0.3769(1)
Si2 Si 0.1080(1) 0.7185(1) 0.3126(1)
Si3 Si 0.4710(1) 0.6341(1) 0.3912(1)
Si4 Si 0.3752(1) 1.0017(1) 0.3620(1)
N1 N 0.1509(3) 0.7847(3) 0.4906(1)
B1 B 0.1982(4) 0.7889(4) 0.4466(2)
C1 C 0.0982(4) 0.7739(4) 0.5427(1)
C2 C 0.1898(6) 0.6757(5) 0.5747(2)
C3 C -0.0550(5) 0.7300(6) 0.5374(2)
C4 C 0.1109(5) 0.9105(5) 0.5692(2)
C5 C 0.1735(5) 0.7371(5) 0.2449(2)
C6 C -0.0572(5) 0.8207(6) 0.3171(2)
C7 C 0.0622(7) 0.5409(5) 0.3240(2)
C8 C 0.5479(6) 0.5821(6) 0.3281(2)
C9 C 0.6169(5) 0.7081(5) 0.4353(2)
C10 C 0.4005(5) 0.4856(5) 0.4250(2)
C11 C 0.2418(5) 1.1099(5) 0.3241(2)
C12 C 0.4252(5) 1.0792(5) 0.4279(2)
C13 C 0.5377(5) 0.9887(6) 0.3223(2)
H1 H 0.16630 0.66740 0.61110
H2 H 0.29040 0.69270 0.57330
H3 H 0.16590 0.59500 0.55600
H4 H -0.08940 0.72530 0.57240
H5 H -0.05630 0.64320 0.52180
H6 H -0.11560 0.78800 0.51570
H7 H 0.08020 0.90050 0.60470
H8 H 0.05170 0.97490 0.55040
H9 H 0.20880 0.93950 0.57080
H10 H 0.25630 0.68290 0.24070
H11 H 0.19880 0.82870 0.24130
H12 H 0.10000 0.71440 0.21810
H13 H -0.09140 0.81110 0.35200
H14 H -0.12760 0.78700 0.29120
H15 H -0.04020 0.91270 0.31010
H16 H 0.13910 0.48280 0.31580
H17 H -0.02330 0.51570 0.30340
H18 H 0.04610 0.53470 0.36120
H19 H 0.46550 0.53820 0.31160
H20 H 0.62860 0.52320 0.32900
H21 H 0.56870 0.65970 0.30800
H22 H 0.57310 0.74130 0.46610
H23 H 0.66470 0.77920 0.41840
H24 H 0.68510 0.64060 0.44590
H25 H 0.33310 0.43710 0.40220
H26 H 0.35250 0.52270 0.45410
H27 H 0.47500 0.42700 0.43850
H28 H 0.15230 1.11880 0.34040
H29 H 0.22540 1.07160 0.28940
H30 H 0.28510 1.19550 0.32110
H31 H 0.49780 1.02880 0.44760
H32 H 0.34490 1.09160 0.44940
H33 H 0.46340 1.16390 0.41890
H34 H 0.61220 0.93600 0.33970
H35 H 0.57290 1.07660 0.31670
H36 H 0.50830 0.94940 0.28870
#END
