####################################################################### 
# 
# This file contains crystal structure data downloaded from the 
# Cambridge Structural Database (CSD) hosted by the Cambridge 
# Crystallographic Data Centre (CCDC).
# 
# Full information about CCDC data access policies and citation 
# guidelines are available at http://www.ccdc.cam.ac.uk/access/V1 
# 
# Audit and citation data items may have been added by the CCDC. 
# Please retain this information to preserve the provenance of 
# this file and to allow appropriate attribution of the data. 
# 
#######################################################################

data_1
_audit_block_doi                 10.5517/cc12675p
_database_code_depnum_ccdc_archive 'CCDC 989091'
loop_
_citation_id
_citation_doi
_citation_year
1 10.5560/ZNB.2014-4068 2014
_audit_update_record             
;
2014-02-27 deposited with the CCDC.	2024-07-09 downloaded from the CCDC.
;


_audit_creation_method           SHELXL-97

_chemical_name_systematic        
; 
 ? 

;

_chemical_name_common            ?
_chemical_melting_point          ?

_chemical_formula_moiety         ?

_chemical_formula_sum            'C11 H9 I2 N O5 Zn'

_chemical_formula_weight         554.36


loop_

_atom_type_symbol

_atom_type_description
_atom_type_scat_dispersion_real

_atom_type_scat_dispersion_imag

_atom_type_scat_source









C C 0.0033 0.0016 'International Tables Vol C Tables 4.2.6.8 and 6.1.1.4'
H H 0.0000 0.0000 'International Tables Vol C Tables 4.2.6.8 and 6.1.1.4'
N N 0.0061 0.0033 'International Tables Vol C Tables 4.2.6.8 and 6.1.1.4'
O O 0.0106 0.0060 'International Tables Vol C Tables 4.2.6.8 and 6.1.1.4'
Zn Zn 0.2839 1.4301 'International Tables Vol C Tables 4.2.6.8 and 6.1.1.4'
I I -0.4742 1.8119 'International Tables Vol C Tables 4.2.6.8 and 6.1.1.4'


_symmetry_cell_setting           Monoclinic

_symmetry_space_group_name_H-M   'C 2/c'


loop_

_symmetry_equiv_pos_as_xyz





'x, y, z'
'-x, y, -z+1/2'
'x+1/2, y+1/2, z'
'-x+1/2, y+1/2, -z+1/2'
'-x, -y, -z'
'x, -y, z-1/2'
'-x+1/2, -y+1/2, -z'
'x+1/2, -y+1/2, z-1/2'



_cell_length_a                   15.288(2)
_cell_length_b                   15.615(2)

_cell_length_c                   18.563(4)

_cell_angle_alpha                90.00
_cell_angle_beta                 109.969(5)

_cell_angle_gamma                90.00

_cell_volume                     4165.0(12)
_cell_formula_units_Z            8

_cell_measurement_temperature    296(2)

_cell_measurement_reflns_used    4259
_cell_measurement_theta_min      2.33

_cell_measurement_theta_max      29.35


_exptl_crystal_description       block

_exptl_crystal_colour            colourless

_exptl_crystal_size_max          0.18
_exptl_crystal_size_mid          0.17

_exptl_crystal_size_min          0.15

_exptl_crystal_density_meas      ?
_exptl_crystal_density_diffrn    1.768

_exptl_crystal_density_method    'not measured'

_exptl_crystal_F_000             2064

_exptl_absorpt_coefficient_mu    4.155
_exptl_absorpt_correction_type   multi-scan

_exptl_absorpt_correction_T_min  0.5217

_exptl_absorpt_correction_T_max  0.5745
_exptl_absorpt_process_details   sadabs



_exptl_special_details           
; 

 ? 

;


_diffrn_ambient_temperature      296(2)

_diffrn_radiation_wavelength     0.71073
_diffrn_radiation_type           MoK\a

_diffrn_radiation_source         'fine-focus sealed tube'

_diffrn_radiation_monochromator  graphite

_diffrn_measurement_device_type  'CCD area detector'

_diffrn_measurement_method       'phi and omega scans'

_diffrn_detector_area_resol_mean ?
_diffrn_standards_number         ?

_diffrn_standards_interval_count ?

_diffrn_standards_interval_time  ?
_diffrn_standards_decay_%        ?

_diffrn_reflns_number            11218

_diffrn_reflns_av_R_equivalents  0.0477
_diffrn_reflns_av_sigmaI/netI    0.0483

_diffrn_reflns_limit_h_min       -18

_diffrn_reflns_limit_h_max       18
_diffrn_reflns_limit_k_min       -18

_diffrn_reflns_limit_k_max       18

_diffrn_reflns_limit_l_min       -22
_diffrn_reflns_limit_l_max       17

_diffrn_reflns_theta_min         1.93

_diffrn_reflns_theta_max         25.01
_reflns_number_total             3630

_reflns_number_gt                3022

_reflns_threshold_expression     >2sigma(I)


_computing_data_collection       'Bruker SMART'

_computing_cell_refinement       'Bruker SMART'

_computing_data_reduction        'Bruker SAINT'

_computing_structure_solution    'SHELXS-97 (Sheldrick, 1990)'

_computing_structure_refinement  'SHELXL-97 (Sheldrick, 1997)'

_computing_molecular_graphics    'Bruker SHELXTL'

_computing_publication_material  'Bruker SHELXTL'



_refine_special_details          
; 

 Refinement of F^2^ against ALL reflections.  The weighted R-factor wR and 

 goodness of fit S are based on F^2^, conventional R-factors R are based 

 on F, with F set to zero for negative F^2^. The threshold expression of 

 F^2^ > 2sigma(F^2^) is used only for calculating R-factors(gt) etc. and is 

 not relevant to the choice of reflections for refinement.  R-factors based 

 on F^2^ are statistically about twice as large as those based on F, and R- 

 factors based on ALL data will be even larger. 

;


_refine_ls_structure_factor_coef Fsqd

_refine_ls_matrix_type           full
_refine_ls_weighting_scheme      calc

_refine_ls_weighting_details     
'calc w=1/[\s^2^(Fo^2^)+(0.0502P)^2^+5.6201P] where P=(Fo^2^+2Fc^2^)/3'

_atom_sites_solution_primary     direct
_atom_sites_solution_secondary   difmap

_atom_sites_solution_hydrogens   geom

_refine_ls_hydrogen_treatment    constr
_refine_ls_extinction_method     none

_refine_ls_extinction_coef       ?

_refine_ls_number_reflns         3630
_refine_ls_number_parameters     183

_refine_ls_number_restraints     0

_refine_ls_R_factor_all          0.0472
_refine_ls_R_factor_gt           0.0366

_refine_ls_wR_factor_ref         0.0984

_refine_ls_wR_factor_gt          0.0950
_refine_ls_goodness_of_fit_ref   1.069

_refine_ls_restrained_S_all      1.069

_refine_ls_shift/su_max          0.000
_refine_ls_shift/su_mean         0.000



loop_
_atom_site_label

_atom_site_type_symbol

_atom_site_fract_x
_atom_site_fract_y

_atom_site_fract_z

_atom_site_U_iso_or_equiv
_atom_site_adp_type

_atom_site_occupancy

_atom_site_symmetry_multiplicity
_atom_site_calc_flag

_atom_site_refinement_flags

_atom_site_disorder_assembly
_atom_site_disorder_group




























Zn1 Zn 0.28748(3) 0.25105(3) 0.08539(3) 0.01823(14) Uani 1 1 d . . .
I1 I 0.30841(3) -0.05806(3) 0.04944(3) 0.05966(17) Uani 1 1 d . . .
I2 I -0.00020(3) 0.17165(2) 0.12096(3) 0.05139(16) Uani 1 1 d . . .
O1 O 0.3638(3) 0.1586(2) 0.0571(2) 0.0420(9) Uani 1 1 d . . .
O2 O 0.3108(3) 0.1544(2) -0.0719(2) 0.0421(9) Uani 1 1 d . . .
O3 O 0.1299(2) 0.1606(2) -0.0625(2) 0.0385(9) Uani 1 1 d . . .
O4 O 0.1806(2) 0.1654(2) 0.0654(2) 0.0384(9) Uani 1 1 d . . .
O5 O 0.3377(3) 0.2427(2) 0.1991(2) 0.0402(9) Uani 1 1 d . . .
N1 N 0.3170(5) 0.2272(5) 0.3122(3) 0.0749(18) Uani 1 1 d . . .
C1 C 0.4316(3) 0.0607(3) -0.0037(3) 0.0275(11) Uani 1 1 d . . .
C2 C 0.4241(3) -0.0216(3) 0.0206(3) 0.0332(12) Uani 1 1 d . . .
C3 C 0.4915(4) -0.0817(3) 0.0248(3) 0.0361(12) Uani 1 1 d . . .
H3 H 0.4859 -0.1367 0.0419 0.043 Uiso 1 1 calc R . .
C4 C 0.3614(3) 0.1303(3) -0.0075(3) 0.0301(12) Uani 1 1 d . . .
C5 C 0.0601(3) 0.0681(3) 0.0027(3) 0.0279(11) Uani 1 1 d . . .
C6 C 0.0046(3) 0.0689(3) 0.0487(3) 0.0298(11) Uani 1 1 d . . .
C7 C 0.0548(3) -0.0001(3) -0.0447(3) 0.0317(11) Uani 1 1 d . . .
H7 H 0.0921 -0.0006 -0.0751 0.038 Uiso 1 1 calc R . .
C8 C 0.1297(3) 0.1381(3) 0.0027(3) 0.0293(12) Uani 1 1 d . . .
C9 C 0.2876(5) 0.2353(4) 0.2380(4) 0.0500(15) Uani 1 1 d . . .
H9 H 0.2236 0.2354 0.2125 0.060 Uiso 1 1 calc R . .
C10 C 0.4141(9) 0.2259(13) 0.3524(6) 0.202(9) Uani 1 1 d . . .
H10A H 0.4467 0.2332 0.3168 0.303 Uiso 1 1 calc R . .
H10B H 0.4311 0.1720 0.3783 0.303 Uiso 1 1 calc R . .
H10C H 0.4302 0.2715 0.3892 0.303 Uiso 1 1 calc R . .
C11 C 0.2508(9) 0.2211(9) 0.3557(6) 0.135(5) Uani 1 1 d . . .
H11A H 0.1888 0.2329 0.3219 0.202 Uiso 1 1 calc R . .
H11B H 0.2680 0.2620 0.3968 0.202 Uiso 1 1 calc R . .
H11C H 0.2532 0.1644 0.3764 0.202 Uiso 1 1 calc R . .



loop_
_atom_site_aniso_label

_atom_site_aniso_U_11

_atom_site_aniso_U_22
_atom_site_aniso_U_33

_atom_site_aniso_U_23

_atom_site_aniso_U_13
_atom_site_aniso_U_12




















Zn1 0.0161(2) 0.0132(2) 0.0277(3) -0.00059(19) 0.0105(2) -0.00074(17)
I1 0.0482(2) 0.0434(3) 0.1056(4) 0.0145(2) 0.0499(3) 0.00809(17)
I2 0.0595(3) 0.0327(2) 0.0790(3) -0.02027(18) 0.0456(2) -0.01656(16)
O1 0.040(2) 0.0297(19) 0.063(3) -0.0046(18) 0.027(2) 0.0129(15)
O2 0.039(2) 0.034(2) 0.052(3) 0.0044(17) 0.014(2) 0.0205(16)
O3 0.040(2) 0.0311(19) 0.050(2) 0.0017(16) 0.0227(19) -0.0179(15)
O4 0.0320(19) 0.038(2) 0.050(2) -0.0078(17) 0.0204(19) -0.0209(16)
O5 0.0381(19) 0.051(2) 0.030(2) 0.0023(16) 0.0101(17) 0.0019(16)
N1 0.090(5) 0.102(5) 0.039(4) 0.009(3) 0.030(4) 0.022(4)
C1 0.022(2) 0.019(2) 0.044(3) -0.002(2) 0.014(2) 0.0056(17)
C2 0.027(2) 0.028(3) 0.052(4) 0.008(2) 0.023(2) 0.008(2)
C3 0.038(3) 0.020(2) 0.063(4) 0.009(2) 0.032(3) 0.011(2)
C4 0.023(2) 0.019(2) 0.056(4) 0.001(2) 0.023(3) 0.0029(18)
C5 0.022(2) 0.022(2) 0.043(3) 0.000(2) 0.016(2) -0.0083(18)
C6 0.030(2) 0.024(2) 0.041(3) -0.008(2) 0.020(2) -0.0116(19)
C7 0.029(2) 0.025(2) 0.047(3) -0.004(2) 0.022(2) -0.0074(19)
C8 0.020(2) 0.014(2) 0.060(4) -0.004(2) 0.021(3) -0.0056(18)
C9 0.053(4) 0.063(4) 0.037(4) 0.001(3) 0.019(3) -0.001(3)
C10 0.134(11) 0.42(3) 0.033(6) 0.025(10) 0.000(6) 0.075(14)
C11 0.173(12) 0.183(12) 0.093(8) 0.017(8) 0.103(9) 0.026(10)



_geom_special_details            
; 

 All esds (except the esd in the dihedral angle between two l.s. planes) 

 are estimated using the full covariance matrix.  The cell esds are taken 

 into account individually in the estimation of esds in distances, angles 

 and torsion angles; correlations between esds in cell parameters are only 

 used when they are defined by crystal symmetry.  An approximate (isotropic) 

 treatment of cell esds is used for estimating esds involving l.s. planes. 

;


loop_

_geom_bond_atom_site_label_1

_geom_bond_atom_site_label_2
_geom_bond_distance

_geom_bond_site_symmetry_2

_geom_bond_publ_flag
























Zn1 O5 1.988(4) . ?
Zn1 O3 2.012(3) 7 ?
Zn1 O1 2.035(3) . ?
Zn1 O4 2.045(3) . ?
Zn1 O2 2.060(3) 7 ?
Zn1 Zn1 2.9805(12) 7 ?
I1 C2 2.094(5) . ?
I2 C6 2.108(5) . ?
O1 C4 1.266(6) . ?
O2 C4 1.241(7) . ?
O2 Zn1 2.060(3) 7 ?
O3 C8 1.260(6) . ?
O3 Zn1 2.012(3) 7 ?
O4 C8 1.234(6) . ?
O5 C9 1.224(7) . ?
N1 C9 1.302(9) . ?
N1 C10 1.415(14) . ?
N1 C11 1.497(10) . ?
C1 C2 1.380(7) . ?
C1 C3 1.399(7) 5_655 ?
C1 C4 1.512(6) . ?
C2 C3 1.376(6) . ?
C3 C1 1.399(7) 5_655 ?
C3 H3 0.9300 . ?
C5 C7 1.365(7) . ?
C5 C6 1.396(7) . ?
C5 C8 1.526(6) . ?
C6 C7 1.392(6) 5 ?
C7 C6 1.392(6) 5 ?
C7 H7 0.9300 . ?
C9 H9 0.9300 . ?
C10 H10A 0.9600 . ?
C10 H10B 0.9600 . ?
C10 H10C 0.9600 . ?
C11 H11A 0.9600 . ?
C11 H11B 0.9600 . ?
C11 H11C 0.9600 . ?



loop_
_geom_angle_atom_site_label_1

_geom_angle_atom_site_label_2

_geom_angle_atom_site_label_3
_geom_angle

_geom_angle_site_symmetry_1

_geom_angle_site_symmetry_3
_geom_angle_publ_flag










































O5 Zn1 O3 103.09(16) . 7 ?
O5 Zn1 O1 100.38(16) . . ?
O3 Zn1 O1 88.56(15) 7 . ?
O5 Zn1 O4 98.33(16) . . ?
O3 Zn1 O4 158.53(16) 7 . ?
O1 Zn1 O4 88.97(15) . . ?
O5 Zn1 O2 100.19(16) . 7 ?
O3 Zn1 O2 88.16(15) 7 7 ?
O1 Zn1 O2 159.39(16) . 7 ?
O4 Zn1 O2 86.69(15) . 7 ?
O5 Zn1 Zn1 175.61(11) . 7 ?
O3 Zn1 Zn1 79.86(11) 7 7 ?
O1 Zn1 Zn1 76.32(12) . 7 ?
O4 Zn1 Zn1 78.84(11) . 7 ?
O2 Zn1 Zn1 83.06(12) 7 7 ?
C4 O1 Zn1 131.2(3) . . ?
C4 O2 Zn1 121.5(3) . 7 ?
C8 O3 Zn1 127.0(3) . 7 ?
C8 O4 Zn1 127.2(3) . . ?
C9 O5 Zn1 122.6(4) . . ?
C9 N1 C10 118.7(7) . . ?
C9 N1 C11 121.6(8) . . ?
C10 N1 C11 119.7(8) . . ?
C2 C1 C3 118.7(4) . 5_655 ?
C2 C1 C4 123.2(4) . . ?
C3 C1 C4 118.1(4) 5_655 . ?
C3 C2 C1 120.6(4) . . ?
C3 C2 I1 118.8(4) . . ?
C1 C2 I1 120.6(3) . . ?
C2 C3 C1 120.6(4) . 5_655 ?
C2 C3 H3 119.7 . . ?
C1 C3 H3 119.7 5_655 . ?
O2 C4 O1 127.9(4) . . ?
O2 C4 C1 117.5(5) . . ?
O1 C4 C1 114.6(5) . . ?
C7 C5 C6 119.2(4) . . ?
C7 C5 C8 116.5(4) . . ?
C6 C5 C8 124.3(4) . . ?
C7 C6 C5 118.8(4) 5 . ?
C7 C6 I2 117.3(4) 5 . ?
C5 C6 I2 123.9(3) . . ?
C5 C7 C6 122.1(5) . 5 ?
C5 C7 H7 119.0 . . ?
C6 C7 H7 119.0 5 . ?
O4 C8 O3 127.0(4) . . ?
O4 C8 C5 117.5(5) . . ?
O3 C8 C5 115.4(4) . . ?
O5 C9 N1 125.0(6) . . ?
O5 C9 H9 117.5 . . ?
N1 C9 H9 117.5 . . ?
N1 C10 H10A 109.5 . . ?
N1 C10 H10B 109.5 . . ?
H10A C10 H10B 109.5 . . ?
N1 C10 H10C 109.5 . . ?
H10A C10 H10C 109.5 . . ?
H10B C10 H10C 109.5 . . ?
N1 C11 H11A 109.5 . . ?
N1 C11 H11B 109.5 . . ?
H11A C11 H11B 109.5 . . ?
N1 C11 H11C 109.5 . . ?
H11A C11 H11C 109.5 . . ?
H11B C11 H11C 109.5 . . ?


loop_

_geom_torsion_atom_site_label_1
_geom_torsion_atom_site_label_2

_geom_torsion_atom_site_label_3

_geom_torsion_atom_site_label_4
_geom_torsion

_geom_torsion_site_symmetry_1

_geom_torsion_site_symmetry_2
_geom_torsion_site_symmetry_3

_geom_torsion_site_symmetry_4

_geom_torsion_publ_flag






























O5 Zn1 O1 C4 176.7(4) . . . . ?
O3 Zn1 O1 C4 -80.3(4) 7 . . . ?
O4 Zn1 O1 C4 78.4(4) . . . . ?
O2 Zn1 O1 C4 0.6(7) 7 . . . ?
Zn1 Zn1 O1 C4 -0.4(4) 7 . . . ?
O5 Zn1 O4 C8 -172.4(4) . . . . ?
O3 Zn1 O4 C8 11.3(7) 7 . . . ?
O1 Zn1 O4 C8 -72.1(4) . . . . ?
O2 Zn1 O4 C8 87.7(4) 7 . . . ?
Zn1 Zn1 O4 C8 4.2(4) 7 . . . ?
O3 Zn1 O5 C9 140.4(5) 7 . . . ?
O1 Zn1 O5 C9 -128.7(5) . . . . ?
O4 Zn1 O5 C9 -38.2(5) . . . . ?
O2 Zn1 O5 C9 49.9(5) 7 . . . ?
Zn1 Zn1 O5 C9 -87.7(15) 7 . . . ?
C3 C1 C2 C3 0.7(9) 5_655 . . . ?
C4 C1 C2 C3 -178.2(5) . . . . ?
C3 C1 C2 I1 -177.9(4) 5_655 . . . ?
C4 C1 C2 I1 3.1(7) . . . . ?
C1 C2 C3 C1 -0.8(9) . . . 5_655 ?
I1 C2 C3 C1 177.9(4) . . . 5_655 ?
Zn1 O2 C4 O1 -2.0(7) 7 . . . ?
Zn1 O2 C4 C1 -179.8(3) 7 . . . ?
Zn1 O1 C4 O2 1.6(8) . . . . ?
Zn1 O1 C4 C1 179.5(3) . . . . ?
C2 C1 C4 O2 -109.8(6) . . . . ?
C3 C1 C4 O2 71.2(6) 5_655 . . . ?
C2 C1 C4 O1 72.1(6) . . . . ?
C3 C1 C4 O1 -106.9(6) 5_655 . . . ?
C7 C5 C6 C7 -0.3(8) . . . 5 ?
C8 C5 C6 C7 -178.6(5) . . . 5 ?
C7 C5 C6 I2 -177.0(4) . . . . ?
C8 C5 C6 I2 4.7(7) . . . . ?
C6 C5 C7 C6 0.3(9) . . . 5 ?
C8 C5 C7 C6 178.7(5) . . . 5 ?
Zn1 O4 C8 O3 -3.9(7) . . . . ?
Zn1 O4 C8 C5 174.6(3) . . . . ?
Zn1 O3 C8 O4 -0.5(7) 7 . . . ?
Zn1 O3 C8 C5 -179.0(3) 7 . . . ?
C7 C5 C8 O4 -133.8(5) . . . . ?
C6 C5 C8 O4 44.5(7) . . . . ?
C7 C5 C8 O3 44.8(6) . . . . ?
C6 C5 C8 O3 -136.9(5) . . . . ?
Zn1 O5 C9 N1 178.0(5) . . . . ?
C10 N1 C9 O5 -0.6(14) . . . . ?
C11 N1 C9 O5 178.1(8) . . . . ?






loop_

_platon_squeeze_void_nr

_platon_squeeze_void_average_x
_platon_squeeze_void_average_y

_platon_squeeze_void_average_z

_platon_squeeze_void_volume
_platon_squeeze_void_count_electrons

_platon_squeeze_void_content




1 -0.022 -0.029 0.250 347 29 ' '
2 -0.022 0.029 0.750 347 29 ' '
3 -0.013 0.471 0.250 347 29 ' '
4 -0.010 0.529 0.750 347 29 ' '

_platon_squeeze_details          ?





_diffrn_measured_fraction_theta_max 0.992
_diffrn_reflns_theta_full        25.01

_diffrn_measured_fraction_theta_full 0.992

_refine_diff_density_max         0.917
_refine_diff_density_min         -1.233

_refine_diff_density_rms         0.161






