####################################################################### 
# 
# This file contains crystal structure data downloaded from the 
# Cambridge Structural Database (CSD) hosted by the Cambridge 
# Crystallographic Data Centre (CCDC).
# 
# Full information about CCDC data access policies and citation 
# guidelines are available at http://www.ccdc.cam.ac.uk/access/V1 
# 
# Audit and citation data items may have been added by the CCDC. 
# Please retain this information to preserve the provenance of 
# this file and to allow appropriate attribution of the data. 
# 
#######################################################################

data_a
_audit_block_doi                 10.5517/cc139rtz
_database_code_depnum_ccdc_archive 'CCDC 1022281'
loop_
_citation_id
_citation_doi
_citation_year
1 10.1039/C4NJ00517A 2014
_audit_update_record             
;
2014-09-01 deposited with the CCDC.	2024-07-09 downloaded from the CCDC.
;

_audit_creation_method           SHELXL-97
_chemical_name_systematic        
; 
 ? 
;
_chemical_name_common            ?
_chemical_melting_point          ?
_chemical_formula_moiety         ?
_chemical_formula_sum            'C68 H69.69 N24.33 Ni5 O13'
_chemical_formula_weight         1729.36

loop_
_atom_type_symbol
_atom_type_description
_atom_type_scat_dispersion_real
_atom_type_scat_dispersion_imag
_atom_type_scat_source
C C 0.0033 0.0016 'International Tables Vol C Tables 4.2.6.8 and 6.1.1.4'
H H 0.0000 0.0000 'International Tables Vol C Tables 4.2.6.8 and 6.1.1.4'
N N 0.0061 0.0033 'International Tables Vol C Tables 4.2.6.8 and 6.1.1.4'
O O 0.0106 0.0060 'International Tables Vol C Tables 4.2.6.8 and 6.1.1.4'
Ni Ni 0.3393 1.1124 'International Tables Vol C Tables 4.2.6.8 and 6.1.1.4'

_symmetry_cell_setting           monoclinic
_symmetry_space_group_name_H-M   P2(1)/c

loop_
_symmetry_equiv_pos_as_xyz
'x, y, z'
'-x, y+1/2, -z+1/2'
'-x, -y, -z'
'x, -y-1/2, z-1/2'

_cell_length_a                   19.8290(2)
_cell_length_b                   14.3210(2)
_cell_length_c                   28.6903(3)
_cell_angle_alpha                90.00
_cell_angle_beta                 91.0550(10)
_cell_angle_gamma                90.00
_cell_volume                     8145.84(16)
_cell_formula_units_Z            4
_cell_measurement_temperature    120.01(10)
_cell_measurement_reflns_used    18966
_cell_measurement_theta_min      2.2267
_cell_measurement_theta_max      74.2529

_exptl_crystal_description       block
_exptl_crystal_colour            blue
_exptl_crystal_size_max          0.23
_exptl_crystal_size_mid          0.18
_exptl_crystal_size_min          0.15
_exptl_crystal_density_meas      ?
_exptl_crystal_density_diffrn    1.417
_exptl_crystal_density_method    'not measured'
_exptl_crystal_F_000             3589
_exptl_absorpt_coefficient_mu    1.874
_exptl_absorpt_correction_type   multi-scan
_exptl_absorpt_correction_T_min  0.15918
_exptl_absorpt_correction_T_max  1.00000
_exptl_absorpt_process_details   none

_exptl_special_details           
; 
 ? 
;

_diffrn_ambient_temperature      120.01(10)
_diffrn_radiation_wavelength     1.5418
_diffrn_radiation_type           CuK\a
_diffrn_radiation_source         'SuperNova (Cu) X-ray Source'
_diffrn_radiation_monochromator  mirror
_diffrn_measurement_device_type  SuperNova
_diffrn_measurement_method       '\w scans'
_diffrn_detector_area_resol_mean none
_diffrn_standards_number         none
_diffrn_standards_interval_count none
_diffrn_standards_interval_time  none
_diffrn_standards_decay_%        none
_diffrn_reflns_number            31793
_diffrn_reflns_av_R_equivalents  0.0208
_diffrn_reflns_av_sigmaI/netI    0.0222
_diffrn_reflns_limit_h_min       -21
_diffrn_reflns_limit_h_max       23
_diffrn_reflns_limit_k_min       -14
_diffrn_reflns_limit_k_max       17
_diffrn_reflns_limit_l_min       -34
_diffrn_reflns_limit_l_max       34
_diffrn_reflns_theta_min         2.2267
_diffrn_reflns_theta_max         74.2529
_reflns_number_total             14315
_reflns_number_gt                12881
_reflns_threshold_expression     >2sigma(I)

_computing_data_collection       'CrysAlisPro, Agilent Technologies'
_computing_cell_refinement       'CrysAlisPro, Agilent Technologies'
_computing_data_reduction        'CrysAlisPro, Agilent Technologies'
_computing_structure_solution    'SHELXS-97 (Sheldrick, 1990)'
_computing_structure_refinement  'SHELXL-97 (Sheldrick, 1997)'
_computing_molecular_graphics    'CrysAlisPro, Agilent Technologies'
_computing_publication_material  'CrysAlisPro, Agilent Technologies'

_refine_special_details          
; 
 Refinement of F^2^ against ALL reflections.  The weighted R-factor wR and 
 goodness of fit S are based on F^2^, conventional R-factors R are based 
 on F, with F set to zero for negative F^2^. The threshold expression of 
 F^2^ > 2sigma(F^2^) is used only for calculating R-factors(gt) etc. and is 
 not relevant to the choice of reflections for refinement.  R-factors based 
 on F^2^ are statistically about twice as large as those based on F, and R- 
 factors based on ALL data will be even larger. 
;

_refine_ls_structure_factor_coef Fsqd
_refine_ls_matrix_type           full
_refine_ls_weighting_scheme      calc
_refine_ls_weighting_details     
'calc w=1/[\s^2^(Fo^2^)+(0.1416P)^2^+25.0388P] where P=(Fo^2^+2Fc^2^)/3'
_atom_sites_solution_primary     direct
_atom_sites_solution_secondary   difmap
_atom_sites_solution_hydrogens   geom
_refine_ls_hydrogen_treatment    mixed
_refine_ls_extinction_method     none
_refine_ls_extinction_coef       ?
_refine_ls_number_reflns         14315
_refine_ls_number_parameters     945
_refine_ls_number_restraints     33
_refine_ls_R_factor_all          0.0761
_refine_ls_R_factor_gt           0.0716
_refine_ls_wR_factor_ref         0.2165
_refine_ls_wR_factor_gt          0.2109
_refine_ls_goodness_of_fit_ref   1.044
_refine_ls_restrained_S_all      1.133
_refine_ls_shift/su_max          0.023
_refine_ls_shift/su_mean         0.000

loop_
_atom_site_label
_atom_site_type_symbol
_atom_site_fract_x
_atom_site_fract_y
_atom_site_fract_z
_atom_site_U_iso_or_equiv
_atom_site_adp_type
_atom_site_occupancy
_atom_site_symmetry_multiplicity
_atom_site_calc_flag
_atom_site_refinement_flags
_atom_site_disorder_assembly
_atom_site_disorder_group
Ni1 Ni 0.77885(3) 1.01883(5) 0.18785(3) 0.0356(2) Uani 1 1 d U . .
Ni2 Ni 0.56296(3) 1.25168(5) 0.09287(2) 0.03203(19) Uani 1 1 d D . .
Ni3 Ni 0.64205(4) 1.32371(5) 0.29200(2) 0.0349(2) Uani 1 1 d . B .
Ni4 Ni 0.83457(3) 1.41858(5) 0.13997(2) 0.03352(19) Uani 1 1 d . . .
Ni5 Ni 0.70489(3) 1.25120(4) 0.17827(2) 0.02936(19) Uani 1 1 d . . .
O1B O 0.4857(3) 1.1562(5) 0.08639(19) 0.0237(15) Uiso 0.67 1 d PU A 1
O3 O 1.00457(17) 0.9906(3) 0.38409(13) 0.0336(8) Uani 1 1 d . . .
O4 O 0.59502(16) 1.4570(2) 0.30073(11) 0.0261(7) Uani 1 1 d U . .
O5 O 0.82387(16) 1.9154(2) 0.14526(11) 0.0234(6) Uani 1 1 d . . .
O6 O 0.67640(16) 1.3393(2) 0.36286(10) 0.0262(7) Uani 1 1 d . . .
O7 O 0.57751(17) 1.2778(2) 0.34507(10) 0.0267(7) Uani 1 1 d . . .
O8 O 0.87928(16) 1.4319(2) 0.07545(11) 0.0270(7) Uani 1 1 d . . .
H8A H 0.8709 1.3830 0.0582 0.040 Uiso 1 1 d R . .
H8B H 0.9230 1.4373 0.0786 0.040 Uiso 1 1 d R . .
O9 O 1.07243(15) 0.9387(2) 0.32779(11) 0.0239(7) Uani 1 1 d . . .
O10 O 0.74650(15) 1.8784(2) 0.19648(12) 0.0247(7) Uani 1 1 d . . .
O11B O 0.3958(4) 1.2352(5) 0.0602(2) 0.0382(18) Uiso 0.67 1 d P A 1
N1 N 0.5250(3) 1.5253(5) 0.2539(2) 0.0437(17) Uiso 0.67 1 d PDU B 1
N2 N 0.81769(19) 1.5652(3) 0.13906(14) 0.0229(8) Uani 1 1 d . . .
N3 N 0.54918(17) 1.2630(3) 0.16415(12) 0.0187(7) Uani 1 1 d . . .
N4 N 0.63848(17) 1.3495(2) 0.09499(11) 0.0164(7) Uani 1 1 d . . .
N5 N 0.83058(18) 1.1320(2) 0.16585(13) 0.0203(7) Uani 1 1 d U . .
N6 N 0.85983(19) 0.9947(3) 0.23864(15) 0.0264(8) Uani 1 1 d . . .
N7 N 0.70075(18) 1.0475(3) 0.13983(13) 0.0220(8) Uani 1 1 d . . .
N8 N 0.62621(17) 1.1390(2) 0.10442(12) 0.0174(7) Uani 1 1 d . A .
N9 N 0.68721(18) 1.1939(3) 0.28296(12) 0.0199(7) Uani 1 1 d . . .
N10 N 0.72664(18) 1.0802(2) 0.23992(13) 0.0190(7) Uani 1 1 d . . .
N11 N 0.71711(18) 1.3889(3) 0.25914(12) 0.0198(7) Uani 1 1 d . . .
N12 N 0.79305(18) 1.4185(2) 0.20582(12) 0.0195(7) Uani 1 1 d . . .
N13 N 0.58049(19) 1.2590(3) 0.51945(12) 0.0208(8) Uani 1 1 d . . .
N14 N 0.58116(17) 1.2952(2) 0.23650(11) 0.0156(7) Uani 1 1 d . . .
N15 N 0.85120(17) 1.2764(3) 0.14450(13) 0.0189(7) Uani 1 1 d . . .
N16 N 0.60148(16) 1.2782(2) 0.19332(11) 0.0143(7) Uani 1 1 d . . .
N17 N 0.74225(17) 1.4011(2) 0.10690(12) 0.0177(7) Uani 1 1 d . . .
N18 N 0.80567(17) 1.2176(2) 0.16157(12) 0.0166(7) Uani 1 1 d . . .
N19 N 0.67394(16) 1.1332(2) 0.13791(11) 0.0153(7) Uani 1 1 d . . .
N20 N 0.70794(16) 1.1690(2) 0.24065(12) 0.0169(7) Uani 1 1 d . . .
N21 N 0.69537(16) 1.3394(2) 0.11966(11) 0.0143(7) Uani 1 1 d . . .
N22 N 0.74129(16) 1.3647(2) 0.21763(11) 0.0158(7) Uani 1 1 d . . .
C2B C 0.4454(7) 1.5588(12) 0.2507(7) 0.033(4) Uiso 0.33 1 d PD B 2
H2BA H 0.4452 1.5256 0.2216 0.050 Uiso 0.33 1 calc PR B 2
H2BB H 0.4534 1.6239 0.2451 0.050 Uiso 0.33 1 calc PR B 2
H2BC H 0.4026 1.5512 0.2653 0.050 Uiso 0.33 1 calc PR B 2
C3 C 0.5389(4) 1.4949(5) 0.2898(3) 0.0281(15) Uiso 0.67 1 d PDU B 1
C4 C 0.4826(4) 1.5076(5) 0.3224(3) 0.0592(18) Uani 1 1 d DU . .
H4AA H 0.4455 1.5376 0.3065 0.089 Uiso 0.67 1 calc PR B 1
H4AB H 0.4974 1.5457 0.3482 0.089 Uiso 0.67 1 calc PR B 1
H4AC H 0.4684 1.4478 0.3338 0.089 Uiso 0.67 1 calc PR B 1
H4BD H 0.4375 1.5295 0.3273 0.089 Uiso 0.33 1 d PR B 2
H4BE H 0.5133 1.5405 0.3429 0.089 Uiso 0.33 1 d PR B 2
H4BF H 0.4850 1.4419 0.3290 0.089 Uiso 0.33 1 d PR B 2
C5 C 0.6950(4) 1.0133(4) 0.3759(2) 0.0514(16) Uani 1 1 d . B .
H5 H 0.6885 1.0017 0.4074 0.062 Uiso 1 1 calc R . .
C6 C 0.5819(3) 1.5214(5) 0.2158(2) 0.0479(14) Uani 1 1 d DU . .
H6AA H 0.5651 1.5481 0.1872 0.072 Uiso 0.67 1 calc PR B 1
H6AB H 0.5946 1.4576 0.2106 0.072 Uiso 0.67 1 calc PR B 1
H6AC H 0.6206 1.5561 0.2267 0.072 Uiso 0.67 1 calc PR B 1
H6BD H 0.5440 1.5495 0.2001 0.072 Uiso 0.33 1 d PR B 2
H6BE H 0.5949 1.4658 0.1995 0.072 Uiso 0.33 1 d PR B 2
H6BF H 0.6190 1.5646 0.2166 0.072 Uiso 0.33 1 d PR B 2
C7 C 1.0054(3) 1.0882(4) 0.1314(3) 0.0491(16) Uani 1 1 d . . .
H7 H 1.0391 1.0433 0.1291 0.059 Uiso 1 1 calc R . .
C9 C 0.9453(3) 0.9043(4) 0.2776(2) 0.0375(12) Uani 1 1 d . . .
H9 H 0.9687 0.8481 0.2798 0.045 Uiso 1 1 calc R . .
C10 C 0.7181(4) 0.9406(4) 0.3473(2) 0.0481(15) Uani 1 1 d . B .
H10 H 0.7249 0.8817 0.3601 0.058 Uiso 1 1 calc R . .
C11 C 0.9721(3) 1.2504(4) 0.1199(2) 0.0353(12) Uani 1 1 d . . .
H11 H 0.9812 1.3109 0.1100 0.042 Uiso 1 1 calc R B .
C12 C 0.5876(3) 0.9305(4) 0.0344(2) 0.0454(15) Uani 1 1 d . . .
H12 H 0.5608 0.9069 0.0102 0.055 Uiso 1 1 calc R . .
C13 C 0.6341(4) 0.8717(4) 0.0562(3) 0.063(2) Uani 1 1 d . . .
H13 H 0.6378 0.8103 0.0460 0.076 Uiso 1 1 calc R . .
C14 C 0.7946(3) 1.5891(5) 0.3207(2) 0.0457(15) Uani 1 1 d . B .
H14 H 0.7927 1.6268 0.3470 0.055 Uiso 1 1 calc R . .
C15 C 0.6308(3) 1.5359(4) 0.0059(2) 0.0430(14) Uani 1 1 d . . .
H15 H 0.6035 1.5657 -0.0162 0.052 Uiso 1 1 calc R . .
C16 C 0.3782(3) 1.2680(5) 0.2143(2) 0.0397(13) Uani 1 1 d . . .
H16 H 0.3324 1.2605 0.2080 0.048 Uiso 1 1 calc R . .
C17 C 0.6976(3) 1.5673(4) 0.0128(2) 0.0447(14) Uani 1 1 d . B .
H17 H 0.7130 1.6169 -0.0050 0.054 Uiso 1 1 calc R . .
C18 C 0.7490(3) 1.5175(4) 0.31539(18) 0.0370(12) Uani 1 1 d . . .
H18 H 0.7164 1.5056 0.3376 0.044 Uiso 1 1 calc R B .
C19 C 1.0195(3) 1.1810(4) 0.1179(3) 0.0475(15) Uani 1 1 d . B .
H19 H 1.0624 1.1954 0.1073 0.057 Uiso 1 1 calc R . .
C20 C 0.8442(3) 1.6069(4) 0.2873(2) 0.0449(14) Uani 1 1 d . . .
H20 H 0.8737 1.6565 0.2923 0.054 Uiso 1 1 calc R B .
C21 C 0.8506(3) 1.5539(4) 0.24781(19) 0.0360(12) Uani 1 1 d . B .
H21 H 0.8843 1.5652 0.2264 0.043 Uiso 1 1 calc R . .
C22 C 0.5315(2) 1.2514(3) 0.48686(16) 0.0250(10) Uani 1 1 d . . .
H22 H 0.4883 1.2361 0.4963 0.030 Uiso 1 1 calc R . .
C23 C 0.9444(3) 1.0625(4) 0.1477(2) 0.0384(12) Uani 1 1 d . B .
H23 H 0.9351 1.0012 0.1561 0.046 Uiso 1 1 calc R . .
C24 C 0.6819(3) 1.1015(4) 0.35843(19) 0.0425(13) Uani 1 1 d . . .
H24 H 0.6657 1.1489 0.3773 0.051 Uiso 1 1 calc R B .
C25 C 0.9267(3) 1.0596(4) 0.3006(2) 0.0434(14) Uani 1 1 d . . .
H25 H 0.9366 1.1110 0.3194 0.052 Uiso 1 1 calc R . .
C26 C 0.6578(2) 1.2971(4) 0.45898(16) 0.0286(10) Uani 1 1 d . B .
H26 H 0.7015 1.3127 0.4506 0.034 Uiso 1 1 calc R . .
C27 C 0.8941(3) 0.9156(4) 0.2446(2) 0.0362(12) Uani 1 1 d . . .
H27 H 0.8831 0.8651 0.2255 0.043 Uiso 1 1 calc R . .
C28 C 0.6048(3) 1.4627(4) 0.03076(18) 0.0334(11) Uani 1 1 d . A .
H28 H 0.5610 1.4416 0.0256 0.040 Uiso 1 1 calc R . .
C29 C 0.8774(3) 1.0657(4) 0.2662(2) 0.0410(13) Uani 1 1 d . . .
H29 H 0.8552 1.1224 0.2621 0.049 Uiso 1 1 calc R . .
C30 C 0.6747(4) 0.9017(4) 0.0924(3) 0.063(2) Uani 1 1 d . A .
H30 H 0.7051 0.8616 0.1072 0.075 Uiso 1 1 calc R . .
C31 C 0.5800(2) 1.0205(4) 0.04688(17) 0.0295(10) Uani 1 1 d . . .
H31 H 0.5488 1.0591 0.0319 0.035 Uiso 1 1 calc R . .
C32 C 0.7308(3) 0.9545(4) 0.30080(19) 0.0358(11) Uani 1 1 d . . .
H32 H 0.7469 0.9067 0.2821 0.043 Uiso 1 1 calc R B .
C33 C 0.8579(2) 1.7222(3) 0.13655(18) 0.0271(10) Uani 1 1 d . . .
H33 H 0.8921 1.7636 0.1289 0.032 Uiso 1 1 calc R . .
C34 C 0.7474(2) 1.6901(3) 0.16437(18) 0.0279(10) Uani 1 1 d . . .
H34 H 0.7064 1.7097 0.1763 0.034 Uiso 1 1 calc R . .
C35 C 0.7401(3) 1.5274(4) 0.04461(19) 0.0364(12) Uani 1 1 d . . .
H35 H 0.7844 1.5475 0.0486 0.044 Uiso 1 1 calc R B .
C36 C 0.5423(3) 1.2655(4) 0.43965(16) 0.0284(10) Uani 1 1 d . B .
H36 H 0.5073 1.2582 0.4180 0.034 Uiso 1 1 calc R . .
C37 C 0.8955(2) 1.1341(3) 0.15128(18) 0.0258(9) Uani 1 1 d . . .
C38 C 0.4229(2) 1.2562(5) 0.17864(19) 0.0382(13) Uani 1 1 d . A .
H38 H 0.4086 1.2408 0.1486 0.046 Uiso 1 1 calc R . .
C39 C 0.3990(2) 1.2908(3) 0.25984(17) 0.0275(10) Uani 1 1 d . A .
H39 H 0.3666 1.2994 0.2825 0.033 Uiso 1 1 calc R . .
C40 C 1.0173(2) 0.9684(3) 0.34322(18) 0.0271(10) Uani 1 1 d . . .
C41 C 0.7540(2) 1.4630(3) 0.27467(16) 0.0257(9) Uani 1 1 d . B .
C42 C 0.9611(2) 0.9772(3) 0.30698(18) 0.0282(10) Uani 1 1 d . . .
C43 C 0.6481(2) 1.4212(3) 0.06452(15) 0.0222(9) Uani 1 1 d . . .
C44 C 0.6686(2) 0.9956(3) 0.10628(18) 0.0296(10) Uani 1 1 d . . .
C45 C 0.6066(2) 1.2908(3) 0.42531(15) 0.0250(9) Uani 1 1 d . . .
C46 C 0.8032(2) 1.4812(3) 0.24147(16) 0.0257(9) Uani 1 1 d . B .
C47 C 0.7589(2) 1.5976(3) 0.15540(18) 0.0269(10) Uani 1 1 d . . .
H47 H 0.7245 1.5551 0.1609 0.032 Uiso 1 1 calc R . .
C48 C 0.6427(2) 1.2798(3) 0.50512(15) 0.0254(9) Uani 1 1 d . . .
H48 H 0.6775 1.2829 0.5273 0.030 Uiso 1 1 calc R B .
C49 C 0.7889(2) 1.8554(3) 0.16610(17) 0.0239(9) Uani 1 1 d . . .
C50 C 0.7181(2) 1.0442(3) 0.28314(16) 0.0243(9) Uani 1 1 d . B .
C51 C 0.6940(2) 1.1165(3) 0.31085(16) 0.0262(9) Uani 1 1 d . B .
C52 C 0.8654(2) 1.6273(3) 0.12959(17) 0.0251(9) Uani 1 1 d . . .
H52 H 0.9058 1.6057 0.1177 0.030 Uiso 1 1 calc R . .
C53 C 0.6219(2) 1.0537(3) 0.08394(16) 0.0232(9) Uani 1 1 d . A .
C54 C 0.4920(2) 1.2689(3) 0.19041(15) 0.0216(9) Uani 1 1 d . . .
C55 C 0.9085(2) 1.2252(3) 0.13772(18) 0.0271(10) Uani 1 1 d . B .
C56 C 0.4658(2) 1.3007(3) 0.27191(15) 0.0233(9) Uani 1 1 d . . .
H56 H 0.4795 1.3143 0.3023 0.028 Uiso 1 1 calc R A .
C57 C 0.7981(2) 1.7542(3) 0.15525(17) 0.0240(9) Uani 1 1 d . . .
C58 C 0.6210(2) 1.3049(3) 0.37469(15) 0.0254(9) Uani 1 1 d . B .
C59 C 0.7136(2) 1.4538(3) 0.07140(15) 0.0223(9) Uani 1 1 d . A .
C60 C 0.5125(2) 1.2893(3) 0.23611(14) 0.0172(8) Uani 1 1 d . A .
C64 C 0.4791(4) 1.4406(6) 0.1047(3) 0.0392(18) Uani 0.67 1 d PD A 1
H64A H 0.4477 1.4263 0.1288 0.059 Uiso 0.67 1 calc PR A 1
H64B H 0.4607 1.4889 0.0850 0.059 Uiso 0.67 1 calc PR A 1
H64C H 0.5208 1.4616 0.1186 0.059 Uiso 0.67 1 calc PR A 1
C65 C 0.4233(4) 1.1649(6) 0.0757(2) 0.0288(16) Uani 0.67 1 d PU A 1
C66 C 0.3811(5) 1.0776(7) 0.0826(3) 0.049(2) Uani 0.67 1 d P A 1
H66A H 0.4093 1.0283 0.0946 0.073 Uiso 0.67 1 calc PR A 1
H66B H 0.3613 1.0588 0.0533 0.073 Uiso 0.67 1 calc PR A 1
H66C H 0.3461 1.0906 0.1043 0.073 Uiso 0.67 1 calc PR A 1
N1B N 0.4984(5) 1.5220(8) 0.2810(4) 0.019(2) Uiso 0.33 1 d P B 2
C1P C 0.5610(6) 1.4939(8) 0.2702(4) 0.015(2) Uiso 0.33 1 d P B 2
C2A C 0.4579(4) 1.5619(6) 0.2317(3) 0.0321(17) Uiso 0.67 1 d PD B 1
H2AA H 0.4326 1.5103 0.2191 0.048 Uiso 0.67 1 calc PR B 1
H2AB H 0.4678 1.6051 0.2072 0.048 Uiso 0.67 1 calc PR B 1
H2AC H 0.4320 1.5928 0.2550 0.048 Uiso 0.67 1 calc PR B 1
N1A N 0.4421(8) 1.2571(10) 0.0748(5) 0.040(3) Uiso 0.33 1 d P A 2
O2 O 0.4761(6) 1.3311(8) 0.0799(3) 0.019(2) Uiso 0.33 1 d P A 2
O12 O 0.4908(3) 1.3595(4) 0.07773(17) 0.0204(11) Uiso 0.67 1 d PD A 1
H12A H 0.4524(13) 1.345(2) 0.065(2) 0.031 Uiso 0.67 1 d PD C 1
O1A O 0.4729(6) 1.1787(9) 0.0823(4) 0.019(3) Uiso 0.33 1 d P A 2
O11A O 0.3811(8) 1.2602(11) 0.0635(5) 0.040(4) Uiso 0.33 1 d P A 2
N23 N 0.9089(6) 1.2896(8) 0.3512(4) 0.119(3) Uiso 1 1 d D . .
O14 O 0.8292(8) 1.3408(12) 0.4770(6) 0.204(6) Uiso 1 1 d D . .
N24 N 0.8058(11) 1.5289(15) 0.4904(12) 0.40(2) Uiso 1 1 d D . .
C71 C 0.8135(8) 1.4017(12) 0.5503(5) 0.130(5) Uiso 1 1 d D . .
H71A H 0.8409 1.3495 0.5598 0.196 Uiso 1 1 calc R . .
H71B H 0.7668 1.3859 0.5532 0.196 Uiso 1 1 calc R . .
H71C H 0.8240 1.4544 0.5698 0.196 Uiso 1 1 calc R . .
C74 C 0.8279(14) 1.4258(17) 0.4997(7) 0.222(11) Uiso 1 1 d D . .
C