
#######################################################################
#
#                 Cambridge Crystallographic Data Centre
#                                CCDC
#
#######################################################################
#
# If this CIF has been generated from an entry in the Cambridge
# Structural Database, then it will include bibliographic, chemical,
# crystal, experimental, refinement or atomic coordinate data resulting
# from the CCDC's data processing and validation procedures.
#
#######################################################################

data_CSD_CIF_DOMWUX
_audit_creation_date 1987-03-27
_audit_creation_method CSD-ConQuest-V1
_database_code_CSD DOMWUX
_database_code_depnum_ccdc_archive 'CCDC 1144072'
_chemical_formula_sum 'C24 H30 Fe1 N3'
_chemical_formula_moiety
;
C20 H30 Fe1 1+,C4 N3 1-
;
_journal_coden_Cambridge 4
_journal_volume 108
_journal_year 1986
_journal_page_first 2582
_journal_name_full 'J.Am.Chem.Soc. '
loop_
_publ_author_name
"D.A.Dixon"
"J.C.Calabrese"
"J.S.Miller"
_chemical_name_systematic
;
Decamethyl-ferrocenium tricyanomethanide
;
_chemical_name_common
;
Teaching Subset: Fundamental Chemistry, Symmetry
;
_cell_volume   4495.988
_exptl_crystal_colour 'green'
_exptl_crystal_density_diffrn 1.23
_exptl_special_details
;
No coordinates reported for H35

;
_diffrn_ambient_temperature 173.15
#These two values have been output from a single CSD field.
_refine_ls_R_factor_gt 0.048
_refine_ls_wR_factor_gt 0.048
_symmetry_cell_setting orthorhombic
_symmetry_space_group_name_H-M 'P m a 2'
_symmetry_Int_Tables_number 28
loop_
_symmetry_equiv_pos_site_id
_symmetry_equiv_pos_as_xyz
1 x,y,z
2 1/2-x,y,z
3 1/2+x,-y,z
4 -x,-y,z
_cell_length_a 22.375(4)
_cell_length_b 21.331(2)
_cell_length_c 9.420(3)
_cell_angle_alpha 90
_cell_angle_beta 90
_cell_angle_gamma 90
_cell_formula_units_Z 8
loop_
_atom_type_symbol
_atom_type_radius_bond
C 0.68
H 0.23
Fe 1.34
N 0.68
loop_
_atom_site_label
_atom_site_type_symbol
_atom_site_fract_x
_atom_site_fract_y
_atom_site_fract_z
Fe1 Fe 0.01535(4) -0.25745(4) 0.65428
C1 C 0.0873(3) -0.1964(4) 0.6676(10)
C2 C 0.1086(3) -0.2577(4) 0.635(1)
C3 C 0.0816(4) -0.2766(4) 0.5017(10)
C4 C 0.0449(3) -0.2260(4) 0.4554(8)
C5 C 0.0492(3) -0.1774(4) 0.5547(9)
C6 C 0.1055(5) -0.1561(5) 0.7896(10)
C7 C 0.1510(4) -0.2943(5) 0.7257(13)
C8 C 0.0932(5) -0.3358(5) 0.4269(12)
C9 C 0.0123(5) -0.2247(5) 0.3182(9)
C10 C 0.0192(4) -0.1144(4) 0.5445(11)
C11 C -0.0745(3) -0.2446(4) 0.6996(8)
C12 C -0.0406(3) -0.2435(3) 0.8288(8)
C13 C -0.0115(3) -0.3028(3) 0.8433(8)
C14 C -0.0270(3) -0.3405(4) 0.7250(8)
C15 C -0.0664(3) -0.3051(3) 0.6358(8)
C16 C -0.1167(3) -0.1950(4) 0.6500(12)
C17 C -0.0385(4) -0.1899(4) 0.9331(9)
C18 C 0.0260(4) -0.3216(4) 0.9683(9)
C19 C -0.0076(3) -0.4071(3) 0.7007(8)
C20 C -0.0949(4) -0.3284(4) 0.5039(10)
H1 H 0.14060 -0.13320 0.76700
H2 H 0.11310 -0.18150 0.87140
H3 H 0.07420 -0.12730 0.81190
H4 H 0.19090 -0.28580 0.69670
H5 H 0.14310 -0.33770 0.71560
H6 H 0.14600 -0.28220 0.82200
H7 H 0.12420 -0.33090 0.36020
H8 H 0.05730 -0.34840 0.37770
H9 H 0.10320 -0.36730 0.49370
H10 H 0.03800 -0.21080 0.24490
H11 H -0.02170 -0.19930 0.32440
H12 H 0.00000 -0.26720 0.29580
H13 H 0.04450 -0.08630 0.49340
H14 H 0.01240 -0.09800 0.63690
H15 H -0.01770 -0.11840 0.49580
H16 H -0.15500 -0.20210 0.68970
H17 H -0.11940 -0.19580 0.54910
H18 H -0.10250 -0.15480 0.67920
H19 H -0.06940 -0.19460 1.00160
H20 H -0.04400 -0.15120 0.88380
H21 H -0.00080 -0.18900 0.98030
H22 H 0.00050 -0.33970 1.03940
H23 H 0.04450 -0.28540 1.00700
H24 H 0.05480 -0.35110 0.94050
H25 H -0.03420 -0.43430 0.75040
H26 H 0.03170 -0.41250 0.73650
H27 H -0.00880 -0.41620 0.60280
H28 H -0.13190 -0.34740 0.52470
H29 H -0.06930 -0.35800 0.45830
H30 H -0.10120 -0.29390 0.44040
Fe2 Fe 0.25000 0.0022(1) 0.2385(2)
C21 C 0.25000 -0.0755(6) 0.1065(14)
C22 C 0.3010(4) -0.0767(4) 0.1913(12)
C23 C 0.2814(4) -0.0793(4) 0.3351(12)
C24 C 0.25000 -0.0742(7) -0.0554(18)
C25 C 0.3656(4) -0.0780(4) 0.1406(15)
C26 C 0.3211(5) -0.0831(5) 0.4646(13)
C27 C 0.25000 0.0794(5) 0.3767(15)
C28 C 0.3018(4) 0.0810(4) 0.2868(10)
C29 C 0.2816(4) 0.0837(3) 0.1409(12)
C30 C 0.25000 0.0795(6) 0.5334(13)
C31 C 0.3653(4) 0.0825(4) 0.3342(12)
C32 C 0.3207(5) 0.0887(4) 0.0144(13)
H31 H 0.25000 -0.11710 -0.07970
H32 H 0.28470 -0.05410 -0.08020
H33 H 0.37880 -0.12010 0.12720
H34 H 0.39130 -0.05690 0.20270
H35 H 0.36810 -0.05760 0.04730
H36 H 0.32840 -0.12550 0.48910
H37 H 0.30330 -0.06190 0.54290
H38 H 0.35900 -0.06320 0.44440
H39 H 0.25000 0.12060 0.56430
H40 H 0.28470 0.05770 0.56330
H41 H 0.37660 0.12460 0.34860
H42 H 0.38910 0.06430 0.26150
H43 H 0.36860 0.05920 0.41860
H44 H 0.32830 0.13160 -0.00260
H45 H 0.30030 0.07070 -0.06350
H46 H 0.35640 0.06700 0.03320
Fe3 Fe 0.25000 0.4599(1) 0.0006(2)
C33 C 0.25000 0.4092(5) 0.1910(11)
C34 C 0.3010(3) 0.3926(4) 0.1086(8)
C35 C 0.2813(3) 0.3673(4) -0.0231(8)
C36 C 0.25000 0.4328(6) 0.3382(14)
C37 C 0.3651(3) 0.3988(3) 0.1530(12)
C38 C 0.3222(4) 0.3421(4) -0.1358(9)
C39 C 0.25000 0.5122(6) -0.1848(13)
C40 C 0.3011(4) 0.5268(4) -0.1074(9)
C41 C 0.2823(4) 0.5524(4) 0.0259(10)
C42 C 0.25000 0.4866(6) -0.3390(17)
C43 C 0.3650(4) 0.5201(5) -0.1574(12)
C44 C 0.3224(5) 0.5769(4) 0.1399(12)
H47 H 0.25000 0.39700 0.39930
H48 H 0.21530 0.45650 0.35260
H49 H 0.37790 0.36160 0.19930
H50 H 0.36860 0.43320 0.21820
H51 H 0.38950 0.40660 0.07300
H52 H 0.32890 0.29880 -0.11990
H53 H 0.35880 0.36420 -0.13190
H54 H 0.30370 0.34810 -0.22500
H55 H 0.25000 0.52150 -0.39700
H56 H 0.21530 0.46260 -0.34670
H57 H 0.37770 0.55770 -0.20300
H58 H 0.36800 0.48610 -0.22070
H59 H 0.39070 0.51280 -0.07730
H60 H 0.33170 0.61950 0.11990
H61 H 0.35790 0.55270 0.14020
H62 H 0.30280 0.57380 0.22830
N1 N 0.25000 0.2771(6) 0.5614(14)
N2 N 0.3503(3) 0.2354(3) 0.1735(11)
C45 C 0.25000 0.2480(6) 0.3025(13)
C46 C 0.25000 0.2631(7) 0.4435(15)
C47 C 0.3040(4) 0.2414(4) 0.2293(10)
N3 N 0.50000 0.50000 0.0510(12)
N4 N 0.4001(3) 0.5031(4) 0.4613(7)
C48 C 0.50000 0.50000 0.3261(14)
C49 C 0.50000 0.50000 0.1751(15)
C50 C 0.4443(4) 0.5015(4) 0.4004(9)
N5 N 0.75000 0.2256(6) 0.5106(17)
N6 N 0.6498(4) 0.2426(4) 0.1103(9)
C51 C 0.75000 0.2426(6) 0.2403(13)
C52 C 0.75000 0.2344(8) 0.3856(18)
C53 C 0.6956(4) 0.2424(4) 0.1684(12)
N7 N 0.50000 0.00000 1.1457(19)
N8 N 0.4034(4) 0.0216(4) 0.7389(10)
C54 C 0.50000 0.00000 0.8747(14)
C55 C 0.50000 0.00000 1.024(2)
C56 C 0.4469(4) 0.0123(4) 0.8004(10)
C22A C 0.1990(4) -0.0767(4) 0.1913(12)
C23A C 0.2186(4) -0.0793(4) 0.3351(12)
C28A C 0.1982(4) 0.0810(4) 0.2868(10)
C29A C 0.2184(4) 0.0837(3) 0.1409(12)
H32A H 0.21530 -0.05410 -0.08020
H40A H 0.21530 0.05770 0.56330
C25A C 0.1344(4) -0.0780(4) 0.1406(15)
C26A C 0.1789(5) -0.0831(5) 0.4646(13)
C31A C 0.1347(4) 0.0825(4) 0.3342(12)
C32A C 0.1793(5) 0.0887(4) 0.0144(13)
H33A H 0.12120 -0.12010 0.12720
H34A H 0.10870 -0.05690 0.20270
H35A H 0.13190 -0.05760 0.04730
H36A H 0.17160 -0.12550 0.48910
H37A H 0.19670 -0.06190 0.54290
H38A H 0.14100 -0.06320 0.44440
H41A H 0.12340 0.12460 0.34860
H42A H 0.11090 0.06430 0.26150
H43A H 0.13140 0.05920 0.41860
H44A H 0.17170 0.13160 -0.00260
H45A H 0.19970 0.07070 -0.06350
H46A H 0.14360 0.06700 0.03320
C34A C 0.1990(3) 0.3926(4) 0.1086(8)
C35A C 0.2187(3) 0.3673(4) -0.0231(8)
C40A C 0.1989(4) 0.5268(4) -0.1074(9)
C41A C 0.2177(4) 0.5524(4) 0.0259(10)
H48A H 0.28470 0.45650 0.35260
H56A H 0.28470 0.46260 -0.34670
C37A C 0.1349(3) 0.3988(3) 0.1530(12)
C38A C 0.1778(4) 0.3421(4) -0.1358(9)
C43A C 0.1350(4) 0.5201(5) -0.1574(12)
C44A C 0.1776(5) 0.5769(4) 0.1399(12)
H49A H 0.12210 0.36160 0.19930
H50A H 0.13140 0.43320 0.21820
H51A H 0.11050 0.40660 0.07300
H52A H 0.17110 0.29880 -0.11990
H53A H 0.14120 0.36420 -0.13190
H54A H 0.19630 0.34810 -0.22500
H57A H 0.12230 0.55770 -0.20300
H58A H 0.13200 0.48610 -0.22070
H59A H 0.10930 0.51280 -0.07730
H60A H 0.16830 0.61950 0.11990
H61A H 0.14210 0.55270 0.14020
H62A H 0.19720 0.57380 0.22830
C47A C 0.1960(4) 0.2414(4) 0.2293(10)
N2A N 0.1497(3) 0.2354(3) 0.1735(11)
C50C C 0.5557(4) 0.4985(4) 0.4004(9)
N4C N 0.5999(3) 0.4969(4) 0.4613(7)
C53A C 0.8044(4) 0.2424(4) 0.1684(12)
N6A N 0.8502(4) 0.2426(4) 0.1103(9)
C56C C 0.5531(4) -0.0123(4) 0.8004(10)
N8C N 0.5966(4) -0.0216(4) 0.7389(10)
#END
