####################################################################### 
# 
# This file contains crystal structure data downloaded from the 
# Cambridge Structural Database (CSD) hosted by the Cambridge 
# Crystallographic Data Centre (CCDC).
# 
# Full information about CCDC data access policies and citation 
# guidelines are available at http://www.ccdc.cam.ac.uk/access/V1 
# 
# Audit and citation data items may have been added by the CCDC. 
# Please retain this information to preserve the provenance of 
# this file and to allow appropriate attribution of the data. 
# 
#######################################################################

data_compound2
_audit_block_doi                 10.5517/cc12v4dg
_database_code_depnum_ccdc_archive 'CCDC 1008225'
loop_
_citation_id
_citation_doi
_citation_year
1 10.1002/ejic.201402552 2014
_audit_update_record             
;
2014-06-13 deposited with the CCDC.	2024-07-09 downloaded from the CCDC.
;

_audit_creation_method           SHELXL-97
_chemical_name_systematic        
; 
 ? 
;
_chemical_name_common            ?
_chemical_melting_point          ?
_chemical_formula_moiety         'C36 H36 Co4 N16 O18 S6'
_chemical_formula_sum            'C36 H36 Co4 N16 O18 S6'
_chemical_formula_weight         1408.89

loop_
_atom_type_symbol
_atom_type_description
_atom_type_scat_dispersion_real
_atom_type_scat_dispersion_imag
_atom_type_scat_source
C C 0.0033 0.0016 'International Tables Vol C Tables 4.2.6.8 and 6.1.1.4'
H H 0.0000 0.0000 'International Tables Vol C Tables 4.2.6.8 and 6.1.1.4'
N N 0.0061 0.0033 'International Tables Vol C Tables 4.2.6.8 and 6.1.1.4'
O O 0.0106 0.0060 'International Tables Vol C Tables 4.2.6.8 and 6.1.1.4'
S S 0.1246 0.1234 'International Tables Vol C Tables 4.2.6.8 and 6.1.1.4'
Co Co 0.3494 0.9721 'International Tables Vol C Tables 4.2.6.8 and 6.1.1.4'

_symmetry_cell_setting           orthorhombic
_symmetry_space_group_name_H-M   'P 21 21 21'
_symmetry_space_group_name_Hall  'P 2ac 2ab'

loop_
_symmetry_equiv_pos_as_xyz
'x, y, z'
'-x+1/2, -y, z+1/2'
'-x, y+1/2, -z+1/2'
'x+1/2, -y+1/2, -z'

_cell_length_a                   16.842(3)
_cell_length_b                   16.835(3)
_cell_length_c                   20.258(4)
_cell_angle_alpha                90.00
_cell_angle_beta                 90.00
_cell_angle_gamma                90.00
_cell_volume                     5743.9(18)
_cell_formula_units_Z            4
_cell_measurement_temperature    223(2)
_cell_measurement_reflns_used    1234
_cell_measurement_theta_min      2.01
_cell_measurement_theta_max      29.22

_exptl_crystal_description       block
_exptl_crystal_colour            purple
_exptl_crystal_size_max          0.19
_exptl_crystal_size_mid          0.15
_exptl_crystal_size_min          0.15
_exptl_crystal_density_meas      ?
_exptl_crystal_density_diffrn    1.629
_exptl_crystal_density_method    'not measured'
_exptl_crystal_F_000             2848
_exptl_absorpt_coefficient_mu    1.432
_exptl_absorpt_correction_type   multi-scan
_exptl_absorpt_correction_T_min  0.727
_exptl_absorpt_correction_T_max  0.824
_exptl_absorpt_process_details   
;
STOE (2001)
;

_exptl_special_details           
; 
 ? 
;

_diffrn_ambient_temperature      223(2)
_diffrn_radiation_wavelength     0.71073
_diffrn_radiation_type           MoK\a
_diffrn_radiation_source         'fine-focus sealed tube'
_diffrn_radiation_monochromator  graphite
_diffrn_measurement_device_type  'STOE IPDS'
_diffrn_measurement_method       \w
_diffrn_detector_area_resol_mean ?
_diffrn_standards_number         0
_diffrn_standards_interval_count .
_diffrn_standards_interval_time  .
_diffrn_standards_decay_%        ?
_diffrn_reflns_number            44799
_diffrn_reflns_av_R_equivalents  0.1064
_diffrn_reflns_av_sigmaI/netI    0.0850
_diffrn_reflns_limit_h_min       -20
_diffrn_reflns_limit_h_max       20
_diffrn_reflns_limit_k_min       -20
_diffrn_reflns_limit_k_max       20
_diffrn_reflns_limit_l_min       -24
_diffrn_reflns_limit_l_max       24
_diffrn_reflns_theta_min         1.98
_diffrn_reflns_theta_max         25.88
_reflns_number_total             11030
_reflns_number_gt                8666
_reflns_threshold_expression     >2sigma(I)

_computing_data_collection       STOE
_computing_cell_refinement       STOE
_computing_data_reduction        STOE
_computing_structure_solution    'SHELXS-97 (Sheldrick, 2008)'
_computing_structure_refinement  'SHELXL-97 (Sheldrick, 2008)'
_computing_molecular_graphics    ?
_computing_publication_material  ?

_refine_special_details          
; 
 Refinement of F^2^ against ALL reflections.  The weighted R-factor wR and 
 goodness of fit S are based on F^2^, conventional R-factors R are based 
 on F, with F set to zero for negative F^2^. The threshold expression of 
 F^2^ > 2sigma(F^2^) is used only for calculating R-factors(gt) etc. and is 
 not relevant to the choice of reflections for refinement.  R-factors based 
 on F^2^ are statistically about twice as large as those based on F, and R- 
 factors based on ALL data will be even larger. 
;

_refine_ls_structure_factor_coef Fsqd
_refine_ls_matrix_type           full
_refine_ls_weighting_scheme      calc
_refine_ls_weighting_details     
'calc w=1/[\s^2^(Fo^2^)+(0.1215P)^2^+0.0000P] where P=(Fo^2^+2Fc^2^)/3'
_atom_sites_solution_primary     direct
_atom_sites_solution_secondary   difmap
_atom_sites_solution_hydrogens   geom
_refine_ls_hydrogen_treatment    constr
_refine_ls_extinction_method     none
_refine_ls_extinction_coef       ?
_refine_ls_abs_structure_details 'Flack H D (1983), Acta Cryst. A39, 876-881'
_refine_ls_abs_structure_Flack   0.28(3)
_refine_ls_number_reflns         11030
_refine_ls_number_parameters     722
_refine_ls_number_restraints     438
_refine_ls_R_factor_all          0.0881
_refine_ls_R_factor_gt           0.0640
_refine_ls_wR_factor_ref         0.1804
_refine_ls_wR_factor_gt          0.1613
_refine_ls_goodness_of_fit_ref   1.019
_refine_ls_restrained_S_all      1.012
_refine_ls_shift/su_max          0.000
_refine_ls_shift/su_mean         0.000

loop_
_atom_site_label
_atom_site_type_symbol
_atom_site_fract_x
_atom_site_fract_y
_atom_site_fract_z
_atom_site_U_iso_or_equiv
_atom_site_adp_type
_atom_site_occupancy
_atom_site_symmetry_multiplicity
_atom_site_calc_flag
_atom_site_refinement_flags
_atom_site_disorder_assembly
_atom_site_disorder_group
Co1 Co 1.14628(8) 0.69805(9) -0.49930(8) 0.0235(3) Uani 1 1 d . . .
Co2 Co 1.05003(9) 0.61359(9) -0.24015(7) 0.0226(4) Uani 1 1 d . . .
Co3 Co 1.13006(9) 0.74491(9) 0.00155(8) 0.0245(3) Uani 1 1 d . . .
Co4 Co 1.03779(10) 0.63205(10) 0.24236(7) 0.0250(4) Uani 1 1 d . . .
N1 N 1.0826(6) 0.8038(6) -0.4833(4) 0.024(2) Uani 1 1 d U . .
N2 N 1.0150(7) 0.9161(7) -0.5100(5) 0.042(2) Uani 1 1 d U . .
H2 H 0.9919 0.9515 -0.5346 0.051 Uiso 1 1 calc R . .
N3 N 1.0045(6) 0.4994(7) -0.2259(5) 0.031(2) Uani 1 1 d U . .
N4 N 1.0526(7) 0.8811(7) -0.2455(5) 0.038(2) Uani 1 1 d U . .
H4 H 1.0708 0.8432 -0.2206 0.046 Uiso 1 1 calc R . .
N5 N 0.9515(6) 0.6818(6) -0.2189(4) 0.0260(19) Uani 1 1 d U . .
N6 N 0.8405(6) 0.7476(7) -0.2448(5) 0.033(2) Uani 1 1 d U . .
H6 H 0.8048 0.7714 -0.2687 0.039 Uiso 1 1 calc R . .
N7 N 0.7402(6) 0.7217(6) -0.0130(5) 0.033(2) Uani 1 1 d U . .
N8 N 0.8560(6) 0.6673(7) 0.0149(4) 0.033(2) Uani 1 1 d U . .
H8 H 0.8923 0.6459 0.0397 0.039 Uiso 1 1 calc R . .
N9 N 0.9469(6) 0.7066(6) 0.2572(4) 0.0265(19) Uani 1 1 d U . .
N10 N 0.8321(6) 0.7614(7) 0.2348(5) 0.034(2) Uani 1 1 d U . .
H10 H 0.7932 0.7811 0.2118 0.041 Uiso 1 1 calc R . .
N11 N 1.2625(6) 0.7305(7) -0.4756(4) 0.029(2) Uani 1 1 d U . .
N12 N 1.3809(6) 0.7837(6) -0.4979(5) 0.032(2) Uani 1 1 d U . .
H12 H 1.4200 0.8036 -0.5206 0.039 Uiso 1 1 calc R . .
N13 N 0.9985(6) 0.5201(7) 0.2539(5) 0.034(2) Uani 1 1 d U . .
N14 N 0.9311(7) 0.4096(7) 0.2347(5) 0.038(2) Uani 1 1 d U . .
H14 H 0.9058 0.3729 0.2130 0.045 Uiso 1 1 calc R . .
N15 N 1.0577(7) 0.8306(6) 0.0265(5) 0.030(2) Uani 1 1 d U . .
N16 N 1.0113(7) 0.4412(7) 0.4914(5) 0.039(2) Uani 1 1 d U . .
H16 H 1.0377 0.4770 0.5132 0.047 Uiso 1 1 calc R . .
C1 C 1.0512(8) 0.8467(8) -0.5308(5) 0.034(2) Uani 1 1 d U . .
H1 H 1.0532 0.8315 -0.5754 0.041 Uiso 1 1 calc R . .
C2 C 0.9787(8) 0.4522(8) -0.2755(6) 0.037(3) Uani 1 1 d U . .
H2A H 0.9818 0.4667 -0.3202 0.044 Uiso 1 1 calc R . .
C3 C 0.9089(7) 0.7208(8) -0.2661(6) 0.032(2) Uani 1 1 d U . .
H3 H 0.9269 0.7277 -0.3096 0.038 Uiso 1 1 calc R . .
C4 C 0.7847(8) 0.6907(8) 0.0337(5) 0.033(2) Uani 1 1 d U . .
H4A H 0.7670 0.6856 0.0775 0.040 Uiso 1 1 calc R . .
C5 C 0.8981(8) 0.7323(8) 0.2107(6) 0.035(2) Uani 1 1 d U . .
H5 H 0.9096 0.7299 0.1654 0.042 Uiso 1 1 calc R . .
C6 C 1.3118(7) 0.7557(9) -0.5228(5) 0.032(2) Uani 1 1 d U . .
H6A H 1.2999 0.7541 -0.5681 0.039 Uiso 1 1 calc R . .
C7 C 0.9574(9) 0.4769(8) 0.2090(6) 0.038(2) Uani 1 1 d U . .
H7 H 0.9486 0.4928 0.1651 0.045 Uiso 1 1 calc R . .
C8 C 0.9766(7) 0.3739(8) 0.5189(6) 0.034(3) Uani 1 1 d U . .
H8A H 0.9777 0.3613 0.5641 0.041 Uiso 1 1 calc R . .
C9 C 1.0232(8) 0.9178(8) -0.4419(5) 0.031(2) Uani 1 1 d U . .
C10 C 1.0621(8) 0.8449(7) -0.4246(5) 0.030(2) Uani 1 1 d U . .
C11 C 1.0759(8) 0.8262(8) -0.3589(5) 0.034(2) Uani 1 1 d U . .
H11 H 1.1014 0.7791 -0.3460 0.040 Uiso 1 1 calc R . .
C12 C 1.0495(7) 0.8817(7) -0.3141(5) 0.031(2) Uani 1 1 d U . .
C13 C 1.0133(7) 0.9544(7) -0.3316(5) 0.028(2) Uani 1 1 d U . .
C14 C 0.9953(7) 0.9731(8) -0.3969(5) 0.029(2) Uani 1 1 d U . .
H14A H 0.9669 1.0189 -0.4093 0.035 Uiso 1 1 calc R . .
C15 C 0.8348(7) 0.7320(8) -0.1791(6) 0.030(2) Uani 1 1 d U . .
C16 C 0.9068(7) 0.6922(7) -0.1627(5) 0.026(2) Uani 1 1 d U . .
C17 C 0.9223(7) 0.6718(7) -0.0976(6) 0.029(2) Uani 1 1 d U . .
H17 H 0.9717 0.6509 -0.0846 0.035 Uiso 1 1 calc R . .
C18 C 0.8618(7) 0.6837(7) -0.0529(5) 0.026(2) Uani 1 1 d U . .
C19 C 0.7879(7) 0.7202(8) -0.0703(6) 0.030(2) Uani 1 1 d U . .
C20 C 0.7734(7) 0.7469(8) -0.1338(5) 0.031(2) Uani 1 1 d U . .
H20 H 0.7262 0.7729 -0.1457 0.037 Uiso 1 1 calc R . .
C21 C 0.8345(7) 0.7556(8) 0.3036(5) 0.031(2) Uani 1 1 d U . .
C22 C 0.9084(7) 0.7190(7) 0.3172(5) 0.027(2) Uani 1 1 d U . .
C23 C 0.9324(8) 0.7053(7) 0.3820(5) 0.030(2) Uani 1 1 d U . .
H23 H 0.9825 0.6840 0.3924 0.036 Uiso 1 1 calc R . .
C24 C 0.8781(8) 0.7250(8) 0.4297(6) 0.031(3) Uani 1 1 d U . .
C25 C 1.3025(7) 0.7392(7) -0.4159(5) 0.026(2) Uani 1 1 d U . .
C26 C 0.7801(7) 0.7772(8) 0.3525(6) 0.033(3) Uani 1 1 d U . .
H26 H 0.7313 0.8014 0.3424 0.039 Uiso 1 1 calc R . .
C27 C 0.9922(8) 0.4774(7) 0.3141(5) 0.028(2) Uani 1 1 d U . .
C28 C 0.9495(8) 0.4060(7) 0.3005(5) 0.029(2) Uani 1 1 d U . .
C29 C 0.9293(8) 0.3493(8) 0.3479(6) 0.034(2) Uani 1 1 d U . .
H29 H 0.8999 0.3031 0.3387 0.041 Uiso 1 1 calc R . .
C30 C 0.9577(7) 0.3691(8) 0.4110(5) 0.031(2) Uani 1 1 d U . .
C31 C 0.9972(8) 0.4425(8) 0.4239(6) 0.033(2) Uani 1 1 d U . .
C32 C 1.0181(7) 0.4959(8) 0.3763(5) 0.030(2) Uani 1 1 d U . .
H32 H 1.0480 0.5417 0.3855 0.036 Uiso 1 1 calc R . .
C33 C 1.2112(9) 0.4343(8) -0.4934(8) 0.050(4) Uani 1 1 d . . .
H33A H 1.2044 0.4152 -0.4486 0.075 Uiso 1 1 calc R . .
H33B H 1.2540 0.4054 -0.5145 0.075 Uiso 1 1 calc R . .
H33C H 1.1624 0.4263 -0.5179 0.075 Uiso 1 1 calc R . .
C34 C 1.3166(9) 0.5315(10) -0.5446(8) 0.052(4) Uani 1 1 d . . .
H34A H 1.3644 0.5444 -0.5201 0.078 Uiso 1 1 calc R . .
H34B H 1.3099 0.5693 -0.5803 0.078 Uiso 1 1 calc R . .
H34C H 1.3211 0.4784 -0.5626 0.078 Uiso 1 1 calc R . .
C35 C 1.2215(11) 0.4461(11) -0.3130(9) 0.067(5) Uani 1 1 d U . .
H35A H 1.1728 0.4300 -0.3348 0.100 Uiso 1 1 calc R . .
H35B H 1.2514 0.3994 -0.3001 0.100 Uiso 1 1 calc R . .
H35C H 1.2530 0.4781 -0.3430 0.100 Uiso 1 1 calc R . .
C36 C 1.2903(9) 0.5292(9) -0.2175(7) 0.047(3) Uani 1 1 d U . .
H36A H 1.2867 0.5705 -0.1843 0.070 Uiso 1 1 calc R . .
H36B H 1.3199 0.5489 -0.2552 0.070 Uiso 1 1 calc R . .
H36C H 1.3173 0.4834 -0.1991 0.070 Uiso 1 1 calc R . .
S1 S 1.05316(17) 0.60506(17) -0.40102(12) 0.0225(5) Uani 1 1 d U . .
S2 S 1.14197(17) 0.70217(18) -0.14691(11) 0.0227(6) Uani 1 1 d U . .
S3 S 1.16410(17) 0.70492(18) 0.33603(12) 0.0222(6) Uani 1 1 d U . .
S4 S 1.06397(19) 0.60658(19) 0.09428(14) 0.0305(6) Uani 1 1 d U . .
S5 S 1.23440(19) 0.5362(2) -0.49179(15) 0.0342(7) Uani 1 1 d U . .
S6 S 1.1981(2) 0.5028(2) -0.24178(14) 0.0333(7) Uani 1 1 d U . .
O1 O 1.1263(5) 0.6535(5) -0.4072(4) 0.0294(17) Uani 1 1 d U . .
O2 O 1.0160(5) 0.6233(6) -0.3374(4) 0.0339(19) Uani 1 1 d U . .
O3 O 1.0011(5) 0.6262(5) -0.4561(4) 0.0327(19) Uani 1 1 d U . .
O4 O 1.0718(5) 0.5180(5) -0.4027(4) 0.0252(16) Uani 1 1 d U . .
O5 O 1.0989(5) 0.6237(5) -0.1436(4) 0.0278(18) Uani 1 1 d U . .
O6 O 1.1114(5) 0.7567(5) -0.0946(3) 0.0321(19) Uani 1 1 d U . .
O7 O 1.1265(5) 0.7385(5) -0.2112(4) 0.0351(19) Uani 1 1 d U . .
O8 O 1.2259(5) 0.6894(6) -0.1368(4) 0.0308(19) Uani 1 1 d U . .
O9 O 1.1130(6) 0.6424(6) 0.0401(4) 0.045(2) Uani 1 1 d U . .
O10 O 1.0944(5) 0.6395(5) 0.1581(4) 0.0318(18) Uani 1 1 d U . .
O11 O 1.0752(7) 0.5198(5) 0.0935(4) 0.046(2) Uani 1 1 d U . .
O12 O 0.9799(6) 0.6291(8) 0.0916(5) 0.062(3) Uani 1 1 d U . .
O13 O 1.1125(5) 0.6365(5) 0.3139(4) 0.0324(18) Uani 1 1 d U . .
O14 O 1.1392(6) 0.7292(5) 0.4033(3) 0.037(2) Uani 1 1 d U . .
O15 O 1.2471(5) 0.6805(6) 0.3364(4) 0.0333(19) Uani 1 1 d U . .
O16 O 1.1526(6) 0.7717(5) 0.2901(4) 0.0344(19) Uani 1 1 d U . .
O17 O 1.1682(5) 0.5821(5) -0.5308(4) 0.0305(18) Uani 1 1 d U . .
O18 O 1.1617(5) 0.5783(5) -0.2693(4) 0.0291(18) Uani 1 1 d U . .

loop_
_atom_site_aniso_label
_atom_site_aniso_U_11
_atom_site_aniso_U_22
_atom_site_aniso_U_33
_atom_site_aniso_U_23
_atom_site_aniso_U_13
_atom_site_aniso_U_12
Co1 0.0241(7) 0.0336(8) 0.0126(6) -0.0022(7) 0.0002(7) 0.0009(7)
Co2 0.0242(9) 0.0313(9) 0.0123(6) 0.0009(6) 0.0021(6) -0.0004(7)
Co3 0.0289(7) 0.0315(8) 0.0131(5) -0.0033(7) -0.0005(7) 0.0009(7)
Co4 0.0258(8) 0.0357(9) 0.0134(6) -0.0004(6) 0.0013(6) -0.0022(7)
N1 0.031(4) 0.029(5) 0.013(4) -0.010(3) 0.001(3) 0.003(4)
N2 0.060(6) 0.048(5) 0.019(4) 0.001(4) -0.002(4) 0.013(5)
N3 0.032(5) 0.036(5) 0.026(5) 0.007(4) -0.001(4) -0.001(5)
N4 0.055(6) 0.034(5) 0.025(5) 0.003(4) 0.004(5) 0.014(5)
N5 0.026(4) 0.030(4) 0.022(4) -0.002(3) -0.001(3) 0.007(4)
N6 0.035(5) 0.045(5) 0.018(4) 0.008(4) 0.004(4) 0.012(4)
N7 0.037(5) 0.040(5) 0.023(4) -0.003(4) -0.003(4) 0.000(4)
N8 0.034(4) 0.046(5) 0.019(4) -0.002(4) -0.001(3) 0.016(4)
N9 0.027(4) 0.036(5) 0.017(4) -0.001(4) 0.002(3) 0.017(4)
N10 0.034(5) 0.050(5) 0.018(4) 0.001(4) 0.003(4) 0.012(4)
N11 0.030(4) 0.045(5) 0.012(4) -0.005(4) 0.001(3) -0.006(4)
N12 0.029(4) 0.053(5) 0.015(3) -0.009(4) 0.006(4) -0.013(4)
N13 0.039(5) 0.039(5) 0.024(4) 0.001(4) 0.008(4) 0.000(4)
N14 0.046(5) 0.043(5) 0.024(4) -0.013(4) 0.001(4) -0.016(4)
N15 0.035(5) 0.028(5) 0.026(4) -0.008(4) 0.002(4) 0.008(4)
N16 0.046(5) 0.048(5) 0.024(4) -0.013(4) -0.005(4) -0.022(4)
C1 0.049(6) 0.039(5) 0.014(4) 0.000(4) 0.006(4) 0.010(5)
C2 0.044(6) 0.037(6) 0.030(5) 0.003(4) -0.004(4) -0.011(5)
C3 0.033(5) 0.045(6) 0.018(4) 0.000(4) 0.004(4) 0.015(5)
C4 0.040(5) 0.044(6) 0.015(4) -0.006(4) 0.010(4) 0.002(5)
C5 0.032(5) 0.053(6) 0.018(4) -0.002(4) 0.004(4) 0.014(5)
C6 0.036(5) 0.049(6) 0.013(4) -0.009(4) -0.003(4) -0.008(5)
C7 0.047(6) 0.047(6) 0.020(4) 0.000(4) 0.009(4) -0.008(5)
C8 0.036(6) 0.044(6) 0.024(5) 0.008(5) -0.005(4) -0.025(5)
C9 0.043(5) 0.032(5) 0.018(4) 0.000(4) -0.003(4) -0.003(4)
C10 0.040(5) 0.032(5) 0.017(4) 0.000(4) -0.004(4) -0.001(4)
C11 0.045(6) 0.036(5) 0.019(4) -0.001(4) 0.009(4) 0.002(5)
C12 0.034(5) 0.039(5) 0.020(4) 0.001(4) 0.005(4) 0.003(4)
C13 0.033(5) 0.036(5) 0.014(4) -0.002(4) 0.009(4) -0.003(4)
C14 0.038(5) 0.029(5) 0.019(4) -0.003(4) 0.002(4) 0.002(5)
C15 0.029(4) 0.042(5) 0.020(4) 0.004(4) 0.006(4) 0.013(4)
C16 0.024(4) 0.033(5) 0.022(4) 0.006(4) 0.001(4) 0.004(4)
C17 0.028(5) 0.037(5) 0.022(4) 0.008(4) -0.002(4) 0.004(4)
C18 0.025(4) 0.032(5) 0.022(4) 0.002(4) -0.001(4) 0.008(4)
C19 0.031(5) 0.033(5) 0.026(4) -0.003(4) 0.000(4) -0.003(4)
C20 0.031(5) 0.041(6) 0.021(4) 0.007(4) 0.002(4) 0.006(5)
C21 0.030(4) 0.041(5) 0.023(4) 0.001(4) -0.003(4) 0.009(4)
C22 0.028(4) 0.036(5) 0.017(4) -0.006(4) 0.007(4) 0.012(4)
C23 0.031(5) 0.038(5) 0.022(4) 0.002(4) -0.005(4) 0.006(5)
C24 0.032(6) 0.040(6) 0.020(5) 0.002(4) -0.012(4) -0.004(5)
C25 0.028(5) 0.033(6) 0.017(5) -0.001(4) -0.006(4) -0.007(5)
C26 0.026(5) 0.043(7) 0.029(5) 0.000(5) -0.005(5) 0.011(5)
C27 0.041(5) 0.028(4) 0.017(4) 0.002(4) 0.007(4) -0.008(4)
C28 0.036(5) 0.036(5) 0.016(4) -0.006(4) 0.001(4) -0.010(4)
C29 0.043(6) 0.038(5) 0.021(4) -0.002(4) 0.002(4) -0.007(5)
C30 0.036(5) 0.039(5) 0.017(4) -0.006(4) 0.006(4) -0.014(5)
C31 0.038(5) 0.039(5) 0.021(4) -0.006(4) -0.002(4) -0.012(4)
C32 0.029(5) 0.037(5) 0.025(5) -0.002(4) -0.006(4) -0.010(5)
C33 0.057(9) 0.037(8) 0.057(9) -0.011(8) -0.002(8) 0.016(7)
C34 0.036(8) 0.059(10) 0.061(9) 0.005(8) 0.013(7) 0.025(7)
C35 0.067(8) 0.072(8) 0.062(7) -0.026(7) -0.007(7) 0.014(7)
C36 0.041(6) 0.043(6) 0.057(6) -0.001(5) -0.014(5) 0.013(5)
S1 0.0274(14) 0.0312(15) 0.0089(10) 0.0003(10) 0.0011(10) -0.0018(12)
S2 0.0284(14) 0.0318(15) 0.0078(10) -0.0010(10) 0.0001(10) 0.0005(13)
S3 0.0268(14) 0.0296(15) 0.0102(10) -0.0012(10) 0.0000(9) 0.0004(12)
S4 0.0337(16) 0.0414(17) 0.0163(11) 0.0018(12) 0.0036(12) -0.0010(14)
S5 0.0345(16) 0.0461(19) 0.0221(15) 0.0006(13) 0.0002(13) 0.0124(14)
S6 0.0360(16) 0.0383(18) 0.0257(14) 0.0022(13) -0.0005(13) 0.0084(14)
O1 0.032(4) 0.042(4) 0.014(3) 0.000(3) -0.001(3) -0.006(4)
O2 0.031(4) 0.051(5) 0.020(3) 0.002(3) 0.002(3) 0.002(4)
O3 0.036(4) 0.041(5) 0.021(4) -0.004(3) -0.006(3) 0.006(4)
O4 0.032(4) 0.024(4) 0.019(3) 0.000(3) 0.000(3) -0.002(3)
O5 0.037(4) 0.027(4) 0.020(4) 0.002(3) 0.007(3) 0.004(4)
O6 0.046(5) 0.042(5) 0.008(3) -0.009(3) -0.005(3) 0.013(4)
O7 0.043(5) 0.045(5) 0.017(3) 0.010(3) 0.001(3) 0.013(4)
O8 0.019(4) 0.048(5) 0.025(4) 0.000(3) 0.003(3) -0.003(4)
O9 0.063(6) 0.038(5) 0.033(4) 0.008(4) 0.016(4) 0.004(5)
O10 0.036(4) 0.037(4) 0.022(3) -0.004(3) 0.015(3) -0.002(4)
O11 0.074(6) 0.033(5) 0.032(4) -0.006(4) 0.007(4) -0.006(5)
O12 0.037(5) 0.099(7) 0.050(5) -0.002(5) -0.006(4) 0.014(5)
O13 0.041(4) 0.033(4) 0.024(3) 0.001(3) -0.012(3) 0.000(4)
O14 0.054(5) 0.045(5) 0.012(3) -0.005(3) 0.000(3) 0.018(4)
O15 0.034(4) 0.042(5) 0.024(4) 0.004(3) 0.005(3) 0.003(4)
O16 0.043(5) 0.032(4) 0.029(4) 0.014(3) 0.000(4) 0.004(4)
O17 0.028(4) 0.043(5) 0.021(3) -0.007(3) 0.000(3) 0.013(4)
O18 0.029(4) 0.036(4) 0.021(3) 0.003(3) -0.002(3) 0.010(4)

_geom_special_details            
; 
 All esd