####################################################################### 
# 
# This file contains crystal structure data downloaded from the 
# Cambridge Structural Database (CSD) hosted by the Cambridge 
# Crystallographic Data Centre (CCDC).
# 
# Full information about CCDC data access policies and citation 
# guidelines are available at http://www.ccdc.cam.ac.uk/access/V1 
# 
# Audit and citation data items may have been added by the CCDC. 
# Please retain this information to preserve the provenance of 
# this file and to allow appropriate attribution of the data. 
# 
#######################################################################

data_CuClO4
_audit_block_doi                 10.5517/cc140nyr
_database_code_depnum_ccdc_archive 'CCDC 1043334'
loop_
_citation_id
_citation_doi
_citation_year
1 10.1039/C5CE00087D 2015
_audit_update_record             
;
2015-01-13 deposited with the CCDC.	2024-07-09 downloaded from the CCDC.
;

_audit_creation_method           SHELXL-97
_chemical_name_systematic        
; 
 ? 
;
_chemical_name_common            ?
_chemical_melting_point          ?
_chemical_formula_moiety         ?
_chemical_formula_sum            'C120 H102 Cl6 Cu3 N18 O48'
_chemical_formula_weight         2967.52

loop_
_atom_type_symbol
_atom_type_description
_atom_type_scat_dispersion_real
_atom_type_scat_dispersion_imag
_atom_type_scat_source
C C 0.0033 0.0016 'International Tables Vol C Tables 4.2.6.8 and 6.1.1.4'
H H 0.0000 0.0000 'International Tables Vol C Tables 4.2.6.8 and 6.1.1.4'
N N 0.0061 0.0033 'International Tables Vol C Tables 4.2.6.8 and 6.1.1.4'
O O 0.0106 0.0060 'International Tables Vol C Tables 4.2.6.8 and 6.1.1.4'
Cl Cl 0.1484 0.1585 'International Tables Vol C Tables 4.2.6.8 and 6.1.1.4'
Cu Cu 0.3201 1.2651 'International Tables Vol C Tables 4.2.6.8 and 6.1.1.4'

_symmetry_cell_setting           Monoclinic
_symmetry_space_group_name_H-M   C2/c

loop_
_symmetry_equiv_pos_as_xyz
'x, y, z'
'-x, y, -z+1/2'
'x+1/2, y+1/2, z'
'-x+1/2, y+1/2, -z+1/2'
'-x, -y, -z'
'x, -y, z-1/2'
'-x+1/2, -y+1/2, -z'
'x+1/2, -y+1/2, z-1/2'

_cell_length_a                   41.1895(11)
_cell_length_b                   20.6334(4)
_cell_length_c                   27.0979(8)
_cell_angle_alpha                90.00
_cell_angle_beta                 129.772(3)
_cell_angle_gamma                90.00
_cell_volume                     17700.8(8)
_cell_formula_units_Z            4
_cell_measurement_temperature    173(2)
_cell_measurement_reflns_used    8167
_cell_measurement_theta_min      2.36
_cell_measurement_theta_max      17.58

_exptl_crystal_description       block
_exptl_crystal_colour            blue
_exptl_crystal_size_max          0.24
_exptl_crystal_size_mid          0.13
_exptl_crystal_size_min          0.12
_exptl_crystal_density_meas      ?
_exptl_crystal_density_diffrn    1.114
_exptl_crystal_density_method    'not measured'
_exptl_crystal_F_000             6084
_exptl_absorpt_coefficient_mu    0.519
_exptl_absorpt_correction_type   Multi-scan
_exptl_absorpt_correction_T_min  0.8856
_exptl_absorpt_correction_T_max  0.9403
_exptl_absorpt_process_details   SADABS

_exptl_special_details           
; 
 ? 
;

_diffrn_ambient_temperature      173(2)
_diffrn_radiation_wavelength     0.71073
_diffrn_radiation_type           MoK\a
_diffrn_radiation_source         'fine-focus sealed tube'
_diffrn_radiation_monochromator  graphite
_diffrn_measurement_device_type  'Bruker Breeze CCD'
_diffrn_measurement_method       '\f and \w scans'
_diffrn_detector_area_resol_mean ?
_diffrn_reflns_number            145002
_diffrn_reflns_av_R_equivalents  0.0756
_diffrn_reflns_av_unetI/netI     0.0935
_diffrn_reflns_limit_h_min       -50
_diffrn_reflns_limit_h_max       47
_diffrn_reflns_limit_k_min       -25
_diffrn_reflns_limit_k_max       25
_diffrn_reflns_limit_l_min       -33
_diffrn_reflns_limit_l_max       33
_diffrn_reflns_theta_min         1.18
_diffrn_reflns_theta_max         26.00
_reflns_number_total             17337
_reflns_number_gt                6902
_reflns_threshold_expression     >2sigma(I)

_computing_data_collection       'Bruker APEX2'
_computing_cell_refinement       'Bruker SAINT'
_computing_data_reduction        'Bruker SAINT'
_computing_structure_solution    'SHELXS-97 (Sheldrick, 2008)'
_computing_structure_refinement  'SHELXL-97 (Sheldrick, 2008)'
_computing_molecular_graphics    'Bruker SHELXTL'
_computing_publication_material  'Bruker SHELXTL'

_refine_special_details          
; 
 Refinement of F^2^ against ALL reflections.  The weighted R-factor wR and 
 goodness of fit S are based on F^2^, conventional R-factors R are based 
 on F, with F set to zero for negative F^2^. The threshold expression of 
 F^2^ > 2sigma(F^2^) is used only for calculating R-factors(gt) etc. and is 
 not relevant to the choice of reflections for refinement.  R-factors based 
 on F^2^ are statistically about twice as large as those based on F, and R- 
 factors based on ALL data will be even larger. 
;

_refine_ls_structure_factor_coef Fsqd
_refine_ls_matrix_type           full
_refine_ls_weighting_scheme      calc
_refine_ls_weighting_details     
'calc w=1/[\s^2^(Fo^2^)+(0.1653P)^2^+0.0000P] where P=(Fo^2^+2Fc^2^)/3'
_atom_sites_solution_primary     direct
_atom_sites_solution_secondary   difmap
_atom_sites_solution_hydrogens   geom
_refine_ls_hydrogen_treatment    constr
_refine_ls_extinction_method     none
_refine_ls_extinction_coef       ?
_refine_ls_number_reflns         17337
_refine_ls_number_parameters     879
_refine_ls_number_restraints     88
_refine_ls_R_factor_all          0.1775
_refine_ls_R_factor_gt           0.0942
_refine_ls_wR_factor_ref         0.2965
_refine_ls_wR_factor_gt          0.2682
_refine_ls_goodness_of_fit_ref   0.951
_refine_ls_restrained_S_all      5.388
_refine_ls_shift/su_max          0.001
_refine_ls_shift/su_mean         0.000

loop_
_atom_site_label
_atom_site_type_symbol
_atom_site_fract_x
_atom_site_fract_y
_atom_site_fract_z
_atom_site_U_iso_or_equiv
_atom_site_adp_type
_atom_site_occupancy
_atom_site_symmetry_multiplicity
_atom_site_calc_flag
_atom_site_refinement_flags
_atom_site_disorder_assembly
_atom_site_disorder_group
Cu1 Cu 0.5000 0.7499(2) 0.7500 0.0613(17) Uani 1 2 d S . .
Cu2 Cu 0.25288(12) 0.99004(19) 0.1136(2) 0.0820(17) Uani 1 1 d . . .
Cl1 Cl 0.6117(5) 0.9780(7) 0.9008(8) 0.149(5) Uani 1 1 d D . .
Cl2 Cl 0.8635(9) 1.1295(16) 0.8545(13) 0.301(14) Uani 1 1 d D . .
Cl3 Cl 0.708(3) 0.726(4) 0.220(4) 1.31(4) Uani 1 1 d DU . .
O1 O 0.4876(10) 0.5220(10) 0.9296(13) 0.105(9) Uani 1 1 d . . .
O2 O 0.5395(7) 0.4810(10) 0.9326(11) 0.077(6) Uani 1 1 d . . .
O3 O 0.4044(8) 0.2749(12) 1.0170(13) 0.099(8) Uani 1 1 d . . .
O4 O 0.4170(7) 0.3354(9) 0.9623(10) 0.071(6) Uani 1 1 d . . .
O5 O 0.3930(16) 0.247(2) 0.672(2) 0.23(3) Uani 1 1 d . . .
O6 O 0.4182(9) 0.2317(13) 0.7730(14) 0.110(9) Uani 1 1 d . . .
O7 O 0.4796(9) 0.9707(10) 0.5358(13) 0.094(8) Uani 1 1 d . . .
O8 O 0.5274(8) 1.0198(10) 0.6303(11) 0.084(7) Uani 1 1 d . . .
O9 O 0.4272(13) 1.314(2) 0.615(2) 0.154(15) Uani 1 1 d . . .
O10 O 0.3870(14) 1.2361(19) 0.5484(17) 0.159(16) Uani 1 1 d . . .
O11 O 0.4170(8) 1.2127(13) 0.3025(12) 0.103(8) Uani 1 1 d . . .
O12 O 0.4025(8) 1.1859(11) 0.3656(11) 0.091(7) Uani 1 1 d . . .
O13 O 0.5818(18) 1.000(4) 0.921(4) 0.55(10) Uani 1 1 d D . .
O14 O 0.6620(10) 1.003(4) 0.958(3) 0.40(5) Uani 1 1 d D . .
O15 O 0.611(3) 0.8963(10) 0.894(5) 0.82(16) Uani 1 1 d DU . .
O16 O 0.592(2) 1.012(5) 0.830(2) 0.68(12) Uani 1 1 d DU . .
O17 O 0.909(2) 1.129(6) 0.867(5) 0.93(5) Uani 1 1 d DU . .
O18 O 0.829(3) 1.180(5) 0.792(4) 0.62(10) Uani 1 1 d DU . .
O19 O 0.873(3) 1.156(5) 0.921(3) 0.62(12) Uani 1 1 d D . .
O20 O 0.843(4) 1.054(3) 0.837(5) 0.80(16) Uani 1 1 d DU . .
O21 O 0.714(5) 0.645(5) 0.223(7) 1.33(15) Uani 1 1 d DU . .
O22 O 0.720(3) 0.752(4) 0.290(4) 0.43(6) Uani 1 1 d D . .
O23 O 0.657(5) 0.745(10) 0.158(4) 1.43(18) Uani 1 1 d DU . .
O24 O 0.740(8) 0.763(11) 0.210(12) 2.0(4) Uani 1 1 d DU . .
N1 N 0.5039(8) 0.6788(10) 0.8054(11) 0.060(6) Uani 1 1 d . . .
N2 N 0.2943(9) 0.4481(13) 0.9141(13) 0.076(7) Uani 1 1 d . . .
N3 N 0.2998(9) 0.0744(13) 0.6466(15) 0.079(8) Uani 1 1 d . . .
N4 N 0.5010(8) 0.8201(9) 0.6982(11) 0.056(6) Uani 1 1 d . . .
N5 N 0.2917(10) 1.4228(13) 0.4466(15) 0.081(8) Uani 1 1 d . . .
N6 N 0.2969(8) 1.0567(12) 0.1747(13) 0.074(7) Uani 1 1 d . . .
N7 N 0.4211(12) 0.7541(13) 0.6739(16) 0.085(9) Uani 1 1 d . . .
N8 N 0.7503(12) 1.452(2) 0.2028(19) 0.118(13) Uani 1 1 d D . .
N9 N 0.2530(9) 1.0275(16) 0.0270(17) 0.095(9) Uani 1 1 d . . .
C1 C 0.5344(10) 0.6343(14) 0.8318(15) 0.069(8) Uani 1 1 d . . .
H1A H 0.5546 0.6379 0.8256 0.083 Uiso 1 1 calc R . .
C2 C 0.5375(10) 0.5837(13) 0.8674(14) 0.063(8) Uani 1 1 d . . .
H2A H 0.5596 0.5527 0.8854 0.075 Uiso 1 1 calc R . .
C3 C 0.5090(10) 0.5778(12) 0.8771(14) 0.059(7) Uani 1 1 d . . .
C4 C 0.4782(10) 0.6229(14) 0.8509(14) 0.065(8) Uani 1 1 d . . .
H4A H 0.4578 0.6204 0.8566 0.078 Uiso 1 1 calc R . .
C5 C 0.4769(10) 0.6732(13) 0.8152(15) 0.063(8) Uani 1 1 d . . .
H5A H 0.4552 0.7048 0.7971 0.076 Uiso 1 1 calc R . .
C6 C 0.5115(13) 0.5240(15) 0.9156(17) 0.078(10) Uani 1 1 d . . .
C7 C 0.5472(11) 0.4305(15) 0.9770(16) 0.089(11) Uani 1 1 d . . .
H7A H 0.5493 0.4508 1.0121 0.106 Uiso 1 1 calc R . .
H7B H 0.5745 0.4092 0.9965 0.106 Uiso 1 1 calc R . .
C8 C 0.3250(12) 0.4651(16) 0.9130(18) 0.085(10) Uani 1 1 d . . .
H8A H 0.3242 0.5069 0.8975 0.102 Uiso 1 1 calc R . .
C9 C 0.3579(11) 0.4245(16) 0.9333(15) 0.078(9) Uani 1 1 d . . .
H9A H 0.3784 0.4378 0.9297 0.093 Uiso 1 1 calc R . .
C10 C 0.3614(9) 0.3658(14) 0.9586(14) 0.062(8) Uani 1 1 d . . .
C11 C 0.3306(12) 0.3482(17) 0.9616(18) 0.088(10) Uani 1 1 d . . .
H11A H 0.3324 0.3082 0.9806 0.106 Uiso 1 1 calc R . .
C12 C 0.2972(12) 0.3894(19) 0.937(2) 0.096(11) Uani 1 1 d . . .
H12A H 0.2749 0.3751 0.9361 0.115 Uiso 1 1 calc R . .
C13 C 0.3964(11) 0.3202(16) 0.9827(16) 0.072(9) Uani 1 1 d . . .
C14 C 0.4514(10) 0.2910(14) 0.9811(16) 0.076(9) Uani 1 1 d . . .
H14A H 0.4746 0.2929 1.0281 0.091 Uiso 1 1 calc R . .
H14B H 0.4408 0.2459 0.9692 0.091 Uiso 1 1 calc R . .
C15 C 0.3046(14) 0.100(2) 0.6066(19) 0.110(13) Uani 1 1 d . . .
H15A H 0.2875 0.0852 0.5635 0.131 Uiso 1 1 calc R . .
C16 C 0.3348(14) 0.149(2) 0.627(2) 0.123(16) Uani 1 1 d . . .
H16A H 0.3366 0.1701 0.5978 0.148 Uiso 1 1 calc R . .
C17 C 0.3610(12) 0.165(2) 0.690(2) 0.097(12) Uani 1 1 d . . .
C18 C 0.3563(12) 0.1396(18) 0.7303(18) 0.090(11) Uani 1 1 d . . .
H18A H 0.3735 0.1534 0.7738 0.108 Uiso 1 1 calc R . .
C19 C 0.3265(12) 0.0940(19) 0.7079(18) 0.092(11) Uani 1 1 d . . .
H19A H 0.3242 0.0745 0.7373 0.111 Uiso 1 1 calc R . .
C20 C 0.393(2) 0.220(3) 0.712(3) 0.16(2) Uani 1 1 d . . .
C21 C 0.4520(16) 0.278(2) 0.796(2) 0.136(18) Uani 1 1 d . . .
H21A H 0.4415 0.3137 0.7646 0.163 Uiso 1 1 calc R . .
H21B H 0.4759 0.2568 0.8027 0.163 Uiso 1 1 calc R . .
C22 C 0.4661(11) 0.3052(16) 0.8576(17) 0.083(10) Uani 1 1 d . . .
C23 C 0.4959(12) 0.3522(16) 0.8855(19) 0.082(10) Uani 1 1 d . . .
H23A H 0.5058 0.3669 0.8640 0.098 Uiso 1 1 calc R . .
C24 C 0.5127(9) 0.3799(13) 0.9443(15) 0.063(8) Uani 1 1 d . . .
C25 C 0.4975(10) 0.3592(13) 0.9736(16) 0.070(9) Uani 1 1 d . . .
H25A H 0.5084 0.3779 1.0136 0.084 Uiso 1 1 calc R . .
C26 C 0.4666(10) 0.3116(14) 0.9472(16) 0.065(8) Uani 1 1 d . . .
C27 C 0.4505(11) 0.2855(15) 0.8883(17) 0.075(9) Uani 1 1 d . . .
H27A H 0.4287 0.2539 0.8686 0.090 Uiso 1 1 calc R . .
C28 C 0.4749(9) 0.8196(13) 0.6343(14) 0.057(7) Uani 1 1 d . . .
H28A H 0.4557 0.7846 0.6122 0.068 Uiso 1 1 calc R . .
C29 C 0.4746(10) 0.8673(13) 0.5996(14) 0.064(8) Uani 1 1 d . . .
H29A H 0.4558 0.8652 0.5541 0.077 Uiso 1 1 calc R . .
C30 C 0.5026(10) 0.9197(13) 0.6321(15) 0.058(7) Uani 1 1 d . . .
C31 C 0.5296(9) 0.9199(12) 0.6972(14) 0.055(7) Uani 1 1 d . . .
H31A H 0.5488 0.9549 0.7202 0.066 Uiso 1 1 calc R . .
C32 C 0.5292(10) 0.8694(13) 0.7297(15) 0.062(8) Uani 1 1 d . . .
H32A H 0.5490 0.8689 0.7753 0.074 Uiso 1 1 calc R . .
C33 C 0.5005(12) 0.9728(15) 0.593(2) 0.071(9) Uani 1 1 d . . .
C34 C 0.5329(12) 1.0717(16) 0.5986(19) 0.091(11) Uani 1 1 d . . .
H34A H 0.5348 1.0524 0.5671 0.109 Uiso 1 1 calc R . .
H34B H 0.5595 1.0954 0.6310 0.109 Uiso 1 1 calc R . .
C35 C 0.3229(12) 1.4376(18) 0.5062(19) 0.092(11) Uani 1 1 d . . .
H35A H 0.3223 1.4786 0.5216 0.110 Uiso 1 1 calc R . .
C36 C 0.3572(13) 1.397(2) 0.549(2) 0.102(12) Uani 1 1 d . . .
H36A H 0.3789 1.4095 0.5923 0.123 Uiso 1 1 calc R . .
C37 C 0.3585(14) 1.340(2) 0.527(2) 0.093(11) Uani 1 1 d . . .
C38 C 0.3268(16) 1.324(2) 0.466(2) 0.115(14) Uani 1 1 d . . .
H38A H 0.3272 1.2835 0.4490 0.138 Uiso 1 1 calc R . .
C39 C 0.2920(14) 1.368(2) 0.426(2) 0.108(13) Uani 1 1 d . . .
H39A H 0.2688 1.3556 0.3831 0.130 Uiso 1 1 calc R . .
C40 C 0.3940(17) 1.293(3) 0.569(3) 0.117(16) Uani 1 1 d . . .
C41 C 0.420(2) 1.189(3) 0.588(3) 0.18(3) Uani 1 1 d . . .
H41A H 0.4078 1.1467 0.5864 0.212 Uiso 1 1 calc R . .
H41B H 0.4397 1.2036 0.6333 0.212 Uiso 1 1 calc R . .
C42 C 0.3267(11) 1.0721(17) 0.1723(16) 0.083(10) Uani 1 1 d . . .
H42A H 0.3262 1.0542 0.1395 0.099 Uiso 1 1 calc R . .
C43 C 0.3594(11) 1.1146(19) 0.2172(18) 0.090(11) Uani 1 1 d . . .
H43A H 0.3809 1.1241 0.2148 0.108 Uiso 1 1 calc R . .
C44 C 0.3610(10) 1.1425(15) 0.2644(14) 0.064(8) Uani 1 1 d . . .
C45 C 0.3288(12) 1.1259(18) 0.2651(17) 0.089(11) Uani 1 1 d . . .
H45A H 0.3287 1.1430 0.2976 0.107 Uiso 1 1 calc R . .
C46 C 0.2970(12) 1.0852(19) 0.2197(19) 0.091(11) Uani 1 1 d . . .
H46A H 0.2744 1.0768 0.2198 0.110 Uiso 1 1 calc R . .
C47 C 0.3956(11) 1.1838(15) 0.3115(17) 0.071(9) Uani 1 1 d . . .
C48 C 0.4377(12) 1.2233(17) 0.4180(14) 0.092(12) Uani 1 1 d . . .
H48A H 0.4290 1.2688 0.4149 0.111 Uiso 1 1 calc R . .
H48B H 0.4610 1.2228 0.4163 0.111 Uiso 1 1 calc R . .
C49 C 0.4964(12) 1.1180(14) 0.5649(17) 0.076(9) Uani 1 1 d . . .
C50 C 0.4761(13) 1.1346(16) 0.5891(17) 0.090(11) Uani 1 1 d . . .
H50A H 0.4840 1.1133 0.6264 0.109 Uiso 1 1 calc R . .
C51 C 0.4452(15) 1.1804(17) 0.5605(18) 0.105(14) Uani 1 1 d . . .
C52 C 0.4314(13) 1.2103(16) 0.5028(18) 0.093(11) Uani 1 1 d . . .
H52A H 0.4087 1.2405 0.4812 0.112 Uiso 1 1 calc R . .
C53 C 0.4518(13) 1.1944(15) 0.4783(16) 0.081(11) Uani 1 1 d . . .
C54 C 0.4835(12) 1.1492(15) 0.5098(16) 0.077(10) Uani 1 1 d . . .
H54A H 0.4972 1.1387 0.4930 0.092 Uiso 1 1 calc R . .
C55 C 0.3885(17) 0.766(2) 0.637(2) 0.114(16) Uani 1 1 d . . .
C56 C 0.348(2) 0.788(4) 0.584(3) 0.29(6) Uani 1 1 d . . .
H56A H 0.3267 0.7555 0.5732 0.349 Uiso 1 1 calc R . .
H56B H 0.3464 0.7957 0.5473 0.349 Uiso 1 1 calc R . .
H56C H 0.3416 0.8288 0.5958 0.349 Uiso 1 1 calc R . .
C57 C 0.7506(14) 1.452(2) 0.242(2) 0.12(2) Uani 1 1 d D . .
C58 C 0.744(3) 1.458(8) 0.290(3) 0.45(11) Uani 1 1 d D . .
H58A H 0.7599 1.4234 0.3216 0.541 Uiso 1 1 calc R . .
H58B H 0.7141 1.4541 0.2678 0.541 Uiso 1 1 calc R . .
H58C H 0.7547 1.5002 0.3108 0.541 Uiso 1 1 calc R . .
C59 C 0.2554(14) 1.045(2) -0.009(2) 0.110(16) Uani 1 1 d . . .
C60 C 0.258(2) 1.059(4) -0.058(3) 0.23(4) Uani 1 1 d . . .
H60A H 0.2708 1.1020 -0.0501 0.274 Uiso 1 1 calc R . .
H60B H 0.2295 1.0592 -0.0999 0.274 Uiso 1 1 calc R . .
H60C H 0.2753 1.0264 -0.0576 0.274 Uiso 1 1 calc R . .

loop_
_atom_site_aniso_label
_atom_site_aniso_U_11
_atom_site_aniso_U_22
_atom_site_aniso_U_33
_atom_site_aniso_U_23
_atom_site_aniso_U_13
_atom_site_aniso_U_12
Cu1 0.088(4) 0.040(3) 0.073(3) 0.000 0.059(3) 0.000
Cu2 0.057(3) 0.074(3) 0.089(3) -0.009(2) 0.035(2) 0.001(2)
Cl1 0.122(11) 0.146(11) 0.165(12) -0.032(9) 0.086(10) -0.019(9)
Cl2 0.28(3) 0.29(3) 0.22(2) -0.01(2) 0.11(2) -0.05(2)
Cl3 1.70(5) 1.76(6) 1.67(5) 0.22(3) 1.63(4) 0.25(3)
O1 0.18(3) 0.066(15) 0.13(2) 0.011(14) 0.13(2) 0.009(16)
O2 0.091(17) 0.051(12) 0.089(15) 0.015(11) 0.057(14) -0.002(12)
O3 0.12(2) 0.096(16) 0.121(19) 0.053(16) 0.097(18) 0.043(15)
O4 0.078(15) 0.069(13) 0.092(15) 0.021(11) 0.066(14) 0.017(11)
O5 0.28(5) 0.31(6) 0.16(3) -0.10(3) 0.17(4) -0.20(5)
O6 0.13(2) 0.13(2) 0.11(2) -0.057(17) 0.094(19) -0.073(18)
O7 0.14(2) 0.068(14) 0.082(17) 0.013(13) 0.075(17) 0.003(14)
O8 0.116(19) 0.049(12) 0.088(16) 0.013(12) 0.066(15) 0.000(13)
O9 0.11(3) 0.19(4) 0.19(4) 0.09(3) 0.10(3) 0.05(3)
O10 0.24(4) 0.13(3) 0.13(3) 0.04(2) 0.12(3) 0.10(3)
O11 0.11(2) 0.111(19) 0.108(19) -0.018(15) 0.083(18) -0.045(17)
O12 0.112(19) 0.101(17) 0.064(14) -0.015(12) 0.058(14) -0.051(14)
O13 0.21(8) 0.51(14) 0.8(3) -0.20(16) 0.30(12) 0.00(8)
O14 0.25(8) 0.54(14) 0.38(11) -0.02(10) 0.18(8) -0.02(8)
O15 0.80(18) 0.83(18) 0.84(18) 0.01(8) 0.53(12) -0.02(8)
O16 0.67(15) 0.73(16) 0.68(15) -0.01(10) 0.45(11) -0.03(10)
O17 0.92(5) 0.93(6) 1.70(6) -0.001(12) 1.19(4) 0.001(12)
O18 0.61(11) 0.60(11) 0.62(11) 0.02(5) 0.38(8) -0.01(5)
O19 0.8(3) 0.6(2) 0.8(3) -0.3(2) 0.6(2) -0.11(18)
O20 0.80(16) 0.78(16) 0.80(16) 0.02(6) 0.50(11) -0.01(6)
O21 0.38(15) 1.33(16) 1.33(16) 0.00(3) 0.12(10) 0.00(3)
O22 0.47(14) 0.35(10) 0.53(15) -0.03(9) 0.34(13) 0.11(9)
O23 1.70(18) 1.66(18) 1.02(18) -0.078(12) 0.91(12) 0.590(12)
O24 2.0(4) 2.0(4) 2.0(4) 0.72(3) 1.3(3) 0.00(3)
N1 0.080(18) 0.047(13) 0.073(16) 0.000(12) 0.058(16) 0.004(13)
N2 0.060(19) 0.068(18) 0.09(2) -0.001(15) 0.044(16) 0.002(14)
N3 0.070(19) 0.078(18) 0.08(2) 0.002(15) 0.043(17) -0.005(14)
N4 0.072(17) 0.038(12) 0.062(16) -0.001(11) 0.045(14) -0.005(11)
N5 0.08(2) 0.061(17) 0.08(2) 0.006(15) 0.046(19) 0.003(15)
N6 0.057(18) 0.076(17) 0.079(18) -0.002(14) 0.039(16) -0.011(14)
N7 0.10(3) 0.0