####################################################################### 
# 
# This file contains crystal structure data downloaded from the 
# Cambridge Structural Database (CSD) hosted by the Cambridge 
# Crystallographic Data Centre (CCDC).
# 
# Full information about CCDC data access policies and citation 
# guidelines are available at http://www.ccdc.cam.ac.uk/access/V1 
# 
# Audit and citation data items may have been added by the CCDC. 
# Please retain this information to preserve the provenance of 
# this file and to allow appropriate attribution of the data. 
# 
#######################################################################

data_p4
_audit_block_doi                 10.5517/cc13wvhb
_database_code_depnum_ccdc_archive 'CCDC 1039662'
loop_
_citation_id
_citation_doi
_citation_year
1 10.1039/C4DT03868A 2015
_audit_update_record             
;
2015-02-14 deposited with the CCDC.	2024-07-09 downloaded from the CCDC.
;

_audit_creation_method           SHELXL-97
_chemical_name_systematic        
; 
 ? 
;
_chemical_name_common            ?
_chemical_melting_point          ?
_chemical_formula_moiety         ?
_chemical_formula_sum            'C18 H18 N4 O4 Zn'
_chemical_formula_weight         419.73

loop_
_atom_type_symbol
_atom_type_description
_atom_type_scat_dispersion_real
_atom_type_scat_dispersion_imag
_atom_type_scat_source
C C 0.0033 0.0016 'International Tables Vol C Tables 4.2.6.8 and 6.1.1.4'
H H 0.0000 0.0000 'International Tables Vol C Tables 4.2.6.8 and 6.1.1.4'
N N 0.0061 0.0033 'International Tables Vol C Tables 4.2.6.8 and 6.1.1.4'
O O 0.0106 0.0060 'International Tables Vol C Tables 4.2.6.8 and 6.1.1.4'
Zn Zn 0.2839 1.4301 'International Tables Vol C Tables 4.2.6.8 and 6.1.1.4'

_symmetry_cell_setting           trigonal
_symmetry_space_group_name_H-M   P3212

loop_
_symmetry_equiv_pos_as_xyz
'x, y, z'
'-y, x-y, z+2/3'
'-y, -x, -z+1/3'
'-x+y, -x, z+1/3'
'-x+y, y, -z+2/3'
'x, x-y, -z'

_cell_length_a                   14.933(8)
_cell_length_b                   14.933
_cell_length_c                   10.539(6)
_cell_angle_alpha                90.00
_cell_angle_beta                 90.00
_cell_angle_gamma                120.00
_cell_volume                     2035.3(16)
_cell_formula_units_Z            3
_cell_measurement_temperature    298(2)
_cell_measurement_reflns_used    ?
_cell_measurement_theta_min      ?
_cell_measurement_theta_max      ?

_exptl_crystal_description       block
_exptl_crystal_colour            ?
_exptl_crystal_size_max          0.12
_exptl_crystal_size_mid          0.08
_exptl_crystal_size_min          0.08
_exptl_crystal_density_meas      ?
_exptl_crystal_density_diffrn    1.027
_exptl_crystal_density_method    'not measured'
_exptl_crystal_F_000             648
_exptl_absorpt_coefficient_mu    0.927
_exptl_absorpt_correction_type   ?
_exptl_absorpt_correction_T_min  0.8969
_exptl_absorpt_correction_T_max  0.9296
_exptl_absorpt_process_details   ?

_exptl_special_details           
; 
 ? 
;

_diffrn_ambient_temperature      298(2)
_diffrn_radiation_wavelength     0.71073
_diffrn_radiation_type           MoK\a
_diffrn_radiation_source         'fine-focus sealed tube'
_diffrn_radiation_monochromator  graphite
_diffrn_measurement_device_type  ?
_diffrn_measurement_method       ?
_diffrn_detector_area_resol_mean ?
_diffrn_standards_number         ?
_diffrn_standards_interval_count ?
_diffrn_standards_interval_time  ?
_diffrn_standards_decay_%        ?
_diffrn_reflns_number            10223
_diffrn_reflns_av_R_equivalents  0.1052
_diffrn_reflns_av_sigmaI/netI    0.0665
_diffrn_reflns_limit_h_min       -17
_diffrn_reflns_limit_h_max       17
_diffrn_reflns_limit_k_min       -17
_diffrn_reflns_limit_k_max       15
_diffrn_reflns_limit_l_min       -12
_diffrn_reflns_limit_l_max       11
_diffrn_reflns_theta_min         2.49
_diffrn_reflns_theta_max         24.96
_reflns_number_total             1281
_reflns_number_gt                861
_reflns_threshold_expression     >2sigma(I)

_computing_data_collection       ?
_computing_cell_refinement       ?
_computing_data_reduction        ?
_computing_structure_solution    'SHELXS-97 (Sheldrick, 1990)'
_computing_structure_refinement  'SHELXL-97 (Sheldrick, 1997)'
_computing_molecular_graphics    ?
_computing_publication_material  ?

_refine_special_details          
; 
 Refinement of F^2^ against ALL reflections.  The weighted R-factor wR and 
 goodness of fit S are based on F^2^, conventional R-factors R are based 
 on F, with F set to zero for negative F^2^. The threshold expression of 
 F^2^ > 2sigma(F^2^) is used only for calculating R-factors(gt) etc. and is 
 not relevant to the choice of reflections for refinement.  R-factors based 
 on F^2^ are statistically about twice as large as those based on F, and R- 
 factors based on ALL data will be even larger. 
;

_refine_ls_structure_factor_coef Fsqd
_refine_ls_matrix_type           full
_refine_ls_weighting_scheme      calc
_refine_ls_weighting_details     
'calc w=1/[\s^2^(Fo^2^)+(0.0338P)^2^+0.0000P] where P=(Fo^2^+2Fc^2^)/3'
_atom_sites_solution_primary     direct
_atom_sites_solution_secondary   difmap
_atom_sites_solution_hydrogens   geom
_refine_ls_hydrogen_treatment    mixed
_refine_ls_extinction_method     none
_refine_ls_extinction_coef       ?
_refine_ls_abs_structure_details 'Flack H D (1983), Acta Cryst. A39, 876-881'
_refine_ls_abs_structure_Flack   0.53(3)
_refine_ls_number_reflns         1281
_refine_ls_number_parameters     126
_refine_ls_number_restraints     0
_refine_ls_R_factor_all          0.0651
_refine_ls_R_factor_gt           0.0376
_refine_ls_wR_factor_ref         0.0731
_refine_ls_wR_factor_gt          0.0666
_refine_ls_goodness_of_fit_ref   0.853
_refine_ls_restrained_S_all      0.853
_refine_ls_shift/su_max          0.001
_refine_ls_shift/su_mean         0.000

loop_
_atom_site_label
_atom_site_type_symbol
_atom_site_fract_x
_atom_site_fract_y
_atom_site_fract_z
_atom_site_U_iso_or_equiv
_atom_site_adp_type
_atom_site_occupancy
_atom_site_symmetry_multiplicity
_atom_site_calc_flag
_atom_site_refinement_flags
_atom_site_disorder_assembly
_atom_site_disorder_group
Zn1 Zn 0.81564(3) 0.63127(6) 0.3333 0.0574(3) Uani 1 2 d S . .
O1 O 1.0023(4) 0.6306(4) 0.4695(4) 0.1074(15) Uani 1 1 d . . .
O2 O 0.9285(3) 0.7247(3) 0.4414(3) 0.0973(14) Uani 1 1 d . . .
N1 N 0.6025(4) 0.5321(3) 0.4159(4) 0.0722(13) Uani 1 1 d . . .
H1 H 0.5894 0.5518 0.3451 0.087 Uiso 1 1 calc R . .
N2 N 0.6949(3) 0.5439(3) 0.4460(4) 0.0598(12) Uani 1 1 d . . .
C1 C 0.4241(5) 0.4674(7) 0.4966(6) 0.142(3) Uani 1 1 d . . .
H1A H 0.4211 0.5076 0.4273 0.212 Uiso 1 1 calc R . .
H1B H 0.4047 0.4875 0.5738 0.212 Uiso 1 1 calc R . .
H1C H 0.3774 0.3954 0.4808 0.212 Uiso 1 1 calc R . .
C2 C 0.5324(4) 0.4861(5) 0.5091(5) 0.0751(17) Uani 1 1 d . . .
C3 C 0.5821(4) 0.4652(4) 0.6044(4) 0.0572(13) Uani 1 1 d . . .
C4 C 0.6813(4) 0.5009(4) 0.5626(4) 0.0639(13) Uani 1 1 d . . .
C5 C 0.7688(5) 0.4988(6) 0.6291(6) 0.119(3) Uani 1 1 d . . .
H5A H 0.8229 0.5133 0.5693 0.179 Uiso 1 1 calc R . .
H5B H 0.7446 0.4316 0.6656 0.179 Uiso 1 1 calc R . .
H5C H 0.7950 0.5500 0.6949 0.179 Uiso 1 1 calc R . .
C6 C 0.9972(6) 0.7083(6) 0.4872(6) 0.0851(19) Uani 1 1 d . . .
C7 C 1.1538(5) 0.7780(5) 0.6237(5) 0.0887(19) Uani 1 1 d . . .
H7 H 1.1623 0.7241 0.5938 0.106 Uiso 1 1 calc R . .
C8 C 1.0737(5) 0.7883(5) 0.5814(5) 0.0746(16) Uani 1 1 d . . .
C9 C 1.0611(5) 0.8682(6) 0.6216(6) 0.125(2) Uani 1 1 d . . .
H9 H 1.0073 0.8763 0.5905 0.151 Uiso 1 1 calc R . .

loop_
_atom_site_aniso_label
_atom_site_aniso_U_11
_atom_site_aniso_U_22
_atom_site_aniso_U_33
_atom_site_aniso_U_23
_atom_site_aniso_U_13
_atom_site_aniso_U_12
Zn1 0.0654(4) 0.0616(6) 0.0438(4) 0.000 -0.0058(4) 0.0308(3)
O1 0.118(4) 0.095(3) 0.100(3) -0.034(3) -0.040(3) 0.047(3)
O2 0.088(3) 0.105(3) 0.085(3) -0.016(2) -0.035(2) 0.039(2)
N1 0.071(3) 0.082(3) 0.054(3) 0.016(2) -0.008(2) 0.031(3)
N2 0.060(3) 0.066(3) 0.049(3) 0.005(2) -0.005(2) 0.028(2)
C1 0.068(5) 0.222(9) 0.110(6) 0.055(6) 0.005(4) 0.054(5)
C2 0.064(4) 0.092(4) 0.052(3) 0.006(3) 0.000(3) 0.027(3)
C3 0.053(3) 0.070(4) 0.043(3) -0.002(2) -0.005(2) 0.027(3)
C4 0.088(5) 0.070(4) 0.040(3) 0.006(2) -0.007(3) 0.045(3)
C5 0.093(5) 0.203(7) 0.085(5) 0.063(5) 0.025(4) 0.092(5)
C6 0.087(5) 0.085(5) 0.059(4) 0.002(4) -0.002(4) 0.025(5)
C7 0.080(5) 0.088(5) 0.064(4) -0.006(3) -0.011(3) 0.016(4)
C8 0.072(4) 0.069(4) 0.061(4) -0.014(3) -0.005(3) 0.019(4)
C9 0.109(6) 0.153(8) 0.126(6) -0.043(5) -0.062(4) 0.074(5)

_geom_special_details            
; 
 All esds (except the esd in the dihedral angle between two l.s. planes) 
 are estimated using the full covariance matrix.  The cell esds are taken 
 into account individually in the estimation of esds in distances, angles 
 and torsion angles; correlations between esds in cell parameters are only 
 used when they are defined by crystal symmetry.  An approximate (isotropic) 
 treatment of cell esds is used for estimating esds involving l.s. planes. 
;

loop_
_geom_bond_atom_site_label_1
_geom_bond_atom_site_label_2
_geom_bond_distance
_geom_bond_site_symmetry_2
_geom_bond_publ_flag
Zn1 O2 1.932(4) 5_655 ?
Zn1 O2 1.932(4) . ?
Zn1 N2 2.003(4) 5_655 ?
Zn1 N2 2.003(4) . ?
O1 C6 1.215(8) . ?
O2 C6 1.264(8) . ?
N1 N2 1.339(5) . ?
N1 C2 1.347(6) . ?
N1 H1 0.8600 . ?
N2 C4 1.354(5) . ?
C1 C2 1.503(8) . ?
C1 H1A 0.9600 . ?
C1 H1B 0.9600 . ?
C1 H1C 0.9600 . ?
C2 C3 1.373(7) . ?
C3 C4 1.373(7) . ?
C3 C3 1.491(10) 3_666 ?
C4 C5 1.496(7) . ?
C5 H5A 0.9600 . ?
C5 H5B 0.9600 . ?
C5 H5C 0.9600 . ?
C6 C8 1.534(8) . ?
C7 C8 1.355(8) . ?
C7 C7 1.364(10) 3_776 ?
C7 H7 0.9300 . ?
C8 C9 1.365(9) . ?
C9 C9 1.419(12) 3_776 ?
C9 H9 0.9300 . ?

loop_
_geom_angle_atom_site_label_1
_geom_angle_atom_site_label_2
_geom_angle_atom_site_label_3
_geom_angle
_geom_angle_site_symmetry_1
_geom_angle_site_symmetry_3
_geom_angle_publ_flag
O2 Zn1 O2 102.6(3) 5_655 . ?
O2 Zn1 N2 107.28(16) 5_655 5_655 ?
O2 Zn1 N2 114.14(18) . 5_655 ?
O2 Zn1 N2 114.14(18) 5_655 . ?
O2 Zn1 N2 107.28(16) . . ?
N2 Zn1 N2 111.3(2) 5_655 . ?
C6 O2 Zn1 125.8(5) . . ?
N2 N1 C2 112.4(4) . . ?
N2 N1 H1 123.8 . . ?
C2 N1 H1 123.8 . . ?
N1 N2 C4 104.6(4) . . ?
N1 N2 Zn1 118.5(3) . . ?
C4 N2 Zn1 136.0(4) . . ?
C2 C1 H1A 109.5 . . ?
C2 C1 H1B 109.5 . . ?
H1A C1 H1B 109.5 . . ?
C2 C1 H1C 109.5 . . ?
H1A C1 H1C 109.5 . . ?
H1B C1 H1C 109.5 . . ?
N1 C2 C3 106.2(5) . . ?
N1 C2 C1 121.4(5) . . ?
C3 C2 C1 132.5(5) . . ?
C4 C3 C2 106.2(4) . . ?
C4 C3 C3 129.0(4) . 3_666 ?
C2 C3 C3 124.7(4) . 3_666 ?
N2 C4 C3 110.6(5) . . ?
N2 C4 C5 120.6(5) . . ?
C3 C4 C5 128.8(4) . . ?
C4 C5 H5A 109.5 . . ?
C4 C5 H5B 109.5 . . ?
H5A C5 H5B 109.5 . . ?
C4 C5 H5C 109.5 . . ?
H5A C5 H5C 109.5 . . ?
H5B C5 H5C 109.5 . . ?
O1 C6 O2 124.8(7) . . ?
O1 C6 C8 117.7(7) . . ?
O2 C6 C8 117.2(7) . . ?
C8 C7 C7 120.4(4) . 3_776 ?
C8 C7 H7 119.8 . . ?
C7 C7 H7 119.8 3_776 . ?
C7 C8 C9 120.8(6) . . ?
C7 C8 C6 118.7(7) . . ?
C9 C8 C6 120.5(7) . . ?
C8 C9 C9 118.8(4) . 3_776 ?
C8 C9 H9 120.6 . . ?
C9 C9 H9 120.6 3_776 . ?

loop_
_geom_torsion_atom_site_label_1
_geom_torsion_atom_site_label_2
_geom_torsion_atom_site_label_3
_geom_torsion_atom_site_label_4
_geom_torsion
_geom_torsion_site_symmetry_1
_geom_torsion_site_symmetry_2
_geom_torsion_site_symmetry_3
_geom_torsion_site_symmetry_4
_geom_torsion_publ_flag
O2 Zn1 O2 C6 -147.5(6) 5_655 . . . ?
N2 Zn1 O2 C6 -31.8(6) 5_655 . . . ?
N2 Zn1 O2 C6 92.0(5) . . . . ?
C2 N1 N2 C4 1.4(6) . . . . ?
C2 N1 N2 Zn1 -170.0(4) . . . . ?
O2 Zn1 N2 N1 19.1(4) 5_655 . . . ?
O2 Zn1 N2 N1 132.1(3) . . . . ?
N2 Zn1 N2 N1 -102.4(4) 5_655 . . . ?
O2 Zn1 N2 C4 -148.8(5) 5_655 . . . ?
O2 Zn1 N2 C4 -35.9(6) . . . . ?
N2 Zn1 N2 C4 89.6(5) 5_655 . . . ?
N2 N1 C2 C3 -1.1(7) . . . . ?
N2 N1 C2 C1 178.6(6) . . . . ?
N1 C2 C3 C4 0.2(6) . . . . ?
C1 C2 C3 C4 -179.3(7) . . . . ?
N1 C2 C3 C3 177.4(5) . . . 3_666 ?
C1 C2 C3 C3 -2.2(11) . . . 3_666 ?
N1 N2 C4 C3 -1.2(6) . . . . ?
Zn1 N2 C4 C3 167.9(4) . . . . ?
N1 N2 C4 C5 179.8(6) . . . . ?
Zn1 N2 C4 C5 -11.1(8) . . . . ?
C2 C3 C4 N2 0.6(6) . . . . ?
C3 C3 C4 N2 -176.3(5) 3_666 . . . ?
C2 C3 C4 C5 179.5(6) . . . . ?
C3 C3 C4 C5 2.5(10) 3_666 . . . ?
Zn1 O2 C6 O1 0.1(10) . . . . ?
Zn1 O2 C6 C8 -174.1(3) . . . . ?
C7 C7 C8 C9 1.5(11) 3_776 . . . ?
C7 C7 C8 C6 -178.5(6) 3_776 . . . ?
O1 C6 C8 C7 11.1(9) . . . . ?
O2 C6 C8 C7 -174.2(6) . . . . ?
O1 C6 C8 C9 -168.9(7) . . . . ?
O2 C6 C8 C9 5.7(9) . . . . ?
C7 C8 C9 C9 -1.9(13) . . . 3_776 ?
C6 C8 C9 C9 178.1(8) . . . 3_776 ?

loop_
_geom_hbond_atom_site_label_D
_geom_hbond_atom_site_label_H
_geom_hbond_atom_site_label_A
_geom_hbond_distance_DH
_geom_hbond_distance_HA
_geom_hbond_distance_DA
_geom_hbond_angle_DHA
_geom_hbond_site_symmetry_A
N1 H1 O1 0.86 1.86 2.657(6) 152.9 5_655

_diffrn_measured_fraction_theta_max 0.996
_diffrn_reflns_theta_full        24.96
_diffrn_measured_fraction_theta_full 0.996
_refine_diff_density_max         0.174
_refine_diff_density_min         -0.153
_refine_diff_density_rms         0.035


# SQUEEZE RESULTS (APPEND TO CIF)
# Note: Data are Listed for all Voids in the P1 Unit Cell
# i.e. Centre of Gravity, Solvent Accessible Volume,
# Recovered number of Electrons in the Void and
# Details about the Squeezed Material
loop_
_platon_squeeze_void_nr
_platon_squeeze_void_average_x
_platon_squeeze_void_average_y
_platon_squeeze_void_average_z
_platon_squeeze_void_volume
_platon_squeeze_void_count_electrons
_platon_squeeze_void_content
1 0.076 0.162 -0.024 805 110 ' '
_platon_squeeze_details          ?
