####################################################################### 
# 
# This file contains crystal structure data downloaded from the 
# Cambridge Structural Database (CSD) hosted by the Cambridge 
# Crystallographic Data Centre (CCDC).
# 
# Full information about CCDC data access policies and citation 
# guidelines are available at http://www.ccdc.cam.ac.uk/access/V1 
# 
# Audit and citation data items may have been added by the CCDC. 
# Please retain this information to preserve the provenance of 
# this file and to allow appropriate attribution of the data. 
# 
#######################################################################

data_compound3100K
_audit_block_doi                 10.5517/cc12zhq8
_database_code_depnum_ccdc_archive 'CCDC 1012420'
loop_
_citation_id
_citation_doi
_citation_year
1 10.1021/ic502471v 2014
_audit_update_record             
;
2014-09-02 deposited with the CCDC.	2024-07-09 downloaded from the CCDC.
;
_chemical_name_common            ?
_chemical_name_systematic        
;
 ? 
;



_chemical_formula_moiety         'C44 H52 Co N2 O4'
_chemical_formula_sum            'C44 H52 Co N2 O4'
_chemical_formula_weight         731.81
_chemical_melting_point          ?
loop_
_atom_type_symbol
_atom_type_description
_atom_type_scat_dispersion_real
_atom_type_scat_dispersion_imag
_atom_type_scat_source
C C 0.0181 0.0091 'International Tables Vol C Tables 4.2.6.8 and 6.1.1.4'
H H 0.0000 0.0000 'International Tables Vol C Tables 4.2.6.8 and 6.1.1.4'
N N 0.0311 0.0180 'International Tables Vol C Tables 4.2.6.8 and 6.1.1.4'
O O 0.0492 0.0322 'International Tables Vol C Tables 4.2.6.8 and 6.1.1.4'
Co Co -2.3653 3.6143 'International Tables Vol C Tables 4.2.6.8 and 6.1.1.4'

_space_group_crystal_system      triclinic
_space_group_IT_number           2
_space_group_name_H-M_alt        'P -1'
_space_group_name_Hall           '-P 1'
loop_
_space_group_symop_id
_space_group_symop_operation_xyz
1 'x, y, z'
2 '-x, -y, -z'

_cell_length_a                   15.1825(12)
_cell_length_b                   15.2340(11)
_cell_length_c                   16.6588(14)
_cell_angle_alpha                101.638(7)
_cell_angle_beta                 96.941(7)
_cell_angle_gamma                101.291(6)
_cell_volume                     3648.8(5)
_cell_formula_units_Z            3
_cell_measurement_reflns_used    3423
_cell_measurement_temperature    100(2)
_cell_measurement_theta_max      60.8740
_cell_measurement_theta_min      4.3500
_exptl_absorpt_coefficient_mu    3.038
_exptl_absorpt_correction_T_max  1.00000
_exptl_absorpt_correction_T_min  0.73360
_exptl_absorpt_correction_type   multi-scan
_exptl_absorpt_process_details   
;
CrysAlisPro, Agilent Technologies,
Version 1.171.36.20 (release 27-06-2012 CrysAlis171 .NET)
(compiled Jul 11 2012,15:38:31)
Empirical absorption correction using spherical harmonics,
 implemented in SCALE3 ABSPACK scaling algorithm.
;
_exptl_crystal_colour            dark_green
_exptl_crystal_density_diffrn    0.999
_exptl_crystal_density_meas      ?
_exptl_crystal_density_method    'not measured'
_exptl_crystal_description       BLOCK
_exptl_crystal_F_000             1167
_exptl_crystal_size_max          0.1
_exptl_crystal_size_mid          0.1
_exptl_crystal_size_min          0.05
_exptl_special_details           
;
 ? 
;
_diffrn_reflns_av_R_equivalents  0.1221
_diffrn_reflns_av_unetI/netI     0.1958
_diffrn_reflns_limit_h_max       17
_diffrn_reflns_limit_h_min       -17
_diffrn_reflns_limit_k_max       17
_diffrn_reflns_limit_k_min       -12
_diffrn_reflns_limit_l_max       18
_diffrn_reflns_limit_l_min       -18
_diffrn_reflns_number            21613
_diffrn_reflns_theta_full        61.15
_diffrn_reflns_theta_max         61.15
_diffrn_reflns_theta_min         3.60
_diffrn_ambient_temperature      100(2)
_diffrn_detector_area_resol_mean ?
_diffrn_measured_fraction_theta_full 0.993
_diffrn_measured_fraction_theta_max 0.993
_diffrn_measurement_device_type  'SuperNova, Dual, Cu at zero, Atlas'
_diffrn_measurement_method       '\w scans'
_diffrn_radiation_monochromator  graphite
_diffrn_radiation_type           CuK\a
_diffrn_radiation_wavelength     1.54184
_diffrn_source                   'fine-focus sealed tube'
_diffrn_standards_decay_%        0
_diffrn_standards_interval_count 0
_diffrn_standards_interval_time  0
_diffrn_standards_number         0
_reflns_number_gt                5373
_reflns_number_total             11122
_reflns_threshold_expression     >2sigma(I)
_computing_cell_refinement       ?
_computing_data_collection       ?
_computing_data_reduction        ?
_computing_molecular_graphics    
;
O. V. Dolomanov, L. J. Bourhis, R. J. Gildea, J. A. K. Howard and H. Puschmann,
OLEX2: a complete structure solution, refinement and analysis program.
J. Appl. Cryst. (2009). 42, 339-341.
;
_computing_publication_material  
;
O. V. Dolomanov, L. J. Bourhis, R. J. Gildea, J. A. K. Howard and H. Puschmann,
OLEX2: a complete structure solution, refinement and analysis program.
J. Appl. Cryst. (2009). 42, 339-341.
;
_computing_structure_refinement  
;
SHELXL, G.M. Sheldrick, Acta Cryst.
(2008). A64, 112-122
;
_computing_structure_solution    'J. Appl. Cryst. (2007) 40, 786-790'
_refine_diff_density_max         0.537
_refine_diff_density_min         -0.444
_refine_diff_density_rms         0.096
_refine_ls_extinction_coef       ?
_refine_ls_extinction_method     none
_refine_ls_goodness_of_fit_ref   1.024
_refine_ls_hydrogen_treatment    mixed
_refine_ls_matrix_type           full
_refine_ls_number_parameters     697
_refine_ls_number_reflns         11122
_refine_ls_number_restraints     0
_refine_ls_R_factor_all          0.1559
_refine_ls_R_factor_gt           0.0982
_refine_ls_restrained_S_all      1.024
_refine_ls_shift/su_max          0.000
_refine_ls_shift/su_mean         0.000
_refine_ls_structure_factor_coef Fsqd
_refine_ls_weighting_details     
'calc w=1/[\s^2^(Fo^2^)+(0.1140P)^2^+0.0000P] where P=(Fo^2^+2Fc^2^)/3'
_refine_ls_weighting_scheme      calc
_refine_ls_wR_factor_gt          0.2482
_refine_ls_wR_factor_ref         0.2785
_refine_special_details          
;
 Refinement of F^2^ against ALL reflections.  The weighted R-factor wR and 
 goodness of fit S are based on F^2^, conventional R-factors R are based 
 on F, with F set to zero for negative F^2^. The threshold expression of 
 F^2^ > 2sigma(F^2^) is used only for calculating R-factors(gt) etc. and is 
 not relevant to the choice of reflections for refinement.  R-factors based 
 on F^2^ are statistically about twice as large as those based on F, and R- 
 factors based on ALL data will be even larger. 
;
_atom_sites_solution_hydrogens   geom
_atom_sites_solution_primary     direct
_atom_sites_solution_secondary   difmap
loop_
_atom_site_label
_atom_site_type_symbol
_atom_site_fract_x
_atom_site_fract_y
_atom_site_fract_z
_atom_site_U_iso_or_equiv
_atom_site_adp_type
_atom_site_occupancy
_atom_site_symmetry_multiplicity
_atom_site_calc_flag
_atom_site_refinement_flags
_atom_site_disorder_assembly
_atom_site_disorder_group
Co1 Co 0.17442(7) 0.30545(7) 0.25249(8) 0.0269(3) Uani 1 1 d . . .
Co2 Co 0.5000 0.0000 0.5000 0.0255(4) Uani 1 2 d S . .
O1 O 0.2018(3) 0.3726(3) 0.3622(3) 0.0298(12) Uani 1 1 d . . .
O2 O 0.1528(3) 0.1978(3) 0.2915(3) 0.0274(11) Uani 1 1 d . . .
O3 O 0.1920(3) 0.4145(3) 0.2119(3) 0.0303(12) Uani 1 1 d . . .
O4 O 0.1470(3) 0.2408(3) 0.1388(3) 0.0293(11) Uani 1 1 d . . .
O5 O 0.4030(3) -0.0351(3) 0.4082(3) 0.0244(11) Uani 1 1 d . . .
O6 O 0.5799(3) 0.0026(3) 0.4218(3) 0.0275(11) Uani 1 1 d . . .
N1 N 1.0483(4) 0.3082(4) 0.2511(4) 0.0266(14) Uani 1 1 d . . .
N2 N 0.3015(4) 0.3028(4) 0.2548(4) 0.0264(14) Uani 1 1 d . . .
N3 N 0.4987(4) 0.1277(3) 0.5033(4) 0.0230(13) Uani 1 1 d . . .
C1 C 0.9834(5) 0.2305(5) 0.2176(5) 0.0325(18) Uani 1 1 d . . .
H1 H 1.0009 0.1766 0.1958 0.039 Uiso 1 1 calc R . .
C2 C 0.8931(5) 0.2289(5) 0.2150(5) 0.0311(17) Uani 1 1 d . . .
H2 H 0.8500 0.1752 0.1887 0.037 Uiso 1 1 calc R . .
C3 C 0.8649(5) 0.3070(5) 0.2513(5) 0.0292(17) Uani 1 1 d . . .
C4 C 0.9318(5) 0.3862(5) 0.2866(5) 0.0328(18) Uani 1 1 d . . .
H4 H 0.9161 0.4400 0.3116 0.039 Uiso 1 1 calc R . .
C5 C 1.0216(5) 0.3842(5) 0.2841(5) 0.0357(19) Uani 1 1 d . . .
H5 H 1.058(6) 0.435(5) 0.306(5) 0.043 Uiso 1 1 d . . .
C6 C 0.7668(5) 0.3046(5) 0.2531(5) 0.0304(17) Uani 1 1 d . . .
C7 C 0.7393(5) 0.3563(5) 0.3209(5) 0.0345(18) Uani 1 1 d . . .
H7 H 0.7829 0.3926 0.3654 0.041 Uiso 1 1 calc R . .
C8 C 0.6488(5) 0.3541(5) 0.3226(5) 0.0354(18) Uani 1 1 d . . .
H8 H 0.6318 0.3885 0.3685 0.043 Uiso 1 1 calc R . .
C9 C 0.5827(5) 0.3017(5) 0.2574(5) 0.0296(17) Uani 1 1 d . . .
C10 C 0.6095(5) 0.2488(5) 0.1896(5) 0.0349(18) Uani 1 1 d . . .
H10 H 0.5658 0.2110 0.1459 0.042 Uiso 1 1 calc R . .
C11 C 0.7014(5) 0.2530(5) 0.1875(5) 0.0356(19) Uani 1 1 d . . .
H11 H 0.7189 0.2203 0.1410 0.043 Uiso 1 1 calc R . .
C12 C 0.3285(5) 0.2236(5) 0.2394(5) 0.0350(18) Uani 1 1 d . . .
H12 H 0.2846 0.1687 0.2268 0.042 Uiso 1 1 calc R . .
C13 C 0.4184(5) 0.2198(5) 0.2412(5) 0.038(2) Uani 1 1 d . . .
H13 H 0.4343 0.1632 0.2313 0.046 Uiso 1 1 calc R . .
C14 C 0.4860(5) 0.3013(5) 0.2580(5) 0.0320(18) Uani 1 1 d . . .
C15 C 0.4560(5) 0.3822(5) 0.2749(5) 0.0366(19) Uani 1 1 d . . .
H15 H 0.4981 0.4384 0.2877 0.044 Uiso 1 1 calc R . .
C16 C 0.3666(5) 0.3807(5) 0.2730(5) 0.0356(19) Uani 1 1 d . . .
H16 H 0.3492 0.4365 0.2849 0.043 Uiso 1 1 calc R . .
C17 C 0.1888(5) 0.3145(4) 0.4127(5) 0.0265(16) Uani 1 1 d . . .
C18 C 0.1971(5) 0.3449(5) 0.4976(5) 0.0339(18) Uani 1 1 d . . .
H18 H 0.2132 0.4078 0.5211 0.041 Uiso 1 1 calc R . .
C19 C 0.1820(6) 0.2838(6) 0.5493(5) 0.044(2) Uani 1 1 d . . .
C20 C 0.1598(5) 0.1897(5) 0.5110(5) 0.040(2) Uani 1 1 d . . .
H20 H 0.1519 0.1479 0.5446 0.048 Uiso 1 1 calc R . .
C21 C 0.1486(5) 0.1551(5) 0.4250(5) 0.0341(19) Uani 1 1 d . . .
C22 C 0.1631(4) 0.2193(4) 0.3744(5) 0.0249(16) Uani 1 1 d . . .
C23 C 0.1936(7) 0.3193(6) 0.6431(6) 0.056(3) Uani 1 1 d . . .
C24 C 0.1469(10) 0.4016(7) 0.6626(7) 0.094(4) Uani 1 1 d . . .
H24A H 0.1800 0.4532 0.6456 0.140 Uiso 1 1 calc R . .
H24B H 0.1464 0.4182 0.7213 0.140 Uiso 1 1 calc R . .
H24C H 0.0854 0.3843 0.6331 0.140 Uiso 1 1 calc R . .
C25 C 0.2915(9) 0.3463(13) 0.6787(7) 0.135(7) Uani 1 1 d . . .
H25A H 0.3171 0.2930 0.6706 0.203 Uiso 1 1 calc R . .
H25B H 0.2989 0.3732 0.7371 0.203 Uiso 1 1 calc R . .
H25C H 0.3221 0.3904 0.6516 0.203 Uiso 1 1 calc R . .
C26 C 0.1433(10) 0.2492(7) 0.6848(7) 0.091(4) Uani 1 1 d . . .
H26A H 0.0802 0.2311 0.6598 0.136 Uiso 1 1 calc R . .
H26B H 0.1486 0.2760 0.7429 0.136 Uiso 1 1 calc R . .
H26C H 0.1695 0.1962 0.6779 0.136 Uiso 1 1 calc R . .
C27 C 0.1168(6) 0.0508(5) 0.3851(5) 0.041(2) Uani 1 1 d . . .
C28 C 0.1192(7) -0.0071(5) 0.4486(6) 0.054(2) Uani 1 1 d . . .
H28A H 0.1007 -0.0710 0.4210 0.081 Uiso 1 1 calc R . .
H28B H 0.0784 0.0075 0.4865 0.081 Uiso 1 1 calc R . .
H28C H 0.1800 0.0056 0.4789 0.081 Uiso 1 1 calc R . .
C29 C 0.0187(5) 0.0333(6) 0.3404(6) 0.049(2) Uani 1 1 d . . .
H29A H 0.0172 0.0660 0.2968 0.074 Uiso 1 1 calc R . .
H29B H -0.0187 0.0544 0.3794 0.074 Uiso 1 1 calc R . .
H29C H -0.0040 -0.0314 0.3170 0.074 Uiso 1 1 calc R . .
C30 C 0.1803(6) 0.0210(5) 0.3241(6) 0.052(2) Uani 1 1 d . . .
H30A H 0.1775 0.0534 0.2803 0.078 Uiso 1 1 calc R . .
H30B H 0.1610 -0.0440 0.3007 0.078 Uiso 1 1 calc R . .
H30C H 0.2417 0.0352 0.3532 0.078 Uiso 1 1 calc R . .
C31 C 0.1756(5) 0.3956(5) 0.1333(5) 0.0312(17) Uani 1 1 d . . .
C32 C 0.1796(6) 0.4636(6) 0.0859(5) 0.045(2) Uani 1 1 d . . .
H32 H 0.1941 0.5256 0.1127 0.054 Uiso 1 1 calc R . .
C33 C 0.1623(7) 0.4385(6) 0.0030(6) 0.058(3) Uani 1 1 d . . .
C34 C 0.1403(7) 0.3440(6) -0.0381(5) 0.052(2) Uani 1 1 d . . .
H34 H 0.1308 0.3289 -0.0959 0.062 Uiso 1 1 calc R . .
C35 C 0.1320(6) 0.2731(5) 0.0027(5) 0.043(2) Uani 1 1 d . . .
C36 C 0.1504(5) 0.2979(5) 0.0904(5) 0.0275(16) Uani 1 1 d . . .
C37 C 0.1659(9) 0.5097(6) -0.0520(7) 0.069(3) Uani 1 1 d . . .
C38 C 0.1841(11) 0.6085(6) 0.0012(7) 0.100(5) Uani 1 1 d . . .
H38A H 0.1806 0.6504 -0.0345 0.151 Uiso 1 1 calc R . .
H38B H 0.2438 0.6242 0.0342 0.151 Uiso 1 1 calc R . .
H38C H 0.1394 0.6126 0.0370 0.151 Uiso 1 1 calc R . .
C39 C 0.2476(10) 0.5025(8) -0.0999(7) 0.096(4) Uani 1 1 d . . .
H39A H 0.2383 0.4411 -0.1331 0.144 Uiso 1 1 calc R . .
H39B H 0.3032 0.5167 -0.0608 0.144 Uiso 1 1 calc R . .
H39C H 0.2515 0.5453 -0.1352 0.144 Uiso 1 1 calc R . .
C40 C 0.0783(9) 0.4895(7) -0.1108(7) 0.085(4) Uani 1 1 d . . .
H40A H 0.0679 0.4286 -0.1453 0.127 Uiso 1 1 calc R . .
H40B H 0.0814 0.5333 -0.1450 0.127 Uiso 1 1 calc R . .
H40C H 0.0292 0.4935 -0.0799 0.127 Uiso 1 1 calc R . .
C41 C 0.1049(7) 0.1695(6) -0.0422(5) 0.057(3) Uani 1 1 d . . .
C42 C 0.1764(8) 0.1193(6) -0.0160(6) 0.065(3) Uani 1 1 d . . .
H42A H 0.2340 0.1474 -0.0283 0.098 Uiso 1 1 calc R . .
H42B H 0.1589 0.0560 -0.0457 0.098 Uiso 1 1 calc R . .
H42C H 0.1816 0.1229 0.0426 0.098 Uiso 1 1 calc R . .
C43 C 0.0124(7) 0.1287(6) -0.0188(7) 0.067(3) Uani 1 1 d . . .
H43A H 0.0198 0.1326 0.0400 0.100 Uiso 1 1 calc R . .
H43B H -0.0086 0.0655 -0.0483 0.100 Uiso 1 1 calc R . .
H43C H -0.0314 0.1629 -0.0336 0.100 Uiso 1 1 calc R . .
C44 C 0.0942(11) 0.1571(7) -0.1376(6) 0.104(5) Uani 1 1 d . . .
H44A H 0.0435 0.1809 -0.1567 0.155 Uiso 1 1 calc R . .
H44B H 0.0837 0.0929 -0.1637 0.155 Uiso 1 1 calc R . .
H44C H 0.1488 0.1899 -0.1516 0.155 Uiso 1 1 calc R . .
C45 C 0.4365(5) -0.0332(4) 0.3392(5) 0.0294(18) Uani 1 1 d . . .
C46 C 0.3807(5) -0.0516(4) 0.2615(5) 0.0324(19) Uani 1 1 d . . .
H46 H 0.3177 -0.0650 0.2577 0.039 Uiso 1 1 calc R . .
C47 C 0.4192(5) -0.0497(5) 0.1901(5) 0.0362(19) Uani 1 1 d . . .
C48 C 0.5145(5) -0.0294(5) 0.1989(5) 0.0346(19) Uani 1 1 d . . .
H48 H 0.5402 -0.0278 0.1511 0.042 Uiso 1 1 calc R . .
C49 C 0.5736(5) -0.0116(4) 0.2743(5) 0.0271(17) Uani 1 1 d . . .
C50 C 0.5320(5) -0.0136(4) 0.3452(5) 0.0274(17) Uani 1 1 d . . .
C51 C 0.3629(6) -0.0725(6) 0.1036(5) 0.051(2) Uani 1 1 d . . .
C52 C 0.2610(7) -0.0934(9) 0.1053(7) 0.082(4) Uani 1 1 d . . .
H52A H 0.2455 -0.1444 0.1307 0.123 Uiso 1 1 calc R . .
H52B H 0.2282 -0.1088 0.0495 0.123 Uiso 1 1 calc R . .
H52C H 0.2452 -0.0404 0.1368 0.123 Uiso 1 1 calc R . .
C53 C 0.3867(8) -0.1598(7) 0.0516(7) 0.080(3) Uani 1 1 d . . .
H53A H 0.4497 -0.1461 0.0456 0.120 Uiso 1 1 calc R . .
H53B H 0.3492 -0.1779 -0.0023 0.120 Uiso 1 1 calc R . .
H53C H 0.3757 -0.2091 0.0797 0.120 Uiso 1 1 calc R . .
C54 C 0.3854(8) 0.0047(8) 0.0599(7) 0.079(3) Uani 1 1 d . . .
H54A H 0.3644 0.0568 0.0868 0.118 Uiso 1 1 calc R . .
H54B H 0.3560 -0.0154 0.0029 0.118 Uiso 1 1 calc R . .
H54C H 0.4502 0.0218 0.0623 0.118 Uiso 1 1 calc R . .
C55 C 0.6769(5) 0.0065(5) 0.2796(5) 0.0368(19) Uani 1 1 d . . .
C56 C 0.7132(6) -0.0688(5) 0.3143(6) 0.045(2) Uani 1 1 d . . .
H56A H 0.6932 -0.0719 0.3664 0.068 Uiso 1 1 calc R . .
H56B H 0.7785 -0.0541 0.3226 0.068 Uiso 1 1 calc R . .
H56C H 0.6903 -0.1272 0.2756 0.068 Uiso 1 1 calc R . .
C57 C 0.7220(6) 0.1006(5) 0.3388(6) 0.045(2) Uani 1 1 d . . .
H57A H 0.6969 0.1477 0.3204 0.068 Uiso 1 1 calc R . .
H57B H 0.7865 0.1134 0.3388 0.068 Uiso 1 1 calc R . .
H57C H 0.7107 0.0993 0.3941 0.068 Uiso 1 1 calc R . .
C58 C 0.7069(6) 0.0058(5) 0.1947(5) 0.044(2) Uani 1 1 d . . .
H58A H 0.6789 -0.0521 0.1569 0.066 Uiso 1 1 calc R . .
H58B H 0.7720 0.0147 0.2010 0.066 Uiso 1 1 calc R . .
H58C H 0.6887 0.0546 0.1731 0.066 Uiso 1 1 calc R . .
C59 C 0.5774(5) 0.1888(4) 0.5124(5) 0.0292(17) Uani 1 1 d . . .
H59 H 0.6320 0.1700 0.5191 0.035 Uiso 1 1 calc R . .
C60 C 0.5786(5) 0.2797(5) 0.5120(5) 0.0328(18) Uani 1 1 d . . .
H60 H 0.6342 0.3209 0.5176 0.039 Uiso 1 1 calc R . .
C61 C 0.4991(5) 0.3105(4) 0.5034(4) 0.0272(17) Uani 1 1 d . . .
C62 C 0.4187(5) 0.2455(4) 0.4981(5) 0.0262(16) Uani 1 1 d . . .
H62 H 0.3633 0.2630 0.4949 0.031 Uiso 1 1 calc R . .
C63 C 0.4209(5) 0.1559(5) 0.4975(5) 0.0306(17) Uani 1 1 d . . .
H63 H 0.3664 0.1134 0.4929 0.037 Uiso 1 1 calc R . .
C64 C 0.4996(5) 0.4076(4) 0.5027(5) 0.0252(16) Uani 1 1 d . . .
C65 C 0.4213(5) 0.4345(5) 0.4754(5) 0.0348(19) Uani 1 1 d . . .
H65 H 0.3668 0.3904 0.4584 0.042 Uiso 1 1 calc R . .
C66 C 0.4215(5) 0.5249(4) 0.4728(5) 0.0348(19) Uani 1 1 d . . .
H66 H 0.3674 0.5401 0.4541 0.042 Uiso 1 1 calc R . .

loop_
_atom_site_aniso_label
_atom_site_aniso_U_11
_atom_site_aniso_U_22
_atom_site_aniso_U_33
_atom_site_aniso_U_23
_atom_site_aniso_U_13
_atom_site_aniso_U_12
Co1 0.0184(6) 0.0326(6) 0.0341(7) 0.0123(5) 0.0101(5) 0.0080(5)
Co2 0.0292(9) 0.0188(8) 0.0322(10) 0.0077(7) 0.0089(7) 0.0101(7)
O1 0.024(3) 0.031(3) 0.039(3) 0.017(2) 0.013(2) 0.003(2)
O2 0.022(3) 0.032(3) 0.027(3) 0.005(2) 0.005(2) 0.006(2)
O3 0.022(3) 0.033(3) 0.038(3) 0.009(2) 0.005(2) 0.009(2)
O4 0.023(3) 0.032(3) 0.036(3) 0.011(2) 0.012(2) 0.006(2)
O5 0.027(3) 0.025(2) 0.026(3) 0.011(2) 0.016(2) 0.004(2)
O6 0.039(3) 0.023(2) 0.028(3) 0.013(2) 0.015(2) 0.014(2)
N1 0.016(3) 0.034(3) 0.034(4) 0.017(3) 0.009(3) 0.005(3)
N2 0.027(3) 0.029(3) 0.030(4) 0.019(3) 0.014(3) 0.002(3)
N3 0.024(3) 0.021(3) 0.029(3) 0.014(2) 0.013(3) 0.004(2)
C1 0.031(4) 0.036(4) 0.036(5) 0.009(3) 0.017(4) 0.013(3)
C2 0.020(4) 0.029(4) 0.045(5) 0.005(3) 0.009(3) 0.009(3)
C3 0.021(4) 0.044(4) 0.030(4) 0.020(4) 0.012(3) 0.009(3)
C4 0.025(4) 0.033(4) 0.041(5) 0.006(3) 0.008(4) 0.009(3)
C5 0.028(4) 0.035(4) 0.046(5) 0.007(4) 0.008(4) 0.012(3)
C6 0.021(4) 0.035(4) 0.042(5) 0.016(4) 0.010(3) 0.013(3)
C7 0.020(4) 0.041(4) 0.043(5) 0.005(4) 0.002(3) 0.016(3)
C8 0.030(4) 0.035(4) 0.044(5) 0.008(4) 0.010(4) 0.013(3)
C9 0.018(4) 0.032(4) 0.041(5) 0.011(3) 0.009(3) 0.007(3)
C10 0.027(4) 0.039(4) 0.040(5) 0.013(4) 0.007(4) 0.008(3)
C11 0.018(4) 0.058(5) 0.036(5) 0.011(4) 0.017(4) 0.014(4)
C12 0.031(4) 0.040(4) 0.042(5) 0.021(4) 0.016(4) 0.010(4)
C13 0.024(4) 0.027(4) 0.065(6) 0.011(4) 0.016(4) 0.006(3)
C14 0.025(4) 0.043(4) 0.031(5) 0.014(3) 0.013(3) 0.002(3)
C15 0.018(4) 0.033(4) 0.061(6) 0.012(4) 0.014(4) 0.003(3)
C16 0.026(4) 0.038(4) 0.052(5) 0.018(4) 0.014(4) 0.015(3)
C18 0.028(4) 0.042(4) 0.037(5) 0.014(4) 0.016(4) 0.011(3)
C17 0.031(4) 0.021(2) 0.030(5) 0.004(3) 0.003(3) 0.012(3)
C19 0.057(6) 0.048(5) 0.039(5) 0.017(4) 0.023(4) 0.024(4)
C20 0.042(5) 0.0