
#######################################################################
#
#                 Cambridge Crystallographic Data Centre
#                                CCDC
#
#######################################################################
#
# If this CIF has been generated from an entry in the Cambridge
# Structural Database, then it will include bibliographic, chemical,
# crystal, experimental, refinement or atomic coordinate data resulting
# from the CCDC's data processing and validation procedures.
#
#######################################################################

data_CSD_CIF_DOXABR
_audit_creation_date 1971-12-31
_audit_creation_method CSD-ConQuest-V1
_database_code_CSD DOXABR
_database_code_depnum_ccdc_archive 'CCDC 1144801'
_chemical_formula_sum 'C4 H8 Br2 O2'
_chemical_formula_moiety
;
C4 H8 O2,Br2
;
_journal_coden_Cambridge 3
_journal_volume 8
_journal_year 1954
_journal_page_first 873
_journal_name_full 'Acta Chem.Scand. '
loop_
_publ_author_name
"O.Hassel"
"J.Hvoslef"
_chemical_name_systematic
;
1,4-Dioxane-bromine
;
_chemical_name_common
;
Teaching Subset: Fundamental Chemistry
;
_cell_volume    371.052
_exptl_crystal_density_diffrn 2.22
_diffrn_ambient_temperature ?
_diffrn_special_details
;
The study was carried out at room temperature,in the range 283-303K

;
_symmetry_cell_setting monoclinic
_symmetry_space_group_name_H-M 'C 2/m'
_symmetry_Int_Tables_number 12
loop_
_symmetry_equiv_pos_site_id
_symmetry_equiv_pos_as_xyz
1 x,y,z
2 1/2+x,1/2+y,z
3 -x,y,-z
4 1/2-x,1/2+y,-z
5 -x,-y,-z
6 -1/2-x,-1/2-y,-z
7 x,-y,z
8 -1/2+x,-1/2-y,z
_cell_length_a 9.65
_cell_length_b 9.05
_cell_length_c 4.25
_cell_angle_alpha 90
_cell_angle_beta 91.4
_cell_angle_gamma 90
_cell_formula_units_Z 2
loop_
_atom_type_symbol
_atom_type_radius_bond
C 0.68
Br 1.21
O 0.68
loop_
_atom_site_label
_atom_site_type_symbol
_atom_site_fract_x
_atom_site_fract_y
_atom_site_fract_z
Br1 Br 0.11200 0.00000 0.10000
O1 O 0.37950 0.00000 0.31900
C1 C 0.42200 0.13300 0.46600
Br1D Br -0.11200 0.00000 -0.10000
C1F C 0.42200 -0.13300 0.46600
C1B C 0.57800 0.13300 0.53400
C1D C 0.57800 -0.13300 0.53400
O1D O 0.62050 0.00000 0.68100
#END
