
#######################################################################
#
#                 Cambridge Crystallographic Data Centre
#                                CCDC
#
#######################################################################
#
# If this CIF has been generated from an entry in the Cambridge
# Structural Database, then it will include bibliographic, chemical,
# crystal, experimental, refinement or atomic coordinate data resulting
# from the CCDC's data processing and validation procedures.
#
#######################################################################

data_CSD_CIF_DOXCAU
_audit_creation_date 1987-04-28
_audit_creation_method CSD-ConQuest-V1
_database_code_CSD DOXCAU
_database_code_depnum_ccdc_archive 'CCDC 1144812'
_chemical_formula_sum 'C32 H30 B1 Co1 N7 O1 S1'
_chemical_formula_moiety
;
C32 H30 B1 Co1 N7 O1 S1
;
_journal_coden_Cambridge 182
_journal_year 1986
_journal_page_first 1122
_journal_name_full 'Chem.Commun. '
loop_
_publ_author_name
"J.C.Calabrese"
"S.Trofimenko"
"J.S.Thompson"
_chemical_name_systematic
;
(Hydro-tris(3-phenyl-pyrazol-1-yl)-borato-N,N',N'')-(isothiocyanato-N)-(tetrah
ydrofuran-O)-cobalt(ii)
;
_chemical_name_common
;
Teaching Subset: Fundamental Chemistry
;
_chemical_melting_point 469
_cell_volume   3032.201
_exptl_crystal_colour 'red'
_exptl_special_details
;
Melting point range 469-473K

;
_diffrn_ambient_temperature 173
#These two values have been output from a single CSD field.
_refine_ls_R_factor_gt 0.043
_refine_ls_wR_factor_gt 0.043
_symmetry_cell_setting monoclinic
_symmetry_space_group_name_H-M 'P 21/n'
_symmetry_Int_Tables_number 14
loop_
_symmetry_equiv_pos_site_id
_symmetry_equiv_pos_as_xyz
1 x,y,z
2 1/2-x,1/2+y,1/2-z
3 -x,-y,-z
4 -1/2+x,-1/2-y,-1/2+z
_cell_length_a 18.530(2)
_cell_length_b 14.177(2)
_cell_length_c 11.733(2)
_cell_angle_alpha 90
_cell_angle_beta 100.34(1)
_cell_angle_gamma 90
_cell_formula_units_Z 4
loop_
_atom_type_symbol
_atom_type_radius_bond
C 0.68
H 0.23
B 0.83
Co 1.33
N 0.68
O 0.68
S 1.02
loop_
_atom_site_label
_atom_site_type_symbol
_atom_site_fract_x
_atom_site_fract_y
_atom_site_fract_z
Co1 Co 0.14517(4) 0.16742(5) 0.33451(6)
S1 S -0.0925(1) 0.1241(1) 0.1195(1)
O1 O 0.1464(2) 0.2812(2) 0.2146(3)
N1 N 0.0494(2) 0.1284(3) 0.2489(4)
N2 N 0.2952(2) 0.1481(3) 0.4636(3)
N3 N 0.2566(2) 0.1496(3) 0.3516(3)
N4 N 0.2000(2) 0.0667(3) 0.5562(3)
N5 N 0.1535(2) 0.0484(3) 0.4539(3)
N6 N 0.2111(2) 0.2429(3) 0.5620(3)
N7 N 0.1537(2) 0.2602(3) 0.4735(3)
C1 C -0.0099(3) 0.1258(3) 0.1950(4)
C2 C 0.1990(3) 0.3581(3) 0.2290(5)
C3 C 0.1962(4) 0.3979(4) 0.1112(6)
C4 C 0.1183(5) 0.3813(5) 0.0531(6)
C5 C 0.0945(3) 0.2957(4) 0.1076(5)
C6 C 0.3673(3) 0.1467(4) 0.4614(4)
C7 C 0.3770(3) 0.1479(4) 0.3484(4)
C8 C 0.3070(3) 0.1487(3) 0.2817(4)
C9 C 0.2848(3) 0.1479(3) 0.1552(4)
C10 C 0.3258(3) 0.1965(3) 0.0863(5)
C11 C 0.3047(4) 0.1980(4) -0.0337(5)
C12 C 0.2419(4) 0.1506(4) -0.0847(5)
C13 C 0.2003(3) 0.1007(4) -0.0187(5)
C14 C 0.2229(3) 0.0998(3) 0.1011(4)
C15 C 0.1906(3) 0.0036(4) 0.6367(4)
C16 C 0.1368(3) -0.0585(4) 0.5886(4)
C17 C 0.1152(3) -0.0295(3) 0.4735(4)
C18 C 0.0641(3) -0.0780(3) 0.3829(4)
C19 C 0.0030(3) -0.1242(4) 0.4110(4)
C20 C -0.0431(3) -0.1764(4) 0.3279(5)
C21 C -0.0303(3) -0.1815(4) 0.2156(5)
C22 C 0.0303(3) -0.1357(3) 0.1876(4)
C23 C 0.0768(3) -0.0853(3) 0.2695(4)
C24 C 0.2230(2) 0.3190(4) 0.6310(4)
C25 C 0.1726(3) 0.3872(4) 0.5891(5)
C26 C 0.1296(2) 0.3482(3) 0.4911(4)
C27 C 0.0655(3) 0.3889(3) 0.4146(4)
C28 C 0.0076(2) 0.3330(4) 0.3623(4)
C29 C -0.0516(3) 0.3727(4) 0.2894(5)
C30 C -0.0556(3) 0.4683(4) 0.2716(5)
C31 C 0.0002(3) 0.5253(4) 0.3265(5)
C32 C 0.0610(3) 0.4869(4) 0.3970(5)
B1 B 0.2542(3) 0.1503(4) 0.5664(5)
H1 H 0.28770 0.14650 0.63540
H2 H 0.24660 0.33460 0.25730
H3 H 0.18380 0.40510 0.27800
H4 H 0.22800 0.36340 0.07210
H5 H 0.20560 0.46410 0.11700
H6 H 0.08920 0.43400 0.06880
H7 H 0.11670 0.37130 -0.02670
H8 H 0.04680 0.30510 0.12600
H9 H 0.09610 0.24280 0.05840
H10 H 0.40540 0.14430 0.52680
H11 H 0.42200 0.14930 0.32070
H12 H 0.36910 0.22990 0.12100
H13 H 0.33290 0.23020 -0.08120
H14 H 0.22620 0.15370 -0.16590
H15 H 0.15720 0.06780 -0.05390
H16 H 0.19550 0.06430 0.14720
H17 H 0.21580 0.00120 0.71450
H18 H 0.11730 -0.10920 0.62550
H19 H -0.00690 -0.12040 0.48760
H20 H -0.08320 -0.20960 0.34860
H21 H -0.06310 -0.21500 0.15860
H22 H 0.03880 -0.13940 0.11040
H23 H 0.11850 -0.05490 0.24920
H24 H 0.25970 0.32470 0.69790
H25 H 0.16860 0.44840 0.62020
H26 H 0.00930 0.26680 0.37630
H27 H -0.09020 0.33320 0.25150
H28 H -0.09550 0.49520 0.22130
H29 H -0.00290 0.59140 0.31540
H30 H 0.09990 0.52700 0.43380
#END
