
#######################################################################
#
#                 Cambridge Crystallographic Data Centre
#                                CCDC
#
#######################################################################
#
# If this CIF has been generated from an entry in the Cambridge
# Structural Database, then it will include bibliographic, chemical,
# crystal, experimental, refinement or atomic coordinate data resulting
# from the CCDC's data processing and validation procedures.
#
#######################################################################

data_CSD_CIF_DPENAM02
_audit_creation_date 2002-09-27
_audit_creation_method CSD-ConQuest-V1
_database_code_CSD DPENAM02
_database_code_depnum_ccdc_archive 'CCDC 192986'
_chemical_formula_sum 'C18 H16 N2'
_chemical_formula_moiety
;
C18 H16 N2
;
_journal_coeditor_code "IUCr NA1567"
_journal_coden_Cambridge 591
_journal_volume 58
_journal_year 2002
_journal_page_first o416
_journal_name_full 'Acta Crystallogr.,Sect.C:Cryst.Struct.Commun. '
loop_
_publ_author_name
"A.Gawlicka-Chruszcz"
"K.Stadnicka"
_chemical_name_systematic
;
N,N'-Diphenyl-1,4-phenylenediamine
;
_chemical_name_common
;
Teaching Subset: Fundamental Chemistry, Symmetry
;
_cell_volume   1336.855
_exptl_crystal_colour 'colorless'
_exptl_crystal_density_diffrn 1.293
_exptl_special_details
;
orthorhombic polymorph

;
_exptl_crystal_description 'plate'
_exptl_crystal_preparation 'benzene'
_diffrn_ambient_temperature 295
#These two values have been output from a single CSD field.
_refine_ls_R_factor_gt 0.049
_refine_ls_wR_factor_gt 0.049
_symmetry_cell_setting orthorhombic
_symmetry_space_group_name_H-M 'P b c a'
_symmetry_Int_Tables_number 61
loop_
_symmetry_equiv_pos_site_id
_symmetry_equiv_pos_as_xyz
1 x,y,z
2 1/2-x,-y,1/2+z
3 -x,1/2+y,1/2-z
4 1/2+x,1/2-y,-z
5 -x,-y,-z
6 -1/2+x,y,-1/2-z
7 x,-1/2-y,-1/2+z
8 -1/2-x,-1/2+y,z
_cell_length_a 25.678(4)
_cell_length_b 7.4815(13)
_cell_length_c 6.9588(12)
_cell_angle_alpha 90
_cell_angle_beta 90
_cell_angle_gamma 90
_cell_formula_units_Z 4
loop_
_atom_type_symbol
_atom_type_radius_bond
C 0.68
H 0.23
N 0.68
loop_
_atom_site_label
_atom_site_type_symbol
_atom_site_fract_x
_atom_site_fract_y
_atom_site_fract_z
N1 N 0.55620(8) 0.4452(3) 0.1576(3)
C1 C 0.60827(9) 0.4780(3) 0.1085(3)
C2 C 0.63875(10) 0.6114(4) 0.1871(3)
C3 C 0.6899(1) 0.6322(4) 0.1263(4)
C4 C 0.71117(10) 0.5234(4) -0.0113(4)
C5 C 0.67998(11) 0.3961(4) -0.0962(4)
C6 C 0.62949(11) 0.3733(4) -0.0374(4)
C7 C 0.52980(9) 0.4772(3) 0.3319(3)
C8 C 0.47676(9) 0.4446(4) 0.3342(3)
C9 C 0.55274(9) 0.5347(4) 0.5006(3)
H1 H 0.5385(10) 0.366(4) 0.083(4)
H2 H 0.6248(10) 0.699(4) 0.269(4)
H3 H 0.7108(9) 0.724(4) 0.183(4)
H4 H 0.7480(12) 0.537(4) -0.048(4)
H5 H 0.6917(11) 0.314(4) -0.198(5)
H6 H 0.6091(10) 0.292(4) -0.092(4)
H7 H 0.4617(8) 0.409(3) 0.223(3)
H8 H 0.5901(10) 0.560(4) 0.512(4)
C9D C 0.44726(9) 0.4653(4) 0.4994(3)
C7D C 0.47020(9) 0.5228(3) 0.6681(3)
N1D N 0.44380(8) 0.5548(3) 0.8424(3)
C1D C 0.39173(9) 0.5220(3) 0.8915(3)
C2D C 0.36125(10) 0.3886(4) 0.8129(3)
C3D C 0.3101(1) 0.3678(4) 0.8737(4)
C4D C 0.28883(10) 0.4766(4) 1.0113(4)
C5D C 0.32002(11) 0.6039(4) 1.0962(4)
C6D C 0.37051(11) 0.6267(4) 1.0374(4)
H6D H 0.3909(10) 0.708(4) 1.092(4)
H5D H 0.3083(11) 0.686(4) 1.198(5)
H4D H 0.2520(12) 0.463(4) 1.048(4)
H3D H 0.2892(9) 0.276(4) 0.817(4)
H2D H 0.3752(10) 0.301(4) 0.731(4)
H1D H 0.4615(10) 0.634(4) 0.917(4)
C8D C 0.52324(9) 0.5554(4) 0.6658(3)
H7D H 0.5383(8) 0.591(3) 0.777(3)
H8D H 0.4099(10) 0.440(4) 0.488(4)
#END
