
#######################################################################
#
#                 Cambridge Crystallographic Data Centre
#                                CCDC
#
#######################################################################
#
# If this CIF has been generated from an entry in the Cambridge
# Structural Database, then it will include bibliographic, chemical,
# crystal, experimental, refinement or atomic coordinate data resulting
# from the CCDC's data processing and validation procedures.
#
#######################################################################

data_CSD_CIF_DPPHOL
_audit_creation_date 1978-11-29
_audit_creation_method CSD-ConQuest-V1
_database_code_CSD DPPHOL
_database_code_depnum_ccdc_archive 'CCDC 1145370'
_chemical_formula_sum 'C18 H14 O1'
_chemical_formula_moiety
;
C18 H14 O1
;
_journal_coeditor_code "IUCr A16279"
_journal_coden_Cambridge 107
_journal_volume 34
_journal_year 1978
_journal_page_first 2357
_journal_name_full 'Acta Crystallogr.,Sect.B:Struct.Crystallogr.Cryst.Chem. '
loop_
_publ_author_name
"K.Nakatsu"
"H.Yoshioka"
"K.Kunimoto"
"T.Kinugasa"
"S.Ueji"
_chemical_name_systematic
;
2,6-Diphenylphenol
;
_chemical_name_common
;
Teaching Subset: Fundamental Chemistry
;
_cell_volume   1308.145
_diffrn_ambient_temperature ?
_diffrn_special_details
;
The study was carried out at room temperature,in the range 283-303K

;
#These two values have been output from a single CSD field.
_refine_ls_R_factor_gt 0.052
_refine_ls_wR_factor_gt 0.052
_symmetry_cell_setting orthorhombic
_symmetry_space_group_name_H-M 'P 21 21 21'
_symmetry_Int_Tables_number 19
loop_
_symmetry_equiv_pos_site_id
_symmetry_equiv_pos_as_xyz
1 x,y,z
2 1/2+x,1/2-y,-z
3 -x,1/2+y,1/2-z
4 1/2-x,-y,1/2+z
_cell_length_a 11.165(1)
_cell_length_b 18.399(2)
_cell_length_c 6.368(1)
_cell_angle_alpha 90
_cell_angle_beta 90
_cell_angle_gamma 90
_cell_formula_units_Z 4
loop_
_atom_type_symbol
_atom_type_radius_bond
C 0.68
H 0.23
O 0.68
loop_
_atom_site_label
_atom_site_type_symbol
_atom_site_fract_x
_atom_site_fract_y
_atom_site_fract_z
O1 O 0.28340 0.15890 0.04800
C1 C 0.31080 0.12070 0.22840
C2 C 0.42390 0.08740 0.25180
C3 C 0.44460 0.04910 0.43820
C4 C 0.35960 0.04530 0.59350
C5 C 0.25060 0.07860 0.56570
C6 C 0.22300 0.11690 0.38260
C7 C 0.51730 0.09040 0.08720
C8 C 0.57160 0.02690 0.01570
C9 C 0.65940 0.02880 -0.13800
C10 C 0.69370 0.09380 -0.22430
C11 C 0.64260 0.15760 -0.15570
C12 C 0.55610 0.15620 0.00100
C13 C 0.10220 0.15000 0.36130
C14 C 0.04940 0.18640 0.52980
C15 C -0.06520 0.21370 0.51630
C16 C -0.13070 0.20510 0.33500
C17 C -0.08050 0.16960 0.16530
C18 C 0.03550 0.14250 0.17720
H1 H 0.34300 0.15400 -0.05000
H2 H 0.53100 0.02200 0.46500
H3 H 0.37300 0.01900 0.72300
H4 H 0.19300 0.07700 0.66300
H5 H 0.54000 -0.01900 0.06400
H6 H 0.69600 -0.01600 -0.19000
H7 H 0.75400 0.09700 -0.32600
H8 H 0.66600 0.20500 -0.22500
H9 H 0.52100 0.20400 0.05400
H10 H 0.09500 0.19200 0.65400
H11 H -0.10400 0.23900 0.65000
H12 H -0.21900 0.22500 0.32000
H13 H -0.12300 0.16300 0.02600
H14 H 0.07200 0.11800 0.05700
#END
