
#######################################################################
#
#                 Cambridge Crystallographic Data Centre
#                                CCDC
#
#######################################################################
#
# If this CIF has been generated from an entry in the Cambridge
# Structural Database, then it will include bibliographic, chemical,
# crystal, experimental, refinement or atomic coordinate data resulting
# from the CCDC's data processing and validation procedures.
#
#######################################################################

data_CSD_CIF_DPUREA
_audit_creation_date 1979-10-24
_audit_creation_method CSD-ConQuest-V1
_database_code_CSD DPUREA
_database_code_depnum_ccdc_archive 'CCDC 1145447'
_chemical_formula_sum 'C13 H12 N2 O1'
_chemical_formula_moiety
;
C13 H12 N2 O1
;
_journal_coden_Cambridge 189
_journal_volume 8
_journal_year 1979
_journal_page_first 429
_journal_name_full 'Cryst.Struct.Commun. '
loop_
_publ_author_name
"W.Dannecker"
"J.Kopf"
"H.Rust"
_chemical_name_systematic
;
N,N'-Diphenylurea
;
_chemical_name_common
;
Teaching Subset: Fundamental Chemistry; DrugBank: DB07496
;
_cell_volume   1127.065
_exptl_crystal_colour 'colorless'
_exptl_crystal_density_diffrn 1.25
_diffrn_ambient_temperature ?
_diffrn_special_details
;
The study was carried out at room temperature,in the range 283-303K

;
#These two values have been output from a single CSD field.
_refine_ls_R_factor_gt 0.038
_refine_ls_wR_factor_gt 0.038
_symmetry_cell_setting orthorhombic
_symmetry_space_group_name_H-M 'P n a 21'
_symmetry_Int_Tables_number 33
loop_
_symmetry_equiv_pos_site_id
_symmetry_equiv_pos_as_xyz
1 x,y,z
2 1/2-x,1/2+y,1/2+z
3 1/2+x,1/2-y,z
4 -x,-y,1/2+z
_cell_length_a 9.091(8)
_cell_length_b 10.535(9)
_cell_length_c 11.768(10)
_cell_angle_alpha 90
_cell_angle_beta 90
_cell_angle_gamma 90
_cell_formula_units_Z 4
loop_
_atom_type_symbol
_atom_type_radius_bond
C 0.68
H 0.23
N 0.68
O 0.68
loop_
_atom_site_label
_atom_site_type_symbol
_atom_site_fract_x
_atom_site_fract_y
_atom_site_fract_z
C1 C 0.53320 0.82510 -0.02910
C2 C 0.42760 0.75730 -0.08720
C3 C 0.37870 0.80140 -0.19190
C4 C 0.43780 0.90830 -0.23850
C5 C 0.54330 0.97580 -0.18000
C6 C 0.59150 0.93430 -0.07480
C7 C 0.53500 0.65510 0.35960
C8 C 0.60570 0.69100 0.45880
C9 C 0.55300 0.64820 0.56150
C10 C 0.43310 0.56950 0.56850
C11 C 0.36610 0.53230 0.46980
C12 C 0.41720 0.57390 0.36550
C13 C 0.51140 0.73520 0.16350
O1 O 0.37650 0.72320 0.16140
N1 N 0.58990 0.78230 0.07680
N2 N 0.59250 0.70090 0.25540
H1 H 0.39480 0.69090 -0.06300
H2 H 0.30930 0.75090 -0.23750
H3 H 0.41180 0.95190 -0.31740
H4 H 0.57200 1.06620 -0.21550
H5 H 0.66340 0.97910 -0.03550
H6 H 0.68970 0.76240 0.45640
H7 H 0.59740 0.67990 0.61350
H8 H 0.40160 0.55310 0.64160
H9 H 0.28310 0.47450 0.47680
H10 H 0.36590 0.54500 0.30000
H11 H 0.69190 0.78780 0.08970
H12 H 0.68260 0.72670 0.25030
#END
