
#######################################################################
#
#                 Cambridge Crystallographic Data Centre
#                                CCDC
#
#######################################################################
#
# If this CIF has been generated from an entry in the Cambridge
# Structural Database, then it will include bibliographic, chemical,
# crystal, experimental, refinement or atomic coordinate data resulting
# from the CCDC's data processing and validation procedures.
#
#######################################################################

data_CSD_CIF_DPYOLA
_audit_creation_date 1979-05-11
_audit_creation_method CSD-ConQuest-V1
_database_code_CSD DPYOLA
_database_code_depnum_ccdc_archive 'CCDC 1145461'
_chemical_formula_sum 'C40 H32 Cl3 La1 N8 O20'
_chemical_formula_moiety
;
C40 H32 La1 N8 O8 3+,3(Cl1 O4 1-)
;
_journal_coden_Cambridge 9
_journal_volume 17
_journal_year 1978
_journal_page_first 3702
_journal_name_full 'Inorg.Chem. '
loop_
_publ_author_name
"A.R.Al-Karaghouli"
"R.O.Day"
"J.S.Wood"
_chemical_name_systematic
;
tetrakis(2,2'-Bipyridine-dioxide)-lanthanum(iii) triperchlorate
;
_chemical_name_common
;
Teaching Subset: Fundamental Chemistry
;
_cell_volume   4718.024
_exptl_crystal_density_diffrn 1.695
_exptl_special_details
;
y(N4) should be 0.3512

;
_diffrn_ambient_temperature ?
_diffrn_special_details
;
The study was carried out at room temperature,in the range 283-303K

;
_refine_special_details
;
One perchlorate is disordered and has been discarded.

;
#These two values have been output from a single CSD field.
_refine_ls_R_factor_gt 0.054
_refine_ls_wR_factor_gt 0.054
_symmetry_cell_setting orthorhombic
_symmetry_space_group_name_H-M 'P b c n'
_symmetry_Int_Tables_number 60
loop_
_symmetry_equiv_pos_site_id
_symmetry_equiv_pos_as_xyz
1 x,y,z
2 1/2-x,1/2-y,1/2+z
3 1/2+x,1/2-y,-z
4 -x,y,1/2-z
5 -x,-y,-z
6 -1/2+x,-1/2+y,-1/2-z
7 -1/2-x,-1/2+y,z
8 x,-y,-1/2+z
_cell_length_a 12.990(4)
_cell_length_b 25.884(7)
_cell_length_c 14.032(5)
_cell_angle_alpha 90
_cell_angle_beta 90
_cell_angle_gamma 90
_cell_formula_units_Z 4
loop_
_atom_type_symbol
_atom_type_radius_bond
C 0.68
Cl 0.99
La 1.87
N 0.68
O 0.68
loop_
_atom_site_label
_atom_site_type_symbol
_atom_site_fract_x
_atom_site_fract_y
_atom_site_fract_z
La1 La 0.00000 0.23372 0.25000
O1 O 0.00860 0.23540 0.07130
N1 N 0.06660 0.26810 0.02380
C1 C 0.02430 0.31370 -0.00490
C2 C 0.08710 0.34890 -0.05770
C3 C 0.18930 0.33720 -0.07830
C4 C 0.22950 0.28950 -0.04840
C5 C 0.16710 0.25580 0.00200
O2 O 0.18100 0.22920 0.19100
N2 N 0.21540 0.19430 0.12710
C6 C 0.25720 0.14970 0.15820
C7 C 0.29500 0.11330 0.09450
C8 C 0.28600 0.12160 -0.00020
C9 C 0.24040 0.16900 -0.03190
C10 C 0.20610 0.20420 0.03320
O3 O 0.08270 0.15360 0.31420
N3 N 0.02820 0.11600 0.35510
C11 C 0.01350 0.11820 0.45400
C12 C -0.04110 0.07950 0.50030
C13 C -0.08060 0.03860 0.44680
C14 C -0.06550 0.03600 0.34610
C15 C -0.01210 0.07700 0.30130
O4 O 0.09030 0.31440 0.30420
N4 N 0.11770 0.35120 0.24280
C16 C 0.21230 0.35070 0.20350
C17 C 0.24170 0.39000 0.14470
C18 C 0.17610 0.43110 0.12380
C19 C 0.07760 0.43170 0.16410
C20 C 0.05070 0.39090 0.22510
Cl1 Cl 0.27660 0.01410 0.35750
O5 O 0.21180 0.04650 0.41430
O6 O 0.31190 0.04210 0.28280
O7 O 0.35750 -0.00150 0.41410
O8 O 0.22020 -0.03050 0.32720
O1C O -0.00860 0.23540 0.42870
O2C O -0.18100 0.22920 0.30900
O3C O -0.08270 0.15360 0.18580
O4C O -0.09030 0.31440 0.19580
C15C C 0.01210 0.07700 0.19870
C20C C -0.05070 0.39090 0.27490
N1C N -0.06660 0.26810 0.47620
N2C N -0.21540 0.19430 0.37290
N3C N -0.02820 0.11600 0.14490
N4C N -0.11770 0.35120 0.25720
C14C C 0.06550 0.03600 0.15390
C19C C -0.07760 0.43170 0.33590
C1C C -0.02430 0.31370 0.50490
C5C C -0.16710 0.25580 0.49800
C6C C -0.25720 0.14970 0.34180
C10C C -0.20610 0.20420 0.46680
C11C C -0.01350 0.11820 0.04600
C16C C -0.21230 0.35070 0.29650
C13C C 0.08060 0.03860 0.05320
C18C C -0.17610 0.43110 0.37620
C2C C -0.08710 0.34890 0.55770
C4C C -0.22950 0.28950 0.54840
C7C C -0.29500 0.11330 0.40550
C9C C -0.24040 0.16900 0.53190
C12C C 0.04110 0.07950 -0.00030
C17C C -0.24170 0.39000 0.35530
C3C C -0.18930 0.33720 0.57830
C8C C -0.28600 0.12160 0.50020
#END
