####################################################################### 
# 
# This file contains crystal structure data downloaded from the 
# Cambridge Structural Database (CSD) hosted by the Cambridge 
# Crystallographic Data Centre (CCDC).
# 
# Full information about CCDC data access policies and citation 
# guidelines are available at http://www.ccdc.cam.ac.uk/access/V1 
# 
# Audit and citation data items may have been added by the CCDC. 
# Please retain this information to preserve the provenance of 
# this file and to allow appropriate attribution of the data. 
# 
#######################################################################

data_nw0787_0m
_audit_block_doi                 10.5517/cc138nlm
_database_code_depnum_ccdc_archive 'CCDC 1021220'
loop_
_citation_id
_citation_doi
_citation_year
1 10.1016/j.ica.2015.02.010 2015
_audit_update_record             
;
2014-08-26 deposited with the CCDC.	2024-07-09 downloaded from the CCDC.
;

_audit_creation_method           SHELXL-97
_chemical_name_systematic        
;
 ?
;
_chemical_name_common            ?
_chemical_melting_point          ?
_chemical_formula_moiety         ?
_chemical_formula_sum            'C17 H10 Co N3 O5.25'
_chemical_formula_weight         399.21

loop_
_atom_type_symbol
_atom_type_description
_atom_type_scat_dispersion_real
_atom_type_scat_dispersion_imag
_atom_type_scat_source
C C 0.0033 0.0016 'International Tables Vol C Tables 4.2.6.8 and 6.1.1.4'
H H 0.0000 0.0000 'International Tables Vol C Tables 4.2.6.8 and 6.1.1.4'
N N 0.0061 0.0033 'International Tables Vol C Tables 4.2.6.8 and 6.1.1.4'
O O 0.0106 0.0060 'International Tables Vol C Tables 4.2.6.8 and 6.1.1.4'
Co Co 0.3494 0.9721 'International Tables Vol C Tables 4.2.6.8 and 6.1.1.4'

_symmetry_cell_setting           Monoclinic
_symmetry_space_group_name_H-M   C2/m

loop_
_symmetry_equiv_pos_as_xyz
'x, y, z'
'-x, y, -z'
'x+1/2, y+1/2, z'
'-x+1/2, y+1/2, -z'
'-x, -y, -z'
'x, -y, z'
'-x+1/2, -y+1/2, -z'
'x+1/2, -y+1/2, z'

_cell_length_a                   19.860(2)
_cell_length_b                   22.140(2)
_cell_length_c                   11.6844(12)
_cell_angle_alpha                90.00
_cell_angle_beta                 116.318(2)
_cell_angle_gamma                90.00
_cell_volume                     4605.2(8)
_cell_formula_units_Z            8
_cell_measurement_temperature    296(2)
_cell_measurement_reflns_used    3932
_cell_measurement_theta_min      2.29
_cell_measurement_theta_max      24.82

_exptl_crystal_description       block
_exptl_crystal_colour            colourless
_exptl_crystal_size_max          0.18
_exptl_crystal_size_mid          0.12
_exptl_crystal_size_min          0.10
_exptl_crystal_density_meas      ?
_exptl_crystal_density_diffrn    1.152
_exptl_crystal_density_method    'not measured'
_exptl_crystal_F_000             1616
_exptl_absorpt_coefficient_mu    0.772
_exptl_absorpt_correction_type   multi-scan
_exptl_absorpt_correction_T_min  0.789
_exptl_absorpt_correction_T_max  0.865
_exptl_absorpt_process_details   sadabs

_exptl_special_details           
;
 ?
;

_diffrn_ambient_temperature      296(2)
_diffrn_radiation_wavelength     0.71073
_diffrn_radiation_type           MoK\a
_diffrn_radiation_source         'fine-focus sealed tube'
_diffrn_radiation_monochromator  graphite
_diffrn_measurement_device_type  'Bruker APEX-II CCD'
_diffrn_measurement_method       '\f and \w scans'
_diffrn_detector_area_resol_mean ?
_diffrn_standards_number         0
_diffrn_standards_interval_count 0
_diffrn_standards_interval_time  0
_diffrn_standards_decay_%        0
_diffrn_reflns_number            11604
_diffrn_reflns_av_R_equivalents  0.0254
_diffrn_reflns_av_sigmaI/netI    0.0298
_diffrn_reflns_limit_h_min       -12
_diffrn_reflns_limit_h_max       23
_diffrn_reflns_limit_k_min       -25
_diffrn_reflns_limit_k_max       26
_diffrn_reflns_limit_l_min       -13
_diffrn_reflns_limit_l_max       13
_diffrn_reflns_theta_min         1.99
_diffrn_reflns_theta_max         25.05
_reflns_number_total             4178
_reflns_number_gt                3492
_reflns_threshold_expression     >2sigma(I)

_computing_data_collection       'Bruker APEX2'
_computing_cell_refinement       'Bruker SAINT'
_computing_data_reduction        'Bruker SAINT'
_computing_structure_solution    'SHELXS-97 (Sheldrick, 1990)'
_computing_structure_refinement  'SHELXL-97 (Sheldrick, 1997)'
_computing_molecular_graphics    'Bruker SHELXTL'
_computing_publication_material  'Bruker SHELXTL'

_refine_special_details          
;
 Refinement of F^2^ against ALL reflections.  The weighted R-factor wR and
 goodness of fit S are based on F^2^, conventional R-factors R are based
 on F, with F set to zero for negative F^2^. The threshold expression of
 F^2^ > 2sigma(F^2^) is used only for calculating R-factors(gt) etc. and is
 not relevant to the choice of reflections for refinement.  R-factors based
 on F^2^ are statistically about twice as large as those based on F, and R-
 factors based on ALL data will be even larger.
;

_refine_ls_structure_factor_coef Fsqd
_refine_ls_matrix_type           full
_refine_ls_weighting_scheme      calc
_refine_ls_weighting_details     
'calc w=1/[\s^2^(Fo^2^)+(0.1110P)^2^+12.6213P] where P=(Fo^2^+2Fc^2^)/3'
_atom_sites_solution_primary     direct
_atom_sites_solution_secondary   difmap
_atom_sites_solution_hydrogens   geom
_refine_ls_hydrogen_treatment    constr
_refine_ls_extinction_method     SHELXL
_refine_ls_extinction_coef       0.0017(4)
_refine_ls_extinction_expression Fc^*^=kFc[1+0.001xFc^2^\l^3^/sin(2\q)]^-1/4^
_refine_ls_number_reflns         4178
_refine_ls_number_parameters     247
_refine_ls_number_restraints     0
_refine_ls_R_factor_all          0.0680
_refine_ls_R_factor_gt           0.0588
_refine_ls_wR_factor_ref         0.1928
_refine_ls_wR_factor_gt          0.1838
_refine_ls_goodness_of_fit_ref   1.077
_refine_ls_restrained_S_all      1.077
_refine_ls_shift/su_max          0.001
_refine_ls_shift/su_mean         0.000

loop_
_atom_site_label
_atom_site_type_symbol
_atom_site_fract_x
_atom_site_fract_y
_atom_site_fract_z
_atom_site_U_iso_or_equiv
_atom_site_adp_type
_atom_site_occupancy
_atom_site_symmetry_multiplicity
_atom_site_calc_flag
_atom_site_refinement_flags
_atom_site_disorder_assembly
_atom_site_disorder_group
Co1 Co 0.31289(3) 0.12295(2) 0.61349(5) 0.0354(2) Uani 1 1 d . . .
N1 N -0.09367(18) 0.31967(16) 0.6870(3) 0.0414(8) Uani 1 1 d . . .
N2 N 0.1407(2) 0.20892(17) 0.9705(3) 0.0467(9) Uani 1 1 d . . .
N3 N 0.28160(18) 0.14144(16) 1.4228(3) 0.0389(7) Uani 1 1 d . . .
O1 O 0.31314(17) 0.12376(14) 0.8024(3) 0.0504(8) Uani 1 1 d . . .
O2 O 0.23248(17) 0.17575(14) 0.6404(3) 0.0468(7) Uani 1 1 d . . .
O3 O 0.23641(15) 0.05012(13) 0.5629(3) 0.0494(7) Uani 1 1 d . . .
O4 O 0.38474(15) 0.05017(13) 0.6393(3) 0.0465(7) Uani 1 1 d . . .
C1 C -0.0815(2) 0.2741(2) 0.6235(4) 0.0491(10) Uani 1 1 d . . .
H1 H -0.1193 0.2642 0.5434 0.059 Uiso 1 1 calc R . .
C2 C -0.0162(3) 0.2411(2) 0.6699(4) 0.0519(11) Uani 1 1 d . . .
H2 H -0.0099 0.2107 0.6206 0.062 Uiso 1 1 calc R . .
C3 C 0.0400(2) 0.2534(2) 0.7900(4) 0.0460(10) Uani 1 1 d . . .
C4 C 0.0273(3) 0.2997(2) 0.8596(4) 0.0563(12) Uani 1 1 d . . .
H4 H 0.0633 0.3091 0.9416 0.068 Uiso 1 1 calc R . .
C5 C -0.0395(3) 0.3311(2) 0.8045(4) 0.0553(12) Uani 1 1 d . . .
H5 H -0.0473 0.3619 0.8514 0.066 Uiso 1 1 calc R . .
C6 C 0.1118(2) 0.2201(2) 0.8453(4) 0.0453(10) Uani 1 1 d . . .
C7 C 0.1472(2) 0.2036(2) 0.7710(4) 0.0457(10) Uani 1 1 d . . .
H7 H 0.1256 0.2123 0.6841 0.055 Uiso 1 1 calc R . .
C8 C 0.2155(2) 0.17393(19) 0.8292(4) 0.0421(9) Uani 1 1 d . . .
C9 C 0.2448(2) 0.16011(19) 0.9574(4) 0.0432(9) Uani 1 1 d . . .
H9 H 0.2897 0.1389 0.9975 0.052 Uiso 1 1 calc R . .
C10 C 0.2060(2) 0.1785(2) 1.0256(4) 0.0414(9) Uani 1 1 d . . .
C11 C 0.3254(3) 0.1304(2) 1.3650(4) 0.0548(12) Uani 1 1 d . . .
H11 H 0.3731 0.1145 1.4134 0.066 Uiso 1 1 calc R . .
C12 C 0.3034(3) 0.1413(3) 1.2378(4) 0.0552(12) Uani 1 1 d . . .
H12 H 0.3357 0.1327 1.2019 0.066 Uiso 1 1 calc R . .
C13 C 0.2331(2) 0.16513(19) 1.1630(4) 0.0406(9) Uani 1 1 d . . .
C14 C 0.1887(3) 0.1770(3) 1.2233(4) 0.0617(14) Uani 1 1 d . . .
H14 H 0.1410 0.1934 1.1776 0.074 Uiso 1 1 calc R . .
C15 C 0.2148(3) 0.1646(2) 1.3509(4) 0.0573(13) Uani 1 1 d . . .
H15 H 0.1835 0.1730 1.3890 0.069 Uiso 1 1 calc R . .
C16 C 0.2565(2) 0.15689(19) 0.7528(4) 0.0409(9) Uani 1 1 d . . .
C17 C 0.2671(3) 0.0000 0.5786(5) 0.0379(12) Uani 1 2 d S . .
C18 C 0.3532(3) 0.0000 0.6227(5) 0.0373(12) Uani 1 2 d S . .
O5 O 0.4766(9) 0.0574(8) 0.3745(16) 0.177(6) Uiso 0.50 1 d P . .
O6 O 0.3395(16) 0.0000 0.901(3) 0.214(11) Uiso 0.50 2 d SP . .
O7 O 0.947(2) 0.1093(17) 0.500(4) 0.201(15) Uiso 0.25 1 d P . .
O8 O 0.209(2) 0.0000 0.085(4) 0.135(11) Uiso 0.25 2 d SP . .
O9 O 0.354(2) 0.0000 0.150(4) 0.136(12) Uiso 0.25 2 d SP . .

loop_
_atom_site_aniso_label
_atom_site_aniso_U_11
_atom_site_aniso_U_22
_atom_site_aniso_U_33
_atom_site_aniso_U_23
_atom_site_aniso_U_13
_atom_site_aniso_U_12
Co1 0.0367(3) 0.0435(4) 0.0286(3) 0.0005(2) 0.0168(2) 0.0002(2)
N1 0.0425(18) 0.052(2) 0.0313(17) 0.0021(14) 0.0176(14) 0.0068(15)
N2 0.048(2) 0.063(2) 0.0330(18) 0.0050(16) 0.0212(16) 0.0126(17)
N3 0.0385(17) 0.0509(19) 0.0302(16) -0.0003(14) 0.0179(14) 0.0021(15)
O1 0.0501(18) 0.070(2) 0.0385(16) 0.0104(14) 0.0267(14) 0.0169(15)
O2 0.0579(17) 0.0574(17) 0.0325(15) 0.0047(13) 0.0269(13) 0.0088(14)
O3 0.0348(14) 0.0473(17) 0.066(2) 0.0004(14) 0.0219(14) 0.0024(13)
O4 0.0365(14) 0.0425(16) 0.0605(18) -0.0013(13) 0.0214(13) -0.0028(12)
C1 0.051(2) 0.056(3) 0.035(2) -0.0014(19) 0.0139(19) 0.009(2)
C2 0.060(3) 0.058(3) 0.036(2) -0.0031(19) 0.020(2) 0.012(2)
C3 0.048(2) 0.060(3) 0.033(2) 0.0091(19) 0.0212(18) 0.013(2)
C4 0.052(3) 0.079(3) 0.032(2) -0.002(2) 0.0131(19) 0.018(2)
C5 0.053(3) 0.069(3) 0.039(2) -0.009(2) 0.016(2) 0.014(2)
C6 0.048(2) 0.059(3) 0.033(2) 0.0063(18) 0.0209(18) 0.012(2)
C7 0.050(2) 0.058(3) 0.032(2) 0.0059(18) 0.0211(18) 0.011(2)
C8 0.046(2) 0.052(2) 0.033(2) -0.0007(18) 0.0227(18) 0.0010(19)
C9 0.042(2) 0.056(3) 0.034(2) 0.0073(18) 0.0196(18) 0.0095(19)
C10 0.041(2) 0.053(2) 0.031(2) 0.0037(17) 0.0175(17) 0.0049(18)
C11 0.044(2) 0.084(3) 0.036(2) 0.012(2) 0.018(2) 0.020(2)
C12 0.048(2) 0.093(3) 0.033(2) 0.011(2) 0.026(2) 0.021(2)
C13 0.041(2) 0.053(2) 0.0288(19) 0.0038(17) 0.0169(17) 0.0078(18)
C14 0.053(3) 0.102(4) 0.037(2) 0.015(2) 0.025(2) 0.033(3)
C15 0.055(3) 0.092(4) 0.035(2) 0.011(2) 0.029(2) 0.027(3)
C16 0.044(2) 0.050(2) 0.034(2) -0.0009(17) 0.0222(18) 0.0001(19)
C17 0.034(3) 0.042(3) 0.040(3) 0.000 0.018(2) 0.000
C18 0.033(3) 0.045(3) 0.036(3) 0.000 0.017(2) 0.000

_geom_special_details            
;
 All esds (except the esd in the dihedral angle between two l.s. planes)
 are estimated using the full covariance matrix.  The cell esds are taken
 into account individually in the estimation of esds in distances, angles
 and torsion angles; correlations between esds in cell parameters are only
 used when they are defined by crystal symmetry.  An approximate (isotropic)
 treatment of cell esds is used for estimating esds involving l.s. planes.
;

loop_
_geom_bond_atom_site_label_1
_geom_bond_atom_site_label_2
_geom_bond_distance
_geom_bond_site_symmetry_2
_geom_bond_publ_flag
Co1 N3 2.071(3) 1_554 ?
Co1 O4 2.084(3) . ?
Co1 N1 2.093(3) 8 ?
Co1 O2 2.112(3) . ?
Co1 O3 2.112(3) . ?
Co1 O1 2.205(3) . ?
N1 C1 1.337(5) . ?
N1 C5 1.341(5) . ?
N1 Co1 2.093(3) 8_455 ?
N2 C6 1.336(5) . ?
N2 C10 1.346(5) . ?
N3 C15 1.319(5) . ?
N3 C11 1.339(5) . ?
N3 Co1 2.071(3) 1_556 ?
O1 C16 1.249(5) . ?
O2 C16 1.254(5) . ?
O3 C17 1.240(4) . ?
O4 C18 1.247(4) . ?
C1 C2 1.373(6) . ?
C1 H1 0.9300 . ?
C2 C3 1.378(6) . ?
C2 H2 0.9300 . ?
C3 C4 1.399(6) . ?
C3 C6 1.475(6) . ?
C4 C5 1.379(6) . ?
C4 H4 0.9300 . ?
C5 H5 0.9300 . ?
C6 C7 1.387(6) . ?
C7 C8 1.384(6) . ?
C7 H7 0.9300 . ?
C8 C9 1.379(5) . ?
C8 C16 1.500(5) . ?
C9 C10 1.392(6) . ?
C9 H9 0.9300 . ?
C10 C13 1.480(5) . ?
C11 C12 1.372(6) . ?
C11 H11 0.9300 . ?
C12 C13 1.381(6) . ?
C12 H12 0.9300 . ?
C13 C14 1.376(6) . ?
C14 C15 1.371(6) . ?
C14 H14 0.9300 . ?
C15 H15 0.9300 . ?
C17 O3 1.240(4) 6 ?
C17 C18 1.551(7) . ?
C18 O4 1.247(4) 6 ?

loop_
_geom_angle_atom_site_label_1
_geom_angle_atom_site_label_2
_geom_angle_atom_site_label_3
_geom_angle
_geom_angle_site_symmetry_1
_geom_angle_site_symmetry_3
_geom_angle_publ_flag
N3 Co1 O4 99.67(13) 1_554 . ?
N3 Co1 N1 96.31(13) 1_554 8 ?
O4 Co1 N1 89.10(12) . 8 ?
N3 Co1 O2 99.48(12) 1_554 . ?
O4 Co1 O2 157.07(12) . . ?
N1 Co1 O2 101.20(13) 8 . ?
N3 Co1 O3 90.81(13) 1_554 . ?
O4 Co1 O3 79.14(11) . . ?
N1 Co1 O3 167.15(13) 8 . ?
O2 Co1 O3 88.11(11) . . ?
N3 Co1 O1 160.32(12) 1_554 . ?
O4 Co1 O1 99.44(11) . . ?
N1 Co1 O1 88.63(12) 8 . ?
O2 Co1 O1 60.84(10) . . ?
O3 Co1 O1 88.21(12) . . ?
C1 N1 C5 116.8(4) . . ?
C1 N1 Co1 125.2(3) . 8_455 ?
C5 N1 Co1 117.9(3) . 8_455 ?
C6 N2 C10 118.1(3) . . ?
C15 N3 C11 116.3(3) . . ?
C15 N3 Co1 120.0(3) . 1_556 ?
C11 N3 Co1 123.7(3) . 1_556 ?
C16 O1 Co1 86.5(2) . . ?
C16 O2 Co1 90.5(2) . . ?
C17 O3 Co1 113.3(3) . . ?
C18 O4 Co1 113.7(3) . . ?
N1 C1 C2 123.6(4) . . ?
N1 C1 H1 118.2 . . ?
C2 C1 H1 118.2 . . ?
C1 C2 C3 119.6(4) . . ?
C1 C2 H2 120.2 . . ?
C3 C2 H2 120.2 . . ?
C2 C3 C4 117.5(4) . . ?
C2 C3 C6 122.5(4) . . ?
C4 C3 C6 120.0(4) . . ?
C5 C4 C3 118.9(4) . . ?
C5 C4 H4 120.6 . . ?
C3 C4 H4 120.6 . . ?
N1 C5 C4 123.5(4) . . ?
N1 C5 H5 118.3 . . ?
C4 C5 H5 118.3 . . ?
N2 C6 C7 123.1(4) . . ?
N2 C6 C3 115.8(3) . . ?
C7 C6 C3 121.2(4) . . ?
C6 C7 C8 118.4(4) . . ?
C6 C7 H7 120.8 . . ?
C8 C7 H7 120.8 . . ?
C9 C8 C7 119.3(4) . . ?
C9 C8 C16 120.7(4) . . ?
C7 C8 C16 120.0(4) . . ?
C8 C9 C10 118.8(4) . . ?
C8 C9 H9 120.6 . . ?
C10 C9 H9 120.6 . . ?
N2 C10 C9 122.2(4) . . ?
N2 C10 C13 115.4(3) . . ?
C9 C10 C13 122.4(4) . . ?
N3 C11 C12 123.2(4) . . ?
N3 C11 H11 118.4 . . ?
C12 C11 H11 118.4 . . ?
C11 C12 C13 120.0(4) . . ?
C11 C12 H12 120.0 . . ?
C13 C12 H12 120.0 . . ?
C14 C13 C12 116.5(4) . . ?
C14 C13 C10 120.7(4) . . ?
C12 C13 C10 122.8(4) . . ?
C15 C14 C13 119.9(4) . . ?
C15 C14 H14 120.0 . . ?
C13 C14 H14 120.0 . . ?
N3 C15 C14 124.0(4) . . ?
N3 C15 H15 118.0 . . ?
C14 C15 H15 118.0 . . ?
O1 C16 O2 121.9(4) . . ?
O1 C16 C8 119.1(4) . . ?
O2 C16 C8 119.0(4) . . ?
O3 C17 O3 127.0(5) 6 . ?
O3 C17 C18 116.5(2) 6 . ?
O3 C17 C18 116.5(2) . . ?
O4 C18 O4 125.8(5) . 6 ?
O4 C18 C17 117.1(2) . . ?
O4 C18 C17 117.1(2) 6 . ?

loop_
_geom_torsion_atom_site_label_1
_geom_torsion_atom_site_label_2
_geom_torsion_atom_site_label_3
_geom_torsion_atom_site_label_4
_geom_torsion
_geom_torsion_site_symmetry_1
_geom_torsion_site_symmetry_2
_geom_torsion_site_symmetry_3
_geom_torsion_site_symmetry_4
_geom_torsion_publ_flag
N3 Co1 O1 C16 1.5(5) 1_554 . . . ?
O4 Co1 O1 C16 -164.6(2) . . . . ?
N1 Co1 O1 C16 106.6(3) 8 . . . ?
O2 Co1 O1 C16 2.9(2) . . . . ?
O3 Co1 O1 C16 -85.9(2) . . . . ?
N3 Co1 O2 C16 176.6(3) 1_554 . . . ?
O4 Co1 O2 C16 30.3(4) . . . . ?
N1 Co1 O2 C16 -85.0(3) 8 . . . ?
O3 Co1 O2 C16 86.1(3) . . . . ?
O1 Co1 O2 C16 -2.9(2) . . . . ?
N3 Co1 O3 C17 104.1(4) 1_554 . . . ?
O4 Co1 O3 C17 4.5(3) . . . . ?
N1 Co1 O3 C17 -19.6(7) 8 . . . ?
O2 Co1 O3 C17 -156.4(4) . . . . ?
O1 Co1 O3 C17 -95.5(4) . . . . ?
N3 Co1 O4 C18 -93.3(3) 1_554 . . . ?
N1 Co1 O4 C18 170.5(3) 8 . . . ?
O2 Co1 O4 C18 53.0(5) . . . . ?
O3 Co1 O4 C18 -4.3(3) . . . . ?
O1 Co1 O4 C18 82.0(3) . . . . ?
C5 N1 C1 C2 -2.9(7) . . . . ?
Co1 N1 C1 C2 173.3(3) 8_455 . . . ?
N1 C1 C2 C3 2.1(7) . . . . ?
C1 C2 C3 C4 0.0(7) . . . . ?
C1 C2 C3 C6 -179.4(4) . . . . ?
C2 C3 C4 C5 -1.1(7) . . . . ?
C6 C3 C4 C5 178.3(4) . . . . ?
C1 N1 C5 C4 1.7(7) . . . . ?
Co1 N1 C5 C4 -174.8(4) 8_455 . . . ?
C3 C4 C5 N1 0.3(8) . . . . ?
C10 N2 C6 C7 -2.1(7) . . . . ?
C10 N2 C6 C3 179.8(4) . . . . ?
C2 C3 C6 N2 -142.8(5) . . . . ?
C4 C3 C6 N2 37.8(6) . . . . ?
C2 C3 C6 C7 39.0(7) . . . . ?
C4 C3 C6 C7 -140.4(5) . . . . ?
N2 C6 C7 C8 0.2(7) . . . . ?
C3 C6 C7 C8 178.3(4) . . . . ?
C6 C7 C8 C9 2.0(7) . . . . ?
C6 C7 C8 C16 -178.3(4) . . . . ?
C7 C8 C9 C10 -2.4(7) . . . . ?
C16 C8 C9 C10 177.9(4) . . . . ?
C6 N2 C10 C9 1.7(7) . . . . ?
C6 N2 C10 C13 -177.3(4) . . . . ?
C8 C9 C10 N2 0.5(7) . . . . ?
C8 C9 C10 C13 179.5(4) . . . . ?
C15 N3 C11 C12 -0.8(8) . . . . ?
Co1 N3 C11 C12 178.2(4) 1_556 . . . ?
N3 C11 C12 C13 0.3(8) . . . . ?
C11 C12 C13 C14 0.3(8) . . . . ?
C11 C12 C13 C10 179.4(5) . . . . ?
N2 C10 C13 C14 7.6(7) . . . . ?
C9 C10 C13 C14 -171.4(5) . . . . ?
N2 C10 C13 C12 -171.5(5) . . . . ?
C9 C10 C13 C12 9.5(7) . . . . ?
C12 C13 C14 C15 -0.6(8) . . . . ?
C10 C13 C14 C15 -179.7(5) . . . . ?
C11 N3 C15 C14 0.6(8) . . . . ?
Co1 N3 C15 C14 -178.5(4) 1_556 . . . ?
C13 C14 C15 N3 0.1(9) . . . . ?
Co1 O1 C16 O2 -5.1(4) . . . . ?
Co1 O1 C16 C8 174.1(4) . . . . ?
Co1 O2 C16 O1 5.3(4) . . . . ?
Co1 O2 C16 C8 -173.9(3) . . . . ?
C9 C8 C16 O1 8.4(6) . . . . ?
C7 C8 C16 O1 -171.2(4) . . . . ?
C9 C8 C16 O2 -172.4(4) . . . . ?
C7 C8 C16 O2 7.9(6) . . . . ?
Co1 O3 C17 O3 176.1(4) . . . 6 ?
Co1 O3 C17 C18 -3.9(6) . . . . ?
Co1 O4 C18 O4 -175.9(4) . . . 6 ?
Co1 O4 C18 C17 3.7(6) . . . . ?
O3 C17 C18 O4 -179.8(4) 6 . . . ?
O3 C17 C18 O4 0.2(8) . . . . ?
O3 C17 C18 O4 -0.2(8) 6 . . 6 ?
O3 C17 C18 O4 179.8(4) . . . 6 ?

_diffrn_measured_fraction_theta_max 0.996
_diffrn_reflns_theta_full        25.05
_diffrn_measured_fraction_theta_full 0.996
_refine_diff_density_max         0.718
_refine_diff_density_min         -0.401
_refine_diff_density_rms         0.106
