####################################################################### 
# 
# This file contains crystal structure data downloaded from the 
# Cambridge Structural Database (CSD) hosted by the Cambridge 
# Crystallographic Data Centre (CCDC).
# 
# Full information about CCDC data access policies and citation 
# guidelines are available at http://www.ccdc.cam.ac.uk/access/V1 
# 
# Audit and citation data items may have been added by the CCDC. 
# Please retain this information to preserve the provenance of 
# this file and to allow appropriate attribution of the data. 
# 
#######################################################################

data_nw0913
_audit_block_doi                 10.5517/cc138nmn
_database_code_depnum_ccdc_archive 'CCDC 1021221'
loop_
_citation_id
_citation_doi
_citation_year
1 10.1016/j.ica.2015.02.010 2015
_audit_update_record             
;
2014-08-26 deposited with the CCDC.	2024-07-09 downloaded from the CCDC.
;

_audit_creation_method           SHELXL-97
_chemical_name_systematic        
;
 ?
;
_chemical_name_common            ?
_chemical_melting_point          ?
_chemical_formula_moiety         ?
_chemical_formula_sum            'C17 H10 N3 Ni O5.25'
_chemical_formula_weight         398.99

loop_
_atom_type_symbol
_atom_type_description
_atom_type_scat_dispersion_real
_atom_type_scat_dispersion_imag
_atom_type_scat_source
C C 0.0033 0.0016 'International Tables Vol C Tables 4.2.6.8 and 6.1.1.4'
H H 0.0000 0.0000 'International Tables Vol C Tables 4.2.6.8 and 6.1.1.4'
N N 0.0061 0.0033 'International Tables Vol C Tables 4.2.6.8 and 6.1.1.4'
O O 0.0106 0.0060 'International Tables Vol C Tables 4.2.6.8 and 6.1.1.4'
Ni Ni 0.3393 1.1124 'International Tables Vol C Tables 4.2.6.8 and 6.1.1.4'

_symmetry_cell_setting           Monoclinic
_symmetry_space_group_name_H-M   C2/m

loop_
_symmetry_equiv_pos_as_xyz
'x, y, z'
'-x, y, -z'
'x+1/2, y+1/2, z'
'-x+1/2, y+1/2, -z'
'-x, -y, -z'
'x, -y, z'
'-x+1/2, -y+1/2, -z'
'x+1/2, -y+1/2, z'

_cell_length_a                   19.6700(18)
_cell_length_b                   22.239(2)
_cell_length_c                   11.6392(11)
_cell_angle_alpha                90.00
_cell_angle_beta                 116.7460(10)
_cell_angle_gamma                90.00
_cell_volume                     4546.7(7)
_cell_formula_units_Z            8
_cell_measurement_temperature    296(2)
_cell_measurement_reflns_used    3843
_cell_measurement_theta_min      2.32
_cell_measurement_theta_max      25.28

_exptl_crystal_description       block
_exptl_crystal_colour            green
_exptl_crystal_size_max          0.17
_exptl_crystal_size_mid          0.13
_exptl_crystal_size_min          0.10
_exptl_crystal_density_meas      ?
_exptl_crystal_density_diffrn    1.166
_exptl_crystal_density_method    'not measured'
_exptl_crystal_F_000             1624
_exptl_absorpt_coefficient_mu    0.880
_exptl_absorpt_correction_type   multi-scan
_exptl_absorpt_correction_T_min  0.767
_exptl_absorpt_correction_T_max  0.847
_exptl_absorpt_process_details   sadabs

_exptl_special_details           
;
 ?
;

_diffrn_ambient_temperature      296(2)
_diffrn_radiation_wavelength     0.71073
_diffrn_radiation_type           MoK\a
_diffrn_radiation_source         'fine-focus sealed tube'
_diffrn_radiation_monochromator  graphite
_diffrn_measurement_device_type  'CCD area detector'
_diffrn_measurement_method       'phi and omega scans'
_diffrn_detector_area_resol_mean ?
_diffrn_standards_number         0
_diffrn_standards_interval_count 0
_diffrn_standards_interval_time  0
_diffrn_standards_decay_%        0
_diffrn_reflns_number            11441
_diffrn_reflns_av_R_equivalents  0.0271
_diffrn_reflns_av_sigmaI/netI    0.0323
_diffrn_reflns_limit_h_min       -23
_diffrn_reflns_limit_h_max       23
_diffrn_reflns_limit_k_min       -16
_diffrn_reflns_limit_k_max       26
_diffrn_reflns_limit_l_min       -13
_diffrn_reflns_limit_l_max       13
_diffrn_reflns_theta_min         1.99
_diffrn_reflns_theta_max         25.05
_reflns_number_total             4117
_reflns_number_gt                3456
_reflns_threshold_expression     >2sigma(I)

_computing_data_collection       'Bruker SMART'
_computing_cell_refinement       'Bruker SMART'
_computing_data_reduction        'Bruker SAINT'
_computing_structure_solution    'SHELXS-97 (Sheldrick, 1990)'
_computing_structure_refinement  'SHELXL-97 (Sheldrick, 1997)'
_computing_molecular_graphics    'Bruker SHELXTL'
_computing_publication_material  'Bruker SHELXTL'

_refine_special_details          
;
 Refinement of F^2^ against ALL reflections.  The weighted R-factor wR and
 goodness of fit S are based on F^2^, conventional R-factors R are based
 on F, with F set to zero for negative F^2^. The threshold expression of
 F^2^ > 2sigma(F^2^) is used only for calculating R-factors(gt) etc. and is
 not relevant to the choice of reflections for refinement.  R-factors based
 on F^2^ are statistically about twice as large as those based on F, and R-
 factors based on ALL data will be even larger.
;

_refine_ls_structure_factor_coef Fsqd
_refine_ls_matrix_type           full
_refine_ls_weighting_scheme      calc
_refine_ls_weighting_details     
'calc w=1/[\s^2^(Fo^2^)+(0.1524P)^2^+21.5788P] where P=(Fo^2^+2Fc^2^)/3'
_atom_sites_solution_primary     direct
_atom_sites_solution_secondary   difmap
_atom_sites_solution_hydrogens   geom
_refine_ls_hydrogen_treatment    constr
_refine_ls_extinction_method     SHELXL
_refine_ls_extinction_coef       0.0018(5)
_refine_ls_extinction_expression Fc^*^=kFc[1+0.001xFc^2^\l^3^/sin(2\q)]^-1/4^
_refine_ls_number_reflns         4117
_refine_ls_number_parameters     247
_refine_ls_number_restraints     0
_refine_ls_R_factor_all          0.0764
_refine_ls_R_factor_gt           0.0663
_refine_ls_wR_factor_ref         0.2338
_refine_ls_wR_factor_gt          0.2235
_refine_ls_goodness_of_fit_ref   1.015
_refine_ls_restrained_S_all      1.015
_refine_ls_shift/su_max          0.000
_refine_ls_shift/su_mean         0.000

loop_
_atom_site_label
_atom_site_type_symbol
_atom_site_fract_x
_atom_site_fract_y
_atom_site_fract_z
_atom_site_U_iso_or_equiv
_atom_site_adp_type
_atom_site_occupancy
_atom_site_symmetry_multiplicity
_atom_site_calc_flag
_atom_site_refinement_flags
_atom_site_disorder_assembly
_atom_site_disorder_group
Ni1 Ni 0.18936(3) 0.12040(3) 0.38787(6) 0.0344(3) Uani 1 1 d . . .
N1 N 0.2188(2) 0.1383(2) 0.5756(4) 0.0380(9) Uani 1 1 d . . .
N2 N 0.3596(3) 0.2094(2) 1.0303(4) 0.0454(11) Uani 1 1 d . . .
N3 N 0.5981(2) 0.3212(2) 1.3153(4) 0.0414(10) Uani 1 1 d . . .
O1 O 0.2680(2) 0.17687(17) 1.3636(3) 0.0430(9) Uani 1 1 d . . .
O2 O 0.1904(2) 0.11990(16) 1.2036(4) 0.0453(9) Uani 1 1 d . . .
O3 O 0.26734(19) 0.05006(17) 0.4407(4) 0.0457(9) Uani 1 1 d . . .
O4 O 0.11638(19) 0.05010(16) 0.3645(4) 0.0433(8) Uani 1 1 d . . .
C1 C 0.1740(3) 0.1282(3) 0.6326(5) 0.0513(15) Uani 1 1 d . . .
H1 H 0.1260 0.1119 0.5834 0.062 Uiso 1 1 calc R . .
C2 C 0.1954(3) 0.1406(3) 0.7599(5) 0.0543(15) Uani 1 1 d . . .
H2 H 0.1619 0.1329 0.7945 0.065 Uiso 1 1 calc R . .
C3 C 0.2674(3) 0.1646(2) 0.8375(5) 0.0413(12) Uani 1 1 d . . .
C4 C 0.3133(3) 0.1756(3) 0.7784(5) 0.0578(17) Uani 1 1 d . . .
H4 H 0.3615 0.1922 0.8250 0.069 Uiso 1 1 calc R . .
C5 C 0.2874(3) 0.1619(3) 0.6497(5) 0.0593(17) Uani 1 1 d . . .
H5 H 0.3196 0.1694 0.6123 0.071 Uiso 1 1 calc R . .
C6 C 0.2949(3) 0.1788(2) 0.9755(5) 0.0401(11) Uani 1 1 d . . .
C7 C 0.2563(3) 0.1601(3) 1.0452(5) 0.0439(12) Uani 1 1 d . . .
H7 H 0.2112 0.1384 1.0050 0.053 Uiso 1 1 calc R . .
C8 C 0.2858(3) 0.1742(2) 1.1739(5) 0.0409(11) Uani 1 1 d . . .
C9 C 0.3547(3) 0.2046(3) 1.2323(5) 0.0445(13) Uani 1 1 d . . .
H9 H 0.3768 0.2135 1.3197 0.053 Uiso 1 1 calc R . .
C10 C 0.3900(3) 0.2213(3) 1.1565(5) 0.0454(12) Uani 1 1 d . . .
C11 C 0.5878(3) 0.2752(3) 1.3808(5) 0.0470(12) Uani 1 1 d . . .
H11 H 0.6269 0.2651 1.4608 0.056 Uiso 1 1 calc R . .
C12 C 0.5206(3) 0.2423(3) 1.3326(5) 0.0505(13) Uani 1 1 d . . .
H12 H 0.5146 0.2118 1.3819 0.061 Uiso 1 1 calc R . .
C13 C 0.4629(3) 0.2546(3) 1.2124(5) 0.0446(12) Uani 1 1 d . . .
C14 C 0.4748(3) 0.3016(3) 1.1427(6) 0.0547(15) Uani 1 1 d . . .
H14 H 0.4380 0.3111 1.0602 0.066 Uiso 1 1 calc R . .
C15 C 0.5421(3) 0.3335(3) 1.1989(5) 0.0524(14) Uani 1 1 d . . .
H15 H 0.5489 0.3653 1.1531 0.063 Uiso 1 1 calc R . .
C16 C 0.2451(3) 0.1558(2) 1.2512(5) 0.0403(11) Uani 1 1 d . . .
C17 C 0.2359(4) 0.0000 0.4249(6) 0.0374(15) Uani 1 2 d S . .
C18 C 0.1484(4) 0.0000 0.3810(7) 0.0367(15) Uani 1 2 d S . .
O5 O 0.9791(11) 0.0566(10) 0.3837(19) 0.165(7) Uiso 0.50 1 d P . .
O6 O 0.1573(18) 0.0000 0.101(3) 0.185(12) Uiso 0.50 2 d SP . .
O7 O 0.443(2) 0.102(2) 0.506(4) 0.165(14) Uiso 0.25 1 d P . .
O8 O 0.148(2) 0.0000 0.844(4) 0.118(13) Uiso 0.25 2 d SP . .
O9 O 0.292(3) 0.0000 0.898(5) 0.137(15) Uiso 0.25 2 d SP . .

loop_
_atom_site_aniso_label
_atom_site_aniso_U_11
_atom_site_aniso_U_22
_atom_site_aniso_U_33
_atom_site_aniso_U_23
_atom_site_aniso_U_13
_atom_site_aniso_U_12
Ni1 0.0375(4) 0.0416(4) 0.0272(4) -0.0008(2) 0.0174(3) -0.0006(2)
N1 0.040(2) 0.050(2) 0.026(2) 0.0001(18) 0.0165(18) -0.0015(19)
N2 0.049(3) 0.062(3) 0.030(2) -0.0042(19) 0.0215(19) -0.009(2)
N3 0.044(2) 0.050(3) 0.034(2) -0.0029(18) 0.0200(19) -0.0050(19)
O1 0.052(2) 0.052(2) 0.0298(18) -0.0051(15) 0.0234(16) -0.0078(16)
O2 0.050(2) 0.058(2) 0.035(2) -0.0113(16) 0.0261(18) -0.0147(17)
O3 0.0371(19) 0.047(2) 0.054(2) -0.0008(17) 0.0213(17) -0.0011(16)
O4 0.0379(18) 0.045(2) 0.050(2) -0.0006(16) 0.0217(16) 0.0009(16)
C1 0.040(3) 0.080(4) 0.033(3) -0.011(3) 0.016(2) -0.019(3)
C2 0.048(3) 0.090(4) 0.032(3) -0.010(3) 0.025(2) -0.017(3)
C3 0.043(3) 0.055(3) 0.029(2) -0.003(2) 0.020(2) -0.008(2)
C4 0.049(3) 0.094(5) 0.033(3) -0.016(3) 0.021(2) -0.032(3)
C5 0.054(3) 0.097(5) 0.034(3) -0.012(3) 0.027(3) -0.028(3)
C6 0.042(3) 0.050(3) 0.030(2) -0.004(2) 0.018(2) -0.007(2)
C7 0.043(3) 0.058(3) 0.035(3) -0.006(2) 0.021(2) -0.009(2)
C8 0.047(3) 0.049(3) 0.035(3) -0.004(2) 0.026(2) -0.007(2)
C9 0.052(3) 0.060(3) 0.024(2) -0.006(2) 0.019(2) -0.012(2)
C10 0.049(3) 0.057(3) 0.033(3) -0.007(2) 0.021(2) -0.009(2)
C11 0.051(3) 0.052(3) 0.031(3) 0.004(2) 0.013(2) -0.004(2)
C12 0.058(3) 0.059(3) 0.034(3) 0.001(2) 0.020(2) -0.011(3)
C13 0.050(3) 0.057(3) 0.030(2) -0.008(2) 0.021(2) -0.010(2)
C14 0.049(3) 0.072(4) 0.039(3) 0.002(3) 0.015(2) -0.014(3)
C15 0.052(3) 0.067(4) 0.036(3) 0.010(3) 0.018(2) -0.010(3)
C16 0.045(3) 0.048(3) 0.034(3) 0.003(2) 0.023(2) 0.000(2)
C17 0.041(4) 0.043(4) 0.030(3) 0.000 0.018(3) 0.000
C18 0.034(4) 0.045(4) 0.034(4) 0.000 0.018(3) 0.000

_geom_special_details            
;
 All esds (except the esd in the dihedral angle between two l.s. planes)
 are estimated using the full covariance matrix.  The cell esds are taken
 into account individually in the estimation of esds in distances, angles
 and torsion angles; correlations between esds in cell parameters are only
 used when they are defined by crystal symmetry.  An approximate (isotropic)
 treatment of cell esds is used for estimating esds involving l.s. planes.
;

loop_
_geom_bond_atom_site_label_1
_geom_bond_atom_site_label_2
_geom_bond_distance
_geom_bond_site_symmetry_2
_geom_bond_publ_flag
Ni1 N1 2.032(4) . ?
Ni1 O4 2.056(4) . ?
Ni1 N3 2.063(4) 8_454 ?
Ni1 O3 2.081(4) . ?
Ni1 O1 2.109(3) 1_554 ?
Ni1 O2 2.155(4) 1_554 ?
Ni1 C16 2.433(5) 1_554 ?
N1 C1 1.338(7) . ?
N1 C5 1.339(7) . ?
N2 C6 1.328(7) . ?
N2 C10 1.340(7) . ?
N3 C15 1.334(7) . ?
N3 C11 1.344(7) . ?
N3 Ni1 2.063(4) 8_556 ?
O1 C16 1.266(6) . ?
O1 Ni1 2.109(3) 1_556 ?
O2 C16 1.251(6) . ?
O2 Ni1 2.155(4) 1_556 ?
O3 C17 1.247(5) . ?
O4 C18 1.251(5) . ?
C1 C2 1.374(8) . ?
C1 H1 0.9300 . ?
C2 C3 1.399(7) . ?
C2 H2 0.9300 . ?
C3 C4 1.382(7) . ?
C3 C6 1.479(7) . ?
C4 C5 1.382(7) . ?
C4 H4 0.9300 . ?
C5 H5 0.9300 . ?
C6 C7 1.401(7) . ?
C7 C8 1.377(7) . ?
C7 H7 0.9300 . ?
C8 C9 1.387(7) . ?
C8 C16 1.506(6) . ?
C9 C10 1.397(7) . ?
C9 H9 0.9300 . ?
C10 C13 1.479(7) . ?
C11 C12 1.390(8) . ?
C11 H11 0.9300 . ?
C12 C13 1.375(7) . ?
C12 H12 0.9300 . ?
C13 C14 1.407(8) . ?
C14 C15 1.380(8) . ?
C14 H14 0.9300 . ?
C15 H15 0.9300 . ?
C16 Ni1 2.433(5) 1_556 ?
C17 O3 1.247(5) 6 ?
C17 C18 1.559(10) . ?
C18 O4 1.251(5) 6 ?

loop_
_geom_angle_atom_site_label_1
_geom_angle_atom_site_label_2
_geom_angle_atom_site_label_3
_geom_angle
_geom_angle_site_symmetry_1
_geom_angle_site_symmetry_3
_geom_angle_publ_flag
N1 Ni1 O4 97.76(16) . . ?
N1 Ni1 N3 95.25(17) . 8_454 ?
O4 Ni1 N3 89.84(16) . 8_454 ?
N1 Ni1 O3 90.79(16) . . ?
O4 Ni1 O3 81.10(14) . . ?
N3 Ni1 O3 169.73(16) 8_454 . ?
N1 Ni1 O1 99.00(15) . 1_554 ?
O4 Ni1 O1 161.09(14) . 1_554 ?
N3 Ni1 O1 97.27(16) 8_454 1_554 ?
O3 Ni1 O1 89.96(14) . 1_554 ?
N1 Ni1 O2 161.06(16) . 1_554 ?
O4 Ni1 O2 100.56(14) . 1_554 ?
N3 Ni1 O2 89.55(16) 8_454 1_554 ?
O3 Ni1 O2 87.38(15) . 1_554 ?
O1 Ni1 O2 62.17(13) 1_554 1_554 ?
N1 Ni1 C16 130.20(17) . 1_554 ?
O4 Ni1 C16 130.73(16) . 1_554 ?
N3 Ni1 C16 95.41(17) 8_454 1_554 ?
O3 Ni1 C16 86.96(16) . 1_554 ?
O1 Ni1 C16 31.35(15) 1_554 1_554 ?
O2 Ni1 C16 30.88(15) 1_554 1_554 ?
C1 N1 C5 116.4(4) . . ?
C1 N1 Ni1 124.5(4) . . ?
C5 N1 Ni1 119.1(3) . . ?
C6 N2 C10 119.1(4) . . ?
C15 N3 C11 117.7(5) . . ?
C15 N3 Ni1 117.1(4) . 8_556 ?
C11 N3 Ni1 124.9(3) . 8_556 ?
C16 O1 Ni1 88.6(3) . 1_556 ?
C16 O2 Ni1 87.0(3) . 1_556 ?
C17 O3 Ni1 112.1(4) . . ?
C18 O4 Ni1 112.6(3) . . ?
N1 C1 C2 123.4(5) . . ?
N1 C1 H1 118.3 . . ?
C2 C1 H1 118.3 . . ?
C1 C2 C3 120.2(5) . . ?
C1 C2 H2 119.9 . . ?
C3 C2 H2 119.9 . . ?
C4 C3 C2 116.4(5) . . ?
C4 C3 C6 120.1(5) . . ?
C2 C3 C6 123.5(4) . . ?
C5 C4 C3 119.8(5) . . ?
C5 C4 H4 120.1 . . ?
C3 C4 H4 120.1 . . ?
N1 C5 C4 123.9(5) . . ?
N1 C5 H5 118.1 . . ?
C4 C5 H5 118.1 . . ?
N2 C6 C7 121.8(5) . . ?
N2 C6 C3 115.7(4) . . ?
C7 C6 C3 122.5(5) . . ?
C8 C7 C6 119.3(5) . . ?
C8 C7 H7 120.4 . . ?
C6 C7 H7 120.4 . . ?
C7 C8 C9 119.0(4) . . ?
C7 C8 C16 120.7(5) . . ?
C9 C8 C16 120.3(4) . . ?
C8 C9 C10 118.3(4) . . ?
C8 C9 H9 120.8 . . ?
C10 C9 H9 120.8 . . ?
N2 C10 C9 122.4(5) . . ?
N2 C10 C13 116.5(4) . . ?
C9 C10 C13 121.0(4) . . ?
N3 C11 C12 122.1(5) . . ?
N3 C11 H11 119.0 . . ?
C12 C11 H11 119.0 . . ?
C13 C12 C11 120.4(5) . . ?
C13 C12 H12 119.8 . . ?
C11 C12 H12 119.8 . . ?
C12 C13 C14 117.3(5) . . ?
C12 C13 C10 122.8(5) . . ?
C14 C13 C10 119.9(5) . . ?
C15 C14 C13 118.8(5) . . ?
C15 C14 H14 120.6 . . ?
C13 C14 H14 120.6 . . ?
N3 C15 C14 123.6(5) . . ?
N3 C15 H15 118.2 . . ?
C14 C15 H15 118.2 . . ?
O2 C16 O1 122.0(4) . . ?
O2 C16 C8 119.4(4) . . ?
O1 C16 C8 118.5(5) . . ?
O2 C16 Ni1 62.2(3) . 1_556 ?
O1 C16 Ni1 60.0(2) . 1_556 ?
C8 C16 Ni1 174.9(4) . 1_556 ?
O3 C17 O3 126.5(7) . 6 ?
O3 C17 C18 116.7(3) . . ?
O3 C17 C18 116.7(3) 6 . ?
O4 C18 O4 125.8(6) 6 . ?
O4 C18 C17 117.1(3) 6 . ?
O4 C18 C17 117.1(3) . . ?

loop_
_geom_torsion_atom_site_label_1
_geom_torsion_atom_site_label_2
_geom_torsion_atom_site_label_3
_geom_torsion_atom_site_label_4
_geom_torsion
_geom_torsion_site_symmetry_1
_geom_torsion_site_symmetry_2
_geom_torsion_site_symmetry_3
_geom_torsion_site_symmetry_4
_geom_torsion_publ_flag
O4 Ni1 N1 C1 -28.8(5) . . . . ?
N3 Ni1 N1 C1 61.7(5) 8_454 . . . ?
O3 Ni1 N1 C1 -110.0(5) . . . . ?
O1 Ni1 N1 C1 159.9(5) 1_554 . . . ?
O2 Ni1 N1 C1 165.8(5) 1_554 . . . ?
C16 Ni1 N1 C1 163.3(4) 1_554 . . . ?
O4 Ni1 N1 C5 151.2(5) . . . . ?
N3 Ni1 N1 C5 -118.3(5) 8_454 . . . ?
O3 Ni1 N1 C5 70.0(5) . . . . ?
O1 Ni1 N1 C5 -20.0(5) 1_554 . . . ?
O2 Ni1 N1 C5 -14.2(8) 1_554 . . . ?
C16 Ni1 N1 C5 -16.6(6) 1_554 . . . ?
N1 Ni1 O3 C17 103.1(4) . . . . ?
O4 Ni1 O3 C17 5.4(4) . . . . ?
N3 Ni1 O3 C17 -22.9(11) 8_454 . . . ?
O1 Ni1 O3 C17 -157.9(4) 1_554 . . . ?
O2 Ni1 O3 C17 -95.7(4) 1_554 . . . ?
C16 Ni1 O3 C17 -126.6(4) 1_554 . . . ?
N1 Ni1 O4 C18 -94.9(4) . . . . ?
N3 Ni1 O4 C18 169.9(4) 8_454 . . . ?
O3 Ni1 O4 C18 -5.3(4) . . . . ?
O1 Ni1 O4 C18 57.4(7) 1_554 . . . ?
O2 Ni1 O4 C18 80.3(4) 1_554 . . . ?
C16 Ni1 O4 C18 72.9(5) 1_554 . . . ?
C5 N1 C1 C2 -0.2(9) . . . . ?
Ni1 N1 C1 C2 179.9(5) . . . . ?
N1 C1 C2 C3 -0.5(11) . . . . ?
C1 C2 C3 C4 1.0(10) . . . . ?
C1 C2 C3 C6 -179.5(6) . . . . ?
C2 C3 C4 C5 -1.0(10) . . . . ?
C6 C3 C4 C5 179.5(6) . . . . ?
C1 N1 C5 C4 0.2(10) . . . . ?
Ni1 N1 C5 C4 -179.8(6) . . . . ?
C3 C4 C5 N1 0.4(12) . . . . ?
C10 N2 C6 C7 1.9(8) . . . . ?
C10 N2 C6 C3 -176.8(5) . . . . ?
C4 C3 C6 N2 9.0(8) . . . . ?
C2 C3 C6 N2 -170.4(6) . . . . ?
C4 C3 C6 C7 -169.7(6) . . . . ?
C2 C3 C6 C7 10.9(9) . . . . ?
N2 C6 C7 C8 0.6(9) . . . . ?
C3 C6 C7 C8 179.2(5) . . . . ?
C6 C7 C8 C9 -2.6(9) . . . . ?
C6 C7 C8 C16 179.0(5) . . . . ?
C7 C8 C9 C10 2.2(8) . . . . ?
C16 C8 C9 C10 -179.4(5) . . . . ?
C6 N2 C10 C9 -2.4(9) . . . . ?
C6 N2 C10 C13 178.9(5) . . . . ?
C8 C9 C10 N2 0.3(9) . . . . ?
C8 C9 C10 C13 179.0(5) . . . . ?
C15 N3 C11 C12 -2.2(8) . . . . ?
Ni1 N3 C11 C12 171.6(4) 8_556 . . . ?
N3 C11 C12 C13 2.6(9) . . . . ?
C11 C12 C13 C14 -0.7(9) . . . . ?
C11 C12 C13 C10 -179.6(5) . . . . ?
N2 C10 C13 C12 -141.8(6) . . . . ?
C9 C10 C13 C12 39.4(9) . . . . ?
N2 C10 C13 C14 39.3(8) . . . . ?
C9 C10 C13 C14 -139.5(6) . . . . ?
C12 C13 C14 C15 -1.4(9) . . . . ?
C10 C13 C14 C15 177.5(5) . . . . ?
C11 N3 C15 C14 0.0(9) . . . . ?
Ni1 N3 C15 C14 -174.3(5) 8_556 . . . ?
C13 C14 C15 N3 1.9(10) . . . . ?
Ni1 O2 C16 O1 -5.0(5) 1_556 . . . ?
Ni1 O2 C16 C8 174.4(4) 1_556 . . . ?
Ni1 O1 C16 O2 5.1(5) 1_556 . . . ?
Ni1 O1 C16 C8 -174.3(4) 1_556 . . . ?
C7 C8 C16 O2 10.5(8) . . . . ?
C9 C8 C16 O2 -167.9(5) . . . . ?
C7 C8 C16 O1 -170.0(5) . . . . ?
C9 C8 C16 O1 11.6(8) . . . . ?
C7 C8 C16 Ni1 117(4) . . . 1_556 ?
C9 C8 C16 Ni1 -61(5) . . . 1_556 ?
Ni1 O3 C17 O3 175.3(5) . . . 6 ?
Ni1 O3 C17 C18 -4.7(7) . . . . ?
Ni1 O4 C18 O4 -175.1(5) . . . 6 ?
Ni1 O4 C18 C17 4.4(7) . . . . ?
O3 C17 C18 O4 179.8(5) . . . 6 ?
O3 C17 C18 O4 -0.2(9) 6 . . 6 ?
O3 C17 C18 O4 0.2(9) . . . . ?
O3 C17 C18 O4 -179.8(5) 6 . . . ?

_diffrn_measured_fraction_theta_max 0.994
_diffrn_reflns_theta_full        25.05
_diffrn_measured_fraction_theta_full 0.994
_refine_diff_density_max         0.715
_refine_diff_density_min         -0.495
_refine_diff_density_rms         0.109
