
#######################################################################
#
#                 Cambridge Crystallographic Data Centre
#                                CCDC
#
#######################################################################
#
# If this CIF has been generated from an entry in the Cambridge
# Structural Database, then it will include bibliographic, chemical,
# crystal, experimental, refinement or atomic coordinate data resulting
# from the CCDC's data processing and validation procedures.
#
#######################################################################

data_CSD_CIF_DUDKUI10
_audit_creation_date 1987-10-26
_audit_creation_method CSD-ConQuest-V1
_database_code_CSD DUDKUI10
_database_code_depnum_ccdc_archive 'CCDC 1145892'
_chemical_formula_sum 'C8 H12 Cl3 N4 Ti1'
_chemical_formula_moiety
;
C6 H9 Cl3 N3 Ti1,C2 H3 N1
;
_journal_coden_Cambridge 367
_journal_volume 12
_journal_year 1986
_journal_page_first 1559
_journal_name_full 'Koord.Khim.(Russ.)(Coord.Chem.) '
loop_
_publ_author_name
"S.I.Troyanov"
"A.I.Tursina"
_chemical_name_systematic
;
tris(Acetonitrile)-trichloro-titanium(iii) acetonitrile solvate
;
_chemical_name_common
;
Teaching Subset: Fundamental Chemistry
;
_cell_volume   1577.465
_exptl_crystal_colour 'blue'
_diffrn_ambient_temperature ?
_diffrn_special_details
;
The study was carried out at room temperature,in the range 283-303K

;
#These two values have been output from a single CSD field.
_refine_ls_R_factor_gt 0.05
_refine_ls_wR_factor_gt 0.05
_symmetry_cell_setting triclinic
_symmetry_space_group_name_H-M 'P -1'
_symmetry_Int_Tables_number 2
loop_
_symmetry_equiv_pos_site_id
_symmetry_equiv_pos_as_xyz
1 x,y,z
2 -x,-y,-z
_cell_length_a 8.765(6)
_cell_length_b 12.401(6)
_cell_length_c 15.140(8)
_cell_angle_alpha 97.42(4)
_cell_angle_beta 86.67(5)
_cell_angle_gamma 104.76(5)
_cell_formula_units_Z 4
loop_
_atom_type_symbol
_atom_type_radius_bond
C 0.68
Cl 0.99
N 0.68
Ti 1.47
loop_
_atom_site_label
_atom_site_type_symbol
_atom_site_fract_x
_atom_site_fract_y
_atom_site_fract_z
Ti1 Ti 0.1469(3) 0.3212(2) 0.1303(2)
Cl1 Cl 0.3513(5) 0.2954(4) 0.0311(4)
Cl2 Cl -0.0325(5) 0.3467(4) 0.2465(3)
Cl3 Cl -0.0297(4) 0.3132(3) 0.0168(3)
N1 N 0.067(1) 0.139(1) 0.1333(9)
N2 N 0.228(1) 0.503(1) 0.1362(9)
N3 N 0.315(1) 0.330(1) 0.2362(9)
C1 C 0.028(2) 0.041(1) 0.130(1)
C2 C -0.018(2) -0.080(1) 0.125(1)
C3 C 0.266(2) 0.600(1) 0.142(1)
C4 C 0.306(2) 0.721(1) 0.151(1)
C5 C 0.413(2) 0.339(1) 0.289(1)
C6 C 0.536(2) 0.353(1) 0.352(1)
Ti2 Ti 0.7163(3) 0.7463(2) 0.3685(2)
Cl4 Cl 0.7469(5) 0.6209(3) 0.4644(3)
Cl5 Cl 0.6487(4) 0.8650(4) 0.2792(3)
Cl6 Cl 0.9908(4) 0.8233(3) 0.3526(3)
N4 N 0.721(1) 0.625(1) 0.2531(9)
N5 N 0.692(1) 0.866(1) 0.4826(9)
N6 N 0.458(1) 0.670(1) 0.3844(9)
C7 C 0.727(2) 0.564(1) 0.185(1)
C8 C 0.731(2) 0.490(1) 0.107(1)
C9 C 0.666(1) 0.929(1) 0.541(1)
C10 C 0.633(2) 1.007(1) 0.616(1)
C11 C 0.325(2) 0.635(1) 0.394(1)
C12 C 0.158(1) 0.589(1) 0.410(1)
N7 N 0.709(2) 0.175(1) 0.431(1)
C13 C 0.827(2) 0.153(1) 0.410(1)
C14 C 0.978(2) 0.127(1) 0.386(1)
N8 N 0.368(2) -0.006(2) 0.140(2)
C15 C 0.481(2) 0.049(2) 0.134(2)
C16 C 0.640(3) 0.121(2) 0.122(2)
#END
