####################################################################### 
# 
# This file contains crystal structure data downloaded from the 
# Cambridge Structural Database (CSD) hosted by the Cambridge 
# Crystallographic Data Centre (CCDC).
# 
# Full information about CCDC data access policies and citation 
# guidelines are available at http://www.ccdc.cam.ac.uk/access/V1 
# 
# Audit and citation data items may have been added by the CCDC. 
# Please retain this information to preserve the provenance of 
# this file and to allow appropriate attribution of the data. 
# 
#######################################################################

data_a
_audit_block_doi                 10.5517/cc11g51q
_database_code_depnum_ccdc_archive 'CCDC 966922'
_audit_update_record             
;
2013-10-17 deposited with the CCDC.	2024-07-09 downloaded from the CCDC.
;

_audit_creation_method           SHELXL-97
_chemical_name_systematic        
; 
 ? 
;
_chemical_name_common            ?
_chemical_melting_point          ?
_chemical_formula_moiety         ?
_chemical_formula_sum            'C27 H28 N3 Ni O13.50'
_chemical_formula_weight         669.23

loop_
_atom_type_symbol
_atom_type_description
_atom_type_scat_dispersion_real
_atom_type_scat_dispersion_imag
_atom_type_scat_source
C C 0.0033 0.0016 'International Tables Vol C Tables 4.2.6.8 and 6.1.1.4'
H H 0.0000 0.0000 'International Tables Vol C Tables 4.2.6.8 and 6.1.1.4'
N N 0.0061 0.0033 'International Tables Vol C Tables 4.2.6.8 and 6.1.1.4'
O O 0.0106 0.0060 'International Tables Vol C Tables 4.2.6.8 and 6.1.1.4'
Ni Ni 0.3393 1.1124 'International Tables Vol C Tables 4.2.6.8 and 6.1.1.4'

_symmetry_cell_setting           Monoclinic
_symmetry_space_group_name_H-M   C2

loop_
_symmetry_equiv_pos_as_xyz
'x, y, z'
'-x, y, -z'
'x+1/2, y+1/2, z'
'-x+1/2, y+1/2, -z'

_cell_length_a                   25.936(3)
_cell_length_b                   7.6100(10)
_cell_length_c                   16.558(2)
_cell_angle_alpha                90.00
_cell_angle_beta                 105.9470(10)
_cell_angle_gamma                90.00
_cell_volume                     3142.4(7)
_cell_formula_units_Z            4
_cell_measurement_temperature    296(2)
_cell_measurement_reflns_used    3640
_cell_measurement_theta_min      2.34
_cell_measurement_theta_max      24.05

_exptl_crystal_description       block
_exptl_crystal_colour            green
_exptl_crystal_size_max          0.30
_exptl_crystal_size_mid          0.15
_exptl_crystal_size_min          0.08
_exptl_crystal_density_meas      ?
_exptl_crystal_density_diffrn    1.415
_exptl_crystal_density_method    'not measured'
_exptl_crystal_F_000             1388
_exptl_absorpt_coefficient_mu    0.687
_exptl_absorpt_correction_type   multi-scan
_exptl_absorpt_correction_T_min  0.8205
_exptl_absorpt_correction_T_max  0.9471
_exptl_absorpt_process_details   sadabs

_exptl_special_details           
; 
 ? 
;

_diffrn_ambient_temperature      296(2)
_diffrn_radiation_wavelength     0.71073
_diffrn_radiation_type           MoK\a
_diffrn_radiation_source         'fine-focus sealed tube'
_diffrn_radiation_monochromator  graphite
_diffrn_measurement_device_type  'CCD area detector'
_diffrn_measurement_method       'phi and omega scans'
_diffrn_detector_area_resol_mean ?
_diffrn_standards_number         0
_diffrn_standards_interval_count 0
_diffrn_standards_interval_time  0
_diffrn_standards_decay_%        0
_diffrn_reflns_number            12070
_diffrn_reflns_av_R_equivalents  0.0308
_diffrn_reflns_av_sigmaI/netI    0.0482
_diffrn_reflns_limit_h_min       -30
_diffrn_reflns_limit_h_max       31
_diffrn_reflns_limit_k_min       -9
_diffrn_reflns_limit_k_max       9
_diffrn_reflns_limit_l_min       -20
_diffrn_reflns_limit_l_max       20
_diffrn_reflns_theta_min         2.34
_diffrn_reflns_theta_max         25.50
_reflns_number_total             5755
_reflns_number_gt                5102
_reflns_threshold_expression     >2sigma(I)

_computing_data_collection       'Bruker SMART'
_computing_cell_refinement       'Bruker SMART'
_computing_data_reduction        'Bruker SAINT'
_computing_structure_solution    'SHELXS-97 (Sheldrick, 1990)'
_computing_structure_refinement  'SHELXL-97 (Sheldrick, 1997)'
_computing_molecular_graphics    'Bruker SHELXTL'
_computing_publication_material  'Bruker SHELXTL'

_refine_special_details          
; 
 Refinement of F^2^ against ALL reflections.  The weighted R-factor wR and 
 goodness of fit S are based on F^2^, conventional R-factors R are based 
 on F, with F set to zero for negative F^2^. The threshold expression of 
 F^2^ > 2sigma(F^2^) is used only for calculating R-factors(gt) etc. and is 
 not relevant to the choice of reflections for refinement.  R-factors based 
 on F^2^ are statistically about twice as large as those based on F, and R- 
 factors based on ALL data will be even larger. 
;

_refine_ls_structure_factor_coef Fsqd
_refine_ls_matrix_type           full
_refine_ls_weighting_scheme      calc
_refine_ls_weighting_details     
'calc w=1/[\s^2^(Fo^2^)+(0.0563P)^2^+0.0000P] where P=(Fo^2^+2Fc^2^)/3'
_atom_sites_solution_primary     direct
_atom_sites_solution_secondary   difmap
_atom_sites_solution_hydrogens   geom
_refine_ls_hydrogen_treatment    constr
_refine_ls_extinction_method     none
_refine_ls_extinction_coef       ?
_refine_ls_abs_structure_details 'Flack H D (1983), Acta Cryst. A39, 876-881'
_refine_ls_abs_structure_Flack   0.414(13)
_refine_ls_number_reflns         5755
_refine_ls_number_parameters     403
_refine_ls_number_restraints     1
_refine_ls_R_factor_all          0.0466
_refine_ls_R_factor_gt           0.0397
_refine_ls_wR_factor_ref         0.1004
_refine_ls_wR_factor_gt          0.0967
_refine_ls_goodness_of_fit_ref   1.071
_refine_ls_restrained_S_all      1.071
_refine_ls_shift/su_max          0.000
_refine_ls_shift/su_mean         0.000

loop_
_atom_site_label
_atom_site_type_symbol
_atom_site_fract_x
_atom_site_fract_y
_atom_site_fract_z
_atom_site_U_iso_or_equiv
_atom_site_adp_type
_atom_site_occupancy
_atom_site_symmetry_multiplicity
_atom_site_calc_flag
_atom_site_refinement_flags
_atom_site_disorder_assembly
_atom_site_disorder_group
Ni1 Ni 0.597307(15) 0.40365(5) 0.67450(2) 0.01981(11) Uani 1 1 d . . .
O1 O 0.60474(11) 0.5627(3) 0.77539(15) 0.0289(6) Uani 1 1 d . . .
O2 O 0.61536(12) 0.8484(3) 0.75373(15) 0.0397(7) Uani 1 1 d . . .
O3 O 0.5517(2) 1.2335(5) 0.9675(3) 0.1087(18) Uani 1 1 d . . .
O4 O 0.6076(2) 1.1642(6) 1.0856(2) 0.0953(15) Uani 1 1 d . . .
O5 O 0.74922(14) 0.6150(6) 1.2314(2) 0.0785(12) Uani 1 1 d . . .
O6 O 0.74860(12) 0.5416(4) 1.36005(18) 0.0468(8) Uani 1 1 d . . .
H6 H 0.7794 0.5109 1.3632 0.070 Uiso 1 1 calc R . .
O7 O 0.60201(11) 0.7297(4) 1.47232(15) 0.0392(7) Uani 1 1 d . . .
O8 O 0.52278(10) 0.7991(4) 1.38463(15) 0.0359(6) Uani 1 1 d . . .
O9 O 0.55789(11) 0.8452(4) 1.10556(15) 0.0407(7) Uani 1 1 d . . .
O10 O 0.55877(10) 0.5870(3) 0.58680(15) 0.0317(6) Uani 1 1 d . . .
H1W H 0.5806 0.6322 0.5633 0.048 Uiso 1 1 d R . .
H2W H 0.5365 0.6633 0.5935 0.048 Uiso 1 1 d R . .
O11 O 0.59067(10) 0.2181(3) 0.57862(15) 0.0292(6) Uani 1 1 d . . .
H3W H 0.5603 0.1690 0.5674 0.044 Uiso 1 1 d R . .
H4W H 0.6104 0.1357 0.6054 0.044 Uiso 1 1 d R . .
O12 O 0.63494(10) 0.2056(3) 0.76250(15) 0.0340(6) Uani 1 1 d . . .
H5W H 0.6658 0.1937 0.7613 0.051 Uiso 1 1 d R . .
H6W H 0.6157 0.1105 0.7411 0.051 Uiso 1 1 d R . .
O13 O 0.5000 1.0268(5) 0.5000 0.0296(8) Uani 1 2 d S . .
H7W H 0.5117 0.9498 0.4724 0.044 Uiso 1 1 d R . .
O14 O 0.84700(9) 0.4149(4) 0.38235(14) 0.0336(5) Uani 1 1 d . . .
H8W H 0.8611 0.4045 0.3422 0.050 Uiso 1 1 d R . .
H9W H 0.8658 0.3868 0.4316 0.050 Uiso 1 1 d R . .
N1 N 0.5805(2) 1.1276(6) 1.0152(3) 0.0595(13) Uani 1 1 d . . .
N2 N 0.52207(11) 0.3328(4) 0.68552(18) 0.0261(7) Uani 1 1 d . . .
N3 N 0.17249(11) -0.0258(4) 0.66183(17) 0.0224(6) Uani 1 1 d . . .
C1 C 0.59380(15) 0.7568(5) 0.8779(2) 0.0291(8) Uani 1 1 d . . .
C2 C 0.59129(15) 0.9244(6) 0.9076(2) 0.0361(9) Uani 1 1 d . . .
H2 H 0.5960 1.0208 0.8758 0.043 Uiso 1 1 calc R . .
C3 C 0.58170(16) 0.9490(5) 0.9856(2) 0.0346(10) Uani 1 1 d . . .
C4 C 0.57236(16) 0.8117(5) 1.0330(2) 0.0321(9) Uani 1 1 d . . .
C5 C 0.5742(2) 0.6438(6) 1.0031(3) 0.0502(13) Uani 1 1 d . . .
H5 H 0.5685 0.5476 1.0343 0.060 Uiso 1 1 calc R . .
C6 C 0.5847(2) 0.6196(6) 0.9264(3) 0.0488(12) Uani 1 1 d . . .
H6A H 0.5856 0.5055 0.9067 0.059 Uiso 1 1 calc R . .
C7 C 0.60535(14) 0.7216(5) 0.7945(2) 0.0259(8) Uani 1 1 d . . .
C8 C 0.58897(15) 0.7801(5) 1.1815(2) 0.0299(8) Uani 1 1 d . . .
C9 C 0.56580(15) 0.7873(5) 1.2472(2) 0.0277(8) Uani 1 1 d . . .
H9 H 0.5304 0.8238 1.2378 0.033 Uiso 1 1 calc R . .
C10 C 0.59557(14) 0.7396(5) 1.3272(2) 0.0261(8) Uani 1 1 d . . .
C11 C 0.64735(16) 0.6804(5) 1.3394(2) 0.0294(9) Uani 1 1 d . . .
H11A H 0.6671 0.6465 1.3929 0.035 Uiso 1 1 calc R . .
C12 C 0.67015(16) 0.6704(5) 1.2744(2) 0.0325(9) Uani 1 1 d . . .
C13 C 0.64123(15) 0.7234(5) 1.1935(2) 0.0335(9) Uani 1 1 d . . .
H13 H 0.6568 0.7205 1.1491 0.040 Uiso 1 1 calc R . .
C14 C 0.57117(15) 0.7585(5) 1.4005(2) 0.0291(8) Uani 1 1 d . . .
C15 C 0.72629(17) 0.6051(6) 1.2850(3) 0.0402(10) Uani 1 1 d . . .
C16 C 0.51460(15) 0.2898(6) 0.7598(2) 0.0364(10) Uani 1 1 d . . .
H16 H 0.5442 0.2887 0.8066 0.044 Uiso 1 1 calc R . .
C17 C 0.46563(15) 0.2474(6) 0.7704(2) 0.0374(10) Uani 1 1 d . . .
H17 H 0.4626 0.2196 0.8236 0.045 Uiso 1 1 calc R . .
C18 C 0.42046(13) 0.2456(5) 0.7020(2) 0.0269(8) Uani 1 1 d . . .
C19 C 0.42865(14) 0.2879(5) 0.6257(2) 0.0288(8) Uani 1 1 d . . .
H19 H 0.4000 0.2866 0.5774 0.035 Uiso 1 1 calc R . .
C20 C 0.47861(14) 0.3319(5) 0.6202(2) 0.0268(8) Uani 1 1 d . . .
H20 H 0.4825 0.3630 0.5679 0.032 Uiso 1 1 calc R . .
C21 C 0.36673(13) 0.1995(6) 0.7134(2) 0.0300(8) Uani 1 1 d . . .
H21A H 0.3710 0.0989 0.7507 0.036 Uiso 1 1 calc R . .
H21B H 0.3544 0.2971 0.7409 0.036 Uiso 1 1 calc R . .
C22 C 0.32425(15) 0.1574(6) 0.6343(3) 0.0356(10) Uani 1 1 d . . .
H22A H 0.3381 0.0688 0.6037 0.043 Uiso 1 1 calc R . .
H22B H 0.3172 0.2622 0.5997 0.043 Uiso 1 1 calc R . .
C23 C 0.18449(15) -0.0301(5) 0.5896(2) 0.0328(9) Uani 1 1 d . . .
H23 H 0.1589 -0.0737 0.5430 0.039 Uiso 1 1 calc R . .
C24 C 0.23272(15) 0.0262(6) 0.5790(2) 0.0358(10) Uani 1 1 d . . .
H24 H 0.2389 0.0197 0.5264 0.043 Uiso 1 1 calc R . .
C25 C 0.27153(14) 0.0919(5) 0.6460(2) 0.0295(8) Uani 1 1 d . . .
C26 C 0.25944(15) 0.0972(6) 0.7228(2) 0.0366(9) Uani 1 1 d . . .
H26 H 0.2843 0.1408 0.7702 0.044 Uiso 1 1 calc R . .
C27 C 0.21011(15) 0.0369(5) 0.7280(2) 0.0325(9) Uani 1 1 d . . .
H27 H 0.2028 0.0401 0.7798 0.039 Uiso 1 1 calc R . .

loop_
_atom_site_aniso_label
_atom_site_aniso_U_11
_atom_site_aniso_U_22
_atom_site_aniso_U_33
_atom_site_aniso_U_23
_atom_site_aniso_U_13
_atom_site_aniso_U_12
Ni1 0.01566(19) 0.0247(2) 0.02002(19) 0.0000(2) 0.00643(13) -0.00328(19)
O1 0.0365(15) 0.0307(15) 0.0230(13) -0.0072(11) 0.0141(11) -0.0053(11)
O2 0.0664(19) 0.0324(16) 0.0281(14) -0.0031(11) 0.0262(14) -0.0089(12)
O3 0.208(6) 0.046(2) 0.073(3) 0.008(2) 0.039(3) 0.035(3)
O4 0.149(4) 0.082(3) 0.057(3) -0.037(2) 0.032(3) -0.025(3)
O5 0.059(2) 0.135(4) 0.052(2) 0.021(2) 0.0332(19) 0.040(2)
O6 0.0376(17) 0.062(2) 0.0440(17) 0.0074(15) 0.0162(14) 0.0165(15)
O7 0.0414(16) 0.0600(19) 0.0184(13) 0.0048(12) 0.0118(12) 0.0012(14)
O8 0.0312(15) 0.0522(17) 0.0294(14) 0.0010(12) 0.0169(11) -0.0005(13)
O9 0.0507(17) 0.0540(19) 0.0211(13) 0.0061(11) 0.0159(12) 0.0197(13)
O10 0.0278(14) 0.0350(15) 0.0377(14) 0.0128(12) 0.0180(12) 0.0067(12)
O11 0.0244(13) 0.0319(14) 0.0302(14) -0.0039(11) 0.0060(11) -0.0042(11)
O12 0.0310(15) 0.0348(15) 0.0320(14) 0.0051(12) 0.0017(12) -0.0055(12)
O13 0.0292(19) 0.0281(19) 0.0328(19) 0.000 0.0108(16) 0.000
O14 0.0328(13) 0.0391(14) 0.0303(12) 0.0019(14) 0.0111(10) 0.0074(14)
N1 0.115(4) 0.041(2) 0.033(2) -0.0090(19) 0.040(2) -0.006(3)
N2 0.0208(15) 0.0329(16) 0.0256(15) 0.0024(12) 0.0079(12) -0.0034(12)
N3 0.0164(15) 0.0270(15) 0.0242(15) -0.0001(12) 0.0061(12) -0.0022(11)
C1 0.039(2) 0.030(2) 0.0211(18) -0.0032(15) 0.0131(16) -0.0014(17)
C2 0.053(2) 0.037(2) 0.0216(16) -0.0026(18) 0.0163(15) -0.002(2)
C3 0.046(2) 0.036(3) 0.0245(18) -0.0034(15) 0.0131(17) 0.0024(17)
C4 0.040(2) 0.036(2) 0.0228(19) 0.0025(17) 0.0125(17) 0.0075(18)
C5 0.086(4) 0.036(3) 0.039(3) 0.008(2) 0.034(3) -0.001(2)
C6 0.088(4) 0.030(2) 0.038(2) -0.0037(19) 0.034(2) 0.001(2)
C7 0.0285(19) 0.031(2) 0.0210(17) -0.0031(15) 0.0107(14) -0.0024(16)
C8 0.042(2) 0.0299(19) 0.0186(18) 0.0028(15) 0.0088(16) 0.0032(17)
C9 0.032(2) 0.031(2) 0.0230(18) -0.0024(15) 0.0111(15) 0.0034(16)
C10 0.034(2) 0.0262(19) 0.0220(18) -0.0011(15) 0.0143(15) -0.0028(16)
C11 0.033(2) 0.034(2) 0.023(2) 0.0042(16) 0.0102(16) 0.0024(17)
C12 0.034(2) 0.033(2) 0.034(2) 0.0011(17) 0.0159(17) 0.0020(17)
C13 0.042(2) 0.039(2) 0.027(2) 0.0032(17) 0.0202(17) 0.0013(18)
C14 0.038(2) 0.029(2) 0.0245(19) 0.0014(15) 0.0148(16) -0.0065(17)
C15 0.036(2) 0.054(3) 0.035(2) -0.002(2) 0.0172(19) 0.009(2)
C16 0.028(2) 0.056(3) 0.0237(19) 0.0064(18) 0.0052(16) -0.0102(19)
C17 0.031(2) 0.058(3) 0.0236(19) 0.0079(18) 0.0070(16) -0.012(2)
C18 0.0208(18) 0.031(2) 0.0304(19) 0.0048(15) 0.0087(15) -0.0032(16)
C19 0.0193(18) 0.040(2) 0.0269(19) 0.0054(16) 0.0057(15) -0.0034(16)
C20 0.0210(18) 0.0354(19) 0.0250(18) 0.0007(15) 0.0081(14) -0.0011(15)
C21 0.0196(18) 0.039(2) 0.033(2) 0.0051(17) 0.0104(15) -0.0075(16)
C22 0.024(2) 0.051(3) 0.035(2) 0.0040(19) 0.0138(17) -0.0082(18)
C23 0.0218(19) 0.047(2) 0.028(2) -0.0033(16) 0.0044(15) -0.0062(16)
C24 0.029(2) 0.054(3) 0.029(2) -0.0002(19) 0.0140(17) -0.0066(19)
C25 0.0197(18) 0.038(2) 0.033(2) 0.0014(17) 0.0099(16) -0.0046(16)
C26 0.023(2) 0.051(3) 0.035(2) -0.0063(19) 0.0068(17) -0.0107(18)
C27 0.0218(19) 0.048(2) 0.029(2) -0.0044(18) 0.0100(16) -0.0074(17)

_geom_special_details            
; 
 All esds (except the esd in the dihedral angle between two l.s. planes) 
 are estimated using the full covariance matrix.  The cell esds are taken 
 into account individually in the estimation of esds in distances, angles 
 and torsion angles; correlations between esds in cell parameters are only 
 used when they are defined by crystal symmetry.  An approximate (isotropic) 
 treatment of cell esds is used for estimating esds involving l.s. planes. 
;

loop_
_geom_bond_atom_site_label_1
_geom_bond_atom_site_label_2
_geom_bond_distance
_geom_bond_site_symmetry_2
_geom_bond_publ_flag
Ni1 O1 2.029(2) . ?
Ni1 O10 2.063(2) . ?
Ni1 N2 2.080(3) . ?
Ni1 N3 2.088(3) 3 ?
Ni1 O11 2.096(2) . ?
Ni1 O12 2.137(2) . ?
O1 C7 1.249(4) . ?
O2 C7 1.245(4) . ?
O3 N1 1.228(6) . ?
O4 N1 1.216(5) . ?
O5 C15 1.199(5) . ?
O6 C15 1.310(5) . ?
O6 H6 0.8200 . ?
O7 C14 1.257(4) . ?
O8 C14 1.249(4) . ?
O9 C4 1.377(4) . ?
O9 C8 1.386(4) . ?
O10 H1W 0.8438 . ?
O10 H2W 0.8470 . ?
O11 H3W 0.8461 . ?
O11 H4W 0.8526 . ?
O12 H5W 0.8126 . ?
O12 H6W 0.8954 . ?
O13 H7W 0.8485 . ?
O14 H8W 0.8452 . ?
O14 H9W 0.8539 . ?
N1 C3 1.448(6) . ?
N2 C20 1.330(4) . ?
N2 C16 1.337(5) . ?
N3 C23 1.316(5) . ?
N3 C27 1.339(5) . ?
N3 Ni1 2.088(3) 3_445 ?
C1 C2 1.375(6) . ?
C1 C6 1.377(6) . ?
C1 C7 1.515(5) . ?
C2 C3 1.393(5) . ?
C2 H2 0.9300 . ?
C3 C4 1.368(5) . ?
C4 C5 1.376(6) . ?
C5 C6 1.383(6) . ?
C5 H5 0.9300 . ?
C6 H6A 0.9300 . ?
C8 C9 1.381(5) . ?
C8 C13 1.384(5) . ?
C9 C10 1.386(5) . ?
C9 H9 0.9300 . ?
C10 C11 1.378(5) . ?
C10 C14 1.521(5) . ?
C11 C12 1.364(5) . ?
C11 H11A 0.9300 . ?
C12 C13 1.403(5) . ?
C12 C15 1.503(5) . ?
C13 H13 0.9300 . ?
C16 C17 1.368(5) . ?
C16 H16 0.9300 . ?
C17 C18 1.388(5) . ?
C17 H17 0.9300 . ?
C18 C19 1.376(5) . ?
C18 C21 1.498(5) . ?
C19 C20 1.365(5) . ?
C19 H19 0.9300 . ?
C20 H20 0.9300 . ?
C21 C22 1.496(5) . ?
C21 H21A 0.9700 . ?
C21 H21B 0.9700 . ?
C22 C25 1.517(5) . ?
C22 H22A 0.9700 . ?
C22 H22B 0.9700 . ?
C23 C24 1.378(5) . ?
C23 H23 0.9300 . ?
C24 C25 1.371(5) . ?
C24 H24 0.9300 . ?
C25 C26 1.391(5) . ?
C26 C27 1.384(5) . ?
C26 H26 0.9300 . ?
C27 H27 0.9300 . ?

loop_
_geom_angle_atom_site_label_1
_geom_angle_atom_site_label_2
_geom_angle_atom_site_label_3
_geom_angle
_geom_angle_site_symmetry_1
_geom_angle_site_symmetry_3
_geom_angle_publ_flag
O1 Ni1 O10 95.41(11) . . ?
O1 Ni1 N2 87.79(11) . . ?
O10 Ni1 N2 87.27(11) . . ?
O1 Ni1 N3 92.82(11) . 3 ?
O10 Ni1 N3 92.32(11) . 3 ?
N2 Ni1 N3 179.29(12) . 3 ?
O1 Ni1 O11 174.27(11) . . ?
O10 Ni1 O11 89.96(10) . . ?
N2 Ni1 O11 90.47(11) . . ?
N3 Ni1 O11 88.96(10) 3 . ?
O1 Ni1 O12 86.38(10) . . ?
O10 Ni1 O12 177.60(11) . . ?
N2 Ni1 O12 91.21(11) . . ?
N3 Ni1 O12 89.19(10) 3 . ?
O11 Ni1 O12 88.20(10) . . ?
C7 O1 Ni1 141.1(2) . . ?
C15 O6 H6 109.5 . . ?
C4 O9 C8 119.7(3) . . ?
Ni1 O10 H1W 110.1 . . ?
Ni1 O10 H2W 126.0 . . ?
H1W O10 H2W 110.4 . . ?
Ni1 O11 H3W 110.0 . . ?
Ni1 O11 H4W 100.9 . . ?
H3W O11 H4W 100.2 . . ?
Ni1 O12 H5W 109.3 . . ?
Ni1 O12 H6W 101.5 . . ?
H5W O12 H6W 110.3 . . ?
H8W O14 H9W 118.1 . . ?
O4 N1 O3 123.8(5) . . ?
O4 N1 C3 118.7(5) . . ?
O3 N1 C3 117.6(4) . . ?
C20 N2 C16 116.2(3) . . ?
C20 N2 Ni1 122.4(2) . . ?
C16 N2 Ni1 121.4(2) . . ?
C23 N3 C27 116.8(3) . . ?
C23 N3 Ni1 123.0(2) . 3_445 ?
C27 N3 Ni1 120.0(2) . 3_445 ?
C2 C1 C6 117.5(3) . . ?
C2 C1 C7 122.