####################################################################### 
# 
# This file contains crystal structure data downloaded from the 
# Cambridge Structural Database (CSD) hosted by the Cambridge 
# Crystallographic Data Centre (CCDC).
# 
# Full information about CCDC data access policies and citation 
# guidelines are available at http://www.ccdc.cam.ac.uk/access/V1 
# 
# Audit and citation data items may have been added by the CCDC. 
# Please retain this information to preserve the provenance of 
# this file and to allow appropriate attribution of the data. 
# 
#######################################################################

data_1
_audit_block_doi                 10.5517/cczf3hz
_database_code_depnum_ccdc_archive 'CCDC 906331'
loop_
_citation_id
_citation_doi
_citation_year
1 10.1016/j.inoche.2015.01.016 2015
_audit_update_record             
;
2012-10-17 deposited with the CCDC.	2024-07-09 downloaded from the CCDC.
;
#TrackingRef '1.cif'


_audit_creation_method           SHELXL-97
_chemical_name_systematic        
;
?
;
_chemical_name_common            ?
_chemical_melting_point          ?
_chemical_formula_moiety         ?
_chemical_formula_sum            'C93 H102 Ce4 N6 O43'
_chemical_formula_weight         2552.29

loop_
_atom_type_symbol
_atom_type_description
_atom_type_scat_dispersion_real
_atom_type_scat_dispersion_imag
_atom_type_scat_source
C C 0.0033 0.0016 'International Tables Vol C Tables 4.2.6.8 and 6.1.1.4'
H H 0.0000 0.0000 'International Tables Vol C Tables 4.2.6.8 and 6.1.1.4'
N N 0.0061 0.0033 'International Tables Vol C Tables 4.2.6.8 and 6.1.1.4'
O O 0.0106 0.0060 'International Tables Vol C Tables 4.2.6.8 and 6.1.1.4'
Ce Ce -0.2486 2.6331 'International Tables Vol C Tables 4.2.6.8 and 6.1.1.4'

_symmetry_cell_setting           Orthorhombic
_symmetry_space_group_name_H-M   Cmca

loop_
_symmetry_equiv_pos_as_xyz
'x, y, z'
'-x, -y+1/2, z+1/2'
'-x, y+1/2, -z+1/2'
'x, -y, -z'
'x+1/2, y+1/2, z'
'-x+1/2, -y+1, z+1/2'
'-x+1/2, y+1, -z+1/2'
'x+1/2, -y+1/2, -z'
'-x, -y, -z'
'x, y-1/2, -z-1/2'
'x, -y-1/2, z-1/2'
'-x, y, z'
'-x+1/2, -y+1/2, -z'
'x+1/2, y, -z-1/2'
'x+1/2, -y, z-1/2'
'-x+1/2, y+1/2, z'

_cell_length_a                   46.072(14)
_cell_length_b                   35.831(11)
_cell_length_c                   28.608(9)
_cell_angle_alpha                90.00
_cell_angle_beta                 90.00
_cell_angle_gamma                90.00
_cell_volume                     47227(25)
_cell_formula_units_Z            8
_cell_measurement_temperature    293(2)
_cell_measurement_reflns_used    ?
_cell_measurement_theta_min      ?
_cell_measurement_theta_max      ?

_exptl_crystal_description       ?
_exptl_crystal_colour            colorless
_exptl_crystal_size_max          0.2
_exptl_crystal_size_mid          0.1
_exptl_crystal_size_min          0.02
_exptl_crystal_density_meas      ?
_exptl_crystal_density_diffrn    0.718
_exptl_crystal_density_method    'not measured'
_exptl_crystal_F_000             10224
_exptl_absorpt_coefficient_mu    0.797
_exptl_absorpt_correction_type   ?
_exptl_absorpt_correction_T_min  ?
_exptl_absorpt_correction_T_max  ?
_exptl_absorpt_process_details   ?

_exptl_special_details           
;
?
;

_diffrn_ambient_temperature      293(2)
_diffrn_radiation_wavelength     0.71073
_diffrn_radiation_type           MoK\a
_diffrn_radiation_source         'fine-focus sealed tube'
_diffrn_radiation_monochromator  graphite
_diffrn_measurement_device_type  ?
_diffrn_measurement_method       ?
_diffrn_detector_area_resol_mean ?
_diffrn_standards_number         ?
_diffrn_standards_interval_count ?
_diffrn_standards_interval_time  ?
_diffrn_standards_decay_%        ?
_diffrn_reflns_number            97946
_diffrn_reflns_av_R_equivalents  0.1946
_diffrn_reflns_av_sigmaI/netI    0.0864
_diffrn_reflns_limit_h_min       -42
_diffrn_reflns_limit_h_max       42
_diffrn_reflns_limit_k_min       -32
_diffrn_reflns_limit_k_max       32
_diffrn_reflns_limit_l_min       -26
_diffrn_reflns_limit_l_max       25
_diffrn_reflns_theta_min         1.60
_diffrn_reflns_theta_max         19.13
_reflns_number_total             9744
_reflns_number_gt                5957
_reflns_threshold_expression     >2sigma(I)

_computing_data_collection       ?
_computing_cell_refinement       ?
_computing_data_reduction        ?
_computing_structure_solution    'SHELXS-97 (Sheldrick, 1990)'
_computing_structure_refinement  'SHELXL-97 (Sheldrick, 1997)'
_computing_molecular_graphics    ?
_computing_publication_material  ?

_refine_special_details          
;
Refinement of F^2^ against ALL reflections. The weighted R-factor wR and
goodness of fit S are based on F^2^, conventional R-factors R are based
on F, with F set to zero for negative F^2^. The threshold expression of
F^2^ > 2sigma(F^2^) is used only for calculating R-factors(gt) etc. and is
not relevant to the choice of reflections for refinement. R-factors based
on F^2^ are statistically about twice as large as those based on F, and R-
factors based on ALL data will be even larger.
;

_refine_ls_structure_factor_coef Fsqd
_refine_ls_matrix_type           full
_refine_ls_weighting_scheme      calc
_refine_ls_weighting_details     
'calc w=1/[\s^2^(Fo^2^)+(0.2000P)^2^+0.0000P] where P=(Fo^2^+2Fc^2^)/3'
_atom_sites_solution_primary     direct
_atom_sites_solution_secondary   difmap
_atom_sites_solution_hydrogens   geom
_refine_ls_hydrogen_treatment    mixed
_refine_ls_extinction_method     none
_refine_ls_extinction_coef       ?
_refine_ls_number_reflns         9744
_refine_ls_number_parameters     552
_refine_ls_number_restraints     23
_refine_ls_R_factor_all          0.1503
_refine_ls_R_factor_gt           0.0955
_refine_ls_wR_factor_ref         0.3349
_refine_ls_wR_factor_gt          0.2831
_refine_ls_goodness_of_fit_ref   1.216
_refine_ls_restrained_S_all      1.238
_refine_ls_shift/su_max          0.001
_refine_ls_shift/su_mean         0.000

loop_
_atom_site_label
_atom_site_type_symbol
_atom_site_fract_x
_atom_site_fract_y
_atom_site_fract_z
_atom_site_U_iso_or_equiv
_atom_site_adp_type
_atom_site_occupancy
_atom_site_symmetry_multiplicity
_atom_site_calc_flag
_atom_site_refinement_flags
_atom_site_disorder_assembly
_atom_site_disorder_group
Ce1 Ce 0.16935(2) 0.11522(3) 0.23585(3) 0.0692(5) Uani 1 1 d . . .
Ce2 Ce 0.2500 0.15403(4) 0.2500 0.0645(6) Uani 1 2 d S . .
Ce3 Ce 0.5000 -0.05510(14) 0.5294(2) 0.319(3) Uani 1 2 d S . .
C1 C 0.1928(4) 0.1400(4) -0.0417(5) 0.077(6) Uani 1 1 d . . .
C2 C 0.1923(4) 0.1720(5) -0.0678(6) 0.084(6) Uani 1 1 d . . .
H2 H 0.1968 0.1946 -0.0536 0.101 Uiso 1 1 calc R . .
C3 C 0.1849(4) 0.1715(5) -0.1155(5) 0.081(6) Uani 1 1 d . . .
C4 C 0.1776(5) 0.1376(5) -0.1363(6) 0.097(7) Uani 1 1 d . . .
H4 H 0.1725 0.1368 -0.1677 0.116 Uiso 1 1 calc R . .
C5 C 0.1780(4) 0.1050(4) -0.1099(6) 0.082(6) Uani 1 1 d . . .
C6 C 0.1859(4) 0.1065(4) -0.0640(6) 0.088(6) Uani 1 1 d . . .
H6 H 0.1867 0.0844 -0.0470 0.105 Uiso 1 1 calc R . .
C7 C 0.2011(5) 0.1408(4) 0.0077(6) 0.079(6) Uani 1 1 d . . .
C8 C 0.2241(5) 0.1628(6) 0.0231(6) 0.118(8) Uani 1 1 d . . .
H8 H 0.2345 0.1771 0.0017 0.142 Uiso 1 1 calc R . .
C9 C 0.2319(5) 0.1637(5) 0.0707(6) 0.102(7) Uani 1 1 d . . .
H9 H 0.2475 0.1782 0.0803 0.123 Uiso 1 1 calc R . .
C10 C 0.2167(5) 0.1436(5) 0.1028(5) 0.073(5) Uani 1 1 d . . .
C11 C 0.1949(5) 0.1211(5) 0.0888(6) 0.075(5) Uani 1 1 d . . .
H11 H 0.1856 0.1060 0.1106 0.090 Uiso 1 1 calc R . .
C12 C 0.1860(4) 0.1200(4) 0.0420(6) 0.079(5) Uani 1 1 d . . .
H12 H 0.1701 0.1056 0.0335 0.095 Uiso 1 1 calc R . .
C13 C 0.1832(5) 0.2079(5) -0.1427(5) 0.079(6) Uani 1 1 d . . .
C14 C 0.2048(5) 0.2331(5) -0.1391(5) 0.089(6) Uani 1 1 d . . .
H14 H 0.2209 0.2285 -0.1205 0.106 Uiso 1 1 calc R . .
C15 C 0.2022(5) 0.2667(5) -0.1642(6) 0.088(6) Uani 1 1 d . . .
H15 H 0.2168 0.2844 -0.1612 0.105 Uiso 1 1 calc R . .
C16 C 0.1791(5) 0.2744(5) -0.1930(6) 0.081(6) Uani 1 1 d . . .
C17 C 0.1578(5) 0.2487(6) -0.1954(6) 0.100(7) Uani 1 1 d . . .
H17 H 0.1413 0.2535 -0.2132 0.120 Uiso 1 1 calc R . .
C18 C 0.1603(5) 0.2149(5) -0.1716(7) 0.097(7) Uani 1 1 d . . .
H18 H 0.1460 0.1968 -0.1755 0.117 Uiso 1 1 calc R . .
C19 C 0.1727(4) 0.0677(5) -0.1330(6) 0.078(6) Uani 1 1 d . . .
C20 C 0.1843(5) 0.0615(4) -0.1768(7) 0.095(6) Uani 1 1 d . . .
H20 H 0.1939 0.0808 -0.1920 0.114 Uiso 1 1 calc R . .
C21 C 0.1819(5) 0.0264(5) -0.1996(6) 0.096(6) Uani 1 1 d . . .
H21 H 0.1895 0.0228 -0.2294 0.115 Uiso 1 1 calc R . .
C22 C 0.1682(4) -0.0023(5) -0.1763(6) 0.067(5) Uani 1 1 d . . .
C23 C 0.1558(4) 0.0052(5) -0.1325(6) 0.075(5) Uani 1 1 d . . .
H23 H 0.1455 -0.0134 -0.1171 0.091 Uiso 1 1 calc R . .
C24 C 0.1587(4) 0.0397(5) -0.1120(5) 0.070(5) Uani 1 1 d . . .
H24 H 0.1507 0.0437 -0.0826 0.084 Uiso 1 1 calc R . .
C25 C 0.2248(5) 0.1462(5) 0.1527(6) 0.073(6) Uani 1 1 d . . .
C26 C 0.1786(7) 0.3108(5) -0.2186(7) 0.091(7) Uani 1 1 d . . .
C27 C 0.1685(4) -0.0404(5) -0.1964(7) 0.073(5) Uani 1 1 d . . .
C28 C 0.2236(5) 0.0737(5) 0.3539(6) 0.067(5) Uani 1 1 d . . .
C29 C 0.2502(5) 0.0585(5) 0.3461(5) 0.068(5) Uani 1 1 d . . .
H29 H 0.2584 0.0604 0.3165 0.082 Uiso 1 1 calc R . .
C30 C 0.2658(4) 0.0399(4) 0.3816(6) 0.070(5) Uani 1 1 d . . .
H30 H 0.2838 0.0292 0.3756 0.084 Uiso 1 1 calc R . .
C31 C 0.2535(5) 0.0381(5) 0.4253(6) 0.075(5) Uani 1 1 d . . .
C32 C 0.2266(5) 0.0538(6) 0.4333(6) 0.095(6) Uani 1 1 d . . .
H32 H 0.2184 0.0520 0.4629 0.114 Uiso 1 1 calc R . .
C33 C 0.2117(4) 0.0718(5) 0.3988(7) 0.089(6) Uani 1 1 d . . .
H33 H 0.1938 0.0827 0.4050 0.106 Uiso 1 1 calc R . .
C34 C 0.2704(5) 0.0184(4) 0.4641(5) 0.067(5) Uani 1 1 d . . .
C35 C 0.2552(6) 0.0000 0.5000 0.074(7) Uani 1 2 d S . .
H35 H 0.2350 0.0000 0.5000 0.088 Uiso 1 2 calc SR . .
C36 C 0.2995(5) 0.0180(4) 0.4655(5) 0.060(4) Uani 1 1 d . . .
H36 H 0.3098 0.0305 0.4423 0.072 Uiso 1 1 calc R . .
C37 C 0.3147(7) 0.0000 0.5000 0.059(6) Uani 1 2 d S . .
C38 C 0.3466(8) 0.0000 0.5000 0.070(8) Uani 1 2 d S . .
C39 C 0.3623(5) 0.0293(6) 0.4820(6) 0.085(6) Uani 1 1 d . . .
H39 H 0.3524 0.0495 0.4693 0.102 Uiso 1 1 calc R . .
C40 C 0.3909(7) 0.0297(6) 0.4821(7) 0.108(7) Uani 1 1 d . . .
H40 H 0.4004 0.0504 0.4699 0.129 Uiso 1 1 calc R . .
C41 C 0.4075(8) 0.0000 0.5000 0.104(9) Uani 1 2 d S . .
C42 C 0.4406(10) 0.0000 0.5000 0.159(16) Uani 1 2 d S . .
C43 C 0.2065(6) 0.0927(4) 0.3163(7) 0.072(5) Uani 1 1 d . . .
C44 C 0.1234(10) 0.1443(16) 0.1524(19) 0.523 Uiso 1 1 d D . .
C45 C 0.0902(13) 0.0887(12) 0.1366(18) 0.411 Uiso 1 1 d D . .
C46 C 0.0983(14) 0.1377(15) 0.0736(14) 0.415 Uiso 1 1 d D . .
C47 C 0.0994(14) 0.1246(17) 0.2539(19) 0.520 Uiso 1 1 d D . .
C48 C 0.0520(13) 0.1369(15) 0.297(3) 0.521 Uiso 1 1 d D . .
C49 C 0.0748(11) 0.1881(9) 0.2473(18) 0.375 Uiso 1 1 d D . .
N1 N 0.1041(13) 0.1234(12) 0.1207(14) 0.516 Uiso 1 1 d D . .
N2 N 0.0751(10) 0.1499(10) 0.265(2) 0.565 Uiso 1 1 d D . .
N3 N 0.2500 0.2555(6) 0.2500 0.251 Uiso 1 2 d SD . .
N4 N 0.2500 0.0687(13) 0.7500 0.430 Uiso 1 2 d SD . .
O1 O 0.2113(3) 0.1290(3) 0.1850(4) 0.072(3) Uani 1 1 d . . .
O2 O 0.2468(3) 0.1654(4) 0.1630(4) 0.093(4) Uani 1 1 d . . .
O3 O 0.1579(3) -0.0668(3) -0.1728(4) 0.089(4) Uani 1 1 d . . .
O4 O 0.1781(3) -0.0458(3) -0.2372(4) 0.097(4) Uani 1 1 d . . .
O5 O 0.1522(4) 0.3243(4) -0.2232(5) 0.119(5) Uani 1 1 d . . .
O6 O 0.1994(3) 0.3272(3) -0.2320(4) 0.081(4) Uani 1 1 d . . .
O7 O 0.2209(3) 0.1003(3) 0.2773(4) 0.069(3) Uani 1 1 d . . .
O8 O 0.1806(3) 0.0989(4) 0.3202(4) 0.082(4) Uani 1 1 d . . .
O9 O 0.4533(4) -0.0280(7) 0.5169(9) 0.212(10) Uani 1 1 d . . .
O10 O 0.2500 0.2222(5) 0.2500 0.127(8) Uani 1 2 d SD . .
O11 O 0.5000 0.0173(13) 0.5600(14) 0.30(2) Uani 1 2 d S . .
O12 O 0.1449(3) 0.1582(4) 0.1735(4) 0.124(5) Uani 1 1 d D . .
O13 O 0.1161(3) 0.0979(3) 0.2623(4) 0.089(4) Uani 1 1 d D . .
O14 O 0.2310(5) 0.2755(6) 0.2368(13) 0.352 Uiso 1 1 d D . .
O15 O 0.2500 0.0350(12) 0.7500 0.464 Uiso 1 2 d SD . .
O16 O 0.2328(9) 0.0856(11) 0.7257(16) 0.469 Uiso 1 1 d D . .
O1W O 0.4652(9) -0.0808(11) 0.5975(15) 0.420 Uiso 1 1 d D . .
O2W O 0.4625(15) -0.1110(17) 0.5156(16) 0.652 Uiso 1 1 d D . .
O3W O 0.2452(15) 0.143(2) 0.643(3) 0.691 Uiso 1 1 d . . .
O4W O 0.2632(12) 0.0852(16) 0.913(2) 0.505 Uiso 1 1 d . . .
O5W O 0.2931(14) 0.2369(18) 0.941(2) 0.632 Uiso 1 1 d . . .
O6W O 0.202(2) 0.175(3) 0.491(3) 0.780 Uiso 1 1 d . A 1
O7W O 0.1684(15) 0.1689(18) 0.425(2) 0.635 Uiso 1 1 d . B 2

loop_
_atom_site_aniso_label
_atom_site_aniso_U_11
_atom_site_aniso_U_22
_atom_site_aniso_U_33
_atom_site_aniso_U_23
_atom_site_aniso_U_13
_atom_site_aniso_U_12
Ce1 0.1194(10) 0.0404(7) 0.0479(7) -0.0084(4) -0.0127(5) 0.0040(6)
Ce2 0.1205(13) 0.0386(9) 0.0345(8) 0.000 -0.0118(7) 0.000
Ce3 0.117(2) 0.362(6) 0.478(7) 0.265(6) 0.000 0.000
C1 0.163(18) 0.041(12) 0.026(11) 0.002(10) -0.027(10) -0.023(11)
C2 0.157(18) 0.047(12) 0.049(13) 0.009(10) -0.025(11) -0.018(11)
C3 0.160(18) 0.048(13) 0.034(11) 0.000(10) -0.013(10) 0.003(11)
C4 0.20(2) 0.048(13) 0.040(10) -0.001(11) -0.017(11) 0.005(13)
C5 0.18(2) 0.033(11) 0.037(12) -0.001(10) -0.024(11) -0.009(11)
C6 0.19(2) 0.043(12) 0.033(12) 0.006(9) -0.021(11) 0.001(12)
C7 0.164(19) 0.026(10) 0.047(14) 0.006(9) -0.009(13) -0.022(12)
C8 0.20(3) 0.105(17) 0.045(14) 0.037(11) -0.011(14) -0.051(18)
C9 0.17(2) 0.102(16) 0.037(13) 0.013(11) -0.040(12) -0.064(15)
C10 0.134(17) 0.059(12) 0.026(12) 0.013(10) -0.018(12) -0.011(12)
C11 0.137(17) 0.043(11) 0.045(14) 0.004(9) -0.009(11) -0.016(12)
C12 0.143(17) 0.043(11) 0.050(13) -0.017(10) -0.026(12) -0.016(11)
C13 0.16(2) 0.047(13) 0.029(10) 0.007(9) -0.020(12) -0.033(14)
C14 0.146(19) 0.061(14) 0.059(12) 0.011(10) -0.038(11) -0.031(14)
C15 0.16(2) 0.045(12) 0.063(12) 0.020(10) -0.023(13) -0.037(12)
C16 0.123(18) 0.068(15) 0.053(12) 0.025(11) -0.016(12) -0.023(14)
C17 0.15(2) 0.067(14) 0.082(14) 0.038(12) -0.028(13) -0.040(15)
C18 0.16(2) 0.062(14) 0.073(13) 0.017(11) -0.044(14) -0.046(13)
C19 0.158(18) 0.061(14) 0.014(10) 0.003(10) -0.015(10) 0.002(13)
C20 0.17(2) 0.032(12) 0.084(16) 0.016(11) -0.017(14) -0.022(11)
C21 0.18(2) 0.055(14) 0.050(11) -0.007(11) 0.004(12) 0.003(14)
C22 0.106(14) 0.039(13) 0.055(13) 0.002(11) -0.008(10) 0.004(10)
C23 0.128(16) 0.049(13) 0.049(12) -0.001(10) -0.012(11) -0.014(11)
C24 0.134(16) 0.041(12) 0.036(10) 0.007(10) 0.006(10) -0.005(11)
C25 0.135(19) 0.028(11) 0.055(16) -0.008(10) -0.011(13) 0.000(12)
C26 0.17(3) 0.043(16) 0.064(13) 0.024(11) -0.018(15) 0.006(16)
C27 0.117(16) 0.040(13) 0.062(14) 0.012(12) -0.005(11) 0.002(11)
C28 0.098(16) 0.045(11) 0.058(15) 0.006(10) 0.001(12) 0.009(11)
C29 0.128(18) 0.045(11) 0.032(11) 0.009(9) 0.003(11) 0.002(12)
C30 0.118(15) 0.062(12) 0.031(11) 0.012(9) 0.013(11) 0.010(11)
C31 0.118(18) 0.054(12) 0.053(14) 0.013(10) 0.000(13) 0.006(11)
C32 0.13(2) 0.104(16) 0.054(14) 0.022(12) 0.014(13) 0.025(15)
C33 0.119(16) 0.101(15) 0.046(12) 0.027(11) 0.004(13) 0.017(13)
C34 0.101(16) 0.057(12) 0.042(11) 0.010(9) 0.001(12) -0.001(12)
C35 0.09(2) 0.064(17) 0.063(17) 0.012(15) 0.000 0.000
C36 0.080(14) 0.054(11) 0.047(11) 0.006(8) -0.003(12) 0.006(11)
C37 0.06(2) 0.062(17) 0.060(19) -0.013(15) 0.000 0.000
C38 0.14(3) 0.038(17) 0.032(14) 0.006(12) 0.000 0.000
C39 0.077(15) 0.098(17) 0.081(14) 0.004(11) -0.005(12) 0.007(15)
C40 0.14(2) 0.101(18) 0.086(15) 0.019(12) -0.007(16) 0.000(19)
C41 0.08(3) 0.13(3) 0.10(2) -0.01(2) 0.000 0.000
C42 0.12(5) 0.14(4) 0.22(5) 0.08(3) 0.000 0.000
C43 0.122(19) 0.038(11) 0.055(14) -0.003(10) -0.014(16) -0.006(13)
O1 0.135(11) 0.049(7) 0.032(6) 0.002(6) -0.002(6) -0.011(7)
O2 0.169(13) 0.069(9) 0.041(7) 0.014(6) -0.020(8) -0.028(9)
O3 0.176(13) 0.033(7) 0.057(7) -0.002(6) 0.015(8) 0.003(8)
O4 0.182(14) 0.050(8) 0.061(9) -0.013(6) 0.028(8) 0.011(8)
O5 0.133(14) 0.080(11) 0.144(13) 0.044(9) -0.003(11) -0.014(10)
O6 0.122(12) 0.043(8) 0.078(9) 0.022(6) -0.012(8) -0.020(8)
O7 0.119(10) 0.041(6) 0.046(7) 0.011(5) -0.004(7) 0.003(6)
O8 0.105(11) 0.082(9) 0.059(8) 0.015(6) -0.023(8) 0.000(9)
O9 0.109(14) 0.25(2) 0.28(3) 0.12(2) -0.002(15) 0.004(16)
O10 0.21(2) 0.045(12) 0.122(15) 0.000 0.029(15) 0.000
O11 0.034(14) 0.53(7) 0.34(4) -0.08(4) 0.000 0.000
O12 0.184(15) 0.124(11) 0.065(8) -0.013(7) -0.032(9) -0.001(10)
O13 0.097(9) 0.064(8) 0.105(9) -0.022(6) 0.012(7) -0.007(7)

_geom_special_details            
;
All esds (except the esd in the dihedral angle between two l.s. planes)
are estimated using the full covariance matrix. The cell esds are taken
into account individually in the estimation of esds in distances, angles
and torsion angles; correlations between esds in cell parameters are only
used when they are defined by crystal symmetry. An approximate (isotropic)
treatment of cell esds is used for estimating esds involving l.s. planes.
;

loop_
_geom_bond_atom_site_label_1
_geom_bond_atom_site_label_2
_geom_bond_distance
_geom_bond_site_symmetry_2
_geom_bond_publ_flag
Ce1 O1 2.470(13) . ?
Ce1 O4 2.521(11) 4 ?
Ce1 O8 2.536(11) . ?
Ce1 O3 2.558(10) 4 ?
Ce1 O5 2.587(13) 11_566 ?
Ce1 O12 2.611(13) . ?
Ce1 O13 2.640(12) . ?
Ce1 O6 2.650(12) 11_566 ?
Ce1 O7 2.708(11) . ?
Ce1 C27 2.909(18) 4 ?
Ce1 C43 2.98(2) . ?
Ce1 C26 2.985(18) 11_566 ?
Ce2 O10 2.444(17) . ?
Ce2 O7 2.473(11) 7_545 ?
Ce2 O7 2.473(11) . ?
Ce2 O6 2.478(15) 13 ?
Ce2 O6 2.478(15) 11_566 ?
Ce2 O2 2.527(10) 7_545 ?
Ce2 O2 2.527(10) . ?
Ce2 O1 2.727(10) 7_545 ?
Ce2 O1 2.727(10) . ?
Ce2 C25 3.030(18) 7_545 ?
Ce2 C25 3.030(18) . ?
Ce2 Ce1 3.9879(16) 7_545 ?
Ce3 O9 2.39(2) 12_655 ?
Ce3 O9 2.39(2) . ?
Ce3 O2W 2.67(6) . ?
Ce3 O2W 2.67(6) 12_655 ?
Ce3 O1W 2.69(4) 12_655 ?
Ce3 O1W 2.69(4) . ?
Ce3 O11 2.74(4) . ?
Ce3 O11 2.89(4) 9_656 ?
C1 C2