
#######################################################################
#
#                 Cambridge Crystallographic Data Centre
#                                CCDC
#
#######################################################################
#
# If this CIF has been generated from an entry in the Cambridge
# Structural Database, then it will include bibliographic, chemical,
# crystal, experimental, refinement or atomic coordinate data resulting
# from the CCDC's data processing and validation procedures.
#
#######################################################################

data_CSD_CIF_DUFZIO
_audit_creation_date 2010-02-16
_audit_creation_method CSD-ConQuest-V1
_database_code_CSD DUFZIO
_database_code_depnum_ccdc_archive 'CCDC 705066'
_chemical_formula_sum 'C1 H10 B1 N3'
_chemical_formula_moiety
;
C1 H6 N3 1+,H4 B1 1-
;
_journal_coden_Cambridge 182
_journal_year 2009
_journal_page_first 3089
_journal_name_full 'Chem.Commun. '
loop_
_publ_author_name
"T.J.Groshens"
"R.A.Hollins"
_chemical_name_systematic
;
Guanidinium tetrahydroborate
;
_chemical_name_common
;
Teaching Subset: Fundamental Chemistry
;
_cell_volume   1100.197
_exptl_crystal_colour 'colorless'
_exptl_crystal_density_diffrn 0.905
_exptl_crystal_description 'tetragonal bipyramid'
_diffrn_ambient_temperature 296
#These two values have been output from a single CSD field.
_refine_ls_R_factor_gt 0.0545
_refine_ls_wR_factor_gt 0.0545
_symmetry_cell_setting tetragonal
_symmetry_space_group_name_H-M 'I 41/a m d'
_symmetry_Int_Tables_number 141
loop_
_symmetry_equiv_pos_site_id
_symmetry_equiv_pos_as_xyz
1 x,y,z
2 1/4-y,3/4+x,1/4+z
3 1/4+y,1/4-x,3/4+z
4 x,-y,-z
5 -x,1/2+y,-z
6 -x,1/2-y,z
7 1/4+y,3/4+x,1/4-z
8 1/4-y,1/4-x,3/4-z
9 1/2+x,1/2+y,1/2+z
10 3/4-y,1/4+x,3/4+z
11 3/4+y,3/4-x,1/4+z
12 1/2+x,1/2-y,1/2-z
13 1/2-x,y,1/2-z
14 1/2-x,-y,1/2+z
15 3/4+y,1/4+x,3/4-z
16 3/4-y,3/4-x,1/4-z
17 -x,-y,-z
18 -1/4+y,-3/4-x,-1/4-z
19 -1/4-y,-1/4+x,-3/4-z
20 -x,y,z
21 x,-1/2-y,z
22 x,-1/2+y,-z
23 -1/4-y,-3/4-x,-1/4+z
24 -1/4+y,-1/4+x,-3/4+z
25 -1/2-x,-1/2-y,-1/2-z
26 -3/4+y,-1/4-x,-3/4-z
27 -3/4-y,-3/4+x,-1/4-z
28 -1/2-x,-1/2+y,-1/2+z
29 -1/2+x,-y,-1/2+z
30 -1/2+x,y,-1/2-z
31 -3/4-y,-1/4-x,-3/4+z
32 -3/4+y,-3/4+x,-1/4+z
_cell_length_a 6.7433(8)
_cell_length_b 6.7433(8)
_cell_length_c 24.195(3)
_cell_angle_alpha 90
_cell_angle_beta 90
_cell_angle_gamma 90
_cell_formula_units_Z 8
loop_
_atom_type_symbol
_atom_type_radius_bond
C 0.68
H 0.23
B 0.83
N 0.68
loop_
_atom_site_label
_atom_site_type_symbol
_atom_site_fract_x
_atom_site_fract_y
_atom_site_fract_z
B1 B 0.50000 0.75000 0.07976(16)
H1 H 0.368(5) 0.75000 0.1041(15)
H2 H 0.50000 0.656(5) 0.0412(17)
N1 N 0.8315(2) 0.75000 0.96431(7)
H3 H 0.72110 0.75000 0.98210
H4 H 0.83150 0.75000 0.92880
N2 N 1.00000 0.75000 1.04534(10)
C1 C 1.00000 0.75000 0.99142(11)
H5 H 1.109(3) 0.75000 1.0587(11)
H1E H 0.632(5) 0.75000 0.1041(15)
H2E H 0.50000 0.844(5) 0.0412(17)
N1E N 1.1685(2) 0.75000 0.96431(7)
H3E H 1.27890 0.75000 0.98210
H4E H 1.16850 0.75000 0.92880
H5E H 0.891(3) 0.75000 1.0587(11)
#END
