####################################################################### 
# 
# This file contains crystal structure data downloaded from the 
# Cambridge Structural Database (CSD) hosted by the Cambridge 
# Crystallographic Data Centre (CCDC).
# 
# Full information about CCDC data access policies and citation 
# guidelines are available at http://www.ccdc.cam.ac.uk/access/V1 
# 
# Audit and citation data items may have been added by the CCDC. 
# Please retain this information to preserve the provenance of 
# this file and to allow appropriate attribution of the data. 
# 
#######################################################################

data_d
_audit_block_doi                 10.5517/cc149bh8
_database_code_depnum_ccdc_archive 'CCDC 1051659'
loop_
_citation_id
_citation_doi
_citation_year
1 10.1016/j.micromeso.2015.07.001 2015
_audit_update_record             
;
2015-03-02 deposited with the CCDC.	2024-07-09 downloaded from the CCDC.
;

_audit_creation_method           SHELXL-97
_chemical_name_systematic        
; 
 ? 
;
_chemical_name_common            ?
_chemical_melting_point          ?
_chemical_formula_moiety         ?
_chemical_formula_sum            'C82 H52 Cu6 N2 O34'
_chemical_formula_weight         1990.50

loop_
_atom_type_symbol
_atom_type_description
_atom_type_scat_dispersion_real
_atom_type_scat_dispersion_imag
_atom_type_scat_source
C C 0.0033 0.0016 'International Tables Vol C Tables 4.2.6.8 and 6.1.1.4'
Cu Cu 0.3201 1.2651 'International Tables Vol C Tables 4.2.6.8 and 6.1.1.4'
N N 0.0061 0.0033 'International Tables Vol C Tables 4.2.6.8 and 6.1.1.4'
O O 0.0106 0.0060 'International Tables Vol C Tables 4.2.6.8 and 6.1.1.4'
H H 0.0000 0.0000 'International Tables Vol C Tables 4.2.6.8 and 6.1.1.4'

_symmetry_cell_setting           Tetragonal
_symmetry_space_group_name_H-M   I4/m

loop_
_symmetry_equiv_pos_as_xyz
'x, y, z'
'-y, x, z'
'-x, -y, z'
'y, -x, z'
'x+1/2, y+1/2, z+1/2'
'-y+1/2, x+1/2, z+1/2'
'-x+1/2, -y+1/2, z+1/2'
'y+1/2, -x+1/2, z+1/2'
'-x, -y, -z'
'y, -x, -z'
'x, y, -z'
'-y, x, -z'
'-x+1/2, -y+1/2, -z+1/2'
'y+1/2, -x+1/2, -z+1/2'
'x+1/2, y+1/2, -z+1/2'
'-y+1/2, x+1/2, -z+1/2'

_cell_length_a                   29.5350(16)
_cell_length_b                   29.5350(16)
_cell_length_c                   28.0993(18)
_cell_angle_alpha                90.00
_cell_angle_beta                 90.00
_cell_angle_gamma                90.00
_cell_volume                     24511(2)
_cell_formula_units_Z            8
_cell_measurement_temperature    173(2)
_cell_measurement_reflns_used    ?
_cell_measurement_theta_min      ?
_cell_measurement_theta_max      ?

_exptl_crystal_description       Block
_exptl_crystal_colour            Blue
_exptl_crystal_size_max          ?
_exptl_crystal_size_mid          ?
_exptl_crystal_size_min          ?
_exptl_crystal_density_meas      ?
_exptl_crystal_density_diffrn    1.079
_exptl_crystal_density_method    'not measured'
_exptl_crystal_F_000             8032
_exptl_absorpt_coefficient_mu    1.084
_exptl_absorpt_correction_type   ?
_exptl_absorpt_correction_T_min  ?
_exptl_absorpt_correction_T_max  ?
_exptl_absorpt_process_details   ?

_exptl_special_details           
; 
 ? 
;

_diffrn_ambient_temperature      173(2)
_diffrn_radiation_wavelength     0.71073
_diffrn_radiation_type           MoK\a
_diffrn_radiation_source         'fine-focus sealed tube'
_diffrn_radiation_monochromator  graphite
_diffrn_measurement_device_type  ?
_diffrn_measurement_method       ?
_diffrn_detector_area_resol_mean ?
_diffrn_standards_number         ?
_diffrn_standards_interval_count ?
_diffrn_standards_interval_time  ?
_diffrn_standards_decay_%        ?
_diffrn_reflns_number            77271
_diffrn_reflns_av_R_equivalents  0.1079
_diffrn_reflns_av_sigmaI/netI    0.0997
_diffrn_reflns_limit_h_min       -38
_diffrn_reflns_limit_h_max       38
_diffrn_reflns_limit_k_min       -38
_diffrn_reflns_limit_k_max       38
_diffrn_reflns_limit_l_min       -36
_diffrn_reflns_limit_l_max       26
_diffrn_reflns_theta_min         1.70
_diffrn_reflns_theta_max         27.52
_reflns_number_total             14396
_reflns_number_gt                7357
_reflns_threshold_expression     >2sigma(I)

_computing_data_collection       ?
_computing_cell_refinement       ?
_computing_data_reduction        ?
_computing_structure_solution    'SHELXS-97 (Sheldrick, 1990)'
_computing_structure_refinement  'SHELXL-97 (Sheldrick, 1997)'
_computing_molecular_graphics    ?
_computing_publication_material  ?

_refine_special_details          
; 
 Refinement of F^2^ against ALL reflections.  The weighted R-factor wR and 
 goodness of fit S are based on F^2^, conventional R-factors R are based 
 on F, with F set to zero for negative F^2^. The threshold expression of 
 F^2^ > 2sigma(F^2^) is used only for calculating R-factors(gt) etc. and is 
 not relevant to the choice of reflections for refinement.  R-factors based 
 on F^2^ are statistically about twice as large as those based on F, and R- 
 factors based on ALL data will be even larger. 
;

_refine_ls_structure_factor_coef Fsqd
_refine_ls_matrix_type           full
_refine_ls_weighting_scheme      calc
_refine_ls_weighting_details     
'calc w=1/[\s^2^(Fo^2^)+(0.1048P)^2^+0.0000P] where P=(Fo^2^+2Fc^2^)/3'
_atom_sites_solution_primary     direct
_atom_sites_solution_secondary   difmap
_atom_sites_solution_hydrogens   geom
_refine_ls_hydrogen_treatment    mixed
_refine_ls_extinction_method     SHELXL
_refine_ls_extinction_coef       0.000036(16)
_refine_ls_extinction_expression Fc^*^=kFc[1+0.001xFc^2^\l^3^/sin(2\q)]^-1/4^
_refine_ls_number_reflns         14396
_refine_ls_number_parameters     524
_refine_ls_number_restraints     1
_refine_ls_R_factor_all          0.1391
_refine_ls_R_factor_gt           0.0751
_refine_ls_wR_factor_ref         0.2191
_refine_ls_wR_factor_gt          0.1907
_refine_ls_goodness_of_fit_ref   0.938
_refine_ls_restrained_S_all      0.938
_refine_ls_shift/su_max          0.000
_refine_ls_shift/su_mean         0.000

loop_
_atom_site_label
_atom_site_type_symbol
_atom_site_fract_x
_atom_site_fract_y
_atom_site_fract_z
_atom_site_U_iso_or_equiv
_atom_site_adp_type
_atom_site_occupancy
_atom_site_symmetry_multiplicity
_atom_site_calc_flag
_atom_site_refinement_flags
_atom_site_disorder_assembly
_atom_site_disorder_group
Cu1 Cu 0.18787(2) 0.17381(2) 0.23479(2) 0.0514(2) Uani 1 1 d . . .
Cu2 Cu 0.14191(2) 0.13118(2) 0.30200(2) 0.0506(2) Uani 1 1 d . . .
Cu3 Cu 0.01231(3) 0.36176(3) 0.5000 0.0458(2) Uani 1 2 d S . .
Cu4 Cu 0.00925(3) 0.27316(3) 0.5000 0.0446(2) Uani 1 2 d S . .
O1 O 0.05526(12) 0.27762(12) 0.45106(14) 0.0602(10) Uani 1 1 d . . .
O2 O 0.05786(13) 0.35295(12) 0.45023(14) 0.0615(10) Uani 1 1 d . . .
O3 O 0.16710(15) 0.38760(13) 0.31531(18) 0.0871(15) Uani 1 1 d . . .
O4 O 0.14765(17) 0.59743(13) 0.33124(16) 0.0858(15) Uani 1 1 d . . .
O5 O 0.16025(12) 0.75945(12) 0.27475(14) 0.0597(10) Uani 1 1 d . . .
O6 O 0.12392(13) 0.79853(12) 0.33049(14) 0.0672(11) Uani 1 1 d . . .
O7 O 0.03704(13) 0.71846(12) 0.45182(14) 0.0637(11) Uani 1 1 d . . .
O8 O 0.03425(13) 0.64225(12) 0.45114(14) 0.0659(11) Uani 1 1 d . . .
O9 O 0.13764(13) 0.19155(12) 0.33072(15) 0.0656(11) Uani 1 1 d . . .
O10 O 0.17642(13) 0.22765(12) 0.27359(16) 0.0694(12) Uani 1 1 d . . .
O11 O 0.19194(14) 0.11285(13) 0.20822(16) 0.0726(12) Uani 1 1 d . . .
O12 O 0.15257(15) 0.07714(14) 0.26454(17) 0.0800(13) Uani 1 1 d . . .
O13 O 0.14536(13) -0.08866(13) 0.26446(15) 0.0694(11) Uani 1 1 d . . .
O14 O 0.18166(16) -0.12711(14) 0.20780(16) 0.0795(13) Uani 1 1 d . . .
O15 O 0.2522(2) -0.00789(18) 0.1045(2) 0.120(2) Uani 1 1 d . . .
O16 O 0.0173(3) 0.4351(2) 0.5000 0.129(3) Uani 1 2 d S . .
O17 O 0.10627(18) 0.09682(18) 0.3597(2) 0.1152(19) Uani 1 1 d . . .
O18 O 0.0059(3) 0.1996(2) 0.5000 0.108(3) Uani 1 2 d S . .
C1 C 0.11346(17) 0.27225(17) 0.37334(19) 0.0500(13) Uani 1 1 d . . .
H1A H 0.1013 0.2449 0.3857 0.060 Uiso 1 1 calc R . .
C37 C 0.1680(2) -0.0913(2) 0.2263(2) 0.0614(15) Uani 1 1 d . . .
C2 C 0.14312(16) 0.27056(17) 0.33453(19) 0.0486(12) Uani 1 1 d . . .
C3 C 0.16045(18) 0.31065(18) 0.3171(2) 0.0550(14) Uani 1 1 d . . .
H3A H 0.1812 0.3099 0.2913 0.066 Uiso 1 1 calc R . .
C4 C 0.1481(2) 0.35225(18) 0.3366(2) 0.0642(16) Uani 1 1 d . . .
C5 C 0.11926(18) 0.35314(18) 0.3756(2) 0.0559(14) Uani 1 1 d . . .
H5A H 0.1113 0.3811 0.3900 0.067 Uiso 1 1 calc R . .
C6 C 0.10186(17) 0.31237(18) 0.39359(19) 0.0526(13) Uani 1 1 d . . .
C7 C 0.1544(3) 0.4287(2) 0.3304(3) 0.097(3) Uani 1 1 d . . .
H7A H 0.1667 0.4341 0.3627 0.116 Uiso 1 1 calc R . .
H7B H 0.1210 0.4302 0.3322 0.116 Uiso 1 1 calc R . .
C8 C 0.1722(2) 0.46568(18) 0.2958(3) 0.0711(18) Uani 1 1 d . . .
C9 C 0.1949(3) 0.4552(2) 0.2575(3) 0.100(3) Uani 1 1 d . . .
H9A H 0.1987 0.4242 0.2493 0.119 Uiso 1 1 calc R . .
C10 C 0.2138(3) 0.4883(3) 0.2283(3) 0.118(3) Uani 1 1 d . . .
H10A H 0.2329 0.4800 0.2025 0.141 Uiso 1 1 calc R . .
C11 C 0.2047(3) 0.5327(2) 0.2374(3) 0.108(3) Uani 1 1 d . . .
H11A H 0.2157 0.5556 0.2167 0.130 Uiso 1 1 calc R . .
C12 C 0.1795(2) 0.5444(2) 0.2764(3) 0.0743(19) Uani 1 1 d . . .
C13 C 0.1643(2) 0.5108(2) 0.3051(3) 0.081(2) Uani 1 1 d . . .
H13A H 0.1475 0.5186 0.3327 0.097 Uiso 1 1 calc R . .
C14 C 0.1719(3) 0.5945(2) 0.2881(3) 0.095(2) Uani 1 1 d . . .
H14A H 0.2014 0.6102 0.2913 0.114 Uiso 1 1 calc R . .
H14B H 0.1546 0.6093 0.2622 0.114 Uiso 1 1 calc R . .
C15 C 0.1326(2) 0.63895(18) 0.3439(2) 0.0709(18) Uani 1 1 d . . .
C16 C 0.14518(19) 0.67879(18) 0.3222(2) 0.0595(15) Uani 1 1 d . . .
H16A H 0.1663 0.6786 0.2967 0.071 Uiso 1 1 calc R . .
C17 C 0.12663(19) 0.71928(18) 0.3380(2) 0.0567(14) Uani 1 1 d . . .
C18 C 0.09641(18) 0.71961(18) 0.3749(2) 0.0563(14) Uani 1 1 d . . .
H18A H 0.0839 0.7475 0.3853 0.068 Uiso 1 1 calc R . .
C19 C 0.08389(17) 0.67998(17) 0.3971(2) 0.0519(13) Uani 1 1 d . . .
C20 C 0.1015(2) 0.6383(2) 0.3810(2) 0.0689(17) Uani 1 1 d . . .
H20A H 0.0923 0.6105 0.3952 0.083 Uiso 1 1 calc R . .
C21 C 0.15355(19) 0.22712(19) 0.3122(2) 0.0582(14) Uani 1 1 d . . .
C22 C 0.06989(18) 0.31423(17) 0.4344(2) 0.0503(13) Uani 1 1 d . . .
C23 C 0.13825(18) 0.76136(18) 0.3132(2) 0.0571(14) Uani 1 1 d . . .
C24 C 0.04977(18) 0.6797(2) 0.43568(19) 0.0553(14) Uani 1 1 d . . .
C25 C 0.1861(2) 0.0331(2) 0.2032(2) 0.0691(17) Uani 1 1 d . . .
C26 C 0.2131(3) 0.0313(2) 0.1633(3) 0.085(2) Uani 1 1 d . . .
H26A H 0.2234 0.0586 0.1490 0.102 Uiso 1 1 calc R . .
C27 C 0.2251(3) -0.0096(2) 0.1443(3) 0.090(2) Uani 1 1 d . . .
C28 C 0.2086(2) -0.0496(2) 0.1637(3) 0.084(2) Uani 1 1 d . . .
H28A H 0.2163 -0.0779 0.1499 0.101 Uiso 1 1 calc R . .
C29 C 0.1810(2) -0.0481(2) 0.2032(3) 0.0709(17) Uani 1 1 d . . .
C30 C 0.1701(2) -0.00721(19) 0.2232(2) 0.0672(16) Uani 1 1 d . . .
H30A H 0.1515 -0.0062 0.2508 0.081 Uiso 1 1 calc R . .
C31 C 0.2708(4) -0.0465(4) 0.0876(4) 0.151(4) Uiso 1 1 d . . .
H31A H 0.2469 -0.0693 0.0812 0.181 Uiso 1 1 calc R . .
H31B H 0.2923 -0.0593 0.1111 0.181 Uiso 1 1 calc R . .
C32 C 0.2961(4) -0.0338(5) 0.0405(3) 0.179(6) Uani 1 1 d D . .
C33 C 0.3408(3) -0.0318(6) 0.0426(4) 0.244(9) Uani 1 1 d D . .
H33A H 0.3568 -0.0324 0.0720 0.293 Uiso 1 1 calc R . .
C34 C 0.3626(7) -0.0286(6) 0.0000 0.181(7) Uiso 1 2 d SD . .
H34A H 0.3944 -0.0240 0.0000 0.217 Uiso 1 2 calc SR . .
C35 C 0.2714(6) -0.0316(8) 0.0000 0.220(11) Uani 1 2 d SD . .
H35A H 0.2393 -0.0287 0.0000 0.264 Uiso 1 2 calc SR . .
C36 C 0.1764(2) 0.07764(19) 0.2267(2) 0.0646(16) Uani 1 1 d . . .
C38 C 0.2319(3) 0.1730(2) 0.1409(3) 0.250(8) Uiso 1 1 d G . .
H38A H 0.2259 0.1418 0.1461 0.301 Uiso 1 1 calc R . .
C39 C 0.2513(3) 0.1870(4) 0.0983(3) 0.314(10) Uiso 1 1 d G . .
H39A H 0.2585 0.1654 0.0744 0.377 Uiso 1 1 calc R . .
C40 C 0.2601(3) 0.2327(4) 0.0907(2) 0.198(5) Uiso 1 1 d G . .
H40A H 0.2734 0.2423 0.0615 0.237 Uiso 1 1 calc R . .
C41 C 0.2496(3) 0.2643(3) 0.1256(4) 0.239(7) Uiso 1 1 d G . .
H41A H 0.2556 0.2955 0.1204 0.287 Uiso 1 1 calc R . .
C42 C 0.2302(3) 0.2502(2) 0.1682(3) 0.201(6) Uiso 1 1 d G . .
H42A H 0.2230 0.2718 0.1920 0.241 Uiso 1 1 calc R . .
N1 N 0.22134(17) 0.2046(3) 0.1758(2) 0.103(2) Uani 1 1 d G . .

loop_
_atom_site_aniso_label
_atom_site_aniso_U_11
_atom_site_aniso_U_22
_atom_site_aniso_U_33
_atom_site_aniso_U_23
_atom_site_aniso_U_13
_atom_site_aniso_U_12
Cu1 0.0487(4) 0.0534(4) 0.0522(4) 0.0118(3) 0.0117(3) 0.0010(3)
Cu2 0.0470(4) 0.0517(4) 0.0531(4) 0.0118(3) 0.0127(3) 0.0011(3)
Cu3 0.0575(5) 0.0347(4) 0.0451(5) 0.000 0.000 -0.0015(4)
Cu4 0.0561(5) 0.0357(4) 0.0419(5) 0.000 0.000 -0.0023(4)
O1 0.071(2) 0.052(2) 0.058(2) 0.0052(19) 0.013(2) 0.0030(18)
O2 0.072(2) 0.048(2) 0.064(3) 0.0073(19) 0.022(2) -0.0021(18)
O3 0.105(3) 0.042(2) 0.114(4) 0.015(2) 0.045(3) 0.008(2)
O4 0.138(4) 0.049(2) 0.071(3) -0.002(2) 0.052(3) 0.011(2)
O5 0.067(2) 0.054(2) 0.058(3) -0.0057(19) 0.030(2) -0.0008(18)
O6 0.084(3) 0.048(2) 0.070(3) -0.004(2) 0.029(2) -0.0067(19)
O7 0.075(3) 0.058(2) 0.058(3) -0.005(2) 0.025(2) -0.0072(19)
O8 0.076(3) 0.055(2) 0.066(3) -0.001(2) 0.018(2) -0.0069(19)
O9 0.075(3) 0.049(2) 0.073(3) 0.006(2) 0.019(2) -0.0037(18)
O10 0.071(3) 0.051(2) 0.086(3) 0.001(2) 0.033(2) 0.0015(19)
O11 0.093(3) 0.050(2) 0.074(3) 0.006(2) 0.024(2) -0.012(2)
O12 0.097(3) 0.062(3) 0.081(3) 0.012(2) 0.032(3) 0.008(2)
O13 0.073(3) 0.059(2) 0.076(3) 0.005(2) 0.024(2) -0.0027(19)
O14 0.106(3) 0.058(2) 0.074(3) -0.011(2) 0.027(3) -0.001(2)
O15 0.172(5) 0.092(4) 0.096(4) -0.011(3) 0.061(4) 0.029(3)
O16 0.177(8) 0.044(4) 0.165(8) 0.000 0.000 -0.003(4)
O17 0.108(4) 0.125(4) 0.112(4) 0.050(4) 0.037(3) -0.012(3)
O18 0.141(6) 0.053(4) 0.131(7) 0.000 0.000 -0.006(4)
C1 0.050(3) 0.049(3) 0.052(3) 0.008(3) -0.004(3) 0.004(2)
C37 0.064(4) 0.057(3) 0.063(4) 0.008(3) 0.003(3) -0.002(3)
C2 0.045(3) 0.050(3) 0.050(3) 0.009(2) 0.005(2) 0.000(2)
C3 0.051(3) 0.059(3) 0.054(3) 0.006(3) 0.007(3) 0.008(3)
C4 0.075(4) 0.046(3) 0.071(4) 0.012(3) 0.017(3) -0.002(3)
C5 0.067(4) 0.049(3) 0.051(3) -0.003(3) 0.010(3) -0.004(3)
C6 0.055(3) 0.061(3) 0.042(3) 0.006(3) -0.001(3) 0.005(3)
C7 0.131(6) 0.064(4) 0.096(6) 0.003(4) 0.048(5) -0.021(4)
C8 0.083(4) 0.041(3) 0.089(5) 0.000(3) 0.035(4) -0.007(3)
C9 0.141(7) 0.062(4) 0.097(6) -0.021(4) 0.047(5) -0.006(4)
C10 0.158(8) 0.107(6) 0.088(6) -0.016(5) 0.063(6) -0.019(6)
C11 0.162(8) 0.048(4) 0.115(7) 0.013(4) 0.071(6) -0.009(4)
C12 0.088(5) 0.049(3) 0.086(5) -0.003(3) 0.023(4) -0.001(3)
C13 0.113(5) 0.055(4) 0.075(5) -0.016(3) 0.029(4) -0.011(3)
C14 0.124(6) 0.056(4) 0.105(6) 0.004(4) 0.044(5) -0.002(4)
C15 0.106(5) 0.044(3) 0.063(4) -0.002(3) 0.025(4) 0.011(3)
C16 0.072(4) 0.057(3) 0.049(3) -0.007(3) 0.023(3) -0.004(3)
C17 0.069(4) 0.050(3) 0.051(3) -0.003(3) 0.009(3) -0.012(3)
C18 0.058(3) 0.055(3) 0.056(4) -0.007(3) 0.010(3) 0.000(3)
C19 0.056(3) 0.049(3) 0.051(3) -0.004(3) 0.006(3) -0.004(2)
C20 0.082(4) 0.064(4) 0.060(4) 0.004(3) 0.023(3) -0.008(3)
C21 0.056(3) 0.056(3) 0.062(4) -0.002(3) 0.006(3) 0.010(3)
C22 0.059(3) 0.040(3) 0.052(3) 0.005(2) -0.012(3) 0.007(2)
C23 0.054(3) 0.048(3) 0.068(4) -0.015(3) 0.005(3) -0.009(3)
C24 0.058(3) 0.071(4) 0.036(3) 0.008(3) 0.004(3) -0.005(3)
C25 0.071(4) 0.057(3) 0.079(5) 0.013(3) 0.018(4) 0.004(3)
C26 0.121(6) 0.056(4) 0.077(5) 0.000(3) 0.037(4) 0.005(4)
C27 0.119(6) 0.085(5) 0.065(5) 0.012(4) 0.027(4) 0.018(4)
C28 0.109(6) 0.063(4) 0.079(5) 0.011(4) 0.004(4) -0.005(4)
C29 0.072(4) 0.062(4) 0.078(5) 0.000(3) 0.021(4) -0.003(3)
C30 0.077(4) 0.059(4) 0.065(4) 0.003(3) 0.003(3) 0.010(3)
C32 0.103(7) 0.374(18) 0.062(6) -0.020(9) 0.022(6) 0.042(9)
C33 0.078(7) 0.58(3) 0.076(7) 0.035(12) 0.018(6) 0.046(11)
C35 0.150(15) 0.45(4) 0.057(9) 0.000 0.000 0.008(17)
C36 0.075(4) 0.050(3) 0.069(4) -0.001(3) 0.006(3) 0.005(3)
N1 0.081(4) 0.122(5) 0.105(5) 0.040(4) 0.033(4) 0.011(4)

_geom_special_details            
; 
 All esds (except the esd in the dihedral angle between two l.s. planes) 
 are estimated using the full covariance matrix.  The cell esds are taken 
 into account individually in the estimation of esds in distances, angles 
 and torsion angles; correlations between esds in cell parameters are only 
 used when they are defined by crystal symmetry.  An approximate (isotropic) 
 treatment of cell esds is used for estimating esds involving l.s. planes. 
;

loop_
_geom_bond_atom_site_label_1
_geom_bond_atom_site_label_2
_geom_bond_distance
_geom_bond_site_symmetry_2
_geom_bond_publ_flag
Cu1 O11 1.953(4) . ?
Cu1 O10 1.957(4) . ?
Cu1 O14 1.962(4) 2 ?
Cu1 O5 1.960(4) 2_655 ?
Cu1 N1 2.133(5) . ?
Cu1 Cu2 2.6449(9) . ?
Cu2 O13 1.939(4) 2 ?
Cu2 O12 1.938(4) . ?
Cu2 O6 1.945(4) 2_655 ?
Cu2 O9 1.961(4) . ?
Cu2 O17 2.183(5) . ?
Cu3 O8 1.947(4) 3_565 ?
Cu3 O8 1.947(4) 9_566 ?
Cu3 O2 1.958(4) 11_556 ?
Cu3 O2 1.958(4) . ?
Cu3 O16 2.172(6) . ?
Cu3 Cu4 2.6184(11) . ?
Cu4 O1 1.938(4) 11_556 ?
Cu4 O1 1.938(4) . ?
Cu4 O7 1.940(4) 3_565 ?
Cu4 O7 1.940(4) 9_566 ?
Cu4 O18 2.176(6) . ?
O1 C22 1.255(6) . ?
O2 C22 1.277(6) . ?
O3 C4 1.328(6) . ?
O3 C7 1.338(7) . ?
O4 C15 1.352(6) . ?
O4 C14 1.410(8) . ?
O5 C23 1.263(6) . ?
O5 Cu1 1.960(4) 4_565 ?
O6 C23 1.273(6) . ?
O6 Cu2 1.945(4) 4_565 ?
O7 C24 1.287(6) . ?
O7 Cu4 1.940(4) 9_566 ?
O8 C24 1.275(6) . ?
O8 Cu3 1.947(4) 9_566 ?
O9 C21 1.263(6) . ?
O10 C21 1.278(6) . ?
O11 C36 1.249(7) . ?
O12 C36 1.276(7) . ?
O13 C37 1.265(7) . ?
O13 Cu2 1.939(4) 4 ?
O14 C37 1.247(7) . ?
O14 Cu1 1.962(4) 4 ?
O15 C31 1.353(11) . ?
O15 C27 1.375(8) . ?
C1 C6 1.358(7) . ?
C1 C2 1.400(7) . ?
C1 H1A 0.9500 . ?
C37 C29 1.481(8) . ?
C2 C3 1.380(7) . ?
C2 C21 1.461(7) . ?
C3 C4 1.394(7) . ?
C3 H3A 0.9500 . ?
C4 C5 1.389(8) . ?
C5 C6 1.4