####################################################################### 
# 
# This file contains crystal structure data downloaded from the 
# Cambridge Structural Database (CSD) hosted by the Cambridge 
# Crystallographic Data Centre (CCDC).
# 
# Full information about CCDC data access policies and citation 
# guidelines are available at http://www.ccdc.cam.ac.uk/access/V1 
# 
# Audit and citation data items may have been added by the CCDC. 
# Please retain this information to preserve the provenance of 
# this file and to allow appropriate attribution of the data. 
# 
#######################################################################

data_Gd
_audit_block_doi                 10.5517/cc13tkp5
_database_code_depnum_ccdc_archive 'CCDC 1037467'
loop_
_citation_id
_citation_doi
_citation_year
1 10.1016/j.poly.2015.07.003 2015
_audit_update_record             
;
2014-12-03 deposited with the CCDC.	2024-07-09 downloaded from the CCDC.
;

_audit_creation_method           SHELXL-97
_chemical_name_systematic        
; 
 ? 
;
_chemical_name_common            ?
_chemical_melting_point          ?
_chemical_formula_moiety         'C72 H92 Gd2 N50 O40, 2(Zn Cl4), 43(H2 O)'
_chemical_formula_sum            'C72 H178 Cl8 Gd2 N50 O83 Zn2'
_chemical_formula_weight         3801.48

loop_
_atom_type_symbol
_atom_type_description
_atom_type_scat_dispersion_real
_atom_type_scat_dispersion_imag
_atom_type_scat_source
C C 0.0033 0.0016 'International Tables Vol C Tables 4.2.6.8 and 6.1.1.4'
H H 0.0000 0.0000 'International Tables Vol C Tables 4.2.6.8 and 6.1.1.4'
N N 0.0061 0.0033 'International Tables Vol C Tables 4.2.6.8 and 6.1.1.4'
O O 0.0106 0.0060 'International Tables Vol C Tables 4.2.6.8 and 6.1.1.4'
Gd Gd -0.1653 3.9035 'International Tables Vol C Tables 4.2.6.8 and 6.1.1.4'
Zn Zn 0.2839 1.4301 'International Tables Vol C Tables 4.2.6.8 and 6.1.1.4'
Cl Cl 0.1484 0.1585 'International Tables Vol C Tables 4.2.6.8 and 6.1.1.4'

_symmetry_cell_setting           triclinic
_symmetry_space_group_name_H-M   'P -1'
_symmetry_space_group_name_Hall  '-p 1'

loop_
_symmetry_equiv_pos_as_xyz
'x, y, z'
'-x, -y, -z'

_cell_length_a                   15.3856(9)
_cell_length_b                   19.1418(11)
_cell_length_c                   25.7169(15)
_cell_angle_alpha                89.9060(10)
_cell_angle_beta                 73.9590(10)
_cell_angle_gamma                78.1820(10)
_cell_volume                     7112.5(7)
_cell_formula_units_Z            2
_cell_measurement_temperature    223(2)
_cell_measurement_reflns_used    ?
_cell_measurement_theta_min      ?
_cell_measurement_theta_max      ?

_exptl_crystal_description       prism
_exptl_crystal_colour            colorless
_exptl_crystal_size_max          0.31
_exptl_crystal_size_mid          0.27
_exptl_crystal_size_min          0.25
_exptl_crystal_density_meas      ?
_exptl_crystal_density_diffrn    1.775
_exptl_crystal_density_method    'not measured'
_exptl_crystal_F_000             3896
_exptl_absorpt_coefficient_mu    1.529
_exptl_absorpt_correction_type   multi-scan
_exptl_absorpt_correction_T_min  0.6487
_exptl_absorpt_correction_T_max  0.7012
_exptl_absorpt_process_details   'SADABS (Bruker, 2008)'

_exptl_special_details           
; 
 ? 
;

_diffrn_ambient_temperature      223(2)
_diffrn_radiation_wavelength     0.71073
_diffrn_radiation_type           MoK\a
_diffrn_radiation_source         'fine-focus sealed tube'
_diffrn_radiation_monochromator  graphite
_diffrn_measurement_device_type  'Bruker Smart Apex2 CCD Detector'
_diffrn_measurement_method       '\f and \w scan'
_diffrn_detector_area_resol_mean ?
_diffrn_standards_number         ?
_diffrn_standards_interval_count ?
_diffrn_standards_interval_time  ?
_diffrn_standards_decay_%        ?
_diffrn_reflns_number            52279
_diffrn_reflns_av_R_equivalents  0.0373
_diffrn_reflns_av_sigmaI/netI    0.0538
_diffrn_reflns_limit_h_min       -16
_diffrn_reflns_limit_h_max       18
_diffrn_reflns_limit_k_min       -22
_diffrn_reflns_limit_k_max       22
_diffrn_reflns_limit_l_min       -30
_diffrn_reflns_limit_l_max       30
_diffrn_reflns_theta_min         1.09
_diffrn_reflns_theta_max         25.10
_reflns_number_total             24456
_reflns_number_gt                19409
_reflns_threshold_expression     >2sigma(I)

_computing_data_collection       'APEX2 (Bruker, 2005)'
_computing_cell_refinement       'SAINT (Bruker, 2005)'
_computing_data_reduction        SAINT
_computing_structure_solution    'SHELXS97 (Sheldrick, 2008)'
_computing_structure_refinement  'SHELXL97 (Sheldrick, 2008)'
_computing_molecular_graphics    'Ortep-3 for Windows (Farrugia, 1997)'
_computing_publication_material  'WinGX (Farrugia, 1999)'

_refine_special_details          
; 
 Refinement of F^2^ against ALL reflections.  The weighted R-factor wR and 
 goodness of fit S are based on F^2^, conventional R-factors R are based 
 on F, with F set to zero for negative F^2^. The threshold expression of 
 F^2^ > 2sigma(F^2^) is used only for calculating R-factors(gt) etc. and is 
 not relevant to the choice of reflections for refinement.  R-factors based 
 on F^2^ are statistically about twice as large as those based on F, and R- 
 factors based on ALL data will be even larger. 
;

_refine_ls_structure_factor_coef Fsqd
_refine_ls_matrix_type           full
_refine_ls_weighting_scheme      calc
_refine_ls_weighting_details     
'calc w=1/[\s^2^(Fo^2^)+(0.0854P)^2^+0.0000P] where P=(Fo^2^+2Fc^2^)/3'
_atom_sites_solution_primary     direct
_atom_sites_solution_secondary   difmap
_atom_sites_solution_hydrogens   geom
_refine_ls_hydrogen_treatment    constr
_refine_ls_extinction_method     none
_refine_ls_extinction_coef       ?
_refine_ls_number_reflns         24456
_refine_ls_number_parameters     1567
_refine_ls_number_restraints     1
_refine_ls_R_factor_all          0.0548
_refine_ls_R_factor_gt           0.0454
_refine_ls_wR_factor_ref         0.1352
_refine_ls_wR_factor_gt          0.1295
_refine_ls_goodness_of_fit_ref   1.053
_refine_ls_restrained_S_all      1.053
_refine_ls_shift/su_max          0.002
_refine_ls_shift/su_mean         0.000

loop_
_atom_site_label
_atom_site_type_symbol
_atom_site_fract_x
_atom_site_fract_y
_atom_site_fract_z
_atom_site_U_iso_or_equiv
_atom_site_adp_type
_atom_site_occupancy
_atom_site_symmetry_multiplicity
_atom_site_calc_flag
_atom_site_refinement_flags
_atom_site_disorder_assembly
_atom_site_disorder_group
O1W O 0.0778(3) 0.35719(17) 0.57590(12) 0.0447(9) Uani 1 1 d . . .
O2W O -0.0111(2) 0.50747(16) 0.61677(13) 0.0399(8) Uani 1 1 d . . .
O3W O 0.0122(2) 0.38955(16) 0.76011(12) 0.0365(7) Uani 1 1 d . . .
O4W O 0.1836(2) 0.44555(16) 0.60634(13) 0.0416(8) Uani 1 1 d . . .
O5W O -0.1108(2) 0.42589(16) 0.68818(14) 0.0398(8) Uani 1 1 d . . .
O6W O -0.0952(2) 0.92505(16) 0.84456(13) 0.0377(8) Uani 1 1 d . . .
O7W O 0.0165(3) 1.00164(18) 0.87841(14) 0.0506(9) Uani 1 1 d . . .
O8W O 0.0981(3) 0.85342(17) 0.89041(13) 0.0450(9) Uani 1 1 d . . .
O9W O 0.0242(2) 0.88538(16) 0.72981(12) 0.0368(7) Uani 1 1 d . . .
O10W O 0.2046(2) 0.94016(17) 0.81601(15) 0.0457(9) Uani 1 1 d . . .
Gd1 Gd 0.052378(15) 0.408044(10) 0.663695(8) 0.02603(7) Uani 1 1 d . . .
Gd2 Gd 0.068718(15) 0.903150(10) 0.810666(8) 0.02702(7) Uani 1 1 d . . .
Zn1 Zn -0.40099(4) 0.25559(3) 0.65694(2) 0.04526(15) Uani 1 1 d . . .
Zn2 Zn 0.40102(4) 0.24359(4) 1.00947(3) 0.05264(17) Uani 1 1 d . . .
Cl1 Cl -0.46101(8) 0.26626(9) 0.74862(5) 0.0541(4) Uani 1 1 d . . .
Cl2 Cl -0.31473(10) 0.14265(7) 0.63608(5) 0.0519(3) Uani 1 1 d . . .
Cl3 Cl -0.31850(12) 0.33985(9) 0.63229(7) 0.0728(5) Uani 1 1 d . . .
Cl4 Cl -0.51724(13) 0.26802(13) 0.61650(8) 0.0951(7) Uani 1 1 d . . .
Cl5 Cl 0.30439(12) 0.16855(9) 1.03740(7) 0.0761(5) Uani 1 1 d . . .
Cl6 Cl 0.45289(9) 0.23456(11) 0.91817(6) 0.0691(5) Uani 1 1 d . . .
Cl7 Cl 0.32320(14) 0.35635(9) 1.03503(8) 0.0841(5) Uani 1 1 d . . .
Cl8 Cl 0.52377(14) 0.21482(14) 1.04483(8) 0.1033(7) Uani 1 1 d . . .
N49 N -0.0037(6) 0.7345(3) 0.6768(3) 0.088(2) Uani 1 1 d D . .
N50 N -0.0015(9) 0.2299(6) 0.8238(3) 0.164(5) Uani 1 1 d . . .
O25 O 0.0759(5) 0.7394(3) 0.6554(3) 0.1104(19) Uani 1 1 d D . .
O26 O -0.0474(6) 0.7735(4) 0.7132(3) 0.169(4) Uani 1 1 d D . .
O27 O -0.0360(5) 0.6896(4) 0.6594(3) 0.167(4) Uani 1 1 d D . .
O28 O 0.0671(7) 0.2464(5) 0.8227(6) 0.236(6) Uani 1 1 d . . .
O29 O -0.0281(8) 0.1870(6) 0.8527(5) 0.247(6) Uani 1 1 d . . .
O30 O -0.0524(9) 0.2728(8) 0.8026(5) 0.300(10) Uani 1 1 d . . .
C1 C 0.2324(3) 0.2797(2) 0.68939(15) 0.0212(8) Uani 1 1 d . . .
C2 C 0.3355(3) 0.2002(2) 0.72363(16) 0.0246(9) Uani 1 1 d . . .
H2 H 0.4029 0.1980 0.7108 0.029 Uiso 1 1 calc R . .
C3 C 0.3020(3) 0.1586(2) 0.68348(16) 0.0233(9) Uani 1 1 d . . .
H3 H 0.3543 0.1329 0.6535 0.028 Uiso 1 1 calc R . .
C4 C 0.2634(3) 0.1121(2) 0.76912(16) 0.0228(9) Uani 1 1 d . . .
C5 C 0.1957(3) 0.2052(2) 0.62474(16) 0.0246(9) Uani 1 1 d . . .
H5A H 0.1837 0.2499 0.6068 0.030 Uiso 1 1 calc R . .
H5B H 0.2366 0.1689 0.5971 0.030 Uiso 1 1 calc R . .
C6 C 0.2223(3) 0.0528(2) 0.69673(18) 0.0260(9) Uani 1 1 d . . .
H6A H 0.2277 0.0120 0.7196 0.031 Uiso 1 1 calc R . .
H6B H 0.2623 0.0373 0.6601 0.031 Uiso 1 1 calc R . .
C7 C 0.0253(3) 0.2280(2) 0.66525(15) 0.0209(8) Uani 1 1 d . . .
C8 C 0.1004(3) 0.10895(19) 0.64967(15) 0.0193(8) Uani 1 1 d . . .
H8 H 0.1330 0.0810 0.6149 0.023 Uiso 1 1 calc R . .
C9 C -0.0039(3) 0.1140(2) 0.66454(15) 0.0209(8) Uani 1 1 d . . .
H9 H -0.0229 0.0963 0.6341 0.025 Uiso 1 1 calc R . .
C10 C 0.0566(3) 0.0483(2) 0.72694(16) 0.0234(9) Uani 1 1 d . . .
C11 C -0.1375(3) 0.2236(2) 0.68067(17) 0.0276(9) Uani 1 1 d . . .
H11A H -0.1393 0.2714 0.6668 0.033 Uiso 1 1 calc R . .
H11B H -0.1592 0.1954 0.6570 0.033 Uiso 1 1 calc R . .
C12 C -0.1111(3) 0.0564(2) 0.73841(17) 0.0264(9) Uani 1 1 d . . .
H12A H -0.1028 0.0136 0.7589 0.032 Uiso 1 1 calc R . .
H12B H -0.1423 0.0469 0.7116 0.032 Uiso 1 1 calc R . .
C13 C -0.2370(3) 0.2925(2) 0.76382(18) 0.0282(9) Uani 1 1 d . . .
C14 C -0.2373(3) 0.1708(2) 0.76026(17) 0.0242(9) Uani 1 1 d . . .
H14 H -0.2714 0.1503 0.7388 0.029 Uiso 1 1 calc R . .
C15 C -0.3017(3) 0.2054(2) 0.81507(17) 0.0261(9) Uani 1 1 d . . .
H15 H -0.3659 0.1995 0.8201 0.031 Uiso 1 1 calc R . .
C16 C -0.1885(3) 0.1129(2) 0.83009(17) 0.0270(9) Uani 1 1 d . . .
C17 C -0.3599(3) 0.3361(2) 0.84909(18) 0.0324(10) Uani 1 1 d . . .
H17A H -0.3672 0.3804 0.8300 0.039 Uiso 1 1 calc R . .
H17B H -0.4207 0.3235 0.8612 0.039 Uiso 1 1 calc R . .
C18 C -0.3040(3) 0.1758(2) 0.91176(18) 0.0311(10) Uani 1 1 d . . .
H18A H -0.2801 0.1327 0.9283 0.037 Uiso 1 1 calc R . .
H18B H -0.3708 0.1799 0.9187 0.037 Uiso 1 1 calc R . .
C19 C -0.2871(3) 0.4037(2) 0.90091(19) 0.0321(10) Uani 1 1 d . . .
C20 C -0.3472(3) 0.3088(2) 0.94373(17) 0.0293(10) Uani 1 1 d . . .
H20 H -0.4136 0.3074 0.9575 0.035 Uiso 1 1 calc R . .
C21 C -0.3153(3) 0.3499(2) 0.98490(18) 0.0332(10) Uani 1 1 d . . .
H21 H -0.3674 0.3713 1.0166 0.040 Uiso 1 1 calc R . .
C22 C -0.2343(3) 0.2296(2) 0.97235(17) 0.0288(10) Uani 1 1 d . . .
C23 C -0.2328(3) 0.4545(2) 0.9710(2) 0.0358(11) Uani 1 1 d . . .
H23A H -0.2593 0.4642 1.0103 0.043 Uiso 1 1 calc R . .
H23B H -0.2451 0.4995 0.9535 0.043 Uiso 1 1 calc R . .
C24 C -0.1972(3) 0.3053(3) 1.03749(18) 0.0358(11) Uani 1 1 d . . .
H24A H -0.1875 0.2625 1.0580 0.043 Uiso 1 1 calc R . .
H24B H -0.2331 0.3454 1.0633 0.043 Uiso 1 1 calc R . .
C25 C -0.0696(3) 0.4700(2) 0.94624(15) 0.0268(9) Uani 1 1 d . . .
C26 C -0.0917(3) 0.3524(2) 0.95647(16) 0.0249(9) Uani 1 1 d . . .
H26 H -0.1073 0.3245 0.9292 0.030 Uiso 1 1 calc R . .
C27 C 0.0121(3) 0.3520(2) 0.94171(16) 0.0241(9) Uani 1 1 d . . .
H27 H 0.0456 0.3249 0.9067 0.029 Uiso 1 1 calc R . .
C28 C -0.0289(3) 0.2974(2) 1.02324(16) 0.0291(10) Uani 1 1 d . . .
C29 C 0.1005(3) 0.4514(2) 0.92278(18) 0.0293(10) Uani 1 1 d . . .
H29A H 0.0909 0.4968 0.9054 0.035 Uiso 1 1 calc R . .
H29B H 0.1193 0.4598 0.9553 0.035 Uiso 1 1 calc R . .
C30 C 0.1375(3) 0.3027(2) 0.98755(16) 0.0291(9) Uani 1 1 d . . .
H30A H 0.1483 0.3432 1.0063 0.035 Uiso 1 1 calc R . .
H30B H 0.1489 0.2603 1.0081 0.035 Uiso 1 1 calc R . .
C31 C 0.1858(3) 0.3956(2) 0.83129(16) 0.0224(9) Uani 1 1 d . . .
C32 C 0.2394(3) 0.3469(2) 0.90310(16) 0.0234(9) Uani 1 1 d . . .
H32 H 0.2756 0.3692 0.9221 0.028 Uiso 1 1 calc R . .
C33 C 0.3006(3) 0.3071(2) 0.84955(16) 0.0215(8) Uani 1 1 d . . .
H33 H 0.3665 0.3092 0.8430 0.026 Uiso 1 1 calc R . .
C34 C 0.2297(3) 0.2261(2) 0.90592(17) 0.0270(9) Uani 1 1 d . . .
C35 C 0.3019(3) 0.3330(2) 0.75123(16) 0.0230(9) Uani 1 1 d . . .
H35A H 0.3691 0.3262 0.7441 0.028 Uiso 1 1 calc R . .
H35B H 0.2807 0.3764 0.7340 0.028 Uiso 1 1 calc R . .
C36 C 0.3415(3) 0.1748(2) 0.81992(16) 0.0249(9) Uani 1 1 d . . .
H36A H 0.3427 0.1313 0.8401 0.030 Uiso 1 1 calc R . .
H36B H 0.4051 0.1820 0.8074 0.030 Uiso 1 1 calc R . .
C37 C 0.0503(3) 0.55052(19) 0.74983(16) 0.0223(9) Uani 1 1 d . . .
C38 C 0.1020(3) 0.6065(2) 0.81132(15) 0.0214(8) Uani 1 1 d . . .
H38 H 0.1350 0.5758 0.8339 0.026 Uiso 1 1 calc R . .
C39 C -0.0031(3) 0.61508(19) 0.83294(15) 0.0209(8) Uani 1 1 d . . .
H39 H -0.0216 0.5974 0.8697 0.025 Uiso 1 1 calc R . .
C40 C 0.0325(3) 0.7274(2) 0.82223(15) 0.0214(8) Uani 1 1 d . . .
C41 C -0.1163(3) 0.5595(2) 0.7981(2) 0.0316(10) Uani 1 1 d . . .
H41A H -0.1103 0.5166 0.7756 0.038 Uiso 1 1 calc R . .
H41B H -0.1443 0.5501 0.8358 0.038 Uiso 1 1 calc R . .
C42 C -0.1322(3) 0.7272(2) 0.86195(16) 0.0258(9) Uani 1 1 d . . .
H42A H -0.1546 0.7003 0.8936 0.031 Uiso 1 1 calc R . .
H42B H -0.1312 0.7749 0.8751 0.031 Uiso 1 1 calc R . .
C43 C -0.2015(3) 0.6168(2) 0.73581(19) 0.0326(10) Uani 1 1 d . . .
C44 C -0.2388(3) 0.6768(2) 0.82015(18) 0.0322(10) Uani 1 1 d . . .
H44 H -0.2712 0.6587 0.8546 0.039 Uiso 1 1 calc R . .
C45 C -0.3068(3) 0.7124(2) 0.78914(18) 0.0317(10) Uani 1 1 d . . .
H45 H -0.3711 0.7091 0.8081 0.038 Uiso 1 1 calc R . .
C46 C -0.2316(3) 0.7978(2) 0.81105(17) 0.0296(10) Uani 1 1 d . . .
C47 C -0.3183(3) 0.6814(2) 0.69428(19) 0.0364(11) Uani 1 1 d . . .
H47A H -0.3856 0.6915 0.7103 0.044 Uiso 1 1 calc R . .
H47B H -0.3010 0.6369 0.6715 0.044 Uiso 1 1 calc R . .
C48 C -0.3554(3) 0.8435(3) 0.76902(19) 0.0366(11) Uani 1 1 d . . .
H48A H -0.4179 0.8338 0.7777 0.044 Uiso 1 1 calc R . .
H48B H -0.3594 0.8878 0.7893 0.044 Uiso 1 1 calc R . .
C49 C -0.2336(3) 0.7264(3) 0.6100(2) 0.0398(12) Uani 1 1 d . . .
C50 C -0.3447(3) 0.8128(2) 0.66992(19) 0.0355(11) Uani 1 1 d . . .
H50 H -0.4118 0.8157 0.6763 0.043 Uiso 1 1 calc R . .
C51 C -0.3034(3) 0.8482(2) 0.61790(19) 0.0366(11) Uani 1 1 d . . .
H51 H -0.3516 0.8696 0.6004 0.044 Uiso 1 1 calc R . .
C52 C -0.2780(3) 0.9056(2) 0.6910(2) 0.0373(11) Uani 1 1 d . . .
C53 C -0.1849(3) 0.7951(3) 0.5301(2) 0.0446(12) Uani 1 1 d . . .
H53A H -0.2183 0.8338 0.5135 0.054 Uiso 1 1 calc R . .
H53B H -0.1763 0.7503 0.5090 0.054 Uiso 1 1 calc R . .
C54 C -0.2180(3) 0.9503(2) 0.6018(2) 0.0385(11) Uani 1 1 d . . .
H54A H -0.2292 0.9964 0.6217 0.046 Uiso 1 1 calc R . .
H54B H -0.2437 0.9584 0.5708 0.046 Uiso 1 1 calc R . .
C55 C -0.0166(3) 0.7900(2) 0.48757(17) 0.0297(10) Uani 1 1 d . . .
C56 C -0.0775(3) 0.8449(2) 0.57450(17) 0.0279(9) Uani 1 1 d . . .
H56 H -0.0945 0.8200 0.6084 0.033 Uiso 1 1 calc R . .
C57 C 0.0262(3) 0.8432(2) 0.55510(16) 0.0243(9) Uani 1 1 d . . .
H57 H 0.0595 0.8147 0.5786 0.029 Uiso 1 1 calc R . .
C58 C -0.0529(4) 0.9621(2) 0.57339(18) 0.0372(11) Uani 1 1 d . . .
C59 C 0.1482(3) 0.7937(3) 0.46632(17) 0.0386(11) Uani 1 1 d . . .
H59A H 0.1574 0.7508 0.4430 0.046 Uiso 1 1 calc R . .
H59B H 0.1587 0.8334 0.4429 0.046 Uiso 1 1 calc R . .
C60 C 0.1167(3) 0.9425(2) 0.54097(19) 0.0355(11) Uani 1 1 d . . .
H60A H 0.1093 0.9886 0.5600 0.043 Uiso 1 1 calc R . .
H60B H 0.1313 0.9495 0.5020 0.043 Uiso 1 1 calc R . .
C61 C 0.2460(3) 0.7169(3) 0.51425(17) 0.0355(11) Uani 1 1 d . . .
C62 C 0.2557(3) 0.8377(2) 0.51261(17) 0.0334(11) Uani 1 1 d . . .
H62 H 0.2906 0.8592 0.4806 0.040 Uiso 1 1 calc R . .
C63 C 0.3206(3) 0.7966(2) 0.54511(16) 0.0287(9) Uani 1 1 d . . .
H63 H 0.3857 0.8005 0.5295 0.034 Uiso 1 1 calc R . .
C64 C 0.2050(3) 0.8873(2) 0.60259(17) 0.0272(9) Uani 1 1 d . . .
C65 C 0.3616(3) 0.6641(2) 0.56173(17) 0.0325(10) Uani 1 1 d . . .
H65A H 0.4251 0.6708 0.5555 0.039 Uiso 1 1 calc R . .
H65B H 0.3644 0.6206 0.5408 0.039 Uiso 1 1 calc R . .
C66 C 0.3241(3) 0.8214(2) 0.64266(17) 0.0295(10) Uani 1 1 d . . .
H66A H 0.3061 0.8653 0.6661 0.035 Uiso 1 1 calc R . .
H66B H 0.3914 0.8116 0.6270 0.035 Uiso 1 1 calc R . .
C67 C 0.2712(3) 0.6059(2) 0.63738(18) 0.0298(10) Uani 1 1 d . . .
C68 C 0.3479(3) 0.6874(2) 0.66144(17) 0.0259(9) Uani 1 1 d . . .
H68 H 0.4157 0.6818 0.6542 0.031 Uiso 1 1 calc R . .
C69 C 0.3059(3) 0.6488(2) 0.71187(16) 0.0253(9) Uani 1 1 d . . .
H69 H 0.3542 0.6199 0.7264 0.030 Uiso 1 1 calc R . .
C70 C 0.2445(3) 0.7705(2) 0.72694(16) 0.0251(9) Uani 1 1 d . . .
C71 C 0.2164(3) 0.5491(2) 0.72307(17) 0.0273(9) Uani 1 1 d . . .
H71A H 0.2168 0.5102 0.6982 0.033 Uiso 1 1 calc R . .
H71B H 0.2560 0.5295 0.7459 0.033 Uiso 1 1 calc R . .
C72 C 0.2023(3) 0.6985(2) 0.80550(16) 0.0237(9) Uani 1 1 d . . .
H72A H 0.2424 0.6617 0.8198 0.028 Uiso 1 1 calc R . .
H72B H 0.1929 0.7435 0.8263 0.028 Uiso 1 1 calc R . .
N1 N 0.2821(2) 0.27301(17) 0.72622(13) 0.0208(7) Uani 1 1 d . . .
N2 N 0.2428(2) 0.21587(16) 0.66442(13) 0.0210(7) Uani 1 1 d . . .
N3 N 0.3105(2) 0.16379(17) 0.77345(13) 0.0234(7) Uani 1 1 d . . .
N4 N 0.2543(2) 0.11002(17) 0.71775(14) 0.0262(8) Uani 1 1 d . . .
N5 N 0.1095(2) 0.18323(17) 0.64669(13) 0.0221(7) Uani 1 1 d . . .
N6 N -0.0424(2) 0.19053(16) 0.67761(13) 0.0216(7) Uani 1 1 d . . .
N7 N 0.1265(2) 0.07433(17) 0.69494(13) 0.0219(7) Uani 1 1 d . . .
N8 N -0.0202(2) 0.06972(16) 0.71014(13) 0.0212(7) Uani 1 1 d . . .
N9 N -0.1997(2) 0.22969(18) 0.73411(14) 0.0259(8) Uani 1 1 d . . .
N10 N -0.2960(2) 0.