####################################################################### 
# 
# This file contains crystal structure data downloaded from the 
# Cambridge Structural Database (CSD) hosted by the Cambridge 
# Crystallographic Data Centre (CCDC).
# 
# Full information about CCDC data access policies and citation 
# guidelines are available at http://www.ccdc.cam.ac.uk/access/V1 
# 
# Audit and citation data items may have been added by the CCDC. 
# Please retain this information to preserve the provenance of 
# this file and to allow appropriate attribution of the data. 
# 
#######################################################################

data_Dy
_audit_block_doi                 10.5517/cc13tkr7
_database_code_depnum_ccdc_archive 'CCDC 1037469'
loop_
_citation_id
_citation_doi
_citation_year
1 10.1016/j.poly.2015.07.003 2015
_audit_update_record             
;
2014-12-03 deposited with the CCDC.	2024-07-09 downloaded from the CCDC.
;

_audit_creation_method           SHELXL-97
_chemical_name_systematic        
; 
 ? 
;
_chemical_name_common            ?
_chemical_melting_point          ?
_chemical_formula_moiety         'C72 H92 Dy2 N50 O40, 2(Zn Cl4), 45(H2 O)'
_chemical_formula_sum            'C72 H182 Cl8 Dy2 N50 O85 Zn2'
_chemical_formula_weight         3848.02

loop_
_atom_type_symbol
_atom_type_description
_atom_type_scat_dispersion_real
_atom_type_scat_dispersion_imag
_atom_type_scat_source
C C 0.0033 0.0016 'International Tables Vol C Tables 4.2.6.8 and 6.1.1.4'
H H 0.0000 0.0000 'International Tables Vol C Tables 4.2.6.8 and 6.1.1.4'
N N 0.0061 0.0033 'International Tables Vol C Tables 4.2.6.8 and 6.1.1.4'
O O 0.0106 0.0060 'International Tables Vol C Tables 4.2.6.8 and 6.1.1.4'
Dy Dy -0.1892 4.4098 'International Tables Vol C Tables 4.2.6.8 and 6.1.1.4'
Zn Zn 0.2839 1.4301 'International Tables Vol C Tables 4.2.6.8 and 6.1.1.4'
Cl Cl 0.1484 0.1585 'International Tables Vol C Tables 4.2.6.8 and 6.1.1.4'

_symmetry_cell_setting           triclinic
_symmetry_space_group_name_H-M   'P -1'
_symmetry_space_group_name_Hall  '-p 1'

loop_
_symmetry_equiv_pos_as_xyz
'x, y, z'
'-x, -y, -z'

_cell_length_a                   15.4230(11)
_cell_length_b                   19.0919(13)
_cell_length_c                   25.6889(18)
_cell_angle_alpha                89.860(2)
_cell_angle_beta                 73.886(3)
_cell_angle_gamma                78.313(2)
_cell_volume                     7104.7(9)
_cell_formula_units_Z            2
_cell_measurement_temperature    223(2)
_cell_measurement_reflns_used    ?
_cell_measurement_theta_min      ?
_cell_measurement_theta_max      ?

_exptl_crystal_description       prism
_exptl_crystal_colour            colorless
_exptl_crystal_size_max          0.33
_exptl_crystal_size_mid          0.28
_exptl_crystal_size_min          0.25
_exptl_crystal_density_meas      ?
_exptl_crystal_density_diffrn    1.799
_exptl_crystal_density_method    'not measured'
_exptl_crystal_F_000             3944
_exptl_absorpt_coefficient_mu    1.650
_exptl_absorpt_correction_type   multi-scan
_exptl_absorpt_correction_T_min  0.6119
_exptl_absorpt_correction_T_max  0.6831
_exptl_absorpt_process_details   'SADABS (Bruker, 2008)'

_exptl_special_details           
; 
 ? 
;

_diffrn_ambient_temperature      223(2)
_diffrn_radiation_wavelength     0.71073
_diffrn_radiation_type           MoK\a
_diffrn_radiation_source         'fine-focus sealed tube'
_diffrn_radiation_monochromator  graphite
_diffrn_measurement_device_type  'Bruker Smart Apex2 CCD Detector'
_diffrn_measurement_method       '\f and \w scan'
_diffrn_detector_area_resol_mean ?
_diffrn_standards_number         ?
_diffrn_standards_interval_count ?
_diffrn_standards_interval_time  ?
_diffrn_standards_decay_%        ?
_diffrn_reflns_number            75332
_diffrn_reflns_av_R_equivalents  0.0451
_diffrn_reflns_av_sigmaI/netI    0.0511
_diffrn_reflns_limit_h_min       -17
_diffrn_reflns_limit_h_max       18
_diffrn_reflns_limit_k_min       -22
_diffrn_reflns_limit_k_max       22
_diffrn_reflns_limit_l_min       -30
_diffrn_reflns_limit_l_max       30
_diffrn_reflns_theta_min         0.83
_diffrn_reflns_theta_max         25.10
_reflns_number_total             24903
_reflns_number_gt                19671
_reflns_threshold_expression     >2sigma(I)

_computing_data_collection       'APEX2 (Bruker, 2005)'
_computing_cell_refinement       'SAINT (Bruker, 2005)'
_computing_data_reduction        SAINT
_computing_structure_solution    'SHELXS97 (Sheldrick, 2008)'
_computing_structure_refinement  'SHELXL97 (Sheldrick, 2008)'
_computing_molecular_graphics    'Ortep-3 for Windows (Farrugia, 1997)'
_computing_publication_material  'WinGX (Farrugia, 1999)'

_refine_special_details          
; 
 Refinement of F^2^ against ALL reflections.  The weighted R-factor wR and 
 goodness of fit S are based on F^2^, conventional R-factors R are based 
 on F, with F set to zero for negative F^2^. The threshold expression of 
 F^2^ > 2sigma(F^2^) is used only for calculating R-factors(gt) etc. and is 
 not relevant to the choice of reflections for refinement.  R-factors based 
 on F^2^ are statistically about twice as large as those based on F, and R- 
 factors based on ALL data will be even larger. 
;

_refine_ls_structure_factor_coef Fsqd
_refine_ls_matrix_type           full
_refine_ls_weighting_scheme      calc
_refine_ls_weighting_details     
'calc w=1/[\s^2^(Fo^2^)+(0.1271P)^2^+0.0000P] where P=(Fo^2^+2Fc^2^)/3'
_atom_sites_solution_primary     direct
_atom_sites_solution_secondary   difmap
_atom_sites_solution_hydrogens   geom
_refine_ls_hydrogen_treatment    constr
_refine_ls_extinction_method     none
_refine_ls_extinction_coef       ?
_refine_ls_number_reflns         24903
_refine_ls_number_parameters     1567
_refine_ls_number_restraints     4
_refine_ls_R_factor_all          0.0625
_refine_ls_R_factor_gt           0.0526
_refine_ls_wR_factor_ref         0.1749
_refine_ls_wR_factor_gt          0.1648
_refine_ls_goodness_of_fit_ref   1.035
_refine_ls_restrained_S_all      1.035
_refine_ls_shift/su_max          0.003
_refine_ls_shift/su_mean         0.000

loop_
_atom_site_label
_atom_site_type_symbol
_atom_site_fract_x
_atom_site_fract_y
_atom_site_fract_z
_atom_site_U_iso_or_equiv
_atom_site_adp_type
_atom_site_occupancy
_atom_site_symmetry_multiplicity
_atom_site_calc_flag
_atom_site_refinement_flags
_atom_site_disorder_assembly
_atom_site_disorder_group
O1W O 0.5086(3) 1.4954(2) 0.38260(17) 0.0494(10) Uani 1 1 d . . .
O2W O 0.6083(3) 1.57410(19) 0.31186(18) 0.0425(10) Uani 1 1 d . . .
O3W O 0.3162(3) 1.5554(2) 0.39227(16) 0.0458(10) Uani 1 1 d . . .
O4W O 0.4203(3) 1.6436(2) 0.42343(14) 0.0491(11) Uani 1 1 d . . .
O5W O 0.4867(3) 1.6115(2) 0.24052(15) 0.0431(9) Uani 1 1 d . . .
O6W O 0.5934(3) 1.07547(18) 0.15749(17) 0.0390(9) Uani 1 1 d . . .
O7W O 0.4032(3) 1.1475(2) 0.11121(17) 0.0503(11) Uani 1 1 d . . .
O8W O 0.2955(3) 1.0610(2) 0.1848(2) 0.0502(11) Uani 1 1 d . . .
O9W O 0.4742(3) 1.11525(19) 0.27047(15) 0.0376(9) Uani 1 1 d . . .
O10W O 0.4814(4) 1.0005(2) 0.1230(2) 0.0614(13) Uani 1 1 d . . .
Dy1 Dy 0.446128(17) 1.593030(11) 0.335934(9) 0.02782(9) Uani 1 1 d . . .
Dy2 Dy 0.430957(17) 1.097784(11) 0.190390(9) 0.02787(9) Uani 1 1 d . . .
Zn1 Zn 0.90076(5) 1.24410(5) 0.00967(3) 0.0598(2) Uani 1 1 d . . .
Zn2 Zn 0.90101(5) 1.74527(4) 0.34265(3) 0.0517(2) Uani 1 1 d . . .
Cl1 Cl 0.95268(12) 1.23494(14) -0.08164(7) 0.0768(6) Uani 1 1 d . . .
Cl2 Cl 0.80423(15) 1.16864(12) 0.03770(10) 0.0849(7) Uani 1 1 d . . .
Cl3 Cl 1.02371(19) 1.2146(2) 0.04417(11) 0.1152(10) Uani 1 1 d . . .
Cl4 Cl 0.82207(19) 1.35639(13) 0.03523(10) 0.0941(7) Uani 1 1 d . . .
Cl5 Cl 0.96140(10) 1.73460(11) 0.25102(7) 0.0611(5) Uani 1 1 d . . .
Cl6 Cl 0.81400(12) 1.85802(9) 0.36361(7) 0.0580(4) Uani 1 1 d . . .
Cl7 Cl 0.81863(16) 1.66063(12) 0.36726(9) 0.0830(7) Uani 1 1 d . . .
Cl8 Cl 1.01646(16) 1.73339(18) 0.38319(11) 0.1067(9) Uani 1 1 d . . .
N49 N 0.5038(7) 1.2664(4) 0.3240(3) 0.090(3) Uani 1 1 d D . .
N50 N 0.5027(8) 1.7680(6) 0.1778(4) 0.167(7) Uani 1 1 d D . .
O25 O 0.4226(6) 1.2634(4) 0.3436(4) 0.119(3) Uani 1 1 d D . .
O26 O 0.5502(7) 1.2244(6) 0.2867(4) 0.179(6) Uani 1 1 d D . .
O27 O 0.5365(8) 1.3094(7) 0.3416(5) 0.208(6) Uani 1 1 d D . .
O28 O 0.4278(7) 1.7556(7) 0.1746(6) 0.232(8) Uani 1 1 d D . .
O29 O 0.5244(12) 1.8205(8) 0.1523(7) 0.276(10) Uani 1 1 d D . .
O30 O 0.5552(9) 1.7219(8) 0.1958(6) 0.306(13) Uani 1 1 d D . .
C1 C 0.4732(3) 1.7722(2) 0.3347(2) 0.0270(11) Uani 1 1 d . . .
C2 C 0.5034(3) 1.8860(2) 0.33595(19) 0.0263(10) Uani 1 1 d . . .
H2 H 0.5223 1.9036 0.3664 0.032 Uiso 1 1 calc R . .
C3 C 0.3988(4) 1.8912(2) 0.35039(19) 0.0262(10) Uani 1 1 d . . .
H3 H 0.3662 1.9190 0.3852 0.031 Uiso 1 1 calc R . .
C4 C 0.4435(3) 1.9522(2) 0.27342(19) 0.0259(10) Uani 1 1 d . . .
C5 C 0.3033(4) 1.7961(3) 0.3750(2) 0.0304(11) Uani 1 1 d . . .
H5A H 0.2623 1.8335 0.4018 0.036 Uiso 1 1 calc R . .
H5B H 0.3135 1.7520 0.3941 0.036 Uiso 1 1 calc R . .
C6 C 0.2771(4) 1.9481(3) 0.3034(2) 0.0321(11) Uani 1 1 d . . .
H6A H 0.2372 1.9631 0.3402 0.038 Uiso 1 1 calc R . .
H6B H 0.2715 1.9893 0.2809 0.038 Uiso 1 1 calc R . .
C7 C 0.2678(3) 1.7202(3) 0.3103(2) 0.0269(11) Uani 1 1 d . . .
C8 C 0.1981(3) 1.8413(3) 0.3165(2) 0.0288(11) Uani 1 1 d . . .
H8 H 0.1462 1.8668 0.3467 0.035 Uiso 1 1 calc R . .
C9 C 0.1647(3) 1.8011(3) 0.2765(2) 0.0282(11) Uani 1 1 d . . .
H9 H 0.0974 1.8033 0.2894 0.034 Uiso 1 1 calc R . .
C10 C 0.2365(3) 1.8890(3) 0.2307(2) 0.0297(11) Uani 1 1 d . . .
C11 C 0.1980(4) 1.6676(3) 0.2483(2) 0.0290(11) Uani 1 1 d . . .
H11A H 0.2182 1.6239 0.2657 0.035 Uiso 1 1 calc R . .
H11B H 0.1310 1.6748 0.2550 0.035 Uiso 1 1 calc R . .
C12 C 0.1568(4) 1.8262(3) 0.1806(2) 0.0305(11) Uani 1 1 d . . .
H12A H 0.1544 1.8700 0.1606 0.037 Uiso 1 1 calc R . .
H12B H 0.0938 1.8180 0.1936 0.037 Uiso 1 1 calc R . .
C13 C 0.3146(4) 1.6042(3) 0.1680(2) 0.0297(11) Uani 1 1 d . . .
C14 C 0.2004(3) 1.6938(2) 0.15061(19) 0.0256(10) Uani 1 1 d . . .
H14 H 0.1348 1.6913 0.1571 0.031 Uiso 1 1 calc R . .
C15 C 0.2617(4) 1.6539(3) 0.0966(2) 0.0315(11) Uani 1 1 d . . .
H15 H 0.2255 1.6316 0.0777 0.038 Uiso 1 1 calc R . .
C16 C 0.2711(3) 1.7744(3) 0.0937(2) 0.0310(11) Uani 1 1 d . . .
C17 C 0.4000(4) 1.5494(3) 0.0769(2) 0.0336(12) Uani 1 1 d . . .
H17A H 0.4089 1.5037 0.0943 0.040 Uiso 1 1 calc R . .
H17B H 0.3816 1.5412 0.0442 0.040 Uiso 1 1 calc R . .
C18 C 0.3639(4) 1.6980(3) 0.0119(2) 0.0350(12) Uani 1 1 d . . .
H18A H 0.3530 1.6577 -0.0073 0.042 Uiso 1 1 calc R . .
H18B H 0.3528 1.7408 -0.0085 0.042 Uiso 1 1 calc R . .
C19 C 0.5700(4) 1.5308(3) 0.0543(2) 0.0316(11) Uani 1 1 d . . .
C20 C 0.4879(4) 1.6492(3) 0.0586(2) 0.0325(11) Uani 1 1 d . . .
H20 H 0.4550 1.6765 0.0936 0.039 Uiso 1 1 calc R . .
C21 C 0.5912(3) 1.6480(3) 0.0428(2) 0.0292(11) Uani 1 1 d . . .
H21 H 0.6069 1.6760 0.0699 0.035 Uiso 1 1 calc R . .
C22 C 0.5296(4) 1.7032(3) -0.0232(2) 0.0327(12) Uani 1 1 d . . .
C23 C 0.7330(4) 1.5468(3) 0.0290(2) 0.0403(13) Uani 1 1 d . . .
H23A H 0.7456 1.5012 0.0458 0.048 Uiso 1 1 calc R . .
H23B H 0.7596 1.5381 -0.0104 0.048 Uiso 1 1 calc R . .
C24 C 0.6976(4) 1.6955(4) -0.0374(2) 0.0442(14) Uani 1 1 d . . .
H24A H 0.7335 1.6556 -0.0634 0.053 Uiso 1 1 calc R . .
H24B H 0.6881 1.7386 -0.0577 0.053 Uiso 1 1 calc R . .
C25 C 0.7873(4) 1.5958(3) 0.0983(2) 0.0404(13) Uani 1 1 d . . .
C26 C 0.8145(4) 1.6517(3) 0.0155(2) 0.0373(12) Uani 1 1 d . . .
H26 H 0.8665 1.6306 -0.0163 0.045 Uiso 1 1 calc R . .
C27 C 0.8467(4) 1.6912(3) 0.0565(2) 0.0354(12) Uani 1 1 d . . .
H27 H 0.9131 1.6921 0.0425 0.042 Uiso 1 1 calc R . .
C28 C 0.7349(4) 1.7710(3) 0.0278(2) 0.0377(13) Uani 1 1 d . . .
C29 C 0.8577(4) 1.6642(3) 0.1512(2) 0.0393(13) Uani 1 1 d . . .
H29A H 0.8642 1.6198 0.1704 0.047 Uiso 1 1 calc R . .
H29B H 0.9186 1.6766 0.1395 0.047 Uiso 1 1 calc R . .
C30 C 0.8043(4) 1.8251(3) 0.0886(2) 0.0328(11) Uani 1 1 d . . .
H30A H 0.8709 1.8211 0.0821 0.039 Uiso 1 1 calc R . .
H30B H 0.7807 1.8687 0.0723 0.039 Uiso 1 1 calc R . .
C31 C 0.7367(4) 1.7071(3) 0.2358(2) 0.0350(12) Uani 1 1 d . . .
C32 C 0.8011(3) 1.7947(3) 0.1856(2) 0.0310(11) Uani 1 1 d . . .
H32 H 0.8651 1.8009 0.1806 0.037 Uiso 1 1 calc R . .
C33 C 0.7360(4) 1.8292(3) 0.2402(2) 0.0332(12) Uani 1 1 d . . .
H33 H 0.7698 1.8497 0.2619 0.040 Uiso 1 1 calc R . .
C34 C 0.6883(4) 1.8872(3) 0.1701(2) 0.0336(12) Uani 1 1 d . . .
C35 C 0.6361(4) 1.7768(3) 0.3192(2) 0.0317(11) Uani 1 1 d . . .
H35A H 0.6575 1.8049 0.3432 0.038 Uiso 1 1 calc R . .
H35B H 0.6379 1.7287 0.3329 0.038 Uiso 1 1 calc R . .
C36 C 0.6101(4) 1.9443(3) 0.2617(2) 0.0336(12) Uani 1 1 d . . .
H36A H 0.6020 1.9869 0.2409 0.040 Uiso 1 1 calc R . .
H36B H 0.6407 1.9544 0.2887 0.040 Uiso 1 1 calc R . .
C37 C 0.4501(4) 1.4503(2) 0.2499(2) 0.0307(11) Uani 1 1 d . . .
C38 C 0.5033(3) 1.3859(2) 0.16736(19) 0.0252(10) Uani 1 1 d . . .
H38 H 0.5219 1.4036 0.1305 0.030 Uiso 1 1 calc R . .
C39 C 0.3983(3) 1.3937(2) 0.1891(2) 0.0262(10) Uani 1 1 d . . .
H39 H 0.3653 1.4240 0.1663 0.031 Uiso 1 1 calc R . .
C40 C 0.4674(3) 1.2735(2) 0.17868(18) 0.0234(10) Uani 1 1 d . . .
C41 C 0.2839(4) 1.4505(3) 0.2769(2) 0.0335(12) Uani 1 1 d . . .
H41A H 0.2454 1.4697 0.2534 0.040 Uiso 1 1 calc R . .
H41B H 0.2820 1.4898 0.3019 0.040 Uiso 1 1 calc R . .
C42 C 0.2974(4) 1.3025(3) 0.1950(2) 0.0316(11) Uani 1 1 d . . .
H42A H 0.2577 1.3404 0.1814 0.038 Uiso 1 1 calc R . .
H42B H 0.3058 1.2581 0.1735 0.038 Uiso 1 1 calc R . .
C43 C 0.2291(4) 1.3949(3) 0.3635(2) 0.0344(12) Uani 1 1 d . . .
C44 C 0.1933(3) 1.3519(3) 0.2889(2) 0.0317(11) Uani 1 1 d . . .
H44 H 0.1445 1.3804 0.2747 0.038 Uiso 1 1 calc R . .
C45 C 0.1529(3) 1.3118(3) 0.3394(2) 0.0302(11) Uani 1 1 d . . .
H45 H 0.0854 1.3168 0.3467 0.036 Uiso 1 1 calc R . .
C46 C 0.2563(3) 1.2285(3) 0.2731(2) 0.0315(12) Uani 1 1 d . . .
C47 C 0.1382(4) 1.3371(3) 0.4384(2) 0.0400(13) Uani 1 1 d . . .
H47A H 0.0747 1.3306 0.4449 0.048 Uiso 1 1 calc R . .
H47B H 0.1360 1.3806 0.4593 0.048 Uiso 1 1 calc R . .
C48 C 0.1771(4) 1.1798(3) 0.3577(2) 0.0344(12) Uani 1 1 d . . .
H48A H 0.1943 1.1359 0.3342 0.041 Uiso 1 1 calc R . .
H48B H 0.1100 1.1897 0.3736 0.041 Uiso 1 1 calc R . .
C49 C 0.2541(4) 1.2844(4) 0.4863(2) 0.0418(14) Uani 1 1 d . . .
C50 C 0.1811(4) 1.2032(3) 0.4553(2) 0.0348(12) Uani 1 1 d . . .
H50 H 0.1161 1.1991 0.4709 0.042 Uiso 1 1 calc R . .
C51 C 0.2433(4) 1.1638(3) 0.4881(2) 0.0396(13) Uani 1 1 d . . .
H51 H 0.2079 1.1426 0.5202 0.048 Uiso 1 1 calc R . .
C52 C 0.2939(4) 1.1138(3) 0.3980(2) 0.0326(12) Uani 1 1 d . . .
C53 C 0.3520(4) 1.2064(4) 0.5342(2) 0.0476(15) Uani 1 1 d . . .
H53A H 0.3422 1.1661 0.5572 0.057 Uiso 1 1 calc R . .
H53B H 0.3426 1.2491 0.5579 0.057 Uiso 1 1 calc R . .
C54 C 0.3828(4) 1.0582(3) 0.4600(3) 0.0474(15) Uani 1 1 d . . .
H54A H 0.3680 1.0517 0.4991 0.057 Uiso 1 1 calc R . .
H54B H 0.3902 1.0117 0.4414 0.057 Uiso 1 1 calc R . .
C55 C 0.5162(4) 1.2104(3) 0.5131(2) 0.0355(12) Uani 1 1 d . . .
C56 C 0.4733(4) 1.1569(3) 0.4450(2) 0.0315(11) Uani 1 1 d . . .
H56 H 0.4413 1.1852 0.4209 0.038 Uiso 1 1 calc R . .
C57 C 0.5777(4) 1.1542(3) 0.4262(2) 0.0340(12) Uani 1 1 d . . .
H57 H 0.5950 1.1788 0.3921 0.041 Uiso 1 1 calc R . .
C58 C 0.5521(4) 1.0385(3) 0.4275(2) 0.0396(13) Uani 1 1 d . . .
C59 C 0.6836(5) 1.2045(4) 0.4707(3) 0.0544(17) Uani 1 1 d . . .
H59A H 0.6749 1.2493 0.4918 0.065 Uiso 1 1 calc R . .
H59B H 0.7159 1.1656 0.4876 0.065 Uiso 1 1 calc R . .
C60 C 0.7174(4) 1.0499(3) 0.3985(3) 0.0467(14) Uani 1 1 d . . .
H60A H 0.7430 1.0415 0.4294 0.056 Uiso 1 1 calc R . .
H60B H 0.7284 1.0037 0.3785 0.056 Uiso 1 1 calc R . .
C61 C 0.7335(4) 1.2738(3) 0.3907(3) 0.0449(15) Uani 1 1 d . . .
C62 C 0.8032(4) 1.1522(3) 0.3830(3) 0.0444(14) Uani 1 1 d . . .
H62 H 0.8515 1.1309 0.4004 0.053 Uiso 1 1 calc R . .
C63 C 0.8437(4) 1.1874(3) 0.3305(2) 0.0394(13) Uani 1 1 d . . .
H63 H 0.9106 1.1851 0.3239 0.047 Uiso 1 1 calc R . .
C64 C 0.7766(4) 1.0945(3) 0.3102(2) 0.0415(13) Uani 1 1 d . . .
C66 C 0.8162(4) 1.3177(3) 0.3066(3) 0.0469(15) Uani 1 1 d . . .
H66A H 0.7986 1.3621 0.3295 0.056 Uiso 1 1 calc R . .
H66B H 0.8832 1.3080 0.2906 0.056 Uiso 1 1 calc R . .
C67 C 0.8552(4) 1.1572(3) 0.2318(2) 0.0426(14) Uani 1 1 d . . .
H67A H 0.9170 1.1679 0.2232 0.051 Uiso 1 1 calc R . .
H67B H 0.8601 1.1128 0.2112 0.051 Uiso 1 1 calc R . .
C68 C 0.7005(4) 1.3832(3) 0.2651(2) 0.0378(13) Uani 1 1 d . . .
C69 C 0.8054(4) 1.2887(3) 0.2114(2) 0.0379(13) Uani 1 1 d . . .
H69 H 0.8695 1.2925 0.1924 0.045 Uiso 1 1 calc R . .
C70 C 0.7381(4) 1.3232(3) 0.1809(2) 0.0370(12) Uani 1 1 d . . .
H70 H 0.7705 1.3417 0.1465 0.044 Uiso 1 1 calc R . .
C71 C 0.7307(4) 1.2023(3) 0.1891(2) 0.0348(12) Uani 1 1 d . . .
C72 C 0.6158(4) 1.4407(3) 0.2023(2) 0.0355(12) Uani 1 1 d . . .
H72A H 0.6101 1.4838 0.2247 0.043 Uiso 1 1 calc R . .
H72B H 0.6440 1.4499 0.1645 0.043 Uiso 1 1 calc R . .
N125 C 0.6323(3) 1.2730(3) 0.1388(2) 0.0310(11) Uani 1 1 d . . .
H12C H 0.6313 1.2251 0.1257 0.037 Uiso 1 1 calc R . .
H12D H 0.6548 1.2999 0.1071 0.037 Uiso 1 1 calc R . .
N1 N 0.5412(3) 1.8096(2) 0.32242(16) 0.0261(9) Uani 1 1 d . . .
N2 N 0.3900(3) 1.8168(2) 0.35355(16) 0.0245(8) Uani 1 1 d . . .
N3 N 0.5196(3) 1.9307(2) 0.28984(17) 0.0290(9) Uani 1 1 d . . .
N4 N 0.3731(3) 1.9266(2) 0.30504(17) 0.0270(9) Uani 1 1 d . . .
N5 N 0.2573(3) 1.7843(2) 0.33523(17) 0.0292(9) Uani 1 1 d . . .
N6 N 0.2181(3) 1.7276(2) 0.27368(17) 0.0262(9) Uani 1 1 d . . .
N7 N 0.2458(3) 1.8909(2) 0.28189(17) 0.0298(9) Uani 1 1 d . . .
N8 N 0.1897(3) 1.8367(2) 0.22637(16) 0.0293(9) Uani 1 1 d . . .
N9 N 0.2405(3) 1.6567(2) 0.19092(16) 0.0287(9) Uani 1 1 d . . .
N10 N 0.3279(3) 1.6008(2) 0.11358(16) 0.0291(9) Uani 1 1 d . . .
N11 N 0.2142(3) 1.7663(2) 0.14384(17) 0.0300(9) Uani 1 1 d . . .
N12 N 0.2997(3) 1.7094(2) 0.06624(17) 0.0311(9) Uani 1 1 d . . .
N13 N 0.4845(3) 1.5736(2) 0.0621(2) 0.0405(11) Uani 1 1 d . . .
N14 N 0.6334(3) 1.5731(2) 0.0413(2) 0.0432(12) Uani 1 1 d . . .
N15 N 0.4589(3) 1.6831(3) 0.01380(18) 0.0379(11) Uani 1 1 d . . .
N16 N 0.6089(3) 1.6798(3) -0.00890(18) 0.0405(11) Uani 1 1 d . . .
N17 N 0.7753(3) 1.5963(2) 0.0480(2) 0.0395(11) Uani 1 1 d . . .
N18 N 0.8296(3) 1.6508(2) 0.10375(19) 0.0386(11) Uani 1 1 d . . .
N19 N 0.7484(3) 1.7067(3) 0.00060(19) 0.0386(11) Uani 1 1 d . . .
N20 N 0.7892(3) 1.7635(2) 0.06165(19) 0.0361(10) Uani 1 1 d . . .
N21 N 0.7951(3) 1.7205(2) 0.18861(18) 0.0335(10) Uani 1 1 d . . .
N22 N 0.6986(3) 1.7710(2) 0.26624(18) 0.0311(9) Uani 1 1 d . . .
N23 N 0.7606(3) 1.8320(2) 0.14640(19) 0.0340(10) Uani 1 1 d . . .
N24 N 0.6697(3) 1.8843(2) 0.22496(18) 0.0312(9) Uani 1 1 d . . .
N25 N 0.5242(3) 1.4283(2) 0.20741(18) 0.0317(10) Uani 1 1 d . . .
N26 N 0.3764(3) 1.4266(2) 0.24411(16) 0.0286(9) Uani 1 1 d . . .
N27 N 0.5372(3) 1.3095(2) 0.16825(16) 0.0280(9) Uani 1 1 d . . .
N28 N 0.3864(3) 1.3211(2) 0.18765(17) 0.0265(9) Uani 1 1 d . . .
N29 N 0.2445(3) 1.3960(2) 0.30792(18) 0.0335(10) Uani 1 1 d . . .
N30 N 0.1751(3) 1.3472(2) 0.38156(18) 0.0359(10) Uani 1 1 d . . .
N31 N 0.2522(3) 1.2931(2) 0.25038(17) 0.0305(9) Uani 1 1 d . . .
N32 N 0.2014(3) 1.2381(2) 0.32510(18) 0.0325(10) Uani 1 1 d . . .
N33 N 0.1912(3) 1.2758(3) 0.45851(18) 0.0404(11) Uani 1 1 d . . .
N34 N 0.2853(3) 1.2183(3) 0.50309(19) 0.0416(11) Uani 1 1 d . . .
N35 N 0.2203(3) 1.1677(2) 0.40047(17) 0.0332(10) Uani 1 1 d . . .
N36 N 0.3078(3) 1.1088(2) 0.44833(18) 0.0373(10) Uani 1 1 d . . .
N37 N 0.4456(3) 1.1913(3) 0.49894(19) 0.0438(12) Uani 1 1 d . . .
N38 N 0.5938(3) 1.1908(3) 0.47054(19) 0.0450(12) Uani 1 1 d . . .
N39 N 0.4675(4) 1.0833(2) 0.4424(2) 0.0433(12) Uani 1 1 d . . .
N40 N 0.6175(4) 1.0791(3) 0.4184(2) 0.0488(13) Uani 1 1 d . . .
N41 N 0.7378(3) 1.2095(3) 0.4159(2) 0.0440(12) Uani 1 1 d . . .
N42 N 0.7921(4) 1.2592(3) 0.3406(2) 0.0474(12) Uani 1 1 d . . .
N43 N 0.7629(3) 1.0972(2) 0.36402(19) 0.0405(11) Uani 1 1 d . . .
N44 N 0.8255(3) 1.1455(2) 0.2892(2) 0.0404(11) Uani 1 1 d . . .
N45 N 0.7722(3) 1.3278(2) 0.2637(2) 0.0397(11) Uani 1 1 d . . .
N46 N 0.6771(3) 1.3814(2) 0.2184(2) 0.0380(11) Uani 1 1 d . . .
N47 N 0.7952(3) 1.2145(2) 0.2137(2) 0.0392(11) Uani 1 1 d . . .
N48 N 0.6944(3) 1.2665(2) 0.17069(19) 0.0352(10) Uani 1 1 d . . .
O1 O 0.4868(2) 1.70598(17) 0.32963(14) 0.0307(8) Uani 1 1 d . . .
O2 O 0.3138(2) 1.66271(17) 0.31933(14) 0.0312(8) Uani 1 1 d . . .
O3 O 0.3629(3) 1.56492(18) 0.19240(15) 0.0336(8) Uani 1 1 d . . .
O4 O 0.5863(3) 1.46546(19) 0.05729(15) 0.0395(9) Uani 1 1 d . . .
O5 O 0.7622(3) 1.5549(2) 0.13262(18) 0.0491(10) Uani 1 1 d . . .
O6 O 0.7211(3) 1.64833(19) 0.24876(17) 0.0438(10) Uani 1 1 d . . .
O7 O 0.6473(3) 1.9313(2) 0.14535(17) 0.0428(10) Uani 1 1 d . . .
O8 O 0.4374(3) 1.99049(19) 0.23468(14) 0.0353(8) Uani 1 1 d . . .
O9 O 0.2650(3) 1.9266(2) 0.19421(16) 0.0424(9) Uani 1 1 d . . .
O10 O 0.2922(3) 1.83068(19) 0.07757(16) 0.0397(9) Uani 1 1 d . . .
O11 O 0.5233(3) 1.7347(2) -0.06425(15) 0.0457(10) Uani 1 1 d . . .
O12 O 0.6825(3) 1.8274(2) 0.02266(17) 0.0473(10) Uani 1 1 d . . .
O13 O 0.4463(3) 1.4892(2) 0.29010(15) 0.0391(9) Uani 1 1 d . . .
O14 O 0.2563(3) 1.4321(2) 0.39174(17) 0.0479(10) Uani 1 1 d . . .
O15 O 0.2764(3) 1.3398(2) 0.49425(17) 0.0495(11) Uani 1 1 d . . .
O16 O 0.5109(3) 1.2414(2) 0.55556(16) 0.0474(10) Uani 1 1 d . . .
O17 O 0.6853(3) 1.3306(2) 0.4108(2) 0.0594(12) Uani 1 1 d . . .
O18 O 0.6648(3) 1.4283(2) 0.30254(18) 0.0470(10) Uani 1 1 d . . .
O19 O 0.4774(2) 1.20829(18) 0.17866(14) 0.0305(8) Uani 1 1 d . . .
O20 O 0.3005(2) 1.17113(18) 0.24990(14) 0.0312(8) Uani 1 1 d . . .
O21 O 0.3400(3) 1.0748(2) 0.35821(16) 0.0411(9) Uani 1 1 d . . .
O22 O 0.5673(3) 0.9725(2) 0.42176(19) 0.0523(11) Uani 1 1 d . . .
O23 O 0.7515(3) 1.0527(2) 0.28396(19) 0.0505(11) Uani 1 1 d . . .
O24 O 0.7110(3) 1.14547(19) 0.18357(16) 0.0384(9) Uani 1 1 d . . .

loop_
_atom_site_aniso_label
_atom_site_aniso_U_11
_atom_site_aniso_U_22
_atom_site_aniso_U_33
_atom_site_aniso_U_23
_atom_site_aniso_U_13
_atom_site_aniso_U_12
O1W 0.063(3) 0.045(2) 0.045(2) 0.0103(19) -0.021(2) -0.014(2)
O2W 0.049(2) 0.0206(18) 0.061(3) 0.0053(18) -0.019(2) -0.0087(16)
O3W 0.058(2) 0.035(2) 0.040(2) 0.0016(18) -0.0008(19) -0.0195(18)
O4W 0.100(3) 0.039(2) 0.0148(18) 0.0004(16) -0.0158(19) -0.030(2)
O5W 0.062(3) 0.046(2) 0.025(2) 0.0048(17) -0.0159(18) -0.0147(19)
O6W 0.049(2) 0.0123(16) 0.053(2) -0.0037(16) -0.0132(18) -0.0014(15)
O7W 0.089(3) 0.037(2) 0.045(2) 0.0179(19) -0.040(2) -0.029(2)
O8W 0.063(3) 0.027(2) 0.077(3) 0.012(2) -0.041(2) -0.0199(19)
O9W 0.059(2) 0.034(2) 0.0268(19) -0.0032(16) -0.0227(17) -0.0116(17)
O10W 0.090(4) 0.048(3) 0.052(3) -0.009(2) -0.037(3) -0.004(2)
Dy1 0.04593(16) 0.01933(14) 0.02301(14) 0.00281(9) -0.01442(10) -0.01128(10)
Dy2 0.04513(16) 0.01740(13) 0.02591(14) 0.00440(9) -0.01625(11) -0.00889(10)
Zn1 0.0534(4) 0.0708(5) 0.0460(4) 0.0154(4) -0.0071(3) -0.0022(4)
Zn2 0.0447(4) 0.0640(5) 0.0417(4) 0.0123(4) -0.0074(3) -0.0078(3)
Cl1 0.0446(9) 0.141(2) 0.0434(10) 0.0201(11) -0.0136(7) -0.0158(10)
Cl2 0.0750(13) 0.0780(14) 0.0820(15) 0.0211(11) 0.0049(11) -0.0094(10)
Cl3 0.0951(17) 0.184(3) 0.0884(18) 0.0578(19) -0.0552(14) -0.0399(18)
Cl4 0.1170(18) 0.0695(13) 0.0779(15) 0.0087(11) -0.0083(13) -0.0061(12)
Cl5 0.0394(8) 0.1000(14) 0.0393(8) 0.0104(9) -0.0093(6) -0.0071(8)
Cl6 0.0667(10) 0.0546(10) 0.0490(9) 0.0020(7) -0.0090(8) -0.0147(8)
Cl7 0.0950(15) 0.0642(12) 0.0751(14) 0.0016(10) 0.0072(11) -0.0274(11)
Cl8 0.0804(15) 0.176(3) 0.0823(16) 0.0559(17) -0.0469(13) -0.0364(16)
N49 0.147(8) 0.076(5) 0.073(5) 0.013(4) -0.038(5) -0.072(6)
N50 0.273(17) 0.236(15) 0.073(6) 0.053(8) -0.067(8) -0.210(15)
O25 0.104(5) 0.075(5) 0.178(9) -0.020(5) -0.042(5) -0.014(4)
O26 0.177(8) 0.237(11) 0.113(7) -0.109(8) 0.050(6) -0.143(8)
O27 0.208(11) 0.220(12) 0.209(12) -0.093(10) -0.012(9) -0.137(10)
O28 0.142(9) 0.150(10) 0.36(2) 0.003(11) 0.032(11) -0.060(8)
O29 0.33(2) 0.33(2) 0.280(19) 0.162(17) -0.142(16) -0.252(19)
O30 0.39(2) 0.48(3) 0.270(17) 0.30(2) -0.254(17) -0.36(2)
C1 0.038(3) 0.021(2) 0.028(3) 0.013(2) -0.016(2) -0.011(2)
C2 0.042(3) 0.021(2) 0.019(2) -0.0015(19) -0.014(2) -0.009(2)
C3 0.048(3) 0.018(2) 0.016(2) -0.0010(18) -0.010(2) -0.011(2)
C4 0.042(3) 0.012(2) 0.023(2) -0.0025(19) -0.011(2) -0.0044(19)
C5 0.044(3) 0.025(3) 0.021(2) -0.001(2) -0.006(2) -0.009(2)
C6 0.044(3) 0.016(2) 0.039(3) -0.003(2) -0.019(2) -0.004(2)
C7 0.026(2) 0.031(3) 0.025(3) 0.006(2) -0.0037(19) -0.014(2)
C8 0.034(3) 0.024(2) 0.027(3) 0.001(2) -0.005(2) -0.008(2)
C9 0.034(3) 0.026(3) 0.029(3) 0.008(2) -0.011(2) -0.011(2)
C10 0.038(3) 0.021(2) 0.028(3) -0.001(2) -0.007(2) -0.005(2)
C11 0.043(3) 0.021(2) 0.027(3) 0.005(2) -0.011(2) -0.015(2)
C12 0.040(3) 0.022(2) 0.033(3) 0.005(2) -0.016(2) -0.009(2)
C13 0.042(3) 0.020(2) 0.031(3) 0.000(2) -0.012(2) -0.012(2)
C14 0.035(3) 0.023(2) 0.024(2) 0.0028(19) -0.015(2) -0.008(2)
C15 0.039(3) 0.028(3) 0.030(3) 0.001(2) -0.015(2) -0.007(2)
C16 0.033(3) 0.037(3) 0.029(3) 0.007(2) -0.017(2) -0.007(2)
C17 0.044(3) 0.023(3) 0.033(3) 0.004(2) -0.007(2) -0.009(2)
C18 0.044(3) 0.040(3) 0.021(3) 0.007(2) -0.013(2) -0.002(2)
C19 0.049(3) 0.021(3) 0.020(2) -0.003(2) -0.006(2) -0.002(2)
C20 0.050(3) 0.028(3) 0.024(3) 0.005(2) -0.016(2) -0.010(2)
C21 0.041(3) 0.022(2) 0.025(3) 0.006(2) -0.010(2) -0.008(2)
C22 0.051(3) 0.025(3) 0.022(3) -0.002(2) -0.010(2) -0.007(2)
C23 0.040(3) 0.033(3) 0.041(3) -0.004(2) -0.006(2) 0.000(2)
C24 0.055(4) 0.063(4) 0.021(3) 0.009(3) -0.014(2) -0.023(3)
C25 0.038(3) 0.032(3) 0.044(3) -0.001(3) -0.006(2) 0.001(2)
C26 0.045(3) 0.034(3) 0.029(3) 0.001(2) -0.004(2) -0.010(2)
C27 0.033(3) 0.025(3) 0.040(3) -0.003(2) -0.002(2) -0.002(2)
C28 0.035(3) 0.049(4) 0.029(3) 0.008(2) -0.004(2) -0.014(3)
C29 0.038(3) 0.036(3) 0.043(3) 0.006(2) -0.012(2) -0.003(2)
C30 0.044(3) 0.028(3) 0.028(3) 0.007(2) -0.011(2) -0.009(2)
C31 0.038(3) 0.028(3) 0.042(3) 0.008(2) -0.017(2) -0.004(2)
C32 0.031(3) 0.032(3) 0.033(3) 0.005(2) -0.011(2) -0.009(2)
C33 0.036(3) 0.028(3) 0.040(3) 0.003(2) -0.018(2) -0.008(2)
C34 0.036(3) 0.037(3) 0.033(3) 0.006(2) -0.015(2) -0.013(2)
C35 0.039(3) 0.029(3) 0.031(3) 0.004(2) -0.018(2) -0.006(2)
C36 0.042(3) 0.034(3) 0.028(3) 0.005(2) -0.010(2) -0.016(2)
C37 0.050(3) 0.016(2) 0.032(3) 0.002(2) -0.020(2) -0.009(2)
C38 0.036(3) 0.021(2) 0.021(2) 0.0072(19) -0.010(2) -0.0086(19)
C39 0.041(3) 0.018(2) 0.025(3) 0.0061(19) -0.016(2) -0.009(2)
C40 0.042(3) 0.012(2) 0.020(2) 0.0038(17) -0.011(2) -0.0097(19)
C41 0.042(3) 0.022(2) 0.040(3) 0.012(2) -0.018(2) -0.008(2)
C42 0.041(3) 0.026(3) 0.035(3) 0.004(2) -0.018(2) -0.013(2)
C43 0.042(3) 0.027(3) 0.034(3) -0.001(2) -0.010(2) -0.008(2)
C44 0.035(3) 0.018(2) 0.041(3) -0.001(2) -0.010(2) -0.002(2)
C45 0.031(3) 0.033(3) 0.029(3) -0.001(2) -0.008(2) -0.011(2)
C46 0.033(3) 0.028(3) 0.045(3) 0.010(2) -0.022(2) -0.016(2)
C47 0.047(3) 0.035(3) 0.033(3) -0.006(2) -0.003(2) -0.007(2)
C48 0.046(3) 0.038(3) 0.028(3) 0.002(2) -0.015(2) -0.023(2)
C49 0.046(3) 0.060(4) 0.020(3) -0.003(3) 0.000(2) -0.025(3)
C50 0.038(3) 0.040(3) 0.027(3) 0.001(2) -0.003(2) -0.019(2)
C51 0.049(3) 0.050(3) 0.025(3) 0.003(2) -0.010(2) -0.023(3)
C52 0.045(3) 0.030(3) 0.028(3) 0.009(2) -0.011(2) -0.020(2)
C53 0.054(4) 0.061(4) 0.027(3) -0.009(3) -0.005(3) -0.020(3)
C54 0.067(4) 0.048(4) 0.046(4) 0.020(3) -0.035(3) -0.027(3)
C55 0.058(4) 0.032(3) 0.023(3) 0.003(2) -0.019(2) -0.014(2)
C56 0.053(3) 0.028(3) 0.019(2) 0.000(2) -0.016(2) -0.014(2)
C57 0.050(3) 0.027(3) 0.028(3) -0.007(2) -0.019(2) -0.004(2)
C58 0.068(4) 0.022(3) 0.038(3) -0.001(2) -0.031(3) -0.009(3)
C59 0.074(4) 0.057(4) 0.043(4) -0.005(3) -0.027(3) -0.024(3)
C60 0.053(4) 0.033(3) 0.053(4) 0.003(3) -0.019(3) -0.001(3)
C61 0.040(3) 0.040(3) 0.062(4) -0.002(3) -0.028(3) -0.006(3)
C62 0.047(3) 0.040(3) 0.053(4) -0.001(3) -0.031(3) -0.003(3)
C63 0.036(3) 0.035(3) 0.047(3) -0.003(3) -0.017(2) 0.001(2)
C64 0.039(3) 0.039(3) 0.045(4) -0.003(3) -0.018(3) 0.003(2)
C66 0.054(4) 0.047(4) 0.049(4) 0.002(3) -0.025(3) -0.017(3)
C67 0.041(3) 0.035(3) 0.046(4) -0.002(3) -0.010(3) 0.003(2)
C68 0.041(3) 0.035(3) 0.040(3) 0.001(3) -0.013(2) -0.012(2)
C69 0.028(3) 0.037(3) 0.047(3) -0.002(3) -0.009(2) -0.008(2)
C70 0.038(3) 0.038(3) 0.035(3) 0.002(2) -0.006(2) -0.015(2)
C71 0.038(3) 0.028(3) 0.032(3) 0.002(2) -0.004(2) -0.002(2)
C72 0.038(3) 0.028(3) 0.046(3) 0.005(2) -0.016(2) -0.015(2)
N125 0.035(3) 0.033(3) 0.020(2) -0.002(2) -0.004(2) -0.002(2)
N1 0.037(2) 0.021(2) 0.026(2) 0.0046(16) -0.0146(17) -0.0106(17)
N2 0.040(2) 0.0149(19) 0.022(2) 0.0001(15) -0.0133(17) -0.0057(16)
N3 0.035(2) 0.021(2) 0.033(2) 0.0065(17) -0.0113(18) -0.0096(17)
N4 0.035(2) 0.022(2) 0.031(2) 0.0048(17) -0.0173(18) -0.0082(17)
N5 0.034(2) 0.031(2) 0.026(2) 0.0035(18) -0.0112(18) -0.0101(18)
N6 0.034(2) 0.0186(19) 0.028(2) 0.0015(16) -0.0128(17) -0.0061(16)
N7 0.041(2) 0.021(2) 0.032(2) 0.0027(17) -0.0148(19) -0.0123(18)
N8 0.043(2) 0.029(2) 0.020(2) 0.0034(17) -0.0111(18) -0.0142(18)
N9 0.039(2) 0.031(2) 0.017(2) 0.0009(17) -0.0127(17) -0.0031(18)
N10 0.046(2) 0.023(2) 0.020(2) 0.0006(16) -0.0139(18) -0.0025(18)
N11 0.042(2) 0.026(2) 0.025(2) 0.0050(17) -0.0108(18) -0.0119(18)
N12 0.042(2) 0.026(2) 0.026(2) 0.0051(18) -0.0112(18) -0.0054(18)
N13 0.045(3) 0.020(2) 0.054(3) 0.014(2) -0.009(2) -0.0088(19)
N14 0.044(3) 0.029(2) 0.060(3) 0.006(2) -0.018(2) -0.011(2)
N15 0.041(3) 0.046(3) 0.030(2) 0.017(2) -0.014(2) -0.013(2)
N16 0.050(3) 0.050(3) 0.027(2) 0.013(2) -0.012(2) -0.019(2)
N17 0.038(2) 0.037(3) 0.044(3) -0.001(2) -0.012(2) -0.006(2)
N18 0.046(3) 0.032(2) 0.038(3) -0.001(2) -0.013(2) -0.010(2)
N19 0.043(3) 0.040(3) 0.037(3) 0.008(2) -0.013(2) -0.016(2)
N20 0.035(2) 0.030(2) 0.038(3) 0.002(2) -0.007(2) -0.0003(18)
N21 0.039(2) 0.023(2) 0.036(2) 0.0027(18) -0.0090(19) -0.0026(18)
N22 0.038(2) 0.025(2) 0.032(2) 0.0042(18) -0.0155(19) -0.0025(18)
N23 0.038(2) 0.022(2) 0.040(3) 0.0017(19) -0.011(2) 0.0005(18)
N24 0.036(2) 0.026(2) 0.031(2) 0.0041(18) -0.0098(18) -0.0038(18)
N25 0.042(2) 0.025(2) 0.033(2) 0.0018(18) -0.013(2) -0.0144(18)
N26 0.042(2) 0.028(2) 0.021(2) 0.0022(17) -0.0145(18) -0.0140(18)
N27 0.034(2) 0.024(2) 0.023(2) 0.0009(17) -0.0063(17) -0.0033(17)
N28 0.034(2) 0.0155(19) 0.031(2) 0.0024(16) -0.0099(17) -0.0072(16)
N29 0.042(2) 0.028(2) 0.032(2) 0.0021(18) -0.0100(19) -0.0138(19)
N30 0.050(3) 0.024(2) 0.034(3) 0.0012(19) -0.008(2) -0.0140(19)
N31 0.035(2) 0.029(2) 0.027(2) 0.0034(18) -0.0091(18) -0.0073(18)
N32 0.035(2) 0.028(2) 0.037(3) 0.0069(19) -0.0112(19) -0.0116(18)
N33 0.057(3) 0.043(3) 0.028(2) 0.004(2) -0.015(2) -0.021(2)
N34 0.054(3) 0.047(3) 0.030(3) -0.003(2) -0.015(2) -0.019(2)
N35 0.048(3) 0.034(2) 0.021(2) 0.0020(18) -0.0108(19) -0.013(2)
N36 0.056(3) 0.033(2) 0.029(2) 0.0013(19) -0.020(2) -0.012(2)
N37 0.055(3) 0.051(3) 0.029(3) -0.009(2) -0.008(2) -0.024(2)
N38 0.045(3) 0.069(3) 0.028(2) -0.013(2) -0.015(2) -0.021(2)
N39 0.061(3) 0.018(2) 0.061(3) -0.004(2) -0.031(3) -0.012(2)
N40 0.057(3) 0.032(3) 0.057(3) 0.000(2) -0.014(3) -0.009(2)
N41 0.046(3) 0.048(3) 0.044(3) -0.006(2) -0.021(2) -0.012(2)
N42 0.051(3) 0.042(3) 0.051(3) 0.003(2) -0.023(3) -0.004(2)
N43 0.052(3) 0.035(3) 0.035(3) -0.003(2) -0.017(2) -0.004(2)
N44 0.048(3) 0.033(2) 0.041(3) 0.001(2) -0.016(2) -0.005(2)
N45 0.045(3) 0.030(2) 0.047(3) 0.001(2) -0.020(2) -0.005(2)
N46 0.039(2) 0.032(2) 0.046(3) -0.004(2) -0.018(2) -0.0049(19)
N47 0.041(3) 0.029(2) 0.049(3) -0.004(2) -0.019(2) -0.0030(19)
N48 0.035(2) 0.035(2) 0.035(3) 0.000(2) -0.0108(19) -0.0058(19)
O1 0.042(2) 0.0212(18) 0.034(2) 0.0061(15) -0.0156(16) -0.0139(15)
O2 0.046(2) 0.0169(17) 0.035(2) 0.0042(14) -0.0190(16) -0.0073(15)
O3 0.051(2) 0.0236(18) 0.033(2) 0.0049(15) -0.0229(17) -0.0067(16)
O4 0.053(2) 0.026(2) 0.036(2) 0.0031(16) -0.0076(17) -0.0087(17)
O5 0.069(3) 0.038(2) 0.046(3) 0.011(2) -0.019(2) -0.019(2)
O6 0.057(2) 0.024(2) 0.046(2) 0.0049(17) -0.0083(19) -0.0074(17)
O7 0.056(2) 0.027(2) 0.045(2) 0.0087(17) -0.0203(19) 0.0006(17)
O8 0.051(2) 0.0296(19) 0.030(2) 0.0104(16) -0.0179(17) -0.0114(16)
O9 0.062(3) 0.032(2) 0.040(2) 0.0093(17) -0.0173(19) -0.0220(18)
O10 0.058(2) 0.0251(19) 0.038(2) 0.0117(16) -0.0120(18) -0.0153(17)
O11 0.070(3) 0.051(2) 0.024(2) 0.0182(18) -0.0184(19) -0.024(2)
O12 0.052(2) 0.047(2) 0.040(2) 0.0119(19) -0.0156(19) -0.002(2)
O13 0.055(2) 0.033(2) 0.036(2) 0.0011(17) -0.0192(18) -0.0170(17)
O14 0.078(3) 0.038(2) 0.038(2) 0.0079(18) -0.019(2) -0.030(2)
O15 0.073(3) 0.043(2) 0.040(2) -0.0019(19) -0.014(2) -0.032(2)
O16 0.068(3) 0.060(3) 0.026(2) -0.0015(18) -0.0207(18) -0.028(2)
O17 0.065(3) 0.041(3) 0.068(3) -0.019(2) -0.026(2) 0.007(2)
O18 0.062(3) 0.032(2) 0.050(3) -0.0086(19) -0.024(2) -0.0048(19)
O19 0.040(2) 0.0224(18) 0.032(2) 0.0060(14) -0.0148(15) -0.0088(14)
O20 0.0388(19) 0.0222(18) 0.033(2) -0.0016(15) -0.0116(15) -0.0052(15)
O21 0.057(2) 0.033(2) 0.034(2) -0.0008(17) -0.0149(18) -0.0089(18)
O22 0.077(3) 0.038(2) 0.056(3) 0.001(2) -0.041(2) -0.014(2)
O23 0.061(3) 0.042(2) 0.054(3) -0.002(2) -0.027(2) -0.011(2)
O24 0.049(2) 0.027(2) 0.042(2) -0.0029(16) -0.0188(18) -0.0061(16)

_geom_special_details            
; 
 All esds (except the esd in the dihedral angle between two l.s. planes) 
 are estimated using the full covariance matrix.  The cell esds are taken 
 into account individually in the estimation of esds in distances, angles 
 and torsion angles; correlations between esds in cell parameters are only 
 used when they are defined by crystal symmetry.  An approximate (isotropic) 
 treatment of cell esds is used for estimating esds involving l.s. planes. 
;

loop_
_geom_bond_atom_site_label_1
_geom_bond_atom_site_label_2
_geom_bond_distance
_geom_bond_site_symmetry_2
_geom_bond_publ_flag
O1W Dy1 2.397(4) . ?
O2W Dy1 2.355(4) . ?
O3W Dy1 2.365(4) . ?
O4W Dy1 2.346(4) . ?
O5W Dy1 2.400(4) . ?
O6W Dy2 2.360(4) . ?
O7W Dy2 2.352(4) . ?
O8W Dy2 2.375(4) . ?
O9W Dy2 2.376(3) . ?
O10W Dy2 2.394(4) . ?
Dy1 O13 2.307(4) . ?
Dy1 O2 2.345(3) . ?
Dy1 O1 2.358(3) . ?
Dy2 O8 2.339(3) 1_545 ?
Dy2 O20 2.347(3) . ?
Dy2 O19 2.355(3) . ?
Zn1 Cl4 2.238(2) . ?
Zn1 Cl1 2.253(2) . ?
Zn1 Cl2 2.254(2) . ?
Zn1 Cl3 2.280(2) . ?
Zn2 Cl7 2.237(2) . ?
Zn2 Cl5 2.2712(18) . ?
Zn2 Cl6 2.2713(19) . ?
Zn2 Cl8 2.274(2) . ?
N49 O27 1.195(10) . ?
N49 O26 1.211(11) . ?
N49 O25 1.226(11) . ?
N50 O28 1.249(2) . ?
N50 O30 1.250(2) . ?
N50 O29 1.249(2) . ?
C1 O1 1.239(6) . ?
C1 N2 1.350(6) . ?
C1 N1 1.353(6) . ?
C2 N3 1.453(6) . ?
C2 N1 1.460(6) . ?
C2 C3 1.533(7) . ?
C2 H2 0.9900 . ?
C3 N2 1.454(6) . ?
C3 N4 1.455(6) . ?
C3 H3 0.9900 . ?
C4 O8 1.247(6) . ?
C4 N4 1.342(6) . ?
C4 N3 1.343(6) . ?
C5 N2 1.432(6) . ?
C5 N5 1.437(7) . ?
C5 H5A 0.9800 . ?
C5 H5B 0.9800 . ?
C6 N7 1.448(6) . ?
C6 N4 1.466(7) . ?
C6 H6A 0.9800 . ?
C6 H6B 0.9800 . ?
C7 O2 1.240(6) . ?
C7 N5 1.341(7) . ?
C7 N6 1.360(6) . ?
C8 N5 1.444(6) . ?
C8 N7 1.464(6) . ?
C8 C9 1.539(7) . ?
C8 H8 0.9900 . ?
C9 N8 1.447(6) . ?
C9 N6 1.467(6) . ?
C9 H9 0.9900 . ?
C10 O9 1.218(6) . ?
C10 N8 1.367(6) . ?
C10 N7 1.363(7) . ?
C11 N9 1.433(6) . ?
C11 N6 1.448(6) . ?
C11 H11A 0.9800 . ?
C11 H11B 0.9800 . ?
C12 N8 1.433(7) . ?
C12 N11 1.454(7) . ?
C12 H12A 0.9800 . ?
C12 H12B 0.9800 . ?
C13 O3 1.242(6) . ?
C13 N10 1.355(6) . ?
C13 N9 1.350(7) . ?
C14 N11 1.445(6) . ?
C14 N9 1.460(6) . ?
C14 C15 1.544(7) . ?
C14 H14 0.9900 . ?
C15 N12 1.438(6) . ?
C15 N10 1.443(6) . ?
C15 H15 0.9900 . ?
C16 O10 1.222(6) . ?
C16 N12 1.358(7) . ?
C16 N11 1.372(7) . ?
C17 N13 1.424(7) . ?
C17 N10 1.438(7) . ?
C17 H17A 0.9800 . ?
C17 H17B 0.9800 . ?
C18 N15 1.450(7) . ?
C18 N12 1.458(7) . ?
C18 H18A 0.9800 . ?
C18 H18B 0.9800 . ?
C19 O4 1.229(6) . ?
C19 N14 1.361(7) . ?
C19 N13 1.365(7) . ?
C20 N13 1.455(6) . ?
C20 N15 1.453(6) . ?
C20 C21 1.526(7) . ?
C20 H20 0.9900 . ?
C21 N16 1.438(6) . ?
C21 N14 1.442(7) . ?
C21 H21 0.9900 . ?
C22 O11 1.231(6) . ?
C22 N15 1.353(7) . ?
C22 N16 1.363(7) . ?
C23 N17 1.410(7) . ?
C23 N14 1.460(7) . ?
C23 H23A 0.9800 . ?
C23 H23B 0.9800 . ?
C24 N19 1.451(7) . ?
C24 N16 1.452(7) . ?
C24 H24A 0.9800 . ?
C24 H24B 0.9800 . ?
C25 O5 1.211(7) . ?
C25 N18 1.370(7) . ?
C25 N17 1.355(8) . ?
C26 N19 1.438(7) . ?
C26 N17 1.467(7) . ?
C26 C27 1.539(8) . ?
C26 H26 0.9900 . ?
C27 N18 1.428(7) . ?
C27 N20 1.466(7) . ?
C27 H27 0.9900 . ?
C28 O12 1.241(7) . ?
C28 N20 1.353(7) . ?
C28 N19 1.363(8) . ?
C29 N21 1.443(7) . ?
C29 N18 1.442(8) . ?
C29 H29A 0.9800 . ?
C29 H29B 0.9800 . ?
C30 N23 1.445(7) . ?
C30 N20 1.456(7) . ?
C30 H30A 0.9800 . ?
C30 H30B 0.9800 . ?
C31 O6 1.222(6) . ?
C31 N21 1.353(7) . ?
C31 N22 1.380(7) . ?
C32 N21 1.439(6) . ?
C32 N23 1.441(7) . ?
C32 C33 1.538(7) . ?
C32 H32 0.9900 . ?
C33 N22 1.435(7) . ?
C33 N24 1.445(7) . ?
C33 H33 0.9900 . ?
C34 O7 1.233(6) . ?
C34 N24 1.361(7) . ?
C34 N23 1.369(7) . ?
C35 N22 1.422(7) . ?
C35 N1 1.450(7) . ?
C35 H35A 0.9800 . ?
C35 H35B 0.9800 . ?
C36 N24 1.465(7) . ?
C36 N3 1.458(6) . ?
C36 H36A 0.9800 . ?
C36 H36B 0.9800 . ?
C37 O13 1.255(6) . ?
C37 N25 1.338(7) . ?
C37 N26 1.349(7) . ?
C38 N27 1.450(6) . ?
C38 N25 1.453(6) . ?
C38 C39 1.534(7) . ?
C38 H38 0.9900 . ?
C39 N28 1.436(6) . ?
C39 N26 1.469(6) . ?
C39 H39 0.9900 . ?
C40 O19 1.224(5) . ?
C40 N27 1.356(6) . ?
C40 N28 1.349(6) . ?
C41 N26 1.423(7) . ?
C41 N29 1.439(6) . ?
C41 H41A 0.9800 . ?
C41 H41B 0.9800 . ?
C42 N31 1.428(7) . ?
C42 N28 1.449(6) . ?
C42 H42A 0.9800 . ?
C42 H42B 0.9800 . ?
C43 O14 1.225(7) . ?
C43 N30 1.353(7) . ?
C43 N29 1.381(7) . ?
C44 N29 1.435(7) . ?
C44 N31 1.470(6) . ?
C44 C45 1.546(7) . ?
C44 H44 0.9900 . ?
C45 N30 1.432(7) . ?
C45 N32 1.449(7) . ?
C45 H45 0.9900 . ?
C46 O20 1.222(6) . ?
C46 N31 1.360(6) . ?
C46 N32 1.359(7) . ?
C47 N30 1.441(7) . ?
C47 N33 1.465(8) . ?
C47 H47A 0.9800 . ?
C47 H47B 0.9800 . ?
C48 N32 1.439(6) . ?
C48 N35 1.430(7) . ?
C48 H48A 0.9800 . ?
C48 H48B 0.9800 . ?
C49 O15 1.211(7) . ?
C49 N34 1.371(8) . ?
C49 N33 1.388(8) . ?
C50 N33 1.431(7) . ?
C50 N35 1.474(7) . ?
C50 C51 1.533(8) . ?
C50 H50 0.9900 . ?
C51 N34 1.438(7) . ?
C51 N36 1.467(7) . ?
C51 H51 0.9900 . ?
C52 O21 1.221(6) . ?
C52 N35 1.355(7) . ?
C52 N36 1.369(7) . ?
C53 N34 1.452(8) . ?
C53 N37 1.447(8) . ?
C53 H53A 0.9800 . ?
C53 H53B 0.9800 . ?
C54 N39 1.437(8) . ?
C54 N36 1.449(8) . ?
C54 H54A 0.9800 . ?
C54 H54B 0.9800 . ?
C55 O16 1.216(7) . ?
C55 N37 1.354(7) . ?
C55 N38 1.365(7) . ?
C56 N39 1.430(6) . ?
C56 N37 1.447(7) . ?
C56 C57 1.537(8) . ?
C56 H56 0.9900 . ?
C57 N40 1.432(7) . ?
C57 N38 1.441(7) . ?
C57 H57 0.9900 . ?
C58 O22 1.235(7) . ?
C58 N39 1.362(8) . ?
C58 N40 1.363(8) . ?
C59 N41 1.437(8) . ?
C59 N38 1.460(8) . ?
C59 H59A 0.9800 . ?
C59 H59B 0.9800 . ?
C60 N43 1.415(8) . ?
C60 N40 1.470(8) . ?
C60 H60A 0.9800 . ?
C60 H60B 0.9800 . ?
C61 O17 1.209(7) . ?
C61 N42 1.344(8) . ?
C61 N41 1.384(8) . ?
C62 N41 1.420(8) . ?
C62 N43 1.470(7) . ?
C62 C63 1.535(9) . ?
C62 H62 0.9900 . ?
C63 N42 1.423(7) . ?
C63 N44 1.452(8) . ?
C63 H63 0.9900 . ?
C64 O23 1.230(7) . ?
C64 N43 1.339(8) . ?
C64 N44 1.370(8) . ?
C66 N45 1.439(8) . ?
C66 N42 1.459(8) . ?
C66 H66A 0.9800 . ?
C66 H66B 0.9800 . ?
C67 N47 1.447(7) . ?
C67 N44 1.448(8) . ?
C67 H67A 0.9800 . ?
C67 H67B 0.9800 . ?
C68 O18 1.220(7) . ?
C68 N46 1.347(8) . ?
C68 N45 1.359(7) . ?
C69 N47 1.457(7) . ?
C69 N45 1.447(8) . ?
C69 C70 1.516(8) . ?
C69 H69 0.9900 . ?
C70 N48 1.446(7) . ?
C70 N46 1.458(7) . ?
C70 H70 0.9900 . ?
C71 O24 1.203(6) . ?
C71 N47 1.374(8) . ?
C71 N48 1.380(7) . ?
C72 N25 1.450(7) . ?
C72 N46 1.459(7) . ?
C72 H72A 0.9800 . ?
C72 H72B 0.9800 . ?
N125 N48 1.410(7) . ?
N125 N27 1.477(6) . ?
N125 H12C 0.9800 . ?
N125 H12D 0.9800 . ?
O8 Dy2 2.339(3) 1_565 ?

loop_
_geom_angle_atom_site_label_1
_geom_angle_atom_site_label_2
_geom_angle_atom_site_label_3
_geom_angle
_geom_angle_site_symmetry_1
_geom_angle_site_symmetry_3
_geom_angle_publ_flag
O13 Dy1 O4W 142.33(13) . . ?
O13 Dy1 O2 96.96(13) . . ?
O4W Dy1 O2 96.14(15) . . ?
O13 Dy1 O2W 93.87(14) . . ?
O4W Dy1 O2W 96.14(16) . . ?
O2 Dy1 O2W 143.64(13) . . ?
O13 Dy1 O1 146.64(13) . . ?
O4W Dy1 O1 70.58(13) . . ?
O2 Dy1 O1 80.10(12) . . ?
O2W Dy1 O1 72.04(12) . . ?
O13 Dy1 O3W 77.62(14) . . ?
O4W Dy1 O3W 73.11(15) . . ?
O2 Dy1 O3W 72.17(14) . . ?
O2W Dy1 O3W 144.19(14) . . ?
O1 Dy1 O3W 130.96(13) . . ?
O13 Dy1 O1W 73.34(14) . . ?
O4W Dy1 O1W 76.52(15) . . ?
O2 Dy1 O1W 147.02(13) . . ?
O2W Dy1 O1W 69.30(14) . . ?
O1 Dy1 O1W 125.17(14) . . ?
O3W Dy1 O1W 74.95(15) . . ?
O13 Dy1 O5W 71.68(13) . . ?
O4W Dy1 O5W 145.99(13) . . ?
O2 Dy1 O5W 73.83(13) . . ?
O2W Dy1 O5W 76.91(15) . . ?
O1 Dy1 O5W 75.65(13) . . ?
O3W Dy1 O5W 130.28(15) . . ?
O1W Dy1 O5W 128.71(15) . . ?
O8 Dy2 O20 101.16(12) 1_545 . ?
O8 Dy2 O19 147.11(12) 1_545 . ?
O20 Dy2 O19 80.88(12) . . ?
O8 Dy2 O7W 141.13(13) 1_545 . ?
O20 Dy2 O7W 94.94(15) . . ?
O19 Dy2 O7W 70.10(13) . . ?
O8 Dy2 O6W 91.23(13) 1_545 . ?
O20 Dy2 O6W 144.61(13) . . ?
O19 Dy2 O6W 71.34(12) . . ?
O7W Dy2 O6W 95.74(16) . . ?
O8 Dy2 O8W 76.95(13) 1_545 . ?
O20 Dy2 O8W 70.25(14) . . ?
O19 Dy2 O8W 132.54(12) . . ?
O7W Dy2 O8W 75.66(15) . . ?
O6W Dy2 O8W 145.15(14) . . ?
O8 Dy2 O9W 72.07(13) 1_545 . ?
O20 Dy2 O9W 74.75(13) . . ?
O19 Dy2 O9W 77.01(12) . . ?
O7W Dy2 O9W 146.74(13) . . ?
O6W Dy2 O9W 77.91(14) . . ?
O8W Dy2 O9W 126.87(15) . . ?
O8 Dy2 O10W 71.73(15) 1_545 . ?
O20 Dy2 O10W 144.09(15) . . ?
O19 Dy2 O10W 124.51(15) . . ?
O7W Dy2 O10W 74.51(16) . . ?
O6W Dy2 O10W 71.28(16) . . ?
O8W Dy2 O10W 73.88(17) . . ?
O9W Dy2 O10W 131.18(15) . . ?
Cl4 Zn1 Cl1 108.17(10) . . ?
Cl4 Zn1 Cl2 108.66(9) . . ?
Cl1 Zn1 Cl2 109.23(10) . . ?
Cl4 Zn1 Cl3 112.04(13) . . ?
Cl1 Zn1 Cl3 108.80(9) . . ?
Cl2 Zn1 Cl3 109.88(10) . . ?
Cl7 Zn2 Cl5 108.27(9) . . ?
Cl7 Zn2 Cl6 112.84(8) . . ?
Cl5 Zn2 Cl6 106.80(7) . . ?
Cl7 Zn2 Cl8 110.97(11) . . ?
Cl5 Zn2 Cl8 109.88(8) . . ?
Cl6 Zn2 Cl8 107.99(11) . . ?
O27 N49 O26 120.7(11) . . ?
O27 N49 O25 120.8(11) . . ?
O26 N49 O25 118.5(8) . . ?
O28 N50 O30 1