####################################################################### 
# 
# This file contains crystal structure data downloaded from the 
# Cambridge Structural Database (CSD) hosted by the Cambridge 
# Crystallographic Data Centre (CCDC).
# 
# Full information about CCDC data access policies and citation 
# guidelines are available at http://www.ccdc.cam.ac.uk/access/V1 
# 
# Audit and citation data items may have been added by the CCDC. 
# Please retain this information to preserve the provenance of 
# this file and to allow appropriate attribution of the data. 
# 
#######################################################################

data_Ho
_audit_block_doi                 10.5517/cc13tks8
_database_code_depnum_ccdc_archive 'CCDC 1037470'
loop_
_citation_id
_citation_doi
_citation_year
1 10.1016/j.poly.2015.07.003 2015
_audit_update_record             
;
2014-12-03 deposited with the CCDC.	2024-07-09 downloaded from the CCDC.
;

_audit_creation_method           SHELXL-97
_chemical_name_systematic        
; 
 ? 
;
_chemical_name_common            ?
_chemical_melting_point          ?
_chemical_formula_moiety         'C72 H92 Ho2 N50 O40,  2(Zn Cl4), 49(H2 O)'
_chemical_formula_sum            'C72 H190 Cl8 Ho2 N50 O89 Zn2'
_chemical_formula_weight         3924.94

loop_
_atom_type_symbol
_atom_type_description
_atom_type_scat_dispersion_real
_atom_type_scat_dispersion_imag
_atom_type_scat_source
C C 0.0033 0.0016 'International Tables Vol C Tables 4.2.6.8 and 6.1.1.4'
H H 0.0000 0.0000 'International Tables Vol C Tables 4.2.6.8 and 6.1.1.4'
N N 0.0061 0.0033 'International Tables Vol C Tables 4.2.6.8 and 6.1.1.4'
O O 0.0106 0.0060 'International Tables Vol C Tables 4.2.6.8 and 6.1.1.4'
Ho Ho -0.2175 4.6783 'International Tables Vol C Tables 4.2.6.8 and 6.1.1.4'
Zn Zn 0.2839 1.4301 'International Tables Vol C Tables 4.2.6.8 and 6.1.1.4'
Cl Cl 0.1484 0.1585 'International Tables Vol C Tables 4.2.6.8 and 6.1.1.4'

_symmetry_cell_setting           triclinic
_symmetry_space_group_name_H-M   'P -1'
_symmetry_space_group_name_Hall  '-p 1'

loop_
_symmetry_equiv_pos_as_xyz
'x, y, z'
'-x, -y, -z'

_cell_length_a                   15.3656(6)
_cell_length_b                   19.0438(8)
_cell_length_c                   25.6740(10)
_cell_angle_alpha                89.8730(10)
_cell_angle_beta                 73.8250(10)
_cell_angle_gamma                78.1370(10)
_cell_volume                     7049.1(5)
_cell_formula_units_Z            2
_cell_measurement_temperature    223(2)
_cell_measurement_reflns_used    ?
_cell_measurement_theta_min      ?
_cell_measurement_theta_max      ?

_exptl_crystal_description       prism
_exptl_crystal_colour            colorless
_exptl_crystal_size_max          0.27
_exptl_crystal_size_mid          0.22
_exptl_crystal_size_min          0.19
_exptl_crystal_density_meas      ?
_exptl_crystal_density_diffrn    1.849
_exptl_crystal_density_method    'not measured'
_exptl_crystal_F_000             4028
_exptl_absorpt_coefficient_mu    1.730
_exptl_absorpt_correction_type   multi-scan
_exptl_absorpt_correction_T_min  0.6524
_exptl_absorpt_correction_T_max  0.7346
_exptl_absorpt_process_details   'SADABS (Bruker, 2008)'

_exptl_special_details           
; 
 ? 
;

_diffrn_ambient_temperature      223(2)
_diffrn_radiation_wavelength     0.71073
_diffrn_radiation_type           MoK\a
_diffrn_radiation_source         'fine-focus sealed tube'
_diffrn_radiation_monochromator  graphite
_diffrn_measurement_device_type  'Bruker Smart Apex2 CCD Detector'
_diffrn_measurement_method       '\f and \w scan'
_diffrn_detector_area_resol_mean ?
_diffrn_standards_number         ?
_diffrn_standards_interval_count ?
_diffrn_standards_interval_time  ?
_diffrn_standards_decay_%        ?
_diffrn_reflns_number            75619
_diffrn_reflns_av_R_equivalents  0.0392
_diffrn_reflns_av_sigmaI/netI    0.0441
_diffrn_reflns_limit_h_min       -17
_diffrn_reflns_limit_h_max       16
_diffrn_reflns_limit_k_min       -22
_diffrn_reflns_limit_k_max       21
_diffrn_reflns_limit_l_min       -30
_diffrn_reflns_limit_l_max       30
_diffrn_reflns_theta_min         0.83
_diffrn_reflns_theta_max         25.10
_reflns_number_total             24714
_reflns_number_gt                20795
_reflns_threshold_expression     >2sigma(I)

_computing_data_collection       ?
_computing_cell_refinement       ?
_computing_data_reduction        ?
_computing_structure_solution    'SHELXS-97 (Sheldrick, 1990)'
_computing_structure_refinement  'SHELXL-97 (Sheldrick, 1997)'
_computing_molecular_graphics    ?
_computing_publication_material  ?

_refine_special_details          
; 
 Refinement of F^2^ against ALL reflections.  The weighted R-factor wR and 
 goodness of fit S are based on F^2^, conventional R-factors R are based 
 on F, with F set to zero for negative F^2^. The threshold expression of 
 F^2^ > 2sigma(F^2^) is used only for calculating R-factors(gt) etc. and is 
 not relevant to the choice of reflections for refinement.  R-factors based 
 on F^2^ are statistically about twice as large as those based on F, and R- 
 factors based on ALL data will be even larger. 
;

_refine_ls_structure_factor_coef Fsqd
_refine_ls_matrix_type           full
_refine_ls_weighting_scheme      calc
_refine_ls_weighting_details     
'calc w=1/[\s^2^(Fo^2^)+(0.1390P)^2^+48.8371P] where P=(Fo^2^+2Fc^2^)/3'
_atom_sites_solution_primary     direct
_atom_sites_solution_secondary   difmap
_atom_sites_solution_hydrogens   geom
_refine_ls_hydrogen_treatment    constr
_refine_ls_extinction_method     none
_refine_ls_extinction_coef       ?
_refine_ls_number_reflns         24714
_refine_ls_number_parameters     1567
_refine_ls_number_restraints     3
_refine_ls_R_factor_all          0.0832
_refine_ls_R_factor_gt           0.0765
_refine_ls_wR_factor_ref         0.2304
_refine_ls_wR_factor_gt          0.2252
_refine_ls_goodness_of_fit_ref   1.076
_refine_ls_restrained_S_all      1.076
_refine_ls_shift/su_max          0.087
_refine_ls_shift/su_mean         0.004

loop_
_atom_site_label
_atom_site_type_symbol
_atom_site_fract_x
_atom_site_fract_y
_atom_site_fract_z
_atom_site_U_iso_or_equiv
_atom_site_adp_type
_atom_site_occupancy
_atom_site_symmetry_multiplicity
_atom_site_calc_flag
_atom_site_refinement_flags
_atom_site_disorder_assembly
_atom_site_disorder_group
O1W O 0.5137(4) -0.6122(3) 0.2592(2) 0.0394(14) Uani 1 1 d . . .
O2W O 0.5794(5) -0.6433(3) 0.0773(2) 0.0426(15) Uani 1 1 d . . .
O3W O 0.3926(4) -0.5741(3) 0.1886(3) 0.0418(14) Uani 1 1 d . . .
O4W O 0.4921(5) -0.4949(3) 0.1173(2) 0.0451(15) Uani 1 1 d . . .
O5W O 0.6839(5) -0.5563(3) 0.1075(3) 0.0437(15) Uani 1 1 d . . .
O6W O 0.5260(4) -0.1167(3) 0.2301(2) 0.0369(13) Uani 1 1 d . . .
O7W O 0.5977(5) -0.1467(3) 0.3888(2) 0.0454(15) Uani 1 1 d . . .
O8W O 0.7046(4) -0.0622(3) 0.3143(3) 0.0450(15) Uani 1 1 d . . .
O9W O 0.4079(4) -0.0757(3) 0.3423(2) 0.0388(13) Uani 1 1 d . . .
O10W O 0.5185(6) 0.0007(3) 0.3763(3) 0.0536(18) Uani 1 1 d . . .
Ho1 Ho 0.55430(2) -0.593224(17) 0.164175(13) 0.02543(12) Uani 1 1 d . . .
Ho2 Ho 0.56957(2) -0.098105(16) 0.309537(13) 0.02507(12) Uani 1 1 d . . .
Zn1 Zn 0.09892(9) -0.24194(8) 0.48997(5) 0.0581(3) Uani 1 1 d . . .
Zn2 Zn 0.09888(8) -0.74429(7) 0.15715(5) 0.0490(3) Uani 1 1 d . . .
Cl1 Cl 0.1959(2) -0.16667(19) 0.46189(14) 0.0789(9) Uani 1 1 d . . .
Cl2 Cl 0.04689(17) -0.2321(2) 0.58197(10) 0.0727(9) Uani 1 1 d . . .
Cl3 Cl -0.0248(3) -0.2124(3) 0.45523(17) 0.1091(15) Uani 1 1 d . . .
Cl4 Cl 0.1775(3) -0.35502(18) 0.46491(15) 0.0853(10) Uani 1 1 d . . .
Cl5 Cl 0.18605(19) -0.85709(14) 0.13646(10) 0.0547(6) Uani 1 1 d . . .
Cl6 Cl 0.03861(16) -0.73379(17) 0.24904(9) 0.0581(7) Uani 1 1 d . . .
Cl7 Cl 0.1818(2) -0.65932(17) 0.13269(14) 0.0770(9) Uani 1 1 d . . .
Cl8 Cl -0.0160(3) -0.7335(3) 0.11588(15) 0.0987(13) Uani 1 1 d . . .
N49 N 0.498(2) -0.7693(13) 0.3229(7) 0.167(11) Uani 1 1 d . . .
O25 O 0.5690(14) -0.7548(12) 0.3266(13) 0.251(14) Uani 1 1 d . . .
O26 O 0.476(2) -0.8172(15) 0.3518(12) 0.298(17) Uani 1 1 d . . .
O27 O 0.453(2) -0.7301(17) 0.3014(11) 0.31(2) Uani 1 1 d . . .
N50 N 0.4986(7) -0.2681(5) 0.1764(4) 0.078(3) Uani 1 1 d D . .
O28 O 0.4474(9) -0.2232(8) 0.2133(5) 0.172(8) Uani 1 1 d D . .
O29 O 0.5807(7) -0.2629(7) 0.1557(6) 0.120(4) Uani 1 1 d D . .
O30 O 0.4632(12) -0.3110(10) 0.1566(7) 0.176(8) Uani 1 1 d D . .
C1 C 0.7327(5) -0.7196(4) 0.1902(3) 0.0245(15) Uani 1 1 d . . .
C2 C 0.8363(5) -0.8013(4) 0.2232(3) 0.0277(16) Uani 1 1 d . . .
H2 H 0.9039 -0.8034 0.2103 0.033 Uiso 1 1 calc R . .
C3 C 0.8036(5) -0.8416(4) 0.1846(3) 0.0292(16) Uani 1 1 d . . .
H3 H 0.8563 -0.8673 0.1545 0.035 Uiso 1 1 calc R . .
C4 C 0.7635(5) -0.8891(4) 0.2695(3) 0.0265(15) Uani 1 1 d . . .
C5 C 0.6954(5) -0.7948(4) 0.1270(3) 0.0283(16) Uani 1 1 d . . .
H5A H 0.7369 -0.8303 0.0986 0.034 Uiso 1 1 calc R . .
H5B H 0.6834 -0.7493 0.1098 0.034 Uiso 1 1 calc R . .
C6 C 0.7227(5) -0.9487(4) 0.1964(3) 0.0296(16) Uani 1 1 d . . .
H6A H 0.7627 -0.9646 0.1597 0.036 Uiso 1 1 calc R . .
H6B H 0.7278 -0.9897 0.2193 0.036 Uiso 1 1 calc R . .
C7 C 0.5272(5) -0.7716(4) 0.1654(3) 0.0256(16) Uani 1 1 d . . .
C8 C 0.6007(5) -0.8915(4) 0.1488(3) 0.0223(14) Uani 1 1 d . . .
H8 H 0.6329 -0.9194 0.1138 0.027 Uiso 1 1 calc R . .
C9 C 0.4969(5) -0.8865(4) 0.1642(3) 0.0234(15) Uani 1 1 d . . .
H9 H 0.4772 -0.9038 0.1339 0.028 Uiso 1 1 calc R . .
C10 C 0.5571(5) -0.9528(4) 0.2273(3) 0.0248(15) Uani 1 1 d . . .
C11 C 0.3636(6) -0.7765(4) 0.1800(3) 0.0307(17) Uani 1 1 d . . .
H11A H 0.3618 -0.7284 0.1661 0.037 Uiso 1 1 calc R . .
H11B H 0.3424 -0.8051 0.1563 0.037 Uiso 1 1 calc R . .
C12 C 0.3901(6) -0.9441(4) 0.2387(3) 0.0319(17) Uani 1 1 d . . .
H12A H 0.3591 -0.9547 0.2120 0.038 Uiso 1 1 calc R . .
H12B H 0.3986 -0.9867 0.2597 0.038 Uiso 1 1 calc R . .
C13 C 0.2636(5) -0.7068(4) 0.2646(3) 0.0303(16) Uani 1 1 d . . .
C14 C 0.2639(5) -0.8289(4) 0.2593(3) 0.0292(16) Uani 1 1 d . . .
H14 H 0.2302 -0.8492 0.2373 0.035 Uiso 1 1 calc R . .
C15 C 0.1984(5) -0.7955(4) 0.3149(3) 0.0297(16) Uani 1 1 d . . .
H15 H 0.1342 -0.8017 0.3200 0.036 Uiso 1 1 calc R . .
C16 C 0.3123(5) -0.8866(4) 0.3299(3) 0.0280(16) Uani 1 1 d . . .
C17 C 0.1399(6) -0.6639(4) 0.3494(4) 0.0372(19) Uani 1 1 d . . .
H17A H 0.1315 -0.6194 0.3304 0.045 Uiso 1 1 calc R . .
H17B H 0.0795 -0.6774 0.3616 0.045 Uiso 1 1 calc R . .
C18 C 0.1951(6) -0.8245(4) 0.4116(3) 0.0333(17) Uani 1 1 d . . .
H18A H 0.1282 -0.8198 0.4177 0.040 Uiso 1 1 calc R . .
H18B H 0.2177 -0.8680 0.4285 0.040 Uiso 1 1 calc R . .
C19 C 0.2122(6) -0.5961(5) 0.4011(4) 0.0366(19) Uani 1 1 d . . .
C20 C 0.1526(6) -0.6912(4) 0.4443(3) 0.0338(18) Uani 1 1 d . . .
H20 H 0.0861 -0.6923 0.4589 0.041 Uiso 1 1 calc R . .
C21 C 0.1847(6) -0.6514(4) 0.4840(4) 0.0376(19) Uani 1 1 d . . .
H21 H 0.1320 -0.6300 0.5156 0.045 Uiso 1 1 calc R . .
C22 C 0.2659(5) -0.7718(4) 0.4716(3) 0.0328(17) Uani 1 1 d . . .
C23 C 0.2662(6) -0.5461(4) 0.4717(4) 0.0388(19) Uani 1 1 d . . .
H23A H 0.2399 -0.5373 0.5112 0.047 Uiso 1 1 calc R . .
H23B H 0.2531 -0.5004 0.4549 0.047 Uiso 1 1 calc R . .
C24 C 0.3008(6) -0.6959(5) 0.5383(3) 0.040(2) Uani 1 1 d . . .
H24A H 0.3103 -0.7390 0.5586 0.047 Uiso 1 1 calc R . .
H24B H 0.2650 -0.6556 0.5642 0.047 Uiso 1 1 calc R . .
C25 C 0.4281(6) -0.5309(4) 0.4465(3) 0.0283(16) Uani 1 1 d . . .
C26 C 0.4086(6) -0.6480(4) 0.4571(3) 0.0276(16) Uani 1 1 d . . .
H26 H 0.3935 -0.6760 0.4296 0.033 Uiso 1 1 calc R . .
C27 C 0.5126(5) -0.6492(4) 0.4422(3) 0.0263(15) Uani 1 1 d . . .
H27 H 0.5462 -0.6761 0.4070 0.032 Uiso 1 1 calc R . .
C28 C 0.4701(6) -0.7033(4) 0.5240(3) 0.0326(18) Uani 1 1 d . . .
C29 C 0.5994(6) -0.5496(4) 0.4241(3) 0.0300(16) Uani 1 1 d . . .
H29A H 0.5900 -0.5033 0.4075 0.036 Uiso 1 1 calc R . .
H29B H 0.6184 -0.5424 0.4568 0.036 Uiso 1 1 calc R . .
C30 C 0.6369(6) -0.6988(4) 0.4882(3) 0.0304(17) Uani 1 1 d . . .
H30A H 0.6473 -0.6580 0.5071 0.037 Uiso 1 1 calc R . .
H30B H 0.6487 -0.7415 0.5088 0.037 Uiso 1 1 calc R . .
C31 C 0.6847(5) -0.6042(4) 0.3317(3) 0.0239(15) Uani 1 1 d . . .
C32 C 0.7393(5) -0.6537(4) 0.4035(3) 0.0292(16) Uani 1 1 d . . .
H32 H 0.7754 -0.6311 0.4225 0.035 Uiso 1 1 calc R . .
C33 C 0.8007(5) -0.6942(4) 0.3495(3) 0.0256(15) Uani 1 1 d . . .
H33 H 0.8668 -0.6921 0.3426 0.031 Uiso 1 1 calc R . .
C34 C 0.7290(5) -0.7761(4) 0.4068(3) 0.0293(17) Uani 1 1 d . . .
C35 C 0.8028(5) -0.6674(4) 0.2514(3) 0.0269(15) Uani 1 1 d . . .
H35A H 0.8702 -0.6749 0.2445 0.032 Uiso 1 1 calc R . .
H35B H 0.7824 -0.6237 0.2341 0.032 Uiso 1 1 calc R . .
C36 C 0.8428(5) -0.8272(4) 0.3198(3) 0.0287(16) Uani 1 1 d . . .
H36A H 0.9064 -0.8197 0.3070 0.034 Uiso 1 1 calc R . .
H36B H 0.8445 -0.8710 0.3399 0.034 Uiso 1 1 calc R . .
C37 C 0.5502(5) -0.4508(4) 0.2495(3) 0.0228(14) Uani 1 1 d . . .
C38 C 0.6020(5) -0.3946(4) 0.3118(3) 0.0245(15) Uani 1 1 d . . .
H38 H 0.6346 -0.4254 0.3346 0.029 Uiso 1 1 calc R . .
C39 C 0.4975(5) -0.3865(4) 0.3323(3) 0.0235(15) Uani 1 1 d . . .
H39 H 0.4784 -0.4040 0.3692 0.028 Uiso 1 1 calc R . .
C40 C 0.5333(5) -0.2735(4) 0.3212(3) 0.0226(15) Uani 1 1 d . . .
C41 C 0.3846(6) -0.4414(4) 0.2986(4) 0.0345(18) Uani 1 1 d . . .
H41A H 0.3563 -0.4500 0.3366 0.041 Uiso 1 1 calc R . .
H41B H 0.3902 -0.4849 0.2765 0.041 Uiso 1 1 calc R . .
C42 C 0.3684(5) -0.2734(4) 0.3614(3) 0.0282(16) Uani 1 1 d . . .
H42A H 0.3461 -0.3007 0.3930 0.034 Uiso 1 1 calc R . .
H42B H 0.3691 -0.2255 0.3749 0.034 Uiso 1 1 calc R . .
C43 C 0.2994(6) -0.3839(4) 0.2345(4) 0.0359(18) Uani 1 1 d . . .
C44 C 0.2615(5) -0.3239(4) 0.3200(3) 0.0300(16) Uani 1 1 d . . .
H44 H 0.2286 -0.3420 0.3545 0.036 Uiso 1 1 calc R . .
C45 C 0.1950(6) -0.2886(5) 0.2887(4) 0.0368(18) Uani 1 1 d . . .
H45 H 0.1304 -0.2916 0.3079 0.044 Uiso 1 1 calc R . .
C46 C 0.2691(5) -0.2032(4) 0.3104(3) 0.0290(16) Uani 1 1 d . . .
C47 C 0.1828(7) -0.3178(5) 0.1943(4) 0.044(2) Uani 1 1 d . . .
H47A H 0.1154 -0.3078 0.2102 0.052 Uiso 1 1 calc R . .
H47B H 0.2004 -0.3624 0.1714 0.052 Uiso 1 1 calc R . .
C48 C 0.1446(6) -0.1572(5) 0.2686(3) 0.0382(19) Uani 1 1 d . . .
H48A H 0.1397 -0.1126 0.2893 0.046 Uiso 1 1 calc R . .
H48B H 0.0826 -0.1679 0.2776 0.046 Uiso 1 1 calc R . .
C49 C 0.2669(7) -0.2730(5) 0.1096(4) 0.043(2) Uani 1 1 d . . .
C50 C 0.1560(6) -0.1856(5) 0.1700(4) 0.0381(19) Uani 1 1 d . . .
H50 H 0.0887 -0.1827 0.1766 0.046 Uiso 1 1 calc R . .
C51 C 0.1947(6) -0.1513(5) 0.1189(4) 0.0375(19) Uani 1 1 d . . .
H51 H 0.1454 -0.1302 0.1020 0.045 Uiso 1 1 calc R . .
C52 C 0.2234(6) -0.0936(5) 0.1906(3) 0.040(2) Uani 1 1 d . . .
C53 C 0.3159(6) -0.2044(5) 0.0298(3) 0.042(2) Uani 1 1 d . . .
H53A H 0.2830 -0.1655 0.0129 0.050 Uiso 1 1 calc R . .
H53B H 0.3244 -0.2494 0.0088 0.050 Uiso 1 1 calc R . .
C54 C 0.2826(7) -0.0485(5) 0.1014(4) 0.042(2) Uani 1 1 d . . .
H54A H 0.2717 -0.0023 0.1214 0.051 Uiso 1 1 calc R . .
H54B H 0.2578 -0.0399 0.0701 0.051 Uiso 1 1 calc R . .
C55 C 0.4830(6) -0.2105(4) -0.0133(3) 0.0336(18) Uani 1 1 d . . .
C56 C 0.4219(6) -0.1546(4) 0.0738(3) 0.0347(18) Uani 1 1 d . . .
H56 H 0.4044 -0.1798 0.1076 0.042 Uiso 1 1 calc R . .
C57 C 0.5271(6) -0.1571(4) 0.0548(3) 0.0281(16) Uani 1 1 d . . .
H57 H 0.5596 -0.1855 0.0788 0.034 Uiso 1 1 calc R . .
C58 C 0.4471(7) -0.0377(4) 0.0729(3) 0.0368(19) Uani 1 1 d . . .
C59 C 0.6484(6) -0.2070(5) -0.0334(3) 0.042(2) Uani 1 1 d . . .
H59A H 0.6585 -0.1666 -0.0564 0.050 Uiso 1 1 calc R . .
H59B H 0.6581 -0.2496 -0.0574 0.050 Uiso 1 1 calc R . .
C60 C 0.6193(6) -0.0587(5) 0.0397(4) 0.0386(19) Uani 1 1 d . . .
H60A H 0.6346 -0.0529 0.0005 0.046 Uiso 1 1 calc R . .
H60B H 0.6129 -0.0120 0.0579 0.046 Uiso 1 1 calc R . .
C61 C 0.7478(6) -0.2845(5) 0.0136(3) 0.0336(18) Uani 1 1 d . . .
C62 C 0.7563(6) -0.1637(5) 0.0120(3) 0.0351(18) Uani 1 1 d . . .
H62 H 0.7915 -0.1422 -0.0201 0.042 Uiso 1 1 calc R . .
C63 C 0.8204(6) -0.2043(5) 0.0447(3) 0.0372(19) Uani 1 1 d . . .
H63 H 0.8857 -0.2003 0.0289 0.045 Uiso 1 1 calc R . .
C64 C 0.7053(6) -0.1127(4) 0.1021(3) 0.0308(17) Uani 1 1 d . . .
C65 C 0.8620(6) -0.3373(5) 0.0612(3) 0.0361(19) Uani 1 1 d . . .
H65A H 0.9263 -0.3318 0.0538 0.043 Uiso 1 1 calc R . .
H65B H 0.8628 -0.3807 0.0405 0.043 Uiso 1 1 calc R . .
C66 C 0.8245(6) -0.1796(4) 0.1423(3) 0.0310(17) Uani 1 1 d . . .
H66A H 0.8060 -0.1353 0.1658 0.037 Uiso 1 1 calc R . .
H66B H 0.8920 -0.1891 0.1268 0.037 Uiso 1 1 calc R . .
C67 C 0.7723(6) -0.3960(4) 0.1370(3) 0.0322(17) Uani 1 1 d . . .
C68 C 0.8486(6) -0.3128(4) 0.1606(3) 0.0309(17) Uani 1 1 d . . .
H68 H 0.9164 -0.3179 0.1534 0.037 Uiso 1 1 calc R . .
C69 C 0.8082(5) -0.3511(4) 0.2113(3) 0.0256(15) Uani 1 1 d . . .
H69 H 0.8574 -0.3798 0.2253 0.031 Uiso 1 1 calc R . .
C70 C 0.7457(5) -0.2296(4) 0.2258(3) 0.0271(16) Uani 1 1 d . . .
C71 C 0.7183(5) -0.4521(4) 0.2225(3) 0.0280(16) Uani 1 1 d . . .
H71A H 0.7578 -0.4720 0.2454 0.034 Uiso 1 1 calc R . .
H71B H 0.7191 -0.4910 0.1974 0.034 Uiso 1 1 calc R . .
C72 C 0.7042(5) -0.3040(4) 0.3063(3) 0.0311(17) Uani 1 1 d . . .
H72A H 0.7438 -0.3427 0.3197 0.037 Uiso 1 1 calc R . .
H72B H 0.6962 -0.2598 0.3282 0.037 Uiso 1 1 calc R . .
N1 N 0.7821(4) -0.7280(3) 0.2263(2) 0.0266(13) Uani 1 1 d . . .
N2 N 0.7428(5) -0.7852(3) 0.1644(2) 0.0281(14) Uani 1 1 d . . .
N3 N 0.8106(4) -0.8375(3) 0.2738(2) 0.0278(13) Uani 1 1 d . . .
N4 N 0.7556(5) -0.8913(3) 0.2174(3) 0.0309(14) Uani 1 1 d . . .
N5 N 0.6102(4) -0.8172(3) 0.1460(2) 0.0240(13) Uani 1 1 d . . .
N6 N 0.4592(4) -0.8097(3) 0.1779(2) 0.0255(13) Uani 1 1 d . . .
N7 N 0.6280(4) -0.9271(3) 0.1947(2) 0.0256(13) Uani 1 1 d . . .
N8 N 0.4806(4) -0.9311(3) 0.2101(2) 0.0239(12) Uani 1 1 d . . .
N9 N 0.3011(5) -0.7705(3) 0.2341(3) 0.0296(14) Uani 1 1 d . . .
N10 N 0.2044(5) -0.7203(3) 0.3113(3) 0.0345(15) Uani 1 1 d . . .
N11 N 0.3304(4) -0.8847(3) 0.2750(3) 0.0284(14) Uani 1 1 d . . .
N12 N 0.2399(4) -0.8331(3) 0.3540(3) 0.0306(14) Uani 1 1 d . . .
N13 N 0.1688(5) -0.6500(4) 0.3961(3) 0.0382(16) Uani 1 1 d . . .
N14 N 0.2227(5) -0.5965(4) 0.4528(3) 0.0376(16) Uani 1 1 d . . .
N15 N 0.2104(5) -0.