####################################################################### 
# 
# This file contains crystal structure data downloaded from the 
# Cambridge Structural Database (CSD) hosted by the Cambridge 
# Crystallographic Data Centre (CCDC).
# 
# Full information about CCDC data access policies and citation 
# guidelines are available at http://www.ccdc.cam.ac.uk/access/V1 
# 
# Audit and citation data items may have been added by the CCDC. 
# Please retain this information to preserve the provenance of 
# this file and to allow appropriate attribution of the data. 
# 
#######################################################################

data_1
_audit_block_doi                 10.5517/cc14gx0j
_database_code_depnum_ccdc_archive 'CCDC 1057007'
loop_
_citation_id
_citation_doi
_citation_year
1 10.1039/C5CE00862J 2015
_audit_update_record             
;
2015-06-30 deposited with the CCDC.	2024-07-09 downloaded from the CCDC.
;

_audit_creation_method           SHELXL-97
_chemical_name_systematic        
; 
 ? 
;
_chemical_name_common            ?
_chemical_melting_point          ?
_chemical_formula_moiety         ?
_chemical_formula_sum            'C23 H22 N6 O7 Zn'
_chemical_formula_weight         559.84

loop_
_atom_type_symbol
_atom_type_description
_atom_type_scat_dispersion_real
_atom_type_scat_dispersion_imag
_atom_type_scat_source
C C 0.0033 0.0016 'International Tables Vol C Tables 4.2.6.8 and 6.1.1.4'
H H 0.0000 0.0000 'International Tables Vol C Tables 4.2.6.8 and 6.1.1.4'
N N 0.0061 0.0033 'International Tables Vol C Tables 4.2.6.8 and 6.1.1.4'
O O 0.0106 0.0060 'International Tables Vol C Tables 4.2.6.8 and 6.1.1.4'
Zn Zn 0.2839 1.4301 'International Tables Vol C Tables 4.2.6.8 and 6.1.1.4'

_symmetry_cell_setting           monoclinic
_symmetry_space_group_name_H-M   C2

loop_
_symmetry_equiv_pos_as_xyz
'x, y, z'
'-x, y, -z'
'x+1/2, y+1/2, z'
'-x+1/2, y+1/2, -z'

_cell_length_a                   19.7623(13)
_cell_length_b                   21.3747(14)
_cell_length_c                   8.3690(5)
_cell_angle_alpha                90.00
_cell_angle_beta                 112.171(5)
_cell_angle_gamma                90.00
_cell_volume                     3273.8(4)
_cell_formula_units_Z            4
_cell_measurement_temperature    293(2)
_cell_measurement_reflns_used    1427
_cell_measurement_theta_min      2.6112
_cell_measurement_theta_max      28.6551

_exptl_crystal_description       block
_exptl_crystal_colour            colorless
_exptl_crystal_size_max          0.13
_exptl_crystal_size_mid          0.13
_exptl_crystal_size_min          0.12
_exptl_crystal_density_meas      ?
_exptl_crystal_density_diffrn    1.136
_exptl_crystal_density_method    'not measured'
_exptl_crystal_F_000             1152
_exptl_absorpt_coefficient_mu    0.792
_exptl_absorpt_correction_type   multi-scan
_exptl_absorpt_correction_T_min  0.9040
_exptl_absorpt_correction_T_max  0.9109
_exptl_absorpt_process_details   sadabs

_exptl_special_details           
; 
 ? 
;

_diffrn_ambient_temperature      293(2)
_diffrn_radiation_wavelength     0.71073
_diffrn_radiation_type           MoK\a
_diffrn_radiation_source         'Enhance (Mo) X-ray Source'
_diffrn_radiation_monochromator  graphite
_diffrn_measurement_device_type  'Xcalibur, Eos, Gemini'
_diffrn_measurement_method       ?
_diffrn_detector_area_resol_mean ?
_diffrn_standards_number         ?
_diffrn_standards_interval_count ?
_diffrn_standards_interval_time  ?
_diffrn_standards_decay_%        ?
_diffrn_reflns_number            10200
_diffrn_reflns_av_R_equivalents  0.0608
_diffrn_reflns_av_sigmaI/netI    0.0998
_diffrn_reflns_limit_h_min       -22
_diffrn_reflns_limit_h_max       23
_diffrn_reflns_limit_k_min       -25
_diffrn_reflns_limit_k_max       25
_diffrn_reflns_limit_l_min       -9
_diffrn_reflns_limit_l_max       9
_diffrn_reflns_theta_min         2.62
_diffrn_reflns_theta_max         25.02
_reflns_number_total             4924
_reflns_number_gt                3554
_reflns_threshold_expression     >2sigma(I)

_computing_data_collection       ?
_computing_cell_refinement       ?
_computing_data_reduction        ?
_computing_structure_solution    'SHELXS-97 (Sheldrick, 1990)'
_computing_structure_refinement  'SHELXL-97 (Sheldrick, 1997)'
_computing_molecular_graphics    ?
_computing_publication_material  ?

_refine_special_details          
; 
 Refinement of F^2^ against ALL reflections.  The weighted R-factor wR and 
 goodness of fit S are based on F^2^, conventional R-factors R are based 
 on F, with F set to zero for negative F^2^. The threshold expression of 
 F^2^ > 2sigma(F^2^) is used only for calculating R-factors(gt) etc. and is 
 not relevant to the choice of reflections for refinement.  R-factors based 
 on F^2^ are statistically about twice as large as those based on F, and R- 
 factors based on ALL data will be even larger. 
;

_refine_ls_structure_factor_coef Fsqd
_refine_ls_matrix_type           full
_refine_ls_weighting_scheme      calc
_refine_ls_weighting_details     
'calc w=1/[\s^2^(Fo^2^)+(0.1310P)^2^+0.0000P] where P=(Fo^2^+2Fc^2^)/3'
_atom_sites_solution_primary     direct
_atom_sites_solution_secondary   difmap
_atom_sites_solution_hydrogens   geom
_refine_ls_hydrogen_treatment    constr
_refine_ls_extinction_method     none
_refine_ls_extinction_coef       ?
_refine_ls_abs_structure_details 'Flack H D (1983), Acta Cryst. A39, 876-881'
_refine_ls_abs_structure_Flack   -0.01(3)
_refine_ls_number_reflns         4924
_refine_ls_number_parameters     372
_refine_ls_number_restraints     884
_refine_ls_R_factor_all          0.1105
_refine_ls_R_factor_gt           0.0803
_refine_ls_wR_factor_ref         0.2346
_refine_ls_wR_factor_gt          0.2064
_refine_ls_goodness_of_fit_ref   1.082
_refine_ls_restrained_S_all      1.019
_refine_ls_shift/su_max          0.000
_refine_ls_shift/su_mean         0.000

loop_
_atom_site_label
_atom_site_type_symbol
_atom_site_fract_x
_atom_site_fract_y
_atom_site_fract_z
_atom_site_U_iso_or_equiv
_atom_site_adp_type
_atom_site_occupancy
_atom_site_symmetry_multiplicity
_atom_site_calc_flag
_atom_site_refinement_flags
_atom_site_disorder_assembly
_atom_site_disorder_group
Zn1 Zn 0.25864(4) 1.00753(5) 0.40770(9) 0.0364(3) Uani 1 1 d U . .
N1 N 0.2443(4) 0.9182(4) 0.3260(9) 0.0426(16) Uani 1 1 d U . .
N2 N 0.2041(4) 0.8295(3) 0.1920(9) 0.0410(16) Uani 1 1 d U . .
N3 N -0.1300(5) 0.7732(5) -0.4881(13) 0.077(3) Uani 1 1 d U . .
N4 N -0.0181(4) 0.7795(4) -0.2982(9) 0.0450(17) Uani 1 1 d U . .
N5 N 0.2237(4) 0.5590(3) -0.2277(9) 0.0440(17) Uani 1 1 d U . .
N6 N 0.1856(4) 0.6324(3) -0.1045(9) 0.0437(17) Uani 1 1 d U . .
O1 O 0.3449(3) 0.9936(3) 0.6181(8) 0.0557(17) Uani 1 1 d U . .
O2 O 0.3398(4) 1.0965(4) 0.6352(8) 0.0590(18) Uani 1 1 d U . .
O3 O 0.1814(3) 1.0292(3) 0.4873(8) 0.0569(17) Uani 1 1 d U . .
O4 O 0.1054(3) 1.0111(5) 0.2228(8) 0.0626(16) Uani 1 1 d U . .
O5 O 0.0000 0.9307(5) 0.0000 0.063(2) Uani 1 2 d SU . .
H5C H -0.0328 0.9540 -0.0696 0.076 Uiso 0.50 1 d PR . .
H5D H 0.0328 0.9540 0.0696 0.076 Uiso 0.50 1 d PR . .
O7 O 0.2831(18) 0.7412(15) 0.747(4) 0.068(6) Uani 0.237(13) 1 d PU . .
H7C H 0.2958 0.7269 0.6672 0.082 Uiso 0.237(13) 1 d PR . .
H6B H 0.2381 0.7510 0.7067 0.082 Uiso 0.237(13) 1 d PR . .
O6 O 0.2978(7) 0.6686(6) 0.4567(16) 0.089(4) Uani 0.657(18) 1 d PU . .
H6C H 0.3041 0.6298 0.4802 0.107 Uiso 0.657(18) 1 d PR . .
H6A H 0.2590 0.6743 0.3681 0.107 Uiso 0.657(18) 1 d PR . .
O8 O 0.7844(15) 0.9164(10) 0.220(3) 0.085(9) Uani 0.372(18) 1 d P . .
H8C H 0.7855 0.9431 0.2959 0.102 Uiso 0.372(18) 1 d PR . .
H8D H 0.7453 0.8951 0.1928 0.102 Uiso 0.372(18) 1 d PR . .
O9 O 0.343(3) 0.837(2) 0.906(6) 0.085(11) Uani 0.173(16) 1 d PU . .
H9C H 0.3270 0.8030 0.8525 0.102 Uiso 0.173(16) 1 d PR . .
H9D H 0.3759 0.8280 1.0042 0.102 Uiso 0.173(16) 1 d PR . .
O10 O 0.464(7) 0.785(6) 0.681(17) 0.082(17) Uani 0.062(16) 1 d PU . .
H10C H 0.4565 0.7660 0.7614 0.099 Uiso 0.062(16) 1 d PR . .
H10B H 0.4276 0.8081 0.6239 0.099 Uiso 0.062(16) 1 d PR . .
C1 C 0.3685(5) 1.0459(5) 0.6908(11) 0.043(2) Uani 1 1 d U . .
C2 C 0.4364(5) 1.0448(5) 0.8531(10) 0.043(2) Uani 1 1 d U . .
C3 C 0.4675(5) 0.9892(5) 0.9246(11) 0.056(3) Uani 1 1 d U . .
H3 H 0.4462 0.9516 0.8748 0.067 Uiso 1 1 calc R . .
C4 C 0.4671(5) 1.1009(5) 0.9286(11) 0.048(2) Uani 1 1 d U . .
H4 H 0.4439 1.1385 0.8842 0.058 Uiso 1 1 calc R . .
C5 C 0.1180(5) 1.0208(5) 0.3791(12) 0.054(2) Uani 1 1 d U . .
C6 C 0.0582(5) 1.0245(5) 0.4432(12) 0.052(2) Uani 1 1 d U . .
C7 C 0.0710(5) 1.0255(6) 0.6178(12) 0.064(3) Uani 1 1 d U . .
H7 H 0.1190 1.0261 0.6970 0.077 Uiso 1 1 calc R . .
C8 C -0.0158(5) 1.0255(6) 0.3228(12) 0.060(3) Uani 1 1 d U . .
H8 H -0.0261 1.0261 0.2048 0.073 Uiso 1 1 calc R . .
C9 C 0.1958(5) 0.8920(4) 0.1919(11) 0.0445(19) Uani 1 1 d U . .
H9 H 0.1596 0.9139 0.1054 0.053 Uiso 1 1 calc R . .
C10 C 0.2617(6) 0.8153(5) 0.3384(12) 0.055(2) Uani 1 1 d U . .
H10 H 0.2805 0.7756 0.3750 0.066 Uiso 1 1 calc R . .
C11 C 0.2860(6) 0.8681(5) 0.4184(12) 0.052(2) Uani 1 1 d U . .
H11 H 0.3256 0.8718 0.5226 0.062 Uiso 1 1 calc R . .
C12 C 0.1622(5) 0.7873(4) 0.0634(11) 0.0417(18) Uani 1 1 d U . .
C13 C 0.0917(5) 0.8034(5) -0.0498(11) 0.0442(18) Uani 1 1 d U . .
H13 H 0.0711 0.8413 -0.0372 0.053 Uiso 1 1 calc R . .
C14 C 0.0531(5) 0.7627(5) -0.1802(11) 0.0422(18) Uani 1 1 d U . .
C15 C -0.0418(6) 0.8387(5) -0.3524(14) 0.061(2) Uani 1 1 d U . .
H15 H -0.0150 0.8750 -0.3110 0.073 Uiso 1 1 calc R . .
C16 C -0.1066(6) 0.8368(6) -0.4691(14) 0.067(3) Uani 1 1 d U . .
H16 H -0.1334 0.8708 -0.5301 0.080 Uiso 1 1 calc R . .
C17 C -0.0738(5) 0.7408(6) -0.3856(12) 0.057(2) Uani 1 1 d U . .
H17 H -0.0726 0.6975 -0.3749 0.068 Uiso 1 1 calc R . .
C18 C 0.0829(5) 0.7057(4) -0.2000(10) 0.0400(17) Uani 1 1 d U . .
H18 H 0.0568 0.6784 -0.2883 0.048 Uiso 1 1 calc R . .
C19 C 0.1508(5) 0.6910(4) -0.0878(11) 0.0425(18) Uani 1 1 d U . .
C20 C 0.1875(5) 0.6123(4) -0.2568(11) 0.0421(19) Uani 1 1 d U . .
H20 H 0.1669 0.6324 -0.3627 0.051 Uiso 1 1 calc R . .
C21 C 0.2454(6) 0.5459(5) -0.0552(12) 0.057(2) Uani 1 1 d U . .
H21 H 0.2725 0.5112 -0.0002 0.068 Uiso 1 1 calc R . .
C22 C 0.2215(6) 0.5910(5) 0.0218(13) 0.057(2) Uani 1 1 d U . .
H22 H 0.2282 0.5933 0.1378 0.068 Uiso 1 1 calc R . .
C23 C 0.1926(5) 0.7314(4) 0.0483(11) 0.0436(19) Uani 1 1 d U . .
H23 H 0.2391 0.7202 0.1244 0.052 Uiso 1 1 calc R . .
O11 O 0.0000 0.5967(7) 0.5000 0.117(5) Uani 1 2 d SU . .
H11D H 0.0193 0.5640 0.5564 0.140 Uiso 0.50 1 d PR . .
H11B H 0.0328 0.6163 0.4777 0.140 Uiso 0.50 1 d PR . .
O12 O 0.0000 0.4881(9) 0.5000 0.159(6) Uani 1 2 d SU . .
H12C H 0.0326 0.4724 0.5892 0.191 Uiso 0.50 1 d PR . .
H12B H 0.0060 0.4760 0.4096 0.191 Uiso 0.50 1 d PR . .

loop_
_atom_site_aniso_label
_atom_site_aniso_U_11
_atom_site_aniso_U_22
_atom_site_aniso_U_33
_atom_site_aniso_U_23
_atom_site_aniso_U_13
_atom_site_aniso_U_12
Zn1 0.0342(5) 0.0349(5) 0.0387(4) -0.0010(5) 0.0124(3) -0.0059(5)
N1 0.041(3) 0.041(4) 0.040(3) -0.003(3) 0.009(3) -0.002(3)
N2 0.038(3) 0.033(3) 0.048(3) -0.005(3) 0.011(3) 0.006(3)
N3 0.064(5) 0.076(6) 0.073(5) -0.013(5) 0.007(4) 0.010(5)
N4 0.047(4) 0.042(4) 0.048(3) -0.009(3) 0.020(3) 0.010(3)
N5 0.054(4) 0.037(4) 0.043(3) 0.003(3) 0.019(3) 0.008(3)
N6 0.054(4) 0.036(4) 0.042(3) -0.002(3) 0.019(3) 0.005(3)
O1 0.041(3) 0.059(5) 0.051(3) -0.007(3) 0.000(3) -0.002(3)
O2 0.047(4) 0.066(5) 0.051(4) 0.001(4) 0.003(3) 0.001(4)
O3 0.032(3) 0.070(4) 0.067(3) -0.010(3) 0.017(3) -0.011(3)
O4 0.045(3) 0.076(5) 0.068(4) -0.001(5) 0.023(3) -0.007(5)
O5 0.062(5) 0.046(5) 0.070(5) 0.000 0.012(4) 0.000
O7 0.069(11) 0.058(11) 0.073(11) 0.009(10) 0.021(10) -0.016(10)
O6 0.093(7) 0.040(6) 0.091(7) 0.018(5) -0.013(6) -0.008(6)
O8 0.16(2) 0.045(13) 0.075(14) -0.009(11) 0.071(15) -0.018(14)
O9 0.072(18) 0.070(19) 0.092(18) 0.007(17) 0.006(16) -0.017(16)
O10 0.07(3) 0.07(3) 0.09(3) 0.01(2) 0.00(2) -0.01(2)
C1 0.030(4) 0.055(5) 0.036(4) 0.004(4) 0.005(3) 0.001(4)
C2 0.031(4) 0.052(5) 0.034(4) -0.001(4) 0.001(3) -0.005(4)
C3 0.051(5) 0.048(6) 0.050(5) -0.001(4) -0.003(4) -0.006(4)
C4 0.041(4) 0.048(5) 0.040(4) 0.007(4) -0.002(4) 0.004(4)
C5 0.041(4) 0.055(5) 0.060(4) -0.001(4) 0.011(4) 0.001(4)
C6 0.037(4) 0.054(6) 0.065(5) 0.007(4) 0.020(4) 0.004(4)
C7 0.030(4) 0.092(7) 0.066(5) 0.007(5) 0.012(4) -0.011(5)
C8 0.037(4) 0.083(7) 0.059(4) 0.000(5) 0.015(4) -0.001(4)
C9 0.046(4) 0.036(4) 0.048(4) 0.002(3) 0.013(3) 0.003(4)
C10 0.060(5) 0.038(4) 0.052(4) -0.002(4) 0.005(4) 0.009(4)
C11 0.051(4) 0.041(5) 0.054(4) 0.000(4) 0.010(4) 0.000(4)
C12 0.049(4) 0.032(4) 0.043(4) -0.008(3) 0.017(3) -0.006(3)
C13 0.047(4) 0.037(4) 0.050(4) -0.003(3) 0.020(3) 0.009(3)
C14 0.042(4) 0.041(4) 0.043(4) -0.011(3) 0.015(3) 0.001(3)
C15 0.058(5) 0.048(5) 0.068(5) -0.014(4) 0.013(4) 0.009(4)
C16 0.069(6) 0.051(5) 0.066(5) -0.007(5) 0.008(5) 0.021(5)
C17 0.050(5) 0.056(5) 0.047(4) -0.012(4) -0.002(4) 0.001(4)
C18 0.042(4) 0.037(4) 0.043(3) -0.008(3) 0.018(3) 0.003(3)
C19 0.051(4) 0.034(4) 0.048(4) -0.002(3) 0.025(3) 0.001(3)
C20 0.049(4) 0.036(4) 0.043(4) -0.002(3) 0.019(3) 0.007(4)
C21 0.071(5) 0.048(5) 0.047(4) 0.006(4) 0.017(4) 0.018(5)
C22 0.071(5) 0.048(5) 0.046(4) 0.001(4) 0.015(4) 0.017(4)
C23 0.044(4) 0.033(4) 0.046(4) 0.000(3) 0.008(3) 0.006(3)
O11 0.136(11) 0.081(9) 0.168(12) 0.000 0.098(10) 0.000
O12 0.164(11) 0.145(14) 0.265(14) 0.000 0.191(11) 0.000

_geom_special_details            
; 
 All esds (except the esd in the dihedral angle between two l.s. planes) 
 are estimated using the full covariance matrix.  The cell esds are taken 
 into account individually in the estimation of esds in distances, angles 
 and torsion angles; correlations between esds in cell parameters are only 
 used when they are defined by crystal symmetry.  An approximate (isotropic) 
 treatment of cell esds is used for estimating esds involving l.s. planes. 
;

loop_
_geom_bond_atom_site_label_1
_geom_bond_atom_site_label_2
_geom_bond_distance
_geom_bond_site_symmetry_2
_geom_bond_publ_flag
Zn1 O3 1.937(6) . ?
Zn1 O1 1.957(6) . ?
Zn1 N5 2.000(7) 4 ?
Zn1 N1 2.013(8) . ?
N1 C9 1.295(11) . ?
N1 C11 1.392(12) . ?
N2 C9 1.346(12) . ?
N2 C10 1.356(11) . ?
N2 C12 1.408(11) . ?
N3 C17 1.315(13) . ?
N3 C16 1.425(16) . ?
N4 C17 1.350(12) . ?
N4 C15 1.365(13) . ?
N4 C14 1.427(11) . ?
N5 C20 1.317(11) . ?
N5 C21 1.371(11) . ?
N5 Zn1 2.000(7) 4_545 ?
N6 C22 1.356(12) . ?
N6 C20 1.359(11) . ?
N6 C19 1.460(11) . ?
O1 C1 1.273(12) . ?
O2 C1 1.230(12) . ?
O3 C5 1.252(10) . ?
O4 C5 1.254(11) . ?
C1 C2 1.506(12) . ?
C2 C3 1.368(14) . ?
C2 C4 1.383(13) . ?
C3 C3 1.421(18) 2_657 ?
C4 C4 1.396(17) 2_657 ?
C5 C6 1.472(13) . ?
C6 C7 1.386(13) . ?
C6 C8 1.430(12) . ?
C7 C8 1.358(13) 2_556 ?
C8 C7 1.358(13) 2_556 ?
C10 C11 1.308(14) . ?
C12 C23 1.364(12) . ?
C12 C13 1.400(13) . ?
C13 C14 1.379(12) . ?
C14 C18 1.389(13) . ?
C15 C16 1.285(14) . ?
C18 C19 1.353(12) . ?
C19 C23 1.421(12) . ?
C21 C22 1.339(14) . ?

loop_
_geom_angle_atom_site_label_1
_geom_angle_atom_site_label_2
_geom_angle_atom_site_label_3
_geom_angle
_geom_angle_site_symmetry_1
_geom_angle_site_symmetry_3
_geom_angle_publ_flag
O3 Zn1 O1 105.0(3) . . ?
O3 Zn1 N5 120.8(3) . 4 ?
O1 Zn1 N5 114.9(3) . 4 ?
O3 Zn1 N1 108.4(3) . . ?
O1 Zn1 N1 97.2(3) . . ?
N5 Zn1 N1 108.0(3) 4 . ?
C9 N1 C11 103.8(8) . . ?
C9 N1 Zn1 131.9(6) . . ?
C11 N1 Zn1 124.2(6) . . ?
C9 N2 C10 106.4(8) . . ?
C9 N2 C12 126.8(8) . . ?
C10 N2 C12 126.8(8) . . ?
C17 N3 C16 105.7(9) . . ?
C17 N4 C15 106.3(8) . . ?
C17 N4 C14 127.5(8) . . ?
C15 N4 C14 126.0(9) . . ?
C20 N5 C21 107.7(8) . . ?
C20 N5 Zn1 125.0(6) . 4_545 ?
C21 N5 Zn1 127.4(6) . 4_545 ?
C22 N6 C20 109.4(8) . . ?
C22 N6 C19 127.8(8) . . ?
C20 N6 C19 122.8(7) . . ?
C1 O1 Zn1 109.5(6) . . ?
C5 O3 Zn1 114.9(6) . . ?
O2 C1 O1 123.9(7) . . ?
O2 C1 C2 118.8(9) . . ?
O1 C1 C2 117.3(9) . . ?
C3 C2 C4 120.4(7) . . ?
C3 C2 C1 120.5(9) . . ?
C4 C2 C1 119.1(9) . . ?
C2 C3 C3 119.7(5) . 2_657 ?
C2 C4 C4 119.9(5) . 2_657 ?
O3 C5 O4 121.9(9) . . ?
O3 C5 C6 116.8(8) . . ?
O4 C5 C6 121.2(8) . . ?
C7 C6 C8 118.2(8) . . ?
C7 C6 C5 122.2(8) . . ?
C8 C6 C5 119.5(8) . . ?
C8 C7 C6 122.3(9) 2_556 . ?
C7 C8 C6 119.5(9) 2_556 . ?
N1 C9 N2 112.2(8) . . ?
C11 C10 N2 106.9(9) . . ?
C10 C11 N1 110.7(8) . . ?
C23 C12 C13 120.8(8) . . ?
C23 C12 N2 118.6(8) . . ?
C13 C12 N2 120.5(8) . . ?
C14 C13 C12 119.5(8) . . ?
C13 C14 C18 120.9(8) . . ?
C13 C14 N4 119.7(8) . . ?
C18 C14 N4 119.4(8) . . ?
C16 C15 N4 110.0(11) . . ?
C15 C16 N3 107.7(10) . . ?
N3 C17 N4 110.2(10) . . ?
C19 C18 C14 118.4(8) . . ?
C18 C19 C23 122.6(8) . . ?
C18 C19 N6 120.9(8) . . ?
C23 C19 N6 116.5(8) . . ?
N5 C20 N6 107.8(8) . . ?
C22 C21 N5 109.5(9) . . ?
C21 C22 N6 105.7(8) . . ?
C12 C23 C19 117.7(8) . . ?

_diffrn_measured_fraction_theta_max 0.999
_diffrn_reflns_theta_full        25.02
_diffrn_measured_fraction_theta_full 0.999
_refine_diff_density_max         1.054
_refine_diff_density_min         -0.383
_refine_diff_density_rms         0.120
