####################################################################### 
# 
# This file contains crystal structure data downloaded from the 
# Cambridge Structural Database (CSD) hosted by the Cambridge 
# Crystallographic Data Centre (CCDC).
# 
# Full information about CCDC data access policies and citation 
# guidelines are available at http://www.ccdc.cam.ac.uk/access/V1 
# 
# Audit and citation data items may have been added by the CCDC. 
# Please retain this information to preserve the provenance of 
# this file and to allow appropriate attribution of the data. 
# 
#######################################################################

data_added_by_encifer
_audit_block_doi                 10.5517/cc13pbbg
_database_code_depnum_ccdc_archive 'CCDC 1033395'
loop_
_citation_id
_citation_doi
_citation_year
1 10.1021/acs.cgd.5b00083 2015
_audit_update_record             
;
2014-11-09 deposited with the CCDC.	2024-07-09 downloaded from the CCDC.
;
_iucr_compatibility_tag          ?

#==============================================================================

#data_Compound_4Co

_chemical_name_systematic        
;
catena-1,4-bis-4'-(3',5'-dimethyl)-pyrazolato-benzene-co(ii)
;
_chemical_name_common            ?
_chemical_formula_moiety         'C16 H16 Co1 N4'
_chemical_formula_structural     'Co1 (C16 H16 N4)'
_chemical_formula_analytical     ?
_chemical_formula_iupac          ?
_chemical_formula_sum            'C16 H16 Co1 N4'
_chemical_formula_weight         323.26
_chemical_melting_point          ?
_chemical_compound_source        ?

loop_
_atom_type_symbol
_atom_type_description
#   _atom_type_scat_dispersion_real
#   _atom_type_scat_dispersion_imag
_atom_type_scat_source

C C 'International Tables for Crystallography (Vol. IV)'
H H 'International Tables for Crystallography (Vol. IV)'
Co Co 'International Tables for Crystallography (Vol. IV)'
N N 'International Tables for Crystallography (Vol. IV)'

#==============================================================================

# 1.5. POWDER SPECIMEN AND CRYSTAL DATA

_space_group_crystal_system      tetragonal
_space_group_name_H-M_alt        P4(2)/nnm
_space_group_name_Hall           ?

loop_
_symmetry_equiv_pos_as_xyz
'-x, -y, -z'
'-x, y+1/2, z+1/2'
'-x+1/2, -y+1/2, z'
'-x+1/2, y, -z+1/2'
'-y, -x, z'
'-y, x+1/2, -z+1/2'
'-y+1/2, -x+1/2, -z'
'-y+1/2, x, z+1/2'
'y, -x+1/2, z+1/2'
'y, x, -z'
'y+1/2, -x, -z+1/2'
'y+1/2, x+1/2, z'
'x, -y+1/2, -z+1/2'
'x, y, z'
'x+1/2, -y, z+1/2'
'x+1/2, y+1/2, -z'

_cell_length_a                   18.60188(63)
_cell_length_b                   18.60188(63)
_cell_length_c                   7.27449(48)
_cell_angle_alpha                90
_cell_angle_beta                 90
_cell_angle_gamma                90
_cell_volume                     2517.19(24)
_cell_formula_units_Z            4
_cell_measurement_temperature    298

_pd_calibration_special_details  
; ?
;
_cell_special_details            
; ?
;

_exptl_crystal_density_diffrn    0.85
_exptl_crystal_density_meas      ?
_exptl_crystal_density_method    'not measured'
_exptl_crystal_F_000             668

# The next three fields give the specimen dimensions in mm.  The equatorial 
# plane contains the incident and diffracted beam.
_pd_spec_size_axial              20 # perpendicular to 
# equatorial plane

_pd_spec_size_equat              15 # parallel to 
# scattering vector 
# in transmission

_pd_spec_size_thick              0.05 # parallel to 
# scattering vector 
# in reflection

# The next five fields are character fields that describe the specimen.

_pd_spec_mounting                
;
 packed powder pellet
;
_pd_spec_mount_mode              reflection # options are 'reflection' 
# or 'transmission'

_pd_spec_shape                   flat_sheet # options are 'cylinder',
# 'flat_sheet' or 'irregular'

_pd_char_particle_morphology     ?
_pd_char_colour                  blue # use ICDD colour descriptions


# The next four fields are normally only needed for transmission experiments.
_exptl_absorpt_coefficient_mu    ?
_exptl_absorpt_correction_type   ?
_exptl_absorpt_correction_T_min  ?
_exptl_absorpt_correction_T_max  ?

#==============================================================================

# 1.6. EXPERIMENTAL DATA

_exptl_special_details           
; ?
;

# This following item is used to identify the equipment used to record the
# powder pattern when the diffractogram was measured at a laboratory
# other than the authors' home institution, e.g. when neutron or synchrotron
# radiation is used.

_pd_instr_location               
; ?
;

_diffrn_ambient_temperature      298
_diffrn_source_target            Cu
_diffrn_source_type              'sealed X-ray tube'
_diffrn_measurement_device_type  'Bruker AXS D8 Advance'
_diffrn_detector_type            'Bruker Lynxeye linear PSD'
_pd_meas_scan_method             step # options are 'step', 'cont',
# 'tof', 'fixed' or
# 'disp' (= dispersive)
_pd_meas_special_details         
;  ?
;

# The following six items are used for angular dispersive measurements only.

loop_
_diffrn_radiation_type
'Cu K\a'
_diffrn_radiation_wavelength     CuK\a~1~
_diffrn_radiation_monochromator  'Nickel filter'

# The following four items give details of the measured (not processed)
# powder pattern.  Angles are in degrees.

_pd_meas_number_of_points        5001
_pd_meas_2theta_range_min        5
_pd_meas_2theta_range_max        105
_pd_meas_2theta_range_inc        0.02

# The following three items are used for time-of-flight measurements only.

_pd_instr_dist_src/spec          ?
_pd_instr_dist_spec/detc         ?
_pd_meas_2theta_fixed            ?

# The following fields are used to identify the programs used.

_computing_data_collection       'Bruker D8 Commander'
_computing_cell_refinement       TOPAS-R
_computing_data_reduction        ?
_computing_structure_solution    TOPAS-R
_computing_structure_refinement  TOPAS-R
_computing_molecular_graphics    ?
_computing_publication_material  ?

#==============================================================================

# 1.7. REFINEMENT DATA

# Use the next field to give any special details about the fitting of the
# powder pattern.

_pd_proc_ls_special_details      
; The use of a rigid body description for the crystallographically
  independent portion of the 1,4-bis-4'-(3',5'-dimethyl)-pyrazolato-benzene
  ligand does not allow the derivation of statistically meaningful
  s.u.'s for its atoms.
  
  S.u.'s are available only for its rotation angles (RX, RY, RZ) and
  for the torsion angle around the exocyclic C-C bond (T):
  
  (RX, RY, RZ) = ( 0, 0, 45)
  (RX, RY, RZ) = ( 0, 45, 0)
  (RX, RY, RZ) = (3.87(1), -2.76(1), 6.95(1))
  (T, C2-C3) = -5.1(2)
    
  for the rigid body described as:
 
  Du
  C1   Du   =r1
  C2   C1   =r1   Du   60
  C3   C2   =r2   C1  120   Du  180    
  C4   C3   =r3   C2  126   C1    0    
  N1   C4   =r3   C3  108   C2  180
  H1   C1   =r4   C2  120   C3    0
  C5   C4   =r5   C3  126   C2    0
  H51  C5   =r6   C4  109.5 C2    0
  H52  C5   =r6   C4  109.5 H51 120
  H53  C5   =r6   C4  109.5 H51 240
  
  Du  centre of mass
  r1  1.39 fixed
  r2  1.50 refined
  r3  1.36 fixed
  r4  0.95 fixed
  r5  1.45 refined
  r6  1.10 fixed
 
;

# The next three items are given as text
_pd_proc_ls_profile_function     'fundamental parameters approach'
_pd_proc_ls_background_function  'Chebychev polynomial'
_pd_proc_ls_pref_orient_corr     ?
_pd_proc_ls_prof_R_factor        0.036
_pd_proc_ls_prof_wR_factor       0.059
_pd_proc_ls_prof_wR_expected     0.009

_refine_special_details          
; ?
;

_refine_ls_structure_factor_coef Inet
_refine_ls_matrix_type           fullcycle
_refine_ls_weighting_scheme      1/[Y~i~]
_refine_ls_hydrogen_treatment    ?
_refine_ls_extinction_method     none
_refine_ls_extinction_coef       ?
_refine_ls_number_parameters     44
_refine_ls_number_restraints     0
_refine_ls_number_constraints    ?
# The following item is 'CHI squared'
_refine_ls_goodness_of_fit_all   ?

_refine_ls_restrained_S_all      ?
_refine_ls_restrained_S_obs      ?
_refine_ls_shift/su_max          .01
_refine_ls_shift/su_mean         ?


# The following four items apply to angular dispersive measurements.
# 2theta minimum, maximum and increment (in degrees) are for the 
# intensities used in the refinement.
_pd_proc_2theta_range_min        6
_pd_proc_2theta_range_max        105
_pd_proc_2theta_range_inc        0.02

loop_
_pd_proc_wavelength
1.540562
1.544390

_pd_block_diffractogram_id       ? # The id used for the block
# containing the powder 
# pattern profile (section 11).

# Give appropriate details in the next two text fields.
_pd_proc_info_excluded_regions   ?
_pd_proc_info_data_reduction     ?

#==============================================================================

# 1.8. ATOMIC COORDINATES AND DISPLACEMENT PARAMETERS

loop_
_atom_site_label
_atom_site_type_symbol
_atom_site_symmetry_multiplicity
_atom_site_fract_x
_atom_site_fract_y
_atom_site_fract_z
_atom_site_occupancy
_atom_site_B_iso_or_equiv
Co Co 4 0.25 0.25 0.25 1 2.12(68)
C1 C 16 0.05030206 0.002535524 0.1411507 1 4.12(68)
C2 C 16 0.05283769 0.05283748 0 1 4.12(68)
C3 C 16 0.1098568 0.1098564 0 1 4.12(68)
C4 C 16 0.1588119 0.1216749 0.1355259 1 4.12(68)
N1 N 16 0.2008865 0.1779342 0.0837592 1 4.12(68)
H1 H 16 0.08468116 0.004268437 0.2376206 1 4.12(68)
C5 C 16 0.1650517 0.08137276 0.3053773 1 4.12(68)
H51 H 16 0.1394394 0.02847462 0.2886863 1 4.12(68)
H52 H 16 0.2221909 0.07406212 0.3395395 1 4.12(68)
H53 H 16 0.1382655 0.1109617 0.4169518 1 4.12(68)
