
#######################################################################
#
#                 Cambridge Crystallographic Data Centre
#                                CCDC
#
#######################################################################
#
# If this CIF has been generated from an entry in the Cambridge
# Structural Database, then it will include bibliographic, chemical,
# crystal, experimental, refinement or atomic coordinate data resulting
# from the CCDC's data processing and validation procedures.
#
#######################################################################

data_CSD_CIF_DUMVEM
_audit_creation_date 1987-06-03
_audit_creation_method CSD-ConQuest-V1
_database_code_CSD DUMVEM
_database_code_depnum_ccdc_archive 'CCDC 1146580'
_chemical_formula_sum 'C23 H40 Mn1 P3'
_chemical_formula_moiety
;
C23 H40 Mn1 P3
;
_journal_coden_Cambridge 579
_journal_volume 5
_journal_year 1986
_journal_page_first 1642
_journal_name_full 'Organometallics '
loop_
_publ_author_name
"J.R.Bleeke"
"G.G.Stanley"
"J.J.Kotyk"
_chemical_name_systematic
;
bis((2-Diethylphosphino)ethyl)-phenylphosphine-(\h^5^-pentadienyl)-manganese
;
_chemical_name_common
;
Teaching Subset: Fundamental Chemistry
;
_cell_volume   2423.918
_exptl_crystal_colour 'maroon'
_diffrn_ambient_temperature ?
_diffrn_special_details
;
The study was carried out at room temperature,in the range 283-303K

;
#These two values have been output from a single CSD field.
_refine_ls_R_factor_gt 0.046
_refine_ls_wR_factor_gt 0.046
_symmetry_cell_setting orthorhombic
_symmetry_space_group_name_H-M 'P 21 21 21'
_symmetry_Int_Tables_number 19
loop_
_symmetry_equiv_pos_site_id
_symmetry_equiv_pos_as_xyz
1 x,y,z
2 1/2+x,1/2-y,-z
3 -x,1/2+y,1/2-z
4 1/2-x,-y,1/2+z
_cell_length_a 16.69(1)
_cell_length_b 17.06(1)
_cell_length_c 8.513(3)
_cell_angle_alpha 90
_cell_angle_beta 90
_cell_angle_gamma 90
_cell_formula_units_Z 4
loop_
_atom_type_symbol
_atom_type_radius_bond
C 0.68
H 0.23
Mn 1.35
P 1.05
loop_
_atom_site_label
_atom_site_type_symbol
_atom_site_fract_x
_atom_site_fract_y
_atom_site_fract_z
Mn1 Mn 0.07076(5) 0.22017(5) 0.0875(1)
P1 P -0.00628(9) 0.2763(1) 0.2695(2)
P2 P 0.13415(9) 0.33294(8) 0.0959(2)
P3 P 0.16824(9) 0.17833(9) 0.2428(2)
C1 C 0.0250(4) 0.1004(4) 0.0752(9)
C2 C -0.0277(4) 0.1547(4) 0.0106(8)
C3 C -0.0103(4) 0.2109(4) -0.1064(8)
C4 C 0.0684(4) 0.2262(4) -0.1604(7)
C5 C 0.1369(4) 0.1821(4) -0.1194(8)
C6 C -0.0948(4) 0.3282(4) 0.1881(9)
C7 C 0.0483(4) 0.3569(4) 0.3703(8)
C8 C -0.0509(4) 0.2296(4) 0.4454(8)
C9 C 0.0981(4) 0.4013(4) 0.2520(9)
C10 C 0.2404(4) 0.3171(4) 0.1495(9)
C11 C 0.2327(4) 0.0986(4) 0.1686(9)
C12 C 0.2414(4) 0.2575(4) 0.283(1)
C13 C 0.1519(4) 0.1460(4) 0.4488(8)
C14 C -0.1463(4) 0.3771(5) 0.294(1)
C15 C -0.1126(4) 0.1675(4) 0.413(1)
C16 C 0.3003(5) 0.0689(5) 0.269(1)
C17 C 0.1013(5) 0.0736(5) 0.469(1)
C18 C 0.1428(3) 0.3989(3) -0.0753(8)
C19 C 0.0759(4) 0.4390(4) -0.1231(9)
C20 C 0.0756(4) 0.4837(4) -0.261(1)
C21 C 0.1420(4) 0.4904(4) -0.3468(9)
C22 C 0.2090(4) 0.45200(5) -0.302(1)
C23 C 0.2095(4) 0.4060(4) -0.1669(9)
H1 H 0.01110 0.06360 0.15560
H2 H 0.08020 0.09770 0.03600
H3 H -0.08230 0.15450 0.05540
H4 H -0.05410 0.23880 -0.15480
H5 H 0.07440 0.26970 -0.22820
H6 H 0.18880 0.19460 -0.16030
H7 H 0.13310 0.13620 -0.05210
H8 H 0.01050 0.38820 0.42620
H9 H 0.08300 0.33250 0.44970
H10 H -0.12970 0.28920 0.13690
H11 H -0.07750 0.36260 0.10360
H12 H -0.07680 0.26900 0.51090
H13 H -0.00910 0.20670 0.51030
H14 H 0.06410 0.44270 0.20730
H15 H 0.14150 0.42760 0.30370
H16 H 0.26590 0.36560 0.17810
H17 H 0.27030 0.29670 0.05940
H18 H 0.29420 0.23660 0.29540
H19 H 0.22770 0.28470 0.37860
H20 H 0.25800 0.11752 0.07080
H21 H 0.19840 0.05550 0.13520
H22 H 0.12540 0.18660 0.50560
H23 H 0.20240 0.13590 0.49700
H24 H -0.19130 0.39960 0.24330
H25 H -0.16020 0.34280 0.37830
H26 H -0.11600 0.41620 0.34490
H27 H -0.13310 0.14410 0.50890
H28 H -0.15580 0.18720 0.35470
H29 H -0.08810 0.12490 0.35410
H30 H 0.32880 0.02600 0.22640
H31 H 0.33440 0.10790 0.30500
H32 H 0.27480 0.04590 0.36940
H33 H 0.09570 0.05900 0.57730
H34 H 0.04950 0.07980 0.42470
H35 H 0.12650 0.02910 0.41620
H36 H 0.02490 0.43620 -0.06150
H37 H 0.02580 0.51020 -0.29260
H38 H 0.13910 0.52360 -0.43600
H39 H 0.25630 0.45780 -0.36860
H40 H 0.25670 0.37980 -0.13180
#END
