####################################################################### 
# 
# This file contains crystal structure data downloaded from the 
# Cambridge Structural Database (CSD) hosted by the Cambridge 
# Crystallographic Data Centre (CCDC).
# 
# Full information about CCDC data access policies and citation 
# guidelines are available at http://www.ccdc.cam.ac.uk/access/V1 
# 
# Audit and citation data items may have been added by the CCDC. 
# Please retain this information to preserve the provenance of 
# this file and to allow appropriate attribution of the data. 
# 
#######################################################################

data_3
_audit_block_doi                 10.5517/cc13vxlg
_database_code_depnum_ccdc_archive 'CCDC 1038766'
loop_
_citation_id
_citation_doi
_citation_year
1 10.1002/anie.201503636 2015
_audit_update_record             
;
2014-12-11 deposited with the CCDC.	2024-07-09 downloaded from the CCDC.
;

_audit_creation_method           SHELXL-97
_chemical_name_systematic        
; 
 ? 
;
_chemical_name_common            ?
_chemical_melting_point          ?
_chemical_formula_moiety         ?
_chemical_formula_sum            'C15 H15 Dy N4 O10'
_chemical_formula_weight         573.81

loop_
_atom_type_symbol
_atom_type_description
_atom_type_scat_dispersion_real
_atom_type_scat_dispersion_imag
_atom_type_scat_source
C C 0.0033 0.0016 'International Tables Vol C Tables 4.2.6.8 and 6.1.1.4'
H H 0.0000 0.0000 'International Tables Vol C Tables 4.2.6.8 and 6.1.1.4'
Dy Dy -0.1892 4.4098 'International Tables Vol C Tables 4.2.6.8 and 6.1.1.4'
N N 0.0061 0.0033 'International Tables Vol C Tables 4.2.6.8 and 6.1.1.4'
O O 0.0106 0.0060 'International Tables Vol C Tables 4.2.6.8 and 6.1.1.4'

_symmetry_cell_setting           Monoclinic
_symmetry_space_group_name_H-M   P21/c

loop_
_symmetry_equiv_pos_as_xyz
'x, y, z'
'-x, y+1/2, -z+1/2'
'-x, -y, -z'
'x, -y-1/2, z-1/2'

_cell_length_a                   10.1414(3)
_cell_length_b                   17.3983(4)
_cell_length_c                   11.3646(4)
_cell_angle_alpha                90.00
_cell_angle_beta                 110.085(3)
_cell_angle_gamma                90.00
_cell_volume                     1883.28(9)
_cell_formula_units_Z            4
_cell_measurement_temperature    293(2)
_cell_measurement_reflns_used    ?
_cell_measurement_theta_min      ?
_cell_measurement_theta_max      ?

_exptl_crystal_description       block
_exptl_crystal_colour            colorless
_exptl_crystal_size_max          0.5
_exptl_crystal_size_mid          0.2
_exptl_crystal_size_min          0.2
_exptl_crystal_density_meas      ?
_exptl_crystal_density_diffrn    2.024
_exptl_crystal_density_method    'not measured'
_exptl_crystal_F_000             1116
_exptl_absorpt_coefficient_mu    4.032
_exptl_absorpt_correction_type   ?
_exptl_absorpt_correction_T_min  ?
_exptl_absorpt_correction_T_max  ?
_exptl_absorpt_process_details   ?

_exptl_special_details           
; 
 ? 
;

_diffrn_ambient_temperature      293(2)
_diffrn_radiation_wavelength     0.71073
_diffrn_radiation_type           MoK\a
_diffrn_radiation_source         'fine-focus sealed tube'
_diffrn_radiation_monochromator  graphite
_diffrn_measurement_device_type  ?
_diffrn_measurement_method       ?
_diffrn_detector_area_resol_mean ?
_diffrn_standards_number         ?
_diffrn_standards_interval_count ?
_diffrn_standards_interval_time  ?
_diffrn_standards_decay_%        ?
_diffrn_reflns_number            7422
_diffrn_reflns_av_R_equivalents  0.0279
_diffrn_reflns_av_sigmaI/netI    0.0419
_diffrn_reflns_limit_h_min       -12
_diffrn_reflns_limit_h_max       11
_diffrn_reflns_limit_k_min       -16
_diffrn_reflns_limit_k_max       20
_diffrn_reflns_limit_l_min       -13
_diffrn_reflns_limit_l_max       7
_diffrn_reflns_theta_min         3.02
_diffrn_reflns_theta_max         25.00
_reflns_number_total             3310
_reflns_number_gt                2971
_reflns_threshold_expression     >2sigma(I)

_computing_data_collection       ?
_computing_cell_refinement       ?
_computing_data_reduction        ?
_computing_structure_solution    'SHELXS-97 (Sheldrick, 1990)'
_computing_structure_refinement  'SHELXL-97 (Sheldrick, 1997)'
_computing_molecular_graphics    ?
_computing_publication_material  ?

_refine_special_details          
; 
 Refinement of F^2^ against ALL reflections.  The weighted R-factor wR and 
 goodness of fit S are based on F^2^, conventional R-factors R are based 
 on F, with F set to zero for negative F^2^. The threshold expression of 
 F^2^ > 2sigma(F^2^) is used only for calculating R-factors(gt) etc. and is 
 not relevant to the choice of reflections for refinement.  R-factors based 
 on F^2^ are statistically about twice as large as those based on F, and R- 
 factors based on ALL data will be even larger. 
;

_refine_ls_structure_factor_coef Fsqd
_refine_ls_matrix_type           full
_refine_ls_weighting_scheme      calc
_refine_ls_weighting_details     
'calc w=1/[\s^2^(Fo^2^)+(0.0151P)^2^+0.4604P] where P=(Fo^2^+2Fc^2^)/3'
_atom_sites_solution_primary     direct
_atom_sites_solution_secondary   difmap
_atom_sites_solution_hydrogens   geom
_refine_ls_hydrogen_treatment    mixed
_refine_ls_extinction_method     none
_refine_ls_extinction_coef       ?
_refine_ls_number_reflns         3310
_refine_ls_number_parameters     273
_refine_ls_number_restraints     0
_refine_ls_R_factor_all          0.0329
_refine_ls_R_factor_gt           0.0279
_refine_ls_wR_factor_ref         0.0526
_refine_ls_wR_factor_gt          0.0501
_refine_ls_goodness_of_fit_ref   1.084
_refine_ls_restrained_S_all      1.084
_refine_ls_shift/su_max          0.002
_refine_ls_shift/su_mean         0.000

loop_
_atom_site_label
_atom_site_type_symbol
_atom_site_fract_x
_atom_site_fract_y
_atom_site_fract_z
_atom_site_U_iso_or_equiv
_atom_site_adp_type
_atom_site_occupancy
_atom_site_symmetry_multiplicity
_atom_site_calc_flag
_atom_site_refinement_flags
_atom_site_disorder_assembly
_atom_site_disorder_group
Dy1 Dy 0.509471(19) 0.507044(10) 0.681282(17) 0.01031(7) Uani 1 1 d . . .
O10 O 0.7283(3) 0.48579(15) 0.6557(3) 0.0173(6) Uani 1 1 d . . .
O15 O 0.7028(3) 0.53865(15) 0.8794(3) 0.0211(7) Uani 1 1 d . . .
O9 O 0.2913(3) 0.54708(14) 0.5413(2) 0.0149(6) Uani 1 1 d . . .
O11 O 0.3567(3) 0.41743(14) 0.7251(2) 0.0146(6) Uani 1 1 d . . .
O25 O 0.4119(3) 0.56798(14) 0.8169(2) 0.0167(7) Uani 1 1 d . . .
N13 N 0.7310(4) 0.4696(2) 0.9079(3) 0.0218(9) Uani 1 1 d . . .
O24 O 0.5604(3) 0.86074(14) 1.1574(2) 0.0157(6) Uani 1 1 d . . .
O23 O 0.5261(3) 0.91584(14) 0.9748(2) 0.0145(6) Uani 1 1 d . . .
O12 O 0.6464(3) 0.41826(15) 0.8441(3) 0.0186(7) Uani 1 1 d . . .
N16 N 0.4468(3) 0.63686(17) 0.8696(3) 0.0125(7) Uani 1 1 d . . .
N2 N 0.2180(3) 0.42520(17) 0.6902(3) 0.0147(8) Uani 1 1 d . . .
C7 C 0.1353(4) 0.3994(2) 0.5773(4) 0.0152(9) Uani 1 1 d . . .
H7 H 0.1751 0.3745 0.5252 0.018 Uiso 1 1 calc R . .
C22 C 0.5373(4) 0.8567(2) 1.0428(4) 0.0125(9) Uani 1 1 d . . .
C18 C 0.5511(4) 0.7121(2) 1.0506(4) 0.0139(9) Uani 1 1 d . . .
H18 H 0.5986 0.7152 1.1365 0.017 Uiso 1 1 calc R . .
C4 C 0.0200(4) 0.4684(2) 0.7351(4) 0.0158(9) Uani 1 1 d . . .
H4 H -0.0178 0.4902 0.7912 0.019 Uiso 1 1 calc R . .
N28 N 0.0145(4) 0.3065(2) 0.1079(4) 0.0321(10) Uani 1 1 d . . .
C20 C 0.4376(4) 0.7721(2) 0.8526(4) 0.0162(9) Uani 1 1 d . . .
H20 H 0.4100 0.8160 0.8035 0.019 Uiso 1 1 calc R . .
O14 O 0.8370(4) 0.4518(2) 0.9958(3) 0.0509(11) Uani 1 1 d . . .
C6 C -0.0075(4) 0.4096(2) 0.5387(4) 0.0155(9) Uani 1 1 d . . .
H6 H -0.0639 0.3925 0.4599 0.019 Uiso 1 1 calc R . .
C8 C 0.2236(4) 0.5376(2) 0.4259(4) 0.0134(9) Uani 1 1 d . . .
C5 C -0.0682(4) 0.4455(2) 0.6171(4) 0.0119(9) Uani 1 1 d . . .
C21 C 0.4051(4) 0.7010(2) 0.7986(4) 0.0158(9) Uani 1 1 d . . .
H21 H 0.3544 0.6967 0.7135 0.019 Uiso 1 1 calc R . .
C19 C 0.5114(4) 0.7791(2) 0.9796(4) 0.0120(9) Uani 1 1 d . . .
C3 C 0.1618(4) 0.4592(2) 0.7688(4) 0.0151(9) Uani 1 1 d . . .
H3 H 0.2203 0.4764 0.8466 0.018 Uiso 1 1 calc R . .
C17 C 0.5197(4) 0.6419(2) 0.9931(4) 0.0151(9) Uani 1 1 d . . .
H17 H 0.5491 0.5973 1.0399 0.018 Uiso 1 1 calc R . .
O26 O 0.0795(6) 0.3296(2) 0.3154(4) 0.0908(18) Uani 1 1 d . . .
C30 C 0.0460(6) 0.3149(3) -0.0062(5) 0.0442(15) Uani 1 1 d . . .
H30A H 0.1364 0.3386 0.0125 0.066 Uiso 1 1 calc R . .
H30B H -0.0242 0.3466 -0.0642 0.066 Uiso 1 1 calc R . .
H30C H 0.0467 0.2652 -0.0427 0.066 Uiso 1 1 calc R . .
C27 C 0.1000(7) 0.3308(3) 0.2150(5) 0.0557(18) Uani 1 1 d . . .
H27 H 0.1850 0.3512 0.2156 0.067 Uiso 1 1 calc R . .
C29 C -0.1249(6) 0.2784(3) 0.0969(6) 0.0617(19) Uani 1 1 d . . .
H29A H -0.1948 0.3071 0.0333 0.093 Uiso 1 1 calc R . .
H29B H -0.1392 0.2846 0.1756 0.093 Uiso 1 1 calc R . .
H29C H -0.1323 0.2249 0.0745 0.093 Uiso 1 1 calc R . .

loop_
_atom_site_aniso_label
_atom_site_aniso_U_11
_atom_site_aniso_U_22
_atom_site_aniso_U_33
_atom_site_aniso_U_23
_atom_site_aniso_U_13
_atom_site_aniso_U_12
Dy1 0.01042(11) 0.01104(11) 0.00986(11) -0.00055(7) 0.00397(8) -0.00051(8)
O10 0.0106(16) 0.0274(16) 0.0143(16) -0.0035(12) 0.0046(13) 0.0006(12)
O15 0.0214(18) 0.0181(16) 0.0222(17) -0.0025(13) 0.0052(15) 0.0013(13)
O9 0.0094(16) 0.0204(15) 0.0143(16) 0.0009(12) 0.0033(13) -0.0011(12)
O11 0.0067(15) 0.0185(15) 0.0175(16) 0.0024(12) 0.0028(13) 0.0013(12)
O25 0.0184(17) 0.0148(15) 0.0185(16) -0.0086(12) 0.0086(14) -0.0051(12)
N13 0.016(2) 0.036(2) 0.0107(19) 0.0009(17) 0.0007(17) 0.0103(18)
O24 0.0218(17) 0.0135(15) 0.0140(16) -0.0010(11) 0.0089(14) 0.0014(12)
O23 0.0117(16) 0.0129(14) 0.0198(16) 0.0050(12) 0.0068(13) 0.0029(12)
O12 0.0155(17) 0.0204(16) 0.0158(16) 0.0017(12) 0.0001(14) -0.0027(13)
N16 0.0106(19) 0.0162(18) 0.0138(19) -0.0039(14) 0.0082(16) -0.0010(14)
N2 0.013(2) 0.0106(17) 0.020(2) 0.0026(14) 0.0058(17) -0.0011(14)
C7 0.019(2) 0.015(2) 0.013(2) -0.0012(17) 0.008(2) 0.0004(18)
C22 0.004(2) 0.013(2) 0.020(2) 0.0011(17) 0.0040(18) 0.0046(16)
C18 0.012(2) 0.015(2) 0.015(2) -0.0029(17) 0.0061(19) 0.0008(17)
C4 0.012(2) 0.023(2) 0.014(2) -0.0036(18) 0.0065(19) -0.0009(18)
N28 0.029(3) 0.035(2) 0.039(3) -0.005(2) 0.020(2) -0.0057(19)
C20 0.019(2) 0.015(2) 0.015(2) 0.0050(17) 0.007(2) 0.0056(18)
O14 0.047(3) 0.059(2) 0.032(2) -0.0056(18) -0.006(2) 0.016(2)
C6 0.015(2) 0.015(2) 0.016(2) 0.0009(17) 0.005(2) -0.0010(17)
C8 0.016(2) 0.009(2) 0.014(2) 0.0040(16) 0.0040(19) -0.0025(17)
C5 0.009(2) 0.012(2) 0.014(2) 0.0043(16) 0.0032(18) -0.0038(16)
C21 0.015(2) 0.018(2) 0.013(2) -0.0006(17) 0.0028(19) 0.0036(18)
C19 0.014(2) 0.011(2) 0.013(2) 0.0010(16) 0.0062(19) 0.0026(16)
C3 0.010(2) 0.020(2) 0.014(2) -0.0026(17) 0.0042(19) 0.0016(17)
C17 0.018(3) 0.017(2) 0.015(2) -0.0006(17) 0.010(2) 0.0012(18)
O26 0.179(6) 0.066(3) 0.048(3) -0.010(2) 0.065(4) -0.040(3)
C30 0.054(4) 0.046(3) 0.041(4) -0.011(3) 0.026(3) 0.003(3)
C27 0.077(5) 0.057(4) 0.035(4) -0.011(3) 0.023(4) -0.032(3)
C29 0.036(4) 0.050(4) 0.107(6) 0.011(3) 0.033(4) 0.002(3)

_geom_special_details            
; 
 All esds (except the esd in the dihedral angle between two l.s. planes) 
 are estimated using the full covariance matrix.  The cell esds are taken 
 into account individually in the estimation of esds in distances, angles 
 and torsion angles; correlations between esds in cell parameters are only 
 used when they are defined by crystal symmetry.  An approximate (isotropic) 
 treatment of cell esds is used for estimating esds involving l.s. planes. 
;

loop_
_geom_bond_atom_site_label_1
_geom_bond_atom_site_label_2
_geom_bond_distance
_geom_bond_site_symmetry_2
_geom_bond_publ_flag
Dy1 O23 2.314(3) 2_646 ?
Dy1 O9 2.344(3) . ?
Dy1 O25 2.351(3) . ?
Dy1 O10 2.364(3) . ?
Dy1 O11 2.368(3) . ?
Dy1 O24 2.393(2) 4_575 ?
Dy1 O12 2.444(3) . ?
Dy1 O15 2.486(3) . ?
Dy1 O23 2.758(3) 4_575 ?
Dy1 N13 2.852(4) . ?
Dy1 C22 2.913(4) 4_575 ?
O10 C8 1.255(5) 3_666 ?
O15 N13 1.252(4) . ?
O9 C8 1.266(4) . ?
O11 N2 1.331(4) . ?
O25 N16 1.332(4) . ?
N13 O14 1.229(5) . ?
N13 O12 1.277(4) . ?
O24 C22 1.244(5) . ?
O24 Dy1 2.393(2) 4_576 ?
O23 C22 1.269(4) . ?
O23 Dy1 2.314(3) 2_656 ?
O23 Dy1 2.758(3) 4_576 ?
N16 C17 1.346(5) . ?
N16 C21 1.357(5) . ?
N2 C7 1.346(5) . ?
N2 C3 1.350(5) . ?
C7 C6 1.373(5) . ?
C22 C19 1.509(5) . ?
C22 Dy1 2.913(4) 4_576 ?
C18 C17 1.371(5) . ?
C18 C19 1.396(5) . ?
C4 C3 1.365(5) . ?
C4 C5 1.391(5) . ?
N28 C27 1.298(6) . ?
N28 C30 1.446(6) . ?
N28 C29 1.460(6) . ?
C20 C21 1.370(5) . ?
C20 C19 1.384(5) . ?
C6 C5 1.393(5) . ?
C8 O10 1.255(5) 3_666 ?
C8 C5 1.510(5) 3_566 ?
C5 C8 1.510(5) 3_566 ?
O26 C27 1.228(6) . ?

loop_
_geom_angle_atom_site_label_1
_geom_angle_atom_site_label_2
_geom_angle_atom_site_label_3
_geom_angle
_geom_angle_site_symmetry_1
_geom_angle_site_symmetry_3
_geom_angle_publ_flag
O23 Dy1 O9 79.70(9) 2_646 . ?
O23 Dy1 O25 145.27(9) 2_646 . ?
O9 Dy1 O25 78.41(9) . . ?
O23 Dy1 O10 72.81(9) 2_646 . ?
O9 Dy1 O10 132.10(9) . . ?
O25 Dy1 O10 140.83(9) . . ?
O23 Dy1 O11 76.62(9) 2_646 . ?
O9 Dy1 O11 78.76(9) . . ?
O25 Dy1 O11 72.90(9) . . ?
O10 Dy1 O11 129.22(9) . . ?
O23 Dy1 O24 123.73(9) 2_646 4_575 ?
O9 Dy1 O24 80.08(9) . 4_575 ?
O25 Dy1 O24 78.27(9) . 4_575 ?
O10 Dy1 O24 83.57(9) . 4_575 ?
O11 Dy1 O24 147.02(9) . 4_575 ?
O23 Dy1 O12 92.61(9) 2_646 . ?
O9 Dy1 O12 149.33(9) . . ?
O25 Dy1 O12 92.64(9) . . ?
O10 Dy1 O12 71.40(9) . . ?
O11 Dy1 O12 70.57(9) . . ?
O24 Dy1 O12 127.19(9) 4_575 . ?
O23 Dy1 O15 135.44(9) 2_646 . ?
O9 Dy1 O15 144.66(9) . . ?
O25 Dy1 O15 71.65(9) . . ?
O10 Dy1 O15 70.38(10) . . ?
O11 Dy1 O15 108.94(9) . . ?
O24 Dy1 O15 75.89(9) 4_575 . ?
O12 Dy1 O15 52.26(8) . . ?
O23 Dy1 O23 73.77(9) 2_646 4_575 ?
O9 Dy1 O23 66.27(8) . 4_575 ?
O25 Dy1 O23 120.07(8) . 4_575 ?
O10 Dy1 O23 68.72(9) . 4_575 ?
O11 Dy1 O23 137.29(9) . 4_575 ?
O24 Dy1 O23 50.02(8) 4_575 4_575 ?
O12 Dy1 O23 140.05(9) . 4_575 ?
O15 Dy1 O23 113.76(9) . 4_575 ?
O23 Dy1 N13 113.75(10) 2_646 . ?
O9 Dy1 N13 161.46(9) . . ?
O25 Dy1 N13 83.64(10) . . ?
O10 Dy1 N13 66.03(10) . . ?
O11 Dy1 N13 91.65(10) . . ?
O24 Dy1 N13 100.86(10) 4_575 . ?
O12 Dy1 N13 26.50(9) . . ?
O15 Dy1 N13 25.99(9) . . ?
O23 Dy1 N13 128.34(9) 4_575 . ?
O23 Dy1 C22 99.37(10) 2_646 4_575 ?
O9 Dy1 C22 68.63(10) . 4_575 ?
O25 Dy1 C22 97.34(10) . 4_575 ?
O10 Dy1 C22 77.97(10) . 4_575 ?
O11 Dy1 C22 147.29(10) . 4_575 ?
O24 Dy1 C22 24.71(10) 4_575 4_575 ?
O12 Dy1 C22 142.02(10) . 4_575 ?
O15 Dy1 C22 96.69(10) . 4_575 ?
O23 Dy1 C22 25.68(9) 4_575 4_575 ?
N13 Dy1 C22 118.79(11) . 4_575 ?
C8 O10 Dy1 139.6(3) 3_666 . ?
N13 O15 Dy1 93.5(2) . . ?
C8 O9 Dy1 135.6(3) . . ?
N2 O11 Dy1 124.8(2) . . ?
N16 O25 Dy1 126.4(2) . . ?
O14 N13 O15 120.6(4) . . ?
O14 N13 O12 121.0(4) . . ?
O15 N13 O12 118.3(3) . . ?
O14 N13 Dy1 171.5(3) . . ?
O15 N13 Dy1 60.49(18) . . ?
O12 N13 Dy1 58.66(18) . . ?
C22 O24 Dy1 101.7(2) . 4_576 ?
C22 O23 Dy1 168.9(3) . 2_656 ?
C22 O23 Dy1 84.0(2) . 4_576 ?
Dy1 O23 Dy1 106.23(9) 2_656 4_576 ?
N13 O12 Dy1 94.8(2) . . ?
O25 N16 C17 119.5(3) . . ?
O25 N16 C21 119.5(3) . . ?
C17 N16 C21 121.0(3) . . ?
O11 N2 C7 120.0(3) . . ?
O11 N2 C3 119.4(3) . . ?
C7 N2 C3 120.7(4) . . ?
N2 C7 C6 120.4(4) . . ?
O24 C22 O23 122.5(3) . . ?
O24 C22 C19 119.3(3) . . ?
O23 C22 C19 118.1(4) . . ?
O24 C22 Dy1 53.57(18) . 4_576 ?
O23 C22 Dy1 70.4(2) . 4_576 ?
C19 C22 Dy1 162.2(3) . 4_576 ?
C17 C18 C19 119.7(4) . . ?
C3 C4 C5 120.2(4) . . ?
C27 N28 C30 121.7(5) . . ?
C27 N28 C29 120.3(5) . . ?
C30 N28 C29 117.5(5) . . ?
C21 C20 C19 120.5(4) . . ?
C7 C6 C5 120.2(4) . . ?
O10 C8 O9 126.7(4) 3_666 . ?
O10 C8 C5 116.9(4) 3_666 3_566 ?
O9 C8 C5 116.4(4) . 3_566 ?
C4 C5 C6 117.9(4) . . ?
C4 C5 C8 120.6(4) . 3_566 ?
C6 C5 C8 121.4(4) . 3_566 ?
N16 C21 C20 119.9(4) . . ?
C20 C19 C18 118.3(4) . . ?
C20 C19 C22 121.3(3) . . ?
C18 C19 C22 120.2(4) . . ?
N2 C3 C4 120.7(4) . . ?
N16 C17 C18 120.6(4) . . ?
O26 C27 N28 126.4(6) . . ?

_diffrn_measured_fraction_theta_max 0.998
_diffrn_reflns_theta_full        25.00
_diffrn_measured_fraction_theta_full 0.998
_refine_diff_density_max         0.540
_refine_diff_density_min         -0.489
_refine_diff_density_rms         0.113
