####################################################################### 
# 
# This file contains crystal structure data downloaded from the 
# Cambridge Structural Database (CSD) hosted by the Cambridge 
# Crystallographic Data Centre (CCDC).
# 
# Full information about CCDC data access policies and citation 
# guidelines are available at http://www.ccdc.cam.ac.uk/access/V1 
# 
# Audit and citation data items may have been added by the CCDC. 
# Please retain this information to preserve the provenance of 
# this file and to allow appropriate attribution of the data. 
# 
#######################################################################

data_1
_audit_block_doi                 10.5517/cc13vxjd
_database_code_depnum_ccdc_archive 'CCDC 1038764'
loop_
_citation_id
_citation_doi
_citation_year
1 10.1002/anie.201503636 2015
_audit_update_record             
;
2014-12-11 deposited with the CCDC.	2024-07-09 downloaded from the CCDC.
;
_audit_creation_date             2014-12-09
_audit_creation_method           
;
  Olex2 1.1
  (compiled 2011.11.01 svn.r2039, GUI svn.r3906)
;
_chemical_name_common            ?
_chemical_name_systematic        
;
 ? 
;
_chemical_formula_moiety         'C12 H8 Dy N3 O9, C3 H7 N O'
_chemical_formula_sum            'C15 H15 Dy N4 O10'
_chemical_formula_weight         573.81
_chemical_melting_point          ?
loop_
_atom_type_symbol
_atom_type_description
_atom_type_scat_dispersion_real
_atom_type_scat_dispersion_imag
_atom_type_scat_source
C C 0.0033 0.0016 'International Tables Vol C Tables 4.2.6.8 and 6.1.1.4'
H H 0.0000 0.0000 'International Tables Vol C Tables 4.2.6.8 and 6.1.1.4'
Dy Dy -0.1892 4.4098 'International Tables Vol C Tables 4.2.6.8 and 6.1.1.4'
N N 0.0061 0.0033 'International Tables Vol C Tables 4.2.6.8 and 6.1.1.4'
O O 0.0106 0.0060 'International Tables Vol C Tables 4.2.6.8 and 6.1.1.4'

_space_group_crystal_system      monoclinic
_space_group_IT_number           14
_space_group_name_H-M_alt        'P 1 21/c 1'
_space_group_name_Hall           '-P 2ybc'
loop_
_space_group_symop_id
_space_group_symop_operation_xyz
1 'x, y, z'
2 '-x, y+1/2, -z+1/2'
3 '-x, -y, -z'
4 'x, -y-1/2, z-1/2'

_cell_length_a                   10.1353(2)
_cell_length_b                   17.3501(2)
_cell_length_c                   11.3594(2)
_cell_angle_alpha                90.00
_cell_angle_beta                 109.798(2)
_cell_angle_gamma                90.00
_cell_volume                     1879.48(6)
_cell_formula_units_Z            4
_cell_measurement_reflns_used    ?
_cell_measurement_temperature    293(2)
_cell_measurement_theta_max      ?
_cell_measurement_theta_min      ?
_exptl_absorpt_coefficient_mu    4.041
_exptl_absorpt_correction_T_max  ?
_exptl_absorpt_correction_T_min  ?
_exptl_absorpt_correction_type   ?
_exptl_absorpt_process_details   ?
_exptl_crystal_colour            colorless
_exptl_crystal_density_diffrn    2.028
_exptl_crystal_density_meas      ?
_exptl_crystal_density_method    'not measured'
_exptl_crystal_description       block
_exptl_crystal_F_000             1116
_exptl_crystal_size_max          0.5
_exptl_crystal_size_mid          0.2
_exptl_crystal_size_min          0.2
_exptl_special_details           
;
 ? 
;
_diffrn_reflns_av_R_equivalents  0.0233
_diffrn_reflns_av_unetI/netI     0.0353
_diffrn_reflns_limit_h_max       12
_diffrn_reflns_limit_h_min       -8
_diffrn_reflns_limit_k_max       19
_diffrn_reflns_limit_k_min       -20
_diffrn_reflns_limit_l_max       13
_diffrn_reflns_limit_l_min       -13
_diffrn_reflns_number            6515
_diffrn_reflns_theta_full        25.00
_diffrn_reflns_theta_max         25.00
_diffrn_reflns_theta_min         3.17
_diffrn_ambient_temperature      293(2)
_diffrn_detector_area_resol_mean ?
_diffrn_measured_fraction_theta_full 0.998
_diffrn_measured_fraction_theta_max 0.998
_diffrn_measurement_device_type  ?
_diffrn_measurement_method       ?
_diffrn_radiation_monochromator  graphite
_diffrn_radiation_type           MoK\a
_diffrn_radiation_wavelength     0.71073
_diffrn_source                   'fine-focus sealed tube'
_diffrn_standards_decay_%        ?
_diffrn_standards_interval_count ?
_diffrn_standards_interval_time  ?
_diffrn_standards_number         ?
_reflns_number_gt                3112
_reflns_number_total             3304
_reflns_threshold_expression     >2sigma(I)
_computing_cell_refinement       ?
_computing_data_collection       ?
_computing_data_reduction        ?
_computing_molecular_graphics    
;
O. V. Dolomanov, L. J. Bourhis, R. J. Gildea, J. A. K. Howard and H. Puschmann,
OLEX2: a complete structure solution, refinement and analysis program.
J. Appl. Cryst. (2009). 42, 339-341.
;
_computing_publication_material  
;
O. V. Dolomanov, L. J. Bourhis, R. J. Gildea, J. A. K. Howard and H. Puschmann,
OLEX2: a complete structure solution, refinement and analysis program.
J. Appl. Cryst. (2009). 42, 339-341.
;
_computing_structure_refinement  
;
XL, G.M. Sheldrick, Acta Cryst.
(2008). A64, 112-122
;
_computing_structure_solution    'SHELXS-97 (Sheldrick, 1990)'
_refine_diff_density_max         0.674
_refine_diff_density_min         -0.637
_refine_diff_density_rms         0.109
_refine_ls_extinction_coef       ?
_refine_ls_extinction_method     none
_refine_ls_goodness_of_fit_ref   1.175
_refine_ls_hydrogen_treatment    mixed
_refine_ls_matrix_type           full
_refine_ls_number_parameters     273
_refine_ls_number_reflns         3304
_refine_ls_number_restraints     6
_refine_ls_R_factor_all          0.0294
_refine_ls_R_factor_gt           0.0269
_refine_ls_restrained_S_all      1.175
_refine_ls_shift/su_max          0.003
_refine_ls_shift/su_mean         0.000
_refine_ls_structure_factor_coef Fsqd
_refine_ls_weighting_details     
'calc w=1/[\s^2^(Fo^2^)+(0.0105P)^2^+2.7933P] where P=(Fo^2^+2Fc^2^)/3'
_refine_ls_weighting_scheme      calc
_refine_ls_wR_factor_gt          0.0536
_refine_ls_wR_factor_ref         0.0548
_refine_special_details          
;
 Refinement of F^2^ against ALL reflections.  The weighted R-factor wR and 
 goodness of fit S are based on F^2^, conventional R-factors R are based 
 on F, with F set to zero for negative F^2^. The threshold expression of 
 F^2^ > 2sigma(F^2^) is used only for calculating R-factors(gt) etc. and is 
 not relevant to the choice of reflections for refinement.  R-factors based 
 on F^2^ are statistically about twice as large as those based on F, and R- 
 factors based on ALL data will be even larger. 
;
_atom_sites_solution_hydrogens   geom
_atom_sites_solution_primary     direct
_atom_sites_solution_secondary   difmap
loop_
_atom_site_label
_atom_site_type_symbol
_atom_site_fract_x
_atom_site_fract_y
_atom_site_fract_z
_atom_site_U_iso_or_equiv
_atom_site_adp_type
_atom_site_occupancy
_atom_site_symmetry_multiplicity
_atom_site_calc_flag
_atom_site_refinement_flags
_atom_site_disorder_assembly
_atom_site_disorder_group
Dy1 Dy 1.008012(18) 0.493125(10) 0.680176(16) 0.00744(7) Uani 1 1 d . . .
O10 O 1.2276(3) 0.51499(16) 0.6552(3) 0.0146(6) Uani 1 1 d . . .
O11 O 0.8559(3) 0.58307(14) 0.7246(2) 0.0102(6) Uani 1 1 d . . .
O9 O 0.2092(3) 0.54737(15) 0.4585(2) 0.0114(6) Uani 1 1 d . . .
O21 O 0.9110(3) 0.43243(14) 0.8168(2) 0.0121(6) Uani 1 1 d . . .
N23 N 1.2308(3) 0.5304(2) 0.9083(3) 0.0159(8) Uani 1 1 d . . .
O20 O 1.0599(3) 0.36053(14) 0.6583(2) 0.0122(6) Uani 1 1 d . . .
O22 O 1.1450(3) 0.58142(15) 0.8435(2) 0.0139(6) Uani 1 1 d . . .
O19 O 0.9730(3) 0.58401(15) 0.5237(2) 0.0122(6) Uani 1 1 d . . .
N2 N 0.7170(3) 0.57514(17) 0.6900(3) 0.0094(7) Uani 1 1 d . . .
O24 O 1.3346(3) 0.54783(18) 0.9955(3) 0.0306(8) Uani 1 1 d . . .
N12 N 0.9459(3) 0.36340(18) 0.8694(3) 0.0117(7) Uani 1 1 d . . .
C7 C 0.6349(4) 0.6016(2) 0.5760(4) 0.0103(8) Uani 1 1 d . . .
H7 H 0.6748 0.6266 0.5239 0.012 Uiso 1 1 calc R . .
N28 N 0.5161(4) 0.8061(2) 0.6099(4) 0.0254(9) Uani 1 1 d . . .
C18 C 1.0374(4) 0.3565(2) 0.5424(4) 0.0096(8) Uani 1 1 d U . .
C4 C 0.5183(4) 0.5319(2) 0.7347(4) 0.0131(9) Uani 1 1 d . . .
H4 H 0.4801 0.5097 0.7904 0.016 Uiso 1 1 calc R . .
C6 C 0.4925(4) 0.5909(2) 0.5386(4) 0.0124(9) Uani 1 1 d . . .
H6 H 0.4364 0.6079 0.4599 0.015 Uiso 1 1 calc R . .
C14 C 0.9368(4) 0.2718(2) 0.3528(4) 0.0128(9) Uani 1 1 d . . .
H14 H 0.9098 0.3158 0.3036 0.015 Uiso 1 1 calc R . .
C5 C 0.4303(4) 0.5551(2) 0.6164(4) 0.0098(8) Uani 1 1 d . . .
C8 C 0.2764(4) 0.5379(2) 0.5741(4) 0.0098(8) Uani 1 1 d . . .
O25 O 1.2011(3) 0.46079(16) 0.8769(3) 0.0171(6) Uani 1 1 d . . .
C3 C 0.6607(4) 0.5418(2) 0.7690(4) 0.0112(8) Uani 1 1 d . . .
H3 H 0.7187 0.5253 0.8473 0.013 Uiso 1 1 calc R . .
C15 C 1.0102(4) 0.2788(2) 0.4801(4) 0.0108(8) Uani 1 1 d . . .
C17 C 1.0193(4) 0.3588(2) 0.9928(4) 0.0127(9) Uani 1 1 d . . .
H17 H 1.0488 0.4036 1.0391 0.015 Uiso 1 1 calc R . .
C16 C 1.0509(4) 0.2882(2) 1.0505(4) 0.0102(8) Uani 1 1 d . . .
H16 H 1.0991 0.2852 1.1361 0.012 Uiso 1 1 calc R . .
C13 C 0.9042(4) 0.2991(2) 0.7998(4) 0.0141(9) Uani 1 1 d . . .
H13 H 0.8528 0.3034 0.7150 0.017 Uiso 1 1 calc R . .
O26 O 0.5844(6) 0.8292(2) 0.8176(4) 0.0784(17) Uani 1 1 d . . .
C30 C 0.5465(6) 0.8138(3) 0.4948(4) 0.0347(13) Uani 1 1 d . . .
H30A H 0.4803 0.8485 0.4394 0.052 Uiso 1 1 calc R . .
H30B H 0.5397 0.7642 0.4555 0.052 Uiso 1 1 calc R . .
H30C H 0.6396 0.8338 0.5129 0.052 Uiso 1 1 calc R . .
C27 C 0.6042(7) 0.8303(3) 0.7173(5) 0.0456(15) Uani 1 1 d . . .
H27 H 0.6894 0.8501 0.7170 0.055 Uiso 1 1 calc R . .
C29 C 0.3794(5) 0.7781(3) 0.6017(6) 0.0494(16) Uani 1 1 d . . .
H29A H 0.3086 0.8097 0.5447 0.074 Uiso 1 1 calc R . .
H29B H 0.3699 0.7800 0.6829 0.074 Uiso 1 1 calc R . .
H29C H 0.3688 0.7258 0.5721 0.074 Uiso 1 1 calc R . .

loop_
_atom_site_aniso_label
_atom_site_aniso_U_11
_atom_site_aniso_U_22
_atom_site_aniso_U_33
_atom_site_aniso_U_23
_atom_site_aniso_U_13
_atom_site_aniso_U_12
Dy1 0.00860(10) 0.00834(11) 0.00640(11) 0.00021(7) 0.00388(7) 0.00011(7)
O10 0.0079(14) 0.0248(16) 0.0125(15) 0.0009(13) 0.0054(12) -0.0013(12)
O11 0.0029(13) 0.0137(14) 0.0140(15) -0.0022(12) 0.0028(11) -0.0003(11)
O9 0.0092(14) 0.0169(14) 0.0091(14) -0.0016(12) 0.0043(11) -0.0020(11)
O21 0.0159(16) 0.0091(14) 0.0150(15) 0.0059(12) 0.0100(12) 0.0047(11)
N23 0.0111(18) 0.028(2) 0.0070(17) 0.0004(16) 0.0014(15) -0.0048(16)
O20 0.0194(16) 0.0104(14) 0.0098(14) 0.0013(12) 0.0089(12) 0.0022(11)
O22 0.0120(15) 0.0173(14) 0.0104(15) -0.0015(12) 0.0011(12) 0.0018(12)
O19 0.0127(15) 0.0118(14) 0.0145(15) 0.0028(12) 0.0078(12) 0.0003(11)
N2 0.0082(17) 0.0093(16) 0.0119(17) -0.0040(14) 0.0047(14) 0.0002(13)
O24 0.0257(19) 0.0380(19) 0.0171(17) 0.0041(15) -0.0071(15) -0.0108(15)
N12 0.0121(18) 0.0122(17) 0.0152(18) 0.0014(15) 0.0105(15) 0.0008(13)
C7 0.014(2) 0.0116(19) 0.008(2) 0.0038(16) 0.0073(17) 0.0031(16)
N28 0.028(2) 0.026(2) 0.029(2) -0.0015(18) 0.0177(19) -0.0021(17)
C18 0.0084(11) 0.0107(11) 0.0106(11) 0.0001(9) 0.0043(8) 0.0008(9)
C4 0.013(2) 0.018(2) 0.011(2) -0.0006(18) 0.0084(17) -0.0016(17)
C6 0.015(2) 0.013(2) 0.009(2) -0.0024(17) 0.0041(17) 0.0024(16)
C14 0.016(2) 0.013(2) 0.010(2) 0.0030(17) 0.0057(17) 0.0049(16)
C5 0.007(2) 0.0107(19) 0.012(2) -0.0035(17) 0.0030(16) 0.0008(15)
C8 0.010(2) 0.0095(19) 0.012(2) -0.0030(17) 0.0057(17) 0.0029(15)
O25 0.0184(16) 0.0164(15) 0.0148(15) 0.0038(13) 0.0033(13) -0.0024(12)
C3 0.009(2) 0.017(2) 0.0077(19) 0.0027(17) 0.0030(16) 0.0010(16)
C15 0.009(2) 0.011(2) 0.016(2) -0.0001(17) 0.0090(17) 0.0000(15)
C17 0.012(2) 0.017(2) 0.012(2) -0.0030(17) 0.0074(17) -0.0054(16)
C16 0.013(2) 0.0111(19) 0.008(2) -0.0004(17) 0.0055(17) -0.0009(16)
C13 0.016(2) 0.018(2) 0.011(2) -0.0025(18) 0.0069(17) -0.0015(17)
O26 0.161(5) 0.057(3) 0.035(3) -0.013(2) 0.058(3) -0.043(3)
C30 0.045(3) 0.036(3) 0.028(3) -0.004(2) 0.019(3) 0.005(2)
C27 0.066(4) 0.043(3) 0.032(3) -0.002(3) 0.022(3) -0.025(3)
C29 0.027(3) 0.043(3) 0.085(5) 0.011(3) 0.028(3) -0.004(3)

_geom_special_details            
;
 All esds (except the esd in the dihedral angle between two l.s. planes) 
 are estimated using the full covariance matrix.  The cell esds are taken 
 into account individually in the estimation of esds in distances, angles 
 and torsion angles; correlations between esds in cell parameters are only 
 used when they are defined by crystal symmetry.  An approximate (isotropic) 
 treatment of cell esds is used for estimating esds involving l.s. planes. 
;
loop_
_geom_bond_atom_site_label_1
_geom_bond_atom_site_label_2
_geom_bond_distance
_geom_bond_site_symmetry_2
_geom_bond_publ_flag
Dy1 O10 2.367(3) . ?
Dy1 O11 2.365(2) . ?
Dy1 O9 2.340(3) 3_666 ?
Dy1 O21 2.349(3) . ?
Dy1 N23 2.876(3) . ?
Dy1 O20 2.391(2) . ?
Dy1 O22 2.444(3) . ?
Dy1 O19 2.738(3) 3_766 ?
Dy1 O19 2.312(3) . ?
Dy1 C18 2.911(4) . ?
Dy1 O25 2.485(3) . ?
O10 C8 1.249(5) 1_655 ?
O11 N2 1.334(4) . ?
O9 Dy1 2.340(3) 3_666 ?
O9 C8 1.268(4) . ?
O21 N12 1.332(4) . ?
N23 O22 1.284(4) . ?
N23 O24 1.214(4) . ?
N23 O25 1.267(4) . ?
O20 C18 1.259(4) . ?
O19 Dy1 2.738(3) 3_766 ?
O19 C18 1.260(4) 3_766 ?
N2 C7 1.360(5) . ?
N2 C3 1.347(5) . ?
N12 C17 1.348(5) . ?
N12 C13 1.349(5) . ?
C7 C6 1.372(5) . ?
N28 C30 1.448(6) . ?
N28 C27 1.313(6) . ?
N28 C29 1.441(6) . ?
C18 O19 1.260(4) 3_766 ?
C18 C15 1.504(5) . ?
C4 C5 1.397(5) . ?
C4 C3 1.373(5) . ?
C6 C5 1.392(5) . ?
C14 C15 1.389(5) . ?
C14 C13 1.361(5) 4_565 ?
C5 C8 1.499(5) . ?
C8 O10 1.249(5) 1_455 ?
C15 C16 1.393(5) 4_565 ?
C17 C16 1.375(5) . ?
C16 C15 1.393(5) 4_566 ?
C13 C14 1.361(5) 4_566 ?
O26 C27 1.221(6) . ?

loop_
_geom_angle_atom_site_label_1
_geom_angle_atom_site_label_2
_geom_angle_atom_site_label_3
_geom_angle
_geom_angle_site_symmetry_1
_geom_angle_site_symmetry_3
_geom_angle_publ_flag
O10 Dy1 N23 65.71(10) . . ?
O10 Dy1 O20 83.85(9) . . ?
O10 Dy1 O22 71.04(9) . . ?
O10 Dy1 O19 68.82(9) . 3_766 ?
O10 Dy1 C18 78.15(10) . . ?
O10 Dy1 O25 70.01(9) . . ?
O11 Dy1 O10 128.82(9) . . ?
O11 Dy1 N23 91.66(9) . . ?
O11 Dy1 O20 147.05(9) . . ?
O11 Dy1 O22 70.61(9) . . ?
O11 Dy1 O19 137.80(8) . 3_766 ?
O11 Dy1 C18 147.66(10) . . ?
O11 Dy1 O25 109.18(9) . . ?
O9 Dy1 O10 132.51(9) 3_666 . ?
O9 Dy1 O11 79.00(9) 3_666 . ?
O9 Dy1 O21 78.53(9) 3_666 . ?
O9 Dy1 N23 161.29(9) 3_666 . ?
O9 Dy1 O20 80.27(9) 3_666 . ?
O9 Dy1 O22 149.62(9) 3_666 . ?
O9 Dy1 O19 66.61(8) 3_666 3_766 ?
O9 Dy1 C18 68.75(10) 3_666 . ?
O9 Dy1 O25 144.35(9) 3_666 . ?
O21 Dy1 O10 140.52(9) . . ?
O21 Dy1 O11 72.89(9) . . ?
O21 Dy1 N23 83.25(9) . . ?
O21 Dy1 O20 78.08(9) . . ?
O21 Dy1 O22 92.12(9) . . ?
O21 Dy1 O19 120.32(8) . 3_766 ?
O21 Dy1 C18 97.58(10) . . ?
O21 Dy1 O25 71.53(9) . . ?
N23 Dy1 C18 118.40(10) . . ?
O20 Dy1 N23 100.19(10) . . ?
O20 Dy1 O22 126.42(9) . . ?
O20 Dy1 O19 50.26(8) . 3_766 ?
O20 Dy1 C18 25.11(9) . . ?
O20 Dy1 O25 75.08(9) . . ?
O22 Dy1 N23 26.36(9) . . ?
O22 Dy1 O19 139.83(8) . 3_766 ?
O22 Dy1 C18 141.58(10) . . ?
O22 Dy1 O25 52.19(9) . . ?
O19 Dy1 O10 72.79(9) . . ?
O19 Dy1 O11 76.86(9) . . ?
O19 Dy1 O9 79.80(9) . 3_666 ?
O19 Dy1 O21 145.51(9) . . ?
O19 Dy1 N23 114.10(9) . . ?
O19 Dy1 N23 127.85(9) 3_766 . ?
O19 Dy1 O20 123.92(9) . . ?
O19 Dy1 O22 93.19(9) . . ?
O19 Dy1 O19 73.71(9) . 3_766 ?
O19 Dy1 C18 25.54(9) 3_766 . ?
O19 Dy1 C18 99.16(10) . . ?
O19 Dy1 O25 135.58(9) . . ?
O25 Dy1 N23 26.05(9) . . ?
O25 Dy1 O19 113.01(9) . 3_766 ?
O25 Dy1 C18 96.14(10) . . ?
C8 O10 Dy1 139.7(2) 1_655 . ?
N2 O11 Dy1 124.6(2) . . ?
C8 O9 Dy1 135.3(2) . 3_666 ?
N12 O21 Dy1 126.4(2) . . ?
O22 N23 Dy1 57.70(17) . . ?
O24 N23 Dy1 172.1(3) . . ?
O24 N23 O22 121.9(3) . . ?
O24 N23 O25 121.7(4) . . ?
O25 N23 Dy1 59.51(17) . . ?
O25 N23 O22 116.5(3) . . ?
C18 O20 Dy1 101.2(2) . . ?
N23 O22 Dy1 95.9(2) . . ?
Dy1 O19 Dy1 106.29(9) . 3_766 ?
C18 O19 Dy1 84.9(2) 3_766 3_766 ?
C18 O19 Dy1 167.8(3) 3_766 . ?
O11 N2 C7 119.4(3) . . ?
O11 N2 C3 119.4(3) . . ?
C3 N2 C7 121.2(3) . . ?
O21 N12 C17 119.3(3) . . ?
O21 N12 C13 119.8(3) . . ?
C17 N12 C13 120.9(3) . . ?
N2 C7 C6 119.3(4) . . ?
C27 N28 C30 121.6(4) . . ?
C27 N28 C29 120.3(5) . . ?
C29 N28 C30 117.8(4) . . ?
O20 C18 Dy1 53.70(18) . . ?
O20 C18 O19 121.8(3) . 3_766 ?
O20 C18 C15 118.8(3) . . ?
O19 C18 Dy1 69.5(2) 3_766 . ?
O19 C18 C15 119.2(3) 3_766 . ?
C15 C18 Dy1 161.3(3) . . ?
C3 C4 C5 120.3(4) . . ?
C7 C6 C5 121.2(4) . . ?
C13 C14 C15 120.2(4) 4_565 . ?
C4 C5 C8 120.5(4) . . ?
C6 C5 C4 117.4(4) . . ?
C6 C5 C8 122.0(3) . . ?
O10 C8 O9 126.6(4) 1_455 . ?
O10 C8 C5 117.2(3) 1_455 . ?
O9 C8 C5 116.2(3) . . ?
N23 O25 Dy1 94.4(2) . . ?
N2 C3 C4 120.5(4) . . ?
C14 C15 C18 121.1(4) . . ?
C14 C15 C16 118.4(4) . 4_565 ?
C16 C15 C18 120.4(4) 4_565 . ?
N12 C17 C16 120.4(4) . . ?
C17 C16 C15 119.6(4) . 4_566 ?
N12 C13 C14 120.5(4) . 4_566 ?
O26 C27 N28 125.9(6) . . ?

