####################################################################### 
# 
# This file contains crystal structure data downloaded from the 
# Cambridge Structural Database (CSD) hosted by the Cambridge 
# Crystallographic Data Centre (CCDC).
# 
# Full information about CCDC data access policies and citation 
# guidelines are available at http://www.ccdc.cam.ac.uk/access/V1 
# 
# Audit and citation data items may have been added by the CCDC. 
# Please retain this information to preserve the provenance of 
# this file and to allow appropriate attribution of the data. 
# 
#######################################################################

data_FJU-12
_audit_block_doi                 10.5517/cc14501c
_database_code_depnum_ccdc_archive 'CCDC 1047491'
loop_
_citation_id
_citation_doi
_citation_year
1 10.1021/acs.cgd.5b00473 2015
_audit_update_record             
;
2015-02-05 deposited with the CCDC.	2024-07-09 downloaded from the CCDC.
;
_audit_creation_date             2015-02-05
_audit_creation_method           
;
Olex2 1.2
(compiled 2014.05.21 svn.r2940 for OlexSys, GUI svn.r4846)
;
_shelxl_version_number           2013-2
_chemical_name_common            ?
_chemical_name_systematic        FJU-12
_chemical_formula_moiety         '0.13(C352 H240 Cd48 N96 O168)'
_chemical_formula_sum            'C44 H30 Cd6 N12 O21'
_chemical_formula_weight         1737.20
_chemical_melting_point          ?
loop_
_atom_type_symbol
_atom_type_description
_atom_type_scat_dispersion_real
_atom_type_scat_dispersion_imag
_atom_type_scat_source
C C 0.0181 0.0091 'International Tables Vol C Tables 4.2.6.8 and 6.1.1.4'
H H 0.0000 0.0000 'International Tables Vol C Tables 4.2.6.8 and 6.1.1.4'
Cd Cd 0.1185 4.6533 'International Tables Vol C Tables 4.2.6.8 and 6.1.1.4'
N N 0.0311 0.0180 'International Tables Vol C Tables 4.2.6.8 and 6.1.1.4'
O O 0.0492 0.0322 'International Tables Vol C Tables 4.2.6.8 and 6.1.1.4'

_shelx_space_group_comment       
;
The symmetry employed for this shelxl refinement is uniquely defined
by the following loop, which should always be used as a source of
symmetry information in preference to the above space-group names.
They are only intended as comments.
;
_space_group_crystal_system      orthorhombic
_space_group_IT_number           66
_space_group_name_H-M_alt        'C c c m'
_space_group_name_Hall           '-C 2 2c'
loop_
_space_group_symop_operation_xyz
'x, y, z'
'-x, -y, z'
'x, -y, -z+1/2'
'-x, y, -z+1/2'
'x+1/2, y+1/2, z'
'-x+1/2, -y+1/2, z'
'x+1/2, -y+1/2, -z+1/2'
'-x+1/2, y+1/2, -z+1/2'
'-x, -y, -z'
'x, y, -z'
'-x, y, z-1/2'
'x, -y, z-1/2'
'-x+1/2, -y+1/2, -z'
'x+1/2, y+1/2, -z'
'-x+1/2, y+1/2, z-1/2'
'x+1/2, -y+1/2, z-1/2'

_cell_length_a                   20.7471(5)
_cell_length_b                   26.2764(6)
_cell_length_c                   36.8943(5)
_cell_angle_alpha                90
_cell_angle_beta                 90
_cell_angle_gamma                90
_cell_volume                     20113.3(7)
_cell_formula_units_Z            8
_cell_measurement_reflns_used    ?
_cell_measurement_temperature    99.99(10)
_cell_measurement_theta_max      ?
_cell_measurement_theta_min      ?
_shelx_estimated_absorpt_T_max   ?
_shelx_estimated_absorpt_T_min   ?
_exptl_absorpt_coefficient_mu    10.398
_exptl_absorpt_correction_T_max  1.00000
_exptl_absorpt_correction_T_min  0.45325
_exptl_absorpt_correction_type   multi-scan
_exptl_absorpt_process_details   
'CrysAlisPro, Agilent Technologies, Version 1.171.37.31 (release 14-01-2014 CrysAlis171 .NET) (compiled Jan 14 2014,18:38:05) Empirical absorption correction using spherical harmonics, implemented in SCALE3 ABSPACK scaling algorithm.'
_exptl_crystal_colour            colourless
_exptl_crystal_colour_primary    colourless
_exptl_crystal_density_diffrn    1.147
_exptl_crystal_density_meas      ?
_exptl_crystal_density_method    ?
_exptl_crystal_description       plate
_exptl_crystal_F_000             6672
_exptl_crystal_size_max          0.19
_exptl_crystal_size_mid          0.18
_exptl_crystal_size_min          0.07
_exptl_special_details           
;
 ?
;
_exptl_transmission_factor_max   ?
_exptl_transmission_factor_min   ?
_diffrn_reflns_av_R_equivalents  0.0626
_diffrn_reflns_av_unetI/netI     0.0558
_diffrn_reflns_Laue_measured_fraction_full 0.987
_diffrn_reflns_Laue_measured_fraction_max 1.000
_diffrn_reflns_limit_h_max       24
_diffrn_reflns_limit_h_min       -17
_diffrn_reflns_limit_k_max       24
_diffrn_reflns_limit_k_min       -31
_diffrn_reflns_limit_l_max       39
_diffrn_reflns_limit_l_min       -44
_diffrn_reflns_number            29018
_diffrn_reflns_point_group_measured_fraction_full 0.987
_diffrn_reflns_point_group_measured_fraction_max 1.000
_diffrn_reflns_theta_full        67.684
_diffrn_reflns_theta_max         67.076
_diffrn_reflns_theta_min         2.966
_diffrn_ambient_temperature      99.99(10)
_diffrn_detector_area_resol_mean ?
_diffrn_measured_fraction_theta_full 0.987
_diffrn_measured_fraction_theta_max 1.000
_diffrn_measurement_device_type  'SuperNova, Dual, Cu at zero, Atlas'
_diffrn_measurement_method       ?
_diffrn_radiation_type           CuK\a
_diffrn_radiation_wavelength     1.54184
_diffrn_source                   ?
_reflns_Friedel_coverage         0.000
_reflns_Friedel_fraction_full    .
_reflns_Friedel_fraction_max     .
_reflns_number_gt                7291
_reflns_number_total             9143
_reflns_special_details          
;
 Reflections were merged by SHELXL according to the crystal
 class for the calculation of statistics and refinement.
 
 Structure factors included contributions from the .fab file.
 
 _reflns_Friedel_fraction is defined as the number of unique
 Friedel pairs measured divided by the number that would be
 possible theoretically, ignoring centric projections and
 systematic absences.
;
_reflns_threshold_expression     'I > 2\s(I)'
_computing_cell_refinement       ?
_computing_data_collection       ?
_computing_data_reduction        ?
_computing_molecular_graphics    'Olex2 (Dolomanov et al., 2009)'
_computing_publication_material  'Olex2 (Dolomanov et al., 2009)'
_computing_structure_refinement  'ShelXL (Sheldrick, 2008)'
_computing_structure_solution    ?
_refine_diff_density_max         2.414
_refine_diff_density_min         -1.176
_refine_diff_density_rms         0.136
_refine_ls_extinction_coef       .
_refine_ls_extinction_method     none
_refine_ls_goodness_of_fit_ref   1.048
_refine_ls_hydrogen_treatment    constr
_refine_ls_matrix_type           full
_refine_ls_number_parameters     378
_refine_ls_number_reflns         9143
_refine_ls_number_restraints     294
_refine_ls_R_factor_all          0.0722
_refine_ls_R_factor_gt           0.0616
_refine_ls_restrained_S_all      1.091
_refine_ls_shift/su_max          0.000
_refine_ls_shift/su_mean         0.000
_refine_ls_structure_factor_coef Fsqd
_refine_ls_weighting_details     
;
 w=1/[\s^2^(Fo^2^)+(0.0999P)^2^+61.4763P]
 where P=(Fo^2^+2Fc^2^)/3
;
_refine_ls_weighting_scheme      calc
_refine_ls_wR_factor_gt          0.1698
_refine_ls_wR_factor_ref         0.1782
_refine_special_details          SQUEEZE
_olex2_refinement_description    
;
1. Fixed Uiso
 At 1.2 times of:
  All C(H) groups
 At 1.5 times of:
  All O(H,H) groups
2. Rigid bond restraints
 O11
 with sigma for 1-2 distances of 0.01 and sigma for 1-3 distances of 0.01
 O11
 with sigma for 1-2 distances of 0.01 and sigma for 1-3 distances of 0.01
3. Uiso/Uaniso restraints and constraints
O6 \\sim C16 \\sim O7 \\sim C17 \\sim C18 \\sim C18 \\sim C17 \\sim C19 \\sim
C19 \\sim C16 \\sim O7 \\sim O6: within 1.7A with sigma of 0.04 and sigma for
terminal atoms of 0.08
O11: within 1.7A with sigma of 0.04 and sigma for terminal atoms of 0.08
O11: within 1.7A with sigma of 0.04 and sigma for terminal atoms of 0.08
All non-hydrogen atoms restrained to be isotropic: with sigma of 0.01 and sigma
for terminal atoms of 0.02
4.a Rotating group:
 O10(H10A,H10B)
4.b Aromatic/amide H refined with riding coordinates:
 C1(H1), C7(H7), C2(H2), C3(H3), C11(H11), C10(H10), C23(H23), C22(H22),
 C18(H18), C15(H15), C14(H14), C4(H4), C19(H19)
;
_atom_sites_solution_hydrogens   mixed
_atom_sites_solution_primary     ?
_atom_sites_solution_secondary   ?
loop_
_atom_site_label
_atom_site_type_symbol
_atom_site_fract_x
_atom_site_fract_y
_atom_site_fract_z
_atom_site_U_iso_or_equiv
_atom_site_adp_type
_atom_site_occupancy
_atom_site_site_symmetry_order
_atom_site_calc_flag
_atom_site_refinement_flags_posn
_atom_site_refinement_flags_adp
_atom_site_refinement_flags_occupancy
_atom_site_disorder_assembly
_atom_site_disorder_group
Cd1 Cd 0.23151(2) 0.0000 0.2500 0.03342(17) Uani 1 2 d S T P . .
Cd2 Cd 0.20251(2) -0.06060(2) 0.15126(2) 0.04340(16) Uani 1 1 d . . . . .
Cd3 Cd 0.07923(3) 0.16344(2) 0.15047(2) 0.04659(16) Uani 1 1 d . . . . .
Cd4 Cd 0.0000 0.19109(4) 0.2500 0.0621(3) Uani 1 2 d S T P . .
O9 O 0.0983(2) 0.19111(17) 0.21922(12) 0.0420(10) Uani 1 1 d . . . . .
O2 O 0.2320(2) -0.07845(19) 0.22100(13) 0.0477(11) Uani 1 1 d . . . . .
N3 N 0.1269(3) 0.0931(2) 0.16985(15) 0.0450(13) Uani 1 1 d . . . . .
O3 O 0.2735(3) -0.1179(2) 0.17332(14) 0.0634(15) Uani 1 1 d . . . . .
N6 N -0.1179(3) 0.1122(2) 0.16836(16) 0.0483(14) Uani 1 1 d . . . . .
N2 N 0.1621(3) 0.0124(2) 0.17207(14) 0.0414(13) Uani 1 1 d . . . . .
O1 O 0.3327(2) 0.0120(2) 0.22122(15) 0.0547(13) Uani 1 1 d . . . . .
C1 C 0.1336(3) 0.0475(3) 0.15237(16) 0.0444(16) Uani 1 1 d . . . . .
H1 H 0.1193 0.0419 0.1288 0.053 Uiso 1 1 calc R . . . .
O5 O 0.1467(3) -0.0390(2) 0.09523(13) 0.0639(15) Uani 1 1 d . . . . .
N1 N 0.1753(2) 0.0357(2) 0.20465(13) 0.0374(12) Uani 1 1 d . . . . .
C21 C 0.1534(4) 0.2697(3) 0.22714(19) 0.0477(16) Uani 1 1 d . . . . .
N4 N -0.0209(3) 0.1476(3) 0.16843(17) 0.0516(15) Uani 1 1 d . . . . .
O10 O 0.3027(3) -0.0094(3) 0.14774(19) 0.083(2) Uani 1 1 d . . . . .
H10A H 0.2948 0.0257 0.1463 0.124 Uiso 1 1 d GR . . . .
H10B H 0.3284 -0.0171 0.1275 0.124 Uiso 1 1 d GR . . . .
C5 C 0.3587(5) 0.0000 0.2500 0.051(2) Uani 1 2 d S T P . .
C6 C 0.4331(4) 0.0000 0.2500 0.046(2) Uani 1 2 d S T P . .
C7 C 0.4666(3) -0.0002(4) 0.2175(2) 0.061(2) Uani 1 1 d . . . . .
H7 H 0.4442 -0.0006 0.1957 0.073 Uiso 1 1 calc R . . . .
C2 C 0.1535(3) 0.0826(3) 0.20192(16) 0.0399(14) Uani 1 1 d . . . . .
H2 H 0.1564 0.1063 0.2206 0.048 Uiso 1 1 calc R . . . .
O6 O 0.0525(3) 0.1179(2) 0.09460(13) 0.0653(15) Uani 1 1 d . . . . .
O8 O 0.1309(4) 0.2317(3) 0.17069(16) 0.081(2) Uani 1 1 d . . . . .
C3 C -0.0636(4) 0.1204(3) 0.1506(2) 0.0548(19) Uani 1 1 d . . . . .
H3 H -0.0561 0.1080 0.1274 0.066 Uiso 1 1 calc R . . . .
O4 O 0.2289(3) -0.0901(3) 0.09450(15) 0.0775(18) Uani 1 1 d . . . . .
C12 C 0.1868(4) -0.0654(3) 0.07849(19) 0.0539(19) Uani 1 1 d . . . . .
O7 O 0.0970(6) 0.1889(4) 0.0948(2) 0.143(4) Uani 1 1 d . . . . .
C13 C 0.1835(4) -0.0680(3) 0.0380(2) 0.0562(19) Uani 1 1 d . . . . .
C20 C 0.1260(4) 0.2287(3) 0.2047(2) 0.0562(19) Uani 1 1 d . . . . .
N5 N -0.0499(3) 0.1587(3) 0.20103(18) 0.0578(17) Uani 1 1 d . . . . .
C11 C 0.3003(4) -0.1474(3) 0.2673(2) 0.060(2) Uani 1 1 d . . . . .
H11 H 0.2859 -0.1175 0.2781 0.072 Uiso 1 1 calc R . . . .
C10 C 0.3160(4) -0.1971(3) 0.2150(2) 0.057(2) Uani 1 1 d . . . . .
H10 H 0.3137 -0.2009 0.1899 0.068 Uiso 1 1 calc R . . . .
C23 C 0.1731(5) 0.3146(3) 0.2115(2) 0.063(2) Uani 1 1 d . . . . .
H23 H 0.1686 0.3194 0.1866 0.076 Uiso 1 1 calc R . . . .
C22 C 0.1592(4) 0.2640(3) 0.2639(2) 0.0561(19) Uani 1 1 d . . . . .
H22 H 0.1463 0.2337 0.2748 0.067 Uiso 1 1 calc R . . . .
C9 C 0.2951(3) -0.1534(3) 0.23067(17) 0.0415(15) Uani 1 1 d . . . . .
C18 C 0.0475(4) 0.1121(3) 0.01893(19) 0.0584(19) Uani 1 1 d . . . . .
H18 H 0.0283 0.0853 0.0314 0.070 Uiso 1 1 calc R . . . .
C15 C 0.1343(4) -0.0417(4) 0.0189(2) 0.065(2) Uani 1 1 d . . . . .
H15 H 0.1022 -0.0246 0.0315 0.078 Uiso 1 1 calc R . . . .
C14 C 0.2276(5) -0.0962(4) 0.0191(2) 0.071(2) Uani 1 1 d . . . . .
H14 H 0.2579 -0.1155 0.0316 0.085 Uiso 1 1 calc R . . . .
C17 C 0.0755(6) 0.1511(5) 0.0378(3) 0.089(3) Uani 1 1 d . . . . .
C8 C 0.2661(3) -0.1135(3) 0.20689(19) 0.0447(16) Uani 1 1 d . . . . .
C4 C -0.1066(4) 0.1372(3) 0.1997(2) 0.0560(19) Uani 1 1 d . . . . .
H4 H -0.1364 0.1390 0.2186 0.067 Uiso 1 1 calc R . . . .
C16 C 0.0775(5) 0.1512(5) 0.0786(2) 0.078(3) Uani 1 1 d . . . . .
C19 C 0.1063(9) 0.1882(7) 0.0199(5) 0.160(6) Uani 1 1 d . . . . .
H19 H 0.1276 0.2138 0.0325 0.192 Uiso 1 1 calc R . . . .
O11 O 0.0000 0.2762(7) 0.2500 0.188(8) Uani 1 2 d S TU P . .

loop_
_atom_site_aniso_label
_atom_site_aniso_U_11
_atom_site_aniso_U_22
_atom_site_aniso_U_33
_atom_site_aniso_U_23
_atom_site_aniso_U_13
_atom_site_aniso_U_12
Cd1 0.0219(2) 0.0578(4) 0.0205(3) 0.0048(2) 0.000 0.000
Cd2 0.0545(3) 0.0576(3) 0.0181(2) 0.00547(18) 0.00352(15) 0.0127(2)
Cd3 0.0703(3) 0.0495(3) 0.0200(2) 0.00118(17) -0.00831(18) -0.0035(2)
Cd4 0.0617(4) 0.1061(7) 0.0183(3) 0.000 -0.0035(3) 0.000
O9 0.054(3) 0.039(3) 0.033(2) 0.0042(18) 0.0035(18) -0.006(2)
O2 0.046(2) 0.056(3) 0.042(2) 0.004(2) 0.0093(19) 0.011(2)
N3 0.053(3) 0.051(3) 0.031(3) -0.006(2) -0.010(2) 0.009(3)
O3 0.069(3) 0.086(4) 0.035(2) 0.003(3) 0.005(2) 0.043(3)
N6 0.058(3) 0.051(3) 0.036(3) -0.010(2) 0.005(2) 0.005(3)
N2 0.039(3) 0.062(4) 0.024(2) -0.001(2) -0.0036(19) 0.017(2)
O1 0.0241(19) 0.086(4) 0.054(3) 0.002(3) 0.0032(19) -0.001(2)
C1 0.047(3) 0.063(4) 0.023(3) 0.000(3) -0.010(2) 0.008(3)
O5 0.095(4) 0.073(3) 0.023(2) 0.000(2) 0.004(2) 0.021(3)
N1 0.035(2) 0.054(3) 0.023(2) -0.002(2) -0.0114(18) 0.008(2)
C21 0.059(4) 0.042(4) 0.042(3) 0.008(3) -0.002(3) -0.014(3)
N4 0.057(3) 0.054(4) 0.044(3) -0.013(3) 0.008(3) -0.003(3)
O10 0.064(4) 0.122(6) 0.063(4) 0.005(4) 0.013(3) -0.018(4)
C5 0.034(4) 0.072(6) 0.046(5) 0.001(4) 0.000 0.000
C6 0.031(4) 0.055(5) 0.053(5) -0.001(4) 0.000 0.000
C7 0.035(3) 0.097(6) 0.051(4) 0.001(4) -0.001(3) 0.000(4)
C2 0.049(3) 0.047(4) 0.024(3) -0.001(2) -0.010(2) 0.006(3)
O6 0.088(4) 0.082(4) 0.026(2) 0.009(2) -0.002(2) 0.007(3)
O8 0.131(5) 0.075(4) 0.038(3) -0.002(3) 0.001(3) -0.045(4)
C3 0.063(4) 0.059(4) 0.042(4) -0.024(3) 0.004(3) 0.011(3)
O4 0.095(4) 0.106(5) 0.032(3) 0.004(3) -0.003(3) 0.024(4)
C12 0.072(4) 0.062(4) 0.027(3) 0.006(3) 0.010(3) 0.014(4)
O7 0.224(8) 0.149(7) 0.056(4) 0.012(5) -0.007(5) -0.093(6)
C13 0.080(5) 0.057(4) 0.032(3) 0.002(3) 0.007(3) 0.015(4)
C20 0.071(4) 0.058(4) 0.040(4) -0.003(3) 0.003(3) -0.016(4)
N5 0.062(4) 0.067(4) 0.044(3) -0.026(3) 0.003(3) 0.000(3)
C11 0.081(5) 0.059(4) 0.039(4) -0.003(3) 0.003(3) 0.025(4)
C10 0.067(4) 0.069(5) 0.035(3) -0.013(3) -0.013(3) 0.022(4)
C23 0.100(6) 0.059(5) 0.030(3) -0.005(3) -0.001(3) -0.027(4)
C22 0.066(4) 0.060(4) 0.042(3) 0.009(3) -0.012(3) -0.029(4)
C9 0.040(3) 0.053(4) 0.032(3) -0.007(3) 0.006(2) 0.020(3)
C18 0.068(4) 0.078(5) 0.029(3) 0.003(3) -0.005(3) -0.012(4)
C15 0.076(5) 0.084(5) 0.035(4) 0.002(4) 0.009(3) 0.018(4)
C14 0.085(5) 0.088(6) 0.040(4) 0.010(4) -0.004(4) 0.025(5)
C17 0.114(6) 0.111(7) 0.042(4) 0.004(4) 0.005(4) -0.044(5)
C8 0.032(3) 0.061(4) 0.041(3) 0.001(3) 0.006(2) 0.008(3)
C4 0.059(4) 0.062(5) 0.048(4) -0.023(3) 0.007(3) -0.007(4)
C16 0.101(6) 0.101(6) 0.032(4) -0.009(4) -0.009(4) -0.033(5)
C19 0.200(10) 0.165(9) 0.116(9) -0.013(8) -0.004(8) -0.063(8)
O11 0.099(9) 0.136(11) 0.331(19) 0.000 0.054(12) 0.000

_geom_special_details            
;
 All esds (except the esd in the dihedral angle between two l.s. planes)
 are estimated using the full covariance matrix.  The cell esds are taken
 into account individually in the estimation of esds in distances, angles
 and torsion angles; correlations between esds in cell parameters are only
 used when they are defined by crystal symmetry.  An approximate (isotropic)
 treatment of cell esds is used for estimating esds involving l.s. planes.
;
loop_
_geom_bond_atom_site_label_1
_geom_bond_atom_site_label_2
_geom_bond_distance
_geom_bond_site_symmetry_2
_geom_bond_publ_flag
Cd1 O2 2.323(5) . ?
Cd1 O2 2.323(5) 3 ?
Cd1 O1 2.374(4) . ?
Cd1 O1 2.374(4) 3 ?
Cd1 N1 2.245(5) . ?
Cd1 N1 2.245(5) 3 ?
Cd1 C5 2.638(10) . ?
Cd2 O3 2.259(5) . ?
Cd2 N6 2.305(6) 2 ?
Cd2 N2 2.229(6) . ?
Cd2 O5 2.436(5) . ?
Cd2 O10 2.480(7) . ?
Cd2 O4 2.299(6) . ?
Cd2 C12 2.707(7) . ?
Cd3 N3 2.215(6) . ?
Cd3 N4 2.220(6) . ?
Cd3 O6 2.447(6) . ?
Cd3 O8 2.218(6) . ?
Cd3 O7 2.191(9) . ?
Cd