####################################################################### 
# 
# This file contains crystal structure data downloaded from the 
# Cambridge Structural Database (CSD) hosted by the Cambridge 
# Crystallographic Data Centre (CCDC).
# 
# Full information about CCDC data access policies and citation 
# guidelines are available at http://www.ccdc.cam.ac.uk/access/V1 
# 
# Audit and citation data items may have been added by the CCDC. 
# Please retain this information to preserve the provenance of 
# this file and to allow appropriate attribution of the data. 
# 
#######################################################################

data_ZnBTCA
_audit_block_doi                 10.5517/cc145cnb
_database_code_depnum_ccdc_archive 'CCDC 1047851'
loop_
_citation_id
_citation_doi
_citation_year
1 10.1002/anie.201502045 2015
_audit_update_record             
;
2015-02-05 deposited with the CCDC.	2024-07-09 downloaded from the CCDC.
;

_audit_creation_method           SHELXL-97
_chemical_name_systematic        
; 
 ? 
;
_chemical_name_common            ?
_chemical_melting_point          ?
_chemical_formula_moiety         ?
_chemical_formula_sum            'C23 H12 N5 O13 Zn3'
_chemical_formula_weight         762.49

loop_
_atom_type_symbol
_atom_type_description
_atom_type_scat_dispersion_real
_atom_type_scat_dispersion_imag
_atom_type_scat_source
C C 0.0033 0.0016 'International Tables Vol C Tables 4.2.6.8 and 6.1.1.4'
H H 0.0000 0.0000 'International Tables Vol C Tables 4.2.6.8 and 6.1.1.4'
N N 0.0061 0.0033 'International Tables Vol C Tables 4.2.6.8 and 6.1.1.4'
O O 0.0106 0.0060 'International Tables Vol C Tables 4.2.6.8 and 6.1.1.4'
Zn Zn 0.2839 1.4301 'International Tables Vol C Tables 4.2.6.8 and 6.1.1.4'

_symmetry_cell_setting           monoclinic
_symmetry_space_group_name_H-M   P21/n

loop_
_symmetry_equiv_pos_as_xyz
'x, y, z'
'-x+1/2, y+1/2, -z+1/2'
'-x, -y, -z'
'x-1/2, -y-1/2, z-1/2'

_cell_length_a                   14.4022(8)
_cell_length_b                   25.9200(12)
_cell_length_c                   17.4395(10)
_cell_angle_alpha                90.00
_cell_angle_beta                 107.384(6)
_cell_angle_gamma                90.00
_cell_volume                     6212.9(6)
_cell_formula_units_Z            4
_cell_measurement_temperature    293(2)
_cell_measurement_reflns_used    4654
_cell_measurement_theta_min      2.8431
_cell_measurement_theta_max      28.0842

_exptl_crystal_description       prism-like
_exptl_crystal_colour            colorless
_exptl_crystal_size_max          0.3
_exptl_crystal_size_mid          0.25
_exptl_crystal_size_min          0.25
_exptl_crystal_density_meas      ?
_exptl_crystal_density_diffrn    0.815
_exptl_crystal_density_method    'not measured'
_exptl_crystal_F_000             1516
_exptl_absorpt_coefficient_mu    1.183
_exptl_absorpt_correction_type   multi-scan
_exptl_absorpt_correction_T_min  0.73209
_exptl_absorpt_correction_T_max  1.00000
_exptl_absorpt_process_details   
;
CrysAlisPro, Agilent Technologies,
Version 1.171.36.21 (release 14-08-2012 CrysAlis171 .NET)
(compiled Sep 14 2012,17:21:16)
Empirical absorption correction using spherical harmonics,
 implemented in SCALE3 ABSPACK scaling algorithm.
;
_exptl_special_details           
; 
 ? 
;

_diffrn_ambient_temperature      293(2)
_diffrn_radiation_wavelength     0.71073
_diffrn_radiation_type           MoK\a
_diffrn_radiation_source         'fine-focus sealed tube'
_diffrn_radiation_monochromator  graphite
_diffrn_measurement_device_type  'Xcalibur, Atlas, Gemini'
_diffrn_measurement_method       '\w scans'
_diffrn_detector_area_resol_mean 10.4098
_diffrn_standards_number         ?
_diffrn_standards_interval_count ?
_diffrn_standards_interval_time  ?
_diffrn_standards_decay_%        ?
_diffrn_reflns_number            41679
_diffrn_reflns_av_R_equivalents  0.0792
_diffrn_reflns_av_sigmaI/netI    0.0867
_diffrn_reflns_limit_h_min       -15
_diffrn_reflns_limit_h_max       17
_diffrn_reflns_limit_k_min       -28
_diffrn_reflns_limit_k_max       30
_diffrn_reflns_limit_l_min       -20
_diffrn_reflns_limit_l_max       20
_diffrn_reflns_theta_min         2.86
_diffrn_reflns_theta_max         25.00
_reflns_number_total             10906
_reflns_number_gt                6695
_reflns_threshold_expression     >2sigma(I)

_computing_data_collection       
;
CrysAlisPro, Agilent Technologies,
Version 1.171.36.21 (release 14-08-2012 CrysAlis171 .NET)
(compiled Sep 14 2012,17:21:16)
;
_computing_cell_refinement       
;
CrysAlisPro, Agilent Technologies,
Version 1.171.36.21 (release 14-08-2012 CrysAlis171 .NET)
(compiled Sep 14 2012,17:21:16)
;
_computing_data_reduction        
;
CrysAlisPro, Agilent Technologies,
Version 1.171.36.21 (release 14-08-2012 CrysAlis171 .NET)
(compiled Sep 14 2012,17:21:16)
;
_computing_structure_solution    'SHELXS-97 (Sheldrick, 1990)'
_computing_structure_refinement  'SHELXL-97 (Sheldrick, 1997)'
_computing_molecular_graphics    Olex-2
_computing_publication_material  Olex-2

_refine_special_details          
; 
 Refinement of F^2^ against ALL reflections.  The weighted R-factor wR and 
 goodness of fit S are based on F^2^, conventional R-factors R are based 
 on F, with F set to zero for negative F^2^. The threshold expression of 
 F^2^ > 2sigma(F^2^) is used only for calculating R-factors(gt) etc. and is 
 not relevant to the choice of reflections for refinement.  R-factors based 
 on F^2^ are statistically about twice as large as those based on F, and R- 
 factors based on ALL data will be even larger. 
;

_refine_ls_structure_factor_coef Fsqd
_refine_ls_matrix_type           full
_refine_ls_weighting_scheme      calc
_refine_ls_weighting_details     
'calc w=1/[\s^2^(Fo^2^)+(0.1000P)^2^+0.0000P] where P=(Fo^2^+2Fc^2^)/3'
_atom_sites_solution_primary     direct
_atom_sites_solution_secondary   difmap
_atom_sites_solution_hydrogens   geom
_refine_ls_hydrogen_treatment    mixed
_refine_ls_extinction_method     none
_refine_ls_extinction_coef       ?
_refine_ls_number_reflns         10906
_refine_ls_number_parameters     398
_refine_ls_number_restraints     0
_refine_ls_R_factor_all          0.1381
_refine_ls_R_factor_gt           0.0847
_refine_ls_wR_factor_ref         0.2693
_refine_ls_wR_factor_gt          0.2466
_refine_ls_goodness_of_fit_ref   1.481
_refine_ls_restrained_S_all      1.481
_refine_ls_shift/su_max          0.001
_refine_ls_shift/su_mean         0.000

loop_
_atom_site_label
_atom_site_type_symbol
_atom_site_fract_x
_atom_site_fract_y
_atom_site_fract_z
_atom_site_U_iso_or_equiv
_atom_site_adp_type
_atom_site_occupancy
_atom_site_symmetry_multiplicity
_atom_site_calc_flag
_atom_site_refinement_flags
_atom_site_disorder_assembly
_atom_site_disorder_group
Zn1 Zn 0.83466(6) 0.00072(3) 0.12570(5) 0.0460(3) Uani 1 1 d . . .
Zn2 Zn 0.89769(6) 0.06598(3) 0.31073(5) 0.0459(3) Uani 1 1 d . . .
Zn3 Zn 1.04064(6) 0.31969(3) 0.77347(5) 0.0463(3) Uani 1 1 d . . .
O3 O 0.9379(5) 0.0707(3) 0.4270(3) 0.0747(18) Uani 1 1 d . . .
O6 O 1.0464(4) 0.24519(19) 0.7570(3) 0.0621(15) Uani 1 1 d . . .
O12 O 0.7624(5) 0.4351(3) 0.4838(4) 0.0758(18) Uani 1 1 d . . .
O7 O 0.9232(4) 0.3584(2) 0.7441(4) 0.0790(19) Uani 1 1 d . . .
O9 O 0.5127(4) 0.4171(3) 0.7793(3) 0.0748(18) Uani 1 1 d . . .
C6 C 0.9442(6) 0.1176(4) 0.4499(5) 0.058(2) Uani 1 1 d . . .
C13 C 0.9791(6) 0.1754(3) 0.5685(5) 0.057(2) Uani 1 1 d . . .
H13 H 0.9536 0.2026 0.5337 0.069 Uiso 1 1 calc R . .
O5 O 0.9725(6) 0.2729(2) 0.6334(4) 0.097(2) Uani 1 1 d . . .
O4 O 0.9194(5) 0.1541(3) 0.4027(4) 0.0828(19) Uani 1 1 d . . .
O10 O 0.4363(4) 0.4450(2) 0.6569(3) 0.0673(16) Uani 1 1 d . . .
C19 C 0.6055(6) 0.4379(3) 0.6109(5) 0.055(2) Uani 1 1 d . . .
H19 H 0.5534 0.4562 0.5776 0.067 Uiso 1 1 calc R . .
C18 C 0.5995(6) 0.4183(3) 0.6836(4) 0.053(2) Uani 1 1 d . . .
O11 O 0.6372(4) 0.4842(2) 0.4744(3) 0.0704(16) Uani 1 1 d . . .
C14 C 1.0103(6) 0.2377(3) 0.6811(6) 0.064(2) Uani 1 1 d . . .
C8 C 1.0208(5) 0.0859(3) 0.5900(5) 0.0512(19) Uani 1 1 d . . .
H8 H 1.0219 0.0527 0.5700 0.061 Uiso 1 1 calc R . .
C7 C 0.9824(5) 0.1256(3) 0.5377(4) 0.0478(18) Uani 1 1 d . . .
C11 C 1.0536(5) 0.1440(3) 0.7039(4) 0.0506(19) Uani 1 1 d . . .
H11 H 1.0767 0.1497 0.7589 0.061 Uiso 1 1 calc R . .
C22 C 0.7642(6) 0.4033(3) 0.6385(5) 0.059(2) Uani 1 1 d . . .
H22 H 0.8195 0.3974 0.6227 0.071 Uiso 1 1 calc R . .
C12 C 1.0139(6) 0.1843(3) 0.6511(5) 0.052(2) Uani 1 1 d . . .
C9 C 1.0578(5) 0.0945(3) 0.6719(4) 0.0480(18) Uani 1 1 d . . .
C17 C 0.6782(6) 0.3916(3) 0.7334(5) 0.060(2) Uani 1 1 d . . .
H17 H 0.6742 0.3783 0.7818 0.072 Uiso 1 1 calc R . .
C21 C 0.6885(6) 0.4303(3) 0.5881(5) 0.053(2) Uani 1 1 d . . .
C20 C 0.5103(6) 0.4276(3) 0.7088(5) 0.058(2) Uani 1 1 d . . .
C16 C 0.7613(6) 0.3846(3) 0.7122(5) 0.063(2) Uani 1 1 d . . .
O8 O 0.8395(6) 0.3289(4) 0.8195(6) 0.162(5) Uani 1 1 d . . .
C23 C 0.6971(7) 0.4507(3) 0.5094(5) 0.058(2) Uani 1 1 d . . .
C15 C 0.8476(7) 0.3541(4) 0.7654(6) 0.077(3) Uani 1 1 d . . .
N3 N 0.7679(4) 0.0905(2) 0.2469(3) 0.0455(15) Uani 1 1 d . . .
N2 N 0.7140(4) 0.0393(2) 0.1244(4) 0.0481(15) Uani 1 1 d . . .
N4 N 0.6313(4) 0.1386(2) 0.2291(3) 0.0451(15) Uani 1 1 d . . .
N5 N 0.4634(4) 0.1261(3) 0.0708(4) 0.0613(19) Uani 1 1 d . . .
H5A H 0.4183 0.1192 0.0271 0.074 Uiso 1 1 calc R . .
H5B H 0.4564 0.1514 0.1006 0.074 Uiso 1 1 calc R . .
C3 C 0.6201(5) 0.1057(3) 0.1641(4) 0.0452(18) Uani 1 1 d . . .
C4 C 0.7038(5) 0.0759(3) 0.1754(4) 0.0396(16) Uani 1 1 d . . .
N1 N 0.5509(5) 0.0591(3) 0.0436(4) 0.0639(19) Uani 1 1 d . . .
C1 C 0.6331(6) 0.0332(3) 0.0611(5) 0.066(2) Uani 1 1 d . . .
H1 H 0.6361 0.0073 0.0251 0.079 Uiso 1 1 calc R . .
C5 C 0.7202(5) 0.1272(3) 0.2763(4) 0.0496(19) Uani 1 1 d . . .
H5 H 0.7476 0.1431 0.3257 0.060 Uiso 1 1 calc R . .
C2 C 0.5427(5) 0.0982(3) 0.0919(5) 0.052(2) Uani 1 1 d . . .
C10 C 1.0995(6) 0.0502(3) 0.7270(5) 0.055(2) Uani 1 1 d . . .
O1 O 1.1177(4) 0.0566(2) 0.8011(3) 0.0663(16) Uani 1 1 d . . .
O2 O 1.1158(5) 0.0100(2) 0.6951(4) 0.084(2) Uani 1 1 d . . .
OW O 1.1080(5) 0.3242(3) 0.8907(4) 0.088(2) Uani 1 1 d . . .
HWA H 1.0847 0.3411 0.9307 0.132 Uiso 1 1 d R . .
HWB H 1.1707 0.3099 0.9192 0.132 Uiso 1 1 d R . .

loop_
_atom_site_aniso_label
_atom_site_aniso_U_11
_atom_site_aniso_U_22
_atom_site_aniso_U_33
_atom_site_aniso_U_23
_atom_site_aniso_U_13
_atom_site_aniso_U_12
Zn1 0.0516(5) 0.0565(6) 0.0264(5) -0.0088(4) 0.0066(4) 0.0013(4)
Zn2 0.0506(5) 0.0577(6) 0.0241(5) -0.0072(4) 0.0030(4) 0.0058(4)
Zn3 0.0541(5) 0.0399(5) 0.0400(5) 0.0052(4) 0.0062(4) 0.0022(4)
O3 0.095(4) 0.094(5) 0.029(3) -0.016(3) 0.010(3) -0.005(4)
O6 0.088(4) 0.045(3) 0.045(4) -0.009(3) 0.007(3) 0.002(3)
O12 0.076(4) 0.110(5) 0.047(4) 0.011(3) 0.028(3) -0.009(4)
O7 0.065(4) 0.096(5) 0.078(5) 0.033(4) 0.025(4) 0.035(3)
O9 0.063(3) 0.124(5) 0.039(4) 0.026(3) 0.018(3) 0.016(3)
C6 0.064(5) 0.078(7) 0.028(5) -0.009(5) 0.008(4) -0.009(5)
C13 0.067(5) 0.054(5) 0.043(5) 0.004(4) 0.005(4) 0.000(4)
O5 0.147(6) 0.051(4) 0.069(5) 0.008(3) -0.004(4) 0.004(4)
O4 0.095(5) 0.100(5) 0.035(4) 0.007(4) -0.008(3) -0.004(4)
O10 0.063(3) 0.092(4) 0.041(3) 0.014(3) 0.006(3) 0.023(3)
C19 0.060(5) 0.067(5) 0.032(4) 0.015(4) 0.002(4) 0.007(4)
C18 0.060(5) 0.066(5) 0.032(4) 0.015(4) 0.011(4) 0.013(4)
O11 0.088(4) 0.084(4) 0.038(3) 0.023(3) 0.016(3) 0.013(4)
C14 0.076(6) 0.053(5) 0.055(6) -0.006(5) 0.009(5) -0.011(4)
C8 0.062(5) 0.049(5) 0.040(5) -0.017(4) 0.012(4) -0.004(4)
C7 0.050(4) 0.057(5) 0.031(4) -0.008(4) 0.005(3) -0.002(4)
C11 0.070(5) 0.046(5) 0.030(4) -0.007(3) 0.007(4) 0.000(4)
C22 0.056(5) 0.077(6) 0.052(5) 0.012(4) 0.027(4) 0.009(4)
C12 0.076(5) 0.042(4) 0.034(5) -0.006(3) 0.008(4) -0.005(4)
C9 0.056(4) 0.055(5) 0.028(4) -0.007(3) 0.005(3) 0.002(4)
C17 0.063(5) 0.078(6) 0.041(5) 0.023(4) 0.018(4) 0.013(4)
C21 0.064(5) 0.057(5) 0.037(5) 0.011(4) 0.013(4) 0.000(4)
C20 0.054(5) 0.079(6) 0.036(5) 0.017(4) 0.006(4) 0.006(4)
C16 0.059(5) 0.085(6) 0.044(5) 0.028(4) 0.015(4) 0.015(5)
O8 0.104(6) 0.251(12) 0.141(8) 0.155(9) 0.050(6) 0.071(7)
C23 0.068(5) 0.067(6) 0.036(5) -0.001(4) 0.011(5) -0.020(5)
C15 0.065(6) 0.101(8) 0.066(7) 0.035(6) 0.019(5) 0.029(5)
N3 0.042(3) 0.055(4) 0.032(4) -0.004(3) 0.000(3) -0.003(3)
N2 0.047(3) 0.053(4) 0.036(4) -0.013(3) 0.000(3) 0.004(3)
N4 0.048(3) 0.047(4) 0.033(4) -0.012(3) 0.001(3) 0.002(3)
N5 0.042(3) 0.083(5) 0.044(4) -0.027(4) -0.009(3) 0.005(3)
C3 0.045(4) 0.053(5) 0.030(4) -0.004(3) 0.000(3) -0.010(4)
C4 0.039(4) 0.043(4) 0.032(4) -0.008(3) 0.004(3) -0.002(3)
N1 0.060(4) 0.075(5) 0.043(4) -0.022(4) -0.005(3) 0.010(4)
C1 0.064(5) 0.066(6) 0.058(6) -0.023(4) 0.002(5) 0.011(5)
C5 0.058(5) 0.057(5) 0.029(4) -0.008(4) 0.006(4) 0.005(4)
C2 0.044(4) 0.062(5) 0.042(5) -0.012(4) 0.000(4) 0.001(4)
C10 0.072(5) 0.050(5) 0.035(5) -0.013(4) 0.006(4) 0.000(4)
O1 0.095(4) 0.057(3) 0.035(3) -0.006(3) 0.001(3) 0.019(3)
O2 0.151(6) 0.049(4) 0.054(4) -0.007(3) 0.032(4) 0.020(4)
OW 0.088(5) 0.112(6) 0.050(4) 0.005(4) -0.003(3) -0.009(4)

_geom_special_details            
; 
 All esds (except the esd in the dihedral angle between two l.s. planes) 
 are estimated using the full covariance matrix.  The cell esds are taken 
 into account individually in the estimation of esds in distances, angles 
 and torsion angles; correlations between esds in cell parameters are only 
 used when they are defined by crystal symmetry.  An approximate (isotropic) 
 treatment of cell esds is used for estimating esds involving l.s. planes. 
;

loop_
_geom_bond_atom_site_label_1
_geom_bond_atom_site_label_2
_geom_bond_distance
_geom_bond_site_symmetry_2
_geom_bond_publ_flag
Zn1 O1 1.945(5) 3_756 ?
Zn1 O11 1.955(5) 2_645 ?
Zn1 O10 1.986(5) 4_665 ?
Zn1 N2 1.999(6) . ?
Zn2 O3 1.939(5) . ?
Zn2 O9 1.944(5) 4_665 ?
Zn2 N3 1.973(6) . ?
Zn2 O2 1.979(6) 3_756 ?
Zn3 O7 1.901(5) . ?
Zn3 O6 1.958(5) . ?
Zn3 OW 1.986(6) . ?
Zn3 N4 2.019(6) 4_666 ?
O3 C6 1.276(10) . ?
O6 C14 1.284(10) . ?
O12 C23 1.224(10) . ?
O7 C15 1.255(10) . ?
O9 C20 1.250(9) . ?
O9 Zn2 1.944(5) 4_566 ?
C6 O4 1.235(10) . ?
C6 C7 1.477(10) . ?
C13 C12 1.396(10) . ?
C13 C7 1.406(10) . ?
O5 C14 1.244(10) . ?
O10 C20 1.258(9) . ?
O10 Zn1 1.986(5) 4_566 ?
C19 C21 1.382(11) . ?
C19 C18 1.392(10) . ?
C18 C17 1.388(10) . ?
C18 C20 1.497(11) . ?
O11 C23 1.249(10) . ?
O11 Zn1 1.955(5) 2_655 ?
C14 C12 1.485(11) . ?
C8 C7 1.377(10) . ?
C8 C9 1.386(10) . ?
C11 C12 1.398(10) . ?
C11 C9 1.405(10) . ?
C22 C21 1.371(10) . ?
C22 C16 1.386(11) . ?
C9 C10 1.503(11) . ?
C17 C16 1.367(11) . ?
C21 C23 1.510(11) . ?
C16 C15 1.530(11) . ?
O8 C15 1.183(11) . ?
N3 C5 1.361(9) . ?
N3 C4 1.364(8) . ?
N2 C4 1.339(8) . ?
N2 C1 1.353(9) . ?
N4 C5 1.333(9) . ?
N4 C3 1.389(9) . ?
N4 Zn3 2.019(6) 4_565 ?
N5 C2 1.308(9) . ?
C3 C4 1.395(10) . ?
C3 C2 1.423(10) . ?
N1 C1 1.315(10) . ?
N1 C2 1.346(10) . ?
C10 O2 1.236(9) . ?
C10 O1 1.250(9) . ?
O1 Zn1 1.945(5) 3_756 ?
O2 Zn2 1.979(6) 3_756 ?

loop_
_geom_angle_atom_site_label_1
_geom_angle_atom_site_label_2
_geom_angle_atom_site_label_3
_geom_angle
_geom_angle_site_symmetry_1
_geom_angle_site_symmetry_3
_geom_angle_publ_flag
O1 Zn1 O11 107.0(2) 3_756 2_645 ?
O1 Zn1 O10 105.9(3) 3_756 4_665 ?
O11 Zn1 O10 93.8(2) 2_645 4_665 ?
O1 Zn1 N2 121.6(3) 3_756 . ?
O11 Zn1 N2 120.7(3) 2_645 . ?
O10 Zn1 N2 102.5(2) 4_665 . ?
O3 Zn2 O9 105.5(3) . 4_665 ?
O3 Zn2 N3 120.4(3) . . ?
O9 Zn2 N3 120.8(3) 4_665 . ?
O3 Zn2 O2 96.3(3) . 3_756 ?
O9 Zn2 O2 106.8(3) 4_665 3_756 ?
N3 Zn2 O2 103.3(3) . 3_756 ?
O7 Zn3 O6 123.7(3) . . ?
O7 Zn3 OW 111.6(3) . . ?
O6 Zn3 OW 100.4(3) . . ?
O7 Zn3 N4 103.8(2) . 4_666 ?
O6 Zn3 N4 114.3(2) . 4_666 ?
OW Zn3 N4 101.0(2) . 4_666 ?
C6 O3 Zn2 111.0(5) . . ?
C14 O6 Zn3 106.2(5) . . ?
C15 O7 Zn3 130.8(6) . . ?
C20 O9 Zn2 116.9(5) . 4_566 ?
O4 C6 O3 122.8(8) . . ?
O4 C6 C7 121.9(8) . . ?
O3 C6 C7 115.3(8) . . ?
C12 C13 C7 120.2(7) . . ?
C20 O10 Zn1 148.0(6) . 4_566 ?
C21 C19 C18 120.3(7) . . ?
C17 C18 C19 119.4(7) . . ?
C17 C18 C20 120.6(7) . . ?
C19 C18 C20 120.0(7) . . ?
C23 O11 Zn1 106.9(5) . 2_655 ?
O5 C14 O6 122.6(8) . . ?
O5 C14 C12 120.1(8) . . ?
O6 C14 C12 117.2(8) . . ?
C7 C8 C9 121.1(7) . . ?
C8 C7 C13 119.1(7) . . ?
C8 C7 C6 122.3(7) . . ?
C13 C7 C6 118.7(7) . . ?
C12 C11 C9 118.6(7) . . ?
C21 C22 C16 122.3(7) . . ?
C13 C12 C11 120.4(7) . . ?
C13 C12 C14 118.5(7) . . ?
C11 C12 C14 121.1(7) . . ?
C8 C9 C11 120.5(7) . . ?
C8 C9 C10 119.5(7) . . ?
C11 C9 C10 120.0(7) . . ?
C16 C17 C18 121.0(7) . . ?
C22 C21 C19 118.6(7) . . ?
C22 C21 C23 119.7(7) . . ?
C19 C21 C23 121.7(7) . . ?
O9 C20 O10 123.7(7) . . ?
O9 C20 C18 118.6(7) . . ?
O10 C20 C18 117.6(7) . . ?
C17 C16 C22 118.3(7) . . ?
C17 C16 C15 121.6(7) . . ?
C22 C16 C15 120.0(7) . . ?
O12 C23 O11 123.1(8) . . ?
O12 C23 C21 119.8(8) . . ?
O11 C23 C21 117.0(8) . . ?
O8 C15 O7 125.9(8) . . ?
O8 C15 C16 120.9(9) . . ?
O7 C15 C16 113.2(8) . . ?
C5 N3 C4 105.0(6) . . ?
C5 N3 Zn2 120.8(5) . . ?
C4 N3 Zn2 134.0(5) . . ?
C4 N2 C1 112.7(6) . . ?
C4 N2 Zn1 127.9(5) . . ?
C1 N2 Zn1 119.1(5) . . ?
C5 N4 C3 102.9(6) . . ?
C5 N4 Zn3 119.6(5) . 4_565 ?
C3 N4 Zn3 135.3(5) . 4_565 ?
N4 C3 C4 109.8(6) . . ?
N4 C3 C2 132.4(7) . . ?
C4 C3 C2 117.8(7) . . ?
N2 C4 N3 128.7(6) . . ?
N2 C4 C3 124.0(6) . . ?
N3 C4 C3 107.2(6) . . ?
C1 N1 C2 118.7(7) . . ?
N1 C1 N2 128.8(7) . . ?
N4 C5 N3 115.0(6) . . ?
N5 C2 N1 118.2(7) . . ?
N5 C2 C3 124.2(7) . . ?
N1 C2 C3 117.6(7) . . ?
O2 C10 O1 124.5(8) . . ?
O2 C10 C9 116.7(7) . . ?
O1 C10 C9 118.7(7) . . ?
C10 O1 Zn1 120.1(5) . 3_756 ?
C10 O2 Zn2 146.4(6) . 3_756 ?

_diffrn_measured_fraction_theta_max 0.996
_diffrn_reflns_theta_full        25.00
_diffrn_measured_fraction_theta_full 0.996
_refine_diff_density_max         1.109
_refine_diff_density_min         -0.520
_refine_diff_density_rms         0.161

# SQUEEZE RESULTS (AP