####################################################################### 
# 
# This file contains crystal structure data downloaded from the 
# Cambridge Structural Database (CSD) hosted by the Cambridge 
# Crystallographic Data Centre (CCDC).
# 
# Full information about CCDC data access policies and citation 
# guidelines are available at http://www.ccdc.cam.ac.uk/access/V1 
# 
# Audit and citation data items may have been added by the CCDC. 
# Please retain this information to preserve the provenance of 
# this file and to allow appropriate attribution of the data. 
# 
#######################################################################

data_yj-2593-1
_audit_block_doi                 10.5517/cc13zkj5
_database_code_depnum_ccdc_archive 'CCDC 1042267'
loop_
_citation_id
_citation_doi
_citation_year
1 10.1039/C5RA10391F 2015
_audit_update_record             
;
2015-01-06 deposited with the CCDC.	2024-07-09 downloaded from the CCDC.
;
_audit_creation_date             2014-11-21
_audit_creation_method           
;
Olex2 1.2
(compiled 2014.09.19 svn.r3010 for OlexSys, GUI svn.r4874)
;
_chemical_name_common            ?
_chemical_name_systematic        
;
 ? 
;
_chemical_formula_moiety         'C26 H21 N O10 Zn2'
_chemical_formula_sum            'C26 H21 N O10 Zn2'
_chemical_formula_weight         638.18
_chemical_absolute_configuration ad
_chemical_melting_point          ?
_chemical_oxdiff_formula         'C H O Zn'
loop_
_atom_type_symbol
_atom_type_description
_atom_type_scat_dispersion_real
_atom_type_scat_dispersion_imag
_atom_type_scat_source
C C 0.0181 0.0091 'International Tables Vol C Tables 4.2.6.8 and 6.1.1.4'
H H 0.0000 0.0000 'International Tables Vol C Tables 4.2.6.8 and 6.1.1.4'
N N 0.0311 0.0180 'International Tables Vol C Tables 4.2.6.8 and 6.1.1.4'
O O 0.0492 0.0322 'International Tables Vol C Tables 4.2.6.8 and 6.1.1.4'
Zn Zn -1.5491 0.6778 'International Tables Vol C Tables 4.2.6.8 and 6.1.1.4'

_space_group_crystal_system      monoclinic
_space_group_IT_number           4
_space_group_name_H-M_alt        'P 1 21 1'
_space_group_name_Hall           'P 2yb'
loop_
_space_group_symop_id
_space_group_symop_operation_xyz
1 'x, y, z'
2 '-x, y+1/2, -z'

_cell_length_a                   10.19159(13)
_cell_length_b                   16.42204(19)
_cell_length_c                   15.56239(19)
_cell_angle_alpha                90.00
_cell_angle_beta                 107.0727(13)
_cell_angle_gamma                90.00
_cell_volume                     2489.85(5)
_cell_formula_units_Z            2
_cell_measurement_reflns_used    24490
_cell_measurement_temperature    205(70)
_cell_measurement_theta_max      70.3950
_cell_measurement_theta_min      4.0110
_exptl_absorpt_coefficient_mu    1.457
_exptl_absorpt_correction_T_max  1.00000
_exptl_absorpt_correction_T_min  0.51925
_exptl_absorpt_correction_type   multi-scan
_exptl_absorpt_process_details   
;
CrysAlisPro, Agilent Technologies,
Version 1.171.36.32 (release 02-08-2013 CrysAlis171 .NET)
(compiled Aug  2 2013,16:46:58)
Empirical absorption correction using spherical harmonics,
 implemented in SCALE3 ABSPACK scaling algorithm.
;
_exptl_crystal_colour            colourless
_exptl_crystal_colour_primary    colourless
_exptl_crystal_density_diffrn    0.851
_exptl_crystal_density_meas      ?
_exptl_crystal_density_method    'not measured'
_exptl_crystal_description       block
_exptl_crystal_F_000             648
_exptl_crystal_size_max          0.14
_exptl_crystal_size_mid          0.14
_exptl_crystal_size_min          0.13
_exptl_special_details           
;
 ? 
;
_diffrn_reflns_av_R_equivalents  0.0409
_diffrn_reflns_av_unetI/netI     0.0329
_diffrn_reflns_limit_h_max       12
_diffrn_reflns_limit_h_min       -12
_diffrn_reflns_limit_k_max       19
_diffrn_reflns_limit_k_min       -20
_diffrn_reflns_limit_l_max       18
_diffrn_reflns_limit_l_min       -18
_diffrn_reflns_number            39103
_diffrn_reflns_theta_full        70.62
_diffrn_reflns_theta_max         70.62
_diffrn_reflns_theta_min         4.01
_diffrn_ambient_temperature      205(70)
_diffrn_detector_area_resol_mean 16.0450
_diffrn_measured_fraction_theta_full 0.994
_diffrn_measured_fraction_theta_max 0.994
_diffrn_measurement_details      
;
#__ type_ start__ end____ width___ exp.time_
  1 omega    6.00   51.00   1.0000    1.0000
omega____ theta____ kappa____ phi______ frames
    -        0.0000   38.0000  120.0000 45

#__ type_ start__ end____ width___ exp.time_
  2 omega  -42.00   26.00   1.0000    1.0000
omega____ theta____ kappa____ phi______ frames
    -        0.0000  -38.0000  150.0000 68

#__ type_ start__ end____ width___ exp.time_
  3 omega   94.00  126.00   1.0000    1.0000
omega____ theta____ kappa____ phi______ frames
    -       54.0000   38.0000 -180.0000 32

#__ type_ start__ end____ width___ exp.time_
  4 omega   52.00   80.00   1.0000    1.0000
omega____ theta____ kappa____ phi______ frames
    -       54.0000  -38.0000    0.0000 28

#__ type_ start__ end____ width___ exp.time_
  5 omega   24.00  112.00   1.0000    1.0000
omega____ theta____ kappa____ phi______ frames
    -       54.0000 -125.0000  -30.0000 88

#__ type_ start__ end____ width___ exp.time_
  6 omega   36.00   87.00   1.0000    1.0000
omega____ theta____ kappa____ phi______ frames
    -       54.0000   38.0000 -180.0000 51

#__ type_ start__ end____ width___ exp.time_
  7 omega   -9.00   32.00   1.0000    1.0000
omega____ theta____ kappa____ phi______ frames
    -       54.0000  -38.0000    0.0000 41

#__ type_ start__ end____ width___ exp.time_
  8 omega   69.00  120.00   1.0000    1.0000
omega____ theta____ kappa____ phi______ frames
    -       54.0000   57.0000 -120.0000 51

#__ type_ start__ end____ width___ exp.time_
  9 omega   84.00  157.00   1.0000    1.0000
omega____ theta____ kappa____ phi______ frames
    -      108.0000   77.0000  -90.0000 73

#__ type_ start__ end____ width___ exp.time_
 10 omega   37.00   96.00   1.0000    1.0000
omega____ theta____ kappa____ phi______ frames
    -      108.0000  -50.0000  -60.0000 59

#__ type_ start__ end____ width___ exp.time_
 11 omega   38.00   80.00   1.0000    1.0000
omega____ theta____ kappa____ phi______ frames
    -      108.0000  -38.0000  150.0000 42

#__ type_ start__ end____ width___ exp.time_
 12 omega   92.00  122.00   1.0000    1.0000
omega____ theta____ kappa____ phi______ frames
    -      108.0000  -63.0000 -150.0000 30

#__ type_ start__ end____ width___ exp.time_
 13 omega   42.00   69.00   1.0000    1.0000
omega____ theta____ kappa____ phi______ frames
    -      108.0000  -38.0000   60.0000 27

#__ type_ start__ end____ width___ exp.time_
 14 omega   41.00   75.00   1.0000    1.0000
omega____ theta____ kappa____ phi______ frames
    -      108.0000 -111.0000   60.0000 34

#__ type_ start__ end____ width___ exp.time_
 15 omega   39.00   75.00   1.0000    1.0000
omega____ theta____ kappa____ phi______ frames
    -      108.0000  -50.0000  150.0000 36

#__ type_ start__ end____ width___ exp.time_
 16 omega   35.00  147.00   1.0000    1.0000
omega____ theta____ kappa____ phi______ frames
    -      108.0000  -91.0000  150.0000 112

#__ type_ start__ end____ width___ exp.time_
 17 omega   87.00  170.00   1.0000    1.0000
omega____ theta____ kappa____ phi______ frames
    -      108.0000   77.0000  -60.0000 83

#__ type_ start__ end____ width___ exp.time_
 18 omega  -73.00   -4.00   1.0000    1.0000
omega____ theta____ kappa____ phi______ frames
    -        0.0000  -38.0000  -90.0000 69

#__ type_ start__ end____ width___ exp.time_
 19 omega  -36.00  -11.00   1.0000    1.0000
omega____ theta____ kappa____ phi______ frames
    -        0.0000   95.0000 -115.0000 25

#__ type_ start__ end____ width___ exp.time_
 20 omega    0.00   27.00   1.0000    1.0000
omega____ theta____ kappa____ phi______ frames
    -        0.0000   57.0000  -30.0000 27

#__ type_ start__ end____ width___ exp.time_
 21 omega   31.00   59.00   1.0000    1.0000
omega____ theta____ kappa____ phi______ frames
    -        0.0000   57.0000  -30.0000 28

#__ type_ start__ end____ width___ exp.time_
 22 omega   -6.00   71.00   1.0000    1.0000
omega____ theta____ kappa____ phi______ frames
    -       54.0000  -57.0000  150.0000 77

#__ type_ start__ end____ width___ exp.time_
 23 omega   32.00   58.00   1.0000    1.0000
omega____ theta____ kappa____ phi______ frames
    -       54.0000 -125.0000   90.0000 26

#__ type_ start__ end____ width___ exp.time_
 24 omega   21.00   75.00   1.0000    1.0000
omega____ theta____ kappa____ phi______ frames
    -       54.0000  -57.0000   30.0000 54

#__ type_ start__ end____ width___ exp.time_
 25 omega   82.00  108.00   1.0000    1.0000
omega____ theta____ kappa____ phi______ frames
    -       54.0000 -125.0000   90.0000 26

#__ type_ start__ end____ width___ exp.time_
 26 omega   97.00  122.00   1.0000    1.0000
omega____ theta____ kappa____ phi______ frames
    -       54.0000   57.0000 -120.0000 25

#__ type_ start__ end____ width___ exp.time_
 27 omega  -19.00   77.00   1.0000    1.0000
omega____ theta____ kappa____ phi______ frames
    -       54.0000  -38.0000  -90.0000 96

#__ type_ start__ end____ width___ exp.time_
 28 omega   43.00   69.00   1.0000    1.0000
omega____ theta____ kappa____ phi______ frames
    -       54.0000   57.0000 -120.0000 26

#__ type_ start__ end____ width___ exp.time_
 29 omega  102.00  163.00   1.0000    1.0000
omega____ theta____ kappa____ phi______ frames
    -      108.0000   50.0000 -180.0000 61

#__ type_ start__ end____ width___ exp.time_
 30 omega  130.00  156.00   1.0000    1.0000
omega____ theta____ kappa____ phi______ frames
    -      108.0000   63.0000   60.0000 26

#__ type_ start__ end____ width___ exp.time_
 31 omega   84.00  113.00   1.0000    1.0000
omega____ theta____ kappa____ phi______ frames
    -      108.0000   63.0000   60.0000 29

#__ type_ start__ end____ width___ exp.time_
 32 omega   44.00   69.00   1.0000    1.0000
omega____ theta____ kappa____ phi______ frames
    -      108.0000  -91.0000  -60.0000 25

#__ type_ start__ end____ width___ exp.time_
 33 omega   65.00  113.00   1.0000    1.0000
omega____ theta____ kappa____ phi______ frames
    -      108.0000 -111.0000  -90.0000 48

#__ type_ start__ end____ width___ exp.time_
 34 omega   43.00   92.00   1.0000    1.0000
omega____ theta____ kappa____ phi______ frames
    -      108.0000  -25.0000  -90.0000 49

#__ type_ start__ end____ width___ exp.time_
 35 omega   90.00  115.00   1.0000    1.0000
omega____ theta____ kappa____ phi______ frames
    -      108.0000 -111.0000  120.0000 25

#__ type_ start__ end____ width___ exp.time_
 36 omega  107.00  149.00   1.0000    1.0000
omega____ theta____ kappa____ phi______ frames
    -      108.0000  178.0000 -150.0000 42

#__ type_ start__ end____ width___ exp.time_
 37 omega   45.00   72.00   1.0000    1.0000
omega____ theta____ kappa____ phi______ frames
    -      108.0000 -111.0000  120.0000 27

#__ type_ start__ end____ width___ exp.time_
 38 omega   77.00  145.00   1.0000    1.0000
omega____ theta____ kappa____ phi______ frames
    -      108.0000  -91.0000  -60.0000 68

#__ type_ start__ end____ width___ exp.time_
 39 omega  132.00  178.00   1.0000    1.0000
omega____ theta____ kappa____ phi______ frames
    -      108.0000   38.0000   30.0000 46

#__ type_ start__ end____ width___ exp.time_
 40 omega   51.00   81.00   1.0000    1.0000
omega____ theta____ kappa____ phi______ frames
    -      108.0000  -38.0000 -180.0000 30

#__ type_ start__ end____ width___ exp.time_
 41 omega   55.00   92.00   1.0000    1.0000
omega____ theta____ kappa____ phi______ frames
    -      108.0000  -25.0000    0.0000 37

#__ type_ start__ end____ width___ exp.time_
 42 omega   40.00   66.00   1.0000    1.0000
omega____ theta____ kappa____ phi______ frames
    -       54.0000 -125.0000    0.0000 26

#__ type_ start__ end____ width___ exp.time_
 43 omega   87.00  113.00   1.0000    1.0000
omega____ theta____ kappa____ phi______ frames
    -      108.0000 -111.0000  -30.0000 26

#__ type_ start__ end____ width___ exp.time_
 44 omega   80.00  110.00   1.0000    1.0000
omega____ theta____ kappa____ phi______ frames
    -      108.0000   77.0000 -150.0000 30

#__ type_ start__ end____ width___ exp.time_
 45 omega   18.00   44.00   1.0000    1.0000
omega____ theta____ kappa____ phi______ frames
    -        0.0000  -19.0000  -30.0000 26

#__ type_ start__ end____ width___ exp.time_
 46 omega   41.00   67.00   1.0000    1.0000
omega____ theta____ kappa____ phi______ frames
    -        0.0000   77.0000  -60.0000 26

#__ type_ start__ end____ width___ exp.time_
 47 omega  -73.00  -45.00   1.0000    1.0000
omega____ theta____ kappa____ phi______ frames
    -        0.0000  -19.0000  -30.0000 28

#__ type_ start__ end____ width___ exp.time_
 48 omega  -20.00    6.00   1.0000    1.0000
omega____ theta____ kappa____ phi______ frames
    -        0.0000  -19.0000  -30.0000 26

#__ type_ start__ end____ width___ exp.time_
 49 omega  -30.00   14.00   1.0000    1.0000
omega____ theta____ kappa____ phi______ frames
    -        0.0000   77.0000  -60.0000 44

#__ type_ start__ end____ width___ exp.time_
 50 omega   23.00   49.00   1.0000    1.0000
omega____ theta____ kappa____ phi______ frames
    -       54.0000   77.0000 -180.0000 26

#__ type_ start__ end____ width___ exp.time_
 51 omega   22.00   54.00   1.0000    1.0000
omega____ theta____ kappa____ phi______ frames
    -       54.0000   77.0000  -60.0000 32

#__ type_ start__ end____ width___ exp.time_
 52 omega   89.00  115.00   1.0000    1.0000
omega____ theta____ kappa____ phi______ frames
    -       54.0000   77.0000    0.0000 26

#__ type_ start__ end____ width___ exp.time_
 53 omega   22.00   48.00   1.0000    1.0000
omega____ theta____ kappa____ phi______ frames
    -       54.0000   77.0000  150.0000 26

#__ type_ start__ end____ width___ exp.time_
 54 omega   22.00   60.00   1.0000    1.0000
omega____ theta____ kappa____ phi______ frames
    -       54.0000   77.0000  -30.0000 38

#__ type_ start__ end____ width___ exp.time_
 55 omega   23.00   69.00   1.0000    1.0000
omega____ theta____ kappa____ phi______ frames
    -       54.0000   77.0000  120.0000 46

#__ type_ start__ end____ width___ exp.time_
 56 omega   22.00   63.00   1.0000    1.0000
omega____ theta____ kappa____ phi______ frames
    -       54.0000   77.0000 -120.0000 41

#__ type_ start__ end____ width___ exp.time_
 57 omega   69.00  124.00   1.0000    1.0000
omega____ theta____ kappa____ phi______ frames
    -       54.0000   77.0000  -90.0000 55

#__ type_ start__ end____ width___ exp.time_
 58 omega   22.00  122.00   1.0000    1.0000
omega____ theta____ kappa____ phi______ frames
    -       54.0000   77.0000   30.0000 100

#__ type_ start__ end____ width___ exp.time_
 59 omega   22.00   56.00   1.0000    1.0000
omega____ theta____ kappa____ phi______ frames
    -       54.0000   77.0000   90.0000 34

#__ type_ start__ end____ width___ exp.time_
 60 omega   22.00   60.00   1.0000    1.0000
omega____ theta____ kappa____ phi______ frames
    -       54.0000   77.0000    0.0000 38

#__ type_ start__ end____ width___ exp.time_
 61 omega   22.00   51.00   1.0000    1.0000
omega____ theta____ kappa____ phi______ frames
    -       54.0000   77.0000 -150.0000 29

#__ type_ start__ end____ width___ exp.time_
 62 omega   69.00   95.00   1.0000    1.0000
omega____ theta____ kappa____ phi______ frames
    -       54.0000   77.0000  150.0000 26

#__ type_ start__ end____ width___ exp.time_
 63 omega   23.00   49.00   1.0000    1.0000
omega____ theta____ kappa____ phi______ frames
    -       54.0000   77.0000   60.0000 26

#__ type_ start__ end____ width___ exp.time_
 64 omega   81.00  124.00   1.0000    1.0000
omega____ theta____ kappa____ phi______ frames
    -       54.0000   77.0000  -60.0000 43

#__ type_ start__ end____ width___ exp.time_
 65 omega   77.00  106.00   1.0000    1.0000
omega____ theta____ kappa____ phi______ frames
    -       54.0000   77.0000  -30.0000 29

#__ type_ start__ end____ width___ exp.time_
 66 omega   62.00  123.00   1.0000    1.0000
omega____ theta____ kappa____ phi______ frames
    -       54.0000   77.0000   60.0000 61

#__ type_ start__ end____ width___ exp.time_
 67 omega   22.00   48.00   1.0000    1.0000
omega____ theta____ kappa____ phi______ frames
    -       54.0000   77.0000  -90.0000 26

#__ type_ start__ end____ width___ exp.time_
 68 omega  106.00  131.00   1.0000    1.0000
omega____ theta____ kappa____ phi______ frames
    -      108.0000   77.0000 -120.0000 25

#__ type_ start__ end____ width___ exp.time_
 69 omega   76.00  102.00   1.0000    1.0000
omega____ theta____ kappa____ phi______ frames
    -      108.0000   77.0000 -120.0000 26

#__ type_ start__ end____ width___ exp.time_
 70 omega   76.00  102.00   1.0000    1.0000
omega____ theta____ kappa____ phi______ frames
    -      108.0000   77.0000  -90.0000 26

#__ type_ start__ end____ width___ exp.time_
 71 omega   76.00  102.00   1.0000    1.0000
omega____ theta____ kappa____ phi______ frames
    -      108.0000   77.0000 -150.0000 26

#__ type_ start__ end____ width___ exp.time_
 72 omega   81.00  106.00   1.0000    1.0000
omega____ theta____ kappa____ phi______ frames
    -      108.0000   38.0000  150.0000 25

#__ type_ start__ end____ width___ exp.time_
 73 omega   81.00  124.00   1.0000    1.0000
omega____ theta____ kappa____ phi______ frames
    -      108.0000   38.0000  -90.0000 43

#__ type_ start__ end____ width___ exp.time_
 74 omega   84.00  109.00   1.0000    1.0000
omega____ theta____ kappa____ phi______ frames
    -      108.0000   63.0000 -150.0000 25

#__ type_ start__ end____ width___ exp.time_
 75 omega   84.00  143.00   1.0000    1.0000
omega____ theta____ kappa____ phi______ frames
    -      108.0000   63.0000    0.0000 59

#__ type_ start__ end____ width___ exp.time_
 76 omega   84.00  128.00   1.0000    1.0000
omega____ theta____ kappa____ phi______ frames
    -      108.0000   48.0000  165.4387 44

#__ type_ start__ end____ width___ exp.time_
 77 omega   76.00  101.00   1.0000    1.0000
omega____ theta____ kappa____ phi______ frames
    -      108.0000   77.0000  150.0000 25

#__ type_ start__ end____ width___ exp.time_
 78 omega  145.00  171.00   1.0000    1.0000
omega____ theta____ kappa____ phi______ frames
    -      108.0000   77.0000    0.0000 26

#__ type_ start__ end____ width___ exp.time_
 79 omega  153.00  178.00   1.0000    1.0000
omega____ theta____ kappa____ phi______ frames
    -      108.0000   77.0000   30.0000 25

#__ type_ start__ end____ width___ exp.time_
 80 omega   76.00  102.00   1.0000    1.0000
omega____ theta____ kappa____ phi______ frames
    -      108.0000   77.0000    0.0000 26

#__ type_ start__ end____ width___ exp.time_
 81 omega  140.00  166.00   1.0000    1.0000
omega____ theta____ kappa____ phi______ frames
    -      108.0000   77.0000   60.0000 26

#__ type_ start__ end____ width___ exp.time_
 82 omega  126.00  177.00   1.0000    1.0000
omega____ theta____ kappa____ phi______ frames
    -      108.0000   77.0000 -180.0000 51

#__ type_ start__ end____ width___ exp.time_
 83 omega   76.00  102.00   1.0000    1.0000
omega____ theta____ kappa____ phi______ frames
    -      108.0000   77.0000   30.0000 26

#__ type_ start__ end____ width___ exp.time_
 84 omega   76.00  120.00   1.0000    1.0000
omega____ theta____ kappa____ phi______ frames
    -      108.0000   77.0000   60.0000 44

#__ type_ start__ end____ width___ exp.time_
 85 omega   76.00  101.00   1.0000    1.0000
omega____ theta____ kappa____ phi______ frames
    -      108.0000   77.0000 -180.0000 25

#__ type_ start__ end____ width___ exp.time_
 86 omega   84.00  109.00   1.0000    1.0000
omega____ theta____ kappa____ phi______ frames
    -      108.0000   63.0000 -180.0000 25

#__ type_ start__ end____ width___ exp.time_
 87 omega   84.00  109.00   1.0000    1.0000
omega____ theta____ kappa____ phi______ frames
    -      108.0000   63.0000  -30.0000 25

#__ type_ start__ end____ width___ exp.time_
 88 omega   84.00  109.00   1.0000    1.0000
omega____ theta____ kappa____ phi______ frames
    -      108.0000   63.0000  -60.0000 25

#__ type_ start__ end____ width___ exp.time_
 89 omega   84.00  114.00   1.0000    1.0000
omega____ theta____ kappa____ phi______ frames
    -      108.0000   63.0000   30.0000 30

#__ type_ start__ end____ width___ exp.time_
 90 omega  113.00  143.00   1.0000    1.0000
omega____ theta____ kappa____ phi______ frames
    -      108.0000   77.0000  -30.0000 30

#__ type_ start__ end____ width___ exp.time_
 91 omega   76.00  162.00   1.0000    1.0000
omega____ theta____ kappa____ phi______ frames
    -      108.0000   77.0000   90.0000 86

#__ type_ start__ end____ width___ exp.time_
 92 omega   76.00  101.00   1.0000    1.0000
omega____ theta____ kappa____ phi______ frames
    -      108.0000   77.0000  120.0000 25

#__ type_ start__ end____ width___ exp.time_
 93 omega  124.00  156.00   1.0000    1.0000
omega____ theta____ kappa____ phi______ frames
    -      108.0000   63.0000 -150.0000 32

#__ type_ start__ end____ width___ exp.time_
 94 omega  112.00  139.00   1.0000    1.0000
omega____ theta____ kappa____ phi______ frames
    -      108.0000   38.0000  150.0000 27

#__ type_ start__ end____ width___ exp.time_
 95 omega   76.00  101.00   1.0000    1.0000
omega____ theta____ kappa____ phi______ frames
    -      108.0000   77.0000  -60.0000 25

#__ type_ start__ end____ width___ exp.time_
 96 omega   76.00  109.00   1.0000    1.0000
omega____ theta____ kappa____ phi______ frames
    -      108.0000   77.0000  -30.0000 33

#__ type_ start__ end____ width___ exp.time_
 97 omega   79.00  131.00   1.0000    1.0000
omega____ theta____ kappa____ phi______ frames
    -      108.0000   73.0000 -105.6157 52

#__ type_ start__ end____ width___ exp.time_
 98 omega   77.00  119.00   1.0000    1.0000
omega____ theta____ kappa____ phi______ frames
    -      108.0000   75.0000   69.5911 42

#__ type_ start__ end____ width___ exp.time_
 99 omega  -52.00  -25.00   1.0000    1.0000
omega____ theta____ kappa____ phi______ frames
    -        0.0000  -57.0000  -60.0000 27

#__ type_ start__ end____ width___ exp.time_
100 omega   84.00  110.00   1.0000    1.0000
omega____ theta____ kappa____ phi______ frames
    -      108.0000   63.0000   90.0000 26

#__ type_ start__ end____ width___ exp.time_
101 omega   77.00  103.00   1.0000    1.0000
omega____ theta____ kappa____ phi______ frames
    -      108.0000   77.0000  112.7791 26
;
_diffrn_measurement_device_type  'SuperNova, Dual, Cu at zero, Eos'
_diffrn_measurement_method       '\w scans'
_diffrn_orient_matrix_UB_11      0.0536266000
_diffrn_orient_matrix_UB_12      0.0863433000
_diffrn_orient_matrix_UB_13      -0.0089796000
_diffrn_orient_matrix_UB_21      -0.1200426000
_diffrn_orient_matrix_UB_22      0.0136090000
_diffrn_orient_matrix_UB_23      -0.0858958000
_diffrn_orient_matrix_UB_31      -0.0878048000
_diffrn_orient_matrix_UB_32      0.0341040000
_diffrn_orient_matrix_UB_33      0.0571570000
_diffrn_radiation_monochromator  mirror
_diffrn_radiation_type           CuK\a
_diffrn_radiation_wavelength     1.54184
_diffrn_source                   'SuperNova (Cu) X-ray Source'
_diffrn_standards_decay_%        ?
_diffrn_standards_interval_count ?
_diffrn_standards_interval_time  ?
_diffrn_standards_number         ?
_reflns_number_gt                9058
_reflns_number_total             9434
_reflns_odcompleteness_completeness 99.96
_reflns_odcompleteness_iscentric 1
_reflns_odcompleteness_theta     66.97
_reflns_threshold_expression     >2sigma(I)
_computing_cell_refinement       
;
CrysAlisPro, Agilent Technologies,
Version 1.171.36.32 (release 02-08-2013 CrysAlis171 .NET)
(compiled Aug  2 2013,16:46:58)
;
_computing_data_collection       
;
CrysAlisPro, Agilent Technologies,
Version 1.171.36.32 (release 02-08-2013 CrysAlis171 .NET)
(compiled Aug  2 2013,16:46:58)
;
_computing_data_reduction        
;
CrysAlisPro, Agilent Technologies,
Version 1.171.36.32 (release 02-08-2013 CrysAlis171 .NET)
(compiled Aug  2 2013,16:46:58)
;
_computing_molecular_graphics    'Olex2 (Dolomanov et al., 2009)'
_computing_publication_material  'Olex2 (Dolomanov et al., 2009)'
_computing_structure_refinement  'XL (Sheldrick, 2008)'
_computing_structure_solution    'SHELXS-97 (Sheldrick, 1990)'
_refine_diff_density_max         0.731
_refine_diff_density_min         -0.451
_refine_diff_density_rms         0.076
_refine_ls_abs_structure_details 'Flack H D (1983), Acta Cryst. A39, 876-881'
_refine_ls_abs_structure_Flack   0.01(3)
_refine_ls_extinction_coef       ?
_refine_ls_extinction_method     none
_refine_ls_goodness_of_fit_ref   1.105
_refine_ls_hydrogen_treatment    constr
_refine_ls_matrix_type           full
_refine_ls_number_parameters     355
_refine_ls_number_reflns         9434
_refine_ls_number_restraints     1
_refine_ls_R_factor_all          0.0467
_refine_ls_R_factor_gt           0.0427
_refine_ls_restrained_S_all      1.105
_refine_ls_shift/su_max          0.000
_refine_ls_shift/su_mean         0.000
_refine_ls_structure_factor_coef Fsqd
_refine_ls_weighting_details     
'calc w=1/[\s^2^(Fo^2^)+(0.0293P)^2^+5.7177P] where P=(Fo^2^+2Fc^2^)/3'
_refine_ls_weighting_scheme      calc
_refine_ls_wR_factor_gt          0.1128
_refine_ls_wR_factor_ref         0.1152
_refine_special_details          
;
 Refinement of F^2^ against ALL reflections.  The weighted R-factor wR and 
 goodness of fit S are based on F^2^, conventional R-factors R are based 
 on F, with F set to zero for negative F^2^. The threshold expression of 
 F^2^ > 2sigma(F^2^) is used only for calculating R-factors(gt) etc. and is 
 not relevant to the choice of reflections for refinement.  R-factors based 
 on F^2^ are statistically about twice as large as those based on F, and R- 
 factors based on ALL data will be even larger. 
;
_olex2_refinement_description    
;
1. Fixed Uiso
 At 1.2 times of:
  All C(H) groups, All O(H,H) groups
 At 1.5 times of:
  All C(H,H,H) groups
2.a Riding coordinates:
 O1W(H1WA,H1WB)
2.b Aromatic/amide H refined with riding coordinates:
 C18(H18), C3(H3), C7(H7), C10(H10), C21(H21), C9(H9), C15(H15), C22(H22),
 C12(H12), C13(H13)
2.c Idealised Me refined as rotating group:
 C24(H24A,H24B,H24C), C26(H26A,H26B,H26C), C25(H25A,H25B,H25C)
;
_atom_sites_solution_hydrogens   geom
_atom_sites_solution_primary     direct
_atom_sites_solution_secondary   difmap
loop_
_atom_site_label
_atom_site_type_symbol
_atom_site_fract_x
_atom_site_fract_y
_atom_site_fract_z
_atom_site_U_iso_or_equiv
_atom_site_adp_type
_atom_site_occupancy
_atom_site_calc_flag
_atom_site_disorder_assembly
_atom_site_disorder_group
_atom_site_refinement_flags_posn
Zn1 Zn 0.51175(4) 0.38804(3) 0.14682(3) 0.01726(11) Uani 1 d . . .
Zn2 Zn 0.23552(5) 0.29204(3) 0.00155(3) 0.02197(12) Uani 1 d . . .
O4 O 0.3716(3) 0.42089(18) 0.20479(19) 0.0266(6) Uani 1 d . . .
O7 O 0.6855(3) 0.43216(19) 0.23088(18) 0.0302(7) Uani 1 d . . .
O3 O 0.3155(3) 0.37515(16) -0.06811(17) 0.0263(6) Uani 1 d . . .
O5 O 0.4582(3) 0.45172(18) 0.03661(18) 0.0283(6) Uani 1 d . . .
O9 O 0.4984(3) 0.77088(17) 0.82652(19) 0.0326(7) Uani 1 d . . .
O2 O 0.2010(3) 0.37106(18) 0.09068(18) 0.0273(7) Uani 1 d . . .
O6 O 0.7271(3) 0.3633(2) 0.11942(19) 0.0363(8) Uani 1 d . . .
O8 O 0.5974(3) 0.72151(18) 0.96410(19) 0.0326(7) Uani 1 d . . .
O1 O 0.1274(4) 0.2072(2) 0.0581(2) 0.0419(8) Uani 1 d . . .
O1W O 0.0947(4) 0.2718(3) -0.1129(2) 0.0655(13) Uani 1 d . . .
H1WA H 0.1624 0.2970 -0.1218 0.079 Uiso 1 d . . R
H1WB H 0.0915 0.2843 -0.0606 0.079 Uiso 1 d . . R
C6 C 0.3906(4) 0.4364(2) -0.0426(3) 0.0235(8) Uani 1 d . . .
C5 C 0.3944(4) 0.4998(2) -0.1122(3) 0.0222(8) Uani 1 d . . .
C11 C 0.2730(4) 0.5294(3) 0.6356(3) 0.0277(9) Uani 1 d . . .
C1 C 0.2475(4) 0.4020(2) 0.1654(3) 0.0235(8) Uani 1 d . . .
C18 C 0.4583(4) 0.5746(2) 0.9179(2) 0.0223(8) Uani 1 d . . .
H18 H 0.5005 0.5840 0.9787 0.027 Uiso 1 calc . . R
C3 C 0.1954(4) 0.4520(3) 0.3045(3) 0.0278(9) Uani 1 d . . .
H3 H 0.2884 0.4634 0.3285 0.033 Uiso 1 calc . . R
C2 C 0.1471(4) 0.4214(2) 0.2171(3) 0.0240(8) Uani 1 d . . .
C4 C 0.1065(5) 0.4661(3) 0.3567(3) 0.0315(9) Uani 1 d . . .
C7 C 0.0078(4) 0.4047(2) 0.1805(2) 0.0257(9) Uani 1 d . . .
H7 H -0.0245 0.3830 0.1229 0.031 Uiso 1 calc . . R
C20 C 0.9154(4) 0.4206(3) 0.2308(3) 0.0271(9) Uani 1 d . . .
N1 N -0.0261(5) 0.1110(3) 0.0547(3) 0.0516(12) Uani 1 d . . .
C10 C 0.3310(4) 0.5595(3) 0.5720(3) 0.0307(10) Uani 1 d . . .
H10 H 0.4093 0.5918 0.5905 0.037 Uiso 1 calc . . R
C19 C 0.7675(4) 0.4035(3) 0.1896(3) 0.0311(10) Uani 1 d . . .
C21 C 0.9679(4) 0.4502(3) 0.3182(3) 0.0250(8) Uani 1 d . . .
H21 H 0.9078 0.4596 0.3520 0.030 Uiso 1 calc . . R
C14 C 0.3335(4) 0.5451(3) 0.7337(3) 0.0252(9) Uani 1 d . . .
C9 C 0.2748(4) 0.5427(3) 0.4808(3) 0.0279(9) Uani 1 d . . .
H9 H 0.3133 0.5658 0.4392 0.034 Uiso 1 calc . . R
C15 C 0.3941(4) 0.6209(2) 0.7633(3) 0.0254(8) Uani 1 d . . .
H15 H 0.3922 0.6620 0.7219 0.030 Uiso 1 calc . . R
C22 C 0.3332(4) 0.4859(3) 0.7981(3) 0.0270(8) Uani 1 d . . .
H22 H 0.2907 0.4361 0.7798 0.032 Uiso 1 calc . . R
C8 C 0.1610(4) 0.4914(3) 0.4512(2) 0.0239(8) Uani 1 d . . .
C17 C 0.5235(4) 0.7156(2) 0.8845(3) 0.0255(9) Uani 1 d . . .
C12 C 0.1562(4) 0.4803(3) 0.6052(3) 0.0296(9) Uani 1 d . . .
H12 H 0.1152 0.4595 0.6466 0.035 Uiso 1 calc . . R
C23 C 0.0774(6) 0.1370(3) 0.0323(3) 0.0445(13) Uani 1 d . . .
C16 C 0.4564(4) 0.6344(2) 0.8537(3) 0.0249(8) Uani 1 d . . .
C13 C 0.1003(4) 0.4621(3) 0.5151(3) 0.0298(9) Uani 1 d . . .
H13 H 0.0217 0.4301 0.4967 0.036 Uiso 1 calc . . R
C24 C 0.1416(7) 0.0851(4) -0.0268(5) 0.0610(16) Uani 1 d . . .
H24A H 0.0800 0.0827 -0.0867 0.092 Uiso 1 calc . . GR
H24B H 0.1583 0.0311 -0.0025 0.092 Uiso 1 calc . . GR
H24C H 0.2268 0.1092 -0.0282 0.092 Uiso 1 calc . . GR
C26 C -0.1021(7) 0.1641(4) 0.0998(4) 0.0570(16) Uani 1 d . . .
H26A H -0.0538 0.2147 0.1157 0.086 Uiso 1 calc . . GR
H26B H -0.1098 0.1377 0.1531 0.086 Uiso 1 calc . . GR
H26C H -0.1921 0.1745 0.0599 0.086 Uiso 1 calc . . GR
C25 C -0.0889(8) 0.0302(4) 0.0282(5) 0.076