
#######################################################################
#
#                 Cambridge Crystallographic Data Centre
#                                CCDC
#
#######################################################################
#
# If this CIF has been generated from an entry in the Cambridge
# Structural Database, then it will include bibliographic, chemical,
# crystal, experimental, refinement or atomic coordinate data resulting
# from the CCDC's data processing and validation procedures.
#
#######################################################################

data_CSD_CIF_DURLUX
_audit_creation_date 1987-06-03
_audit_creation_method CSD-ConQuest-V1
_database_code_CSD DURLUX
_database_code_depnum_ccdc_archive 'CCDC 1146850'
_chemical_formula_sum 'C72 H88 Ce1 N8'
_chemical_formula_moiety
;
C72 H88 Ce1 N8
;
_journal_coden_Cambridge 4
_journal_volume 108
_journal_year 1986
_journal_page_first 3652
_journal_name_full 'J.Am.Chem.Soc. '
loop_
_publ_author_name
"J.W.Buchler"
"A.de Cian"
"J.Fischer"
"M.Kihn-Botulinski"
"H.Paulus"
"R.Weiss"
_chemical_name_systematic
;
bis(1,2,3,4,5,6,7,8-Octaethylporphyrinato-N,N,N,N)-cerium(iv)
;
_chemical_name_common
;
Teaching Subset: Fundamental Chemistry
;
_cell_volume   6158.137
_exptl_crystal_density_diffrn 1.3
_diffrn_ambient_temperature 173.15
#These two values have been output from a single CSD field.
_refine_ls_R_factor_gt 0.048
_refine_ls_wR_factor_gt 0.048
_symmetry_cell_setting monoclinic
_symmetry_space_group_name_H-M 'P 21/n'
_symmetry_Int_Tables_number 14
loop_
_symmetry_equiv_pos_site_id
_symmetry_equiv_pos_as_xyz
1 x,y,z
2 1/2-x,1/2+y,1/2-z
3 -x,-y,-z
4 -1/2+x,-1/2-y,-1/2+z
_cell_length_a 15.514(4)
_cell_length_b 15.206(4)
_cell_length_c 26.141(8)
_cell_angle_alpha 90
_cell_angle_beta 93.04(2)
_cell_angle_gamma 90
_cell_formula_units_Z 4
loop_
_atom_type_symbol
_atom_type_radius_bond
C 0.68
H 0.23
Ce 1.83
N 0.68
loop_
_atom_site_label
_atom_site_type_symbol
_atom_site_fract_x
_atom_site_fract_y
_atom_site_fract_z
Ce1 Ce 0.00081(1) 0.21359(1) 0.23614(1)
N1 N -0.0921(2) 0.1651(2) 0.1615(1)
C1 C -0.1631(3) 0.2097(2) 0.1410(2)
C2 C -0.1799(3) 0.1856(3) 0.0877(2)
C3 C -0.1196(3) 0.1242(3) 0.0767(1)
C4 C -0.0668(2) 0.1106(3) 0.1234(1)
C5 C -0.0046(2) 0.0454(3) 0.1297(1)
C6 C 0.0355(2) 0.0170(2) 0.1754(1)
C7 C 0.0871(2) -0.0627(2) 0.1812(2)
C8 C 0.1052(2) -0.0741(2) 0.2323(2)
C9 C 0.0640(2) -0.0010(3) 0.2579(1)
N2 N 0.0246(2) 0.0548(2) 0.2218(1)
C10 C 0.0574(2) 0.0061(2) 0.3098(1)
C11 C 0.0087(2) 0.0649(2) 0.3366(1)
C12 C -0.0081(2) 0.0574(3) 0.3902(1)
C13 C -0.0623(2) 0.1242(3) 0.4016(1)
C14 C -0.0792(2) 0.1724(3) 0.3546(1)
N3 N -0.0341(2) 0.1362(2) 0.3154(1)
C15 C -0.1404(2) 0.2397(3) 0.3482(1)
C16 C -0.1766(2) 0.2710(2) 0.3027(2)
C17 C -0.2562(2) 0.3218(3) 0.2976(2)
C18 C -0.2795(2) 0.3237(3) 0.2470(2)
C19 C -0.2130(2) 0.2783(2) 0.2208(2)
N4 N -0.1502(2) 0.2482(2) 0.2549(1)
C20 C -0.2158(2) 0.2635(3) 0.1684(1)
C21 C -0.2518(3) 0.2204(3) 0.0531(2)
C22 C -0.2339(4) 0.3090(4) 0.0320(2)
C23 C -0.1129(3) 0.0737(3) 0.0278(2)
C24 C -0.1740(4) -0.0040(4) 0.0234(2)
C25 C 0.1152(3) -0.1196(3) 0.1382(2)
C26 C 0.1950(3) -0.0854(3) 0.1150(2)
C27 C 0.1564(3) -0.1447(3) 0.2588(2)
C28 C 0.2453(3) -0.1162(3) 0.2784(2)
C29 C 0.0219(3) -0.0179(3) 0.4244(2)
C30 C -0.0386(3) -0.0957(3) 0.4218(2)
C31 C -0.1032(3) 0.1422(3) 0.4512(2)
C32 C -0.1918(3) 0.1006(4) 0.4540(2)
C33 C -0.3037(3) 0.3607(3) 0.3410(2)
C34 C -0.3778(3) 0.3063(4) 0.3576(2)
C35 C -0.3626(3) 0.3568(3) 0.2216(2)
C36 C -0.4256(3) 0.2821(3) 0.2099(2)
N5 N -0.0225(2) 0.3577(2) 0.1943(1)
C37 C -0.0656(2) 0.4276(2) 0.2151(1)
C38 C -0.1017(2) 0.4838(3) 0.1746(2)
C39 C -0.0759(3) 0.4509(3) 0.1300(2)
C40 C -0.0255(2) 0.3722(3) 0.1427(1)
C41 C 0.0196(3) 0.3252(3) 0.1080(2)
C42 C 0.0819(2) 0.2602(3) 0.1184(1)
C43 C 0.1418(3) 0.2305(3) 0.0814(2)
C44 C 0.2011(3) 0.1807(3) 0.1077(2)
C45 C 0.1754(2) 0.1768(3) 0.1601(2)
N6 N 0.1015(2) 0.2249(2) 0.1657(1)
C46 C 0.2237(2) 0.1375(3) 0.2005(2)
C47 C 0.2147(2) 0.1474(2) 0.2522(2)
C48 C 0.2774(2) 0.1191(3) 0.2916(2)
C49 C 0.2507(3) 0.1503(3) 0.3368(2)
C50 C 0.1717(3) 0.1991(2) 0.3250(2)
N7 N 0.1493(2) 0.1945(2) 0.2738(1)
C51 C 0.1319(2) 0.2525(3) 0.3597(2)
C52 C 0.0705(2) 0.3171(3) 0.3492(2)
C53 C 0.0488(3) 0.3859(3) 0.3841(2)
C54 C -0.0051(3) 0.4422(3) 0.3573(2)
C55 C -0.0181(3) 0.4062(3) 0.3062(2)
N8 N 0.0285(2) 0.3296(2) 0.3018(1)
C56 C -0.0650(3) 0.4468(3) 0.2664(2)
C57 C -0.1553(3) 0.5649(3) 0.1832(2)
C58 C -0.2456(3) 0.5443(3) 0.1995(2)
C59 C -0.0882(3) 0.4896(3) 0.0772(2)
C60 C -0.0174(3) 0.5534(3) 0.0657(2)
C61 C 0.1376(3) 0.2569(4) 0.0259(2)
C62 C 0.0585(4) 0.2205(4) -0.0044(2)
C63 C 0.2851(3) 0.1468(3) 0.0889(2)
C64 C 0.3565(3) 0.2146(3) 0.0950(2)
C65 C 0.3608(3) 0.0727(3) 0.2822(2)
C66 C 0.4322(3) 0.1359(3) 0.2705(2)
C67 C 0.2934(3) 0.1375(3) 0.3891(2)
C68 C 0.2618(4) 0.0560(4) 0.4159(2)
C69 C 0.0825(3) 0.3952(3) 0.4388(2)
C70 C 0.0298(4) 0.3461(6) 0.4754(2)
C71 C -0.0426(3) 0.5280(4) 0.3750(2)
C72 C -0.1346(4) 0.5216(4) 0.3857(3)
H1 H 0.01230 0.01710 0.09940
H2 H 0.09060 -0.03460 0.33010
H3 H -0.15870 0.26660 0.37850
H4 H -0.25940 0.29430 0.14880
H5 H -0.30240 0.22380 0.07190
H6 H -0.26120 0.18060 0.02530
H7 H -0.28160 0.32750 0.01040
H8 H -0.22490 0.34960 0.05930
H9 H -0.18370 0.30640 0.01280
H10 H -0.05540 0.05270 0.02610
H11 H -0.12580 0.11230 -0.00010
H12 H -0.16690 -0.03340 -0.00810
H13 H -0.16130 -0.04340 0.05090
H14 H -0.23170 0.01610 0.02460
H15 H 0.06980 -0.12180 0.11230
H16 H 0.12650 -0.17700 0.15100
H17 H 0.21020 -0.12320 0.08800
H18 H 0.18420 -0.02790 0.10170
H19 H 0.24090 -0.08320 0.14040
H20 H 0.16260 -0.19170 0.23530
H21 H 0.12560 -0.16450 0.28700
H22 H 0.27410 -0.16440 0.29480
H23 H 0.27720 -0.09670 0.25050
H24 H 0.24030 -0.06950 0.30220
H25 H 0.02660 0.00260 0.45870
H26 H 0.07690 -0.03660 0.41440
H27 H -0.01640 -0.14070 0.44400
H28 H -0.09380 -0.07800 0.43200
H29 H -0.04350 -0.11730 0.38770
H30 H -0.10880 0.20400 0.45490
H31 H -0.06660 0.11960 0.47830
H32 H -0.21450 0.11410 0.48610
H33 H -0.22920 0.12300 0.42710
H34 H -0.18700 0.03860 0.45050
H35 H -0.32540 0.41660 0.33040
H36 H -0.26380 0.36780 0.36950
H37 H -0.40420 0.33500 0.38490
H38 H -0.41880 0.29900 0.32960
H39 H -0.35710 0.25020 0.36870
H40 H -0.35040 0.38540 0.19050
H41 H -0.38820 0.39740 0.24380
H42 H -0.47720 0.30490 0.19390
H43 H -0.40050 0.24120 0.18750
H44 H -0.43830 0.25320 0.24080
H45 H 0.00700 0.33830 0.07280
H46 H 0.26830 0.09890 0.19100
H47 H 0.14870 0.24370 0.39470
H48 H -0.10120 0.49380 0.27570
H49 H -0.15980 0.59750 0.15220
H50 H -0.12660 0.59930 0.20920
H51 H -0.27590 0.59760 0.20420
H52 H -0.27520 0.51020 0.17360
H53 H -0.24190 0.51200 0.23060
H54 H -0.14180 0.51970 0.07460
H55 H -0.08860 0.44330 0.05280
H56 H -0.02750 0.57620 0.03200
H57 H -0.01660 0.60020 0.08970
H58 H 0.03660 0.52380 0.06790
H59 H 0.18790 0.23570 0.01070
H60 H 0.13600 0.31920 0.02390
H61 H 0.05940 0.23920 -0.03890
H62 H 0.05940 0.15800 -0.00300
H63 H 0.00750 0.24150 0.01010
H64 H 0.27690 0.13190 0.05360
H65 H 0.30170 0.09580 0.10790
H66 H 0.40820 0.19090 0.08280
H67 H 0.34060 0.26570 0.07580
H68 H 0.36540 0.22960 0.13010
H69 H 0.35150 0.03380 0.25400
H70 H 0.37810 0.03990 0.31190
H71 H 0.48330 0.10380 0.26480
H72 H 0.41570 0.16860 0.24060
H73 H 0.44230 0.17480 0.29850
H74 H 0.28190 0.18740 0.40940
H75 H 0.35390 0.13220 0.38570
H76 H 0.29080 0.05100 0.44870
H77 H 0.20140 0.06060 0.41970
H78 H 0.27330 0.00540 0.39600
H79 H 0.08230 0.45570 0.44760
H80 H 0.13990 0.37330 0.44150
H81 H 0.05370 0.35410 0.50920
H82 H -0.02770 0.36760 0.47310
H83 H 0.02980 0.28520 0.46700
H84 H -0.03630 0.57080 0.34890
H85 H -0.01120 0.54600 0.40530
H86 H -0.15450 0.57720 0.39660
H87 H -0.16690 0.50410 0.35550
H88 H -0.14170 0.47930 0.41190
#END
