
#######################################################################
#
#                 Cambridge Crystallographic Data Centre
#                                CCDC
#
#######################################################################
#
# If this CIF has been generated from an entry in the Cambridge
# Structural Database, then it will include bibliographic, chemical,
# crystal, experimental, refinement or atomic coordinate data resulting
# from the CCDC's data processing and validation procedures.
#
#######################################################################

data_CSD_CIF_DUSHAA
_audit_creation_date 1987-06-03
_audit_creation_method CSD-ConQuest-V1
_database_code_CSD DUSHAA
_database_code_depnum_ccdc_archive 'CCDC 1146952'
_chemical_formula_sum 'C30 H72 Mo1 N9 O3 P3'
_chemical_formula_moiety
;
C30 H72 Mo1 N9 O3 P3
;
_journal_coden_Cambridge 9
_journal_volume 25
_journal_year 1986
_journal_page_first 3541
_journal_name_full 'Inorg.Chem. '
loop_
_publ_author_name
"A.Tarassoli"
"Haw-Jan Chen"
"V.S.Allured"
"T.G.Hill"
"R.C.Haltiwanger"
"M.L.Thompson"
"A.D.Norman"
_chemical_name_systematic
;
fac-Tricarbonyl-tris(tris(isopropylamino)-phosphine-P)-molybdenum
;
_chemical_name_common
;
Teaching Subset: Fundamental Chemistry, Symmetry
;
_chemical_melting_point 406
_cell_volume   3239.788
_exptl_crystal_colour 'colorless'
_exptl_crystal_density_diffrn 1.23
_exptl_special_details
;
Melting point range 406-408K
Absolute configuration

;
_diffrn_ambient_temperature ?
_diffrn_special_details
;
The study was carried out at room temperature,in the range 283-303K

;
#These two values have been output from a single CSD field.
_refine_ls_R_factor_gt 0.048
_refine_ls_wR_factor_gt 0.048
_symmetry_cell_setting rhombohedral
_symmetry_space_group_name_H-M 'R 3'
_symmetry_Int_Tables_number 146
loop_
_symmetry_equiv_pos_site_id
_symmetry_equiv_pos_as_xyz
1 x,y,z
2 1/3+x,2/3+y,2/3+z
3 2/3+x,1/3+y,1/3+z
4 -y,x-y,z
5 -x+y,-x,z
6 1/3-y,2/3+x-y,2/3+z
7 1/3-x+y,2/3-x,2/3+z
8 2/3-y,1/3+x-y,1/3+z
9 2/3-x+y,1/3-x,1/3+z
_cell_length_a 19.906(7)
_cell_length_b 19.906(7)
_cell_length_c 9.441(3)
_cell_angle_alpha 90
_cell_angle_beta 90
_cell_angle_gamma 120
_cell_formula_units_Z 3
loop_
_atom_type_symbol
_atom_type_radius_bond
C 0.68
H 0.23
Mo 1.47
N 0.68
O 0.68
P 1.05
loop_
_atom_site_label
_atom_site_type_symbol
_atom_site_fract_x
_atom_site_fract_y
_atom_site_fract_z
Mo1 Mo 0.00000 0.00000 0.20000
P1 P 0.1232(3) 0.0457(2) 0.3446(4)
C1 C 0.037(1) -0.049(1) 0.077(2)
N1 N 0.1962(7) 0.1074(7) 0.242(1)
N2 N 0.1604(6) -0.0084(6) 0.399(1)
N3 N 0.1175(6) 0.0781(6) 0.502(1)
C2 C 0.2817(8) 0.1475(9) 0.268(2)
C3 C 0.315(1) 0.234(1) 0.294(2)
C4 C 0.320(1) 0.140(1) 0.137(2)
C5 C 0.1807(8) -0.0559(9) 0.305(2)
C6 C 0.258(1) -0.048(1) 0.356(2)
C7 C 0.119(1) -0.1388(9) 0.310(2)
C8 C 0.1778(8) 0.1069(8) 0.618(2)
C9 C 0.1930(8) 0.1879(9) 0.667(2)
C10 C 0.1503(9) 0.0511(9) 0.742(2)
O1 O 0.0629(6) -0.0796(7) -0.002(1)
H1 H 0.18700 0.15100 0.22600
H2 H 0.12300 -0.04700 0.46300
H3 H 0.10900 0.12200 0.48400
H4 H 0.29200 0.12400 0.35100
H5 H 0.18800 -0.03400 0.20500
H6 H 0.22600 0.11200 0.58100
H7 H 0.37000 0.26400 0.30200
H8 H 0.29900 0.25800 0.22300
H9 H 0.29600 0.24500 0.38600
H10 H 0.30900 0.08800 0.12600
H11 H 0.30200 0.15600 0.05800
H12 H 0.37600 0.17300 0.14500
H13 H 0.25200 -0.06600 0.45300
H14 H 0.27300 -0.07900 0.30200
H15 H 0.30100 0.00400 0.35400
H16 H 0.06900 -0.14900 0.28700
H17 H 0.13000 -0.17200 0.24700
H18 H 0.11600 -0.16000 0.40500
H19 H 0.23600 0.21100 0.73300
H20 H 0.20400 0.22200 0.59000
H21 H 0.14900 0.18200 0.71700
H22 H 0.09800 0.03800 0.76900
H23 H 0.14600 0.00100 0.71600
H24 H 0.18200 0.06900 0.82300
P1C P -0.0457(3) 0.0775(2) 0.3446(4)
P1D P -0.0775(3) -0.1232(2) 0.3446(4)
C1C C 0.049(1) 0.086(1) 0.077(2)
C1D C -0.086(1) -0.037(1) 0.077(2)
N1C N -0.1074(7) 0.0888(7) 0.242(1)
N2C N 0.0084(6) 0.1688(6) 0.399(1)
N3C N -0.0781(6) 0.0394(6) 0.502(1)
N1D N -0.0888(7) -0.1962(7) 0.242(1)
N2D N -0.1688(6) -0.1604(6) 0.399(1)
N3D N -0.0394(6) -0.1175(6) 0.502(1)
O1C O 0.0796(6) 0.1425(7) -0.002(1)
O1D O -0.1425(6) -0.0629(7) -0.002(1)
C2C C -0.1475(8) 0.1342(9) 0.268(2)
H1C H -0.15100 0.03600 0.22600
C5C C 0.0559(8) 0.2366(9) 0.305(2)
H2C H 0.04700 0.17000 0.46300
C8C C -0.1069(8) 0.0709(8) 0.618(2)
H3C H -0.12200 -0.01300 0.48400
C2D C -0.1342(8) -0.2817(9) 0.268(2)
H1D H -0.03600 -0.18700 0.22600
C5D C -0.2366(8) -0.1807(9) 0.305(2)
H2D H -0.17000 -0.12300 0.46300
C8D C -0.0709(8) -0.1778(8) 0.618(2)
H3D H 0.01300 -0.10900 0.48400
C3C C -0.234(1) 0.081(1) 0.294(2)
C4C C -0.140(1) 0.180(1) 0.137(2)
H4C H -0.12400 0.16800 0.35100
C6C C 0.048(1) 0.306(1) 0.356(2)
C7C C 0.1388(10) 0.2578(9) 0.310(2)
H5C H 0.03400 0.22200 0.20500
C9C C -0.1879(8) 0.0051(9) 0.667(2)
C10C C -0.0511(9) 0.0992(9) 0.742(2)
H6C H -0.11200 0.11400 0.58100
C3D C -0.081(1) -0.315(1) 0.294(2)
C4D C -0.180(1) -0.320(1) 0.137(2)
H4D H -0.16800 -0.29200 0.35100
C6D C -0.306(1) -0.258(1) 0.356(2)
C7D C -0.2578(10) -0.1190(9) 0.310(2)
H5D H -0.22200 -0.18800 0.20500
C9D C -0.0051(8) -0.1930(9) 0.667(2)
C10D C -0.0992(9) -0.1503(9) 0.742(2)
H6D H -0.11400 -0.22600 0.58100
H7C H -0.26400 0.10600 0.30200
H8C H -0.25800 0.04100 0.22300
H9C H -0.24500 0.05100 0.38600
H10C H -0.08800 0.22100 0.12600
H11C H -0.15600 0.14600 0.05800
H12C H -0.17300 0.20300 0.14500
H13C H 0.06600 0.31800 0.45300
H14C H 0.07900 0.35200 0.30200
H15C H -0.00400 0.29700 0.35400
H16C H 0.14900 0.21800 0.28700
H17C H 0.17200 0.30200 0.24700
H18C H 0.16000 0.27600 0.40500
H19C H -0.21100 0.02500 0.73300
H20C H -0.22200 -0.01800 0.59000
H21C H -0.18200 -0.03300 0.71700
H22C H -0.03800 0.06000 0.76900
H23C H -0.00100 0.14500 0.71600
H24C H -0.06900 0.11300 0.82300
H7D H -0.10600 -0.37000 0.30200
H8D H -0.04100 -0.29900 0.22300
H9D H -0.05100 -0.29600 0.38600
H10D H -0.22100 -0.30900 0.12600
H11D H -0.14600 -0.30200 0.05800
H12D H -0.20300 -0.37600 0.14500
H13D H -0.31800 -0.25200 0.45300
H14D H -0.35200 -0.27300 0.30200
H15D H -0.29700 -0.30100 0.35400
H16D H -0.21800 -0.06900 0.28700
H17D H -0.30200 -0.13000 0.24700
H18D H -0.27600 -0.11600 0.40500
H19D H -0.02500 -0.23600 0.73300
H20D H 0.01800 -0.20400 0.59000
H21D H 0.03300 -0.14900 0.71700
H22D H -0.06000 -0.09800 0.76900
H23D H -0.14500 -0.14600 0.71600
H24D H -0.11300 -0.18200 0.82300
#END
