
#######################################################################
#
#                 Cambridge Crystallographic Data Centre
#                                CCDC
#
#######################################################################
#
# If this CIF has been generated from an entry in the Cambridge
# Structural Database, then it will include bibliographic, chemical,
# crystal, experimental, refinement or atomic coordinate data resulting
# from the CCDC's data processing and validation procedures.
#
#######################################################################

data_CSD_CIF_DUVFUV03
_audit_creation_date 2002-10-14
_audit_creation_method CSD-ConQuest-V1
_database_code_CSD DUVFUV03
_database_code_depnum_ccdc_archive 'CCDC 1147209'
_chemical_formula_sum 'C11 H28 N6 S3'
_chemical_formula_moiety
;
3(C1 H4 N2 S1),C8 H16
;
_journal_coden_Cambridge 1096
_journal_volume 13
_journal_year 2001
_journal_page_first 2483
_journal_name_full 'Chem.Mater. '
loop_
_publ_author_name
"T.Maris"
"M.J.Henson"
"S.J.Heyes"
"K.Prout"
_chemical_name_systematic
;
tris(Thiourea) cyclooctane clathrate
;
_chemical_name_common
;
Teaching Subset: Fundamental Chemistry
;
_cell_volume   3641.288
_exptl_crystal_density_diffrn 1.243
_exptl_special_details
;
low temperature polymorph
At 200 K a=12.57(1), b=31.51(3), c=10.51(2) and beta=114.03(6) and at 175 K 
a=12.52(1), b=30.64(3), c=10.37(1) and beta=114.16(1)
phase transitions at 265 K, 245 K and 200 K
;
_diffrn_ambient_temperature 150
#These two values have been output from a single CSD field.
_refine_ls_R_factor_gt 0.0432
_refine_ls_wR_factor_gt 0.0432
_symmetry_cell_setting monoclinic
_symmetry_space_group_name_H-M 'P 21/c'
_symmetry_Int_Tables_number 14
loop_
_symmetry_equiv_pos_site_id
_symmetry_equiv_pos_as_xyz
1 x,y,z
2 -x,1/2+y,1/2-z
3 -x,-y,-z
4 x,-1/2-y,-1/2+z
_cell_length_a 12.4160(6)
_cell_length_b 30.9180(13)
_cell_length_c 10.3710(5)
_cell_angle_alpha 90
_cell_angle_beta 113.848(3)
_cell_angle_gamma 90
_cell_formula_units_Z 8
loop_
_atom_type_symbol
_atom_type_radius_bond
C 0.68
H 0.23
N 0.68
S 1.02
loop_
_atom_site_label
_atom_site_type_symbol
_atom_site_fract_x
_atom_site_fract_y
_atom_site_fract_z
C1 C 0.4989(3) 0.3438(1) 1.4389(3)
C2 C 0.6169(3) 0.35877(11) 1.4419(3)
C3 C 0.6186(3) 0.40540(11) 1.3894(3)
C4 C 0.6026(3) 0.41103(12) 1.2354(3)
C5 C 0.5185(3) 0.38108(12) 1.1255(3)
C6 C 0.3882(3) 0.38615(12) 1.0908(4)
C7 C 0.3484(3) 0.37843(12) 1.2085(4)
C8 C 0.3968(3) 0.33715(11) 1.2965(4)
H1 H 0.47330 0.36580 1.49120
H2 H 0.51300 0.31550 1.49000
H3 H 0.67670 0.35680 1.54140
H4 H 0.63940 0.33880 1.38120
H5 H 0.69610 0.41850 1.45070
H6 H 0.55370 0.42170 1.40150
H7 H 0.57441 0.44130 1.20690
H8 H 0.68180 0.40720 1.23320
H9 H 0.52970 0.38570 1.03630
H10 H 0.54100 0.35080 1.15940
H11 H 0.36550 0.41640 1.05630
H12 H 0.34490 0.36530 1.01350
H13 H 0.37360 0.40380 1.27380
H14 H 0.26040 0.37650 1.16580
H15 H 0.33090 0.32330 1.31340
H16 H 0.42390 0.31720 1.23980
C9 C 0.0182(3) 0.0960(1) 0.6546(3)
C10 C -0.1114(3) 0.1057(1) 0.6150(3)
C11 C -0.1423(3) 0.14623(12) 0.6776(3)
C12 C -0.1087(3) 0.14527(13) 0.8374(4)
C13 C 0.0007(3) 0.16998(12) 0.9248(4)
C14 C 0.1082(3) 0.16322(11) 0.8928(4)
C15 C 0.1602(3) 0.11816(11) 0.9120(4)
C16 C 0.0889(3) 0.0826(1) 0.8090(4)
H17 H 0.05560 0.12250 0.63590
H18 H -0.14580 0.08040 0.64490
H19 H -0.14980 0.10860 0.51000
H20 H -0.22930 0.15070 0.62950
H21 H -0.10080 0.17130 0.65700
H22 H -0.17570 0.15770 0.85530
H23 H -0.09660 0.11440 0.86890
H24 H 0.02280 0.16180 1.02550
H25 H -0.01940 0.20150 0.91210
H26 H 0.17110 0.18310 0.95560
H27 H 0.08610 0.17160 0.79220
H28 H 0.17330 0.10840 1.00920
H29 H 0.23770 0.12050 0.90420
H30 H 0.03190 0.07050 0.84550
H31 H 0.14540 0.05950 0.80940
S1 S 0.9991(6) 0.02389(2) 1.24877(7)
N1 N 0.9098(2) 0.10131(8) 1.2513(3)
N2 N 1.1063(2) 0.10032(8) 1.2973(3)
C17 C 1.0053(2) 0.07904(9) 1.2664(3)
H32 H 0.91400 0.13350 1.26180
H33 H 0.83350 0.08600 1.22940
H34 H 1.17960 0.08410 1.31050
H35 H 1.10860 0.13250 1.30750
S2 S -0.12565(6) 0.29930(2) 0.86764(7)
N3 N -0.1151(2) 0.26739(8) 0.6352(3)
N4 N -0.2849(2) 0.25301(8) 0.6642(3)
C18 C -0.1791(3) 0.27114(9) 0.7112(3)
H36 H -0.03530 0.28100 0.66890
H37 H -0.14680 0.25100 0.54440
H38 H -0.34410 0.25560 0.71990
H39 H -0.31530 0.23670 0.57320
S3 S 0.17729(6) 0.29506(2) 0.77289(7)
N5 N 0.3437(2) 0.25901(8) 0.9977(2)
N6 N 0.1708(2) 0.27517(8) 1.0179(2)
C19 C 0.2345(2) 0.27483(8) 0.9415(3)
H40 H 0.37630 0.24730 1.09600
H41 H 0.39300 0.25900 0.94170
H42 H 0.20450 0.26340 1.11600
H43 H 0.08910 0.28730 0.97730
S4 S -0.47060(6) 0.27214(2) 0.82808(7)
N7 N -0.5846(2) 0.34680(8) 0.7566(3)
N8 N -0.3861(2) 0.35004(8) 0.8139(3)
C20 C -0.4811(2) 0.32699(9) 0.7979(3)
H44 H -0.59010 0.37870 0.73920
H45 H -0.65690 0.32980 0.74300
H46 H -0.39300 0.38190 0.79620
H47 H -0.30780 0.33550 0.84390
S5 S 0.34963(6) 0.04846(2) 1.29469(7)
N9 N 0.3602(2) 0.01919(8) 1.0597(3)
N10 N 0.1889(2) 0.00486(8) 1.0847(3)
C21 C 0.2959(2) 0.02205(8) 1.1349(3)
H48 H 0.44060 0.03240 1.09580
H49 H 0.32850 0.00380 0.96700
H50 H 0.13900 0.00720 1.13970
H51 H 0.15820 -0.01040 0.99180
S6 S 0.65314(6) 0.04846(2) 1.20739(7)
N11 N 0.6412(2) 0.01891(9) 1.4414(3)
N12 N 0.8134(2) 0.00489(8) 1.4177(3)
C22 C 0.7063(2) 0.02202(8) 1.3666(3)
H52 H 0.67280 0.00350 1.53400
H53 H 0.56080 0.03200 1.40500
H54 H 0.84370 -0.01050 1.51050
H55 H 0.86380 0.00730 1.36340
#END
