
#######################################################################
#
#                 Cambridge Crystallographic Data Centre
#                                CCDC
#
#######################################################################
#
# If this CIF has been generated from an entry in the Cambridge
# Structural Database, then it will include bibliographic, chemical,
# crystal, experimental, refinement or atomic coordinate data resulting
# from the CCDC's data processing and validation procedures.
#
#######################################################################

data_CSD_CIF_EAOCPA
_audit_creation_date 1972-11-03
_audit_creation_method CSD-ConQuest-V1
_database_code_CSD EAOCPA
_database_code_depnum_ccdc_archive 'CCDC 1148042'
_chemical_formula_sum 'C16 H40 Cl5 N2 O1 Pa1'
_chemical_formula_moiety
;
2(C8 H20 N1 1+),Cl5 O1 Pa1 2-
;
_journal_coden_Cambridge 186
_journal_year 1972
_journal_page_first 857
_journal_name_full 'J.Chem.Soc.,Dalton Trans. '
loop_
_publ_author_name
"D.Brown"
"C.T.Reynolds"
"P.T.Moseley"
_chemical_name_systematic
;
bis(Tetraethylammonium) oxopentachloro-protactinate(v)
;
_chemical_name_common
;
Teaching Subset: Fundamental Chemistry
;
_cell_volume   2658.666
_exptl_crystal_density_diffrn 1.704
_diffrn_ambient_temperature ?
_diffrn_special_details
;
The study was carried out at room temperature,in the range 283-303K

;
#These two values have been output from a single CSD field.
_refine_ls_R_factor_gt 0.067
_refine_ls_wR_factor_gt 0.067
_symmetry_cell_setting monoclinic
_symmetry_space_group_name_H-M 'C c'
_symmetry_Int_Tables_number 9
loop_
_symmetry_equiv_pos_site_id
_symmetry_equiv_pos_as_xyz
1 x,y,z
2 1/2+x,1/2+y,z
3 x,-y,1/2+z
4 1/2+x,1/2-y,1/2+z
_cell_length_a 14.131(8)
_cell_length_b 14.218(8)
_cell_length_c 13.235(9)
_cell_angle_alpha 90
_cell_angle_beta 91.04(3)
_cell_angle_gamma 90
_cell_formula_units_Z 4
loop_
_atom_type_symbol
_atom_type_radius_bond
C 0.70
Cl 0.99
N 0.80
O 0.50
Pa 1.61
loop_
_atom_site_label
_atom_site_type_symbol
_atom_site_fract_x
_atom_site_fract_y
_atom_site_fract_z
Cl1 Cl 0.46730 0.06900 0.23640
Cl2 Cl 0.55330 0.43120 0.23200
Cl3 Cl 0.67050 0.20190 0.21210
Cl4 Cl 0.31610 0.28680 0.27260
Cl5 Cl 0.53130 0.24000 0.41260
O1 O 0.46270 0.23790 0.10680
Pa1 Pa 0.49530 0.24910 0.23380
C1 C -0.31600 -0.54560 0.51640
C2 C -0.31880 -0.61870 0.61100
C3 C -0.22340 -0.44250 0.58580
C4 C -0.14020 -0.39890 0.54880
C5 C -0.12990 -0.52680 0.41290
C6 C -0.15200 -0.61890 0.37390
C7 C -0.28090 -0.40100 0.40800
C8 C -0.36280 -0.34730 0.43080
N1 N -0.23750 -0.48960 0.48560
C9 C 0.17340 -0.50920 -0.60090
C10 C 0.09850 -0.55620 -0.60530
C11 C 0.19990 -0.45280 -0.38170
C12 C 0.13530 -0.41930 -0.38170
C13 C 0.31850 -0.56920 -0.50260
C14 C 0.39960 -0.61100 -0.45820
C15 C 0.32230 -0.41890 -0.55510
C16 C 0.26860 -0.34960 -0.59780
N2 N 0.24470 -0.48300 -0.48910
#END
