####################################################################### 
# 
# This file contains crystal structure data downloaded from the 
# Cambridge Structural Database (CSD) hosted by the Cambridge 
# Crystallographic Data Centre (CCDC).
# 
# Full information about CCDC data access policies and citation 
# guidelines are available at http://www.ccdc.cam.ac.uk/access/V1 
# 
# Audit and citation data items may have been added by the CCDC. 
# Please retain this information to preserve the provenance of 
# this file and to allow appropriate attribution of the data. 
# 
#######################################################################

data_a
_audit_block_doi                 10.5517/ccxhvy5
_database_code_depnum_ccdc_archive 'CCDC 849398'
loop_
_citation_id
_citation_doi
_citation_year
1 10.1016/j.inoche.2011.06.009 2011
_audit_update_record             
;
2011-10-19 deposited with the CCDC.	2024-07-09 downloaded from the CCDC.
;

_audit_creation_method           SHELXL-97
_chemical_name_systematic        
;
?
;
_chemical_name_common            ?
_chemical_melting_point          ?
_chemical_formula_moiety         ?
_chemical_formula_sum            'C30 H18 N3 Ni3 O13'
_chemical_formula_weight         804.60

loop_
_atom_type_symbol
_atom_type_description
_atom_type_scat_dispersion_real
_atom_type_scat_dispersion_imag
_atom_type_scat_source
C C 0.0033 0.0016 'International Tables Vol C Tables 4.2.6.8 and 6.1.1.4'
H H 0.0000 0.0000 'International Tables Vol C Tables 4.2.6.8 and 6.1.1.4'
N N 0.0061 0.0033 'International Tables Vol C Tables 4.2.6.8 and 6.1.1.4'
O O 0.0106 0.0060 'International Tables Vol C Tables 4.2.6.8 and 6.1.1.4'
Ni Ni 0.3393 1.1124 'International Tables Vol C Tables 4.2.6.8 and 6.1.1.4'

_symmetry_cell_setting           Cubic
_symmetry_space_group_name_H-M   I-43m

loop_
_symmetry_equiv_pos_as_xyz
'x, y, z'
'-x, -y, z'
'-x, y, -z'
'x, -y, -z'
'z, x, y'
'z, -x, -y'
'-z, -x, y'
'-z, x, -y'
'y, z, x'
'-y, z, -x'
'y, -z, -x'
'-y, -z, x'
'y, x, z'
'-y, -x, z'
'y, -x, -z'
'-y, x, -z'
'x, z, y'
'-x, z, -y'
'-x, -z, y'
'x, -z, -y'
'z, y, x'
'z, -y, -x'
'-z, y, -x'
'-z, -y, x'
'x+1/2, y+1/2, z+1/2'
'-x+1/2, -y+1/2, z+1/2'
'-x+1/2, y+1/2, -z+1/2'
'x+1/2, -y+1/2, -z+1/2'
'z+1/2, x+1/2, y+1/2'
'z+1/2, -x+1/2, -y+1/2'
'-z+1/2, -x+1/2, y+1/2'
'-z+1/2, x+1/2, -y+1/2'
'y+1/2, z+1/2, x+1/2'
'-y+1/2, z+1/2, -x+1/2'
'y+1/2, -z+1/2, -x+1/2'
'-y+1/2, -z+1/2, x+1/2'
'y+1/2, x+1/2, z+1/2'
'-y+1/2, -x+1/2, z+1/2'
'y+1/2, -x+1/2, -z+1/2'
'-y+1/2, x+1/2, -z+1/2'
'x+1/2, z+1/2, y+1/2'
'-x+1/2, z+1/2, -y+1/2'
'-x+1/2, -z+1/2, y+1/2'
'x+1/2, -z+1/2, -y+1/2'
'z+1/2, y+1/2, x+1/2'
'z+1/2, -y+1/2, -x+1/2'
'-z+1/2, y+1/2, -x+1/2'
'-z+1/2, -y+1/2, x+1/2'

_cell_length_a                   21.657(2)
_cell_length_b                   21.657(2)
_cell_length_c                   21.657(2)
_cell_angle_alpha                90.00
_cell_angle_beta                 90.00
_cell_angle_gamma                90.00
_cell_volume                     10157.7(17)
_cell_formula_units_Z            8
_cell_measurement_temperature    293(2)
_cell_measurement_reflns_used    156
_cell_measurement_theta_min      2.02
_cell_measurement_theta_max      22.3

_exptl_crystal_description       prism
_exptl_crystal_colour            green
_exptl_crystal_size_max          .22
_exptl_crystal_size_mid          .14
_exptl_crystal_size_min          .10
_exptl_crystal_density_meas      ?
_exptl_crystal_density_diffrn    1.052
_exptl_crystal_density_method    'not measured'
_exptl_crystal_F_000             3256
_exptl_absorpt_coefficient_mu    1.146
_exptl_absorpt_correction_type   none
_exptl_absorpt_correction_T_min  ?
_exptl_absorpt_correction_T_max  ?
_exptl_absorpt_process_details   none

_exptl_special_details           
;
?
;

_diffrn_ambient_temperature      293(2)
_diffrn_radiation_wavelength     0.71073
_diffrn_radiation_type           MoK\a
_diffrn_radiation_source         'fine-focus sealed tube'
_diffrn_radiation_monochromator  graphite
_diffrn_measurement_device_type  'Bruker P4'
_diffrn_measurement_method       '\w scans'
_diffrn_detector_area_resol_mean ?
_diffrn_standards_number         none
_diffrn_standards_interval_count none
_diffrn_standards_interval_time  none
_diffrn_standards_decay_%        none
_diffrn_reflns_number            40071
_diffrn_reflns_av_R_equivalents  0.0508
_diffrn_reflns_av_sigmaI/netI    0.0207
_diffrn_reflns_limit_h_min       -26
_diffrn_reflns_limit_h_max       28
_diffrn_reflns_limit_k_min       -28
_diffrn_reflns_limit_k_max       26
_diffrn_reflns_limit_l_min       -20
_diffrn_reflns_limit_l_max       28
_diffrn_reflns_theta_min         2.30
_diffrn_reflns_theta_max         27.46
_reflns_number_total             2150
_reflns_number_gt                2139
_reflns_threshold_expression     >2sigma(I)

_computing_data_collection       'Bruker XSCANS'
_computing_cell_refinement       'Bruker XSCANS'
_computing_data_reduction        'Bruker SHELXTL'
_computing_structure_solution    'SHELXS-97 (Sheldrick, 1990)'
_computing_structure_refinement  'SHELXL-97 (Sheldrick, 1997)'
_computing_molecular_graphics    'Bruker SHELXTL'
_computing_publication_material  'Bruker SHELXTL'

_refine_special_details          
;
Refinement of F^2^ against ALL reflections. The weighted R-factor wR and
goodness of fit S are based on F^2^, conventional R-factors R are based
on F, with F set to zero for negative F^2^. The threshold expression of
F^2^ > 2sigma(F^2^) is used only for calculating R-factors(gt) etc. and is
not relevant to the choice of reflections for refinement. R-factors based
on F^2^ are statistically about twice as large as those based on F, and R-
factors based on ALL data will be even larger.
;

_refine_ls_structure_factor_coef Fsqd
_refine_ls_matrix_type           full
_refine_ls_weighting_scheme      calc
_refine_ls_weighting_details     
'calc w=1/[\s^2^(Fo^2^)+(0.1328P)^2^+5.4136P] where P=(Fo^2^+2Fc^2^)/3'
_atom_sites_solution_primary     direct
_atom_sites_solution_secondary   difmap
_atom_sites_solution_hydrogens   geom
_refine_ls_hydrogen_treatment    none
_refine_ls_extinction_method     SHELXL
_refine_ls_extinction_coef       0.0024(4)
_refine_ls_extinction_expression Fc^*^=kFc[1+0.001xFc^2^\l^3^/sin(2\q)]^-1/4^
_refine_ls_abs_structure_details 'Flack H D (1983), Acta Cryst. A39, 876-881'
_refine_ls_abs_structure_Flack   0.02(3)
_refine_ls_number_reflns         2150
_refine_ls_number_parameters     86
_refine_ls_number_restraints     0
_refine_ls_R_factor_all          0.0552
_refine_ls_R_factor_gt           0.0549
_refine_ls_wR_factor_ref         0.1787
_refine_ls_wR_factor_gt          0.1784
_refine_ls_goodness_of_fit_ref   1.212
_refine_ls_restrained_S_all      1.212
_refine_ls_shift/su_max          0.001
_refine_ls_shift/su_mean         0.000

loop_
_atom_site_label
_atom_site_type_symbol
_atom_site_fract_x
_atom_site_fract_y
_atom_site_fract_z
_atom_site_U_iso_or_equiv
_atom_site_adp_type
_atom_site_occupancy
_atom_site_symmetry_multiplicity
_atom_site_calc_flag
_atom_site_refinement_flags
_atom_site_disorder_assembly
_atom_site_disorder_group
Ni1 Ni 0.232582(19) 0.11933(3) 0.767418(19) 0.0188(3) Uani 1 2 d S . .
O5 O 0.1982(2) 0.1982(2) 0.8018(2) 0.0319(15) Uani 1 6 d S . .
N1 N 0.22990(16) 0.22990(16) 0.46216(18) 0.0286(9) Uani 1 2 d S . .
O1 O 0.22675(17) 0.15318(15) 0.67831(13) 0.0414(8) Uani 1 1 d . . .
O3 O 0.2428(2) 0.07618(15) 0.85097(15) 0.0557(12) Uani 1 1 d . . .
C5 C 0.19189(18) 0.19189(18) 0.6528(2) 0.0242(9) Uani 1 2 d S . .
C1 C 0.20185(18) 0.20185(18) 0.5847(2) 0.0289(11) Uani 1 2 d S . .
C2 C 0.1687(2) 0.2452(2) 0.55269(19) 0.0425(12) Uani 1 1 d . . .
H2A H 0.1361 0.2657 0.5716 0.051 Uiso 1 1 calc R . .
C8 C 0.2590(6) 0.0611(2) 1.0149(3) 0.095(3) Uani 1 1 d . . .
H8A H 0.2625 0.1024 1.0261 0.114 Uiso 1 1 calc R . .
C7 C 0.2540(4) 0.04566(19) 0.95434(19) 0.0431(16) Uani 1 2 d S . .
C3 C 0.1841(2) 0.2583(2) 0.4912(2) 0.0424(11) Uani 1 1 d . . .
H3A H 0.1615 0.2880 0.4701 0.051 Uiso 1 1 calc R . .
C9 C 0.2460(3) 0.09432(17) 0.90568(17) 0.0346(13) Uani 1 2 d S . .

loop_
_atom_site_aniso_label
_atom_site_aniso_U_11
_atom_site_aniso_U_22
_atom_site_aniso_U_33
_atom_site_aniso_U_23
_atom_site_aniso_U_13
_atom_site_aniso_U_12
Ni1 0.0199(3) 0.0166(3) 0.0199(3) 0.00063(15) 0.0006(2) -0.00063(15)
O5 0.0319(15) 0.0319(15) 0.0319(15) -0.0146(19) -0.0146(19) 0.0146(19)
N1 0.0344(14) 0.0344(14) 0.0171(18) 0.0059(12) 0.0059(12) 0.0073(19)
O1 0.060(2) 0.0424(16) 0.0214(13) 0.0060(11) 0.0040(13) 0.0200(16)
O3 0.114(4) 0.0292(15) 0.0242(15) 0.0083(12) 0.0047(17) 0.0129(18)
C5 0.0286(14) 0.0286(14) 0.015(2) 0.0011(12) 0.0011(12) 0.0012(19)
C1 0.0308(16) 0.0308(16) 0.025(2) 0.0042(14) 0.0042(14) 0.004(2)
C2 0.044(2) 0.056(3) 0.028(2) 0.0102(18) 0.0094(16) 0.025(2)
C8 0.228(11) 0.024(2) 0.033(3) 0.008(2) -0.015(4) -0.009(4)
C7 0.072(5) 0.0285(17) 0.0285(17) 0.012(2) -0.0011(17) 0.0011(17)
C3 0.042(2) 0.051(3) 0.034(2) 0.0152(18) 0.0114(17) 0.020(2)
C9 0.055(4) 0.0244(15) 0.0244(15) 0.0086(19) 0.0046(16) -0.0046(16)

_geom_special_details            
;
All esds (except the esd in the dihedral angle between two l.s. planes)
are estimated using the full covariance matrix. The cell esds are taken
into account individually in the estimation of esds in distances, angles
and torsion angles; correlations between esds in cell parameters are only
used when they are defined by crystal symmetry. An approximate (isotropic)
treatment of cell esds is used for estimating esds involving l.s. planes.
;

loop_
_geom_bond_atom_site_label_1
_geom_bond_atom_site_label_2
_geom_bond_distance
_geom_bond_site_symmetry_2
_geom_bond_publ_flag
Ni1 O5 2.0066(8) . ?
Ni1 O3 2.049(3) 23_656 ?
Ni1 O3 2.049(3) . ?
Ni1 O1 2.068(3) 23_656 ?
Ni1 O1 2.068(3) . ?
Ni1 N1 2.106(4) 36 ?
O5 Ni1 2.0066(8) 8_656 ?
O5 Ni1 2.0066(8) 11_566 ?
N1 C3 1.325(5) 13 ?
N1 C3 1.325(5) . ?
N1 Ni1 2.106(4) 30_455 ?
O1 C5 1.256(4) . ?
O3 C9 1.250(4) . ?
C5 O1 1.256(4) 13 ?
C5 C1 1.507(6) . ?
C1 C2 1.370(5) 13 ?
C1 C2 1.370(5) . ?
C2 C3 1.402(6) . ?
C2 H2A 0.9300 . ?
C8 C7 1.358(6) . ?
C8 C8 1.417(10) 17_546 ?
C8 H8A 0.9300 . ?
C7 C8 1.358(6) 20_566 ?
C7 C9 1.500(7) . ?
C3 H3A 0.9300 . ?
C9 O3 1.250(4) 20_566 ?

loop_
_geom_angle_atom_site_label_1
_geom_angle_atom_site_label_2
_geom_angle_atom_site_label_3
_geom_angle
_geom_angle_site_symmetry_1
_geom_angle_site_symmetry_3
_geom_angle_publ_flag
O5 Ni1 O3 95.75(19) . 23_656 ?
O5 Ni1 O3 95.75(19) . . ?
O3 Ni1 O3 89.0(3) 23_656 . ?
O5 Ni1 O1 91.27(19) . 23_656 ?
O3 Ni1 O1 172.97(14) 23_656 23_656 ?
O3 Ni1 O1 90.40(18) . 23_656 ?
O5 Ni1 O1 91.27(19) . . ?
O3 Ni1 O1 90.40(18) 23_656 . ?
O3 Ni1 O1 172.97(14) . . ?
O1 Ni1 O1 89.3(2) 23_656 . ?
O5 Ni1 N1 178.6(3) . 36 ?
O3 Ni1 N1 85.23(14) 23_656 36 ?
O3 Ni1 N1 85.23(14) . 36 ?
O1 Ni1 N1 87.74(13) 23_656 36 ?
O1 Ni1 N1 87.74(13) . 36 ?
Ni1 O5 Ni1 119.61(5) . 8_656 ?
Ni1 O5 Ni1 119.61(5) . 11_566 ?
Ni1 O5 Ni1 119.61(5) 8_656 11_566 ?
C3 N1 C3 117.9(5) 13 . ?
C3 N1 Ni1 120.5(2) 13 30_455 ?
C3 N1 Ni1 120.5(2) . 30_455 ?
C5 O1 Ni1 133.1(3) . . ?
C9 O3 Ni1 134.4(3) . . ?
O1 C5 O1 127.5(5) . 13 ?
O1 C5 C1 116.1(2) . . ?
O1 C5 C1 116.1(2) 13 . ?
C2 C1 C2 117.5(5) 13 . ?
C2 C1 C5 121.2(3) 13 . ?
C2 C1 C5 121.2(3) . . ?
C1 C2 C3 119.6(4) . . ?
C1 C2 H2A 120.2 . . ?
C3 C2 H2A 120.2 . . ?
C7 C8 C8 120.6(3) . 17_546 ?
C7 C8 H8A 119.7 . . ?
C8 C8 H8A 119.7 17_546 . ?
C8 C7 C8 118.0(6) 20_566 . ?
C8 C7 C9 121.0(3) 20_566 . ?
C8 C7 C9 121.0(3) . . ?
N1 C3 C2 122.4(4) . . ?
N1 C3 H3A 118.8 . . ?
C2 C3 H3A 118.8 . . ?
O3 C9 O3 126.4(5) . 20_566 ?
O3 C9 C7 116.8(3) . . ?
O3 C9 C7 116.8(3) 20_566 . ?

_diffrn_measured_fraction_theta_max 0.991
_diffrn_reflns_theta_full        27.46
_diffrn_measured_fraction_theta_full 0.991
_refine_diff_density_max         1.155
_refine_diff_density_min         -0.813
_refine_diff_density_rms         0.172
