####################################################################### 
# 
# This file contains crystal structure data downloaded from the 
# Cambridge Structural Database (CSD) hosted by the Cambridge 
# Crystallographic Data Centre (CCDC).
# 
# Full information about CCDC data access policies and citation 
# guidelines are available at http://www.ccdc.cam.ac.uk/access/V1 
# 
# Audit and citation data items may have been added by the CCDC. 
# Please retain this information to preserve the provenance of 
# this file and to allow appropriate attribution of the data. 
# 
#######################################################################

data_Compound_2
_audit_block_doi                 10.5517/cc85wny
_database_code_depnum_ccdc_archive 'CCDC 243990'
loop_
_citation_id
_citation_doi
_citation_year
1 10.1021/cg0342009 2004
_audit_update_record             
;
2004-07-07 deposited with the CCDC.	2024-07-09 downloaded from the CCDC.
;

_audit_creation_method           SHELXL-97
_chemical_name_systematic        
;
?
;
_chemical_name_common            ?
_chemical_melting_point          ?
_chemical_formula_moiety         
'(C48 H24 N4 O8 Zn), 2(Zn), (C5 H5 N), 4(H2 O), 1.5(C5 H5 N), 2(H2 O)'
_chemical_formula_sum            'C60.50 H48.50 N6.50 O14 Zn3'
_chemical_formula_weight         1286.67

loop_
_atom_type_symbol
_atom_type_description
_atom_type_scat_dispersion_real
_atom_type_scat_dispersion_imag
_atom_type_scat_source
C C 0.0033 0.0016 'International Tables Vol C Tables 4.2.6.8 and 6.1.1.4'
H H 0.0000 0.0000 'International Tables Vol C Tables 4.2.6.8 and 6.1.1.4'
N N 0.0061 0.0033 'International Tables Vol C Tables 4.2.6.8 and 6.1.1.4'
O O 0.0106 0.0060 'International Tables Vol C Tables 4.2.6.8 and 6.1.1.4'
Zn Zn 0.2839 1.4301 'International Tables Vol C Tables 4.2.6.8 and 6.1.1.4'

_symmetry_cell_setting           triclinic
_symmetry_space_group_name_H-M   'P -1'

loop_
_symmetry_equiv_pos_as_xyz
'x, y, z'
'-x, -y, -z'

_cell_length_a                   13.2820(8)
_cell_length_b                   14.0630(7)
_cell_length_c                   16.9090(10)
_cell_angle_alpha                75.991(4)
_cell_angle_beta                 89.705(3)
_cell_angle_gamma                81.997(3)
_cell_volume                     3033.2(3)
_cell_formula_units_Z            2
_cell_measurement_temperature    110(2)
_cell_measurement_reflns_used    6591
_cell_measurement_theta_min      2.01
_cell_measurement_theta_max      25.00

_exptl_crystal_description       'thin plates'
_exptl_crystal_colour            red
_exptl_crystal_size_max          0.38
_exptl_crystal_size_mid          0.22
_exptl_crystal_size_min          0.05
_exptl_crystal_density_meas      ?
_exptl_crystal_density_diffrn    1.409
_exptl_crystal_density_method    'not measured'
_exptl_crystal_F_000             1318
_exptl_absorpt_coefficient_mu    1.245
_exptl_absorpt_correction_type   multi-scan
_exptl_absorpt_correction_T_min  0.6524
_exptl_absorpt_correction_T_max  0.9403
_exptl_absorpt_process_details   'Blessing (1995)'

_exptl_special_details           
;
?
;

_diffrn_ambient_temperature      110(2)
_diffrn_radiation_wavelength     0.71073
_diffrn_radiation_type           MoK\a
_diffrn_radiation_source         'fine-focus sealed tube'
_diffrn_radiation_monochromator  graphite
_diffrn_measurement_device_type  'Nonius KappaCCD'
_diffrn_measurement_method       '0.8 deg. Phi & Omega scans'
_diffrn_detector_area_resol_mean '56 microns'
_diffrn_standards_number         ?
_diffrn_standards_interval_count ?
_diffrn_standards_interval_time  ?
_diffrn_standards_decay_%        ?
_diffrn_reflns_number            23492
_diffrn_reflns_av_R_equivalents  0.0780
_diffrn_reflns_av_sigmaI/netI    0.0980
_diffrn_reflns_limit_h_min       0
_diffrn_reflns_limit_h_max       15
_diffrn_reflns_limit_k_min       -16
_diffrn_reflns_limit_k_max       16
_diffrn_reflns_limit_l_min       -20
_diffrn_reflns_limit_l_max       20
_diffrn_reflns_theta_min         2.01
_diffrn_reflns_theta_max         25.00
_reflns_number_total             10518
_reflns_number_gt                6591
_reflns_threshold_expression     >2sigma(I)

_computing_data_collection       'Collect, Nonius B.V.'
_computing_cell_refinement       Denzo
_computing_data_reduction        Denzo
_computing_structure_solution    SIR-97
_computing_structure_refinement  'SHELXL-97 (Sheldrick, 1997)'
_computing_molecular_graphics    ?
_computing_publication_material  ?

_refine_special_details          
;
Refinement of F^2^ against ALL reflections.  The weighted R-factor wR and
goodness of fit S are based on F^2^, conventional R-factors R are based
on F, with F set to zero for negative F^2^. The threshold expression of
F^2^ > 2sigma(F^2^) is used only for calculating R-factors(gt) etc. and is
not relevant to the choice of reflections for refinement.  R-factors based
on F^2^ are statistically about twice as large as those based on F, and R-
factors based on ALL data will be even larger.

The refinement is based on "Squeezed" intensity data.
;

_refine_ls_structure_factor_coef Fsqd
_refine_ls_matrix_type           full
_refine_ls_weighting_scheme      calc
_refine_ls_weighting_details     
'calc w=1/[\s^2^(Fo^2^)+(0.1003P)^2^+3.9504P] where P=(Fo^2^+2Fc^2^)/3'
_atom_sites_solution_primary     direct
_atom_sites_solution_secondary   difmap
_atom_sites_solution_hydrogens   geom
_refine_ls_hydrogen_treatment    mixed
_refine_ls_extinction_method     none
_refine_ls_extinction_coef       ?
_refine_ls_number_reflns         10518
_refine_ls_number_parameters     671
_refine_ls_number_restraints     0
_refine_ls_R_factor_all          0.1211
_refine_ls_R_factor_gt           0.0754
_refine_ls_wR_factor_ref         0.2032
_refine_ls_wR_factor_gt          0.1831
_refine_ls_goodness_of_fit_ref   1.029
_refine_ls_restrained_S_all      1.029
_refine_ls_shift/su_max          0.001
_refine_ls_shift/su_mean         0.000

loop_
_atom_site_label
_atom_site_type_symbol
_atom_site_fract_x
_atom_site_fract_y
_atom_site_fract_z
_atom_site_U_iso_or_equiv
_atom_site_adp_type
_atom_site_occupancy
_atom_site_symmetry_multiplicity
_atom_site_calc_flag
_atom_site_refinement_flags
_atom_site_disorder_assembly
_atom_site_disorder_group
Zn1 Zn 0.37439(5) 0.86250(5) -0.00181(4) 0.0252(2) Uani 1 1 d . . .
Zn2 Zn 0.10828(6) 1.43535(6) 0.38714(5) 0.0304(2) Uani 1 1 d . . .
Zn3 Zn -0.36982(6) 1.27655(6) -0.38496(5) 0.0357(2) Uani 1 1 d . . .
C1 C 0.1931(5) 1.0258(5) -0.0616(4) 0.0313(15) Uani 1 1 d . . .
C2 C 0.1249(5) 1.1000(5) -0.0309(4) 0.0341(16) Uani 1 1 d . . .
H2 H 0.0615 1.1342 -0.0550 0.041 Uiso 1 1 calc R . .
C3 C 0.1686(5) 1.1102(5) 0.0369(4) 0.0321(15) Uani 1 1 d . . .
H3 H 0.1423 1.1538 0.0695 0.039 Uiso 1 1 calc R . .
C4 C 0.2626(5) 1.0431(4) 0.0517(4) 0.0276(14) Uani 1 1 d . . .
C5 C 0.3339(5) 1.0348(4) 0.1147(4) 0.0256(14) Uani 1 1 d . . .
C6 C 0.4280(5) 0.9715(5) 0.1270(4) 0.0303(15) Uani 1 1 d . . .
C7 C 0.5103(5) 0.9759(5) 0.1806(4) 0.0302(15) Uani 1 1 d . . .
H7 H 0.5119 1.0231 0.2122 0.036 Uiso 1 1 calc R . .
C8 C 0.5846(5) 0.9012(5) 0.1779(4) 0.0297(15) Uani 1 1 d . . .
H8 H 0.6482 0.8857 0.2069 0.036 Uiso 1 1 calc R . .
C9 C 0.5484(5) 0.8491(5) 0.1222(4) 0.0273(14) Uani 1 1 d . . .
C10 C 0.6015(5) 0.7621(5) 0.1048(4) 0.0267(14) Uani 1 1 d . . .
C11 C 0.5758(5) 0.7193(5) 0.0424(4) 0.0275(14) Uani 1 1 d . . .
C12 C 0.6271(5) 0.6299(5) 0.0248(4) 0.0297(15) Uani 1 1 d . . .
H12 H 0.6820 0.5862 0.0555 0.036 Uiso 1 1 calc R . .
C13 C 0.5824(5) 0.6202(5) -0.0434(4) 0.0287(14) Uani 1 1 d . . .
H13 H 0.6006 0.5682 -0.0700 0.034 Uiso 1 1 calc R . .
C14 C 0.5028(5) 0.7017(5) -0.0691(4) 0.0282(14) Uani 1 1 d . . .
C15 C 0.4416(5) 0.7207(5) -0.1406(4) 0.0269(14) Uani 1 1 d . . .
C16 C 0.3588(5) 0.7991(5) -0.1625(4) 0.0303(15) Uani 1 1 d . . .
C17 C 0.2982(5) 0.8176(5) -0.2363(4) 0.0348(16) Uani 1 1 d . . .
H17 H 0.3081 0.7838 -0.2787 0.042 Uiso 1 1 calc R . .
C18 C 0.2243(5) 0.8926(5) -0.2331(4) 0.0347(16) Uani 1 1 d . . .
H18 H 0.1718 0.9216 -0.2731 0.042 Uiso 1 1 calc R . .
C19 C 0.2392(5) 0.9212(5) -0.1579(4) 0.0312(15) Uani 1 1 d . . .
C20 C 0.1778(5) 0.9959(5) -0.1326(4) 0.0263(14) Uani 1 1 d . . .
N21 N 0.2750(4) 0.9917(4) -0.0073(3) 0.0285(12) Uani 1 1 d . . .
N22 N 0.4555(4) 0.8949(4) 0.0890(3) 0.0289(12) Uani 1 1 d . . .
N23 N 0.4981(4) 0.7603(4) -0.0138(3) 0.0264(12) Uani 1 1 d . . .
N24 N 0.3232(4) 0.8621(4) -0.1169(3) 0.0258(12) Uani 1 1 d . . .
C25 C 0.3097(5) 1.0972(5) 0.1735(4) 0.0273(14) Uani 1 1 d . . .
C26 C 0.2907(5) 1.2005(5) 0.1498(4) 0.0272(14) Uani 1 1 d . . .
H26 H 0.2955 1.2327 0.0939 0.033 Uiso 1 1 calc R . .
C27 C 0.2653(5) 1.2572(5) 0.2051(4) 0.0299(15) Uani 1 1 d . . .
H27 H 0.2503 1.3272 0.1871 0.036 Uiso 1 1 calc R . .
C28 C 0.2617(5) 1.2112(5) 0.2870(4) 0.0328(16) Uani 1 1 d . . .
C29 C 0.2819(5) 1.1100(5) 0.3130(4) 0.0319(15) Uani 1 1 d . . .
H29 H 0.2787 1.0787 0.3693 0.038 Uiso 1 1 calc R . .
C30 C 0.3071(5) 1.0535(5) 0.2573(4) 0.0319(15) Uani 1 1 d . . .
H30 H 0.3229 0.9836 0.2761 0.038 Uiso 1 1 calc R . .
C31 C 0.2314(5) 1.2737(5) 0.3476(4) 0.0277(14) Uani 1 1 d . . .
C32 C 0.6907(5) 0.7091(5) 0.1623(4) 0.0272(14) Uani 1 1 d . . .
C33 C 0.6769(5) 0.6854(5) 0.2445(4) 0.0311(15) Uani 1 1 d . . .
H33 H 0.6114 0.7009 0.2648 0.037 Uiso 1 1 calc R . .
C34 C 0.7572(5) 0.6387(5) 0.2991(4) 0.0288(15) Uani 1 1 d . . .
H34 H 0.7468 0.6252 0.3561 0.035 Uiso 1 1 calc R . .
C35 C 0.8527(5) 0.6119(5) 0.2701(4) 0.0321(15) Uani 1 1 d . . .
C36 C 0.8653(5) 0.6349(5) 0.1860(4) 0.0298(15) Uani 1 1 d . . .
H36 H 0.9295 0.6158 0.1652 0.036 Uiso 1 1 calc R . .
C37 C 0.7870(5) 0.6845(5) 0.1328(4) 0.0283(14) Uani 1 1 d . . .
H37 H 0.7982 0.7022 0.0759 0.034 Uiso 1 1 calc R . .
C38 C 0.9381(5) 0.5608(5) 0.3292(4) 0.0317(15) Uani 1 1 d . . .
C39 C 0.4686(5) 0.6567(5) -0.1985(4) 0.0262(14) Uani 1 1 d . . .
C40 C 0.5064(5) 0.6966(5) -0.2745(4) 0.0306(15) Uani 1 1 d . . .
H40 H 0.5114 0.7653 -0.2905 0.037 Uiso 1 1 calc R . .
C41 C 0.5367(5) 0.6370(5) -0.3268(4) 0.0287(15) Uani 1 1 d . . .
H41 H 0.5633 0.6651 -0.3781 0.034 Uiso 1 1 calc R . .
C42 C 0.5287(5) 0.5362(5) -0.3056(4) 0.0335(16) Uani 1 1 d . . .
C43 C 0.4889(6) 0.4968(5) -0.2308(4) 0.0358(17) Uani 1 1 d . . .
H43 H 0.4824 0.4284 -0.2154 0.043 Uiso 1 1 calc R . .
C44 C 0.4582(6) 0.5578(5) -0.1776(4) 0.0379(17) Uani 1 1 d . . .
H44 H 0.4300 0.5305 -0.1269 0.045 Uiso 1 1 calc R . .
C45 C 0.5672(5) 0.4709(5) -0.3607(4) 0.0344(16) Uani 1 1 d . . .
C46 C 0.0874(5) 1.0526(5) -0.1877(4) 0.0288(15) Uani 1 1 d . . .
C47 C 0.0984(5) 1.1340(5) -0.2491(4) 0.0333(16) Uani 1 1 d . . .
H47 H 0.1630 1.1560 -0.2568 0.040 Uiso 1 1 calc R . .
C48 C 0.0181(5) 1.1843(5) -0.2995(4) 0.0351(16) Uani 1 1 d . . .
H48 H 0.0280 1.2394 -0.3426 0.042 Uiso 1 1 calc R . .
C49 C -0.0788(5) 1.1550(5) -0.2879(4) 0.0336(16) Uani 1 1 d . . .
C50 C -0.0906(5) 1.0749(6) -0.2252(5) 0.048(2) Uani 1 1 d . . .
H50 H -0.1558 1.0549 -0.2155 0.057 Uiso 1 1 calc R . .
C51 C -0.0067(6) 1.0224(6) -0.1754(5) 0.046(2) Uani 1 1 d . . .
H51 H -0.0150 0.9659 -0.1332 0.055 Uiso 1 1 calc R . .
C52 C -0.1668(6) 1.2137(5) -0.3416(4) 0.0376(17) Uani 1 1 d . . .
O1 O 0.1923(4) 1.3632(3) 0.3180(3) 0.0335(11) Uani 1 1 d . . .
O2 O 0.2456(4) 1.2356(4) 0.4225(3) 0.0419(12) Uani 1 1 d . . .
O3 O 0.9301(4) 0.5572(4) 0.4028(3) 0.0380(12) Uani 1 1 d . . .
O4 O 1.0165(3) 0.5196(3) 0.2992(3) 0.0335(11) Uani 1 1 d . . .
O5 O 0.5892(4) 0.5099(4) -0.4324(3) 0.0382(12) Uani 1 1 d . . .
O6 O 0.5760(4) 0.3790(4) -0.3291(3) 0.0417(12) Uani 1 1 d . . .
O7 O -0.2545(4) 1.1902(4) -0.3226(3) 0.0430(13) Uani 1 1 d . . .
O8 O -0.1515(4) 1.2797(4) -0.4021(4) 0.0546(15) Uani 1 1 d . . .
O53 O 0.1837(4) 1.5080(4) 0.4503(4) 0.0527(14) Uani 1 1 d . . .
H53A H 0.1725 1.5823 0.4333 0.07(3) Uiso 1 1 d R . .
H53B H 0.1439 1.4849 0.5019 0.07(3) Uiso 1 1 d R . .
O54 O 0.0370(5) 1.3350(5) 0.4649(4) 0.0671(18) Uani 1 1 d . . .
H54A H 0.1056 1.2877 0.4904 0.050 Uiso 1 1 d . . .
H54B H 0.0232 1.3622 0.5117 0.050 Uiso 1 1 d . . .
O55 O -0.4790(5) 1.1853(4) -0.3693(4) 0.0645(17) Uani 1 1 d . . .
H55A H -0.4737 1.1187 -0.3820 0.248 Uiso 1 1 d . . .
H55B H -0.5361 1.2216 -0.4034 0.019 Uiso 1 1 d . . .
O56 O -0.3616(6) 1.3281(5) -0.5057(4) 0.0731(19) Uani 1 1 d . . .
H56A H -0.3140 1.3547 -0.5422 0.050 Uiso 1 1 d . . .
H56B H -0.4057 1.2900 -0.5389 0.050 Uiso 1 1 d . . .
O57 O 0.3545(4) 0.3168(4) 0.5297(3) 0.0416(12) Uani 1 1 d . . .
H57A H 0.3772 0.3784 0.5067 0.09(4) Uiso 1 1 d R . .
H57B H 0.3159 0.2889 0.4918 0.07(3) Uiso 1 1 d R . .
N58 N 0.2868(4) 0.7570(4) 0.0701(3) 0.0315(13) Uani 1 1 d . . .
C59 C 0.1903(7) 0.7836(6) 0.0881(6) 0.057(2) Uani 1 1 d . . .
H59 H 0.1602 0.8502 0.0664 0.068 Uiso 1 1 calc R . .
C60 C 0.1317(7) 0.7196(7) 0.1364(6) 0.060(2) Uani 1 1 d . . .
H60 H 0.0640 0.7426 0.1483 0.072 Uiso 1 1 calc R . .
C61 C 0.1726(6) 0.6229(6) 0.1669(5) 0.047(2) Uani 1 1 d . . .
H61 H 0.1330 0.5763 0.1975 0.056 Uiso 1 1 calc R . .
C62 C 0.2728(7) 0.5954(7) 0.1518(6) 0.059(2) Uani 1 1 d . . .
H62 H 0.3050 0.5299 0.1751 0.070 Uiso 1 1 calc R . .
C63 C 0.3270(7) 0.6637(6) 0.1024(5) 0.053(2) Uani 1 1 d . . .
H63 H 0.3956 0.6427 0.0913 0.063 Uiso 1 1 calc R . .

loop_
_atom_site_aniso_label
_atom_site_aniso_U_11
_atom_site_aniso_U_22
_atom_site_aniso_U_33
_atom_site_aniso_U_23
_atom_site_aniso_U_13
_atom_site_aniso_U_12
Zn1 0.0237(4) 0.0273(4) 0.0241(4) -0.0077(3) -0.0037(3) 0.0009(3)
Zn2 0.0293(4) 0.0338(4) 0.0257(4) -0.0082(3) -0.0037(3) 0.0060(3)
Zn3 0.0355(5) 0.0335(5) 0.0365(5) -0.0105(4) -0.0101(4) 0.0051(3)
C1 0.032(4) 0.026(3) 0.033(4) -0.005(3) -0.006(3) -0.001(3)
C2 0.031(4) 0.033(4) 0.033(4) -0.004(3) 0.003(3) 0.004(3)
C3 0.030(4) 0.032(4) 0.035(4) -0.007(3) -0.005(3) -0.005(3)
C4 0.028(3) 0.023(3) 0.033(4) -0.011(3) -0.001(3) 0.002(3)
C5 0.022(3) 0.018(3) 0.033(4) -0.004(3) 0.002(3) 0.003(2)
C6 0.031(4) 0.031(4) 0.028(4) -0.002(3) -0.007(3) -0.005(3)
C7 0.036(4) 0.032(4) 0.024(4) -0.009(3) -0.006(3) -0.007(3)
C8 0.031(4) 0.029(4) 0.029(4) -0.008(3) -0.001(3) -0.004(3)
C9 0.022(3) 0.033(4) 0.030(4) -0.012(3) -0.004(3) -0.003(3)
C10 0.023(3) 0.032(4) 0.024(3) -0.007(3) -0.003(3) -0.001(3)
C11 0.024(3) 0.030(3) 0.024(3) -0.002(3) 0.002(3) 0.005(3)
C12 0.032(4) 0.031(4) 0.024(4) -0.006(3) 0.000(3) 0.002(3)
C13 0.033(4) 0.031(4) 0.024(4) -0.013(3) 0.003(3) -0.002(3)
C14 0.031(4) 0.024(3) 0.029(4) -0.005(3) 0.001(3) -0.004(3)
C15 0.028(3) 0.030(3) 0.022(3) -0.003(3) 0.000(3) -0.005(3)
C16 0.033(4) 0.032(4) 0.027(4) -0.008(3) -0.004(3) -0.006(3)
C17 0.032(4) 0.041(4) 0.031(4) -0.009(3) -0.006(3) -0.001(3)
C18 0.032(4) 0.043(4) 0.025(4) -0.007(3) -0.009(3) 0.006(3)
C19 0.028(4) 0.036(4) 0.025(4) 0.001(3) -0.006(3) -0.006(3)
C20 0.022(3) 0.028(3) 0.026(4) -0.004(3) -0.007(3) 0.002(3)
N21 0.030(3) 0.031(3) 0.026(3) -0.007(2) -0.004(2) -0.008(2)
N22 0.023(3) 0.028(3) 0.035(3) -0.009(2) -0.006(2) 0.003(2)
N23 0.027(3) 0.030(3) 0.022(3) -0.006(2) -0.002(2) -0.003(2)
N24 0.024(3) 0.026(3) 0.026(3) -0.004(2) -0.003(2) -0.001(2)
C25 0.023(3) 0.026(3) 0.032(4) -0.006(3) -0.008(3) 0.002(3)
C26 0.025(3) 0.034(4) 0.022(3) -0.007(3) -0.007(3) -0.001(3)
C27 0.030(4) 0.028(3) 0.030(4) -0.007(3) -0.007(3) 0.002(3)
C28 0.018(3) 0.041(4) 0.040(4) -0.016(3) -0.007(3) 0.004(3)
C29 0.039(4) 0.029(4) 0.027(4) -0.006(3) -0.002(3) -0.004(3)
C30 0.030(4) 0.030(4) 0.032(4) -0.005(3) 0.000(3) 0.000(3)
C31 0.024(3) 0.035(4) 0.024(4) -0.011(3) -0.008(3) 0.003(3)
C32 0.023(3) 0.027(3) 0.030(4) -0.006(3) -0.007(3) 0.001(3)
C33 0.024(3) 0.035(4) 0.030(4) -0.006(3) -0.003(3) 0.007(3)
C34 0.024(3) 0.037(4) 0.024(3) -0.011(3) 0.001(3) 0.008(3)
C35 0.030(4) 0.039(4) 0.027(4) -0.008(3) 0.002(3) -0.007(3)
C36 0.028(4) 0.039(4) 0.022(4) -0.008(3) 0.003(3) 0.000(3)
C37 0.026(3) 0.033(4) 0.023(4) -0.006(3) -0.004(3) 0.002(3)
C38 0.025(4) 0.034(4) 0.033(4) -0.007(3) -0.003(3) 0.005(3)
C39 0.021(3) 0.036(4) 0.022(3) -0.009(3) -0.010(3) 0.000(3)
C40 0.026(3) 0.031(4) 0.033(4) -0.007(3) -0.006(3) 0.001(3)
C41 0.026(3) 0.035(4) 0.027(4) -0.014(3) 0.001(3) 0.002(3)
C42 0.026(4) 0.039(4) 0.034(4) -0.012(3) -0.015(3) 0.007(3)
C43 0.055(5) 0.026(4) 0.031(4) -0.013(3) -0.001(3) -0.012(3)
C44 0.051(5) 0.037(4) 0.026(4) -0.004(3) 0.007(3) -0.011(3)
C45 0.030(4) 0.037(4) 0.034(4) -0.010(3) -0.012(3) 0.002(3)
C46 0.026(3) 0.029(3) 0.030(4) -0.006(3) -0.008(3) 0.000(3)
C47 0.029(4) 0.031(4) 0.036(4) -0.005(3) -0.004(3) 0.002(3)
C48 0.039(4) 0.030(4) 0.030(4) 0.002(3) -0.006(3) -0.003(3)
C49 0.029(4) 0.030(4) 0.037(4) 0.000(3) -0.007(3) 0.000(3)
C50 0.022(4) 0.050(5) 0.064(6) 0.006(4) -0.012(3) -0.018(3)
C51 0.034(4) 0.046(4) 0.050(5) 0.006(4) -0.012(3) -0.011(3)
C52 0.040(4) 0.036(4) 0.034(4) -0.004(3) -0.011(3) -0.003(3)
O1 0.036(3) 0.033(3) 0.031(3) -0.014(2) 0.000(2) 0.008(2)
O2 0.048(3) 0.042(3) 0.035(3) -0.016(2) -0.008(2) 0.008(2)
O3 0.032(3) 0.063(3) 0.017(2) -0.014(2) -0.001(2) 0.007(2)
O4 0.029(3) 0.044(3) 0.023(2) -0.007(2) -0.008(2) 0.005(2)
O5 0.038(3) 0.040(3) 0.037(3) -0.013(2) -0.001(2) -0.001(2)
O6 0.053(3) 0.032(3) 0.039(3) -0.012(2) -0.006(2) 0.005(2)
O7 0.027(3) 0.049(3) 0.047(3) -0.003(2) -0.010(2) 0.001(2)
O8 0.041(3) 0.052(3) 0.056(4) 0.014(3) -0.017(3) 0.000(2)
O53 0.053(3) 0.045(3) 0.057(4) -0.012(3) -0.005(3) 0.002(3)
O54 0.064(4) 0.066(4) 0.064(4) -0.003(3) 0.001(3) -0.005(3)
O55 0.052(4) 0.058(4) 0.079(5) -0.012(3) -0.019(3) 0.005(3)
O56 0.081(5) 0.087(5) 0.051(4) -0.013(3) -0.006(3) -0.018(4)
O57 0.045(3) 0.045(3) 0.037(3) -0.016(2) 0.000(2) -0.003(2)
N58 0.027(3) 0.034(3) 0.029(3) -0.002(2) -0.002(2) 0.001(2)
C59 0.059(6) 0.048(5) 0.060(6) -0.013(4) 0.017(5) 0.005(4)
C60 0.045(5) 0.063(6) 0.070(6) -0.012(5) 0.004(4) -0.005(4)
C61 0.046(5) 0.051(5) 0.039(5) 0.001(4) 0.000(4) -0.012(4)
C62 0.052(6) 0.057(5) 0.057(6) -0.004(4) -0.004(4) 0.008(4)
C63 0.045(5) 0.054(5) 0.055(5) -0.004(4) 0.002(4) -0.007(4)

_geom_special_details            
;
All esds (except the esd in the dihedral angle between two l.s. planes)
are estimated using the full covariance matrix.  The cell esds are taken
into account individually in the estimation of esds in distances, angles
and torsion angles;