
#######################################################################
#
#                 Cambridge Crystallographic Data Centre
#                                CCDC
#
#######################################################################
#
# If this CIF has been generated from an entry in the Cambridge
# Structural Database, then it will include bibliographic, chemical,
# crystal, experimental, refinement or atomic coordinate data resulting
# from the CCDC's data processing and validation procedures.
#
#######################################################################

data_CSD_CIF_EBEDUK
_audit_creation_date 2001-10-02
_audit_creation_method CSD-ConQuest-V1
_database_code_CSD EBEDUK
_database_code_depnum_ccdc_archive 'CCDC 1148157'
_chemical_formula_sum 'C16 H24 N2 Ru1'
_chemical_formula_moiety
;
C16 H24 N2 Ru1
;
_journal_coden_Cambridge 579
_journal_volume 19
_journal_year 2000
_journal_page_first 2853
_journal_name_full 'Organometallics '
loop_
_publ_author_name
"C.C.McComas"
"J.W.Ziller"
"D.L.Van Vranken"
_chemical_name_systematic
;
bis(\h^5^-2,3,4,5-Tetramethylpyrrolyl)-ruthenium
;
_chemical_name_common
;
Teaching Subset: Fundamental Chemistry
;
_chemical_melting_point 392
_cell_volume    761.566
_exptl_crystal_colour 'yellow'
_exptl_crystal_density_diffrn 1.506
_exptl_special_details
;
Melting point range 392-395K

;
_exptl_crystal_preparation 'ether'
_diffrn_ambient_temperature 158
#These two values have been output from a single CSD field.
_refine_ls_R_factor_gt 0.0179
_refine_ls_wR_factor_gt 0.0179
_symmetry_cell_setting triclinic
_symmetry_space_group_name_H-M 'P -1'
_symmetry_Int_Tables_number 2
loop_
_symmetry_equiv_pos_site_id
_symmetry_equiv_pos_as_xyz
1 x,y,z
2 -x,-y,-z
_cell_length_a 6.7396(3)
_cell_length_b 7.6114(4)
_cell_length_c 15.7190(8)
_cell_angle_alpha 76.992(1)
_cell_angle_beta 88.117(1)
_cell_angle_gamma 75.837(1)
_cell_formula_units_Z 2
loop_
_atom_type_symbol
_atom_type_radius_bond
C 0.68
H 0.23
N 0.68
Ru 1.40
loop_
_atom_site_label
_atom_site_type_symbol
_atom_site_fract_x
_atom_site_fract_y
_atom_site_fract_z
Ru1 Ru 0.2941(1) 0.5002(1) 0.2490(1)
N1 N 0.1164(2) 0.7866(2) 0.2052(1)
N2 N 0.1060(2) 0.2987(2) 0.2755(1)
C1 C 0.2264(2) 0.7704(2) 0.2812(1)
C2 C 0.4418(2) 0.7151(2) 0.2683(1)
C3 C 0.4650(2) 0.6975(2) 0.1793(1)
C4 C 0.2616(2) 0.7428(2) 0.1432(1)
C5 C 0.1216(3) 0.8207(2) 0.3604(1)
C6 C 0.6084(3) 0.6902(3) 0.3335(1)
C7 C 0.6611(3) 0.6537(3) 0.1323(1)
C8 C 0.1994(3) 0.7582(3) 0.0508(1)
C9 C 0.2233(2) 0.2817(2) 0.3498(1)
C10 C 0.4373(2) 0.2304(2) 0.3329(1)
C11 C 0.4516(2) 0.2149(2) 0.2436(1)
C12 C 0.2455(2) 0.2575(2) 0.2108(1)
C13 C 0.1234(3) 0.3012(2) 0.4346(1)
C14 C 0.6109(3) 0.1917(3) 0.3968(1)
C15 C 0.6443(3) 0.1586(3) 0.1956(1)
C16 C 0.1727(3) 0.2498(2) 0.1231(1)
H1 H 0.199(4) 0.758(3) 0.4112(17)
H2 H -0.010(4) 0.798(3) 0.3651(15)
H3 H 0.095(4) 0.950(3) 0.3558(15)
H4 H 0.734(4) 0.626(3) 0.3152(14)
H5 H 0.570(3) 0.626(3) 0.3895(15)
H6 H 0.626(3) 0.809(3) 0.3380(15)
H7 H 0.701(4) 0.760(4) 0.1057(18)
H8 H 0.767(3) 0.583(3) 0.1736(15)
H9 H 0.651(3) 0.582(3) 0.0888(15)
H10 H 0.063(4) 0.741(3) 0.0467(15)
H11 H 0.292(4) 0.666(3) 0.0269(15)
H12 H 0.202(3) 0.879(3) 0.0157(15)
H13 H 0.204(4) 0.333(3) 0.4704(16)
H14 H -0.007(3) 0.393(3) 0.4264(14)
H15 H 0.095(3) 0.184(3) 0.4642(15)
H16 H 0.577(3) 0.269(3) 0.4407(15)
H17 H 0.730(3) 0.215(3) 0.3673(14)
H18 H 0.639(4) 0.058(3) 0.4260(16)
H19 H 0.693(4) 0.028(3) 0.2034(16)
H20 H 0.623(4) 0.211(3) 0.1355(16)
H21 H 0.753(4) 0.191(3) 0.2183(15)
H22 H 0.049(4) 0.354(4) 0.1029(16)
H23 H 0.271(4) 0.263(3) 0.0829(16)
H24 H 0.139(4) 0.139(4) 0.1259(17)
#END
