
#######################################################################
#
#                 Cambridge Crystallographic Data Centre
#                                CCDC
#
#######################################################################
#
# If this CIF has been generated from an entry in the Cambridge
# Structural Database, then it will include bibliographic, chemical,
# crystal, experimental, refinement or atomic coordinate data resulting
# from the CCDC's data processing and validation procedures.
#
#######################################################################

data_CSD_CIF_EBENIJ
_audit_creation_date 2004-11-16
_audit_creation_method CSD-ConQuest-V1
_database_code_CSD EBENIJ
_database_code_depnum_ccdc_archive 'CCDC 215039'
_chemical_formula_sum 'C8 H24 Cl18 N2 W6'
_chemical_formula_moiety
;
2(C4 H12 N1 1+),Cl18 W6 2-
;
_journal_coden_Cambridge 29
_journal_volume 630
_journal_year 2004
_journal_page_first 987
_journal_name_full 'Z.Anorg.Allg.Chem. '
loop_
_publ_author_name
"S.Dill"
"J.Glaser"
"M.Strobele"
"S.Tragl"
"H.-J.Meyer"
_chemical_name_systematic
;
bis(Tetramethylammonium) dodecakis(\m~2~-chloro)-hexachloro-hexa-tungsten
;
_chemical_name_common
;
Teaching Subset: Fundamental Chemistry
;
_cell_volume    865.411
_exptl_crystal_colour 'dark brown'
_exptl_crystal_density_diffrn 3.626
_exptl_crystal_description 'octahedral'
_diffrn_ambient_temperature 293
#These two values have been output from a single CSD field.
_refine_ls_R_factor_gt 0.0208
_refine_ls_wR_factor_gt 0.0208
_symmetry_cell_setting hexagonal
_symmetry_space_group_name_H-M 'P -3 m 1'
_symmetry_Int_Tables_number 164
loop_
_symmetry_equiv_pos_site_id
_symmetry_equiv_pos_as_xyz
1 x,y,z
2 -y,x-y,z
3 y,x,-z
4 -x+y,-x,z
5 -x,-x+y,-z
6 x-y,-y,-z
7 -x,-y,-z
8 y,-x+y,-z
9 -y,-x,z
10 x-y,x,-z
11 x,x-y,z
12 -x+y,y,z
_cell_length_a 10.7932(10)
_cell_length_b 10.7932(10)
_cell_length_c 8.5781(7)
_cell_angle_alpha 90
_cell_angle_beta 90
_cell_angle_gamma 120
_cell_formula_units_Z 1
loop_
_atom_type_symbol
_atom_type_radius_bond
C 0.68
H 0.23
Cl 0.99
N 0.68
W 1.37
loop_
_atom_site_label
_atom_site_type_symbol
_atom_site_fract_x
_atom_site_fract_y
_atom_site_fract_z
W1 W 0.089425(12) 0.17885(2) 0.86380(2)
Cl1 Cl 0.20527(18) 0.10263(9) 0.68098(18)
Cl2 Cl 0.00000 0.31268(14) 1.00000
Cl3 Cl 0.19616(10) 0.3923(2) 0.7010(2)
N1 N 0.33330 0.66670 0.2943(11)
C1 C 0.4085(5) 0.8171(9) 0.3557(12)
H1 H 0.361(7) 0.857(7) 0.336(8)
H2 H 0.406(5) 0.813(11) 0.473(13)
C2 C 0.33330 0.66670 0.1220(16)
H3 H 0.292(4) 0.584(8) 0.097(9)
W1A W -0.178850(12) -0.089425(20) 0.86380(2)
W1C W 0.089425(12) -0.089425(20) 0.86380(2)
W1B W 0.178850(12) 0.089425(20) 1.13620(2)
W1E W -0.089425(12) -0.17885(2) 1.13620(2)
W1D W -0.089425(12) 0.089425(20) 1.13620(2)
Cl1B Cl 0.10263(18) 0.20527(9) 1.31902(18)
Cl1A Cl -0.10263(18) 0.10264(9) 0.68098(18)
Cl1D Cl -0.20527(18) -0.10264(9) 1.31902(18)
Cl1E Cl 0.10264(18) -0.10263(9) 1.31902(18)
Cl2B Cl 0.31268 0.00000(14) 1.00000
Cl1C Cl -0.10264(18) -0.20527(9) 0.68098(18)
Cl2A Cl -0.31268 -0.31268(14) 1.00000
Cl2F Cl 0.00000 -0.31268(14) 1.00000
Cl2I Cl -0.31268 0.00000(14) 1.00000
Cl3A Cl -0.3923(1) -0.19614(20) 0.7010(2)
Cl3D Cl -0.19616(10) 0.19614(20) 1.2990(2)
Cl2K Cl 0.31268 0.31268(14) 1.00000
Cl3B Cl 0.3923(1) 0.19616(20) 1.2990(2)
Cl3C Cl 0.19614(10) -0.19616(20) 0.7010(2)
Cl3E Cl -0.19614(10) -0.3923(2) 1.2990(2)
H1K H 0.496(7) 0.857(7) 0.336(8)
C1A C 0.1829(5) 0.5914(9) 0.3557(12)
H1A H 0.143(7) 0.504(7) 0.336(8)
H1H H 0.143(7) 0.639(7) 0.336(8)
H2A H 0.187(5) 0.593(11) 0.473(13)
C1C C 0.4086(5) 0.5915(9) 0.3557(12)
H1C H 0.496(7) 0.639(7) 0.336(8)
H1J H 0.361(7) 0.504(7) 0.336(8)
H2C H 0.407(5) 0.594(11) 0.473(13)
H3A H 0.416(4) 0.708(8) 0.097(9)
H3C H 0.292(4) 0.708(8) 0.097(9)
#END
