####################################################################### 
# 
# This file contains crystal structure data downloaded from the 
# Cambridge Structural Database (CSD) hosted by the Cambridge 
# Crystallographic Data Centre (CCDC).
# 
# Full information about CCDC data access policies and citation 
# guidelines are available at http://www.ccdc.cam.ac.uk/access/V1 
# 
# Audit and citation data items may have been added by the CCDC. 
# Please retain this information to preserve the provenance of 
# this file and to allow appropriate attribution of the data. 
# 
#######################################################################

data_3
_audit_block_doi                 10.5517/ccwpkmq
_database_code_depnum_ccdc_archive 'CCDC 825084'
loop_
_citation_id
_citation_doi
_citation_year
1 10.1039/c1ce05541k 2011
_audit_update_record             
;
2011-05-11 deposited with the CCDC.	2024-07-09 downloaded from the CCDC.
;
#TrackingRef '- 3.cif'


_audit_creation_method           SHELXL-97
_chemical_name_systematic        
;
?
;
_chemical_name_common            ?
_chemical_melting_point          ?
_chemical_formula_moiety         
'(C64 H38 N2 O12 Cd2 ) 2(C10 N2 H8) (C3 H7 N O) 19(H2 O) Cd '
_chemical_formula_sum            'C87 H99 N7 O32 Cd3'
_chemical_formula_weight         2091.93

loop_
_atom_type_symbol
_atom_type_description
_atom_type_scat_dispersion_real
_atom_type_scat_dispersion_imag
_atom_type_scat_source
C C 0.0033 0.0016 'International Tables Vol C Tables 4.2.6.8 and 6.1.1.4'
H H 0.0000 0.0000 'International Tables Vol C Tables 4.2.6.8 and 6.1.1.4'
N N 0.0061 0.0033 'International Tables Vol C Tables 4.2.6.8 and 6.1.1.4'
O O 0.0106 0.0060 'International Tables Vol C Tables 4.2.6.8 and 6.1.1.4'
Cd Cd -0.8075 1.2024 'International Tables Vol C Tables 4.2.6.8 and 6.1.1.4'

_symmetry_cell_setting           Monoclinic
_symmetry_space_group_name_H-M   P2(1)/c

loop_
_symmetry_equiv_pos_as_xyz
'x, y, z'
'-x, y+1/2, -z+1/2'
'-x, -y, -z'
'x, -y-1/2, z-1/2'

_cell_length_a                   16.8416(6)
_cell_length_b                   29.9444(9)
_cell_length_c                   15.9876(5)
_cell_angle_alpha                90.00
_cell_angle_beta                 98.0760(10)
_cell_angle_gamma                90.00
_cell_volume                     7982.8(4)
_cell_formula_units_Z            4
_cell_measurement_temperature    173(2)
_cell_measurement_reflns_used    2518
_cell_measurement_theta_min      2.78
_cell_measurement_theta_max      31.42

_exptl_crystal_description       block
_exptl_crystal_colour            yellow
_exptl_crystal_size_max          0.42
_exptl_crystal_size_mid          0.40
_exptl_crystal_size_min          0.37
_exptl_crystal_density_meas      ?
_exptl_crystal_density_diffrn    1.741
_exptl_crystal_density_method    'not measured'
_exptl_crystal_F_000             4280
_exptl_absorpt_coefficient_mu    0.891
_exptl_absorpt_correction_type   multi-scan
_exptl_absorpt_correction_T_min  0.7060
_exptl_absorpt_correction_T_max  0.7340
_exptl_absorpt_process_details   SADABS

_exptl_special_details           
;
?
;

_diffrn_ambient_temperature      173(2)
_diffrn_radiation_wavelength     0.71073
_diffrn_radiation_type           MoK\a
_diffrn_radiation_source         'fine-focus sealed tube'
_diffrn_radiation_monochromator  graphite
_diffrn_measurement_device_type  'multiwire proportional'
_diffrn_measurement_method       'phi and omega scans'
_diffrn_detector_area_resol_mean ?
_diffrn_standards_number         0
_diffrn_standards_interval_count 0
_diffrn_standards_interval_time  0
_diffrn_standards_decay_%        .
_diffrn_reflns_number            54211
_diffrn_reflns_av_R_equivalents  0.0408
_diffrn_reflns_av_sigmaI/netI    0.0487
_diffrn_reflns_limit_h_min       -15
_diffrn_reflns_limit_h_max       21
_diffrn_reflns_limit_k_min       -38
_diffrn_reflns_limit_k_max       38
_diffrn_reflns_limit_l_min       -20
_diffrn_reflns_limit_l_max       20
_diffrn_reflns_theta_min         3.00
_diffrn_reflns_theta_max         27.48
_reflns_number_total             17712
_reflns_number_gt                13131
_reflns_threshold_expression     >2sigma(I)

_computing_data_collection       'Bruker FRAMBO'
_computing_cell_refinement       'Bruker FRAMBO'
_computing_data_reduction        'Bruker SAINT'
_computing_structure_solution    'SHELXS-97 (Sheldrick, 1990)'
_computing_structure_refinement  'SHELXL-97 (Sheldrick, 1997)'
_computing_molecular_graphics    'Bruker SHELXTL'
_computing_publication_material  'Bruker SHELXTL'

_refine_special_details          
;
Refinement of F^2^ against ALL reflections. The weighted R-factor wR and
goodness of fit S are based on F^2^, conventional R-factors R are based
on F, with F set to zero for negative F^2^. The threshold expression of
F^2^ > 2sigma(F^2^) is used only for calculating R-factors(gt) etc. and is
not relevant to the choice of reflections for refinement. R-factors based
on F^2^ are statistically about twice as large as those based on F, and R-
factors based on ALL data will be even larger.


The SQUEEZE routine of the program PLATON was used
in order to eliminate the contribution of highly disordered
solvent molecules and ions (4,4'-bipy,
water molecules, DMF molecules and Cd ions),
thereby a final model based only on the ordered part of the crystal structure
was obtained.

;

_refine_ls_structure_factor_coef Fsqd
_refine_ls_matrix_type           full
_refine_ls_weighting_scheme      calc
_refine_ls_weighting_details     
'calc w=1/[\s^2^(Fo^2^)+(0.1081P)^2^+0.0000P] where P=(Fo^2^+2Fc^2^)/3'
_atom_sites_solution_primary     direct
_atom_sites_solution_secondary   difmap
_atom_sites_solution_hydrogens   geom
_refine_ls_hydrogen_treatment    constr
_refine_ls_extinction_method     none
_refine_ls_extinction_coef       ?
_refine_ls_number_reflns         17712
_refine_ls_number_parameters     721
_refine_ls_number_restraints     0
_refine_ls_R_factor_all          0.0693
_refine_ls_R_factor_gt           0.0506
_refine_ls_wR_factor_ref         0.1775
_refine_ls_wR_factor_gt          0.1610
_refine_ls_goodness_of_fit_ref   1.116
_refine_ls_restrained_S_all      1.142
_refine_ls_shift/su_max          0.000
_refine_ls_shift/su_mean         0.000

loop_
_atom_site_label
_atom_site_type_symbol
_atom_site_fract_x
_atom_site_fract_y
_atom_site_fract_z
_atom_site_U_iso_or_equiv
_atom_site_adp_type
_atom_site_occupancy
_atom_site_symmetry_multiplicity
_atom_site_calc_flag
_atom_site_refinement_flags
_atom_site_disorder_assembly
_atom_site_disorder_group
C1 C 0.2915(3) 0.33377(11) -0.1286(2) 0.0346(9) Uani 1 1 d . . .
C2 C 0.2543(2) 0.35719(12) -0.2083(2) 0.0334(8) Uani 1 1 d U . .
C3 C 0.1775(3) 0.37329(16) -0.2160(2) 0.0519(11) Uani 1 1 d U . .
H3 H 0.1461 0.3687 -0.1718 0.062 Uiso 1 1 calc R . .
C4 C 0.1456(3) 0.39627(17) -0.2882(3) 0.0561(12) Uani 1 1 d U . .
H4 H 0.0934 0.4088 -0.2910 0.067 Uiso 1 1 calc R . .
C5 C 0.1866(3) 0.40151(12) -0.3552(2) 0.0341(8) Uani 1 1 d U . .
C6 C 0.2602(4) 0.3826(2) -0.3493(3) 0.0767(17) Uani 1 1 d U . .
H6 H 0.2885 0.3838 -0.3967 0.092 Uiso 1 1 calc R . .
C7 C 0.2959(4) 0.3614(2) -0.2750(3) 0.0805(17) Uani 1 1 d U . .
H7 H 0.3490 0.3501 -0.2713 0.097 Uiso 1 1 calc R . .
C8 C 0.1117(3) 0.68820(13) -0.5168(2) 0.0372(9) Uani 1 1 d . . .
C9 C 0.1183(3) 0.63792(12) -0.5206(2) 0.0341(8) Uani 1 1 d . . .
C10 C 0.1781(3) 0.61520(13) -0.4681(2) 0.0391(9) Uani 1 1 d . . .
H10 H 0.2183 0.6317 -0.4335 0.047 Uiso 1 1 calc R . .
C11 C 0.1799(3) 0.56922(12) -0.4655(2) 0.0357(9) Uani 1 1 d . . .
H11 H 0.2206 0.5546 -0.4282 0.043 Uiso 1 1 calc R . .
C12 C 0.1229(2) 0.54362(12) -0.5170(2) 0.0305(8) Uani 1 1 d . . .
C13 C 0.0637(3) 0.56690(12) -0.5719(2) 0.0397(9) Uani 1 1 d . . .
H13 H 0.0251 0.5507 -0.6089 0.048 Uiso 1 1 calc R . .
C14 C 0.0615(3) 0.61307(13) -0.5719(2) 0.0409(10) Uani 1 1 d . . .
H14 H 0.0203 0.6281 -0.6079 0.049 Uiso 1 1 calc R . .
C15 C -0.0391(3) 0.32198(12) -0.8807(2) 0.0374(9) Uani 1 1 d . . .
C16 C -0.0046(3) 0.34743(12) -0.8030(2) 0.0353(9) Uani 1 1 d . . .
C17 C 0.0592(3) 0.37661(16) -0.8055(2) 0.0558(13) Uani 1 1 d . . .
H17 H 0.0819 0.3798 -0.8563 0.067 Uiso 1 1 calc R . .
C18 C 0.0905(3) 0.40125(16) -0.7344(3) 0.0535(12) Uani 1 1 d . . .
H18 H 0.1330 0.4218 -0.7376 0.064 Uiso 1 1 calc R . .
C19 C 0.0595(3) 0.39579(11) -0.6590(2) 0.0332(8) Uani 1 1 d . . .
C20 C -0.0010(3) 0.36572(14) -0.6555(2) 0.0490(11) Uani 1 1 d . . .
H20 H -0.0202 0.3606 -0.6031 0.059 Uiso 1 1 calc R . .
C21 C -0.0353(3) 0.34237(14) -0.7270(2) 0.0475(11) Uani 1 1 d . . .
H21 H -0.0795 0.3230 -0.7240 0.057 Uiso 1 1 calc R . .
C22 C 0.1522(2) 0.42493(12) -0.4349(2) 0.0314(8) Uani 1 1 d . . .
C23 C 0.1522(2) 0.47138(12) -0.4392(2) 0.0326(8) Uani 1 1 d . . .
H23 H 0.1723 0.4881 -0.3903 0.039 Uiso 1 1 calc R . .
C24 C 0.1232(2) 0.49385(12) -0.5138(2) 0.0318(8) Uani 1 1 d . . .
C25 C 0.0948(2) 0.46860(11) -0.5858(2) 0.0308(8) Uani 1 1 d . . .
H25 H 0.0763 0.4834 -0.6375 0.037 Uiso 1 1 calc R . .
C26 C 0.0932(2) 0.42210(12) -0.5825(2) 0.0326(8) Uani 1 1 d . . .
C27 C 0.1214(2) 0.40023(12) -0.5062(2) 0.0331(8) Uani 1 1 d . . .
H27 H 0.1194 0.3686 -0.5032 0.040 Uiso 1 1 calc R . .
C28 C 0.4391(3) 0.35006(14) 0.1253(2) 0.0417(10) Uani 1 1 d . . .
C29 C 0.4807(3) 0.37467(12) 0.2002(2) 0.0388(9) Uani 1 1 d . . .
C30 C 0.4432(3) 0.41046(13) 0.2350(2) 0.0397(9) Uani 1 1 d . . .
H30 H 0.3920 0.4203 0.2088 0.048 Uiso 1 1 calc R . .
C31 C 0.4801(3) 0.43186(13) 0.3077(2) 0.0383(9) Uani 1 1 d . . .
H31 H 0.4542 0.4564 0.3302 0.046 Uiso 1 1 calc R . .
C32 C 0.5549(3) 0.41753(12) 0.3479(2) 0.0361(9) Uani 1 1 d . . .
C33 C 0.5918(3) 0.38186(13) 0.3122(3) 0.0521(12) Uani 1 1 d . . .
H33 H 0.6431 0.3719 0.3379 0.063 Uiso 1 1 calc R . .
C34 C 0.5550(3) 0.36077(14) 0.2400(3) 0.0518(12) Uani 1 1 d . . .
H34 H 0.5810 0.3364 0.2174 0.062 Uiso 1 1 calc R . .
C35 C 0.8074(3) 0.33404(15) 0.8615(3) 0.0493(11) Uani 1 1 d . . .
C36 C 0.7691(3) 0.36003(14) 0.7871(3) 0.0467(11) Uani 1 1 d . . .
C37 C 0.7988(3) 0.40207(15) 0.7694(3) 0.0586(13) Uani 1 1 d . . .
H37 H 0.8434 0.4142 0.8052 0.070 Uiso 1 1 calc R . .
C38 C 0.7629(3) 0.42672(15) 0.6987(3) 0.0570(13) Uani 1 1 d . . .
H38 H 0.7825 0.4556 0.6882 0.068 Uiso 1 1 calc R . .
C39 C 0.6990(3) 0.40895(13) 0.6444(2) 0.0412(10) Uani 1 1 d . . .
C40 C 0.6776(4) 0.36591(17) 0.6575(4) 0.084(2) Uani 1 1 d . . .
H40 H 0.6381 0.3520 0.6176 0.101 Uiso 1 1 calc R . .
C41 C 0.7117(4) 0.34204(17) 0.7273(4) 0.087(2) Uani 1 1 d . . .
H41 H 0.6948 0.3121 0.7341 0.104 Uiso 1 1 calc R . .
C42 C 0.6328(3) 0.70122(13) 0.5232(2) 0.0381(9) Uani 1 1 d . . .
C43 C 0.6265(2) 0.65122(12) 0.5230(2) 0.0334(8) Uani 1 1 d . . .
C44 C 0.6884(3) 0.62598(12) 0.5694(2) 0.0359(9) Uani 1 1 d . . .
H44 H 0.7309 0.6406 0.6041 0.043 Uiso 1 1 calc R . .
C45 C 0.6871(2) 0.57991(12) 0.5643(2) 0.0353(8) Uani 1 1 d . . .
H45 H 0.7290 0.5631 0.5956 0.042 Uiso 1 1 calc R . .
C46 C 0.6251(2) 0.55764(11) 0.5136(2) 0.0302(8) Uani 1 1 d . . .
C47 C 0.5636(3) 0.58284(12) 0.4697(2) 0.0366(9) Uani 1 1 d . . .
H47 H 0.5205 0.5682 0.4357 0.044 Uiso 1 1 calc R . .
C48 C 0.5643(3) 0.62877(12) 0.4750(2) 0.0363(8) Uani 1 1 d . . .
H48 H 0.5212 0.6453 0.4450 0.044 Uiso 1 1 calc R . .
C49 C 0.5933(3) 0.43959(12) 0.4269(2) 0.0364(9) Uani 1 1 d . . .
C50 C 0.6280(2) 0.41474(12) 0.4958(2) 0.0373(9) Uani 1 1 d . . .
H50 H 0.6290 0.3831 0.4918 0.045 Uiso 1 1 calc R . .
C51 C 0.6615(2) 0.43543(12) 0.5712(2) 0.0349(8) Uani 1 1 d . . .
C52 C 0.6587(2) 0.48181(12) 0.5755(2) 0.0330(8) Uani 1 1 d . . .
H52 H 0.6799 0.4961 0.6268 0.040 Uiso 1 1 calc R . .
C53 C 0.6262(2) 0.50771(12) 0.5081(2) 0.0305(8) Uani 1 1 d . . .
C54 C 0.5920(2) 0.48655(12) 0.4338(2) 0.0348(8) Uani 1 1 d . . .
H54 H 0.5676 0.5040 0.3875 0.042 Uiso 1 1 calc R . .
C55 C 0.2714(4) 0.2929(2) 0.1821(3) 0.0784(17) Uani 1 1 d U . .
H55 H 0.3117 0.3147 0.1982 0.094 Uiso 1 1 calc R . .
C56 C 0.2145(4) 0.2846(2) 0.2365(3) 0.0718(16) Uani 1 1 d U . .
H56 H 0.2162 0.3013 0.2873 0.086 Uiso 1 1 calc R . .
C57 C 0.1580(3) 0.25354(12) 0.2175(2) 0.0358(8) Uani 1 1 d U . .
C58 C 0.1553(3) 0.23194(17) 0.1420(3) 0.0571(12) Uani 1 1 d U . .
H58 H 0.1142 0.2108 0.1245 0.069 Uiso 1 1 calc R . .
C59 C 0.2137(3) 0.24148(17) 0.0909(3) 0.0549(12) Uani 1 1 d U . .
H59 H 0.2124 0.2253 0.0396 0.066 Uiso 1 1 calc R . .
C60 C 0.0526(3) 0.24918(16) 0.4108(2) 0.0469(11) Uani 1 1 d . . .
H60 H 0.0640 0.2565 0.4690 0.056 Uiso 1 1 calc R . .
C61 C 0.1117(3) 0.25585(15) 0.3602(2) 0.0453(10) Uani 1 1 d . . .
H61 H 0.1624 0.2675 0.3839 0.054 Uiso 1 1 calc R . .
C62 C 0.0970(3) 0.24545(12) 0.2745(2) 0.0370(9) Uani 1 1 d . . .
C63 C 0.0212(3) 0.22789(14) 0.2444(2) 0.0442(10) Uani 1 1 d . . .
H63 H 0.0082 0.2199 0.1866 0.053 Uiso 1 1 calc R . .
C64 C -0.0343(3) 0.22221(14) 0.2990(2) 0.0448(10) Uani 1 1 d . . .
H64 H -0.0853 0.2102 0.2776 0.054 Uiso 1 1 calc R . .
Cd1 Cd 0.357057(18) 0.290605(8) 0.011872(15) 0.03153(10) Uani 1 1 d . . .
Cd2 Cd 0.107280(18) 0.777445(8) -0.479437(16) 0.03241(10) Uani 1 1 d . . .
N1 N 0.2717(2) 0.27200(10) 0.10981(19) 0.0385(8) Uani 1 1 d U . .
N2 N -0.0192(2) 0.23297(11) 0.38156(18) 0.0371(7) Uani 1 1 d . . .
O1 O 0.24812(17) 0.32493(9) -0.07247(15) 0.0364(6) Uani 1 1 d . . .
O2 O 0.36427(18) 0.32293(9) -0.11989(15) 0.0418(7) Uani 1 1 d . . .
O3 O 0.1709(2) 0.71022(8) -0.4826(2) 0.0476(8) Uani 1 1 d . . .
O4 O 0.0468(2) 0.70650(8) -0.54498(17) 0.0446(8) Uani 1 1 d . . .
O5 O 0.00240(19) 0.31627(9) -0.93895(16) 0.0419(7) Uani 1 1 d . . .
O6 O -0.1097(2) 0.30703(9) -0.88577(16) 0.0442(7) Uani 1 1 d . . .
O7 O 0.3741(2) 0.36469(10) 0.08680(17) 0.0460(7) Uani 1 1 d . . .
O8 O 0.4681(2) 0.31355(11) 0.1043(2) 0.0627(10) Uani 1 1 d . . .
O9 O 0.7854(2) 0.29448(12) 0.8710(2) 0.0740(12) Uani 1 1 d . . .
O10 O 0.8643(2) 0.35123(10) 0.9114(2) 0.0609(9) Uani 1 1 d . . .
O11 O 0.6925(2) 0.72030(8) 0.56090(17) 0.0418(7) Uani 1 1 d . . .
O12 O 0.5749(2) 0.72315(9) 0.4801(2) 0.0514(8) Uani 1 1 d . . .

loop_
_atom_site_aniso_label
_atom_site_aniso_U_11
_atom_site_aniso_U_22
_atom_site_aniso_U_33
_atom_site_aniso_U_23
_atom_site_aniso_U_13
_atom_site_aniso_U_12
C1 0.047(3) 0.0286(17) 0.0280(17) 0.0009(14) 0.0030(16) 0.0008(16)
C2 0.038(2) 0.0361(17) 0.0253(15) 0.0031(14) 0.0005(14) 0.0039(15)
C3 0.048(3) 0.076(3) 0.0324(18) 0.0162(19) 0.0088(17) 0.013(2)
C4 0.048(3) 0.080(3) 0.040(2) 0.017(2) 0.0084(19) 0.021(2)
C5 0.042(2) 0.0336(17) 0.0258(16) 0.0010(14) 0.0007(15) 0.0037(15)
C6 0.071(3) 0.113(4) 0.051(2) 0.036(3) 0.024(2) 0.035(3)
C7 0.069(3) 0.113(4) 0.063(3) 0.040(3) 0.024(2) 0.038(3)
C8 0.046(3) 0.039(2) 0.0264(17) -0.0035(15) 0.0042(16) -0.0005(18)
C9 0.043(3) 0.0310(18) 0.0290(17) 0.0001(14) 0.0064(16) 0.0013(16)
C10 0.042(3) 0.0379(19) 0.0369(19) -0.0029(16) 0.0027(17) -0.0029(17)
C11 0.038(2) 0.0337(18) 0.0322(18) -0.0016(15) -0.0057(16) 0.0029(16)
C12 0.031(2) 0.0317(17) 0.0278(16) -0.0018(14) 0.0013(14) 0.0020(14)
C13 0.050(3) 0.0334(19) 0.0325(19) -0.0019(15) -0.0062(17) 0.0048(17)
C14 0.046(3) 0.0351(19) 0.039(2) -0.0020(16) -0.0054(18) 0.0093(17)
C15 0.048(3) 0.0308(18) 0.0318(18) 0.0001(15) 0.0014(17) -0.0009(17)
C16 0.046(3) 0.0305(17) 0.0282(17) -0.0022(14) -0.0004(16) -0.0035(16)
C17 0.075(4) 0.067(3) 0.0291(19) -0.013(2) 0.019(2) -0.024(3)
C18 0.064(4) 0.060(3) 0.038(2) -0.009(2) 0.012(2) -0.027(2)
C19 0.046(3) 0.0288(17) 0.0244(16) -0.0003(14) 0.0039(15) 0.0012(16)
C20 0.067(4) 0.052(2) 0.0313(19) -0.0060(18) 0.017(2) -0.015(2)
C21 0.064(3) 0.046(2) 0.035(2) -0.0055(17) 0.014(2) -0.021(2)
C22 0.037(2) 0.0352(18) 0.0217(15) 0.0042(14) 0.0026(14) 0.0040(15)
C23 0.036(2) 0.0351(18) 0.0251(16) -0.0025(14) 0.0000(15) 0.0004(15)
C24 0.039(2) 0.0287(17) 0.0274(17) -0.0010(13) 0.0036(15) 0.0020(15)
C25 0.035(2) 0.0305(17) 0.0266(16) 0.0029(14) 0.0029(14) 0.0001(15)
C26 0.037(2) 0.0349(18) 0.0265(16) -0.0011(14) 0.0047(15) 0.0005(15)
C27 0.043(2) 0.0274(17) 0.0284(17) 0.0019(14) 0.0024(16) 0.0013(15)
C28 0.043(3) 0.045(2) 0.036(2) -0.0007(17) 0.0009(18) -0.0111(18)
C29 0.043(3) 0.0341(19) 0.0364(19) -0.0047(16) -0.0048(17) -0.0066(16)
C30 0.038(3) 0.043(2) 0.0359(19) 0.0002(16) -0.0045(17) -0.0021(17)
C31 0.043(3) 0.0377(19) 0.0332(18) -0.0007(15) 0.0006(17) 0.0014(17)
C32 0.039(2) 0.0313(18) 0.0354(19) -0.0024(15) -0.0032(16) -0.0031(16)
C33 0.052(3) 0.040(2) 0.058(3) -0.012(2) -0.016(2) 0.006(2)
C34 0.053(3) 0.042(2) 0.054(3) -0.016(2) -0.011(2) 0.008(2)
C35 0.045(3) 0.052(2) 0.049(2) 0.010(2) -0.002(2) 0.009(2)
C36 0.046(3) 0.045(2) 0.045(2) 0.0080(19) -0.0060(19) 0.0101(19)
C37 0.063(4) 0.050(2) 0.056(3) 0.007(2) -0.016(2) -0.009(2)
C38 0.060(4) 0.043(2) 0.063(3) 0.010(2) -0.009(2) -0.007(2)
C39 0.046(3) 0.0358(19) 0.038(2) 0.0025(16) -0.0052(18) 0.0061(17)
C40 0.109(6) 0.051(3) 0.075(4) 0.017(3) -0.049(4) -0.026(3)
C41 0.103(5) 0.049(3) 0.091(4) 0.033(3) -0.043(4) -0.030(3)
C42 0.045(3) 0.0332(19) 0.0364(19) -0.0003(16) 0.0078(17) -0.0001(17)
C43 0.038(2) 0.0291(17) 0.0329(18) 0.0009(14) 0.0046(16) -0.0031(15)
C44 0.039(2) 0.0354(19) 0.0318(18) -0.0029(15) -0.0006(16) -0.0075(16)
C45 0.034(2) 0.0378(19) 0.0320(18) 0.0024(15) -0.0033(15) -0.0026(16)
C46 0.035(2) 0.0293(17) 0.0263(16) -0.0025(13) 0.0043(14) -0.0029(14)
C47 0.034(2) 0.0370(19) 0.0367(19) 0.0009(16) -0.0035(16) -0.0045(16)
C48 0.033(2) 0.0354(19) 0.0398(19) 0.0014(16) 0.0017(16) 0.0029(15)
C49 0.036(2) 0.0345(18) 0.0372(1