####################################################################### 
# 
# This file contains crystal structure data downloaded from the 
# Cambridge Structural Database (CSD) hosted by the Cambridge 
# Crystallographic Data Centre (CCDC).
# 
# Full information about CCDC data access policies and citation 
# guidelines are available at http://www.ccdc.cam.ac.uk/access/V1 
# 
# Audit and citation data items may have been added by the CCDC. 
# Please retain this information to preserve the provenance of 
# this file and to allow appropriate attribution of the data. 
# 
#######################################################################

data_2b_[Fe(III)L3Ag](ClO4)_4THF
_audit_block_doi                 10.5517/ccwnxyc
_database_code_depnum_ccdc_archive 'CCDC 824474'
loop_
_citation_id
_citation_doi
_citation_year
1 10.1039/c1ce05520h 2011
_audit_update_record             
;
2011-05-05 deposited with the CCDC.	2024-07-09 downloaded from the CCDC.
;
#TrackingRef '- 2b_supp796.cif'


_chemical_formula_sum            'C55 H59 Ag Cl Fe N6 O14'
_chemical_formula_weight         1227.25

loop_
_atom_type_symbol
_atom_type_description
_atom_type_scat_dispersion_real
_atom_type_scat_dispersion_imag
_atom_type_scat_source
C C 0.0033 0.0016 'International Tables Vol C Tables 4.2.6.8 and 6.1.1.4'
H H 0.0000 0.0000 'International Tables Vol C Tables 4.2.6.8 and 6.1.1.4'
N N 0.0061 0.0033 'International Tables Vol C Tables 4.2.6.8 and 6.1.1.4'
O O 0.0106 0.0060 'International Tables Vol C Tables 4.2.6.8 and 6.1.1.4'
Cl Cl 0.1484 0.1585 'International Tables Vol C Tables 4.2.6.8 and 6.1.1.4'
Fe Fe 0.3463 0.8444 'International Tables Vol C Tables 4.2.6.8 and 6.1.1.4'
Ag Ag -0.8971 1.1015 'International Tables Vol C Tables 4.2.6.8 and 6.1.1.4'

_symmetry_cell_setting           Monoclinic
_symmetry_space_group_name_H-M   C2/c

loop_
_symmetry_equiv_pos_as_xyz
'x, y, z'
'-x, y, -z+1/2'
'x+1/2, y+1/2, z'
'-x+1/2, y+1/2, -z+1/2'
'-x, -y, -z'
'x, -y, z-1/2'
'-x+1/2, -y+1/2, -z'
'x+1/2, -y+1/2, z-1/2'

_cell_length_a                   13.402(2)
_cell_length_b                   23.473(4)
_cell_length_c                   17.618(3)
_cell_angle_alpha                90.00
_cell_angle_beta                 96.560(2)
_cell_angle_gamma                90.00
_cell_volume                     5506.2(14)
_cell_formula_units_Z            4
_cell_measurement_temperature    150(2)
_cell_measurement_reflns_used    7326
_cell_measurement_theta_min      3
_cell_measurement_theta_max      27

_exptl_crystal_description       needle
_exptl_crystal_colour            red
_exptl_crystal_size_max          0.336
_exptl_crystal_size_mid          0.126
_exptl_crystal_size_min          0.026
_exptl_crystal_density_diffrn    1.480
_exptl_crystal_density_method    'not measured'
_exptl_crystal_F_000             2532
_exptl_absorpt_coefficient_mu    0.739
_exptl_absorpt_correction_type   multi-scan
_exptl_absorpt_process_details   
;(Sheldrick G.M.(1996),
SADABS University of Gottingen,Germany.)
;
_exptl_absorpt_correction_T_min  0.87
_exptl_absorpt_correction_T_max  1

_diffrn_ambient_temperature      150(2)
_diffrn_radiation_wavelength     0.71073
_diffrn_radiation_type           MoK\a
_diffrn_radiation_source         'fine-focus sealed tube'
_diffrn_radiation_monochromator  graphite
_diffrn_measurement_method       omega-scan
_diffrn_standards_decay_%        1
_diffrn_reflns_number            34027
_diffrn_reflns_av_R_equivalents  0.0556
_diffrn_reflns_av_sigmaI/netI    0.0521
_diffrn_reflns_limit_h_min       -17
_diffrn_reflns_limit_h_max       17
_diffrn_reflns_limit_k_min       -31
_diffrn_reflns_limit_k_max       30
_diffrn_reflns_limit_l_min       -24
_diffrn_reflns_limit_l_max       24
_diffrn_reflns_theta_min         2.01
_diffrn_reflns_theta_max         29.36
_reflns_number_total             7114
_reflns_number_gt                5200
_reflns_threshold_expression     >2sigma(I)

_computing_structure_solution    SIR97
_computing_structure_refinement  'SHELXL-97 (Sheldrick, 1997)'
_computing_molecular_graphics    TOPOS

_refine_special_details          
;
Refinement of F^2^ against ALL reflections. The weighted R-factor wR and
goodness of fit S are based on F^2^, conventional R-factors R are based
on F, with F set to zero for negative F^2^.

The perchlorate anions were refined as rigid grouop and are disordered
on two position with 50% occupancy giving a total of 4 ClO4 per unit cell
in agreement with the electroneutrality of the whole compound.


;

_refine_ls_structure_factor_coef Fsqd
_refine_ls_matrix_type           full
_refine_ls_weighting_scheme      calc
_refine_ls_weighting_details     
'calc w=1/[\s^2^(Fo^2^)+(0.0511P)^2^+13.9010P] where P=(Fo^2^+2Fc^2^)/3'
_atom_sites_solution_primary     direct
_atom_sites_solution_secondary   difmap
_atom_sites_solution_hydrogens   geom
_refine_ls_hydrogen_treatment    constr
_refine_ls_extinction_method     none
_refine_ls_number_reflns         7114
_refine_ls_number_parameters     347
_refine_ls_number_restraints     0
_refine_ls_R_factor_all          0.0765
_refine_ls_R_factor_gt           0.0464
_refine_ls_wR_factor_all         0.1177
_refine_ls_wR_factor_ref         0.1037
_refine_ls_goodness_of_fit_all   1.011
_refine_ls_restrained_S_all      1.011
_refine_ls_shift/su_max          0.000
_refine_ls_shift/su_mean         0.000

loop_
_atom_site_label
_atom_site_type_symbol
_atom_site_fract_x
_atom_site_fract_y
_atom_site_fract_z
_atom_site_U_iso_or_equiv
_atom_site_adp_type
_atom_site_occupancy
_atom_site_symmetry_multiplicity
_atom_site_calc_flag
_atom_site_refinement_flags
_atom_site_disorder_assembly
_atom_site_disorder_group
Ag1 Ag 0.5000 0.165466(14) 0.7500 0.02548(10) Uani 1 2 d S . .
Fe1 Fe 1.0000 0.43567(2) 0.7500 0.01836(13) Uani 1 2 d S . .
O3 O 0.89544(15) 0.37483(8) 0.73972(11) 0.0244(4) Uani 1 1 d . . .
O1 O 0.39087(14) 0.00777(8) 1.22597(10) 0.0207(4) Uani 1 1 d . . .
O2 O 0.51208(15) 0.06588(8) 1.13821(11) 0.0228(4) Uani 1 1 d . . .
C9 C 0.2481(2) -0.03822(12) 1.16437(16) 0.0220(6) Uani 1 1 d . . .
N2 N 0.49904(19) 0.11957(10) 0.86486(13) 0.0247(5) Uani 1 1 d . . .
N1 N 0.07954(19) -0.10760(12) 1.17201(16) 0.0336(6) Uani 1 1 d . . .
C3 C 0.4444(2) 0.05391(12) 1.08375(15) 0.0200(5) Uani 1 1 d . . .
C2 C 0.3583(2) 0.02233(13) 1.09228(16) 0.0251(6) Uani 1 1 d . . .
H2 H 0.3121 0.0164 1.0494 0.030 Uiso 1 1 calc R . .
C1 C 0.3377(2) -0.00082(12) 1.16184(15) 0.0209(5) Uani 1 1 d . . .
C5 C 0.4098(2) 0.05587(12) 0.93914(16) 0.0242(6) Uani 1 1 d . . .
H5 H 0.3611 0.0277 0.9401 0.029 Uiso 1 1 calc R . .
C10 C 0.2051(2) -0.04439(14) 1.23176(17) 0.0273(6) Uani 1 1 d . . .
H10 H 0.2318 -0.0253 1.2757 0.033 Uiso 1 1 calc R . .
C7 C 0.4317(2) 0.07843(13) 0.87067(16) 0.0257(6) Uani 1 1 d . . .
H7 H 0.3975 0.0641 0.8259 0.031 Uiso 1 1 calc R . .
C8 C 0.5490(3) 0.13877(15) 0.93003(17) 0.0343(7) Uani 1 1 d . . .
H8 H 0.5965 0.1673 0.9272 0.041 Uiso 1 1 calc R . .
C15 C 0.9075(2) 0.32143(12) 0.74510(17) 0.0264(6) Uani 1 1 d . . .
N3 N 0.6381(2) 0.22428(12) 0.74560(18) 0.0393(7) Uani 1 1 d . . .
O200 O 0.2005(2) 0.97407(12) 0.91402(16) 0.0503(7) Uani 1 1 d . . .
C18 C 0.7234(2) 0.30793(14) 0.7114(2) 0.0340(7) Uani 1 1 d . . .
H18 H 0.7199 0.3436 0.6881 0.041 Uiso 1 1 calc R . .
C13 C 0.1220(2) -0.10187(15) 1.10791(19) 0.0356(7) Uani 1 1 d . . .
H13 H 0.0940 -0.1217 1.0650 0.043 Uiso 1 1 calc R . .
C4 C 0.4620(2) 0.07598(12) 1.00677(15) 0.0211(5) Uani 1 1 d . . .
C6 C 0.5334(2) 0.11821(14) 1.00141(16) 0.0302(7) Uani 1 1 d . . .
H6 H 0.5703 0.1325 1.0452 0.036 Uiso 1 1 calc R . .
C12 C 0.1222(2) -0.07915(15) 1.23296(19) 0.0335(7) Uani 1 1 d . . .
H12 H 0.0946 -0.0830 1.2788 0.040 Uiso 1 1 calc R . .
C11 C 0.2051(2) -0.06832(14) 1.10091(18) 0.0322(7) Uani 1 1 d . . .
H11 H 0.2318 -0.0659 1.0546 0.039 Uiso 1 1 calc R . .
C16 C 0.8136(2) 0.28727(13) 0.74497(19) 0.0305(7) Uani 1 1 d . . .
C14 C 1.0000 0.2941(2) 0.7500 0.0420(12) Uani 1 2 d S . .
H14 H 1.0000 0.2544 0.7500 0.050 Uiso 1 2 calc SR . .
C17 C 0.8138(3) 0.23451(17) 0.7795(3) 0.0632(14) Uani 1 1 d . . .
H17 H 0.8735 0.2187 0.8023 0.076 Uiso 1 1 calc R . .
C20 C 0.6377(3) 0.27523(15) 0.7125(2) 0.0375(8) Uani 1 1 d . . .
H20 H 0.5772 0.2895 0.6891 0.045 Uiso 1 1 calc R . .
C19 C 0.7248(3) 0.20567(18) 0.7798(3) 0.0678(15) Uani 1 1 d . . .
H19 H 0.7256 0.1711 0.8056 0.081 Uiso 1 1 calc R . .
C100 C 0.0668(6) 0.2139(3) 0.0078(4) 0.111(2) Uani 1 1 d . . .
100A H 0.1007 0.2425 0.0411 0.133 Uiso 1 1 calc R . .
100B H -0.0051 0.2188 0.0070 0.133 Uiso 1 1 calc R . .
C203 C 0.2031(3) 0.91892(19) 0.8798(3) 0.0553(10) Uani 1 1 d . . .
203A H 0.2217 0.8902 0.9184 0.066 Uiso 1 1 calc R . .
203B H 0.2513 0.9181 0.8428 0.066 Uiso 1 1 calc R . .
C200 C 0.0995(3) 0.9896(2) 0.9194(3) 0.0593(11) Uani 1 1 d . . .
200B H 0.0866 1.0276 0.8991 0.071 Uiso 1 1 calc R . .
200A H 0.0863 0.9894 0.9724 0.071 Uiso 1 1 calc R . .
O100 O 0.0966(4) 0.1577(2) 0.0331(3) 0.1122(15) Uani 1 1 d . . .
C202 C 0.0995(4) 0.9083(3) 0.8417(4) 0.100(2) Uani 1 1 d . . .
202B H 0.0966 0.9146 0.7870 0.120 Uiso 1 1 calc R . .
202A H 0.0790 0.8694 0.8504 0.120 Uiso 1 1 calc R . .
C201 C 0.0348(5) 0.9483(3) 0.8754(4) 0.0922(18) Uiso 1 1 d . . .
201A H -0.0066 0.9284 0.9086 0.111 Uiso 1 1 calc R . .
201B H -0.0088 0.9675 0.8358 0.111 Uiso 1 1 calc R . .
C101 C 0.0966(7) 0.2182(4) -0.0693(5) 0.133(3) Uiso 1 1 d . . .
101A H 0.0406 0.2091 -0.1073 0.160 Uiso 1 1 calc R . .
101B H 0.1198 0.2564 -0.0789 0.160 Uiso 1 1 calc R . .
C103 C 0.1842(7) 0.1444(4) -0.0004(5) 0.137(3) Uiso 1 1 d . . .
103A H 0.1873 0.1039 -0.0107 0.165 Uiso 1 1 calc R . .
103B H 0.2436 0.1553 0.0331 0.165 Uiso 1 1 calc R . .
C102 C 0.1774(8) 0.1770(4) -0.0720(6) 0.160(4) Uiso 1 1 d . . .
102B H 0.2403 0.1965 -0.0766 0.191 Uiso 1 1 calc R . .
102A H 0.1629 0.1518 -0.1155 0.191 Uiso 1 1 calc R . .
Cl10 Cl 0.73844(16) 0.26149(8) 0.97297(12) 0.0548(5) Uani 0.50 1 d PG A -1
O11 O 0.7408(5) 0.20694(17) 1.0093(4) 0.136(6) Uani 0.50 1 d PG A -1
O12 O 0.6584(3) 0.2647(2) 0.9124(2) 0.0676(18) Uani 0.50 1 d PG A -1
O13 O 0.8321(2) 0.2711(4) 0.9436(3) 0.119(4) Uani 0.50 1 d PG A -1
O14 O 0.7244(5) 0.3050(3) 1.0278(3) 0.080(3) Uani 0.50 1 d PG A -1

loop_
_atom_site_aniso_label
_atom_site_aniso_U_11
_atom_site_aniso_U_22
_atom_site_aniso_U_33
_atom_site_aniso_U_23
_atom_site_aniso_U_13
_atom_site_aniso_U_12
Ag1 0.02684(17) 0.02938(18) 0.02100(16) 0.000 0.00610(12) 0.000
Fe1 0.0209(3) 0.0174(3) 0.0161(3) 0.000 -0.0008(2) 0.000
O3 0.0244(10) 0.0192(10) 0.0287(11) -0.0006(8) -0.0011(8) -0.0011(8)
O1 0.0231(10) 0.0216(10) 0.0167(9) 0.0019(7) -0.0004(7) -0.0025(8)
O2 0.0240(10) 0.0266(11) 0.0170(9) 0.0011(7) -0.0009(7) -0.0049(8)
C9 0.0202(13) 0.0234(14) 0.0218(13) 0.0037(10) -0.0005(10) -0.0011(11)
N2 0.0297(13) 0.0249(13) 0.0193(12) 0.0016(9) 0.0016(9) -0.0044(10)
N1 0.0259(14) 0.0370(15) 0.0376(15) 0.0024(12) 0.0021(11) -0.0079(12)
C3 0.0235(13) 0.0182(13) 0.0184(12) 0.0012(10) 0.0028(10) -0.0001(11)
C2 0.0248(15) 0.0308(16) 0.0184(13) 0.0037(11) -0.0027(11) -0.0052(12)
C1 0.0197(13) 0.0222(14) 0.0208(13) 0.0013(10) 0.0017(10) 0.0012(11)
C5 0.0273(15) 0.0236(14) 0.0215(14) 0.0005(11) 0.0012(11) -0.0066(12)
C10 0.0230(14) 0.0358(17) 0.0229(14) -0.0011(12) 0.0020(11) 0.0005(13)
C7 0.0318(16) 0.0271(15) 0.0175(13) -0.0021(11) -0.0001(11) -0.0046(12)
C8 0.0403(19) 0.0382(18) 0.0239(15) 0.0011(13) 0.0010(13) -0.0193(15)
C15 0.0243(15) 0.0238(15) 0.0305(16) 0.0006(11) 0.0013(12) -0.0029(11)
N3 0.0283(15) 0.0309(15) 0.0574(19) 0.0084(13) -0.0005(13) -0.0063(12)
O200 0.0468(16) 0.0576(17) 0.0463(16) -0.0040(13) 0.0048(12) -0.0140(13)
C18 0.0339(18) 0.0241(16) 0.0432(19) 0.0077(14) 0.0016(14) -0.0020(13)
C13 0.0355(18) 0.0396(19) 0.0308(17) -0.0042(14) 0.0000(13) -0.0123(15)
C4 0.0221(14) 0.0232(14) 0.0178(13) 0.0014(10) 0.0005(10) 0.0011(11)
C6 0.0339(17) 0.0360(17) 0.0192(14) -0.0013(12) -0.0029(12) -0.0137(14)
C12 0.0252(16) 0.0439(19) 0.0324(17) 0.0011(14) 0.0073(13) -0.0052(14)
C11 0.0330(17) 0.0387(18) 0.0249(15) -0.0001(13) 0.0028(13) -0.0074(14)
C16 0.0254(16) 0.0226(15) 0.0431(19) 0.0014(13) 0.0024(13) -0.0028(12)
C14 0.031(3) 0.019(2) 0.076(4) 0.000 0.005(2) 0.000
C17 0.0251(18) 0.042(2) 0.118(4) 0.036(2) -0.010(2) -0.0047(16)
C20 0.0270(17) 0.0343(18) 0.050(2) 0.0069(15) -0.0021(14) -0.0014(14)
C19 0.037(2) 0.039(2) 0.123(4) 0.037(3) -0.008(2) -0.0105(18)
C100 0.120(6) 0.107(6) 0.103(6) 0.011(4) 0.001(4) -0.016(5)
C203 0.058(3) 0.056(3) 0.051(2) -0.003(2) 0.002(2) 0.004(2)
C200 0.063(3) 0.064(3) 0.051(2) 0.009(2) 0.004(2) 0.014(2)
O100 0.125(4) 0.108(4) 0.101(3) 0.019(3) 0.003(3) -0.023(3)
C202 0.081(4) 0.093(5) 0.116(5) -0.040(4) -0.027(4) -0.012(3)
Cl10 0.0572(13) 0.0414(12) 0.0635(14) -0.0127(10) -0.0036(11) -0.0177(10)
O11 0.162(13) 0.057(6) 0.161(11) 0.017(7) -0.098(10) -0.026(7)
O12 0.076(4) 0.061(4) 0.062(4) 0.008(3) -0.007(3) -0.023(3)
O13 0.063(5) 0.158(9) 0.141(8) -0.092(7) 0.032(5) -0.049(5)
O14 0.077(5) 0.091(6) 0.074(5) -0.036(4) 0.009(4) -0.012(4)

_geom_special_details            
;
All esds (except the esd in the dihedral angle between two l.s. planes)
are estimated using the full covariance matrix. The cell esds are taken
into account individually in the estimation of esds in distances, angles
and torsion angles; correlations between esds in cell parameters are only
used when they are defined by crystal symmetry. An approximate (isotropic)
treatment of cell esds is used for estimating esds involving l.s. planes.
;

loop_
_geom_bond_atom_site_label_1
_geom_bond_atom_site_label_2
_geom_bond_distance
_geom_bond_site_symmetry_2
_geom_bond_publ_flag
Ag1 N2 2.294(2) 2_656 ?
Ag1 N2 2.294(2) . ?
Ag1 N3 2.318(3) . ?
Ag1 N3 2.318(3) 2_656 ?
Fe1 O1 1.9848(19) 7_657 ?
Fe1 O1 1.9849(19) 8 ?
Fe1 O3 1.994(2) . ?
Fe1 O3 1.994(2) 2_756 ?
Fe1 O2 1.9948(19) 7_657 ?
Fe1 O2 1.9949(19) 8 ?
O3 C15 1.266(3) . ?
O1 C1 1.281(3) . ?
O1 Fe1 1.9849(19) 7_657 ?
O2 C3 1.275(3) . ?
O2 Fe1 1.9949(19) 7_657 ?
C9 C10 1.385(4) . ?
C9 C11 1.391(4) . ?
C9 C1 1.493(4) . ?
N2 C7 1.333(4) . ?
N2 C8 1.339(4) . ?
N1 C13 1.328(4) . ?
N1 C12 1.337(4) . ?
C3 C2 1.394(4) . ?
C3 C4 1.496(4) . ?
C2 C1 1.397(4) . ?
C2 H2 0.9300 . ?
C5 C7 1.379(4) . ?
C5 C4 1.393(4) . ?
C5 H5 0.9300 . ?
C10 C12 1.380(4) . ?
C10 H10 0.9300 . ?
C7 H7 0.9300 . ?
C8 C6 1.385(4) . ?
C8 H8 0.9300 . ?
C15 C14 1.390(4) . ?
C15 C16 1.492(4) . ?
N3 C19 1.321(5) . ?
N3 C20 1.330(4) . ?
O200 C200 1.415(5) . ?
O200 C203 1.430(5) . ?
C18 C16 1.373(4) . ?
C18 C20 1.383(5) . ?
C18 H18 0.9300 . ?
C13 C11 1.381(4) . ?
C13 H13 0.9300 . ?
C4 C6 1.389(4) . ?
C6 H6 0.9300 . ?
C12 H12 0.9300 . ?
C11 H11 0.9300 . ?
C16 C17 1.380(5) . ?
C14 C15 1.390(4) 2_756 ?
C14 H14 0.9300 . ?
C17 C19 1.372(5) . ?
C17 H17 0.9300 . ?
C20 H20 0.9300 . ?
C19 H19 0.9300 . ?
C100 O100 1.433(8) . ?
C100 C101 1.463(10) . ?
C100 100A 0.9700 . ?
C100 100B 0.9700 . ?
C203 C202 1.493(7) . ?
C203 203A 0.9700 . ?
C203 203B 0.9700 . ?
C200 C201 1.462(7) . ?
C200 200B 0.9700 . ?
C200 200A 0.9700 . ?
O100 C103 1.408(9) . ?
C202 C201 1.450(8) . ?
C202 202B 0.9700 . ?
C202 202A 0.9700 . ?
C201 201A 0.9700 . ?
C201 201B 0.9700 . ?
C101 C102 1.456(11) . ?
C101 101A 0.9700 . ?
C101 101B 0.9700 . ?
C103 C102 1.469(11) . ?
C103 103A 0.9700 . ?
C103 103B 0.9700 . ?
C102 102B 0.9700 . ?
C102 102A 0.9700 . ?
Cl10 O12 1.4266 . ?
Cl10 O13 1.4288 . ?
Cl10 O11 1.4302 . ?
Cl10 O14 1.4320 . ?

loop_
_geom_angle_atom_site_label_1
_geom_angle_atom_site_label_2
_geom_angle_atom_site_label_3
_geom_angle
_geom_angle_site_symmetry_1
_geom_angle_site_symmetry_3
_geom_angle_publ_flag
N2 Ag1 N2 123.98(12) 2_656 . ?
N2 Ag1 N3 99.51(10) 2_656 . ?
N2 Ag1 N3 113.22(10) . . ?
N2 Ag1 N3 113.22(10) 2_656 2_656 ?
N2 Ag1 N3 99.51(10) . 2_656 ?
N3 Ag1 N3 106.89(15) . 2_656 ?
O1 Fe1 O1 96.03(11) 7_657 8 ?
O1 Fe1 O3 172.43(8) 7_657 . ?
O1 Fe1 O3 88.09(8) 8 . ?
O1 Fe1 O3 88.09(8) 7_657 2_756 ?
O1 Fe1 O3 172.43(8) 8 2_756 ?
O3 Fe1 O3 88.55(12) . 2_756 ?
O1 Fe1 O2 86.71(8) 7_657 7_657 ?
O1 Fe1 O2 94.69(8) 8 7_657 ?
O3 Fe1 O2 86.63(8) . 7_657 ?
O3 Fe1 O2 91.87(8) 2_756 7_657 ?
O1 Fe1 O2 94.69(8) 7_657 8 ?
O1 Fe1 O2 86.71(8) 8 8 ?
O3 Fe1 O2 91.87(8) . 8 ?
O3 Fe1 O2 86.63(8) 2_756 8 ?
O2 Fe1 O2 177.91(12) 7_657 8 ?
C15 O3 Fe1 128.28(19) . . ?
C1 O1 Fe1 127.99(17) . 7_657 ?
C3 O2 Fe1 127.46(18) . 7_657 ?
C10 C9 C11 117.5(3) . . ?
C10 C9 C1 120.1(3) . . ?
C11 C9 C1 122.4(3) . . ?
C7 N2 C8 117.0(2) . . ?
C7 N2 Ag1 118.68(19) . . ?
C8 N2 Ag1 123.1(2) . . ?
C13 N1 C12 116.5(3) . . ?
O2 C3 C2 124.3(2) . . ?
O2 C3 C4 115.7(2) . . ?
C2 C3 C4 120.0(2) . . ?
C3 C2 C1 123.4(3) . . ?
C3 C2 H2 118.3 . . ?
C1 C2 H2 118.3 . . ?
O1 C1 C2 124.5(3) . . ?
O1 C1 C9 115.8(2) . . ?
C2 C1 C9 119.7(2) . . ?
C7 C5 C4 118.8(3) . . ?
C7 C5 H5 120.6 . . ?
C4 C5 H5 120.6 . . ?
C12 C10 C9 119.3(3) . . ?
C12 C10 H10 120.4 . . ?
C9 C10 H10 120.4 . . ?
N2 C7 C5 124.0(3) . . ?
N2 C7 H7 118.0 . . ?
C5 C7 H7 118.0 . . ?
N2 C8 C6 123.3(3) . . ?
N2 C8 H8 118.4 . . ?
C6 C8 H8 118.4 . . ?
O3 C15 C14 124.6(3) . . ?
O3 C15 C16 115.6(3) . . ?
C14 C15 C16 119.8(3) . . ?
C19 N3 C20 117.2(3) . . ?
C19 N3 Ag1 116.9(2) . . ?
C20 N3 Ag1 125.9(2) . . ?
C200 O200 C203 109.3(3) . . ?
C16 C18 C20 119.3(3) . . ?
C16 C18 H18 120.3 . . ?
C