####################################################################### 
# 
# This file contains crystal structure data downloaded from the 
# Cambridge Structural Database (CSD) hosted by the Cambridge 
# Crystallographic Data Centre (CCDC).
# 
# Full information about CCDC data access policies and citation 
# guidelines are available at http://www.ccdc.cam.ac.uk/access/V1 
# 
# Audit and citation data items may have been added by the CCDC. 
# Please retain this information to preserve the provenance of 
# this file and to allow appropriate attribution of the data. 
# 
#######################################################################

data_1_Ag5
_audit_block_doi                 10.5517/ccw259d
_database_code_depnum_ccdc_archive 'CCDC 806443'
loop_
_citation_id
_citation_doi
_citation_year
1 10.1039/c0ce00990c 2011
_audit_update_record             
;
2011-01-05 deposited with the CCDC.	2024-07-10 downloaded from the CCDC.
;
#TrackingRef '- crystals.cif'
#1

_audit_creation_method           SHELXL-97
_chemical_name_systematic        
;
?
;
_chemical_name_common            ?
_chemical_melting_point          ?
_chemical_formula_moiety         ?
_chemical_formula_sum            'C98 H111 Ag5 N18 O13'
_chemical_formula_weight         2288.40

loop_
_atom_type_symbol
_atom_type_description
_atom_type_scat_dispersion_real
_atom_type_scat_dispersion_imag
_atom_type_scat_source
C C 0.0033 0.0016 'International Tables Vol C Tables 4.2.6.8 and 6.1.1.4'
H H 0.0000 0.0000 'International Tables Vol C Tables 4.2.6.8 and 6.1.1.4'
N N 0.0061 0.0033 'International Tables Vol C Tables 4.2.6.8 and 6.1.1.4'
O O 0.0106 0.0060 'International Tables Vol C Tables 4.2.6.8 and 6.1.1.4'
Ag Ag -0.8971 1.1015 'International Tables Vol C Tables 4.2.6.8 and 6.1.1.4'

_symmetry_cell_setting           Triclinic
_symmetry_space_group_name_H-M   'P -1 '
_symmetry_space_group_name_Hall  '-P 1 '

loop_
_symmetry_equiv_pos_as_xyz
'x, y, z'
'-x, -y, -z'

_cell_length_a                   11.6759(3)
_cell_length_b                   13.2549(4)
_cell_length_c                   19.1940(5)
_cell_angle_alpha                87.414(2)
_cell_angle_beta                 85.056(2)
_cell_angle_gamma                86.352(2)
_cell_volume                     2951.12(14)
_cell_formula_units_Z            1
_cell_measurement_temperature    293(2)
_cell_measurement_reflns_used    13507
_cell_measurement_theta_min      4.5
_cell_measurement_theta_max      29.3

_exptl_crystal_description       block
_exptl_crystal_colour            colorless
_exptl_crystal_size_max          0.38
_exptl_crystal_size_mid          0.36
_exptl_crystal_size_min          0.34
_exptl_crystal_density_meas      ?
_exptl_crystal_density_diffrn    1.288
_exptl_crystal_density_method    'not measured'
_exptl_crystal_F_000             1164
_exptl_absorpt_coefficient_mu    0.873
_exptl_absorpt_correction_type   multi-scan
_exptl_absorpt_correction_T_min  0.72
_exptl_absorpt_correction_T_max  0.75
_exptl_absorpt_process_details   
;
CrysAlis (Oxford Diffraction, 2006)
;

_exptl_special_details           
;
?
;

_diffrn_ambient_temperature      293(2)
_diffrn_radiation_wavelength     0.71073
_diffrn_radiation_type           MoK\a
_diffrn_radiation_source         'fine-focus sealed tube'
_diffrn_radiation_monochromator  graphite
_diffrn_measurement_device_type  'Oxford Diffraction Gemini R Ultra'
_diffrn_measurement_method       '\w scan'
_diffrn_detector_area_resol_mean 10.0
_diffrn_standards_number         ?
_diffrn_standards_interval_count ?
_diffrn_standards_interval_time  ?
_diffrn_standards_decay_%        ?
_diffrn_reflns_number            21868
_diffrn_reflns_av_R_equivalents  0.0336
_diffrn_reflns_av_sigmaI/netI    0.1064
_diffrn_reflns_limit_h_min       -15
_diffrn_reflns_limit_h_max       16
_diffrn_reflns_limit_k_min       -18
_diffrn_reflns_limit_k_max       16
_diffrn_reflns_limit_l_min       -26
_diffrn_reflns_limit_l_max       21
_diffrn_reflns_theta_min         4.52
_diffrn_reflns_theta_max         29.30
_reflns_number_total             13507
_reflns_number_gt                5855
_reflns_threshold_expression     >2sigma(I)

_computing_data_collection       'CrysAlis (Oxford Diffraction, 2006)'
_computing_cell_refinement       CrysAlis
_computing_data_reduction        CrysAlis
_computing_structure_solution    'SHELXS-97 (Sheldrick, 1997)'
_computing_structure_refinement  'SHELXL-97 (Sheldrick, 1997)'
_computing_molecular_graphics    ?
_computing_publication_material  ?

_refine_special_details          
;
Refinement of F^2^ against ALL reflections. The weighted R-factor wR and
goodness of fit S are based on F^2^, conventional R-factors R are based
on F, with F set to zero for negative F^2^. The threshold expression of
F^2^ > 2sigma(F^2^) is used only for calculating R-factors(gt) etc. and is
not relevant to the choice of reflections for refinement. R-factors based
on F^2^ are statistically about twice as large as those based on F, and R-
factors based on ALL data will be even larger.
;

_refine_ls_structure_factor_coef Fsqd
_refine_ls_matrix_type           full
_refine_ls_weighting_scheme      calc
_refine_ls_weighting_details     
'calc w=1/[\s^2^(Fo^2^)+(0.1024P)^2^+0.0000P] where P=(Fo^2^+2Fc^2^)/3'
_atom_sites_solution_primary     direct
_atom_sites_solution_secondary   difmap
_atom_sites_solution_hydrogens   geom
_refine_ls_hydrogen_treatment    constr
_refine_ls_extinction_method     none
_refine_ls_extinction_coef       ?
_refine_ls_number_reflns         13507
_refine_ls_number_parameters     650
_refine_ls_number_restraints     0
_refine_ls_R_factor_all          0.1365
_refine_ls_R_factor_gt           0.0601
_refine_ls_wR_factor_ref         0.1791
_refine_ls_wR_factor_gt          0.1574
_refine_ls_goodness_of_fit_ref   0.841
_refine_ls_restrained_S_all      0.841
_refine_ls_shift/su_max          0.001
_refine_ls_shift/su_mean         0.000

loop_
_atom_site_label
_atom_site_type_symbol
_atom_site_fract_x
_atom_site_fract_y
_atom_site_fract_z
_atom_site_U_iso_or_equiv
_atom_site_adp_type
_atom_site_occupancy
_atom_site_symmetry_multiplicity
_atom_site_calc_flag
_atom_site_refinement_flags
_atom_site_disorder_assembly
_atom_site_disorder_group
Ag1 Ag 0.5000 0.5000 0.5000 0.0737(2) Uani 1 2 d S . .
Ag2 Ag 0.77240(4) 1.21405(3) 0.02566(2) 0.05703(16) Uani 1 1 d . . .
Ag3 Ag 0.76162(5) 1.39149(5) 0.54511(2) 0.0884(2) Uani 1 1 d . . .
C1 C 0.6545(5) 0.4441(5) 0.3627(3) 0.0506(14) Uani 1 1 d . . .
C2 C 0.6561(6) 0.3387(5) 0.3690(3) 0.0673(18) Uani 1 1 d . . .
H2 H 0.6221 0.3059 0.4087 0.081 Uiso 1 1 calc R . .
C3 C 0.7092(6) 0.2859(5) 0.3152(4) 0.0767(19) Uani 1 1 d . . .
H3 H 0.7102 0.2157 0.3180 0.092 Uiso 1 1 calc R . .
C4 C 0.7625(6) 0.3335(6) 0.2556(4) 0.0713(17) Uani 1 1 d . . .
H4 H 0.7989 0.2946 0.2201 0.086 Uiso 1 1 calc R . .
C5 C 0.7617(5) 0.4377(5) 0.2492(3) 0.0637(17) Uani 1 1 d . . .
H5 H 0.7956 0.4701 0.2094 0.076 Uiso 1 1 calc R . .
C6 C 0.7085(5) 0.4923(5) 0.3042(3) 0.0498(13) Uani 1 1 d . . .
C7 C 0.6290(5) 0.6056(5) 0.3765(3) 0.0595(15) Uani 1 1 d . . .
C8 C 0.5905(7) 0.7087(6) 0.4062(3) 0.081(2) Uani 1 1 d . . .
H8A H 0.5160 0.7300 0.3914 0.121 Uiso 1 1 calc R . .
H8B H 0.6449 0.7574 0.3894 0.121 Uiso 1 1 calc R . .
H8C H 0.5865 0.7034 0.4564 0.121 Uiso 1 1 calc R . .
C9 C 0.7247(5) 0.6772(5) 0.2637(3) 0.0596(15) Uani 1 1 d . . .
H9A H 0.7900 0.6538 0.2327 0.072 Uiso 1 1 calc R . .
H9B H 0.7487 0.7319 0.2899 0.072 Uiso 1 1 calc R . .
C10 C 0.6288(5) 0.7166(4) 0.2207(3) 0.0584(15) Uani 1 1 d . . .
H10A H 0.6055 0.6624 0.1937 0.070 Uiso 1 1 calc R . .
H10B H 0.5629 0.7395 0.2515 0.070 Uiso 1 1 calc R . .
C11 C 0.6657(5) 0.8020(4) 0.1723(3) 0.0574(15) Uani 1 1 d . . .
H11A H 0.7200 0.7753 0.1356 0.069 Uiso 1 1 calc R . .
H11B H 0.7056 0.8482 0.1981 0.069 Uiso 1 1 calc R . .
C12 C 0.5677(5) 0.8604(5) 0.1390(3) 0.0684(18) Uani 1 1 d . . .
H12A H 0.5216 0.8136 0.1179 0.082 Uiso 1 1 calc R . .
H12B H 0.5188 0.8953 0.1748 0.082 Uiso 1 1 calc R . .
C13 C 0.6585(7) 1.0673(5) 0.1662(3) 0.083(2) Uani 1 1 d . . .
H13A H 0.7242 1.0386 0.1885 0.124 Uiso 1 1 calc R . .
H13B H 0.5894 1.0524 0.1947 0.124 Uiso 1 1 calc R . .
H13C H 0.6632 1.1393 0.1606 0.124 Uiso 1 1 calc R . .
C14 C 0.6563(5) 1.0241(4) 0.0975(3) 0.0572(15) Uani 1 1 d . . .
C15 C 0.6252(4) 0.9209(4) 0.0137(3) 0.0498(13) Uani 1 1 d . . .
C16 C 0.6789(4) 1.0055(4) -0.0154(3) 0.0496(13) Uani 1 1 d . . .
C17 C 0.7027(5) 1.0188(5) -0.0868(3) 0.0617(16) Uani 1 1 d . . .
H17 H 0.7377 1.0757 -0.1065 0.074 Uiso 1 1 calc R . .
C18 C 0.6716(6) 0.9424(6) -0.1283(4) 0.0780(19) Uani 1 1 d . . .
H18 H 0.6860 0.9486 -0.1766 0.094 Uiso 1 1 calc R . .
C19 C 0.6194(5) 0.8572(5) -0.0983(4) 0.0711(18) Uani 1 1 d . . .
H19 H 0.6011 0.8073 -0.1274 0.085 Uiso 1 1 calc R . .
C20 C 0.5943(5) 0.8444(4) -0.0282(4) 0.0625(16) Uani 1 1 d . . .
H20 H 0.5585 0.7877 -0.0088 0.075 Uiso 1 1 calc R . .
C21 C 0.9985(5) 1.2893(4) 0.0806(3) 0.0519(14) Uani 1 1 d . . .
C22 C 1.0514(6) 1.1857(5) 0.0836(4) 0.081(2) Uani 1 1 d . . .
H22A H 1.0630 1.1657 0.1313 0.122 Uiso 1 1 calc R . .
H22B H 1.1241 1.1833 0.0562 0.122 Uiso 1 1 calc R . .
H22C H 1.0015 1.1404 0.0653 0.122 Uiso 1 1 calc R . .
C23 C 0.8776(5) 1.4194(4) 0.0672(2) 0.0462(13) Uani 1 1 d . . .
C24 C 0.9781(5) 1.4535(5) 0.0892(2) 0.0548(15) Uani 1 1 d . . .
C25 C 0.9903(6) 1.5587(5) 0.0969(3) 0.0642(17) Uani 1 1 d . . .
H25 H 1.0573 1.5834 0.1107 0.077 Uiso 1 1 calc R . .
C26 C 0.8963(7) 1.6206(5) 0.0826(3) 0.073(2) Uani 1 1 d . . .
H26 H 0.8995 1.6898 0.0879 0.088 Uiso 1 1 calc R . .
C27 C 0.7964(6) 1.5854(5) 0.0606(3) 0.0660(16) Uani 1 1 d . . .
H27 H 0.7356 1.6313 0.0510 0.079 Uiso 1 1 calc R . .
C28 C 0.7856(5) 1.4844(5) 0.0528(3) 0.0573(15) Uani 1 1 d . . .
H28 H 0.7186 1.4607 0.0384 0.069 Uiso 1 1 calc R . .
C29 C 1.1713(5) 1.3729(6) 0.1204(3) 0.0685(18) Uani 1 1 d . . .
C30 C 1.1746(5) 1.3378(6) 0.1986(3) 0.0694(18) Uani 1 1 d . . .
H30A H 1.1589 1.2667 0.2038 0.083 Uiso 1 1 calc R . .
H30B H 1.2513 1.3449 0.2129 0.083 Uiso 1 1 calc R . .
C31 C 1.0875(5) 1.3981(6) 0.2467(3) 0.0727(18) Uani 1 1 d . . .
H31A H 1.0931 1.4699 0.2356 0.087 Uiso 1 1 calc R . .
H31B H 1.0102 1.3807 0.2391 0.087 Uiso 1 1 calc R . .
C32 C 1.1094(5) 1.3759(6) 0.3218(3) 0.0702(18) Uani 1 1 d . . .
H32A H 1.1172 1.3032 0.3302 0.084 Uiso 1 1 calc R . .
H32B H 1.1816 1.4034 0.3306 0.084 Uiso 1 1 calc R . .
C33 C 0.9480(7) 1.2534(6) 0.4219(4) 0.082(2) Uani 1 1 d . . .
H33A H 0.8896 1.2315 0.4566 0.124 Uiso 1 1 calc R . .
H33B H 1.0223 1.2272 0.4347 0.124 Uiso 1 1 calc R . .
H33C H 0.9344 1.2289 0.3773 0.124 Uiso 1 1 calc R . .
C34 C 0.9448(5) 1.3640(5) 0.4179(3) 0.0603(16) Uani 1 1 d . . .
C35 C 0.9039(5) 1.5231(6) 0.4370(3) 0.0606(16) Uani 1 1 d . . .
C36 C 0.9921(5) 1.5196(5) 0.3821(3) 0.0588(15) Uani 1 1 d . . .
C37 C 1.0387(6) 1.6054(7) 0.3514(4) 0.078(2) Uani 1 1 d . . .
H37 H 1.0981 1.6017 0.3159 0.094 Uiso 1 1 calc R . .
C38 C 0.8586(6) 1.6131(6) 0.4618(4) 0.0764(19) Uani 1 1 d . . .
H38 H 0.8005 1.6160 0.4981 0.092 Uiso 1 1 calc R . .
C39 C 0.9931(8) 1.6970(7) 0.3758(5) 0.095(2) Uani 1 1 d . . .
H39 H 1.0220 1.7564 0.3559 0.114 Uiso 1 1 calc R . .
C40 C 0.9043(8) 1.7030(6) 0.4296(5) 0.092(2) Uani 1 1 d . . .
H40 H 0.8749 1.7660 0.4446 0.110 Uiso 1 1 calc R . .
C41 C 0.6398(5) 1.4628(6) -0.3318(3) 0.0558(15) Uani 1 1 d . . .
C42 C 0.6630(5) 1.3409(4) -0.0806(3) 0.0517(14) Uani 1 1 d . . .
C43 C 0.6076(4) 1.4752(4) -0.2549(2) 0.0447(12) Uani 1 1 d . . .
C44 C 0.6468(4) 1.4026(4) -0.2058(2) 0.0493(13) Uani 1 1 d . . .
H44 H 0.6911 1.3456 -0.2207 0.059 Uiso 1 1 calc R . .
C45 C 0.6191(4) 1.4159(4) -0.1347(2) 0.0475(14) Uani 1 1 d . . .
C46 C 0.5508(4) 1.4992(4) -0.1132(3) 0.0459(13) Uani 1 1 d . . .
H46 H 0.5302 1.5061 -0.0656 0.055 Uiso 1 1 calc R . .
C47 C 0.5118(4) 1.5733(4) -0.1607(3) 0.0492(14) Uani 1 1 d . . .
C48 C 0.5424(5) 1.5574(5) -0.2324(3) 0.0504(14) Uani 1 1 d . . .
H48 H 0.5168 1.6053 -0.2654 0.061 Uiso 1 1 calc R . .
N1 N 0.6901(4) 0.5926(4) 0.3134(2) 0.0515(11) Uani 1 1 d . . .
N2 N 0.6063(4) 0.5183(4) 0.4076(2) 0.0571(12) Uani 1 1 d . . .
N3 N 0.6104(4) 0.9343(3) 0.0852(2) 0.0547(12) Uani 1 1 d . . .
N4 N 0.6973(4) 1.0692(3) 0.0382(3) 0.0568(12) Uani 1 1 d . . .
N5 N 0.8937(4) 1.3145(3) 0.0623(2) 0.0502(11) Uani 1 1 d . . .
N6 N 1.0534(4) 1.3698(4) 0.0973(2) 0.0534(12) Uani 1 1 d . . .
N7 N 1.0166(4) 1.4187(4) 0.3715(2) 0.0621(13) Uani 1 1 d . . .
N8 N 0.8767(4) 1.4255(4) 0.4572(2) 0.0612(13) Uani 1 1 d . . .
N9 N 0.4492(4) 1.6607(4) -0.1387(3) 0.0655(13) Uani 1 1 d . . .
H9N H 0.4337 1.6700 -0.0948 0.098 Uiso 1 1 calc R . .
H9M H 0.4260 1.7054 -0.1691 0.098 Uiso 1 1 calc R . .
O1 O 0.6422(4) 1.5388(4) -0.3721(2) 0.0747(12) Uani 1 1 d . . .
O2 O 0.6671(4) 1.3753(4) -0.3523(2) 0.0721(12) Uani 1 1 d . . .
O3 O 0.6113(4) 1.3369(3) -0.02107(18) 0.0646(11) Uani 1 1 d . . .
O4 O 0.7506(4) 1.2849(4) -0.0974(2) 0.0811(13) Uani 1 1 d . . .
O5 O 0.8627(7) 0.1913(7) 0.7921(4) 0.068(2) Uani 0.50 1 d P . .
H5A H 0.8241 0.2137 0.8264 0.102 Uiso 0.50 1 calc PR . .
C50 C 1.0087(14) 0.1071(15) 0.8730(11) 0.128(7) Uani 0.50 1 d P . .
H50A H 1.0895 0.1037 0.8794 0.192 Uiso 0.50 1 calc PR . .
H50B H 0.9855 0.0408 0.8649 0.192 Uiso 0.50 1 calc PR . .
H50C H 0.9660 0.1325 0.9142 0.192 Uiso 0.50 1 calc PR . .
C49 C 0.983(3) 0.1827(18) 0.8057(8) 0.194(17) Uani 0.50 1 d P . .
H49A H 1.0080 0.2494 0.8140 0.233 Uiso 0.50 1 calc PR . .
H49B H 1.0286 0.1578 0.7646 0.233 Uiso 0.50 1 calc PR . .
O1W O 0.6949(10) 0.1813(6) 0.6923(5) 0.087(3) Uani 0.50 1 d P . .
O2W O 0.7244(11) 0.1746(8) 0.5419(6) 0.111(4) Uani 0.50 1 d P . .
O3W O 0.5288(15) 0.1336(10) 0.4765(7) 0.061(4) Uani 0.25 1 d P . .
O4W O 0.5452(18) 0.0277(13) 0.6923(8) 0.086(6) Uani 0.25 1 d P . .
O6 O 0.6326(9) 0.7445(7) 0.5948(5) 0.087(3) Uani 0.50 1 d P . .

loop_
_atom_site_aniso_label
_atom_site_aniso_U_11
_atom_site_aniso_U_22
_atom_site_aniso_U_33
_atom_site_aniso_U_23
_atom_site_aniso_U_13
_atom_site_aniso_U_12
Ag1 0.0749(5) 0.0982(6) 0.0434(3) 0.0085(3) 0.0147(3) -0.0036(4)
Ag2 0.0588(3) 0.0481(3) 0.0657(3) -0.0004(2) -0.0105(2) -0.0092(2)
Ag3 0.0797(4) 0.1390(6) 0.0437(3) -0.0005(3) 0.0108(2) -0.0071(4)
C1 0.048(3) 0.067(4) 0.035(3) 0.003(3) -0.006(2) 0.003(3)
C2 0.070(4) 0.077(5) 0.056(4) 0.014(3) -0.014(3) -0.013(4)
C3 0.085(5) 0.062(4) 0.084(5) -0.012(4) -0.019(4) 0.004(4)
C4 0.066(4) 0.079(5) 0.069(4) -0.020(4) -0.002(3) 0.008(4)
C5 0.053(3) 0.092(5) 0.045(3) -0.001(3) -0.005(3) 0.002(3)
C6 0.049(3) 0.064(4) 0.037(3) 0.004(3) -0.008(2) -0.001(3)
C7 0.053(3) 0.078(4) 0.046(3) 0.002(3) -0.005(3) 0.007(3)
C8 0.093(5) 0.089(5) 0.059(4) -0.007(4) -0.001(4) 0.008(4)
C9 0.055(3) 0.069(4) 0.054(3) 0.013(3) 0.001(3) -0.009(3)
C10 0.054(3) 0.062(4) 0.058(3) 0.013(3) -0.009(3) 0.000(3)
C11 0.050(3) 0.050(3) 0.070(4) 0.012(3) 0.001(3) -0.006(3)
C12 0.056(4) 0.065(4) 0.080(4) 0.023(3) 0.005(3) -0.006(3)
C13 0.118(6) 0.066(4) 0.064(4) 0.001(3) -0.014(4) 0.002(4)
C14 0.058(3) 0.049(3) 0.064(4) 0.004(3) -0.013(3) 0.000(3)
C15 0.040(3) 0.045(3) 0.064(4) 0.006(3) -0.008(3) 0.002(3)
C16 0.042(3) 0.047(3) 0.061(3) 0.001(3) -0.011(3) -0.001(3)
C17 0.049(3) 0.068(4) 0.067(4) 0.008(3) -0.011(3) -0.004(3)
C18 0.076(4) 0.092(5) 0.067(4) -0.004(4) -0.017(3) 0.008(4)
C19 0.063(4) 0.069(4) 0.085(5) -0.014(4) -0.019(4) -0.006(3)
C20 0.050(3) 0.047(3) 0.092(5) 0.002(3) -0.016(3) -0.005(3)
C21 0.054(3) 0.055(4) 0.048(3) -0.008(3) -0.009(3) -0.004(3)
C22 0.075(5) 0.076(5) 0.093(5) -0.014(4) -0.019(4) 0.004(4)
C23 0.050(3) 0.053(3) 0.035(3) 0.002(2) 0.003(2) -0.010(3)
C24 0.066(4) 0.068(4) 0.031(3) -0.008(3) 0.009(2) -0.023(4)
C25 0.077(4) 0.060(4) 0.055(3) -0.019(3) 0.020(3) -0.022(4)
C26 0.112(6) 0.043(4) 0.061(4) -0.014(3) 0.031(4) -0.009(4)
C27 0.082(5) 0.057(4) 0.056(3) -0.007(3) 0.010(3) 0.006(4)
C28 0.064(4) 0.060(4) 0.046(3) -0.003(3) 0.007(3) -0.003(3)
C29 0.044(3) 0.120(6) 0.044(3) -0.017(3) -0.004(2) -0.019(4)
C30 0.043(3) 0.110(5) 0.056(3) -0.017(3) -0.004(3) -0.004(3)
C31 0.056(4) 0.112(5) 0.050(3) -0.014(3) 0.003(3) -0.005(4)
C32 0.054(4) 0.109(5) 0.047(3) -0.016(3) -0.005(3) 0.006(4)
C33 0.086(5) 0.094(6) 0.069(4) 0.001(4) -0.010(4) -0.012(4)
C34 0.060(4) 0.086(5) 0.037(3) -0.004(3) -0.008(3) -0.008(4)
C35 0.058(4) 0.088(5) 0.039(3) -0.016(3) -0.012(3) -0.002(4)
C36 0.058(4) 0.078(5) 0.041(3) -0.004(3) -0.010(3) -0.005(3)
C37 0.072(4) 0.098(6) 0.066(4) 0.013(4) -0.014(3) -0.010(5)
C38 0.072(4) 0.102(6) 0.057(4) -0.019(4) -0.017(3) 0.008(4)
C39 0.102(6) 0.094(6) 0.092(6) 0.016(5) -0.030(5) -0.015(5)
C40 0.113(7) 0.075(5) 0.093(6) -0.016(5) -0.051(5) 0.018(5)
C41 0.045(3) 0.075(4) 0.046(3) 0.001(3) 0.001(2) -0.002(3)
C42 0.057(4) 0.052(3) 0.048(3) 0.000(3) -0.012(3) -0.007(3)
C43 0.041(3) 0.056(3) 0.038(3) 0.000(2) -0.001(2) -0.006(3)
C44 0.043(3) 0.067(4) 0.038(3) -0.003(3) -0.002(2) -0.006(3)
C45 0.041(3) 0.065(4) 0.039(3) 0.002(3) -0.007(2) -0.016(3)
C46 0.045(3) 0.057(3) 0.036(3) -0.005(2) -0.004(2) -0.009(3)
C47 0.044(3) 0.061(4) 0.044(3) 0.002(3) -0.005(2) -0.017(3)
C48 0.044(3) 0.069(4) 0.039(3) 0.004(3) -0.005(2) -0.005(3)
N1 0.052(3) 0.062(3) 0.039(2) 0.008(2) -0.001(2) -0.003(2)
N2 0.058(3) 0.071(3) 0.040(2) 0.011(2) 0.000(2) -0.002(3)
N3 0.054(3) 0.044(3) 0.066(3) 0.010(2) -0.007(2) -0.004(2)
N4 0.057(3) 0.048(3) 0.066(3) 0.007(2) -0.010(2) -0.008(2)
N5 0.056(3) 0.048(3) 0.047(2) 0.001(2) -0.004(2) -0.009(2)
N6 0.049(3) 0.066(3) 0.045(2) -0.009(2) 0.002(2) -0.006(3)
N7 0.055(3) 0.091(4) 0.040(2) -0.005(3) -0.004(2) 0.002(3)
N8 0.058(3) 0.091(4) 0.035(2) -0.006(3) -0.004(2) -0.004(3)
N9 0.081(4) 0.057(3) 0.056(3) -0.006(2) 0.003(3) 0.008(3)
O1 0.078(3) 0.097(3) 0.047(2) 0.015(2) -0.001(2) -0.010(3)
O2 0.075(3) 0.096(4) 0.044(2) -0.009(2) 0.005(2) 0.000(3)
O3 0.077(3) 0.075(3) 0.041(2) 0.0052(19) -0.0005(19) -0.007(2)
O4 0.082(3) 0.095(3) 0.060(3) 0.015(2) -0.004(2) 0.025(3)
O5 0.063(5) 0.094(7) 0.043(4) -0.011(4) 0.004(4) 0.021(5)
C50 0.083(11) 0.138(16) 0.167(18) 0.023(14) -0.004(11) -0.066(12)
C4