####################################################################### 
# 
# This file contains crystal structure data downloaded from the 
# Cambridge Structural Database (CSD) hosted by the Cambridge 
# Crystallographic Data Centre (CCDC).
# 
# Full information about CCDC data access policies and citation 
# guidelines are available at http://www.ccdc.cam.ac.uk/access/V1 
# 
# Audit and citation data items may have been added by the CCDC. 
# Please retain this information to preserve the provenance of 
# this file and to allow appropriate attribution of the data. 
# 
#######################################################################

data_co2
_audit_block_doi                 10.5517/cc7c2l7
_database_code_depnum_ccdc_archive 'CCDC 219188'
loop_
_citation_id
_citation_doi
_citation_year
1 10.1002/chem.200305526 2004
_audit_update_record             
;
2003-09-06 deposited with the CCDC.	2024-07-10 downloaded from the CCDC.
;

_audit_creation_method           SHELXL-97
_chemical_name_systematic        
;
?
;
_chemical_name_common            ?
_chemical_melting_point          ?
_chemical_formula_moiety         ?
_chemical_formula_sum            'C46 H49 Co1.50 N12 O7 S3'
_chemical_formula_weight         1066.55

loop_
_atom_type_symbol
_atom_type_description
_atom_type_scat_dispersion_real
_atom_type_scat_dispersion_imag
_atom_type_scat_source
C C 0.0033 0.0016 'International Tables Vol C Tables 4.2.6.8 and 6.1.1.4'
H H 0.0000 0.0000 'International Tables Vol C Tables 4.2.6.8 and 6.1.1.4'
Co Co 0.3494 0.9721 'International Tables Vol C Tables 4.2.6.8 and 6.1.1.4'
N N 0.0061 0.0033 'International Tables Vol C Tables 4.2.6.8 and 6.1.1.4'
S S 0.1246 0.1234 'International Tables Vol C Tables 4.2.6.8 and 6.1.1.4'
O O 0.0106 0.0060 'International Tables Vol C Tables 4.2.6.8 and 6.1.1.4'

_symmetry_cell_setting           Monoclinic
_symmetry_space_group_name_H-M   P21/n

loop_
_symmetry_equiv_pos_as_xyz
'x, y, z'
'-x+1/2, y+1/2, -z+1/2'
'-x, -y, -z'
'x-1/2, -y-1/2, z-1/2'

_cell_length_a                   11.4426(2)
_cell_length_b                   22.0767(4)
_cell_length_c                   27.4792(5)
_cell_angle_alpha                90.00
_cell_angle_beta                 101.2330(10)
_cell_angle_gamma                90.00
_cell_volume                     6808.7(2)
_cell_formula_units_Z            4
_cell_measurement_temperature    293(2)
_cell_measurement_reflns_used    ?
_cell_measurement_theta_min      ?
_cell_measurement_theta_max      ?

_exptl_crystal_description       ?
_exptl_crystal_colour            ?
_exptl_crystal_size_max          0.30
_exptl_crystal_size_mid          0.30
_exptl_crystal_size_min          0.20
_exptl_crystal_density_meas      ?
_exptl_crystal_density_diffrn    1.040
_exptl_crystal_density_method    'not measured'
_exptl_crystal_F_000             2214
_exptl_absorpt_coefficient_mu    0.507
_exptl_absorpt_correction_type   ?
_exptl_absorpt_correction_T_min  0.8627
_exptl_absorpt_correction_T_max  0.9054
_exptl_absorpt_process_details   ?

_exptl_special_details           
;
?
;

_diffrn_ambient_temperature      293(2)
_diffrn_radiation_wavelength     0.71073
_diffrn_radiation_type           MoK\a
_diffrn_radiation_source         'fine-focus sealed tube'
_diffrn_radiation_monochromator  graphite
_diffrn_measurement_device_type  ?
_diffrn_measurement_method       ?
_diffrn_detector_area_resol_mean ?
_diffrn_standards_number         ?
_diffrn_standards_interval_count ?
_diffrn_standards_interval_time  ?
_diffrn_standards_decay_%        ?
_diffrn_reflns_number            26690
_diffrn_reflns_av_R_equivalents  0.0432
_diffrn_reflns_av_sigmaI/netI    0.0759
_diffrn_reflns_limit_h_min       -14
_diffrn_reflns_limit_h_max       14
_diffrn_reflns_limit_k_min       -28
_diffrn_reflns_limit_k_max       26
_diffrn_reflns_limit_l_min       -35
_diffrn_reflns_limit_l_max       35
_diffrn_reflns_theta_min         1.82
_diffrn_reflns_theta_max         27.47
_reflns_number_total             15521
_reflns_number_gt                8169
_reflns_threshold_expression     >2sigma(I)

_computing_data_collection       ?
_computing_cell_refinement       ?
_computing_data_reduction        ?
_computing_structure_solution    'SHELXS-97 (Sheldrick, 1990)'
_computing_structure_refinement  'SHELXL-97 (Sheldrick, 1997)'
_computing_molecular_graphics    ?
_computing_publication_material  ?

_refine_special_details          
;
Refinement of F^2^ against ALL reflections.  The weighted R-factor wR and
goodness of fit S are based on F^2^, conventional R-factors R are based
on F, with F set to zero for negative F^2^. The threshold expression of
F^2^ > 2sigma(F^2^) is used only for calculating R-factors(gt) etc. and is
not relevant to the choice of reflections for refinement.  R-factors based
on F^2^ are statistically about twice as large as those based on F, and R-
factors based on ALL data will be even larger.
;

_refine_ls_structure_factor_coef Fsqd
_refine_ls_matrix_type           full
_refine_ls_weighting_scheme      calc
_refine_ls_weighting_details     
'calc w=1/[\s^2^(Fo^2^)+(0.2000P)^2^+0.0000P] where P=(Fo^2^+2Fc^2^)/3'
_atom_sites_solution_primary     direct
_atom_sites_solution_secondary   difmap
_atom_sites_solution_hydrogens   geom
_refine_ls_hydrogen_treatment    mixed
_refine_ls_extinction_method     SHELXL
_refine_ls_extinction_coef       0.0000(8)
_refine_ls_extinction_expression Fc^*^=kFc[1+0.001xFc^2^\l^3^/sin(2\q)]^-1/4^
_refine_ls_number_reflns         15521
_refine_ls_number_parameters     573
_refine_ls_number_restraints     30
_refine_ls_R_factor_all          0.1711
_refine_ls_R_factor_gt           0.0984
_refine_ls_wR_factor_ref         0.3490
_refine_ls_wR_factor_gt          0.2961
_refine_ls_goodness_of_fit_ref   1.129
_refine_ls_restrained_S_all      1.143
_refine_ls_shift/su_max          0.121
_refine_ls_shift/su_mean         0.005

loop_
_atom_site_label
_atom_site_type_symbol
_atom_site_fract_x
_atom_site_fract_y
_atom_site_fract_z
_atom_site_U_iso_or_equiv
_atom_site_adp_type
_atom_site_occupancy
_atom_site_symmetry_multiplicity
_atom_site_calc_flag
_atom_site_refinement_flags
_atom_site_disorder_assembly
_atom_site_disorder_group
Co1 Co 0.0000 0.5000 0.0000 0.0444(3) Uani 1 2 d S . .
Co2 Co -0.87323(6) 0.30315(3) -0.22296(2) 0.0559(3) Uani 1 1 d . . .
S1 S 0.34440(12) 0.47114(8) 0.12634(5) 0.0702(4) Uani 1 1 d . . .
S2 S -0.7769(6) 0.4459(2) -0.34031(15) 0.239(2) Uani 1 1 d . . .
S3 S -1.0246(6) 0.15187(14) -0.12618(15) 0.243(3) Uani 1 1 d . . .
N1 N -0.1491(3) 0.47902(18) 0.03700(13) 0.0493(9) Uani 1 1 d . . .
N2 N -0.7397(4) 0.33548(19) -0.16125(15) 0.0586(10) Uani 1 1 d . . .
N3 N -0.0142(3) 0.59823(17) 0.01638(14) 0.0506(9) Uani 1 1 d . . .
N4 N 0.1224(4) 0.49084(18) 0.06668(14) 0.0539(10) Uani 1 1 d . . .
N5 N -0.9912(4) 0.37789(17) -0.21151(15) 0.0562(10) Uani 1 1 d . . .
N6 N -0.7612(4) 0.2265(2) -0.23410(17) 0.0649(11) Uani 1 1 d . . .
N7 N -1.0108(4) 0.27385(19) -0.28608(16) 0.0652(12) Uani 1 1 d . . .
N8 N -0.8002(4) 0.3564(2) -0.27242(18) 0.0676(12) Uani 1 1 d . . .
N9 N -0.9488(4) 0.2476(2) -0.17547(18) 0.0691(12) Uani 1 1 d . . .
C1 C -0.2454(4) 0.4488(2) 0.01377(18) 0.0529(11) Uani 1 1 d . . .
H1 H -0.2457 0.4350 -0.0182 0.063 Uiso 1 1 calc R . .
C2 C -0.3447(4) 0.4366(2) 0.03402(17) 0.0518(11) Uani 1 1 d . . .
C3 C -0.3410(5) 0.4554(3) 0.08227(19) 0.0659(14) Uani 1 1 d . . .
H3 H -0.4045 0.4472 0.0978 0.079 Uiso 1 1 calc R . .
C4 C -0.2437(5) 0.4864(3) 0.1071(2) 0.0707(15) Uani 1 1 d . . .
H4 H -0.2405 0.4994 0.1395 0.085 Uiso 1 1 calc R . .
C5 C -0.1502(5) 0.4979(2) 0.08331(18) 0.0580(13) Uani 1 1 d . . .
H5 H -0.0852 0.5197 0.1001 0.070 Uiso 1 1 calc R . .
C9 C -0.5682(5) 0.3827(2) -0.08202(19) 0.0592(13) Uani 1 1 d . . .
C6 C -0.4499(4) 0.4034(2) 0.00448(18) 0.0589(12) Uani 1 1 d . . .
C7 C -0.5159(7) 0.3608(4) 0.0342(3) 0.107(3) Uani 1 1 d . . .
H7A H -0.5897 0.3791 0.0379 0.160 Uiso 1 1 calc R . .
H7B H -0.4675 0.3537 0.0663 0.160 Uiso 1 1 calc R . .
H7C H -0.5318 0.3230 0.0168 0.160 Uiso 1 1 calc R . .
C8 C -0.4750(5) 0.4100(3) -0.04407(19) 0.0630(13) Uani 1 1 d . . .
H8 H -0.4250 0.4367 -0.0565 0.076 Uiso 1 1 calc R . .
C10 C -0.6766(5) 0.3616(3) -0.0752(2) 0.0804(18) Uani 1 1 d . . .
H10 H -0.6952 0.3625 -0.0438 0.096 Uiso 1 1 calc R . .
C11 C -0.7590(5) 0.3390(3) -0.1151(2) 0.0729(16) Uani 1 1 d . . .
H11 H -0.8319 0.3255 -0.1092 0.087 Uiso 1 1 calc R . .
C12 C -0.6358(5) 0.3570(3) -0.1680(2) 0.0745(16) Uani 1 1 d . . .
H12 H -0.6196 0.3561 -0.1999 0.089 Uiso 1 1 calc R . .
C13 C -0.5508(5) 0.3805(3) -0.1306(2) 0.0805(18) Uani 1 1 d . . .
H13 H -0.4801 0.3953 -0.1379 0.097 Uiso 1 1 calc R . .
C14 C -0.9581(4) 0.4357(2) -0.21311(18) 0.0532(12) Uani 1 1 d . . .
H14 H -0.8803 0.4437 -0.2166 0.064 Uiso 1 1 calc R . .
C15 C -1.0338(5) 0.4854(2) -0.20992(19) 0.0587(12) Uani 1 1 d . . .
C16 C -1.1473(6) 0.4710(3) -0.2023(2) 0.0703(15) Uani 1 1 d . . .
H16 H -1.2004 0.5018 -0.1986 0.084 Uiso 1 1 calc R . .
C17 C -1.1812(5) 0.4119(3) -0.2002(2) 0.0736(15) Uani 1 1 d . . .
H17 H -1.2576 0.4026 -0.1956 0.088 Uiso 1 1 calc R . .
C18 C -1.1023(5) 0.3659(3) -0.2049(2) 0.0674(14) Uani 1 1 d . . .
H18 H -1.1264 0.3258 -0.2035 0.081 Uiso 1 1 calc R . .
C19 C -0.9928(5) 0.5482(2) -0.2125(2) 0.0626(13) Uani 1 1 d . . .
C20 C -1.0409(7) 0.5943(3) -0.1811(3) 0.097(2) Uani 1 1 d . . .
H20A H -1.0001 0.5906 -0.1473 0.145 Uiso 1 1 calc R . .
H20B H -1.1246 0.5875 -0.1831 0.145 Uiso 1 1 calc R . .
H20C H -1.0288 0.6343 -0.1930 0.145 Uiso 1 1 calc R . .
C21 C -0.9158(6) 0.5616(2) -0.2421(2) 0.0676(14) Uani 1 1 d . . .
H21 H -0.8967 0.5297 -0.2612 0.081 Uiso 1 1 calc R . .
C22 C -0.8575(5) 0.6198(2) -0.2483(2) 0.0637(13) Uani 1 1 d . . .
C23 C -0.8107(6) 0.6579(3) -0.2101(2) 0.0744(16) Uani 1 1 d . . .
H23 H -0.8172 0.6483 -0.1777 0.089 Uiso 1 1 calc R . .
C24 C -0.8398(6) 0.6354(3) -0.2951(2) 0.0783(17) Uani 1 1 d . . .
H24 H -0.8669 0.6100 -0.3219 0.094 Uiso 1 1 calc R . .
C25 C -0.7185(6) 0.1890(3) -0.1977(2) 0.0782(18) Uani 1 1 d . . .
H25 H -0.7276 0.1989 -0.1658 0.094 Uiso 1 1 calc R . .
C26 C -0.7469(6) 0.2113(3) -0.2803(2) 0.0755(16) Uani 1 1 d . . .
H26 H -0.7763 0.2372 -0.3065 0.091 Uiso 1 1 calc R . .
C27 C -0.0888(5) 0.6339(2) -0.0147(2) 0.0689(15) Uani 1 1 d . . .
H27 H -0.1359 0.6154 -0.0421 0.083 Uiso 1 1 calc R . .
C28 C -0.1020(5) 0.6944(2) -0.0099(2) 0.0670(15) Uani 1 1 d . A .
C29 C -0.0350(5) 0.7218(3) 0.0314(2) 0.0705(15) Uani 1 1 d . . .
H29 H -0.0413 0.7632 0.0365 0.085 Uiso 1 1 calc R . .
C30 C 0.0409(6) 0.6869(3) 0.0645(2) 0.0746(16) Uani 1 1 d . . .
H30 H 0.0877 0.7043 0.0925 0.089 Uiso 1 1 calc R . .
C31 C 0.0471(5) 0.6263(2) 0.05608(17) 0.0623(14) Uani 1 1 d . . .
H31 H 0.0973 0.6031 0.0796 0.075 Uiso 1 1 calc R . .
C32 C -0.1918(7) 0.7298(3) -0.0474(3) 0.106(3) Uani 1 1 d D . .
C33 C -0.2643(14) 0.7779(6) -0.0221(5) 0.057(6) Uani 0.37(2) 1 d PD A 1
H33A H -0.3456 0.7787 -0.0395 0.086 Uiso 0.37(2) 1 calc PR A 1
H33B H -0.2295 0.8173 -0.0235 0.086 Uiso 0.37(2) 1 calc PR A 1
H33C H -0.2616 0.7668 0.0118 0.086 Uiso 0.37(2) 1 calc PR A 1
C33' C -0.146(3) 0.7967(7) -0.0571(13) 0.35(4) Uani 0.63(2) 1 d PD A 2
H33D H -0.1907 0.8261 -0.0428 0.530 Uiso 0.63(2) 1 calc PR A 2
H33E H -0.1560 0.8036 -0.0922 0.530 Uiso 0.63(2) 1 calc PR A 2
H33F H -0.0628 0.8003 -0.0422 0.530 Uiso 0.63(2) 1 calc PR A 2
C34 C -1.2660(5) 0.2095(3) -0.4104(2) 0.0694(15) Uani 1 1 d . . .
H34 H -1.2948 0.1714 -0.4046 0.083 Uiso 1 1 calc R . .
C35 C -1.1803(5) 0.2337(2) -0.3682(2) 0.0655(14) Uani 1 1 d . . .
C36 C -1.1431(6) 0.2939(3) -0.3623(2) 0.085(2) Uani 1 1 d . . .
H36 H -1.1750 0.3228 -0.3857 0.102 Uiso 1 1 calc R . .
C37 C -1.0587(6) 0.3101(3) -0.3215(3) 0.0824(19) Uani 1 1 d . . .
H37 H -1.0341 0.3503 -0.3191 0.099 Uiso 1 1 calc R . .
C38 C -1.0490(6) 0.2165(3) -0.2907(2) 0.0834(19) Uani 1 1 d . . .
H38 H -1.0185 0.1891 -0.2658 0.100 Uiso 1 1 calc R . .
C39 C -1.1313(6) 0.1963(2) -0.3307(2) 0.0800(19) Uani 1 1 d . . .
H39 H -1.1540 0.1558 -0.3320 0.096 Uiso 1 1 calc R . .
C40 C 0.2127(4) 0.4830(2) 0.09132(16) 0.0490(11) Uani 1 1 d . . .
C41 C -0.7860(8) 0.3910(4) -0.3007(3) 0.106(3) Uani 1 1 d . . .
C42 C -0.9799(8) 0.2080(3) -0.1552(3) 0.095(2) Uani 1 1 d . . .
N01 N 0.5638(10) 0.4768(5) 0.2378(5) 0.226(6) Uiso 1 1 d D . .
O01 O 0.6255(11) 0.4981(5) 0.2089(4) 0.223(4) Uiso 1 1 d D . .
O02 O 0.5003(14) 0.5383(6) 0.2337(6) 0.276(6) Uiso 1 1 d D . .
C01 C 0.4961(15) 0.4532(7) 0.2700(6) 0.225(7) Uiso 1 1 d D . .
N02 N 0.848(3) 0.2911(15) 0.0717(12) 0.412(14) Uiso 1 1 d D . .
O03 O 0.751(2) 0.2748(13) 0.0911(9) 0.435(13) Uiso 1 1 d D . .
O04 O 0.875(4) 0.248(2) 0.0392(15) 0.73(3) Uiso 1 1 d D . .
C02 C 0.939(4) 0.332(3) 0.100(2) 0.73(5) Uiso 1 1 d D . .
N03 N 0.057(4) 0.1878(17) 0.2047(15) 0.49(2) Uiso 1 1 d D . .
O05 O 0.060(4) 0.2434(16) 0.1818(14) 0.58(2) Uiso 1 1 d D . .
O06 O 0.108(5) 0.186(2) 0.2542(15) 0.72(4) Uiso 1 1 d D . .
C03 C 0.059(5) 0.1354(18) 0.1719(18) 0.57(3) Uiso 1 1 d D . .
O07 O 0.322(3) 0.742(2) 0.1721(13) 0.558(19) Uiso 1 1 d D . .
C04 C 0.327(4) 0.804(2) 0.2017(17) 0.47(2) Uiso 1 1 d D . .

loop_
_atom_site_aniso_label
_atom_site_aniso_U_11
_atom_site_aniso_U_22
_atom_site_aniso_U_33
_atom_site_aniso_U_23
_atom_site_aniso_U_13
_atom_site_aniso_U_12
Co1 0.0326(5) 0.0546(5) 0.0412(5) 0.0016(4) -0.0046(3) 0.0006(4)
Co2 0.0528(5) 0.0462(4) 0.0639(5) -0.0110(3) -0.0001(3) -0.0057(3)
S1 0.0398(7) 0.0945(11) 0.0692(8) 0.0129(7) -0.0069(6) 0.0082(7)
S2 0.328(6) 0.228(4) 0.158(3) 0.079(3) 0.038(3) -0.083(4)
S3 0.470(8) 0.109(2) 0.189(3) -0.022(2) 0.162(4) -0.123(3)
N1 0.041(2) 0.059(2) 0.046(2) 0.0010(17) 0.0033(16) -0.0009(17)
N2 0.049(2) 0.060(2) 0.065(3) -0.009(2) 0.006(2) -0.0081(19)
N3 0.042(2) 0.052(2) 0.052(2) 0.0023(18) -0.0037(17) -0.0028(17)
N4 0.042(2) 0.062(2) 0.051(2) 0.0033(18) -0.0082(18) 0.0035(18)
N5 0.052(2) 0.046(2) 0.068(2) -0.0099(19) 0.005(2) -0.0072(18)
N6 0.070(3) 0.054(2) 0.067(3) -0.009(2) 0.002(2) 0.004(2)
N7 0.067(3) 0.047(2) 0.072(3) -0.010(2) -0.010(2) -0.006(2)
N8 0.071(3) 0.062(3) 0.068(3) -0.009(2) 0.010(2) -0.011(2)
N9 0.069(3) 0.058(3) 0.077(3) -0.014(2) 0.008(2) -0.013(2)
C1 0.037(2) 0.067(3) 0.052(2) -0.005(2) 0.002(2) -0.008(2)
C2 0.044(3) 0.056(3) 0.053(3) -0.005(2) 0.004(2) -0.006(2)
C3 0.051(3) 0.093(4) 0.055(3) -0.009(3) 0.013(2) -0.004(3)
C4 0.062(4) 0.100(4) 0.051(3) -0.023(3) 0.014(3) -0.009(3)
C5 0.048(3) 0.072(3) 0.050(3) -0.011(2) -0.003(2) -0.006(2)
C9 0.049(3) 0.065(3) 0.063(3) -0.007(2) 0.007(2) -0.015(2)
C6 0.046(3) 0.071(3) 0.060(3) -0.007(2) 0.012(2) -0.013(2)
C7 0.102(5) 0.141(7) 0.080(4) -0.005(4) 0.024(4) -0.064(5)
C8 0.050(3) 0.076(3) 0.060(3) -0.001(3) 0.003(2) -0.019(3)
C10 0.056(3) 0.123(5) 0.065(3) -0.015(3) 0.018(3) -0.018(3)
C11 0.052(3) 0.097(4) 0.069(3) -0.015(3) 0.011(3) -0.026(3)
C12 0.062(4) 0.103(4) 0.058(3) -0.017(3) 0.011(3) -0.018(3)
C13 0.055(3) 0.120(5) 0.065(3) -0.006(3) 0.007(3) -0.033(3)
C14 0.044(3) 0.051(3) 0.061(3) -0.009(2) 0.004(2) -0.007(2)
C15 0.057(3) 0.056(3) 0.063(3) -0.004(2) 0.013(2) -0.002(2)
C16 0.065(4) 0.064(3) 0.085(4) -0.002(3) 0.019(3) 0.006(3)
C17 0.056(3) 0.071(4) 0.097(4) -0.002(3) 0.024(3) -0.007(3)
C18 0.056(3) 0.062(3) 0.084(4) -0.003(3) 0.012(3) -0.010(3)
C19 0.064(3) 0.050(3) 0.076(3) -0.001(2) 0.019(3) 0.007(2)
C20 0.114(6) 0.062(4) 0.125(6) -0.006(4) 0.049(5) 0.006(4)
C21 0.076(4) 0.051(3) 0.075(3) -0.002(3) 0.015(3) 0.000(3)
C22 0.064(3) 0.054(3) 0.073(3) 0.004(3) 0.011(3) -0.005(2)
C23 0.095(5) 0.059(3) 0.069(3) 0.008(3) 0.014(3) -0.010(3)
C24 0.091(5) 0.074(4) 0.068(3) -0.004(3) 0.012(3) -0.022(3)
C25 0.094(5) 0.075(4) 0.061(3) -0.013(3) 0.002(3) 0.018(3)
C26 0.088(4) 0.066(3) 0.071(4) 0.001(3) 0.012(3) 0.015(3)
C27 0.071(4) 0.059(3) 0.065(3) -0.002(3) -0.017(3) 0.003(3)
C28 0.074(4) 0.051(3) 0.066(3) 0.001(2) -0.013(3) 0.009(2)
C29 0.082(4) 0.051(3) 0.072(3) -0.004(3) -0.001(3) 0.004(3)
C30 0.090(4) 0.068(4) 0.057(3) -0.013(3) -0.007(3) -0.005(3)
C31 0.069(3) 0.067(3) 0.043(2) 0.001(2) -0.007(2) 0.007(3)
C32 0.130(6) 0.059(4) 0.105(5) -0.004(4) -0.040(5) 0.024(4)
C33 0.078(11) 0.045(8) 0.047(7) 0.004(6) 0.010(6) 0.030(7)
C33' 0.43(6) 0.069(10) 0.42(6) 0.020(17) -0.26(5) -0.015(17)
C34 0.074(4) 0.057(3) 0.069(3) -0.004(3) -0.007(3) -0.014(3)
C35 0.069(4) 0.054(3) 0.069(3) -0.009(3) 0.001(3) -0.011(3)
C36 0.103(5) 0.060(3) 0.076(4) -0.005(3) -0.023(3) -0.018(3)
C37 0.084(4) 0.050(3) 0.101(5) -0.007(3) -0.012(4) -0.017(3)
C38 0.108(5) 0.050(3) 0.077(4) 0.002(3) -0.022(3) -0.021(3)
C39 0.098(5) 0.048(3) 0.080(4) -0.010(3) -0.018(3) -0.018(3)
C40 0.049(3) 0.051(3) 0.043(2) 0.001(2) 0.000(2) 0.004(2)
C41 0.118(7) 0.112(6) 0.085(5) -0.005(5) 0.013(4) -0.037(5)
C42 0.141(7) 0.060(4) 0.091(5) -0.015(3) 0.038(5) -0.026(4)

_geom_special_details            
;
All esds (except the esd in the dihedral angle between two l.s. planes)
are estimated using the full covariance matrix.  The cell esds are taken
into account individually in the estimation of esds in distances, angles
and torsion angles; correlations between esds in cell parameters are only
used when they are defined by crystal symmetry.  An approximate (isotropic)
treatment of cell esds is used for estimating esds involving l.s. planes.
;

loop_
_geom_bond_atom_site_label_1
_geom_bond_atom_site_label_2
_geom_bond_distance
_geom_bond_site_symmetry_2
_geom_bond_publ_flag
Co1 N4 2.088(4) 3_565 ?
Co1 N4 2.088(4) . ?
Co1 N1 2.199(4) . ?
Co1 N1 2.199(4) 3_565 ?
Co1 N3 2.227(4) 