####################################################################### 
# 
# This file contains crystal structure data downloaded from the 
# Cambridge Structural Database (CSD) hosted by the Cambridge 
# Crystallographic Data Centre (CCDC).
# 
# Full information about CCDC data access policies and citation 
# guidelines are available at http://www.ccdc.cam.ac.uk/access/V1 
# 
# Audit and citation data items may have been added by the CCDC. 
# Please retain this information to preserve the provenance of 
# this file and to allow appropriate attribution of the data. 
# 
#######################################################################

data_Compound-III
_audit_block_doi                 10.5517/cc5fqhs
_database_code_depnum_ccdc_archive 'CCDC 162145'
loop_
_citation_id
_citation_doi
_citation_year
1 10.1039/b100580b 2001
_audit_update_record             
;
2001-04-12 deposited with the CCDC.	2024-07-10 downloaded from the CCDC.
;

_audit_creation_method           SHELXL-97
_chemical_name_systematic        
; 
? 
;
_chemical_name_common            ?
_chemical_melting_point          ?
_chemical_formula_moiety         ?
_chemical_formula_sum            'C128 H98 N8 Na2 O18 Zn2'
_chemical_formula_weight         2212.86

loop_
_atom_type_symbol
_atom_type_description
_atom_type_scat_dispersion_real
_atom_type_scat_dispersion_imag
_atom_type_scat_source
C C 0.0033 0.0016 'International Tables Vol C Tables 4.2.6.8 and 6.1.1.4'
H H 0.0000 0.0000 'International Tables Vol C Tables 4.2.6.8 and 6.1.1.4'
N N 0.0061 0.0033 'International Tables Vol C Tables 4.2.6.8 and 6.1.1.4'
O O 0.0106 0.0060 'International Tables Vol C Tables 4.2.6.8 and 6.1.1.4'
Zn Zn 0.2839 1.4301 'International Tables Vol C Tables 4.2.6.8 and 6.1.1.4'
Na Na 0.0362 0.0249 'International Tables Vol C Tables 4.2.6.8 and 6.1.1.4'

_symmetry_cell_setting           monoclinic
_symmetry_space_group_name_H-M   P21/n

loop_
_symmetry_equiv_pos_as_xyz
'x, y, z'
'-x+1/2, y+1/2, -z+1/2'
'-x, -y, -z'
'x-1/2, -y-1/2, z-1/2'

_cell_length_a                   10.8640(7)
_cell_length_b                   21.5620(11)
_cell_length_c                   45.165(3)
_cell_angle_alpha                90.00
_cell_angle_beta                 93.858(2)
_cell_angle_gamma                90.00
_cell_volume                     10555.9(10)
_cell_formula_units_Z            4
_cell_measurement_temperature    110(2)
_cell_measurement_reflns_used    13858
_cell_measurement_theta_min      2.12
_cell_measurement_theta_max      23.60

_exptl_crystal_description       'thin plates'
_exptl_crystal_colour            dark-violet
_exptl_crystal_size_max          0.40
_exptl_crystal_size_mid          0.20
_exptl_crystal_size_min          0.05
_exptl_crystal_density_meas      ?
_exptl_crystal_density_diffrn    1.392
_exptl_crystal_density_method    'not measured'
_exptl_crystal_F_000             4592
_exptl_absorpt_coefficient_mu    0.539
_exptl_absorpt_correction_type   ?
_exptl_absorpt_correction_T_min  ?
_exptl_absorpt_correction_T_max  ?
_exptl_absorpt_process_details   ?

_exptl_special_details           
; 
? 
;

_diffrn_ambient_temperature      110(2)
_diffrn_radiation_wavelength     0.71070
_diffrn_radiation_type           MoK\a
_diffrn_radiation_source         'fine-focus sealed tube'
_diffrn_radiation_monochromator  graphite
_diffrn_measurement_device_type  'Nonius KappaCCD'
_diffrn_measurement_method       '0.5 degree Phi scans'
_diffrn_detector_area_resol_mean '56 microns'
_diffrn_standards_number         ?
_diffrn_standards_interval_count ?
_diffrn_standards_interval_time  ?
_diffrn_standards_decay_%        ?
_diffrn_reflns_number            13858
_diffrn_reflns_av_R_equivalents  0.0000
_diffrn_reflns_av_sigmaI/netI    0.1455
_diffrn_reflns_limit_h_min       0
_diffrn_reflns_limit_h_max       12
_diffrn_reflns_limit_k_min       0
_diffrn_reflns_limit_k_max       22
_diffrn_reflns_limit_l_min       -50
_diffrn_reflns_limit_l_max       50
_diffrn_reflns_theta_min         2.12
_diffrn_reflns_theta_max         23.60
_reflns_number_total             13858
_reflns_number_gt                6162
_reflns_threshold_expression     >2sigma(I)

_computing_data_collection       'Collect, Nonius B.V.'
_computing_cell_refinement       Denzo
_computing_data_reduction        Denzo
_computing_structure_solution    SIR-92
_computing_structure_refinement  'SHELXL-97 (Sheldrick, 1997)'
_computing_molecular_graphics    ?
_computing_publication_material  ?

_refine_special_details          
; 
Refinement of F^2^ against ALL reflections.  The weighted R-factor wR and 
goodness of fit S are based on F^2^, conventional R-factors R are based 
on F, with F set to zero for negative F^2^. The threshold expression of 
F^2^ > 2sigma(F^2^) is used only for calculating R-factors(gt) etc. and is 
not relevant to the choice of reflections for refinement.  R-factors based 
on F^2^ are statistically about twice as large as those based on F, and R- 
factors based on ALL data will be even larger. 
;

_refine_ls_structure_factor_coef Fsqd
_refine_ls_matrix_type           full
_refine_ls_weighting_scheme      calc
_refine_ls_weighting_details     
'calc w=1/[\s^2^(Fo^2^)+(0.1252P)^2^+0.0000P] where P=(Fo^2^+2Fc^2^)/3'
_atom_sites_solution_primary     direct
_atom_sites_solution_secondary   difmap
_atom_sites_solution_hydrogens   geom
_refine_ls_hydrogen_treatment    mixed
_refine_ls_extinction_method     none
_refine_ls_extinction_coef       ?
_refine_ls_number_reflns         13858
_refine_ls_number_parameters     1125
_refine_ls_number_restraints     0
_refine_ls_R_factor_all          0.1785
_refine_ls_R_factor_gt           0.0891
_refine_ls_wR_factor_ref         0.2423
_refine_ls_wR_factor_gt          0.2066
_refine_ls_goodness_of_fit_ref   0.940
_refine_ls_restrained_S_all      0.940
_refine_ls_shift/su_max          0.149
_refine_ls_shift/su_mean         0.008

loop_
_atom_site_label
_atom_site_type_symbol
_atom_site_fract_x
_atom_site_fract_y
_atom_site_fract_z
_atom_site_U_iso_or_equiv
_atom_site_adp_type
_atom_site_occupancy
_atom_site_symmetry_multiplicity
_atom_site_calc_flag
_atom_site_refinement_flags
_atom_site_disorder_assembly
_atom_site_disorder_group
N1 N 0.1812(3) 0.28052(13) 0.83983(8) 0.0476(11) Uani 1 1 d . . .
N2 N 0.0751(3) 0.30000(14) 0.89611(7) 0.0431(11) Uani 1 1 d . . .
N3 N -0.0101(3) 0.17306(14) 0.89543(7) 0.0460(11) Uani 1 1 d . . .
N4 N 0.1128(3) 0.15190(14) 0.84074(8) 0.0448(11) Uani 1 1 d . . .
C5 C 0.1717(4) 0.15094(17) 0.81569(9) 0.0409(14) Uani 1 1 d . . .
C6 C 0.2197(4) 0.20258(18) 0.80184(9) 0.0384(13) Uani 1 1 d . . .
C7 C 0.2205(4) 0.26361(18) 0.81269(10) 0.0490(15) Uani 1 1 d . . .
C8 C 0.2720(4) 0.31538(18) 0.79926(10) 0.0632(15) Uani 1 1 d . . .
H8 H 0.3063 0.3158 0.7809 0.076 Uiso 1 1 calc R . .
C9 C 0.2632(4) 0.3639(2) 0.81735(11) 0.0626(17) Uani 1 1 d . . .
H9 H 0.2890 0.4042 0.8139 0.075 Uiso 1 1 calc R . .
C10 C 0.2067(4) 0.34215(17) 0.84301(10) 0.0516(14) Uani 1 1 d . . .
C11 C 0.1898(4) 0.37707(16) 0.86865(10) 0.0406(14) Uani 1 1 d . . .
C12 C 0.1311(4) 0.35650(17) 0.89336(10) 0.0448(15) Uani 1 1 d . . .
C13 C 0.1229(4) 0.38976(18) 0.92064(10) 0.0480(15) Uani 1 1 d . . .
H13 H 0.1554 0.4289 0.9249 0.058 Uiso 1 1 calc R . .
C14 C 0.0608(4) 0.35501(17) 0.93890(9) 0.0428(14) Uani 1 1 d . . .
H14 H 0.0423 0.3653 0.9581 0.051 Uiso 1 1 calc R . .
C15 C 0.0276(4) 0.29821(19) 0.92328(10) 0.0452(14) Uani 1 1 d . . .
C16 C -0.0384(4) 0.24823(18) 0.93512(9) 0.0410(13) Uani 1 1 d . . .
C17 C -0.0564(4) 0.19112(17) 0.92113(10) 0.0508(15) Uani 1 1 d . . .
C18 C -0.1266(4) 0.14097(18) 0.93234(10) 0.0551(16) Uani 1 1 d . . .
H18 H -0.1714 0.1422 0.9492 0.066 Uiso 1 1 calc R . .
C19 C -0.1162(4) 0.09208(19) 0.91432(10) 0.0477(15) Uani 1 1 d . . .
H19 H -0.1519 0.0532 0.9164 0.057 Uiso 1 1 calc R . .
C20 C -0.0397(4) 0.11107(16) 0.89124(9) 0.0401(14) Uani 1 1 d . . .
C21 C -0.0029(4) 0.07302(18) 0.86837(10) 0.0424(14) Uani 1 1 d . . .
C22 C 0.0722(4) 0.09243(17) 0.84555(10) 0.0414(14) Uani 1 1 d . . .
C23 C 0.1083(4) 0.05336(18) 0.82168(9) 0.0442(14) Uani 1 1 d . . .
H23 H 0.0920 0.0112 0.8193 0.053 Uiso 1 1 calc R . .
C24 C 0.1705(4) 0.08991(18) 0.80342(10) 0.0449(14) Uani 1 1 d . . .
H24 H 0.2058 0.0776 0.7862 0.054 Uiso 1 1 calc R . .
C25 C 0.2819(4) 0.19313(19) 0.77293(9) 0.0419(14) Uani 1 1 d . . .
C26 C 0.2200(4) 0.20715(19) 0.74592(10) 0.0518(15) Uani 1 1 d . . .
H26 H 0.1391 0.2214 0.7454 0.062 Uiso 1 1 calc R . .
C27 C 0.2780(4) 0.20009(19) 0.71930(10) 0.0519(15) Uani 1 1 d . . .
H27 H 0.2351 0.2092 0.7013 0.062 Uiso 1 1 calc R . .
C28 C 0.3958(4) 0.18021(18) 0.71966(9) 0.0420(14) Uani 1 1 d . . .
C29 C 0.4601(4) 0.1661(2) 0.74632(10) 0.0675(17) Uani 1 1 d . . .
H29 H 0.5413 0.1523 0.7467 0.081 Uiso 1 1 calc R . .
C30 C 0.4013(4) 0.1729(2) 0.77267(11) 0.0626(17) Uani 1 1 d . . .
H30 H 0.4445 0.1635 0.7906 0.075 Uiso 1 1 calc R . .
C31 C 0.4582(4) 0.17501(17) 0.69113(10) 0.0399(14) Uani 1 1 d . . .
O32 O 0.4033(3) 0.18211(13) 0.66791(6) 0.0512(10) Uani 1 1 d . . .
O33 O 0.5767(3) 0.16140(13) 0.69503(7) 0.0576(10) Uani 1 1 d . . .
H33 H 0.6076 0.1632 0.6759 0.069 Uiso 1 1 d R . .
C34 C 0.2375(4) 0.44313(19) 0.86934(10) 0.0495(15) Uani 1 1 d . . .
C35 C 0.1579(4) 0.49391(18) 0.87240(10) 0.0466(15) Uani 1 1 d . . .
H35 H 0.0736 0.4872 0.8732 0.056 Uiso 1 1 calc R . .
C36 C 0.2038(4) 0.55312(17) 0.87427(10) 0.0490(15) Uani 1 1 d . . .
H36 H 0.1511 0.5863 0.8769 0.059 Uiso 1 1 calc R . .
C37 C 0.3279(4) 0.56329(17) 0.87221(9) 0.0384(13) Uani 1 1 d . . .
C38 C 0.4066(4) 0.51381(18) 0.86829(10) 0.0527(15) Uani 1 1 d . . .
H38 H 0.4895 0.5214 0.8659 0.063 Uiso 1 1 calc R . .
C39 C 0.3653(4) 0.45512(19) 0.86790(10) 0.0566(16) Uani 1 1 d . . .
H39 H 0.4205 0.4224 0.8667 0.068 Uiso 1 1 calc R . .
C40 C 0.3771(4) 0.62867(19) 0.87316(9) 0.0479(15) Uani 1 1 d . . .
O41 O 0.4782(3) 0.63974(12) 0.86238(6) 0.0474(9) Uani 1 1 d . . .
O42 O 0.3194(2) 0.66996(11) 0.88735(6) 0.0400(8) Uani 1 1 d . . .
C43 C -0.0831(4) 0.25717(19) 0.96511(9) 0.0464(14) Uani 1 1 d . . .
C44 C -0.0410(4) 0.2161(2) 0.98834(10) 0.0500(15) Uani 1 1 d . . .
H44 H 0.0133 0.1842 0.9845 0.060 Uiso 1 1 calc R . .
C45 C -0.0809(4) 0.22345(18) 1.01674(10) 0.0532(15) Uani 1 1 d . . .
H45 H -0.0560 0.1957 1.0317 0.064 Uiso 1 1 calc R . .
C46 C -0.1580(4) 0.27241(18) 1.02250(9) 0.0489(15) Uani 1 1 d . . .
C47 C -0.1954(4) 0.31324(19) 0.99992(10) 0.0545(15) Uani 1 1 d . . .
H47 H -0.2455 0.3467 1.0040 0.065 Uiso 1 1 calc R . .
C48 C -0.1598(4) 0.3053(2) 0.97175(10) 0.0574(16) Uani 1 1 d . . .
H48 H -0.1877 0.3326 0.9569 0.069 Uiso 1 1 calc R . .
C49 C -0.1943(4) 0.28185(19) 1.05339(9) 0.0452(14) Uani 1 1 d . . .
O50 O -0.1642(3) 0.24716(13) 1.07348(7) 0.0570(10) Uani 1 1 d . . .
O51 O -0.2635(3) 0.33339(13) 1.05677(6) 0.0621(10) Uani 1 1 d . . .
H51 H -0.2838 0.3321 1.0769 0.075 Uiso 1 1 d R . .
C52 C -0.0370(4) 0.00732(18) 0.86904(10) 0.0435(14) Uani 1 1 d . . .
C53 C 0.0418(5) -0.03892(19) 0.87805(14) 0.092(2) Uani 1 1 d . . .
H53 H 0.1221 -0.0294 0.8850 0.110 Uiso 1 1 calc R . .
C54 C 0.0035(5) -0.1001(2) 0.87700(14) 0.091(2) Uani 1 1 d . . .
H54 H 0.0603 -0.1307 0.8828 0.109 Uiso 1 1 calc R . .
C55 C -0.1097(4) -0.11718(18) 0.86812(9) 0.0392(13) Uani 1 1 d . . .
C56 C -0.1912(5) -0.07218(19) 0.86042(13) 0.075(2) Uani 1 1 d . . .
H56 H -0.2731 -0.0820 0.8551 0.090 Uiso 1 1 calc R . .
C57 C -0.1519(5) -0.0105(2) 0.86055(14) 0.096(2) Uani 1 1 d . . .
H57 H -0.2087 0.0198 0.8544 0.115 Uiso 1 1 calc R . .
C58 C -0.1606(4) -0.18146(16) 0.86602(9) 0.0376(13) Uani 1 1 d . . .
O59 O -0.2672(3) -0.19296(12) 0.86370(7) 0.0582(11) Uani 1 1 d . . .
O60 O -0.0741(3) -0.22320(12) 0.86716(7) 0.0597(11) Uani 1 1 d . . .
H60 H -0.1085 -0.2634 0.8643 0.072 Uiso 1 1 d R . .
Zn61 Zn 0.09839(5) 0.22489(2) 0.869457(12) 0.05216(18) Uani 1 1 d . . .
O62 O 0.2759(3) 0.19497(16) 0.89612(8) 0.0866(14) Uani 1 1 d . . .
N63 N 0.6223(3) 0.29752(16) 0.91480(8) 0.0469(11) Uani 1 1 d . . .
N64 N 0.5554(3) 0.16773(14) 0.91560(8) 0.0488(12) Uani 1 1 d . . .
N65 N 0.6493(3) 0.15157(14) 0.85786(8) 0.0492(12) Uani 1 1 d . . .
N66 N 0.7379(3) 0.27724(14) 0.85966(7) 0.0450(11) Uani 1 1 d . . .
C67 C 0.7736(4) 0.33790(19) 0.86483(9) 0.0435(14) Uani 1 1 d . . .
C68 C 0.7345(4) 0.37506(17) 0.88739(9) 0.0410(14) Uani 1 1 d . . .
C69 C 0.6598(4) 0.35766(16) 0.90960(9) 0.0365(13) Uani 1 1 d . . .
C70 C 0.6095(4) 0.39589(18) 0.93133(10) 0.0502(15) Uani 1 1 d . . .
H70 H 0.6180 0.4388 0.9324 0.060 Uiso 1 1 calc R . .
C71 C 0.5484(4) 0.36177(19) 0.94999(11) 0.0603(16) Uani 1 1 d . . .
H71 H 0.5096 0.3755 0.9665 0.072 Uiso 1 1 calc R . .
C72 C 0.5551(4) 0.29829(19) 0.93901(10) 0.0438(14) Uani 1 1 d . . .
C73 C 0.5076(4) 0.2444(2) 0.95288(10) 0.0479(15) Uani 1 1 d . . .
C74 C 0.5118(5) 0.18399(18) 0.94233(10) 0.0540(16) Uani 1 1 d . . .
C75 C 0.4558(5) 0.13234(19) 0.95585(10) 0.0684(17) Uani 1 1 d . . .
H75 H 0.4196 0.1323 0.9739 0.082 Uiso 1 1 calc R . .
C76 C 0.4658(4) 0.08182(19) 0.93682(9) 0.0512(15) Uani 1 1 d . . .
H76 H 0.4390 0.0415 0.9398 0.061 Uiso 1 1 calc R . .
C77 C 0.5262(4) 0.10521(19) 0.91166(11) 0.0581(16) Uani 1 1 d . . .
C78 C 0.5354(4) 0.07331(18) 0.88517(10) 0.0469(14) Uani 1 1 d . . .
C79 C 0.5894(4) 0.09521(19) 0.85965(10) 0.0496(15) Uani 1 1 d . . .
C80 C 0.5889(4) 0.0635(2) 0.83152(9) 0.0506(15) Uani 1 1 d . . .
H80 H 0.5501 0.0260 0.8268 0.061 Uiso 1 1 calc R . .
C81 C 0.6537(4) 0.09751(17) 0.81366(10) 0.0511(15) Uani 1 1 d . . .
H81 H 0.6719 0.0876 0.7944 0.061 Uiso 1 1 calc R . .
C82 C 0.6909(4) 0.15307(17) 0.82995(9) 0.0371(13) Uani 1 1 d . . .
C83 C 0.7619(4) 0.20053(19) 0.81987(9) 0.0411(13) Uani 1 1 d . . .
C84 C 0.7892(4) 0.25864(18) 0.83460(10) 0.0453(14) Uani 1 1 d . . .
C85 C 0.8681(4) 0.30697(18) 0.82403(10) 0.0470(14) Uani 1 1 d . . .
H85 H 0.9160 0.3050 0.8077 0.056 Uiso 1 1 calc R . .
C86 C 0.8581(4) 0.35485(19) 0.84244(9) 0.0432(12) Uiso 1 1 d . . .
H86 H 0.8983 0.3927 0.8412 0.052 Uiso 1 1 calc R . .
C87 C 0.7689(4) 0.44244(17) 0.88641(9) 0.0353(13) Uani 1 1 d . . .
C88 C 0.7343(4) 0.47822(17) 0.86145(10) 0.0471(15) Uani 1 1 d . . .
H88 H 0.6880 0.4602 0.8456 0.056 Uiso 1 1 calc R . .
C89 C 0.7674(4) 0.53971(18) 0.85979(9) 0.0421(14) Uani 1 1 d . . .
H89 H 0.7402 0.5632 0.8434 0.051 Uiso 1 1 calc R . .
C90 C 0.8402(4) 0.56650(17) 0.88225(9) 0.0356(13) Uani 1 1 d . . .
C91 C 0.8770(4) 0.53241(18) 0.90729(9) 0.0454(14) Uani 1 1 d . . .
H91 H 0.9249 0.5506 0.9228 0.055 Uiso 1 1 calc R . .
C92 C 0.8411(4) 0.47013(18) 0.90902(10) 0.0460(15) Uani 1 1 d . . .
H92 H 0.8664 0.4470 0.9257 0.055 Uiso 1 1 calc R . .
C93 C 0.8841(4) 0.6334(2) 0.88025(9) 0.0453(14) Uani 1 1 d . . .
O94 O 0.8340(2) 0.66620(11) 0.85960(6) 0.0402(9) Uani 1 1 d . . .
O95 O 0.9690(3) 0.65304(12) 0.89812(6) 0.0475(9) Uani 1 1 d . . .
C96 C 0.4413(4) 0.25667(18) 0.98060(9) 0.0452(14) Uani 1 1 d . . .
C97 C 0.5001(4) 0.2468(2) 1.00793(10) 0.0599(16) Uani 1 1 d . . .
H97 H 0.5817 0.2336 1.0097 0.072 Uiso 1 1 calc R . .
C98 C 0.4354(4) 0.2571(2) 1.03327(11) 0.0608(17) Uani 1 1 d . . .
H98 H 0.4739 0.2496 1.0519 0.073 Uiso 1 1 calc R . .
C99 C 0.3146(4) 0.27820(19) 1.03087(9) 0.0448(14) Uani 1 1 d . . .
C100 C 0.2578(4) 0.2886(2) 1.00294(10) 0.0617(17) Uani 1 1 d . . .
H100 H 0.1771 0.3031 1.0009 0.074 Uiso 1 1 calc R . .
C101 C 0.3224(4) 0.2770(2) 0.97806(11) 0.0620(17) Uani 1 1 d . . .
H101 H 0.2837 0.2833 0.9593 0.074 Uiso 1 1 calc R . .
C102 C 0.2513(4) 0.2919(2) 1.05840(10) 0.0513(15) Uani 1 1 d . . .
O103 O 0.2988(3) 0.29124(15) 1.08271(6) 0.0642(11) Uani 1 1 d . . .
O104 O 0.1319(3) 0.30981(14) 1.05252(7) 0.0678(11) Uani 1 1 d . . .
H104 H 0.0967 0.3233 1.0702 0.081 Uiso 1 1 d R . .
C105 C 0.4890(4) 0.00646(18) 0.88367(10) 0.0447(14) Uani 1 1 d . . .
C106 C 0.5533(4) -0.03989(19) 0.89854(10) 0.0556(16) Uani 1 1 d . . .
H106 H 0.6240 -0.0302 0.9104 0.067 Uiso 1 1 calc R . .
C107 C 0.5136(4) -0.1030(2) 0.89608(10) 0.0579(14) Uiso 1 1 d . . .
H107 H 0.5582 -0.1347 0.9058 0.070 Uiso 1 1 calc R . .
C108 C 0.4097(4) -0.11484(18) 0.87934(10) 0.0441(14) Uani 1 1 d . . .
C109 C 0.3420(5) -0.06955(18) 0.86348(12) 0.0664(19) Uani 1 1 d . . .
H109 H 0.2714 -0.0795 0.8516 0.080 Uiso 1 1 calc R . .
C110 C 0.3840(4) -0.0092(2) 0.86605(12) 0.0690(19) Uani 1 1 d . . .
H110 H 0.3405 0.0220 0.8556 0.083 Uiso 1 1 calc R . .
C111 C 0.3595(4) -0.18199(19) 0.87618(10) 0.0484(15) Uani 1 1 d . . .
O112 O 0.4358(3) -0.22394(12) 0.88769(6) 0.0454(9) Uani 1 1 d . . .
H112 H 0.3930 -0.2624 0.8876 0.055 Uiso 1 1 d R . .
O113 O 0.2562(3) -0.19171(12) 0.86493(7) 0.0526(10) Uani 1 1 d . . .
C114 C 0.8109(4) 0.19325(18) 0.78947(9) 0.0392(13) Uani 1 1 d . . .
C115 C 0.7739(4) 0.23688(17) 0.76735(9) 0.0426(14) Uani 1 1 d . . .
H115 H 0.7268 0.2711 0.7720 0.051 Uiso 1 1 calc R . .
C116 C 0.8089(4) 0.22806(18) 0.73855(9) 0.0429(14) Uani 1 1 d . . .
H116 H 0.7857 0.2568 0.7239 0.051 Uiso 1 1 calc R . .
C117 C 0.8771(4) 0.17741(18) 0.73165(9) 0.0422(13) Uani 1 1 d . . .
C118 C 0.9133(4) 0.13420(19) 0.75369(10) 0.0471(15) Uani 1 1 d . . .
H118 H 0.9618 0.1004 0.7492 0.057 Uiso 1 1 calc R . .
C119 C 0.8766(4) 0.14219(19) 0.78189(10) 0.0485(15) Uani 1 1 d . . .
H119 H 0.8968 0.1122 0.7962 0.058 Uiso 1 1 calc R . .
C120 C 0.9090(4) 0.1696(2) 0.70035(10) 0.0524(16) Uani 1 1 d . . .
O121 O 0.8836(3) 0.20894(14) 0.68173(7) 0.0708(11) Uani 1 1 d . . .
O122 O 0.9693(3) 0.11821(12) 0.69395(6) 0.0513(10) Uani 1 1 d . . .
H122 H 0.9880 0.1261 0.6740 0.062 Uiso 1 1 d R . .
ZN123 Zn 0.63163(5) 0.22471(2) 0.885532(12) 0.05261(18) Uani 1 1 d . . .
O124 O 0.4514(3) 0.25609(17) 0.86091(9) 0.0884