####################################################################### 
# 
# This file contains crystal structure data downloaded from the 
# Cambridge Structural Database (CSD) hosted by the Cambridge 
# Crystallographic Data Centre (CCDC).
# 
# Full information about CCDC data access policies and citation 
# guidelines are available at http://www.ccdc.cam.ac.uk/access/V1 
# 
# Audit and citation data items may have been added by the CCDC. 
# Please retain this information to preserve the provenance of 
# this file and to allow appropriate attribution of the data. 
# 
#######################################################################

data_compd_1
_audit_block_doi                 10.5517/cc5vg6n
_database_code_depnum_ccdc_archive 'CCDC 174381'
loop_
_citation_id
_citation_doi
_citation_year
1 10.1021/ic010537t 2001
_audit_update_record             
;
2001-11-19 deposited with the CCDC.	2024-07-10 downloaded from the CCDC.
;


_audit_creation_method           SHELXL-97
_chemical_name_systematic        
;
?
;
_chemical_name_common            ?
_chemical_melting_point          ?
_chemical_formula_moiety         
'[Rh2(DAniF)2]2[O2CCH2CO2]2(NCC6F4C6F4CN)2(6.8CH2Cl2)'
_chemical_formula_sum            'C100.80 H77.60 Cl13.60 F16 N12 O16 Rh4'
_chemical_formula_weight         2910.71

loop_
_atom_type_symbol
_atom_type_description
_atom_type_scat_dispersion_real
_atom_type_scat_dispersion_imag
_atom_type_scat_source
C C 0.0033 0.0016 'International Tables Vol C Tables 4.2.6.8 and 6.1.1.4'
H H 0.0000 0.0000 'International Tables Vol C Tables 4.2.6.8 and 6.1.1.4'
N N 0.0061 0.0033 'International Tables Vol C Tables 4.2.6.8 and 6.1.1.4'
O O 0.0106 0.0060 'International Tables Vol C Tables 4.2.6.8 and 6.1.1.4'
F F 0.0171 0.0103 'International Tables Vol C Tables 4.2.6.8 and 6.1.1.4'
Rh Rh -1.1178 0.9187 'International Tables Vol C Tables 4.2.6.8 and 6.1.1.4'
Cl Cl 0.1484 0.1585 'International Tables Vol C Tables 4.2.6.8 and 6.1.1.4'

_symmetry_cell_setting           Monoclinic
_symmetry_space_group_name_H-M   'P 1 21/m 1'

loop_
_symmetry_equiv_pos_as_xyz
'x, y, z'
'-x, y+1/2, -z'
'-x, -y, -z'
'x, -y-1/2, z'

_cell_length_a                   11.802(1)
_cell_length_b                   28.303(2)
_cell_length_c                   18.820(2)
_cell_angle_alpha                90.00
_cell_angle_beta                 95.673(2)
_cell_angle_gamma                90.00
_cell_volume                     6255.7(10)
_cell_formula_units_Z            2
_cell_measurement_temperature    213(2)
_cell_measurement_reflns_used    4761
_cell_measurement_theta_min      2.18
_cell_measurement_theta_max      24.77

_exptl_crystal_description       block
_exptl_crystal_colour            dark-red
_exptl_crystal_size_max          0.25
_exptl_crystal_size_mid          0.20
_exptl_crystal_size_min          0.06
_exptl_crystal_density_meas      ?
_exptl_crystal_density_diffrn    1.545
_exptl_crystal_density_method    'not measured'
_exptl_crystal_F_000             2899
_exptl_absorpt_coefficient_mu    0.894
_exptl_absorpt_correction_type   multi-scan
_exptl_absorpt_correction_T_min  0.732
_exptl_absorpt_correction_T_max  0.962
_exptl_absorpt_process_details   ?

_exptl_special_details           
;
?
;

_diffrn_ambient_temperature      213(2)
_diffrn_radiation_wavelength     0.71073
_diffrn_radiation_type           MoK\a
_diffrn_radiation_source         'normal-focus sealed tube'
_diffrn_radiation_monochromator  graphite
_diffrn_measurement_device_type  'Bruker SMART area detector'
_diffrn_measurement_method       'Ellipsoid-mask fitting'
_diffrn_detector_area_resol_mean ?
_diffrn_standards_number         'none (area detector data)'
_diffrn_standards_interval_count ?
_diffrn_standards_interval_time  ?
_diffrn_standards_decay_%        ?
_diffrn_reflns_number            33132
_diffrn_reflns_av_R_equivalents  0.1118
_diffrn_reflns_av_sigmaI/netI    0.1376
_diffrn_reflns_limit_h_min       -14
_diffrn_reflns_limit_h_max       14
_diffrn_reflns_limit_k_min       -33
_diffrn_reflns_limit_k_max       33
_diffrn_reflns_limit_l_min       -22
_diffrn_reflns_limit_l_max       15
_diffrn_reflns_theta_min         1.44
_diffrn_reflns_theta_max         25.02
_reflns_number_total             11247
_reflns_number_gt                5745
_reflns_threshold_expression     >2sigma(I)

_computing_data_collection       SMART
_computing_cell_refinement       SAINT
_computing_data_reduction        SAINT
_computing_structure_solution    'SHELXS-97 (Sheldrick, 1990)'
_computing_structure_refinement  'SHELXL-97 (Sheldrick, 1997)'
_computing_molecular_graphics    'XP (Siemens, 1990)'
_computing_publication_material  'SHELXL-97 (Sheldrick, 1997)'

_refine_special_details          
;
Refinement of F^2^ against ALL reflections.  The weighted R-factor wR and
goodness of fit S are based on F^2^, conventional R-factors R are based
on F, with F set to zero for negative F^2^. The threshold expression of
F^2^ > 2sigma(F^2^) is used only for calculating R-factors(gt) etc. and is
not relevant to the choice of reflections for refinement.  R-factors based
on F^2^ are statistically about twice as large as those based on F, and R-
factors based on ALL data will be even larger.
;

_refine_ls_structure_factor_coef Fsqd
_refine_ls_matrix_type           full
_refine_ls_weighting_scheme      calc
_refine_ls_weighting_details     
'calc w=1/[\s^2^(Fo^2^)+(0.1048P)^2^+46.7489P] where P=(Fo^2^+2Fc^2^)/3'
_atom_sites_solution_primary     direct
_atom_sites_solution_secondary   difmap
_atom_sites_solution_hydrogens   geom
_refine_ls_hydrogen_treatment    mixed
_refine_ls_extinction_method     none
_refine_ls_extinction_coef       ?
_refine_ls_number_reflns         11247
_refine_ls_number_parameters     744
_refine_ls_number_restraints     2
_refine_ls_R_factor_all          0.1807
_refine_ls_R_factor_gt           0.0948
_refine_ls_wR_factor_ref         0.2571
_refine_ls_wR_factor_gt          0.2168
_refine_ls_goodness_of_fit_ref   1.032
_refine_ls_restrained_S_all      1.031
_refine_ls_shift/su_max          0.017
_refine_ls_shift/su_mean         0.001

loop_
_atom_site_label
_atom_site_type_symbol
_atom_site_fract_x
_atom_site_fract_y
_atom_site_fract_z
_atom_site_U_iso_or_equiv
_atom_site_adp_type
_atom_site_occupancy
_atom_site_symmetry_multiplicity
_atom_site_calc_flag
_atom_site_refinement_flags
_atom_site_disorder_assembly
_atom_site_disorder_group
Rh1 Rh 0.98969(8) 0.36406(3) 0.20573(4) 0.0240(3) Uani 1 1 d . . .
Rh2 Rh 0.93553(8) 0.36136(3) 0.07758(4) 0.0246(3) Uani 1 1 d . . .
N1 N 0.8847(8) 0.4199(3) 0.2109(5) 0.031(2) Uani 1 1 d . . .
N2 N 0.8140(8) 0.4091(3) 0.0928(5) 0.029(2) Uani 1 1 d . . .
N3 N 1.1218(8) 0.4065(3) 0.1879(5) 0.028(2) Uani 1 1 d . . .
N4 N 1.0527(8) 0.4128(3) 0.0669(5) 0.027(2) Uani 1 1 d . . .
N5 N 1.0194(8) 0.3619(4) 0.3231(5) 0.027(2) Uani 1 1 d . . .
N6 N 0.8981(9) 0.3523(3) -0.0409(5) 0.030(2) Uani 1 1 d . . .
O1 O 0.8457(9) 0.5152(4) 0.4683(5) 0.061(3) Uani 1 1 d . . .
O2 O 0.5001(9) 0.4661(4) -0.1341(6) 0.070(3) Uani 1 1 d . . .
O3 O 1.4682(9) 0.4474(5) 0.4045(6) 0.089(4) Uani 1 1 d . . .
O4 O 1.1571(9) 0.4485(3) -0.2104(5) 0.051(3) Uani 1 1 d . . .
O103 O 0.8601(7) 0.3152(3) 0.2163(4) 0.0280(18) Uani 1 1 d . . .
O104 O 0.8269(7) 0.3060(3) 0.0956(4) 0.0303(19) Uani 1 1 d . . .
O201 O 1.0943(7) 0.3062(3) 0.1908(4) 0.0290(19) Uani 1 1 d . . .
O202 O 1.0628(7) 0.3118(3) 0.0719(4) 0.0275(18) Uani 1 1 d . . .
C1 C 0.8119(10) 0.4310(4) 0.1547(6) 0.026(3) Uani 1 1 d . . .
H1A H 0.7579 0.4550 0.1591 0.031 Uiso 1 1 calc R . .
C2 C 1.1291(10) 0.4216(4) 0.1216(7) 0.032(3) Uani 1 1 d . . .
H2A H 1.1930 0.4398 0.1129 0.039 Uiso 1 1 calc R . .
C3 C 1.1086(9) 0.2928(4) 0.1291(6) 0.026(3) Uani 1 1 d . . .
C4 C 1.1838(13) 0.2500 0.1227(9) 0.030(4) Uani 1 2 d S . .
H4A H 1.2467 0.2500 0.1608 0.036 Uiso 1 2 calc SR . .
H4B H 1.2156 0.2500 0.0765 0.036 Uiso 1 2 calc SR . .
C5 C 0.7460(15) 0.2500 0.1711(10) 0.034(4) Uani 1 2 d S . .
H5A H 0.6788 0.2500 0.1360 0.041 Uiso 1 2 calc SR . .
H5B H 0.7197 0.2500 0.2189 0.041 Uiso 1 2 calc SR . .
C6 C 0.8166(10) 0.2948(4) 0.1615(7) 0.029(3) Uani 1 1 d . . .
C11 C 0.8679(10) 0.4438(4) 0.2764(6) 0.027(3) Uani 1 1 d . . .
C12 C 0.9602(12) 0.4679(4) 0.3117(7) 0.039(3) Uani 1 1 d . . .
H12A H 1.0302 0.4682 0.2918 0.047 Uiso 1 1 calc R . .
C13 C 0.9508(12) 0.4914(5) 0.3758(7) 0.044(3) Uani 1 1 d . . .
H13A H 1.0135 0.5074 0.3993 0.053 Uiso 1 1 calc R . .
C14 C 0.8449(11) 0.4906(5) 0.4048(6) 0.035(3) Uani 1 1 d . . .
C15 C 0.7558(11) 0.4677(4) 0.3703(7) 0.040(3) Uani 1 1 d . . .
H15A H 0.6853 0.4672 0.3895 0.048 Uiso 1 1 calc R . .
C16 C 0.7685(10) 0.4445(4) 0.3057(7) 0.032(3) Uani 1 1 d . . .
H16A H 0.7054 0.4289 0.2821 0.039 Uiso 1 1 calc R . .
C17 C 0.7455(16) 0.5103(6) 0.5052(9) 0.084(6) Uani 1 1 d . . .
H17A H 0.7542 0.5288 0.5488 0.126 Uiso 1 1 calc R . .
H17B H 0.7350 0.4773 0.5168 0.126 Uiso 1 1 calc R . .
H17C H 0.6798 0.5215 0.4749 0.126 Uiso 1 1 calc R . .
C21 C 0.7332(9) 0.4262(4) 0.0349(6) 0.028(3) Uani 1 1 d . . .
C22 C 0.6626(11) 0.3924(5) -0.0032(7) 0.042(3) Uani 1 1 d . . .
H22A H 0.6688 0.3602 0.0091 0.051 Uiso 1 1 calc R . .
C23 C 0.5847(13) 0.4069(6) -0.0585(8) 0.057(4) Uani 1 1 d . . .
H23A H 0.5371 0.3848 -0.0839 0.069 Uiso 1 1 calc R . .
C24 C 0.5777(10) 0.4557(5) -0.0764(7) 0.039(3) Uani 1 1 d . . .
C25 C 0.6444(10) 0.4870(5) -0.0379(7) 0.040(3) Uani 1 1 d . . .
H25A H 0.6375 0.5193 -0.0489 0.048 Uiso 1 1 calc R . .
C26 C 0.7228(10) 0.4726(4) 0.0176(6) 0.033(3) Uani 1 1 d . . .
H26A H 0.7690 0.4951 0.0433 0.040 Uiso 1 1 calc R . .
C27 C 0.4870(13) 0.5150(7) -0.1522(9) 0.069(5) Uani 1 1 d . . .
H27A H 0.4311 0.5183 -0.1933 0.103 Uiso 1 1 calc R . .
H27B H 0.5594 0.5276 -0.1635 0.103 Uiso 1 1 calc R . .
H27C H 0.4616 0.5321 -0.1121 0.103 Uiso 1 1 calc R . .
C31 C 1.2110(10) 0.4170(4) 0.2417(7) 0.032(3) Uani 1 1 d . . .
C32 C 1.2599(12) 0.3812(5) 0.2852(8) 0.052(4) Uani 1 1 d . . .
H32A H 1.2356 0.3499 0.2771 0.062 Uiso 1 1 calc R . .
C33 C 1.3423(12) 0.3905(6) 0.3393(8) 0.057(4) Uani 1 1 d . . .
H33A H 1.3698 0.3658 0.3695 0.069 Uiso 1 1 calc R . .
C34 C 1.3854(12) 0.4345(6) 0.3507(8) 0.052(4) Uani 1 1 d . . .
C35 C 1.3434(12) 0.4707(6) 0.3086(8) 0.054(4) Uani 1 1 d . . .
H35A H 1.3725 0.5014 0.3163 0.065 Uiso 1 1 calc R . .
C36 C 1.2550(11) 0.4620(5) 0.2528(7) 0.046(3) Uani 1 1 d . . .
H36A H 1.2264 0.4870 0.2235 0.055 Uiso 1 1 calc R . .
C37 C 1.5096(19) 0.4096(10) 0.4565(11) 0.124(9) Uani 1 1 d . . .
H37A H 1.5672 0.4226 0.4915 0.187 Uiso 1 1 calc R . .
H37B H 1.5421 0.3839 0.4311 0.187 Uiso 1 1 calc R . .
H37C H 1.4463 0.3978 0.4805 0.187 Uiso 1 1 calc R . .
C41 C 1.0867(10) 0.4229(4) -0.0026(6) 0.027(3) Uani 1 1 d . . .
C42 C 1.0152(10) 0.4523(4) -0.0487(6) 0.031(3) Uani 1 1 d . . .
H42A H 0.9498 0.4663 -0.0332 0.037 Uiso 1 1 calc R . .
C43 C 1.0450(11) 0.4598(4) -0.1179(6) 0.034(3) Uani 1 1 d . . .
H43A H 0.9994 0.4796 -0.1491 0.041 Uiso 1 1 calc R . .
C44 C 1.1403(12) 0.4388(4) -0.1412(6) 0.038(3) Uani 1 1 d . . .
C45 C 1.2088(11) 0.4097(4) -0.0957(6) 0.036(3) Uani 1 1 d . . .
H45A H 1.2730 0.3947 -0.1113 0.043 Uiso 1 1 calc R . .
C46 C 1.1799(10) 0.4031(5) -0.0258(6) 0.037(3) Uani 1 1 d . . .
H46A H 1.2272 0.3843 0.0058 0.045 Uiso 1 1 calc R . .
C47 C 1.2575(13) 0.4289(6) -0.2353(7) 0.060(4) Uani 1 1 d . . .
H47A H 1.2614 0.4378 -0.2847 0.091 Uiso 1 1 calc R . .
H47B H 1.2551 0.3947 -0.2315 0.091 Uiso 1 1 calc R . .
H47C H 1.3241 0.4407 -0.2065 0.091 Uiso 1 1 calc R . .
C51 C 1.0057(10) 0.3639(4) 0.3807(7) 0.029(3) Uiso 1 1 d . . .
C52 C 0.9923(11) 0.3684(4) 0.4560(6) 0.032(3) Uani 1 1 d . . .
C53 C 1.0882(13) 0.3751(4) 0.5047(7) 0.044(4) Uani 1 1 d . . .
C54 C 1.0736(13) 0.3757(5) 0.5777(7) 0.044(3) Uani 1 1 d . . .
C55 C 0.9664(12) 0.3713(4) 0.6044(6) 0.039(3) Uani 1 1 d . . .
C56 C 0.8752(12) 0.3674(5) 0.5522(7) 0.043(3) Uani 1 1 d . . .
C57 C 0.8857(11) 0.3645(5) 0.4804(7) 0.039(3) Uani 1 1 d . . .
C58 C 0.9535(10) 0.3688(4) 0.6809(7) 0.035(3) Uiso 1 1 d . . .
C59 C 1.0125(13) 0.3357(5) 0.7241(7) 0.045(4) Uani 1 1 d . . .
C60 C 0.9968(14) 0.3310(5) 0.7960(7) 0.053(4) Uani 1 1 d . . .
C61 C 0.9191(11) 0.3582(4) 0.8253(6) 0.035(3) Uani 1 1 d . . .
C62 C 0.8613(11) 0.3927(4) 0.7840(6) 0.034(3) Uani 1 1 d . . .
C63 C 0.8776(12) 0.3979(4) 0.7119(7) 0.043(3) Uani 1 1 d . . .
C64 C 0.9042(11) 0.3551(4) -0.0999(6) 0.031(3) Uani 1 1 d . . .
F1 F 1.1905(7) 0.3767(3) 0.4840(4) 0.058(2) Uani 1 1 d . . .
F2 F 1.1677(7) 0.3811(3) 0.6237(4) 0.061(2) Uani 1 1 d . . .
F3 F 0.7692(7) 0.3623(3) 0.5736(4) 0.055(2) Uani 1 1 d . . .
F4 F 0.7949(6) 0.3587(3) 0.4346(4) 0.054(2) Uani 1 1 d . . .
F5 F 1.0838(9) 0.3058(3) 0.6961(4) 0.073(3) Uani 1 1 d . . .
F6 F 1.0557(9) 0.2994(3) 0.8344(4) 0.072(3) Uani 1 1 d . . .
F7 F 0.7868(7) 0.4218(3) 0.8117(4) 0.056(2) Uani 1 1 d . . .
F8 F 0.8222(7) 0.4325(3) 0.6744(4) 0.057(2) Uani 1 1 d . . .
C1S C 0.752(2) 0.2500 -0.0387(15) 0.075(7) Uiso 1 2 d S . .
Cl1 Cl 0.7657(8) 0.2500 -0.1360(3) 0.093(2) Uani 1 2 d S . .
Cl2 Cl 0.6046(7) 0.2500 -0.0272(5) 0.127(3) Uani 1 2 d S . .
C2S C 1.707(3) 0.2500 0.604(2) 0.112(11) Uiso 1 2 d S . .
Cl3 Cl 1.8004(12) 0.2500 0.6814(8) 0.189(5) Uiso 1 2 d S A .
Cl4 Cl 1.849(3) 0.2500 0.5524(16) 0.220(12) Uiso 0.60 2 d SP A 1
Cl4' Cl 1.771(2) 0.2500 0.5215(14) 0.111(7) Uiso 0.40 2 d SP A 2
C3S C 1.474(4) 0.3197(15) 0.194(2) 0.158(15) Uiso 0.75 1 d P . .
Cl5 Cl 1.5708(12) 0.3570(5) 0.1955(9) 0.126(5) Uiso 0.50 1 d P B 1
Cl6 Cl 1.4109(17) 0.3434(8) 0.1122(12) 0.185(8) Uiso 0.50 1 d P B 1
Cl5' Cl 1.567(3) 0.3365(12) 0.2403(19) 0.137(10) Uiso 0.25 1 d P B 2
Cl6' Cl 1.427(2) 0.3175(10) 0.0823(15) 0.105(7) Uiso 0.25 1 d P B 2
C4S C 0.523(4) 0.3732(18) 0.729(3) 0.116(16) Uiso 0.50 1 d P . .
Cl7 Cl 0.6048(14) 0.3361(6) 0.7373(9) 0.159(6) Uiso 0.50 1 d P . .
Cl8 Cl 0.4997(16) 0.4043(7) 0.6537(11) 0.183(7) Uiso 0.50 1 d P . .
C5S C 1.117(8) 0.2500 0.331(5) 0.17(3) Uiso 0.60 2 d SP C 1
Cl9 Cl 1.2938(14) 0.2500 0.3272(10) 0.128(5) Uiso 0.60 2 d SP C 1
Cl10 Cl 1.1293(17) 0.2500 0.4277(11) 0.137(6) Uiso 0.60 2 d SP C 1
C6S C 1.028(4) 0.2500 0.325(4) 0.18(3) Uiso 0.70 2 d SPD D 2
Cl11 Cl 1.185(2) 0.2500 0.3591(13) 0.106(6) Uiso 0.44 2 d SP D 2
Cl12 Cl 0.871(3) 0.2500 0.341(2) 0.098(12) Uiso 0.20 2 d SPD D 2
Cl13 Cl 0.9357(19) 0.2500 0.3966(12) 0.101(6) Uiso 0.44 2 d SP D 2
Cl14 Cl 1.021(3) 0.2500 0.4165(17) 0.113(9) Uiso 0.32 2 d SP D 2
C7S C 1.58(3) 0.2500 0.42(2) 0.27(16) Uiso 0.20 2 d SP . .
Cl15 Cl 1.594(3) 0.2806(15) 0.346(2) 0.156(14) Uiso 0.20 1 d P . .
C8S C 1.310(7) 0.2500 0.602(5) 0.07(2) Uiso 0.30 2 d SP . .
Cl16 Cl 1.194(5) 0.2500 0.567(4) 0.17(2) Uiso 0.20 2 d SP . .
Cl17 Cl 1.376(5) 0.281(2) 0.573(3) 0.24(3) Uiso 0.20 1 d P . .
C9S C 0.338(12) 0.2500 -0.162(3) 0.28(7) Uiso 0.50 2 d SPD . .
Cl18 Cl 0.353(2) 0.2990(8) -0.1569(14) 0.106(7) Uiso 0.25 1 d P . .
Cl19 Cl 0.312(3) 0.2822(12) -0.0762(19) 0.158(12) Uiso 0.25 1 d PD . .

loop_
_atom_site_aniso_label
_atom_site_aniso_U_11
_atom_site_aniso_U_22
_atom_site_aniso_U_33
_atom_site_aniso_U_23
_atom_site_aniso_U_13
_atom_site_aniso_U_12
Rh1 0.0380(5) 0.0253(5) 0.0091(5) -0.0008(4) 0.0049(4) 0.0040(4)
Rh2 0.0424(6) 0.0226(5) 0.0096(5) -0.0008(4) 0.0069(4) 0.0018(4)
N1 0.041(6) 0.030(5) 0.022(6) -0.008(4) 0.005(5) 0.009(5)
N2 0.037(6) 0.032(5) 0.018(5) -0.003(4) 0.004(4) 0.003(4)
N3 0.033(5) 0.029(5) 0.020(5) -0.004(4) 0.000(4) 0.000(4)
N4 0.039(6) 0.026(5) 0.019(5) -0.001(4) 0.010(5) 0.003(4)
N5 0.032(5) 0.040(6) 0.010(5) -0.001(5) 0.001(4) -0.001(5)
N6 0.051(6) 0.021(5) 0.019(6) -0.002(4) 0.005(5) 0.002(4)
O1 0.086(8) 0.064(7) 0.037(6) -0.030(5) 0.023(6) -0.008(6)
O2 0.062(7) 0.104(9) 0.039(7) 0.013(6) -0.011(6) 0.026(6)
O3 0.057(7) 0.154(13) 0.052(8) -0.017(8) -0.016(6) -0.021(8)
O4 0.086(7) 0.050(6) 0.019(5) 0.002(4) 0.016(5) 0.001(5)
O103 0.039(5) 0.029(4) 0.017(4) -0.003(4) 0.009(4) -0.001(4)
O104 0.044(5) 0.033(4) 0.015(4) -0.001(4) 0.012(4) 0.000(4)
O201 0.041(5) 0.035(5) 0.012(4) 0.000(3) 0.008(4) 0.009(4)
O202 0.043(5) 0.025(4) 0.017(4) 0.000(3) 0.010(4) 0.007(4)
C1 0.036(7) 0.023(6) 0.019(6) 0.005(5) 0.008(5) 0.005(5)
C2 0.032(7) 0.036(7) 0.030(8) 0.003(6) 0.007(6) 0.009(6)
C3 0.029(6) 0.031(6) 0.020(7) 0.000(5) 0.013(5) 0.000(5)
C4 0.023(8) 0.043(10) 0.025(10) 0.000 0.015(7) 0.000
C5 0.042(10) 0.034(9) 0.028(10) 0.000 0.017(8) 0.000
C6 0.032(7) 0.024(6) 0.032(8) 0.003(5) 0.010(6) 0.005(5)
C11 0.043(7) 0.027(6) 0.010(6) -0.002(5) 0.002(5) 0.012(5)
C12 0.051(8) 0.040(7) 0.027(7) 0.000(6) 0.008(6) 0.003(6)
C13 0.060(9) 0.042(7) 0.030(8) -0.016(6) 0.002(7) -0.009(7)
C14 0.044(8) 0.051(8) 0.011(6) -0.002(6) 0.007(6) 0.005(6)
C15 0.047(8) 0.046(8) 0.029(8) -0.008(6) 0.019(6) 0.004(6)
C16 0.037(7) 0.028(6) 0.033(7) -0.010(5) 0.004(6) -0.008(5)
C17 0.121(16) 0.081(12) 0.060(12) -0.038(10) 0.058(12) -0.007(11)
C21 0.029(6) 0.044(7) 0.010(6) 0.005(5) -0.005(5) -0.006(5)
C22 0.051(8) 0.038(7) 0.038(8) 0.005(6) 0.004(7) -0.008(6)
C23 0.059(10) 0.064(10) 0.046(10) -0.012(8) -0.008(8) -0.004(8)
C24 0.028(7) 0.060(9) 0.027(7) 0.005(6) -0.009(6) -0.002(6)
C25 0.028(7) 0.055(8) 0.038(8) 0.008(7) 0.005(6) 0.003(6)
C26 0.037(7) 0.045(8) 0.018(7) 0.005(5) -0.002(6) -0.001(6)
C27 0.052(9) 0.110(15) 0.045(10) 0.025(10) 0.010(8) 0.017(10)
C31 0.033(7) 0.040(7) 0.026(7) -0.011(6) 0.010(6) -0.001(6)
C32 0.059(9) 0.061(9) 0.035(9) -0.003(7) 0.002(7) 0.009(7)
C33 0.037(8) 0.093(13) 0.043(10) 0.005(9) 0.007(7) 0.003(8)
C34 0.043(8) 0.086(12) 0.030(8) -0.007(8) 0.011(7) -0.013(8)
C35 0.053(9) 0.070(10) 0.042(10) -0.030(8) 0.021(8) -0.022(8)
C36 0.042(8) 0.059(9) 0.036(8) -0.007(7) 0.005(7) 0.006(7)
C37 0.123(19) 0.20(3) 0.046(13) 0.018(15) -0.032(13) -0.023(18)
C41 0.045(7) 0.025(6) 0.014(6) 0.001(5) 0.016(5) -0.009(5)
C42 0.043(7) 0.024(6) 0.027(7) -0.002(5) 0.011(6) 0.005(5)
C43 0.0