####################################################################### 
# 
# This file contains crystal structure data downloaded from the 
# Cambridge Structural Database (CSD) hosted by the Cambridge 
# Crystallographic Data Centre (CCDC).
# 
# Full information about CCDC data access policies and citation 
# guidelines are available at http://www.ccdc.cam.ac.uk/access/V1 
# 
# Audit and citation data items may have been added by the CCDC. 
# Please retain this information to preserve the provenance of 
# this file and to allow appropriate attribution of the data. 
# 
#######################################################################

data_2
_audit_block_doi                 10.5517/ccnxl7c
_database_code_depnum_ccdc_archive 'CCDC 623293'
loop_
_citation_id
_citation_doi
_citation_year
1 10.1016/j.ica.2006.11.020 2007
_audit_update_record             
;
2006-10-07 deposited with the CCDC.	2024-07-10 downloaded from the CCDC.
;

_audit_creation_method           SHELXL-97
_chemical_name_systematic        
;
?
;
_chemical_name_common            ?
_chemical_melting_point          ?
_chemical_formula_moiety         ?
_chemical_formula_sum            'C14 H16 N6 Ni O6 S2'
_chemical_formula_weight         487.16

loop_
_atom_type_symbol
_atom_type_description
_atom_type_scat_dispersion_real
_atom_type_scat_dispersion_imag
_atom_type_scat_source
C C 0.0033 0.0016 'International Tables Vol C Tables 4.2.6.8 and 6.1.1.4'
H H 0.0000 0.0000 'International Tables Vol C Tables 4.2.6.8 and 6.1.1.4'
N N 0.0061 0.0033 'International Tables Vol C Tables 4.2.6.8 and 6.1.1.4'
O O 0.0106 0.0060 'International Tables Vol C Tables 4.2.6.8 and 6.1.1.4'
S S 0.1246 0.1234 'International Tables Vol C Tables 4.2.6.8 and 6.1.1.4'
Ni Ni 0.3393 1.1124 'International Tables Vol C Tables 4.2.6.8 and 6.1.1.4'

_symmetry_cell_setting           Monoclinic
_symmetry_space_group_name_H-M   P2(1)/c

loop_
_symmetry_equiv_pos_as_xyz
'x, y, z'
'-x, y+1/2, -z+1/2'
'-x, -y, -z'
'x, -y-1/2, z-1/2'

_cell_length_a                   8.990(4)
_cell_length_b                   12.507(6)
_cell_length_c                   12.752(4)
_cell_angle_alpha                90.00
_cell_angle_beta                 120.65(2)
_cell_angle_gamma                90.00
_cell_volume                     1233.5(9)
_cell_formula_units_Z            2
_cell_measurement_temperature    293(2)
_cell_measurement_reflns_used    875
_cell_measurement_theta_min      2.47
_cell_measurement_theta_max      19.50

_exptl_crystal_description       Block
_exptl_crystal_colour            Pale-Green
_exptl_crystal_size_max          0.21
_exptl_crystal_size_mid          0.18
_exptl_crystal_size_min          0.16
_exptl_crystal_density_meas      NONE
_exptl_crystal_density_diffrn    1.312
_exptl_crystal_density_method    'not measured'
_exptl_crystal_F_000             500
_exptl_absorpt_coefficient_mu    0.992
_exptl_absorpt_correction_type   MULTI-SCAN
_exptl_absorpt_correction_T_min  0.779368
_exptl_absorpt_correction_T_max  1.000000
_exptl_absorpt_process_details   SADABS

_exptl_special_details           
;
?
;

_diffrn_ambient_temperature      293(2)
_diffrn_radiation_wavelength     0.71073
_diffrn_radiation_type           MoK\a
_diffrn_radiation_source         'fine-focus sealed tube'
_diffrn_radiation_monochromator  graphite
_diffrn_measurement_device_type  'CCD area detector'
_diffrn_measurement_method       'phi and omega scans'
_diffrn_detector_area_resol_mean ?
_diffrn_standards_number         ?
_diffrn_standards_interval_count ?
_diffrn_standards_interval_time  ?
_diffrn_standards_decay_%        ?
_diffrn_reflns_number            6277
_diffrn_reflns_av_R_equivalents  0.0816
_diffrn_reflns_av_sigmaI/netI    0.1061
_diffrn_reflns_limit_h_min       -9
_diffrn_reflns_limit_h_max       10
_diffrn_reflns_limit_k_min       -14
_diffrn_reflns_limit_k_max       13
_diffrn_reflns_limit_l_min       -14
_diffrn_reflns_limit_l_max       13
_diffrn_reflns_theta_min         2.47
_diffrn_reflns_theta_max         25.03
_reflns_number_total             2076
_reflns_number_gt                1044
_reflns_threshold_expression     >2sigma(I)

_computing_data_collection       'Bruker Apex II'
_computing_cell_refinement       'Bruker Apex II'
_computing_data_reduction        'Bruker SAINT'
_computing_structure_solution    'SHELXS-97 (Sheldrick, 1990)'
_computing_structure_refinement  'SHELXL-97 (Sheldrick, 1997)'
_computing_molecular_graphics    'Bruker SHELXTL'
_computing_publication_material  'Bruker SHELXTL'

_refine_special_details          
;
Refinement of F^2^ against ALL reflections. The weighted R-factor wR and
goodness of fit S are based on F^2^, conventional R-factors R are based
on F, with F set to zero for negative F^2^. The threshold expression of
F^2^ > 2sigma(F^2^) is used only for calculating R-factors(gt) etc. and is
not relevant to the choice of reflections for refinement. R-factors based
on F^2^ are statistically about twice as large as those based on F, and R-
factors based on ALL data will be even larger.
;

_refine_ls_structure_factor_coef Fsqd
_refine_ls_matrix_type           full
_refine_ls_weighting_scheme      calc
_refine_ls_weighting_details     
'calc w=1/[\s^2^(Fo^2^)+(0.1365P)^2^+0.0000P] where P=(Fo^2^+2Fc^2^)/3'
_atom_sites_solution_primary     direct
_atom_sites_solution_secondary   difmap
_atom_sites_solution_hydrogens   geom
_refine_ls_hydrogen_treatment    Constr
_refine_ls_extinction_method     none
_refine_ls_extinction_coef       ?
_refine_ls_number_reflns         2076
_refine_ls_number_parameters     137
_refine_ls_number_restraints     0
_refine_ls_R_factor_all          0.1342
_refine_ls_R_factor_gt           0.0671
_refine_ls_wR_factor_ref         0.1092
_refine_ls_wR_factor_gt          0.1540
_refine_ls_goodness_of_fit_ref   1.093
_refine_ls_restrained_S_all      1.093
_refine_ls_shift/su_max          0.001
_refine_ls_shift/su_mean         0.000

loop_
_atom_site_label
_atom_site_type_symbol
_atom_site_fract_x
_atom_site_fract_y
_atom_site_fract_z
_atom_site_U_iso_or_equiv
_atom_site_adp_type
_atom_site_occupancy
_atom_site_symmetry_multiplicity
_atom_site_calc_flag
_atom_site_refinement_flags
_atom_site_disorder_assembly
_atom_site_disorder_group
Ni1 Ni 0.5000 0.0000 0.0000 0.0313(7) Uani 1 2 d S . .
S1 S 0.7405(4) 0.0282(3) -0.1868(3) 0.0490(10) Uani 1 1 d . . .
O1 O 0.9306(9) 0.1558(6) 0.0039(7) 0.037(2) Uani 1 1 d . . .
O2 O 0.4845(10) -0.0995(6) -0.1358(7) 0.046(2) Uani 1 1 d . . .
H2B H 0.5539 -0.0912 -0.1618 0.055 Uiso 1 1 d R . .
H2C H 0.4084 -0.1485 -0.1654 0.055 Uiso 1 1 d R . .
N1 N 1.3184(11) 0.3924(7) 0.3691(8) 0.035(2) Uani 1 1 d . . .
N2 N 0.8024(12) 0.1468(7) 0.1134(9) 0.039(3) Uani 1 1 d . . .
N3 N 0.7107(10) 0.0847(7) 0.0087(8) 0.034(2) Uani 1 1 d . . .
C1 C 1.0690(14) 0.2553(9) 0.1972(11) 0.039(3) Uani 1 1 d . . .
C2 C 1.2110(15) 0.2848(10) 0.1892(12) 0.047(3) Uani 1 1 d . . .
H2A H 1.2249 0.2599 0.1261 0.057 Uiso 1 1 calc R . .
C3 C 1.3326(15) 0.3525(10) 0.2778(11) 0.046(3) Uani 1 1 d . . .
H3 H 1.4292 0.3710 0.2731 0.055 Uiso 1 1 calc R . .
C4 C 1.1817(15) 0.3614(9) 0.3779(11) 0.041(3) Uani 1 1 d . . .
H4 H 1.1730 0.3861 0.4434 0.049 Uiso 1 1 calc R . .
C5 C 1.0551(14) 0.2952(9) 0.2950(10) 0.039(3) Uani 1 1 d . . .
H5 H 0.9612 0.2769 0.3031 0.047 Uiso 1 1 calc R . .
C6 C 0.9280(14) 0.1865(9) 0.1042(11) 0.035(3) Uani 1 1 d . . .
C7 C 0.7891(13) 0.0892(9) -0.0556(10) 0.032(3) Uani 1 1 d . . .
O3 O 0.138(5) 0.918(2) 0.609(2) 0.22(2) Uani 0.50 1 d P . .
O4 O 0.534(7) 0.680(4) 0.959(5) 0.27(2) Uiso 0.50 1 d P . .

loop_
_atom_site_aniso_label
_atom_site_aniso_U_11
_atom_site_aniso_U_22
_atom_site_aniso_U_33
_atom_site_aniso_U_23
_atom_site_aniso_U_13
_atom_site_aniso_U_12
Ni1 0.0191(10) 0.0367(12) 0.0349(12) -0.0017(11) 0.0114(9) -0.0013(10)
S1 0.0388(19) 0.068(3) 0.045(2) -0.0119(16) 0.0246(16) -0.0142(15)
O1 0.025(4) 0.049(5) 0.037(5) -0.005(4) 0.015(4) -0.009(4)
O2 0.045(5) 0.048(5) 0.063(6) -0.009(4) 0.041(5) -0.010(4)
N1 0.034(6) 0.034(6) 0.045(6) -0.008(5) 0.025(5) -0.008(4)
N2 0.030(6) 0.041(6) 0.050(6) -0.015(5) 0.023(5) -0.015(4)
N3 0.018(5) 0.038(6) 0.036(6) -0.007(4) 0.007(4) -0.002(4)
C1 0.023(6) 0.034(7) 0.052(8) -0.012(6) 0.014(6) -0.010(5)
C2 0.035(7) 0.066(9) 0.051(8) -0.029(7) 0.028(7) -0.017(6)
C3 0.037(7) 0.058(9) 0.052(8) -0.022(7) 0.029(7) -0.020(6)
C4 0.035(7) 0.044(8) 0.045(7) -0.014(6) 0.021(6) -0.004(6)
C5 0.031(7) 0.050(8) 0.044(8) -0.011(6) 0.025(6) -0.010(6)
C6 0.029(7) 0.035(7) 0.044(8) -0.008(6) 0.020(6) -0.006(5)
C7 0.019(6) 0.040(7) 0.032(6) 0.004(5) 0.008(5) -0.002(5)
O3 0.36(5) 0.18(3) 0.051(14) -0.042(17) 0.07(2) -0.22(3)

_geom_special_details            
;
All esds (except the esd in the dihedral angle between two l.s. planes)
are estimated using the full covariance matrix. The cell esds are taken
into account individually in the estimation of esds in distances, angles
and torsion angles; correlations between esds in cell parameters are only
used when they are defined by crystal symmetry. An approximate (isotropic)
treatment of cell esds is used for estimating esds involving l.s. planes.
;

loop_
_geom_bond_atom_site_label_1
_geom_bond_atom_site_label_2
_geom_bond_distance
_geom_bond_site_symmetry_2
_geom_bond_publ_flag
Ni1 O2 2.079(8) . ?
Ni1 O2 2.079(8) 3_655 ?
Ni1 N1 2.118(9) 2_745 ?
Ni1 N1 2.118(9) 4_465 ?
Ni1 N3 2.123(9) . ?
Ni1 N3 2.123(9) 3_655 ?
S1 C7 1.681(12) . ?
O1 C6 1.347(13) . ?
O1 C7 1.380(12) . ?
O2 H2B 0.8501 . ?
O2 H2C 0.8500 . ?
N1 C3 1.331(14) . ?
N1 C4 1.347(14) . ?
N1 Ni1 2.118(9) 2_755 ?
N2 C6 1.293(14) . ?
N2 N3 1.394(12) . ?
N3 C7 1.327(13) . ?
C1 C2 1.381(16) . ?
C1 C5 1.406(16) . ?
C1 C6 1.490(15) . ?
C2 C3 1.389(16) . ?
C2 H2A 0.9300 . ?
C3 H3 0.9300 . ?
C4 C5 1.368(15) . ?
C4 H4 0.9300 . ?
C5 H5 0.9300 . ?

loop_
_geom_angle_atom_site_label_1
_geom_angle_atom_site_label_2
_geom_angle_atom_site_label_3
_geom_angle
_geom_angle_site_symmetry_1
_geom_angle_site_symmetry_3
_geom_angle_publ_flag
O2 Ni1 O2 180.0(4) . 3_655 ?
O2 Ni1 N1 88.5(3) . 2_745 ?
O2 Ni1 N1 91.5(3) 3_655 2_745 ?
O2 Ni1 N1 91.5(3) . 4_465 ?
O2 Ni1 N1 88.5(3) 3_655 4_465 ?
N1 Ni1 N1 180.0(4) 2_745 4_465 ?
O2 Ni1 N3 91.3(3) . . ?
O2 Ni1 N3 88.7(3) 3_655 . ?
N1 Ni1 N3 88.1(3) 2_745 . ?
N1 Ni1 N3 91.9(3) 4_465 . ?
O2 Ni1 N3 88.7(3) . 3_655 ?
O2 Ni1 N3 91.3(3) 3_655 3_655 ?
N1 Ni1 N3 91.9(3) 2_745 3_655 ?
N1 Ni1 N3 88.1(3) 4_465 3_655 ?
N3 Ni1 N3 180.0(6) . 3_655 ?
C6 O1 C7 103.7(8) . . ?
Ni1 O2 H2B 120.1 . . ?
Ni1 O2 H2C 119.9 . . ?
H2B O2 H2C 120.0 . . ?
C3 N1 C4 117.6(10) . . ?
C3 N1 Ni1 123.3(7) . 2_755 ?
C4 N1 Ni1 119.1(8) . 2_755 ?
C6 N2 N3 104.2(9) . . ?
C7 N3 N2 109.1(8) . . ?
C7 N3 Ni1 136.8(7) . . ?
N2 N3 Ni1 113.9(7) . . ?
C2 C1 C5 118.2(10) . . ?
C2 C1 C6 122.6(11) . . ?
C5 C1 C6 119.1(10) . . ?
C3 C2 C1 118.5(11) . . ?
C3 C2 H2A 120.8 . . ?
C1 C2 H2A 120.8 . . ?
N1 C3 C2 123.6(11) . . ?
N1 C3 H3 118.2 . . ?
C2 C3 H3 118.2 . . ?
N1 C4 C5 122.9(11) . . ?
N1 C4 H4 118.5 . . ?
C5 C4 H4 118.5 . . ?
C4 C5 C1 119.1(10) . . ?
C4 C5 H5 120.5 . . ?
C1 C5 H5 120.5 . . ?
N2 C6 O1 114.5(10) . . ?
N2 C6 C1 125.3(11) . . ?
O1 C6 C1 120.1(10) . . ?
N3 C7 O1 108.5(9) . . ?
N3 C7 S1 130.2(8) . . ?
O1 C7 S1 121.3(8) . . ?

loop_
_geom_torsion_atom_site_label_1
_geom_torsion_atom_site_label_2
_geom_torsion_atom_site_label_3
_geom_torsion_atom_site_label_4
_geom_torsion
_geom_torsion_site_symmetry_1
_geom_torsion_site_symmetry_2
_geom_torsion_site_symmetry_3
_geom_torsion_site_symmetry_4
_geom_torsion_publ_flag
C6 N2 N3 C7 1.4(12) . . . . ?
C6 N2 N3 Ni1 176.8(7) . . . . ?
O2 Ni1 N3 C7 9.9(11) . . . . ?
O2 Ni1 N3 C7 -170.1(11) 3_655 . . . ?
N1 Ni1 N3 C7 98.3(11) 2_745 . . . ?
N1 Ni1 N3 C7 -81.7(11) 4_465 . . . ?
O2 Ni1 N3 N2 -163.8(7) . . . . ?
O2 Ni1 N3 N2 16.2(7) 3_655 . . . ?
N1 Ni1 N3 N2 -75.4(7) 2_745 . . . ?
N1 Ni1 N3 N2 104.6(7) 4_465 . . . ?
C5 C1 C2 C3 -0.2(19) . . . . ?
C6 C1 C2 C3 177.5(11) . . . . ?
C4 N1 C3 C2 2.8(18) . . . . ?
Ni1 N1 C3 C2 -177.7(10) 2_755 . . . ?
C1 C2 C3 N1 -1(2) . . . . ?
C3 N1 C4 C5 -2.9(17) . . . . ?
Ni1 N1 C4 C5 177.6(9) 2_755 . . . ?
N1 C4 C5 C1 1.5(18) . . . . ?
C2 C1 C5 C4 0.1(18) . . . . ?
C6 C1 C5 C4 -177.7(11) . . . . ?
N3 N2 C6 O1 -0.9(13) . . . . ?
N3 N2 C6 C1 -177.0(10) . . . . ?
C7 O1 C6 N2 0.2(13) . . . . ?
C7 O1 C6 C1 176.4(10) . . . . ?
C2 C1 C6 N2 171.9(12) . . . . ?
C5 C1 C6 N2 -10.4(18) . . . . ?
C2 C1 C6 O1 -3.9(18) . . . . ?
C5 C1 C6 O1 173.8(10) . . . . ?
N2 N3 C7 O1 -1.3(12) . . . . ?
Ni1 N3 C7 O1 -175.3(7) . . . . ?
N2 N3 C7 S1 178.1(8) . . . . ?
Ni1 N3 C7 S1 4.2(17) . . . . ?
C6 O1 C7 N3 0.7(11) . . . . ?
C6 O1 C7 S1 -178.7(8) . . . . ?

_diffrn_measured_fraction_theta_max 0.998
_diffrn_reflns_theta_full        25.03
_diffrn_measured_fraction_theta_full 0.998
_refine_diff_density_max         0.754
_refine_diff_density_min         -0.663
_refine_diff_density_rms         0.213


