####################################################################### 
# 
# This file contains crystal structure data downloaded from the 
# Cambridge Structural Database (CSD) hosted by the Cambridge 
# Crystallographic Data Centre (CCDC).
# 
# Full information about CCDC data access policies and citation 
# guidelines are available at http://www.ccdc.cam.ac.uk/access/V1 
# 
# Audit and citation data items may have been added by the CCDC. 
# Please retain this information to preserve the provenance of 
# this file and to allow appropriate attribution of the data. 
# 
#######################################################################

data_EDIMOT
#This CIF has been generated from an entry in the Cambridge Structural Database
_database_code_depnum_ccdc_archive 'CCDC 1148739'
_database_code_CSD               EDIMOT
_audit_creation_method           'Created from the CSD'
_audit_update_record             
;
2024-07-10 downloaded from the CCDC.
;
_database_code_NBS               773274
_chemical_formula_moiety         '(C18 H6 Mn2 O12 4+)n,4n(Cl1 1-),8n(H2 O1)'
_chemical_name_systematic        
'catena-[tris(\m~2~-2,5-Dihydroxy-1,4-benzoquinonato)-di-manganese(v) tetrachloride octahydrate]'
_chemical_absolute_configuration unk
_diffrn_ambient_temperature      293
_exptl_crystal_density_diffrn    1.184
#These two values have been output from a single CSD field.
_refine_ls_R_factor_gt           0.041
_refine_ls_wR_factor_gt          0.041
_diffrn_radiation_probe          x-ray
_symmetry_cell_setting           trigonal
_symmetry_space_group_name_H-M   'P -3'
_symmetry_Int_Tables_number      147
_space_group_name_Hall           '-P 3'
loop_
_symmetry_equiv_pos_site_id
_symmetry_equiv_pos_as_xyz
1 x,y,z
2 -y,x-y,z
3 -x+y,-x,z
4 -x,-y,-z
5 y,-x+y,-z
6 x-y,x,-z
_cell_length_a                   14.15(2)
_cell_length_b                   14.15(2)
_cell_length_c                   6.552(4)
_cell_angle_alpha                90
_cell_angle_beta                 90
_cell_angle_gamma                120
_cell_volume                     1136.1
_exptl_crystal_colour            red
_exptl_crystal_description       prism
_cell_formula_units_Z            1
loop_
_atom_site_label
_atom_site_type_symbol
_atom_site_fract_x
_atom_site_fract_y
_atom_site_fract_z
Mn1 Mn 0.6667 0.3333 0.5002(2)
O1 O 0.5639(2) 0.3724(2) 0.6870(4)
O2 O 0.6278(2) 0.4363(2) 0.3139(4)
C1 C 0.5294(3) 0.4320(3) 0.6094(5)
C2 C 0.5682(3) 0.4704(3) 0.3912(5)
C3 C 0.4628(3) 0.4630(3) 0.7065(5)
H1 H 0.4405 0.4410 0.8385
C3C C 0.5372(3) 0.5370(3) 0.2935(5)
C1C C 0.4706(3) 0.5680(3) 0.3906(5)
O1C O 0.4361(2) 0.6276(2) 0.3130(4)
C2C C 0.4318(3) 0.5296(3) 0.6088(5)
O2C O 0.3722(2) 0.5637(2) 0.6861(4)
H1C H 0.5595 0.5590 0.1615
O1A O 0.6276(2) 0.1915(3) 0.6870(4)
O2A O 0.5637(2) 0.1915(3) 0.3139(4)
C1A C 0.5680(3) 0.0974(4) 0.6094(5)
C2A C 0.5296(3) 0.0978(4) 0.3912(5)
C3A C 0.5370(3) -0.0002(4) 0.7065(5)
H1A H 0.5590 -0.0005 0.8385
C3D C 0.4630(3) 0.0002(4) 0.2935(5)
C1D C 0.4320(3) -0.0974(4) 0.3906(5)
O1D O 0.3724(2) -0.1915(3) 0.3130(4)
C2D C 0.4704(3) -0.0978(4) 0.6088(5)
O2D O 0.4363(2) -0.1915(3) 0.6861(4)
H1D H 0.4410 0.0005 0.1615
O1B O 0.8085(3) 0.4361(2) 0.6870(4)
O2B O 0.8085(3) 0.3722(2) 0.3139(4)
C1B C 0.9026(4) 0.4706(3) 0.6094(5)
C2B C 0.9022(4) 0.4318(3) 0.3912(5)
C3B C 1.0002(4) 0.5372(3) 0.7065(5)
H1B H 1.0005 0.5595 0.8385
C3E C 0.9998(4) 0.4628(3) 0.2935(5)
C1E C 1.0974(4) 0.5294(3) 0.3906(5)
O1E O 1.1915(3) 0.5639(2) 0.3130(4)
C2E C 1.0978(4) 0.5682(3) 0.6088(5)
O2E O 1.1915(3) 0.6278(2) 0.6861(4)
H1E H 0.9995 0.4405 0.1615
Mn1C Mn 0.3333 0.6667 0.4998(2)
Mn1C Mn 0.3333 -0.3333 0.4998(2)
Mn1C Mn 1.3333 0.6667 0.4998(2)
O1D O 0.3724(2) 0.8085(3) 0.3130(4)
O1E O 0.1915(3) 0.5639(2) 0.3130(4)
O2D O 0.4363(2) 0.8085(3) 0.6861(4)
O2E O 0.1915(3) 0.6278(2) 0.6861(4)
Cl1 Cl 1.0000 0.0000 1.0000
Cl2 Cl 1.0000 0.0000 0.5000
O3 O 0.7949(3) 0.1136(3) 0.3167(5)
H2 H 0.7810 0.1540 0.2160
H3 H 0.7720 0.0370 0.3040
O4 O 0.8886(3) 0.2063(3) 0.6862(4)
H4 H 0.8640 0.1960 0.5750
H5 H 0.8470 0.2030 0.7990
O5 O 0.4586(2) 0.2289(2) 0.9998(4)
H6 H 0.5080 0.2890 0.9170
H7 H 0.5010 0.2190 1.0989
O6 O 1.1258(2) 0.1255(2) 0.7515(4)
H8 H 1.1300 0.1900 0.7646
H9 H 1.2020 0.1320 0.7130

#END
