####################################################################### 
# 
# This file contains crystal structure data downloaded from the 
# Cambridge Structural Database (CSD) hosted by the Cambridge 
# Crystallographic Data Centre (CCDC).
# 
# Full information about CCDC data access policies and citation 
# guidelines are available at http://www.ccdc.cam.ac.uk/access/V1 
# 
# Audit and citation data items may have been added by the CCDC. 
# Please retain this information to preserve the provenance of 
# this file and to allow appropriate attribution of the data. 
# 
#######################################################################

data_IRMOF-9
_audit_block_doi                 10.5517/cc5wpwl
_database_code_depnum_ccdc_archive 'CCDC 175580'
loop_
_citation_id
_citation_doi
_citation_year
1 10.1126/science.1067208 2002
_audit_update_record             
;
2001-12-04 deposited with the CCDC.	2024-07-10 downloaded from the CCDC.
;

_audit_creation_method           SHELXL-97
_chemical_name_systematic        
; 
? 
;
_chemical_name_common            ?
_chemical_melting_point          ?
_chemical_formula_moiety         ?
_chemical_formula_sum            'C55.50 H63.50 N4.50 O21.50 Zn4'
_chemical_formula_weight         1399.09

loop_
_atom_type_symbol
_atom_type_description
_atom_type_scat_dispersion_real
_atom_type_scat_dispersion_imag
_atom_type_scat_source
C C 0.0033 0.0016 'International Tables Vol C Tables 4.2.6.8 and 6.1.1.4'
H H 0.0000 0.0000 'International Tables Vol C Tables 4.2.6.8 and 6.1.1.4'
N N 0.0061 0.0033 'International Tables Vol C Tables 4.2.6.8 and 6.1.1.4'
O O 0.0106 0.0060 'International Tables Vol C Tables 4.2.6.8 and 6.1.1.4'
Zn Zn 0.2839 1.4301 'International Tables Vol C Tables 4.2.6.8 and 6.1.1.4'

_symmetry_cell_setting           orthorhombic
_symmetry_space_group_name_H-M   Pnnm #(No. 58) 

loop_
_symmetry_equiv_pos_as_xyz
'x, y, z'
'-x, -y, z'
'-x+1/2, y+1/2, -z+1/2'
'x+1/2, -y+1/2, -z+1/2'
'-x, -y, -z'
'x, y, -z'
'x-1/2, -y-1/2, z-1/2'
'-x-1/2, y-1/2, z-1/2'

_cell_length_a                   17.1469(8)
_cell_length_b                   23.3222(10)
_cell_length_c                   25.2552(12)
_cell_angle_alpha                90.00
_cell_angle_beta                 90.00
_cell_angle_gamma                90.00
_cell_volume                     10099.6(8)
_cell_formula_units_Z            4
_cell_measurement_temperature    258(2)
_cell_measurement_reflns_used    6203
_cell_measurement_theta_min      2.19
_cell_measurement_theta_max      21.35

_exptl_crystal_description       rectangular
_exptl_crystal_colour            colorless
_exptl_crystal_size_max          .25
_exptl_crystal_size_mid          .20
_exptl_crystal_size_min          .05
_exptl_crystal_density_meas      ?
_exptl_crystal_density_diffrn    0.920
_exptl_crystal_density_method    'not measured'
_exptl_crystal_F_000             2880
_exptl_absorpt_coefficient_mu    0.986
_exptl_absorpt_correction_type   none
_exptl_absorpt_correction_T_min  ?
_exptl_absorpt_correction_T_max  ?
_exptl_absorpt_process_details   ?

_exptl_special_details           
; 
? 
;

_diffrn_ambient_temperature      153(2)
_diffrn_radiation_wavelength     0.71073
_diffrn_radiation_type           MoK\a
_diffrn_radiation_source         'fine-focus sealed tube'
_diffrn_radiation_monochromator  graphite
_diffrn_measurement_device_type  'Siemens APEX'
_diffrn_measurement_method       ?
_diffrn_detector_area_resol_mean ?
_diffrn_standards_number         ?
_diffrn_standards_interval_count ?
_diffrn_standards_interval_time  ?
_diffrn_standards_decay_%        ?
_diffrn_reflns_number            47012
_diffrn_reflns_av_R_equivalents  0.0633
_diffrn_reflns_av_sigmaI/netI    0.1127
_diffrn_reflns_limit_h_min       -21
_diffrn_reflns_limit_h_max       21
_diffrn_reflns_limit_k_min       -30
_diffrn_reflns_limit_k_max       28
_diffrn_reflns_limit_l_min       -25
_diffrn_reflns_limit_l_max       32
_diffrn_reflns_theta_min         1.44
_diffrn_reflns_theta_max         27.51
_reflns_number_total             11433
_reflns_number_gt                4868
_reflns_threshold_expression     >2sigma(I)

_computing_data_collection       ?
_computing_cell_refinement       ?
_computing_data_reduction        ?
_computing_structure_solution    'SHELXS-97 (Sheldrick, 1990)'
_computing_structure_refinement  'SHELXL-97 (Sheldrick, 1997)'
_computing_molecular_graphics    ?
_computing_publication_material  ?

_refine_special_details          
; 
Refinement of F^2^ against ALL reflections.  The weighted R-factor wR and 
goodness of fit S are based on F^2^, conventional R-factors R are based 
on F, with F set to zero for negative F^2^. The threshold expression of 
F^2^ > 2sigma(F^2^) is used only for calculating R-factors(gt) etc. and is 
not relevant to the choice of reflections for refinement.  R-factors based 
on F^2^ are statistically about twice as large as those based on F, and R- 
factors based on ALL data will be even larger. 
;

_refine_ls_structure_factor_coef Fsqd
_refine_ls_matrix_type           full
_refine_ls_weighting_scheme      calc
_refine_ls_weighting_details     
'calc w=1/[\s^2^(Fo^2^)+(0.1446P)^2^+0.0000P] where P=(Fo^2^+2Fc^2^)/3'
_atom_sites_solution_primary     direct
_atom_sites_solution_secondary   difmap
_atom_sites_solution_hydrogens   geom
_refine_ls_hydrogen_treatment    mixed
_refine_ls_extinction_method     none
_refine_ls_extinction_coef       ?
_refine_ls_number_reflns         11433
_refine_ls_number_parameters     353
_refine_ls_number_restraints     1
_refine_ls_R_factor_all          0.1667
_refine_ls_R_factor_gt           0.0802
_refine_ls_wR_factor_ref         0.2869
_refine_ls_wR_factor_gt          0.2657
_refine_ls_goodness_of_fit_ref   1.041
_refine_ls_restrained_S_all      1.041
_refine_ls_shift/su_max          1.260
_refine_ls_shift/su_mean         0.071

loop_
_atom_site_label
_atom_site_type_symbol
_atom_site_fract_x
_atom_site_fract_y
_atom_site_fract_z
_atom_site_U_iso_or_equiv
_atom_site_adp_type
_atom_site_occupancy
_atom_site_symmetry_multiplicity
_atom_site_calc_flag
_atom_site_refinement_flags
_atom_site_disorder_assembly
_atom_site_disorder_group
Zn1 Zn -0.29192(6) -0.08190(4) 0.0000 0.0390(3) Uani 1 2 d S . .
Zn2 Zn -0.29802(6) -0.21798(4) 0.0000 0.0490(3) Uani 1 2 d S . .
Zn3 Zn -0.16429(4) -0.15179(3) -0.06278(3) 0.0485(2) Uani 1 1 d . . .
O1C O -0.2305(3) -0.1512(2) 0.0000 0.0360(12) Uani 1 2 d SD . .
O1 O -0.1871(4) -0.2177(3) 0.1061(2) 0.100(2) Uani 1 1 d . . .
O2 O -0.2838(4) -0.2635(3) 0.0628(2) 0.105(2) Uani 1 1 d . . .
O3 O -0.2258(3) -0.53293(18) 0.43929(17) 0.0626(13) Uani 1 1 d . . .
O4 O -0.3079(4) -0.5867(3) 0.3931(2) 0.100(2) Uani 1 1 d . . .
O5 O -0.0563(4) -0.1542(3) -0.0451(3) 0.133(3) Uani 1 1 d D . .
O6 O 0.5955(4) -0.0944(3) 0.0000 0.071(2) Uani 1 2 d S . .
O7 O 0.5959(4) -0.1921(4) 0.0000 0.104(3) Uani 1 2 d S . .
C1 C -0.2404(6) -0.2991(4) 0.1442(4) 0.100(3) Uani 1 1 d . . .
C2 C -0.2966(7) -0.3399(5) 0.1452(4) 0.148(6) Uani 1 1 d . . .
H2A H -0.3328 -0.3423 0.1169 0.177 Uiso 1 1 calc R . .
C3 C -0.3019(8) -0.3788(6) 0.1879(5) 0.179(7) Uani 1 1 d . . .
H3A H -0.3442 -0.4051 0.1887 0.214 Uiso 1 1 calc R . .
C4 C -0.2491(8) -0.3800(5) 0.2276(4) 0.123(4) Uani 1 1 d . . .
C5 C -0.1916(9) -0.3383(6) 0.2262(5) 0.176(7) Uani 1 1 d . . .
H5A H -0.1514 -0.3385 0.2521 0.211 Uiso 1 1 calc R . .
C6 C -0.1923(7) -0.2970(5) 0.1881(5) 0.160(6) Uani 1 1 d . . .
H6A H -0.1580 -0.2652 0.1918 0.191 Uiso 1 1 calc R . .
C7 C -0.2559(7) -0.4211(4) 0.2718(4) 0.104(3) Uani 1 1 d . . .
C8 C -0.2136(9) -0.4152(5) 0.3142(4) 0.167(7) Uani 1 1 d . . .
H8A H -0.1777 -0.3843 0.3158 0.201 Uiso 1 1 calc R . .
C9 C -0.2186(8) -0.4530(4) 0.3584(4) 0.159(6) Uani 1 1 d . . .
H9A H -0.1908 -0.4446 0.3900 0.190 Uiso 1 1 calc R . .
C10 C -0.2639(5) -0.5018(3) 0.3550(3) 0.077(2) Uani 1 1 d . . .
C11 C -0.2987(8) -0.5121(5) 0.3079(4) 0.162(6) Uani 1 1 d . . .
H11A H -0.3251 -0.5473 0.3021 0.195 Uiso 1 1 calc R . .
C12 C -0.2958(9) -0.4709(6) 0.2678(4) 0.196(8) Uani 1 1 d . . .
H12A H -0.3234 -0.4783 0.2359 0.235 Uiso 1 1 calc R . .
C13 C -0.2375(6) -0.2580(4) 0.1015(4) 0.091(3) Uani 1 1 d . . .
C14 C -0.2664(5) -0.5431(3) 0.3991(3) 0.064(2) Uani 1 1 d . . .
C15 C -0.0264(8) -0.1566(5) 0.0000 0.146(9) Uani 1 2 d SD . .
C16 C 0.0655(7) -0.1534(7) 0.0000 0.094(4) Uani 1 2 d S . .
C17 C 0.1064(13) -0.1769(10) -0.0389(10) 0.102(7) Uani 0.50 1 d P . .
H17A H 0.0790 -0.1954 -0.0668 0.122 Uiso 0.50 1 calc PR . .
C18 C 0.1828(13) -0.1756(9) -0.0408(12) 0.111(9) Uani 0.50 1 d P . .
H18A H 0.2096 -0.1933 -0.0695 0.133 Uiso 0.50 1 calc PR . .
C17' C 0.1090(12) -0.1284(13) -0.0408(11) 0.135(11) Uani 0.50 1 d P . .
H17' H 0.0829 -0.1118 -0.0702 0.162 Uiso 0.50 1 calc PR . .
C18' C 0.1850(11) -0.1276(13) -0.0387(10) 0.128(11) Uani 0.50 1 d P . .
H18' H 0.2124 -0.1110 -0.0676 0.154 Uiso 0.50 1 calc PR . .
C19 C 0.2252(6) -0.1478(6) 0.0000 0.082(4) Uani 1 2 d S . .
C20 C 0.3118(6) -0.1429(5) 0.0000 0.087(4) Uani 1 2 d S . .
C21 C 0.3529(9) -0.1913(7) 0.0000 0.32(2) Uani 1 2 d S . .
H21A H 0.3261 -0.2270 0.0000 0.382 Uiso 1 2 calc SR . .
C22 C 0.4369(9) -0.1911(6) 0.0000 0.267(17) Uani 1 2 d S . .
H22A H 0.4645 -0.2265 0.0000 0.321 Uiso 1 2 calc SR . .
C23 C 0.4762(6) -0.1420(5) 0.0000 0.081(4) Uani 1 2 d S . .
C24 C 0.4323(7) -0.0936(5) 0.0000 0.079(3) Uani 1 2 d S . .
H24A H 0.4582 -0.0576 0.0000 0.095 Uiso 1 2 calc SR . .
C25 C 0.3517(6) -0.0940(5) 0.0000 0.080(4) Uani 1 2 d S . .
H25A H 0.3242 -0.0586 0.0000 0.096 Uiso 1 2 calc SR . .
C26 C 0.5615(7) -0.1435(5) 0.0000 0.077(3) Uani 1 2 d S . .
O1S O -0.1088(13) -0.0633(10) -0.0249(8) 0.086(7) Uani 0.25 1 d P . .
N1S N 0.0006(19) -0.0189(8) 0.0000 0.093(8) Uani 0.50 2 d SP . .
C1S C -0.0917(19) 0.0042(15) 0.0000 0.17(2) Uani 0.50 2 d SP . .
C2S C -0.041(2) -0.0208(19) -0.0393(14) 0.222(18) Uani 0.50 1 d P . .
C3S C -0.518(3) -0.5797(18) 0.3185(17) 0.255(18) Uiso 0.50 1 d P . .
C4S C -0.495(2) -0.6392(15) 0.3054(17) 0.223(15) Uiso 0.50 1 d P . .
C5S C 0.596(3) -0.1514(16) -0.149(2) 0.29(2) Uiso 0.50 1 d P . .
O2S O -0.071(2) -0.1384(12) -0.1384(16) 0.342(16) Uiso 0.50 1 d P . .

loop_
_atom_site_aniso_label
_atom_site_aniso_U_11
_atom_site_aniso_U_22
_atom_site_aniso_U_33
_atom_site_aniso_U_23
_atom_site_aniso_U_13
_atom_site_aniso_U_12
Zn1 0.0451(6) 0.0380(5) 0.0339(5) 0.000 0.000 0.0031(5)
Zn2 0.0588(7) 0.0445(6) 0.0437(6) 0.000 0.000 -0.0018(5)
Zn3 0.0544(5) 0.0513(4) 0.0398(4) -0.0007(4) 0.0035(3) 0.0052(4)
O1C 0.040(3) 0.034(3) 0.034(3) 0.000 0.000 0.004(3)
O1 0.118(5) 0.094(4) 0.088(4) 0.047(4) -0.013(4) -0.013(4)
O2 0.124(5) 0.107(5) 0.084(4) 0.046(4) -0.029(4) -0.028(4)
O3 0.095(4) 0.050(3) 0.043(3) 0.015(2) -0.009(3) -0.007(2)
O4 0.150(6) 0.090(4) 0.061(4) 0.036(3) -0.034(4) -0.050(4)
O5 0.048(4) 0.196(8) 0.154(7) -0.022(6) -0.012(4) -0.002(4)
O6 0.043(4) 0.080(5) 0.091(6) 0.000 0.000 -0.003(4)
O7 0.054(5) 0.075(5) 0.184(10) 0.000 0.000 0.006(4)
C1 0.122(8) 0.096(6) 0.081(6) 0.050(6) -0.019(6) -0.039(6)
C2 0.163(11) 0.170(11) 0.111(8) 0.099(8) -0.072(8) -0.072(9)
C3 0.198(14) 0.196(13) 0.141(11) 0.123(11) -0.081(10) -0.116(11)
C4 0.172(11) 0.119(8) 0.078(7) 0.066(7) -0.054(7) -0.057(8)
C5 0.227(15) 0.173(11) 0.129(10) 0.105(9) -0.100(10) -0.129(11)
C6 0.190(13) 0.160(11) 0.129(10) 0.098(9) -0.072(9) -0.104(10)
C7 0.150(9) 0.087(6) 0.074(6) 0.045(5) -0.044(6) -0.050(6)
C8 0.266(17) 0.114(8) 0.122(9) 0.083(8) -0.100(11) -0.106(10)
C9 0.259(15) 0.115(8) 0.102(8) 0.072(7) -0.096(9) -0.104(9)
C10 0.114(7) 0.068(5) 0.048(4) 0.021(4) -0.020(4) -0.024(5)
C11 0.246(15) 0.145(10) 0.097(8) 0.072(8) -0.087(9) -0.118(10)
C12 0.298(19) 0.185(13) 0.106(9) 0.102(9) -0.114(11) -0.136(13)
C13 0.113(8) 0.093(6) 0.069(6) 0.040(5) -0.015(6) -0.026(6)
C14 0.090(6) 0.051(4) 0.052(4) 0.016(4) -0.004(4) -0.006(4)
C15 0.060(10) 0.27(3) 0.108(13) 0.000 0.000 0.092(13)
C16 0.042(6) 0.125(11) 0.114(11) 0.000 0.000 0.004(8)
C17 0.061(14) 0.126(17) 0.118(17) -0.066(16) -0.014(12) -0.006(14)
C18 0.052(14) 0.109(16) 0.17(2) -0.069(17) 0.003(13) -0.007(13)
C17' 0.040(11) 0.22(3) 0.15(2) 0.12(2) -0.016(12) -0.023(16)
C18' 0.036(11) 0.24(3) 0.109(17) 0.09(2) -0.001(11) -0.022(17)
C19 0.042(6) 0.094(9) 0.110(10) 0.000 0.000 0.009(7)
C20 0.042(6) 0.073(8) 0.148(13) 0.000 0.000 0.001(6)
C21 0.047(10) 0.060(9) 0.85(7) 0.000 0.000 0.000(8)
C22 0.051(9) 0.062(9) 0.69(6) 0.000 0.000 0.002(8)
C23 0.044(6) 0.071(8) 0.129(11) 0.000 0.000 -0.008(6)
C24 0.058(7) 0.065(7) 0.113(10) 0.000 0.000 -0.010(6)
C25 0.038(6) 0.071(7) 0.132(11) 0.000 0.000 0.010(6)
C26 0.047(6) 0.082(9) 0.100(9) 0.000 0.000 -0.007(6)
O1S 0.066(14) 0.113(18) 0.081(16) 0.005(12) 0.010(11) -0.007(12)
N1S 0.078(13) 0.083(19) 0.116(17) 0.000 0.000 -0.04(2)
C1S 0.07(2) 0.09(2) 0.34(7) 0.000 0.000 -0.006(18)
C2S 0.19(4) 0.30(6) 0.18(3) -0.08(3) -0.11(3) 0.04(3)

_geom_special_details            
; 
All esds (except the esd in the dihedral angle between two l.s. planes) 
are estimated using the full covariance matrix.  The cell esds are taken 
into account individually in the estimation of esds in distances, angles 
and torsion angles; correlations between esds in cell parameters are only 
used when they are defined by crystal symmetry.  An approximate (isotropic) 
treatment of cell esds is used for estimating esds involving l.s. planes. 
;

loop_
_geom_bond_atom_site_label_1
_geom_bond_atom_site_label_2
_geom_bond_distance
_geom_bond_site_symmetry_2
_geom_bond_publ_flag
Zn1 O1C 1.928(5) . ?
Zn1 O3 1.936(4) 3_455 ?
Zn1 O3 1.936(4) 8_565 ?
Zn1 O6 1.952(7) 1_455 ?
Zn1 Zn3 3.1560(11) 6 ?
Zn1 Zn3 3.1560(11) . ?
Zn2 O7 1.916(8) 1_455 ?
Zn2 O2 1.923(5) 6 ?
Zn2 O2 1.923(5) . ?
Zn2 O1C 1.941(5) . ?
Zn3 O5 1.905(7) . ?
Zn3 O1 1.926(6) 6 ?
Zn3 O4 1.942(5) 8_565 ?
Zn3 O1C 1.951(3) . ?
Zn3 O2S 2.52(4) . ?
Zn3 O1S 2.46(2) . ?
O1C Zn3 1.951(3) 6 ?
O1 C13 1.283(10) . ?
O1 Zn3 1.926(6) 6 ?
O2 C13 1.267(10) . ?
O3 C14 1.253(8) . ?
O3 Zn1 1.936(4) 3_445 ?
O4 C14 1.250(8) . ?
O4 Zn3 1.942(5) 8_556 ?
O5 C15 1.251(9) . ?
O6 C26 1.286(12) . ?
O6 Zn1 1.952(7) 1_655 ?
O7 C26 1.277(13) . ?
O7 Zn2 1.916(8) 1_655 ?
C1 C2 1.353(12) . ?
C1 C6 1.383(13) . ?
C1 C13 1.444(10) . ?
C2 C3 1.411(12) . ?
C3 C4 1.352(13) . ?
C4 C5 1.385(13) . ?
C4 C7 1.476(11) . ?
C5 C6 1.362(12) . ?
C7 C8 1.302(12) . ?
C7 C12 1.352(13) . ?
C8 C9 1.422(12) . ?
C9 C10 1.381(11) . ?
C10 C11 1.353(11) . ?
C10 C14 1.474(9) . ?
C11 C12 1.395(12) . ?
C15 O5 1.251(9) 6 ?
C15 C16 1.578(18) . ?
C16 C17 1.33(2) 6 ?
C16 C17 1.33(2) . ?
C16 C17' 1.40(2) 6 ?
C16 C17' 1.40(2) . ?
C17 C18 1.31(3) . ?
C17 C17 1.97(5) 6 ?
C18 C19 1.42(2) . ?
C17' C18' 1.31(3) . ?
C18' C19 1.29(2) . ?
C18' C18' 1.96(5) 6 ?
C19 C18' 1.29(2) 6 ?
C19 C18 1.42(2) 6 ?
C19 C20 1.488(14) . ?
C20 C21 1.332(18) . ?
C20 C25 1.330(15) . ?
C21 C22 1.440(19) . ?
C22 C23 1.330(17) . ?
C23 C24 1.356(14) . ?
C23 C26 1.462(15) . ?
C24 C25 1.382(14) . ?
O1S O1S 1.26(4) 6 ?
O1S C2S 1.57(4) . ?
O1S C1S 1.72(4) . ?
N1S N1S 0.88(4) 5 ?
N1S C2S 1.22(3) 6 ?
N1S C2S 1.22(3) . ?
N1S C2S 1.52(3) 5 ?
N1S C2S 1.52(3) 2 ?
N1S C1S 1.60(4) 5 ?
N1S C1S 1.67(5) . ?
C1S C2S 1.44(4) . ?
C1S C2S 1.44(4) 6 ?
C1S N1S 1.60(4) 5 ?
C1S O1S 1.72(4) 6 ?
C2S N1S 1.52(3) 5 ?
C2S C2S 1.71(8) 2 ?
C2S C2S 1.99(7) 6 ?
C3S C4S 1.48(4) . ?

loop_
_geom_angle_atom_site_label_1
_geom_angle_atom_site_label_2
_geom_angle_atom_site_label_3
_geom_angle
_geom_angle_site_symmetry_1
_geom_angle_site_symmetry_3
_geom_angle_publ_flag
O1C Zn1 O3 114.11(17) . 3_455 ?
O1C Zn1 O3 114.11(17) . 8_565 ?
O3 Zn1 O3 104.7(3) 3_455 8_565 ?
O1C Zn1 O6 114.5(3) . 1_455 ?
O3 Zn1 O6 104.1(2) 3_455 1_455 ?
O3 Zn1 O6 104.1(2) 8_565 1_455 ?
O1C Zn1 Zn3 35.78(8) . 6 ?
O3 Zn1 Zn3 78.33(14) 3_455 6 ?
O3 Zn1 Zn3 126.41(16) 8_565 6 ?
O6 Zn1 Zn3 127.48(17) 1_455 6 ?
O1C Zn1 Zn3 35.78(8) . . ?
O3 Zn1 Zn3 126.41(16) 3_455 . ?
O3 Zn1 Zn3 78.33(14) 8_565 . ?
O6 Zn1 Zn3 127.48(17) 1_455 . ?
Zn3 Zn1 Zn3 60.32(3) 6 . ?
O7 Zn2 O2 107.1(2) 1_455 6 ?
O7 Zn2 O2 107.1(2) 1_455 . ?
O2 Zn2 O2 111.0(4) 6 . ?
O7 Zn2 O1C 108.2(3) 1_455 . ?
O2 Zn2 O1C 111.6(2) 6 . ?
O2 Zn2 O1C 111.6(2) . . ?
O5 Zn3 O1 107.8(3) . 6 ?
O5 Zn3 O4 113.3(3) . 8_565 ?
O1 Zn3 O4 104.4(3) 6 8_565 ?
O5 Zn3 O1C 112.1(3) . . ?
O1 Zn3 O1C 110.5(2) 6 . ?
O4 Zn3 O1C 108.5(2) 8_565 . ?
O5 Zn3 O2S 63.9(9) . . ?
O1 Zn3 O2S 78.3(7) 6 . ?
O4 Zn3 O2S 68.0(8) 8_565 . ?
O1C Zn3 O2S 171.2(7) . . ?
O5 Zn3 O1S 63.8(6) . . ?
O1 Zn3 O1S 165.1(5) 6 . ?
O4 Zn3 O1S 70.3(6) 8_565 . ?
O1C Zn3 O1S 84.4(5) . . ?
O2S Zn3 O1S 86.8(9) . . ?
O5 Zn3 Zn1 124.8(2) . . ?
O1 Zn3 Zn1 123.8(2) 6 . ?
O4 Zn3 Zn1 73.39(16) 8_565 . ?
O1C Zn3 Zn1 35.30(13) . . ?
O2S Zn3 Zn1 139.5(7) . . ?
O1S Zn3 Zn1 68.9(5) . . ?
Zn1 O1C Zn2 110.3(3) . . ?
Zn1 O1C Zn3 108.92(16) . 6 ?
Zn2 O1C Zn3 109.94(16) . 6 ?
Zn1 O1C Zn3 108.92(16) . . ?
Zn2 O1C Zn3 109.94(16) . . ?
Zn3 O1C Zn3 108.8(3) 6 . ?
C13 O1 Zn3 132.1(6) . 6 ?
C13 O2 Zn2 131.4(6) . . ?
C14 O3 Zn1 128.1(4) . 3_445 ?
C14 O4 Zn3 134.9(5) . 8_556 ?
C15 O5 Zn3 127.9(9) . . ?
C26 O6 Zn1 125.6(7) . 1_655 ?
C26 O7 Zn2 135.9(7) . 1_655 ?
C2 C1 C6 115.8(8) . . ?
C2 C1 C13 120.4(9) . . ?
C6 C1 C13 123.6(9) . . ?
C1 C2 C3 120.8(10) . . ?
C4 C3 C2 122.4(10) . . ?
C3 C4 C5 116.4(9) . . ?
C3 C4 C7 121.4(10) . . ?
C5 C4 C7 122.1(9) . . ?
C6 C5 C4 120.5(10) . . ?
C5 C6 C1 123.1(10) . . ?
C8 C7 C12 115.7(9) . . ?
C8 C7 C4 120.7(9) . . ?
C12 C7 C4 122.9(9) . . ?
C7 C8 C9 123.2(9) . . ?
C10 C9 C8 119.7(9) . . ?
C11 C1