####################################################################### 
# 
# This file contains crystal structure data downloaded from the 
# Cambridge Structural Database (CSD) hosted by the Cambridge 
# Crystallographic Data Centre (CCDC).
# 
# Full information about CCDC data access policies and citation 
# guidelines are available at http://www.ccdc.cam.ac.uk/access/V1 
# 
# Audit and citation data items may have been added by the CCDC. 
# Please retain this information to preserve the provenance of 
# this file and to allow appropriate attribution of the data. 
# 
#######################################################################

data_IRMOF-12
_audit_block_doi                 10.5517/cc5wpyn
_database_code_depnum_ccdc_archive 'CCDC 175582'
loop_
_citation_id
_citation_doi
_citation_year
1 10.1126/science.1067208 2002
_audit_update_record             
;
2001-12-04 deposited with the CCDC.	2024-07-10 downloaded from the CCDC.
;

_audit_creation_method           SHELXL-97
_chemical_name_systematic        
; 
? 
;
_chemical_name_common            ?
_chemical_melting_point          ?
_chemical_formula_moiety         ?
_chemical_formula_sum            'C104 H148 N10 O24 Zn4'
_chemical_formula_weight         2183.80

loop_
_atom_type_symbol
_atom_type_description
_atom_type_scat_dispersion_real
_atom_type_scat_dispersion_imag
_atom_type_scat_source
C C 0.0033 0.0016 'International Tables Vol C Tables 4.2.6.8 and 6.1.1.4'
H H 0.0000 0.0000 'International Tables Vol C Tables 4.2.6.8 and 6.1.1.4'
O O 0.0106 0.0060 'International Tables Vol C Tables 4.2.6.8 and 6.1.1.4'
Zn Zn 0.2839 1.4301 'International Tables Vol C Tables 4.2.6.8 and 6.1.1.4'
N N 0.0061 0.0033 'International Tables Vol C Tables 4.2.6.8 and 6.1.1.4'

_symmetry_cell_setting           cubic
_symmetry_space_group_name_H-M   Fm(-3)m

loop_
_symmetry_equiv_pos_as_xyz
'x, y, z'
'-x, -y, z'
'-x, y, -z'
'x, -y, -z'
'z, x, y'
'z, -x, -y'
'-z, -x, y'
'-z, x, -y'
'y, z, x'
'-y, z, -x'
'y, -z, -x'
'-y, -z, x'
'y, x, -z'
'-y, -x, -z'
'y, -x, z'
'-y, x, z'
'x, z, -y'
'-x, z, y'
'-x, -z, -y'
'x, -z, y'
'z, y, -x'
'z, -y, x'
'-z, y, x'
'-z, -y, -x'
'x, y+1/2, z+1/2'
'-x, -y+1/2, z+1/2'
'-x, y+1/2, -z+1/2'
'x, -y+1/2, -z+1/2'
'z, x+1/2, y+1/2'
'z, -x+1/2, -y+1/2'
'-z, -x+1/2, y+1/2'
'-z, x+1/2, -y+1/2'
'y, z+1/2, x+1/2'
'-y, z+1/2, -x+1/2'
'y, -z+1/2, -x+1/2'
'-y, -z+1/2, x+1/2'
'y, x+1/2, -z+1/2'
'-y, -x+1/2, -z+1/2'
'y, -x+1/2, z+1/2'
'-y, x+1/2, z+1/2'
'x, z+1/2, -y+1/2'
'-x, z+1/2, y+1/2'
'-x, -z+1/2, -y+1/2'
'x, -z+1/2, y+1/2'
'z, y+1/2, -x+1/2'
'z, -y+1/2, x+1/2'
'-z, y+1/2, x+1/2'
'-z, -y+1/2, -x+1/2'
'x+1/2, y, z+1/2'
'-x+1/2, -y, z+1/2'
'-x+1/2, y, -z+1/2'
'x+1/2, -y, -z+1/2'
'z+1/2, x, y+1/2'
'z+1/2, -x, -y+1/2'
'-z+1/2, -x, y+1/2'
'-z+1/2, x, -y+1/2'
'y+1/2, z, x+1/2'
'-y+1/2, z, -x+1/2'
'y+1/2, -z, -x+1/2'
'-y+1/2, -z, x+1/2'
'y+1/2, x, -z+1/2'
'-y+1/2, -x, -z+1/2'
'y+1/2, -x, z+1/2'
'-y+1/2, x, z+1/2'
'x+1/2, z, -y+1/2'
'-x+1/2, z, y+1/2'
'-x+1/2, -z, -y+1/2'
'x+1/2, -z, y+1/2'
'z+1/2, y, -x+1/2'
'z+1/2, -y, x+1/2'
'-z+1/2, y, x+1/2'
'-z+1/2, -y, -x+1/2'
'x+1/2, y+1/2, z'
'-x+1/2, -y+1/2, z'
'-x+1/2, y+1/2, -z'
'x+1/2, -y+1/2, -z'
'z+1/2, x+1/2, y'
'z+1/2, -x+1/2, -y'
'-z+1/2, -x+1/2, y'
'-z+1/2, x+1/2, -y'
'y+1/2, z+1/2, x'
'-y+1/2, z+1/2, -x'
'y+1/2, -z+1/2, -x'
'-y+1/2, -z+1/2, x'
'y+1/2, x+1/2, -z'
'-y+1/2, -x+1/2, -z'
'y+1/2, -x+1/2, z'
'-y+1/2, x+1/2, z'
'x+1/2, z+1/2, -y'
'-x+1/2, z+1/2, y'
'-x+1/2, -z+1/2, -y'
'x+1/2, -z+1/2, y'
'z+1/2, y+1/2, -x'
'z+1/2, -y+1/2, x'
'-z+1/2, y+1/2, x'
'-z+1/2, -y+1/2, -x'
'-x, -y, -z'
'x, y, -z'
'x, -y, z'
'-x, y, z'
'-z, -x, -y'
'-z, x, y'
'z, x, -y'
'z, -x, y'
'-y, -z, -x'
'y, -z, x'
'-y, z, x'
'y, z, -x'
'-y, -x, z'
'y, x, z'
'-y, x, -z'
'y, -x, -z'
'-x, -z, y'
'x, -z, -y'
'x, z, y'
'-x, z, -y'
'-z, -y, x'
'-z, y, -x'
'z, -y, -x'
'z, y, x'
'-x, -y+1/2, -z+1/2'
'x, y+1/2, -z+1/2'
'x, -y+1/2, z+1/2'
'-x, y+1/2, z+1/2'
'-z, -x+1/2, -y+1/2'
'-z, x+1/2, y+1/2'
'z, x+1/2, -y+1/2'
'z, -x+1/2, y+1/2'
'-y, -z+1/2, -x+1/2'
'y, -z+1/2, x+1/2'
'-y, z+1/2, x+1/2'
'y, z+1/2, -x+1/2'
'-y, -x+1/2, z+1/2'
'y, x+1/2, z+1/2'
'-y, x+1/2, -z+1/2'
'y, -x+1/2, -z+1/2'
'-x, -z+1/2, y+1/2'
'x, -z+1/2, -y+1/2'
'x, z+1/2, y+1/2'
'-x, z+1/2, -y+1/2'
'-z, -y+1/2, x+1/2'
'-z, y+1/2, -x+1/2'
'z, -y+1/2, -x+1/2'
'z, y+1/2, x+1/2'
'-x+1/2, -y, -z+1/2'
'x+1/2, y, -z+1/2'
'x+1/2, -y, z+1/2'
'-x+1/2, y, z+1/2'
'-z+1/2, -x, -y+1/2'
'-z+1/2, x, y+1/2'
'z+1/2, x, -y+1/2'
'z+1/2, -x, y+1/2'
'-y+1/2, -z, -x+1/2'
'y+1/2, -z, x+1/2'
'-y+1/2, z, x+1/2'
'y+1/2, z, -x+1/2'
'-y+1/2, -x, z+1/2'
'y+1/2, x, z+1/2'
'-y+1/2, x, -z+1/2'
'y+1/2, -x, -z+1/2'
'-x+1/2, -z, y+1/2'
'x+1/2, -z, -y+1/2'
'x+1/2, z, y+1/2'
'-x+1/2, z, -y+1/2'
'-z+1/2, -y, x+1/2'
'-z+1/2, y, -x+1/2'
'z+1/2, -y, -x+1/2'
'z+1/2, y, x+1/2'
'-x+1/2, -y+1/2, -z'
'x+1/2, y+1/2, -z'
'x+1/2, -y+1/2, z'
'-x+1/2, y+1/2, z'
'-z+1/2, -x+1/2, -y'
'-z+1/2, x+1/2, y'
'z+1/2, x+1/2, -y'
'z+1/2, -x+1/2, y'
'-y+1/2, -z+1/2, -x'
'y+1/2, -z+1/2, x'
'-y+1/2, z+1/2, x'
'y+1/2, z+1/2, -x'
'-y+1/2, -x+1/2, z'
'y+1/2, x+1/2, z'
'-y+1/2, x+1/2, -z'
'y+1/2, -x+1/2, -z'
'-x+1/2, -z+1/2, y'
'x+1/2, -z+1/2, -y'
'x+1/2, z+1/2, y'
'-x+1/2, z+1/2, -y'
'-z+1/2, -y+1/2, x'
'-z+1/2, y+1/2, -x'
'z+1/2, -y+1/2, -x'
'z+1/2, y+1/2, x'

_cell_length_a                   34.2807(18)
_cell_length_b                   34.2807(18)
_cell_length_c                   34.2807(18)
_cell_angle_alpha                90.00
_cell_angle_beta                 90.00
_cell_angle_gamma                90.00
_cell_volume                     40286(4)
_cell_formula_units_Z            8
_cell_measurement_temperature    258(2)
_cell_measurement_reflns_used    2335
_cell_measurement_theta_min      2.38
_cell_measurement_theta_max      14.46

_exptl_crystal_description       block
_exptl_crystal_colour            'pale yellow'
_exptl_crystal_size_max          .18
_exptl_crystal_size_mid          .18
_exptl_crystal_size_min          .08
_exptl_crystal_density_meas      ?
_exptl_crystal_density_diffrn    0.720
_exptl_crystal_density_method    'not measured'
_exptl_crystal_F_000             9232
_exptl_absorpt_coefficient_mu    0.510
_exptl_absorpt_correction_type   SADABS
_exptl_absorpt_correction_T_min  .546
_exptl_absorpt_correction_T_max  .918
_exptl_absorpt_process_details   ?

_exptl_special_details           
; 
? 
;

_diffrn_ambient_temperature      258(2)
_diffrn_radiation_wavelength     0.71073
_diffrn_radiation_type           MoK\a
_diffrn_radiation_source         'fine-focus sealed tube'
_diffrn_radiation_monochromator  graphite
_diffrn_measurement_device_type  'Siemens APEX'
_diffrn_measurement_method       ?
_diffrn_detector_area_resol_mean ?
_diffrn_standards_number         ?
_diffrn_standards_interval_count ?
_diffrn_standards_interval_time  ?
_diffrn_standards_decay_%        ?
_diffrn_reflns_number            45100
_diffrn_reflns_av_R_equivalents  0.2589
_diffrn_reflns_av_sigmaI/netI    0.0552
_diffrn_reflns_limit_h_min       -29
_diffrn_reflns_limit_h_max       29
_diffrn_reflns_limit_k_min       -29
_diffrn_reflns_limit_k_max       29
_diffrn_reflns_limit_l_min       -29
_diffrn_reflns_limit_l_max       29
_diffrn_reflns_theta_min         1.03
_diffrn_reflns_theta_max         17.99
_reflns_number_total             757
_reflns_number_gt                560
_reflns_threshold_expression     >2sigma(I)

_computing_data_collection       ?
_computing_cell_refinement       ?
_computing_data_reduction        ?
_computing_structure_solution    'SHELXS-97 (Sheldrick, 1990)'
_computing_structure_refinement  'SHELXL-97 (Sheldrick, 1997)'
_computing_molecular_graphics    ?
_computing_publication_material  ?

_refine_special_details          
; 
Refinement of F^2^ against ALL reflections.  The weighted R-factor wR and 
goodness of fit S are based on F^2^, conventional R-factors R are based 
on F, with F set to zero for negative F^2^. The threshold expression of 
F^2^ > 2sigma(F^2^) is used only for calculating R-factors(gt) etc. and is 
not relevant to the choice of reflections for refinement.  R-factors based 
on F^2^ are statistically about twice as large as those based on F, and R- 
factors based on ALL data will be even larger. 
;

_refine_ls_structure_factor_coef Fsqd
_refine_ls_matrix_type           full
_refine_ls_weighting_scheme      calc
_refine_ls_weighting_details     
'calc w=1/[\s^2^(Fo^2^)+(0.1000P)^2^+0.0000P] where P=(Fo^2^+2Fc^2^)/3'
_atom_sites_solution_primary     direct
_atom_sites_solution_secondary   difmap
_atom_sites_solution_hydrogens   geom
_refine_ls_hydrogen_treatment    mixed
_refine_ls_extinction_method     SHELXL
_refine_ls_extinction_coef       0.0020(5)
_refine_ls_extinction_expression Fc^*^=kFc[1+0.001xFc^2^\l^3^/sin(2\q)]^-1/4^
_refine_ls_number_reflns         757
_refine_ls_number_parameters     47
_refine_ls_number_restraints     7
_refine_ls_R_factor_all          0.1560
_refine_ls_R_factor_gt           0.1080
_refine_ls_wR_factor_ref         0.3875
_refine_ls_wR_factor_gt          0.3444
_refine_ls_goodness_of_fit_ref   2.764
_refine_ls_restrained_S_all      2.752
_refine_ls_shift/su_max          0.001
_refine_ls_shift/su_mean         0.001

loop_
_atom_site_label
_atom_site_type_symbol
_atom_site_fract_x
_atom_site_fract_y
_atom_site_fract_z
_atom_site_U_iso_or_equiv
_atom_site_adp_type
_atom_site_occupancy
_atom_site_symmetry_multiplicity
_atom_site_calc_flag
_atom_site_refinement_flags
_atom_site_disorder_assembly
_atom_site_disorder_group
Zn Zn 0.21728(7) 0.21728(7) 0.21728(7) 0.041(3) Uani 1 6 d S . .
O1 O 0.2500 0.2500 0.2500 0.014(11) Uani 1 24 d S . .
O2 O 0.2280(3) 0.2280(3) 0.1623(4) 0.062(6) Uani 1 2 d SU . .
C1 C 0.2500 0.2500 0.1459(15) 0.064(14) Uani 1 4 d S . .
C2 C 0.2500 0.2500 0.1024(14) 0.081(12) Uani 1 4 d S . .
C3 C 0.2267(5) 0.2267(5) 0.0793(9) 0.131(15) Uani 1 2 d SU . .
H3 H 0.2094 0.2094 0.0923 0.157 Uiso 1 2 calc SR . .
C4 C 0.2262(5) 0.2262(5) 0.0387(9) 0.125(14) Uani 1 2 d SU . .
C5 C 0.2500 0.2500 0.0203(9) 0.070(13) Uani 1 4 d S . .
C6 C 0.191(2) 0.212(2) 0.0185(8) 0.15(5) Uani 0.50 1 d P . .
C10 C 0.3223(12) 0.1777(12) 0.1777(12) 0.20(3) Uiso 1 6 d S . .

loop_
_atom_site_aniso_label
_atom_site_aniso_U_11
_atom_site_aniso_U_22
_atom_site_aniso_U_33
_atom_site_aniso_U_23
_atom_site_aniso_U_13
_atom_site_aniso_U_12
Zn 0.041(3) 0.041(3) 0.041(3) -0.0029(14) -0.0029(14) -0.0029(14)
O1 0.014(11) 0.014(11) 0.014(11) 0.000 0.000 0.000
O2 0.082(9) 0.082(9) 0.020(10) -0.010(7) -0.010(7) -0.033(10)
C1 0.055(19) 0.055(19) 0.08(5) 0.000 0.000 -0.05(2)
C2 0.11(2) 0.11(2) 0.03(3) 0.000 0.000 -0.05(3)
C3 0.17(2) 0.17(2) 0.053(14) -0.008(15) -0.008(15) -0.13(3)
C4 0.16(2) 0.16(2) 0.046(14) -0.012(15) -0.012(15) -0.12(3)
C5 0.093(19) 0.093(19) 0.03(2) 0.000 0.000 -0.07(3)
C6 0.12(5) 0.30(12) 0.03(2) -0.01(3) 0.01(2) -0.15(8)

_geom_special_details            
; 
All esds (except the esd in the dihedral angle between two l.s. planes) 
are estimated using the full covariance matrix.  The cell esds are taken 
into account individually in the estimation of esds in distances, angles 
and torsion angles; correlations between esds in cell parameters are only 
used when they are defined by crystal symmetry.  An approximate (isotropic) 
treatment of cell esds is used for estimating esds involving l.s. planes. 
;

loop_
_geom_bond_atom_site_label_1
_geom_bond_atom_site_label_2
_geom_bond_distance
_geom_bond_site_symmetry_2
_geom_bond_publ_flag
Zn O1 1.943(4) . ?
Zn O2 1.956(17) . ?
Zn O2 1.956(17) 5 ?
Zn O2 1.956(17) 9 ?
O1 Zn 1.942(4) 74 ?
O1 Zn 1.942(4) 28 ?
O1 Zn 1.943(4) 51 ?
O2 C1 1.20(2) . ?
C1 O2 1.20(2) 74 ?
C1 C2 1.49(5) . ?
C2 C3 1.38(3) 74 ?
C2 C3 1.38(3) . ?
C3 C4 1.39(4) . ?
C4 C5 1.31(3) . ?
C4 C6 1.48(5) . ?
C4 C6 1.48(5) 110 ?
C5 C4 1.31(3) 74 ?
C5 C5 1.39(6) 169 ?
C6 C6 1.03(19) 110 ?
C6 C6 1.27(6) 98 ?
C6 C6 1.63(13) 13 ?

loop_
_geom_angle_atom_site_label_1
_geom_angle_atom_site_label_2
_geom_angle_atom_site_label_3
_geom_angle
_geom_angle_site_symmetry_1
_geom_angle_site_symmetry_3
_geom_angle_publ_flag
O1 Zn O2 109.8(5) . . ?
O1 Zn O2 109.8(5) . 5 ?
O2 Zn O2 109.1(5) . 5 ?
O1 Zn O2 109.8(5) . 9 ?
O2 Zn O2 109.1(5) . 9 ?
O2 Zn O2 109.1(5) 5 9 ?
Zn O1 Zn 109.5 74 28 ?
Zn O1 Zn 109.474(1) 74 51 ?
Zn O1 Zn 109.5 28 51 ?
Zn O1 Zn 109.5 74 . ?
Zn O1 Zn 109.5 28 . ?
Zn O1 Zn 109.5 51 . ?
C1 O2 Zn 133(3) . . ?
O2 C1 O2 124(5) 74 . ?
O2 C1 C2 118(2) 74 . ?
O2 C1 C2 118(2) . . ?
C3 C2 C3 110(4) 74 . ?
C3 C2 C1 125.0(19) 74 . ?
C3 C2 C1 125.0(19) . . ?
C2 C3 C4 126(3) . . ?
C5 C4 C3 118(3) . . ?
C5 C4 C6 119(3) . . ?
C3 C4 C6 119(3) . . ?
C5 C4 C6 119(3) . 110 ?
C3 C4 C6 119(3) . 110 ?
C6 C4 C6 41(7) . 110 ?
C4 C5 C4 123(4) 74 . ?
C4 C5 C5 118.8(19) 74 169 ?
C4 C5 C5 118.7(19) . 169 ?
C6 C6 C6 89.99(2) 110 98 ?
C6 C6 C4 70(4) 110 . ?
C6 C6 C4 118.0(18) 98 . ?
C6 C6 C6 51(5) 110 13 ?
C6 C6 C6 39(5) 98 13 ?
C4 C6 C6 98(6) . 13 ?

_diffrn_measured_fraction_theta_max 1.000
_diffrn_reflns_theta_full        17.99
_diffrn_measured_fraction_theta_full 1.000
_refine_diff_density_max         0.813
_refine_diff_density_min         -0.646
_refine_diff_density_rms         0.252
