####################################################################### 
# 
# This file contains crystal structure data downloaded from the 
# Cambridge Structural Database (CSD) hosted by the Cambridge 
# Crystallographic Data Centre (CCDC).
# 
# Full information about CCDC data access policies and citation 
# guidelines are available at http://www.ccdc.cam.ac.uk/access/V1 
# 
# Audit and citation data items may have been added by the CCDC. 
# Please retain this information to preserve the provenance of 
# this file and to allow appropriate attribution of the data. 
# 
#######################################################################

data_IRMOF-14
_audit_block_doi                 10.5517/cc5wpzp
_database_code_depnum_ccdc_archive 'CCDC 175583'
loop_
_citation_id
_citation_doi
_citation_year
1 10.1126/science.1067208 2002
_audit_update_record             
;
2001-12-04 deposited with the CCDC.	2024-07-10 downloaded from the CCDC.
;

_audit_creation_method           SHELXL-97
_chemical_name_systematic        
; 
? 
;
_chemical_name_common            ?
_chemical_melting_point          ?
_chemical_formula_moiety         ?
_chemical_formula_sum            'C84 H100 N6 O24 Zn4'
_chemical_formula_weight         1839.18

loop_
_atom_type_symbol
_atom_type_description
_atom_type_scat_dispersion_real
_atom_type_scat_dispersion_imag
_atom_type_scat_source
C C 0.0033 0.0016 'International Tables Vol C Tables 4.2.6.8 and 6.1.1.4'
H H 0.0000 0.0000 'International Tables Vol C Tables 4.2.6.8 and 6.1.1.4'
N N 0.0061 0.0033 'International Tables Vol C Tables 4.2.6.8 and 6.1.1.4'
O O 0.0106 0.0060 'International Tables Vol C Tables 4.2.6.8 and 6.1.1.4'
Zn Zn 0.2839 1.4301 'International Tables Vol C Tables 4.2.6.8 and 6.1.1.4'

_symmetry_cell_setting           cubic
_symmetry_space_group_name_H-M   Fm(-3)m

loop_
_symmetry_equiv_pos_as_xyz
'x, y, z'
'-x, -y, z'
'-x, y, -z'
'x, -y, -z'
'z, x, y'
'z, -x, -y'
'-z, -x, y'
'-z, x, -y'
'y, z, x'
'-y, z, -x'
'y, -z, -x'
'-y, -z, x'
'y, x, -z'
'-y, -x, -z'
'y, -x, z'
'-y, x, z'
'x, z, -y'
'-x, z, y'
'-x, -z, -y'
'x, -z, y'
'z, y, -x'
'z, -y, x'
'-z, y, x'
'-z, -y, -x'
'x, y+1/2, z+1/2'
'-x, -y+1/2, z+1/2'
'-x, y+1/2, -z+1/2'
'x, -y+1/2, -z+1/2'
'z, x+1/2, y+1/2'
'z, -x+1/2, -y+1/2'
'-z, -x+1/2, y+1/2'
'-z, x+1/2, -y+1/2'
'y, z+1/2, x+1/2'
'-y, z+1/2, -x+1/2'
'y, -z+1/2, -x+1/2'
'-y, -z+1/2, x+1/2'
'y, x+1/2, -z+1/2'
'-y, -x+1/2, -z+1/2'
'y, -x+1/2, z+1/2'
'-y, x+1/2, z+1/2'
'x, z+1/2, -y+1/2'
'-x, z+1/2, y+1/2'
'-x, -z+1/2, -y+1/2'
'x, -z+1/2, y+1/2'
'z, y+1/2, -x+1/2'
'z, -y+1/2, x+1/2'
'-z, y+1/2, x+1/2'
'-z, -y+1/2, -x+1/2'
'x+1/2, y, z+1/2'
'-x+1/2, -y, z+1/2'
'-x+1/2, y, -z+1/2'
'x+1/2, -y, -z+1/2'
'z+1/2, x, y+1/2'
'z+1/2, -x, -y+1/2'
'-z+1/2, -x, y+1/2'
'-z+1/2, x, -y+1/2'
'y+1/2, z, x+1/2'
'-y+1/2, z, -x+1/2'
'y+1/2, -z, -x+1/2'
'-y+1/2, -z, x+1/2'
'y+1/2, x, -z+1/2'
'-y+1/2, -x, -z+1/2'
'y+1/2, -x, z+1/2'
'-y+1/2, x, z+1/2'
'x+1/2, z, -y+1/2'
'-x+1/2, z, y+1/2'
'-x+1/2, -z, -y+1/2'
'x+1/2, -z, y+1/2'
'z+1/2, y, -x+1/2'
'z+1/2, -y, x+1/2'
'-z+1/2, y, x+1/2'
'-z+1/2, -y, -x+1/2'
'x+1/2, y+1/2, z'
'-x+1/2, -y+1/2, z'
'-x+1/2, y+1/2, -z'
'x+1/2, -y+1/2, -z'
'z+1/2, x+1/2, y'
'z+1/2, -x+1/2, -y'
'-z+1/2, -x+1/2, y'
'-z+1/2, x+1/2, -y'
'y+1/2, z+1/2, x'
'-y+1/2, z+1/2, -x'
'y+1/2, -z+1/2, -x'
'-y+1/2, -z+1/2, x'
'y+1/2, x+1/2, -z'
'-y+1/2, -x+1/2, -z'
'y+1/2, -x+1/2, z'
'-y+1/2, x+1/2, z'
'x+1/2, z+1/2, -y'
'-x+1/2, z+1/2, y'
'-x+1/2, -z+1/2, -y'
'x+1/2, -z+1/2, y'
'z+1/2, y+1/2, -x'
'z+1/2, -y+1/2, x'
'-z+1/2, y+1/2, x'
'-z+1/2, -y+1/2, -x'
'-x, -y, -z'
'x, y, -z'
'x, -y, z'
'-x, y, z'
'-z, -x, -y'
'-z, x, y'
'z, x, -y'
'z, -x, y'
'-y, -z, -x'
'y, -z, x'
'-y, z, x'
'y, z, -x'
'-y, -x, z'
'y, x, z'
'-y, x, -z'
'y, -x, -z'
'-x, -z, y'
'x, -z, -y'
'x, z, y'
'-x, z, -y'
'-z, -y, x'
'-z, y, -x'
'z, -y, -x'
'z, y, x'
'-x, -y+1/2, -z+1/2'
'x, y+1/2, -z+1/2'
'x, -y+1/2, z+1/2'
'-x, y+1/2, z+1/2'
'-z, -x+1/2, -y+1/2'
'-z, x+1/2, y+1/2'
'z, x+1/2, -y+1/2'
'z, -x+1/2, y+1/2'
'-y, -z+1/2, -x+1/2'
'y, -z+1/2, x+1/2'
'-y, z+1/2, x+1/2'
'y, z+1/2, -x+1/2'
'-y, -x+1/2, z+1/2'
'y, x+1/2, z+1/2'
'-y, x+1/2, -z+1/2'
'y, -x+1/2, -z+1/2'
'-x, -z+1/2, y+1/2'
'x, -z+1/2, -y+1/2'
'x, z+1/2, y+1/2'
'-x, z+1/2, -y+1/2'
'-z, -y+1/2, x+1/2'
'-z, y+1/2, -x+1/2'
'z, -y+1/2, -x+1/2'
'z, y+1/2, x+1/2'
'-x+1/2, -y, -z+1/2'
'x+1/2, y, -z+1/2'
'x+1/2, -y, z+1/2'
'-x+1/2, y, z+1/2'
'-z+1/2, -x, -y+1/2'
'-z+1/2, x, y+1/2'
'z+1/2, x, -y+1/2'
'z+1/2, -x, y+1/2'
'-y+1/2, -z, -x+1/2'
'y+1/2, -z, x+1/2'
'-y+1/2, z, x+1/2'
'y+1/2, z, -x+1/2'
'-y+1/2, -x, z+1/2'
'y+1/2, x, z+1/2'
'-y+1/2, x, -z+1/2'
'y+1/2, -x, -z+1/2'
'-x+1/2, -z, y+1/2'
'x+1/2, -z, -y+1/2'
'x+1/2, z, y+1/2'
'-x+1/2, z, -y+1/2'
'-z+1/2, -y, x+1/2'
'-z+1/2, y, -x+1/2'
'z+1/2, -y, -x+1/2'
'z+1/2, y, x+1/2'
'-x+1/2, -y+1/2, -z'
'x+1/2, y+1/2, -z'
'x+1/2, -y+1/2, z'
'-x+1/2, y+1/2, z'
'-z+1/2, -x+1/2, -y'
'-z+1/2, x+1/2, y'
'z+1/2, x+1/2, -y'
'z+1/2, -x+1/2, y'
'-y+1/2, -z+1/2, -x'
'y+1/2, -z+1/2, x'
'-y+1/2, z+1/2, x'
'y+1/2, z+1/2, -x'
'-y+1/2, -x+1/2, z'
'y+1/2, x+1/2, z'
'-y+1/2, x+1/2, -z'
'y+1/2, -x+1/2, -z'
'-x+1/2, -z+1/2, y'
'x+1/2, -z+1/2, -y'
'x+1/2, z+1/2, y'
'-x+1/2, z+1/2, -y'
'-z+1/2, -y+1/2, x'
'-z+1/2, y+1/2, -x'
'z+1/2, -y+1/2, -x'
'z+1/2, y+1/2, x'

_cell_length_a                   34.381(13)
_cell_length_b                   34.381(13)
_cell_length_c                   34.381(13)
_cell_angle_alpha                90.00
_cell_angle_beta                 90.00
_cell_angle_gamma                90.00
_cell_volume                     40642(26)
_cell_formula_units_Z            8
_cell_measurement_temperature    258(2)
_cell_measurement_reflns_used    501
_cell_measurement_theta_min      2.37
_cell_measurement_theta_max      15.26

_exptl_crystal_description       block
_exptl_crystal_colour            'pale yellow'
_exptl_crystal_size_max          .15
_exptl_crystal_size_mid          .08
_exptl_crystal_size_min          .08
_exptl_crystal_density_meas      ?
_exptl_crystal_density_diffrn    0.601
_exptl_crystal_density_method    'not measured'
_exptl_crystal_F_000             7664
_exptl_absorpt_coefficient_mu    0.499
_exptl_absorpt_correction_type   ?
_exptl_absorpt_correction_T_min  ?
_exptl_absorpt_correction_T_max  ?
_exptl_absorpt_process_details   ?

_exptl_special_details           
; 
? 
;

_diffrn_ambient_temperature      258(2)
_diffrn_radiation_wavelength     0.71073
_diffrn_radiation_type           MoK\a
_diffrn_radiation_source         'fine-focus sealed tube'
_diffrn_radiation_monochromator  graphite
_diffrn_measurement_device_type  ?
_diffrn_measurement_method       ?
_diffrn_detector_area_resol_mean ?
_diffrn_standards_number         ?
_diffrn_standards_interval_count ?
_diffrn_standards_interval_time  ?
_diffrn_standards_decay_%        ?
_diffrn_reflns_number            24827
_diffrn_reflns_av_R_equivalents  0.2800
_diffrn_reflns_av_sigmaI/netI    0.1728
_diffrn_reflns_limit_h_min       -34
_diffrn_reflns_limit_h_max       34
_diffrn_reflns_limit_k_min       -28
_diffrn_reflns_limit_k_max       34
_diffrn_reflns_limit_l_min       -34
_diffrn_reflns_limit_l_max       34
_diffrn_reflns_theta_min         1.18
_diffrn_reflns_theta_max         20.79
_reflns_number_total             1125
_reflns_number_gt                600
_reflns_threshold_expression     >2sigma(I)

_computing_data_collection       ?
_computing_cell_refinement       ?
_computing_data_reduction        ?
_computing_structure_solution    'SHELXS-97 (Sheldrick, 1990)'
_computing_structure_refinement  'SHELXL-97 (Sheldrick, 1997)'
_computing_molecular_graphics    ?
_computing_publication_material  ?

_refine_special_details          
; 
Refinement of F^2^ against ALL reflections.  The weighted R-factor wR and 
goodness of fit S are based on F^2^, conventional R-factors R are based 
on F, with F set to zero for negative F^2^. The threshold expression of 
F^2^ > 2sigma(F^2^) is used only for calculating R-factors(gt) etc. and is 
not relevant to the choice of reflections for refinement.  R-factors based 
on F^2^ are statistically about twice as large as those based on F, and R- 
factors based on ALL data will be even larger. 
;

_refine_ls_structure_factor_coef Fsqd
_refine_ls_matrix_type           full
_refine_ls_weighting_scheme      calc
_refine_ls_weighting_details     
'calc w=1/[\s^2^(Fo^2^)+(0.2000P)^2^+0.0000P] where P=(Fo^2^+2Fc^2^)/3'
_atom_sites_solution_primary     direct
_atom_sites_solution_secondary   difmap
_atom_sites_solution_hydrogens   geom
_refine_ls_hydrogen_treatment    mixed
_refine_ls_extinction_method     SHELXL
_refine_ls_extinction_coef       0.0039(10)
_refine_ls_extinction_expression Fc^*^=kFc[1+0.001xFc^2^\l^3^/sin(2\q)]^-1/4^
_refine_ls_number_reflns         1125
_refine_ls_number_parameters     61
_refine_ls_number_restraints     4
_refine_ls_R_factor_all          0.3066
_refine_ls_R_factor_gt           0.1914
_refine_ls_wR_factor_ref         0.4928
_refine_ls_wR_factor_gt          0.4441
_refine_ls_goodness_of_fit_ref   1.567
_refine_ls_restrained_S_all      1.564
_refine_ls_shift/su_max          0.997
_refine_ls_shift/su_mean         0.116

loop_
_atom_site_label
_atom_site_type_symbol
_atom_site_fract_x
_atom_site_fract_y
_atom_site_fract_z
_atom_site_U_iso_or_equiv
_atom_site_adp_type
_atom_site_occupancy
_atom_site_symmetry_multiplicity
_atom_site_calc_flag
_atom_site_refinement_flags
_atom_site_disorder_assembly
_atom_site_disorder_group
Zn Zn 0.28275(7) 0.28275(7) 0.21725(7) 0.052(3) Uani 1 6 d S . .
O1C O 0.2500 0.2500 0.2500 0.035(13) Uani 1 24 d S . .
O1 O 0.2725(4) 0.2725(4) 0.1613(6) 0.096(7) Uani 1 2 d S . .
C2 C 0.2500 0.2500 0.1048(10) 0.092(15) Uani 1 4 d SD . .
C1 C 0.2500 0.2500 0.1437(18) 0.16(4) Uani 1 4 d S . .
C3 C 0.2255(5) 0.2255(5) 0.0835(6) 0.119(14) Uani 1 2 d SD . .
H3A H 0.2086 0.2086 0.0962 0.143 Uiso 1 2 calc SR . .
C4 C 0.2267(5) 0.2267(5) 0.0428(6) 0.141(17) Uani 1 2 d SD . .
C5 C 0.2500 0.2500 0.0192(8) 0.091(15) Uani 1 4 d SD . .
C6 C 0.2028(6) 0.2028(6) 0.0203(10) 0.34(4) Uani 1 2 d SD . .
H6A H 0.1859 0.1859 0.0331 0.412 Uiso 1 2 calc SR . .
C1G C 0.373(3) 0.0517(15) 0.0517(15) 0.52(7) Uani 1 2 d S . .
C2G C 0.050(3) 0.050(3) 0.050(3) 0.40(10) Uani 1 6 d S . .
C3G C 0.0000 0.0000 0.0000 0.4(2) Uani 1 48 d S . .
C4G C 0.1135(9) 0.1135(9) 0.0518(11) 0.148(15) Uani 1 2 d S . .
C5G C 0.3833(9) 0.1167(9) 0.1167(9) 0.16(3) Uani 1 6 d S . .

loop_
_atom_site_aniso_label
_atom_site_aniso_U_11
_atom_site_aniso_U_22
_atom_site_aniso_U_33
_atom_site_aniso_U_23
_atom_site_aniso_U_13
_atom_site_aniso_U_12
Zn 0.052(3) 0.052(3) 0.052(3) 0.0045(16) 0.0045(16) -0.0045(16)
O1C 0.035(13) 0.035(13) 0.035(13) 0.000 0.000 0.000
O1 0.106(11) 0.106(11) 0.076(15) 0.021(10) 0.021(10) -0.015(13)
C2 0.13(3) 0.13(3) 0.02(2) 0.000 0.000 -0.04(3)
C1 0.18(5) 0.18(5) 0.11(6) 0.000 0.000 -0.14(6)
C3 0.16(2) 0.16(2) 0.036(19) -0.006(12) -0.006(12) -0.08(3)
C4 0.19(3) 0.19(3) 0.04(2) -0.011(12) -0.011(12) -0.12(3)
C5 0.13(2) 0.13(2) 0.016(18) 0.000 0.000 -0.07(3)
C6 0.48(7) 0.48(7) 0.07(3) 0.013(18) 0.013(18) -0.36(8)
C1G 1.0(2) 0.27(5) 0.27(5) 0.09(6) -0.32(8) -0.32(8)
C2G 0.40(10) 0.40(10) 0.40(10) 0.30(11) 0.30(11) 0.30(11)
C3G 0.4(2) 0.4(2) 0.4(2) 0.000 0.000 0.000
C4G 0.16(2) 0.16(2) 0.12(3) 0.03(2) 0.03(2) 0.05(3)
C5G 0.16(3) 0.16(3) 0.16(3) -0.05(2) 0.05(2) 0.05(2)

_geom_special_details            
; 
All esds (except the esd in the dihedral angle between two l.s. planes) 
are estimated using the full covariance matrix.  The cell esds are taken 
into account individually in the estimation of esds in distances, angles 
and torsion angles; correlations between esds in cell parameters are only 
used when they are defined by crystal symmetry.  An approximate (isotropic) 
treatment of cell esds is used for estimating esds involving l.s. planes. 
;

loop_
_geom_bond_atom_site_label_1
_geom_bond_atom_site_label_2
_geom_bond_distance
_geom_bond_site_symmetry_2
_geom_bond_publ_flag
Zn O1C 1.950(4) . ?
Zn O1 1.99(2) . ?
Zn O1 1.99(2) 35 ?
Zn O1 1.99(2) 56 ?
O1C Zn 1.950(4) 74 ?
O1C Zn 1.950(4) 28 ?
O1C Zn 1.950(4) 51 ?
O1 C1 1.25(3) . ?
C2 C1 1.34(6) . ?
C2 C3 1.398(10) 74 ?
C2 C3 1.398(10) . ?
C1 O1 1.25(3) 74 ?
C3 C4 1.401(10) . ?
C4 C5 1.393(10) . ?
C4 C6 1.397(10) . ?
C5 C5 1.32(6) 169 ?
C5 C4 1.393(10) 74 ?
C6 C6 1.40(7) 98 ?

loop_
_geom_angle_atom_site_label_1
_geom_angle_atom_site_label_2
_geom_angle_atom_site_label_3
_geom_angle
_geom_angle_site_symmetry_1
_geom_angle_site_symmetry_3
_geom_angle_publ_flag
O1C Zn O1 110.7(6) . . ?
O1C Zn O1 110.7(6) . 35 ?
O1 Zn O1 108.2(6) . 35 ?
O1C Zn O1 110.7(6) . 56 ?
O1 Zn O1 108.2(6) . 56 ?
O1 Zn O1 108.2(6) 35 56 ?
Zn O1C Zn 109.5 74 28 ?
Zn O1C Zn 109.5 74 51 ?
Zn O1C Zn 109.5 28 51 ?
Zn O1C Zn 109.5 74 . ?
Zn O1C Zn 109.472(1) 28 . ?
Zn O1C Zn 109.471(1) 51 . ?
C1 O1 Zn 134(3) . . ?
C1 C2 C3 121.5(17) . 74 ?
C1 C2 C3 121.5(17) . . ?
C3 C2 C3 117(3) 74 . ?
O1 C1 O1 122(6) . 74 ?
O1 C1 C2 119(3) . . ?
O1 C1 C2 119(3) 74 . ?
C2 C3 C4 119(3) . . ?
C5 C4 C6 111(2) . . ?
C5 C4 C3 128(3) . . ?
C6 C4 C3 121(2) . . ?
C5 C5 C4 125.6(15) 169 74 ?
C5 C5 C4 125.6(15) 169 . ?
C4 C5 C4 109(3) 74 . ?
C4 C6 C6 123.7(17) . 98 ?

_diffrn_measured_fraction_theta_max 0.999
_diffrn_reflns_theta_full        20.79
_diffrn_measured_fraction_theta_full 0.999
_refine_diff_density_max         1.282
_refine_diff_density_min         -0.750
_refine_diff_density_rms         0.269
