####################################################################### 
# 
# This file contains crystal structure data downloaded from the 
# Cambridge Structural Database (CSD) hosted by the Cambridge 
# Crystallographic Data Centre (CCDC).
# 
# Full information about CCDC data access policies and citation 
# guidelines are available at http://www.ccdc.cam.ac.uk/access/V1 
# 
# Audit and citation data items may have been added by the CCDC. 
# Please retain this information to preserve the provenance of 
# this file and to allow appropriate attribution of the data. 
# 
#######################################################################

data_1
_audit_block_doi                 10.5517/ccpss7g
_database_code_depnum_ccdc_archive 'CCDC 649426'
loop_
_citation_id
_citation_doi
_citation_year
1 10.1016/j.ica.2007.09.035 2008
_audit_update_record             
;
2007-06-03 deposited with the CCDC.	2024-07-10 downloaded from the CCDC.
;

_audit_creation_method           SHELXL-97
_chemical_name_systematic        
;
?
;
_chemical_name_common            ?
_chemical_melting_point          ?
_chemical_formula_moiety         ?
_chemical_formula_sum            'C26 H26 Cu N4 O6'
_chemical_formula_weight         554.05

loop_
_atom_type_symbol
_atom_type_description
_atom_type_scat_dispersion_real
_atom_type_scat_dispersion_imag
_atom_type_scat_source
C C 0.0033 0.0016 'International Tables Vol C Tables 4.2.6.8 and 6.1.1.4'
H H 0.0000 0.0000 'International Tables Vol C Tables 4.2.6.8 and 6.1.1.4'
N N 0.0061 0.0033 'International Tables Vol C Tables 4.2.6.8 and 6.1.1.4'
O O 0.0106 0.0060 'International Tables Vol C Tables 4.2.6.8 and 6.1.1.4'
Cu Cu 0.3201 1.2651 'International Tables Vol C Tables 4.2.6.8 and 6.1.1.4'

_symmetry_cell_setting           Monoclinic
_symmetry_space_group_name_H-M   P2(1)/c

loop_
_symmetry_equiv_pos_as_xyz
'x, y, z'
'-x, y+1/2, -z+1/2'
'-x, -y, -z'
'x, -y-1/2, z-1/2'

_cell_length_a                   12.981(3)
_cell_length_b                   17.089(3)
_cell_length_c                   13.206(3)
_cell_angle_alpha                90.00
_cell_angle_beta                 115.63(3)
_cell_angle_gamma                90.00
_cell_volume                     2641.3(12)
_cell_formula_units_Z            4
_cell_measurement_temperature    293(2)
_cell_measurement_reflns_used    ?
_cell_measurement_theta_min      ?
_cell_measurement_theta_max      ?

_exptl_crystal_description       Block
_exptl_crystal_colour            Green
_exptl_crystal_size_max          0.22
_exptl_crystal_size_mid          0.18
_exptl_crystal_size_min          0.12
_exptl_crystal_density_meas      ?
_exptl_crystal_density_diffrn    1.393
_exptl_crystal_density_method    'not measured'
_exptl_crystal_F_000             1148
_exptl_absorpt_coefficient_mu    0.874
_exptl_absorpt_correction_type   Multi-Scan
_exptl_absorpt_correction_T_min  0.7148
_exptl_absorpt_correction_T_max  0.8861
_exptl_absorpt_process_details   
;
Higashi, T. (1995). Program for Absorption Correction.
Rigaku Corporation, Tokyo, Japan.
;

_exptl_special_details           
;
?
;

_diffrn_ambient_temperature      293(2)
_diffrn_radiation_wavelength     0.71073
_diffrn_radiation_type           MoK\a
_diffrn_radiation_source         'fine-focus sealed tube'
_diffrn_radiation_monochromator  graphite
_diffrn_measurement_device_type  'Rigaku RAXIS-RAPID'
_diffrn_measurement_method       \w
_diffrn_detector_area_resol_mean ?
_diffrn_standards_number         ?
_diffrn_standards_interval_count ?
_diffrn_standards_interval_time  ?
_diffrn_standards_decay_%        ?
_diffrn_reflns_number            18655
_diffrn_reflns_av_R_equivalents  0.1360
_diffrn_reflns_av_sigmaI/netI    0.1192
_diffrn_reflns_limit_h_min       -15
_diffrn_reflns_limit_h_max       15
_diffrn_reflns_limit_k_min       -19
_diffrn_reflns_limit_k_max       20
_diffrn_reflns_limit_l_min       -15
_diffrn_reflns_limit_l_max       15
_diffrn_reflns_theta_min         3.01
_diffrn_reflns_theta_max         25.01
_reflns_number_total             4607
_reflns_number_gt                2536
_reflns_threshold_expression     >2sigma(I)

_computing_data_collection       ?
_computing_cell_refinement       ?
_computing_data_reduction        ?
_computing_structure_solution    'SHELXS-97 (Sheldrick, 1990)'
_computing_structure_refinement  'SHELXL-97 (Sheldrick, 1997)'
_computing_molecular_graphics    ?
_computing_publication_material  ?

_refine_special_details          
;
Refinement of F^2^ against ALL reflections. The weighted R-factor wR and
goodness of fit S are based on F^2^, conventional R-factors R are based
on F, with F set to zero for negative F^2^. The threshold expression of
F^2^ > 2sigma(F^2^) is used only for calculating R-factors(gt) etc. and is
not relevant to the choice of reflections for refinement. R-factors based
on F^2^ are statistically about twice as large as those based on F, and R-
factors based on ALL data will be even larger.
;

_refine_ls_structure_factor_coef Fsqd
_refine_ls_matrix_type           full
_refine_ls_weighting_scheme      calc
_refine_ls_weighting_details     
'calc w=1/[\s^2^(Fo^2^)+(0.0957P)^2^+0.0000P] where P=(Fo^2^+2Fc^2^)/3'
_atom_sites_solution_primary     direct
_atom_sites_solution_secondary   difmap
_atom_sites_solution_hydrogens   geom
_refine_ls_hydrogen_treatment    constr
_refine_ls_extinction_method     none
_refine_ls_extinction_coef       ?
_refine_ls_number_reflns         4607
_refine_ls_number_parameters     284
_refine_ls_number_restraints     15
_refine_ls_R_factor_all          0.1407
_refine_ls_R_factor_gt           0.0694
_refine_ls_wR_factor_ref         0.1912
_refine_ls_wR_factor_gt          0.1562
_refine_ls_goodness_of_fit_ref   0.998
_refine_ls_restrained_S_all      1.017
_refine_ls_shift/su_max          0.001
_refine_ls_shift/su_mean         0.000

loop_
_atom_site_label
_atom_site_type_symbol
_atom_site_fract_x
_atom_site_fract_y
_atom_site_fract_z
_atom_site_U_iso_or_equiv
_atom_site_adp_type
_atom_site_occupancy
_atom_site_symmetry_multiplicity
_atom_site_calc_flag
_atom_site_refinement_flags
_atom_site_disorder_assembly
_atom_site_disorder_group
C1 C -0.0471(5) 0.7129(3) 0.6034(5) 0.0353(15) Uani 1 1 d . . .
C2 C -0.0884(6) 0.7733(4) 0.5287(5) 0.0436(16) Uani 1 1 d . . .
H2 H -0.1099 0.7645 0.4527 0.052 Uiso 1 1 calc R . .
C3 C -0.1408(8) 0.9138(4) 0.4937(6) 0.071(3) Uani 1 1 d . . .
H3 H -0.1624 0.9073 0.4173 0.085 Uiso 1 1 calc R . .
C4 C -0.1505(9) 0.9840(4) 0.5331(6) 0.084(3) Uani 1 1 d . . .
H4 H -0.1820 1.0260 0.4846 0.100 Uiso 1 1 calc R . .
C5 C -0.1117(7) 0.9930(4) 0.6500(6) 0.059(2) Uani 1 1 d . . .
H5 H -0.1169 1.0424 0.6770 0.071 Uiso 1 1 calc R . .
C6 C -0.0197(6) 0.7995(3) 0.7574(5) 0.0421(17) Uani 1 1 d . . .
H6 H 0.0037 0.8077 0.8338 0.051 Uiso 1 1 calc R . .
C7 C -0.0129(6) 0.7266(3) 0.7179(5) 0.0430(17) Uani 1 1 d . . .
H7 H 0.0151 0.6852 0.7683 0.052 Uiso 1 1 calc R . .
C8 C -0.0985(6) 0.8497(3) 0.5664(5) 0.0422(17) Uani 1 1 d . . .
C9 C -0.0622(5) 0.8620(3) 0.6814(5) 0.0344(14) Uani 1 1 d . . .
C10 C -0.0349(5) 0.6340(3) 0.5621(5) 0.0336(14) Uani 1 1 d . . .
C11 C 0.3348(6) 0.9550(4) 1.1049(6) 0.0477(17) Uani 1 1 d . . .
C12 C 0.3760(6) 0.9221(4) 1.0360(6) 0.0565(19) Uani 1 1 d . . .
H12 H 0.3252 0.9060 0.9644 0.068 Uiso 1 1 calc R . .
C13 C 0.5424(7) 0.8795(5) 1.0010(7) 0.070(2) Uani 1 1 d . . .
H13 H 0.4959 0.8603 0.9298 0.084 Uiso 1 1 calc R . .
C14 C 0.6590(8) 0.8778(6) 1.0433(9) 0.079(3) Uani 1 1 d . . .
H14 H 0.6929 0.8570 0.9999 0.095 Uiso 1 1 calc R . .
C15 C 0.7270(8) 0.9062(6) 1.1486(8) 0.081(3) Uani 1 1 d . . .
H15 H 0.8058 0.9036 1.1737 0.097 Uiso 1 1 calc R . .
C16 C 0.5268(7) 0.9714(6) 1.2483(7) 0.075(3) Uani 1 1 d . . .
H16 H 0.5761 0.9882 1.3200 0.090 Uiso 1 1 calc R . .
C17 C 0.4119(7) 0.9785(5) 1.2124(7) 0.065(2) Uani 1 1 d . . .
H17 H 0.3840 0.9996 1.2606 0.078 Uiso 1 1 calc R . .
C18 C 0.4960(6) 0.9120(5) 1.0714(6) 0.0569(19) Uani 1 1 d . . .
C19 C 0.5712(7) 0.9390(5) 1.1783(7) 0.060(2) Uani 1 1 d . . .
C20 C 0.2098(5) 0.9672(4) 1.0660(5) 0.0397(15) Uani 1 1 d . . .
Cu1 Cu -0.02175(6) 0.96984(4) 0.89857(6) 0.0310(3) Uani 1 1 d . . .
N1 N -0.0686(5) 0.9361(3) 0.7233(4) 0.0385(13) Uani 1 1 d . . .
N2 N 0.6876(6) 0.9368(5) 1.2163(6) 0.080(2) Uani 1 1 d . . .
O1 O -0.0471(4) 0.6272(2) 0.4623(4) 0.0471(12) Uani 1 1 d . . .
O2 O -0.0094(4) 0.5779(2) 0.6314(4) 0.0441(11) Uani 1 1 d . . .
O3 O 0.1436(4) 0.9480(3) 0.9656(4) 0.0513(12) Uani 1 1 d . . .
O4 O 0.1785(4) 0.9983(3) 1.1344(4) 0.0484(12) Uani 1 1 d . . .
O5 O 0.1628(6) 0.8205(4) 0.4915(7) 0.107(2) Uiso 1 1 d D . .
N3 N 0.2270(6) 0.7820(4) 0.6720(6) 0.077(2) Uiso 1 1 d D . .
C21 C 0.1937(8) 0.7680(5) 0.5609(7) 0.088(3) Uiso 1 1 d D . .
C22 C 0.2302(9) 0.8587(5) 0.7112(9) 0.097(3) Uiso 1 1 d D . .
N4 N 0.4243(11) 0.1792(7) 0.3607(11) 0.151(4) Uiso 1 1 d D . .
C23 C 0.2674(10) 0.7190(6) 0.7487(9) 0.111(4) Uiso 1 1 d D . .
C25 C 0.433(2) 0.1410(18) 0.4562(17) 0.316(14) Uiso 1 1 d D . .
C26 C 0.3129(13) 0.1901(17) 0.2776(18) 0.295(13) Uiso 1 1 d D . .
C24 C 0.5099(15) 0.1918(18) 0.327(2) 0.307(14) Uiso 1 1 d D . .
O6 O 0.4731(18) 0.2217(14) 0.2320(18) 0.345(11) Uiso 1 1 d D . .

loop_
_atom_site_aniso_label
_atom_site_aniso_U_11
_atom_site_aniso_U_22
_atom_site_aniso_U_33
_atom_site_aniso_U_23
_atom_site_aniso_U_13
_atom_site_aniso_U_12
C1 0.049(4) 0.028(3) 0.031(4) -0.001(3) 0.019(3) 0.003(3)
C2 0.065(5) 0.036(3) 0.030(4) -0.008(3) 0.020(3) -0.002(3)
C3 0.131(8) 0.040(4) 0.024(4) 0.000(3) 0.018(5) 0.011(5)
C4 0.156(9) 0.038(5) 0.031(4) 0.007(3) 0.017(5) 0.032(5)
C5 0.087(6) 0.037(4) 0.040(4) -0.002(3) 0.015(4) 0.012(4)
C6 0.067(5) 0.030(3) 0.027(4) -0.003(3) 0.018(3) 0.007(3)
C7 0.065(5) 0.028(3) 0.039(4) 0.004(3) 0.025(4) 0.004(3)
C8 0.070(5) 0.025(3) 0.031(4) 0.001(3) 0.021(4) 0.007(3)
C9 0.043(4) 0.029(3) 0.032(4) -0.003(3) 0.016(3) -0.002(3)
C10 0.035(4) 0.036(3) 0.031(4) 0.000(3) 0.015(3) 0.000(3)
C11 0.047(4) 0.055(4) 0.042(4) -0.001(3) 0.020(4) 0.008(3)
C12 0.045(5) 0.068(5) 0.050(5) -0.006(4) 0.014(4) -0.001(4)
C13 0.067(6) 0.094(6) 0.054(5) -0.004(4) 0.032(5) 0.010(5)
C14 0.061(6) 0.108(8) 0.082(7) -0.002(5) 0.044(6) 0.020(5)
C15 0.050(5) 0.127(8) 0.065(6) 0.015(6) 0.024(5) 0.023(5)
C16 0.051(5) 0.124(8) 0.043(5) -0.009(5) 0.015(4) 0.004(5)
C17 0.049(5) 0.095(6) 0.050(5) -0.013(4) 0.022(4) 0.006(4)
C18 0.051(5) 0.073(5) 0.047(5) 0.002(4) 0.022(4) 0.005(4)
C19 0.049(5) 0.080(5) 0.052(5) 0.012(4) 0.022(4) 0.009(4)
C20 0.042(4) 0.032(3) 0.041(4) 0.008(3) 0.015(3) 0.004(3)
Cu1 0.0409(4) 0.0242(4) 0.0282(4) 0.0007(3) 0.0151(3) 0.0003(4)
N1 0.053(4) 0.025(2) 0.033(3) -0.001(2) 0.014(3) 0.008(2)
N2 0.048(4) 0.129(7) 0.059(5) 0.013(4) 0.019(4) 0.012(4)
O1 0.082(4) 0.028(2) 0.038(3) 0.0025(18) 0.032(3) 0.009(2)
O2 0.068(3) 0.032(2) 0.034(3) 0.004(2) 0.024(2) 0.008(2)
O3 0.040(3) 0.061(3) 0.051(3) -0.008(2) 0.018(3) 0.007(2)
O4 0.039(3) 0.059(3) 0.045(3) -0.001(2) 0.016(2) 0.002(2)

_geom_special_details            
;
All esds (except the esd in the dihedral angle between two l.s. planes)
are estimated using the full covariance matrix. The cell esds are taken
into account individually in the estimation of esds in distances, angles
and torsion angles; correlations between esds in cell parameters are only
used when they are defined by crystal symmetry. An approximate (isotropic)
treatment of cell esds is used for estimating esds involving l.s. planes.
;

loop_
_geom_bond_atom_site_label_1
_geom_bond_atom_site_label_2
_geom_bond_distance
_geom_bond_site_symmetry_2
_geom_bond_publ_flag
C1 C2 1.367(8) . ?
C1 C7 1.399(8) . ?
C1 C10 1.489(8) . ?
C2 C8 1.423(8) . ?
C3 C4 1.336(9) . ?
C3 C8 1.402(9) . ?
C4 C5 1.409(10) . ?
C5 N1 1.315(8) . ?
C6 C7 1.369(8) . ?
C6 C9 1.405(8) . ?
C8 C9 1.397(8) . ?
C9 N1 1.398(7) . ?
C10 O1 1.263(7) . ?
C10 O2 1.266(7) . ?
C11 C12 1.360(9) . ?
C11 C17 1.396(10) . ?
C11 C20 1.489(9) . ?
C12 C18 1.430(10) . ?
C13 C14 1.368(11) . ?
C13 C18 1.421(10) . ?
C14 C15 1.374(12) . ?
C15 N2 1.315(10) . ?
C16 C17 1.361(10) . ?
C16 C19 1.399(10) . ?
C18 C19 1.403(11) . ?
C19 N2 1.372(9) . ?
C20 O4 1.258(7) . ?
C20 O3 1.272(8) . ?
Cu1 O1 1.951(4) 4_576 ?
Cu1 O4 1.964(4) 3_577 ?
Cu1 O2 1.966(4) 2_556 ?
Cu1 O3 1.972(5) . ?
Cu1 N1 2.201(5) . ?
Cu1 Cu1 2.6925(15) 3_577 ?
O1 Cu1 1.951(4) 4_575 ?
O2 Cu1 1.966(4) 2_546 ?
O4 Cu1 1.964(4) 3_577 ?
O5 C21 1.220(7) . ?
N3 C21 1.360(7) . ?
N3 C22 1.403(7) . ?
N3 C23 1.415(8) . ?
N4 C25 1.38(3) . ?
N4 C24 1.38(3) . ?
N4 C26 1.40(3) . ?
C24 O6 1.24(3) . ?

loop_
_geom_angle_atom_site_label_1
_geom_angle_atom_site_label_2
_geom_angle_atom_site_label_3
_geom_angle
_geom_angle_site_symmetry_1
_geom_angle_site_symmetry_3
_geom_angle_publ_flag
C2 C1 C7 119.7(5) . . ?
C2 C1 C10 119.4(5) . . ?
C7 C1 C10 120.9(5) . . ?
C1 C2 C8 120.4(6) . . ?
C4 C3 C8 120.7(6) . . ?
C3 C4 C5 118.4(7) . . ?
N1 C5 C4 124.2(6) . . ?
C7 C6 C9 119.3(6) . . ?
C6 C7 C1 121.4(6) . . ?
C9 C8 C3 118.3(6) . . ?
C9 C8 C2 118.7(5) . . ?
C3 C8 C2 123.0(6) . . ?
N1 C9 C8 121.1(5) . . ?
N1 C9 C6 118.5(5) . . ?
C8 C9 C6 120.4(5) . . ?
O1 C10 O2 124.0(5) . . ?
O1 C10 C1 118.7(5) . . ?
O2 C10 C1 117.2(5) . . ?
C12 C11 C17 118.9(7) . . ?
C12 C11 C20 120.8(6) . . ?
C17 C11 C20 120.3(6) . . ?
C11 C12 C18 121.3(7) . . ?
C14 C13 C18 116.7(8) . . ?
C13 C14 C15 121.2(8) . . ?
N2 C15 C14 124.1(8) . . ?
C17 C16 C19 120.5(8) . . ?
C16 C17 C11 121.6(7) . . ?
C19 C18 C13 118.6(7) . . ?
C19 C18 C12 118.4(7) . . ?
C13 C18 C12 122.9(7) . . ?
N2 C19 C16 118.2(8) . . ?
N2 C19 C18 122.5(7) . . ?
C16 C19 C18 119.3(7) . . ?
O4 C20 O3 125.1(6) . . ?
O4 C20 C11 117.0(6) . . ?
O3 C20 C11 117.8(6) . . ?
O1 Cu1 O4 88.80(19) 4_576 3_577 ?
O1 Cu1 O2 166.53(17) 4_576 2_556 ?
O4 Cu1 O2 88.78(19) 3_577 2_556 ?
O1 Cu1 O3 90.0(2) 4_576 . ?
O4 Cu1 O3 166.94(19) 3_577 . ?
O2 Cu1 O3 89.40(19) 2_556 . ?
O1 Cu1 N1 102.09(18) 4_576 . ?
O4 Cu1 N1 92.9(2) 3_577 . ?
O2 Cu1 N1 91.27(17) 2_556 . ?
O3 Cu1 N1 100.1(2) . . ?
O1 Cu1 Cu1 84.14(13) 4_576 3_577 ?
O4 Cu1 Cu1 82.30(14) 3_577 3_577 ?
O2 Cu1 Cu1 82.40(12) 2_556 3_577 ?
O3 Cu1 Cu1 84.64(14) . 3_577 ?
N1 Cu1 Cu1 172.11(13) . 3_577 ?
C5 N1 C9 117.3(5) . . ?
C5 N1 Cu1 114.6(4) . . ?
C9 N1 Cu1 128.1(4) . . ?
C15 N2 C19 116.9(8) . . ?
C10 O1 Cu1 124.1(4) . 4_575 ?
C10 O2 Cu1 125.3(4) . 2_546 ?
C20 O3 Cu1 122.2(4) . . ?
C20 O4 Cu1 125.7(4) . 3_577 ?
C21 N3 C22 120.5(7) . . ?
C21 N3 C23 119.0(7) . . ?
C22 N3 C23 120.3(8) . . ?
O5 C21 N3 121.9(9) . . ?
C25 N4 C24 127.3(13) . . ?
C25 N4 C26 115.6(12) . . ?
C24 N4 C26 115.3(12) . . ?
O6 C24 N4 112.2(14) . . ?

_diffrn_measured_fraction_theta_max 0.987
_diffrn_reflns_theta_full        25.01
_diffrn_measured_fraction_theta_full 0.987
_refine_diff_density_max         0.528
_refine_diff_density_min         -0.500
_refine_diff_density_rms         0.091


