
#######################################################################
#
#                 Cambridge Crystallographic Data Centre
#                                CCDC
#
#######################################################################
#
# If this CIF has been generated from an entry in the Cambridge
# Structural Database, then it will include bibliographic, chemical,
# crystal, experimental, refinement or atomic coordinate data resulting
# from the CCDC's data processing and validation procedures.
#
#######################################################################

data_CSD_CIF_EFEBAT
_audit_creation_date 2008-11-20
_audit_creation_method CSD-ConQuest-V1
_database_code_CSD EFEBAT
_database_code_depnum_ccdc_archive 'CCDC 643335'
_chemical_formula_sum 'C40 H56 Cu4 N16 Pt2'
_chemical_formula_moiety
;
C40 H56 Cu4 N16 Pt2
;
_journal_coden_Cambridge 9
_journal_volume 47
_journal_year 2008
_journal_page_first 5033
_journal_name_full 'Inorg.Chem. '
loop_
_publ_author_name
"K.Umakoshi"
"T.Kojima"
"K.Saito"
"S.Akatsu"
"M.Onishi"
"S.Ishizaka"
"N.Kitamura"
"Y.Nakao"
"S.Sakaki"
"Y.Ozawa"
_chemical_name_systematic
;
octakis(\m~2~-3,5-Dimethylpyrazolato)-di-platinum(ii)-tetra-copper
;
_chemical_name_common
;
Teaching Subset: Symmetry
;
_cell_volume   2490.498
_exptl_crystal_colour 'colorless'
_exptl_crystal_density_diffrn 1.874
_exptl_special_details
;
luminescent

;
_exptl_crystal_description 'platelet'
_diffrn_ambient_temperature 296
#These two values have been output from a single CSD field.
_refine_ls_R_factor_gt 0.055
_refine_ls_wR_factor_gt 0.055
_symmetry_cell_setting tetragonal
_symmetry_space_group_name_H-M 'I 4 2 2'
_symmetry_Int_Tables_number 97
loop_
_symmetry_equiv_pos_site_id
_symmetry_equiv_pos_as_xyz
1 x,y,z
2 -x,-y,z
3 x,-y,-z
4 -x,y,-z
5 -y,-x,-z
6 y,x,-z
7 y,-x,z
8 -y,x,z
9 1/2+x,1/2+y,1/2+z
10 1/2-x,1/2-y,1/2+z
11 1/2+x,1/2-y,1/2-z
12 1/2-x,1/2+y,1/2-z
13 1/2-y,1/2-x,1/2-z
14 1/2+y,1/2+x,1/2-z
15 1/2+y,1/2-x,1/2+z
16 1/2-y,1/2+x,1/2+z
_cell_length_a 13.4338(7)
_cell_length_b 13.4338(7)
_cell_length_c 13.8003(8)
_cell_angle_alpha 90
_cell_angle_beta 90
_cell_angle_gamma 90
_cell_formula_units_Z 2
loop_
_atom_type_symbol
_atom_type_radius_bond
C 0.68
H 0.23
Cu 1.46
N 0.68
Pt 1.50
loop_
_atom_site_label
_atom_site_type_symbol
_atom_site_fract_x
_atom_site_fract_y
_atom_site_fract_z
Pt1 Pt 0.00000 0.00000 0.17060(4)
Cu1 Cu 0.12711(6) -0.12711(6) 0.00000
N1 N 0.1497(5) -0.0099(9) 0.1701(5)
N2 N 0.1952(5) -0.0717(5) 0.1034(5)
C1 C 0.2932(7) -0.0671(8) 0.1211(8)
C2 C 0.3102(6) -0.0043(17) 0.1988(6)
H1 H 0.37170 0.01180 0.22550
C3 C 0.2200(6) 0.0293(6) 0.2286(7)
C4 C 0.3640(8) -0.1273(9) 0.0604(9)
H2 H 0.35770 -0.19640 0.07690
H3 H 0.43090 -0.10570 0.07250
H4 H 0.34840 -0.11830 -0.00690
C5 C 0.1949(9) 0.0977(8) 0.3098(9)
H5 H 0.13130 0.07970 0.33640
H6 H 0.19220 0.16490 0.28620
H7 H 0.24490 0.09280 0.35930
Pt1B Pt 0.00000 0.00000 -0.17060(4)
Cu1A Cu -0.12711(6) 0.12711(6) 0.00000
Cu1C Cu -0.12711(6) -0.12711(6) 0.00000
Cu1B Cu 0.12711(6) 0.12711(6) 0.00000
N1D N 0.0099(5) -0.1497(9) -0.1701(5)
N1E N -0.0099(5) 0.1497(9) -0.1701(5)
N1A N -0.1497(5) 0.0099(9) 0.1701(5)
N1F N -0.0099(5) -0.1497(9) 0.1701(5)
N1C N -0.1497(5) -0.0099(9) -0.1701(5)
N1B N 0.1497(5) 0.0099(9) -0.1701(5)
N1G N 0.0099(5) 0.1497(9) 0.1701(5)
N2D N 0.0717(5) -0.1952(5) -0.1034(5)
N2E N -0.0717(5) 0.1952(5) -0.1034(5)
N2A N -0.1952(5) 0.0717(5) 0.1034(5)
N2F N -0.0717(5) -0.1952(5) 0.1034(5)
N2C N -0.1952(5) -0.0717(5) -0.1034(5)
N2B N 0.1952(5) 0.0717(5) -0.1034(5)
N2G N 0.0717(5) 0.1952(5) 0.1034(5)
C1G C 0.0671(7) 0.2932(8) 0.1211(8)
C1B C 0.2932(7) 0.0671(8) -0.1211(8)
C1C C -0.2932(7) -0.0671(8) -0.1211(8)
C1F C -0.0671(7) -0.2932(8) 0.1211(8)
C1A C -0.2932(7) 0.0671(8) 0.1211(8)
C1E C -0.0671(7) 0.2932(8) -0.1211(8)
C1D C 0.0671(7) -0.2932(8) -0.1211(8)
C2G C 0.0043(6) 0.3102(17) 0.1988(6)
C2B C 0.3102(6) 0.0043(17) -0.1988(6)
C2C C -0.3102(6) -0.0043(17) -0.1988(6)
C2F C -0.0043(6) -0.3102(17) 0.1988(6)
C2A C -0.3102(6) 0.0043(17) 0.1988(6)
C2E C -0.0043(6) 0.3102(17) -0.1988(6)
C2D C 0.0043(6) -0.3102(17) -0.1988(6)
H1G H -0.01180 0.37170 0.22550
H1B H 0.37170 -0.01180 -0.22550
H1C H -0.37170 0.01180 -0.22550
H1F H 0.01180 -0.37170 0.22550
H1A H -0.37170 -0.01180 0.22550
H1E H 0.01180 0.37170 -0.22550
H1D H -0.01180 -0.37170 -0.22550
C3G C -0.0293(6) 0.2200(6) 0.2286(7)
C3B C 0.2200(6) -0.0293(6) -0.2286(7)
C3C C -0.2200(6) 0.0293(6) -0.2286(7)
C3F C 0.0293(6) -0.2200(6) 0.2286(7)
C3A C -0.2200(6) -0.0293(6) 0.2286(7)
C3E C 0.0293(6) 0.2200(6) -0.2286(7)
C3D C -0.0293(6) -0.2200(6) -0.2286(7)
C4G C 0.1273(8) 0.3640(9) 0.0604(9)
C4B C 0.3640(8) 0.1273(9) -0.0604(9)
C4C C -0.3640(8) -0.1273(9) -0.0604(9)
C4F C -0.1273(8) -0.3640(9) 0.0604(9)
C4A C -0.3640(8) 0.1273(9) 0.0604(9)
C4E C -0.1273(8) 0.3640(9) -0.0604(9)
C4D C 0.1273(8) -0.3640(9) -0.0604(9)
H2G H 0.19640 0.35770 0.07690
H2B H 0.35770 0.19640 -0.07690
H2C H -0.35770 -0.19640 -0.07690
H2F H -0.19640 -0.35770 0.07690
H2A H -0.35770 0.19640 0.07690
H2E H -0.19640 0.35770 -0.07690
H2D H 0.19640 -0.35770 -0.07690
H3G H 0.10570 0.43090 0.07250
H3B H 0.43090 0.10570 -0.07250
H3C H -0.43090 -0.10570 -0.07250
H3F H -0.10570 -0.43090 0.07250
H3A H -0.43090 0.10570 0.07250
H3E H -0.10570 0.43090 -0.07250
H3D H 0.10570 -0.43090 -0.07250
H4G H 0.11830 0.34840 -0.00690
H4B H 0.34840 0.11830 0.00690
H4C H -0.34840 -0.11830 0.00690
H4F H -0.11830 -0.34840 -0.00690
H4A H -0.34840 0.11830 -0.00690
H4E H -0.11830 0.34840 0.00690
H4D H 0.11830 -0.34840 0.00690
C5G C -0.0977(9) 0.1949(8) 0.3098(9)
C5B C 0.1949(9) -0.0977(8) -0.3098(9)
C5C C -0.1949(9) 0.0977(8) -0.3098(9)
C5F C 0.0977(9) -0.1949(8) 0.3098(9)
C5A C -0.1949(9) -0.0977(8) 0.3098(9)
C5E C 0.0977(9) 0.1949(8) -0.3098(9)
C5D C -0.0977(9) -0.1949(8) -0.3098(9)
H5G H -0.07970 0.13130 0.33640
H5B H 0.13130 -0.07970 -0.33640
H5C H -0.13130 0.07970 -0.33640
H5F H 0.07970 -0.13130 0.33640
H5A H -0.13130 -0.07970 0.33640
H5E H 0.07970 0.13130 -0.33640
H5D H -0.07970 -0.13130 -0.33640
H6G H -0.16490 0.19220 0.28620
H6B H 0.19220 -0.16490 -0.28620
H6C H -0.19220 0.16490 -0.28620
H6F H 0.16490 -0.19220 0.28620
H6A H -0.19220 -0.16490 0.28620
H6E H 0.16490 0.19220 -0.28620
H6D H -0.16490 -0.19220 -0.28620
H7G H -0.09280 0.24490 0.35930
H7B H 0.24490 -0.09280 -0.35930
H7C H -0.24490 0.09280 -0.35930
H7F H 0.09280 -0.24490 0.35930
H7A H -0.24490 -0.09280 0.35930
H7E H 0.09280 0.24490 -0.35930
H7D H -0.09280 -0.24490 -0.35930
#END
