
#######################################################################
#
#                 Cambridge Crystallographic Data Centre
#                                CCDC
#
#######################################################################
#
# If this CIF has been generated from an entry in the Cambridge
# Structural Database, then it will include bibliographic, chemical,
# crystal, experimental, refinement or atomic coordinate data resulting
# from the CCDC's data processing and validation procedures.
#
#######################################################################

data_CSD_CIF_EFEMUX01
_audit_creation_date 2009-11-24
_audit_creation_method CSD-ConQuest-V1
_database_code_CSD EFEMUX01
_database_code_depnum_ccdc_archive 'CCDC 749719'
_chemical_formula_sum 'C9 H7 Cl2 N5'
_chemical_formula_moiety
;
C9 H7 Cl2 N5
;
_journal_coeditor_code "IUCr DN3123"
_journal_coden_Cambridge 591
_journal_volume 65
_journal_year 2009
_journal_page_first o460
_journal_name_full 'Acta Crystallogr.,Sect.C:Cryst.Struct.Commun. '
loop_
_publ_author_name
"B.Sridhar"
"K.Ravikumar"
_chemical_name_systematic
;
3,5-Diamino-6-(2,3-dichlorophenyl)-1,2,4-triazine
;
_chemical_name_common
;
Lamotrigine; DrugBank: DB00555; Teaching Subset: Drug Molecules
;
_cell_volume   2117.022
_exptl_crystal_colour 'colorless'
_exptl_crystal_density_diffrn 1.607
_exptl_special_details
;
antiepileptic drug; used in the treatment of bipolar I disorder

;
_exptl_crystal_description 'block'
_exptl_crystal_preparation 'methanol'
_diffrn_ambient_temperature 294
#These two values have been output from a single CSD field.
_refine_ls_R_factor_gt 0.0281
_refine_ls_wR_factor_gt 0.0281
_symmetry_cell_setting monoclinic
_symmetry_space_group_name_H-M 'C 2/c'
_symmetry_Int_Tables_number 15
loop_
_symmetry_equiv_pos_site_id
_symmetry_equiv_pos_as_xyz
1 x,y,z
2 -x,y,1/2-z
3 1/2+x,1/2+y,z
4 1/2-x,1/2+y,1/2-z
5 -x,-y,-z
6 x,-y,-1/2+z
7 -1/2-x,-1/2-y,-z
8 -1/2+x,-1/2-y,-1/2+z
_cell_length_a 19.136(3)
_cell_length_b 8.6409(12)
_cell_length_c 13.5549(18)
_cell_angle_alpha 90
_cell_angle_beta 109.172(2)
_cell_angle_gamma 90
_cell_formula_units_Z 8
loop_
_atom_type_symbol
_atom_type_radius_bond
C 0.68
H 0.23
Cl 0.99
N 0.68
loop_
_atom_site_label
_atom_site_type_symbol
_atom_site_fract_x
_atom_site_fract_y
_atom_site_fract_z
C1 C 0.90356(9) 0.18792(19) 0.02977(11)
C2 C 0.97759(9) 0.19888(18) 0.09308(11)
C3 C 1.01725(9) 0.06717(19) 0.13631(12)
C4 C 0.9839(1) -0.07678(19) 0.11757(13)
H1 H 1.01060 -0.16490 0.14680
C5 C 0.91100(11) -0.0891(2) 0.05540(14)
H2 H 0.88850 -0.18580 0.04280
C6 C 0.87094(10) 0.0419(2) 0.01153(13)
H3 H 0.82180 0.03220 -0.03050
C7 C 0.85971(8) 0.32755(19) -0.01719(11)
C8 C 0.78227(9) 0.57302(18) -0.10430(12)
C9 C 0.83559(8) 0.43671(18) 0.04445(12)
N1 N 0.83969(8) 0.34528(17) -0.11885(10)
N2 N 0.79947(8) 0.46909(17) -0.16605(10)
N3 N 0.74525(9) 0.69972(19) -0.14875(13)
H4 H 0.7302(12) 0.710(3) -0.211(2)
H5 H 0.7319(11) 0.764(3) -0.1111(17)
N4 N 0.79845(7) 0.56192(15) 0.00028(10)
N5 N 0.84784(10) 0.4120(2) 0.14622(12)
H6 H 0.8311(11) 0.472(3) 0.1809(16)
H7 H 0.8731(13) 0.334(3) 0.1748(17)
Cl1 Cl 1.02059(2) 0.37772(5) 0.11260(3)
Cl2 Cl 1.10963(2) 0.07839(5) 0.21190(3)
#END
