####################################################################### 
# 
# This file contains crystal structure data downloaded from the 
# Cambridge Structural Database (CSD) hosted by the Cambridge 
# Crystallographic Data Centre (CCDC).
# 
# Full information about CCDC data access policies and citation 
# guidelines are available at http://www.ccdc.cam.ac.uk/access/V1 
# 
# Audit and citation data items may have been added by the CCDC. 
# Please retain this information to preserve the provenance of 
# this file and to allow appropriate attribution of the data. 
# 
#######################################################################

data_import
_audit_block_doi                 10.5517/cc10w0vr
_database_code_depnum_ccdc_archive 'CCDC 949494'
loop_
_citation_id
_citation_doi
_citation_year
1 10.1002/anie.201404265 2014
_audit_update_record             
;
2013-07-10 deposited with the CCDC.	2024-07-10 downloaded from the CCDC.
;

_audit_creation_date             2013-04-22T21:48:34-00:00
_audit_creation_method           'WinGX routine CIF_UPDATE'
_audit_conform_dict_name         cif_core.dic
_audit_conform_dict_version      2.3
_audit_conform_dict_location     ftp://ftp.iucr.org/pub/cif_core.dic

#----------------------------------------------------------------------------#
#                   CHEMICAL INFORMATION                                     #
#----------------------------------------------------------------------------#

_chemical_name_systematic        
;
 ?
;
_chemical_formula_moiety         'C108 H110 Cl2 N6 O34 Zn5'
_chemical_formula_sum            'C108 H110 Cl2 N6 O34 Zn5'
_chemical_formula_weight         2433.77
_chemical_compound_source        'synthesis as described'
_chemical_absolute_configuration unk

#----------------------------------------------------------------------------#
#                   UNIT CELL INFORMATION                                    #
#----------------------------------------------------------------------------#

_symmetry_cell_setting           tetragonal
_symmetry_space_group_name_H-M   'P -4 21 c'
_symmetry_space_group_name_Hall  'P -4 2n'
_symmetry_Int_Tables_number      114
loop_
_symmetry_equiv_pos_as_xyz
'x, y, z'
'x+1/2, -y+1/2, -z+1/2'
'-x, -y, z'
'-x+1/2, y+1/2, -z+1/2'
'-y+1/2, -x+1/2, z+1/2'
'-y, x, -z'
'y, -x, -z'
'y+1/2, x+1/2, z+1/2'

_cell_length_a                   25.122(4)
_cell_length_b                   25.122(4)
_cell_length_c                   23.412(5)
_cell_angle_alpha                90
_cell_angle_beta                 90
_cell_angle_gamma                90
_cell_volume                     14776(4)
_cell_formula_units_Z            4
_cell_measurement_temperature    100(2)
_cell_measurement_reflns_used    0
_cell_measurement_theta_min      0
_cell_measurement_theta_max      0
_cell_measurement_wavelength     0.7

#----------------------------------------------------------------------------#
#                   CRYSTAL INFORMATION                                      #
#----------------------------------------------------------------------------#

_exptl_crystal_description       prism
_exptl_crystal_colour            Colorless
_exptl_crystal_size_max          0.1
_exptl_crystal_size_mid          0.1
_exptl_crystal_size_min          0.1
_exptl_crystal_density_diffrn    1.094
_exptl_crystal_density_method    'not measured'
_exptl_crystal_F_000             5024
_exptl_special_details           
;
 ?
;

#----------------------------------------------------------------------------#
#                   ABSORPTION CORRECTION                                    #
#----------------------------------------------------------------------------#

_exptl_absorpt_coefficient_mu    0.898
_exptl_absorpt_correction_type   none

#----------------------------------------------------------------------------#
#                   DATA COLLECTION                                          #
#----------------------------------------------------------------------------#

_diffrn_ambient_temperature      100(2)
_diffrn_radiation_wavelength     0.7
_diffrn_radiation_type           synchrotron
_diffrn_radiation_source         'PLSII 2D bending magnet'
_diffrn_radiation_monochromator  'Si(111) double crystal monochromator'
_diffrn_measurement_device_type  'ADSC Q210 CCD area detector'
_diffrn_measurement_method       'omega scan'
_computing_data_collection       'PAL ADSC Quantum-210 ADX Program'
_computing_cell_refinement       HKL3000
_computing_data_reduction        HKL3000
_diffrn_reflns_av_R_equivalents  0.0628
_diffrn_reflns_av_unetI/netI     0.0412
_diffrn_reflns_number            77017
_diffrn_reflns_limit_h_min       -31
_diffrn_reflns_limit_h_max       28
_diffrn_reflns_limit_k_min       -28
_diffrn_reflns_limit_k_max       28
_diffrn_reflns_limit_l_min       -28
_diffrn_reflns_limit_l_max       28
_diffrn_reflns_theta_min         1.6
_diffrn_reflns_theta_max         26.3
_diffrn_reflns_theta_full        26.3
_diffrn_measured_fraction_theta_full 0.78
_diffrn_measured_fraction_theta_max 0.78
_reflns_number_total             11786
_reflns_number_gt                7648
_reflns_threshold_expression     >2sigma(I)

#----------------------------------------------------------------------------#
#                   COMPUTER PROGRAMS USED                                   #
#----------------------------------------------------------------------------#

_computing_structure_solution    'SHELXS-86 (Sheldrick, 1986)'
_computing_structure_refinement  'SHELXL-97 (Sheldrick, 1997)'
_computing_molecular_graphics    'Ortep-3 for Windows (Farrugia, 1997)'
_computing_publication_material  'WinGX publication routines (Farrugia, 1999)'

#----------------------------------------------------------------------------#
#                   REFINEMENT INFORMATION                                   #
#----------------------------------------------------------------------------#

_refine_special_details          
;
 Refinement of F^2^ against ALL reflections.  The weighted R-factor wR and
 goodness of fit S are based on F^2^, conventional R-factors R are based
 on F, with F set to zero for negative F^2^. The threshold expression of
 F^2^ > 2sigma(F^2^) is used only for calculating R-factors(gt) etc. and is
 not relevant to the choice of reflections for refinement.  R-factors based
 on F^2^ are statistically about twice as large as those based on F, and R-
 factors based on ALL data will be even larger.
;
_refine_ls_structure_factor_coef Fsqd
_refine_ls_matrix_type           full
_refine_ls_weighting_scheme      calc
_refine_ls_weighting_details     
'calc w=1/[\s^2^(Fo^2^)+(0.2000P)^2^+0.0000P] where P=(Fo^2^+2Fc^2^)/3'
_atom_sites_solution_primary     direct
_atom_sites_solution_secondary   difmap
_atom_sites_solution_hydrogens   geom
_refine_ls_hydrogen_treatment    constr
_refine_ls_extinction_method     none
_refine_ls_number_reflns         11786
_refine_ls_number_parameters     652
_refine_ls_number_restraints     19
_refine_ls_R_factor_all          0.1204
_refine_ls_R_factor_gt           0.0966
_refine_ls_wR_factor_ref         0.2724
_refine_ls_wR_factor_gt          0.2583
_refine_ls_goodness_of_fit_ref   0.996
_refine_ls_restrained_S_all      7.962
_refine_ls_shift/su_max          0.018
_refine_ls_shift/su_mean         0.003
_refine_ls_abs_structure_details 'Flack H D (1983), Acta Cryst. A39, 876-881'
_refine_ls_abs_structure_Flack   0.54(19)
_refine_diff_density_max         0.771
_refine_diff_density_min         -0.559
_refine_diff_density_rms         0.103

#----------------------------------------------------------------------------#
#                   ATOMIC TYPES, COORDINATES AND THERMAL PARAMETERS         #
#----------------------------------------------------------------------------#

loop_
_atom_type_symbol
_atom_type_description
_atom_type_scat_dispersion_real
_atom_type_scat_dispersion_imag
_atom_type_scat_source
C C 0.0033 0.0016 'International Tables Vol C Tables 4.2.6.8 and 6.1.1.4'
H H 0 0 'International Tables Vol C Tables 4.2.6.8 and 6.1.1.4'
N N 0.0061 0.0033 'International Tables Vol C Tables 4.2.6.8 and 6.1.1.4'
O O 0.0106 0.006 'International Tables Vol C Tables 4.2.6.8 and 6.1.1.4'
Zn Zn 0.2839 1.4301 'International Tables Vol C Tables 4.2.6.8 and 6.1.1.4'
Cl Cl 0.1484 0.1585 'International Tables Vol C Tables 4.2.6.8 and 6.1.1.4'

loop_
_atom_site_label
_atom_site_type_symbol
_atom_site_fract_x
_atom_site_fract_y
_atom_site_fract_z
_atom_site_U_iso_or_equiv
_atom_site_adp_type
_atom_site_occupancy
_atom_site_symmetry_multiplicity
_atom_site_calc_flag
_atom_site_refinement_flags
_atom_site_disorder_assembly
_atom_site_disorder_group
C1 C 0.598(4) 0.150(4) 0.120(3) 0.11(2) Uani 1 1 d D . .
C2 C 0.610(3) 0.198(4) 0.154(3) 0.11(2) Uani 1 1 d D . .
C7 C 0.578(4) 0.224(4) 0.185(4) 0.12(3) Uani 1 1 d . . .
H7 H 0.544 0.2098 0.19 0.147 Uiso 1 1 calc R . .
C21 C 0.7346 0.4658 0.1763 0.14(4) Uani 1 1 d D . .
H21A H 0.7061 0.4668 0.1484 0.171 Uiso 1 1 calc R . .
H21B H 0.7557 0.4339 0.1709 0.171 Uiso 1 1 calc R . .
C22 C 0.7702 0.5188 0.1749 0.34(18) Uani 1 1 d D . .
H22A H 0.7843 0.528 0.2122 0.402 Uiso 1 1 calc R . .
H22B H 0.7988 0.5168 0.1472 0.402 Uiso 1 1 calc R . .
C23 C 0.751(10) 0.601(6) 0.143(16) 0.4(3) Uani 1 1 d D . .
H23A H 0.749 0.6041 0.1021 0.525 Uiso 1 1 calc R . .
H23B H 0.7889 0.5992 0.1526 0.525 Uiso 1 1 calc R . .
C24 C 0.732(17) 0.650(9) 0.166(11) 0.5(4) Uani 1 1 d D . .
H24A H 0.6965 0.6551 0.1519 0.623 Uiso 1 1 calc R . .
H24B H 0.7543 0.6781 0.151 0.623 Uiso 1 1 calc R . .
C25 C 0.704(5) 0.655(3) 0.401(6) 0.14(4) Uani 1 1 d . . .
H25A H 0.6662 0.6509 0.4101 0.171 Uiso 1 1 calc R . .
H25B H 0.7156 0.6897 0.4148 0.171 Uiso 1 1 calc R . .
C26 C 0.740(9) 0.607(3) 0.427(9) 0.29(14) Uani 1 1 d . . .
H26A H 0.7739 0.6036 0.4077 0.344 Uiso 1 1 calc R . .
H26B H 0.7452 0.6101 0.4677 0.344 Uiso 1 1 calc R . .
C27 C 0.730(6) 0.514(4) 0.424(5) 0.15(4) Uani 1 1 d . . .
H27A H 0.7358 0.5109 0.4647 0.185 Uiso 1 1 calc R . .
H27B H 0.7648 0.5153 0.4051 0.185 Uiso 1 1 calc R . .
C28 C 0.699(4) 0.471(3) 0.402(5) 0.13(4) Uani 1 1 d . . .
H28A H 0.7117 0.4372 0.417 0.159 Uiso 1 1 calc R . .
H28B H 0.6617 0.475 0.4139 0.159 Uiso 1 1 calc R . .
C42 C 0.645(4) 0.824(3) 0.207(3) 0.095(19) Uani 1 1 d D . .
C43 C 0.594(4) 0.830(4) 0.192(4) 0.12(3) Uani 1 1 d . . .
H43 H 0.5682 0.8061 0.2052 0.147 Uiso 1 1 calc R . .
C44 C 0.580(5) 0.874(5) 0.156(4) 0.13(3) Uani 1 1 d . . .
H44 H 0.5454 0.8774 0.1432 0.16 Uiso 1 1 calc R . .
C45 C 0.615(3) 0.910(4) 0.140(3) 0.096(19) Uani 1 1 d . . .
C46 C 0.664(5) 0.907(4) 0.158(4) 0.13(3) Uani 1 1 d . . .
H46 H 0.6868 0.9344 0.1493 0.156 Uiso 1 1 calc R . .
C47 C 0.685(5) 0.862(4) 0.192(4) 0.13(3) Uani 1 1 d . . .
H47 H 0.7204 0.8586 0.2019 0.155 Uiso 1 1 calc R . .
C48 C 0.599(4) -0.041(5) 0.106(3) 0.12(3) Uani 1 1 d . . .
C49 C 0.4994 0.1925 0.0117 0.24(8) Uiso 1 1 d D . .
H49 H 0.5189 0.1842 0.0443 0.285 Uiso 1 1 calc R . .
C50 C 0.4401 0.2383 0.0691 0.7(6) Uiso 1 1 d D . .
H50A H 0.4176 0.269 0.0721 1.07 Uiso 1 1 calc R . .
H50B H 0.4666 0.2394 0.0987 1.07 Uiso 1 1 calc R . .
H50C H 0.4191 0.2067 0.0731 1.07 Uiso 1 1 calc R . .
C51 C 0.4365 0.2582 -0.0394 0.4(2) Uiso 1 1 d D . .
H51A H 0.4602 0.2555 -0.0715 0.619 Uiso 1 1 calc R . .
H51B H 0.4261 0.2947 -0.0343 0.619 Uiso 1 1 calc R . .
H51C H 0.4055 0.2368 -0.0462 0.619 Uiso 1 1 calc R . .
C52 C 0.551(4) 0.099(5) -0.169(3) 0.13(3) Uani 1 1 d D . .
H52 H 0.5871 0.1033 -0.16 0.156 Uiso 1 1 calc R . .
C53 C 0.4854 0.0937 -0.2398 0.33(13) Uiso 1 1 d D . .
H53A H 0.4803 0.0801 -0.2777 0.488 Uiso 1 1 calc R . .
H53B H 0.4788 0.1313 -0.2395 0.488 Uiso 1 1 calc R . .
H53C H 0.4612 0.0764 -0.2141 0.488 Uiso 1 1 calc R . .
C54 C 0.573(6) 0.070(9) -0.269(5) 0.22(9) Uani 1 1 d . . .
H54A H 0.5519 0.0587 -0.3009 0.337 Uiso 1 1 calc R . .
H54B H 0.596 0.0409 -0.2576 0.337 Uiso 1 1 calc R . .
H54C H 0.5943 0.0999 -0.2795 0.337 Uiso 1 1 calc R . .
N1 N 0.4654 0.2382 0.0153 0.21(5) Uani 1 1 d D . .
N2 N 0.539(4) 0.084(7) -0.222(4) 0.20(6) Uani 1 1 d . . .
N3 N 0.7802 0.5615 0.276 0.21(6) Uani 1 1 d D . .
O2 O 0.634(2) 0.122(2) 0.100(2) 0.111(15) Uani 1 1 d . . .
O3 O 0.548(2) 0.138(3) 0.118(2) 0.120(18) Uani 1 1 d . . .
O4 O 0.716(3) 0.470(3) 0.231(3) 0.15(2) Uani 1 1 d . . .
O5 O 0.729(5) 0.553(5) 0.158(6) 0.22(5) Uani 1 1 d D . .
O6 O 0.731(3) 0.654(2) 0.226(3) 0.14(2) Uani 1 1 d . . .
O7 O 0.712(3) 0.651(2) 0.342(3) 0.126(18) Uani 1 1 d . . .
O8 O 0.702(3) 0.560(2) 0.412(3) 0.14(2) Uani 1 1 d . . .
O9 O 0.703(3) 0.472(2) 0.341(3) 0.14(2) Uani 1 1 d . . .
O10 O 0.666(2) 0.063(2) -0.010(2) 0.111(15) Uani 1 1 d . . .
O11 O 0.616(2) 0.121(2) -0.056(2) 0.101(13) Uani 1 1 d . . .
O12 O 0.4600(19) 0.0456(19) -0.035(2) 0.094(12) Uani 1 1 d . . .
O13 O 0.427(3) -0.023(2) -0.078(2) 0.112(16) Uani 1 1 d . . .
O14 O 0.633(2) -0.009(3) 0.092(2) 0.118(17) Uani 1 1 d . . .
O15 O 0.549(2) -0.038(2) 0.0934(19) 0.110(16) Uani 1 1 d . . .
O16 O 0.5054 0.1643 -0.0281 0.15(2) Uani 1 1 d . . .
O17 O 0.517(2) 0.106(3) -0.132(2) 0.128(19) Uani 1 1 d . . .
Cl1 Cl 0.720(11) 0.853(8) 0.012(5) 0.65(17) Uani 1 1 d . . .
C3 C 0.661(5) 0.220(4) 0.152(5) 0.15(4) Uani 1 1 d . . .
H3 H 0.6882 0.2019 0.1319 0.182 Uiso 1 1 calc R . .
C4 C 0.672(4) 0.268(4) 0.179(4) 0.11(2) Uani 1 1 d . . .
H4 H 0.704 0.2842 0.1718 0.136 Uiso 1 1 calc R . .
C5 C 0.640(4) 0.291(4) 0.213(4) 0.11(3) Uani 1 1 d . . .
C6 C 0.591(8) 0.273(4) 0.214(5) 0.18(6) Uani 1 1 d . . .
H6 H 0.5643 0.2914 0.2335 0.216 Uiso 1 1 calc R . .
C8 C 0.656(4) 0.338(4) 0.248(3) 0.12(3) Uani 1 1 d . . .
C9 C 0.678(4) 0.382(4) 0.224(4) 0.12(3) Uani 1 1 d . . .
H9 H 0.6844 0.3817 0.1851 0.143 Uiso 1 1 calc R . .
C10 C 0.692(4) 0.425(3) 0.252(5) 0.13(3) Uani 1 1 d . . .
C11 C 0.685(5) 0.425(4) 0.313(4) 0.13(3) Uani 1 1 d . . .
C12 C 0.661(4) 0.385(3) 0.341(4) 0.12(3) Uani 1 1 d . . .
H12 H 0.6541 0.3877 0.3797 0.146 Uiso 1 1 calc R . .
C13 C 0.645(4) 0.338(3) 0.309(4) 0.12(3) Uani 1 1 d . . .
C14 C 0.633(4) 0.291(4) 0.342(3) 0.11(2) Uani 1 1 d . . .
C15 C 0.592(6) 0.293(4) 0.381(4) 0.15(4) Uani 1 1 d . . .
H15 H 0.5712 0.3229 0.3849 0.177 Uiso 1 1 calc R . .
C16 C 0.583(4) 0.249(5) 0.413(3) 0.13(3) Uani 1 1 d . . .
H16 H 0.556 0.251 0.4406 0.158 Uiso 1 1 calc R . .
C17 C 0.607(4) 0.205(2) 0.410(3) 0.11(3) Uani 1 1 d . . .
C18 C 0.645(4) 0.201(3) 0.371(3) 0.11(3) Uani 1 1 d . . .
H18 H 0.6638 0.1696 0.3674 0.138 Uiso 1 1 calc R . .
C19 C 0.658(4) 0.244(3) 0.335(3) 0.10(2) Uani 1 1 d . . .
H19 H 0.6837 0.239 0.3067 0.125 Uiso 1 1 calc R . .
C20 C 0.657(4) 0.096(4) -0.050(3) 0.12(3) Uani 1 1 d . . .
C29 C 0.696(5) 0.691(4) 0.312(3) 0.12(3) Uani 1 1 d D . .
C30 C 0.705(6) 0.693(3) 0.251(4) 0.16(5) Uani 1 1 d D . .
C31 C 0.686(4) 0.733(5) 0.222(4) 0.14(4) Uani 1 1 d . . .
H31 H 0.6875 0.7297 0.1828 0.169 Uiso 1 1 calc R . .
C32 C 0.662(4) 0.781(3) 0.244(3) 0.11(2) Uani 1 1 d D . .
C33 C 0.651(3) 0.778(4) 0.303(3) 0.10(2) Uani 1 1 d . . .
C34 C 0.667(3) 0.735(3) 0.337(4) 0.11(2) Uani 1 1 d . . .
H34 H 0.6588 0.7348 0.3753 0.128 Uiso 1 1 calc R . .
C35 C 0.618(4) 0.820(3) 0.330(3) 0.10(2) Uani 1 1 d . . .
C36 C 0.567(5) 0.817(4) 0.329(5) 0.13(3) Uani 1 1 d . . .
H36 H 0.5506 0.7926 0.3058 0.158 Uiso 1 1 calc R . .
C37 C 0.535(4) 0.852(5) 0.364(5) 0.14(3) Uani 1 1 d . . .
H37 H 0.4987 0.8466 0.3664 0.164 Uiso 1 1 calc R . .
C38 C 0.560(3) 0.894(3) 0.395(3) 0.10(2) Uani 1 1 d . . .
C39 C 0.614(4) 0.897(3) 0.396(3) 0.10(2) Uani 1 1 d . . .
H39 H 0.6328 0.9191 0.4205 0.122 Uiso 1 1 calc R . .
C40 C 0.641(4) 0.861(4) 0.356(7) 0.17(6) Uani 1 1 d . . .
H40 H 0.6765 0.8683 0.3469 0.207 Uiso 1 1 calc R . .
C41 C 0.429(3) 0.026(3) -0.071(3) 0.088(18) Uani 1 1 d . . .
O1 O 0.546(2) 0.065(2) 0.033(2) 0.102(13) Uani 1 1 d . . .
Zn1 Zn 0.5375(3) 0.0930(4) -0.0485(4) 0.098(3) Uani 1 1 d . . .
Zn2 Zn 0.6193(3) 0.0582(4) 0.0545(3) 0.100(3) Uani 1 1 d . . .
Zn3 Zn 0.5 0 0.0325(4) 0.092(3) Uani 1 2 d S . .

loop_
_atom_site_aniso_label
_atom_site_aniso_U_11
_atom_site_aniso_U_22
_atom_site_aniso_U_33
_atom_site_aniso_U_23
_atom_site_aniso_U_13
_atom_site_aniso_U_12
C1 0.11(6) 0.14(7) 0.07(4) -0.01(4) -0.01(4) -0.03(5)
C2 0.08(4) 0.16(7) 0.09(5) -0.03(5) 0.01(4) -0.01(5)
C7 0.15(8) 0.13(7) 0.08(4) -0.03(5) -0.01(5) -0.03(6)
C21 0.12(7) 0.13(7) 0.18(10) 0.03(7) 0.04(7) -0.01(5)
C22 0.19(15) 0.5(4) 0.4(3) 0.3(3) 0.16(18) 0.1(2)
C23 0.3(2) 0.16(15) 0.9(10) 0.0(3) 0.2(4) 0.06(15)
C24 1.0(9) 0.3(2) 0.3(3) 0.1(2) 0.4(4) 0.4(4)
C25 0.17(9) 0.08(5) 0.17(11) 0.03(6) -0.05(8) -0.02(5)
C26 0.5(3) 0.06(5) 0.3(2) 0.03(8) -0.3(2) -0.03(9)
C27 0.22(12) 0.11(7) 0.13(8) 0.02(6) 0.02(8) 0.01(8)
C28 0.17(8) 0.06(4) 0.16(9) 0.02(5) -0.07(7) -0.02(5)
C42 0.11(6) 0.09(5) 0.08(4) -0.02(4) 0.00(4) 0.00(4)
C43 0.12(7) 0.13(7) 0.12(6) -0.01(5) 0.00(5) -0.03(6)
C44 0.13(7) 0.16(9) 0.11(6) 0.00(6) -0.02(6) 0.02(7)
C45 0.08(4) 0.12(6) 0.08(4) 0.00(4) 0.01(4) 0.00(5)
C46 0.17(10) 0.13(7) 0.09(5) 0.02(5) 0.02(6) -0.01(7)
C47 0.15(8) 0.15(8) 0.09(5) 0.04(5) 0.02(5) 0.05(7)
C48 0.09(6) 0.19(10) 0.08(4) -0.02(5) 0.01(4) 0.00(7)
C52 0.14(7) 0.18(9) 0.07(4) 0.00(5) 0.01(5) -0.03(6)
C54 0.19(13) 0.4(3) 0.10(7) 0.04(11) 0.05(8) 0.09(15)
N1 0.29(15) 0.23(12) 0.11(6) 0.00(7) 0.02(8) 0.07(11)
N2 0.15(7) 0.38(19) 0.09(5) -0.02(8) 0.03(5) 0.03(9)
N3 0.19(9) 0.12(6) 0.32(18) -0.01(9) -0.01(11) 0.02(6)
O2 0.12(4) 0.14(4) 0.08(3) -0.01(3) -0.01(3) -0.01(3)
O3 0.12(4) 0.16(5) 0.09(3) -0.03(3) 0.01(3) -0.04(3)
O4 0.19(6) 0.15(5) 0.10(4) 0.03(4) 0.03(4) -0.06(5)
O5 0.23(11) 0.21(11) 0.23(12) -0.04(9) 0.01(9) 0.04(9)
O6 0.20(6) 0.10(4) 0.11(4) -0.02(3) 0.01(4) 0.04(4)
O7 0.16(5) 0.11(4) 0.11(4) -0.01(4) 0.00(4) 0.04(4)
O8 0.15(5) 0.10(4) 0.16(6) -0.02(4) -0.05(4) 0.00(4)
O9 0.22(7) 0.10(4) 0.11(4) 0.02(3) -0.03(4) -0.05(4)
O10 0.11(3) 0.15(4) 0.08(3) 0.00(3) -0.01(2) -0.02(3)
O11 0.10(3) 0.12(3) 0.08(3) 0.00(3) -0.01(3) -0.01(3)
O12 0.09(3) 0.10(3) 0.09(3) -0.01(2) 0.01(3) 0.00(2)
O13 0.15(5) 0.10(4) 0.09(3) 0.01(3) -0.02(3) 0.00(3)
O14 0.09(3) 0.16(5) 0.10(4) 0.02(4) 0.00(3) -0.02(3)
O15 0.12(4) 0.15(4) 0.06(2) 0.00(3) 0.00(2) -0.01(3)
O16 0.20(6) 0.13(4) 0.12(4) -0.03(4) 0.01(5) -0.04(5)
O17 0.12(4) 0.18(6) 0.08(3) 0.00(3) 0.01(3) -0.01(4)
Cl1 1.1(5) 0.7(3) 0.21(8) -0.21(14) -0.10(15) 0.2(3)
C3 0.19(11) 0.14(8) 0.12(7) -0.03(6) -0.05(7) -0.03(8)
C4 0.12(6) 0.12(6) 0.10(6) 0.00(5) 0.01(5) 0.00(5)
C5 0.11(6) 0.13(6) 0.09(5) 0.01(5) -0.02(5) -0.05(5)
C6 0.3(2) 0.12(7) 0.10(7) -0.01(6) -0.04(9) -0.06(10)
C8 0.17(8) 0.12(6) 0.08(4) 0.00(4) -0.03(5) 0.00(6)
C9 0.15(7) 0.11(6) 0.10(5) 0.03(5) 0.01(5) -0.03(5)
C10 0.15(8) 0.08(5) 0.17(9) 0.02(5) -0.06(7) -0.03(5)
C11 0.18(9) 0.11(7) 0.09(5) 0.00(5) -0.04(5) 0.02(6)
C12 0.20(9) 0.06(4) 0.10(5) 0.02(4) -0.04(6) -0.02(5)
C13 0.16(8) 0.10(6) 0.11(6) 0.01(5) -0.03(5) -0.04(5)
C14 0.15(7) 0.12(6) 0.08(4) 0.00(4) -0.01(5) -0.01(5)
C15 0.24(12) 0.13(7) 0.07(5) -0.01(5) 0.03(6) -0.01(7)
C16 0.16(8) 0.16(9) 0.07(4) -0.02(5) 0.00(5) -0.05(7)
C17 0.20(8) 0.04(3) 0.08(4) -0.01(3) 0.01(5) -0.01(4)
C18 0.19(8) 0.09(5) 0.06(4) -0.01(3) -0.01(5) -0.01(5)
C19 0.15(7) 0.10(6) 0.06(4) 0.00(4) -0.01(4) -0.02(5)
C20 0.12(6) 0.16(7) 0.07(4) 0.02(5) -0.01(4) -0.02(6)
C29 0.20(9) 0.11(6) 0.06(4) 0.00(4) -0.01(5) 0.02(6)
C30 0.24(12) 0.07(5) 0.15(9) 0.03(5) 0.08(9) 0.05(6)
C31 0.13(7) 0.19(11) 0.10(6) -0.05(7) -0.01(5) 0.04(6)
C32 0.14(7) 0.09(5) 0.10(5) -0.02(4) 0.02(4) 0.00(4)
C33 0.11(5) 0.13(6) 0.08(4) 0.00(4) 0.00(4) -0.02(5)
C34 0.11(5) 0.11(5) 0.10(5) -0.03(5) 0.01(4) 0.04(4)
C35 0.13(7) 0.10(5) 0.08(4) -0.01(3) 0.01(4) 0.01(5)
C36 0.13(8) 0.13(7) 0.13(8) -0.03(6) -0.02(6) 0.00(6)
C37 0.10(6) 0.17(9) 0.14(7) -0.04(7) 0.01(5) 0.00(6)
C38 0.10(5) 0.12(6) 0.07(4) -0.02(4) 0.01(3) 0.00(4)
C39 0.13(7) 0.08(4) 0.10(5) -0.01(3) 0.01(4) -0.02(4)
C40 0.12(7) 0.09(6) 0.30(19) -0.06(8) 0.04(9) -0.01(5)
C4