####################################################################### 
# 
# This file contains crystal structure data downloaded from the 
# Cambridge Structural Database (CSD) hosted by the Cambridge 
# Crystallographic Data Centre (CCDC).
# 
# Full information about CCDC data access policies and citation 
# guidelines are available at http://www.ccdc.cam.ac.uk/access/V1 
# 
# Audit and citation data items may have been added by the CCDC. 
# Please retain this information to preserve the provenance of 
# this file and to allow appropriate attribution of the data. 
# 
#######################################################################

data_import
_audit_block_doi                 10.5517/cczx196
_database_code_depnum_ccdc_archive 'CCDC 920678'
loop_
_citation_id
_citation_doi
_citation_year
1 10.1002/anie.201404265 2014
_audit_update_record             
;
2013-07-10 deposited with the CCDC.	2024-07-10 downloaded from the CCDC.
;

_audit_creation_date             2013-02-25T22:31:41-00:00
_audit_creation_method           'WinGX routine CIF_UPDATE'
_audit_conform_dict_name         cif_core.dic
_audit_conform_dict_version      2.3
_audit_conform_dict_location     ftp://ftp.iucr.org/pub/cif_core.dic

#----------------------------------------------------------------------------#
#                   CHEMICAL INFORMATION                                     #
#----------------------------------------------------------------------------#

_chemical_name_systematic        
;
 ?
;
_chemical_formula_moiety         'C108 H102 N4 O34 Zn5'
_chemical_formula_sum            'C108 H102 N4 O34 Zn5'
_chemical_formula_weight         2326.79
_chemical_compound_source        'synthesis as described'
_chemical_absolute_configuration unk

#----------------------------------------------------------------------------#
#                   UNIT CELL INFORMATION                                    #
#----------------------------------------------------------------------------#

_symmetry_cell_setting           tetragonal
_symmetry_space_group_name_H-M   'P -4 21 c'
_symmetry_space_group_name_Hall  'P -4 2n'
_symmetry_Int_Tables_number      114
loop_
_symmetry_equiv_pos_as_xyz
'x, y, z'
'x+1/2, -y+1/2, -z+1/2'
'-x, -y, z'
'-x+1/2, y+1/2, -z+1/2'
'-y+1/2, -x+1/2, z+1/2'
'-y, x, -z'
'y, -x, -z'
'y+1/2, x+1/2, z+1/2'

_cell_length_a                   25.107(4)
_cell_length_b                   25.107(4)
_cell_length_c                   23.531(5)
_cell_angle_alpha                90
_cell_angle_beta                 90
_cell_angle_gamma                90
_cell_volume                     14833(4)
_cell_formula_units_Z            4
_cell_measurement_temperature    100(2)
_cell_measurement_reflns_used    0
_cell_measurement_theta_min      0
_cell_measurement_theta_max      0
_cell_measurement_wavelength     0.8

#----------------------------------------------------------------------------#
#                   CRYSTAL INFORMATION                                      #
#----------------------------------------------------------------------------#

_exptl_crystal_description       prism
_exptl_crystal_colour            Colorless
_exptl_crystal_size_max          0.2
_exptl_crystal_size_mid          0.1
_exptl_crystal_size_min          0.1
_exptl_crystal_density_diffrn    1.042
_exptl_crystal_density_method    'not measured'
_exptl_crystal_F_000             4800
_exptl_special_details           
;
 ?
;

#----------------------------------------------------------------------------#
#                   ABSORPTION CORRECTION                                    #
#----------------------------------------------------------------------------#

_exptl_absorpt_coefficient_mu    0.857
_exptl_absorpt_correction_type   none

#----------------------------------------------------------------------------#
#                   DATA COLLECTION                                          #
#----------------------------------------------------------------------------#

_diffrn_ambient_temperature      100(2)
_diffrn_radiation_wavelength     0.8
_diffrn_radiation_type           synchrotron
_diffrn_radiation_source         'PLSII 2D bending magnet'
_diffrn_radiation_monochromator  'Si(111) double crystal monochromator'
_diffrn_measurement_device_type  'ADSC Q210 CCD area detector'
_diffrn_measurement_method       'omega scan'
_computing_data_collection       'PAL ADSC Quantum-210 ADX Program'
_computing_cell_refinement       HKL3000
_computing_data_reduction        HKL3000
_diffrn_reflns_av_R_equivalents  0.059
_diffrn_reflns_av_unetI/netI     0.0294
_diffrn_reflns_number            101231
_diffrn_reflns_limit_h_min       -30
_diffrn_reflns_limit_h_max       30
_diffrn_reflns_limit_k_min       -30
_diffrn_reflns_limit_k_max       30
_diffrn_reflns_limit_l_min       -28
_diffrn_reflns_limit_l_max       28
_diffrn_reflns_theta_min         2.04
_diffrn_reflns_theta_max         29.59
_diffrn_reflns_theta_full        29.59
_diffrn_measured_fraction_theta_full 0.996
_diffrn_measured_fraction_theta_max 0.996
_reflns_number_total             14532
_reflns_number_gt                12144
_reflns_threshold_expression     >2sigma(I)

#----------------------------------------------------------------------------#
#                   COMPUTER PROGRAMS USED                                   #
#----------------------------------------------------------------------------#

_computing_structure_solution    'SHELXS-86 (Sheldrick, 1986)'
_computing_structure_refinement  'SHELXL-97 (Sheldrick, 1997)'
_computing_molecular_graphics    'Ortep-3 for Windows (Farrugia, 1997)'
_computing_publication_material  'WinGX publication routines (Farrugia, 1999)'

#----------------------------------------------------------------------------#
#                   REFINEMENT INFORMATION                                   #
#----------------------------------------------------------------------------#

_refine_special_details          
;
 Refinement of F^2^ against ALL reflections.  The weighted R-factor wR and
 goodness of fit S are based on F^2^, conventional R-factors R are based
 on F, with F set to zero for negative F^2^. The threshold expression of
 F^2^ > 2sigma(F^2^) is used only for calculating R-factors(gt) etc. and is
 not relevant to the choice of reflections for refinement.  R-factors based
 on F^2^ are statistically about twice as large as those based on F, and R-
 factors based on ALL data will be even larger.
;
_refine_ls_structure_factor_coef Fsqd
_refine_ls_matrix_type           full
_refine_ls_weighting_scheme      calc
_refine_ls_weighting_details     
'calc w=1/[\s^2^(Fo^2^)+(0.1536P)^2^+0.0000P] where P=(Fo^2^+2Fc^2^)/3'
_atom_sites_solution_primary     direct
_atom_sites_solution_secondary   difmap
_atom_sites_solution_hydrogens   geom
_refine_ls_hydrogen_treatment    constr
_refine_ls_extinction_method     none
_refine_ls_number_reflns         14532
_refine_ls_number_parameters     681
_refine_ls_number_restraints     0
_refine_ls_R_factor_all          0.0703
_refine_ls_R_factor_gt           0.0634
_refine_ls_wR_factor_ref         0.1982
_refine_ls_wR_factor_gt          0.1921
_refine_ls_goodness_of_fit_ref   1.054
_refine_ls_restrained_S_all      1.054
_refine_ls_shift/su_max          0.003
_refine_ls_shift/su_mean         0
_refine_ls_abs_structure_details 'Flack H D (1983), Acta Cryst. A39, 876-881'
_refine_ls_abs_structure_Flack   0.514(13)
_refine_diff_density_max         1.1
_refine_diff_density_min         -0.766
_refine_diff_density_rms         0.088

#----------------------------------------------------------------------------#
#                   ATOMIC TYPES, COORDINATES AND THERMAL PARAMETERS         #
#----------------------------------------------------------------------------#

loop_
_atom_type_symbol
_atom_type_description
_atom_type_scat_dispersion_real
_atom_type_scat_dispersion_imag
_atom_type_scat_source
C C 0.0033 0.0016 'International Tables Vol C Tables 4.2.6.8 and 6.1.1.4'
H H 0 0 'International Tables Vol C Tables 4.2.6.8 and 6.1.1.4'
O O 0.0106 0.006 'International Tables Vol C Tables 4.2.6.8 and 6.1.1.4'
Zn Zn 0.2839 1.4301 'International Tables Vol C Tables 4.2.6.8 and 6.1.1.4'
N N 0.0061 0.0033 'International Tables Vol C Tables 4.2.6.8 and 6.1.1.4'

loop_
_atom_site_label
_atom_site_type_symbol
_atom_site_fract_x
_atom_site_fract_y
_atom_site_fract_z
_atom_site_U_iso_or_equiv
_atom_site_adp_type
_atom_site_occupancy
_atom_site_symmetry_multiplicity
_atom_site_calc_flag
_atom_site_refinement_flags
_atom_site_disorder_assembly
_atom_site_disorder_group
C5 C 0.1373(2) 0.2086(2) 0.7863(2) 0.0707(13) Uani 1 1 d . . .
C22 C 0.2720(7) -0.0070(5) 0.8344(9) 0.252(11) Uani 1 1 d . . .
H22A H 0.292 0.0004 0.8688 0.303 Uiso 1 1 calc R . .
H22B H 0.2961 -0.0119 0.8025 0.303 Uiso 1 1 calc R . .
C23 C 0.2588(6) -0.1031(4) 0.8527(6) 0.166(5) Uani 1 1 d . . .
H23A H 0.2667 -0.1057 0.893 0.199 Uiso 1 1 calc R . .
H23B H 0.292 -0.1001 0.832 0.199 Uiso 1 1 calc R . .
C24 C 0.2280(6) -0.1520(5) 0.8331(5) 0.157(5) Uani 1 1 d . . .
H24A H 0.2418 -0.184 0.851 0.189 Uiso 1 1 calc R . .
H24B H 0.1905 -0.1487 0.8425 0.189 Uiso 1 1 calc R . .
C25 C 0.2073(3) -0.1557(2) 0.5977(3) 0.0827(16) Uani 1 1 d . . .
H25A H 0.1695 -0.1563 0.589 0.099 Uiso 1 1 calc R . .
H25B H 0.2233 -0.188 0.5831 0.099 Uiso 1 1 calc R . .
C41 C 0.07030(17) 0.52629(17) 1.07020(18) 0.0526(9) Uani 1 1 d . . .
C42 C 0.1491(2) -0.3263(2) 0.7917(3) 0.0729(13) Uani 1 1 d . . .
C43 C 0.0943(2) -0.3314(3) 0.8103(3) 0.0846(16) Uani 1 1 d . . .
H43 H 0.0695 -0.3053 0.8009 0.102 Uiso 1 1 calc R . .
C44 C 0.0792(3) -0.3748(3) 0.8419(3) 0.0846(16) Uani 1 1 d . . .
H44 H 0.0438 -0.3786 0.8526 0.102 Uiso 1 1 calc R . .
C45 C 0.1153(2) -0.4124(2) 0.8577(2) 0.0686(12) Uani 1 1 d . . .
C46 C 0.1674(2) -0.4080(3) 0.8409(2) 0.0765(14) Uani 1 1 d . . .
H46 H 0.1919 -0.4341 0.8514 0.092 Uiso 1 1 calc R . .
C47 C 0.1839(2) -0.3654(2) 0.8084(3) 0.0766(14) Uani 1 1 d . . .
H47 H 0.2194 -0.363 0.7976 0.092 Uiso 1 1 calc R . .
C48 C 0.0970(2) 0.5403(2) 0.8929(2) 0.0649(11) Uani 1 1 d . . .
C49 C -0.0168(5) 0.3194(5) 0.9903(3) 0.150(5) Uani 1 1 d . . .
H49 H -0.0249 0.3443 0.9624 0.179 Uiso 1 1 calc R . .
C50 C -0.0614(12) 0.2463(15) 0.9273(12) 0.41(2) Uani 1 1 d . . .
H50A H -0.0675 0.2088 0.9317 0.619 Uiso 1 1 calc R . .
H50B H -0.0399 0.2524 0.8942 0.619 Uiso 1 1 calc R . .
H50C H -0.095 0.2643 0.923 0.619 Uiso 1 1 calc R . .
C51 C -0.0430(14) 0.2376(7) 1.0264(10) 0.41(3) Uani 1 1 d . . .
H51A H -0.0541 0.2028 1.0145 0.62 Uiso 1 1 calc R . .
H51B H -0.0709 0.254 1.0482 0.62 Uiso 1 1 calc R . .
H51C H -0.0115 0.2348 1.0493 0.62 Uiso 1 1 calc R . .
C52 C 0.0518(2) 0.4065(2) 1.1689(2) 0.0699(12) Uani 1 1 d . . .
H52 H 0.0878 0.4059 1.1598 0.084 Uiso 1 1 calc R . .
C53 C 0.0790(4) 0.4256(7) 1.2644(4) 0.167(6) Uani 1 1 d . . .
H53A H 0.0625 0.4346 1.2999 0.25 Uiso 1 1 calc R . .
H53B H 0.1033 0.4533 1.2536 0.25 Uiso 1 1 calc R . .
H53C H 0.0981 0.3926 1.2685 0.25 Uiso 1 1 calc R . .
C54 C -0.0145(6) 0.4171(11) 1.2365(5) 0.307(17) Uani 1 1 d . . .
H54A H -0.0181 0.4274 1.2756 0.46 Uiso 1 1 calc R . .
H54B H -0.0273 0.3814 1.2317 0.46 Uiso 1 1 calc R . .
H54C H -0.035 0.4408 1.2131 0.46 Uiso 1 1 calc R . .
O2 O 0.13279(15) 0.37601(16) 0.89894(15) 0.0708(9) Uani 1 1 d . . .
O3 O 0.04600(14) 0.35973(17) 0.88376(16) 0.0767(10) Uani 1 1 d . . .
O5 O 0.2266(4) -0.0590(3) 0.8422(4) 0.163(3) Uani 1 1 d . . .
O12 O 0.07244(14) 0.47697(13) 1.07921(15) 0.0645(8) Uani 1 1 d . . .
O13 O 0.03977(12) 0.54744(12) 1.03381(13) 0.0555(7) Uani 1 1 d . . .
O14 O 0.13318(14) 0.50637(16) 0.90592(15) 0.0716(9) Uani 1 1 d . . .
O15 O 0.05035(15) 0.53779(17) 0.90640(15) 0.0743(9) Uani 1 1 d . . .
O16 O 0.00483(18) 0.33464(15) 1.02884(19) 0.0826(11) Uani 1 1 d . . .
O17 O 0.01954(13) 0.39482(16) 1.13145(14) 0.0669(8) Uani 1 1 d . . .
N1 N -0.0325(6) 0.2678(4) 0.9801(4) 0.174(5) Uani 1 1 d . . .
N2 N 0.0382(3) 0.4197(4) 1.2209(2) 0.116(2) Uani 1 1 d . . .
C1 C 0.0950(2) 0.3488(2) 0.8791(2) 0.0674(12) Uani 1 1 d . . .
C2 C 0.1084(2) 0.2979(2) 0.8473(2) 0.0706(12) Uani 1 1 d . . .
C3 C 0.1594(2) 0.2786(2) 0.8512(3) 0.0791(15) Uani 1 1 d . . .
H3 H 0.1846 0.296 0.8733 0.095 Uiso 1 1 calc R . .
C4 C 0.1731(2) 0.2312(2) 0.8209(3) 0.0721(13) Uani 1 1 d . . .
H4 H 0.2068 0.2162 0.8251 0.086 Uiso 1 1 calc R . .
C6 C 0.0857(3) 0.2286(2) 0.7850(3) 0.0801(15) Uani 1 1 d . . .
H6 H 0.0597 0.2112 0.7637 0.096 Uiso 1 1 calc R . .
C7 C 0.0727(3) 0.2738(3) 0.8149(2) 0.0796(15) Uani 1 1 d . . .
H7 H 0.0384 0.2877 0.8123 0.096 Uiso 1 1 calc R . .
C8 C 0.1513(2) 0.1609(2) 0.7492(2) 0.0726(13) Uani 1 1 d . . .
C9 C 0.1739(2) 0.1167(2) 0.7751(2) 0.0716(12) Uani 1 1 d . . .
H9 H 0.1789 0.1171 0.8142 0.086 Uiso 1 1 calc R . .
C10 C 0.1893(2) 0.0721(2) 0.7452(3) 0.0775(14) Uani 1 1 d . . .
C11 C 0.1803(2) 0.0720(2) 0.6857(2) 0.0728(13) Uani 1 1 d . . .
C12 C 0.1582(3) 0.1156(2) 0.6587(2) 0.0753(14) Uani 1 1 d . . .
H12 H 0.1523 0.1154 0.6197 0.09 Uiso 1 1 calc R . .
C13 C 0.1445(3) 0.1614(2) 0.6925(2) 0.0770(14) Uani 1 1 d . . .
C14 C 0.1284(2) 0.20856(19) 0.6585(2) 0.0703(13) Uani 1 1 d . . .
C15 C 0.0869(3) 0.2074(2) 0.6199(2) 0.0824(15) Uani 1 1 d . . .
H15 H 0.0662 0.1767 0.6175 0.099 Uiso 1 1 calc R . .
C16 C 0.0751(3) 0.2491(2) 0.5854(2) 0.0835(17) Uani 1 1 d . . .
H16 H 0.0471 0.2466 0.5597 0.1 Uiso 1 1 calc R . .
C17 C 0.1057(2) 0.29624(19) 0.5887(2) 0.0681(12) Uani 1 1 d . . .
C18 C 0.1446(3) 0.2987(2) 0.6300(2) 0.0751(14) Uani 1 1 d . . .
H18 H 0.1639 0.3301 0.6347 0.09 Uiso 1 1 calc R . .
C19 C 0.1554(3) 0.2558(2) 0.6642(2) 0.0763(14) Uani 1 1 d . . .
H19 H 0.1817 0.2588 0.692 0.092 Uiso 1 1 calc R . .
C20 C 0.1586(2) 0.4043(3) 1.0480(2) 0.0755(15) Uani 1 1 d . . .
C21 C 0.2325(3) 0.0303(3) 0.8237(5) 0.123(3) Uani 1 1 d . . .
H21A H 0.2466 0.0656 0.8313 0.148 Uiso 1 1 calc R . .
H21B H 0.2032 0.0242 0.8499 0.148 Uiso 1 1 calc R . .
C26 C 0.2329(3) -0.1077(2) 0.5710(4) 0.091(2) Uani 1 1 d . . .
H26A H 0.2692 -0.1038 0.5847 0.109 Uiso 1 1 calc R . .
H26B H 0.2339 -0.1117 0.53 0.109 Uiso 1 1 calc R . .
C27 C 0.2301(3) -0.0157(2) 0.5766(3) 0.0866(17) Uani 1 1 d . . .
H27A H 0.2383 -0.0124 0.5365 0.104 Uiso 1 1 calc R . .
H27B H 0.2633 -0.0163 0.5977 0.104 Uiso 1 1 calc R . .
C28 C 0.1965(4) 0.0308(2) 0.5956(3) 0.109(3) Uani 1 1 d . . .
H28A H 0.2113 0.0642 0.5822 0.131 Uiso 1 1 calc R . .
H28B H 0.1603 0.0274 0.5818 0.131 Uiso 1 1 calc R . .
C29 C 0.1987(2) -0.1954(2) 0.6879(2) 0.0710(13) Uani 1 1 d . . .
C30 C 0.2100(3) -0.1960(2) 0.7456(3) 0.0841(17) Uani 1 1 d . . .
C31 C 0.1916(3) -0.2393(2) 0.7801(3) 0.0862(17) Uani 1 1 d . . .
H31 H 0.1976 -0.2394 0.8191 0.103 Uiso 1 1 calc R . .
C32 C 0.1643(2) -0.2814(2) 0.7542(2) 0.0700(12) Uani 1 1 d . . .
C33 C 0.1538(2) -0.2796(2) 0.6975(3) 0.0742(14) Uani 1 1 d . . .
C34 C 0.1706(2) -0.2371(2) 0.6663(2) 0.0710(12) Uani 1 1 d . . .
H34 H 0.1623 -0.2366 0.6278 0.085 Uiso 1 1 calc R . .
C35 C 0.1219(2) -0.3206(2) 0.6682(2) 0.0682(12) Uani 1 1 d . . .
C36 C 0.0657(3) -0.3180(3) 0.6665(4) 0.107(3) Uani 1 1 d . . .
H36 H 0.0485 -0.2913 0.6869 0.128 Uiso 1 1 calc R . .
C37 C 0.0354(2) -0.3534(3) 0.6359(3) 0.100(2) Uani 1 1 d . . .
H37 H -0.0015 -0.3505 0.6358 0.12 Uiso 1 1 calc R . .
C38 C 0.0600(2) -0.39360(17) 0.60513(19) 0.0570(10) Uani 1 1 d . . .
C39 C 0.1139(2) -0.39607(17) 0.6050(2) 0.0630(11) Uani 1 1 d . . .
H39 H 0.1307 -0.422 0.5832 0.076 Uiso 1 1 calc R . .
C40 C 0.1449(2) -0.3608(2) 0.6366(3) 0.0708(13) Uani 1 1 d . . .
H40 H 0.1817 -0.3645 0.6364 0.085 Uiso 1 1 calc R . .
O1 O 0.04493(12) 0.43395(13) 0.96727(13) 0.0598(7) Uani 1 1 d . . .
O4 O 0.21266(19) 0.02886(18) 0.7675(2) 0.0944(13) Uani 1 1 d . . .
O6 O 0.2354(2) -0.15434(15) 0.77085(17) 0.0866(12) Uani 1 1 d . . .
O7 O 0.21494(18) -0.15240(15) 0.6571(2) 0.0856(11) Uani 1 1 d . . .
O8 O 0.20197(16) -0.06192(16) 0.5863(2) 0.0889(12) Uani 1 1 d . . .
O9 O 0.19827(17) 0.02769(13) 0.65904(17) 0.0778(10) Uani 1 1 d . . .
O10 O 0.16723(14) 0.43650(17) 1.00913(14) 0.0709(9) Uani 1 1 d . . .
O11 O 0.11688(14) 0.37752(15) 1.05563(15) 0.0681(8) Uani 1 1 d . . .
Zn1 Zn 0.03769(2) 0.40773(2) 1.04833(2) 0.05618(15) Uani 1 1 d . . .
Zn2 Zn 0.11908(2) 0.43994(2) 0.94480(2) 0.06161(16) Uani 1 1 d . . .
Zn3 Zn 0 0.5 0.96656(3) 0.05885(19) Uani 1 2 d S . .

loop_
_atom_site_aniso_label
_atom_site_aniso_U_11
_atom_site_aniso_U_22
_atom_site_aniso_U_33
_atom_site_aniso_U_23
_atom_site_aniso_U_13
_atom_site_aniso_U_12
C5 0.079(3) 0.075(3) 0.057(3) 0.011(2) 0.006(2) 0.024(3)
C22 0.251(16) 0.115(8) 0.39(2) -0.087(12) -0.219(18) 0.066(9)
C23 0.186(11) 0.114(7) 0.197(13) 0.049(8) -0.057(10) -0.003(7)
C24 0.193(11) 0.114(7) 0.164(10) -0.034(7) 0.035(9) -0.051(7)
C25 0.100(4) 0.061(3) 0.087(4) 0.000(3) 0.015(3) -0.004(3)
C41 0.052(2) 0.059(2) 0.047(2) -0.0015(18) -0.0005(17) 0.0042(17)
C42 0.077(3) 0.065(3) 0.077(3) -0.008(2) -0.009(3) 0.005(2)
C43 0.070(3) 0.080(3) 0.103(4) 0.019(3) 0.001(3) 0.011(3)
C44 0.074(3) 0.098(4) 0.082(4) 0.005(3) 0.004(3) 0.004(3)
C45 0.079(3) 0.075(3) 0.051(2) 0.002(2) -0.013(2) 0.003(2)
C46 0.077(3) 0.091(4) 0.062(3) 0.015(3) -0.001(2) 0.010(3)
C47 0.071(3) 0.077(3) 0.081(4) 0.010(3) -0.008(3) 0.013(3)
C48 0.060(3) 0.082(3) 0.052(2) -0.002(2) -0.003(2) 0.007(2)
C49 0.185(10) 0.198(11) 0.066(4) 0.006(5) 0.002(5) -0.105(9)
C50 0.32(3) 0.60(6) 0.32(3) -0.31(4) -0.12(3) 0.02(3)
C51 0.78(7) 0.179(15) 0.29(2) 0.080(16) -0.31(4) -0.23(3)
C52 0.071(3) 0.080(3) 0.059(3) 0.019(2) -0.008(2) -0.002(2)
C53 0.119(7) 0.311(18) 0.071(4) 0.028(7) -0.030(5) -0.049(9)
C54 0.172(12) 0.65(5) 0.098(7) -0.140(15) 0.064(8) -0.19(2)
O2 0.071(2) 0.085(2) 0.0564(18) -0.0071(17) 0.0060(16) 0.0154(18)
O3 0.066(2) 0.097(3) 0.067(2) -0.0183(19) -0.0052(17) 0.0205(18)
O5 0.207(8) 0.116(5) 0.166(7) -0.019(5) -0.061(6) 0.017(5)
O12 0.0693(19) 0.0596(18) 0.0646(19) 0.0086(15) -0.0134(16) 0.0000(15)
O13 0.0507(14) 0.0641(17) 0.0517(15) -0.0042(13) -0.0014(13) 0.0068(13)
O14 0.0625(18) 0.088(2) 0.0640(19) 0.0097(18) 0.0015(15) 0.0078(18)
O15 0.073(2) 0.091(2) 0.0590(18) 0.0118(18) 0.0033(16) 0.0145(19)
O16 0.089(2) 0.066(2) 0.092(3) -0.0207(19) -0.018(2) 0.0008(19)
O17 0.0621(17) 0.090(2) 0.0487(16) 0.0094(16) -0.0021(14) 0.0023(16)
N1 0.275(14) 0.150(7) 0.098(5) 0.002(5) -0.021(7) -0.070(8)
N2 0.105(4) 0.184(7) 0.058(3) -0.001(4) -0.016(3) -0.018(4)
C1 0.057(3) 0.094(3) 0.052(2) 0.005(2) 0.004(2) 0.016(3)
C2 0.072(3) 0.084(3) 0.056(2) 0.005(2) 0.010(2) 0.014(3)
C3 0.070(3) 0.084(3) 0.083(4) -0.013(3) 0.008(3) 0.015(3)
C4 0.070(3) 0.067(3) 0.080(3) -0.004(3) 0.006(3) 0.016(2)
C6 0.088(4) 0.084(3) 0.069(3) -0.015(3) -0.006(3) 0.017(3)
C7 0.084(4) 0.093(4) 0.062(3) -0.016(3) -0.009(3) 0.017(3)
C8 0.085(3) 0.073(3) 0.059(3) 0.000(2) 0.006(2) 0.018(2)
C9 0.080(3) 0.071(3) 0.064(3) 0.012(2) 0.007(2) 0.016(2)
C10 0.089(4) 0.06