####################################################################### 
# 
# This file contains crystal structure data downloaded from the 
# Cambridge Structural Database (CSD) hosted by the Cambridge 
# Crystallographic Data Centre (CCDC).
# 
# Full information about CCDC data access policies and citation 
# guidelines are available at http://www.ccdc.cam.ac.uk/access/V1 
# 
# Audit and citation data items may have been added by the CCDC. 
# Please retain this information to preserve the provenance of 
# this file and to allow appropriate attribution of the data. 
# 
#######################################################################

data_chen15
_audit_block_doi                 10.5517/cc66hhc
_database_code_depnum_ccdc_archive 'CCDC 184992'
loop_
_citation_id
_citation_doi
_citation_year
1 10.1021/cg010030t 2002
_audit_update_record             
;
2002-05-02 deposited with the CCDC.	2024-07-10 downloaded from the CCDC.
;

_audit_creation_method           SHELXL-97
_chemical_name_systematic        
; 
? 
;
_chemical_name_common            ?
_chemical_melting_point          ?
_chemical_formula_moiety         ?
_chemical_formula_sum            'C31 H41 Ag Cl N O7 S3'
_chemical_formula_weight         779.15

loop_
_atom_type_symbol
_atom_type_description
_atom_type_scat_dispersion_real
_atom_type_scat_dispersion_imag
_atom_type_scat_source
C C 0.0033 0.0016 'International Tables Vol C Tables 4.2.6.8 and 6.1.1.4'
H H 0.0000 0.0000 'International Tables Vol C Tables 4.2.6.8 and 6.1.1.4'
N N 0.0061 0.0033 'International Tables Vol C Tables 4.2.6.8 and 6.1.1.4'
O O 0.0106 0.0060 'International Tables Vol C Tables 4.2.6.8 and 6.1.1.4'
S S 0.1246 0.1234 'International Tables Vol C Tables 4.2.6.8 and 6.1.1.4'
Cl Cl 0.1484 0.1585 'International Tables Vol C Tables 4.2.6.8 and 6.1.1.4'
Ag Ag -0.8971 1.1015 'International Tables Vol C Tables 4.2.6.8 and 6.1.1.4'

_symmetry_cell_setting           triclinic
_symmetry_space_group_name_H-M   P-1

loop_
_symmetry_equiv_pos_as_xyz
'x, y, z'
'-x, -y, -z'

_cell_length_a                   11.033(4)
_cell_length_b                   12.524(4)
_cell_length_c                   13.345(4)
_cell_angle_alpha                70.404(8)
_cell_angle_beta                 87.048(8)
_cell_angle_gamma                79.495(8)
_cell_volume                     1708.0(10)
_cell_formula_units_Z            2
_cell_measurement_temperature    173(2)
_cell_measurement_reflns_used    ?
_cell_measurement_theta_min      ?
_cell_measurement_theta_max      ?

_exptl_crystal_description       block
_exptl_crystal_colour            colorless
_exptl_crystal_size_max          0.30
_exptl_crystal_size_mid          0.10
_exptl_crystal_size_min          0.05
_exptl_crystal_density_meas      ?
_exptl_crystal_density_diffrn    1.515
_exptl_crystal_density_method    'not measured'
_exptl_crystal_F_000             804
_exptl_absorpt_coefficient_mu    0.897
_exptl_absorpt_correction_type   SADABS
_exptl_absorpt_correction_T_min  0.529868
_exptl_absorpt_correction_T_max  0.9565
_exptl_absorpt_process_details   ?

_exptl_special_details           
; 
? 
;

_diffrn_ambient_temperature      173(2)
_diffrn_radiation_wavelength     0.71073
_diffrn_radiation_type           MoK\a
_diffrn_radiation_source         'fine-focus sealed tube'
_diffrn_radiation_monochromator  graphite
_diffrn_measurement_device_type  ?
_diffrn_measurement_method       ?
_diffrn_detector_area_resol_mean ?
_diffrn_standards_number         ?
_diffrn_standards_interval_count ?
_diffrn_standards_interval_time  ?
_diffrn_standards_decay_%        ?
_diffrn_reflns_number            11835
_diffrn_reflns_av_R_equivalents  0.0462
_diffrn_reflns_av_sigmaI/netI    0.0677
_diffrn_reflns_limit_h_min       -12
_diffrn_reflns_limit_h_max       12
_diffrn_reflns_limit_k_min       -13
_diffrn_reflns_limit_k_max       13
_diffrn_reflns_limit_l_min       -14
_diffrn_reflns_limit_l_max       14
_diffrn_reflns_theta_min         1.88
_diffrn_reflns_theta_max         23.25
_reflns_number_total             4875
_reflns_number_gt                3733
_reflns_threshold_expression     >2sigma(I)

_computing_data_collection       SMART
_computing_cell_refinement       SAINT+
_computing_data_reduction        SAINT+
_computing_structure_solution    'SHELXS-97 (Sheldrick, 1990)'
_computing_structure_refinement  'SHELXL-97 (Sheldrick, 1997)'
_computing_molecular_graphics    SHELXTL
_computing_publication_material  SHELXTL

_refine_special_details          
; 
Refinement of F^2^ against ALL reflections.  The weighted R-factor wR and 
goodness of fit S are based on F^2^, conventional R-factors R are based 
on F, with F set to zero for negative F^2^. The threshold expression of 
F^2^ > 2sigma(F^2^) is used only for calculating R-factors(gt) etc. and is 
not relevant to the choice of reflections for refinement.  R-factors based 
on F^2^ are statistically about twice as large as those based on F, and R- 
factors based on ALL data will be even larger. 
There are one and a half THF solvent molecules per asymmetric unit.
One is disordered. 
;

_refine_ls_structure_factor_coef Fsqd
_refine_ls_matrix_type           full
_refine_ls_weighting_scheme      calc
_refine_ls_weighting_details     
'calc w=1/[\s^2^(Fo^2^)+(0.0607P)^2^+5.5078P] where P=(Fo^2^+2Fc^2^)/3'
_atom_sites_solution_primary     direct
_atom_sites_solution_secondary   difmap
_atom_sites_solution_hydrogens   geom
_refine_ls_hydrogen_treatment    riding
_refine_ls_extinction_method     none
_refine_ls_extinction_coef       ?
_refine_ls_number_reflns         4875
_refine_ls_number_parameters     397
_refine_ls_number_restraints     0
_refine_ls_R_factor_all          0.0856
_refine_ls_R_factor_gt           0.0599
_refine_ls_wR_factor_ref         0.1508
_refine_ls_wR_factor_gt          0.1423
_refine_ls_goodness_of_fit_ref   1.129
_refine_ls_restrained_S_all      1.129
_refine_ls_shift/su_max          0.182
_refine_ls_shift/su_mean         0.022

loop_
_atom_site_label
_atom_site_type_symbol
_atom_site_fract_x
_atom_site_fract_y
_atom_site_fract_z
_atom_site_U_iso_or_equiv
_atom_site_adp_type
_atom_site_occupancy
_atom_site_symmetry_multiplicity
_atom_site_calc_flag
_atom_site_refinement_flags
_atom_site_disorder_assembly
_atom_site_disorder_group
Ag1 Ag 0.26601(5) 0.23403(5) 0.12596(5) 0.0360(2) Uani 1 1 d . . .
S1 S 0.25083(18) 0.36832(17) -0.06046(16) 0.0374(5) Uani 1 1 d . . .
S2 S 0.08206(17) 0.27399(18) 0.24110(18) 0.0420(5) Uani 1 1 d . . .
S3 S 0.46769(16) 0.16574(16) 0.23123(14) 0.0317(5) Uani 1 1 d . . .
Cl1 Cl -0.74431(19) -0.41126(18) 0.12952(19) 0.0512(6) Uani 1 1 d . . .
O1 O 0.2554(5) 0.0385(5) 0.1322(5) 0.0542(16) Uani 1 1 d . . .
O2 O -0.6711(10) -0.3924(10) 0.2035(8) 0.134(4) Uani 1 1 d . . .
O3 O -0.8679(7) -0.3672(6) 0.1368(10) 0.147(5) Uani 1 1 d . . .
O4 O -0.7314(6) -0.5313(5) 0.1503(6) 0.072(2) Uani 1 1 d . . .
O5 O -0.7003(7) -0.3568(6) 0.0261(6) 0.079(2) Uani 1 1 d . . .
N1 N 0.2242(6) 0.0940(6) -0.3452(5) 0.0382(16) Uani 1 1 d . . .
C1 C 0.3584(9) -0.0255(11) 0.0979(12) 0.097(4) Uani 1 1 d . . .
H1B H 0.4151 0.0265 0.0581 0.116 Uiso 1 1 calc R . .
H1C H 0.4036 -0.0840 0.1603 0.116 Uiso 1 1 calc R . .
C2 C 0.3191(9) -0.0796(12) 0.0327(11) 0.089(4) Uani 1 1 d . . .
H2A H 0.3597 -0.1613 0.0547 0.107 Uiso 1 1 calc R . .
H2B H 0.3407 -0.0415 -0.0422 0.107 Uiso 1 1 calc R . .
C3 C 0.1836(8) -0.0714(8) 0.0430(8) 0.059(3) Uani 1 1 d . . .
H3A H 0.1614 -0.1486 0.0763 0.070 Uiso 1 1 calc R . .
H3B H 0.1424 -0.0345 -0.0274 0.070 Uiso 1 1 calc R . .
C4 C 0.1482(9) 0.0010(9) 0.1122(8) 0.063(3) Uani 1 1 d . . .
H4A H 0.0844 0.0681 0.0762 0.076 Uiso 1 1 calc R . .
H4B H 0.1142 -0.0444 0.1800 0.076 Uiso 1 1 calc R . .
C5 C 0.2530(6) 0.2846(6) -0.1433(6) 0.0304(18) Uani 1 1 d . . .
C6 C 0.1438(7) 0.2463(7) -0.1496(6) 0.0372(19) Uani 1 1 d . . .
H6A H 0.0745 0.2641 -0.1091 0.045 Uiso 1 1 calc R . .
C7 C 0.1363(6) 0.1823(7) -0.2148(6) 0.0334(19) Uani 1 1 d . . .
H7A H 0.0618 0.1554 -0.2175 0.040 Uiso 1 1 calc R . .
C8 C 0.2359(7) 0.1561(6) -0.2772(5) 0.0307(18) Uani 1 1 d . . .
C9 C 0.3438(7) 0.1936(7) -0.2693(6) 0.0358(19) Uani 1 1 d . . .
H9A H 0.4134 0.1750 -0.3092 0.043 Uiso 1 1 calc R . .
C10 C 0.3527(7) 0.2583(6) -0.2038(6) 0.0337(18) Uani 1 1 d . . .
H10A H 0.4275 0.2845 -0.2005 0.040 Uiso 1 1 calc R . .
C11 C 0.3930(10) 0.4209(9) -0.0897(8) 0.067(3) Uani 1 1 d . . .
H11A H 0.3904 0.4744 -0.1628 0.101 Uiso 1 1 calc R . .
H11B H 0.4610 0.3561 -0.0818 0.101 Uiso 1 1 calc R . .
H11C H 0.4057 0.4610 -0.0404 0.101 Uiso 1 1 calc R . .
C12 C -0.0088(6) 0.1662(6) 0.2629(6) 0.0334(18) Uani 1 1 d . . .
C13 C 0.0244(7) 0.0671(7) 0.3480(6) 0.038(2) Uani 1 1 d . . .
H13A H 0.0951 0.0585 0.3896 0.045 Uiso 1 1 calc R . .
C14 C -0.0444(7) -0.0196(7) 0.3732(6) 0.038(2) Uani 1 1 d . . .
H14A H -0.0201 -0.0882 0.4313 0.046 Uiso 1 1 calc R . .
C15 C -0.1491(7) -0.0070(7) 0.3141(6) 0.0331(18) Uani 1 1 d . . .
C16 C -0.1791(6) 0.0891(7) 0.2263(6) 0.0343(19) Uani 1 1 d . . .
H16A H -0.2480 0.0958 0.1834 0.041 Uiso 1 1 calc R . .
C17 C -0.1109(7) 0.1760(7) 0.1995(6) 0.0375(19) Uani 1 1 d . . .
H17A H -0.1326 0.2422 0.1385 0.045 Uiso 1 1 calc R . .
C18 C -0.0127(9) 0.3984(8) 0.1577(9) 0.072(3) Uani 1 1 d . . .
H18A H -0.0858 0.4188 0.1969 0.108 Uiso 1 1 calc R . .
H18B H -0.0384 0.3831 0.0953 0.108 Uiso 1 1 calc R . .
H18C H 0.0334 0.4622 0.1345 0.108 Uiso 1 1 calc R . .
C19 C 0.3987(6) 0.1504(6) 0.3579(5) 0.0273(17) Uani 1 1 d . . .
C20 C 0.3621(7) 0.2409(7) 0.3977(6) 0.0364(19) Uani 1 1 d . . .
H20A H 0.3764 0.3159 0.3574 0.044 Uiso 1 1 calc R . .
C21 C 0.3052(7) 0.2221(7) 0.4956(6) 0.0346(19) Uani 1 1 d . . .
H21A H 0.2808 0.2846 0.5216 0.041 Uiso 1 1 calc R . .
C22 C 0.2832(6) 0.1145(7) 0.5557(6) 0.0315(18) Uani 1 1 d . . .
C23 C 0.3199(6) 0.0243(6) 0.5158(6) 0.0308(18) Uani 1 1 d . . .
H23A H 0.3057 -0.0507 0.5561 0.037 Uiso 1 1 calc R . .
C24 C 0.3763(6) 0.0429(6) 0.4187(5) 0.0282(17) Uani 1 1 d . . .
H24A H 0.4004 -0.0198 0.3928 0.034 Uiso 1 1 calc R . .
C25 C 0.5393(7) 0.2901(7) 0.2032(6) 0.040(2) Uani 1 1 d . . .
H25A H 0.6180 0.2684 0.2419 0.060 Uiso 1 1 calc R . .
H25B H 0.4850 0.3489 0.2258 0.060 Uiso 1 1 calc R . .
H25C H 0.5539 0.3209 0.1266 0.060 Uiso 1 1 calc R . .
O1S O 0.8590(16) 0.5246(15) 0.4927(17) 0.097(5) Uani 0.50 1 d P . .
C1S C 0.9453(17) 0.5491(18) 0.4175(14) 0.167(9) Uani 1 1 d . . .
C2S C 0.9312(16) 0.5101(17) 0.5715(14) 0.137(6) Uani 1 1 d . . .
O2S O 0.7166(15) 0.3486(17) 0.3844(13) 0.199(6) Uani 1 1 d . . .
C4S C 0.742(2) 0.2443(15) 0.5750(17) 0.152(7) Uani 1 1 d . . .
H4SA H 0.7955 0.2605 0.6236 0.182 Uiso 1 1 calc R . .
H4SB H 0.7270 0.1642 0.6062 0.182 Uiso 1 1 calc R . .
C5S C 0.6172(18) 0.334(2) 0.5477(15) 0.165(9) Uani 1 1 d . . .
H5SA H 0.5459 0.2952 0.5523 0.198 Uiso 1 1 calc R . .
H5SB H 0.6043 0.3797 0.5968 0.198 Uiso 1 1 calc R . .
C6S C 0.6338(15) 0.4083(17) 0.4385(17) 0.140(7) Uani 1 1 d . . .
H6SA H 0.5533 0.4348 0.4007 0.168 Uiso 1 1 calc R . .
H6SB H 0.6655 0.4770 0.4396 0.168 Uiso 1 1 calc R . .
C7S C 0.7928(17) 0.2667(16) 0.4696(19) 0.143(7) Uani 1 1 d . . .
H7SB H 0.8121 0.1929 0.4551 0.171 Uiso 1 1 calc R . .
H7SC H 0.8715 0.2942 0.4690 0.171 Uiso 1 1 calc R . .

loop_
_atom_site_aniso_label
_atom_site_aniso_U_11
_atom_site_aniso_U_22
_atom_site_aniso_U_33
_atom_site_aniso_U_23
_atom_site_aniso_U_13
_atom_site_aniso_U_12
Ag1 0.0347(3) 0.0468(4) 0.0310(4) -0.0156(3) 0.0038(2) -0.0140(3)
S1 0.0395(11) 0.0379(12) 0.0330(11) -0.0116(9) 0.0010(9) -0.0029(9)
S2 0.0295(10) 0.0479(13) 0.0538(13) -0.0228(11) 0.0109(10) -0.0109(9)
S3 0.0297(10) 0.0398(11) 0.0276(10) -0.0126(9) 0.0085(8) -0.0107(8)
Cl1 0.0385(12) 0.0453(13) 0.0687(16) -0.0201(12) 0.0196(11) -0.0076(10)
O1 0.035(3) 0.064(4) 0.084(5) -0.051(4) 0.013(3) -0.012(3)
O2 0.159(9) 0.200(11) 0.094(7) -0.093(7) 0.027(6) -0.082(8)
O3 0.047(4) 0.052(5) 0.304(14) -0.026(7) 0.064(7) 0.006(4)
O4 0.067(4) 0.040(4) 0.099(6) -0.016(4) 0.008(4) 0.003(3)
O5 0.085(5) 0.075(5) 0.067(5) -0.010(4) 0.019(4) -0.021(4)
N1 0.046(4) 0.053(4) 0.025(4) -0.019(3) 0.013(3) -0.026(3)
C1 0.045(6) 0.120(10) 0.168(13) -0.114(10) -0.005(7) 0.007(6)
C2 0.059(7) 0.128(10) 0.129(11) -0.103(9) 0.035(7) -0.031(7)
C3 0.047(5) 0.059(6) 0.083(7) -0.039(6) 0.006(5) -0.015(5)
C4 0.056(6) 0.086(7) 0.074(7) -0.051(6) 0.027(5) -0.039(6)
C5 0.027(4) 0.034(4) 0.027(4) -0.006(3) -0.002(3) -0.004(3)
C6 0.036(4) 0.052(5) 0.023(4) -0.013(4) 0.012(3) -0.010(4)
C7 0.023(4) 0.054(5) 0.027(4) -0.013(4) 0.005(3) -0.016(4)
C8 0.038(4) 0.037(4) 0.017(4) -0.006(3) 0.003(3) -0.012(3)
C9 0.029(4) 0.046(5) 0.034(4) -0.017(4) 0.010(3) -0.007(4)
C10 0.028(4) 0.043(5) 0.032(4) -0.012(4) -0.001(3) -0.009(3)
C11 0.088(7) 0.079(7) 0.061(6) -0.043(6) 0.034(6) -0.053(6)
C12 0.022(4) 0.040(5) 0.042(5) -0.021(4) 0.007(3) -0.003(3)
C13 0.024(4) 0.060(6) 0.032(4) -0.018(4) -0.002(3) -0.012(4)
C14 0.035(4) 0.049(5) 0.025(4) -0.004(4) 0.002(4) -0.007(4)
C15 0.030(4) 0.050(5) 0.024(4) -0.018(4) 0.014(3) -0.011(4)
C16 0.023(4) 0.049(5) 0.033(4) -0.015(4) -0.002(3) -0.006(4)
C17 0.030(4) 0.044(5) 0.034(5) -0.011(4) 0.012(4) -0.004(4)
C18 0.055(6) 0.045(6) 0.112(9) -0.020(6) 0.008(6) -0.016(5)
C19 0.023(4) 0.038(5) 0.020(4) -0.008(3) 0.000(3) -0.007(3)
C20 0.040(4) 0.036(5) 0.032(5) -0.009(4) 0.005(4) -0.008(4)
C21 0.041(5) 0.044(5) 0.025(4) -0.018(4) 0.002(4) -0.011(4)
C22 0.021(4) 0.049(5) 0.027(4) -0.014(4) 0.007(3) -0.012(3)
C23 0.026(4) 0.036(4) 0.029(4) -0.007(4) 0.002(3) -0.009(3)
C24 0.026(4) 0.035(4) 0.028(4) -0.015(4) 0.001(3) -0.008(3)
C25 0.031(4) 0.051(5) 0.036(5) -0.008(4) 0.006(4) -0.016(4)
O1S 0.079(11) 0.100(13) 0.119(15) -0.053(11) -0.023(12) 0.009(10)
C1S 0.103(12) 0.21(2) 0.098(12) 0.038(12) 0.009(10) 0.018(12)
C2S 0.099(12) 0.196(18) 0.123(14) -0.078(13) -0.012(11) 0.011(12)
O2S 0.165(13) 0.30(2) 0.174(14) -0.144(15) 0.015(11) -0.009(13)
C4S 0.18(2) 0.122(14) 0.153(18) -0.073(13) 0.027(15) 0.010(13)
C5S 0.131(16) 0.28(3) 0.103(14) -0.069(16) 0.032(12) -0.069(18)
C6S 0.098(11) 0.195(19) 0.178(19) -0.133(17) 0.020(12) -0.022(12)
C7S 0.129(14) 0.132(15) 0.19(2) -0.101(15) -0.033(16) 0.022(12)

_geom_special_details            
; 
All esds (except the esd in the dihedral angle between two l.s. planes) 
are estimated using the full covariance matrix.  The cell esds are taken 
into account individually in the estimation of esds in distances, angles 
and torsion angles; correlations between esds in cell parameters are only 
used when they are defined by crystal symmetry.  An approximate (isotropic) 
treatment of cell esds is used for estimating esds involving l.s. planes. 
;

loop_
_geom_bond_atom_site_label_1
_geom_bond_atom_site_label_2
_geom_bond_distance
_geom_bond_site_symmetry_2
_geom_bond_publ_flag
Ag1 O1 2.446(6) . ?
Ag1 S1 2.486(2) . ?
Ag1 S3 2.545(2) . ?
Ag1 S2 2.560(2) . ?
S1 C5 1.757(8) . ?
S1 C11 1.785(9) . ?
S2 C12 1.764(7) . ?
S2 C18 1.767(10) . ?
S3 C19 1.783(7) . ?
S3 C25 1.793(8) . ?
Cl1 O3 1.385(7) . ?
Cl1 O4 1.416(6) . ?
Cl1 O2 1.410(9) . ?
Cl1 O5 1.424(7) . ?
O1 C1 1.416(11) . ?
O1 C4 1.418(10) . ?
N1 C8 1.402(9) . ?
N1 C22 1.408(9) 1_554 ?
N1 C15 1.427(9) 2 ?
C1 C2 1.394(14) . ?
C2 C3 1.481(13) . ?
C3 C4 1.491(13) . ?
C5 C10 1.388(11) . ?
C5 C6 1.392(10) . ?
C6 C7 1.380(11) . ?
C7 C8 1.402(10) . ?
C8 C9 1.379(10) . ?
C9 C10 1.394(11) . ?
C12 C13 1.376(10) . ?
C12 C17 1.407(10) . ?
C13 C14 1.377(10) . ?
C14 C15 1.387(10) . ?
C15 C16 1.372(10) . ?
C15 N1 1.427(9) 2 ?
C16 C17 1.373(10) . ?
C19 C24 1.378(10) . ?
C19 C20 1.394(11) . ?
C20 C21 1.386(10) . ?
C21 C22 1.375(10) . ?
C22 C23 1.392(11) . ?
C22 N1 1.408(9) 1_556 ?
C23 C24 1.375(10) . ?
O1S C2S 1.30(2) . ?
O1S C1S 1.35(2) . ?
C1S C2S 1.42(2) 2_766 ?
C1S C2S 1.95(2) . ?
C2S C1S 1.42(2) 2_766 ?
O2S C6S 1.400(18) . ?
O2S C7S 1.43(2) . ?
C4S C7S 1.44(2) . ?
C4S C5S 1.58(2) . ?
C5S C6S 1.46(2) . ?

loop_
_geom_angle_atom_site_label_1
_geom_angle_atom_site_label_2
_geom_angle_atom_site_label_3
_geom_angle
_geom_angle_site_symmetry_1
_geom_angle_site_symmetry_3
_geom_angle_publ_flag
O1 Ag1 S1 110.84(16) . . ?
O1 Ag1 S3 91.85(14) . . ?
S1 Ag1 S3 122.39(7) . . ?
O1 Ag1 S2 101.33(14) . . ?
S1 Ag1 S2 113.94(7) . . ?
S3 Ag1 S2 112.00(7) . . ?
C5 S1 C11 103.2(4) . . ?
C5 S1 Ag1 107.0(2) . . ?
C11 S1 Ag1 107.1(4) . . ?
C12 S2 C18 103.1(4) . . ?
C12 S2 Ag1 108.8(3) . . ?
C18 S2 Ag1 105.0(4) . . ?
C19 S3 C25 104.2(4) . . ?
C19 S3 Ag1 95.7(2) . . ?
C25 S3 Ag1 106.1(3) . . ?
O3 Cl1 O4 108.5(4) . . ?
O3 Cl1 O2 111.8(7) . . ?
O4 Cl1 O2 108.7(6) . . ?
O3 Cl1 O5 110.0(6) . . ?
O4 Cl1 O5 110.3(5) . . ?
O2 Cl1 O5 107.5(5) . . ?
C1 O1 C4 107.8(7) . . ?
C1 O1 Ag1 118.7(6) . . ?
C4 O1 Ag1 125.4(5) . . ?
C8 N1 C22 122.6(6) . 1_554 ?
C8 N1 C15 119.3(6) . 2 ?
C22 N1 C15 118.1(6) 1_554 2 ?
C2 C1 O1 109.8(8) . . ?
C1 C2 C3 108.0(9) . . ?
C2 C3 C4 104.4(8) . . ?
O1 C4 C3 107.9(7) . . ?
C10 C5 C6 119.1(7) . . ?
C10 C5 S1 124.9(6) . . ?
C6 C5 S1 116.0(6) . . ?
C7 C6 C5 119.9(7) . . ?
C6 C7 C8 121.7(7) . . ?
C9 C8 N1 121.9(7) . . ?
C9 C8 C7 117.8(7) . . ?
N1 C8 C7 120.4(6) . . ?
C8 C9 C10 121.2(7) . . ?
C5 C10 C9 120.4(7) . . ?
C13 C12 C17 119.2(7) . . ?
C13 C12 S2 116.6(5) . . ?
C17 C12 S2 124.2(6) . . ?
C14 C13 C12 120.4(7) . . ?
C13 C14 C15 120.3(7) . . ?
C16 C15 C14 119.5(7) . . ?
C16 C15 N1 120.7(6) . 2 ?
C14 C15 N1 119.8(7) . 2 ?
C15 C16 C17 120.9(7) . . ?
C16 C17 C12 119.6(7) . . ?
C24 C19 C20 118.0(7) . . ?
C24 C19 S3 