####################################################################### 
# 
# This file contains crystal structure data downloaded from the 
# Cambridge Structural Database (CSD) hosted by the Cambridge 
# Crystallographic Data Centre (CCDC).
# 
# Full information about CCDC data access policies and citation 
# guidelines are available at http://www.ccdc.cam.ac.uk/access/V1 
# 
# Audit and citation data items may have been added by the CCDC. 
# Please retain this information to preserve the provenance of 
# this file and to allow appropriate attribution of the data. 
# 
#######################################################################

data_(4)
_audit_block_doi                 10.5517/cc5qgdq
_database_code_depnum_ccdc_archive 'CCDC 170543'
loop_
_citation_id
_citation_doi
_citation_year
1 10.1002/1521-3765(20020503)8:9<2026::AID-CHEM2026>3.0.CO;2-8 2002
_audit_update_record             
;
2001-09-10 deposited with the CCDC.	2024-07-10 downloaded from the CCDC.
;
# Code TBNOCL

_audit_creation_method           SHELXL-97
_chemical_name_systematic        
; 
? 
;
_chemical_name_common            ?
_chemical_melting_point          ?
_chemical_formula_moiety         '(C15 H12 N6 O12 Tb), 0.4(C2 Cl4), 0.8(C H4 O)'
_chemical_formula_sum            'C16.60 H15.20 Cl1.60 N6 O12.80 Tb'
_chemical_formula_weight         719.19

loop_
_atom_type_symbol
_atom_type_description
_atom_type_scat_dispersion_real
_atom_type_scat_dispersion_imag
_atom_type_scat_source
C C 0.0033 0.0016 'International Tables Vol C Tables 4.2.6.8 and 6.1.1.4'
H H 0.0000 0.0000 'International Tables Vol C Tables 4.2.6.8 and 6.1.1.4'
N N 0.0061 0.0033 'International Tables Vol C Tables 4.2.6.8 and 6.1.1.4'
O O 0.0106 0.0060 'International Tables Vol C Tables 4.2.6.8 and 6.1.1.4'
Cl Cl 0.1484 0.1585 'International Tables Vol C Tables 4.2.6.8 and 6.1.1.4'
Tb Tb -0.1723 4.1537 'International Tables Vol C Tables 4.2.6.8 and 6.1.1.4'

_symmetry_cell_setting           Tetragonal
_symmetry_space_group_name_H-M   P-42(1)c

loop_
_symmetry_equiv_pos_as_xyz
'x, y, z'
'-x, -y, z'
'y, -x, -z'
'-y, x, -z'
'-x+1/2, y+1/2, -z+1/2'
'x+1/2, -y+1/2, -z+1/2'
'-y+1/2, -x+1/2, z+1/2'
'y+1/2, x+1/2, z+1/2'

_cell_length_a                   26.154(4)
_cell_length_b                   26.154(4)
_cell_length_c                   7.5828(11)
_cell_angle_alpha                90.00
_cell_angle_beta                 90.00
_cell_angle_gamma                90.00
_cell_volume                     5187(2)
_cell_formula_units_Z            8
_cell_measurement_temperature    150(2)
_cell_measurement_reflns_used    932
_cell_measurement_theta_min      2.8
_cell_measurement_theta_max      26.8

_exptl_crystal_description       Column
_exptl_crystal_colour            Colourless
_exptl_crystal_size_max          0.49
_exptl_crystal_size_mid          0.10
_exptl_crystal_size_min          0.10
_exptl_crystal_density_meas      none
_exptl_crystal_density_diffrn    1.842
_exptl_crystal_density_method    'not measured'
_exptl_crystal_F_000             2811
_exptl_absorpt_coefficient_mu    2.964
_exptl_absorpt_correction_type   multi-scan
_exptl_absorpt_correction_T_min  0.495
_exptl_absorpt_correction_T_max  0.616
_exptl_absorpt_process_details   'SADABS (Bruker, 1999b)'

_exptl_special_details           
; 
? 
;

_diffrn_ambient_temperature      150(2)
_diffrn_radiation_wavelength     0.71073
_diffrn_radiation_type           MoK\a
_diffrn_radiation_source         'fine-focus sealed tube'
_diffrn_radiation_monochromator  graphite
_diffrn_measurement_device_type  'Bruker SMART CCD Area Detector'
_diffrn_measurement_method       \w
_diffrn_detector_area_resol_mean ?
_diffrn_standards_number         ?
_diffrn_standards_interval_count ?
_diffrn_standards_interval_time  ?
_diffrn_standards_decay_%        none
_diffrn_reflns_number            21785
_diffrn_reflns_av_R_equivalents  0.045
_diffrn_reflns_av_sigmaI/netI    0.051
_diffrn_reflns_limit_h_min       -11
_diffrn_reflns_limit_h_max       35
_diffrn_reflns_limit_k_min       -33
_diffrn_reflns_limit_k_max       31
_diffrn_reflns_limit_l_min       -9
_diffrn_reflns_limit_l_max       10
_diffrn_reflns_theta_min         2.20
_diffrn_reflns_theta_max         27.49
_reflns_number_total             5864
_reflns_number_gt                5199
_reflns_threshold_expression     >2sigma(I)

_computing_data_collection       'SMART version 5.054 (Bruker, 1998)'
_computing_cell_refinement       'SAINT version 6.02a (Bruker, 1999a)'
_computing_data_reduction        'SAINT; SHELXTL/PC (Bruker, 1887)'
_computing_structure_solution    'SHELXS-97 (Sheldrick, 1990)'
_computing_structure_refinement  'SHELXL-97 (Sheldrick, 1997)'
_computing_molecular_graphics    'SHELXTL/PC version 5.03 (Sheldrick, 1994)'
_computing_publication_material  'SHELXL-97; PLATON (Spek, 2000)'

_refine_ls_structure_factor_coef Fsqd
_refine_ls_matrix_type           full
_refine_ls_weighting_scheme      calc
_refine_ls_weighting_details     
'calc w=1/[\s^2^(Fo^2^)+(0.0569P)^2^] where P=(Fo^2^+2Fc^2^)/3'
_atom_sites_solution_primary     direct
_atom_sites_solution_secondary   'difference Fourier methods'
_atom_sites_solution_hydrogens   'placed geometrically'
_refine_ls_hydrogen_treatment    'refined in riding mode'
_refine_ls_extinction_method     none
_refine_ls_extinction_coef       ?
_refine_ls_abs_structure_details 'Flack, H.D. (1983), Acta Cryst. A39, 876-881'
_refine_ls_abs_structure_Flack   0.56(2)
_refine_ls_number_reflns         5864
_refine_ls_number_parameters     344
_refine_ls_number_restraints     171
_refine_ls_R_factor_all          0.052
_refine_ls_R_factor_gt           0.043
_refine_ls_wR_factor_ref         0.101
_refine_ls_wR_factor_gt          0.098
_refine_ls_goodness_of_fit_ref   1.075
_refine_ls_restrained_S_all      1.073
_refine_ls_shift/su_max          0.02
_refine_ls_shift/su_mean         0.001

loop_
_atom_site_label
_atom_site_type_symbol
_atom_site_fract_x
_atom_site_fract_y
_atom_site_fract_z
_atom_site_U_iso_or_equiv
_atom_site_adp_type
_atom_site_occupancy
_atom_site_symmetry_multiplicity
_atom_site_calc_flag
_atom_site_refinement_flags
_atom_site_disorder_assembly
_atom_site_disorder_group
Tb Tb 0.262232(7) 0.020040(7) 0.06197(3) 0.01949(4) Uani 1 1 d U . .
O11 O 0.18789(12) 0.05300(12) 0.2227(5) 0.0307(7) Uani 1 1 d U . .
O12 O 0.18836(12) -0.02882(12) 0.1798(5) 0.0260(7) Uani 1 1 d U . .
O13 O 0.13235(15) 0.00546(16) 0.3603(6) 0.0542(12) Uani 1 1 d U . .
O21 O 0.27830(13) -0.00086(16) 0.3751(4) 0.0359(8) Uani 1 1 d U . .
O22 O 0.34062(11) -0.01728(13) 0.1979(4) 0.0243(6) Uani 1 1 d U . .
O23 O 0.34985(14) -0.02977(17) 0.4774(5) 0.0465(11) Uani 1 1 d U . .
O31 O 0.31707(14) 0.08839(14) 0.1761(6) 0.0420(8) Uani 1 1 d U . .
O32 O 0.25562(13) 0.11374(12) 0.0117(5) 0.0322(8) Uani 1 1 d U . .
O33 O 0.31468(19) 0.16703(15) 0.0939(8) 0.0769(17) Uani 1 1 d U . .
N1 N 0.16837(15) 0.00944(15) 0.2565(6) 0.0284(8) Uani 1 1 d U . .
N2 N 0.32359(15) -0.01684(17) 0.3545(5) 0.0276(8) Uani 1 1 d U . .
N3 N 0.29737(17) 0.12487(16) 0.0947(7) 0.0390(10) Uani 1 1 d U . .
O10 O 0.31850(11) 0.03320(12) -0.1691(5) 0.0254(7) Uani 1 1 d U . .
O20 O 0.20784(12) 0.02507(13) -0.1690(5) 0.0296(7) Uani 1 1 d U . .
O30 O 0.27093(11) -0.06515(11) -0.0281(4) 0.0235(7) Uani 1 1 d U . .
N10 N 0.36820(13) 0.02466(14) -0.1793(5) 0.0203(8) Uani 1 1 d U . .
C11 C 0.40133(17) 0.06214(17) -0.2239(6) 0.0221(10) Uani 1 1 d U . .
H11A H 0.3888 0.0954 -0.2503 0.026 Uiso 1 1 calc R . .
C12 C 0.45216(18) 0.05279(17) -0.2314(5) 0.0211(10) Uani 1 1 d U . .
H12A H 0.4747 0.0800 -0.2603 0.025 Uiso 1 1 calc R . .
C13 C 0.47257(16) 0.00462(17) -0.1980(6) 0.0194(9) Uani 1 1 d U . .
C14 C 0.43730(16) -0.03411(16) -0.1588(6) 0.0173(9) Uani 1 1 d U . .
H14A H 0.4492 -0.0678 -0.1372 0.021 Uiso 1 1 calc R . .
C15 C 0.38570(17) -0.02411(18) -0.1511(6) 0.0229(10) Uani 1 1 d U . .
H15A H 0.3623 -0.0509 -0.1263 0.027 Uiso 1 1 calc R . .
N20 N 0.19217(14) 0.06472(15) -0.2656(5) 0.0236(9) Uani 1 1 d U . .
C21 C 0.22474(19) 0.08873(19) -0.3766(6) 0.0275(11) Uani 1 1 d U . .
H21A H 0.2597 0.0788 -0.3794 0.033 Uiso 1 1 calc R . .
C22 C 0.20834(19) 0.1266(2) -0.4837(6) 0.0300(11) Uani 1 1 d U . .
H22A H 0.2320 0.1433 -0.5594 0.036 Uiso 1 1 calc R . .
C24 C 0.1245(2) 0.1171(2) -0.3629(7) 0.0334(12) Uani 1 1 d U . .
H24A H 0.0897 0.1272 -0.3560 0.040 Uiso 1 1 calc R . .
C25 C 0.14275(19) 0.0789(2) -0.2546(7) 0.0322(12) Uani 1 1 d U . .
H25A H 0.1206 0.0626 -0.1727 0.039 Uiso 1 1 calc R . .
C23 C 0.15767(19) 0.14129(18) -0.4843(6) 0.0285(12) Uani 1 1 d U . .
N30 N 0.24081(15) -0.08807(14) -0.1456(5) 0.0216(8) Uani 1 1 d U . .
C31 C 0.20988(19) -0.12573(17) -0.0930(7) 0.0298(11) Uani 1 1 d U . .
H31A H 0.2099 -0.1361 0.0270 0.036 Uiso 1 1 calc R . .
C32 C 0.1775(2) -0.1500(2) -0.2132(7) 0.0324(12) Uani 1 1 d U . .
H32A H 0.1553 -0.1765 -0.1751 0.039 Uiso 1 1 calc R . .
C33 C 0.17806(18) -0.13492(18) -0.3898(6) 0.0258(11) Uani 1 1 d U . .
C34 C 0.21170(16) -0.09644(17) -0.4370(8) 0.0250(9) Uani 1 1 d U . .
H34A H 0.2131 -0.0856 -0.5565 0.030 Uiso 1 1 calc R . .
C35 C 0.24302(17) -0.07356(18) -0.3155(6) 0.0231(10) Uani 1 1 d U . .
H35A H 0.2662 -0.0476 -0.3512 0.028 Uiso 1 1 calc R . .
C1 C 0.202770(15) 0.301000(18) 0.4145(3) 0.088(6) Uiso 0.40 1 d PDU A 1
C2 C 0.19304(3) 0.29495(3) 0.5776(5) 0.103(7) Uiso 0.40 1 d PDU A 1
Cl1 Cl 0.25261(6) 0.26599(7) 0.3249(6) 0.0925(17) Uiso 0.40 1 d PDU A 1
Cl2 Cl 0.16501(8) 0.34359(8) 0.3007(7) 0.112(2) Uiso 0.40 1 d PDU A 1
Cl3 Cl 0.22764(12) 0.25355(10) 0.7083(7) 0.0885(17) Uiso 0.40 1 d PDU A 1
Cl4 Cl 0.14473(10) 0.32691(10) 0.6868(7) 0.0826(16) Uiso 0.40 1 d PDU A 1
O3 O 0.0446(2) 0.0582(2) 0.0245(8) 0.0625(17) Uiso 0.75 1 d PDU B 2
C3 C 0.0489(5) 0.0905(4) 0.1686(15) 0.086(3) Uiso 0.75 1 d PDU B 2
O4 O -0.0097(17) 0.0190(15) 0.442(6) 0.043(10) Uiso 0.05 1 d P . 3
C4 C -0.0097(17) 0.0190(15) 0.442(6) 0.043(10) Uiso 0.05 1 d P . 4

loop_
_atom_site_aniso_label
_atom_site_aniso_U_11
_atom_site_aniso_U_22
_atom_site_aniso_U_33
_atom_site_aniso_U_23
_atom_site_aniso_U_13
_atom_site_aniso_U_12
Tb 0.01457(9) 0.02004(9) 0.02387(8) -0.00001(10) -0.00321(10) 0.00012(7)
O11 0.0258(13) 0.0205(13) 0.0459(18) -0.0012(13) 0.0039(12) 0.0064(10)
O12 0.0220(12) 0.0191(12) 0.0369(16) 0.0003(12) 0.0037(11) 0.0004(10)
O13 0.0409(19) 0.044(2) 0.077(3) -0.001(2) 0.0365(17) 0.0014(17)
O21 0.0222(12) 0.062(2) 0.0233(12) 0.0101(13) 0.0017(11) 0.0080(14)
O22 0.0161(11) 0.0350(15) 0.0218(12) -0.0015(13) -0.0025(10) -0.0013(12)
O23 0.0297(17) 0.081(3) 0.0285(18) 0.0152(18) -0.0053(14) 0.0165(18)
O31 0.0356(15) 0.0323(13) 0.058(2) -0.0055(13) -0.0206(15) -0.0077(12)
O32 0.0312(15) 0.0218(12) 0.044(2) -0.0001(11) -0.0011(12) 0.0020(11)
O33 0.089(3) 0.0287(16) 0.113(4) -0.002(2) -0.032(3) -0.0244(19)
N1 0.0224(12) 0.0254(16) 0.0373(19) 0.0022(15) 0.0040(12) 0.0070(12)
N2 0.0181(13) 0.0419(19) 0.0227(13) 0.0010(14) -0.0019(11) -0.0003(15)
N3 0.0343(18) 0.0249(12) 0.058(3) -0.0061(14) 0.0006(17) -0.0059(12)
O10 0.0187(12) 0.0260(15) 0.0314(13) 0.0092(12) -0.0017(11) 0.0004(11)
O20 0.0216(14) 0.0350(16) 0.0322(13) 0.0046(12) -0.0103(11) 0.0012(12)
O30 0.0234(14) 0.0230(12) 0.0242(15) -0.0013(11) -0.0029(11) -0.0019(10)
N10 0.0149(13) 0.0222(17) 0.0237(19) 0.0050(16) -0.0040(14) 0.0046(13)
C11 0.0250(17) 0.0162(18) 0.025(2) 0.0019(18) -0.0048(19) 0.0040(14)
C12 0.0253(18) 0.0191(17) 0.019(2) 0.0040(17) 0.0039(19) -0.0026(16)
C13 0.0218(18) 0.0217(18) 0.015(2) 0.0011(18) -0.0042(17) -0.0038(14)
C14 0.0173(17) 0.0115(17) 0.023(2) -0.0018(16) -0.0023(17) 0.0016(13)
C15 0.0230(17) 0.0185(17) 0.027(2) 0.0053(19) -0.0031(19) -0.0051(15)
N20 0.0189(16) 0.0257(18) 0.026(2) 0.0005(14) -0.0067(14) 0.0028(14)
C21 0.022(2) 0.027(2) 0.033(2) 0.0002(17) 0.0010(16) 0.0044(17)
C22 0.029(2) 0.039(3) 0.022(2) 0.0038(17) 0.0003(18) 0.006(2)
C24 0.021(2) 0.038(3) 0.040(3) 0.009(2) 0.0013(18) 0.0102(19)
C25 0.0184(18) 0.032(2) 0.046(3) 0.011(2) -0.001(2) 0.0026(18)
C23 0.028(2) 0.026(2) 0.031(3) 0.0027(17) -0.0057(18) 0.0030(18)
N30 0.0204(17) 0.0213(17) 0.0232(16) -0.0047(14) 0.0013(15) 0.0002(14)
C31 0.040(2) 0.019(2) 0.030(2) 0.0004(17) -0.0051(19) -0.0092(17)
C32 0.033(2) 0.038(3) 0.026(2) -0.0008(19) -0.002(2) -0.012(2)
C33 0.027(2) 0.021(2) 0.030(2) -0.0011(18) -0.0010(18) 0.0004(16)
C34 0.020(2) 0.028(2) 0.0275(19) 0.000(2) -0.002(2) -0.0029(15)
C35 0.018(2) 0.023(2) 0.0285(18) 0.0030(17) 0.0008(17) 0.0010(16)

_geom_special_details            
; 
All esds (except the esd in the dihedral angle between two l.s. planes) 
are estimated using the full covariance matrix.  The cell esds are taken 
into account individually in the estimation of esds in distances, angles 
and torsion angles; correlations between esds in cell parameters are only 
used when they are defined by crystal symmetry.  An approximate (isotropic) 
treatment of cell esds is used for estimating esds involving l.s. planes. 
;

loop_
_geom_bond_atom_site_label_1
_geom_bond_atom_site_label_2
_geom_bond_distance
_geom_bond_site_symmetry_2
_geom_bond_publ_flag
Tb O10 2.314(3) . yes
Tb O20 2.260(3) . yes
Tb O30 2.341(3) . yes
Tb O11 2.451(3) . yes
Tb O21 2.472(3) . yes
Tb O12 2.483(3) . yes
Tb O22 2.494(3) . yes
Tb O31 2.450(4) . yes
Tb O32 2.486(3) . yes
O11 N1 1.275(5) . ?
O12 N1 1.270(5) . ?
O13 N1 1.232(5) . ?
O21 N2 1.266(5) . ?
O22 N2 1.268(5) . ?
O23 N2 1.206(5) . ?
O31 N3 1.248(6) . ?
O32 N3 1.293(6) . ?
O33 N3 1.192(6) . ?
O10 N10 1.321(5) . yes
O20 N20 1.334(5) . yes
O30 N30 1.332(5) . yes
N10 C11 1.351(6) . ?
N10 C15 1.372(6) . ?
C11 C12 1.353(6) . ?
C12 C13 1.392(6) . ?
C13 C14 1.402(6) . ?
C13 C13 1.455(8) 2_655 ?
C14 C15 1.376(6) . ?
N20 C25 1.347(6) . ?
N20 C21 1.352(6) . ?
C21 C22 1.351(7) . ?
C22 C23 1.380(7) . ?
C24 C25 1.379(7) . ?
C24 C23 1.414(7) . ?
C23 C33 1.480(7) 4_554 ?
N30 C31 1.336(6) . ?
N30 C35 1.344(6) . ?
C31 C32 1.395(7) . ?
C32 C33 1.395(7) . ?
C33 C34 1.384(6) . ?
C33 C23 1.480(7) 3_554 ?
C34 C35 1.370(7) . ?
C1 C2 1.272(4) . yes
C1 Cl2 1.721(4) . yes
C1 Cl1 1.732(3) . yes
C2 Cl3 1.725(4) . yes
C2 Cl4 1.727(4) . yes
O3 C3 1.387(11) . ?
O4 C4 1.12(8) 2 ?

loop_
_geom_angle_atom_site_label_1
_geom_angle_atom_site_label_2
_geom_angle_atom_site_label_3
_geom_angle
_geom_angle_site_symmetry_1
_geom_angle_site_symmetry_3
_geom_angle_publ_flag
O10 Tb O11 145.95(11) . . ?
O10 Tb O12 147.56(11) . . ?
O10 Tb O21 130.69(11) . . ?
O10 Tb O22 81.29(11) . . yes
O10 Tb O30 81.89(11) . . yes
O10 Tb O31 77.68(13) . . yes
O10 Tb O32 77.38(11) . . yes
O30 Tb O22 70.62(10) . . yes
O30 Tb O32 154.17(11) . . ?
O20 Tb O10 78.75(12) . . yes
O20 Tb O11 82.27(12) . . yes
O20 Tb O12 79.57(12) . . yes
O20 Tb O21 149.77(12) . . ?
O20 Tb O22 149.39(12) . . ?
O20 Tb O30 83.72(11) . . yes
O20 Tb O31 126.85(13) . . ?
O20 Tb O32 77.29(12) . . yes
O30 Tb O31 137.77(11) . . ?
O30 Tb O12 71.99(10) . . yes
O30 Tb O11 123.83(11) . . ?
O30 Tb O21 93.05(12) . . ?
O11 Tb O21 74.64(12) . . yes
O11 Tb O12 52.04(10) . . yes
O11 Tb O22 125.75(11) . . ?
O11 Tb O32 70.99(11) . . yes
O12 Tb O22 106.83(10) . . ?
O12 Tb O32 120.56(11) . . ?
O21 Tb O12 70.91(12) . . yes
O21 Tb O22 51.44(11) . . yes
O21 Tb O32 112.15(12) . . ?
O31 Tb O11 91.84(12) . . ?
O31 Tb O12 134.76(13) . . ?
O31 Tb O21 73.89(14) . . yes
O31 Tb O22 70.01(12) . . yes
O31 Tb O32 51.36(12) . . yes
O32 Tb O22 120.42(11) . . ?
N1 O11 Tb 95.9(2) . . yes
N1 O12 Tb 94.6(2) . . yes
N2 O21 Tb 96.5(3) . . yes
N2 O22 Tb 95.4(2) . . yes
N3 O31 Tb 98.1(3) . . yes
N3 O32 Tb 95.1(3) . . yes
O13 N1 O12 122.7(4) . . ?
O13 N1 O11 120.7(4) . . ?
O12 N1 O11 116.6(4) . . ?
O23 N2 O21 122.0(4) . . ?
O23 N2 O22 121.4(4) . . ?
O21 N2 O22 116.6(4) . . ?
O33 N3 O31 123.6(5) . . ?
O33 N3 O32 121.8(5) . . ?
O31 N3 O32 114.7(4) . . ?
N10 O10 Tb 130.2(3) . . yes
N20 O20 Tb 131.6(3) . . yes
N30 O30 Tb 124.5(2) . . yes
O10 N10 C11 121.5(4) . . ?
O10 N10 C15 118.4(4) . . ?
C11 N10 C15 120.0(4) . . ?
N10 C11 C12 120.6(4) . . ?
C11 C12 C13 122.2(4) . . ?
C12 C13 C14 116.1(4) . . ?
C12 C13 C13 121.9(5) . 2_655 ?
C14 C13 C13 121.9(5) . 2_655 ?
C15 C14 C13 121.1(4) . . ?
N10 C15 C14 119.8(4) . . ?
O20 N20 C25 118.3(4) . . ?
O20 N20 C21 120.6(4) . . ?
C25 N20 C21 121.0(4) . . ?
C22 C21 N20 121.0(4) . . ?
C21 C22 C23 120.7(5) . . ?
C25 C24 C23 120.0(5) . . ?
N20 C25 C24 119.6(5) . . ?
C22 C23 C24 117.6(4) . . ?
C22 C23 C33 124.7(4) . 4_554 ?
C24 C23 C33 117.6(4) . 4_554 ?
O30 N30 C31 119.4(4) . . ?
O30 N30 C35 119.3(4) . . ?
C31 N30 C35 121.4(4) . . ?
N30 C31 C32 120.5(5) . . ?
C31 C32 C33 119.5(5) . . ?
C34 C33 C32 117.4(5) . . ?
C34 C33 C23 122.6(5) . 3_554 ?
C32 C33 C23 120.0(4) . 3_554 ?
C35 C34 C33 121.6(5) . . ?
N30 C35 C34 119.7(4) . . ?
C2 C1 Cl2 116.9(2) . . ?
C2 C1 Cl1 117.8(2) . . ?
Cl2 C1 Cl1 125.3(2) . . ?
C1 C2 Cl3 122.1(2) . . ?
C1 C2 Cl4 123.5(2) . . ?
Cl3 C2 Cl4 114.3(3) . . ?

_diffrn_measured_fraction_theta_max 0.989
_diffrn_reflns_theta_full        27.49
_diffrn_measured_fraction_theta_full 0.989
_refine_diff_density_max         1.19
# Highest peak    1.19  at  0.7578  0.7282  0.1088  [  0.76 A from CL3 ]
_refine_diff_density_min         -0.78
_refine_diff_density_rms         0.14
