####################################################################### 
# 
# This file contains crystal structure data downloaded from the 
# Cambridge Structural Database (CSD) hosted by the Cambridge 
# Crystallographic Data Centre (CCDC).
# 
# Full information about CCDC data access policies and citation 
# guidelines are available at http://www.ccdc.cam.ac.uk/access/V1 
# 
# Audit and citation data items may have been added by the CCDC. 
# Please retain this information to preserve the provenance of 
# this file and to allow appropriate attribution of the data. 
# 
#######################################################################

data_complex-5
_audit_block_doi                 10.5517/ccrg5t5
_database_code_depnum_ccdc_archive 'CCDC 698827'
loop_
_citation_id
_citation_doi
_citation_year
1 10.1002/anie.200803543 2008
_audit_update_record             
;
2008-08-15 deposited with the CCDC.	2024-07-10 downloaded from the CCDC.
;

_audit_creation_method           SHELXL-97

_chemical_name_systematic        
;

?

;

_chemical_name_common            ?

_chemical_melting_point          ?

_chemical_formula_moiety         
'3(C648 H492 Fe12 N48 P24 Pt12), 72(S1 O3 C1 F3) '

_chemical_formula_sum            'C2016 H1476 F216 Fe36 N144 O216 P72 Pt36 S72'

_chemical_formula_weight         48849.88



loop_

_atom_type_symbol

_atom_type_description

_atom_type_scat_dispersion_real

_atom_type_scat_dispersion_imag

_atom_type_scat_source


















C C 0.0181 0.0091 'International Tables Vol C Tables 4.2.6.8 and 6.1.1.4'
H H 0.0000 0.0000 'International Tables Vol C Tables 4.2.6.8 and 6.1.1.4'
N N 0.0311 0.0180 'International Tables Vol C Tables 4.2.6.8 and 6.1.1.4'
O O 0.0492 0.0322 'International Tables Vol C Tables 4.2.6.8 and 6.1.1.4'
Pt Pt -4.5932 6.9264 'International Tables Vol C Tables 4.2.6.8 and 6.1.1.4'
P P 0.2955 0.4335 'International Tables Vol C Tables 4.2.6.8 and 6.1.1.4'
Fe Fe -1.1336 3.1974 'International Tables Vol C Tables 4.2.6.8 and 6.1.1.4'
S S 0.3331 0.5567 'International Tables Vol C Tables 4.2.6.8 and 6.1.1.4'
F F 0.0727 0.0534 'International Tables Vol C Tables 4.2.6.8 and 6.1.1.4'



_symmetry_cell_setting           trigonal

_symmetry_space_group_name_H-M   'R -3m'



loop_

_symmetry_equiv_pos_as_xyz




































'x, y, z'
'-y, x-y, z'
'y, x, -z'
'-x+y, -x, z'
'-x, -x+y, -z'
'x-y, -y, -z'
'x+2/3, y+1/3, z+1/3'
'-y+2/3, x-y+1/3, z+1/3'
'y+2/3, x+1/3, -z+1/3'
'-x+y+2/3, -x+1/3, z+1/3'
'-x+2/3, -x+y+1/3, -z+1/3'
'x-y+2/3, -y+1/3, -z+1/3'
'x+1/3, y+2/3, z+2/3'
'-y+1/3, x-y+2/3, z+2/3'
'y+1/3, x+2/3, -z+2/3'
'-x+y+1/3, -x+2/3, z+2/3'
'-x+1/3, -x+y+2/3, -z+2/3'
'x-y+1/3, -y+2/3, -z+2/3'
'-x, -y, -z'
'y, -x+y, -z'
'-y, -x, z'
'x-y, x, -z'
'x, x-y, z'
'-x+y, y, z'
'-x+2/3, -y+1/3, -z+1/3'
'y+2/3, -x+y+1/3, -z+1/3'
'-y+2/3, -x+1/3, z+1/3'
'x-y+2/3, x+1/3, -z+1/3'
'x+2/3, x-y+1/3, z+1/3'
'-x+y+2/3, y+1/3, z+1/3'
'-x+1/3, -y+2/3, -z+2/3'
'y+1/3, -x+y+2/3, -z+2/3'
'-y+1/3, -x+2/3, z+2/3'
'x-y+1/3, x+2/3, -z+2/3'
'x+1/3, x-y+2/3, z+2/3'
'-x+y+1/3, y+2/3, z+2/3'



_cell_length_a                   59.826

_cell_length_b                   59.826

_cell_length_c                   82.954

_cell_angle_alpha                90.00

_cell_angle_beta                 90.00

_cell_angle_gamma                120.00

_cell_volume                     257127.0

_cell_formula_units_Z            3

_cell_measurement_temperature    150(2)

_cell_measurement_reflns_used    ?

_cell_measurement_theta_min      ?

_cell_measurement_theta_max      ?



_exptl_crystal_description       'Hexagonal prisms'

_exptl_crystal_colour            Dark-red

_exptl_crystal_size_max          0.45

_exptl_crystal_size_mid          0.40

_exptl_crystal_size_min          0.38

_exptl_crystal_density_meas      ?

_exptl_crystal_density_diffrn    0.779

_exptl_crystal_density_method    'not measured'

_exptl_crystal_F_000             60268

_exptl_absorpt_coefficient_mu    4.630

_exptl_absorpt_correction_type   empirical

_exptl_absorpt_correction_T_min  ?

_exptl_absorpt_correction_T_max  ?

_exptl_absorpt_process_details   SADABS



_exptl_special_details           
;

'none'

;



_diffrn_ambient_temperature      150(2)

_diffrn_radiation_wavelength     1.00000

_diffrn_radiation_type           ?

_diffrn_radiation_source         'fine-focus sealed tube'

_diffrn_radiation_monochromator  graphite

_diffrn_measurement_device_type  ?

_diffrn_measurement_method       ?

_diffrn_detector_area_resol_mean ?

_diffrn_standards_number         ?

_diffrn_standards_interval_count ?

_diffrn_standards_interval_time  ?

_diffrn_standards_decay_%        ?

_diffrn_reflns_number            89243

_diffrn_reflns_av_R_equivalents  0.0405

_diffrn_reflns_av_sigmaI/netI    0.0528

_diffrn_reflns_limit_h_min       0

_diffrn_reflns_limit_h_max       52

_diffrn_reflns_limit_k_min       -53

_diffrn_reflns_limit_k_max       44

_diffrn_reflns_limit_l_min       -74

_diffrn_reflns_limit_l_max       74

_diffrn_reflns_theta_min         1.16

_diffrn_reflns_theta_max         26.55

_reflns_number_total             21033

_reflns_number_gt                15393

_reflns_threshold_expression     >2sigma(I)



_computing_data_collection       'Bruker SMART (Bruker)'

_computing_cell_refinement       'Bruker SMART (Bruker)'

_computing_data_reduction        'Bruker SAINT (Bruker)'

_computing_structure_solution    'SHELXS-97 (Sheldrick, 1990)'

_computing_structure_refinement  'SHELXL-97 (Sheldrick, 1997)'

_computing_molecular_graphics    ?

_computing_publication_material  'CIFTAB (Sheldrick, 1997)'





_refine_special_details          
;

Refinement of F^2^ against ALL reflections. The weighted R-factor wR and

goodness of fit S are based on F^2^, conventional R-factors R are based

on F, with F set to zero for negative F^2^. The threshold expression of

F^2^ > 2sigma(F^2^) is used only for calculating R-factors(gt) etc. and is

not relevant to the choice of reflections for refinement. R-factors based

on F^2^ are statistically about twice as large as those based on F, and R-

factors based on ALL data will be even larger.

;



_refine_ls_structure_factor_coef Fsqd

_refine_ls_matrix_type           fullcycle

_refine_ls_weighting_scheme      calc

_refine_ls_weighting_details     
'calc w=1/[\s^2^(Fo^2^)+(0.1569P)^2^+10300.9287P] where P=(Fo^2^+2Fc^2^)/3'

_atom_sites_solution_primary     direct

_atom_sites_solution_secondary   difmap

_atom_sites_solution_hydrogens   geom

_refine_ls_hydrogen_treatment    constr

_refine_ls_extinction_method     none

_refine_ls_extinction_coef       ?

_refine_ls_number_reflns         21033

_refine_ls_number_parameters     1819

_refine_ls_number_restraints     402

_refine_ls_R_factor_all          0.1408

_refine_ls_R_factor_gt           0.1176

_refine_ls_wR_factor_ref         0.3618

_refine_ls_wR_factor_gt          0.3396

_refine_ls_goodness_of_fit_ref   1.027

_refine_ls_restrained_S_all      1.022

_refine_ls_shift/su_max          0.013

_refine_ls_shift/su_mean         0.001



loop_

_atom_site_label

_atom_site_type_symbol

_atom_site_fract_x

_atom_site_fract_y

_atom_site_fract_z

_atom_site_U_iso_or_equiv

_atom_site_adp_type

_atom_site_occupancy

_atom_site_symmetry_multiplicity

_atom_site_calc_flag

_atom_site_refinement_flags

_atom_site_disorder_assembly

_atom_site_disorder_group




































































































































































































































































































































































Pt1 Pt 0.441389(18) 0.337521(17) 0.917883(9) 0.1028(3) Uani 1 1 d . . .
Fe1 Fe 0.39675(6) 0.34888(6) 0.95343(3) 0.1061(10) Uani 1 1 d . . .
P1 P 0.45288(11) 0.37406(10) 0.93225(6) 0.0983(15) Uani 1 1 d . . .
P2 P 0.41167(11) 0.30822(10) 0.93525(6) 0.1033(16) Uani 1 1 d . . .
N2 N 0.4354(5) 0.2177(2) 0.8608(3) 0.108(7) Uani 1 2 d S . .
N5 N 0.5521(3) 0.4479(3) 0.8556(3) 0.141(10) Uani 1 2 d S . .
C1 C 0.4543(5) 0.3985(3) 0.91807(16) 0.112(7) Uani 1 1 d G . .
C2 C 0.4319(3) 0.3955(3) 0.9109(2) 0.139(8) Uani 1 1 d G . .
H2 H 0.4160 0.3815 0.9136 0.166 Uiso 1 1 calc R . .
C3 C 0.4334(4) 0.4134(5) 0.8997(2) 0.167(10) Uani 1 1 d G . .
H3 H 0.4185 0.4114 0.8949 0.200 Uiso 1 1 calc R . .
C4 C 0.4573(6) 0.4344(4) 0.89561(17) 0.180(13) Uani 1 1 d G . .
H4 H 0.4583 0.4464 0.8881 0.216 Uiso 1 1 calc R . .
C5 C 0.4796(4) 0.4374(3) 0.9028(2) 0.142(9) Uani 1 1 d G . .
H5 H 0.4956 0.4514 0.9001 0.171 Uiso 1 1 calc R . .
C6 C 0.4781(3) 0.4194(4) 0.9140(2) 0.111(7) Uani 1 1 d G . .
C7 C 0.4836(2) 0.3864(4) 0.94174(17) 0.110(7) Uani 1 1 d G . .
C8 C 0.4982(4) 0.3745(2) 0.94030(15) 0.115(7) Uani 1 1 d G . .
H8 H 0.4923 0.3597 0.9340 0.138 Uiso 1 1 calc R . .
C9 C 0.5218(4) 0.3845(4) 0.9483(2) 0.110(6) Uani 1 1 d G . .
H9 H 0.5316 0.3765 0.9473 0.132 Uiso 1 1 calc R . .
C10 C 0.5306(2) 0.4066(4) 0.95764(18) 0.130(8) Uani 1 1 d G . .
H10 H 0.5464 0.4134 0.9630 0.156 Uiso 1 1 calc R . .
C11 C 0.5159(4) 0.4186(2) 0.95907(15) 0.115(7) Uani 1 1 d G . .
H11 H 0.5219 0.4334 0.9653 0.139 Uiso 1 1 calc R . .
C12 C 0.4924(4) 0.4085(4) 0.9511(2) 0.120(7) Uani 1 1 d G . .
H12 H 0.4826 0.4166 0.9521 0.143 Uiso 1 1 calc R . .
C13 C 0.4335(3) 0.3749(4) 0.9486(2) 0.110(7) Uani 1 1 d G . .
C14 C 0.4189(4) 0.3877(3) 0.9486(2) 0.139(9) Uani 1 1 d G . .
H14 H 0.4169 0.3964 0.9400 0.167 Uiso 1 1 calc R . .
C15 C 0.4077(3) 0.3847(4) 0.9641(3) 0.167(10) Uani 1 1 d G . .
H15 H 0.3972 0.3911 0.9674 0.200 Uiso 1 1 calc R . .
C16 C 0.4155(4) 0.3701(4) 0.97372(16) 0.125(8) Uani 1 1 d G . .
H16 H 0.4109 0.3653 0.9844 0.150 Uiso 1 1 calc R . .
C17 C 0.4314(4) 0.3641(3) 0.9641(3) 0.131(8) Uani 1 1 d G . .
H17 H 0.4392 0.3547 0.9674 0.157 Uiso 1 1 calc R . .
C18 C 0.3878(3) 0.3165(3) 0.9412(2) 0.126(8) Uani 1 1 d G . .
C19 C 0.3751(4) 0.3111(3) 0.95633(19) 0.111(7) Uani 1 1 d G . .
H19 H 0.3772 0.3021 0.9648 0.133 Uiso 1 1 calc R . .
C20 C 0.3587(3) 0.3220(3) 0.9564(2) 0.118(7) Uani 1 1 d G . .
H20 H 0.3482 0.3212 0.9648 0.141 Uiso 1 1 calc R . .
C21 C 0.3613(3) 0.3340(3) 0.9412(3) 0.131(8) Uani 1 1 d G . .
H21 H 0.3527 0.3426 0.9380 0.157 Uiso 1 1 calc R . .
C22 C 0.3792(4) 0.3307(3) 0.93182(14) 0.098(6) Uani 1 1 d G . .
H22 H 0.3844 0.3367 0.9214 0.117 Uiso 1 1 calc R . .
C23 C 0.4244(5) 0.3017(5) 0.9527(2) 0.124(7) Uani 1 1 d G . .
C24 C 0.4507(5) 0.3164(3) 0.9557(2) 0.151(9) Uani 1 1 d G . .
H24 H 0.4614 0.3294 0.9486 0.181 Uiso 1 1 calc R . .
C25 C 0.4610(3) 0.3117(4) 0.9695(3) 0.169(11) Uani 1 1 d G . .
H25 H 0.4786 0.3215 0.9715 0.203 Uiso 1 1 calc R . .
C26 C 0.4451(6) 0.2922(5) 0.98010(19) 0.166(10) Uani 1 1 d G . .
H26 H 0.4520 0.2891 0.9893 0.199 Uiso 1 1 calc R . .
C27 C 0.4188(5) 0.2775(3) 0.9770(3) 0.156(10) Uani 1 1 d G . .
H27 H 0.4081 0.2645 0.9841 0.187 Uiso 1 1 calc R . .
C28 C 0.4084(3) 0.2823(4) 0.9633(3) 0.149(9) Uani 1 1 d G . .
H28 H 0.3908 0.2724 0.9612 0.179 Uiso 1 1 calc R . .
C29 C 0.3920(5) 0.2767(3) 0.9251(2) 0.124(8) Uani 1 1 d G . .
C30 C 0.4004(3) 0.2589(6) 0.9251(2) 0.160(11) Uani 1 1 d G . .
H30 H 0.4155 0.2626 0.9305 0.192 Uiso 1 1 calc R . .
C31 C 0.3863(6) 0.2355(5) 0.9171(3) 0.152(11) Uani 1 1 d G . .
H31 H 0.3919 0.2236 0.9171 0.183 Uiso 1 1 calc R . .
C32 C 0.3637(5) 0.2300(3) 0.9090(2) 0.206(17) Uani 1 1 d G . .
H32 H 0.3543 0.2144 0.9036 0.247 Uiso 1 1 calc R . .
C33 C 0.3553(3) 0.2478(6) 0.9090(2) 0.180(12) Uani 1 1 d G . .
H33 H 0.3402 0.2441 0.9036 0.216 Uiso 1 1 calc R . .
C34 C 0.3694(5) 0.2712(5) 0.9171(3) 0.152(9) Uani 1 1 d G . .
H34 H 0.3637 0.2831 0.9171 0.182 Uiso 1 1 calc R . .
N1 N 0.4370(3) 0.3093(2) 0.90215(12) 0.098(5) Uani 1 1 d G . .
C35 C 0.4557(2) 0.3020(3) 0.90201(15) 0.111(6) Uani 1 1 d G . .
H35 H 0.4686 0.3083 0.9098 0.134 Uiso 1 1 calc R . .
C36 C 0.4551(3) 0.2852(3) 0.8902(2) 0.109(6) Uani 1 1 d G . .
H36 H 0.4676 0.2803 0.8901 0.131 Uiso 1 1 calc R . .
C37 C 0.4359(4) 0.2758(2) 0.87852(16) 0.109(7) Uani 1 1 d G . .
C38 C 0.4172(3) 0.2832(3) 0.87867(14) 0.118(7) Uani 1 1 d G . .
H38 H 0.4043 0.2769 0.8709 0.142 Uiso 1 1 calc R . .
C39 C 0.4177(2) 0.2999(3) 0.89048(18) 0.094(5) Uani 1 1 d G . .
H39 H 0.4052 0.3048 0.8906 0.113 Uiso 1 1 calc R . .
C40 C 0.4389(3) 0.2682(4) 0.84986(15) 0.115(7) Uani 1 1 d G . .
C41 C 0.4429(3) 0.2924(3) 0.8443(2) 0.127(7) Uani 1 1 d G . .
H41 H 0.4453 0.3061 0.8508 0.153 Uiso 1 1 calc R . .
C42 C 0.4427(3) 0.2920(3) 0.8272(2) 0.130(8) Uani 1 1 d G . .
H42 H 0.4449 0.3054 0.8205 0.156 Uiso 1 1 calc R . .
C43 C 0.4385(3) 0.2675(3) 0.82217(15) 0.127(8) Uani 1 1 d G . .
N3 N 0.4361(3) 0.2528(2) 0.8362(2) 0.121(6) Uani 1 1 d G . .
C44 C 0.4353(5) 0.2577(5) 0.8650(2) 0.126(8) Uani 1 1 d . . .
C45 C 0.4336(4) 0.2343(5) 0.8692(2) 0.115(7) Uani 1 1 d . . .
C46 C 0.4296(4) 0.2248(3) 0.8873(2) 0.113(7) Uani 1 1 d . . .
H46 H 0.4276 0.2331 0.8962 0.135 Uiso 1 1 calc R . .
N4 N 0.4656(3) 0.3605(2) 0.89954(13) 0.097(5) Uani 1 1 d G . .
C47 C 0.4916(3) 0.3678(3) 0.89883(18) 0.114(7) Uani 1 1 d G . .
H47 H 0.4990 0.3632 0.9071 0.137 Uiso 1 1 calc R . .
C48 C 0.5065(2) 0.3821(3) 0.8858(2) 0.118(7) Uani 1 1 d G . .
H48 H 0.5239 0.3870 0.8853 0.141 Uiso 1 1 calc R . .
C49 C 0.4954(4) 0.3890(2) 0.87347(17) 0.136(9) Uani 1 1 d G . .
C50 C 0.4694(4) 0.3817(3) 0.87418(16) 0.124(8) Uani 1 1 d G . .
H50 H 0.4620 0.3864 0.8659 0.148 Uiso 1 1 calc R . .
C51 C 0.4545(2) 0.3675(3) 0.8872(2) 0.124(8) Uani 1 1 d G . .
H51 H 0.4371 0.3626 0.8877 0.149 Uiso 1 1 calc R . .
C52 C 0.5122(5) 0.4075(5) 0.8600(3) 0.124(7) Uani 1 1 d . . .
C53 C 0.5337(4) 0.4309(4) 0.8649(2) 0.108(6) Uani 1 1 d . . .
C54 C 0.5367(4) 0.4397(4) 0.8816(2) 0.120(7) Uani 1 1 d . . .
H54 H 0.5256 0.4317 0.8903 0.144 Uiso 1 1 calc R . .
Pt2 Pt 0.223677(19) 0.22689(2) 0.723430(11) 0.1224(4) Uani 1 1 d . . .
Pt3 Pt 0.22744(2) 0.22441(2) 0.893434(14) 0.1368(4) Uani 1 1 d . . .
Fe2 Fe 0.26906(7) 0.27991(9) 0.68789(4) 0.1422(14) Uani 1 1 d . . .
Fe3 Fe 0.27774(11) 0.26731(10) 0.93142(6) 0.1778(18) Uani 1 1 d . . .
P3 P 0.25233(12) 0.22443(13) 0.70657(6) 0.1199(19) Uani 1 1 d . . .
P4 P 0.21322(13) 0.25171(14) 0.70825(7) 0.130(2) Uani 1 1 d . . .
P5 P 0.25630(16) 0.21717(17) 0.90643(10) 0.161(3) Uani 1 1 d . . .
P6 P 0.22108(16) 0.24889(17) 0.91190(9) 0.154(3) Uani 1 1 d . . .
N7 N 0.2291(5) 0.1145(3) 0.7825(3) 0.130(9) Uani 1 2 d S . .
N9 N 0.2275(7) 0.1137(3) 0.8302(4) 0.147(11) Uani 1 2 d S . .
N12 N 0.1176(4) 0.2352(7) 0.7861(4) 0.171(12) Uani 1 2 d S . .
N14 N 0.1162(4) 0.2323(7) 0.8343(4) 0.143(11) Uani 1 2 d S . .
C55 C 0.1810(3) 0.2337(6) 0.6996(2) 0.139(9) Uani 1 1 d G . .
C56 C 0.1665(6) 0.2070(6) 0.70131(19) 0.134(8) Uani 1 1 d G . .
H56 H 0.1724 0.1985 0.7079 0.161 Uiso 1 1 calc R . .
C57 C 0.1432(5) 0.1932(3) 0.6932(3) 0.168(11) Uani 1 1 d G . .
H57 H 0.1334 0.1754 0.6944 0.201 Uiso 1 1 calc R . .
C58 C 0.1344(3) 0.2060(7) 0.6833(3) 0.173(12) Uani 1 1 d G . .
H58 H 0.1188 0.1967 0.6779 0.207 Uiso 1 1 calc R . .
C59 C 0.1489(6) 0.2326(7) 0.68160(19) 0.153(10) Uani 1 1 d G . .
H59 H 0.1431 0.2412 0.6750 0.184 Uiso 1 1 calc R . .
C60 C 0.1723(5) 0.2465(3) 0.6897(3) 0.154(9) Uani 1 1 d G . .
H60 H 0.1820 0.2643 0.6886 0.185 Uiso 1 1 calc R . .
C61 C 0.2115(7) 0.2757(4) 0.7222(2) 0.132(8) Uani 1 1 d G . .
C62 C 0.1883(4) 0.2744(4) 0.7259(3) 0.149(9) Uani 1 1 d G . .
H62 H 0.1730 0.2618 0.7212 0.179 Uiso 1 1 calc R . .
C63 C 0.1878(5) 0.2920(6) 0.7367(3) 0.208(15) Uani 1 1 d G . .
H63 H 0.1723 0.2911 0.7392 0.250 Uiso 1 1 calc R . .
C64 C 0.2106(8) 0.3108(5) 0.7437(2) 0.218(16) Uani 1 1 d G . .
H64 H 0.2103 0.3225 0.7509 0.261 Uiso 1 1 calc R . .
C65 C 0.2339(5) 0.3121(4) 0.7400(3) 0.180(12) Uani 1 1 d G . .
H65 H 0.2491 0.3246 0.7447 0.216 Uiso 1 1 calc R . .
C66 C 0.2343(4) 0.2945(6) 0.7292(3) 0.177(12) Uani 1 1 d G . .
H66 H 0.2499 0.2954 0.7267 0.212 Uiso 1 1 calc R . .
C67 C 0.2325(4) 0.2692(6) 0.6913(2) 0.141(9) Uani 1 1 d G . .
C68 C 0.2347(4) 0.2582(4) 0.6767(4) 0.154(10) Uani 1 1 d G . .
H68 H 0.2269 0.2406 0.6744 0.185 Uiso 1 1 calc R . .
C69 C 0.2507(5) 0.2786(7) 0.6661(2) 0.188(15) Uani 1 1 d G . .
H69 H 0.2553 0.2769 0.6557 0.226 Uiso 1 1 calc R . .
C70 C 0.2585(4) 0.3023(5) 0.6742(4) 0.25(2) Uani 1 1 d G . .
H70 H 0.2691 0.3187 0.6701 0.301 Uiso 1 1 calc R . .
C71 C 0.2473(5) 0.2964(6) 0.6898(3) 0.174(13) Uani 1 1 d G . .
H71 H 0.2492 0.3084 0.6977 0.208 Uiso 1 1 calc R . .
C72 C 0.2770(3) 0.2551(3) 0.7007(3) 0.120(7) Uani 1 1 d G . .
C73 C 0.2836(4) 0.2771(5) 0.71042(18) 0.128(8) Uani 1 1 d G . .
H73 H 0.2769 0.2770 0.7205 0.154 Uiso 1 1 calc R . .
C74 C 0.3023(4) 0.2993(3) 0.7020(4) 0.198(13) Uani 1 1 d G . .
H74 H 0.3099 0.3162 0.7056 0.238 Uiso 1 1 calc R . .
C75 C 0.3072(4) 0.2910(6) 0.6870(3) 0.169(11) Uani 1 1 d G . .
H75 H 0.3187 0.3016 0.6791 0.203 Uiso 1 1 calc R . .
C76 C 0.2916(5) 0.2637(6) 0.6862(2) 0.157(10) Uani 1 1 d G . .
H76 H 0.2911 0.2533 0.6777 0.188 Uiso 1 1 calc R . .
C77 C 0.2697(4) 0.2106(6) 0.7163(2) 0.125(8) Uani 1 1 d G . .
C78 C 0.2608(3) 0.1843(5) 0.7151(2) 0.165(11) Uani 1 1 d G . .
H78 H 0.2464 0.1739 0.7088 0.199 Uiso 1 1 calc R . .
C79 C 0.2734(6) 0.1736(3) 0.7234(3) 0.154(10) Uani 1 1 d G . .
H79 H 0.2675 0.1560 0.7227 0.184 Uiso 1 1 calc R . .
C80 C 0.2949(5) 0.1892(6) 0.7328(2) 0.162(11) Uani 1 1 d G . .
H80 H 0.3034 0.1821 0.7383 0.194 Uiso 1 1 calc R . .
C81 C 0.3038(3) 0.2155(5) 0.73393(19) 0.155(9) Uani 1 1 d G . .
H81 H 0.3182 0.2260 0.7402 0.186 Uiso 1 1 calc R . .
C82 C 0.2912(4) 0.2262(3) 0.7257(2) 0.129(8) Uani 1 1 d G . .
H82 H 0.2971 0.2438 0.7264 0.154 Uiso 1 1 calc R . .
C83 C 0.2396(6) 0.2056(3) 0.6894(2) 0.130(8) Uani 1 1 d G . .
C84 C 0.2548(3) 0.2017(4) 0.6784(3) 0.168(10) Uani 1 1 d G . .
H84 H 0.2725 0.2096 0.6799 0.201 Uiso 1 1 calc R . .
C85 C 0.2435(6) 0.1859(5) 0.6650(3) 0.156(9) Uani 1 1 d G . .
H85 H 0.2537 0.1833 0.6576 0.187 Uiso 1 1 calc R . .
C86 C 0.2170(6) 0.1740(4) 0.6627(2) 0.191(13) Uani 1 1 d G . .
H86 H 0.2094 0.1635 0.6538 0.229 Uiso 1 1 calc R . .
C87 C 0.2017(3) 0.1779(5) 0.6737(4) 0.223(16) Uani 1 1 d G . .
H87 H 0.1840 0.1699 0.6722 0.267 Uiso 1 1 calc R . .
C88 C 0.2130(5) 0.1936(5) 0.6871(3) 0.172(11) Uani 1 1 d G . .
H88 H 0.2028 0.1962 0.6945 0.206 Uiso 1 1 calc R . .
N6 N 0.2