####################################################################### 
# 
# This file contains crystal structure data downloaded from the 
# Cambridge Structural Database (CSD) hosted by the Cambridge 
# Crystallographic Data Centre (CCDC).
# 
# Full information about CCDC data access policies and citation 
# guidelines are available at http://www.ccdc.cam.ac.uk/access/V1 
# 
# Audit and citation data items may have been added by the CCDC. 
# Please retain this information to preserve the provenance of 
# this file and to allow appropriate attribution of the data. 
# 
#######################################################################

data_1
_audit_block_doi                 10.5517/ccyvb47
_database_code_depnum_ccdc_archive 'CCDC 889239'
loop_
_citation_id
_citation_doi
_citation_year
1 10.1016/j.ica.2014.04.040 2014
_audit_update_record             
;
2012-06-29 deposited with the CCDC.	2024-07-10 downloaded from the CCDC.
;
#TrackingRef '12264_web_deposit_cif_file_0_JianchuZhong_1340947286.C20 H24 Ag F3 N2 O4 S9.cif'


_audit_creation_method           SHELXL-97
_chemical_name_systematic        
;
?
;
_chemical_name_common            ?
_chemical_melting_point          ?
_chemical_formula_moiety         ?
_chemical_formula_sum            'C20 H24 Ag F3 N2 O4 S9'
_chemical_formula_weight         809.82

loop_
_atom_type_symbol
_atom_type_description
_atom_type_scat_dispersion_real
_atom_type_scat_dispersion_imag
_atom_type_scat_source
C C 0.0033 0.0016 'International Tables Vol C Tables 4.2.6.8 and 6.1.1.4'
H H 0.0000 0.0000 'International Tables Vol C Tables 4.2.6.8 and 6.1.1.4'
N N 0.0061 0.0033 'International Tables Vol C Tables 4.2.6.8 and 6.1.1.4'
F F 0.0171 0.0103 'International Tables Vol C Tables 4.2.6.8 and 6.1.1.4'
S S 0.1246 0.1234 'International Tables Vol C Tables 4.2.6.8 and 6.1.1.4'
Ag Ag -0.8971 1.1015 'International Tables Vol C Tables 4.2.6.8 and 6.1.1.4'
O O 0.0106 0.0060 'International Tables Vol C Tables 4.2.6.8 and 6.1.1.4'

_symmetry_cell_setting           ?
_symmetry_space_group_name_H-M   ?

loop_
_symmetry_equiv_pos_as_xyz
'x, y, z'
'-x+1/2, -y, z+1/2'
'-x, y+1/2, -z'
'x+1/2, -y+1/2, -z+1/2'
'-x, -y, -z'
'x-1/2, y, -z-1/2'
'x, -y-1/2, z'
'-x-1/2, y-1/2, z-1/2'

_cell_length_a                   11.8428(3)
_cell_length_b                   19.9023(5)
_cell_length_c                   26.1585(5)
_cell_angle_alpha                90.00
_cell_angle_beta                 90.00
_cell_angle_gamma                90.00
_cell_volume                     6165.5(2)
_cell_formula_units_Z            8
_cell_measurement_temperature    273(2)
_cell_measurement_reflns_used    ?
_cell_measurement_theta_min      ?
_cell_measurement_theta_max      ?

_exptl_crystal_description       ?
_exptl_crystal_colour            ?
_exptl_crystal_size_max          0.80
_exptl_crystal_size_mid          0.50
_exptl_crystal_size_min          0.30
_exptl_crystal_density_meas      ?
_exptl_crystal_density_diffrn    1.745
_exptl_crystal_density_method    'not measured'
_exptl_crystal_F_000             3264
_exptl_absorpt_coefficient_mu    1.313
_exptl_absorpt_correction_type   ?
_exptl_absorpt_correction_T_min  0.4198
_exptl_absorpt_correction_T_max  0.6942
_exptl_absorpt_process_details   ?

_exptl_special_details           
;
?
;

_diffrn_ambient_temperature      273(2)
_diffrn_radiation_wavelength     0.71073
_diffrn_radiation_type           MoK\a
_diffrn_radiation_source         'fine-focus sealed tube'
_diffrn_radiation_monochromator  graphite
_diffrn_measurement_device_type  ?
_diffrn_measurement_method       ?
_diffrn_detector_area_resol_mean ?
_diffrn_standards_number         ?
_diffrn_standards_interval_count ?
_diffrn_standards_interval_time  ?
_diffrn_standards_decay_%        ?
_diffrn_reflns_number            28442
_diffrn_reflns_av_R_equivalents  0.0383
_diffrn_reflns_av_sigmaI/netI    0.0380
_diffrn_reflns_limit_h_min       -16
_diffrn_reflns_limit_h_max       14
_diffrn_reflns_limit_k_min       -25
_diffrn_reflns_limit_k_max       14
_diffrn_reflns_limit_l_min       -35
_diffrn_reflns_limit_l_max       35
_diffrn_reflns_theta_min         2.05
_diffrn_reflns_theta_max         29.03
_reflns_number_total             8107
_reflns_number_gt                5825
_reflns_threshold_expression     >2sigma(I)

_computing_data_collection       ?
_computing_cell_refinement       ?
_computing_data_reduction        ?
_computing_structure_solution    'SHELXS-97 (Sheldrick, 1990)'
_computing_structure_refinement  'SHELXL-97 (Sheldrick, 1997)'
_computing_molecular_graphics    ?
_computing_publication_material  ?

_refine_special_details          
;
Refinement of F^2^ against ALL reflections. The weighted R-factor wR and
goodness of fit S are based on F^2^, conventional R-factors R are based
on F, with F set to zero for negative F^2^. The threshold expression of
F^2^ > 2sigma(F^2^) is used only for calculating R-factors(gt) etc. and is
not relevant to the choice of reflections for refinement. R-factors based
on F^2^ are statistically about twice as large as those based on F, and R-
factors based on ALL data will be even larger.
;

_refine_ls_structure_factor_coef Fsqd
_refine_ls_matrix_type           full
_refine_ls_weighting_scheme      calc
_refine_ls_weighting_details     
'calc w=1/[\s^2^(Fo^2^)+(0.0663P)^2^+13.5186P] where P=(Fo^2^+2Fc^2^)/3'
_atom_sites_solution_primary     direct
_atom_sites_solution_secondary   difmap
_atom_sites_solution_hydrogens   geom
_refine_ls_hydrogen_treatment    mixed
_refine_ls_extinction_method     none
_refine_ls_extinction_coef       ?
_refine_ls_number_reflns         8107
_refine_ls_number_parameters     376
_refine_ls_number_restraints     0
_refine_ls_R_factor_all          0.0782
_refine_ls_R_factor_gt           0.0524
_refine_ls_wR_factor_ref         0.1477
_refine_ls_wR_factor_gt          0.1314
_refine_ls_goodness_of_fit_ref   1.011
_refine_ls_restrained_S_all      1.011
_refine_ls_shift/su_max          0.001
_refine_ls_shift/su_mean         0.000

loop_
_atom_site_label
_atom_site_type_symbol
_atom_site_fract_x
_atom_site_fract_y
_atom_site_fract_z
_atom_site_U_iso_or_equiv
_atom_site_adp_type
_atom_site_occupancy
_atom_site_symmetry_multiplicity
_atom_site_calc_flag
_atom_site_refinement_flags
_atom_site_disorder_assembly
_atom_site_disorder_group
Ag1 Ag 0.38641(3) 0.00941(2) 0.328169(13) 0.05856(15) Uani 1 1 d . . .
S1 S 1.10254(8) -0.06543(6) 0.59679(4) 0.0390(2) Uani 1 1 d . . .
S2 S 1.07143(9) 0.09997(6) 0.60416(4) 0.0452(3) Uani 1 1 d . . .
S3 S 0.49440(9) -0.08251(6) 0.38088(4) 0.0419(3) Uani 1 1 d . . .
S4 S 0.44948(8) 0.08614(6) 0.40119(4) 0.0391(2) Uani 1 1 d . . .
S5 S 0.88007(9) -0.06625(5) 0.54130(4) 0.0380(2) Uani 1 1 d . . .
S6 S 0.85056(9) 0.08018(5) 0.55011(4) 0.0381(2) Uani 1 1 d . . .
S7 S 0.65994(8) -0.07183(5) 0.46552(4) 0.0332(2) Uani 1 1 d . . .
S8 S 0.62674(8) 0.07288(5) 0.48109(4) 0.0330(2) Uani 1 1 d . . .
C1 C 1.0365(4) -0.1313(2) 0.63375(15) 0.0403(9) Uani 1 1 d . . .
H1A H 0.9895 -0.1579 0.6111 0.048 Uiso 1 1 calc R . .
H1B H 1.0950 -0.1606 0.6471 0.048 Uiso 1 1 calc R . .
C2 C 0.9652(4) -0.1072(2) 0.67771(15) 0.0410(9) Uani 1 1 d . . .
H2A H 0.9033 -0.0807 0.6641 0.049 Uiso 1 1 calc R . .
H2B H 0.9327 -0.1460 0.6946 0.049 Uiso 1 1 calc R . .
C3 C 1.0241(4) -0.0672(2) 0.71560(15) 0.0402(9) Uani 1 1 d . . .
C4 C 0.9894(4) 0.1528(2) 0.64609(16) 0.0415(10) Uani 1 1 d . . .
H4A H 1.0347 0.1916 0.6552 0.050 Uiso 1 1 calc R . .
H4B H 0.9242 0.1690 0.6274 0.050 Uiso 1 1 calc R . .
C5 C 0.9487(4) 0.1198(2) 0.69471(16) 0.0421(10) Uani 1 1 d . . .
H5A H 1.0121 0.0980 0.7112 0.051 Uiso 1 1 calc R . .
H5B H 0.9209 0.1543 0.7177 0.051 Uiso 1 1 calc R . .
C6 C 0.8595(4) 0.0703(2) 0.68658(15) 0.0364(9) Uani 1 1 d . . .
C7 C 0.6103(4) -0.1157(3) 0.34268(18) 0.0544(12) Uani 1 1 d . . .
H7A H 0.6598 -0.1416 0.3647 0.065 Uiso 1 1 calc R . .
H7B H 0.5798 -0.1460 0.3172 0.065 Uiso 1 1 calc R . .
C8 C 0.6787(4) -0.0623(3) 0.31616(18) 0.0602(14) Uani 1 1 d . . .
H8A H 0.7382 -0.0830 0.2968 0.090 Uiso 1 1 calc R . .
H8B H 0.7108 -0.0326 0.3412 0.090 Uiso 1 1 calc R . .
H8C H 0.6308 -0.0371 0.2936 0.090 Uiso 1 1 calc R . .
C9 C 0.5363(4) 0.1545(2) 0.3785(2) 0.0551(13) Uani 1 1 d . . .
H9A H 0.4876 0.1883 0.3634 0.066 Uiso 1 1 calc R . .
H9B H 0.5739 0.1748 0.4075 0.066 Uiso 1 1 calc R . .
C10 C 0.6233(4) 0.1352(3) 0.3401(2) 0.0716(17) Uani 1 1 d . . .
H10A H 0.6652 0.1744 0.3301 0.107 Uiso 1 1 calc R . .
H10B H 0.5871 0.1160 0.3107 0.107 Uiso 1 1 calc R . .
H10C H 0.6738 0.1028 0.3549 0.107 Uiso 1 1 calc R . .
C11 C 0.9845(3) -0.0215(2) 0.57453(13) 0.0307(8) Uani 1 1 d . . .
C12 C 0.9709(3) 0.0452(2) 0.57865(13) 0.0316(8) Uani 1 1 d . . .
C13 C 0.5672(3) -0.0304(2) 0.42352(13) 0.0322(8) Uani 1 1 d . . .
C14 C 0.5504(3) 0.0354(2) 0.43116(13) 0.0312(8) Uani 1 1 d . . .
C15 C 0.8000(3) 0.00445(19) 0.52471(13) 0.0299(8) Uani 1 1 d . . .
C16 C 0.7091(3) 0.00187(19) 0.49425(14) 0.0295(8) Uani 1 1 d . . .
N1 N 1.0670(4) -0.0373(2) 0.74679(14) 0.0530(10) Uani 1 1 d . . .
N2 N 0.7904(3) 0.0321(2) 0.68051(13) 0.0415(8) Uani 1 1 d . . .
S9 S 0.25189(18) 0.2500 0.32124(11) 0.0885(8) Uani 1 2 d S . .
C17 C 0.3413(9) 0.2500 0.2665(3) 0.079(3) Uani 1 2 d S . .
O1 O 0.2845(5) 0.1896(6) 0.3431(4) 0.251(6) Uani 1 1 d . . .
O2 O 0.1400(5) 0.2500 0.3022(4) 0.117(3) Uani 1 2 d S . .
F1 F 0.3189(6) 0.1989(5) 0.2394(3) 0.271(5) Uani 1 1 d . . .
F2 F 0.4468(4) 0.2500 0.2762(2) 0.0908(16) Uani 1 2 d S . .
C18 C 0.6677(7) 0.2500 0.6723(5) 0.082(3) Uani 1 2 d S . .
O3 O 0.6454(7) 0.1897(7) 0.7529(5) 0.327(9) Uani 1 1 d . . .
O4 O 0.8170(5) 0.2500 0.7431(2) 0.0714(15) Uani 1 2 d S . .
F4 F 0.7087(5) 0.1958(4) 0.6536(3) 0.195(3) Uani 1 1 d . . .
F5 F 0.5582(5) 0.2500 0.6626(3) 0.128(3) Uani 1 2 d S . .
S10 S 0.6982(2) 0.2500 0.74065(12) 0.1082(10) Uani 1 2 d S . .
O6 O 1.2276(9) -0.2500 0.5756(3) 0.123(3) Uani 1 2 d S . .
C23 C 1.1997(12) -0.2500 0.5316(5) 0.090(3) Uani 1 2 d S . .
C24 C 1.0781(11) -0.2500 0.5177(4) 0.101(4) Uani 1 2 d S . .
H24A H 1.0332 -0.2500 0.5483 0.152 Uiso 1 2 calc SR . .
H24B H 1.0613 -0.2894 0.4980 0.152 Uiso 0.50 1 calc PR . .
H24C H 1.0613 -0.2106 0.4980 0.152 Uiso 0.50 1 calc PR . .
C22 C 1.2812(11) -0.2500 0.4885(6) 0.114(4) Uani 1 2 d S . .
H22A H 1.3568 -0.2500 0.5018 0.171 Uiso 1 2 calc SR . .
H22B H 1.2697 -0.2106 0.4680 0.171 Uiso 0.50 1 calc PR . .
H22C H 1.2697 -0.2894 0.4680 0.171 Uiso 0.50 1 calc PR . .
O5 O 0.724(2) -0.2500 0.4237(6) 0.247(11) Uani 1 2 d S . .
C20 C 0.697(2) -0.2500 0.4681(8) 0.158(9) Uani 1 2 d S . .
C21 C 0.774(2) -0.2500 0.5037(8) 0.275(18) Uani 1 2 d S . .
H21A H 0.8472 -0.2500 0.4882 0.413 Uiso 1 2 calc SR . .
H21B H 0.7654 -0.2894 0.5245 0.413 Uiso 0.50 1 calc PR . .
H21C H 0.7654 -0.2106 0.5245 0.413 Uiso 0.50 1 calc PR . .
C19 C 0.579(2) -0.2500 0.4773(15) 0.32(2) Uani 1 2 d S . .
H19A H 0.5392 -0.2500 0.4453 0.487 Uiso 1 2 calc SR . .
H19B H 0.5588 -0.2106 0.4965 0.487 Uiso 0.50 1 calc PR . .
H19C H 0.5588 -0.2894 0.4965 0.487 Uiso 0.50 1 calc PR . .

loop_
_atom_site_aniso_label
_atom_site_aniso_U_11
_atom_site_aniso_U_22
_atom_site_aniso_U_33
_atom_site_aniso_U_23
_atom_site_aniso_U_13
_atom_site_aniso_U_12
Ag1 0.0396(2) 0.1052(4) 0.03085(17) 0.01343(18) -0.01019(14) -0.0195(2)
S1 0.0302(5) 0.0592(7) 0.0276(4) 0.0074(4) -0.0026(4) 0.0102(5)
S2 0.0292(5) 0.0607(7) 0.0457(6) -0.0076(5) -0.0013(4) -0.0094(5)
S3 0.0403(6) 0.0556(7) 0.0298(5) 0.0029(5) -0.0085(4) -0.0129(5)
S4 0.0294(5) 0.0545(6) 0.0333(5) 0.0117(4) -0.0076(4) 0.0017(4)
S5 0.0409(5) 0.0365(5) 0.0365(5) 0.0031(4) -0.0148(4) 0.0032(4)
S6 0.0399(5) 0.0373(5) 0.0371(5) -0.0013(4) -0.0140(4) 0.0030(4)
S7 0.0333(5) 0.0386(5) 0.0276(4) 0.0024(4) -0.0067(4) -0.0008(4)
S8 0.0298(5) 0.0397(5) 0.0293(4) 0.0018(4) -0.0069(4) 0.0034(4)
C1 0.055(3) 0.033(2) 0.0326(19) 0.0004(17) -0.0083(19) 0.0097(19)
C2 0.049(2) 0.041(2) 0.034(2) 0.0046(17) 0.0002(18) -0.0075(19)
C3 0.046(2) 0.050(2) 0.0247(18) 0.0034(17) 0.0057(17) 0.004(2)
C4 0.046(2) 0.031(2) 0.048(2) 0.0002(18) -0.010(2) -0.0036(18)
C5 0.044(2) 0.042(2) 0.041(2) -0.0124(19) -0.0046(19) -0.0037(19)
C6 0.033(2) 0.047(2) 0.0288(17) -0.0051(17) -0.0023(16) 0.0028(19)
C7 0.059(3) 0.069(3) 0.035(2) -0.013(2) -0.007(2) 0.003(3)
C8 0.048(3) 0.098(4) 0.034(2) -0.006(3) -0.002(2) -0.003(3)
C9 0.053(3) 0.050(3) 0.062(3) 0.026(2) -0.023(2) -0.008(2)
C10 0.048(3) 0.096(5) 0.070(4) 0.032(3) -0.003(3) -0.025(3)
C11 0.0257(17) 0.048(2) 0.0182(15) 0.0042(15) -0.0027(13) 0.0031(16)
C12 0.0274(18) 0.043(2) 0.0244(16) 0.0007(15) -0.0040(14) -0.0023(16)
C13 0.0282(18) 0.048(2) 0.0208(16) 0.0072(16) -0.0044(14) -0.0050(17)
C14 0.0271(18) 0.044(2) 0.0223(16) 0.0093(15) -0.0029(14) -0.0021(16)
C15 0.0275(18) 0.040(2) 0.0222(16) 0.0042(14) -0.0018(13) -0.0008(15)
C16 0.0276(18) 0.037(2) 0.0235(16) 0.0054(14) -0.0006(14) 0.0000(15)
N1 0.057(2) 0.074(3) 0.0285(17) -0.0073(19) 0.0036(17) 0.001(2)
N2 0.0370(19) 0.053(2) 0.0343(17) -0.0013(16) -0.0033(15) -0.0022(18)
S9 0.0324(9) 0.133(2) 0.1004(18) 0.000 -0.0099(11) 0.000
C17 0.096(7) 0.092(7) 0.047(4) 0.000 -0.030(5) 0.000
O1 0.055(3) 0.433(14) 0.264(9) 0.268(10) 0.014(4) 0.044(5)
O2 0.042(3) 0.048(3) 0.261(10) 0.000 -0.046(5) 0.000
F1 0.155(5) 0.406(12) 0.252(8) -0.263(9) -0.027(6) -0.009(7)
F2 0.065(3) 0.144(5) 0.064(3) 0.000 0.002(3) 0.000
C18 0.051(5) 0.048(4) 0.146(10) 0.000 -0.037(6) 0.000
O3 0.151(7) 0.455(17) 0.377(15) 0.300(14) 0.021(8) -0.123(9)
O4 0.073(4) 0.072(4) 0.068(4) 0.000 0.010(3) 0.000
F4 0.145(5) 0.209(6) 0.232(7) -0.128(6) -0.105(5) 0.091(5)
F5 0.058(3) 0.072(4) 0.255(9) 0.000 -0.047(4) 0.000
S10 0.0708(16) 0.154(3) 0.100(2) 0.000 0.0525(16) 0.000
O6 0.173(9) 0.101(6) 0.094(6) 0.000 -0.049(6) 0.000
C23 0.140(11) 0.041(4) 0.089(7) 0.000 -0.030(8) 0.000
C24 0.150(11) 0.071(6) 0.083(7) 0.000 -0.016(7) 0.000
C22 0.128(10) 0.054(6) 0.159(13) 0.000 -0.001(10) 0.000
O5 0.51(3) 0.091(7) 0.145(11) 0.000 -0.086(16) 0.000
C20 0.30(3) 0.037(5) 0.140(13) 0.000 -0.088(17) 0.000
C21 0.50(4) 0.069(9) 0.26(2) 0.000 -0.27(3) 0.000
C19 0.165(19) 0.070(10) 0.74(8) 0.000 0.07(3) 0.000

_geom_special_details            
;
All esds (except the esd in the dihedral angle between two l.s. planes)
are estimated using the full covariance matrix. The cell esds are taken
into account individually in the estimation of esds in distances, angles
and torsion angles; correlations between esds in cell parameters are only
used when they are defined by crystal symmetry. An approximate (isotropic)
treatment of cell esds is used for estimating esds involving l.s. planes.
;

loop_
_geom_bond_atom_site_label_1
_geom_bond_atom_site_label_2
_geom_bond_distance
_geom_bond_site_symmetry_2
_geom_bond_publ_flag
Ag1 N2 2.263(4) 5_656 ?
Ag1 N1 2.268(4) 2_654 ?
Ag1 S4 2.5569(12) . ?
Ag1 S3 2.6237(12) . ?
S1 C11 1.749(4) . ?
S1 C1 1.807(4) . ?
S2 C12 1.747(4) . ?
S2 C4 1.803(5) . ?
S3 C13 1.750(4) . ?
S3 C7 1.821(5) . ?
S4 C14 1.750(4) . ?
S4 C9 1.806(5) . ?
S5 C15 1.751(4) . ?
S5 C11 1.755(4) . ?
S6 C15 1.752(4) . ?
S6 C12 1.754(4) . ?
S7 C16 1.748(4) . ?
S7 C13 1.758(4) . ?
S8 C16 1.752(4) . ?
S8 C14 1.755(4) . ?
C1 C2 1.505(6) . ?
C2 C3 1.450(6) . ?
C3 N1 1.131(6) . ?
C4 C5 1.510(6) . ?
C5 C6 1.461(6) . ?
C6 N2 1.127(5) . ?
C7 C8 1.507(8) . ?
C9 C10 1.488(8) . ?
C11 C12 1.340(6) . ?
C13 C14 1.340(6) . ?
C15 C16 1.340(5) . ?
N1 Ag1 2.268(4) 2_655 ?
N2 Ag1 2.263(4) 5_656 ?
S9 O1 1.386(8) 7_565 ?
S9 O1 1.386(8) . ?
S9 O2 1.415(6) . ?
S9 C17 1.781(11) . ?
C17 F1 1.267(7) . ?
C17 F1 1.267(7) 7_565 ?
C17 F2 1.275(11) . ?
C18 F4 1.279(8) . ?
C18 F4 1.279(8) 7_565 ?
C18 F5 1.321(10) . ?
C18 S10 1.825(12) . ?
O3 S10 1.390(10) . ?
O4 S10 1.408(7) . ?
S10 O3 1.390(10) 7_565 ?
O6 C23 1.198(12) . ?
C23 C22 1.483(17) . ?
C23 C24 1.484(16) . ?
O5 C20 1.20(2) . ?
C20 C21 1.30(2) . ?
C20 C19 1.42(3) . ?

loop_
_geom_angle_atom_site_label_1
_geom_angle_atom_site_label_2
_geom_angle_atom_site_label_3
_geom_angle
_geom_angle_site_symmetry_1
_geom_angle_site_symmetry_3
_geom_angle_publ_flag
N2 Ag1 N1 102.74(14) 5_656 2_654 ?
N2 Ag1 S4 124.29(9) 5_656 . ?
N1 Ag1 S4 118.92(12) 2_654 . ?
N2 Ag1 S3 104.42(10) 5_656 . ?
N1 Ag1 S3 123.07(12) 2_654 . ?
S4 Ag1 S3 83.19(3) . . ?
C11 S1 C1 101.27(19) . . ?
C12 S2 C4 103.26(19) . . ?
C13 S3 C7 101.1(2) . . ?
C13 S3 Ag1 99.33(14) . . ?
C7 S3 Ag1 109.38(17) . . ?
C14 S4 C9 101.1(2) . . ?
C14 S4 Ag1 100.93(14) . . ?
C9 S4 Ag1 111.73(18) . . ?
C15 S5 C11 95.51(18) . . ?
C15 S6 C12 95.58(18) . . ?
C16 S7 C13 94.79(18) . . ?
C16 S8 C14 95.17(18) . . ?
C2 C1 S1 114.8(3) . . ?
C3 C2 C1 115.3(4) . . ?
N1 C3 C2 176.9(5) . . ?
C5 C4 S2 115.5(3) . . ?
C6 C5 C4 113.7(4) . . ?
N2 C6 C5 179.7(5) . . ?
C8 C7 S3 113.7(4) . . ?
C10 C9 S4 115.0(4) . . ?
C12 C11 S1 124.4(3) . . ?
C12 C11 S5 117.2(3) . . ?
S1 C11 S5 118.3(2) . . ?
C11 C12 S2 124.5(3) . . ?
C11 C12 S6 117.2(3) . . ?
S2 C12 S6 117.9(2) . . ?
C14 C13 S3 126.9(3) . . ?
C14 C13 S7 117.2(3) . . ?
S3 C13 S7 115.4(2) . . ?
C13 C14 S4 126.8(3) . . ?
C13 C14 S8 116.8(3) . . ?
S4 C14 S8 116.1(2) . . ?
C16 C15 S5 123.4(3) . . ?
C16 C15 S6 122.2(3) . . ?
S5 C15 S6 114.4(2) . . ?
C15 C16 S7 123.7(3) . . ?
C15 C16 S8 122.2(3) . . ?
S7 C16 S8 114.0(2) . . ?
C3 N1 Ag1 156.3(4) . 2_655 ?
C6 N2 Ag1 158.7(4) . 5_656 ?
O1 S9 O1 120.4(10) 7_565 . ?
O1 S9 O2 113.9(4) 7_565 . ?
O1 S9 O2 113.9(4) . . ?
O1 S9 C17 99.6(4) 7_565 . ?
O1 S9 C17 99.6(4) . . ?
O2 S9 C17 105.9(5) . . ?
F1 C17 F1 106.7(12) . 7_565 ?
F1 C17 F2 108.4(7) . . ?
F1 C17 F2 108.4(7) 7_565 . ?
F1 C17 S9 109.0(7) . . ?
F1 C17 S9 109.0(7) 7_565 . ?
F2 C17 S9 114.