####################################################################### 
# 
# This file contains crystal structure data downloaded from the 
# Cambridge Structural Database (CSD) hosted by the Cambridge 
# Crystallographic Data Centre (CCDC).
# 
# Full information about CCDC data access policies and citation 
# guidelines are available at http://www.ccdc.cam.ac.uk/access/V1 
# 
# Audit and citation data items may have been added by the CCDC. 
# Please retain this information to preserve the provenance of 
# this file and to allow appropriate attribution of the data. 
# 
#######################################################################

data_global
_audit_block_doi                 10.5517/cc10gk23
_database_code_depnum_ccdc_archive 'CCDC 937504'
loop_
_citation_id
_citation_doi
_citation_year
1 10.1016/j.optmat.2013.10.034 2013
_audit_update_record             
;
2013-05-06 deposited with the CCDC.	2024-07-10 downloaded from the CCDC.
;

#------------------ AUDIT DETAILS -------------------------------------------#

_audit_creation_date             2012-06-13
_audit_creation_method           'WinGX routine CIF_UPDATE'
_audit_conform_dict_name         cif_core.dic
_audit_conform_dict_version      2.4
_audit_conform_dict_location     ftp://ftp.iucr.org/pub/cif_core.dic



#----------------------------------------------------------------------------#
#                   CHEMICAL INFORMATION                                     #
#----------------------------------------------------------------------------#

_chemical_name_systematic        
;
 [(<i>\m</i>-1,2-bis(4-pyridyl)ethylene-<i>\k^2^N</i>:<i>N</i>)bis(tri-<i>tert</i>-\
butoxysilanothiolato-<i>\kS</i>)cadmium(II)toluene solvate]
;
_chemical_formula_moiety         'C50 H80 Cd N2 O6 S2 Si2'
_chemical_formula_sum            'C50 H80 Cd N2 O6 S2 Si2'
_chemical_formula_weight         1037.86
_chemical_compound_source        'synthesis as described'

#----------------------------------------------------------------------------#
#                   UNIT CELL INFORMATION                                    #
#----------------------------------------------------------------------------#

_symmetry_cell_setting           monoclinic
_symmetry_space_group_name_H-M   'C 2/c'
_symmetry_space_group_name_Hall  '-C 2yc'
_symmetry_Int_Tables_number      15
loop_
_symmetry_equiv_pos_as_xyz
'x, y, z'
'-x, y, -z+1/2'
'x+1/2, y+1/2, z'
'-x+1/2, y+1/2, -z+1/2'
'-x, -y, -z'
'x, -y, z-1/2'
'-x+1/2, -y+1/2, -z'
'x+1/2, -y+1/2, z-1/2'

_cell_length_a                   17.5369(5)
_cell_length_b                   14.4176(3)
_cell_length_c                   22.6213(6)
_cell_angle_alpha                90
_cell_angle_beta                 97.639(2)
_cell_angle_gamma                90
_cell_volume                     5668.8(3)
_cell_formula_units_Z            4
_cell_measurement_temperature    150(2)
_cell_measurement_reflns_used    24988
_cell_measurement_theta_min      1.82
_cell_measurement_theta_max      29.69

#----------------------------------------------------------------------------#
#                   CRYSTAL INFORMATION                                      #
#----------------------------------------------------------------------------#

_exptl_crystal_description       block
_exptl_crystal_colour            colourless
_exptl_crystal_size_max          0.22
_exptl_crystal_size_mid          0.17
_exptl_crystal_size_min          0.14
_exptl_crystal_density_diffrn    1.216
_exptl_crystal_density_method    'not measured'
_exptl_crystal_F_000             2200
loop_
_exptl_crystal_face_index_h
_exptl_crystal_face_index_k
_exptl_crystal_face_index_l
_exptl_crystal_face_perp_dist
30 1 -9 0.1079
30 29 -5 0.0868
19 23 30 0.064
30 -2 26 0.0657
30 -27 -5 0.0768
24 -2 -30 0.1193
-23 -24 -30 0.0546
-23 24 -30 0.0748
-30 30 -3 0.0723
-21 22 30 0.0733
-30 -29 30 0.0928
-1 0 -30 0.099
0 29 -30 0.0891

_exptl_special_details           
;
 ?
;

#----------------------------------------------------------------------------#
#                   ABSORPTION CORRECTION                                    #
#----------------------------------------------------------------------------#

_exptl_absorpt_coefficient_mu    0.545
_exptl_absorpt_correction_type   integration
_exptl_absorpt_correction_T_min  0.8963
_exptl_absorpt_correction_T_max  0.9506

#----------------------------------------------------------------------------#
#                   DATA COLLECTION                                          #
#----------------------------------------------------------------------------#

_diffrn_source                   'rotating anode'
_diffrn_ambient_temperature      150(2)
_diffrn_radiation_wavelength     0.71073
_diffrn_radiation_type           MoK\a
_diffrn_radiation_monochromator  graphite
_diffrn_detector                 'image plate (34 cm diameter)'
_diffrn_detector_area_resol_mean 6.67
_diffrn_measurement_device       '2-circle goniometer'
_diffrn_measurement_device_type  'STOE IPDS 2'
_diffrn_measurement_method       'rotation method'
_diffrn_reflns_av_R_equivalents  0.0152
_diffrn_reflns_av_unetI/netI     0.0171
_diffrn_reflns_number            15709
_diffrn_reflns_limit_h_min       -15
_diffrn_reflns_limit_h_max       21
_diffrn_reflns_limit_k_min       -17
_diffrn_reflns_limit_k_max       17
_diffrn_reflns_limit_l_min       -27
_diffrn_reflns_limit_l_max       27
_diffrn_reflns_theta_min         1.84
_diffrn_reflns_theta_max         26
_diffrn_reflns_theta_full        26
_diffrn_measured_fraction_theta_full 0.986
_diffrn_measured_fraction_theta_max 0.986
_reflns_number_total             5478
_reflns_number_gt                4980
_reflns_threshold_expression     >2\s(I)

#----------------------------------------------------------------------------#
#                   COMPUTER PROGRAMS USED                                   #
#----------------------------------------------------------------------------#

_computing_data_collection       'STOE X-AREA'
_computing_cell_refinement       'STOE X-AREA'
_computing_data_reduction        'STOE X-RED'
_computing_structure_refinement  'SHELXL-97 (Sheldrick, 2008)'

#----------------------------------------------------------------------------#
#                   STRUCTURE SOLUTION
#----------------------------------------------------------------------------#

_atom_sites_solution_primary     direct
_atom_sites_solution_secondary   difmap
_atom_sites_solution_hydrogens   geom

#----------------------------------------------------------------------------#
#                   REFINEMENT INFORMATION                                   #
#----------------------------------------------------------------------------#

_refine_special_details          
;
 Refinement of F^2^ against ALL reflections.  The weighted R-factor wR and
 goodness of fit S are based on F^2^, conventional R-factors R are based
 on F, with F set to zero for negative F^2^. The threshold expression of
 F^2^ > 2\s(F^2^) is used only for calculating R-factors(gt) etc. and is
 not relevant to the choice of reflections for refinement.  R-factors based
 on F^2^ are statistically about twice as large as those based on F, and R-
 factors based on ALL data will be even larger.
;
_refine_ls_structure_factor_coef Fsqd
_refine_ls_matrix_type           full
_refine_ls_weighting_scheme      calc
_refine_ls_weighting_details     
'calc w=1/[\s^2^(Fo^2^)+(0.0360P)^2^+1.0278P] where P=(Fo^2^+2Fc^2^)/3'
_refine_ls_hydrogen_treatment    mixed
_refine_ls_extinction_method     none
_refine_ls_number_reflns         5478
_refine_ls_number_parameters     340
_refine_ls_number_restraints     0
_refine_ls_R_factor_all          0.0281
_refine_ls_R_factor_gt           0.0231
_refine_ls_wR_factor_ref         0.056
_refine_ls_wR_factor_gt          0.0546
_refine_ls_goodness_of_fit_ref   1.046
_refine_ls_restrained_S_all      1.046
_refine_ls_shift/su_max          0.003
_refine_ls_shift/su_mean         0
_refine_diff_density_max         0.279
_refine_diff_density_min         -0.248
_refine_diff_density_rms         0.042

#----------------------------------------------------------------------------#
#                   ATOMIC TYPES, COORDINATES AND THERMAL PARAMETERS         #
#----------------------------------------------------------------------------#

loop_
_atom_type_symbol
_atom_type_description
_atom_type_scat_dispersion_real
_atom_type_scat_dispersion_imag
_atom_type_scat_source
C C 0.0033 0.0016 'International Tables Vol C Tables 4.2.6.8 and 6.1.1.4'
H H 0 0 'International Tables Vol C Tables 4.2.6.8 and 6.1.1.4'
Cd Cd -0.8075 1.2024 'International Tables Vol C Tables 4.2.6.8 and 6.1.1.4'
N N 0.0061 0.0033 'International Tables Vol C Tables 4.2.6.8 and 6.1.1.4'
O O 0.0106 0.006 'International Tables Vol C Tables 4.2.6.8 and 6.1.1.4'
S S 0.1246 0.1234 'International Tables Vol C Tables 4.2.6.8 and 6.1.1.4'
Si Si 0.0817 0.0704 'International Tables Vol C Tables 4.2.6.8 and 6.1.1.4'

loop_
_atom_site_label
_atom_site_type_symbol
_atom_site_fract_x
_atom_site_fract_y
_atom_site_fract_z
_atom_site_U_iso_or_equiv
_atom_site_adp_type
_atom_site_occupancy
_atom_site_symmetry_multiplicity
_atom_site_calc_flag
_atom_site_refinement_flags
_atom_site_disorder_assembly
_atom_site_disorder_group
Cd1 Cd 0.5 0.289874(11) 0.75 0.02275(5) Uani 1 2 d S . .
S1 S 0.36576(2) 0.33373(3) 0.756430(15) 0.02882(9) Uani 1 1 d . . .
Si1 Si 0.34497(2) 0.38990(3) 0.670997(16) 0.02539(9) Uani 1 1 d . . .
O1 O 0.29424(6) 0.32226(8) 0.62276(5) 0.0318(2) Uani 1 1 d . . .
O2 O 0.29771(6) 0.48726(8) 0.66715(4) 0.0307(2) Uani 1 1 d . . .
O3 O 0.42902(6) 0.39994(8) 0.64821(4) 0.0322(2) Uani 1 1 d . . .
N1 N 0.50989(7) 0.17573(9) 0.82631(5) 0.0277(3) Uani 1 1 d . . .
C1 C 0.21301(10) 0.30436(13) 0.61200(7) 0.0366(4) Uani 1 1 d . . .
C2 C 0.17733(13) 0.37280(17) 0.56515(9) 0.0550(5) Uani 1 1 d . . .
H2A H 0.1861 0.4362 0.5801 0.083 Uiso 1 1 calc R . .
H2B H 0.1219 0.3613 0.5566 0.083 Uiso 1 1 calc R . .
H2C H 0.201 0.365 0.5286 0.083 Uiso 1 1 calc R . .
C3 C 0.20445(13) 0.20583(16) 0.58884(10) 0.0537(5) Uani 1 1 d . . .
H3A H 0.2296 0.2 0.5529 0.081 Uiso 1 1 calc R . .
H3B H 0.1497 0.1908 0.5793 0.081 Uiso 1 1 calc R . .
H3C H 0.2285 0.163 0.6194 0.081 Uiso 1 1 calc R . .
C4 C 0.17569(11) 0.31418(15) 0.66890(9) 0.0451(4) Uani 1 1 d . . .
H4A H 0.2025 0.2743 0.7 0.068 Uiso 1 1 calc R . .
H4B H 0.1215 0.2957 0.6609 0.068 Uiso 1 1 calc R . .
H4C H 0.1791 0.3789 0.6823 0.068 Uiso 1 1 calc R . .
C5 C 0.30188(10) 0.57003(12) 0.70337(7) 0.0342(3) Uani 1 1 d . . .
C6 C 0.27196(11) 0.64787(13) 0.66131(9) 0.0415(4) Uani 1 1 d . . .
H6A H 0.3083 0.659 0.6327 0.062 Uiso 1 1 calc R . .
H6B H 0.2664 0.7045 0.6843 0.062 Uiso 1 1 calc R . .
H6C H 0.2219 0.6303 0.6397 0.062 Uiso 1 1 calc R . .
C7 C 0.38425(12) 0.58961(15) 0.73085(9) 0.0480(5) Uani 1 1 d . . .
H7A H 0.4036 0.5375 0.7563 0.072 Uiso 1 1 calc R . .
H7B H 0.3856 0.6463 0.7548 0.072 Uiso 1 1 calc R . .
H7C H 0.4166 0.5977 0.6991 0.072 Uiso 1 1 calc R . .
C8 C 0.24918(14) 0.55601(15) 0.75086(9) 0.0499(5) Uani 1 1 d . . .
H8A H 0.1975 0.5397 0.7317 0.075 Uiso 1 1 calc R . .
H8B H 0.2467 0.6134 0.7737 0.075 Uiso 1 1 calc R . .
H8C H 0.2693 0.5059 0.7777 0.075 Uiso 1 1 calc R . .
C9 C 0.45167(10) 0.43070(13) 0.59191(7) 0.0377(4) Uani 1 1 d . . .
C10 C 0.39046(14) 0.49125(19) 0.55749(9) 0.0627(7) Uani 1 1 d . . .
H10A H 0.343 0.4553 0.5477 0.094 Uiso 1 1 calc R . .
H10B H 0.4084 0.5127 0.5206 0.094 Uiso 1 1 calc R . .
H10C H 0.3804 0.5449 0.5819 0.094 Uiso 1 1 calc R . .
C11 C 0.4655(2) 0.34616(18) 0.55669(10) 0.0739(8) Uani 1 1 d . . .
H11A H 0.5065 0.309 0.5789 0.111 Uiso 1 1 calc R . .
H11B H 0.4809 0.3647 0.5183 0.111 Uiso 1 1 calc R . .
H11C H 0.4182 0.3093 0.5498 0.111 Uiso 1 1 calc R . .
C12 C 0.52391(16) 0.4873(2) 0.60841(10) 0.0728(8) Uani 1 1 d . . .
H12A H 0.5125 0.5403 0.6328 0.109 Uiso 1 1 calc R . .
H12B H 0.5426 0.5096 0.572 0.109 Uiso 1 1 calc R . .
H12C H 0.5635 0.4485 0.631 0.109 Uiso 1 1 calc R . .
C13 C 0.44682(9) 0.14841(13) 0.84888(7) 0.0361(4) Uani 1 1 d . . .
H13 H 0.3981 0.1681 0.8295 0.043 Uiso 1 1 calc R . .
C14 C 0.44887(9) 0.09316(13) 0.89888(7) 0.0374(4) Uani 1 1 d . . .
H14 H 0.4024 0.0754 0.9131 0.045 Uiso 1 1 calc R . .
C15 C 0.51964(9) 0.06355(11) 0.92836(6) 0.0286(3) Uani 1 1 d . . .
C16 C 0.58484(9) 0.09036(11) 0.90385(6) 0.0290(3) Uani 1 1 d . . .
H16 H 0.6343 0.0704 0.9216 0.035 Uiso 1 1 calc R . .
C17 C 0.57778(9) 0.14613(11) 0.85360(6) 0.0285(3) Uani 1 1 d . . .
H17 H 0.6231 0.1641 0.8379 0.034 Uiso 1 1 calc R . .
C18 C 0.52747(10) 0.00695(11) 0.98289(7) 0.0303(3) Uani 1 1 d . . .
C19 C 0.1920(2) 0.6315(3) 0.41316(17) 0.0478(13) Uani 0.563(7) 1 d PG A 1
C20 C 0.1768(2) 0.6756(3) 0.46499(13) 0.0581(14) Uani 0.563(7) 1 d PG A 1
H20 H 0.2139 0.6741 0.4997 0.07 Uiso 0.563(7) 1 calc PR A 1
C21 C 0.1075(3) 0.7219(4) 0.46608(18) 0.0668(19) Uani 0.563(7) 1 d PG A 1
H21 H 0.0972 0.752 0.5015 0.08 Uiso 0.563(7) 1 calc PR A 1
C22 C 0.0533(2) 0.7241(4) 0.4153(2) 0.080(2) Uani 0.563(7) 1 d PG A 1
H22 H 0.0059 0.7557 0.4161 0.096 Uiso 0.563(7) 1 calc PR A 1
C23 C 0.0684(3) 0.6800(3) 0.36350(19) 0.0794(19) Uani 0.563(7) 1 d PG A 1
H23 H 0.0314 0.6815 0.3288 0.095 Uiso 0.563(7) 1 calc PR A 1
C24 C 0.1378(3) 0.6337(3) 0.36241(14) 0.068(2) Uani 0.563(7) 1 d PG A 1
H24 H 0.1481 0.6036 0.327 0.081 Uiso 0.563(7) 1 calc PR A 1
C25 C 0.2678(3) 0.5853(4) 0.4103(2) 0.0694(15) Uani 0.563(7) 1 d P A 1
H25A H 0.2595 0.519 0.4019 0.104 Uiso 0.563(7) 1 calc PR A 1
H25B H 0.3007 0.5929 0.4485 0.104 Uiso 0.563(7) 1 calc PR A 1
H25C H 0.2928 0.6135 0.3784 0.104 Uiso 0.563(7) 1 calc PR A 1
C19A C 0.1131(6) 0.6484(6) 0.3690(3) 0.069(3) Uani 0.437(7) 1 d PG A 2
C20A C 0.1858(6) 0.6097(5) 0.3829(5) 0.101(4) Uani 0.437(7) 1 d PG A 2
H20A H 0.2091 0.5779 0.3532 0.122 Uiso 0.437(7) 1 calc PR A 2
C21A C 0.2246(5) 0.6177(6) 0.4405(7) 0.129(5) Uani 0.437(7) 1 d PG A 2
H21A H 0.2743 0.5912 0.45 0.154 Uiso 0.437(7) 1 calc PR A 2
C22A C 0.1906(8) 0.6643(8) 0.4840(4) 0.151(9) Uani 0.437(7) 1 d PG A 2
H22A H 0.2171 0.6697 0.5233 0.181 Uiso 0.437(7) 1 calc PR A 2
C23A C 0.1178(8) 0.7029(7) 0.4700(4) 0.174(10) Uani 0.437(7) 1 d PG A 2
H23A H 0.0946 0.7348 0.4997 0.208 Uiso 0.437(7) 1 calc PR A 2
C24A C 0.0791(5) 0.6950(6) 0.4125(5) 0.107(4) Uani 0.437(7) 1 d PG A 2
H24A H 0.0293 0.7214 0.4029 0.128 Uiso 0.437(7) 1 calc PR A 2
C25A C 0.0644(8) 0.6400(9) 0.3091(4) 0.142(5) Uani 0.437(7) 1 d P A 2
H25D H 0.0962 0.6177 0.2795 0.213 Uiso 0.437(7) 1 calc PR A 2
H25E H 0.0429 0.7009 0.2968 0.213 Uiso 0.437(7) 1 calc PR A 2
H25F H 0.0224 0.5961 0.3119 0.213 Uiso 0.437(7) 1 calc PR A 2
H18 H 0.5739(11) -0.0195(13) 0.9918(8) 0.032(5) Uiso 1 1 d . . .

loop_
_atom_site_aniso_label
_atom_site_aniso_U_11
_atom_site_aniso_U_22
_atom_site_aniso_U_33
_atom_site_aniso_U_23
_atom_site_aniso_U_13
_atom_site_aniso_U_12
Cd1 0.02404(8) 0.02530(9) 0.01876(7) 0 0.00225(5) 0
S1 0.02778(19) 0.0370(2) 0.02240(16) 0.00705(14) 0.00596(13) 0.00493(15)
Si1 0.0267(2) 0.0281(2) 0.02159(18) 0.00379(15) 0.00392(15) 0.00516(16)
O1 0.0331(6) 0.0334(6) 0.0280(5) -0.0010(4) 0.0007(4) 0.0073(5)
O2 0.0340(6) 0.0278(6) 0.0296(5) 0.0007(4) 0.0020(4) 0.0063(5)
O3 0.0322(6) 0.0424(7) 0.0233(5) 0.0096(4) 0.0083(4) 0.0066(5)
N1 0.0291(7) 0.0278(7) 0.0251(6) 0.0034(5) -0.0009(5) -0.0042(5)
C1 0.0334(8) 0.0392(10) 0.0344(8) 0.0004(7) -0.0058(6) 0.0048(7)
C2 0.0478(11) 0.0634(14) 0.0493(11) 0.0129(10) -0.0107(9) 0.0152(10)
C3 0.0518(12) 0.0488(13) 0.0563(11) -0.0129(9) -0.0082(9) -0.0020(10)
C4 0.0344(9) 0.0530(12) 0.0478(10) -0.0024(8) 0.0049(7) -0.0035(8)
C5 0.0366(9) 0.0288(9) 0.0377(8) -0.0033(6) 0.0064(7) 0.0041(7)
C6 0.0416(10) 0.0302(10) 0.0535(10) 0.0020(8) 0.0090(8) 0.0062(7)
C7 0.0448(11) 0.0421(11) 0.0540(11) -0.0088(9) -0.0046(8) 0.0026(8)
C8 0.0649(13) 0.0420(12) 0.0473(10) -0.0062(8) 0.0244(9) 0.0029(9)
C9 0.0414(9) 0.0484(11) 0.0257(7) 0.0115(7) 0.0135(6) 0.0064(8)
C10 0.0652(14) 0.0842(18) 0.0426(10) 0.0330(11) 0.0219(10) 0.0252(12)
C11 0.125(2) 0.0607(16) 0.0457(11) 0.0115(10) 0.0484(14) 0.0248(15)
C12 0.0660(15) 0.108(2) 0.0463(11) 0.0229(12) 0.0154(10) -0.0281(15)
C13 0.0272(8) 0.0419(10) 0.0363(8) 0.0149(7) -0.0065(6) -0.0065(7)
C14 0.0273(8) 0.0440(10) 0.0387(8) 0.0182(7) -0.0032(6) -0.0098(7)
C15 0.0327(8) 0.0235(8) 0.0275(7) 0.0036(6) -0.0042(6) -0.0047(6)
C16 0.0283(8) 0.0280(8) 0.0291(7) 0.0021(6) -0.0021(6) 0.0019(6)
C17 0.0280(8) 0.0286(8) 0.0288(7) 0.0008(6) 0.0029(6) -0.0012(6)
C18 0.0307(8) 0.0253(8) 0.0317(7) 0.0067(6) -0.0069(6) -0.0034(6)
C19 0.046(3) 0.032(2) 0.068(3) 0.004(2) 0.018(2) -0.0002(18)
C20 0.065(3) 0.048(3) 0.061(3) 0.006(2) 0.010(3) -0.019(2)
C21 0.084(5) 0.049(3) 0.079(4) -0.014(3) 0.049(4) -0.010(3)
C22 0.048(3) 0.058(4) 0.134(6) 0.008(3) 0.014(3) -0.003(3)
C23 0.065(4) 0.058(4) 0.114(5) 0.013(4) 0.006(4) -0.012(3)
C24 0.084(5) 0.042(3) 0.076(4) 0.004(3) 0.003(4) -0.011(3)
C25 0.063(3) 0.064(3) 0.083(3) 0.001(2) 0.016(2) 0.006(2)
C19A 0.093(7) 0.051(5) 0.067(5) 0.003(3) 0.032(5) -0.015(5)
C20A 0.112(8) 0.047(5) 0.155(12) 0.003(6) 0.055(9) -0.008(5)
C21A 0.081(8) 0.103(9) 0.195(14) 0.056(10) -0.011(9) -0.034(7)
C22A 0.197(18) 0.148(14) 0.105(9) 0.027(8) 0.007(9) -0.113(14)
C23A 0.22(3) 0.123(13) 0.19(2) -0.010(13) 0.070(18) -0.107(17)
C24A 0.106(9) 0.066(6) 0.165(11) 0.034(7) 0.076(9) -0.003(6)
C25A 0.188(12) 0.153(10) 0.083(6) 0.027(6) 0.009(6) -0.057(9)


#----------------------------------------------------------------------------#
#                   MOLECULAR GEOMETRY                                       #
#----------------------------------------------------------------------------#

_geom_special_details            
;
 All s.u.'s (except the s.u. in the dihedral angle between two l.s. planes)
 are estimated using the full covariance matrix.  The cell s.u.'s are taken
 into account individually in the estimation of s.u.'s in distances, angles
 and torsion angles; correlations between s.u.'s in cell parameters are only
 used when they are defined by crystal symmetry.  An approximate (isotropic)
 treatment of cell s.u.'s is used for estimating s.u.'s involving l.s. planes.
;
loop_
_geom_bond_atom_site_label_1
_geom_bond_atom_site_label_2
_geom_bond_distance
_geom_bond_site_symmetry_2
_geom_bond_publ_flag
Cd1 N1 2.3745(13) . ?
Cd1 N1 2.3745(13) 2_656 ?
Cd1 S1 2.4605(4) 2_656 ?
Cd1 S1 2.4605(4) . ?
S1 Si1 2.0824(5) . ?
Si1 O2 1