####################################################################### 
# 
# This file contains crystal structure data downloaded from the 
# Cambridge Structural Database (CSD) hosted by the Cambridge 
# Crystallographic Data Centre (CCDC).
# 
# Full information about CCDC data access policies and citation 
# guidelines are available at http://www.ccdc.cam.ac.uk/access/V1 
# 
# Audit and citation data items may have been added by the CCDC. 
# Please retain this information to preserve the provenance of 
# this file and to allow appropriate attribution of the data. 
# 
#######################################################################

data_global
_audit_block_doi                 10.5517/cc10gk12
_database_code_depnum_ccdc_archive 'CCDC 937503'
loop_
_citation_id
_citation_doi
_citation_year
1 10.1016/j.optmat.2013.10.034 2013
_audit_update_record             
;
2013-05-28 deposited with the CCDC.	2024-07-10 downloaded from the CCDC.
;

#------------------ AUDIT DETAILS -------------------------------------------#

_audit_creation_date             2013-05-28
_audit_creation_method           'WinGX routine CIF_UPDATE'
_audit_conform_dict_name         cif_core.dic
_audit_conform_dict_version      2.4
_audit_conform_dict_location     ftp://ftp.iucr.org/pub/cif_core.dic



#----------------------------------------------------------------------------#
#                   CHEMICAL INFORMATION                                     #
#----------------------------------------------------------------------------#

_chemical_name_systematic        
;
 [(<i>\m</i>-1,2-bis(4-pyridyl)ethane-<i>\k^2^N</i>:<i>N</i>)bis(tri-<i>tert</i>-\
butoxysilanothiolato-<i>\kS</i>)cadmium(II)chloroform trisolvate]
;
_chemical_formula_moiety         'C36 H66 Cd N2 O6 S2 Si2, 4(C H Cl3)'
_chemical_formula_sum            'C40 H70 Cd Cl12 N2 O6 S2 Si2'
_chemical_formula_weight         1333.08
_chemical_compound_source        'synthesis as described'

#----------------------------------------------------------------------------#
#                   UNIT CELL INFORMATION                                    #
#----------------------------------------------------------------------------#

_symmetry_cell_setting           Orthorhombic
_symmetry_space_group_name_H-M   Pbcn
_symmetry_space_group_name_Hall  '-P 2n 2ab'
loop_
_symmetry_equiv_pos_as_xyz
'x, y, z'
'-x+1/2, -y+1/2, z+1/2'
'-x, y, -z+1/2'
'x+1/2, -y+1/2, -z'
'-x, -y, -z'
'x-1/2, y-1/2, -z-1/2'
'x, -y, z-1/2'
'-x-1/2, y-1/2, z'

_cell_length_a                   27.694(6)
_cell_length_b                   9.768(2)
_cell_length_c                   22.664(5)
_cell_angle_alpha                90
_cell_angle_beta                 90
_cell_angle_gamma                90
_cell_volume                     6131(2)
_cell_formula_units_Z            4
_cell_measurement_temperature    153(2)
_cell_measurement_reflns_used    96279
_cell_measurement_theta_min      1.00
_cell_measurement_theta_max      34.98

#----------------------------------------------------------------------------#
#                   CRYSTAL INFORMATION                                      #
#----------------------------------------------------------------------------#

_exptl_crystal_description       block
_exptl_crystal_colour            colourless
_exptl_crystal_size_max          0.22
_exptl_crystal_size_mid          0.18
_exptl_crystal_size_min          0.14
_exptl_crystal_density_diffrn    1.444
_exptl_crystal_density_method    'not measured'
_exptl_crystal_F_000             2736
_exptl_special_details           
;
 ?
;

#----------------------------------------------------------------------------#
#                   ABSORPTION CORRECTION                                    #
#----------------------------------------------------------------------------#

_exptl_absorpt_coefficient_mu    1.027
_exptl_absorpt_correction_type   none

#----------------------------------------------------------------------------#
#                   DATA COLLECTION                                          #
#----------------------------------------------------------------------------#

_diffrn_ambient_temperature      153(2)
_diffrn_radiation_wavelength     0.71073
_diffrn_radiation_type           MoK\a
_diffrn_radiation_monochromator  graphite
_diffrn_measurement_device_type  'Bruker P4'
_diffrn_measurement_method       '\w scans'
_diffrn_reflns_av_R_equivalents  0.0438
_diffrn_reflns_av_unetI/netI     0.0262
_diffrn_reflns_number            48338
_diffrn_reflns_limit_h_min       -34
_diffrn_reflns_limit_h_max       32
_diffrn_reflns_limit_k_min       -9
_diffrn_reflns_limit_k_max       12
_diffrn_reflns_limit_l_min       -27
_diffrn_reflns_limit_l_max       27
_diffrn_reflns_theta_min         1.94
_diffrn_reflns_theta_max         26
_diffrn_reflns_theta_full        26
_diffrn_measured_fraction_theta_full 0.996
_diffrn_measured_fraction_theta_max 0.996
_reflns_number_total             5991
_reflns_number_gt                4874
_reflns_threshold_expression     >2sigma(I)

#----------------------------------------------------------------------------#
#                   COMPUTER PROGRAMS USED                                   #
#----------------------------------------------------------------------------#

_computing_data_collection       'Bruker XSCANS'
_computing_cell_refinement       'Bruker XSCANS'
_computing_data_reduction        'Bruker SHELXTL'
_computing_structure_solution    'SHELXS-97 (Sheldrick, 1990)'
_computing_structure_refinement  'SHELXL-97 (Sheldrick, 1997)'
_computing_molecular_graphics    'Bruker SHELXTL'
_computing_publication_material  'Bruker SHELXTL'

#----------------------------------------------------------------------------#
#                   STRUCTURE SOLUTION
#----------------------------------------------------------------------------#

_atom_sites_solution_primary     direct
_atom_sites_solution_secondary   difmap
_atom_sites_solution_hydrogens   geom

#----------------------------------------------------------------------------#
#                   REFINEMENT INFORMATION                                   #
#----------------------------------------------------------------------------#

_refine_special_details          
;
 Refinement of F^2^ against ALL reflections.  The weighted R-factor wR and
 goodness of fit S are based on F^2^, conventional R-factors R are based
 on F, with F set to zero for negative F^2^. The threshold expression of
 F^2^ > 2sigma(F^2^) is used only for calculating R-factors(gt) etc. and is
 not relevant to the choice of reflections for refinement.  R-factors based
 on F^2^ are statistically about twice as large as those based on F, and R-
 factors based on ALL data will be even larger.
;
_refine_ls_structure_factor_coef Fsqd
_refine_ls_matrix_type           full
_refine_ls_weighting_scheme      calc
_refine_ls_weighting_details     
'calc w=1/[\s^2^(Fo^2^)+(0.0444P)^2^+1.7796P] where P=(Fo^2^+2Fc^2^)/3'
_refine_ls_hydrogen_treatment    constr
_refine_ls_extinction_method     none
_refine_ls_number_reflns         5991
_refine_ls_number_parameters     303
_refine_ls_number_restraints     0
_refine_ls_R_factor_all          0.0412
_refine_ls_R_factor_gt           0.0313
_refine_ls_wR_factor_ref         0.0792
_refine_ls_wR_factor_gt          0.0753
_refine_ls_goodness_of_fit_ref   1.031
_refine_ls_restrained_S_all      1.031
_refine_ls_shift/su_max          0.001
_refine_ls_shift/su_mean         0
_refine_diff_density_max         0.947
_refine_diff_density_min         -0.754
_refine_diff_density_rms         0.062

#----------------------------------------------------------------------------#
#                   ATOMIC TYPES, COORDINATES AND THERMAL PARAMETERS         #
#----------------------------------------------------------------------------#

loop_
_atom_type_symbol
_atom_type_description
_atom_type_scat_dispersion_real
_atom_type_scat_dispersion_imag
_atom_type_scat_source
C C 0.0033 0.0016 'International Tables Vol C Tables 4.2.6.8 and 6.1.1.4'
H H 0 0 'International Tables Vol C Tables 4.2.6.8 and 6.1.1.4'
N N 0.0061 0.0033 'International Tables Vol C Tables 4.2.6.8 and 6.1.1.4'
O O 0.0106 0.006 'International Tables Vol C Tables 4.2.6.8 and 6.1.1.4'
Si Si 0.0817 0.0704 'International Tables Vol C Tables 4.2.6.8 and 6.1.1.4'
S S 0.1246 0.1234 'International Tables Vol C Tables 4.2.6.8 and 6.1.1.4'
Cd Cd -0.8075 1.2024 'International Tables Vol C Tables 4.2.6.8 and 6.1.1.4'
Cl Cl 0.1484 0.1585 'International Tables Vol C Tables 4.2.6.8 and 6.1.1.4'

loop_
_atom_site_label
_atom_site_type_symbol
_atom_site_fract_x
_atom_site_fract_y
_atom_site_fract_z
_atom_site_U_iso_or_equiv
_atom_site_adp_type
_atom_site_occupancy
_atom_site_symmetry_multiplicity
_atom_site_calc_flag
_atom_site_refinement_flags
_atom_site_disorder_assembly
_atom_site_disorder_group
Cd1 Cd 0 0.07293(2) 0.25 0.02262(7) Uani 1 2 d S . .
Si1 Si 0.10025(2) -0.09285(6) 0.30340(3) 0.02467(13) Uani 1 1 d . . .
S1 S 0.08191(2) 0.00195(6) 0.22385(3) 0.02945(13) Uani 1 1 d . . .
N1 N 0.00673(7) 0.23961(18) 0.32563(8) 0.0267(4) Uani 1 1 d . . .
O1 O 0.04999(6) -0.10300(15) 0.34109(7) 0.0268(3) Uani 1 1 d . . .
O2 O 0.12638(6) -0.24029(17) 0.29379(8) 0.0345(4) Uani 1 1 d . . .
O3 O 0.13682(6) -0.0048(2) 0.34406(8) 0.0371(4) Uani 1 1 d . . .
Cl1 Cl 0.18975(4) 0.27247(9) 0.15402(4) 0.0709(3) Uani 1 1 d . . .
Cl2 Cl 0.14217(3) 0.14086(9) 0.05626(4) 0.0578(2) Uani 1 1 d . . .
Cl3 Cl 0.21941(3) 0.00129(9) 0.11740(4) 0.05435(19) Uani 1 1 d . . .
Cl4 Cl 0.27107(3) 0.76840(9) 0.50423(4) 0.0584(2) Uani 1 1 d . . .
Cl5 Cl 0.37170(3) 0.73664(11) 0.53380(5) 0.0712(3) Uani 1 1 d . . .
Cl6 Cl 0.33298(4) 1.00212(10) 0.50910(9) 0.1187(6) Uani 1 1 d . . .
C1 C 0.04266(9) -0.1385(2) 0.40272(10) 0.0288(5) Uani 1 1 d . . .
C2 C 0.04854(11) -0.0100(3) 0.44008(11) 0.0373(5) Uani 1 1 d . . .
H2A H 0.0801 0.028 0.4338 0.056 Uiso 1 1 calc R . .
H2B H 0.0448 -0.0329 0.481 0.056 Uiso 1 1 calc R . .
H2C H 0.0245 0.056 0.429 0.056 Uiso 1 1 calc R . .
C3 C -0.00884(9) -0.1917(3) 0.40633(12) 0.0376(6) Uani 1 1 d . . .
H3A H -0.0306 -0.1243 0.3907 0.056 Uiso 1 1 calc R . .
H3B H -0.0169 -0.2099 0.4468 0.056 Uiso 1 1 calc R . .
H3C H -0.0116 -0.2746 0.3838 0.056 Uiso 1 1 calc R . .
C4 C 0.07837(9) -0.2477(2) 0.42258(11) 0.0334(5) Uani 1 1 d . . .
H4A H 0.0748 -0.3277 0.3984 0.05 Uiso 1 1 calc R . .
H4B H 0.0722 -0.2711 0.463 0.05 Uiso 1 1 calc R . .
H4C H 0.1107 -0.2132 0.4189 0.05 Uiso 1 1 calc R . .
C5 C 0.11604(12) -0.3572(3) 0.25677(13) 0.0449(7) Uani 1 1 d . . .
C6 C 0.06232(13) -0.3795(3) 0.25120(15) 0.0531(7) Uani 1 1 d . . .
H6A H 0.0486 -0.3924 0.2897 0.08 Uiso 1 1 calc R . .
H6B H 0.0564 -0.4593 0.2275 0.08 Uiso 1 1 calc R . .
H6C H 0.0478 -0.3011 0.2328 0.08 Uiso 1 1 calc R . .
C7 C 0.13985(14) -0.4780(3) 0.28762(18) 0.0631(10) Uani 1 1 d . . .
H7A H 0.1736 -0.4594 0.293 0.095 Uiso 1 1 calc R . .
H7B H 0.136 -0.5588 0.264 0.095 Uiso 1 1 calc R . .
H7C H 0.1249 -0.492 0.3254 0.095 Uiso 1 1 calc R . .
C8 C 0.13936(17) -0.3333(3) 0.19671(16) 0.0704(11) Uani 1 1 d . . .
H8A H 0.1245 -0.2559 0.178 0.106 Uiso 1 1 calc R . .
H8B H 0.135 -0.413 0.1725 0.106 Uiso 1 1 calc R . .
H8C H 0.1732 -0.3161 0.2018 0.106 Uiso 1 1 calc R . .
C9 C 0.18754(10) 0.0288(3) 0.33963(13) 0.0418(6) Uani 1 1 d . . .
C10 C 0.21172(12) -0.0358(4) 0.39190(15) 0.0557(8) Uani 1 1 d . . .
H10A H 0.1973 -0.0018 0.4275 0.084 Uiso 1 1 calc R . .
H10B H 0.2455 -0.0137 0.3915 0.084 Uiso 1 1 calc R . .
H10C H 0.2078 -0.1334 0.3901 0.084 Uiso 1 1 calc R . .
C11 C 0.20961(12) -0.0245(6) 0.28278(16) 0.0766(13) Uani 1 1 d . . .
H11A H 0.2082 -0.1227 0.2824 0.115 Uiso 1 1 calc R . .
H11B H 0.2427 0.0044 0.2803 0.115 Uiso 1 1 calc R . .
H11C H 0.1919 0.0111 0.2497 0.115 Uiso 1 1 calc R . .
C12 C 0.18981(14) 0.1831(4) 0.3430(3) 0.0870(15) Uani 1 1 d . . .
H12A H 0.1736 0.2218 0.3095 0.131 Uiso 1 1 calc R . .
H12B H 0.2229 0.212 0.343 0.131 Uiso 1 1 calc R . .
H12C H 0.1744 0.2136 0.3786 0.131 Uiso 1 1 calc R . .
C13 C 0.04925(9) 0.2723(2) 0.34934(10) 0.0290(5) Uani 1 1 d . . .
H13 H 0.0772 0.2419 0.3308 0.035 Uiso 1 1 calc R . .
C14 C 0.05380(9) 0.3495(2) 0.40036(10) 0.0320(5) Uani 1 1 d . . .
H14 H 0.0843 0.3702 0.4152 0.038 Uiso 1 1 calc R . .
C15 C 0.01280(9) 0.3956(2) 0.42923(10) 0.0300(5) Uani 1 1 d . . .
C16 C -0.03166(10) 0.3639(3) 0.40347(11) 0.0351(5) Uani 1 1 d . . .
H16 H -0.0602 0.3947 0.4206 0.042 Uiso 1 1 calc R . .
C17 C -0.03298(9) 0.2865(2) 0.35240(11) 0.0325(5) Uani 1 1 d . . .
H17 H -0.0629 0.266 0.3359 0.039 Uiso 1 1 calc R . .
C18 C 0.01812(10) 0.4714(2) 0.48497(11) 0.0308(5) Uani 1 1 d . . .
H18A H 0.034 0.4093 0.5122 0.037 Uiso 1 1 calc R . .
H18B H 0.041 0.5444 0.4771 0.037 Uiso 1 1 calc R . .
C19 C 0.17085(11) 0.1156(3) 0.12456(13) 0.0420(6) Uani 1 1 d . . .
H19 H 0.1473 0.0752 0.1518 0.05 Uiso 1 1 calc R . .
C20 C 0.32053(11) 0.8407(4) 0.53899(14) 0.0535(8) Uani 1 1 d . . .
H20 H 0.3127 0.8525 0.5808 0.064 Uiso 1 1 calc R . .

loop_
_atom_site_aniso_label
_atom_site_aniso_U_11
_atom_site_aniso_U_22
_atom_site_aniso_U_33
_atom_site_aniso_U_23
_atom_site_aniso_U_13
_atom_site_aniso_U_12
Cd1 0.02241(11) 0.02285(11) 0.02262(11) 0 0.00099(9) 0
Si1 0.0222(3) 0.0262(3) 0.0256(3) 0.0036(2) 0.0006(2) 0.0005(2)
S1 0.0243(3) 0.0368(3) 0.0272(3) 0.0079(2) 0.0035(2) 0.0047(2)
N1 0.0314(10) 0.0220(8) 0.0266(9) -0.0006(7) 0.0006(8) -0.0012(7)
O1 0.0258(8) 0.0295(7) 0.0251(7) 0.0041(6) 0.0015(6) 0.0004(6)
O2 0.0323(9) 0.0325(8) 0.0389(9) 0.0064(7) 0.0047(7) 0.0086(7)
O3 0.0293(9) 0.0488(10) 0.0331(9) 0.0006(7) -0.0020(7) -0.0105(8)
Cl1 0.1029(8) 0.0538(4) 0.0559(5) -0.0091(4) 0.0154(5) -0.0198(5)
Cl2 0.0507(4) 0.0637(5) 0.0590(4) 0.0045(4) -0.0064(4) 0.0051(4)
Cl3 0.0441(4) 0.0633(4) 0.0557(4) 0.0074(3) 0.0080(3) 0.0102(3)
Cl4 0.0507(4) 0.0658(5) 0.0587(4) -0.0049(4) -0.0104(4) 0.0004(4)
Cl5 0.0428(4) 0.0840(6) 0.0868(6) 0.0294(5) 0.0110(4) 0.0154(4)
Cl6 0.0560(6) 0.0433(5) 0.257(2) -0.0116(7) 0.0127(8) 0.0046(4)
C1 0.0309(12) 0.0295(11) 0.0258(10) 0.0054(9) 0.0041(9) -0.0003(9)
C2 0.0479(15) 0.0343(12) 0.0298(12) 0.0009(10) 0.0068(11) -0.0017(11)
C3 0.0287(13) 0.0469(14) 0.0373(13) 0.0127(11) 0.0032(10) -0.0028(10)
C4 0.0345(13) 0.0320(11) 0.0336(12) 0.0086(9) 0.0001(10) 0.0015(10)
C5 0.0574(17) 0.0292(12) 0.0480(15) -0.0005(11) 0.0182(14) 0.0080(12)
C6 0.068(2) 0.0354(13) 0.0558(17) -0.0110(13) -0.0018(16) -0.0014(13)
C7 0.062(2) 0.0372(15) 0.090(3) 0.0170(16) 0.0316(19) 0.0191(14)
C8 0.112(3) 0.0404(16) 0.059(2) -0.0036(14) 0.039(2) 0.0090(18)
C9 0.0278(13) 0.0495(15) 0.0479(15) 0.0119(12) -0.0093(11) -0.0100(11)
C10 0.0475(17) 0.067(2) 0.0525(17) 0.0074(15) -0.0135(14) 0.0108(15)
C11 0.0296(15) 0.152(4) 0.0480(18) 0.005(2) 0.0024(14) -0.021(2)
C12 0.0476(19) 0.0500(19) 0.164(5) 0.033(2) -0.016(2) -0.0173(16)
C13 0.0302(12) 0.0261(10) 0.0308(11) -0.0008(9) -0.0002(10) -0.0023(9)
C14 0.0369(13) 0.0273(11) 0.0319(11) 0.0002(9) -0.0037(10) -0.0076(10)
C15 0.0407(13) 0.0202(10) 0.0290(11) 0.0010(8) 0.0003(10) -0.0043(9)
C16 0.0372(13) 0.0315(11) 0.0365(12) -0.0074(10) 0.0063(11) -0.0001(10)
C17 0.0318(12) 0.0293(11) 0.0365(12) -0.0059(10) -0.0005(10) -0.0010(9)
C18 0.0408(13) 0.0211(10) 0.0305(11) 0.0027(8) 0.0024(10) -0.0047(9)
C19 0.0400(14) 0.0427(14) 0.0433(14) 0.0029(12) 0.0107(12) -0.0020(12)
C20 0.0380(15) 0.076(2) 0.0465(16) -0.0155(15) 0.0028(13) 0.0077(15)


#----------------------------------------------------------------------------#
#                   MOLECULAR GEOMETRY                                       #
#----------------------------------------------------------------------------#

_geom_special_details            
;
 All esds (except the esd in the dihedral angle between two l.s. planes)
 are estimated using the full covariance matrix.  The cell esds are taken
 into account individually in the estimation of esds in distances, angles
 and torsion angles; correlations between esds in cell parameters are only
 used when they are defined by crystal symmetry.  An approximate (isotropic)
 treatment of cell esds is used for estimating esds involving l.s. planes.
;
loop_
_geom_bond_atom_site_label_1
_geom_bond_atom_site_label_2
_geom_bond_distance
_geom_bond_site_symmetry_2
_geom_bond_publ_flag
Cd1 N1 2.3714(18) . ?
Cd1 N1 2.3714(18) 3 ?
Cd1 S1 2.4450(7) 3 ?
Cd1 S1 2.4450(7) . ?
Si1 O3 1.6172(18) . ?
Si1 O2 1.6264(18) . ?
Si1 O1 1.6360(17) . ?
Si1 S1 2.0895(9) . ?
N1 C13 1.333(3) . ?
N1 C17 1.337(3) . ?
O1 C1 1.453(3) . ?
O2 C5 1.446(3) . ?
O3 C9 1.446(3) . ?
Cl1 C19 1.751(3) . ?
Cl2 C19 1.757(3) . ?
Cl3 C19 1.756(3) . ?
Cl4 C20 1.731(3) . ?
Cl5 C20 1.748(3) . ?
Cl6 C20 1.750(4) . ?
C1 C3 1.520(3) . ?
C1 C2 1.523(3) . ?
C1 C4 1.523(3) . ?
C2 H2A 0.96 . ?
C2 H2B 0.96 . ?
C2 H2C 0.96 . ?
C3 H3A 0.96 . ?
C3 H3B 0.96 . ?
C3 H3C 0.96 . ?
C4 H4A 0.96 . ?
C4 H4B 0.96 . ?
C4 H4C 0.96 . ?
C5 C6 1.509(5) . ?
C5 C7 1.522(4) . ?
C5 C8 1.524(4) . ?
C6 H6A 0.96 . ?
C6 H6B 0.96 . ?
C6 H6C 0.96 . ?
C7 H7A 0.96 . ?
C7 H7B 0.96 . ?
C7 H7C 0.96 . ?
C8 H8A 0.96 . ?
C8 H8B 0.96 . ?
C8 H8C 0.96 . ?
C9 C10 1.500(4) . ?
C9 C12 1.511(5) . ?
C9 C11 1.518(5) . ?
C10 H10A 0.96 . ?
C10 H10B 0.96 . ?
C10 H10C 0.96 . ?
C11 H11A 0.96 . ?
C11 H11B 0.96 . ?
C11 H11C 0.96 . ?
C12 H12A 0.96 . ?
C12 H12B 0.96 . ?
C12 H12C 0.96 . ?
C13 C14 1.386(3) . ?
C13 H13 0.93 . ?
C14 C15 1.386(4) . ?
C14 H14 0.93 . ?
C15 C16 1.397(4) . ?
C15 C18 1.471(3) . ?
C16 C17 1.383(3) . ?
C16 H16 0.93 . ?
C17 H17 0.93 . ?
C18 C18 1.336(5) 5_566 ?
C18 H18A 0.97 . ?
C18 H18B 0.97 . ?
C19 H19 0.98 . ?
C20 H20 0.98 . ?

loop_
_geom_angle_atom_site_label_1
_geom_angle_atom_site_label_2
_geom_angle_atom_site_label_3
_geom_angle
_geom_angle_site_symmetry_1
_geom_angle_site_symmetry_3
_geom_angle_publ_flag
N1 Cd1 N1 93.28(9) . 3 ?
N1 Cd1 S1 95.30(5) . 3 ?
N1 Cd1 S1 107.28(5) 3 3 ?
N1 Cd1 S1 107.28(5) . . ?
N1 Cd1 S1 95.30(5) 3 . ?
S1 Cd1 S1 147.05(3) 3 . ?
O3 Si1 O2 105.60(10) . . ?
O3 Si1 O1 105.51(9) . . ?
O2 Si1 O1 113.25(9) . . ?
O3 Si1 S1 114.08(7) . . ?
O2 Si1 S1 112.65(7) . . ?
O1 Si1 S1 105.70(6) . . ?
Si1 S1 Cd1 98.16(3) . . ?
C13 N1 C17 117.5(2) . . ?
C13 N1 Cd1 121.69(15) . . ?
C17 N1 Cd1 119.90(16) . . ?
C1 O1 Si1 129.44(14) . . ?
C5 O2 Si1 133.57(18) . . ?
C9 O3 Si1 133.60(18) . . ?
O1 C1 C3 105.34(18) . . ?
O1 C1 C2 108.83(18) . . ?
C3 C1 C2 110.6(2) . . ?
O1 C1 C4 111.12(18) . . ?
C3 C1 C4 110.7(2) . . ?
C2 C1 C4 110.1(2) . . ?
C1 C2 H2A 109.5 . . ?
C1 C2 H2B 109.5 . . ?
H2A C2 H2B 109.5 . . ?
C1 C2 H2C 109.5 . . ?
H2A C2 H2C 109.5 . . ?
H2B C2 H2C 109.5 . . ?
C1 C3 H3A 109.5 . . ?
C1 C3 H3B 109.5 . . ?
H3A C3 H3B 109.5 . . ?
C1 C3 H3C 109.5 . . ?
H3A C3 H3C 109.5 . . ?
H3B C3 H3C 109.5 . . ?
C1 C4 H4A 109.5 . . ?
C1 C4 H4B 109.5 . . ?
H4A C4 H4B 109.5 . . ?
C1 C4 H4C 109.5 . . ?
H4A C4 H4C 109.5 . . ?
H4B C4 H4C 109.5 . . ?
O2 C5 C6 111.0(2) . . ?
O2 C5 C7 105.