
#######################################################################
#
#                 Cambridge Crystallographic Data Centre
#                                CCDC
#
#######################################################################
#
# If this CIF has been generated from an entry in the Cambridge
# Structural Database, then it will include bibliographic, chemical,
# crystal, experimental, refinement or atomic coordinate data resulting
# from the CCDC's data processing and validation procedures.
#
#######################################################################

data_CSD_CIF_EINIPC
_audit_creation_date 1979-09-20
_audit_creation_method CSD-ConQuest-V1
_database_code_CSD EINIPC
_database_code_depnum_ccdc_archive 'CCDC 1149175'
_chemical_formula_sum 'C5 H16 Cl1 Co1 N6 O6 S1'
_chemical_formula_moiety
;
C5 H16 Co1 N6 O2 S1 1+,Cl1 O4 1-
;
_journal_coden_Cambridge 9
_journal_volume 18
_journal_year 1979
_journal_page_first 1109
_journal_name_full 'Inorg.Chem. '
loop_
_publ_author_name
"I.Grenthe"
"E.Nordin"
_chemical_name_systematic
;
trans-bis(Ethylenediamine)-(isothiocyanato)-nitrito-cobalt(iii) perchlorate
;
_chemical_name_common
;
Teaching Subset: Fundamental Chemistry
;
_cell_volume    709.340
_exptl_crystal_density_diffrn 1.79
_diffrn_ambient_temperature 165
#These two values have been output from a single CSD field.
_refine_ls_R_factor_gt 0.081
_refine_ls_wR_factor_gt 0.081
_symmetry_cell_setting monoclinic
_symmetry_space_group_name_H-M 'P 21'
_symmetry_Int_Tables_number 4
loop_
_symmetry_equiv_pos_site_id
_symmetry_equiv_pos_as_xyz
1 x,y,z
2 -x,1/2+y,-z
_cell_length_a 9.265(2)
_cell_length_b 7.2091(8)
_cell_length_c 10.847(2)
_cell_angle_alpha 90
_cell_angle_beta 101.74(1)
_cell_angle_gamma 90
_cell_formula_units_Z 2
loop_
_atom_type_symbol
_atom_type_radius_bond
C 0.68
H 0.23
Cl 0.99
Co 1.33
N 0.68
O 0.68
S 1.02
loop_
_atom_site_label
_atom_site_type_symbol
_atom_site_fract_x
_atom_site_fract_y
_atom_site_fract_z
Co1 Co 0.19560 0.25000 0.23520
S1 S 0.35860 0.77550 0.48070
O1 O 0.12330 -0.22490 0.07310
O2 O 0.12160 0.06060 0.12140
N1 N 0.17470 -0.10310 0.15260
N2 N 0.25900 0.46030 0.34130
N3 N 0.11910 0.12780 0.37750
N4 N -0.00510 0.36080 0.19730
N5 N 0.24540 0.39230 0.09330
N6 N 0.38010 0.14550 0.27690
C1 C 0.30340 0.59360 0.39700
C2 C -0.02310 0.21650 0.38120
C3 C -0.10880 0.25270 0.25110
C4 C 0.41660 0.37260 0.11850
C5 C 0.45690 0.19970 0.17510
H1 H 0.06400 -0.02100 0.33800
H2 H 0.15900 0.24100 0.45400
H3 H -0.02800 0.35600 0.12600
H4 H 0.03500 0.52600 0.21800
H5 H 0.21700 0.35200 0.01200
H6 H 0.21300 0.52800 0.06300
H7 H 0.37400 0.00300 0.23600
H8 H 0.43500 0.19900 0.36600
H9 H -0.12000 0.17800 0.41200
H10 H 0.03000 0.36500 0.42000
H11 H -0.16000 0.11200 0.20500
H12 H -0.18400 0.35500 0.23000
H13 H 0.40700 0.41900 0.04700
H14 H 0.47400 0.47100 0.18300
H15 H 0.40900 0.05700 0.11200
H16 H 0.53200 0.12200 0.17600
Cl1 Cl 0.24750 0.23660 0.74310
O3 O 0.26630 0.13700 0.85750
O4 O 0.09700 0.24380 0.69160
O5 O 0.32730 0.39470 0.75620
O6 O 0.30220 0.12450 0.65410
#END
