
#######################################################################
#
#                 Cambridge Crystallographic Data Centre
#                                CCDC
#
#######################################################################
#
# If this CIF has been generated from an entry in the Cambridge
# Structural Database, then it will include bibliographic, chemical,
# crystal, experimental, refinement or atomic coordinate data resulting
# from the CCDC's data processing and validation procedures.
#
#######################################################################

data_CSD_CIF_EINICI
_audit_creation_date 1979-09-20
_audit_creation_method CSD-ConQuest-V1
_database_code_CSD EINICI
_database_code_depnum_ccdc_archive 'CCDC 1149174'
_chemical_formula_sum 'C5 H16 Co1 I1 N6 O2 S1'
_chemical_formula_moiety
;
C5 H16 Co1 N6 O2 S1 1+,I1 1-
;
_journal_coden_Cambridge 9
_journal_volume 18
_journal_year 1979
_journal_page_first 1109
_journal_name_full 'Inorg.Chem. '
loop_
_publ_author_name
"I.Grenthe"
"E.Nordin"
_chemical_name_systematic
;
trans-bis(Ethylenediamine)-(isothiocyanato)-nitrito-cobalt(iii) iodide
;
_chemical_name_common
;
Teaching Subset: Fundamental Chemistry
;
_cell_volume    685.943
_exptl_crystal_density_diffrn 1.98
_exptl_special_details
;
Absolute configuration
H(2C2) removed due to suspected coordinate errors

;
_diffrn_ambient_temperature 245
#These two values have been output from a single CSD field.
_refine_ls_R_factor_gt 0.054
_refine_ls_wR_factor_gt 0.054
_symmetry_cell_setting monoclinic
_symmetry_space_group_name_H-M 'P 21'
_symmetry_Int_Tables_number 4
loop_
_symmetry_equiv_pos_site_id
_symmetry_equiv_pos_as_xyz
1 x,y,z
2 -x,1/2+y,-z
_cell_length_a 9.3896(4)
_cell_length_b 7.1609(3)
_cell_length_c 10.3759(6)
_cell_angle_alpha 90
_cell_angle_beta 100.513
_cell_angle_gamma 90
_cell_formula_units_Z 2
loop_
_atom_type_symbol
_atom_type_radius_bond
C 0.68
H 0.23
Co 1.33
I 1.40
N 0.68
O 0.68
S 1.02
loop_
_atom_site_label
_atom_site_type_symbol
_atom_site_fract_x
_atom_site_fract_y
_atom_site_fract_z
Co1 Co 0.19010 0.25000 0.23730
S1 S 0.35770 -0.27570 0.48480
O1 O 0.12550 0.74110 0.08210
O2 O 0.12010 0.45220 0.12220
N1 N 0.16600 0.61630 0.16340
N2 N 0.25760 0.04200 0.34560
N3 N 0.12450 0.37400 0.38520
N4 N -0.00450 0.14490 0.19480
N5 N 0.25520 0.12870 0.09150
N6 N 0.38050 0.36540 0.27500
C1 C 0.30070 -0.08830 0.40450
C2 C -0.02310 0.30110 0.39820
C3 C -0.10230 0.25690 0.25650
C4 C 0.41590 0.15200 0.11140
C5 C 0.45580 0.33740 0.16230
H1 H 0.09200 0.47800 0.36600
H2 H 0.18800 0.37500 0.50300
H3 H -0.02400 0.11700 0.11400
H4 H -0.00200 0.01900 0.23600
H5 H 0.20700 0.17400 0.02200
H6 H 0.21800 0.01500 0.08100
H7 H 0.37000 0.49400 0.29000
H8 H 0.43600 0.30800 0.35100
H9 H -0.09800 0.42500 0.40700
H10 H -0.13300 0.37100 0.23600
H11 H -0.13300 0.13800 0.25800
H12 H 0.41200 0.08700 0.03800
H13 H 0.43600 0.03600 0.15200
H14 H 0.42300 0.45200 0.09000
H15 H 0.52800 0.39000 0.21000
I1 I 0.24559 0.26440 0.73998
#END
