####################################################################### 
# 
# This file contains crystal structure data downloaded from the 
# Cambridge Structural Database (CSD) hosted by the Cambridge 
# Crystallographic Data Centre (CCDC).
# 
# Full information about CCDC data access policies and citation 
# guidelines are available at http://www.ccdc.cam.ac.uk/access/V1 
# 
# Audit and citation data items may have been added by the CCDC. 
# Please retain this information to preserve the provenance of 
# this file and to allow appropriate attribution of the data. 
# 
#######################################################################

data_complex6
_audit_block_doi                 10.5517/cc6wnl9
_database_code_depnum_ccdc_archive 'CCDC 205331'
loop_
_citation_id
_citation_doi
_citation_year
1 10.1039/b302413j 2003
_audit_update_record             
;
2003-03-03 deposited with the CCDC.	2024-07-10 downloaded from the CCDC.
;

_audit_creation_method           SHELXL-97
_chemical_name_systematic        
;
?
;
_chemical_name_common            ?
_chemical_melting_point          ?
_chemical_formula_moiety         ?
_chemical_formula_sum            'C79 H75 Cl19 Fe5 N18 O37'
_chemical_formula_weight         2821.37

loop_
_atom_type_symbol
_atom_type_description
_atom_type_scat_dispersion_real
_atom_type_scat_dispersion_imag
_atom_type_scat_source
Fe Fe 0.3463 0.8444 'International Tables Vol C Tables 4.2.6.8 and 6.1.1.4'
C C 0.0033 0.0016 'International Tables Vol C Tables 4.2.6.8 and 6.1.1.4'
H H 0.0000 0.0000 'International Tables Vol C Tables 4.2.6.8 and 6.1.1.4'
N N 0.0061 0.0033 'International Tables Vol C Tables 4.2.6.8 and 6.1.1.4'
O O 0.0106 0.0060 'International Tables Vol C Tables 4.2.6.8 and 6.1.1.4'
Cl Cl 0.1484 0.1585 'International Tables Vol C Tables 4.2.6.8 and 6.1.1.4'

_symmetry_cell_setting           Orthorhombic
_symmetry_space_group_name_H-M   Pnnm

loop_
_symmetry_equiv_pos_as_xyz
'x, y, z'
'-x, -y, z'
'x+1/2, -y+1/2, -z+1/2'
'-x+1/2, y+1/2, -z+1/2'
'-x, -y, -z'
'x, y, -z'
'-x-1/2, y-1/2, z-1/2'
'x-1/2, -y-1/2, z-1/2'

_cell_length_a                   32.323(3)
_cell_length_b                   17.0606(14)
_cell_length_c                   20.7616(17)
_cell_angle_alpha                90.00
_cell_angle_beta                 90.00
_cell_angle_gamma                90.00
_cell_volume                     11449.1(16)
_cell_formula_units_Z            4
_cell_measurement_temperature    200(2)
_cell_measurement_reflns_used    7908
_cell_measurement_theta_min      1.54
_cell_measurement_theta_max      25.05

_exptl_crystal_description       prism
_exptl_crystal_colour            black
_exptl_crystal_size_max          0.4
_exptl_crystal_size_mid          0.18
_exptl_crystal_size_min          0.1
_exptl_crystal_density_meas      ?
_exptl_crystal_density_diffrn    1.637
_exptl_crystal_density_method    'not measured'
_exptl_crystal_F_000             5696
_exptl_absorpt_coefficient_mu    1.147
_exptl_absorpt_correction_type   ' multi scan '
_exptl_absorpt_correction_T_min  0.424468
_exptl_absorpt_correction_T_max  0.861980
_exptl_absorpt_process_details   ?

_exptl_special_details           
;
?
;

_diffrn_ambient_temperature      200(2)
_diffrn_radiation_wavelength     0.71073
_diffrn_radiation_type           MoK\a
_diffrn_radiation_source         'fine-focus sealed tube'
_diffrn_radiation_monochromator  graphite
_diffrn_measurement_device_type  'CCD area detector'
_diffrn_measurement_method       'phi and omega scans'
_diffrn_detector_area_resol_mean ?
_diffrn_standards_number         ?
_diffrn_standards_interval_count ?
_diffrn_standards_interval_time  ?
_diffrn_standards_decay_%        ?
_diffrn_reflns_number            60975
_diffrn_reflns_av_R_equivalents  0.1369
_diffrn_reflns_av_sigmaI/netI    0.0943
_diffrn_reflns_limit_h_min       -38
_diffrn_reflns_limit_h_max       38
_diffrn_reflns_limit_k_min       -20
_diffrn_reflns_limit_k_max       16
_diffrn_reflns_limit_l_min       -24
_diffrn_reflns_limit_l_max       24
_diffrn_reflns_theta_min         1.54
_diffrn_reflns_theta_max         25.05
_reflns_number_total             10430
_reflns_number_gt                5243
_reflns_threshold_expression     >2sigma(I)

_computing_data_collection       'Bruker SMART'
_computing_cell_refinement       'Bruker SMART'
_computing_data_reduction        'Bruker SHELXTL'
_computing_structure_solution    ' SIR-92 (Altomare et al., 1994) '
_computing_structure_refinement  'SHELXL-97 (Sheldrick, 1997)'
_computing_molecular_graphics    'Bruker SHELXTL'
_computing_publication_material  'Bruker SHELXTL'

_refine_special_details          
;
Refinement of F^2^ against ALL reflections.  The weighted R-factor wR and
goodness of fit S are based on F^2^, conventional R-factors R are based
on F, with F set to zero for negative F^2^. The threshold expression of
F^2^ > 2sigma(F^2^) is used only for calculating R-factors(gt) etc. and is
not relevant to the choice of reflections for refinement.  R-factors based
on F^2^ are statistically about twice as large as those based on F, and R-
factors based on ALL data will be even larger.

Perchlorate anions and chloroform molecules are alternatively arranged to give
a 1-D array.  In this array, both chloroform and perchlorate are disordered at
two positions (part1 and part2) with the same occupancies;
part1: Cl1-O7-O8-O9-O10, C37-Cl5-Cl6-Cl8, Cl2*-O11*-O12-O13-O14
part2: Cl1*-O7*-O8-O9-O10, C37-Cl5-Cl6-Cl7, Cl2-O11-O12-O13-O14.
A water molecule is disordered at the position of O25 and O27 with the
same occupancies.
A water molecule is disordered at two positions (O28 and O28*) with the
same occupancies.
A chloroform molecule (C38-Cl9-Cl10-Cl11), two methanol molecules
(C41-O21, C42-O22),
and two water molecules (O24 and O26) are refined to be 50% occupancies.
;

_refine_ls_structure_factor_coef Fsqd
_refine_ls_matrix_type           full
_refine_ls_weighting_scheme      calc
_refine_ls_weighting_details     
'calc w=1/[\s^2^(Fo^2^)+(0.1455P)^2^+2.2662P] where P=(Fo^2^+2Fc^2^)/3'
_atom_sites_solution_primary     direct
_atom_sites_solution_secondary   difmap
_atom_sites_solution_hydrogens   geom
_refine_ls_hydrogen_treatment    ' riding model '
_refine_ls_extinction_method     none
_refine_ls_extinction_coef       ?
_refine_ls_number_reflns         10430
_refine_ls_number_parameters     806
_refine_ls_number_restraints     0
_refine_ls_R_factor_all          0.1567
_refine_ls_R_factor_gt           0.0787
_refine_ls_wR_factor_ref         0.2617
_refine_ls_wR_factor_gt          0.2145
_refine_ls_goodness_of_fit_ref   1.027
_refine_ls_restrained_S_all      1.027
_refine_ls_shift/su_max          0.099
_refine_ls_shift/su_mean         0.004

loop_
_atom_site_label
_atom_site_type_symbol
_atom_site_fract_x
_atom_site_fract_y
_atom_site_fract_z
_atom_site_U_iso_or_equiv
_atom_site_adp_type
_atom_site_occupancy
_atom_site_symmetry_multiplicity
_atom_site_calc_flag
_atom_site_refinement_flags
_atom_site_disorder_assembly
_atom_site_disorder_group
Fe1 Fe 0.242509(8) 0.132774(16) 0.248940(15) 0.03111(8) Uani 1 1 d . . .
Fe2 Fe 0.5000 0.0000 0.25157(2) 0.02904(11) Uani 1 2 d S . .
Fe3 Fe 0.346832(8) -0.108318(16) 0.256374(17) 0.04126(10) Uani 1 1 d . . .
N1 N 0.21370(5) 0.07130(10) 0.31532(8) 0.0368(5) Uani 1 1 d . . .
N2 N 0.27951(5) 0.04323(9) 0.25007(8) 0.0327(5) Uani 1 1 d . . .
N3 N 0.28067(5) 0.16801(9) 0.18182(9) 0.0359(5) Uani 1 1 d . . .
N4 N 0.27191(5) 0.19271(9) 0.31641(8) 0.0341(5) Uani 1 1 d . . .
N5 N 0.20716(5) 0.22377(9) 0.25012(8) 0.0347(5) Uani 1 1 d . . .
N6 N 0.20234(5) 0.09943(10) 0.18250(9) 0.0389(5) Uani 1 1 d . . .
N7 N 0.47718(5) 0.06984(10) 0.31783(9) 0.0365(5) Uani 1 1 d . . .
N8 N 0.44444(4) -0.04112(9) 0.25364(8) 0.0295(5) Uani 1 1 d . . .
N9 N 0.50613(5) -0.08011(10) 0.18468(8) 0.0374(5) Uani 1 1 d . . .
O1 O 0.29354(4) -0.07210(8) 0.30650(8) 0.0454(5) Uani 1 1 d . . .
O2 O 0.34054(4) -0.00436(8) 0.20476(8) 0.0424(5) Uani 1 1 d . . .
O3 O 0.19520(4) 0.34069(8) 0.30503(8) 0.0494(5) Uani 1 1 d . . .
O4 O 0.15141(4) 0.28265(8) 0.19767(8) 0.0455(5) Uani 1 1 d . . .
O5 O 0.38456(4) -0.04025(8) 0.31562(8) 0.0468(5) Uani 1 1 d . . .
O6 O 0.40161(4) -0.13638(8) 0.20806(8) 0.0448(5) Uani 1 1 d . . .
C1 C 0.17845(7) 0.08752(14) 0.34515(12) 0.0504(8) Uani 1 1 d . . .
H1 H 0.1638 0.1338 0.3339 0.060 Uiso 1 1 calc R . .
C2 C 0.16285(8) 0.04001(15) 0.39101(13) 0.0663(9) Uani 1 1 d . . .
H2 H 0.1372 0.0533 0.4106 0.080 Uiso 1 1 calc R . .
C3 C 0.18298(8) -0.02745(15) 0.41045(13) 0.0646(9) Uani 1 1 d . . .
H3 H 0.1720 -0.0607 0.4429 0.078 Uiso 1 1 calc R . .
C4 C 0.22001(7) -0.04378(13) 0.37998(11) 0.0473(7) Uani 1 1 d . . .
H4 H 0.2355 -0.0885 0.3925 0.057 Uiso 1 1 calc R . .
C5 C 0.23466(6) 0.00385(12) 0.33182(11) 0.0364(6) Uani 1 1 d . . .
C6 C 0.27233(6) -0.01289(11) 0.29560(11) 0.0354(6) Uani 1 1 d . . .
C7 C 0.31226(6) 0.04440(11) 0.20988(10) 0.0326(6) Uani 1 1 d . . .
C8 C 0.31233(6) 0.11714(11) 0.16960(10) 0.0313(6) Uani 1 1 d . . .
C9 C 0.34117(6) 0.12942(13) 0.12276(10) 0.0422(7) Uani 1 1 d . . .
H5 H 0.3620 0.0914 0.1148 0.051 Uiso 1 1 calc R . .
C10 C 0.33975(7) 0.19746(14) 0.08710(12) 0.0532(8) Uani 1 1 d . . .
H6 H 0.3603 0.2089 0.0558 0.064 Uiso 1 1 calc R . .
C11 C 0.30774(8) 0.24795(14) 0.09824(12) 0.0564(8) Uani 1 1 d . . .
H7 H 0.3052 0.2944 0.0733 0.068 Uiso 1 1 calc R . .
C12 C 0.27930(7) 0.23195(13) 0.14515(11) 0.0453(7) Uani 1 1 d . . .
H8 H 0.2575 0.2683 0.1519 0.054 Uiso 1 1 calc R . .
C13 C 0.30559(6) 0.17393(13) 0.34913(11) 0.0439(7) Uani 1 1 d . . .
H9 H 0.3189 0.1255 0.3400 0.053 Uiso 1 1 calc R . .
C14 C 0.32240(7) 0.22259(14) 0.39676(12) 0.0525(8) Uani 1 1 d . . .
H10 H 0.3470 0.2078 0.4188 0.063 Uiso 1 1 calc R . .
C15 C 0.30310(7) 0.29107(14) 0.41099(11) 0.0491(8) Uani 1 1 d . . .
H11 H 0.3141 0.3250 0.4429 0.059 Uiso 1 1 calc R . .
C16 C 0.26724(7) 0.31111(13) 0.37862(10) 0.0407(7) Uani 1 1 d . . .
H12 H 0.2531 0.3584 0.3884 0.049 Uiso 1 1 calc R . .
C17 C 0.25270(6) 0.26180(12) 0.33266(10) 0.0324(6) Uani 1 1 d . . .
C18 C 0.21568(6) 0.27963(12) 0.29417(10) 0.0357(6) Uani 1 1 d . . .
C19 C 0.17559(6) 0.22803(11) 0.20672(11) 0.0348(6) Uani 1 1 d . . .
C20 C 0.17255(6) 0.15360(12) 0.16988(11) 0.0357(6) Uani 1 1 d . . .
C21 C 0.14163(7) 0.13990(14) 0.12622(12) 0.0556(8) Uani 1 1 d . . .
H13 H 0.1214 0.1789 0.1177 0.067 Uiso 1 1 calc R . .
C22 C 0.14027(8) 0.06871(15) 0.09468(14) 0.0673(9) Uani 1 1 d . . .
H14 H 0.1186 0.0573 0.0653 0.081 Uiso 1 1 calc R . .
C23 C 0.17052(8) 0.01518(14) 0.10641(13) 0.0627(9) Uani 1 1 d . . .
H15 H 0.1706 -0.0334 0.0841 0.075 Uiso 1 1 calc R . .
C24 C 0.20113(7) 0.03169(14) 0.15080(12) 0.0523(8) Uani 1 1 d . . .
H16 H 0.2219 -0.0064 0.1589 0.063 Uiso 1 1 calc R . .
C25 C 0.49463(7) 0.13131(14) 0.34746(12) 0.0521(8) Uani 1 1 d . . .
H17 H 0.5223 0.1447 0.3367 0.063 Uiso 1 1 calc R . .
C26 C 0.47456(8) 0.17542(15) 0.39227(12) 0.0618(8) Uani 1 1 d . . .
H18 H 0.4877 0.2201 0.4103 0.074 Uiso 1 1 calc R . .
C27 C 0.43559(8) 0.15560(17) 0.41136(12) 0.0658(9) Uani 1 1 d . . .
H19 H 0.4216 0.1857 0.4432 0.079 Uiso 1 1 calc R . .
C28 C 0.41647(7) 0.09062(14) 0.38360(10) 0.0446(7) Uani 1 1 d . . .
H20 H 0.3897 0.0743 0.3967 0.053 Uiso 1 1 calc R . .
C29 C 0.43775(6) 0.05132(12) 0.33688(10) 0.0370(6) Uani 1 1 d . . .
C30 C 0.41940(6) -0.01515(11) 0.30050(11) 0.0348(6) Uani 1 1 d . . .
C31 C 0.43519(6) -0.10171(12) 0.21364(11) 0.0350(6) Uani 1 1 d . . .
C32 C 0.47184(6) -0.12253(13) 0.17334(11) 0.0405(7) Uani 1 1 d . . .
C33 C 0.47018(7) -0.18243(16) 0.12777(12) 0.0607(9) Uani 1 1 d . . .
H21 H 0.4454 -0.2113 0.1209 0.073 Uiso 1 1 calc R . .
C34 C 0.50547(8) -0.19868(18) 0.09297(13) 0.0783(9) Uani 1 1 d . . .
H22 H 0.5055 -0.2397 0.0620 0.094 Uiso 1 1 calc R . .
C35 C 0.54020(7) -0.15554(19) 0.10338(13) 0.0765(10) Uani 1 1 d . . .
H23 H 0.5646 -0.1658 0.0794 0.092 Uiso 1 1 calc R . .
C36 C 0.53978(7) -0.09673(16) 0.14904(12) 0.0569(8) Uani 1 1 d . . .
H24 H 0.5642 -0.0668 0.1556 0.068 Uiso 1 1 calc R . .
Cl1 Cl 0.08524(4) 0.85950(7) 0.47815(6) 0.0644(5) Uani 0.50 1 d P . .
O7 O 0.08261(16) 0.8657(3) 0.41318(19) 0.130(2) Uani 0.50 1 d P A .
O8 O 0.0739(3) 0.9201(4) 0.5000 0.376(4) Uani 1 2 d S . .
O9 O 0.06901(11) 0.7888(3) 0.5000 0.1592(16) Uani 1 2 d S . .
O10 O 0.12810(11) 0.8496(2) 0.5000 0.1307(16) Uani 1 2 d S . .
Cl2 Cl 0.08601(4) 0.86451(7) 0.02136(6) 0.0634(5) Uani 0.50 1 d P . .
O11 O 0.08681(17) 0.8694(3) 0.0895(2) 0.123(2) Uani 0.50 1 d P . .
O12 O 0.1004(2) 0.9279(2) 0.0000 0.280(3) Uani 1 2 d S . .
O13 O 0.11349(11) 0.8003(2) 0.0000 0.1130(14) Uani 1 2 d S . .
O14 O 0.04841(13) 0.8331(3) 0.0000 0.1467(19) Uani 1 2 d S . .
Cl3 Cl 0.31341(2) 0.03449(5) 0.5000 0.0476(3) Uani 1 2 d S . .
O15 O 0.35030(7) 0.07983(17) 0.5000 0.0740(10) Uani 1 2 d S . .
O16 O 0.27795(9) 0.0782(2) 0.5000 0.149(2) Uani 1 2 d S . .
O17 O 0.31295(9) -0.0058(2) 0.44562(15) 0.2613(13) Uani 1 1 d . . .
Cl4 Cl 0.27421(3) 0.99315(6) 0.0000 0.0657(3) Uani 1 2 d S . .
O18 O 0.29676(11) 0.9795(2) 0.05471(17) 0.2701(16) Uani 1 1 d . . .
O19 O 0.26098(12) 1.0683(2) 0.0000 0.169(2) Uani 1 2 d S . .
O20 O 0.24211(10) 0.93642(17) 0.0000 0.0923(12) Uani 1 2 d S . .
C37 C 0.10391(14) 0.8339(3) 0.24745(17) 0.1128(16) Uani 1 1 d . A 1
Cl5 Cl 0.15724(4) 0.86159(9) 0.25161(5) 0.1343(5) Uani 1 1 d . A 1
Cl6 Cl 0.10182(5) 0.73149(8) 0.24905(5) 0.1450(6) Uani 1 1 d . A 1
Cl7 Cl 0.08677(10) 0.85783(17) 0.32725(15) 0.1800(13) Uani 0.50 1 d P . .
Cl8 Cl 0.08869(8) 0.86075(14) 0.17227(12) 0.1427(10) Uani 0.50 1 d P A 1
C38 C 0.0350(3) 0.1083(5) 0.2432(4) 0.124(3) Uani 0.50 1 d P . 1
Cl9 Cl 0.06699(7) 0.19526(13) 0.24784(14) 0.2121(11) Uani 0.50 1 d P . 1
Cl10 Cl 0.00091(12) 0.1184(3) 0.3110(3) 0.332(3) Uani 0.50 1 d P . 1
Cl11 Cl 0.07580(13) 0.03813(17) 0.2491(2) 0.290(3) Uani 0.50 1 d P B 1
C39 C 0.40779(14) 0.8885(3) 0.5000 0.0789(16) Uani 1 2 d S . .
Cl12 Cl 0.45369(4) 0.94439(6) 0.5000 0.0851(4) Uani 1 2 d S . .
Cl13 Cl 0.40211(4) 0.83875(8) 0.56717(5) 0.1902(5) Uani 1 1 d . . .
C40 C 0.17021(14) 0.2779(3) 0.5000 0.0883(17) Uani 1 2 d S . .
Cl14 Cl 0.20736(3) 0.20090(7) 0.5000 0.0790(4) Uani 1 2 d S . .
Cl15 Cl 0.14304(3) 0.27879(8) 0.43129(5) 0.1530(5) Uani 1 1 d . . .
O21 O 0.26226(9) 0.83696(18) 0.5000 0.1027(13) Uani 1 2 d S . .
C41 C 0.28923(13) 0.7696(3) 0.5000 0.0976(19) Uani 1 2 d S . .
O22 O 0.39201(11) 1.0398(3) 0.0000 0.1343(17) Uani 1 2 d S . .
C42 C 0.41573(16) 0.9786(3) 0.0000 0.118(2) Uani 1 2 d S . .
O23 O 0.0498(3) 0.0945(6) 0.6292(8) 0.990(12) Uani 1 1 d . . .
O24 O 0.0661(5) 0.1091(11) 0.5000 0.752(12) Uani 1 2 d S . .
O25 O 0.0165(3) 0.1058(6) 0.1735(5) 0.285(5) Uani 0.50 1 d P . 2
O26 O 0.0347(2) 0.1349(5) 0.0677(8) 0.551(11) Uani 0.50 1 d P . .
O27 O -0.0163 0.8157(5) 0.2117(6) 0.606(11) Uani 0.50 1 d P . .
O28 O 0.0194(4) 0.0368(10) -0.0979(8) 0.457(12) Uani 0.50 1 d P . .

loop_
_atom_site_aniso_label
_atom_site_aniso_U_11
_atom_site_aniso_U_22
_atom_site_aniso_U_33
_atom_site_aniso_U_23
_atom_site_aniso_U_13
_atom_site_aniso_U_12
Fe1 0.02491(12) 0.01783(13) 0.05060(17) 0.00033(15) 0.00346(14) 0.00382(11)
Fe2 0.01897(16) 0.0252(2) 0.0430(2) 0.000 0.000 -0.00387(16)
Fe3 0.02023(12) 0.01544(13) 0.0881(2) 0.00564(16) 0.00431(16) -0.00161(11)
N1 0.0316(8) 0.0254(9) 0.0535(11) -0.0067(9) 0.0027(8) -0.0023(8)
N2 0.0254(7) 0.0195(8) 0.0532(10) 0.0017(8) 0.0117(8) -0.0011(7)
N3 0.0331(8) 0.0198(8) 0.0547(11) 0.0009(8) -0.0033(9) 0.0031(7)
N4 0.0331(8) 0.0209(8) 0.0483(10) 0.0042(8) 0.0026(8) -0.0004(8)
N5 0.0238(7) 0.0237(8) 0.0566(10) -0.0028(9) -0.0030(8) 0.0058(7)
N6 0.0372(9) 0.0267(9) 0.0530(11) -0.0058(9) 0.0085(9) 0.0040(8)
N7 0.0249(8) 0.0273(9) 0.0573(11) -0.0025(9) -0.0066(8) -0.0027(7)
N8 0.0222(7) 0.0245(8) 0.0417(9) -0.0042(8) 0.0021(8) -0.0003(7)
N9 0.0239(8) 0.0336(9) 0.0548(11) -0.0059(9) -0.0004(8) -0.0029(8)
O1 0.0296(7) 0.0170(7) 0.0895(11) 0.0163(7) 0.0070(8) 0.0008(6)
O2 0.0314(7) 0.0191(7) 0.0766(10) 0.0056(7) 0.0133(7) 0.0026(6)
O3 0.0349(7) 0.0281(7) 0.0852(11) -0.0206(8) -0.0044(8) 0.0116(6)
O4 0.0283(7) 0.0208(7) 0.0873(11) -0.0068(8) -0.0083(8) 0.0047(6)
O5 0.0322(7) 0.0280(8) 0.0801(11) -0.0020(8) 0.0208(8) -0.0043(7)
O6 0.0237(6) 0.0200(7) 0.0908(11) -0.0075(8) 0.0002(8) -0.0003(6)
C1 0.0464(12) 0.0372(13) 0.0675(15) -0.0012(12) 0.0186(12) 0.0034(11)
C2 0.0561(13) 0.0491(15) 0.0938(18) -0.0026(15) 0.0423(13) 0.0054(13)
C3 0.0654(15) 0.0516(16) 0.0770(16) 0.0082(14) 0.0364(13) -0.0007(13)
C4 0.0515(13) 0.0254(11) 0.0651(15) 0.0091(11) 0.0057(12) 0.0036(11)
C5 0.0317(10) 0.0200(10) 0.0574(13) -0.0042(10) 0.0069(10) -0.0009(9)
C6 0.0277(10) 0.0227(10) 0.0559(13) -0.0047(10) 0.0038(10) -0.0008(9)
C7 0.0202(9) 0.0207(10) 0.0569(13) -0.0029(10) 0.0037(10) -0.0014(8)
C8 0.0255(9) 0.0185(10) 0.0498(12) -0.0003(9) 0.0029(10) 0.0026(8)
C9 0.0359(11) 0.0366(12) 0.0543(13) 0.0062(11) 0.0111(11) 0.0073(10)
C10 0.0529(13) 0.0508(14) 0.0558(14) 0.0189(12) 0.0188(12) 0.0162(12)
C11 0.0658(15) 0.0391(13) 0.0641(15) 0.0172(12) 0.0157(13) 0.0041(13)
C12 0.0426(12) 0.0312(11) 0.0620(14) 0.0099(12) 0.0039(12) 0.0167(10)
C13 0.0402(12) 0.0314(12) 0.0602(14) 0.0038(11) -0.0068(11) 0.0076(10)
C14 0.0508(13) 0.0426(13) 0.0640(15) 0.0069(13) -0.0164(12) 0.0083(12)
C15 0.0637(15) 0.0416(13) 0.0421(13) -0.0020(12) -0.0120(12) -0.0010(12)
C16 0.0503(12) 0.0260(11) 0.04