####################################################################### 
# 
# This file contains crystal structure data downloaded from the 
# Cambridge Structural Database (CSD) hosted by the Cambridge 
# Crystallographic Data Centre (CCDC).
# 
# Full information about CCDC data access policies and citation 
# guidelines are available at http://www.ccdc.cam.ac.uk/access/V1 
# 
# Audit and citation data items may have been added by the CCDC. 
# Please retain this information to preserve the provenance of 
# this file and to allow appropriate attribution of the data. 
# 
#######################################################################

data_comp2a_rev
_audit_block_doi                 10.5517/ccvkhhc
_database_code_depnum_ccdc_archive 'CCDC 791383'
loop_
_citation_id
_citation_doi
_citation_year
1 10.1039/c0cc03586f 2011
_audit_update_record             
;
2010-09-01 deposited with the CCDC.	2024-07-10 downloaded from the CCDC.
;
#TrackingRef 'comp2a_rev.cif'


_audit_creation_method           SHELXL-97
_chemical_name_systematic        
;
?
;
_chemical_name_common            ?
_chemical_melting_point          ?
_chemical_formula_moiety         ?
_chemical_formula_sum            'C88 H120 Al4 N8 O4 Zn2'
_chemical_formula_weight         1592.63

loop_
_atom_type_symbol
_atom_type_description
_atom_type_scat_dispersion_real
_atom_type_scat_dispersion_imag
_atom_type_scat_source
C C 0.0033 0.0016 'International Tables Vol C Tables 4.2.6.8 and 6.1.1.4'
H H 0.0000 0.0000 'International Tables Vol C Tables 4.2.6.8 and 6.1.1.4'
O O 0.0106 0.0060 'International Tables Vol C Tables 4.2.6.8 and 6.1.1.4'
N N 0.0061 0.0033 'International Tables Vol C Tables 4.2.6.8 and 6.1.1.4'
Al Al 0.0645 0.0514 'International Tables Vol C Tables 4.2.6.8 and 6.1.1.4'
Zn Zn 0.2839 1.4301 'International Tables Vol C Tables 4.2.6.8 and 6.1.1.4'

_symmetry_cell_setting           orthorhombic
_symmetry_space_group_name_H-M   'P 21 21 2'


loop_
_symmetry_equiv_pos_as_xyz
'x, y, z'
'-x, -y, z'
'x+1/2, -y+1/2, -z'
'-x+1/2, y+1/2, -z'

_cell_length_a                   25.1451(4)
_cell_length_b                   31.1622(7)
_cell_length_c                   14.4981(7)
_cell_angle_alpha                90.00
_cell_angle_beta                 90.00
_cell_angle_gamma                90.00
_cell_volume                     11360.4(6)
_cell_formula_units_Z            4
_cell_measurement_temperature    100(2)
_cell_measurement_reflns_used    7863
_cell_measurement_theta_min      0.998
_cell_measurement_theta_max      24.108

_exptl_crystal_description       prism
_exptl_crystal_colour            colourless
_exptl_crystal_size_max          0.46
_exptl_crystal_size_mid          0.34
_exptl_crystal_size_min          0.22
_exptl_crystal_density_meas      ?
_exptl_crystal_density_diffrn    0.931
_exptl_crystal_density_method    'not measured'
_exptl_crystal_F_000             3392
_exptl_absorpt_coefficient_mu    0.493
_exptl_absorpt_correction_type   multi-scan
_exptl_absorpt_correction_T_min  0.3853
_exptl_absorpt_correction_T_max  0.8285
_exptl_absorpt_process_details   'Scalepak (Otwinowski, Minor, 1997)'

_exptl_special_details           
;
?
;

_diffrn_ambient_temperature      100(2)
_diffrn_radiation_wavelength     0.71073
_diffrn_radiation_type           MoK\a
_diffrn_radiation_source         'fine-focus sealed tube'
_diffrn_radiation_monochromator  graphite
_diffrn_measurement_device_type  'Nonius Kappa-CCD'
_diffrn_measurement_method       'area detector \w scans'
_diffrn_detector_area_resol_mean ?
_diffrn_standards_number         ?
_diffrn_standards_interval_count ?
_diffrn_standards_interval_time  ?
_diffrn_standards_decay_%        ?
_diffrn_reflns_number            12367
_diffrn_reflns_av_R_equivalents  0.0000
_diffrn_reflns_av_sigmaI/netI    0.0463
_diffrn_reflns_limit_h_min       -25
_diffrn_reflns_limit_h_max       25
_diffrn_reflns_limit_k_min       -31
_diffrn_reflns_limit_k_max       31
_diffrn_reflns_limit_l_min       -14
_diffrn_reflns_limit_l_max       14
_diffrn_reflns_theta_min         1.75
_diffrn_reflns_theta_max         21.26
_reflns_number_total             12367
_reflns_number_gt                10415
_reflns_threshold_expression     I>2\s(I)

_computing_data_collection       'Collect (Nonius B.V. 1998)'
_computing_cell_refinement       'Denzo & Scalepak (Otwinowski, Minor, 1997)'
_computing_data_reduction        'Denzo & Scalepak (Otwinowski, Minor, 1997)'
_computing_structure_solution    'SHELXS-97 (Sheldrick, 1990)'
_computing_structure_refinement  'SHELXL-97 (Sheldrick, 1997)'
_computing_molecular_graphics    
;
DIAMOND v2.1 (Brandenburg, 1999)
Ortep-3 for Windows, L.J.Farrugia (1997) J.Appl.Cryst. 30, 565,
ORTEP III (Burnett, Johnson, 1996)
;
_computing_publication_material  
;
SHELXL-97 (Sheldrick, 1997),
;

_refine_special_details          
;
The structure contained molecules of toluene. The toluene molecules appear
to be highly disordered and it was difficult to model their positions and
distribution reliably. Therefore, the SQUEEZE function of PLATON
(van der Sluis & Spek, 1990; Spek, 2001) was used to eliminate the
contribution of the electron density in the solvent region from the
intensity data.


Refinement of F^2^ against ALL reflections. The weighted R-factor wR and
goodness of fit S are based on F^2^, conventional R-factors R are based
on F, with F set to zero for negative F^2^. The threshold expression of
F^2^ > 2sigma(F^2^) is used only for calculating R-factors(gt) etc. and is
not relevant to the choice of reflections for refinement. R-factors based
on F^2^ are statistically about twice as large as those based on F, and R-
factors based on ALL data will be even larger.
;

_refine_ls_structure_factor_coef Fsqd
_refine_ls_matrix_type           full
_refine_ls_weighting_scheme      calc
_refine_ls_weighting_details     
'calc w=1/[\s^2^(Fo^2^)+(0.0577P)^2^+46.8914P] where P=(Fo^2^+2Fc^2^)/3'
_atom_sites_solution_primary     direct
_atom_sites_solution_secondary   difmap
_atom_sites_solution_hydrogens   geom
_refine_ls_hydrogen_treatment    constr
_refine_ls_extinction_method     none
_refine_ls_extinction_coef       ?
_refine_ls_abs_structure_details 'Flack H D (1983), Acta Cryst. A39, 876-881'
_refine_ls_abs_structure_Flack   0.12(2)
_refine_ls_number_reflns         12367
_refine_ls_number_parameters     960
_refine_ls_number_restraints     3
_refine_ls_R_factor_all          0.0955
_refine_ls_R_factor_gt           0.0736
_refine_ls_wR_factor_ref         0.1894
_refine_ls_wR_factor_gt          0.1797
_refine_ls_goodness_of_fit_ref   1.136
_refine_ls_restrained_S_all      1.138
_refine_ls_shift/su_max          0.002
_refine_ls_shift/su_mean         0.000

loop_
_atom_site_label
_atom_site_type_symbol
_atom_site_fract_x
_atom_site_fract_y
_atom_site_fract_z
_atom_site_U_iso_or_equiv
_atom_site_adp_type
_atom_site_occupancy
_atom_site_symmetry_multiplicity
_atom_site_calc_flag
_atom_site_refinement_flags
_atom_site_disorder_assembly
_atom_site_disorder_group
C1 C -0.1238(5) -0.2509(4) -0.7724(8) 0.090(4) Uani 1 1 d . . .
H1A H -0.1392 -0.2225 -0.7607 0.136 Uiso 1 1 calc R . .
H1B H -0.0879 -0.2476 -0.7980 0.136 Uiso 1 1 calc R . .
H1C H -0.1218 -0.2670 -0.7144 0.136 Uiso 1 1 calc R . .
C2 C -0.1359(6) -0.3304(4) -0.9333(8) 0.092(4) Uani 1 1 d . . .
H2A H -0.1593 -0.3389 -0.9842 0.137 Uiso 1 1 calc R . .
H2B H -0.1303 -0.3551 -0.8923 0.137 Uiso 1 1 calc R . .
H2C H -0.1017 -0.3208 -0.9580 0.137 Uiso 1 1 calc R . .
C3 C -0.2637(5) -0.2335(3) -0.6824(7) 0.063(3) Uani 1 1 d . . .
H3A H -0.2298 -0.2305 -0.6496 0.095 Uiso 1 1 calc R . .
H3B H -0.2931 -0.2315 -0.6383 0.095 Uiso 1 1 calc R . .
H3C H -0.2669 -0.2105 -0.7283 0.095 Uiso 1 1 calc R . .
C4 C -0.3365(4) -0.3126(3) -0.7823(7) 0.069(3) Uani 1 1 d . . .
H4A H -0.3495 -0.2967 -0.8361 0.103 Uiso 1 1 calc R . .
H4B H -0.3617 -0.3094 -0.7313 0.103 Uiso 1 1 calc R . .
H4C H -0.3329 -0.3430 -0.7980 0.103 Uiso 1 1 calc R . .
C5 C -0.4019(4) -0.5300(3) -0.3172(7) 0.059(3) Uani 1 1 d . . .
H5A H -0.4267 -0.5340 -0.2658 0.089 Uiso 1 1 calc R . .
H5B H -0.4199 -0.5368 -0.3754 0.089 Uiso 1 1 calc R . .
H5C H -0.3897 -0.5002 -0.3185 0.089 Uiso 1 1 calc R . .
C6 C -0.3393(5) -0.6087(4) -0.1912(7) 0.073(3) Uani 1 1 d . . .
H6A H -0.3715 -0.6036 -0.1546 0.109 Uiso 1 1 calc R . .
H6B H -0.3078 -0.6032 -0.1532 0.109 Uiso 1 1 calc R . .
H6C H -0.3388 -0.6386 -0.2123 0.109 Uiso 1 1 calc R . .
C7 C -0.1769(6) -0.5315(5) -0.3971(9) 0.123(6) Uani 1 1 d . . .
H7A H -0.1457 -0.5502 -0.4016 0.184 Uiso 1 1 calc R . .
H7B H -0.1654 -0.5019 -0.3860 0.184 Uiso 1 1 calc R . .
H7C H -0.1971 -0.5328 -0.4549 0.184 Uiso 1 1 calc R . .
C8 C -0.1973(6) -0.6005(3) -0.2218(9) 0.096(4) Uani 1 1 d . . .
H8A H -0.2230 -0.6065 -0.1727 0.144 Uiso 1 1 calc R . .
H8B H -0.1626 -0.5940 -0.1945 0.144 Uiso 1 1 calc R . .
H8C H -0.1941 -0.6257 -0.2620 0.144 Uiso 1 1 calc R . .
C9 C -0.2955(6) -0.5524(3) -0.8732(9) 0.105(5) Uani 1 1 d . . .
H9A H -0.3141 -0.5382 -0.8223 0.158 Uiso 1 1 calc R . .
H9B H -0.3074 -0.5823 -0.8778 0.158 Uiso 1 1 calc R . .
H9C H -0.3034 -0.5374 -0.9311 0.158 Uiso 1 1 calc R . .
C10 C -0.1547(8) -0.5681(5) -0.9178(10) 0.134(7) Uani 1 1 d . . .
H10A H -0.1233 -0.5609 -0.8809 0.201 Uiso 1 1 calc R . .
H10B H -0.1531 -0.5529 -0.9768 0.201 Uiso 1 1 calc R . .
H10C H -0.1554 -0.5991 -0.9292 0.201 Uiso 1 1 calc R . .
C11 C -0.4987(5) -0.3264(4) -0.1699(9) 0.091(4) Uani 1 1 d . . .
H11A H -0.4979 -0.3432 -0.1128 0.136 Uiso 1 1 calc R . .
H11B H -0.5233 -0.3398 -0.2137 0.136 Uiso 1 1 calc R . .
H11C H -0.5105 -0.2971 -0.1562 0.136 Uiso 1 1 calc R . .
C12 C -0.3911(7) -0.3010(4) -0.3375(9) 0.108(5) Uani 1 1 d . . .
H12A H -0.3532 -0.3086 -0.3379 0.162 Uiso 1 1 calc R . .
H12B H -0.3948 -0.2697 -0.3378 0.162 Uiso 1 1 calc R . .
H12C H -0.4083 -0.3130 -0.3923 0.162 Uiso 1 1 calc R . .
C13 C -0.2636(5) -0.2342(3) -0.9182(6) 0.057(3) Uani 1 1 d . . .
H13 H -0.2852 -0.2160 -0.8755 0.068 Uiso 1 1 calc R . .
C14 C -0.3007(5) -0.2530(3) -0.9891(7) 0.056(3) Uani 1 1 d . . .
C15 C -0.2942(4) -0.2949(3) -1.0220(7) 0.055(3) Uani 1 1 d . . .
H15 H -0.2653 -0.3118 -1.0007 0.066 Uiso 1 1 calc R . .
C16 C -0.3297(5) -0.3119(3) -1.0859(7) 0.058(3) Uani 1 1 d . . .
H16 H -0.3221 -0.3395 -1.1102 0.069 Uiso 1 1 calc R . .
C17 C -0.3814(5) -0.2516(3) -1.0830(7) 0.061(3) Uani 1 1 d . . .
C18 C -0.4300(5) -0.2318(3) -1.1117(7) 0.068(3) Uani 1 1 d . . .
H18 H -0.4541 -0.2462 -1.1514 0.082 Uiso 1 1 calc R . .
C19 C -0.4403(5) -0.1916(4) -1.0802(9) 0.079(4) Uani 1 1 d . . .
H19 H -0.4719 -0.1779 -1.1007 0.095 Uiso 1 1 calc R . .
C20 C -0.4083(6) -0.1700(4) -1.0216(9) 0.081(4) Uani 1 1 d . . .
H20 H -0.4178 -0.1418 -1.0027 0.097 Uiso 1 1 calc R . .
C21 C -0.3599(6) -0.1891(3) -0.9872(7) 0.068(4) Uani 1 1 d . . .
H21 H -0.3378 -0.1742 -0.9448 0.082 Uiso 1 1 calc R . .
C22 C -0.3466(5) -0.2304(3) -1.0186(7) 0.060(3) Uani 1 1 d . . .
C23 C -0.2170(5) -0.2067(3) -0.9545(7) 0.071(3) Uani 1 1 d . . .
H23 H -0.2069 -0.1871 -0.9027 0.085 Uiso 1 1 calc R . .
C24 C -0.2278(5) -0.1780(3) -1.0365(7) 0.065(3) Uani 1 1 d . . .
H24A H -0.2381 -0.1491 -1.0146 0.078 Uiso 1 1 calc R . .
H24B H -0.2578 -0.1898 -1.0727 0.078 Uiso 1 1 calc R . .
C25 C -0.1769(5) -0.1743(4) -1.1002(8) 0.082(4) Uani 1 1 d . . .
H25 H -0.1810 -0.1510 -1.1470 0.098 Uiso 1 1 calc R . .
C26 C -0.1301(6) -0.1647(4) -1.0318(9) 0.093(4) Uani 1 1 d . . .
H26A H -0.0974 -0.1581 -1.0669 0.112 Uiso 1 1 calc R . .
H26B H -0.1391 -0.1395 -0.9932 0.112 Uiso 1 1 calc R . .
C27 C -0.1208(5) -0.2038(3) -0.9707(8) 0.066(3) Uani 1 1 d . . .
H27A H -0.1143 -0.1943 -0.9065 0.079 Uiso 1 1 calc R . .
H27B H -0.0889 -0.2194 -0.9923 0.079 Uiso 1 1 calc R . .
C28 C -0.1708(5) -0.2522(3) -1.0666(6) 0.065(3) Uani 1 1 d . . .
H28A H -0.2043 -0.2685 -1.0741 0.078 Uiso 1 1 calc R . .
H28B H -0.1409 -0.2726 -1.0743 0.078 Uiso 1 1 calc R . .
C29 C -0.1673(6) -0.2167(3) -1.1447(7) 0.082(4) Uani 1 1 d . . .
H29 H -0.1303 -0.2168 -1.1699 0.098 Uiso 1 1 calc R . .
C30 C -0.2045(7) -0.2273(4) -1.2213(7) 0.098(5) Uani 1 1 d . . .
H30 H -0.2415 -0.2287 -1.2089 0.118 Uiso 1 1 calc R . .
C31 C -0.1879(9) -0.2346(4) -1.3038(9) 0.143(8) Uani 1 1 d . . .
H31A H -0.1510 -0.2333 -1.3172 0.172 Uiso 1 1 calc R . .
H31B H -0.2126 -0.2413 -1.3512 0.172 Uiso 1 1 calc R . .
C32 C -0.1787(5) -0.3489(3) -0.7120(7) 0.063(3) Uani 1 1 d . . .
H32 H -0.1399 -0.3417 -0.7131 0.075 Uiso 1 1 calc R . .
C33 C -0.1856(5) -0.3954(3) -0.7448(7) 0.067(3) Uani 1 1 d . . .
C34 C -0.2264(5) -0.4083(3) -0.7994(7) 0.061(3) Uani 1 1 d . . .
H34 H -0.2505 -0.3878 -0.8238 0.073 Uiso 1 1 calc R . .
C35 C -0.2329(5) -0.4525(3) -0.8197(6) 0.061(3) Uani 1 1 d . . .
H35 H -0.2636 -0.4608 -0.8537 0.073 Uiso 1 1 calc R . .
C36 C -0.1565(5) -0.4702(4) -0.7443(8) 0.071(3) Uani 1 1 d . . .
C37 C -0.1226(5) -0.5042(4) -0.7159(12) 0.101(5) Uani 1 1 d . . .
H37 H -0.1308 -0.5331 -0.7317 0.121 Uiso 1 1 calc R . .
C38 C -0.0803(8) -0.4953(5) -0.6678(12) 0.128(6) Uani 1 1 d . . .
H38 H -0.0572 -0.5184 -0.6528 0.153 Uiso 1 1 calc R . .
C39 C -0.0659(5) -0.4530(6) -0.6355(13) 0.124(6) Uani 1 1 d . . .
H39 H -0.0359 -0.4476 -0.5974 0.149 Uiso 1 1 calc R . .
C40 C -0.1010(6) -0.4200(5) -0.6667(10) 0.098(5) Uani 1 1 d . . .
H40 H -0.0925 -0.3911 -0.6521 0.117 Uiso 1 1 calc R . .
C41 C -0.1462(5) -0.4278(3) -0.7162(8) 0.069(3) Uani 1 1 d . . .
C42 C -0.2004(5) -0.3413(3) -0.6108(7) 0.065(3) Uani 1 1 d . . .
H42 H -0.1808 -0.3151 -0.5897 0.078 Uiso 1 1 calc R . .
C43 C -0.1888(6) -0.3741(4) -0.5359(8) 0.095(5) Uani 1 1 d . . .
H43A H -0.1561 -0.3663 -0.5019 0.114 Uiso 1 1 calc R . .
H43B H -0.1841 -0.4030 -0.5631 0.114 Uiso 1 1 calc R . .
C44 C -0.2384(8) -0.3734(4) -0.4694(8) 0.108(6) Uani 1 1 d . . .
H44 H -0.2308 -0.3916 -0.4141 0.130 Uiso 1 1 calc R . .
C45 C -0.2464(7) -0.3277(4) -0.4394(7) 0.110(5) Uani 1 1 d . . .
H45A H -0.2122 -0.3149 -0.4200 0.132 Uiso 1 1 calc R . .
H45B H -0.2716 -0.3263 -0.3869 0.132 Uiso 1 1 calc R . .
C46 C -0.2699(6) -0.3030(4) -0.5262(7) 0.094(5) Uani 1 1 d . . .
H46A H -0.3089 -0.3002 -0.5198 0.113 Uiso 1 1 calc R . .
H46B H -0.2545 -0.2738 -0.5292 0.113 Uiso 1 1 calc R . .
C47 C -0.2908(6) -0.3656(3) -0.6096(7) 0.074(4) Uani 1 1 d . . .
H47A H -0.2808 -0.3854 -0.6602 0.089 Uiso 1 1 calc R . .
H47B H -0.3283 -0.3570 -0.6194 0.089 Uiso 1 1 calc R . .
C48 C -0.2863(6) -0.3897(4) -0.5163(8) 0.078(4) Uani 1 1 d . . .
H48 H -0.3179 -0.3819 -0.4779 0.094 Uiso 1 1 calc R . .
C49 C -0.2874(8) -0.4371(4) -0.5312(9) 0.114(6) Uani 1 1 d . . .
H49 H -0.2562 -0.4522 -0.5491 0.137 Uiso 1 1 calc R . .
C50 C -0.3331(8) -0.4576(5) -0.5187(18) 0.192(12) Uani 1 1 d . . .
H50A H -0.3640 -0.4421 -0.5009 0.230 Uiso 1 1 calc R . .
H50B H -0.3350 -0.4877 -0.5277 0.230 Uiso 1 1 calc R . .
C51 C -0.2684(4) -0.6137(3) -0.4256(7) 0.054(3) Uani 1 1 d . . .
H51 H -0.2387 -0.6306 -0.3976 0.064 Uiso 1 1 calc R . .
C52 C -0.2527(5) -0.6019(3) -0.5222(6) 0.060(3) Uani 1 1 d . . .
C53 C -0.2623(4) -0.5621(3) -0.5558(6) 0.057(3) Uani 1 1 d . . .
H53 H -0.2798 -0.5417 -0.5178 0.068 Uiso 1 1 calc R . .
C54 C -0.2467(4) -0.5503(3) -0.6464(7) 0.062(3) Uani 1 1 d . . .
H54 H -0.2545 -0.5220 -0.6667 0.075 Uiso 1 1 calc R . .
C55 C -0.2079(5) -0.6167(3) -0.6717(6) 0.064(3) Uani 1 1 d . . .
C56 C -0.1812(5) -0.6441(3) -0.7318(7) 0.070(3) Uani 1 1 d . . .
H56 H -0.1733 -0.6352 -0.7929 0.084 Uiso 1 1 calc R . .
C57 C -0.1665(5) -0.6836(3) -0.7021(8) 0.081(4) Uani 1 1 d . . .
H57 H -0.1489 -0.7029 -0.7429 0.098 Uiso 1 1 calc R . .
C58 C -0.1772(6) -0.6960(3) -0.6112(8) 0.081(4) Uani 1 1 d . . .
H58 H -0.1637 -0.7227 -0.5900 0.098 Uiso 1 1 calc R . .
C59 C -0.2059(5) -0.6717(3) -0.5523(7) 0.072(3) Uani 1 1 d . . .
H59 H -0.2148 -0.6820 -0.4927 0.086 Uiso 1 1 calc R . .
C60 C -0.2223(5) -0.6305(3) -0.5818(7) 0.057(3) Uani 1 1 d . . .
C61 C -0.3217(5) -0.6423(3) -0.4210(7) 0.070(4) Uani 1 1 d . . .
H61 H -0.3175 -0.6611 -0.3655 0.084 Uiso 1 1 calc R . .
C62 C -0.3322(6) -0.6732(4) -0.5028(7) 0.080(4) Uani 1 1 d . . .
H62A H -0.3130 -0.6634 -0.5584 0.096 Uiso 1 1 calc R . .
H62B H -0.3199 -0.7025 -0.4873 0.096 Uiso 1 1 calc R . .
C63 C -0.3917(6) -0.6733(4) -0.5203(8) 0.077(4) Uani 1 1 d . . .
H63 H -0.4011 -0.6962 -0.5659 0.093 Uiso 1 1 calc R . .
C64 C -0.4230(6) -0.6797(4) -0.4320(8) 0.093(4) Uani 1 1 d . . .
H64A H -0.4122 -0.7069 -0.4021 0.111 Uiso 1 1 calc R . .
H64B H -0.4615 -0.6814 -0.4461 0.111 Uiso 1 1 calc R . .
C65 C -0.4123(5) -0.6420(3) -0.3673(7) 0.069(3) Uani 1 1 d . . .
H65A H -0.4450 -0.6244 -0.3617 0.083 Uiso 1 1 calc R . .
H65B H -0.4034 -0.6531 -0.3052 0.083 Uiso 1 1 calc R . .
C66 C -0.3883(5) -0.5949(3) -0.4868(7) 0.067(3) Uani 1 1 d . . .
H66A H -0.3594 -0.5782 -0.5161 0.080 Uiso 1 1 calc R . .
H66B H -0.4172 -0.5747 -0.4710 0.080 Uiso 1 1 calc R . .
C67 C -0.4097(5) -0.6281(3) -0.5577(6) 0.062(3) Uani 1 1 d . . .
H67 H -0.4494 -0.6267 -0.5595 0.075 Uiso 1 1 calc R . .
C68 C -0.3871(5) -0.6190(4) -0.6546(7) 0.082(4) Uani 1 1 d D . .
H68 H -0.3510 -0.6257 -0.6669 0.098 Uiso 1 1 calc R . .
C69 C -0.4161(8) -0.6024(7) -0.7205(10) 0.184(10) Uani 1 1 d D . .
H69A H -0.4524 -0.5955 -0.7095 0.221 Uiso 1 1 calc R . .
H69B H -0.4009 -0.5972 -0.7795 0.221 Uiso 1 1 calc R . .
C70 C -0.2912(4) -0.5044(3) -0.1700(6) 0.047(3) Uani 1 1 d . . .
H70 H -0.3116 -0.5237 -0.1276 0.057 Uiso 1 1 calc R . .
C71 C -0.3240(5) -0.4643(3) -0.1819(6) 0.053(3) Uani 1 1 d . . .
C72 C -0.3300(4) -0.4439(3) -0.2626(6) 0.047(2) Uani 1 1 d . . .
H72 H -0.3134 -0.4550 -0.3164 0.056 Uiso 1 1 calc R . .
C73 C -0.3615(4) -0.4053(3) -0.2686(7) 0.049(3) Uani 1 1 d . . .
H73 H -0.3641 -0.3914 -0.3268 0.059 Uiso 1 1 calc R . .
C74 C -0.3849(4) -0.4100(3) -0.1184(6) 0.051(3) Uani 1 1 d . . .
C75 C -0.4121(4) -0.3920(3) -0.0422(6) 0.051(3) Uani 1 1 d . . .
H75 H -0.4312 -0.3660 -0.0506 0.061 Uiso 1 1 calc R . .
C76 C -0.4117(4) -0.4102(3) 0.0411(6) 0.051(3) Uani 1 1 d . . .
H76 H -0.4322 -0.3984 0.0900 0.061 Uiso 1 1 calc R . .
C77 C -0.3802(4) -0.4479(3) 0.0559(6) 0.052(3) Uani 1 1 d . . .
H77 H -0.3787 -0.4606 0.1154 0.063 Uiso 1 1 calc R . .
C78 C -0.3523(4) -0.4654(3) -0.0