####################################################################### 
# 
# This file contains crystal structure data downloaded from the 
# Cambridge Structural Database (CSD) hosted by the Cambridge 
# Crystallographic Data Centre (CCDC).
# 
# Full information about CCDC data access policies and citation 
# guidelines are available at http://www.ccdc.cam.ac.uk/access/V1 
# 
# Audit and citation data items may have been added by the CCDC. 
# Please retain this information to preserve the provenance of 
# this file and to allow appropriate attribution of the data. 
# 
#######################################################################

data_[Cu(sal)(4,4'-bipy)]
_audit_block_doi                 10.5517/cc6jmp0
_database_code_depnum_ccdc_archive 'CCDC 194732'
loop_
_citation_id
_citation_doi
_citation_year
1 10.1246/cl.2003.588 2003
_audit_update_record             
;
2002-10-02 deposited with the CCDC.	2024-07-10 downloaded from the CCDC.
;
#------------------------------------------------------------------------------
# CHEMICAL DATA 
_chemical_formula_sum            'C17 H12 Cu N2 O3 '
_chemical_formula_moiety         'C17 H12 Cu N2 O3 '
_chemical_formula_weight         355.84
_chemical_melting_point          ?
#------------------------------------------------------------------------------
# CRYSTAL DATA 
_symmetry_cell_setting           trigonal
_symmetry_space_group_name_H-M   'R -3'
_symmetry_Int_Tables_number      148
loop_
_symmetry_equiv_pos_as_xyz
x,y,z
-y,x-y,z
-x+y,-x,z
-x,-y,-z
y,-x+y,-z
x-y,x,-z
2/3+x,1/3+y,1/3+z
2/3-y,1/3+x-y,1/3+z
2/3-x+y,1/3-x,1/3+z
2/3-x,1/3-y,1/3-z
2/3+y,1/3-x+y,1/3-z
2/3+x-y,1/3+x,1/3-z
1/3+x,2/3+y,2/3+z
1/3-y,2/3+x-y,2/3+z
1/3-x+y,2/3-x,2/3+z
1/3-x,2/3-y,2/3-z
1/3+y,2/3-x+y,2/3-z
1/3+x-y,2/3+x,2/3-z
_cell_length_a                   32.602(2)
_cell_length_b                   32.602(2)
_cell_length_c                   10.6162(4)
_cell_angle_alpha                90
_cell_angle_beta                 90
_cell_angle_gamma                120
_cell_volume                     9772.0(9)
_cell_formula_units_Z            18
_cell_measurement_reflns_used    ?
_cell_measurement_theta_min      ?
_cell_measurement_theta_max      ?
_cell_measurement_temperature    273.2
#------------------------------------------------------------------------------
_exptl_crystal_description       unknown
_exptl_crystal_colour            unknown
_exptl_crystal_size_max          0.000
_exptl_crystal_size_mid          0.000
_exptl_crystal_size_min          0.000
_exptl_crystal_size_rad          ?
_exptl_crystal_density_diffrn    1.088
_exptl_crystal_density_meas      ?
_exptl_crystal_density_method    'not measured'
_exptl_absorpt_coefficient_mu    1.017
_exptl_absorpt_correction_type   none
#------------------------------------------------------------------------------
# EXPERIMENTAL DATA 
_diffrn_radiation_type           'Mo K\a'
_diffrn_radiation_wavelength     0.7107
_diffrn_measurement_device_type  ?
_diffrn_reflns_number            15018
_diffrn_reflns_av_R_equivalents  0.033
_diffrn_reflns_theta_max         22.19
_diffrn_measured_fraction_theta_max 0.9923
_diffrn_reflns_theta_full        22.19
_diffrn_measured_fraction_theta_full 0.9923
_diffrn_reflns_limit_h_min       0
_diffrn_reflns_limit_h_max       34
_diffrn_reflns_limit_k_min       -29
_diffrn_reflns_limit_k_max       29
_diffrn_reflns_limit_l_min       0
_diffrn_reflns_limit_l_max       11
#------------------------------------------------------------------------------
# REFINEMENT DATA 
_refine_special_details          
;
Refinement using reflections with F^2^ > 3.0 sigma(F^2^). The weighted R-factor
(wR), goodness of fit (S) and R-factor (gt) are based on F, with F set to zero 
for negative F. The threshold expression of F^2^ > 3.0 sigma(F^2^) is used only 
for calculating R-factor (gt).
;
_reflns_number_total             2723
_reflns_number_gt                2102
_reflns_threshold_expression     F^2^>3.0\s(F^2^)
_refine_ls_structure_factor_coef F
_refine_ls_R_factor_gt           0.0534
_refine_ls_wR_factor_ref         0.0683
_refine_ls_hydrogen_treatment    ?
_refine_ls_number_reflns         2102
_refine_ls_number_parameters     253
_refine_ls_goodness_of_fit_ref   2.984
_refine_ls_weighting_scheme      calc
_refine_ls_weighting_details     'w = 1/[\s^2^(Fo) + 0.00018|Fo|^2^]'
_refine_ls_shift/su_max          0.0054
_refine_diff_density_max         0.82
_refine_diff_density_min         -0.35
_refine_ls_extinction_method     none
_refine_ls_extinction_coef       ?
_refine_ls_abs_structure_details ?
_refine_ls_abs_structure_Flack   ?
loop_
_atom_type_symbol
_atom_type_description
_atom_type_scat_dispersion_real
_atom_type_scat_dispersion_imag
_atom_type_scat_source
Cu Cu 0.320 1.265
;International Tables for Crystallography
(1992, Vol. C, Tables 4.2.6.8 and 6.1.1.1)
;
C C 0.003 0.002
;International Tables for Crystallography
(1992, Vol. C, Tables 4.2.6.8 and 6.1.1.1)
;
O O 0.011 0.006
;International Tables for Crystallography
(1992, Vol. C, Tables 4.2.6.8 and 6.1.1.1)
;
N N 0.006 0.003
;International Tables for Crystallography
(1992, Vol. C, Tables 4.2.6.8 and 6.1.1.1)
;
H H 0.000 0.000
;International Tables for Crystallography
(1992, Vol. C, Table 6.1.1.2)
;
#------------------------------------------------------------------------------
# ATOMIC COORDINATES AND DISPLACEMENT PARAMETERS 
loop_
_atom_site_label
_atom_site_type_symbol
_atom_site_fract_x
_atom_site_fract_y
_atom_site_fract_z
_atom_site_U_iso_or_equiv
_atom_site_adp_type
_atom_site_occupancy
_atom_site_calc_flag
_atom_site_refinement_flags
_atom_site_disorder_assembly
_atom_site_disorder_group
Cu(1) Cu 0.38991(2) 0.01245(2) 0.55862(6) 0.0446(2) Uani 1.00 d . . .
O(1) O 0.4325(1) 0.0577(1) 0.4304(3) 0.049(1) Uani 1.00 d . . .
O(2) O 0.3425(1) -0.0322(1) 0.6732(3) 0.047(1) Uani 1.00 d . . .
O(3) O 0.3876(1) -0.0376(1) 0.4611(3) 0.058(1) Uani 1.00 d . . .
N(1) N 0.3824(2) 0.0656(2) 0.6396(4) 0.044(1) Uani 1.00 d . . .
N(2) N 0.4515(2) 0.0261(2) 0.6903(4) 0.056(2) Uani 1.00 d . . .
C(1) C 0.3466(4) 0.0566(3) 0.7118(9) 0.099(3) Uani 1.00 d . . .
C(2) C 0.3410(4) 0.0903(3) 0.7735(9) 0.112(4) Uani 1.00 d . . .
C(3) C 0.3737(2) 0.1372(2) 0.7643(5) 0.048(2) Uani 1.00 d . . .
C(4) C 0.4100(3) 0.1461(3) 0.6853(8) 0.091(3) Uani 1.00 d . . .
C(5) C 0.4132(3) 0.1105(2) 0.6267(8) 0.087(3) Uani 1.00 d . . .
C(6) C 0.4667(3) 0.0516(3) 0.7949(7) 0.074(3) Uani 1.00 d . . .
C(7) C 0.5038(3) 0.0569(3) 0.8668(7) 0.071(2) Uani 1.00 d . . .
C(8) C 0.5290(2) 0.0356(2) 0.8313(5) 0.049(2) Uani 1.00 d . . .
C(9) C 0.5142(3) 0.0090(3) 0.7232(7) 0.082(3) Uani 1.00 d . . .
C(10) C 0.4759(3) 0.0049(3) 0.6576(7) 0.080(3) Uani 1.00 d . . .
C(11) C 0.4103(2) 0.0637(2) 0.3408(5) 0.043(2) Uani 1.00 d . . .
C(12) C 0.4375(2) 0.0967(2) 0.2392(5) 0.051(2) Uani 1.00 d . . .
C(13) C 0.4161(2) 0.1075(2) 0.1394(5) 0.053(2) Uani 1.00 d . . .
C(14) C 0.4468(3) 0.1377(3) 0.0440(7) 0.084(3) Uani 1.00 d . . .
C(15) C 0.4945(3) 0.1555(4) 0.0458(9) 0.105(3) Uani 1.00 d . . .
C(16) C 0.5158(3) 0.1457(3) 0.1449(9) 0.099(3) Uani 1.00 d . . .
C(17) C 0.4871(2) 0.1161(3) 0.2413(7) 0.073(2) Uani 1.00 d . . .
H(1) H 0.327(3) 0.031(3) 0.716(8) 0.1149 Uiso 1.00 calc . . .
H(2) H 0.310(3) 0.078(3) 0.812(9) 0.1367 Uiso 1.00 calc . . .
H(3) H 0.432(3) 0.171(3) 0.684(8) 0.1101 Uiso 1.00 calc . . .
H(4) H 0.440(2) 0.114(2) 0.581(6) 0.08(2) Uiso 1.00 calc . . .
H(5) H 0.448(2) 0.060(2) 0.819(6) 0.07(2) Uiso 1.00 calc . . .
H(6) H 0.510(2) 0.072(2) 0.935(6) 0.06(2) Uiso 1.00 calc . . .
H(7) H 0.525(3) -0.008(3) 0.696(7) 0.08(2) Uiso 1.00 calc . . .
H(8) H 0.466(2) -0.012(3) 0.588(7) 0.08(2) Uiso 1.00 calc . . .
H(9) H 0.433(3) 0.144(3) -0.027(8) 0.12(3) Uiso 1.00 calc . . .
H(10) H 0.520(3) 0.178(3) -0.015(7) 0.09(2) Uiso 1.00 calc . . .
H(11) H 0.550(3) 0.157(3) 0.147(7) 0.10(2) Uiso 1.00 calc . . .
H(12) H 0.503(3) 0.102(3) 0.309(7) 0.09(2) Uiso 1.00 calc . . .

loop_
_atom_site_aniso_label
_atom_site_aniso_U_11
_atom_site_aniso_U_22
_atom_site_aniso_U_33
_atom_site_aniso_U_12
_atom_site_aniso_U_13
_atom_site_aniso_U_23
Cu(1) 0.0487(5) 0.0497(5) 0.0384(4) 0.0268(4) 0.0023(3) -0.0002(3)
O(1) 0.045(2) 0.059(2) 0.042(2) 0.026(2) -0.001(2) 0.002(2)
O(2) 0.057(2) 0.047(3) 0.040(2) 0.028(2) 0.006(2) -0.001(2)
O(3) 0.067(3) 0.061(3) 0.050(2) 0.036(2) 0.012(2) -0.004(2)
N(1) 0.044(3) 0.042(3) 0.043(3) 0.020(2) 0.005(2) 0.001(2)
N(2) 0.057(3) 0.074(3) 0.048(3) 0.041(3) 0.000(2) -0.001(3)
C(1) 0.117(7) 0.047(4) 0.131(7) 0.039(5) 0.067(6) 0.019(5)
C(2) 0.130(8) 0.063(5) 0.145(8) 0.049(6) 0.089(7) 0.021(5)
C(3) 0.059(4) 0.045(4) 0.042(3) 0.027(3) 0.002(3) 0.004(3)
C(4) 0.108(7) 0.046(4) 0.094(6) 0.020(4) 0.047(5) 0.001(4)
C(5) 0.097(6) 0.054(5) 0.096(6) 0.026(4) 0.048(5) -0.007(4)
C(6) 0.078(5) 0.100(6) 0.075(5) 0.069(5) -0.011(4) -0.017(4)
C(7) 0.074(5) 0.102(6) 0.062(4) 0.061(5) -0.021(4) -0.031(4)
C(8) 0.050(3) 0.060(4) 0.042(3) 0.029(3) 0.000(3) -0.002(3)
C(9) 0.085(5) 0.121(7) 0.074(5) 0.078(5) -0.021(4) -0.032(5)
C(10) 0.081(5) 0.121(6) 0.063(4) 0.069(5) -0.029(4) -0.036(5)
C(11) 0.049(4) 0.038(3) 0.037(3) 0.019(3) 0.002(3) -0.006(2)
C(12) 0.046(4) 0.043(3) 0.048(3) 0.011(3) 0.000(3) -0.002(3)
C(13) 0.053(4) 0.050(4) 0.046(3) 0.018(3) 0.005(3) 0.006(3)
C(14) 0.072(5) 0.096(6) 0.065(5) 0.027(5) 0.007(4) 0.031(4)
C(15) 0.077(6) 0.120(7) 0.085(6) 0.026(6) 0.023(5) 0.039(5)
C(16) 0.058(5) 0.110(7) 0.097(6) 0.018(5) 0.019(5) 0.029(5)
C(17) 0.059(4) 0.075(5) 0.067(4) 0.021(4) 0.007(4) 0.012(4)
#------------------------------------------------------------------------------
_computing_data_collection       .
_computing_cell_refinement       .
_computing_data_reduction        'teXsan Ver. 1.10'
_computing_structure_solution    SIR92
_computing_structure_refinement  'teXsan Ver. 1.10'
_computing_publication_material  'teXsan Ver. 1.10'
_computing_molecular_graphics    ?
#------------------------------------------------------------------------------
_geom_special_details            
;
?
;
loop_
_geom_bond_atom_site_label_1
_geom_bond_atom_site_label_2
_geom_bond_distance
_geom_bond_site_symmetry_1
_geom_bond_site_symmetry_2
_geom_bond_publ_flag
Cu(1) O(1) 1.977(3) . . yes
Cu(1) O(2) 1.933(3) . . yes
Cu(1) O(2) 2.768(4) . 14_544 yes
Cu(1) O(3) 1.901(5) . . yes
Cu(1) N(1) 2.055(6) . . yes
Cu(1) N(2) 2.301(6) . . yes
Cu(1) C(1) 2.96(1) . . yes
Cu(1) C(5) 2.983(9) . . yes
Cu(1) C(11) 2.734(5) . . yes
Cu(1) C(11) 2.924(7) . 9_555 yes
Cu(1) C(13) 2.885(6) . 9_555 yes
O(1) O(2) 2.193(5) . 14_544 yes
O(1) O(3) 2.712(6) . . yes
O(1) N(1) 2.842(6) . . yes
O(1) C(5) 2.96(1) . . yes
O(1) C(11) 1.268(8) . . yes
O(1) C(12) 2.357(7) . . yes
O(1) C(17) 2.727(7) . . yes
O(2) O(3) 2.743(6) . . yes
O(2) N(1) 2.799(6) . . yes
O(2) C(1) 2.86(1) . . yes
O(2) C(11) 1.265(7) . 9_555 yes
O(2) C(12) 2.382(6) . 9_555 yes
O(2) C(13) 2.889(7) . 9_555 yes
O(3) C(11) 2.964(7) . 9_555 yes
O(3) C(12) 2.408(8) . 9_555 yes
O(3) C(13) 1.301(8) . 9_555 yes
O(3) C(14) 2.334(9) . 9_555 yes
N(1) C(1) 1.30(1) . . yes
N(1) C(2) 2.36(1) . . yes
N(1) C(3) 2.819(9) . . yes
N(1) C(4) 2.360(9) . . yes
N(1) C(5) 1.304(8) . . yes
N(2) C(6) 1.326(9) . . yes
N(2) C(7) 2.390(9) . . yes
N(2) C(8) 2.816(9) . . yes
N(2) C(9) 2.40(1) . . yes
N(2) C(10) 1.33(1) . . yes
C(1) C(2) 1.37(2) . . yes
C(1) C(3) 2.38(1) . . yes
C(1) C(4) 2.613(9) . . yes
C(1) C(5) 2.19(1) . . yes
C(2) C(3) 1.362(9) . . yes
C(2) C(4) 2.27(1) . . yes
C(2) C(5) 2.62(1) . . yes
C(2) C(8) 2.47(1) . 17_556 yes
C(2) C(9) 2.92(1) . 17_556 yes
C(3) C(4) 1.36(1) . . yes
C(3) C(5) 2.38(1) . . yes
C(3) C(7) 2.50(1) . 17_556 yes
C(3) C(8) 1.470(10) . 17_556 yes
C(3) C(9) 2.47(1) . 17_556 yes
C(4) C(5) 1.36(1) . . yes
C(4) C(8) 2.51(1) . 17_556 yes
C(6) C(7) 1.36(1) . . yes
C(6) C(8) 2.37(1) . . yes
C(6) C(9) 2.66(2) . . yes
C(6) C(10) 2.23(1) . . yes
C(7) C(8) 1.37(1) . . yes
C(7) C(9) 2.33(1) . . yes
C(7) C(10) 2.66(1) . . yes
C(8) C(9) 1.372(10) . . yes
C(8) C(10) 2.380(9) . . yes
C(9) C(10) 1.38(1) . . yes
C(11) C(12) 1.467(7) . . yes
C(11) C(13) 2.525(8) . . yes
C(11) C(17) 2.455(8) . . yes
C(12) C(13) 1.408(10) . . yes
C(12) C(14) 2.40(1) . . yes
C(12) C(15) 2.79(1) . . yes
C(12) C(16) 2.447(10) . . yes
C(12) C(17) 1.411(10) . . yes
C(13) C(14) 1.418(9) . . yes
C(13) C(15) 2.44(1) . . yes
C(13) C(16) 2.84(1) . . yes
C(13) C(17) 2.44(1) . . yes
C(14) C(15) 1.36(1) . . yes
C(14) C(16) 2.38(1) . . yes
C(14) C(17) 2.74(1) . . yes
C(15) C(16) 1.38(2) . . yes
C(15) C(17) 2.39(1) . . yes
C(16) C(17) 1.40(1) . . yes
#------------------------------------------------------------------------------
loop_
_geom_angle_atom_site_label_1
_geom_angle_atom_site_label_2
_geom_angle_atom_site_label_3
_geom_angle
_geom_angle_site_symmetry_1
_geom_angle_site_symmetry_2
_geom_angle_site_symmetry_3
_geom_angle_publ_flag
O(1) Cu(1) O(2) 173.6(2) . 1_555 1_555 yes
O(1) Cu(1) O(2) 51.8(1) . 1_555 14_544 yes
O(1) Cu(1) O(3) 88.7(2) . 1_555 1_555 yes
O(1) Cu(1) N(1) 89.6(2) . 1_555 1_555 yes
O(1) Cu(1) N(2) 93.1(2) . 1_555 1_555 yes
O(1) Cu(1) C(1) 110.0(2) . 1_555 1_555 yes
O(1) Cu(1) C(5) 70.1(2) . 1_555 1_555 yes
O(1) Cu(1) C(11) 25.3(2) . 1_555 1_555 yes
O(1) Cu(1) C(11) 159.9(2) . 1_555 9_555 yes
O(1) Cu(1) C(13) 109.1(2) . 1_555 9_555 yes
O(2) Cu(1) O(2) 121.8(2) . 1_555 14_544 yes
O(2) Cu(1) O(3) 91.3(2) . 1_555 1_555 yes
O(2) Cu(1) N(1) 89.1(2) . 1_555 1_555 yes
O(2) Cu(1) N(2) 93.2(2) . 1_555 1_555 yes
O(2) Cu(1) C(1) 67.9(2) . 1_555 1_555 yes
O(2) Cu(1) C(5) 109.5(2) . 1_555 1_555 yes
O(2) Cu(1) C(11) 148.3(2) . 1_555 1_555 yes
O(2) Cu(1) C(11) 19.0(2) . 1_555 9_555 yes
O(2) Cu(1) C(13) 70.6(2) . 1_555 9_555 yes
O(2) Cu(1) O(3) 86.6(2) . 14_544 1_555 yes
O(2) Cu(1) N(1) 83.6(2) . 14_544 1_555 yes
O(2) Cu(1) N(2) 144.6(1) . 14_544 1_555 yes
O(2) Cu(1) C(1) 90.4(2) . 14_544 1_555 yes
O(2) Cu(1) C(5) 78.5(2) . 14_544 1_555 yes
O(2) Cu(1) C(11) 26.6(2) . 14_544 1_555 yes
O(2) Cu(1) C(11) 118.6(2) . 14_544 9_555 yes
O(2) Cu(1) C(13) 95.2(2) . 14_544 9_555 yes
O(3) Cu(1) N(1) 168.7(2) . 1_555 1_555 yes
O(3) Cu(1) N(2) 98.8(2) . 1_555 1_555 yes
O(3) Cu(1) C(1) 153.3(2) . 1_555 1_555 yes
O(3) Cu(1) C(5) 158.6(2) . 1_555 1_555 yes
O(3) Cu(1) C(11) 87.5(2) . 1_555 1_555 yes
O(3) Cu(1) C(11) 72.3(1) . 1_555 9_555 yes
O(3) Cu(1) C(13) 21.0(2) . 1_555 9_555 yes
N(1) Cu(1) N(2) 92.5(2) . 1_555 1_555 yes
N(1) Cu(1) C(1) 22.0(2) . 1_555 1_555 yes
N(1) Cu(1) C(5) 21.3(2) . 1_555 1_555 yes
N(1) Cu(1) C(11) 86.2(2) . 1_555 1_555 yes
N(1) Cu(1) C(11) 107.7(1) . 1_555 9_555 yes
N(1) Cu(1) C(13) 155.4(2) . 1_555 9_555 yes
N(2) Cu(1) C(1) 98.9(3) . 1_555 1_555 yes
N(2) Cu(1) C(5) 85.2(2) . 1_555 1_555 yes
N(2) Cu(1) C(11) 118.3(2) . 1_555 1_555 yes
N(2) Cu(1) C(11) 96.2(2) . 1_555 9_555 yes
N(2) Cu(1) C(13) 102.1(2) . 1_555 9_555 yes
C(1) Cu(1) C(5) 43.3(2) . 1_555 1_555 yes
C(1) Cu(1) C(11) 101.3(2) . 1_555 1_555 yes
C(1) Cu(1) C(11) 86.1(2) . 1_555 9_555 yes
C(1) Cu(1) C(13) 134.1(2) . 1_555 9_555 yes
C(5) Cu(1) C(11) 72.3(2) . 1_555 1_555 yes
C(5) Cu(1) C(11) 128.4(2) . 1_555 9_555 yes
C(5) Cu(1) C(13) 172.7(2) . 1_555 9_555 yes
C(11) Cu(1) C(11) 142.6(2) . 1_555 9_555 yes
C(11) Cu(1) C(13) 103.7(2) . 1_555 9_555 yes
C(11) Cu(1) C(13) 51.5(2) . 9_555 9_555 yes
Cu(1) O(1) O(2) 83.0(2) . 1_555 14_544 yes
Cu(1) O(1) O(3) 44.5(1) . 1_555 1_555 yes
Cu(1) O(1) N(1) 46.3(1) . 1_555 1_555 yes
Cu(1) O(1) C(5) 71.1(2) . 1_555 1_555 yes
Cu(1) O(1) C(11) 113.0(3) . 1_555 1_555 yes
Cu(1) O(1) C(12) 146.0(2) . 1_555 1_555 yes
Cu(1) O(1) C(17) 176.1(2) . 1_555 1_555 yes
O(2) O(1) O(3) 82.7(2) . 14_544 1_555 yes
O(2) O(1) N(1) 79.5(2) . 14_544 1_555 yes
O(2) O(1) C(5) 88.6(3) . 14_544 1_555 yes
O(2) O(1) C(11) 30.0(3) . 14_544 1_555 yes
O(2) O(1) C(12) 63.0(2) . 14_544 1_555 yes
O(2) O(1) C(17) 94.0(2) . 14_544 1_555 yes
O(3) O(1) N(1) 90.2(2) . 1_555 1_555 yes
O(3) O(1) C(5) 115.6(2) . 1_555 1_555 yes
O(3) O(1) C(11) 104.1(3) . 1_555 1_555 yes
O(3) O(1) C(12) 125.0(2) . 1_555 1_555 yes
O(3) O(1) C(17) 132.7(3) . 1_555 1_555 yes
N(1) O(1) C(5) 25.9(2) . 1_555 1_555 yes
N(1) O(1) C(11) 100.1(4) . 1_555 1_555 yes
N(1) O(1) C(12) 120.9(3) . 1_555 1_555 yes
N(1) O(1) C(17) 135.8(3) . 1_555 1_555 yes
C(5) O(1) C(11) 97.8(4) . 1_555 1_555 yes
C(5) O(1) C(12) 105.7(3) . 1_555 1_555 yes
C(5) O(1) C(17) 111.5(3) . 1_555 1_555 yes
C(11) O(1) C(12) 33.1(3) . 1_555 1_555 yes
C(11) O(1) C(17) 64.1(3) . 1_555 1_555 yes
C(12) O(1) C(17) 31.1(2) . 1_555 1_555 yes
Cu(1) O(2) Cu(1) 153.5(2) . 1_555 9_555 yes
Cu(1) O(2) O(1) 161.0(3) . 1_555 9_555 yes
Cu(1) O(2) O(3) 43.9(1) . 1_555 1_555 yes
Cu(1) O(2) N(1) 47.2(1) . 1_555 1_555 yes
Cu(1) O(2) C(1) 73.3(2) . 1_555 1_555 yes
Cu(1) O(2) C(11) 131.1(4) . 1_555 9_555 yes
Cu(1) O(2) C(12) 99.3(2) . 1_555 9_555 yes
Cu(1) O(2) C(13) 70.3(2) . 1_555 9_555 yes
Cu(1) O(2) O(1) 45.1(1) . 9_555 9_555 yes
Cu(1) O(2) O(3) 161.8(2) . 9_555 1_555 yes
Cu(1) O(2) N(1) 107.6(2) . 9_555 1_555 yes
Cu(1) O(2) C(1) 82.9(2) . 9_555 1_555 yes
Cu(1) O(2) C(11) 75.2(3) . 9_555 9_555 yes
Cu(1) O(2) C(12) 107.0(2) . 9_555 9_555 yes
Cu(1) O(2) C(13) 135.9(2) . 9_555 9_555 yes
O(1) O(2) O(3) 117.2(2) . 9_555 1_555 yes
O(1) O(2) N(1) 151.6(2) . 9_555 1_555 yes
O(1) O(2) C(1) 125.2(3) . 9_555 1_555 yes
O(1) O(2) C(11) 30.0(3) . 9_555 9_555 yes
O(1) O(2) C(12) 61.8(2) . 9_555 9_555 yes
O(1) O(2) C(13) 90.8(2) . 9_555 9_555 yes
O(3) O(2) N(1) 90.5(2) . 1_555 1_555 yes
O(3) O(2) C(1) 115.3(2) . 1_555 1_555 yes
O(3) O(2) C(11) 87.2(3) . 1_555 9_555 yes
O(3) O(2) C(12) 55.5(2) . 1_555 9_555 yes
O(3) O(2) C(13) 26.6(2) . 1_555 9_555 yes
N(1) O(2) C(1) 26.6(2) . 1_555 1_555 yes
N(1) O(2) C(11) 170.8(4) . 1_555 9_555 yes
N(1) O(2) C(12) 144.3(2) . 1_555 9_555 yes
N(1) O(2) C(13) 116.2(2) . 1_555 9_555 yes
C(1) O(2) C(11) 151.1(5) . 1_555 9_555 yes
C(1) O(2) C(12) 159.1(3) . 1_555 9_555 yes
C(1) O(2) C(13) 138.7(3) . 1_555 9_555 yes
C(11) O(2) C(12) 31.8(3) . 9_555 9_555 yes
C(11) O(2) C(13) 60.8(3) . 9_555 9_555 yes
C(12) O(2) C(13) 29.0(2) . 9_555 9_555 yes
Cu(1) O(3) O(1) 46.8(1) . 1_555 1_555 yes
Cu(1) O(3) O(2) 44.8(1) . 1_555 1_555 yes
Cu(1) O(3) C(11) 70.0(2) . 1_555 9_555 yes
Cu(1) O(3) C(12) 99.4(2) . 1_555 9_555 yes
Cu(1) O(3) C(13) 127.5(4) . 1_555 9_555 yes
Cu(1) O(3) C(14) 158.8(3) . 1_555 9_555 yes
O(1) O(3) O(2) 91.4(2) . 1_555 1_555 yes
O(1) O(3) C(11) 116.5(2) . 1_555 9_555 yes
O(1) O(3) C(12) 145.2(3) . 1_555 9_555 yes
O(1) O(3) C(13) 168.1(5) . 1_555 9_555 yes
O(1) O(3) C(14) 150.3(3) . 1_555 9_555 yes
O(2) O(3) C(11) 25.2(1) . 1_555 9_555 yes
O(2) O(3) C(12) 54.6(2) . 1_555 9_555 yes
O(2) O(3) C(13) 83.0(3) . 1_555 9_555 yes
O(2) O(3) C(14) 115.2(3) . 1_555 9_555 yes
C(11) O(3) C(12) 29.5(2) . 9_555 9_555 yes
C(11) O(3) C(13) 57.9(3) . 9_555 9_555 yes
C(11) O(3) C(14) 90.2(3) . 9_555 9_555 yes
C(12) O(3) C(13) 28.5(3) . 9_555 9_555 yes
C(12) O(3) C(14) 60.8(3) . 9_555 9_555 yes
C(13) O(3) C(14) 32.4(4) . 9_555 9_555 yes
Cu(1) N(1) O(1) 44.1(1) . 1_555 1_555 yes
Cu(1) N(1) O(2) 43.7(1) . 1_555 1_555 yes
Cu(1) N(1) C(1) 121.9(4) . 1_555 1_555 yes
Cu(1) N(1) C(2) 150.3(3) . 1_555 1_555 yes
Cu(1) N(1) C(3) 176.6(3) . 1_555 1_555 yes
Cu(1) N(1) C(4) 152.1(3) . 1_555 1_555 yes
Cu(1) N(1) C(5) 123.7(6) . 1_555 1_555 yes
O(1) N(1) O(2) 87.6(2) . 1_555 1_555 yes
O(1) N(1) C(1) 158.6(4) . 1_555 1_555 yes
O(1) N(1) C(2) 162.3(3) . 1_555 1_555 yes
O(1) N(1) C(3) 137.9(2) . 1_555 1_555 yes
O(1) N(1) C(4) 110.1(3) . 1_555 1_555 yes
O(1) N(1) C(5) 82.3(5) . 1_555 1_555 yes
O(2) N(1) C(1) 79.3(4) . 1_555 1_555 yes
O(2) N(1) C(2) 107.0(3) . 1_555 1_555 yes
O(2) N(1) C(3) 134.5(2) . 1_555 1_555 yes
O(2) N(1) C(4) 160.3(3) . 1_555 1_555 yes
O(2) N(1) C(5) 162.1(6) . 1_555 1_555 yes
C(1) N(1) C(2) 28.5(4) . 1_555 1_555 yes
C(1) N(1) C(3) 57.3(4) . 1_555 1_555 yes
C(1) N(1) C(4) 85.9(5) . 1_555 1_555 yes
C(1) N(1) C(5) 114.4(7) . 1_555 1_555 yes
C(2) N(1) C(3) 28.8(2) . 1_555 1_555 yes
C(2) N(1) C(4) 57.4(3) . 1_555 1_555 yes
C(2) N(1) C(5) 85.9(6) . 1_555 1_555 yes
C(3) N(1) C(4) 28.7(3) . 1_555 1_555 yes
C(3) N(1) C(5) 57.2(5) . 1_555 1_555 yes
C(4) N(1) C(5) 28.5(5) . 1_555 1_555 yes
Cu(1) N(2) C(6) 130.3(7) . 1_555 1_555 yes
Cu(1) N(2) C(7) 158.0(4) . 1_555 1_555 yes
Cu(1) N(2) C(8) 172.9(3) . 1_555 1_555 yes
Cu(1) N(2) C(9) 143.8(3) . 1_555 1_555 yes
Cu(1) N(2) C(10) 115.5(4) . 1_555 1_555 yes
C(6) N(2) C(7) 27.8(6) . 1_555 1_555 yes
C(6) N(2) C(8) 56.8(5) . 1_555 1_555 yes
C(6) N(2) C(9) 85.9(6) . 1_555 1_555 yes
C(6) N(2) C(10) 114.2(7) . 1_555 1_555 yes
C(7) N(2) C(8) 29.0(3) . 1_555 1_555 yes
C(7) N(2) C(9) 58.1(3) . 1_555 1_555 yes
C(7) N(2) C(10) 86.4(5) . 1_555 1_555 yes
C(8) N(2) C(9) 29.1(2) . 1_555 1_555 yes
C(8) N(2) C(10) 57.4(4) . 1_555 1_555 yes
C(9) N(2) C(10) 28.3(4) . 1_555 1_555 yes
Cu(1) C(1) O(2) 38.8(2) . 1_555 1_555 yes
Cu(1) C(1) N(1) 36.2(4) . 1_555 1_555 yes
Cu(1) C(1) C(2) 160.5(6) . 1_555 1_555 yes
Cu(1) C(1) C(3) 131.4(4) . 1_555 1_555 yes
Cu(1) C(1) C(4) 100.4(4) . 1_555 1_555 yes
Cu(1) C(1) C(5) 69.0(4) . 1_555 1_555 yes
O(2) C(1) N(1) 74.1(5) . 1_555 1_555 yes
O(2) C(1) C(2) 157.6(7) . 1_555 1_555 yes
O(2) C(1) C(3) 162.6(5) . 1_555 1_555 yes
O(2) C(1) C(4) 136.5(5) . 1_555 1_555 yes
O(2) C(1) C(5) 106.3(5) . 1_555 1_555 yes
N(1) C(1) C(2) 124.5(7) . 1_555 1_555 yes
N(1) C(1) C(3) 95.4(4) . 1_555 1_555 yes
N(1) C(1) C(4) 64.3(4) . 1_555 1_555 yes
N(1) C(1) C(5) 32.8(4) . 1_555 1_555 yes
C(2) C(1) C(3) 29.2(4) . 1_555 1_555 yes
C(2) C(1) C(4) 60.3(5) . 1_555 1_555 yes
C(2) C(1) C(5) 91.7(6) . 1_555 1_555 yes
C(3) C(1) C(4) 31.1(3) . 1_555 1_555 yes
C(3) C(1) C(5) 62.6(3) . 1_555 1_555 yes
C(4) C(1) C(5) 31.5(4) . 1_555 1_555 yes
N(1) C(2) C(1) 27.0(4) . 1_555 1_555 yes
N(1) C(2) C(3) 94.5(6) . 1_555 1_555 yes
N(1) C(2) C(4) 61.2(4) . 1_555 1_555 yes
N(1) C(2) C(5) 29.8(2) . 1_555 1_555 yes
N(1) C(2) C(8) 124.9(4) . 1_555 17_556 yes
N(1) C(2) C(9) 149.1(4) . 1_555 17_556 yes
C(1) C(2) C(3) 121.5(9) . 1_555 1_555 yes
C(1) C(2) C(4) 88.2(7) . 1_555 1_555 yes
C(1) C(2) C(5) 56.8(5) . 1_555 1_555 yes
C(1) C(2) C(8) 151.9(7) . 1_555 17_556 yes
C(1) C(2) C(9) 168.1(9) . 1_555 17_556 yes
C(3) C(2) C(4) 33.4(5) . 1_555 1_555 yes
C(3) C(2) C(5) 64.8(5) . 1_555 1_555 yes
C(3) C(2) C(8) 30.4(4) . 1_555 17_556 yes
C(3) C(2) C(9) 57.3(5) . 1_555 17_556 yes
C(4) C(2) C(5) 31.4(3) . 1_555 1_555 yes
C(4) C(2) C(8) 63.8(3) . 1_555 17_556 yes
C(4) C(2) C(9) 90.2(4) . 1_555 17_556 yes
C(5) C(2) C(8) 95.2(3) . 1_555 17_556 yes
C(5) C(2) C(9) 120.9(4) . 1_555 17_556 yes
C(8) C(2) C(9) 27.9(3) . 17_556 17_556 yes
N(1) C(3) C(1) 27.4(3) . 1_555 1_555 yes
N(1) C(3) C(2) 56.7(6) . 1_555 1_555 yes
N(1) C(3) C(4) 56.5(4) . 1_555 1_555 yes
N(1) C(3) C(5) 27.4(2) . 1_555 1_555 yes
N(1) C(3) C(7) 155.2(3) . 1_555 17_556 yes
N(1) C(3) C(8) 177.1(4) . 1_555 17_556 yes
N(1) C(3) C(9) 148.9(4) . 1_555 17_556 yes
C(1) C(3) C(2) 29.3(6) . 1_555 1_555 yes
C(1) C(3) C(4) 83.9(5) . 1_555 1_555 yes
C(1) C(3) C(5) 54.8(3) . 1_555 1_555 yes
C(1) C(3) C(7) 170.4(5) . 1_555 17_556 yes
C(1) C(3) C(8) 150.9(5) . 1_555 17_556 yes
C(1) C(3) C(9) 123.3(4) . 1_555 17_556 yes
C(2) C(3) C(4) 113.1(8) . 1_555 1_555 yes
C(2) C(3) C(5) 84.1(6) . 1_555 1_555 yes
C(2) C(3) C(7) 145.6(7) . 1_555 17_556 yes
C(2) C(3) C(8) 121.6(7) . 1_555 17_556 yes
C(2) C(3) C(9) 95.0(6) . 1_555 17_556 yes
C(4) C(3) C(5) 29.1(4) . 1_555 1_555 yes
C(4) C(3) C(7) 99.7(5) . 1_555 17_556 yes
C(4) C(3) C(8) 125.2(5) . 1_555 17_556 yes
C(4) C(3) C(9) 149.8(5) . 1_555 17_556 yes
C(5) C(3) C(7) 128.5(3) . 1_555 17_556 yes
C(5) C(3) C(8) 154.3(4) . 1_555 17_556 yes
C(5) C(3) C(9) 167.4(4) . 1_555 17_556 yes
C(7) C(3) C(8) 27.3(3) . 17_556 17_556 yes
C(7) C(3) C(9) 55.8(4) . 17_556 17_556 yes
C(8) C(3) C(9) 28.5(4) . 17_556 17_556 yes
N(1) C(4) C(1) 29.8(3) . 1_555 1_555 yes
N(1) C(4) C(2) 61.3(3) . 1_555 1_555 yes
N(1) C(4) C(3) 94.8(4) . 1_555 1_555 yes
N(1) C(4) C(5) 27.1(4) . 1_555 1_555 yes
N(1) C(4) C(8) 123.3(4) . 1_555 17_556 yes
C(1) C(4) C(2) 31.6(4) . 1_555 1_555 yes
C(1) C(4) C(3) 65.0(4) . 1_555 1_555 yes
C(1) C(4) C(5) 56.9(5) . 1_555 1_555 yes
C(1) C(4) C(8) 93.6(4) . 1_555 17_556 yes
C(2) C(4) C(3) 33.5(4) . 1_555 1_555 yes
C(2) C(4) C(5) 88.5(5) . 1_555 1_555 yes
C(2) C(4) C(8) 62.0(4) . 1_555 17_556 yes
C(3) C(4) C(5) 121.9(6) . 1_555 1_555 yes
C(3) C(4) C(8) 28.6(4) . 1_555 17_556 yes
C(5) C(4) C(8) 150.4(6) . 1_555 17_556 yes
Cu(1) C(5) O(1) 38.8(1) . 1_555 1_555 yes
Cu(1) C(5) N(1) 35.0(4) . 1_555 1_555 yes
Cu(1) C(5) C(1) 67.7(3) . 1_555 1_555 yes
Cu(1) C(5) C(2) 99.2(3) . 1_555 1_555 yes
Cu(1) C(5) C(3) 130.3(3) . 1_555 1_555 yes
Cu(1) C(5) C(4) 159.2(6) . 1_555 1_555 yes
O(1) C(5) N(1) 71.8(5) . 1_555 1_555 yes
O(1) C(5) C(1) 103.7(4) . 1_555 1_555 yes
O(1) C(5) C(2) 134.3(3) . 1_555 1_555 yes
O(1) C(5) C(3) 162.7(4) . 1_555 1_555 yes
O(1) C(5) C(4) 160.4(6) . 1_555 1_555 yes
N(1) C(5) C(1) 32.8(4) . 1_555 1_555 yes
N(1) C(5) C(2) 64.3(5) . 1_555 1_555 yes
N(1) C(5) C(3) 95.4(6) . 1_555 1_555 yes
N(1) C(5) C(4) 124.4(8) . 1_555 1_555 yes
C(1) C(5) C(2) 31.5(4) . 1_555 1_555 yes
C(1) C(5) C(3) 62.7(4) . 1_555 1_555 yes
C(1) C(5) C(4) 91.6(6) . 1_555 1_555 yes
C(2) C(5) C(3) 31.2(3) . 1_555 1_555 yes
C(2) C(5) C(4) 60.1(5) . 1_555 1_555 yes
C(3) C(5) C(4) 29.0(4) . 1_555 1_555 yes
N(2) C(6) C(7) 125.3(10) . 1_555 1_555 yes
N(2) C(6) C(8) 95.2(7) . 1_555 1_555 yes
N(2) C(6) C(9) 64.2(5) . 1_555 1_555 yes
N(2) C(6) C(10) 33.0(5) . 1_555 1_555 yes
C(7) C(6) C(8) 30.1(5) . 1_555 1_555 yes
C(7) C(6) C(9) 61.1(6) . 1_555 1_555 yes
C(7) C(6) C(10) 92.3(7) . 1_555 1_555 yes
C(8) C(6) C(9) 31.0(3) . 1_555 1_555 yes
C(8) C(6) C(10) 62.2(4) . 1_555 1_555 yes
C(9) C(6) C(10) 31.2(3) . 1_555 1_555 yes
N(2) C(7) C(3) 122.6(4) . 1_555 18_546 yes
N(2) C(7) C(6) 26.9(5) . 1_555 1_555 yes
N(2) C(7) C(8) 93.1(5) . 1_555 1_555 yes
N(2) C(7) C(9) 61.1(3) . 1_555 1_555 yes
N(2) C(7) C(10) 30.0(3) . 1_555 1_555 yes
C(3) C(7) C(6) 149.5(7) . 18_546 1_555 yes
C(3) C(7) C(8) 29.5(3) . 18_546 1_555 yes
C(3) C(7) C(9) 61.5(4) . 18_546 1_555 yes
C(3) C(7) C(10) 92.6(4) . 18_546 1_555 yes
C(6) C(7) C(8) 120.0(7) . 1_555 1_555 yes
C(6) C(7) C(9) 88.0(6) . 1_555 1_555 yes
C(6) C(7) C(10) 56.9(5) . 1_555 1_555 yes
C(8) C(7) C(9) 32.0(4) . 1_555 1_555 yes
C(8) C(7) C(10) 63.1(4) . 1_555 1_555 yes
C(9) C(7) C(10) 31.1(3) . 1_555 1_555 yes
N(2) C(8) C(2) 151.2(4) . 1_555 18_546 yes
N(2) C(8) C(3) 178.7(4) . 1_555 18_546 yes
N(2) C(8) C(4) 154.5(4) . 1_555 18_546 yes
N(2) C(8) C(6) 28.0(2) . 1_555 1_555 yes
N(2) C(8) C(7) 57.9(4) . 1_555 1_555 yes
N(2) C(8) C(9) 58.2(5) . 1_555 1_555 yes
N(2) C(8) C(10) 28.2(3) . 1_555 1_555 yes
C(2) C(8) C(3) 28.0(4) . 18_546 18_546 yes
C(2) C(8) C(4) 54.2(3) . 18_546 18_546 yes
C(2) C(8) C(6) 170.0(4) . 18_546 1_555 yes
C(2) C(8) C(7) 147.7(5) . 18_546 1_555 yes
C(2) C(8) C(9) 94.6(7) . 18_546 1_555 yes
C(2) C(8) C(10) 124.1(5) . 18_546 1_555 yes
C(3) C(8) C(4) 26.2(3) . 18_546 18_546 yes
C(3) C(8) C(6) 153.1(5) . 18_546 1_555 yes
C(3) C(8) C(7) 123.2(5) . 18_546 1_555 yes
C(3) C(8) C(9) 120.7(8) . 18_546 1_555 yes
C(3) C(8) C(10) 150.7(6) . 18_546 1_555 yes
C(4) C(8) C(6) 128.0(4) . 18_546 1_555 yes
C(4) C(8) C(7) 98.7(4) . 18_546 1_555 yes
C(4) C(8) C(9) 143.6(7) . 18_546 1_555 yes
C(4) C(8) C(10) 168.5(4) . 18_546 1_555 yes
C(6) C(8) C(7) 30.0(4) . 1_555 1_555 yes
C(6) C(8) C(9) 86.2(6) . 1_555 1_555 yes
C(6) C(8) C(10) 56.1(4) . 1_555 1_555 yes
C(7) C(8) C(9) 116.1(7) . 1_555 1_555 yes
C(7) C(8) C(10) 86.1(5) . 1_555 1_555 yes
C(9) C(8) C(10) 30.1(6) . 1_555 1_555 yes
N(2) C(9) C(2) 148.7(4) . 1_555 18_546 yes
N(2) C(9) C(3) 123.5(5) . 1_555 18_546 yes
N(2) C(9) C(6) 29.9(2) . 1_555 1_555 yes
N(2) C(9) C(7) 60.8(4) . 1_555 1_555 yes
N(2) C(9) C(8) 92.7(7) . 1_555 1_555 yes
N(2) C(9) C(10) 27.3(5) . 1_555 1_555 yes
C(2) C(9) C(3) 27.7(2) . 18_546 18_546 yes
C(2) C(9) C(6) 119.5(4) . 18_546 1_555 yes
C(2) C(9) C(7) 89.0(4) . 18_546 1_555 yes
C(2) C(9) C(8) 57.5(5) . 18_546 1_555 yes
C(2) C(9) C(10) 170.6(6) . 18_546 1_555 yes
C(3) C(9) C(6) 93.6(4) . 18_546 1_555 yes
C(3) C(9) C(7) 62.7(3) . 18_546 1_555 yes
C(3) C(9) C(8) 30.8(4) . 18_546 1_555 yes
C(3) C(9) C(10) 150.8(8) . 18_546 1_555 yes
C(6) C(9) C(7) 30.9(3) . 1_555 1_555 yes
C(6) C(9) C(8) 62.8(6) . 1_555 1_555 yes
C(6) C(9) C(10) 57.2(6) . 1_555 1_555 yes
C(7) C(9) C(8) 31.9(5) . 1_555 1_555 yes
C(7) C(9) C(10) 88.1(7) . 1_555 1_555 yes
C(8) C(9) C(10) 120.0(10) . 1_555 1_555 yes
N(2) C(10) C(6) 32.8(4) . 1_555 1_555 yes
N(2) C(10) C(7) 63.6(4) . 1_555 1_555 yes
N(2) C(10) C(8) 94.4(5) . 1_555 1_555 yes
N(2) C(10) C(9) 124.4(8) . 1_555 1_555 yes
C(6) C(10) C(7) 30.8(3) . 1_555 1_555 yes
C(6) C(10) C(8) 61.6(4) . 1_555 1_555 yes
C(6) C(10) C(9) 91.6(6) . 1_555 1_555 yes
C(7) C(10) C(8) 30.8(3) . 1_555 1_555 yes
C(7) C(10) C(9) 60.8(6) . 1_555 1_555 yes
C(8) C(10) C(9) 29.9(5) . 1_555 1_555 yes
Cu(1) C(11) Cu(1) 108.1(2) . 1_555 14_544 yes
Cu(1) C(11) O(1) 41.7(2) . 1_555 1_555 yes
Cu(1) C(11) O(2) 78.2(3) . 1_555 14_544 yes
Cu(1) C(11) O(3) 145.5(2) . 1_555 14_544 yes
Cu(1) C(11) C(12) 160.6(4) . 1_555 1_555 yes
Cu(1) C(11) C(13) 171.3(3) . 1_555 1_555 yes
Cu(1) C(11) C(17) 129.9(3) . 1_555 1_555 yes
Cu(1) C(11) O(1) 149.8(3) . 14_544 1_555 yes
Cu(1) C(11) O(2) 29.9(3) . 14_544 14_544 yes
Cu(1) C(11) O(3) 37.7(1) . 14_544 14_544 yes
Cu(1) C(11) C(12) 91.3(4) . 14_544 1_555 yes
Cu(1) C(11) C(13) 63.4(2) . 14_544 1_555 yes
Cu(1) C(11) C(17) 122.0(3) . 14_544 1_555 yes
O(1) C(11) O(2) 120.0(4) . 1_555 14_544 yes
O(1) C(11) O(3) 171.6(3) . 1_555 14_544 yes
O(1) C(11) C(12) 118.8(5) . 1_555 1_555 yes
O(1) C(11) C(13) 146.7(4) . 1_555 1_555 yes
O(1) C(11) C(17) 88.2(4) . 1_555 1_555 yes
O(2) C(11) O(3) 67.6(3) . 14_544 14_544 yes
O(2) C(11) C(12) 121.2(5) . 14_544 1_555 yes
O(2) C(11) C(13) 93.3(4) . 14_544 1_555 yes
O(2) C(11) C(17) 151.6(5) . 14_544 1_555 yes
O(3) C(11) C(12) 53.8(3) . 14_544 1_555 yes
O(3) C(11) C(13) 25.9(2) . 14_544 1_555 yes
O(3) C(11) C(17) 84.6(3) . 14_544 1_555 yes
C(12) C(11) C(13) 27.9(3) . 1_555 1_555 yes
C(12) C(11) C(17) 30.8(4) . 1_555 1_555 yes
C(13) C(11) C(17) 58.7(3) . 1_555 1_555 yes
O(1) C(12) O(2) 55.1(2) . 1_555 14_544 yes
O(1) C(12) O(3) 124.8(3) . 1_555 14_544 yes
O(1) C(12) C(11) 28.1(3) . 1_555 1_555 yes
O(1) C(12) C(13) 150.9(4) . 1_555 1_555 yes
O(1) C(12) C(14) 177.1(4) . 1_555 1_555 yes
O(1) C(12) C(15) 148.0(4) . 1_555 1_555 yes
O(1) C(12) C(16) 118.3(4) . 1_555 1_555 yes
O(1) C(12) C(17) 89.1(4) . 1_555 1_555 yes
O(2) C(12) O(3) 69.9(2) . 14_544 14_544 yes
O(2) C(12) C(11) 27.0(3) . 14_544 1_555 yes
O(2) C(12) C(13) 95.9(4) . 14_544 1_555 yes
O(2) C(12) C(14) 127.7(3) . 14_544 1_555 yes
O(2) C(12) C(15) 156.4(3) . 14_544 1_555 yes
O(2) C(12) C(16) 171.5(5) . 14_544 1_555 yes
O(2) C(12) C(17) 143.8(5) . 14_544 1_555 yes
O(3) C(12) C(11) 96.8(4) . 14_544 1_555 yes
O(3) C(12) C(13) 26.1(3) . 14_544 1_555 yes
O(3) C(12) C(14) 58.1(3) . 14_544 1_555 yes
O(3) C(12) C(15) 87.3(3) . 14_544 1_555 yes
O(3) C(12) C(16) 117.0(4) . 14_544 1_555 yes
O(3) C(12) C(17) 146.2(5) . 14_544 1_555 yes
C(11) C(12) C(13) 122.9(5) . 1_555 1_555 yes
C(11) C(12) C(14) 154.7(5) . 1_555 1_555 yes
C(11) C(12) C(15) 174.7(6) . 1_555 1_555 yes
C(11) C(12) C(16) 146.1(6) . 1_555 1_555 yes
C(11) C(12) C(17) 117.0(6) . 1_555 1_555 yes
C(13) C(12) C(14) 31.9(3) . 1_555 1_555 yes
C(13) C(12) C(15) 61.1(4) . 1_555 1_555 yes
C(13) C(12) C(16) 90.8(4) . 1_555 1_555 yes
C(13) C(12) C(17) 120.0(5) . 1_555 1_555 yes
C(14) C(12) C(15) 29.2(3) . 1_555 1_555 yes
C(14) C(12) C(16) 58.9(3) . 1_555 1_555 yes
C(14) C(12) C(17) 88.1(4) . 1_555 1_555 yes
C(15) C(12) C(16) 29.7(3) . 1_555 1_555 yes
C(15) C(12) C(17) 58.9(4) . 1_555 1_555 yes
C(16) C(12) C(17) 29.2(4) . 1_555 1_555 yes
Cu(1) C(13) O(2) 39.12(9) . 14_544 14_544 yes
Cu(1) C(13) O(3) 31.5(3) . 14_544 14_544 yes
Cu(1) C(13) C(11) 65.0(2) . 14_544 1_555 yes
Cu(1) C(13) C(12) 94.2(3) . 14_544 1_555 yes
Cu(1) C(13) C(14) 148.9(5) . 14_544 1_555 yes
Cu(1) C(13) C(15) 173.6(3) . 14_544 1_555 yes
Cu(1) C(13) C(16) 153.2(3) . 14_544 1_555 yes
Cu(1) C(13) C(17) 124.1(3) . 14_544 1_555 yes
O(2) C(13) O(3) 70.4(3) . 14_544 14_544 yes
O(2) C(13) C(11) 25.9(2) . 14_544 1_555 yes
O(2) C(13) C(12) 55.1(3) . 14_544 1_555 yes
O(2) C(13) C(14) 170.2(7) . 14_544 1_555 yes
O(2) C(13) C(15) 143.3(4) . 14_544 1_555 yes
O(2) C(13) C(16) 114.4(3) . 14_544 1_555 yes
O(2) C(13) C(17) 85.1(3) . 14_544 1_555 yes
O(3) C(13) C(11) 96.2(4) . 14_544 1_555 yes
O(3) C(13) C(12) 125.4(5) . 14_544 1_555 yes
O(3) C(13) C(14) 118.2(6) . 14_544 1_555 yes
O(3) C(13) C(15) 146.0(5) . 14_544 1_555 yes
O(3) C(13) C(16) 175.1(5) . 14_544 1_555 yes
O(3) C(13) C(17) 155.4(4) . 14_544 1_555 yes
C(11) C(13) C(12) 29.2(3) . 1_555 1_555 yes
C(11) C(13) C(14) 145.5(6) . 1_555 1_555 yes
C(11) C(13) C(15) 117.7(4) . 1_555 1_555 yes
C(11) C(13) C(16) 88.6(3) . 1_555 1_555 yes
C(11) C(13) C(17) 59.2(3) . 1_555 1_555 yes
C(12) C(13) C(14) 116.4(6) . 1_555 1_555 yes
C(12) C(13) C(15) 88.6(5) . 1_555 1_555 yes
C(12) C(13) C(16) 59.4(4) . 1_555 1_555 yes
C(12) C(13) C(17) 30.0(3) . 1_555 1_555 yes
C(14) C(13) C(15) 27.8(5) . 1_555 1_555 yes
C(14) C(13) C(16) 56.9(5) . 1_555 1_555 yes
C(14) C(13) C(17) 86.4(5) . 1_555 1_555 yes
C(15) C(13) C(16) 29.1(3) . 1_555 1_555 yes
C(15) C(13) C(17) 58.6(3) . 1_555 1_555 yes
C(16) C(13) C(17) 29.4(3) . 1_555 1_555 yes
O(3) C(14) C(12) 61.1(2) . 14_544 1_555 yes
O(3) C(14) C(13) 29.4(4) . 14_544 1_555 yes
O(3) C(14) C(15) 152.5(7) . 14_544 1_555 yes
O(3) C(14) C(16) 122.6(4) . 14_544 1_555 yes
O(3) C(14) C(17) 92.0(3) . 14_544 1_555 yes
C(12) C(14) C(13) 31.7(4) . 1_555 1_555 yes
C(12) C(14) C(15) 91.4(6) . 1_555 1_555 yes
C(12) C(14) C(16) 61.5(3) . 1_555 1_555 yes
C(12) C(14) C(17) 30.9(2) . 1_555 1_555 yes
C(13) C(14) C(15) 123.1(9) . 1_555 1_555 yes
C(13) C(14) C(16) 93.2(6) . 1_555 1_555 yes
C(13) C(14) C(17) 62.6(5) . 1_555 1_555 yes
C(15) C(14) C(16) 29.9(5) . 1_555 1_555 yes
C(15) C(14) C(17) 60.5(6) . 1_555 1_555 yes
C(16) C(14) C(17) 30.6(3) . 1_555 1_555 yes
C(12) C(15) C(13) 30.3(2) . 1_555 1_555 yes
C(12) C(15) C(14) 59.4(5) . 1_555 1_555 yes
C(12) C(15) C(16) 61.3(5) . 1_555 1_555 yes
C(12) C(15) C(17) 30.4(2) . 1_555 1_555 yes
C(13) C(15) C(14) 29.1(4) . 1_555 1_555 yes
C(13) C(15) C(16) 91.6(6) . 1_555 1_555 yes
C(13) C(15) C(17) 60.7(3) . 1_555 1_555 yes
C(14) C(15) C(16) 120.6(8) . 1_555 1_555 yes
C(14) C(15) C(17) 89.8(6) . 1_555 1_555 yes
C(16) C(15) C(17) 30.9(4) . 1_555 1_555 yes
C(12) C(16) C(13) 29.7(2) . 1_555 1_555 yes
C(12) C(16) C(14) 59.6(3) . 1_555 1_555 yes
C(12) C(16) C(15) 89.0(6) . 1_555 1_555 yes
C(12) C(16) C(17) 29.5(4) . 1_555 1_555 yes
C(13) C(16) C(14) 29.9(2) . 1_555 1_555 yes
C(13) C(16) C(15) 59.3(5) . 1_555 1_555 yes
C(13) C(16) C(17) 59.2(5) . 1_555 1_555 yes
C(14) C(16) C(15) 29.4(5) . 1_555 1_555 yes
C(14) C(16) C(17) 89.1(6) . 1_555 1_555 yes
C(15) C(16) C(17) 118.5(8) . 1_555 1_555 yes
O(1) C(17) C(11) 27.7(2) . 1_555 1_555 yes
O(1) C(17) C(12) 59.8(3) . 1_555 1_555 yes
O(1) C(17) C(13) 89.7(3) . 1_555 1_555 yes
O(1) C(17) C(14) 120.8(3) . 1_555 1_555 yes
O(1) C(17) C(15) 150.5(4) . 1_555 1_555 yes
O(1) C(17) C(16) 178.8(8) . 1_555 1_555 yes
C(11) C(17) C(12) 32.2(3) . 1_555 1_555 yes
C(11) C(17) C(13) 62.1(3) . 1_555 1_555 yes
C(11) C(17) C(14) 93.1(3) . 1_555 1_555 yes
C(11) C(17) C(15) 122.8(4) . 1_555 1_555 yes
C(11) C(17) C(16) 153.4(7) . 1_555 1_555 yes
C(12) C(17) C(13) 30.0(3) . 1_555 1_555 yes
C(12) C(17) C(14) 61.0(4) . 1_555 1_555 yes
C(12) C(17) C(15) 90.7(5) . 1_555 1_555 yes
C(12) C(17) C(16) 121.3(8) . 1_555 1_555 yes
C(13) C(17) C(14) 31.0(2) . 1_555 1_555 yes
C(13) C(17) C(15) 60.8(3) . 1_555 1_555 yes
C(13) C(17) C(16) 91.4(6) . 1_555 1_555 yes
C(14) C(17) C(15) 29.7(3) . 1_555 1_555 yes
C(14) C(17) C(16) 60.3(6) . 1_555 1_555 yes
C(15) C(17) C(16) 30.6(5) . 1_555 1_555 yes
#------------------------------------------------------------------------------
loop_
_geom_torsion_atom_site_label_1
_geom_torsion_atom_site_label_2
_geom_torsion_atom_site_label_3
_geom_torsion_atom_site_label_4
_geom_torsion
_geom_torsion_site_symmetry_1
_geom_torsion_site_symmetry_2
_geom_torsion_site_symmetry_3
_geom_torsion_site_symmetry_4
_geom_torsion_publ_flag
Cu(1) O(1) O(2) C(11) 179.4(7) 1_555 1_555 14_544 1_555 yes
Cu(1) O(1) O(3) O(2) 4.5(1) 1_555 1_555 1_555 1_555 yes
Cu(1) O(1) O(3) C(11) 7.0(2) 1_555 1_555 1_555 9_555 yes
Cu(1) O(1) O(3) C(12) 16.1(4) 1_555 1_555 1_555 9_555 yes
Cu(1) O(1) O(3) C(13) 66(1) 1_555 1_555 1_555 9_555 yes
Cu(1) O(1) O(3) C(14) 159.3(8) 1_555 1_555 1_555 9_555 yes
Cu(1) O(1) N(1) O(2) -4.3(1) 1_555 1_555 1_555 1_555 yes
Cu(1) O(1) N(1) C(1) -56(1) 1_555 1_555 1_555 1_555 yes
Cu(1) O(1) N(1) C(2) -150.5(10) 1_555 1_555 1_555 1_555 yes
Cu(1) O(1) N(1) C(3) 176.0(4) 1_555 1_555 1_555 1_555 yes
Cu(1) O(1) N(1) C(4) 167.0(4) 1_555 1_555 1_555 1_555 yes
Cu(1) O(1) N(1) C(5) 160.8(6) 1_555 1_555 1_555 1_555 yes
Cu(1) O(1) C(5) N(1) -14.6(4) 1_555 1_555 1_555 1_555 yes
Cu(1) O(1) C(5) C(1) -22.3(4) 1_555 1_555 1_555 1_555 yes
Cu(1) O(1) C(5) C(2) -31.3(6) 1_555 1_555 1_555 1_555 yes
Cu(1) O(1) C(5) C(3) -58(1) 1_555 1_555 1_555 1_555 yes
Cu(1) O(1) C(5) C(4) -163(2) 1_555 1_555 1_555 1_555 yes
Cu(1) O(1) C(11) O(2) -0.6(8) 1_555 1_555 1_555 14_544 yes
Cu(1) O(1) C(11) O(3) 151(3) 1_555 1_555 1_555 14_544 yes
Cu(1) O(1) C(11) C(12) 179.6(5) 1_555 1_555 1_555 1_555 yes
Cu(1) O(1) C(11) C(13) 176.7(7) 1_555 1_555 1_555 1_555 yes
Cu(1) O(1) C(11) C(17) -177.1(3) 1_555 1_555 1_555 1_555 yes
Cu(1) O(1) C(12) O(2) -0.8(5) 1_555 1_555 1_555 14_544 yes
Cu(1) O(1) C(12) O(3) 5.2(7) 1_555 1_555 1_555 14_544 yes
Cu(1) O(1) C(12) C(11) -0.7(7) 1_555 1_555 1_555 1_555 yes
Cu(1) O(1) C(12) C(13) 5(1) 1_555 1_555 1_555 1_555 yes
Cu(1) O(1) C(12) C(14) -167(7) 1_555 1_555 1_555 1_555 yes
Cu(1) O(1) C(12) C(15) -173.5(6) 1_555 1_555 1_555 1_555 yes
Cu(1) O(1) C(12) C(16) -174.5(4) 1_555 1_555 1_555 1_555 yes
Cu(1) O(1) C(12) C(17) -174.9(5) 1_555 1_555 1_555 1_555 yes
Cu(1) O(1) C(17) C(11) 42(4) 1_555 1_555 1_555 1_555 yes
Cu(1) O(1) C(17) C(12) 46(5) 1_555 1_555 1_555 1_555 yes
Cu(1) O(1) C(17) C(13) 46(4) 1_555 1_555 1_555 1_555 yes
Cu(1) O(1) C(17) C(14) 45(5) 1_555 1_555 1_555 1_555 yes
Cu(1) O(1) C(17) C(15) 44(5) 1_555 1_555 1_555 1_555 yes
Cu(1) O(1) C(17) C(16) -105(25) 1_555 1_555 1_555 1_555 yes
Cu(1) O(2) Cu(1) O(1) -173.4(6) 1_555 1_555 9_555 9_555 yes
Cu(1) O(2) Cu(1) O(2) 6.1(5) 1_555 1_555 9_555 9_555 yes
Cu(1) O(2) Cu(1) O(3) 95.5(5) 1_555 1_555 9_555 9_555 yes
Cu(1) O(2) Cu(1) N(1) -78.8(5) 1_555 1_555 9_555 9_555 yes
Cu(1) O(2) Cu(1) N(2) -164.1(5) 1_555 1_555 9_555 9_555 yes
Cu(1) O(2) O(1) C(11) -8.5(9) 1_555 1_555 9_555 9_555 yes
Cu(1) O(2) O(3) O(1) -4.7(1) 1_555 1_555 1_555 1_555 yes
Cu(1) O(2) O(3) C(11) -179.4(4) 1_555 1_555 1_555 9_555 yes
Cu(1) O(2) O(3) C(12) -176.6(3) 1_555 1_555 1_555 9_555 yes
Cu(1) O(2) O(3) C(13) -174.1(4) 1_555 1_555 1_555 9_555 yes
Cu(1) O(2) O(3) C(14) -171.2(4) 1_555 1_555 1_555 9_555 yes
Cu(1) O(2) N(1) O(1) 4.4(1) 1_555 1_555 1_555 1_555 yes
Cu(1) O(2) N(1) C(1) 167.3(6) 1_555 1_555 1_555 1_555 yes
Cu(1) O(2) N(1) C(2) 174.2(4) 1_555 1_555 1_555 1_555 yes
Cu(1) O(2) N(1) C(3) -175.9(4) 1_555 1_555 1_555 1_555 yes
Cu(1) O(2) N(1) C(4) -150(1) 1_555 1_555 1_555 1_555 yes
Cu(1) O(2) N(1) C(5) -51(1) 1_555 1_555 1_555 1_555 yes
Cu(1) O(2) C(1) N(1) -9.7(4) 1_555 1_555 1_555 1_555 yes
Cu(1) O(2) C(1) C(2) -158(2) 1_555 1_555 1_555 1_555 yes
Cu(1) O(2) C(1) C(3) -64(1) 1_555 1_555 1_555 1_555 yes
Cu(1) O(2) C(1) C(4) -26.9(6) 1_555 1_555 1_555 1_555 yes
Cu(1) O(2) C(1) C(5) -16.6(4) 1_555 1_555 1_555 1_555 yes
Cu(1) O(2) C(11) O(1) 176.3(4) 1_555 1_555 9_555 9_555 yes
Cu(1) O(2) C(11) C(12) -3.9(9) 1_555 1_555 9_555 9_555 yes
Cu(1) O(2) C(12) C(11) 177.1(7) 1_555 1_555 9_555 9_555 yes
Cu(1) O(2) C(12) C(13) 0.1(4) 1_555 1_555 9_555 9_555 yes
Cu(1) O(2) C(12) C(17) -172.9(8) 1_555 1_555 9_555 9_555 yes
Cu(1) O(2) C(13) O(3) 4.3(3) 1_555 1_555 9_555 1_555 yes
Cu(1) O(2) C(13) C(12) -179.9(5) 1_555 1_555 9_555 9_555 yes
Cu(1) O(2) C(13) C(14) -148(2) 1_555 1_555 9_555 9_555 yes
Cu(1) O(2) Cu(1) O(1) -99(1) 1_555 14_544 14_544 14_544 yes
Cu(1) O(2) Cu(1) O(3) 170.4(5) 1_555 14_544 14_544 14_544 yes
Cu(1) O(2) Cu(1) N(1) -21.0(5) 1_555 14_544 14_544 14_544 yes
Cu(1) O(2) Cu(1) N(2) 71.5(5) 1_555 14_544 14_544 14_544 yes
Cu(1) O(2) C(11) O(1) 0.4(5) 1_555 14_544 1_555 1_555 yes
Cu(1) O(2) C(11) O(3) -175.4(2) 1_555 14_544 1_555 14_544 yes
Cu(1) O(2) C(11) C(12) -179.8(6) 1_555 14_544 1_555 1_555 yes
Cu(1) O(2) C(11) C(13) -178.1(3) 1_555 14_544 1_555 1_555 yes
Cu(1) O(2) C(11) C(17) 173(1) 1_555 14_544 1_555 1_555 yes
Cu(1) O(3) O(1) O(2) -87.5(2) 1_555 1_555 1_555 14_544 yes
Cu(1) O(3) O(1) N(1) -8.1(1) 1_555 1_555 1_555 1_555 yes
Cu(1) O(3) O(1) C(5) -2.6(3) 1_555 1_555 1_555 1_555 yes
Cu(1) O(3) O(1) C(11) -108.6(4) 1_555 1_555 1_555 1_555 yes
Cu(1) O(3) O(1) C(12) -137.1(4) 1_555 1_555 1_555 1_555 yes
Cu(1) O(3) O(1) C(17) -176.2(4) 1_555 1_555 1_555 1_555 yes
Cu(1) O(3) O(2) O(1) -178.2(3) 1_555 1_555 1_555 9_555 yes
Cu(1) O(3) O(2) N(1) 8.3(2) 1_555 1_555 1_555 1_555 yes
Cu(1) O(3) O(2) C(1) 18.3(3) 1_555 1_555 1_555 1_555 yes
Cu(1) O(3) O(2) C(11) 179.4(4) 1_555 1_555 1_555 9_555 yes
Cu(1) O(3) O(2) C(12) 176.6(3) 1_555 1_555 1_555 9_555 yes
Cu(1) O(3) O(2) C(13) 174.1(4) 1_555 1_555 1_555 9_555 yes
Cu(1) O(3) C(11) O(1) -154(3) 1_555 1_555 9_555 9_555 yes
Cu(1) O(3) C(11) O(2) -0.4(3) 1_555 1_555 9_555 1_555 yes
Cu(1) O(3) C(11) C(12) 174.9(4) 1_555 1_555 9_555 9_555 yes
Cu(1) O(3) C(12) C(11) -4.9(4) 1_555 1_555 9_555 9_555 yes
Cu(1) O(3) C(12) C(13) 172.4(8) 1_555 1_555 9_555 9_555 yes
Cu(1) O(3) C(12) C(17) 172.5(9) 1_555 1_555 9_555 9_555 yes
Cu(1) O(3) C(13) C(12) -9.5(10) 1_555 1_555 9_555 9_555 yes
Cu(1) O(3) C(13) C(14) 169.8(6) 1_555 1_555 9_555 9_555 yes
Cu(1) O(3) C(14) C(13) -22(1) 1_555 1_555 9_555 9_555 yes
Cu(1) O(3) C(14) C(15) -21(2) 1_555 1_555 9_555 9_555 yes
Cu(1) N(1) O(1) O(2) 90.3(2) 1_555 1_555 1_555 14_544 yes
Cu(1) N(1) O(1) O(3) 7.8(1) 1_555 1_555 1_555 1_555 yes
Cu(1) N(1) O(1) C(5) -160.8(6) 1_555 1_555 1_555 1_555 yes
Cu(1) N(1) O(1) C(11) 112.2(3) 1_555 1_555 1_555 1_555 yes
Cu(1) N(1) O(1) C(12) 139.9(2) 1_555 1_555 1_555 1_555 yes
Cu(1) N(1) O(1) C(17) 175.3(4) 1_555 1_555 1_555 1_555 yes
Cu(1) N(1) O(2) O(1) -175.5(5) 1_555 1_555 1_555 9_555 yes
Cu(1) N(1) O(2) O(3) -7.8(1) 1_555 1_555 1_555 1_555 yes
Cu(1) N(1) O(2) C(1) -167.3(6) 1_555 1_555 1_555 1_555 yes
Cu(1) N(1) O(2) C(11) -83(2) 1_555 1_555 1_555 9_555 yes
Cu(1) N(1) O(2) C(12) -24.5(4) 1_555 1_555 1_555 9_555 yes
Cu(1) N(1) O(2) C(13) -14.9(2) 1_555 1_555 1_555 9_555 yes
Cu(1) N(1) C(1) O(2) 10.3(5) 1_555 1_555 1_555 1_555 yes
Cu(1) N(1) C(1) C(2) 176.4(8) 1_555 1_555 1_555 1_555 yes
Cu(1) N(1) C(1) C(3) 176.1(3) 1_555 1_555 1_555 1_555 yes
Cu(1) N(1) C(1) C(4) 177.3(5) 1_555 1_555 1_555 1_555 yes
Cu(1) N(1) C(1) C(5) 178.1(9) 1_555 1_555 1_555 1_555 yes
Cu(1) N(1) C(2) C(1) -6(1) 1_555 1_555 1_555 1_555 yes
Cu(1) N(1) C(2) C(3) 173.4(5) 1_555 1_555 1_555 1_555 yes
Cu(1) N(1) C(2) C(4) 174.8(7) 1_555 1_555 1_555 1_555 yes
Cu(1) N(1) C(2) C(5) 175.4(9) 1_555 1_555 1_555 1_555 yes
Cu(1) N(1) C(2) C(8) 171.7(4) 1_555 1_555 1_555 17_556 yes
Cu(1) N(1) C(2) C(9) 150.5(6) 1_555 1_555 1_555 17_556 yes
Cu(1) N(1) C(3) C(1) -76(3) 1_555 1_555 1_555 1_555 yes
Cu(1) N(1) C(3) C(2) -76(3) 1_555 1_555 1_555 1_555 yes
Cu(1) N(1) C(3) C(4) 106(3) 1_555 1_555 1_555 1_555 yes
Cu(1) N(1) C(3) C(5) 105(3) 1_555 1_555 1_555 1_555 yes
Cu(1) N(1) C(3) C(7) 124(3) 1_555 1_555 1_555 17_556 yes
Cu(1) N(1) C(3) C(8) -22(10) 1_555 1_555 1_555 17_556 yes
Cu(1) N(1) C(3) C(9) -49(4) 1_555 1_555 1_555 17_556 yes
Cu(1) N(1) C(4) C(1) -175.0(10) 1_555 1_555 1_555 1_555 yes
Cu(1) N(1) C(4) C(2) -174.5(7) 1_555 1_555 1_555 1_555 yes
Cu(1) N(1) C(4) C(3) -173.0(6) 1_555 1_555 1_555 1_555 yes
Cu(1) N(1) C(4) C(5) 6(1) 1_555 1_555 1_555 1_555 yes
Cu(1) N(1) C(4) C(8) -171.5(5) 1_555 1_555 1_555 17_556 yes
Cu(1) N(1) C(5) O(1) 16.0(4) 1_555 1_555 1_555 1_555 yes
Cu(1) N(1) C(5) C(1) -178.1(9) 1_555 1_555 1_555 1_555 yes
Cu(1) N(1) C(5) C(2) -177.3(5) 1_555 1_555 1_555 1_555 yes
Cu(1) N(1) C(5) C(3) -176.1(3) 1_555 1_555 1_555 1_555 yes
Cu(1) N(1) C(5) C(4) -176.3(7) 1_555 1_555 1_555 1_555 yes
Cu(1) N(2) C(6) C(7) 179.4(5) 1_555 1_555 1_555 1_555 yes
Cu(1) N(2) C(6) C(8) 179.9(3) 1_555 1_555 1_555 1_555 yes
Cu(1) N(2) C(6) C(9) 179.9(5) 1_555 1_555 1_555 1_555 yes
Cu(1) N(2) C(6) C(10) 179.4(8) 1_555 1_555 1_555 1_555 yes
Cu(1) N(2) C(7) C(3) -180.0(5) 1_555 1_555 1_555 18_546 yes
Cu(1) N(2) C(7) C(6) -1(1) 1_555 1_555 1_555 1_555 yes
Cu(1) N(2) C(7) C(8) 179.6(6) 1_555 1_555 1_555 1_555 yes
Cu(1) N(2) C(7) C(9) 179.4(7) 1_555 1_555 1_555 1_555 yes
Cu(1) N(2) C(7) C(10) 178.8(9) 1_555 1_555 1_555 1_555 yes
Cu(1) N(2) C(8) C(2) -20(2) 1_555 1_555 1_555 18_546 yes
Cu(1) N(2) C(8) C(3) 30(20) 1_555 1_555 1_555 18_546 yes
Cu(1) N(2) C(8) C(4) 155(1) 1_555 1_555 1_555 18_546 yes
Cu(1) N(2) C(8) C(6) -179(2) 1_555 1_555 1_555 1_555 yes
Cu(1) N(2) C(8) C(7) -178(1) 1_555 1_555 1_555 1_555 yes
Cu(1) N(2) C(8) C(9) 0(1) 1_555 1_555 1_555 1_555 yes
Cu(1) N(2) C(8) C(10) 0(1) 1_555 1_555 1_555 1_555 yes
Cu(1) N(2) C(9) C(2) -163.4(6) 1_555 1_555 1_555 18_546 yes
Cu(1) N(2) C(9) C(3) 179.7(3) 1_555 1_555 1_555 18_546 yes
Cu(1) N(2) C(9) C(6) -179.9(7) 1_555 1_555 1_555 1_555 yes
Cu(1) N(2) C(9) C(7) -179.6(5) 1_555 1_555 1_555 1_555 yes
Cu(1) N(2) C(9) C(8) -179.8(4) 1_555 1_555 1_555 1_555 yes
Cu(1) N(2) C(9) C(10) -0.9(9) 1_555 1_555 1_555 1_555 yes
Cu(1) N(2) C(10) C(6) -179.5(7) 1_555 1_555 1_555 1_555 yes
Cu(1) N(2) C(10) C(7) -179.5(4) 1_555 1_555 1_555 1_555 yes
Cu(1) N(2) C(10) C(8) -180.0(2) 1_555 1_555 1_555 1_555 yes
Cu(1) N(2) C(10) C(9) 179.4(6) 1_555 1_555 1_555 1_555 yes
Cu(1) C(1) O(2) O(1) -175.1(3) 1_555 1_555 1_555 9_555 yes
Cu(1) C(1) O(2) O(3) -13.1(2) 1_555 1_555 1_555 1_555 yes
Cu(1) C(1) O(2) N(1) 9.7(4) 1_555 1_555 1_555 1_555 yes
Cu(1) C(1) O(2) C(11) -151.1(8) 1_555 1_555 1_555 9_555 yes
Cu(1) C(1) O(2) C(12) -71.9(8) 1_555 1_555 1_555 9_555 yes
Cu(1) C(1) O(2) C(13) -29.2(4) 1_555 1_555 1_555 9_555 yes
Cu(1) C(1) N(1) O(1) 43(1) 1_555 1_555 1_555 1_555 yes
Cu(1) C(1) N(1) O(2) -10.3(5) 1_555 1_555 1_555 1_555 yes
Cu(1) C(1) N(1) C(2) -176.4(8) 1_555 1_555 1_555 1_555 yes
Cu(1) C(1) N(1) C(3) -176.1(3) 1_555 1_555 1_555 1_555 yes
Cu(1) C(1) N(1) C(4) -177.3(5) 1_555 1_555 1_555 1_555 yes
Cu(1) C(1) N(1) C(5) -178.1(9) 1_555 1_555 1_555 1_555 yes
Cu(1) C(1) C(2) N(1) 6(1) 1_555 1_555 1_555 1_555 yes
Cu(1) C(1) C(2) C(3) 5(3) 1_555 1_555 1_555 1_555 yes
Cu(1) C(1) C(2) C(4) 7(2) 1_555 1_555 1_555 1_555 yes
Cu(1) C(1) C(2) C(5) 7(2) 1_555 1_555 1_555 1_555 yes
Cu(1) C(1) C(2) C(8) 2(3) 1_555 1_555 1_555 17_556 yes
Cu(1) C(1) C(2) C(9) -75(4) 1_555 1_555 1_555 17_556 yes
Cu(1) C(1) C(3) N(1) 3.0(2) 1_555 1_555 1_555 1_555 yes
Cu(1) C(1) C(3) C(2) -177(1) 1_555 1_555 1_555 1_555 yes
Cu(1) C(1) C(3) C(4) 5.0(8) 1_555 1_555 1_555 1_555 yes
Cu(1) C(1) C(3) C(5) 4.3(5) 1_555 1_555 1_555 1_555 yes
Cu(1) C(1) C(3) C(7) 117(2) 1_555 1_555 1_555 17_556 yes
Cu(1) C(1) C(3) C(8) -172.2(8) 1_555 1_555 1_555 17_556 yes
Cu(1) C(1) C(3) C(9) -160.7(4) 1_555 1_555 1_555 17_556 yes
Cu(1) C(1) C(4) N(1) 1.6(3) 1_555 1_555 1_555 1_555 yes
Cu(1) C(1) C(4) C(2) -177.6(9) 1_555 1_555 1_555 1_555 yes
Cu(1) C(1) C(4) C(3) -176.2(6) 1_555 1_555 1_555 1_555 yes
Cu(1) C(1) C(4) C(5) 2.6(6) 1_555 1_555 1_555 1_555 yes
Cu(1) C(1) C(4) C(8) -175.4(3) 1_555 1_555 1_555 17_556 yes
Cu(1) C(1) C(5) O(1) 14.9(3) 1_555 1_555 1_555 1_555 yes
Cu(1) C(1) C(5) N(1) 1.2(6) 1_555 1_555 1_555 1_555 yes
Cu(1) C(1) C(5) C(2) -177.4(8) 1_555 1_555 1_555 1_555 yes
Cu(1) C(1) C(5) C(3) -176.6(4) 1_555 1_555 1_555 1_555 yes
Cu(1) C(1) C(5) C(4) -177.3(7) 1_555 1_555 1_555 1_555 yes
Cu(1) C(5) O(1) O(2) 83.1(2) 1_555 1_555 1_555 14_544 yes
Cu(1) C(5) O(1) O(3) 1.9(2) 1_555 1_555 1_555 1_555 yes
Cu(1) C(5) O(1) N(1) 14.6(4) 1_555 1_555 1_555 1_555 yes
Cu(1) C(5) O(1) C(11) 111.7(3) 1_555 1_555 1_555 1_555 yes
Cu(1) C(5) O(1) C(12) 144.5(2) 1_555 1_555 1_555 1_555 yes
Cu(1) C(5) O(1) C(17) 176.9(3) 1_555 1_555 1_555 1_555 yes
Cu(1) C(5) N(1) O(1) -16.0(4) 1_555 1_555 1_555 1_555 yes
Cu(1) C(5) N(1) O(2) 40(1) 1_555 1_555 1_555 1_555 yes
Cu(1) C(5) N(1) C(1) 178.1(9) 1_555 1_555 1_555 1_555 yes
Cu(1) C(5) N(1) C(2) 177.3(5) 1_555 1_555 1_555 1_555 yes
Cu(1) C(5) N(1) C(3) 176.1(3) 1_555 1_555 1_555 1_555 yes
Cu(1) C(5) N(1) C(4) 176.3(7) 1_555 1_555 1_555 1_555 yes
Cu(1) C(5) C(1) O(2) 11.0(3) 1_555 1_555 1_555 1_555 yes
Cu(1) C(5) C(1) N(1) -1.2(6) 1_555 1_555 1_555 1_555 yes
Cu(1) C(5) C(1) C(2) 177.4(8) 1_555 1_555 1_555 1_555 yes
Cu(1) C(5) C(1) C(3) 176.6(4) 1_555 1_555 1_555 1_555 yes
Cu(1) C(5) C(1) C(4) 177.3(7) 1_555 1_555 1_555 1_555 yes
Cu(1) C(5) C(2) N(1) -1.6(3) 1_555 1_555 1_555 1_555 yes
Cu(1) C(5) C(2) C(1) -2.4(7) 1_555 1_555 1_555 1_555 yes
Cu(1) C(5) C(2) C(3) 176.1(6) 1_555 1_555 1_555 1_555 yes
Cu(1) C(5) C(2) C(4) 177.5(7) 1_555 1_555 1_555 1_555 yes
Cu(1) C(5) C(2) C(8) 175.3(3) 1_555 1_555 1_555 17_556 yes
Cu(1) C(5) C(2) C(9) 163.8(4) 1_555 1_555 1_555 17_556 yes
Cu(1) C(5) C(3) N(1) -2.9(2) 1_555 1_555 1_555 1_555 yes
Cu(1) C(5) C(3) C(1) -4.2(5) 1_555 1_555 1_555 1_555 yes
Cu(1) C(5) C(3) C(2) -5.0(7) 1_555 1_555 1_555 1_555 yes
Cu(1) C(5) C(3) C(4) 177(1) 1_555 1_555 1_555 1_555 yes
Cu(1) C(5) C(3) C(7) -172.9(4) 1_555 1_555 1_555 17_556 yes
Cu(1) C(5) C(3) C(8) 171.8(9) 1_555 1_555 1_555 17_556 yes
Cu(1) C(5) C(3) C(9) 81(1) 1_555 1_555 1_555 17_556 yes
Cu(1) C(5) C(4) N(1) -6(1) 1_555 1_555 1_555 1_555 yes
Cu(1) C(5) C(4) C(1) -7(1) 1_555 1_555 1_555 1_555 yes
Cu(1) C(5) C(4) C(2) -7(2) 1_555 1_555 1_555 1_555 yes
Cu(1) C(5) C(4) C(3) -5(2) 1_555 1_555 1_555 1_555 yes
Cu(1) C(5) C(4) C(8) -2(3) 1_555 1_555 1_555 17_556 yes
Cu(1) C(11) Cu(1) O(1) -165.2(5) 1_555 1_555 14_544 14_544 yes
Cu(1) C(11) Cu(1) O(2) -4.2(4) 1_555 1_555 14_544 14_544 yes
Cu(1) C(11) Cu(1) O(3) 175.0(3) 1_555 1_555 14_544 14_544 yes
Cu(1) C(11) Cu(1) N(1) -16.9(3) 1_555 1_555 14_544 14_544 yes
Cu(1) C(11) Cu(1) N(2) 77.7(2) 1_555 1_555 14_544 14_544 yes
Cu(1) C(11) O(1) O(2) 0.6(8) 1_555 1_555 1_555 14_544 yes
Cu(1) C(11) O(1) O(3) 46.2(2) 1_555 1_555 1_555 1_555 yes
Cu(1) C(11) O(1) N(1) -46.6(2) 1_555 1_555 1_555 1_555 yes
Cu(1) C(11) O(1) C(5) -72.7(3) 1_555 1_555 1_555 1_555 yes
Cu(1) C(11) O(1) C(12) -179.6(5) 1_555 1_555 1_555 1_555 yes
Cu(1) C(11) O(1) C(17) 177.1(3) 1_555 1_555 1_555 1_555 yes
Cu(1) C(11) O(3) C(13) 178.2(6) 1_555 1_555 14_544 1_555 yes
Cu(1) C(11) C(12) O(1) 0.8(9) 1_555 1_555 1_555 1_555 yes
Cu(1) C(11) C(12) O(2) -179(1) 1_555 1_555 1_555 14_544 yes
Cu(1) C(11) C(12) O(3) -174(1) 1_555 1_555 1_555 14_544 yes
Cu(1) C(11) C(12) C(13) -175(1) 1_555 1_555 1_555 1_555 yes
Cu(1) C(11) C(12) C(14) 179.3(8) 1_555 1_555 1_555 1_555 yes
Cu(1) C(11) C(12) C(15) 46(4) 1_555 1_555 1_555 1_555 yes
Cu(1) C(11) C(12) C(16) 10(2) 1_555 1_555 1_555 1_555 yes
Cu(1) C(11) C(12) C(17) 7(1) 1_555 1_555 1_555 1_555 yes
Cu(1) C(11) C(13) O(2) -12(1) 1_555 1_555 1_555 14_544 yes
Cu(1) C(11) C(13) O(3) -6(2) 1_555 1_555 1_555 14_544 yes
Cu(1) C(11) C(13) C(12) 170(2) 1_555 1_555 1_555 1_555 yes
Cu(1) C(11) C(13) C(14) 176(1) 1_555 1_555 1_555 1_555 yes
Cu(1) C(11) C(13) C(15) 175(1) 1_555 1_555 1_555 1_555 yes
Cu(1) C(11) C(13) C(16) 173(1) 1_555 1_555 1_555 1_555 yes
Cu(1) C(11) C(13) C(17) 172(1) 1_555 1_555 1_555 1_555 yes
Cu(1) C(11) C(17) O(1) -2.5(3) 1_555 1_555 1_555 1_555 yes
Cu(1) C(11) C(17) C(12) -176.8(7) 1_555 1_555 1_555 1_555 yes
Cu(1) C(11) C(17) C(13) -178.5(4) 1_555 1_555 1_555 1_555 yes
Cu(1) C(11) C(17) C(14) -179.8(4) 1_555 1_555 1_555 1_555 yes
Cu(1) C(11) C(17) C(15) 178.5(4) 1_555 1_555 1_555 1_555 yes
Cu(1) C(11) C(17) C(16) 176(1) 1_555 1_555 1_555 1_555 yes
Cu(1) C(11) O(2) O(1) -176.3(4) 1_555 9_555 1_555 9_555 yes
Cu(1) C(11) O(2) O(3) -0.5(4) 1_555 9_555 1_555 1_555 yes
Cu(1) C(11) O(2) N(1) 75(2) 1_555 9_555 1_555 1_555 yes
Cu(1) C(11) O(2) C(1) 142(1) 1_555 9_555 1_555 1_555 yes
Cu(1) C(11) O(2) C(12) 3.9(9) 1_555 9_555 1_555 9_555 yes
Cu(1) C(11) O(2) C(13) 2.2(6) 1_555 9_555 1_555 9_555 yes
Cu(1) C(11) C(12) C(13) 1.7(7) 1_555 9_555 9_555 9_555 yes
Cu(1) C(11) C(12) C(17) -175.3(6) 1_555 9_555 9_555 9_555 yes
Cu(1) C(13) O(3) O(1) -57(1) 1_555 9_555 1_555 1_555 yes
Cu(1) C(13) O(3) O(2) 5.2(4) 1_555 9_555 1_555 1_555 yes
Cu(1) C(13) O(3) C(11) 7.9(6) 1_555 9_555 1_555 9_555 yes
Cu(1) C(13) O(3) C(12) 9.5(10) 1_555 9_555 1_555 9_555 yes
Cu(1) C(13) O(3) C(14) -169.8(6) 1_555 9_555 1_555 9_555 yes
Cu(1) C(13) C(12) C(11) -1.7(7) 1_555 9_555 9_555 9_555 yes
Cu(1) C(13) C(12) C(17) 175.1(6) 1_555 9_555 9_555 9_555 yes
Cu(1) C(13) C(14) C(15) -168.7(8) 1_555 9_555 9_555 9_555 yes
O(1) Cu(1) O(2) O(3) 90(1) 1_555 1_555 1_555 1_555 yes
O(1) Cu(1) O(2) N(1) -78(1) 1_555 1_555 1_555 1_555 yes
O(1) Cu(1) O(2) C(1) -72(1) 1_555 1_555 1_555 1_555 yes
O(1) Cu(1) O(2) C(11) 89(1) 1_555 1_555 1_555 9_555 yes
O(1) Cu(1) O(2) C(12) 87(1) 1_555 1_555 1_555 9_555 yes
O(1) Cu(1) O(2) C(13) 87(1) 1_555 1_555 1_555 9_555 yes
O(1) Cu(1) O(2) C(11) -0.3(4) 1_555 1_555 14_544 1_555 yes
O(1) Cu(1) O(3) O(2) -173.6(2) 1_555 1_555 1_555 1_555 yes
O(1) Cu(1) O(3) C(11) -173.3(2) 1_555 1_555 1_555 9_555 yes
O(1) Cu(1) O(3) C(12) -170.8(2) 1_555 1_555 1_555 9_555 yes
O(1) Cu(1) O(3) C(13) -166.2(5) 1_555 1_555 1_555 9_555 yes
O(1) Cu(1) O(3) C(14) -151.0(9) 1_555 1_555 1_555 9_555 yes
O(1) Cu(1) N(1) O(2) 173.7(2) 1_555 1_555 1_555 1_555 yes
O(1) Cu(1) N(1) C(1) 159.0(7) 1_555 1_555 1_555 1_555 yes
O(1) Cu(1) N(1) C(2) 162.4(7) 1_555 1_555 1_555 1_555 yes
O(1) Cu(1) N(1) C(3) -126(3) 1_555 1_555 1_555 1_555 yes
O(1) Cu(1) N(1) C(4) -26.9(7) 1_555 1_555 1_555 1_555 yes
O(1) Cu(1) N(1) C(5) -23.1(6) 1_555 1_555 1_555 1_555 yes
O(1) Cu(1) N(2) C(6) 103.0(6) 1_555 1_555 1_555 1_555 yes
O(1) Cu(1) N(2) C(7) 103.8(7) 1_555 1_555 1_555 1_555 yes
O(1) Cu(1) N(2) C(8) -77(1) 1_555 1_555 1_555 1_555 yes
O(1) Cu(1) N(2) C(9) -77.1(5) 1_555 1_555 1_555 1_555 yes
O(1) Cu(1) N(2) C(10) -77.6(5) 1_555 1_555 1_555 1_555 yes
O(1) Cu(1) C(1) O(2) 173.5(2) 1_555 1_555 1_555 1_555 yes
O(1) Cu(1) C(1) N(1) -22.5(7) 1_555 1_555 1_555 1_555 yes
O(1) Cu(1) C(1) C(2) -31(2) 1_555 1_555 1_555 1_555 yes
O(1) Cu(1) C(1) C(3) -27.6(7) 1_555 1_555 1_555 1_555 yes
O(1) Cu(1) C(1) C(4) -25.0(4) 1_555 1_555 1_555 1_555 yes
O(1) Cu(1) C(1) C(5) -23.5(4) 1_555 1_555 1_555 1_555 yes
O(1) Cu(1) C(5) N(1) 155.4(7) 1_555 1_555 1_555 1_555 yes
O(1) Cu(1) C(5) C(1) 156.5(4) 1_555 1_555 1_555 1_555 yes
O(1) Cu(1) C(5) C(2) 157.8(4) 1_555 1_555 1_555 1_555 yes
O(1) Cu(1) C(5) C(3) 160.5(6) 1_555 1_555 1_555 1_555 yes
O(1) Cu(1) C(5) C(4) 164(2) 1_555 1_555 1_555 1_555 yes
O(1) Cu(1) C(11) O(2) 179.5(7) 1_555 1_555 1_555 14_544 yes
O(1) Cu(1) C(11) O(3) -173.0(8) 1_555 1_555 1_555 14_544 yes
O(1) Cu(1) C(11) C(12) -1(1) 1_555 1_555 1_555 1_555 yes
O(1) Cu(1) C(11) C(13) -167(2) 1_555 1_555 1_555 1_555 yes
O(1) Cu(1) C(11) C(17) 3.8(4) 1_555 1_555 1_555 1_555 yes
O(1) Cu(1) C(11) O(2) -161.1(6) 1_555 1_555 9_555 1_555 yes
O(1) Cu(1) C(11) C(12) 15.7(8) 1_555 1_555 9_555 9_555 yes
O(1) Cu(1) C(13) O(3) 14.6(6) 1_555 1_555 9_555 1_555 yes
O(1) Cu(1) C(13) C(12) -173.2(4) 1_555 1_555 9_555 9_555 yes
O(1) Cu(1) C(13) C(14) -2(1) 1_555 1_555 9_555 9_555 yes
O(1) O(2) Cu(1) O(3) 4.8(8) 1_555 14_544 14_544 14_544 yes
O(1) O(2) Cu(1) N(1) 173.5(8) 1_555 14_544 14_544 14_544 yes
O(1) O(2) Cu(1) N(2) -94.1(8) 1_555 14_544 14_544 14_544 yes
O(1) O(2) C(11) O(3) -175.8(6) 1_555 14_544 1_555 14_544 yes
O(1) O(2) C(11) C(12) 179(1) 1_555 14_544 1_555 1_555 yes
O(1) O(2) C(11) C(13) -178.5(7) 1_555 14_544 1_555 1_555 yes
O(1) O(2) C(11) C(17) 172(1) 1_555 14_544 1_555 1_555 yes
O(1) O(3) Cu(1) O(2) 173.6(2) 1_555 1_555 1_555 1_555 yes
O(1) O(3) Cu(1) O(2) 51.9(1) 1_555 1_555 1_555 14_544 yes
O(1) O(3) Cu(1) N(1) 81.6(8) 1_555 1_555 1_555 1_555 yes
O(1) O(3) Cu(1) N(2) -93.0(2) 1_555 1_555 1_555 1_555 yes
O(1) O(3) Cu(1) C(1) 135.9(5) 1_555 1_555 1_555 1_555 yes
O(1) O(3) Cu(1) C(5) 6.5(7) 1_555 1_555 1_555 1_555 yes
O(1) O(3) Cu(1) C(11) 25.3(2) 1_555 1_555 1_555 1_555 yes
O(1) O(3) Cu(1) C(11) 173.3(2) 1_555 1_555 1_555 9_555 yes
O(1) O(3) Cu(1) C(13) 166.2(5) 1_555 1_555 1_555 9_555 yes
O(1) O(3) O(2) N(1) 3.6(2) 1_555 1_555 1_555 1_555 yes
O(1) O(3) O(2) C(1) 13.6(3) 1_555 1_555 1_555 1_555 yes
O(1) O(3) O(2) C(11) 174.7(4) 1_555 1_555 1_555 9_555 yes
O(1) O(3) O(2) C(12) 171.9(3) 1_555 1_555 1_555 9_555 yes
O(1) O(3) O(2) C(13) 169.4(4) 1_555 1_555 1_555 9_555 yes
O(1) O(3) C(11) O(2) -5.9(4) 1_555 1_555 9_555 1_555 yes
O(1) O(3) C(11) C(12) 169.5(4) 1_555 1_555 9_555 9_555 yes
O(1) O(3) C(12) C(11) -16.7(7) 1_555 1_555 9_555 9_555 yes
O(1) O(3) C(12) C(13) 160.6(8) 1_555 1_555 9_555 9_555 yes
O(1) O(3) C(12) C(17) 160.7(8) 1_555 1_555 9_555 9_555 yes
O(1) O(3) C(13) C(12) -66(1) 1_555 1_555 9_555 9_555 yes
O(1) O(3) C(13) C(14) 112(1) 1_555 1_555 9_555 9_555 yes
O(1) O(3) C(14) C(13) -157.4(9) 1_555 1_555 9_555 9_555 yes
O(1) O(3) C(14) C(15) -155(1) 1_555 1_555 9_555 9_555 yes
O(1) N(1) Cu(1) O(2) -173.7(2) 1_555 1_555 1_555 1_555 yes
O(1) N(1) Cu(1) O(2) -51.6(1) 1_555 1_555 1_555 14_544 yes
O(1) N(1) Cu(1) O(3) -81.5(8) 1_555 1_555 1_555 1_555 yes
O(1) N(1) Cu(1) N(2) 93.1(2) 1_555 1_555 1_555 1_555 yes
O(1) N(1) Cu(1) C(1) -159.0(7) 1_555 1_555 1_555 1_555 yes
O(1) N(1) Cu(1) C(5) 23.1(6) 1_555 1_555 1_555 1_555 yes
O(1) N(1) Cu(1) C(11) -25.1(2) 1_555 1_555 1_555 1_555 yes
O(1) N(1) Cu(1) C(11) -169.6(2) 1_555 1_555 1_555 9_555 yes
O(1) N(1) Cu(1) C(13) -140.2(4) 1_555 1_555 1_555 9_555 yes
O(1) N(1) O(2) O(3) -3.5(2) 1_555 1_555 1_555 1_555 yes
O(1) N(1) O(2) C(1) -162.9(5) 1_555 1_555 1_555 1_555 yes
O(1) N(1) O(2) C(11) -79(2) 1_555 1_555 1_555 9_555 yes
O(1) N(1) O(2) C(12) -20.1(5) 1_555 1_555 1_555 9_555 yes
O(1) N(1) O(2) C(13) -10.5(3) 1_555 1_555 1_555 9_555 yes
O(1) N(1) C(1) O(2) 53(1) 1_555 1_555 1_555 1_555 yes
O(1) N(1) C(1) C(2) -140(1) 1_555 1_555 1_555 1_555 yes
O(1) N(1) C(1) C(3) -140(1) 1_555 1_555 1_555 1_555 yes
O(1) N(1) C(1) C(4) -139(1) 1_555 1_555 1_555 1_555 yes
O(1) N(1) C(1) C(5) -138(1) 1_555 1_555 1_555 1_555 yes
O(1) N(1) C(2) C(1) 130(1) 1_555 1_555 1_555 1_555 yes
O(1) N(1) C(2) C(3) -50(1) 1_555 1_555 1_555 1_555 yes
O(1) N(1) C(2) C(4) -48(1) 1_555 1_555 1_555 1_555 yes
O(1) N(1) C(2) C(5) -48.3(9) 1_555 1_555 1_555 1_555 yes
O(1) N(1) C(2) C(8) -52(1) 1_555 1_555 1_555 17_556 yes
O(1) N(1) C(2) C(9) -73(1) 1_555 1_555 1_555 17_556 yes
O(1) N(1) C(3) C(1) 159.8(7) 1_555 1_555 1_555 1_555 yes
O(1) N(1) C(3) C(2) 159.6(7) 1_555 1_555 1_555 1_555 yes
O(1) N(1) C(3) C(4) -17.8(7) 1_555 1_555 1_555 1_555 yes
O(1) N(1) C(3) C(5) -18.0(6) 1_555 1_555 1_555 1_555 yes
O(1) N(1) C(3) C(7) 1.0(10) 1_555 1_555 1_555 17_556 yes
O(1) N(1) C(3) C(8) -146(8) 1_555 1_555 1_555 17_556 yes
O(1) N(1) C(3) C(9) -173.2(5) 1_555 1_555 1_555 17_556 yes
O(1) N(1) C(4) C(1) 165.4(6) 1_555 1_555 1_555 1_555 yes
O(1) N(1) C(4) C(2) 165.9(4) 1_555 1_555 1_555 1_555 yes
O(1) N(1) C(4) C(3) 167.4(5) 1_555 1_555 1_555 1_555 yes
O(1) N(1) C(4) C(5) -12(1) 1_555 1_555 1_555 1_555 yes
O(1) N(1) C(4) C(8) 169.0(4) 1_555 1_555 1_555 17_556 yes
O(1) N(1) C(5) C(1) 165.9(7) 1_555 1_555 1_555 1_555 yes
O(1) N(1) C(5) C(2) 166.8(4) 1_555 1_555 1_555 1_555 yes
O(1) N(1) C(5) C(3) 167.9(4) 1_555 1_555 1_555 1_555 yes
O(1) N(1) C(5) C(4) 167.8(10) 1_555 1_555 1_555 1_555 yes
O(1) C(5) Cu(1) O(2) -173.2(2) 1_555 1_555 1_555 1_555 yes
O(1) C(5) Cu(1) O(2) -53.4(2) 1_555 1_555 1_555 14_544 yes
O(1) C(5) Cu(1) O(3) -6.9(7) 1_555 1_555 1_555 1_555 yes
O(1) C(5) Cu(1) N(1) -155.4(7) 1_555 1_555 1_555 1_555 yes
O(1) C(5) Cu(1) N(2) 95.1(2) 1_555 1_555 1_555 1_555 yes
O(1) C(5) Cu(1) C(1) -156.5(4) 1_555 1_555 1_555 1_555 yes
O(1) C(5) Cu(1) C(11) -26.6(2) 1_555 1_555 1_555 1_555 yes
O(1) C(5) Cu(1) C(11) -170.8(2) 1_555 1_555 1_555 9_555 yes
O(1) C(5) Cu(1) C(13) -84(1) 1_555 1_555 1_555 9_555 yes
O(1) C(5) N(1) O(2) 56(1) 1_555 1_555 1_555 1_555 yes
O(1) C(5) N(1) C(1) -165.9(7) 1_555 1_555 1_555 1_555 yes
O(1) C(5) N(1) C(2) -166.8(4) 1_555 1_555 1_555 1_555 yes
O(1) C(5) N(1) C(3) -167.9(4) 1_555 1_555 1_555 1_555 yes
O(1) C(5) N(1) C(4) -167.8(10) 1_555 1_555 1_555 1_555 yes
O(1) C(5) C(1) O(2) 26.0(5) 1_555 1_555 1_555 1_555 yes
O(1) C(5) C(1) N(1) 13.7(7) 1_555 1_555 1_555 1_555 yes
O(1) C(5) C(1) C(2) -167.7(7) 1_555 1_555 1_555 1_555 yes
O(1) C(5) C(1) C(3) -168.5(4) 1_555 1_555 1_555 1_555 yes
O(1) C(5) C(1) C(4) -167.8(8) 1_555 1_555 1_555 1_555 yes
O(1) C(5) C(2) N(1) 17.7(5) 1_555 1_555 1_555 1_555 yes
O(1) C(5) C(2) C(1) 16.8(9) 1_555 1_555 1_555 1_555 yes
O(1) C(5) C(2) C(3) -164.6(7) 1_555 1_555 1_555 1_555 yes
O(1) C(5) C(2) C(4) -163.3(10) 1_555 1_555 1_555 1_555 yes
O(1) C(5) C(2) C(8) -165.4(5) 1_555 1_555 1_555 17_556 yes
O(1) C(5) C(2) C(9) -176.9(4) 1_555 1_555 1_555 17_556 yes
O(1) C(5) C(3) N(1) 41(1) 1_555 1_555 1_555 1_555 yes
O(1) C(5) C(3) C(1) 40(1) 1_555 1_555 1_555 1_555 yes
O(1) C(5) C(3) C(2) 39(1) 1_555 1_555 1_555 1_555 yes
O(1) C(5) C(3) C(4) -137(1) 1_555 1_555 1_555 1_555 yes
O(1) C(5) C(3) C(7) -128(1) 1_555 1_555 1_555 17_556 yes
O(1) C(5) C(3) C(8) -143(1) 1_555 1_555 1_555 17_556 yes
O(1) C(5) C(3) C(9) 126(1) 1_555 1_555 1_555 17_556 yes
O(1) C(5) C(4) N(1) 143(2) 1_555 1_555 1_555 1_555 yes
O(1) C(5) C(4) C(1) 142(2) 1_555 1_555 1_555 1_555 yes
O(1) C(5) C(4) C(2) 141(1) 1_555 1_555 1_555 1_555 yes
O(1) C(5) C(4) C(3) 143(1) 1_555 1_555 1_555 1_555 yes
O(1) C(5) C(4) C(8) 146(1) 1_555 1_555 1_555 17_556 yes
O(1) C(11) Cu(1) O(2) 179.2(4) 1_555 1_555 1_555 1_555 yes
O(1) C(11) Cu(1) O(2) -179.5(7) 1_555 1_555 1_555 14_544 yes
O(1) C(11) Cu(1) O(3) -92.2(4) 1_555 1_555 1_555 1_555 yes
O(1) C(11) Cu(1) N(1) 97.2(4) 1_555 1_555 1_555 1_555 yes
O(1) C(11) Cu(1) N(2) 6.5(5) 1_555 1_555 1_555 1_555 yes
O(1) C(11) Cu(1) C(1) 113.2(5) 1_555 1_555 1_555 1_555 yes
O(1) C(11) Cu(1) C(5) 80.7(5) 1_555 1_555 1_555 1_555 yes
O(1) C(11) Cu(1) C(11) -148.3(4) 1_555 1_555 1_555 9_555 yes
O(1) C(11) Cu(1) C(13) -105.6(4) 1_555 1_555 1_555 9_555 yes
O(1) C(11) Cu(1) O(2) -6.3(7) 1_555 1_555 14_544 14_544 yes
O(1) C(11) Cu(1) O(3) 172.9(9) 1_555 1_555 14_544 14_544 yes
O(1) C(11) Cu(1) N(1) -19.0(9) 1_555 1_555 14_544 14_544 yes
O(1) C(11) Cu(1) N(2) 75.5(9) 1_555 1_555 14_544 14_544 yes
O(1) C(11) O(3) C(13) 31(3) 1_555 1_555 14_544 1_555 yes
O(1) C(11) C(12) O(2) 179(1) 1_555 1_555 1_555 14_544 yes
O(1) C(11) C(12) O(3) -175.2(5) 1_555 1_555 1_555 14_544 yes
O(1) C(11) C(12) C(13) -176.6(6) 1_555 1_555 1_555 1_555 yes
O(1) C(11) C(12) C(14) 178.5(10) 1_555 1_555 1_555 1_555 yes
O(1) C(11) C(12) C(15) 45(4) 1_555 1_555 1_555 1_555 yes
O(1) C(11) C(12) C(16) 9(1) 1_555 1_555 1_555 1_555 yes
O(1) C(11) C(12) C(17) 6.5(9) 1_555 1_555 1_555 1_555 yes
O(1) C(11) C(13) O(2) -177(1) 1_555 1_555 1_555 14_544 yes
O(1) C(11) C(13) O(3) -171.9(9) 1_555 1_555 1_555 14_544 yes
O(1) C(11) C(13) C(12) 5.4(10) 1_555 1_555 1_555 1_555 yes
O(1) C(11) C(13) C(14) 11(1) 1_555 1_555 1_555 1_555 yes
O(1) C(11) C(13) C(15) 10(1) 1_555 1_555 1_555 1_555 yes
O(1) C(11) C(13) C(16) 8.5(9) 1_555 1_555 1_555 1_555 yes
O(1) C(11) C(13) C(17) 7.3(9) 1_555 1_555 1_555 1_555 yes
O(1) C(11) C(17) C(12) -174.3(8) 1_555 1_555 1_555 1_555 yes
O(1) C(11) C(17) C(13) -176.0(5) 1_555 1_555 1_555 1_555 yes
O(1) C(11) C(17) C(14) -177.3(4) 1_555 1_555 1_555 1_555 yes
O(1) C(11) C(17) C(15) -179.0(6) 1_555 1_555 1_555 1_555 yes
O(1) C(11) C(17) C(16) 178(1) 1_555 1_555 1_555 1_555 yes
O(1) C(12) O(2) C(11) 0.1(6) 1_555 1_555 14_544 1_555 yes
O(1) C(12) O(3) C(13) 180.0(9) 1_555 1_555 14_544 1_555 yes
O(1) C(12) C(11) O(2) -179(1) 1_555 1_555 1_555 14_544 yes
O(1) C(12) C(11) O(3) 175.2(5) 1_555 1_555 1_555 14_544 yes
O(1) C(12) C(11) C(13) 176.6(6) 1_555 1_555 1_555 1_555 yes
O(1) C(12) C(11) C(17) -6.5(9) 1_555 1_555 1_555 1_555 yes
O(1) C(12) C(13) O(2) -4.9(8) 1_555 1_555 1_555 14_544 yes
O(1) C(12) C(13) O(3) 0(1) 1_555 1_555 1_555 14_544 yes
O(1) C(12) C(13) C(11) -3.3(6) 1_555 1_555 1_555 1_555 yes
O(1) C(12) C(13) C(14) -179.3(8) 1_555 1_555 1_555 1_555 yes
O(1) C(12) C(13) C(15) -179.2(9) 1_555 1_555 1_555 1_555 yes
O(1) C(12) C(13) C(16) -179(1) 1_555 1_555 1_555 1_555 yes
O(1) C(12) C(13) C(17) 179(1) 1_555 1_555 1_555 1_555 yes
O(1) C(12) C(14) O(3) 173(7) 1_555 1_555 1_555 14_544 yes
O(1) C(12) C(14) C(13) 173(7) 1_555 1_555 1_555 1_555 yes
O(1) C(12) C(14) C(15) -6(7) 1_555 1_555 1_555 1_555 yes
O(1) C(12) C(14) C(16) -6(7) 1_555 1_555 1_555 1_555 yes
O(1) C(12) C(14) C(17) -7(7) 1_555 1_555 1_555 1_555 yes
O(1) C(12) C(15) C(13) 179.2(8) 1_555 1_555 1_555 1_555 yes
O(1) C(12) C(15) C(14) 179.4(8) 1_555 1_555 1_555 1_555 yes
O(1) C(12) C(15) C(16) -1(1) 1_555 1_555 1_555 1_555 yes
O(1) C(12) C(15) C(17) -1.7(7) 1_555 1_555 1_555 1_555 yes
O(1) C(12) C(16) C(13) 179.9(6) 1_555 1_555 1_555 1_555 yes
O(1) C(12) C(16) C(14) 179.6(5) 1_555 1_555 1_555 1_555 yes
O(1) C(12) C(16) C(15) 178.9(6) 1_555 1_555 1_555 1_555 yes
O(1) C(12) C(16) C(17) -0.8(9) 1_555 1_555 1_555 1_555 yes
O(1) C(12) C(17) C(11) 3.0(4) 1_555 1_555 1_555 1_555 yes
O(1) C(12) C(17) C(13) -179.9(7) 1_555 1_555 1_555 1_555 yes
O(1) C(12) C(17) C(14) 179.6(4) 1_555 1_555 1_555 1_555 yes
O(1) C(12) C(17) C(15) 179.1(4) 1_555 1_555 1_555 1_555 yes
O(1) C(12) C(17) C(16) 179.3(8) 1_555 1_555 1_555 1_555 yes
O(1) C(17) C(11) O(2) -173(1) 1_555 1_555 1_555 14_544 yes
O(1) C(17) C(11) O(3) 175.7(4) 1_555 1_555 1_555 14_544 yes
O(1) C(17) C(11) C(12) 174.3(8) 1_555 1_555 1_555 1_555 yes
O(1) C(17) C(11) C(13) 176.0(5) 1_555 1_555 1_555 1_555 yes
O(1) C(17) C(12) O(2) -8.2(7) 1_555 1_555 1_555 14_544 yes
O(1) C(17) C(12) O(3) 179.9(10) 1_555 1_555 1_555 14_544 yes
O(1) C(17) C(12) C(11) -3.0(4) 1_555 1_555 1_555 1_555 yes
O(1) C(17) C(12) C(13) 179.9(7) 1_555 1_555 1_555 1_555 yes
O(1) C(17) C(12) C(14) -179.6(4) 1_555 1_555 1_555 1_555 yes
O(1) C(17) C(12) C(15) -179.1(4) 1_555 1_555 1_555 1_555 yes
O(1) C(17) C(12) C(16) -179.3(8) 1_555 1_555 1_555 1_555 yes
O(1) C(17) C(13) O(2) -4.0(2) 1_555 1_555 1_555 14_544 yes
O(1) C(17) C(13) O(3) 0(1) 1_555 1_555 1_555 14_544 yes
O(1) C(17) C(13) C(11) -1.9(2) 1_555 1_555 1_555 1_555 yes
O(1) C(17) C(13) C(12) -0.1(6) 1_555 1_555 1_555 1_555 yes
O(1) C(17) C(13) C(14) -179.4(5) 1_555 1_555 1_555 1_555 yes
O(1) C(17) C(13) C(15) -179.0(5) 1_555 1_555 1_555 1_555 yes
O(1) C(17) C(13) C(16) -179.4(7) 1_555 1_555 1_555 1_555 yes
O(1) C(17) C(14) O(3) 0.6(5) 1_555 1_555 1_555 14_544 yes
O(1) C(17) C(14) C(12) 0.4(4) 1_555 1_555 1_555 1_555 yes
O(1) C(17) C(14) C(13) 0.8(6) 1_555 1_555 1_555 1_555 yes
O(1) C(17) C(14) C(15) -178.5(7) 1_555 1_555 1_555 1_555 yes
O(1) C(17) C(14) C(16) -179.3(8) 1_555 1_555 1_555 1_555 yes
O(1) C(17) C(15) C(12) 1.6(