####################################################################### 
# 
# This file contains crystal structure data downloaded from the 
# Cambridge Structural Database (CSD) hosted by the Cambridge 
# Crystallographic Data Centre (CCDC).
# 
# Full information about CCDC data access policies and citation 
# guidelines are available at http://www.ccdc.cam.ac.uk/access/V1 
# 
# Audit and citation data items may have been added by the CCDC. 
# Please retain this information to preserve the provenance of 
# this file and to allow appropriate attribution of the data. 
# 
#######################################################################

data_2_[Cu7(OH)2L3][Cu6(OH)2(SO4)3(S3O10)2]34H2O
_audit_block_doi                 10.5517/ccvf66n
_database_code_depnum_ccdc_archive 'CCDC 787251'
loop_
_citation_id
_citation_doi
_citation_year
1 10.1002/anie.201004885 2011
_audit_update_record             
;
2010-08-02 deposited with the CCDC.	2024-07-10 downloaded from the CCDC.
;
#TrackingRef 'CIF-2.cif'


_audit_creation_method           SHELXL-97

_chemical_name_systematic        
;
?
;
_chemical_name_common            ?
_chemical_melting_point          ?
_chemical_formula_moiety         ?
_chemical_formula_sum            'C144 H210 Cu13 N12 O82 S9'
_chemical_formula_weight         4535.80

loop_
_atom_type_symbol
_atom_type_description
_atom_type_scat_dispersion_real
_atom_type_scat_dispersion_imag
_atom_type_scat_source
C C 0.0181 0.0091 'International Tables Vol C Tables 4.2.6.8 and 6.1.1.4'
H H 0.0000 0.0000 'International Tables Vol C Tables 4.2.6.8 and 6.1.1.4'
N N 0.0311 0.0180 'International Tables Vol C Tables 4.2.6.8 and 6.1.1.4'
O O 0.0492 0.0322 'International Tables Vol C Tables 4.2.6.8 and 6.1.1.4'
S S 0.3331 0.5567 'International Tables Vol C Tables 4.2.6.8 and 6.1.1.4'
Cu Cu -1.9646 0.5888 'International Tables Vol C Tables 4.2.6.8 and 6.1.1.4'

_symmetry_cell_setting           Hexagonal
_symmetry_space_group_name_H-M   P6(3)22

loop_
_symmetry_equiv_pos_as_xyz
'x, y, z'
'-y, x-y, z'
'-x+y, -x, z'
'-x, -y, z+1/2'
'y, -x+y, z+1/2'
'x-y, x, z+1/2'
'y, x, -z'
'x-y, -y, -z'
'-x, -x+y, -z'
'-y, -x, -z+1/2'
'-x+y, y, -z+1/2'
'x, x-y, -z+1/2'

_cell_length_a                   26.2486(5)
_cell_length_b                   26.2486(5)
_cell_length_c                   25.2139(6)
_cell_angle_alpha                90.00
_cell_angle_beta                 90.00
_cell_angle_gamma                120.00
_cell_volume                     15044.7(5)
_cell_formula_units_Z            2
_cell_measurement_temperature    123
_cell_measurement_reflns_used    6870
_cell_measurement_theta_min      ?
_cell_measurement_theta_max      ?

_exptl_crystal_description       Hexgonal
_exptl_crystal_colour            'dark blue'
_exptl_crystal_size_max          0.15
_exptl_crystal_size_mid          0.15
_exptl_crystal_size_min          0.08
_exptl_crystal_density_meas      ?
_exptl_crystal_density_diffrn    1.001
_exptl_crystal_density_method    'not measured'
_exptl_crystal_F_000             4670
_exptl_absorpt_coefficient_mu    2.073
_exptl_absorpt_correction_type   Multi-scan
_exptl_absorpt_correction_T_min  5.44
_exptl_absorpt_correction_T_max  68.08
_exptl_absorpt_process_details   'SADABS (Sheldrick, 1996)'

_exptl_special_details           
;
?
;

_diffrn_ambient_temperature      123
_diffrn_radiation_wavelength     1.54178
_diffrn_radiation_type           CuK\a
_diffrn_radiation_source         'fine-focus sealed tube'
_diffrn_radiation_monochromator  graphite
_diffrn_measurement_device_type  ?
_diffrn_measurement_method       ?
_diffrn_detector_area_resol_mean ?
_diffrn_standards_number         ?
_diffrn_standards_interval_count ?
_diffrn_standards_interval_time  ?
_diffrn_standards_decay_%        ?
_diffrn_reflns_number            61273
_diffrn_reflns_av_R_equivalents  0.0682
_diffrn_reflns_av_sigmaI/netI    0.0412
_diffrn_reflns_limit_h_min       -31
_diffrn_reflns_limit_h_max       30
_diffrn_reflns_limit_k_min       -24
_diffrn_reflns_limit_k_max       30
_diffrn_reflns_limit_l_min       -27
_diffrn_reflns_limit_l_max       29
_diffrn_reflns_theta_min         5.44
_diffrn_reflns_theta_max         68.08
_reflns_number_total             8792
_reflns_number_gt                6870
_reflns_threshold_expression     >2sigma(I)

_computing_data_collection       'SMART (Bruker, 1997)'
_computing_cell_refinement       'SAINT (Bruker, 1999)'
_computing_data_reduction        SAINT
_computing_structure_solution    'SHELXS-97 (Sheldrick, 1990)'
_computing_structure_refinement  'SHELXL-97 (Sheldrick, 1997)'
_computing_molecular_graphics    'SHELXTL-PLUS (Sheldrick, 1990)'
_computing_publication_material  SHELXL-97

_refine_special_details          
;
Refinement of F^2^ against ALL reflections. The weighted R-factor wR and
goodness of fit S are based on F^2^, conventional R-factors R are based
on F, with F set to zero for negative F^2^. The threshold expression of
F^2^ > 2sigma(F^2^) is used only for calculating R-factors(gt) etc. and is
not relevant to the choice of reflections for refinement. R-factors based
on F^2^ are statistically about twice as large as those based on F, and R-
factors based on ALL data will be even larger.
;

_refine_ls_structure_factor_coef Fsqd
_refine_ls_matrix_type           full
_refine_ls_weighting_scheme      calc
_refine_ls_weighting_details     
'calc w=1/[\s^2^(Fo^2^)+(0.1670P)^2^+2.0513P] where P=(Fo^2^+2Fc^2^)/3'
_atom_sites_solution_primary     direct
_atom_sites_solution_secondary   difmap
_atom_sites_solution_hydrogens   geom
_refine_ls_hydrogen_treatment    constr
_refine_ls_extinction_method     none
_refine_ls_extinction_coef       ?
_refine_ls_abs_structure_details 'Flack H D (1983), Acta Cryst. A39, 876-881'
_refine_ls_abs_structure_Flack   0.01(5)
_refine_ls_number_reflns         8792
_refine_ls_number_parameters     304
_refine_ls_number_restraints     7
_refine_ls_R_factor_all          0.1081
_refine_ls_R_factor_gt           0.0881
_refine_ls_wR_factor_ref         0.2522
_refine_ls_wR_factor_gt          0.2184
_refine_ls_goodness_of_fit_ref   1.146
_refine_ls_restrained_S_all      1.198
_refine_ls_shift/su_max          0.000
_refine_ls_shift/su_mean         0.000

loop_
_atom_site_label
_atom_site_type_symbol
_atom_site_fract_x
_atom_site_fract_y
_atom_site_fract_z
_atom_site_U_iso_or_equiv
_atom_site_adp_type
_atom_site_occupancy
_atom_site_symmetry_multiplicity
_atom_site_calc_flag
_atom_site_refinement_flags
_atom_site_disorder_assembly
_atom_site_disorder_group
Cu1 Cu 0.07774(3) 0.02038(3) 0.39660(4) 0.0588(2) Uani 1 1 d . . .
Cu2 Cu 0.0000 0.0000 0.5000 0.0533(4) Uani 1 6 d S . .
Cu3 Cu 0.58055(5) 0.29104(6) 0.31491(8) 0.1218(6) Uani 1 1 d . . .
C1 C 0.05934(12) -0.07058(13) 0.46532(14) 0.0560(10) Uani 1 1 d G . .
C2 C 0.11782(13) -0.04573(13) 0.44989(14) 0.0598(12) Uani 1 1 d G . .
C3 C 0.15043(11) -0.07183(16) 0.46493(16) 0.0673(13) Uani 1 1 d G . .
H3A H 0.1896 -0.0552 0.4546 0.081 Uiso 1 1 calc R . .
C4 C 0.12455(15) -0.12279(16) 0.49541(15) 0.0657(12) Uani 1 1 d G . .
C5 C 0.06607(15) -0.14763(13) 0.51084(14) 0.0626(12) Uani 1 1 d G . .
C6 C 0.03346(11) -0.12153(14) 0.49580(14) 0.0591(11) Uani 1 1 d G . .
C7 C 0.0429(3) -0.2000(2) 0.5480(3) 0.0685(14) Uani 1 1 d . . .
H7A H 0.0725 -0.2108 0.5530 0.103 Uiso 1 1 calc R . .
H7B H 0.0084 -0.2325 0.5329 0.103 Uiso 1 1 calc R . .
H7C H 0.0333 -0.1897 0.5816 0.103 Uiso 1 1 calc R . .
C8 C 0.1616(3) -0.1507(3) 0.5088(3) 0.0802(17) Uani 1 1 d . . .
H8A H 0.2005 -0.1269 0.4947 0.120 Uiso 1 1 calc R . .
H8B H 0.1440 -0.1894 0.4935 0.120 Uiso 1 1 calc R . .
H8C H 0.1637 -0.1535 0.5466 0.120 Uiso 1 1 calc R . .
C9 C 0.1922(2) 0.0339(2) 0.4015(3) 0.0645(13) Uani 1 1 d . . .
H9A H 0.2179 0.0218 0.4136 0.077 Uiso 1 1 calc R . .
C10 C 0.21638(15) 0.08443(14) 0.36752(16) 0.0630(12) Uani 1 1 d G . .
C11 C 0.18532(11) 0.10930(16) 0.34546(17) 0.0638(12) Uani 1 1 d G . .
C12 C 0.21450(15) 0.16004(17) 0.31495(17) 0.0699(14) Uani 1 1 d GD . .
C13 C 0.27472(15) 0.18592(15) 0.30651(18) 0.0735(15) Uani 1 1 d G . .
H13A H 0.2942 0.2199 0.2861 0.088 Uiso 1 1 calc R . .
C14 C 0.30578(11) 0.16105(17) 0.32857(19) 0.0762(16) Uani 1 1 d G . .
C15 C 0.27660(14) 0.11030(17) 0.35908(18) 0.0698(14) Uani 1 1 d G . .
H15A H 0.2974 0.0937 0.3738 0.084 Uiso 1 1 calc R . .
C16 C 0.1809(3) 0.1874(3) 0.2873(3) 0.0746(16) Uani 1 1 d D . .
C17 C 0.1511(3) 0.2070(3) 0.3280(3) 0.0816(17) Uani 1 1 d . . .
H17A H 0.1306 0.2237 0.3100 0.122 Uiso 1 1 calc R . .
H17B H 0.1803 0.2359 0.3511 0.122 Uiso 1 1 calc R . .
H17C H 0.1236 0.1737 0.3485 0.122 Uiso 1 1 calc R . .
C18 C 0.1350(3) 0.1414(3) 0.2494(3) 0.0812(16) Uani 1 1 d . . .
H18A H 0.1138 0.1577 0.2321 0.122 Uiso 1 1 calc R . .
H18B H 0.1080 0.1072 0.2693 0.122 Uiso 1 1 calc R . .
H18C H 0.1545 0.1305 0.2233 0.122 Uiso 1 1 calc R . .
C19 C 0.2221(3) 0.2424(3) 0.2535(4) 0.091(2) Uani 1 1 d . . .
H19A H 0.1995 0.2578 0.2373 0.136 Uiso 1 1 calc R . .
H19B H 0.2406 0.2315 0.2264 0.136 Uiso 1 1 calc R . .
H19C H 0.2517 0.2719 0.2759 0.136 Uiso 1 1 calc R . .
C20 C 0.37187(13) 0.19210(18) 0.3254(3) 0.0836(18) Uani 1 1 d G . .
C21 C 0.40076(18) 0.15989(15) 0.3268(3) 0.099(2) Uani 1 1 d G . .
H21A H 0.3792 0.1190 0.3284 0.119 Uiso 1 1 calc R . .
C22 C 0.46186(18) 0.1887(2) 0.3259(3) 0.138(5) Uani 1 1 d G . .
H22A H 0.4812 0.1672 0.3269 0.165 Uiso 1 1 calc R . .
N1 N 0.49409(13) 0.2498(2) 0.3236(3) 0.112(2) Uani 1 1 d G . .
C23 C 0.46521(18) 0.28201(15) 0.3222(3) 0.122(4) Uani 1 1 d G . .
H23A H 0.4868 0.3229 0.3206 0.146 Uiso 1 1 calc R . .
C24 C 0.40410(18) 0.25317(18) 0.3231(3) 0.097(2) Uani 1 1 d G . .
H24A H 0.3848 0.2747 0.3221 0.116 Uiso 1 1 calc R . .
N2 N 0.13850(18) 0.0037(2) 0.41684(18) 0.0583(9) Uani 1 1 d . . .
O1 O 0.0000 0.0000 0.3641(2) 0.0539(12) Uani 1 3 d S . .
O2 O 0.02913(14) -0.04329(14) 0.44872(16) 0.0579(7) Uani 1 1 d . . .
O3 O 0.12715(17) 0.08583(18) 0.35389(17) 0.0659(9) Uani 1 1 d . . .
O6 O 0.6667 0.3333 0.3012(8) 0.141(5) Uani 1 3 d S . .
S1 S 0.59564(6) 0.40436(6) 0.2500 0.1274(15) Uani 1 2 d S . .
O4 O 0.5697(2) 0.3392(2) 0.2483(4) 0.114(2) Uani 1 1 d . . .
O5 O 0.5775(4) 0.4218(4) 0.2984(6) 0.195(5) Uani 1 1 d . . .
S2 S 0.6346(3) 0.3673(3) 0.4114(3) 0.219 Uani 1 1 d D . .
O7 O 0.5847(6) 0.3404(7) 0.3741(6) 0.207 Uani 1 1 d D . .
O8 O 0.6173(8) 0.3817(7) 0.4635(6) 0.247 Uani 1 1 d D . .
O9 O 0.6667 0.3333 0.4220(5) 0.126 Uani 1 3 d SD . .
O10 O 0.6761(4) 0.4217(4) 0.3811(4) 0.144 Uani 1 1 d D . .
O11 O 0.0000 0.0000 0.2500 0.135(6) Uiso 1 6 d S . .
O12 O 0.3805(9) 0.3663(9) 0.2288(8) 0.264(8) Uiso 1 1 d . . .
O13 O 0.9981(18) 0.6351(14) 0.5989(12) 0.366(13) Uiso 1 1 d . . .
O14 O 0.3073(9) -0.0008(10) 0.4247(7) 0.272(8) Uiso 1 1 d . . .
O15 O 0.4883(14) 0.2591(12) 0.5329(10) 0.336(12) Uiso 1 1 d . . .
O16 O 0.4344(14) 0.1326(15) 0.4630(14) 0.399(17) Uiso 1 1 d . . .
O18 O 0.223(2) 0.371(3) 0.191(3) 0.36(3) Uiso 0.50 1 d P . .

loop_
_atom_site_aniso_label
_atom_site_aniso_U_11
_atom_site_aniso_U_22
_atom_site_aniso_U_33
_atom_site_aniso_U_23
_atom_site_aniso_U_13
_atom_site_aniso_U_12
Cu1 0.0480(4) 0.0550(4) 0.0735(5) 0.0080(3) 0.0024(3) 0.0258(3)
Cu2 0.0487(5) 0.0487(5) 0.0624(10) 0.000 0.000 0.0244(3)
Cu3 0.0607(6) 0.0787(7) 0.2188(17) 0.0070(9) 0.0069(7) 0.0295(5)
C1 0.054(3) 0.051(2) 0.061(3) -0.0017(19) -0.003(2) 0.024(2)
C2 0.055(3) 0.051(2) 0.074(3) 0.004(2) 0.003(2) 0.027(2)
C3 0.060(3) 0.067(3) 0.080(4) 0.008(3) 0.008(2) 0.036(3)
C4 0.068(3) 0.069(3) 0.074(3) 0.007(3) 0.006(3) 0.044(3)
C5 0.073(3) 0.059(3) 0.064(3) -0.004(2) -0.001(2) 0.039(3)
C6 0.059(3) 0.055(3) 0.063(3) -0.004(2) -0.002(2) 0.029(2)
C7 0.081(4) 0.055(3) 0.075(4) 0.006(2) 0.005(3) 0.039(3)
C8 0.086(4) 0.072(4) 0.106(5) 0.012(3) 0.006(4) 0.057(3)
C9 0.051(2) 0.059(3) 0.084(4) 0.002(3) -0.003(2) 0.029(2)
C10 0.059(3) 0.063(3) 0.064(3) 0.005(2) 0.004(2) 0.028(2)
C11 0.058(3) 0.063(3) 0.073(3) 0.001(2) 0.003(2) 0.032(2)
C12 0.060(3) 0.074(3) 0.072(4) 0.010(3) 0.007(2) 0.030(3)
C13 0.058(3) 0.067(3) 0.091(4) 0.009(3) 0.007(3) 0.028(3)
C14 0.052(3) 0.068(3) 0.100(5) 0.015(3) 0.016(3) 0.024(3)
C15 0.061(3) 0.066(3) 0.085(4) 0.010(3) 0.011(3) 0.034(3)
C16 0.065(3) 0.065(3) 0.093(4) 0.021(3) 0.013(3) 0.032(3)
C17 0.076(4) 0.068(3) 0.108(5) -0.003(3) 0.000(3) 0.041(3)
C18 0.091(4) 0.092(4) 0.077(4) 0.012(3) -0.001(3) 0.058(3)
C19 0.078(4) 0.080(4) 0.112(5) 0.039(4) 0.016(4) 0.039(3)
C20 0.050(3) 0.075(4) 0.120(5) 0.013(4) 0.016(3) 0.027(3)
C21 0.061(3) 0.077(4) 0.154(8) 0.013(4) 0.021(4) 0.030(3)
C22 0.060(4) 0.089(6) 0.266(15) 0.054(8) 0.041(6) 0.039(4)
N1 0.056(3) 0.085(4) 0.182(8) 0.014(5) 0.010(4) 0.026(3)
C23 0.059(4) 0.082(5) 0.209(11) 0.007(6) 0.018(5) 0.024(4)
C24 0.065(4) 0.073(4) 0.149(7) 0.017(4) 0.028(4) 0.032(3)
N2 0.052(2) 0.057(2) 0.066(3) 0.0021(18) -0.0012(17) 0.0274(19)
O1 0.0459(15) 0.0459(15) 0.070(3) 0.000 0.000 0.0230(8)
O2 0.0495(16) 0.0466(16) 0.075(2) 0.0075(14) 0.0002(15) 0.0222(14)
O3 0.0545(18) 0.066(2) 0.079(3) 0.0139(17) 0.0054(16) 0.0315(17)
O6 0.055(3) 0.055(3) 0.315(17) 0.000 0.000 0.0274(13)
S1 0.0570(9) 0.0570(9) 0.267(5) 0.0109(17) 0.0109(17) 0.0273(10)
O4 0.053(2) 0.055(2) 0.228(7) 0.010(3) 0.011(3) 0.0217(19)
O5 0.099(5) 0.101(5) 0.372(16) -0.045(8) 0.051(8) 0.039(4)
S2 0.219 0.219 0.219 0.000 0.000 0.110
O7 0.207 0.207 0.207 0.000 0.000 0.103
O8 0.225 0.225 0.265 0.000 0.000 0.093
O9 0.126 0.126 0.126 0.000 0.000 0.063
O10 0.144 0.144 0.144 0.000 0.000 0.072

_geom_special_details            
;
All esds (except the esd in the dihedral angle between two l.s. planes)
are estimated using the full covariance matrix. The cell esds are taken
into account individually in the estimation of esds in distances, angles
and torsion angles; correlations between esds in cell parameters are only
used when they are defined by crystal symmetry. An approximate (isotropic)
treatment of cell esds is used for estimating esds involving l.s. planes.
;

loop_
_geom_bond_atom_site_label_1
_geom_bond_atom_site_label_2
_geom_bond_distance
_geom_bond_site_symmetry_2
_geom_bond_publ_flag
Cu1 O3 1.888(4) . ?
Cu1 N2 1.922(4) . ?
Cu1 O2 2.004(4) . ?
Cu1 O1 2.007(3) . ?
Cu1 O2 2.376(4) 2 ?
Cu2 O2 2.102(4) 3 ?
Cu2 O2 2.102(4) 8_556 ?
Cu2 O2 2.102(4) 2 ?
Cu2 O2 2.102(4) . ?
Cu2 O2 2.102(4) 9_556 ?
Cu2 O2 2.102(4) 7_556 ?
Cu3 O10 1.912(10) 2_655 ?
Cu3 O7 1.944(14) . ?
Cu3 N1 1.978(3) . ?
Cu3 O6 1.988(4) . ?
Cu3 O4 2.167(8) 12 ?
Cu3 O4 2.204(8) . ?
C1 O2 1.373(4) . ?
C1 C2 1.3900 . ?
C1 C6 1.3900 . ?
C2 C3 1.3900 . ?
C2 N2 1.403(5) . ?
C3 C4 1.3900 . ?
C4 C5 1.3900 . ?
C4 C8 1.521(6) . ?
C5 C6 1.3900 . ?
C5 C7 1.516(6) . ?
C6 C6 1.536(5) 9_556 ?
C9 N2 1.283(7) . ?
C9 C10 1.432(6) . ?
C10 C11 1.3900 . ?
C10 C15 1.3900 . ?
C11 O3 1.347(4) . ?
C11 C12 1.3900 . ?
C12 C13 1.3900 . ?
C12 C16 1.553(7) . ?
C13 C14 1.3900 . ?
C14 C15 1.3900 . ?
C14 C20 1.506(4) . ?
C16 C17 1.528(10) . ?
C16 C18 1.538(10) . ?
C16 C19 1.555(8) . ?
C20 C21 1.3900 . ?
C20 C24 1.3900 . ?
C21 C22 1.3900 . ?
C22 N1 1.3900 . ?
N1 C23 1.3900 . ?
C23 C24 1.3900 . ?
O1 Cu1 2.007(3) 3 ?
O1 Cu1 2.007(3) 2 ?
O2 Cu1 2.376(4) 3 ?
O6 Cu3 1.988(4) 2_655 ?
O6 Cu3 1.988(4) 3_665 ?
S1 O5 1.465(12) 10_665 ?
S1 O5 1.465(12) . ?
S1 O4 1.491(5) 10_665 ?
S1 O4 1.491(5) . ?
O4 Cu3 2.167(8) 12 ?
S2 O7 1.475(14) . ?
S2 O8 1.497(15) . ?
S2 O10 1.501(11) . ?
S2 O9 1.525(7) . ?
O9 S2 1.525(7) 2_655 ?
O9 S2 1.525(7) 3_665 ?
O10 Cu3 1.912(10) 3_665 ?

loop_
_geom_angle_atom_site_label_1
_geom_angle_atom_site_label_2
_geom_angle_atom_site_label_3
_geom_angle
_geom_angle_site_symmetry_1
_geom_angle_site_symmetry_3
_geom_angle_publ_flag
O3 Cu1 N2 95.04(18) . . ?
O3 Cu1 O2 173.78(18) . . ?
N2 Cu1 O2 83.72(17) . . ?
O3 Cu1 O1 98.85(16) . . ?
N2 Cu1 O1 153.70(15) . . ?
O2 Cu1 O1 84.67(16) . . ?
O3 Cu1 O2 94.48(16) . 2 ?
N2 Cu1 O2 125.56(17) . 2 ?
O2 Cu1 O2 81.39(19) . 2 ?
O1 Cu1 O2 75.57(15) . 2 ?
O2 Cu2 O2 169.85(18) 3 8_556 ?
O2 Cu2 O2 86.12(14) 3 2 ?
O2 Cu2 O2 87.45(18) 8_556 2 ?
O2 Cu2 O2 86.12(14) 3 . ?
O2 Cu2 O2 101.27(19) 8_556 . ?
O2 Cu2 O2 86.12(14) 2 . ?
O2 Cu2 O2 101.27(19) 3 9_556 ?
O2 Cu2 O2 86.12(14) 8_556 9_556 ?
O2 Cu2 O2 169.85(18) 2 9_556 ?
O2 Cu2 O2 87.45(18) . 9_556 ?
O2 Cu2 O2 87.45(18) 3 7_556 ?
O2 Cu2 O2 86.12(14) 8_556 7_556 ?
O2 Cu2 O2 101.27(19) 2 7_556 ?
O2 Cu2 O2 169.85(18) . 7_556 ?
O2 Cu2 O2 86.12(14) 9_556 7_556 ?
O10 Cu3 O7 69.1(6) 2_655 . ?
O10 Cu3 N1 83.7(4) 2_655 . ?
O7 Cu3 N1 87.0(5) . . ?
O10 Cu3 O6 100.0(6) 2_655 . ?
O7 Cu3 O6 95.3(6) . . ?
N1 Cu3 O6 176.2(6) . . ?
O10 Cu3 O4 108.3(3) 2_655 12 ?
O7 Cu3 O4 175.6(5) . 12 ?
N1 Cu3 O4 89.2(2) . 12 ?
O6 Cu3 O4 88.7(4) . 12 ?
O10 Cu3 O4 166.6(3) 2_655 . ?
O7 Cu3 O4 100.5(5) . . ?
N1 Cu3 O4 87.5(2) . . ?
O6 Cu3 O4 89.1(5) . . ?
O4 Cu3 O4 81.6(2) 12 . ?
O2 C1 C2 117.4(2) . . ?
O2 C1 C6 122.6(2) . . ?
C2 C1 C6 120.0 . . ?
C3 C2 C1 120.0 . . ?
C3 C2 N2 124.7(3) . . ?
C1 C2 N2 115.2(3) . . ?
C2 C3 C4 120.0 . . ?
C5 C4 C3 120.0 . . ?
C5 C4 C8 122.3(3) . . ?
C3 C4 C8 117.7(3) . . ?
C4 C5 C6 120.0 . . ?
C4 C5 C7 116.5(3) . . ?
C6 C5 C7 123.3(3) . . ?
C5 C6 C1 120.0 . . ?
C5 C6 C6 119.4(2) . 9_556 ?
C1 C6 C6 119.7(3) . 9_556 ?
N2 C9 C10 126.5(5) . . ?
C11 C10 C15 120.0 . . ?
C11 C10 C9 125.5(3) . . ?
C15 C10 C9 114.4(3) . . ?
O3 C11 C10 121.2(3) . . ?
O3 C11 C12 118.7(3) . . ?
C10 C11 C12 120.0 . . ?
C13 C12 C11 120.0 . . ?
C13 C12 C16 118.4(3) . . ?
C11 C12 C16 121.5(3) . . ?
C12 C13 C14 120.0 . . ?
C15 C14 C13 120.0 . . ?
C15 C14 C20 118.8(3) . . ?
C13 C14 C20 120.8(3) . . ?
C14 C15 C10 120.0 . . ?
C17 C16 C18 110.4(6) . . ?
C17 C16 C12 111.0(5) . . ?
C18 C16 C12 108.6(5) . . ?
C17 C16 C19 106.9(6) . . ?
C18 C16 C19 107.3(6) . . ?
C12 C16 C19 112.5(5) . . ?
C21 C20 C2