
#######################################################################
#
#                 Cambridge Crystallographic Data Centre
#                                CCDC
#
#######################################################################
#
# If this CIF has been generated from an entry in the Cambridge
# Structural Database, then it will include bibliographic, chemical,
# crystal, experimental, refinement or atomic coordinate data resulting
# from the CCDC's data processing and validation procedures.
#
#######################################################################

data_CSD_CIF_ELIGIP
_audit_creation_date 2004-01-09
_audit_creation_method CSD-ConQuest-V1
_database_code_CSD ELIGIP
_database_code_depnum_ccdc_archive 'CCDC 225785'
_chemical_formula_sum 'C7 H10 O5'
_chemical_formula_moiety
;
C7 H10 O5
;
_journal_coeditor_code "IUCr CV6218"
_journal_coden_Cambridge 1370
_journal_volume 59
_journal_year 2003
_journal_page_first o1551
_journal_name_full 'Acta Crystallogr.,Sect.E:Struct.Rep.Online '
loop_
_publ_author_name
"K.Blann"
"D.B.G.Williams"
"A.Roodt"
"A.Muller"
_chemical_name_systematic
;
(1R*,5R*,6S*,7R*)-6,7-Dihydroxy-1-hydroxymethyl-2-oxa-bicyclo(3.2.0) 
heptan-3-one
;
_cell_volume    613.627
_exptl_crystal_colour 'colorless'
_exptl_crystal_density_diffrn 1.414
_exptl_crystal_description 'cuboid'
_exptl_crystal_preparation 'water'
_diffrn_ambient_temperature 293
#These two values have been output from a single CSD field.
_refine_ls_R_factor_gt 0.0347
_refine_ls_wR_factor_gt 0.0347
_symmetry_cell_setting hexagonal
_symmetry_space_group_name_H-M 'P 31'
_symmetry_Int_Tables_number 144
loop_
_symmetry_equiv_pos_site_id
_symmetry_equiv_pos_as_xyz
1 x,y,z
2 -y,x-y,1/3+z
3 -x+y,-x,-1/3+z
_cell_length_a 11.532(5)
_cell_length_b 11.532(5)
_cell_length_c 5.328(5)
_cell_angle_alpha 90
_cell_angle_beta 90
_cell_angle_gamma 120
_cell_formula_units_Z 3
loop_
_atom_type_symbol
_atom_type_radius_bond
C 0.68
H 0.23
O 0.68
loop_
_atom_site_label
_atom_site_type_symbol
_atom_site_fract_x
_atom_site_fract_y
_atom_site_fract_z
O1 O 1.0050(2) 0.45504(18) 0.1634(3)
O2 O 0.9692(2) 0.1223(2) 0.6143(3)
O3 O 1.0261(2) 0.1584(2) 0.1071(4)
O4 O 1.2491(2) 0.5562(3) 0.4200(5)
C1 C 0.9689(3) 0.3293(3) 0.5463(5)
H1 H 1.02940 0.35600 0.69090
C2 C 1.0420(3) 0.3670(3) 0.2913(5)
C3 C 0.9579(3) 0.2202(3) 0.2074(5)
H2 H 0.88550 0.20860 0.09500
C4 C 0.9058(3) 0.1804(3) 0.4784(5)
H3 H 0.80790 0.13050 0.49120
O5 O 0.8645(3) 0.5322(3) 0.2175(5)
C5 C 0.9122(3) 0.4682(3) 0.2979(6)
C6 C 1.1914(3) 0.4313(3) 0.2899(6)
H4 H 1.21780 0.37270 0.37060
H5 H 1.22370 0.44600 0.11820
C7 C 0.8821(4) 0.3942(4) 0.5409(6)
H6 H 0.78800 0.32670 0.55030
H7 H 0.90350 0.45530 0.68110
H8 H 1.006(3) 0.146(3) -0.047(7)
H9 H 0.925(5) 0.032(4) 0.567(8)
H10 H 1.255(5) 0.621(6) 0.306(9)
#END
