####################################################################### 
# 
# This file contains crystal structure data downloaded from the 
# Cambridge Structural Database (CSD) hosted by the Cambridge 
# Crystallographic Data Centre (CCDC).
# 
# Full information about CCDC data access policies and citation 
# guidelines are available at http://www.ccdc.cam.ac.uk/access/V1 
# 
# Audit and citation data items may have been added by the CCDC. 
# Please retain this information to preserve the provenance of 
# this file and to allow appropriate attribution of the data. 
# 
#######################################################################

data_1
_audit_block_doi                 10.5517/ccshgh6
_database_code_depnum_ccdc_archive 'CCDC 729848'
loop_
_citation_id
_citation_doi
_citation_year
1 10.1007/s10870-010-9916-2 2011
_audit_update_record             
;
2009-04-28 deposited with the CCDC.	2024-07-10 downloaded from the CCDC.
;

_audit_creation_method           SHELXL-97
_chemical_name_systematic        
;
?
;
_chemical_name_common            ?
_chemical_melting_point          ?
_chemical_formula_moiety         (H2NMe2)4[Zn(hip)2](SO4)
_chemical_formula_sum            'C24 H40 N4 O14 S Zn'
_chemical_formula_weight         706.03

loop_
_atom_type_symbol
_atom_type_description
_atom_type_scat_dispersion_real
_atom_type_scat_dispersion_imag
_atom_type_scat_source
C C 0.0033 0.0016 'International Tables Vol C Tables 4.2.6.8 and 6.1.1.4'
H H 0.0000 0.0000 'International Tables Vol C Tables 4.2.6.8 and 6.1.1.4'
N N 0.0061 0.0033 'International Tables Vol C Tables 4.2.6.8 and 6.1.1.4'
O O 0.0106 0.0060 'International Tables Vol C Tables 4.2.6.8 and 6.1.1.4'
S S 0.1246 0.1234 'International Tables Vol C Tables 4.2.6.8 and 6.1.1.4'
Zn Zn 0.2839 1.4301 'International Tables Vol C Tables 4.2.6.8 and 6.1.1.4'

_symmetry_cell_setting           Orthorhombic
_symmetry_space_group_name_H-M   P2(1)2(1)2(1)

loop_
_symmetry_equiv_pos_as_xyz
'x, y, z'
'-x+1/2, -y, z+1/2'
'-x, y+1/2, -z+1/2'
'x+1/2, -y+1/2, -z'

_cell_length_a                   14.0354(19)
_cell_length_b                   14.1131(19)
_cell_length_c                   22.598(3)
_cell_angle_alpha                90.00
_cell_angle_beta                 90.00
_cell_angle_gamma                90.00
_cell_volume                     4476.3(10)
_cell_formula_units_Z            4
_cell_measurement_temperature    153(2)
_cell_measurement_reflns_used    97
_cell_measurement_theta_min      ?
_cell_measurement_theta_max      ?

_exptl_crystal_description       block
_exptl_crystal_colour            colorless
_exptl_crystal_size_max          0.25
_exptl_crystal_size_mid          0.20
_exptl_crystal_size_min          0.20
_exptl_crystal_density_meas      ?
_exptl_crystal_density_diffrn    1.048
_exptl_crystal_density_method    'not measured'
_exptl_crystal_F_000             1480
_exptl_absorpt_coefficient_mu    0.646
_exptl_absorpt_correction_type   'multi scan'
_exptl_absorpt_correction_T_min  0.8552
_exptl_absorpt_correction_T_max  0.8817
_exptl_absorpt_process_details   'Bruker SADABS'

_exptl_special_details           
;
?
;

_diffrn_ambient_temperature      153(2)
_diffrn_radiation_wavelength     0.71073
_diffrn_radiation_type           MoK\a
_diffrn_radiation_source         'fine-focus sealed tube'
_diffrn_radiation_monochromator  graphite
_diffrn_measurement_device_type  'SMART CCD'
_diffrn_measurement_method       'omega scan'
_diffrn_detector_area_resol_mean ?
_diffrn_standards_number         ?
_diffrn_standards_interval_count ?
_diffrn_standards_interval_time  ?
_diffrn_standards_decay_%        ?
_diffrn_reflns_number            27011
_diffrn_reflns_av_R_equivalents  0.0450
_diffrn_reflns_av_sigmaI/netI    0.0533
_diffrn_reflns_limit_h_min       -18
_diffrn_reflns_limit_h_max       18
_diffrn_reflns_limit_k_min       -11
_diffrn_reflns_limit_k_max       18
_diffrn_reflns_limit_l_min       -29
_diffrn_reflns_limit_l_max       27
_diffrn_reflns_theta_min         1.70
_diffrn_reflns_theta_max         28.33
_reflns_number_total             10556
_reflns_number_gt                9224
_reflns_threshold_expression     >2sigma(I)

_computing_data_collection       'Bruker SMART'
_computing_cell_refinement       'Bruker SAINT'
_computing_data_reduction        'Bruker SAINT'
_computing_structure_solution    'SHELXS-97 (Sheldrick, 1990)'
_computing_structure_refinement  'SHELXL-97 (Sheldrick, 1997)'
_computing_molecular_graphics    'Diamond 3.0'
_computing_publication_material  WORD

_refine_special_details          
;
Refinement of F^2^ against ALL reflections. The weighted R-factor wR and
goodness of fit S are based on F^2^, conventional R-factors R are based
on F, with F set to zero for negative F^2^. The threshold expression of
F^2^ > 2sigma(F^2^) is used only for calculating R-factors(gt) etc. and is
not relevant to the choice of reflections for refinement. R-factors based
on F^2^ are statistically about twice as large as those based on F, and R-
factors based on ALL data will be even larger.
;

_refine_ls_structure_factor_coef Fsqd
_refine_ls_matrix_type           full
_refine_ls_weighting_scheme      calc
_refine_ls_weighting_details     
'calc w=1/[\s^2^(Fo^2^)+(0.0450P)^2^+0.3287P] where P=(Fo^2^+2Fc^2^)/3'
_atom_sites_solution_primary     direct
_atom_sites_solution_secondary   difmap
_atom_sites_solution_hydrogens   geom
_refine_ls_hydrogen_treatment    mixed
_refine_ls_extinction_method     none
_refine_ls_extinction_coef       ?
_refine_ls_abs_structure_details 'Flack H D (1983), Acta Cryst. A39, 876-881'
_refine_ls_abs_structure_Flack   0.065(10)
_refine_ls_number_reflns         10556
_refine_ls_number_parameters     400
_refine_ls_number_restraints     0
_refine_ls_R_factor_all          0.0480
_refine_ls_R_factor_gt           0.0409
_refine_ls_wR_factor_ref         0.0946
_refine_ls_wR_factor_gt          0.0926
_refine_ls_goodness_of_fit_ref   1.072
_refine_ls_restrained_S_all      1.072
_refine_ls_shift/su_max          0.001
_refine_ls_shift/su_mean         0.000

loop_
_atom_site_label
_atom_site_type_symbol
_atom_site_fract_x
_atom_site_fract_y
_atom_site_fract_z
_atom_site_U_iso_or_equiv
_atom_site_adp_type
_atom_site_occupancy
_atom_site_symmetry_multiplicity
_atom_site_calc_flag
_atom_site_refinement_flags
_atom_site_disorder_assembly
_atom_site_disorder_group
Zn1 Zn 0.755308(15) 0.498546(19) 0.245693(9) 0.01380(6) Uani 1 1 d . . .
O1 O 0.84360(11) 0.57331(12) 0.29506(7) 0.0202(4) Uani 1 1 d . . .
O2 O 0.92245(13) 0.63722(14) 0.21930(7) 0.0263(4) Uani 1 1 d . . .
O3 O 0.68771(11) 0.42806(13) 0.31104(7) 0.0212(4) Uani 1 1 d . . .
O4 O 0.63054(14) 0.37255(16) 0.22686(8) 0.0349(5) Uani 1 1 d . . .
O5 O 0.68323(12) 0.57859(13) 0.19080(7) 0.0219(4) Uani 1 1 d . . .
O6 O 0.62831(14) 0.63983(16) 0.27523(8) 0.0315(5) Uani 1 1 d . . .
O7 O 0.85014(12) 0.39802(13) 0.22626(7) 0.0222(4) Uani 1 1 d . . .
O8 O 0.80354(12) 0.41360(13) 0.13284(7) 0.0255(4) Uani 1 1 d . . .
O9 O 1.03926(15) 0.64456(16) 0.47428(7) 0.0373(5) Uani 1 1 d . . .
H9O H 1.0117 0.5918 0.4764 0.056 Uiso 1 1 calc R . .
O10 O 0.51661(13) 0.24077(14) 0.46736(7) 0.0284(4) Uani 1 1 d . . .
H10O H 0.4697 0.2115 0.4814 0.080(14) Uiso 1 1 calc R . .
S1 S 0.35475(4) 0.05698(4) 0.51616(2) 0.01791(12) Uani 1 1 d . . .
O1S O 0.36101(12) 0.16116(12) 0.51284(7) 0.0243(4) Uani 1 1 d . . .
O2S O 0.29099(12) 0.01973(14) 0.47017(7) 0.0288(4) Uani 1 1 d . . .
O3S O 0.45035(11) 0.01667(13) 0.50760(7) 0.0276(4) Uani 1 1 d . . .
O4S O 0.31795(12) 0.03114(13) 0.57543(7) 0.0237(4) Uani 1 1 d . . .
C1 C 0.90990(17) 0.62177(18) 0.27269(11) 0.0203(5) Uani 1 1 d . . .
C2 C 0.97648(16) 0.66674(18) 0.31741(10) 0.0192(5) Uani 1 1 d . . .
C3 C 0.97763(17) 0.63265(19) 0.37543(11) 0.0225(5) Uani 1 1 d . . .
H3 H 0.9390 0.5801 0.3862 0.027 Uiso 1 1 calc R . .
C4 C 1.03618(19) 0.6765(2) 0.41768(10) 0.0275(6) Uani 1 1 d . . .
C5 C 1.09061(18) 0.7534(2) 0.40193(10) 0.0251(6) Uani 1 1 d . . .
H5 H 1.1289 0.7839 0.4309 0.030 Uiso 1 1 calc R . .
C6 C 1.09027(17) 0.78708(19) 0.34419(10) 0.0204(5) Uani 1 1 d . . .
C7 C 1.03411(17) 0.74325(18) 0.30173(10) 0.0203(5) Uani 1 1 d . . .
H7 H 1.0349 0.7653 0.2620 0.024 Uiso 1 1 calc R . .
C8 C 0.63199(18) 0.37469(18) 0.28212(11) 0.0199(5) Uani 1 1 d . . .
C9 C 0.56827(16) 0.30838(18) 0.31556(10) 0.0195(5) Uani 1 1 d . . .
C10 C 0.57210(16) 0.30345(18) 0.37652(10) 0.0211(5) Uani 1 1 d . . .
H10 H 0.6170 0.3408 0.3976 0.025 Uiso 1 1 calc R . .
C11 C 0.50973(16) 0.24328(18) 0.40747(10) 0.0207(5) Uani 1 1 d . . .
C12 C 0.62768(17) 0.63313(19) 0.22059(11) 0.0194(5) Uani 1 1 d . . .
C13 C 0.55888(16) 0.69407(18) 0.18549(10) 0.0181(5) Uani 1 1 d . . .
C14 C 0.49845(15) 0.75365(18) 0.21545(11) 0.0207(5) Uani 1 1 d . . .
H14 H 0.5019 0.7578 0.2574 0.025 Uiso 1 1 calc R . .
C15 C 0.55484(16) 0.68821(18) 0.12377(10) 0.0188(5) Uani 1 1 d . . .
H15 H 0.5964 0.6465 0.1032 0.023 Uiso 1 1 calc R . .
C16 C 0.84955(16) 0.37201(18) 0.17153(10) 0.0189(5) Uani 1 1 d . . .
N1 N 0.87985(16) 0.34025(18) 0.34341(9) 0.0311(6) Uani 1 1 d . . .
H1A H 0.8453 0.3821 0.3661 0.037 Uiso 1 1 calc R . .
H1B H 0.8683 0.3543 0.3043 0.037 Uiso 1 1 calc R . .
N2 N 0.39810(15) -0.09444(17) 0.39154(9) 0.0258(5) Uani 1 1 d . . .
H2A H 0.3734 -0.0537 0.4194 0.031 Uiso 1 1 calc R . .
H2B H 0.3646 -0.0859 0.3570 0.031 Uiso 1 1 calc R . .
N3 N 0.15602(15) 0.11045(17) 0.39430(8) 0.0245(5) Uani 1 1 d . . .
H3A H 0.2052 0.0683 0.3997 0.029 Uiso 1 1 calc R . .
H3B H 0.1395 0.1091 0.3549 0.029 Uiso 1 1 calc R . .
N4 N 0.69078(17) 0.6062(2) 0.39233(9) 0.0388(7) Uani 1 1 d . . .
H4A H 0.7338 0.5572 0.3939 0.047 Uiso 1 1 calc R . .
H4B H 0.6811 0.6209 0.3531 0.047 Uiso 1 1 calc R . .
C1N C 0.9838(2) 0.3540(3) 0.35592(13) 0.0444(9) Uani 1 1 d . . .
H1N1 H 0.9980 0.3326 0.3962 0.067 Uiso 1 1 calc R . .
H1N2 H 0.9999 0.4213 0.3522 0.067 Uiso 1 1 calc R . .
H1N3 H 1.0215 0.3172 0.3276 0.067 Uiso 1 1 calc R . .
C2N C 0.8465(3) 0.2437(2) 0.35559(13) 0.0459(8) Uani 1 1 d . . .
H2N1 H 0.8859 0.1983 0.3337 0.069 Uiso 1 1 calc R . .
H2N2 H 0.7799 0.2374 0.3431 0.069 Uiso 1 1 calc R . .
H2N3 H 0.8515 0.2308 0.3981 0.069 Uiso 1 1 calc R . .
C3N C 0.49940(18) -0.0703(2) 0.38117(11) 0.0340(7) Uani 1 1 d . . .
H3N1 H 0.5353 -0.0780 0.4181 0.051 Uiso 1 1 calc R . .
H3N2 H 0.5042 -0.0045 0.3677 0.051 Uiso 1 1 calc R . .
H3N3 H 0.5258 -0.1126 0.3509 0.051 Uiso 1 1 calc R . .
C4N C 0.3848(2) -0.1926(2) 0.41201(13) 0.0381(7) Uani 1 1 d . . .
H4N1 H 0.4122 -0.2364 0.3829 0.057 Uiso 1 1 calc R . .
H4N2 H 0.3167 -0.2057 0.4165 0.057 Uiso 1 1 calc R . .
H4N3 H 0.4169 -0.2011 0.4502 0.057 Uiso 1 1 calc R . .
C5N C 0.1896(2) 0.2062(2) 0.40929(13) 0.0362(7) Uani 1 1 d . . .
H5N1 H 0.1352 0.2496 0.4109 0.054 Uiso 1 1 calc R . .
H5N2 H 0.2346 0.2279 0.3790 0.054 Uiso 1 1 calc R . .
H5N3 H 0.2214 0.2049 0.4479 0.054 Uiso 1 1 calc R . .
C6N C 0.0736(2) 0.0794(3) 0.42996(13) 0.0410(8) Uani 1 1 d . . .
H6N1 H 0.0782 0.1065 0.4698 0.062 Uiso 1 1 calc R . .
H6N2 H 0.0733 0.0101 0.4326 0.062 Uiso 1 1 calc R . .
H6N3 H 0.0145 0.1009 0.4111 0.062 Uiso 1 1 calc R . .
C7N C 0.5996(3) 0.5743(3) 0.41836(17) 0.0581(10) Uani 1 1 d . . .
H7N1 H 0.6088 0.5602 0.4604 0.087 Uiso 1 1 calc R . .
H7N2 H 0.5777 0.5171 0.3978 0.087 Uiso 1 1 calc R . .
H7N3 H 0.5517 0.6245 0.4140 0.087 Uiso 1 1 calc R . .
C8N C 0.7306(3) 0.6865(3) 0.4213(2) 0.0723(12) Uani 1 1 d . . .
H8N1 H 0.6890 0.7415 0.4154 0.108 Uiso 1 1 calc R . .
H8N2 H 0.7937 0.7000 0.4047 0.108 Uiso 1 1 calc R . .
H8N3 H 0.7366 0.6734 0.4637 0.108 Uiso 1 1 calc R . .

loop_
_atom_site_aniso_label
_atom_site_aniso_U_11
_atom_site_aniso_U_22
_atom_site_aniso_U_33
_atom_site_aniso_U_23
_atom_site_aniso_U_13
_atom_site_aniso_U_12
Zn1 0.01213(10) 0.01438(11) 0.01487(11) 0.00135(11) -0.00094(9) 0.00036(11)
O1 0.0164(8) 0.0231(10) 0.0213(8) 0.0002(7) -0.0039(6) -0.0065(7)
O2 0.0312(10) 0.0335(11) 0.0142(8) -0.0008(7) -0.0025(7) -0.0122(9)
O3 0.0194(8) 0.0206(10) 0.0235(8) 0.0037(7) 0.0003(7) -0.0069(7)
O4 0.0353(12) 0.0514(15) 0.0181(9) 0.0097(9) -0.0027(8) -0.0222(11)
O5 0.0206(8) 0.0254(10) 0.0196(8) 0.0035(7) -0.0005(7) 0.0052(7)
O6 0.0355(12) 0.0434(13) 0.0158(8) 0.0070(8) -0.0019(7) 0.0166(10)
O7 0.0244(8) 0.0199(9) 0.0221(8) -0.0033(7) -0.0026(7) 0.0115(8)
O8 0.0256(9) 0.0250(11) 0.0260(9) 0.0043(8) -0.0001(7) 0.0093(8)
O9 0.0502(12) 0.0455(13) 0.0164(9) 0.0088(8) -0.0069(8) -0.0259(10)
O10 0.0329(10) 0.0384(12) 0.0141(8) 0.0032(7) -0.0038(7) -0.0180(9)
S1 0.0188(3) 0.0207(3) 0.0142(2) 0.0020(2) -0.0003(2) -0.0008(2)
O1S 0.0284(9) 0.0226(9) 0.0219(8) 0.0030(7) 0.0057(7) -0.0016(8)
O2S 0.0319(9) 0.0319(12) 0.0226(9) -0.0015(7) -0.0076(7) 0.0013(8)
O3S 0.0234(8) 0.0308(11) 0.0286(9) 0.0041(8) 0.0031(7) 0.0041(7)
O4S 0.0267(9) 0.0264(10) 0.0180(8) 0.0027(7) 0.0038(7) -0.0070(7)
C1 0.0214(12) 0.0164(13) 0.0231(12) -0.0014(10) -0.0042(9) -0.0002(10)
C2 0.0175(11) 0.0218(13) 0.0182(11) -0.0031(10) 0.0013(9) -0.0022(10)
C3 0.0228(12) 0.0229(14) 0.0218(11) 0.0026(10) -0.0003(10) -0.0074(10)
C4 0.0298(13) 0.0357(16) 0.0168(11) 0.0024(11) -0.0024(10) -0.0058(12)
C5 0.0250(12) 0.0322(16) 0.0181(11) -0.0010(11) -0.0058(9) -0.0100(12)
C6 0.0203(11) 0.0204(14) 0.0205(11) -0.0010(10) 0.0048(9) -0.0044(10)
C7 0.0232(11) 0.0214(13) 0.0163(11) 0.0039(10) -0.0009(9) -0.0046(10)
C8 0.0180(12) 0.0172(13) 0.0243(12) 0.0037(10) 0.0000(9) -0.0062(10)
C9 0.0184(11) 0.0218(13) 0.0184(11) 0.0013(10) 0.0003(9) -0.0069(10)
C10 0.0181(11) 0.0232(14) 0.0220(11) 0.0021(10) -0.0054(9) -0.0082(10)
C11 0.0228(12) 0.0226(14) 0.0167(11) 0.0013(9) 0.0017(9) -0.0023(11)
C12 0.0155(12) 0.0186(13) 0.0240(12) 0.0070(10) -0.0020(9) 0.0071(10)
C13 0.0189(11) 0.0185(13) 0.0168(11) 0.0012(9) 0.0012(9) 0.0046(10)
C14 0.0180(11) 0.0275(14) 0.0166(11) 0.0015(10) -0.0022(9) 0.0054(10)
C15 0.0172(11) 0.0202(13) 0.0191(11) 0.0015(10) 0.0006(9) 0.0037(10)
C16 0.0162(10) 0.0199(13) 0.0205(11) 0.0013(9) -0.0004(9) 0.0021(10)
N1 0.0329(12) 0.0396(15) 0.0206(10) -0.0043(10) -0.0046(9) 0.0176(11)
N2 0.0269(11) 0.0353(14) 0.0153(9) -0.0033(9) -0.0025(8) 0.0037(10)
N3 0.0221(10) 0.0323(13) 0.0190(9) 0.0000(9) -0.0019(8) 0.0098(10)
N4 0.0430(14) 0.0550(18) 0.0183(10) 0.0045(11) 0.0022(10) 0.0304(14)
C1N 0.0310(15) 0.070(3) 0.0326(16) -0.0165(15) -0.0078(12) 0.0218(16)
C2N 0.070(2) 0.0338(19) 0.0336(15) -0.0032(13) 0.0011(15) 0.0130(18)
C3N 0.0299(14) 0.049(2) 0.0230(13) 0.0006(13) 0.0017(11) 0.0036(13)
C4N 0.0400(16) 0.0353(18) 0.0391(16) 0.0051(14) -0.0057(13) 0.0016(14)
C5N 0.0377(15) 0.0344(17) 0.0366(15) -0.0058(13) -0.0111(12) 0.0121(14)
C6N 0.0330(15) 0.056(2) 0.0344(15) 0.0042(15) 0.0070(12) 0.0096(15)
C7N 0.047(2) 0.061(3) 0.067(2) -0.007(2) 0.0081(18) 0.0186(19)
C8N 0.055(2) 0.038(2) 0.124(4) -0.018(2) 0.006(2) 0.0127(19)

_geom_special_details            
;
All esds (except the esd in the dihedral angle between two l.s. planes)
are estimated using the full covariance matrix. The cell esds are taken
into account individually in the estimation of esds in distances, angles
and torsion angles; correlations between esds in cell parameters are only
used when they are defined by crystal symmetry. An approximate (isotropic)
treatment of cell esds is used for estimating esds involving l.s. planes.
;

loop_
_geom_bond_atom_site_label_1
_geom_bond_atom_site_label_2
_geom_bond_distance
_geom_bond_site_symmetry_2
_geom_bond_publ_flag
Zn1 O5 1.9591(16) . ?
Zn1 O1 1.9732(16) . ?
Zn1 O7 1.9943(17) . ?
Zn1 O3 2.0176(16) . ?
Zn1 C8 2.594(2) . ?
O1 C1 1.261(3) . ?
O2 C1 1.239(3) . ?
O3 C8 1.267(3) . ?
O4 C8 1.249(3) . ?
O5 C12 1.286(3) . ?
O6 C12 1.238(3) . ?
O7 C16 1.290(3) . ?
O8 C16 1.235(3) . ?
O9 C4 1.357(3) . ?
O10 C11 1.357(3) . ?
S1 O2S 1.4687(17) . ?
S1 O3S 1.4702(17) . ?
S1 O1S 1.4748(18) . ?
S1 O4S 1.4813(16) . ?
C1 C2 1.516(3) . ?
C2 C7 1.395(3) . ?
C2 C3 1.397(3) . ?
C3 C4 1.403(3) . ?
C4 C5 1.374(4) . ?
C5 C6 1.389(3) . ?
C6 C7 1.387(3) . ?
C6 C16 1.509(3) 3_755 ?
C8 C9 1.499(3) . ?
C9 C10 1.380(3) . ?
C9 C14 1.402(3) 3_645 ?
C10 C11 1.406(3) . ?
C11 C15 1.387(3) 3_645 ?
C12 C13 1.517(3) . ?
C13 C14 1.373(3) . ?
C13 C15 1.398(3) . ?
C14 C9 1.402(3) 3_655 ?
C15 C11 1.387(3) 3_655 ?
C16 C6 1.509(3) 3_745 ?
N1 C2N 1.467(4) . ?
N1 C1N 1.498(4) . ?
N2 C4N 1.472(4) . ?
N2 C3N 1.481(3) . ?
N3 C5N 1.471(4) . ?
N3 C6N 1.477(3) . ?
N4 C8N 1.423(5) . ?
N4 C7N 1.479(4) . ?

loop_
_geom_angle_atom_site_label_1
_geom_angle_atom_site_label_2
_geom_angle_atom_site_label_3
_geom_angle
_geom_angle_site_symmetry_1
_geom_angle_site_symmetry_3
_geom_angle_publ_flag
O5 Zn1 O1 111.96(8) . . ?
O5 Zn1 O7 127.98(6) . . ?
O1 Zn1 O7 94.92(7) . . ?
O5 Zn1 O3 120.32(7) . . ?
O1 Zn1 O3 98.35(7) . . ?
O7 Zn1 O3 97.14(7) . . ?
O5 Zn1 C8 104.18(8) . . ?
O1 Zn1 C8 126.87(7) . . ?
O7 Zn1 C8 92.06(8) . . ?
O3 Zn1 C8 28.56(7) . . ?
C1 O1 Zn1 121.80(15) . . ?
C8 O3 Zn1 101.87(15) . . ?
C12 O5 Zn1 109.07(14) . . ?
C16 O7 Zn1 114.16(15) . . ?
O2S S1 O3S 108.93(11) . . ?
O2S S1 O1S 110.92(11) . . ?
O3S S1 O1S 108.95(10) . . ?
O2S S1 O4S 109.83(10) . . ?
O3S S1 O4S 110.00(10) . . ?
O1S S1 O4S 108.20(10) . . ?
O2 C1 O1 126.2(2) . . ?
O2 C1 C2 119.2(2) . . ?
O1 C1 C2 114.5(2) . . ?
C7 C2 C3 119.9(2) . . ?
C7 C2 C1 120.8(2) . . ?
C3 C2 C1 119.3(2) . . ?
C2 C3 C4 119.6(2) . . ?
O9 C4 C5 119.3(2) . . ?
O9 C4 C3 120.9(2) . . ?
C5 C4 C3 119.8(2) . . ?
C4 C5 C6 120.8(2) . . ?
C7 C