####################################################################### 
# 
# This file contains crystal structure data downloaded from the 
# Cambridge Structural Database (CSD) hosted by the Cambridge 
# Crystallographic Data Centre (CCDC).
# 
# Full information about CCDC data access policies and citation 
# guidelines are available at http://www.ccdc.cam.ac.uk/access/V1 
# 
# Audit and citation data items may have been added by the CCDC. 
# Please retain this information to preserve the provenance of 
# this file and to allow appropriate attribution of the data. 
# 
#######################################################################

data_SCIF-1
_audit_block_doi                 10.5517/ccvpqz6
_database_code_depnum_ccdc_archive 'CCDC 795459'
loop_
_citation_id
_citation_doi
_citation_year
1 10.1002/anie.201006531 2011
_audit_update_record             
;
2010-10-02 deposited with the CCDC.	2024-07-10 downloaded from the CCDC.
;
#TrackingRef 'SCIF-1.cif'


_audit_creation_method           SHELXL-97
_chemical_name_systematic        
;
?
;
_chemical_name_common            ?
_chemical_melting_point          ?
_chemical_formula_moiety         ?
_chemical_formula_sum            'C42 H74 In10 N12 S16'
_chemical_formula_weight         2408.29

loop_
_atom_type_symbol
_atom_type_description
_atom_type_scat_dispersion_real
_atom_type_scat_dispersion_imag
_atom_type_scat_source
C C 0.0033 0.0016 'International Tables Vol C Tables 4.2.6.8 and 6.1.1.4'
H H 0.0000 0.0000 'International Tables Vol C Tables 4.2.6.8 and 6.1.1.4'
N N 0.0061 0.0033 'International Tables Vol C Tables 4.2.6.8 and 6.1.1.4'
S S 0.1246 0.1234 'International Tables Vol C Tables 4.2.6.8 and 6.1.1.4'
In In -0.7276 1.3100 'International Tables Vol C Tables 4.2.6.8 and 6.1.1.4'

_symmetry_cell_setting           Orthorhombic
_symmetry_space_group_name_H-M   Pbca

loop_
_symmetry_equiv_pos_as_xyz
'x, y, z'
'-x+1/2, -y, z+1/2'
'-x, y+1/2, -z+1/2'
'x+1/2, -y+1/2, -z'
'-x, -y, -z'
'x-1/2, y, -z-1/2'
'x, -y-1/2, z-1/2'
'-x-1/2, y-1/2, z'

_cell_length_a                   22.5121(6)
_cell_length_b                   22.6610(6)
_cell_length_c                   33.3409(10)
_cell_angle_alpha                90.00
_cell_angle_beta                 90.00
_cell_angle_gamma                90.00
_cell_volume                     17008.8(8)
_cell_formula_units_Z            8
_cell_measurement_temperature    150(2)
_cell_measurement_reflns_used    ?
_cell_measurement_theta_min      ?
_cell_measurement_theta_max      ?

_exptl_crystal_description       ?
_exptl_crystal_colour            ?
_exptl_crystal_size_max          ?
_exptl_crystal_size_mid          ?
_exptl_crystal_size_min          ?
_exptl_crystal_density_meas      ?
_exptl_crystal_density_diffrn    1.881
_exptl_crystal_density_method    'not measured'
_exptl_crystal_F_000             9248
_exptl_absorpt_coefficient_mu    3.084
_exptl_absorpt_correction_type   ?
_exptl_absorpt_correction_T_min  ?
_exptl_absorpt_correction_T_max  ?
_exptl_absorpt_process_details   ?

_exptl_special_details           
;
?
;

_diffrn_ambient_temperature      150(2)
_diffrn_radiation_wavelength     0.71073
_diffrn_radiation_type           MoK\a
_diffrn_radiation_source         'fine-focus sealed tube'
_diffrn_radiation_monochromator  graphite
_diffrn_measurement_device_type  ?
_diffrn_measurement_method       ?
_diffrn_detector_area_resol_mean ?
_diffrn_standards_number         ?
_diffrn_standards_interval_count ?
_diffrn_standards_interval_time  ?
_diffrn_standards_decay_%        ?
_diffrn_reflns_number            49092
_diffrn_reflns_av_R_equivalents  0.0712
_diffrn_reflns_av_sigmaI/netI    0.0661
_diffrn_reflns_limit_h_min       -23
_diffrn_reflns_limit_h_max       23
_diffrn_reflns_limit_k_min       -22
_diffrn_reflns_limit_k_max       23
_diffrn_reflns_limit_l_min       -34
_diffrn_reflns_limit_l_max       31
_diffrn_reflns_theta_min         1.22
_diffrn_reflns_theta_max         21.60
_reflns_number_total             9884
_reflns_number_gt                6355
_reflns_threshold_expression     >2sigma(I)

_computing_data_collection       ?
_computing_cell_refinement       ?
_computing_data_reduction        ?
_computing_structure_solution    'SHELXS-97 (Sheldrick, 1990)'
_computing_structure_refinement  'SHELXL-97 (Sheldrick, 1997)'
_computing_molecular_graphics    ?
_computing_publication_material  ?

_refine_special_details          
;
Refinement of F^2^ against ALL reflections. The weighted R-factor wR and
goodness of fit S are based on F^2^, conventional R-factors R are based
on F, with F set to zero for negative F^2^. The threshold expression of
F^2^ > 2sigma(F^2^) is used only for calculating R-factors(gt) etc. and is
not relevant to the choice of reflections for refinement. R-factors based
on F^2^ are statistically about twice as large as those based on F, and R-
factors based on ALL data will be even larger.
;

_refine_ls_structure_factor_coef Fsqd
_refine_ls_matrix_type           full
_refine_ls_weighting_scheme      calc
_refine_ls_weighting_details     
'calc w=1/[\s^2^(Fo^2^)+(0.0872P)^2^+122.2886P] where P=(Fo^2^+2Fc^2^)/3'
_atom_sites_solution_primary     direct
_atom_sites_solution_secondary   difmap
_atom_sites_solution_hydrogens   geom
_refine_ls_hydrogen_treatment    mixed
_refine_ls_extinction_method     none
_refine_ls_extinction_coef       ?
_refine_ls_number_reflns         9884
_refine_ls_number_parameters     501
_refine_ls_number_restraints     0
_refine_ls_R_factor_all          0.0979
_refine_ls_R_factor_gt           0.0521
_refine_ls_wR_factor_ref         0.1776
_refine_ls_wR_factor_gt          0.1494
_refine_ls_goodness_of_fit_ref   1.055
_refine_ls_restrained_S_all      1.055
_refine_ls_shift/su_max          0.065
_refine_ls_shift/su_mean         0.002

loop_
_atom_site_label
_atom_site_type_symbol
_atom_site_fract_x
_atom_site_fract_y
_atom_site_fract_z
_atom_site_U_iso_or_equiv
_atom_site_adp_type
_atom_site_occupancy
_atom_site_symmetry_multiplicity
_atom_site_calc_flag
_atom_site_refinement_flags
_atom_site_disorder_assembly
_atom_site_disorder_group
In1 In 0.91361(5) 0.30102(5) 0.25550(4) 0.0498(4) Uani 1 1 d . . .
In2 In 0.82206(5) 0.23196(5) 0.33533(3) 0.0411(3) Uani 1 1 d . . .
In3 In 0.98401(5) 0.31012(5) 0.35687(4) 0.0463(3) Uani 1 1 d . . .
In4 In 0.97621(5) 0.15883(5) 0.29199(3) 0.0461(3) Uani 1 1 d . . .
In5 In 0.75270(5) 0.15495(6) 0.42251(4) 0.0507(4) Uani 1 1 d . . .
In6 In 0.89206(5) 0.23307(5) 0.44854(3) 0.0456(3) Uani 1 1 d . . .
In7 In 1.04184(5) 0.30150(6) 0.46103(4) 0.0531(4) Uani 1 1 d . . .
In8 In 0.88527(5) 0.07841(5) 0.38281(3) 0.0441(3) Uani 1 1 d . . .
In9 In 1.04437(5) 0.15772(5) 0.40710(4) 0.0467(3) Uani 1 1 d . . .
In10 In 1.03172(6) 0.02362(6) 0.34507(4) 0.0553(4) Uani 1 1 d . . .
S1 S 0.81102(19) 0.2887(2) 0.27467(14) 0.0550(12) Uani 1 1 d . . .
S2 S 0.9768(2) 0.3646(2) 0.29535(14) 0.0640(14) Uani 1 1 d . . .
S3 S 0.9642(2) 0.2137(2) 0.23043(13) 0.0592(13) Uani 1 1 d . . .
S4 S 0.72553(18) 0.2097(2) 0.36252(14) 0.0583(13) Uani 1 1 d . . .
S5 S 0.88248(18) 0.29033(19) 0.38451(13) 0.0460(11) Uani 1 1 d . . .
S6 S 1.0418(2) 0.3674(2) 0.40371(15) 0.0695(15) Uani 1 1 d . . .
S7 S 0.87450(18) 0.13698(18) 0.31970(12) 0.0436(11) Uani 1 1 d . . .
S8 S 1.03558(18) 0.21470(19) 0.34316(13) 0.0471(11) Uani 1 1 d . . .
S9 S 1.0305(2) 0.0695(2) 0.27939(14) 0.0632(14) Uani 1 1 d . . .
S10 S 0.7950(2) 0.2144(2) 0.47541(14) 0.0648(14) Uani 1 1 d . . .
S11 S 0.9488(2) 0.2898(2) 0.49613(14) 0.0587(13) Uani 1 1 d . . .
S12 S 0.7898(2) 0.0565(2) 0.41134(14) 0.0601(13) Uani 1 1 d . . .
S13 S 0.94284(19) 0.13689(19) 0.43366(13) 0.0475(11) Uani 1 1 d . . .
S14 S 1.1027(2) 0.2141(2) 0.45404(15) 0.0621(14) Uani 1 1 d . . .
S15 S 0.9355(2) -0.0130(2) 0.36723(14) 0.0606(13) Uani 1 1 d . . .
S16 S 1.0955(2) 0.0660(2) 0.39586(15) 0.0661(14) Uani 1 1 d . . .
N1 N 0.5939(6) 0.1525(6) 0.4937(5) 0.059(4) Uani 1 1 d . . .
N2 N 0.6683(6) 0.1379(7) 0.4512(4) 0.056(4) Uani 1 1 d . . .
N3 N 0.9021(7) 0.3617(6) 0.2052(4) 0.058(4) Uani 1 1 d . . .
N4 N 0.9213(6) 0.4423(6) 0.1703(4) 0.057(4) Uani 1 1 d . . .
N11 N 0.8568(15) 0.8879(15) 0.2267(11) 0.188(12) Uiso 1 1 d . . .
N12 N 0.8820(19) 0.951(2) 0.2718(13) 0.248(18) Uiso 1 1 d . . .
N21 N 0.592(2) 0.186(3) 0.9293(17) 0.31(2) Uiso 1 1 d . . .
N22 N 0.6203(18) 0.0867(17) 0.9674(11) 0.236(15) Uiso 1 1 d . . .
N31 N 0.739(4) 0.166(4) 0.142(3) 0.48(5) Uiso 1 1 d . . .
N32 N 0.8087(18) 0.1523(18) 0.2033(13) 0.237(16) Uiso 1 1 d . . .
N41 N 0.1167(16) 0.0445(16) 0.1773(10) 0.192(12) Uiso 1 1 d . . .
N42 N 0.033(3) 0.037(3) 0.116(2) 0.44(4) Uiso 1 1 d . . .
C1 C 0.6290(12) 0.0921(12) 0.4490(8) 0.152(14) Uani 1 1 d . . .
H1 H 0.6329 0.0593 0.4314 0.182 Uiso 1 1 calc R . .
C2 C 0.8533(9) 0.3758(9) 0.1848(6) 0.083(7) Uani 1 1 d . . .
H2 H 0.8170 0.3543 0.1849 0.100 Uiso 1 1 calc R . .
C3 C 0.5829(12) 0.0997(12) 0.4759(8) 0.151(14) Uani 1 1 d . . .
H3 H 0.5506 0.0738 0.4809 0.181 Uiso 1 1 calc R . .
C4 C 0.6437(7) 0.1727(8) 0.4771(6) 0.052(5) Uani 1 1 d . . .
H4 H 0.6600 0.2100 0.4838 0.063 Uiso 1 1 calc R . .
C5 C 0.8642(9) 0.4257(10) 0.1639(7) 0.092(8) Uani 1 1 d . . .
H5 H 0.8364 0.4459 0.1475 0.110 Uiso 1 1 calc R . .
C6 C 0.9407(8) 0.4035(9) 0.1964(5) 0.065(6) Uani 1 1 d . . .
H6 H 0.9792 0.4054 0.2080 0.078 Uiso 1 1 calc R . .
C11 C 0.817(3) 0.844(3) 0.2111(16) 0.26(2) Uiso 1 1 d . . .
C12 C 0.8524(17) 0.7921(18) 0.2208(12) 0.176(14) Uiso 1 1 d . . .
C13 C 0.8623(16) 0.7702(16) 0.2645(12) 0.174(14) Uiso 1 1 d . . .
C14 C 0.8855(18) 0.813(2) 0.2924(13) 0.190(15) Uiso 1 1 d . . .
C15 C 0.851(2) 0.858(2) 0.3055(15) 0.229(19) Uiso 1 1 d . . .
C16 C 0.867(2) 0.899(3) 0.2708(18) 0.22(2) Uiso 1 1 d . . .
C17 C 0.8876(17) 1.0017(19) 0.2496(14) 0.175(14) Uiso 1 1 d . . .
C18 C 0.896(2) 0.994(3) 0.2088(19) 0.27(2) Uiso 1 1 d . . .
C19 C 0.8544(17) 0.9283(18) 0.1885(12) 0.182(14) Uiso 1 1 d . . .
C21 C 0.561(2) 0.232(2) 0.9089(15) 0.23(2) Uiso 1 1 d . . .
C22 C 0.5141(17) 0.1992(16) 0.8838(11) 0.172(13) Uiso 1 1 d . . .
C23 C 0.4544(18) 0.1720(18) 0.9070(12) 0.190(15) Uiso 1 1 d . . .
C24 C 0.4697(18) 0.1235(19) 0.9395(13) 0.199(16) Uiso 1 1 d . . .
C25 C 0.5221(15) 0.1287(13) 0.9654(9) 0.137(10) Uiso 1 1 d . . .
C26 C 0.5824(16) 0.1391(17) 0.9544(11) 0.154(12) Uiso 1 1 d . . .
C27 C 0.692(4) 0.093(3) 0.974(2) 0.39(4) Uiso 1 1 d . . .
C28 C 0.707(2) 0.138(2) 0.9286(16) 0.25(2) Uiso 1 1 d . . .
C29 C 0.6587(19) 0.1845(18) 0.9128(12) 0.186(15) Uiso 1 1 d . . .
C31 C 0.753(3) 0.160(3) 0.075(2) 0.34(3) Uiso 1 1 d . . .
C32 C 0.734(3) -0.073(3) 0.054(2) 0.38(4) Uiso 1 1 d . . .
C33 C 0.740(3) 0.219(3) 0.100(2) 0.37(4) Uiso 1 1 d . . .
C34 C 0.829(3) 0.196(3) 0.080(2) 0.31(3) Uiso 1 1 d . . .
C35 C 0.855(2) 0.207(2) 0.1328(18) 0.28(2) Uiso 1 1 d . . .
C36 C 0.798(2) 0.182(2) 0.1678(17) 0.23(2) Uiso 1 1 d . . .
C37 C 0.746(3) 0.133(3) 0.2259(16) 0.27(2) Uiso 1 1 d . . .
C38 C 0.698(3) 0.105(3) 0.196(3) 0.34(4) Uiso 1 1 d . . .
C39 C 0.700(2) 0.130(2) 0.1620(18) 0.216(19) Uiso 1 1 d . . .
C41 C 0.172(4) -0.010(4) 0.205(2) 0.36(4) Uiso 1 1 d . . .
C42 C 0.184(3) 0.067(3) 0.1932(18) 0.31(3) Uiso 1 1 d . . .
C43 C 0.212(4) -0.030(4) 0.186(3) 0.38(4) Uiso 1 1 d . . .
C44 C 0.181(3) -0.054(3) 0.133(2) 0.32(3) Uiso 1 1 d . . .
C45 C 0.103(4) -0.019(4) 0.146(2) 0.37(4) Uiso 1 1 d . . .
C46 C 0.048(4) 0.029(4) 0.158(3) 0.39(4) Uiso 1 1 d . . .
C47 C 0.016(2) 0.101(2) 0.1466(14) 0.218(18) Uiso 1 1 d . . .
C48 C 0.071(2) 0.140(2) 0.1522(16) 0.24(2) Uiso 1 1 d . . .
C49 C 0.1029(19) 0.113(2) 0.1847(14) 0.207(17) Uiso 1 1 d . . .

loop_
_atom_site_aniso_label
_atom_site_aniso_U_11
_atom_site_aniso_U_22
_atom_site_aniso_U_33
_atom_site_aniso_U_23
_atom_site_aniso_U_13
_atom_site_aniso_U_12
In1 0.0482(8) 0.0546(8) 0.0466(8) 0.0132(6) -0.0051(6) -0.0109(6)
In2 0.0355(7) 0.0468(7) 0.0409(7) 0.0009(6) 0.0005(5) -0.0035(6)
In3 0.0435(7) 0.0490(8) 0.0463(8) 0.0050(6) -0.0084(6) -0.0078(6)
In4 0.0467(7) 0.0536(8) 0.0379(7) 0.0012(6) 0.0063(6) 0.0038(6)
In5 0.0426(7) 0.0636(9) 0.0460(8) -0.0057(6) 0.0132(6) -0.0060(7)
In6 0.0433(7) 0.0527(8) 0.0407(7) -0.0074(6) 0.0012(6) -0.0002(6)
In7 0.0507(8) 0.0574(8) 0.0512(8) -0.0040(6) -0.0167(6) -0.0015(7)
In8 0.0503(7) 0.0405(7) 0.0414(7) -0.0015(6) 0.0085(6) -0.0002(6)
In9 0.0457(7) 0.0497(8) 0.0448(8) -0.0018(6) -0.0025(6) 0.0059(6)
In10 0.0653(9) 0.0506(8) 0.0498(8) -0.0081(6) 0.0042(7) 0.0176(7)
S1 0.046(3) 0.064(3) 0.055(3) 0.017(2) -0.008(2) -0.005(2)
S2 0.068(3) 0.064(3) 0.059(3) 0.018(3) -0.019(3) -0.023(3)
S3 0.061(3) 0.076(3) 0.041(3) 0.010(2) 0.004(2) 0.002(3)
S4 0.036(3) 0.079(4) 0.060(3) 0.006(3) 0.007(2) -0.006(2)
S5 0.044(2) 0.049(3) 0.045(3) -0.003(2) -0.002(2) 0.001(2)
S6 0.078(4) 0.064(3) 0.067(3) 0.005(3) -0.027(3) -0.026(3)
S7 0.045(2) 0.046(3) 0.040(2) -0.001(2) 0.005(2) -0.002(2)
S8 0.043(3) 0.054(3) 0.045(3) 0.005(2) 0.000(2) -0.001(2)
S9 0.072(3) 0.070(3) 0.048(3) -0.006(2) 0.013(2) 0.020(3)
S10 0.057(3) 0.087(4) 0.050(3) -0.024(3) 0.014(2) -0.016(3)
S11 0.057(3) 0.072(3) 0.047(3) -0.017(2) -0.008(2) -0.004(3)
S12 0.059(3) 0.055(3) 0.067(3) 0.000(2) 0.021(3) -0.011(3)
S13 0.051(3) 0.048(3) 0.043(3) -0.001(2) 0.000(2) 0.004(2)
S14 0.052(3) 0.068(3) 0.067(3) -0.008(3) -0.019(2) 0.006(3)
S15 0.077(3) 0.045(3) 0.060(3) -0.003(2) 0.007(3) 0.011(3)
S16 0.066(3) 0.066(3) 0.067(3) -0.014(3) -0.015(3) 0.024(3)
N1 0.052(10) 0.048(10) 0.077(11) -0.010(8) 0.024(8) -0.006(8)
N2 0.046(9) 0.068(10) 0.053(10) -0.021(8) 0.013(7) -0.005(9)
N3 0.057(10) 0.068(11) 0.049(10) 0.031(8) -0.008(8) -0.021(9)
N4 0.064(11) 0.055(10) 0.052(10) 0.018(8) -0.010(8) -0.025(8)
C1 0.15(2) 0.14(2) 0.16(3) -0.12(2) 0.12(2) -0.10(2)
C2 0.056(13) 0.091(16) 0.104(17) 0.056(14) -0.025(13) -0.038(12)
C3 0.15(2) 0.13(2) 0.17(3) -0.11(2) 0.12(2) -0.08(2)
C4 0.042(11) 0.045(11) 0.070(13) -0.008(10) 0.003(10) -0.002(9)
C5 0.068(15) 0.090(17) 0.116(19) 0.053(15) -0.037(13) -0.031(13)
C6 0.058(12) 0.082(14) 0.054(12) 0.036(11) -0.015(10) -0.023(12)

_geom_special_details            
;
All esds (except the esd in the dihedral angle between two l.s. planes)
are estimated using the full covariance matrix. The cell esds are taken
into account individually in the estimation of esds in distances, angles
and torsion angles; correlations between esds in cell parameters are only
used when they are defined by crystal symmetry. An approximate (isotropic)
treatment of cell esds is used for estimating esds involving l.s. planes.
;

loop_
_geom_bond_atom_site_label_1
_geom_bond_atom_site_label_2
_geom_bond_distance
_geom_bond_site_symmetry_2
_geom_bond_publ_flag
In1 N3 2.184(13) . ?
In1 S1 2.413(4) . ?
In1 S2 2.422(5) . ?
In1 S3 2.431(5) . ?
In2 S4 2.408(4) . ?
In2 S1 2.409(4) . ?
In2 S5 2.508(4) . ?
In2 S7 2.510(4) . ?
In3 S2 2.400(5) . ?
In3 S6 2.412(5) . ?
In3 S8 2.497(4) . ?
In3 S5 2.505(4) . ?
In4 S9 2.402(5) . ?
In4 S3 2.415(5) . ?
In4 S8 2.510(4) . ?
In4 S7 2.518(4) . ?
In5 N2 2.161(13) . ?
In5 S12 2.411(5) . ?
In5 S10 2.415(5) . ?
In5 S4 2.431(5) . ?
In6 S10 2.400(5) . ?
In6 S11 2.408(4) . ?
In6 S5 2.508(4) . ?
In6 S13 2.511(4) . ?
In7 N1 2.176(14) 4_556 ?
In7 S11 2.414(5) . ?
In7 S14 2.419(5) . ?
In7 S6 2.425(5) . ?
In8 S12 2.401(4) . ?
In8 S15 2.417(5) . ?
In8 S7 2.500(4) . ?
In8 S13 2.512(4) . ?
In9 S16 2.406(5) . ?
In9 S14 2.410(5) . ?
In9 S13 2.496(4) . ?
In9 S8 2.500(4) . ?
In10 N4 2.186(13) 3_745 ?
In10 S16 2.419(5) . ?
In10 S9 2.424(5) . ?
In10 S15 2.435(5) . ?
N1 C4 1.332(19) . ?
N1 C3 1.36(2) . ?
N1 In7 2.176(13) 4_456 ?
N2 C4 1.29(2) . ?
N2 C1 1.37(2) . ?
N3 C6 1.32(2) . ?
N3 C2 1.33(2) . ?
N4 C6 1.31(2) . ?
N4 C5 1.36(2) . ?
N4 In10 2.186(13) 3_755 ?
N11 C11 1.43(5) . ?
N11 C16 1.51(5) . ?
N11 C19 1.57(4) . ?
N12 C16 1.22(6) . ?
N12 C17 1.38(5) . ?
N21 C26 1.37(6) . ?
N21 C21 1.42(6) . ?
N21 C29 1.60(5) . ?
N22 C26 1.53(4) . ?
N22 C27 1.65(7) . ?
N31 C39 1.38(9) . ?
N31 C36 1.62(8) . ?
N31 C33 1.83(10) . ?
N32 C36 1.39(5) . ?
N32 C37 1.66(6) . ?
N41 C49 1.61(5) . ?
N41 C42 1.67(6) . ?
N41 C46 1.72(9) . ?
N41 C45 1.81(8) . ?
N42 C46 1.45(10) . ?
N42 C47 1.81(8) . ?
C1 C3 1.38(3) . ?
C2 C5 1.35(2) . ?
C11 C12 1.46(5) . ?
C12 C13 1.55(5) . ?
C13 C14 1.44(5) . ?
C14 C15 1.37(5) . ?
C15 C16 1.52(6) . ?
C17 C18 1.38(6) . ?
C18 C19 1.88(6) . ?
C21 C22 1.54(5) . ?
C22 C23 1.67(5) . ?
C23 C24 1.58(5) . ?
C24 C25 1.47(4) . ?
C25 C26 1.43(4) . ?
C27 C28 1.86(8) . ?
C28 C29 1.61(5) . ?
C31 C33 1.59(9) . ?
C31 C34 1.89(8) . ?
C34 C35 1.88(7) . ?
C35 C36 1.83(6) . ?
C37 C38 1.60(7) . ?
C38 C39 1.28(7) . ?
C41 C43 1.20(10) . ?
C41 C42 1.80(9) . ?
C43 C44 1.97(9) . ?
C44 C45 1.96(9) . ?
C45 C46 1.70(10) . ?
C46 C47 1.82(10) . ?
C47 C48 1.53(6) . ?
C48 C49 1.43(5) . ?

loop_
_geom_angle_atom_site_label_1
_geom_angle_atom_site_label_2
_geom_angle_atom_site_label_3
_geom_angle
_geom_angle_site_symmetry_1
_geom_angle_site_symmetry_3
_geom_angle_publ_flag
N3 In1 S1 99.3(4) . . ?
N3 In1 S2 96.7(4) . . ?
S1 In1 S2 119.08(18) . . ?
N3 In1 S3 107.7(4) . . ?
S1 In1 S3 116.40(17) . . ?
S2 In1 S3 113.46(17) . . ?
S4 In2 S1 109.57(16) . . ?
S4 In2 S5 110.73(16) . . ?
S1 In2 S5 108.88(15) . . ?
S4 In2 S7 108.83(16) . . ?
S1 In2 S7 109.37(15) . . ?
S5 In2 S7 109.45(14) . . ?
S2 In3 S6 108.25(17) . . ?
S2 In3 S8 108.70(17) . . ?
S6 In3 S8 109.51(17) . . ?
S2 In3 S5 110.18(16) . . ?
S6 In3 S5 110.50(17) . . ?
S8 In3 S5 109.67(14) . . ?
S9 In4 S3 110.02(17) . . ?
S9 In4 S8 105.84(16) . . ?
S3 In4 S8 112.20(16) . . ?
S9 In4 S7 111.18(16) . . ?
S3 In4 S7 108.11(15) . . ?
S8 In4 S7 109.51(14) . . ?
N2 In5 S12 102.0(4) . . ?
N2 In5 S10 97.0(4) . . ?
S12 In5 S10 119.47(19) . . ?
N2 In5 S4 103.5(4) . . ?
S12 In5 S4 115.60(17) . . ?
S10 In5 S4 114.56(18) . . ?
S10 In6 S11 109.34(16) . . ?
S10 In6 S5 109.32(16) . . ?
S