####################################################################### 
# 
# This file contains crystal structure data downloaded from the 
# Cambridge Structural Database (CSD) hosted by the Cambridge 
# Crystallographic Data Centre (CCDC).
# 
# Full information about CCDC data access policies and citation 
# guidelines are available at http://www.ccdc.cam.ac.uk/access/V1 
# 
# Audit and citation data items may have been added by the CCDC. 
# Please retain this information to preserve the provenance of 
# this file and to allow appropriate attribution of the data. 
# 
#######################################################################

data_SCIF-7
_audit_block_doi                 10.5517/ccvpr5f
_database_code_depnum_ccdc_archive 'CCDC 795465'
loop_
_citation_id
_citation_doi
_citation_year
1 10.1002/anie.201006531 2011
_audit_update_record             
;
2010-10-02 deposited with the CCDC.	2024-07-10 downloaded from the CCDC.
;
#TrackingRef 'SCIF-7.cif'


_audit_creation_method           SHELXL-97
_chemical_name_systematic        
;
?
;
_chemical_name_common            ?
_chemical_melting_point          ?
_chemical_formula_moiety         ?
_chemical_formula_sum            'C38 H18 In10 N6 S16'
_chemical_formula_weight         2219.74

loop_
_atom_type_symbol
_atom_type_description
_atom_type_scat_dispersion_real
_atom_type_scat_dispersion_imag
_atom_type_scat_source
C C 0.0033 0.0016 'International Tables Vol C Tables 4.2.6.8 and 6.1.1.4'
H H 0.0000 0.0000 'International Tables Vol C Tables 4.2.6.8 and 6.1.1.4'
N N 0.0061 0.0033 'International Tables Vol C Tables 4.2.6.8 and 6.1.1.4'
S S 0.1246 0.1234 'International Tables Vol C Tables 4.2.6.8 and 6.1.1.4'
In In -0.7276 1.3100 'International Tables Vol C Tables 4.2.6.8 and 6.1.1.4'

_symmetry_cell_setting           Orthorhombic
_symmetry_space_group_name_H-M   Pbca

loop_
_symmetry_equiv_pos_as_xyz
'x, y, z'
'-x+1/2, -y, z+1/2'
'-x, y+1/2, -z+1/2'
'x+1/2, -y+1/2, -z'
'-x, -y, -z'
'x-1/2, y, -z-1/2'
'x, -y-1/2, z-1/2'
'-x-1/2, y-1/2, z'

_cell_length_a                   22.5220(3)
_cell_length_b                   22.4835(4)
_cell_length_c                   34.4841(5)
_cell_angle_alpha                90.00
_cell_angle_beta                 90.00
_cell_angle_gamma                90.00
_cell_volume                     17461.8(5)
_cell_formula_units_Z            8
_cell_measurement_temperature    150(2)
_cell_measurement_reflns_used    ?
_cell_measurement_theta_min      ?
_cell_measurement_theta_max      ?

_exptl_crystal_description       ?
_exptl_crystal_colour            ?
_exptl_crystal_size_max          ?
_exptl_crystal_size_mid          ?
_exptl_crystal_size_min          ?
_exptl_crystal_density_meas      ?
_exptl_crystal_density_diffrn    1.689
_exptl_crystal_density_method    'not measured'
_exptl_crystal_F_000             8272
_exptl_absorpt_coefficient_mu    2.995
_exptl_absorpt_correction_type   ?
_exptl_absorpt_correction_T_min  ?
_exptl_absorpt_correction_T_max  ?
_exptl_absorpt_process_details   ?

_exptl_special_details           
;
?
;

_diffrn_ambient_temperature      150(2)
_diffrn_radiation_wavelength     0.71073
_diffrn_radiation_type           MoK\a
_diffrn_radiation_source         'fine-focus sealed tube'
_diffrn_radiation_monochromator  graphite
_diffrn_measurement_device_type  ?
_diffrn_measurement_method       ?
_diffrn_detector_area_resol_mean ?
_diffrn_standards_number         ?
_diffrn_standards_interval_count ?
_diffrn_standards_interval_time  ?
_diffrn_standards_decay_%        ?
_diffrn_reflns_number            50510
_diffrn_reflns_av_R_equivalents  0.0759
_diffrn_reflns_av_sigmaI/netI    0.0693
_diffrn_reflns_limit_h_min       -24
_diffrn_reflns_limit_h_max       24
_diffrn_reflns_limit_k_min       -23
_diffrn_reflns_limit_k_max       14
_diffrn_reflns_limit_l_min       -35
_diffrn_reflns_limit_l_max       37
_diffrn_reflns_theta_min         1.41
_diffrn_reflns_theta_max         22.63
_reflns_number_total             11273
_reflns_number_gt                7882
_reflns_threshold_expression     >2sigma(I)

_computing_data_collection       ?
_computing_cell_refinement       ?
_computing_data_reduction        ?
_computing_structure_solution    'SHELXS-97 (Sheldrick, 1990)'
_computing_structure_refinement  'SHELXL-97 (Sheldrick, 1997)'
_computing_molecular_graphics    ?
_computing_publication_material  ?

_refine_special_details          
;
Refinement of F^2^ against ALL reflections. The weighted R-factor wR and
goodness of fit S are based on F^2^, conventional R-factors R are based
on F, with F set to zero for negative F^2^. The threshold expression of
F^2^ > 2sigma(F^2^) is used only for calculating R-factors(gt) etc. and is
not relevant to the choice of reflections for refinement. R-factors based
on F^2^ are statistically about twice as large as those based on F, and R-
factors based on ALL data will be even larger.
;

_refine_ls_structure_factor_coef Fsqd
_refine_ls_matrix_type           full
_refine_ls_weighting_scheme      calc
_refine_ls_weighting_details     
'calc w=1/[\s^2^(Fo^2^)+(0.1248P)^2^+78.5238P] where P=(Fo^2^+2Fc^2^)/3'
_atom_sites_solution_primary     direct
_atom_sites_solution_secondary   difmap
_atom_sites_solution_hydrogens   geom
_refine_ls_hydrogen_treatment    mixed
_refine_ls_extinction_method     none
_refine_ls_extinction_coef       ?
_refine_ls_number_reflns         11273
_refine_ls_number_parameters     525
_refine_ls_number_restraints     0
_refine_ls_R_factor_all          0.0890
_refine_ls_R_factor_gt           0.0571
_refine_ls_wR_factor_ref         0.2125
_refine_ls_wR_factor_gt          0.1816
_refine_ls_goodness_of_fit_ref   1.034
_refine_ls_restrained_S_all      1.034
_refine_ls_shift/su_max          2.378
_refine_ls_shift/su_mean         0.026

loop_
_atom_site_label
_atom_site_type_symbol
_atom_site_fract_x
_atom_site_fract_y
_atom_site_fract_z
_atom_site_U_iso_or_equiv
_atom_site_adp_type
_atom_site_occupancy
_atom_site_symmetry_multiplicity
_atom_site_calc_flag
_atom_site_refinement_flags
_atom_site_disorder_assembly
_atom_site_disorder_group
In1 In 0.45382(5) 0.47877(5) 0.15901(3) 0.0499(3) Uani 1 1 d . . .
In2 In 0.59711(5) 0.42688(5) 0.11528(3) 0.0475(3) Uani 1 1 d . . .
In3 In 0.51672(4) 0.34259(5) 0.20648(3) 0.0427(3) Uani 1 1 d . . .
In4 In 0.43519(5) 0.34232(5) 0.09974(3) 0.0448(3) Uani 1 1 d . . .
In5 In 0.72788(5) 0.35454(6) 0.06955(3) 0.0544(3) Uani 1 1 d . . .
In6 In 0.66824(4) 0.27368(5) 0.15702(3) 0.0447(3) Uani 1 1 d . . .
In7 In 0.58662(5) 0.27439(5) 0.05099(3) 0.0490(3) Uani 1 1 d . . .
In8 In 0.58858(5) 0.19972(5) 0.23675(3) 0.0469(3) Uani 1 1 d . . .
In9 In 0.50810(5) 0.18972(5) 0.14220(3) 0.0442(3) Uani 1 1 d . . .
In10 In 0.43832(5) 0.20020(5) 0.04408(3) 0.0488(3) Uani 1 1 d . . .
S1 S 0.5469(2) 0.51708(19) 0.13303(14) 0.0615(12) Uani 1 1 d . . .
S2 S 0.4650(2) 0.4331(2) 0.22247(12) 0.0576(11) Uani 1 1 d . . .
S3 S 0.38390(18) 0.4328(2) 0.11552(13) 0.0604(12) Uani 1 1 d . . .
S4 S 0.6901(2) 0.4519(2) 0.08455(15) 0.0707(13) Uani 1 1 d . . .
S5 S 0.61467(16) 0.36772(17) 0.17547(11) 0.0450(9) Uani 1 1 d . . .
S6 S 0.53398(17) 0.36780(19) 0.06965(11) 0.0496(10) Uani 1 1 d . . .
S7 S 0.5362(2) 0.2842(2) 0.26369(12) 0.0588(11) Uani 1 1 d . . .
S8 S 0.45448(16) 0.28389(18) 0.16005(11) 0.0458(9) Uani 1 1 d . . .
S9 S 0.37750(19) 0.2882(2) 0.05268(13) 0.0613(12) Uani 1 1 d . . .
S10 S 0.76114(18) 0.3021(2) 0.12747(14) 0.0722(14) Uani 1 1 d . . .
S11 S 0.6799(2) 0.2970(3) 0.01988(13) 0.0733(15) Uani 1 1 d . . .
S12 S 0.68880(18) 0.2168(2) 0.21448(13) 0.0598(12) Uani 1 1 d . . .
S13 S 0.60569(17) 0.21487(18) 0.11123(11) 0.0476(10) Uani 1 1 d . . .
S14 S 0.5292(2) 0.2141(2) 0.00773(13) 0.0680(13) Uani 1 1 d . . .
S15 S 0.5299(2) 0.13059(19) 0.19855(12) 0.0582(11) Uani 1 1 d . . .
S16 S 0.4412(2) 0.1368(2) 0.10046(12) 0.0586(11) Uani 1 1 d . . .
N11 N 0.4095(5) 0.5613(6) 0.1760(4) 0.051(3) Uani 1 1 d . . .
N12 N 0.3958(6) 0.6426(6) 0.2131(4) 0.055(3) Uani 1 1 d . . .
N21 N 0.8110(5) 0.3692(6) 0.0390(4) 0.054(3) Uani 1 1 d . . .
N22 N 0.8868(5) 0.3487(6) -0.0009(4) 0.050(3) Uani 1 1 d . . .
N31 N 0.7335(16) 0.9420(17) 0.1871(12) 0.211(14) Uiso 1 1 d . . .
N41 N 0.8660(13) 0.0790(13) 0.3048(8) 0.167(10) Uiso 1 1 d . . .
C11 C 0.4255(7) 0.5921(7) 0.2066(4) 0.050(4) Uani 1 1 d . . .
H11 H 0.4566 0.5792 0.2233 0.060 Uiso 1 1 calc R . .
C12 C 0.3642(7) 0.5958(7) 0.1602(4) 0.048(4) Uani 1 1 d . . .
C13 C 0.3267(8) 0.5858(8) 0.1271(5) 0.067(5) Uani 1 1 d . . .
H13 H 0.3309 0.5511 0.1116 0.080 Uiso 1 1 calc R . .
C14 C 0.2856(8) 0.6269(9) 0.1187(5) 0.073(6) Uani 1 1 d . . .
C15 C 0.2754(8) 0.6768(8) 0.1427(6) 0.068(5) Uani 1 1 d . . .
C16 C 0.3123(8) 0.6851(7) 0.1746(5) 0.062(5) Uani 1 1 d . . .
H16 H 0.3071 0.7192 0.1905 0.074 Uiso 1 1 calc R . .
C17 C 0.3567(7) 0.6444(7) 0.1835(4) 0.047(4) Uani 1 1 d . . .
C18 C 0.2448(11) 0.6194(11) 0.0828(6) 0.109(8) Uani 1 1 d . . .
H18A H 0.2686 0.6063 0.0606 0.163 Uiso 1 1 calc R . .
H18B H 0.2258 0.6575 0.0768 0.163 Uiso 1 1 calc R . .
H18C H 0.2142 0.5896 0.0884 0.163 Uiso 1 1 calc R . .
C19 C 0.2285(11) 0.7216(10) 0.1321(8) 0.118(9) Uani 1 1 d . . .
H19A H 0.2378 0.7388 0.1067 0.176 Uiso 1 1 calc R . .
H19B H 0.2275 0.7532 0.1516 0.176 Uiso 1 1 calc R . .
H19C H 0.1897 0.7019 0.1310 0.176 Uiso 1 1 calc R . .
C21 C 0.8311(7) 0.3375(7) 0.0098(4) 0.048(4) Uani 1 1 d . . .
H21 H 0.8074 0.3084 -0.0029 0.058 Uiso 1 1 calc R . .
C22 C 0.8589(8) 0.4035(9) 0.0484(5) 0.073(6) Uani 1 1 d . . .
C23 C 0.8635(11) 0.4503(12) 0.0754(8) 0.147(13) Uani 1 1 d . . .
H23 H 0.8300 0.4629 0.0899 0.176 Uiso 1 1 calc R . .
C24 C 0.9177(14) 0.4772(18) 0.0801(12) 0.25(3) Uani 1 1 d . . .
C25 C 0.9656(11) 0.4609(14) 0.0563(9) 0.149(13) Uani 1 1 d . . .
C26 C 0.9594(9) 0.4170(9) 0.0289(7) 0.105(9) Uani 1 1 d . . .
H26 H 0.9920 0.4057 0.0131 0.126 Uiso 1 1 calc R . .
C27 C 0.9064(7) 0.3906(8) 0.0249(5) 0.065(5) Uani 1 1 d . . .
C28 C 1.0283(12) 0.483(3) 0.070(2) 0.56(7) Uani 1 1 d . . .
H28A H 1.0379 0.5208 0.0579 0.836 Uiso 1 1 calc R . .
H28B H 1.0584 0.4532 0.0637 0.836 Uiso 1 1 calc R . .
H28C H 1.0276 0.4884 0.0987 0.836 Uiso 1 1 calc R . .
C29 C 0.927(2) 0.530(3) 0.1092(17) 0.47(6) Uani 1 1 d . . .
H29A H 0.9668 0.5276 0.1202 0.698 Uiso 1 1 calc R . .
H29B H 0.8974 0.5268 0.1301 0.698 Uiso 1 1 calc R . .
H29C H 0.9218 0.5676 0.0956 0.698 Uiso 1 1 calc R . .
C30 C 0.742(3) 1.008(3) 0.1722(17) 0.27(2) Uiso 1 1 d . . .
C31 C 0.709(3) 1.059(3) 0.199(2) 0.30(3) Uiso 1 1 d . . .
C32 C 0.6999(19) 1.039(2) 0.2422(13) 0.194(16) Uiso 1 1 d . . .
C33 C 0.7115(12) 0.9746(13) 0.2521(9) 0.119(9) Uiso 1 1 d . . .
C34 C 0.6995(17) 0.9584(17) 0.2928(11) 0.167(13) Uiso 1 1 d . . .
C35 C 0.748(2) 0.940(2) 0.3179(14) 0.220(18) Uiso 1 1 d . . .
C36 C 0.757(2) 0.871(3) 0.3126(16) 0.25(2) Uiso 1 1 d . . .
C37 C 0.785(2) 0.8640(19) 0.2698(14) 0.194(16) Uiso 1 1 d . . .
C38 C 0.733(2) 0.869(2) 0.2446(14) 0.221(19) Uiso 1 1 d . . .
C39 C 0.7238(16) 0.9269(18) 0.2276(12) 0.162(12) Uiso 1 1 d . . .
C40 C 0.9039(17) 0.0162(18) 0.2979(11) 0.179(14) Uiso 1 1 d . . .
C41 C 0.8896(15) 0.0015(16) 0.2498(10) 0.152(11) Uiso 1 1 d . . .
C42 C 0.9013(10) 0.0443(12) 0.2241(7) 0.097(7) Uiso 1 1 d . . .
C43 C 0.8970(13) 0.1003(14) 0.2346(9) 0.125(9) Uiso 1 1 d . . .
C44 C 0.9138(15) 0.1452(15) 0.2041(10) 0.144(11) Uiso 1 1 d . . .
C45 C 0.8637(16) 0.1780(16) 0.1949(10) 0.152(11) Uiso 1 1 d . . .
C46 C 0.8532(16) 0.2325(17) 0.2212(11) 0.167(13) Uiso 1 1 d . . .
C47 C 0.8353(16) 0.2096(16) 0.2597(11) 0.163(13) Uiso 1 1 d . . .
C48 C 0.888(2) 0.178(2) 0.2796(12) 0.198(16) Uiso 1 1 d . . .
C49 C 0.8820(10) 0.1165(11) 0.2704(7) 0.094(7) Uiso 1 1 d . . .

loop_
_atom_site_aniso_label
_atom_site_aniso_U_11
_atom_site_aniso_U_22
_atom_site_aniso_U_33
_atom_site_aniso_U_23
_atom_site_aniso_U_13
_atom_site_aniso_U_12
In1 0.0564(7) 0.0452(7) 0.0483(7) -0.0120(5) -0.0049(5) 0.0118(5)
In2 0.0512(6) 0.0432(7) 0.0480(7) -0.0004(5) 0.0083(5) 0.0009(5)
In3 0.0496(6) 0.0420(7) 0.0366(6) -0.0018(5) 0.0012(5) 0.0031(5)
In4 0.0497(6) 0.0428(7) 0.0419(7) -0.0071(5) -0.0022(5) 0.0041(5)
In5 0.0476(6) 0.0650(9) 0.0507(7) -0.0048(6) 0.0160(5) -0.0064(6)
In6 0.0422(6) 0.0483(7) 0.0437(7) 0.0022(5) 0.0018(5) -0.0019(5)
In7 0.0480(6) 0.0597(8) 0.0394(6) -0.0077(5) 0.0044(5) -0.0050(5)
In8 0.0510(6) 0.0468(7) 0.0430(7) 0.0109(5) -0.0074(5) -0.0066(5)
In9 0.0505(6) 0.0427(7) 0.0393(6) -0.0012(5) -0.0057(5) -0.0051(5)
In10 0.0491(6) 0.0569(8) 0.0404(7) -0.0125(5) -0.0084(5) -0.0005(5)
S1 0.069(3) 0.044(3) 0.072(3) -0.005(2) 0.005(2) 0.002(2)
S2 0.078(3) 0.053(3) 0.042(2) -0.009(2) 0.001(2) 0.019(2)
S3 0.057(2) 0.057(3) 0.067(3) -0.016(2) -0.015(2) 0.017(2)
S4 0.064(3) 0.060(3) 0.087(4) -0.001(3) 0.026(2) -0.011(2)
S5 0.047(2) 0.045(2) 0.044(2) -0.0006(18) 0.0023(17) 0.0018(17)
S6 0.053(2) 0.051(3) 0.045(2) 0.0011(19) 0.0045(18) -0.0025(19)
S7 0.075(3) 0.063(3) 0.038(2) 0.006(2) 0.004(2) 0.012(2)
S8 0.049(2) 0.049(3) 0.039(2) -0.0035(18) -0.0024(17) -0.0020(18)
S9 0.058(2) 0.061(3) 0.064(3) -0.018(2) -0.017(2) 0.007(2)
S10 0.044(2) 0.098(4) 0.075(3) 0.025(3) 0.007(2) -0.004(2)
S11 0.059(3) 0.107(4) 0.054(3) -0.024(3) 0.021(2) -0.022(3)
S12 0.046(2) 0.069(3) 0.064(3) 0.021(2) -0.009(2) -0.004(2)
S13 0.048(2) 0.050(3) 0.044(2) -0.0024(19) 0.0009(17) -0.0018(18)
S14 0.062(3) 0.096(4) 0.046(3) -0.028(2) 0.006(2) -0.016(2)
S15 0.070(3) 0.050(3) 0.054(3) 0.014(2) -0.016(2) -0.016(2)
S16 0.073(3) 0.052(3) 0.050(3) -0.002(2) -0.014(2) -0.018(2)
N11 0.054(7) 0.046(8) 0.051(8) -0.015(7) -0.013(6) 0.009(6)
N12 0.064(8) 0.044(9) 0.058(9) -0.009(7) -0.004(7) 0.011(7)
N21 0.053(7) 0.067(9) 0.044(8) -0.016(7) 0.018(6) -0.010(7)
N22 0.048(7) 0.050(9) 0.052(8) -0.010(7) 0.013(6) -0.011(6)
C11 0.058(9) 0.045(10) 0.047(10) -0.016(8) -0.017(8) 0.004(8)
C12 0.056(9) 0.047(10) 0.041(9) -0.013(8) -0.003(7) 0.011(8)
C13 0.085(12) 0.058(12) 0.058(11) -0.006(9) -0.024(10) 0.028(10)
C14 0.078(12) 0.094(16) 0.048(11) -0.020(10) -0.018(9) 0.029(11)
C15 0.065(11) 0.056(12) 0.083(14) -0.004(10) -0.026(10) 0.009(9)
C16 0.084(12) 0.047(11) 0.053(11) -0.002(8) -0.011(9) 0.012(9)
C17 0.056(9) 0.047(10) 0.039(9) -0.007(8) -0.005(7) 0.019(8)
C18 0.120(18) 0.12(2) 0.083(15) -0.033(14) -0.059(14) 0.024(15)
C19 0.118(19) 0.092(18) 0.14(2) -0.016(16) -0.041(17) 0.064(15)
C21 0.057(10) 0.048(10) 0.040(9) -0.022(8) -0.003(7) -0.015(8)
C22 0.076(12) 0.079(14) 0.064(12) -0.038(10) 0.036(10) -0.032(10)
C23 0.118(19) 0.15(2) 0.18(3) -0.13(2) 0.077(19) -0.062(18)
C24 0.16(3) 0.28(4) 0.30(5) -0.26(4) 0.16(3) -0.15(3)
C25 0.096(17) 0.17(3) 0.18(3) -0.12(2) 0.059(18) -0.063(18)
C26 0.081(14) 0.084(16) 0.15(2) -0.061(16) 0.039(14) -0.043(12)
C27 0.059(10) 0.053(12) 0.082(13) -0.022(10) 0.021(9) -0.011(9)
C28 0.075(19) 0.81(12) 0.79(11) -0.76(11) 0.18(4) -0.20(4)
C29 0.36(7) 0.55(10) 0.48(9) -0.50(9) 0.24(7) -0.25(7)

_geom_special_details            
;
All esds (except the esd in the dihedral angle between two l.s. planes)
are estimated using the full covariance matrix. The cell esds are taken
into account individually in the estimation of esds in distances, angles
and torsion angles; correlations between esds in cell parameters are only
used when they are defined by crystal symmetry. An approximate (isotropic)
treatment of cell esds is used for estimating esds involving l.s. planes.
;

loop_
_geom_bond_atom_site_label_1
_geom_bond_atom_site_label_2
_geom_bond_distance
_geom_bond_site_symmetry_2
_geom_bond_publ_flag
In1 N11 2.186(12) . ?
In1 S3 2.408(4) . ?
In1 S2 2.431(4) . ?
In1 S1 2.437(5) . ?
In2 S1 2.402(4) . ?
In2 S4 2.414(4) . ?
In2 S5 2.497(4) . ?
In2 S6 2.502(4) . ?
In3 S2 2.408(4) . ?
In3 S7 2.410(4) . ?
In3 S8 2.504(4) . ?
In3 S5 2.516(4) . ?
In4 S3 2.401(4) . ?
In4 S9 2.409(4) . ?
In4 S8 2.498(4) . ?
In4 S6 2.521(4) . ?
In5 N21 2.173(11) . ?
In5 S4 2.404(5) . ?
In5 S11 2.404(5) . ?
In5 S10 2.437(5) . ?
In6 S12 2.404(4) . ?
In6 S10 2.413(4) . ?
In6 S13 2.495(4) . ?
In6 S5 2.516(4) . ?
In7 S14 2.395(4) . ?
In7 S11 2.412(4) . ?
In7 S6 2.496(4) . ?
In7 S13 2.508(4) . ?
In8 N12 2.185(13) 3_645 ?
In8 S12 2.415(4) . ?
In8 S7 2.421(5) . ?
In8 S15 2.429(4) . ?
In9 S16 2.400(4) . ?
In9 S15 2.405(4) . ?
In9 S13 2.508(4) . ?
In9 S8 2.514(4) . ?
In10 N22 2.185(12) 4_455 ?
In10 S16 2.412(5) . ?
In10 S14 2.421(4) . ?
In10 S9 2.425(4) . ?
N11 C11 1.313(18) . ?
N11 C12 1.394(18) . ?
N12 C11 1.337(18) . ?
N12 C17 1.348(18) . ?
N12 In8 2.185(13) 3_655 ?
N21 C21 1.315(18) . ?
N21 C22 1.37(2) . ?
N22 C21 1.332(18) . ?
N22 C27 1.37(2) . ?
N22 In10 2.185(12) 4 ?
N31 C39 1.46(4) . ?
N31 C30 1.58(6) . ?
N41 C49 1.50(3) . ?
N41 C40 1.67(4) . ?
C12 C17 1.37(2) . ?
C12 C13 1.44(2) . ?
C13 C14 1.34(2) . ?
C14 C15 1.41(2) . ?
C14 C18 1.55(2) . ?
C15 C16 1.39(2) . ?
C15 C19 1.50(2) . ?
C16 C17 1.39(2) . ?
C22 C27 1.37(2) . ?
C22 C23 1.41(2) . ?
C23 C24 1.37(3) . ?
C24 C25 1.40(3) . ?
C24 C29 1.56(4) . ?
C25 C26 1.37(3) . ?
C25 C28 1.57(3) . ?
C26 C27 1.34(2) . ?
C30 C31 1.65(7) . ?
C31 C32 1.56(6) . ?
C32 C33 1.52(5) . ?
C33 C39 1.39(4) . ?
C33 C34 1.48(4) . ?
C34 C35 1.45(5) . ?
C35 C36 1.58(6) . ?
C36 C37 1.61(6) . ?
C37 C38 1.46(5) . ?
C38 C39 1.45(5) . ?
C40 C41 1.72(5) . ?
C41 C42 1.33(4) . ?
C42 C43 1.31(3) . ?
C43 C49 1.33(3) . ?
C43 C44 1.51(4) . ?
C44 C45 1.39(4) . ?
C45 C46 1.54(4) . ?
C46 C47 1.48(4) . ?
C47 C48 1.55(5) . ?
C48 C49 1.42(4) . ?

loop_
_geom_angle_atom_site_label_1
_geom_angle_atom_site_label_2
_geom_angle_atom_site_label_3
_geom_angle
_geom_angle_site_symmetry_1
_geom_angle_site_symmetry_3
_geom_angle_publ_flag
N11 In1 S3 103.5(3) . . ?
N11 In1 S2 99.5(4) . 