####################################################################### 
# 
# This file contains crystal structure data downloaded from the 
# Cambridge Structural Database (CSD) hosted by the Cambridge 
# Crystallographic Data Centre (CCDC).
# 
# Full information about CCDC data access policies and citation 
# guidelines are available at http://www.ccdc.cam.ac.uk/access/V1 
# 
# Audit and citation data items may have been added by the CCDC. 
# Please retain this information to preserve the provenance of 
# this file and to allow appropriate attribution of the data. 
# 
#######################################################################

data_SCIF-9
_audit_block_doi                 10.5517/ccvpr7h
_database_code_depnum_ccdc_archive 'CCDC 795467'
loop_
_citation_id
_citation_doi
_citation_year
1 10.1002/anie.201006531 2011
_audit_update_record             
;
2010-10-02 deposited with the CCDC.	2024-07-10 downloaded from the CCDC.
;
#TrackingRef 'SCIF-9.cif'


_audit_creation_method           SHELXL-97
_chemical_name_systematic        
;
?
;
_chemical_name_common            ?
_chemical_melting_point          ?
_chemical_formula_moiety         ?
_chemical_formula_sum            'C18 H18 Cd4 In16 N4 S31'
_chemical_formula_weight         3570.94

loop_
_atom_type_symbol
_atom_type_description
_atom_type_scat_dispersion_real
_atom_type_scat_dispersion_imag
_atom_type_scat_source
C C 0.0033 0.0016 'International Tables Vol C Tables 4.2.6.8 and 6.1.1.4'
H H 0.0000 0.0000 'International Tables Vol C Tables 4.2.6.8 and 6.1.1.4'
N N 0.0061 0.0033 'International Tables Vol C Tables 4.2.6.8 and 6.1.1.4'
In In -0.7276 1.3100 'International Tables Vol C Tables 4.2.6.8 and 6.1.1.4'
Cd Cd -0.8075 1.2024 'International Tables Vol C Tables 4.2.6.8 and 6.1.1.4'
S S 0.1246 0.1234 'International Tables Vol C Tables 4.2.6.8 and 6.1.1.4'

_symmetry_cell_setting           Orthorhombic
_symmetry_space_group_name_H-M   Pbca

loop_
_symmetry_equiv_pos_as_xyz
'x, y, z'
'-x+1/2, -y, z+1/2'
'x+1/2, -y+1/2, -z'
'-x, y+1/2, -z+1/2'
'-x, -y, -z'
'x-1/2, y, -z-1/2'
'-x-1/2, y-1/2, z'
'x, -y-1/2, z-1/2'

_cell_length_a                   25.7722(10)
_cell_length_b                   25.6993(11)
_cell_length_c                   48.340(2)
_cell_angle_alpha                90.00
_cell_angle_beta                 90.00
_cell_angle_gamma                90.00
_cell_volume                     32017(2)
_cell_formula_units_Z            8
_cell_measurement_temperature    150(2)
_cell_measurement_reflns_used    ?
_cell_measurement_theta_min      ?
_cell_measurement_theta_max      ?

_exptl_crystal_description       ?
_exptl_crystal_colour            ?
_exptl_crystal_size_max          ?
_exptl_crystal_size_mid          ?
_exptl_crystal_size_min          ?
_exptl_crystal_density_meas      ?
_exptl_crystal_density_diffrn    1.482
_exptl_crystal_density_method    'not measured'
_exptl_crystal_F_000             13008
_exptl_absorpt_coefficient_mu    3.188
_exptl_absorpt_correction_type   ?
_exptl_absorpt_correction_T_min  ?
_exptl_absorpt_correction_T_max  ?
_exptl_absorpt_process_details   ?

_exptl_special_details           
;
?
;

_diffrn_ambient_temperature      150(2)
_diffrn_radiation_wavelength     0.71073
_diffrn_radiation_type           MoK\a
_diffrn_radiation_source         'fine-focus sealed tube'
_diffrn_radiation_monochromator  graphite
_diffrn_measurement_device_type  ?
_diffrn_measurement_method       ?
_diffrn_detector_area_resol_mean ?
_diffrn_standards_number         ?
_diffrn_standards_interval_count ?
_diffrn_standards_interval_time  ?
_diffrn_standards_decay_%        ?
_diffrn_reflns_number            92402
_diffrn_reflns_av_R_equivalents  0.4319
_diffrn_reflns_av_sigmaI/netI    0.3816
_diffrn_reflns_limit_h_min       -25
_diffrn_reflns_limit_h_max       25
_diffrn_reflns_limit_k_min       -25
_diffrn_reflns_limit_k_max       23
_diffrn_reflns_limit_l_min       -24
_diffrn_reflns_limit_l_max       48
_diffrn_reflns_theta_min         0.84
_diffrn_reflns_theta_max         21.00
_reflns_number_total             17152
_reflns_number_gt                4682
_reflns_threshold_expression     >2sigma(I)

_computing_data_collection       ?
_computing_cell_refinement       ?
_computing_data_reduction        ?
_computing_structure_solution    'SHELXS-97 (Sheldrick, 1990)'
_computing_structure_refinement  'SHELXL-97 (Sheldrick, 1997)'
_computing_molecular_graphics    ?
_computing_publication_material  ?

_refine_special_details          
;
Refinement of F^2^ against ALL reflections. The weighted R-factor wR and
goodness of fit S are based on F^2^, conventional R-factors R are based
on F, with F set to zero for negative F^2^. The threshold expression of
F^2^ > 2sigma(F^2^) is used only for calculating R-factors(gt) etc. and is
not relevant to the choice of reflections for refinement. R-factors based
on F^2^ are statistically about twice as large as those based on F, and R-
factors based on ALL data will be even larger.
;

_refine_ls_structure_factor_coef Fsqd
_refine_ls_matrix_type           full
_refine_ls_weighting_scheme      calc
_refine_ls_weighting_details     
'calc w=1/[\s^2^(Fo^2^)+(0.2000P)^2^+0.0000P] where P=(Fo^2^+2Fc^2^)/3'
_atom_sites_solution_primary     direct
_atom_sites_solution_secondary   difmap
_atom_sites_solution_hydrogens   geom
_refine_ls_hydrogen_treatment    mixed
_refine_ls_extinction_method     none
_refine_ls_extinction_coef       ?
_refine_ls_number_reflns         17152
_refine_ls_number_parameters     572
_refine_ls_number_restraints     0
_refine_ls_R_factor_all          0.3570
_refine_ls_R_factor_gt           0.1459
_refine_ls_wR_factor_ref         0.4966
_refine_ls_wR_factor_gt          0.3769
_refine_ls_goodness_of_fit_ref   1.072
_refine_ls_restrained_S_all      1.072
_refine_ls_shift/su_max          0.584
_refine_ls_shift/su_mean         0.012

loop_
_atom_site_label
_atom_site_type_symbol
_atom_site_fract_x
_atom_site_fract_y
_atom_site_fract_z
_atom_site_U_iso_or_equiv
_atom_site_adp_type
_atom_site_occupancy
_atom_site_symmetry_multiplicity
_atom_site_calc_flag
_atom_site_refinement_flags
_atom_site_disorder_assembly
_atom_site_disorder_group
Cd1 Cd 0.91493(19) 0.2825(2) 0.10626(11) 0.0761(17) Uani 1 1 d . . .
Cd2 Cd 0.9181(3) 0.1578(3) 0.15548(16) 0.145(3) Uani 1 1 d . . .
Cd3 Cd 1.03875(19) 0.2563(2) 0.15429(10) 0.0775(17) Uani 1 1 d . . .
Cd4 Cd 1.0103(2) 0.1640(2) 0.08883(13) 0.104(2) Uani 1 1 d . . .
S1 S 0.7276(7) 0.1444(9) 0.0791(5) 0.105(7) Uani 1 1 d . . .
S2 S 0.8261(8) 0.0211(9) 0.0641(5) 0.122(9) Uani 1 1 d . . .
S3 S 0.8232(9) 0.1516(8) 0.0120(4) 0.113(8) Uani 1 1 d . . .
S4 S 0.7520(7) 0.2341(8) 0.1435(4) 0.097(7) Uani 1 1 d . . .
S5 S 0.8497(7) 0.1153(7) 0.1285(4) 0.075(6) Uani 1 1 d . . .
S6 S 0.8463(7) 0.2446(7) 0.0771(3) 0.069(5) Uani 1 1 d . . .
S7 S 0.9470(8) -0.0028(7) 0.1122(4) 0.094(7) Uani 1 1 d . . .
S8 S 0.9448(7) 0.1203(7) 0.0604(3) 0.073(5) Uani 1 1 d . . .
S9 S 0.9402(7) 0.2507(8) 0.0118(3) 0.085(6) Uani 1 1 d . . .
S10 S 0.7748(8) 0.3226(8) 0.2074(4) 0.098(7) Uani 1 1 d . . .
S11 S 0.8742(7) 0.2058(8) 0.1923(4) 0.088(6) Uani 1 1 d . . .
S12 S 0.8725(6) 0.3354(6) 0.1418(3) 0.057(5) Uani 1 1 d . . .
S13 S 0.9710(6) 0.0886(7) 0.1775(3) 0.073(5) Uani 1 1 d . . .
S14 S 0.9708(6) 0.2151(6) 0.1265(3) 0.054(5) Uani 1 1 d . . .
S15 S 0.9666(6) 0.3438(7) 0.0773(3) 0.063(5) Uani 1 1 d . . .
S16 S 1.0666(9) -0.0260(8) 0.1600(4) 0.105(7) Uani 1 1 d . . .
S17 S 1.0676(7) 0.0975(7) 0.1084(3) 0.070(5) Uani 1 1 d . . .
S18 S 1.0640(6) 0.2195(7) 0.0581(3) 0.067(5) Uani 1 1 d . . .
S19 S 1.0551(8) 0.3496(8) 0.0112(4) 0.087(6) Uani 1 1 d . . .
S20 S 0.9055(8) 0.2949(9) 0.2578(4) 0.107(8) Uani 1 1 d . . .
S21 S 0.9000(8) 0.4236(8) 0.2067(4) 0.100(7) Uani 1 1 d . . .
S22 S 1.0020(8) 0.1846(8) 0.2411(4) 0.095(7) Uani 1 1 d . . .
S23 S 0.9999(6) 0.3073(7) 0.1921(4) 0.066(5) Uani 1 1 d . . .
S24 S 0.9972(7) 0.4308(8) 0.1437(4) 0.088(6) Uani 1 1 d . . .
S25 S 1.0995(8) 0.0687(9) 0.2248(4) 0.104(7) Uani 1 1 d . . .
S26 S 1.0969(6) 0.1911(7) 0.1756(3) 0.063(5) Uani 1 1 d . . .
S27 S 1.0948(6) 0.3122(7) 0.1256(3) 0.072(5) Uani 1 1 d . . .
S28 S 1.0896(7) 0.4390(8) 0.0797(4) 0.086(6) Uani 1 1 d . . .
S29 S 1.1934(7) 0.0719(8) 0.1550(4) 0.102(7) Uani 1 1 d . . .
S30 S 1.1883(7) 0.1955(8) 0.1077(4) 0.092(7) Uani 1 1 d . . .
S31 S 1.1822(8) 0.3164(8) 0.0573(4) 0.097(7) Uani 1 1 d . . .
In1 In 0.7814(2) 0.0955(2) 0.04592(13) 0.108(2) Uani 1 1 d . . .
In2 In 0.7958(2) 0.1841(2) 0.10745(11) 0.0858(17) Uani 1 1 d . . .
In3 In 0.8927(2) 0.0648(2) 0.09075(11) 0.0923(19) Uani 1 1 d . . .
In4 In 0.8904(2) 0.1918(2) 0.04053(11) 0.0812(17) Uani 1 1 d . . .
In5 In 0.8201(2) 0.2732(2) 0.17117(11) 0.0836(17) Uani 1 1 d . . .
In6 In 1.0122(2) 0.0416(2) 0.13899(11) 0.0890(18) Uani 1 1 d . . .
In7 In 1.00620(19) 0.2891(2) 0.03969(10) 0.0771(16) Uani 1 1 d . . .
In8 In 0.8512(2) 0.3562(2) 0.23086(12) 0.102(2) Uani 1 1 d . . .
In9 In 0.9448(2) 0.2479(2) 0.22006(10) 0.0880(18) Uani 1 1 d . . .
In10 In 0.94251(19) 0.3740(2) 0.17059(10) 0.0798(17) Uani 1 1 d . . .
In11 In 1.04042(19) 0.1340(2) 0.20409(10) 0.0871(18) Uani 1 1 d . . .
In12 In 1.03614(18) 0.3818(2) 0.10688(10) 0.0754(16) Uani 1 1 d . . .
In13 In 1.1308(2) 0.0274(2) 0.18340(12) 0.101(2) Uani 1 1 d . . .
In14 In 1.13505(19) 0.1396(2) 0.13592(11) 0.0839(17) Uani 1 1 d . . .
In15 In 1.13053(19) 0.2601(2) 0.08680(10) 0.0791(17) Uani 1 1 d . . .
In16 In 1.1187(2) 0.3807(2) 0.04422(11) 0.0874(18) Uani 1 1 d . . .
N11 N 0.725(2) 0.066(3) 0.0160(13) 0.12(2) Uani 1 1 d . . .
N12 N 0.672(2) 0.070(3) -0.0157(11) 0.09(2) Uani 1 1 d . . .
N21 N 0.817(2) 0.407(3) 0.2609(11) 0.12(3) Uani 1 1 d . . .
N22 N 0.828(3) 0.467(3) 0.2947(13) 0.15(4) Uani 1 1 d . . .
C11 C 0.707(3) 0.092(3) -0.0037(17) 0.08(2) Uiso 1 1 d . . .
H11 H 0.7186 0.1257 -0.0086 0.096 Uiso 1 1 calc R . .
C12 C 0.702(3) 0.021(3) 0.0142(15) 0.09(2) Uiso 1 1 d . . .
C13 C 0.699(3) -0.030(3) 0.0294(14) 0.08(2) Uiso 1 1 d . . .
H13 H 0.7218 -0.0361 0.0446 0.097 Uiso 1 1 calc R . .
C14 C 0.663(3) -0.069(3) 0.0211(17) 0.10(3) Uiso 1 1 d . . .
C15 C 0.627(5) -0.049(5) -0.003(3) 0.19(5) Uiso 1 1 d . . .
C16 C 0.624(4) -0.008(4) -0.013(2) 0.14(4) Uiso 1 1 d . . .
H16 H 0.5972 -0.0001 -0.0253 0.164 Uiso 1 1 calc R . .
C17 C 0.656(4) 0.023(4) -0.005(2) 0.12(3) Uiso 1 1 d . . .
C18 C 0.670(4) -0.121(3) 0.0355(19) 0.16(4) Uiso 1 1 d . . .
H18A H 0.7065 -0.1294 0.0372 0.237 Uiso 1 1 calc R . .
H18B H 0.6523 -0.1484 0.0247 0.237 Uiso 1 1 calc R . .
H18C H 0.6539 -0.1194 0.0540 0.237 Uiso 1 1 calc R . .
C19 C 0.591(4) -0.100(4) -0.006(2) 0.19(4) Uiso 1 1 d . . .
H19A H 0.5579 -0.0947 0.0034 0.279 Uiso 1 1 calc R . .
H19B H 0.6086 -0.1306 0.0018 0.279 Uiso 1 1 calc R . .
H19C H 0.5840 -0.1071 -0.0259 0.279 Uiso 1 1 calc R . .
C21 C 0.841(3) 0.445(3) 0.2751(18) 0.10(3) Uiso 1 1 d . . .
H21 H 0.8736 0.4559 0.2679 0.117 Uiso 1 1 calc R . .
C22 C 0.779(3) 0.409(3) 0.2765(17) 0.09(2) Uiso 1 1 d . . .
C23 C 0.735(3) 0.373(3) 0.2746(17) 0.12(3) Uiso 1 1 d . . .
H23 H 0.7321 0.3480 0.2601 0.139 Uiso 1 1 calc R . .
C24 C 0.688(3) 0.377(3) 0.2989(18) 0.12(3) Uiso 1 1 d . . .
C25 C 0.678(6) 0.432(5) 0.313(3) 0.23(6) Uiso 1 1 d . . .
C26 C 0.739(5) 0.457(4) 0.316(2) 0.20(5) Uiso 1 1 d . . .
H26 H 0.7452 0.4793 0.3315 0.245 Uiso 1 1 calc R . .
C27 C 0.782(4) 0.446(3) 0.2973(18) 0.11(3) Uiso 1 1 d . . .
C28 C 0.635(4) 0.343(4) 0.300(2) 0.19(5) Uiso 1 1 d . . .
H28A H 0.6055 0.3666 0.3037 0.288 Uiso 1 1 calc R . .
H28B H 0.6374 0.3176 0.3150 0.288 Uiso 1 1 calc R . .
H28C H 0.6297 0.3255 0.2824 0.288 Uiso 1 1 calc R . .
C29 C 0.635(4) 0.424(4) 0.328(2) 0.21(5) Uiso 1 1 d . . .
H29A H 0.6215 0.4574 0.3350 0.314 Uiso 1 1 calc R . .
H29B H 0.6437 0.4019 0.3443 0.314 Uiso 1 1 calc R . .
H29C H 0.6083 0.4065 0.3172 0.314 Uiso 1 1 calc R . .

loop_
_atom_site_aniso_label
_atom_site_aniso_U_11
_atom_site_aniso_U_22
_atom_site_aniso_U_33
_atom_site_aniso_U_23
_atom_site_aniso_U_13
_atom_site_aniso_U_12
Cd1 0.049(3) 0.103(4) 0.076(4) 0.005(3) -0.005(3) -0.002(3)
Cd2 0.111(6) 0.188(8) 0.136(6) 0.017(6) -0.010(5) -0.003(5)
Cd3 0.053(3) 0.110(4) 0.069(3) 0.004(3) 0.002(3) -0.001(3)
Cd4 0.087(5) 0.131(5) 0.095(5) 0.007(4) 0.000(4) 0.005(4)
S1 0.057(13) 0.122(18) 0.135(19) -0.007(15) -0.023(13) -0.004(13)
S2 0.090(17) 0.118(19) 0.16(2) 0.038(17) -0.045(16) -0.020(15)
S3 0.13(2) 0.109(18) 0.098(16) 0.017(14) -0.047(15) -0.015(15)
S4 0.061(13) 0.125(18) 0.106(16) -0.014(14) -0.001(12) -0.015(12)
S5 0.059(12) 0.099(15) 0.068(12) 0.003(11) -0.004(10) -0.040(11)
S6 0.067(12) 0.072(13) 0.068(12) 0.003(10) -0.012(10) -0.020(10)
S7 0.083(15) 0.083(14) 0.117(17) 0.032(13) -0.029(13) -0.010(12)
S8 0.074(13) 0.083(14) 0.062(12) 0.009(11) -0.013(11) -0.008(11)
S9 0.081(14) 0.115(16) 0.060(12) 0.031(12) -0.014(11) -0.014(13)
S10 0.080(15) 0.132(19) 0.083(14) -0.015(14) 0.011(12) 0.004(13)
S11 0.079(14) 0.107(16) 0.079(14) 0.003(12) 0.000(12) -0.004(12)
S12 0.038(10) 0.076(12) 0.055(11) 0.004(10) 0.003(9) -0.012(9)
S13 0.048(11) 0.109(15) 0.062(12) 0.012(11) -0.015(10) -0.013(11)
S14 0.049(11) 0.061(11) 0.053(10) -0.003(9) -0.013(9) 0.001(9)
S15 0.041(10) 0.087(13) 0.060(11) 0.008(10) 0.010(9) -0.018(10)
S16 0.109(18) 0.096(16) 0.109(17) 0.014(14) 0.006(14) 0.018(14)
S17 0.071(13) 0.089(14) 0.050(11) -0.004(11) -0.001(10) -0.005(11)
S18 0.059(12) 0.079(13) 0.063(11) 0.025(10) -0.001(10) 0.004(10)
S19 0.081(14) 0.112(16) 0.068(12) 0.014(12) 0.009(11) -0.014(13)
S20 0.079(15) 0.17(2) 0.071(14) -0.025(14) 0.011(12) 0.022(15)
S21 0.083(15) 0.132(19) 0.086(14) -0.029(14) 0.034(13) -0.014(14)
S22 0.099(17) 0.125(17) 0.060(13) -0.005(12) -0.019(12) 0.022(14)
S23 0.026(9) 0.101(14) 0.071(12) 0.010(11) 0.013(9) -0.015(10)
S24 0.073(14) 0.115(16) 0.074(13) 0.000(12) 0.022(11) -0.048(12)
S25 0.073(15) 0.16(2) 0.076(14) 0.004(14) -0.014(12) 0.027(14)
S26 0.046(11) 0.085(13) 0.059(11) -0.002(10) -0.004(9) -0.005(10)
S27 0.039(11) 0.114(15) 0.063(12) -0.019(11) 0.000(9) -0.008(11)
S28 0.071(14) 0.119(17) 0.069(13) -0.008(12) 0.033(11) -0.023(12)
S29 0.067(14) 0.132(18) 0.106(16) 0.030(15) 0.011(13) 0.039(13)
S30 0.062(13) 0.124(17) 0.089(14) 0.038(14) 0.011(11) 0.049(12)
S31 0.074(14) 0.130(18) 0.088(15) 0.024(14) 0.016(12) 0.015(13)
In1 0.098(5) 0.117(5) 0.109(5) 0.014(4) -0.037(4) -0.022(4)
In2 0.064(4) 0.107(4) 0.086(4) 0.010(4) -0.013(3) -0.008(3)
In3 0.074(4) 0.106(4) 0.097(4) 0.013(4) -0.028(4) -0.012(3)
In4 0.065(4) 0.101(4) 0.077(4) 0.006(3) -0.012(3) -0.008(3)
In5 0.058(3) 0.101(4) 0.092(4) -0.006(3) 0.001(3) -0.006(3)
In6 0.072(4) 0.112(5) 0.083(4) 0.013(4) -0.008(3) 0.005(3)
In7 0.064(4) 0.099(4) 0.068(3) 0.009(3) -0.002(3) 0.005(3)
In8 0.075(4) 0.137(5) 0.093(4) -0.011(4) 0.016(4) -0.008(4)
In9 0.071(4) 0.120(5) 0.073(4) -0.002(4) 0.008(3) 0.003(4)
In10 0.055(3) 0.107(4) 0.078(4) -0.006(3) 0.012(3) -0.008(3)
In11 0.060(4) 0.131(5) 0.070(4) 0.015(4) -0.004(3) 0.012(3)
In12 0.053(3) 0.097(4) 0.076(4) 0.000(3) 0.007(3) -0.006(3)
In13 0.070(4) 0.138(5) 0.095(4) 0.027(4) 0.004(3) 0.014(4)
In14 0.058(3) 0.115(5) 0.079(4) 0.018(4) 0.003(3) 0.006(3)
In15 0.054(3) 0.104(4) 0.079(4) 0.007(3) 0.008(3) 0.000(3)
In16 0.071(4) 0.105(4) 0.085(4) 0.006(4) 0.012(3) 0.002(3)
N11 0.09(5) 0.17(7) 0.09(5) 0.00(5) -0.05(4) -0.06(5)
N12 0.04(4) 0.17(7) 0.06(4) -0.03(4) 0.00(3) 0.03(4)
N21 0.09(5) 0.22(7) 0.06(4) -0.08(5) 0.06(4) -0.06(5)
N22 0.17(7) 0.21(8) 0.07(4) -0.07(5) 0.07(5) -0.13(6)

_geom_special_details            
;
All esds (except the esd in the dihedral angle between two l.s. planes)
are estimated using the full covariance matrix. The cell esds are taken
into account individually in the estimation of esds in distances, angles
and torsion angles; correlations between esds in cell parameters are only
used when they are defined by crystal symmetry. An approximate (isotropic)
treatment of cell esds is used for estimating esds involving l.s. planes.
;

loop_
_geom_bond_atom_site_label_1
_geom_bond_atom_site_label_2
_geom_bond_distance
_geom_bond_site_symmetry_2
_geom_bond_publ_flag
Cd1 S12 2.449(17) . ?
Cd1 S14 2.455(16) . ?
Cd1 S6 2.462(17) . ?
Cd1 S15 2.494(16) . ?
Cd2 S14 2.446(17) . ?
Cd2 S11 2.44(2) . ?
Cd2 S5 2.452(18) . ?
Cd2 S13 2.480(19) . ?
Cd3 S14 2.447(16) . ?
Cd3 S23 2.461(18) . ?
Cd3 S27 2.464(18) . ?
Cd3 S26 2.474(17) . ?
Cd4 S8 2.450(18) . ?
Cd4 S17 2.448(19) . ?
Cd4 S14 2.466(16) . ?
Cd4 S18 2.482(17) . ?
S1 In2 2.45(2) . ?
S1 In1 2.47(2) . ?
S2 In1 2.40(2) . ?
S2 In3 2.42(2) . ?
S3 In1 2.44(2) . ?
S3 In4 2.44(2) . ?
S4 In5 2.43(2) . ?
S4 In2 2.44(2) . ?
S5 In2 2.47(2) . ?
S5 In3 2.497(19) . ?
S6 In4 2.500(18) . ?
S6 In2 2.505(17) . ?
S7 In6 2.41(2) . ?
S7 In3 2.460(19) . ?
S8 In3 2.451(18) . ?
S8 In4 2.502(18) . ?
S9 In7 2.385(19) . ?
S9 In4 2.421(18) . ?
S10 In8 2.43(2) . ?
S10 In5 2.46(2) . ?
S11 In5 2.45(2) . ?
S11 In9 2.51(2) . ?
S12 In10 2.484(16) . ?
S12 In5 2.529(16) . ?
S13 In6 2.461(19) . ?
S13 In11 2.491(17) . ?
S15 In12 2.492(17) . ?
S15 In7 2.514(17) . ?
S16 In13 2.43(2) . ?
S16 In6 2.45(2) . ?
S17 In14 2.443(18) . ?
S17 In6 2.510(18) . ?
S18 In15 2.440(18) . ?
S18 In7 2.492(17) . ?
S19 In16 2.42(2) . ?
S19 In7 2.430(19) . ?
S20 In9 2.413(19) . ?
S20 In8 2.48(2) . ?
S21 In10 2.422(19) . ?
S21 In8 2.44(2) . ?
S22 In9 2.42(2) . ?
S22 In11 2.42(2) . ?
S23 In9 2.484(16) . ?
S23 In10 2.492(18) . ?
S24 In12 2.400(19) . ?
S24 In10 2.410(17) . ?
S25 In13 2.41(2) . ?
S25 In11 2.48(2) . ?
S26 In11 2.485(17) . ?
S26 In14 2.530(17) . ?
S27 In15 2.482(17) . ?
S27 In12 2.511(19) . ?
S28 In16 2.397(19) . ?
S28 In12 2.405(18) . ?
S29 In13 2.41(2) . ?
S29 In14 2.478(19) . ?
S30 In14 2.41(2) . ?
S30 In15 2.448(17) . ?
S31 In16 2.41(2) . ?
S31 In15 2.43(2) . ?
In1 