
#######################################################################
#
#                 Cambridge Crystallographic Data Centre
#                                CCDC
#
#######################################################################
#
# If this CIF has been generated from an entry in the Cambridge
# Structural Database, then it will include bibliographic, chemical,
# crystal, experimental, refinement or atomic coordinate data resulting
# from the CCDC's data processing and validation procedures.
#
#######################################################################

data_CSD_CIF_ENNCCO10
_audit_creation_date 1979-09-20
_audit_creation_method CSD-ConQuest-V1
_database_code_CSD ENNCCO10
_database_code_depnum_ccdc_archive 'CCDC 1149775'
_chemical_formula_sum 'C5 H16 Cl1 Co1 N6 O6 S1'
_chemical_formula_moiety
;
C5 H16 Co1 N6 O2 S1 1+,Cl1 O4 1-
;
_journal_coden_Cambridge 9
_journal_volume 18
_journal_year 1979
_journal_page_first 1109
_journal_name_full 'Inorg.Chem. '
loop_
_publ_author_name
"I.Grenthe"
"E.Nordin"
_chemical_name_systematic
;
trans-bis(Ethylenediamine)-(isothiocyanato)-nitro-cobalt(iii) perchlorate
;
_chemical_name_common
;
Teaching Subset: Fundamental Chemistry
;
_cell_volume    702.615
_exptl_crystal_density_diffrn 1.77
_diffrn_ambient_temperature 163
#These two values have been output from a single CSD field.
_refine_ls_R_factor_gt 0.103
_refine_ls_wR_factor_gt 0.103
_symmetry_cell_setting monoclinic
_symmetry_space_group_name_H-M 'P 21'
_symmetry_Int_Tables_number 4
loop_
_symmetry_equiv_pos_site_id
_symmetry_equiv_pos_as_xyz
1 x,y,z
2 -x,1/2+y,-z
_cell_length_a 9.371(2)
_cell_length_b 6.9224(6)
_cell_length_c 11.025(2)
_cell_angle_alpha 90
_cell_angle_beta 100.76(2)
_cell_angle_gamma 90
_cell_formula_units_Z 2
loop_
_atom_type_symbol
_atom_type_radius_bond
C 0.68
Cl 0.91
Co 1.33
N 0.68
O 0.68
S 1.02
loop_
_atom_site_label
_atom_site_type_symbol
_atom_site_fract_x
_atom_site_fract_y
_atom_site_fract_z
Co1 Co 0.19480 0.25000 0.23540
S1 S 0.36760 0.77970 0.49480
O1 O 0.19440 -0.11570 0.15110
O2 O 0.04990 0.07010 0.03310
N1 N 0.14220 0.04320 0.12550
N2 N 0.25590 0.46140 0.34380
N3 N 0.10770 0.10290 0.36750
N4 N -0.00280 0.35710 0.20950
N5 N 0.23560 0.41930 0.09930
N6 N 0.37430 0.15520 0.27560
C1 C 0.30190 0.59500 0.40900
C2 C -0.01960 0.20390 0.37930
C3 C -0.11340 0.23360 0.25930
C4 C 0.41820 0.38820 0.11780
C5 C 0.45150 0.22400 0.18260
Cl1 Cl 0.24950 0.23830 0.74910
O3 O 0.26850 0.09660 0.84710
O4 O 0.11680 0.24120 0.68880
O5 O 0.29300 0.40580 0.78130
O6 O 0.32450 0.19890 0.67600
#END
