
#######################################################################
#
#                 Cambridge Crystallographic Data Centre
#                                CCDC
#
#######################################################################
#
# If this CIF has been generated from an entry in the Cambridge
# Structural Database, then it will include bibliographic, chemical,
# crystal, experimental, refinement or atomic coordinate data resulting
# from the CCDC's data processing and validation procedures.
#
#######################################################################

data_CSD_CIF_ENNTRC
_audit_creation_date 1979-09-20
_audit_creation_method CSD-ConQuest-V1
_database_code_CSD ENNTRC
_database_code_depnum_ccdc_archive 'CCDC 1149780'
_chemical_formula_sum 'C5 H16 Co1 I1 N6 O2 S1'
_chemical_formula_moiety
;
C5 H16 Co1 N6 O2 S1 1+,I1 1-
;
_journal_coden_Cambridge 9
_journal_volume 18
_journal_year 1979
_journal_page_first 1109
_journal_name_full 'Inorg.Chem. '
loop_
_publ_author_name
"I.Grenthe"
"E.Nordin"
_chemical_name_systematic
;
trans-bis(Ethylenediamine)-(isothiocyanato)-nitro-cobalt(iii) iodide
;
_chemical_name_common
;
Teaching Subset: Fundamental Chemistry
;
_cell_volume    692.036
_exptl_crystal_density_diffrn 1.97
_exptl_special_details
;
Absolute configuration
H(1N6), H(1C5) removed for suspected coordinate errors

;
_diffrn_ambient_temperature 245
#These two values have been output from a single CSD field.
_refine_ls_R_factor_gt 0.049
_refine_ls_wR_factor_gt 0.049
_symmetry_cell_setting monoclinic
_symmetry_space_group_name_H-M 'P 21'
_symmetry_Int_Tables_number 4
loop_
_symmetry_equiv_pos_site_id
_symmetry_equiv_pos_as_xyz
1 x,y,z
2 -x,1/2+y,-z
_cell_length_a 9.288(1)
_cell_length_b 7.220(1)
_cell_length_c 10.509(2)
_cell_angle_alpha 90
_cell_angle_beta 100.89(1)
_cell_angle_gamma 90
_cell_formula_units_Z 2
loop_
_atom_type_symbol
_atom_type_radius_bond
C 0.68
H 0.23
Co 1.33
I 1.40
N 0.68
O 0.68
S 1.02
loop_
_atom_site_label
_atom_site_type_symbol
_atom_site_fract_x
_atom_site_fract_y
_atom_site_fract_z
Co1 Co 0.18680 0.25000 0.23840
S1 S 0.36600 0.77630 0.48230
O1 O 0.17140 -0.10990 0.15260
O2 O 0.03040 0.07520 0.03000
N1 N 0.12120 0.04620 0.12880
N2 N 0.25340 0.45740 0.34970
N3 N 0.12380 0.12100 0.38230
N4 N -0.01070 0.35660 0.20420
N5 N 0.24840 0.38520 0.09610
N6 N 0.38150 0.13760 0.27220
C1 C 0.30400 0.59260 0.40300
C2 C -0.02290 0.19640 0.40050
C3 C -0.11090 0.24370 0.26940
C4 C 0.40890 0.37470 0.11570
C5 C 0.45140 0.18630 0.16510
H1 H 0.07500 -0.01000 0.36000
H2 H 0.18800 0.12200 0.46200
H3 H -0.00900 0.30700 0.12100
H4 H 0.01700 0.46600 0.23000
H5 H 0.20400 0.34200 0.01400
H6 H 0.23000 0.49600 0.10200
H7 H 0.43000 0.20100 0.36200
H8 H -0.05200 0.10500 0.48400
H9 H 0.02600 0.31700 0.47700
H10 H -0.14400 0.14600 0.23700
H11 H -0.21100 0.26600 0.26200
H12 H 0.44400 0.40300 0.07500
H13 H 0.45800 0.47500 0.18100
H14 H 0.54700 0.15900 0.20100
I1 I 0.24627 0.23810 0.74328
#END
