
#######################################################################
#
#                 Cambridge Crystallographic Data Centre
#                                CCDC
#
#######################################################################
#
# If this CIF has been generated from an entry in the Cambridge
# Structural Database, then it will include bibliographic, chemical,
# crystal, experimental, refinement or atomic coordinate data resulting
# from the CCDC's data processing and validation procedures.
#
#######################################################################

data_CSD_CIF_EPHEDR01
_audit_creation_date 2006-07-18
_audit_creation_method CSD-ConQuest-V1
_database_code_CSD EPHEDR01
_database_code_depnum_ccdc_archive 'CCDC 612198'
_chemical_formula_sum 'C10 H15 N1 O1'
_chemical_formula_moiety
;
C10 H15 N1 O1
;
_journal_coeditor_code "IUCr BK5025"
_journal_coden_Cambridge 622
_journal_volume 62
_journal_year 2006
_journal_page_first 498
_journal_name_full 'Acta Crystallogr.,Sect.B:Struct.Sci. '
loop_
_publ_author_name
"E.A.Collier"
"R.J.Davey"
"S.N.Black"
"R.J.Roberts"
_chemical_name_systematic
;
(1R,2S)-(-)-Ephedrine
;
_chemical_name_common
;
Teaching Subset: Fundamental Chemistry, Drug Molecules; Ephedrine; DrugBank: 
DB01364
;
_cell_volume    984.752
_exptl_crystal_colour 'colorless'
_exptl_crystal_density_diffrn 1.114
_exptl_crystal_description 'plate'
_diffrn_ambient_temperature ?
_diffrn_special_details
;
The study was carried out at room temperature,in the range 283-303K

;
#These two values have been output from a single CSD field.
_refine_ls_R_factor_gt 0.056
_refine_ls_wR_factor_gt 0.056
loop_
_citation_database_id_CSD
_citation_special_details
PSEPED "is a stereoisomer of this entry"
_symmetry_cell_setting orthorhombic
_symmetry_space_group_name_H-M 'P 21 21 21'
_symmetry_Int_Tables_number 19
loop_
_symmetry_equiv_pos_site_id
_symmetry_equiv_pos_as_xyz
1 x,y,z
2 1/2-x,-y,1/2+z
3 1/2+x,1/2-y,-z
4 -x,1/2+y,1/2-z
_cell_length_a 5.6851(4)
_cell_length_b 7.7047(5)
_cell_length_c 22.4819(17)
_cell_angle_alpha 90
_cell_angle_beta 90
_cell_angle_gamma 90
_cell_formula_units_Z 4
loop_
_atom_type_symbol
_atom_type_radius_bond
C 0.68
H 0.23
N 0.68
O 0.68
loop_
_atom_site_label
_atom_site_type_symbol
_atom_site_fract_x
_atom_site_fract_y
_atom_site_fract_z
C1 C 0.0038(7) 0.0288(5) 0.35785(16)
H1 H -0.117(6) 0.034(4) 0.3892(14)
C2 C -0.0285(8) -0.0706(6) 0.3072(2)
H2 H -0.177(6) -0.145(5) 0.2999(16)
C3 C 0.1436(10) -0.0785(7) 0.2651(2)
H3 H 0.126(7) -0.161(6) 0.2310(17)
C4 C 0.3490(9) 0.0151(8) 0.27192(17)
H4 H 0.481(8) 0.019(6) 0.2419(17)
C5 C 0.3820(8) 0.1170(6) 0.32321(15)
H5 H 0.530(6) 0.188(5) 0.3327(15)
C6 C 0.2098(6) 0.1225(5) 0.36642(15)
C7 C 0.2359(6) 0.2316(5) 0.42236(14)
H6 H 0.169(5) 0.152(4) 0.4568(13)
C8 C 0.1075(7) 0.4034(5) 0.41872(14)
H7 H -0.068(6) 0.389(5) 0.4089(13)
C9 C 0.2151(8) 0.5247(6) 0.37257(18)
H8 H 0.219(6) 0.477(5) 0.3329(15)
H9 H 0.395(7) 0.555(5) 0.3818(15)
H10 H 0.129(7) 0.637(5) 0.3703(15)
C10 C -0.0643(8) 0.6247(6) 0.4851(2)
H11 H -0.057(6) 0.663(5) 0.5312(16)
H12 H -0.228(6) 0.579(5) 0.4746(15)
H13 H -0.029(6) 0.725(5) 0.4629(17)
N1 N 0.0998(6) 0.4786(4) 0.47910(13)
H14 H 0.242(5) 0.512(4) 0.4858(12)
O1 O 0.4778(4) 0.2673(3) 0.43595(9)
H15 H 0.52390 0.19950 0.46150
#END
