####################################################################### 
# 
# This file contains crystal structure data downloaded from the 
# Cambridge Structural Database (CSD) hosted by the Cambridge 
# Crystallographic Data Centre (CCDC).
# 
# Full information about CCDC data access policies and citation 
# guidelines are available at http://www.ccdc.cam.ac.uk/access/V1 
# 
# Audit and citation data items may have been added by the CCDC. 
# Please retain this information to preserve the provenance of 
# this file and to allow appropriate attribution of the data. 
# 
#######################################################################

data_60524em
_audit_block_doi                 10.5517/cctkymx
_database_code_depnum_ccdc_archive 'CCDC 762030'
loop_
_citation_id
_citation_doi
_citation_year
1 10.1016/j.ica.2011.02.092 2011
_audit_update_record             
;
2010-01-18 deposited with the CCDC.	2024-07-10 downloaded from the CCDC.
;
#TrackingRef '3.cif'


_audit_creation_method           SHELXL-97
_chemical_name_systematic        
;
?
;
_chemical_name_common            ?
_chemical_melting_point          ?
_chemical_formula_moiety         'C40 H26 Mn2 N6 O10, 3(H2 O)'
_chemical_formula_sum            'C40 H32 Mn2 N6 O13'
_chemical_formula_weight         914.60

loop_
_atom_type_symbol
_atom_type_description
_atom_type_scat_dispersion_real
_atom_type_scat_dispersion_imag
_atom_type_scat_source
C C 0.0033 0.0016 'International Tables Vol C Tables 4.2.6.8 and 6.1.1.4'
H H 0.0000 0.0000 'International Tables Vol C Tables 4.2.6.8 and 6.1.1.4'
N N 0.0061 0.0033 'International Tables Vol C Tables 4.2.6.8 and 6.1.1.4'
O O 0.0106 0.0060 'International Tables Vol C Tables 4.2.6.8 and 6.1.1.4'
Mn Mn 0.3368 0.7283 'International Tables Vol C Tables 4.2.6.8 and 6.1.1.4'

_symmetry_cell_setting           Monoclinic
_symmetry_space_group_name_H-M   'C 2/c'
_symmetry_space_group_name_Hall  '-C 2yc'

loop_
_symmetry_equiv_pos_as_xyz
'x, y, z'
'-x, y, -z+1/2'
'x+1/2, y+1/2, z'
'-x+1/2, y+1/2, -z+1/2'
'-x, -y, -z'
'x, -y, z-1/2'
'-x+1/2, -y+1/2, -z'
'x+1/2, -y+1/2, z-1/2'

_cell_length_a                   15.711(4)
_cell_length_b                   21.040(5)
_cell_length_c                   14.319(3)
_cell_angle_alpha                90.00
_cell_angle_beta                 102.903(5)
_cell_angle_gamma                90.00
_cell_volume                     4613.8(19)
_cell_formula_units_Z            4
_cell_measurement_temperature    291(2)
_cell_measurement_reflns_used    1055
_cell_measurement_theta_min      2.92
_cell_measurement_theta_max      18.18

_exptl_crystal_description       needle-shaped
_exptl_crystal_colour            yellow
_exptl_crystal_size_max          0.28
_exptl_crystal_size_mid          0.24
_exptl_crystal_size_min          0.22
_exptl_crystal_density_meas      ?
_exptl_crystal_density_diffrn    1.317
_exptl_crystal_density_method    'not measured'
_exptl_crystal_F_000             1872
_exptl_absorpt_coefficient_mu    0.612
_exptl_absorpt_correction_type   multi-scan
_exptl_absorpt_correction_T_min  0.8473
_exptl_absorpt_correction_T_max  0.8771
_exptl_absorpt_process_details   'SADABS; Bruker, 2000'

_exptl_special_details           
;
?
;

_diffrn_ambient_temperature      291(2)
_diffrn_radiation_wavelength     0.71073
_diffrn_radiation_type           MoK\a
_diffrn_radiation_source         'fine-focus sealed tube'
_diffrn_radiation_monochromator  graphite
_diffrn_measurement_device_type  'CCD area detector'
_diffrn_measurement_method       'phi and omega scans'
_diffrn_detector_area_resol_mean ?
_diffrn_standards_number         ?
_diffrn_standards_interval_count ?
_diffrn_standards_interval_time  ?
_diffrn_standards_decay_%        ?
_diffrn_reflns_number            12325
_diffrn_reflns_av_R_equivalents  0.0417
_diffrn_reflns_av_sigmaI/netI    0.0503
_diffrn_reflns_limit_h_min       -19
_diffrn_reflns_limit_h_max       15
_diffrn_reflns_limit_k_min       -22
_diffrn_reflns_limit_k_max       25
_diffrn_reflns_limit_l_min       -17
_diffrn_reflns_limit_l_max       17
_diffrn_reflns_theta_min         1.94
_diffrn_reflns_theta_max         26.00
_reflns_number_total             4531
_reflns_number_gt                3523
_reflns_threshold_expression     >2sigma(I)

_computing_data_collection       'SMART (Bruker, 2000)'
_computing_cell_refinement       'SMART (Bruker, 2000)'
_computing_data_reduction        'SAINT (Bruker, 2000)'
_computing_structure_solution    'SHELXTL (Bruker, 2000)'
_computing_structure_refinement  SHELXTL
_computing_molecular_graphics    SHELXTL
_computing_publication_material  SHELXTL

_refine_special_details          
;
Refinement of F^2^ against ALL reflections. The weighted R-factor wR and
goodness of fit S are based on F^2^, conventional R-factors R are based
on F, with F set to zero for negative F^2^. The threshold expression of
F^2^ > 2sigma(F^2^) is used only for calculating R-factors(gt) etc. and is
not relevant to the choice of reflections for refinement. R-factors based
on F^2^ are statistically about twice as large as those based on F, and R-
factors based on ALL data will be even larger.
;

_refine_ls_structure_factor_coef Fsqd
_refine_ls_matrix_type           full
_refine_ls_weighting_scheme      calc
_refine_ls_weighting_details     
'calc w=1/[\s^2^(Fo^2^)+(0.0499P)^2^+7.0482P] where P=(Fo^2^+2Fc^2^)/3'
_atom_sites_solution_primary     direct
_atom_sites_solution_secondary   difmap
_atom_sites_solution_hydrogens   geom
_refine_ls_hydrogen_treatment    constr
_refine_ls_extinction_method     none
_refine_ls_extinction_coef       ?
_refine_ls_number_reflns         4531
_refine_ls_number_parameters     278
_refine_ls_number_restraints     0
_refine_ls_R_factor_all          0.0745
_refine_ls_R_factor_gt           0.0538
_refine_ls_wR_factor_ref         0.1200
_refine_ls_wR_factor_gt          0.1146
_refine_ls_goodness_of_fit_ref   1.071
_refine_ls_restrained_S_all      1.071
_refine_ls_shift/su_max          0.000
_refine_ls_shift/su_mean         0.000

loop_
_atom_site_label
_atom_site_type_symbol
_atom_site_fract_x
_atom_site_fract_y
_atom_site_fract_z
_atom_site_U_iso_or_equiv
_atom_site_adp_type
_atom_site_occupancy
_atom_site_symmetry_multiplicity
_atom_site_calc_flag
_atom_site_refinement_flags
_atom_site_disorder_assembly
_atom_site_disorder_group
C1 C 0.2849(2) 0.40970(17) 0.6271(3) 0.0473(9) Uani 1 1 d . . .
H1 H 0.2607 0.3693 0.6271 0.057 Uiso 1 1 calc R . .
C2 C 0.2320(2) 0.46254(18) 0.6293(3) 0.0531(10) Uani 1 1 d . . .
H2 H 0.1737 0.4576 0.6317 0.064 Uiso 1 1 calc R . .
C3 C 0.2671(2) 0.52146(18) 0.6278(3) 0.0539(10) Uani 1 1 d . . .
H3A H 0.2328 0.5575 0.6277 0.065 Uiso 1 1 calc R . .
C4 C 0.3542(2) 0.52702(19) 0.6265(3) 0.0510(9) Uani 1 1 d . . .
H4A H 0.3797 0.5669 0.6255 0.061 Uiso 1 1 calc R . .
C5 C 0.4018(2) 0.47391(17) 0.6266(2) 0.0397(8) Uani 1 1 d . . .
C6 C 0.4956(2) 0.47273(15) 0.6234(2) 0.0319(7) Uani 1 1 d . . .
C7 C 0.6279(2) 0.50500(16) 0.6217(3) 0.0414(8) Uani 1 1 d . . .
C8 C 0.7037(3) 0.53704(19) 0.6196(3) 0.0515(9) Uani 1 1 d . . .
H8 H 0.7052 0.5812 0.6183 0.062 Uiso 1 1 calc R . .
C9 C 0.7772(2) 0.50173(18) 0.6194(3) 0.0530(10) Uani 1 1 d . . .
H9 H 0.8298 0.5220 0.6193 0.064 Uiso 1 1 calc R . .
C10 C 0.7731(2) 0.43582(18) 0.6194(3) 0.0499(9) Uani 1 1 d . . .
H10 H 0.8235 0.4127 0.6187 0.060 Uiso 1 1 calc R . .
C11 C 0.6978(2) 0.40364(18) 0.6205(3) 0.0432(8) Uani 1 1 d . . .
H11 H 0.6957 0.3595 0.6193 0.052 Uiso 1 1 calc R . .
C12 C 0.6251(2) 0.43938(17) 0.6233(2) 0.0393(8) Uani 1 1 d . . .
C13 C 0.37446(19) 0.26634(14) 0.7738(2) 0.0301(7) Uani 1 1 d . . .
C14 C 0.28722(9) 0.23686(10) 0.77131(12) 0.0300(6) Uani 1 1 d G . .
C15 C 0.26158(11) 0.22576(10) 0.85671(10) 0.0324(7) Uani 1 1 d G . .
H15 H 0.2998 0.2344 0.9149 0.039 Uiso 1 1 calc R . .
C16 C 0.17886(12) 0.20170(10) 0.85509(10) 0.0383(8) Uani 1 1 d G . .
C17 C 0.12179(9) 0.18873(10) 0.76807(13) 0.0320(7) Uani 1 1 d G . .
H17 H 0.0664 0.1726 0.7670 0.038 Uiso 1 1 calc R . .
C18 C 0.14743(11) 0.19983(10) 0.68267(10) 0.0287(6) Uani 1 1 d G . .
C19 C 0.23014(11) 0.22389(10) 0.68429(10) 0.0300(6) Uani 1 1 d G . .
H20 H 0.2473 0.2313 0.6272 0.036 Uiso 1 1 calc R . .
C20 C 0.0848(2) 0.18459(14) 0.5903(2) 0.0321(7) Uani 1 1 d . . .
Mn1 Mn 0.46341(3) 0.33164(2) 0.61639(3) 0.02566(14) Uani 1 1 d . . .
N1 N 0.36895(17) 0.41499(14) 0.6250(2) 0.0410(7) Uani 1 1 d . . .
N2 N 0.53961(17) 0.42010(12) 0.62449(18) 0.0325(6) Uani 1 1 d . . .
N3 N 0.54454(18) 0.52543(13) 0.6219(2) 0.0406(7) Uani 1 1 d . . .
H3 H 0.5271 0.5642 0.6212 0.049 Uiso 1 1 calc R . .
O1 O 0.39258(13) 0.28171(11) 0.69677(16) 0.0408(6) Uani 1 1 d . . .
O2 O 0.42493(13) 0.27412(11) 0.85473(16) 0.0383(5) Uani 1 1 d . . .
O3 O 0.10657(14) 0.20113(11) 0.51471(14) 0.0357(5) Uani 1 1 d . . .
O4 O 0.01662(15) 0.15610(10) 0.59245(16) 0.0380(5) Uani 1 1 d . . .
O5 O 0.15562(16) 0.19280(11) 0.93932(15) 0.0415(6) Uani 1 1 d . . .
H5A H 0.1012 0.2140 0.9378 0.050 Uiso 1 1 d R . .
O1W O 0.5000 0.9949(4) 0.2500 0.053(2) Uani 0.40 2 d SP . .
H1X H 0.4871 0.9597 0.2727 0.063 Uiso 0.20 1 d PR . .
H1Y H 0.4583 1.0064 0.2044 0.063 Uiso 0.20 1 d PR . .
O2W O 0.9076(3) 0.6266(2) 0.6324(3) 0.0473(12) Uani 0.50 1 d P . .
H2X H 0.8753 0.6557 0.6022 0.057 Uiso 0.50 1 d PR . .
H2Y H 0.9609 0.6369 0.6390 0.057 Uiso 0.50 1 d PR . .
O3W O 0.9622(3) 0.4176(2) 0.4970(3) 0.0413(11) Uani 0.50 1 d P . .
H3X H 0.9963 0.3957 0.5395 0.050 Uiso 0.50 1 d PR . .
H3Y H 0.9855 0.4232 0.4495 0.050 Uiso 0.50 1 d PR . .
O4W O 0.0000 0.6628(3) 0.2500 0.0459(14) Uani 0.60 2 d SP . .
H4X H 0.0524 0.6494 0.2634 0.055 Uiso 0.30 1 d PR . .
H4Y H -0.0323 0.6358 0.2146 0.055 Uiso 0.30 1 d PR . .

loop_
_atom_site_aniso_label
_atom_site_aniso_U_11
_atom_site_aniso_U_22
_atom_site_aniso_U_33
_atom_site_aniso_U_23
_atom_site_aniso_U_13
_atom_site_aniso_U_12
C1 0.0299(17) 0.042(2) 0.071(3) 0.0109(18) 0.0143(17) -0.0044(15)
C2 0.0313(18) 0.054(2) 0.074(3) 0.016(2) 0.0116(18) 0.0118(17)
C3 0.043(2) 0.038(2) 0.080(3) 0.0130(19) 0.0123(19) 0.0134(17)
C4 0.0408(19) 0.048(2) 0.063(3) 0.0008(18) 0.0095(18) 0.0103(17)
C5 0.0400(18) 0.052(2) 0.0293(17) 0.0028(14) 0.0124(14) -0.0009(16)
C6 0.0335(16) 0.0422(18) 0.0210(14) 0.0053(12) 0.0083(12) -0.0026(14)
C7 0.0419(19) 0.0349(19) 0.049(2) -0.0005(15) 0.0135(16) -0.0013(14)
C8 0.051(2) 0.046(2) 0.057(2) -0.0049(17) 0.0119(18) -0.0117(18)
C9 0.0328(18) 0.052(2) 0.073(3) 0.0069(19) 0.0104(18) -0.0087(16)
C10 0.0367(19) 0.044(2) 0.070(3) 0.0084(18) 0.0146(18) 0.0065(16)
C11 0.0320(17) 0.047(2) 0.053(2) -0.0036(16) 0.0137(15) -0.0029(15)
C12 0.0367(18) 0.043(2) 0.0398(18) 0.0007(15) 0.0127(15) 0.0003(14)
C13 0.0296(15) 0.0261(15) 0.0351(17) -0.0079(12) 0.0086(13) 0.0018(12)
C14 0.0331(16) 0.0289(16) 0.0284(15) 0.0023(12) 0.0075(12) 0.0019(12)
C15 0.0306(16) 0.0446(18) 0.0220(15) 0.0008(13) 0.0054(12) -0.0025(13)
C16 0.0471(19) 0.0391(19) 0.0281(16) -0.0047(13) 0.0069(14) -0.0149(15)
C17 0.0278(15) 0.0362(17) 0.0298(16) -0.0041(13) 0.0020(12) -0.0104(12)
C18 0.0269(14) 0.0259(15) 0.0303(15) -0.0013(12) -0.0002(12) -0.0016(12)
C19 0.0342(16) 0.0340(16) 0.0204(14) -0.0015(12) 0.0032(12) -0.0013(13)
C20 0.0366(17) 0.0272(16) 0.0275(16) -0.0018(12) -0.0037(13) 0.0050(13)
Mn1 0.0191(2) 0.0322(2) 0.0234(2) 0.00376(19) -0.00010(15) -0.00226(18)
N1 0.0325(14) 0.0462(17) 0.0441(17) 0.0064(13) 0.0081(12) 0.0053(13)
N2 0.0313(13) 0.0331(14) 0.0337(14) -0.0008(11) 0.0088(11) -0.0053(11)
N3 0.0446(16) 0.0303(14) 0.0452(17) 0.0058(12) 0.0066(13) 0.0057(12)
O1 0.0280(11) 0.0508(14) 0.0438(13) 0.0193(11) 0.0082(10) -0.0099(10)
O2 0.0229(10) 0.0494(14) 0.0409(13) -0.0094(10) 0.0037(9) -0.0123(9)
O3 0.0368(12) 0.0452(13) 0.0213(11) -0.0044(9) -0.0018(9) -0.0041(10)
O4 0.0407(13) 0.0281(12) 0.0426(13) 0.0005(9) 0.0040(10) -0.0043(9)
O5 0.0523(14) 0.0385(13) 0.0302(12) 0.0015(9) 0.0018(10) -0.0226(11)
O1W 0.042(5) 0.058(6) 0.052(5) 0.000 -0.001(4) 0.000
O2W 0.056(3) 0.037(3) 0.048(3) 0.004(2) 0.008(2) 0.008(2)
O3W 0.041(3) 0.051(3) 0.028(2) -0.005(2) -0.0009(19) -0.006(2)
O4W 0.029(3) 0.059(4) 0.045(3) 0.000 0.000(2) 0.000

_geom_special_details            
;
All esds (except the esd in the dihedral angle between two l.s. planes)
are estimated using the full covariance matrix. The cell esds are taken
into account individually in the estimation of esds in distances, angles
and torsion angles; correlations between esds in cell parameters are only
used when they are defined by crystal symmetry. An approximate (isotropic)
treatment of cell esds is used for estimating esds involving l.s. planes.
;

loop_
_geom_bond_atom_site_label_1
_geom_bond_atom_site_label_2
_geom_bond_distance
_geom_bond_site_symmetry_2
_geom_bond_publ_flag
C1 N1 1.332(4) . ?
C1 C2 1.393(5) . ?
C1 H1 0.9300 . ?
C2 C3 1.359(5) . ?
C2 H2 0.9300 . ?
C3 C4 1.378(5) . ?
C3 H3A 0.9300 . ?
C4 C5 1.345(5) . ?
C4 H4A 0.9300 . ?
C5 N1 1.341(4) . ?
C5 C6 1.484(4) . ?
C6 N2 1.304(4) . ?
C6 N3 1.352(4) . ?
C7 C8 1.376(5) . ?
C7 N3 1.378(4) . ?
C7 C12 1.382(5) . ?
C8 C9 1.374(6) . ?
C8 H8 0.9300 . ?
C9 C10 1.388(5) . ?
C9 H9 0.9300 . ?
C10 C11 1.367(5) . ?
C10 H10 0.9300 . ?
C11 C12 1.376(5) . ?
C11 H11 0.9300 . ?
C12 N2 1.406(4) . ?
C13 O1 1.242(4) . ?
C13 O2 1.260(4) . ?
C13 C14 1.498(3) . ?
C14 C15 1.3900 . ?
C14 C19 1.3900 . ?
C15 C16 1.3900 . ?
C15 H15 0.9300 . ?
C16 O5 1.349(3) . ?
C16 C17 1.3900 . ?
C17 C18 1.3900 . ?
C17 H17 0.9300 . ?
C18 C19 1.3900 . ?
C18 C20 1.496(3) . ?
C19 H20 0.9300 . ?
C20 O4 1.235(4) . ?
C20 O3 1.254(4) . ?
Mn1 O1 2.059(2) . ?
Mn1 O3 2.070(2) 7_556 ?
Mn1 O2 2.095(2) 2_656 ?
Mn1 N2 2.202(3) . ?
Mn1 N1 2.318(3) . ?
N3 H3 0.8600 . ?
O2 Mn1 2.095(2) 2_656 ?
O3 Mn1 2.070(2) 7_556 ?
O5 H5A 0.9601 . ?
O1W H1X 0.8501 . ?
O1W H1Y 0.8500 . ?
O2W H2X 0.8500 . ?
O2W H2Y 0.8500 . ?
O3W H3X 0.8500 . ?
O3W H3Y 0.8500 . ?
O4W H4X 0.8500 . ?
O4W H4Y 0.8500 . ?

loop_
_geom_angle_atom_site_label_1
_geom_angle_atom_site_label_2
_geom_angle_atom_site_label_3
_geom_angle
_geom_angle_site_symmetry_1
_geom_angle_site_symmetry_3
_geom_angle_publ_flag
N1 C1 C2 122.2(3) . . ?
N1 C1 H1 118.9 . . ?
C2 C1 H1 118.9 . . ?
C3 C2 C1 118.8(3) . . ?
C3 C2 H2 120.6 . . ?
C1 C2 H2 120.6 . . ?
C2 C3 C4 119.0(3) . . ?
C2 C3 H3A 120.5 . . ?
C4 C3 H3A 120.5 . . ?
C5 C4 C3 118.9(4) . . ?
C5 C4 H4A 120.5 . . ?
C3 C4 H4A 120.5 . . ?
N1 C5 C4 123.8(3) . . ?
N1 C5 C6 111.4(3) . . ?
C4 C5 C6 124.7(3) . . ?
N2 C6 N3 113.2(3) . . ?
N2 C6 C5 122.8(3) . . ?
N3 C6 C5 124.0(3) . . ?
C8 C7 N3 132.5(3) . . ?
C8 C7 C12 121.4(3) . . ?
N3 C7 C12 106.1(3) . . ?
C9 C8 C7 117.9(4) . . ?
C9 C8 H8 121.0 . . ?
C7 C8 H8 121.0 . . ?
C8 C9 C10 120.1(3) . . ?
C8 C9 H9 120.0 . . ?
C10 C9 H9 120.0 . . ?
C11 C10 C9 122.4(4) . . ?
C11 C10 H10 118.8 . . ?
C9 C10 H10 118.8 . . ?
C10 C11 C12 117.1(3) . . ?
C10 C11 H11 121.4 . . ?
C12 C11 H11 121.4 . . ?
C11 C12 C7 121.1(3) . . ?
C11 C12 N2 130.1(3) . . ?
C7 C12 N2 108.8(3) . . ?
O1 C13 O2 124.1(3) . . ?
O1 C13 C14 118.5(2) . . ?
O2 C13 C14 117.4(3) . . ?
C15 C14 C19 120.0 . . ?
C15 C14 C13 119.48(16) . . ?
C19 C14 C13 120.43(16) . . ?
C14 C15 C16 120.0 . . ?
C14 C15 H15 120.0 . . ?
C16 C15 H15 120.0 . . ?
O5 C16 C15 118.31(15) . . ?
O5 C16 C17 121.67(15) . . ?
C15 C16 C17 120.0 . . ?
C16 C17 C18 120.0 . . ?
C16 C17 H17 120.0 . . ?
C18 C17 H17 120.0 . . ?
C19 C18 C17 120.0 . . ?
C19 C18 C20 121.34(17) . . ?
C17 C18 C20 118.66(18) . . ?
C18 C19 C14 120.0 . . ?
C18 C19 H20 120.0 . . ?
C14 C19 H20 120.0 . . ?
O4 C20 O3 124.2(3) . . ?
O4 C20 C18 119.0(3) . . ?
O3 C20 C18 116.8(3) . . ?
O1 Mn1 O3 95.34(9) . 7_556 ?
O1 Mn1 O2 97.36(9) . 2_656 ?
O3 Mn1 O2 103.79(9) 7_556 2_656 ?
O1 Mn1 N2 139.22(10) . . ?
O3 Mn1 N2 120.11(9) 7_556 . ?
O2 Mn1 N2 93.23(10) 2_656 . ?
O1 Mn1 N1 85.63(10) . . ?
O3 Mn1 N1 94.80(10) 7_556 . ?
O2 Mn1 N1 160.76(10) 2_656 . ?
N2 Mn1 N1 72.83(10) . . ?
C1 N1 C5 117.2(3) . . ?
C1 N1 Mn1 126.0(2) . . ?
C5 N1 Mn1 116.8(2) . . ?
C6 N2 C12 105.1(3) . . ?
C6 N2 Mn1 115.9(2) . . ?
C12 N2 Mn1 138.8(2) . . ?
C6 N3 C7 106.8(3) . . ?
C6 N3 H3 126.6 . . ?
C7 N3 H3 126.6 . . ?
C13 O1 Mn1 152.8(2) . . ?
C13 O2 Mn1 125.7(2) . 2_656 ?
C20 O3 Mn1 119.9(2) . 7_556 ?
C16 O5 H5A 109.4 . . ?
H1X O1W H1Y 109.5 . . ?
H2X O2W H2Y 109.5 . . ?
H3X O3W H3Y 109.5 . . ?
H4X O4W H4Y 109.5 . . ?

loop_
_geom_torsion_atom_site_label_1
_geom_torsion_atom_site_label_2
_geom_torsion_atom_site_label_3
_geom_torsion_atom_site_label_4
_geom_torsion
_geom_torsion_site_symmetry_1
_geom_torsion_site_symmetry_2
_geom_torsion_site_symmetry_3
_geom_torsion_site_symmetry_4
_geom_torsion_publ_flag
N1 C1 C2 C3 1.0(6) . . . . ?
C1 C2 C3 C4 -1.5(7) . . . . ?
C2 C3 C4 C5 0.1(6) . . . . ?
C3 C4 C5 N1 2.1(6) . . . . ?
C3 C4 C5 C6 178.8(4) . . . . ?
N1 C5 C6 N2 -3.6(4) . . . . ?
C4 C5 C6 N2 179.4(3) . . . . ?
N1 C5 C6 N3 178.4(3) . . . . ?
C4 C5 C6 N3 1.3(5) . . . . ?
N3 C7 C8 C9 -179.6(4) . . . . ?
C12 C7 C8 C9 -0.2(6) . . . . ?
C7 C8 C9 C10 1.3(6) . . . . ?
C8 C9 C10 C11 -0.6(6) . . . . ?
C9 C10 C11 C12 -1.2(6) . . . . ?
C10 C11 C12 C7 2.3(5) . . . . ?
C10 C11 C12 N2 179.7(4) . . . . ?
C8 C7 C12 C11 -1.6(6) . . . . ?
N3 C7 C12 C11 177.9(3) . . . . ?
C8 C7 C12 N2 -179.5(3) . . . . ?
N3 C7 C12 N2 0.0(4) . . . . ?
O1 C13 C14 C15 -172.9(2) . . . . ?
O2 C13 C14 C15 6.9(3) . . . . ?
O1 C13 C14 C19 3.5(3) . . . . ?
O2 C13 C14 C19 -176.7(2) . . . . ?
C19 C14 C15 C16 0.0 . . . . ?
C13 C14 C15 C16 176.4(2) . . . . ?
C14 C15 C16 O5 -178.6(2) . . . . ?
C14 C15 C16 C17 0.0 . . . . ?
O5 C16 C17 C18 178.6(2) . . . . ?
C15 C16 C17 C18 0.0 . . . . ?
C16 C17 C18 C19 0.0 . . . . ?
C16 C17 C18 C20 179.2(2) . . . . ?
C17 C18 C19 C14 0.0 . . . . ?
C20 C18 C19 C14 -179.2(2) . . . . ?
C15 C14 C19 C18 0.0 . . . . ?
C13 C14 C19 C18 -176.4(2) . . . . ?
C19 C18 C20 O4 171.1(2) . . . . ?
C17 C18 C20 O4 -8.1(3) . . . . ?
C19 C18 C20 O3 -7.8(3) . . . . ?
C17 C18 C20 O3 173.0(2) . . . . ?
C2 C1 N1 