
#######################################################################
#
#                 Cambridge Crystallographic Data Centre
#                                CCDC
#
#######################################################################
#
# If this CIF has been generated from an entry in the Cambridge
# Structural Database, then it will include bibliographic, chemical,
# crystal, experimental, refinement or atomic coordinate data resulting
# from the CCDC's data processing and validation procedures.
#
#######################################################################

data_CSD_CIF_ERGCAL10
_audit_creation_date 1977-02-08
_audit_creation_method CSD-ConQuest-V1
_database_code_CSD ERGCAL10
_database_code_depnum_ccdc_archive 'CCDC 1150104'
_chemical_formula_sum 'C28 H44 O1'
_chemical_formula_moiety
;
C28 H44 O1
;
_journal_coeditor_code "IUCr A13591"
_journal_coden_Cambridge 107
_journal_volume 32
_journal_year 1976
_journal_page_first 2374
_journal_name_full 'Acta Crystallogr.,Sect.B:Struct.Crystallogr.Cryst.Chem. '
loop_
_publ_author_name
"S.E.Hull"
"I.Leban"
"P.Main"
"P.S.White"
"M.M.Woolfson"
_chemical_name_systematic
;
Ergocalciferol
;
_chemical_name_common
;
Vitamin D!2$; DrugBank: DB00153; Teaching Subset: Essential Nutrients
;
_cell_volume   5254.296
_exptl_special_details
;
orthorhombic polymorph
Involved in intestinal absorption of calcium and phosphate.
;
_diffrn_ambient_temperature ?
_diffrn_special_details
;
The study was carried out at room temperature,in the range 283-303K

;
#These two values have been output from a single CSD field.
_refine_ls_R_factor_gt 0.095
_refine_ls_wR_factor_gt 0.095
_symmetry_cell_setting orthorhombic
_symmetry_space_group_name_H-M 'P 21 21 21'
_symmetry_Int_Tables_number 19
loop_
_symmetry_equiv_pos_site_id
_symmetry_equiv_pos_as_xyz
1 x,y,z
2 1/2+x,1/2-y,-z
3 -x,1/2+y,1/2-z
4 1/2-x,-y,1/2+z
_cell_length_a 21.695(10)
_cell_length_b 6.857(4)
_cell_length_c 35.320(15)
_cell_angle_alpha 90
_cell_angle_beta 90
_cell_angle_gamma 90
_cell_formula_units_Z 8
loop_
_atom_type_symbol
_atom_type_radius_bond
C 0.68
O 0.68
loop_
_atom_site_label
_atom_site_type_symbol
_atom_site_fract_x
_atom_site_fract_y
_atom_site_fract_z
C1 C -0.33910 0.49050 0.28770
C2 C -0.31690 0.33200 0.31400
C3 C -0.30580 -0.35710 0.41870
C4 C -0.30940 -0.30430 0.46170
C5 C -0.31840 -0.08430 0.46610
C6 C -0.37860 -0.02000 0.44510
C7 C -0.39030 0.18360 0.45820
C8 C -0.36570 0.18880 0.49980
C9 C -0.33700 -0.01680 0.50760
C10 C -0.26190 0.02410 0.45300
C11 C -0.27300 0.37730 0.34120
C12 C -0.33510 0.42090 0.24670
C13 C -0.28890 -0.00270 0.53970
C14 C -0.25340 -0.20110 0.54440
C15 C -0.32240 0.04750 0.57460
C16 C -0.31450 0.22520 0.59200
C17 C -0.34880 0.26990 0.62850
C18 C -0.30580 0.32780 0.66170
C19 C -0.26480 0.16810 0.67160
C20 C -0.27110 0.50950 0.65230
C21 C -0.39640 0.43060 0.62040
C22 C -0.36850 0.22830 0.23990
C23 C -0.34090 0.07380 0.26670
C24 C -0.34120 0.13820 0.30840
C25 C -0.35970 0.02150 0.33530
C26 C -0.36510 0.06160 0.37560
C27 C -0.37060 -0.07090 0.40350
C28 C -0.36390 -0.28580 0.39810
O1 O -0.43190 0.24650 0.24740
C29 C 0.44110 0.37760 0.36810
C30 C 0.45050 0.30550 0.32740
C31 C 0.48100 0.11780 0.32860
C32 C 0.44420 -0.02840 0.35090
C33 C 0.42670 0.04330 0.38950
C34 C 0.43220 -0.07830 0.41930
C35 C 0.41380 -0.03010 0.45880
C36 C 0.41500 -0.15320 0.48760
C37 C 0.43700 -0.36060 0.48770
C38 C 0.40510 0.24610 0.39060
C39 C 0.48370 -0.39800 0.51730
C40 C 0.46340 -0.32710 0.55830
C41 C 0.44310 -0.11590 0.55630
C42 C 0.39180 -0.09480 0.52690
C43 C 0.36420 0.10660 0.53320
C44 C 0.36490 0.12090 0.57690
C45 C 0.40890 -0.03440 0.59190
C46 C 0.49670 0.02060 0.54770
C47 C 0.35290 0.29860 0.40870
C48 C 0.44630 0.03560 0.62640
C49 C 0.49050 -0.11120 0.64350
C50 C 0.40200 0.11340 0.65650
C51 C 0.40300 0.29700 0.67030
C52 C 0.35750 0.38950 0.69860
C53 C 0.38710 0.40800 0.73700
C54 C 0.39860 0.21310 0.75410
C55 C 0.44070 0.52290 0.73910
C56 C 0.32620 0.56360 0.68400
O2 O 0.48760 0.04370 0.29050
#END
