
#######################################################################
#
#                 Cambridge Crystallographic Data Centre
#                                CCDC
#
#######################################################################
#
# If this CIF has been generated from an entry in the Cambridge
# Structural Database, then it will include bibliographic, chemical,
# crystal, experimental, refinement or atomic coordinate data resulting
# from the CCDC's data processing and validation procedures.
#
#######################################################################

data_CSD_CIF_ESAMOA
_audit_creation_date 2004-06-04
_audit_creation_method CSD-ConQuest-V1
_database_code_CSD ESAMOA
_database_code_depnum_ccdc_archive 'CCDC 222686'
_chemical_formula_sum 'C84 H180 Cl12 Fe12 N12 O96'
_chemical_formula_moiety
;
C84 H180 Fe12 N12 O48 12+,12(Cl1 O4 1-)
;
_journal_coden_Cambridge 182
_journal_year 2004
_journal_page_first 314
_journal_name_full 'Chem.Commun. '
loop_
_publ_author_name
"A.-A.H.Abu-Nawwas"
"J.Cano"
"P.Christian"
"T.Mallah"
"G.Rajaraman"
"S.J.Teat"
"R.E.P.Winpenny"
"Y.Yukawa"
_chemical_name_systematic
;
tetracosakis(\m~2~-Methoxo)-dodecakis(\m~2~-proline)-dodeca-iron(iii) 
dodecaperchlorate
;
_chemical_name_common
;
Teaching Subset: Symmetry
;
_cell_volume   4202.298
_exptl_crystal_colour 'yellow'
_exptl_crystal_density_diffrn 1.577
_exptl_crystal_description 'needle'
_diffrn_ambient_temperature 150
_diffrn_radiation_probe x-ray
_diffrn_source synchrotron
_refine_special_details
;
Four anion O atoms are disordered equally over two sites.

;
#These two values have been output from a single CSD field.
_refine_ls_R_factor_gt 0.0722
_refine_ls_wR_factor_gt 0.0722
_symmetry_cell_setting hexagonal
_symmetry_space_group_name_H-M 'P 6 2 2'
_symmetry_Int_Tables_number 177
loop_
_symmetry_equiv_pos_site_id
_symmetry_equiv_pos_as_xyz
1 x,y,z
2 -y,x-y,z
3 -x+y,-x,z
4 -x,-y,z
5 y,-x+y,z
6 x-y,x,z
7 y,x,-z
8 x-y,-y,-z
9 -x,-x+y,-z
10 -y,-x,-z
11 -x+y,y,-z
12 x,x-y,-z
_cell_length_a 25.0265(17)
_cell_length_b 25.0265(17)
_cell_length_c 7.7474(11)
_cell_angle_alpha 90
_cell_angle_beta 90
_cell_angle_gamma 120
_cell_formula_units_Z 1
loop_
_atom_type_symbol
_atom_type_radius_bond
C 0.68
H 0.23
Cl 0.99
Fe 1.26
N 0.68
O 0.68
loop_
_atom_site_label
_atom_site_type_symbol
_atom_site_fract_x
_atom_site_fract_y
_atom_site_fract_z
Fe1 Fe 0.86384(2) 0.72768(5) 1.00000
Fe2 Fe 1.00000(4) 0.76831(4) 1.00000
O1 O 0.9280(2) 0.7341(2) 0.8395(7)
C1 C 0.9184(5) 0.6988(5) 0.6854(13)
H1 H 0.92940 0.66690 0.70670
H2 H 0.94420 0.72600 0.59250
H3 H 0.87490 0.67920 0.65160
O2 O 0.8466(2) 0.7893(2) 0.8839(7)
C2 C 0.8717(7) 0.8208(8) 0.7283(19)
H4 H 0.85100 0.84370 0.69550
H5 H 0.86560 0.79100 0.63750
H6 H 0.91590 0.84960 0.74350
O3 O 1.0347(2) 0.7245(2) 0.8548(9)
O4 O 0.7930(2) 0.6566(2) 0.8600(8)
C3 C 1.0898(4) 0.7415(3) 0.8222(13)
C4 C 1.0999(4) 0.6947(3) 0.7239(13)
H7 H 1.09200 0.69720 0.59840
C5 C 1.0610(4) 0.6284(5) 0.7828(19)
H8 H 1.05480 0.62630 0.90940
H9 H 1.02020 0.60840 0.72550
C6 C 1.0961(5) 0.5986(5) 0.733(2)
H10 H 1.08780 0.58520 0.61080
H11 H 1.08450 0.56200 0.80620
C7 C 1.1625(5) 0.6454(4) 0.7570(16)
H12 H 1.18820 0.64220 0.66500
H13 H 1.17770 0.64050 0.87070
N1 N 1.1631(3) 0.7073(3) 0.7460(11)
H14 H 1.17970 0.72970 0.84530
H15 H 1.18690 0.73000 0.65410
Cl1 Cl 0.68282(12) 0.51695(15) 0.2495(4)
O5 O 0.6470(6) 0.4534(4) 0.1939(17)
O6 O 0.7183(5) 0.5538(5) 0.1086(13)
O7 O 0.7211(5) 0.5212(6) 0.3909(14)
O8 O 0.6401(5) 0.5366(6) 0.3041(16)
O9? O 0.6357(6) 0.4579(5) 0.307(2)
O10? O 0.7177(6) 0.5080(7) 0.1129(16)
O11? O 0.7260(5) 0.5482(6) 0.3880(13)
O12? O 0.6586(8) 0.5534(7) 0.186(2)
O1H O 1.0720(2) 0.8061(2) 1.1605(7)
Fe1H Fe 1.13616(2) 0.86384(5) 1.00000
O1E O 1.1939(2) 0.9280(2) 0.8395(7)
Fe2E Fe 1.23169(4) 1.00000(4) 1.00000
O1I O 1.2659(2) 1.0720(2) 1.1605(7)
Fe1I Fe 1.27232(2) 1.13616(5) 1.00000
O1A O 1.2659(2) 1.1939(2) 0.8395(7)
Fe2A Fe 1.23169(4) 1.23169(4) 1.00000
O1G O 1.1939(2) 1.2659(2) 1.1605(7)
Fe1G Fe 1.13616(2) 1.27232(5) 1.00000
O1C O 1.0720(2) 1.2659(2) 0.8395(7)
Fe2C Fe 1.00000(4) 1.23169(4) 1.00000
O1K O 0.9280(2) 1.1939(2) 1.1605(7)
Fe1K Fe 0.86384(2) 1.13616(5) 1.00000
O1B O 0.8061(2) 1.0720(2) 0.8395(7)
Fe2B Fe 0.76831(4) 1.00000(4) 1.00000
O1F O 0.7341(2) 0.9280(2) 1.1605(7)
Fe1F Fe 0.72768(2) 0.86384(5) 1.00000
O1D O 0.7341(2) 0.8061(2) 0.8395(7)
Fe2D Fe 0.76831(4) 0.76831(4) 1.00000
O1J O 0.8061(2) 0.7341(2) 1.1605(7)
O2F O 0.7893(2) 0.8466(2) 1.1161(7)
O2D O 0.7893(2) 0.9427(2) 0.8839(7)
O2K O 0.8466(2) 1.0573(2) 1.1161(7)
O2B O 0.9427(2) 1.1534(2) 0.8839(7)
O2G O 1.0573(2) 1.2107(2) 1.1161(7)
O2C O 1.1534(2) 1.2107(2) 0.8839(7)
O2I O 1.2107(2) 1.1534(2) 1.1161(7)
O2A O 1.2107(2) 1.0573(2) 0.8839(7)
O2H O 1.1534(2) 0.9427(2) 1.1161(7)
O2E O 1.0573(2) 0.8466(2) 0.8839(7)
O2J O 0.9427(2) 0.7893(2) 1.1161(7)
C3D C 0.7415(4) 0.6517(3) 0.8222(13)
O3D O 0.7245(2) 0.6898(2) 0.8548(9)
O3J O 0.6898(2) 0.7245(2) 1.1452(9)
C3J C 0.6517(4) 0.7415(3) 1.1778(13)
O4F O 0.6566(2) 0.7930(2) 1.1400(8)
O4D O 0.6566(2) 0.8636(2) 0.8600(8)
C3B C 0.6517(4) 0.9102(3) 0.8222(13)
O3B O 0.6898(2) 0.9653(2) 0.8548(9)
O3F O 0.7245(2) 1.0347(2) 1.1452(9)
C3F C 0.7415(4) 1.0898(3) 1.1778(13)
O4K O 0.7930(2) 1.1364(2) 1.1400(8)
O4B O 0.8636(2) 1.2070(2) 0.8600(8)
C3C C 0.9102(4) 1.2585(3) 0.8222(13)
O3C O 0.9653(2) 1.2755(2) 0.8548(9)
O3K O 1.0347(2) 1.3102(2) 1.1452(9)
C3K C 1.0898(4) 1.3483(3) 1.1778(13)
O4G O 1.1364(2) 1.3434(2) 1.1400(8)
O4C O 1.2070(2) 1.3434(2) 0.8600(8)
C3A C 1.2585(4) 1.3483(3) 0.8222(13)
O3A O 1.2755(2) 1.3102(2) 0.8548(9)
O3G O 1.3102(2) 1.2755(2) 1.1452(9)
C3G C 1.3483(4) 1.2585(3) 1.1778(13)
O4I O 1.3434(2) 1.2070(2) 1.1400(8)
O4A O 1.3434(2) 1.1364(2) 0.8600(8)
C3E C 1.3483(4) 1.0898(3) 0.8222(13)
O3E O 1.3102(2) 1.0347(2) 0.8548(9)
O3I O 1.2755(2) 0.9653(2) 1.1452(9)
C3I C 1.2585(4) 0.9102(3) 1.1778(13)
O4H O 1.2070(2) 0.8636(2) 1.1400(8)
O4E O 1.1364(2) 0.7930(2) 0.8600(8)
O3H O 0.9653(2) 0.6898(2) 1.1452(9)
C3H C 0.9102(4) 0.6517(3) 1.1778(13)
O4J O 0.8636(2) 0.6566(2) 1.1400(8)
C4H C 0.9001(4) 0.5948(3) 1.2761(13)
H7H H 0.90800 0.60520 1.40160
C5H C 0.9390(4) 0.5674(5) 1.2172(19)
H8H H 0.94520 0.57150 1.09060
H9H H 0.97980 0.58820 1.27450
C6H C 0.9039(5) 0.5025(5) 1.267(2)
H10H H 0.91220 0.49740 1.38920
H11H H 0.91550 0.47750 1.19380
C7H C 0.8375(5) 0.4829(4) 1.2430(16)
H12H H 0.81180 0.45400 1.33500
H13H H 0.82230 0.46280 1.12930
N1H N 0.8369(3) 0.5442(3) 1.2540(11)
H14H H 0.82030 0.55000 1.15470
H15H H 0.81310 0.54310 1.34590
C4I C 1.3053(4) 0.9001(3) 1.2761(13)
H7I H 1.30280 0.90800 1.40160
C5I C 1.3716(4) 0.9390(5) 1.2172(19)
H8I H 1.37370 0.94520 1.09060
H9I H 1.39160 0.97980 1.27450
C6I C 1.4014(5) 0.9039(5) 1.267(2)
H10I H 1.41480 0.91220 1.38920
H11I H 1.43800 0.91550 1.19380
C7I C 1.3546(5) 0.8375(4) 1.2430(16)
H12I H 1.35780 0.81180 1.33500
H13I H 1.35950 0.82230 1.12930
N1I N 1.2927(3) 0.8369(3) 1.2540(11)
H14I H 1.27030 0.82030 1.15470
H15I H 1.27000 0.81310 1.34590
C4E C 1.4052(4) 1.0999(3) 0.7239(13)
H7E H 1.39480 1.09200 0.59840
C5E C 1.4326(4) 1.0610(5) 0.7828(19)
H8E H 1.42850 1.05480 0.90940
H9E H 1.41180 1.02020 0.72550
C6E C 1.4975(5) 1.0961(5) 0.733(2)
H10E H 1.50260 1.08780 0.61080
H11E H 1.52250 1.08450 0.80620
C7E C 1.5171(5) 1.1625(4) 0.7570(16)
H12E H 1.54600 1.18820 0.66500
H13E H 1.53720 1.17770 0.87070
N1E N 1.4558(3) 1.1631(3) 0.7460(11)
H14E H 1.45000 1.17970 0.84530
H15E H 1.45690 1.18690 0.65410
C4G C 1.4052(4) 1.3053(3) 1.2761(13)
H7G H 1.39480 1.30280 1.40160
C5G C 1.4326(4) 1.3716(5) 1.2172(19)
H8G H 1.42850 1.37370 1.09060
H9G H 1.41180 1.39160 1.27450
C6G C 1.4975(5) 1.4014(5) 1.267(2)
H10G H 1.50260 1.41480 1.38920
H11G H 1.52250 1.43800 1.19380
C7G C 1.5171(5) 1.3546(4) 1.2430(16)
H12G H 1.54600 1.35780 1.33500
H13G H 1.53720 1.35950 1.12930
N1G N 1.4558(3) 1.2927(3) 1.2540(11)
H14G H 1.45000 1.27030 1.15470
H15G H 1.45690 1.27000 1.34590
C4A C 1.3053(4) 1.4052(3) 0.7239(13)
H7A H 1.30280 1.39480 0.59840
C5A C 1.3716(4) 1.4326(5) 0.7828(19)
H8A H 1.37370 1.42850 0.90940
H9A H 1.39160 1.41180 0.72550
C6A C 1.4014(5) 1.4975(5) 0.733(2)
H10A H 1.41480 1.50260 0.61080
H11A H 1.43800 1.52250 0.80620
C7A C 1.3546(5) 1.5171(4) 0.7570(16)
H12A H 1.35780 1.54600 0.66500
H13A H 1.35950 1.53720 0.87070
N1A N 1.2927(3) 1.4558(3) 0.7460(11)
H14A H 1.27030 1.45000 0.84530
H15A H 1.27000 1.45690 0.65410
C4K C 1.0999(4) 1.4052(3) 1.2761(13)
H7K H 1.09200 1.39480 1.40160
C5K C 1.0610(4) 1.4326(5) 1.2172(19)
H8K H 1.05480 1.42850 1.09060
H9K H 1.02020 1.41180 1.27450
C6K C 1.0961(5) 1.4975(5) 1.267(2)
H10K H 1.08780 1.50260 1.38920
H11K H 1.08450 1.52250 1.19380
C7K C 1.1625(5) 1.5171(4) 1.2430(16)
H12K H 1.18820 1.54600 1.33500
H13K H 1.17770 1.53720 1.12930
N1K N 1.1631(3) 1.4558(3) 1.2540(11)
H14K H 1.17970 1.45000 1.15470
H15K H 1.18690 1.45690 1.34590
C4C C 0.9001(4) 1.3053(3) 0.7239(13)
H7C H 0.90800 1.30280 0.59840
C5C C 0.9390(4) 1.3716(5) 0.7828(19)
H8C H 0.94520 1.37370 0.90940
H9C H 0.97980 1.39160 0.72550
C6C C 0.9039(5) 1.4014(5) 0.733(2)
H10C H 0.91220 1.41480 0.61080
H11C H 0.91550 1.43800 0.80620
C7C C 0.8375(5) 1.3546(4) 0.7570(16)
H12C H 0.81180 1.35780 0.66500
H13C H 0.82230 1.35950 0.87070
N1C N 0.8369(3) 1.2927(3) 0.7460(11)
H14C H 0.82030 1.27030 0.84530
H15C H 0.81310 1.27000 0.65410
C4F C 0.6947(4) 1.0999(3) 1.2761(13)
H7F H 0.69720 1.09200 1.40160
C5F C 0.6284(4) 1.0610(5) 1.2172(19)
H8F H 0.62630 1.05480 1.09060
H9F H 0.60840 1.02020 1.27450
C6F C 0.5986(5) 1.0961(5) 1.267(2)
H10F H 0.58520 1.08780 1.38920
H11F H 0.56200 1.08450 1.19380
C7F C 0.6454(5) 1.1625(4) 1.2430(16)
H12F H 0.64220 1.18820 1.33500
H13F H 0.64050 1.17770 1.12930
N1F N 0.7073(3) 1.1631(3) 1.2540(11)
H14F H 0.72970 1.17970 1.15470
H15F H 0.73000 1.18690 1.34590
C4B C 0.5948(4) 0.9001(3) 0.7239(13)
H7B H 0.60520 0.90800 0.59840
C5B C 0.5674(4) 0.9390(5) 0.7828(19)
H8B H 0.57150 0.94520 0.90940
H9B H 0.58820 0.97980 0.72550
C6B C 0.5025(5) 0.9039(5) 0.733(2)
H10B H 0.49740 0.91220 0.61080
H11B H 0.47750 0.91550 0.80620
C7B C 0.4829(5) 0.8375(4) 0.7570(16)
H12B H 0.45400 0.81180 0.66500
H13B H 0.46280 0.82230 0.87070
N1B N 0.5442(3) 0.8369(3) 0.7460(11)
H14B H 0.55000 0.82030 0.84530
H15B H 0.54310 0.81310 0.65410
C4J C 0.5948(4) 0.6947(3) 1.2761(13)
H7J H 0.60520 0.69720 1.40160
C5J C 0.5674(4) 0.6284(5) 1.2172(19)
H8J H 0.57150 0.62630 1.09060
H9J H 0.58820 0.60840 1.27450
C6J C 0.5025(5) 0.5986(5) 1.267(2)
H10J H 0.49740 0.58520 1.38920
H11J H 0.47750 0.56200 1.19380
C7J C 0.4829(5) 0.6454(4) 1.2430(16)
H12J H 0.45400 0.64220 1.33500
H13J H 0.46280 0.64050 1.12930
N1J N 0.5442(3) 0.7073(3) 1.2540(11)
H14J H 0.55000 0.72970 1.15470
H15J H 0.54310 0.73000 1.34590
C4D C 0.6947(4) 0.5948(3) 0.7239(13)
H7D H 0.69720 0.60520 0.59840
C5D C 0.6284(4) 0.5674(5) 0.7828(19)
H8D H 0.62630 0.57150 0.90940
H9D H 0.60840 0.58820 0.72550
C6D C 0.5986(5) 0.5025(5) 0.733(2)
H10D H 0.58520 0.49740 0.61080
H11D H 0.56200 0.47750 0.80620
C7D C 0.6454(5) 0.4829(4) 0.7570(16)
H12D H 0.64220 0.45400 0.66500
H13D H 0.64050 0.46280 0.87070
N1D N 0.7073(3) 0.5442(3) 0.7460(11)
H14D H 0.72970 0.55000 0.84530
H15D H 0.73000 0.54310 0.65410
C2J C 0.9491(7) 0.8208(8) 1.2717(19)
H4J H 0.99270 0.84370 1.30450
H5J H 0.92540 0.79100 1.36250
H6J H 0.93370 0.84960 1.25650
C2E C 1.0509(7) 0.8717(8) 0.7283(19)
H4E H 1.00730 0.85100 0.69550
H5E H 1.07460 0.86560 0.63750
H6E H 1.06630 0.91590 0.74350
C2H C 1.1283(7) 0.9491(8) 1.2717(19)
H4H H 1.14900 0.99270 1.30450
H5H H 1.13440 0.92540 1.36250
H6H H 1.08410 0.93370 1.25650
C2A C 1.1792(7) 1.0509(8) 0.7283(19)
H4A H 1.15630 1.00730 0.69550
H5A H 1.20900 1.07460 0.63750
H6A H 1.15040 1.06630 0.74350
C2I C 1.1792(7) 1.1283(8) 1.2717(19)
H4I H 1.15630 1.14900 1.30450
H5I H 1.20900 1.13440 1.36250
H6I H 1.15040 1.08410 1.25650
C2C C 1.1283(7) 1.1792(8) 0.7283(19)
H4C H 1.14900 1.15630 0.69550
H5C H 1.13440 1.20900 0.63750
H6C H 1.08410 1.15040 0.74350
C2G C 1.0509(7) 1.1792(8) 1.2717(19)
H4G H 1.00730 1.15630 1.30450
H5G H 1.07460 1.20900 1.36250
H6G H 1.06630 1.15040 1.25650
C2B C 0.9491(7) 1.1283(8) 0.7283(19)
H4B H 0.99270 1.14900 0.69550
H5B H 0.92540 1.13440 0.63750
H6B H 0.93370 1.08410 0.74350
C2K C 0.8717(7) 1.0509(8) 1.2717(19)
H4K H 0.85100 1.00730 1.30450
H5K H 0.86560 1.07460 1.36250
H6K H 0.91590 1.06630 1.25650
C2D C 0.8208(7) 0.9491(8) 0.7283(19)
H4D H 0.84370 0.99270 0.69550
H5D H 0.79100 0.92540 0.63750
H6D H 0.84960 0.93370 0.74350
C2F C 0.8208(7) 0.8717(8) 1.2717(19)
H4F H 0.84370 0.85100 1.30450
H5F H 0.79100 0.86560 1.36250
H6F H 0.84960 0.91590 1.25650
C1J C 0.7804(5) 0.6988(5) 1.3146(13)
H1J H 0.73750 0.66690 1.29330
H2J H 0.78180 0.72600 1.40750
H3J H 0.80430 0.67920 1.34840
C1D C 0.6988(5) 0.7804(5) 0.6854(13)
H1D H 0.66690 0.73750 0.70670
H2D H 0.72600 0.78180 0.59250
H3D H 0.67920 0.80430 0.65160
C1F C 0.6988(5) 0.9184(5) 1.3146(13)
H1F H 0.66690 0.92940 1.29330
H2F H 0.72600 0.94420 1.40750
H3F H 0.67920 0.87490 1.34840
C1B C 0.7804(5) 1.0816(5) 0.6854(13)
H1B H 0.73750 1.07060 0.70670
H2B H 0.78180 1.05580 0.59250
H3B H 0.80430 1.12510 0.65160
C1K C 0.9184(5) 1.2196(5) 1.3146(13)
H1K H 0.92940 1.26250 1.29330
H2K H 0.94420 1.21820 1.40750
H3K H 0.87490 1.19570 1.34840
C1C C 1.0816(5) 1.3012(5) 0.6854(13)
H1C H 1.07060 1.33310 0.70670
H2C H 1.05580 1.27400 0.59250
H3C H 1.12510 1.32080 0.65160
C1G C 1.2196(5) 1.3012(5) 1.3146(13)
H1G H 1.26250 1.33310 1.29330
H2G H 1.21820 1.27400 1.40750
H3G H 1.19570 1.32080 1.34840
C1A C 1.3012(5) 1.2196(5) 0.6854(13)
H1A H 1.33310 1.26250 0.70670
H2A H 1.27400 1.21820 0.59250
H3A H 1.32080 1.19570 0.65160
C1I C 1.3012(5) 1.0816(5) 1.3146(13)
H1I H 1.33310 1.07060 1.29330
H2I H 1.27400 1.05580 1.40750
H3I H 1.32080 1.12510 1.34840
C1E C 1.2196(5) 0.9184(5) 0.6854(13)
H1E H 1.26250 0.92940 0.70670
H2E H 1.21820 0.94420 0.59250
H3E H 1.19570 0.87490 0.65160
C1H C 1.0816(5) 0.7804(5) 1.3146(13)
H1H H 1.07060 0.73750 1.29330
H2H H 1.05580 0.78180 1.40750
H3H H 1.12510 0.80430 1.34840
#END
