####################################################################### 
# 
# This file contains crystal structure data downloaded from the 
# Cambridge Structural Database (CSD) hosted by the Cambridge 
# Crystallographic Data Centre (CCDC).
# 
# Full information about CCDC data access policies and citation 
# guidelines are available at http://www.ccdc.cam.ac.uk/access/V1 
# 
# Audit and citation data items may have been added by the CCDC. 
# Please retain this information to preserve the provenance of 
# this file and to allow appropriate attribution of the data. 
# 
#######################################################################

data_cumof7
_audit_block_doi                 10.5517/cc6sng2
_database_code_depnum_ccdc_archive 'CCDC 202444'
loop_
_citation_id
_citation_doi
_citation_year
1 10.1002/poc.644 2003
_audit_update_record             
;
2003-01-27 deposited with the CCDC.	2024-07-10 downloaded from the CCDC.
;

_audit_creation_method           'SHELXL-97 plus manual editing'
_chemical_name_systematic        
; 
? 
;
_chemical_name_common            ?
_chemical_melting_point          ?
_chemical_formula_moiety         
;
(Cd 2+)4, (C10 H8 N2)5, (C6 H6 O6 N 3-)2, (H2 O)4, (N O3 -)2, (H2 O)x
;
_chemical_formula_sum            'C62 H60 Cd4 N14 O22 .x(H2O)'
_chemical_formula_weight         1802.84

loop_
_atom_type_symbol
_atom_type_description
_atom_type_scat_dispersion_real
_atom_type_scat_dispersion_imag
_atom_type_scat_source
C C 0.0033 0.0016 'International Tables Vol C Tables 4.2.6.8 and 6.1.1.4'
H H 0.0000 0.0000 'International Tables Vol C Tables 4.2.6.8 and 6.1.1.4'
N N 0.0061 0.0033 'International Tables Vol C Tables 4.2.6.8 and 6.1.1.4'
O O 0.0106 0.0060 'International Tables Vol C Tables 4.2.6.8 and 6.1.1.4'
Cd Cd -0.8075 1.2024 'International Tables Vol C Tables 4.2.6.8 and 6.1.1.4'

_symmetry_cell_setting           Triclinic
_symmetry_space_group_name_H-M   P-1

loop_
_symmetry_equiv_pos_as_xyz
'x, y, z'
'-x, -y, -z'

_cell_length_a                   15.7479(11)
_cell_length_b                   16.8667(12)
_cell_length_c                   20.6392(10)
_cell_angle_alpha                108.382(4)
_cell_angle_beta                 96.212(4)
_cell_angle_gamma                116.624(2)
_cell_volume                     4445.0(5)
_cell_formula_units_Z            2
_cell_measurement_temperature    180(2)
_cell_measurement_reflns_used    80007
_cell_measurement_theta_min      1.00
_cell_measurement_theta_max      22.46

_exptl_crystal_description       Plate
_exptl_crystal_colour            Colourless
_exptl_crystal_size_max          0.18
_exptl_crystal_size_mid          0.10
_exptl_crystal_size_min          0.05
_exptl_crystal_density_meas      ?
_exptl_crystal_density_diffrn    1.347
_exptl_crystal_density_method    'not measured'
_exptl_crystal_F_000             1796
_exptl_absorpt_coefficient_mu    1.011
_exptl_absorpt_correction_type   multi-scan
_exptl_absorpt_correction_T_min  0.8390
_exptl_absorpt_correction_T_max  0.9512
_exptl_absorpt_process_details   'Sortav Blessing (1995)'

_exptl_special_details           
; 
Framework structure with large channels. All framework atoms located and
refined with isotropic displacement parameters for all atoms except Cd
(refined anisotropically). Framework formula is
[Cd~4~(C~10~H~8~N~2~)~5~(C~6~H~6~O~6~N)~2~(H~2~O)~4~]^2+^. The charge must
be balanced by 2- somewhere in the channels. There is considerable diffuse
electron density in the channels that is difficult to resolve. Two NO~3~^-^
anions were modelled but these do not refine very satisfactorily (overall
isotropic displacement parameter common to all atoms of 0.35 \%A^2^). One
water molecule was also modelled and it refines OK - no attempt was
made to place hydrogens. There will be considerably more
water molecules in the channels, but these cannot be resolved. The overall
R-factor and in particular the residual electron density reflect this
unresolved diffuse electron density in the channels.
;

_diffrn_ambient_temperature      180(2)
_diffrn_radiation_wavelength     0.71073
_diffrn_radiation_type           MoK\a
_diffrn_radiation_source         'fine-focus sealed tube'
_diffrn_radiation_monochromator  graphite
_diffrn_measurement_device_type  'Nonius Kappa CCD'
_diffrn_measurement_method       'Thin slice \w and \f scans'
_diffrn_standards_number         0
_diffrn_reflns_number            26646
_diffrn_reflns_av_R_equivalents  0.0765
_diffrn_reflns_av_sigmaI/netI    0.0939
_diffrn_reflns_limit_h_min       -16
_diffrn_reflns_limit_h_max       16
_diffrn_reflns_limit_k_min       -17
_diffrn_reflns_limit_k_max       17
_diffrn_reflns_limit_l_min       -21
_diffrn_reflns_limit_l_max       22
_diffrn_reflns_theta_min         3.55
_diffrn_reflns_theta_max         22.47
_reflns_number_total             11261
_reflns_number_gt                8685
_reflns_threshold_expression     I>2\s(I)

_computing_data_collection       'Collect (Nonius 1998)'
_computing_cell_refinement       'HKL Scalepack (Otwinowski & Minor 1997)'
_computing_data_reduction        
;
HKL Denzo and Scalepack (Otwinowski & Minor 1997)
;
_computing_structure_solution    'SIR-92 (Altomare et al., 1994)'
_computing_structure_refinement  'SHELXTL (Bruker, 2001)'
_computing_molecular_graphics    'SHELXTL (Bruker, 2001)'
_computing_publication_material  'SHELXTL (Bruker, 2001)'

_refine_special_details          
; 
Refinement of F^2^ against ALL reflections.  The weighted R-factor wR and 
goodness of fit S are based on F^2^, conventional R-factors R are based 
on F, with F set to zero for negative F^2^. The threshold expression of 
F^2^ > 2sigma(F^2^) is used only for calculating R-factors(gt) etc. and is 
not relevant to the choice of reflections for refinement.  R-factors based 
on F^2^ are statistically about twice as large as those based on F, and R- 
factors based on ALL data will be even larger. 
;

_refine_ls_structure_factor_coef Fsqd
_refine_ls_matrix_type           full
_refine_ls_weighting_scheme      calc
_refine_ls_weighting_details     
'calc w=1/[\s^2^(Fo^2^)+(0.2000P)^2^+150.0000P] where P=(Fo^2^+2Fc^2^)/3'
_atom_sites_solution_primary     direct
_atom_sites_solution_secondary   difmap
_atom_sites_solution_hydrogens   geom
_refine_ls_hydrogen_treatment    mixed
_refine_ls_extinction_method     SHELXL
_refine_ls_extinction_coef       0.0040(8)
_refine_ls_extinction_expression Fc^*^=kFc[1+0.001xFc^2^\l^3^/sin(2\q)]^-1/4^
_refine_ls_number_reflns         11261
_refine_ls_number_parameters     331
_refine_ls_number_restraints     26
_refine_ls_R_factor_all          0.1610
_refine_ls_R_factor_gt           0.1376
_refine_ls_wR_factor_ref         0.3668
_refine_ls_wR_factor_gt          0.3450
_refine_ls_goodness_of_fit_ref   1.064
_refine_ls_restrained_S_all      1.069
_refine_ls_shift/su_max          0.008
_refine_ls_shift/su_mean         0.001

loop_
_atom_site_label
_atom_site_type_symbol
_atom_site_fract_x
_atom_site_fract_y
_atom_site_fract_z
_atom_site_U_iso_or_equiv
_atom_site_adp_type
_atom_site_occupancy
_atom_site_symmetry_multiplicity
_atom_site_calc_flag
_atom_site_refinement_flags
_atom_site_disorder_assembly
_atom_site_disorder_group
Cd1 Cd 0.85734(10) -0.09904(10) 0.70197(7) 0.0322(5) Uani 1 1 d . . .
Cd2 Cd 0.06349(9) -0.22037(9) 0.68680(7) 0.0291(4) Uani 1 1 d . . .
Cd3 Cd 0.93278(10) 0.21194(9) 0.65693(7) 0.0303(4) Uani 1 1 d . . .
Cd4 Cd 1.14129(10) 0.54202(9) 0.76525(7) 0.0343(5) Uani 1 1 d . . .
N11 N 0.2343(7) -0.1668(8) 0.7104(7) 0.042(4) Uiso 1 1 d G . .
C11 C 0.2498(8) -0.2448(7) 0.6889(7) 0.052(5) Uiso 1 1 d G . .
H11A H 0.1955 -0.3093 0.6730 0.062 Uiso 1 1 calc R . .
C12 C 0.3449(9) -0.2286(8) 0.6905(8) 0.054(6) Uiso 1 1 d G . .
H12A H 0.3555 -0.2819 0.6758 0.065 Uiso 1 1 calc R . .
C13 C 0.4245(7) -0.1343(10) 0.7138(8) 0.049(5) Uiso 1 1 d G . .
C14 C 0.4090(8) -0.0562(7) 0.7354(8) 0.060(6) Uiso 1 1 d G . .
H14A H 0.4633 0.0082 0.7513 0.073 Uiso 1 1 calc R . .
C15 C 0.3139(9) -0.0725(7) 0.7337(7) 0.054(6) Uiso 1 1 d G . .
H15A H 0.3033 -0.0192 0.7485 0.064 Uiso 1 1 calc R . .
N12 N 0.7121(7) -0.0966(8) 0.7024(6) 0.038(4) Uiso 1 1 d G . .
C16 C 0.7069(8) -0.0172(7) 0.7442(7) 0.056(6) Uiso 1 1 d G . .
H16A H 0.7660 0.0441 0.7702 0.067 Uiso 1 1 calc R . .
C17 C 0.6152(10) -0.0273(9) 0.7480(7) 0.059(6) Uiso 1 1 d G . .
H17A H 0.6116 0.0269 0.7766 0.071 Uiso 1 1 calc R . .
C18 C 0.5287(7) -0.1170(10) 0.7100(8) 0.055(6) Uiso 1 1 d G . .
C19 C 0.5339(7) -0.1964(8) 0.6681(8) 0.063(6) Uiso 1 1 d G . .
H19A H 0.4748 -0.2577 0.6421 0.076 Uiso 1 1 calc R . .
C110 C 0.6256(9) -0.1862(7) 0.6643(7) 0.059(6) Uiso 1 1 d G . .
H11B H 0.6292 -0.2405 0.6357 0.071 Uiso 1 1 calc R . .
N21 N 0.8933(8) -0.0477(8) 0.8251(4) 0.035(4) Uiso 1 1 d G . .
C21 C 0.8288(8) -0.1070(6) 0.8527(5) 0.051(5) Uiso 1 1 d G . .
H21A H 0.7794 -0.1722 0.8222 0.061 Uiso 1 1 calc R . .
C22 C 0.8365(9) -0.0707(8) 0.9250(6) 0.054(6) Uiso 1 1 d G . .
H22A H 0.7924 -0.1112 0.9439 0.065 Uiso 1 1 calc R . .
C23 C 0.9088(10) 0.0247(9) 0.9696(4) 0.039(5) Uiso 1 1 d G . .
C24 C 0.9733(9) 0.0840(7) 0.9420(5) 0.052(5) Uiso 1 1 d G . .
H24A H 1.0227 0.1493 0.9725 0.062 Uiso 1 1 calc R . .
C25 C 0.9656(8) 0.0478(7) 0.8697(6) 0.051(5) Uiso 1 1 d G . .
H25A H 1.0097 0.0883 0.8508 0.061 Uiso 1 1 calc R . .
N22 N 0.9214(9) 0.1449(8) 1.1898(5) 0.039(4) Uiso 1 1 d G . .
C26 C 0.9837(9) 0.2039(7) 1.1610(6) 0.064(6) Uiso 1 1 d G . .
H26A H 1.0281 0.2711 1.1897 0.077 Uiso 1 1 calc R . .
C27 C 0.9811(10) 0.1644(9) 1.0901(6) 0.056(6) Uiso 1 1 d G . .
H27A H 1.0237 0.2047 1.0704 0.068 Uiso 1 1 calc R . .
C28 C 0.9162(10) 0.0660(9) 1.0481(5) 0.035(4) Uiso 1 1 d G . .
C29 C 0.8539(10) 0.0070(7) 1.0769(6) 0.073(7) Uiso 1 1 d G . .
H29A H 0.8095 -0.0603 1.0482 0.088 Uiso 1 1 calc R . .
C210 C 0.8565(9) 0.0465(8) 1.1478(6) 0.051(5) Uiso 1 1 d G . .
H21B H 0.8139 0.0061 1.1675 0.061 Uiso 1 1 calc R . .
N31 N 0.2342(10) -0.1738(13) 0.5454(10) 0.088(7) Uiso 1 1 d G . .
C31 C 0.2884(13) -0.2196(10) 0.5288(10) 0.096(10) Uiso 1 1 d G . .
H31B H 0.2564 -0.2884 0.5112 0.115 Uiso 1 1 calc R . .
C32 C 0.3896(13) -0.1648(12) 0.5379(11) 0.084(8) Uiso 1 1 d G . .
H32A H 0.4266 -0.1961 0.5265 0.101 Uiso 1 1 calc R . .
C33 C 0.4364(10) -0.0641(12) 0.5636(10) 0.066(7) Uiso 1 1 d G . .
C34 C 0.3822(13) -0.0183(10) 0.5802(10) 0.079(8) Uiso 1 1 d G . .
H34A H 0.4142 0.0504 0.5978 0.095 Uiso 1 1 calc R . .
C35 C 0.2810(13) -0.0732(13) 0.5711(11) 0.098(10) Uiso 1 1 d G . .
H35A H 0.2440 -0.0419 0.5825 0.118 Uiso 1 1 calc R . .
N32 N 0.7547(7) 0.1048(9) 0.6130(7) 0.046(4) Uiso 1 1 d G . .
C36 C 0.6994(10) 0.1502(8) 0.6251(8) 0.070(7) Uiso 1 1 d G . .
H36A H 0.7319 0.2192 0.6455 0.084 Uiso 1 1 calc R . .
C37 C 0.5965(10) 0.0948(11) 0.6074(9) 0.071(7) Uiso 1 1 d G . .
H37A H 0.5587 0.1258 0.6157 0.085 Uiso 1 1 calc R . .
C38 C 0.5489(7) -0.0061(10) 0.5775(9) 0.060(6) Uiso 1 1 d G . .
C39 C 0.6042(10) -0.0515(7) 0.5654(9) 0.062(6) Uiso 1 1 d G . .
H39A H 0.5717 -0.1205 0.5450 0.075 Uiso 1 1 calc R . .
C310 C 0.7071(10) 0.0039(9) 0.5831(8) 0.073(7) Uiso 1 1 d G . .
H31C H 0.7449 -0.0271 0.5748 0.088 Uiso 1 1 calc R . .
N41 N 1.1054(9) 0.5605(9) 0.8724(5) 0.043(4) Uiso 1 1 d G . .
C41 C 1.1674(9) 0.5626(10) 0.9270(6) 0.050(5) Uiso 1 1 d G . .
H41A H 1.2149 0.5440 0.9172 0.060 Uiso 1 1 calc R . .
C42 C 1.1598(9) 0.5918(10) 0.9960(5) 0.047(5) Uiso 1 1 d G . .
H42A H 1.2021 0.5932 1.0334 0.056 Uiso 1 1 calc R . .
C43 C 1.0902(10) 0.6190(10) 1.0104(5) 0.040(5) Uiso 1 1 d G . .
C44 C 1.0282(9) 0.6169(11) 0.9557(6) 0.056(6) Uiso 1 1 d G . .
H44A H 0.9807 0.6354 0.9655 0.068 Uiso 1 1 calc R . .
C45 C 1.0358(9) 0.5876(11) 0.8867(6) 0.060(6) Uiso 1 1 d G . .
H45A H 0.9935 0.5862 0.8494 0.072 Uiso 1 1 calc R . .
N42 N 1.0813(10) 0.7291(9) 1.2261(5) 0.041(4) Uiso 1 1 d G . .
C46 C 1.0299(11) 0.7390(11) 1.1729(7) 0.074(7) Uiso 1 1 d G . .
H46A H 0.9933 0.7708 1.1843 0.089 Uiso 1 1 calc R . .
C47 C 1.0323(11) 0.7026(12) 1.1030(6) 0.076(7) Uiso 1 1 d G . .
H47A H 0.9973 0.7094 1.0667 0.091 Uiso 1 1 calc R . .
C48 C 1.0860(10) 0.6562(10) 1.0863(5) 0.029(4) Uiso 1 1 d G . .
C49 C 1.1373(11) 0.6462(11) 1.1395(6) 0.064(6) Uiso 1 1 d G . .
H49A H 1.1740 0.6145 1.1281 0.076 Uiso 1 1 calc R . .
C410 C 1.1349(10) 0.6827(11) 1.2094(6) 0.066(7) Uiso 1 1 d G . .
H41B H 1.1700 0.6759 1.2458 0.080 Uiso 1 1 calc R . .
N51 N 1.2813(7) 0.6924(7) 0.8254(6) 0.041(4) Uiso 1 1 d G . .
C51 C 1.2728(8) 0.7741(9) 0.8536(8) 0.056(6) Uiso 1 1 d G . .
H51A H 1.2091 0.7670 0.8517 0.067 Uiso 1 1 calc R . .
C52 C 1.3575(10) 0.8662(8) 0.8846(8) 0.069(7) Uiso 1 1 d G . .
H52A H 1.3516 0.9221 0.9039 0.083 Uiso 1 1 calc R . .
C53 C 1.4506(8) 0.8766(8) 0.8874(8) 0.057(6) Uiso 1 1 d G . .
C54 C 1.4591(7) 0.7949(10) 0.8591(8) 0.064(6) Uiso 1 1 d G . .
H54A H 1.5228 0.8020 0.8610 0.077 Uiso 1 1 calc R . .
C55 C 1.3744(9) 0.7028(8) 0.8281(8) 0.059(6) Uiso 1 1 d G . .
H55A H 1.3802 0.6470 0.8088 0.071 Uiso 1 1 calc R . .
N52 N 1.7128(11) 1.1616(10) 0.9595(10) 0.094(8) Uiso 1 1 d G . .
C56 C 1.7204(10) 1.0814(13) 0.9557(10) 0.102(10) Uiso 1 1 d G . .
H56A H 1.7840 1.0884 0.9685 0.122 Uiso 1 1 calc R . .
C57 C 1.6351(12) 0.9909(11) 0.9333(10) 0.069(7) Uiso 1 1 d G . .
H57A H 1.6403 0.9361 0.9308 0.083 Uiso 1 1 calc R . .
C58 C 1.5420(10) 0.9806(10) 0.9146(9) 0.056(6) Uiso 1 1 d G . .
C59 C 1.5344(11) 1.0608(13) 0.9183(10) 0.080(8) Uiso 1 1 d G . .
H59A H 1.4708 1.0538 0.9055 0.097 Uiso 1 1 calc R . .
C510 C 1.6198(14) 1.1513(10) 0.9407(10) 0.092(9) Uiso 1 1 d G . .
H51B H 1.6146 1.2061 0.9433 0.110 Uiso 1 1 calc R . .
O621 O 1.0079(9) 0.0088(9) 0.7062(6) 0.036(3) Uiso 1 1 d . . .
O622 O 0.9331(10) 0.0895(9) 0.6915(7) 0.040(3) Uiso 1 1 d . . .
O641 O 1.2353(10) 0.4621(10) 0.7822(7) 0.047(3) Uiso 1 1 d . . .
O642 O 1.0780(10) 0.3740(9) 0.7152(7) 0.041(3) Uiso 1 1 d . . .
O661 O 1.0291(10) 0.1557(10) 0.4662(7) 0.045(3) Uiso 1 1 d . . .
O662 O 0.9343(9) 0.1489(9) 0.5390(7) 0.039(3) Uiso 1 1 d . . .
N61 N 1.0884(11) 0.2128(11) 0.6534(8) 0.032(3) Uiso 1 1 d . . .
C61 C 1.0765(13) 0.1180(13) 0.6497(10) 0.033(4) Uiso 1 1 d . . .
H61A H 1.1412 0.1289 0.6735 0.040 Uiso 1 1 calc R . .
H61B H 1.0554 0.0727 0.5990 0.040 Uiso 1 1 calc R . .
C62 C 0.9999(13) 0.0730(13) 0.6856(9) 0.033(4) Uiso 1 1 d . . .
C63 C 1.1694(13) 0.2932(13) 0.7197(9) 0.033(4) Uiso 1 1 d . . .
H63A H 1.1656 0.2715 0.7591 0.040 Uiso 1 1 calc R . .
H63B H 1.2348 0.3091 0.7114 0.040 Uiso 1 1 calc R . .
C64 C 1.1606(14) 0.3813(14) 0.7402(10) 0.035(4) Uiso 1 1 d . . .
C65 C 1.1110(14) 0.2282(14) 0.5905(9) 0.035(4) Uiso 1 1 d . . .
H65A H 1.1582 0.2066 0.5775 0.042 Uiso 1 1 calc R . .
H65B H 1.1429 0.2983 0.6012 0.042 Uiso 1 1 calc R . .
C66 C 1.0157(13) 0.1711(13) 0.5277(9) 0.032(4) Uiso 1 1 d . . .
O721 O -0.2375(10) -0.2728(10) 0.6803(7) 0.049(4) Uiso 1 1 d . . .
O722 O -0.0816(9) -0.2058(9) 0.6788(6) 0.035(3) Uiso 1 1 d . . .
O741 O 0.0640(9) -0.2879(9) 0.5668(6) 0.034(3) Uiso 1 1 d . . .
O742 O -0.0274(10) -0.3760(10) 0.4548(7) 0.048(3) Uiso 1 1 d . . .
O761 O 0.0593(9) -0.3407(9) 0.7260(6) 0.035(3) Uiso 1 1 d . . .
O762 O -0.0092(9) -0.4991(9) 0.7047(6) 0.038(3) Uiso 1 1 d . . .
N71 N -0.0905(10) -0.3777(10) 0.6169(7) 0.030(3) Uiso 1 1 d . . .
C71 C -0.1713(14) -0.3791(14) 0.6466(10) 0.039(5) Uiso 1 1 d . . .
H71A H -0.1682 -0.3962 0.6881 0.047 Uiso 1 1 calc R . .
H71B H -0.2360 -0.4293 0.6101 0.047 Uiso 1 1 calc R . .
C72 C -0.1634(13) -0.2801(13) 0.6699(9) 0.033(4) Uiso 1 1 d . . .
C73 C -0.1107(13) -0.3852(13) 0.5437(9) 0.032(4) Uiso 1 1 d . . .
H73A H -0.1426 -0.3471 0.5400 0.038 Uiso 1 1 calc R . .
H73B H -0.1579 -0.4540 0.5108 0.038 Uiso 1 1 calc R . .
C74 C -0.0156(13) -0.3477(13) 0.5207(9) 0.029(4) Uiso 1 1 d . . .
C75 C -0.0753(14) -0.4566(14) 0.6190(10) 0.036(4) Uiso 1 1 d . . .
H75A H -0.0484 -0.4763 0.5796 0.043 Uiso 1 1 calc R . .
H75B H -0.1400 -0.5135 0.6116 0.043 Uiso 1 1 calc R . .
C76 C -0.0038(13) -0.4260(13) 0.6899(9) 0.032(4) Uiso 1 1 d . . .
O11 O 0.8181(11) -0.1448(10) 0.5792(8) 0.049(3) Uiso 1 1 d D . .
H111 H 0.871(6) -0.142(12) 0.574(11) 0.059 Uiso 1 1 d D . .
H112 H 0.773(8) -0.203(4) 0.565(11) 0.059 Uiso 1 1 d D . .
O21 O 0.1103(10) -0.0855(10) 0.6579(7) 0.040(3) Uiso 1 1 d D . .
H211 H 0.064(9) -0.101(12) 0.623(5) 0.048 Uiso 1 1 d D . .
H212 H 0.110(12) -0.046(11) 0.695(5) 0.048 Uiso 1 1 d D . .
O31 O 0.8908(9) 0.3079(9) 0.6144(7) 0.039(3) Uiso 1 1 d D . .
H311 H 0.914(11) 0.312(11) 0.580(5) 0.046 Uiso 1 1 d D . .
H312 H 0.926(11) 0.361(6) 0.650(5) 0.046 Uiso 1 1 d D . .
O41 O 1.1787(11) 0.5346(10) 0.6574(7) 0.045(3) Uiso 1 1 d D . .
H411 H 1.127(7) 0.484(7) 0.628(8) 0.054 Uiso 1 1 d D . .
H412 H 1.228(7) 0.527(12) 0.658(10) 0.054 Uiso 1 1 d D . .
N100 N 0.789(3) 0.485(4) 0.796(3) 0.383(16) Uiso 1 1 d D . .
O100 O 0.783(6) 0.475(5) 0.852(3) 0.383(16) Uiso 1 1 d D . .
O101 O 0.826(6) 0.567(4) 0.798(4) 0.383(16) Uiso 1 1 d D . .
O102 O 0.756(6) 0.414(4) 0.739(3) 0.38