
#######################################################################
#
#                 Cambridge Crystallographic Data Centre
#                                CCDC
#
#######################################################################
#
# If this CIF has been generated from an entry in the Cambridge
# Structural Database, then it will include bibliographic, chemical,
# crystal, experimental, refinement or atomic coordinate data resulting
# from the CCDC's data processing and validation procedures.
#
#######################################################################

data_CSD_CIF_ESEDOV
_audit_creation_date 2004-06-04
_audit_creation_method CSD-ConQuest-V1
_database_code_CSD ESEDOV
_database_code_depnum_ccdc_archive 'CCDC 231631'
_chemical_formula_sum 'C81 H79 F12 N3 Ni2 O1 P6'
_chemical_formula_moiety
;
C77 H71 N3 Ni2 P4 2+,2(F6 P1 1-),C4 H8 O1
;
_journal_coden_Cambridge 9
_journal_volume 43
_journal_year 2004
_journal_page_first 1071
_journal_name_full 'Inorg.Chem. '
loop_
_publ_author_name
"G.M.Ferrence"
"E.Simon-Manso"
"B.K.Breedlove"
"L.Meeuwenberg"
"C.P.Kubiak"
_chemical_name_systematic
;
(\m~2~-m-Xylylisocyanide)-bis(\m~2~-bis(diphenylphosphino)methane)-bis(m-xylyl
isocyanide)-di-nickel(0,ii) bis(hexafluorophosphate) tetrahydrofuran solvate
;
_chemical_name_common
;
Teaching Subset: Fundamental Chemistry
;
_cell_volume   7524.700
_exptl_crystal_colour 'deep brown'
_exptl_crystal_density_diffrn 1.439
_diffrn_ambient_temperature 100
#These two values have been output from a single CSD field.
_refine_ls_R_factor_gt 0.0621
_refine_ls_wR_factor_gt 0.0621
_symmetry_cell_setting monoclinic
_symmetry_space_group_name_H-M 'P 21/n'
_symmetry_Int_Tables_number 14
loop_
_symmetry_equiv_pos_site_id
_symmetry_equiv_pos_as_xyz
1 x,y,z
2 1/2-x,1/2+y,1/2-z
3 -x,-y,-z
4 -1/2+x,-1/2-y,-1/2+z
_cell_length_a 13.8173(16)
_cell_length_b 23.585(3)
_cell_length_c 23.519(3)
_cell_angle_alpha 90
_cell_angle_beta 100.956(2)
_cell_angle_gamma 90
_cell_formula_units_Z 4
loop_
_atom_type_symbol
_atom_type_radius_bond
C 0.68
H 0.23
F 0.64
N 0.68
Ni 1.39
O 0.68
P 1.05
loop_
_atom_site_label
_atom_site_type_symbol
_atom_site_fract_x
_atom_site_fract_y
_atom_site_fract_z
Ni1 Ni 0.07796(5) 0.19206(3) 0.24577(3)
Ni2 Ni 0.23910(5) 0.20184(3) 0.31271(3)
P1 P 0.1892(1) 0.20886(6) 0.39738(6)
P2 P 0.00532(10) 0.17829(6) 0.32254(6)
P3 P 0.14204(10) 0.22726(6) 0.17171(6)
P4 P 0.26161(10) 0.28405(6) 0.26971(6)
C1 C 0.2476(4) 0.2657(2) 0.4445(2)
C2 C 0.6175(4) 0.1938(3) 0.4166(2)
C3 C 0.3564(4) 0.3537(3) 0.5038(2)
H1 H 0.39400 0.38410 0.52340
C4 C -0.1970(4) 0.1531(3) 0.2973(2)
H2 H -0.17710 0.11450 0.29990
C5 C -0.2803(4) 0.1782(3) 0.1222(2)
C6 C 0.2405(4) 0.1836(3) 0.0870(3)
H3 H 0.28260 0.21560 0.09470
N1 N -0.1127(3) 0.1578(2) 0.1690(2)
C7 C 0.4479(4) 0.3305(2) 0.2589(3)
H4 H 0.43750 0.31500 0.22090
N2 N 0.4506(4) 0.17645(19) 0.36758(19)
C8 C 0.2342(4) 0.0955(2) 0.4240(2)
H5 H 0.25170 0.09390 0.38680
C9 C 0.3813(4) 0.0752(2) 0.1834(2)
C10 C 0.5432(4) 0.1551(2) 0.3948(2)
C11 C -0.0186(4) 0.3019(2) 0.1463(2)
H6 H -0.04000 0.28560 0.17880
N3 N 0.2561(3) 0.1027(2) 0.23657(19)
C12 C -0.0227(4) 0.0950(2) 0.4029(2)
H7 H -0.04000 0.12520 0.42570
C13 C -0.3252(4) 0.2220(3) 0.2801(3)
H8 H -0.39320 0.23130 0.27040
C14 C 0.0937(4) 0.3472(2) 0.2815(2)
H9 H 0.08100 0.31800 0.30690
C15 C 0.0560(4) 0.2215(2) 0.3860(2)
H10 H 0.02900 0.20940 0.42020
H11 H 0.04070 0.26210 0.37850
C16 C 0.3778(4) 0.3213(2) 0.2941(2)
C17 C 0.0972(4) 0.3070(2) 0.0820(2)
H12 H 0.15540 0.29410 0.07020
C18 C -0.1262(4) 0.1953(2) 0.3078(2)
C19 C 0.4413(4) 0.1274(3) 0.2011(3)
H13 H 0.41310 0.15940 0.17690
H14 H 0.50930 0.12100 0.19620
H15 H 0.44070 0.13590 0.24180
C20 C -0.2041(4) 0.1391(3) 0.1368(2)
C21 C 0.5541(4) 0.0968(3) 0.3988(2)
C22 C 0.3427(4) 0.2560(2) 0.4756(2)
H16 H 0.37050 0.21910 0.47650
C23 C -0.2650(5) 0.2402(3) 0.1363(3)
H17 H -0.22920 0.25780 0.10870
H18 H -0.22670 0.24440 0.17560
H19 H -0.32910 0.25880 0.13370
C24 C 0.1637(4) 0.1758(2) 0.1178(2)
C25 C 0.1764(4) 0.3437(2) 0.2568(2)
C26 C 0.2055(4) 0.1466(2) 0.4445(2)
C27 C 0.3967(4) 0.3433(2) 0.3502(2)
H20 H 0.35070 0.33710 0.37490
C28 C 0.1189(4) 0.0897(3) 0.0641(3)
H21 H 0.07680 0.05770 0.05600
C29 C 0.2920(4) 0.0630(2) 0.2002(2)
C30 C 0.2339(4) 0.1408(2) 0.2633(2)
C31 C 0.2074(4) 0.3195(2) 0.4444(2)
H22 H 0.14240 0.32650 0.42390
C32 C 0.5490(4) 0.3827(2) 0.3349(3)
H23 H 0.60780 0.40320 0.34900
C33 C 0.2616(4) 0.2612(2) 0.1951(2)
H24 H 0.26900 0.29410 0.17010
H25 H 0.31580 0.23410 0.19380
C34 C -0.1562(4) 0.2513(3) 0.3047(2)
H26 H -0.10890 0.28100 0.31200
C35 C 0.3699(5) 0.1889(2) 0.3467(2)
C36 C 0.0673(4) 0.2825(2) 0.1308(2)
C37 C 0.0308(4) 0.0612(2) 0.3169(2)
H27 H 0.05040 0.06830 0.28100
C38 C 0.5315(4) 0.3617(2) 0.2790(3)
H28 H 0.57730 0.36880 0.25450
C39 C 0.3964(4) 0.2999(3) 0.5052(2)
H29 H 0.46100 0.29310 0.52650
C40 C 0.1038(4) 0.1288(3) 0.1058(2)
H30 H 0.05160 0.12320 0.12620
C41 C 0.6443(4) 0.0769(3) 0.4276(3)
H31 H 0.65440 0.03720 0.43250
C42 C -0.2955(4) 0.1660(3) 0.2833(2)
H32 H -0.34310 0.13650 0.27590
C43 C 0.2376(4) 0.0467(3) 0.4573(3)
H33 H 0.25680 0.01150 0.44300
C44 C 0.0061(4) 0.1064(2) 0.3490(2)
C45 C -0.0740(4) 0.3448(2) 0.1151(3)
H34 H -0.13260 0.35790 0.12640
C46 C 0.0294(4) 0.3919(2) 0.2702(2)
H35 H -0.02640 0.39390 0.28830
C47 C -0.3687(4) 0.1580(3) 0.0914(2)
H36 H -0.42230 0.18340 0.08020
C48 C -0.1272(5) 0.0417(3) 0.1366(3)
H37 H -0.14980 0.00290 0.12650
H38 H -0.09990 0.04370 0.17820
H39 H -0.07620 0.05210 0.11470
C49 C -0.2119(4) 0.0815(3) 0.1221(2)
C50 C -0.0436(4) 0.3683(2) 0.0676(2)
H40 H -0.08160 0.39730 0.04590
C51 C 0.2618(4) 0.3633(2) 0.4741(2)
H41 H 0.23380 0.40010 0.47390
C52 C 0.2379(4) 0.0143(2) 0.1842(2)
C53 C -0.0253(4) 0.0400(3) 0.4216(3)
H42 H -0.04430 0.03260 0.45760
C54 C 0.0273(4) 0.0061(3) 0.3361(3)
H43 H 0.04400 -0.02430 0.31340
C55 C -0.2554(4) 0.2639(3) 0.2909(3)
H44 H -0.27570 0.30240 0.28890
C56 C 0.7202(5) 0.1139(3) 0.4494(3)
H45 H 0.78210 0.09950 0.46850
C57 C 0.0418(4) 0.3496(2) 0.0517(2)
H46 H 0.06280 0.36630 0.01930
C58 C 0.1287(4) 0.4318(2) 0.2076(2)
H47 H 0.14080 0.46110 0.18210
C59 C 0.1458(4) 0.0020(3) 0.2062(3)
H48 H 0.15970 0.00300 0.24860
H49 H 0.12130 -0.03570 0.19310
H50 H 0.09580 0.03050 0.19140
C60 C -0.3803(5) 0.1016(3) 0.0770(3)
H51 H -0.44220 0.08830 0.05670
C61 C 0.1945(5) 0.0974(3) 0.0347(3)
H52 H 0.20570 0.07020 0.00680
C62 C 0.4728(4) 0.0570(3) 0.3737(3)
H53 H 0.49570 0.01780 0.38050
H54 H 0.45350 0.06370 0.33200
H55 H 0.41600 0.06340 0.39230
C63 C 0.1938(4) 0.3877(2) 0.2191(2)
H56 H 0.25060 0.38670 0.20180
C64 C 0.3603(4) -0.0127(3) 0.1289(2)
H57 H 0.38370 -0.03890 0.10390
C65 C 0.0461(4) 0.4344(3) 0.2321(2)
H58 H 0.00080 0.46490 0.22320
C66 C 0.4137(4) 0.0357(3) 0.1464(2)
H59 H 0.47360 0.04240 0.13320
C67 C 0.1828(4) 0.1499(3) 0.5000(2)
H60 H 0.16590 0.18520 0.51500
C68 C -0.0008(4) -0.0049(3) 0.3890(3)
H61 H -0.00310 -0.04270 0.40250
C69 C 0.2546(5) 0.1444(3) 0.0455(3)
H62 H 0.30590 0.15000 0.02440
C70 C 0.4809(4) 0.3739(2) 0.3703(3)
H63 H 0.49250 0.38900 0.40850
C71 C 0.6007(4) 0.2560(3) 0.4115(3)
H64 H 0.55960 0.26800 0.43900
H65 H 0.56730 0.26530 0.37200
H66 H 0.66420 0.27580 0.42020
C72 C -0.0387(4) 0.1717(2) 0.1978(2)
C73 C 0.1855(4) 0.1008(3) 0.5326(3)
H67 H 0.16820 0.10250 0.56980
C74 C 0.7062(4) 0.1711(3) 0.4434(3)
H68 H 0.75920 0.19580 0.45820
C75 C 0.2728(4) -0.0235(3) 0.1475(3)
H69 H 0.23640 -0.05690 0.13510
C76 C -0.3033(5) 0.0640(3) 0.0916(3)
H70 H -0.31270 0.02540 0.08050
C77 C 0.2126(4) 0.0499(3) 0.5121(3)
H71 H 0.21430 0.01680 0.53520
P5 P 0.62199(12) 0.88819(7) 0.09379(7)
F1 F 0.5260(2) 0.85539(15) 0.10462(16)
F2 F 0.6689(3) 0.88179(16) 0.16141(15)
F3 F 0.6698(3) 0.82951(16) 0.08111(16)
F4 F 0.7190(2) 0.92047(16) 0.08465(16)
F5 F 0.5738(3) 0.94674(15) 0.10718(16)
F6 F 0.5757(3) 0.89531(18) 0.02724(15)
P6 P 0.94895(12) 0.17983(8) 0.58415(7)
F7 F 0.9568(3) 0.22988(15) 0.63126(15)
F8 F 0.9403(3) 0.13009(16) 0.53702(15)
F9 F 1.0443(3) 0.15132(17) 0.62022(17)
F10 F 0.8843(4) 0.1427(2) 0.6200(2)
F11 F 1.0121(4) 0.21575(18) 0.54851(19)
F12 F 0.8518(3) 0.2071(2) 0.5509(2)
O1 O 0.6544(3) 1.02130(19) 0.29140(18)
C78 C 0.6825(5) 1.0139(3) 0.2358(3)
H72 H 0.69670 1.05110 0.21960
H73 H 0.62860 0.99540 0.20830
C79 C 0.7094(5) 0.9818(3) 0.3311(3)
H74 H 0.66540 0.96170 0.35300
H75 H 0.76120 1.00170 0.35880
C80 C 0.7549(5) 0.9407(3) 0.2950(3)
H76 H 0.70930 0.90920 0.28100
H77 H 0.81730 0.92500 0.31700
C81 C 0.7730(5) 0.9773(3) 0.2456(3)
H78 H 0.83380 1.00020 0.25660
H79 H 0.77740 0.95430 0.21100
#END
