
#######################################################################
#
#                 Cambridge Crystallographic Data Centre
#                                CCDC
#
#######################################################################
#
# If this CIF has been generated from an entry in the Cambridge
# Structural Database, then it will include bibliographic, chemical,
# crystal, experimental, refinement or atomic coordinate data resulting
# from the CCDC's data processing and validation procedures.
#
#######################################################################

data_CSD_CIF_ESEDIP
_audit_creation_date 2004-06-04
_audit_creation_method CSD-ConQuest-V1
_database_code_CSD ESEDIP
_database_code_depnum_ccdc_archive 'CCDC 231630'
_chemical_formula_sum 'C77 H71 N3 Ni2 P4'
_chemical_formula_moiety
;
C77 H71 N3 Ni2 P4
;
_journal_coden_Cambridge 9
_journal_volume 43
_journal_year 2004
_journal_page_first 1071
_journal_name_full 'Inorg.Chem. '
loop_
_publ_author_name
"G.M.Ferrence"
"E.Simon-Manso"
"B.K.Breedlove"
"L.Meeuwenberg"
"C.P.Kubiak"
_chemical_name_systematic
;
(\m~2~-m-Xylylisocyanide)-bis(\m~2~-bis(diphenylphosphino)methane)-bis(m-xylyl
isocyanide)-di-nickel(0)
;
_chemical_name_common
;
Teaching Subset: Fundamental Chemistry
;
_cell_volume   6269.281
_exptl_crystal_colour 'deep brown'
_exptl_crystal_density_diffrn 1.358
_exptl_crystal_description 'rhombohedral'
_diffrn_ambient_temperature ?
_diffrn_special_details
;
The study was carried out at room temperature,in the range 283-303K

;
#These two values have been output from a single CSD field.
_refine_ls_R_factor_gt 0.036
_refine_ls_wR_factor_gt 0.036
_symmetry_cell_setting monoclinic
_symmetry_space_group_name_H-M 'C 2/c'
_symmetry_Int_Tables_number 15
loop_
_symmetry_equiv_pos_site_id
_symmetry_equiv_pos_as_xyz
1 x,y,z
2 1/2+x,1/2+y,z
3 -x,y,1/2-z
4 1/2-x,1/2+y,1/2-z
5 -x,-y,-z
6 -1/2-x,-1/2-y,-z
7 x,-y,-1/2+z
8 -1/2+x,-1/2-y,-1/2+z
_cell_length_a 21.4008(16)
_cell_length_b 12.910(1)
_cell_length_c 23.6900(18)
_cell_angle_alpha 90
_cell_angle_beta 106.695(1)
_cell_angle_gamma 90
_cell_formula_units_Z 4
loop_
_atom_type_symbol
_atom_type_radius_bond
C 0.68
H 0.23
N 0.68
Ni 1.50
P 1.05
loop_
_atom_site_label
_atom_site_type_symbol
_atom_site_fract_x
_atom_site_fract_y
_atom_site_fract_z
Ni1 Ni 0.028461(10) 0.393846(17) 0.306888(9)
P1 P 0.10868(2) 0.49849(3) 0.303434(19)
P2 P -0.04700(2) 0.49231(3) 0.326253(19)
N1 N 0.07328(8) 0.24733(13) 0.40799(7)
N2 N 0.00000 0.19099(18) 0.25000
C1 C 0.09166(8) 0.57614(13) 0.23509(7)
H1 H 0.13140 0.60220 0.22930
H2 H 0.06430 0.63340 0.23840
C2 C 0.05775(9) 0.30730(14) 0.36930(8)
C3 C 0.17723(11) 0.30497(17) 0.50681(11)
H3 H 0.19050 0.32460 0.47200
H4 H 0.21520 0.30730 0.54180
H5 H 0.14390 0.35330 0.51180
C4 C 0.00416(10) 0.05378(17) 0.39638(9)
H6 H -0.00310 -0.02120 0.39320
H7 H 0.00890 0.08060 0.35910
H8 H -0.03310 0.08730 0.40500
C5 C 0.00000 0.2844(2) 0.25000
C6 C 0.00000 0.08569(19) 0.25000
C7 C 0.05971(10) 0.03198(15) 0.26884(8)
C8 C 0.12267(11) 0.09039(16) 0.29016(9)
H9 H 0.15910 0.04130 0.30090
H10 H 0.12230 0.13190 0.32470
H11 H 0.12780 0.13620 0.25880
C9 C 0.05847(10) -0.07547(16) 0.26822(10)
H12 H 0.09840 -0.11280 0.28050
C10 C 0.00000 -0.1294(2) 0.25000
H13 H 0.00000 -0.20300 0.25000
C11 C 0.18863(2) 0.44327(4) 0.30479(2)
C12 C 0.24273(2) 0.50531(4) 0.30723(2)
H14 H 0.23990 0.57910 0.31090
C13 C 0.30094(2) 0.46011(5) 0.30437(3)
H15 H 0.33820 0.50280 0.30610
C14 C 0.30507(3) 0.35288(5) 0.29905(3)
H16 H 0.34510 0.32180 0.29710
C15 C 0.25100(3) 0.29088(5) 0.29662(3)
H17 H 0.25380 0.21710 0.29290
C16 C 0.19277(2) 0.33605(4) 0.29948(2)
H18 H 0.15550 0.29340 0.29780
C17 C 0.13580(2) 0.59614(3) 0.36220(2)
C18 C 0.177915(19) 0.56390(3) 0.41593(2)
H19 H 0.19590 0.49530 0.41990
C19 C 0.19388(2) 0.63141(4) 0.46393(2)
H20 H 0.22290 0.60920 0.50090
C20 C 0.16770(2) 0.73114(3) 0.45820(3)
H21 H 0.17870 0.77760 0.49120
C21 C 0.12560(3) 0.76336(3) 0.40450(3)
H22 H 0.10760 0.83200 0.40060
C22 C 0.10963(2) 0.69587(3) 0.35649(2)
H23 H 0.08060 0.71800 0.31950
C23 C -0.023968(19) 0.58471(3) 0.38840(2)
C24 C 0.023299(19) 0.55128(3) 0.438917(18)
H24 H 0.04260 0.48400 0.43980
C25 C 0.04256(2) 0.61571(3) 0.48815(2)
H25 H 0.07510 0.59270 0.52290
C26 C 0.01452(3) 0.71357(4) 0.48687(2)
H26 H 0.02780 0.75790 0.52080
C27 C -0.03274(3) 0.74699(3) 0.43636(3)
H27 H -0.05200 0.81430 0.43550
C28 C -0.05200(2) 0.68256(3) 0.38712(2)
H28 H -0.08450 0.70550 0.35240
C29 C -0.113498(17) 0.42027(4) 0.34485(2)
C30 C -0.165987(17) 0.47015(4) 0.35705(3)
H29 H -0.16910 0.54430 0.35510
C31 C -0.213882(18) 0.41226(5) 0.37207(3)
H30 H -0.25000 0.44660 0.38050
C32 C -0.20931(2) 0.30448(5) 0.37491(3)
H31 H -0.24230 0.26470 0.38520
C33 C -0.15684(2) 0.25462(4) 0.36270(3)
H32 H -0.15370 0.18040 0.36470
C34 C -0.108912(19) 0.31251(4) 0.34769(2)
H33 H -0.07280 0.27820 0.33930
C35 C 0.17429(3) 0.11983(4) 0.54127(3)
H34 H 0.21120 0.13460 0.57370
C36 C 0.14938(2) 0.19565(4) 0.49881(2)
C37 C 0.09523(2) 0.17400(3) 0.45110(2)
C38 C 0.06596(3) 0.07653(3) 0.44588(3)
C39 C 0.09087(3) 0.00074(3) 0.48834(3)
H35 H 0.07070 -0.06630 0.48480
C40 C 0.14501(3) 0.02237(4) 0.53605(3)
H36 H 0.16210 -0.02980 0.56530
Ni1B Ni -0.028461(10) 0.393846(17) 0.193112(9)
P1B P -0.10868(2) 0.49849(3) 0.196566(19)
C1B C -0.09166(8) 0.57614(13) 0.26491(7)
P2B P 0.04700(2) 0.49231(3) 0.173747(19)
C2B C -0.05775(9) 0.30730(14) 0.13070(8)
N1B N -0.07328(8) 0.24733(13) 0.09201(7)
C37B C -0.09523(2) 0.17400(3) 0.04890(2)
C36B C -0.14938(2) 0.19565(4) 0.00119(2)
C3B C -0.17723(11) 0.30497(17) -0.00681(11)
H3B H -0.19050 0.32460 0.02800
H4B H -0.21520 0.30730 -0.04180
H5B H -0.14390 0.35330 -0.01180
C35B C -0.17429(3) 0.11983(4) -0.04127(3)
H34B H -0.21120 0.13460 -0.07370
C40B C -0.14501(3) 0.02237(4) -0.03605(3)
C39B C -0.09087(3) 0.00074(3) 0.01166(3)
C38B C -0.06596(3) 0.07653(3) 0.05412(3)
C4B C -0.00416(10) 0.05378(17) 0.10362(9)
H6B H 0.00310 -0.02120 0.10680
H7B H -0.00890 0.08060 0.14090
H8B H 0.03310 0.08730 0.09500
H35B H -0.07070 -0.06630 0.01520
H36B H -0.16210 -0.02980 -0.06530
C9B C -0.05847(10) -0.07547(16) 0.23178(10)
C7B C -0.05971(10) 0.03198(15) 0.23116(8)
C8B C -0.12267(11) 0.09039(16) 0.20984(9)
H9B H -0.15910 0.04130 0.19910
H10B H -0.12230 0.13190 0.17530
H11B H -0.12780 0.13620 0.24120
H12B H -0.09840 -0.11280 0.21950
C23B C 0.023968(19) 0.58471(3) 0.11160(2)
C24B C -0.023299(19) 0.55128(3) 0.061083(18)
H24B H -0.04260 0.48400 0.06020
C25B C -0.04256(2) 0.61571(3) 0.01185(2)
H25B H -0.07510 0.59270 -0.02290
C26B C -0.01452(3) 0.71357(4) 0.01313(2)
H26B H -0.02780 0.75790 -0.02080
C27B C 0.03274(3) 0.74699(3) 0.06364(3)
H27B H 0.05200 0.81430 0.06450
C28B C 0.05200(2) 0.68256(3) 0.11288(2)
H28B H 0.08450 0.70550 0.14760
C29B C 0.113498(17) 0.42027(4) 0.15515(2)
C30B C 0.165987(17) 0.47015(4) 0.14295(3)
H29B H 0.16910 0.54430 0.14490
C31B C 0.213882(18) 0.41226(5) 0.12793(3)
H30B H 0.25000 0.44660 0.11950
C32B C 0.20931(2) 0.30448(5) 0.12509(3)
H31B H 0.24230 0.26470 0.11480
C33B C 0.15684(2) 0.25462(4) 0.13730(3)
H32B H 0.15370 0.18040 0.13530
C34B C 0.108912(19) 0.31251(4) 0.15231(2)
H33B H 0.07280 0.27820 0.16070
H1B H -0.13140 0.60220 0.27070
H2B H -0.06430 0.63340 0.26160
C11B C -0.18863(2) 0.44327(4) 0.19521(2)
C12B C -0.24273(2) 0.50531(4) 0.19277(2)
H14B H -0.23990 0.57910 0.18910
C13B C -0.30094(2) 0.46011(5) 0.19563(3)
H15B H -0.33820 0.50280 0.19390
C14B C -0.30507(3) 0.35288(5) 0.20095(3)
H16B H -0.34510 0.32180 0.20290
C15B C -0.25100(3) 0.29088(5) 0.20338(3)
H17B H -0.25380 0.21710 0.20710
C16B C -0.19277(2) 0.33605(4) 0.20052(2)
H18B H -0.15550 0.29340 0.20220
C17B C -0.13580(2) 0.59614(3) 0.13780(2)
C18B C -0.177915(19) 0.56390(3) 0.08407(2)
H19B H -0.19590 0.49530 0.08010
C19B C -0.19388(2) 0.63141(4) 0.03607(2)
H20B H -0.22290 0.60920 -0.00090
C20B C -0.16770(2) 0.73114(3) 0.04180(3)
H21B H -0.17870 0.77760 0.00880
C21B C -0.12560(3) 0.76336(3) 0.09550(3)
H22B H -0.10760 0.83200 0.09940
C22B C -0.10963(2) 0.69587(3) 0.14351(2)
H23B H -0.08060 0.71800 0.18050
#END
