
#######################################################################
#
#                 Cambridge Crystallographic Data Centre
#                                CCDC
#
#######################################################################
#
# If this CIF has been generated from an entry in the Cambridge
# Structural Database, then it will include bibliographic, chemical,
# crystal, experimental, refinement or atomic coordinate data resulting
# from the CCDC's data processing and validation procedures.
#
#######################################################################

data_CSD_CIF_ESTDOL10
_audit_creation_date 1972-07-27
_audit_creation_method CSD-ConQuest-V1
_database_code_CSD ESTDOL10
_database_code_depnum_ccdc_archive 'CCDC 1150256'
_chemical_formula_sum 'C18 H25 O2.5'
_chemical_formula_moiety
;
C18 H24 O2,0.5(H2 O1)
;
_journal_coeditor_code "IUCr A08879"
_journal_coden_Cambridge 107
_journal_volume 28
_journal_year 1972
_journal_page_first 560
_journal_name_full 'Acta Crystallogr.,Sect.B:Struct.Crystallogr.Cryst.Chem. '
loop_
_publ_author_name
"B.Busetta"
"M.Hospital"
_chemical_name_systematic
;
Estradiol hemihydrate
;
_chemical_name_common
;
Estra-1,3,5(10)-triene-3,17beta-diol hemihydrate; Teaching Subset: 
Fundamental Chemistry
;
_cell_volume   1540.947
_exptl_crystal_density_diffrn 1.21
_diffrn_ambient_temperature ?
_diffrn_special_details
;
The study was carried out at room temperature,in the range 283-303K

;
#These two values have been output from a single CSD field.
_refine_ls_R_factor_gt 0.065
_refine_ls_wR_factor_gt 0.065
loop_
_citation_database_id_CSD
_citation_special_details
CUHQUS "is a stereoisomer of this entry"
_symmetry_cell_setting orthorhombic
_symmetry_space_group_name_H-M 'P 21 21 2'
_symmetry_Int_Tables_number 18
loop_
_symmetry_equiv_pos_site_id
_symmetry_equiv_pos_as_xyz
1 x,y,z
2 1/2+x,1/2-y,-z
3 1/2-x,1/2+y,-z
4 -x,-y,z
_cell_length_a 12.055(3)
_cell_length_b 19.280(3)
_cell_length_c 6.630(2)
_cell_angle_alpha 90
_cell_angle_beta 90
_cell_angle_gamma 90
_cell_formula_units_Z 4
loop_
_atom_type_symbol
_atom_type_radius_bond
C 0.68
H 0.24
O 0.68
loop_
_atom_site_label
_atom_site_type_symbol
_atom_site_fract_x
_atom_site_fract_y
_atom_site_fract_z
C1 C 0.12954 0.09907 -0.28392
C2 C 0.08965 0.13214 -0.10940
C3 C -0.10458 0.08279 -0.14834
C4 C -0.22934 0.09336 -0.11035
C5 C -0.25048 0.10863 0.11192
C6 C -0.17913 0.17148 0.17504
C7 C -0.22772 0.19345 0.37657
C8 C -0.35345 0.17568 0.36243
C9 C -0.36618 0.13686 0.15983
C10 C -0.23098 0.04428 0.24125
C11 C 0.24166 0.08643 -0.31619
C12 C 0.31728 0.10574 -0.17241
C13 C 0.28290 0.14201 -0.00091
C14 C 0.16938 0.15557 0.02827
C15 C 0.13785 0.19515 0.21524
C16 C 0.01659 0.21656 0.22081
C17 C -0.05753 0.15753 0.15078
C18 C -0.03262 0.14267 -0.07393
H1 H 0.07380 0.08080 -0.37560
H2 H 0.26080 0.06250 -0.46230
H3 H 0.33130 0.15850 0.12780
H4 H 0.19210 0.24590 0.24080
H5 H -0.00010 0.22740 0.35490
H6 H -0.03100 0.11530 0.22480
H7 H -0.04880 0.18340 -0.15820
H8 H -0.08230 0.03960 -0.07800
H9 H -0.28500 0.05110 -0.16480
H10 H -0.20220 0.20860 0.08500
H11 H -0.19890 0.17090 0.48930
H12 H -0.36720 0.14470 0.48580
H13 H -0.38140 0.16220 0.04380
H14 H -0.27960 0.00220 0.17800
H15 H -0.10640 0.08960 -0.28270
H16 H -0.25670 0.13270 -0.20090
H17 H 0.16400 0.16420 0.33200
H18 H 0.00430 0.25750 0.10570
H19 H -0.21230 0.25160 0.41100
H20 H -0.38790 0.21240 0.33770
H21 H -0.15400 0.02940 0.22880
H22 H -0.24810 0.05160 0.38750
H23 H 0.44120 0.08090 -0.32840
H24 H -0.46400 0.08120 0.04410
O1 O -0.45507 0.08821 0.16670
O2 O 0.42910 0.09052 -0.19483
H25 H 0.53850 0.04660 -0.62210
O3 O 0.50000 0.00000 -0.49729
H25C H 0.46150 -0.04660 -0.62210
#END
