####################################################################### 
# 
# This file contains crystal structure data downloaded from the 
# Cambridge Structural Database (CSD) hosted by the Cambridge 
# Crystallographic Data Centre (CCDC).
# 
# Full information about CCDC data access policies and citation 
# guidelines are available at http://www.ccdc.cam.ac.uk/access/V1 
# 
# Audit and citation data items may have been added by the CCDC. 
# Please retain this information to preserve the provenance of 
# this file and to allow appropriate attribution of the data. 
# 
#######################################################################

data_p3112_v4
_audit_block_doi                 10.5517/ccwgrcf
_database_code_depnum_ccdc_archive 'CCDC 818535'
loop_
_citation_id
_citation_doi
_citation_year
1 10.1039/c1ce05354j 2011
_audit_update_record             
;
2011-03-22 deposited with the CCDC.	2024-07-10 downloaded from the CCDC.
;
#TrackingRef 'p3112_v4f.cif'


_audit_creation_method           SHELXL-97
_chemical_name_systematic        
;
?
;
_chemical_name_common            ?
_chemical_melting_point          ?
_chemical_formula_moiety         ?
_chemical_formula_sum            'C120 H108 N4 O40 Zn8'
_chemical_formula_weight         2769.06

loop_
_atom_type_symbol
_atom_type_description
_atom_type_scat_dispersion_real
_atom_type_scat_dispersion_imag
_atom_type_scat_source
C C 0.0033 0.0016 'International Tables Vol C Tables 4.2.6.8 and 6.1.1.4'
H H 0.0000 0.0000 'International Tables Vol C Tables 4.2.6.8 and 6.1.1.4'
N N 0.0061 0.0033 'International Tables Vol C Tables 4.2.6.8 and 6.1.1.4'
O O 0.0106 0.0060 'International Tables Vol C Tables 4.2.6.8 and 6.1.1.4'
Zn Zn 0.2839 1.4301 'International Tables Vol C Tables 4.2.6.8 and 6.1.1.4'

_symmetry_cell_setting           trigonal
_symmetry_space_group_name_H-M   P3(1)12

loop_
_symmetry_equiv_pos_as_xyz
'x, y, z'
'-y, x-y, z+1/3'
'-x+y, -x, z+2/3'
'-y, -x, -z+2/3'
'-x+y, y, -z+1/3'
'x, x-y, -z'

_cell_length_a                   29.536(2)
_cell_length_b                   29.536(2)
_cell_length_c                   41.760(6)
_cell_angle_alpha                90.00
_cell_angle_beta                 90.00
_cell_angle_gamma                120.00
_cell_volume                     31550(5)
_cell_formula_units_Z            6
_cell_measurement_temperature    100(2)
_cell_measurement_reflns_used    ?
_cell_measurement_theta_min      ?
_cell_measurement_theta_max      ?

_exptl_crystal_description       block
_exptl_crystal_colour            'pale yellow'
_exptl_crystal_size_max          0.50
_exptl_crystal_size_mid          0.40
_exptl_crystal_size_min          0.35
_exptl_crystal_density_meas      ?
_exptl_crystal_density_diffrn    0.874
_exptl_crystal_density_method    'not measured'
_exptl_crystal_F_000             8496
_exptl_absorpt_coefficient_mu    0.945
_exptl_absorpt_correction_type   multi-scan
_exptl_absorpt_correction_T_min  0.6493
_exptl_absorpt_correction_T_max  0.7332
_exptl_absorpt_process_details   SADABS

_exptl_special_details           
;
?
;

_diffrn_ambient_temperature      100(2)
_diffrn_radiation_wavelength     0.71073
_diffrn_radiation_type           MoK\a
_diffrn_radiation_source         'fine-focus sealed tube'
_diffrn_radiation_monochromator  graphite
_diffrn_measurement_device_type  'Bruker P4'
_diffrn_measurement_method       '\w scans'
_diffrn_detector_area_resol_mean ?
_diffrn_standards_number         ?
_diffrn_standards_interval_count ?
_diffrn_standards_interval_time  ?
_diffrn_standards_decay_%        ?
_diffrn_reflns_number            60962
_diffrn_reflns_av_R_equivalents  0.1101
_diffrn_reflns_av_sigmaI/netI    0.1790
_diffrn_reflns_limit_h_min       -33
_diffrn_reflns_limit_h_max       17
_diffrn_reflns_limit_k_min       0
_diffrn_reflns_limit_k_max       34
_diffrn_reflns_limit_l_min       -42
_diffrn_reflns_limit_l_max       48
_diffrn_reflns_theta_min         2.11
_diffrn_reflns_theta_max         24.15
_reflns_number_total             33545
_reflns_number_gt                20591
_reflns_threshold_expression     >2sigma(I)

_computing_data_collection       'Bruker XSCANS'
_computing_cell_refinement       'Bruker XSCANS'
_computing_data_reduction        'Bruker SHELXTL'
_computing_structure_solution    'Bruker SHELXTL'
_computing_structure_refinement  'Bruker SHELXTL'
_computing_molecular_graphics    ?
_computing_publication_material  ?

_refine_special_details          
;
Refinement of F^2^ against ALL reflections. The weighted R-factor wR and
goodness of fit S are based on F^2^, conventional R-factors R are based
on F, with F set to zero for negative F^2^. The threshold expression of
F^2^ > 2sigma(F^2^) is used only for calculating R-factors(gt) etc. and is
not relevant to the choice of reflections for refinement. R-factors based
on F^2^ are statistically about twice as large as those based on F, and R-
factors based on ALL data will be even larger.
;

_refine_ls_structure_factor_coef Fsqd
_refine_ls_matrix_type           full
_refine_ls_weighting_scheme      calc
_refine_ls_weighting_details     
'calc w=1/[\s^2^(Fo^2^)+(0.0875P)^2^+0.0000P] where P=(Fo^2^+2Fc^2^)/3'
_atom_sites_solution_primary     direct
_atom_sites_solution_secondary   difmap
_atom_sites_solution_hydrogens   geom
_refine_ls_hydrogen_treatment    constr
_refine_ls_extinction_method     none
_refine_ls_extinction_coef       ?
_refine_ls_abs_structure_details 'Flack H D (1983), Acta Cryst. A39, 876-881'
_refine_ls_abs_structure_Flack   -0.02(2)
_refine_ls_number_reflns         33545
_refine_ls_number_parameters     1343
_refine_ls_number_restraints     3248
_refine_ls_R_factor_all          0.1092
_refine_ls_R_factor_gt           0.0788
_refine_ls_wR_factor_ref         0.2165
_refine_ls_wR_factor_gt          0.2074
_refine_ls_goodness_of_fit_ref   1.008
_refine_ls_restrained_S_all      0.998
_refine_ls_shift/su_max          0.009
_refine_ls_shift/su_mean         0.000

loop_
_atom_site_label
_atom_site_type_symbol
_atom_site_fract_x
_atom_site_fract_y
_atom_site_fract_z
_atom_site_U_iso_or_equiv
_atom_site_adp_type
_atom_site_occupancy
_atom_site_symmetry_multiplicity
_atom_site_calc_flag
_atom_site_refinement_flags
_atom_site_disorder_assembly
_atom_site_disorder_group
Zn1 Zn 0.97792(5) 0.70753(5) 0.02442(3) 0.0344(3) Uani 1 1 d U . .
Zn2 Zn 0.96575(5) 0.59575(5) 0.02518(3) 0.0329(3) Uani 1 1 d U . .
Zn3 Zn 1.01775(6) 0.66894(6) -0.03474(4) 0.0480(4) Uani 1 1 d U . .
Zn4 Zn 1.07789(6) 0.69440(6) 0.03169(4) 0.0529(4) Uani 1 1 d U . .
O1M O 1.0083(3) 0.6662(3) 0.01243(16) 0.0355(15) Uani 1 1 d U . .
O1A O 0.9420(3) 0.7230(3) -0.01018(18) 0.047(2) Uani 1 1 d DU . .
O2A O 0.9811(3) 0.7046(3) -0.05062(17) 0.0487(19) Uani 1 1 d DU . .
O3A O 0.6682(3) 0.9177(4) -0.2730(2) 0.061(2) Uani 1 1 d DU . .
O4A O 0.7478(3) 0.9736(3) -0.2894(2) 0.048(2) Uani 1 1 d DU . .
C1A C 0.9487(5) 0.7175(5) -0.0393(2) 0.049(3) Uani 1 1 d DU . .
C2A C 0.9229(3) 0.7347(4) -0.06274(17) 0.049(3) Uani 1 1 d GDU . .
C3A C 0.8873(3) 0.7494(4) -0.05279(14) 0.050(3) Uani 1 1 d GDU . .
H3A H 0.8798 0.7493 -0.0307 0.060 Uiso 1 1 calc R . .
C4A C 0.8625(3) 0.7644(4) -0.0752(2) 0.057(3) Uani 1 1 d GDU . .
H4A H 0.8381 0.7744 -0.0684 0.069 Uiso 1 1 calc R . .
C5A C 0.8734(4) 0.7646(4) -0.10763(18) 0.067(3) Uani 1 1 d GDU . .
C6A C 0.9091(4) 0.7498(4) -0.11758(14) 0.071(4) Uani 1 1 d GDU . .
H6A H 0.9165 0.7500 -0.1397 0.085 Uiso 1 1 calc R . .
C7A C 0.9338(3) 0.7349(4) -0.09514(18) 0.067(3) Uani 1 1 d GDU . .
H7A H 0.9582 0.7248 -0.1019 0.081 Uiso 1 1 calc R . .
C8A C 0.8500(6) 0.7837(6) -0.1306(3) 0.066(4) Uani 1 1 d DU . .
C9A C 0.8326(7) 0.7987(7) -0.1508(4) 0.092(5) Uani 1 1 d DU . .
C10A C 0.8139(7) 0.8176(8) -0.1740(4) 0.095(5) Uani 1 1 d DU . .
C11A C 0.7963(6) 0.8366(7) -0.1920(4) 0.089(5) Uani 1 1 d DU . .
C12A C 0.7747(4) 0.8585(3) -0.2140(2) 0.062(3) Uani 1 1 d GDU . .
C13A C 0.7233(3) 0.8474(3) -0.21084(19) 0.072(4) Uani 1 1 d GDU . .
H13A H 0.7011 0.8226 -0.1954 0.087 Uiso 1 1 calc R . .
C14A C 0.7044(3) 0.8723(4) -0.2304(2) 0.064(3) Uani 1 1 d GDU . .
H14A H 0.6693 0.8647 -0.2282 0.077 Uiso 1 1 calc R . .
C15A C 0.7370(3) 0.9085(3) -0.2530(2) 0.058(3) Uani 1 1 d GDU . .
C16A C 0.7884(3) 0.9197(3) -0.25613(19) 0.060(3) Uani 1 1 d GDU . .
H16A H 0.8106 0.9444 -0.2716 0.072 Uiso 1 1 calc R . .
C17A C 0.8073(3) 0.8947(4) -0.2366(2) 0.066(4) Uani 1 1 d GDU . .
H17A H 0.8424 0.9023 -0.2388 0.079 Uiso 1 1 calc R . .
C18A C 0.7158(4) 0.9342(5) -0.2742(3) 0.053(3) Uani 1 1 d DU . .
O1B O 0.9234(3) 0.6690(3) 0.05662(18) 0.0392(18) Uani 1 1 d DU . .
O2B O 0.9006(3) 0.5880(3) 0.04388(18) 0.0415(18) Uani 1 1 d DU . .
O3B O 0.4589(3) 0.4003(4) 0.3254(2) 0.057(2) Uani 1 1 d DU . .
O4B O 0.4026(3) 0.3653(4) 0.2851(2) 0.080(3) Uani 1 1 d DU . .
C1B C 0.8927(4) 0.6205(4) 0.0580(2) 0.033(2) Uani 1 1 d DU . .
C2B C 0.8465(2) 0.6008(3) 0.07905(16) 0.036(2) Uani 1 1 d GDU . .
C3B C 0.8093(3) 0.5479(3) 0.07908(17) 0.045(3) Uani 1 1 d GDU . .
H3B H 0.8128 0.5247 0.0648 0.054 Uiso 1 1 calc R . .
C4B C 0.7670(3) 0.5288(2) 0.0999(2) 0.051(3) Uani 1 1 d GDU . .
H4B H 0.7416 0.4927 0.1000 0.061 Uiso 1 1 calc R . .
C5B C 0.7619(3) 0.5627(3) 0.12076(18) 0.055(3) Uani 1 1 d GDU . .
C6B C 0.7990(3) 0.6156(3) 0.12074(18) 0.056(3) Uani 1 1 d GDU . .
H6B H 0.7955 0.6388 0.1350 0.067 Uiso 1 1 calc R . .
C7B C 0.8413(3) 0.6347(2) 0.09988(19) 0.043(3) Uani 1 1 d GDU . .
H7B H 0.8667 0.6708 0.0999 0.052 Uiso 1 1 calc R . .
C8B C 0.7180(5) 0.5409(5) 0.1427(3) 0.061(3) Uani 1 1 d DU . .
C9B C 0.6853(5) 0.5197(5) 0.1628(3) 0.060(4) Uani 1 1 d DU . .
C10B C 0.6455(5) 0.4973(6) 0.1839(3) 0.070(4) Uani 1 1 d DU . .
C11B C 0.6127(5) 0.4782(6) 0.2041(3) 0.068(4) Uani 1 1 d DU . .
C12B C 0.5728(3) 0.4509(4) 0.22859(17) 0.066(4) Uani 1 1 d GDU . .
C13B C 0.5229(3) 0.4124(4) 0.21963(14) 0.069(4) Uani 1 1 d GDU . .
H13B H 0.5162 0.4001 0.1982 0.082 Uiso 1 1 calc R . .
C14B C 0.4827(2) 0.3919(3) 0.24206(19) 0.070(4) Uani 1 1 d GDU . .
H14B H 0.4486 0.3656 0.2359 0.084 Uiso 1 1 calc R . .
C15B C 0.4925(3) 0.4099(3) 0.27346(17) 0.050(3) Uani 1 1 d GDU . .
C16B C 0.5425(3) 0.4484(3) 0.28242(15) 0.042(3) Uani 1 1 d GDU . .
H16B H 0.5492 0.4607 0.3039 0.051 Uiso 1 1 calc R . .
C17B C 0.5826(2) 0.4689(3) 0.25998(19) 0.061(4) Uani 1 1 d GDU . .
H17B H 0.6168 0.4952 0.2661 0.073 Uiso 1 1 calc R . .
C18B C 0.4489(4) 0.3920(5) 0.2966(3) 0.053(3) Uani 1 1 d DU . .
O1C O 0.9942(4) 0.5744(4) 0.0600(2) 0.069(3) Uani 1 1 d DU . .
O2C O 1.0639(5) 0.6469(5) 0.0687(3) 0.129(4) Uani 1 1 d DU . .
O3C O 1.2629(5) 0.3987(6) 0.3384(3) 0.126(4) Uani 1 1 d DU . .
O4C O 1.2639(8) 0.3536(8) 0.2973(4) 0.186(6) Uani 1 1 d DU . .
C1C C 1.0289(7) 0.6026(6) 0.0776(4) 0.106(4) Uani 1 1 d DU . .
C2C C 1.0468(5) 0.5809(5) 0.1032(3) 0.113(5) Uani 1 1 d GDU . .
C3C C 1.0875(6) 0.6131(5) 0.1236(4) 0.156(6) Uani 1 1 d GDU . .
H3C H 1.1081 0.6495 0.1192 0.187 Uiso 1 1 calc R . .
C4C C 1.0982(6) 0.5922(6) 0.1504(3) 0.164(7) Uani 1 1 d GDU . .
H4C H 1.1261 0.6143 0.1643 0.197 Uiso 1 1 calc R . .
C5C C 1.0682(7) 0.5391(6) 0.1569(3) 0.163(7) Uani 1 1 d GDU . .
C6C C 1.0274(6) 0.5068(5) 0.1365(4) 0.158(6) Uani 1 1 d GDU . .
H6C H 1.0069 0.4705 0.1410 0.189 Uiso 1 1 calc R . .
C7C C 1.0167(5) 0.5277(5) 0.1097(3) 0.136(6) Uani 1 1 d GDU . .
H7C H 0.9888 0.5057 0.0958 0.163 Uiso 1 1 calc R . .
C8C C 1.0864(10) 0.5193(9) 0.1822(5) 0.167(7) Uani 1 1 d DU . .
C9C C 1.1041(11) 0.4969(12) 0.1966(7) 0.194(9) Uani 1 1 d DU . .
C10C C 1.1390(11) 0.4897(12) 0.2152(7) 0.202(9) Uani 1 1 d DU . .
C11C C 1.1478(11) 0.4672(11) 0.2372(5) 0.180(7) Uani 1 1 d DU . .
C12C C 1.1717(6) 0.4443(7) 0.2564(4) 0.162(6) Uani 1 1 d GDU . .
C13C C 1.1832(6) 0.4571(6) 0.2886(4) 0.163(6) Uani 1 1 d GDU . .
H13C H 1.1726 0.4790 0.2988 0.196 Uiso 1 1 calc R . .
C14C C 1.2102(7) 0.4377(6) 0.3057(3) 0.160(6) Uani 1 1 d GDU . .
H14C H 1.2181 0.4464 0.3277 0.192 Uiso 1 1 calc R . .
C15C C 1.2257(6) 0.4056(7) 0.2907(4) 0.153(6) Uani 1 1 d GDU . .
C16C C 1.2142(6) 0.3929(6) 0.2586(4) 0.165(6) Uani 1 1 d GDU . .
H16C H 1.2248 0.3709 0.2483 0.197 Uiso 1 1 calc R . .
C17C C 1.1872(6) 0.4122(6) 0.2414(3) 0.156(6) Uani 1 1 d GDU . .
H17C H 1.1793 0.4035 0.2194 0.187 Uiso 1 1 calc R . .
C18C C 1.2493(10) 0.3808(9) 0.3117(4) 0.137(6) Uani 1 1 d DU . .
Zn5 Zn 0.62473(5) 0.93480(5) 0.01851(3) 0.0327(3) Uani 1 1 d U . .
Zn6 Zn 0.62938(5) 1.04537(5) 0.01110(3) 0.0407(4) Uani 1 1 d U . .
Zn7 Zn 0.73480(5) 1.03649(5) 0.02086(3) 0.0322(3) Uani 1 1 d U . .
Zn8 Zn 0.67131(5) 1.00142(5) -0.04285(3) 0.0374(3) Uani 1 1 d U . .
O2M O 0.6645(3) 1.0043(3) 0.00314(16) 0.0337(14) Uani 1 1 d U . .
O1E O 0.5611(3) 0.9189(3) 0.04026(19) 0.0436(19) Uani 1 1 d DU . .
O2E O 0.5890(3) 1.0027(3) 0.0496(2) 0.057(2) Uani 1 1 d DU . .
O3E O 0.0706(3) 0.7010(3) 0.27614(18) 0.048(2) Uani 1 1 d DU . .
O4E O 0.1213(3) 0.7256(3) 0.32032(17) 0.042(2) Uani 1 1 d DU . .
C1E C 0.5582(4) 0.9546(4) 0.0536(3) 0.046(3) Uani 1 1 d DU . .
C2E C 0.5129(3) 0.9390(4) 0.0764(2) 0.071(4) Uani 1 1 d GDU . .
C3E C 0.5122(4) 0.9750(3) 0.0974(3) 0.084(4) Uani 1 1 d GDU . .
H3E H 0.5400 1.0103 0.0973 0.100 Uiso 1 1 calc R . .
C4E C 0.4709(4) 0.9595(4) 0.1188(2) 0.101(5) Uani 1 1 d GDU . .
H4E H 0.4704 0.9842 0.1332 0.121 Uiso 1 1 calc R . .
C5E C 0.4303(4) 0.9079(4) 0.1190(3) 0.096(5) Uani 1 1 d GDU . .
C6E C 0.4311(3) 0.8718(3) 0.0980(3) 0.097(5) Uani 1 1 d GDU . .
H6E H 0.4033 0.8366 0.0981 0.116 Uiso 1 1 calc R . .
C7E C 0.4724(4) 0.8874(3) 0.0766(2) 0.085(4) Uani 1 1 d GDU . .
H7E H 0.4729 0.8627 0.0622 0.102 Uiso 1 1 calc R . .
C8E C 0.3925(6) 0.8908(7) 0.1446(4) 0.101(5) Uani 1 1 d DU . .
C9E C 0.3576(7) 0.8683(7) 0.1629(4) 0.104(5) Uani 1 1 d DU . .
C10E C 0.3242(6) 0.8489(7) 0.1887(4) 0.090(5) Uani 1 1 d DU . .
C11E C 0.2901(5) 0.8281(6) 0.2077(3) 0.069(4) Uani 1 1 d DU . .
C12E C 0.2461(3) 0.7977(3) 0.22809(18) 0.073(4) Uani 1 1 d GDU . .
C13E C 0.2529(2) 0.8052(3) 0.26099(19) 0.051(3) Uani 1 1 d GDU . .
H13E H 0.2867 0.8277 0.2695 0.061 Uiso 1 1 calc R . .
C14E C 0.2102(3) 0.7798(3) 0.28139(14) 0.049(3) Uani 1 1 d GDU . .
H14E H 0.2148 0.7849 0.3039 0.059 Uiso 1 1 calc R . .
C15E C 0.1607(2) 0.7468(3) 0.26890(17) 0.048(3) Uani 1 1 d GDU . .
C16E C 0.1539(2) 0.7393(3) 0.23600(18) 0.058(3) Uani 1 1 d GDU . .
H16E H 0.1201 0.7167 0.2275 0.070 Uiso 1 1 calc R . .
C17E C 0.1966(3) 0.7647(4) 0.21560(14) 0.055(3) Uani 1 1 d GDU . .
H17E H 0.1920 0.7595 0.1931 0.066 Uiso 1 1 calc R . .
C18E C 0.1143(4) 0.7232(5) 0.2906(2) 0.050(3) Uani 1 1 d DU . .
O1F O 0.6664(3) 0.9212(3) 0.05034(18) 0.0403(19) Uani 1 1 d DU . .
O2F O 0.7483(3) 0.9863(3) 0.04332(18) 0.0412(19) Uani 1 1 d DU . .
O3F O 0.9328(3) 0.7244(3) 0.32252(19) 0.047(2) Uani 1 1 d DU . .
O4F O 0.9815(3) 0.7258(3) 0.28133(19) 0.057(2) Uani 1 1 d DU . .
C1F C 0.7147(4) 0.9434(4) 0.0556(3) 0.041(3) Uani 1 1 d DU . .
C2F C 0.7333(3) 0.9173(3) 0.07792(18) 0.045(3) Uani 1 1 d GDU . .
C3F C 0.7865(3) 0.9377(3) 0.0828(2) 0.063(4) Uani 1 1 d GDU . .
H3F H 0.8111 0.9675 0.0711 0.076 Uiso 1 1 calc R . .
C4F C 0.8039(3) 0.9145(3) 0.1050(2) 0.061(3) Uani 1 1 d GDU . .
H4F H 0.8403 0.9285 0.1083 0.073 Uiso 1 1 calc R . .
C5F C 0.7679(4) 0.8710(3) 0.12214(19) 0.061(3) Uani 1 1 d GDU . .
C6F C 0.7147(3) 0.8505(3) 0.1172(2) 0.067(4) Uani 1 1 d GDU . .
H6F H 0.6901 0.8208 0.1290 0.081 Uiso 1 1 calc R . .
C7F C 0.6973(2) 0.8737(3) 0.0951(2) 0.061(3) Uani 1 1 d GDU . .
H7F H 0.6609 0.8597 0.0917 0.074 Uiso 1 1 calc R . .
C8F C 0.7856(6) 0.8463(6) 0.1449(3) 0.066(4) Uani 1 1 d DU . .
C9F C 0.8043(6) 0.8314(5) 0.1645(3) 0.057(3) Uani 1 1 d DU . .
C10F C 0.8251(6) 0.8152(6) 0.1871(3) 0.065(4) Uani 1 1 d DU . .
C11F C 0.8440(6) 0.7999(6) 0.2071(3) 0.066(4) Uani 1 1 d DU . .
C12F C 0.8730(3) 0.7879(3) 0.23026(16) 0.052(3) Uani 1 1 d GDU . .
C13F C 0.9143(3) 0.7818(4) 0.21986(14) 0.063(3) Uani 1 1 d GDU . .
H13F H 0.9258 0.7893 0.1983 0.075 Uiso 1 1 calc R . .
C14F C 0.9388(3) 0.7646(4) 0.24105(17) 0.052(3) Uani 1 1 d GDU . .
H14F H 0.9670 0.7604 0.2339 0.062 Uiso 1 1 calc R . .
C15F C 0.9220(3) 0.7536(3) 0.27266(16) 0.038(3) Uani 1 1 d GDU . .
C16F C 0.8807(3) 0.7597(3) 0.28306(13) 0.038(3) Uani 1 1 d GDU . .
H16F H 0.8692 0.7522 0.3047 0.046 Uiso 1 1 calc R . .
C17F C 0.8562(3) 0.7769(3) 0.26186(18) 0.048(3) Uani 1 1 d GDU . .
H17F H 0.8280 0.7811 0.2690 0.058 Uiso 1 1 calc R . .
C18F C 0.9483(4) 0.7337(4) 0.2937(2) 0.035(2) Uani 1 1 d DU . .
O1G O 0.6711(3) 1.0951(3) -0.0324(2) 0.053(2) Uani 1 1 d DU . .
O2G O 0.6570(4) 1.0408(4) -0.0730(2) 0.067(2) Uani 1 1 d DU . .
O3G O 0.4192(3) 1.3156(3) -0.2952(2) 0.054(2) Uani 1 1 d DU . .
O4G O 0.3401(3) 1.2527(3) -0.27952(18) 0.042(2) Uani 1 1 d DU . .
C1G C 0.6557(6) 1.0786(5) -0.0590(3) 0.063(3) Uani 1 1 d DU . .
C2G C 0.6283(4) 1.1012(3) -0.0778(2) 0.059(3) Uani 1 1 d GDU . .
C3G C 0.5952(4) 1.0742(3) -0.1031(2) 0.070(4) Uani 1 1 d GDU . .
H3G H 0.5901 1.0410 -0.1093 0.084 Uiso 1 1 calc R . .
C4G C 0.5696(4) 1.0958(4) -0.1195(2) 0.085(4) Uani 1 1 d GDU . .
H4G H 0.5470 1.0774 -0.1368 0.102 Uiso 1 1 calc R . .
C5G C 0.5770(4) 1.1444(4) -0.1105(2) 0.084(4) Uani 1 1 d GDU . .
C6G C 0.6101(4) 1.1713(3) -0.0852(2) 0.090(4) Uani 1 1 d GDU . .
H6G H 0.6152 1.2045 -0.0790 0.108 Uiso 1 1 calc R . .
C7G C 0.6357(4) 1.1497(3) -0.06878(19) 0.064(3) Uani 1 1 d GDU . .
H7G H 0.6583 1.1682 -0.0515 0.077 Uiso 1 1 calc R . .
C8G C 0.5487(7) 1.1628(7) -0.1293(4) 0.108(6) Uani 1 1 d DU . .
C9G C 0.5278(8) 1.1823(8) -0.1440(5) 0.117(6) Uani 1 1 d DU . .
C10G C 0.4995(8) 1.1996(8) -0.1602(5) 0.120(6) Uani 1 1 d DU . .
C11G C 0.4816(7) 1.2142(7) -0.1812(4) 0.103(5) Uani 1 1 d DU . .
C12G C 0.4578(4) 1.2302(4) -0.2057(2) 0.084(4) Uani 1 1 d GDU . .
C13G C 0.4047(4) 1.2001(4) -0.2125(2) 0.091(5) Uani 1 1 d GDU . .
H13G H 0.3837 1.1685 -0.2011 0.109 Uiso 1 1 calc R . .
C14G C 0.3824