
#######################################################################
#
#                 Cambridge Crystallographic Data Centre
#                                CCDC
#
#######################################################################
#
# If this CIF has been generated from an entry in the Cambridge
# Structural Database, then it will include bibliographic, chemical,
# crystal, experimental, refinement or atomic coordinate data resulting
# from the CCDC's data processing and validation procedures.
#
#######################################################################

data_CSD_CIF_ETDAMS
_audit_creation_date 1971-12-31
_audit_creation_method CSD-ConQuest-V1
_database_code_CSD ETDAMS
_database_code_depnum_ccdc_archive 'CCDC 1150426'
_chemical_formula_sum 'C2 H10 N2 O4 S1'
_chemical_formula_moiety
;
C2 H10 N2 2+,O4 S1 2-
;
_journal_coden_Cambridge 61
_journal_volume 16
_journal_year 1961
_journal_page_first 1205
_journal_name_full 'J.Phys.Soc.Jpn. '
loop_
_publ_author_name
"K.Sakurai"
_chemical_name_systematic
;
Ethylenediammonium sulfate
;
_chemical_name_common
;
Teaching Subset: Symmetry
;
_cell_volume   1293.488
_exptl_special_details
;
Z-COORD OF ATOMS O2 (OII) AND H5 (HV) IN TAB3 SHOULD BE NEGATIVE

;
_diffrn_ambient_temperature ?
_diffrn_special_details
;
The study was carried out at room temperature,in the range 283-303K

;
#These two values have been output from a single CSD field.
_refine_ls_R_factor_gt 0.12
_refine_ls_wR_factor_gt 0.12
_symmetry_cell_setting tetragonal
_symmetry_space_group_name_H-M 'C 41 2 21'
_symmetry_Int_Tables_number 92
loop_
_symmetry_equiv_pos_site_id
_symmetry_equiv_pos_as_xyz
1 x,y,z
2 x,-y,-z
3 -x,-y,1/2+z
4 -x,y,1/2-z
5 -y,1/2-x,3/4-z
6 y,1/2-x,3/4+z
7 -y,1/2+x,1/4+z
8 y,1/2+x,1/4-z
9 1/2+x,1/2+y,z
10 1/2+x,1/2-y,-z
11 1/2-x,1/2-y,1/2+z
12 1/2-x,1/2+y,1/2-z
13 1/2-y,-x,3/4-z
14 1/2+y,-x,3/4+z
15 1/2-y,x,1/4+z
16 1/2+y,x,1/4-z
_cell_length_a 8.47
_cell_length_b 8.47
_cell_length_c 18.03
_cell_angle_alpha 90
_cell_angle_beta 90
_cell_angle_gamma 90
_cell_formula_units_Z 8
loop_
_atom_type_symbol
_atom_type_radius_bond
C 0.68
H 0.23
N 0.68
O 0.68
S 1.02
loop_
_atom_site_label
_atom_site_type_symbol
_atom_site_fract_x
_atom_site_fract_y
_atom_site_fract_z
C1 C -0.25600 0.00500 0.04300
H1 H -0.36000 0.12000 0.11400
H2 H -0.39000 0.21000 0.04400
H3 H -0.47000 0.07000 0.05500
H4 H -0.17000 0.07000 0.05500
H5 H -0.24000 -0.10000 0.05500
N1 N -0.38900 0.11100 0.06430
O1 O 0.12300 0.12500 0.02960
O2 O 0.32900 0.06300 -0.06080
S1 S 0.22910 0.00000 0.00000
C1A C -0.25600 -0.00500 -0.04300
H4A H -0.17000 -0.07000 -0.05500
H5A H -0.24000 0.10000 -0.05500
N1A N -0.38900 -0.11100 -0.06430
H1A H -0.36000 -0.12000 -0.11400
H2A H -0.39000 -0.21000 -0.04400
H3A H -0.47000 -0.07000 -0.05500
O1A O 0.12300 -0.12500 -0.02960
O2A O 0.32900 -0.06300 0.06080
#END
