
#######################################################################
#
#                 Cambridge Crystallographic Data Centre
#                                CCDC
#
#######################################################################
#
# If this CIF has been generated from an entry in the Cambridge
# Structural Database, then it will include bibliographic, chemical,
# crystal, experimental, refinement or atomic coordinate data resulting
# from the CCDC's data processing and validation procedures.
#
#######################################################################

data_CSD_CIF_EVUJEL
_audit_creation_date 2011-09-23
_audit_creation_method CSD-ConQuest-V1
_database_code_CSD EVUJEL
_database_code_depnum_ccdc_archive 'CCDC 828373'
_chemical_formula_sum 'C3 H9 Cl2 Ta1'
_chemical_formula_moiety
;
C3 H9 Cl2 Ta1
;
_journal_coden_Cambridge 222
_journal_volume 40
_journal_year 2011
_journal_page_first 7777
_journal_name_full 'Dalton Trans. '
loop_
_publ_author_name
"A.Sattler"
"S.Ruccolo"
"G.Parkin"
_chemical_name_systematic
;
Dichloro-trimethyl-tantalum
;
_chemical_name_common
;
Teaching Subset: Fundamental Chemistry
;
_cell_volume    385.347
_exptl_crystal_colour 'pale yellow'
_exptl_crystal_density_diffrn 2.559
_exptl_crystal_description 'block'
_diffrn_ambient_temperature 150
#These two values have been output from a single CSD field.
_refine_ls_R_factor_gt 0.0128
_refine_ls_wR_factor_gt 0.0128
_symmetry_cell_setting hexagonal
_symmetry_space_group_name_H-M 'P 63/m m c'
_symmetry_Int_Tables_number 194
loop_
_symmetry_equiv_pos_site_id
_symmetry_equiv_pos_as_xyz
1 x,y,z
2 -y,x-y,z
3 -x+y,-x,z
4 -x,-y,1/2+z
5 y,-x+y,1/2+z
6 x-y,x,1/2+z
7 y,x,-z
8 x-y,-y,-z
9 -x,-x+y,-z
10 -y,-x,1/2-z
11 -x+y,y,1/2-z
12 x,x-y,1/2-z
13 -x,-y,-z
14 y,-x+y,-z
15 x-y,x,-z
16 x,y,-1/2-z
17 -y,x-y,-1/2-z
18 -x+y,-x,-1/2-z
19 -y,-x,z
20 -x+y,y,z
21 x,x-y,z
22 y,x,-1/2+z
23 x-y,-y,-1/2+z
24 -x,-x+y,-1/2+z
_cell_length_a 7.431(2)
_cell_length_b 7.431(2)
_cell_length_c 8.058(2)
_cell_angle_alpha 90
_cell_angle_beta 90
_cell_angle_gamma 120
_cell_formula_units_Z 2
loop_
_atom_type_symbol
_atom_type_radius_bond
C 0.68
H 0.23
Cl 0.99
Ta 1.70
loop_
_atom_site_label
_atom_site_type_symbol
_atom_site_fract_x
_atom_site_fract_y
_atom_site_fract_z
Ta1 Ta 0.66670 0.33330 0.25000
Cl1 Cl 0.66670 0.33330 0.53695(18)
C1 C 0.8312(6) 0.1688(4) 0.25000
H1? H 0.98090 0.26780 0.25000
H2? H 0.79440 0.08130 0.15070
Cl1I Cl 0.66670 0.33330 -0.03695(18)
C1A C 0.8312(6) 0.6624(4) 0.25000
C1B C 0.3376(6) 0.1688(4) 0.25000
#END
