####################################################################### 
# 
# This file contains crystal structure data downloaded from the 
# Cambridge Structural Database (CSD) hosted by the Cambridge 
# Crystallographic Data Centre (CCDC).
# 
# Full information about CCDC data access policies and citation 
# guidelines are available at http://www.ccdc.cam.ac.uk/access/V1 
# 
# Audit and citation data items may have been added by the CCDC. 
# Please retain this information to preserve the provenance of 
# this file and to allow appropriate attribution of the data. 
# 
#######################################################################

data_14
_audit_block_doi                 10.5517/ccwplvz
_database_code_depnum_ccdc_archive 'CCDC 825122'
loop_
_citation_id
_citation_doi
_citation_year
1 10.1021/cg200350j 2011
_audit_update_record             
;
2011-05-11 deposited with the CCDC.	2024-07-10 downloaded from the CCDC.
;
#TrackingRef 'CGD11_cifab.txt'


_audit_creation_method           SHELXL-97
_chemical_name_systematic        
;
?
;
_chemical_name_common            ?
_chemical_melting_point          ?
_chemical_formula_moiety         'C47 H34 Ag3 N7 O8, C4 H9 N O, 7(H2 O)'
_chemical_formula_sum            'C51 H57 Ag3 N8 O16'
_chemical_formula_weight         1361.66

loop_
_atom_type_symbol
_atom_type_description
_atom_type_scat_dispersion_real
_atom_type_scat_dispersion_imag
_atom_type_scat_source
C C 0.0033 0.0016 'International Tables Vol C Tables 4.2.6.8 and 6.1.1.4'
H H 0.0000 0.0000 'International Tables Vol C Tables 4.2.6.8 and 6.1.1.4'
O O 0.0106 0.0060 'International Tables Vol C Tables 4.2.6.8 and 6.1.1.4'
N N 0.0061 0.0033 'International Tables Vol C Tables 4.2.6.8 and 6.1.1.4'
Ag Ag -0.8971 1.1015 'International Tables Vol C Tables 4.2.6.8 and 6.1.1.4'

_symmetry_cell_setting           triclinic
_symmetry_space_group_name_H-M   'P -1'

loop_
_symmetry_equiv_pos_as_xyz
'x, y, z'
'-x, -y, -z'

_cell_length_a                   9.8468(2)
_cell_length_b                   14.0910(3)
_cell_length_c                   19.5261(4)
_cell_angle_alpha                85.1605(8)
_cell_angle_beta                 78.4046(9)
_cell_angle_gamma                82.9020(12)
_cell_volume                     2628.70(9)
_cell_formula_units_Z            2
_cell_measurement_temperature    110(2)
_cell_measurement_reflns_used    9653
_cell_measurement_theta_min      2.13
_cell_measurement_theta_max      27.89

_exptl_crystal_description       prism
_exptl_crystal_colour            colorless
_exptl_crystal_size_max          0.35
_exptl_crystal_size_mid          0.20
_exptl_crystal_size_min          0.10
_exptl_crystal_density_meas      ?
_exptl_crystal_density_diffrn    1.720
_exptl_crystal_density_method    'not measured'
_exptl_crystal_F_000             1376
_exptl_absorpt_coefficient_mu    1.185
_exptl_absorpt_correction_type   multi-scan
_exptl_absorpt_correction_T_min  0.6818
_exptl_absorpt_correction_T_max  0.8907
_exptl_absorpt_process_details   'Blessing, 1995'

_exptl_special_details           
;
?
;

_diffrn_ambient_temperature      110(2)
_diffrn_radiation_wavelength     0.71073
_diffrn_radiation_type           MoK\a
_diffrn_radiation_source         'fine-focus sealed tube'
_diffrn_radiation_monochromator  graphite
_diffrn_measurement_device_type  'Nonius KappaCCD'
_diffrn_measurement_method       '1 deg. \f and \w scans'
_diffrn_detector_area_resol_mean 12.8
_diffrn_standards_number         0
_diffrn_standards_interval_count ?
_diffrn_standards_interval_time  ?
_diffrn_standards_decay_%        ?
_diffrn_reflns_number            31807
_diffrn_reflns_av_R_equivalents  0.0580
_diffrn_reflns_av_sigmaI/netI    0.0749
_diffrn_reflns_limit_h_min       0
_diffrn_reflns_limit_h_max       12
_diffrn_reflns_limit_k_min       -18
_diffrn_reflns_limit_k_max       18
_diffrn_reflns_limit_l_min       -25
_diffrn_reflns_limit_l_max       25
_diffrn_reflns_theta_min         2.13
_diffrn_reflns_theta_max         27.89
_reflns_number_total             12384
_reflns_number_gt                7892
_reflns_threshold_expression     >2sigma(I)

_computing_data_collection       'Collect, Nonius B.V.'
_computing_cell_refinement       Denzo
_computing_data_reduction        'Denzo & Scalepack'
_computing_structure_solution    SIR-97
_computing_structure_refinement  'SHELXL-97 (Sheldrick, 1997)'
_computing_molecular_graphics    ?
_computing_publication_material  ?

_refine_special_details          
;
Refinement of F^2^ against ALL reflections. The weighted R-factor wR and
goodness of fit S are based on F^2^, conventional R-factors R are based
on F, with F set to zero for negative F^2^. The threshold expression of
F^2^ > 2sigma(F^2^) is used only for calculating R-factors(gt) etc. and is
not relevant to the choice of reflections for refinement. R-factors based
on F^2^ are statistically about twice as large as those based on F, and R-
factors based on ALL data will be even larger.
;

_refine_ls_structure_factor_coef Fsqd
_refine_ls_matrix_type           full
_refine_ls_weighting_scheme      calc
_refine_ls_weighting_details     
'calc w=1/[\s^2^(Fo^2^)+(0.1056P)^2^+0.0000P] where P=(Fo^2^+2Fc^2^)/3'
_atom_sites_solution_primary     direct
_atom_sites_solution_secondary   difmap
_atom_sites_solution_hydrogens   geom
_refine_ls_hydrogen_treatment    constr
_refine_ls_extinction_method     none
_refine_ls_extinction_coef       ?
_refine_ls_number_reflns         12384
_refine_ls_number_parameters     707
_refine_ls_number_restraints     6
_refine_ls_R_factor_all          0.1052
_refine_ls_R_factor_gt           0.0585
_refine_ls_wR_factor_ref         0.1728
_refine_ls_wR_factor_gt          0.1447
_refine_ls_goodness_of_fit_ref   1.001
_refine_ls_restrained_S_all      1.001
_refine_ls_shift/su_max          0.009
_refine_ls_shift/su_mean         0.000

loop_
_atom_site_label
_atom_site_type_symbol
_atom_site_fract_x
_atom_site_fract_y
_atom_site_fract_z
_atom_site_U_iso_or_equiv
_atom_site_adp_type
_atom_site_occupancy
_atom_site_symmetry_multiplicity
_atom_site_calc_flag
_atom_site_refinement_flags
_atom_site_disorder_assembly
_atom_site_disorder_group
Ag1 Ag 0.88877(4) 0.44067(3) -0.01941(2) 0.02636(12) Uani 1 1 d . . .
Ag2 Ag 0.88842(4) -0.18516(3) 0.29720(2) 0.02678(12) Uani 1 1 d . . .
Ag3 Ag -0.11976(4) 0.20041(3) 0.59692(2) 0.03388(13) Uani 1 1 d . . .
O4 O 1.0570(4) 0.3772(2) 0.0671(2) 0.0287(8) Uani 1 1 d . . .
O5 O 0.8865(4) 0.2833(2) 0.07450(19) 0.0298(8) Uani 1 1 d . . .
C6 C 0.9954(5) 0.3062(3) 0.0918(3) 0.0226(10) Uani 1 1 d . . .
C7 C 1.0532(5) 0.2426(3) 0.1484(3) 0.0242(11) Uani 1 1 d . . .
C8 C 1.0063(5) 0.1534(3) 0.1704(3) 0.0237(11) Uani 1 1 d . . .
H8 H 0.9364 0.1323 0.1500 0.028 Uiso 1 1 calc R . .
C9 C 1.0601(5) 0.0951(3) 0.2217(3) 0.0234(10) Uani 1 1 d . . .
C10 C 1.0101(5) -0.0029(3) 0.2447(3) 0.0240(11) Uani 1 1 d . . .
O11 O 0.9213(4) -0.0282(2) 0.21419(19) 0.0275(8) Uani 1 1 d . . .
O12 O 1.0630(4) -0.0513(2) 0.2923(2) 0.0326(9) Uani 1 1 d . . .
C13 C 1.1587(5) 0.1282(3) 0.2531(3) 0.0238(11) Uani 1 1 d . . .
H13 H 1.1945 0.0901 0.2893 0.029 Uiso 1 1 calc R . .
C14 C 1.2039(5) 0.2160(3) 0.2316(3) 0.0240(11) Uani 1 1 d . . .
C15 C 1.1537(5) 0.2738(4) 0.1790(3) 0.0266(11) Uani 1 1 d . . .
H15 H 1.1877 0.3339 0.1643 0.032 Uiso 1 1 calc R . .
O16 O 1.3085(4) 0.2453(2) 0.2618(2) 0.0295(8) Uani 1 1 d . . .
C17 C 1.2704(5) 0.3198(3) 0.3061(3) 0.0243(11) Uani 1 1 d . . .
C18 C 1.1348(5) 0.3590(4) 0.3300(3) 0.0276(11) Uani 1 1 d . . .
H18 H 1.0597 0.3359 0.3149 0.033 Uiso 1 1 calc R . .
C19 C 1.1083(6) 0.4315(3) 0.3756(3) 0.0292(12) Uani 1 1 d . . .
H19 H 1.0149 0.4577 0.3920 0.035 Uiso 1 1 calc R . .
C20 C 1.2168(6) 0.4666(3) 0.3978(3) 0.0276(11) Uani 1 1 d . . .
C21 C 1.1865(7) 0.5455(4) 0.4493(3) 0.0358(13) Uani 1 1 d . . .
O22 O 1.2693(5) 0.5462(3) 0.4901(2) 0.0414(10) Uani 1 1 d . . .
O23 O 1.0832(4) 0.6069(3) 0.4463(2) 0.0432(10) Uani 1 1 d . . .
C24 C 1.3539(5) 0.4280(3) 0.3739(3) 0.0255(11) Uani 1 1 d . . .
H24 H 1.4285 0.4528 0.3882 0.031 Uiso 1 1 calc R . .
C25 C 1.3817(5) 0.3531(3) 0.3290(3) 0.0242(11) Uani 1 1 d . . .
N26 N 1.5188(4) 0.3093(3) 0.3053(2) 0.0272(10) Uani 1 1 d . . .
H26 H 1.5493 0.3056 0.2599 0.033 Uiso 1 1 calc R . .
C27 C 1.6053(6) 0.2728(4) 0.3493(3) 0.0301(12) Uani 1 1 d . . .
C28 C 1.7464(6) 0.2296(5) 0.3153(3) 0.0416(15) Uani 1 1 d . . .
H28A H 1.8069 0.2805 0.2990 0.062 Uiso 1 1 calc R . .
H28B H 1.7382 0.1945 0.2754 0.062 Uiso 1 1 calc R . .
H28C H 1.7868 0.1854 0.3493 0.062 Uiso 1 1 calc R . .
O29 O 1.5717(4) 0.2757(3) 0.4142(2) 0.0386(10) Uani 1 1 d . . .
N30 N 1.0603(4) -0.2731(3) 0.2316(2) 0.0252(9) Uani 1 1 d . . .
C31 C 1.1202(6) -0.3576(4) 0.2535(3) 0.0292(12) Uani 1 1 d . . .
H31 H 1.0790 -0.3868 0.2971 0.035 Uiso 1 1 calc R . .
C32 C 1.2394(5) -0.4042(3) 0.2152(3) 0.0260(11) Uani 1 1 d . . .
H32 H 1.2805 -0.4629 0.2335 0.031 Uiso 1 1 calc R . .
C33 C 1.3000(5) -0.3651(3) 0.1492(3) 0.0230(10) Uani 1 1 d . . .
C34 C 1.2321(5) -0.2795(3) 0.1260(3) 0.0227(10) Uani 1 1 d . . .
H34 H 1.2659 -0.2511 0.0809 0.027 Uiso 1 1 calc R . .
C35 C 1.1168(5) -0.2359(4) 0.1680(3) 0.0241(11) Uani 1 1 d . . .
H35 H 1.0745 -0.1765 0.1514 0.029 Uiso 1 1 calc R . .
C36 C 1.4310(5) -0.4103(3) 0.1085(3) 0.0210(10) Uani 1 1 d . . .
C37 C 1.4830(6) -0.5045(4) 0.1234(3) 0.0384(14) Uani 1 1 d . . .
H37 H 1.4323 -0.5430 0.1595 0.046 Uiso 1 1 calc R . .
C38 C 1.6092(6) -0.5414(4) 0.0849(3) 0.0416(15) Uani 1 1 d . . .
H38 H 1.6434 -0.6055 0.0967 0.050 Uiso 1 1 calc R . .
N39 N 1.6859(4) -0.4938(3) 0.0329(2) 0.0251(9) Uani 1 1 d . . .
C40 C 1.6360(6) -0.4034(4) 0.0171(3) 0.0315(12) Uani 1 1 d . . .
H40 H 1.6884 -0.3676 -0.0202 0.038 Uiso 1 1 calc R . .
C41 C 1.5105(6) -0.3604(4) 0.0533(3) 0.0349(13) Uani 1 1 d . . .
H41 H 1.4786 -0.2963 0.0402 0.042 Uiso 1 1 calc R . .
N42 N 0.6814(4) -0.1146(3) 0.3457(2) 0.0240(9) Uani 1 1 d . . .
C43 C 0.6095(5) -0.1515(4) 0.4041(3) 0.0266(11) Uani 1 1 d . . .
H43 H 0.6445 -0.2126 0.4218 0.032 Uiso 1 1 calc R . .
C44 C 0.4870(6) -0.1077(3) 0.4412(3) 0.0282(11) Uani 1 1 d . . .
H44 H 0.4406 -0.1377 0.4833 0.034 Uiso 1 1 calc R . .
C45 C 0.4319(5) -0.0179(3) 0.4157(3) 0.0232(10) Uani 1 1 d . . .
C46 C 0.5070(5) 0.0206(4) 0.3533(3) 0.0284(12) Uani 1 1 d . . .
H46 H 0.4735 0.0806 0.3333 0.034 Uiso 1 1 calc R . .
C47 C 0.6300(5) -0.0283(4) 0.3207(3) 0.0291(12) Uani 1 1 d . . .
H47 H 0.6805 -0.0001 0.2788 0.035 Uiso 1 1 calc R . .
C48 C 0.3032(5) 0.0333(3) 0.4556(3) 0.0234(11) Uani 1 1 d . . .
C49 C 0.2160(5) -0.0135(4) 0.5093(3) 0.0269(11) Uani 1 1 d . . .
H49 H 0.2341 -0.0807 0.5184 0.032 Uiso 1 1 calc R . .
C50 C 0.1036(5) 0.0370(4) 0.5494(3) 0.0297(12) Uani 1 1 d . . .
H50 H 0.0472 0.0037 0.5867 0.036 Uiso 1 1 calc R . .
N51 N 0.0704(4) 0.1318(3) 0.5378(2) 0.0271(10) Uani 1 1 d . . .
C52 C 0.1519(6) 0.1771(4) 0.4847(3) 0.0315(12) Uani 1 1 d . . .
H52 H 0.1277 0.2434 0.4746 0.038 Uiso 1 1 calc R . .
C53 C 0.2680(5) 0.1320(4) 0.4443(3) 0.0301(12) Uani 1 1 d . . .
H53 H 0.3247 0.1676 0.4087 0.036 Uiso 1 1 calc R . .
O54 O -0.1827(4) 0.2556(3) 0.4704(2) 0.0400(10) Uani 1 1 d . . .
H54A H -0.2598 0.2788 0.4510 0.060 Uiso 1 1 d . . .
H54B H -0.1526 0.2971 0.4955 0.060 Uiso 1 1 d . . .
N55 N -0.3194(4) 0.2372(3) 0.6632(2) 0.0271(10) Uani 1 1 d . . .
C56 C -0.3531(5) 0.1948(4) 0.7274(3) 0.0272(11) Uani 1 1 d . . .
H56 H -0.2895 0.1446 0.7421 0.033 Uiso 1 1 calc R . .
C57 C -0.4748(5) 0.2203(4) 0.7728(3) 0.0247(11) Uani 1 1 d . . .
H57 H -0.4946 0.1881 0.8178 0.030 Uiso 1 1 calc R . .
C58 C -0.5702(5) 0.2947(3) 0.7523(3) 0.0219(10) Uani 1 1 d . . .
C59 C -0.5357(5) 0.3378(4) 0.6855(3) 0.0260(11) Uani 1 1 d . . .
H59 H -0.5973 0.3882 0.6694 0.031 Uiso 1 1 calc R . .
C60 C -0.4121(5) 0.3073(3) 0.6427(3) 0.0251(11) Uani 1 1 d . . .
H60 H -0.3909 0.3367 0.5968 0.030 Uiso 1 1 calc R . .
C61 C -0.7005(5) 0.3263(3) 0.8004(3) 0.0223(10) Uani 1 1 d . . .
C62 C -0.7650(5) 0.2646(4) 0.8532(3) 0.0253(11) Uani 1 1 d . . .
H62 H -0.7285 0.1991 0.8568 0.030 Uiso 1 1 calc R . .
C63 C -0.8811(5) 0.2983(3) 0.9000(3) 0.0248(11) Uani 1 1 d . . .
H63 H -0.9207 0.2553 0.9365 0.030 Uiso 1 1 calc R . .
N64 N -0.9421(4) 0.3897(3) 0.8967(2) 0.0239(9) Uani 1 1 d . . .
C65 C -0.8831(6) 0.4481(4) 0.8439(3) 0.0294(12) Uani 1 1 d . . .
H65 H -0.9256 0.5121 0.8394 0.035 Uiso 1 1 calc R . .
C66 C -0.7650(5) 0.4205(3) 0.7961(3) 0.0264(11) Uani 1 1 d . . .
H66 H -0.7271 0.4651 0.7602 0.032 Uiso 1 1 calc R . .
O67 O 0.7623(5) 0.4632(3) 0.3563(2) 0.0649(14) Uani 1 1 d D . .
H67A H 0.7505 0.4459 0.4041 0.097 Uiso 1 1 d D . .
H67B H 0.7998 0.5217 0.3493 0.097 Uiso 1 1 d D . .
O68 O 0.1126(4) 0.8731(3) 0.0022(2) 0.0400(10) Uani 1 1 d . . .
H68A H 0.0336 0.9013 0.0292 0.060 Uiso 1 1 d . . .
H68B H 0.1189 0.8249 -0.0272 0.060 Uiso 1 1 d . . .
O69 O 0.8698(4) 0.9602(3) 0.0849(2) 0.0375(10) Uani 1 1 d . . .
H69A H 0.8764 1.0145 0.0564 0.056 Uiso 1 1 d . . .
H69B H 0.8875 0.9644 0.1282 0.056 Uiso 1 1 d . . .
O70 O 1.3985(4) 0.3731(3) 0.5282(2) 0.0475(11) Uani 1 1 d . . .
H70A H 1.4588 0.3406 0.4854 0.071 Uiso 1 1 d . . .
H70B H 1.3529 0.4300 0.5153 0.071 Uiso 1 1 d . . .
O71 O 0.1453(3) 0.3541(3) 0.6157(2) 0.0456(11) Uani 1 1 d D . .
H71A H 0.0679 0.3764 0.5960 0.068 Uiso 1 1 d D . .
H71B H 0.2241 0.3600 0.5809 0.068 Uiso 1 1 d D . .
O72 O 0.6373(4) 0.2484(3) 0.1673(2) 0.0331(9) Uani 1 1 d . . .
H72A H 0.5858 0.2273 0.1424 0.050 Uiso 1 1 d . . .
H72B H 0.7316 0.2430 0.1426 0.050 Uiso 1 1 d . . .
C73 C 0.3211(7) -0.0301(4) 0.0876(4) 0.0459(16) Uani 1 1 d . . .
H73A H 0.3947 -0.0780 0.0662 0.069 Uiso 1 1 calc R . .
H73B H 0.2354 -0.0346 0.0703 0.069 Uiso 1 1 calc R . .
H73C H 0.3037 -0.0418 0.1386 0.069 Uiso 1 1 calc R . .
N74 N 0.3657(6) 0.0669(4) 0.0688(3) 0.0572(16) Uani 1 1 d . . .
C75 C 0.3071(7) 0.1277(5) 0.0123(3) 0.0468(17) Uani 1 1 d . . .
H75A H 0.3114 0.1955 0.0186 0.070 Uiso 1 1 calc R . .
H75B H 0.2099 0.1164 0.0150 0.070 Uiso 1 1 calc R . .
H75C H 0.3619 0.1109 -0.0336 0.070 Uiso 1 1 calc R . .
C76 C 0.4524(7) 0.1031(5) 0.0988(4) 0.0496(17) Uani 1 1 d . . .
C77 C 0.5068(6) 0.0416(4) 0.1572(3) 0.0365(13) Uani 1 1 d . . .
H77A H 0.5762 -0.0096 0.1371 0.055 Uiso 1 1 calc R . .
H77B H 0.4292 0.0134 0.1885 0.055 Uiso 1 1 calc R . .
H77C H 0.5500 0.0813 0.1838 0.055 Uiso 1 1 calc R . .
O78 O 0.4848(4) 0.1871(3) 0.0791(2) 0.0370(9) Uani 1 1 d . . .

loop_
_atom_site_aniso_label
_atom_site_aniso_U_11
_atom_site_aniso_U_22
_atom_site_aniso_U_33
_atom_site_aniso_U_23
_atom_site_aniso_U_13
_atom_site_aniso_U_12
Ag1 0.0206(2) 0.0274(2) 0.0273(2) -0.00298(16) 0.00084(17) 0.00387(15)
Ag2 0.0207(2) 0.0230(2) 0.0322(2) -0.00376(16) 0.00199(17) 0.00453(15)
Ag3 0.0203(2) 0.0445(3) 0.0345(3) -0.01371(19) -0.00059(18) 0.00569(17)
O4 0.0298(19) 0.0212(18) 0.035(2) 0.0011(15) -0.0073(17) -0.0012(15)
O5 0.032(2) 0.0285(19) 0.028(2) 0.0031(16) -0.0072(17) -0.0006(16)
C6 0.020(2) 0.022(2) 0.024(3) -0.004(2) -0.004(2) 0.0060(19)
C7 0.027(3) 0.020(2) 0.025(3) -0.003(2) -0.004(2) 0.0010(19)
C8 0.022(2) 0.023(2) 0.027(3) -0.003(2) -0.009(2) -0.0004(19)
C9 0.023(2) 0.023(2) 0.023(3) -0.005(2) -0.004(2) 0.0022(19)
C10 0.026(3) 0.023(2) 0.022(3) -0.002(2) -0.005(2) 0.005(2)
O11 0.0291(19) 0.0269(18) 0.025(2) 0.0002(15) -0.0038(17) -0.0025(15)
O12 0.038(2) 0.0277(19) 0.030(2) 0.0024(16) -0.0067(18) 0.0045(16)
C13 0.022(2) 0.025(3) 0.024(3) -0.004(2) -0.008(2) 0.005(2)
C14 0.020(2) 0.024(3) 0.029(3) -0.009(2) -0.006(2) 0.0022(19)
C15 0.024(3) 0.023(3) 0.032(3) -0.001(2) -0.007(2) 0.000(2)
O16 0.0259(19) 0.0297(19) 0.035(2) -0.0105(16) -0.0121(17) 0.0029(15)
C17 0.030(3) 0.019(2) 0.023(3) 0.0030(19) -0.007(2) 0.001(2)
C18 0.028(3) 0.028(3) 0.027(3) -0.006(2) -0.005(2) -0.003(2)
C19 0.030(3) 0.026(3) 0.027(3) 0.001(2) -0.002(2) 0.008(2)
C20 0.041(3) 0.020(2) 0.021(3) 0.000(2) -0.008(2) 0.000(2)
C21 0.056(4) 0.021(3) 0.026(3) -0.001(2) 0.007(3) -0.010(3)
O22 0.070(3) 0.031(2) 0.027(2) -0.0046(17) -0.014(2) -0.013(2)
O23 0.043(2) 0.027(2) 0.055(3) -0.0107(19) 0.004(2) -0.0020(18)
C24 0.031(3) 0.026(3) 0.021(3) 0.006(2) -0.010(2) -0.003(2)
C25 0.024(3) 0.025(2) 0.022(3) 0.006(2) -0.006(2) -0.002(2)
N26 0.022(2) 0.035(2) 0.026(2) -0.0047(19) -0.0074(19) 0.0014(18)
C27 0.028(3) 0.032(3) 0.030(3) -0.004(2) -0.006(3) -0.003(2)
C28 0.031(3) 0.059(4) 0.035(3) -0.009(3) -0.008(3) 0.005(3)
O29 0.030(2) 0.052(2) 0.031(2) -0.0029(19) -0.0073(18) 0.0093(18)
N30 0.023(2) 0.024(2) 0.026(2) -0.0039(18) -0.0034(19) 0.0048(17)
C31 0.028(3) 0.029(3) 0.026(3) 0.000(2) 0.000(2) 0.004(2)
C32 0.026(3) 0.018(2) 0.031(3) 0.003(2) -0.003(2) 0.0054(19)
C33 0.017(2) 0.024(2) 0.028(3) -0.003(2) -0.007(2) 0.0004(19)
C34 0.025(3) 0.018(2) 0.026(3) -0.0003(19) -0.008(2) -0.0010(19)
C35 0.021(2) 0.029(3) 0.022(3) -0.003(2) -0.006(2) 0.001(2)
C36 0.012(2) 0.025(2) 0.026(3) -0.004(2) -0.002(2) -0.0014(18)
C37 0.033(3) 0.031(3) 0.040(4) 0.011(3) 0.009(3) 0.004(2)
C38 0.029(3) 0.031(3) 0.053(4) 0.006(3) 0.010(3) 0.014(2)
N39 0.024(2) 0.022(2) 0.026(2) -0.0021(18) -0.0020(19) 0.0016(17)
C40 0.028(3) 0.031(3) 0.029(3) 0.001(2) 0.004(2) 0.006(2)
C41 0.027(3) 0.030(3) 0.038(3) 0.005(2) 0.009(3) 0.007(2)
N42 0.020(2) 0.024(2) 0.027(2) -0.0052(18) -0.0047(19) 0.0051(17)
C43 0.028(3) 0.022(3) 0.030(3) -0.003(2) -0.005(2) 0.001(2)
C44 0.032(3) 0.022(3) 0.027(3) 0.002(2) 0.002(2) -0.001(2)
C45 0.019(2) 0.027(3) 0.023(3) -0.004(2) -0.006(2) 0.0018(19)
C46 0.028(3) 0.027(3) 0.028(3) 0.003(2) -0.006(2) 0.004(2)
C47 0.026(3) 0.030(3) 0.027(3) -0.002(2) 0.002(2) 0.005(2)
C48 0.018(2) 0.028(3) 0.024(3) -0.005(2) -0.004(2) 0.0033(19)
C49 0.025(3) 0.028(3) 0.026(3) -0.003(2) -0.003(2) 0.001(2)
C50 0.022(3) 0.037(3) 0.028(3) -0.004(2) -0.003(2) 0.003(2)
N51 0.020(2) 0.033(2) 0.024(2) -0.0032(19) -0.0009(19) 0.0078(18)
C52 0.028(3) 0.029(3) 0.035(3) 0.001(2) -0.005(3) 0.008(2)
C53 0.023(3) 0.033(3) 0.028(3) 0.005(2) 0.000(2) 0.007(2)
O54 0.049(3) 0.039(2) 0.039(2) -0.0074(