####################################################################### 
# 
# This file contains crystal structure data downloaded from the 
# Cambridge Structural Database (CSD) hosted by the Cambridge 
# Crystallographic Data Centre (CCDC).
# 
# Full information about CCDC data access policies and citation 
# guidelines are available at http://www.ccdc.cam.ac.uk/access/V1 
# 
# Audit and citation data items may have been added by the CCDC. 
# Please retain this information to preserve the provenance of 
# this file and to allow appropriate attribution of the data. 
# 
#######################################################################

data_mx345
_audit_block_doi                 10.5517/ccv5tc5
_database_code_depnum_ccdc_archive 'CCDC 780157'
loop_
_citation_id
_citation_doi
_citation_year
1 10.1002/chem.201100633 2011
_audit_update_record             
;
2010-06-08 deposited with the CCDC.	2024-07-10 downloaded from the CCDC.
;
#TrackingRef '1380_web_deposit_cif_file_1_YongjunLi_1275960811.cif'


_audit_creation_method           SHELXL-97
_chemical_name_systematic        
;
?
;
_chemical_name_common            ?
_chemical_melting_point          ?
_chemical_formula_moiety         ?
_chemical_formula_sum            'C75 H53 N17 O2 Zn'
_chemical_formula_weight         1289.71

loop_
_atom_type_symbol
_atom_type_description
_atom_type_scat_dispersion_real
_atom_type_scat_dispersion_imag
_atom_type_scat_source
C C 0.0033 0.0016 'International Tables Vol C Tables 4.2.6.8 and 6.1.1.4'
H H 0.0000 0.0000 'International Tables Vol C Tables 4.2.6.8 and 6.1.1.4'
N N 0.0061 0.0033 'International Tables Vol C Tables 4.2.6.8 and 6.1.1.4'
O O 0.0106 0.0060 'International Tables Vol C Tables 4.2.6.8 and 6.1.1.4'
Zn Zn 0.2839 1.4301 'International Tables Vol C Tables 4.2.6.8 and 6.1.1.4'

_symmetry_cell_setting           triclinic
_symmetry_space_group_name_H-M   P-1

loop_
_symmetry_equiv_pos_as_xyz
'x, y, z'
'-x, -y, -z'

_cell_length_a                   12.849(3)
_cell_length_b                   18.831(4)
_cell_length_c                   20.694(4)
_cell_angle_alpha                106.63(3)
_cell_angle_beta                 102.21(3)
_cell_angle_gamma                90.05(3)
_cell_volume                     4679(2)
_cell_formula_units_Z            2
_cell_measurement_temperature    173(2)
_cell_measurement_reflns_used    14187
_cell_measurement_theta_min      1.05
_cell_measurement_theta_max      25.50

_exptl_crystal_description       plate
_exptl_crystal_colour            red
_exptl_crystal_size_max          0.31
_exptl_crystal_size_mid          0.16
_exptl_crystal_size_min          0.05
_exptl_crystal_density_meas      ?
_exptl_crystal_density_diffrn    0.915
_exptl_crystal_density_method    'not measured'
_exptl_crystal_F_000             1336
_exptl_absorpt_coefficient_mu    0.306
_exptl_absorpt_correction_type   numerical
_exptl_absorpt_correction_T_min  0.9112
_exptl_absorpt_correction_T_max  0.9849
_exptl_absorpt_process_details   'CrystalClear (Rigaku Inc., 2008)'

_exptl_special_details           
;
?
;

_diffrn_ambient_temperature      173(2)
_diffrn_radiation_wavelength     0.71073
_diffrn_radiation_type           MoK\a
_diffrn_radiation_source         'Rotating Anode'
_diffrn_radiation_monochromator  Confocal
_diffrn_measurement_device_type  'MM007HF + CCD (Saturn724+)'
_diffrn_measurement_method       '\w scans at fixed \c = 45\%'
_diffrn_detector_area_resol_mean 28.5714
_diffrn_standards_number         ?
_diffrn_standards_interval_count ?
_diffrn_standards_interval_time  ?
_diffrn_standards_decay_%        ?
_diffrn_reflns_number            54842
_diffrn_reflns_av_R_equivalents  0.0631
_diffrn_reflns_av_sigmaI/netI    0.0761
_diffrn_reflns_limit_h_min       -15
_diffrn_reflns_limit_h_max       15
_diffrn_reflns_limit_k_min       -22
_diffrn_reflns_limit_k_max       22
_diffrn_reflns_limit_l_min       -25
_diffrn_reflns_limit_l_max       25
_diffrn_reflns_theta_min         1.05
_diffrn_reflns_theta_max         25.50
_reflns_number_total             17408
_reflns_number_gt                12961
_reflns_threshold_expression     >2sigma(I)

_computing_data_collection       'CrystalClear (Rigaku Inc., 2008)'
_computing_cell_refinement       'CrystalClear (Rigaku Inc., 2008)'
_computing_data_reduction        'CrystalClear (Rigaku Inc., 2008)'
_computing_structure_solution    'SHELX-97 (Sheldrick, 1997)'
_computing_structure_refinement  'SHELX-97 (Sheldrick, 1997)'
_computing_molecular_graphics    
;
Mercury: visualization and analysis of crystal structures, C. F. Macrae,
P. R. Edgington, P. McCabe, E. Pidcock, G. P. Shields, R. Taylor,
M. Towler and J. van de Streek, J. Appl. Cryst., 39, 453-457, 2006.
;
_computing_publication_material  'SHELX-97 (Sheldrick, 1997)'

_refine_special_details          
;
Refinement of F^2^ against ALL reflections. The weighted R-factor wR and
goodness of fit S are based on F^2^, conventional R-factors R are based
on F, with F set to zero for negative F^2^. The threshold expression of
F^2^ > 2sigma(F^2^) is used only for calculating R-factors(gt) etc. and is
not relevant to the choice of reflections for refinement. R-factors based
on F^2^ are statistically about twice as large as those based on F, and R-
factors based on ALL data will be even larger.
;

_refine_ls_structure_factor_coef Fsqd
_refine_ls_matrix_type           full
_refine_ls_weighting_scheme      calc
_refine_ls_weighting_details     
'calc w=1/[\s^2^(Fo^2^)+(0.1000P)^2^+0.0000P] where P=(Fo^2^+2Fc^2^)/3'
_atom_sites_solution_primary     direct
_atom_sites_solution_secondary   difmap
_atom_sites_solution_hydrogens   geom
_refine_ls_hydrogen_treatment    constr
_refine_ls_extinction_method     none
_refine_ls_extinction_coef       ?
_refine_ls_number_reflns         17408
_refine_ls_number_parameters     856
_refine_ls_number_restraints     39
_refine_ls_R_factor_all          0.0923
_refine_ls_R_factor_gt           0.0790
_refine_ls_wR_factor_ref         0.2277
_refine_ls_wR_factor_gt          0.2189
_refine_ls_goodness_of_fit_ref   1.313
_refine_ls_restrained_S_all      1.317
_refine_ls_shift/su_max          0.001
_refine_ls_shift/su_mean         0.000

loop_
_atom_site_label
_atom_site_type_symbol
_atom_site_fract_x
_atom_site_fract_y
_atom_site_fract_z
_atom_site_U_iso_or_equiv
_atom_site_adp_type
_atom_site_occupancy
_atom_site_symmetry_multiplicity
_atom_site_calc_flag
_atom_site_refinement_flags
_atom_site_disorder_assembly
_atom_site_disorder_group
Zn1 Zn 0.46472(3) 0.59435(2) 0.219409(18) 0.03058(13) Uani 1 1 d . . .
O1 O 0.8201(3) 0.90215(16) 0.63757(14) 0.0583(8) Uani 1 1 d . . .
O2 O 0.03439(19) 0.32415(13) -0.18644(12) 0.0394(6) Uani 1 1 d . . .
N1 N 0.4505(2) 0.62225(14) 0.32185(13) 0.0285(6) Uani 1 1 d . . .
N2 N 0.3104(2) 0.54650(15) 0.18685(14) 0.0305(6) Uani 1 1 d . . .
N3 N 0.4494(2) 0.59819(15) 0.11787(14) 0.0332(6) Uani 1 1 d . . .
N4 N 0.5924(2) 0.67200(15) 0.25179(13) 0.0323(6) Uani 1 1 d . . .
N5 N 1.6611(4) 0.8888(2) 0.7245(3) 0.0991(18) Uani 1 1 d U . .
N6 N 1.5962(5) 0.8505(2) 0.7443(3) 0.0973(18) Uani 1 1 d U . .
N7 N 1.6460(3) 0.7887(2) 0.74929(17) 0.0547(9) Uani 1 1 d . . .
N8 N 0.9860(2) 0.42121(17) 0.32267(15) 0.0389(7) Uani 1 1 d . . .
N9 N 0.9954(2) 0.4876(2) 0.31070(17) 0.0494(9) Uani 1 1 d . . .
N10 N 0.8957(2) 0.50126(18) 0.28014(17) 0.0457(8) Uani 1 1 d . . .
N11 N 0.5548(2) 0.49766(14) 0.20932(14) 0.0312(6) Uani 1 1 d . . .
N12 N 0.3976(2) 0.29329(15) 0.08066(15) 0.0354(6) Uani 1 1 d . . .
N13 N 0.3685(2) 0.22586(17) 0.04149(16) 0.0417(7) Uani 1 1 d . . .
N14 N 0.4551(3) 0.18742(16) 0.04034(16) 0.0428(7) Uani 1 1 d . . .
N15 N 0.8310(2) 0.19409(18) -0.37219(15) 0.0425(7) Uani 1 1 d . . .
N16 N 0.9287(2) 0.16559(18) -0.37260(17) 0.0466(8) Uani 1 1 d . . .
N17 N 0.9976(3) 0.21765(19) -0.33020(18) 0.0538(9) Uani 1 1 d . . .
C1 C 0.5167(3) 0.66752(17) 0.38055(17) 0.0325(7) Uani 1 1 d . . .
C2 C 0.4762(3) 0.67191(19) 0.43968(17) 0.0365(8) Uani 1 1 d . . .
H2 H 0.5081 0.6996 0.4858 0.044 Uiso 1 1 calc R . .
C3 C 0.3812(3) 0.6285(2) 0.41822(19) 0.0419(8) Uani 1 1 d . . .
H3A H 0.3352 0.6200 0.4461 0.050 Uiso 1 1 calc R . .
C4 C 0.3676(3) 0.59928(18) 0.34535(18) 0.0338(7) Uani 1 1 d . . .
C5 C 0.2757(3) 0.55432(19) 0.30083(18) 0.0365(8) Uani 1 1 d . . .
H5A H 0.2263 0.5388 0.3231 0.044 Uiso 1 1 calc R . .
C6 C 0.2507(3) 0.53133(19) 0.2308(2) 0.0394(8) Uani 1 1 d . . .
C7 C 0.1496(3) 0.4957(2) 0.18940(19) 0.0421(9) Uani 1 1 d . . .
H7A H 0.0920 0.4814 0.2063 0.050 Uiso 1 1 calc R . .
C8 C 0.1508(3) 0.4859(2) 0.12187(19) 0.0401(8) Uani 1 1 d . . .
H8A H 0.0954 0.4627 0.0830 0.048 Uiso 1 1 calc R . .
C9 C 0.2514(2) 0.51727(18) 0.12056(17) 0.0319(7) Uani 1 1 d . . .
C10 C 0.2846(3) 0.51911(18) 0.06065(18) 0.0337(7) Uani 1 1 d . . .
C11 C 0.3783(2) 0.55779(18) 0.05937(16) 0.0311(7) Uani 1 1 d . . .
C12 C 0.4116(3) 0.5629(2) -0.00214(17) 0.0366(8) Uani 1 1 d . . .
H12A H 0.3749 0.5416 -0.0489 0.044 Uiso 1 1 calc R . .
C13 C 0.5069(3) 0.60486(19) 0.02110(17) 0.0356(7) Uani 1 1 d . . .
H13A H 0.5494 0.6178 -0.0067 0.043 Uiso 1 1 calc R . .
C14 C 0.5300(3) 0.62547(17) 0.09493(16) 0.0307(7) Uani 1 1 d . . .
C15 C 0.6242(3) 0.66300(18) 0.13764(18) 0.0344(7) Uani 1 1 d . . .
H15A H 0.6766 0.6738 0.1149 0.041 Uiso 1 1 calc R . .
C16 C 0.6512(3) 0.68675(19) 0.20955(17) 0.0349(7) Uani 1 1 d . . .
C17 C 0.7469(3) 0.72935(19) 0.24957(18) 0.0374(8) Uani 1 1 d . . .
H17A H 0.8027 0.7454 0.2323 0.045 Uiso 1 1 calc R . .
C18 C 0.7431(3) 0.7428(2) 0.31750(18) 0.0372(8) Uani 1 1 d . . .
H18A H 0.7949 0.7711 0.3564 0.045 Uiso 1 1 calc R . .
C19 C 0.6474(3) 0.70669(19) 0.31891(17) 0.0359(8) Uani 1 1 d . . .
C20 C 0.6101(3) 0.70619(19) 0.37873(17) 0.0359(8) Uani 1 1 d . . .
C21 C 0.6747(3) 0.75626(19) 0.44610(17) 0.0369(8) Uani 1 1 d . . .
C22 C 0.7158(3) 0.7271(2) 0.50038(19) 0.0413(8) Uani 1 1 d . . .
H22A H 0.7089 0.6750 0.4932 0.050 Uiso 1 1 calc R . .
C23 C 0.7675(3) 0.7742(2) 0.56614(19) 0.0441(9) Uani 1 1 d . . .
H23A H 0.7972 0.7540 0.6026 0.053 Uiso 1 1 calc R . .
C24 C 0.7741(3) 0.8509(2) 0.57637(18) 0.0455(9) Uani 1 1 d . . .
C25 C 0.7378(3) 0.8786(2) 0.52226(19) 0.0409(8) Uani 1 1 d . . .
H25A H 0.7484 0.9303 0.5285 0.049 Uiso 1 1 calc R . .
C26 C 0.6854(3) 0.83238(19) 0.45795(18) 0.0392(8) Uani 1 1 d . . .
H26A H 0.6567 0.8533 0.4218 0.047 Uiso 1 1 calc R . .
C27 C 0.8464(4) 0.8774(3) 0.6991(2) 0.0650(13) Uani 1 1 d . . .
H27A H 0.8835 0.9195 0.7382 0.078 Uiso 1 1 calc R . .
H27B H 0.8972 0.8379 0.6916 0.078 Uiso 1 1 calc R . .
C28 C 1.7562(4) 0.8491(2) 0.7188(2) 0.0596(12) Uani 1 1 d . . .
C29 C 1.7377(4) 0.7846(2) 0.7301(2) 0.0558(11) Uani 1 1 d . . .
H29A H 1.7818 0.7438 0.7252 0.067 Uiso 1 1 calc R . .
C30 C 1.5832(4) 0.7312(3) 0.7673(2) 0.0608(12) Uani 1 1 d . . .
H30A H 1.6338 0.7017 0.7903 0.073 Uiso 1 1 calc R . .
H30B H 1.5404 0.7571 0.8004 0.073 Uiso 1 1 calc R . .
C31 C 1.5110(4) 0.6802(3) 0.7058(2) 0.0617(12) Uani 1 1 d . . .
C32 C 1.4192(4) 0.7034(3) 0.6734(3) 0.0685(13) Uani 1 1 d . . .
H32A H 1.4028 0.7539 0.6878 0.082 Uiso 1 1 calc R . .
C33 C 1.3480(4) 0.6509(3) 0.6176(3) 0.0736(15) Uani 1 1 d . . .
H33A H 1.2825 0.6666 0.5967 0.088 Uiso 1 1 calc R . .
C34 C 1.3722(3) 0.5783(2) 0.5936(2) 0.0483(9) Uani 1 1 d . . .
C35 C 1.4633(3) 0.5528(2) 0.6276(2) 0.0466(9) Uani 1 1 d . . .
H35A H 1.4782 0.5020 0.6131 0.056 Uiso 1 1 calc R . .
C36 C 1.5318(3) 0.6027(3) 0.6830(2) 0.0548(11) Uani 1 1 d . . .
H36A H 1.5937 0.5854 0.7065 0.066 Uiso 1 1 calc R . .
C37 C 1.2961(3) 0.5285(2) 0.5339(2) 0.0484(9) Uani 1 1 d . . .
C38 C 1.1851(4) 0.5372(4) 0.5228(2) 0.0804(17) Uani 1 1 d U . .
H38A H 1.1568 0.5729 0.5563 0.096 Uiso 1 1 calc R . .
C39 C 1.1201(3) 0.4953(4) 0.4652(2) 0.0813(17) Uani 1 1 d U . .
H39A H 1.0461 0.5035 0.4582 0.098 Uiso 1 1 calc R . .
C40 C 1.1556(3) 0.4380(2) 0.4128(2) 0.0491(10) Uani 1 1 d . . .
C41 C 1.2637(3) 0.4309(2) 0.4262(2) 0.0485(10) Uani 1 1 d . . .
H41A H 1.2918 0.3945 0.3933 0.058 Uiso 1 1 calc R . .
C42 C 1.3341(3) 0.4734(2) 0.4846(2) 0.0502(10) Uani 1 1 d . . .
H42A H 1.4081 0.4654 0.4914 0.060 Uiso 1 1 calc R . .
C43 C 1.0843(3) 0.3884(2) 0.3504(2) 0.0543(11) Uani 1 1 d . . .
H43A H 1.0632 0.3433 0.3613 0.065 Uiso 1 1 calc R . .
H43B H 1.1250 0.3725 0.3136 0.065 Uiso 1 1 calc R . .
C44 C 0.8859(3) 0.3901(2) 0.29939(19) 0.0418(8) Uani 1 1 d . . .
H44A H 0.8600 0.3436 0.3011 0.050 Uiso 1 1 calc R . .
C45 C 0.8290(3) 0.44166(19) 0.27232(18) 0.0349(7) Uani 1 1 d . . .
C46 C 0.7178(2) 0.43618(18) 0.23671(17) 0.0311(7) Uani 1 1 d . . .
C47 C 0.6652(3) 0.37026(18) 0.19048(18) 0.0343(7) Uani 1 1 d . . .
H47A H 0.7029 0.3263 0.1840 0.041 Uiso 1 1 calc R . .
C48 C 0.5611(3) 0.36606(17) 0.15390(15) 0.0289(7) Uani 1 1 d . . .
C49 C 0.5090(3) 0.43360(17) 0.16638(16) 0.0304(7) Uani 1 1 d . . .
H49A H 0.4370 0.4328 0.1425 0.036 Uiso 1 1 calc R . .
C50 C 0.6608(2) 0.50004(17) 0.24365(16) 0.0289(7) Uani 1 1 d . . .
H50A H 0.6953 0.5463 0.2726 0.035 Uiso 1 1 calc R . .
C51 C 0.5062(3) 0.29938(19) 0.10699(17) 0.0361(7) Uani 1 1 d . . .
C52 C 0.5441(3) 0.23109(19) 0.08107(19) 0.0393(8) Uani 1 1 d . . .
H52A H 0.6157 0.2173 0.0895 0.047 Uiso 1 1 calc R . .
C53 C 0.4530(3) 0.1109(2) -0.0033(2) 0.0478(9) Uani 1 1 d . . .
H53A H 0.3820 0.0858 -0.0104 0.057 Uiso 1 1 calc R . .
H53B H 0.5069 0.0838 0.0204 0.057 Uiso 1 1 calc R . .
C54 C 0.4759(3) 0.1078(2) -0.0727(2) 0.0455(9) Uani 1 1 d . . .
C55 C 0.4549(4) 0.1657(3) -0.1015(2) 0.0661(14) Uani 1 1 d U . .
H55A H 0.4201 0.2071 -0.0793 0.079 Uiso 1 1 calc R . .
C56 C 0.4854(4) 0.1633(3) -0.1646(2) 0.0736(16) Uani 1 1 d U . .
H56A H 0.4695 0.2033 -0.1838 0.088 Uiso 1 1 calc R . .
C57 C 0.5370(3) 0.1049(2) -0.1984(2) 0.0420(8) Uani 1 1 d . . .
C58 C 0.5515(4) 0.0457(2) -0.1717(2) 0.0624(12) Uani 1 1 d . . .
H58A H 0.5827 0.0031 -0.1954 0.075 Uiso 1 1 calc R . .
C59 C 0.5205(4) 0.0467(2) -0.1089(2) 0.0589(12) Uani 1 1 d . . .
H59A H 0.5308 0.0048 -0.0920 0.071 Uiso 1 1 calc R . .
C60 C 0.5793(3) 0.1088(2) -0.2570(2) 0.0443(9) Uani 1 1 d . . .
C61 C 0.5362(3) 0.1548(2) -0.2977(2) 0.0545(11) Uani 1 1 d . . .
H61A H 0.4728 0.1788 -0.2906 0.065 Uiso 1 1 calc R . .
C62 C 0.5844(3) 0.1653(2) -0.3472(2) 0.0510(10) Uani 1 1 d . . .
H62A H 0.5563 0.1987 -0.3723 0.061 Uiso 1 1 calc R . .
C63 C 0.6751(3) 0.1276(2) -0.3619(2) 0.0490(10) Uani 1 1 d . . .
C64 C 0.7119(4) 0.0809(2) -0.3251(2) 0.0546(10) Uani 1 1 d . . .
H64A H 0.7719 0.0539 -0.3352 0.066 Uiso 1 1 calc R . .
C65 C 0.6665(3) 0.0701(2) -0.2728(2) 0.0504(10) Uani 1 1 d . . .
H65A H 0.6953 0.0364 -0.2482 0.061 Uiso 1 1 calc R . .
C66 C 0.7338(3) 0.1451(2) -0.4128(2) 0.0498(10) Uani 1 1 d . . .
H66A H 0.7544 0.0986 -0.4429 0.060 Uiso 1 1 calc R . .
H66B H 0.6871 0.1706 -0.4425 0.060 Uiso 1 1 calc R . .
C67 C 0.8406(3) 0.2630(2) -0.3299(2) 0.0450(9) Uani 1 1 d . . .
H67A H 0.7852 0.2949 -0.3202 0.054 Uiso 1 1 calc R . .
C68 C 0.9479(3) 0.2778(2) -0.30359(17) 0.0383(8) Uani 1 1 d . . .
C69 C 0.0064(3) 0.34480(19) -0.25044(17) 0.0386(8) Uani 1 1 d . . .
H69A H 0.0715 0.3586 -0.2638 0.046 Uiso 1 1 calc R . .
H69B H -0.0394 0.3874 -0.2450 0.046 Uiso 1 1 calc R . .
C70 C 0.0937(2) 0.37652(19) -0.13038(17) 0.0338(7) Uani 1 1 d . . .
C71 C 0.1175(3) 0.4504(2) -0.12493(19) 0.0407(8) Uani 1 1 d . . .
H71A H 0.0920 0.4692 -0.1629 0.049 Uiso 1 1 calc R . .
C72 C 0.1791(3) 0.4964(2) -0.06357(19) 0.0404(8) Uani 1 1 d . . .
H72A H 0.1943 0.5469 -0.0603 0.048 Uiso 1 1 calc R . .
C73 C 0.2190(3) 0.47119(18) -0.00693(18) 0.0330(7) Uani 1 1 d . . .
C74 C 0.1948(3) 0.3949(2) -0.01428(18) 0.0406(8) Uani 1 1 d . . .
H74A H 0.2219 0.3758 0.0234 0.049 Uiso 1 1 calc R . .
C75 C 0.1339(3) 0.3483(2) -0.07372(18) 0.0411(8) Uani 1 1 d . . .
H75A H 0.1187 0.2978 -0.0772 0.049 Uiso 1 1 calc R . .

loop_
_atom_site_aniso_label
_atom_site_aniso_U_11
_atom_site_aniso_U_22
_atom_site_aniso_U_33
_atom_site_aniso_U_23
_atom_site_aniso_U_13
_atom_site_aniso_U_12
Zn1 0.0323(2) 0.0342(2) 0.0243(2) 0.00606(16) 0.00768(15) -0.00071(16)
O1 0.080(2) 0.0538(17) 0.0286(14) -0.0002(12) 0.0015(14) -0.0227(15)
O2 0.0408(13) 0.0400(13) 0.0298(13) 0.0066(10) -0.0035(10) -0.0079(10)
N1 0.0309(13) 0.0252(13) 0.0241(13) 0.0022(10) 0.0014(11) -0.0026(10)
N2 0.0251(13) 0.0360(15) 0.0277(14) 0.0040(11) 0.0073(11) -0.0039(11)
N3 0.0367(15) 0.0378(15) 0.0233(14) 0.0059(11) 0.0072(11) -0.0036(12)
N4 0.0411(15) 0.0283(14) 0.0218(13) -0.0004(11) 0.0052(12) -0.0088(11)
N5 0.106(4) 0.049(2) 0.158(5) 0.018(3) 0.078(4) 0.024(2)
N6 0.139(4) 0.052(2) 0.146(5) 0.050(3) 0.098(4) 0.041(3)
N7 0.077(3) 0.056(2) 0.0322(17) 0.0088(15) 0.0208(17) 0.0098(18)
N8 0.0316(15) 0.0539(19) 0.0360(16) 0.0206(14) 0.0075(13) 0.0043(13)
N9 0.0285(15) 0.079(2) 0.050(2) 0.0423(18) -0.0049(14) -0.0008(15)
N10 0.0321(15) 0.0539(19) 0.053(2) 0.0286(16) -0.0048(14) -0.0073(13)
N11 0.0385(15) 0.0249(13) 0.0287(14) 0.0055(11) 0.0075(12) 0.0073(11)
N12 0.0425(16) 0.0294(14) 0.0352(16) 0.0089(12) 0.0115(13) 0.0038(12)
N13 0.0396(16) 0.0438(17) 0.0405(17) 0.0078(14) 0.0128(14) -0.0012(13)
N14 0.0493(18) 0.0342(16) 0.0377(17) 0.0001(13) 0.0082(14) -0.0031(13)
N15 0.0300(15) 0.0537(19) 0.0309(16) -0.0045(14) 0.0023(12) -0.0008(13)
N16 0.0387(17) 0.0453(18) 0.0419(18) -0.0016(14) -0.0010(14) -0.0063(13)
N17 0.0372(17) 0.058(2) 0.052(2) 0.0003(17) 0.0006(15) -0.0039(15)
C1 0.0387(18) 0.0271(16) 0.0285(17) 0.0030(13) 0.0072(14) -0.0009(13)
C2 0.04