####################################################################### 
# 
# This file contains crystal structure data downloaded from the 
# Cambridge Structural Database (CSD) hosted by the Cambridge 
# Crystallographic Data Centre (CCDC).
# 
# Full information about CCDC data access policies and citation 
# guidelines are available at http://www.ccdc.cam.ac.uk/access/V1 
# 
# Audit and citation data items may have been added by the CCDC. 
# Please retain this information to preserve the provenance of 
# this file and to allow appropriate attribution of the data. 
# 
#######################################################################

data_cc
_audit_block_doi                 10.5517/ccvmws3
_database_code_depnum_ccdc_archive 'CCDC 793686'
loop_
_citation_id
_citation_doi
_citation_year
1 10.1021/ic1019636 2011
_audit_update_record             
;
2010-09-15 deposited with the CCDC.	2024-07-10 downloaded from the CCDC.
;
#TrackingRef 'web_deposit_cif_file_0_KlausHarms_1284564559.cif'




_audit_creation_method           SHELXL-97

_chemical_name_systematic        
;



;

_chemical_name_common            ?

_chemical_melting_point          ?

_chemical_formula_moiety         'C30 H34 Ag2 Cl2 Fe2 N10 O23'

_chemical_formula_sum            'C30 H34 Ag2 Cl2 Fe2 N10 O23'

_chemical_formula_weight         1301.01



loop_

_atom_type_symbol

_atom_type_description

_atom_type_scat_dispersion_real

_atom_type_scat_dispersion_imag

_atom_type_scat_source














C C 0.0033 0.0016 'International Tables Vol C Tables 4.2.6.8 and 6.1.1.4'
H H 0.0000 0.0000 'International Tables Vol C Tables 4.2.6.8 and 6.1.1.4'
N N 0.0061 0.0033 'International Tables Vol C Tables 4.2.6.8 and 6.1.1.4'
O O 0.0106 0.0060 'International Tables Vol C Tables 4.2.6.8 and 6.1.1.4'
Cl Cl 0.1484 0.1585 'International Tables Vol C Tables 4.2.6.8 and 6.1.1.4'
Fe Fe 0.3463 0.8444 'International Tables Vol C Tables 4.2.6.8 and 6.1.1.4'
Ag Ag -0.8971 1.1015 'International Tables Vol C Tables 4.2.6.8 and 6.1.1.4'



_symmetry_cell_setting           monoclinic

_symmetry_space_group_name_H-M   'C c'



loop_

_symmetry_equiv_pos_as_xyz




'x, y, z'
'x, -y, z+1/2'
'x+1/2, y+1/2, z'
'x+1/2, -y+1/2, z+1/2'



_cell_length_a                   36.781(3)

_cell_length_b                   8.0506(6)

_cell_length_c                   18.6868(13)

_cell_angle_alpha                90.00

_cell_angle_beta                 119.938(5)

_cell_angle_gamma                90.00

_cell_volume                     4795.0(6)

_cell_formula_units_Z            4

_cell_measurement_temperature    100(2)

_cell_measurement_reflns_used    5957

_cell_measurement_theta_min      1.3

_cell_measurement_theta_max      23



_exptl_crystal_description       prism

_exptl_crystal_colour            colourless

_exptl_crystal_size_max          0.09

_exptl_crystal_size_mid          0.09

_exptl_crystal_size_min          0.07

_exptl_crystal_density_meas      ?

_exptl_crystal_density_diffrn    1.802

_exptl_crystal_density_method    'not measured'

_exptl_crystal_F_000             2592

_exptl_absorpt_coefficient_mu    1.599

_exptl_absorpt_correction_type   multi-scan

_exptl_absorpt_correction_T_min  0.867

_exptl_absorpt_correction_T_max  0.9017

_exptl_absorpt_process_details   
;



;



_exptl_special_details           
;



;



_diffrn_ambient_temperature      100(2)

_diffrn_radiation_wavelength     0.71073

_diffrn_radiation_type           MoK\a

_diffrn_radiation_source         'fine-focus sealed tube'

_diffrn_radiation_monochromator  graphite

_diffrn_measurement_device_type  'STOE IPDS2T'

_diffrn_measurement_method       ?

_diffrn_detector_area_resol_mean ?

_diffrn_standards_number         ?

_diffrn_standards_interval_count ?

_diffrn_standards_interval_time  ?

_diffrn_standards_decay_%        ?

_diffrn_reflns_number            9346

_diffrn_reflns_av_R_equivalents  0.0936

_diffrn_reflns_av_sigmaI/netI    0.1874

_diffrn_reflns_limit_h_min       -40

_diffrn_reflns_limit_h_max       40

_diffrn_reflns_limit_k_min       -8

_diffrn_reflns_limit_k_max       8

_diffrn_reflns_limit_l_min       -18

_diffrn_reflns_limit_l_max       20

_diffrn_reflns_theta_min         2.54

_diffrn_reflns_theta_max         23.00

_reflns_number_total             5893

_reflns_number_gt                2947

_reflns_threshold_expression     >2\s(I)



_computing_data_collection       'STOE X-AREA'

_computing_cell_refinement       'STOE X-AREA'

_computing_data_reduction        'STOE X-AREA'

_computing_structure_solution    SIR-92

_computing_structure_refinement  'SHELXL-97 (Sheldrick, 2008)'

_computing_molecular_graphics    'DIAMOND 3.2'

_computing_publication_material  'WinGX publication routines (Farrugia, 1999)'



_refine_special_details          
;

Refinement of F^2^ against ALL reflections. The weighted R-factor wR and

goodness of fit S are based on F^2^, conventional R-factors R are based

on F, with F set to zero for negative F^2^. The threshold expression of

F^2^ > 2\s(F^2^) is used only for calculating R-factors(gt) etc. and is

not relevant to the choice of reflections for refinement. R-factors based

on F^2^ are statistically about twice as large as those based on F, and R-

factors based on ALL data will be even larger.

;



_refine_ls_structure_factor_coef Fsqd

_refine_ls_matrix_type           full

_refine_ls_weighting_scheme      calc

_refine_ls_weighting_details     
'calc w=1/[\s^2^(Fo^2^)+(0.0463P)^2^+0.0000P] where P=(Fo^2^+2Fc^2^)/3'

_atom_sites_solution_primary     direct

_atom_sites_solution_secondary   difmap

_atom_sites_solution_hydrogens   geom

_refine_ls_hydrogen_treatment    noref

_refine_ls_extinction_method     none

_refine_ls_extinction_coef       ?

_refine_ls_abs_structure_details 'Flack H D (1983), Acta Cryst. A39, 876-881'

_refine_ls_abs_structure_Flack   0.48(9)

_refine_ls_number_reflns         5893

_refine_ls_number_parameters     623

_refine_ls_number_restraints     661

_refine_ls_R_factor_all          0.1276

_refine_ls_R_factor_gt           0.0580

_refine_ls_wR_factor_ref         0.1317

_refine_ls_wR_factor_gt          0.1103

_refine_ls_goodness_of_fit_ref   0.815

_refine_ls_restrained_S_all      0.795

_refine_ls_shift/su_max          0.001

_refine_ls_shift/su_mean         0.000



loop_

_atom_site_label

_atom_site_type_symbol

_atom_site_fract_x

_atom_site_fract_y

_atom_site_fract_z

_atom_site_U_iso_or_equiv

_atom_site_adp_type

_atom_site_occupancy

_atom_site_symmetry_multiplicity

_atom_site_calc_flag

_atom_site_refinement_flags

_atom_site_disorder_assembly

_atom_site_disorder_group







































































































N1 N 0.8432(4) 0.1397(17) 0.7405(10) 0.047(5) Uani 1 1 d DU . .
C1 C 0.8197(5) 0.0262(17) 0.6883(11) 0.049(4) Uani 1 1 d DU . .
C2 C 0.7761(5) 0.0224(18) 0.6559(11) 0.047(4) Uani 1 1 d DU . .
H2 H 0.7607 -0.0637 0.6181 0.056 Uiso 1 1 calc R . .
N2 N 0.7552(5) 0.130(2) 0.6745(12) 0.046(4) Uani 1 1 d DU . .
C3 C 0.7789(6) 0.251(3) 0.7254(15) 0.066(5) Uani 1 1 d DU . .
H3 H 0.7657 0.3394 0.7376 0.079 Uiso 1 1 calc R . .
C4 C 0.8216(6) 0.252(2) 0.7601(13) 0.058(5) Uani 1 1 d DU . .
H4 H 0.8371 0.3354 0.8000 0.070 Uiso 1 1 calc R . .
C5 C 0.8432(6) -0.102(2) 0.6693(15) 0.062(5) Uani 1 1 d DU . .
N3 N 0.5509(5) 0.114(2) 0.6122(12) 0.032(5) Uani 1 1 d DU . .
C6 C 0.5832(6) 0.016(2) 0.6617(13) 0.038(6) Uani 1 1 d DU . .
C7 C 0.6228(6) 0.032(3) 0.6688(14) 0.043(6) Uani 1 1 d DU . .
H7 H 0.6445 -0.0407 0.7050 0.051 Uiso 1 1 calc R . .
N4 N 0.6314(7) 0.146(3) 0.6271(14) 0.050(6) Uani 1 1 d DU . .
C8 C 0.5983(7) 0.243(3) 0.5775(14) 0.036(6) Uani 1 1 d DU . .
H8 H 0.6022 0.3259 0.5460 0.044 Uiso 1 1 calc R . .
C9 C 0.5599(6) 0.228(2) 0.5700(13) 0.033(5) Uani 1 1 d DU . .
H9 H 0.5383 0.3016 0.5337 0.039 Uiso 1 1 calc R . .
C10 C 0.5745(9) -0.114(4) 0.7092(18) 0.039(6) Uani 1 1 d DU . .
N5 N 0.63101(19) 0.662(2) 0.3886(6) 0.036(5) Uani 1 1 d DU . .
C11 C 0.6559(3) 0.626(2) 0.4689(7) 0.042(6) Uani 1 1 d DU . .
C12 C 0.6754(3) 0.748(3) 0.5284(9) 0.045(6) Uani 1 1 d DU . .
H12 H 0.6927 0.7148 0.5843 0.054 Uiso 1 1 calc R . .
N6 N 0.6709(6) 0.908(2) 0.5103(13) 0.046(6) Uani 1 1 d DU . .
C13 C 0.6460(7) 0.944(2) 0.4298(14) 0.045(6) Uani 1 1 d DU . .
H13 H 0.6417 1.0572 0.4135 0.054 Uiso 1 1 calc R . .
C14 C 0.6266(6) 0.826(2) 0.3708(12) 0.046(6) Uani 1 1 d DU . .
H14 H 0.6094 0.8597 0.3150 0.055 Uiso 1 1 calc R . .
C15 C 0.6652(8) 0.443(2) 0.4855(15) 0.043(6) Uani 1 1 d DU . .
N7 N 0.5507(5) -0.389(2) 0.8156(12) 0.033(5) Uani 1 1 d DU . .
C16 C 0.5187(6) -0.490(2) 0.7708(12) 0.023(5) Uani 1 1 d DU . .
C17 C 0.4808(6) -0.474(2) 0.7698(12) 0.025(5) Uani 1 1 d DU . .
H17 H 0.4587 -0.5487 0.7370 0.030 Uiso 1 1 calc R . .
N8 N 0.4746(5) -0.358(2) 0.8130(12) 0.019(4) Uani 1 1 d DU . .
C18 C 0.5074(6) -0.256(2) 0.8581(13) 0.028(5) Uani 1 1 d DU . .
H18 H 0.5043 -0.1715 0.8899 0.033 Uiso 1 1 calc R . .
C19 C 0.5447(6) -0.270(2) 0.8601(13) 0.030(5) Uani 1 1 d DU . .
H19 H 0.5669 -0.1950 0.8929 0.036 Uiso 1 1 calc R . .
C20 C 0.5257(8) -0.609(3) 0.7161(17) 0.027(5) Uani 1 1 d DU . .
N9 N 0.47093(19) -0.152(2) 0.5405(6) 0.035(5) Uani 1 1 d DU . .
C21 C 0.4439(2) -0.1210(19) 0.4609(6) 0.024(5) Uani 1 1 d DU . .
C22 C 0.4245(3) -0.250(2) 0.4043(8) 0.032(5) Uani 1 1 d DU . .
H22 H 0.4054 -0.2240 0.3481 0.039 Uiso 1 1 calc R . .
N10 N 0.4322(5) -0.410(2) 0.4275(12) 0.033(5) Uani 1 1 d DU . .
C23 C 0.4594(6) -0.441(2) 0.5074(12) 0.029(5) Uani 1 1 d DU . .
H23 H 0.4656 -0.5527 0.5259 0.035 Uiso 1 1 calc R . .
C24 C 0.4782(5) -0.316(2) 0.5622(11) 0.036(5) Uani 1 1 d DU . .
H24 H 0.4972 -0.3427 0.6182 0.044 Uiso 1 1 calc R . .
C25 C 0.4386(7) 0.060(2) 0.4384(13) 0.019(4) Uani 1 1 d DU . .
C100 C 0.4456(14) 0.059(5) 0.731(2) 0.090(11) Uani 1 1 d DU . .
H11A H 0.4718 0.1048 0.7763 0.135 Uiso 1 1 calc R . .
H11B H 0.4349 -0.0267 0.7535 0.135 Uiso 1 1 calc R . .
H11C H 0.4248 0.1477 0.7062 0.135 Uiso 1 1 calc R . .
C200 C 0.6541(10) -0.436(4) 0.7109(16) 0.043(7) Uani 1 1 d DU . .
H20A H 0.6263 -0.3942 0.6702 0.065 Uiso 1 1 calc R . .
H20B H 0.6624 -0.5245 0.6860 0.065 Uiso 1 1 calc R . .
H20C H 0.6746 -0.3452 0.7285 0.065 Uiso 1 1 calc R . .
C300 C 0.7475(9) -0.704(5) 0.9105(18) 0.129(10) Uani 1 1 d DU . .
H30A H 0.7465 -0.5920 0.9294 0.194 Uiso 1 1 calc R . .
H30B H 0.7704 -0.7120 0.8983 0.194 Uiso 1 1 calc R . .
H30C H 0.7522 -0.7846 0.9538 0.194 Uiso 1 1 calc R . .
C400 C 0.7244(10) -1.160(4) 0.8950(18) 0.126(10) Uani 1 1 d DU . .
H40A H 0.7273 -1.2755 0.8866 0.189 Uiso 1 1 d R . .
H40B H 0.6997 -1.1434 0.8991 0.189 Uiso 1 1 d R . .
H40C H 0.7486 -1.1233 0.9451 0.189 Uiso 1 1 d R . .
C500 C 0.3689(14) -0.317(4) 0.565(3) 0.157(12) Uani 1 1 d DU . .
H50A H 0.3905 -0.3489 0.6192 0.236 Uiso 1 1 d R . .
H50B H 0.3688 -0.3927 0.5251 0.236 Uiso 1 1 d R . .
H50C H 0.3422 -0.3217 0.5625 0.236 Uiso 1 1 d R . .
O1 O 0.8129(7) -0.167(2) 0.5967(13) 0.090(5) Uani 1 1 d U . .
O2 O 0.8806(5) -0.104(2) 0.7054(12) 0.072(4) Uani 1 1 d U . .
O3 O 0.5382(8) -0.104(3) 0.7075(16) 0.053(6) Uani 1 1 d U . .
O4 O 0.6069(7) -0.202(3) 0.7620(14) 0.039(5) Uani 1 1 d U . .
O5 O 0.6809(7) 0.407(3) 0.5634(14) 0.036(5) Uani 1 1 d U . .
O6 O 0.6438(8) 0.351(3) 0.4250(15) 0.048(5) Uani 1 1 d U . .
O7 O 0.5603(6) -0.599(2) 0.7230(13) 0.021(4) Uani 1 1 d U . .
O8 O 0.4997(6) -0.717(2) 0.6826(13) 0.025(4) Uani 1 1 d U . .
O9 O 0.4561(6) 0.161(2) 0.4985(13) 0.025(4) Uani 1 1 d U . .
O10 O 0.4128(7) 0.099(3) 0.3675(13) 0.039(5) Uani 1 1 d U . .
O100 O 0.4536(7) -0.015(3) 0.6689(15) 0.056(6) Uani 1 1 d DU . .
H100 H 0.4304 -0.0570 0.6331 0.085 Uiso 1 1 d R . .
O101 O 0.5468(6) -0.2076(19) 0.3738(11) 0.071(4) Uani 1 1 d U . .
O102 O 0.5312(6) -0.390(2) 0.4542(12) 0.084(5) Uani 1 1 d U . .
O103 O 0.5273(5) -0.1105(18) 0.4698(11) 0.069(4) Uani 1 1 d U . .
O104 O 0.5912(6) -0.233(2) 0.5142(12) 0.080(5) Uani 1 1 d U . .
O105 O 0.3227(6) -0.183(2) 0.2618(13) 0.095(6) Uani 1 1 d U . .
O106 O 0.2602(7) -0.177(3) 0.2666(16) 0.129(7) Uani 1 1 d U . .
O107 O 0.3140(9) -0.087(4) 0.3720(18) 0.167(10) Uani 1 1 d U . .
O108 O 0.3141(10) -0.377(4) 0.3498(19) 0.171(11) Uani 1 1 d U . .
O200 O 0.6527(7) -0.502(3) 0.7825(13) 0.039(5) Uani 1 1 d DU . .
O300 O 0.7083(6) -0.741(2) 0.8370(13) 0.095(6) Uani 1 1 d DU . .
H301 H 0.6901 -0.6642 0.8178 0.142 Uiso 1 1 d R . .
O400 O 0.7204(7) -1.062(2) 0.8256(13) 0.110(6) Uani 1 1 d DU . .
H401 H 0.7161 -0.9588 0.8290 0.164 Uiso 1 1 d R . .
O500 O 0.3758(9) -0.148(3) 0.5505(19) 0.140(8) Uani 1 1 d DU . .
H500 H 0.3584 -0.1291 0.4999 0.210 Uiso 1 1 d R . .
Cl1 Cl 0.5523(5) -0.251(2) 0.4661(12) 0.0682(17) Uani 1 1 d . . .
Cl2 Cl 0.3000(4) -0.2057(8) 0.3107(8) 0.082(2) Uani 1 1 d . . .
Fe1 Fe 0.6066(3) -0.4413(6) 0.8118(7) 0.0284(13) Uani 1 1 d . . .
Fe2 Fe 0.4942(4) 0.0599(6) 0.6207(7) 0.0397(14) Uani 1 1 d . . .
Ag1 Ag 0.9157(3) 0.1199(3) 0.8306(7) 0.0371(7) Uani 1 1 d . . .
Ag2 Ag 0.6848(3) 0.1220(4) 0.6055(7) 0.0417(8) Uani 1 1 d . . .



loop_

_atom_site_aniso_label

_atom_site_aniso_U_11

_atom_site_aniso_U_22

_atom_site_aniso_U_33

_atom_site_aniso_U_23

_atom_site_aniso_U_13

_atom_site_aniso_U_12





































































N1 0.025(6) 0.021(7) 0.078(9) 0.011(6) 0.012(6) 0.002(5)
C1 0.043(6) 0.046(7) 0.045(8) 0.006(5) 0.011(6) 0.016(5)
C2 0.039(6) 0.042(7) 0.056(8) -0.008(6) 0.021(6) 0.000(5)
N2 0.047(6) 0.033(7) 0.057(8) -0.010(6) 0.025(6) 0.007(5)
C3 0.052(6) 0.064(8) 0.072(9) -0.021(7) 0.025(6) 0.011(7)
C4 0.051(6) 0.058(8) 0.064(9) -0.007(7) 0.028(6) 0.001(6)
C5 0.050(6) 0.070(8) 0.070(8) -0.013(7) 0.032(6) 0.007(6)
N3 0.047(7) 0.033(8) 0.032(8) -0.006(6) 0.032(6) 0.004(6)
C6 0.043(8) 0.027(9) 0.043(9) 0.001(6) 0.021(6) -0.002(6)
C7 0.047(7) 0.037(9) 0.047(10) 0.000(7) 0.026(7) 0.000(6)
N4 0.055(8) 0.044(9) 0.054(9) 0.006(7) 0.030(7) -0.002(6)
C8 0.038(8) 0.037(9) 0.035(9) -0.002(6) 0.019(6) -0.011(6)
C9 0.043(7) 0.025(8) 0.035(9) -0.003(6) 0.023(6) -0.003(6)
C10 0.046(7) 0.039(9) 0.036(9) -0.001(6) 0.025(6) 0.003(6)
N5 0.038(8) 0.031(7) 0.043(7) 0.007(5) 0.023(5) -0.002(6)
C11 0.046(9) 0.037(6) 0.044(7) 0.001(5) 0.022(6) 0.000(7)
C12 0.047(9) 0.040(7) 0.041(8) 0.003(6) 0.017(6) 0.002(7)
N6 0.055(9) 0.037(7) 0.045(7) -0.002(6) 0.024(6) 0.001(7)
C13 0.053(9) 0.033(7) 0.049(8) 0.003(6) 0.025(6) -0.002(7)
C14 0.052(9) 0.037(7) 0.045(8) 0.001(6) 0.022(6) -0.001(7)
C15 0.035(9) 0.036(6) 0.039(7) 0.008(6) 0.004(6) -0.003(6)
N7 0.041(7) 0.027(7) 0.028(8) -0.004(6) 0.015(6) -0.002(6)
C16 0.028(7) 0.014(7) 0.030(8) -0.001(6) 0.016(6) 0.004(5)
C17 0.033(7) 0.016(8) 0.029(8) 0.003(6) 0.018(6) 0.003(6)
N8 0.023(6) 0.013(7) 0.018(7) -0.001(5) 0.009(5) 0.000(5)
C18 0.030(7) 0.023(8) 0.029(9) -0.004(6) 0.014(6) -0.005(6)
C19 0.035(7) 0.023(8) 0.039(9) -0.002(6) 0.024(6) -0.003(6)
C20 0.035(7) 0.015(7) 0.033(9) -0.002(6) 0.019(6) -0.001(6)
N9 0.038(8) 0.021(6) 0.039(7) -0.006(5) 0.013(5) 0.004(6)
C21 0.027(8) 0.019(5) 0.031(7) -0.006(5) 0.019(5) 0.003(6)
C22 0.036(9) 0.022(6) 0.029(7) -0.003(5) 0.008(6) 0.004(7)
N10 0.039(8) 0.015(6) 0.037(7) -0.003(6) 0.013(5) -0.001(6)
C23 0.034(8) 0.014(6) 0.036(7) 0.003(5) 0.015(6) -0.001(6)
C24 0.045(8) 0.028(7) 0.035(7) -0.002(5) 0.020(6) -0.010(6)
C25 0.016(5) 0.022(5) 0.024(5) -0.004(4) 0.014(4) 0.002(4)
C100 0.093(14) 0.096(15) 0.098(13) 0.002(8) 0.059(10) 0.000(8)
C200 0.050(10) 0.038(10) 0.052(9) -0.004(7) 0.033(7) -0.002(7)
C300 0.126(12) 0.125(13) 0.126(12) 0.003(9) 0.055(7) -0.010(9)
C400 0.123(13) 0.120(13) 0.139(12) 0.007(8) 0.068(9) -0.015(8)
C500 0.162(15) 0.151(13) 0.160(15) 0.007(9) 0.081(9) -0.006(9)
O1 0.092(8) 0.092(9) 0.078(7) -0.027(6) 0.036(6) -0.012(7)
O2 0.057(5) 0.081(7) 0.079(7) -0.018(6) 0.035(5) 0.012(6)
O3 0.050(7) 0.062(10) 0.060(9) -0.007(7) 0.037(6) -0.001(6)
O4 0.041(7) 0.038(7) 0.031(7) -0.005(5) 0.013(5) -0.003(6)
O5 0.034(7) 0.032(7) 0.046(6) 0.004(5) 0.022(5) -0.004(6)
O6 0.051(8) 0.044(7) 0.054(7) -0.010(6) 0.031(6) 0.004(6)
O7 0.024(5) 0.012(6) 0.024(7) -0.010(5) 0.010(5) 0.005(5)
O8 0.027(6) 0.015(6) 0.029(7) 0.002(5) 0.013(5) 0.000(5)
O9 0.031(7) 0.016(6) 0.033(6) 0.007(5) 0.019(5) -0.007(5)
O10 0.043(8) 0.031(7) 0.035(6) -0.001(5) 0.014(5) 0.007(6)
O100 0.054(9) 0.050(9) 0.068(9) 0.000(6) 0.033(7) -0.010(6)
O101 0.083(8) 0.072(8) 0.062(7) -0.007(6) 0.039(6) -0.005(6)
O102 0.108(8) 0.074(8) 0.076(8) 0.005(7) 0.051(6) -0.022(7)
O103 0.074(7) 0.052(7) 0.080(7) 0.008(6) 0.039(6) 0.023(6)
O104 0.065(7) 0.088(8) 0.077(8) 0.000(7) 0.029(6) 0.003(7)
O105 0.098(8) 0.088(9) 0.112(9) -0.003(7) 0.061(7) -0.005(6)
O106 0.096(9) 0.138(11) 0.154(11) 0.025(8) 0.065(7) 0.007(7)
O107 0.182(12) 0.158(12) 0.158(12) -0.007(8) 0.082(8) 0.005(8)
O108 0.182(13) 0.169(13) 0.169(13) 0.013(8) 0.094(9) 0.004(8)
O200 0.044(8) 0.039(8) 0.044(7) 0.009(6) 0.029(6) 0.007(6)
O300 0.100(8) 0.064(8) 0.107(9) 0.003(7) 0.041(6) 0.025(7)
O400 0.112(9) 0.103(9) 0.110(9) -0.007(7) 0.052(7) 0.011(7)
O500 0.131(11) 0.147(11) 0.136(11) 0.002(8) 0.062(8) -0.021(8)
Cl1 0.041(3) 0.052(3) 0.105(4) -0.039(3) 0.031(3) -0.008(2)
Cl2 0.098(5) 0.045(3) 0.104(6) 0.012(4) 0.052(5) 0.016(3)
Fe1 0.020(2) 0.026(3) 0.027(3) -0.001(2) 0.0024(18) -0.001(2)
Fe2 0.066(3) 0.015(3) 0.065(3) 0.000(3) 0.053(3) -0.001(3)
Ag1 0.0383(14) 0.0214(15) 0.0618(19) 0.0008(15) 0.0327(13) 0.0071(13)
Ag2 0.0486(16) 0.0274(17) 0.0456(17) 0.0023(15) 0.0209(13) 0.0044(14)



_geom_special_details            
;

All s.u.'s (except the s.u. in the dihedral angle between two l.s. planes)

are estimated using the full covariance matrix