####################################################################### 
# 
# This file contains crystal structure data downloaded from the 
# Cambridge Structural Database (CSD) hosted by the Cambridge 
# Crystallographic Data Centre (CCDC).
# 
# Full information about CCDC data access policies and citation 
# guidelines are available at http://www.ccdc.cam.ac.uk/access/V1 
# 
# Audit and citation data items may have been added by the CCDC. 
# Please retain this information to preserve the provenance of 
# this file and to allow appropriate attribution of the data. 
# 
#######################################################################

data_ZnVI-2,2'-bpy
_audit_block_doi                 10.5517/ccvrl9g
_database_code_depnum_ccdc_archive 'CCDC 797236'
loop_
_citation_id
_citation_doi
_citation_year
1 10.1002/chem.201100226 2011
_audit_update_record             
;
2010-10-19 deposited with the CCDC.	2024-07-10 downloaded from the CCDC.
;
#TrackingRef 'ZnVI-2,2-bpy.cif'


_audit_creation_method           SHELXL-97
_chemical_name_systematic        
;
?
;
_chemical_name_common            ?
_chemical_melting_point          ?
_chemical_formula_moiety         ?
_chemical_formula_sum            'C22 H12 N2 O4 S2 Zn'
_chemical_formula_weight         497.83

loop_
_atom_type_symbol
_atom_type_description
_atom_type_scat_dispersion_real
_atom_type_scat_dispersion_imag
_atom_type_scat_source
C C 0.0181 0.0091 'International Tables Vol C Tables 4.2.6.8 and 6.1.1.4'
H H 0.0000 0.0000 'International Tables Vol C Tables 4.2.6.8 and 6.1.1.4'
N N 0.0311 0.0180 'International Tables Vol C Tables 4.2.6.8 and 6.1.1.4'
O O 0.0492 0.0322 'International Tables Vol C Tables 4.2.6.8 and 6.1.1.4'
S S 0.3331 0.5567 'International Tables Vol C Tables 4.2.6.8 and 6.1.1.4'
Zn Zn -1.5491 0.6778 'International Tables Vol C Tables 4.2.6.8 and 6.1.1.4'

_symmetry_cell_setting           monoclinic
_symmetry_space_group_name_H-M   P2(1)/n

loop_
_symmetry_equiv_pos_as_xyz
'x, y, z'
'-x+1/2, y+1/2, -z+1/2'
'-x, -y, -z'
'x-1/2, -y-1/2, z-1/2'

_cell_length_a                   15.5512(6)
_cell_length_b                   27.1712(11)
_cell_length_c                   15.9056(9)
_cell_angle_alpha                90.00
_cell_angle_beta                 102.285(5)
_cell_angle_gamma                90.00
_cell_volume                     6566.9(5)
_cell_formula_units_Z            8
_cell_measurement_temperature    150
_cell_measurement_reflns_used    ?
_cell_measurement_theta_min      ?
_cell_measurement_theta_max      ?

_exptl_crystal_description       block
_exptl_crystal_colour            colorless
_exptl_crystal_size_max          0.40
_exptl_crystal_size_mid          0.38
_exptl_crystal_size_min          0.32
_exptl_crystal_density_meas      ?
_exptl_crystal_density_diffrn    1.007
_exptl_crystal_density_method    'not measured'
_exptl_crystal_F_000             2016
_exptl_absorpt_coefficient_mu    2.409
_exptl_absorpt_correction_type   multi-scan
_exptl_absorpt_correction_T_min  0.4457
_exptl_absorpt_correction_T_max  0.5127
_exptl_absorpt_process_details   
;
CrysAlis RED, Oxford Diffraction Ltd.,
Version 1.171.32.15 (release 10-01-2008 CrysAlis171 .NET)
Empirical absorption correction using spherical harmonics,
implemented in SCALE3 ABSPACK scaling algorithm.
;

_exptl_special_details           
;
?
;

_diffrn_ambient_temperature      150
_diffrn_radiation_wavelength     1.54184
_diffrn_radiation_type           CuK\a
_diffrn_radiation_source         'Ultra (Cu) X-ray Source'
_diffrn_radiation_monochromator  mirror
_diffrn_measurement_device_type  'Gemini S Ultra'
_diffrn_measurement_method       '\w scans'
_diffrn_detector_area_resol_mean ?
_diffrn_standards_number         ?
_diffrn_standards_interval_count ?
_diffrn_standards_interval_time  ?
_diffrn_standards_decay_%        ?
_diffrn_reflns_number            26455
_diffrn_reflns_av_R_equivalents  0.0287
_diffrn_reflns_av_sigmaI/netI    0.0447
_diffrn_reflns_limit_h_min       -17
_diffrn_reflns_limit_h_max       13
_diffrn_reflns_limit_k_min       -31
_diffrn_reflns_limit_k_max       30
_diffrn_reflns_limit_l_min       -18
_diffrn_reflns_limit_l_max       18
_diffrn_reflns_theta_min         3.25
_diffrn_reflns_theta_max         62.69
_reflns_number_total             10280
_reflns_number_gt                6849
_reflns_threshold_expression     >2sigma(I)

_computing_data_collection       'CrysAlis CCD'
_computing_cell_refinement       'CrysAlis RED'
_computing_data_reduction        'CrysAlis RED'
_computing_structure_solution    ?
_computing_structure_refinement  'SHELXL-97 (Sheldrick, 1997)'
_computing_molecular_graphics    ?
_computing_publication_material  ?

_refine_special_details          
;
Refinement of F^2^ against ALL reflections. The weighted R-factor wR and
goodness of fit S are based on F^2^, conventional R-factors R are based
on F, with F set to zero for negative F^2^. The threshold expression of
F^2^ > 2sigma(F^2^) is used only for calculating R-factors(gt) etc. and is
not relevant to the choice of reflections for refinement. R-factors based
on F^2^ are statistically about twice as large as those based on F, and R-
factors based on ALL data will be even larger.
;

_refine_ls_structure_factor_coef Fsqd
_refine_ls_matrix_type           full
_refine_ls_weighting_scheme      calc
_refine_ls_weighting_details     
'calc w=1/[\s^2^(Fo^2^)+(0.1100P)^2^+5.0000P] where P=(Fo^2^+2Fc^2^)/3'
_atom_sites_solution_primary     direct
_atom_sites_solution_secondary   difmap
_atom_sites_solution_hydrogens   geom
_refine_ls_hydrogen_treatment    constr
_refine_ls_extinction_method     none
_refine_ls_extinction_coef       ?
_refine_ls_number_reflns         10280
_refine_ls_number_parameters     559
_refine_ls_number_restraints     121
_refine_ls_R_factor_all          0.0882
_refine_ls_R_factor_gt           0.0694
_refine_ls_wR_factor_ref         0.2009
_refine_ls_wR_factor_gt          0.1914
_refine_ls_goodness_of_fit_ref   1.042
_refine_ls_restrained_S_all      1.081
_refine_ls_shift/su_max          0.000
_refine_ls_shift/su_mean         0.000

loop_
_atom_site_label
_atom_site_type_symbol
_atom_site_fract_x
_atom_site_fract_y
_atom_site_fract_z
_atom_site_U_iso_or_equiv
_atom_site_adp_type
_atom_site_occupancy
_atom_site_symmetry_multiplicity
_atom_site_calc_flag
_atom_site_refinement_flags
_atom_site_disorder_assembly
_atom_site_disorder_group
Zn01 Zn 0.86002(4) 0.09664(2) 0.93628(5) 0.0479(2) Uani 1 1 d . . .
Zn2 Zn 0.33778(6) 0.10107(3) 0.87812(7) 0.0840(4) Uani 1 1 d . . .
S1 S 0.60850(8) 0.17832(5) 1.01840(9) 0.0560(4) Uani 1 1 d . . .
S3 S 0.26913(9) 0.25247(7) 1.03343(12) 0.0838(6) Uani 1 1 d . . .
S2 S 0.40586(8) 0.29289(7) 1.19350(12) 0.0780(5) Uani 1 1 d . . .
S4 S 0.08074(10) 0.36226(7) 1.22820(14) 0.0957(7) Uani 1 1 d . . .
O4 O -0.1640(2) 0.35820(13) 1.2565(3) 0.0616(10) Uani 1 1 d . . .
O7 O 0.4658(2) 0.37804(12) 1.3933(3) 0.0572(9) Uani 1 1 d . . .
O5 O 0.2201(2) 0.12831(13) 0.9064(3) 0.0600(10) Uani 1 1 d . . .
O2 O 0.8638(2) 0.16854(13) 1.0377(3) 0.0704(12) Uani 1 1 d . . .
O1 O 0.7519(2) 0.12567(12) 0.9633(2) 0.0574(9) Uani 1 1 d . . .
O8 O 0.3397(2) 0.36530(15) 1.3035(3) 0.0752(12) Uani 1 1 d . . .
N2 N 0.9193(3) 0.05482(16) 1.0434(3) 0.0557(12) Uani 1 1 d . . .
O3 O -0.0463(3) 0.39191(17) 1.3339(3) 0.0884(15) Uani 1 1 d . . .
O6 O 0.3424(2) 0.17070(15) 0.9514(2) 0.0644(10) Uani 1 1 d . . .
C6 C 0.5026(3) 0.2354(2) 1.1029(4) 0.0603(15) Uani 1 1 d . . .
H6 H 0.4516 0.2212 1.0709 0.072 Uiso 1 1 calc R . .
C4 C 0.6629(3) 0.24343(18) 1.1380(3) 0.0466(12) Uani 1 1 d . . .
C5 C 0.5855(3) 0.22194(18) 1.0903(3) 0.0468(12) Uani 1 1 d . . .
C16 C 0.1049(3) 0.24011(19) 1.0447(3) 0.0482(12) Uani 1 1 d . . .
C20 C 0.0219(3) 0.29054(19) 1.1220(3) 0.0484(12) Uani 1 1 d . . .
C9 C 0.4995(3) 0.2699(2) 1.1639(4) 0.0542(13) Uani 1 1 d . . .
C8 C 0.5756(3) 0.29366(17) 1.2125(3) 0.0446(11) Uani 1 1 d . . .
C1 C 0.7841(3) 0.15912(18) 1.0166(4) 0.0519(13) Uani 1 1 d . . .
N1 N 0.8185(3) 0.02700(15) 0.8940(3) 0.0575(12) Uani 1 1 d . . .
C14 C 0.2107(3) 0.2005(2) 0.9860(3) 0.0536(13) Uani 1 1 d . . .
C15 C 0.1275(3) 0.19911(18) 0.9959(3) 0.0481(12) Uani 1 1 d . . .
H15 H 0.0882 0.1742 0.9737 0.058 Uiso 1 1 calc R . .
C7 C 0.6583(3) 0.27948(18) 1.1999(4) 0.0516(13) Uani 1 1 d . . .
H7 H 0.7093 0.2937 1.2319 0.062 Uiso 1 1 calc R . .
C19 C 0.0268(3) 0.25068(18) 1.0690(3) 0.0466(12) Uani 1 1 d . . .
H19 H -0.0225 0.2310 1.0499 0.056 Uiso 1 1 calc R . .
C3 C 0.7395(3) 0.22276(18) 1.1151(4) 0.0528(13) Uani 1 1 d . . .
H3 H 0.7966 0.2322 1.1405 0.063 Uiso 1 1 calc R . .
C13 C 0.2597(4) 0.1645(2) 0.9454(4) 0.0567(14) Uani 1 1 d . . .
C28 C 0.8136(5) -0.0575(2) 0.9334(6) 0.087(2) Uani 1 1 d . . .
H28 H 0.8291 -0.0821 0.9745 0.104 Uiso 1 1 calc R . .
C24 C -0.0839(4) 0.3664(2) 1.2692(4) 0.0603(14) Uani 1 1 d . . .
C10 C 0.5549(3) 0.32749(17) 1.2729(3) 0.0486(12) Uani 1 1 d . . .
H10 H 0.5969 0.3456 1.3107 0.058 Uiso 1 1 calc R . .
C2 C 0.7206(3) 0.18833(18) 1.0534(3) 0.0492(12) Uani 1 1 d . . .
C21 C 0.0978(3) 0.3192(2) 1.1524(4) 0.0701(18) Uani 1 1 d . . .
C11 C 0.4684(3) 0.33061(19) 1.2699(4) 0.0542(13) Uani 1 1 d . . .
C23 C -0.0281(3) 0.3440(2) 1.2157(4) 0.0606(15) Uani 1 1 d . . .
C22 C -0.0496(3) 0.30731(19) 1.1588(3) 0.0535(13) Uani 1 1 d . . .
H22 H -0.1059 0.2939 1.1444 0.064 Uiso 1 1 calc R . .
C29 C 0.8421(4) -0.00827(19) 0.9530(5) 0.0634(17) Uani 1 1 d . . .
C30 C 0.8971(4) 0.00652(19) 1.0361(4) 0.0600(16) Uani 1 1 d . . .
C34 C 0.9699(4) 0.0711(2) 1.1144(4) 0.0682(16) Uani 1 1 d . . .
H34 H 0.9850 0.1043 1.1181 0.082 Uiso 1 1 calc R . .
C17 C 0.1777(3) 0.2725(2) 1.0711(4) 0.0692(17) Uani 1 1 d . . .
C25 C 0.7700(4) 0.0155(2) 0.8174(5) 0.0706(17) Uani 1 1 d . . .
H25 H 0.7550 0.0404 0.7768 0.085 Uiso 1 1 calc R . .
C26 C 0.7407(5) -0.0315(3) 0.7951(6) 0.093(2) Uani 1 1 d . . .
H26 H 0.7060 -0.0381 0.7410 0.112 Uiso 1 1 calc R . .
C31 C 0.9260(5) -0.0249(3) 1.1041(5) 0.081(2) Uani 1 1 d . . .
H31 H 0.9093 -0.0578 1.1001 0.097 Uiso 1 1 calc R . .
C18 C 0.1764(4) 0.3119(3) 1.1267(5) 0.094(3) Uani 1 1 d . . .
H18 H 0.2251 0.3320 1.1453 0.113 Uiso 1 1 calc R . .
C27 C 0.7639(6) -0.0686(3) 0.8549(7) 0.106(3) Uani 1 1 d . . .
H27 H 0.7456 -0.1007 0.8415 0.127 Uiso 1 1 calc R . .
C33 C 1.0024(4) 0.0406(3) 1.1852(5) 0.087(2) Uani 1 1 d . . .
H33 H 1.0383 0.0527 1.2353 0.104 Uiso 1 1 calc R . .
C32 C 0.9785(6) -0.0077(3) 1.1765(6) 0.096(3) Uani 1 1 d . . .
H32 H 0.9989 -0.0294 1.2217 0.115 Uiso 1 1 calc R . .
C12 C 0.4224(4) 0.36013(18) 1.3258(4) 0.0535(13) Uani 1 1 d . . .
N4 N 0.3975(4) 0.0586(2) 1.0014(5) 0.098(2) Uani 1 1 d DU . .
C39 C 0.3271(3) -0.00223(19) 0.9140(4) 0.0681(18) Uani 1 1 d DU . .
C35 C 0.2521(4) 0.0266(3) 0.7734(5) 0.110(3) Uani 1 1 d DU . .
H35 H 0.2378 0.0532 0.7361 0.132 Uiso 1 1 calc R . .
C41 C 0.4064(4) -0.0234(2) 1.0607(5) 0.096(2) Uani 1 1 d DU . .
H41 H 0.3950 -0.0570 1.0583 0.115 Uiso 1 1 calc R . .
N3 N 0.3000(4) 0.0310(3) 0.8510(5) 0.137(3) Uani 1 1 d DU . .
C37 C 0.2486(5) -0.0579(3) 0.8109(6) 0.118(3) Uani 1 1 d DU . .
H37 H 0.2299 -0.0899 0.7969 0.142 Uiso 1 1 calc R . .
C40 C 0.3745(4) 0.0124(3) 0.9852(5) 0.149(4) Uani 1 1 d DU . .
C38 C 0.2974(5) -0.0546(3) 0.8898(6) 0.148(4) Uani 1 1 d DU . .
H38 H 0.3118 -0.0814 0.9265 0.178 Uiso 1 1 calc R . .
C42 C 0.4515(5) -0.0007(4) 1.1284(7) 0.157(4) Uani 1 1 d DU . .
H42 H 0.4712 -0.0221 1.1740 0.189 Uiso 1 1 calc R . .
C36 C 0.2205(5) -0.0272(4) 0.7482(6) 0.179(5) Uani 1 1 d DU . .
H36 H 0.1861 -0.0362 0.6952 0.214 Uiso 1 1 calc R . .
C43 C 0.4759(5) 0.0448(4) 1.1477(5) 0.146(4) Uani 1 1 d DU . .
H43 H 0.5088 0.0547 1.2009 0.176 Uiso 1 1 calc R . .
C44 C 0.4439(5) 0.0799(3) 1.0723(6) 0.134(4) Uani 1 1 d DU . .
H44 H 0.4558 0.1134 1.0757 0.160 Uiso 1 1 calc R . .

loop_
_atom_site_aniso_label
_atom_site_aniso_U_11
_atom_site_aniso_U_22
_atom_site_aniso_U_33
_atom_site_aniso_U_23
_atom_site_aniso_U_13
_atom_site_aniso_U_12
Zn01 0.0494(4) 0.0347(3) 0.0688(5) 0.0038(3) 0.0332(3) 0.0016(3)
Zn2 0.0963(6) 0.0388(4) 0.1475(9) 0.0234(5) 0.0948(6) 0.0192(4)
S1 0.0481(7) 0.0532(8) 0.0697(9) -0.0198(7) 0.0190(6) 0.0029(6)
S3 0.0356(7) 0.1189(14) 0.0972(12) -0.0563(11) 0.0149(7) 0.0033(8)
S2 0.0368(7) 0.0993(12) 0.0977(12) -0.0490(10) 0.0138(7) 0.0075(7)
S4 0.0487(8) 0.1102(14) 0.1369(17) -0.0803(13) 0.0397(10) -0.0217(8)
O4 0.049(2) 0.057(2) 0.088(3) -0.007(2) 0.036(2) 0.0003(16)
O7 0.068(2) 0.0398(18) 0.075(3) -0.0149(19) 0.040(2) -0.0082(17)
O5 0.071(2) 0.0372(19) 0.083(3) 0.0004(19) 0.041(2) 0.0117(18)
O2 0.054(2) 0.051(2) 0.120(4) -0.005(2) 0.049(2) 0.0015(17)
O1 0.066(2) 0.0396(19) 0.075(3) -0.0027(19) 0.034(2) 0.0077(17)
O8 0.058(2) 0.072(3) 0.105(3) -0.025(2) 0.039(2) 0.0104(19)
N2 0.054(3) 0.048(3) 0.076(3) 0.010(2) 0.038(3) 0.010(2)
O3 0.072(3) 0.084(3) 0.122(4) -0.051(3) 0.050(3) -0.018(2)
O6 0.050(2) 0.078(3) 0.071(3) -0.007(2) 0.0235(19) 0.0189(18)
C6 0.037(3) 0.070(4) 0.073(4) -0.027(3) 0.010(3) 0.004(2)
C4 0.036(2) 0.047(3) 0.060(3) -0.009(2) 0.018(2) 0.000(2)
C5 0.037(2) 0.043(3) 0.061(3) -0.010(2) 0.014(2) 0.002(2)
C16 0.040(2) 0.055(3) 0.050(3) -0.011(2) 0.007(2) 0.006(2)
C20 0.035(2) 0.055(3) 0.057(3) -0.012(3) 0.012(2) 0.001(2)
C9 0.033(2) 0.067(3) 0.063(3) -0.015(3) 0.011(2) 0.010(2)
C8 0.036(2) 0.044(3) 0.056(3) -0.010(2) 0.014(2) -0.001(2)
C1 0.052(3) 0.040(3) 0.072(4) 0.009(3) 0.031(3) 0.010(2)
N1 0.060(3) 0.040(2) 0.086(4) -0.003(2) 0.046(3) -0.002(2)
C14 0.044(3) 0.061(3) 0.054(3) -0.008(3) 0.008(2) 0.015(2)
C15 0.050(3) 0.044(3) 0.055(3) 0.000(2) 0.023(2) 0.009(2)
C7 0.036(2) 0.048(3) 0.073(4) -0.012(3) 0.016(2) -0.010(2)
C19 0.033(2) 0.050(3) 0.059(3) -0.005(2) 0.014(2) 0.001(2)
C3 0.038(2) 0.046(3) 0.079(4) -0.005(3) 0.025(3) 0.000(2)
C13 0.063(3) 0.052(3) 0.061(3) 0.016(3) 0.027(3) 0.025(3)
C28 0.111(5) 0.036(3) 0.143(7) 0.003(4) 0.092(5) -0.008(3)
C24 0.058(3) 0.057(3) 0.073(4) -0.015(3) 0.029(3) -0.001(3)
C10 0.052(3) 0.039(3) 0.059(3) -0.009(2) 0.021(2) -0.006(2)
C2 0.047(3) 0.042(3) 0.065(3) 0.000(3) 0.024(3) -0.001(2)
C21 0.036(3) 0.090(4) 0.087(4) -0.048(4) 0.020(3) -0.006(3)
C11 0.043(3) 0.054(3) 0.071(4) -0.015(3) 0.023(3) 0.000(2)
C23 0.037(3) 0.064(3) 0.085(4) -0.025(3) 0.022(3) -0.005(2)
C22 0.041(3) 0.057(3) 0.065(3) -0.010(3) 0.016(3) 0.002(2)
C29 0.070(4) 0.036(3) 0.105(5) -0.001(3) 0.064(4) 0.001(2)
C30 0.071(3) 0.040(3) 0.087(4) 0.017(3) 0.057(3) 0.017(3)
C34 0.068(4) 0.069(4) 0.074(4) 0.009(3) 0.030(3) 0.015(3)
C17 0.039(3) 0.087(4) 0.083(4) -0.036(4) 0.015(3) 0.004(3)
C25 0.075(4) 0.062(4) 0.084(5) -0.019(3) 0.036(4) -0.007(3)
C26 0.092(5) 0.081(5) 0.117(6) -0.041(5) 0.047(5) -0.023(4)
C31 0.103(5) 0.058(4) 0.098(5) 0.017(4) 0.059(5) 0.026(4)
C18 0.037(3) 0.123(6) 0.125(6) -0.079(5) 0.022(3) -0.012(3)
C27 0.115(6) 0.066(5) 0.165(9) -0.047(6) 0.093(7) -0.029(5)
C33 0.077(4) 0.115(6) 0.073(5) 0.008(4) 0.024(4) 0.039(4)
C32 0.115(6) 0.082(5) 0.111(7) 0.043(5) 0.066(6) 0.059(5)
C12 0.059(3) 0.040(3) 0.070(4) -0.017(3) 0.035(3) -0.005(2)
N4 0.094(4) 0.056(3) 0.176(6) 0.025(4) 0.100(4) 0.021(3)
C39 0.067(3) 0.042(3) 0.114(5) 0.023(3) 0.061(4) 0.012(3)
C35 0.092(5) 0.113(6) 0.146(7) -0.008(5) 0.073(5) -0.011(4)
C41 0.086(4) 0.102(5) 0.121(5) 0.049(5) 0.070(4) 0.046(4)
N3 0.130(5) 0.145(6) 0.170(7) 0.005(6) 0.105(5) 0.023(5)
C37 0.105(6) 0.118(6) 0.142(7) -0.011(6) 0.047(5) -0.018(5)
C40 0.102(6) 0.192(9) 0.185(8) -0.019(7) 0.100(6) 0.016(6)
C38 0.154(7) 0.120(7) 0.198(9) 0.018(7) 0.098(7) 0.010(6)
C42 0.120(7) 0.155(8) 0.215(9) -0.024(7) 0.078(7) 0.021(6)
C36 0.167(8) 0.192(9) 0.209(9) 0.000(8) 0.113(7) 0.016(7)
C43 0.129(7) 0.152(7) 0.164(8) 0.020(7) 0.044(6) 0.028(6)
C44 0.116(6) 0.137(7) 0.157(8) 0.028(6) 0.050(6) 0.012(6)

_geom_special_details            
;
All esds (except the esd in the dihedral angle between two l.s. planes)
are estimated using the full covariance matrix. The cell esds are taken
into account individually in the estimation of esds in distances, angles
and torsion angles; correlations between esds in cell parameters are only
used when they are defined by crystal symmetry. An approximate (isotropic)
treatment of cell esds is used for estimating esds involving l.s. planes.
;

loop_
_geom_bond_atom_site_label_1
_geom_bond_atom_site_label_2
_geom_bond_distance
_geom_bond_site_symmetry_2
_geom_bond_publ_flag
Zn01 O1 1.985(3) . ?
Zn01 O7 2.031(3) 4_665 ?
Zn01 N1 2.065(4) . ?
Zn01 N2 2.092(5) . ?
Zn01 O8 2.311(4) 4_665 ?
Zn01 C12 2.477(5) 4_665 ?
Zn01 C1 2.559(5) . ?
Zn2 N3 2.012(8) . ?
Zn2 O3 2.078(4) 4_665 ?
Zn2 O5 2.110(3) . ?
Zn2 O6 2.215(4) . ?
Zn2 O4 2.224(4) 4_665 ?
Zn2 N4 2.294(7) . ?
Zn2 C13 2.479(5) . ?
Zn2 C24 2.482(5) 4_665 ?
S1 C2 1.735(5) . ?
S1 C5 1.737(5) . ?
S3 C17 1.743(5) . ?
S3 C14 1.759(6) . ?
S2 C11 1.724(5) . ?
S2 C9 1.739(5) . ?
S4 C23 1.734(5) . ?
S4 C21 1.741(5) . ?
O4 C24 1.238(6) . ?
O4 Zn2 2.224(4) 4_566 ?
O7 C12 1.239(6) . ?
O7 Zn01 2.031(3) 4_566 ?
O5 C13 1.252(7) . ?
O2 C1 1.240(6) . ?
O1 C1 1.271(6) . ?
O8 C12 1.268(6) . ?
O8 Zn01 2.311(4) 4_566 ?
N2 