####################################################################### 
# 
# This file contains crystal structure data downloaded from the 
# Cambridge Structural Database (CSD) hosted by the Cambridge 
# Crystallographic Data Centre (CCDC).
# 
# Full information about CCDC data access policies and citation 
# guidelines are available at http://www.ccdc.cam.ac.uk/access/V1 
# 
# Audit and citation data items may have been added by the CCDC. 
# Please retain this information to preserve the provenance of 
# this file and to allow appropriate attribution of the data. 
# 
#######################################################################

data_344-8
_audit_block_doi                 10.5517/ccvrlkq
_database_code_depnum_ccdc_archive 'CCDC 797244'
loop_
_citation_id
_citation_doi
_citation_year
1 10.1002/chem.201100226 2011
_audit_update_record             
;
2010-10-19 deposited with the CCDC.	2024-07-10 downloaded from the CCDC.
;
#TrackingRef 'ZnVI-Py.cif'


_audit_creation_method           SHELXL-97
_chemical_name_systematic        
;
?
;
_chemical_name_common            ?
_chemical_melting_point          ?
_chemical_formula_moiety         ?
_chemical_formula_sum            'C39 H23 N3 O8 S4 Zn2'
_chemical_formula_weight         920.58

loop_
_atom_type_symbol
_atom_type_description
_atom_type_scat_dispersion_real
_atom_type_scat_dispersion_imag
_atom_type_scat_source
C C 0.0181 0.0091 'International Tables Vol C Tables 4.2.6.8 and 6.1.1.4'
H H 0.0000 0.0000 'International Tables Vol C Tables 4.2.6.8 and 6.1.1.4'
N N 0.0311 0.0180 'International Tables Vol C Tables 4.2.6.8 and 6.1.1.4'
O O 0.0492 0.0322 'International Tables Vol C Tables 4.2.6.8 and 6.1.1.4'
S S 0.3331 0.5567 'International Tables Vol C Tables 4.2.6.8 and 6.1.1.4'
Zn Zn -1.5491 0.6778 'International Tables Vol C Tables 4.2.6.8 and 6.1.1.4'

_symmetry_cell_setting           triclinic
_symmetry_space_group_name_H-M   P-1

loop_
_symmetry_equiv_pos_as_xyz
'x, y, z'
'-x, -y, -z'

_cell_length_a                   14.6278(9)
_cell_length_b                   16.2831(11)
_cell_length_c                   22.9595(14)
_cell_angle_alpha                109.887(6)
_cell_angle_beta                 97.011(5)
_cell_angle_gamma                97.779(5)
_cell_volume                     5011.6(6)
_cell_formula_units_Z            4
_cell_measurement_temperature    293(2)
_cell_measurement_reflns_used    ?
_cell_measurement_theta_min      ?
_cell_measurement_theta_max      ?

_exptl_crystal_description       ?
_exptl_crystal_colour            ?
_exptl_crystal_size_max          0.40
_exptl_crystal_size_mid          0.32
_exptl_crystal_size_min          0.30
_exptl_crystal_density_meas      ?
_exptl_crystal_density_diffrn    1.220
_exptl_crystal_density_method    'not measured'
_exptl_crystal_F_000             1864
_exptl_absorpt_coefficient_mu    3.107
_exptl_absorpt_correction_type   multi-scan
_exptl_absorpt_correction_T_min  0.3695
_exptl_absorpt_correction_T_max  0.4558
_exptl_absorpt_process_details   
;
CrysAlisPro, Oxford Diffraction Ltd.,
Version 1.171.33.46 (release 27-08-2009 CrysAlis171 .NET)
(compiled Aug 27 2009,17:19:36)
Empirical absorption correction using spherical harmonics,
implemented in SCALE3 ABSPACK scaling algorithm.
;
_exptl_special_details           
;
?
;

_diffrn_ambient_temperature      293(2)
_diffrn_radiation_wavelength     1.54184
_diffrn_radiation_type           CuK\a
_diffrn_radiation_source         'Ultra (Cu) X-ray Source'
_diffrn_radiation_monochromator  mirror
_diffrn_measurement_device_type  'Gemini S Ultra, Oxford Diffraction'
_diffrn_measurement_method       '\w scans'
_diffrn_detector_area_resol_mean ?
_diffrn_standards_number         ?
_diffrn_standards_interval_count ?
_diffrn_standards_interval_time  ?
_diffrn_standards_decay_%        ?
_diffrn_reflns_number            42696
_diffrn_reflns_av_R_equivalents  0.0409
_diffrn_reflns_av_sigmaI/netI    0.0477
_diffrn_reflns_limit_h_min       -16
_diffrn_reflns_limit_h_max       14
_diffrn_reflns_limit_k_min       -18
_diffrn_reflns_limit_k_max       18
_diffrn_reflns_limit_l_min       -25
_diffrn_reflns_limit_l_max       26
_diffrn_reflns_theta_min         2.08
_diffrn_reflns_theta_max         62.71
_reflns_number_total             15763
_reflns_number_gt                6517
_reflns_threshold_expression     >2sigma(I)

_computing_data_collection       'CrysAlisPro (Oxford Diffraction Ltd.)'
_computing_cell_refinement       'CrysAlisPro (Oxford Diffraction Ltd.)'
_computing_data_reduction        'CrysAlisPro (Oxford Diffraction Ltd.)'
_computing_structure_solution    ?
_computing_structure_refinement  'SHELXL-97 (Sheldrick, 1997)'
_computing_molecular_graphics    ?
_computing_publication_material  ?

_refine_special_details          
;
Refinement of F^2^ against ALL reflections. The weighted R-factor wR and
goodness of fit S are based on F^2^, conventional R-factors R are based
on F, with F set to zero for negative F^2^. The threshold expression of
F^2^ > 2sigma(F^2^) is used only for calculating R-factors(gt) etc. and is
not relevant to the choice of reflections for refinement. R-factors based
on F^2^ are statistically about twice as large as those based on F, and R-
factors based on ALL data will be even larger.
;

_refine_ls_structure_factor_coef Fsqd
_refine_ls_matrix_type           full
_refine_ls_weighting_scheme      calc
_refine_ls_weighting_details     
'calc w=1/[\s^2^(Fo^2^)+(0.1900P)^2^+4.0000P] where P=(Fo^2^+2Fc^2^)/3'
_atom_sites_solution_primary     direct
_atom_sites_solution_secondary   difmap
_atom_sites_solution_hydrogens   geom
_refine_ls_hydrogen_treatment    constr
_refine_ls_extinction_method     none
_refine_ls_extinction_coef       ?
_refine_ls_number_reflns         15763
_refine_ls_number_parameters     1009
_refine_ls_number_restraints     0
_refine_ls_R_factor_all          0.1451
_refine_ls_R_factor_gt           0.1079
_refine_ls_wR_factor_ref         0.3384
_refine_ls_wR_factor_gt          0.3245
_refine_ls_goodness_of_fit_ref   1.056
_refine_ls_restrained_S_all      1.056
_refine_ls_shift/su_max          0.000
_refine_ls_shift/su_mean         0.000

loop_
_atom_site_label
_atom_site_type_symbol
_atom_site_fract_x
_atom_site_fract_y
_atom_site_fract_z
_atom_site_U_iso_or_equiv
_atom_site_adp_type
_atom_site_occupancy
_atom_site_symmetry_multiplicity
_atom_site_calc_flag
_atom_site_refinement_flags
_atom_site_disorder_assembly
_atom_site_disorder_group
Zn2 Zn 0.58431(8) 0.56607(8) 0.50124(6) 0.0380(4) Uani 1 1 d . . .
Zn3 Zn 0.08466(8) 0.56626(8) 0.50113(6) 0.0386(4) Uani 1 1 d . . .
Zn1 Zn 0.10977(9) 1.22027(8) 0.94268(6) 0.0439(4) Uani 1 1 d . . .
Zn4 Zn -0.39020(9) 1.22027(8) 0.94265(6) 0.0440(4) Uani 1 1 d . . .
S6 S -0.16185(18) 1.05360(15) 0.83478(12) 0.0465(7) Uani 1 1 d . . .
S1 S 0.82470(18) 0.27687(17) 0.83485(12) 0.0480(7) Uani 1 1 d . . .
S3 S 0.33826(18) 1.05368(16) 0.83483(12) 0.0473(7) Uani 1 1 d . . .
S8 S 0.32471(18) 0.27687(17) 0.83492(12) 0.0479(7) Uani 1 1 d . . .
S5 S -0.01492(18) 0.78759(17) 0.66846(13) 0.0542(7) Uani 1 1 d . . .
S7 S 0.08905(18) 0.3728(2) 0.66927(13) 0.0572(8) Uani 1 1 d . . .
S4 S 0.48490(18) 0.78773(17) 0.66825(13) 0.0535(7) Uani 1 1 d . . .
S2 S 0.58958(18) 0.3729(2) 0.66911(13) 0.0571(8) Uani 1 1 d . . .
O2 O 1.0968(5) 0.2880(5) 0.8625(3) 0.0538(18) Uani 1 1 d . . .
O16 O 0.5972(5) 0.2874(5) 0.8623(3) 0.0556(19) Uani 1 1 d . . .
O11 O -0.4184(5) 1.0717(4) 0.8621(3) 0.0545(19) Uani 1 1 d . . .
O8 O 0.5092(5) 0.6311(4) 0.5674(3) 0.0562(19) Uani 1 1 d . . .
O5 O 0.0817(5) 1.0716(4) 0.8623(3) 0.0549(19) Uani 1 1 d . . .
O15 O 0.4889(5) 0.2538(4) 0.9148(3) 0.0522(18) Uani 1 1 d . . .
O10 O 0.0095(5) 0.6309(5) 0.5675(3) 0.058(2) Uani 1 1 d . . .
O4 O 0.6400(5) 0.5193(5) 0.5675(3) 0.0522(19) Uani 1 1 d . . .
O6 O 0.2171(5) 1.1581(4) 0.9143(3) 0.0518(18) Uani 1 1 d . . .
O7 O 0.3806(5) 0.5378(4) 0.5659(3) 0.0494(18) Uani 1 1 d . . .
O12 O -0.2829(5) 1.1586(4) 0.9146(3) 0.0498(18) Uani 1 1 d . . .
O9 O 0.1195(5) 0.4628(4) 0.4345(3) 0.0478(18) Uani 1 1 d . . .
O14 O 0.1396(4) 0.5190(5) 0.5675(3) 0.0506(18) Uani 1 1 d . . .
O1 O 0.9886(5) 0.2536(4) 0.9146(3) 0.0496(18) Uani 1 1 d . . .
C14 C 0.2212(7) 1.0213(6) 0.8363(4) 0.042(2) Uani 1 1 d . . .
O3 O 0.5107(5) 0.4257(5) 0.5676(3) 0.0567(19) Uani 1 1 d . . .
C4 C 0.8737(7) 0.3717(6) 0.7678(5) 0.047(3) Uani 1 1 d . . .
C16 C 0.2533(6) 0.8906(6) 0.7670(4) 0.043(2) Uani 1 1 d . . .
N5 N -0.3092(6) 1.3377(5) 1.0060(4) 0.050(2) Uani 1 1 d . . .
C17 C 0.3381(6) 0.9478(6) 0.7810(4) 0.042(2) Uani 1 1 d . . .
N1 N 0.0640(6) 1.1683(5) 1.0072(4) 0.048(2) Uani 1 1 d . . .
C36 C -0.3310(7) 1.0867(7) 0.8726(5) 0.045(3) Uani 1 1 d . . .
N2 N 0.1905(6) 1.3381(5) 1.0052(4) 0.049(2) Uani 1 1 d . . .
C25 C -0.0664(7) 0.6088(7) 0.5841(4) 0.044(3) Uani 1 1 d . . .
O13 O 0.0112(5) 0.4264(5) 0.5681(3) 0.0570(19) Uani 1 1 d . . .
C29 C -0.0989(7) 0.8348(6) 0.7106(4) 0.043(2) Uani 1 1 d . . .
C33 C -0.1614(7) 0.9474(6) 0.7803(4) 0.045(2) Uani 1 1 d . . .
C30 C -0.0832(6) 0.9217(7) 0.7533(4) 0.048(3) Uani 1 1 d . . .
H30 H -0.0256 0.9601 0.7634 0.057 Uiso 1 1 calc R . .
C18 C 0.4158(7) 0.9229(6) 0.7534(4) 0.046(3) Uani 1 1 d . . .
H18 H 0.4723 0.9625 0.7624 0.055 Uiso 1 1 calc R . .
C44 C 0.3730(6) 0.3712(6) 0.7677(4) 0.043(2) Uani 1 1 d . . .
C19 C 0.2420(7) 0.8032(6) 0.7253(4) 0.046(3) Uani 1 1 d . . .
H19 H 0.1853 0.7639 0.7162 0.055 Uiso 1 1 calc R . .
C48 C 0.5147(7) 0.2829(6) 0.8729(4) 0.045(3) Uani 1 1 d . . .
N4 N -0.4369(6) 1.1677(5) 1.0060(4) 0.050(2) Uani 1 1 d . . .
C35 C -0.2793(6) 1.0212(6) 0.8364(4) 0.043(2) Uani 1 1 d . . .
C13 C 0.1686(8) 1.0859(7) 0.8723(4) 0.047(3) Uani 1 1 d . . .
C32 C -0.2467(6) 0.8907(6) 0.7674(4) 0.040(2) Uani 1 1 d . . .
C21 C 0.4028(6) 0.8355(6) 0.7120(5) 0.046(3) Uani 1 1 d . . .
C31 C -0.2582(6) 0.8040(6) 0.7254(4) 0.045(2) Uani 1 1 d . . .
H31 H -0.3155 0.7654 0.7158 0.054 Uiso 1 1 calc R . .
C11 C 0.6487(7) 0.4393(6) 0.6327(4) 0.045(3) Uani 1 1 d . . .
C7 C 0.8612(7) 0.4150(7) 0.7258(5) 0.051(3) Uani 1 1 d . . .
H7 H 0.9131 0.4438 0.7159 0.062 Uiso 1 1 calc R . .
C26 C -0.0934(7) 0.6866(6) 0.6335(4) 0.046(3) Uani 1 1 d . . .
C1 C 1.0143(7) 0.2832(6) 0.8735(5) 0.049(3) Uani 1 1 d . . .
N3 N 0.1825(5) 0.6745(5) 0.5126(5) 0.063(3) Uani 1 1 d . . .
C38 C 0.1495(6) 0.4370(7) 0.6378(6) 0.071(4) Uani 1 1 d . . .
C40 C 0.2715(7) 0.4160(6) 0.6988(5) 0.046(2) Uani 1 1 d . . .
C24 C 0.4352(7) 0.6094(7) 0.5846(4) 0.045(3) Uani 1 1 d . . .
C41 C 0.1948(7) 0.3696(6) 0.7123(5) 0.046(3) Uani 1 1 d . . .
C45 C 0.2947(7) 0.3285(6) 0.7819(5) 0.047(3) Uani 1 1 d . . .
C28 C -0.1834(6) 0.7755(6) 0.6979(4) 0.043(2) Uani 1 1 d . . .
C8 C 0.7717(6) 0.4155(6) 0.6985(4) 0.043(2) Uani 1 1 d . . .
C5 C 0.7931(7) 0.3280(6) 0.7817(4) 0.045(2) Uani 1 1 d . . .
C27 C -0.1786(6) 0.6899(6) 0.6521(4) 0.042(2) Uani 1 1 d . . .
H27 H -0.2287 0.6419 0.6368 0.051 Uiso 1 1 calc R . .
C23 C 0.4058(7) 0.6868(6) 0.6331(4) 0.047(3) Uani 1 1 d . . .
C9 C 0.6939(7) 0.3697(7) 0.7120(5) 0.048(3) Uani 1 1 d . . .
C39 C 0.2444(7) 0.4550(6) 0.6529(4) 0.046(2) Uani 1 1 d . . .
H39 H 0.2850 0.4869 0.6366 0.056 Uiso 1 1 calc R . .
C20 C 0.3179(6) 0.7759(6) 0.6974(4) 0.043(2) Uani 1 1 d . . .
C42 C 0.2041(7) 0.3263(7) 0.7555(5) 0.050(3) Uani 1 1 d . . .
H42 H 0.1523 0.2979 0.7657 0.060 Uiso 1 1 calc R . .
C34 C -0.3148(6) 0.9354(6) 0.8004(4) 0.042(2) Uani 1 1 d . . .
H34 H -0.3762 0.9079 0.7971 0.051 Uiso 1 1 calc R . .
C43 C 0.3620(7) 0.4156(7) 0.7252(4) 0.048(3) Uani 1 1 d . . .
H43 H 0.4138 0.4440 0.7151 0.058 Uiso 1 1 calc R . .
C15 C 0.1847(7) 0.9356(6) 0.8002(4) 0.045(2) Uani 1 1 d . . .
H15 H 0.1232 0.9084 0.7969 0.054 Uiso 1 1 calc R . .
C22 C 0.3215(7) 0.6894(6) 0.6522(4) 0.046(3) Uani 1 1 d . . .
H22 H 0.2718 0.6412 0.6378 0.055 Uiso 1 1 calc R . .
C10 C 0.7456(6) 0.4562(7) 0.6548(5) 0.049(3) Uani 1 1 d . . .
H10 H 0.7888 0.4908 0.6420 0.059 Uiso 1 1 calc R . .
C37 C 0.0946(7) 0.4617(7) 0.5864(5) 0.053(3) Uani 1 1 d . . .
C58 C 0.2767(8) 1.3639(8) 1.0047(5) 0.063(3) Uani 1 1 d . . .
H58 H 0.3070 1.3263 0.9765 0.075 Uiso 1 1 calc R . .
C3 C 0.9586(7) 0.3597(6) 0.7987(4) 0.048(3) Uani 1 1 d . . .
H3 H 1.0180 0.3827 0.7941 0.057 Uiso 1 1 calc R . .
C46 C 0.4584(7) 0.3595(6) 0.7984(4) 0.047(3) Uani 1 1 d . . .
H46 H 0.5175 0.3825 0.7935 0.056 Uiso 1 1 calc R . .
C73 C -0.2253(9) 1.3638(8) 1.0049(6) 0.070(4) Uani 1 1 d . . .
H73 H -0.1962 1.3262 0.9758 0.084 Uiso 1 1 calc R . .
C12 C 0.5948(8) 0.4636(7) 0.5858(5) 0.051(3) Uani 1 1 d . . .
C2 C 0.9434(7) 0.3106(6) 0.8359(4) 0.046(3) Uani 1 1 d . . .
C64 C -0.5244(9) 1.1421(8) 1.0070(5) 0.065(3) Uani 1 1 d . . .
H64 H -0.5701 1.1521 0.9796 0.079 Uiso 1 1 calc R . .
C49 C -0.0228(9) 1.1423(7) 1.0066(5) 0.064(3) Uani 1 1 d . . .
H49 H -0.0676 1.1520 0.9784 0.077 Uiso 1 1 calc R . .
C6 C 0.7033(7) 0.3270(7) 0.7550(5) 0.052(3) Uani 1 1 d . . .
H6 H 0.6512 0.2990 0.7652 0.062 Uiso 1 1 calc R . .
C47 C 0.4445(6) 0.3108(6) 0.8358(4) 0.042(2) Uani 1 1 d . . .
C69 C -0.3548(10) 1.3930(8) 1.0458(6) 0.084(4) Uani 1 1 d . . .
H69 H -0.4173 1.3742 1.0468 0.100 Uiso 1 1 calc R . .
C66 C -0.4865(11) 1.0856(9) 1.0879(6) 0.082(4) Uani 1 1 d . . .
H66 H -0.5037 1.0582 1.1155 0.099 Uiso 1 1 calc R . .
C65 C -0.5529(10) 1.1006(9) 1.0469(6) 0.086(4) Uani 1 1 d . . .
H65 H -0.6164 1.0830 1.0461 0.103 Uiso 1 1 calc R . .
C50 C -0.0525(10) 1.1007(9) 1.0459(6) 0.084(4) Uani 1 1 d . . .
H50 H -0.1163 1.0834 1.0443 0.101 Uiso 1 1 calc R . .
C51 C 0.0113(12) 1.0848(10) 1.0870(6) 0.091(5) Uani 1 1 d . . .
H51 H -0.0073 1.0563 1.1137 0.109 Uiso 1 1 calc R . .
C71 C -0.2170(11) 1.5046(8) 1.0855(6) 0.082(4) Uani 1 1 d . . .
H71 H -0.1846 1.5606 1.1121 0.099 Uiso 1 1 calc R . .
C54 C 0.1473(10) 1.3933(8) 1.0455(6) 0.079(4) Uani 1 1 d . . .
H54 H 0.0853 1.3737 1.0472 0.095 Uiso 1 1 calc R . .
C56 C 0.2832(11) 1.5050(8) 1.0863(6) 0.080(4) Uani 1 1 d . . .
H56 H 0.3159 1.5603 1.1141 0.096 Uiso 1 1 calc R . .
C68 C -0.3741(10) 1.1533(9) 1.0454(6) 0.083(4) Uani 1 1 d . . .
H68 H -0.3112 1.1723 1.0454 0.099 Uiso 1 1 calc R . .
C53 C 0.1280(9) 1.1530(9) 1.0466(6) 0.079(4) Uani 1 1 d . . .
H53 H 0.1912 1.1702 1.0466 0.095 Uiso 1 1 calc R . .
C67 C -0.3948(11) 1.1120(11) 1.0867(7) 0.100(5) Uani 1 1 d . . .
H67 H -0.3473 1.1025 1.1131 0.120 Uiso 1 1 calc R . .
C72 C -0.1723(10) 1.4470(9) 1.0453(6) 0.084(4) Uani 1 1 d . . .
H72 H -0.1089 1.4625 1.0449 0.101 Uiso 1 1 calc R . .
C57 C 0.3268(10) 1.4479(9) 1.0459(6) 0.079(4) Uani 1 1 d . . .
H57 H 0.3900 1.4645 1.0455 0.095 Uiso 1 1 calc R . .
C70 C -0.3074(13) 1.4794(9) 1.0859(6) 0.101(5) Uani 1 1 d . . .
H70 H -0.3390 1.5180 1.1123 0.121 Uiso 1 1 calc R . .
C52 C 0.1031(14) 1.1124(11) 1.0875(7) 0.113(6) Uani 1 1 d . . .
H52 H 0.1492 1.1039 1.1154 0.136 Uiso 1 1 calc R . .
C55 C 0.1918(13) 1.4790(10) 1.0848(7) 0.107(6) Uani 1 1 d . . .
H55 H 0.1585 1.5177 1.1096 0.128 Uiso 1 1 calc R . .
C74 C 0.7645(6) 0.6653(6) 0.4996(4) 0.047(3) Uani 1 1 d . . .
H74 H 0.7847 0.6114 0.4920 0.056 Uiso 1 1 calc R . .
C59 C 0.2684(6) 0.6671(7) 0.4997(5) 0.050(3) Uani 1 1 d . . .
H59 H 0.2833 0.6107 0.4862 0.060 Uiso 1 1 calc R . .
C75 C 0.8336(9) 0.7348(8) 0.5018(5) 0.076(4) Uani 1 1 d . . .
H75 H 0.8867 0.7239 0.4841 0.091 Uiso 1 1 calc R . .
C60 C 0.3338(7) 0.7361(8) 0.5050(5) 0.063(3) Uani 1 1 d . . .
H60 H 0.3925 0.7257 0.4962 0.076 Uiso 1 1 calc R . .
N6 N 0.6729(8) 0.6613(10) 0.5067(5) 0.134(7) Uani 1 1 d . . .
C76 C 0.8211(10) 0.8135(11) 0.5288(9) 0.133(7) Uani 1 1 d . . .
H76 H 0.8687 0.8610 0.5342 0.160 Uiso 1 1 calc R . .
C61 C 0.3198(11) 0.8144(10) 0.5213(14) 0.208(14) Uani 1 1 d . . .
H61 H 0.3593 0.8592 0.5150 0.249 Uiso 1 1 calc R . .
C78 C 0.6683(10) 0.7537(11) 0.5425(8) 0.120(7) Uani 1 1 d . . .
H78 H 0.6160 0.7613 0.5616 0.144 Uiso 1 1 calc R . .
C63 C 0.1712(12) 0.7565(7) 0.5427(9) 0.139(8) Uani 1 1 d . . .
H63 H 0.1157 0.7624 0.5583 0.167 Uiso 1 1 calc R . .
C62 C 0.2315(12) 0.8327(10) 0.5532(10) 0.158(10) Uani 1 1 d . . .
H62 H 0.2220 0.8890 0.5764 0.189 Uiso 1 1 calc R . .
C77 C 0.7309(13) 0.8326(11) 0.5525(12) 0.181(11) Uani 1 1 d . . .
H77 H 0.7186 0.8893 0.5712 0.217 Uiso 1 1 calc R . .

loop_
_atom_site_aniso_label
_atom_site_aniso_U_11
_atom_site_aniso_U_22
_atom_site_aniso_U_33
_atom_site_aniso_U_23
_atom_site_aniso_U_13
_atom_site_aniso_U_12
Zn2 0.0386(7) 0.0425(7) 0.0353(8) 0.0104(6) 0.0062(6) 0.0255(6)
Zn3 0.0417(8) 0.0415(7) 0.0331(8) 0.0076(6) 0.0045(6) 0.0271(6)
Zn1 0.0554(8) 0.0453(8) 0.0364(8) 0.0126(6) 0.0086(6) 0.0332(6)
Zn4 0.0553(8) 0.0458(8) 0.0357(8) 0.0121(6) 0.0083(6) 0.0333(6)
S6 0.0548(15) 0.0396(13) 0.0418(15) 0.0045(12) 0.0110(13) 0.0229(12)
S1 0.0560(16) 0.0563(15) 0.0419(16) 0.0253(13) 0.0064(13) 0.0267(13)
S3 0.0552(16) 0.0404(14) 0.0417(16) 0.0043(12) 0.0074(13) 0.0227(12)
S8 0.0542(16) 0.0563(15) 0.0439(16) 0.0256(13) 0.0082(13) 0.0266(13)
S5 0.0481(15) 0.0518(15) 0.0545(18) 0.0017(14) 0.0163(14) 0.0226(12)
S7 0.0423(15) 0.088(2) 0.0565(19) 0.0404(17) 0.0061(13) 0.0266(14)
S4 0.0467(15) 0.0530(16) 0.0533(18) 0.0020(14) 0.0158(13) 0.0242(12)
S2 0.0450(15) 0.089(2) 0.0516(18) 0.0373(16) 0.0054(13) 0.0296(14)
O2 0.060(5) 0.072(5) 0.041(4) 0.028(4) 0.006(4) 0.037(4)
O16 0.056(5) 0.077(5) 0.047(5) 0.031(4) 0.004(4) 0.038(4)
O11 0.058(5) 0.056(4) 0.047(5) 0.003(4) 0.013(4) 0.037(4)
O8 0.062(5) 0.048(4) 0.065(5) 0.014(4) 0.023(4) 0.037(4)
O5 0.055(5) 0.056(4) 0.052(5) 0.006(4) 0.017(4) 0.034(4)
O15 0.068(5) 0.056(4) 0.041(4) 0.022(4) 0.004(4) 0.034(4)
O10 0.066(5) 0.058(5) 0.051(5) 0.009(4) 0.018(4) 0.038(4)
O4 0.059(5) 0.062(5) 0.041(4) 0.019(4) 0.006(4) 0.034(4)
O6 0.062(4) 0.038(4) 0.052(5) 0.007(4) 0.009(4) 0.026(3)
O7 0.061(5) 0.040(4) 0.042(4) 0.001(4) 0.013(4) 0.026(4)
O12 0.066(5) 0.035(4) 0.047(4) 0.007(3) 0.008(4) 0.026(3)
O9 0.050(4) 0.050(4) 0.040(4) 0.004(4) 0.014(3) 0.022(4)
O14 0.052(4) 0.064(5) 0.038(4) 0.015(4) 0.002(3) 0.033(4)
O1 0.064(5) 0.050(4) 0.042(4) 0.020(4) 0.006(4) 0.028(3)
C14 0.060(6) 0.045(6) 0.027(5) 0.008(5) 0.013(5) 0.035(5)
O3 0.045(4) 0.066(5) 0.061(5) 0.027(4) -0.007(4) 0.021(4)
C4 0.059(7) 0.051(6) 0.042(6) 0.023(5) 0.006(5) 0.030(5)
C16 0.040(6) 0.050(6) 0.040(6) 0.014(5) 0.002(5) 0.023(5)
N5 0.071(6) 0.040(5) 0.041(5) 0.013(4) 0.011(5) 0.021(5)
C1