####################################################################### 
# 
# This file contains crystal structure data downloaded from the 
# Cambridge Structural Database (CSD) hosted by the Cambridge 
# Crystallographic Data Centre (CCDC).
# 
# Full information about CCDC data access policies and citation 
# guidelines are available at http://www.ccdc.cam.ac.uk/access/V1 
# 
# Audit and citation data items may have been added by the CCDC. 
# Please retain this information to preserve the provenance of 
# this file and to allow appropriate attribution of the data. 
# 
#######################################################################

data_1
_audit_block_doi                 10.5517/ccvrlfl
_database_code_depnum_ccdc_archive 'CCDC 797240'
loop_
_citation_id
_citation_doi
_citation_year
1 10.1002/chem.201100226 2011
_audit_update_record             
;
2010-10-19 deposited with the CCDC.	2024-07-10 downloaded from the CCDC.
;
#TrackingRef 'ZnVI-4,4-bpy.cif'


_audit_creation_method           SHELXL-97
_chemical_name_systematic        
;
?
;
_chemical_name_common            ?
_chemical_melting_point          ?
_chemical_formula_moiety         ?
_chemical_formula_sum            'C17 H8 N O4 S2 Zn'
_chemical_formula_weight         419.73

loop_
_atom_type_symbol
_atom_type_description
_atom_type_scat_dispersion_real
_atom_type_scat_dispersion_imag
_atom_type_scat_source
C C 0.0181 0.0091 'International Tables Vol C Tables 4.2.6.8 and 6.1.1.4'
H H 0.0000 0.0000 'International Tables Vol C Tables 4.2.6.8 and 6.1.1.4'
N N 0.0311 0.0180 'International Tables Vol C Tables 4.2.6.8 and 6.1.1.4'
O O 0.0492 0.0322 'International Tables Vol C Tables 4.2.6.8 and 6.1.1.4'
S S 0.3331 0.5567 'International Tables Vol C Tables 4.2.6.8 and 6.1.1.4'
Zn Zn -1.5491 0.6778 'International Tables Vol C Tables 4.2.6.8 and 6.1.1.4'

_symmetry_cell_setting           monoclinic
_symmetry_space_group_name_H-M   C2/c

loop_
_symmetry_equiv_pos_as_xyz
'x, y, z'
'-x, y, -z+1/2'
'x+1/2, y+1/2, z'
'-x+1/2, y+1/2, -z+1/2'
'-x, -y, -z'
'x, -y, z-1/2'
'-x+1/2, -y+1/2, -z'
'x+1/2, -y+1/2, z-1/2'

_cell_length_a                   15.3611(8)
_cell_length_b                   25.4602(10)
_cell_length_c                   13.8990(6)
_cell_angle_alpha                90.00
_cell_angle_beta                 106.013(5)
_cell_angle_gamma                90.00
_cell_volume                     5224.9(4)
_cell_formula_units_Z            8
_cell_measurement_temperature    293(2)
_cell_measurement_reflns_used    ?
_cell_measurement_theta_min      ?
_cell_measurement_theta_max      ?

_exptl_crystal_description       prism
_exptl_crystal_colour            yellow
_exptl_crystal_size_max          0.40
_exptl_crystal_size_mid          0.30
_exptl_crystal_size_min          0.30
_exptl_crystal_density_meas      ?
_exptl_crystal_density_diffrn    1.067
_exptl_crystal_density_method    'not measured'
_exptl_crystal_F_000             1688
_exptl_absorpt_coefficient_mu    2.932
_exptl_absorpt_correction_type   multi-scan
_exptl_absorpt_correction_T_min  0.3867
_exptl_absorpt_correction_T_max  0.4733
_exptl_absorpt_process_details   
;
CrysAlisPro, Oxford Diffraction Ltd.,
Version 1.171.33.46 (release 27-08-2009 CrysAlis171 .NET)
(compiled Aug 27 2009,17:19:36)
Empirical absorption correction using spherical harmonics,
implemented in SCALE3 ABSPACK scaling algorithm.
;
_exptl_special_details           
;
?
;

_diffrn_ambient_temperature      293(2)
_diffrn_radiation_wavelength     1.54184
_diffrn_radiation_type           CuK\a
_diffrn_radiation_source         'Ultra (Cu) X-ray Source'
_diffrn_radiation_monochromator  mirror
_diffrn_measurement_device_type  'Gemini S Ultra, Oxford Diffraction'
_diffrn_measurement_method       '\w scans'
_diffrn_detector_area_resol_mean ?
_diffrn_standards_number         ?
_diffrn_standards_interval_count ?
_diffrn_standards_interval_time  ?
_diffrn_standards_decay_%        ?
_diffrn_reflns_number            18467
_diffrn_reflns_av_R_equivalents  0.0338
_diffrn_reflns_av_sigmaI/netI    0.0210
_diffrn_reflns_limit_h_min       -17
_diffrn_reflns_limit_h_max       17
_diffrn_reflns_limit_k_min       -29
_diffrn_reflns_limit_k_max       25
_diffrn_reflns_limit_l_min       -15
_diffrn_reflns_limit_l_max       15
_diffrn_reflns_theta_min         3.46
_diffrn_reflns_theta_max         62.71
_reflns_number_total             4120
_reflns_number_gt                3278
_reflns_threshold_expression     >2sigma(I)

_computing_data_collection       'CrysAlisPro (Oxford Diffraction Ltd.)'
_computing_cell_refinement       'CrysAlisPro (Oxford Diffraction Ltd.)'
_computing_data_reduction        'CrysAlisPro (Oxford Diffraction Ltd.)'
_computing_structure_solution    'SHELXS-97 (Sheldrick, 1990)'
_computing_structure_refinement  'SHELXL-97 (Sheldrick, 1997)'
_computing_molecular_graphics    ?
_computing_publication_material  ?

_refine_special_details          
;
Refinement of F^2^ against ALL reflections. The weighted R-factor wR and
goodness of fit S are based on F^2^, conventional R-factors R are based
on F, with F set to zero for negative F^2^. The threshold expression of
F^2^ > 2sigma(F^2^) is used only for calculating R-factors(gt) etc. and is
not relevant to the choice of reflections for refinement. R-factors based
on F^2^ are statistically about twice as large as those based on F, and R-
factors based on ALL data will be even larger.
;

_refine_ls_structure_factor_coef Fsqd
_refine_ls_matrix_type           full
_refine_ls_weighting_scheme      calc
_refine_ls_weighting_details     
'calc w=1/[\s^2^(Fo^2^)+(0.1799P)^2^+1.5723P] where P=(Fo^2^+2Fc^2^)/3'
_atom_sites_solution_primary     direct
_atom_sites_solution_secondary   difmap
_atom_sites_solution_hydrogens   geom
_refine_ls_hydrogen_treatment    constr
_refine_ls_extinction_method     none
_refine_ls_extinction_coef       ?
_refine_ls_number_reflns         4120
_refine_ls_number_parameters     226
_refine_ls_number_restraints     0
_refine_ls_R_factor_all          0.0835
_refine_ls_R_factor_gt           0.0756
_refine_ls_wR_factor_ref         0.2452
_refine_ls_wR_factor_gt          0.2369
_refine_ls_goodness_of_fit_ref   1.131
_refine_ls_restrained_S_all      1.131
_refine_ls_shift/su_max          0.000
_refine_ls_shift/su_mean         0.000

loop_
_atom_site_label
_atom_site_type_symbol
_atom_site_fract_x
_atom_site_fract_y
_atom_site_fract_z
_atom_site_U_iso_or_equiv
_atom_site_adp_type
_atom_site_occupancy
_atom_site_symmetry_multiplicity
_atom_site_calc_flag
_atom_site_refinement_flags
_atom_site_disorder_assembly
_atom_site_disorder_group
Zn1 Zn 0.52598(4) 0.14803(2) -0.13907(4) 0.0448(3) Uani 1 1 d . . .
S1 S 0.34755(13) 0.00330(6) -0.13515(11) 0.0793(5) Uani 1 1 d . . .
S2 S 0.20360(13) -0.19496(6) -0.10734(11) 0.0792(5) Uani 1 1 d . . .
O2 O 0.3870(3) 0.08681(13) -0.3579(3) 0.0616(9) Uani 1 1 d . . .
O3 O 0.1155(3) -0.29622(14) -0.1459(3) 0.0672(10) Uani 1 1 d . . .
O1 O 0.4250(3) 0.09461(14) -0.1914(3) 0.0634(10) Uani 1 1 d . . .
C11 C 0.1575(4) -0.2241(2) -0.2257(4) 0.0633(13) Uani 1 1 d . . .
N1 N 0.5209(3) 0.14821(14) 0.0039(3) 0.0521(10) Uani 1 1 d . . .
O4 O 0.0702(3) -0.29291(14) -0.3134(3) 0.0656(10) Uani 1 1 d . . .
C10 C 0.1579(6) -0.1966(2) -0.3171(8) 0.119(4) Uani 1 1 d . . .
H10 H 0.1349 -0.2065 -0.3837 0.143 Uiso 1 1 calc R . .
C13 C 0.4925(4) 0.1061(2) 0.0441(4) 0.0626(14) Uani 1 1 d . . .
H13 H 0.4779 0.0760 0.0049 0.075 Uiso 1 1 calc R . .
C15 C 0.5045(4) 0.14891(19) 0.1982(4) 0.0603(14) Uani 1 1 d . . .
C17 C 0.5410(5) 0.1909(2) 0.0619(4) 0.0733(17) Uani 1 1 d . . .
H17 H 0.5601 0.2208 0.0351 0.088 Uiso 1 1 calc R . .
C8 C 0.2089(5) -0.1453(2) -0.2695(5) 0.0729(17) Uani 1 1 d . . .
C5 C 0.2923(4) -0.0559(2) -0.1791(4) 0.0683(15) Uani 1 1 d . . .
C2 C 0.3428(4) 0.02141(19) -0.2600(4) 0.0599(13) Uani 1 1 d . . .
C12 C 0.1119(4) -0.27576(19) -0.2287(4) 0.0586(13) Uani 1 1 d . . .
C9 C 0.2317(5) -0.1398(2) -0.1673(5) 0.0726(16) Uani 1 1 d . . .
C14 C 0.4837(4) 0.1045(2) 0.1383(4) 0.0661(15) Uani 1 1 d . . .
H14 H 0.4640 0.0741 0.1626 0.079 Uiso 1 1 calc R . .
C7 C 0.2290(5) -0.1050(2) -0.3307(5) 0.0823(19) Uani 1 1 d . . .
H7 H 0.2148 -0.1086 -0.3999 0.099 Uiso 1 1 calc R . .
C3 C 0.3000(5) -0.0138(2) -0.3330(7) 0.096(2) Uani 1 1 d . . .
C6 C 0.2730(5) -0.0945(2) -0.1183(5) 0.0778(17) Uani 1 1 d . . .
H6 H 0.2865 -0.0906 -0.0493 0.093 Uiso 1 1 calc R . .
C16 C 0.5353(5) 0.1931(2) 0.1582(4) 0.0747(18) Uani 1 1 d . . .
H16 H 0.5515 0.2234 0.1962 0.090 Uiso 1 1 calc R . .
C4 C 0.2715(4) -0.0592(2) -0.2821(5) 0.0708(15) Uani 1 1 d . . .
C1 C 0.3876(3) 0.07183(18) -0.2718(4) 0.0535(12) Uani 1 1 d . . .
H3A H 0.2819 -0.0061 -0.3996 0.000 Uiso 1 1 d . . .

loop_
_atom_site_aniso_label
_atom_site_aniso_U_11
_atom_site_aniso_U_22
_atom_site_aniso_U_33
_atom_site_aniso_U_23
_atom_site_aniso_U_13
_atom_site_aniso_U_12
Zn1 0.0719(5) 0.0347(4) 0.0291(4) 0.00022(19) 0.0159(3) -0.0016(2)
S1 0.1127(12) 0.0597(9) 0.0619(9) -0.0026(6) 0.0182(8) -0.0272(8)
S2 0.1082(12) 0.0633(9) 0.0609(9) 0.0033(6) 0.0146(8) -0.0265(8)
O2 0.090(3) 0.0471(19) 0.047(2) 0.0015(14) 0.0181(17) -0.0202(17)
O3 0.088(3) 0.050(2) 0.061(2) 0.0087(16) 0.0176(19) -0.0215(18)
O1 0.089(3) 0.051(2) 0.049(2) -0.0064(16) 0.0171(18) -0.0246(18)
C11 0.077(3) 0.049(3) 0.064(3) -0.006(2) 0.020(3) -0.015(2)
N1 0.083(3) 0.044(2) 0.029(2) -0.0037(14) 0.0157(19) -0.0017(18)
O4 0.093(3) 0.0470(19) 0.061(2) -0.0076(16) 0.028(2) -0.0235(18)
C10 0.132(6) 0.036(3) 0.233(10) 0.050(4) 0.125(7) 0.001(3)
C13 0.103(4) 0.047(3) 0.038(2) -0.001(2) 0.020(3) -0.010(3)
C15 0.090(4) 0.056(3) 0.039(3) -0.001(2) 0.026(3) 0.000(2)
C17 0.129(5) 0.051(3) 0.046(3) -0.004(2) 0.036(3) -0.020(3)
C8 0.083(4) 0.050(3) 0.086(5) -0.004(3) 0.023(3) -0.024(3)
C5 0.082(4) 0.052(3) 0.066(3) 0.001(2) 0.012(3) -0.016(3)
C2 0.076(3) 0.044(3) 0.061(3) 0.002(2) 0.020(3) -0.013(2)
C12 0.074(3) 0.045(3) 0.061(3) -0.003(2) 0.025(3) -0.012(2)
C9 0.089(4) 0.058(3) 0.065(4) 0.005(3) 0.013(3) -0.018(3)
C14 0.104(4) 0.052(3) 0.046(3) 0.000(2) 0.027(3) -0.015(3)
C7 0.117(5) 0.064(4) 0.066(4) 0.002(3) 0.026(3) -0.031(4)
C3 0.082(4) 0.046(3) 0.158(7) -0.026(4) 0.032(4) -0.027(3)
C6 0.092(4) 0.051(3) 0.086(4) 0.003(3) 0.016(3) -0.025(3)
C16 0.137(6) 0.052(3) 0.047(3) -0.008(2) 0.044(3) -0.013(3)
C4 0.081(4) 0.045(3) 0.089(4) 0.008(3) 0.029(3) -0.016(3)
C1 0.066(3) 0.039(2) 0.057(3) 0.002(2) 0.020(2) -0.004(2)

_geom_special_details            
;
All esds (except the esd in the dihedral angle between two l.s. planes)
are estimated using the full covariance matrix. The cell esds are taken
into account individually in the estimation of esds in distances, angles
and torsion angles; correlations between esds in cell parameters are only
used when they are defined by crystal symmetry. An approximate (isotropic)
treatment of cell esds is used for estimating esds involving l.s. planes.
;

loop_
_geom_bond_atom_site_label_1
_geom_bond_atom_site_label_2
_geom_bond_distance
_geom_bond_site_symmetry_2
_geom_bond_publ_flag
Zn1 O3 1.997(3) 3 ?
Zn1 N1 2.010(4) . ?
Zn1 O1 2.041(3) . ?
Zn1 O2 2.062(3) 2_654 ?
Zn1 O4 2.083(3) 4_554 ?
Zn1 Zn1 2.9644(11) 2_654 ?
S1 C5 1.755(5) . ?
S1 C2 1.778(6) . ?
S2 C9 1.748(6) . ?
S2 C11 1.765(6) . ?
O2 C1 1.253(6) . ?
O2 Zn1 2.062(3) 2_654 ?
O3 C12 1.250(6) . ?
O3 Zn1 1.997(3) 3_445 ?
O1 C1 1.250(6) . ?
C11 C10 1.451(10) . ?
C11 C12 1.486(7) . ?
N1 C17 1.337(6) . ?
N1 C13 1.337(6) . ?
O4 C12 1.253(6) . ?
O4 Zn1 2.083(3) 4_544 ?
C10 C8 1.574(10) . ?
C13 C14 1.354(7) . ?
C15 C14 1.387(7) . ?
C15 C16 1.393(7) . ?
C15 C15 1.485(11) 2_655 ?
C17 C16 1.366(7) . ?
C8 C9 1.373(9) . ?
C8 C7 1.419(8) . ?
C5 C6 1.380(8) . ?
C5 C4 1.381(9) . ?
C2 C3 1.378(9) . ?
C2 C1 1.487(7) . ?
C9 C6 1.399(8) . ?
C7 C4 1.414(8) . ?
C3 C4 1.482(9) . ?

loop_
_geom_angle_atom_site_label_1
_geom_angle_atom_site_label_2
_geom_angle_atom_site_label_3
_geom_angle
_geom_angle_site_symmetry_1
_geom_angle_site_symmetry_3
_geom_angle_publ_flag
O3 Zn1 N1 105.12(16) 3 . ?
O3 Zn1 O1 157.34(15) 3 . ?
N1 Zn1 O1 96.93(16) . . ?
O3 Zn1 O2 94.43(18) 3 2_654 ?
N1 Zn1 O2 102.95(15) . 2_654 ?
O1 Zn1 O2 85.55(17) . 2_654 ?
O3 Zn1 O4 84.79(17) 3 4_554 ?
N1 Zn1 O4 95.42(16) . 4_554 ?
O1 Zn1 O4 88.02(18) . 4_554 ?
O2 Zn1 O4 161.13(15) 2_654 4_554 ?
O3 Zn1 Zn1 86.65(11) 3 2_654 ?
N1 Zn1 Zn1 162.87(14) . 2_654 ?
O1 Zn1 Zn1 70.69(10) . 2_654 ?
O2 Zn1 Zn1 88.21(10) 2_654 2_654 ?
O4 Zn1 Zn1 72.92(10) 4_554 2_654 ?
C5 S1 C2 89.8(3) . . ?
C9 S2 C11 89.0(3) . . ?
C1 O2 Zn1 114.5(3) . 2_654 ?
C12 O3 Zn1 118.9(3) . 3_445 ?
C1 O1 Zn1 138.1(3) . . ?
C10 C11 C12 121.1(6) . . ?
C10 C11 S2 121.1(5) . . ?
C12 C11 S2 117.6(4) . . ?
C17 N1 C13 116.6(4) . . ?
C17 N1 Zn1 122.2(3) . . ?
C13 N1 Zn1 121.2(3) . . ?
C12 O4 Zn1 133.1(3) . 4_544 ?
C11 C10 C8 98.9(8) . . ?
N1 C13 C14 124.0(5) . . ?
C14 C15 C16 117.7(5) . . ?
C14 C15 C15 120.9(4) . 2_655 ?
C16 C15 C15 121.3(4) . 2_655 ?
N1 C17 C16 123.9(5) . . ?
C9 C8 C7 120.7(5) . . ?
C9 C8 C10 118.3(6) . . ?
C7 C8 C10 120.9(6) . . ?
C6 C5 C4 124.4(5) . . ?
C6 C5 S1 124.3(5) . . ?
C4 C5 S1 111.3(4) . . ?
C3 C2 C1 128.5(6) . . ?
C3 C2 S1 115.6(5) . . ?
C1 C2 S1 115.9(4) . . ?
O3 C12 O4 126.9(5) . . ?
O3 C12 C11 116.2(5) . . ?
O4 C12 C11 116.8(5) . . ?
C8 C9 C6 122.6(6) . . ?
C8 C9 S2 112.7(4) . . ?
C6 C9 S2 124.7(5) . . ?
C13 C14 C15 119.3(5) . . ?
C4 C7 C8 117.3(6) . . ?
C2 C3 C4 107.5(7) . . ?
C5 C6 C9 115.7(6) . . ?
C17 C16 C15 118.6(5) . . ?
C5 C4 C7 119.2(5) . . ?
C5 C4 C3 115.7(5) . . ?
C7 C4 C3 125.0(6) . . ?
O1 C1 O2 126.4(4) . . ?
O1 C1 C2 114.5(4) . . ?
O2 C1 C2 119.1(5) . . ?
loop_
_platon_squeeze_void_nr
_platon_squeeze_void_average_x
_platon_squeeze_void_average_y
_platon_squeeze_void_average_z
_platon_squeeze_void_volume
_platon_squeeze_void_count_electrons
_platon_squeeze_void_content
1 -0.015 0.005 -0.021 2376 560 ' '

_diffrn_measured_fraction_theta_max 0.981
_diffrn_reflns_theta_full        62.71
_diffrn_measured_fraction_theta_full 0.981
_refine_diff_density_max         1.567
_refine_diff_density_min         -0.643
_refine_diff_density_rms         0.108
