####################################################################### 
# 
# This file contains crystal structure data downloaded from the 
# Cambridge Structural Database (CSD) hosted by the Cambridge 
# Crystallographic Data Centre (CCDC).
# 
# Full information about CCDC data access policies and citation 
# guidelines are available at http://www.ccdc.cam.ac.uk/access/V1 
# 
# Audit and citation data items may have been added by the CCDC. 
# Please retain this information to preserve the provenance of 
# this file and to allow appropriate attribution of the data. 
# 
#######################################################################

data_4
_audit_block_doi                 10.5517/ccvrljp
_database_code_depnum_ccdc_archive 'CCDC 797243'
loop_
_citation_id
_citation_doi
_citation_year
1 10.1002/chem.201100226 2011
_audit_update_record             
;
2010-10-19 deposited with the CCDC.	2024-07-10 downloaded from the CCDC.
;
#TrackingRef 'ZnVI-DPP.cif'


_audit_creation_method           SHELXL-97
_chemical_name_systematic        
;
?
;
_chemical_name_common            ?
_chemical_melting_point          ?
_chemical_formula_moiety         ?
_chemical_formula_sum            'C56 H50 N6 O10 S4 Zn2'
_chemical_formula_weight         1226.00

loop_
_atom_type_symbol
_atom_type_description
_atom_type_scat_dispersion_real
_atom_type_scat_dispersion_imag
_atom_type_scat_source
C C 0.0181 0.0091 'International Tables Vol C Tables 4.2.6.8 and 6.1.1.4'
H H 0.0000 0.0000 'International Tables Vol C Tables 4.2.6.8 and 6.1.1.4'
N N 0.0311 0.0180 'International Tables Vol C Tables 4.2.6.8 and 6.1.1.4'
O O 0.0492 0.0322 'International Tables Vol C Tables 4.2.6.8 and 6.1.1.4'
S S 0.3331 0.5567 'International Tables Vol C Tables 4.2.6.8 and 6.1.1.4'
Zn Zn -1.5491 0.6778 'International Tables Vol C Tables 4.2.6.8 and 6.1.1.4'

_symmetry_cell_setting           monoclinic
_symmetry_space_group_name_H-M   P2(1)/c

loop_
_symmetry_equiv_pos_as_xyz
'x, y, z'
'-x, y+1/2, -z+1/2'
'-x, -y, -z'
'x, -y-1/2, z-1/2'

_cell_length_a                   16.7715(4)
_cell_length_b                   28.0628(5)
_cell_length_c                   11.8719(2)
_cell_angle_alpha                90.00
_cell_angle_beta                 90.036(2)
_cell_angle_gamma                90.00
_cell_volume                     5587.57(19)
_cell_formula_units_Z            4
_cell_measurement_temperature    293(2)
_cell_measurement_reflns_used    ?
_cell_measurement_theta_min      ?
_cell_measurement_theta_max      ?

_exptl_crystal_description       prism
_exptl_crystal_colour            colorless
_exptl_crystal_size_max          0.30
_exptl_crystal_size_mid          0.15
_exptl_crystal_size_min          0.15
_exptl_crystal_density_meas      ?
_exptl_crystal_density_diffrn    1.457
_exptl_crystal_density_method    'not measured'
_exptl_crystal_F_000             2528
_exptl_absorpt_coefficient_mu    2.978
_exptl_absorpt_correction_type   multi-scan
_exptl_absorpt_correction_T_min  0.4686
_exptl_absorpt_correction_T_max  0.6636
_exptl_absorpt_process_details   
;
CrysAlisPro, Oxford Diffraction Ltd.,
Version 1.171.33.46 (release 27-08-2009 CrysAlis171 .NET)
(compiled Aug 27 2009,17:19:36)
Empirical absorption correction using spherical harmonics,
implemented in SCALE3 ABSPACK scaling algorithm.
;
_exptl_special_details           
;
?
;

_diffrn_ambient_temperature      293(2)
_diffrn_radiation_wavelength     1.54184
_diffrn_radiation_type           CuK\a
_diffrn_radiation_source         'Ultra (Cu) X-ray Source'
_diffrn_radiation_monochromator  mirror
_diffrn_measurement_device_type  'Gemini S Ultra, Oxford Diffraction'
_diffrn_measurement_method       '\w scans'
_diffrn_detector_area_resol_mean ?
_diffrn_standards_number         ?
_diffrn_standards_interval_count ?
_diffrn_standards_interval_time  ?
_diffrn_standards_decay_%        ?
_diffrn_reflns_number            38931
_diffrn_reflns_av_R_equivalents  0.0433
_diffrn_reflns_av_sigmaI/netI    0.0414
_diffrn_reflns_limit_h_min       -18
_diffrn_reflns_limit_h_max       19
_diffrn_reflns_limit_k_min       -31
_diffrn_reflns_limit_k_max       32
_diffrn_reflns_limit_l_min       -13
_diffrn_reflns_limit_l_max       9
_diffrn_reflns_theta_min         2.63
_diffrn_reflns_theta_max         62.93
_reflns_number_total             8922
_reflns_number_gt                6746
_reflns_threshold_expression     >2sigma(I)

_computing_data_collection       'CrysAlisPro (Oxford Diffraction Ltd.)'
_computing_cell_refinement       'CrysAlisPro (Oxford Diffraction Ltd.)'
_computing_data_reduction        'CrysAlisPro (Oxford Diffraction Ltd.)'
_computing_structure_solution    ?
_computing_structure_refinement  'SHELXL-97 (Sheldrick, 1997)'
_computing_molecular_graphics    ?
_computing_publication_material  ?

_refine_special_details          
;
Refinement of F^2^ against ALL reflections. The weighted R-factor wR and
goodness of fit S are based on F^2^, conventional R-factors R are based
on F, with F set to zero for negative F^2^. The threshold expression of
F^2^ > 2sigma(F^2^) is used only for calculating R-factors(gt) etc. and is
not relevant to the choice of reflections for refinement. R-factors based
on F^2^ are statistically about twice as large as those based on F, and R-
factors based on ALL data will be even larger.
;

_refine_ls_structure_factor_coef Fsqd
_refine_ls_matrix_type           full
_refine_ls_weighting_scheme      calc
_refine_ls_weighting_details     
'calc w=1/[\s^2^(Fo^2^)+(0.0797P)^2^+65.1318P] where P=(Fo^2^+2Fc^2^)/3'
_atom_sites_solution_primary     direct
_atom_sites_solution_secondary   difmap
_atom_sites_solution_hydrogens   geom
_refine_ls_hydrogen_treatment    mixed
_refine_ls_extinction_method     none
_refine_ls_extinction_coef       ?
_refine_ls_number_reflns         8922
_refine_ls_number_parameters     723
_refine_ls_number_restraints     0
_refine_ls_R_factor_all          0.1204
_refine_ls_R_factor_gt           0.1030
_refine_ls_wR_factor_ref         0.2856
_refine_ls_wR_factor_gt          0.2788
_refine_ls_goodness_of_fit_ref   1.129
_refine_ls_restrained_S_all      1.129
_refine_ls_shift/su_max          0.000
_refine_ls_shift/su_mean         0.000

loop_
_atom_site_label
_atom_site_type_symbol
_atom_site_fract_x
_atom_site_fract_y
_atom_site_fract_z
_atom_site_U_iso_or_equiv
_atom_site_adp_type
_atom_site_occupancy
_atom_site_symmetry_multiplicity
_atom_site_calc_flag
_atom_site_refinement_flags
_atom_site_disorder_assembly
_atom_site_disorder_group
Zn1 Zn 0.60462(8) 0.10441(4) 0.01978(11) 0.0424(4) Uani 1 1 d . . .
Zn2 Zn 0.89073(8) 0.60481(4) 0.06040(11) 0.0434(4) Uani 1 1 d . . .
S1 S 0.79000(17) -0.03546(9) 0.1692(2) 0.0498(6) Uani 1 1 d . . .
S2 S 0.84460(18) -0.23120(9) 0.1593(2) 0.0553(7) Uani 1 1 d . . .
S3 S 0.79054(19) 0.45791(10) -0.0643(3) 0.0619(8) Uani 1 1 d . . .
S4 S 0.7315(2) 0.26470(12) -0.1203(4) 0.0835(10) Uani 1 1 d . . .
O1 O 0.6611(5) 0.0466(3) -0.0258(7) 0.0584(19) Uani 1 1 d . . .
N1 N 0.5484(5) 0.0867(3) 0.1686(7) 0.0459(19) Uani 1 1 d . . .
O2 O 0.7356(5) 0.0626(3) 0.1256(7) 0.060(2) Uani 1 1 d . . .
C14 C 0.7578(6) 0.4815(4) 0.0615(9) 0.048(2) Uani 1 1 d . . .
C8 C 0.7757(6) -0.1795(3) 0.0037(8) 0.044(2) Uani 1 1 d . . .
O5 O 0.8280(5) 0.5500(2) 0.0179(6) 0.0566(19) Uani 1 1 d . . .
C16 C 0.7156(7) 0.4030(3) 0.0775(9) 0.054(3) Uani 1 1 d . . .
O6 O 0.7586(5) 0.5495(3) 0.1788(8) 0.073(2) Uani 1 1 d . . .
O3 O 0.8132(6) 0.6714(3) -0.0741(7) 0.080(3) Uani 1 1 d . . .
C6 C 0.8194(7) -0.1329(4) 0.1697(9) 0.047(2) Uani 1 1 d . . .
N4 N 0.9789(6) 0.5999(3) -0.0588(7) 0.052(2) Uani 1 1 d . . .
O7 O 0.6284(5) 0.1700(3) 0.0629(8) 0.077(2) Uani 1 1 d . . .
O4 O 0.8612(5) 0.6691(3) 0.0983(7) 0.067(2) Uani 1 1 d . . .
N3 N 0.9501(5) 0.5876(3) 0.2079(7) 0.048(2) Uani 1 1 d . . .
C3 C 0.7228(6) -0.0483(4) -0.0227(9) 0.037(2) Uani 1 1 d . . .
C22 C 0.6557(7) 0.2693(3) 0.0955(11) 0.058(3) Uani 1 1 d . . .
H22 H 0.6281 0.2607 0.1603 0.070 Uiso 1 1 calc R . .
C17 C 0.7539(6) 0.4027(4) -0.0276(9) 0.046(2) Uani 1 1 d . . .
C20 C 0.6921(7) 0.3185(4) 0.0528(10) 0.061(3) Uani 1 1 d . . .
N2 N 0.5136(5) 0.1005(3) -0.0961(7) 0.050(2) Uani 1 1 d . . .
C5 C 0.7893(6) -0.0934(3) 0.1159(8) 0.040(2) Uani 1 1 d . . .
C15 C 0.7149(7) 0.4524(5) 0.1318(11) 0.054(3) Uani 1 1 d . . .
C4 C 0.7522(6) -0.0953(3) 0.0107(8) 0.044(2) Uani 1 1 d . . .
C47 C 1.0949(7) 0.5924(5) -0.2265(9) 0.061(3) Uani 1 1 d . . .
C9 C 0.8111(6) -0.1763(3) 0.1137(8) 0.045(2) Uani 1 1 d . . .
C11 C 0.8128(6) -0.2578(3) 0.0346(9) 0.048(2) Uani 1 1 d . . .
C23 C 0.6827(7) 0.2409(4) -0.0092(10) 0.060(3) Uani 1 1 d . . .
C2 C 0.7388(6) -0.0150(3) 0.0516(9) 0.044(2) Uani 1 1 d . . .
C1 C 0.7106(6) 0.0359(4) 0.0524(9) 0.050(3) Uani 1 1 d . . .
C10 C 0.7783(6) -0.2280(4) -0.0392(9) 0.050(2) Uani 1 1 d . . .
C30 C 0.4759(6) 0.0671(4) 0.3751(9) 0.054(3) Uani 1 1 d . . .
C40 C 0.9105(7) 0.5860(5) 0.3031(9) 0.067(3) Uani 1 1 d . . .
H40 H 0.8559 0.5917 0.3011 0.080 Uiso 1 1 calc R . .
C33 C 0.3398(7) 0.0908(6) -0.3622(9) 0.071(4) Uani 1 1 d . . .
H33A H 0.2983 0.1145 -0.3520 0.085 Uiso 1 1 calc R . .
H33B H 0.3150 0.0595 -0.3630 0.085 Uiso 1 1 calc R . .
C43 C 1.0261(6) 0.5686(4) 0.4114(9) 0.057(3) Uani 1 1 d . . .
C32 C 0.3832(7) 0.0995(5) -0.4748(8) 0.062(3) Uani 1 1 d . . .
H32A H 0.3440 0.1050 -0.5334 0.075 Uiso 1 1 calc R . .
H32B H 0.4157 0.1280 -0.4683 0.075 Uiso 1 1 calc R . .
C38 C 0.4928(7) 0.0585(4) -0.1406(9) 0.059(3) Uani 1 1 d . . .
H38 H 0.5176 0.0309 -0.1152 0.071 Uiso 1 1 calc R . .
C13 C 0.7817(6) 0.5314(4) 0.0909(10) 0.052(3) Uani 1 1 d . . .
C19 C 0.6827(7) 0.3598(4) 0.1202(10) 0.061(3) Uani 1 1 d . . .
H19 H 0.6564 0.3587 0.1891 0.073 Uiso 1 1 calc R . .
C7 C 0.7444(6) -0.1385(3) -0.0473(9) 0.046(2) Uani 1 1 d . . .
C21 C 0.7275(7) 0.3207(4) -0.0514(11) 0.060(3) Uani 1 1 d . . .
C28 C 0.4346(7) 0.0647(5) 0.2758(10) 0.075(4) Uani 1 1 d . . .
H28 H 0.3809 0.0563 0.2760 0.090 Uiso 1 1 calc R . .
C49 C 1.0508(8) 0.5553(5) -0.1939(10) 0.069(3) Uani 1 1 d . . .
H49 H 1.0592 0.5259 -0.2279 0.083 Uiso 1 1 calc R . .
C34 C 0.3991(6) 0.0937(5) -0.2657(9) 0.057(3) Uani 1 1 d . . .
C44 C 1.0666(7) 0.5575(5) 0.5222(9) 0.066(3) Uani 1 1 d . . .
H44A H 1.1007 0.5298 0.5131 0.080 Uiso 1 1 calc R . .
H44B H 1.0266 0.5499 0.5784 0.080 Uiso 1 1 calc R . .
C45 C 1.1163(7) 0.5994(5) 0.5623(9) 0.063(3) Uani 1 1 d . . .
H45A H 1.0826 0.6274 0.5680 0.075 Uiso 1 1 calc R . .
H45B H 1.1576 0.6061 0.5074 0.075 Uiso 1 1 calc R . .
C18 C 0.7597(7) 0.3620(4) -0.0935(11) 0.058(3) Uani 1 1 d . . .
H18 H 0.7845 0.3626 -0.1635 0.069 Uiso 1 1 calc R . .
C51 C 0.9929(8) 0.5590(4) -0.1113(9) 0.064(3) Uani 1 1 d . . .
H51 H 0.9632 0.5322 -0.0922 0.077 Uiso 1 1 calc R . .
C36 C 0.4350(7) 0.0552(5) -0.2239(10) 0.063(3) Uani 1 1 d . . .
H36 H 0.4209 0.0253 -0.2514 0.075 Uiso 1 1 calc R . .
C46 C 1.1554(7) 0.5896(6) 0.6783(9) 0.075(4) Uani 1 1 d . . .
H46A H 1.1793 0.5581 0.6776 0.090 Uiso 1 1 calc R . .
H46B H 1.1974 0.6127 0.6914 0.090 Uiso 1 1 calc R . .
C35 C 0.4183(9) 0.1360(6) -0.2154(12) 0.091(5) Uani 1 1 d . . .
H35 H 0.3925 0.1637 -0.2385 0.109 Uiso 1 1 calc R . .
C29 C 0.5535(7) 0.0795(5) 0.3691(9) 0.066(3) Uani 1 1 d . . .
H29 H 0.5840 0.0813 0.4345 0.079 Uiso 1 1 calc R . .
C27 C 0.5877(7) 0.0894(5) 0.2661(9) 0.065(3) Uani 1 1 d . . .
H27 H 0.6410 0.0985 0.2645 0.078 Uiso 1 1 calc R . .
C48 C 1.0809(10) 0.6339(6) -0.1729(12) 0.096(5) Uani 1 1 d . . .
H48 H 1.1097 0.6609 -0.1927 0.115 Uiso 1 1 calc R . .
C50 C 1.0235(9) 0.6366(5) -0.0875(13) 0.089(5) Uani 1 1 d . . .
H50 H 1.0166 0.6654 -0.0497 0.106 Uiso 1 1 calc R . .
C41 C 1.0668(7) 0.5696(4) 0.3102(9) 0.057(3) Uani 1 1 d . . .
H41 H 1.1213 0.5636 0.3087 0.069 Uiso 1 1 calc R . .
C26 C 0.4716(7) 0.0746(5) 0.1774(10) 0.065(3) Uani 1 1 d . . .
H26 H 0.4417 0.0728 0.1115 0.078 Uiso 1 1 calc R . .
C31 C 0.4354(7) 0.0584(5) 0.4913(9) 0.064(3) Uani 1 1 d . . .
H31A H 0.4035 0.0296 0.4874 0.077 Uiso 1 1 calc R . .
H31B H 0.4762 0.0537 0.5481 0.077 Uiso 1 1 calc R . .
C12 C 0.8290(7) 0.6901(4) 0.0161(11) 0.059(3) Uani 1 1 d . . .
C42 C 0.9446(7) 0.5765(5) 0.4043(10) 0.071(4) Uani 1 1 d . . .
H42 H 0.9134 0.5752 0.4689 0.085 Uiso 1 1 calc R . .
C37 C 0.4736(9) 0.1386(4) -0.1330(11) 0.076(4) Uani 1 1 d . . .
H37 H 0.4844 0.1681 -0.1008 0.092 Uiso 1 1 calc R . .
C39 C 1.0272(6) 0.5793(4) 0.2132(8) 0.052(3) Uani 1 1 d . . .
H39 H 1.0563 0.5801 0.1466 0.063 Uiso 1 1 calc R . .
O8 O 0.6818(7) 0.1656(4) -0.1007(9) 0.097(3) Uani 1 1 d . . .
C24 C 0.6639(8) 0.1879(5) -0.0205(11) 0.062(3) Uani 1 1 d . . .
N6 N 0.0533(8) 0.7145(5) 0.3418(16) 0.109(5) Uani 1 1 d . . .
O10 O 0.0770(12) 0.6955(7) 0.1715(16) 0.182(8) Uani 1 1 d . . .
N5 N 0.4453(9) 0.2828(8) 0.806(2) 0.145(8) Uani 1 1 d . . .
C57 C 0.0322(14) 0.7031(9) 0.247(2) 0.141(9) Uani 1 1 d . . .
H57 H -0.0222 0.7002 0.2328 0.169 Uiso 1 1 calc R . .
C55 C 0.1339(10) 0.7193(8) 0.3745(17) 0.129(7) Uani 1 1 d . . .
H55A H 0.1365 0.7286 0.4522 0.194 Uiso 1 1 calc R . .
H55B H 0.1591 0.7431 0.3288 0.194 Uiso 1 1 calc R . .
H55C H 0.1607 0.6893 0.3647 0.194 Uiso 1 1 calc R . .
C56 C -0.0057(15) 0.7176(9) 0.437(3) 0.25(2) Uani 1 1 d . . .
H56A H 0.0213 0.7272 0.5048 0.373 Uiso 1 1 calc R . .
H56B H -0.0299 0.6869 0.4487 0.373 Uiso 1 1 calc R . .
H56C H -0.0462 0.7405 0.4190 0.373 Uiso 1 1 calc R . .
C52 C 0.5036(16) 0.2845(10) 0.875(3) 0.203(14) Uani 1 1 d . . .
H52A H 0.4840 0.2805 0.9504 0.304 Uiso 1 1 calc R . .
H52B H 0.5297 0.3149 0.8688 0.304 Uiso 1 1 calc R . .
H52C H 0.5409 0.2596 0.8580 0.304 Uiso 1 1 calc R . .
C53 C 0.3647(14) 0.2789(13) 0.830(3) 0.208(16) Uani 1 1 d . . .
H53A H 0.3348 0.2784 0.7612 0.312 Uiso 1 1 calc R . .
H53B H 0.3484 0.3056 0.8750 0.312 Uiso 1 1 calc R . .
H53C H 0.3553 0.2499 0.8709 0.312 Uiso 1 1 calc R . .
C54 C 0.456(4) 0.2881(19) 0.710(5) 0.45(6) Uani 1 1 d . . .
H54 H 0.5106 0.2899 0.6949 0.545 Uiso 1 1 calc R . .
O9 O 0.4178(17) 0.2919(15) 0.624(2) 0.34(2) Uani 1 1 d . . .
H15 H 0.696(5) 0.463(3) 0.176(6) 0.00(2) Uiso 1 1 d . . .
H3 H 0.707(4) -0.042(3) -0.072(6) 0.00(2) Uiso 1 1 d . . .
H10 H 0.763(4) -0.234(2) -0.136(5) 0.000(14) Uiso 1 1 d . . .
H7 H 0.712(6) -0.141(3) -0.137(8) 0.05(3) Uiso 1 1 d . . .
H6 H 0.849(6) -0.130(3) 0.232(8) 0.04(3) Uiso 1 1 d . . .

loop_
_atom_site_aniso_label
_atom_site_aniso_U_11
_atom_site_aniso_U_22
_atom_site_aniso_U_33
_atom_site_aniso_U_23
_atom_site_aniso_U_13
_atom_site_aniso_U_12
Zn1 0.0468(7) 0.0373(7) 0.0431(7) -0.0002(5) 0.0009(5) 0.0002(6)
Zn2 0.0495(8) 0.0353(7) 0.0453(7) -0.0034(6) -0.0032(6) 0.0006(6)
S1 0.0631(16) 0.0392(13) 0.0470(14) -0.0037(11) 0.0008(12) 0.0019(12)
S2 0.0763(19) 0.0402(14) 0.0496(15) 0.0024(11) -0.0063(13) 0.0070(13)
S3 0.0698(19) 0.0520(16) 0.0641(18) 0.0013(13) 0.0059(14) -0.0057(14)
S4 0.092(3) 0.0592(19) 0.099(3) -0.0044(18) -0.002(2) -0.0097(18)
O1 0.061(5) 0.046(4) 0.068(5) 0.001(4) -0.005(4) 0.012(4)
N1 0.042(5) 0.050(5) 0.045(5) -0.001(4) 0.001(4) -0.005(4)
O2 0.059(5) 0.045(4) 0.076(5) -0.014(4) 0.002(4) 0.001(4)
C14 0.044(6) 0.042(6) 0.058(6) 0.001(5) -0.004(5) -0.003(4)
C8 0.053(6) 0.038(5) 0.042(5) 0.003(4) 0.002(4) 0.001(4)
O5 0.065(5) 0.042(4) 0.063(5) 0.005(3) -0.008(4) -0.011(4)
C16 0.061(7) 0.038(5) 0.062(7) 0.006(5) -0.038(6) -0.003(5)
O6 0.058(5) 0.077(6) 0.085(6) -0.035(5) 0.001(4) 0.000(4)
O3 0.124(8) 0.049(5) 0.067(6) -0.016(4) -0.022(5) 0.009(5)
C6 0.058(7) 0.049(6) 0.035(5) -0.001(4) -0.007(5) 0.002(5)
N4 0.067(6) 0.047(5) 0.043(5) -0.001(4) -0.005(4) -0.001(4)
O7 0.081(6) 0.056(5) 0.094(7) -0.001(5) -0.002(5) -0.013(4)
O4 0.089(6) 0.036(4) 0.077(5) 0.000(4) -0.026(5) 0.013(4)
N3 0.043(5) 0.051(5) 0.049(5) 0.001(4) -0.004(4) 0.003(4)
C3 0.038(5) 0.046(6) 0.028(5) 0.008(5) -0.006(4) 0.002(4)
C22 0.074(7) 0.008(4) 0.093(8) 0.005(5) -0.045(6) -0.007(4)
C17 0.043(6) 0.046(6) 0.049(6) 0.007(5) -0.002(4) -0.005(4)
C20 0.072(8) 0.039(6) 0.071(8) 0.020(5) -0.030(6) -0.018(5)
N2 0.056(5) 0.051(5) 0.043(5) -0.003(4) -0.001(4) 0.005(4)
C5 0.054(6) 0.032(5) 0.036(5) 0.001(4) 0.013(4) 0.002(4)
C15 0.039(6) 0.078(9) 0.044(7) 0.023(7) -0.005(5) -0.019(6)
C4 0.039(5) 0.044(6) 0.048(6) -0.007(4) 0.010(4) -0.006(4)
C47 0.051(7) 0.095(10) 0.036(6) -0.004(6) -0.004(5) 0.006(6)
C9 0.049(6) 0.043(5) 0.043(5) -0.001(4) -0.003(4) 0.001(5)
C11 0.054(6) 0.038(5) 0.054(6) -0.004(5) 0.001(5) 0.000(5)
C23 0.066(7) 0.050(6) 0.063(7) 0.011(5) -0.023(6) -0.010(5)
C2 0.041(5) 0.035(5) 0.057(6) 0.010(5) 0.008(5) -0.003(4)
C1 0.045(6) 0.051(6) 0.054(6) 0.014(5) 0.014(5) -0.006(5)
C10 0.051(6) 0.040(6) 0.058(7) 0.009(5) 0.004(5) 0.001(5)
C30 0.049(6) 0.066(7) 0.046(6) 0.002(5) 0.003(5) -0.002(5)
C40 0.047(6) 0.108(10) 0.045(6) -0.011(6) 0.007(5) 0.018(6)
C33 0.049(7) 0.121(11) 0.042(6) 0.000(7) -0.007(5) 0.000(7)
C43 0.048(6) 0.074(8) 0.049(6) 0.007(5) 0.001(5) 0.006(5)
C32 0.053(7) 0.099(10) 0.035(5) 0.012(6) -0.011(5) -0.018(7)
C38 0.077(8) 0.055(7) 0.045(6) 0.002(5) -0.004(6) 0.005(6)
C13 0.033(5) 0.050(6) 0.071(8) -0.001(6) -0.010(5) 0.001(5)
C19 0.063(7) 0.064(7) 0.057(7) 0.015(6) -0.015(6) -0.015(6)
C7 0.045(6) 0.041(6) 0.054(6) -0.001(5) -0.001(5) 0.003(4)
C21 0.056(7) 0.043(6) 0.082(9) 0.012(6) -0.012(6) -0.006(5)
C28 0.050(7) 0.130(12) 0.046(7) -0.001(7) -0.001(5) -0.031(7)
C49 0.102(10) 0.057(7) 0.049(7) 0.001(6) 0.005(7) 0.012(7)
C34 0.045(6) 0.088(9) 0.039(6) -0.003(6) -0.001(5) 0.001(6)
C44 0.060(7) 0.098(10) 0.041(6) 0.007(6) 0.002(5) 0.013(7)
C45 0.060(7) 0.091(9) 0.037(6) -0.003(6) -0.002(5) 0.000(6)
C18 0.056(7) 0.041(6) 0.076(8) 0.009(5) -0.001(6) -0.001(5)
C51 0.087(9) 0.049(7) 0.055(7) 0.005(5) 0.023(6) 0.014(6)
C36 0.067(8) 0.066(8) 0.055(7) -0.004(6) -0.005(6) -0.017(6)
C46 0.049(7) 0.132(12) 0.044(6) 0.006(7) 0.006(5) 0.006(7)
C35 0.092(11) 0.097(11) 0.083(10) -0.003(8) -0.034(8) 0.039(