####################################################################### 
# 
# This file contains crystal structure data downloaded from the 
# Cambridge Structural Database (CSD) hosted by the Cambridge 
# Crystallographic Data Centre (CCDC).
# 
# Full information about CCDC data access policies and citation 
# guidelines are available at http://www.ccdc.cam.ac.uk/access/V1 
# 
# Audit and citation data items may have been added by the CCDC. 
# Please retain this information to preserve the provenance of 
# this file and to allow appropriate attribution of the data. 
# 
#######################################################################

data_(complex-2)
_audit_block_doi                 10.5517/cc6qjr5
_database_code_depnum_ccdc_archive 'CCDC 200407'
_audit_update_record             
;
2003-01-01 deposited with the CCDC.	2024-07-10 downloaded from the CCDC.
;

_audit_creation_method           SHELXL-97
_chemical_name_systematic        
;
[bis(1,2-bis(4-pyridyl)ethane)-(dicianoamide)-copper(II)](dicianoamide)
;
_chemical_name_common            ?
_chemical_melting_point          ?
_chemical_formula_moiety         '[(2(C12 H12 N2) Cu (C2 N3) 1+] (C2 N3 1-)'
_chemical_formula_sum            'C28 H24 Cu N10'
_chemical_formula_weight         564.11

loop_
_atom_type_symbol
_atom_type_description
_atom_type_scat_dispersion_real
_atom_type_scat_dispersion_imag
_atom_type_scat_source
C C 0.0033 0.0016 'International Tables Vol C Tables 4.2.6.8 and 6.1.1.4'
H H 0.0000 0.0000 'International Tables Vol C Tables 4.2.6.8 and 6.1.1.4'
N N 0.0061 0.0033 'International Tables Vol C Tables 4.2.6.8 and 6.1.1.4'
Cu Cu 0.3201 1.2651 'International Tables Vol C Tables 4.2.6.8 and 6.1.1.4'

_symmetry_cell_setting           monoclinic
_symmetry_space_group_name_H-M   C2/c

loop_
_symmetry_equiv_pos_as_xyz
'x, y, z'
'-x, y, -z+1/2'
'x+1/2, y+1/2, z'
'-x+1/2, y+1/2, -z+1/2'
'-x, -y, -z'
'x, -y, z-1/2'
'-x+1/2, -y+1/2, -z'
'x+1/2, -y+1/2, z-1/2'

_cell_length_a                   18.110(6)
_cell_length_b                   19.789(6)
_cell_length_c                   9.205(4)
_cell_angle_alpha                90.00
_cell_angle_beta                 102.48(2)
_cell_angle_gamma                90.00
_cell_volume                     3221(2)
_cell_formula_units_Z            4
_cell_measurement_temperature    293(2)
_cell_measurement_reflns_used    ?
_cell_measurement_theta_min      ?
_cell_measurement_theta_max      ?

_exptl_crystal_description       prism
_exptl_crystal_colour            green
_exptl_crystal_size_max          0.45
_exptl_crystal_size_mid          0.35
_exptl_crystal_size_min          0.30
_exptl_crystal_density_meas      ?
_exptl_crystal_density_diffrn    1.163
_exptl_crystal_density_method    'not measured'
_exptl_crystal_F_000             1164
_exptl_absorpt_coefficient_mu    0.709
_exptl_absorpt_correction_type   'no applied'
_exptl_absorpt_correction_T_min  ?
_exptl_absorpt_correction_T_max  ?
_exptl_absorpt_process_details   ?

_exptl_special_details           
;
?
;

_diffrn_ambient_temperature      293(2)
_diffrn_radiation_wavelength     0.71073
_diffrn_radiation_type           MoK\a
_diffrn_radiation_source         'fine-focus sealed tube'
_diffrn_radiation_monochromator  graphite
_diffrn_measurement_device_type  'image plate dip1030'
_diffrn_measurement_method       'laser scanner'
_diffrn_detector_area_resol_mean ?
_diffrn_standards_number         ?
_diffrn_standards_interval_count ?
_diffrn_standards_interval_time  ?
_diffrn_standards_decay_%        ?
_diffrn_reflns_number            4417
_diffrn_reflns_av_R_equivalents  0.0450
_diffrn_reflns_av_sigmaI/netI    0.0532
_diffrn_reflns_limit_h_min       -20
_diffrn_reflns_limit_h_max       20
_diffrn_reflns_limit_k_min       -22
_diffrn_reflns_limit_k_max       22
_diffrn_reflns_limit_l_min       -10
_diffrn_reflns_limit_l_max       10
_diffrn_reflns_theta_min         2.06
_diffrn_reflns_theta_max         23.53
_reflns_number_total             2271
_reflns_number_gt                1842
_reflns_threshold_expression     >2sigma(I)

_computing_data_collection       'Nonius Xpress'
_computing_cell_refinement       'MOSFLM (J. Appl. Cryst., 1993, 21, 67)'
_computing_data_reduction        'MOSFLM (J. Appl. Cryst., 1993, 21, 67)'
_computing_structure_solution    'SHELXS-97 (Sheldrick, 1990)'
_computing_structure_refinement  'SHELXL-97 (Sheldrick, 1997)'
_computing_molecular_graphics    'Ortep3/Windows (Farrugia,1997)'
_computing_publication_material  'WinGX 1.64 (Farrugia, 1999)'

_refine_special_details          
;
Refinement of F^2^ against ALL reflections.  The weighted R-factor wR and
goodness of fit S are based on F^2^, conventional R-factors R are based
on F, with F set to zero for negative F^2^. The threshold expression of
F^2^ > 2sigma(F^2^) is used only for calculating R-factors(gt) etc. and is
not relevant to the choice of reflections for refinement.  R-factors based
on F^2^ are statistically about twice as large as those based on F, and R-
factors based on ALL data will be even larger.
;

_refine_ls_structure_factor_coef Fsqd
_refine_ls_matrix_type           full
_refine_ls_weighting_scheme      calc
_refine_ls_weighting_details     
'calc w=1/[\s^2^(Fo^2^)+(0.0875P)^2^+3.4100P] where P=(Fo^2^+2Fc^2^)/3'
_atom_sites_solution_primary     direct
_atom_sites_solution_secondary   difmap
_atom_sites_solution_hydrogens   geom
_refine_ls_hydrogen_treatment    mixed
_refine_ls_extinction_method     SHELXL
_refine_ls_extinction_coef       0.0070(16)
_refine_ls_extinction_expression Fc^*^=kFc[1+0.001xFc^2^\l^3^/sin(2\q)]^-1/4^
_refine_ls_number_reflns         2271
_refine_ls_number_parameters     168
_refine_ls_number_restraints     0
_refine_ls_R_factor_all          0.0798
_refine_ls_R_factor_gt           0.0708
_refine_ls_wR_factor_ref         0.1992
_refine_ls_wR_factor_gt          0.1935
_refine_ls_goodness_of_fit_ref   1.515
_refine_ls_restrained_S_all      1.515
_refine_ls_shift/su_max          0.579
_refine_ls_shift/su_mean         0.036

loop_
_atom_site_label
_atom_site_type_symbol
_atom_site_fract_x
_atom_site_fract_y
_atom_site_fract_z
_atom_site_U_iso_or_equiv
_atom_site_adp_type
_atom_site_occupancy
_atom_site_symmetry_multiplicity
_atom_site_calc_flag
_atom_site_refinement_flags
_atom_site_disorder_assembly
_atom_site_disorder_group
Cu Cu 0.5000 0.32394(5) 0.7500 0.0633(5) Uani 1 2 d S . .
N1 N 0.5842(3) 0.3955(2) 0.7816(6) 0.0693(13) Uani 1 1 d . . .
N2 N 0.4214(3) 0.2490(2) 0.7273(6) 0.0644(12) Uani 1 1 d . . .
C1 C 0.6463(4) 0.3880(4) 0.7237(8) 0.0832(19) Uani 1 1 d . . .
H1 H 0.6510 0.3493 0.6692 0.100 Uiso 1 1 calc R . .
C2 C 0.7029(5) 0.4362(5) 0.7431(9) 0.104(3) Uani 1 1 d . . .
H2 H 0.7464 0.4279 0.7074 0.124 Uiso 1 1 calc R . .
C3 C 0.6960(5) 0.4962(4) 0.8145(9) 0.104(3) Uani 1 1 d . . .
C4 C 0.6327(5) 0.5039(4) 0.8738(9) 0.099(2) Uani 1 1 d . . .
H4 H 0.6256 0.5433 0.9242 0.118 Uiso 1 1 calc R . .
C5 C 0.5807(4) 0.4531(3) 0.8576(8) 0.087(2) Uani 1 1 d . . .
H5 H 0.5397 0.4587 0.9024 0.104 Uiso 1 1 calc R . .
C6 C 0.3725(4) 0.2348(3) 0.6022(8) 0.0749(17) Uani 1 1 d . . .
H6 H 0.3744 0.2605 0.5185 0.090 Uiso 1 1 calc R . .
C7 C 0.3190(4) 0.1845(3) 0.5879(8) 0.086(2) Uani 1 1 d . . .
H7 H 0.2855 0.1776 0.4972 0.104 Uiso 1 1 calc R . .
C8 C 0.3155(4) 0.1440(4) 0.7102(8) 0.0844(19) Uani 1 1 d . . .
C9 C 0.3684(5) 0.1571(4) 0.8405(9) 0.093(2) Uani 1 1 d . . .
H9 H 0.3695 0.1307 0.9246 0.111 Uiso 1 1 calc R . .
C10 C 0.4196(4) 0.2093(3) 0.8450(8) 0.0795(18) Uani 1 1 d . . .
H10 H 0.4544 0.2174 0.9336 0.095 Uiso 1 1 calc R . .
C11 C 0.2547(5) 0.0914(5) 0.6957(10) 0.117(3) Uani 1 1 d . . .
H11A H 0.2594 0.0605 0.6164 0.140 Uiso 1 1 calc R . .
H11B H 0.2058 0.1133 0.6673 0.140 Uiso 1 1 calc R . .
C12 C 0.7571(6) 0.5511(6) 0.8366(11) 0.142(4) Uani 1 1 d . . .
H12A H 0.7500 0.5815 0.9152 0.170 Uiso 1 1 calc R . .
H12B H 0.8064 0.5302 0.8675 0.170 Uiso 1 1 calc R . .
N4 N 0.5000 0.3795(5) 0.2500 0.150(4) Uani 1 2 d S . .
C13 C 0.4975(8) 0.3494(5) 0.3740(11) 0.150(4) Uani 1 1 d . . .
N3 N 0.4947(4) 0.3354(3) 0.4884(7) 0.0872(16) Uani 1 1 d . . .
N5 N 0.3211(16) 0.2255(9) 0.201(2) 0.226(13) Uani 0.50 1 d PG . .
N6 N 0.2235(15) 0.2169(13) -0.025(3) 0.320(18) Uani 0.50 1 d PG . .
N7 N 0.4330(15) 0.1561(14) 0.278(3) 0.320(18) Uani 0.50 1 d PG . .
C14 C 0.2710(14) 0.2189(8) 0.079(3) 0.226(13) Uani 0.50 1 d PG . .
C15 C 0.3778(14) 0.1858(9) 0.237(2) 0.226(13) Uani 0.50 1 d PG . .

loop_
_atom_site_aniso_label
_atom_site_aniso_U_11
_atom_site_aniso_U_22
_atom_site_aniso_U_33
_atom_site_aniso_U_23
_atom_site_aniso_U_13
_atom_site_aniso_U_12
Cu 0.0611(7) 0.0518(6) 0.0798(8) 0.000 0.0213(5) 0.000
N1 0.070(3) 0.062(3) 0.076(3) 0.001(2) 0.017(3) -0.002(2)
N2 0.062(3) 0.059(3) 0.075(3) 0.002(2) 0.022(3) -0.002(2)
C1 0.083(4) 0.079(4) 0.093(5) 0.005(3) 0.030(4) -0.012(3)
C2 0.089(5) 0.122(7) 0.102(6) 0.012(5) 0.026(5) -0.028(5)
C3 0.119(7) 0.086(5) 0.098(5) 0.011(4) 0.004(5) -0.044(5)
C4 0.111(6) 0.080(5) 0.100(5) -0.007(4) 0.013(5) -0.033(4)
C5 0.095(5) 0.071(4) 0.095(5) 0.001(3) 0.020(4) -0.004(4)
C6 0.075(4) 0.073(4) 0.079(4) 0.007(3) 0.019(4) -0.002(3)
C7 0.089(5) 0.081(5) 0.085(5) 0.004(3) 0.010(4) -0.020(4)
C8 0.089(5) 0.082(4) 0.083(4) -0.001(3) 0.019(4) -0.027(4)
C9 0.103(5) 0.091(5) 0.086(5) 0.009(4) 0.025(4) -0.033(4)
C10 0.084(4) 0.076(4) 0.076(4) 0.002(3) 0.012(4) -0.020(3)
C11 0.128(7) 0.107(6) 0.113(6) 0.014(5) 0.018(5) -0.058(5)
C12 0.142(8) 0.146(8) 0.122(7) 0.019(6) -0.004(6) -0.086(7)
N4 0.291(11) 0.092(5) 0.081(4) 0.000 0.070(6) 0.000
C13 0.291(11) 0.092(5) 0.081(4) 0.000 0.070(6) 0.000
N3 0.091(4) 0.093(4) 0.078(4) -0.003(3) 0.018(3) 0.007(3)
N5 0.30(4) 0.211(18) 0.23(2) -0.046(17) 0.19(3) -0.009(18)
N6 0.24(3) 0.35(4) 0.42(4) -0.20(3) 0.18(3) -0.01(2)
N7 0.24(3) 0.35(4) 0.42(4) -0.20(3) 0.18(3) -0.01(2)
C14 0.30(4) 0.211(18) 0.23(2) -0.046(17) 0.19(3) -0.009(18)
C15 0.30(4) 0.211(18) 0.23(2) -0.046(17) 0.19(3) -0.009(18)

_geom_special_details            
;
All esds (except the esd in the dihedral angle between two l.s. planes)
are estimated using the full covariance matrix.  The cell esds are taken
into account individually in the estimation of esds in distances, angles
and torsion angles; correlations between esds in cell parameters are only
used when they are defined by crystal symmetry.  An approximate (isotropic)
treatment of cell esds is used for estimating esds involving l.s. planes.
;

loop_
_geom_bond_atom_site_label_1
_geom_bond_atom_site_label_2
_geom_bond_distance
_geom_bond_site_symmetry_2
_geom_bond_publ_flag
Cu N2 2.035(5) . ?
Cu N2 2.035(5) 2_656 ?
Cu N1 2.055(5) . ?
Cu N1 2.055(5) 2_656 ?
Cu N3 2.399(7) . ?
Cu N3 2.399(7) 2_656 ?
N1 C5 1.347(8) . ?
N1 C1 1.352(8) . ?
N2 C6 1.322(8) . ?
N2 C10 1.345(8) . ?
C1 C2 1.384(10) . ?
C2 C3 1.376(12) . ?
C3 C4 1.380(13) . ?
C3 C12 1.534(10) . ?
C4 C5 1.364(10) . ?
C6 C7 1.374(9) . ?
C7 C8 1.395(10) . ?
C8 C9 1.388(10) . ?
C8 C11 1.501(9) . ?
C9 C10 1.384(9) . ?
C11 C12 1.514(13) 3_445 ?
C12 C11 1.514(13) 3 ?
N4 C13 1.297(11) 2_655 ?
N4 C13 1.297(11) . ?
C13 N3 1.101(10) . ?
N5 C15 1.2787 . ?
N5 C14 1.2880 . ?
N6 C14 1.1433 . ?
N6 C14 1.37(6) 7 ?
N6 N6 1.63(6) 7 ?
N7 C15 1.1512 . ?
C14 N6 1.37(3) 7 ?
C14 C14 1.93(5) 7 ?

loop_
_geom_angle_atom_site_label_1
_geom_angle_atom_site_label_2
_geom_angle_atom_site_label_3
_geom_angle
_geom_angle_site_symmetry_1
_geom_angle_site_symmetry_3
_geom_angle_publ_flag
N2 Cu N2 86.5(3) . 2_656 ?
N2 Cu N1 176.33(19) . . ?
N2 Cu N1 90.3(2) 2_656 . ?
N2 Cu N1 90.3(2) . 2_656 ?
N2 Cu N1 176.33(19) 2_656 2_656 ?
N1 Cu N1 92.9(3) . 2_656 ?
N2 Cu N3 95.2(2) . . ?
N2 Cu N3 92.7(2) 2_656 . ?
N1 Cu N3 86.8(2) . . ?
N1 Cu N3 85.7(2) 2_656 . ?
N2 Cu N3 92.7(2) . 2_656 ?
N2 Cu N3 95.2(2) 2_656 2_656 ?
N1 Cu N3 85.7(2) . 2_656 ?
N1 Cu N3 86.8(2) 2_656 2_656 ?
N3 Cu N3 169.2(3) . 2_656 ?
C5 N1 C1 115.8(6) . . ?
C5 N1 Cu 122.7(5) . . ?
C1 N1 Cu 121.6(4) . . ?
C6 N2 C10 116.7(5) . . ?
C6 N2 Cu 124.5(4) . . ?
C10 N2 Cu 118.7(4) . . ?
N1 C1 C2 122.0(7) . . ?
C3 C2 C1 120.9(8) . . ?
C2 C3 C4 117.1(7) . . ?
C2 C3 C12 122.5(9) . . ?
C4 C3 C12 120.4(9) . . ?
C5 C4 C3 119.2(8) . . ?
N1 C5 C4 124.8(7) . . ?
N2 C6 C7 124.3(6) . . ?
C6 C7 C8 119.5(7) . . ?
C9 C8 C7 116.5(6) . . ?
C9 C8 C11 124.2(7) . . ?
C7 C8 C11 119.2(7) . . ?
C8 C9 C10 119.8(7) . . ?
N2 C10 C9 123.0(6) . . ?
C8 C11 C12 113.8(7) . 3_445 ?
C11 C12 C3 111.9(7) 3 . ?
C13 N4 C13 125.4(12) 2_655 . ?
N3 C13 N4 167.3(11) . . ?
C13 N3 Cu 169.6(8) . . ?
C15 N5 C14 122.7 . . ?
C14 N6 C14 100(3) . 7 ?
C14 N6 N6 56.1(19) . 7 ?
C14 N6 N6 43.7(18) 7 7 ?
N6 C14 N5 174.9 . . ?
N6 C14 N6 80(3) . 7 ?
N5 C14 N6 97(3) . 7 ?
N6 C14 C14 45(3) . 7 ?
N5 C14 C14 133(3) . 7 ?
N6 C14 C14 35.7(12) 7 7 ?
N7 C15 N5 172.3 . . ?

loop_
_geom_torsion_atom_site_label_1
_geom_torsion_atom_site_label_2
_geom_torsion_atom_site_label_3
_geom_torsion_atom_site_label_4
_geom_torsion
_geom_torsion_site_symmetry_1
_geom_torsion_site_symmetry_2
_geom_torsion_site_symmetry_3
_geom_torsion_site_symmetry_4
_geom_torsion_publ_flag
N2 Cu N1 C5 -113(3) . . . . ?
N2 Cu N1 C5 -142.8(5) 2_656 . . . ?
N1 Cu N1 C5 38.9(4) 2_656 . . . ?
N3 Cu N1 C5 124.5(5) . . . . ?
N3 Cu N1 C5 -47.7(5) 2_656 . . . ?
N2 Cu N1 C1 69(3) . . . . ?
N2 Cu N1 C1 38.6(5) 2_656 . . . ?
N1 Cu N1 C1 -139.6(6) 2_656 . . . ?
N3 Cu N1 C1 -54.1(5) . . . . ?
N3 Cu N1 C1 133.8(5) 2_656 . . . ?
N2 Cu N2 C6 -110.7(5) 2_656 . . . ?
N1 Cu N2 C6 -141(3) . . . . ?
N1 Cu N2 C6 67.4(5) 2_656 . . . ?
N3 Cu N2 C6 -18.3(5) . . . . ?
N3 Cu N2 C6 154.2(5) 2_656 . . . ?
N2 Cu N2 C10 67.1(5) 2_656 . . . ?
N1 Cu N2 C10 37(3) . . . . ?
N1 Cu N2 C10 -114.8(5) 2_656 . . . ?
N3 Cu N2 C10 159.5(5) . . . . ?
N3 Cu N2 C10 -28.0(5) 2_656 . . . ?
C5 N1 C1 C2 0.8(10) . . . . ?
Cu N1 C1 C2 179.4(6) . . . . ?
N1 C1 C2 C3 -4.3(12) . . . . ?
C1 C2 C3 C4 4.1(13) . . . . ?
C1 C2 C3 C12 -179.3(7) . . . . ?
C2 C3 C4 C5 -0.8(12) . . . . ?
C12 C3 C4 C5 -177.4(8) . . . . ?
C1 N1 C5 C4 2.8(11) . . . . ?
Cu N1 C5 C4 -175.8(6) . . . . ?
C3 C4 C5 N1 -2.9(12) . . . . ?
C10 N2 C6 C7 2.8(10) . . . . ?
Cu N2 C6 C7 -179.4(5) . . . . ?
N2 C6 C7 C8 -1.3(11) . . . . ?
C6 C7 C8 C9 -1.1(11) . . . . ?
C6 C7 C8 C11 177.2(7) . . . . ?
C7 C8 C9 C10 1.8(12) . . . . ?
C11 C8 C9 C10 -176.3(8) . . . . ?
C6 N2 C10 C9 -1.9(10) . . . . ?
Cu N2 C10 C9 -179.9(6) . . . . ?
C8 C9 C10 N2 -0.4(12) . . . . ?
C9 C8 C11 C12 -1.8(15) . . . 3_445 ?
C7 C8 C11 C12 -179.9(10) . . . 3_445 ?
C2 C3 C12 C11 77.7(13) . . . 3 ?
C4 C3 C12 C11 -105.8(11) . . . 3 ?
C13 N4 C13 N3 -178(7) 2_655 . . . ?
N4 C13 N3 Cu -30(11) . . . . ?
N2 Cu N3 C13 164(5) . . . . ?
N2 Cu N3 C13 -109(5) 2_656 . . . ?
N1 Cu N3 C13 -19(5) . . . . ?
N1 Cu N3 C13 74(5) 2_656 . . . ?
N3 Cu N3 C13 27(5) 2_656 . . . ?
C14 N6 C14 N5 61(3) 7 . . . ?
N6 N6 C14 N5 61(4) 7 . . . ?
C14 N6 C14 N6 0.0(12) 7 . . 7 ?
N6 N6 C14 C14 0.0(12) 7 . . 7 ?
C15 N5 C14 N6 174.6(5) . . . . ?
C15 N5 C14 N6 -125(4) . . . 7 ?
C15 N5 C14 C14 -128(3) . . . 7 ?
C14 N5 C15 N7 152.04(12) . . . . ?
C1 N1 N2 C6 -72.4(7) . . . . ?

_diffrn_measured_fraction_theta_max 0.947
_diffrn_reflns_theta_full        23.53
_diffrn_measured_fraction_theta_full 0.947
_refine_diff_density_max         0.704
_refine_diff_density_min         -0.941
_refine_diff_density_rms         0.102

