####################################################################### 
# 
# This file contains crystal structure data downloaded from the 
# Cambridge Structural Database (CSD) hosted by the Cambridge 
# Crystallographic Data Centre (CCDC).
# 
# Full information about CCDC data access policies and citation 
# guidelines are available at http://www.ccdc.cam.ac.uk/access/V1 
# 
# Audit and citation data items may have been added by the CCDC. 
# Please retain this information to preserve the provenance of 
# this file and to allow appropriate attribution of the data. 
# 
#######################################################################

data_2
_audit_block_doi                 10.5517/ccv5gs7
_database_code_depnum_ccdc_archive 'CCDC 779829'
loop_
_citation_id
_citation_doi
_citation_year
1 10.1016/j.inoche.2011.03.047 2011
_audit_update_record             
;
2010-06-05 deposited with the CCDC.	2024-07-10 downloaded from the CCDC.
;
#TrackingRef '- Crystallographic file for 1 and 2.cif'


_audit_creation_method           SHELXL-97
_chemical_name_systematic        
;
?
;
_chemical_name_common            ?
_chemical_melting_point          ?
_chemical_formula_moiety         ?
_chemical_formula_sum            'C34 H18 Cd N6 O8'
_chemical_formula_weight         750.94

loop_
_atom_type_symbol
_atom_type_description
_atom_type_scat_dispersion_real
_atom_type_scat_dispersion_imag
_atom_type_scat_source
C C 0.0033 0.0016 'International Tables Vol C Tables 4.2.6.8 and 6.1.1.4'
H H 0.0000 0.0000 'International Tables Vol C Tables 4.2.6.8 and 6.1.1.4'
Cd Cd -0.8075 1.2024 'International Tables Vol C Tables 4.2.6.8 and 6.1.1.4'
N N 0.0061 0.0033 'International Tables Vol C Tables 4.2.6.8 and 6.1.1.4'
O O 0.0106 0.0060 'International Tables Vol C Tables 4.2.6.8 and 6.1.1.4'

_symmetry_cell_setting           trigonal
_symmetry_space_group_name_H-M   'P 32 2 1'
_symmetry_space_group_name_Hall  'P 32 2"'

loop_
_symmetry_equiv_pos_as_xyz
'x, y, z'
'-y, x-y, z+2/3'
'-x+y, -x, z+1/3'
'y, x, -z'
'-x, -x+y, -z+2/3'
'x-y, -y, -z+1/3'

_cell_length_a                   15.214(2)
_cell_length_b                   15.214(2)
_cell_length_c                   19.686(4)
_cell_angle_alpha                90.00
_cell_angle_beta                 90.00
_cell_angle_gamma                120.00
_cell_volume                     3946.2(11)
_cell_formula_units_Z            3
_cell_measurement_temperature    293(2)
_cell_measurement_reflns_used    27311
_cell_measurement_theta_min      3.1
_cell_measurement_theta_max      27.9

_exptl_crystal_description       block
_exptl_crystal_colour            Colorless
_exptl_crystal_size_max          0.2
_exptl_crystal_size_mid          0.2
_exptl_crystal_size_min          0.2
_exptl_crystal_density_meas      ?
_exptl_crystal_density_diffrn    0.948
_exptl_crystal_density_method    'not measured'
_exptl_crystal_F_000             1128
_exptl_absorpt_coefficient_mu    0.453
_exptl_absorpt_correction_type   none
_exptl_absorpt_correction_T_min  ?
_exptl_absorpt_correction_T_max  ?
_exptl_absorpt_process_details   ?

_exptl_special_details           
;
?
;

_diffrn_ambient_temperature      293(2)
_diffrn_radiation_wavelength     0.71073
_diffrn_radiation_type           MoK\a
_diffrn_radiation_source         'fine-focus sealed tube'
_diffrn_radiation_monochromator  graphite
_diffrn_measurement_device_type  SCX-MINI
_diffrn_measurement_method       '\w scans'
_diffrn_detector_area_resol_mean ?
_diffrn_standards_number         ?
_diffrn_standards_interval_count ?
_diffrn_standards_interval_time  ?
_diffrn_standards_decay_%        ?
_diffrn_reflns_number            40584
_diffrn_reflns_av_R_equivalents  0.1433
_diffrn_reflns_av_sigmaI/netI    0.1217
_diffrn_reflns_limit_h_min       -19
_diffrn_reflns_limit_h_max       19
_diffrn_reflns_limit_k_min       -19
_diffrn_reflns_limit_k_max       19
_diffrn_reflns_limit_l_min       -25
_diffrn_reflns_limit_l_max       25
_diffrn_reflns_theta_min         3.09
_diffrn_reflns_theta_max         27.48
_reflns_number_total             6037
_reflns_number_gt                3465
_reflns_threshold_expression     >2sigma(I)

_computing_data_collection       PROCESS-AUTO
_computing_cell_refinement       PROCESS-AUTO
_computing_data_reduction        CrystalStructure
_computing_structure_solution    DirectMethod
_computing_structure_refinement  SHELXL
_computing_publication_material  'CrystalStructure 3.7.0'

_refine_special_details          
;
Refinement of F^2^ against ALL reflections. The weighted R-factor wR and
goodness of fit S are based on F^2^, conventional R-factors R are based
on F, with F set to zero for negative F^2^. The threshold expression of
F^2^ > 2sigma(F^2^) is used only for calculating R-factors(gt) etc. and is
not relevant to the choice of reflections for refinement. R-factors based
on F^2^ are statistically about twice as large as those based on F, and R-
factors based on ALL data will be even larger.
;

_refine_ls_structure_factor_coef Fsqd
_refine_ls_matrix_type           full
_refine_ls_weighting_scheme      calc
_refine_ls_weighting_details     
'calc w=1/[\s^2^(Fo^2^)+(0.1796P)^2^+0.0000P] where P=(Fo^2^+2Fc^2^)/3'
_atom_sites_solution_primary     direct
_atom_sites_solution_secondary   difmap
_atom_sites_solution_hydrogens   geom
_refine_ls_hydrogen_treatment    constr
_refine_ls_extinction_method     none
_refine_ls_extinction_coef       ?
_refine_ls_abs_structure_details 'Flack H D (1983), Acta Cryst. A39, 876-881'
_refine_ls_abs_structure_Flack   0.15(11)
_refine_ls_number_reflns         6037
_refine_ls_number_parameters     174
_refine_ls_number_restraints     8
_refine_ls_R_factor_all          0.1838
_refine_ls_R_factor_gt           0.1238
_refine_ls_wR_factor_ref         0.3211
_refine_ls_wR_factor_gt          0.2816
_refine_ls_goodness_of_fit_ref   1.061
_refine_ls_restrained_S_all      1.066
_refine_ls_shift/su_max          1.242
_refine_ls_shift/su_mean         0.010

loop_
_atom_site_label
_atom_site_type_symbol
_atom_site_fract_x
_atom_site_fract_y
_atom_site_fract_z
_atom_site_U_iso_or_equiv
_atom_site_adp_type
_atom_site_occupancy
_atom_site_symmetry_multiplicity
_atom_site_calc_flag
_atom_site_refinement_flags
_atom_site_disorder_assembly
_atom_site_disorder_group
C1 C 0.1553(15) 0.4004(14) 0.0748(10) 0.201(12) Uiso 1 1 d G . .
H1 H 0.1183 0.4276 0.0941 2(3) Uiso 1 1 calc R . .
C2 C 0.2280(16) 0.4546(11) 0.0255(10) 0.163(9) Uiso 1 1 d GD . .
H2 H 0.2396 0.5180 0.0118 0.6(4) Uiso 1 1 calc R . .
C3 C 0.2834(13) 0.4139(13) -0.0032(8) 0.227(14) Uiso 1 1 d GD . .
C4 C 0.2661(12) 0.3192(13) 0.0173(8) 0.152(8) Uiso 1 1 d GD . .
C5 C 0.1934(12) 0.2650(10) 0.0666(8) 0.121(6) Uiso 1 1 d G . .
C6 C 0.1380(12) 0.3056(13) 0.0953(8) 0.185(11) Uiso 1 1 d G . .
H6 H 0.0894 0.2694 0.1283 0.03(2) Uiso 1 1 calc R . .
C7 C 0.360(3) 0.487(3) -0.045(2) 1.3(3) Uiso 1 1 d D . .
C8 C 0.1767(11) 0.1707(12) 0.0995(8) 0.087(4) Uani 1 1 d . . .
C9 C 0.3292(11) -0.0365(14) 0.2190(8) 0.101(5) Uani 1 1 d . . .
H9 H 0.2854 -0.0614 0.2560 0.20(10) Uiso 1 1 calc R . .
C10 C 0.4187(10) -0.0384(9) 0.2198(6) 0.071(3) Uani 1 1 d . . .
H10 H 0.4346 -0.0659 0.2568 0.08(4) Uiso 1 1 calc R . .
C11 C 0.1556(11) 0.0652(10) 0.3253(7) 0.081(4) Uani 1 1 d . . .
H11 H 0.0979 0.0011 0.3261 2(3) Uiso 1 1 calc R . .
C12 C 0.1894(11) 0.1179(10) 0.3852(5) 0.075(4) Uani 1 1 d . . .
H12 H 0.1601 0.0870 0.4263 0.03(2) Uiso 1 1 calc R . .
C13 C 0.2695(8) 0.2198(8) 0.3835(5) 0.055(3) Uani 1 1 d . . .
C14 C 0.3126(13) 0.2508(11) 0.3239(6) 0.088(4) Uani 1 1 d . . .
H14 H 0.3682 0.3160 0.3207 0.05(3) Uiso 1 1 calc R . .
C15 C 0.2806(11) 0.1930(10) 0.2658(6) 0.085(5) Uani 1 1 d . . .
H15 H 0.3154 0.2189 0.2252 0.002(14) Uiso 1 1 calc R . .
C16 C 0.3017(9) 0.2790(9) 0.4453(5) 0.064(3) Uani 1 1 d . . .
C17 C 0.4195(8) 0.4195(8) 0.5000 0.038(3) Uani 1 2 d S . .
C18 C 0.5166(8) 0.5166(8) 0.5000 0.055(4) Uani 1 2 d S . .
Cd1 Cd 0.14365(6) 0.0000 0.1667 0.0563(4) Uani 1 2 d S . .
N1 N 0.3055(10) 0.0000 0.1667 0.072(4) Uani 1 2 d S . .
N2 N 0.2009(8) 0.1011(9) 0.2675(4) 0.070(3) Uani 1 1 d . . .
N3 N 0.2433(7) 0.2433(7) 0.5000 0.051(3) Uiso 1 2 d S . .
N4 N 0.3906(8) 0.3644(7) 0.4426(4) 0.076(3) Uani 1 1 d . . .
O1 O 0.2455(8) 0.1535(8) 0.1018(5) 0.092(3) Uani 1 1 d . . .
O3 O 0.356(2) 0.448(2) -0.0967(14) 0.282(13) Uiso 1 1 d D . .
O4 O 0.433(4) 0.582(4) -0.054(3) 0.58(4) Uiso 1 1 d D . .
O7 O 0.0954(9) 0.1131(9) 0.1203(8) 0.125(4) Uani 1 1 d . . .

loop_
_atom_site_aniso_label
_atom_site_aniso_U_11
_atom_site_aniso_U_22
_atom_site_aniso_U_33
_atom_site_aniso_U_23
_atom_site_aniso_U_13
_atom_site_aniso_U_12
C8 0.043(8) 0.099(11) 0.089(10) 0.021(8) 0.005(7) 0.012(8)
C9 0.060(8) 0.141(15) 0.086(10) 0.023(10) 0.025(8) 0.038(9)
C10 0.069(8) 0.096(8) 0.048(6) -0.002(5) 0.013(6) 0.042(7)
C11 0.085(9) 0.070(8) 0.076(9) -0.025(7) -0.011(7) 0.029(7)
C12 0.116(11) 0.095(9) 0.024(5) -0.015(5) -0.016(6) 0.059(9)
C13 0.063(7) 0.065(7) 0.025(4) -0.022(4) -0.011(4) 0.023(6)
C14 0.123(12) 0.066(8) 0.059(7) -0.014(6) -0.003(8) 0.036(8)
C15 0.100(11) 0.085(9) 0.029(5) -0.023(6) -0.012(6) 0.016(8)
C16 0.076(8) 0.071(8) 0.046(6) 0.000(5) 0.012(5) 0.038(6)
C17 0.052(5) 0.052(5) 0.016(5) -0.001(3) 0.001(3) 0.030(7)
C18 0.038(5) 0.038(5) 0.053(8) 0.002(4) -0.002(4) -0.008(6)
Cd1 0.0566(5) 0.0779(9) 0.0416(5) -0.0156(6) -0.0078(3) 0.0390(5)
N1 0.081(7) 0.099(12) 0.043(7) 0.014(8) 0.007(4) 0.049(6)
N2 0.060(6) 0.112(8) 0.035(5) -0.026(5) -0.004(4) 0.040(6)
N4 0.071(6) 0.071(6) 0.033(4) -0.012(4) 0.011(4) -0.004(6)
O1 0.071(6) 0.114(8) 0.081(6) -0.015(6) -0.009(5) 0.039(6)
O7 0.087(8) 0.117(9) 0.174(12) -0.015(8) -0.050(8) 0.053(8)

_geom_special_details            
;
All esds (except the esd in the dihedral angle between two l.s. planes)
are estimated using the full covariance matrix. The cell esds are taken
into account individually in the estimation of esds in distances, angles
and torsion angles; correlations between esds in cell parameters are only
used when they are defined by crystal symmetry. An approximate (isotropic)
treatment of cell esds is used for estimating esds involving l.s. planes.
;

loop_
_geom_bond_atom_site_label_1
_geom_bond_atom_site_label_2
_geom_bond_distance
_geom_bond_site_symmetry_2
_geom_bond_publ_flag
C1 C2 1.3900 . ?
C1 C6 1.3900 . ?
C1 H1 0.9300 . ?
C2 C3 1.3900 . ?
C2 H2 0.9300 . ?
C3 C4 1.3900 . ?
C3 C7 1.40(3) . ?
C4 C5 1.3900 . ?
C4 C4 1.56(2) 4 ?
C5 C6 1.3900 . ?
C5 C8 1.48(2) . ?
C6 H6 0.9300 . ?
C7 O3 1.17(5) . ?
C7 O4 1.32(4) . ?
C8 O7 1.177(17) . ?
C8 O1 1.199(18) . ?
C9 N1 1.304(18) . ?
C9 C10 1.375(19) . ?
C9 H9 0.9300 . ?
C10 C18 1.353(12) 2_654 ?
C10 H10 0.9300 . ?
C11 N2 1.301(16) . ?
C11 C12 1.373(16) . ?
C11 H11 0.9300 . ?
C12 C13 1.414(17) . ?
C12 H12 0.9300 . ?
C13 C14 1.312(16) . ?
C13 C16 1.444(14) . ?
C14 C15 1.375(16) . ?
C14 H14 0.9300 . ?
C15 N2 1.316(16) . ?
C15 H15 0.9300 . ?
C16 N3 1.328(12) . ?
C16 N4 1.328(15) . ?
C17 N4 1.344(10) . ?
C17 N4 1.344(10) 4_556 ?
C17 C18 1.477(18) . ?
C18 C10 1.353(12) 3_665 ?
C18 C10 1.353(12) 5_665 ?
Cd1 O7 2.365(12) 6 ?
Cd1 O7 2.365(12) . ?
Cd1 N2 2.393(8) . ?
Cd1 N2 2.393(8) 6 ?
Cd1 O1 2.422(11) 6 ?
Cd1 O1 2.422(11) . ?
Cd1 N1 2.463(15) . ?
Cd1 C8 2.728(16) 6 ?
N1 C9 1.304(19) 6 ?
N3 C16 1.328(12) 4_556 ?

loop_
_geom_angle_atom_site_label_1
_geom_angle_atom_site_label_2
_geom_angle_atom_site_label_3
_geom_angle
_geom_angle_site_symmetry_1
_geom_angle_site_symmetry_3
_geom_angle_publ_flag
C2 C1 C6 120.0 . . ?
C2 C1 H1 120.0 . . ?
C6 C1 H1 120.0 . . ?
C1 C2 C3 120.0 . . ?
C1 C2 H2 120.0 . . ?
C3 C2 H2 120.0 . . ?
C2 C3 C4 120.0 . . ?
C2 C3 C7 109.3(18) . . ?
C4 C3 C7 130.2(17) . . ?
C5 C4 C3 120.0 . . ?
C5 C4 C4 117.6(15) . 4 ?
C3 C4 C4 122.2(16) . 4 ?
C4 C5 C6 120.0 . . ?
C4 C5 C8 125.5(13) . . ?
C6 C5 C8 114.0(12) . . ?
C5 C6 C1 120.0 . . ?
C5 C6 H6 120.0 . . ?
C1 C6 H6 120.0 . . ?
O3 C7 O4 104(3) . . ?
O3 C7 C3 107(4) . . ?
O4 C7 C3 149(5) . . ?
O7 C8 O1 122.1(16) . . ?
O7 C8 C5 118.9(16) . . ?
O1 C8 C5 119.0(13) . . ?
N1 C9 C10 120.3(14) . . ?
N1 C9 H9 119.8 . . ?
C10 C9 H9 119.8 . . ?
C18 C10 C9 119.7(13) 2_654 . ?
C18 C10 H10 120.1 2_654 . ?
C9 C10 H10 120.1 . . ?
N2 C11 C12 122.7(13) . . ?
N2 C11 H11 118.7 . . ?
C12 C11 H11 118.7 . . ?
C11 C12 C13 119.1(11) . . ?
C11 C12 H12 120.4 . . ?
C13 C12 H12 120.4 . . ?
C14 C13 C12 114.6(10) . . ?
C14 C13 C16 125.2(11) . . ?
C12 C13 C16 120.1(10) . . ?
C13 C14 C15 124.2(14) . . ?
C13 C14 H14 117.9 . . ?
C15 C14 H14 117.9 . . ?
N2 C15 C14 120.0(12) . . ?
N2 C15 H15 120.0 . . ?
C14 C15 H15 120.0 . . ?
N3 C16 N4 125.4(10) . . ?
N3 C16 C13 118.6(11) . . ?
N4 C16 C13 116.0(9) . . ?
N4 C17 N4 123.2(12) . 4_556 ?
N4 C17 C18 118.4(6) . . ?
N4 C17 C18 118.4(6) 4_556 . ?
C10 C18 C10 118.4(15) 3_665 5_665 ?
C10 C18 C17 120.8(7) 3_665 . ?
C10 C18 C17 120.8(7) 5_665 . ?
O7 Cd1 O7 95.2(7) 6 . ?
O7 Cd1 N2 93.4(4) 6 . ?
O7 Cd1 N2 89.9(4) . . ?
O7 Cd1 N2 89.9(4) 6 6 ?
O7 Cd1 N2 93.4(4) . 6 ?
N2 Cd1 N2 175.2(5) . 6 ?
O7 Cd1 O1 51.5(4) 6 6 ?
O7 Cd1 O1 146.7(5) . 6 ?
N2 Cd1 O1 91.2(3) . 6 ?
N2 Cd1 O1 88.0(3) 6 6 ?
O7 Cd1 O1 146.7(5) 6 . ?
O7 Cd1 O1 51.5(4) . . ?
N2 Cd1 O1 88.0(3) . . ?
N2 Cd1 O1 91.2(3) 6 . ?
O1 Cd1 O1 161.9(5) 6 . ?
O7 Cd1 N1 132.4(3) 6 . ?
O7 Cd1 N1 132.4(3) . . ?
N2 Cd1 N1 87.6(3) . . ?
N2 Cd1 N1 87.6(3) 6 . ?
O1 Cd1 N1 80.9(3) 6 . ?
O1 Cd1 N1 80.9(3) . . ?
O7 Cd1 C8 25.5(4) 6 6 ?
O7 Cd1 C8 120.7(5) . 6 ?
N2 Cd1 C8 94.0(4) . 6 ?
N2 Cd1 C8 87.4(4) 6 6 ?
O1 Cd1 C8 26.1(4) 6 6 ?
O1 Cd1 C8 171.9(5) . 6 ?
N1 Cd1 C8 106.9(3) . 6 ?
C9 N1 C9 121.4(18) . 6 ?
C9 N1 Cd1 119.3(9) . . ?
C9 N1 Cd1 119.3(9) 6 . ?
C11 N2 C15 118.9(10) . . ?
C11 N2 Cd1 120.6(8) . . ?
C15 N2 Cd1 120.5(7) . . ?
C16 N3 C16 114.7(13) 4_556 . ?
C16 N4 C17 115.6(9) . . ?
C8 O1 Cd1 91.4(9) . . ?
C8 O7 Cd1 94.8(10) . . ?

loop_
_geom_torsion_atom_site_label_1
_geom_torsion_atom_site_label_2
_geom_torsion_atom_site_label_3
_geom_torsion_atom_site_label_4
_geom_torsion
_geom_torsion_site_symmetry_1
_geom_torsion_site_symmetry_2
_geom_torsion_site_symmetry_3
_geom_torsion_site_symmetry_4
_geom_torsion_publ_flag
C6 C1 C2 C3 0.0 . . . . ?
C1 C2 C3 C4 0.0 . . . . ?
C1 C2 C3 C7 -173(2) . . . . ?
C2 C3 C4 C5 0.0 . . . . ?
C7 C3 C4 C5 171(3) . . . . ?
C2 C3 C4 C4 175(2) . . . 4 ?
C7 C3 C4 C4 -14(3) . . . 4 ?
C3 C4 C5 C6 0.0 . . . . ?
C4 C4 C5 C6 -175(2) 4 . . . ?
C3 C4 C5 C8 -171.4(16) . . . . ?
C4 C4 C5 C8 14(2) 4 . . . ?
C4 C5 C6 C1 0.0 . . . . ?
C8 C5 C6 C1 172.3(14) . . . . ?
C2 C1 C6 C5 0.0 . . . . ?
C2 C3 C7 O3 -131(2) . . . . ?
C4 C3 C7 O3 57(4) . . . . ?
C2 C3 C7 O4 45(5) . . . . ?
C4 C3 C7 O4 -127(4) . . . . ?
C4 C5 C8 O7 -152.7(15) . . . . ?
C6 C5 C8 O7 35(2) . . . . ?
C4 C5 C8 O1 24(2) . . . . ?
C6 C5 C8 O1 -147.3(14) . . . . ?
N1 C9 C10 C18 1(2) . . . 2_654 ?
N2 C11 C12 C13 7(2) . . . . ?
C11 C12 C13 C14 -7.8(19) . . . . ?
C11 C12 C13 C16 175.8(12) . . . . ?
C12 C13 C14 C15 4(2) . . . . ?
C16 C13 C14 C15 179.9(14) . . . . ?
C13 C14 C15 N2 1(2) . . . . ?
C14 C13 C16 N3 171.2(11) . . . . ?
C12 C13 C16 N3 -12.8(16) . . . . ?
C14 C13 C16 N4 -10.8(19) . . . . ?
C12 C13 C16 N4 165.2(12) . . . . ?
N4 C17 C18 C10 171.2(9) . . . 3_665 ?
N4 C17 C18 C10 -8.8(9) 4_556 . . 3_665 ?
N4 C17 C18 C10 -8.8(9) . . . 5_665 ?
N4 C17 C18 C10 171.2(9) 4_556 . . 5_665 ?
C10 C9 N1 C9 -0.7(11) . . . 6 ?
C10 C9 N1 Cd1 179.3(11) . . . . ?
O7 Cd1 N1 C9 -33.5(10) 6 . . . ?
O7 Cd1 N1 C9 146.5(10) . . . . ?
N2 Cd1 N1 C9 58.9(10) . . . . ?
N2 Cd1 N1 C9 -121.1(10) 6 . . . ?
O1 Cd1 N1 C9 -32.7(10) 6 . . . ?
O1 Cd1 N1 C9 147.3(10) . . . . ?
C8 Cd1 N1 C9 -34.5(10) 6 . . . ?
O7 Cd1 N1 C9 146.5(10) 6 . . 6 ?
O7 Cd1 N1 C9 -33.5(10) . . . 6 ?
N2 Cd1 N1 C9 -121.1(10) . . . 6 ?
N2 Cd1 N1 C9 58.9(10) 6 . . 6 ?
O1 Cd1 N1 C9 147.3(10) 6 . . 6 ?
O1 Cd1 N1 C9 -32.7(10) . . . 6 ?
C8 Cd1 N1 C9 145.5(10) 6 . . 6 ?
C12 C11 N2 C15 -2(2) . . . . ?
C12 C11 N2 Cd1 175.9(10) . . . . ?
C14 C15 N2 C11 -2(2) . . . . ?
C14 C15 N2 Cd1 179.6(11) . . . . ?
O7 Cd1 N2 C11 19.0(12) 6 . . . ?
O7 Cd1 N2 C11 114.2(12) . . . . ?
N2 Cd1 N2 C11 -113.3(11) 6 . . . ?
O1 Cd1 N2 C11 -32.5(11) 6 . . . ?
O1 Cd1 N2 C11 165.7(11) . . . . ?
N1 Cd1 N2 C11 -113.3(11) . . . . ?
C8 Cd1 N2 C11 -6.5(12) 6 . . . ?
O7 Cd1 N2 C15 -163.1(11) 6 . . . ?
O7 Cd1 N2 C15 -67.9(11) . . . . ?
N2 Cd1 N2 C15 64.6(11) 6 . . . ?
O1 Cd1 N2 C15 145.5(11) 6 . . . ?
O1 Cd1 N2 C15 -16.4(11) . . . . ?
N1 Cd1 N2 C15 64.6(11) . . . . ?
C8 Cd1 N2 C15 171.4(11) 6 . . . ?
N4 C16 N3 C16 1.6(10) . . . 4_556 ?
C13 C16 N3 C16 179.3(12) . . . 4_556 ?
N3 C16 N4 C17 -2.9(18) . . . . ?
C13 C16 N4 C17 179.3(9) . . . . ?
N4 C17 N4 C16 1.3(8) 4_556 . . . ?
C18 C17 N4 C16 -178.7(8) . . . . ?
O7 C8 O1 Cd1 -5.9(18) . . . . ?
C5 C8 O1 Cd1 176.9(13) . . . . ?
O7 Cd1 O1 C8 5.0(13) 6 . . . ?
O7 Cd1 O1 C8 3.2(10) . . . . ?
N2 Cd1 O1 C8 -88.2(10) . . . . ?
N2 Cd1 O1 C8 96.6(9) 6 . . . ?
O1 Cd1 O1 C8 -176.1(9) 6 . . . ?
N1 Cd1 O1 C8 -176.1(9) . . . . ?
C8 Cd1 O1 C8 16(4) 6 . . . ?
O1 C8 O7 Cd1 6.1(18) . . . . ?
C5 C8 O7 Cd1 -176.8(13) . . . . ?
O7 Cd1 O7 C8 177.7(13) 6 . . . ?
N2 Cd1 O7 C8 84.3(11) . . . . ?
N2 Cd1 O7 C8 -92.1(12) 6 . . . ?
O1 Cd1 O7 C8 176.3(10) 6 . . . ?
O1 Cd1 O7 C8 -3.3(10) . . . . ?
N1 Cd1 O7 C8 -2.3(13) . . . . ?
C8 Cd1 O7 C8 178.8(7) 6 . . . ?

_diffrn_measured_fraction_theta_max 0.998
_diffrn_reflns_theta_full        27.48
_diffrn_measured_fraction_theta_full 0.998
_refine_diff_density_max         1.694
_refine_diff_density_min         -0.993
_refine_diff_density_rms         0.136

loop_
_platon_squeeze_void_nr
_platon_squeeze_void_average_x
_platon_squeeze_void_average_y
_platon_squeeze_void_average_z
_platon_squeeze_void_volume
_platon_squeeze_void_count_electrons
_platon_squeeze_void_content
1 -0.042 0.443 0.277 2050 550 ' '
_platon_squeeze_details          
;
;


