####################################################################### 
# 
# This file contains crystal structure data downloaded from the 
# Cambridge Structural Database (CSD) hosted by the Cambridge 
# Crystallographic Data Centre (CCDC).
# 
# Full information about CCDC data access policies and citation 
# guidelines are available at http://www.ccdc.cam.ac.uk/access/V1 
# 
# Audit and citation data items may have been added by the CCDC. 
# Please retain this information to preserve the provenance of 
# this file and to allow appropriate attribution of the data. 
# 
#######################################################################

data_1
_audit_block_doi                 10.5517/ccv5gr6
_database_code_depnum_ccdc_archive 'CCDC 779828'
loop_
_citation_id
_citation_doi
_citation_year
1 10.1016/j.inoche.2011.03.047 2011
_audit_update_record             
;
2010-06-05 deposited with the CCDC.	2024-07-10 downloaded from the CCDC.
;
#TrackingRef '- Crystallographic file for 1 and 2.cif'


_audit_creation_method           SHELXL-97
_chemical_name_systematic        
;
?
;
_chemical_name_common            ?
_chemical_melting_point          ?
_chemical_formula_moiety         ?
_chemical_formula_sum            'C32 H19 N8 Ni2 O10'
_chemical_formula_weight         792.97

loop_
_atom_type_symbol
_atom_type_description
_atom_type_scat_dispersion_real
_atom_type_scat_dispersion_imag
_atom_type_scat_source
C C 0.0033 0.0016 'International Tables Vol C Tables 4.2.6.8 and 6.1.1.4'
H H 0.0000 0.0000 'International Tables Vol C Tables 4.2.6.8 and 6.1.1.4'
N N 0.0061 0.0033 'International Tables Vol C Tables 4.2.6.8 and 6.1.1.4'
Ni Ni 0.3393 1.1124 'International Tables Vol C Tables 4.2.6.8 and 6.1.1.4'
O O 0.0106 0.0060 'International Tables Vol C Tables 4.2.6.8 and 6.1.1.4'

_symmetry_cell_setting           Cubic
_symmetry_space_group_name_H-M   F-43c

loop_
_symmetry_equiv_pos_as_xyz
'x, y, z'
'y, -x, -z+1/2'
'-x, -y, z'
'-y, x, -z+1/2'
'x, -y, -z'
'-y, -x, z+1/2'
'-x, y, -z'
'y, x, z+1/2'
'z, x, y'
'x, -z, -y+1/2'
'-z, -x, y'
'-x, z, -y+1/2'
'z, -x, -y'
'-x, -z, y+1/2'
'-z, x, -y'
'x, z, y+1/2'
'y, z, x'
'z+1/2, y, x'
'z+1/2, -y, -x'
'-z+1/2, -y, x'
'-z+1/2, y, -x'
'y, -z+1/2, -x+1/2'
'-y, -z+1/2, x+1/2'
'-y, z+1/2, -x+1/2'
'x, y+1/2, z+1/2'
'y, -x+1/2, -z+1'
'-x, -y+1/2, z+1/2'
'-y, x+1/2, -z+1'
'x, -y+1/2, -z+1/2'
'-y, -x+1/2, z+1'
'-x, y+1/2, -z+1/2'
'y, x+1/2, z+1'
'z, x+1/2, y+1/2'
'x, -z+1/2, -y+1'
'-z, -x+1/2, y+1/2'
'-x, z+1/2, -y+1'
'z, -x+1/2, -y+1/2'
'-x, -z+1/2, y+1'
'-z, x+1/2, -y+1/2'
'x, z+1/2, y+1'
'y, z+1/2, x+1/2'
'z+1/2, y+1/2, x+1/2'
'z+1/2, -y+1/2, -x+1/2'
'-z+1/2, -y+1/2, x+1/2'
'-z+1/2, y+1/2, -x+1/2'
'y, -z+1, -x+1'
'-y, -z+1, x+1'
'-y, z+1, -x+1'
'x+1/2, y, z+1/2'
'y+1/2, -x, -z+1'
'-x+1/2, -y, z+1/2'
'-y+1/2, x, -z+1'
'x+1/2, -y, -z+1/2'
'-y+1/2, -x, z+1'
'-x+1/2, y, -z+1/2'
'y+1/2, x, z+1'
'z+1/2, x, y+1/2'
'x+1/2, -z, -y+1'
'-z+1/2, -x, y+1/2'
'-x+1/2, z, -y+1'
'z+1/2, -x, -y+1/2'
'-x+1/2, -z, y+1'
'-z+1/2, x, -y+1/2'
'x+1/2, z, y+1'
'y+1/2, z, x+1/2'
'z+1, y, x+1/2'
'z+1, -y, -x+1/2'
'-z+1, -y, x+1/2'
'-z+1, y, -x+1/2'
'y+1/2, -z+1/2, -x+1'
'-y+1/2, -z+1/2, x+1'
'-y+1/2, z+1/2, -x+1'
'x+1/2, y+1/2, z'
'y+1/2, -x+1/2, -z+1/2'
'-x+1/2, -y+1/2, z'
'-y+1/2, x+1/2, -z+1/2'
'x+1/2, -y+1/2, -z'
'-y+1/2, -x+1/2, z+1/2'
'-x+1/2, y+1/2, -z'
'y+1/2, x+1/2, z+1/2'
'z+1/2, x+1/2, y'
'x+1/2, -z+1/2, -y+1/2'
'-z+1/2, -x+1/2, y'
'-x+1/2, z+1/2, -y+1/2'
'z+1/2, -x+1/2, -y'
'-x+1/2, -z+1/2, y+1/2'
'-z+1/2, x+1/2, -y'
'x+1/2, z+1/2, y+1/2'
'y+1/2, z+1/2, x'
'z+1, y+1/2, x'
'z+1, -y+1/2, -x'
'-z+1, -y+1/2, x'
'-z+1, y+1/2, -x'
'y+1/2, -z+1, -x+1/2'
'-y+1/2, -z+1, x+1/2'
'-y+1/2, z+1, -x+1/2'

_cell_length_a                   42.763(5)
_cell_length_b                   42.763(5)
_cell_length_c                   42.763(5)
_cell_angle_alpha                90.00
_cell_angle_beta                 90.00
_cell_angle_gamma                90.00
_cell_volume                     78200(16)
_cell_formula_units_Z            48
_cell_measurement_temperature    293(2)
_cell_measurement_reflns_used    18866
_cell_measurement_theta_min      1.6498
_cell_measurement_theta_max      26.0696

_exptl_crystal_description       Prism
_exptl_crystal_colour            green
_exptl_crystal_size_max          0.2
_exptl_crystal_size_mid          0.2
_exptl_crystal_size_min          0.2
_exptl_crystal_density_meas      ?
_exptl_crystal_density_diffrn    0.808
_exptl_crystal_density_method    'not measured'
_exptl_crystal_F_000             19344
_exptl_absorpt_coefficient_mu    0.614
_exptl_absorpt_correction_type   Multi-scan
_exptl_absorpt_correction_T_min  0.7839
_exptl_absorpt_correction_T_max  1.0000
_exptl_absorpt_process_details   ?

_exptl_special_details           
;
?
;

_diffrn_ambient_temperature      293(2)
_diffrn_radiation_wavelength     0.71073
_diffrn_radiation_type           MoK\a
_diffrn_radiation_source         'Rotating Anode'
_diffrn_radiation_monochromator  Confocal
_diffrn_measurement_device_type  'Saturn70 (4x4 bin mode)'
_diffrn_measurement_method       '\w scans'
_diffrn_detector_area_resol_mean 28.5714
_diffrn_standards_number         ?
_diffrn_standards_interval_count ?
_diffrn_standards_interval_time  ?
_diffrn_standards_decay_%        ?
_diffrn_reflns_number            117626
_diffrn_reflns_av_R_equivalents  0.1100
_diffrn_reflns_av_sigmaI/netI    0.0378
_diffrn_reflns_limit_h_min       -52
_diffrn_reflns_limit_h_max       52
_diffrn_reflns_limit_k_min       -35
_diffrn_reflns_limit_k_max       52
_diffrn_reflns_limit_l_min       -52
_diffrn_reflns_limit_l_max       52
_diffrn_reflns_theta_min         1.35
_diffrn_reflns_theta_max         26.14
_reflns_number_total             6520
_reflns_number_gt                5724
_reflns_threshold_expression     >2sigma(I)

_computing_data_collection       'Bruker XSCANS'
_computing_cell_refinement       'Bruker XSCANS'
_computing_data_reduction        'Bruker SHELXTL'
_computing_structure_solution    'SHELXS-97 (Sheldrick, 1990)'
_computing_structure_refinement  'SHELXL-97 (Sheldrick, 1997)'
_computing_molecular_graphics    'Bruker SHELXTL'
_computing_publication_material  'Bruker SHELXTL'

_refine_special_details          
;
Refinement of F^2^ against ALL reflections. The weighted R-factor wR and
goodness of fit S are based on F^2^, conventional R-factors R are based
on F, with F set to zero for negative F^2^. The threshold expression of
F^2^ > 2sigma(F^2^) is used only for calculating R-factors(gt) etc. and is
not relevant to the choice of reflections for refinement. R-factors based
on F^2^ are statistically about twice as large as those based on F, and R-
factors based on ALL data will be even larger.
;

_refine_ls_structure_factor_coef Fsqd
_refine_ls_matrix_type           full
_refine_ls_weighting_scheme      calc
_refine_ls_weighting_details     
'calc w=1/[\s^2^(Fo^2^)+(0.0442P)^2^+0.0000P] where P=(Fo^2^+2Fc^2^)/3'
_atom_sites_solution_primary     direct
_atom_sites_solution_secondary   difmap
_atom_sites_solution_hydrogens   geom
_refine_ls_hydrogen_treatment    constr
_refine_ls_extinction_method     none
_refine_ls_extinction_coef       ?
_refine_ls_abs_structure_details 'Flack H D (1983), Acta Cryst. A39, 876-881'
_refine_ls_abs_structure_Flack   0.430(12)
_refine_ls_number_reflns         6520
_refine_ls_number_parameters     237
_refine_ls_number_restraints     0
_refine_ls_R_factor_all          0.0490
_refine_ls_R_factor_gt           0.0395
_refine_ls_wR_factor_ref         0.0935
_refine_ls_wR_factor_gt          0.0883
_refine_ls_goodness_of_fit_ref   0.995
_refine_ls_restrained_S_all      0.995
_refine_ls_shift/su_max          0.003
_refine_ls_shift/su_mean         0.000

loop_
_atom_site_label
_atom_site_type_symbol
_atom_site_fract_x
_atom_site_fract_y
_atom_site_fract_z
_atom_site_U_iso_or_equiv
_atom_site_adp_type
_atom_site_occupancy
_atom_site_symmetry_multiplicity
_atom_site_calc_flag
_atom_site_refinement_flags
_atom_site_disorder_assembly
_atom_site_disorder_group
C1 C 0.24378(6) 0.80884(6) 1.01841(6) 0.0491(6) Uani 1 1 d . . .
C2 C 0.24632(6) 0.77793(6) 1.03406(6) 0.0465(6) Uani 1 1 d . . .
C3 C 0.2500 0.7500 1.01751(7) 0.0450(8) Uani 1 2 d S . .
C4 C 0.24594(7) 0.77733(7) 1.06693(6) 0.0590(7) Uani 1 1 d . . .
H4 H 0.2429 0.7958 1.0781 0.071 Uiso 1 1 calc R . .
C5 C 0.2500 0.7500 1.08248(9) 0.0676(12) Uani 1 2 d S . .
H5 H 0.2500 0.7500 1.1042 0.081 Uiso 1 2 calc SR . .
C6 C 0.22745(9) 0.82633(8) 0.93543(8) 0.0843(12) Uani 1 1 d . . .
H6 H 0.2298 0.8101 0.9498 0.101 Uiso 1 1 calc R . .
C7 C 0.20555(8) 0.82305(8) 0.91079(8) 0.0834(11) Uani 1 1 d . . .
H7 H 0.1932 0.8052 0.9097 0.100 Uiso 1 1 calc R . .
C8 C 0.20247(6) 0.84514(6) 0.88924(6) 0.0521(6) Uani 1 1 d . . .
C9 C 0.22148(8) 0.87130(7) 0.89219(8) 0.0781(11) Uani 1 1 d . . .
H9 H 0.2211 0.8868 0.8770 0.094 Uiso 1 1 calc R . .
C10 C 0.24066(9) 0.87419(8) 0.91745(8) 0.0857(12) Uani 1 1 d . . .
H10 H 0.2515 0.8928 0.9200 0.103 Uiso 1 1 calc R . .
C11 C 0.17921(6) 0.84372(6) 0.86394(6) 0.0493(6) Uani 1 1 d . . .
C12 C 0.30255(9) 0.88952(9) 1.03200(9) 0.0899(12) Uani 1 1 d . . .
H12 H 0.2862 0.9033 1.0279 0.108 Uiso 1 1 calc R . .
C13 C 0.32315(8) 0.89601(8) 1.05658(8) 0.0825(12) Uani 1 1 d . . .
H13 H 0.3197 0.9133 1.0693 0.099 Uiso 1 1 calc R . .
C14 C 0.34821(6) 0.87708(7) 1.06198(7) 0.0578(7) Uani 1 1 d . . .
C15 C 0.35092(8) 0.85101(7) 1.04307(7) 0.0820(11) Uani 1 1 d . . .
H15 H 0.3672 0.8369 1.0462 0.098 Uiso 1 1 calc R . .
C16 C 0.32985(9) 0.84598(8) 1.01998(9) 0.0994(14) Uani 1 1 d . . .
H16 H 0.3325 0.8285 1.0073 0.119 Uiso 1 1 calc R . .
C17 C 0.37014(6) 0.88391(6) 1.08777(6) 0.0531(7) Uani 1 1 d . . .
N1 N 0.24468(6) 0.85185(5) 0.93858(5) 0.0587(6) Uani 1 1 d . . .
N2 N 0.17962(5) 0.86568(5) 0.84215(5) 0.0565(6) Uani 1 1 d . . .
N3 N 0.30582(6) 0.86433(6) 1.01442(6) 0.0652(7) Uani 1 1 d . . .
N4 N 0.36358(5) 0.90792(6) 1.10617(6) 0.0606(6) Uani 1 1 d . . .
Ni1 Ni 0.274780(9) 0.857346(9) 0.976776(9) 0.05776(12) Uani 1 1 d . . .
O1 O 0.26299(4) 0.81512(4) 0.99703(4) 0.0557(5) Uani 1 1 d . . .
O2 O 0.22301(5) 0.82761(4) 1.02739(5) 0.0677(6) Uani 1 1 d . . .
O3 O 0.24040(6) 0.88165(5) 0.99964(7) 0.0904(8) Uani 1 1 d . . .
O4 O 0.29005(7) 0.90020(6) 0.95904(7) 0.1139(11) Uani 1 1 d . . .
O5 O 0.30827(5) 0.83330(5) 0.95119(5) 0.0717(6) Uani 1 1 d . . .

loop_
_atom_site_aniso_label
_atom_site_aniso_U_11
_atom_site_aniso_U_22
_atom_site_aniso_U_33
_atom_site_aniso_U_23
_atom_site_aniso_U_13
_atom_site_aniso_U_12
C1 0.0511(15) 0.0521(15) 0.0441(15) -0.0008(12) -0.0050(12) 0.0024(12)
C2 0.0534(14) 0.0411(13) 0.0449(13) -0.0048(11) -0.0104(11) 0.0108(11)
C3 0.0416(19) 0.063(2) 0.0310(18) 0.000 0.000 -0.0061(16)
C4 0.0672(18) 0.0689(18) 0.0409(14) -0.0024(14) 0.0046(13) 0.0090(15)
C5 0.088(3) 0.082(3) 0.0329(19) 0.000 0.000 0.020(2)
C6 0.103(3) 0.071(2) 0.080(2) 0.0372(17) -0.055(2) -0.043(2)
C7 0.090(2) 0.071(2) 0.089(2) 0.0309(18) -0.053(2) -0.0358(18)
C8 0.0489(15) 0.0531(15) 0.0542(16) 0.0126(13) -0.0155(12) -0.0120(12)
C9 0.089(2) 0.071(2) 0.074(2) 0.0349(16) -0.0458(18) -0.0422(18)
C10 0.103(3) 0.070(2) 0.084(2) 0.0321(18) -0.042(2) -0.047(2)
C11 0.0477(14) 0.0462(14) 0.0541(15) 0.0171(12) -0.0111(11) -0.0128(11)
C12 0.095(3) 0.086(2) 0.088(3) -0.032(2) -0.050(2) 0.035(2)
C13 0.079(2) 0.088(2) 0.080(2) -0.0451(19) -0.0471(18) 0.0424(19)
C14 0.0543(16) 0.0561(16) 0.0628(17) -0.0158(13) -0.0206(14) 0.0120(13)
C15 0.100(3) 0.070(2) 0.075(2) -0.0304(17) -0.0472(19) 0.0399(18)
C16 0.117(3) 0.074(2) 0.107(3) -0.044(2) -0.067(2) 0.046(2)
C17 0.0502(15) 0.0563(16) 0.0528(16) -0.0110(13) -0.0138(12) 0.0122(13)
N1 0.0639(15) 0.0507(14) 0.0616(14) 0.0113(11) -0.0205(11) -0.0107(12)
N2 0.0526(13) 0.0569(14) 0.0601(14) 0.0167(11) -0.0212(11) -0.0166(10)
N3 0.0692(15) 0.0561(14) 0.0703(16) -0.0124(12) -0.0294(13) 0.0087(12)
N4 0.0574(14) 0.0589(14) 0.0656(15) -0.0200(12) -0.0196(12) 0.0197(11)
Ni1 0.0626(2) 0.0506(2) 0.0600(2) 0.00317(17) -0.02485(18) -0.00407(17)
O1 0.0719(13) 0.0485(11) 0.0467(10) 0.0016(8) -0.0057(9) 0.0089(9)
O2 0.0683(13) 0.0460(10) 0.0889(15) -0.0047(10) 0.0000(12) 0.0156(10)
O3 0.0890(18) 0.0683(14) 0.114(2) 0.0027(14) -0.0197(16) 0.0129(12)
O4 0.138(2) 0.0817(17) 0.122(2) 0.0349(16) -0.0713(19) -0.0534(16)
O5 0.0690(14) 0.0783(14) 0.0678(13) 0.0004(11) -0.0036(11) -0.0050(11)

_geom_special_details            
;
All esds (except the esd in the dihedral angle between two l.s. planes)
are estimated using the full covariance matrix. The cell esds are taken
into account individually in the estimation of esds in distances, angles
and torsion angles; correlations between esds in cell parameters are only
used when they are defined by crystal symmetry. An approximate (isotropic)
treatment of cell esds is used for estimating esds involving l.s. planes.
;

loop_
_geom_bond_atom_site_label_1
_geom_bond_atom_site_label_2
_geom_bond_distance
_geom_bond_site_symmetry_2
_geom_bond_publ_flag
C1 O2 1.257(3) . ?
C1 O1 1.258(3) . ?
C1 C2 1.486(3) . ?
C2 C3 1.397(3) . ?
C2 C4 1.406(3) . ?
C3 C2 1.397(3) 75_565 ?
C3 C3 1.498(6) 50_466 ?
C4 C5 1.356(3) . ?
C4 H4 0.9300 . ?
C5 C4 1.356(3) 75_565 ?
C5 H5 0.9300 . ?
C6 N1 1.324(4) . ?
C6 C7 1.417(4) . ?
C6 H6 0.9300 . ?
C7 C8 1.326(4) . ?
C7 H7 0.9300 . ?
C8 C9 1.389(4) . ?
C8 C11 1.471(3) . ?
C9 C10 1.362(4) . ?
C9 H9 0.9300 . ?
C10 N1 1.326(4) . ?
C10 H10 0.9300 . ?
C11 N2 1.323(3) . ?
C11 N2 1.355(3) 11_665 ?
C12 N3 1.321(4) . ?
C12 C13 1.399(4) . ?
C12 H12 0.9300 . ?
C13 C14 1.363(4) . ?
C13 H13 0.9300 . ?
C14 C15 1.382(4) . ?
C14 C17 1.477(4) . ?
C15 C16 1.354(4) . ?
C15 H15 0.9300 . ?
C16 N3 1.315(4) . ?
C16 H16 0.9300 . ?
C17 N4 1.323(3) . ?
C17 N4 1.348(3) 87_657 ?
N1 Ni1 2.093(2) . ?
N2 C11 1.355(3) 48_645 ?
N3 Ni1 2.108(2) . ?
N4 C17 1.348(3) 94_466 ?
Ni1 O3 2.048(3) . ?
Ni1 O1 2.0651(19) . ?
Ni1 O5 2.075(2) . ?
Ni1 O4 2.088(2) . ?

loop_
_geom_angle_atom_site_label_1
_geom_angle_atom_site_label_2
_geom_angle_atom_site_label_3
_geom_angle
_geom_angle_site_symmetry_1
_geom_angle_site_symmetry_3
_geom_angle_publ_flag
O2 C1 O1 123.2(2) . . ?
O2 C1 C2 118.8(2) . . ?
O1 C1 C2 118.0(2) . . ?
C3 C2 C4 119.5(2) . . ?
C3 C2 C1 122.7(2) . . ?
C4 C2 C1 117.8(2) . . ?
C2 C3 C2 119.1(3) 75_565 . ?
C2 C3 C3 120.44(15) 75_565 50_466 ?
C2 C3 C3 120.44(15) . 50_466 ?
C5 C4 C2 120.3(3) . . ?
C5 C4 H4 119.8 . . ?
C2 C4 H4 119.8 . . ?
C4 C5 C4 121.2(4) 75_565 . ?
C4 C5 H5 119.4 75_565 . ?
C4 C5 H5 119.4 . . ?
N1 C6 C7 121.7(3) . . ?
N1 C6 H6 119.2 . . ?
C7 C6 H6 119.2 . . ?
C8 C7 C6 120.8(3) . . ?
C8 C7 H7 119.6 . . ?
C6 C7 H7 119.6 . . ?
C7 C8 C9 116.9(2) . . ?
C7 C8 C11 123.3(2) . . ?
C9 C8 C11 119.7(2) . . ?
C10 C9 C8 119.8(3) . . ?
C10 C9 H9 120.1 . . ?
C8 C9 H9 120.1 . . ?
N1 C10 C9 123.6(3) . . ?
N1 C10 H10 118.2 . . ?
C9 C10 H10 118.2 . . ?
N2 C11 N2 124.8(2) . 11_665 ?
N2 C11 C8 118.7(2) . . ?
N2 C11 C8 116.5(2) 11_665 . ?
N3 C12 C13 121.5(3) . . ?
N3 C12 H12 119.2 . . ?
C13 C12 H12 119.2 . . ?
C14 C13 C12 120.3(3) . . ?
C14 C13 H13 119.8 . . ?
C12 C13 H13 119.8 . . ?
C13 C14 C15 116.5(2) . . ?
C13 C14 C17 120.6(2) . . ?
C15 C14 C17 122.9(2) . . ?
C16 C15 C14 119.9(3) . . ?
C16 C15 H15 120.0 . . ?
C14 C15 H15 120.0 . . ?
N3 C16 C15 123.9(3) . . ?
N3 C16 H16 118.1 . . ?
C15 C16 H16 118.1 . . ?
N4 C17 N4 125.3(3) . 87_657 ?
N4 C17 C14 117.6(2) . . ?
N4 C17 C14 116.9(2) 87_657 . ?
C6 N1 C10 116.9(2) . . ?
C6 N1 Ni1 120.95(18) . . ?
C10 N1 Ni1 122.06(19) . . ?
C11 N2 C11 115.2(2) . 48_645 ?
C16 N3 C12 117.8(3) . . ?
C16 N3 Ni1 123.1(2) . . ?
C12 N3 Ni1 118.9(2) . . ?
C17 N4 C17 114.6(3) . 94_466 ?
O3 Ni1 O1 93.91(9) . . ?
O3 Ni1 O5 176.66(10) . . ?
O1 Ni1 O5 87.49(8) . . ?
O3 Ni1 O4 87.28(13) . . ?
O1 Ni1 O4 174.91(9) . . ?
O5 Ni1 O4 91.59(12) . . ?
O3 Ni1 N1 89.31(10) . . ?
O1 Ni1 N1 94.54(8) . . ?
O5 Ni1 N1 87.56(9) . . ?
O4 Ni1 N1 90.42(9) . . ?
O3 Ni1 N3 90.89(10) . . ?
O1 Ni1 N3 87.55(9) . . ?
O5 Ni1 N3 92.20(9) . . ?
O4 Ni1 N3 87.48(10) . . ?
N1 Ni1 N3 177.88(10) . . ?
C1 O1 Ni1 130.60(17) . . ?

loop_
_geom_torsion_atom_site_label_1
_geom_torsion_atom_site_label_2
_geom_torsion_atom_site_label_3
_geom_torsion_atom_site_label_4
_geom_torsion
_geom_torsion_site_symmetry_1
_geom_torsion_site_symmetry_2
_geom_torsion_site_symmetry_3
_geom_torsion_site_symmetry_4
_geom_torsion_publ_flag
O2 C1 C2 C3 134.8(2) . . . . ?
O1 C1 C2 C3 -46.3(3) . . . . ?
O2 C1 C2 C4 -47.2(4) . . . . ?
O1 C1 C2 C4 131.7(3) . . . . ?
C4 C2 C3 C2 -0.92(18) . . . 75_565 ?
C1 C2 C3 C2 177.0(3) . . . 75_565 ?
C4 C2 C3 C3 179.08(18) . . . 50_466 ?
C1 C2 C3 C3 -3.0(3) . . . 50_466 ?
C3 C2 C4 C5 1.9(4) . . . . ?
C1 C2 C4 C5 -176.2(2) . . . . ?
C2 C4 C5 C4 -0.95(19) . . . 75_565 ?
N1 C6 C7 C8 2.6(7) . . . . ?
C6 C7 C8 C9 -0.3(6) . . . . ?
C6 C7 C8 C11 -177.2(3) . . . . ?
C7 C8 C9 C10 -4.0(6) . . . . ?
C11 C8 C9 C10 173.0(3) . . . . ?
C8 C9 C10 N1 6.5(7) . . . . ?
C7 C8 C11 N2 -174.7(3) . . . . ?
C9 C8 C11 N2 8.5(5) . . . . ?
C7 C8 C11 N2 8.2(5) . . . 11_665 ?
C9 C8 C11 N2 -168.6(3) . . . 11_665 ?
N3 C12 C13 C14 3.3(7) . . . . ?
C12 C13 C14 C15 -3.0(6) . . . . ?
C12 C13 C14 C17 179.6(4) . . . . ?
C13 C14 C15 C16 2.1(6) . . . . ?
C17 C14 C15 C16 179.4(4) . . . . ?
C14 C15 C16 N3 -1.5(7) . . . . ?
C13 C14 C17 N4 3.4(5) . . . . ?
C15 C14 C17 N4 -173.8(3) . . . . ?
C13 C14 C17 N4 178.2(3) . . . 87_657 ?
C15 C14 C17 N4 1.0(5) . . . 87_657 ?
C7 C6 N1 C10 -0.4(6) . . . . ?
C7 C6 N1 Ni1 176.1(3) . . . . ?
C9 C10 N1 C6 -4.1(6) . . . . ?
C9 C10 N1 Ni1 179.4(3) . . . . ?
N2 C11 N2 C11 0.9(6) 11_665 . . 48_645 ?
C8 C11 N2 C11 -175.95(18) . . . 48_645 ?
C15 C16 N3 C12 1.6(7) . . . . ?
C15 C16 N3 Ni1 176.5(3) . . . . ?
C13 C12 N3 C16 -2.5(6) . . . . ?
C13 C12 N3 Ni1 -177.6(3) . . . . ?
N4 C17 N4 C17 3.5(6) 87_657 . . 94_466 ?
C14 C17 N4 C17 177.82(18) . . . 94_466 ?
C6 N1 Ni1 O3 -94.9(3) . . . . ?
C10 N1 Ni1 O3 81.4(3) . . . . ?
C6 N1 Ni1 O1 -1.0(3) . . . . ?
C10 N1 Ni1 O1 175.3(3) . . . . ?
C6 N1 Ni1 O5 86.2(3) . . . . ?
C10 N1 Ni1 O5 -97.4(3) . . . . ?
C6 N1 Ni1 O4 177.8(3) . . . . ?
C10 N1 Ni1 O4 -5.9(3) . . . . ?
C6 N1 Ni1 N3 170(13) . . . . ?
C10 N1 Ni1 N3 -14(3) . . . . ?
C16 N3 Ni1 O3 156.6(3) . . . . ?
C12 N3 Ni1 O3 -28.6(3) . . . . ?
C16 N3 Ni1 O1 62.7(3) . . . . ?
C12 N3 Ni1 O1 -122.4(3) . . . . ?
C16 N3 Ni1 O5 -24.7(3) . . . . ?
C12 N3 Ni1 O5 150.2(3) . . . . ?
C16 N3 Ni1 O4 -116.2(3) . . . . ?
C12 N3 Ni1 O4 58.7(