
#######################################################################
#
#                 Cambridge Crystallographic Data Centre
#                                CCDC
#
#######################################################################
#
# If this CIF has been generated from an entry in the Cambridge
# Structural Database, then it will include bibliographic, chemical,
# crystal, experimental, refinement or atomic coordinate data resulting
# from the CCDC's data processing and validation procedures.
#
#######################################################################

data_CSD_CIF_EXUQUJ
_audit_creation_date 2004-10-07
_audit_creation_method CSD-ConQuest-V1
_database_code_CSD EXUQUJ
_database_code_depnum_ccdc_archive 'CCDC 229593'
_chemical_formula_sum 'C13 H18 N4 O6'
_chemical_formula_moiety
;
C8 H10 N4 O2,C5 H8 O4
;
_journal_coden_Cambridge 182
_journal_year 2004
_journal_page_first 890
_journal_name_full 'Chem.Commun. '
loop_
_publ_author_name
"A.V.Trask"
"W.D.S.Motherwell"
"W.Jones"
_chemical_name_systematic
;
Caffeine glutaric acid
;
_chemical_name_common
;
Teaching Subset: Fundamental Chemistry
;
_cell_volume    731.433
_exptl_crystal_colour 'colorless'
_exptl_crystal_density_diffrn 1.482
_exptl_special_details
;
triclinic polymorph

;
_exptl_crystal_description 'blocks'
_exptl_crystal_preparation 'chloroform'
_diffrn_ambient_temperature 180
#These two values have been output from a single CSD field.
_refine_ls_R_factor_gt 0.0572
_refine_ls_wR_factor_gt 0.0572
_symmetry_cell_setting triclinic
_symmetry_space_group_name_H-M 'P -1'
_symmetry_Int_Tables_number 2
loop_
_symmetry_equiv_pos_site_id
_symmetry_equiv_pos_as_xyz
1 x,y,z
2 -x,-y,-z
_cell_length_a 8.3212(8)
_cell_length_b 8.6667(8)
_cell_length_c 11.3636(12)
_cell_angle_alpha 68.955(4)
_cell_angle_beta 78.559(4)
_cell_angle_gamma 74.236(4)
_cell_formula_units_Z 2
loop_
_atom_type_symbol
_atom_type_radius_bond
C 0.68
H 0.23
N 0.68
O 0.68
loop_
_atom_site_label
_atom_site_type_symbol
_atom_site_fract_x
_atom_site_fract_y
_atom_site_fract_z
O1 O 0.4406(2) 0.19460(19) 0.35801(15)
O2 O 0.5148(2) 0.7377(2) 0.24219(15)
N1 N 0.1909(2) 0.2766(2) 0.57794(16)
N2 N 0.3295(2) 0.6547(2) 0.41596(17)
N3 N 0.1356(2) 0.5346(2) 0.59654(16)
N4 N 0.4793(2) 0.4663(2) 0.30269(16)
C1 C 0.2896(3) 0.3706(3) 0.48025(19)
C2 C 0.4449(3) 0.6274(3) 0.3153(2)
C3 C 0.2528(3) 0.5272(3) 0.49523(19)
C4 C 0.4051(3) 0.3289(3) 0.37999(19)
C5 C 0.6012(3) 0.4398(3) 0.1947(2)
H1 H 0.71100 0.45180 0.20470
H2 H 0.56270 0.52410 0.11560
H3 H 0.61090 0.32580 0.19210
C6 C 0.2866(3) 0.8206(3) 0.4331(2)
H4 H 0.38400 0.87310 0.40240
H5 H 0.25440 0.80740 0.52340
H6 H 0.19250 0.89280 0.38510
C7 C 0.1858(3) 0.0997(3) 0.6046(2)
H7 H 0.10570 0.06520 0.67960
H8 H 0.29780 0.02770 0.62050
H9 H 0.15050 0.08780 0.53160
C8 C 0.1021(3) 0.3798(3) 0.6431(2)
H10 H 0.02320 0.34660 0.71500
O3 O 0.0515(2) 0.2440(2) 0.28304(16)
H11 H -0.012(4) 0.319(4) 0.323(3)
O4 O 0.1661(2) 0.4622(2) 0.16323(16)
O5 O 0.1267(2) -0.1457(2) 0.16333(16)
O6 O 0.2850(2) -0.2532(2) 0.01584(15)
H12 H 0.255(4) -0.340(4) 0.056(3)
C9 C 0.1590(3) 0.3145(3) 0.1895(2)
C10 C 0.2623(3) 0.1974(3) 0.1191(2)
H13 H 0.29670 0.08280 0.18020
H14 H 0.36520 0.23810 0.07430
C11 C 0.1621(3) 0.1882(3) 0.0225(2)
H15 H 0.04760 0.17560 0.06330
H16 H 0.15130 0.29570 -0.04940
C12 C 0.2448(3) 0.0416(3) -0.0280(2)
H17 H 0.20230 0.06480 -0.10950
H18 H 0.36750 0.03450 -0.04520
C13 C 0.2131(3) -0.1254(3) 0.0613(2)
#END
