####################################################################### 
# 
# This file contains crystal structure data downloaded from the 
# Cambridge Structural Database (CSD) hosted by the Cambridge 
# Crystallographic Data Centre (CCDC).
# 
# Full information about CCDC data access policies and citation 
# guidelines are available at http://www.ccdc.cam.ac.uk/access/V1 
# 
# Audit and citation data items may have been added by the CCDC. 
# Please retain this information to preserve the provenance of 
# this file and to allow appropriate attribution of the data. 
# 
#######################################################################

data_p
_audit_block_doi                 10.5517/ccxcgmb
_database_code_depnum_ccdc_archive 'CCDC 845172'
loop_
_citation_id
_citation_doi
_citation_year
1 10.1016/j.inoche.2011.04.005 2011
_audit_update_record             
;
2011-09-21 deposited with the CCDC.	2024-07-10 downloaded from the CCDC.
;

_audit_creation_method           SHELXL-97
_chemical_name_systematic        
;
?
;
_chemical_name_common            ?
_chemical_melting_point          ?
_chemical_formula_moiety         ?
_chemical_formula_sum            'C64 H68 Al2 Cd Cl10 N6 O12'
_chemical_formula_weight         1634.10

loop_
_atom_type_symbol
_atom_type_description
_atom_type_scat_dispersion_real
_atom_type_scat_dispersion_imag
_atom_type_scat_source
C C 0.0033 0.0016 'International Tables Vol C Tables 4.2.6.8 and 6.1.1.4'
H H 0.0000 0.0000 'International Tables Vol C Tables 4.2.6.8 and 6.1.1.4'
N N 0.0061 0.0033 'International Tables Vol C Tables 4.2.6.8 and 6.1.1.4'
O O 0.0106 0.0060 'International Tables Vol C Tables 4.2.6.8 and 6.1.1.4'
Al Al 0.0645 0.0514 'International Tables Vol C Tables 4.2.6.8 and 6.1.1.4'
Cl Cl 0.1484 0.1585 'International Tables Vol C Tables 4.2.6.8 and 6.1.1.4'
Cd Cd -0.8075 1.2024 'International Tables Vol C Tables 4.2.6.8 and 6.1.1.4'

_symmetry_cell_setting           Monoclinic
_symmetry_space_group_name_H-M   C2/c

loop_
_symmetry_equiv_pos_as_xyz
'x, y, z'
'-x, y, -z+1/2'
'x+1/2, y+1/2, z'
'-x+1/2, y+1/2, -z+1/2'
'-x, -y, -z'
'x, -y, z-1/2'
'-x+1/2, -y+1/2, -z'
'x+1/2, -y+1/2, z-1/2'

_cell_length_a                   26.446(3)
_cell_length_b                   15.0501(10)
_cell_length_c                   23.160(5)
_cell_angle_alpha                90.00
_cell_angle_beta                 122.637(5)
_cell_angle_gamma                90.00
_cell_volume                     7762.7(19)
_cell_formula_units_Z            4
_cell_measurement_temperature    293(2)
_cell_measurement_reflns_used    ?
_cell_measurement_theta_min      ?
_cell_measurement_theta_max      ?

_exptl_crystal_description       ?
_exptl_crystal_colour            ?
_exptl_crystal_size_max          ?
_exptl_crystal_size_mid          ?
_exptl_crystal_size_min          ?
_exptl_crystal_density_meas      ?
_exptl_crystal_density_diffrn    1.398
_exptl_crystal_density_method    'not measured'
_exptl_crystal_F_000             3336
_exptl_absorpt_coefficient_mu    0.706
_exptl_absorpt_correction_type   multi-scan
_exptl_absorpt_correction_T_min  ?
_exptl_absorpt_correction_T_max  ?
_exptl_absorpt_process_details   ?

_exptl_special_details           
;
?
;

_diffrn_ambient_temperature      293(2)
_diffrn_radiation_wavelength     0.71073
_diffrn_radiation_type           MoK\a
_diffrn_radiation_source         'fine-focus sealed tube'
_diffrn_radiation_monochromator  graphite
_diffrn_measurement_device_type  ?
_diffrn_measurement_method       ?
_diffrn_detector_area_resol_mean ?
_diffrn_standards_number         ?
_diffrn_standards_interval_count ?
_diffrn_standards_interval_time  ?
_diffrn_standards_decay_%        ?
_diffrn_reflns_number            21644
_diffrn_reflns_av_R_equivalents  0.0714
_diffrn_reflns_av_sigmaI/netI    0.1594
_diffrn_reflns_limit_h_min       -32
_diffrn_reflns_limit_h_max       32
_diffrn_reflns_limit_k_min       -18
_diffrn_reflns_limit_k_max       12
_diffrn_reflns_limit_l_min       -21
_diffrn_reflns_limit_l_max       28
_diffrn_reflns_theta_min         2.23
_diffrn_reflns_theta_max         26.00
_reflns_number_total             7622
_reflns_number_gt                3884
_reflns_threshold_expression     >2sigma(I)

_computing_data_collection       ?
_computing_cell_refinement       ?
_computing_data_reduction        ?
_computing_structure_solution    'SHELXS-97 (Sheldrick, 1990)'
_computing_structure_refinement  'SHELXL-97 (Sheldrick, 1997)'
_computing_molecular_graphics    ?
_computing_publication_material  ?

_refine_special_details          
;
Refinement of F^2^ against ALL reflections. The weighted R-factor wR and
goodness of fit S are based on F^2^, conventional R-factors R are based
on F, with F set to zero for negative F^2^. The threshold expression of
F^2^ > 2sigma(F^2^) is used only for calculating R-factors(gt) etc. and is
not relevant to the choice of reflections for refinement. R-factors based
on F^2^ are statistically about twice as large as those based on F, and R-
factors based on ALL data will be even larger.
;

_refine_ls_structure_factor_coef Fsqd
_refine_ls_matrix_type           full
_refine_ls_weighting_scheme      calc
_refine_ls_weighting_details     
'calc w=1/[\s^2^(Fo^2^)+(0.1077P)^2^+0.0000P] where P=(Fo^2^+2Fc^2^)/3'
_atom_sites_solution_primary     direct
_atom_sites_solution_secondary   difmap
_atom_sites_solution_hydrogens   geom
_refine_ls_hydrogen_treatment    constr
_refine_ls_extinction_method     none
_refine_ls_extinction_coef       ?
_refine_ls_number_reflns         7622
_refine_ls_number_parameters     400
_refine_ls_number_restraints     0
_refine_ls_R_factor_all          0.1413
_refine_ls_R_factor_gt           0.0739
_refine_ls_wR_factor_ref         0.2098
_refine_ls_wR_factor_gt          0.1902
_refine_ls_goodness_of_fit_ref   0.942
_refine_ls_restrained_S_all      0.942
_refine_ls_shift/su_max          0.000
_refine_ls_shift/su_mean         0.000

loop_
_atom_site_label
_atom_site_type_symbol
_atom_site_fract_x
_atom_site_fract_y
_atom_site_fract_z
_atom_site_U_iso_or_equiv
_atom_site_adp_type
_atom_site_occupancy
_atom_site_symmetry_multiplicity
_atom_site_calc_flag
_atom_site_refinement_flags
_atom_site_disorder_assembly
_atom_site_disorder_group
Cd1 Cd 1.0000 0.5000 0.0000 0.0217(2) Uani 1 2 d S . .
Cl1 Cl 0.92350(9) 0.38887(12) -0.00421(10) 0.0325(5) Uani 1 1 d . . .
Al1 Al 0.76381(8) 1.00576(13) 0.00670(9) 0.0185(4) Uani 1 1 d . . .
O5 O 0.8466(2) 0.9691(3) 0.0682(2) 0.0228(11) Uani 1 1 d . . .
O6 O 0.74389(19) 0.8899(3) -0.0304(2) 0.0161(10) Uani 1 1 d . . .
O3 O 0.7870(2) 1.1183(3) 0.0438(2) 0.0216(10) Uani 1 1 d . . .
O1 O 0.7798(2) 1.0373(3) -0.0572(2) 0.0225(11) Uani 1 1 d . . .
O4 O 0.7441(2) 0.9747(3) 0.0672(2) 0.0217(11) Uani 1 1 d . . .
O2 O 0.6803(2) 1.0362(3) -0.0580(2) 0.0211(10) Uani 1 1 d . . .
N3 N 0.9477(3) 0.6231(4) 0.0067(3) 0.0235(13) Uani 1 1 d . . .
C29 C 0.9224(5) 0.7766(6) -0.0038(4) 0.0510(18) Uani 1 1 d . . .
H29 H 0.9290 0.8337 -0.0138 0.061 Uiso 1 1 calc R . .
C12 C 0.7852(3) 1.1543(4) 0.0909(3) 0.0227(16) Uani 1 1 d . . .
C2 C 0.7418(3) 1.0319(4) -0.1221(3) 0.0247(16) Uani 1 1 d . . .
C28 C 0.8810(4) 0.7626(5) 0.0135(3) 0.0319(13) Uani 1 1 d . . .
N1 N 0.5619(3) 1.0090(4) -0.3777(3) 0.0290(14) Uani 1 1 d . . .
C14 C 0.7437(3) 1.0233(4) 0.1111(3) 0.0234(16) Uani 1 1 d . . .
C3 C 0.6768(3) 1.0279(4) -0.1581(3) 0.0215(16) Uani 1 1 d . . .
C30 C 0.9540(5) 0.7068(6) -0.0063(4) 0.0525(18) Uani 1 1 d . . .
H30 H 0.9819 0.7187 -0.0179 0.063 Uiso 1 1 calc R . .
C22 C 0.8748(3) 0.9034(5) 0.0645(3) 0.0246(16) Uani 1 1 d . . .
C13 C 0.7652(3) 1.1102(4) 0.1260(3) 0.0257(17) Uani 1 1 d . . .
C24 C 0.7795(3) 0.8339(4) -0.0308(3) 0.0181(15) Uani 1 1 d . . .
C23 C 0.8441(3) 0.8357(4) 0.0147(3) 0.0214(15) Uani 1 1 d . . .
C4 C 0.6491(3) 1.0358(4) -0.1227(3) 0.0234(16) Uani 1 1 d . . .
C27 C 0.8758(4) 0.6742(5) 0.0285(4) 0.0438(16) Uani 1 1 d . . .
H27 H 0.8500 0.6606 0.0430 0.053 Uiso 1 1 calc R . .
C6 C 0.5918(4) 0.9386(5) -0.3385(4) 0.036(2) Uani 1 1 d . . .
H6 H 0.5880 0.8847 -0.3601 0.043 Uiso 1 1 calc R . .
C25 C 0.7468(4) 0.7639(5) -0.0840(3) 0.0306(13) Uani 1 1 d . . .
H25A H 0.7527 0.7073 -0.0621 0.046 Uiso 1 1 calc R . .
H25B H 0.7619 0.7617 -0.1135 0.046 Uiso 1 1 calc R . .
H25C H 0.7047 0.7776 -0.1107 0.046 Uiso 1 1 calc R . .
C15 C 0.7180(4) 0.9796(4) 0.1451(3) 0.0306(13) Uani 1 1 d . . .
H15A H 0.6771 0.9987 0.1249 0.046 Uiso 1 1 calc R . .
H15B H 0.7408 0.9947 0.1929 0.046 Uiso 1 1 calc R . .
H15C H 0.7189 0.9164 0.1401 0.046 Uiso 1 1 calc R . .
C8 C 0.6367(3) 1.0220(4) -0.2341(3) 0.0233(16) Uani 1 1 d . . .
C7 C 0.6282(4) 0.9418(4) -0.2675(3) 0.0314(19) Uani 1 1 d . . .
H7 H 0.6466 0.8905 -0.2425 0.038 Uiso 1 1 calc R . .
C21 C 0.9433(3) 0.9017(5) 0.1176(4) 0.040(2) Uani 1 1 d . . .
H21A H 0.9638 0.9257 0.0974 0.060 Uiso 1 1 calc R . .
H21B H 0.9561 0.8416 0.1318 0.060 Uiso 1 1 calc R . .
H21C H 0.9524 0.9368 0.1568 0.060 Uiso 1 1 calc R . .
C11 C 0.8066(4) 1.2483(5) 0.1058(4) 0.038(2) Uani 1 1 d . . .
H11A H 0.8464 1.2516 0.1146 0.057 Uiso 1 1 calc R . .
H11B H 0.8071 1.2688 0.1454 0.057 Uiso 1 1 calc R . .
H11C H 0.7801 1.2850 0.0672 0.057 Uiso 1 1 calc R . .
C5 C 0.5808(4) 1.0425(6) -0.1592(4) 0.041(2) Uani 1 1 d . . .
H5A H 0.5630 0.9861 -0.1792 0.062 Uiso 1 1 calc R . .
H5B H 0.5661 1.0867 -0.1946 0.062 Uiso 1 1 calc R . .
H5C H 0.5705 1.0590 -0.1268 0.062 Uiso 1 1 calc R . .
C18 C 0.7626(4) 1.1605(5) 0.1787(3) 0.0319(13) Uani 1 1 d . . .
C26 C 0.9073(4) 0.6082(6) 0.0225(5) 0.0519(17) Uani 1 1 d . . .
H26 H 0.9002 0.5500 0.0297 0.062 Uiso 1 1 calc R . .
Cl2 Cl 0.08546(18) 0.7886(3) 0.2603(2) 0.1219(14) Uani 1 1 d . . .
Cl3 Cl 0.1099(2) 0.9495(3) 0.2139(2) 0.1500(18) Uani 1 1 d . . .
C1 C 0.7715(4) 1.0323(6) -0.1605(4) 0.044(2) Uani 1 1 d . . .
H1A H 0.8125 1.0509 -0.1308 0.065 Uiso 1 1 calc R . .
H1B H 0.7510 1.0726 -0.1984 0.065 Uiso 1 1 calc R . .
H1C H 0.7705 0.9735 -0.1772 0.065 Uiso 1 1 calc R . .
C10 C 0.5689(4) 1.0850(5) -0.3463(3) 0.039(2) Uani 1 1 d . . .
H10 H 0.5489 1.1348 -0.3725 0.047 Uiso 1 1 calc R . .
C9 C 0.6049(4) 1.0942(5) -0.2756(4) 0.041(2) Uani 1 1 d . . .
H9 H 0.6078 1.1492 -0.2557 0.050 Uiso 1 1 calc R . .
N2 N 0.7485(6) 1.2555(6) 0.2679(5) 0.093(4) Uani 1 1 d . . .
C19 C 0.8124(5) 1.1691(5) 0.2446(4) 0.0510(18) Uani 1 1 d . . .
H19 H 0.8494 1.1442 0.2578 0.061 Uiso 1 1 calc R . .
C17 C 0.7065(4) 1.2013(5) 0.1594(4) 0.0438(16) Uani 1 1 d . . .
H17 H 0.6734 1.1954 0.1147 0.053 Uiso 1 1 calc R . .
C1S C 0.1373(7) 0.8789(8) 0.2820(6) 0.103(5) Uani 1 1 d . . .
H1S1 H 0.1428 0.9105 0.3215 0.123 Uiso 1 1 calc R . .
H1S2 H 0.1759 0.8558 0.2937 0.123 Uiso 1 1 calc R . .
C16 C 0.7015(5) 1.2480(6) 0.2054(5) 0.0519(17) Uani 1 1 d . . .
H16 H 0.6653 1.2746 0.1932 0.062 Uiso 1 1 calc R . .
Cl4 Cl 0.9477(3) 0.1046(4) 0.0069(4) 0.207(3) Uani 1 1 d . . .
Cl5 Cl 0.9790(3) 0.1734(4) 0.1348(3) 0.246(4) Uani 1 1 d . . .
C20 C 0.8033(5) 1.2204(6) 0.2924(5) 0.0525(18) Uani 1 1 d . . .
H20 H 0.8342 1.2282 0.3380 0.063 Uiso 1 1 calc R . .
C2S C 0.9191(7) 0.1673(10) 0.0485(8) 0.119(5) Uani 1 1 d . . .
H2S1 H 0.9071 0.2262 0.0287 0.142 Uiso 1 1 calc R . .
H2S2 H 0.8848 0.1377 0.0446 0.142 Uiso 1 1 calc R . .

loop_
_atom_site_aniso_label
_atom_site_aniso_U_11
_atom_site_aniso_U_22
_atom_site_aniso_U_33
_atom_site_aniso_U_23
_atom_site_aniso_U_13
_atom_site_aniso_U_12
Cd1 0.0303(4) 0.0216(4) 0.0163(3) 0.0052(3) 0.0146(3) 0.0133(4)
Cl1 0.0375(11) 0.0285(10) 0.0422(11) 0.0054(8) 0.0286(9) 0.0096(9)
Al1 0.0268(11) 0.0142(10) 0.0175(9) -0.0010(9) 0.0139(8) 0.0017(10)
O5 0.025(3) 0.021(2) 0.023(2) -0.0039(19) 0.013(2) 0.003(2)
O6 0.024(2) 0.013(2) 0.018(2) -0.0008(18) 0.016(2) 0.003(2)
O3 0.033(3) 0.013(2) 0.023(2) -0.0021(18) 0.018(2) -0.002(2)
O1 0.031(3) 0.023(2) 0.020(2) -0.0028(19) 0.018(2) -0.002(2)
O4 0.032(3) 0.018(2) 0.019(2) 0.0029(17) 0.016(2) 0.004(2)
O2 0.030(3) 0.022(2) 0.015(2) 0.0012(18) 0.015(2) 0.004(2)
N3 0.023(3) 0.021(3) 0.029(3) 0.000(2) 0.017(3) -0.002(3)
C29 0.085(5) 0.036(4) 0.043(4) -0.007(3) 0.042(4) -0.012(4)
C12 0.032(4) 0.016(3) 0.016(3) -0.004(3) 0.010(3) 0.000(3)
C2 0.042(5) 0.015(3) 0.024(4) -0.003(3) 0.021(4) -0.004(3)
C28 0.051(4) 0.030(3) 0.026(3) -0.008(2) 0.028(3) -0.009(3)
N1 0.046(4) 0.021(3) 0.019(3) -0.006(3) 0.017(3) -0.007(3)
C14 0.038(4) 0.020(4) 0.015(3) -0.001(3) 0.017(3) -0.001(3)
C3 0.039(4) 0.011(3) 0.019(3) -0.001(2) 0.019(3) -0.002(3)
C30 0.081(5) 0.037(4) 0.050(4) -0.004(3) 0.042(4) -0.007(4)
C22 0.024(4) 0.021(4) 0.030(4) 0.005(3) 0.016(3) 0.004(3)
C13 0.045(5) 0.020(4) 0.019(4) -0.008(3) 0.022(3) -0.003(4)
C24 0.032(4) 0.010(3) 0.015(3) 0.004(3) 0.014(3) 0.000(3)
C23 0.032(4) 0.016(3) 0.022(4) 0.000(3) 0.018(3) -0.002(3)
C4 0.033(4) 0.015(3) 0.020(4) 0.001(3) 0.014(3) 0.000(3)
C27 0.067(4) 0.035(3) 0.055(4) -0.018(3) 0.049(4) -0.011(3)
C6 0.056(6) 0.025(4) 0.031(4) -0.010(3) 0.027(4) -0.011(4)
C25 0.051(4) 0.023(3) 0.029(3) -0.002(2) 0.029(3) -0.001(3)
C15 0.051(4) 0.023(3) 0.029(3) -0.002(2) 0.029(3) -0.001(3)
C8 0.036(4) 0.021(4) 0.015(3) 0.000(3) 0.015(3) -0.005(3)
C7 0.057(5) 0.016(4) 0.021(4) 0.002(3) 0.021(4) 0.001(4)
C21 0.032(5) 0.040(5) 0.036(5) -0.009(4) 0.010(4) 0.002(4)
C11 0.071(6) 0.019(4) 0.035(4) -0.005(3) 0.036(4) -0.005(4)
C5 0.037(5) 0.058(5) 0.027(4) 0.005(4) 0.016(4) 0.007(4)
C18 0.051(4) 0.030(3) 0.026(3) -0.008(2) 0.028(3) -0.009(3)
C26 0.073(5) 0.038(4) 0.068(5) -0.012(3) 0.054(4) -0.003(4)
Cl2 0.091(3) 0.106(3) 0.133(3) 0.006(2) 0.037(2) 0.000(2)
Cl3 0.124(4) 0.132(4) 0.154(4) 0.030(3) 0.048(3) -0.008(3)
C1 0.054(5) 0.054(5) 0.041(5) -0.001(4) 0.038(4) -0.007(4)
C10 0.066(6) 0.024(4) 0.017(4) 0.001(3) 0.016(4) -0.001(4)
C9 0.077(6) 0.016(4) 0.024(4) -0.007(3) 0.023(4) -0.003(4)
N2 0.179(12) 0.068(7) 0.089(8) -0.023(6) 0.110(9) -0.031(8)
C19 0.085(5) 0.036(4) 0.043(4) -0.007(3) 0.042(4) -0.012(4)
C17 0.067(4) 0.035(3) 0.055(4) -0.018(3) 0.049(4) -0.011(3)
C1S 0.117(11) 0.067(8) 0.094(9) 0.002(7) 0.037(8) -0.008(8)
C16 0.073(5) 0.038(4) 0.068(5) -0.012(3) 0.054(4) -0.003(4)
Cl4 0.195(6) 0.157(5) 0.363(9) -0.011(5) 0.211(7) -0.042(4)
Cl5 0.204(7) 0.155(5) 0.217(6) 0.057(4) 0.007(5) -0.046(5)
C20 0.081(5) 0.037(4) 0.050(4) -0.004(3) 0.042(4) -0.007(4)
C2S 0.101(11) 0.104(11) 0.174(16) 0.041(10) 0.089(12) 0.006(9)

_geom_special_details            
;
All esds (except the esd in the dihedral angle between two l.s. planes)
are estimated using the full covariance matrix. The cell esds are taken
into account individually in the estimation of esds in distances, angles
and torsion angles; correlations between esds in cell parameters are only
used when they are defined by crystal symmetry. An approximate (isotropic)
treatment of cell esds is used for estimating esds involving l.s. planes.
;

loop_
_geom_bond_atom_site_label_1
_geom_bond_atom_site_label_2
_geom_bond_distance
_geom_bond_site_symmetry_2
_geom_bond_publ_flag
Cd1 N3 2.368(6) . ?
Cd1 N3 2.368(6) 5_765 ?
Cd1 N1 2.392(5) 4_644 ?
Cd1 N1 2.392(5) 8_566 ?
Cd1 Cl1 2.586(2) 5_765 ?
Cd1 Cl1 2.586(2) . ?
Al1 O4 1.800(5) . ?
Al1 O1 1.807(5) . ?
Al1 O3 1.848(5) . ?
Al1 O6 1.889(4) . ?
Al1 O2 1.940(5) . ?
Al1 O5 1.941(5) . ?
O5 C22 1.268(8) . ?
O6 C24 1.268(8) . ?
O3 C12 1.243(7) . ?
O1 C2 1.284(8) . ?
O4 C14 1.256(7) . ?
O2 C4 1.262(7) . ?
N3 C26 1.322(10) . ?
N3 C30 1.326(10) . ?
C29 C30 1.362(12) . ?
C29 C28 1.370(11) . ?
C29 H29 0.9300 . ?
C12 C13 1.358(10) . ?
C12 C11 1.493(10) . ?
C2 C3 1.451(10) . ?
C2 C1 1.469(10) . ?
C28 C27 1.400(11) . ?
C28 C23 1.482(10) . ?
N1 C10 1.314(9) . ?
N1 C6 1.341(9) . ?
N1 Cd1 2.392(5) 4_654 ?
C14 C13 1.393(9) . ?
C14 C15 1.449(9) . ?
C3 C4 1.368(10) . ?
C3 C8 1.490(9) . ?
C30 H30 0.9300 . ?
C22 C23 1.421(9) . ?
C22 C21 1.546(10) . ?
C13 C18 1.469(9) . ?
C24 C23 1.445(10) . ?
C24 C25 1.492(9) . ?
C4 C5 1.530(10) . ?
C27 C26 1.351(11) . ?
C27 H27 0.9300 . ?
C6 C7 1.387(10) . ?
C6 H6 0.9300 . ?
C25 H25A 0.9600 . ?
C25 H25B 0.9600 . ?
C25 H25C 0.9600 . ?
C15 H15A 0.9600 . ?
C15 H15B 0.9600 . ?
C15 H15C 0.9600 . ?
C8 C7 1.385(9) . ?
C8 C9 1.393(10) . ?
C7 H7 0.9300 . ?
C21 H21A 0.9600 . ?
C21 H21B 0.9600 . ?
C21 H21C 0.9600 . ?
C11 H11A 0.9600 . ?
C11 H11B 0.9600 . ?
C11 H11C 0.9600 . ?
C5 H5A 0.9600 . ?
C5 H5B 0.9600 . ?
C5 H5C 0.9600 . ?
C18 C19 1.383(11) . ?
C18 C17 1.437(12) . ?
C26 H26 0.9300 . ?
Cl2 C1S 1.798(13) . ?
Cl3 C1S 1.705(13) . ?
C1 H1A 0.9600 . ?
C1 H1B 0.9600 . ?
C1 H1C 0.9600 . ?
C10 C9 1.386(9) . ?
C10 H10 0.9300 . ?
C9 H9 0.9300 . ?
N2 C16 1.308(13) . ?
N2 C20 1.345(14) . ?
C19 C20 1.474(12) . ?
C19 H19 0.9300 . ?
C17 C16 1.341(11) . ?
C17 H17 0.9300 . ?
C1S H1S1 0.9700 . ?
C1S H1S2 0.9700 . ?
C16 H16 0.9300 . ?
Cl4 C2S 1.781(16) . ?
Cl5 C2S 1.760(15) . ?
C20 H20 0.9300 . ?
C2S H2S1 0.9700 . ?
C2S H2S2 0.9700 . ?

loop_
_geom_angle_atom_site_label_1
_geom_angle_atom_site_label_2
_geom_angle_atom_site_label_3
_geom_angle
_geom_angle_site_symmetry_1
_geom_angle_site_symmetry_3
_geom_angle_publ_flag
N3 Cd1 N3 180.0(3) . 5_765 ?
N3 Cd1 N1 89.00(19) . 4_644 ?
N3 Cd1 N1 91.00(19) 5_765 4_644 ?
N3 Cd1 N1 91.00(19) . 8_566 ?
N3 Cd1 N1 89.00(19) 5_765 8_566 ?
N1 Cd1 N1 180.000(1) 4_644 8_566 ?
N3 Cd1 Cl1 87.96(15) . 5_765 ?
N3 Cd1 Cl1 92.04(15) 5_765 5_765 ?
N1 Cd1 Cl1 91.69(15) 4_644 5_765 ?
N1 Cd1 Cl1 88.31(15) 8_566 5_765 ?
N3 Cd1 Cl1 92.04(15) . . ?
N3 Cd1 Cl1 87.96(15) 5_765 . ?
N1 Cd1 Cl1 88.31(16) 4_644 . ?
N1 Cd1 Cl1 91.69(15) 8_566 . ?
Cl1 Cd1 Cl1 180.00(8) 5_765 . ?
O4 Al1 O1 177.3(2) . . ?
O4 Al1 O3 92.2(2) . . ?
O1 Al1 O3 88.5(2) . . ?
O4 Al1 O6 89.3(2) . . ?
O1 Al1 O6 90.0(2) . . ?
O3 Al1 O6 177.2(2) . . ?
O4 Al1 O2 88.6(2) . . ?
O1 Al1 O2 88.7(2) . . ?
O3 Al1 O2 95.6(2) . . ?
O6 Al1 O2 86.8(2) . . ?
O4 Al1 O5 92.3(2) . . ?
O1 Al1 O5 90.3(2) . . ?
O3 Al1 O5 87.7(2) . . ?
O6 Al1 O5 89.9(2) . . ?
O2 Al1 O5 176.6(2) . . ?
C22 O5 Al1 130.1(4) . . ?
C24 O6 Al1 126.2(4) . . ?
C12 O3 Al1 130.4(4) . . ?
C2 O1 Al1 124.1(4) . . ?
C14 O4 Al1 127.6(4) . . ?
C4 O2 Al1 131.2(4) . . ?
C26 N3 C30 116.3(7) . . ?
C26 N3 Cd1 118.3(5) . . ?
C30 N3 Cd1 125.4(6) . . ?
C30 C29 C28 119.8(8) . . ?
C30 C29 H29 120.1 . . ?
C28 C29 H29 120.1 . . ?
O3 C12 C13 121.6(6) . . ?
O3 C12 C11 115.2(6) . 