
#######################################################################
#
#                 Cambridge Crystallographic Data Centre
#                                CCDC
#
#######################################################################
#
# If this CIF has been generated from an entry in the Cambridge
# Structural Database, then it will include bibliographic, chemical,
# crystal, experimental, refinement or atomic coordinate data resulting
# from the CCDC's data processing and validation procedures.
#
#######################################################################

data_CSD_CIF_EYAQEA
_audit_creation_date 2004-10-07
_audit_creation_method CSD-ConQuest-V1
_database_code_CSD EYAQEA
_database_code_depnum_ccdc_archive 'CCDC 225885'
_chemical_formula_sum 'C2 H24 Cl1 Co1 N6 O6 S2'
_chemical_formula_moiety
;
2(C1 H3 O3 S1 1-),H18 Co1 N6 3+,Cl1 1-
;
_journal_coden_Cambridge 119
_journal_volume 694
_journal_year 2004
_journal_page_first 229
_journal_name_full 'J.Mol.Struct. '
loop_
_publ_author_name
"R.P.Sharma"
"R.Bala"
"R.Sharma"
"P.Venugopalan"
_chemical_name_systematic
;
Hexammine-cobalt(iii) chloride bis(methanesulfonate)
;
_chemical_name_common
;
Teaching Subset: Fundamental Chemistry, Symmetry
;
_chemical_melting_point 515
_cell_volume    404.970
_exptl_crystal_colour 'orange-red'
_exptl_crystal_density_diffrn 1.586
_exptl_crystal_description 'block'
_exptl_crystal_preparation 'water'
_diffrn_ambient_temperature 293
#These two values have been output from a single CSD field.
_refine_ls_R_factor_gt 0.0236
_refine_ls_wR_factor_gt 0.0236
_symmetry_cell_setting hexagonal
_symmetry_space_group_name_H-M 'P -3 m 1'
_symmetry_Int_Tables_number 164
loop_
_symmetry_equiv_pos_site_id
_symmetry_equiv_pos_as_xyz
1 x,y,z
2 -y,x-y,z
3 -x+y,-x,z
4 y,x,-z
5 x-y,-y,-z
6 -x,-x+y,-z
7 -x,-y,-z
8 y,-x+y,-z
9 x-y,x,-z
10 -y,-x,z
11 -x+y,y,z
12 x,x-y,z
_cell_length_a 7.624(1)
_cell_length_b 7.624(1)
_cell_length_c 8.045(1)
_cell_angle_alpha 90
_cell_angle_beta 90
_cell_angle_gamma 120
_cell_formula_units_Z 1
loop_
_atom_type_symbol
_atom_type_radius_bond
C 0.68
H 0.23
Cl 0.99
Co 1.33
N 0.68
O 0.68
S 1.02
loop_
_atom_site_label
_atom_site_type_symbol
_atom_site_fract_x
_atom_site_fract_y
_atom_site_fract_z
Co1 Co 0.00000 0.00000 0.00000
N1 N 0.2416(3) 0.12082(17) -0.1412(3)
H1 H 0.31500 0.25280 -0.12010
H2 H 0.20470 0.10240 -0.24760
Cl1 Cl 0.00000 0.00000 -0.50000
S1 S 0.33330 -0.33330 -0.23608(14)
O1 O 0.43795(17) -0.1241(3) -0.1851(3)
C1 C 0.33330 -0.33330 -0.4525(7)
H3 H 0.26480 -0.47040 -0.49230
H1K H 0.31500 0.06220 -0.12010
N1A N -0.12082(30) 0.12078(17) -0.1412(3)
H1A H -0.25280 0.06220 -0.12010
H1J H -0.06220 0.25280 -0.12010
H2A H -0.10240 0.10230 -0.24760
N1B N -0.12078(30) -0.24160(17) -0.1412(3)
H1B H -0.06220 -0.31500 -0.12010
H1I H -0.25280 -0.31500 -0.12010
H2B H -0.10230 -0.20470 -0.24760
N1C N 0.12082(30) 0.24160(17) 0.1412(3)
H1C H 0.25280 0.31500 0.12010
H1H H 0.06220 0.31500 0.12010
H2C H 0.10240 0.20470 0.24760
N1F N -0.2416(3) -0.12082(17) 0.1412(3)
H1F H -0.31500 -0.25280 0.12010
H1E H -0.31500 -0.06220 0.12010
H2F H -0.20470 -0.10240 0.24760
N1G N 0.12082(30) -0.12078(17) 0.1412(3)
H1G H 0.25280 -0.06220 0.12010
H1D H 0.06220 -0.25280 0.12010
H2G H 0.10240 -0.10230 0.24760
O1A O 0.12410(17) -0.43795(30) -0.1851(3)
O1B O 0.43795(17) -0.43795(30) -0.1851(3)
H3A H 0.47040 -0.26480 -0.49230
H3B H 0.26480 -0.26480 -0.49230
#END
