####################################################################### 
# 
# This file contains crystal structure data downloaded from the 
# Cambridge Structural Database (CSD) hosted by the Cambridge 
# Crystallographic Data Centre (CCDC).
# 
# Full information about CCDC data access policies and citation 
# guidelines are available at http://www.ccdc.cam.ac.uk/access/V1 
# 
# Audit and citation data items may have been added by the CCDC. 
# Please retain this information to preserve the provenance of 
# this file and to allow appropriate attribution of the data. 
# 
#######################################################################

data_Cubhnqdioxane
_audit_block_doi                 10.5517/cc7g4ph
_database_code_depnum_ccdc_archive 'CCDC 222136'
loop_
_citation_id
_citation_doi
_citation_year
1 10.1002/chem.200305640 2004
_audit_update_record             
;
2003-10-17 deposited with the CCDC.	2024-07-10 downloaded from the CCDC.
;

_audit_creation_method           SHELXL-97
_chemical_name_systematic        
;
?
;
_chemical_name_common            ?
_chemical_melting_point          ?
_chemical_formula_moiety         ?
_chemical_formula_sum            'C24 H28 Cu1 O14'
_chemical_formula_weight         604.02

loop_
_atom_type_symbol
_atom_type_description
_atom_type_scat_dispersion_real
_atom_type_scat_dispersion_imag
_atom_type_scat_source
Cu Cu 0.3201 1.2651 'International Tables Vol C Tables 4.2.6.8 and 6.1.1.4'
O O 0.0106 0.0060 'International Tables Vol C Tables 4.2.6.8 and 6.1.1.4'
H H 0.0000 0.0000 'International Tables Vol C Tables 4.2.6.8 and 6.1.1.4'
C C 0.0033 0.0016 'International Tables Vol C Tables 4.2.6.8 and 6.1.1.4'

_symmetry_cell_setting           monoclinic
_symmetry_space_group_name_H-M   'C 1 2/c 1'
_symmetry_Int_Tables_number      15

loop_
_symmetry_equiv_pos_as_xyz
'x, y, z'
'-x, y, -z+1/2'
'x+1/2, y+1/2, z'
'-x+1/2, y+1/2, -z+1/2'
'-x, -y, -z'
'x, -y, z-1/2'
'-x+1/2, -y+1/2, -z'
'x+1/2, -y+1/2, z-1/2'

_cell_length_a                   11.604(4)
_cell_length_b                   18.511(3)
_cell_length_c                   12.6809(18)
_cell_angle_alpha                90.00
_cell_angle_beta                 92.482(18)
_cell_angle_gamma                90.00
_cell_volume                     2721.4(10)
_cell_formula_units_Z            4
_cell_measurement_temperature    298
_cell_measurement_reflns_used    25
_cell_measurement_theta_min      12.7
_cell_measurement_theta_max      14.8

_exptl_crystal_description       prismatic
_exptl_crystal_colour            red
_exptl_crystal_size_max          0.20
_exptl_crystal_size_mid          0.20
_exptl_crystal_size_min          0.20
_exptl_crystal_density_meas      ?
_exptl_crystal_density_diffrn    1.474
_exptl_crystal_density_method    'not measured'
_exptl_crystal_F_000             1252
_exptl_absorpt_coefficient_mu    0.871
_exptl_absorpt_correction_type   
;
psi-scan (North,Phillips & Matthews, 1968)
;
_exptl_absorpt_process_details   '(North, Phillips & Mathews, 1968)'
_exptl_absorpt_correction_T_min  0.753
_exptl_absorpt_correction_T_max  0.840
_exptl_special_details           
;
?
;

_diffrn_ambient_temperature      298
_diffrn_radiation_wavelength     0.71069
_diffrn_radiation_type           MoK\a
_diffrn_radiation_source         'fine-focus sealed tube'
_diffrn_radiation_monochromator  graphite
_diffrn_measurement_device_type  'Rigaku AFC5R'
_diffrn_measurement_method       ?
_diffrn_detector_area_resol_mean ?
_diffrn_standards_number         ?
_diffrn_standards_interval_count ?
_diffrn_standards_interval_time  ?
_diffrn_standards_decay_%        ?
_diffrn_reflns_number            4272
_diffrn_reflns_av_R_equivalents  0.1427
_diffrn_reflns_av_sigmaI/netI    0.3364
_diffrn_reflns_limit_h_min       0
_diffrn_reflns_limit_h_max       16
_diffrn_reflns_limit_k_min       0
_diffrn_reflns_limit_k_max       26
_diffrn_reflns_limit_l_min       -17
_diffrn_reflns_limit_l_max       17
_diffrn_reflns_theta_min         2.58
_diffrn_reflns_theta_max         30.00
_reflns_number_total             3976
_reflns_number_gt                1016
_reflns_threshold_expression     >2sigma(I)

_computing_data_collection       ?
_computing_cell_refinement       ?
_computing_data_reduction        ?
_computing_structure_solution    'SHELXS-97 (Sheldrick, 1990)'
_computing_structure_refinement  'SHELXL-97 (Sheldrick, 1997)'
_computing_molecular_graphics    ?
_computing_publication_material  ?

_refine_special_details          
;
Refinement of F^2^ against ALL reflections.  The weighted R-factor wR and
goodness of fit S are based on F^2^, conventional R-factors R are based
on F, with F set to zero for negative F^2^. The threshold expression of
F^2^ > 2sigma(F^2^) is used only for calculating R-factors(gt) etc. and is
not relevant to the choice of reflections for refinement.  R-factors based
on F^2^ are statistically about twice as large as those based on F, and R-
factors based on ALL data will be even larger.
;

_refine_ls_structure_factor_coef Fsqd
_refine_ls_matrix_type           full
_refine_ls_weighting_scheme      calc
_refine_ls_weighting_details     
'calc w=1/[\s^2^(Fo^2^)+(0.0500P)^2^+0.0000P] where P=(Fo^2^+2Fc^2^)/3'
_atom_sites_solution_primary     direct
_atom_sites_solution_secondary   difmap
_atom_sites_solution_hydrogens   geom
_refine_ls_hydrogen_treatment    mixed
_refine_ls_extinction_method     none
_refine_ls_extinction_coef       ?
_refine_ls_number_reflns         3976
_refine_ls_number_parameters     196
_refine_ls_number_restraints     3
_refine_ls_R_factor_all          0.3386
_refine_ls_R_factor_gt           0.0694
_refine_ls_wR_factor_ref         0.1929
_refine_ls_wR_factor_gt          0.1415
_refine_ls_goodness_of_fit_ref   1.014
_refine_ls_restrained_S_all      1.014
_refine_ls_shift/su_max          0.001
_refine_ls_shift/su_mean         0.000

loop_
_atom_site_label
_atom_site_type_symbol
_atom_site_fract_x
_atom_site_fract_y
_atom_site_fract_z
_atom_site_U_iso_or_equiv
_atom_site_adp_type
_atom_site_occupancy
_atom_site_symmetry_multiplicity
_atom_site_calc_flag
_atom_site_refinement_flags
_atom_site_disorder_assembly
_atom_site_disorder_group
Cu1 Cu 0.0000 0.0000 0.5000 0.0505(4) Uani 1 2 d S . .
O1 O -0.0204(3) 0.0699(2) 0.6119(3) 0.0522(11) Uani 1 1 d . . .
O2 O 0.1703(4) 0.0697(2) 0.5016(3) 0.0623(12) Uani 1 1 d . . .
O3 O 0.1425(5) 0.2526(3) 0.8239(4) 0.0855(18) Uani 1 1 d . . .
O4 O -0.0826(5) 0.0671(3) 0.3987(4) 0.0723(15) Uani 1 1 d D . .
O5 O -0.1878(5) -0.0013(4) 0.7330(4) 0.1025(17) Uani 1 1 d D . .
O6 O 0.2685(10) 0.3400(5) 0.9741(8) 0.163(4) Uani 1 1 d D . .
O7 O -0.4309(9) -0.0214(8) 0.6718(9) 0.231(6) Uani 1 1 d . . .
C1 C 0.0583(5) 0.1174(3) 0.6369(4) 0.0417(14) Uani 1 1 d . . .
C2 C 0.1629(5) 0.1139(3) 0.5722(5) 0.0450(15) Uani 1 1 d . . .
C3 C 0.2566(5) 0.1677(3) 0.5939(5) 0.0475(15) Uani 1 1 d . . .
C4 C 0.3512(6) 0.1698(4) 0.5303(5) 0.0634(19) Uani 1 1 d . . .
C5 C 0.4335(6) 0.2231(5) 0.5484(6) 0.074(2) Uani 1 1 d . . .
C6 C 0.4238(6) 0.2723(4) 0.6280(6) 0.077(2) Uani 1 1 d . . .
C7 C 0.3301(6) 0.2699(4) 0.6918(6) 0.072(2) Uani 1 1 d . . .
C8 C 0.2450(5) 0.2172(3) 0.6765(5) 0.0514(16) Uani 1 1 d . . .
C9 C 0.1430(5) 0.2138(3) 0.7453(5) 0.0522(16) Uani 1 1 d . . .
C10 C 0.0505(4) 0.1645(3) 0.7178(4) 0.0383(13) Uani 1 1 d . . .
C11 C -0.501(3) -0.0708(9) 0.695(2) 0.44(3) Uani 1 1 d . . .
C12 C -0.496(3) 0.0400(9) 0.695(2) 0.33(2) Uani 1 1 d . . .
H1 H 0.3612 0.1356 0.4775 0.078 Uiso 1 1 c . . .
H2 H 0.4970 0.2271 0.5053 0.088 Uiso 1 1 c . . .
H3 H 0.4803 0.3091 0.6381 0.092 Uiso 1 1 c . . .
H4 H 0.3257 0.3043 0.7446 0.082 Uiso 1 1 c . . .
H5 H -0.108(7) 0.049(5) 0.350(7) 0.110 Uiso 1 1 d . . .
H6 H -0.158(5) 0.083(5) 0.431(7) 0.181 Uiso 1 1 d D . .
H7 H -0.126(6) 0.021(4) 0.689(6) 0.101 Uiso 1 1 d . . .
H8 H -0.265(6) -0.019(7) 0.706(10) 0.265 Uiso 1 1 d D . .
H9 H 0.229(8) 0.369(5) 1.031(7) 0.171 Uiso 1 1 d D . .
H10 H 0.268(6) 0.309(3) 0.956(6) 0.033 Uiso 1 1 d . . .
H11 H -0.5814 -0.0613 0.6700 0.438 Uiso 1 1 c . . .
H12 H -0.4815 -0.1168 0.6666 0.438 Uiso 1 1 c . . .
H13 H -0.4752 0.0843 0.6729 0.361 Uiso 1 1 c . . .
H14 H -0.5812 0.0333 0.6753 0.361 Uiso 1 1 c . . .

loop_
_atom_site_aniso_label
_atom_site_aniso_U_11
_atom_site_aniso_U_22
_atom_site_aniso_U_33
_atom_site_aniso_U_23
_atom_site_aniso_U_13
_atom_site_aniso_U_12
Cu1 0.0541(6) 0.0387(5) 0.0583(7) -0.0073(7) -0.0013(5) -0.0064(7)
O1 0.050(3) 0.049(2) 0.059(3) -0.010(2) 0.009(2) -0.010(2)
O2 0.058(3) 0.060(3) 0.070(3) -0.014(2) 0.014(2) -0.006(2)
O3 0.095(4) 0.085(4) 0.077(4) -0.041(3) 0.014(3) -0.040(3)
O4 0.083(4) 0.058(3) 0.075(4) 0.001(3) -0.008(3) -0.007(3)
O5 0.093(4) 0.137(5) 0.076(3) 0.014(4) -0.006(3) -0.042(5)
O6 0.213(9) 0.147(9) 0.128(8) -0.007(6) -0.015(6) -0.109(8)
O7 0.161(9) 0.318(19) 0.218(11) 0.002(11) 0.047(8) -0.076(10)
C1 0.040(4) 0.039(4) 0.045(4) 0.005(3) 0.001(3) -0.002(3)
C2 0.054(4) 0.036(3) 0.045(4) 0.006(3) 0.003(3) 0.001(3)
C3 0.040(4) 0.051(4) 0.051(4) 0.012(3) 0.002(3) -0.002(3)
C4 0.055(5) 0.068(5) 0.067(5) 0.014(4) -0.001(4) -0.006(4)
C5 0.053(5) 0.102(6) 0.067(5) 0.027(5) -0.001(4) -0.021(4)
C6 0.061(5) 0.096(6) 0.072(5) 0.019(5) -0.018(4) -0.041(4)
C7 0.067(5) 0.076(5) 0.071(6) 0.010(4) -0.023(4) -0.033(4)
C8 0.050(4) 0.051(4) 0.052(4) 0.015(3) -0.008(3) -0.008(3)
C9 0.060(4) 0.042(4) 0.055(4) 0.000(3) -0.005(3) -0.008(3)
C10 0.042(4) 0.031(3) 0.042(3) 0.007(3) -0.001(2) -0.001(2)
C11 0.46(3) 0.26(2) 0.63(6) -0.28(3) 0.42(4) -0.21(3)
C12 0.25(2) 0.200(15) 0.51(6) 0.20(3) -0.12(3) 0.07(2)

_geom_special_details            
;
All esds (except the esd in the dihedral angle between two l.s. planes)
are estimated using the full covariance matrix.  The cell esds are taken
into account individually in the estimation of esds in distances, angles
and torsion angles; correlations between esds in cell parameters are only
used when they are defined by crystal symmetry.  An approximate (isotropic)
treatment of cell esds is used for estimating esds involving l.s. planes.
;

loop_
_geom_bond_atom_site_label_1
_geom_bond_atom_site_label_2
_geom_bond_distance
_geom_bond_site_symmetry_2
_geom_bond_publ_flag
Cu1 O1 1.943(4) 5_556 ?
Cu1 O1 1.943(4) . ?
Cu1 O4 2.001(5) . ?
Cu1 O4 2.001(5) 5_556 ?
Cu1 O2 2.360(4) . ?
Cu1 O2 2.360(4) 5_556 ?
O1 C1 1.297(6) . ?
O2 C2 1.219(6) . ?
O3 C9 1.228(7) . ?
O7 C11 1.266(16) . ?
O7 C12 1.40(2) . ?
C1 C10 1.353(7) . ?
C1 C2 1.497(7) . ?
C2 C3 1.491(8) . ?
C3 C4 1.390(8) . ?
C3 C8 1.402(8) . ?
C4 C5 1.385(9) . ?
C5 C6 1.368(10) . ?
C6 C7 1.384(10) . ?
C7 C8 1.397(8) . ?
C8 C9 1.501(9) . ?
C9 C10 1.440(8) . ?
C10 C10 1.457(10) 2_556 ?
C11 C11 1.38(6) 2_456 ?
C12 C12 1.41(6) 2_456 ?

loop_
_geom_angle_atom_site_label_1
_geom_angle_atom_site_label_2
_geom_angle_atom_site_label_3
_geom_angle
_geom_angle_site_symmetry_1
_geom_angle_site_symmetry_3
_geom_angle_publ_flag
O1 Cu1 O1 180.00(15) 5_556 . ?
O1 Cu1 O4 90.88(18) 5_556 . ?
O1 Cu1 O4 89.12(18) . . ?
O4 Cu1 O4 180.0(3) . 5_556 ?
O1 Cu1 O2 103.99(15) 5_556 . ?
O1 Cu1 O2 76.01(15) . . ?
O4 Cu1 O2 92.51(18) . . ?
O4 Cu1 O2 87.49(18) 5_556 . ?
O2 Cu1 O2 180.00(17) . 5_556 ?
C1 O1 Cu1 121.5(4) . . ?
C2 O2 Cu1 106.7(4) . . ?
C11 O7 C12 100.2(18) . . ?
O1 C1 C10 123.6(5) . . ?
O1 C1 C2 114.6(5) . . ?
C10 C1 C2 121.7(5) . . ?
O2 C2 C3 120.7(6) . . ?
O2 C2 C1 121.1(5) . . ?
C3 C2 C1 118.2(5) . . ?
C4 C3 C8 121.3(6) . . ?
C4 C3 C2 119.9(6) . . ?
C8 C3 C2 118.7(6) . . ?
C5 C4 C3 118.6(7) . . ?
C6 C5 C4 121.2(7) . . ?
C5 C6 C7 120.1(7) . . ?
C6 C7 C8 120.7(7) . . ?
C7 C8 C3 118.0(6) . . ?
C7 C8 C9 121.2(6) . . ?
C3 C8 C9 120.7(6) . . ?
O3 C9 C10 122.4(6) . . ?
O3 C9 C8 118.6(6) . . ?
C10 C9 C8 118.9(6) . . ?
C1 C10 C9 121.2(5) . . ?
C1 C10 C10 120.4(5) . 2_556 ?
C9 C10 C10 118.3(5) . 2_556 ?
O7 C11 C11 105(3) . 2_456 ?
O7 C12 C12 105.1(15) . 2_456 ?


_diffrn_measured_fraction_theta_max 0.999
_diffrn_reflns_theta_full        30.00
_diffrn_measured_fraction_theta_full 0.999
_refine_diff_density_max         0.406
_refine_diff_density_min         -0.459
_refine_diff_density_rms         0.082
