####################################################################### 
# 
# This file contains crystal structure data downloaded from the 
# Cambridge Structural Database (CSD) hosted by the Cambridge 
# Crystallographic Data Centre (CCDC).
# 
# Full information about CCDC data access policies and citation 
# guidelines are available at http://www.ccdc.cam.ac.uk/access/V1 
# 
# Audit and citation data items may have been added by the CCDC. 
# Please retain this information to preserve the provenance of 
# this file and to allow appropriate attribution of the data. 
# 
#######################################################################

data_ZnbhnqEt
_audit_block_doi                 10.5517/cc7g4mf
_database_code_depnum_ccdc_archive 'CCDC 222134'
loop_
_citation_id
_citation_doi
_citation_year
1 10.1002/chem.200305640 2004
_audit_update_record             
;
2003-10-17 deposited with the CCDC.	2024-07-10 downloaded from the CCDC.
;

_audit_creation_method           SHELXL-97
_chemical_name_systematic        
;
?
;
_chemical_name_common            ?
_chemical_melting_point          ?
_chemical_formula_moiety         ?
_chemical_formula_sum            'C26 H30 O11 Zn'
_chemical_formula_weight         583.90

loop_
_atom_type_symbol
_atom_type_description
_atom_type_scat_dispersion_real
_atom_type_scat_dispersion_imag
_atom_type_scat_source
Zn Zn 0.2839 1.4301 'International Tables Vol C Tables 4.2.6.8 and 6.1.1.4'
C C 0.0033 0.0016 'International Tables Vol C Tables 4.2.6.8 and 6.1.1.4'
O O 0.0106 0.0060 'International Tables Vol C Tables 4.2.6.8 and 6.1.1.4'
H H 0.0000 0.0000 'International Tables Vol C Tables 4.2.6.8 and 6.1.1.4'

_symmetry_cell_setting           monoclinic
_symmetry_space_group_name_H-M   'P 1 21/n 1'
_symmetry_Int_Tables_number      14

loop_
_symmetry_equiv_pos_as_xyz
'x, y, z'
'-x+1/2, y+1/2, -z+1/2'
'-x, -y, -z'
'x-1/2, -y-1/2, z-1/2'

_cell_length_a                   24.363(3)
_cell_length_b                   8.0217(14)
_cell_length_c                   13.7451(18)
_cell_angle_alpha                90.00
_cell_angle_beta                 100.075(11)
_cell_angle_gamma                90.00
_cell_volume                     2644.8(7)
_cell_formula_units_Z            4
_cell_measurement_temperature    298
_cell_measurement_reflns_used    22
_cell_measurement_theta_min      1.5
_cell_measurement_theta_max      17.5

_exptl_crystal_description       block
_exptl_crystal_colour            red
_exptl_crystal_size_max          0.2
_exptl_crystal_size_mid          0.2
_exptl_crystal_size_min          0.1
_exptl_crystal_density_meas      ?
_exptl_crystal_density_diffrn    1.466
_exptl_crystal_density_method    'not measured'
_exptl_crystal_F_000             1216
_exptl_absorpt_coefficient_mu    0.988
_exptl_absorpt_correction_type   
;
psi-scans (North,Phillips & Matthews, 1968)
;
_exptl_absorpt_correction_T_min  0.966
_exptl_absorpt_correction_T_max  1.000
_exptl_absorpt_process_details   '(North, Phillips & Mathews, 1968)'

_exptl_special_details           
;
?
;

_diffrn_ambient_temperature      298
_diffrn_radiation_wavelength     0.71073
_diffrn_radiation_type           MoK\a
_diffrn_radiation_source         'fine-focus sealed tube'
_diffrn_radiation_monochromator  graphite
_diffrn_measurement_device_type  'Mac Science MXC3'
_diffrn_measurement_method       ?
_diffrn_detector_area_resol_mean ?
_diffrn_standards_number         ?
_diffrn_standards_interval_count ?
_diffrn_standards_interval_time  ?
_diffrn_standards_decay_%        ?
_diffrn_reflns_number            7010
_diffrn_reflns_av_R_equivalents  0.0503
_diffrn_reflns_av_sigmaI/netI    212.4430
_diffrn_reflns_limit_h_min       -31
_diffrn_reflns_limit_h_max       31
_diffrn_reflns_limit_k_min       -10
_diffrn_reflns_limit_k_max       0
_diffrn_reflns_limit_l_min       -3
_diffrn_reflns_limit_l_max       17
_diffrn_reflns_theta_min         1.59
_diffrn_reflns_theta_max         27.50
_reflns_number_total             6075
_reflns_number_gt                3850
_reflns_threshold_expression     >2sigma(I)

_computing_data_collection       ?
_computing_cell_refinement       ?
_computing_data_reduction        ?
_computing_structure_solution    'SHELXS-97 (Sheldrick, 1990)'
_computing_structure_refinement  'SHELXL-97 (Sheldrick, 1997)'
_computing_molecular_graphics    ?
_computing_publication_material  ?

_refine_special_details          
;
Refinement of F^2^ against ALL reflections.  The weighted R-factor wR and
goodness of fit S are based on F^2^, conventional R-factors R are based
on F, with F set to zero for negative F^2^. The threshold expression of
F^2^ > 2sigma(F^2^) is used only for calculating R-factors(gt) etc. and is
not relevant to the choice of reflections for refinement.  R-factors based
on F^2^ are statistically about twice as large as those based on F, and R-
factors based on ALL data will be even larger.
;

_refine_ls_structure_factor_coef Fsqd
_refine_ls_matrix_type           full
_refine_ls_weighting_scheme      calc
_refine_ls_weighting_details     
'calc w=1/[\s^2^(Fo^2^)+(0.0700P)^2^+0.0000P] where P=(Fo^2^+2Fc^2^)/3'
_atom_sites_solution_primary     direct
_atom_sites_solution_secondary   difmap
_atom_sites_solution_hydrogens   geom
_refine_ls_hydrogen_treatment    mixed
_refine_ls_extinction_method     none
_refine_ls_extinction_coef       ?
_refine_ls_number_reflns         6075
_refine_ls_number_parameters     373
_refine_ls_number_restraints     0
_refine_ls_R_factor_all          0.1254
_refine_ls_R_factor_gt           0.0596
_refine_ls_wR_factor_ref         0.1471
_refine_ls_wR_factor_gt          0.1374
_refine_ls_goodness_of_fit_ref   0.991
_refine_ls_restrained_S_all      0.991
_refine_ls_shift/su_max          0.001
_refine_ls_shift/su_mean         0.000

loop_
_atom_site_label
_atom_site_type_symbol
_atom_site_fract_x
_atom_site_fract_y
_atom_site_fract_z
_atom_site_U_iso_or_equiv
_atom_site_adp_type
_atom_site_occupancy
_atom_site_symmetry_multiplicity
_atom_site_calc_flag
_atom_site_refinement_flags
_atom_site_disorder_assembly
_atom_site_disorder_group
Zn1 Zn 0.169139(18) 0.89498(6) 0.31175(3) 0.03226(14) Uani 1 1 d . . .
O1 O 0.24224(10) 0.7834(3) 0.36436(17) 0.0309(6) Uani 1 1 d . . .
O2 O 0.15386(10) 0.7917(3) 0.45209(18) 0.0354(6) Uani 1 1 d . . .
O3 O 0.33711(12) 0.4882(4) 0.6385(2) 0.0531(9) Uani 1 1 d . . .
O4 O 0.31128(10) 0.4955(3) 0.31286(17) 0.0304(6) Uani 1 1 d . . .
O5 O 0.40768(11) 0.5124(4) 0.25190(19) 0.0365(6) Uani 1 1 d . . .
O6 O 0.38983(12) 0.8091(4) 0.5915(2) 0.0501(8) Uani 1 1 d . . .
O7 O 0.19105(13) 1.1221(4) 0.3924(2) 0.0466(7) Uani 1 1 d . . .
O8 O 0.13155(13) 0.6795(4) 0.2447(2) 0.0463(8) Uani 1 1 d . . .
O9 O 0.29940(12) 0.9019(4) 0.2233(2) 0.0393(7) Uani 1 1 d . . .
O10 O 0.0330(2) 0.6243(7) 0.3008(4) 0.1088(18) Uani 1 1 d . . .
O11 O -0.05685(19) 0.8260(7) 0.2773(3) 0.0916(16) Uani 1 1 d . . .
C1 C 0.24663(14) 0.7108(4) 0.4485(2) 0.0257(7) Uani 1 1 d . . .
C2 C 0.19467(14) 0.7158(4) 0.4949(2) 0.0267(7) Uani 1 1 d . . .
C3 C 0.19473(15) 0.6317(5) 0.5905(2) 0.0289(8) Uani 1 1 d . . .
C4 C 0.14642(17) 0.6290(5) 0.6320(3) 0.0404(10) Uani 1 1 d . . .
C5 C 0.14693(19) 0.5487(6) 0.7217(3) 0.0484(11) Uani 1 1 d . . .
C6 C 0.1944(2) 0.4704(7) 0.7671(3) 0.0519(12) Uani 1 1 d . . .
C7 C 0.24270(18) 0.4716(5) 0.7269(3) 0.0417(10) Uani 1 1 d . . .
C8 C 0.24259(16) 0.5533(5) 0.6373(3) 0.0306(8) Uani 1 1 d . . .
C9 C 0.29568(15) 0.5566(5) 0.5941(3) 0.0313(8) Uani 1 1 d . . .
C10 C 0.29464(14) 0.6400(4) 0.4987(2) 0.0269(8) Uani 1 1 d . . .
C11 C 0.34732(14) 0.6445(4) 0.4588(2) 0.0264(8) Uani 1 1 d . . .
C12 C 0.39430(15) 0.7304(5) 0.5164(3) 0.0309(8) Uani 1 1 d . . .
C13 C 0.44988(15) 0.7255(5) 0.4832(3) 0.0304(8) Uani 1 1 d . . .
C14 C 0.49605(16) 0.7973(5) 0.5405(3) 0.0405(9) Uani 1 1 d . . .
C15 C 0.54730(17) 0.7888(5) 0.5109(3) 0.0437(10) Uani 1 1 d . . .
C16 C 0.55291(16) 0.7094(6) 0.4239(3) 0.0455(11) Uani 1 1 d . . .
C17 C 0.50710(16) 0.6405(5) 0.3658(3) 0.0384(10) Uani 1 1 d . . .
C18 C 0.45502(15) 0.6488(4) 0.3940(3) 0.0307(8) Uani 1 1 d . . .
C19 C 0.40601(15) 0.5742(4) 0.3330(3) 0.0288(8) Uani 1 1 d . . .
C20 C 0.35083(14) 0.5702(4) 0.3699(2) 0.0256(7) Uani 1 1 d . . .
C21 C 0.2278(2) 1.1518(7) 0.4826(3) 0.0618(14) Uani 1 1 d . . .
C22 C 0.2881(2) 1.1521(7) 0.4731(4) 0.0690(16) Uani 1 1 d . . .
C23 C 0.0211(4) 0.4950(17) 0.3550(10) 0.178(5) Uani 1 1 d . . .
C24 C 0.0612(5) 0.3804(13) 0.3815(9) 0.161(4) Uani 1 1 d . . .
C25 C -0.0793(5) 0.9273(14) 0.3466(6) 0.139(4) Uani 1 1 d . . .
C26 C -0.1127(8) 0.882(2) 0.3957(14) 0.117(6) Uani 0.50 1 d P . .
C27 C -0.0467(8) 0.969(2) 0.4263(14) 0.131(7) Uani 0.50 1 d P . .
H1 H 0.1860(18) 1.207(6) 0.355(3) 0.046 Uiso 1 1 d . . .
H2 H 0.102(2) 0.672(7) 0.254(4) 0.065 Uiso 1 1 d . . .
H3 H 0.151(2) 0.595(7) 0.249(4) 0.065 Uiso 1 1 d . . .
H4 H 0.297(2) 0.862(7) 0.271(4) 0.065 Uiso 1 1 d . . .
H5 H 0.270(2) 0.944(7) 0.205(4) 0.065 Uiso 1 1 d . . .
H6 H -0.001(3) 0.695(9) 0.287(5) 0.110 Uiso 1 1 d . . .
H7 H -0.077(3) 0.775(9) 0.250(5) 0.090 Uiso 1 1 d . . .
H8 H 0.1117 0.6760 0.6031 0.065 Uiso 1 1 c . . .
H9 H 0.1117 0.5295 0.7632 0.065 Uiso 1 1 c . . .
H10 H 0.1974 0.4294 0.8237 0.065 Uiso 1 1 c . . .
H11 H 0.2756 0.4061 0.7556 0.065 Uiso 1 1 c . . .
H12 H 0.4919 0.8552 0.6005 0.049 Uiso 1 1 c . . .
H13 H 0.5796 0.8367 0.5521 0.051 Uiso 1 1 c . . .
H14 H 0.5884 0.7042 0.4025 0.052 Uiso 1 1 c . . .
H15 H 0.5103 0.5838 0.3055 0.042 Uiso 1 1 c . . .
H16 H 0.2343 1.0805 0.5439 0.065 Uiso 1 1 c . . .
H17 H 0.2226 1.2489 0.5238 0.065 Uiso 1 1 c . . .
H18 H 0.2980 1.0438 0.4511 0.068 Uiso 1 1 c . . .
H19 H 0.3105 1.1756 0.5363 0.068 Uiso 1 1 c . . .
H20 H 0.2946 1.2347 0.4262 0.068 Uiso 1 1 c . . .
H21 H -0.0113 0.4320 0.3177 0.205 Uiso 1 1 c . . .
H22 H 0.0092 0.5301 0.4145 0.205 Uiso 1 1 c . . .
H23 H 0.0450 0.2745 0.3914 0.161 Uiso 1 1 c . . .
H24 H 0.0832 0.3705 0.3298 0.161 Uiso 1 1 c . . .
H25 H 0.0849 0.4154 0.4412 0.161 Uiso 1 1 c . . .

loop_
_atom_site_aniso_label
_atom_site_aniso_U_11
_atom_site_aniso_U_22
_atom_site_aniso_U_33
_atom_site_aniso_U_23
_atom_site_aniso_U_13
_atom_site_aniso_U_12
Zn1 0.0327(2) 0.0377(2) 0.0271(2) 0.0101(2) 0.00714(16) 0.0049(2)
O1 0.0317(13) 0.0374(15) 0.0251(12) 0.0117(11) 0.0093(10) 0.0101(11)
O2 0.0339(14) 0.0420(16) 0.0320(14) 0.0100(12) 0.0102(11) 0.0092(12)
O3 0.0464(17) 0.079(2) 0.0340(15) 0.0210(17) 0.0074(13) 0.0207(17)
O4 0.0304(13) 0.0369(15) 0.0249(12) -0.0071(11) 0.0073(10) -0.0047(11)
O5 0.0363(14) 0.0435(17) 0.0326(14) -0.0126(13) 0.0140(11) -0.0062(12)
O6 0.0427(16) 0.070(2) 0.0377(16) -0.0265(16) 0.0063(13) -0.0024(16)
O7 0.0624(19) 0.0360(17) 0.0385(16) 0.0047(14) 0.0008(14) -0.0013(15)
O8 0.0444(18) 0.0419(18) 0.0504(18) 0.0019(16) 0.0024(15) 0.0007(15)
O9 0.0391(15) 0.0391(17) 0.0432(16) 0.0052(14) 0.0169(13) 0.0024(14)
O10 0.074(3) 0.117(4) 0.144(5) 0.049(4) 0.041(3) 0.014(3)
O11 0.073(3) 0.125(5) 0.070(3) -0.015(3) -0.008(2) 0.001(3)
C1 0.0313(18) 0.0258(18) 0.0203(16) -0.0001(14) 0.0052(14) -0.0003(15)
C2 0.0309(18) 0.0259(19) 0.0237(16) 0.0007(15) 0.0057(14) -0.0008(15)
C3 0.0369(19) 0.031(2) 0.0205(16) 0.0023(15) 0.0105(14) -0.0003(16)
C4 0.041(2) 0.046(3) 0.039(2) 0.0038(19) 0.0179(18) 0.0011(19)
C5 0.052(3) 0.060(3) 0.039(2) 0.012(2) 0.023(2) -0.006(2)
C6 0.062(3) 0.065(3) 0.031(2) 0.014(2) 0.016(2) -0.011(3)
C7 0.055(3) 0.043(2) 0.028(2) 0.0090(18) 0.0102(18) 0.006(2)
C8 0.040(2) 0.0296(19) 0.0238(17) -0.0004(15) 0.0092(15) 0.0000(16)
C9 0.038(2) 0.033(2) 0.0243(17) 0.0031(15) 0.0074(15) 0.0042(16)
C10 0.0310(18) 0.031(2) 0.0189(15) -0.0012(14) 0.0059(13) -0.0004(15)
C11 0.0275(17) 0.029(2) 0.0228(16) -0.0009(14) 0.0049(13) 0.0035(14)
C12 0.036(2) 0.031(2) 0.0250(17) -0.0024(15) 0.0038(15) 0.0007(16)
C13 0.0289(18) 0.031(2) 0.0302(18) 0.0013(16) 0.0020(15) 0.0018(15)
C14 0.036(2) 0.042(2) 0.042(2) -0.0067(19) 0.0020(17) -0.0023(18)
C15 0.032(2) 0.041(3) 0.054(3) -0.002(2) -0.0029(18) -0.0093(18)
C16 0.031(2) 0.048(3) 0.059(3) -0.002(2) 0.0108(19) -0.0002(19)
C17 0.0305(19) 0.043(3) 0.044(2) -0.0070(19) 0.0115(17) 0.0004(17)
C18 0.0311(18) 0.027(2) 0.0348(19) -0.0009(15) 0.0079(15) -0.0010(15)
C19 0.0325(18) 0.027(2) 0.0284(18) -0.0036(15) 0.0089(15) 0.0001(14)
C20 0.0282(17) 0.0251(19) 0.0243(16) 0.0010(14) 0.0063(14) 0.0012(14)
C21 0.090(4) 0.059(3) 0.032(2) -0.008(2) 0.000(2) -0.011(3)
C22 0.078(4) 0.055(3) 0.066(3) 0.012(3) -0.010(3) -0.017(3)
C23 0.129(8) 0.193(12) 0.226(13) 0.103(11) 0.073(8) 0.063(8)
C24 0.203(12) 0.104(7) 0.179(11) 0.024(7) 0.046(9) 0.008(8)
C25 0.161(9) 0.189(10) 0.057(4) -0.041(6) -0.012(5) 0.065(8)
C26 0.139(15) 0.115(13) 0.119(13) -0.023(11) 0.085(12) 0.005(11)
C27 0.142(16) 0.110(13) 0.120(14) -0.012(12) -0.030(12) 0.012(12)

_geom_special_details            
;
All esds (except the esd in the dihedral angle between two l.s. planes)
are estimated using the full covariance matrix.  The cell esds are taken
into account individually in the estimation of esds in distances, angles
and torsion angles; correlations between esds in cell parameters are only
used when they are defined by crystal symmetry.  An approximate (isotropic)
treatment of cell esds is used for estimating esds involving l.s. planes.
;

loop_
_geom_bond_atom_site_label_1
_geom_bond_atom_site_label_2
_geom_bond_distance
_geom_bond_site_symmetry_2
_geom_bond_publ_flag
Zn1 O1 2.011(2) . ?
Zn1 O4 2.024(2) 2 ?
Zn1 O8 2.093(3) . ?
Zn1 O5 2.141(3) 2 ?
Zn1 O7 2.151(3) . ?
Zn1 O2 2.190(2) . ?
O1 C1 1.283(4) . ?
O2 C2 1.225(4) . ?
O3 C9 1.215(4) . ?
O4 C20 1.280(4) . ?
O5 C19 1.227(4) . ?
O6 C12 1.230(4) . ?
O7 C21 1.417(5) . ?
O10 C23 1.339(11) . ?
O11 C25 1.431(9) . ?
C1 C10 1.372(5) . ?
C1 C2 1.515(5) . ?
C2 C3 1.477(5) . ?
C3 C8 1.381(5) . ?
C3 C4 1.395(5) . ?
C4 C5 1.389(6) . ?
C5 C6 1.367(7) . ?
C6 C7 1.385(6) . ?
C7 C8 1.394(5) . ?
C8 C9 1.515(5) . ?
C9 C10 1.469(5) . ?
C10 C11 1.481(5) . ?
C11 C20 1.376(5) . ?
C11 C12 1.447(5) . ?
C12 C13 1.504(5) . ?
C13 C14 1.381(5) . ?
C13 C18 1.396(5) . ?
C14 C15 1.381(6) . ?
C15 C16 1.382(6) . ?
C16 C17 1.370(6) . ?
C17 C18 1.392(5) . ?
C18 C19 1.462(5) . ?
C19 C20 1.518(5) . ?
C21 C22 1.496(8) . ?
C23 C24 1.345(13) . ?
C25 C26 1.201(16) . ?
C25 C27 1.280(17) . ?

loop_
_geom_angle_atom_site_label_1
_geom_angle_atom_site_label_2
_geom_angle_atom_site_label_3
_geom_angle
_geom_angle_site_symmetry_1
_geom_angle_site_symmetry_3
_geom_angle_publ_flag
O1 Zn1 O2 77.94(9) . . ?
O1 Zn1 O4 99.00(9) . 2 ?
O1 Zn1 O8 94.74(12) . . ?
O1 Zn1 O5 176.99(9) . 2 ?
O1 Zn1 O7 93.86(12) . . ?
O4 Zn1 O2 175.90(10) 2 . ?
O8 Zn1 O2 86.94(12) . . ?
O5 Zn1 O2 104.80(9) 2 . ?
O7 Zn1 O2 86.09(11) . . ?
O4 Zn1 O8 96.09(12) 2 . ?
O4 Zn1 O7 91.41(11) 2 . ?
O4 Zn1 O5 78.32(9) 2 2 ?
O8 Zn1 O5 84.24(12) . 2 ?
O5 Zn1 O7 87.60(12) 2 . ?
O8 Zn1 O7 167.57(13) . . ?
C1 O1 Zn1 117.1(2) . . ?
C2 O2 Zn1 111.3(2) . . ?
C20 O4 Zn1 116.2(2) . 2_545 ?
C19 O5 Zn1 112.5(2) . 2_545 ?
C21 O7 Zn1 130.9(3) . . ?
O1 C1 C10 124.8(3) . . ?
O1 C1 C2 115.1(3) . . ?
C10 C1 C2 120.1(3) . . ?
O2 C2 C3 121.9(3) . . ?
O2 C2 C1 118.6(3) . . ?
C3 C2 C1 119.5(3) . . ?
C8 C3 C4 120.4(3) . . ?
C8 C3 C2 119.5(3) . . ?
C4 C3 C2 120.1(3) . . ?
C5 C4 C3 119.5(4) . . ?
C6 C5 C4 119.6(4) . . ?
C5 C6 C7 121.7(4) . . ?
C6 C7 C8 119.0(4) . . ?
C3 C8 C7 119.8(3) . . ?
C3 C8 C9 121.2(3) . . ?
C7 C8 C9 119.0(3) . . ?
O3 C9 C10 122.5(3) . . ?
O3 C9 C8 119.1(3) . . ?
C10 C9 C8 118.4(3) . . ?
C1 C10 C9 121.2(3) . . ?
C1 C10 C11 121.4(3) . . ?
C9 C10 C11 117.4(3) . . ?
C20 C11 C12 121.8(3) . . ?
C20 C11 C10 120.7(3) . . ?
C12 C11 C10 117.6(3) . . ?
O6 C12 C11 121.7(3) . . ?
O6 C12 C13 119.0(3) . . ?
C11 C12 C13 119.3(3) . . ?
C14 C13 C18 119.7(3) . . ?
C14 C13 C12 120.2(3) . . ?
C18 C13 C12 120.1(3) . . ?
C15 C14 C13 119.9(4) . . ?
C14 C15 C16 120.6(4) . . ?
C17 C16 C15 119.8(4) . . ?
C16 C17 C18 120.5(4) . . ?
C17 C18 C13 119.4(3) . . ?
C17 C18 C19 120.9(3) . . ?
C13 C18 C19 119.6(3) . . ?
O5 C19 C18 122.2(3) . . ?
O5 C19 C20 117.9(3) . . ?
C18 C19 C20 119.9(3) . . ?
O4 C20 C11 126.2(3) . . ?
O4 C20 C19 114.9(3) . . ?
C11 C20 C19 118.9(3) . . ?
O7 C21 C22 113.9(4) . . ?
O10 C23 C24 117.5(10) . . ?
C26 C25 O11 125.1(14) . . ?
C27 C25 O11 117.9(13) . . ?

_diffrn_measured_fraction_theta_max 0.999
_diffrn_reflns_theta_full        27.50
_diffrn_measured_fraction_theta_full 0.999
_refine_diff_density_max         0.544
_refine_diff_density_min         -0.610
_refine_diff_density_rms         0.094
