####################################################################### 
# 
# This file contains crystal structure data downloaded from the 
# Cambridge Structural Database (CSD) hosted by the Cambridge 
# Crystallographic Data Centre (CCDC).
# 
# Full information about CCDC data access policies and citation 
# guidelines are available at http://www.ccdc.cam.ac.uk/access/V1 
# 
# Audit and citation data items may have been added by the CCDC. 
# Please retain this information to preserve the provenance of 
# this file and to allow appropriate attribution of the data. 
# 
#######################################################################

data_1a
_audit_block_doi                 10.5517/ccvygnw
_database_code_depnum_ccdc_archive 'CCDC 802889'
loop_
_citation_id
_citation_doi
_citation_year
1 10.1021/ic200381f 2011
_audit_update_record             
;
2010-12-01 deposited with the CCDC.	2024-07-10 downloaded from the CCDC.
;
_audit_creation_method           SHELXL-97
_chemical_name_systematic        
;
?
;
_chemical_name_common            ?
_chemical_melting_point          ?
_chemical_formula_moiety         ?
_chemical_formula_sum            'C8 H9 N Ni O4'
_chemical_formula_weight         241.87

loop_
_atom_type_symbol
_atom_type_description
_atom_type_scat_dispersion_real
_atom_type_scat_dispersion_imag
_atom_type_scat_source
C C 0.0033 0.0016 'International Tables Vol C Tables 4.2.6.8 and 6.1.1.4'
H H 0.0000 0.0000 'International Tables Vol C Tables 4.2.6.8 and 6.1.1.4'
O O 0.0106 0.0060 'International Tables Vol C Tables 4.2.6.8 and 6.1.1.4'
Ni Ni 0.3393 1.1124 'International Tables Vol C Tables 4.2.6.8 and 6.1.1.4'
N N 0.0061 0.0033 'International Tables Vol C Tables 4.2.6.8 and 6.1.1.4'

_symmetry_cell_setting           cubic
_symmetry_space_group_name_H-M   ' F m -3 m'

loop_
_symmetry_equiv_pos_as_xyz
'x, y, z'
'x, -y, -z'
'-x, -y, z'
'-x, y, -z'
'-y, x, z'
'y, x, -z'
'y, -x, z'
'-y, -x, -z'
'y, z, x'
'-y, -z, x'
'y, -z, -x'
'-y, z, -x'
'-z, y, x'
'-z, -y, -x'
'z, -y, x'
'z, y, -x'
'z, x, y'
'-z, x, -y'
'-z, -x, y'
'z, -x, -y'
'-x, -z, -y'
'-x, z, y'
'x, -z, y'
'x, z, -y'
'x, y+1/2, z+1/2'
'x, -y+1/2, -z+1/2'
'-x, -y+1/2, z+1/2'
'-x, y+1/2, -z+1/2'
'-y, x+1/2, z+1/2'
'y, x+1/2, -z+1/2'
'y, -x+1/2, z+1/2'
'-y, -x+1/2, -z+1/2'
'y, z+1/2, x+1/2'
'-y, -z+1/2, x+1/2'
'y, -z+1/2, -x+1/2'
'-y, z+1/2, -x+1/2'
'-z, y+1/2, x+1/2'
'-z, -y+1/2, -x+1/2'
'z, -y+1/2, x+1/2'
'z, y+1/2, -x+1/2'
'z, x+1/2, y+1/2'
'-z, x+1/2, -y+1/2'
'-z, -x+1/2, y+1/2'
'z, -x+1/2, -y+1/2'
'-x, -z+1/2, -y+1/2'
'-x, z+1/2, y+1/2'
'x, -z+1/2, y+1/2'
'x, z+1/2, -y+1/2'
'x+1/2, y, z+1/2'
'x+1/2, -y, -z+1/2'
'-x+1/2, -y, z+1/2'
'-x+1/2, y, -z+1/2'
'-y+1/2, x, z+1/2'
'y+1/2, x, -z+1/2'
'y+1/2, -x, z+1/2'
'-y+1/2, -x, -z+1/2'
'y+1/2, z, x+1/2'
'-y+1/2, -z, x+1/2'
'y+1/2, -z, -x+1/2'
'-y+1/2, z, -x+1/2'
'-z+1/2, y, x+1/2'
'-z+1/2, -y, -x+1/2'
'z+1/2, -y, x+1/2'
'z+1/2, y, -x+1/2'
'z+1/2, x, y+1/2'
'-z+1/2, x, -y+1/2'
'-z+1/2, -x, y+1/2'
'z+1/2, -x, -y+1/2'
'-x+1/2, -z, -y+1/2'
'-x+1/2, z, y+1/2'
'x+1/2, -z, y+1/2'
'x+1/2, z, -y+1/2'
'x+1/2, y+1/2, z'
'x+1/2, -y+1/2, -z'
'-x+1/2, -y+1/2, z'
'-x+1/2, y+1/2, -z'
'-y+1/2, x+1/2, z'
'y+1/2, x+1/2, -z'
'y+1/2, -x+1/2, z'
'-y+1/2, -x+1/2, -z'
'y+1/2, z+1/2, x'
'-y+1/2, -z+1/2, x'
'y+1/2, -z+1/2, -x'
'-y+1/2, z+1/2, -x'
'-z+1/2, y+1/2, x'
'-z+1/2, -y+1/2, -x'
'z+1/2, -y+1/2, x'
'z+1/2, y+1/2, -x'
'z+1/2, x+1/2, y'
'-z+1/2, x+1/2, -y'
'-z+1/2, -x+1/2, y'
'z+1/2, -x+1/2, -y'
'-x+1/2, -z+1/2, -y'
'-x+1/2, z+1/2, y'
'x+1/2, -z+1/2, y'
'x+1/2, z+1/2, -y'
'-x, -y, -z'
'-x, y, z'
'x, y, -z'
'x, -y, z'
'y, -x, -z'
'-y, -x, z'
'-y, x, -z'
'y, x, z'
'-y, -z, -x'
'y, z, -x'
'-y, z, x'
'y, -z, x'
'z, -y, -x'
'z, y, x'
'-z, y, -x'
'-z, -y, x'
'-z, -x, -y'
'z, -x, y'
'z, x, -y'
'-z, x, y'
'x, z, y'
'x, -z, -y'
'-x, z, -y'
'-x, -z, y'
'-x, -y+1/2, -z+1/2'
'-x, y+1/2, z+1/2'
'x, y+1/2, -z+1/2'
'x, -y+1/2, z+1/2'
'y, -x+1/2, -z+1/2'
'-y, -x+1/2, z+1/2'
'-y, x+1/2, -z+1/2'
'y, x+1/2, z+1/2'
'-y, -z+1/2, -x+1/2'
'y, z+1/2, -x+1/2'
'-y, z+1/2, x+1/2'
'y, -z+1/2, x+1/2'
'z, -y+1/2, -x+1/2'
'z, y+1/2, x+1/2'
'-z, y+1/2, -x+1/2'
'-z, -y+1/2, x+1/2'
'-z, -x+1/2, -y+1/2'
'z, -x+1/2, y+1/2'
'z, x+1/2, -y+1/2'
'-z, x+1/2, y+1/2'
'x, z+1/2, y+1/2'
'x, -z+1/2, -y+1/2'
'-x, z+1/2, -y+1/2'
'-x, -z+1/2, y+1/2'
'-x+1/2, -y, -z+1/2'
'-x+1/2, y, z+1/2'
'x+1/2, y, -z+1/2'
'x+1/2, -y, z+1/2'
'y+1/2, -x, -z+1/2'
'-y+1/2, -x, z+1/2'
'-y+1/2, x, -z+1/2'
'y+1/2, x, z+1/2'
'-y+1/2, -z, -x+1/2'
'y+1/2, z, -x+1/2'
'-y+1/2, z, x+1/2'
'y+1/2, -z, x+1/2'
'z+1/2, -y, -x+1/2'
'z+1/2, y, x+1/2'
'-z+1/2, y, -x+1/2'
'-z+1/2, -y, x+1/2'
'-z+1/2, -x, -y+1/2'
'z+1/2, -x, y+1/2'
'z+1/2, x, -y+1/2'
'-z+1/2, x, y+1/2'
'x+1/2, z, y+1/2'
'x+1/2, -z, -y+1/2'
'-x+1/2, z, -y+1/2'
'-x+1/2, -z, y+1/2'
'-x+1/2, -y+1/2, -z'
'-x+1/2, y+1/2, z'
'x+1/2, y+1/2, -z'
'x+1/2, -y+1/2, z'
'y+1/2, -x+1/2, -z'
'-y+1/2, -x+1/2, z'
'-y+1/2, x+1/2, -z'
'y+1/2, x+1/2, z'
'-y+1/2, -z+1/2, -x'
'y+1/2, z+1/2, -x'
'-y+1/2, z+1/2, x'
'y+1/2, -z+1/2, x'
'z+1/2, -y+1/2, -x'
'z+1/2, y+1/2, x'
'-z+1/2, y+1/2, -x'
'-z+1/2, -y+1/2, x'
'-z+1/2, -x+1/2, -y'
'z+1/2, -x+1/2, y'
'z+1/2, x+1/2, -y'
'-z+1/2, x+1/2, y'
'x+1/2, z+1/2, y'
'x+1/2, -z+1/2, -y'
'-x+1/2, z+1/2, -y'
'-x+1/2, -z+1/2, y'

_cell_length_a                   26.5941(7)
_cell_length_b                   26.5941(7)
_cell_length_c                   26.5941(7)
_cell_angle_alpha                90.00
_cell_angle_beta                 90.00
_cell_angle_gamma                90.00
_cell_volume                     18808.6(9)
_cell_formula_units_Z            48
_cell_measurement_temperature    293(2)
_cell_measurement_reflns_used    43034
_cell_measurement_theta_min      1.325
_cell_measurement_theta_max      27.215

_exptl_crystal_description       octahedral
_exptl_crystal_colour            'dark green'
_exptl_crystal_size_max          ?
_exptl_crystal_size_mid          ?
_exptl_crystal_size_min          ?
_exptl_crystal_density_meas      ?
_exptl_crystal_density_diffrn    1.025
_exptl_crystal_density_method    'not measured'
_exptl_crystal_F_000             5952
_exptl_absorpt_coefficient_mu    1.229
_exptl_absorpt_correction_type   numerical
_exptl_absorpt_correction_T_min  0.7674
_exptl_absorpt_correction_T_max  0.8967
_exptl_absorpt_process_details   'STOE XRED rev 1.19 and X-SHAPE rev 1.06'

_exptl_special_details           
;
?
;

_diffrn_ambient_temperature      293(2)
_diffrn_radiation_wavelength     0.71073
_diffrn_radiation_type           MoK\a
_diffrn_radiation_source         'fine-focus sealed tube'
_diffrn_radiation_monochromator  graphite
_diffrn_measurement_device_type  'STOE IPDS-1'
_diffrn_measurement_method       'Phi scans'
_diffrn_detector_area_resol_mean ?
_diffrn_standards_number         ?
_diffrn_standards_interval_count ?
_diffrn_standards_interval_time  ?
_diffrn_standards_decay_%        ?
_diffrn_reflns_number            42290
_diffrn_reflns_av_R_equivalents  0.0538
_diffrn_reflns_av_sigmaI/netI    0.0095
_diffrn_reflns_limit_h_min       -33
_diffrn_reflns_limit_h_max       33
_diffrn_reflns_limit_k_min       -33
_diffrn_reflns_limit_k_max       33
_diffrn_reflns_limit_l_min       -32
_diffrn_reflns_limit_l_max       33
_diffrn_reflns_theta_min         1.33
_diffrn_reflns_theta_max         26.87
_reflns_number_total             1061
_reflns_number_gt                1031
_reflns_threshold_expression     >2sigma(I)

_computing_data_collection       'X-Area (Stoe, 2008)'
_computing_cell_refinement       'X-Area (Stoe, 2008)'
_computing_data_reduction        'X-Area (Stoe, 2008)'
_computing_structure_solution    'SHELXS-97 (Sheldrick, 1990)'
_computing_structure_refinement  'SHELXL-97 (Sheldrick, 1997)'
_computing_molecular_graphics    ?
_computing_publication_material  ?

_refine_special_details          
;
Refinement of F^2^ against ALL reflections. The weighted R-factor wR and
goodness of fit S are based on F^2^, conventional R-factors R are based
on F, with F set to zero for negative F^2^. The threshold expression of
F^2^ > 2sigma(F^2^) is used only for calculating R-factors(gt) etc. and is
not relevant to the choice of reflections for refinement. R-factors based
on F^2^ are statistically about twice as large as those based on F, and R-
factors based on ALL data will be even larger.
;
# SQUEEZE RESULTS (APPEND TO CIF)
# Note: Data are Listed for all Voids in the P1 Unit Cell
# i.e. Centre of Gravity, Solvent Accessible Volume,
# Recovered number of Electrons in the Void and
# Details about the Squeezed Material
loop_
_platon_squeeze_void_nr
_platon_squeeze_void_average_x
_platon_squeeze_void_average_y
_platon_squeeze_void_average_z
_platon_squeeze_void_volume
_platon_squeeze_void_count_electrons
_platon_squeeze_void_content
1 -0.063 -0.098 -0.074 8215 1280 ' '
2 0.250 0.250 0.250 236 23 ' '
3 0.750 0.250 0.250 236 23 ' '
4 0.250 0.250 0.750 236 23 ' '
5 0.750 0.250 0.750 236 23 ' '
6 0.250 0.750 0.250 236 23 ' '
7 0.750 0.750 0.250 236 23 ' '
8 0.250 0.750 0.750 236 23 ' '
9 0.750 0.750 0.750 236 23 ' '
_platon_squeeze_details          
;
the highly disordered solvents within the void were not crystallographically
well defined.

The SQUEEZE routine of the program PLATON was used
in order to eliminate the contribution of disordered solvents molecules,
thereby a final model based only on the ordered part of the crystal structure
was obtained.

The SQUEEZE routine suggested that
a total potential solvent area volume of 10196.3 Ang^3^[54.2% of cell volume].

Refinement after the SQUEEZE routine gave significantly improved R values.
[R values before SQUEEZE]
R1 = 0.1144, wR2 = 0.4037 for >2sigma(I) data
R1 = 0.1161, wR2 = 0.4049, GooF = S = 1.962 for all data
( 1062 data and 0 restraint / 37 parameters)
;
_refine_ls_structure_factor_coef Fsqd
_refine_ls_matrix_type           full
_refine_ls_weighting_scheme      calc
_refine_ls_weighting_details     
'calc w=1/[\s^2^(Fo^2^)+(0.0773P)^2^+101.0469P] where P=(Fo^2^+2Fc^2^)/3'
_atom_sites_solution_primary     direct
_atom_sites_solution_secondary   difmap
_atom_sites_solution_hydrogens   geom
_refine_ls_hydrogen_treatment    mixed
_refine_ls_extinction_method     none
_refine_ls_extinction_coef       ?
_refine_ls_number_reflns         1061
_refine_ls_number_parameters     42
_refine_ls_number_restraints     0
_refine_ls_R_factor_all          0.0702
_refine_ls_R_factor_gt           0.0680
_refine_ls_wR_factor_ref         0.1844
_refine_ls_wR_factor_gt          0.1832
_refine_ls_goodness_of_fit_ref   1.271
_refine_ls_restrained_S_all      1.271
_refine_ls_shift/su_max          0.000
_refine_ls_shift/su_mean         0.000

loop_
_atom_site_label
_atom_site_type_symbol
_atom_site_fract_x
_atom_site_fract_y
_atom_site_fract_z
_atom_site_U_iso_or_equiv
_atom_site_adp_type
_atom_site_occupancy
_atom_site_symmetry_multiplicity
_atom_site_calc_flag
_atom_site_refinement_flags
_atom_site_disorder_assembly
_atom_site_disorder_group
Ni1 Ni 0.28607(2) 0.5000 0.28607(2) 0.0480(4) Uani 1 4 d S . .
O1 O 0.24227(12) 0.44675(11) 0.31697(12) 0.0722(9) Uani 1 1 d . . .
N2 N 0.3385(2) 0.5000 0.3385(2) 0.123(4) Uani 1 4 d S . .
H1N H 0.3620 0.5000 0.3620 0.185 Uiso 1 4 d SR . .
C1 C 0.20208(16) 0.4306(2) 0.29792(16) 0.0586(13) Uani 1 2 d S . .
C2 C 0.17777(16) 0.3864(2) 0.32223(16) 0.0583(14) Uani 1 2 d S . .
C3 C 0.1985(2) 0.36498(17) 0.36498(17) 0.0620(14) Uani 1 2 d S . .
H3A H 0.2268 0.3795 0.3795 0.074 Uiso 1 2 calc SR . .
C4 C 0.3550(6) 0.547(2) 0.3550(6) 0.64(6) Uani 1 2 d S . .
H4C H 0.3801 0.5430 0.3806 0.769 Uiso 1 2 calc SR . .
H4B H 0.3270 0.5657 0.3685 0.769 Uiso 0.50 1 calc PR . .
H4A H 0.3691 0.5654 0.3272 0.769 Uiso 0.50 1 calc PR . .

loop_
_atom_site_aniso_label
_atom_site_aniso_U_11
_atom_site_aniso_U_22
_atom_site_aniso_U_33
_atom_site_aniso_U_23
_atom_site_aniso_U_13
_atom_site_aniso_U_12
Ni1 0.0497(4) 0.0447(5) 0.0497(4) 0.000 -0.0126(4) 0.000
O1 0.074(2) 0.0648(18) 0.078(2) 0.0162(15) -0.0106(16) -0.0209(15)
N2 0.124(6) 0.121(8) 0.124(6) 0.000 -0.088(8) 0.000
C1 0.059(2) 0.058(3) 0.059(2) 0.0025(17) 0.008(3) -0.0025(17)
C2 0.062(2) 0.051(3) 0.062(2) 0.0097(19) -0.007(3) -0.0097(19)
C3 0.058(3) 0.064(2) 0.064(2) 0.004(3) -0.010(2) -0.010(2)
C4 0.35(2) 1.22(16) 0.35(2) -0.29(4) -0.15(3) -0.29(4)

_geom_special_details            
;
All esds (except the esd in the dihedral angle between two l.s. planes)
are estimated using the full covariance matrix. The cell esds are taken
into account individually in the estimation of esds in distances, angles
and torsion angles; correlations between esds in cell parameters are only
used when they are defined by crystal symmetry. An approximate (isotropic)
treatment of cell esds is used for estimating esds involving l.s. planes.
;

loop_
_geom_bond_atom_site_label_1
_geom_bond_atom_site_label_2
_geom_bond_distance
_geom_bond_site_symmetry_2
_geom_bond_publ_flag
Ni1 N2 1.973(9) . ?
Ni1 O1 2.009(3) 110 ?
Ni1 O1 2.009(3) . ?
Ni1 O1 2.009(3) 15_565 ?
Ni1 O1 2.009(3) 100_565 ?
Ni1 Ni1 2.7130(18) 145_565 ?
O1 C1 1.259(4) . ?
N2 C4 1.40(4) 100_565 ?
N2 C4 1.40(4) . ?
C1 O1 1.259(4) 159 ?
C1 C2 1.489(8) . ?
C2 C3 1.386(4) . ?
C2 C3 1.386(4) 60 ?
C3 C2 1.386(4) 91 ?

loop_
_geom_angle_atom_site_label_1
_geom_angle_atom_site_label_2
_geom_angle_atom_site_label_3
_geom_angle
_geom_angle_site_symmetry_1
_geom_angle_site_symmetry_3
_geom_angle_publ_flag
N2 Ni1 O1 96.93(9) . 110 ?
N2 Ni1 O1 96.93(9) . . ?
O1 Ni1 O1 88.7(2) 110 . ?
N2 Ni1 O1 96.93(9) . 15_565 ?
O1 Ni1 O1 89.6(2) 110 15_565 ?
O1 Ni1 O1 166.14(19) . 15_565 ?
N2 Ni1 O1 96.93(9) . 100_565 ?
O1 Ni1 O1 166.14(19) 110 100_565 ?
O1 Ni1 O1 89.6(2) . 100_565 ?
O1 Ni1 O1 88.7(2) 15_565 100_565 ?
N2 Ni1 Ni1 180.00(4) . 145_565 ?
O1 Ni1 Ni1 83.07(9) 110 145_565 ?
O1 Ni1 Ni1 83.07(9) . 145_565 ?
O1 Ni1 Ni1 83.07(9) 15_565 145_565 ?
O1 Ni1 Ni1 83.07(9) 100_565 145_565 ?
C1 O1 Ni1 124.6(3) . . ?
C4 N2 C4 128(3) 100_565 . ?
C4 N2 Ni1 116.2(17) 100_565 . ?
C4 N2 Ni1 116.2(17) . . ?
O1 C1 O1 124.5(5) . 159 ?
O1 C1 C2 117.6(3) . . ?
O1 C1 C2 117.6(3) 159 . ?
C3 C2 C3 119.0(6) . 60 ?
C3 C2 C1 120.5(3) . . ?
C3 C2 C1 120.5(3) 60 . ?
C2 C3 C2 121.0(6) . 91 ?

_diffrn_measured_fraction_theta_max 0.986
_diffrn_reflns_theta_full        26.87
_diffrn_measured_fraction_theta_full 0.986
_refine_diff_density_max         0.585
_refine_diff_density_min         -0.866
_refine_diff_density_rms         0.071
