####################################################################### 
# 
# This file contains crystal structure data downloaded from the 
# Cambridge Structural Database (CSD) hosted by the Cambridge 
# Crystallographic Data Centre (CCDC).
# 
# Full information about CCDC data access policies and citation 
# guidelines are available at http://www.ccdc.cam.ac.uk/access/V1 
# 
# Audit and citation data items may have been added by the CCDC. 
# Please retain this information to preserve the provenance of 
# this file and to allow appropriate attribution of the data. 
# 
#######################################################################

data_AgbtreClO4
_audit_block_doi                 10.5517/cctjvgm
_database_code_depnum_ccdc_archive 'CCDC 760971'
loop_
_citation_id
_citation_doi
_citation_year
1 10.1016/j.inoche.2010.04.009 2010
2 10.1016/j.ica.2011.07.040 2011
_audit_update_record             
;
2010-01-08 deposited with the CCDC.	2024-07-10 downloaded from the CCDC.
;
#TrackingRef '- AgbtreCIF.cif'


_audit_creation_method           SHELXL-97
_chemical_name_systematic        
;
?
;
_chemical_name_common            ?
_chemical_melting_point          ?
_chemical_formula_moiety         ?
_chemical_formula_sum            'C6 H8 Ag Cl N6 O4'
_chemical_formula_weight         371.50

loop_
_atom_type_symbol
_atom_type_description
_atom_type_scat_dispersion_real
_atom_type_scat_dispersion_imag
_atom_type_scat_source
C C 0.0033 0.0016 'International Tables Vol C Tables 4.2.6.8 and 6.1.1.4'
H H 0.0000 0.0000 'International Tables Vol C Tables 4.2.6.8 and 6.1.1.4'
N N 0.0061 0.0033 'International Tables Vol C Tables 4.2.6.8 and 6.1.1.4'
O O 0.0106 0.0060 'International Tables Vol C Tables 4.2.6.8 and 6.1.1.4'
Ag Ag -0.8971 1.1015 'International Tables Vol C Tables 4.2.6.8 and 6.1.1.4'
Cl Cl 0.1484 0.1585 'International Tables Vol C Tables 4.2.6.8 and 6.1.1.4'

_symmetry_cell_setting           Orthorhombic
_symmetry_space_group_name_H-M   Cccm(#66)

loop_
_symmetry_equiv_pos_as_xyz
'x, y, z'
'-x, y, z+1/2'
'x, -y, z+1/2'
'-x, -y, z'
'x+1/2, y+1/2, z'
'-x+1/2, y+1/2, z+1/2'
'x+1/2, -y+1/2, z+1/2'
'-x+1/2, -y+1/2, z'
'-x, -y, -z'
'x, -y, -z-1/2'
'-x, y, -z-1/2'
'x, y, -z'
'-x+1/2, -y+1/2, -z'
'x+1/2, -y+1/2, -z-1/2'
'-x+1/2, y+1/2, -z-1/2'
'x+1/2, y+1/2, -z'

_cell_length_a                   8.7011(9)
_cell_length_b                   20.857(2)
_cell_length_c                   8.2868(9)
_cell_angle_alpha                90.00
_cell_angle_beta                 90.00
_cell_angle_gamma                90.00
_cell_volume                     1503.9(3)
_cell_formula_units_Z            4
_cell_measurement_temperature    223(2)
_cell_measurement_reflns_used    2826
_cell_measurement_theta_min      3.1399
_cell_measurement_theta_max      27.4855


_exptl_crystal_description       Platelet
_exptl_crystal_colour            brown
_exptl_crystal_size_max          0.28
_exptl_crystal_size_mid          0.10
_exptl_crystal_size_min          0.10
_exptl_crystal_density_meas      ?
_exptl_crystal_density_diffrn    1.641
_exptl_crystal_density_method    'not measured'
_exptl_crystal_F_000             728
_exptl_absorpt_coefficient_mu    1.532
_exptl_absorpt_correction_type   Multi-scan
_exptl_absorpt_correction_T_min  0.6736
_exptl_absorpt_correction_T_max  0.8619
_exptl_absorpt_process_details   Empirical

_exptl_special_details           
;
?
;

_diffrn_ambient_temperature      223(2)
_diffrn_radiation_wavelength     0.71075
_diffrn_radiation_type           MoK\a
_diffrn_radiation_source         'fine-focus sealed tube'
_diffrn_radiation_monochromator  graphite
_diffrn_measurement_device_type  'Rigaku Mercury CCD'
_diffrn_measurement_method       \w
_diffrn_detector_area_resol_mean ?
_diffrn_standards_number         0
_diffrn_standards_interval_count 0
_diffrn_standards_interval_time  0
_diffrn_standards_decay_%        0
_diffrn_reflns_number            4863
_diffrn_reflns_av_R_equivalents  0.0310
_diffrn_reflns_av_sigmaI/netI    0.0238
_diffrn_reflns_limit_h_min       -11
_diffrn_reflns_limit_h_max       9
_diffrn_reflns_limit_k_min       -21
_diffrn_reflns_limit_k_max       26
_diffrn_reflns_limit_l_min       -8
_diffrn_reflns_limit_l_max       10
_diffrn_reflns_theta_min         3.53
_diffrn_reflns_theta_max         27.49
_reflns_number_total             926
_reflns_number_gt                809
_reflns_threshold_expression     >2sigma(I)


_computing_data_collection       'CrystalClear (Rigaku Inc., 2007)'
_computing_cell_refinement       'CrystalClear (Rigaku Inc., 2007)'
_computing_data_reduction        'CrystalClear (Rigaku Inc., 2007)'
_computing_structure_solution    'SHELXS-97 (Sheldrick, 1990)'
_computing_structure_refinement  'SHELXL-97 (Sheldrick, 1997)'
_computing_molecular_graphics    'Bruker SHELXTL'
_computing_publication_material  'Bruker SHELXTL'

_refine_special_details          
;
Refinement of F^2^ against ALL reflections. The weighted R-factor wR and
goodness of fit S are based on F^2^, conventional R-factors R are based
on F, with F set to zero for negative F^2^. The threshold expression of
F^2^ > 2sigma(F^2^) is used only for calculating R-factors(gt) etc. and is
not relevant to the choice of reflections for refinement. R-factors based
on F^2^ are statistically about twice as large as those based on F, and R-
factors based on ALL data will be even larger.
;

_refine_ls_structure_factor_coef Fsqd
_refine_ls_matrix_type           full
_refine_ls_weighting_scheme      calc
_refine_ls_weighting_details     
'calc w=1/[\s^2^(Fo^2^)+(0.0902P)^2^+14.8261P] where P=(Fo^2^+2Fc^2^)/3'
_atom_sites_solution_primary     direct
_atom_sites_solution_secondary   difmap
_atom_sites_solution_hydrogens   geom
_refine_ls_hydrogen_treatment    constr
_refine_ls_extinction_method     none
_refine_ls_extinction_coef       ?
_refine_ls_number_reflns         926
_refine_ls_number_parameters     59
_refine_ls_number_restraints     0
_refine_ls_R_factor_all          0.0673
_refine_ls_R_factor_gt           0.0569
_refine_ls_wR_factor_ref         0.1718
_refine_ls_wR_factor_gt          0.1633
_refine_ls_goodness_of_fit_ref   1.095
_refine_ls_restrained_S_all      1.095
_refine_ls_shift/su_max          0.000
_refine_ls_shift/su_mean         0.000

loop_
_atom_site_label
_atom_site_type_symbol
_atom_site_fract_x
_atom_site_fract_y
_atom_site_fract_z
_atom_site_U_iso_or_equiv
_atom_site_adp_type
_atom_site_occupancy
_atom_site_symmetry_multiplicity
_atom_site_calc_flag
_atom_site_refinement_flags
_atom_site_disorder_assembly
_atom_site_disorder_group
Ag1 Ag 0.0000 0.5000 0.2500 0.0402(4) Uani 1 4 d S . .
Cl1 Cl 0.2500 0.2500 0.5000 0.0661(12) Uani 1 4 d S . .
O1 O 0.1546(15) 0.2509(8) 0.3641(13) 0.089(4) Uani 0.50 1 d P . .
O2 O 0.333(2) 0.3167(10) 0.5000 0.093(6) Uani 0.50 2 d SP . .
O3 O 0.368(2) 0.2053(10) 0.5000 0.091(6) Uani 0.50 2 d SP . .
N1 N 0.1193(7) 0.4272(2) 0.0823(6) 0.0426(12) Uani 1 1 d . . .
N2 N 0.2295(9) 0.3391(3) 0.0000 0.0385(16) Uani 1 2 d S . .
C1 C 0.1848(8) 0.3737(3) 0.1277(7) 0.0458(15) Uani 1 1 d . . .
H1A H 0.1986 0.3611 0.2357 0.055 Uiso 1 1 calc R . .
C2 C 0.3093(10) 0.2754(4) 0.0000 0.0390(19) Uani 1 2 d S . .
H2A H 0.3745 0.2714 -0.0959 0.047 Uiso 0.50 1 calc PR . .
H2B H 0.3745 0.2714 0.0959 0.047 Uiso 0.50 1 calc PR . .

loop_
_atom_site_aniso_label
_atom_site_aniso_U_11
_atom_site_aniso_U_22
_atom_site_aniso_U_33
_atom_site_aniso_U_23
_atom_site_aniso_U_13
_atom_site_aniso_U_12
Ag1 0.0722(7) 0.0215(5) 0.0269(5) 0.000 0.000 0.000
Cl1 0.057(2) 0.107(3) 0.0339(16) 0.000 0.000 0.025(2)
O1 0.095(9) 0.137(11) 0.034(5) 0.023(8) -0.004(6) -0.010(9)
O2 0.097(14) 0.083(14) 0.100(16) 0.000 0.000 -0.012(12)
O3 0.065(10) 0.073(12) 0.13(2) 0.000 0.000 0.009(9)
N1 0.074(3) 0.029(2) 0.025(2) 0.0001(19) 0.005(2) 0.016(2)
N2 0.053(4) 0.031(3) 0.032(3) 0.000 0.000 0.016(3)
C1 0.078(4) 0.034(3) 0.025(3) 0.000(2) -0.001(3) 0.017(3)
C2 0.048(4) 0.033(4) 0.035(4) 0.000 0.000 0.018(4)

_geom_special_details            
;
All esds (except the esd in the dihedral angle between two l.s. planes)
are estimated using the full covariance matrix. The cell esds are taken
into account individually in the estimation of esds in distances, angles
and torsion angles; correlations between esds in cell parameters are only
used when they are defined by crystal symmetry. An approximate (isotropic)
treatment of cell esds is used for estimating esds involving l.s. planes.
;

loop_
_geom_bond_atom_site_label_1
_geom_bond_atom_site_label_2
_geom_bond_distance
_geom_bond_site_symmetry_2
_geom_bond_publ_flag
Ag1 N1 2.305(5) 10_566 ?
Ag1 N1 2.305(5) 4_565 ?
Ag1 N1 2.305(5) . ?
Ag1 N1 2.305(5) 11_556 ?
Cl1 O3 1.384(18) 13_556 ?
Cl1 O3 1.384(18) . ?
Cl1 O1 1.399(11) . ?
Cl1 O1 1.399(11) 13_556 ?
Cl1 O1 1.399(11) 8 ?
Cl1 O1 1.399(11) 12_556 ?
Cl1 O2 1.57(2) . ?
Cl1 O2 1.57(2) 13_556 ?
O1 O3 1.463(19) 13_556 ?
O1 O1 1.66(3) 8 ?
O1 O2 1.81(2) 13_556 ?
O2 O3 1.80(3) 13_556 ?
O2 O1 1.81(2) 8 ?
O2 O1 1.81(2) 13_556 ?
O3 O1 1.463(19) 13_556 ?
O3 O1 1.463(19) 8 ?
O3 O2 1.80(3) 13_556 ?
N1 C1 1.309(7) . ?
N1 N1 1.364(10) 12 ?
N2 C1 1.338(7) 12 ?
N2 C1 1.338(7) . ?
N2 C2 1.499(9) . ?
C1 H1A 0.9400 . ?
C2 C2 1.480(19) 13 ?
C2 H2A 0.9800 . ?
C2 H2B 0.9800 . ?

loop_
_geom_angle_atom_site_label_1
_geom_angle_atom_site_label_2
_geom_angle_atom_site_label_3
_geom_angle
_geom_angle_site_symmetry_1
_geom_angle_site_symmetry_3
_geom_angle_publ_flag
N1 Ag1 N1 97.6(3) 10_566 4_565 ?
N1 Ag1 N1 126.5(3) 10_566 . ?
N1 Ag1 N1 105.8(2) 4_565 . ?
N1 Ag1 N1 105.8(2) 10_566 11_556 ?
N1 Ag1 N1 126.5(3) 4_565 11_556 ?
N1 Ag1 N1 97.6(3) . 11_556 ?
O3 Cl1 O3 180.0(12) 13_556 . ?
O3 Cl1 O1 63.4(7) 13_556 . ?
O3 Cl1 O1 116.6(7) . . ?
O3 Cl1 O1 116.6(7) 13_556 13_556 ?
O3 Cl1 O1 63.4(7) . 13_556 ?
O1 Cl1 O1 180.000(2) . 13_556 ?
O3 Cl1 O1 116.6(7) 13_556 8 ?
O3 Cl1 O1 63.4(7) . 8 ?
O1 Cl1 O1 72.8(10) . 8 ?
O1 Cl1 O1 107.2(10) 13_556 8 ?
O3 Cl1 O1 63.4(7) 13_556 12_556 ?
O3 Cl1 O1 116.6(7) . 12_556 ?
O1 Cl1 O1 107.2(10) . 12_556 ?
O1 Cl1 O1 72.8(10) 13_556 12_556 ?
O1 Cl1 O1 180.0(14) 8 12_556 ?
O3 Cl1 O2 75.1(11) 13_556 . ?
O3 Cl1 O2 104.9(11) . . ?
O1 Cl1 O2 105.2(8) . . ?
O1 Cl1 O2 74.8(8) 13_556 . ?
O1 Cl1 O2 74.8(8) 8 . ?
O1 Cl1 O2 105.2(8) 12_556 . ?
O3 Cl1 O2 104.9(11) 13_556 13_556 ?
O3 Cl1 O2 75.1(11) . 13_556 ?
O1 Cl1 O2 74.8(8) . 13_556 ?
O1 Cl1 O2 105.2(8) 13_556 13_556 ?
O1 Cl1 O2 105.2(8) 8 13_556 ?
O1 Cl1 O2 74.8(8) 12_556 13_556 ?
O2 Cl1 O2 180.000(3) . 13_556 ?
Cl1 O1 O3 57.8(8) . 13_556 ?
Cl1 O1 O1 53.6(5) . 8 ?
O3 O1 O1 98.4(12) 13_556 8 ?
Cl1 O1 O2 56.8(7) . 13_556 ?
O3 O1 O2 90.9(9) 13_556 13_556 ?
O1 O1 O2 85.6(13) 8 13_556 ?
Cl1 O2 O3 47.8(9) . 13_556 ?
Cl1 O2 O1 48.3(7) . 8 ?
O3 O2 O1 81.9(10) 13_556 8 ?
Cl1 O2 O1 48.3(7) . 13_556 ?
O3 O2 O1 81.9(10) 13_556 13_556 ?
O1 O2 O1 77.1(13) 8 13_556 ?
Cl1 O3 O1 58.8(8) . 13_556 ?
Cl1 O3 O1 58.8(8) . 8 ?
O1 O3 O1 100.7(16) 13_556 8 ?
Cl1 O3 O2 57.1(9) . 13_556 ?
O1 O3 O2 91.8(11) 13_556 13_556 ?
O1 O3 O2 91.8(11) 8 13_556 ?
C1 N1 N1 106.7(3) . 12 ?
C1 N1 Ag1 125.8(4) . . ?
N1 N1 Ag1 127.08(12) 12 . ?
C1 N2 C1 104.5(7) 12 . ?
C1 N2 C2 127.7(3) 12 . ?
C1 N2 C2 127.7(3) . . ?
N1 C1 N2 111.0(5) . . ?
N1 C1 H1A 124.5 . . ?
N2 C1 H1A 124.5 . . ?
C2 C2 N2 108.2(8) 13 . ?
C2 C2 H2A 110.1 13 . ?
N2 C2 H2A 110.1 . . ?
C2 C2 H2B 110.1 13 . ?
N2 C2 H2B 110.1 . . ?
H2A C2 H2B 108.4 . . ?

loop_
_geom_torsion_atom_site_label_1
_geom_torsion_atom_site_label_2
_geom_torsion_atom_site_label_3
_geom_torsion_atom_site_label_4
_geom_torsion
_geom_torsion_site_symmetry_1
_geom_torsion_site_symmetry_2
_geom_torsion_site_symmetry_3
_geom_torsion_site_symmetry_4
_geom_torsion_publ_flag
O3 Cl1 O1 O3 180.000(4) . . . 13_556 ?
O1 Cl1 O1 O3 -132.7(14) 8 . . 13_556 ?
O1 Cl1 O1 O3 47.3(14) 12_556 . . 13_556 ?
O2 Cl1 O1 O3 -64.3(11) . . . 13_556 ?
O2 Cl1 O1 O3 115.7(11) 13_556 . . 13_556 ?
O3 Cl1 O1 O1 132.7(14) 13_556 . . 8 ?
O3 Cl1 O1 O1 -47.3(14) . . . 8 ?
O1 Cl1 O1 O1 180.000(1) 12_556 . . 8 ?
O2 Cl1 O1 O1 68.4(13) . . . 8 ?
O2 Cl1 O1 O1 -111.6(13) 13_556 . . 8 ?
O3 Cl1 O1 O2 -115.7(11) 13_556 . . 13_556 ?
O3 Cl1 O1 O2 64.3(11) . . . 13_556 ?
O1 Cl1 O1 O2 111.6(13) 8 . . 13_556 ?
O1 Cl1 O1 O2 -68.4(13) 12_556 . . 13_556 ?
O3 Cl1 O2 O3 180.0 . . . 13_556 ?
O1 Cl1 O2 O3 56.5(6) . . . 13_556 ?
O1 Cl1 O2 O3 -123.5(6) 13_556 . . 13_556 ?
O1 Cl1 O2 O3 123.5(6) 8 . . 13_556 ?
O1 Cl1 O2 O3 -56.5(6) 12_556 . . 13_556 ?
O2 Cl1 O2 O3 180.0 13_556 . . 13_556 ?
O3 Cl1 O2 O1 -123.5(6) 13_556 . . 8 ?
O3 Cl1 O2 O1 56.5(6) . . . 8 ?
O1 Cl1 O2 O1 -67.0(13) . . . 8 ?
O1 Cl1 O2 O1 113.0(13) 13_556 . . 8 ?
O1 Cl1 O2 O1 180.000(2) 12_556 . . 8 ?
O2 Cl1 O2 O1 56.5(6) 13_556 . . 8 ?
O3 Cl1 O2 O1 123.5(6) 13_556 . . 13_556 ?
O3 Cl1 O2 O1 -56.5(6) . . . 13_556 ?
O1 Cl1 O2 O1 180.000(3) . . . 13_556 ?
O1 Cl1 O2 O1 -113.0(13) 8 . . 13_556 ?
O1 Cl1 O2 O1 67.0(13) 12_556 . . 13_556 ?
O2 Cl1 O2 O1 -56.5(6) 13_556 . . 13_556 ?
O3 Cl1 O3 O1 -115.9(7) 13_556 . . 13_556 ?
O1 Cl1 O3 O1 180.000(5) . . . 13_556 ?
O1 Cl1 O3 O1 128.3(15) 8 . . 13_556 ?
O1 Cl1 O3 O1 -51.7(15) 12_556 . . 13_556 ?
O2 Cl1 O3 O1 64.1(7) . . . 13_556 ?
O2 Cl1 O3 O1 -115.9(7) 13_556 . . 13_556 ?
O3 Cl1 O3 O1 115.9(7) 13_556 . . 8 ?
O1 Cl1 O3 O1 51.7(15) . . . 8 ?
O1 Cl1 O3 O1 -128.3(15) 13_556 . . 8 ?
O1 Cl1 O3 O1 180.000(3) 12_556 . . 8 ?
O2 Cl1 O3 O1 -64.1(7) . . . 8 ?
O2 Cl1 O3 O1 115.9(7) 13_556 . . 8 ?
O3 Cl1 O3 O2 0.0 13_556 . . 13_556 ?
O1 Cl1 O3 O2 -64.1(7) . . . 13_556 ?
O1 Cl1 O3 O2 115.9(7) 13_556 . . 13_556 ?
O1 Cl1 O3 O2 -115.9(7) 8 . . 13_556 ?
O1 Cl1 O3 O2 64.1(7) 12_556 . . 13_556 ?
O2 Cl1 O3 O2 180.0 . . . 13_556 ?
N1 Ag1 N1 C1 76.2(6) 10_566 . . . ?
N1 Ag1 N1 C1 -171.4(7) 4_565 . . . ?
N1 Ag1 N1 C1 -40.0(5) 11_556 . . . ?
N1 Ag1 N1 N1 -112.39(14) 10_566 . . 12 ?
N1 Ag1 N1 N1 0.000(1) 4_565 . . 12 ?
N1 Ag1 N1 N1 131.4(2) 11_556 . . 12 ?
N1 N1 C1 N2 0.9(7) 12 . . . ?
Ag1 N1 C1 N2 173.7(5) . . . . ?
C1 N2 C1 N1 -1.4(11) 12 . . . ?
C2 N2 C1 N1 179.6(7) . . . . ?
C1 N2 C2 C2 -89.4(8) 12 . . 13 ?
C1 N2 C2 C2 89.4(8) . . . 13 ?

_diffrn_measured_fraction_theta_max 0.995
_diffrn_reflns_theta_full        27.49
_diffrn_measured_fraction_theta_full 0.995
_refine_diff_density_max         1.538
_refine_diff_density_min         -0.594
_refine_diff_density_rms         0.174
