
#######################################################################
#
#                 Cambridge Crystallographic Data Centre
#                                CCDC
#
#######################################################################
#
# If this CIF has been generated from an entry in the Cambridge
# Structural Database, then it will include bibliographic, chemical,
# crystal, experimental, refinement or atomic coordinate data resulting
# from the CCDC's data processing and validation procedures.
#
#######################################################################

data_CSD_CIF_FABVAF01
_audit_creation_date 2001-11-22
_audit_creation_method CSD-ConQuest-V1
_database_code_CSD FABVAF01
_database_code_depnum_ccdc_archive 'CCDC 171602'
_chemical_formula_sum 'C18 H27 N1 O3'
_chemical_formula_moiety
;
C18 H27 N1 O3
;
_journal_coden_Cambridge 182
_journal_year 1998
_journal_page_first 931
_journal_name_full 'Chem.Commun. '
loop_
_publ_author_name
"W.I.F.David"
"K.Shankland"
"N.Shankland"
_chemical_name_systematic
;
(E)-N-[(4-hydroxy-3-methoxyphenyl)methyl]-8-methyl-6-nonenamide
;
_chemical_name_common
;
capsaicin; 8-methyl-N-vanillyl-6-nonenamide; DrugBank: DB06774; Teaching 
Subset: Drug Molecules
;
_cell_volume   1707.744
_exptl_crystal_colour 'white'
_exptl_special_details
;
powder data

;
_diffrn_ambient_temperature 100
_diffrn_radiation_probe x-ray
_diffrn_source synchrotron
#These two values have been output from a single CSD field.
_refine_ls_R_factor_gt 0.1288
_refine_ls_wR_factor_gt 0.1288
_symmetry_cell_setting monoclinic
_symmetry_space_group_name_H-M 'P 21/c'
_symmetry_Int_Tables_number 14
loop_
_symmetry_equiv_pos_site_id
_symmetry_equiv_pos_as_xyz
1 x,y,z
2 -x,1/2+y,1/2-z
3 -x,-y,-z
4 x,-1/2-y,-1/2+z
_cell_length_a 12.2234(1)
_cell_length_b 14.7900(1)
_cell_length_c 9.4691(1)
_cell_angle_alpha 90
_cell_angle_beta 93.9754(3)
_cell_angle_gamma 90
_cell_formula_units_Z 4
loop_
_atom_type_symbol
_atom_type_radius_bond
C 0.68
H 0.23
N 0.68
O 0.68
loop_
_atom_site_label
_atom_site_type_symbol
_atom_site_fract_x
_atom_site_fract_y
_atom_site_fract_z
C1 C 0.61664 0.33257 0.05807
C2 C 0.54246 0.39378 0.11144
C3 C 0.58120 0.47095 0.18454
C4 C 0.69410 0.48692 0.20428
C5 C 0.76828 0.42571 0.15091
C6 C 0.72954 0.34854 0.07781
H1 H 0.46182 0.38237 0.09735
H2 H 0.84892 0.43712 0.16501
H3 H 0.78252 0.30482 0.03969
O1 O 0.50861 0.53084 0.23677
C7 C 0.39496 0.51007 0.22998
H4 H 0.38320 0.45310 0.28377
H5 H 0.35413 0.56074 0.27248
H6 H 0.36739 0.50174 0.12890
O2 O 0.73201 0.56244 0.27581
H7 H 0.67902 0.60615 0.31393
C8 C 0.57403 0.24768 -0.02234
N1 N 0.45934 0.26088 -0.07173
H8 H 0.61861 0.23697 -0.10541
H9 H 0.58030 0.19415 0.04226
H10 H 0.44219 0.29399 -0.14990
C9 C 0.37642 0.22468 -0.00346
O3 O 0.38951 0.19069 0.11625
C10 C 0.26073 0.22358 -0.07063
C11 C 0.18029 0.25055 0.04027
H11 H 0.25449 0.26749 -0.15112
H12 H 0.24250 0.16144 -0.10669
C12 C 0.18359 0.35379 0.06159
H13 H 0.10433 0.23173 0.00667
H14 H 0.20179 0.21986 0.13215
C13 C 0.07703 0.38515 0.12431
H15 H 0.24776 0.37011 0.12794
H16 H 0.19075 0.38424 -0.03162
C14 C 0.09207 0.47769 0.18196
H17 H 0.01584 0.38511 0.04852
H18 H 0.05876 0.34305 0.20192
C15 C 0.04502 0.50108 0.29542
H19 H 0.13843 0.52222 0.13365
H20 H -0.00134 0.45655 0.34374
C16 C 0.06006 0.59362 0.35308
C17 C 0.14996 0.59279 0.47534
C18 C 0.09427 0.65754 0.23551
H21 H -0.01035 0.61528 0.38905
H22 H 0.22042 0.57118 0.43945
H23 H 0.16013 0.65532 0.51430
H24 H 0.12780 0.55133 0.55177
H25 H 0.03591 0.65815 0.15609
H26 H 0.10443 0.72007 0.27446
H27 H 0.16470 0.63596 0.19951
#END
