
#######################################################################
#
#                 Cambridge Crystallographic Data Centre
#                                CCDC
#
#######################################################################
#
# If this CIF has been generated from an entry in the Cambridge
# Structural Database, then it will include bibliographic, chemical,
# crystal, experimental, refinement or atomic coordinate data resulting
# from the CCDC's data processing and validation procedures.
#
#######################################################################

data_CSD_CIF_FACFAQ
_audit_creation_date 1999-07-19
_audit_creation_method CSD-ConQuest-V1
_database_code_CSD FACFAQ
_database_code_depnum_ccdc_archive 'CCDC 1151259'
_chemical_formula_sum 'C6 H5 F1'
_chemical_formula_moiety
;
C6 H5 F1
;
_journal_coden_Cambridge 4
_journal_volume 120
_journal_year 1998
_journal_page_first 8702
_journal_name_full 'J.Am.Chem.Soc. '
loop_
_publ_author_name
"V.R.Thalladi"
"H.-C.Weiss"
"D.Blaser"
"R.Boese"
"A.Nangia"
"G.R.Desiraju"
_chemical_name_systematic
;
Fluorobenzene
;
_chemical_name_common
;
Teaching Subset: Fundamental Chemistry
;
_chemical_melting_point 231
_cell_volume    488.621
_exptl_crystal_density_diffrn 1.306
_exptl_crystal_description 'cylindrical'
_diffrn_ambient_temperature 123
#These two values have been output from a single CSD field.
_refine_ls_R_factor_gt 0.0407
_refine_ls_wR_factor_gt 0.0407
_symmetry_cell_setting tetragonal
_symmetry_space_group_name_H-M 'P 43 21 2'
_symmetry_Int_Tables_number 96
loop_
_symmetry_equiv_pos_site_id
_symmetry_equiv_pos_as_xyz
1 x,y,z
2 -x,-y,1/2+z
3 1/2-y,1/2+x,3/4+z
4 1/2+y,1/2-x,1/4+z
5 1/2-x,1/2+y,3/4-z
6 1/2+x,1/2-y,1/4-z
7 y,x,-z
8 -y,-x,1/2-z
_cell_length_a 5.799(2)
_cell_length_b 5.799(2)
_cell_length_c 14.530(7)
_cell_angle_alpha 90
_cell_angle_beta 90
_cell_angle_gamma 90
_cell_formula_units_Z 4
loop_
_atom_type_symbol
_atom_type_radius_bond
C 0.68
H 0.23
F 0.64
loop_
_atom_site_label
_atom_site_type_symbol
_atom_site_fract_x
_atom_site_fract_y
_atom_site_fract_z
F1 F 0.82408(15) 0.82408(15) 0.00000
C1 C 0.9904(2) 0.9904(2) 0.00000
C2 C 1.1809(3) 0.9591(2) 0.05517(9)
H1 H 1.1905(31) 0.8267(32) 0.0905(12)
C3 C 1.3490(2) 1.1297(3) 0.05493(9)
H2 H 1.4752(37) 1.1179(36) 0.0911(13)
C4 C 1.3239(2) 1.3239(2) 0.00000
H3 H 1.4364(32) 1.4364(32) 0.00000
C3F C 1.1297(2) 1.3490(3) -0.05493(9)
C2F C 0.9591(3) 1.1809(2) -0.05517(9)
H1F H 0.8267(31) 1.1905(32) -0.0905(12)
H2F H 1.1179(37) 1.4752(36) -0.0911(13)
#END
