
#######################################################################
#
#                 Cambridge Crystallographic Data Centre
#                                CCDC
#
#######################################################################
#
# If this CIF has been generated from an entry in the Cambridge
# Structural Database, then it will include bibliographic, chemical,
# crystal, experimental, refinement or atomic coordinate data resulting
# from the CCDC's data processing and validation procedures.
#
#######################################################################

data_CSD_CIF_FACROQ
_audit_creation_date 1987-06-30
_audit_creation_method CSD-ConQuest-V1
_database_code_CSD FACROQ
_database_code_depnum_ccdc_archive 'CCDC 1151372'
_chemical_formula_sum 'C42 H54 O12'
_chemical_formula_moiety
;
6(C6 H8 O2),C6 H6
;
_journal_coden_Cambridge 4
_journal_volume 108
_journal_year 1986
_journal_page_first 5871
_journal_name_full 'J.Am.Chem.Soc. '
loop_
_publ_author_name
"M.C.Etter"
"Z.Urbanczyk-Lipkowska"
"D.A.Jahn"
"J.S.Frye"
_chemical_name_systematic
;
hexakis(1,3-Cyclohexanedione) benzene clathrate
;
_chemical_name_common
;
Teaching Subset: Fundamental Chemistry
;
_chemical_melting_point 350.15
_cell_volume   2999.891
_exptl_crystal_density_diffrn 1.25
_exptl_special_details
;
Melting point range 350.15-363.15K

;
_diffrn_ambient_temperature ?
_diffrn_special_details
;
The study was carried out at room temperature,in the range 283-303K

;
#These two values have been output from a single CSD field.
_refine_ls_R_factor_gt 0.037
_refine_ls_wR_factor_gt 0.037
_symmetry_cell_setting rhombohedral
_symmetry_space_group_name_H-M 'R -3'
_symmetry_Int_Tables_number 148
loop_
_symmetry_equiv_pos_site_id
_symmetry_equiv_pos_as_xyz
1 x,y,z
2 1/3+x,2/3+y,2/3+z
3 2/3+x,1/3+y,1/3+z
4 -y,x-y,z
5 -x+y,-x,z
6 1/3-y,2/3+x-y,2/3+z
7 1/3-x+y,2/3-x,2/3+z
8 2/3-y,1/3+x-y,1/3+z
9 2/3-x+y,1/3-x,1/3+z
10 -x,-y,-z
11 -1/3-x,-2/3-y,-2/3-z
12 -2/3-x,-1/3-y,-1/3-z
13 y,-x+y,-z
14 x-y,x,-z
15 -1/3+y,-2/3-x+y,-2/3-z
16 -1/3+x-y,-2/3+x,-2/3-z
17 -2/3+y,-1/3-x+y,-1/3-z
18 -2/3+x-y,-1/3+x,-1/3-z
_cell_length_a 18.127(7)
_cell_length_b 18.127(7)
_cell_length_c 10.542(3)
_cell_angle_alpha 90
_cell_angle_beta 90
_cell_angle_gamma 120
_cell_formula_units_Z 3
loop_
_atom_type_symbol
_atom_type_radius_bond
C 0.68
H 0.23
O 0.68
loop_
_atom_site_label
_atom_site_type_symbol
_atom_site_fract_x
_atom_site_fract_y
_atom_site_fract_z
C1 C 0.38643(8) 0.01781(8) 0.1626(2)
C2 C 0.46662(8) 0.02270(8) 0.1559(2)
C3 C 0.54011(8) 0.09806(8) 0.1608(2)
C4 C 0.54194(9) 0.18096(9) 0.1703(2)
C5 C 0.46160(9) 0.17474(9) 0.1172(2)
C6 C 0.38279(8) 0.09835(9) 0.1702(2)
O1 O 0.31878(6) -0.05256(6) 0.1661(1)
O2 O 0.61602(5) 0.10515(6) 0.1606(1)
H1 H 0.613(1) 0.048(1) 0.158(2)
H2 H 0.4661(8) -0.0293(8) 0.150(1)
H3 H 0.59500 0.22700 0.11700
H4 H 0.54900 0.20100 0.26500
H5 H 0.46200 0.16900 0.01800
H6 H 0.46100 0.23100 0.14000
H7 H 0.32900 0.09000 0.12000
H8 H 0.37600 0.11000 0.26600
C7 C 0.3983(2) -0.2508(1) 0.16670
H9 H 0.440(1) -0.194(1) 0.164(2)
C7N C 0.415867(200) -0.315767(100) 0.16663
C7O C 0.315767(200) -0.268367(100) 0.16663
C7D C 0.3509(2) -0.3983(1) 0.16670
H9N H 0.472667(1000) -0.300667(1000) 0.169333(2000)
C7C C 0.2508(2) -0.3509(1) 0.16670
H9O H 0.300667(1000) -0.226667(1000) 0.169333(2000)
C7J C 0.268367(200) -0.415867(100) 0.16663
H9D H 0.366(1) -0.440(1) 0.164(2)
H9C H 0.194(1) -0.366(1) 0.164(2)
H9J H 0.226667(1000) -0.472667(1000) 0.169333(2000)
#END
