####################################################################### 
# 
# This file contains crystal structure data downloaded from the 
# Cambridge Structural Database (CSD) hosted by the Cambridge 
# Crystallographic Data Centre (CCDC).
# 
# Full information about CCDC data access policies and citation 
# guidelines are available at http://www.ccdc.cam.ac.uk/access/V1 
# 
# Audit and citation data items may have been added by the CCDC. 
# Please retain this information to preserve the provenance of 
# this file and to allow appropriate attribution of the data. 
# 
#######################################################################

data_k08adb13
_audit_block_doi                 10.5517/ccx580b
_database_code_depnum_ccdc_archive 'CCDC 839201'
loop_
_citation_id
_citation_doi
_citation_year
1 10.1039/c1ce06044a 2012
_audit_update_record             
;
2011-08-12 deposited with the CCDC.	2024-07-10 downloaded from the CCDC.
;
#TrackingRef '- hodgson.cif'


_audit_creation_method           SHELXL-97
_chemical_name_systematic        
;
?
;
_chemical_name_common            ?
_chemical_melting_point          ?
_chemical_formula_moiety         ?
_chemical_formula_sum            'C33 H35 N3 O10.50 Zn2'
_chemical_formula_weight         772.38

loop_
_atom_type_symbol
_atom_type_description
_atom_type_scat_dispersion_real
_atom_type_scat_dispersion_imag
_atom_type_scat_source
C C 0.0033 0.0016 'International Tables Vol C Tables 4.2.6.8 and 6.1.1.4'
H H 0.0000 0.0000 'International Tables Vol C Tables 4.2.6.8 and 6.1.1.4'
O O 0.0106 0.0060 'International Tables Vol C Tables 4.2.6.8 and 6.1.1.4'
N N 0.0061 0.0033 'International Tables Vol C Tables 4.2.6.8 and 6.1.1.4'
Zn Zn 0.2839 1.4301 'International Tables Vol C Tables 4.2.6.8 and 6.1.1.4'

_symmetry_cell_setting           Orthorhombic
_symmetry_space_group_name_H-M   Pnmn

loop_
_symmetry_equiv_pos_as_xyz
'x, y, z'
'-x+1/2, -y+1/2, z+1/2'
'x+1/2, -y+1/2, -z+1/2'
'-x, y, -z'
'-x, -y, -z'
'x-1/2, y-1/2, -z-1/2'
'-x-1/2, y-1/2, z-1/2'
'x, -y, z'

_cell_length_a                   19.8070(3)
_cell_length_b                   27.7140(5)
_cell_length_c                   27.8470(5)
_cell_angle_alpha                90.00
_cell_angle_beta                 90.00
_cell_angle_gamma                90.00
_cell_volume                     15286.1(5)
_cell_formula_units_Z            8
_cell_measurement_temperature    200(2)
_cell_measurement_reflns_used    138395
_cell_measurement_theta_min      2.910
_cell_measurement_theta_max      21.967

_exptl_crystal_description       Block
_exptl_crystal_colour            Colourless
_exptl_crystal_size_max          0.35
_exptl_crystal_size_mid          0.30
_exptl_crystal_size_min          0.30
_exptl_crystal_density_meas      ?
_exptl_crystal_density_diffrn    0.671
_exptl_crystal_density_method    'not measured'
_exptl_crystal_F_000             3184
_exptl_absorpt_coefficient_mu    0.655
_exptl_absorpt_correction_type   Multi-Scan
_exptl_absorpt_correction_T_min  0.54
_exptl_absorpt_correction_T_max  0.75
_exptl_absorpt_process_details   
;
multi-scan from symmetry-related measurements
Sortav (Blessing 1995)
;

_exptl_special_details           
;
?
;

_diffrn_ambient_temperature      200(2)
_diffrn_radiation_wavelength     0.71073
_diffrn_radiation_type           MoK\a
_diffrn_radiation_source         'fine-focus sealed tube'
_diffrn_radiation_monochromator  graphite
_diffrn_measurement_device_type  '95mm CCD camera on \k-goniostat'
_diffrn_measurement_method       CCD
_diffrn_detector_area_resol_mean ?
_diffrn_standards_number         ?
_diffrn_standards_interval_count ?
_diffrn_standards_interval_time  ?
_diffrn_standards_decay_%        ?
_diffrn_reflns_number            117607
_diffrn_reflns_av_R_equivalents  0.1865
_diffrn_reflns_av_sigmaI/netI    0.0792
_diffrn_reflns_limit_h_min       -20
_diffrn_reflns_limit_h_max       20
_diffrn_reflns_limit_k_min       -29
_diffrn_reflns_limit_k_max       29
_diffrn_reflns_limit_l_min       -29
_diffrn_reflns_limit_l_max       29
_diffrn_reflns_theta_min         3.58
_diffrn_reflns_theta_max         21.92
_reflns_number_total             9432
_reflns_number_gt                5767
_reflns_threshold_expression     >2sigma(I)

_computing_data_collection       'Collect (Bruker AXS BV, 1997-2004)'
_computing_cell_refinement       'HKL Scalepack (Otwinowski & Minor 1997)'
_computing_data_reduction        'Denzo & Scalepack (Otwinowski & Minor, 1997)'
_computing_structure_solution    'SHELXS-97 (Sheldrick, 1990)'
_computing_structure_refinement  'SHELXL-97 (Sheldrick, 1997)'
_computing_molecular_graphics    'ORTEX (P.McArdle, 1995)'
_computing_publication_material  'SHELXL-97/2 (Sheldrick,1997)'

_refine_special_details          
;
Refinement of F^2^ against ALL reflections. The weighted R-factor wR and
goodness of fit S are based on F^2^, conventional R-factors R are based
on F, with F set to zero for negative F^2^. The threshold expression of
F^2^ > 2sigma(F^2^) is used only for calculating R-factors(gt) etc. and is
not relevant to the choice of reflections for refinement. R-factors based
on F^2^ are statistically about twice as large as those based on F, and R-
factors based on ALL data will be even larger.

The asymmetric unit in this structure consists of 1 full zinc,
one full dicarboxylate ligand, 2 half-occupancy zincs (located
at special positions coincident with a crystallographic mirror
plane in the space group symmetry), one half of a dicarboxylate
ligand (wherein O6, O7, O8, C18-26, C29, C30, O8 -- and associated
hydrogens where relevent also lie on the mirror plane), 2 half
water molecules (O9, O10 -- also on the mirror symmetry element),
and approximately 3 DMF molecules.

The water hydrogens could not be located reliably, and hence were
omitted from the final least squares refinement. The DMF was very
diffuse / disordered. Hence the data were subjected to the PLATON
SQUEEZE routine, from which the estimate of 3 molecules per
asymmetric unit arose. This solvent was accounted for in the
unit cell contents during the final least squares cycles.

Data collection for this crystal structure involved several
heroic efforts, and it is a miracle all round that severe mental
illness was not contracted by some of the parties involved.
Early batches of crystals obtained would have been perfectly
respectable size-wise had this been a molecular structure
determination. However, such samples are generally poor candidates
for 3-D MOF data collections, where diffraction intensity falls
off quickly - and this sample was no exception. Thus, the first
goal was to produce larger crystals -- not easy, as crystalline
material cannot be readily recrystallised. This is quite simply
a function of a MOF being a covalently bonded 3-D polymer.

Valiant efforts by the (now permanently worried and fretful)
student eventually yielded 'blocky' crystals, which looked
excellent under the microscope, a feature that did not follow
through to yield and excellent diffraction pattern.

Elation when, at last, a decent crystal was mounted (diffraction
to 20o approx) rapidly turned to despair when it was note that the
sample degraded in the X-ray beam, and also seemed to undergo a
possible phase transition.

Several trials later, an optimum temperature of 200 K for
data collection was settled upon, and low sigmas on the
intensity data were sacrificed in order to get a 'complete'
data set before degradation of the sample. This was the
correct decision, although it adversely affected R(int),
such that data were truncated to 22o.

Ultimately then, a very fine result indeed, as presented here.
As for myself (MFM), ADB, and his group- well - all things
heal, and therapy is helped a lot!

;

_refine_ls_structure_factor_coef Fsqd
_refine_ls_matrix_type           full
_refine_ls_weighting_scheme      calc
_refine_ls_weighting_details     
'calc w=1/[\s^2^(Fo^2^)+(0.0976P)^2^+0.0000P] where P=(Fo^2^+2Fc^2^)/3'
_atom_sites_solution_primary     direct
_atom_sites_solution_secondary   difmap
_atom_sites_solution_hydrogens   geom
_refine_ls_hydrogen_treatment    constr
_refine_ls_extinction_method     none
_refine_ls_extinction_coef       ?
_refine_ls_number_reflns         9432
_refine_ls_number_parameters     331
_refine_ls_number_restraints     0
_refine_ls_R_factor_all          0.1209
_refine_ls_R_factor_gt           0.0602
_refine_ls_wR_factor_ref         0.1769
_refine_ls_wR_factor_gt          0.1523
_refine_ls_goodness_of_fit_ref   0.985
_refine_ls_restrained_S_all      0.985
_refine_ls_shift/su_max          0.001
_refine_ls_shift/su_mean         0.000

loop_
_atom_site_label
_atom_site_type_symbol
_atom_site_fract_x
_atom_site_fract_y
_atom_site_fract_z
_atom_site_U_iso_or_equiv
_atom_site_adp_type
_atom_site_occupancy
_atom_site_symmetry_multiplicity
_atom_site_calc_flag
_atom_site_refinement_flags
_atom_site_disorder_assembly
_atom_site_disorder_group
Zn1 Zn 0.68856(3) 0.05763(2) 0.381992(19) 0.0550(2) Uani 1 1 d . . .
Zn2 Zn 0.80041(3) 0.0000 0.43794(2) 0.0440(2) Uani 1 2 d S . .
Zn3 Zn 0.80124(4) 0.0000 0.32423(3) 0.0594(3) Uani 1 2 d S . .
O1 O 0.74407(19) 0.0000 0.38170(13) 0.0454(11) Uani 1 2 d S . .
O2 O 0.68989(18) 0.08457(15) 0.44813(15) 0.0857(13) Uani 1 1 d . . .
O3 O 0.7824(2) 0.05424(14) 0.48100(12) 0.0781(11) Uani 1 1 d . . .
O4 O 0.7948(2) 0.4001(2) 0.8295(2) 0.148(2) Uani 1 1 d . . .
O5 O 0.7034(3) 0.4382(3) 0.7959(3) 0.197(4) Uani 1 1 d . . .
O6 O 0.8959(2) 0.0000 0.34774(17) 0.0730(16) Uani 1 2 d S . .
O7 O 0.8978(2) 0.0000 0.42907(16) 0.0605(14) Uani 1 2 d S . .
O8 O 1.59241(15) -0.04037(13) 0.37688(12) 0.0659(10) Uani 1 1 d . . .
O9 O 0.7002(5) 0.0000 0.2803(5) 0.402(14) Uani 1 2 d S . .
O10 O 0.8545(8) 0.0000 0.2520(4) 0.374(11) Uani 1 2 d S . .
C1 C 0.7340(3) 0.0827(2) 0.4794(2) 0.0730(17) Uani 1 1 d . . .
C2 C 0.7291(3) 0.1177(2) 0.5202(2) 0.0806(18) Uani 1 1 d . . .
C3 C 0.6770(4) 0.1492(3) 0.5242(3) 0.141(3) Uani 1 1 d . . .
H3 H 0.6419 0.1485 0.5010 0.170 Uiso 1 1 calc R . .
C4 C 0.6737(5) 0.1830(3) 0.5618(3) 0.171(4) Uani 1 1 d . . .
H4 H 0.6363 0.2044 0.5635 0.205 Uiso 1 1 calc R . .
C5 C 0.7237(5) 0.1855(3) 0.5964(3) 0.132(3) Uani 1 1 d . . .
C6 C 0.7713(5) 0.1525(3) 0.5928(3) 0.146(4) Uani 1 1 d . . .
H6 H 0.8053 0.1524 0.6169 0.176 Uiso 1 1 calc R . .
C7 C 0.7765(4) 0.1172(3) 0.5561(3) 0.129(3) Uani 1 1 d . . .
H7 H 0.8117 0.0939 0.5563 0.154 Uiso 1 1 calc R . .
C8 C 0.7236(4) 0.2204(4) 0.6310(3) 0.162(4) Uani 1 1 d . . .
C9 C 0.7246(5) 0.2509(4) 0.6612(4) 0.170(4) Uani 1 1 d . . .
C10 C 0.7300(5) 0.2883(4) 0.6980(4) 0.172(4) Uani 1 1 d . . .
C11 C 0.7785(5) 0.2898(4) 0.7305(4) 0.189(5) Uani 1 1 d . . .
H11 H 0.8101 0.2641 0.7317 0.226 Uiso 1 1 calc R . .
C12 C 0.7854(4) 0.3278(4) 0.7632(3) 0.181(5) Uani 1 1 d . . .
H12 H 0.8227 0.3288 0.7846 0.217 Uiso 1 1 calc R . .
C13 C 0.7398(4) 0.3620(4) 0.7640(4) 0.189(5) Uani 1 1 d . . .
C14 C 0.6922(5) 0.3644(4) 0.7298(5) 0.259(8) Uani 1 1 d . . .
H14 H 0.6627 0.3914 0.7278 0.311 Uiso 1 1 calc R . .
C15 C 0.6872(5) 0.3266(5) 0.6974(5) 0.265(8) Uani 1 1 d . . .
H15 H 0.6524 0.3275 0.6739 0.318 Uiso 1 1 calc R . .
C16 C 0.7458(4) 0.4065(5) 0.7958(4) 0.208(6) Uani 1 1 d . . .
C17 C 0.9245(3) 0.0000 0.3885(3) 0.0570(19) Uani 1 2 d S . .
C18 C 1.0024(3) 0.0000 0.3888(3) 0.063(2) Uani 1 2 d S . .
C19 C 1.0343(4) 0.0000 0.3452(4) 0.137(5) Uani 1 2 d S . .
H19 H 1.0084 0.0000 0.3165 0.164 Uiso 1 2 calc SR . .
C20 C 1.1045(4) 0.0000 0.3427(3) 0.168(6) Uani 1 2 d S . .
H20 H 1.1264 0.0000 0.3124 0.201 Uiso 1 2 calc SR . .
C21 C 1.1428(4) 0.0000 0.3851(3) 0.087(3) Uani 1 2 d S . .
C22 C 1.1074(4) 0.0000 0.4272(3) 0.095(3) Uani 1 2 d S . .
H22 H 1.1316 0.0000 0.4566 0.114 Uiso 1 2 calc SR . .
C23 C 1.0376(4) 0.0000 0.4285(3) 0.082(3) Uani 1 2 d S . .
H23 H 1.0150 0.0000 0.4586 0.098 Uiso 1 2 calc SR . .
C24 C 1.2151(4) 0.0000 0.3844(3) 0.105(3) Uani 1 2 d S . .
C25 C 1.2747(4) 0.0000 0.3816(3) 0.102(3) Uani 1 2 d S . .
C26 C 1.3470(4) 0.0000 0.3792(3) 0.083(3) Uani 1 2 d S . .
C27 C 1.3817(3) -0.0436(3) 0.3782(2) 0.110(2) Uani 1 1 d . . .
H27 H 1.3580 -0.0734 0.3782 0.132 Uiso 1 1 calc R . .
C28 C 1.4513(3) -0.0427(3) 0.3772(2) 0.096(2) Uani 1 1 d . . .
H28 H 1.4754 -0.0723 0.3779 0.115 Uiso 1 1 calc R . .
C29 C 1.4870(3) 0.0000 0.3752(2) 0.066(2) Uani 1 2 d S . .
C30 C 1.5646(3) 0.0000 0.3764(2) 0.0525(19) Uani 1 2 d S . .

loop_
_atom_site_aniso_label
_atom_site_aniso_U_11
_atom_site_aniso_U_22
_atom_site_aniso_U_33
_atom_site_aniso_U_23
_atom_site_aniso_U_13
_atom_site_aniso_U_12
Zn1 0.0376(3) 0.0730(5) 0.0544(4) 0.0053(3) 0.0012(3) 0.0088(3)
Zn2 0.0306(4) 0.0531(6) 0.0484(5) 0.000 -0.0014(3) 0.000
Zn3 0.0391(5) 0.0754(7) 0.0638(6) 0.000 0.0108(4) 0.000
O1 0.032(2) 0.051(3) 0.053(2) 0.000 0.003(2) 0.000
O2 0.043(2) 0.105(3) 0.109(3) -0.047(3) -0.010(2) 0.013(2)
O3 0.080(3) 0.074(3) 0.080(3) -0.033(2) -0.007(2) 0.014(2)
O4 0.080(4) 0.187(6) 0.178(5) -0.128(4) 0.012(3) -0.002(4)
O5 0.070(4) 0.211(7) 0.311(9) -0.192(7) -0.023(4) 0.029(4)
O6 0.034(3) 0.124(5) 0.061(3) 0.000 0.002(2) 0.000
O7 0.035(3) 0.093(4) 0.053(3) 0.000 0.001(2) 0.000
O8 0.0314(19) 0.078(3) 0.088(2) -0.004(2) -0.0047(16) 0.0013(19)
O9 0.124(9) 0.86(5) 0.216(12) 0.000 -0.023(8) 0.000
O10 0.273(16) 0.68(3) 0.174(10) 0.000 -0.055(10) 0.000
C1 0.040(4) 0.086(5) 0.093(4) -0.044(4) 0.007(3) 0.001(3)
C2 0.056(4) 0.081(5) 0.105(5) -0.041(4) -0.005(3) 0.022(4)
C3 0.085(5) 0.172(8) 0.167(7) -0.104(7) -0.045(5) 0.038(5)
C4 0.142(8) 0.174(9) 0.196(9) -0.133(8) -0.054(7) 0.075(7)
C5 0.105(6) 0.124(7) 0.166(8) -0.094(6) -0.026(6) 0.022(5)
C6 0.143(7) 0.176(9) 0.120(6) -0.092(6) -0.050(6) 0.043(7)
C7 0.119(6) 0.130(7) 0.138(6) -0.074(6) -0.047(5) 0.049(5)
C8 0.141(7) 0.173(9) 0.173(8) -0.127(7) -0.030(6) 0.044(7)
C9 0.138(7) 0.189(10) 0.185(8) -0.128(8) -0.030(6) 0.026(7)
C10 0.126(8) 0.193(11) 0.196(9) -0.139(8) -0.049(7) 0.038(8)
C11 0.145(8) 0.194(10) 0.227(10) -0.139(9) -0.069(8) 0.068(8)
C12 0.110(7) 0.220(11) 0.212(9) -0.172(9) -0.061(6) 0.056(7)
C13 0.091(6) 0.219(11) 0.258(10) -0.218(9) -0.044(7) 0.049(7)
C14 0.145(9) 0.265(13) 0.367(16) -0.271(13) -0.133(10) 0.095(8)
C15 0.163(10) 0.288(15) 0.344(16) -0.254(14) -0.120(10) 0.106(10)
C16 0.047(5) 0.303(15) 0.273(12) -0.221(11) -0.031(7) 0.007(7)
C17 0.044(4) 0.064(5) 0.063(5) 0.000 -0.001(4) 0.000
C18 0.022(4) 0.105(7) 0.064(5) 0.000 0.008(4) 0.000
C19 0.035(5) 0.278(16) 0.098(8) 0.000 -0.005(5) 0.000
C20 0.030(5) 0.39(2) 0.082(7) 0.000 -0.004(5) 0.000
C21 0.028(4) 0.124(8) 0.110(7) 0.000 0.010(5) 0.000
C22 0.035(5) 0.174(10) 0.076(6) 0.000 -0.014(4) 0.000
C23 0.042(5) 0.153(9) 0.051(5) 0.000 -0.011(4) 0.000
C24 0.031(6) 0.173(11) 0.111(7) 0.000 0.001(5) 0.000
C25 0.030(5) 0.168(10) 0.108(7) 0.000 0.005(5) 0.000
C26 0.026(5) 0.125(9) 0.099(6) 0.000 0.004(4) 0.000
C27 0.030(4) 0.117(6) 0.184(7) -0.010(5) -0.001(4) -0.009(4)
C28 0.030(3) 0.095(5) 0.162(6) -0.014(5) 0.005(3) -0.006(3)
C29 0.023(4) 0.111(7) 0.063(5) 0.000 0.001(3) 0.000
C30 0.030(4) 0.079(6) 0.049(4) 0.000 0.000(3) 0.000

_geom_special_details            
;
All esds (except the esd in the dihedral angle between two l.s. planes)
are estimated using the full covariance matrix. The cell esds are taken
into account individually in the estimation of esds in distances, angles
and torsion angles; correlations between esds in cell parameters are only
used when they are defined by crystal symmetry. An approximate (isotropic)
treatment of cell esds is used for estimating esds involving l.s. planes.
;

loop_
_geom_bond_atom_site_label_1
_geom_bond_atom_site_label_2
_geom_bond_distance
_geom_bond_site_symmetry_2
_geom_bond_publ_flag
Zn1 O4 1.903(4) 2_654 ?
Zn1 O1 1.939(2) . ?
Zn1 O8 1.969(3) 8_455 ?
Zn1 O2 1.987(4) . ?
Zn2 O1 1.923(4) . ?
Zn2 O7 1.946(4) . ?
Zn2 O3 1.956(3) 8 ?
Zn2 O3 1.956(3) . ?
Zn2 Zn1 3.1442(8) 8 ?
Zn3 O5 1.888(5) 2_654 ?
Zn3 O5 1.888(5) 7_755 ?
Zn3 O1 1.960(4) . ?
Zn3 O6 1.986(5) . ?
Zn3 O10 2.270(14) . ?
Zn3 O9 2.345(11) . ?
O1 Zn1 1.939(2) 8 ?
