
#######################################################################
#
#                 Cambridge Crystallographic Data Centre
#                                CCDC
#
#######################################################################
#
# If this CIF has been generated from an entry in the Cambridge
# Structural Database, then it will include bibliographic, chemical,
# crystal, experimental, refinement or atomic coordinate data resulting
# from the CCDC's data processing and validation procedures.
#
#######################################################################

data_CSD_CIF_FAJXOE
_audit_creation_date 2005-04-13
_audit_creation_method CSD-ConQuest-V1
_database_code_CSD FAJXOE
_database_code_depnum_ccdc_archive 'CCDC 249785'
_chemical_formula_sum 'C36 H24 F12 N6 Os1 P2'
_chemical_formula_moiety
;
C36 H24 N6 Os1 2+,2(F6 P1 1-)
;
_journal_coden_Cambridge 182
_journal_year 2004
_journal_page_first 2858
_journal_name_full 'Chem.Commun. '
loop_
_publ_author_name
"A.Nakamura"
"T.Sato"
"R.Kuroda"
_chemical_name_systematic
;
\L-tris(1,10-Phenanthroline)-osmium(ii) bis(hexafluorophosphate)
;
_chemical_name_common
;
Teaching Subset: Fundamental Chemistry
;
_cell_volume   7582.630
_exptl_crystal_colour 'black'
_exptl_crystal_density_diffrn 1.788
_exptl_special_details
;
isomorphous with the ruthenium analogue

;
_exptl_crystal_description 'plate'
_diffrn_ambient_temperature 298
#These two values have been output from a single CSD field.
_refine_ls_R_factor_gt 0.0553
_refine_ls_wR_factor_gt 0.0553
loop_
_citation_database_id_CSD
_citation_special_details
FAMZEZ "is a racemate of this entry"
_symmetry_cell_setting orthorhombic
_symmetry_space_group_name_H-M 'P 21 21 21'
_symmetry_Int_Tables_number 19
loop_
_symmetry_equiv_pos_site_id
_symmetry_equiv_pos_as_xyz
1 x,y,z
2 1/2-x,-y,1/2+z
3 1/2+x,1/2-y,-z
4 -x,1/2+y,1/2-z
_cell_length_a 13.1878(13)
_cell_length_b 17.9354(16)
_cell_length_c 32.058(3)
_cell_angle_alpha 90
_cell_angle_beta 90
_cell_angle_gamma 90
_cell_formula_units_Z 8
loop_
_atom_type_symbol
_atom_type_radius_bond
C 0.68
H 0.23
F 0.64
N 0.68
Os 1.37
P 1.05
loop_
_atom_site_label
_atom_site_type_symbol
_atom_site_fract_x
_atom_site_fract_y
_atom_site_fract_z
N1 N -0.1228(5) 0.4306(3) 0.5294(2)
C1 C -0.1987(7) 0.4591(5) 0.5514(3)
H1 H -0.18420 0.49690 0.57030
C2 C -0.2991(8) 0.4356(5) 0.5476(3)
H2 H -0.35000 0.45620 0.56400
C3 C -0.3204(8) 0.3806(5) 0.5187(3)
H3 H -0.38680 0.36420 0.51540
C4 C -0.2582(8) 0.2931(5) 0.4627(3)
H4 H -0.32300 0.27490 0.45720
C5 C -0.1824(9) 0.2683(6) 0.4421(3)
H5 H -0.19490 0.23290 0.42160
C6 C 0.0078(8) 0.2654(6) 0.4265(3)
H6 H 0.00060 0.22980 0.40560
C7 C 0.1011(9) 0.2937(5) 0.4363(3)
H7 H 0.15810 0.27660 0.42210
C8 C 0.1120(8) 0.3477(5) 0.4674(3)
H8 H 0.17650 0.36610 0.47320
N2 N 0.0331(6) 0.3739(3) 0.48897(19)
C9 C -0.0607(6) 0.3459(4) 0.4789(2)
C10 C -0.0774(8) 0.2916(5) 0.4487(3)
C11 C -0.2436(7) 0.3495(4) 0.4947(3)
C12 C -0.1461(7) 0.3741(4) 0.5016(3)
N3 N 0.0024(5) 0.5580(3) 0.56459(19)
C13 C 0.0055(7) 0.5679(5) 0.6055(3)
H9 H 0.02390 0.52750 0.62200
C14 C -0.0170(8) 0.6347(5) 0.6251(3)
H10 H -0.01280 0.63820 0.65400
C15 C -0.0461(8) 0.6971(5) 0.6016(3)
H11 H -0.06440 0.74190 0.61410
C16 C -0.0697(7) 0.7486(5) 0.5302(3)
H12 H -0.08650 0.79500 0.54110
C17 C -0.0682(8) 0.7397(6) 0.4900(3)
H13 H -0.08080 0.78080 0.47310
C18 C -0.0498(8) 0.6539(5) 0.4276(3)
H14 H -0.06560 0.69200 0.40910
C19 C -0.0291(9) 0.5847(5) 0.4129(3)
H15 H -0.02800 0.57550 0.38430
C20 C -0.0095(7) 0.5274(5) 0.4413(3)
H16 H 0.00090 0.47940 0.43120
N4 N -0.0051(5) 0.5389(4) 0.4831(2)
C21 C -0.0248(7) 0.6096(4) 0.4956(2)
C22 C -0.0477(7) 0.6686(5) 0.4704(3)
C23 C -0.0461(7) 0.6886(4) 0.5581(3)
C24 C -0.0230(6) 0.6200(4) 0.5409(2)
N5 N 0.0737(5) 0.3972(3) 0.5790(2)
C25 C 0.0188(8) 0.3496(5) 0.6020(3)
H17 H -0.04860 0.34180 0.59460
C26 C 0.0573(8) 0.3109(5) 0.6365(3)
H18 H 0.01730 0.27800 0.65170
C27 C 0.1568(8) 0.3239(5) 0.6469(3)
H19 H 0.18440 0.29900 0.66970
C28 C 0.3220(8) 0.3891(5) 0.6337(3)
H20 H 0.35260 0.36920 0.65730
C29 C 0.3757(9) 0.4318(5) 0.6093(3)
H21 H 0.44350 0.43990 0.61590
C30 C 0.3874(9) 0.5118(5) 0.5447(3)
H22 H 0.45560 0.52250 0.54910
C31 C 0.3400(9) 0.5396(6) 0.5113(3)
H23 H 0.37630 0.56830 0.49230
C32 C 0.2369(8) 0.5263(5) 0.5043(3)
H24 H 0.20590 0.54670 0.48080
N6 N 0.1820(5) 0.4851(3) 0.5305(2)
C33 C 0.2294(7) 0.4540(5) 0.5645(3)
C34 C 0.3350(7) 0.4667(5) 0.5731(3)
C35 C 0.2152(7) 0.3710(5) 0.6255(3)
C36 C 0.1739(7) 0.4085(4) 0.5908(3)
Os1 Os 0.02805(3) 0.463023(17) 0.529398(10)
N7 N 0.2197(6) 0.9098(4) 0.6558(2)
C37 C 0.2179(9) 0.9845(5) 0.6576(3)
H25 H 0.22600 1.00750 0.68340
C38 C 0.2044(9) 1.0289(7) 0.6226(4)
H26 H 0.20610 1.08050 0.62510
C39 C 0.1889(9) 0.9977(6) 0.5851(4)
H27 H 0.17720 1.02750 0.56180
C40 C 0.1799(9) 0.8799(6) 0.5438(3)
H28 H 0.16770 0.90640 0.51940
C41 C 0.1866(8) 0.8055(5) 0.5417(3)
H29 H 0.17840 0.78200 0.51600
C42 C 0.2231(8) 0.6846(5) 0.5799(3)
H30 H 0.22150 0.65730 0.55520
C43 C 0.2415(8) 0.6496(5) 0.6161(3)
H31 H 0.25080 0.59820 0.61660
C44 C 0.2465(7) 0.6901(5) 0.6529(3)
H32 H 0.26090 0.66530 0.67770
N8 N 0.2311(5) 0.7641(3) 0.65370(19)
C45 C 0.2132(7) 0.8004(4) 0.6167(3)
C46 C 0.2066(8) 0.7603(5) 0.5786(3)
C47 C 0.1906(8) 0.9197(5) 0.5812(3)
C48 C 0.2078(7) 0.8772(5) 0.6177(3)
N9 N 0.3831(5) 0.8496(3) 0.7086(2)
C49 C 0.4585(7) 0.8137(4) 0.6879(3)
H33 H 0.44080 0.77640 0.66910
C50 C 0.5602(7) 0.8295(5) 0.6934(3)
H34 H 0.60860 0.80250 0.67870
C51 C 0.5898(8) 0.8840(5) 0.7200(3)
H35 H 0.65820 0.89550 0.72290
C52 C 0.5378(9) 0.9812(5) 0.7727(3)
H36 H 0.60460 0.99490 0.77790
C53 C 0.4615(8) 1.0157(5) 0.7928(3)
H37 H 0.47740 1.05370 0.81130
C54 C 0.2736(10) 1.0317(6) 0.8058(3)
H38 H 0.28480 1.07130 0.82390
C55 C 0.178(1) 1.0090(6) 0.7982(4)
H39 H 0.12350 1.03190 0.81140
C56 C 0.1616(9) 0.9496(6) 0.7696(3)
H40 H 0.09560 0.93350 0.76470
N10 N 0.2374(6) 0.9164(4) 0.7498(2)
C57 C 0.3357(7) 0.9391(4) 0.7576(3)
C58 C 0.3566(8) 0.9965(5) 0.7869(3)
C59 C 0.5163(7) 0.9233(5) 0.7432(3)
C60 C 0.4138(7) 0.9039(5) 0.7363(3)
N11 N 0.0756(5) 0.8182(4) 0.7082(2)
C61 C 0.0010(8) 0.8502(5) 0.6855(3)
H41 H 0.01610 0.88760 0.66640
C62 C -0.1002(9) 0.8264(6) 0.6910(3)
H42 H -0.15080 0.84840 0.67490
C63 C -0.1255(9) 0.7750(6) 0.7177(3)
H43 H -0.19330 0.76110 0.71990
C64 C -0.0694(9) 0.6858(6) 0.7736(3)
H44 H -0.13530 0.66880 0.77750
C65 C 0.0017(8) 0.6562(5) 0.7974(3)
H45 H -0.01540 0.62050 0.81720
C66 C 0.1887(8) 0.6543(6) 0.8151(3)
H46 H 0.17810 0.61970 0.83620
C67 C 0.2843(8) 0.6784(5) 0.8072(3)
H47 H 0.33830 0.66210 0.82340
C68 C 0.3006(8) 0.7281(5) 0.7743(3)
H48 H 0.36670 0.74230 0.76810
N12 N 0.2246(6) 0.7560(4) 0.7516(2)
C69 C 0.1258(7) 0.7328(5) 0.7609(3)
C70 C 0.1075(7) 0.6796(5) 0.7925(3)
C71 C -0.0550(8) 0.7408(5) 0.7427(3)
C72 C 0.0487(7) 0.7653(5) 0.7353(3)
Os2 Os 0.22992(3) 0.835425(19) 0.704545(10)
P1 P 0.8603(2) 0.00280(15) 0.78060(8)
F1 F 0.7777(6) 0.0502(4) 0.7598(3)
F2 F 0.8036(6) 0.0132(3) 0.8243(2)
F3 F 0.9190(5) 0.0786(3) 0.7887(2)
F4 F 0.9446(5) -0.0407(4) 0.8054(2)
F5 F 0.9210(7) -0.0060(4) 0.7395(2)
F6 F 0.7988(6) -0.0720(3) 0.7751(2)
P2 P 0.9195(3) 0.1423(2) 0.55953(10)
F7 F 0.8425(8) 0.0856(5) 0.5769(3)
F8 F 0.8544(7) 0.2082(5) 0.5787(3)
F9 F 0.9827(9) 0.1422(6) 0.6003(3)
F10 F 0.9915(6) 0.2043(4) 0.5396(3)
F11 F 0.9871(6) 0.0773(5) 0.5410(3)
F12 F 0.8568(7) 0.1411(5) 0.5181(2)
P3 P 0.6311(3) 0.65833(18) 0.59130(9)
F13 F 0.5747(6) 0.6356(5) 0.5503(2)
F14 F 0.5275(8) 0.6858(5) 0.6087(3)
F15 F 0.6535(7) 0.7375(4) 0.5726(3)
F16 F 0.686(1) 0.6801(4) 0.6316(3)
F17 F 0.7306(7) 0.6282(4) 0.5715(4)
F18 F 0.6049(7) 0.5776(4) 0.6092(2)
P4 P 0.6032(2) 0.67748(19) 0.80370(11)
F19 F 0.5339(6) 0.6718(5) 0.7655(3)
F20 F 0.5301(7) 0.7426(5) 0.8200(3)
F21 F 0.6679(7) 0.7413(5) 0.7821(3)
F22 F 0.6714(7) 0.6884(4) 0.8436(3)
F23 F 0.6778(7) 0.6164(4) 0.7881(3)
F24 F 0.5396(9) 0.6199(5) 0.8265(4)
#END
