####################################################################### 
# 
# This file contains crystal structure data downloaded from the 
# Cambridge Structural Database (CSD) hosted by the Cambridge 
# Crystallographic Data Centre (CCDC).
# 
# Full information about CCDC data access policies and citation 
# guidelines are available at http://www.ccdc.cam.ac.uk/access/V1 
# 
# Audit and citation data items may have been added by the CCDC. 
# Please retain this information to preserve the provenance of 
# this file and to allow appropriate attribution of the data. 
# 
#######################################################################

data_z
_audit_block_doi                 10.5517/ccw3tlc
_database_code_depnum_ccdc_archive 'CCDC 808033'
loop_
_citation_id
_citation_doi
_citation_year
1 10.1016/j.poly.2011.11.010 2012
_audit_update_record             
;
2011-01-13 deposited with the CCDC.	2024-07-10 downloaded from the CCDC.
;
#TrackingRef 'z.cif'


_audit_creation_method           SHELXL-97
_chemical_name_systematic        
;
?
;
_chemical_name_common            ?
_chemical_melting_point          ?
_chemical_formula_moiety         ?
_chemical_formula_sum            'C64 H42 Co3 N7 O21'
_chemical_formula_weight         1421.84

loop_
_atom_type_symbol
_atom_type_description
_atom_type_scat_dispersion_real
_atom_type_scat_dispersion_imag
_atom_type_scat_source
C C 0.0033 0.0016 'International Tables Vol C Tables 4.2.6.8 and 6.1.1.4'
H H 0.0000 0.0000 'International Tables Vol C Tables 4.2.6.8 and 6.1.1.4'
N N 0.0061 0.0033 'International Tables Vol C Tables 4.2.6.8 and 6.1.1.4'
O O 0.0106 0.0060 'International Tables Vol C Tables 4.2.6.8 and 6.1.1.4'
Co Co 0.3494 0.9721 'International Tables Vol C Tables 4.2.6.8 and 6.1.1.4'

_symmetry_cell_setting           Monoclinic
_symmetry_space_group_name_H-M   P2(1)/n

loop_
_symmetry_equiv_pos_as_xyz
'x, y, z'
'-x+1/2, y+1/2, -z+1/2'
'-x, -y, -z'
'x-1/2, -y-1/2, z-1/2'

_cell_length_a                   13.8773(6)
_cell_length_b                   21.6080(8)
_cell_length_c                   34.9221(14)
_cell_angle_alpha                90.00
_cell_angle_beta                 96.2360(10)
_cell_angle_gamma                90.00
_cell_volume                     10409.8(7)
_cell_formula_units_Z            4
_cell_measurement_temperature    173(2)
_cell_measurement_reflns_used    ?
_cell_measurement_theta_min      ?
_cell_measurement_theta_max      ?

_exptl_crystal_description       block
_exptl_crystal_colour            purple
_exptl_crystal_size_max          0.62
_exptl_crystal_size_mid          0.49
_exptl_crystal_size_min          0.22
_exptl_crystal_density_meas      ?
_exptl_crystal_density_diffrn    0.907
_exptl_crystal_density_method    'not measured'
_exptl_crystal_F_000             2896
_exptl_absorpt_coefficient_mu    0.523
_exptl_absorpt_correction_type   multi-scan
_exptl_absorpt_correction_T_min  0.7381
_exptl_absorpt_correction_T_max  0.8959
_exptl_absorpt_process_details   ?

_exptl_special_details           
;
?
;

_diffrn_ambient_temperature      173(2)
_diffrn_radiation_wavelength     0.71073
_diffrn_radiation_type           MoK\a
_diffrn_radiation_source         'fine-focus sealed tube'
_diffrn_radiation_monochromator  graphite
_diffrn_measurement_device_type  ?
_diffrn_measurement_method       ?
_diffrn_detector_area_resol_mean ?
_diffrn_standards_number         ?
_diffrn_standards_interval_count ?
_diffrn_standards_interval_time  ?
_diffrn_standards_decay_%        ?
_diffrn_reflns_number            120699
_diffrn_reflns_av_R_equivalents  0.0764
_diffrn_reflns_av_sigmaI/netI    0.0594
_diffrn_reflns_limit_h_min       -16
_diffrn_reflns_limit_h_max       16
_diffrn_reflns_limit_k_min       -25
_diffrn_reflns_limit_k_max       25
_diffrn_reflns_limit_l_min       -41
_diffrn_reflns_limit_l_max       40
_diffrn_reflns_theta_min         1.11
_diffrn_reflns_theta_max         25.01
_reflns_number_total             18354
_reflns_number_gt                10727
_reflns_threshold_expression     >2sigma(I)

_computing_data_collection       ?
_computing_cell_refinement       ?
_computing_data_reduction        ?
_computing_structure_solution    'SHELXS-97 (Sheldrick, 1990)'
_computing_structure_refinement  'SHELXL-97 (Sheldrick, 1997)'
_computing_molecular_graphics    ?
_computing_publication_material  ?

_refine_special_details          
;
Refinement of F^2^ against ALL reflections. The weighted R-factor wR and
goodness of fit S are based on F^2^, conventional R-factors R are based
on F, with F set to zero for negative F^2^. The threshold expression of
F^2^ > 2sigma(F^2^) is used only for calculating R-factors(gt) etc. and is
not relevant to the choice of reflections for refinement. R-factors based
on F^2^ are statistically about twice as large as those based on F, and R-
factors based on ALL data will be even larger.
;

_refine_ls_structure_factor_coef Fsqd
_refine_ls_matrix_type           full
_refine_ls_weighting_scheme      calc
_refine_ls_weighting_details     
'calc w=1/[\s^2^(Fo^2^)+(0.1669P)^2^+0.0000P] where P=(Fo^2^+2Fc^2^)/3'
_atom_sites_solution_primary     direct
_atom_sites_solution_secondary   difmap
_atom_sites_solution_hydrogens   geom
_refine_ls_hydrogen_treatment    constr
_refine_ls_extinction_method     none
_refine_ls_extinction_coef       ?
_refine_ls_number_reflns         18354
_refine_ls_number_parameters     847
_refine_ls_number_restraints     0
_refine_ls_R_factor_all          0.1185
_refine_ls_R_factor_gt           0.0844
_refine_ls_wR_factor_ref         0.2495
_refine_ls_wR_factor_gt          0.2302
_refine_ls_goodness_of_fit_ref   0.971
_refine_ls_restrained_S_all      0.971
_refine_ls_shift/su_max          0.001
_refine_ls_shift/su_mean         0.000

loop_
_atom_site_label
_atom_site_type_symbol
_atom_site_fract_x
_atom_site_fract_y
_atom_site_fract_z
_atom_site_U_iso_or_equiv
_atom_site_adp_type
_atom_site_occupancy
_atom_site_symmetry_multiplicity
_atom_site_calc_flag
_atom_site_refinement_flags
_atom_site_disorder_assembly
_atom_site_disorder_group
Co1 Co 1.52164(6) 0.49346(3) -0.851347(18) 0.0573(2) Uani 1 1 d . . .
Co2 Co 1.70022(5) 0.41584(3) -0.812188(17) 0.0531(2) Uani 1 1 d . . .
Co3 Co 1.72829(6) -0.43149(3) -0.837745(19) 0.0642(2) Uani 1 1 d . . .
O4 O 1.3987(2) 0.07344(12) -1.08309(7) 0.0403(7) Uani 1 1 d . . .
O7 O 1.4988(2) 0.06932(13) -0.90969(8) 0.0467(7) Uani 1 1 d . . .
O10 O 1.8516(2) 0.08870(14) -0.92679(9) 0.0534(8) Uani 1 1 d . . .
O20 O 1.6629(3) 0.48847(12) -0.85052(8) 0.0514(8) Uani 1 1 d . . .
N2 N 1.2970(2) -0.00787(14) -1.09910(9) 0.0369(8) Uani 1 1 d . . .
H2A H 1.2574 -0.0339 -1.0893 0.044 Uiso 1 1 calc R . .
C1 C 1.3744(3) -0.07031(17) -0.98172(10) 0.0313(8) Uani 1 1 d . . .
O13 O 1.9997(2) 0.08011(15) -1.09250(8) 0.0566(8) Uani 1 1 d . . .
O1 O 1.3141(3) -0.17217(14) -0.98844(9) 0.0678(10) Uani 1 1 d . . .
N1 N 1.4379(3) -0.15436(14) -0.94160(9) 0.0443(9) Uani 1 1 d . . .
H1A H 1.4772 -0.1251 -0.9318 0.053 Uiso 1 1 calc R . .
O5 O 1.2428(3) -0.06356(15) -1.27921(9) 0.0656(10) Uani 1 1 d . . .
O8 O 1.4756(3) 0.41388(16) -0.87391(11) 0.0747(11) Uani 1 1 d . . .
C4 C 1.3865(3) 0.05263(18) -1.00456(10) 0.0327(9) Uani 1 1 d . . .
H4A H 1.3916 0.0945 -1.0124 0.039 Uiso 1 1 calc R . .
C15 C 1.3551(3) 0.02774(17) -1.07350(10) 0.0339(9) Uani 1 1 d . . .
O15 O 1.9753(3) 0.00384(13) -1.30032(8) 0.0537(8) Uani 1 1 d . . .
O16 O 1.7917(2) -0.14925(13) -1.02311(9) 0.0516(8) Uani 1 1 d . . .
O6 O 1.3048(2) 0.03217(15) -1.27952(8) 0.0581(8) Uani 1 1 d . . .
C6 C 1.3960(3) -0.02445(17) -0.95481(11) 0.0329(9) Uani 1 1 d . . .
H6A H 1.4070 -0.0353 -0.9283 0.039 Uiso 1 1 calc R . .
O3 O 1.4685(3) -0.43425(15) -0.88114(10) 0.0738(11) Uani 1 1 d . . .
C3 C 1.3637(3) 0.00710(16) -1.03204(11) 0.0315(8) Uani 1 1 d . . .
C2 C 1.3577(3) -0.05332(16) -1.02099(10) 0.0319(8) Uani 1 1 d . . .
H2B H 1.3420 -0.0843 -1.0399 0.038 Uiso 1 1 calc R . .
N3 N 1.4012(3) 0.14043(16) -0.94064(10) 0.0485(9) Uani 1 1 d . . .
H3A H 1.3526 0.1447 -0.9589 0.058 Uiso 1 1 calc R . .
N6 N 1.8578(3) -0.13231(17) -0.96176(11) 0.0526(10) Uani 1 1 d . . .
H6B H 1.8950 -0.1066 -0.9473 0.063 Uiso 1 1 calc R . .
C5 C 1.4019(3) 0.03746(18) -0.96544(10) 0.0338(9) Uani 1 1 d . . .
N4 N 1.8839(3) 0.16485(17) -0.96717(11) 0.0542(10) Uani 1 1 d . . .
H4B H 1.9063 0.1727 -0.9893 0.065 Uiso 1 1 calc R . .
N5 N 1.8979(3) 0.00898(18) -1.12326(11) 0.0551(10) Uani 1 1 d . . .
H5A H 1.8500 -0.0168 -1.1206 0.066 Uiso 1 1 calc R . .
C32 C 1.9021(3) 0.07184(19) -1.02681(11) 0.0380(9) Uani 1 1 d . . .
H32A H 1.9180 0.1131 -1.0332 0.046 Uiso 1 1 calc R . .
C23 C 1.4376(3) 0.08354(17) -0.93559(11) 0.0351(9) Uani 1 1 d . . .
C37 C 1.8721(3) 0.1051(2) -0.95831(12) 0.0416(10) Uani 1 1 d . . .
O9 O 1.5960(4) 0.36065(17) -0.84057(12) 0.1087(18) Uani 1 1 d . . .
C13 C 1.5321(4) -0.2203(2) -0.89710(13) 0.0551(12) Uani 1 1 d . . .
H13A H 1.5746 -0.1864 -0.8910 0.066 Uiso 1 1 calc R . .
O2 O 1.5812(3) -0.39134(16) -0.84034(9) 0.0668(10) Uani 1 1 d . . .
C36 C 1.8617(3) -0.0028(2) -0.98034(13) 0.0438(10) Uani 1 1 d . . .
H36A H 1.8511 -0.0123 -0.9546 0.053 Uiso 1 1 calc R . .
C31 C 1.8806(3) 0.0572(2) -0.98963(12) 0.0409(10) Uani 1 1 d . . .
C53 C 1.8331(3) -0.1141(2) -0.99865(12) 0.0443(10) Uani 1 1 d . . .
C16 C 1.2947(3) -0.00673(18) -1.13916(11) 0.0397(10) Uani 1 1 d . . .
C35 C 1.8575(3) -0.0504(2) -1.00736(12) 0.0418(10) Uani 1 1 d . . .
O19 O 1.7391(3) 0.3435(2) -0.77366(11) 0.0892(13) Uani 1 1 d . . .
C52 C 2.0253(4) 0.0275(2) -1.27219(14) 0.0536(12) Uani 1 1 d . . .
C24 C 1.4319(3) 0.19506(19) -0.91989(13) 0.0496(11) Uani 1 1 d . . .
C8 C 1.4519(3) -0.21283(19) -0.92455(12) 0.0467(11) Uani 1 1 d . . .
C19 C 1.2853(4) -0.0139(2) -1.21951(12) 0.0509(11) Uani 1 1 d . . .
C33 C 1.8998(3) 0.0249(2) -1.05438(12) 0.0434(10) Uani 1 1 d . . .
C7 C 1.3709(3) -0.13649(18) -0.97158(11) 0.0391(10) Uani 1 1 d . . .
O14 O 2.1049(3) 0.05471(18) -1.27401(10) 0.0681(10) Uani 1 1 d . . .
C38 C 1.8635(4) 0.2173(2) -0.94417(13) 0.0539(12) Uani 1 1 d . . .
C14 C 1.5146(4) -0.3874(2) -0.86798(13) 0.0607(13) Uani 1 1 d . . .
O17 O 1.7344(3) -0.39380(17) -0.89701(10) 0.0843(12) Uani 1 1 d . . .
O18 O 1.7811(3) -0.34462(18) -0.84430(11) 0.0829(12) Uani 1 1 d . . .
C22 C 1.2784(4) -0.0161(2) -1.26275(14) 0.0579(13) Uani 1 1 d . . .
C12 C 1.5502(4) -0.2756(2) -0.87894(14) 0.0603(13) Uani 1 1 d . . .
H12A H 1.6048 -0.2791 -0.8602 0.072 Uiso 1 1 calc R . .
C49 C 1.9912(4) 0.0223(2) -1.23294(14) 0.0559(12) Uani 1 1 d . . .
C21 C 1.3201(4) 0.0435(2) -1.16069(12) 0.0537(12) Uani 1 1 d . . .
H21A H 1.3400 0.0810 -1.1480 0.064 Uiso 1 1 calc R . .
C20 C 1.3170(4) 0.0398(2) -1.19937(13) 0.0576(13) Uani 1 1 d . . .
H20A H 1.3368 0.0745 -1.2133 0.069 Uiso 1 1 calc R . .
C34 C 1.8749(3) -0.0352(2) -1.04538(12) 0.0445(10) Uani 1 1 d . . .
H34A H 1.8696 -0.0661 -1.0648 0.053 Uiso 1 1 calc R . .
C10 C 1.4091(4) -0.3180(2) -0.91363(16) 0.0749(17) Uani 1 1 d . . .
H10A H 1.3649 -0.3513 -0.9187 0.090 Uiso 1 1 calc R . .
O11 O 1.7974(4) 0.37608(19) -0.84666(10) 0.1001(15) Uani 1 1 d . . .
C27 C 1.4884(4) 0.3045(2) -0.88302(13) 0.0578(13) Uani 1 1 d . . .
C30 C 1.5198(5) 0.3655(3) -0.86352(15) 0.0744(18) Uani 1 1 d . . .
C45 C 1.9363(3) 0.0407(2) -1.09188(12) 0.0491(11) Uani 1 1 d . . .
C54 C 1.8319(3) -0.1869(2) -0.94357(13) 0.0546(12) Uani 1 1 d . . .
C46 C 1.9306(3) 0.0151(2) -1.16013(13) 0.0515(11) Uani 1 1 d . . .
C17 C 1.2622(4) -0.0605(2) -1.15874(12) 0.0584(13) Uani 1 1 d . . .
H17A H 1.2436 -0.0952 -1.1446 0.070 Uiso 1 1 calc R . .
C50 C 1.9000(4) 0.0022(2) -1.22800(15) 0.0689(15) Uani 1 1 d . . .
H50A H 1.8571 -0.0099 -1.2498 0.083 Uiso 1 1 calc R . .
C11 C 1.4918(4) -0.3265(2) -0.88697(13) 0.0588(13) Uani 1 1 d . . .
O12 O 1.7399(5) 0.4198(2) -0.90359(13) 0.124(2) Uani 1 1 d . . .
C18 C 1.2569(4) -0.0635(2) -1.19872(14) 0.0643(14) Uani 1 1 d . . .
H18A H 1.2336 -0.1001 -1.2117 0.077 Uiso 1 1 calc R . .
C41 C 1.8151(5) 0.3220(3) -0.90431(15) 0.0741(16) Uani 1 1 d . . .
C57 C 1.7910(4) -0.2914(3) -0.90313(15) 0.0700(15) Uani 1 1 d . . .
C26 C 1.4007(4) 0.3004(2) -0.90434(16) 0.0739(16) Uani 1 1 d . . .
H26A H 1.3595 0.3356 -0.9068 0.089 Uiso 1 1 calc R . .
C39 C 1.8364(5) 0.2708(2) -0.96353(16) 0.0804(17) Uani 1 1 d . . .
H39A H 1.8347 0.2724 -0.9908 0.096 Uiso 1 1 calc R . .
C43 C 1.8601(5) 0.2160(3) -0.90490(15) 0.0795(17) Uani 1 1 d . . .
H43A H 1.8738 0.1785 -0.8912 0.095 Uiso 1 1 calc R . .
C25 C 1.3702(4) 0.2456(2) -0.92252(16) 0.0675(15) Uani 1 1 d . . .
H25A H 1.3078 0.2428 -0.9366 0.081 Uiso 1 1 calc R . .
C42 C 1.8372(5) 0.2682(2) -0.88542(15) 0.0751(16) Uani 1 1 d . . .
H42A H 1.8369 0.2667 -0.8583 0.090 Uiso 1 1 calc R . .
C58 C 1.8281(6) -0.2393(3) -0.88533(17) 0.120(3) Uani 1 1 d . . .
H58A H 1.8396 -0.2385 -0.8580 0.143 Uiso 1 1 calc R . .
C29 C 1.5218(4) 0.1989(2) -0.89876(16) 0.0723(16) Uani 1 1 d . . .
H29A H 1.5647 0.1645 -0.8967 0.087 Uiso 1 1 calc R . .
C28 C 1.5472(4) 0.2540(2) -0.88080(16) 0.0758(17) Uani 1 1 d . . .
H28A H 1.6089 0.2569 -0.8661 0.091 Uiso 1 1 calc R . .
C9 C 1.3911(4) -0.2628(2) -0.93235(15) 0.0758(18) Uani 1 1 d . . .
H9A H 1.3361 -0.2588 -0.9509 0.091 Uiso 1 1 calc R . .
C60 C 1.7687(5) -0.3467(3) -0.88066(16) 0.0749(16) Uani 1 1 d . . .
C59 C 1.8489(6) -0.1891(3) -0.90550(17) 0.119(3) Uani 1 1 d . . .
H59A H 1.8766 -0.1540 -0.8921 0.143 Uiso 1 1 calc R . .
C55 C 1.7965(6) -0.2374(3) -0.96213(18) 0.103(2) Uani 1 1 d . . .
H55A H 1.7846 -0.2372 -0.9894 0.124 Uiso 1 1 calc R . .
C40 C 1.8118(5) 0.3223(3) -0.94339(16) 0.092(2) Uani 1 1 d . . .
H40A H 1.7920 0.3589 -0.9571 0.111 Uiso 1 1 calc R . .
C51 C 1.8693(4) -0.0007(3) -1.19190(15) 0.0749(17) Uani 1 1 d . . .
H51A H 1.8051 -0.0139 -1.1890 0.090 Uiso 1 1 calc R . .
C47 C 2.0226(4) 0.0336(3) -1.16429(15) 0.0817(18) Uani 1 1 d . . .
H47A H 2.0663 0.0438 -1.1423 0.098 Uiso 1 1 calc R . .
C44 C 1.7818(7) 0.3770(3) -0.88233(19) 0.108(3) Uani 1 1 d . . .
C56 C 1.7771(6) -0.2903(3) -0.94177(17) 0.105(3) Uani 1 1 d . . .
H56A H 1.7537 -0.3263 -0.9554 0.127 Uiso 1 1 calc R . .
C48 C 2.0521(4) 0.0375(3) -1.20128(17) 0.0834(18) Uani 1 1 d . . .
H48A H 2.1159 0.0511 -1.2043 0.100 Uiso 1 1 calc R . .
N7 N 1.7035(8) 0.2530(3) -0.7437(2) 0.150(3) Uani 1 1 d . . .
C63 C 1.6956(11) 0.3000(4) -0.7702(3) 0.185(6) Uani 1 1 d . . .
C62 C 1.6287(12) 0.2030(5) -0.7404(3) 0.264(9) Uani 1 1 d . . .
H62A H 1.5719 0.2110 -0.7589 0.396 Uiso 1 1 calc R . .
H62B H 1.6092 0.2029 -0.7142 0.396 Uiso 1 1 calc R . .
H62C H 1.6565 0.1626 -0.7458 0.396 Uiso 1 1 calc R . .
C61 C 1.7896(11) 0.2553(9) -0.7203(5) 0.400(17) Uani 1 1 d . . .
H61A H 1.8282 0.2903 -0.7278 0.600 Uiso 1 1 calc R . .
H61B H 1.8256 0.2168 -0.7228 0.600 Uiso 1 1 calc R . .
H61C H 1.7765 0.2605 -0.6934 0.600 Uiso 1 1 calc R . .
O21 O 1.8714(4) -0.4683(3) -0.84475(16) 0.1298(19) Uani 1 1 d . . .

loop_
_atom_site_aniso_label
_atom_site_aniso_U_11
_atom_site_aniso_U_22
_atom_site_aniso_U_33
_atom_site_aniso_U_23
_atom_site_aniso_U_13
_atom_site_aniso_U_12
Co1 0.1006(6) 0.0296(3) 0.0420(4) 0.0075(2) 0.0092(4) -0.0036(3)
Co2 0.0859(5) 0.0361(3) 0.0349(4) -0.0036(2) -0.0044(3) -0.0060(3)
Co3 0.1132(6) 0.0367(3) 0.0400(4) 0.0029(3) -0.0044(4) -0.0138(3)
O4 0.0550(17) 0.0367(15) 0.0269(15) 0.0069(11) -0.0064(13) -0.0137(13)
O7 0.0579(19) 0.0509(17) 0.0286(16) -0.0095(13) -0.0081(14) -0.0034(14)
O10 0.068(2) 0.0509(18) 0.0420(19) -0.0118(14) 0.0112(16) -0.0174(15)
O20 0.089(2) 0.0360(15) 0.0276(16) 0.0002(12) -0.0006(15) -0.0069(15)
N2 0.047(2) 0.0421(18) 0.0196(17) 0.0044(13) -0.0034(15) -0.0159(15)
C1 0.035(2) 0.039(2) 0.0189(19) 0.0056(15) -0.0028(16) -0.0056(16)
O13 0.062(2) 0.073(2) 0.0358(18) -0.0115(15) 0.0086(15) -0.0292(17)
O1 0.090(2) 0.0436(18) 0.060(2) 0.0146(15) -0.0369(19) -0.0281(17)
N1 0.058(2) 0.0348(18) 0.037(2) 0.0069(15) -0.0085(17) -0.0209(16)
O5 0.107(3) 0.0450(18) 0.041(2) 0.0007(15) -0.0079(18) 0.0021(18)
O8 0.103(3) 0.048(2) 0.070(3) -0.0193(18) -0.005(2) -0.0129(19)
C4 0.034(2) 0.039(2) 0.026(2) -0.0022(16) 0.0062(16) -0.0113(16)
C15 0.040(2) 0.037(2) 0.023(2) 0.0007(16) -0.0061(17) -0.0084(17)
O15 0.086(2) 0.0431(17) 0.0300(17) -0.0061(13) -0.0015(16) -0.0045(15)
O16 0.0529(18) 0.0476(17) 0.0503(19) -0.0119(14) -0.0118(15) -0.0024(14)
O6 0.080(2) 0.058(2) 0.0347(18) 0.0102(15) -0.0002(16) -0.0045(17)
C6 0.034(2) 0.042(2) 0.022(2) 0.0020(16) 0.0000(16) -0.0062(17)
O3 0.113(3) 0.0458(19) 0.057(2) 0.0252(16) -0.016(2) -0.0081(19)
C3 0.034(2) 0.035(2) 0.025(2) -0.0006(15) 0.0014(16) -0.0027(16)
C2 0.039(2) 0.0292(19) 0.026(2) -0.0016(15) -0.0022(16) -0.0066(16)
N3 0.056(2) 0.046(2) 0.039(2) -0.0132(16) -0.0114(17) -0.0100(17)
N6 0.055(2) 0.055(2) 0.048(2) -0.0112(18) 0.0052(18) -0.0182(18)
C5 0.038(2) 0.041(2) 0.022(2) 0.0008(16) 0.0013(16) 0.0009(17)
N4 0.071(3) 0.052(2) 0.043(2) -0.0116(17) 0.021(2) -0.0021(19)
N5 0.051(2) 0.078(3) 0.038(2) -0.0160(19) 0.0093(18) -0.0171(19)
C32 0.024(2) 0.057(3) 0.032(2) -0.0112(18) 0.0033(17) -0.0086(17)
C23 0.038(2) 0.035(2) 0.032(2) -0.0074(17) 0.0015(18) -0.0043(17)
C37 0.038(2) 0.054(3) 0.033(2) -0.0128(19) 0.0047(19) -0.0138(19)
O9 0.185(5) 0.051(2) 0.073(3) 0.0211(19) -0.065(3) -0.055(3)
C13 0.071(3) 0.041(2) 0.050(3) 0.000(2) -0.011(2) -0.015(2)
O2 0.098(3) 0.068(2) 0.0313(18) 0.0097(15) -0.0058(18) 0.00