
#######################################################################
#
#                 Cambridge Crystallographic Data Centre
#                                CCDC
#
#######################################################################
#
# If this CIF has been generated from an entry in the Cambridge
# Structural Database, then it will include bibliographic, chemical,
# crystal, experimental, refinement or atomic coordinate data resulting
# from the CCDC's data processing and validation procedures.
#
#######################################################################

data_CSD_CIF_FAKHOO
_audit_creation_date 1987-09-22
_audit_creation_method CSD-ConQuest-V1
_database_code_CSD FAKHOO
_database_code_depnum_ccdc_archive 'CCDC 1152005'
_chemical_formula_sum 'C14 H21 N1 O6'
_chemical_formula_moiety
;
C10 H16 N1 1+,C4 H5 O6 1-
;
_journal_coden_Cambridge 188
_journal_year 1986
_journal_page_first 1881
_journal_name_full 'J.Chem.Soc.,Perkin Trans.2 '
loop_
_publ_author_name
"E.Fogassy"
"M.Acs"
"F.Faigl"
"K.Simon"
"J.Rohonczy"
"Z.Ecsery"
_chemical_name_systematic
;
(R)-(-)-N-Methylamphetamine (RR)-tartrate
;
_chemical_name_common
;
(R)-(-)-Methamphetamine (RR)-tartrate; Teaching Subset: Fundamental 
Chemistry, Drug Molecules
;
_chemical_melting_point 436
_cell_volume    747.017
_exptl_crystal_density_diffrn 1.331
_exptl_special_details
;
Melting point range 436-437K

;
_diffrn_ambient_temperature ?
_diffrn_special_details
;
The study was carried out at room temperature,in the range 283-303K

;
#These two values have been output from a single CSD field.
_refine_ls_R_factor_gt 0.034
_refine_ls_wR_factor_gt 0.034
loop_
_citation_database_id_CSD
_citation_special_details
CIVFOC "is a stereoisomer of this entry"
_symmetry_cell_setting monoclinic
_symmetry_space_group_name_H-M 'P 21'
_symmetry_Int_Tables_number 4
loop_
_symmetry_equiv_pos_site_id
_symmetry_equiv_pos_as_xyz
1 x,y,z
2 -x,1/2+y,-z
_cell_length_a 14.039(4)
_cell_length_b 6.899(2)
_cell_length_c 7.715(2)
_cell_angle_alpha 90
_cell_angle_beta 91.39(2)
_cell_angle_gamma 90
_cell_formula_units_Z 2
loop_
_atom_type_symbol
_atom_type_radius_bond
C 0.68
H 0.23
N 0.68
O 0.68
loop_
_atom_site_label
_atom_site_type_symbol
_atom_site_fract_x
_atom_site_fract_y
_atom_site_fract_z
C1 C 0.1715(2) 0.04490 0.4144(5)
N1 N 0.1768(2) 0.0000(5) 0.6030(3)
C2 C 0.2765(2) -0.0079(6) 0.6838(4)
C3 C 0.3174(3) 0.1950(6) 0.6919(5)
C4 C 0.3385(3) -0.1511(6) 0.5843(5)
C5 C 0.4311(2) -0.1927(6) 0.6804(5)
C6 C 0.5117(3) -0.0890(6) 0.6449(5)
C7 C 0.5971(3) -0.1322(8) 0.7307(5)
C8 C 0.6037(3) -0.2775(7) 0.8487(5)
C9 C 0.5239(3) -0.3807(7) 0.8855(6)
C10 C 0.4372(3) -0.3404(6) 0.8021(5)
H1 H 0.204(2) 0.176(6) 0.389(4)
H2 H 0.106(2) 0.064(6) 0.373(4)
H3 H 0.199(2) -0.064(6) 0.349(4)
H4 H 0.148(2) -0.115(6) 0.631(4)
H5 H 0.129(2) 0.090(7) 0.685(5)
H6 H 0.270(2) -0.057(6) 0.809(4)
H7 H 0.306(2) 0.277(8) 0.589(5)
H8 H 0.290(3) 0.257(7) 0.789(5)
H9 H 0.387(3) 0.189(7) 0.711(5)
H10 H 0.300(2) -0.261(6) 0.576(4)
H11 H 0.349(2) -0.098(6) 0.462(4)
H12 H 0.510(2) 0.008(6) 0.559(4)
H13 H 0.652(2) -0.059(6) 0.704(5)
H14 H 0.668(3) -0.304(8) 0.910(5)
H15 H 0.524(2) -0.488(7) 0.970(5)
H16 H 0.382(2) -0.409(6) 0.836(4)
O1 O 0.0921(1) -0.6350(4) 0.7198(3)
C11 C 0.1127(2) -0.4964(5) 0.8205(4)
O2 O 0.1090(2) -0.3215(4) 0.7790(3)
C12 C 0.1418(2) -0.5409(5) 1.0057(4)
O3 O 0.1518(1) -0.7406(3) 1.0423(3)
C13 C 0.0723(2) -0.4455(5) 1.1265(4)
O4 O -0.0212(1) -0.5089(3) 1.0897(2)
C14 C 0.1040(2) -0.4750(5) 1.3145(4)
O5 O 0.1823(1) -0.4309(4) 1.3640(3)
O6 O 0.0390(1) -0.5466(4) 1.4131(2)
H17 H 0.197(2) -0.471(5) 1.040(4)
H18 H 0.123(2) -0.807(6) 0.968(4)
H19 H 0.076(2) -0.302(5) 1.106(3)
H20 H -0.026(2) -0.614(6) 1.171(4)
H21 H 0.056(2) -0.567(6) 1.543(4)
#END
