####################################################################### 
# 
# This file contains crystal structure data downloaded from the 
# Cambridge Structural Database (CSD) hosted by the Cambridge 
# Crystallographic Data Centre (CCDC).
# 
# Full information about CCDC data access policies and citation 
# guidelines are available at http://www.ccdc.cam.ac.uk/access/V1 
# 
# Audit and citation data items may have been added by the CCDC. 
# Please retain this information to preserve the provenance of 
# this file and to allow appropriate attribution of the data. 
# 
#######################################################################

data_hh
_audit_block_doi                 10.5517/ccwh8sd
_database_code_depnum_ccdc_archive 'CCDC 819044'
loop_
_citation_id
_citation_doi
_citation_year
1 10.1039/c1cc16147d 2012
_audit_update_record             
;
2011-03-27 deposited with the CCDC.	2024-07-10 downloaded from the CCDC.
;
#TrackingRef '- 1.cif'


_audit_creation_method           SHELXL-97
_chemical_name_systematic        
;
?
;
_chemical_name_common            ?
_chemical_melting_point          ?
_chemical_formula_moiety         'C59 H40 Cd2 F12 N4 O12'
_chemical_formula_sum            'C59 H40 Cd2 F12 N4 O12'
_chemical_formula_weight         1449.75

loop_
_atom_type_symbol
_atom_type_description
_atom_type_scat_dispersion_real
_atom_type_scat_dispersion_imag
_atom_type_scat_source
C C 0.0033 0.0016 'International Tables Vol C Tables 4.2.6.8 and 6.1.1.4'
H H 0.0000 0.0000 'International Tables Vol C Tables 4.2.6.8 and 6.1.1.4'
N N 0.0061 0.0033 'International Tables Vol C Tables 4.2.6.8 and 6.1.1.4'
O O 0.0106 0.0060 'International Tables Vol C Tables 4.2.6.8 and 6.1.1.4'
F F 0.0171 0.0103 'International Tables Vol C Tables 4.2.6.8 and 6.1.1.4'
Cd Cd -0.8075 1.2024 'International Tables Vol C Tables 4.2.6.8 and 6.1.1.4'

_symmetry_cell_setting           monoclinic
_symmetry_space_group_name_H-M   'P 21/c'
_symmetry_space_group_name_Hall  '-P 2ybc'

loop_
_symmetry_equiv_pos_as_xyz
'x, y, z'
'-x, y+1/2, -z+1/2'
'-x, -y, -z'
'x, -y-1/2, z-1/2'

_cell_length_a                   16.472(3)
_cell_length_b                   14.387(3)
_cell_length_c                   29.279(6)
_cell_angle_alpha                90.00
_cell_angle_beta                 93.820(4)
_cell_angle_gamma                90.00
_cell_volume                     6923(2)
_cell_formula_units_Z            4
_cell_measurement_temperature    293(2)
_cell_measurement_reflns_used    7811
_cell_measurement_theta_min      2.50
_cell_measurement_theta_max      23.35

_exptl_crystal_description       block
_exptl_crystal_colour            colorless
_exptl_crystal_size_max          0.30
_exptl_crystal_size_mid          0.27
_exptl_crystal_size_min          0.25
_exptl_crystal_density_meas      ?
_exptl_crystal_density_diffrn    1.391
_exptl_crystal_density_method    'not measured'
_exptl_crystal_F_000             2888
_exptl_absorpt_coefficient_mu    0.702
_exptl_absorpt_correction_type   multi-scan
_exptl_absorpt_correction_T_min  0.810
_exptl_absorpt_correction_T_max  0.839
_exptl_absorpt_process_details   'SADABS; Bruker, 2000'

_exptl_special_details           
;
?
;

_diffrn_ambient_temperature      293(2)
_diffrn_radiation_wavelength     0.71073
_diffrn_radiation_type           MoK\a
_diffrn_radiation_source         'fine-focus sealed tube'
_diffrn_radiation_monochromator  graphite
_diffrn_measurement_device_type  'CCD area detector'
_diffrn_measurement_method       'phi and omega scans'
_diffrn_detector_area_resol_mean ?
_diffrn_standards_number         ?
_diffrn_standards_interval_count ?
_diffrn_standards_interval_time  ?
_diffrn_standards_decay_%        ?
_diffrn_reflns_number            33893
_diffrn_reflns_av_R_equivalents  0.0687
_diffrn_reflns_av_sigmaI/netI    0.0709
_diffrn_reflns_limit_h_min       -19
_diffrn_reflns_limit_h_max       19
_diffrn_reflns_limit_k_min       -17
_diffrn_reflns_limit_k_max       9
_diffrn_reflns_limit_l_min       -34
_diffrn_reflns_limit_l_max       34
_diffrn_reflns_theta_min         1.80
_diffrn_reflns_theta_max         25.00
_reflns_number_total             12177
_reflns_number_gt                8442
_reflns_threshold_expression     >2sigma(I)

_computing_data_collection       'SMART (Bruker, 2000)'
_computing_cell_refinement       'SMART (Bruker, 2000)'
_computing_data_reduction        'SMART (Bruker, 2000)'
_computing_structure_solution    'SHELXS-97 (Sheldrick, 1990)'
_computing_structure_refinement  'SHELXL-97 (Sheldrick, 1997)'
_computing_molecular_graphics    SHELXTL
_computing_publication_material  SHELXTL

_refine_special_details          
;
Refinement of F^2^ against ALL reflections. The weighted R-factor wR and
goodness of fit S are based on F^2^, conventional R-factors R are based
on F, with F set to zero for negative F^2^. The threshold expression of
F^2^ > 2sigma(F^2^) is used only for calculating R-factors(gt) etc. and is
not relevant to the choice of reflections for refinement. R-factors based
on F^2^ are statistically about twice as large as those based on F, and R-
factors based on ALL data will be even larger.
;

_refine_ls_structure_factor_coef Fsqd
_refine_ls_matrix_type           full
_refine_ls_weighting_scheme      calc
_refine_ls_weighting_details     
'calc w=1/[\s^2^(Fo^2^)+(0.0716P)^2^+0.0000P] where P=(Fo^2^+2Fc^2^)/3'
_atom_sites_solution_primary     direct
_atom_sites_solution_secondary   difmap
_atom_sites_solution_hydrogens   geom
_refine_ls_hydrogen_treatment    constr
_refine_ls_extinction_method     none
_refine_ls_extinction_coef       ?
_refine_ls_number_reflns         12177
_refine_ls_number_parameters     766
_refine_ls_number_restraints     1288
_refine_ls_R_factor_all          0.0737
_refine_ls_R_factor_gt           0.0559
_refine_ls_wR_factor_ref         0.1455
_refine_ls_wR_factor_gt          0.1392
_refine_ls_goodness_of_fit_ref   1.014
_refine_ls_restrained_S_all      1.175
_refine_ls_shift/su_max          0.046
_refine_ls_shift/su_mean         0.004

loop_
_atom_site_label
_atom_site_type_symbol
_atom_site_fract_x
_atom_site_fract_y
_atom_site_fract_z
_atom_site_U_iso_or_equiv
_atom_site_adp_type
_atom_site_occupancy
_atom_site_symmetry_multiplicity
_atom_site_calc_flag
_atom_site_refinement_flags
_atom_site_disorder_assembly
_atom_site_disorder_group
C1 C 0.9508(4) 0.2834(5) 0.6548(2) 0.0573(15) Uani 1 1 d U . .
C2 C 0.9391(4) 0.2883(4) 0.60377(19) 0.0550(15) Uani 1 1 d U . .
C3 C 0.9074(4) 0.3652(5) 0.5820(2) 0.0641(17) Uani 1 1 d U . .
H3 H 0.8939 0.4167 0.5992 0.077 Uiso 1 1 calc R . .
C4 C 0.9595(4) 0.2144(5) 0.5777(2) 0.0699(18) Uani 1 1 d U . .
H4 H 0.9813 0.1614 0.5920 0.084 Uiso 1 1 calc R . .
C5 C 0.9485(4) 0.2166(5) 0.5311(2) 0.0715(18) Uani 1 1 d U . .
H5 H 0.9640 0.1658 0.5140 0.086 Uiso 1 1 calc R . .
C6 C 0.8952(4) 0.3677(5) 0.5354(2) 0.0656(16) Uani 1 1 d U . .
H6 H 0.8733 0.4208 0.5213 0.079 Uiso 1 1 calc R . .
C7 C 0.9147(4) 0.2934(5) 0.50920(19) 0.0607(16) Uani 1 1 d U . .
C8 C 0.9013(4) 0.3024(5) 0.45656(19) 0.0657(16) Uani 1 1 d U . .
C9 C 0.8141(4) 0.3386(4) 0.44273(18) 0.0539(14) Uani 1 1 d U . .
C10 C 0.7965(4) 0.3946(5) 0.40581(19) 0.0606(15) Uani 1 1 d U . .
H10 H 0.8385 0.4142 0.3884 0.073 Uiso 1 1 calc R . .
C11 C 0.7184(4) 0.4227(4) 0.39374(19) 0.0573(15) Uani 1 1 d U . .
H11 H 0.7078 0.4596 0.3680 0.069 Uiso 1 1 calc R . .
C12 C 0.6558(4) 0.3964(4) 0.41974(18) 0.0490(14) Uani 1 1 d U . .
C13 C 0.6732(4) 0.3413(4) 0.45666(19) 0.0600(16) Uani 1 1 d U . .
H13 H 0.6314 0.3231 0.4746 0.072 Uiso 1 1 calc R . .
C14 C 0.7513(4) 0.3117(5) 0.4682(2) 0.0634(16) Uani 1 1 d U . .
H14 H 0.7616 0.2732 0.4934 0.076 Uiso 1 1 calc R . .
C15 C -0.0984(4) 0.7956(5) 0.6994(2) 0.0580(16) Uani 1 1 d U . .
C16 C -0.1589(4) 0.8250(4) 0.6637(2) 0.0561(15) Uani 1 1 d U . .
C17 C -0.2164(5) 0.8912(5) 0.6717(2) 0.0742(19) Uani 1 1 d U . .
H17 H -0.2208 0.9138 0.7012 0.089 Uiso 1 1 calc R . .
C18 C 0.5708(4) 0.4302(4) 0.4083(2) 0.0559(15) Uani 1 1 d U . .
C19 C -0.2067(5) 0.8240(5) 0.5848(3) 0.091(2) Uani 1 1 d U . .
H19 H -0.2031 0.8002 0.5554 0.109 Uiso 1 1 calc R . .
C20 C -0.1573(5) 0.7890(5) 0.6202(2) 0.0748(19) Uani 1 1 d U . .
H20 H -0.1223 0.7402 0.6148 0.090 Uiso 1 1 calc R . .
C21 C -0.2617(5) 0.8939(5) 0.5920(3) 0.090(2) Uani 1 1 d U . .
C22 C -0.3211(6) 0.9337(5) 0.5546(3) 0.108 Uani 1 1 d DU . .
C23 C -0.3350(6) 1.0384(5) 0.5627(3) 0.102(2) Uani 1 1 d U . .
C24 C -0.2705(5) 1.0956(5) 0.5739(3) 0.093(2) Uani 1 1 d U . .
H24 H -0.2182 1.0711 0.5769 0.112 Uiso 1 1 calc R . .
C25 C -0.2822(5) 1.1889(5) 0.5808(2) 0.0737(19) Uani 1 1 d U . .
H25 H -0.2377 1.2259 0.5900 0.088 Uiso 1 1 calc R . .
C26 C -0.4110(6) 1.0775(6) 0.5544(3) 0.116(3) Uani 1 1 d U . .
H26 H -0.4552 1.0406 0.5447 0.140 Uiso 1 1 calc R . .
C27 C -0.4209(5) 1.1734(5) 0.5606(3) 0.103(3) Uani 1 1 d U . .
H27 H -0.4722 1.1997 0.5551 0.124 Uiso 1 1 calc R . .
C28 C -0.3569(5) 1.2287(4) 0.5745(2) 0.0676(18) Uani 1 1 d U . .
C29 C -0.3709(5) 1.3306(4) 0.5819(2) 0.0589(16) Uani 1 1 d U . .
C30 C -0.3975(9) 0.8826(10) 0.5519(6) 0.173 Uani 1 1 d DU . .
C31 C -0.2824(9) 0.9290(12) 0.5097(6) 0.173 Uani 1 1 d DU . .
C32 C 0.9670(5) 0.3682(7) 0.4410(2) 0.081(2) Uani 1 1 d U . .
C33 C 0.9084(6) 0.2089(7) 0.4321(3) 0.087(2) Uani 1 1 d U . .
C34 C 0.3953(4) 0.3994(4) 0.5066(2) 0.066 Uani 1 1 d U . .
H34 H 0.4514 0.3995 0.5047 0.079 Uiso 1 1 calc R . .
C35 C 0.3636(4) 0.3632(4) 0.5457(2) 0.061 Uani 1 1 d U . .
H35 H 0.3979 0.3397 0.5694 0.073 Uiso 1 1 calc R . .
C36 C 0.2690(4) 0.4322(4) 0.4762(2) 0.0579(16) Uani 1 1 d U . .
H36 H 0.2358 0.4570 0.4523 0.069 Uiso 1 1 calc R . .
C37 C 0.2321(4) 0.3978(4) 0.51221(19) 0.0555(15) Uani 1 1 d U . .
H37 H 0.1758 0.3976 0.5128 0.067 Uiso 1 1 calc R . .
C38 C 0.2819(4) 0.3625(4) 0.5487(2) 0.059 Uani 1 1 d U . .
C39 C 0.0659(4) 0.5774(4) 0.7116(2) 0.0576(15) Uani 1 1 d U . .
H39 H 0.0100 0.5858 0.7066 0.069 Uiso 1 1 calc R . .
C40 C 0.1879(4) 0.6299(5) 0.7417(2) 0.0622(16) Uani 1 1 d U . .
H40 H 0.2184 0.6742 0.7584 0.075 Uiso 1 1 calc R . .
C41 C 0.2270(4) 0.5542(4) 0.7263(2) 0.0584(15) Uani 1 1 d U . .
H41 H 0.2831 0.5483 0.7317 0.070 Uiso 1 1 calc R . .
C42 C 0.0988(4) 0.4987(4) 0.69555(19) 0.0527(14) Uani 1 1 d U . .
H42 H 0.0665 0.4541 0.6802 0.063 Uiso 1 1 calc R . .
C43 C 0.1831(4) 0.4863(4) 0.70276(19) 0.0510(14) Uani 1 1 d U . .
C44 C 0.2796(4) 0.1542(4) 0.76980(19) 0.0554(15) Uani 1 1 d U . .
C45 C 0.3594(4) 0.1659(5) 0.7816(2) 0.080(2) Uani 1 1 d U . .
H45 H 0.3922 0.2007 0.7634 0.095 Uiso 1 1 calc R . .
C46 C 0.2344(4) 0.1015(5) 0.7976(2) 0.0644(17) Uani 1 1 d U . .
H46 H 0.1792 0.0920 0.7905 0.077 Uiso 1 1 calc R . .
C47 C 0.2719(4) 0.0635(4) 0.8359(2) 0.0605(16) Uani 1 1 d U . .
H47 H 0.2407 0.0272 0.8544 0.073 Uiso 1 1 calc R . .
C48 C 0.3908(4) 0.1251(5) 0.8213(2) 0.080(2) Uani 1 1 d U . .
H48 H 0.4458 0.1341 0.8294 0.096 Uiso 1 1 calc R . .
C49 C 0.1784(4) 0.0261(4) 0.6693(2) 0.0634(16) Uani 1 1 d U . .
C50 C 0.0945(5) 0.0239(5) 0.6755(3) 0.093(2) Uani 1 1 d U . .
H50 H 0.0602 0.0703 0.6633 0.112 Uiso 1 1 calc RD . .
C51 C 0.2218(5) -0.0476(5) 0.6846(3) 0.093(2) Uani 1 1 d U . .
H51 H 0.2771 -0.0516 0.6801 0.111 Uiso 1 1 calc R . .
C52 C 0.0658(5) -0.0443(5) 0.6987(3) 0.089(2) Uani 1 1 d U . .
H52 H 0.0109 -0.0417 0.7041 0.107 Uiso 1 1 calc R . .
C53 C 0.1830(5) -0.1176(5) 0.7072(3) 0.093(2) Uani 1 1 d U . .
H53 H 0.2138 -0.1687 0.7173 0.111 Uiso 1 1 calc R . .
C54 C 0.1772(4) 0.3364(4) 0.66964(19) 0.0508(14) Uani 1 1 d U . .
H54A H 0.1444 0.3557 0.6425 0.061 Uiso 1 1 calc R . .
H54B H 0.1410 0.3142 0.6921 0.061 Uiso 1 1 calc R . .
C55 C 0.2924(4) 0.2920(4) 0.62218(17) 0.0489(14) Uani 1 1 d U . .
H55A H 0.3289 0.3394 0.6351 0.059 Uiso 1 1 calc R . .
H55B H 0.3246 0.2403 0.6122 0.059 Uiso 1 1 calc R . .
C56 C 0.2894(4) 0.2312(4) 0.69904(19) 0.0575(15) Uani 1 1 d U . .
H56A H 0.3298 0.1868 0.6902 0.069 Uiso 1 1 calc R . .
H56B H 0.3174 0.2851 0.7123 0.069 Uiso 1 1 calc R . .
C57 C 0.1814(4) 0.1820(4) 0.6395(2) 0.0654(17) Uani 1 1 d U . .
H57A H 0.1309 0.1833 0.6548 0.078 Uiso 1 1 calc R . .
H57B H 0.1683 0.1915 0.6071 0.078 Uiso 1 1 calc R . .
C58 C 0.2350(4) 0.2597(4) 0.65756(18) 0.0485(13) Uani 1 1 d U . .
C60 C -0.2683(5) 0.9247(5) 0.6359(3) 0.089(2) Uani 1 1 d U . .
H60 H -0.3078 0.9684 0.6418 0.107 Uiso 1 1 calc R . .
Cd1 Cd 0.41048(3) 0.48914(3) 0.410806(13) 0.04646(15) Uani 1 1 d . . .
Cd2 Cd 0.03883(3) 0.77231(3) 0.753169(14) 0.05333(16) Uani 1 1 d . . .
F1 F 0.9534(3) 0.4551(4) 0.45287(15) 0.1008(14) Uani 1 1 d U . .
F2 F 0.9749(3) 0.3671(4) 0.39643(13) 0.1131(17) Uani 1 1 d . . .
F3 F 1.0398(3) 0.3461(4) 0.46064(15) 0.1227(19) Uani 1 1 d . . .
F4 F 0.8874(3) 0.2165(4) 0.38794(13) 0.122(2) Uani 1 1 d . . .
F5 F 0.8597(3) 0.1451(3) 0.44886(16) 0.1041(15) Uani 1 1 d . . .
F6 F 0.9831(3) 0.1739(4) 0.43534(15) 0.128(2) Uani 1 1 d . . .
F7 F -0.3788(5) 0.7857(4) 0.5518(3) 0.210(4) Uani 1 1 d U . .
F8 F -0.4362(4) 0.8896(4) 0.5896(3) 0.188(3) Uani 1 1 d U . .
F9 F -0.4486(6) 0.8914(5) 0.5187(3) 0.258(4) Uani 1 1 d U . .
F10 F -0.2821(6) 0.8409(4) 0.4904(2) 0.216(4) Uani 1 1 d U . .
F11 F -0.3314(7) 0.9759(5) 0.4761(2) 0.254(4) Uani 1 1 d U . .
F12 F -0.2110(6) 0.9573(4) 0.50758(17) 0.202(4) Uani 1 1 d . . .
N1 N 0.3487(3) 0.4338(3) 0.47191(14) 0.0459(11) Uani 1 1 d . . .
N2 N 0.1090(3) 0.6443(3) 0.73422(16) 0.0569(13) Uani 1 1 d . . .
N3 N 0.3492(3) 0.0747(3) 0.84859(15) 0.0580(13) Uani 1 1 d . . .
N4 N 0.1065(4) -0.1164(4) 0.71512(17) 0.0636(14) Uani 1 1 d . . .
O1 O 0.5188(3) 0.4109(3) 0.43569(16) 0.0759(13) Uani 1 1 d . . .
O2 O 0.5543(3) 0.4770(4) 0.37394(16) 0.0789(14) Uani 1 1 d . . .
O3 O 0.9232(3) 0.3480(4) 0.67757(14) 0.0842(15) Uani 1 1 d . . .
O4 O 0.9864(3) 0.2174(3) 0.67394(14) 0.0713(13) Uani 1 1 d . . .
O5 O -0.4394(3) 1.3629(3) 0.57380(17) 0.0779(14) Uani 1 1 d . . .
O6 O -0.3123(3) 1.3794(3) 0.59561(15) 0.0700(12) Uani 1 1 d . . .
O7 O -0.0560(3) 0.7251(3) 0.69330(15) 0.0745(13) Uani 1 1 d . . .
O8 O -0.0862(3) 0.8451(3) 0.73422(14) 0.0697(12) Uani 1 1 d . . .
O9 O 0.2428(2) 0.3290(3) 0.58432(12) 0.0522(10) Uani 1 1 d . . .
O10 O 0.2240(2) 0.4132(3) 0.68790(13) 0.0569(10) Uani 1 1 d . . .
O11 O 0.2186(3) 0.0931(3) 0.64626(16) 0.0738(13) Uani 1 1 d . . .
O12 O 0.2394(2) 0.1904(3) 0.73152(13) 0.0607(11) Uani 1 1 d . . .

loop_
_atom_site_aniso_label
_atom_site_aniso_U_11
_atom_site_aniso_U_22
_atom_site_aniso_U_33
_atom_site_aniso_U_23
_atom_site_aniso_U_13
_atom_site_aniso_U_12
C1 0.052(4) 0.073(4) 0.048(3) -0.006(3) 0.003(3) 0.000(3)
C2 0.046(3) 0.072(4) 0.047(3) -0.001(3) -0.003(3) 0.010(3)
C3 0.070(4) 0.076(4) 0.046(3) -0.009(3) 0.000(3) 0.014(3)
C4 0.074(4) 0.081(4) 0.053(3) -0.001(3) -0.012(3) 0.024(4)
C5 0.069(4) 0.092(4) 0.052(3) -0.013(3) -0.004(3) 0.028(3)
C6 0.070(4) 0.080(4) 0.046(3) 0.001(3) -0.002(3) 0.021(3)
C7 0.056(4) 0.084(4) 0.040(3) -0.006(3) -0.004(3) 0.021(3)
C8 0.064(4) 0.091(4) 0.042(3) 0.000(3) -0.001(3) 0.018(3)
C9 0.046(3) 0.079(4) 0.036(3) -0.002(3) 0.004(2) 0.010(3)
C10 0.051(3) 0.089(4) 0.043(3) 0.009(3) 0.010(3) 0.000(3)
C11 0.058(4) 0.074(4) 0.039(3) 0.012(3) 0.005(3) 0.004(3)
C12 0.050(3) 0.057(3) 0.041(3) -0.001(3) 0.006(3) 0.003(3)
C13 0.049(4) 0.084(4) 0.047(3) 0.008(3) 0.009(3) -0.001(3)
C14 0.063(4) 0.083(4) 0.044(3) 0.014(3) 0.003(3) 0.010(3)
C15 0.062(4) 0.057(4) 0.056(4) 0.004(3) 0.007(3) -0.001(3)
C16 0.070(4) 0.045(3) 0.053(3) -0.003(3) 0.002(3) 0.012(3)
C17 0.092(5) 0.064(4) 0.066(4) -0.014(3) -0.005(4) 0.019(4)
C18 0.057(4) 0.059(4) 0.051(3) -0.009(3) -0.002(3) -0.001(3)
C19 0.118(5) 0.068(4) 0.082(4) -0.021(3) -0.032(4) 0.030(4)
C20 0.101(5) 0.061(4) 0.060(4) -0.010(3) -0.006(4) 0.032(4)
C21 0.112(5) 0.054(4) 0.096(4) -0.022(3) -0.048(4) 0.025(4)
C22 0.125 0.066 0.122 -0.015 -0.071 0.054
C23 0.116(5) 0.058(4) 0.122(5) -0.019(4) -0.067(4) 0.031(4)
C24 0.102(5) 0.071(4) 0.101(4) -0.015(4) -0.041(4) 0.032(4)
C25 0.079(4) 0.057(4) 0.081(4) -0.007(3) -0.023(4) 0.017(3)
C26 0.113(5) 0.077(4) 0.150(5) -0.016(4) -0.062(4) 0.009(4)
C27 0.099(5) 0.062(4) 0.139(6) -0.017(4) -0.062(5) 0.018(4)
C28 0.074(4) 0.052(4) 0.073(4) -0.005(3) -0.023(4) 0.009(3)
C29 0.072(4) 0.051(4) 0.053(3) 0.003(3) -0.007(3) 0.006(4)
C30 0.142 0.099 0.266 0.009 -0.087 -0.005
C31 0.164 0.143 0.204 -0.050 -0.039 0.033
C32 0.059(4) 0.125(5) 0.059(4) 0.005(4) 0.005(3) 0.005(4)
C33 0.083(5) 0.120(6) 0.057(4) -0.023(4) -0.013(4) 0.036(5)
C34 0.066 0.070 0.061 -0.014 0.011 -0.014
C35 0.062 0.068 0.054 0.007 0.007 0.008
C36 0.056(4) 0.070(4) 0.047(3) 0.013(3) 0.002(3) 0.013(3)
C37 0.044(3) 0.071(4) 0.051(3) 0.011(3) -0.001(3) 0.009(3)
C38 0.072 0.051 0.057 0.013 0.019 0.010
C39 0.049(4) 0.058(4) 0.066(4) 0.006(3) 0.007(3) 0.007(3)
C40 0.061(4) 0.059(4) 0.064(4) -0.004(3) -0.011(3) -0.002(3)
C41 0.051(4) 0.058(4) 0.066(4) 0.000(3) -0.002(3) 0.002(3)
C42 0.054(4) 0.052(4) 0.052(3) 0.002(3) 0.002(3) 0.001(3)
C43 0.053(4) 0.055(3) 0.046(3) 0.011(3) 0.010(3) 0.006(3)
C44 0.054(4) 0.062(4) 0.050(3) 0.012(3) 0.003(3) 0.006(3)
C45 0.070(5) 0.098(5) 0.070(4) 0.042(4) -0.003(4) -0.020(4)
C46 0.050(4) 0.086(4) 0.058(4) 0.027(3) 0.004(3) 0.004(3)
C47 0.051(4) 0.079(4) 0.052(3) 0.021(3) 0.009(3) 0.001(3)
C48 0.060(4) 0.102(5) 0.076(4) 0.042(4) -0.014(4) -0.026(4)
C49 0.069(4) 0.053(4) 0.069(4) 0.006(3) 0.011(3) 0.005(3)
C50 0.078(5) 0.074(5) 0.129(6) 0.037(4) 0.020(5) 0.016(4)
C51 0.072(5) 0.069(5) 0.138(6) 0.031(4) 0.020(4) 0.011(4)
C52 0.072(5) 0.067(5) 0.132(6) 0.031(4) 0.030(4) 0.002(4)
C53 0.080(5) 0.067(5) 0.131(6) 0.033(4) 0.006(5) 0.009(4)
C54 0.055(4) 0.053(3) 0.044(3) 0.008(3) 0.006(3) 0.001(3)
C55 0.051(3) 0.053(3) 0.043(3) 0.009(2) 0.006(3) 0.009(3)
C56 0.058(4) 0.061(4) 0.053(3) 0.023(3) 0.008(3) 0.005(3)
C57 0.071(4) 0.050(4) 0.075(4) 0.018(3) 0.004(3) 0.004(3)
C58 0.054(3) 0.049(3) 0.043(3) 0.009(2) 0.005(3) 0.005(3)
C60 0.095(5) 0.063(4) 0.104(5) -0.022(4) -0.030(4) 0.031(4)
Cd1 0.0519(3) 0.0495(3) 0.0379(2) -0.00144(17) 0.00267(18) 0.0014(2)
Cd2 0.0