####################################################################### 
# 
# This file contains crystal structure data downloaded from the 
# Cambridge Structural Database (CSD) hosted by the Cambridge 
# Crystallographic Data Centre (CCDC).
# 
# Full information about CCDC data access policies and citation 
# guidelines are available at http://www.ccdc.cam.ac.uk/access/V1 
# 
# Audit and citation data items may have been added by the CCDC. 
# Please retain this information to preserve the provenance of 
# this file and to allow appropriate attribution of the data. 
# 
#######################################################################

data_hjsa
_audit_block_doi                 10.5517/ccwh8vg
_database_code_depnum_ccdc_archive 'CCDC 819046'
loop_
_citation_id
_citation_doi
_citation_year
1 10.1039/c1cc16147d 2012
_audit_update_record             
;
2011-03-27 deposited with the CCDC.	2024-07-10 downloaded from the CCDC.
;
#TrackingRef '- 3.cif'


_audit_creation_method           SHELXL-97
_chemical_name_systematic        
;
?
;
_chemical_name_common            ?
_chemical_melting_point          ?
_chemical_formula_moiety         'C59 H40 Cd2 F12 N4 O12'
_chemical_formula_sum            'C59 H40 Cd2 F12 N4 O12'
_chemical_formula_weight         1449.75

loop_
_atom_type_symbol
_atom_type_description
_atom_type_scat_dispersion_real
_atom_type_scat_dispersion_imag
_atom_type_scat_source
C C 0.0033 0.0016 'International Tables Vol C Tables 4.2.6.8 and 6.1.1.4'
H H 0.0000 0.0000 'International Tables Vol C Tables 4.2.6.8 and 6.1.1.4'
N N 0.0061 0.0033 'International Tables Vol C Tables 4.2.6.8 and 6.1.1.4'
O O 0.0106 0.0060 'International Tables Vol C Tables 4.2.6.8 and 6.1.1.4'
F F 0.0171 0.0103 'International Tables Vol C Tables 4.2.6.8 and 6.1.1.4'
Cd Cd -0.8075 1.2024 'International Tables Vol C Tables 4.2.6.8 and 6.1.1.4'

_symmetry_cell_setting           monoclinic
_symmetry_space_group_name_H-M   'C 2/c'
_symmetry_space_group_name_Hall  '-C 2yc'

loop_
_symmetry_equiv_pos_as_xyz
'x, y, z'
'-x, y, -z+1/2'
'x+1/2, y+1/2, z'
'-x+1/2, y+1/2, -z+1/2'
'-x, -y, -z'
'x, -y, z-1/2'
'-x+1/2, -y+1/2, -z'
'x+1/2, -y+1/2, z-1/2'

_cell_length_a                   21.697(3)
_cell_length_b                   18.053(2)
_cell_length_c                   41.176(6)
_cell_angle_alpha                90.00
_cell_angle_beta                 103.682(2)
_cell_angle_gamma                90.00
_cell_volume                     15671(4)
_cell_formula_units_Z            8
_cell_measurement_temperature    273(2)
_cell_measurement_reflns_used    7766
_cell_measurement_theta_min      2.25
_cell_measurement_theta_max      23.25

_exptl_crystal_description       block
_exptl_crystal_colour            colorless
_exptl_crystal_size_max          0.26
_exptl_crystal_size_mid          0.23
_exptl_crystal_size_min          0.21
_exptl_crystal_density_meas      ?
_exptl_crystal_density_diffrn    1.229
_exptl_crystal_density_method    'not measured'
_exptl_crystal_F_000             5776
_exptl_absorpt_coefficient_mu    0.620
_exptl_absorpt_correction_type   multi-scan
_exptl_absorpt_correction_T_min  0.851
_exptl_absorpt_correction_T_max  0.878
_exptl_absorpt_process_details   'SADABS; Bruker, 2000'

_exptl_special_details           
;
?
;

_diffrn_ambient_temperature      273(2)
_diffrn_radiation_wavelength     0.71073
_diffrn_radiation_type           MoK\a
_diffrn_radiation_source         'fine-focus sealed tube'
_diffrn_radiation_monochromator  graphite
_diffrn_measurement_device_type  'CCD area detector'
_diffrn_measurement_method       'phi and omega scans'
_diffrn_detector_area_resol_mean ?
_diffrn_standards_number         ?
_diffrn_standards_interval_count ?
_diffrn_standards_interval_time  ?
_diffrn_standards_decay_%        ?
_diffrn_reflns_number            41961
_diffrn_reflns_av_R_equivalents  0.0480
_diffrn_reflns_av_sigmaI/netI    0.0669
_diffrn_reflns_limit_h_min       -26
_diffrn_reflns_limit_h_max       21
_diffrn_reflns_limit_k_min       -22
_diffrn_reflns_limit_k_max       17
_diffrn_reflns_limit_l_min       -47
_diffrn_reflns_limit_l_max       50
_diffrn_reflns_theta_min         1.64
_diffrn_reflns_theta_max         26.00
_reflns_number_total             15392
_reflns_number_gt                8586
_reflns_threshold_expression     >2sigma(I)

_computing_data_collection       'SMART (Bruker, 2000)'
_computing_cell_refinement       'SMART (Bruker, 2000)'
_computing_data_reduction        'SMART (Bruker, 2000)'
_computing_structure_solution    'SHELXS-97 (Sheldrick, 1990)'
_computing_structure_refinement  'SHELXL-97 (Sheldrick, 1997)'
_computing_molecular_graphics    SHELXTL
_computing_publication_material  SHELXTL

_refine_special_details          
;
Refinement of F^2^ against ALL reflections. The weighted R-factor wR and
goodness of fit S are based on F^2^, conventional R-factors R are based
on F, with F set to zero for negative F^2^. The threshold expression of
F^2^ > 2sigma(F^2^) is used only for calculating R-factors(gt) etc. and is
not relevant to the choice of reflections for refinement. R-factors based
on F^2^ are statistically about twice as large as those based on F, and R-
factors based on ALL data will be even larger.
;

_refine_ls_structure_factor_coef Fsqd
_refine_ls_matrix_type           full
_refine_ls_weighting_scheme      calc
_refine_ls_weighting_details     
'calc w=1/[\s^2^(Fo^2^)+(0.0356P)^2^+0.0000P] where P=(Fo^2^+2Fc^2^)/3'
_atom_sites_solution_primary     direct
_atom_sites_solution_secondary   difmap
_atom_sites_solution_hydrogens   geom
_refine_ls_hydrogen_treatment    constr
_refine_ls_extinction_method     none
_refine_ls_extinction_coef       ?
_refine_ls_number_reflns         15392
_refine_ls_number_parameters     784
_refine_ls_number_restraints     1
_refine_ls_R_factor_all          0.0771
_refine_ls_R_factor_gt           0.0494
_refine_ls_wR_factor_ref         0.1153
_refine_ls_wR_factor_gt          0.1106
_refine_ls_goodness_of_fit_ref   1.088
_refine_ls_restrained_S_all      1.088
_refine_ls_shift/su_max          0.000
_refine_ls_shift/su_mean         0.000

loop_
_atom_site_label
_atom_site_type_symbol
_atom_site_fract_x
_atom_site_fract_y
_atom_site_fract_z
_atom_site_U_iso_or_equiv
_atom_site_adp_type
_atom_site_occupancy
_atom_site_symmetry_multiplicity
_atom_site_calc_flag
_atom_site_refinement_flags
_atom_site_disorder_assembly
_atom_site_disorder_group
C1 C 0.3833(2) 0.7141(3) 0.25547(12) 0.0653(13) Uani 1 1 d . . .
H1 H 0.3646 0.7355 0.2350 0.078 Uiso 1 1 calc R . .
C2 C 0.4345(2) 0.7503(3) 0.27597(12) 0.0637(13) Uani 1 1 d . . .
H2 H 0.4495 0.7947 0.2693 0.076 Uiso 1 1 calc R . .
C3 C 0.4620(2) 0.7197(3) 0.30582(12) 0.0597(12) Uani 1 1 d . . .
C4 C 0.4357(3) 0.6545(3) 0.31590(13) 0.0797(16) Uani 1 1 d . . .
H4 H 0.4515 0.6337 0.3369 0.096 Uiso 1 1 calc R . .
C5 C 0.3864(3) 0.6238(3) 0.29368(14) 0.0794(16) Uani 1 1 d . . .
H5 H 0.3697 0.5800 0.2999 0.095 Uiso 1 1 calc R . .
C6 C 0.5404(2) 0.8121(2) 0.31899(11) 0.0573(12) Uani 1 1 d . . .
H6A H 0.5102 0.8526 0.3152 0.069 Uiso 1 1 calc R . .
H6B H 0.5542 0.8038 0.2985 0.069 Uiso 1 1 calc R . .
C7 C 0.5971(2) 0.8316(2) 0.34728(11) 0.0511(11) Uani 1 1 d . . .
C8 C 0.6421(2) 0.7639(2) 0.35384(11) 0.0571(12) Uani 1 1 d . . .
H8A H 0.6251 0.7262 0.3660 0.069 Uiso 1 1 calc R . .
H8B H 0.6464 0.7429 0.3328 0.069 Uiso 1 1 calc R . .
C9 C 0.7439(2) 0.7363(3) 0.38772(11) 0.0523(11) Uani 1 1 d . . .
C10 C 0.7357(2) 0.6609(3) 0.38201(11) 0.0587(12) Uani 1 1 d . . .
H10 H 0.7002 0.6430 0.3667 0.070 Uiso 1 1 calc R . .
C11 C 0.7800(2) 0.6137(3) 0.39898(12) 0.0640(13) Uani 1 1 d . . .
H11 H 0.7737 0.5632 0.3951 0.077 Uiso 1 1 calc R . .
C12 C 0.8397(2) 0.7078(3) 0.42540(12) 0.0679(14) Uani 1 1 d . . .
H12 H 0.8764 0.7241 0.4403 0.081 Uiso 1 1 calc R . .
C13 C 0.7988(2) 0.7597(3) 0.41013(12) 0.0654(13) Uani 1 1 d . . .
H13 H 0.8069 0.8098 0.4144 0.078 Uiso 1 1 calc R . .
C14 C 0.5735(2) 0.8512(2) 0.37797(11) 0.0585(12) Uani 1 1 d . . .
H14A H 0.5458 0.8940 0.3734 0.070 Uiso 1 1 calc R . .
H14B H 0.5496 0.8101 0.3840 0.070 Uiso 1 1 calc R . .
C15 C 0.6160(2) 0.8811(2) 0.43522(12) 0.0553(12) Uani 1 1 d . . .
C16 C 0.5582(2) 0.8840(2) 0.44313(12) 0.0562(12) Uani 1 1 d . . .
H16 H 0.5210 0.8753 0.4269 0.067 Uiso 1 1 calc R . .
C17 C 0.5562(2) 0.8996(2) 0.47472(12) 0.0622(13) Uani 1 1 d . . .
H17 H 0.5167 0.9016 0.4797 0.075 Uiso 1 1 calc R . .
C18 C 0.6635(2) 0.9092(3) 0.49121(12) 0.0692(14) Uani 1 1 d . . .
H18 H 0.7001 0.9179 0.5078 0.083 Uiso 1 1 calc R . .
C19 C 0.6698(2) 0.8941(3) 0.46026(13) 0.0705(14) Uani 1 1 d . . .
H19 H 0.7098 0.8923 0.4557 0.085 Uiso 1 1 calc R . .
C20 C 0.6303(2) 0.8995(2) 0.33642(11) 0.0588(12) Uani 1 1 d . . .
H20A H 0.6001 0.9392 0.3290 0.071 Uiso 1 1 calc R . .
H20B H 0.6635 0.9175 0.3549 0.071 Uiso 1 1 calc R . .
C21 C 0.6865(2) 0.9236(3) 0.29423(12) 0.0604(13) Uani 1 1 d . . .
C22 C 0.6856(3) 0.9996(3) 0.29875(13) 0.0852(18) Uani 1 1 d . . .
H22 H 0.6651 1.0202 0.3140 0.102 Uiso 1 1 calc R . .
C23 C 0.7159(3) 1.0440(3) 0.28013(15) 0.0924(19) Uani 1 1 d . . .
H23 H 0.7148 1.0950 0.2831 0.111 Uiso 1 1 calc R . .
C24 C 0.7488(2) 0.9451(3) 0.25525(13) 0.0714(14) Uani 1 1 d . . .
H24 H 0.7718 0.9257 0.2408 0.086 Uiso 1 1 calc R . .
C25 C 0.7189(2) 0.8967(3) 0.27237(12) 0.0717(15) Uani 1 1 d . . .
H25 H 0.7210 0.8459 0.2690 0.086 Uiso 1 1 calc R . .
C26 C 0.3569(2) 0.5254(3) 0.18711(12) 0.0613(13) Uani 1 1 d . . .
C27 C 0.3933(2) 0.4847(3) 0.16617(11) 0.0613(12) Uani 1 1 d . . .
C28 C 0.4191(2) 0.5224(3) 0.14299(12) 0.0689(14) Uani 1 1 d . . .
H28 H 0.4154 0.5737 0.1412 0.083 Uiso 1 1 calc R . .
C29 C 0.4503(2) 0.4835(3) 0.12260(13) 0.0751(15) Uani 1 1 d . . .
H29 H 0.4653 0.5085 0.1063 0.090 Uiso 1 1 calc R . .
C30 C 0.4595(2) 0.4078(3) 0.12628(12) 0.0627(13) Uani 1 1 d . . .
C31 C 0.4358(2) 0.3724(3) 0.15043(13) 0.0708(14) Uani 1 1 d . . .
H31 H 0.4419 0.3216 0.1534 0.085 Uiso 1 1 calc R . .
C32 C 0.4038(2) 0.4096(3) 0.16995(13) 0.0751(15) Uani 1 1 d . . .
H32 H 0.3888 0.3840 0.1861 0.090 Uiso 1 1 calc R . .
C33 C 0.4935(2) 0.3596(3) 0.10474(12) 0.0672(13) Uani 1 1 d . . .
C34 C 0.5423(2) 0.3071(3) 0.12642(12) 0.0618(13) Uani 1 1 d . . .
C35 C 0.5472(2) 0.2327(3) 0.12100(12) 0.0678(14) Uani 1 1 d . . .
H35 H 0.5180 0.2106 0.1035 0.081 Uiso 1 1 calc R . .
C36 C 0.5934(2) 0.1901(3) 0.14033(12) 0.0637(13) Uani 1 1 d . . .
H36 H 0.5955 0.1398 0.1359 0.076 Uiso 1 1 calc R . .
C37 C 0.6374(2) 0.2219(3) 0.16674(12) 0.0612(13) Uani 1 1 d . . .
C38 C 0.6328(3) 0.2954(3) 0.17265(13) 0.0780(15) Uani 1 1 d . . .
H38 H 0.6628 0.3174 0.1899 0.094 Uiso 1 1 calc R . .
C39 C 0.5851(3) 0.3379(3) 0.15389(14) 0.0774(15) Uani 1 1 d . . .
H39 H 0.5813 0.3873 0.1595 0.093 Uiso 1 1 calc R . .
C40 C 0.6894(3) 0.1754(3) 0.18788(14) 0.0668(14) Uani 1 1 d . . .
C41 C 0.5308(4) 0.4080(4) 0.08444(19) 0.104(2) Uani 1 1 d . . .
C42 C 0.4414(3) 0.3181(4) 0.07965(19) 0.103(2) Uani 1 1 d . . .
C43 C 1.0153(2) 0.5734(2) 0.43502(13) 0.0648(13) Uani 1 1 d . . .
C44 C 1.0838(2) 0.5805(2) 0.43310(14) 0.0645(13) Uani 1 1 d . . .
C45 C 1.1287(3) 0.6087(3) 0.46015(14) 0.0779(15) Uani 1 1 d . . .
H45 H 1.1173 0.6228 0.4797 0.094 Uiso 1 1 calc R . .
C46 C 1.1908(3) 0.6153(3) 0.45726(16) 0.0886(17) Uani 1 1 d . . .
H46 H 1.2208 0.6356 0.4750 0.106 Uiso 1 1 calc R . .
C47 C 1.2096(3) 0.5931(3) 0.42936(19) 0.0856(18) Uani 1 1 d . . .
C48 C 1.1661(3) 0.5642(3) 0.40426(18) 0.099(2) Uani 1 1 d . . .
H48 H 1.1781 0.5472 0.3854 0.119 Uiso 1 1 calc R . .
C49 C 1.1026(3) 0.5590(3) 0.40581(15) 0.0852(17) Uani 1 1 d . . .
H49 H 1.0729 0.5402 0.3876 0.102 Uiso 1 1 calc R . .
C50 C 1.2819(3) 0.6026(3) 0.4303(2) 0.109(2) Uani 1 1 d D . .
C51 C 1.3007(3) 0.6842(3) 0.43661(16) 0.0878(18) Uani 1 1 d . . .
C52 C 1.3601(3) 0.7064(3) 0.45372(18) 0.110(2) Uani 1 1 d . . .
H52 H 1.3900 0.6705 0.4628 0.133 Uiso 1 1 calc R . .
C53 C 1.3766(2) 0.7792(3) 0.45791(15) 0.0921(19) Uani 1 1 d . . .
H53 H 1.4168 0.7925 0.4702 0.111 Uiso 1 1 calc R . .
C54 C 1.3332(2) 0.8334(3) 0.44376(13) 0.0663(14) Uani 1 1 d . . .
C55 C 1.2722(3) 0.8141(3) 0.42813(14) 0.0828(16) Uani 1 1 d . . .
H55 H 1.2418 0.8503 0.4203 0.099 Uiso 1 1 calc R . .
C56 C 1.2568(3) 0.7387(3) 0.42417(15) 0.0895(18) Uani 1 1 d . . .
H56 H 1.2160 0.7250 0.4129 0.107 Uiso 1 1 calc R . .
C57 C 1.3531(3) 0.9149(3) 0.44547(13) 0.0672(14) Uani 1 1 d . . .
C58 C 1.3188(4) 0.5517(4) 0.4537(3) 0.147 Uani 1 1 d D . .
C59 C 1.2956(4) 0.5803(6) 0.3977(3) 0.142(4) Uani 1 1 d . . .
Cd1 Cd 0.284990(16) 0.592718(18) 0.223147(8) 0.05566(11) Uani 1 1 d . . .
Cd2 Cd 0.902046(16) 0.550918(19) 0.448820(8) 0.05680(11) Uani 1 1 d . . .
F1 F 0.46223(18) 0.2841(2) 0.05552(8) 0.1278(14) Uani 1 1 d . . .
F2 F 0.41331(16) 0.2668(2) 0.09491(10) 0.1103(12) Uani 1 1 d . . .
F3 F 0.39421(17) 0.3635(2) 0.06444(9) 0.1306(13) Uani 1 1 d . . .
F4 F 0.56642(17) 0.36411(19) 0.06959(8) 0.1204(13) Uani 1 1 d . . .
F5 F 0.49318(19) 0.4461(2) 0.05979(9) 0.1260(14) Uani 1 1 d . . .
F6 F 0.56926(18) 0.45483(19) 0.10419(11) 0.1104(13) Uani 1 1 d . . .
F7 F 1.2853(2) 0.5128(3) 0.38672(15) 0.197(3) Uani 1 1 d . . .
F8 F 1.29557(19) 0.48172(19) 0.44996(17) 0.215(3) Uani 1 1 d . . .
F9 F 1.37897(18) 0.54344(19) 0.45089(15) 0.188(2) Uani 1 1 d . . .
F10 F 1.32248(19) 0.5704(2) 0.48589(15) 0.170(2) Uani 1 1 d . . .
F11 F 1.3536(2) 0.6014(2) 0.39456(15) 0.192(2) Uani 1 1 d . . .
F12 F 1.2587(3) 0.6211(3) 0.37156(14) 0.161(2) Uani 1 1 d . . .
N1 N 0.35974(19) 0.6514(2) 0.26339(9) 0.0640(11) Uani 1 1 d . . .
N2 N 0.83235(18) 0.6355(2) 0.42117(9) 0.0586(10) Uani 1 1 d . . .
N3 N 0.60756(18) 0.9126(2) 0.49962(9) 0.0594(10) Uani 1 1 d . . .
N4 N 0.74628(19) 1.0179(2) 0.25838(10) 0.0676(11) Uani 1 1 d . . .
O1 O 0.35461(15) 0.59498(19) 0.18592(8) 0.0728(9) Uani 1 1 d . . .
O2 O 0.32996(17) 0.48967(18) 0.20538(9) 0.0845(11) Uani 1 1 d . . .
O3 O 0.7330(2) 0.2066(2) 0.20841(10) 0.0984(13) Uani 1 1 d . . .
O4 O 0.68938(16) 0.10689(19) 0.18395(9) 0.0815(10) Uani 1 1 d . . .
O5 O 1.00266(16) 0.59462(19) 0.46147(9) 0.087 Uani 1 1 d . . .
O6 O 0.97593(16) 0.54707(18) 0.41158(9) 0.075 Uani 1 1 d . . .
O7 O 1.31314(18) 0.96287(19) 0.43726(11) 0.1043(14) Uani 1 1 d . . .
O8 O 1.41060(17) 0.92879(18) 0.45496(10) 0.0891(12) Uani 1 1 d . . .
O9 O 0.51182(15) 0.74721(17) 0.32800(8) 0.0682(9) Uani 1 1 d . . .
O10 O 0.70291(14) 0.78857(15) 0.37308(8) 0.0602(8) Uani 1 1 d . . .
O11 O 0.62624(14) 0.86718(17) 0.40474(8) 0.0670(9) Uani 1 1 d . . .
O12 O 0.65689(15) 0.87474(16) 0.30932(7) 0.0665(9) Uani 1 1 d . . .

loop_
_atom_site_aniso_label
_atom_site_aniso_U_11
_atom_site_aniso_U_22
_atom_site_aniso_U_33
_atom_site_aniso_U_23
_atom_site_aniso_U_13
_atom_site_aniso_U_12
C1 0.063(3) 0.070(3) 0.058(3) 0.011(3) 0.005(3) -0.010(3)
C2 0.065(3) 0.063(3) 0.060(3) 0.015(3) 0.008(3) -0.007(3)
C3 0.054(3) 0.068(3) 0.054(3) 0.003(3) 0.005(3) -0.007(3)
C4 0.077(4) 0.084(4) 0.068(4) 0.020(3) -0.002(3) -0.013(3)
C5 0.081(4) 0.070(4) 0.080(4) 0.016(3) 0.004(3) -0.022(3)
C6 0.051(3) 0.065(3) 0.054(3) 0.007(2) 0.008(2) 0.000(2)
C7 0.050(3) 0.053(3) 0.049(3) 0.003(2) 0.010(2) -0.004(2)
C8 0.051(3) 0.056(3) 0.060(3) 0.003(2) 0.007(3) -0.006(2)
C9 0.049(3) 0.058(3) 0.052(3) -0.003(2) 0.015(2) -0.004(2)
C10 0.054(3) 0.059(3) 0.057(3) -0.009(2) 0.001(3) -0.007(2)
C11 0.061(3) 0.050(3) 0.075(4) -0.004(3) 0.004(3) -0.007(3)
C12 0.048(3) 0.075(4) 0.076(4) -0.009(3) 0.004(3) -0.008(3)
C13 0.048(3) 0.058(3) 0.084(4) -0.009(3) 0.003(3) -0.009(3)
C14 0.051(3) 0.068(3) 0.057(3) 0.002(2) 0.014(3) -0.001(2)
C15 0.051(3) 0.059(3) 0.056(3) -0.002(2) 0.014(3) -0.005(2)
C16 0.042(3) 0.070(3) 0.053(3) -0.004(2) 0.004(2) -0.006(2)
C17 0.045(3) 0.077(3) 0.064(3) 0.007(3) 0.013(3) -0.003(2)
C18 0.042(3) 0.108(4) 0.055(3) -0.008(3) 0.005(3) -0.004(3)
C19 0.038(3) 0.106(4) 0.068(4) -0.007(3) 0.013(3) -0.008(3)
C20 0.067(3) 0.054(3) 0.060(3) 0.002(2) 0.023(3) 0.002(2)
C21 0.062(3) 0.055(3) 0.065(3) 0.002(2) 0.016(3) -0.004(2)
C22 0.122(5) 0.065(4) 0.084(4) -0.006(3) 0.056(4) -0.002(3)
C23 0.122(5) 0.059(3) 0.111(5) 0.011(3) 0.058(4) -0.004(3)
C24 0.077(4) 0.058(3) 0.088(4) -0.005(3) 0.038(3) -0.007(3)
C25 0.081(4) 0.054(3) 0.087(4) -0.006(3) 0.034(3) -0.007(3)
C26 0.048(3) 0.071(4) 0.062(3) 0.008(3) 0.007(3) 0.010(3)
C27 0.050(3) 0.070(3) 0.063(3) 0.007(3) 0.011(3) 0.010(3)
C28 0.068(4) 0.061(3) 0.083(4) 0.020(3) 0.028(3) 0.021(3)
C29 0.064(4) 0.085(4) 0.084(4) 0.027(3) 0.034(3) 0.023(3)
C30 0.049(3) 0.066(3) 0.074(3) 0.009(3) 0.017(3) 0.016(3)
C31 0.072(4) 0.056(3) 0.093(4) 0.012(3) 0.035(3) 0.012(3)
C32 0.080(4) 0.058(3) 0.096(4) 0.017(3) 0.038(3) 0.005(3)
C33 0.061(3) 0.077(3) 0.064(3) 0.004(3) 0.016(3) 0.011(3)
C34 0.050(3) 0.064(3) 0.069(4) 0.002(3) 0.011(3) 0.014(3)
C35 0.056(3) 0.074(4) 0.070(4) -0.017(3) 0.009(3) 0.006(3)
C36 0.060(3) 0.059(3) 0.070(4) -0.004(3) 0.010(3) 0.011(3)
C37 0.057(3) 0.061(3) 0.068(3) 0.001(3) 0.018(3) 0.014(3)
C38 0.069(4) 0.061(3) 0.090(4) -0.008(3) -0.009(3) 0.004(3)
C39 0.072(4) 0.053(3) 0.098(4) -0.009(3) 0.002(3) 0.011(3)
C40 0.065(4) 0.073(4) 0.068(4) 0.006(3) 0.028(3) 0.011(3)
C41 0.103(6) 0.117(6) 0.107(6) 0.035(5) 0.058(5) 0.050(5)
C42 0.079(5) 0.108(6) 0.108(6) -0.021(5) -0.010(4) 0.027(4)
C43 0.061(3) 0.056(3) 0.079(4) 0.011(3) 0.022(3) -0.003(2)
C44 0.058(3) 0.053(3) 0.088(4) 0.010(3) 0.029(3) -0.005(2)
C45 0.062(4) 0.093(4) 0.082(4) 0.003(3) 0.022(3) -0.009(3)
C46 0.062(4) 0.087(4) 0.115(5) -0.006(4) 0.017(4) -0.013(3)
C47 0.064(4) 0.061(3) 0.143(6) -0.011(4) 0.048(4) -0.013(3)
C48 0.083(5) 0.078(4) 0.157(6) -0.041(4) 0.071(5) -0.027(3)
C49 0.081(4) 0.069(4) 0.114(5) -0.021(3) 0.041(4) -0.027(3)
C50 0.059(4) 0.069(4) 0.213(8) -0.013(4) 0.062(5) -0.015(3)
C51 0.048(3) 0.058(3) 0.164(6) -0.010(4) 0.038(4) -0.006(3)
C52 0.051(4) 0.061(4) 0.217(8) 0.021(4) 0.027(4) 0.004(3)
C53 0.043(3) 0.070(4) 0.156(6) 0.004(4) 0.008(4) -0.001(3)
C54 0.054(3) 0.057(3) 0.090(4) 0.002(3) 0.023(3) -0.006(3)
C55 0.055(4) 0.069(4) 0.121(5) 0.003(3) 0.015(3) -0.008(3)
C56 0.055(4) 0.074(4) 0.138(5) 0.001(4) 0.019(4) -0.018(3)
C57 0.066(4) 0.065(4) 0.069(4) 0.004(3) 0.013(3) -0.007(3)
C5