
#######################################################################
#
#                 Cambridge Crystallographic Data Centre
#                                CCDC
#
#######################################################################
#
# If this CIF has been generated from an entry in the Cambridge
# Structural Database, then it will include bibliographic, chemical,
# crystal, experimental, refinement or atomic coordinate data resulting
# from the CCDC's data processing and validation procedures.
#
#######################################################################

data_CSD_CIF_FANNUL
_audit_creation_date 1972-12-21
_audit_creation_method CSD-ConQuest-V1
_database_code_CSD FANNUL
_database_code_depnum_ccdc_archive 'CCDC 1152360'
_chemical_formula_sum 'C14 H14'
_chemical_formula_moiety
;
C14 H14
;
_journal_coden_Cambridge 4
_journal_volume 94
_journal_year 1972
_journal_page_first 4741
_journal_name_full 'J.Am.Chem.Soc. '
loop_
_publ_author_name
"C.C.Chiang"
"I.C.Paul"
_chemical_name_systematic
;
(14)Annulene
;
_chemical_name_common
;
Teaching Subset: Fundamental Chemistry, Symmetry
;
_cell_volume    544.796
_exptl_special_details
;
z(H2)=.082, not .682

;
_diffrn_ambient_temperature ?
_diffrn_special_details
;
The study was carried out at room temperature,in the range 283-303K

;
#These two values have been output from a single CSD field.
_refine_ls_R_factor_gt 0.054
_refine_ls_wR_factor_gt 0.054
_symmetry_cell_setting monoclinic
_symmetry_space_group_name_H-M 'P 21/c'
_symmetry_Int_Tables_number 14
loop_
_symmetry_equiv_pos_site_id
_symmetry_equiv_pos_as_xyz
1 x,y,z
2 -x,1/2+y,1/2-z
3 -x,-y,-z
4 x,-1/2-y,-1/2+z
_cell_length_a 8.640(2)
_cell_length_b 4.376(2)
_cell_length_c 14.996(5)
_cell_angle_alpha 90
_cell_angle_beta 106.08(2)
_cell_angle_gamma 90
_cell_formula_units_Z 2
loop_
_atom_type_symbol
_atom_type_radius_bond
C 0.68
H 0.23
loop_
_atom_site_label
_atom_site_type_symbol
_atom_site_fract_x
_atom_site_fract_y
_atom_site_fract_z
C1 C 0.74300 0.44430 0.00400
C2 C 0.86530 0.48300 0.08460
C3 C 0.85520 0.66110 0.15790
C4 C 0.71630 0.78020 0.17640
C5 C 0.56340 0.69610 0.13400
C6 C 0.41920 0.83920 0.12940
C7 C 0.72500 0.23290 -0.06410
H1 H 0.65500 0.62000 -0.00600
H2 H 0.94400 0.36700 0.08200
H3 H 0.94900 0.73300 0.19600
H4 H 0.72100 0.98100 0.21500
H5 H 0.56500 0.46900 0.09800
H6 H 0.43000 1.02600 0.16500
H7 H 0.81900 0.11400 -0.04800
C7B C 0.27500 0.76710 0.06410
C6B C 0.58080 0.16080 -0.12940
C1B C 0.25700 0.55570 -0.00400
H7B H 0.18100 0.88600 0.04800
C5B C 0.43660 0.30390 -0.13400
H6B H 0.57000 -0.02600 -0.16500
C2B C 0.13470 0.51700 -0.08460
H1B H 0.34500 0.38000 0.00600
C4B C 0.28370 0.21980 -0.17640
H5B H 0.43500 0.53100 -0.09800
C3B C 0.14480 0.33890 -0.15790
H2B H 0.05600 0.63300 -0.08200
H4B H 0.27900 0.01900 -0.21500
H3B H 0.05100 0.26700 -0.19600
#END
