####################################################################### 
# 
# This file contains crystal structure data downloaded from the 
# Cambridge Structural Database (CSD) hosted by the Cambridge 
# Crystallographic Data Centre (CCDC).
# 
# Full information about CCDC data access policies and citation 
# guidelines are available at http://www.ccdc.cam.ac.uk/access/V1 
# 
# Audit and citation data items may have been added by the CCDC. 
# Please retain this information to preserve the provenance of 
# this file and to allow appropriate attribution of the data. 
# 
#######################################################################

data_I-BOF_(1).
_audit_block_doi                 10.5517/cc7nbhp
_database_code_depnum_ccdc_archive 'CCDC 228082'
loop_
_citation_id
_citation_doi
_citation_year
1 10.1021/ja0466715 2004
_audit_update_record             
;
2004-01-06 deposited with the CCDC.	2024-07-10 downloaded from the CCDC.
;

_audit_creation_method           SHELXL-97
_chemical_name_systematic        
;
#triclinic
;
_chemical_name_common            ?
_chemical_melting_point          ?
_chemical_formula_moiety         ?
_chemical_formula_sum            'C114 H202 I14 N30 Ni6 O41'
_chemical_formula_weight         4777.92

loop_
_atom_type_symbol
_atom_type_description
_atom_type_scat_dispersion_real
_atom_type_scat_dispersion_imag
_atom_type_scat_source
C C 0.0033 0.0016 'International Tables Vol C Tables 4.2.6.8 and 6.1.1.4'
H H 0.0000 0.0000 'International Tables Vol C Tables 4.2.6.8 and 6.1.1.4'
N N 0.0061 0.0033 'International Tables Vol C Tables 4.2.6.8 and 6.1.1.4'
O O 0.0106 0.0060 'International Tables Vol C Tables 4.2.6.8 and 6.1.1.4'
Ni Ni 0.3393 1.1124 'International Tables Vol C Tables 4.2.6.8 and 6.1.1.4'
I I -0.4742 1.8119 'International Tables Vol C Tables 4.2.6.8 and 6.1.1.4'

_symmetry_cell_setting           ?
_symmetry_space_group_name_H-M   ?

loop_
_symmetry_equiv_pos_as_xyz
'x, y, z'
'-x, -y, -z'

_cell_length_a                   16.4340(14)
_cell_length_b                   19.9138(18)
_cell_length_c                   20.3375(18)
_cell_angle_alpha                71.255(2)
_cell_angle_beta                 70.065(2)
_cell_angle_gamma                74.827(2)
_cell_volume                     5837.8(9)
_cell_formula_units_Z            1
_cell_measurement_temperature    293(2)
_cell_measurement_reflns_used    ?
_cell_measurement_theta_min      ?
_cell_measurement_theta_max      ?

_exptl_crystal_description       ?
_exptl_crystal_colour            'dark brown'
_exptl_crystal_size_max          0.3
_exptl_crystal_size_mid          0.3
_exptl_crystal_size_min          0.1
_exptl_crystal_density_meas      ?
_exptl_crystal_density_diffrn    1.359
_exptl_crystal_density_method    'not measured'
_exptl_crystal_F_000             2334
_exptl_absorpt_coefficient_mu    2.381
_exptl_absorpt_correction_type   ?
_exptl_absorpt_correction_T_min  ?
_exptl_absorpt_correction_T_max  ?
_exptl_absorpt_process_details   ?

_exptl_special_details           
;
?
;

_diffrn_ambient_temperature      293(2)
_diffrn_radiation_wavelength     0.71073
_diffrn_radiation_type           MoK\a
_diffrn_radiation_source         'fine-focus sealed tube'
_diffrn_radiation_monochromator  graphite
_diffrn_measurement_device_type  ?
_diffrn_measurement_method       ?
_diffrn_detector_area_resol_mean ?
_diffrn_standards_number         ?
_diffrn_standards_interval_count ?
_diffrn_standards_interval_time  ?
_diffrn_standards_decay_%        ?
_diffrn_reflns_number            38570
_diffrn_reflns_av_R_equivalents  0.1936
_diffrn_reflns_av_sigmaI/netI    0.6030
_diffrn_reflns_limit_h_min       -21
_diffrn_reflns_limit_h_max       15
_diffrn_reflns_limit_k_min       -26
_diffrn_reflns_limit_k_max       23
_diffrn_reflns_limit_l_min       -26
_diffrn_reflns_limit_l_max       25
_diffrn_reflns_theta_min         1.34
_diffrn_reflns_theta_max         28.36
_reflns_number_total             26977
_reflns_number_gt                5224
_reflns_threshold_expression     >2sigma(I)

_computing_data_collection       ?
_computing_cell_refinement       ?
_computing_data_reduction        ?
_computing_structure_solution    ?
_computing_structure_refinement  'SHELXL-97 (Sheldrick, 1997)'
_computing_molecular_graphics    ?
_computing_publication_material  ?

_refine_special_details          
;
Refinement of F^2^ against ALL reflections.  The weighted R-factor wR and
goodness of fit S are based on F^2^, conventional R-factors R are based
on F, with F set to zero for negative F^2^. The threshold expression of
F^2^ > 2sigma(F^2^) is used only for calculating R-factors(gt) etc. and is
not relevant to the choice of reflections for refinement.  R-factors based
on F^2^ are statistically about twice as large as those based on F, and R-
factors based on ALL data will be even larger.
;

_refine_ls_structure_factor_coef Fsqd
_refine_ls_matrix_type           full
_refine_ls_weighting_scheme      calc
_refine_ls_weighting_details     
'calc w=1/[\s^2^(Fo^2^)+(0.1970P)^2^+0.0000P] where P=(Fo^2^+2Fc^2^)/3'
_atom_sites_solution_primary     direct
_atom_sites_solution_secondary   difmap
_atom_sites_solution_hydrogens   geom
_refine_ls_hydrogen_treatment    mixed
_refine_ls_extinction_method     SHELXL
_refine_ls_extinction_coef       0.0000(2)
_refine_ls_extinction_expression Fc^*^=kFc[1+0.001xFc^2^\l^3^/sin(2\q)]^-1/4^
_refine_ls_number_reflns         26977
_refine_ls_number_parameters     954
_refine_ls_number_restraints     2
_refine_ls_R_factor_all          0.4654
_refine_ls_R_factor_gt           0.1547
_refine_ls_wR_factor_ref         0.4960
_refine_ls_wR_factor_gt          0.3337
_refine_ls_goodness_of_fit_ref   0.922
_refine_ls_restrained_S_all      0.922
_refine_ls_shift/su_max          1.022
_refine_ls_shift/su_mean         0.008

loop_
_atom_site_label
_atom_site_type_symbol
_atom_site_fract_x
_atom_site_fract_y
_atom_site_fract_z
_atom_site_U_iso_or_equiv
_atom_site_adp_type
_atom_site_occupancy
_atom_site_symmetry_multiplicity
_atom_site_calc_flag
_atom_site_refinement_flags
_atom_site_disorder_assembly
_atom_site_disorder_group
NiA Ni 0.22867(16) 0.92119(13) 0.32137(15) 0.0379(7) Uani 1 1 d . . .
N1A N 0.1885(14) 0.8892(11) 0.1849(12) 0.056(6) Uani 1 1 d . . .
N2A N 0.2796(10) 0.9516(8) 0.2136(9) 0.043(5) Uani 1 1 d . . .
H2A H 0.3290 0.9188 0.2023 0.052 Uiso 1 1 calc R . .
N3A N 0.2880(11) 0.9924(9) 0.3257(11) 0.052(5) Uani 1 1 d . . .
H3A H 0.2461 1.0322 0.3301 0.063 Uiso 1 1 calc R . .
N4A N 0.1765(12) 0.8957(9) 0.4305(10) 0.062(6) Uani 1 1 d . . .
H4A H 0.1289 0.9301 0.4408 0.075 Uiso 1 1 calc R . .
N5A N 0.1655(10) 0.8493(8) 0.3178(10) 0.041(5) Uani 1 1 d . . .
H5A H 0.2057 0.8083 0.3147 0.049 Uiso 1 1 calc R . .
C1A C 0.3576(18) 0.8582(17) 0.0332(17) 0.085(10) Uani 1 1 d . . .
H1A H 0.4008 0.8530 0.0553 0.102 Uiso 1 1 calc R . .
C2A C 0.2068(18) 0.8609(15) 0.0412(18) 0.091(10) Uani 1 1 d . . .
H2B H 0.1492 0.8567 0.0684 0.109 Uiso 1 1 calc R . .
C3A C 0.280(2) 0.8494(13) 0.0760(14) 0.075(8) Uani 1 1 d . . .
C4A C 0.2551(15) 0.8316(12) 0.1579(12) 0.063(7) Uiso 1 1 d . . .
H4B H 0.2324 0.7867 0.1783 0.075 Uiso 1 1 calc R . .
H4C H 0.3071 0.8254 0.1731 0.075 Uiso 1 1 calc R . .
C5A C 0.2233(17) 0.9509(12) 0.1714(13) 0.063(7) Uani 1 1 d . . .
H5B H 0.1742 0.9902 0.1775 0.076 Uiso 1 1 calc R . .
H5C H 0.2566 0.9622 0.1208 0.076 Uiso 1 1 calc R . .
C6A C 0.3087(15) 1.0196(12) 0.1965(12) 0.055(6) Uani 1 1 d . . .
H6A H 0.2592 1.0589 0.1976 0.066 Uiso 1 1 calc R . .
H6B H 0.3503 1.0288 0.1488 0.066 Uiso 1 1 calc R . .
C7A C 0.3506(15) 1.0128(11) 0.2519(17) 0.076(9) Uani 1 1 d . . .
H7A H 0.3677 1.0581 0.2451 0.092 Uiso 1 1 calc R . .
H7B H 0.4030 0.9763 0.2474 0.092 Uiso 1 1 calc R . .
C8A C 0.3294(17) 0.9760(12) 0.3880(16) 0.073(9) Uani 1 1 d . . .
H8A H 0.3774 0.9355 0.3850 0.087 Uiso 1 1 calc R . .
H8B H 0.3524 1.0173 0.3851 0.087 Uiso 1 1 calc R . .
C9A C 0.257(2) 0.9581(16) 0.4597(14) 0.082(9) Uani 1 1 d . . .
H9A H 0.2777 0.9585 0.4989 0.098 Uiso 1 1 calc R . .
H9B H 0.2058 0.9955 0.4579 0.098 Uiso 1 1 calc R . .
C10A C 0.2318(16) 0.8908(14) 0.4751(13) 0.066(8) Uani 1 1 d . . .
H10A H 0.1999 0.8765 0.5258 0.079 Uiso 1 1 calc R . .
H10B H 0.2837 0.8545 0.4656 0.079 Uiso 1 1 calc R . .
C11A C 0.1417(16) 0.8255(12) 0.4459(14) 0.074(8) Uani 1 1 d . . .
H11A H 0.1899 0.7851 0.4457 0.089 Uiso 1 1 calc R . .
H11B H 0.0994 0.8170 0.4932 0.089 Uiso 1 1 calc R . .
C12A C 0.0983(15) 0.8317(13) 0.3884(13) 0.065(7) Uani 1 1 d . . .
H12A H 0.0803 0.7867 0.3954 0.078 Uiso 1 1 calc R . .
H12B H 0.0470 0.8694 0.3906 0.078 Uiso 1 1 calc R . .
C13A C 0.1307(17) 0.8708(12) 0.2523(17) 0.072(9) Uani 1 1 d . . .
H13A H 0.1055 0.8312 0.2539 0.086 Uiso 1 1 calc R . .
H13B H 0.0831 0.9113 0.2574 0.086 Uiso 1 1 calc R . .
NiB Ni -0.27307(16) 1.41940(13) 0.32897(15) 0.0364(7) Uani 1 1 d . . .
N1B N -0.1329(13) 1.5101(10) 0.1910(14) 0.061(6) Uani 1 1 d . . .
N2B N -0.1661(10) 1.4541(9) 0.3173(9) 0.046(5) Uani 1 1 d . . .
H2B1 H -0.1213 1.4170 0.3087 0.055 Uiso 1 1 calc R . .
N3B N -0.2919(12) 1.4002(9) 0.4330(9) 0.052(5) Uani 1 1 d . . .
H3C H -0.3301 1.4383 0.4477 0.062 Uiso 1 1 calc R . .
N4B N -0.3814(10) 1.3896(8) 0.3391(11) 0.053(5) Uani 1 1 d . . .
H4D H -0.4245 1.4281 0.3462 0.064 Uiso 1 1 calc R . .
N5B N -0.2516(11) 1.4398(9) 0.2240(10) 0.055(5) Uani 1 1 d . . .
H5D H -0.2141 1.4011 0.2101 0.066 Uiso 1 1 calc R . .
C1B C -0.0350(18) 1.5516(14) 0.0337(19) 0.092(9) Uani 1 1 d . . .
H1B H -0.0539 1.5887 0.0568 0.110 Uiso 1 1 calc R . .
C2B C 0.0161(19) 1.4301(17) 0.0394(17) 0.099(10) Uani 1 1 d . . .
H2D H 0.0344 1.3828 0.0629 0.119 Uiso 1 1 calc R . .
C3B C -0.0277(18) 1.4771(16) 0.0790(16) 0.078(8) Uiso 1 1 d . . .
C4B C -0.0570(17) 1.4608(14) 0.1574(13) 0.076(8) Uani 1 1 d . . .
H4E H -0.0078 1.4593 0.1743 0.092 Uiso 1 1 calc R . .
H4F H -0.0717 1.4128 0.1754 0.092 Uiso 1 1 calc R . .
C5B C -0.1405(14) 1.5183(10) 0.2550(14) 0.048(6) Uani 1 1 d . . .
H5E H -0.1844 1.5604 0.2630 0.058 Uiso 1 1 calc R . .
H5F H -0.0849 1.5271 0.2545 0.058 Uiso 1 1 calc R . .
C6B C -0.1700(15) 1.4613(12) 0.3882(14) 0.061(7) Uani 1 1 d . . .
H6C H -0.2068 1.5062 0.3966 0.073 Uiso 1 1 calc R . .
H6D H -0.1116 1.4606 0.3901 0.073 Uiso 1 1 calc R . .
C7B C -0.2079(15) 1.3988(12) 0.4438(13) 0.061(7) Uani 1 1 d . . .
H7C H -0.1686 1.3540 0.4379 0.073 Uiso 1 1 calc R . .
H7D H -0.2166 1.4029 0.4921 0.073 Uiso 1 1 calc R . .
C8B C -0.3297(13) 1.3324(13) 0.4799(12) 0.056(6) Uani 1 1 d . . .
H8C H -0.2899 1.2907 0.4658 0.067 Uiso 1 1 calc R . .
H8D H -0.3346 1.3273 0.5301 0.067 Uiso 1 1 calc R . .
C9B C -0.4165(16) 1.3348(13) 0.4729(15) 0.072(8) Uani 1 1 d . . .
H9C H -0.4541 1.3797 0.4808 0.086 Uiso 1 1 calc R . .
H9D H -0.4433 1.2956 0.5096 0.086 Uiso 1 1 calc R . .
C10B C -0.4099(14) 1.3290(13) 0.4003(16) 0.074(8) Uani 1 1 d . . .
H10C H -0.3691 1.2855 0.3921 0.088 Uiso 1 1 calc R . .
H10D H -0.4669 1.3234 0.4007 0.088 Uiso 1 1 calc R . .
C11B C -0.3755(16) 1.3817(14) 0.2663(14) 0.068(7) Uani 1 1 d . . .
H11C H -0.3397 1.3361 0.2592 0.082 Uiso 1 1 calc R . .
H11D H -0.4335 1.3835 0.2631 0.082 Uiso 1 1 calc R . .
C12B C -0.3346(17) 1.4427(14) 0.2102(14) 0.068(7) Uani 1 1 d . . .
H12C H -0.3238 1.4373 0.1620 0.082 Uiso 1 1 calc R . .
H12D H -0.3729 1.4883 0.2141 0.082 Uiso 1 1 calc R . .
C13B C -0.207(2) 1.5053(12) 0.1809(12) 0.088(11) Uani 1 1 d . . .
H13C H -0.1951 1.5083 0.1300 0.105 Uiso 1 1 calc R . .
H13D H -0.2496 1.5476 0.1905 0.105 Uiso 1 1 calc R . .
NiC Ni -0.26912(16) 0.92094(14) 0.31797(16) 0.0425(8) Uani 1 1 d . . .
N1C N 0.3546(14) 0.9804(10) -0.1824(11) 0.057(5) Uani 1 1 d . . .
N2C N -0.3760(10) 0.9937(8) 0.3157(10) 0.042(4) Uani 1 1 d . . .
H2C H -0.3617 1.0367 0.3102 0.050 Uiso 1 1 calc R . .
N3C N -0.3167(12) 0.8986(9) 0.4220(10) 0.059(5) Uani 1 1 d . . .
H3E H -0.3409 0.8585 0.4339 0.070 Uiso 1 1 calc R . .
N4C N -0.1594(12) 0.8475(9) 0.3171(13) 0.065(6) Uani 1 1 d . . .
H4G H -0.1763 0.8053 0.3234 0.078 Uiso 1 1 calc R . .
N5C N -0.2211(11) 0.9441(10) 0.2103(11) 0.065(6) Uani 1 1 d . . .
H5G H -0.1931 0.9822 0.1974 0.078 Uiso 1 1 calc R . .
C1C C 0.383(2) 0.8742(17) -0.0402(19) 0.113(12) Uani 1 1 d . . .
H1C H 0.4413 0.8769 -0.0653 0.135 Uiso 1 1 calc R . .
C2C C 0.233(2) 0.8785(15) -0.0352(17) 0.098(13) Uani 1 1 d . . .
H2F H 0.1902 0.8851 -0.0583 0.118 Uiso 1 1 calc R . .
C3C C 0.320(2) 0.8870(14) -0.0794(18) 0.078(9) Uani 1 1 d . . .
C4C C 0.3318(17) 0.9083(12) -0.1586(14) 0.064(7) Uani 1 1 d . . .
H4H H 0.3786 0.8752 -0.1822 0.077 Uiso 1 1 calc R . .
H4I H 0.2780 0.9094 -0.1689 0.077 Uiso 1 1 calc R . .
C5C C -0.4119(17) 1.0025(13) 0.2510(15) 0.069(8) Uani 1 1 d . . .
H5H H -0.4306 0.9579 0.2573 0.083 Uiso 1 1 calc R . .
H5I H -0.4637 1.0398 0.2534 0.083 Uiso 1 1 calc R . .
C6C C -0.4416(14) 0.9770(12) 0.3868(13) 0.056(7) Uani 1 1 d . . .
H6E H -0.4870 1.0187 0.3930 0.067 Uiso 1 1 calc R . .
H6F H -0.4688 0.9375 0.3910 0.067 Uiso 1 1 calc R . .
C7C C -0.3932(15) 0.9570(12) 0.4413(14) 0.065(7) Uani 1 1 d . . .
H7E H -0.4312 0.9397 0.4892 0.078 Uiso 1 1 calc R . .
H7F H -0.3722 0.9984 0.4409 0.078 Uiso 1 1 calc R . .
C8C C -0.2567(16) 0.8803(12) 0.4685(13) 0.061(7) Uani 1 1 d . . .
H8E H -0.2902 0.8685 0.5190 0.074 Uiso 1 1 calc R . .
H8F H -0.2302 0.9217 0.4597 0.074 Uiso 1 1 calc R . .
C9C C -0.186(2) 0.8173(13) 0.4529(17) 0.082(9) Uani 1 1 d . . .
H9E H -0.1538 0.8017 0.4890 0.098 Uiso 1 1 calc R . .
H9F H -0.2128 0.7778 0.4572 0.098 Uiso 1 1 calc R . .
C10C C -0.1219(17) 0.8341(13) 0.3794(19) 0.081(9) Uani 1 1 d . . .
H10E H -0.0730 0.7944 0.3765 0.097 Uiso 1 1 calc R . .
H10F H -0.0990 0.8764 0.3738 0.097 Uiso 1 1 calc R . .
C11C C -0.0998(14) 0.8598(16) 0.2474(18) 0.086(10) Uani 1 1 d . . .
H11E H -0.0566 0.8168 0.2419 0.103 Uiso 1 1 calc R . .
H11F H -0.0692 0.8984 0.2399 0.103 Uiso 1 1 calc R . .
C12C C -0.1491(16) 0.8791(12) 0.1956(15) 0.077(9) Uani 1 1 d . . .
H12E H -0.1755 0.8389 0.2003 0.092 Uiso 1 1 calc R . .
H12F H -0.1107 0.8915 0.1468 0.092 Uiso 1 1 calc R . .
C13C C -0.2879(16) 0.9660(13) 0.1655(13) 0.062(7) Uiso 1 1 d . . .
H13E H -0.2568 0.9809 0.1146 0.074 Uiso 1 1 calc R . .
H13F H -0.3124 0.9241 0.1724 0.074 Uiso 1 1 calc R . .
O1 O 0.6582(8) 0.8488(7) 0.3160(7) 0.045(4) Uani 1 1 d . . .
O2 O 0.7377(10) 0.7419(8) 0.3492(13) 0.116(9) Uani 1 1 d . . .
O3 O 0.3478(8) 0.8464(7) 0.3266(8) 0.045(4) Uani 1 1 d . . .
O4 O 0.3184(9) 0.7500(8) 0.3165(11) 0.090(7) Uani 1 1 d . . .
O5 O 0.6659(8) 0.5270(6) 0.3277(7) 0.043(4) Uani 1 1 d . . .
O6 O 0.5230(8) 0.5203(7) 0.3593(8) 0.058(4) Uani 1 1 d . . .
O7 O 0.1114(8) 0.9959(7) 0.3141(7) 0.045(4) Uani 1 1 d . . .
O8 O 0.1353(12) 1.0918(9) 0.3306(14) 0.120(9) Uani 1 1 d . . .
O9 O -0.2123(8) 1.3132(6) 0.3291(8) 0.046(4) Uani 1 1 d . . .
O10 O -0.0715(10) 1.3172(8) 0.3111(12) 0.091(7) Uani 1 1 d . . .
O11 O -0.1984(8) 0.9946(7) 0.3187(8) 0.048(4) Uani 1 1 d . . .
O12 O -0.2904(10) 1.0978(8) 0.3105(12) 0.093(7) Uani 1 1 d . . .
C1 C 0.0864(14) 1.0576(12) 0.3231(13) 0.056(7) Uani 1 1 d . . .
C2 C -0.2173(14) 1.0598(13) 0.3151(13) 0.055(6) Uani 1 1 d . . .
C3 C -0.1283(15) 1.2837(12) 0.3190(12) 0.057(7) Uani 1 1 d . . .
C4 C -0.0053(11) 1.0954(9) 0.3211(10) 0.031(5) Uani 1 1 d . . .
C5 C -0.0664(11) 1.0610(10) 0.3204(9) 0.028(4) Uiso 1 1 d . . .
H5 H -0.0521 1.0126 0.3205 0.033 Uiso 1 1 calc R . .
C6 C -0.1484(11) 1.0979(9) 0.3195(10) 0.033(5) Uani 1 1 d . . .
C7 C -0.1702(11) 1.1690(9) 0.3206(10) 0.032(5) Uani 1 1 d . . .
H7 H -0.2275 1.1925 0.3224 0.039 Uiso 1 1 calc R . .
C8 C -0.1118(11) 1.2054(9) 0.3191(11) 0.037(5) Uani 1 1 d . . .
C9 C -0.0249(12) 1.1678(10) 0.3199(11) 0.047(6) Uani 1 1 d . . .
H9 H 0.0173 1.1913 0.3197 0.057 Uiso 1 1 calc R . .
C10 C 0.6709(14) 0.7821(12) 0.3315(13) 0.051(6) Uani 1 1 d . . .
C11 C 0.5858(15) 0.5527(11) 0.3423(11) 0.042(5) Uiso 1 1 d . . .
C12 C 0.3675(12) 0.7835(9) 0.3217(11) 0.030(5) Uani 1 1 d . . .
C13 C 0.6038(12) 0.7435(9) 0.3319(10) 0.032(5) Uani 1 1 d . . .
C14 C 0.6221(12) 0.6703(9) 0.3375(10) 0.035(5) Uani 1 1 d . . .
H14 H 0.6777 0.6453 0.3406 0.042 Uiso 1 1 calc R . .
C15 C 0.5629(13) 0.6331(10) 0.3388(10) 0.035(5) Uani 1 1 d . . .
C16 C 0.4792(11) 0.6722(9) 0.3340(9) 0.028(5) Uani 1 1 d . . .
H16 H 0.4374 0.6480 0.3348 0.034 Uiso 1 1 calc R . .
C17 C 0.4577(12) 0.7433(10) 0.3282(11) 0.036(5) Uani 1 1 d . . .
C18 C 0.5200(12) 0.7809(11) 0.3268(11) 0.043(6) Uani 1 1 d . . .
H18 H 0.5058 0.8302 0.3225 0.051 Uiso 1 1 calc R . .
I1 I 0.5000 0.0000 0.0000 0.1003(10) Uani 1 2 d S . .
I2 I 0.0000 0.0000 0.0000 0.1048(11) Uani 1 2 d S . .
I3 I 0.52614(14) -0.11131(13) 0.12939(12) 0.1093(9) Uani 1 1 d . . .
I4 I -0.02284(16) 0.04551(13) 0.12861(13) 0.1143(9) Uani 1 1 d . . .
I5 I 0.1148(8) 0.6733(6) 0.1928(10) 0.369(9) Uani 0.502(5) 1 d P A 1
I6 I -0.0506(4) 0.6935(2) 0.1637(3) 0.144(3) Uani 0.502(5) 1 d P A 1
I7 I -0.2219(5) 0.7193(3) 0.1463(4) 0.163(3) Uani 0.502(5) 1 d P A 1
I8 I -0.177(2) 0.765(2) 0.010(3) 1.11(6) Uani 0.498(5) 1 d PD A 2
I9 I -0.148(4) 0.798(2) -0.135(3) 1.42(9) Uani 0.498(5) 1 d PD A 2
I10 I 0.434(3) 0.2373(18) 0.2025(16) 0.95(4) Uani 0.50 1 d PD . .
I11 I 0.4638(12) 0.1883(6) 0.3315(8) 0.471(13) Uani 0.50 1 d PD . .
I12 I 0.5420(12) 0.1550(7) 0.4674(8) 0.396(9) Uani 0.50 1 d P . .
OW1A O 0.8445(18) 0.2834(14) 0.1209(12) 0.100(12) Uani 0.69(3) 1 d P B 1
OW1B O 0.838(3) 0.3347(19) 0.1488(18) 0.036(16) Uani 0.31(3) 1 d P B 2
OW2 O 0.3944(13) 0.4937(11) 0.4925(11) 0.123(8) Uani 1 1 d . . .
OW3 O 0.325(4) 0.371(2) 0.491(3) 0.36(3) Uani 1 1 d . . .
OW4 O 0.090(3) 0.141(2) 0.452(3) 0.32(3) Uani 1 1 d . . .
OW5 O 0.538(3) 0.658(2) 0.129(2) 0.30(2) Uani 1 1 d . . .
OW6 O 0.0000 0.0000 0.5000 0.150(16) Uani 1 2 d S . .
OW7 O 0.014(2) 0.278(2) 0.435(2) 0.28(2) Uani 1 1 d . . .
OW8 O 0.560(4) 0.397(4) 0.077(3) 0.58(7) Uani 1 1 d . . .
OW9 O 0.026(4) 0.637(