####################################################################### 
# 
# This file contains crystal structure data downloaded from the 
# Cambridge Structural Database (CSD) hosted by the Cambridge 
# Crystallographic Data Centre (CCDC).
# 
# Full information about CCDC data access policies and citation 
# guidelines are available at http://www.ccdc.cam.ac.uk/access/V1 
# 
# Audit and citation data items may have been added by the CCDC. 
# Please retain this information to preserve the provenance of 
# this file and to allow appropriate attribution of the data. 
# 
#######################################################################

data_shelxl2
_audit_block_doi                 10.5517/ccxv6vs
_database_code_depnum_ccdc_archive 'CCDC 859346'
loop_
_citation_id
_citation_doi
_citation_year
1 10.1021/cg2016947 2012
_audit_update_record             
;
2011-12-20 deposited with the CCDC.	2024-07-10 downloaded from the CCDC.
;
#TrackingRef 'C2_CuSAEPPAg.cif'


_audit_creation_method           SHELXL-97
_chemical_name_systematic        
;
?
;
_chemical_name_common            ?
_chemical_melting_point          ?
_chemical_formula_moiety         ?
_chemical_formula_sum            'C29 H46 Ag Cl2 Cu2 N9 O14'
_chemical_formula_weight         1050.57

loop_
_atom_type_symbol
_atom_type_description
_atom_type_scat_dispersion_real
_atom_type_scat_dispersion_imag
_atom_type_scat_source
C C 0.0033 0.0016 'International Tables Vol C Tables 4.2.6.8 and 6.1.1.4'
H H 0.0000 0.0000 'International Tables Vol C Tables 4.2.6.8 and 6.1.1.4'
Ag Ag -0.8971 1.1015 'International Tables Vol C Tables 4.2.6.8 and 6.1.1.4'
Cl Cl 0.1484 0.1585 'International Tables Vol C Tables 4.2.6.8 and 6.1.1.4'
Cu Cu 0.3201 1.2651 'International Tables Vol C Tables 4.2.6.8 and 6.1.1.4'
N N 0.0061 0.0033 'International Tables Vol C Tables 4.2.6.8 and 6.1.1.4'
O O 0.0106 0.0060 'International Tables Vol C Tables 4.2.6.8 and 6.1.1.4'

_symmetry_cell_setting           Trigonal
_symmetry_space_group_name_H-M   R-3

loop_
_symmetry_equiv_pos_as_xyz
'x, y, z'
'-y, x-y, z'
'-x+y, -x, z'
'x+2/3, y+1/3, z+1/3'
'-y+2/3, x-y+1/3, z+1/3'
'-x+y+2/3, -x+1/3, z+1/3'
'x+1/3, y+2/3, z+2/3'
'-y+1/3, x-y+2/3, z+2/3'
'-x+y+1/3, -x+2/3, z+2/3'
'-x, -y, -z'
'y, -x+y, -z'
'x-y, x, -z'
'-x+2/3, -y+1/3, -z+1/3'
'y+2/3, -x+y+1/3, -z+1/3'
'x-y+2/3, x+1/3, -z+1/3'
'-x+1/3, -y+2/3, -z+2/3'
'y+1/3, -x+y+2/3, -z+2/3'
'x-y+1/3, x+2/3, -z+2/3'

_cell_length_a                   31.9254(5)
_cell_length_b                   31.9254(5)
_cell_length_c                   11.1368(15)
_cell_angle_alpha                90.00
_cell_angle_beta                 90.00
_cell_angle_gamma                120.00
_cell_volume                     9830.2(14)
_cell_formula_units_Z            9
_cell_measurement_temperature    293(2)
_cell_measurement_reflns_used    261
_cell_measurement_theta_min      2.5
_cell_measurement_theta_max      26

_exptl_crystal_description       prism
_exptl_crystal_colour            green
_exptl_crystal_size_max          0.5
_exptl_crystal_size_mid          0.02
_exptl_crystal_size_min          0.01
_exptl_crystal_density_meas      'not measured'
_exptl_crystal_density_diffrn    1.591
_exptl_crystal_density_method    'not measured'
_exptl_crystal_F_000             4770
_exptl_absorpt_coefficient_mu    1.599
_exptl_absorpt_correction_type   multi-scan
_exptl_absorpt_correction_T_min  0.962
_exptl_absorpt_correction_T_max  0.984
_exptl_absorpt_process_details   sadabs

_exptl_special_details           
;
?
;

_diffrn_ambient_temperature      293(2)
_diffrn_radiation_wavelength     0.71073
_diffrn_radiation_type           MoK\a
_diffrn_radiation_source         'fine-focus sealed tube'
_diffrn_radiation_monochromator  graphite
_diffrn_measurement_device_type  'Nonius Kappa CCD'
_diffrn_measurement_method       'phi and omega scans'
_diffrn_detector_area_resol_mean ?
_diffrn_standards_number         ?
_diffrn_standards_interval_count ?
_diffrn_standards_interval_time  ?
_diffrn_standards_decay_%        ?
_diffrn_reflns_number            25867
_diffrn_reflns_av_R_equivalents  0.1247
_diffrn_reflns_av_sigmaI/netI    0.1157
_diffrn_reflns_limit_h_min       -38
_diffrn_reflns_limit_h_max       36
_diffrn_reflns_limit_k_min       -38
_diffrn_reflns_limit_k_max       38
_diffrn_reflns_limit_l_min       -13
_diffrn_reflns_limit_l_max       10
_diffrn_reflns_theta_min         3.23
_diffrn_reflns_theta_max         25.30
_reflns_number_total             3938
_reflns_number_gt                2151
_reflns_threshold_expression     >2sigma(I)

_computing_data_collection       KappaCCD
_computing_cell_refinement       'Dirax/lsq (Duisenberg & Schreurs, 1989-2000)'
_computing_data_reduction        'Denzo and Scalepak'
_computing_structure_solution    'SHELXS-97 (Sheldrick, 1997)'
_computing_structure_refinement  'SHELXL-97 (Sheldrick, 1997)'
_computing_molecular_graphics    ?
_computing_publication_material  ?

_refine_special_details          
;
Refinement of F^2^ against ALL reflections. The weighted R-factor wR and
goodness of fit S are based on F^2^, conventional R-factors R are based
on F, with F set to zero for negative F^2^. The threshold expression of
F^2^ > 2sigma(F^2^) is used only for calculating R-factors(gt) etc. and is
not relevant to the choice of reflections for refinement. R-factors based
on F^2^ are statistically about twice as large as those based on F, and R-
factors based on ALL data will be even larger.
;

_refine_ls_structure_factor_coef Fsqd
_refine_ls_matrix_type           full
_refine_ls_weighting_scheme      calc
_refine_ls_weighting_details     
'calc w=1/[\s^2^(Fo^2^)+(0.0868P)^2^+0.0000P] where P=(Fo^2^+2Fc^2^)/3'
_atom_sites_solution_primary     direct
_atom_sites_solution_secondary   difmap
_atom_sites_solution_hydrogens   geom
_refine_ls_hydrogen_treatment    mixed
_refine_ls_extinction_method     none
_refine_ls_extinction_coef       ?
_refine_ls_number_reflns         3938
_refine_ls_number_parameters     284
_refine_ls_number_restraints     4
_refine_ls_R_factor_all          0.1465
_refine_ls_R_factor_gt           0.0687
_refine_ls_wR_factor_ref         0.1686
_refine_ls_wR_factor_gt          0.1412
_refine_ls_goodness_of_fit_ref   0.997
_refine_ls_restrained_S_all      0.996
_refine_ls_shift/su_max          0.000
_refine_ls_shift/su_mean         0.000

loop_
_atom_site_label
_atom_site_type_symbol
_atom_site_fract_x
_atom_site_fract_y
_atom_site_fract_z
_atom_site_U_iso_or_equiv
_atom_site_adp_type
_atom_site_occupancy
_atom_site_symmetry_multiplicity
_atom_site_calc_flag
_atom_site_refinement_flags
_atom_site_disorder_assembly
_atom_site_disorder_group
C1 C 0.0067(3) 0.2796(3) 0.3865(6) 0.0472(18) Uani 1 1 d . . .
C2 C -0.0266(3) 0.2311(3) 0.3574(7) 0.058(2) Uani 1 1 d . . .
H2 H -0.0156 0.2106 0.3313 0.070 Uiso 1 1 calc R . .
C3 C -0.0762(3) 0.2140(3) 0.3680(8) 0.065(2) Uani 1 1 d . . .
H3 H -0.0978 0.1815 0.3521 0.078 Uiso 1 1 calc R . .
C4 C -0.0937(3) 0.2426(4) 0.4002(7) 0.067(2) Uani 1 1 d . . .
H4 H -0.1270 0.2299 0.4066 0.080 Uiso 1 1 calc R . .
C5 C -0.0624(3) 0.2913(3) 0.4242(6) 0.058(2) Uani 1 1 d . . .
H5 H -0.0748 0.3113 0.4437 0.070 Uiso 1 1 calc R . .
C5A C 0.1532(2) 0.3387(2) 0.3488(6) 0.0453(17) Uani 0.50 1 d P . .
C6 C -0.0116(2) 0.3105(3) 0.4189(5) 0.0390(17) Uani 1 1 d . . .
C7 C 0.0179(3) 0.3600(3) 0.4411(6) 0.0436(18) Uani 1 1 d . . .
H7 H 0.0021 0.3767 0.4625 0.052 Uiso 1 1 calc R . .
C8 C 0.0894(2) 0.4376(2) 0.4558(7) 0.0496(19) Uani 1 1 d . . .
H8A H 0.0721 0.4452 0.5158 0.059 Uiso 1 1 calc R . .
H8B H 0.0904 0.4542 0.3820 0.059 Uiso 1 1 calc R . .
C9 C 0.1395(3) 0.4537(3) 0.4981(6) 0.0492(18) Uani 1 1 d . . .
H9A H 0.1588 0.4887 0.4943 0.059 Uiso 1 1 calc R . .
H9B H 0.1387 0.4440 0.5810 0.059 Uiso 1 1 calc R . .
C10 C 0.2085(2) 0.4407(2) 0.4747(7) 0.053(2) Uani 1 1 d . . .
H10A H 0.2188 0.4208 0.4323 0.064 Uiso 1 1 calc R . .
H10B H 0.2031 0.4304 0.5580 0.064 Uiso 1 1 calc R . .
C11 C 0.1706(2) 0.4497(3) 0.2962(6) 0.0515(19) Uani 1 1 d . . .
H11A H 0.1406 0.4457 0.2636 0.062 Uiso 1 1 calc R . .
H11B H 0.1794 0.4297 0.2493 0.062 Uiso 1 1 calc R . .
C12 C 0.2097(3) 0.5022(3) 0.2820(9) 0.074(3) Uani 1 1 d . . .
H12A H 0.2144 0.5109 0.1976 0.089 Uiso 1 1 calc R . .
H12B H 0.2004 0.5231 0.3231 0.089 Uiso 1 1 calc R . .
C13 C 0.2490(3) 0.4929(3) 0.4695(10) 0.079(3) Uani 1 1 d . . .
H13A H 0.2786 0.4960 0.5016 0.095 Uiso 1 1 calc R . .
H13B H 0.2406 0.5133 0.5160 0.095 Uiso 1 1 calc R . .
C14 C 0.1321(3) 0.3406(3) 0.6873(7) 0.053(2) Uani 1 1 d . . .
Ag Ag 0.1667 0.3333 0.8333 0.0666(4) Uani 1 2 d S . .
Cu Cu 0.10678(3) 0.35799(3) 0.41286(7) 0.0375(3) Uani 1 1 d . . .
N1 N 0.16198(18) 0.43210(18) 0.4224(5) 0.0393(14) Uani 1 1 d . . .
N2 N 0.2556(3) 0.5079(3) 0.3354(10) 0.086(3) Uani 1 1 d D . .
N3 N 0.06435(19) 0.3850(2) 0.4351(5) 0.0404(14) Uani 1 1 d . . .
N4 N 0.1156(2) 0.3459(2) 0.6036(6) 0.0634(19) Uani 1 1 d . . .
N5 N 0.1532(2) 0.3387(2) 0.3488(6) 0.0453(17) Uani 0.50 1 d P . .
O O 0.05313(16) 0.29363(16) 0.3825(4) 0.0511(13) Uani 1 1 d . . .
H1X H 0.262(3) 0.488(2) 0.289(6) 0.07(3) Uiso 1 1 d D . .
H2X H 0.2835(13) 0.5352(14) 0.345(6) 0.05(2) Uiso 1 1 d D . .
Cl Cl 0.16741(14) 0.07218(12) 0.2120(4) 0.1157(11) Uani 1 1 d . . .
O1P O 0.2026(4) 0.1091(3) 0.2748(11) 0.192(5) Uani 1 1 d . . .
O2P O 0.1761(6) 0.0461(7) 0.1360(16) 0.270(8) Uani 1 1 d . . .
O3P O 0.1323(4) 0.0805(4) 0.1749(15) 0.239(7) Uani 1 1 d . . .
O5P O 0.1488(6) 0.0325(4) 0.2880(16) 0.249(7) Uani 1 1 d . . .
O1W1 O 0.304(2) 0.6085(12) 0.418(6) 0.26(3) Uani 0.28 1 d P . .
O1W2 O 0.3173(8) 0.6048(6) 0.275(4) 0.332(16) Uani 0.72 1 d P . .
O2W O 0.0634(2) 0.2208(2) 0.4802(7) 0.0787(18) Uani 1 1 d D . .
H3W H 0.068(3) 0.2478(16) 0.446(6) 0.07(3) Uiso 1 1 d D . .
H4W H 0.074(3) 0.227(3) 0.555(3) 0.09(3) Uiso 1 1 d D . .

loop_
_atom_site_aniso_label
_atom_site_aniso_U_11
_atom_site_aniso_U_22
_atom_site_aniso_U_33
_atom_site_aniso_U_23
_atom_site_aniso_U_13
_atom_site_aniso_U_12
C1 0.045(5) 0.049(5) 0.040(4) 0.007(3) -0.004(4) 0.018(4)
C2 0.048(5) 0.052(5) 0.062(5) -0.008(4) -0.014(4) 0.016(4)
C3 0.059(6) 0.046(5) 0.063(6) 0.015(4) -0.012(4) 0.006(5)
C4 0.039(5) 0.080(7) 0.057(5) 0.008(5) -0.004(4) 0.011(5)
C5 0.050(5) 0.094(7) 0.038(4) -0.006(4) 0.004(4) 0.041(5)
C5A 0.040(4) 0.036(4) 0.060(5) 0.002(3) -0.003(3) 0.020(3)
C6 0.036(4) 0.059(5) 0.024(4) 0.003(3) -0.001(3) 0.025(4)
C7 0.042(5) 0.060(5) 0.031(4) 0.000(3) -0.001(3) 0.027(4)
C8 0.043(4) 0.046(5) 0.066(5) 0.000(4) 0.005(4) 0.026(4)
C9 0.056(5) 0.040(4) 0.054(5) -0.006(4) 0.001(4) 0.026(4)
C10 0.042(4) 0.044(5) 0.070(5) -0.001(4) -0.014(4) 0.018(4)
C11 0.043(4) 0.053(5) 0.057(5) 0.012(4) 0.008(4) 0.023(4)
C12 0.072(6) 0.067(6) 0.090(7) 0.027(5) 0.017(5) 0.039(5)
C13 0.049(5) 0.059(6) 0.112(9) -0.007(6) -0.017(5) 0.014(5)
C14 0.055(5) 0.069(6) 0.041(5) 0.009(4) -0.002(4) 0.036(4)
Ag 0.0676(6) 0.1017(8) 0.0424(5) 0.0117(5) -0.0066(4) 0.0513(6)
Cu 0.0326(5) 0.0399(5) 0.0426(5) 0.0016(4) -0.0026(4) 0.0201(4)
N1 0.036(3) 0.039(3) 0.045(4) 0.003(3) -0.002(3) 0.021(3)
N2 0.044(5) 0.040(5) 0.153(9) 0.000(5) 0.023(5) 0.006(4)
N3 0.037(4) 0.047(4) 0.042(3) 0.002(3) 0.001(3) 0.024(3)
N4 0.067(5) 0.078(5) 0.051(4) 0.013(4) -0.003(4) 0.041(4)
N5 0.040(4) 0.036(4) 0.060(5) 0.002(3) -0.003(3) 0.020(3)
O 0.037(3) 0.047(3) 0.071(3) 0.001(2) -0.005(2) 0.022(2)
Cl 0.138(3) 0.071(2) 0.151(3) -0.025(2) -0.044(2) 0.062(2)
O1P 0.210(11) 0.113(7) 0.258(13) -0.078(8) -0.095(10) 0.085(7)
O2P 0.294(18) 0.274(17) 0.257(19) -0.138(16) -0.032(14) 0.155(15)
O3P 0.202(11) 0.126(8) 0.43(2) -0.082(10) -0.164(13) 0.109(8)
O5P 0.271(16) 0.118(9) 0.282(19) 0.055(11) -0.031(13) 0.039(9)
O1W1 0.35(7) 0.038(19) 0.31(6) 0.01(3) 0.08(5) 0.04(3)
O1W2 0.188(17) 0.091(12) 0.61(5) 0.11(2) 0.08(3) -0.011(11)
O2W 0.073(4) 0.083(5) 0.091(6) 0.023(4) 0.007(4) 0.047(4)

_geom_special_details            
;
All esds (except the esd in the dihedral angle between two l.s. planes)
are estimated using the full covariance matrix. The cell esds are taken
into account individually in the estimation of esds in distances, angles
and torsion angles; correlations between esds in cell parameters are only
used when they are defined by crystal symmetry. An approximate (isotropic)
treatment of cell esds is used for estimating esds involving l.s. planes.
;

loop_
_geom_bond_atom_site_label_1
_geom_bond_atom_site_label_2
_geom_bond_distance
_geom_bond_site_symmetry_2
_geom_bond_publ_flag
C1 O 1.316(8) . ?
C1 C2 1.409(10) . ?
C1 C6 1.424(9) . ?
C2 C3 1.399(11) . ?
C2 H2 0.9300 . ?
C3 C4 1.337(11) . ?
C3 H3 0.9300 . ?
C4 C5 1.391(11) . ?
C4 H4 0.9300 . ?
C5 C6 1.420(9) . ?
C5 H5 0.9300 . ?
C5A N5 1.126(11) 16 ?
C5A C5A 1.126(11) 16 ?
C5A Cu 2.000(6) . ?
C6 C7 1.398(9) . ?
C7 N3 1.288(8) . ?
C7 H7 0.9300 . ?
C8 N3 1.472(8) . ?
C8 C9 1.492(9) . ?
C8 H8A 0.9700 . ?
C8 H8B 0.9700 . ?
C9 N1 1.481(8) . ?
C9 H9A 0.9700 . ?
C9 H9B 0.9700 . ?
C10 N1 1.489(8) . ?
C10 C13 1.516(10) . ?
C10 H10A 0.9700 . ?
C10 H10B 0.9700 . ?
C11 N1 1.487(8) . ?
C11 C12 1.516(10) . ?
C11 H11A 0.9700 . ?
C11 H11B 0.9700 . ?
C12 N2 1.506(11) . ?
C12 H12A 0.9700 . ?
C12 H12B 0.9700 . ?
C13 N2 1.550(12) . ?
C13 H13A 0.9700 . ?
C13 H13B 0.9700 . ?
C14 N4 1.125(8) . ?
C14 Ag 2.043(8) . ?
Ag C14 2.043(8) 16_556 ?
Cu O 1.937(5) . ?
Cu N3 1.951(5) . ?
Cu N1 2.132(5) . ?
Cu N4 2.202(7) . ?
N2 H1X 0.91(2) . ?
N2 H2X 0.89(2) . ?
Cl O2P 1.312(12) . ?
Cl O3P 1.339(10) . ?
Cl O1P 1.347(9) . ?
Cl O5P 1.386(12) . ?
O1W1 O1W2 1.66(6) . ?
O2W H3W 0.89(2) . ?
O2W H4W 0.89(2) . ?

loop_
_geom_angle_atom_site_label_1
_geom_angle_atom_site_label_2
_geom_angle_atom_site_label_3
_geom_angle
_geom_angle_site_symmetry_1
_geom_angle_site_symmetry_3
_geom_angle_publ_flag
O C1 C2 118.0(7) . . ?
O C1 C6 123.7(6) . . ?
C2 C1 C6 118.3(7) . . ?
C3 C2 C1 119.7(8) . . ?
C3 C2 H2 120.1 . . ?
C1 C2 H2 120.1 . . ?
C4 C3 C2 122.3(8) . . ?
C4 C3 H3 118.8 . . ?
C2 C3 H3 118.8 . . ?
C3 C4 C5 120.2(8) . . ?
C3 C4 H4 119.9 . . ?
C5 C4 H4 119.9 . . ?
C4 C5 C6 120.2(8) . . ?
C4 C5 H5 119.9 . . ?
C6 C5 H5 119.9 . . ?
N5 C5A C5A 0.0(7) 16 16 ?
N5 C5A Cu 176.9(8) 16 . ?
C5A C5A Cu 176.9(8) 16 . ?
C7 C6 C5 117.3(7) . . ?
C7 C6 C1 123.5(6) . . ?
C5 C6 C1 119.2(7) . . ?
N3 C7 C6 127.4(7) . . ?
N3 C7 H7 116.3 . . ?
C6 C7 H7 116.3 . . ?
N3 C8 C9 108.7(5) . . ?
N3 C8 H8A 110.0 . . ?
C9 C8 H8A 110.0 . . ?
N3 C8 H8B 110.0 . . ?
C9 C8 H8B 110.0 . . ?
H8A C8 H8B 108.3 . . ?
N1 C9 C8 110.2(6) . . ?
N1 C9 H9A 109.6 . . ?
C8 C9 H9A 109.6 . . ?
N1 C9 H9B 109.6 . . ?
C8 C9 H9B 109.6 . . ?
H9A C9 H9B 108.1 . . ?
N1 C10 C13 114.3(6) . . ?
N1 C10 H10A 108.7 . . ?
C13 C10 H10A 108.7 . . ?
N1 C10 H10B 108.7 . . ?
C13 C10 H10B 108.7 . . ?
H10A C10 H10B 107.6 . . ?
N1 C11 C12 114.3(6) . . ?
N1 C11 H11A 108.7 . . ?
C12 C11 H11A 108.7 . . ?
N1 C11 H11B 108.7 . . ?
C12 C11 H11B 108.7 . . ?
H11A C11 H11B 107.6 . . ?
N2 C12 C11 107.9(6) . . ?
N2 C12 H12A 110.1 . . ?
C11 C12 H12A 110.1 . . ?
N2 C12 H12B 110.1 . . ?
C11 C12 H12B 110.1 . . ?
H12A C12 H12B 108.4 . . ?
C10 C13 N2 106.7(7) . . ?
C10 C13 H13A 110.4 . . ?
N2 C13 H13A 110.4 . . ?
C10 C13 H13B 110.4 . . ?
N2 C13 H13B 110.4 . . ?
H13A C13 H13B 108.6 . . ?
N4 C14 Ag 175.9(7) . . ?
C14 Ag C14 179.996(2) . 16_556 ?
O Cu N3 92.9(2) . . ?
O Cu C5A 90.6(2) . . ?
N3 Cu C5A 165.2(2) . . ?
O Cu N1 171.1(2) . . ?
N3 Cu N1 82.8(2) . . ?
C5A Cu N1 91.8(2) . . ?
O Cu N4 96.1(2) . . ?
N3 Cu N4 97.6(2) . . ?
C5A Cu N4 96.4(3) . . ?
N1 Cu N4 92.2(2) . . ?
C9 N1 C11 113.8(5) . . ?
C9 N1 C10 111.2(5) . . ?
C11 N1 C10 108.8(5) . . ?
C9 N1 Cu 102.8(4) . . ?
C11 N1 Cu 105.5(4) . . ?
C10 N1 Cu 114.8(4) . . ?
C12 N2 C13 111.6(7) . . ?
C12 N2 H1X 104(5) . . ?
C13 N2 H1X 112(5) . . ?
C12 N2 H2X 127(4) . . ?
C13 N2 H2X 96(4) . . ?
H1X N2 H2X 106(7) . . ?
C7 N3 C8 119.9(6) . . ?
C7 N3 Cu 124.9(5) . . ?
C8 N3 Cu 115.0(4) . . ?
C14 N4 Cu 159.4(6) . . ?
C1 O Cu 127.1(4) . . ?
O2P Cl O3P 113.0(10) . . ?
O2P Cl O1P 122.8(9) . . ?
O3P Cl O1P 113.6(6) . . ?
O2P Cl O5P 86.8(10) . . ?
O3P Cl O5P 110.5(10) . . ?
O1P Cl O5P 105.8(9) . . ?
H3W O2W H4W 109(8) . . ?

_diffrn_measured_fraction_theta_max 0.987
_diffrn_reflns_theta_full        25.30
_diffrn_measured_fraction_theta_full 0.987
_refine_diff_density_max         0.615
_refine_diff_density_min         -0.478
_refine_diff_density_rms         0.117
