####################################################################### 
# 
# This file contains crystal structure data downloaded from the 
# Cambridge Structural Database (CSD) hosted by the Cambridge 
# Crystallographic Data Centre (CCDC).
# 
# Full information about CCDC data access policies and citation 
# guidelines are available at http://www.ccdc.cam.ac.uk/access/V1 
# 
# Audit and citation data items may have been added by the CCDC. 
# Please retain this information to preserve the provenance of 
# this file and to allow appropriate attribution of the data. 
# 
#######################################################################

data_6
_audit_block_doi                 10.5517/ccx6p3w
_database_code_depnum_ccdc_archive 'CCDC 840568'
loop_
_citation_id
_citation_doi
_citation_year
1 10.1002/chem.201200137 2012
_audit_update_record             
;
2011-08-22 deposited with the CCDC.	2024-07-10 downloaded from the CCDC.
;
#TrackingRef '- lzj.cif'


_audit_creation_method           SHELXL-97
_chemical_name_systematic        
;
?
;
_chemical_name_common            ?
_chemical_melting_point          ?
_chemical_formula_moiety         ?
_chemical_formula_sum            'C37 H20 In2 N0 O20'
_chemical_formula_weight         1014.17

loop_
_atom_type_symbol
_atom_type_description
_atom_type_scat_dispersion_real
_atom_type_scat_dispersion_imag
_atom_type_scat_source
C C 0.0033 0.0016 'International Tables Vol C Tables 4.2.6.8 and 6.1.1.4'
H H 0.0000 0.0000 'International Tables Vol C Tables 4.2.6.8 and 6.1.1.4'
N N 0.0061 0.0033 'International Tables Vol C Tables 4.2.6.8 and 6.1.1.4'
O O 0.0106 0.0060 'International Tables Vol C Tables 4.2.6.8 and 6.1.1.4'
In In -0.7276 1.3100 'International Tables Vol C Tables 4.2.6.8 and 6.1.1.4'

_symmetry_cell_setting           tetragonal
_symmetry_space_group_name_H-M   I-4

loop_
_symmetry_equiv_pos_as_xyz
'x, y, z'
'y, -x, -z'
'-x, -y, z'
'-y, x, -z'
'x+1/2, y+1/2, z+1/2'
'y+1/2, -x+1/2, -z+1/2'
'-x+1/2, -y+1/2, z+1/2'
'-y+1/2, x+1/2, -z+1/2'

_cell_length_a                   22.0878(4)
_cell_length_b                   22.0878(4)
_cell_length_c                   16.5388(6)
_cell_angle_alpha                90.00
_cell_angle_beta                 90.00
_cell_angle_gamma                90.00
_cell_volume                     8068.8(4)
_cell_formula_units_Z            4
_cell_measurement_temperature    293(2)
_cell_measurement_reflns_used    12540
_cell_measurement_theta_min      2.4015
_cell_measurement_theta_max      27.4835

_exptl_crystal_description       block
_exptl_crystal_colour            colorless
_exptl_crystal_size_max          0.40
_exptl_crystal_size_mid          0.32
_exptl_crystal_size_min          0.25
_exptl_crystal_density_meas      ?
_exptl_crystal_density_diffrn    0.835
_exptl_crystal_density_method    'not measured'
_exptl_crystal_F_000             2000
_exptl_absorpt_coefficient_mu    0.612
_exptl_absorpt_correction_type   Multi-Scan
_exptl_absorpt_correction_T_min  0.7918
_exptl_absorpt_correction_T_max  0.8620
_exptl_absorpt_process_details   ?

_exptl_special_details           
;


The structure contains disordered solvents.
Because it was difficult to refine a xonsisten disordered model,
their contribution was subtracted from the observed structure factors
according to the BYPASS procedure, as implemented in PLATON.
van der Sluis, P., Spek, A. L. (1990). Acta Cryst. A46, 194-201.
Spek, A. L. (2003). J. Appl. Cryst. 36, 7-13.

(see more at the bottom of this .cif file)

;

_diffrn_ambient_temperature      293(2)
_diffrn_radiation_wavelength     0.71073
_diffrn_radiation_type           MoK\a
_diffrn_radiation_source         'fine-focus sealed tube'
_diffrn_radiation_monochromator  graphite
_diffrn_measurement_device_type  'Mercury2 (1x1 bin mode)'
_diffrn_measurement_method       CCD_Profile_fitting
_diffrn_detector_area_resol_mean 13.6612
_diffrn_standards_number         4792
_diffrn_standards_interval_count ?
_diffrn_standards_interval_time  ?
_diffrn_standards_decay_%        ?
_diffrn_reflns_number            31956
_diffrn_reflns_av_R_equivalents  0.0471
_diffrn_reflns_av_sigmaI/netI    0.0383
_diffrn_reflns_limit_h_min       -28
_diffrn_reflns_limit_h_max       28
_diffrn_reflns_limit_k_min       -28
_diffrn_reflns_limit_k_max       28
_diffrn_reflns_limit_l_min       -21
_diffrn_reflns_limit_l_max       19
_diffrn_reflns_theta_min         2.40
_diffrn_reflns_theta_max         27.48
_reflns_number_total             9244
_reflns_number_gt                8915
_reflns_threshold_expression     >2sigma(I)

_computing_data_collection       'CrystalClear (Rigaku Inc., 2007)'
_computing_cell_refinement       'CrystalClear (Rigaku Inc., 2007)'
_computing_data_reduction        'CrystalClear (Rigaku Inc., 2007)'
_computing_structure_solution    'SHELXS-97 (Sheldrick, 1990)'
_computing_structure_refinement  'SHELXL-97 (Sheldrick, 1997)'
_computing_molecular_graphics    ?
_computing_publication_material  ?

_refine_special_details          
;
Refinement of F^2^ against ALL reflections. The weighted R-factor wR and
goodness of fit S are based on F^2^, conventional R-factors R are based
on F, with F set to zero for negative F^2^. The threshold expression of
F^2^ > 2sigma(F^2^) is used only for calculating R-factors(gt) etc. and is
not relevant to the choice of reflections for refinement. R-factors based
on F^2^ are statistically about twice as large as those based on F, and R-
factors based on ALL data will be even larger.
;

_refine_ls_structure_factor_coef Fsqd
_refine_ls_matrix_type           full
_refine_ls_weighting_scheme      calc
_refine_ls_weighting_details     
'calc w=1/[\s^2^(Fo^2^)+(0.1815P)^2^+8.4290P] where P=(Fo^2^+2Fc^2^)/3'
_atom_sites_solution_primary     direct
_atom_sites_solution_secondary   difmap
_atom_sites_solution_hydrogens   geom
_refine_ls_hydrogen_treatment    constr
_refine_ls_extinction_method     none
_refine_ls_extinction_coef       ?
_refine_ls_abs_structure_details 'Flack H D (1983), Acta Cryst. A39, 876-881'
_refine_ls_abs_structure_Flack   0.36(5)
_refine_ls_number_reflns         9244
_refine_ls_number_parameters     267
_refine_ls_number_restraints     0
_refine_ls_R_factor_all          0.0867
_refine_ls_R_factor_gt           0.0848
_refine_ls_wR_factor_ref         0.2275
_refine_ls_wR_factor_gt          0.2226
_refine_ls_goodness_of_fit_ref   1.053
_refine_ls_restrained_S_all      1.053
_refine_ls_shift/su_max          0.019
_refine_ls_shift/su_mean         0.001

loop_
_atom_site_label
_atom_site_type_symbol
_atom_site_fract_x
_atom_site_fract_y
_atom_site_fract_z
_atom_site_U_iso_or_equiv
_atom_site_adp_type
_atom_site_occupancy
_atom_site_symmetry_multiplicity
_atom_site_calc_flag
_atom_site_refinement_flags
_atom_site_disorder_assembly
_atom_site_disorder_group
In1 In 0.292283(9) 0.689183(9) 0.101793(13) 0.04168(4) Uani 1 1 d . . .
C1 C 0.5000 0.5000 0.5000 0.0405(13) Uani 1 4 d S . .
C2 C 0.45785(14) 0.53434(14) 0.44455(18) 0.0399(7) Uani 1 1 d . . .
H2A H 0.4810 0.5616 0.4105 0.048 Uiso 1 1 calc R . .
H2B H 0.4363 0.5062 0.4099 0.048 Uiso 1 1 calc R . .
C3 C 0.37558(18) 0.60243(15) 0.45715(17) 0.0495(8) Uani 1 1 d . . .
C4 C 0.36762(14) 0.60625(16) 0.37418(17) 0.0447(7) Uani 1 1 d . . .
H4 H 0.3924 0.5837 0.3402 0.054 Uiso 1 1 calc R . .
C5 C 0.32120(19) 0.64501(16) 0.3394(2) 0.0525(9) Uani 1 1 d . . .
C6 C 0.29008(16) 0.6815(2) 0.3920(2) 0.0599(10) Uani 1 1 d . . .
H6 H 0.2624 0.7088 0.3706 0.072 Uiso 1 1 calc R . .
C7 C 0.29770(11) 0.68002(12) 0.4796(2) 0.0462(8) Uani 1 1 d . . .
C8 C 0.34348(19) 0.64197(18) 0.5086(2) 0.0564(9) Uani 1 1 d . . .
H8 H 0.3530 0.6428 0.5634 0.068 Uiso 1 1 calc R . .
C9 C 0.31407(16) 0.65059(14) 0.2533(2) 0.0508(8) Uani 1 1 d . . .
C10 C 0.26453(13) 0.72549(15) 0.52241(19) 0.0440(7) Uani 1 1 d . . .
C11 C 0.0000 0.5000 -0.2500 0.0402(14) Uani 1 4 d S . .
C12 C 0.05320(15) 0.47432(16) -0.2031(3) 0.0518(9) Uani 1 1 d . . .
H12A H 0.0411 0.4378 -0.1746 0.062 Uiso 1 1 calc R . .
H12B H 0.0860 0.4643 -0.2396 0.062 Uiso 1 1 calc R . .
C13 C 0.13080(13) 0.51134(16) -0.1061(2) 0.0485(7) Uani 1 1 d . . .
C14 C 0.16377(15) 0.45532(14) -0.1180(2) 0.0462(8) Uani 1 1 d . . .
H14 H 0.1477 0.4239 -0.1486 0.055 Uiso 1 1 calc R . .
C15 C 0.21841(14) 0.45070(16) -0.0831(2) 0.0498(9) Uani 1 1 d . . .
C16 C 0.2423(2) 0.49806(15) -0.0339(3) 0.0576(10) Uani 1 1 d . . .
H16 H 0.2797 0.4935 -0.0088 0.069 Uiso 1 1 calc R . .
C17 C 0.20850(14) 0.55215(13) -0.02341(18) 0.0403(6) Uani 1 1 d . . .
C18 C 0.15104(18) 0.55850(16) -0.0564(3) 0.0618(9) Uani 1 1 d . . .
H18 H 0.1272 0.5923 -0.0461 0.074 Uiso 1 1 calc R . .
C19 C 0.25632(16) 0.39736(19) -0.0962(3) 0.0530(9) Uani 1 1 d . . .
C20 C 0.2356(3) 0.6018(2) 0.0319(4) 0.0892(15) Uani 1 1 d . . .
O1 O 0.41579(13) 0.56799(14) 0.49203(12) 0.0555(7) Uani 1 1 d . . .
O2 O 0.27932(12) 0.73179(11) 0.59827(18) 0.0583(6) Uani 1 1 d . . .
O3 O 0.22642(16) 0.75820(12) 0.48951(15) 0.0583(8) Uani 1 1 d . . .
O4 O 0.26731(10) 0.67902(13) 0.22807(14) 0.0497(6) Uani 1 1 d . . .
O5 O 0.35308(17) 0.62549(15) 0.20489(18) 0.0703(9) Uani 1 1 d . . .
O6 O 0.07280(17) 0.52070(13) -0.1453(2) 0.0651(9) Uani 1 1 d . . .
O7 O 0.23793(10) 0.35591(11) -0.13908(16) 0.0559(6) Uani 1 1 d . . .
O8 O 0.30365(11) 0.39002(11) -0.05525(17) 0.0514(6) Uani 1 1 d . . .
O9 O 0.28920(13) 0.60383(11) 0.03709(15) 0.0592(6) Uani 1 1 d . . .
O10 O 0.19692(16) 0.63827(11) 0.05941(16) 0.0629(8) Uani 1 1 d . . .

loop_
_atom_site_aniso_label
_atom_site_aniso_U_11
_atom_site_aniso_U_22
_atom_site_aniso_U_33
_atom_site_aniso_U_23
_atom_site_aniso_U_13
_atom_site_aniso_U_12
In1 0.04020(8) 0.03992(8) 0.04493(8) -0.00556(8) -0.00645(8) -0.00042(8)
C1 0.0448(17) 0.0448(17) 0.032(2) 0.000 0.000 0.000
C2 0.0414(13) 0.0418(13) 0.0364(12) 0.0029(11) 0.0014(11) 0.0132(11)
C3 0.0752(18) 0.0482(14) 0.0251(10) -0.0098(10) 0.0140(12) 0.0239(14)
C4 0.0472(13) 0.0586(16) 0.0282(11) 0.0015(11) -0.0022(10) 0.0233(12)
C5 0.071(2) 0.0434(14) 0.0436(14) -0.0119(12) 0.0154(14) 0.0061(15)
C6 0.0432(15) 0.074(2) 0.0628(18) -0.0051(19) -0.0056(17) -0.0017(17)
C7 0.0157(9) 0.0301(11) 0.093(2) 0.0089(13) -0.0062(12) 0.0004(9)
C8 0.0689(19) 0.0624(17) 0.0380(14) -0.0152(14) -0.0060(15) -0.0211(16)
C9 0.0509(15) 0.0376(12) 0.0639(16) 0.0183(12) -0.0226(13) -0.0024(12)
C10 0.0368(11) 0.0471(13) 0.0480(13) -0.0111(11) 0.0251(10) 0.0088(11)
C11 0.0264(12) 0.0264(12) 0.068(4) 0.000 0.000 0.000
C12 0.0383(13) 0.0443(14) 0.073(2) -0.0041(15) -0.0108(14) -0.0087(12)
C13 0.0352(11) 0.0549(15) 0.0553(15) -0.0190(14) -0.0135(13) -0.0013(11)
C14 0.0464(14) 0.0361(12) 0.0562(18) 0.0038(12) -0.0111(13) -0.0038(12)
C15 0.0277(11) 0.0484(15) 0.073(2) -0.0118(14) -0.0039(13) 0.0047(11)
C16 0.078(2) 0.0315(13) 0.0635(19) -0.0008(14) -0.0238(17) -0.0010(14)
C17 0.0420(12) 0.0370(11) 0.0421(13) -0.0098(10) -0.0141(11) -0.0126(11)
C18 0.0675(17) 0.0523(14) 0.0655(19) 0.0248(14) 0.0234(15) 0.0373(13)
C19 0.0452(14) 0.0620(18) 0.0519(17) -0.0004(17) -0.0033(15) -0.0010(14)
C20 0.100(3) 0.072(2) 0.096(3) -0.0479(18) -0.018(3) -0.020(2)
O1 0.0609(12) 0.0870(16) 0.0186(7) -0.0201(9) -0.0057(8) 0.0209(12)
O2 0.0644(13) 0.0484(10) 0.0619(12) -0.0265(10) 0.0178(12) 0.0137(10)
O3 0.0911(19) 0.0454(11) 0.0383(11) 0.0111(9) 0.0046(12) 0.0143(12)
O4 0.0397(9) 0.0663(14) 0.0430(10) 0.0138(10) -0.0153(8) -0.0009(10)
O5 0.0898(18) 0.0754(16) 0.0456(13) -0.0048(13) 0.0035(14) 0.0357(15)
O6 0.0760(18) 0.0471(13) 0.0723(17) -0.0119(13) -0.0093(15) -0.0066(13)
O7 0.0532(10) 0.0459(10) 0.0687(12) 0.0181(9) -0.0365(9) 0.0204(8)
O8 0.0453(11) 0.0413(10) 0.0677(14) 0.0184(10) -0.0114(11) 0.0016(9)
O9 0.0792(13) 0.0414(10) 0.0571(10) -0.0211(8) -0.0478(9) 0.0054(10)
O10 0.0860(18) 0.0500(11) 0.0526(12) -0.0322(9) 0.0012(13) -0.0178(12)

_geom_special_details            
;
All esds (except the esd in the dihedral angle between two l.s. planes)
are estimated using the full covariance matrix. The cell esds are taken
into account individually in the estimation of esds in distances, angles
and torsion angles; correlations between esds in cell parameters are only
used when they are defined by crystal symmetry. An approximate (isotropic)
treatment of cell esds is used for estimating esds involving l.s. planes.
;

loop_
_geom_bond_atom_site_label_1
_geom_bond_atom_site_label_2
_geom_bond_distance
_geom_bond_site_symmetry_2
_geom_bond_publ_flag
In1 O9 2.169(2) . ?
In1 O4 2.172(2) . ?
In1 O7 2.224(2) 2_565 ?
In1 O3 2.229(3) 7_564 ?
In1 O8 2.297(3) 2_565 ?
In1 O2 2.356(2) 7_564 ?
In1 O10 2.489(3) . ?
In1 C20 2.575(5) . ?
In1 O5 2.587(3) . ?
In1 C19 2.616(4) 2_565 ?
In1 C10 2.617(3) 7_564 ?
In1 C9 2.690(4) . ?
C1 C2 1.511(3) 4_656 ?
C1 C2 1.511(3) 2_566 ?
C1 C2 1.511(3) . ?
C1 C2 1.511(3) 3_665 ?
C2 O1 1.426(4) . ?
C3 O1 1.304(4) . ?
C3 C4 1.386(4) . ?
C3 C8 1.411(5) . ?
C4 C5 1.454(5) . ?
C5 C6 1.371(5) . ?
C5 C9 1.438(5) . ?
C6 C7 1.459(6) . ?
C7 C8 1.399(5) . ?
C7 C10 1.430(4) . ?
C9 O4 1.279(4) . ?
C9 O5 1.301(5) . ?
C10 O3 1.235(4) . ?
C10 O2 1.304(4) . ?
C10 In1 2.617(3) 7_565 ?
C11 C12 1.518(4) . ?
C11 C12 1.518(4) 6_454 ?
C11 C12 1.518(4) 8_554 ?
C11 C12 1.518(4) 3_565 ?
C12 O6 1.466(5) . ?
C13 C18 1.400(5) . ?
C13 C14 1.449(5) . ?
C13 O6 1.450(5) . ?
C14 C15 1.342(5) . ?
C15 C16 1.427(5) . ?
C15 C19 1.462(5) . ?
C16 C17 1.419(5) . ?
C17 C18 1.389(5) . ?
C17 C20 1.548(6) . ?
C19 O7 1.227(5) . ?
C19 O8 1.256(5) . ?
C19 In1 2.616(4) 4_655 ?
C20 O9 1.187(7) . ?
C20 O10 1.260(7) . ?
O2 In1 2.356(2) 7_565 ?
O3 In1 2.229(3) 7_565 ?
O7 In1 2.224(2) 4_655 ?
O8 In1 2.297(3) 4_655 ?

loop_
_geom_angle_atom_site_label_1
_geom_angle_atom_site_label_2
_geom_angle_atom_site_label_3
_geom_angle
_geom_angle_site_symmetry_1
_geom_angle_site_symmetry_3
_geom_angle_publ_flag
O9 In1 O4 112.13(10) . . ?
O9 In1 O7 141.79(10) . 2_565 ?
O4 In1 O7 88.21(10) . 2_565 ?
O9 In1 O3 92.09(9) . 7_564 ?
O4 In1 O3 143.89(10) . 7_564 ?
O7 In1 O3 88.32(10) 2_565 7_564 ?
O9 In1 O8 85.65(10) . 2_565 ?
O4 In1 O8 124.61(9) . 2_565 ?
O7 In1 O8 56.58(9) 2_565 2_565 ?
O3 In1 O8 81.90(11) 7_564 2_565 ?
O9 In1 O2 127.64(10) . 7_564 ?
O4 In1 O2 85.98(10) . 7_564 ?
O7 In1 O2 83.96(9) 2_565 7_564 ?
O3 In1 O2 57.91(11) 7_564 7_564 ?
O8 In1 O2 124.85(9) 2_565 7_564 ?
O9 In1 O10 56.06(10) . . ?
O4 In1 O10 90.53(9) . . ?
O7 In1 O10 160.05(9) 2_565 . ?
O3 In1 O10 81.03(11) 7_564 . ?
O8 In1 O10 137.07(9) 2_565 . ?
O2 In1 O10 76.09(9) 7_564 . ?
O9 In1 C20 27.31(16) . . ?
O4 In1 C20 103.34(16) . . ?
O7 In1 C20 166.98(16) 2_565 . ?
O3 In1 C20 85.81(15) 7_564 . ?
O8 In1 C20 110.97(16) 2_565 . ?
O2 In1 C20 102.60(15) 7_564 . ?
O10 In1 C20 28.76(16) . . ?
O9 In1 O5 82.46(10) . . ?
O4 In1 O5 56.06(10) . . ?
O7 In1 O5 83.27(10) 2_565 . ?
O3 In1 O5 158.27(12) 7_564 . ?
O8 In1 O5 76.73(10) 2_565 . ?
O2 In1 O5 140.16(10) 7_564 . ?
O10 In1 O5 112.29(10) . . ?
C20 In1 O5 98.07(15) . . ?
O9 In1 C19 114.23(11) . 2_565 ?
O4 In1 C19 107.87(11) . 2_565 ?
O7 In1 C19 27.89(11) 2_565 2_565 ?
O3 In1 C19 83.98(13) 7_564 2_565 ?
O8 In1 C19 28.70(11) 2_565 2_565 ?
O2 In1 C19 104.70(10) 7_564 2_565 ?
O10 In1 C19 161.61(11) . 2_565 ?
C20 In1 C19 139.49(17) . 2_565 ?
O5 In1 C19 79.21(12) . 2_565 ?
O9 In1 C10 111.31(10) . 7_564 ?
O4 In1 C10 115.79(10) . 7_564 ?
O7 In1 C10 85.46(9) 2_565 7_564 ?
O3 In1 C10 28.10(10) 7_564 7_564 ?
O8 In1 C10 103.47(9) 2_565 7_564 ?
O2 In1 C10 29.81(10) 7_564 7_564 ?
O10 In1 C10 77.19(9) . 7_564 ?
C20 In1 C10 94.69(15) . 7_564 ?
O5 In1 C10 166.24(10) . 7_564 ?
C19 In1 C10 94.38(11) 2_565 7_564 ?
O9 In1 C9 100.94(10) . . ?
O4 In1 C9 27.99(10) . . ?
O7 In1 C9 81.84(10) 2_565 . ?
O3 In1 C9 166.96(10) 7_564 . ?
O8 In1 C9 99.55(10) 2_565 . ?
O2 In1 C9 112.20(11) 7_564 . ?
O10 In1 C9 105.70(10) . . ?
C20 In1 C9 105.51(15) . . ?
O5 In1 C9 28.45(10) . . ?
C19 In1 C9 91.14(12) 2_565 . ?
C10 In1 C9 141.37(10) 7_564 . ?
C2 C1 C2 105.3(2) 4_656 2_566 ?
C2 C1 C2 111.62(12) 4_656 . ?
C2 C1 C2 111.62(12) 2_566 . ?
C2 C1 C2 111.62(12) 4_656 3_665 ?
C2 C1 C2 111.62(12) 2_566 3_665 ?
C2 C1 C2 105.3(2) . 3_665 ?
O1 C2 C1 109.2(2) . . ?
O1 C3 C4 124.1(3) . . ?
O1 C3 C8 115.9(3) . . ?
C4 C3 C8 119.7(3) . . ?
C3 C4 C5 121.1(3) . . ?
C6 C5 C9 121.6(4) . . ?
C6 C5 C4 116.7(3) . . ?
C9 C5 C4 121.3(3) . . ?
C5 C6 C7 124.0(3) . . ?
C8 C7 C10 128.5(3) . . ?
C8 C7 C6 115.9(3) . . ?
C10 C7 C6 114.6(3) . . ?
C7 C8 C3 121.9(3) . . ?
O4 C9 O5 122.9(3) . . ?
O4 C9 C5 117.0(3) . . ?
O5 C9 C5 120.0(3) . . ?
O4 C9 In1 52.84(17) . . ?
O5 C9 In1 71.3(2) . . ?
C5 C9 In1 165.7(2) . . ?
O3 C10 O2 122.1(3) . . ?
O3 C10 C7 122.8(3) . . ?
O2 C10 C7 115.0(3) . . ?
O3 C10 In1 58.21(17) . 7_565 ?
O2 C10 In1 63.93(16) . 7_565 ?
C7 C10 In1 177.8(2) . 7_565 ?
C12 C11 C12 105.16(15) . 6_454 ?
C12 C11 C12 105.16(15) . 8_554 ?
C12 C11 C12 118.5(3) 6_454 8_554 ?
C12 C11 C12 118.5(3) . 3_565 ?
C12 C11 C12 105.16(15) 6_454 3_565 ?
C12 C11 C12 105.16(15) 8_554 3_565 ?
O6 C12 C11 107.5(3) . . ?
C18 C13 C14 123.7(3) . . ?
C18 C13 O6 116.0(3) . . ?
C14 C13 O6 120.3(3) . . ?
C15 C14 C13 117.3(3) . . ?
C14 C15 C16 121.5(3) . . ?
C14 C15 C19 120.8(3) . . ?
C16 C15 C19 117.7(3) . . ?
C17 C16 C15 119.5(4) . . ?
C18 C17 C16 121.2(3) . . ?
C18 C17 C20 121.0(3) . . ?
C16 C17 C20 117.7(3) . . ?
C17 C18 C13 116.6(3) . . ?
O7 C19 O8 119.4(4) . . ?
O7 C19 C15 119.8(3) . . ?
O8 C19 C15 120.