####################################################################### 
# 
# This file contains crystal structure data downloaded from the 
# Cambridge Structural Database (CSD) hosted by the Cambridge 
# Crystallographic Data Centre (CCDC).
# 
# Full information about CCDC data access policies and citation 
# guidelines are available at http://www.ccdc.cam.ac.uk/access/V1 
# 
# Audit and citation data items may have been added by the CCDC. 
# Please retain this information to preserve the provenance of 
# this file and to allow appropriate attribution of the data. 
# 
#######################################################################

data_DMOF-2
_audit_block_doi                 10.5517/ccxphmp
_database_code_depnum_ccdc_archive 'CCDC 854813'
loop_
_citation_id
_citation_doi
_citation_year
1 10.1002/chem.201200696 2012
_audit_update_record             
;
2011-11-21 deposited with the CCDC.	2024-07-10 downloaded from the CCDC.
;
#TrackingRef 'DATA.cif'


_audit_creation_method           SHELXL-97
_chemical_name_systematic        
;
?
;
_chemical_name_common            ?
_chemical_melting_point          ?
_chemical_formula_moiety         ?
_chemical_formula_sum            'C81 H74 N18 O13 Zn5'
_chemical_formula_weight         1834.43

loop_
_atom_type_symbol
_atom_type_description
_atom_type_scat_dispersion_real
_atom_type_scat_dispersion_imag
_atom_type_scat_source
C C 0.0033 0.0016 'International Tables Vol C Tables 4.2.6.8 and 6.1.1.4'
H H 0.0000 0.0000 'International Tables Vol C Tables 4.2.6.8 and 6.1.1.4'
N N 0.0061 0.0033 'International Tables Vol C Tables 4.2.6.8 and 6.1.1.4'
O O 0.0106 0.0060 'International Tables Vol C Tables 4.2.6.8 and 6.1.1.4'
Zn Zn 0.2839 1.4301 'International Tables Vol C Tables 4.2.6.8 and 6.1.1.4'

_symmetry_cell_setting           monoclinic
_symmetry_space_group_name_H-M   C2/c
_symmetry_space_group_name_Hall  '-c 2yc'


loop_
_symmetry_equiv_pos_as_xyz
'x, y, z'
'-x, y, -z+1/2'
'x+1/2, y+1/2, z'
'-x+1/2, y+1/2, -z+1/2'
'-x, -y, -z'
'x, -y, z-1/2'
'-x+1/2, -y+1/2, -z'
'x+1/2, -y+1/2, z-1/2'

_cell_length_a                   42.994(5)
_cell_length_b                   20.373(2)
_cell_length_c                   42.045(5)
_cell_angle_alpha                90.00
_cell_angle_beta                 118.529(2)
_cell_angle_gamma                90.00
_cell_volume                     32356(6)
_cell_formula_units_Z            8
_cell_measurement_temperature    293(2)
_cell_measurement_reflns_used    ?
_cell_measurement_theta_min      1.37
_cell_measurement_theta_max      25.06

_exptl_crystal_description       block
_exptl_crystal_colour            colorless
_exptl_crystal_size_max          0.33
_exptl_crystal_size_mid          0.31
_exptl_crystal_size_min          0.29
_exptl_crystal_density_meas      ?
_exptl_crystal_density_diffrn    0.753
_exptl_crystal_density_method    'not measured'
_exptl_crystal_F_000             7520
_exptl_absorpt_coefficient_mu    0.768
_exptl_absorpt_correction_type   multi-scan
_exptl_absorpt_correction_T_min  0.776
_exptl_absorpt_correction_T_max  0.800
_exptl_absorpt_process_details   'SADABS (Sheldrick, 1996)'

_exptl_special_details           
;
?
;

_diffrn_ambient_temperature      293(2)
_diffrn_radiation_wavelength     0.71069
_diffrn_radiation_type           MoK\a
_diffrn_radiation_source         'fine-focus sealed tube'
_diffrn_radiation_monochromator  graphite
_diffrn_measurement_device_type  'Bruker APEX CCD area-detector'
_diffrn_measurement_method       '\w scans'
_diffrn_detector_area_resol_mean ?
_diffrn_standards_number         0
_diffrn_standards_interval_count 0
_diffrn_standards_interval_time  0
_diffrn_standards_decay_%        0
_diffrn_reflns_number            77457
_diffrn_reflns_av_R_equivalents  0.0664
_diffrn_reflns_av_sigmaI/netI    0.1224
_diffrn_reflns_limit_h_min       -50
_diffrn_reflns_limit_h_max       51
_diffrn_reflns_limit_k_min       -23
_diffrn_reflns_limit_k_max       23
_diffrn_reflns_limit_l_min       -45
_diffrn_reflns_limit_l_max       49
_diffrn_reflns_theta_min         1.37
_diffrn_reflns_theta_max         25.06
_reflns_number_total             27454
_reflns_number_gt                10083
_reflns_threshold_expression     >2sigma(I)

_computing_data_collection       'SMART (Bruker, 1997)'
_computing_cell_refinement       SMART
_computing_data_reduction        'SAINT (Bruker, 1999)'
_computing_structure_solution    'SHELXS-97(Sheldrick, 2008)'
_computing_structure_refinement  'SHELXL-97 (Sheldrick, 2008)'
_computing_molecular_graphics    'Diamond (Brandenburg and Putz, 2008)'
_computing_publication_material  SHELXL-97

_refine_special_details          
;
Refinement of F^2^ against ALL reflections. The weighted R-factor wR and
goodness of fit S are based on F^2^, conventional R-factors R are based
on F, with F set to zero for negative F^2^. The threshold expression of
F^2^ > 2sigma(F^2^) is used only for calculating R-factors(gt) etc. and is
not relevant to the choice of reflections for refinement. R-factors based
on F^2^ are statistically about twice as large as those based on F, and R-
factors based on ALL data will be even larger.
;

_refine_ls_structure_factor_coef Fsqd
_refine_ls_matrix_type           full
_refine_ls_weighting_scheme      calc
_refine_ls_weighting_details     
'calc w=1/[\s^2^(Fo^2^)+(0.0000P)^2^+0.0000P] where P=(Fo^2^+2Fc^2^)/3'
_atom_sites_solution_primary     direct
_atom_sites_solution_secondary   difmap
_atom_sites_solution_hydrogens   geom
_refine_ls_hydrogen_treatment    CONSTR
_refine_ls_extinction_method     none
_refine_ls_extinction_coef       ?
_refine_ls_number_reflns         27454
_refine_ls_number_parameters     1049
_refine_ls_number_restraints     30
_refine_ls_R_factor_all          0.1211
_refine_ls_R_factor_gt           0.0497
_refine_ls_wR_factor_ref         0.0931
_refine_ls_wR_factor_gt          0.0888
_refine_ls_goodness_of_fit_ref   1.107
_refine_ls_restrained_S_all      1.129
_refine_ls_shift/su_max          0.005
_refine_ls_shift/su_mean         0.000

loop_
_atom_site_label
_atom_site_type_symbol
_atom_site_fract_x
_atom_site_fract_y
_atom_site_fract_z
_atom_site_U_iso_or_equiv
_atom_site_adp_type
_atom_site_occupancy
_atom_site_symmetry_multiplicity
_atom_site_calc_flag
_atom_site_refinement_flags
_atom_site_disorder_assembly
_atom_site_disorder_group
Zn1 Zn 0.647811(13) 0.16353(2) 0.139718(13) 0.07301(17) Uani 1 1 d . . .
Zn2 Zn 0.701181(11) 0.01762(2) 0.157348(12) 0.06469(15) Uani 1 1 d . . .
Zn3 Zn 0.645783(13) -0.12673(3) 0.133772(13) 0.07840(18) Uani 1 1 d . . .
Zn4 Zn 0.763771(12) 0.00626(2) 0.252221(13) 0.08428(18) Uani 1 1 d . . .
Zn5 Zn 0.746857(15) 0.02297(3) 0.103043(18) 0.1117(2) Uani 1 1 d . . .
C51 C 0.83756(13) 0.0458(3) 0.37493(16) 0.123(2) Uani 1 1 d . . .
H01 H 0.8231 0.0805 0.3617 0.148 Uiso 1 1 calc R . .
C30 C 0.68416(14) -0.2233(3) 0.22137(17) 0.0979(17) Uani 1 1 d . . .
H02 H 0.6655 -0.2446 0.2021 0.117 Uiso 1 1 calc R . .
C76 C 0.83329(15) 0.0919(3) 0.06721(15) 0.131(2) Uani 1 1 d . . .
H03 H 0.8225 0.1298 0.0696 0.157 Uiso 1 1 calc R . .
C58 C 0.57228(14) -0.2699(3) 0.09969(15) 0.0933(17) Uani 1 1 d . . .
C73 C 0.56662(13) 0.3390(3) 0.12738(14) 0.1100(18) Uani 1 1 d . . .
H08 H 0.5818 0.3333 0.1520 0.132 Uiso 1 1 calc R . .
C80 C 0.83830(14) -0.0266(3) 0.07000(15) 0.130(2) Uani 1 1 d . . .
H10 H 0.8308 -0.0672 0.0738 0.156 Uiso 1 1 calc R . .
C7 C 0.76082(13) 0.2535(2) 0.33422(12) 0.1256(19) Uani 1 1 d . . .
H01A H 0.7767 0.2207 0.3501 0.188 Uiso 1 1 calc R . .
H01B H 0.7444 0.2660 0.3425 0.188 Uiso 1 1 calc R . .
H01C H 0.7741 0.2913 0.3342 0.188 Uiso 1 1 calc R . .
C77 C 0.85892(14) 0.0972(3) 0.05722(13) 0.1115(19) Uani 1 1 d . . .
H11 H 0.8658 0.1378 0.0527 0.134 Uiso 1 1 calc R . .
C20 C 0.6790(2) -0.2388(4) 0.0472(2) 0.156(3) Uani 1 1 d . . .
C38 C 0.55900(18) -0.0522(3) 0.10999(19) 0.185(3) Uani 1 1 d . . .
H012 H 0.5590 -0.0978 0.1094 0.222 Uiso 1 1 calc R . .
C39 C 0.49404(17) -0.0525(4) 0.0924(2) 0.295(4) Uani 1 1 d U . .
H01D H 0.4753 -0.0212 0.0857 0.442 Uiso 1 1 calc R . .
H01E H 0.4965 -0.0776 0.1128 0.442 Uiso 1 1 calc R . .
H01F H 0.4886 -0.0814 0.0724 0.442 Uiso 1 1 calc R . .
C79 C 0.86453(13) -0.0231(3) 0.06045(13) 0.1095(17) Uani 1 1 d . . .
H014 H 0.8755 -0.0608 0.0582 0.131 Uiso 1 1 calc R . .
C34 C 0.59082(15) 0.0542(4) 0.12036(15) 0.1105(19) Uani 1 1 d . . .
C24 C 0.6653(2) -0.3053(3) 0.02668(18) 0.220(4) Uani 1 1 d . . .
H18A H 0.6481 -0.3238 0.0325 0.330 Uiso 1 1 calc R . .
H18B H 0.6848 -0.3352 0.0339 0.330 Uiso 1 1 calc R . .
H18C H 0.6546 -0.2978 0.0011 0.330 Uiso 1 1 calc R . .
C35 C 0.56083(18) 0.0932(3) 0.11280(18) 0.166(3) Uani 1 1 d . . .
H26 H 0.5613 0.1389 0.1128 0.199 Uiso 1 1 calc R . .
C60 C 0.51699(13) -0.3214(3) 0.08783(16) 0.124(2) Uani 1 1 d . . .
H28 H 0.4974 -0.3243 0.0916 0.149 Uiso 1 1 calc R . .
C71 C 0.51697(11) 0.3936(2) 0.07802(13) 0.0690(13) Uani 1 1 d . . .
C61 C 0.52031(13) -0.3640(2) 0.06286(12) 0.0798(14) Uani 1 1 d . . .
C22 C 0.68214(15) -0.1482(3) 0.08611(15) 0.0876(16) Uani 1 1 d . . .
C66 C 0.47018(10) -0.54407(19) 0.03170(10) 0.0703(13) Uani 1 1 d . . .
H34A H 0.4555 -0.5813 0.0187 0.084 Uiso 1 1 calc R . .
H34B H 0.4850 -0.5326 0.0210 0.084 Uiso 1 1 calc R . .
C6 C 0.74825(12) 0.1658(3) 0.28665(14) 0.0858(15) Uani 1 1 d . . .
H36 H 0.7665 0.1407 0.3041 0.103 Uiso 1 1 calc R . .
C55 C 0.86015(12) -0.0615(2) 0.37729(12) 0.0806(14) Uani 1 1 d . . .
H38 H 0.8603 -0.0999 0.3655 0.097 Uiso 1 1 calc R . .
C65 C 0.44680(9) -0.4846(2) 0.03046(9) 0.0547(10) Uani 1 1 d . . .
C68 C 0.57088(12) 0.3012(2) 0.10192(17) 0.0825(16) Uani 1 1 d . . .
C33 C 0.58961(14) -0.0124(4) 0.11871(15) 0.1191(19) Uani 1 1 d . . .
C70 C 0.52183(11) 0.3578(2) 0.05309(13) 0.0759(14) Uani 1 1 d . . .
H49 H 0.5072 0.3646 0.0285 0.091 Uiso 1 1 calc R . .
C54 C 0.88284(11) -0.0559(2) 0.41360(13) 0.0775(13) Uani 1 1 d . . .
H53 H 0.8980 -0.0905 0.4258 0.093 Uiso 1 1 calc R . .
C81 C 0.92094(10) -0.00760(19) 0.04340(10) 0.0691(12) Uani 1 1 d . . .
H55A H 0.9053 -0.0411 0.0273 0.083 Uiso 1 1 calc R . .
H55B H 0.9338 -0.0260 0.0676 0.083 Uiso 1 1 calc R . .
C78 C 0.87447(12) 0.0397(3) 0.05406(12) 0.0837(15) Uani 1 1 d . . .
C64 C 0.46903(10) -0.42658(19) 0.05375(10) 0.0706(12) Uani 1 1 d . . .
H65A H 0.4541 -0.3884 0.0496 0.085 Uiso 1 1 calc R . .
H65B H 0.4798 -0.4379 0.0792 0.085 Uiso 1 1 calc R . .
C21 C 0.66798(15) -0.2108(3) 0.06937(15) 0.113(2) Uani 1 1 d . . .
H66 H 0.6512 -0.2320 0.0738 0.136 Uiso 1 1 calc R . .
C5 C 0.74014(14) 0.2253(3) 0.29513(14) 0.0853(15) Uani 1 1 d . . .
C53 C 0.88356(11) 0.0004(2) 0.43242(12) 0.0744(13) Uani 1 1 d . . .
C18 C 0.71836(16) -0.1420(3) 0.05540(18) 0.145(2) Uani 1 1 d . . .
H70 H 0.7338 -0.1201 0.0493 0.174 Uiso 1 1 calc R . .
C2 C 0.70116(12) 0.1829(3) 0.22496(13) 0.0643(12) Uani 1 1 d . . .
C8 C 0.70122(13) 0.3342(2) 0.27737(13) 0.132(2) Uani 1 1 d . . .
H78A H 0.6838 0.3544 0.2554 0.197 Uiso 1 1 calc R . .
H78B H 0.7217 0.3621 0.2886 0.197 Uiso 1 1 calc R . .
H78C H 0.6916 0.3281 0.2936 0.197 Uiso 1 1 calc R . .
C72 C 0.53962(13) 0.3851(2) 0.11571(13) 0.1056(17) Uani 1 1 d . . .
H79 H 0.5364 0.4102 0.1324 0.127 Uiso 1 1 calc R . .
C27 C 0.74154(12) -0.1570(3) 0.27974(14) 0.0906(16) Uani 1 1 d . . .
H80 H 0.7604 -0.1360 0.2990 0.109 Uiso 1 1 calc R . .
C1 C 0.72848(12) 0.1427(2) 0.25089(14) 0.0667(13) Uani 1 1 d . . .
C3 C 0.69253(12) 0.2450(2) 0.23332(15) 0.0801(14) Uani 1 1 d . . .
H82 H 0.6745 0.2703 0.2158 0.096 Uiso 1 1 calc R . .
C49 C 0.81228(14) -0.0140(3) 0.31719(14) 0.1031(18) Uani 1 1 d . . .
C52 C 0.86047(13) 0.0535(2) 0.41379(14) 0.1111(18) Uani 1 1 d . . .
H86 H 0.8600 0.0914 0.4259 0.133 Uiso 1 1 calc R . .
C69 C 0.54885(14) 0.3110(2) 0.06498(15) 0.0873(15) Uani 1 1 d . . .
H87 H 0.5522 0.2864 0.0482 0.105 Uiso 1 1 calc R . .
C50 C 0.83683(12) -0.0116(3) 0.35743(13) 0.0876(15) Uani 1 1 d . . .
C25 C 0.69567(14) -0.1614(3) 0.21703(14) 0.0711(13) Uani 1 1 d . . .
C26 C 0.72394(13) -0.1280(3) 0.24512(15) 0.0671(13) Uani 1 1 d . . .
C47 C 0.90303(16) -0.0309(4) 0.1962(2) 0.321(5) Uani 1 1 d U . .
H09D H 0.8981 -0.0191 0.1722 0.481 Uiso 1 1 calc R . .
H09E H 0.9079 -0.0771 0.1998 0.481 Uiso 1 1 calc R . .
H09F H 0.9232 -0.0067 0.2135 0.481 Uiso 1 1 calc R . .
C48 C 0.91250(15) -0.0463(4) 0.27488(19) 0.258(4) Uani 1 1 d U . .
H09A H 0.9089 -0.0506 0.2957 0.388 Uiso 1 1 calc R . .
H09B H 0.9309 -0.0148 0.2799 0.388 Uiso 1 1 calc R . .
H09C H 0.9192 -0.0880 0.2694 0.388 Uiso 1 1 calc R . .
C4 C 0.71199(16) 0.2665(2) 0.26849(18) 0.0866(16) Uani 1 1 d . . .
C44 C 0.87509(16) -0.0210(4) 0.2396(2) 0.187(3) Uani 1 1 d U . .
C45 C 0.8691(2) -0.0139(5) 0.2016(3) 0.240(4) Uani 1 1 d U . .
C75 C 0.82268(14) 0.0311(4) 0.07405(15) 0.1118(19) Uani 1 1 d . . .
C19 C 0.7041(2) -0.2057(4) 0.04099(19) 0.175(3) Uani 1 1 d . . .
C23 C 0.7211(2) -0.2337(3) 0.0171(2) 0.268(5) Uani 1 1 d . . .
H11G H 0.7374 -0.2022 0.0166 0.403 Uiso 1 1 calc R . .
H11H H 0.7026 -0.2418 -0.0071 0.403 Uiso 1 1 calc R . .
H11I H 0.7333 -0.2740 0.0276 0.403 Uiso 1 1 calc R . .
C37 C 0.5300(2) -0.0151(5) 0.1027(3) 0.244(4) Uani 1 1 d U . .
C36 C 0.5300(2) 0.0563(5) 0.1052(3) 0.234(4) Uani 1 1 d . . .
C40 C 0.49609(18) 0.0996(4) 0.0994(3) 0.385(8) Uani 1 1 d . . .
H11D H 0.4767 0.0709 0.0951 0.577 Uiso 1 1 calc R . .
H11E H 0.4893 0.1281 0.0790 0.577 Uiso 1 1 calc R . .
H11F H 0.5021 0.1254 0.1207 0.577 Uiso 1 1 calc R . .
C29 C 0.70143(18) -0.2515(3) 0.2553(2) 0.1014(18) Uani 1 1 d . . .
C28 C 0.72995(16) -0.2166(3) 0.28393(16) 0.0940(17) Uani 1 1 d . . .
C32 C 0.74903(13) -0.2510(2) 0.32194(13) 0.139(2) Uani 1 1 d . . .
H11A H 0.7670 -0.2224 0.3390 0.209 Uiso 1 1 calc R . .
H11B H 0.7597 -0.2912 0.3200 0.209 Uiso 1 1 calc R . .
H11C H 0.7321 -0.2603 0.3300 0.209 Uiso 1 1 calc R . .
C31 C 0.68857(14) -0.3186(2) 0.26077(15) 0.156(2) Uani 1 1 d . . .
H12A H 0.6696 -0.3337 0.2382 0.234 Uiso 1 1 calc R . .
H12B H 0.6803 -0.3147 0.2782 0.234 Uiso 1 1 calc R . .
H12C H 0.7078 -0.3495 0.2694 0.234 Uiso 1 1 calc R . .
C41 C 0.81115(14) 0.0060(3) 0.1839(2) 0.116(2) Uani 1 1 d . . .
C42 C 0.81466(13) 0.0002(2) 0.21813(19) 0.1047(18) Uani 1 1 d . . .
C16 C 0.72371(19) 0.2926(3) 0.02613(19) 0.241(4) Uani 1 1 d . . .
H12D H 0.7110 0.3331 0.0174 0.362 Uiso 1 1 calc R . .
H12E H 0.7203 0.2656 0.0060 0.362 Uiso 1 1 calc R . .
H12F H 0.7485 0.3016 0.0408 0.362 Uiso 1 1 calc R . .
C14 C 0.67238(13) 0.2571(3) 0.07939(14) 0.1086(18) Uani 1 1 d . . .
H125 H 0.6559 0.2779 0.0843 0.130 Uiso 1 1 calc R . .
C13 C 0.68498(17) 0.2881(3) 0.05809(17) 0.140(2) Uani 1 1 d . . .
C12 C 0.70917(18) 0.2547(4) 0.05007(18) 0.167(3) Uani 1 1 d . . .
C11 C 0.72110(14) 0.1904(3) 0.06385(15) 0.129(2) Uani 1 1 d . . .
H128 H 0.7367 0.1681 0.0582 0.155 Uiso 1 1 calc R . .
C59 C 0.54399(17) -0.2744(3) 0.10698(15) 0.133(2) Uani 1 1 d . . .
H131 H 0.5428 -0.2471 0.1241 0.159 Uiso 1 1 calc R . .
C62 C 0.54892(15) -0.3619(3) 0.05816(14) 0.126(2) Uani 1 1 d . . .
H132 H 0.5519 -0.3917 0.0431 0.151 Uiso 1 1 calc R . .
C63 C 0.57455(14) -0.3130(3) 0.07676(16) 0.134(2) Uani 1 1 d . . .
H133 H 0.5941 -0.3106 0.0729 0.161 Uiso 1 1 calc R . .
C74 C 0.79339(16) 0.0251(5) 0.08406(17) 0.130(3) Uani 1 1 d . . .
C15 C 0.67248(18) 0.3594(3) 0.04171(19) 0.232(4) Uani 1 1 d . . .
H15A H 0.6555 0.3756 0.0485 0.348 Uiso 1 1 calc R . .
H15B H 0.6619 0.3575 0.0158 0.348 Uiso 1 1 calc R . .
H15C H 0.6926 0.3883 0.0509 0.348 Uiso 1 1 calc R . .
C57 C 0.60099(19) -0.2166(4) 0.11698(17) 0.121(2) Uani 1 1 d . . .
C43 C 0.84747(14) -0.0139(3) 0.25055(16) 0.140(2) Uani 1 1 d . . .
H870 H 0.8505 -0.0177 0.2739 0.169 Uiso 1 1 calc R . .
C46 C 0.83806(17) 0.0007(4) 0.17523(19) 0.199(4) Uani 1 1 d . . .
H874 H 0.8343 0.0072 0.1517 0.239 Uiso 1 1 calc R . .
C56 C 0.92672(10) -0.03994(18) 0.49061(10) 0.0631(12) Uani 1 1 d . . .
H99A H 0.9434 -0.0527 0.4823 0.076 Uiso 1 1 calc R . .
H99B H 0.9121 -0.0776 0.4887 0.076 Uiso 1 1 calc R . .
C17 C 0.70718(16) -0.1144(3) 0.07991(15) 0.0993(17) Uani 1 1 d . . .
C10 C 0.70889(14) 0.1612(3) 0.08615(13) 0.0882(16) Uani 1 1 d . . .
C9 C 0.68487(12) 0.1950(3) 0.09306(13) 0.0769(14) Uani 1 1 d . . .
C67 C 0.60146(18) 0.2503(3) 0.1144(2) 0.113(2) Uani 1 1 d . . .
N1 N 0.73103(9) 0.08644(18) 0.23404(10) 0.0708(10) Uani 1 1 d . . .
N2 N 0.70593(9) 0.08965(16) 0.19854(9) 0.0613(9) Uani 1 1 d . . .
N3 N 0.68769(8) 0.14778(18) 0.19267(9) 0.0640(10) Uani 1 1 d . . .
N4 N 0.67851(8) 0.1544(2) 0.11510(9) 0.0639(10) Uani 1 1 d . . .
N5 N 0.69774(9) 0.09898(19) 0.12090(9) 0.0688(10) Uani 1 1 d . . .
N6 N 0.71651(9) 0.10170(19) 0.10304(10) 0.0787(11) Uani 1 1 d . . .
N7 N 0.71561(9) -0.0554(2) 0.09951(12) 0.0874(12) Uani 1 1 d . . .
N8 N 0.69619(10) -0.0562(2) 0.11752(9) 0.0725(11) Uani 1 1 d . . .
N9 N 0.67613(9) -0.1121(2) 0.10970(10) 0.0733(11) Uani 1 1 d . . .
N10 N 0.68414(8) -0.1212(2) 0.18665(9) 0.0673(10) Uani 1 1 d . . .
N11 N 0.70458(9) -0.06559(17) 0.19604(10) 0.0655(10) Uani 1 1 d . . .
N12 N 0.72916(9) -0.06845(18) 0.23205(10) 0.0706(10) Uani 1 1 d . . .
N13 N 0.62272(11) -0.03631(18) 0.12760(9) 0.0825(12) Uani 1 1 d . . .
N14 N 0.64290(8) 0.0186(2) 0.13504(8) 0.0676(9) Uani 1 1 d . . .
N15 N 0.62407(11) 0.07436(19) 0.13042(9) 0.0768(11) Uani 1 1 d . . .
N16 N 0.78207(10) 0.00711(1