####################################################################### 
# 
# This file contains crystal structure data downloaded from the 
# Cambridge Structural Database (CSD) hosted by the Cambridge 
# Crystallographic Data Centre (CCDC).
# 
# Full information about CCDC data access policies and citation 
# guidelines are available at http://www.ccdc.cam.ac.uk/access/V1 
# 
# Audit and citation data items may have been added by the CCDC. 
# Please retain this information to preserve the provenance of 
# this file and to allow appropriate attribution of the data. 
# 
#######################################################################

data_DMOF-5
_audit_block_doi                 10.5517/ccxphqs
_database_code_depnum_ccdc_archive 'CCDC 854816'
loop_
_citation_id
_citation_doi
_citation_year
1 10.1002/chem.201200696 2012
_audit_update_record             
;
2011-11-21 deposited with the CCDC.	2024-07-10 downloaded from the CCDC.
;
#TrackingRef 'DATA.cif'


_audit_creation_method           SHELXL-97
_chemical_name_systematic        
;
?
;
_chemical_name_common            ?
_chemical_melting_point          ?
_chemical_formula_moiety         ?
_chemical_formula_sum            'C85 H80 N18 O16 Zn5'
_chemical_formula_weight         1936.52

loop_
_atom_type_symbol
_atom_type_description
_atom_type_scat_dispersion_real
_atom_type_scat_dispersion_imag
_atom_type_scat_source
C C 0.0033 0.0016 'International Tables Vol C Tables 4.2.6.8 and 6.1.1.4'
H H 0.0000 0.0000 'International Tables Vol C Tables 4.2.6.8 and 6.1.1.4'
N N 0.0061 0.0033 'International Tables Vol C Tables 4.2.6.8 and 6.1.1.4'
O O 0.0106 0.0060 'International Tables Vol C Tables 4.2.6.8 and 6.1.1.4'
Zn Zn 0.2839 1.4301 'International Tables Vol C Tables 4.2.6.8 and 6.1.1.4'

_symmetry_cell_setting           monoclinic
_symmetry_space_group_name_H-M   C2/c
_symmetry_space_group_name_Hall  '-c 2yc'

loop_
_symmetry_equiv_pos_as_xyz
'x, y, z'
'-x, y, -z+1/2'
'x+1/2, y+1/2, z'
'-x+1/2, y+1/2, -z+1/2'
'-x, -y, -z'
'x, -y, z-1/2'
'-x+1/2, -y+1/2, -z'
'x+1/2, -y+1/2, z-1/2'

_cell_length_a                   41.9317(12)
_cell_length_b                   20.780(6)
_cell_length_c                   40.522(5)
_cell_angle_alpha                90.00
_cell_angle_beta                 120.090(5)
_cell_angle_gamma                90.00
_cell_volume                     30549(9)
_cell_formula_units_Z            8
_cell_measurement_temperature    293(2)
_cell_measurement_reflns_used    ?
_cell_measurement_theta_min      2.99
_cell_measurement_theta_max      27.49

_exptl_crystal_description       block
_exptl_crystal_colour            colorless
_exptl_crystal_size_max          0.33
_exptl_crystal_size_mid          0.31
_exptl_crystal_size_min          0.29
_exptl_crystal_density_meas      ?
_exptl_crystal_density_diffrn    0.842
_exptl_crystal_density_method    'not measured'
_exptl_crystal_F_000             7952
_exptl_absorpt_coefficient_mu    0.817
_exptl_absorpt_correction_type   multi-scan
_exptl_absorpt_correction_T_min  0.771
_exptl_absorpt_correction_T_max  0.789
_exptl_absorpt_process_details   'SADABS (Sheldrick, 1996)'
_exptl_special_details           
;
?
;

_diffrn_ambient_temperature      293(2)
_diffrn_radiation_wavelength     0.71069
_diffrn_radiation_type           MoK\a
_diffrn_radiation_source         'fine-focus sealed tube'
_diffrn_radiation_monochromator  graphite
_diffrn_measurement_device_type  'Bruker APEX CCD area-detector'
_diffrn_measurement_method       '\w scans'
_diffrn_detector_area_resol_mean ?
_diffrn_standards_number         0
_diffrn_standards_interval_count 0
_diffrn_standards_interval_time  0
_diffrn_standards_decay_%        0
_diffrn_reflns_number            129415
_diffrn_reflns_av_R_equivalents  0.2033
_diffrn_reflns_av_sigmaI/netI    0.4429
_diffrn_reflns_limit_h_min       -54
_diffrn_reflns_limit_h_max       54
_diffrn_reflns_limit_k_min       -24
_diffrn_reflns_limit_k_max       26
_diffrn_reflns_limit_l_min       -52
_diffrn_reflns_limit_l_max       52
_diffrn_reflns_theta_min         2.99
_diffrn_reflns_theta_max         27.48
_reflns_number_total             34888
_reflns_number_gt                5516
_reflns_threshold_expression     >2sigma(I)

_computing_data_collection       'SMART (Bruker, 1997)'
_computing_cell_refinement       SMART
_computing_data_reduction        'SAINT (Bruker, 1999)'
_computing_structure_solution    'SHELXS-97(Sheldrick, 2008)'
_computing_structure_refinement  'SHELXL-97 (Sheldrick, 2008)'
_computing_molecular_graphics    'Diamond (Brandenburg and Putz, 2008)'
_computing_publication_material  SHELXL-97

_refine_special_details          
;
Refinement of F^2^ against ALL reflections. The weighted R-factor wR and
goodness of fit S are based on F^2^, conventional R-factors R are based
on F, with F set to zero for negative F^2^. The threshold expression of
F^2^ > 2sigma(F^2^) is used only for calculating R-factors(gt) etc. and is
not relevant to the choice of reflections for refinement. R-factors based
on F^2^ are statistically about twice as large as those based on F, and R-
factors based on ALL data will be even larger.
;

_refine_ls_structure_factor_coef Fsqd
_refine_ls_matrix_type           full
_refine_ls_weighting_scheme      calc
_refine_ls_weighting_details     
'calc w=1/[\s^2^(Fo^2^)+(0.0000P)^2^+0.0000P] where P=(Fo^2^+2Fc^2^)/3'
_atom_sites_solution_primary     direct
_atom_sites_solution_secondary   difmap
_atom_sites_solution_hydrogens   geom
_refine_ls_hydrogen_treatment    constr
_refine_ls_extinction_method     none
_refine_ls_extinction_coef       ?
_refine_ls_number_reflns         34888
_refine_ls_number_parameters     511
_refine_ls_number_restraints     12
_refine_ls_R_factor_all          0.3349
_refine_ls_R_factor_gt           0.1093
_refine_ls_wR_factor_ref         0.2215
_refine_ls_wR_factor_gt          0.2015
_refine_ls_goodness_of_fit_ref   0.913
_refine_ls_restrained_S_all      0.915
_refine_ls_shift/su_max          0.001
_refine_ls_shift/su_mean         0.000

loop_
_atom_site_label
_atom_site_type_symbol
_atom_site_fract_x
_atom_site_fract_y
_atom_site_fract_z
_atom_site_U_iso_or_equiv
_atom_site_adp_type
_atom_site_occupancy
_atom_site_symmetry_multiplicity
_atom_site_calc_flag
_atom_site_refinement_flags
_atom_site_disorder_assembly
_atom_site_disorder_group
Zn1 Zn 0.20069(3) 0.21584(5) 0.66031(3) 0.0924(4) Uani 1 1 d . . .
Zn2 Zn 0.23122(3) 0.07903(5) 0.63322(3) 0.1022(4) Uani 1 1 d . . .
Zn3 Zn 0.21517(4) 0.35574(5) 0.62011(3) 0.1144(5) Uani 1 1 d . . .
Zn4 Zn 0.10500(3) 0.19510(5) 0.62624(3) 0.1114(4) Uani 1 1 d . . .
Zn5 Zn 0.24725(4) 0.23117(6) 0.76063(3) 0.1163(5) Uani 1 1 d . . .
C66 C 0.3331(3) 0.2878(4) 1.0424(2) 0.090(3) Uiso 1 1 d . . .
C43 C 0.2716(3) 0.4571(5) 0.7038(3) 0.150(4) Uiso 1 1 d . . .
H1 H 0.2670 0.4783 0.6817 0.180 Uiso 1 1 calc R . .
C44 C 0.2923(3) 0.4796(6) 0.7419(4) 0.160(4) Uiso 1 1 d . . .
C35 C 0.1766(4) 0.2051(5) 0.7827(3) 0.164(5) Uiso 1 1 d . . .
H02 H 0.1986 0.2186 0.8037 0.197 Uiso 1 1 calc R . .
C48 C 0.3070(3) 0.5476(6) 0.7418(3) 0.214(6) Uiso 1 1 d . . .
H3A H 0.2965 0.5625 0.7160 0.320 Uiso 1 1 calc R . .
H3B H 0.3334 0.5463 0.7535 0.320 Uiso 1 1 calc R . .
H3C H 0.3002 0.5765 0.7557 0.320 Uiso 1 1 calc R . .
C12 C 0.0882(6) 0.4457(8) 0.5573(4) 0.238(7) Uiso 1 1 d D . .
C47 C 0.3243(3) 0.4862(5) 0.8132(3) 0.203(5) Uiso 1 1 d . . .
H4A H 0.3298 0.4582 0.8343 0.305 Uiso 1 1 calc R . .
H4B H 0.3100 0.5221 0.8135 0.305 Uiso 1 1 calc R . .
H4C H 0.3469 0.5016 0.8154 0.305 Uiso 1 1 calc R . .
C49 C 0.0406(3) 0.1794(9) 0.6048(3) 0.195(6) Uiso 1 1 d D . .
C16 C 0.0702(4) 0.5022(7) 0.5297(4) 0.261(7) Uiso 1 1 d D . .
H5A H 0.0890 0.5311 0.5318 0.391 Uiso 1 1 calc R . .
H5B H 0.0540 0.5247 0.5360 0.391 Uiso 1 1 calc R . .
H5C H 0.0564 0.4862 0.5041 0.391 Uiso 1 1 calc R . .
C75 C 0.3553(3) -0.1606(5) 0.6850(3) 0.187(5) Uiso 1 1 d . . .
H6A H 0.3743 -0.1900 0.7014 0.280 Uiso 1 1 calc R . .
H6B H 0.3342 -0.1662 0.6880 0.280 Uiso 1 1 calc R . .
H6C H 0.3642 -0.1172 0.6916 0.280 Uiso 1 1 calc R . .
C27 C 0.2837(2) -0.0005(4) 0.7248(2) 0.105(3) Uiso 1 1 d . . .
H7 H 0.2790 -0.0258 0.7039 0.126 Uiso 1 1 calc R . .
C10 C 0.1319(3) 0.3615(5) 0.5891(2) 0.109(3) Uiso 1 1 d D . .
C28 C 0.3061(3) -0.0228(5) 0.7638(3) 0.117(3) Uiso 1 1 d . . .
C21 C 0.2831(4) 0.1877(9) 0.5608(4) 0.200(6) Uiso 1 1 d D . .
C38 C 0.1038(4) 0.1721(5) 0.7157(3) 0.175(5) Uiso 1 1 d . . .
H09 H 0.0813 0.1610 0.6946 0.210 Uiso 1 1 calc R . .
C29 C 0.3104(3) 0.0182(5) 0.7940(2) 0.109(3) Uiso 1 1 d . . .
C31 C 0.3341(3) -0.0095(4) 0.8360(2) 0.150(4) Uiso 1 1 d . . .
H31A H 0.3414 -0.0528 0.8349 0.225 Uiso 1 1 calc R . .
H31B H 0.3195 -0.0090 0.8482 0.225 Uiso 1 1 calc R . .
H31C H 0.3556 0.0167 0.8502 0.225 Uiso 1 1 calc R . .
C19 C 0.2632(3) 0.2936(6) 0.5745(3) 0.163(5) Uiso 1 1 d . . .
H904 H 0.2602 0.3380 0.5726 0.195 Uiso 1 1 calc R . .
C1 C 0.1193(3) 0.0748(5) 0.5934(3) 0.119(3) Uiso 1 1 d . . .
C25 C 0.2757(2) 0.0995(4) 0.7501(2) 0.093(3) Uiso 1 1 d . . .
C33 C 0.1371(4) 0.1940(5) 0.7154(3) 0.128(4) Uiso 1 1 d . . .
C36 C 0.1469(5) 0.1812(7) 0.7844(4) 0.194(6) Uiso 1 1 d . . .
C23 C 0.3007(4) 0.1522(7) 0.5402(4) 0.258(7) Uiso 1 1 d D . .
H23A H 0.3216 0.1760 0.5434 0.386 Uiso 1 1 calc R . .
H23B H 0.2829 0.1486 0.5135 0.386 Uiso 1 1 calc R . .
H23C H 0.3084 0.1100 0.5509 0.386 Uiso 1 1 calc R . .
C72 C 0.3060(3) -0.1518(4) 0.5808(2) 0.095(3) Uiso 1 1 d . . .
C13 C 0.0604(5) 0.4054(9) 0.5518(4) 0.234(7) Uiso 1 1 d D . .
C65 C 0.3202(2) 0.3111(4) 1.00425(19) 0.090(3) Uiso 1 1 d . . .
H14A H 0.2936 0.3157 0.9906 0.108 Uiso 1 1 calc R . .
H14B H 0.3311 0.3527 1.0051 0.108 Uiso 1 1 calc R . .
C76 C 0.3110(2) -0.2256(4) 0.53946(19) 0.094(3) Uiso 1 1 d . . .
H15A H 0.3142 -0.1936 0.5239 0.113 Uiso 1 1 calc R . .
H15B H 0.2849 -0.2352 0.5280 0.113 Uiso 1 1 calc R . .
C6 C 0.0857(4) 0.0411(7) 0.5759(4) 0.200(6) Uiso 1 1 d . . .
H16 H 0.0656 0.0547 0.5778 0.239 Uiso 1 1 calc R . .
C30 C 0.2974(3) 0.0778(5) 0.7892(2) 0.119(3) Uiso 1 1 d . . .
H017 H 0.3020 0.1041 0.8097 0.142 Uiso 1 1 calc R . .
C81 C 0.2726(3) 0.6082(5) 0.5602(2) 0.102(3) Uiso 1 1 d . . .
C67 C 0.3571(4) 0.1321(8) 0.9460(4) 0.286(9) Uiso 1 1 d . . .
H01D H 0.3757 0.1074 0.9668 0.429 Uiso 1 1 calc R . .
H01E H 0.3659 0.1439 0.9291 0.429 Uiso 1 1 calc R . .
H01F H 0.3351 0.1068 0.9325 0.429 Uiso 1 1 calc R . .
C15 C 0.0204(4) 0.4250(7) 0.5351(4) 0.264(7) Uiso 1 1 d D . .
H01G H 0.0065 0.3893 0.5363 0.395 Uiso 1 1 calc R . .
H01H H 0.0105 0.4377 0.5090 0.395 Uiso 1 1 calc R . .
H01I H 0.0188 0.4604 0.5494 0.395 Uiso 1 1 calc R . .
C56 C -0.1286(3) 0.2241(4) 0.5626(2) 0.108(3) Uiso 1 1 d . . .
H19A H -0.1229 0.2591 0.5505 0.129 Uiso 1 1 calc R . .
H19B H -0.1210 0.2368 0.5885 0.129 Uiso 1 1 calc R . .
C5 C 0.0845(6) -0.0118(11) 0.5564(5) 0.258(8) Uiso 1 1 d . . .
C63 C 0.2923(3) 0.3114(4) 0.9262(2) 0.116(3) Uiso 1 1 d . . .
H020 H 0.2858 0.3439 0.9375 0.139 Uiso 1 1 calc R . .
C83 C 0.2402(3) 0.5801(6) 0.5931(2) 0.147(4) Uiso 1 1 d . . .
H021 H 0.2285 0.5915 0.6065 0.176 Uiso 1 1 calc R . .
C24 C 0.2947(4) 0.2920(7) 0.5372(4) 0.261(7) Uiso 1 1 d D . .
H24A H 0.3063 0.2611 0.5290 0.392 Uiso 1 1 calc R . .
H24B H 0.3124 0.3238 0.5530 0.392 Uiso 1 1 calc R . .
H24C H 0.2748 0.3124 0.5153 0.392 Uiso 1 1 calc R . .
C57 C -0.0575(8) -0.0033(15) 0.5798(7) 0.59(2) Uiso 1 1 d . . .
H02A H -0.0754 -0.0370 0.5678 0.891 Uiso 1 1 calc R . .
H02B H -0.0487 -0.0033 0.6067 0.891 Uiso 1 1 calc R . .
H02C H -0.0372 -0.0103 0.5755 0.891 Uiso 1 1 calc R . .
C45 C 0.3013(3) 0.4475(6) 0.7741(3) 0.133(4) Uiso 1 1 d . . .
N17 N 0.23381(19) 0.2982(3) 0.69310(19) 0.101(2) Uiso 1 1 d . . .
C40 C 0.1517(3) 0.1736(6) 0.8278(3) 0.220(6) Uiso 1 1 d . . .
H02D H 0.1768 0.1825 0.8469 0.330 Uiso 1 1 calc R . .
H02E H 0.1455 0.1304 0.8310 0.330 Uiso 1 1 calc R . .
H02F H 0.1356 0.2033 0.8304 0.330 Uiso 1 1 calc R . .
C79 C 0.2621(3) 0.4987(5) 0.5679(2) 0.122(3) Uiso 1 1 d . . .
H24 H 0.2647 0.4555 0.5635 0.146 Uiso 1 1 calc R . .
C59 C 0.2866(3) 0.2616(5) 0.8700(3) 0.107(3) Uiso 1 1 d . . .
C7 C 0.0454(5) -0.0524(7) 0.5312(4) 0.297(8) Uiso 1 1 d . . .
H02G H 0.0496 -0.0883 0.5189 0.446 Uiso 1 1 calc R . .
H02H H 0.0271 -0.0247 0.5123 0.446 Uiso 1 1 calc R . .
H02I H 0.0370 -0.0678 0.5479 0.446 Uiso 1 1 calc R . .
C80 C 0.2772(3) 0.5473(6) 0.5552(3) 0.132(4) Uiso 1 1 d . . .
C8 C 0.1101(4) -0.1088(7) 0.5360(4) 0.263(7) Uiso 1 1 d . . .
H28A H 0.1339 -0.1248 0.5420 0.395 Uiso 1 1 calc R . .
H28B H 0.0959 -0.0996 0.5092 0.395 Uiso 1 1 calc R . .
H28C H 0.0975 -0.1407 0.5425 0.395 Uiso 1 1 calc R . .
C73 C 0.2801(2) -0.1180(4) 0.5527(2) 0.088(3) Uiso 1 1 d . . .
H29 H 0.2733 -0.1272 0.5276 0.106 Uiso 1 1 calc R . .
C78 C 0.2434(3) 0.5158(6) 0.5869(2) 0.119(3) Uiso 1 1 d . . .
C71 C 0.3188(3) -0.1337(5) 0.6194(3) 0.115(3) Uiso 1 1 d . . .
C62 C 0.3170(2) 0.2677(4) 0.9489(2) 0.089(3) Uiso 1 1 d . . .
N16 N 0.2385(2) 0.3515(4) 0.67799(18) 0.104(2) Uiso 1 1 d . . .
C84 C 0.3243(2) 0.6636(4) 0.5655(2) 0.104(3) Uiso 1 1 d . . .
H45A H 0.3363 0.6228 0.5673 0.125 Uiso 1 1 calc R . .
H45B H 0.3330 0.6796 0.5911 0.125 Uiso 1 1 calc R . .
C64 C 0.2751(3) 0.3110(4) 0.8849(2) 0.112(3) Uiso 1 1 d . . .
H47 H 0.2577 0.3415 0.8696 0.134 Uiso 1 1 calc R . .
C17 C 0.2553(3) 0.1879(7) 0.5985(3) 0.136(4) Uiso 1 1 d . . .
C60 C 0.3099(3) 0.2153(5) 0.8936(3) 0.127(3) Uiso 1 1 d . . .
H49 H 0.3160 0.1805 0.8835 0.153 Uiso 1 1 calc R . .
C77 C 0.2263(4) 0.4587(7) 0.6008(3) 0.150(5) Uiso 1 1 d . . .
C26 C 0.2700(2) 0.0601(4) 0.7209(2) 0.087(3) Uiso 1 1 d . . .
C68 C 0.2497(3) -0.0041(5) 0.6047(3) 0.116(4) Uiso 1 1 d . . .
C85 C 0.2995(3) 0.4683(6) 0.5258(3) 0.212(6) Uiso 1 1 d . . .
H58A H 0.3120 0.4696 0.5114 0.318 Uiso 1 1 calc R . .
H58B H 0.2761 0.4475 0.5110 0.318 Uiso 1 1 calc R . .
H58C H 0.3142 0.4448 0.5490 0.318 Uiso 1 1 calc R . .
C69 C 0.2720(2) -0.0539(4) 0.5954(2) 0.090(3) Uiso 1 1 d . . .
C20 C 0.2796(4) 0.2575(9) 0.5602(4) 0.207(6) Uiso 1 1 d D . .
C82 C 0.2541(3) 0.6292(5) 0.5798(3) 0.137(4) Uiso 1 1 d . . .
H65 H 0.2514 0.6725 0.5835 0.165 Uiso 1 1 calc R . .
C41 C 0.2678(3) 0.3605(5) 0.7391(3) 0.108(3) Uiso 1 1 d . . .
C9 C 0.1055(3) 0.3258(5) 0.5911(2) 0.108(3) Uiso 1 1 d D . .
C22 C 0.2717(3) 0.1499(6) 0.5810(3) 0.157(4) Uiso 1 1 d . . .
H72 H 0.2742 0.1054 0.5831 0.189 Uiso 1 1 calc R . .
C46 C 0.2888(3) 0.3840(5) 0.7776(3) 0.135(4) Uiso 1 1 d . . .
H73 H 0.2932 0.3632 0.7999 0.162 Uiso 1 1 calc R . .
C3 C 0.1483(4) -0.0112(6) 0.5773(3) 0.160(4) Uiso 1 1 d . . .
H74 H 0.1689 -0.0259 0.5766 0.192 Uiso 1 1 calc R . .
C34 C 0.1686(3) 0.2062(4) 0.7431(3) 0.114(3) Uiso 1 1 d . . .
C74 C 0.2632(2) -0.0694(4) 0.5607(2) 0.097(3) Uiso 1 1 d . . .
H77 H 0.2445 -0.0464 0.5406 0.117 Uiso 1 1 calc R . .
C61 C 0.3245(3) 0.2203(5) 0.9331(3) 0.110(3) Uiso 1 1 d . . .
C2 C 0.1490(3) 0.0433(5) 0.5953(2) 0.095(3) Uiso 1 1 d . . .
C11 C 0.1243(4) 0.4244(6) 0.5699(3) 0.165(4) Uiso 1 1 d D . .
H82 H 0.1415 0.4475 0.5665 0.198 Uiso 1 1 calc R . .
C70 C 0.2992(3) -0.0861(4) 0.6251(2) 0.109(3) Uiso 1 1 d . . .
H88 H 0.3047 -0.0761 0.6498 0.131 Uiso 1 1 calc R . .
C4 C 0.1149(6) -0.0445(9) 0.5597(4) 0.236(7) Uiso 1 1 d . . .
C18 C 0.2515(3) 0.2514(6) 0.5930(3) 0.124(4) Uiso 1 1 d . . .
C58 C 0.2682(3) 0.2545(6) 0.8261(3) 0.142(4) Uiso 1 1 d . . .
C14 C 0.0675(4) 0.3451(6) 0.5740(3) 0.181(5) Uiso 1 1 d D . .
H98 H 0.0497 0.3227 0.5766 0.218 Uiso 1 1 calc R . .
C42 C 0.2586(3) 0.3913(5) 0.7073(3) 0.115(3) Uiso 1 1 d . . .
C32 C 0.3193(3) -0.0950(5) 0.7691(2) 0.154(4) Uiso 1 1 d . . .
H32A H 0.3134 -0.1129 0.7449 0.231 Uiso 1 1 calc R . .
H32B H 0.3072 -0.1194 0.7798 0.231 Uiso 1 1 calc R . .
H32C H 0.3455 -0.0968 0.7861 0.231 Uiso 1 1 calc R . .
C37 C 0.1129(6) 0.1710(7) 0.7563(5) 0.223(7) Uiso 1 1 d . . .
C39 C 0.0771(4) 0.1513(7) 0.7554(4) 0.271(8) Uiso 1 1 d . . .
H90A H 0.0574 0.1486 0.7294 0.406 Uiso 1 1 calc R . .
H90B H 0.0711 0.1828 0.7687 0.406 Uiso 1 1 calc R . .
H90C H 0.0804 0.1102 0.7675 0.406 Uiso 1 1 calc R . .
N1 N 0.1781(2) 0.0825(4) 0.61517(18) 0.105(2) Uiso 1 1 d . . .
N2 N 0.1666(2) 0.1343(4) 0.62641(18) 0.105(2) Uiso 1 1 d . . .
N3 N 0.1309(2) 0.1267(4) 0.61391(19) 0.108(2) Uiso 1 1 d . . .
N4 N 0.1240(2) 0.2732(4) 0.61277(18) 0.106(2) Uiso 1 1 d . . .
N5 N 0.1588(2) 0.2810(3) 0.62222(17) 0.093(2) Uiso 1 1 d . . .
N6 N 0.1656(2) 0.3342(4) 0.60874(18) 0.104(2) Uiso 1 1 d . . .
N8 N 0.2325(2) 0.2705(4) 0.61116(18) 0.099(2) Uiso 1 1 d . . .
N9 N 0.2269(2) 0.2168(4) 0.62628(17) 0.104(2) Uiso 1 1 d . . .
N7 N 0.2396(2) 0.1627(4) 0.61719(19) 0.109(3) Uiso 1 1 d . . .
N11 N 0.24959(19) 0.0945(3) 0.68965(17) 0.091(2) Uiso 1 1 d . . .
N12 N 0.24154(19) 0.1486(3) 0.69951(18) 0.096(2) Uiso 1 1 d . . .
N10 N 0.25814(19) 0.1536(3) 0.73835(18) 0.097(2) Uiso 1 1 d . . .
N15 N 0.1949(2) 0.2188(3) 0.7326(2) 0.110(3) Uiso 1 1 d . . .
N13 N 0.1726(3) 0.2150(4) 0.6945(2) 0.120(3) Uiso 1 1 d . . .
N14 N 0.1395(2) 0.1999(3) 0.68238(19) 0.103(2) Uiso 1 1 d . . .
N18 N 0.2510(2) 0.3023(4) 0.7317(2) 0.107(2) Uiso 1 1 d . . .
O1 O 0.0574(3) 0.1255(5) 0.6195(2) 0.227(4) Uiso 1 1 d . . .
O2 O 0.0566(3) 0.2209(5) 0.6141(3) 0.239(5) Uiso 1 1 d . . .
O3 O -0.10927(19) 0.1692(3) 0.56312(15) 0.122(2) Uiso 1 1 d . . .
O4 O -0.0767(5) 0.0665(9) 0.5616(4) 0.395(8) Uiso 1 1 d . . .
O5 O 0.2480(2) 0.2993(4) 0.8071(2) 0.168(3) Uiso 1 1 d . . .
O6 O 0.28123(19) 0.2109(4) 0.81494(17) 0.144(3) Uiso 1 1 d . . .
O7 O 0.3505(2) 0.1799(4) 0.9582(2) 0.173(3) Uiso 1 1 d . . .
O8 O 0.33097(16) 0.2655(3) 0.98588(16) 0.1056(19) Uiso 1 1 d . . .
O13 O 0.26409(17) 0.0085(3) 0.63904(17) 0.124(2) Uiso 1 1 d . . .
O1