####################################################################### 
# 
# This file contains crystal structure data downloaded from the 
# Cambridge Structural Database (CSD) hosted by the Cambridge 
# Crystallographic Data Centre (CCDC).
# 
# Full information about CCDC data access policies and citation 
# guidelines are available at http://www.ccdc.cam.ac.uk/access/V1 
# 
# Audit and citation data items may have been added by the CCDC. 
# Please retain this information to preserve the provenance of 
# this file and to allow appropriate attribution of the data. 
# 
#######################################################################

data_DMOF-4
_audit_block_doi                 10.5517/ccxphpr
_database_code_depnum_ccdc_archive 'CCDC 854815'
loop_
_citation_id
_citation_doi
_citation_year
1 10.1002/chem.201200696 2012
_audit_update_record             
;
2011-11-21 deposited with the CCDC.	2024-07-10 downloaded from the CCDC.
;
#TrackingRef 'DATA.cif'


_audit_creation_method           SHELXL-97
_chemical_name_systematic        
;
?
;
_chemical_name_common            ?
_chemical_melting_point          ?
_chemical_formula_moiety         ?
_chemical_formula_sum            'C73 H60 N18 O18 Zn5'
_chemical_formula_weight         1804.24

loop_
_atom_type_symbol
_atom_type_description
_atom_type_scat_dispersion_real
_atom_type_scat_dispersion_imag
_atom_type_scat_source
C C 0.0033 0.0016 'International Tables Vol C Tables 4.2.6.8 and 6.1.1.4'
H H 0.0000 0.0000 'International Tables Vol C Tables 4.2.6.8 and 6.1.1.4'
N N 0.0061 0.0033 'International Tables Vol C Tables 4.2.6.8 and 6.1.1.4'
O O 0.0106 0.0060 'International Tables Vol C Tables 4.2.6.8 and 6.1.1.4'
Zn Zn 0.2839 1.4301 'International Tables Vol C Tables 4.2.6.8 and 6.1.1.4'

_symmetry_cell_setting           monoclinic
_symmetry_space_group_name_H-M   C2/c
_symmetry_space_group_name_Hall  '-c 2yc'

loop_
_symmetry_equiv_pos_as_xyz
'x, y, z'
'-x, y, -z+1/2'
'x+1/2, y+1/2, z'
'-x+1/2, y+1/2, -z+1/2'
'-x, -y, -z'
'x, -y, z-1/2'
'-x+1/2, -y+1/2, -z'
'x+1/2, -y+1/2, z-1/2'

_cell_length_a                   20.287(5)
_cell_length_b                   36.392(9)
_cell_length_c                   20.049(5)
_cell_angle_alpha                90.00
_cell_angle_beta                 116.793(4)
_cell_angle_gamma                90.00
_cell_volume                     13213(6)
_cell_formula_units_Z            4
_cell_measurement_temperature    293(2)
_cell_measurement_reflns_used    ?
_cell_measurement_theta_min      3.01
_cell_measurement_theta_max      27.48

_exptl_crystal_description       block
_exptl_crystal_colour            colorless
_exptl_crystal_size_max          0.34
_exptl_crystal_size_mid          0.31
_exptl_crystal_size_min          0.29
_exptl_crystal_density_meas      ?
_exptl_crystal_density_diffrn    0.907
_exptl_crystal_density_method    'not measured'
_exptl_crystal_F_000             3672
_exptl_absorpt_coefficient_mu    0.942
_exptl_absorpt_correction_type   multi-scan
_exptl_absorpt_correction_T_min  0.733
_exptl_absorpt_correction_T_max  0.761
_exptl_absorpt_process_details   'SADABS (Sheldrick, 1996)'

_exptl_special_details           
;
?
;

_diffrn_ambient_temperature      293(2)
_diffrn_radiation_wavelength     0.71069
_diffrn_radiation_type           MoK\a
_diffrn_radiation_source         'fine-focus sealed tube'
_diffrn_radiation_monochromator  graphite
_diffrn_measurement_device_type  'Bruker APEX CCD area-detector'
_diffrn_measurement_method       '\w scans'
_diffrn_detector_area_resol_mean ?
_diffrn_standards_number         0
_diffrn_standards_interval_count 0
_diffrn_standards_interval_time  0
_diffrn_standards_decay_%        0
_diffrn_reflns_number            75282
_diffrn_reflns_av_R_equivalents  0.0790
_diffrn_reflns_av_sigmaI/netI    0.0989
_diffrn_reflns_limit_h_min       -26
_diffrn_reflns_limit_h_max       26
_diffrn_reflns_limit_k_min       -47
_diffrn_reflns_limit_k_max       47
_diffrn_reflns_limit_l_min       -25
_diffrn_reflns_limit_l_max       25
_diffrn_reflns_theta_min         3.01
_diffrn_reflns_theta_max         27.48
_reflns_number_total             14930
_reflns_number_gt                6026
_reflns_threshold_expression     >2sigma(I)

_computing_data_collection       'SMART (Bruker, 1997)'
_computing_cell_refinement       SMART
_computing_data_reduction        'SAINT (Bruker, 1999)'
_computing_structure_solution    'SHELXS-97(Sheldrick, 2008)'
_computing_structure_refinement  'SHELXL-97 (Sheldrick, 2008)'
_computing_molecular_graphics    'Diamond (Brandenburg and Putz, 2008)'
_computing_publication_material  SHELXL-97

_refine_special_details          
;
Refinement of F^2^ against ALL reflections. The weighted R-factor wR and
goodness of fit S are based on F^2^, conventional R-factors R are based
on F, with F set to zero for negative F^2^. The threshold expression of
F^2^ > 2sigma(F^2^) is used only for calculating R-factors(gt) etc. and is
not relevant to the choice of reflections for refinement. R-factors based
on F^2^ are statistically about twice as large as those based on F, and R-
factors based on ALL data will be even larger.
;

_refine_ls_structure_factor_coef Fsqd
_refine_ls_matrix_type           full
_refine_ls_weighting_scheme      calc
_refine_ls_weighting_details     
'calc w=1/[\s^2^(Fo^2^)+(0.1696P)^2^+0.0000P] where P=(Fo^2^+2Fc^2^)/3'
_atom_sites_solution_primary     direct
_atom_sites_solution_secondary   difmap
_atom_sites_solution_hydrogens   geom
_refine_ls_hydrogen_treatment    constr
_refine_ls_extinction_method     none
_refine_ls_extinction_coef       ?
_refine_ls_number_reflns         14930
_refine_ls_number_parameters     463
_refine_ls_number_restraints     0
_refine_ls_R_factor_all          0.1670
_refine_ls_R_factor_gt           0.0841
_refine_ls_wR_factor_ref         0.2851
_refine_ls_wR_factor_gt          0.2490
_refine_ls_goodness_of_fit_ref   0.895
_refine_ls_restrained_S_all      0.895
_refine_ls_shift/su_max          0.001
_refine_ls_shift/su_mean         0.000

loop_
_atom_site_label
_atom_site_type_symbol
_atom_site_fract_x
_atom_site_fract_y
_atom_site_fract_z
_atom_site_U_iso_or_equiv
_atom_site_adp_type
_atom_site_occupancy
_atom_site_symmetry_multiplicity
_atom_site_calc_flag
_atom_site_refinement_flags
_atom_site_disorder_assembly
_atom_site_disorder_group
Zn1 Zn 0.0000 -0.04176(2) 0.2500 0.0718(3) Uani 1 2 d S . .
Zn2 Zn 0.14485(4) 0.01491(2) 0.38033(4) 0.0984(3) Uani 1 1 d . . .
Zn3 Zn -0.06680(5) -0.09974(2) 0.35004(4) 0.1152(3) Uani 1 1 d . . .
C4 C 0.0623(6) -0.0428(3) 0.6036(5) 0.151(4) Uani 1 1 d . . .
H4 H 0.0535 -0.0488 0.6440 0.181 Uiso 1 1 calc R . .
N4 N 0.0376(2) -0.04057(11) 0.3711(2) 0.0810(11) Uani 1 1 d . . .
C1 C 0.0904(4) -0.0226(2) 0.4878(3) 0.102(2) Uani 1 1 d . . .
C2 C 0.0360(4) -0.0484(2) 0.4778(3) 0.0998(19) Uani 1 1 d . . .
N8 N 0.1675(2) -0.02195(13) 0.3156(2) 0.0876(12) Uani 1 1 d . . .
C26 C -0.1183(5) -0.18027(17) 0.5096(4) 0.116(2) Uani 1 1 d . . .
H26 H -0.1621 -0.1678 0.4811 0.140 Uiso 1 1 calc R . .
C32 C 0.2280(3) -0.39237(14) 0.9330(3) 0.0874(15) Uani 1 1 d . . .
H32 H 0.2731 -0.3947 0.9319 0.105 Uiso 1 1 calc R . .
O2 O -0.1128(3) -0.12828(13) 0.4044(3) 0.1258(16) Uani 1 1 d . . .
C6 C 0.1324(4) -0.0058(2) 0.5562(3) 0.120(2) Uani 1 1 d . . .
H6 H 0.1685 0.0117 0.5641 0.144 Uiso 1 1 calc R . .
O3 O 0.2412(3) 0.04243(16) 0.4214(4) 0.175(3) Uani 1 1 d . . .
C7 C 0.0346(4) 0.07564(16) 0.2808(3) 0.1046(19) Uani 1 1 d . . .
N9 N 0.1135(2) -0.04312(11) 0.2657(2) 0.0773(11) Uani 1 1 d . . .
N5 N 0.0047(3) -0.05904(13) 0.4047(2) 0.0904(12) Uani 1 1 d . . .
O1 O 0.0036(4) -0.1381(2) 0.4434(5) 0.206(4) Uani 1 1 d . . .
C3 C 0.0218(5) -0.0590(2) 0.5374(3) 0.133(3) Uani 1 1 d . . .
H3 H -0.0139 -0.0765 0.5313 0.160 Uiso 1 1 calc R . .
C10 C 0.2296(3) -0.0319(2) 0.3118(3) 0.1070(19) Uani 1 1 d . . .
C21 C -0.0558(5) -0.17330(17) 0.5007(4) 0.115(2) Uani 1 1 d . . .
C25 C -0.1147(4) -0.20603(18) 0.5615(4) 0.112(2) Uani 1 1 d . . .
C8 C 0.0719(6) 0.10769(18) 0.3185(5) 0.162(4) Uani 1 1 d . . .
H8 H 0.1164 0.1077 0.3620 0.194 Uiso 1 1 calc R . .
O5 O -0.1728(3) -0.21545(17) 0.5760(4) 0.183(3) Uani 1 1 d . . .
C22 C 0.0087(4) -0.19105(19) 0.5423(4) 0.132(3) Uani 1 1 d . . .
H22 H 0.0504 -0.1861 0.5358 0.158 Uiso 1 1 calc R . .
C5 C 0.1139(6) -0.0186(3) 0.6131(4) 0.150(4) Uani 1 1 d . . .
H5 H 0.1405 -0.0089 0.6608 0.180 Uiso 1 1 calc R . .
C23 C 0.0114(4) -0.21673(18) 0.5945(4) 0.114(2) Uani 1 1 d . . .
H23 H 0.0558 -0.2286 0.6237 0.137 Uiso 1 1 calc R . .
C11 C 0.2116(4) -0.0604(2) 0.2592(4) 0.112(2) Uani 1 1 d . . .
C15 C 0.3009(5) -0.0211(3) 0.3525(6) 0.182(4) Uani 1 1 d . . .
H15 H 0.3134 -0.0037 0.3903 0.218 Uiso 1 1 calc R . .
C12 C 0.2625(5) -0.0770(3) 0.2428(5) 0.175(4) Uani 1 1 d . . .
H12 H 0.2495 -0.0954 0.2069 0.209 Uiso 1 1 calc R . .
C14 C 0.3537(6) -0.0364(4) 0.3365(7) 0.228(6) Uani 1 1 d . . .
H14 H 0.4022 -0.0281 0.3608 0.273 Uiso 1 1 calc R . .
C13 C 0.3338(6) -0.0654(4) 0.2816(7) 0.223(6) Uani 1 1 d . . .
H13 H 0.3704 -0.0764 0.2726 0.268 Uiso 1 1 calc R . .
C9 C 0.0339(7) 0.1395(2) 0.2828(5) 0.212(5) Uani 1 1 d . . .
H9 H 0.0546 0.1620 0.3034 0.254 Uiso 1 1 calc R . .
C36 C -0.2427(6) -0.1988(3) 0.5326(7) 0.257(7) Uani 1 1 d . . .
H36A H -0.2779 -0.2082 0.5480 0.385 Uiso 1 1 calc R . .
H36B H -0.2588 -0.2043 0.4807 0.385 Uiso 1 1 calc R . .
H36C H -0.2385 -0.1727 0.5398 0.385 Uiso 1 1 calc R . .
C19 C 0.2304(5) 0.0606(2) 0.4646(4) 0.124(3) Uani 1 1 d . . .
N3 N 0.0909(3) -0.01789(12) 0.4189(2) 0.0879(12) Uani 1 1 d . . .
C27 C 0.0145(3) -0.27091(13) 0.6952(3) 0.0819(14) Uani 1 1 d . . .
H27A H 0.0562 -0.2547 0.7218 0.098 Uiso 1 1 calc R . .
H27B H 0.0252 -0.2863 0.6618 0.098 Uiso 1 1 calc R . .
C24 C -0.0492(4) -0.22521(14) 0.6043(3) 0.0912(16) Uani 1 1 d . . .
N7 N 0.0538(3) 0.03885(11) 0.2972(2) 0.0862(12) Uani 1 1 d . . .
C31 C 0.1759(3) -0.36829(14) 0.8854(3) 0.0841(14) Uani 1 1 d . . .
H31 H 0.1862 -0.3544 0.8523 0.101 Uiso 1 1 calc R . .
C28 C 0.0000 -0.29445(15) 0.7500 0.0667(16) Uani 1 2 d S . .
O7 O 0.0549(2) -0.34068(10) 0.84225(19) 0.0930(10) Uani 1 1 d . . .
O8 O -0.0514(2) -0.24991(10) 0.6539(2) 0.1028(12) Uani 1 1 d . . .
N6 N 0.0000 0.01787(15) 0.2500 0.0739(14) Uani 1 2 d S . .
C29 C 0.0685(3) -0.31799(12) 0.7913(2) 0.0734(12) Uani 1 1 d . . .
H29A H 0.0774 -0.3331 0.7563 0.088 Uiso 1 1 calc R . .
H29B H 0.1115 -0.3026 0.8183 0.088 Uiso 1 1 calc R . .
C30 C 0.1098(3) -0.36443(14) 0.8860(3) 0.0827(14) Uani 1 1 d . . .
C20 C -0.0546(7) -0.1442(2) 0.4467(4) 0.135(3) Uani 1 1 d . . .
N10 N 0.1397(3) -0.06609(12) 0.2320(2) 0.0899(13) Uani 1 1 d . . .
O4 O 0.1715(4) 0.05679(18) 0.4659(3) 0.158(2) Uani 1 1 d . . .
N1 N 0.0000 -0.10177(19) 0.2500 0.0987(19) Uiso 1 2 d S . .
C33 C 0.2139(3) -0.41285(17) 0.9817(3) 0.0957(16) Uiso 1 1 d . . .
O6 O 0.0266(4) -0.37978(18) 0.9305(4) 0.169(2) Uiso 1 1 d . . .
N2 N -0.0277(3) -0.12220(18) 0.2874(3) 0.1297(19) Uiso 1 1 d . . .
C34 C 0.1497(4) -0.4097(2) 0.9845(4) 0.127(2) Uiso 1 1 d . . .
H34 H 0.1404 -0.4237 1.0183 0.152 Uiso 1 1 calc R . .
C35 C 0.0958(4) -0.3849(2) 0.9354(4) 0.116(2) Uiso 1 1 d . . .
C16 C -0.0178(7) -0.1563(4) 0.2709(7) 0.209(5) Uiso 1 1 d . . .
C17 C -0.0402(11) -0.1902(5) 0.3043(10) 0.312(9) Uiso 1 1 d . . .
H17 H -0.0598 -0.1903 0.3382 0.375 Uiso 1 1 calc R . .
C18 C -0.0217(12) -0.2240(5) 0.2673(13) 0.356(11) Uiso 1 1 d . . .
H18 H -0.0429 -0.2463 0.2695 0.428 Uiso 1 1 calc R . .
C37 C 0.0085(8) -0.3997(4) 0.9855(8) 0.288(8) Uiso 1 1 d . . .
H37A H -0.0411 -0.3941 0.9760 0.431 Uiso 1 1 calc R . .
H37B H 0.0421 -0.3922 1.0353 0.431 Uiso 1 1 calc R . .
H37C H 0.0131 -0.4257 0.9804 0.431 Uiso 1 1 calc R . .
O1W O -0.1632(18) -0.1509(9) 0.2496(16) 0.712(18) Uiso 1 1 d . . .

loop_
_atom_site_aniso_label
_atom_site_aniso_U_11
_atom_site_aniso_U_22
_atom_site_aniso_U_33
_atom_site_aniso_U_23
_atom_site_aniso_U_13
_atom_site_aniso_U_12
Zn1 0.0939(6) 0.0639(5) 0.0518(4) 0.000 0.0277(4) 0.000
Zn2 0.1086(5) 0.1001(5) 0.0773(4) -0.0353(3) 0.0338(4) -0.0166(4)
Zn3 0.1321(7) 0.1074(6) 0.1119(5) 0.0538(4) 0.0601(5) 0.0146(4)
C4 0.201(10) 0.181(10) 0.088(5) 0.029(6) 0.080(7) 0.050(8)
N4 0.099(3) 0.076(3) 0.060(2) 0.001(2) 0.029(2) 0.000(2)
C1 0.124(5) 0.128(5) 0.044(2) 0.002(3) 0.030(3) 0.043(4)
C2 0.115(5) 0.122(5) 0.063(3) 0.025(3) 0.041(3) 0.043(4)
N8 0.081(3) 0.104(3) 0.064(2) -0.012(2) 0.021(2) -0.005(2)
C26 0.140(6) 0.095(4) 0.100(4) 0.045(4) 0.042(4) 0.026(4)
C32 0.095(4) 0.077(3) 0.067(3) -0.005(3) 0.016(3) 0.008(3)
O2 0.188(5) 0.096(3) 0.109(3) 0.032(3) 0.079(3) 0.012(3)
C6 0.139(5) 0.143(6) 0.060(3) -0.005(3) 0.030(3) 0.031(5)
O3 0.132(4) 0.157(5) 0.181(5) -0.113(5) 0.021(4) -0.021(4)
C7 0.144(6) 0.076(4) 0.090(4) 0.000(3) 0.049(3) -0.001(3)
N9 0.089(3) 0.077(3) 0.060(2) -0.010(2) 0.027(2) 0.001(2)
N5 0.105(3) 0.091(3) 0.067(2) 0.018(2) 0.031(2) 0.009(3)
O1 0.208(7) 0.194(7) 0.272(8) 0.152(6) 0.157(7) 0.058(5)
C3 0.176(7) 0.160(7) 0.070(4) 0.031(4) 0.062(4) 0.041(6)
C10 0.078(4) 0.135(5) 0.097(4) -0.035(4) 0.030(3) 0.006(4)
C21 0.180(7) 0.075(4) 0.099(4) 0.028(3) 0.071(5) 0.016(4)
C25 0.120(5) 0.099(4) 0.107(4) 0.039(4) 0.043(4) 0.015(4)
C8 0.220(9) 0.060(4) 0.154(7) -0.013(4) 0.039(6) -0.019(5)
O5 0.140(4) 0.200(6) 0.204(6) 0.139(5) 0.074(4) 0.060(4)
C22 0.138(6) 0.108(5) 0.150(6) 0.064(5) 0.065(5) 0.013(5)
C5 0.196(10) 0.190(10) 0.048(3) 0.002(5) 0.041(5) 0.076(7)
C23 0.115(5) 0.100(4) 0.122(5) 0.045(4) 0.047(4) 0.009(4)
C11 0.084(4) 0.141(6) 0.101(4) -0.032(4) 0.033(4) 0.011(4)
C15 0.117(7) 0.250(12) 0.174(8) -0.091(8) 0.063(6) -0.003(7)
C12 0.127(7) 0.214(10) 0.170(8) -0.078(8) 0.055(6) 0.019(7)
C14 0.115(7) 0.268(14) 0.262(13) -0.132(12) 0.052(8) -0.010(8)
C13 0.139(8) 0.266(14) 0.262(13) -0.136(12) 0.087(9) -0.002(9)
C9 0.292(17) 0.089(5) 0.185(11) -0.036(6) 0.045(9) -0.022(7)
C36 0.164(9) 0.265(13) 0.335(16) 0.208(13) 0.106(10) 0.105(9)
C19 0.130(6) 0.095(5) 0.088(4) -0.030(4) -0.004(4) -0.024(5)
N3 0.100(3) 0.097(3) 0.060(2) 0.004(2) 0.030(2) 0.016(3)
C27 0.102(4) 0.053(3) 0.073(3) 0.010(2) 0.024(3) 0.005(3)
C24 0.128(5) 0.060(3) 0.079(3) 0.022(3) 0.041(3) 0.006(3)
N7 0.109(3) 0.071(3) 0.075(2) -0.006(2) 0.038(2) 0.005(3)
C31 0.104(4) 0.070(3) 0.069(3) -0.003(2) 0.031(3) 0.000(3)
C28 0.082(4) 0.042(3) 0.061(3) 0.000 0.020(3) 0.000
O7 0.099(2) 0.080(2) 0.084(2) 0.0267(19) 0.027(2) 0.015(2)
O8 0.117(3) 0.084(2) 0.100(2) 0.043(2) 0.042(2) 0.015(2)
N6 0.086(4) 0.069(3) 0.053(3) 0.000 0.020(3) 0.000
C29 0.095(3) 0.049(2) 0.063(2) 0.003(2) 0.025(2) -0.007(2)
C30 0.091(4) 0.072(3) 0.069(3) 0.012(2) 0.022(3) -0.001(3)
C20 0.203(9) 0.098(5) 0.108(5) 0.044(4) 0.072(6) 0.032(6)
N10 0.112(4) 0.082(3) 0.071(2) -0.017(2) 0.037(3) 0.010(3)
O4 0.151(5) 0.179(5) 0.112(4) -0.063(4) 0.032(4) -0.076(4)

_geom_special_details            
;
All esds (except the esd in the dihedral angle between two l.s. planes)
are estimated using the full covariance matrix. The cell esds are taken
into account individually in the estimation of esds in distances, angles
and torsion angles; correlations between esds in cell parameters are only
used when they are defined by crystal symmetry. An approximate (isotropic)
treatment of cell esds is used for estimating esds involving l.s. planes.
;

loop_
_geom_bond_atom_site_label_1
_geom_bond_atom_site_label_2
_geom_bond_distance
_geom_bond_site_symmetry_2
_geom_bond_publ_flag
Zn1 N6 2.170(6) . ?
Zn1 N9 2.179(4) 2 ?
Zn1 N9 2.179(4) . ?
Zn1 N1 2.184(7) . ?
Zn1 N4 2.193(4) . ?
Zn1 N4 2.193(4) 2 ?
Zn2 N3 1.996(5) . ?
Zn2 O3 2.013(5) . ?
Zn2 N7 2.043(4) . ?
Zn2 N8 2.057(4) . ?
Zn2 O4 2.173(5) . ?
Zn2 C19 2.446(6) . ?
Zn3 N2 1.943(6) . ?
Zn3 O2 2.013(4) . ?
Zn3 N5 2.016(5) . ?
Zn3 N10 2.049(4) 2 ?
Zn3 O1 2.253(6) . ?
Zn3 C20 2.449(7) . ?
C4 C5 1.314(12) . ?
C4 C3 1.342(12) . ?
C4 H4 0.9300 . ?
N4 N5 1.326(6) . ?
N4 N3 1.354(6) . ?
C1 C6 1.388(8) . ?
C1 C2 1.393(9) . ?
C1 N3 1.396(7) . ?
C2 N5 1.364(7) . ?
C2 C3 1.403(8) . ?
N8 N9 1.344(5) . ?
N8 C10 1.346(7) . ?
C26 C25 1.377(8) . ?
C26 C21 1.381(9) . ?
C26 H26 0.9300 . ?
C32 C33 1.357(8) . ?
C32 C31 1.374(7) . ?
C32 H32 0.9300 . ?
O2 C20 1.242(9) . ?
C6 C5 1.429(12) . ?
C6 H6 0.9300 . ?
O3 C19 1.186(9) . ?
C7 C7 1.390(12) 2 ?
C7 N7 1.392(6) . ?
C7 C8 1.410(9) . ?
N9 N10 1.328(5) . ?
O1 C20 1.233(10) . ?
C3 H3 0.9300 . ?
C10 C15 1.360(10) . ?
C10 C11 1.404(8) . ?
C21 C22 1.357(10) . ?
C21 C20 1.524(9) . ?
C25 O5 1.378(8) . ?
C25 C24 1.400(8) . ?
C8 C9 1.395(11) . ?
C8 H8 0.9300 . ?
O5 C36 1.421(9) . ?
C22 C23 1.386(8) . ?
C22 H22 0.9300 . ?
C5 H5 0.9300 . ?
C23 C24 1.366(8) . ?
C23 H23 0.9300 . ?
C11 N10 1.323(7) . ?
C11 C12 1.359(10) . ?
C15 C14 1.369(12) . ?
C15 H15 0.9300 . ?
C12 C13 1.364(12) . ?
C12 H12 0.9300 . ?
C14 C13 1.444(13) . ?
C