####################################################################### 
# 
# This file contains crystal structure data downloaded from the 
# Cambridge Structural Database (CSD) hosted by the Cambridge 
# Crystallographic Data Centre (CCDC).
# 
# Full information about CCDC data access policies and citation 
# guidelines are available at http://www.ccdc.cam.ac.uk/access/V1 
# 
# Audit and citation data items may have been added by the CCDC. 
# Please retain this information to preserve the provenance of 
# this file and to allow appropriate attribution of the data. 
# 
#######################################################################

data_DMOF-3
_audit_block_doi                 10.5517/ccxphnq
_database_code_depnum_ccdc_archive 'CCDC 854814'
loop_
_citation_id
_citation_doi
_citation_year
1 10.1002/chem.201200696 2012
_audit_update_record             
;
2011-11-21 deposited with the CCDC.	2024-07-10 downloaded from the CCDC.
;
#TrackingRef 'DATA.cif'


_audit_creation_method           SHELXL-97
_chemical_name_systematic        
;
?
;
_chemical_name_common            ?
_chemical_melting_point          ?
_chemical_formula_moiety         ?
_chemical_formula_sum            'C75 H62 N18 O13 Zn5'
_chemical_formula_weight         1750.28

loop_
_atom_type_symbol
_atom_type_description
_atom_type_scat_dispersion_real
_atom_type_scat_dispersion_imag
_atom_type_scat_source
C C 0.0033 0.0016 'International Tables Vol C Tables 4.2.6.8 and 6.1.1.4'
H H 0.0000 0.0000 'International Tables Vol C Tables 4.2.6.8 and 6.1.1.4'
N N 0.0061 0.0033 'International Tables Vol C Tables 4.2.6.8 and 6.1.1.4'
O O 0.0106 0.0060 'International Tables Vol C Tables 4.2.6.8 and 6.1.1.4'
Zn Zn 0.2839 1.4301 'International Tables Vol C Tables 4.2.6.8 and 6.1.1.4'

_symmetry_cell_setting           Triclinic
_symmetry_space_group_name_H-M   P-1
_symmetry_space_group_name_Hall  -P1

loop_
_symmetry_equiv_pos_as_xyz
'x, y, z'
'-x, -y, -z'

_cell_length_a                   19.562(4)
_cell_length_b                   20.850(2)
_cell_length_c                   23.5730(12)
_cell_angle_alpha                115.3210(10)
_cell_angle_beta                 112.6540(10)
_cell_angle_gamma                92.849(2)
_cell_volume                     7750.9(17)
_cell_formula_units_Z            2
_cell_measurement_temperature    293(2)
_cell_measurement_reflns_used    ?
_cell_measurement_theta_min      1.07
_cell_measurement_theta_max      25.27

_exptl_crystal_description       block
_exptl_crystal_colour            colorless
_exptl_crystal_size_max          0.34
_exptl_crystal_size_mid          0.33
_exptl_crystal_size_min          0.31
_exptl_crystal_density_meas      ?
_exptl_crystal_density_diffrn    0.750
_exptl_crystal_density_method    'not measured'
_exptl_crystal_F_000             1784
_exptl_absorpt_coefficient_mu    0.799
_exptl_absorpt_correction_type   multi-scan
_exptl_absorpt_correction_T_min  0.770
_exptl_absorpt_correction_T_max  0.781
_exptl_absorpt_process_details   'SADABS (Sheldrick, 1996)'

_exptl_special_details           
;
?
;

_diffrn_ambient_temperature      293(2)
_diffrn_radiation_wavelength     0.71069
_diffrn_radiation_type           MoK\a
_diffrn_radiation_source         'fine-focus sealed tube'
_diffrn_radiation_monochromator  graphite
_diffrn_measurement_device_type  'Bruker APEX CCD area-detector'
_diffrn_measurement_method       '\w scans'
_diffrn_detector_area_resol_mean ?
_diffrn_standards_number         0
_diffrn_standards_interval_count 0
_diffrn_standards_interval_time  0
_diffrn_standards_decay_%        0
_diffrn_reflns_number            32032
_diffrn_reflns_av_R_equivalents  0.0500
_diffrn_reflns_av_sigmaI/netI    0.2289
_diffrn_reflns_limit_h_min       -20
_diffrn_reflns_limit_h_max       23
_diffrn_reflns_limit_k_min       -24
_diffrn_reflns_limit_k_max       10
_diffrn_reflns_limit_l_min       -25
_diffrn_reflns_limit_l_max       27
_diffrn_reflns_theta_min         1.07
_diffrn_reflns_theta_max         25.27
_reflns_number_total             25026
_reflns_number_gt                6751
_reflns_threshold_expression     >2sigma(I)

_computing_data_collection       'SMART (Bruker, 1997)'
_computing_cell_refinement       SMART
_computing_data_reduction        'SAINT (Bruker, 1999)'
_computing_structure_solution    'SHELXS-97(Sheldrick, 2008)'
_computing_structure_refinement  'SHELXL-97 (Sheldrick, 2008)'
_computing_molecular_graphics    'Diamond (Brandenburg and Putz, 2008)'
_computing_publication_material  SHELXL-97

_refine_special_details          
;
Refinement of F^2^ against ALL reflections. The weighted R-factor wR and
goodness of fit S are based on F^2^, conventional R-factors R are based
on F, with F set to zero for negative F^2^. The threshold expression of
F^2^ > 2sigma(F^2^) is used only for calculating R-factors(gt) etc. and is
not relevant to the choice of reflections for refinement. R-factors based
on F^2^ are statistically about twice as large as those based on F, and R-
factors based on ALL data will be even larger.
;

_refine_ls_structure_factor_coef Fsqd
_refine_ls_matrix_type           full
_refine_ls_weighting_scheme      calc
_refine_ls_weighting_details     
'calc w=1/[\s^2^(Fo^2^)+(0.0600P)^2^+0.0000P] where P=(Fo^2^+2Fc^2^)/3'
_atom_sites_solution_primary     direct
_atom_sites_solution_secondary   difmap
_atom_sites_solution_hydrogens   geom
_refine_ls_hydrogen_treatment    constr
_refine_ls_extinction_method     none
_refine_ls_extinction_coef       ?
_refine_ls_number_reflns         25026
_refine_ls_number_parameters     799
_refine_ls_number_restraints     30
_refine_ls_R_factor_all          0.1695
_refine_ls_R_factor_gt           0.0835
_refine_ls_wR_factor_ref         0.2035
_refine_ls_wR_factor_gt          0.1905
_refine_ls_goodness_of_fit_ref   0.863
_refine_ls_restrained_S_all      4.965
_refine_ls_shift/su_max          0.000
_refine_ls_shift/su_mean         0.000

loop_
_atom_site_label
_atom_site_type_symbol
_atom_site_fract_x
_atom_site_fract_y
_atom_site_fract_z
_atom_site_U_iso_or_equiv
_atom_site_adp_type
_atom_site_occupancy
_atom_site_symmetry_multiplicity
_atom_site_calc_flag
_atom_site_refinement_flags
_atom_site_disorder_assembly
_atom_site_disorder_group
Zn1 Zn 0.7808(3) 0.4142(3) 0.5818(2) 0.0735(17) Uani 1 1 d . . .
Zn2 Zn 0.9849(3) 0.4726(3) 0.6803(3) 0.091(2) Uani 1 1 d . . .
Zn3 Zn 0.7187(3) 0.4905(4) 0.4668(3) 0.102(2) Uani 1 1 d . . .
Zn4 Zn 0.6991(4) 0.4764(3) 0.7014(3) 0.100(2) Uani 1 1 d . . .
Zn5 Zn 0.7184(3) 0.2143(3) 0.4803(3) 0.107(2) Uani 1 1 d . . .
C1 C 0.8938(18) 0.247(2) 0.5432(19) 0.099(16) Uani 1 1 d G . .
C2 C 0.958(2) 0.3065(17) 0.5901(18) 0.108(17) Uani 1 1 d G . .
C3 C 1.031(2) 0.296(2) 0.604(2) 0.18(3) Uani 1 1 d G . .
H3 H 1.0737 0.3353 0.6353 0.217 Uiso 1 1 calc R . .
C4 C 1.0398(18) 0.226(3) 0.571(2) 0.18(3) Uani 1 1 d GD . .
H4 H 1.0886 0.2183 0.5799 0.215 Uiso 1 1 calc R . .
C5 C 0.976(2) 0.1662(19) 0.524(2) 0.26(4) Uiso 1 1 d GD . .
C6 C 0.903(2) 0.1770(18) 0.5099(18) 0.14(2) Uiso 1 1 d GD . .
H6 H 0.8598 0.1373 0.4785 0.171 Uiso 1 1 calc R . .
C7 C 0.986(5) 0.090(3) 0.501(7) 0.55(10) Uiso 1 1 d D . .
H35A H 0.9373 0.0546 0.4698 0.819 Uiso 1 1 calc R . .
H35B H 1.0099 0.0834 0.5421 0.819 Uiso 1 1 calc R . .
H35C H 1.0185 0.0821 0.4782 0.819 Uiso 1 1 calc R . .
C8 C 0.872(3) 0.537(3) 0.803(2) 0.17(3) Uani 1 1 d GD . .
C9 C 0.941(4) 0.535(3) 0.799(2) 0.20(4) Uani 1 1 d GD . .
C10 C 1.010(3) 0.576(3) 0.859(3) 0.25(4) Uiso 1 1 d GD . .
H10 H 1.0562 0.5744 0.8560 0.300 Uiso 1 1 calc R . .
C11 C 1.010(3) 0.618(3) 0.923(3) 0.50(9) Uiso 1 1 d GD . .
H11 H 1.0565 0.6450 0.9635 0.597 Uiso 1 1 calc R . .
C12 C 0.941(4) 0.620(3) 0.928(2) 0.61(10) Uiso 1 1 d GDU . .
C13 C 0.872(3) 0.580(3) 0.867(3) 0.26(4) Uiso 1 1 d GD . .
H13 H 0.8264 0.5808 0.8703 0.313 Uiso 1 1 calc R . .
C15 C 0.624(3) 0.310(2) 0.621(3) 0.15(3) Uani 1 1 d GD . .
C16 C 0.629(3) 0.248(3) 0.568(2) 0.13(2) Uani 1 1 d GD . .
C17 C 0.584(3) 0.179(3) 0.543(2) 0.19(3) Uani 1 1 d GD . .
H17 H 0.5868 0.1379 0.5075 0.231 Uiso 1 1 calc R . .
C18 C 0.535(3) 0.172(2) 0.570(3) 0.41(9) Uani 1 1 d GD . .
H18 H 0.5045 0.1255 0.5536 0.492 Uiso 1 1 calc R . .
C19 C 0.530(3) 0.233(3) 0.623(3) 0.31(5) Uiso 1 1 d GD . .
C20 C 0.575(3) 0.302(2) 0.649(2) 0.23(3) Uiso 1 1 d GD . .
H20 H 0.5721 0.3432 0.6840 0.279 Uiso 1 1 calc R . .
C21 C 0.475(5) 0.226(5) 0.651(5) 0.54(10) Uiso 1 1 d D . .
H21A H 0.4491 0.1755 0.6293 0.807 Uiso 1 1 calc R . .
H21B H 0.4379 0.2533 0.6409 0.807 Uiso 1 1 calc R . .
H21C H 0.5022 0.2456 0.7011 0.807 Uiso 1 1 calc R . .
C22 C 0.623(2) 0.5464(18) 0.6080(18) 0.093(15) Uiso 1 1 d G . .
C23 C 0.6297(17) 0.5528(18) 0.5538(18) 0.088(15) Uani 1 1 d G . .
C24 C 0.585(2) 0.591(2) 0.5242(16) 0.115(18) Uani 1 1 d G . .
H24 H 0.5896 0.5950 0.4880 0.138 Uiso 1 1 calc R . .
C25 C 0.535(2) 0.6220(18) 0.549(2) 0.15(3) Uani 1 1 d GD . .
C26 C 0.528(2) 0.616(2) 0.603(2) 0.14(2) Uani 1 1 d G . .
H26 H 0.4942 0.6365 0.6194 0.165 Uiso 1 1 calc R . .
C27 C 0.572(3) 0.578(2) 0.6325(17) 0.119(19) Uani 1 1 d G . .
H27 H 0.5682 0.5734 0.6687 0.143 Uiso 1 1 calc R . .
C28 C 0.482(3) 0.662(3) 0.519(4) 0.23(4) Uani 1 1 d D . .
H28A H 0.4892 0.6630 0.4820 0.339 Uiso 1 1 calc R . .
H28B H 0.4927 0.7113 0.5559 0.339 Uiso 1 1 calc R . .
H28C H 0.4295 0.6370 0.5019 0.339 Uiso 1 1 calc R . .
C29 C 0.651(2) 0.260(3) 0.3689(19) 0.17(3) Uiso 1 1 d GD . .
C30 C 0.609(3) 0.191(2) 0.312(3) 0.24(4) Uiso 1 1 d GD . .
H30 H 0.6142 0.1492 0.3174 0.291 Uiso 1 1 calc R . .
C31 C 0.559(3) 0.183(2) 0.248(2) 0.34(7) Uani 1 1 d GD . .
H31 H 0.5313 0.1370 0.2096 0.413 Uiso 1 1 calc R . .
C32 C 0.551(2) 0.245(3) 0.2398(15) 0.25(5) Uani 1 1 d GD . .
C33 C 0.593(2) 0.315(2) 0.2965(19) 0.17(3) Uani 1 1 d GD . .
H33 H 0.5878 0.3562 0.2913 0.205 Uiso 1 1 calc R . .
C34 C 0.643(2) 0.322(2) 0.3611(16) 0.16(3) Uani 1 1 d GD . .
C36 C 0.659(4) 0.519(5) 0.804(5) 0.16(3) Uani 1 1 d . . .
C37 C 0.640(3) 0.552(4) 0.860(3) 0.100(19) Uani 1 1 d . . .
C38 C 0.649(3) 0.528(3) 0.907(4) 0.13(2) Uani 1 1 d . . .
H38 H 0.6742 0.4908 0.9060 0.151 Uiso 1 1 calc R . .
C39 C 0.623(3) 0.558(3) 0.956(2) 0.081(14) Uani 1 1 d . . .
H39 H 0.6253 0.5397 0.9861 0.097 Uiso 1 1 calc R . .
C40 C 0.593(3) 0.615(3) 0.960(2) 0.074(14) Uani 1 1 d . . .
C41 C 0.584(3) 0.642(3) 0.917(3) 0.13(2) Uani 1 1 d . . .
H41 H 0.5596 0.6793 0.9192 0.151 Uiso 1 1 calc R . .
C42 C 0.612(3) 0.611(4) 0.865(3) 0.12(2) Uani 1 1 d . . .
H42 H 0.6116 0.6317 0.8370 0.147 Uiso 1 1 calc R . .
C43 C 0.571(3) 0.627(2) 1.055(2) 0.086(14) Uani 1 1 d . . .
H43A H 0.6233 0.6333 1.0865 0.103 Uiso 1 1 calc R . .
H43B H 0.5453 0.5746 1.0279 0.103 Uiso 1 1 calc R . .
C44 C 0.659(5) 0.532(4) 0.377(4) 0.13(3) Uani 1 1 d D . .
C45 C 0.636(4) 0.561(3) 0.326(3) 0.092(15) Uani 1 1 d D . .
C46 C 0.565(3) 0.555(3) 0.283(3) 0.102(17) Uani 1 1 d . . .
H46 H 0.5251 0.5338 0.2866 0.122 Uiso 1 1 calc R . .
C47 C 0.546(3) 0.578(3) 0.235(2) 0.097(16) Uani 1 1 d . . .
H47 H 0.4947 0.5719 0.2051 0.116 Uiso 1 1 calc R . .
C48 C 0.606(3) 0.611(3) 0.232(2) 0.086(15) Uani 1 1 d . . .
C49 C 0.681(3) 0.624(3) 0.275(3) 0.13(2) Uani 1 1 d . . .
H49 H 0.7206 0.6500 0.2751 0.151 Uiso 1 1 calc R . .
C50 C 0.695(3) 0.594(3) 0.322(3) 0.13(2) Uani 1 1 d . . .
H50 H 0.7450 0.5969 0.3501 0.156 Uiso 1 1 calc R . .
C51 C 1.1966(14) 0.5453(19) 0.8300(13) 0.098(15) Uiso 1 1 d G . .
C52 C 1.2319(19) 0.4904(13) 0.8347(15) 0.14(2) Uiso 1 1 d G . .
H52 H 1.2089 0.4418 0.7994 0.170 Uiso 1 1 calc R . .
C53 C 1.3018(19) 0.5080(16) 0.8920(19) 0.14(2) Uiso 1 1 d G . .
H53 H 1.3255 0.4712 0.8951 0.167 Uiso 1 1 calc R . .
C54 C 1.3363(14) 0.5806(19) 0.9447(14) 0.084(13) Uiso 1 1 d G . .
C55 C 1.3009(17) 0.6355(14) 0.9400(14) 0.110(17) Uani 1 1 d G . .
H55 H 1.3240 0.6841 0.9752 0.132 Uiso 1 1 calc R . .
C56 C 1.2310(17) 0.6179(16) 0.8826(17) 0.14(2) Uani 1 1 d G . .
H56 H 1.2074 0.6547 0.8795 0.173 Uiso 1 1 calc R . .
C57 C 1.447(2) 0.666(2) 1.048(2) 0.086(14) Uani 1 1 d . . .
H57A H 1.4191 0.6876 1.0748 0.103 Uiso 1 1 calc R . .
H57B H 1.4494 0.6941 1.0242 0.103 Uiso 1 1 calc R . .
C58 C 1.528(2) 0.670(2) 1.097(2) 0.068(12) Uani 1 1 d . . .
C59 C 1.521(2) 0.635(2) 1.141(2) 0.082(13) Uani 1 1 d . . .
H59A H 1.4939 0.6600 1.1673 0.098 Uiso 1 1 calc R . .
H59B H 1.4928 0.5836 1.1105 0.098 Uiso 1 1 calc R . .
C60 C 1.575(2) 0.749(2) 1.143(2) 0.077(13) Uani 1 1 d . . .
H60A H 1.6263 0.7522 1.1750 0.092 Uiso 1 1 calc R . .
H60B H 1.5799 0.7700 1.1145 0.092 Uiso 1 1 calc R . .
C61 C 0.664(4) 0.087(4) 0.385(3) 0.11(2) Uiso 1 1 d . . .
C62 C 0.630(2) 0.0077(16) 0.3286(16) 0.103(16) Uani 1 1 d G . .
C63 C 0.561(2) -0.031(2) 0.3153(17) 0.120(18) Uiso 1 1 d G . .
H63 H 0.5343 -0.0075 0.3404 0.144 Uiso 1 1 calc R . .
C64 C 0.5304(18) -0.104(2) 0.264(2) 0.14(2) Uani 1 1 d G . .
H64 H 0.4840 -0.1303 0.2554 0.173 Uiso 1 1 calc R . .
C65 C 0.570(3) -0.1395(16) 0.2267(16) 0.099(16) Uani 1 1 d G . .
C66 C 0.639(2) -0.101(3) 0.2400(19) 0.13(2) Uani 1 1 d G . .
H66 H 0.6652 -0.1242 0.2149 0.152 Uiso 1 1 calc R . .
C67 C 0.6690(16) -0.027(2) 0.291(2) 0.124(19) Uani 1 1 d G . .
H67 H 0.7154 -0.0014 0.2999 0.149 Uiso 1 1 calc R . .
C68 C 0.960(3) 0.5447(17) 0.5828(18) 0.077(14) Uani 1 1 d G . .
C69 C 0.8968(17) 0.5497(19) 0.533(2) 0.086(15) Uani 1 1 d G . .
C70 C 0.907(2) 0.588(2) 0.4993(15) 0.12(2) Uani 1 1 d G . .
H70 H 0.8642 0.5912 0.4659 0.149 Uiso 1 1 calc R . .
C71 C 0.980(3) 0.6209(18) 0.516(2) 0.13(2) Uani 1 1 d G . .
H71 H 0.9868 0.6464 0.4933 0.158 Uiso 1 1 calc R . .
C72 C 1.044(2) 0.6159(19) 0.566(2) 0.105(18) Uani 1 1 d GD . .
C73 C 1.0337(19) 0.578(2) 0.5992(16) 0.114(18) Uani 1 1 d G . .
H73 H 1.0762 0.5744 0.6326 0.136 Uiso 1 1 calc R . .
C74 C 1.120(3) 0.654(3) 0.581(4) 0.21(4) Uani 1 1 d D . .
H74A H 1.1597 0.6468 0.6159 0.316 Uiso 1 1 calc R . .
H74B H 1.1240 0.7052 0.5977 0.316 Uiso 1 1 calc R . .
H74C H 1.1264 0.6335 0.5386 0.316 Uiso 1 1 calc R . .
O1W O 0.759(3) 0.150(3) 0.554(3) 0.27(3) Uani 1 1 d . . .
C75 C 1.116(5) 0.517(5) 0.769(4) 0.19(4) Uani 1 1 d . . .
N1 N 0.833(2) 0.270(2) 0.534(2) 0.096(13) Uani 1 1 d . . .
N2 N 0.856(2) 0.343(2) 0.5794(18) 0.080(11) Uani 1 1 d . . .
N3 N 0.929(2) 0.3635(19) 0.6130(19) 0.094(12) Uani 1 1 d . . .
N4 N 0.925(3) 0.500(2) 0.734(2) 0.101(13) Uani 1 1 d . . .
N5 N 0.847(2) 0.477(2) 0.6980(18) 0.079(11) Uani 1 1 d . . .
N6 N 0.815(2) 0.502(2) 0.738(2) 0.106(13) Uani 1 1 d . . .
N7 N 0.672(3) 0.367(2) 0.635(2) 0.105(13) Uani 1 1 d . . .
N8 N 0.704(2) 0.343(2) 0.591(2) 0.075(11) Uani 1 1 d . . .
N9 N 0.680(3) 0.271(3) 0.552(2) 0.100(14) Uani 1 1 d . . .
N10 N 0.6809(18) 0.5156(19) 0.5392(17) 0.078(11) Uani 1 1 d . . .
N11 N 0.7066(19) 0.4897(17) 0.587(2) 0.072(10) Uani 1 1 d . . .
N12 N 0.672(2) 0.508(2) 0.629(2) 0.102(13) Uani 1 1 d . . .
N13 N 0.838(2) 0.514(2) 0.5304(18) 0.076(11) Uani 1 1 d . . .
N14 N 0.8563(18) 0.4835(18) 0.5711(16) 0.065(10) Uani 1 1 d . . .
N15 N 0.933(2) 0.504(2) 0.6049(17) 0.083(11) Uani 1 1 d . . .
N16 N 0.691(2) 0.380(2) 0.427(2) 0.095(12) Uani 1 1 d . . .
N17 N 0.7146(17) 0.349(3) 0.4654(16) 0.077(12) Uani 1 1 d D . .
N18 N 0.695(2) 0.278(3) 0.441(2) 0.107(16) Uani 1 1 d . . .
O1 O 0.726(2) 0.539(2) 0.414(2) 0.17(2) Uani 1 1 d . . .
O2 O 0.609(3) 0.500(3) 0.380(3) 0.153(19) Uani 1 1 d . . .
O3 O 0.5977(15) 0.6417(16) 0.1877(14) 0.088(9) Uani 1 1 d . . .
O4 O 1.0910(18) 0.572(3) 0.7637(19) 0.154(15) Uani 1 1 d . . .
O5 O 1.087(3) 0.459(3) 0.728(2) 0.19(2) Uani 1 1 d . . .
O6 O 1.4079(15) 0.5930(17) 0.9979(14) 0.095(10) Uani 1 1 d . . .
O7 O 0.729(2) 0.1186(18) 0.3997(18) 0.147(14) Uani 1 1 d . . .
O8 O 0.626(3) 0.119(2) 0.4124(18) 0.156(15) Uani 1 1 d . . .
O9 O 0.5368(17) -0.2126(17) 0.1808(16) 0.098(10) Uani 1 1 d . . .
O10 O 0.5691(17) 0.6539(16) 1.0094(15) 0.092(10) Uani 1 1 d . . .
O11 O 0.688(3) 0.462(3) 0.795(2) 0.17(2) Uani 1 1 d . . .
O12 O 0.656(3) 0.541(3) 0.761(2) 0.153(19) Uani 1 1 d . . .
C35 C 0.501(5) 0.237(5) 0.172(3) 0.48(9) Uiso 1 1 d D . .
H90A H 0.4758 0.1863 0.1393 0.715 Uiso 1 1 calc R . .
H90B H 0.5309 0.2556 0.1552 0.715 Uiso 1 1 calc R . .
H90C H 0.4638 0.2646 0.1764 0.715 Uiso 1 1 calc R . .
C14 C 0.942(7) 0.668(5) 0.996(4) 0.80(12) Uiso 1 1 d DU . .
H14A H 0.8901 0.6615 0.9905 1.193 Uiso 1 1 calc R . .
H14B H 0.9627 0.7182 1.0113 1.193 Uiso 1 1 calc R . .
H14C H 0.9723 0.6548 1.0305 1.193 Uiso 1 1 calc R . .

loop_
_atom_site_aniso_label
_atom_site_aniso_U_11
_atom_site_aniso_U_22
_atom_site_aniso_U_33
_atom_site_aniso_U_23
_atom_site_aniso_U_13
_atom_site_aniso_U_12
Zn1 0.073(3) 0.081(4) 0.059(3) 0.030(3) 0.027(3) 0.027(3)
Zn2 0.070(4) 0.106(5) 0.074(4) 0.040(3) 0.016(3) 0.027(3)
Zn3 0.089(4) 0.149(6) 0.082(4) 0.071(4) 0.034(3) 0.047(4)
Zn4 0.126(5) 0.102(5) 0.090(4) 0.039(4) 0.072(4) 0.041(4)
Zn5 0.091(5) 0.090(5) 0.094(4) 0.008(4) 0.043(4) 0.019(4)
C1 0.10(4) 0.06(3) 0.10(4) 0.02(3) 0.03(3) 0.03(3)
C2 0.07(4) 0.11(5) 0.09(4) 0.03(4) 0.01(3) 0.04(4)
C3 0.11(5) 0.10(5) 0.29(9) 0.07(6) 0.07(6) 0.06(4)
C4 0.11(5) 0.17(6) 0.22(7) 0.07(6) 0.06(5) 0.10(5)
C8 0.21(8) 0.18(6) 0.04(3) -0.02(4) 0.06(5) -0.01(6)
C9 0.13(6) 0.28(9) 0.06(4) -0.01(5) 0.04(4) -0.04(6)
C15 0.20(7) 0.09(5) 0.21(7) 0.04(5) 0.17(6) 0.02(5)
C16 0.17(7) 0.08(5) 0.13(5) 0.02(4) 0.09(5) 0.00(5)
C17 0.17(7) 0.10(6) 0.26(9) 0.01(5) 0.14(7) 0.00(5)
C18 0.44(17) 0.21(10) 0.7(2) 0.08(12) 0.49(18) 0.06(1