####################################################################### 
# 
# This file contains crystal structure data downloaded from the 
# Cambridge Structural Database (CSD) hosted by the Cambridge 
# Crystallographic Data Centre (CCDC).
# 
# Full information about CCDC data access policies and citation 
# guidelines are available at http://www.ccdc.cam.ac.uk/access/V1 
# 
# Audit and citation data items may have been added by the CCDC. 
# Please retain this information to preserve the provenance of 
# this file and to allow appropriate attribution of the data. 
# 
#######################################################################

data_DMOF-1
_audit_block_doi                 10.5517/ccxphln
_database_code_depnum_ccdc_archive 'CCDC 854812'
loop_
_citation_id
_citation_doi
_citation_year
1 10.1016/j.tet.2013.05.053 2013
2 10.1002/chem.201200696 2012
_audit_update_record             
;
2011-11-21 deposited with the CCDC.	2024-07-10 downloaded from the CCDC.
;
#TrackingRef 'DATA.cif'


_audit_creation_method           SHELXL-97
_chemical_name_systematic        
;
?
;
_chemical_name_common            ?
_chemical_melting_point          ?
_chemical_formula_moiety         ?
_chemical_formula_sum            'C69 H50 N18 O13 Zn5'
_chemical_formula_weight         1666.12

loop_
_atom_type_symbol
_atom_type_description
_atom_type_scat_dispersion_real
_atom_type_scat_dispersion_imag
_atom_type_scat_source
C C 0.0033 0.0016 'International Tables Vol C Tables 4.2.6.8 and 6.1.1.4'
H H 0.0000 0.0000 'International Tables Vol C Tables 4.2.6.8 and 6.1.1.4'
N N 0.0061 0.0033 'International Tables Vol C Tables 4.2.6.8 and 6.1.1.4'
O O 0.0106 0.0060 'International Tables Vol C Tables 4.2.6.8 and 6.1.1.4'
Zn Zn 0.2839 1.4301 'International Tables Vol C Tables 4.2.6.8 and 6.1.1.4'

_symmetry_cell_setting           monoclinic
_symmetry_space_group_name_H-M   C2/c
_symmetry_space_group_name_Hall  '-c 2yc'

loop_
_symmetry_equiv_pos_as_xyz
'x, y, z'
'-x, y, -z+1/2'
'x+1/2, y+1/2, z'
'-x+1/2, y+1/2, -z+1/2'
'-x, -y, -z'
'x, -y, z-1/2'
'-x+1/2, -y+1/2, -z'
'x+1/2, -y+1/2, z-1/2'

_cell_length_a                   41.096(3)
_cell_length_b                   21.3170(16)
_cell_length_c                   41.307(3)
_cell_angle_alpha                90.00
_cell_angle_beta                 116.1290(10)
_cell_angle_gamma                90.00
_cell_volume                     32489(4)
_cell_formula_units_Z            8
_cell_measurement_temperature    293(2)
_cell_measurement_reflns_used    ?
_cell_measurement_theta_min      1.10
_cell_measurement_theta_max      25.25

_exptl_crystal_description       block
_exptl_crystal_colour            colorless
_exptl_crystal_size_max          0.31
_exptl_crystal_size_mid          0.27
_exptl_crystal_size_min          0.25
_exptl_crystal_density_meas      ?
_exptl_crystal_density_diffrn    0.681
_exptl_crystal_density_method    'not measured'
_exptl_crystal_F_000             6752
_exptl_absorpt_coefficient_mu    0.761
_exptl_absorpt_correction_type   multi-scan
_exptl_absorpt_correction_T_min  0.790
_exptl_absorpt_correction_T_max  0.827
_exptl_absorpt_process_details   'SADABS (Sheldrick, 1996)'

_exptl_special_details           
;
?
;

_diffrn_ambient_temperature      293(2)
_diffrn_radiation_wavelength     0.71069
_diffrn_radiation_type           MoK\a
_diffrn_radiation_source         'fine-focus sealed tube'
_diffrn_radiation_monochromator  graphite
_diffrn_measurement_device_type  'Bruker APEX CCD area-detector'
_diffrn_measurement_method       '\w scans'
_diffrn_detector_area_resol_mean ?
_diffrn_standards_number         0
_diffrn_standards_interval_count 0
_diffrn_standards_interval_time  0
_diffrn_standards_decay_%        0
_diffrn_reflns_number            82604
_diffrn_reflns_av_R_equivalents  0.0988
_diffrn_reflns_av_sigmaI/netI    0.1972
_diffrn_reflns_limit_h_min       -48
_diffrn_reflns_limit_h_max       36
_diffrn_reflns_limit_k_min       -25
_diffrn_reflns_limit_k_max       24
_diffrn_reflns_limit_l_min       -29
_diffrn_reflns_limit_l_max       49
_diffrn_reflns_theta_min         1.10
_diffrn_reflns_theta_max         25.25
_reflns_number_total             28848
_reflns_number_gt                8503
_reflns_threshold_expression     >2sigma(I)

_computing_data_collection       'SMART (Bruker, 1997)'
_computing_cell_refinement       SMART
_computing_data_reduction        'SAINT (Bruker, 1999)'
_computing_structure_solution    'SHELXS-97(Sheldrick, 2008)'
_computing_structure_refinement  'SHELXL-97 (Sheldrick, 2008)'
_computing_molecular_graphics    'Diamond (Brandenburg and Putz, 2008)'
_computing_publication_material  SHELXL-97

_refine_special_details          
;
Refinement of F^2^ against ALL reflections. The weighted R-factor wR and
goodness of fit S are based on F^2^, conventional R-factors R are based
on F, with F set to zero for negative F^2^. The threshold expression of
F^2^ > 2sigma(F^2^) is used only for calculating R-factors(gt) etc. and is
not relevant to the choice of reflections for refinement. R-factors based
on F^2^ are statistically about twice as large as those based on F, and R-
factors based on ALL data will be even larger.
;

_refine_ls_structure_factor_coef Fsqd
_refine_ls_matrix_type           full
_refine_ls_weighting_scheme      calc
_refine_ls_weighting_details     
'calc w=1/[\s^2^(Fo^2^)+(0.0000P)^2^+0.0000P] where P=(Fo^2^+2Fc^2^)/3'
_atom_sites_solution_primary     direct
_atom_sites_solution_secondary   difmap
_atom_sites_solution_hydrogens   geom
_refine_ls_hydrogen_treatment    constr
_refine_ls_extinction_method     none
_refine_ls_extinction_coef       ?
_refine_ls_number_reflns         28848
_refine_ls_number_parameters     928
_refine_ls_number_restraints     42
_refine_ls_R_factor_all          0.1411
_refine_ls_R_factor_gt           0.0458
_refine_ls_wR_factor_ref         0.0744
_refine_ls_wR_factor_gt          0.0698
_refine_ls_goodness_of_fit_ref   0.891
_refine_ls_restrained_S_all      0.949
_refine_ls_shift/su_max          0.003
_refine_ls_shift/su_mean         0.000

loop_
_atom_site_label
_atom_site_type_symbol
_atom_site_fract_x
_atom_site_fract_y
_atom_site_fract_z
_atom_site_U_iso_or_equiv
_atom_site_adp_type
_atom_site_occupancy
_atom_site_symmetry_multiplicity
_atom_site_calc_flag
_atom_site_refinement_flags
_atom_site_disorder_assembly
_atom_site_disorder_group
Zn1 Zn 0.046533(13) 0.30231(2) 0.577797(11) 0.05895(17) Uani 1 1 d . . .
Zn2 Zn 0.012172(15) 0.29467(3) 0.482278(12) 0.07080(19) Uani 1 1 d . . .
Zn3 Zn 0.144753(16) 0.32452(3) 0.616688(14) 0.0846(2) Uani 1 1 d . . .
Zn4 Zn 0.006385(15) 0.43114(3) 0.602283(13) 0.07055(19) Uani 1 1 d . . .
Zn5 Zn 0.024999(18) 0.15534(3) 0.609741(15) 0.0959(2) Uani 1 1 d . . .
C9 C -0.07491(13) 0.2004(2) 0.21154(10) 0.0529(12) Uani 1 1 d . . .
C53 C 0.1129(2) 0.1153(3) 0.67707(19) 0.168(3) Uani 1 1 d . . .
H01 H 0.0939 0.0912 0.6769 0.202 Uiso 1 1 calc R . .
C34 C -0.02135(17) 0.3212(4) 0.63020(16) 0.117(2) Uani 1 1 d G . .
C54 C 0.1489(3) 0.1028(4) 0.6995(3) 0.246(5) Uani 1 1 d . . .
H02 H 0.1538 0.0692 0.7153 0.295 Uiso 1 1 calc R . .
C35 C -0.01612(15) 0.2552(3) 0.63520(16) 0.127(3) Uani 1 1 d G . .
C36 C -0.03290(17) 0.22207(18) 0.65265(16) 0.280(4) Uani 1 1 d GU . .
H003 H -0.0293 0.1791 0.6562 0.336 Uiso 1 1 calc R . .
C20 C -0.06661(18) 0.3375(3) 0.12785(16) 0.161(3) Uani 1 1 d . . .
H3 H -0.0855 0.3140 0.1109 0.194 Uiso 1 1 calc R . .
C55 C 0.1789(2) 0.1368(5) 0.7006(3) 0.261(6) Uani 1 1 d . . .
H03 H 0.2024 0.1237 0.7154 0.314 Uiso 1 1 calc R . .
C37 C -0.05514(16) 0.2532(3) 0.66480(16) 0.332(4) Uani 1 1 d GU . .
H004 H -0.0664 0.2311 0.6765 0.399 Uiso 1 1 calc R . .
C56 C 0.1728(2) 0.1906(4) 0.6791(2) 0.188(3) Uani 1 1 d . . .
H04 H 0.1916 0.2162 0.6804 0.226 Uiso 1 1 calc R . .
C52 C 0.1076(2) 0.1673(3) 0.65461(17) 0.111(2) Uani 1 1 d . . .
C38 C -0.06060(15) 0.3175(3) 0.65949(15) 0.318(4) Uani 1 1 d GU . .
H005 H -0.0755 0.3383 0.6676 0.382 Uiso 1 1 calc R . .
C23 C -0.01304(15) 0.4079(3) 0.1733(2) 0.120(2) Uani 1 1 d . . .
H6 H 0.0063 0.4315 0.1896 0.144 Uiso 1 1 calc R . .
C39 C -0.0438(2) 0.35061(19) 0.64204(19) 0.269(4) Uani 1 1 d GU . .
H006 H -0.0479 0.3935 0.6383 0.323 Uiso 1 1 calc R . .
C48 C 0.1219(2) 0.5517(3) 0.67964(18) 0.163(3) Uani 1 1 d . . .
H010 H 0.1232 0.5901 0.6909 0.195 Uiso 1 1 calc R . .
C24 C -0.02338(16) 0.3577(3) 0.18670(14) 0.108(2) Uani 1 1 d . . .
H11 H -0.0121 0.3480 0.2111 0.129 Uiso 1 1 calc R . .
C10 C -0.11462(12) 0.22251(19) 0.19650(10) 0.0605(13) Uani 1 1 d . . .
H12A H -0.1158 0.2619 0.2077 0.073 Uiso 1 1 calc R . .
H12B H -0.1243 0.2292 0.1707 0.073 Uiso 1 1 calc R . .
C60 C 0.16306(19) 0.3193(4) 0.5064(2) 0.191(4) Uani 1 1 d . . .
H14 H 0.1857 0.3211 0.5066 0.229 Uiso 1 1 calc R . .
C61 C 0.1311(3) 0.3152(3) 0.4739(2) 0.158(3) Uani 1 1 d . . .
H15 H 0.1335 0.3180 0.4526 0.190 Uiso 1 1 calc R . .
C14 C -0.2500(2) 0.1832(3) 0.15828(16) 0.096(2) Uani 1 1 d . . .
C25 C -0.06003(10) 0.18606(18) 0.25212(9) 0.0579(13) Uani 1 1 d . . .
H16A H -0.0725 0.1500 0.2558 0.069 Uiso 1 1 calc R . .
H16B H -0.0344 0.1765 0.2621 0.069 Uiso 1 1 calc R . .
C21 C -0.0534(2) 0.3899(4) 0.11800(15) 0.158(3) Uani 1 1 d . . .
H17 H -0.0638 0.4002 0.0936 0.189 Uiso 1 1 calc R . .
C46 C 0.0897(2) 0.4684(3) 0.64307(13) 0.0774(17) Uani 1 1 d . . .
C40 C -0.02665(14) 0.4168(2) 0.49036(14) 0.0631(15) Uani 1 1 d . . .
C26 C -0.04942(14) 0.2406(3) 0.30657(13) 0.0658(15) Uani 1 1 d . . .
C1 C -0.07398(13) -0.1412(2) 0.69076(10) 0.0637(14) Uani 1 1 d . . .
H31A H -0.0814 -0.1514 0.6656 0.076 Uiso 1 1 calc R . .
H31B H -0.0906 -0.1101 0.6921 0.076 Uiso 1 1 calc R . .
C28 C -0.01274(13) 0.2060(2) 0.36508(13) 0.0843(18) Uani 1 1 d . . .
H33 H 0.0024 0.1756 0.3806 0.101 Uiso 1 1 calc R . .
C19 C -0.05106(17) 0.3220(3) 0.16273(17) 0.0742(16) Uani 1 1 d . . .
C18 C -0.05158(11) 0.25301(19) 0.20787(11) 0.0604(13) Uani 1 1 d . . .
H37A H -0.0520 0.2890 0.2220 0.073 Uiso 1 1 calc R . .
H37B H -0.0267 0.2390 0.2166 0.073 Uiso 1 1 calc R . .
C11 C -0.17244(16) 0.1813(3) 0.18892(13) 0.0733(16) Uani 1 1 d . . .
C41 C -0.04735(14) 0.4352(2) 0.45440(13) 0.0768(16) Uani 1 1 d . . .
H39 H -0.0472 0.4132 0.4350 0.092 Uiso 1 1 calc R . .
C29 C -0.02015(14) 0.2582(3) 0.37899(13) 0.0708(16) Uani 1 1 d . . .
C32 C -0.00267(17) 0.2660(3) 0.41974(15) 0.085(2) Uani 1 1 d . . .
C45 C -0.02834(13) 0.4496(2) 0.51892(14) 0.0568(14) Uani 1 1 d . . .
C17 C -0.19071(16) 0.2317(2) 0.16912(13) 0.0766(16) Uani 1 1 d . . .
H45 H -0.1781 0.2657 0.1661 0.092 Uiso 1 1 calc R . .
C51 C 0.1230(2) 0.4448(3) 0.64663(15) 0.0815(18) Uani 1 1 d . . .
C8 C -0.0011(2) 0.0779(3) 0.6359(2) 0.116(3) Uani 1 1 d . . .
C15 C -0.29131(19) 0.1858(4) 0.14163(19) 0.098(3) Uani 1 1 d . . .
C6 C 0.01133(14) 0.0066(2) 0.68769(17) 0.0825(16) Uani 1 1 d . . .
H56 H 0.0344 0.0238 0.6994 0.099 Uiso 1 1 calc R . .
C5 C -0.0123(2) 0.0284(3) 0.65430(16) 0.087(2) Uani 1 1 d . . .
C7 C 0.00081(16) -0.0418(2) 0.70432(12) 0.0694(15) Uani 1 1 d . . .
H59 H 0.0168 -0.0554 0.7273 0.083 Uiso 1 1 calc R . .
C3 C -0.05711(15) -0.0471(3) 0.65468(14) 0.101(2) Uani 1 1 d . . .
H62 H -0.0804 -0.0636 0.6433 0.122 Uiso 1 1 calc R . .
C33 C -0.0142(2) 0.5185(4) 0.6253(2) 0.116(3) Uani 1 1 d . . .
C27 C -0.02681(12) 0.1969(2) 0.32907(14) 0.0751(16) Uani 1 1 d . . .
H65 H -0.0210 0.1610 0.3199 0.090 Uiso 1 1 calc R . .
C16 C -0.22892(19) 0.2321(3) 0.15312(12) 0.0935(18) Uani 1 1 d . . .
H67 H -0.2410 0.2659 0.1385 0.112 Uiso 1 1 calc R . .
C63 C 0.0957(2) 0.3086(3) 0.5048(2) 0.0890(19) Uani 1 1 d . . .
C30 C -0.04223(14) 0.3028(2) 0.35674(14) 0.0883(17) Uani 1 1 d . . .
H77 H -0.0470 0.3389 0.3666 0.106 Uiso 1 1 calc R . .
C43 C -0.06931(13) 0.5214(2) 0.47837(17) 0.0834(17) Uani 1 1 d . . .
H79 H -0.0841 0.5567 0.4732 0.100 Uiso 1 1 calc R . .
C42 C -0.06734(14) 0.4870(3) 0.45029(14) 0.0867(18) Uani 1 1 d . . .
H81 H -0.0810 0.5014 0.4269 0.104 Uiso 1 1 calc R . .
C12 C -0.1913(2) 0.1349(3) 0.19537(16) 0.132(3) Uani 1 1 d . . .
H82 H -0.1785 0.1019 0.2103 0.158 Uiso 1 1 calc R . .
C62 C 0.09609(18) 0.3072(3) 0.47072(16) 0.126(2) Uani 1 1 d . . .
H88 H 0.0756 0.3018 0.4489 0.151 Uiso 1 1 calc R . .
C50 C 0.15549(17) 0.4716(3) 0.66629(16) 0.126(3) Uani 1 1 d . . .
H89 H 0.1771 0.4545 0.6683 0.152 Uiso 1 1 calc R . .
C4 C -0.04563(18) 0.0013(3) 0.63914(14) 0.107(2) Uani 1 1 d . . .
H90 H -0.0621 0.0161 0.6167 0.128 Uiso 1 1 calc R . .
C49 C 0.15401(19) 0.5250(3) 0.6828(2) 0.158(3) Uani 1 1 d . . .
H92 H 0.1757 0.5453 0.6971 0.190 Uiso 1 1 calc R . .
C47 C 0.08805(18) 0.5243(3) 0.66056(16) 0.119(2) Uani 1 1 d . . .
H93 H 0.0667 0.5409 0.6595 0.142 Uiso 1 1 calc R . .
C22 C -0.02761(19) 0.4260(3) 0.1401(2) 0.094(2) Uani 1 1 d . . .
C13 C -0.2302(2) 0.1344(3) 0.18012(19) 0.136(3) Uani 1 1 d . . .
H96 H -0.2420 0.1012 0.1850 0.164 Uiso 1 1 calc R . .
C59 C 0.1595(2) 0.3206(3) 0.53737(16) 0.136(3) Uani 1 1 d . . .
H97 H 0.1799 0.3257 0.5592 0.163 Uiso 1 1 calc R . .
C57 C 0.1362(2) 0.2034(4) 0.65531(18) 0.112(2) Uani 1 1 d . . .
C58 C 0.12571(18) 0.3145(3) 0.5371(2) 0.092(2) Uani 1 1 d . . .
C44 C -0.04896(13) 0.5023(2) 0.51412(13) 0.0707(15) Uani 1 1 d . . .
H103 H -0.0494 0.5242 0.5334 0.085 Uiso 1 1 calc R . .
C2 C -0.03216(16) -0.0688(2) 0.68749(15) 0.0632(15) Uani 1 1 d . . .
C31 C -0.05780(12) 0.2959(2) 0.31957(13) 0.0809(16) Uani 1 1 d . . .
H106 H -0.0730 0.3263 0.3041 0.097 Uiso 1 1 calc R . .
C64 C -0.01696(13) 0.16924(18) 0.49981(14) 0.141(3) Uani 1 1 d G . .
C65 C -0.01384(13) 0.1374(3) 0.53040(10) 0.151(3) Uani 1 1 d G . .
C66 C -0.03094(17) 0.0798(3) 0.52701(13) 0.274(5) Uani 1 1 d GU . .
H66 H -0.0288 0.0585 0.5475 0.329 Uiso 1 1 calc R . .
C67 C -0.05115(16) 0.05412(19) 0.49304(17) 0.332(5) Uani 1 1 d GU . .
H67A H -0.0626 0.0156 0.4908 0.399 Uiso 1 1 calc R . .
C68 C -0.05427(15) 0.0860(3) 0.46245(11) 0.334(4) Uani 1 1 d GU . .
H68 H -0.0678 0.0688 0.4397 0.401 Uiso 1 1 calc R . .
C69 C -0.03718(16) 0.1436(2) 0.46584(11) 0.280(4) Uani 1 1 d GU . .
H69 H -0.0393 0.1649 0.4454 0.336 Uiso 1 1 calc R . .
N1 N 0.00603(13) 0.1750(2) 0.55721(10) 0.1057(17) Uani 1 1 d . . .
N2 N -0.00415(10) 0.36702(17) 0.50443(10) 0.0610(12) Uani 1 1 d . . .
N3 N 0.01563(10) 0.22525(17) 0.54332(11) 0.0658(12) Uani 1 1 d . . .
N4 N 0.00172(11) 0.22370(17) 0.50770(10) 0.0811(14) Uani 1 1 d . . .
N5 N 0.00808(9) 0.36902(16) 0.54052(10) 0.0551(11) Uani 1 1 d . . .
N6 N -0.00567(10) 0.41817(19) 0.54974(9) 0.0587(11) Uani 1 1 d . . .
N7 N 0.06120(11) 0.4306(2) 0.62159(10) 0.0635(12) Uani 1 1 d . . .
N8 N 0.07692(13) 0.38396(18) 0.61246(8) 0.0601(11) Uani 1 1 d . . .
N9 N 0.11388(13) 0.3904(2) 0.62683(11) 0.0704(12) Uani 1 1 d . . .
N10 N 0.12251(15) 0.2505(2) 0.63102(12) 0.0796(14) Uani 1 1 d . . .
N11 N 0.08692(14) 0.2409(2) 0.61613(10) 0.0689(12) Uani 1 1 d . . .
N12 N 0.07704(12) 0.1905(2) 0.62931(12) 0.0852(15) Uani 1 1 d . . .
N13 N 0.00451(12) 0.2412(2) 0.61827(11) 0.0875(15) Uani 1 1 d . . .
N14 N 0.01319(10) 0.2962(2) 0.60720(9) 0.0661(11) Uani 1 1 d . . .
N15 N -0.00197(13) 0.3448(2) 0.61448(11) 0.0829(14) Uani 1 1 d . . .
N16 N 0.06669(11) 0.30375(16) 0.51198(11) 0.0638(11) Uani 1 1 d . . .
N17 N 0.08023(13) 0.30910(16) 0.54739(12) 0.0592(11) Uani 1 1 d . . .
N18 N 0.11567(14) 0.31508(18) 0.56300(10) 0.0704(13) Uani 1 1 d . . .
O1 O 0.02994(12) 0.10390(19) 0.65385(11) 0.1190(16) Uani 1 1 d . . .
O2 O -0.02041(14) 0.0942(2) 0.60664(11) 0.1397(19) Uani 1 1 d . . .
O1W O 0.04667(12) 0.06493(16) 0.59383(10) 0.1839(18) Uani 1 1 d . . .
O3 O 0.01828(12) 0.22840(18) 0.43896(9) 0.1259(18) Uani 1 1 d . . .
O4 O -0.01411(9) 0.31341(16) 0.43097(8) 0.0993(13) Uani 1 1 d . . .
O5 O -0.02652(18) 0.5031(2) 0.59669(11) 0.186(3) Uani 1 1 d . . .
O6 O 0.00710(12) 0.4846(2) 0.64982(12) 0.1499(18) Uani 1 1 d . . .
O7 O -0.30604(12) 0.2268(2) 0.12047(11) 0.142(2) Uani 1 1 d . . .
O8 O -0.30620(13) 0.1476(2) 0.15116(14) 0.166(2) Uani 1 1 d . . .
O9 O -0.13594(10) 0.17563(14) 0.20385(7) 0.0769(10) Uani 1 1 d . . .
O10 O -0.06563(8) 0.23931(13) 0.26950(8) 0.0731(10) Uani 1 1 d . . .
O11 O -0.06554(8) 0.26932(15) 0.17151(8) 0.0829(11) Uani 1 1 d . . .
O12 O -0.03781(8) -0.11690(14) 0.70645(7) 0.0628(9) Uani 1 1 d . . .

loop_
_atom_site_aniso_label
_atom_site_aniso_U_11
_atom_site_aniso_U_22
_atom_site_aniso_U_33
_atom_site_aniso_U_23
_atom_site_aniso_U_13
_atom_site_aniso_U_12
Zn1 0.0673(4) 0.0550(4) 0.0522(3) 0.0051(3) 0.0242(3) 0.0047(3)
Zn2 0.0905(5) 0.0667(4) 0.0518(3) -0.0005(3) 0.0282(3) 0.0091(4)
Zn3 0.0605(5) 0.0993(5) 0.0828(4) -0.0103(4) 0.0214(4) 0.0080(4)
Zn4 0.0832(5) 0.0716(5) 0.0632(4) -0.0003(3) 0.0379(3) 0.0131(4)
Zn5 0.1164(6) 0.0796(5) 0.0836(5) 0.0260(4) 0.0366(4) -0.0123(4)
C9 0.050(4) 0.068(4) 0.037(3) 0.014(3) 0.017(3) 0.002(3)
C53 0.127(7) 0.151(7) 0.170(7) 0.100(5) 0.014(6) 0.018(6)
C34 0.131(6) 0.156(8) 0.116(5) -0.005(5) 0.103(4) 0.016(6)
C54 0.201(12) 0.189(10) 0.263(10) 0.145(8) 0.025(10) 0.007(9)
C35 0.203(8) 0.079(6) 0.156(6) 0.017(5) 0.133(5) 0.019(6)
C36 0.468(10) 0.139(7) 0.476(9) 0.115(6) 0.431(7) 0.050(6)
C20 0.261(8) 0.138(6) 0.046(4) -0.003(4) 0.032(5) -0.108(6)
C55 0.136(9) 0.252(12) 0.321(11) 0.206(9) 0.032(8) 0.013(8)
C37 0.474(9) 0.274(8) 0.503(8) 0.077(6) 0.448(7) 0.022(6)
C56 0.120(8) 0.171(