####################################################################### 
# 
# This file contains crystal structure data downloaded from the 
# Cambridge Structural Database (CSD) hosted by the Cambridge 
# Crystallographic Data Centre (CCDC).
# 
# Full information about CCDC data access policies and citation 
# guidelines are available at http://www.ccdc.cam.ac.uk/access/V1 
# 
# Audit and citation data items may have been added by the CCDC. 
# Please retain this information to preserve the provenance of 
# this file and to allow appropriate attribution of the data. 
# 
#######################################################################

data_DMOF-1b
_audit_block_doi                 10.5517/ccxphwy
_database_code_depnum_ccdc_archive 'CCDC 854821'
loop_
_citation_id
_citation_doi
_citation_year
1 10.1002/chem.201200696 2012
_audit_update_record             
;
2011-11-21 deposited with the CCDC.	2024-07-10 downloaded from the CCDC.
;
#TrackingRef 'DATA.cif'
#3

_audit_creation_method           SHELXL-97
_chemical_name_systematic        
;
?
;
_chemical_name_common            ?
_chemical_melting_point          ?
_chemical_formula_moiety         ?
_chemical_formula_sum            'C93 H66 N18 O13 Zn5'
_chemical_formula_weight         1970.49

loop_
_atom_type_symbol
_atom_type_description
_atom_type_scat_dispersion_real
_atom_type_scat_dispersion_imag
_atom_type_scat_source
C C 0.0033 0.0016 'International Tables Vol C Tables 4.2.6.8 and 6.1.1.4'
H H 0.0000 0.0000 'International Tables Vol C Tables 4.2.6.8 and 6.1.1.4'
N N 0.0061 0.0033 'International Tables Vol C Tables 4.2.6.8 and 6.1.1.4'
O O 0.0106 0.0060 'International Tables Vol C Tables 4.2.6.8 and 6.1.1.4'
Zn Zn 0.2839 1.4301 'International Tables Vol C Tables 4.2.6.8 and 6.1.1.4'

_symmetry_cell_setting           monoclinic
_symmetry_space_group_name_H-M   C2/c
_symmetry_space_group_name_Hall  '-c 2yc'

loop_
_symmetry_equiv_pos_as_xyz
'x, y, z'
'-x, y, -z+1/2'
'x+1/2, y+1/2, z'
'-x+1/2, y+1/2, -z+1/2'
'-x, -y, -z'
'x, -y, z-1/2'
'-x+1/2, -y+1/2, -z'
'x+1/2, -y+1/2, z-1/2'

_cell_length_a                   56.861(4)
_cell_length_b                   24.4238(15)
_cell_length_c                   27.1242(15)
_cell_angle_alpha                90.00
_cell_angle_beta                 117.7238(10)
_cell_angle_gamma                90.00
_cell_volume                     33345(3)
_cell_formula_units_Z            8
_cell_measurement_temperature    293(2)
_cell_measurement_reflns_used    ?
_cell_measurement_theta_min      3.00
_cell_measurement_theta_max      27.49

_exptl_crystal_description       block
_exptl_crystal_colour            colorless
_exptl_crystal_size_max          0.37
_exptl_crystal_size_mid          0.35
_exptl_crystal_size_min          0.32
_exptl_crystal_density_meas      ?
_exptl_crystal_density_diffrn    0.785
_exptl_crystal_density_method    'not measured'
_exptl_crystal_F_000             8032
_exptl_absorpt_coefficient_mu    0.748
_exptl_absorpt_correction_type   multi-scan
_exptl_absorpt_correction_T_min  0.766
_exptl_absorpt_correction_T_max  0.787
_exptl_absorpt_process_details   'SADABS (Sheldrick, 1996)'

_exptl_special_details           
;
?
;

_diffrn_ambient_temperature      293(2)
_diffrn_radiation_wavelength     0.71069
_diffrn_radiation_type           MoK\a
_diffrn_radiation_source         'fine-focus sealed tube'
_diffrn_radiation_monochromator  graphite
_diffrn_measurement_device_type  'Bruker APEX CCD area-detector'
_diffrn_measurement_method       '\w scans'
_diffrn_detector_area_resol_mean ?
_diffrn_standards_number         0
_diffrn_standards_interval_count 0
_diffrn_standards_interval_time  0
_diffrn_standards_decay_%        0
_diffrn_reflns_number            148848
_diffrn_reflns_av_R_equivalents  0.1096
_diffrn_reflns_av_sigmaI/netI    0.1920
_diffrn_reflns_limit_h_min       -73
_diffrn_reflns_limit_h_max       73
_diffrn_reflns_limit_k_min       -31
_diffrn_reflns_limit_k_max       31
_diffrn_reflns_limit_l_min       -31
_diffrn_reflns_limit_l_max       34
_diffrn_reflns_theta_min         3.00
_diffrn_reflns_theta_max         27.48
_reflns_number_total             37204
_reflns_number_gt                7184
_reflns_threshold_expression     >2sigma(I)

_computing_data_collection       ?
_computing_cell_refinement       ?
_computing_data_reduction        ?
_computing_structure_solution    ?
_computing_structure_refinement  'SHELXL-97 (Sheldrick, 1997)'
_computing_molecular_graphics    ?
_computing_publication_material  ?

_refine_special_details          
;
Refinement of F^2^ against ALL reflections. The weighted R-factor wR and
goodness of fit S are based on F^2^, conventional R-factors R are based
on F, with F set to zero for negative F^2^. The threshold expression of
F^2^ > 2sigma(F^2^) is used only for calculating R-factors(gt) etc. and is
not relevant to the choice of reflections for refinement. R-factors based
on F^2^ are statistically about twice as large as those based on F, and R-
factors based on ALL data will be even larger.
;

_refine_ls_structure_factor_coef Fsqd
_refine_ls_matrix_type           full
_refine_ls_weighting_scheme      calc
_refine_ls_weighting_details     
'calc w=1/[\s^2^(Fo^2^)+(0.2000P)^2^+0.0000P] where P=(Fo^2^+2Fc^2^)/3'
_atom_sites_solution_primary     direct
_atom_sites_solution_secondary   difmap
_atom_sites_solution_hydrogens   geom
_refine_ls_hydrogen_treatment    constr
_refine_ls_extinction_method     none
_refine_ls_extinction_coef       ?
_refine_ls_number_reflns         37204
_refine_ls_number_parameters     494
_refine_ls_number_restraints     23
_refine_ls_R_factor_all          0.3945
_refine_ls_R_factor_gt           0.1448
_refine_ls_wR_factor_ref         0.4758
_refine_ls_wR_factor_gt          0.4051
_refine_ls_goodness_of_fit_ref   0.967
_refine_ls_restrained_S_all      17.362
_refine_ls_shift/su_max          0.001
_refine_ls_shift/su_mean         0.000

loop_
_atom_site_label
_atom_site_type_symbol
_atom_site_fract_x
_atom_site_fract_y
_atom_site_fract_z
_atom_site_U_iso_or_equiv
_atom_site_adp_type
_atom_site_occupancy
_atom_site_symmetry_multiplicity
_atom_site_calc_flag
_atom_site_refinement_flags
_atom_site_disorder_assembly
_atom_site_disorder_group
Zn1 Zn 0.2243(4) 1.0771(9) 0.0691(9) 0.125(9) Uani 1 1 d . . .
Zn2 Zn 0.2653(4) 1.0774(10) 0.0018(10) 0.136(10) Uani 1 1 d . . .
Zn3 Zn 0.1814(4) 1.1926(11) 0.0229(10) 0.141(10) Uani 1 1 d . . .
Zn4 Zn 0.2642(5) 1.0873(11) 0.2165(10) 0.150(11) Uani 1 1 d . . .
Zn5 Zn 0.1864(6) 0.9502(13) 0.0360(13) 0.179(13) Uani 1 1 d . . .
C1 C 0.232(4) 0.984(9) 0.207(10) 0.15(7) Uiso 1 1 d . . .
C2 C 0.215(5) 0.952(10) 0.165(10) 0.16(7) Uiso 1 1 d . . .
C3 C 0.203(6) 0.899(11) 0.174(12) 0.21(10) Uiso 1 1 d . . .
H3 H 0.1919 0.8756 0.1465 0.253 Uiso 1 1 calc R . .
C4 C 0.213(6) 0.893(12) 0.231(14) 0.22(11) Uiso 1 1 d . . .
H4 H 0.2056 0.8636 0.2417 0.264 Uiso 1 1 calc R . .
C5 C 0.231(7) 0.926(12) 0.275(14) 0.23(12) Uiso 1 1 d . . .
H5 H 0.2366 0.9151 0.3118 0.275 Uiso 1 1 calc R . .
C6 C 0.240(5) 0.972(11) 0.263(11) 0.20(9) Uiso 1 1 d . . .
H6 H 0.2518 0.9951 0.2915 0.234 Uiso 1 1 calc R . .
C7 C 0.234(3) 1.185(7) -0.047(7) 0.12(5) Uiso 1 1 d . . .
C8 C 0.214(3) 1.210(7) -0.041(7) 0.11(5) Uiso 1 1 d . . .
C9 C 0.202(4) 1.261(8) -0.071(8) 0.14(6) Uiso 1 1 d . . .
H9 H 0.1890 1.2805 -0.0669 0.172 Uiso 1 1 calc R . .
C10 C 0.212(4) 1.277(9) -0.108(9) 0.16(7) Uiso 1 1 d . . .
H10 H 0.2052 1.3072 -0.1303 0.195 Uiso 1 1 calc R . .
C11 C 0.233(4) 1.248(9) -0.111(8) 0.15(7) Uiso 1 1 d . . .
H11 H 0.2392 1.2630 -0.1338 0.180 Uiso 1 1 calc R . .
C12 C 0.244(4) 1.200(8) -0.084(7) 0.14(6) Uiso 1 1 d . . .
H12 H 0.2571 1.1809 -0.0885 0.162 Uiso 1 1 calc R . .
C13 C 0.231(5) 0.973(10) -0.051(10) 0.17(8) Uiso 1 1 d . . .
C14 C 0.239(5) 0.960(11) -0.091(10) 0.19(9) Uiso 1 1 d . . .
H14 H 0.2509 0.9808 -0.0983 0.223 Uiso 1 1 calc R . .
C15 C 0.227(7) 0.914(14) -0.117(14) 0.24(13) Uiso 1 1 d . . .
H15 H 0.2314 0.9023 -0.1447 0.288 Uiso 1 1 calc R . .
C16 C 0.211(7) 0.884(14) -0.109(14) 0.25(14) Uiso 1 1 d . . .
H16 H 0.2044 0.8519 -0.1301 0.305 Uiso 1 1 calc R . .
C17 C 0.202(6) 0.895(13) -0.073(13) 0.23(12) Uiso 1 1 d . . .
H17 H 0.1902 0.8730 -0.0682 0.280 Uiso 1 1 calc R . .
C18 C 0.213(6) 0.946(12) -0.040(12) 0.19(9) Uiso 1 1 d . . .
C19 C 0.202(6) 1.276(12) 0.149(13) 0.22(11) Uiso 1 1 d . . .
H19 H 0.1882 1.2919 0.1184 0.270 Uiso 1 1 calc R . .
C20 C 0.214(4) 1.221(9) 0.145(9) 0.15(7) Uiso 1 1 d . . .
C21 C 0.234(5) 1.195(9) 0.196(10) 0.16(7) Uiso 1 1 d . . .
C22 C 0.245(5) 1.221(11) 0.249(12) 0.20(9) Uiso 1 1 d . . .
H22 H 0.2571 1.2039 0.2815 0.239 Uiso 1 1 calc R . .
C23 C 0.235(7) 1.277(15) 0.247(15) 0.26(14) Uiso 1 1 d . . .
H23 H 0.2425 1.2978 0.2794 0.308 Uiso 1 1 calc R . .
C24 C 0.214(8) 1.300(16) 0.198(18) 0.29(17) Uiso 1 1 d . . .
H24 H 0.2073 1.3341 0.2011 0.350 Uiso 1 1 calc R . .
C25 C 0.308(5) 1.082(7) 0.129(9) 0.14(7) Uiso 1 1 d . . .
C26 C 0.308(5) 1.085(8) 0.176(10) 0.15(7) Uiso 1 1 d . . .
C27 C 0.331(6) 1.085(8) 0.229(11) 0.19(9) Uiso 1 1 d . . .
H27 H 0.3316 1.0827 0.2634 0.223 Uiso 1 1 calc R . .
C28 C 0.353(6) 1.089(9) 0.221(12) 0.20(10) Uiso 1 1 d . . .
H28 H 0.3694 1.0911 0.2528 0.240 Uiso 1 1 calc R . .
C29 C 0.354(7) 1.089(10) 0.174(13) 0.21(11) Uiso 1 1 d . . .
H29 H 0.3705 1.0953 0.1753 0.257 Uiso 1 1 calc R . .
C30 C 0.331(5) 1.081(8) 0.121(11) 0.18(9) Uiso 1 1 d . . .
H30 H 0.3317 1.0757 0.0878 0.212 Uiso 1 1 calc R . .
C31 C 0.141(6) 1.101(14) -0.011(10) 0.24(12) Uiso 1 1 d G . .
C32 C 0.143(6) 1.044(15) -0.007(9) 0.24(12) Uiso 1 1 d G . .
C33 C 0.120(9) 1.012(8) -0.034(13) 0.33(19) Uiso 1 1 d G . .
H33 H 0.1207 0.9744 -0.0309 0.402 Uiso 1 1 calc R . .
C34 C 0.095(6) 1.038(17) -0.065(12) 0.4(3) Uiso 1 1 d G . .
H34 H 0.0799 1.0165 -0.0829 0.509 Uiso 1 1 calc R . .
C35 C 0.094(6) 1.094(18) -0.069(11) 0.4(3) Uiso 1 1 d G . .
H35 H 0.0773 1.1112 -0.0900 0.489 Uiso 1 1 calc R . .
C36 C 0.116(9) 1.126(8) -0.042(13) 0.4(2) Uiso 1 1 d G . .
H36 H 0.1154 1.1638 -0.0451 0.441 Uiso 1 1 calc R . .
C37 C 0.151(6) 0.893(12) 0.005(14) 0.20(10) Uiso 1 1 d D . .
C38 C 0.127(6) 0.855(12) -0.024(14) 0.22(11) Uiso 1 1 d D . .
C39 C 0.116(8) 0.833(14) -0.076(17) 0.29(16) Uiso 1 1 d . . .
H39 H 0.1213 0.8455 -0.1010 0.343 Uiso 1 1 calc R . .
C40 C 0.095(5) 0.789(12) -0.095(13) 0.25(13) Uiso 1 1 d D . .
H40 H 0.0916 0.7688 -0.1270 0.300 Uiso 1 1 calc R . .
C41 C 0.080(6) 0.778(11) -0.068(13) 0.21(11) Uiso 1 1 d . . .
C42 C 0.092(6) 0.803(12) -0.014(16) 0.29(16) Uiso 1 1 d D . .
H42 H 0.0837 0.7986 0.0095 0.349 Uiso 1 1 calc R . .
C43 C 0.117(8) 0.836(16) 0.006(17) 0.31(18) Uiso 1 1 d . . .
H43 H 0.1257 0.8437 0.0439 0.368 Uiso 1 1 calc R . .
C44 C 0.041(4) 0.726(8) -0.149(9) 0.33(19) Uiso 1 1 d GD . .
H44 H 0.0456 0.7431 -0.1746 0.402 Uiso 1 1 calc R . .
C45 C 0.020(4) 0.689(8) -0.168(7) 0.20(10) Uiso 1 1 d GD . .
H45 H 0.0103 0.6819 -0.2055 0.242 Uiso 1 1 calc R . .
C46 C 0.014(4) 0.664(8) -0.130(8) 0.29(16) Uiso 1 1 d GD . .
C47 C 0.029(5) 0.675(9) -0.073(8) 0.4(2) Uiso 1 1 d GD . .
H47 H 0.0243 0.6577 -0.0477 0.437 Uiso 1 1 calc R . .
C48 C 0.050(4) 0.711(9) -0.055(7) 0.4(2) Uiso 1 1 d GD . .
H48 H 0.0595 0.7188 -0.0168 0.475 Uiso 1 1 calc R . .
C49 C 0.056(4) 0.737(8) -0.093(10) 0.23(12) Uiso 1 1 d G . .
C50 C 0.481(6) 1.128(12) 0.812(14) 0.24(14) Uiso 1 1 d D . .
H50A H 0.4839 1.1383 0.7808 0.283 Uiso 1 1 calc R . .
H50B H 0.4727 1.1597 0.8201 0.283 Uiso 1 1 calc R . .
C51 C 0.147(7) 1.256(13) -0.003(15) 0.22(12) Uiso 1 1 d . . .
C52 C 0.123(6) 1.299(11) -0.032(11) 0.19(9) Uiso 1 1 d . . .
C53 C 0.104(6) 1.298(11) -0.013(11) 0.21(10) Uiso 1 1 d . . .
H53 H 0.1058 1.2732 0.0152 0.247 Uiso 1 1 calc R . .
C54 C 0.082(6) 1.334(12) -0.036(12) 0.23(12) Uiso 1 1 d . . .
H54 H 0.0688 1.3332 -0.0243 0.279 Uiso 1 1 calc R . .
C55 C 0.080(6) 1.371(12) -0.080(12) 0.21(10) Uiso 1 1 d . . .
C56 C 0.099(5) 1.368(11) -0.098(10) 0.19(9) Uiso 1 1 d . . .
H56 H 0.0981 1.3919 -0.1252 0.232 Uiso 1 1 calc R . .
C57 C 0.118(5) 1.329(10) -0.076(11) 0.19(9) Uiso 1 1 d . . .
H57 H 0.1279 1.3237 -0.0943 0.224 Uiso 1 1 calc R . .
C58 C 0.056(4) 1.413(9) -0.099(11) 0.25(13) Uiso 1 1 d G . .
C59 C 0.047(6) 1.432(12) -0.062(8) 0.9(9) Uiso 1 1 d G . .
H59 H 0.0548 1.4191 -0.0256 1.024 Uiso 1 1 calc R . .
C60 C 0.026(6) 1.469(14) -0.080(9) 0.5(4) Uiso 1 1 d GD . .
H60 H 0.0201 1.4813 -0.0550 0.652 Uiso 1 1 calc R . .
C61 C 0.014(5) 1.487(10) -0.135(9) 0.5(3) Uiso 1 1 d GD . .
C62 C 0.023(4) 1.469(8) -0.172(7) 0.17(8) Uiso 1 1 d GD . .
H62 H 0.0146 1.4813 -0.2082 0.205 Uiso 1 1 calc R . .
C63 C 0.043(4) 1.432(8) -0.154(10) 0.28(16) Uiso 1 1 d G . .
H63 H 0.0493 1.4191 -0.1788 0.336 Uiso 1 1 calc R . .
C64 C 0.479(7) 1.032(16) 0.817(15) 0.29(19) Uiso 1 1 d D . .
H64A H 0.4675 1.0011 0.8135 0.348 Uiso 1 1 calc R . .
H64B H 0.4868 1.0244 0.7926 0.348 Uiso 1 1 calc R . .
C65 C 0.461(4) 1.082(9) 0.794(8) 0.17(8) Uiso 1 1 d D . .
C66 C 0.447(4) 1.074(9) 0.828(9) 0.17(8) Uiso 1 1 d D . .
H66A H 0.4594 1.0593 0.8638 0.202 Uiso 1 1 calc R A 1
H66B H 0.4422 1.1105 0.8352 0.202 Uiso 1 1 calc R A 1
C67 C 0.290(8) 1.090(13) 0.318(13) 0.22(13) Uiso 1 1 d D . .
C68 C 0.310(6) 1.089(9) 0.380(11) 0.16(8) Uiso 1 1 d D . .
C69 C 0.333(11) 1.106(17) 0.39(2) 0.3(2) Uiso 1 1 d . . .
H69 H 0.3372 1.1265 0.3706 0.389 Uiso 1 1 calc R . .
C70 C 0.354(11) 1.092(17) 0.45(2) 0.3(2) Uiso 1 1 d . . .
H70 H 0.3717 1.0847 0.4572 0.411 Uiso 1 1 calc R . .
C71 C 0.349(6) 1.090(9) 0.491(11) 0.17(8) Uiso 1 1 d . . .
C72 C 0.322(8) 1.086(11) 0.477(15) 0.25(14) Uiso 1 1 d . . .
H72 H 0.3167 1.0845 0.5041 0.295 Uiso 1 1 calc R . .
C73 C 0.303(8) 1.086(11) 0.418(17) 0.25(14) Uiso 1 1 d . . .
H73 H 0.2853 1.0831 0.4082 0.302 Uiso 1 1 calc R . .
C74 C 0.370(4) 1.089(10) 0.548(7) 0.17(8) Uiso 1 1 d G . .
C75 C 0.381(5) 1.138(8) 0.574(10) 0.5(4) Uiso 1 1 d G . .
H75 H 0.3747 1.1710 0.5548 0.654 Uiso 1 1 calc R . .
C76 C 0.400(5) 1.139(10) 0.630(11) 0.4(3) Uiso 1 1 d G . .
H76 H 0.4070 1.1725 0.6474 0.492 Uiso 1 1 calc R . .
C77 C 0.409(4) 1.091(14) 0.659(7) 0.23(12) Uiso 1 1 d GD . .
C78 C 0.399(5) 1.041(10) 0.633(11) 0.33(19) Uiso 1 1 d G . .
H78 H 0.4046 1.0083 0.6526 0.396 Uiso 1 1 calc R . .
C79 C 0.379(5) 1.040(8) 0.578(11) 0.4(2) Uiso 1 1 d G . .
H79 H 0.3724 1.0068 0.5600 0.478 Uiso 1 1 calc R . .
C80 C 0.440(5) 1.060(12) 0.736(9) 0.23(13) Uiso 1 1 d D . .
H80A H 0.4485 1.0444 0.7154 0.274 Uiso 1 1 calc R . .
H80B H 0.4292 1.0316 0.7409 0.274 Uiso 1 1 calc R . .
C81 C 0.291(7) 1.077(10) -0.047(15) 0.19(10) Uiso 1 1 d . . .
C82 C 0.310(4) 1.076(7) -0.072(9) 0.13(6) Uiso 1 1 d . . .
C83 C 0.304(5) 1.071(8) -0.121(11) 0.18(9) Uiso 1 1 d . . .
H83 H 0.2859 1.0691 -0.1453 0.214 Uiso 1 1 calc R . .
C84 C 0.322(6) 1.068(9) -0.144(11) 0.18(9) Uiso 1 1 d . . .
H84 H 0.3159 1.0621 -0.1822 0.221 Uiso 1 1 calc R . .
C85 C 0.349(5) 1.073(8) -0.108(10) 0.15(7) Uiso 1 1 d . . .
C86 C 0.357(7) 1.081(11) -0.052(14) 0.24(13) Uiso 1 1 d . . .
H86 H 0.3750 1.0883 -0.0277 0.283 Uiso 1 1 calc R . .
C87 C 0.337(8) 1.078(11) -0.033(16) 0.26(14) Uiso 1 1 d . . .
H87 H 0.3416 1.0779 0.0053 0.308 Uiso 1 1 calc R . .
C88 C 0.368(4) 1.077(12) -0.130(9) 0.19(9) Uiso 1 1 d G . .
C89 C 0.371(6) 1.030(9) -0.155(11) 0.4(3) Uiso 1 1 d G . .
H89 H 0.3589 1.0012 -0.1636 0.538 Uiso 1 1 calc R . .
C90 C 0.392(7) 1.025(11) -0.167(12) 0.6(4) Uiso 1 1 d G . .
H90 H 0.3941 0.9939 -0.1839 0.668 Uiso 1 1 calc R . .
C91 C 0.410(5) 1.068(15) -0.154(11) 0.26(14) Uiso 1 1 d GD . .
C92 C 0.407(5) 1.115(12) -0.129(11) 0.4(3) Uiso 1 1 d G . .
H92 H 0.4191 1.1440 -0.1203 0.490 Uiso 1 1 calc R . .
C93 C 0.386(6) 1.120(9) -0.117(9) 0.32(18) Uiso 1 1 d G . .
H93 H 0.3838 1.1512 -0.1000 0.383 Uiso 1 1 calc R . .
N1 N 0.208(3) 1.183(6) -0.007(5) 0.12(4) Uiso 1 1 d . . .
N2 N 0.224(3) 1.140(6) 0.009(6) 0.13(5) Uiso 1 1 d . . .
N3 N 0.240(3) 1.139(5) -0.015(5) 0.12(4) Uiso 1 1 d . . .
N4 N 0.239(3) 1.015(6) -0.015(7) 0.14(5) Uiso 1 1 d . . .
N5 N 0.225(3) 1.014(6) 0.014(6) 0.12(4) Uiso 1 1 d . . .
N6 N 0.282(3) 1.083(5) 0.168(7) 0.13(5) Uiso 1 1 d . . .
N7 N 0.268(3) 1.080(5) 0.113(7) 0.13(5) Uiso 1 1 d . . .
N8 N 0.282(3) 1.079(5) 0.083(6) 0.13(5) Uiso 1 1 d . . .
N9 N 0.238(3) 1.025(6) 0.186(7) 0.14(5) Uiso 1 1 d . . .
N10 N 0.225(3) 1.018(6) 0.133(7) 0.14(5) Uiso 1 1 d . . .
N11 N 0.167(4) 1.117(8) 0.009(7) 0.16(6) Uiso 1 1 d . . .
N12 N 0.180(3) 1.073(7) 0.024(6) 0.13(5) Uiso 1 1 d . . .
N13 N 0.169(4) 1.027(8) 0.014(7) 0.17(6) Uiso 1 1 d . . .
N14 N 0.223(3) 1.143(6) 0.123(6) 0.12(4) Uiso 1 1 d . . .
N15 N 0.207(3) 1.188(6) 0.103(6) 0.13(4) Uiso 1 1 d . . .
N16 N 0.210(3) 0.972(7) 0.117(7) 0.15(6) Uiso 1 1 d . . .
N17 N 0.239(3) 1.149(6) 0.177(7) 0.13(5) Uiso 1 1 d . . .
N18 N 0.210(4) 0.970(7) -0.001(7) 0.16(6) Uiso 1 1 d . . .
O1 O 0.158(4) 1.253(7) -0.029(8) 0.22(7) Uiso 1 1 d . . .
O2 O 0.149(4) 1.237(8) 0.036(9) 0.23(8) Uiso 1 1 d . . .
O1W O 0.212(4) 0.861(8) 0.063(8) 0.26(8) Uiso 1 1 d . . .
O3 O 0.294(5) 1.086(9) 0.287(12) 0.27(11) Uiso 1 1 d . . .
O4 O 0.267(6) 1.094(10) 0.307(11) 0.30(12) Uiso 1 1 d . . .
O5 O 0.269(5) 1.075(7) -0.080(9) 0.22(8) Uiso 1 1 d . . .
O6 O 0.297(5) 1.079(7) -0.005(10) 0.23(9) Uiso 1 1 d . . .
O7 O 0.157(4) 0.904(8) -0.035(9) 0.24(8) Uiso 1 1 d . . .
O8 O 0.155(5) 0.908(8) 0.051(10) 0.25(9) Uiso 1 1 d . . .
O11 O -0.002(6) 1.531(11) -0.134(13) 0.18(11) Uiso 0.50 1 d PD . 1
O13 O 0.00(4) 0.62(6) -0.16(3) 0.5(16) Uiso 0.30 1 d PD . 1
O15 O 0.425(5) 1.045(10) 0.811(10) 0.16(9) Uiso 0.50 1 d PD . 1
O12 O -0.010(11) 1.51(3) -0.172(19) 0.4(4) Uiso 0.50 1 d PD . 2
O14 O -0.004(5) 0.624(9) -0.135(10) 0.18(9) Uiso 0.70 1 d PD . 2
O16 O 0.427(6) 1.107(12) 0.811(12) 0.19(11) Uiso 0.50 1 d PD . 2
O17 O 0.428(4) 1.094(9) 0.715(8) 0.25(9) Uiso 1 1 d D . .

loop_
_atom_site_aniso_label
_atom_site_aniso_U_11
_atom_site_aniso_U_22
_atom_site_aniso_U_33
_atom_site_aniso_U_23
_atom_site_aniso_U_13
_atom_site_aniso_U_12
Zn1 0.081(14) 0.16(2) 0.133(18) 0.024(14) 0.047(13) 0.009(13)
Zn2 0.092(15) 0.16(2) 0.17(2) 0.015(16) 0.071(16) 0.012(14)
Zn3 0.095(16) 0.18(2) 0.15(2) 0.036(16) 0.061(15) 0.039(15)
Zn4 0.107(18) 0.20(3) 0.119(18) 0.032(16) 0.029(14) 0.0