####################################################################### 
# 
# This file contains crystal structure data downloaded from the 
# Cambridge Structural Database (CSD) hosted by the Cambridge 
# Crystallographic Data Centre (CCDC).
# 
# Full information about CCDC data access policies and citation 
# guidelines are available at http://www.ccdc.cam.ac.uk/access/V1 
# 
# Audit and citation data items may have been added by the CCDC. 
# Please retain this information to preserve the provenance of 
# this file and to allow appropriate attribution of the data. 
# 
#######################################################################

data_DMOF-1a
_audit_block_doi                 10.5517/ccxphvx
_database_code_depnum_ccdc_archive 'CCDC 854820'
loop_
_citation_id
_citation_doi
_citation_year
1 10.1002/chem.201200696 2012
_audit_update_record             
;
2011-11-21 deposited with the CCDC.	2024-07-10 downloaded from the CCDC.
;
#TrackingRef 'DATA.cif'
#1

_audit_creation_method           SHELXL-97
_chemical_name_systematic        
;
?
;
_chemical_name_common            ?
_chemical_melting_point          ?
_chemical_formula_moiety         ?
_chemical_formula_sum            'C83 H68 N18 O12 Zn5'
_chemical_formula_weight         1836.40

loop_
_atom_type_symbol
_atom_type_description
_atom_type_scat_dispersion_real
_atom_type_scat_dispersion_imag
_atom_type_scat_source
C C 0.0033 0.0016 'International Tables Vol C Tables 4.2.6.8 and 6.1.1.4'
H H 0.0000 0.0000 'International Tables Vol C Tables 4.2.6.8 and 6.1.1.4'
N N 0.0061 0.0033 'International Tables Vol C Tables 4.2.6.8 and 6.1.1.4'
O O 0.0106 0.0060 'International Tables Vol C Tables 4.2.6.8 and 6.1.1.4'
Zn Zn 0.2839 1.4301 'International Tables Vol C Tables 4.2.6.8 and 6.1.1.4'

_symmetry_cell_setting           monoclinic
_symmetry_space_group_name_H-M   C2/c
_symmetry_space_group_name_Hall  '-c 2yc'

loop_
_symmetry_equiv_pos_as_xyz
'x, y, z'
'-x, y, -z+1/2'
'x+1/2, y+1/2, z'
'-x+1/2, y+1/2, -z+1/2'
'-x, -y, -z'
'x, -y, z-1/2'
'-x+1/2, -y+1/2, -z'
'x+1/2, -y+1/2, z-1/2'

_cell_length_a                   46.443(3)
_cell_length_b                   26.2322(16)
_cell_length_c                   26.2139(18)
_cell_angle_alpha                90.00
_cell_angle_beta                 125.965(2)
_cell_angle_gamma                90.00
_cell_volume                     25848(3)
_cell_formula_units_Z            8
_cell_measurement_temperature    293(2)
_cell_measurement_reflns_used    ?
_cell_measurement_theta_min      3.07
_cell_measurement_theta_max      27.53

_exptl_crystal_description       block
_exptl_crystal_colour            colorless
_exptl_crystal_size_max          0.35
_exptl_crystal_size_mid          0.34
_exptl_crystal_size_min          0.33
_exptl_crystal_density_meas      ?
_exptl_crystal_density_diffrn    0.944
_exptl_crystal_density_method    'not measured'
_exptl_crystal_F_000             7504
_exptl_absorpt_coefficient_mu    0.961
_exptl_absorpt_correction_type   multi-scan
_exptl_absorpt_correction_T_min  0.722
_exptl_absorpt_correction_T_max  0.728
_exptl_absorpt_process_details   'SADABS (Sheldrick, 1996)'

_exptl_special_details           
;
?
;

_diffrn_ambient_temperature      293(2)
_diffrn_radiation_wavelength     0.71069
_diffrn_radiation_type           MoK\a
_diffrn_radiation_source         'fine-focus sealed tube'
_diffrn_radiation_monochromator  graphite
_diffrn_measurement_device_type  'Bruker APEX CCD area-detector'
_diffrn_measurement_method       '\w scans'
_diffrn_detector_area_resol_mean ?
_diffrn_standards_number         0
_diffrn_standards_interval_count 0
_diffrn_standards_interval_time  0
_diffrn_standards_decay_%        0
_diffrn_reflns_number            112017
_diffrn_reflns_av_R_equivalents  0.0768
_diffrn_reflns_av_sigmaI/netI    0.1610
_diffrn_reflns_limit_h_min       -58
_diffrn_reflns_limit_h_max       58
_diffrn_reflns_limit_k_min       -33
_diffrn_reflns_limit_k_max       33
_diffrn_reflns_limit_l_min       -33
_diffrn_reflns_limit_l_max       33
_diffrn_reflns_theta_min         3.06
_diffrn_reflns_theta_max         28.23
_reflns_number_total             29219
_reflns_number_gt                6073
_reflns_threshold_expression     >2sigma(I)

_computing_data_collection       'SMART (Bruker, 1997)'
_computing_cell_refinement       SMART
_computing_data_reduction        'SAINT (Bruker, 1999)'
_computing_structure_solution    'SHELXS-97(Sheldrick, 2008)'
_computing_structure_refinement  'SHELXL-97 (Sheldrick, 2008)'
_computing_molecular_graphics    'Diamond (Brandenburg and Putz, 2008)'
_computing_publication_material  SHELXL-97

_refine_special_details          
;
Refinement of F^2^ against ALL reflections. The weighted R-factor wR and
goodness of fit S are based on F^2^, conventional R-factors R are based
on F, with F set to zero for negative F^2^. The threshold expression of
F^2^ > 2sigma(F^2^) is used only for calculating R-factors(gt) etc. and is
not relevant to the choice of reflections for refinement. R-factors based
on F^2^ are statistically about twice as large as those based on F, and R-
factors based on ALL data will be even larger.
;

_refine_ls_structure_factor_coef Fsqd
_refine_ls_matrix_type           full
_refine_ls_weighting_scheme      calc
_refine_ls_weighting_details     
'calc w=1/[\s^2^(Fo^2^)+(0.2000P)^2^+0.0000P] where P=(Fo^2^+2Fc^2^)/3'
_atom_sites_solution_primary     direct
_atom_sites_solution_secondary   difmap
_atom_sites_solution_hydrogens   geom
_refine_ls_hydrogen_treatment    constr
_refine_ls_extinction_method     none
_refine_ls_extinction_coef       ?
_refine_ls_number_reflns         29219
_refine_ls_number_parameters     378
_refine_ls_number_restraints     45
_refine_ls_R_factor_all          0.3215
_refine_ls_R_factor_gt           0.1368
_refine_ls_wR_factor_ref         0.4308
_refine_ls_wR_factor_gt          0.3743
_refine_ls_goodness_of_fit_ref   0.907
_refine_ls_restrained_S_all      0.909
_refine_ls_shift/su_max          0.004
_refine_ls_shift/su_mean         0.001

loop_
_atom_site_label
_atom_site_type_symbol
_atom_site_fract_x
_atom_site_fract_y
_atom_site_fract_z
_atom_site_U_iso_or_equiv
_atom_site_adp_type
_atom_site_occupancy
_atom_site_symmetry_multiplicity
_atom_site_calc_flag
_atom_site_refinement_flags
_atom_site_disorder_assembly
_atom_site_disorder_group
Zn1 Zn 0.20394(3) 0.07668(3) 0.05647(5) 0.1072(4) Uani 1 1 d . . .
Zn2 Zn 0.25845(4) 0.08443(5) -0.00171(6) 0.1416(5) Uani 1 1 d D . .
Zn3 Zn 0.25827(3) 0.07070(5) 0.21911(5) 0.1374(5) Uani 1 1 d D . .
Zn4 Zn 0.14944(4) 0.18816(5) 0.01158(6) 0.1600(6) Uani 1 1 d D . .
Zn5 Zn 0.14967(4) -0.03308(5) -0.00334(8) 0.1769(7) Uani 1 1 d . . .
C1 C 0.2153(2) -0.0125(3) -0.0683(4) 0.164(4) Uiso 1 1 d G . .
C2 C 0.1904(2) -0.0403(4) -0.0666(4) 0.172(4) Uiso 1 1 d G . .
C3 C 0.1768(2) -0.0854(4) -0.1007(5) 0.228(6) Uiso 1 1 d GD . .
H3 H 0.1601 -0.1040 -0.0996 0.274 Uiso 1 1 calc R . .
C4 C 0.1881(3) -0.1026(3) -0.1365(5) 0.361(11) Uiso 1 1 d GD . .
C5 C 0.2129(3) -0.0747(5) -0.1382(5) 0.311(10) Uiso 1 1 d GD . .
H5 H 0.2205 -0.0862 -0.1621 0.373 Uiso 1 1 calc R . .
C6 C 0.2266(2) -0.0297(4) -0.1041(5) 0.228(6) Uiso 1 1 d G . .
H6 H 0.2432 -0.0110 -0.1052 0.274 Uiso 1 1 calc R . .
C7 C 0.1919(3) -0.0552(5) 0.1310(4) 0.195(5) Uiso 1 1 d G . .
C8 C 0.2165(3) -0.0295(3) 0.1867(6) 0.181(4) Uiso 1 1 d G . .
C9 C 0.2303(2) -0.0527(5) 0.2444(5) 0.258(7) Uiso 1 1 d G . .
H9 H 0.2467 -0.0355 0.2817 0.310 Uiso 1 1 calc R . .
C10 C 0.2194(3) -0.1016(5) 0.2464(5) 0.274(8) Uiso 1 1 d GD . .
H10 H 0.2287 -0.1171 0.2850 0.329 Uiso 1 1 calc R . .
C11 C 0.1949(3) -0.1273(3) 0.1907(8) 0.253(7) Uiso 1 1 d GD . .
C12 C 0.1811(3) -0.1041(5) 0.1330(6) 0.321(10) Uiso 1 1 d GD . .
H12 H 0.1647 -0.1212 0.0957 0.385 Uiso 1 1 calc R . .
C13 C 0.1936(2) 0.2003(4) 0.1497(3) 0.163(4) Uiso 1 1 d G . .
C14 C 0.1832(2) 0.2465(4) 0.1599(5) 0.224(6) Uiso 1 1 d GD . .
H14 H 0.1651 0.2654 0.1259 0.268 Uiso 1 1 calc R . .
C15 C 0.1996(3) 0.2645(3) 0.2210(7) 0.295(9) Uiso 1 1 d GD . .
C16 C 0.2266(3) 0.2363(5) 0.2718(4) 0.288(8) Uiso 1 1 d GD . .
H16 H 0.2376 0.2484 0.3127 0.345 Uiso 1 1 calc R . .
C17 C 0.2371(2) 0.1901(4) 0.2617(4) 0.234(6) Uiso 1 1 d G . .
H17 H 0.2551 0.1712 0.2957 0.281 Uiso 1 1 calc R . .
C18 C 0.2206(2) 0.1721(3) 0.2006(5) 0.140(3) Uiso 1 1 d G . .
C19 C 0.31587(18) 0.0742(2) 0.1898(4) 0.129(3) Uiso 1 1 d G . .
C20 C 0.31470(17) 0.0773(2) 0.1357(3) 0.124(3) Uiso 1 1 d G . .
C21 C 0.3461(2) 0.0818(2) 0.1406(3) 0.159(4) Uiso 1 1 d GD . .
H21 H 0.3453 0.0839 0.1044 0.191 Uiso 1 1 calc R . .
C22 C 0.37859(18) 0.0833(3) 0.1996(4) 0.186(5) Uiso 1 1 d GD . .
C23 C 0.37976(17) 0.0802(2) 0.2537(3) 0.190(5) Uiso 1 1 d GD . .
H23 H 0.4015 0.0812 0.2932 0.229 Uiso 1 1 calc R . .
C24 C 0.3484(2) 0.0757(2) 0.2488(3) 0.157(4) Uiso 1 1 d G . .
H24 H 0.3492 0.0736 0.2850 0.189 Uiso 1 1 calc R . .
C25 C 0.19100(19) 0.2802(2) -0.1056(3) 0.194(5) Uiso 1 1 d G . .
H25 H 0.1820 0.3116 -0.1249 0.233 Uiso 1 1 calc R . .
C26 C 0.21672(19) 0.2562(3) -0.1084(3) 0.133(3) Uiso 1 1 d GD . .
C27 C 0.23024(15) 0.2092(2) -0.0796(3) 0.137(3) Uiso 1 1 d G . .
H27 H 0.2474 0.1931 -0.0815 0.165 Uiso 1 1 calc R . .
C28 C 0.21804(17) 0.18605(19) -0.0479(3) 0.112(3) Uiso 1 1 d G . .
C29 C 0.19232(17) 0.2100(3) -0.0450(3) 0.135(3) Uiso 1 1 d G . .
C30 C 0.17880(16) 0.2571(3) -0.0739(3) 0.170(4) Uiso 1 1 d G . .
H30 H 0.1616 0.2731 -0.0720 0.204 Uiso 1 1 calc R . .
C31 C 0.0921(4) 0.0532(6) -0.0557(5) 0.213(6) Uiso 1 1 d G . .
C32 C 0.0920(4) 0.1061(6) -0.0521(5) 0.218(6) Uiso 1 1 d G . .
C33 C 0.0602(5) 0.1319(3) -0.0772(6) 0.311(9) Uiso 1 1 d G . .
H33 H 0.0601 0.1673 -0.0748 0.373 Uiso 1 1 calc R . .
C34 C 0.0285(4) 0.1049(7) -0.1059(6) 0.333(10) Uiso 1 1 d GD . .
H34 H 0.0072 0.1223 -0.1227 0.400 Uiso 1 1 calc R . .
C35 C 0.0286(4) 0.0521(7) -0.1095(6) 0.459(16) Uiso 1 1 d GD . .
C36 C 0.0604(5) 0.0262(3) -0.0844(6) 0.331(10) Uiso 1 1 d GD . .
H36 H 0.0605 -0.0091 -0.0869 0.397 Uiso 1 1 calc R . .
C38 C 0.2306(3) 0.2841(4) -0.1410(6) 0.209(5) Uiso 1 1 d D . .
H38A H 0.2181 0.3158 -0.1578 0.314 Uiso 1 1 calc R . .
H38B H 0.2268 0.2634 -0.1746 0.314 Uiso 1 1 calc R . .
H38C H 0.2555 0.2907 -0.1110 0.314 Uiso 1 1 calc R . .
C39 C 0.1765(6) -0.1492(6) -0.1767(9) 0.431(15) Uiso 1 1 d D . .
H39A H 0.1597 -0.1678 -0.1741 0.646 Uiso 1 1 calc R . .
H39B H 0.1969 -0.1703 -0.1623 0.646 Uiso 1 1 calc R . .
H39C H 0.1657 -0.1394 -0.2197 0.646 Uiso 1 1 calc R . .
C41 C 0.2927(3) 0.0862(8) -0.0444(6) 0.185(5) Uiso 1 1 d D . .
C42 C 0.3170(3) 0.0963(6) -0.0646(6) 0.212(6) Uiso 1 1 d D . .
H42 H 0.3233 0.1305 -0.0599 0.254 Uiso 1 1 calc R . .
C43 C 0.3300(3) 0.0727(4) -0.0845(5) 0.168(4) Uiso 1 1 d D . .
H43 H 0.3235 0.0388 -0.0869 0.202 Uiso 1 1 calc R . .
C44 C 0.3525(3) 0.0757(5) -0.1070(5) 0.159(4) Uiso 1 1 d G . .
C45 C 0.3612(4) 0.0321(4) -0.1254(8) 0.86(5) Uiso 1 1 d G . .
H45 H 0.3526 0.0005 -0.1241 1.030 Uiso 1 1 calc R . .
C46 C 0.3829(5) 0.0357(4) -0.1457(8) 0.78(4) Uiso 1 1 d G . .
H46 H 0.3887 0.0065 -0.1580 0.937 Uiso 1 1 calc R . .
C47 C 0.3958(3) 0.0829(6) -0.1477(6) 0.202(5) Uiso 1 1 d G . .
C48 C 0.3871(4) 0.1265(4) -0.1293(7) 0.55(2) Uiso 1 1 d G . .
H48 H 0.3957 0.1581 -0.1307 0.666 Uiso 1 1 calc R . .
C49 C 0.3655(3) 0.1229(4) -0.1090(6) 0.294(9) Uiso 1 1 d G . .
H49 H 0.3596 0.1521 -0.0967 0.353 Uiso 1 1 calc R . .
C50 C 0.1131(6) 0.2623(7) -0.0310(12) 0.272(10) Uiso 1 1 d D . .
C51 C 0.0941(5) 0.3118(6) -0.0387(10) 0.348(12) Uiso 1 1 d D . .
H51 H 0.0979 0.3262 -0.0027 0.417 Uiso 1 1 calc R . .
C52 C 0.0750(4) 0.3332(6) -0.0863(7) 0.222(6) Uiso 1 1 d D . .
H52 H 0.0698 0.3134 -0.1202 0.267 Uiso 1 1 calc R . .
C53 C 0.0577(4) 0.3812(4) -0.1069(6) 0.183(5) Uiso 1 1 d G . .
C54 C 0.0209(4) 0.3754(4) -0.1464(7) 0.472(17) Uiso 1 1 d G . .
H54 H 0.0110 0.3430 -0.1570 0.566 Uiso 1 1 calc R . .
C55 C -0.0009(3) 0.4181(6) -0.1702(7) 0.479(18) Uiso 1 1 d G . .
H55 H -0.0255 0.4143 -0.1967 0.575 Uiso 1 1 calc R . .
C56 C 0.0140(4) 0.4666(5) -0.1545(6) 0.193(5) Uiso 1 1 d G . .
C57 C 0.0507(4) 0.4724(4) -0.1149(9) 0.87(5) Uiso 1 1 d G . .
H57 H 0.0607 0.5049 -0.1044 1.047 Uiso 1 1 calc R . .
C58 C 0.0726(3) 0.4297(5) -0.0912(9) 1.01(7) Uiso 1 1 d G . .
H58 H 0.0972 0.4336 -0.0647 1.217 Uiso 1 1 calc R . .
C59 C 0.2965(4) 0.0714(7) 0.3302(4) 0.195(6) Uiso 1 1 d D . .
C60 C 0.3123(4) 0.0642(6) 0.3992(6) 0.245(7) Uiso 1 1 d D . .
H60 H 0.3027 0.0427 0.4140 0.294 Uiso 1 1 calc R . .
C61 C 0.3379(4) 0.0885(5) 0.4318(7) 0.209(6) Uiso 1 1 d D . .
H61 H 0.3470 0.1103 0.4165 0.251 Uiso 1 1 calc R . .
C62 C 0.3550(3) 0.0813(4) 0.5022(4) 0.184(5) Uiso 1 1 d G . .
C63 C 0.3481(2) 0.0444(3) 0.5317(5) 0.185(4) Uiso 1 1 d G . .
H63 H 0.3285 0.0231 0.5079 0.222 Uiso 1 1 calc R . .
C64 C 0.3704(3) 0.0395(3) 0.5970(5) 0.206(5) Uiso 1 1 d G . .
H64 H 0.3658 0.0148 0.6167 0.247 Uiso 1 1 calc R . .
C65 C 0.3997(3) 0.0714(5) 0.6326(4) 0.217(6) Uiso 1 1 d G . .
C66 C 0.4066(3) 0.1083(5) 0.6030(7) 0.440(15) Uiso 1 1 d G . .
H66 H 0.4262 0.1297 0.6269 0.527 Uiso 1 1 calc R . .
C67 C 0.3843(4) 0.1133(4) 0.5378(7) 0.437(15) Uiso 1 1 d G . .
H67 H 0.3889 0.1379 0.5181 0.524 Uiso 1 1 calc R . .
C68 C 0.4363(4) 0.0970(6) 0.7297(5) 0.244(7) Uiso 1 1 d D . .
H68A H 0.4215 0.1264 0.7218 0.292 Uiso 1 1 calc R . .
H68B H 0.4526 0.1057 0.7193 0.292 Uiso 1 1 calc R . .
C69 C 0.4294(4) 0.0673(7) 0.8107(9) 0.268(9) Uiso 1 1 d D . .
H69A H 0.4080 0.0562 0.7711 0.322 Uiso 1 1 calc R . .
H69B H 0.4386 0.0381 0.8386 0.322 Uiso 1 1 calc R . .
C70 C 0.4564(2) 0.0803(3) 0.7975(4) 0.102(2) Uiso 1 1 d D . .
C71 C 0.4740(5) 0.0291(5) 0.8088(9) 0.274(10) Uiso 1 1 d D . .
H71A H 0.4664 0.0091 0.8301 0.328 Uiso 1 1 calc R . .
H71B H 0.4623 0.0141 0.7673 0.328 Uiso 1 1 calc R . .
C72 C 0.4794(4) 0.1266(5) 0.8358(6) 0.212(6) Uiso 1 1 d D . .
H72A H 0.4655 0.1501 0.8418 0.255 Uiso 1 1 calc R . .
H72B H 0.4996 0.1155 0.8769 0.255 Uiso 1 1 calc R . .
C73 C 0.5145(3) 0.1898(4) 0.8532(10) 0.306(9) Uiso 1 1 d G . .
C74 C 0.5179(4) 0.2188(7) 0.8126(6) 0.57(2) Uiso 1 1 d G . .
H74 H 0.5061 0.2090 0.7707 0.686 Uiso 1 1 calc R . .
C75 C 0.5388(4) 0.2625(6) 0.8346(6) 0.57(2) Uiso 1 1 d GD . .
H75 H 0.5411 0.2820 0.8075 0.680 Uiso 1 1 calc R . .
C76 C 0.5564(3) 0.2772(4) 0.8972(6) 0.241(6) Uiso 1 1 d GD . .
C77 C 0.5530(4) 0.2481(5) 0.9378(6) 0.316(9) Uiso 1 1 d GD . .
H77 H 0.5647 0.2579 0.9796 0.379 Uiso 1 1 calc R . .
C78 C 0.5321(4) 0.2044(5) 0.9157(9) 0.377(12) Uiso 1 1 d G . .
H78 H 0.5298 0.1850 0.9429 0.452 Uiso 1 1 calc R . .
C79 C 0.5781(4) 0.3265(5) 0.9212(7) 0.246(7) Uiso 1 1 d D . .
H79 H 0.5623 0.3538 0.9066 0.295 Uiso 1 1 calc R . .
C82 C 0.4109(5) 0.0835(8) 0.1996(14) 0.449(17) Uiso 1 1 d D . .
H82A H 0.4037 0.0860 0.1571 0.673 Uiso 1 1 calc R . .
H82B H 0.4241 0.0525 0.2183 0.673 Uiso 1 1 calc R . .
H82C H 0.4257 0.1121 0.2235 0.673 Uiso 1 1 calc R . .
C84 C -0.0055(7) 0.0240(15) -0.1363(17) 0.76(3) Uiso 1 1 d D . .
H84A H -0.0014 -0.0120 -0.1357 1.137 Uiso 1 1 calc R . .
H84B H -0.0228 0.0348 -0.1790 1.137 Uiso 1 1 calc R . .
H84C H -0.0141 0.0310 -0.1115 1.137 Uiso 1 1 calc R . .
C86 C 0.1968(10) -0.1793(7) 0.2166(17) 0.65(3) Uiso 1 1 d D . .
H86A H 0.1806 -0.2018 0.1826 0.973 Uiso 1 1 calc R . .
H86B H 0.1903 -0.1770 0.2453 0.973 Uiso 1 1 calc R . .
H86C H 0.2205 -0.1923 0.2384 0.973 Uiso 1 1 calc R . .
C87 C 0.1994(11) 0.3089(10) 0.2567(18) 0.72(3) Uiso 1 1 d D . .
H87A H 0.1819 0.3331 0.2276 1.083 Uiso 1 1 calc R . .
H87B H 0.2224 0.3247 0.2807 1.083 Uiso 1 1 calc R . .
H87C H 0.1938 0.2972 0.2847 1.083 Uiso 1 1 calc R . .
N1 N 0.2250(2) 0.1304(3) 0.1783(4) 0.129(2) Uiso 1 1 d . . .
N2 N 0.20409(19) 0.1309(3) 0.1190(3) 0.114(2) Uiso 1 1 d . . .
N3 N 0.1849(2) 0.1741(3) 0.1021(4) 0.131(2) Uiso 1 1 d . . .
N4 N 0.1799(2) 0.1825(3) -0.0128(4) 0.139(3) Uiso 1 1 d . . .
N5 N 0.20376(19) 0.1419(2) 0.0012(3) 0.116(2) Uiso 1 1 d . . .
N6 N 0.2250(2) 0.0270(3) -0.0278(4) 0.146(3) Uiso 1 1 d . . .
N7 N 0.2036(2) 0.0223(3) -0.0071(3) 0.131(2) Uiso 1 1 d . . .
N8 N 0.2828(2) 0.0767(2) 0.0915(3) 0.123(2) Uiso 1 1 d . . .
N9 N 0.26240(19) 0.0749(2) 0.1139(3) 0.112(2) Uiso 1 1 d . . .
N10 N 0.28166(19) 0.0730(2) 0.1716(3) 0.118(2) Uiso 1 1 d . . .
N11 N 0.22631(19) 0.1411(2) -0.0164(3) 0.117(2) Uiso 1 1 d . . .
N12 N 0.1827(2) -0.0187(3) -0.0287(4) 0.154(3) Uiso 1 1 d . . .
N13 N 0.1258(3) 0.0351(3) -0.0197(4) 0.160(3) Uiso 1 1 d . . .
N14 N 0.1461(2) 0.0778(3) -0.0004(3) 0.127(2) Uiso 1 1 d . . .
N15 N 0.1263(3) 0.1200(3) -0.0158(4) 0.157(3) Uiso 1 1 d . . .
N16 N 0.2242(2) 0.0148(3) 0.1713(4) 0.138(3) Uiso 1 1 d . . .
N17 N 0.1838(2) -0.0247(3) 0.0869(4) 0.154(3) Uiso 1 1 d . . .
N18 N 0.2048(2) 0.0145(3) 0.1129(4) 0.125(2) Uiso 1 1 d . . .
O2 O 0.1089(4) 0.2309(7) -0.0513(8) 0.335(8) Uiso 1 1 d D . .
O4 O 0.2902(3) 0.0528(6) -0.0362(6) 0.280(7) Uiso 1 1 d D . .
O08 O 0.4185(3) 0.0614(4) 0.6997(5) 0.232(4) Uiso 1 1 d . . .
O09 O 0.4983(4) 0.0213(5) 0.8299(7) 0.275(6) Uiso 1 1 d . . .
O10 O 0.2735(4) 0.0507(5) 0.3059(6) 0.262(5) Uiso 1 1 d . . .
O11 O 0.3035(3) 0.1055(5) 0.3139(6) 0.286(6) Uiso 1 1 d . . .
O12 O 0.1399(4) 0.2658(5) 0.0187(7) 0.305(7) Uiso 1 1 d D . .
O13 O 0.2828(5) 0.1207(8) -0.0359(8) 0.414(11) Uiso 1 1 d D . .
O19 O 0.4888(5) 0.1461(7) 0.8104(8) 0.362(8) Uiso 1 1 d D . .
O78 O 0.4214(3) 0.0951(5) 0.8307(6) 0.264(5) Uiso 1 1 d . . .
C83 C 0.6070(4) 0.3429(6) 0.9510(16) 0.68(3) Uiso 1 1 d D . .
H83 H 0.6253 0.3191 0.9716 0.813 Uiso 1 1 calc R . .
C88 C 0.6185(4) 0.3984(5) 0.9603(6) 0.204(5) Uiso 1 1 d D . .
O45 O 0.6070(7) 0.4193(8) 0.9848(13) 0.556(18) Uiso 1 1 d D . .
O46 O 0.6505(5) 0.3981(10) 0.9916(19) 1.01(4) Uiso 1 1 d D . .

loop_
_atom_site_aniso_label
_atom_site_aniso_U_1