####################################################################### 
# 
# This file contains crystal structure data downloaded from the 
# Cambridge Structural Database (CSD) hosted by the Cambridge 
# Crystallographic Data Centre (CCDC).
# 
# Full information about CCDC data access policies and citation 
# guidelines are available at http://www.ccdc.cam.ac.uk/access/V1 
# 
# Audit and citation data items may have been added by the CCDC. 
# Please retain this information to preserve the provenance of 
# this file and to allow appropriate attribution of the data. 
# 
#######################################################################

data_DMOF-6
_audit_block_doi                 10.5517/ccxphrt
_database_code_depnum_ccdc_archive 'CCDC 854817'
loop_
_citation_id
_citation_doi
_citation_year
1 10.1002/chem.201200696 2012
_audit_update_record             
;
2011-11-21 deposited with the CCDC.	2024-07-10 downloaded from the CCDC.
;
#TrackingRef 'DATA.cif'


_audit_creation_method           SHELXL-97
_chemical_name_systematic        
;
?
;
_chemical_name_common            ?
_chemical_melting_point          ?
_chemical_formula_moiety         ?
_chemical_formula_sum            'C79 H68 N18 O16 Zn5'
_chemical_formula_weight         1852.36

loop_
_atom_type_symbol
_atom_type_description
_atom_type_scat_dispersion_real
_atom_type_scat_dispersion_imag
_atom_type_scat_source
C C 0.0033 0.0016 'International Tables Vol C Tables 4.2.6.8 and 6.1.1.4'
H H 0.0000 0.0000 'International Tables Vol C Tables 4.2.6.8 and 6.1.1.4'
N N 0.0061 0.0033 'International Tables Vol C Tables 4.2.6.8 and 6.1.1.4'
O O 0.0106 0.0060 'International Tables Vol C Tables 4.2.6.8 and 6.1.1.4'
Zn Zn 0.2839 1.4301 'International Tables Vol C Tables 4.2.6.8 and 6.1.1.4'

_symmetry_cell_setting           monoclinic
_symmetry_space_group_name_H-M   C2/c
_symmetry_space_group_name_Hall  '-c 2yc'

loop_
_symmetry_equiv_pos_as_xyz
'x, y, z'
'-x, y, -z+1/2'
'x+1/2, y+1/2, z'
'-x+1/2, y+1/2, -z+1/2'
'-x, -y, -z'
'x, -y, z-1/2'
'-x+1/2, -y+1/2, -z'
'x+1/2, -y+1/2, z-1/2'

_cell_length_a                   42.5614(4)
_cell_length_b                   19.89766(18)
_cell_length_c                   41.130(2)
_cell_angle_alpha                90.00
_cell_angle_beta                 120.0768(2)
_cell_angle_gamma                90.00
_cell_volume                     30143(4)
_cell_formula_units_Z            8
_cell_measurement_temperature    293(2)
_cell_measurement_reflns_used    ?
_cell_measurement_theta_min      3.00
_cell_measurement_theta_max      27.48

_exptl_crystal_description       block
_exptl_crystal_colour            colorless
_exptl_crystal_size_max          0.37
_exptl_crystal_size_mid          0.34
_exptl_crystal_size_min          0.30
_exptl_crystal_density_meas      ?
_exptl_crystal_density_diffrn    0.816
_exptl_crystal_density_method    'not measured'
_exptl_crystal_F_000             7568
_exptl_absorpt_coefficient_mu    0.826
_exptl_absorpt_correction_type   multi-scan
_exptl_absorpt_correction_T_min  0.744
_exptl_absorpt_correction_T_max  0.781
_exptl_absorpt_process_details   'SADABS (Sheldrick, 1996)'

_exptl_special_details           
;
?
;

_diffrn_ambient_temperature      293(2)
_diffrn_radiation_wavelength     0.71069
_diffrn_radiation_type           MoK\a
_diffrn_radiation_source         'fine-focus sealed tube'
_diffrn_radiation_monochromator  graphite
_diffrn_measurement_device_type  'Bruker APEX CCD area-detector'
_diffrn_measurement_method       '\w scans'
_diffrn_detector_area_resol_mean ?
_diffrn_standards_number         0
_diffrn_standards_interval_count 0
_diffrn_standards_interval_time  0
_diffrn_standards_decay_%        0
_diffrn_reflns_number            127519
_diffrn_reflns_av_R_equivalents  0.1201
_diffrn_reflns_av_sigmaI/netI    0.2255
_diffrn_reflns_limit_h_min       -55
_diffrn_reflns_limit_h_max       53
_diffrn_reflns_limit_k_min       -25
_diffrn_reflns_limit_k_max       25
_diffrn_reflns_limit_l_min       -53
_diffrn_reflns_limit_l_max       53
_diffrn_reflns_theta_min         3.00
_diffrn_reflns_theta_max         27.48
_reflns_number_total             33152
_reflns_number_gt                6344
_reflns_threshold_expression     >2sigma(I)

_computing_data_collection       'SMART (Bruker, 1997)'
_computing_cell_refinement       SMART
_computing_data_reduction        'SAINT (Bruker, 1999)'
_computing_structure_solution    'SHELXS-97(Sheldrick, 2008)'
_computing_structure_refinement  'SHELXL-97 (Sheldrick, 2008)'
_computing_molecular_graphics    'Diamond (Brandenburg and Putz, 2008)'
_computing_publication_material  SHELXL-97

_refine_special_details          
;
Refinement of F^2^ against ALL reflections. The weighted R-factor wR and
goodness of fit S are based on F^2^, conventional R-factors R are based
on F, with F set to zero for negative F^2^. The threshold expression of
F^2^ > 2sigma(F^2^) is used only for calculating R-factors(gt) etc. and is
not relevant to the choice of reflections for refinement. R-factors based
on F^2^ are statistically about twice as large as those based on F, and R-
factors based on ALL data will be even larger.
;

_refine_ls_structure_factor_coef Fsqd
_refine_ls_matrix_type           full
_refine_ls_weighting_scheme      calc
_refine_ls_weighting_details     
'calc w=1/[\s^2^(Fo^2^)+(0.1057P)^2^+0.0000P] where P=(Fo^2^+2Fc^2^)/3'
_atom_sites_solution_primary     direct
_atom_sites_solution_secondary   difmap
_atom_sites_solution_hydrogens   geom
_refine_ls_hydrogen_treatment    constr
_refine_ls_extinction_method     none
_refine_ls_extinction_coef       ?
_refine_ls_number_reflns         33152
_refine_ls_number_parameters     1046
_refine_ls_number_restraints     1
_refine_ls_R_factor_all          0.3060
_refine_ls_R_factor_gt           0.0696
_refine_ls_wR_factor_ref         0.2395
_refine_ls_wR_factor_gt          0.1802
_refine_ls_goodness_of_fit_ref   0.724
_refine_ls_restrained_S_all      0.724
_refine_ls_shift/su_max          0.020
_refine_ls_shift/su_mean         0.001

loop_
_atom_site_label
_atom_site_type_symbol
_atom_site_fract_x
_atom_site_fract_y
_atom_site_fract_z
_atom_site_U_iso_or_equiv
_atom_site_adp_type
_atom_site_occupancy
_atom_site_symmetry_multiplicity
_atom_site_calc_flag
_atom_site_refinement_flags
_atom_site_disorder_assembly
_atom_site_disorder_group
Zn1 Zn 0.284610(18) -0.03755(4) 0.329773(19) 0.1020(3) Uani 1 1 d . . .
Zn2 Zn 0.22933(2) -0.04975(4) 0.37239(2) 0.1226(3) Uani 1 1 d . . .
Zn3 Zn 0.34264(2) -0.17812(4) 0.35679(2) 0.1207(3) Uani 1 1 d . . .
Zn4 Zn 0.33618(2) 0.11093(5) 0.35888(3) 0.1551(4) Uani 1 1 d . . .
Zn5 Zn 0.22719(3) -0.03495(6) 0.23100(2) 0.1473(4) Uani 1 1 d . . .
C1 C 0.2935(2) -0.2059(5) 0.2711(3) 0.112(2) Uani 1 1 d . . .
C2 C 0.2695(3) -0.1687(6) 0.2436(3) 0.120(3) Uani 1 1 d . . .
C3 C 0.2506(3) -0.1900(6) 0.2061(4) 0.173(5) Uani 1 1 d . . .
H3 H 0.2327 -0.1640 0.1869 0.208 Uiso 1 1 calc R . .
C4 C 0.2601(3) -0.2499(8) 0.2000(3) 0.181(5) Uani 1 1 d . . .
H4 H 0.2486 -0.2666 0.1756 0.217 Uiso 1 1 calc R . .
C5 C 0.2872(3) -0.2897(5) 0.2293(4) 0.142(3) Uani 1 1 d . . .
C6 C 0.3061(2) -0.2685(5) 0.2675(3) 0.130(2) Uani 1 1 d . . .
H6 H 0.3243 -0.2930 0.2873 0.156 Uiso 1 1 calc R . .
C7 C 0.3001(2) -0.3621(5) 0.2230(3) 0.209(4) Uani 1 1 d . . .
H7A H 0.2866 -0.3737 0.1968 0.314 Uiso 1 1 calc R . .
H7B H 0.2960 -0.3952 0.2374 0.314 Uiso 1 1 calc R . .
H7C H 0.3255 -0.3606 0.2310 0.314 Uiso 1 1 calc R . .
C8 C 0.3019(3) -0.2098(5) 0.3987(2) 0.134(3) Uani 1 1 d . . .
C9 C 0.2748(3) -0.1805(5) 0.4023(3) 0.134(3) Uani 1 1 d . . .
C10 C 0.2614(3) -0.2101(7) 0.4235(4) 0.214(5) Uani 1 1 d . . .
H10 H 0.2424 -0.1906 0.4252 0.257 Uiso 1 1 calc R . .
C11 C 0.2764(4) -0.2663(8) 0.4412(4) 0.262(7) Uani 1 1 d . . .
H11 H 0.2696 -0.2854 0.4574 0.315 Uiso 1 1 calc R . .
C12 C 0.3026(5) -0.2969(7) 0.4352(4) 0.254(6) Uani 1 1 d . . .
C13 C 0.3179(3) -0.2689(7) 0.4159(3) 0.195(4) Uani 1 1 d . . .
H13 H 0.3372 -0.2882 0.4146 0.234 Uiso 1 1 calc R . .
C14 C 0.3183(5) -0.3665(8) 0.4548(5) 0.447(13) Uani 1 1 d . . .
H14A H 0.3056 -0.3812 0.4674 0.671 Uiso 1 1 calc R . .
H14B H 0.3436 -0.3618 0.4728 0.671 Uiso 1 1 calc R . .
H14C H 0.3151 -0.3991 0.4362 0.671 Uiso 1 1 calc R . .
C15 C 0.1705(3) -0.0618(5) 0.2870(4) 0.159(3) Uani 1 1 d . . .
C16 C 0.1691(3) -0.0579(5) 0.2547(4) 0.163(3) Uani 1 1 d . . .
C17 C 0.1383(4) -0.0716(6) 0.2186(3) 0.220(5) Uani 1 1 d . . .
H17 H 0.1390 -0.0727 0.1964 0.264 Uiso 1 1 calc R . .
C18 C 0.1080(4) -0.0825(8) 0.2204(5) 0.255(7) Uani 1 1 d . . .
C19 C 0.1085(5) -0.0899(8) 0.2545(6) 0.289(8) Uani 1 1 d . . .
H19 H 0.0871 -0.1025 0.2537 0.347 Uiso 1 1 calc R . .
C20 C 0.1401(4) -0.0790(6) 0.2905(4) 0.207(4) Uani 1 1 d . . .
H20 H 0.1406 -0.0828 0.3133 0.249 Uiso 1 1 calc R . .
C21 C 0.0733(4) -0.1044(9) 0.1843(4) 0.391(10) Uani 1 1 d . . .
H21A H 0.0538 -0.1097 0.1896 0.587 Uiso 1 1 calc R . .
H21B H 0.0776 -0.1464 0.1757 0.587 Uiso 1 1 calc R . .
H21C H 0.0668 -0.0708 0.1653 0.587 Uiso 1 1 calc R . .
C22 C 0.3969(2) -0.0644(5) 0.3863(2) 0.178(4) Uani 1 1 d G . .
C23 C 0.39771(19) 0.0054(5) 0.3878(2) 0.193(4) Uani 1 1 d G . .
C24 C 0.4308(3) 0.0389(3) 0.4058(3) 0.270(7) Uani 1 1 d G . .
H24 H 0.4314 0.0856 0.4068 0.324 Uiso 1 1 calc R . .
C25 C 0.46306(19) 0.0026(5) 0.4223(3) 0.375(11) Uani 1 1 d GD . .
C26 C 0.4622(2) -0.0672(5) 0.4208(3) 0.376(11) Uani 1 1 d G . .
H26 H 0.4838 -0.0915 0.4318 0.451 Uiso 1 1 calc R . .
C27 C 0.4291(3) -0.1007(3) 0.4028(3) 0.240(5) Uani 1 1 d G . .
H27 H 0.4285 -0.1474 0.4018 0.288 Uiso 1 1 calc R . .
C28 C 0.4985(8) 0.025(2) 0.4559(9) 1.04(4) Uiso 1 1 d D . .
H28A H 0.5162 -0.0102 0.4627 1.567 Uiso 1 1 calc R . .
H28B H 0.4947 0.0336 0.4767 1.567 Uiso 1 1 calc R . .
H28C H 0.5069 0.0648 0.4497 1.567 Uiso 1 1 calc R . .
C29 C 0.2903(4) 0.1338(6) 0.2707(5) 0.133(3) Uani 1 1 d . . .
C30 C 0.2664(4) 0.0954(11) 0.2442(4) 0.181(6) Uani 1 1 d . . .
C31 C 0.2505(3) 0.1199(8) 0.2066(4) 0.197(5) Uani 1 1 d . . .
H31 H 0.2329 0.0957 0.1862 0.236 Uiso 1 1 calc R . .
C32 C 0.2624(5) 0.1799(11) 0.2024(5) 0.234(7) Uani 1 1 d . . .
H32 H 0.2527 0.1946 0.1778 0.281 Uiso 1 1 calc R . .
C33 C 0.2867(5) 0.2223(6) 0.2292(6) 0.193(6) Uani 1 1 d . . .
C34 C 0.3031(3) 0.2013(7) 0.2676(4) 0.197(5) Uani 1 1 d . . .
H34 H 0.3196 0.2268 0.2879 0.237 Uiso 1 1 calc R . .
C35 C 0.2934(3) 0.2863(6) 0.2179(4) 0.339(9) Uani 1 1 d . . .
H35A H 0.3110 0.3105 0.2396 0.509 Uiso 1 1 calc R . .
H35B H 0.2712 0.3116 0.2055 0.509 Uiso 1 1 calc R . .
H35C H 0.3024 0.2798 0.2009 0.509 Uiso 1 1 calc R . .
C36 C 0.3915(3) -0.2612(6) 0.3880(4) 0.172(5) Uani 1 1 d . . .
C37 C 0.4215(2) -0.3147(5) 0.3949(3) 0.122(3) Uani 1 1 d . . .
C38 C 0.4201(3) -0.3487(6) 0.3675(3) 0.146(3) Uani 1 1 d . . .
H38 H 0.4022 -0.3415 0.3426 0.175 Uiso 1 1 calc R . .
C39 C 0.4472(3) -0.3969(6) 0.3779(3) 0.148(3) Uani 1 1 d . . .
C40 C 0.4725(2) -0.4122(5) 0.4132(3) 0.116(2) Uani 1 1 d . . .
C41 C 0.47191(18) -0.3749(5) 0.4391(2) 0.118(2) Uani 1 1 d . . .
H41 H 0.4895 -0.3831 0.4640 0.142 Uiso 1 1 calc R . .
C42 C 0.4464(2) -0.3228(4) 0.4322(3) 0.122(2) Uani 1 1 d . . .
H42 H 0.4467 -0.2969 0.4511 0.147 Uiso 1 1 calc R . .
C43 C 0.4209(3) -0.4276(6) 0.3122(3) 0.273(6) Uani 1 1 d . . .
H43A H 0.4254 -0.4589 0.2973 0.410 Uiso 1 1 calc R . .
H43B H 0.4217 -0.3826 0.3043 0.410 Uiso 1 1 calc R . .
H43C H 0.3973 -0.4361 0.3091 0.410 Uiso 1 1 calc R . .
C44 C 0.52025(17) -0.4818(4) 0.45617(17) 0.108(2) Uani 1 1 d . . .
H44A H 0.5071 -0.4916 0.4693 0.129 Uiso 1 1 calc R . .
H44B H 0.5375 -0.4461 0.4695 0.129 Uiso 1 1 calc R . .
C45 C 0.53955(16) -0.5418(3) 0.45514(17) 0.0920(17) Uani 1 1 d . . .
C46 C 0.51287(16) -0.5972(3) 0.43610(16) 0.1042(19) Uani 1 1 d . . .
H46A H 0.4964 -0.5856 0.4100 0.125 Uiso 1 1 calc R . .
H46B H 0.5255 -0.6383 0.4368 0.125 Uiso 1 1 calc R . .
C47 C 0.56535(17) -0.5621(3) 0.49440(17) 0.106(2) Uani 1 1 d . . .
H47A H 0.5526 -0.5686 0.5082 0.127 Uiso 1 1 calc R . .
H47B H 0.5774 -0.6037 0.4948 0.127 Uiso 1 1 calc R . .
C48 C 0.55919(17) -0.5251(3) 0.43388(17) 0.113(2) Uani 1 1 d . . .
H48A H 0.5418 -0.5148 0.4079 0.135 Uiso 1 1 calc R . .
H48B H 0.5747 -0.4862 0.4450 0.135 Uiso 1 1 calc R . .
C49 C 0.4657(3) -0.6490(7) 0.4373(3) 0.139(3) Uani 1 1 d . . .
C50 C 0.4321(4) -0.6263(6) 0.4115(3) 0.212(4) Uani 1 1 d . . .
H50 H 0.4272 -0.5810 0.4057 0.255 Uiso 1 1 calc R . .
C51 C 0.4037(3) -0.6799(10) 0.3932(3) 0.278(8) Uani 1 1 d . . .
H51 H 0.3820 -0.6679 0.3720 0.334 Uiso 1 1 calc R . .
C52 C 0.4069(4) -0.7370(6) 0.4037(5) 0.193(5) Uani 1 1 d . . .
C53 C 0.4377(5) -0.7534(7) 0.4312(4) 0.218(6) Uani 1 1 d . . .
H53 H 0.4425 -0.7970 0.4407 0.261 Uiso 1 1 calc R . .
C54 C 0.4637(4) -0.7026(9) 0.4466(5) 0.264(8) Uani 1 1 d . . .
C55 C 0.5014(5) -0.7946(10) 0.4936(7) 0.64(3) Uani 1 1 d . . .
H55A H 0.5265 -0.8058 0.5102 0.956 Uiso 1 1 calc R . .
H55B H 0.4899 -0.8303 0.4757 0.956 Uiso 1 1 calc R . .
H55C H 0.4894 -0.7886 0.5078 0.956 Uiso 1 1 calc R . .
C56 C 0.1830(3) -0.0562(8) 0.3905(3) 0.168(5) Uani 1 1 d . . .
C57 C 0.3727(5) 0.2057(10) 0.3742(8) 0.370(16) Uani 1 1 d . . .
C58 C 0.6133(2) -0.5091(5) 0.5475(3) 0.115(2) Uani 1 1 d . . .
C59 C 0.61688(19) -0.5580(4) 0.5725(3) 0.137(3) Uani 1 1 d . . .
H59 H 0.6036 -0.5975 0.5633 0.164 Uiso 1 1 calc R . .
C60 C 0.6395(2) -0.5511(5) 0.6112(3) 0.153(3) Uani 1 1 d . . .
H60 H 0.6405 -0.5841 0.6277 0.183 Uiso 1 1 calc R . .
C61 C 0.6595(3) -0.4963(7) 0.6236(3) 0.155(3) Uani 1 1 d . . .
C62 C 0.6576(3) -0.4449(5) 0.6007(4) 0.166(4) Uani 1 1 d . . .
H62 H 0.6715 -0.4061 0.6101 0.199 Uiso 1 1 calc R . .
C63 C 0.6336(3) -0.4539(5) 0.5629(3) 0.146(3) Uani 1 1 d . . .
C64 C 0.6466(4) -0.3475(7) 0.5495(3) 0.274(6) Uani 1 1 d . . .
H64A H 0.6413 -0.3200 0.5281 0.411 Uiso 1 1 calc R . .
H64B H 0.6723 -0.3541 0.5645 0.411 Uiso 1 1 calc R . .
H64C H 0.6379 -0.3255 0.5643 0.411 Uiso 1 1 calc R . .
C65 C 0.6835(4) -0.4895(7) 0.6657(4) 0.188(5) Uani 1 1 d . . .
C66 C 0.6031(2) -0.5738(6) 0.4233(2) 0.126(3) Uani 1 1 d . . .
C67 C 0.6068(2) -0.5173(6) 0.4094(3) 0.155(3) Uani 1 1 d . . .
H67 H 0.5922 -0.4807 0.4070 0.186 Uiso 1 1 calc R . .
C68 C 0.6336(3) -0.5117(5) 0.3975(2) 0.164(3) Uani 1 1 d . . .
H68 H 0.6362 -0.4721 0.3871 0.196 Uiso 1 1 calc R . .
C69 C 0.6549(2) -0.5665(7) 0.4022(3) 0.141(3) Uani 1 1 d . . .
C70 C 0.6500(3) -0.6201(7) 0.4158(3) 0.197(5) Uani 1 1 d . . .
H70 H 0.6645 -0.6575 0.4192 0.236 Uiso 1 1 calc R . .
C71 C 0.6235(3) -0.6233(7) 0.4255(3) 0.169(4) Uani 1 1 d . . .
C72 C 0.6329(6) -0.7247(11) 0.4440(7) 0.524(19) Uani 1 1 d . . .
H72A H 0.6276 -0.7575 0.4577 0.785 Uiso 1 1 calc R . .
H72B H 0.6587 -0.7175 0.4565 0.785 Uiso 1 1 calc R . .
H72C H 0.6245 -0.7408 0.4190 0.785 Uiso 1 1 calc R . .
C74 C 0.2908(3) 0.1254(6) 0.3981(3) 0.156(3) Uani 1 1 d . . .
C73 C 0.2654(3) 0.0888(6) 0.3990(3) 0.146(3) Uani 1 1 d . . .
C78 C 0.2485(3) 0.1086(6) 0.4184(3) 0.197(4) Uani 1 1 d . . .
H78 H 0.2310 0.0823 0.4195 0.236 Uiso 1 1 calc R . .
C77 C 0.2591(5) 0.1705(9) 0.4363(5) 0.299(8) Uani 1 1 d . . .
C76 C 0.2847(5) 0.2117(7) 0.4329(4) 0.297(8) Uani 1 1 d . . .
H76 H 0.2901 0.2544 0.4436 0.356 Uiso 1 1 calc R . .
C75 C 0.3016(3) 0.1880(7) 0.4139(4) 0.250(6) Uani 1 1 d . . .
H75 H 0.3191 0.2128 0.4119 0.300 Uiso 1 1 calc R . .
C79 C 0.2418(4) 0.2031(8) 0.4578(4) 0.379(9) Uani 1 1 d . . .
H79A H 0.2250 0.1721 0.4588 0.568 Uiso 1 1 calc R . .
H79B H 0.2292 0.2433 0.4450 0.568 Uiso 1 1 calc R . .
H79C H 0.2605 0.2140 0.4828 0.568 Uiso 1 1 calc R . .
N1 N 0.26220(16) -0.1105(3) 0.2547(2) 0.1182(19) Uani 1 1 d . . .
N2 N 0.28421(19) -0.1109(3) 0.2906(2) 0.1089(16) Uani 1 1 d . . .
N3 N 0.30441(14) -0.1673(4) 0.30154(19) 0.1131(17) Uani 1 1 d . . .
N4 N 0.31007(14) -0.1713(4) 0.37711(16) 0.1106(17) Uani 1 1 d . . .
N5 N 0.28787(16) -0.1183(3) 0.36740(13) 0.1036(15) Uani 1 1 d . . .
N6 N 0.26660(14) -0.1231(3) 0.38285(17) 0.1102(16) Uani 1 1 d . . .
N7 N 0.2054(2) -0.0500(3) 0.31538(16) 0.1236(19) Uani 1 1 d . . .
N8 N 0.22578(16) -0.0419(3) 0.2999(2) 0.1189(18) Uani 1 1 d . . .
N9 N 0.2052(2) -0.0434(3) 0.2632(2) 0.136(2) Uani 1 1 d . . .
N10 N 0.36170(19) 0.0206(3) 0.36915(18) 0.136(2) Uani 1 1 d . . .
N11 N 0.34311(15) -0.0361(4) 0.35902(14) 0.1121(16) Uani 1 1 d . . .
N12 N 0.36430(17) -0.0872(4) 0.36855(17) 0.132(2) Uani 1 1 d . . .
N13 N 0.30035(16) 0.0979(5) 0.30234(18) 0.1242(19) Uani 1 1 d . . .
N14 N 0.2817(2) 0.0408(3) 0.2913(2) 0.1177(18) Uani 1 1 d . . .
N15 N 0.2601(2) 0.0378(4) 0.2551(3) 0.173(5) Uani 1 1 d . . .
N16 N 0.30100(16) 0.0928(4) 0.37725(19) 0.1273(19) Uani 1 1 d . . .
N17 N 0.28278(17) 0.0352(3) 0.36788(14) 0.1091(16) Uani 1 1 d . . .
N18 N 0.26009(16) 0.0311(3) 0.38125(17) 0.1152(17) Uani 1 1 d . . .
O1 O 0.3915(3) -0.2297(5) 0.4126(3) 0.222(4) Uani 1 1 d . . .
O2 O 0.37090(15) -0.2517(3) 0.3534(2) 0.178(3) Uani 1 1 d . . .
O3 O 0.1972(2) -0.1093(5) 0.3886(2) 0.243(4) Uani 1 1 d . . .
O4 O 0.1892(2) -0.0064(5) 0.3809(3) 0.225(4) Uani 1 1 d . . .
O6 O 0.3779(3) 0.1673(5) 0.3948(3) 0.295(6) Uani 1 1 d . . .
O7 O 0.6824(2) -0.5320(5) 0.6869(2) 0.234(4) Uani 1 1 d . . .
O8 O 0.7047(2) -0.4404(4) 0.67707(16) 0.196(3) Uani 1 1 d . . .
O5 O 0.3474(3) 0.2394(6) 0.3674(3) 0.296(5) Uani 1 1 d . . .
O9 O 0.49587(13) -0.4614(3) 0.41921(13) 0.1254(15) Uani 1 1 d . . .
O10 O 0.4991(4) -0.7271(6) 0.4719(3) 0.320(5) Uani 1 1 d . . .
O11 O 0.6187(3) -0.6755(6) 0.4427(4) 0.304(5) Uani 1 1 d . . .
O12 O 0.62964(18) -0.4085(4) 0.5375(2) 0.194(3) Uani 1 1 d . . .
O13 O 0.59138(13) -0.5085(2) 0.51080(16) 0.1258(16) Uani 1 1 d . . .
O14 O 0.58021(14) -0.5814(3) 0.43588(13) 0.1283(15) Uani 1 1 d . . .
O15 O 0.