
#######################################################################
#
#                 Cambridge Crystallographic Data Centre
#                                CCDC
#
#######################################################################
#
# If this CIF has been generated from an entry in the Cambridge
# Structural Database, then it will include bibliographic, chemical,
# crystal, experimental, refinement or atomic coordinate data resulting
# from the CCDC's data processing and validation procedures.
#
#######################################################################

data_CSD_CIF_FAZHET01
_audit_creation_date 2002-01-16
_audit_creation_method CSD-ConQuest-V1
_database_code_CSD FAZHET01
_database_code_depnum_ccdc_archive 'CCDC 168369'
_chemical_formula_sum 'C9 H11 N1 O3'
_chemical_formula_moiety
;
C9 H11 N1 O3
;
_journal_coden_Cambridge 1078
_journal_year 2001
_journal_name_full 'CSD Communication(Private Communication) '
loop_
_publ_author_name
"A.Leahey"
"M.M.Olmstead"
_chemical_name_systematic
;
D-Tyrosine
;
_chemical_name_common
;
Teaching Subset: Fundamental Chemistry; DrugBank: DB03839
;
_cell_volume    839.685
_exptl_crystal_colour 'colorless'
_exptl_crystal_density_diffrn 1.433
_exptl_special_details
;
contribution from Department of Chemistry, University of California, Davis, 
CA, USA
;
_exptl_crystal_description 'needle'
_exptl_crystal_preparation 'water'
_diffrn_ambient_temperature 91
#These two values have been output from a single CSD field.
_refine_ls_R_factor_gt 0.0309
_refine_ls_wR_factor_gt 0.0309
loop_
_citation_database_id_CSD
_citation_special_details
LTYROS "is a stereoisomer of this entry"
DLTYRS "is a racemate of this entry"
_symmetry_cell_setting orthorhombic
_symmetry_space_group_name_H-M 'P 21 21 21'
_symmetry_Int_Tables_number 19
loop_
_symmetry_equiv_pos_site_id
_symmetry_equiv_pos_as_xyz
1 x,y,z
2 1/2-x,-y,1/2+z
3 -x,1/2+y,1/2-z
4 1/2+x,1/2-y,-z
_cell_length_a 6.8279(8)
_cell_length_b 21.114(3)
_cell_length_c 5.8245(8)
_cell_angle_alpha 90
_cell_angle_beta 90
_cell_angle_gamma 90
_cell_formula_units_Z 4
loop_
_atom_type_symbol
_atom_type_radius_bond
C 0.68
H 0.23
N 0.68
O 0.68
loop_
_atom_site_label
_atom_site_type_symbol
_atom_site_fract_x
_atom_site_fract_y
_atom_site_fract_z
O1 O 0.16082(16) 0.33380(5) 0.37486(19)
O2 O 0.42627(16) 0.28613(5) 0.22758(18)
O3 O 0.48219(16) 0.59921(5) 0.52625(19)
H1 H 0.428(4) 0.6202(11) 0.647(5)
N1 N 0.23858(19) 0.30385(6) 0.8052(2)
H2 H 0.190(3) 0.3450(9) 0.801(4)
H3 H 0.297(3) 0.3005(10) 0.961(4)
H4 H 0.139(3) 0.2763(10) 0.779(4)
C1 C 0.3209(2) 0.30538(6) 0.3917(2)
C2 C 0.4592(2) 0.44397(6) 0.8119(3)
H5 H 0.422(3) 0.4254(9) 0.958(3)
C3 C 0.4336(2) 0.50887(6) 0.7754(3)
H6 H 0.378(3) 0.5352(8) 0.897(3)
C4 C 0.3981(2) 0.29300(6) 0.6343(2)
H7 H 0.436(3) 0.2481(7) 0.654(3)
C5 C 0.5982(2) 0.43260(6) 0.4367(3)
H8 H 0.653(3) 0.4064(8) 0.319(4)
C6 C 0.5751(2) 0.49725(6) 0.3977(3)
H9 H 0.615(3) 0.5152(7) 0.266(3)
C7 C 0.4949(2) 0.53530(6) 0.5678(2)
C8 C 0.5771(2) 0.33538(6) 0.6871(3)
H10 H 0.683(3) 0.3201(8) 0.584(3)
H11 H 0.612(3) 0.3292(10) 0.846(4)
C9 C 0.5424(2) 0.40526(6) 0.6452(2)
#END
