####################################################################### 
# 
# This file contains crystal structure data downloaded from the 
# Cambridge Structural Database (CSD) hosted by the Cambridge 
# Crystallographic Data Centre (CCDC).
# 
# Full information about CCDC data access policies and citation 
# guidelines are available at http://www.ccdc.cam.ac.uk/access/V1 
# 
# Audit and citation data items may have been added by the CCDC. 
# Please retain this information to preserve the provenance of 
# this file and to allow appropriate attribution of the data. 
# 
#######################################################################

data_UMCM_25NH2Cl
_audit_block_doi                 10.5517/ccxz6bd
_database_code_depnum_ccdc_archive 'CCDC 863174'
loop_
_citation_id
_citation_doi
_citation_year
1 10.1039/c2dt30120b 2012
_audit_update_record             
;
2012-01-16 deposited with the CCDC.	2024-07-10 downloaded from the CCDC.
;
#TrackingRef 'UMCM_25NH2_Cl.cif'


_audit_creation_method           SHELXL-97
_chemical_name_systematic        
;
?
;
_chemical_name_common            ?
_chemical_melting_point          ?
_chemical_formula_moiety         ?
_chemical_formula_sum            'C69 H0 Cl1.50 N0 O19.50 Zn6'
_chemical_formula_weight         1026.60

loop_
_atom_type_symbol
_atom_type_description
_atom_type_scat_dispersion_real
_atom_type_scat_dispersion_imag
_atom_type_scat_source
C C 0.0033 0.0016 'International Tables Vol C Tables 4.2.6.8 and 6.1.1.4'
H H 0.0000 0.0000 'International Tables Vol C Tables 4.2.6.8 and 6.1.1.4'
N N 0.0061 0.0033 'International Tables Vol C Tables 4.2.6.8 and 6.1.1.4'
O O 0.0106 0.0060 'International Tables Vol C Tables 4.2.6.8 and 6.1.1.4'
Cl Cl 0.1484 0.1585 'International Tables Vol C Tables 4.2.6.8 and 6.1.1.4'
Zn Zn 0.2839 1.4301 'International Tables Vol C Tables 4.2.6.8 and 6.1.1.4'

_symmetry_cell_setting           ?
_symmetry_space_group_name_H-M   P63/m

loop_
_symmetry_equiv_pos_as_xyz
'x, y, z'
'-y, x-y, z'
'-x+y, -x, z'
'-x, -y, z+1/2'
'y, -x+y, z+1/2'
'x-y, x, z+1/2'
'-x, -y, -z'
'y, -x+y, -z'
'x-y, x, -z'
'x, y, -z-1/2'
'-y, x-y, -z-1/2'
'-x+y, -x, -z-1/2'

_cell_length_a                   41.247(7)
_cell_length_b                   41.247(7)
_cell_length_c                   17.447(3)
_cell_angle_alpha                90.00
_cell_angle_beta                 90.00
_cell_angle_gamma                120.00
_cell_volume                     25706(8)
_cell_formula_units_Z            6
_cell_measurement_temperature    200(2)
_cell_measurement_reflns_used    9208
_cell_measurement_theta_min      2.28
_cell_measurement_theta_max      17.19

_exptl_crystal_description       needle
_exptl_crystal_colour            colorless
_exptl_crystal_size_max          0.15
_exptl_crystal_size_mid          0.10
_exptl_crystal_size_min          0.10
_exptl_crystal_density_meas      ?
_exptl_crystal_density_diffrn    0.410
_exptl_crystal_density_method    'not measured'
_exptl_crystal_F_000             3102
_exptl_absorpt_coefficient_mu    0.585
_exptl_absorpt_correction_type   ?
_exptl_absorpt_correction_T_min  0.9174
_exptl_absorpt_correction_T_max  0.9438
_exptl_absorpt_process_details   ?

_exptl_special_details           
;
?
;

_diffrn_ambient_temperature      200(2)
_diffrn_radiation_wavelength     0.71073
_diffrn_radiation_type           MoK\a
_diffrn_radiation_source         'fine-focus sealed tube'
_diffrn_radiation_monochromator  graphite
_diffrn_measurement_device_type  'Bruker APEX-II CCD'
_diffrn_measurement_method       '\f and \w scans'
_diffrn_detector_area_resol_mean ?
_diffrn_standards_number         0
_diffrn_standards_interval_count ?
_diffrn_standards_interval_time  ?
_diffrn_standards_decay_%        ?
_diffrn_reflns_number            63917
_diffrn_reflns_av_R_equivalents  0.1453
_diffrn_reflns_av_sigmaI/netI    0.0687
_diffrn_reflns_limit_h_min       -34
_diffrn_reflns_limit_h_max       26
_diffrn_reflns_limit_k_min       -21
_diffrn_reflns_limit_k_max       34
_diffrn_reflns_limit_l_min       -10
_diffrn_reflns_limit_l_max       14
_diffrn_reflns_theta_min         1.30
_diffrn_reflns_theta_max         17.25
_reflns_number_total             5485
_reflns_number_gt                4114
_reflns_threshold_expression     >2sigma(I)

_computing_data_collection       'Bruker APEX2'
_computing_cell_refinement       'Bruker SAINT'
_computing_data_reduction        'Bruker SAINT'
_computing_structure_solution    'SHELXS-97 (Sheldrick, 2008)'
_computing_structure_refinement  'SHELXL-97 (Sheldrick, 2008)'
_computing_molecular_graphics    'Bruker SHELXTL'
_computing_publication_material  'Bruker SHELXTL'
_refine_special_details          
;
Refinement of F^2^ against ALL reflections. The weighted R-factor wR and
goodness of fit S are based on F^2^, conventional R-factors R are based
on F, with F set to zero for negative F^2^. The threshold expression of
F^2^ > 2sigma(F^2^) is used only for calculating R-factors(gt) etc. and is
not relevant to the choice of reflections for refinement. R-factors based
on F^2^ are statistically about twice as large as those based on F, and R-
factors based on ALL data will be even larger.
;

_refine_ls_structure_factor_coef Fsqd
_refine_ls_matrix_type           full
_refine_ls_weighting_scheme      calc
_refine_ls_weighting_details     
'calc w=1/[\s^2^(Fo^2^)+(0.1835P)^2^+24.2492P] where P=(Fo^2^+2Fc^2^)/3'
_atom_sites_solution_primary     direct
_atom_sites_solution_secondary   difmap
_atom_sites_solution_hydrogens   geom
_refine_ls_hydrogen_treatment    mixed
_refine_ls_extinction_method     none
_refine_ls_extinction_coef       ?
_refine_ls_number_reflns         5485
_refine_ls_number_parameters     140
_refine_ls_number_restraints     3
_refine_ls_R_factor_all          0.1290
_refine_ls_R_factor_gt           0.0990
_refine_ls_wR_factor_ref         0.2723
_refine_ls_wR_factor_gt          0.2508
_refine_ls_goodness_of_fit_ref   1.026
_refine_ls_restrained_S_all      1.027
_refine_ls_shift/su_max          0.016
_refine_ls_shift/su_mean         0.001

# SQUEEZE RESULTS (APPEND TO CIF)
# Note: Data are Listed for all Voids in the P1 Unit Cell
# i.e. Centre of Gravity, Solvent Accessible Volume,
# Recovered number of Electrons in the Void and
# Details about the Squeezed Material
loop_
_platon_squeeze_void_nr
_platon_squeeze_void_average_x
_platon_squeeze_void_average_y
_platon_squeeze_void_average_z
_platon_squeeze_void_volume
_platon_squeeze_void_count_electrons
_platon_squeeze_void_content
1 -0.006 -0.005 -0.011 21194 6615 ' '
_platon_squeeze_details          
;
;
_refinement_detail               
;
The structure was not refined as anisotropy to be
consistent due to some disorder atoms.
Squeez found 6615 electrons that can be accounted to
chloroform and DMF molecules that
are trapped in the pores. Nitrogen atom cannot be
located due to the disorder of cloro atoms.
The value of sine(theta_max)/wavelength is less
than 0.550 is due to the weak diffraction of the
crystal (poor quality crystal). Atom O11b, C17
and C30 were assigned correctly base on the structures
of the ligand, the high Ueq is due to the highly disorder
of the substituents.2theta = 17.25
because of the weak diffraction.Amino groups cannot be
located due to the disorder of
halogen atoms.
;

loop_
_atom_site_label
_atom_site_type_symbol
_atom_site_fract_x
_atom_site_fract_y
_atom_site_fract_z
_atom_site_U_iso_or_equiv
_atom_site_adp_type
_atom_site_occupancy
_atom_site_symmetry_multiplicity
_atom_site_calc_flag
_atom_site_refinement_flags
_atom_site_disorder_assembly
_atom_site_disorder_group
O3 O 0.40049(18) 0.10998(18) 0.6597(4) 0.054(2) Uiso 1 1 d . . .
O2 O 0.3862(2) 0.0573(2) 0.5926(4) 0.071(2) Uiso 1 1 d . . .
O4 O 0.4285(2) 0.0604(2) 0.7500 0.025(2) Uiso 1 2 d S . .
C7 C 0.3684(4) 0.1854(4) 0.3232(7) 0.093(4) Uiso 1 1 d . . .
C3 C 0.3712(3) 0.1531(3) 0.3177(6) 0.061(3) Uiso 1 1 d . . .
C2 C 0.3731(3) 0.1365(3) 0.3935(6) 0.068(3) Uiso 1 1 d . . .
C1 C 0.3913(3) 0.0883(3) 0.6030(6) 0.056(3) Uiso 1 1 d . . .
C6 C 0.3611(4) 0.0983(4) 0.3934(8) 0.109(5) Uiso 1 1 d . . .
H6 H 0.3486 0.0833 0.3514 0.130 Uiso 1 1 calc R . .
C4 C 0.3705(4) 0.1334(5) 0.2500 0.068(5) Uiso 1 2 d S . .
C5 C 0.3883(4) 0.1607(4) 0.4590(7) 0.095(4) Uiso 1 1 d . . .
H5 H 0.3952 0.1859 0.4586 0.114 Uiso 1 1 calc R . .
O7 O 0.35872(19) -0.01413(19) 0.6862(4) 0.065(2) Uiso 1 1 d . . .
O6 O 0.4308(3) 0.0151(2) 0.5971(5) 0.098(3) Uiso 1 1 d . . .
O5 O 0.4862(3) 0.0457(3) 0.6652(6) 0.125(3) Uiso 1 1 d . . .
C11 C 0.3419(4) -0.0278(4) 0.7500 0.056(5) Uiso 1 2 d S . .
C20 C 0.3106(5) -0.0615(5) 0.7500 0.061(5) Uiso 1 2 d S . .
C8 C 0.3826(3) 0.1058(3) 0.5289(5) 0.045(3) Uiso 1 1 d . . .
C10 C 0.3916(3) 0.1413(4) 0.5265(7) 0.091(4) Uiso 1 1 d . . .
H10 H 0.4008 0.1552 0.5713 0.109 Uiso 1 1 calc R . .
C9 C 0.3690(4) 0.0819(4) 0.4642(8) 0.107(5) Uiso 1 1 d . . .
H9 H 0.3652 0.0577 0.4649 0.129 Uiso 1 1 calc R . .
C13 C 0.4828(4) 0.0130(4) 0.5558(8) 0.094(4) Uiso 1 1 d . . .
C19 C 0.2377(5) -0.1286(5) 0.7500 0.090(6) Uiso 1 2 d S . .
C15 C 0.5156(5) 0.0124(5) 0.5691(10) 0.143(6) Uiso 1 1 d . . .
C12 C 0.4640(4) 0.0258(4) 0.6127(8) 0.090(4) Uiso 1 1 d . . .
C14 C 0.4659(5) -0.0004(5) 0.4835(10) 0.142(6) Uiso 1 1 d . . .
H14 H 0.4436 -0.0013 0.4706 0.170 Uiso 1 1 calc R . .
C18 C 0.2022(5) -0.1699(5) 0.7500 0.093(6) Uiso 1 2 d S . .
C16 C 0.2877(5) -0.0780(5) 0.6857(11) 0.143(6) Uiso 1 1 d . . .
H16 H 0.2965 -0.0652 0.6396 0.172 Uiso 1 1 calc R . .
C17 C 0.2519(7) -0.1127(7) 0.6826(14) 0.223(10) Uiso 1 1 d . . .
H17 H 0.2397 -0.1230 0.6365 0.268 Uiso 1 1 calc R . .
Cl1 Cl 0.5384(3) 0.0207(3) 0.6640(5) 0.147(3) Uiso 0.50 1 d P . .
O10 O 0.4676(5) 0.1507(4) 0.7500 0.130(5) Uiso 1 2 d SD . .
O11B O 0.5048(6) 0.1266(4) 0.7500 0.225(9) Uiso 1 2 d SD . .
C28 C 0.4996(7) 0.1548(7) 0.7500 0.144(9) Uiso 1 2 d SD . .
C30 C 0.5387(11) 0.1917(12) 0.7500 0.217(14) Uiso 1 2 d S . .
C35 C 0.6308(10) 0.3306(12) 0.7500 0.197(13) Uiso 1 2 d S . .
H35 H 0.6075 0.3290 0.7500 0.237 Uiso 1 2 calc SR . .
C34 C 0.6342(9) 0.2984(9) 0.7500 0.154(10) Uiso 1 2 d S . .
C31 C 0.5322(9) 0.2187(9) 0.7500 0.178(12) Uiso 1 2 d S . .
H31 H 0.5080 0.2150 0.7500 0.214 Uiso 1 2 calc SR . .
C32 C 0.5659(10) 0.2567(10) 0.7500 0.197(13) Uiso 1 2 d S . .
H32 H 0.5650 0.2788 0.7500 0.236 Uiso 1 2 calc SR . .
C33 C 0.5998(11) 0.2554(10) 0.7500 0.209(14) Uiso 1 2 d S . .
Zn1 Zn 0.40271(3) 0.03058(3) 0.66034(6) 0.0486(6) Uiso 1 1 d . . .
Zn2 Zn 0.42438(5) 0.10458(5) 0.7500 0.0440(7) Uiso 1 2 d S . .
Zn3 Zn 0.48152(6) 0.07455(6) 0.7500 0.0797(8) Uiso 1 2 d SD . .

_geom_special_details            
;
All esds (except the esd in the dihedral angle between two l.s. planes)
are estimated using the full covariance matrix. The cell esds are taken
into account individually in the estimation of esds in distances, angles
and torsion angles; correlations between esds in cell parameters are only
used when they are defined by crystal symmetry. An approximate (isotropic)
treatment of cell esds is used for estimating esds involving l.s. planes.
;

loop_
_geom_bond_atom_site_label_1
_geom_bond_atom_site_label_2
_geom_bond_distance
_geom_bond_site_symmetry_2
_geom_bond_publ_flag
O3 C1 1.257(11) . ?
O3 Zn2 1.930(6) . ?
O2 C1 1.202(11) . ?
O2 Zn1 1.957(7) . ?
O4 Zn2 1.913(8) . ?
O4 Zn1 1.945(5) 10_557 ?
O4 Zn1 1.945(5) . ?
O4 Zn3 1.961(8) . ?
C7 C3 1.397(15) . ?
C7 C18 1.425(14) 9_556 ?
C3 C4 1.426(13) . ?
C3 C2 1.508(14) . ?
C2 C6 1.394(15) . ?
C2 C5 1.439(15) . ?
C1 C8 1.606(13) . ?
C6 C9 1.519(17) . ?
C4 C3 1.426(13) 10_556 ?
C5 C10 1.470(16) . ?
O7 C11 1.284(9) . ?
O7 Zn1 1.884(7) . ?
O6 C12 1.239(14) . ?
O6 Zn1 1.926(9) . ?
O5 C12 1.267(14) . ?
O5 Zn3 1.967(10) . ?
C11 O7 1.284(9) 10_557 ?
C11 C20 1.343(19) . ?
C20 C16 1.402(18) . ?
C20 C16 1.402(18) 10_557 ?
C8 C10 1.319(14) . ?
C8 C9 1.416(15) . ?
C13 C15 1.387(19) . ?
C13 C14 1.413(18) . ?
C13 C12 1.509(17) . ?
C19 C17 1.33(2) . ?
C19 C17 1.33(2) 10_557 ?
C19 C18 1.60(2) . ?
C15 C14 1.43(2) 7_656 ?
C15 Cl1 1.848(19) . ?
C14 C15 1.43(2) 7_656 ?
C18 C7 1.425(14) 8_556 ?
C18 C7 1.425(14) 5 ?
C16 C17 1.46(2) . ?
O10 C28 1.246(16) . ?
O10 Zn2 1.844(15) . ?
O11B C28 1.284(16) . ?
O11B Zn3 1.861(15) . ?
C28 C30 1.57(4) . ?
C30 C31 1.27(4) . ?
C35 C34 1.40(3) . ?
C35 C34 1.42(3) 3_665 ?
C34 C35 1.42(3) 2_655 ?
C34 C33 1.63(4) . ?
C31 C32 1.49(4) . ?
C32 C33 1.42(4) . ?
Zn1 Zn1 3.129(2) 10_557 ?
Zn1 Zn2 3.1361(19) . ?
Zn2 O3 1.930(6) 10_557 ?
Zn2 Zn1 3.1361(19) 10_557 ?
Zn3 O5 1.967(10) 10_557 ?

loop_
_geom_angle_atom_site_label_1
_geom_angle_atom_site_label_2
_geom_angle_atom_site_label_3
_geom_angle
_geom_angle_site_symmetry_1
_geom_angle_site_symmetry_3
_geom_angle_publ_flag
C1 O3 Zn2 123.4(7) . . ?
C1 O2 Zn1 125.7(7) . . ?
Zn2 O4 Zn1 108.8(3) . 10_557 ?
Zn2 O4 Zn1 108.8(3) . . ?
Zn1 O4 Zn1 107.1(4) 10_557 . ?
Zn2 O4 Zn3 109.5(4) . . ?
Zn1 O4 Zn3 111.3(2) 10_557 . ?
Zn1 O4 Zn3 111.3(2) . . ?
C3 C7 C18 111.3(13) . 9_556 ?
C7 C3 C4 127.7(11) . . ?
C7 C3 C2 114.9(10) . . ?
C4 C3 C2 117.3(10) . . ?
C6 C2 C5 124.8(12) . . ?
C6 C2 C3 116.2(11) . . ?
C5 C2 C3 118.9(10) . . ?
O2 C1 O3 134.8(10) . . ?
O2 C1 C8 113.4(9) . . ?
O3 C1 C8 111.7(9) . . ?
C2 C6 C9 117.8(13) . . ?
C3 C4 C3 112.0(14) 10_556 . ?
C2 C5 C10 112.6(12) . . ?
C11 O7 Zn1 133.0(8) . . ?
C12 O6 Zn1 119.8(9) . . ?
C12 O5 Zn3 132.8(10) . . ?
O7 C11 O7 120.3(14) 10_557 . ?
O7 C11 C20 119.0(7) 10_557 . ?
O7 C11 C20 118.9(7) . . ?
C11 C20 C16 124.5(10) . . ?
C11 C20 C16 124.5(10) . 10_557 ?
C16 C20 C16 106.2(19) . 10_557 ?
C10 C8 C9 122.7(11) . . ?
C10 C8 C1 121.4(10) . . ?
C9 C8 C1 115.4(10) . . ?
C8 C10 C5 125.4(12) . . ?
C8 C9 C6 115.9(12) . . ?
C15 C13 C14 116.1(14) . . ?
C15 C13 C12 125.1(15) . . ?
C14 C13 C12 118.9(15) . . ?
C17 C19 C17 124(3) . 10_557 ?
C17 C19 C18 118.0(15) . . ?
C17 C19 C18 118.0(15) 10_557 . ?
C13 C15 C14 126.4(16) . 7_656 ?
C13 C15 Cl1 123.8(15) . . ?
C14 C15 Cl1 109.3(15) 7_656 . ?
O6 C12 O5 134.5(14) . . ?
O6 C12 C13 113.6(13) . . ?
O5 C12 C13 111.8(13) . . ?
C13 C14 C15 117.5(16) . 7_656 ?
C7 C18 C7 127.4(18) 8_556 5 ?
C7 C18 C19 114.7(9) 8_556 . ?
C7 C18 C19 114.7(9) 5 . ?
C20 C16 C17 128(2) . . ?
C19 C17 C16 116(2) . . ?
C28 O10 Zn2 123.6(17) . . ?
C28 O11B Zn3 145(2) . . ?
O10 C28 O11B 122(3) . . ?
O10 C28 C30 129(3) . . ?
O11B C28 C30 109(2) . . ?
C31 C30 C28 107(3) . . ?
C34 C35 C34 118(4) . 3_665 ?
C35 C34 C35 122(4) . 2_655 ?
C35 C34 C33 126(4) . . ?
C35 C34 C33 112(4) 2_655 . ?
C30 C31 C32 115(4) . . ?
C33 C32 C31 112(3) . . ?
C32 C33 C34 107(3) . . ?
O7 Zn1 O6 104.9(3) . . ?
O7 Zn1 O4 112.4(3) . . ?
O6 Zn1 O4 116.2(3) . . ?
O7 Zn1 O2 105.0(3) . . ?
O6 Zn1 O2 106.1(3) . . ?
O4 Zn1 O2 111.3(3) . . ?
O7 Zn1 Zn1 76.2(2) . 10_557 ?
O6 Zn1 Zn1 125.0(3) . 10_557 ?
O4 Zn1 Zn1 36.47(18) . 10_557 ?
O2 Zn1 Zn1 127.2(2) . 10_557 ?
O7 Zn1 Zn2 120.0(2) . . ?
O6 Zn1 Zn2 133.1(3) . . ?
O4 Zn1 Zn2 35.3(2) . . ?
O2 Zn1 Zn2 76.3(2) . . ?
Zn1 Zn1 Zn2 60.08(3) 10_557 . ?
O10 Zn2 O4 118.8(6) . . ?
O10 Zn2 O3 99.6(3) . 10_557 ?
O4 Zn2 O3 113.8(2) . 10_557 ?
O10 Zn2 O3 99.6(3) . . ?
O4 Zn2 O3 113.8(2) . . ?
O3 Zn2 O3 109.5(4) 10_557 . ?
O10 Zn2 Zn1 131.4(4) . 10_557 ?
O4 Zn2 Zn1 35.97(12) . 10_557 ?
O3 Zn2 Zn1 78.0(2) 10_557 10_557 ?
O3 Zn2 Zn1 127.3(2) . 10_557 ?
O10 Zn2 Zn1 131.4(4) . . ?
O4 Zn2 Zn1 35.97(12) . . ?
O3 Zn2 Zn1 127.3(2) 10_557 . ?
O3 Zn2 Zn1 78.0(2) . . ?
Zn1 Zn2 Zn1 59.84(5) 10_557 . ?
O11B Zn3 O4 101.5(8) . . ?
O11B Zn3 O5 123.1(4) . . ?
O4 Zn3 O5 104.6(3) . . ?
O11B Zn3 O5 123.1(4) . 10_557 ?
O4 Zn3 O5 104.6(3) . 10_557 ?
O5 Zn3 O5 97.5(6) . 10_557 ?

_diffrn_measured_fraction_theta_max 0.997
_diffrn_reflns_theta_full        17.25
_diffrn_measured_fraction_theta_full 0.997
_refine_diff_density_max         1.122
_refine_diff_density_min         -0.899
_refine_diff_density_rms         0.077
