####################################################################### 
# 
# This file contains crystal structure data downloaded from the 
# Cambridge Structural Database (CSD) hosted by the Cambridge 
# Crystallographic Data Centre (CCDC).
# 
# Full information about CCDC data access policies and citation 
# guidelines are available at http://www.ccdc.cam.ac.uk/access/V1 
# 
# Audit and citation data items may have been added by the CCDC. 
# Please retain this information to preserve the provenance of 
# this file and to allow appropriate attribution of the data. 
# 
#######################################################################

data_7
_audit_block_doi                 10.5517/cc7jns5
_database_code_depnum_ccdc_archive 'CCDC 224557'
loop_
_citation_id
_citation_doi
_citation_year
1 10.1021/cg0499212 2005
_audit_update_record             
;
2003-11-18 deposited with the CCDC.	2024-07-10 downloaded from the CCDC.
;

_audit_creation_method           SHELXL-97
_chemical_name_systematic        
;
?
;
_chemical_name_common            ?
_chemical_melting_point          ?
_chemical_formula_moiety         ?
_chemical_formula_sum            'C10.50 H12.50 Ag Cl2.50 N4 O4 S4'
_chemical_formula_weight         583.48

loop_
_atom_type_symbol
_atom_type_description
_atom_type_scat_dispersion_real
_atom_type_scat_dispersion_imag
_atom_type_scat_source
C C 0.0033 0.0016 'International Tables Vol C Tables 4.2.6.8 and 6.1.1.4'
H H 0.0000 0.0000 'International Tables Vol C Tables 4.2.6.8 and 6.1.1.4'
N N 0.0061 0.0033 'International Tables Vol C Tables 4.2.6.8 and 6.1.1.4'
O O 0.0106 0.0060 'International Tables Vol C Tables 4.2.6.8 and 6.1.1.4'
S S 0.1246 0.1234 'International Tables Vol C Tables 4.2.6.8 and 6.1.1.4'
Cl Cl 0.1484 0.1585 'International Tables Vol C Tables 4.2.6.8 and 6.1.1.4'
Ag Ag -0.8971 1.1015 'International Tables Vol C Tables 4.2.6.8 and 6.1.1.4'

_symmetry_cell_setting           Triclinic
_symmetry_space_group_name_H-M   P-1

loop_
_symmetry_equiv_pos_as_xyz
'x, y, z'
'-x, -y, -z'

_cell_length_a                   8.415(4)
_cell_length_b                   12.503(6)
_cell_length_c                   12.682(6)
_cell_angle_alpha                62.908(7)
_cell_angle_beta                 87.261(8)
_cell_angle_gamma                71.416(7)
_cell_volume                     1118.3(10)
_cell_formula_units_Z            2
_cell_measurement_temperature    273(2)
_cell_measurement_reflns_used    941
_cell_measurement_theta_min      2.57
_cell_measurement_theta_max      26.41

_exptl_crystal_description       ?
_exptl_crystal_colour            ?
_exptl_crystal_size_max          0.30
_exptl_crystal_size_mid          0.25
_exptl_crystal_size_min          0.20
_exptl_crystal_density_meas      0
_exptl_crystal_density_diffrn    1.733
_exptl_crystal_density_method    'not measured'
_exptl_crystal_F_000             578
_exptl_absorpt_coefficient_mu    1.595
_exptl_absorpt_correction_type   MULTI-SCAN
_exptl_absorpt_correction_T_min  0.6461
_exptl_absorpt_correction_T_max  0.7409
_exptl_absorpt_process_details   SADABS

_exptl_special_details           
;
?
;

_diffrn_ambient_temperature      273(2)
_diffrn_radiation_wavelength     0.71073
_diffrn_radiation_type           MoK\a
_diffrn_radiation_source         'fine-focus sealed tube'
_diffrn_radiation_monochromator  graphite
_diffrn_measurement_device_type  'CCD area detector'
_diffrn_measurement_method       'phi and omega scans'
_diffrn_detector_area_resol_mean ?
_diffrn_standards_number         ?
_diffrn_standards_interval_count ?
_diffrn_standards_interval_time  ?
_diffrn_standards_decay_%        ?
_diffrn_reflns_number            4491
_diffrn_reflns_av_R_equivalents  0.0160
_diffrn_reflns_av_sigmaI/netI    0.0295
_diffrn_reflns_limit_h_min       -4
_diffrn_reflns_limit_h_max       10
_diffrn_reflns_limit_k_min       -12
_diffrn_reflns_limit_k_max       14
_diffrn_reflns_limit_l_min       -14
_diffrn_reflns_limit_l_max       15
_diffrn_reflns_theta_min         2.57
_diffrn_reflns_theta_max         25.03
_reflns_number_total             3823
_reflns_number_gt                3224
_reflns_threshold_expression     >2sigma(I)

_computing_data_collection       'Bruker SMART'
_computing_cell_refinement       'Bruker SMART'
_computing_data_reduction        'Bruker SAINT'
_computing_structure_solution    'SHELXS-97 (Sheldrick, 1990)'
_computing_structure_refinement  'SHELXL-97 (Sheldrick, 1997)'
_computing_molecular_graphics    'Bruker SHELXTL'
_computing_publication_material  'Bruker SHELXTL'

_refine_special_details          
;
Refinement of F^2^ against ALL reflections.  The weighted R-factor wR and
goodness of fit S are based on F^2^, conventional R-factors R are based
on F, with F set to zero for negative F^2^. The threshold expression of
F^2^ > 2sigma(F^2^) is used only for calculating R-factors(gt) etc. and is
not relevant to the choice of reflections for refinement.  R-factors based
on F^2^ are statistically about twice as large as those based on F, and R-
factors based on ALL data will be even larger.
;

_refine_ls_structure_factor_coef Fsqd
_refine_ls_matrix_type           full
_refine_ls_weighting_scheme      calc
_refine_ls_weighting_details     
'calc w=1/[\s^2^(Fo^2^)+(0.0648P)^2^+0.6630P] where P=(Fo^2^+2Fc^2^)/3'
_atom_sites_solution_primary     direct
_atom_sites_solution_secondary   difmap
_atom_sites_solution_hydrogens   geom
_refine_ls_hydrogen_treatment    mixed
_refine_ls_extinction_method     none
_refine_ls_extinction_coef       ?
_refine_ls_number_reflns         3823
_refine_ls_number_parameters     255
_refine_ls_number_restraints     10
_refine_ls_R_factor_all          0.0448
_refine_ls_R_factor_gt           0.0350
_refine_ls_wR_factor_ref         0.0996
_refine_ls_wR_factor_gt          0.0923
_refine_ls_goodness_of_fit_ref   1.014
_refine_ls_restrained_S_all      1.028
_refine_ls_shift/su_max          0.041
_refine_ls_shift/su_mean         0.001

loop_
_atom_site_label
_atom_site_type_symbol
_atom_site_fract_x
_atom_site_fract_y
_atom_site_fract_z
_atom_site_U_iso_or_equiv
_atom_site_adp_type
_atom_site_occupancy
_atom_site_symmetry_multiplicity
_atom_site_calc_flag
_atom_site_refinement_flags
_atom_site_disorder_assembly
_atom_site_disorder_group
Ag1 Ag 0.24336(3) 0.51406(3) 0.51439(3) 0.03867(13) Uani 1 1 d . . .
S1 S -0.20628(13) 0.78922(13) 0.60834(14) 0.0614(4) Uani 1 1 d . . .
S2 S 0.17802(13) 0.69208(11) 0.66164(12) 0.0531(3) Uani 1 1 d . . .
S3 S 0.36339(13) 0.82215(11) 0.15326(9) 0.0512(3) Uani 1 1 d . . .
S4 S 0.04853(13) 0.81173(12) 0.28823(9) 0.0521(3) Uani 1 1 d . . .
N1 N -0.1691(4) 0.6235(3) 0.5376(3) 0.0387(7) Uani 1 1 d . . .
N2 N -0.0081(4) 0.6133(3) 0.5692(3) 0.0342(7) Uani 1 1 d . . .
N3 N 0.5243(4) 0.6150(3) 0.3332(3) 0.0384(7) Uani 1 1 d . . .
N4 N 0.3586(4) 0.6460(3) 0.3583(3) 0.0354(7) Uani 1 1 d . . .
C1 C -0.4684(6) 0.7449(6) 0.5266(7) 0.084(2) Uani 1 1 d . . .
H1A H -0.5055 0.8130 0.4468 0.125 Uiso 1 1 calc R . .
H1B H -0.5271 0.7716 0.5819 0.125 Uiso 1 1 calc R . .
H1C H -0.4918 0.6717 0.5339 0.125 Uiso 1 1 calc R . .
C2 C -0.2848(5) 0.7119(4) 0.5531(5) 0.0491(11) Uani 1 1 d . . .
C3 C -0.0087(5) 0.6927(4) 0.6085(4) 0.0384(8) Uani 1 1 d . . .
C4 C 0.1172(6) 0.8534(5) 0.6457(5) 0.0549(12) Uani 1 1 d . . .
H4A H 0.0213 0.8666 0.6894 0.066 Uiso 1 1 calc R . .
H4B H 0.2099 0.8611 0.6811 0.066 Uiso 1 1 calc R . .
C5 C 0.0727(5) 0.9536(4) 0.5208(4) 0.0468(10) Uani 1 1 d . . .
H5 H 0.1528 0.9510 0.4681 0.056 Uiso 1 1 calc R . .
C6 C 0.7117(6) 0.6899(6) 0.1806(5) 0.0698(16) Uani 1 1 d . . .
H6A H 0.7831 0.7065 0.2240 0.105 Uiso 1 1 calc R . .
H6B H 0.6937 0.7518 0.0980 0.105 Uiso 1 1 calc R . .
H6C H 0.7647 0.6061 0.1881 0.105 Uiso 1 1 calc R . .
C7 C 0.5450(5) 0.6981(4) 0.2304(3) 0.0414(9) Uani 1 1 d . . .
C8 C 0.2617(5) 0.7530(4) 0.2731(3) 0.0366(8) Uani 1 1 d . . .
C9 C -0.0198(6) 0.9714(4) 0.1633(4) 0.0498(10) Uani 1 1 d . . .
H9A H -0.1274 1.0206 0.1757 0.060 Uiso 1 1 calc R . .
H9B H 0.0614 1.0126 0.1609 0.060 Uiso 1 1 calc R . .
C10 C -0.0380(5) 0.9725(4) 0.0469(4) 0.0453(9) Uani 1 1 d . . .
H10 H -0.1081 0.9315 0.0392 0.054 Uiso 1 1 calc R . .
C11 C 0.207(2) 0.5800(15) 0.0231(13) 0.097(4) Uani 0.50 1 d P . .
H11 H 0.2454 0.5014 0.0156 0.116 Uiso 0.50 1 calc PR . .
Cl1 Cl 0.2026(9) 0.5440(5) 0.1720(4) 0.149(2) Uani 0.50 1 d P . .
Cl2 Cl -0.0082(6) 0.6743(5) -0.0492(4) 0.1154(13) Uani 0.50 1 d P . .
Cl3 Cl 0.3344(5) 0.6708(4) -0.0464(3) 0.1006(11) Uani 0.50 1 d P . .
Cl4 Cl 0.4777(2) 0.0651(2) 0.21679(19) 0.0996(6) Uani 1 1 d D . .
O1 O 0.3265(6) 0.0373(6) 0.2523(6) 0.116(2) Uani 1 1 d D . .
O2 O 0.5344(8) 0.1009(10) 0.2904(8) 0.176(4) Uani 1 1 d D . .
O3 O 0.440(2) 0.170(2) 0.1010(9) 0.55(3) Uani 1 1 d D . .
O4 O 0.6006(11) -0.0438(13) 0.2214(18) 0.419(15) Uani 1 1 d D . .

loop_
_atom_site_aniso_label
_atom_site_aniso_U_11
_atom_site_aniso_U_22
_atom_site_aniso_U_33
_atom_site_aniso_U_23
_atom_site_aniso_U_13
_atom_site_aniso_U_12
Ag1 0.02867(18) 0.03812(18) 0.04434(19) -0.01776(14) 0.00407(12) -0.00725(12)
S1 0.0309(5) 0.0685(8) 0.1197(11) -0.0718(8) 0.0217(6) -0.0189(5)
S2 0.0323(5) 0.0546(6) 0.0815(8) -0.0397(6) -0.0003(5) -0.0126(5)
S3 0.0333(5) 0.0512(6) 0.0378(5) 0.0008(5) 0.0036(4) -0.0081(5)
S4 0.0300(5) 0.0589(7) 0.0359(5) -0.0039(5) 0.0042(4) -0.0035(5)
N1 0.0270(15) 0.0426(18) 0.055(2) -0.0288(16) 0.0112(14) -0.0141(14)
N2 0.0247(15) 0.0370(16) 0.0413(17) -0.0193(14) 0.0079(13) -0.0096(13)
N3 0.0291(16) 0.0405(18) 0.0385(17) -0.0136(15) 0.0024(13) -0.0101(14)
N4 0.0253(14) 0.0373(16) 0.0339(15) -0.0105(13) 0.0011(12) -0.0073(13)
C1 0.025(2) 0.093(4) 0.166(7) -0.089(5) 0.014(3) -0.016(3)
C2 0.031(2) 0.055(3) 0.080(3) -0.045(2) 0.018(2) -0.0188(19)
C3 0.0306(19) 0.040(2) 0.051(2) -0.0258(19) 0.0115(16) -0.0141(16)
C4 0.045(2) 0.062(3) 0.083(3) -0.050(3) 0.010(2) -0.025(2)
C5 0.040(2) 0.052(2) 0.069(3) -0.040(2) 0.019(2) -0.0252(18)
C6 0.034(2) 0.077(4) 0.059(3) -0.004(3) 0.009(2) -0.012(2)
C7 0.0288(19) 0.044(2) 0.037(2) -0.0083(18) 0.0007(15) -0.0091(16)
C8 0.0300(18) 0.041(2) 0.0304(18) -0.0102(16) -0.0005(15) -0.0099(16)
C9 0.042(2) 0.043(2) 0.040(2) -0.0087(19) -0.0016(18) 0.0019(18)
C10 0.035(2) 0.040(2) 0.041(2) -0.0067(17) -0.0061(16) -0.0039(17)
C11 0.130(12) 0.096(10) 0.095(10) -0.059(9) 0.041(9) -0.058(9)
Cl1 0.270(7) 0.142(4) 0.071(2) -0.044(2) 0.047(3) -0.126(5)
Cl2 0.111(3) 0.134(3) 0.103(3) -0.053(3) 0.047(2) -0.052(3)
Cl3 0.116(3) 0.110(3) 0.081(2) -0.0338(19) 0.0152(19) -0.061(2)
Cl4 0.0899(11) 0.1494(17) 0.1157(14) -0.0942(14) 0.0448(10) -0.0647(12)
O1 0.078(3) 0.177(6) 0.179(6) -0.139(5) 0.054(3) -0.067(3)
O2 0.104(4) 0.304(11) 0.247(9) -0.204(9) 0.047(5) -0.110(6)
O3 0.53(3) 0.96(7) 0.113(9) -0.030(18) 0.037(13) -0.50(4)
O4 0.207(10) 0.60(3) 0.96(4) -0.70(3) 0.368(19) -0.286(15)

_geom_special_details            
;
All esds (except the esd in the dihedral angle between two l.s. planes)
are estimated using the full covariance matrix.  The cell esds are taken
into account individually in the estimation of esds in distances, angles
and torsion angles; correlations between esds in cell parameters are only
used when they are defined by crystal symmetry.  An approximate (isotropic)
treatment of cell esds is used for estimating esds involving l.s. planes.
;

loop_
_geom_bond_atom_site_label_1
_geom_bond_atom_site_label_2
_geom_bond_distance
_geom_bond_site_symmetry_2
_geom_bond_publ_flag
Ag1 N4 2.332(3) . ?
Ag1 N2 2.339(3) . ?
Ag1 N1 2.354(3) 2_566 ?
Ag1 N3 2.381(3) 2_666 ?
S1 C2 1.712(4) . ?
S1 C3 1.714(4) . ?
S2 C3 1.735(4) . ?
S2 C4 1.831(5) . ?
S3 C8 1.714(4) . ?
S3 C7 1.717(4) . ?
S4 C8 1.747(4) . ?
S4 C9 1.817(4) . ?
N1 C2 1.305(5) . ?
N1 N2 1.381(4) . ?
N1 Ag1 2.354(3) 2_566 ?
N2 C3 1.298(5) . ?
N3 C7 1.292(5) . ?
N3 N4 1.387(4) . ?
N3 Ag1 2.381(3) 2_666 ?
N4 C8 1.302(5) . ?
C1 C2 1.479(6) . ?
C1 H1A 0.9600 . ?
C1 H1B 0.9600 . ?
C1 H1C 0.9600 . ?
C4 C5 1.472(7) . ?
C4 H4A 0.9700 . ?
C4 H4B 0.9700 . ?
C5 C5 1.311(9) 2_576 ?
C5 H5 0.9300 . ?
C6 C7 1.503(6) . ?
C6 H6A 0.9600 . ?
C6 H6B 0.9600 . ?
C6 H6C 0.9600 . ?
C9 C10 1.485(6) . ?
C9 H9A 0.9700 . ?
C9 H9B 0.9700 . ?
C10 C10 1.326(9) 2_575 ?
C10 H10 0.9300 . ?
C11 Cl3 1.727(15) . ?
C11 Cl1 1.732(15) . ?
C11 Cl2 1.824(18) . ?
C11 H11 0.9800 . ?
Cl4 O2 1.364(5) . ?
Cl4 O4 1.401(8) . ?
Cl4 O3 1.414(9) . ?
Cl4 O1 1.423(4) . ?

loop_
_geom_angle_atom_site_label_1
_geom_angle_atom_site_label_2
_geom_angle_atom_site_label_3
_geom_angle
_geom_angle_site_symmetry_1
_geom_angle_site_symmetry_3
_geom_angle_publ_flag
N4 Ag1 N2 116.96(11) . . ?
N4 Ag1 N1 110.40(12) . 2_566 ?
N2 Ag1 N1 102.88(11) . 2_566 ?
N4 Ag1 N3 103.03(11) . 2_666 ?
N2 Ag1 N3 116.48(12) . 2_666 ?
N1 Ag1 N3 106.79(12) 2_566 2_666 ?
C2 S1 C3 87.33(19) . . ?
C3 S2 C4 101.7(2) . . ?
C8 S3 C7 87.39(19) . . ?
C8 S4 C9 102.6(2) . . ?
C2 N1 N2 112.2(3) . . ?
C2 N1 Ag1 120.7(3) . 2_566 ?
N2 N1 Ag1 126.6(2) . 2_566 ?
C3 N2 N1 112.3(3) . . ?
C3 N2 Ag1 118.8(2) . . ?
N1 N2 Ag1 126.8(2) . . ?
C7 N3 N4 112.5(3) . . ?
C7 N3 Ag1 119.9(2) . 2_666 ?
N4 N3 Ag1 122.4(2) . 2_666 ?
C8 N4 N3 112.0(3) . . ?
C8 N4 Ag1 120.7(2) . . ?
N3 N4 Ag1 126.5(2) . . ?
C2 C1 H1A 109.5 . . ?
C2 C1 H1B 109.5 . . ?
H1A C1 H1B 109.5 . . ?
C2 C1 H1C 109.5 . . ?
H1A C1 H1C 109.5 . . ?
H1B C1 H1C 109.5 . . ?
N1 C2 C1 124.4(4) . . ?
N1 C2 S1 114.0(3) . . ?
C1 C2 S1 121.5(3) . . ?
N2 C3 S1 114.2(3) . . ?
N2 C3 S2 120.9(3) . . ?
S1 C3 S2 124.8(2) . . ?
C5 C4 S2 113.3(3) . . ?
C5 C4 H4A 108.9 . . ?
S2 C4 H4A 108.9 . . ?
C5 C4 H4B 108.9 . . ?
S2 C4 H4B 108.9 . . ?
H4A C4 H4B 107.7 . . ?
C5 C5 C4 124.2(5) 2_576 . ?
C5 C5 H5 117.9 2_576 . ?
C4 C5 H5 117.9 . . ?
C7 C6 H6A 109.5 . . ?
C7 C6 H6B 109.5 . . ?
H6A C6 H6B 109.5 . . ?
C7 C6 H6C 109.5 . . ?
H6A C6 H6C 109.5 . . ?
H6B C6 H6C 109.5 . . ?
N3 C7 C6 124.1(4) . . ?
N3 C7 S3 114.1(3) . . ?
C6 C7 S3 121.9(3) . . ?
N4 C8 S3 114.0(3) . . ?
N4 C8 S4 119.6(3) . . ?
S3 C8 S4 126.5(2) . . ?
C10 C9 S4 113.0(3) . . ?
C10 C9 H9A 109.0 . . ?
S4 C9 H9A 109.0 . . ?
C10 C9 H9B 109.0 . . ?
S4 C9 H9B 109.0 . . ?
H9A C9 H9B 107.8 . . ?
C10 C10 C9 125.1(5) 2_575 . ?
C10 C10 H10 117.5 2_575 . ?
C9 C10 H10 117.5 . . ?
Cl3 C11 Cl1 112.2(8) . . ?
Cl3 C11 Cl2 107.8(9) . . ?
Cl1 C11 Cl2 106.7(9) . . ?
Cl3 C11 H11 110.0 . . ?
Cl1 C11 H11 110.0 . . ?
Cl2 C11 H11 110.0 . . ?
O2 Cl4 O4 109.6(7) . . ?
O2 Cl4 O3 107.4(10) . . ?
O4 Cl4 O3 112.5(11) . . ?
O2 Cl4 O1 110.5(4) . . ?
O4 Cl4 O1 109.0(5) . . ?
O3 Cl4 O1 107.9(8) . . ?

loop_
_geom_torsion_atom_site_label_1
_geom_torsion_atom_site_label_2
_geom_torsion_atom_site_label_3
_geom_torsion_atom_site_label_4
_geom_torsion
_geom_torsion_site_symmetry_1
_geom_torsion_site_symmetry_2
_geom_torsion_site_symmetry_3
_geom_torsion_site_symmetry_4
_geom_torsion_publ_flag
C2 N1 N2 C3 0.9(5) . . . . ?
Ag1 N1 N2 C3 -171.3(3) 2_566 . . . ?
C2 N1 N2 Ag1 -162.3(3) . . . . ?
Ag1 N1 N2 Ag1 25.5(4) 2_566 . . . ?
N4 Ag1 N2 C3 -61.8(3) . . . . ?
N1 Ag1 N2 C3 177.0(3) 2_566 . . . ?
N3 Ag1 N2 C3 60.6(3) 2_666 . . . ?
N4 Ag1 N2 N1 100.4(3) . . . . ?
N1 Ag1 N2 N1 -20.8(3) 2_566 . . . ?
N3 Ag1 N2 N1 -137.2(3) 2_666 . . . ?
C7 N3 N4 C8 -0.9(5) . . . . ?
Ag1 N3 N4 C8 153.4(3) 2_666 . . . ?
C7 N3 N4 Ag1 168.8(3) . . . . ?
Ag1 N3 N4 Ag1 -36.8(4) 2_666 . . . ?
N2 Ag1 N4 C8 -30.6(3) . . . . ?
N1 Ag1 N4 C8 86.5(3) 2_566 . . . ?
N3 Ag1 N4 C8 -159.8(3) 2_666 . . . ?
N2 Ag1 N4 N3 160.4(3) . . . . ?
N1 Ag1 N4 N3 -82.4(3) 2_566 . . . ?
N3 Ag1 N4 N3 31.3(3) 2_666 . . . ?
N2 N1 C2 C1 179.8(5) . . . . ?
Ag1 N1 C2 C1 -7.6(7) 2_566 . . . ?
N2 N1 C2 S1 -0.4(5) . . . . ?
Ag1 N1 C2 S1 172.3(2) 2_566 . . . ?
C3 S1 C2 N1 -0.1(4) . . . . ?
C3 S1 C2 C1 179.7(5) . . . . ?
N1 N2 C3 S1 -1.0(4) . . . . ?
Ag1 N2 C3 S1 163.71(18) . . . . ?
N1 N2 C3 S2 176.3(3) . . . . ?
Ag1 N2 C3 S2 -19.0(4) . . . . ?
C2 S1 C3 N2 0.7(3) . . . . ?
C2 S1 C3 S2 -176.6(3) . . . . ?
C4 S2 C3 N2 157.8(3) . . . . ?
C4 S2 C3 S1 -25.1(3) . . . . ?
C3 S2 C4 C5 -64.7(4) . . . . ?
S2 C4 C5 C5 123.1(5) . . . 2_576 ?
N4 N3 C7 C6 179.2(4) . . . . ?
Ag1 N3 C7 C6 24.2(6) 2_666 . . . ?
N4 N3 C7 S3 -0.5(4) . . . . ?
Ag1 N3 C7 S3 -155.55(19) 2_666 . . . ?
C8 S3 C7 N3 1.3(3) . . . . ?
C8 S3 C7 C6 -178.4(4) . . . . ?
N3 N4 C8 S3 1.9(4) . . . . ?
Ag1 N4 C8 S3 -168.51(17) . . . . ?
N3 N4 C8 S4 -178.5(3) . . . . ?
Ag1 N4 C8 S4 11.1(4) . . . . ?
C7 S3 C8 N4 -1.8(3) . . . . ?
C7 S3 C8 S4 178.6(3) . . . . ?
C9 S4 C8 N4 170.0(3) . . . . ?
C9 S4 C8 S3 -10.5(3) . . . . ?
C8 S4 C9 C10 74.3(4) . . . . ?
S4 C9 C10 C10 -124.8(5) . . . 2_575 ?

_diffrn_measured_fraction_theta_max 0.969
_diffrn_reflns_theta_full        25.03
_diffrn_measured_fraction_theta_full 0.969
_refine_diff_density_max         0.866
_refine_diff_density_min         -0.534
_refine_diff_density_rms         0.086
