####################################################################### 
# 
# This file contains crystal structure data downloaded from the 
# Cambridge Structural Database (CSD) hosted by the Cambridge 
# Crystallographic Data Centre (CCDC).
# 
# Full information about CCDC data access policies and citation 
# guidelines are available at http://www.ccdc.cam.ac.uk/access/V1 
# 
# Audit and citation data items may have been added by the CCDC. 
# Please retain this information to preserve the provenance of 
# this file and to allow appropriate attribution of the data. 
# 
#######################################################################

data_2
_audit_block_doi                 10.5517/cc85p47
_database_code_depnum_ccdc_archive 'CCDC 243788'
loop_
_citation_id
_citation_doi
_citation_year
1 10.1002/anie.200461214 2005
_audit_update_record             
;
2004-07-03 deposited with the CCDC.	2024-07-10 downloaded from the CCDC.
;

_audit_creation_method           SHELXL-97
_chemical_name_systematic        
;
?
;
_chemical_name_common            ?
_chemical_melting_point          ?
_chemical_formula_moiety         ?
_chemical_formula_sum            'C55.33 H50.67 Cl2 N1.33 O10 Zn1.33'
_chemical_formula_weight         1052.37

loop_
_atom_type_symbol
_atom_type_description
_atom_type_scat_dispersion_real
_atom_type_scat_dispersion_imag
_atom_type_scat_source
C C 0.0033 0.0016 'International Tables Vol C Tables 4.2.6.8 and 6.1.1.4'
H H 0.0000 0.0000 'International Tables Vol C Tables 4.2.6.8 and 6.1.1.4'
O O 0.0106 0.0060 'International Tables Vol C Tables 4.2.6.8 and 6.1.1.4'
Cl Cl 0.1484 0.1585 'International Tables Vol C Tables 4.2.6.8 and 6.1.1.4'
Zn Zn 0.2839 1.4301 'International Tables Vol C Tables 4.2.6.8 and 6.1.1.4'
N N 0.0061 0.0033 'International Tables Vol C Tables 4.2.6.8 and 6.1.1.4'

_symmetry_cell_setting           ?
_symmetry_space_group_name_H-M   ?

loop_
_symmetry_equiv_pos_as_xyz
'x, y, z'
'-y, x-y, z'
'-x+y, -x, z'
'x+2/3, y+1/3, z+1/3'
'-y+2/3, x-y+1/3, z+1/3'
'-x+y+2/3, -x+1/3, z+1/3'
'x+1/3, y+2/3, z+2/3'
'-y+1/3, x-y+2/3, z+2/3'
'-x+y+1/3, -x+2/3, z+2/3'

_cell_length_a                   36.6488(10)
_cell_length_b                   36.6488(10)
_cell_length_c                   10.9175(5)
_cell_angle_alpha                90.00
_cell_angle_beta                 90.00
_cell_angle_gamma                120.00
_cell_volume                     12699.1(8)
_cell_formula_units_Z            9
_cell_measurement_temperature    173(2)
_cell_measurement_reflns_used    ?
_cell_measurement_theta_min      ?
_cell_measurement_theta_max      ?

_exptl_crystal_description       ?
_exptl_crystal_colour            ?
_exptl_crystal_size_max          ?
_exptl_crystal_size_mid          ?
_exptl_crystal_size_min          ?
_exptl_crystal_density_meas      ?
_exptl_crystal_density_diffrn    1.238
_exptl_crystal_density_method    'not measured'
_exptl_crystal_F_000             4914
_exptl_absorpt_coefficient_mu    0.722
_exptl_absorpt_correction_type   ?
_exptl_absorpt_correction_T_min  ?
_exptl_absorpt_correction_T_max  ?
_exptl_absorpt_process_details   ?

_exptl_special_details           
;
?
;

_diffrn_ambient_temperature      173(2)
_diffrn_radiation_wavelength     0.71073
_diffrn_radiation_type           MoK\a
_diffrn_radiation_source         'fine-focus sealed tube'
_diffrn_radiation_monochromator  graphite
_diffrn_measurement_device_type  ?
_diffrn_measurement_method       ?
_diffrn_detector_area_resol_mean ?
_diffrn_standards_number         ?
_diffrn_standards_interval_count ?
_diffrn_standards_interval_time  ?
_diffrn_standards_decay_%        ?
_diffrn_reflns_number            20630
_diffrn_reflns_av_R_equivalents  0.0626
_diffrn_reflns_av_sigmaI/netI    0.0479
_diffrn_reflns_limit_h_min       -33
_diffrn_reflns_limit_h_max       33
_diffrn_reflns_limit_k_min       -33
_diffrn_reflns_limit_k_max       33
_diffrn_reflns_limit_l_min       -9
_diffrn_reflns_limit_l_max       9
_diffrn_reflns_theta_min         2.94
_diffrn_reflns_theta_max         18.84
_reflns_number_total             4406
_reflns_number_gt                3671
_reflns_threshold_expression     >2sigma(I)

_computing_data_collection       ?
_computing_cell_refinement       ?
_computing_data_reduction        ?
_computing_structure_solution    'SHELXS-97 (Sheldrick, 1990)'
_computing_structure_refinement  'SHELXL-97 (Sheldrick, 1997)'
_computing_molecular_graphics    ?
_computing_publication_material  ?

_refine_special_details          
;
Refinement of F^2^ against ALL reflections.  The weighted R-factor wR and
goodness of fit S are based on F^2^, conventional R-factors R are based
on F, with F set to zero for negative F^2^. The threshold expression of
F^2^ > 2sigma(F^2^) is used only for calculating R-factors(gt) etc. and is
not relevant to the choice of reflections for refinement.  R-factors based
on F^2^ are statistically about twice as large as those based on F, and R-
factors based on ALL data will be even larger.
;

_refine_ls_structure_factor_coef Fsqd
_refine_ls_matrix_type           full
_refine_ls_weighting_scheme      calc
_refine_ls_weighting_details     
'calc w=1/[\s^2^(Fo^2^)+(0.2000P)^2^+0.0000P] where P=(Fo^2^+2Fc^2^)/3'
_atom_sites_solution_primary     direct
_atom_sites_solution_secondary   difmap
_atom_sites_solution_hydrogens   geom
_refine_ls_hydrogen_treatment    mixed
_refine_ls_extinction_method     SHELXL
_refine_ls_extinction_coef       0.011(4)
_refine_ls_extinction_expression Fc^*^=kFc[1+0.001xFc^2^\l^3^/sin(2\q)]^-1/4^
_refine_ls_abs_structure_details 'Flack H D (1983), Acta Cryst. A39, 876-881'
_refine_ls_abs_structure_Flack   0.00
_refine_ls_number_reflns         4406
_refine_ls_number_parameters     163
_refine_ls_number_restraints     33
_refine_ls_R_factor_all          0.1362
_refine_ls_R_factor_gt           0.1249
_refine_ls_wR_factor_ref         0.3207
_refine_ls_wR_factor_gt          0.3081
_refine_ls_goodness_of_fit_ref   1.376
_refine_ls_restrained_S_all      3.320
_refine_ls_shift/su_max          2.336
_refine_ls_shift/su_mean         0.060

loop_
_atom_site_label
_atom_site_type_symbol
_atom_site_fract_x
_atom_site_fract_y
_atom_site_fract_z
_atom_site_U_iso_or_equiv
_atom_site_adp_type
_atom_site_occupancy
_atom_site_symmetry_multiplicity
_atom_site_calc_flag
_atom_site_refinement_flags
_atom_site_disorder_assembly
_atom_site_disorder_group
Zn1 Zn 0.27580(12) 0.63782(12) -1.6383(9) 0.083(2) Uani 1 1 d . . .
Zn2 Zn 0.3333 0.6667 -1.8726(10) 0.080(3) Uani 1 3 d S . .
O1 O 0.3333 0.6667 -1.698(3) 0.053(9) Uiso 1 3 d S . .
O2 O 0.2381(8) 0.6189(8) -1.779(3) 0.096(8) Uiso 1 1 d . . .
O3 O 0.2793(12) 0.6399(11) -1.946(4) 0.142(12) Uiso 1 1 d . . .
C1 C 0.170(3) 0.585(3) -2.170(4) 0.40(9) Uiso 1 1 d G . .
H1A H 0.1710 0.5855 -2.2566 0.479 Uiso 1 1 calc R . .
C2 C 0.132(2) 0.568(3) -2.108(6) 0.28(5) Uiso 1 1 d GD . .
C3 C 0.1311(13) 0.5675(17) -1.981(6) 0.18(3) Uiso 1 1 d G . .
H3A H 0.1049 0.5557 -1.9391 0.216 Uiso 1 1 calc R . .
C6 C 0.1685(17) 0.5844(16) -1.915(4) 0.18(2) Uiso 1 1 d G . .
H6A H 0.1678 0.5841 -1.8280 0.210 Uiso 1 1 calc R . .
C5 C 0.2068(13) 0.6016(17) -1.976(6) 0.16(2) Uiso 1 1 d G . .
C4 C 0.208(2) 0.602(3) -2.104(6) 0.35(7) Uiso 1 1 d G . .
H4A H 0.2339 0.6138 -2.1454 0.418 Uiso 1 1 calc R . .
C7 C 0.2456(14) 0.6223(13) -1.882(5) 0.101(12) Uiso 1 1 d . . .
C8 C -0.227(2) 0.3870(19) -2.868(8) 0.23(4) Uiso 1 1 d D . .
C15 C 0.017(2) 0.508(3) -2.347(9) 0.36(9) Uiso 1 1 d GD . .
C16 C 0.035(3) 0.549(3) -2.303(10) 0.38(9) Uiso 1 1 d GD . .
C17 C 0.071(3) 0.565(2) -2.228(10) 0.8(4) Uiso 1 1 d GD . .
H17A H 0.0831 0.5934 -2.1977 1.001 Uiso 1 1 calc R . .
C18 C 0.088(3) 0.540(2) -2.196(10) 0.29(5) Uiso 1 1 d GD . .
C19 C 0.070(2) 0.499(2) -2.240(7) 2(2) Uiso 1 1 d G . .
C20 C 0.0344(17) 0.483(2) -2.315(6) 0.37(9) Uiso 1 1 d G . .
C21 C 0.016(2) 0.442(2) -2.359(8) 0.28(5) Uiso 1 1 d G . .
H21A H -0.0079 0.4314 -2.4104 0.334 Uiso 1 1 calc R . .
C22 C 0.033(3) 0.417(2) -2.328(9) 0.33(7) Uiso 1 1 d G . .
H22A H 0.0210 0.3892 -2.3576 0.390 Uiso 1 1 calc R . .
C24 C 0.069(3) 0.433(3) -2.252(10) 2(3) Uiso 1 1 d G . .
C23 C 0.087(3) 0.474(3) -2.209(10) 0.35(8) Uiso 1 1 d GD . .
H23A H 0.1110 0.4852 -2.1573 0.421 Uiso 1 1 calc R . .
C25 C -0.0198(18) 0.488(3) -2.413(6) 0.32(6) Uiso 1 1 d GD . .
C26 C -0.0148(17) 0.492(3) -2.540(7) 0.54(17) Uiso 1 1 d GD . .
C33 C -0.050(2) 0.475(3) -2.616(5) 0.25(4) Uiso 1 1 d GD . .
H33A H -0.0466 0.4776 -2.7019 0.300 Uiso 1 1 calc R . .
C32 C -0.0902(18) 0.454(3) -2.565(6) 0.7(3) Uiso 1 1 d GD . .
C30 C -0.0952(17) 0.4503(18) -2.438(6) 0.25(4) Uiso 1 1 d G . .
C34 C -0.060(2) 0.467(2) -2.363(5) 0.29(5) Uiso 1 1 d G . .
C28 C -0.065(3) 0.463(3) -2.236(5) 0.44(13) Uiso 1 1 d G . .
H28A H -0.0409 0.4749 -2.1845 0.533 Uiso 1 1 calc R . .
C29 C -0.105(3) 0.443(4) -2.186(7) 2(3) Uiso 1 1 d G . .
H29A H -0.1086 0.4400 -2.0993 2.400 Uiso 1 1 calc R . .
C27 C -0.140(3) 0.426(3) -2.261(9) 0.48(14) Uiso 1 1 d G . .
C31 C -0.1353(19) 0.430(3) -2.388(8) 0.28(5) Uiso 1 1 d G . .
H31A H -0.1594 0.4180 -2.4396 0.335 Uiso 1 1 calc R . .
C10 C -0.1449(18) 0.4611(16) -2.681(6) 0.26(4) Uiso 1 1 d G . .
H10A H -0.1335 0.4892 -2.6524 0.306 Uiso 1 1 calc R . .
C11 C -0.1266(18) 0.437(2) -2.646(6) 0.22(3) Uiso 1 1 d GD . .
C9 C -0.1432(19) 0.396(2) -2.687(6) 0.27(5) Uiso 1 1 d G . .
H9A H -0.1307 0.3801 -2.6634 0.325 Uiso 1 1 calc R . .
C12 C -0.1782(19) 0.3788(15) -2.764(6) 0.23(4) Uiso 1 1 d GD . .
H12A H -0.1896 0.3507 -2.7927 0.274 Uiso 1 1 calc R . .
C14 C -0.1965(17) 0.4025(15) -2.799(6) 0.24(4) Uiso 1 1 d GD . .
C13 C -0.1798(18) 0.4437(15) -2.758(5) 0.20(3) Uiso 1 1 d GD . .
H13A H -0.1923 0.4598 -2.7817 0.238 Uiso 1 1 calc R . .
O4 O -0.2484(16) 0.3499(14) -2.899(5) 0.192(17) Uiso 1 1 d D . .
O5 O -0.2481(16) 0.4024(13) -2.899(5) 0.198(18) Uiso 1 1 d D . .
O12 O 0.020(2) 0.501(5) -2.597(9) 0.49(10) Uiso 1 1 d D . .
Cl1 Cl 0.094(2) 0.396(2) -2.208(6) 0.27(2) Uiso 0.50 1 d P . .
Cl2 Cl -0.195(2) 0.405(2) -2.178(7) 0.43(3) Uiso 1 1 d . . .
O7 O 0.028(4) 0.568(3) -2.369(10) 0.39(6) Uiso 1 1 d D . .
C81 C 0.037(4) 0.522(5) -2.687(11) 0.42(11) Uiso 1 1 d D . .
H81A H 0.0663 0.5284 -2.6968 0.500 Uiso 1 1 calc R . .
H81B H 0.0349 0.5476 -2.6898 0.500 Uiso 1 1 calc R . .
C84 C 0.061(6) 0.535(12) -2.968(13) 2(3) Uiso 1 1 d GD . .
H84A H 0.0794 0.5520 -3.0305 2.400 Uiso 1 1 calc R . .
C83 C 0.066(6) 0.505(11) -2.909(18) 2(2) Uiso 1 1 d GD . .
H83A H 0.0889 0.5007 -2.9315 1.995 Uiso 1 1 calc R . .
C82 C 0.039(6) 0.480(8) -2.82(2) 2(4) Uiso 1 1 d GD . .
H82A H 0.0424 0.4595 -2.7764 2.400 Uiso 1 1 calc R . .
C85 C 0.005(4) 0.486(6) -2.783(10) 0.6(2) Uiso 1 1 d GD . .
C86 C 0.000(6) 0.517(10) -2.842(14) 1.0(7) Uiso 1 1 d GD . .
H86A H -0.0230 0.5209 -2.8193 1.256 Uiso 1 1 calc R . .
C87 C 0.027(7) 0.541(12) -2.934(19) 0.8(4) Uiso 1 1 d GD . .
H87A H 0.0234 0.5621 -2.9744 0.952 Uiso 1 1 calc R . .
C92 C 0.011(10) 0.572(4) -2.460(19) 1.3(11) Uiso 1 1 d D . .
H92A H -0.0149 0.5448 -2.4771 1.524 Uiso 1 1 calc R . .
H92B H 0.0302 0.5780 -2.5303 1.524 Uiso 1 1 calc R . .
C97 C 0.005(7) 0.615(7) -2.58(2) 2(2) Uiso 1 1 d GD . .
H97A H -0.0178 0.5998 -2.6387 2.260 Uiso 1 1 calc R . .
C93 C -0.003(6) 0.609(8) -2.46(2) 2.825 Uiso 1 1 d GD . .
C91 C 0.030(9) 0.632(5) -2.376(18) 0.50(15) Uiso 1 1 d GD . .
H91A H 0.0253 0.6277 -2.2899 0.594 Uiso 1 1 calc R . .
C94 C 0.070(8) 0.660(5) -2.42(2) 2(2) Uiso 1 1 d GD . .
H94A H 0.0928 0.6749 -2.3632 2.400 Uiso 1 1 calc R . .
C96 C 0.078(7) 0.665(7) -2.54(2) 0.7(3) Uiso 1 1 d G . .
H96A H 0.1051 0.6845 -2.5742 0.897 Uiso 1 1 calc R . .
C95 C 0.045(8) 0.643(6) -2.626(18) 0.41(10) Uiso 1 1 d G . .
H95A H 0.0497 0.6470 -2.7120 0.490 Uiso 1 1 calc R . .
O103 O 0.294(3) 0.589(3) -1.151(10) 0.19(3) Uiso 0.50 1 d P . .
O102 O 0.289(5) 0.644(4) -1.240(14) 0.23(5) Uiso 0.50 1 d P . .
O106 O -0.064(2) 0.571(2) -2.544(7) 0.15(2) Uiso 0.50 1 d P . .
O105 O 0.150(7) 0.633(7) -2.63(2) 0.33(8) Uiso 0.50 1 d P . .
O104 O 0.145(6) 0.575(6) -2.50(2) 0.31(7) Uiso 0.50 1 d P . .

loop_
_atom_site_aniso_label
_atom_site_aniso_U_11
_atom_site_aniso_U_22
_atom_site_aniso_U_33
_atom_site_aniso_U_23
_atom_site_aniso_U_13
_atom_site_aniso_U_12
Zn1 0.084(4) 0.092(3) 0.069(3) -0.003(2) -0.005(2) 0.041(3)
Zn2 0.100(4) 0.100(4) 0.039(4) 0.000 0.000 0.0501(18)

_geom_special_details            
;
All esds (except the esd in the dihedral angle between two l.s. planes)
are estimated using the full covariance matrix.  The cell esds are taken
into account individually in the estimation of esds in distances, angles
and torsion angles; correlations between esds in cell parameters are only
used when they are defined by crystal symmetry.  An approximate (isotropic)
treatment of cell esds is used for estimating esds involving l.s. planes.
;

loop_
_geom_bond_atom_site_label_1
_geom_bond_atom_site_label_2
_geom_bond_distance
_geom_bond_site_symmetry_2
_geom_bond_publ_flag
Zn1 O1 1.939(11) . ?
Zn1 O2 1.94(3) . ?
Zn1 O5 2.06(5) 5_566 ?
Zn1 O4 2.05(5) 6_456 ?
Zn1 Zn2 3.143(6) . ?
Zn2 O3 1.89(4) 3_565 ?
Zn2 O3 1.89(4) . ?
Zn2 O3 1.89(4) 2_665 ?
Zn2 O1 1.91(3) . ?
Zn2 Zn1 3.143(6) 3_565 ?
Zn2 Zn1 3.143(6) 2_665 ?
O1 Zn1 1.939(11) 3_565 ?
O1 Zn1 1.939(11) 2_665 ?
O2 C7 1.16(5) . ?
O3 C7 1.27(5) . ?
C1 C2 1.3900 . ?
C1 C4 1.3900 . ?
C2 C3 1.3900 . ?
C2 C18 1.71(6) . ?
C3 C6 1.3900 . ?
C6 C5 1.3900 . ?
C5 C4 1.3900 . ?
C5 C7 1.60(7) . ?
C8 O5 1.21(4) . ?
C8 C14 1.22(3) . ?
C8 O4 1.23(4) . ?
C15 C25 1.39(4) . ?
C15 C16 1.3900 . ?
C15 C20 1.3900 . ?
C16 O7 1.12(6) . ?
C16 C17 1.3900 . ?
C17 C18 1.3900 . ?
C18 C19 1.3900 . ?
C19 C20 1.3900 . ?
C19 C23 1.3900 . ?
C20 C21 1.3900 . ?
C21 C22 1.3900 . ?
C22 C24 1.3900 . ?
C24 C23 1.3900 . ?
C24 Cl1 2.06(10) . ?
C25 C26 1.3900 . ?
C25 C34 1.3900 . ?
C26 O12 1.32(4) . ?
C26 C33 1.3900 . ?
C33 C32 1.3900 . ?
C32 C30 1.3900 . ?
C32 C11 1.46(4) . ?
C30 C34 1.3900 . ?
C30 C31 1.3900 . ?
C34 C28 1.3900 . ?
C28 C29 1.3900 . ?
C29 C27 1.3900 . ?
C27 C31 1.3900 . ?
C27 Cl2 1.96(10) . ?
C10 C11 1.3900 . ?
C10 C13 1.3900 . ?
C11 C9 1.3900 . ?
C9 C12 1.3900 . ?
C12 C14 1.3900 . ?
C14 C13 1.3900 . ?
O4 Zn1 2.05(5) 8_553 ?
O5 Zn1 2.05(5) 9_453 ?
O12 C81 1.20(5) . ?
O7 C92 1.22(5) . ?
C81 C85 1.62(4) . ?
C84 C83 1.390(2) . ?
C84 C87 1.3900 . ?
C83 C82 1.390(2) . ?
C82 C85 1.3900 . ?
C85 C86 1.3900 . ?
C86 C87 1.390(3) . ?
C92 C93 1.67(4) . ?
C97 C93 1.3900 . ?
C97 C95 1.3900(18) . ?
C93 C91 1.3900 . ?
C91 C94 1.3900(13) . ?
C94 C96 1.3900 . ?
C96 C95 1.3900(17) . ?

loop_
_geom_angle_atom_site_label_1
_geom_angle_atom_site_label_2
_geom_angle_atom_site_label_3
_geom_angle
_geom_angle_site_symmetry_1
_geom_angle_site_symmetry_3
_geom_angle_publ_flag
O1 Zn1 O2 108.3(12) . . ?
O1 Zn1 O5 107.2(12) . 5_566 ?
O2 Zn1 O5 101.2(17) . 5_566 ?
O1 Zn1 O4 106.8(12) . 6_456 ?
O2 Zn1 O4 101.6(17) . 6_456 ?
O5 Zn1 O4 130(2) 5_566 6_456 ?
O1 Zn1 Zn2 34.8(8) . . ?
O2 Zn1 Zn2 73.5(9) . . ?
O5 Zn1 Zn2 114.5(14) 5_566 . ?
O4 Zn1 Zn2 114.4(14) 6_456 . ?
O3 Zn2 O3 103.5(16) 3_565 . ?
O3 Zn2 O3 103.5(16) 3_565 2_665 ?
O3 Zn2 O3 103.5(16) . 2_665 ?
O3 Zn2 O1 115.0(14) 3_565 . ?
O3 Zn2 O1 115.0(14) . . ?
O3 Zn2 O1 115.0(14) 2_665 . ?
O3 Zn2 Zn1 79.4(14) 3_565 3_565 ?
O3 Zn2 Zn1 127.1(12) . 3_565 ?
O3 Zn2 Zn1 127.6(13) 2_665 3_565 ?
O1 Zn2 Zn1 35.52(9) . 3_565 ?
O3 Zn2 Zn1 127.6(13) 3_565 . ?
O3 Zn2 Zn1 79.4(14) . . ?
O3 Zn2 Zn1 127.1(12) 2_665 . ?
O1 Zn2 Zn1 35.52(9) . . ?
Zn1 Zn2 Zn1 60.41(15) 3_565 . ?
O3 Zn2 Zn1 127.1(12) 3_565 2_665 ?
O3 Zn2 Zn1 127.6(13) . 2_665 ?
O3 Zn2 Zn1 79.4(14) 2_665 2_665 ?
O1 Zn2 Zn1 35.52(9) . 2_665 ?
Zn1 Zn2 Zn1 60.41(15) 3_565 2_665 ?
Zn1 Zn2 Zn1 60.41(15) . 2_665 ?
Zn2 O1 Zn1 109.7(8) . 3_565 ?
Zn2 O1 Zn1 109.7(8) . . ?
Zn1 O1 Zn1 109.3(8) 3_565 . ?
Zn2 O1 Zn1 109.7(8) . 2_665 ?
Zn1 O1 Zn1 109.3(8) 3_565 2_665 ?
Zn1 O1 Zn1 109.3(8) . 2_665 ?
C7 O2 Zn1 130(3) . . ?
C7 O3 Zn2 122(4) . . ?
C2 C1 C4 120.0 . . ?
C1 C2 C3 120.0 . . ?
C1 C2 C18 116(6) . . ?
C3 C2 C18 123(6) . . ?
C6 C3 C2 120.0 . . ?
C5 C6 C3 120.0 . . ?
C4 C5 C6 120.0 . . ?
C4 C5 C7 129(4) . . ?
C6 C5 C7 111(4) . . ?
C5 C4 C1 120.0 . . ?
O2 C7 O3 135(5) . . ?
O2 C7 C5 118(4) . . ?
O3 C7 C5 107(4) . . ?
O5 C8 C14 127(5) . . ?
O5 C8 O4 103(4) . . ?
C14 C8 O4 128(5) . . ?
C25 C15 C16 125(5) . . ?
C25 C15 C20 115(5) . . ?
C16 C15 C20 120.0 . . ?
O7 C16 C17 126(6) . . ?
O7 C16 C15 108(4) . . ?
C17 C16 C15 120.0 . . ?
C16 C17 C18 120.00(6) . . ?
C19 C18 C17 120.0 . . ?
C19 C18 C2 129(4) . . ?
C17 C18 C2 111(4) . . ?
C18 C19 C20 120.0 . . ?
C18 C19 C23 120.0 . . ?
C20 C19 C23 120.00(7) . . ?
C21 C20 C19 120.0 . . ?
C21 C20 C15 120.0 . . ?
C19 C20 C15 120.00(6) . . ?
C22 C21 C20 120.00(5) . . ?
C21 C22 C24 120.00(9) . . ?
C23 C24 C22 120.0 . . ?
C23 C24 Cl1 120(4) . . ?
C22 C24 Cl1 120(4) . . ?
C24 C23 C19 120.0 . . ?
C15 C25 C26 115(6) . . ?
C15 C25 C34 125(6) . . ?
C26 C25 C34 120.0 . . ?
O12 C26 C33 114(4) . . ?
O12 C26 C25 124(4) . . ?
C33 C26 C25 120.00(6) . . ?
C26 C33 C32 120.0 . . ?
C30 C32 C33 120.00(6) . . ?
C30 C32 C11 121(5) . . ?
C33 C32 C11 119(5) . . ?
C34 C30 C32 120.0 . . ?
C34 C30 C31 120.0 . . ?
C32 C30 C31 120.00(6) . . ?
C28 C34 C30 120.00(5) . . ?
C28 C34 C25 120.0 . . ?
C30 C34 C25 120.0 . . ?
C29 C28 C34 120.0 . . ?
C28 C29 C27 120.00(8) . . ?
C31 C27 C29 120.0 . . ?
C31 C27 Cl2 124(5) . . ?
C29 C27 Cl2 115(5) . . ?
C27 C31 C30 120.00(7) . . ?
C11 C10 C13 120.00(6) . . ?
C9 C11 C10 120.0 . . ?
C9 C11 C32 118(6) . . ?
C10 C11 C32 122(6) . . ?
C11 C9 C12 120.0 . . ?
C14 C12 C9 120.00(7) . . ?
C8 C14 C12 119(3) . . ?
C8 C14 C13 121(3) . . ?
C12 C14 C13 120.0 . . ?
C14 C13 C10 120.0 . . ?
C8 O4 Zn1 146(4) . 8_553 ?
C8 O5 Zn1 146(4) . 9_453 ?
C81 O12 C26 131(8) . . ?
C16 O7 C92 154(7) . . ?
O12 C81 C85 96(4) . . ?
C83 C84 C87 120.00(17) . . ?
C82 C83 C84 120.0 . . ?
C85 C82 C83 120.00(19) . . ?
C86 C85 C82 120.00(16) . . ?
C86 C85 C81 89.6(16) . . ?
C82 C85 C81 88.1(15) . . ?
C85 C86 C87 120.0 . . ?
C86 C87 C84 120.00(13) . . ?
O7 C92 C93 117(8) . . ?
C93 C97 C95 120.00(13) . . ?
C91 C93 C97 120.00(7) . . ?
C91 C93 C92 88.3(18) . . ?
C97 C93 C92 90(3) . . ?
C93 C91 C94 120.0(2) . . ?
C91 C94 C96 120.00(13) . . ?
C95 C96 C94 120.00(8) . . ?
C96 C95 C97 120.0(2) . . ?

_diffrn_measured_fraction_theta_max 0.990
_diffrn_reflns_theta_full        18.84
_diffrn_measured_fraction_theta_full 0.990
_refine_diff_density_max         0.612
_refine_diff_density_min         -0.743
_refine_diff_density_rms         0.134

#===END
