####################################################################### 
# 
# This file contains crystal structure data downloaded from the 
# Cambridge Structural Database (CSD) hosted by the Cambridge 
# Crystallographic Data Centre (CCDC).
# 
# Full information about CCDC data access policies and citation 
# guidelines are available at http://www.ccdc.cam.ac.uk/access/V1 
# 
# Audit and citation data items may have been added by the CCDC. 
# Please retain this information to preserve the provenance of 
# this file and to allow appropriate attribution of the data. 
# 
#######################################################################

data_SUMOF-3
_audit_block_doi                 10.5517/ccxn8h9
_database_code_depnum_ccdc_archive 'CCDC 853631'
loop_
_citation_id
_citation_doi
_citation_year
1 10.1039/c2jm15933c 2012
_audit_update_record             
;
2011-11-11 deposited with the CCDC.	2024-07-10 downloaded from the CCDC.
;
#TrackingRef '- SUMOF-3.cif'


_audit_creation_method           SHELXL-97
_chemical_name_systematic        
;
?
;
_chemical_name_common            ?
_chemical_melting_point          ?
_chemical_formula_moiety         ?
_chemical_formula_sum            'C75 H50 N O31.70 Zn8'
_chemical_formula_weight         1995.32

loop_
_atom_type_symbol
_atom_type_description
_atom_type_scat_dispersion_real
_atom_type_scat_dispersion_imag
_atom_type_scat_source
C C 0.0033 0.0016 'International Tables Vol C Tables 4.2.6.8 and 6.1.1.4'
H H 0.0000 0.0000 'International Tables Vol C Tables 4.2.6.8 and 6.1.1.4'
O O 0.0106 0.0060 'International Tables Vol C Tables 4.2.6.8 and 6.1.1.4'
Zn Zn 0.2839 1.4301 'International Tables Vol C Tables 4.2.6.8 and 6.1.1.4'
N N 0.0061 0.0033 'International Tables Vol C Tables 4.2.6.8 and 6.1.1.4'

_symmetry_cell_setting           Triclinic
_symmetry_space_group_name_H-M   P-1

loop_
_symmetry_equiv_pos_as_xyz
'x, y, z'
'-x, -y, -z'

_cell_length_a                   18.6086(8)
_cell_length_b                   20.2422(7)
_cell_length_c                   20.8135(7)
_cell_angle_alpha                70.421(3)
_cell_angle_beta                 68.955(3)
_cell_angle_gamma                68.031(4)
_cell_volume                     6600.7(4)
_cell_formula_units_Z            2
_cell_measurement_temperature    293(2)
_cell_measurement_reflns_used    11718
_cell_measurement_theta_min      4.1312
_cell_measurement_theta_max      32.2935

_exptl_crystal_description       block
_exptl_crystal_colour            brown
_exptl_crystal_size_max          0.20
_exptl_crystal_size_mid          0.15
_exptl_crystal_size_min          0.15
_exptl_crystal_density_meas      ?
_exptl_crystal_density_diffrn    1.004
_exptl_crystal_density_method    'not measured'
_exptl_crystal_F_000             2001
_exptl_absorpt_coefficient_mu    1.479
_exptl_absorpt_correction_type   multi-scan
_exptl_absorpt_correction_T_min  0.92284
_exptl_absorpt_correction_T_max  1.00000
_exptl_absorpt_process_details   
;
CrysAlisPro, Oxford Diffraction Ltd.,
Version 1.171.34.44 (release 25-10-2010 CrysAlis171 .NET)
(compiled Oct 25 2010,18:11:34)
Empirical absorption correction using spherical harmonics,
implemented in SCALE3 ABSPACK scaling algorithm.
;
_exptl_special_details           
;
?
;

_diffrn_ambient_temperature      293(2)
_diffrn_radiation_wavelength     0.71073
_diffrn_radiation_type           MoK\a
_diffrn_radiation_source         'Enhance (Mo) X-ray Source'
_diffrn_radiation_monochromator  graphite
_diffrn_measurement_device_type  'Xcalibur, Sapphire3'
_diffrn_measurement_method       ?
_diffrn_detector_area_resol_mean 16.5467
_diffrn_standards_number         ?
_diffrn_standards_interval_count ?
_diffrn_standards_interval_time  ?
_diffrn_standards_decay_%        ?
_diffrn_reflns_number            45520
_diffrn_reflns_av_R_equivalents  0.0463
_diffrn_reflns_av_sigmaI/netI    0.0900
_diffrn_reflns_limit_h_min       -23
_diffrn_reflns_limit_h_max       23
_diffrn_reflns_limit_k_min       -25
_diffrn_reflns_limit_k_max       22
_diffrn_reflns_limit_l_min       -19
_diffrn_reflns_limit_l_max       26
_diffrn_reflns_theta_min         4.14
_diffrn_reflns_theta_max         26.37
_reflns_number_total             26227
_reflns_number_gt                15115
_reflns_threshold_expression     >2sigma(I)

_computing_data_collection       ?
_computing_cell_refinement       ?
_computing_data_reduction        ?
_computing_structure_solution    'SHELXS-97 (Sheldrick, 1997)'
_computing_structure_refinement  'SHELXL-97 (Sheldrick, 1997)'
_computing_molecular_graphics    ?
_computing_publication_material  ?

_refine_special_details          
;
Refinement of F^2^ against ALL reflections. The weighted R-factor wR and
goodness of fit S are based on F^2^, conventional R-factors R are based
on F, with F set to zero for negative F^2^. The threshold expression of
F^2^ > 2sigma(F^2^) is used only for calculating R-factors(gt) etc. and is
not relevant to the choice of reflections for refinement. R-factors based
on F^2^ are statistically about twice as large as those based on F, and R-
factors based on ALL data will be even larger.
;

_refine_ls_structure_factor_coef Fsqd
_refine_ls_matrix_type           full
_refine_ls_weighting_scheme      calc
_refine_ls_weighting_details     
'calc w=1/[\s^2^(Fo^2^)+(0.0722P)^2^+0.0000P] where P=(Fo^2^+2Fc^2^)/3'
_atom_sites_solution_primary     direct
_atom_sites_solution_secondary   difmap
_atom_sites_solution_hydrogens   geom
_refine_ls_hydrogen_treatment    mixed
_refine_ls_extinction_method     none
_refine_ls_extinction_coef       ?
_refine_ls_number_reflns         26227
_refine_ls_number_parameters     1015
_refine_ls_number_restraints     9
_refine_ls_R_factor_all          0.0916
_refine_ls_R_factor_gt           0.0590
_refine_ls_wR_factor_ref         0.1745
_refine_ls_wR_factor_gt          0.1616
_refine_ls_goodness_of_fit_ref   1.002
_refine_ls_restrained_S_all      1.002
_refine_ls_shift/su_max          0.002
_refine_ls_shift/su_mean         0.000

loop_
_atom_site_label
_atom_site_type_symbol
_atom_site_fract_x
_atom_site_fract_y
_atom_site_fract_z
_atom_site_U_iso_or_equiv
_atom_site_adp_type
_atom_site_occupancy
_atom_site_symmetry_multiplicity
_atom_site_calc_flag
_atom_site_refinement_flags
_atom_site_disorder_assembly
_atom_site_disorder_group
Zn1 Zn 0.63553(3) 0.78775(3) 0.47691(2) 0.02789(13) Uani 1 1 d . . .
Zn2 Zn 0.61532(3) 0.64152(3) 0.47331(3) 0.02931(13) Uani 1 1 d . . .
Zn3 Zn 0.78068(3) 0.64767(3) 0.47471(2) 0.02844(13) Uani 1 1 d . . .
Zn4 Zn 0.63571(3) 0.65894(3) 0.61730(3) 0.03334(14) Uani 1 1 d . . .
Zn5 Zn 0.19902(3) 0.20825(3) 0.90605(2) 0.02949(13) Uani 1 1 d . . .
Zn6 Zn 0.19587(3) 1.07844(3) 1.04017(3) 0.03294(14) Uani 1 1 d . . .
Zn7 Zn 1.05113(3) 1.22246(3) 0.04027(2) 0.02935(13) Uani 1 1 d . . .
Zn8 Zn 0.22546(3) 0.22332(3) 1.04454(3) 0.03545(14) Uani 1 1 d . . .
O1 O 0.66564(17) 0.68268(15) 0.51020(14) 0.0253(6) Uani 1 1 d . . .
O2 O 1.16572(18) 1.18387(15) 0.00863(14) 0.0289(7) Uani 1 1 d . . .
O3 O 0.9938(2) 1.1486(2) 0.09644(19) 0.0564(10) Uani 1 1 d . . .
O4 O 0.8436(2) 0.5753(2) 0.53720(18) 0.0552(10) Uani 1 1 d . . .
O5 O 0.5697(2) 0.85211(18) 0.54086(17) 0.0507(10) Uani 1 1 d . . .
O6 O 0.8086(2) 0.5956(2) 0.4001(2) 0.0573(11) Uani 1 1 d . . .
O7 O 0.7258(2) 0.82588(18) 0.41564(18) 0.0489(9) Uani 1 1 d . . .
O8 O 1.0973(3) 1.0473(2) 0.0929(2) 0.0627(11) Uani 1 1 d . . .
O9 O 0.6922(2) 0.5859(2) 0.4027(2) 0.0588(11) Uani 1 1 d . . .
O10 O 0.5609(3) 0.5716(2) 0.54023(18) 0.0568(11) Uani 1 1 d . . .
O11 O 1.0142(2) 1.2888(2) 0.1020(2) 0.0586(11) Uani 1 1 d . . .
O12 O 0.2679(3) 0.2710(2) 0.8597(2) 0.0646(12) Uani 1 1 d . . .
O13 O 0.5371(2) 0.71676(19) 0.42335(19) 0.0516(10) Uani 1 1 d . . .
O14 O 0.2470(3) 1.0287(2) 0.96243(19) 0.0676(12) Uani 1 1 d . . .
O15 O 0.9999(2) 0.2781(2) 0.96268(17) 0.0574(11) Uani 1 1 d . . .
O16 O 0.2560(3) 1.0319(2) 0.1088(2) 0.0781(14) Uani 1 1 d . . .
O17 O 0.5534(2) 0.6041(2) 0.63433(18) 0.0542(10) Uani 1 1 d . . .
O18 O 1.1044(2) 0.2590(2) 0.86834(18) 0.0598(11) Uani 1 1 d . . .
O19 O 0.2501(2) 1.1223(2) 0.86604(18) 0.0540(10) Uani 1 1 d . . .
O20 O 0.5678(3) 0.8174(2) 0.4114(2) 0.0603(11) Uani 1 1 d . . .
O21 O 0.8325(2) 0.72570(19) 0.42078(18) 0.0501(9) Uani 1 1 d . . .
O22 O 0.1330(2) 0.2932(2) 1.10112(19) 0.0517(10) Uani 1 1 d . . .
O23 O 0.7336(2) 0.5603(2) 0.62413(18) 0.0551(10) Uani 1 1 d . . .
O24 O 0.5445(2) 0.7582(2) 0.62950(19) 0.0622(12) Uani 1 1 d . . .
O25 O 0.6120(3) 0.6353(3) 0.7276(2) 0.0730(13) Uani 1 1 d D . .
H25A H 0.626(3) 0.5831(12) 0.748(3) 0.088 Uiso 1 1 d D . .
H25B H 0.5565(15) 0.652(3) 0.751(3) 0.088 Uiso 1 1 d D . .
O26 O 0.2434(3) 0.3097(2) 0.9548(2) 0.0877(16) Uani 1 1 d . . .
O27 O 0.23759(18) 1.13670(16) 0.13382(14) 0.0904(17) Uani 1 1 d . . .
O28 O 0.72777(18) 0.71491(16) 0.60895(14) 0.1115(19) Uani 1 1 d RD . .
H28A H 0.7444 0.7304 0.6363 0.134 Uiso 1 1 d RD . .
H28B H 0.7417 0.6656 0.6179 0.134 Uiso 1 1 d RD . .
O29 O 0.33452(18) 0.15516(16) 0.98327(14) 0.1080(18) Uani 1 1 d RD . .
H29A H 0.3889 0.1465 0.9730 0.130 Uiso 1 1 d RD . .
H29B H 0.3216 0.1149 0.9874 0.130 Uiso 1 1 d RD . .
O30 O 0.3054(3) 0.2519(3) 1.0751(3) 0.1008(17) Uani 1 1 d . . .
C1 C 0.5396(3) 0.5674(3) 0.6053(3) 0.0399(12) Uani 1 1 d . . .
C2 C 0.0599(4) 0.3107(3) 1.1193(3) 0.0445(13) Uani 1 1 d . . .
C3 C 1.0249(3) 1.0809(3) 0.1144(3) 0.0462(13) Uani 1 1 d . . .
C4 C 0.7997(3) 0.7924(3) 0.3974(2) 0.0382(12) Uani 1 1 d . . .
C5 C 0.8219(3) 0.9097(3) 0.3171(3) 0.0556(16) Uani 1 1 d . . .
H5 H 0.7667 0.9311 0.3313 0.067 Uiso 1 1 calc R . .
C6 C 0.4908(3) 0.4599(3) 0.6230(3) 0.0500(14) Uani 1 1 d . . .
H6 H 0.5159 0.4601 0.5754 0.060 Uiso 1 1 calc R . .
C7 C 0.4940(3) 0.5123(3) 0.6522(3) 0.0454(13) Uani 1 1 d . . .
C8 C 1.0032(3) 0.9649(3) 0.1972(3) 0.0605(17) Uani 1 1 d . . .
H8 H 1.0586 0.9441 0.1841 0.073 Uiso 1 1 calc R . .
C9 C 0.3655(3) 0.3597(3) 0.7784(3) 0.0509(14) Uani 1 1 d . . .
H9 H 0.3635 0.3253 0.7591 0.061 Uiso 1 1 calc R . .
C10 C 0.4571(3) 0.5122(3) 0.7217(3) 0.0521(15) Uani 1 1 d . . .
H10 H 0.4606 0.5459 0.7408 0.063 Uiso 1 1 calc R . .
C11 C 1.0151(3) 0.3631(3) 0.1680(3) 0.0463(13) Uani 1 1 d . . .
C12 C 0.8705(3) 0.9532(3) 0.2662(3) 0.0525(15) Uani 1 1 d . . .
C13 C 0.4107(3) 0.4097(3) 0.7358(3) 0.0489(14) Uani 1 1 d . . .
C14 C 0.8531(3) 0.8370(3) 0.3463(3) 0.0494(14) Uani 1 1 d . . .
C15 C 0.4513(3) 0.4092(3) 0.6639(3) 0.0478(14) Uani 1 1 d . . .
H15 H 0.4509 0.3741 0.6446 0.057 Uiso 1 1 calc R . .
C16 C 0.9544(3) 0.9211(3) 0.2476(3) 0.0561(16) Uani 1 1 d . . .
C17 C 1.0569(4) 0.3957(4) 0.1854(4) 0.075(2) Uani 1 1 d . . .
H17 H 1.1126 0.3841 0.1678 0.090 Uiso 1 1 calc R . .
C18 C 0.9711(3) 1.0368(3) 0.1673(3) 0.0495(14) Uani 1 1 d . . .
C19 C 0.9585(3) 0.3909(3) 0.7323(2) 0.0416(12) Uani 1 1 d . . .
C20 C 1.0079(3) 0.3445(3) 0.7777(3) 0.0442(13) Uani 1 1 d . . .
H20 H 1.0616 0.3215 0.7582 0.053 Uiso 1 1 calc R . .
C21 C 0.8917(3) 0.5073(3) 0.3036(3) 0.0565(16) Uani 1 1 d . . .
H21 H 0.9201 0.5284 0.3157 0.068 Uiso 1 1 calc R . .
C22 C 0.4111(3) 1.0028(3) 0.6591(3) 0.0472(14) Uani 1 1 d . . .
H22 H 0.3969 1.0525 0.6380 0.057 Uiso 1 1 calc R . .
C23 C 0.4586(3) 0.9531(3) 0.6183(3) 0.0513(15) Uani 1 1 d . . .
H23 H 0.4758 0.9699 0.5695 0.062 Uiso 1 1 calc R . .
C24 C 0.4818(3) 0.8780(3) 0.6480(3) 0.0432(13) Uani 1 1 d . . .
C25 C 0.3839(3) 0.9786(3) 0.7329(2) 0.0405(12) Uani 1 1 d . . .
C26 C 0.8599(3) 0.4912(3) 0.6453(3) 0.0439(13) Uani 1 1 d . . .
C27 C 0.9332(3) 0.4607(3) 0.2568(3) 0.0534(15) Uani 1 1 d . . .
C28 C 0.9400(3) 0.4571(3) 0.6154(3) 0.0517(15) Uani 1 1 d . . .
H28 H 0.9612 0.4686 0.5666 0.062 Uiso 1 1 calc R . .
C29 C 0.5359(3) 0.8251(3) 0.6025(3) 0.0464(13) Uani 1 1 d . . .
C30 C 0.8884(4) 1.0675(3) 0.1872(4) 0.076(2) Uani 1 1 d . . .
H30 H 0.8664 1.1163 0.1668 0.091 Uiso 1 1 calc R . .
C31 C 0.9884(3) 0.4064(3) 0.6575(3) 0.0496(14) Uani 1 1 d . . .
H31 H 1.0410 0.3822 0.6367 0.060 Uiso 1 1 calc R . .
C32 C 0.3365(4) 0.9262(3) 0.8805(3) 0.075(2) Uani 1 1 d . . .
H32 H 0.3217 0.9096 0.9294 0.090 Uiso 1 1 calc R . .
C33 C 0.3247(4) 0.3614(3) 0.8477(3) 0.0685(19) Uani 1 1 d . . .
C34 C 0.3795(5) 0.8780(3) 0.8400(3) 0.081(2) Uani 1 1 d . . .
H34 H 0.3920 0.8282 0.8610 0.097 Uiso 1 1 calc R . .
C35 C 0.7674(3) 0.5717(3) 0.3823(3) 0.0426(13) Uani 1 1 d . . .
C36 C 0.9780(3) 0.3328(3) 0.8497(3) 0.0450(13) Uani 1 1 d . . .
C37 C 0.2763(4) 0.3094(3) 0.8921(3) 0.0641(18) Uani 1 1 d . . .
C38 C 0.8070(4) 0.5465(3) 0.5998(3) 0.0513(14) Uani 1 1 d . . .
C39 C 0.3376(3) 1.0269(3) 0.7777(3) 0.0448(13) Uani 1 1 d . . .
H39 H 0.3229 1.0770 0.7582 0.054 Uiso 1 1 calc R . .
C40 C 0.3136(3) 1.0015(3) 0.8499(3) 0.0484(14) Uani 1 1 d . . .
C41 C 0.8381(4) 1.0280(3) 0.2358(4) 0.081(2) Uani 1 1 d . . .
H41 H 0.7830 1.0502 0.2488 0.097 Uiso 1 1 calc R . .
C42 C 0.8099(3) 0.5224(3) 0.3320(3) 0.0472(13) Uani 1 1 d . . .
C43 C 0.4067(4) 0.9022(3) 0.7640(3) 0.0562(16) Uani 1 1 d . . .
C44 C 0.2655(3) 1.0553(3) 0.8964(3) 0.0486(14) Uani 1 1 d . . .
C45 C 0.4559(4) 0.8530(3) 0.7196(3) 0.0533(15) Uani 1 1 d . . .
H45 H 0.4708 0.8030 0.7395 0.064 Uiso 1 1 calc R . .
C46 C 1.0325(3) 0.2866(3) 0.8968(3) 0.0447(13) Uani 1 1 d . . .
C47 C 0.8962(3) 0.3684(4) 0.8788(3) 0.069(2) Uani 1 1 d . . .
H47 H 0.8759 0.3606 0.9277 0.083 Uiso 1 1 calc R . .
C48 C 0.9325(3) 0.3795(3) 0.1947(3) 0.0575(16) Uani 1 1 d . . .
H48 H 0.9045 0.3578 0.1827 0.069 Uiso 1 1 calc R . .
C49 C 0.8478(4) 0.4122(4) 0.8382(3) 0.070(2) Uani 1 1 d . . .
H49 H 0.7944 0.4342 0.8592 0.084 Uiso 1 1 calc R . .
C50 C 0.8903(3) 0.4276(3) 0.2391(3) 0.0535(15) Uani 1 1 d . . .
C51 C 0.8765(3) 0.4265(3) 0.7621(3) 0.0467(14) Uani 1 1 d . . .
C52 C 0.4138(4) 0.4620(3) 0.7650(3) 0.0567(16) Uani 1 1 d . . .
C53 C 0.8279(3) 0.4755(3) 0.7175(3) 0.0517(15) Uani 1 1 d . . .
H53 H 0.7739 0.4973 0.7369 0.062 Uiso 1 1 calc R . .
C54 C 0.8067(4) 0.4448(4) 0.2682(4) 0.083(2) Uani 1 1 d . . .
H54 H 0.7774 0.4241 0.2566 0.100 Uiso 1 1 calc R . .
C55 C 1.0184(4) 0.4445(5) 0.2276(4) 0.096(3) Uani 1 1 d . . .
H55 H 1.0474 0.4671 0.2373 0.115 Uiso 1 1 calc R . .
C56 C 0.7671(3) 0.4911(4) 0.3130(4) 0.071(2) Uani 1 1 d . . .
H56 H 0.7115 0.5019 0.3310 0.085 Uiso 1 1 calc R . .
C57 C 0.9851(4) 0.8485(4) 0.2786(4) 0.094(3) Uani 1 1 d . . .
H57 H 1.0405 0.8274 0.2667 0.113 Uiso 1 1 calc R . .
C58 C 0.3286(5) 0.4149(4) 0.8766(3) 0.090(3) Uani 1 1 d . . .
H58 H 0.3005 0.4173 0.9233 0.108 Uiso 1 1 calc R . .
C59 C 0.4083(6) 1.0204(4) 0.2552(4) 0.108(3) Uani 1 1 d . . .
H59 H 0.4404 1.0417 0.2624 0.129 Uiso 1 1 calc R . .
C60 C 0.4107(4) 0.9467(3) 0.2873(3) 0.0673(19) Uani 1 1 d . . .
C61 C 0.5303(3) 0.7848(3) 0.4008(3) 0.0458(13) Uani 1 1 d . . .
C62 C 0.9375(4) 0.8065(3) 0.3260(4) 0.085(2) Uani 1 1 d . . .
H62 H 0.9607 0.7575 0.3451 0.102 Uiso 1 1 calc R . .
C63 C 0.4722(4) 0.8285(3) 0.3570(3) 0.0548(15) Uani 1 1 d . . .
C64 C 0.2618(4) 1.0709(4) 0.1431(3) 0.0662(18) Uani 1 1 d . . .
C65 C 0.4626(4) 0.9020(3) 0.3309(3) 0.070(2) Uani 1 1 d . . .
H65 H 0.4913 0.9235 0.3423 0.084 Uiso 1 1 calc R . .
C66 C 0.3126(4) 1.0269(4) 0.1952(3) 0.0679(18) Uani 1 1 d . . .
C67 C 0.3731(5) 0.4622(4) 0.8365(3) 0.089(3) Uani 1 1 d . . .
H67 H 0.3765 0.4951 0.8567 0.107 Uiso 1 1 calc R . .
C68 C 0.4263(4) 0.7963(3) 0.3423(4) 0.075(2) Uani 1 1 d . . .
H68 H 0.4314 0.7466 0.3604 0.090 Uiso 1 1 calc R . .
C69 C 0.3186(4) 0.9555(4) 0.2247(3) 0.0701(19) Uani 1 1 d . . .
H69 H 0.2900 0.9334 0.2137 0.084 Uiso 1 1 calc R . .
C70 C 0.3666(4) 0.9131(3) 0.2716(3) 0.0682(18) Uani 1 1 d . . .
C71 C 0.3557(6) 1.0610(4) 0.2118(4) 0.105(3) Uani 1 1 d . . .
H71 H 0.3491 1.1110 0.1938 0.126 Uiso 1 1 calc R . .
C72 C 0.3738(5) 0.8385(4) 0.3009(4) 0.093(3) Uani 1 1 d . . .
H72 H 0.3428 0.8169 0.2925 0.112 Uiso 1 1 calc R . .
C81 C 0.2909(7) 0.3160(6) 1.0763(5) 0.124(3) Uiso 1 1 d . . .
H81 H 0.2462 0.3502 1.0622 0.149 Uiso 1 1 calc R . .
N1 N 0.3388(9) 0.3402(8) 1.0980(6) 0.202(5) Uiso 1 1 d . . .
C82 C 0.3229(13) 0.4129(12) 1.1046(11) 0.321(11) Uiso 1 1 d . . .
H82A H 0.3675 0.4315 1.0749 0.385 Uiso 1 1 calc R . .
H82B H 0.3155 0.4119 1.1529 0.385 Uiso 1 1 calc R . .
H82C H 0.2751 0.4439 1.0903 0.385 Uiso 1 1 calc R . .
C83 C 0.4128(12) 0.2882(11) 1.1098(10) 0.282(9) Uiso 1 1 d . . .
H83A H 0.4017 0.2476 1.1479 0.338 Uiso 1 1 calc R . .
H83B H 0.4416 0.3111 1.1217 0.338 Uiso 1 1 calc R . .
H83C H 0.4449 0.2710 1.0675 0.338 Uiso 1 1 calc R . .
OW1 O 0.4545(5) 0.6708(4) 0.8152(4) 0.143(3) Uiso 0.85 1 d P . .
OW2 O 0.6242(5) 0.4870(4) 0.8054(4) 0.145(3) Uiso 0.85 1 d P . .

loop_
_atom_site_aniso_label
_atom_site_aniso_U_11
_atom_site_aniso_U_22
_atom_site_aniso_U_33
_atom_site_aniso_U_23
_atom_site_aniso_U_13
_atom_site_aniso_U_12
Zn1 0.0292(3) 0.0245(3) 0.0251(3) -0.0054(2) -0.0017(2) -0.0081(2)
Zn2 0.0303(3) 0.0279(3) 0.0269(3) -0.0075(2) -0.0030(2) -0.0087(2)
Zn3 0.0276(3) 0.0266(3) 0.0247(3) -0.0031(2) -0.0027(2) -0.0076(2)
Zn4 0.0395(3) 0.0347(3) 0.0237(3) -0.0054(2) -0.0026(2) -0.0152(3)
Zn5 0.0331(3) 0.0271(3) 0.0231(3) -0.0049(2) -0.0016(2) -0.0096(2)
Zn6 0.0390(3) 0.0307(3) 0.0246(3) -0.0060(2) -0.0015(2) -0.0122(3)
Zn7 0.0311(3) 0.0288(3) 0.0224(3) -0.0044(2) -0.0020(2) -0.0087(2)
Zn8 0.0388(3) 0.0339(3) 0.0323(3) -0.0110(2) -0.0056(3) -0.0099(3)
O1 0.0253(16) 0.0247(16) 0.0221(14) -0.0050(12) -0.0018(12) -0.0077(13)
O2 0.0333(17) 0.0235(16) 0.0235(15) -0.0021(12) -0.0040(13) -0.0077(14)
O3 0.050(2) 0.039(2) 0.063(2) 0.0079(18) -0.0033(19) -0.0247(19)
O4 0.044(2) 0.059(2) 0.039(2) 0.0097(18) -0.0139(17) -0.006(2)
O5 0.064(2) 0.039(2) 0.0344(19) -0.0191(16) 0.0087(18) -0.0106(19)
O6 0.042(2) 0.077(3) 0.06