####################################################################### 
# 
# This file contains crystal structure data downloaded from the 
# Cambridge Structural Database (CSD) hosted by the Cambridge 
# Crystallographic Data Centre (CCDC).
# 
# Full information about CCDC data access policies and citation 
# guidelines are available at http://www.ccdc.cam.ac.uk/access/V1 
# 
# Audit and citation data items may have been added by the CCDC. 
# Please retain this information to preserve the provenance of 
# this file and to allow appropriate attribution of the data. 
# 
#######################################################################

data_FEDSOW
#This CIF has been generated from an entry in the Cambridge Structural Database
_database_code_depnum_ccdc_archive 'CCDC 1153815'
_database_code_CSD               FEDSOW
loop_
_citation_id
_citation_doi
_citation_year
1 10.1071/C97103 1998
_audit_creation_method           'Created from the CSD'
_audit_update_record             
;
2024-07-10 downloaded from the CCDC.
;
_database_code_NBS               698790
_chemical_formula_moiety         
'(C6 H14 N1 O8 Sr1 1+)n,n(C6 H4 N1 O3 1-),3n(H2 O1)'
_chemical_name_systematic        
"catena-(Triaqua-bis(\m~2~-aqua)-(4-nitrophenolate-O,O')-strontium 4-nitrophenolate trihydrate)"
_chemical_absolute_configuration unk
_diffrn_ambient_temperature      295
_exptl_crystal_density_diffrn    1.691
#These two values have been output from a single CSD field.
_refine_ls_R_factor_gt           0.037
_refine_ls_wR_factor_gt          0.037
_diffrn_radiation_probe          x-ray
_symmetry_cell_setting           monoclinic
_symmetry_space_group_name_H-M   'P 21/n'
_symmetry_Int_Tables_number      14
_space_group_name_Hall           '-P 2yn'
loop_
_symmetry_equiv_pos_site_id
_symmetry_equiv_pos_as_xyz
1 x,y,z
2 1/2-x,1/2+y,1/2-z
3 -x,-y,-z
4 1/2+x,1/2-y,1/2+z
_cell_length_a                   7.934(1)
_cell_length_b                   10.658(1)
_cell_length_c                   23.602(2)
_cell_angle_alpha                90
_cell_angle_beta                 91.36(1)
_cell_angle_gamma                90
_cell_volume                     1995.24
_cell_formula_units_Z            4
loop_
_atom_site_label
_atom_site_type_symbol
_atom_site_fract_x
_atom_site_fract_y
_atom_site_fract_z
Sr1 Sr 0.74442(7) 0.57212(6) 0.47422(2)
O1 O 0.9508(5) 0.7764(4) 0.1252(2)
C1 C 0.9124(7) 0.7546(6) 0.1777(3)
C2 C 0.9623(8) 0.8381(6) 0.2218(3)
C3 C 0.9276(7) 0.8140(6) 0.2771(3)
C4 C 0.8427(7) 0.7033(6) 0.2908(2)
N1 N 0.8085(6) 0.6769(5) 0.3477(2)
O2 O 0.8595(6) 0.7463(5) 0.3862(2)
O3 O 0.7305(5) 0.5784(5) 0.3597(2)
C5 C 0.7907(8) 0.6202(6) 0.2481(3)
C6 C 0.8259(8) 0.6451(7) 0.1937(3)
O7 O 0.5525(5) 0.5270(5) 0.5634(2)
O8 O 0.9442(5) 0.4791(5) 0.5598(2)
O9 O 0.8971(6) 0.7648(5) 0.5182(2)
O10 O 0.7720(7) 0.3370(5) 0.4614(2)
O11 O 0.5432(6) 0.7562(5) 0.4677(3)
H1 H 1.017(7) 0.901(6) 0.210(2)
H2 H 0.948(6) 0.877(5) 0.307(2)
H3 H 0.725(7) 0.542(6) 0.257(2)
H4 H 0.797(7) 0.593(6) 0.167(3)
H9 H 0.45(1) 0.75(1) 0.447(4)
H10 H 0.530(8) 0.812(7) 0.488(3)
H11 H 0.599(6) 0.469(5) 0.577(2)
H12 H 0.527(8) 0.587(7) 0.590(3)
H13 H 0.88(1) 0.82(1) 0.490(4)
H14 H 0.885(9) 0.791(7) 0.547(3)
H15 H 0.847(8) 0.296(7) 0.465(3)
H16 H 0.73(2) 0.34(1) 0.427(6)
H17 H 0.890(7) 0.430(6) 0.575(2)
H18 H 0.966(7) 0.548(7) 0.584(3)
Sr1B Sr 0.25558(7) 0.42788(6) 0.52578(2)
O7B O 0.4475(5) 0.4730(5) 0.4366(2)
Sr1B Sr 1.25558(7) 0.42788(6) 0.52578(2)
O8B O 1.0558(5) 0.5209(5) 0.4402(2)
H17B H 1.110(7) 0.570(6) 0.425(2)
H18B H 1.034(7) 0.452(7) 0.416(3)
H11B H 0.401(6) 0.531(5) 0.423(2)
H12B H 0.473(8) 0.413(7) 0.410(3)
O4 O 0.2752(5) 0.6819(4) 0.3937(2)
C7 C 0.3098(7) 0.6981(6) 0.3405(3)
C8 C 0.4020(8) 0.8026(8) 0.3224(3)
C9 C 0.4368(8) 0.8202(6) 0.2660(3)
C10 C 0.3785(7) 0.7327(6) 0.2263(2)
N2 N 0.4105(7) 0.7530(6) 0.1678(2)
O5 O 0.4821(7) 0.8507(5) 0.1532(2)
O6 O 0.3686(7) 0.6706(6) 0.1331(2)
C11 C 0.2897(8) 0.6282(7) 0.2427(3)
C12 C 0.2549(7) 0.6114(6) 0.2986(3)
H5 H 0.448(7) 0.866(6) 0.349(3)
H6 H 0.505(6) 0.886(5) 0.255(2)
H7 H 0.250(7) 0.571(6) 0.216(3)
H8 H 0.188(7) 0.541(6) 0.310(3)
O12 O 0.1675(7) 0.9179(6) 0.4328(2)
H19 H 0.189(9) 0.847(8) 0.422(3)
H20 H 0.06(1) 0.924(8) 0.425(3)
O13 O 0.4747(6) 0.0708(6) 0.4382(2)
H21 H 0.37(1) 0.037(8) 0.427(3)
H22 H 0.483(8) 0.146(8) 0.411(3)
O14 O 0.8209(8) 0.9872(6) 0.4566(3)
H23 H 0.71(1) 1.002(9) 0.447(4)
H24 H 0.85(1) 1.025(8) 0.478(4)

#END
