
#######################################################################
#
#                 Cambridge Crystallographic Data Centre
#                                CCDC
#
#######################################################################
#
# If this CIF has been generated from an entry in the Cambridge
# Structural Database, then it will include bibliographic, chemical,
# crystal, experimental, refinement or atomic coordinate data resulting
# from the CCDC's data processing and validation procedures.
#
#######################################################################

data_CSD_CIF_FEFBEX
_audit_creation_date 1987-10-26
_audit_creation_method CSD-ConQuest-V1
_database_code_CSD FEFBEX
_database_code_depnum_ccdc_archive 'CCDC 1153850'
_chemical_formula_sum 'C15 H14 O9'
_chemical_formula_moiety
;
C15 H10 O7,2(H2 O1)
;
_journal_coden_Cambridge 368
_journal_volume 14
_journal_year 1986
_journal_page_first 55
_journal_name_full 'Bioorg.Chem. '
loop_
_publ_author_name
"M.Rossi"
"L.F.Rickles"
"W.A.Halpin"
_chemical_name_systematic
;
Quercetin dihydrate
;
_chemical_name_common
;
Teaching Subset: Fundamental Chemistry
;
_cell_volume    689.298
_exptl_crystal_colour 'yellow'
_exptl_crystal_density_diffrn 1.63
_exptl_special_details
;
antitumour, antiallergenic and antiinflammatory agent; mutagenic
No study temperature is reported
;
_diffrn_ambient_temperature ?
_diffrn_special_details
;
The study was carried out at room temperature,in the range 283-303K

;
#These two values have been output from a single CSD field.
_refine_ls_R_factor_gt 0.095
_refine_ls_wR_factor_gt 0.095
_symmetry_cell_setting triclinic
_symmetry_space_group_name_H-M 'P -1'
_symmetry_Int_Tables_number 2
loop_
_symmetry_equiv_pos_site_id
_symmetry_equiv_pos_as_xyz
1 x,y,z
2 -x,-y,-z
_cell_length_a 13.060(5)
_cell_length_b 16.564(7)
_cell_length_c 3.725(2)
_cell_angle_alpha 92.05(4)
_cell_angle_beta 94.39(3)
_cell_angle_gamma 120.55(3)
_cell_formula_units_Z 2
loop_
_atom_type_symbol
_atom_type_radius_bond
C 0.68
H 0.23
O 0.68
loop_
_atom_site_label
_atom_site_type_symbol
_atom_site_fract_x
_atom_site_fract_y
_atom_site_fract_z
C1 C 0.5406(5) 0.2941(5) 0.523(2)
C2 C 0.6440(5) 0.3775(5) 0.609(2)
C3 C 0.7469(5) 0.3805(5) 0.801(2)
C4 C 0.8299(5) 0.2853(5) 1.051(2)
C5 C 0.8172(5) 0.2011(5) 1.118(2)
C6 C 0.7078(5) 0.1189(5) 1.002(2)
C7 C 0.6111(5) 0.1211(5) 0.833(2)
C8 C 0.6280(5) 0.2094(5) 0.768(2)
C9 C 0.7358(5) 0.2929(5) 0.869(2)
C10 C 0.4254(5) 0.2781(5) 0.350(2)
C11 C 0.4151(5) 0.3513(5) 0.218(2)
C12 C 0.3067(5) 0.3356(5) 0.051(2)
C13 C 0.2058(5) 0.2459(5) 0.040(2)
C14 C 0.2146(5) 0.1723(5) 0.166(2)
C15 C 0.3241(5) 0.1880(5) 0.326(2)
O1 O 0.9354(4) 0.3666(3) 1.171(2)
O2 O 0.6916(4) 0.0337(4) 1.075(2)
O3 O 0.6541(4) 0.4605(3) 0.539(2)
O4 O 0.1129(4) 0.0849(3) 0.142(2)
O5 O 0.5318(3) 0.2111(3) 0.603(2)
O6 O 0.8427(4) 0.4586(3) 0.888(2)
O7 O 0.0952(3) 0.2271(3) -0.123(2)
H1 H 0.88500 0.19700 1.24800
H2 H 0.53000 0.06200 0.75600
H3 H 0.48700 0.41700 0.24600
H4 H 0.30100 0.38800 -0.05900
H5 H 0.33100 0.13500 0.42100
H6 H 0.73200 0.50500 0.52600
H7 H 0.74700 0.03700 1.25200
H8 H 0.93800 0.40800 1.00100
H9 H 0.11400 0.28800 -0.20000
H10 H 0.12300 0.04000 0.28900
O8 O 0.0925(4) -0.0602(4) 0.528(2)
O9 O 0.1225(4) 0.3893(4) -0.366(2)
#END
