
#######################################################################
#
#                 Cambridge Crystallographic Data Centre
#                                CCDC
#
#######################################################################
#
# If this CIF has been generated from an entry in the Cambridge
# Structural Database, then it will include bibliographic, chemical,
# crystal, experimental, refinement or atomic coordinate data resulting
# from the CCDC's data processing and validation procedures.
#
#######################################################################

data_CSD_CIF_FEFNOT05
_audit_creation_date 2011-07-18
_audit_creation_method CSD-ConQuest-V1
_database_code_CSD FEFNOT05
_database_code_depnum_ccdc_archive 'CCDC 826300'
_chemical_formula_sum 'C15 H16 N2 O3'
_chemical_formula_moiety
;
C15 H12 N2 O1,2(H2 O1)
;
_journal_coden_Cambridge 1340
_journal_volume 24
_journal_year 2008
_journal_page_first 722
_journal_name_full 'Langmuir '
loop_
_publ_author_name
"A.Kogan"
"I.Popov"
"V.Uvarov"
"S.Cohen"
"A.Aserin"
"N.Garti"
_chemical_name_systematic
;
5H-dibenzo[b,f]azepine-5-carboxamide dihydrate
;
_chemical_name_common
;
carbamazepine dihydrate; Teaching Subset: Drug Molecules
;
_cell_volume   2803.834
_exptl_crystal_density_diffrn 1.29
_exptl_special_details
;
orthorhombic Cmca polymorph
antiepileptic

;
_diffrn_ambient_temperature 295
_refine_special_details
;
The oxo and amine groups are disordered by symmetry.

;
#These two values have been output from a single CSD field.
_refine_ls_R_factor_gt 0.051
_refine_ls_wR_factor_gt 0.051
_symmetry_cell_setting orthorhombic
_symmetry_space_group_name_H-M 'C m c a'
_symmetry_Int_Tables_number 64
loop_
_symmetry_equiv_pos_site_id
_symmetry_equiv_pos_as_xyz
1 x,y,z
2 1/2+x,1/2+y,z
3 1/2-x,y,1/2-z
4 x,-y,-z
5 1/2-x,-y,1/2+z
6 -x,1/2-y,1/2+z
7 -x,1/2+y,1/2-z
8 1/2+x,1/2-y,-z
9 -x,-y,-z
10 -1/2-x,-1/2-y,-z
11 -1/2+x,-y,-1/2+z
12 -x,y,z
13 -1/2+x,y,-1/2-z
14 x,-1/2+y,-1/2-z
15 x,-1/2-y,-1/2+z
16 -1/2-x,-1/2+y,z
_cell_length_a 19.779(2)
_cell_length_b 4.9369(4)
_cell_length_c 28.714(3)
_cell_angle_alpha 90
_cell_angle_beta 90
_cell_angle_gamma 90
_cell_formula_units_Z 8
loop_
_atom_type_symbol
_atom_type_radius_bond
C 0.68
H 0.23
N 0.68
O 0.68
loop_
_atom_site_label
_atom_site_type_symbol
_atom_site_fract_x
_atom_site_fract_y
_atom_site_fract_z
O1 O 0.7920(1) 0.0581(3) 0.5484(1)
C1 C 0.9386(1) 0.3357(3) 0.6341(1)
C2 C 0.8961(1) 0.5373(3) 0.6171(1)
C3 C 0.8358(1) 0.5924(3) 0.6393(1)
C4 C 0.8179(1) 0.4503(3) 0.6787(1)
C5 C 0.8602(1) 0.2528(3) 0.6959(1)
C6 C 0.9219(1) 0.1926(3) 0.6746(1)
C7 C 0.9663(1) -0.0116(3) 0.6953(1)
C8 C 1.00000 0.1594(4) 0.5666(1)
N1 N 1.00000 0.2733(4) 0.6103(1)
N2 N 0.9433(1) 0.1056(3) 0.5471(1)
H1 H 0.90830 0.63500 0.59070
H2 H 0.80720 0.72570 0.62760
H3 H 0.77720 0.48770 0.69360
H4 H 0.84740 0.15700 0.72230
H5 H 0.94520 -0.15660 0.71000
H6 H 0.9474(16) 0.047(7) 0.5165(11)
H7 H 0.9049(17) 0.136(6) 0.5588(11)
O2? O 0.9433(1) 0.1056(3) 0.5471(1)
C1K C 1.0614(1) 0.3357(3) 0.6341(1)
C2K C 1.1039(1) 0.5373(3) 0.6171(1)
C3K C 1.1642(1) 0.5924(3) 0.6393(1)
C4K C 1.1821(1) 0.4503(3) 0.6787(1)
C5K C 1.1398(1) 0.2528(3) 0.6959(1)
C6K C 1.0781(1) 0.1926(3) 0.6746(1)
C7K C 1.0337(1) -0.0116(3) 0.6953(1)
N2K N 1.0567(1) 0.1056(3) 0.5471(1)
H1K H 1.09170 0.63500 0.59070
H2K H 1.19280 0.72570 0.62760
H3K H 1.22280 0.48770 0.69360
H4K H 1.15260 0.15700 0.72230
H5K H 1.05480 -0.15660 0.71000
H6K H 1.0526(16) 0.047(7) 0.5165(11)
H7K H 1.0951(17) 0.136(6) 0.5588(11)
#END
