####################################################################### 
# 
# This file contains crystal structure data downloaded from the 
# Cambridge Structural Database (CSD) hosted by the Cambridge 
# Crystallographic Data Centre (CCDC).
# 
# Full information about CCDC data access policies and citation 
# guidelines are available at http://www.ccdc.cam.ac.uk/access/V1 
# 
# Audit and citation data items may have been added by the CCDC. 
# Please retain this information to preserve the provenance of 
# this file and to allow appropriate attribution of the data. 
# 
#######################################################################

data_021230b
_audit_block_doi                 10.5517/cc6yj9y
_database_code_depnum_ccdc_archive 'CCDC 207120'
loop_
_citation_id
_citation_doi
_citation_year
1 10.1002/hc.20016 2004
_audit_update_record             
;
2003-03-28 deposited with the CCDC.	2024-07-10 downloaded from the CCDC.
;

_audit_creation_method           SHELXL-97
_chemical_name_systematic        
; 
? 
;
_chemical_name_common            ?
_chemical_melting_point          ?
_chemical_formula_moiety         ?
_chemical_formula_sum            'C18 H26 Cl2 N2 Sn'
_chemical_formula_weight         460.00

loop_
_atom_type_symbol
_atom_type_description
_atom_type_scat_dispersion_real
_atom_type_scat_dispersion_imag
_atom_type_scat_source
C C 0.0033 0.0016 'International Tables Vol C Tables 4.2.6.8 and 6.1.1.4'
H H 0.0000 0.0000 'International Tables Vol C Tables 4.2.6.8 and 6.1.1.4'
N N 0.0061 0.0033 'International Tables Vol C Tables 4.2.6.8 and 6.1.1.4'
Sn Sn -0.6537 1.4246 'International Tables Vol C Tables 4.2.6.8 and 6.1.1.4'
Cl Cl 0.1484 0.1585 'International Tables Vol C Tables 4.2.6.8 and 6.1.1.4'

_symmetry_cell_setting           Triclinic
_symmetry_space_group_name_H-M   P1

loop_
_symmetry_equiv_pos_as_xyz
'x, y, z'

_cell_length_a                   9.202(5)
_cell_length_b                   9.350(5)
_cell_length_c                   9.563(5)
_cell_angle_alpha                85.434(9)
_cell_angle_beta                 61.316(9)
_cell_angle_gamma                79.615(9)
_cell_volume                     710.0(7)
_cell_formula_units_Z            1
_cell_measurement_temperature    298(2)
_cell_measurement_reflns_used    773
_cell_measurement_theta_min      2.557
_cell_measurement_theta_max      19.596

_exptl_crystal_description       ?
_exptl_crystal_colour            ?
_exptl_crystal_size_max          0.25
_exptl_crystal_size_mid          0.13
_exptl_crystal_size_min          0.08
_exptl_crystal_density_meas      ?
_exptl_crystal_density_diffrn    1.076
_exptl_crystal_density_method    'not measured'
_exptl_crystal_F_000             232
_exptl_absorpt_coefficient_mu    1.089
_exptl_absorpt_correction_type   multi-scan
_exptl_absorpt_correction_T_min  0.7725
_exptl_absorpt_correction_T_max  0.9180
_exptl_absorpt_process_details   sadabs

_exptl_special_details           
; 
? 
;

_diffrn_ambient_temperature      298(2)
_diffrn_radiation_wavelength     0.71073
_diffrn_radiation_type           MoK\a
_diffrn_radiation_source         'fine-focus sealed tube'
_diffrn_radiation_monochromator  graphite
_diffrn_measurement_device_type  'CCD area detector'
_diffrn_measurement_method       'phi and omega scans'
_diffrn_detector_area_resol_mean ?
_diffrn_standards_number         ?
_diffrn_standards_interval_count ?
_diffrn_standards_interval_time  ?
_diffrn_standards_decay_%        ?
_diffrn_reflns_number            3579
_diffrn_reflns_av_R_equivalents  0.0436
_diffrn_reflns_av_sigmaI/netI    0.1722
_diffrn_reflns_limit_h_min       -11
_diffrn_reflns_limit_h_max       11
_diffrn_reflns_limit_k_min       -10
_diffrn_reflns_limit_k_max       11
_diffrn_reflns_limit_l_min       -11
_diffrn_reflns_limit_l_max       11
_diffrn_reflns_theta_min         2.56
_diffrn_reflns_theta_max         26.37
_reflns_number_total             3075
_reflns_number_gt                1894
_reflns_threshold_expression     >2sigma(I)

_computing_data_collection       'Bruker SMART'
_computing_cell_refinement       'Bruker SMART'
_computing_data_reduction        'Bruker SHELXTL'
_computing_structure_solution    'SHELXS-97 (Sheldrick, 1990)'
_computing_structure_refinement  'SHELXL-97 (Sheldrick, 1997)'
_computing_molecular_graphics    'Bruker SHELXTL'
_computing_publication_material  'Bruker SHELXTL'

_refine_special_details          
; 
Refinement of F^2^ against ALL reflections.  The weighted R-factor wR and 
goodness of fit S are based on F^2^, conventional R-factors R are based 
on F, with F set to zero for negative F^2^. The threshold expression of 
F^2^ > 2sigma(F^2^) is used only for calculating R-factors(gt) etc. and is 
not relevant to the choice of reflections for refinement.  R-factors based 
on F^2^ are statistically about twice as large as those based on F, and R- 
factors based on ALL data will be even larger. 
;

_refine_ls_structure_factor_coef Fsqd
_refine_ls_matrix_type           full
_refine_ls_weighting_scheme      calc
_refine_ls_weighting_details     
'calc w=1/[\s^2^(Fo^2^)+(0.0000P)^2^+0.0000P] where P=(Fo^2^+2Fc^2^)/3'
_atom_sites_solution_primary     direct
_atom_sites_solution_secondary   difmap
_atom_sites_solution_hydrogens   geom
_refine_ls_hydrogen_treatment    mixed
_refine_ls_extinction_method     none
_refine_ls_extinction_coef       ?
_refine_ls_abs_structure_details 'Flack H D (1983), Acta Cryst. A39, 876-881'
_refine_ls_abs_structure_Flack   0.03(7)
_refine_ls_number_reflns         3075
_refine_ls_number_parameters     208
_refine_ls_number_restraints     60
_refine_ls_R_factor_all          0.0928
_refine_ls_R_factor_gt           0.0551
_refine_ls_wR_factor_ref         0.0905
_refine_ls_wR_factor_gt          0.0797
_refine_ls_goodness_of_fit_ref   0.750
_refine_ls_restrained_S_all      0.750
_refine_ls_shift/su_max          0.002
_refine_ls_shift/su_mean         0.000

loop_
_atom_site_label
_atom_site_type_symbol
_atom_site_fract_x
_atom_site_fract_y
_atom_site_fract_z
_atom_site_U_iso_or_equiv
_atom_site_adp_type
_atom_site_occupancy
_atom_site_symmetry_multiplicity
_atom_site_calc_flag
_atom_site_refinement_flags
_atom_site_disorder_assembly
_atom_site_disorder_group
Sn1 Sn 0.3156(5) 0.0783(4) 0.5912(6) 0.0511(2) Uani 1 1 d D . .
Cl1 Cl 0.5103(6) 0.2560(4) 0.5629(6) 0.072(3) Uani 1 1 d . . .
Cl2 Cl 0.1224(7) -0.0970(5) 0.6101(9) 0.099(4) Uani 1 1 d . . .
N1 N 0.521(3) -0.1304(18) 0.589(2) 0.045(5) Uani 1 1 d . . .
N2 N 0.120(3) 0.273(2) 0.588(3) 0.064(6) Uani 1 1 d . . .
C1 C 0.527(2) -0.2538(18) 0.537(2) 0.066(4) Uani 1 1 d U . .
H1 H 0.4525 -0.2624 0.4992 0.079 Uiso 1 1 calc R . .
C2 C 0.6371(18) -0.3747(15) 0.5345(19) 0.059(4) Uani 1 1 d U . .
H2 H 0.6340 -0.4636 0.4996 0.071 Uiso 1 1 calc R . .
C3 C 0.761(3) -0.363(2) 0.587(3) 0.053(7) Uani 1 1 d U . .
C4 C 0.759(4) -0.225(3) 0.598(4) 0.102(10) Uani 1 1 d U . .
H4 H 0.8566 -0.2024 0.5928 0.122 Uiso 1 1 calc R . .
C5 C 0.640(4) -0.106(3) 0.616(4) 0.088(8) Uani 1 1 d U . .
H5 H 0.6429 -0.0149 0.6465 0.105 Uiso 1 1 calc R . .
C6 C 0.1475(17) 0.4231(14) 0.564(2) 0.056(4) Uani 1 1 d U . .
H6 H 0.2489 0.4424 0.5511 0.067 Uiso 1 1 calc R . .
C7 C 0.0358(15) 0.5370(13) 0.5600(17) 0.048(3) Uani 1 1 d U . .
H7 H 0.0645 0.6297 0.5374 0.058 Uiso 1 1 calc R . .
C8 C -0.119(3) 0.516(2) 0.589(3) 0.054(8) Uani 1 1 d . . .
C9 C -0.144(2) 0.3785(15) 0.581(3) 0.077(8) Uani 1 1 d . . .
H9 H -0.2310 0.3617 0.5640 0.092 Uiso 1 1 calc R . .
C10 C -0.032(3) 0.2613(16) 0.600(3) 0.069(7) Uani 1 1 d . . .
H10 H -0.0649 0.1701 0.6220 0.083 Uiso 1 1 calc R . .
C11 C 0.205(3) 0.076(3) 0.844(4) 0.154(14) Uani 1 1 d D . .
H11A H 0.2283 -0.0239 0.8735 0.184 Uiso 1 1 calc R . .
H11B H 0.2670 0.1315 0.8718 0.184 Uiso 1 1 calc R . .
C12 C 0.017(3) 0.130(3) 0.955(2) 0.178(9) Uani 1 1 d DU . .
H12A H -0.0009 0.2347 0.9679 0.214 Uiso 1 1 calc R . .
H12B H -0.0482 0.1081 0.9073 0.214 Uiso 1 1 calc R . .
C13 C -0.041(5) 0.059(4) 1.116(3) 0.29(2) Uani 1 1 d D . .
H13A H 0.0235 -0.0379 1.1036 0.348 Uiso 1 1 calc R . .
H13B H -0.1578 0.0498 1.1601 0.348 Uiso 1 1 calc R . .
C14 C -0.021(6) 0.144(5) 1.232(4) 0.42(4) Uani 1 1 d D . .
H14A H -0.0638 0.0975 1.3340 0.628 Uiso 1 1 calc R . .
H14B H -0.0814 0.2412 1.2432 0.628 Uiso 1 1 calc R . .
H14C H 0.0962 0.1482 1.1929 0.628 Uiso 1 1 calc R . .
C15 C 0.420(2) 0.0531(19) 0.3413(15) 0.061(5) Uani 1 1 d D . .
H15A H 0.5293 -0.0069 0.3036 0.073 Uiso 1 1 calc R . .
H15B H 0.3502 -0.0019 0.3234 0.073 Uiso 1 1 calc R . .
C16 C 0.441(3) 0.1829(17) 0.238(2) 0.127(6) Uani 1 1 d D . .
H16A H 0.5114 0.2399 0.2522 0.152 Uiso 1 1 calc R . .
H16B H 0.3327 0.2428 0.2690 0.152 Uiso 1 1 calc R . .
C17 C 0.522(2) 0.1413(19) 0.061(2) 0.103(5) Uani 1 1 d D . .
H17A H 0.6216 0.0692 0.0345 0.124 Uiso 1 1 calc R . .
H17B H 0.4439 0.0970 0.0443 0.124 Uiso 1 1 calc R . .
C18 C 0.570(5) 0.269(3) -0.051(4) 0.266(14) Uani 1 1 d D . .
H18A H 0.6253 0.2353 -0.1590 0.399 Uiso 1 1 calc R . .
H18B H 0.6444 0.3157 -0.0325 0.399 Uiso 1 1 calc R . .
H18C H 0.4707 0.3375 -0.0311 0.399 Uiso 1 1 calc R . .

loop_
_atom_site_aniso_label
_atom_site_aniso_U_11
_atom_site_aniso_U_22
_atom_site_aniso_U_33
_atom_site_aniso_U_23
_atom_site_aniso_U_13
_atom_site_aniso_U_12
Sn1 0.0472(4) 0.0360(3) 0.0799(5) -0.0015(3) -0.0403(3) 0.0016(2)
Cl1 0.066(5) 0.036(3) 0.130(6) 0.009(4) -0.056(5) -0.022(3)
Cl2 0.082(6) 0.054(4) 0.205(10) -0.007(5) -0.108(7) 0.008(4)
N1 0.056(10) 0.009(6) 0.085(11) -0.017(6) -0.053(9) 0.023(5)
N2 0.045(11) 0.045(11) 0.102(14) 0.017(9) -0.033(10) -0.019(8)
C1 0.068(8) 0.069(7) 0.071(8) 0.010(6) -0.046(7) 0.000(6)
C2 0.057(7) 0.045(6) 0.075(8) -0.003(6) -0.035(6) 0.003(5)
C3 0.060(11) 0.046(11) 0.058(10) 0.001(8) -0.028(8) -0.017(7)
C4 0.094(12) 0.110(13) 0.118(13) -0.008(8) -0.059(9) -0.029(8)
C5 0.081(11) 0.085(11) 0.104(11) 0.002(7) -0.052(8) -0.007(8)
C6 0.039(6) 0.050(6) 0.090(8) -0.005(6) -0.043(6) 0.007(5)
C7 0.039(6) 0.030(5) 0.070(7) 0.005(6) -0.023(6) -0.004(4)
C8 0.043(10) 0.038(10) 0.102(16) -0.024(9) -0.058(11) 0.022(7)
C9 0.052(9) 0.007(5) 0.22(2) -0.010(7) -0.108(13) 0.015(5)
C10 0.062(11) 0.004(5) 0.17(2) -0.001(7) -0.087(13) 0.023(5)
C11 0.14(3) 0.085(16) 0.26(4) 0.002(19) -0.11(3) -0.032(16)
C12 0.179(12) 0.183(12) 0.171(12) -0.005(9) -0.083(9) -0.023(9)
C13 0.32(6) 0.39(6) 0.17(3) -0.01(3) -0.10(4) -0.11(5)
C14 0.21(4) 0.70(11) 0.22(4) 0.19(6) -0.06(4) -0.01(6)
C15 0.082(12) 0.069(10) 0.031(8) 0.006(7) -0.031(8) 0.002(8)
C16 0.20(2) 0.082(11) 0.138(17) 0.027(11) -0.113(16) -0.031(12)
C17 0.090(12) 0.116(13) 0.106(14) -0.004(10) -0.054(11) 0.002(9)
C18 0.29(4) 0.26(4) 0.22(3) 0.01(3) -0.11(3) -0.02(3)

_geom_special_details            
; 
All esds (except the esd in the dihedral angle between two l.s. planes) 
are estimated using the full covariance matrix.  The cell esds are taken 
into account individually in the estimation of esds in distances, angles 
and torsion angles; correlations between esds in cell parameters are only 
used when they are defined by crystal symmetry.  An approximate (isotropic) 
treatment of cell esds is used for estimating esds involving l.s. planes. 
;

loop_
_geom_bond_atom_site_label_1
_geom_bond_atom_site_label_2
_geom_bond_distance
_geom_bond_site_symmetry_2
_geom_bond_publ_flag
Sn1 C15 2.120(12) . ?
Sn1 C11 2.13(3) . ?
Sn1 N2 2.33(2) . ?
Sn1 N1 2.449(16) . ?
Sn1 Cl2 2.564(8) . ?
Sn1 Cl1 2.566(6) . ?
N1 C1 1.27(3) . ?
N1 C5 1.31(3) . ?
N2 C10 1.38(3) . ?
N2 C6 1.45(2) . ?
C1 C2 1.370(19) . ?
C2 C3 1.47(3) . ?
C3 C4 1.31(4) . ?
C3 C8 1.443(12) 1_645 ?
C4 C5 1.37(3) . ?
C6 C7 1.353(15) . ?
C7 C8 1.36(2) . ?
C8 C9 1.36(3) . ?
C8 C3 1.443(12) 1_465 ?
C9 C10 1.425(16) . ?
C11 C12 1.541(17) . ?
C12 C13 1.508(17) . ?
C13 C14 1.511(19) . ?
C15 C16 1.484(16) . ?
C16 C17 1.532(16) . ?
C17 C18 1.516(18) . ?

loop_
_geom_angle_atom_site_label_1
_geom_angle_atom_site_label_2
_geom_angle_atom_site_label_3
_geom_angle
_geom_angle_site_symmetry_1
_geom_angle_site_symmetry_3
_geom_angle_publ_flag
C15 Sn1 C11 172.7(11) . . ?
C15 Sn1 N2 89.8(7) . . ?
C11 Sn1 N2 93.9(10) . . ?
C15 Sn1 N1 88.8(6) . . ?
C11 Sn1 N1 87.4(9) . . ?
N2 Sn1 N1 178.3(10) . . ?
C15 Sn1 Cl2 85.0(6) . . ?
C11 Sn1 Cl2 88.7(8) . . ?
N2 Sn1 Cl2 89.5(5) . . ?
N1 Sn1 Cl2 89.4(5) . . ?
C15 Sn1 Cl1 93.2(6) . . ?
C11 Sn1 Cl1 93.1(8) . . ?
N2 Sn1 Cl1 89.7(5) . . ?
N1 Sn1 Cl1 91.4(5) . . ?
Cl2 Sn1 Cl1 178.1(4) . . ?
C1 N1 C5 121(2) . . ?
C1 N1 Sn1 120.7(13) . . ?
C5 N1 Sn1 117.8(16) . . ?
C10 N2 C6 110.8(16) . . ?
C10 N2 Sn1 124.9(13) . . ?
C6 N2 Sn1 124.2(13) . . ?
N1 C1 C2 123.3(16) . . ?
C1 C2 C3 119.6(17) . . ?
C4 C3 C8 128.3(17) . 1_645 ?
C4 C3 C2 107(2) . . ?
C8 C3 C2 123.5(13) 1_645 . ?
C3 C4 C5 131(3) . . ?
N1 C5 C4 115(3) . . ?
C7 C6 N2 124.7(14) . . ?
C6 C7 C8 119.8(15) . . ?
C9 C8 C7 119.1(16) . . ?
C9 C8 C3 118.8(10) . 1_465 ?
C7 C8 C3 120.2(12) . 1_465 ?
C8 C9 C10 117.3(16) . . ?
N2 C10 C9 124.9(17) . . ?
C12 C11 Sn1 123.4(19) . . ?
C13 C12 C11 111.1(16) . . ?
C12 C13 C14 112.6(18) . . ?
C16 C15 Sn1 120.2(12) . . ?
C15 C16 C17 112.0(13) . . ?
C18 C17 C16 113.5(19) . . ?

_diffrn_measured_fraction_theta_max 0.900
_diffrn_reflns_theta_full        26.37
_diffrn_measured_fraction_theta_full 0.900
_refine_diff_density_max         0.377
_refine_diff_density_min         -0.363
_refine_diff_density_rms         0.069
