####################################################################### 
# 
# This file contains crystal structure data downloaded from the 
# Cambridge Structural Database (CSD) hosted by the Cambridge 
# Crystallographic Data Centre (CCDC).
# 
# Full information about CCDC data access policies and citation 
# guidelines are available at http://www.ccdc.cam.ac.uk/access/V1 
# 
# Audit and citation data items may have been added by the CCDC. 
# Please retain this information to preserve the provenance of 
# this file and to allow appropriate attribution of the data. 
# 
#######################################################################

data_[Cu(CM-TTF)](ClO4)
_audit_block_doi                 10.5517/cc3r6st
_database_code_depnum_ccdc_archive 'CCDC 111686'
loop_
_citation_id
_citation_doi
_citation_year
1 10.1039/a804945i 1998
_audit_update_record             
;
1998-11-23 deposited with the CCDC.	2024-07-10 downloaded from the CCDC.
;

_audit_creation_date             'Sat Jul 12 19:38:40 1997'
_audit_creation_method           'from TEXRAY.INF file'

_computing_data_collection       'Rigaku/AFC Diffractometer Control'
_computing_cell_refinement       'Rigaku/AFC Diffractometer Control'
_computing_data_reduction        teXsan
_computing_structure_solution    MULTAN88
_computing_structure_refinement  teXsan
_computing_publication_material  teXsan
_computing_molecular_graphics    ?

_chemical_compound_source        ?
_chemical_name_common            ?
_chemical_formula_weight         701.86
_chemical_formula_analytical     ?
_chemical_formula_sum            'C18 H22 Cl Cu N2 O5 S8 '
_chemical_formula_moiety         ?
_chemical_formula_structural     ?
_chemical_melting_point          ?

_cell_length_a                   9.979(3)
_cell_length_b                   25.785(4)
_cell_length_c                   11.086(4)
_cell_angle_alpha                90
_cell_angle_beta                 92.51(3)
_cell_angle_gamma                90
_cell_volume                     2849(1)
_cell_formula_units_Z            4
_cell_measurement_temperature    296.2
_cell_measurement_reflns_used    25
_cell_measurement_theta_min      3.7
_cell_measurement_theta_max      6.4

_symmetry_cell_setting           monoclinic
_symmetry_space_group_name_H-M   'P 21/c     '
_symmetry_Int_Tables_number      14
_symmetry_space_group_name_Hall  ?
loop_
_symmetry_equiv_pos_as_xyz
'   +x,   +y,   +z'
'   -x,1/2+y,1/2-z'
'   -x,   -y,   -z'
'   +x,1/2-y,1/2+z'

_exptl_crystal_description       brick
_exptl_crystal_colour            red
_exptl_crystal_size_max          0.200
_exptl_crystal_size_mid          0.200
_exptl_crystal_size_min          0.200
_exptl_crystal_density_diffrn    1.636
_exptl_crystal_density_meas      'not measured'
_exptl_crystal_F_000             1432.00
_exptl_absorpt_coefficient_mu    1.479
_exptl_absorpt_correction_type   '\y scans(North,Phillips & Mathews,1968)'
_exptl_absorpt_correction_T_max  0.990
_exptl_absorpt_correction_T_min  0.803
_diffrn_ambient_temperature      296.2
_diffrn_radiation_wavelength     0.7107
_diffrn_radiation_type           'Mo K\a'
_diffrn_radiation_source         'Rigaku rotating anode'
_diffrn_radiation_monochromator  graphite
_diffrn_radiation_detector       'scintillation counter'
_diffrn_measurement_device       'Rigaku AFC7R'
_diffrn_measurement_method       \w-2\q

_diffrn_standards_number         3
_diffrn_standards_interval_count 150
_diffrn_standards_decay_%        0.61

loop_
_diffrn_standard_refln_index_h
_diffrn_standard_refln_index_k
_diffrn_standard_refln_index_l
0 -4 2
1 -5 2
0 0 2
_diffrn_reflns_number            7070
_reflns_number_total             6700
_reflns_number_observed          2963
_reflns_observed_criterion       >2.5sigma(I)
_diffrn_reflns_av_R_equivalents  4.44
_diffrn_reflns_av_sigmaI/netI    0.159
_diffrn_reflns_limit_h_min       0
_diffrn_reflns_limit_h_max       12
_diffrn_reflns_limit_k_min       0
_diffrn_reflns_limit_k_max       33
_diffrn_reflns_limit_l_min       -14
_diffrn_reflns_limit_l_max       14
_diffrn_reflns_theta_min         2.00
_diffrn_reflns_theta_max         27.51
_diffrn_reflns_reduction_process 'Lp corrections applied'
_diffrn_orient_matrix_UB_11      0.09436
_diffrn_orient_matrix_UB_12      0.00633
_diffrn_orient_matrix_UB_13      0.03055
_diffrn_orient_matrix_UB_21      -0.03078
_diffrn_orient_matrix_UB_22      0.03038
_diffrn_orient_matrix_UB_23      0.04755
_diffrn_orient_matrix_UB_31      -0.01452
_diffrn_orient_matrix_UB_32      -0.02326
_diffrn_orient_matrix_UB_33      0.07042


loop_
_atom_site_label
_atom_site_fract_x
_atom_site_fract_y
_atom_site_fract_z
_atom_site_U_iso_or_equiv
_atom_site_thermal_displace_type
_atom_site_calc_flag
_atom_site_calc_attached_atom
_atom_site_occupancy
_atom_site_refinement_flags
Cu1 1.0032(2) 0.32245(6) 0.5811(1) 0.0625(5) Uani d . 1.00 .
Cl1 0.5288(5) 0.2380(2) 0.1735(4) 0.086(2) Uani d . 1.00 .
S1 1.0973(4) 0.6170(1) -0.1112(3) 0.061(1) Uani d . 1.00 .
S2 1.1387(3) 0.4624(1) 0.3204(3) 0.058(1) Uani d . 1.00 .
S3 0.8458(3) 0.3876(1) 0.5411(3) 0.059(1) Uani d . 1.00 .
S4 1.1090(3) 0.5451(1) 0.1014(3) 0.059(1) Uani d . 1.00 .
S5 0.8555(3) 0.4784(1) 0.3739(3) 0.0533(10) Uani d . 1.00 .
S6 0.7711(4) 0.6260(1) -0.0697(3) 0.072(1) Uani d . 1.00 .
S7 0.8227(3) 0.5567(1) 0.1467(3) 0.066(1) Uani d . 1.00 .
S8 1.1653(5) 0.3694(2) 0.4811(7) 0.175(3) Uani d . 1.00 .
O1 0.523(2) 0.1922(5) 0.223(1) 0.183(8) Uani d . 1.00 .
O2 0.541(1) 0.2429(5) 0.0488(10) 0.121(5) Uani d . 1.00 .
O3 0.432(3) 0.267(1) 0.200(2) 0.37(2) Uani d . 1.00 .
O4 0.631(3) 0.2593(9) 0.225(2) 0.33(2) Uani d . 1.00 .
O5 0.498(3) 0.022(1) 0.697(3) 0.34(1) Uiso d . 1.00 .
N1' 1.075(1) 0.7591(4) -0.010(1) 0.068(4) Uani d . 1.00 .
N2' 0.913(1) 0.6910(4) 0.259(1) 0.066(4) Uani d . 1.00 .
C1 0.937(1) 0.4247(4) 0.440(1) 0.046(4) Uani d . 1.00 .
C2 1.064(1) 0.4175(4) 0.417(1) 0.048(4) Uani d . 1.00 .
C3 0.990(1) 0.4945(4) 0.2826(10) 0.042(3) Uani d . 1.00 .
C4 0.975(1) 0.5285(4) 0.1913(10) 0.044(3) Uani d . 1.00 .
C5 0.885(1) 0.5926(4) 0.027(1) 0.051(4) Uani d . 1.00 .
C6 1.016(1) 0.5877(4) 0.005(1) 0.047(4) Uani d . 1.00 .
C7' 1.135(2) 0.7255(5) 0.024(1) 0.062(5) Uani d . 1.00 .
C8' 0.842(2) 0.7001(5) 0.182(1) 0.068(5) Uani d . 1.00 .
C10 0.676(1) 0.6630(5) 0.033(1) 0.070(5) Uani d . 1.00 .
C11 1.247(1) 0.6429(5) -0.035(1) 0.064(4) Uani d . 1.00 .
C12' 1.218(1) 0.6810(5) 0.065(1) 0.072(5) Uani d . 1.00 .
C13' 0.743(1) 0.7113(5) 0.084(1) 0.063(4) Uani d . 1.00 .
C14 0.720(1) 0.3599(6) 0.441(2) 0.090(6) Uani d . 1.00 .
C15 1.282(2) 0.360(1) 0.432(5) 0.43(3) Uani d . 1.00 .
C16 0.494(3) 0.031(1) 0.845(3) 0.22(1) Uiso d . 1.00 .
C17 0.486(4) -0.032(2) 0.851(4) 0.26(2) Uiso d . 1.00 .
C18 0.468(3) -0.059(1) 0.742(3) 0.22(1) Uiso d . 1.00 .
C19 0.464(4) -0.035(2) 0.614(4) 0.33(2) Uiso d . 1.00 .
H1 0.6690 0.3858 0.3974 0.1019 Uiso calc . 1.00 .
H2 0.7625 0.3388 0.3779 0.1019 Uiso calc . 1.00 .
H3 0.6612 0.3375 0.4800 0.1019 Uiso calc . 1.00 .
H4 1.3307 0.3318 0.4674 0.4210 Uiso calc . 1.00 .
H5 1.2634 0.3476 0.3441 0.4210 Uiso calc . 1.00 .
H6 1.3376 0.3889 0.4239 0.4210 Uiso calc . 1.00 .
H7 0.5907 0.6722 -0.0065 0.0796 Uiso calc . 1.00 .
H8 0.6543 0.6408 0.1007 0.0796 Uiso calc . 1.00 .
H9 1.3013 0.6144 -0.0052 0.0754 Uiso calc . 1.00 .
H10 1.2990 0.6608 -0.0943 0.0754 Uiso calc . 1.00 .
H11 1.3028 0.6925 0.1020 0.0860 Uiso calc . 1.00 .
H12 1.1741 0.6614 0.1275 0.0860 Uiso calc . 1.00 .
H13 0.6771 0.7349 0.1126 0.0765 Uiso calc . 1.00 .
H14 0.7870 0.7284 0.0190 0.0765 Uiso calc . 1.00 .

loop_
_atom_site_aniso_label
_atom_site_aniso_U_11
_atom_site_aniso_U_22
_atom_site_aniso_U_33
_atom_site_aniso_U_12
_atom_site_aniso_U_13
_atom_site_aniso_U_23
Cu(1) 0.077(1) 0.0512(9) 0.059(1) -0.0021(9) 0.0000(8) 0.0166(8)
Cl(1) 0.087(3) 0.099(3) 0.073(3) 0.010(3) 0.007(2) 0.025(3)
S(1) 0.089(3) 0.050(2) 0.045(2) -0.016(2) 0.006(2) 0.002(2)
S(2) 0.051(2) 0.053(2) 0.070(2) 0.002(2) 0.011(2) 0.025(2)
S(3) 0.060(2) 0.049(2) 0.070(2) 0.001(2) 0.022(2) 0.016(2)
S(4) 0.047(2) 0.055(2) 0.076(2) 0.001(2) 0.010(2) 0.022(2)
S(5) 0.053(2) 0.042(2) 0.067(2) 0.006(1) 0.017(2) 0.009(2)
S(6) 0.081(3) 0.075(2) 0.058(2) 0.023(2) -0.014(2) 0.005(2)
S(7) 0.051(2) 0.068(2) 0.078(2) 0.007(2) 0.008(2) 0.025(2)
S(8) 0.081(3) 0.168(5) 0.282(8) 0.066(3) 0.086(4) 0.180(6)
O(1) 0.26(2) 0.11(1) 0.18(2) -0.03(1) -0.04(1) 0.07(1)
O(2) 0.16(1) 0.133(10) 0.070(8) 0.059(9) 0.016(8) 0.007(7)
O(3) 0.39(3) 0.54(4) 0.20(2) 0.34(4) 0.20(2) 0.22(2)
O(4) 0.54(5) 0.25(3) 0.19(2) -0.22(3) -0.15(3) 0.11(2)
N(1*) 0.092(10) 0.049(7) 0.063(8) -0.002(7) 0.003(7) 0.006(6)
N(2*) 0.075(8) 0.060(7) 0.062(7) 0.000(6) -0.007(7) 0.012(6)
C(1) 0.047(7) 0.040(6) 0.049(7) -0.012(6) -0.002(6) -0.001(5)
C(2) 0.047(7) 0.034(6) 0.064(8) 0.008(5) 0.004(6) 0.017(6)
C(3) 0.043(7) 0.033(6) 0.051(7) -0.002(5) 0.001(6) -0.006(5)
C(4) 0.049(7) 0.035(6) 0.048(7) 0.002(5) 0.007(6) 0.012(5)
C(5) 0.069(9) 0.034(6) 0.051(8) 0.005(6) -0.002(7) 0.003(5)
C(6) 0.066(9) 0.029(6) 0.046(7) 0.002(6) 0.005(6) 0.000(5)
C(7*) 0.08(1) 0.061(9) 0.046(8) -0.023(8) 0.008(7) -0.004(7)
C(8*) 0.08(1) 0.057(8) 0.07(1) 0.007(8) 0.003(9) 0.016(8)
C(10) 0.056(9) 0.074(10) 0.078(10) 0.021(7) -0.009(7) 0.026(8)
C(11) 0.051(8) 0.044(7) 0.10(1) 0.006(6) 0.020(8) 0.020(7)
C(12*) 0.066(9) 0.061(9) 0.09(1) -0.007(8) -0.010(8) 0.017(8)
C(13*) 0.067(9) 0.054(8) 0.069(9) 0.009(7) 0.004(7) 0.003(7)
C(14) 0.051(9) 0.08(1) 0.13(1) -0.026(8) -0.019(9) 0.04(1)
C(15) 0.08(2) 0.27(3) 0.9(1) 0.09(2) 0.14(4) 0.42(5)



_refine_ls_structure_factor_coef F
_refine_ls_matrix_type           full
_refine_ls_weighting_scheme      'w = 1/[\s^2^(Fo) + 0.00022|Fo|^2^]'
_refine_ls_hydrogen_treatment    noref
_refine_ls_extinction_method     none
_refine_ls_extinction_coef       ?
_refine_ls_abs_structure_details ?
_refine_ls_abs_structure_Flack   ?
_refine_ls_number_reflns         2963
_refine_ls_number_parameters     291
_refine_ls_number_restraints     0
_refine_ls_number_constraints    0
_refine_ls_R_factor_all          ?
_refine_ls_R_factor_obs          0.0922
_refine_ls_wR_factor_all         ?
_refine_ls_wR_factor_obs         0.1005
_refine_ls_goodness_of_fit_all   ?
_refine_ls_goodness_of_fit_obs   2.540
_refine_ls_shift/esd_max         0.0740
_refine_ls_shift/esd_mean        0.0050
_refine_diff_density_min         -1.71
_refine_diff_density_max         1.81


loop_
_geom_bond_atom_site_label_1
_geom_bond_atom_site_label_2
_geom_bond_distance
_geom_bond_site_symmetry_1
_geom_bond_site_symmetry_2
_geom_bond_publ_flag
Cu(1) S(5) 2.338(5) 1_555 1_555 yes
Cu(1) S(6) 2.328(4) 1_555 1_555 yes
Cu(1) N(1) 1.96(1) 1_555 2_745 yes
Cu(1) N(2) 1.96(1) 1_555 3_766 yes
Cl(1) O(1) 1.27(2) 1_555 1_555 yes
Cl(1) O(2) 1.31(1) 1_555 1_555 yes
Cl(1) O(3) 1.27(2) 1_555 1_555 yes
Cl(1) O(4) 1.40(1) 1_555 1_555 yes
S(1) C(1) 1.74(1) 1_555 1_555 yes
S(1) C(3) 1.76(1) 1_555 1_555 yes
S(2) C(1) 1.76(1) 1_555 1_555 yes
S(2) C(4) 1.75(1) 1_555 1_555 yes
S(3) C(2) 1.76(1) 1_555 1_555 yes
S(3) C(5) 1.76(1) 1_555 1_555 yes
S(4) C(2) 1.74(1) 1_555 1_555 yes
S(4) C(6) 1.75(1) 1_555 1_555 yes
S(5) C(3) 1.73(1) 1_555 1_555 yes
S(5) C(7) 1.33(3) 1_555 1_555 yes
S(6) C(4) 1.75(1) 1_555 1_555 yes
S(6) C(8) 1.79(1) 1_555 1_555 yes
S(7) C(5) 1.73(1) 1_555 1_555 yes
S(7) C(9) 1.81(1) 1_555 1_555 yes
S(8) C(6) 1.76(1) 1_555 1_555 yes
S(8) C(12) 1.79(1) 1_555 1_555 yes
O(5) C(15) 1.65(4) 1_555 1_555 yes
O(5) C(18) 1.75(5) 1_555 1_555 yes
N(1) C(11) 1.11(2) 1_555 1_555 yes
N(2) C(14) 1.11(2) 1_555 1_555 yes
C(1) C(2) 1.34(1) 1_555 1_555 yes
C(3) C(4) 1.33(1) 1_555 1_555 yes
C(5) C(6) 1.34(2) 1_555 1_555 yes
C(7) H(4) 1.031 1_555 1_555 no
C(7) H(5) 0.947 1_555 1_555 no
C(7) H(6) 0.944 1_555 1_555 no
C(8) H(1) 0.956 1_555 1_555 no
C(8) H(2) 0.942 1_555 1_555 no
C(8) H(3) 0.997 1_555 1_555 no
C(9) C(10) 1.52(2) 1_555 1_555 yes
C(9) H(7) 0.965 1_555 1_555 no
C(9) H(8) 0.971 1_555 1_555 no
C(10) C(11) 1.48(2) 1_555 1_555 yes
C(10) H(9) 0.981 1_555 1_555 no
C(10) H(10) 0.971 1_555 1_555 no
C(12) C(13) 1.51(2) 1_555 1_555 yes
C(12) H(11) 0.977 1_555 1_555 no
C(12) H(12) 0.966 1_555 1_555 no
C(13) C(14) 1.46(2) 1_555 1_555 yes
C(13) H(13) 0.962 1_555 1_555 no
C(13) H(14) 0.964 1_555 1_555 no
C(15) C(16) 1.63(4) 1_555 1_555 yes
C(16) C(17) 1.40(4) 1_555 1_555 yes
C(17) C(18) 1.53(4) 1_555 1_555 yes

loop_
_geom_angle_atom_site_label_1
_geom_angle_atom_site_label_2
_geom_angle_atom_site_label_3
_geom_angle
_geom_angle_site_symmetry_1
_geom_angle_site_symmetry_2
_geom_angle_site_symmetry_3
_geom_angle_publ_flag
S(5) Cu(1) S(6) 90.7(1) 1_555 1_555 1_555 yes
S(5) Cu(1) N(1) 120.7(4) 1_555 1_555 2_745 yes
S(5) Cu(1) N(2) 104.2(4) 1_555 1_555 3_766 yes
S(6) Cu(1) N(1) 105.9(4) 1_555 1_555 2_745 yes
S(6) Cu(1) N(2) 123.9(4) 1_555 1_555 3_766 yes
N(1) Cu(1) N(2) 111.1(5) 2_745 1_555 3_766 yes
O(1) Cl(1) O(2) 104(1) 1_555 1_555 1_555 yes
O(1) Cl(1) O(3) 103(2) 1_555 1_555 1_555 yes
O(1) Cl(1) O(4) 107(1) 1_555 1_555 1_555 yes
O(2) Cl(1) O(3) 113(1) 1_555 1_555 1_555 yes
O(2) Cl(1) O(4) 120(1) 1_555 1_555 1_555 yes
O(3) Cl(1) O(4) 106(1) 1_555 1_555 1_555 yes
C(1) S(1) C(3) 94.7(5) 1_555 1_555 1_555 yes
C(1) S(2) C(4) 94.5(5) 1_555 1_555 1_555 yes
C(2) S(3) C(5) 95.7(5) 1_555 1_555 1_555 yes
C(2) S(4) C(6) 95.8(6) 1_555 1_555 1_555 yes
Cu(1) S(5) C(3) 99.4(4) 1_555 1_555 1_555 yes
Cu(1) S(5) C(7) 137(1) 1_555 1_555 1_555 yes
C(3) S(5) C(7) 117(1) 1_555 1_555 1_555 yes
Cu(1) S(6) C(4) 98.8(4) 1_555 1_555 1_555 yes
Cu(1) S(6) C(8) 106.3(5) 1_555 1_555 1_555 yes
C(4) S(6) C(8) 101.0(6) 1_555 1_555 1_555 yes
C(5) S(7) C(9) 102.6(6) 1_555 1_555 1_555 yes
C(6) S(8) C(12) 102.8(6) 1_555 1_555 1_555 yes
C(15) O(5) C(18) 128(3) 1_555 1_555 1_555 yes
Cu(1) N(1) C(11) 170(1) 2_755 1_555 1_555 yes
Cu(1) N(2) C(14) 164(1) 3_766 1_555 1_555 yes
S(1) C(1) S(2) 114.3(6) 1_555 1_555 1_555 yes
S(1) C(1) C(2) 124.1(9) 1_555 1_555 1_555 yes
S(2) C(1) C(2) 121.6(9) 1_555 1_555 1_555 yes
S(3) C(2) S(4) 114.5(6) 1_555 1_555 1_555 yes
S(3) C(2) C(1) 121.6(9) 1_555 1_555 1_555 yes
S(4) C(2) C(1) 123.8(9) 1_555 1_555 1_555 yes
S(1) C(3) S(5) 117.9(7) 1_555 1_555 1_555 yes
S(1) C(3) C(4) 117.5(8) 1_555 1_555 1_555 yes
S(5) C(3) C(4) 124.6(9) 1_555 1_555 1_555 yes
S(2) C(4) S(6) 117.3(7) 1_555 1_555 1_555 yes
S(2) C(4) C(3) 117.3(9) 1_555 1_555 1_555 yes
S(6) C(4) C(3) 125.2(9) 1_555 1_555 1_555 yes
S(3) C(5) S(7) 118.0(7) 1_555 1_555 1_555 yes
S(3) C(5) C(6) 116.1(9) 1_555 1_555 1_555 yes
S(7) C(5) C(6) 125.8(9) 1_555 1_555 1_555 yes
S(4) C(6) S(8) 118.6(8) 1_555 1_555 1_555 yes
S(4) C(6) C(5) 117.8(9) 1_555 1_555 1_555 yes
S(8) C(6) C(5) 122.9(10) 1_555 1_555 1_555 yes
S(5) C(7) H(4) 108(2) 1_555 1_555 1_555 no
S(5) C(7) H(5) 114(2) 1_555 1_555 1_555 no
S(5) C(7) H(6) 114(3) 1_555 1_555 1_555 no
H(4) C(7) H(5) 103(4) 1_555 1_555 1_555 no
H(4) C(7) H(6) 103(3) 1_555 1_555 1_555 no
H(5) C(7) H(6) 110(2) 1_555 1_555 1_555 no
S(6) C(8) H(1) 112(1) 1_555 1_555 1_555 no
S(6) C(8) H(2) 113(1) 1_555 1_555 1_555 no
S(6) C(8) H(3) 109(1) 1_555 1_555 1_555 no
H(1) C(8) H(2) 109(1) 1_555 1_555 1_555 no
H(1) C(8) H(3) 105(1) 1_555 1_555 1_555 no
H(2) C(8) H(3) 106(1) 1_555 1_555 1_555 no
S(7) C(9) C(10) 113.6(9) 1_555 1_555 1_555 yes
S(7) C(9) H(7) 108.6(10) 1_555 1_555 1_555 no
S(7) C(9) H(8) 108(1) 1_555 1_555 1_555 no
C(10) C(9) H(7) 111(1) 1_555 1_555 1_555 no
C(10) C(9) H(8) 107(1) 1_555 1_555 1_555 no
H(7) C(9) H(8) 106(1) 1_555 1_555 1_555 no
C(9) C(10) C(11) 113(1) 1_555 1_555 1_555 yes
C(9) C(10) H(9) 106(1) 1_555 1_555 1_555 no
C(9) C(10) H(10) 108(1) 1_555 1_555 1_555 no
C(11) C(10) H(9) 110(1) 1_555 1_555 1_555 no
C(11) C(10) H(10) 111(1) 1_555 1_555 1_555 no
H(9) C(10) H(10) 105(1) 1_555 1_555 1_555 no
N(1) C(11) C(10) 176(1) 1_555 1_555 1_555 yes
S(8) C(12) C(13) 115.9(10) 1_555 1_555 1_555 yes
S(8) C(12) H(11) 108.4(10) 1_555 1_555 1_555 no
S(8) C(12) H(12) 109(1) 1_555 1_555 1_555 no
C(13) C(12) H(11) 107(1) 1_555 1_555 1_555 no
C(13) C(12) H(12) 109(1) 1_555 1_555 1_555 no
H(11) C(12) H(12) 105(1) 1_555 1_555 1_555 no
C(12) C(13) C(14) 112(1) 1_555 1_555 1_555 yes
C(12) C(13) H(13) 110(1) 1_555 1_555 1_555 no
C(12) C(13) H(14) 108(1) 1_555 1_555 1_555 no
C(14) C(13) H(13) 108(1) 1_555 1_555 1_555 no
C(14) C(13) H(14) 109(1) 1_555 1_555 1_555 no
H(13) C(13) H(14) 107(1) 1_555 1_555 1_555 no
N(2) C(14) C(13) 177(1) 1_555 1_555 1_555 yes
O(5) C(15) C(16) 85(2) 1_555 1_555 1_555 yes
C(15) C(16) C(17) 115(3) 1_555 1_555 1_555 yes
C(16) C(17) C(18) 128(3) 1_555 1_555 1_555 yes
O(5) C(18) C(17) 81(2) 1_555 1_555 1_555 yes

loop_
_geom_contact_atom_site_label_1
_geom_contact_atom_site_label_2
_geom_contact_distance
_geom_contact_site_symmetry_1
_geom_contact_site_symmetry_2
_geom_contact_publ_flag
S(1) C(15) 3.55(3) 1_555 4_654 ?
S(3) C(18) 3.55(4) 1_555 4_654 ?
S(7) C(1) 3.53(1) 1_555 3_765 ?
O(1) C(10) 3.39(3) 1_555 2_745 ?
O(1) C(9) 3.53(2) 1_555 3_765 ?
O(2) C(10) 3.43(2) 1_555 2_745 ?
O(2) C(17) 3.47(3) 1_555 3_656 ?
O(2) C(12) 3.50(2) 1_555 2_645 ?
O(2) C(13) 3.52(2) 1_555 2_645 ?
O(3) C(12) 3.29(2) 1_555 3_665 ?
O(3) C(13) 3.36(2) 1_555 2_645 ?
O(3) C(14) 3.54(3) 1_555 2_645 ?
O(3) C(13) 3.58(3) 1_555 3_665 ?
O(4) C(12) 3.35(2) 1_555 3_665 ?
O(4) C(13) 3.35(2) 1_555 3_665 ?
O(4) C(10) 3.39(2) 1_555 3_765 ?
O(4) C(8) 3.44(2) 1_555 4_554 ?
O(4) C(11) 3.47(2) 1_555 3_765 ?
O(5) C(18) 3.50(5) 1_555 3_656 ?
N(1) N(2) 3.23(2) 1_555 4_564 ?
N(1) C(8) 3.38(2) 1_555 2_755 ?
C(15) C(16) 3.37(4) 1_555 3_657 ?
C(18) C(18) 3.24(9) 1_555 3_656 ?
