####################################################################### 
# 
# This file contains crystal structure data downloaded from the 
# Cambridge Structural Database (CSD) hosted by the Cambridge 
# Crystallographic Data Centre (CCDC).
# 
# Full information about CCDC data access policies and citation 
# guidelines are available at http://www.ccdc.cam.ac.uk/access/V1 
# 
# Audit and citation data items may have been added by the CCDC. 
# Please retain this information to preserve the provenance of 
# this file and to allow appropriate attribution of the data. 
# 
#######################################################################

data_lihh
_audit_block_doi                 10.5517/cc8dy1m
_database_code_depnum_ccdc_archive 'CCDC 250760'
_audit_update_record             
;
2004-09-22 deposited with the CCDC.	2024-07-10 downloaded from the CCDC.
;

_audit_creation_method           SHELXL-97
_chemical_name_systematic        
;
?
;
_chemical_name_common            ?
_chemical_melting_point          ?
_chemical_formula_moiety         'C10 H24 I5 N4 O2 Pb2'
_chemical_formula_sum            'C10 H24 I5 N4 O2 Pb2'
_chemical_formula_weight         1281.21

loop_
_atom_type_symbol
_atom_type_description
_atom_type_scat_dispersion_real
_atom_type_scat_dispersion_imag
_atom_type_scat_source
C C 0.0033 0.0016 'International Tables Vol C Tables 4.2.6.8 and 6.1.1.4'
H H 0.0000 0.0000 'International Tables Vol C Tables 4.2.6.8 and 6.1.1.4'
N N 0.0061 0.0033 'International Tables Vol C Tables 4.2.6.8 and 6.1.1.4'
I I -0.4742 1.8119 'International Tables Vol C Tables 4.2.6.8 and 6.1.1.4'
Pb Pb -3.3944 10.1111 'International Tables Vol C Tables 4.2.6.8 and 6.1.1.4'
O O 0.0106 0.0060 'International Tables Vol C Tables 4.2.6.8 and 6.1.1.4'

_symmetry_cell_setting           Triclinic
_symmetry_space_group_name_H-M   P-1
_symmetry_space_group_name_Hall  -P1

loop_
_symmetry_equiv_pos_as_xyz
'x, y, z'
'-x, -y, -z'

_cell_length_a                   9.2206(18)
_cell_length_b                   12.375(3)
_cell_length_c                   12.972(3)
_cell_angle_alpha                99.05(3)
_cell_angle_beta                 102.98(3)
_cell_angle_gamma                105.30(3)
_cell_volume                     1353.8(5)
_cell_formula_units_Z            2
_cell_measurement_temperature    293(2)
_cell_measurement_reflns_used    25
_cell_measurement_theta_min      12
_cell_measurement_theta_max      18

_exptl_crystal_description       Block
_exptl_crystal_colour            Yellow
_exptl_crystal_size_max          0.20
_exptl_crystal_size_mid          0.12
_exptl_crystal_size_min          0.10
_exptl_crystal_density_meas      ?
_exptl_crystal_density_diffrn    3.141
_exptl_crystal_density_method    'not measured'
_exptl_crystal_F_000             1112
_exptl_absorpt_coefficient_mu    18.130
_exptl_absorpt_correction_type   PSI-Scans
_exptl_absorpt_correction_T_min  0.018
_exptl_absorpt_correction_T_max  0.027
_exptl_absorpt_process_details   
'TEXRAY software (Molecular Structure Corporation, 1999)'

_exptl_special_details           
;
?
;

_diffrn_ambient_temperature      293(2)
_diffrn_radiation_wavelength     0.71069
_diffrn_radiation_type           MoK\a
_diffrn_radiation_source         'rotor target'
_diffrn_radiation_monochromator  graphite
_diffrn_measurement_device_type  'Rigaku Weissenberg IP'
_diffrn_measurement_method       'scintillation counter'
_diffrn_detector_area_resol_mean None
_diffrn_standards_number         None
_diffrn_standards_interval_count 'not measured'
_diffrn_standards_interval_time  'not measured'
_diffrn_standards_decay_%        'not measured'
_diffrn_reflns_number            5846
_diffrn_reflns_av_R_equivalents  0.0000
_diffrn_reflns_av_sigmaI/netI    0.0459
_diffrn_reflns_limit_h_min       -11
_diffrn_reflns_limit_h_max       11
_diffrn_reflns_limit_k_min       0
_diffrn_reflns_limit_k_max       16
_diffrn_reflns_limit_l_min       -16
_diffrn_reflns_limit_l_max       16
_diffrn_reflns_theta_min         1.66
_diffrn_reflns_theta_max         27.49
_reflns_number_total             5846
_reflns_number_gt                4272
_reflns_threshold_expression     >2sigma(I)

_computing_data_collection       
'TEXRAY software (Molecular Structure Corporation, 1999)'
_computing_cell_refinement       'TEXRAY software'
_computing_data_reduction        
'TEXSAN (Molecular Structure Corporation, 1999)'
_computing_structure_solution    'SHELXS-97 (Sheldrick, 1997)'
_computing_structure_refinement  'SHELXL-97 (Sheldrick, 1997)'
_computing_molecular_graphics    'ORTEX (P.McArdle, 1995)'
_computing_publication_material  "SHELXL-97/2 (Sheldrick,1997)')"

_refine_special_details          
;
Refinement of F^2^ against ALL reflections.  The weighted R-factor wR and
goodness of fit S are based on F^2^, conventional R-factors R are based
on F, with F set to zero for negative F^2^. The threshold expression of
F^2^ > 2sigma(F^2^) is used only for calculating R-factors(gt) etc. and is
not relevant to the choice of reflections for refinement.  R-factors based
on F^2^ are statistically about twice as large as those based on F, and R-
factors based on ALL data will be even larger.
;

_refine_ls_structure_factor_coef Fsqd
_refine_ls_matrix_type           full
_refine_ls_weighting_scheme      calc
_refine_ls_weighting_details     
'calc w=1/[\s^2^(Fo^2^)+(0.0984P)^2^+4.1619P] where P=(Fo^2^+2Fc^2^)/3'
_atom_sites_solution_primary     direct
_atom_sites_solution_secondary   difmap
_atom_sites_solution_hydrogens   geom
_refine_ls_hydrogen_treatment    constr
_refine_ls_extinction_method     SHELXL
_refine_ls_extinction_coef       0.0052(3)
_refine_ls_extinction_expression Fc^*^=kFc[1+0.001xFc^2^\l^3^/sin(2\q)]^-1/4^
_refine_ls_number_reflns         5846
_refine_ls_number_parameters     209
_refine_ls_number_restraints     0
_refine_ls_R_factor_all          0.0777
_refine_ls_R_factor_gt           0.0551
_refine_ls_wR_factor_ref         0.1670
_refine_ls_wR_factor_gt          0.1463
_refine_ls_goodness_of_fit_ref   1.053
_refine_ls_restrained_S_all      1.053
_refine_ls_shift/su_max          0.012
_refine_ls_shift/su_mean         0.001

loop_
_atom_site_label
_atom_site_type_symbol
_atom_site_fract_x
_atom_site_fract_y
_atom_site_fract_z
_atom_site_U_iso_or_equiv
_atom_site_adp_type
_atom_site_occupancy
_atom_site_symmetry_multiplicity
_atom_site_calc_flag
_atom_site_refinement_flags
_atom_site_disorder_assembly
_atom_site_disorder_group
Pb1 Pb 0.33001(5) 0.51008(4) 0.84909(4) 0.03712(17) Uani 1 1 d . . .
Pb2 Pb -0.16691(6) 0.50779(4) 0.81924(4) 0.03908(17) Uani 1 1 d . . .
I1 I 0.61966(11) 0.67519(7) 0.79284(8) 0.0459(2) Uani 1 1 d . . .
I2 I -0.44985(10) 0.33944(7) 0.88543(7) 0.0433(2) Uani 1 1 d . . .
I3 I 0.04063(10) 0.34798(7) 0.91315(7) 0.0421(2) Uani 1 1 d . . .
I4 I 0.13660(11) 0.66684(8) 0.76815(9) 0.0545(3) Uani 1 1 d . . .
I5 I -0.26116(13) 0.37982(8) 0.58165(8) 0.0543(3) Uani 1 1 d . . .
O1 O 0.3030(15) 1.0617(10) 0.5670(12) 0.079(4) Uani 1 1 d . . .
O2 O -0.004(2) 0.9520(14) 0.7282(12) 0.107(6) Uani 1 1 d . . .
N1 N 0.1971(13) 0.3835(9) 0.6498(9) 0.045(3) Uani 1 1 d . . .
N2 N 0.1526(14) 0.1929(9) 0.4688(9) 0.049(3) Uani 1 1 d . . .
H2 H 0.1664 0.1316 0.4369 0.058 Uiso 1 1 calc R . .
N3 N 0.5158(16) 1.0202(11) 0.6616(10) 0.060(3) Uani 1 1 d . . .
N4 N 0.1532(18) 0.9804(11) 0.8948(11) 0.065(4) Uani 1 1 d . . .
C1 C 0.1046(16) 0.2653(13) 0.6415(12) 0.056(4) Uani 1 1 d . . .
H1A H 0.0213 0.2668 0.6755 0.067 Uiso 1 1 calc R . .
H1B H 0.1709 0.2278 0.6815 0.067 Uiso 1 1 calc R . .
C2 C 0.313(2) 0.3843(11) 0.5935(11) 0.058(4) Uani 1 1 d . . .
H2A H 0.3908 0.3544 0.6327 0.070 Uiso 1 1 calc R . .
H2B H 0.3660 0.4633 0.5935 0.070 Uiso 1 1 calc R . .
C3 C 0.0327(18) 0.1947(13) 0.5251(14) 0.064(4) Uani 1 1 d . . .
H3A H -0.0233 0.1165 0.5254 0.076 Uiso 1 1 calc R . .
H3B H -0.0419 0.2273 0.4865 0.076 Uiso 1 1 calc R . .
C4 C 0.248(2) 0.3127(13) 0.4745(11) 0.064(4) Uani 1 1 d . . .
H4A H 0.1832 0.3493 0.4317 0.077 Uiso 1 1 calc R . .
H4B H 0.3338 0.3104 0.4438 0.077 Uiso 1 1 calc R . .
C5 C 0.021(3) 0.9220(18) 0.813(3) 0.120(10) Uani 1 1 d . . .
H5 H -0.0507 0.8582 0.8219 0.144 Uiso 1 1 calc R . .
C6 C 0.266(3) 1.0747(18) 0.889(3) 0.147(12) Uani 1 1 d . . .
H6A H 0.3486 1.1013 0.9555 0.220 Uiso 1 1 calc R . .
H6B H 0.2207 1.1348 0.8767 0.220 Uiso 1 1 calc R . .
H6C H 0.3075 1.0542 0.8296 0.220 Uiso 1 1 calc R . .
C7 C 0.183(4) 0.939(2) 0.9932(19) 0.142(12) Uani 1 1 d . . .
H7A H 0.2806 0.9883 1.0426 0.213 Uiso 1 1 calc R . .
H7B H 0.1883 0.8620 0.9758 0.213 Uiso 1 1 calc R . .
H7C H 0.0999 0.9391 1.0264 0.213 Uiso 1 1 calc R . .
C8 C 0.443(2) 1.0855(13) 0.6102(14) 0.066(5) Uani 1 1 d . . .
H8 H 0.5063 1.1566 0.6072 0.080 Uiso 1 1 calc R . .
C9 C 0.421(3) 0.9095(16) 0.667(2) 0.132(12) Uani 1 1 d . . .
H9A H 0.4865 0.8713 0.7046 0.198 Uiso 1 1 calc R . .
H9B H 0.3674 0.8639 0.5944 0.198 Uiso 1 1 calc R . .
H9C H 0.3456 0.9196 0.7048 0.198 Uiso 1 1 calc R . .
C10 C 0.682(2) 1.062(2) 0.712(2) 0.120(9) Uani 1 1 d . . .
H10A H 0.7144 1.0042 0.7447 0.180 Uiso 1 1 calc R . .
H10B H 0.7075 1.1307 0.7677 0.180 Uiso 1 1 calc R . .
H10C H 0.7364 1.0786 0.6587 0.180 Uiso 1 1 calc R . .

loop_
_atom_site_aniso_label
_atom_site_aniso_U_11
_atom_site_aniso_U_22
_atom_site_aniso_U_33
_atom_site_aniso_U_23
_atom_site_aniso_U_13
_atom_site_aniso_U_12
Pb1 0.0323(3) 0.0381(3) 0.0372(3) 0.00399(19) 0.0076(2) 0.0092(2)
Pb2 0.0348(3) 0.0424(3) 0.0406(3) 0.0102(2) 0.0115(2) 0.0117(2)
I1 0.0418(5) 0.0413(5) 0.0578(6) 0.0174(4) 0.0163(4) 0.0127(4)
I2 0.0424(5) 0.0378(4) 0.0462(5) 0.0097(3) 0.0108(4) 0.0076(4)
I3 0.0417(5) 0.0403(4) 0.0414(5) 0.0098(3) 0.0102(4) 0.0089(4)
I4 0.0427(5) 0.0454(5) 0.0815(7) 0.0272(5) 0.0195(5) 0.0147(4)
I5 0.0597(6) 0.0487(5) 0.0464(5) 0.0023(4) 0.0111(4) 0.0119(5)
O1 0.060(8) 0.059(7) 0.112(11) 0.028(7) 0.005(7) 0.018(6)
O2 0.152(16) 0.090(11) 0.070(9) 0.003(8) -0.011(9) 0.064(11)
N1 0.041(6) 0.042(6) 0.040(6) -0.005(5) -0.005(5) 0.015(5)
N2 0.054(7) 0.041(6) 0.043(6) -0.007(5) 0.004(5) 0.019(6)
N3 0.060(8) 0.050(7) 0.050(7) 0.005(5) -0.017(6) 0.013(6)
N4 0.075(10) 0.042(7) 0.055(8) 0.001(6) -0.005(7) 0.006(7)
C1 0.034(7) 0.061(9) 0.060(9) -0.011(7) 0.027(7) -0.001(7)
C2 0.079(11) 0.033(7) 0.041(7) 0.008(6) 0.003(7) -0.005(7)
C3 0.046(9) 0.046(8) 0.071(11) -0.019(7) 0.010(8) -0.006(7)
C4 0.079(12) 0.059(9) 0.034(7) 0.006(6) 0.003(7) 0.002(8)
C5 0.11(2) 0.048(11) 0.22(3) 0.008(16) 0.07(2) 0.041(13)
C6 0.14(2) 0.063(13) 0.17(3) -0.015(15) 0.03(2) -0.042(15)
C7 0.25(4) 0.100(18) 0.082(17) 0.020(14) 0.04(2) 0.06(2)
C8 0.092(14) 0.039(8) 0.074(11) 0.023(8) 0.027(10) 0.021(9)
C9 0.13(2) 0.045(10) 0.16(2) 0.049(13) -0.048(18) -0.015(12)
C10 0.064(14) 0.16(2) 0.11(2) 0.018(17) -0.011(13) 0.034(15)

_geom_special_details            
;
All esds (except the esd in the dihedral angle between two l.s. planes)
are estimated using the full covariance matrix.  The cell esds are taken
into account individually in the estimation of esds in distances, angles
and torsion angles; correlations between esds in cell parameters are only
used when they are defined by crystal symmetry.  An approximate (isotropic)
treatment of cell esds is used for estimating esds involving l.s. planes.
;

loop_
_geom_bond_atom_site_label_1
_geom_bond_atom_site_label_2
_geom_bond_distance
_geom_bond_site_symmetry_2
_geom_bond_publ_flag
Pb1 N1 2.632(10) . ?
Pb1 I4 3.1098(13) . ?
Pb1 I1 3.2102(14) . ?
Pb1 I3 3.2451(14) . ?
Pb1 I2 3.3085(13) 1_655 ?
Pb1 I2 3.4258(16) 2_567 ?
Pb2 I5 3.0490(16) . ?
Pb2 I1 3.2176(13) 1_455 ?
Pb2 I4 3.2377(15) . ?
Pb2 I2 3.2534(14) . ?
Pb2 I3 3.2808(13) . ?
Pb2 I3 3.4248(16) 2_567 ?
I1 Pb2 3.2176(13) 1_655 ?
I2 Pb1 3.3085(13) 1_455 ?
I2 Pb1 3.4258(16) 2_567 ?
I3 Pb2 3.4248(16) 2_567 ?
O1 C8 1.22(2) . ?
O2 C5 1.20(3) . ?
N1 C2 1.42(2) . ?
N1 C1 1.459(18) . ?
N2 C3 1.458(19) . ?
N2 C4 1.490(18) . ?
N2 H2 0.8600 . ?
N3 C8 1.342(19) . ?
N3 C9 1.44(2) . ?
N3 C10 1.44(2) . ?
N4 C5 1.36(3) . ?
N4 C6 1.37(3) . ?
N4 C7 1.44(3) . ?
C1 C3 1.521(19) . ?
C1 H1A 0.9700 . ?
C1 H1B 0.9700 . ?
C2 C4 1.550(19) . ?
C2 H2A 0.9700 . ?
C2 H2B 0.9700 . ?
C3 H3A 0.9700 . ?
C3 H3B 0.9700 . ?
C4 H4A 0.9700 . ?
C4 H4B 0.9700 . ?
C5 H5 0.9300 . ?
C6 H6A 0.9600 . ?
C6 H6B 0.9600 . ?
C6 H6C 0.9600 . ?
C7 H7A 0.9600 . ?
C7 H7B 0.9600 . ?
C7 H7C 0.9600 . ?
C8 H8 0.9300 . ?
C9 H9A 0.9600 . ?
C9 H9B 0.9600 . ?
C9 H9C 0.9600 . ?
C10 H10A 0.9600 . ?
C10 H10B 0.9600 . ?
C10 H10C 0.9600 . ?

loop_
_geom_angle_atom_site_label_1
_geom_angle_atom_site_label_2
_geom_angle_atom_site_label_3
_geom_angle
_geom_angle_site_symmetry_1
_geom_angle_site_symmetry_3
_geom_angle_publ_flag
N1 Pb1 I4 83.3(2) . . ?
N1 Pb1 I1 95.6(3) . . ?
I4 Pb1 I1 87.36(3) . . ?
N1 Pb1 I3 86.1(3) . . ?
I4 Pb1 I3 92.64(3) . . ?
I1 Pb1 I3 178.31(3) . . ?
N1 Pb1 I2 87.9(2) . 1_655 ?
I4 Pb1 I2 168.12(3) . 1_655 ?
I1 Pb1 I2 85.61(3) . 1_655 ?
I3 Pb1 I2 94.66(3) . 1_655 ?
N1 Pb1 I2 171.6(3) . 2_567 ?
I4 Pb1 I2 94.13(4) . 2_567 ?
I1 Pb1 I2 92.31(4) . 2_567 ?
I3 Pb1 I2 86.00(4) . 2_567 ?
I2 Pb1 I2 95.72(4) 1_655 2_567 ?
I5 Pb2 I1 98.04(4) . 1_455 ?
I5 Pb2 I4 85.86(5) . . ?
I1 Pb2 I4 98.09(3) 1_455 . ?
I5 Pb2 I2 96.26(5) . . ?
I1 Pb2 I2 86.41(3) 1_455 . ?
I4 Pb2 I2 174.73(3) . . ?
I5 Pb2 I3 95.92(4) . . ?
I1 Pb2 I3 164.45(3) 1_455 . ?
I4 Pb2 I3 89.69(3) . . ?
I2 Pb2 I3 85.30(3) . . ?
I5 Pb2 I3 176.91(3) . 2_567 ?
I1 Pb2 I3 84.29(4) 1_455 2_567 ?
I4 Pb2 I3 91.81(4) . 2_567 ?
I2 Pb2 I3 85.89(4) . 2_567 ?
I3 Pb2 I3 82.02(4) . 2_567 ?
Pb1 I1 Pb2 95.23(3) . 1_655 ?
Pb2 I2 Pb1 92.69(3) . 1_455 ?
Pb2 I2 Pb1 93.94(4) . 2_567 ?
Pb1 I2 Pb1 84.28(4) 1_455 2_567 ?
Pb1 I3 Pb2 87.26(3) . . ?
Pb1 I3 Pb2 94.11(4) . 2_567 ?
Pb2 I3 Pb2 97.98(4) . 2_567 ?
Pb1 I4 Pb2 90.35(3) . . ?
C2 N1 C1 110.2(10) . . ?
C2 N1 Pb1 109.5(8) . . ?
C1 N1 Pb1 115.4(9) . . ?
C3 N2 C4 110.2(12) . . ?
C3 N2 H2 124.9 . . ?
C4 N2 H2 124.9 . . ?
C8 N3 C9 117.6(15) . . ?
C8 N3 C10 120.7(17) . . ?
C9 N3 C10 121.7(17) . . ?
C5 N4 C6 124(2) . . ?
C5 N4 C7 119(2) . . ?
C6 N4 C7 117(2) . . ?
N1 C1 C3 113.6(13) . . ?
N1 C1 H1A 108.9 . . ?
C3 C1 H1A 108.9 . . ?
N1 C1 H1B 108.9 . . ?
C3 C1 H1B 108.9 . . ?
H1A C1 H1B 107.7 . . ?
N1 C2 C4 113.9(13) . . ?
N1 C2 H2A 108.8 . . ?
C4 C2 H2A 108.8 . . ?
N1 C2 H2B 108.8 . . ?
C4 C2 H2B 108.8 . . ?
H2A C2 H2B 107.7 . . ?
N2 C3 C1 111.2(11) . . ?
N2 C3 H3A 109.4 . . ?
C1 C3 H3A 109.4 . . ?
N2 C3 H3B 109.4 . . ?
C1 C3 H3B 109.4 . . ?
H3A C3 H3B 108.0 . . ?
N2 C4 C2 111.1(12) . . ?
N2 C4 H4A 109.4 . . ?
C2 C4 H4A 109.4 . . ?
N2 C4 H4B 109.4 . . ?
C2 C4 H4B 109.4 . . ?
H4A C4 H4B 108.0 . . ?
O2 C5 N4 121(2) . . ?
O2 C5 H5 119.6 . . ?
N4 C5 H5 119.5 . . ?
N4 C6 H6A 109.5 . . ?
N4 C6 H6B 109.5 . . ?
H6A C6 H6B 109.5 . . ?
N4 C6 H6C 109.5 . . ?
H6A C6 H6C 109.5 . . ?
H6B C6 H6C 109.5 . . ?
N4 C7 H7A 109.5 . . ?
N4 C7 H7B 109.5 . . ?
H7A C7 H7B 109.5 . . ?
N4 C7 H7C 109.5 . . ?
H7A C7 H7C 109.5 . . ?
H7B C7 H7C 109.5 . . ?
O1 C8 N3 127.0(16) . . ?
O1 C8 H8 116.5 . . ?
N3 C8 H8 116.5 . . ?
N3 C9 H9A 109.5 . . ?
N3 C9 H9B 109.5 . . ?
H9A C9 H9B 109.5 . . ?
N3 C9 H9C 109.5 . . ?
H9A C9 H9C 109.5 . . ?
H9B C9 H9C 109.5 . . ?
N3 C10 H10A 109.5 . . ?
N3 C10 H10B 109.5 . . ?
H10A C10 H10B 109.5 . . ?
N3 C10 H10C 109.5 . . ?
H10A C10 H10C 109.5 . . ?
H10B C10 H10C 109.5 . . ?

_diffrn_measured_fraction_theta_max 0.943
_diffrn_reflns_theta_full        27.49
_diffrn_measured_fraction_theta_full 0.943
_refine_diff_density_max         1.872
_refine_diff_density_min         -3.272
_refine_diff_density_rms         0.642
