####################################################################### 
# 
# This file contains crystal structure data downloaded from the 
# Cambridge Structural Database (CSD) hosted by the Cambridge 
# Crystallographic Data Centre (CCDC).
# 
# Full information about CCDC data access policies and citation 
# guidelines are available at http://www.ccdc.cam.ac.uk/access/V1 
# 
# Audit and citation data items may have been added by the CCDC. 
# Please retain this information to preserve the provenance of 
# this file and to allow appropriate attribution of the data. 
# 
#######################################################################

data_stapf1x
_audit_block_doi                 10.5517/ccyqhw0
_database_code_depnum_ccdc_archive 'CCDC 885573'
_audit_update_record             
;
2012-06-07 deposited with the CCDC.	2024-07-10 downloaded from the CCDC.
;
#TrackingRef 'Stapf1x.cif'


_audit_creation_method           SHELXL-97
_chemical_name_systematic        
;
?
;
_chemical_name_common            ?
_chemical_melting_point          ?
_chemical_formula_moiety         'C29 H33 N5 O8 Pb'
_chemical_formula_sum            'C29 H33 N5 O8 Pb'
_chemical_formula_weight         786.79

loop_
_atom_type_symbol
_atom_type_description
_atom_type_scat_dispersion_real
_atom_type_scat_dispersion_imag
_atom_type_scat_source
C C 0.0033 0.0016 'International Tables Vol C Tables 4.2.6.8 and 6.1.1.4'
H H 0.0000 0.0000 'International Tables Vol C Tables 4.2.6.8 and 6.1.1.4'
N N 0.0061 0.0033 'International Tables Vol C Tables 4.2.6.8 and 6.1.1.4'
O O 0.0106 0.0060 'International Tables Vol C Tables 4.2.6.8 and 6.1.1.4'
Pb Pb -3.3944 10.1111 'International Tables Vol C Tables 4.2.6.8 and 6.1.1.4'

_symmetry_cell_setting           triclinic
_symmetry_space_group_name_H-M   'P 1'
_symmetry_space_group_name_Hall  'P 1'

loop_
_symmetry_equiv_pos_as_xyz
'x, y, z'

_cell_length_a                   4.65500(10)
_cell_length_b                   11.9601(4)
_cell_length_c                   15.2256(5)
_cell_angle_alpha                71.960(2)
_cell_angle_beta                 86.700(2)
_cell_angle_gamma                88.872(2)
_cell_volume                     804.67(4)
_cell_formula_units_Z            1
_cell_measurement_temperature    153(2)
_cell_measurement_reflns_used    9962
_cell_measurement_theta_min      3.01
_cell_measurement_theta_max      34.28

_exptl_crystal_description       needle
_exptl_crystal_colour            colourless
_exptl_crystal_size_max          0.46
_exptl_crystal_size_mid          0.12
_exptl_crystal_size_min          0.09
_exptl_crystal_density_meas      ?
_exptl_crystal_density_diffrn    1.624
_exptl_crystal_density_method    'not measured'
_exptl_crystal_F_000             388
_exptl_absorpt_coefficient_mu    5.296
_exptl_absorpt_correction_type   'multi scan'
_exptl_absorpt_correction_T_min  0.1944
_exptl_absorpt_correction_T_max  0.6472
_exptl_absorpt_process_details   'SADABS (Sheldrick, 2004)'

_exptl_special_details           
;
?
;

_diffrn_ambient_temperature      153(2)
_diffrn_radiation_wavelength     0.71073
_diffrn_radiation_type           MoK\a
_diffrn_radiation_source         'fine-focus sealed tube'
_diffrn_radiation_monochromator  graphite
_diffrn_measurement_device_type  'CCD area detector'
_diffrn_measurement_method       'phi and omega scans'
_diffrn_detector_area_resol_mean ?
_diffrn_standards_number         ?
_diffrn_standards_interval_count ?
_diffrn_standards_interval_time  ?
_diffrn_standards_decay_%        <1%
_diffrn_reflns_number            12389
_diffrn_reflns_av_R_equivalents  0.0209
_diffrn_reflns_av_sigmaI/netI    0.0288
_diffrn_reflns_limit_h_min       -5
_diffrn_reflns_limit_h_max       5
_diffrn_reflns_limit_k_min       -14
_diffrn_reflns_limit_k_max       14
_diffrn_reflns_limit_l_min       -18
_diffrn_reflns_limit_l_max       18
_diffrn_reflns_theta_min         1.41
_diffrn_reflns_theta_max         26.10
_reflns_number_total             5776
_reflns_number_gt                5770
_reflns_threshold_expression     >2sigma(I)

_computing_data_collection       'Kappa APEX 2 (Bruker-AXS)'
_computing_cell_refinement       'SAINT-NT (Sheldrick, 2008)'
_computing_data_reduction        SAINT
_computing_structure_solution    'SHELXS-97 (Sheldrick, 1990)'
_computing_structure_refinement  'SHELXL-97 (Sheldrick, 1997)'
_computing_molecular_graphics    'ORTEP-3 (Farrugia)'
_computing_publication_material  SHELXTL

_refine_special_details          
;
Refinement of F^2^ against ALL reflections. The weighted R-factor wR and
goodness of fit S are based on F^2^, conventional R-factors R are based
on F, with F set to zero for negative F^2^. The threshold expression of
F^2^ > 2sigma(F^2^) is used only for calculating R-factors(gt) etc. and is
not relevant to the choice of reflections for refinement. R-factors based
on F^2^ are statistically about twice as large as those based on F, and R-
factors based on ALL data will be even larger.
;

_refine_ls_structure_factor_coef Fsqd
_refine_ls_matrix_type           full
_refine_ls_weighting_scheme      calc
_refine_ls_weighting_details     
'calc w=1/[\s^2^(Fo^2^)+(0.0742P)^2^+0.9335P] where P=(Fo^2^+2Fc^2^)/3'
_atom_sites_solution_primary     direct
_atom_sites_solution_secondary   difmap
_atom_sites_solution_hydrogens   geom
_refine_ls_hydrogen_treatment    constr
_refine_ls_extinction_method     none
_refine_ls_extinction_coef       ?
_refine_ls_abs_structure_details 'Flack H D (1983), Acta Cryst. A39, 876-881'
_refine_ls_abs_structure_Flack   0.000(7)
_refine_ls_number_reflns         5776
_refine_ls_number_parameters     378
_refine_ls_number_restraints     0
_refine_ls_R_factor_all          0.0363
_refine_ls_R_factor_gt           0.0337
_refine_ls_wR_factor_ref         0.1023
_refine_ls_wR_factor_gt          0.0854
_refine_ls_goodness_of_fit_ref   1.196
_refine_ls_restrained_S_all      1.196
_refine_ls_shift/su_max          0.000
_refine_ls_shift/su_mean         0.000

loop_
_atom_site_label
_atom_site_type_symbol
_atom_site_fract_x
_atom_site_fract_y
_atom_site_fract_z
_atom_site_U_iso_or_equiv
_atom_site_adp_type
_atom_site_occupancy
_atom_site_symmetry_multiplicity
_atom_site_calc_flag
_atom_site_refinement_flags
_atom_site_disorder_assembly
_atom_site_disorder_group
Pb1 Pb 0.9335(13) 0.3998(6) 0.0567(4) 0.01852(9) Uani 1 1 d . . .
O1 O 0.5664(13) 0.3105(6) 0.3652(4) 0.0217(12) Uani 1 1 d . . .
O2 O 0.1294(13) -0.2921(5) 0.7026(5) 0.0255(13) Uani 1 1 d . . .
O3 O 0.4020(16) 0.3703(7) 0.1602(6) 0.0227(15) Uani 1 1 d . . .
O4 O 0.7235(13) 0.5094(5) 0.1499(4) 0.0222(12) Uani 1 1 d . . .
O5 O 0.7619(14) -0.4872(5) 0.9107(4) 0.0229(12) Uani 1 1 d . . .
O6 O 0.4355(18) -0.6281(8) 0.9611(5) 0.0247(17) Uani 1 1 d . . .
N1 N 0.1501(15) 0.4064(6) 0.3175(5) 0.0161(13) Uani 1 1 d . . .
H1N1 H -0.0336 0.4088 0.3268 0.019 Uiso 1 1 calc R . .
N2 N 0.1330(16) 0.2200(6) 0.4209(5) 0.0198(14) Uani 1 1 d . . .
H1N2 H -0.0512 0.2268 0.4199 0.024 Uiso 1 1 calc R . .
N3 N 0.5656(19) -0.2048(6) 0.6509(5) 0.0190(8) Uani 1 1 d . . .
H1N3 H 0.7489 -0.2116 0.6554 0.023 Uiso 1 1 calc R . .
N4 N 0.5406(15) -0.3956(6) 0.7441(5) 0.0190(8) Uani 1 1 d . . .
H1N4 H 0.7229 -0.4009 0.7333 0.023 Uiso 1 1 calc R . .
C1 C 0.161(3) 0.5938(11) 0.4337(8) 0.040(3) Uani 1 1 d . . .
H1 H 0.2532 0.5257 0.4677 0.049 Uiso 1 1 calc R . .
C2 C -0.052(4) 0.6460(15) 0.4776(11) 0.060(4) Uani 1 1 d . . .
H2 H -0.1006 0.6124 0.5402 0.072 Uiso 1 1 calc R . .
C3 C -0.184(3) 0.7442(19) 0.4289(15) 0.076(6) Uani 1 1 d . . .
H3 H -0.3240 0.7782 0.4586 0.091 Uiso 1 1 calc R . .
C4 C -0.118(3) 0.7955(13) 0.3371(15) 0.068(5) Uani 1 1 d . . .
H4 H -0.2130 0.8635 0.3045 0.082 Uiso 1 1 calc R . .
C5 C 0.093(3) 0.7454(10) 0.2922(10) 0.042(3) Uani 1 1 d . . .
H5 H 0.1390 0.7806 0.2295 0.050 Uiso 1 1 calc R . .
C6 C 0.235(2) 0.6431(8) 0.3404(7) 0.0255(18) Uani 1 1 d . . .
C7 C 0.450(2) 0.5849(8) 0.2912(6) 0.0217(17) Uani 1 1 d . . .
H7A H 0.5864 0.5400 0.3346 0.026 Uiso 1 1 calc R . .
H7B H 0.5563 0.6444 0.2428 0.026 Uiso 1 1 calc R . .
C8 C 0.2973(17) 0.5025(7) 0.2486(5) 0.0167(15) Uani 1 1 d . . .
H8 H 0.1475 0.5499 0.2113 0.020 Uiso 1 1 calc R . .
C9 C 0.3004(18) 0.3130(7) 0.3670(5) 0.0169(15) Uani 1 1 d . . .
C10 C 0.2510(17) 0.1143(7) 0.4775(5) 0.0159(15) Uani 1 1 d . . .
C11 C 0.148(2) 0.0071(7) 0.4735(6) 0.0204(16) Uani 1 1 d . . .
H11 H 0.0107 0.0064 0.4318 0.024 Uiso 1 1 calc R . .
C12 C 0.250(2) -0.0981(7) 0.5312(6) 0.0196(17) Uani 1 1 d . . .
H12 H 0.1801 -0.1690 0.5280 0.024 Uiso 1 1 calc R . .
C13 C 0.453(2) -0.0980(7) 0.5935(6) 0.0166(15) Uani 1 1 d . . .
C14 C 0.5575(18) 0.0080(7) 0.5978(6) 0.0183(15) Uani 1 1 d . . .
H14 H 0.6956 0.0081 0.6396 0.022 Uiso 1 1 calc R . .
C15 C 0.4560(19) 0.1146(7) 0.5396(6) 0.0194(16) Uani 1 1 d . . .
H15 H 0.5262 0.1855 0.5427 0.023 Uiso 1 1 calc R . .
C16 C 0.3947(18) -0.2978(7) 0.6996(6) 0.0190(8) Uani 1 1 d . . .
C17 C 0.3820(18) -0.4925(7) 0.8111(6) 0.0186(16) Uani 1 1 d . . .
H17 H 0.2042 -0.4577 0.8288 0.022 Uiso 1 1 calc R . .
C18 C 0.2867(19) -0.5881(9) 0.7708(6) 0.0235(18) Uani 1 1 d . . .
H18A H 0.1485 -0.6385 0.8148 0.028 Uiso 1 1 calc R . .
H18B H 0.1875 -0.5501 0.7149 0.028 Uiso 1 1 calc R . .
C19 C 0.522(2) -0.6649(9) 0.7476(7) 0.0272(19) Uani 1 1 d . . .
C20 C 0.655(3) -0.6374(12) 0.6591(8) 0.040(3) Uani 1 1 d . . .
H20 H 0.6000 -0.5710 0.6124 0.049 Uiso 1 1 calc R . .
C21 C 0.875(3) -0.7125(16) 0.6415(11) 0.061(5) Uani 1 1 d . . .
H21 H 0.9667 -0.6942 0.5828 0.074 Uiso 1 1 calc R . .
C22 C 0.956(3) -0.8121(13) 0.7096(12) 0.053(3) Uani 1 1 d . . .
H22 H 1.1004 -0.8610 0.6972 0.063 Uiso 1 1 calc R . .
C23 C 0.825(3) -0.8372(11) 0.7935(11) 0.050(3) Uani 1 1 d . . .
H23 H 0.8804 -0.9040 0.8396 0.060 Uiso 1 1 calc R . .
C24 C 0.607(3) -0.7667(9) 0.8142(8) 0.034(2) Uani 1 1 d . . .
H24 H 0.5181 -0.7878 0.8733 0.041 Uiso 1 1 calc R . .
C25 C 0.4906(19) 0.4557(8) 0.1821(6) 0.0175(18) Uani 1 1 d . . .
C26 C 0.5405(19) -0.5402(7) 0.8986(7) 0.0179(16) Uani 1 1 d . . .
N1A N 1.320(2) 0.7748(7) -0.0602(6) 0.0343(19) Uani 1 1 d . . .
O1A O 1.1866(14) 0.5884(6) 0.0162(4) 0.0242(13) Uani 1 1 d . . .
C1A C 1.175(2) 0.6806(8) -0.0513(6) 0.0266(19) Uani 1 1 d . . .
H1A H 1.0547 0.6811 -0.0980 0.032 Uiso 1 1 calc R . .
C2A C 1.305(4) 0.8780(11) -0.1435(10) 0.059(4) Uani 1 1 d . . .
H2A1 H 1.1904 0.8594 -0.1875 0.089 Uiso 1 1 calc R . .
H2A2 H 1.4958 0.8991 -0.1705 0.089 Uiso 1 1 calc R . .
H2A3 H 1.2197 0.9428 -0.1268 0.089 Uiso 1 1 calc R . .
C3A C 1.502(3) 0.7850(10) 0.0115(9) 0.047(3) Uani 1 1 d . . .
H3A1 H 1.4047 0.8312 0.0456 0.070 Uiso 1 1 calc R . .
H3A2 H 1.6795 0.8224 -0.0165 0.070 Uiso 1 1 calc R . .
H3A3 H 1.5411 0.7081 0.0526 0.070 Uiso 1 1 calc R . .
O1W O 0.308(5) 0.116(3) 0.2130(13) 0.184(14) Uani 1 1 d . . .

loop_
_atom_site_aniso_label
_atom_site_aniso_U_11
_atom_site_aniso_U_22
_atom_site_aniso_U_33
_atom_site_aniso_U_23
_atom_site_aniso_U_13
_atom_site_aniso_U_12
Pb1 0.01188(13) 0.02460(13) 0.01871(13) -0.00642(8) 0.00148(8) -0.00231(8)
O1 0.008(3) 0.026(3) 0.028(3) -0.003(3) -0.003(2) -0.002(2)
O2 0.008(3) 0.028(3) 0.033(3) 0.002(2) -0.001(2) -0.001(2)
O3 0.020(4) 0.022(4) 0.028(4) -0.011(3) -0.002(3) 0.000(3)
O4 0.011(3) 0.033(3) 0.024(3) -0.010(2) 0.002(2) -0.002(2)
O5 0.014(3) 0.031(3) 0.024(3) -0.009(2) -0.001(2) -0.001(2)
O6 0.025(4) 0.026(4) 0.015(4) 0.004(3) 0.003(3) -0.001(3)
N1 0.003(3) 0.025(3) 0.020(3) -0.006(3) -0.001(2) -0.001(2)
N2 0.006(3) 0.022(3) 0.028(4) -0.003(3) 0.001(3) 0.000(2)
N3 0.004(2) 0.024(2) 0.026(2) -0.0036(17) 0.0016(16) -0.0021(15)
N4 0.004(2) 0.024(2) 0.026(2) -0.0036(17) 0.0016(16) -0.0021(15)
C1 0.036(7) 0.059(7) 0.036(5) -0.030(5) 0.012(4) -0.021(5)
C2 0.051(9) 0.084(10) 0.069(9) -0.061(9) 0.027(7) -0.033(8)
C3 0.030(8) 0.120(15) 0.124(15) -0.110(14) 0.027(8) -0.025(8)
C4 0.038(8) 0.060(8) 0.135(16) -0.068(10) -0.034(9) 0.016(6)
C5 0.031(6) 0.036(5) 0.067(8) -0.028(5) -0.013(5) 0.005(4)
C6 0.016(5) 0.033(5) 0.034(5) -0.020(4) -0.002(4) -0.004(3)
C7 0.009(5) 0.029(4) 0.030(4) -0.013(3) 0.000(3) -0.004(3)
C8 0.010(4) 0.020(4) 0.019(4) -0.004(3) -0.003(3) -0.001(3)
C9 0.008(4) 0.022(4) 0.021(4) -0.007(3) -0.001(3) 0.001(3)
C10 0.007(4) 0.022(4) 0.019(4) -0.007(3) 0.002(3) 0.000(3)
C11 0.012(5) 0.026(4) 0.023(4) -0.006(3) -0.001(3) -0.004(3)
C12 0.016(5) 0.022(4) 0.023(4) -0.010(3) 0.003(3) -0.006(3)
C13 0.004(4) 0.021(4) 0.022(4) -0.004(3) 0.003(3) 0.000(3)
C14 0.010(4) 0.024(4) 0.020(4) -0.005(3) -0.002(3) 0.000(3)
C15 0.017(4) 0.020(4) 0.022(4) -0.008(3) 0.001(3) -0.002(3)
C16 0.004(2) 0.024(2) 0.026(2) -0.0036(17) 0.0016(16) -0.0021(15)
C17 0.009(4) 0.019(4) 0.025(4) -0.003(3) 0.005(3) -0.003(3)
C18 0.014(5) 0.027(5) 0.029(4) -0.008(4) -0.003(3) -0.005(3)
C19 0.014(5) 0.037(5) 0.038(5) -0.022(4) -0.001(4) -0.010(3)
C20 0.031(6) 0.065(7) 0.034(5) -0.028(5) 0.002(4) -0.020(5)
C21 0.033(7) 0.112(12) 0.072(9) -0.079(10) 0.025(6) -0.037(7)
C22 0.031(7) 0.059(8) 0.091(11) -0.056(8) -0.004(7) 0.001(5)
C23 0.030(7) 0.043(6) 0.087(10) -0.034(6) -0.007(6) 0.006(5)
C24 0.028(7) 0.033(5) 0.046(6) -0.019(4) -0.003(5) 0.003(4)
C25 0.009(4) 0.025(4) 0.013(4) 0.002(3) 0.001(3) 0.001(3)
C26 0.012(4) 0.023(4) 0.018(4) -0.005(3) 0.006(3) 0.000(3)
N1A 0.038(5) 0.029(4) 0.034(4) -0.006(3) 0.004(4) 0.002(3)
O1A 0.017(3) 0.031(3) 0.022(3) -0.004(2) 0.000(2) -0.002(2)
C1A 0.029(5) 0.028(4) 0.022(4) -0.007(3) -0.001(4) -0.002(4)
C2A 0.085(12) 0.032(6) 0.052(7) 0.000(5) -0.008(7) -0.008(6)
C3A 0.038(7) 0.038(6) 0.059(7) -0.007(5) -0.005(5) -0.010(5)
O1W 0.084(15) 0.29(3) 0.095(12) 0.043(15) 0.043(10) 0.086(17)

_geom_special_details            
;
All esds (except the esd in the dihedral angle between two l.s. planes)
are estimated using the full covariance matrix. The cell esds are taken
into account individually in the estimation of esds in distances, angles
and torsion angles; correlations between esds in cell parameters are only
used when they are defined by crystal symmetry. An approximate (isotropic)
treatment of cell esds is used for estimating esds involving l.s. planes.
;

loop_
_geom_bond_atom_site_label_1
_geom_bond_atom_site_label_2
_geom_bond_distance
_geom_bond_site_symmetry_2
_geom_bond_publ_flag
Pb1 O4 2.373(6) . ?
Pb1 O5 2.389(6) 1_564 ?
Pb1 O1A 2.453(6) . ?
Pb1 O3 2.717(7) 1_655 ?
Pb1 O6 2.751(8) 1_664 ?
O1 C9 1.237(11) . ?
O2 C16 1.235(11) . ?
O3 C25 1.252(13) . ?
O3 Pb1 2.717(7) 1_455 ?
O4 C25 1.265(11) . ?
O5 C26 1.272(11) . ?
O5 Pb1 2.389(6) 1_546 ?
O6 C26 1.264(12) . ?
O6 Pb1 2.751(8) 1_446 ?
N1 C9 1.346(11) . ?
N1 C8 1.447(10) . ?
N1 H1N1 0.8600 . ?
N2 C9 1.384(11) . ?
N2 C10 1.412(11) . ?
N2 H1N2 0.8600 . ?
N3 C16 1.370(11) . ?
N3 C13 1.416(11) . ?
N3 H1N3 0.8600 . ?
N4 C16 1.348(11) . ?
N4 C17 1.464(10) . ?
N4 H1N4 0.8600 . ?
C1 C6 1.385(15) . ?
C1 C2 1.405(19) . ?
C1 H1 0.9300 . ?
C2 C3 1.34(3) . ?
C2 H2 0.9300 . ?
C3 C4 1.36(3) . ?
C3 H3 0.9300 . ?
C4 C5 1.39(2) . ?
C4 H4 0.9300 . ?
C5 C6 1.394(15) . ?
C5 H5 0.9300 . ?
C6 C7 1.503(13) . ?
C7 C8 1.541(11) . ?
C7 H7A 0.9700 . ?
C7 H7B 0.9700 . ?
C8 C25 1.541(13) . ?
C8 H8 0.9800 . ?
C10 C15 1.383(12) . ?
C10 C11 1.396(12) . ?
C11 C12 1.384(13) . ?
C11 H11 0.9300 . ?
C12 C13 1.378(14) . ?
C12 H12 0.9300 . ?
C13 C14 1.388(12) . ?
C14 C15 1.400(12) . ?
C14 H14 0.9300 . ?
C15 H15 0.9300 . ?
C17 C26 1.507(12) . ?
C17 C18 1.539(12) . ?
C17 H17 0.9800 . ?
C18 C19 1.513(14) . ?
C18 H18A 0.9700 . ?
C18 H18B 0.9700 . ?
C19 C24 1.388(15) . ?
C19 C20 1.395(15) . ?
C20 C21 1.42(2) . ?
C20 H20 0.9300 . ?
C21 C22 1.38(2) . ?
C21 H21 0.9300 . ?
C22 C23 1.33(2) . ?
C22 H22 0.9300 . ?
C23 C24 1.389(17) . ?
C23 H23 0.9300 . ?
C24 H24 0.9300 . ?
N1A C1A 1.290(14) . ?
N1A C3A 1.454(16) . ?
N1A C2A 1.475(15) . ?
O1A C1A 1.256(11) . ?
C1A H1A 0.9300 . ?
C2A H2A1 0.9600 . ?
C2A H2A2 0.9600 . ?
C2A H2A3 0.9600 . ?
C3A H3A1 0.9600 . ?
C3A H3A2 0.9600 . ?
C3A H3A3 0.9600 . ?

loop_
_geom_angle_atom_site_label_1
_geom_angle_atom_site_label_2
_geom_angle_atom_site_label_3
_geom_angle
_geom_angle_site_symmetry_1
_geom_angle_site_symmetry_3
_geom_angle_publ_flag
O4 Pb1 O5 99.1(2) . 1_564 ?
O4 Pb1 O1A 72.1(2) . . ?
O5 Pb1 O1A 74.7(2) 1_564 . ?
O4 Pb1 O3 87.5(2) . 1_655 ?
O5 Pb1 O3 141.9(2) 1_564 1_655 ?
O1A Pb1 O3 71.7(2) . 1_655 ?
O4 Pb1 O6 142.6(3) . 1_664 ?
O5 Pb1 O6 86.7(2) 1_564 1_664 ?
O1A Pb1 O6 74.0(3) . 1_664 ?
O3 Pb1 O6 67.1(2) 1_655 1_664 ?
C25 O3 Pb1 119.0(6) . 1_455 ?
C25 O4 Pb1 103.4(6) . . ?
C26 O5 Pb1 106.4(5) . 1_546 ?
C26 O6 Pb1 118.9(6) . 1_446 ?
C9 N1 C8 120.1(7) . . ?
C9 N1 H1N1 120.0 . . ?
C8 N1 H1N1 120.0 . . ?
C9 N2 C10 122.9(7) . . ?
C9 N2 H1N2 118.5 . . ?
C10 N2 H1N2 118.5 . . ?
C16 N3 C13 122.7(8) . . ?
C16 N3 H1N3 118.6 . . ?
C13 N3 H1N3 118.6 . . ?
C16 N4 C17 118.6(7) . . ?
C16 N4 H1N4 120.7 . . ?
C17 N4 H1N4 120.7 . . ?
C6 C1 C2 120.5(14) . . ?
C6 C1 H1 119.8 . . ?
C2 C1 H1 119.8 . . ?
C3 C2 C1 119.8(14) . . ?
C3 C2 H2 120.1 . . ?
C1 C2 H2 120.1 . . ?
C2 C3 C4 121.6(13) . . ?
C2 C3 H3 119.2 . . ?
C4 C3 H3 119.2 . . ?
C3 C4 C5 119.6(15) . . ?
C3 C4 H4 120.2 . . ?
C5 C4 H4 120.2 . . ?
C6 C5 C4 120.6(14) . . ?
C6 C5 H5 119.7 . . ?
C4 C5 H5 119.7 . . ?
C1 C6 C5 117.9(11) . . ?
C1 C6 C7 121.2(10) . . ?
C5 C6 C7 120.8(10) . . ?
C6 C7 C8 110.5(7) . . ?
C6 C7 H7A 109.6 . . ?
C8 C7 H7A 109.6 . . ?
C6 C7 H7B 109.6 . . ?
C8 C7 H7B 109.6 . . ?
H7A C7 H7B 108.1 . . ?
N1 C8 C25 110.3(7) . . ?
N1 C8 C7 112.8(7) . . ?
C25 C8 C7 114.6(7) . . ?
N1 C8 H8 106.2 . . ?
C25 C8 H8 106.2 . . ?
C7 C8 H8 106.2 . . ?
O1 C9 N1 123.0(8) . . ?
O1 C9 N2 122.5(8) . . ?
N1 C9 N2 114.5(7) . . ?
C15 C10 C11 119.4(7) . . ?
C15 C10 N2 121.4(7) . . ?
C11 C10 N2 