####################################################################### 
# 
# This file contains crystal structure data downloaded from the 
# Cambridge Structural Database (CSD) hosted by the Cambridge 
# Crystallographic Data Centre (CCDC).
# 
# Full information about CCDC data access policies and citation 
# guidelines are available at http://www.ccdc.cam.ac.uk/access/V1 
# 
# Audit and citation data items may have been added by the CCDC. 
# Please retain this information to preserve the provenance of 
# this file and to allow appropriate attribution of the data. 
# 
#######################################################################

data_1
_audit_block_doi                 10.5517/ccx18pw
_database_code_depnum_ccdc_archive 'CCDC 835378'
loop_
_citation_id
_citation_doi
_citation_year
1 10.1002/adhm.201100043 2012
_audit_update_record             
;
2011-07-18 deposited with the CCDC.	2024-07-10 downloaded from the CCDC.
;
#TrackingRef '6355_web_deposit_cif_file_0_DaqiangYuan_1311021268.final.cif'


_audit_creation_method           SHELXL-97
_chemical_name_systematic        
;
?
;
_chemical_name_common            ?
_chemical_melting_point          ?
_chemical_formula_moiety         'C37 H40 Co4 O30'
_chemical_formula_sum            'C37 H40 Co4 O30'
_chemical_formula_weight         1200.41

loop_
_atom_type_symbol
_atom_type_description
_atom_type_scat_dispersion_real
_atom_type_scat_dispersion_imag
_atom_type_scat_source
C C 0.0015 0.0009 'International Tables Vol C Tables 4.2.6.8 and 6.1.1.4'
H H 0.0000 0.0000 'International Tables Vol C Tables 4.2.6.8 and 6.1.1.4'
O O 0.0056 0.0036 'International Tables Vol C Tables 4.2.6.8 and 6.1.1.4'
Co Co 0.3050 0.6296 'International Tables Vol C Tables 4.2.6.8 and 6.1.1.4'

_symmetry_cell_setting           tetragonal
_symmetry_space_group_name_H-M   P-421m

loop_
_symmetry_equiv_pos_as_xyz
'x, y, z'
'y, -x, -z'
'-x, -y, z'
'-y, x, -z'
'x+1/2, -y+1/2, -z'
'-x+1/2, y+1/2, -z'
'-y+1/2, -x+1/2, z'
'y+1/2, x+1/2, z'

_cell_length_a                   20.078(4)
_cell_length_b                   20.078(4)
_cell_length_c                   11.252(2)
_cell_angle_alpha                90.00
_cell_angle_beta                 90.00
_cell_angle_gamma                90.00
_cell_volume                     4536.1(15)
_cell_formula_units_Z            2
_cell_measurement_temperature    110(2)
_cell_measurement_reflns_used    3407
_cell_measurement_theta_min      2.3595
_cell_measurement_theta_max      11.708

_exptl_crystal_description       prism
_exptl_crystal_colour            red
_exptl_crystal_size_max          0.08
_exptl_crystal_size_mid          0.06
_exptl_crystal_size_min          0.05
_exptl_crystal_density_meas      ?
_exptl_crystal_density_diffrn    0.879
_exptl_crystal_density_method    'not measured'
_exptl_crystal_F_000             1220
_exptl_absorpt_coefficient_mu    0.177
_exptl_absorpt_correction_type   multi-scan
_exptl_absorpt_correction_T_min  0.9685
_exptl_absorpt_correction_T_max  0.9802
_exptl_absorpt_process_details   'SADABS (Sheldrick, 2008)'

_exptl_special_details           
;
?
;

_diffrn_ambient_temperature      110(2)
_diffrn_radiation_wavelength     0.41328
_diffrn_radiation_type           synchrotron
_diffrn_radiation_source         15ID-B
_diffrn_radiation_monochromator  graphite
_diffrn_measurement_device_type  'Bruker APEX II CCD area detector'
_diffrn_measurement_method       'phi and omega scans'
_diffrn_detector_area_resol_mean ?
_diffrn_standards_number         ?
_diffrn_standards_interval_count ?
_diffrn_standards_interval_time  ?
_diffrn_standards_decay_%        ?
_diffrn_reflns_number            46638
_diffrn_reflns_av_R_equivalents  0.1494
_diffrn_reflns_av_sigmaI/netI    0.0696
_diffrn_reflns_limit_h_min       -23
_diffrn_reflns_limit_h_max       23
_diffrn_reflns_limit_k_min       -23
_diffrn_reflns_limit_k_max       23
_diffrn_reflns_limit_l_min       -13
_diffrn_reflns_limit_l_max       13
_diffrn_reflns_theta_min         0.83
_diffrn_reflns_theta_max         14.07
_reflns_number_total             4023
_reflns_number_gt                3253
_reflns_threshold_expression     >2sigma(I)

_computing_data_collection       'APEX2 (Bruker, 2008)'
_computing_cell_refinement       'SAINT+ ver. (Bruker, 2001)'
_computing_data_reduction        'SAINT+ ver. (Bruker, 2001)'
_computing_structure_solution    'SHELXTL (Sheldrick, 2008)'
_computing_structure_refinement  'SHELXTL (Sheldrick, 2008)'
_computing_molecular_graphics    'SHELXTL (Sheldrick, 2008)'
_computing_publication_material  'SHELXTL (Sheldrick, 2008)'

_refine_special_details          
;
Refinement of F^2^ against ALL reflections. The weighted R-factor wR and
goodness of fit S are based on F^2^, conventional R-factors R are based
on F, with F set to zero for negative F^2^. The threshold expression of
F^2^ > 2sigma(F^2^) is used only for calculating R-factors(gt) etc. and is
not relevant to the choice of reflections for refinement. R-factors based
on F^2^ are statistically about twice as large as those based on F, and R-
factors based on ALL data will be even larger.
;

_refine_ls_structure_factor_coef Fsqd
_refine_ls_matrix_type           full
_refine_ls_weighting_scheme      calc
_refine_ls_weighting_details     
'calc w=1/[\s^2^(Fo^2^)+(0.0810P)^2^+0.0000P] where P=(Fo^2^+2Fc^2^)/3'
_atom_sites_solution_primary     direct
_atom_sites_solution_secondary   difmap
_atom_sites_solution_hydrogens   geom
_refine_ls_hydrogen_treatment    constr
_refine_ls_extinction_method     none
_refine_ls_extinction_coef       ?
_refine_ls_abs_structure_details 'Flack H D (1983), Acta Cryst. A39, 876-881'
_refine_ls_abs_structure_Flack   0.53(5)
_refine_ls_number_reflns         4023
_refine_ls_number_parameters     169
_refine_ls_number_restraints     0
_refine_ls_R_factor_all          0.0799
_refine_ls_R_factor_gt           0.0598
_refine_ls_wR_factor_ref         0.1400
_refine_ls_wR_factor_gt          0.1325
_refine_ls_goodness_of_fit_ref   1.021
_refine_ls_restrained_S_all      1.021
_refine_ls_shift/su_max          0.000
_refine_ls_shift/su_mean         0.000

# SQUEEZE RESULTS (APPEND TO CIF)
# Note: Data are Listed for all Voids in the P1 Unit Cell
# i.e. Centre of Gravity, Solvent Accessible Volume,
# Recovered number of Electrons in the Void and
# Details about the Squeezed Material
loop_
_platon_squeeze_void_nr
_platon_squeeze_void_average_x
_platon_squeeze_void_average_y
_platon_squeeze_void_average_z
_platon_squeeze_void_volume
_platon_squeeze_void_count_electrons
_platon_squeeze_void_content
1 -0.004 0.261 0.041 2762 775 ' '
_platon_squeeze_details          
;
;

loop_
_atom_site_label
_atom_site_type_symbol
_atom_site_fract_x
_atom_site_fract_y
_atom_site_fract_z
_atom_site_U_iso_or_equiv
_atom_site_adp_type
_atom_site_occupancy
_atom_site_symmetry_multiplicity
_atom_site_calc_flag
_atom_site_refinement_flags
_atom_site_disorder_assembly
_atom_site_disorder_group
Co1 Co 0.74464(3) 0.24464(3) 0.46357(7) 0.0262(2) Uani 1 2 d S . .
Co2 Co 0.62774(4) 0.12774(4) 0.58011(10) 0.0457(3) Uani 1 2 d S . .
O1 O 0.75989(19) 0.15360(16) 0.3852(3) 0.0457(9) Uani 1 1 d . . .
O2 O 0.6914(2) 0.07946(18) 0.4696(4) 0.0568(11) Uani 1 1 d . . .
O3 O 0.76332(18) -0.16167(15) 0.4599(3) 0.0436(9) Uani 1 1 d . . .
O4 O 0.8298(4) -0.1899(2) 0.3093(6) 0.160(4) Uani 1 1 d . . .
O5 O 0.9143(2) 0.02202(18) 0.1399(4) 0.0516(11) Uani 1 1 d . . .
O6 O 0.69711(16) 0.19711(16) 0.6152(4) 0.0350(12) Uani 1 2 d S . .
H6 H 0.6807 0.2291 0.6552 0.042 Uiso 1 1 d R . .
O7 O 0.78954(18) 0.28954(18) 0.3172(4) 0.0461(14) Uani 1 2 d S . .
H7A H 0.7735 0.3212 0.2758 0.055 Uiso 1 1 d R . .
O8 O 0.5563(2) 0.0563(2) 0.5453(7) 0.086(2) Uani 1 2 d S . .
H8A H 0.5633 0.0156 0.5283 0.103 Uiso 1 1 d R . .
O9 O 0.6649(4) 0.0663(4) 0.7255(6) 0.147(3) Uani 1 1 d . . .
H9C H 0.7052 0.0535 0.7213 0.176 Uiso 1 1 d R . .
H9D H 0.6425 0.0304 0.7259 0.176 Uiso 1 1 d R . .
C1 C 0.7408(3) 0.0963(2) 0.4058(5) 0.0445(13) Uani 1 1 d . . .
C2 C 0.7801(3) 0.0405(3) 0.3531(5) 0.0423(13) Uani 1 1 d . . .
C3 C 0.8286(3) 0.0544(2) 0.2725(5) 0.0419(14) Uani 1 1 d . . .
H3 H 0.8370 0.0996 0.2521 0.050 Uiso 1 1 calc R . .
C4 C 0.8676(3) 0.0026(2) 0.2170(4) 0.0368(12) Uani 1 1 d . . .
C5 C 0.8546(3) -0.0597(3) 0.2492(5) 0.0505(16) Uani 1 1 d . . .
H5 H 0.8776 -0.0950 0.2110 0.061 Uiso 1 1 calc R . .
C6 C 0.8080(3) -0.0748(3) 0.3377(6) 0.0551(17) Uani 1 1 d . . .
C7 C 0.7696(3) -0.0258(2) 0.3864(5) 0.0403(13) Uani 1 1 d . . .
H7 H 0.7360 -0.0366 0.4426 0.048 Uiso 1 1 calc R . .
C8 C 0.7989(4) -0.1482(3) 0.3722(6) 0.065(2) Uani 1 1 d . . .
C9 C 0.9456(3) -0.0304(2) 0.0791(5) 0.0359(12) Uani 1 1 d . . .
H9A H 0.9128 -0.0547 0.0299 0.043 Uiso 1 1 calc R . .
H9B H 0.9656 -0.0620 0.1364 0.043 Uiso 1 1 calc R . .
C10 C 1.0000 0.0000 0.0000 0.036(2) Uani 1 4 d S . .

loop_
_atom_site_aniso_label
_atom_site_aniso_U_11
_atom_site_aniso_U_22
_atom_site_aniso_U_33
_atom_site_aniso_U_23
_atom_site_aniso_U_13
_atom_site_aniso_U_12
Co1 0.0226(3) 0.0226(3) 0.0334(4) 0.0035(3) 0.0035(3) 0.0021(4)
Co2 0.0389(4) 0.0389(4) 0.0593(7) 0.0108(4) 0.0108(4) 0.0015(5)
O1 0.057(2) 0.0256(18) 0.055(2) -0.0011(16) 0.024(2) 0.0089(18)
O2 0.050(2) 0.036(2) 0.084(3) 0.001(2) 0.032(2) 0.0039(17)
O3 0.056(2) 0.0263(16) 0.049(2) 0.0062(16) 0.020(2) -0.0002(16)
O4 0.279(9) 0.032(3) 0.168(6) 0.015(3) 0.180(7) 0.021(4)
O5 0.069(3) 0.035(2) 0.050(2) 0.0005(19) 0.023(2) 0.0045(19)
O6 0.0353(16) 0.0353(16) 0.035(3) 0.0093(16) 0.0093(16) 0.000(2)
O7 0.050(2) 0.050(2) 0.038(3) 0.0175(18) 0.0175(18) -0.004(3)
O8 0.070(3) 0.070(3) 0.119(7) 0.007(3) 0.007(3) -0.039(4)
O9 0.196(8) 0.130(6) 0.113(5) 0.068(5) 0.031(5) -0.048(5)
C1 0.048(3) 0.032(3) 0.053(3) 0.000(2) 0.015(3) 0.013(3)
C2 0.059(3) 0.031(3) 0.037(3) 0.001(2) 0.010(3) -0.002(2)
C3 0.065(4) 0.016(2) 0.044(3) -0.004(2) 0.013(3) 0.011(2)
C4 0.055(3) 0.027(3) 0.029(3) -0.001(2) -0.003(3) 0.015(3)
C5 0.067(4) 0.031(3) 0.053(4) -0.004(3) 0.023(3) 0.007(3)
C6 0.086(5) 0.021(3) 0.059(4) 0.004(3) 0.032(4) 0.008(3)
C7 0.052(3) 0.031(3) 0.038(3) 0.001(2) 0.012(2) 0.004(2)
C8 0.094(5) 0.025(3) 0.077(5) 0.002(3) 0.043(4) 0.011(3)
C9 0.047(3) 0.026(2) 0.036(3) 0.000(2) -0.001(2) 0.001(2)
C10 0.042(3) 0.042(3) 0.026(5) 0.000 0.000 0.000

_geom_special_details            
;
All esds (except the esd in the dihedral angle between two l.s. planes)
are estimated using the full covariance matrix. The cell esds are taken
into account individually in the estimation of esds in distances, angles
and torsion angles; correlations between esds in cell parameters are only
used when they are defined by crystal symmetry. An approximate (isotropic)
treatment of cell esds is used for estimating esds involving l.s. planes.
;

loop_
_geom_bond_atom_site_label_1
_geom_bond_atom_site_label_2
_geom_bond_distance
_geom_bond_site_symmetry_2
_geom_bond_publ_flag
Co1 O1 2.052(3) 8_545 ?
Co1 O1 2.052(3) . ?
Co1 O3 2.075(3) 6_656 ?
Co1 O3 2.075(3) 2_666 ?
Co1 O7 2.082(5) . ?
Co1 O6 2.176(4) . ?
Co2 O6 2.009(5) . ?
Co2 O2 2.030(4) 8_545 ?
Co2 O2 2.030(4) . ?
Co2 O8 2.066(6) . ?
Co2 O9 2.180(7) . ?
Co2 O9 2.180(7) 8_545 ?
O1 C1 1.235(6) . ?
O2 C1 1.270(7) . ?
O3 C8 1.247(7) . ?
O3 Co1 2.075(3) 4_646 ?
O4 C8 1.259(7) . ?
O5 C4 1.336(7) . ?
O5 C9 1.403(6) . ?
O6 H6 0.8511 . ?
O7 H7A 0.8521 . ?
O8 H8A 0.8518 . ?
O9 H9C 0.8498 . ?
O9 H9D 0.8496 . ?
C1 C2 1.494(7) . ?
C2 C3 1.359(8) . ?
C2 C7 1.398(7) . ?
C3 C4 1.445(7) . ?
C3 H3 0.9500 . ?
C4 C5 1.327(7) . ?
C5 C6 1.400(8) . ?
C5 H5 0.9500 . ?
C6 C7 1.365(7) . ?
C6 C8 1.535(8) . ?
C7 H7 0.9500 . ?
C9 C10 1.535(5) . ?
C9 H9A 0.9900 . ?
C9 H9B 0.9900 . ?
C10 C9 1.535(5) 3_755 ?
C10 C9 1.535(5) 2_665 ?
C10 C9 1.535(5) 4_645 ?

loop_
_geom_angle_atom_site_label_1
_geom_angle_atom_site_label_2
_geom_angle_atom_site_label_3
_geom_angle
_geom_angle_site_symmetry_1
_geom_angle_site_symmetry_3
_geom_angle_publ_flag
O1 Co1 O1 94.7(2) 8_545 . ?
O1 Co1 O3 88.54(15) 8_545 6_656 ?
O1 Co1 O3 175.69(15) . 6_656 ?
O1 Co1 O3 175.69(15) 8_545 2_666 ?
O1 Co1 O3 88.54(15) . 2_666 ?
O3 Co1 O3 88.1(2) 6_656 2_666 ?
O1 Co1 O7 88.93(14) 8_545 . ?
O1 Co1 O7 88.93(14) . . ?
O3 Co1 O7 88.24(14) 6_656 . ?
O3 Co1 O7 88.23(14) 2_666 . ?
O1 Co1 O6 90.66(13) 8_545 . ?
O1 Co1 O6 90.66(13) . . ?
O3 Co1 O6 92.19(13) 6_656 . ?
O3 Co1 O6 92.19(13) 2_666 . ?
O7 Co1 O6 179.4(2) . . ?
O6 Co2 O2 90.87(14) . 8_545 ?
O6 Co2 O2 90.87(14) . . ?
O2 Co2 O2 103.1(3) 8_545 . ?
O6 Co2 O8 179.6(3) . . ?
O2 Co2 O8 89.38(19) 8_545 . ?
O2 Co2 O8 89.38(19) . . ?
O6 Co2 O9 90.4(2) . . ?
O2 Co2 O9 168.3(3) 8_545 . ?
O2 Co2 O9 88.5(3) . . ?
O8 Co2 O9 89.3(3) . . ?
O6 Co2 O9 90.4(2) . 8_545 ?
O2 Co2 O9 88.5(3) 8_545 8_545 ?
O2 Co2 O9 168.3(3) . 8_545 ?
O8 Co2 O9 89.3(3) . 8_545 ?
O9 Co2 O9 79.9(4) . 8_545 ?
C1 O1 Co1 134.7(3) . . ?
C1 O2 Co2 135.3(3) . . ?
C8 O3 Co1 124.6(3) . 4_646 ?
C4 O5 C9 114.3(4) . . ?
Co2 O6 Co1 117.0(2) . . ?
Co2 O6 H6 111.1 . . ?
Co1 O6 H6 104.6 . . ?
Co1 O7 H7A 126.3 . . ?
Co2 O8 H8A 126.4 . . ?
Co2 O9 H9C 117.1 . . ?
Co2 O9 H9D 107.6 . . ?
H9C O9 H9D 104.3 . . ?
O1 C1 O2 126.7(5) . . ?
O1 C1 C2 117.4(5) . . ?
O2 C1 C2 115.9(5) . . ?
C3 C2 C7 118.9(5) . . ?
C3 C2 C1 119.2(5) . . ?
C7 C2 C1 121.9(5) . . ?
C2 C3 C4 121.9(5) . . ?
C2 C3 H3 119.1 . . ?
C4 C3 H3 119.1 . . ?
C5 C4 O5 126.2(5) . . ?
C5 C4 C3 117.0(5) . . ?
O5 C4 C3 116.8(4) . . ?
C4 C5 C6 122.0(5) . . ?
C4 C5 H5 119.0 . . ?
C6 C5 H5 119.0 . . ?
C7 C6 C5 120.4(5) . . ?
C7 C6 C8 121.6(5) . . ?
C5 C6 C8 117.9(5) . . ?
C6 C7 C2 119.6(5) . . ?
C6 C7 H7 120.2 . . ?
C2 C7 H7 120.2 . . ?
O3 C8 O4 125.7(5) . . ?
O3 C8 C6 118.4(5) . . ?
O4 C8 C6 115.9(5) . . ?
O5 C9 C10 107.7(3) . . ?
O5 C9 H9A 110.2 . . ?
C10 C9 H9A 110.2 . . ?
O5 C9 H9B 110.2 . . ?
C10 C9 H9B 110.2 . . ?
H9A C9 H9B 108.5 . . ?
C9 C10 C9 109.1(4) . 3_755 ?
C9 C10 C9 109.6(2) . 2_665 ?
C9 C10 C9 109.6(2) 3_755 2_665 ?
C9 C10 C9 109.6(2) . 4_645 ?
C9 C10 C9 109.7(2) 3_755 4_645 ?
C9 C10 C9 109.1(4) 2_665 4_645 ?

_diffrn_measured_fraction_theta_max 0.997
_diffrn_reflns_theta_full        14.07
_diffrn_measured_fraction_theta_full 0.997
_refine_diff_density_max         0.771
_refine_diff_density_min         -0.261
_refine_diff_density_rms         0.068


