
#######################################################################
#
#                 Cambridge Crystallographic Data Centre
#                                CCDC
#
#######################################################################
#
# If this CIF has been generated from an entry in the Cambridge
# Structural Database, then it will include bibliographic, chemical,
# crystal, experimental, refinement or atomic coordinate data resulting
# from the CCDC's data processing and validation procedures.
#
#######################################################################

data_CSD_CIF_FERCBI10
_audit_creation_date 1977-09-12
_audit_creation_method CSD-ConQuest-V1
_database_code_CSD FERCBI10
_database_code_depnum_ccdc_archive 'CCDC 1154793'
_chemical_formula_sum 'C10 H10 Bi1 Cl4 Fe1'
_chemical_formula_moiety
;
C10 H10 Fe1 1+,Bi1 Cl4 1-
;
_journal_coden_Cambridge 9
_journal_volume 16
_journal_year 1977
_journal_page_first 297
_journal_name_full 'Inorg.Chem. '
loop_
_publ_author_name
"N.J.Mammano"
"A.Zalkin"
"A.Landers"
"A.L.Rheingold"
_chemical_name_systematic
;
Ferrocenium tetrachloro-bismuth
;
_chemical_name_common
;
Teaching Subset: Fundamental Chemistry
;
_cell_volume   1436.717
_exptl_crystal_density_diffrn 2.482
_diffrn_ambient_temperature ?
_diffrn_special_details
;
The study was carried out at room temperature,in the range 283-303K

;
#These two values have been output from a single CSD field.
_refine_ls_R_factor_gt 0.03
_refine_ls_wR_factor_gt 0.03
_symmetry_cell_setting monoclinic
_symmetry_space_group_name_H-M 'P 21/c'
_symmetry_Int_Tables_number 14
loop_
_symmetry_equiv_pos_site_id
_symmetry_equiv_pos_as_xyz
1 x,y,z
2 -x,1/2+y,1/2-z
3 -x,-y,-z
4 x,-1/2-y,-1/2+z
_cell_length_a 10.998(5)
_cell_length_b 17.449(7)
_cell_length_c 7.569(4)
_cell_angle_alpha 90
_cell_angle_beta 98.46
_cell_angle_gamma 90
_cell_formula_units_Z 4
loop_
_atom_type_symbol
_atom_type_radius_bond
C 0.68
H 0.23
Bi 1.54
Cl 0.99
Fe 1.34
loop_
_atom_site_label
_atom_site_type_symbol
_atom_site_fract_x
_atom_site_fract_y
_atom_site_fract_z
Bi1 Bi 0.26127 0.18989 0.15136
Cl1 Cl 0.10920 0.20460 0.40700
Cl2 Cl 0.40190 0.18400 -0.11250
Cl3 Cl 0.39420 0.09220 0.33420
Cl4 Cl 0.11710 0.08690 0.02150
Fe1 Fe -0.23100 0.40136 -0.04790
C1 C -0.17500 0.40320 -0.29700
C2 C -0.30200 0.41890 -0.31400
C3 C -0.31600 0.48580 -0.21500
C4 C -0.20100 0.51320 -0.14000
C5 C -0.11400 0.46180 -0.19100
C6 C -0.18900 0.29510 0.06400
C7 C -0.31400 0.30900 0.05300
C8 C -0.33000 0.37400 0.15600
C9 C -0.20900 0.39760 0.23100
C10 C -0.12700 0.34900 0.16800
H1 H -0.13700 0.36000 -0.34900
H2 H -0.36600 0.38900 -0.38000
H3 H -0.39500 0.50900 -0.20000
H4 H -0.18500 0.55900 -0.06600
H5 H -0.02600 0.46600 -0.16000
H6 H -0.15200 0.25400 0.00500
H7 H -0.37900 0.27900 -0.01400
H8 H -0.40800 0.39800 0.17200
H9 H -0.18700 0.44100 0.31100
H10 H -0.03800 0.35100 0.19400
#END
