
#######################################################################
#
#                 Cambridge Crystallographic Data Centre
#                                CCDC
#
#######################################################################
#
# If this CIF has been generated from an entry in the Cambridge
# Structural Database, then it will include bibliographic, chemical,
# crystal, experimental, refinement or atomic coordinate data resulting
# from the CCDC's data processing and validation procedures.
#
#######################################################################

data_CSD_CIF_FEROCE18
_audit_creation_date 1980-01-28
_audit_creation_method CSD-ConQuest-V1
_database_code_CSD FEROCE18
_database_code_depnum_ccdc_archive 'CCDC 1154874'
_chemical_formula_sum 'C10 H10 Fe1'
_chemical_formula_moiety
;
C10 H10 Fe1
;
_journal_coeditor_code "IUCr A17749"
_journal_coden_Cambridge 107
_journal_volume 35
_journal_year 1979
_journal_page_first 2020
_journal_name_full 'Acta Crystallogr.,Sect.B:Struct.Crystallogr.Cryst.Chem. '
loop_
_publ_author_name
"P.Seiler"
"J.D.Dunitz"
_chemical_name_systematic
;
Ferrocene
;
_chemical_name_common
;
Teaching Subset: Fundamental Chemistry, Symmetry
;
_cell_volume   3141.393
_exptl_special_details
;
triclinic polymorph

;
_diffrn_ambient_temperature 148
#These two values have been output from a single CSD field.
_refine_ls_R_factor_gt 0.021
_refine_ls_wR_factor_gt 0.021
_symmetry_cell_setting triclinic
_symmetry_space_group_name_H-M 'F -1'
_symmetry_Int_Tables_number 2
loop_
_symmetry_equiv_pos_site_id
_symmetry_equiv_pos_as_xyz
1 x,y,z
2 x,1/2+y,1/2+z
3 1/2+x,y,1/2+z
4 1/2+x,1/2+y,z
5 -x,-y,-z
6 -x,-1/2-y,-1/2-z
7 -1/2-x,-y,-1/2-z
8 -1/2-x,-1/2-y,-z
_cell_length_a 20.969
_cell_length_b 15.066
_cell_length_c 11.501
_cell_angle_alpha 89.61
_cell_angle_beta 120.16
_cell_angle_gamma 90.48
_cell_formula_units_Z 16
loop_
_atom_type_symbol
_atom_type_radius_bond
C 0.68
H 0.23
Fe 1.34
loop_
_atom_site_label
_atom_site_type_symbol
_atom_site_fract_x
_atom_site_fract_y
_atom_site_fract_z
Fe1 Fe 0.25197 -0.00512 0.00366
C1 C 0.27360 0.12732 0.03165
C2 C 0.26298 0.10117 -0.09515
C3 C 0.31662 0.03658 -0.07208
C4 C 0.36004 0.02339 0.06752
C5 C 0.33407 0.07869 0.13256
C6 C 0.16544 -0.03188 0.03319
C7 C 0.14500 -0.04760 -0.10192
C8 C 0.19272 -0.11326 -0.10444
C9 C 0.24296 -0.13773 0.03127
C10 C 0.22605 -0.08772 0.11648
H1 H 0.24880 0.17700 0.05050
H2 H 0.21890 0.11650 -0.18950
H3 H 0.32040 0.00100 -0.14040
H4 H 0.40250 -0.01740 0.10860
H5 H 0.35490 0.08500 0.22550
H6 H 0.14300 0.01330 0.06700
H7 H 0.10620 -0.02330 -0.17550
H8 H 0.19200 -0.13880 -0.18630
H9 H 0.27820 -0.18310 0.06130
H10 H 0.25390 -0.08490 0.21670
Fe2 Fe 0.00789 0.24964 0.00716
C11 C 0.02497 0.11695 0.03281
C12 C 0.01864 0.14349 -0.09063
C13 C 0.07514 0.20665 -0.06259
C14 C 0.11601 0.21833 0.07795
C15 C 0.08538 0.16316 0.13750
C16 C -0.08044 0.27810 0.02996
C17 C -0.09719 0.29510 -0.10297
C18 C -0.04714 0.35953 -0.10048
C19 C 0.00185 0.38236 0.03669
C20 C -0.01872 0.33180 0.11677
H11 H -0.01240 0.07150 0.05090
H12 H -0.01960 0.12210 -0.17980
H13 H 0.08010 0.23360 -0.13030
H14 H 0.15750 0.26110 0.12550
H15 H 0.10180 0.16010 0.22960
H16 H -0.10550 0.23560 0.05750
H17 H -0.13300 0.26620 -0.18340
H18 H -0.04650 0.37700 -0.17900
H19 H 0.04640 0.42650 0.07170
H20 H 0.00590 0.32660 0.21290
#END
