
#######################################################################
#
#                 Cambridge Crystallographic Data Centre
#                                CCDC
#
#######################################################################
#
# If this CIF has been generated from an entry in the Cambridge
# Structural Database, then it will include bibliographic, chemical,
# crystal, experimental, refinement or atomic coordinate data resulting
# from the CCDC's data processing and validation procedures.
#
#######################################################################

data_CSD_CIF_FEROCE27
_audit_creation_date 1998-04-14
_audit_creation_method CSD-ConQuest-V1
_database_code_CSD FEROCE27
_database_code_depnum_ccdc_archive 'CCDC 131686'
_chemical_formula_sum 'C10 H10 Fe1'
_chemical_formula_moiety
;
C10 H10 Fe1
;
_journal_coeditor_code "IUCr CR0517"
_journal_coden_Cambridge 622
_journal_volume 53
_journal_year 1997
_journal_page_first 928
_journal_name_full 'Acta Crystallogr.,Sect.B:Struct.Sci. '
loop_
_publ_author_name
"C.P.Brock"
"Yigang Fu"
_chemical_name_systematic
;
bis(\h^5^-Cyclopentadienyl)-iron
;
_chemical_name_common
;
Ferrocene; Teaching Subset: Fundamental Chemistry, Symmetry
;
_cell_volume    406.166
_exptl_special_details
;
high temperature monoclinic polymorph

;
_diffrn_ambient_temperature ?
_diffrn_radiation_probe 'neutron radiation'
_diffrn_special_details
;
The study was carried out at room temperature,in the range 283-303K

;
_refine_special_details
;
rigid-body refinement

;
#These two values have been output from a single CSD field.
_refine_ls_R_factor_gt 0.075
_refine_ls_wR_factor_gt 0.075
loop_
_citation_database_id_CSD
_citation_special_details
FEROCE04 "is reinterpreted by this entry"
_symmetry_cell_setting monoclinic
_symmetry_space_group_name_H-M 'P 21/a'
_symmetry_Int_Tables_number 14
loop_
_symmetry_equiv_pos_site_id
_symmetry_equiv_pos_as_xyz
1 x,y,z
2 1/2-x,1/2+y,-z
3 -x,-y,-z
4 -1/2+x,-1/2-y,z
_cell_length_a 10.530(8)
_cell_length_b 7.604(5)
_cell_length_c 5.921(4)
_cell_angle_alpha 90
_cell_angle_beta 121.05(8)
_cell_angle_gamma 90
_cell_formula_units_Z 2
loop_
_atom_type_symbol
_atom_type_radius_bond
C 0.68
H 0.23
Fe 1.34
loop_
_atom_site_label
_atom_site_type_symbol
_atom_site_fract_x
_atom_site_fract_y
_atom_site_fract_z
Fe1 Fe 0.00000 0.00000 0.00000
C1 C 0.0220(7) 0.2612(5) -0.0188(16)
C2 C 0.0401(6) 0.1780(8) -0.2105(9)
C3 C 0.1600(6) 0.0628(6) -0.0828(13)
C4 C 0.2160(6) 0.0748(8) 0.1878(11)
C5 C 0.1307(9) 0.1974(8) 0.2273(11)
H1 H -0.05710 0.35010 -0.05260
H2 H -0.02360 0.19610 -0.40720
H3 H 0.19830 -0.01700 -0.17100
H4 H 0.30190 0.00530 0.32970
H5 H 0.14400 0.23210 0.40480
C1B C -0.0220(7) -0.2612(5) 0.0188(16)
C2B C -0.0401(6) -0.1780(8) 0.2105(9)
C3B C -0.1600(6) -0.0628(6) 0.0828(13)
H2B H 0.02360 -0.19610 0.40720
C4B C -0.2160(6) -0.0748(8) -0.1878(11)
C5B C -0.1307(9) -0.1974(8) -0.2273(11)
H1B H 0.05710 -0.35010 0.05260
H4B H -0.30190 -0.00530 -0.32970
H5B H -0.14400 -0.23210 -0.40480
H3B H -0.19830 0.01700 0.17100
#END
