####################################################################### 
# 
# This file contains crystal structure data downloaded from the 
# Cambridge Structural Database (CSD) hosted by the Cambridge 
# Crystallographic Data Centre (CCDC).
# 
# Full information about CCDC data access policies and citation 
# guidelines are available at http://www.ccdc.cam.ac.uk/access/V1 
# 
# Audit and citation data items may have been added by the CCDC. 
# Please retain this information to preserve the provenance of 
# this file and to allow appropriate attribution of the data. 
# 
#######################################################################

data_shelxl2
_audit_block_doi                 10.5517/cczbrvw
_database_code_depnum_ccdc_archive 'CCDC 904079'
loop_
_citation_id
_citation_doi
_citation_year
1 10.1002/chem.201203559 2013
_audit_update_record             
;
2012-10-02 deposited with the CCDC.	2024-07-10 downloaded from the CCDC.
;
#TrackingRef 'Ag293Kja1035.cif'


_audit_creation_method           SHELXL-97
_chemical_name_systematic        
;
?
;
_chemical_name_common            ?
_chemical_melting_point          ?
_chemical_formula_moiety         ?
_chemical_formula_sum            'C16 H8 Ag2 Fe N8'
_chemical_formula_weight         583.89

loop_
_atom_type_symbol
_atom_type_description
_atom_type_scat_dispersion_real
_atom_type_scat_dispersion_imag
_atom_type_scat_source
C C 0.0033 0.0016 'International Tables Vol C Tables 4.2.6.8 and 6.1.1.4'
H H 0.0000 0.0000 'International Tables Vol C Tables 4.2.6.8 and 6.1.1.4'
N N 0.0061 0.0033 'International Tables Vol C Tables 4.2.6.8 and 6.1.1.4'
Fe Fe 0.3463 0.8444 'International Tables Vol C Tables 4.2.6.8 and 6.1.1.4'
Ag Ag -0.8971 1.1015 'International Tables Vol C Tables 4.2.6.8 and 6.1.1.4'

_symmetry_cell_setting           trigonal
_symmetry_space_group_name_H-M   R-3m

loop_
_symmetry_equiv_pos_as_xyz
'x, y, z'
'-y, x-y, z'
'-x+y, -x, z'
'x-y, -y, -z'
'-x, -x+y, -z'
'y, x, -z'
'x+2/3, y+1/3, z+1/3'
'-y+2/3, x-y+1/3, z+1/3'
'-x+y+2/3, -x+1/3, z+1/3'
'x-y+2/3, -y+1/3, -z+1/3'
'-x+2/3, -x+y+1/3, -z+1/3'
'y+2/3, x+1/3, -z+1/3'
'x+1/3, y+2/3, z+2/3'
'-y+1/3, x-y+2/3, z+2/3'
'-x+y+1/3, -x+2/3, z+2/3'
'x-y+1/3, -y+2/3, -z+2/3'
'-x+1/3, -x+y+2/3, -z+2/3'
'y+1/3, x+2/3, -z+2/3'
'-x, -y, -z'
'y, -x+y, -z'
'x-y, x, -z'
'-x+y, y, z'
'x, x-y, z'
'-y, -x, z'
'-x+2/3, -y+1/3, -z+1/3'
'y+2/3, -x+y+1/3, -z+1/3'
'x-y+2/3, x+1/3, -z+1/3'
'-x+y+2/3, y+1/3, z+1/3'
'x+2/3, x-y+1/3, z+1/3'
'-y+2/3, -x+1/3, z+1/3'
'-x+1/3, -y+2/3, -z+2/3'
'y+1/3, -x+y+2/3, -z+2/3'
'x-y+1/3, x+2/3, -z+2/3'
'-x+y+1/3, y+2/3, z+2/3'
'x+1/3, x-y+2/3, z+2/3'
'-y+1/3, -x+2/3, z+2/3'

_cell_length_a                   26.646(2)
_cell_length_b                   26.646(2)
_cell_length_c                   9.9696(11)
_cell_angle_alpha                90.00
_cell_angle_beta                 90.00
_cell_angle_gamma                120.00
_cell_volume                     6130.3(10)
_cell_formula_units_Z            9
_cell_measurement_temperature    293(1)
_cell_measurement_reflns_used    100
_cell_measurement_theta_min      12
_cell_measurement_theta_max      20

_exptl_crystal_description       prismatic
_exptl_crystal_colour            red
_exptl_crystal_size_max          0.10
_exptl_crystal_size_mid          0.05
_exptl_crystal_size_min          0.04
_exptl_crystal_density_meas      ?
_exptl_crystal_density_diffrn    1.423
_exptl_crystal_density_method    'not measured'
_exptl_crystal_F_000             2520
_exptl_absorpt_coefficient_mu    1.961
_exptl_absorpt_correction_type   empirical
_exptl_absorpt_correction_T_min  0.8281
_exptl_absorpt_correction_T_max  0.9257
_exptl_absorpt_process_details   'Empirical absorption correction:XABS2'

_exptl_special_details           
;
At this temperature the dichloromethane molecules have been desorbed, consequently the void volume is quite large.
;

_diffrn_ambient_temperature      293(1)
_diffrn_radiation_wavelength     0.71073
_diffrn_radiation_type           MoK\a
_diffrn_radiation_source         'fine-focus sealed tube'
_diffrn_radiation_monochromator  graphite
_diffrn_measurement_device_type  ?
_diffrn_measurement_method       ?
_diffrn_detector_area_resol_mean ?
_diffrn_standards_number         ?
_diffrn_standards_interval_count ?
_diffrn_standards_interval_time  ?
_diffrn_standards_decay_%        ?
_diffrn_reflns_number            10587
_diffrn_reflns_av_R_equivalents  0.0567
_diffrn_reflns_av_sigmaI/netI    0.0470
_diffrn_reflns_limit_h_min       -35
_diffrn_reflns_limit_h_max       37
_diffrn_reflns_limit_k_min       -37
_diffrn_reflns_limit_k_max       34
_diffrn_reflns_limit_l_min       -13
_diffrn_reflns_limit_l_max       14
_diffrn_reflns_theta_min         3.06
_diffrn_reflns_theta_max         30.47
_reflns_number_total             2041
_reflns_number_gt                1118
_reflns_threshold_expression     >2sigma(I)

_computing_data_collection       COLLECT
_computing_cell_refinement       'HKL DENZO'
_computing_data_reduction        'HKL DENZO and SCALEPACK'
_computing_structure_solution    SHELXS-97
_computing_structure_refinement  'SHELXL-97 (Sheldrick, 2008)'
_computing_molecular_graphics    ?
_computing_publication_material  ?

_refine_special_details          
;
Refinement of F^2^ against ALL reflections. The weighted R-factor wR and
goodness of fit S are based on F^2^, conventional R-factors R are based
on F, with F set to zero for negative F^2^. The threshold expression of
F^2^ > 2sigma(F^2^) is used only for calculating R-factors(gt) etc. and is
not relevant to the choice of reflections for refinement. R-factors based
on F^2^ are statistically about twice as large as those based on F, and R-
factors based on ALL data will be even larger.
;

_refine_ls_structure_factor_coef Fsqd
_refine_ls_matrix_type           full
_refine_ls_weighting_scheme      calc
_refine_ls_weighting_details     
'calc w=1/[\s^2^(Fo^2^)+(0.1954P)^2^+9.1021P] where P=(Fo^2^+2Fc^2^)/3'
_atom_sites_solution_primary     direct
_atom_sites_solution_secondary   difmap
_atom_sites_solution_hydrogens   geom
_refine_ls_hydrogen_treatment    mixed
_refine_ls_extinction_method     none
_refine_ls_extinction_coef       ?
_refine_ls_number_reflns         2041
_refine_ls_number_parameters     70
_refine_ls_number_restraints     0
_refine_ls_R_factor_all          0.1318
_refine_ls_R_factor_gt           0.0787
_refine_ls_wR_factor_ref         0.2411
_refine_ls_wR_factor_gt          0.2233
_refine_ls_goodness_of_fit_ref   0.936
_refine_ls_restrained_S_all      0.936
_refine_ls_shift/su_max          0.019
_refine_ls_shift/su_mean         0.002

loop_
_atom_site_label
_atom_site_type_symbol
_atom_site_fract_x
_atom_site_fract_y
_atom_site_fract_z
_atom_site_U_iso_or_equiv
_atom_site_adp_type
_atom_site_occupancy
_atom_site_symmetry_multiplicity
_atom_site_calc_flag
_atom_site_refinement_flags
_atom_site_disorder_assembly
_atom_site_disorder_group
Ag Ag 0.37003(4) 0.3333 0.3333 0.0912(5) Uani 1 2 d S . .
Fe Fe 0.3333 0.1667 0.6667 0.0501(5) Uani 1 4 d S . .
N1 N 0.4266(3) 0.21332(17) 0.6718(10) 0.065(2) Uani 1 2 d S . .
N2 N 0.3344(3) 0.2243(3) 0.5222(7) 0.0716(16) Uani 1 1 d . . .
N3 N 0.63726(18) 0.36274(18) 0.6691(9) 0.067(2) Uani 1 2 d S . .
C1 C 0.4561(3) 0.2710(3) 0.6740(10) 0.072(2) Uani 1 1 d . . .
H1 H 0.4357 0.2910 0.6756 0.086 Uiso 1 1 calc R . .
C2 C 0.5156(3) 0.3021(3) 0.6739(9) 0.0698(19) Uani 1 1 d . . .
H2 H 0.5352 0.3424 0.6760 0.084 Uiso 1 1 calc R . .
C3 C 0.5457(4) 0.2729(2) 0.6707(15) 0.073(3) Uani 1 2 d S . .
C4 C 0.6112(4) 0.3056(2) 0.6711(11) 0.061(2) Uani 1 2 d S . .
C5 C 0.3421(4) 0.2622(4) 0.4528(9) 0.078(2) Uani 1 1 d . . .

loop_
_atom_site_aniso_label
_atom_site_aniso_U_11
_atom_site_aniso_U_22
_atom_site_aniso_U_33
_atom_site_aniso_U_23
_atom_site_aniso_U_13
_atom_site_aniso_U_12
Ag 0.0915(7) 0.0656(6) 0.1080(9) 0.0378(5) 0.0189(2) 0.0328(3)
Fe 0.0422(8) 0.0333(6) 0.0778(12) 0.0115(4) 0.0229(8) 0.0211(4)
N1 0.055(4) 0.041(3) 0.105(6) 0.009(2) 0.018(4) 0.027(2)
N2 0.063(3) 0.057(3) 0.092(4) 0.016(3) 0.026(3) 0.028(3)
N3 0.052(3) 0.052(3) 0.100(6) -0.0012(19) 0.0012(19) 0.029(4)
C1 0.052(4) 0.049(3) 0.120(6) -0.004(4) 0.008(4) 0.029(3)
C2 0.049(3) 0.038(3) 0.113(6) -0.001(3) 0.005(4) 0.015(3)
C3 0.045(5) 0.054(4) 0.118(8) 0.002(3) 0.004(5) 0.022(2)
C4 0.044(4) 0.046(3) 0.091(7) 0.000(2) 0.000(4) 0.022(2)
C5 0.083(5) 0.061(4) 0.094(5) 0.027(4) 0.034(5) 0.039(4)

_geom_special_details            
;
All esds (except the esd in the dihedral angle between two l.s. planes)
are estimated using the full covariance matrix. The cell esds are taken
into account individually in the estimation of esds in distances, angles
and torsion angles; correlations between esds in cell parameters are only
used when they are defined by crystal symmetry. An approximate (isotropic)
treatment of cell esds is used for estimating esds involving l.s. planes.
;

loop_
_geom_bond_atom_site_label_1
_geom_bond_atom_site_label_2
_geom_bond_distance
_geom_bond_site_symmetry_2
_geom_bond_publ_flag
Ag C5 2.038(8) 16 ?
Ag C5 2.038(8) . ?
Fe N1 2.154(8) . ?
Fe N1 2.154(8) 25_556 ?
Fe N2 2.096(7) 25_556 ?
Fe N2 2.096(7) . ?
Fe N2 2.096(7) 23 ?
Fe N2 2.096(7) 11_556 ?
N1 C1 1.332(8) . ?
N1 C1 1.332(8) 23 ?
N2 C5 1.154(10) . ?
N3 C4 1.320(6) 3_665 ?
N3 C4 1.320(6) . ?
C1 C2 1.374(9) . ?
C2 C3 1.370(9) . ?
C3 C2 1.370(9) 23 ?
C3 C4 1.511(13) . ?
C4 N3 1.320(6) 2_655 ?

loop_
_geom_angle_atom_site_label_1
_geom_angle_atom_site_label_2
_geom_angle_atom_site_label_3
_geom_angle
_geom_angle_site_symmetry_1
_geom_angle_site_symmetry_3
_geom_angle_publ_flag
C5 Ag C5 168.6(5) 16 . ?
N1 Fe N1 179.997(1) . 25_556 ?
N2 Fe N1 89.7(2) 25_556 . ?
N2 Fe N1 90.3(2) . . ?
N2 Fe N1 90.3(2) 23 . ?
N2 Fe N1 89.7(2) 11_556 . ?
N2 Fe N1 90.3(2) 25_556 25_556 ?
N2 Fe N1 89.7(2) . 25_556 ?
N2 Fe N1 89.7(2) 23 25_556 ?
N2 Fe N1 90.3(2) 11_556 25_556 ?
N2 Fe N2 179.997(1) 25_556 . ?
N2 Fe N2 86.8(4) 25_556 23 ?
N2 Fe N2 93.2(4) . 23 ?
N2 Fe N2 93.2(4) 25_556 11_556 ?
N2 Fe N2 86.8(4) . 11_556 ?
N2 Fe N2 179.998(1) 23 11_556 ?
C1 N1 C1 118.7(8) . 23 ?
C1 N1 Fe 120.7(4) . . ?
C1 N1 Fe 120.7(4) 23 . ?
C5 N2 Fe 169.9(8) . . ?
C4 N3 C4 114.2(9) 3_665 . ?
N1 C1 C2 122.1(6) . . ?
C3 C2 C1 119.1(7) . . ?
C2 C3 C2 119.0(9) 23 . ?
C2 C3 C4 120.5(4) 23 . ?
C2 C3 C4 120.5(4) . . ?
N3 C4 N3 125.8(9) 2_655 . ?
N3 C4 C3 117.1(5) 2_655 . ?
N3 C4 C3 117.1(5) . . ?
N2 C5 Ag 170.3(8) . . ?

_diffrn_measured_fraction_theta_max 0.925
_diffrn_reflns_theta_full        25.00
_diffrn_measured_fraction_theta_full 0.986
_refine_diff_density_max         1.803
_refine_diff_density_min         -0.743
_refine_diff_density_rms         0.188
