####################################################################### 
# 
# This file contains crystal structure data downloaded from the 
# Cambridge Structural Database (CSD) hosted by the Cambridge 
# Crystallographic Data Centre (CCDC).
# 
# Full information about CCDC data access policies and citation 
# guidelines are available at http://www.ccdc.cam.ac.uk/access/V1 
# 
# Audit and citation data items may have been added by the CCDC. 
# Please retain this information to preserve the provenance of 
# this file and to allow appropriate attribution of the data. 
# 
#######################################################################

data_3
_audit_block_doi                 10.5517/ccz91pz
_database_code_depnum_ccdc_archive 'CCDC 902431'
loop_
_citation_id
_citation_doi
_citation_year
1 10.1071/CH12444 2013
_audit_update_record             
;
2012-09-21 deposited with the CCDC.	2024-07-10 downloaded from the CCDC.
;
#TrackingRef '902431.cif'

#==========================================================================

_audit_creation_method           SHELXL-97
_audit_creation_date             '9 November 2005'

_chemical_name_systematic        
;
?
;
_chemical_name_common            ?
_chemical_melting_point          ?
_chemical_formula_moiety         'C78 H48 Fe3 N30 S6'
_chemical_formula_sum            'C78 H48 Fe3 N30 S6'
_chemical_formula_weight         1765.37

loop_
_atom_type_symbol
_atom_type_description
_atom_type_scat_dispersion_real
_atom_type_scat_dispersion_imag
_atom_type_scat_source
C C 0.0033 0.0016 'International Tables Vol C Tables 4.2.6.8 and 6.1.1.4'
H H 0.0000 0.0000 'International Tables Vol C Tables 4.2.6.8 and 6.1.1.4'
Fe Fe 0.3463 0.8444 'International Tables Vol C Tables 4.2.6.8 and 6.1.1.4'
N N 0.0061 0.0033 'International Tables Vol C Tables 4.2.6.8 and 6.1.1.4'
S S 0.1246 0.1234 'International Tables Vol C Tables 4.2.6.8 and 6.1.1.4'
O O 0.0106 0.0060 'International Tables Vol C Tables 4.2.6.8 and 6.1.1.4'

_symmetry_cell_setting           cubic
_symmetry_space_group_name_H-M   Fm-3m
_symmetry_Int_Tables_number      225
_symmetry_space_group_name_Hall  '-F 4 2 3'

loop_
_symmetry_equiv_pos_as_xyz
'x, y, z'
'-y, x, z'
'-x, -y, z'
'y, -x, z'
'x, -y, -z'
'y, x, -z'
'-x, y, -z'
'-y, -x, -z'
'z, x, y'
'-x, z, y'
'-z, -x, y'
'x, -z, y'
'z, -x, -y'
'x, z, -y'
'-z, x, -y'
'-x, -z, -y'
'y, z, x'
'-z, -y, -x'
'-z, y, x'
'z, y, -x'
'z, -y, x'
'y, -z, -x'
'-y, -z, x'
'-y, z, -x'
'x, y+1/2, z+1/2'
'-y, x+1/2, z+1/2'
'-x, -y+1/2, z+1/2'
'y, -x+1/2, z+1/2'
'x, -y+1/2, -z+1/2'
'y, x+1/2, -z+1/2'
'-x, y+1/2, -z+1/2'
'-y, -x+1/2, -z+1/2'
'z, x+1/2, y+1/2'
'-x, z+1/2, y+1/2'
'-z, -x+1/2, y+1/2'
'x, -z+1/2, y+1/2'
'z, -x+1/2, -y+1/2'
'x, z+1/2, -y+1/2'
'-z, x+1/2, -y+1/2'
'-x, -z+1/2, -y+1/2'
'y, z+1/2, x+1/2'
'-z, -y+1/2, -x+1/2'
'-z, y+1/2, x+1/2'
'z, y+1/2, -x+1/2'
'z, -y+1/2, x+1/2'
'y, -z+1/2, -x+1/2'
'-y, -z+1/2, x+1/2'
'-y, z+1/2, -x+1/2'
'x+1/2, y, z+1/2'
'-y+1/2, x, z+1/2'
'-x+1/2, -y, z+1/2'
'y+1/2, -x, z+1/2'
'x+1/2, -y, -z+1/2'
'y+1/2, x, -z+1/2'
'-x+1/2, y, -z+1/2'
'-y+1/2, -x, -z+1/2'
'z+1/2, x, y+1/2'
'-x+1/2, z, y+1/2'
'-z+1/2, -x, y+1/2'
'x+1/2, -z, y+1/2'
'z+1/2, -x, -y+1/2'
'x+1/2, z, -y+1/2'
'-z+1/2, x, -y+1/2'
'-x+1/2, -z, -y+1/2'
'y+1/2, z, x+1/2'
'-z+1/2, -y, -x+1/2'
'-z+1/2, y, x+1/2'
'z+1/2, y, -x+1/2'
'z+1/2, -y, x+1/2'
'y+1/2, -z, -x+1/2'
'-y+1/2, -z, x+1/2'
'-y+1/2, z, -x+1/2'
'x+1/2, y+1/2, z'
'-y+1/2, x+1/2, z'
'-x+1/2, -y+1/2, z'
'y+1/2, -x+1/2, z'
'x+1/2, -y+1/2, -z'
'y+1/2, x+1/2, -z'
'-x+1/2, y+1/2, -z'
'-y+1/2, -x+1/2, -z'
'z+1/2, x+1/2, y'
'-x+1/2, z+1/2, y'
'-z+1/2, -x+1/2, y'
'x+1/2, -z+1/2, y'
'z+1/2, -x+1/2, -y'
'x+1/2, z+1/2, -y'
'-z+1/2, x+1/2, -y'
'-x+1/2, -z+1/2, -y'
'y+1/2, z+1/2, x'
'-z+1/2, -y+1/2, -x'
'-z+1/2, y+1/2, x'
'z+1/2, y+1/2, -x'
'z+1/2, -y+1/2, x'
'y+1/2, -z+1/2, -x'
'-y+1/2, -z+1/2, x'
'-y+1/2, z+1/2, -x'
'-x, -y, -z'
'y, -x, -z'
'x, y, -z'
'-y, x, -z'
'-x, y, z'
'-y, -x, z'
'x, -y, z'
'y, x, z'
'-z, -x, -y'
'x, -z, -y'
'z, x, -y'
'-x, z, -y'
'-z, x, y'
'-x, -z, y'
'z, -x, y'
'x, z, y'
'-y, -z, -x'
'z, y, x'
'z, -y, -x'
'-z, -y, x'
'-z, y, -x'
'-y, z, x'
'y, z, -x'
'y, -z, x'
'-x, -y+1/2, -z+1/2'
'y, -x+1/2, -z+1/2'
'x, y+1/2, -z+1/2'
'-y, x+1/2, -z+1/2'
'-x, y+1/2, z+1/2'
'-y, -x+1/2, z+1/2'
'x, -y+1/2, z+1/2'
'y, x+1/2, z+1/2'
'-z, -x+1/2, -y+1/2'
'x, -z+1/2, -y+1/2'
'z, x+1/2, -y+1/2'
'-x, z+1/2, -y+1/2'
'-z, x+1/2, y+1/2'
'-x, -z+1/2, y+1/2'
'z, -x+1/2, y+1/2'
'x, z+1/2, y+1/2'
'-y, -z+1/2, -x+1/2'
'z, y+1/2, x+1/2'
'z, -y+1/2, -x+1/2'
'-z, -y+1/2, x+1/2'
'-z, y+1/2, -x+1/2'
'-y, z+1/2, x+1/2'
'y, z+1/2, -x+1/2'
'y, -z+1/2, x+1/2'
'-x+1/2, -y, -z+1/2'
'y+1/2, -x, -z+1/2'
'x+1/2, y, -z+1/2'
'-y+1/2, x, -z+1/2'
'-x+1/2, y, z+1/2'
'-y+1/2, -x, z+1/2'
'x+1/2, -y, z+1/2'
'y+1/2, x, z+1/2'
'-z+1/2, -x, -y+1/2'
'x+1/2, -z, -y+1/2'
'z+1/2, x, -y+1/2'
'-x+1/2, z, -y+1/2'
'-z+1/2, x, y+1/2'
'-x+1/2, -z, y+1/2'
'z+1/2, -x, y+1/2'
'x+1/2, z, y+1/2'
'-y+1/2, -z, -x+1/2'
'z+1/2, y, x+1/2'
'z+1/2, -y, -x+1/2'
'-z+1/2, -y, x+1/2'
'-z+1/2, y, -x+1/2'
'-y+1/2, z, x+1/2'
'y+1/2, z, -x+1/2'
'y+1/2, -z, x+1/2'
'-x+1/2, -y+1/2, -z'
'y+1/2, -x+1/2, -z'
'x+1/2, y+1/2, -z'
'-y+1/2, x+1/2, -z'
'-x+1/2, y+1/2, z'
'-y+1/2, -x+1/2, z'
'x+1/2, -y+1/2, z'
'y+1/2, x+1/2, z'
'-z+1/2, -x+1/2, -y'
'x+1/2, -z+1/2, -y'
'z+1/2, x+1/2, -y'
'-x+1/2, z+1/2, -y'
'-z+1/2, x+1/2, y'
'-x+1/2, -z+1/2, y'
'z+1/2, -x+1/2, y'
'x+1/2, z+1/2, y'
'-y+1/2, -z+1/2, -x'
'z+1/2, y+1/2, x'
'z+1/2, -y+1/2, -x'
'-z+1/2, -y+1/2, x'
'-z+1/2, y+1/2, -x'
'-y+1/2, z+1/2, x'
'y+1/2, z+1/2, -x'
'y+1/2, -z+1/2, x'

_cell_length_a                   38.300(4)
_cell_length_b                   38.300(4)
_cell_length_c                   38.300(4)
_cell_angle_alpha                90.00
_cell_angle_beta                 90.00
_cell_angle_gamma                90.00
_cell_volume                     56182(18)
_cell_formula_units_Z            8
_cell_measurement_temperature    375(2)
_cell_measurement_reflns_used    904
_cell_measurement_theta_min      2.3115
_cell_measurement_theta_max      12.097

_exptl_crystal_description       cubeoctahedron
_exptl_crystal_colour            'dark red'
_exptl_crystal_size_max          0.45
_exptl_crystal_size_mid          0.45
_exptl_crystal_size_min          0.45
_exptl_crystal_density_meas      ?
_exptl_crystal_density_diffrn    0.417
_exptl_crystal_density_method    'not measured'
_exptl_crystal_F_000             7200
_exptl_absorpt_coefficient_mu    0.216
_exptl_absorpt_correction_type   empirical
_exptl_absorpt_correction_T_min  0.710793
_exptl_absorpt_correction_T_max  1.000000

_exptl_absorpt_process_details   
;
SADABS (Sheldrick, 1996)
;

_diffrn_crystal_treatment        
;
attached with a thin smear of grease inside a
glass capillary and inserted in a copper mounting
pin. The crystal was quenched in a cold nitrogen
gas stream from an Oxford Cryosystems Cryostream.
;

_diffrn_ambient_temperature      375(2)
_diffrn_radiation_wavelength     0.71073
_diffrn_radiation_type           MoK\a
_diffrn_radiation_source         'fine-focus sealed tube'
_diffrn_radiation_monochromator  graphite
_diffrn_measurement_device_type  'Bruker SMART 1000 CCD'
_diffrn_measurement_method       \w
_diffrn_detector_area_resol_mean ?
_diffrn_standards_number         2
_diffrn_standards_interval_count 0
_diffrn_standards_interval_time  0
_diffrn_standards_decay_%        0
_diffrn_reflns_number            44078
_diffrn_reflns_av_R_equivalents  0.0905
_diffrn_reflns_av_sigmaI/netI    0.0431
_diffrn_reflns_limit_h_min       -32
_diffrn_reflns_limit_h_max       32
_diffrn_reflns_limit_k_min       -32
_diffrn_reflns_limit_k_max       32
_diffrn_reflns_limit_l_min       -32
_diffrn_reflns_limit_l_max       32
_diffrn_reflns_theta_min         2.13
_diffrn_reflns_theta_max         17.45
_reflns_number_total             946
_reflns_number_gt                457
_reflns_threshold_expression     >2sigma(I)

_computing_data_collection       'SMART (BrukerAXS ,1997)'
_computing_cell_refinement       'SMART (BrukerAXS ,1997)'
_computing_data_reduction        'SAINT+ (BrukerAXS, 1997)'
_computing_structure_solution    'SHELXS-97 (Sheldrick, 1990)'
_computing_structure_refinement  'SHELXL-97 (Sheldrick, 1997)'
_computing_molecular_graphics    'XPMA/ZORTEP, WebLab ViewerPro 3.7'
_computing_publication_material  CIFTAB

_refine_special_details          
;
Refinement of F^2^ against ALL reflections. The weighted R-factor wR and
goodness of fit S are based on F^2^, conventional R-factors R are based
on F, with F set to zero for negative F^2^. The threshold expression of
F^2^ > 2sigma(F^2^) is used only for calculating R-factors(gt) etc. and is
not relevant to the choice of reflections for refinement. R-factors based
on F^2^ are statistically about twice as large as those based on F, and R-
factors based on ALL data will be even larger.

The framework topology of this material consists of a regular array of corner
sharing octahedra, with large cubeoctahedron pores. The Fe(II)
center consists
of two trans-thiocyanate ligands and four planar three connecting tpt ligands.
THe metal center is in the high spin state. The pores are vacant.

All framework atoms were modelled anisotropically. The sulfur and carbon atoms
of the thiocyanate ligand are disordered by symmetry and were
also modelled using
the ISOR command. Hydrogens were attached
using calculated positions and refined using the riding model.

The refinement indices are relatively high owing to the large pore
volumes accounting for up to 80% of the total crystal fraction.
;

_refine_ls_structure_factor_coef Fsqd
_refine_ls_matrix_type           full
_refine_ls_weighting_scheme      calc
_refine_ls_weighting_details     
'calc w=1/[\s^2^(Fo^2^)+(0.3000P)^2^+300.0000P] where P=(Fo^2^+2Fc^2^)/3'
_atom_sites_solution_primary     direct
_atom_sites_solution_secondary   difmap
_atom_sites_solution_hydrogens   geom
_refine_ls_hydrogen_treatment    constr
_refine_ls_extinction_method     none
_refine_ls_extinction_coef       ?
_refine_ls_number_reflns         946
_refine_ls_number_parameters     56
_refine_ls_number_restraints     18
_refine_ls_R_factor_all          0.4206
_refine_ls_R_factor_gt           0.3286
_refine_ls_wR_factor_ref         0.7345
_refine_ls_wR_factor_gt          0.6549
_refine_ls_goodness_of_fit_ref   1.898
_refine_ls_restrained_S_all      1.909
_refine_ls_shift/su_max          0.000
_refine_ls_shift/su_mean         0.000

loop_
_atom_site_label
_atom_site_type_symbol
_atom_site_fract_x
_atom_site_fract_y
_atom_site_fract_z
_atom_site_U_iso_or_equiv
_atom_site_adp_type
_atom_site_occupancy
_atom_site_symmetry_multiplicity
_atom_site_calc_flag
_atom_site_refinement_flags
_atom_site_disorder_assembly
_atom_site_disorder_group
Fe1 Fe 0.2500 0.2500 0.0000 0.172(7) Uani 1 8 d S . .
N10 N 0.2230(8) 0.2230(8) 0.0392(13) 0.211(19) Uani 1 2 d S . .
N15 N 0.1441(8) 0.1870(8) 0.1441(8) 0.228(18) Uani 1 2 d S . .
C10 C 0.1937(11) 0.2355(12) 0.0550(11) 0.26(2) Uani 1 1 d . . .
H10 H 0.1837 0.2557 0.0459 0.309 Uiso 1 1 calc R . .
C11 C 0.1784(13) 0.2210(11) 0.0823(13) 0.28(2) Uani 1 1 d U . .
H11 H 0.1577 0.2301 0.0910 0.334 Uiso 1 1 calc R . .
C12 C 0.1930(12) 0.1930(12) 0.0973(13) 0.28(3) Uani 1 2 d S . .
C15 C 0.1719(11) 0.1719(11) 0.1307(15) 0.22(2) Uani 1 2 d SU . .
N1 N 0.2892(8) 0.2108(8) 0.0000 0.187(16) Uani 1 4 d S . .
C1 C 0.3065 0.1823 0.0002 0.231 Uiso 0.50 2 d SP . .
S1 S 0.3219(19) 0.1510(16) 0.0000 0.63(6) Uani 0.50 2 d SPU . .

loop_
_atom_site_aniso_label
_atom_site_aniso_U_11
_atom_site_aniso_U_22
_atom_site_aniso_U_33
_atom_site_aniso_U_23
_atom_site_aniso_U_13
_atom_site_aniso_U_12
Fe1 0.187(8) 0.187(8) 0.140(10) 0.000 0.000 0.030(10)
N10 0.18(2) 0.18(2) 0.27(5) -0.03(3) -0.03(3) 0.08(3)
N15 0.26(2) 0.17(3) 0.26(2) 0.07(2) 0.07(4) 0.07(2)
C10 0.28(4) 0.31(5) 0.19(3) 0.13(3) 0.02(3) 0.06(4)
C11 0.36(5) 0.26(4) 0.22(4) 0.07(3) 0.01(3) 0.22(4)
C12 0.35(5) 0.35(5) 0.13(4) 0.08(3) 0.08(3) 0.08(7)
C15 0.22(3) 0.22(3) 0.23(5) 0.00(3) 0.00(3) 0.13(4)
N1 0.21(2) 0.21(2) 0.15(3) 0.000 0.000 0.04(3)
S1 0.64(10) 0.36(6) 0.89(9) 0.000 0.000 0.29(7)

_geom_special_details            
;
All esds (except the esd in the dihedral angle between two l.s. planes)
are estimated using the full covariance matrix. The cell esds are taken
into account individually in the estimation of esds in distances, angles
and torsion angles; correlations between esds in cell parameters are only
used when they are defined by crystal symmetry. An approximate (isotropic)
treatment of cell esds is used for estimating esds involving l.s. planes.
;

loop_
_geom_bond_atom_site_label_1
_geom_bond_atom_site_label_2
_geom_bond_distance
_geom_bond_site_symmetry_2
_geom_bond_publ_flag
Fe1 N10 2.09(5) . ?
Fe1 N10 2.09(5) 75 ?
Fe1 N1 2.12(4) 169 ?
N10 C10 1.36(4) 104 ?
N15 C15 1.31(3) 9 ?
C10 C11 1.32(5) . ?
C10 H10 0.9300 . ?
C11 C12 1.34(3) . ?
C11 H11 0.9300 . ?
C12 C11 1.34(3) 104 ?
C15 N15 1.32(3) 104 ?
N1 C1 1.28(4) 174 ?
C1 S1 1.34(4) . ?
C1 S1 1.64(6) 174 ?

loop_
_geom_angle_atom_site_label_1
_geom_angle_atom_site_label_2
_geom_angle_atom_site_label_3
_geom_angle
_geom_angle_site_symmetry_1
_geom_angle_site_symmetry_3
_geom_angle_publ_flag
N10 Fe1 N10 92(2) . 99 ?
N10 Fe1 N10 88(2) . 75 ?
N10 Fe1 N10 179.991(11) 99 75 ?
N10 Fe1 N10 179.995(11) . 169 ?
N10 Fe1 N10 88(2) 99 169 ?
N10 Fe1 N10 92(2) 75 169 ?
N10 Fe1 N1 90.016(2) . 169 ?
N1 Fe1 N1 179.999(7) 169 . ?
C10 N10 C10 112(6) . 104 ?
C10 N10 Fe1 123(3) . . ?
C10 N10 Fe1 124(3) 104 . ?
C15 N15 C15 116(6) . 9 ?
C11 C10 N10 125(5) . . ?
C11 C10 H10 117.7 . . ?
N10 C10 H10 117.8 . . ?
C12 C11 C10 120(4) . . ?
C12 C11 H11 120.2 . . ?
C11 C12 C11 119(5) . 104 ?
C11 C12 C15 120(3) 104 . ?
N15 C15 N15 124(6) . 104 ?
N15 C15 C12 118(3) 104 . ?
C1 N1 Fe1 166.2(4) 174 . ?
N1 C1 S1 175(4) . . ?

_diffrn_measured_fraction_theta_max 0.995
_diffrn_reflns_theta_full        17.45
_diffrn_measured_fraction_theta_full 0.995
_refine_diff_density_max         1.354
_refine_diff_density_min         -0.621
_refine_diff_density_rms         0.138


#==========================================================================

# start Validation Reply Form

#==========================================================================

_vrf_RFACG01_I                   
;
PROBLEM: The value of the R factor is > 0.20
RESPONSE: The final refinement indices of >20% are large as expected
due to only 20% of the material consisting of framework atoms the remaining
80% is vacant void volume. The void volume was filled with solvent guest
molecules which have been thermally removed in this material, this also
contributes to the large refinement indices owing to the strain the
crystal is under to remove these solvent molecules. Refinement indices
such as these are common in highly porous systems and it would be expected
that they will become more common as greater porosity is achieved.
;
_vrf_RFACR01_I                   
;
PROBLEM: The value of the weighted R factor is > 0.45
RESPONSE: The final refinement indices are large as expected
due to only 20% of the material consisting of framework atoms the remaining
80% is vacant void volume. The void volume was filled with solvent guest
molecules which have been thermally removed in this material, this also
contributes to the large refinement indices owing to the strain the
crystal is under to remove these solvent molecules. Refinement indices
such as these are common in highly porous systems and it would be expected
that they will become more common as greater porosity is achieved.
;
_vrf_THETM01_I                   
;
PROBLEM: The value of sine(theta_max)/wavelength is less than 0.550
RESPONSE: The crystal diffracted strongly in the fully solvated state
but did not diffract out to high angles which we attribute to the diffuse
solvent in the pores. This structure is on the same crystal where the
solvent has been removed thermally, this decreased the crystal quality
slightly due to the strain or removing the solvent guest molecules.
All possible attempts were made to improve the diffraction quality;
a range of crystal sizes were investigated, long frame exposure for
data collection, low temperature collection to minimise disorder.
;
_vrf_PLAT023_I                   
;
PROBLEM: Resolution (too) Low [sin(theta)/Lambda < 0.6].. 17.45 Deg.
RESPONSE: The crystal diffracted strongly in the fully solvated state
but did not diffract out to high angles which we attribute to the diffuse
solvent in the pores. This structure is on the same crystal where the
solvent has been removed thermally, this decreased the crystal quality
slightly due to the strain or removing the solvent guest molecules.
All possible attempts were made to improve the diffraction quality;
a range of crystal sizes were investigated, long frame exposure for
data collection, low temperature collection to minimise disorder.
;
_vrf_PLAT082_I                   
;
PROBLEM: High R1 Value .................................. 0.33
RESPONSE: The final refinement indices are large as expected
due to only 20% of the material consisting of framework atoms the remaining
80% is vacant void volume. The void volume was filled with solvent guest
molecules which have been thermally removed in this material, this also
contributes to the large refinement indices owing to the strain the
crystal is under to remove these solvent molecules. Refinement indices
such as these are common in highly porous systems and it would be expected
that they will become more common as greater porosity is achieved.
;
_vrf_PLAT084_I                   
;
PROBLEM: High wR2 Value ................................. 0.73
RESPONSE: The final refinement indices are large as expected
due to only 20% of the material consisting of framework atoms the remaining
80% is vacant void volume. The void volume was filled with solvent guest
molecules which have been thermally removed in this material, this also
contributes to the large refinement indices owing to the strain the
crystal is under to remove these solvent molecules. Refinement indices
such as these are common in highly porous systems and it would be expected
that they will become more common as greater porosity is achieved.
;
_vrf_PLAT234_I                   
;
PROBLEM: Large Hirshfeld Difference Fe1 -- N10 .. 0.36 Ang.
RESPONSE: This structure was collected at high temperature.
;
_vrf_PLAT369_I                   
;
PROBLEM: Long C(sp2)-C(sp2) Bond C12 - C15 ... 1.72 Ang.
RESPONSE: This structure was collected at high temperature.
;
_vrf_PLAT601_I                   
;
PROBLEM: Structure Contains Solvent Accessible VOIDS of . 43609 A**3
RESPONSE: That is correct it is a highly porous framework material where the
solvent atoms have been thermally removed resulting in large solvent accessible
voids.
;
