####################################################################### 
# 
# This file contains crystal structure data downloaded from the 
# Cambridge Structural Database (CSD) hosted by the Cambridge 
# Crystallographic Data Centre (CCDC).
# 
# Full information about CCDC data access policies and citation 
# guidelines are available at http://www.ccdc.cam.ac.uk/access/V1 
# 
# Audit and citation data items may have been added by the CCDC. 
# Please retain this information to preserve the provenance of 
# this file and to allow appropriate attribution of the data. 
# 
#######################################################################

data_918166
_audit_block_doi                 10.5517/ccztf8g
_database_code_depnum_ccdc_archive 'CCDC 918166'
loop_
_citation_id
_citation_doi
_citation_year
1 10.1021/ja403449k 2013
_audit_update_record             
;
2013-08-08 deposited with the CCDC.	2024-07-10 downloaded from the CCDC.
;

_audit_creation_method           SHELXL-97
_chemical_name_systematic        
; 
 ? 
;
_chemical_name_common            ?
_chemical_melting_point          ?
_chemical_formula_moiety         ?
_chemical_formula_sum            'C25 H31 Co2 N3 O14'
_chemical_formula_weight         715.39
_chemical_absolute_configuration ad

loop_
_atom_type_symbol
_atom_type_description
_atom_type_scat_dispersion_real
_atom_type_scat_dispersion_imag
_atom_type_scat_source
C C 0.0033 0.0016 'International Tables Vol C Tables 4.2.6.8 and 6.1.1.4'
H H 0.0000 0.0000 'International Tables Vol C Tables 4.2.6.8 and 6.1.1.4'
N N 0.0061 0.0033 'International Tables Vol C Tables 4.2.6.8 and 6.1.1.4'
O O 0.0106 0.0060 'International Tables Vol C Tables 4.2.6.8 and 6.1.1.4'
Co Co 0.3494 0.9721 'International Tables Vol C Tables 4.2.6.8 and 6.1.1.4'

_symmetry_cell_setting           hexagonal
_symmetry_space_group_name_H-M   'P 61'
_symmetry_space_group_name_Hall  'P 61'

loop_
_symmetry_equiv_pos_as_xyz
'x, y, z'
'-y, x-y, z+1/3'
'-x+y, -x, z+2/3'
'-x, -y, z+1/2'
'y, -x+y, z+5/6'
'x-y, x, z+1/6'

_cell_length_a                   15.9363(6)
_cell_length_b                   15.9363(6)
_cell_length_c                   21.3380(9)
_cell_angle_alpha                90.00
_cell_angle_beta                 90.00
_cell_angle_gamma                120.00
_cell_volume                     4693.1(3)
_cell_formula_units_Z            6
_cell_measurement_temperature    293(2)
_cell_measurement_reflns_used    ?
_cell_measurement_theta_min      ?
_cell_measurement_theta_max      ?

_exptl_crystal_description       block
_exptl_crystal_colour            red
_exptl_crystal_size_max          0.20
_exptl_crystal_size_mid          0.18
_exptl_crystal_size_min          0.18
_exptl_crystal_density_meas      ?
_exptl_crystal_density_diffrn    1.519
_exptl_crystal_density_method    'not measured'
_exptl_crystal_F_000             2208
_exptl_absorpt_coefficient_mu    1.130
_exptl_absorpt_correction_type   multi-scan
_exptl_absorpt_correction_T_min  0.8055
_exptl_absorpt_correction_T_max  0.8224
_exptl_absorpt_process_details   SADABS

_exptl_special_details           
; 
 ? 
;

_diffrn_ambient_temperature      293(2)
_diffrn_radiation_wavelength     0.71073
_diffrn_radiation_type           MoK\a
_diffrn_radiation_source         'fine-focus sealed tube'
_diffrn_radiation_monochromator  graphite
_diffrn_measurement_device_type  ?
_diffrn_measurement_method       ?
_diffrn_detector_area_resol_mean ?
_diffrn_standards_number         ?
_diffrn_standards_interval_count ?
_diffrn_standards_interval_time  ?
_diffrn_standards_decay_%        ?
_diffrn_reflns_number            27843
_diffrn_reflns_av_R_equivalents  0.0776
_diffrn_reflns_av_sigmaI/netI    0.0738
_diffrn_reflns_limit_h_min       -18
_diffrn_reflns_limit_h_max       11
_diffrn_reflns_limit_k_min       -11
_diffrn_reflns_limit_k_max       18
_diffrn_reflns_limit_l_min       -25
_diffrn_reflns_limit_l_max       24
_diffrn_reflns_theta_min         2.41
_diffrn_reflns_theta_max         25.00
_reflns_number_total             5457
_reflns_number_gt                4669
_reflns_threshold_expression     >2sigma(I)

_computing_data_collection       ?
_computing_cell_refinement       ?
_computing_data_reduction        ?
_computing_structure_solution    'SHELXS-97 (Sheldrick, 1990)'
_computing_structure_refinement  'SHELXL-97 (Sheldrick, 1997)'
_computing_molecular_graphics    ?
_computing_publication_material  ?

_refine_special_details          
; 
 Refinement of F^2^ against ALL reflections.  The weighted R-factor wR and 
 goodness of fit S are based on F^2^, conventional R-factors R are based 
 on F, with F set to zero for negative F^2^. The threshold expression of 
 F^2^ > 2sigma(F^2^) is used only for calculating R-factors(gt) etc. and is 
 not relevant to the choice of reflections for refinement.  R-factors based 
 on F^2^ are statistically about twice as large as those based on F, and R- 
 factors based on ALL data will be even larger. 
;

_refine_ls_structure_factor_coef Fsqd
_refine_ls_matrix_type           full
_refine_ls_weighting_scheme      calc
_refine_ls_weighting_details     
'calc w=1/[\s^2^(Fo^2^)+(0.0987P)^2^+0.0000P] where P=(Fo^2^+2Fc^2^)/3'
_atom_sites_solution_primary     direct
_atom_sites_solution_secondary   difmap
_atom_sites_solution_hydrogens   geom
_refine_ls_hydrogen_treatment    constr
_refine_ls_extinction_method     none
_refine_ls_extinction_coef       ?
_refine_ls_abs_structure_details 'Flack H D (1983), Acta Cryst. A39, 876-881'
_refine_ls_abs_structure_Flack   0.00(2)
_refine_ls_number_reflns         5457
_refine_ls_number_parameters     411
_refine_ls_number_restraints     25
_refine_ls_R_factor_all          0.0741
_refine_ls_R_factor_gt           0.0602
_refine_ls_wR_factor_ref         0.1673
_refine_ls_wR_factor_gt          0.1526
_refine_ls_goodness_of_fit_ref   1.075
_refine_ls_restrained_S_all      1.073
_refine_ls_shift/su_max          0.000
_refine_ls_shift/su_mean         0.000

loop_
_atom_site_label
_atom_site_type_symbol
_atom_site_fract_x
_atom_site_fract_y
_atom_site_fract_z
_atom_site_U_iso_or_equiv
_atom_site_adp_type
_atom_site_occupancy
_atom_site_symmetry_multiplicity
_atom_site_calc_flag
_atom_site_refinement_flags
_atom_site_disorder_assembly
_atom_site_disorder_group
Co1 Co 0.44665(6) 0.29302(6) 0.08815(3) 0.0224(2) Uani 1 1 d . . .
Co2 Co 0.51712(6) 0.48611(6) 0.19393(3) 0.0219(2) Uani 1 1 d . . .
N1 N 0.4944(4) 0.4359(4) 0.2923(2) 0.0268(12) Uani 1 1 d . . .
N2 N 0.2961(4) 0.2261(5) 0.0747(3) 0.0384(14) Uani 1 1 d . . .
N3 N -0.3649(4) 0.0247(4) 0.0515(2) 0.0310(12) Uani 1 1 d . . .
O1 O 0.4260(3) 0.3386(3) 0.17716(19) 0.0288(10) Uani 1 1 d . . .
O2 O 0.3142(4) 0.2090(4) 0.2294(2) 0.0559(16) Uani 1 1 d . . .
O3 O 0.3834(3) 0.4853(3) 0.2174(2) 0.0315(11) Uani 1 1 d . . .
O4 O 0.2736(4) 0.4399(4) 0.2930(2) 0.0467(14) Uani 1 1 d . . .
O5 O 0.6391(5) 0.2289(4) 0.4389(2) 0.0519(15) Uani 1 1 d . . .
O6 O 0.5303(3) 0.1702(3) 0.5168(2) 0.0292(10) Uani 1 1 d . . .
O7 O 0.4887(4) 0.4586(3) 0.6068(2) 0.0355(11) Uani 1 1 d . . .
O8 O 0.5404(4) 0.5851(3) 0.5433(2) 0.0370(11) Uani 1 1 d . . .
C1 C 0.5684(4) 0.3207(4) 0.4678(3) 0.0233(13) Uani 1 1 d . . .
C2 C 0.5429(5) 0.3624(4) 0.5155(3) 0.0251(13) Uani 1 1 d . . .
H2 H 0.5276 0.3338 0.5550 0.030 Uiso 1 1 calc R . .
C3 C 0.5400(5) 0.4468(4) 0.5046(3) 0.0230(13) Uani 1 1 d . . .
C4 C 0.5565(5) 0.4847(4) 0.4437(3) 0.0226(13) Uani 1 1 d . . .
H4 H 0.5538 0.5408 0.4362 0.027 Uiso 1 1 calc R . .
C5 C 0.5764(4) 0.4415(5) 0.3951(3) 0.0245(13) Uani 1 1 d . . .
C6 C 0.5841(4) 0.3600(4) 0.4079(3) 0.0227(13) Uani 1 1 d . . .
H6 H 0.6000 0.3312 0.3756 0.027 Uiso 1 1 calc R . .
C7 C 0.5867(4) 0.4780(5) 0.3281(3) 0.0239(13) Uani 1 1 d . . .
H7A H 0.6152 0.5479 0.3290 0.029 Uiso 1 1 calc R . .
H7B H 0.6313 0.4637 0.3060 0.029 Uiso 1 1 calc R . .
C8 C 0.4480(6) 0.3295(5) 0.2875(3) 0.0395(17) Uani 1 1 d . . .
H8A H 0.4061 0.3006 0.3235 0.047 Uiso 1 1 calc R . .
H8B H 0.4979 0.3116 0.2891 0.047 Uiso 1 1 calc R . .
C9 C 0.3883(5) 0.2875(5) 0.2277(3) 0.0271(14) Uani 1 1 d . . .
C10 C 0.4269(5) 0.4638(6) 0.3212(3) 0.0360(16) Uani 1 1 d . . .
H10A H 0.4637 0.5284 0.3388 0.043 Uiso 1 1 calc R . .
H10B H 0.3916 0.4193 0.3551 0.043 Uiso 1 1 calc R . .
C11 C 0.3550(5) 0.4617(5) 0.2728(3) 0.0275(14) Uani 1 1 d . . .
C12 C 0.5795(5) 0.2323(4) 0.4756(3) 0.0264(13) Uani 1 1 d . . .
C13 C 0.5214(5) 0.5012(5) 0.5559(3) 0.0267(15) Uani 1 1 d . . .
C14 C 0.2547(5) 0.2807(7) 0.0823(4) 0.051(2) Uani 1 1 d . . .
H14 H 0.2941 0.3463 0.0909 0.061 Uiso 1 1 calc R . .
C15 C 0.1552(5) 0.2432(7) 0.0778(4) 0.055(2) Uani 1 1 d . . .
H15 H 0.1284 0.2827 0.0842 0.066 Uiso 1 1 calc R . .
C16 C 0.0956(6) 0.1444(7) 0.0633(4) 0.053(2) Uani 1 1 d . . .
C17 C 0.1392(6) 0.0890(7) 0.0556(4) 0.054(2) Uani 1 1 d . . .
H17 H 0.1020 0.0234 0.0464 0.065 Uiso 1 1 calc R . .
C18 C 0.2359(5) 0.1306(6) 0.0615(4) 0.049(2) Uani 1 1 d . . .
H18 H 0.2635 0.0917 0.0562 0.059 Uiso 1 1 calc R . .
C19 C -0.0095(7) 0.1028(8) 0.0589(4) 0.061(2) Uani 1 1 d . . .
H19 H -0.0445 0.0379 0.0475 0.074 Uiso 1 1 calc R . .
C20 C -0.0595(6) 0.1447(7) 0.0687(5) 0.058(2) Uani 1 1 d . . .
H20 H -0.0245 0.2098 0.0798 0.070 Uiso 1 1 calc R . .
C21 C -0.1651(6) 0.1024(6) 0.0646(4) 0.051(2) Uani 1 1 d . . .
C22 C -0.2090(6) 0.1584(7) 0.0638(5) 0.061(2) Uani 1 1 d . . .
H22 H -0.1705 0.2251 0.0687 0.073 Uiso 1 1 calc R . .
C23 C -0.3060(6) 0.1201(6) 0.0562(4) 0.0476(19) Uani 1 1 d . . .
H23 H -0.3316 0.1611 0.0541 0.057 Uiso 1 1 calc R . .
C24 C -0.3244(5) -0.0311(6) 0.0562(4) 0.0411(17) Uani 1 1 d . . .
H24 H -0.3651 -0.0979 0.0546 0.049 Uiso 1 1 calc R . .
C25 C -0.2295(6) 0.0025(6) 0.0630(4) 0.052(2) Uani 1 1 d . . .
H25 H -0.2063 -0.0405 0.0667 0.063 Uiso 1 1 calc R . .
O1W O 0.4675(4) 0.2470(4) -0.0015(2) 0.0392(11) Uani 1 1 d . . .
H1WA H 0.5133 0.2921 -0.0224 0.059 Uiso 1 1 d R . .
H1WB H 0.4796 0.2009 -0.0042 0.059 Uiso 1 1 d R . .
O2W O 0.6203(8) 0.3993(9) 0.9244(6) 0.150(5) Uani 1 1 d . . .
H2WB H 0.6360 0.4498 0.9460 0.224 Uiso 1 1 d R . .
H2WA H 0.6307 0.4097 0.8853 0.224 Uiso 1 1 d R . .
O3W O 0.2092(9) 0.0109(8) 0.1906(6) 0.158(5) Uani 1 1 d . . .
H3WA H 0.2264 -0.0109 0.1598 0.237 Uiso 1 1 d R . .
H3WB H 0.2250 0.0652 0.2074 0.237 Uiso 1 1 d R . .
O4W O 0.4137(11) 0.1095(13) 0.2977(7) 0.200(6) Uani 1 1 d U . .
H4WA H 0.3805 0.0484 0.3019 0.300 Uiso 1 1 d R . .
H4WB H 0.3871 0.1377 0.2795 0.300 Uiso 1 1 d R . .
O5W O 0.2929(15) -0.0030(15) 0.3965(10) 0.177(8) Uani 0.67 1 d PU . .
H5WA H 0.3439 0.0055 0.4147 0.265 Uiso 0.67 1 d PR . .
H5WB H 0.2559 -0.0639 0.3931 0.265 Uiso 0.67 1 d PR . .
O6W O 0.3182(16) 0.2038(18) 0.4470(12) 0.236(15) Uani 0.67 1 d P . .
H6WA H 0.2751 0.2096 0.4271 0.354 Uiso 0.67 1 d PR . .
H6WB H 0.3206 0.1533 0.4373 0.354 Uiso 0.67 1 d PR . .
O7W O 0.145(3) 0.015(3) 0.360(2) 0.164(9) Uani 0.350(16) 1 d PU A 1
H7WB H 0.1938 0.0132 0.3733 0.247 Uiso 0.350(16) 1 d PR A 1
H7WA H 0.1673 0.0645 0.3361 0.247 Uiso 0.350(16) 1 d PR A 1
O7W' O 0.157(3) 0.047(3) 0.422(2) 0.164(9) Uani 0.316(16) 1 d PU A 2
H7WC H 0.1593 0.0869 0.3946 0.247 Uiso 0.316(16) 1 d PR A 2
H7WD H 0.1768 0.0068 0.4218 0.247 Uiso 0.316(16) 1 d PR A 2

loop_
_atom_site_aniso_label
_atom_site_aniso_U_11
_atom_site_aniso_U_22
_atom_site_aniso_U_33
_atom_site_aniso_U_23
_atom_site_aniso_U_13
_atom_site_aniso_U_12
Co1 0.0224(4) 0.0218(4) 0.0248(4) -0.0019(3) -0.0026(3) 0.0124(4)
Co2 0.0238(4) 0.0236(4) 0.0192(4) 0.0007(3) -0.0008(3) 0.0125(4)
N1 0.032(3) 0.031(3) 0.023(2) 0.003(2) 0.003(2) 0.020(3)
N2 0.030(3) 0.045(4) 0.043(3) -0.019(3) -0.005(3) 0.021(3)
N3 0.017(3) 0.036(3) 0.037(3) 0.006(3) 0.004(2) 0.011(2)
O1 0.033(2) 0.027(2) 0.028(2) 0.0012(18) 0.0026(19) 0.016(2)
O2 0.050(3) 0.038(3) 0.039(3) 0.011(2) 0.000(3) -0.008(3)
O3 0.028(2) 0.045(3) 0.027(2) 0.002(2) 0.0004(19) 0.022(2)
O4 0.034(3) 0.082(4) 0.035(2) 0.009(3) 0.007(2) 0.037(3)
O5 0.079(4) 0.057(4) 0.046(3) 0.022(3) 0.034(3) 0.054(3)
O6 0.034(3) 0.023(2) 0.034(2) 0.0083(19) 0.007(2) 0.017(2)
O7 0.050(3) 0.030(3) 0.025(2) -0.002(2) 0.011(2) 0.019(2)
O8 0.061(3) 0.026(3) 0.030(2) -0.0005(19) 0.001(2) 0.027(2)
C1 0.027(3) 0.020(3) 0.024(3) 0.005(2) 0.001(3) 0.012(3)
C2 0.034(4) 0.031(3) 0.017(3) 0.005(2) 0.006(2) 0.022(3)
C3 0.035(3) 0.024(3) 0.019(3) -0.001(2) -0.002(2) 0.021(3)
C4 0.031(3) 0.020(3) 0.019(3) 0.001(2) 0.001(2) 0.015(3)
C5 0.025(3) 0.029(3) 0.022(3) 0.003(3) 0.002(3) 0.015(3)
C6 0.029(3) 0.029(3) 0.016(3) -0.004(2) 0.001(2) 0.019(3)
C7 0.025(3) 0.028(3) 0.019(3) 0.006(2) 0.001(2) 0.014(3)
C8 0.044(4) 0.037(4) 0.023(3) -0.001(3) -0.006(3) 0.009(3)
C9 0.027(3) 0.025(3) 0.031(3) -0.001(3) 0.003(3) 0.014(3)
C10 0.024(3) 0.063(5) 0.031(3) 0.000(3) 0.002(3) 0.030(4)
C11 0.025(3) 0.034(4) 0.028(3) -0.003(3) -0.001(3) 0.019(3)
C12 0.034(4) 0.023(3) 0.024(3) 0.005(3) -0.001(3) 0.015(3)
C13 0.027(3) 0.042(4) 0.021(3) -0.008(3) -0.005(3) 0.025(3)
C14 0.026(4) 0.055(5) 0.070(5) -0.009(4) 0.000(4) 0.020(4)
C15 0.024(4) 0.074(6) 0.077(6) -0.009(5) 0.003(4) 0.031(4)
C16 0.027(4) 0.066(6) 0.053(5) -0.008(4) -0.003(4) 0.013(4)
C17 0.041(5) 0.053(5) 0.065(5) -0.020(4) -0.010(4) 0.021(4)
C18 0.026(4) 0.059(5) 0.060(5) -0.009(4) -0.005(4) 0.020(4)
C19 0.040(5) 0.077(7) 0.067(6) -0.011(5) -0.011(4) 0.029(5)
C20 0.025(4) 0.062(6) 0.081(7) -0.005(5) -0.013(4) 0.016(4)
C21 0.032(4) 0.058(5) 0.052(4) -0.002(4) -0.005(4) 0.015(4)
C22 0.026(4) 0.043(5) 0.096(7) -0.008(5) -0.017(4) 0.004(4)
C23 0.040(4) 0.037(4) 0.067(5) 0.012(4) 0.009(4) 0.019(4)
C24 0.027(4) 0.047(5) 0.048(4) -0.011(4) -0.010(3) 0.018(3)
C25 0.033(4) 0.047(5) 0.071(5) 0.004(4) -0.008(4) 0.015(4)
O1W 0.047(3) 0.038(3) 0.036(2) -0.002(2) -0.003(2) 0.023(2)
O2W 0.135(9) 0.144(10) 0.173(11) 0.084(9) 0.061(8) 0.072(8)
O3W 0.192(13) 0.099(8) 0.158(11) 0.005(8) 0.030(10) 0.055(8)
O4W 0.200(6) 0.200(6) 0.201(6) 0.0002(10) 0.0002(10) 0.101(3)
O5W 0.177(8) 0.177(8) 0.177(8) -0.0001(10) 0.0002(10) 0.089(4)
O6W 0.123(17) 0.21(3) 0.24(3) 0.05(2) -0.026(17) -0.015(17)
O7W 0.164(9) 0.164(9) 0.164(9) 0.0001(7) 0.0000(7) 0.082(5)
O7W' 0.164(9) 0.164(9) 0.164(9) 0.0001(7) 0.0000(7) 0.082(5)

_geom_special_details            
; 
 All esds (except the esd in the dihedral angle between two l.s. planes) 
 are estimated using the full covariance matrix.  The cell esds are taken 
 into account individually in the estimation of esds in distances, angles 
 and torsion angles; correlations between esds in cell parameters are only 
 used when they are defined by crystal symmetry.  An approximate (isotropic) 
 treatment of cell esds is used for estimating esds involving l.s. planes. 
;

loop_
_geom_bond_atom_site_label_1
_geom_bond_atom_site_label_2
_geom_bond_distance
_geom_bond_site_symmetry_2
_geom_bond_publ_flag
Co1 O5 2.012(5) 3_664 ?
Co1 O8 2.081(4) 4_664 ?
Co1 N2 2.102(6) . ?
Co1 O1 2.117(4) . ?
Co1 O4 2.130(5) 5_554 ?
Co1 O1W 2.134(5) . ?
Co2 O7 2.079(4) 4_664 ?
Co2 O1 2.085(4) . ?
Co2 O6 2.111(4) 3_664 ?
Co2 N3 2.141(5) 6_665 ?
Co2 O3 2.183(4) . ?
Co2 N1 2.210(5) . ?
N1 C8 1.476(9) . ?
N1 C7 1.487(8) . ?
N1 C10 1.489(8) . ?
N2 C14 1.337(10) . ?
N2 C18 1.362(10) . ?
N3 C23 1.332(10) . ?
N3 C24 1.339(9) . ?
N3 Co2 2.141(5) 5_454 ?
O1 C9 1.304(8) . ?
O2 C9 1.219(8) . ?
O3 C11 1.252(8) . ?
O4 C11 1.240(8) . ?
O4 Co1 2.130(5) 6 ?
O5 C12 1.254(8) . ?
O5 Co1 2.012(5) 2_655 ?
O6 C12 1.260(7) . ?
O6 Co2 2.111(4) 2_655 ?
O7 C13 1.249(8) . ?
O7 Co2 2.079(4) 4_665 ?
O8 C13 1.245(8) . ?
O8 Co1 2.081(4) 4_665 ?
C1 C2 1.383(8) . ?
C1 C6 1.391(8) . ?
C1 C12 1.514(8) . ?
C2 C3 1.388(8) . ?
C2 H2 0.9300 . ?
C3 C4 1.401(8) . ?
C3 C13 1.514(9) . ?
C4 C5 1.367(8) . ?
C4 H4 0.9300 . ?
C5 C6 1.391(9) . ?
C5 C7 1.522(8) . ?
C6 H6 0.9300 . ?
C7 H7A 0.9700 . ?
C7 H7B 0.9700 . ?
C8 C9 1.530(9) . ?
C8 H8A 0.9700 . ?
C8 H8B 0.9700 . ?
C10 C11 1.531(9) . ?
C10 H10A 0.9700 . ?
C10 H10B 0.9700 . ?
C14 C15 1.391(10) . ?
C14 H14 0.9300 . ?
C15 C16 1.408(13) . ?
C15 H15 0.9300 . ?
C16 C17 1.378(13) . ?
C16 C19 1.464(12) . ?
C17 C18 1.345(11) . ?
C17 H17 0.9300 . ?
C18 H18 0.9300 . ?
C19 C20 1.287(13) . ?
C19 H19 0.9300 . ?
C20 C21 1.470(11) . ?
C20 H20 0.9300 . ?
C21 C22 1.383(13) . ?
C21 C25 1.397(12) . ?
C22 C23 1.358(12) . ?
C22 H22 0.9300 . ?
C23 H23 0.9300 . ?
C24 C25 1.336(11) . ?
C24 H24 0.9300 . ?
C25 H25 0.9300 . ?
O1W H1WA 0.8500 . ?
O1W H1WB 0.8498 . ?
O2W H2WB 0.8500 . ?
O2W H2WA 0.8500 . ?
O3W H3WA 0.8500 . ?
O3W H3WB 0.8501 . ?
O4W H4WA 0.8500 . ?
O4W H4WB 0.8500 . ?
O5W H5WA 0.8500 . ?
O5W H5WB 0.8500 . ?
O6W H6WA 0.8500 . ?
O6W H6WB 0.8502 . ?
O7W H7WB 0.8500 . ?
O7W H7WA 0.8500 . ?
O7W' H7WC 0.8501 . ?
O7W' H7WD 0.8500 . ?

loop_
_geom_angle_atom_site_label_1
_geom_angle_atom_site_label_2
_geom_angle_atom_site_label_3
_geom_angle
_geom_angle_site_symmetry_1
_geom_angle_site_symmetry_3
_geom_angle_publ_flag
O5 Co1 O8 91.5(2) 3_664 4_664 ?
O5 Co1 N2 176.6(2) 3_664 . ?
O8 Co1 N2 88.0(2) 4_664 . ?
O5 Co1 O1 88.79(18) 3_664 . ?
O8 Co1 O1 93.00(17) 4_664 . ?
N2 Co1 O1 87.9(2) . . ?
O5 Co1 O4 86.9(3) 3_664 5_554 ?
O8 Co1 O4 174.44(19) 4_664 5_554 ?
N2 Co1 O4 93.9(2) . 5_554 ?
O1 Co1 O4 92.28(17) . 5_554 ?
O5 Co1 O1W 91.20(19) 3_664 . ?
O8 Co1 O1W 87.02(19) 4_664 . ?
N2 Co1 O1W 92.2(2) . . ?
O1 Co1 O1W 180.0(2) . . ?
O4 Co1 O1W 87.70(19) 5_554 . ?
O7 Co2 O1 99.85(17) 4_664 . ?
O7 Co2 O6 101.46(19) 4_664 3_664 ?
O1 Co2 O6 90.45(18) . 3_664 ?
O7 Co2 N3 84.20(19) 4_664 6_665 ?
O1 Co2 N3 175.88(18) . 6_665 ?
O6 Co2 N3 89.5(2) 3_664 6_665 ?
O7 Co2 O3 87.56(19) 4_664 . ?
O1 Co2 O3 84.57(18) . . ?
O6 Co2 O3 170.35(18) 3_664 . ?
N3 Co2 O3 94.9(2) 6_665 . ?
O7 Co2 N1 165.5(2) 4_664 . ?
O1 Co2 N1 81.91(19) . . ?
O6 Co2 N1 92.86(19) 3_664 . ?
N3 Co2 N1 94.0(2) 6_665 . ?
O3 Co2 N1 78.28(18) . . ?
C8 N1 C7 1