####################################################################### 
# 
# This file contains crystal structure data downloaded from the 
# Cambridge Structural Database (CSD) hosted by the Cambridge 
# Crystallographic Data Centre (CCDC).
# 
# Full information about CCDC data access policies and citation 
# guidelines are available at http://www.ccdc.cam.ac.uk/access/V1 
# 
# Audit and citation data items may have been added by the CCDC. 
# Please retain this information to preserve the provenance of 
# this file and to allow appropriate attribution of the data. 
# 
#######################################################################

data_a
_audit_block_doi                 10.5517/cc8x7cr
_database_code_depnum_ccdc_archive 'CCDC 265464'
loop_
_citation_id
_citation_doi
_citation_year
1 10.1016/j.micromeso.2005.11.046 2006
_audit_update_record             
;
2005-03-04 deposited with the CCDC.	2024-07-10 downloaded from the CCDC.
;

_audit_creation_method           SHELXL-97
_chemical_name_systematic        
;
?
;
_chemical_name_common            ?
_chemical_melting_point          ?
_chemical_formula_moiety         ?
_chemical_formula_sum            'C12 H20 Co N2 O9'
_chemical_formula_weight         395.23

loop_
_atom_type_symbol
_atom_type_description
_atom_type_scat_dispersion_real
_atom_type_scat_dispersion_imag
_atom_type_scat_source
C C 0.0033 0.0016 'International Tables Vol C Tables 4.2.6.8 and 6.1.1.4'
H H 0.0000 0.0000 'International Tables Vol C Tables 4.2.6.8 and 6.1.1.4'
N N 0.0061 0.0033 'International Tables Vol C Tables 4.2.6.8 and 6.1.1.4'
O O 0.0106 0.0060 'International Tables Vol C Tables 4.2.6.8 and 6.1.1.4'
Co Co 0.3494 0.9721 'International Tables Vol C Tables 4.2.6.8 and 6.1.1.4'

_symmetry_cell_setting           ?
_symmetry_space_group_name_H-M   ?

loop_
_symmetry_equiv_pos_as_xyz
'x, y, z'
'x, -y, z+1/2'
'x+1/2, y+1/2, z'
'x+1/2, -y+1/2, z+1/2'

_cell_length_a                   10.5245(11)
_cell_length_b                   20.292(2)
_cell_length_c                   8.1405(8)
_cell_angle_alpha                90.00
_cell_angle_beta                 102.250(2)
_cell_angle_gamma                90.00
_cell_volume                     1698.9(3)
_cell_formula_units_Z            4
_cell_measurement_temperature    173(2)
_cell_measurement_reflns_used    ?
_cell_measurement_theta_min      ?
_cell_measurement_theta_max      ?

_exptl_crystal_description       block
_exptl_crystal_colour            red
_exptl_crystal_size_max          0.42
_exptl_crystal_size_mid          0.35
_exptl_crystal_size_min          0.23
_exptl_crystal_density_meas      ?
_exptl_crystal_density_diffrn    1.545
_exptl_crystal_density_method    'not measured'
_exptl_crystal_F_000             820
_exptl_absorpt_coefficient_mu    1.058
_exptl_absorpt_correction_type   ?
_exptl_absorpt_correction_T_min  ?
_exptl_absorpt_correction_T_max  ?
_exptl_absorpt_process_details   ?

_exptl_special_details           
;
?
;

_diffrn_ambient_temperature      173(2)
_diffrn_radiation_wavelength     0.71073
_diffrn_radiation_type           MoK\a
_diffrn_radiation_source         'fine-focus sealed tube'
_diffrn_radiation_monochromator  graphite
_diffrn_measurement_device_type  'CCD area detector'
_diffrn_measurement_method       'phi and omega scans'
_diffrn_detector_area_resol_mean ?
_diffrn_standards_number         ?
_diffrn_standards_interval_count ?
_diffrn_standards_interval_time  ?
_diffrn_standards_decay_%        ?
_diffrn_reflns_number            2510
_diffrn_reflns_av_R_equivalents  0.0188
_diffrn_reflns_av_sigmaI/netI    0.0283
_diffrn_reflns_limit_h_min       -4
_diffrn_reflns_limit_h_max       12
_diffrn_reflns_limit_k_min       -21
_diffrn_reflns_limit_k_max       24
_diffrn_reflns_limit_l_min       -9
_diffrn_reflns_limit_l_max       9
_diffrn_reflns_theta_min         2.01
_diffrn_reflns_theta_max         25.03
_reflns_number_total             1596
_reflns_number_gt                1541
_reflns_threshold_expression     >2sigma(I)

_computing_data_collection       'Bruker SMART'
_computing_cell_refinement       'Bruker SMART'
_computing_data_reduction        'Bruker SHELXTL'
_computing_structure_solution    'SHELXS-97 (Sheldrick, 1990)'
_computing_structure_refinement  'SHELXL-97 (Sheldrick, 1997)'
_computing_molecular_graphics    'Bruker SHELXTL'
_computing_publication_material  'Bruker SHELXTL'

_refine_special_details          
;
Refinement of F^2^ against ALL reflections. The weighted R-factor wR and
goodness of fit S are based on F^2^, conventional R-factors R are based
on F, with F set to zero for negative F^2^. The threshold expression of
F^2^ > 2sigma(F^2^) is used only for calculating R-factors(gt) etc. and is
not relevant to the choice of reflections for refinement. R-factors based
on F^2^ are statistically about twice as large as those based on F, and R-
factors based on ALL data will be even larger.
;

_refine_ls_structure_factor_coef Fsqd
_refine_ls_matrix_type           full
_refine_ls_weighting_scheme      calc
_refine_ls_weighting_details     
'calc w=1/[\s^2^(Fo^2^)+(0.0739P)^2^+2.6892P] where P=(Fo^2^+2Fc^2^)/3'
_atom_sites_solution_primary     direct
_atom_sites_solution_secondary   difmap
_atom_sites_solution_hydrogens   geom
_refine_ls_hydrogen_treatment    mixed
_refine_ls_extinction_method     SHELXL
_refine_ls_extinction_coef       0.0195(19)
_refine_ls_extinction_expression Fc^*^=kFc[1+0.001xFc^2^\l^3^/sin(2\q)]^-1/4^
_refine_ls_abs_structure_details 'Flack H D (1983), Acta Cryst. A39, 876-881'
_refine_ls_abs_structure_Flack   0.00
_refine_ls_number_reflns         1596
_refine_ls_number_parameters     234
_refine_ls_number_restraints     2
_refine_ls_R_factor_all          0.0389
_refine_ls_R_factor_gt           0.0367
_refine_ls_wR_factor_ref         0.1068
_refine_ls_wR_factor_gt          0.1033
_refine_ls_goodness_of_fit_ref   1.055
_refine_ls_restrained_S_all      1.054
_refine_ls_shift/su_max          0.697
_refine_ls_shift/su_mean         0.003

loop_
_atom_site_label
_atom_site_type_symbol
_atom_site_fract_x
_atom_site_fract_y
_atom_site_fract_z
_atom_site_U_iso_or_equiv
_atom_site_adp_type
_atom_site_occupancy
_atom_site_symmetry_multiplicity
_atom_site_calc_flag
_atom_site_refinement_flags
_atom_site_disorder_assembly
_atom_site_disorder_group
Co1 Co 0.45406(13) 0.25374(3) 0.37208(14) 0.0203(3) Uani 1 1 d . . .
O3 O 0.2962(4) 0.20260(19) 0.2226(5) 0.0295(9) Uani 1 1 d . . .
O1 O 0.5250(4) 0.2834(2) 0.1625(5) 0.0324(10) Uani 1 1 d . . .
N1 N 0.3562(5) 0.3469(2) 0.3657(6) 0.0265(11) Uani 1 1 d . . .
N2 N 0.0511(5) 0.6599(2) 0.3821(6) 0.0292(11) Uani 1 1 d . . .
C1 C 0.2441(7) 0.3546(3) 0.4202(9) 0.0340(14) Uani 1 1 d . . .
H1 H 0.2063 0.3165 0.4583 0.041 Uiso 1 1 calc R . .
C2 C 0.4053(7) 0.4024(3) 0.3137(10) 0.0379(16) Uani 1 1 d . . .
H2 H 0.4834 0.3993 0.2734 0.045 Uiso 1 1 calc R . .
C5 C 0.2340(6) 0.4707(3) 0.3724(8) 0.0274(14) Uani 1 1 d . . .
C6 C 0.1718(6) 0.5361(3) 0.3790(8) 0.0276(13) Uani 1 1 d . . .
C10 C -0.0050(6) 0.6041(3) 0.4148(9) 0.0340(15) Uani 1 1 d . . .
H10 H -0.0886 0.6071 0.4409 0.041 Uiso 1 1 calc R . .
C4 C 0.1824(6) 0.4131(3) 0.4237(8) 0.0342(15) Uani 1 1 d . . .
H4 H 0.1030 0.4147 0.4616 0.041 Uiso 1 1 calc R . .
C8 C 0.2340(7) 0.5941(3) 0.3458(9) 0.0345(15) Uani 1 1 d . . .
H8 H 0.3185 0.5927 0.3219 0.041 Uiso 1 1 calc R . .
C7 C 0.0482(6) 0.5428(3) 0.4139(9) 0.0358(15) Uani 1 1 d . . .
H7 H 0.0015 0.5050 0.4368 0.043 Uiso 1 1 calc R . .
O5 O 0.3927(6) 0.2313(3) 0.5917(8) 0.0366(13) Uani 1 1 d . . .
O8 O 0.0588(8) 0.0758(4) 0.2294(12) 0.107(3) Uani 1 1 d . . .
O7 O 0.3531(6) 0.0922(3) 0.0136(7) 0.0552(14) Uani 1 1 d . . .
C9 C 0.1703(6) 0.6535(3) 0.3485(8) 0.0287(13) Uani 1 1 d . . .
H9 H 0.2136 0.6924 0.3252 0.034 Uiso 1 1 calc R . .
C3 C 0.3486(7) 0.4636(3) 0.3156(10) 0.0381(16) Uani 1 1 d . . .
H3 H 0.3882 0.5011 0.2778 0.046 Uiso 1 1 calc R . .
O4 O 0.1174(4) 0.19857(19) 0.0211(5) 0.0293(10) Uani 1 1 d . . .
C11 C 0.1953(7) 0.2276(2) 0.1349(8) 0.0255(12) Uani 1 1 d . . .
O9 O 0.2452(5) 0.1356(2) 0.6937(6) 0.0470(11) Uani 1 1 d . . .
O2 O 0.5112(6) 0.2884(3) -0.1129(6) 0.0563(14) Uani 1 1 d . . .
C12 C 0.4877(7) 0.2632(3) 0.0127(9) 0.0329(14) Uani 1 1 d . . .
O6 O 0.6884(8) 0.4838(3) 0.0187(10) 0.090(2) Uani 1 1 d . . .
H5 H 0.174(5) 0.270(3) 0.144(6) 0.006(13) Uiso 1 1 d . . .
H6 H 0.431(7) 0.224(4) 0.011(8) 0.035(18) Uiso 1 1 d . . .
H17 H 0.346(8) 0.194(5) 0.599(10) 0.05(2) Uiso 1 1 d . . .
H19 H 0.415(7) 0.244(3) 0.649(10) 0.00(2) Uiso 1 1 d . . .

loop_
_atom_site_aniso_label
_atom_site_aniso_U_11
_atom_site_aniso_U_22
_atom_site_aniso_U_33
_atom_site_aniso_U_23
_atom_site_aniso_U_13
_atom_site_aniso_U_12
Co1 0.0190(3) 0.0198(4) 0.0203(4) -0.0012(3) 0.0000(2) 0.0025(3)
O3 0.026(2) 0.025(2) 0.033(2) -0.0024(17) -0.0047(19) 0.0036(17)
O1 0.035(2) 0.030(2) 0.031(2) -0.0011(17) 0.0063(19) -0.0014(18)
N1 0.024(2) 0.026(2) 0.027(2) -0.0040(19) 0.000(2) 0.0040(19)
N2 0.028(3) 0.027(2) 0.031(3) -0.0011(19) 0.005(2) 0.003(2)
C1 0.034(4) 0.023(3) 0.047(4) 0.001(3) 0.012(3) -0.001(3)
C2 0.036(4) 0.024(3) 0.058(4) 0.003(3) 0.020(3) 0.005(2)
C5 0.031(4) 0.022(3) 0.027(3) -0.002(2) 0.001(3) 0.004(2)
C6 0.027(4) 0.024(3) 0.031(3) -0.001(2) 0.004(3) 0.005(2)
C10 0.025(3) 0.024(3) 0.054(4) 0.003(2) 0.010(3) 0.005(2)
C4 0.029(3) 0.030(3) 0.047(4) 0.003(3) 0.017(3) 0.006(2)
C8 0.030(4) 0.028(3) 0.046(4) 0.009(3) 0.008(3) 0.003(2)
C7 0.031(3) 0.026(3) 0.052(4) 0.004(3) 0.010(3) -0.001(2)
O5 0.048(3) 0.037(3) 0.024(3) -0.005(2) 0.004(2) -0.010(3)
O8 0.085(6) 0.094(6) 0.134(8) 0.057(5) 0.004(5) -0.031(5)
O7 0.062(4) 0.047(3) 0.058(3) -0.001(2) 0.015(3) 0.011(3)
C9 0.026(3) 0.018(3) 0.043(3) 0.002(2) 0.009(3) 0.005(2)
C3 0.038(4) 0.023(3) 0.058(4) 0.005(3) 0.021(3) 0.004(3)
O4 0.027(2) 0.024(2) 0.031(2) -0.0023(16) -0.0083(19) 0.0017(16)
C11 0.023(3) 0.019(2) 0.031(3) 0.000(3) -0.002(2) 0.000(3)
O9 0.051(3) 0.041(3) 0.051(3) 0.004(2) 0.016(2) -0.003(2)
O2 0.074(4) 0.062(3) 0.034(3) -0.005(2) 0.015(2) -0.020(3)
C12 0.040(4) 0.035(3) 0.025(3) -0.001(3) 0.009(3) 0.002(3)
O6 0.109(6) 0.061(4) 0.093(5) 0.015(4) 0.005(4) -0.010(4)

_geom_special_details            
;
All esds (except the esd in the dihedral angle between two l.s. planes)
are estimated using the full covariance matrix. The cell esds are taken
into account individually in the estimation of esds in distances, angles
and torsion angles; correlations between esds in cell parameters are only
used when they are defined by crystal symmetry. An approximate (isotropic)
treatment of cell esds is used for estimating esds involving l.s. planes.
;

loop_
_geom_bond_atom_site_label_1
_geom_bond_atom_site_label_2
_geom_bond_distance
_geom_bond_site_symmetry_2
_geom_bond_publ_flag
Co1 O5 2.076(6) . ?
Co1 O1 2.091(5) . ?
Co1 O3 2.112(4) . ?
Co1 O4 2.116(4) 4 ?
Co1 N1 2.149(5) . ?
Co1 N2 2.154(5) 3_545 ?
O3 C11 1.254(8) . ?
O1 C12 1.267(8) . ?
N1 C2 1.345(8) . ?
N1 C1 1.354(8) . ?
N2 C10 1.331(8) . ?
N2 C9 1.346(8) . ?
N2 Co1 2.154(5) 3_455 ?
C1 C4 1.357(9) . ?
C2 C3 1.379(9) . ?
C5 C4 1.390(8) . ?
C5 C3 1.387(9) . ?
C5 C6 1.487(7) . ?
C6 C7 1.396(9) . ?
C6 C8 1.401(9) . ?
C10 C7 1.364(9) . ?
C8 C9 1.381(8) . ?
O4 C11 1.247(8) . ?
O4 Co1 2.116(4) 4_454 ?
O2 C12 1.215(9) . ?

loop_
_geom_angle_atom_site_label_1
_geom_angle_atom_site_label_2
_geom_angle_atom_site_label_3
_geom_angle
_geom_angle_site_symmetry_1
_geom_angle_site_symmetry_3
_geom_angle_publ_flag
O5 Co1 O1 174.9(2) . . ?
O5 Co1 O3 92.2(2) . . ?
O1 Co1 O3 92.56(18) . . ?
O5 Co1 O4 88.3(2) . 4 ?
O1 Co1 O4 87.09(18) . 4 ?
O3 Co1 O4 177.53(19) . 4 ?
O5 Co1 N1 88.8(2) . . ?
O1 Co1 N1 88.83(18) . . ?
O3 Co1 N1 95.97(18) . . ?
O4 Co1 N1 86.47(18) 4 . ?
O5 Co1 N2 90.3(2) . 3_545 ?
O1 Co1 N2 92.09(19) . 3_545 ?
O3 Co1 N2 84.05(18) . 3_545 ?
O4 Co1 N2 93.53(18) 4 3_545 ?
N1 Co1 N2 179.1(3) . 3_545 ?
C11 O3 Co1 126.6(4) . . ?
C12 O1 Co1 126.9(4) . . ?
C2 N1 C1 115.3(5) . . ?
C2 N1 Co1 122.1(4) . . ?
C1 N1 Co1 122.6(4) . . ?
C10 N2 C9 115.5(5) . . ?
C10 N2 Co1 122.2(4) . 3_455 ?
C9 N2 Co1 122.2(4) . 3_455 ?
N1 C1 C4 124.1(6) . . ?
N1 C2 C3 123.7(6) . . ?
C4 C5 C3 115.9(5) . . ?
C4 C5 C6 122.5(5) . . ?
C3 C5 C6 121.6(5) . . ?
C7 C6 C8 116.8(5) . . ?
C7 C6 C5 122.0(5) . . ?
C8 C6 C5 121.1(5) . . ?
N2 C10 C7 125.1(6) . . ?
C1 C4 C5 120.7(6) . . ?
C9 C8 C6 118.8(6) . . ?
C10 C7 C6 119.4(6) . . ?
N2 C9 C8 124.3(6) . . ?
C2 C3 C5 120.3(6) . . ?
C11 O4 Co1 122.4(4) . 4_454 ?
O4 C11 O3 125.1(5) . . ?
O2 C12 O1 126.6(7) . . ?

_diffrn_measured_fraction_theta_max 0.984
_diffrn_reflns_theta_full        25.03
_diffrn_measured_fraction_theta_full 0.984
_refine_diff_density_max         0.348
_refine_diff_density_min         -0.536
_refine_diff_density_rms         0.074
