
#######################################################################
#
#                 Cambridge Crystallographic Data Centre
#                                CCDC
#
#######################################################################
#
# If this CIF has been generated from an entry in the Cambridge
# Structural Database, then it will include bibliographic, chemical,
# crystal, experimental, refinement or atomic coordinate data resulting
# from the CCDC's data processing and validation procedures.
#
#######################################################################

data_CSD_CIF_FIGKOV
_audit_creation_date 1988-01-14
_audit_creation_method CSD-ConQuest-V1
_database_code_CSD FIGKOV
_database_code_depnum_ccdc_archive 'CCDC 1156091'
_chemical_formula_sum 'C24 H24 Br4 Ga2'
_chemical_formula_moiety
;
C24 H24,Ga1 1+,Br4 Ga1 1-
;
_journal_coden_Cambridge 179
_journal_volume 26
_journal_year 1987
_journal_page_first 338
_journal_name_full 'Angew.Chem.,Int.Ed. '
loop_
_publ_author_name
"H.Schmidbaur"
"R.Hager"
"B.Huber"
"G.Muller"
_chemical_name_systematic
;
Gallium (2.2.2)paracyclophane tetrabromo-gallium
;
_chemical_name_common
;
Teaching Subset: Fundamental Chemistry
;
_cell_volume   2602.191
_exptl_crystal_colour 'colorless'
_exptl_crystal_density_diffrn 1.969
_exptl_special_details
;
Slightly air-sensitive

;
_diffrn_ambient_temperature ?
_diffrn_special_details
;
The study was carried out at room temperature,in the range 283-303K

;
#These two values have been output from a single CSD field.
_refine_ls_R_factor_gt 0.03
_refine_ls_wR_factor_gt 0.03
_symmetry_cell_setting monoclinic
_symmetry_space_group_name_H-M 'P 21/c'
_symmetry_Int_Tables_number 14
loop_
_symmetry_equiv_pos_site_id
_symmetry_equiv_pos_as_xyz
1 x,y,z
2 -x,1/2+y,1/2-z
3 -x,-y,-z
4 x,-1/2-y,-1/2+z
_cell_length_a 13.741(1)
_cell_length_b 11.856(1)
_cell_length_c 15.973(3)
_cell_angle_alpha 90
_cell_angle_beta 90.24(1)
_cell_angle_gamma 90
_cell_formula_units_Z 4
loop_
_atom_type_symbol
_atom_type_radius_bond
C 0.68
H 0.23
Br 1.21
Ga 1.22
loop_
_atom_site_label
_atom_site_type_symbol
_atom_site_fract_x
_atom_site_fract_y
_atom_site_fract_z
Ga1 Ga 0.2731(1) 0.0658(1) 0.0790(1)
Br1 Br 0.2784(1) 0.1368(1) 0.2152(1)
Br2 Br 0.3365(1) -0.1154(1) 0.0771(1)
Br3 Br 0.3660(1) 0.1704(1) -0.0131(1)
Br4 Br 0.1125(1) 0.0650(1) 0.0366(1)
Ga2 Ga 0.2372(1) -0.3527(1) 0.1588(1)
C1 C 0.1489(6) -0.4747(9) 0.0150(6)
C2 C 0.1401(6) -0.3596(9) -0.0032(5)
C3 C 0.0816(6) -0.2866(9) 0.0438(6)
C4 C 0.0293(6) -0.3287(10) 0.1101(6)
C5 C 0.0318(6) -0.4441(10) 0.1262(6)
C6 C 0.0921(6) -0.5147(8) 0.0785(6)
C7 C -0.0276(6) -0.2488(9) 0.1652(6)
C8 C -0.0087(6) -0.2568(9) 0.2598(6)
C9 C 0.0967(6) -0.2638(11) 0.2881(6)
C10 C 0.1322(6) -0.3591(10) 0.3284(6)
C11 C 0.2294(8) -0.3696(9) 0.3490(5)
C12 C 0.2949(6) -0.2819(10) 0.3282(6)
C13 C 0.2582(8) -0.1862(9) 0.2919(6)
C14 C 0.1607(8) -0.1779(9) 0.2720(6)
C15 C 0.4053(6) -0.3013(10) 0.3429(6)
C16 C 0.4468(6) -0.4178(10) 0.3165(6)
C17 C 0.4241(6) -0.4468(9) 0.2269(6)
C18 C 0.4538(6) -0.3798(9) 0.1598(6)
C19 C 0.4252(6) -0.4061(9) 0.0783(6)
C20 C 0.3666(6) -0.4960(9) 0.0599(6)
C21 C 0.3444(6) -0.5689(8) 0.1258(6)
C22 C 0.3726(8) -0.5432(9) 0.2066(6)
C23 C 0.3250(6) -0.5132(8) -0.0280(6)
C24 C 0.2181(8) -0.5490(8) -0.0334(6)
H1 H 0.18100 -0.32700 -0.05290
H2 H 0.07600 -0.20210 0.02740
H3 H 0.00290 -0.48020 0.17880
H4 H 0.09630 -0.60420 0.10620
H5 H -0.00800 -0.16340 0.15010
H6 H -0.10080 -0.25100 0.15450
H7 H -0.04270 -0.19000 0.29080
H8 H -0.04560 -0.32790 0.27950
H9 H 0.08380 -0.42120 0.34290
H10 H 0.26040 -0.43560 0.37860
H11 H 0.30800 -0.12080 0.27980
H12 H 0.13540 -0.09710 0.24880
H13 H 0.44100 -0.24070 0.30930
H14 H 0.41990 -0.28670 0.40470
H15 H 0.51880 -0.42010 0.32720
H16 H 0.41500 -0.47790 0.35520
H17 H 0.49680 -0.31060 0.17330
H18 H 0.44960 -0.35510 0.02990
H19 H 0.30690 -0.64280 0.11400
H20 H 0.35450 -0.59950 0.25620
H21 H 0.33750 -0.43380 -0.06460
H22 H 0.36020 -0.57830 -0.05790
H23 H 0.19350 -0.56230 -0.09830
H24 H 0.21450 -0.62420 -0.00430
#END
