####################################################################### 
# 
# This file contains crystal structure data downloaded from the 
# Cambridge Structural Database (CSD) hosted by the Cambridge 
# Crystallographic Data Centre (CCDC).
# 
# Full information about CCDC data access policies and citation 
# guidelines are available at http://www.ccdc.cam.ac.uk/access/V1 
# 
# Audit and citation data items may have been added by the CCDC. 
# Please retain this information to preserve the provenance of 
# this file and to allow appropriate attribution of the data. 
# 
#######################################################################

data_Ni
_audit_block_doi                 10.5517/cczp06v
_database_code_depnum_ccdc_archive 'CCDC 913917'
loop_
_citation_id
_citation_doi
_citation_year
1 10.1016/j.ica.2013.05.015 2013
_audit_update_record             
;
2012-12-04 deposited with the CCDC.	2024-07-10 downloaded from the CCDC.
;
#TrackingRef 'Ni.cif'


_audit_creation_method           SHELXL-97
_chemical_name_systematic        
;
?
;
_chemical_name_common            ?
_chemical_melting_point          ?
_chemical_formula_moiety         ?
_chemical_formula_sum            'C23 H20 N Ni O6'
_chemical_formula_weight         465.11

loop_
_atom_type_symbol
_atom_type_description
_atom_type_scat_dispersion_real
_atom_type_scat_dispersion_imag
_atom_type_scat_source
C C 0.0033 0.0016 'International Tables Vol C Tables 4.2.6.8 and 6.1.1.4'
H H 0.0000 0.0000 'International Tables Vol C Tables 4.2.6.8 and 6.1.1.4'
N N 0.0061 0.0033 'International Tables Vol C Tables 4.2.6.8 and 6.1.1.4'
Ni Ni 0.3393 1.1124 'International Tables Vol C Tables 4.2.6.8 and 6.1.1.4'
O O 0.0106 0.0060 'International Tables Vol C Tables 4.2.6.8 and 6.1.1.4'

_symmetry_cell_setting           ?
_symmetry_space_group_name_H-M   ?

loop_
_symmetry_equiv_pos_as_xyz
'x, y, z'
'-x, -y, -z'

_cell_length_a                   12.6370(12)
_cell_length_b                   14.2041(14)
_cell_length_c                   15.2945(15)
_cell_angle_alpha                106.791(9)
_cell_angle_beta                 113.403(9)
_cell_angle_gamma                97.220(8)
_cell_volume                     2320.0(4)
_cell_formula_units_Z            4
_cell_measurement_temperature    293(2)
_cell_measurement_reflns_used    ?
_cell_measurement_theta_min      ?
_cell_measurement_theta_max      ?

_exptl_crystal_description       ?
_exptl_crystal_colour            ?
_exptl_crystal_size_max          0.23
_exptl_crystal_size_mid          0.17
_exptl_crystal_size_min          0.06
_exptl_crystal_density_meas      ?
_exptl_crystal_density_diffrn    1.332
_exptl_crystal_density_method    'not measured'
_exptl_crystal_F_000             964
_exptl_absorpt_coefficient_mu    0.873
_exptl_absorpt_correction_type   ?
_exptl_absorpt_correction_T_min  0.8245
_exptl_absorpt_correction_T_max  0.9495
_exptl_absorpt_process_details   ?

_exptl_special_details           
;
?
;

_diffrn_ambient_temperature      293(2)
_diffrn_radiation_wavelength     0.71073
_diffrn_radiation_type           MoK\a
_diffrn_radiation_source         'fine-focus sealed tube'
_diffrn_radiation_monochromator  graphite
_diffrn_measurement_device_type  ?
_diffrn_measurement_method       ?
_diffrn_detector_area_resol_mean ?
_diffrn_standards_number         ?
_diffrn_standards_interval_count ?
_diffrn_standards_interval_time  ?
_diffrn_standards_decay_%        ?
_diffrn_reflns_number            16136
_diffrn_reflns_av_R_equivalents  0.0831
_diffrn_reflns_av_sigmaI/netI    0.1910
_diffrn_reflns_limit_h_min       -15
_diffrn_reflns_limit_h_max       13
_diffrn_reflns_limit_k_min       -17
_diffrn_reflns_limit_k_max       17
_diffrn_reflns_limit_l_min       -15
_diffrn_reflns_limit_l_max       18
_diffrn_reflns_theta_min         2.58
_diffrn_reflns_theta_max         26.00
_reflns_number_total             9108
_reflns_number_gt                4581
_reflns_threshold_expression     >2sigma(I)

_computing_data_collection       ?
_computing_cell_refinement       ?
_computing_data_reduction        ?
_computing_structure_solution    'SHELXS-97 (Sheldrick, 1990)'
_computing_structure_refinement  'SHELXL-97 (Sheldrick, 1997)'
_computing_molecular_graphics    ?
_computing_publication_material  ?

_refine_special_details          
;
Refinement of F^2^ against ALL reflections. The weighted R-factor wR and
goodness of fit S are based on F^2^, conventional R-factors R are based
on F, with F set to zero for negative F^2^. The threshold expression of
F^2^ > 2sigma(F^2^) is used only for calculating R-factors(gt) etc. and is
not relevant to the choice of reflections for refinement. R-factors based
on F^2^ are statistically about twice as large as those based on F, and R-
factors based on ALL data will be even larger.
;

_refine_ls_structure_factor_coef Fsqd
_refine_ls_matrix_type           full
_refine_ls_weighting_scheme      calc
_refine_ls_weighting_details     
'calc w=1/[\s^2^(Fo^2^)+(0.0000P)^2^+0.0000P] where P=(Fo^2^+2Fc^2^)/3'
_atom_sites_solution_primary     direct
_atom_sites_solution_secondary   difmap
_atom_sites_solution_hydrogens   geom
_refine_ls_hydrogen_treatment    mixed
_refine_ls_extinction_method     none
_refine_ls_extinction_coef       ?
_refine_ls_number_reflns         9108
_refine_ls_number_parameters     561
_refine_ls_number_restraints     39
_refine_ls_R_factor_all          0.1510
_refine_ls_R_factor_gt           0.0728
_refine_ls_wR_factor_ref         0.1202
_refine_ls_wR_factor_gt          0.0996
_refine_ls_goodness_of_fit_ref   0.946
_refine_ls_restrained_S_all      0.961
_refine_ls_shift/su_max          0.000
_refine_ls_shift/su_mean         0.000

loop_
_atom_site_label
_atom_site_type_symbol
_atom_site_fract_x
_atom_site_fract_y
_atom_site_fract_z
_atom_site_U_iso_or_equiv
_atom_site_adp_type
_atom_site_occupancy
_atom_site_symmetry_multiplicity
_atom_site_calc_flag
_atom_site_refinement_flags
_atom_site_disorder_assembly
_atom_site_disorder_group
Ni1 Ni 0.11964(7) 0.53372(6) 1.06512(5) 0.0183(2) Uani 1 1 d . . .
O1 O 0.1297(3) 0.4154(3) 0.9600(3) 0.0203(9) Uani 1 1 d . . .
O2 O -0.0704(4) 0.3578(3) 0.8549(3) 0.0235(10) Uani 1 1 d . . .
O3 O 0.0768(4) 0.0032(3) 0.6141(3) 0.0272(10) Uani 1 1 d . . .
O4 O 0.1048(4) -0.1557(3) 0.6907(3) 0.0257(10) Uani 1 1 d . . .
O5 O 0.1920(4) -0.3624(3) 1.0223(3) 0.0246(10) Uani 1 1 d . . .
O6 O -0.0035(4) -0.4285(3) 0.9227(3) 0.0231(10) Uani 1 1 d . . .
N1 N 0.2583(4) 0.5293(4) 1.1911(3) 0.0190(12) Uani 1 1 d . . .
C1 C 0.0372(5) 0.3523(4) 0.8809(4) 0.0190(14) Uani 1 1 d . . .
C2 C 0.0534(5) 0.2622(5) 0.8098(4) 0.0200(14) Uani 1 1 d . . .
C3 C -0.0455(5) 0.1969(4) 0.7179(4) 0.0241(15) Uani 1 1 d . . .
H3 H -0.1196 0.2110 0.6993 0.029 Uiso 1 1 calc R . .
C4 C -0.0334(5) 0.1116(4) 0.6548(4) 0.0224(14) Uani 1 1 d . . .
H4 H -0.0991 0.0682 0.5937 0.027 Uiso 1 1 calc R . .
C5 C 0.0788(6) 0.0908(4) 0.6835(4) 0.0211(14) Uani 1 1 d . . .
C6 C 0.1764(6) 0.1563(4) 0.7722(4) 0.0239(15) Uani 1 1 d . . .
H6 H 0.2511 0.1436 0.7900 0.029 Uiso 1 1 calc R . .
C7 C 0.1635(5) 0.2421(4) 0.8360(4) 0.0221(14) Uani 1 1 d . . .
H7 H 0.2296 0.2859 0.8966 0.027 Uiso 1 1 calc R . .
C8 C 0.1824(6) -0.0303(5) 0.6404(5) 0.0274(16) Uani 1 1 d . . .
H8A H 0.2502 0.0269 0.6628 0.033 Uiso 1 1 calc R . .
H8B H 0.1754 -0.0823 0.5795 0.033 Uiso 1 1 calc R . .
C9 C 0.2076(5) -0.0739(4) 0.7248(4) 0.0224(15) Uani 1 1 d . . .
H9A H 0.2781 -0.0989 0.7370 0.027 Uiso 1 1 calc R . .
H9B H 0.2216 -0.0214 0.7883 0.027 Uiso 1 1 calc R . .
C10 C 0.1056(6) -0.2037(5) 0.7549(4) 0.0212(14) Uani 1 1 d . . .
C11 C 0.2046(5) -0.1780(5) 0.8505(4) 0.0273(15) Uani 1 1 d . . .
H11 H 0.2725 -0.1260 0.8723 0.033 Uiso 1 1 calc R . .
C12 C 0.1994(5) -0.2325(5) 0.9131(4) 0.0282(16) Uani 1 1 d . . .
H12 H 0.2646 -0.2163 0.9767 0.034 Uiso 1 1 calc R . .
C13 C 0.0976(5) -0.3105(4) 0.8806(4) 0.0203(14) Uani 1 1 d . . .
C14 C 0.0001(5) -0.3332(4) 0.7847(4) 0.0224(14) Uani 1 1 d . . .
H14 H -0.0690 -0.3842 0.7624 0.027 Uiso 1 1 calc R . .
C15 C 0.0057(5) -0.2807(4) 0.7234(4) 0.0236(15) Uani 1 1 d . . .
H15 H -0.0591 -0.2975 0.6594 0.028 Uiso 1 1 calc R . .
C16 C 0.0949(6) -0.3706(5) 0.9458(4) 0.0217(14) Uani 1 1 d . . .
C17 C 0.3120(6) 0.6088(5) 1.2793(5) 0.0281(16) Uani 1 1 d . . .
H17 H 0.2931 0.6704 1.2817 0.034 Uiso 1 1 calc R . .
C18 C 0.3960(6) 0.6025(6) 1.3688(5) 0.0387(19) Uani 1 1 d . . .
H18 H 0.4322 0.6596 1.4296 0.046 Uiso 1 1 calc R . .
C19 C 0.2861(6) 0.4422(5) 1.1892(5) 0.0297(16) Uani 1 1 d . . .
H19 H 0.2478 0.3863 1.1274 0.036 Uiso 1 1 calc R . .
C20 C 0.3679(6) 0.4296(6) 1.2729(5) 0.0408(19) Uani 1 1 d . . .
H20 H 0.3852 0.3670 1.2672 0.049 Uiso 1 1 calc R . .
C21 C 0.4256(6) 0.5122(6) 1.3676(5) 0.0361(18) Uani 1 1 d U . .
C22 C 0.5227(6) 0.5079(6) 1.4649(5) 0.054(2) Uani 1 1 d DU . .
H22A H 0.5331 0.4403 1.4373 0.065 Uiso 1 1 calc R . .
C23 C 0.6425(6) 0.5730(6) 1.5009(5) 0.058(2) Uani 1 1 d U . .
H23A H 0.7005 0.5550 1.5520 0.086 Uiso 1 1 calc R . .
H23B H 0.6448 0.6433 1.5301 0.086 Uiso 1 1 calc R . .
H23C H 0.6606 0.5634 1.4441 0.086 Uiso 1 1 calc R . .
Ni2 Ni 0.41740(7) -0.04181(6) 0.40271(6) 0.0225(2) Uani 1 1 d . . .
O7 O 0.5273(4) 0.1494(3) 0.6742(3) 0.0246(10) Uani 1 1 d . . .
O8 O 0.3948(4) 0.0730(3) 0.5092(3) 0.0274(11) Uani 1 1 d . . .
O9 O 0.1157(3) 0.3733(3) 0.6541(3) 0.0264(10) Uani 1 1 d . . .
O10 O 0.1705(4) 0.5658(3) 0.6401(3) 0.0279(11) Uani 1 1 d . . .
O11 O 0.4802(4) 0.9295(3) 0.6094(3) 0.0261(10) Uani 1 1 d . . .
O12 O 0.3420(4) 0.8543(3) 0.4435(3) 0.0258(10) Uani 1 1 d . . .
N2 N 0.2741(4) -0.0398(4) 0.2837(3) 0.0198(12) Uani 1 1 d . . .
C24 C 0.4267(6) 0.1363(5) 0.5979(5) 0.0257(15) Uani 1 1 d . . .
C25 C 0.3461(5) 0.2002(5) 0.6148(4) 0.0196(14) Uani 1 1 d . . .
C26 C 0.3884(5) 0.2843(4) 0.7069(4) 0.0228(15) Uani 1 1 d . . .
H26 H 0.4669 0.3005 0.7574 0.027 Uiso 1 1 calc R . .
C27 C 0.3130(5) 0.3436(4) 0.7226(4) 0.0238(15) Uani 1 1 d . . .
H27 H 0.3405 0.3987 0.7841 0.029 Uiso 1 1 calc R . .
C28 C 0.1982(5) 0.3201(5) 0.6471(5) 0.0223(14) Uani 1 1 d . . .
C29 C 0.1527(5) 0.2367(4) 0.5543(4) 0.0197(14) Uani 1 1 d . . .
H29 H 0.0743 0.2213 0.5040 0.024 Uiso 1 1 calc R . .
C30 C 0.2277(5) 0.1779(5) 0.5397(4) 0.0244(15) Uani 1 1 d . . .
H30 H 0.1991 0.1222 0.4784 0.029 Uiso 1 1 calc R . .
C31 C 0.1546(6) 0.4677(4) 0.7382(4) 0.0275(16) Uani 1 1 d . . .
H31A H 0.1982 0.4578 0.8017 0.033 Uiso 1 1 calc R . .
H31B H 0.0850 0.4886 0.7397 0.033 Uiso 1 1 calc R . .
C32 C 0.2338(6) 0.5517(5) 0.7320(5) 0.0295(16) Uani 1 1 d . . .
H32A H 0.2572 0.6146 0.7900 0.035 Uiso 1 1 calc R . .
H32B H 0.3059 0.5333 0.7340 0.035 Uiso 1 1 calc R . .
C33 C 0.2286(5) 0.6365(5) 0.6185(5) 0.0241(15) Uani 1 1 d . . .
C34 C 0.3449(6) 0.6972(5) 0.6828(5) 0.0304(16) Uani 1 1 d . . .
H34 H 0.3891 0.6902 0.7446 0.036 Uiso 1 1 calc R . .
C35 C 0.3955(6) 0.7689(5) 0.6544(5) 0.0258(15) Uani 1 1 d . . .
H35 H 0.4730 0.8107 0.6987 0.031 Uiso 1 1 calc R . .
C36 C 0.3325(6) 0.7789(5) 0.5613(4) 0.0242(15) Uani 1 1 d . . .
C37 C 0.2167(6) 0.7155(5) 0.4968(5) 0.0297(16) Uani 1 1 d . . .
H37 H 0.1739 0.7206 0.4337 0.036 Uiso 1 1 calc R . .
C38 C 0.1634(6) 0.6449(5) 0.5240(5) 0.0341(17) Uani 1 1 d . . .
H38 H 0.0855 0.6038 0.4801 0.041 Uiso 1 1 calc R . .
C39 C 0.3894(6) 0.8606(5) 0.5364(5) 0.0227(15) Uani 1 1 d . . .
C40 C 0.2361(6) 0.0457(5) 0.2920(5) 0.0316(17) Uani 1 1 d . . .
H40 H 0.2763 0.1011 0.3541 0.038 Uiso 1 1 calc R . .
C41 C 0.1413(7) 0.0547(6) 0.2136(5) 0.046(2) Uani 1 1 d . . .
H41 H 0.1170 0.1144 0.2223 0.055 Uiso 1 1 calc R . .
C42 C 0.0821(6) -0.0287(6) 0.1198(6) 0.045(2) Uani 1 1 d . . .
C43 C 0.1202(6) -0.1163(5) 0.1116(5) 0.0353(18) Uani 1 1 d . . .
H43 H 0.0811 -0.1731 0.0506 0.042 Uiso 1 1 calc R . .
C44 C 0.2175(6) -0.1191(5) 0.1951(4) 0.0298(16) Uani 1 1 d . . .
H44 H 0.2434 -0.1780 0.1886 0.036 Uiso 1 1 calc R . .
C45 C -0.0168(7) -0.0239(7) 0.0300(6) 0.064(3) Uani 1 1 d DU . .
H45A H -0.0203 0.0413 0.0720 0.077 Uiso 1 1 calc R . .
C46 C -0.1381(7) -0.0730(8) 0.0057(7) 0.102(3) Uani 1 1 d DU . .
H46A H -0.1920 -0.0382 -0.0276 0.153 Uiso 1 1 calc R . .
H46B H -0.1419 -0.0701 0.0678 0.153 Uiso 1 1 calc R . .
H46C H -0.1606 -0.1431 -0.0391 0.153 Uiso 1 1 calc R . .

loop_
_atom_site_aniso_label
_atom_site_aniso_U_11
_atom_site_aniso_U_22
_atom_site_aniso_U_33
_atom_site_aniso_U_23
_atom_site_aniso_U_13
_atom_site_aniso_U_12
Ni1 0.0166(4) 0.0201(5) 0.0152(4) 0.0097(4) 0.0018(4) 0.0063(4)
O1 0.019(2) 0.021(2) 0.015(2) 0.0094(19) 0.001(2) 0.007(2)
O2 0.026(3) 0.023(3) 0.022(2) 0.010(2) 0.009(2) 0.013(2)
O3 0.035(3) 0.022(3) 0.021(2) 0.007(2) 0.008(2) 0.010(2)
O4 0.026(3) 0.026(3) 0.023(2) 0.016(2) 0.007(2) 0.000(2)
O5 0.022(3) 0.024(3) 0.027(2) 0.015(2) 0.007(2) 0.006(2)
O6 0.022(3) 0.023(2) 0.025(2) 0.012(2) 0.011(2) 0.003(2)
N1 0.016(3) 0.025(3) 0.012(3) 0.007(2) 0.003(2) 0.005(2)
C1 0.019(4) 0.011(3) 0.026(4) 0.012(3) 0.005(3) 0.005(3)
C2 0.026(4) 0.025(4) 0.019(3) 0.019(3) 0.011(3) 0.012(3)
C3 0.016(4) 0.025(4) 0.028(4) 0.015(3) 0.003(3) 0.008(3)
C4 0.024(4) 0.018(4) 0.016(3) 0.008(3) 0.001(3) 0.005(3)
C5 0.032(4) 0.017(3) 0.016(3) 0.007(3) 0.012(3) 0.008(3)
C6 0.025(4) 0.021(4) 0.031(4) 0.008(3) 0.017(3) 0.007(3)
C7 0.024(4) 0.020(4) 0.019(3) 0.008(3) 0.006(3) 0.007(3)
C8 0.035(4) 0.030(4) 0.032(4) 0.019(3) 0.022(4) 0.015(3)
C9 0.031(4) 0.015(3) 0.026(4) 0.006(3) 0.019(3) 0.007(3)
C10 0.026(4) 0.024(4) 0.013(3) 0.010(3) 0.006(3) 0.006(3)
C11 0.015(3) 0.032(4) 0.030(4) 0.018(3) 0.003(3) -0.004(3)
C12 0.020(4) 0.027(4) 0.023(4) 0.008(3) -0.002(3) 0.004(3)
C13 0.017(3) 0.018(3) 0.023(3) 0.010(3) 0.005(3) 0.003(3)
C14 0.020(4) 0.020(4) 0.024(3) 0.012(3) 0.006(3) 0.003(3)
C15 0.022(4) 0.022(4) 0.018(3) 0.007(3) 0.004(3) 0.000(3)
C16 0.029(4) 0.021(4) 0.017(3) 0.008(3) 0.010(3) 0.013(3)
C17 0.035(4) 0.030(4) 0.024(4) 0.011(3) 0.016(4) 0.014(4)
C18 0.032(4) 0.047(5) 0.028(4) 0.010(4) 0.007(4) 0.014(4)
C19 0.039(4) 0.035(4) 0.020(3) 0.017(3) 0.009(3) 0.025(4)
C20 0.047(5) 0.047(5) 0.031(4) 0.018(4) 0.014(4) 0.027(4)
C21 0.024(4) 0.060(5) 0.034(4) 0.035(4) 0.008(3) 0.021(4)
C22 0.036(4) 0.083(6) 0.044(4) 0.045(4) 0.003(4) 0.016(4)
C23 0.031(4) 0.086(6) 0.051(4) 0.050(4) 0.000(4) 0.004(4)
Ni2 0.0249(5) 0.0266(5) 0.0130(4) 0.0085(4) 0.0031(4) 0.0138(4)
O7 0.024(3) 0.029(3) 0.022(2) 0.012(2) 0.010(2) 0.012(2)
O8 0.040(3) 0.033(3) 0.012(2) 0.009(2) 0.012(2) 0.018(2)
O9 0.021(3) 0.029(3) 0.030(2) 0.010(2) 0.012(2) 0.015(2)
O10 0.021(3) 0.037(3) 0.030(3) 0.020(2) 0.011(2) 0.009(2)
O11 0.023(3) 0.031(3) 0.020(2) 0.011(2) 0.003(2) 0.011(2)
O12 0.031(3) 0.030(3) 0.018(2) 0.011(2) 0.009(2) 0.015(2)
N2 0.020(3) 0.023(3) 0.008(3) 0.007(2) -0.003(2) 0.008(3)
C24 0.032(4) 0.022(4) 0.029(4) 0.015(3) 0.015(4) 0.011(3)
C25 0.026(4) 0.023(4) 0.018(3) 0.012(3) 0.013(3) 0.012(3)
C26 0.021(4) 0.025(4) 0.022(3) 0.011(3) 0.008(3) 0.006(3)
C27 0.031(4) 0.019(4) 0.021(3) 0.009(3) 0.008(3) 0.011(3)
C28 0.022(4) 0.024(4) 0.028(4) 0.014(3) 0.013(3) 0.013(3)
C29 0.023(4) 0.018(3) 0.017(3) 0.007(3) 0.010(3) 0.003(3)
C30 0.024(4) 0.027(4) 0.022(3) 0.008(3) 0.010(3) 0.009(3)
C31 0.039(4) 0.023(4) 0.023(4) 0.005(3) 0.015(3) 0.022(3)
C32 0.032(4) 0.031(4) 0.029(4) 0.013(3) 0.014(3) 0.015(3)
C33 0.012(3) 0.037(4) 0.028(4) 0.018(3) 0.009(3) 0.008(3)
C34 0.032(4) 0.038(4) 0.018(3) 0.013(3) 0.004(3) 0.016(4)
C35 0.025(4) 0.030(4) 0.024(4) 0.012(3) 0.010(3) 0.011(3)
C36 0.034(4) 0.027(4) 0.016(3) 0.009(3) 0.015(3) 0.013(3)
C37 0.028(4) 0.042(4) 0.016(3) 0.018(3) 0.002(3) 0.012(4)
C38 0.025(4) 0.046(5) 0.027(4) 0.020(3) 0.003(3) 0.008(4)
C39 0.027(4) 0.022(4) 0.019(3) 0.009(3) 0.007(3) 0.013(3)
C40 0.030(4) 0.038(4) 0.023(4) 0.015(3) 0.005(3) 0.016(4)
C41 0.047(5) 0.064(6) 0.042(5) 0.038(4) 0.016(4) 0.036(5)
C42 0.031(4) 0.074(6) 0.040(5) 0.043(5) 0.009(4) 0.015(4)
C43 0.036(4) 0.038(4) 0.015(3) 0.012(3) -0.002(3) 0.000(4)
C44 0.026(4) 0.032(4) 0.023(4) 0.011(3) 0.003(3) 0.008(3)
C45 0.042(5) 0.102(6) 0.049(5) 0.054(4) 0.006(4) 0.008(5)
C46 0.065(6) 0.147(8) 0.112(7) 0.101(6) 0.026(5) 0.015(5)

_geom_special_details            
;
All esds (except the esd in the dihedral angle between two l.s. planes)
are estimated using the full covariance matrix. The cell esds are taken
into account individually in the estimation of esds in distances, angles
and torsion angles; correlations between esds in cell parameters are only
used when they are defined by crystal symmetry. An approximate (isotropic)
treatment of cell esds is used for estimating esds involving l.s. planes.
;

loop_
_geom_bond_atom_site_label_1
_geom_bond_atom_site_label_2
_geom_bond_distance
_geom_bond_site_symmetry_2
_geom_bond_publ_flag
Ni1 O2 2.003(4) 2_567 ?
Ni1 O1 2.020(4) . ?
Ni1 O5 2.034(4) 1_565 ?
Ni1 N1 2.050(5) . ?
Ni1 O6 2.061(4) 2_557 ?
Ni1 O6 2.376(4) 1_565 ?
Ni1 Ni1 2.7228(16) 2_567 ?
O1 C1 1.272(7) . ?
O2 C1 1.276(6) . ?
O2 Ni1 2.003(4) 2_567 ?
O3 C5 1.372(6) . ?
O3 C8 1.419(7) . ?
O4 C10 1.345(6) . ?
O4 C9 1.429(6) . ?
O5 C16 1.278(7) . ?
O5 Ni1 2.034(4) 1_545 ?
O6 C16 1.254(7) . ?
O6 Ni1 2.061(4) 2_557 ?
O6 Ni1 2.376(4) 1_545 ?
N1 C19 1.324(7) . ?
N1 C17 1.325(7) . ?
C1 C2 1.518(7) . ?
C2 C7 1.378(7) . ?
C2 C3 1.398(8) . ?
C3 C4 1.383(7) . ?
C3 H3 0.9300 . ?
C4 C5 1.406(8) . ?
C4 H4 0.9300 . ?
C5 C6 1.371(8) . ?
C6 C7 1.397(7) . ?
C6 H6 0.9300 . ?
C7 H7 0.9300 . ?
C8 C9 1.529(7) . ?
C8 H8A 0.9700 . ?
C8 H8B 0.9700 . ?
C9 H9A 0.9700 . ?
C9 H9B 0.9700 . ?
C10 C15 1.373(8) . ?
C10 C11 1.400(8) . ?
C11 C12 1.409(8) . ?
C11 H11 0.9300 . ?
C12 C13 1.394(8) . ?
C12 H12 0.9300 . ?
C13 C14 1.402(8) . ?
C13 C16 1.495(8) . ?
C14 C15 1.372(7) . ?
C14 H14 0.9300 . ?
C15 H15 0.9300 . ?
C17 C18 1.396(8) . ?
C17 H17 0.9300 . ?
C18 C21 1.378(9) . ?
C18 H18 0.9300 . ?
C19 C20 1.365(8) . ?
C19 H19 0.9300 . ?
C20 C21 1.403(9) . ?
C20 H20 0.9300 . ?
C21 C22 1.531(9) . ?
C22 C22 1.457(8) 2_668 ?
C22 C23 1.464(9) . ?
C22 H22A 0.9800 . ?
C23 H23A 0.9600 . ?
C23 H23B 0.9600 . ?
C23 H23C 0.9600 . ?
Ni2 N2 2.004(5) . ?
Ni2 O7 2.023(4) 2_656 ?
Ni2 O11 2.024(4) 2_666 ?
Ni2 O12 2.031(4) 1_545 ?
Ni2 O8 2.085(4) 