
#######################################################################
#
#                 Cambridge Crystallographic Data Centre
#                                CCDC
#
#######################################################################
#
# If this CIF has been generated from an entry in the Cambridge
# Structural Database, then it will include bibliographic, chemical,
# crystal, experimental, refinement or atomic coordinate data resulting
# from the CCDC's data processing and validation procedures.
#
#######################################################################

data_CSD_CIF_FIGYID
_audit_creation_date 1988-01-14
_audit_creation_method CSD-ConQuest-V1
_database_code_CSD FIGYID
_database_code_depnum_ccdc_archive 'CCDC 1156152'
_chemical_formula_sum 'C3 H7 N1'
_chemical_formula_moiety
;
C3 H7 N1
;
_journal_coden_Cambridge 55
_journal_volume 105
_journal_year 1986
_journal_page_first 434
_journal_name_full 'Rec.Trav.Chim.Pays-Bas(Fr.)(Rec.J.R.Neth.Chem.Soc.) '
loop_
_publ_author_name
"J.S.A.M.de Boer"
"H.Schenk"
"C.H.Stam"
_chemical_name_systematic
;
Aminocyclopropane
;
_chemical_name_common
;
Teaching Subset: Fundamental Chemistry
;
_cell_volume   1678.786
_exptl_special_details
;
rhombohedral polymorph

;
_diffrn_ambient_temperature 170.5
#These two values have been output from a single CSD field.
_refine_ls_R_factor_gt 0.035
_refine_ls_wR_factor_gt 0.035
_symmetry_cell_setting rhombohedral
_symmetry_space_group_name_H-M 'R 3 c'
_symmetry_Int_Tables_number 161
loop_
_symmetry_equiv_pos_site_id
_symmetry_equiv_pos_as_xyz
1 x,y,z
2 1/3+x,2/3+y,2/3+z
3 2/3+x,1/3+y,1/3+z
4 -y,x-y,z
5 -x+y,-x,z
6 1/3-y,2/3+x-y,2/3+z
7 1/3-x+y,2/3-x,2/3+z
8 2/3-y,1/3+x-y,1/3+z
9 2/3-x+y,1/3-x,1/3+z
10 -y,-x,1/2+z
11 1/3-y,2/3-x,1/6+z
12 2/3-y,1/3-x,5/6+z
13 -x+y,y,1/2+z
14 x,x-y,1/2+z
15 1/3-x+y,2/3+y,1/6+z
16 1/3+x,2/3+x-y,1/6+z
17 2/3-x+y,1/3+y,5/6+z
18 2/3+x,1/3+x-y,5/6+z
_cell_length_a 18.784(2)
_cell_length_b 18.784(2)
_cell_length_c 5.494(2)
_cell_angle_alpha 90
_cell_angle_beta 90
_cell_angle_gamma 120
_cell_formula_units_Z 18
loop_
_atom_type_symbol
_atom_type_radius_bond
C 0.68
H 0.23
N 0.68
loop_
_atom_site_label
_atom_site_type_symbol
_atom_site_fract_x
_atom_site_fract_y
_atom_site_fract_z
C1 C 0.17718(8) 0.18820(8) -0.00510(28)
C2 C 0.26203(8) 0.20941(9) 0.06703(30)
C3 C 0.21181(9) 0.23042(9) 0.23052(31)
N1 N 0.11432(6) 0.10239(6) 0.00000
H1 H 0.171(1) 0.222(1) -0.129(4)
H2 H 0.268(1) 0.165(1) 0.108(3)
H3 H 0.308(1) 0.257(1) -0.023(4)
H4 H 0.191(1) 0.197(1) 0.368(3)
H5 H 0.226(1) 0.288(1) 0.246(4)
H6 H 0.064(1) 0.099(1) 0.023(3)
H7 H 0.115(1) 0.078(1) -0.150(4)
#END
