####################################################################### 
# 
# This file contains crystal structure data downloaded from the 
# Cambridge Structural Database (CSD) hosted by the Cambridge 
# Crystallographic Data Centre (CCDC).
# 
# Full information about CCDC data access policies and citation 
# guidelines are available at http://www.ccdc.cam.ac.uk/access/V1 
# 
# Audit and citation data items may have been added by the CCDC. 
# Please retain this information to preserve the provenance of 
# this file and to allow appropriate attribution of the data. 
# 
#######################################################################

data_FIJXUR
#This CIF has been generated from an entry in the Cambridge Structural Database
_database_code_depnum_ccdc_archive 'CCDC 1156355'
_database_code_CSD               FIJXUR
loop_
_citation_id
_citation_doi
_citation_year
1 10.1039/a806500d 1998
_audit_creation_method           'Created from the CSD'
_audit_update_record             
;
2024-07-10 downloaded from the CCDC.
;
_database_code_NBS               711494
_chemical_formula_moiety         
'(C14 Cu10 N14)n,n(C7 Cu5 N7),6n(C21 H16 Cu2 N5),0.5n(H2 O1)'
_chemical_name_systematic        
"catena-(hexakis((\m~2~-Cyano)-bis(2,2'-bipyridyl-copper)) henicosakis(\m~2~-cyano)-pentadeca-copper hemihydrate)"
_chemical_absolute_configuration unk
_diffrn_ambient_temperature      150
_exptl_crystal_density_diffrn    1.92
#These two values have been output from a single CSD field.
_refine_ls_R_factor_gt           0.0458
_refine_ls_wR_factor_gt          0.0458
_diffrn_radiation_probe          x-ray
_symmetry_cell_setting           monoclinic
_symmetry_space_group_name_H-M   'P 2/c'
_symmetry_Int_Tables_number      13
_space_group_name_Hall           '-P 2yc'
loop_
_symmetry_equiv_pos_site_id
_symmetry_equiv_pos_as_xyz
1 x,y,z
2 -x,y,1/2-z
3 -x,-y,-z
4 x,-y,1/2+z
_cell_length_a                   21.6971(1)
_cell_length_b                   19.7886(2)
_cell_length_c                   17.5075(2)
_cell_angle_alpha                90
_cell_angle_beta                 98.12
_cell_angle_gamma                90
_cell_volume                     7441.58
_exptl_crystal_colour            'dark red'
_cell_formula_units_Z            2
loop_
_atom_site_label
_atom_site_type_symbol
_atom_site_fract_x
_atom_site_fract_y
_atom_site_fract_z
Cu1 Cu 0.3327(1) 0.0015(1) -0.0014(1)
Cu2 Cu 0.3419(1) 0.2520(1) -0.0096(1)
Cu3 Cu 0.3480(1) 0.3694(1) -0.2639(1)
Cu4 Cu 0.3225(1) 0.3776(1) 0.2349(1)
Cu5 Cu 0.3234(1) -0.2479(1) -0.0174(1)
C1 C 0.3263(2) -0.1508(2) -0.0079(2)
N13 N 0.3289(2) -0.0916(3) -0.0045(2)
C2 C 0.3362(2) 0.0951(3) -0.0012(2)
N14 N 0.3387(2) 0.1534(2) -0.0029(2)
C3 C 0.3350(2) 0.2959(2) 0.0870(2)
N15 N 0.3472(2) 0.2945(3) -0.1069(3)
C4 C 0.3492(2) 0.3202(2) -0.1667(2)
N16 N 0.3357(2) -0.3189(3) 0.1395(3)
C5 C 0.3404(2) 0.4674(3) -0.2572(2)
N17 N 0.3341(2) 0.5248(3) -0.2572(2)
N18 N 0.3285(2) 0.3253(2) 0.1420(3)
N19 N 0.3209(2) -0.3275(2) -0.1692(2)
C6 C 0.3208(2) -0.2969(2) -0.1121(3)
C7 C 0.3269(2) -0.2898(2) 0.0828(2)
Cu3C Cu 0.3480(1) -0.3694(1) 0.2361(1)
Cu4C Cu 0.3225(1) -0.3776(1) -0.2651(1)
N16C N 0.3357(2) 0.3189(3) -0.3605(3)
C7C C 0.3269(2) 0.2898(2) -0.4172(2)
C5C C 0.3404(2) 0.5326(3) 0.2428(2)
N17C N 0.3341(2) 0.4752(3) 0.2428(2)
N19C N 0.3209(2) 0.3275(2) 0.3308(2)
C6C C 0.3208(2) 0.2969(2) 0.3879(3)
N15C N 0.3472(2) -0.2945(3) 0.3931(3)
C4C C 0.3492(2) -0.3202(2) 0.3333(2)
C3C C 0.3350(2) -0.2959(2) -0.4130(2)
N18C N 0.3285(2) -0.3253(2) -0.3580(3)
Cu2C Cu 0.3419(1) -0.2520(1) -0.5096(1)
Cu5C Cu 0.3234(1) 0.2479(1) 0.4826(1)
C2C C 0.3362(2) -0.0951(3) -0.5012(2)
N14C N 0.3387(2) -0.1534(2) -0.5029(2)
C1C C 0.3263(2) 0.1508(2) 0.4921(2)
N13C N 0.3289(2) 0.0916(3) 0.4955(2)
Cu1C Cu 0.3327(1) -0.0015(1) 0.4986(1)
Cu4C Cu 0.3225(1) 0.6224(1) -0.2651(1)
C5C C 0.3404(2) -0.4674(3) 0.2428(2)
N17 N 0.3341(2) -0.4752(3) -0.2572(2)
Cu5C Cu 0.3234(1) 0.2479(1) -0.5174(1)
Cu3C Cu 0.3480(1) 0.6306(1) 0.2361(1)
Cu2C Cu 0.3419(1) -0.2520(1) 0.4904(1)
N15C N 0.3472(2) -0.2945(3) -0.6069(3)
C7C C 0.3269(2) 0.2898(2) 0.5828(2)
Cu1C Cu 0.3327(1) -0.0015(1) -0.5014(1)
C2C C 0.3362(2) -0.0951(3) 0.4988(2)
Cu6 Cu 0.0000 0.3791(1) 0.2500
Cu7 Cu 0.0000 0.0000 0.0000
Cu8 Cu 0.0087(1) 0.2499(1) 0.0046(1)
Cu9 Cu 0.0000 0.6330(1) 0.2500
C8 C 0.0000 0.4771(4) 0.2500
N20 N 0.0034(2) 0.3273(2) 0.1564(3)
C9 C 0.0074(2) 0.2972(2) 0.0997(3)
N21 N 0.0065(2) 0.1522(2) 0.0040(2)
C10 C 0.0033(2) 0.0933(3) 0.0025(2)
N22 N 0.0090(2) 0.2916(2) -0.0943(3)
C11 C 0.0069(2) 0.3196(2) -0.1536(3)
N23 N 0.0000 0.5349(3) 0.2500
N20A N -0.0034(2) 0.3273(2) 0.3436(3)
C9A C -0.0074(2) 0.2972(2) 0.4003(3)
Cu8A Cu -0.0087(1) 0.2499(1) 0.4954(1)
N22B N -0.0090(2) 0.7084(2) 0.0943(3)
C11B C -0.0069(2) 0.6804(2) 0.1536(3)
N21A N -0.0065(2) 0.1522(2) 0.4960(2)
C10A C -0.0033(2) 0.0933(3) 0.4975(2)
C10B C -0.0033(2) -0.0933(3) -0.0025(2)
C11C C 0.0069(2) 0.6804(2) 0.3464(3)
Cu9B Cu 0.0000 0.3670(1) -0.2500
N22A N -0.0090(2) 0.2916(2) 0.5943(3)
Cu8B Cu -0.0087(1) 0.7501(1) -0.0046(1)
Cu7A Cu 0.0000 0.0000 0.5000
Cu10 Cu 0.1135(1) 0.0147(1) 0.1099(1)
Cu11 Cu 0.2201(1) -0.0157(1) -0.1151(1)
N1 N 0.0914(2) -0.0551(2) 0.1889(2)
N2 N 0.0927(2) 0.0785(2) 0.1932(2)
N3 N 0.2450(2) 0.0526(2) -0.1929(2)
N4 N 0.2379(2) -0.0805(2) -0.1995(2)
C12 C 0.1532(2) 0.0045(2) 0.0233(3)
N24 N 0.1800(2) -0.0047(2) -0.0288(3)
C15 C 0.0900(2) -0.1234(3) 0.1814(3)
C16 C 0.0784(2) -0.1657(3) 0.2408(3)
C17 C 0.0692(2) -0.1374(3) 0.3105(3)
C18 C 0.0708(2) -0.0681(3) 0.3191(3)
C19 C 0.0818(2) -0.0277(3) 0.2574(3)
C20 C 0.0825(2) 0.0476(3) 0.2597(3)
C21 C 0.0709(2) 0.0845(3) 0.3241(3)
C22 C 0.0697(2) 0.1550(3) 0.3202(3)
C23 C 0.0804(2) 0.1865(3) 0.2525(3)
C24 C 0.0917(2) 0.1459(3) 0.1910(3)
C25 C 0.2498(2) 0.1206(3) -0.1850(3)
C26 C 0.2628(2) 0.1631(3) -0.2434(3)
C27 C 0.2701(2) 0.1346(3) -0.3139(3)
C28 C 0.2654(2) 0.0653(3) -0.3241(3)
C29 C 0.2496(2) -0.0499(3) -0.2648(3)
C30 C 0.2529(2) 0.0247(3) -0.2619(3)
C31 C 0.2588(2) -0.0867(3) -0.3304(3)
C32 C 0.2566(2) -0.1570(3) -0.3280(3)
C33 C 0.2452(2) -0.1889(3) -0.2603(3)
C34 C 0.2360(2) -0.1483(3) -0.1978(3)
H1 H 0.0970(2) -0.1424(3) 0.1348(3)
H2 H 0.0768(2) -0.2123(3) 0.2340(3)
H3 H 0.0620(2) -0.1650(3) 0.3513(3)
H4 H 0.0646(2) -0.0486(3) 0.3657(3)
H5 H 0.0641(2) 0.0624(3) 0.3691(3)
H6 H 0.0619(2) 0.1805(3) 0.3624(3)
H7 H 0.0801(2) 0.2333(3) 0.2483(3)
H8 H 0.0989(2) 0.1671(3) 0.1456(3)
H9 H 0.2440(2) 0.1396(3) -0.1379(3)
H10 H 0.2666(2) 0.2095(3) -0.2356(3)
H11 H 0.2782(2) 0.1621(3) -0.3544(3)
H12 H 0.2704(2) 0.0458(3) -0.3712(3)
H13 H 0.2663(2) -0.0646(3) -0.3750(3)
H14 H 0.2627(2) -0.1824(3) -0.3710(3)
H15 H 0.2437(2) -0.2358(3) -0.2570(3)
H16 H 0.2282(2) -0.1692(3) -0.1526(3)
Cu12 Cu 0.2073(1) 0.5992(1) -0.3741(1)
Cu13 Cu 0.1236(1) 0.6020(1) -0.1318(1)
N5 N 0.1407(2) 0.6689(2) -0.0403(3)
N6 N 0.0989(2) 0.5427(2) -0.0485(2)
N7 N 0.1885(2) 0.6661(2) -0.4657(3)
N8 N 0.2324(2) 0.5414(2) -0.4584(2)
C13 C 0.1780(2) 0.6060(3) -0.2804(3)
N25 N 0.1542(2) 0.6070(3) -0.2248(3)
C35 C 0.1668(2) 0.7292(3) -0.4641(3)
C36 C 0.1593(2) 0.7705(3) -0.5283(4)
C37 C 0.1739(3) 0.7459(3) -0.5975(4)
C38 C 0.1960(2) 0.6795(3) -0.5991(3)
C39 C 0.2031(2) 0.6414(3) -0.5329(3)
C40 C 0.2283(2) 0.5712(3) -0.5284(3)
C41 C 0.2441(2) 0.5370(3) -0.5918(3)
C42 C 0.2641(2) 0.4702(3) -0.5850(3)
C43 C 0.2681(2) 0.4402(3) -0.5129(3)
C44 C 0.2530(2) 0.4767(3) -0.4517(3)
C45 C 0.1629(2) 0.7318(3) -0.0406(4)
C46 C 0.1759(2) 0.7706(3) 0.0255(4)
C47 C 0.1666(2) 0.7422(3) 0.0942(4)
C48 C 0.1437(2) 0.6769(3) 0.0964(3)
C49 C 0.1305(2) 0.6420(3) 0.0279(3)
C50 C 0.1052(2) 0.5719(3) 0.0231(3)
C51 C 0.0901(2) 0.5372(3) 0.0858(3)
C52 C 0.0693(2) 0.4709(3) 0.0783(3)
C53 C 0.0632(2) 0.4411(3) 0.0059(3)
C54 C 0.0783(2) 0.4785(3) -0.0556(3)
H17 H 0.1563(2) 0.7459(3) -0.4180(3)
H18 H 0.1446(2) 0.8144(3) -0.5250(4)
H19 H 0.1692(3) 0.7726(3) -0.6417(4)
H20 H 0.2058(2) 0.6613(3) -0.6448(3)
H21 H 0.2413(2) 0.5588(3) -0.6392(3)
H22 H 0.2744(2) 0.4465(3) -0.6273(3)
H23 H 0.2810(2) 0.3956(3) -0.5062(3)
H24 H 0.2570(2) 0.4562(3) -0.4035(3)
H25 H 0.1700(2) 0.7505(3) -0.0874(4)
H26 H 0.1906(2) 0.8147(3) 0.0234(4)
H27 H 0.1756(2) 0.7668(3) 0.1397(4)
H28 H 0.1375(2) 0.6572(3) 0.1429(3)
H29 H 0.0937(2) 0.5583(3) 0.1337(3)
H30 H 0.0598(2) 0.4470(3) 0.1208(3)
H31 H 0.0492(2) 0.3968(3) -0.0011(3)
H32 H 0.0740(2) 0.4584(3) -0.1040(3)
O1 O 0.5000(2) 0.4656(2) -0.7500(3)
Cu14? Cu 0.4443(1) 0.0002(1) 0.1116(1)
Cu15? Cu 0.4348(1) 0.3683(1) -0.3754(1)
N9? N 0.4252(2) -0.0685(2) 0.1926(2)
N10? N 0.4219(2) 0.0651(2) 0.1935(2)
N11? N 0.4624(2) 0.3200(2) -0.4709(2)
N12? N 0.4206(2) 0.4441(2) -0.4528(2)
C14? C 0.4859(2) 0.0002(2) 0.0259(3)
N26? N 0.4824(2) 0.3619(2) -0.2783(3)
C55? C 0.4170(2) 0.1328(3) 0.1889(3)
C56? C 0.4054(2) 0.1726(3) 0.2505(3)
C57? C 0.3980(2) 0.1426(3) 0.3197(3)
C58? C 0.4026(2) 0.0723(3) 0.3253(3)
C59? C 0.4143(2) 0.0345(3) 0.2609(3)
C60? C 0.4174(2) -0.0405(3) 0.2605(3)
C61? C 0.4107(2) -0.0799(3) 0.3250(3)
C62? C 0.4122(2) -0.1497(3) 0.3186(3)
C63? C 0.4197(2) -0.1787(3) 0.2479(3)
C64? C 0.4257(2) -0.1364(3) 0.1864(3)
C65? C 0.4842(2) 0.2571(3) -0.4757(3)
C66? C 0.5049(2) 0.2309(3) -0.5409(3)
C67? C 0.5035(2) 0.2731(3) -0.6040(3)
C68? C 0.4820(2) 0.3400(3) -0.6006(3)
C69? C 0.4613(2) 0.3614(3) -0.5329(3)
C70? C 0.4379(2) 0.4301(3) -0.5228(3)
C71? C 0.4345(2) 0.4785(3) -0.5813(3)
C72? C 0.4145(2) 0.5424(3) -0.5672(3)
C73? C 0.3971(2) 0.5578(3) -0.4952(3)
C74? C 0.4004(2) 0.5078(2) -0.4402(3)
H33? H 0.4216(2) 0.1538(3) 0.1425(3)
H34? H 0.4025(2) 0.2193(3) 0.2451(3)
H35? H 0.3902(2) 0.1686(3) 0.3616(3)
H36? H 0.3978(2) 0.0507(3) 0.3713(3)
H37? H 0.4052(2) -0.0596(3) 0.3715(3)
H38? H 0.4083(2) -0.1769(3) 0.3610(3)
H39? H 0.4208(2) -0.2254(3) 0.2422(3)
H40? H 0.4301(2) -0.1555(3) 0.1390(3)
H41? H 0.4856(2) 0.2293(3) -0.4326(3)
H42? H 0.5191(2) 0.1866(3) -0.5422(3)
H43? H 0.5169(2) 0.2572(3) -0.6489(3)
H44? H 0.4816(2) 0.3691(3) -0.6423(3)
H45? H 0.4457(2) 0.4675(3) -0.6291(3)
H46? H 0.4125(2) 0.5754(3) -0.6053(3)
H47? H 0.3835(2) 0.6010(3) -0.4847(3)
H48? H 0.3885(2) 0.5178(2) -0.3925(3)

#END
