####################################################################### 
# 
# This file contains crystal structure data downloaded from the 
# Cambridge Structural Database (CSD) hosted by the Cambridge 
# Crystallographic Data Centre (CCDC).
# 
# Full information about CCDC data access policies and citation 
# guidelines are available at http://www.ccdc.cam.ac.uk/access/V1 
# 
# Audit and citation data items may have been added by the CCDC. 
# Please retain this information to preserve the provenance of 
# this file and to allow appropriate attribution of the data. 
# 
#######################################################################

data_1
_audit_block_doi                 10.5517/cc10kt3h
_database_code_depnum_ccdc_archive 'CCDC 940636'
loop_
_citation_id
_citation_doi
_citation_year
1 10.1039/C3CE41044G 2013
_audit_update_record             
;
2013-08-05 deposited with the CCDC.	2024-07-10 downloaded from the CCDC.
;

_audit_creation_method           SHELXL-97
_chemical_name_systematic        
;
 ?
;
_chemical_name_common            ?
_chemical_melting_point          ?
_chemical_formula_moiety         'C68 H83 Co6 N7 O33'
_chemical_formula_sum            'C68 H83 Co6 N7 O33'
_chemical_formula_weight         1879.99

loop_
_atom_type_symbol
_atom_type_description
_atom_type_scat_dispersion_real
_atom_type_scat_dispersion_imag
_atom_type_scat_source
C C 0.0033 0.0016 'International Tables Vol C Tables 4.2.6.8 and 6.1.1.4'
H H 0.0000 0.0000 'International Tables Vol C Tables 4.2.6.8 and 6.1.1.4'
N N 0.0061 0.0033 'International Tables Vol C Tables 4.2.6.8 and 6.1.1.4'
O O 0.0106 0.0060 'International Tables Vol C Tables 4.2.6.8 and 6.1.1.4'
Co Co 0.3494 0.9721 'International Tables Vol C Tables 4.2.6.8 and 6.1.1.4'

_symmetry_cell_setting           Monoclinic
_symmetry_space_group_name_H-M   'P2(1)/c  '

loop_
_symmetry_equiv_pos_as_xyz
'x, y, z'
'-x, y+1/2, -z+1/2'
'-x, -y, -z'
'x, -y-1/2, z-1/2'

_cell_length_a                   10.806(3)
_cell_length_b                   28.5540(14)
_cell_length_c                   24.3290(15)
_cell_angle_alpha                90.00
_cell_angle_beta                 93.658(5)
_cell_angle_gamma                90.00
_cell_volume                     7491.5(18)
_cell_formula_units_Z            4
_cell_measurement_temperature    293(2)
_cell_measurement_reflns_used    30872
_cell_measurement_theta_min      1.10
_cell_measurement_theta_max      23.07

_exptl_crystal_description       block
_exptl_crystal_colour            purple
_exptl_crystal_size_max          0.17
_exptl_crystal_size_mid          0.15
_exptl_crystal_size_min          0.13
_exptl_crystal_density_meas      ?
_exptl_crystal_density_diffrn    1.667
_exptl_crystal_density_method    'not measured'
_exptl_crystal_F_000             3864
_exptl_absorpt_coefficient_mu    1.394
_exptl_absorpt_correction_type   multi-scan
_exptl_absorpt_correction_T_min  0.7975
_exptl_absorpt_correction_T_max  0.8396
_exptl_absorpt_process_details   'SADABS(Sheldrick, 1996)'

_exptl_special_details           
;
 ?
;

_diffrn_ambient_temperature      293(2)
_diffrn_radiation_wavelength     0.71069
_diffrn_radiation_type           MoK\a
_diffrn_radiation_source         'fine-focus sealed tube'
_diffrn_radiation_monochromator  graphite
_diffrn_measurement_device_type  'Bruker APEX CCD area-detector'
_diffrn_measurement_method       '\w scans'
_diffrn_detector_area_resol_mean ?
_diffrn_standards_number         ?
_diffrn_standards_interval_count ?
_diffrn_standards_interval_time  ?
_diffrn_standards_decay_%        ?
_diffrn_reflns_number            30872
_diffrn_reflns_av_R_equivalents  0.0914
_diffrn_reflns_av_sigmaI/netI    0.0941
_diffrn_reflns_limit_h_min       -11
_diffrn_reflns_limit_h_max       11
_diffrn_reflns_limit_k_min       -31
_diffrn_reflns_limit_k_max       27
_diffrn_reflns_limit_l_min       -26
_diffrn_reflns_limit_l_max       26
_diffrn_reflns_theta_min         1.10
_diffrn_reflns_theta_max         23.07
_reflns_number_total             10382
_reflns_number_gt                7311
_reflns_threshold_expression     >2\s(I)

_computing_data_collection       'SMART (Bruker, 1997)'
_computing_cell_refinement       'SMART (Bruker, 1997)'
_computing_data_reduction        SAINT
_computing_structure_solution    'SHELXS-97(Sheldrick, 1997)'
_computing_structure_refinement  'SHELXL-97 (Sheldrick, 1997)'
_computing_molecular_graphics    'SHELXTL-PLUS (Sheldrick, 1990)'
_computing_publication_material  SHELXL-97

_refine_special_details          
;
 The crystal was small and weakly scattering, which led to the high Rint. 
 Due to the weakly scattering, the guest molecules were not resolved, which lead to the high R1 and wR2.  
 The restraint command 'ISOR' was used to refine the non-H atoms C2, C4, C8, 
 C9, C26, C33, C39, C40, C11, O2, O5, O2w, O4w, C41, C16, O6, C5, C14, C17, 
 O17, O14, C6, C12, C13, C1, C10, C21, C27, and O21. 
 All of atoms have been refined anisotropically. 
 The distance between the maxium Q-peak and the closest atom is about 1.5 ?. 
 The significant residual electron density may be caused by the series termination errors of heavy atoms.
 Refinement of F^2^ against ALL reflections.  The weighted R-factor wR and
 goodness of fit S are based on F^2^, conventional R-factors R are based
 on F, with F set to zero for negative F^2^. The threshold expression of
 F^2^ > 2\s(F^2^) is used only for calculating R-factors(gt) etc. and is
 not relevant to the choice of reflections for refinement.  R-factors based
 on F^2^ are statistically about twice as large as those based on F, and R-
 factors based on ALL data will be even larger.
;

_refine_ls_structure_factor_coef Fsqd
_refine_ls_matrix_type           full
_refine_ls_weighting_scheme      calc
_refine_ls_weighting_details     
'calc w=1/[\s^2^(Fo^2^)+(0.2000P)^2^+0.0000P] where P=(Fo^2^+2Fc^2^)/3'
_atom_sites_solution_primary     direct
_atom_sites_solution_secondary   difmap
_atom_sites_solution_hydrogens   geom
_refine_ls_hydrogen_treatment    mixed
_refine_ls_extinction_method     none
_refine_ls_extinction_coef       ?
_refine_ls_number_reflns         10382
_refine_ls_number_parameters     649
_refine_ls_number_restraints     174
_refine_ls_R_factor_all          0.1497
_refine_ls_R_factor_gt           0.1299
_refine_ls_wR_factor_ref         0.3457
_refine_ls_wR_factor_gt          0.3308
_refine_ls_goodness_of_fit_ref   1.289
_refine_ls_restrained_S_all      1.294
_refine_ls_shift/su_max          0.001
_refine_ls_shift/su_mean         0.000

loop_
_atom_site_label
_atom_site_type_symbol
_atom_site_fract_x
_atom_site_fract_y
_atom_site_fract_z
_atom_site_U_iso_or_equiv
_atom_site_adp_type
_atom_site_occupancy
_atom_site_symmetry_multiplicity
_atom_site_calc_flag
_atom_site_refinement_flags
_atom_site_disorder_assembly
_atom_site_disorder_group
C1 C -0.4518(9) 0.1430(4) 0.5639(4) 0.019(2) Uani 1 1 d U . .
C2 C -0.5167(10) 0.1822(4) 0.5907(4) 0.024(2) Uani 1 1 d U . .
C3 C -0.6099(13) 0.1744(4) 0.6262(5) 0.047(4) Uani 1 1 d . . .
H3 H -0.6313 0.1439 0.6352 0.056 Uiso 1 1 calc R . .
C4 C -0.6699(14) 0.2108(5) 0.6478(6) 0.055(4) Uani 1 1 d U . .
H4 H -0.7344 0.2052 0.6704 0.066 Uiso 1 1 calc R . .
C5 C -0.6378(13) 0.2554(5) 0.6370(5) 0.049(3) Uani 1 1 d U . .
H5 H -0.6814 0.2799 0.6518 0.058 Uiso 1 1 calc R . .
C6 C -0.5429(11) 0.2650(4) 0.6048(5) 0.029(3) Uani 1 1 d U . .
C7 C -0.5054(12) 0.3135(4) 0.5928(5) 0.031(3) Uani 1 1 d . . .
C8 C -0.4718(10) 0.3565(4) 0.4365(4) 0.023(2) Uani 1 1 d U . .
C9 C -0.5430(10) 0.3184(4) 0.4078(4) 0.024(2) Uani 1 1 d U . .
C10 C -0.6374(13) 0.3264(5) 0.3678(5) 0.046(3) Uani 1 1 d U . .
H10 H -0.6581 0.3569 0.3574 0.055 Uiso 1 1 calc R . .
C11 C -0.6992(14) 0.2899(5) 0.3441(6) 0.052(4) Uani 1 1 d U . .
H11 H -0.7630 0.2956 0.3175 0.063 Uiso 1 1 calc R . .
C12 C -0.6697(12) 0.2435(4) 0.3587(5) 0.041(3) Uani 1 1 d U . .
H12 H -0.7182 0.2190 0.3442 0.049 Uiso 1 1 calc R . .
C13 C -0.5729(9) 0.2345(3) 0.3932(4) 0.022(2) Uani 1 1 d U . .
C14 C -0.5364(10) 0.1863(4) 0.4083(4) 0.025(2) Uani 1 1 d U . .
C15 C -0.5070(11) 0.2714(4) 0.4185(5) 0.032(3) Uani 1 1 d . . .
H15 H -0.4387 0.2652 0.4426 0.039 Uiso 1 1 calc R . .
C16 C -0.7069(10) 0.0475(4) 0.5041(4) 0.024(2) Uani 1 1 d U . .
C17 C -0.8091(11) 0.0398(4) 0.5363(4) 0.029(3) Uani 1 1 d U . .
C18 C -0.9284(9) 0.0566(4) 0.5215(4) 0.021(2) Uani 1 1 d . . .
H18 H -0.9405 0.0747 0.4898 0.025 Uiso 1 1 calc R . .
C19 C -1.0272(10) 0.0475(4) 0.5517(4) 0.023(2) Uani 1 1 d . . .
O22 O -0.4520(7) 0.0076(3) 0.6060(3) 0.0307(18) Uani 1 1 d . . .
C20 C -1.0164(11) 0.0198(5) 0.5982(5) 0.051(4) Uani 1 1 d . . .
H20 H -1.0850 0.0114 0.6171 0.061 Uiso 1 1 calc R . .
C21 C -0.8926(14) 0.0048(5) 0.6157(6) 0.058(4) Uani 1 1 d U . .
H21 H -0.8813 -0.0127 0.6478 0.070 Uiso 1 1 calc R . .
C22 C -0.7930(12) 0.0150(4) 0.5877(5) 0.040(3) Uani 1 1 d . . .
H22 H -0.7142 0.0060 0.6014 0.049 Uiso 1 1 calc R . .
C23 C -0.4342(10) -0.0130(4) 0.6487(4) 0.026(3) Uani 1 1 d . . .
C24 C -0.4459(14) 0.0134(4) 0.7008(5) 0.043(3) Uani 1 1 d . . .
C25 C -0.472(2) 0.0612(5) 0.7003(6) 0.082(6) Uani 1 1 d . . .
H25 H -0.4846 0.0769 0.6670 0.098 Uiso 1 1 calc R . .
C26 C -0.4784(15) 0.0852(6) 0.7498(6) 0.061(4) Uani 1 1 d U . .
H26 H -0.4724 0.1177 0.7512 0.074 Uiso 1 1 calc R . .
C27 C -0.4947(14) 0.0584(5) 0.7985(6) 0.055(4) Uani 1 1 d U . .
H27 H -0.5280 0.0721 0.8289 0.067 Uiso 1 1 calc R . .
C28 C -0.4609(14) 0.0122(4) 0.7998(4) 0.043(3) Uani 1 1 d . . .
C29 C -0.4620(10) -0.0141(4) 0.8520(4) 0.025(2) Uani 1 1 d . . .
C30 C -0.4431(15) -0.0106(4) 0.7508(5) 0.057(4) Uani 1 1 d . . .
H30 H -0.4290 -0.0427 0.7512 0.069 Uiso 1 1 calc R . .
C31 C -0.4816(12) 0.2284(4) 0.5813(5) 0.041(3) Uani 1 1 d . . .
H31 H -0.4165 0.2346 0.5592 0.049 Uiso 1 1 calc R . .
C32 C -0.0478(11) 0.4534(4) 0.4482(4) 0.030(3) Uani 1 1 d . . .
C33 C -0.1633(9) 0.4416(4) 0.4672(4) 0.022(2) Uani 1 1 d U . .
C34 C -0.0484(12) 0.4818(5) 0.4027(5) 0.048(4) Uani 1 1 d . . .
H34 H -0.1221 0.4911 0.3841 0.058 Uiso 1 1 calc R . .
C35 C 0.0714(12) 0.4966(6) 0.3849(5) 0.064(5) Uani 1 1 d . . .
H35 H 0.0724 0.5138 0.3525 0.077 Uiso 1 1 calc R . .
C36 C 0.1816(11) 0.4872(5) 0.4122(4) 0.037(3) Uani 1 1 d . . .
H36 H 0.2564 0.4971 0.3993 0.045 Uiso 1 1 calc R . .
C37 C 0.0670(8) 0.4436(3) 0.4773(4) 0.017(2) Uani 1 1 d . . .
H37 H 0.0671 0.4244 0.5082 0.020 Uiso 1 1 calc R . .
C39 C -0.7083(11) 0.4529(4) 0.4946(5) 0.032(3) Uani 1 1 d U . .
C41 C -1.1573(9) 0.0613(4) 0.5323(4) 0.020(2) Uani 1 1 d U . .
O9 O -0.2476(6) 0.0479(2) 0.5543(3) 0.0245(17) Uani 1 1 d . . .
O18 O -0.4816(7) 0.4936(3) 0.3950(3) 0.0318(19) Uani 1 1 d . . .
O1 O -0.7161(7) 0.0768(3) 0.4649(3) 0.0297(18) Uani 1 1 d . . .
O2 O -0.6106(6) 0.0214(2) 0.5113(3) 0.0186(15) Uani 1 1 d U . .
O3 O -0.4990(7) 0.1030(2) 0.5663(3) 0.0293(18) Uani 1 1 d . . .
O4 O -0.3605(8) 0.1534(3) 0.5404(4) 0.046(2) Uani 1 1 d . . .
O5 O -0.4328(10) 0.1815(4) 0.4328(5) 0.069(3) Uani 1 1 d U . .
O7 O -0.6059(8) 0.1541(3) 0.3962(4) 0.042(2) Uani 1 1 d . . .
O10 O -0.5170(7) 0.3971(2) 0.4317(3) 0.0308(18) Uani 1 1 d . . .
O11 O -0.3779(8) 0.3461(3) 0.4614(4) 0.048(2) Uani 1 1 d . . .
O19 O -0.2634(7) 0.4526(3) 0.4438(3) 0.0334(19) Uani 1 1 d . . .
O20 O -0.1582(7) 0.4077(3) 0.5066(3) 0.041(2) Uani 1 1 d . . .
O12 O -0.4042(10) 0.3189(3) 0.5715(5) 0.072(4) Uani 1 1 d . . .
O13 O -0.5781(9) 0.3445(3) 0.5996(4) 0.045(2) Uani 1 1 d . . .
O17 O -0.6146(6) 0.4789(2) 0.4875(3) 0.0200(15) Uani 1 1 d U . .
O16 O -0.7077(7) 0.4217(2) 0.5328(3) 0.0274(17) Uani 1 1 d . . .
O15 O -0.5608(9) 0.4431(3) 0.6514(3) 0.046(2) Uani 1 1 d . . .
O14 O -0.4084(6) 0.4234(2) 0.5424(2) 0.0152(14) Uani 1 1 d U . .
O6 O -0.4186(6) 0.0763(2) 0.4567(3) 0.0197(15) Uani 1 1 d U . .
O8 O -0.5934(9) 0.0558(3) 0.3466(3) 0.040(2) Uani 1 1 d . . .
Co1 Co -0.43782(12) 0.45492(4) 0.46562(5) 0.0163(4) Uani 1 1 d . . .
Co2 Co -0.42827(12) 0.04517(4) 0.53349(5) 0.0175(4) Uani 1 1 d . . .
Co3 Co -0.55845(13) 0.41065(4) 0.58015(5) 0.0199(4) Uani 1 1 d . . .
Co4 Co -0.58070(13) 0.08870(4) 0.41781(5) 0.0194(4) Uani 1 1 d . . .
Co5 Co -0.29020(14) 0.36609(5) 0.53673(6) 0.0306(5) Uani 1 1 d . . .
Co6 Co -0.30214(14) 0.13449(5) 0.46344(6) 0.0310(5) Uani 1 1 d . . .
O21 O -1.1612(7) 0.0929(3) 0.4916(3) 0.041(2) Uani 1 1 d U . .
C40 C 0.1763(10) 0.4609(4) 0.4623(4) 0.027(2) Uani 1 1 d U . .
O1W O -0.1623(13) 0.1873(4) 0.4653(5) 0.095(4) Uani 1 1 d . . .
O3W O -0.1575(11) 0.3133(4) 0.5298(5) 0.088(4) Uani 1 1 d . . .
O4W O -0.2136(12) 0.3815(4) 0.6179(5) 0.086(4) Uani 1 1 d U . .
O2W O -0.2583(12) 0.1194(5) 0.3792(5) 0.090(4) Uani 1 1 d U . .

loop_
_atom_site_aniso_label
_atom_site_aniso_U_11
_atom_site_aniso_U_22
_atom_site_aniso_U_33
_atom_site_aniso_U_23
_atom_site_aniso_U_13
_atom_site_aniso_U_12
C1 0.012(4) 0.020(4) 0.025(4) -0.002(3) 0.002(3) 0.000(3)
C2 0.029(4) 0.016(4) 0.028(4) 0.004(3) 0.008(3) 0.005(3)
C3 0.070(10) 0.010(6) 0.067(9) -0.001(6) 0.050(8) -0.005(6)
C4 0.056(5) 0.050(5) 0.062(5) 0.001(4) 0.022(4) 0.001(4)
C5 0.052(5) 0.040(5) 0.054(5) 0.005(4) 0.008(4) -0.002(4)
C6 0.031(4) 0.020(4) 0.038(4) 0.004(4) 0.011(4) 0.007(4)
C7 0.045(8) 0.014(6) 0.035(6) 0.003(5) 0.015(6) -0.009(6)
C8 0.018(4) 0.022(4) 0.030(4) -0.001(3) 0.000(3) -0.001(4)
C9 0.030(4) 0.015(4) 0.027(4) 0.001(3) -0.005(3) -0.005(3)
C10 0.049(5) 0.034(5) 0.054(5) 0.006(4) -0.005(4) -0.001(4)
C11 0.053(5) 0.048(5) 0.054(5) 0.000(4) -0.010(4) 0.002(4)
C12 0.045(5) 0.029(5) 0.049(5) -0.004(4) -0.005(4) 0.000(4)
C13 0.017(4) 0.014(4) 0.035(4) 0.006(3) 0.002(3) -0.002(3)
C14 0.030(4) 0.023(4) 0.023(4) 0.000(3) -0.002(4) 0.001(4)
C15 0.028(6) 0.023(6) 0.046(7) 0.006(5) 0.004(5) 0.004(5)
C16 0.021(4) 0.019(4) 0.032(4) -0.002(4) 0.001(3) 0.003(3)
C17 0.034(5) 0.024(4) 0.030(4) -0.001(3) 0.003(4) 0.012(4)
C18 0.007(5) 0.020(6) 0.036(6) 0.005(5) 0.000(4) -0.002(4)
C19 0.028(6) 0.018(6) 0.025(5) 0.004(4) 0.011(5) 0.010(5)
O22 0.032(5) 0.037(5) 0.023(4) 0.001(4) 0.002(3) -0.006(4)
C20 0.022(7) 0.084(11) 0.049(8) 0.008(7) 0.012(6) 0.031(7)
C21 0.055(5) 0.066(6) 0.054(5) 0.013(4) 0.005(4) 0.006(4)
C22 0.035(7) 0.049(8) 0.038(7) 0.018(6) 0.006(6) 0.014(6)
C23 0.026(6) 0.036(7) 0.018(6) 0.005(5) 0.007(5) 0.007(5)
C24 0.083(10) 0.015(6) 0.029(6) 0.004(5) -0.010(6) -0.014(6)
C25 0.19(2) 0.026(8) 0.036(8) 0.014(6) 0.023(10) 0.006(10)
C26 0.072(6) 0.053(6) 0.059(5) -0.002(4) 0.003(4) 0.004(4)
C27 0.069(6) 0.047(5) 0.050(5) -0.006(4) 0.004(4) 0.001(4)
C28 0.091(11) 0.018(6) 0.021(6) 0.007(5) 0.011(6) 0.000(6)
C29 0.030(6) 0.021(6) 0.026(6) -0.006(5) 0.011(5) -0.002(5)
C30 0.118(14) 0.014(7) 0.042(8) 0.008(5) 0.014(8) -0.002(7)
C31 0.048(8) 0.025(7) 0.050(8) -0.005(6) 0.000(6) 0.000(6)
C32 0.047(8) 0.014(6) 0.025(6) -0.003(5) -0.017(5) -0.007(5)
C33 0.016(4) 0.031(4) 0.018(4) -0.002(3) 0.002(3) 0.012(4)
C34 0.031(7) 0.074(10) 0.036(7) 0.008(7) -0.020(6) -0.030(7)
C35 0.030(8) 0.128(15) 0.033(7) 0.034(8) 0.000(6) -0.030(9)
C36 0.032(7) 0.062(9) 0.017(5) 0.012(5) -0.006(5) -0.006(6)
C37 0.007(5) 0.013(5) 0.031(5) -0.003(4) 0.006(4) -0.006(4)
C39 0.029(4) 0.027(4) 0.039(4) -0.003(4) 0.005(4) -0.005(4)
C41 0.017(4) 0.025(4) 0.017(4) -0.004(3) -0.002(3) -0.003(3)
O9 0.018(4) 0.024(4) 0.034(4) 0.002(3) 0.017(3) 0.011(3)
O18 0.032(5) 0.036(5) 0.026(4) 0.005(4) -0.010(3) -0.003(4)
O1 0.023(4) 0.022(4) 0.045(5) 0.009(4) 0.002(3) 0.003(3)
O2 0.012(3) 0.017(3) 0.027(3) 0.003(3) 0.006(2) 0.006(3)
O3 0.029(4) 0.009(4) 0.052(5) 0.001(3) 0.009(4) 0.002(3)
O4 0.038(5) 0.035(5) 0.068(6) -0.006(4) 0.024(5) -0.014(4)
O5 0.067(5) 0.057(5) 0.082(5) 0.002(4) -0.011(4) 0.006(4)
O7 0.041(5) 0.015(4) 0.067(6) 0.008(4) -0.013(4) 0.004(4)
O10 0.038(5) 0.008(4) 0.046(5) 0.003(3) -0.001(4) 0.002(3)
O11 0.041(6) 0.022(4) 0.078(6) -0.021(4) -0.027(5) 0.012(4)
O19 0.016(4) 0.028(4) 0.056(5) 0.002(4) -0.007(4) -0.003(3)
O20 0.025(4) 0.050(6) 0.049(5) 0.004(4) 0.010(4) -0.007(4)
O12 0.073(7) 0.024(5) 0.127(9) 0.008(5) 0.069(7) 0.007(5)
O13 0.065(6) 0.007(4) 0.067(6) 0.006(4) 0.026(5) -0.009(4)
O17 0.013(3) 0.017(3) 0.030(3) 0.002(3) 0.000(3) -0.009(3)
O16 0.023(4) 0.021(4) 0.039(4) 0.006(3) 0.004(3) -0.005(3)
O15 0.068(6) 0.032(5) 0.037(5) -0.016(4) 0.008(4) -0.013(4)
O14 0.021(3) 0.007(3) 0.018(3) 0.007(2) 0.007(2) -0.001(2)
O6 0.020(3) 0.013(3) 0.026(3) 0.001(2) -0.003(3) 0.001(3)
O8 0.079(7) 0.012(4) 0.029(4) -0.006(3) -0.007(4) 0.003(4)
Co1 0.0124(8) 0.0112(8) 0.0254(8) 0.0018(5) 0.0009(6) -0.0011(5)
Co2 0.0103(8) 0.0132(8) 0.0293(8) 0.0034(6) 0.0024(6) 0.0014(5)
Co3 0.0220(8) 0.0107(8) 0.0277(8) 0.0010(6) 0.0074(6) -0.0001(6)
Co4 0.0207(8) 0.0100(7) 0.0269(8) 0.0010(5) -0.0024(6) 0.0007(6)
Co5 0.0216(9) 0.0236(9) 0.0469(10) 0.0111(7) 0.0036(7) 0.0030(7)
Co6 0.0224(9) 0.0228(9) 0.0474(10) 0.0126(7) 0.0002(7) -0.0031(7)
O21 0.025(3) 0.049(4) 0.048(4) 0.006(3) 0.001(3) 0.011(3)
C40 0.030(4) 0.024(4) 0.026(4) 0.001(3) -0.002(4) -0.009(4)
O1W 0.104(10) 0.080(9) 0.102(9) 0.025(7) 0.004(8) -0.064(8)
O3W 0.091(9) 0.070(8) 0.106(9) 0.029(7) 0.022(7) 0.067(7)
O4W 0.087(5) 0.092(5) 0.077(5) 0.002(4) 0.000(4) 0.003(4)
O2W 0.090(5) 0.096(5) 0.084(5) 0.005(4) 0.005(4) -0.002(4)

_geom_special_details            
;
 All s.u.'s (except the s.u. in the dihedral angle between two l.s. planes)
 are estimated using the full covariance matrix.  The cell s.u.'s are taken
 into account individually in the estimation of s.u.'s in distances