
#######################################################################
#
#                 Cambridge Crystallographic Data Centre
#                                CCDC
#
#######################################################################
#
# If this CIF has been generated from an entry in the Cambridge
# Structural Database, then it will include bibliographic, chemical,
# crystal, experimental, refinement or atomic coordinate data resulting
# from the CCDC's data processing and validation procedures.
#
#######################################################################

data_CSD_CIF_FIMSOK
_audit_creation_date 2005-06-07
_audit_creation_method CSD-ConQuest-V1
_database_code_CSD FIMSOK
_database_code_depnum_ccdc_archive 'CCDC 249920'
_chemical_formula_sum 'C21 H29 N2 Si2 Tl1'
_chemical_formula_moiety
;
C21 H29 N2 Si2 Tl1
;
_journal_coden_Cambridge 182
_journal_year 2005
_journal_page_first 752
_journal_name_full 'Chem.Commun. '
loop_
_publ_author_name
"Yanxiang Cheng"
"P.B.Hitchcock"
"M.F.Lappert"
"Meisu Zhou"
_chemical_name_systematic
;
(1,3-Diphenyl-N,N'-bis(trimethylsilyl)propane-1,3-di-iminato-N,N')-thallium(i)
;
_chemical_name_common
;
Teaching Subset: Fundamental Chemistry
;
_chemical_melting_point 396
_cell_volume   2309.220
_exptl_crystal_colour 'yellow'
_exptl_crystal_density_diffrn 1.64
_exptl_special_details
;
Melting point range 396-398K

;
_exptl_crystal_description 'prism'
_exptl_crystal_preparation 'hexane'
_diffrn_ambient_temperature 173
#These two values have been output from a single CSD field.
_refine_ls_R_factor_gt 0.0253
_refine_ls_wR_factor_gt 0.0253
_symmetry_cell_setting monoclinic
_symmetry_space_group_name_H-M 'P 21/n'
_symmetry_Int_Tables_number 14
loop_
_symmetry_equiv_pos_site_id
_symmetry_equiv_pos_as_xyz
1 x,y,z
2 1/2-x,1/2+y,1/2-z
3 -x,-y,-z
4 -1/2+x,-1/2-y,-1/2+z
_cell_length_a 9.9885(2)
_cell_length_b 19.6876(3)
_cell_length_c 12.2915(3)
_cell_angle_alpha 90
_cell_angle_beta 107.184(1)
_cell_angle_gamma 90
_cell_formula_units_Z 4
loop_
_atom_type_symbol
_atom_type_radius_bond
C 0.68
H 0.23
N 0.68
Si 1.20
Tl 1.55
loop_
_atom_site_label
_atom_site_type_symbol
_atom_site_fract_x
_atom_site_fract_y
_atom_site_fract_z
Tl1 Tl 0.697076(16) 0.544932(8) 0.520247(14)
Si1 Si 0.68842(12) 0.72321(6) 0.52627(10)
Si2 Si 0.65661(11) 0.48486(6) 0.2472(1)
N1 N 0.7940(3) 0.65783(16) 0.5039(3)
N2 N 0.7780(3) 0.53145(16) 0.3518(3)
C1 C 0.9175(4) 0.65939(19) 0.4836(3)
C2 C 0.9735(4) 0.60877(19) 0.4288(3)
H1 H 1.07180 0.61110 0.44060
C3 C 0.9034(4) 0.55485(18) 0.3586(3)
C4 C 1.0151(4) 0.71901(19) 0.5240(3)
C5 C 1.0733(5) 0.7529(2) 0.4486(4)
H2 H 1.04850 0.73960 0.37080
C6 C 1.1672(6) 0.8058(3) 0.4875(5)
H3 H 1.20430 0.82950 0.43560
C7 C 1.2070(5) 0.8242(2) 0.6009(5)
H4 H 1.27350 0.85950 0.62730
C8 C 1.1503(5) 0.7913(2) 0.6755(4)
H5 H 1.17680 0.80430 0.75350
C9 C 1.0542(4) 0.7391(2) 0.6372(4)
H6 H 1.01470 0.71690 0.68910
C10 C 0.9835(4) 0.52355(19) 0.2853(3)
C11 C 1.0457(4) 0.5627(2) 0.2198(4)
H7 H 1.04270 0.61080 0.22410
C12 C 1.1120(5) 0.5324(2) 0.1482(4)
H8 H 1.15140 0.55980 0.10200
C13 C 1.1213(4) 0.4630(2) 0.1434(4)
H9 H 1.16640 0.44250 0.09360
C14 C 1.0652(4) 0.4230(2) 0.2111(4)
H10 H 1.07390 0.37500 0.20940
C15 C 0.9962(4) 0.45272(18) 0.2814(4)
H11 H 0.95710 0.42490 0.32730
C16 C 0.5057(5) 0.6998(3) 0.4423(4)
H12 H 0.49950 0.69690 0.36140
H13 H 0.44040 0.73450 0.45320
H14 H 0.48140 0.65570 0.46840
C17 C 0.6868(6) 0.7272(3) 0.6771(4)
H15 H 0.78030 0.73950 0.72600
H16 H 0.66040 0.68270 0.70020
H17 H 0.61880 0.76140 0.68470
C18 C 0.7291(6) 0.8086(2) 0.4782(5)
H18 H 0.73000 0.80590 0.39880
H19 H 0.82110 0.82360 0.52620
H20 H 0.65740 0.84120 0.48420
C19 C 0.4866(5) 0.5301(3) 0.2273(5)
H21 H 0.46750 0.53390 0.30080
H22 H 0.41110 0.50440 0.17410
H23 H 0.49210 0.57550 0.19650
C20 C 0.6414(6) 0.3975(2) 0.3016(5)
H24 H 0.62700 0.40050 0.37690
H25 H 0.72760 0.37210 0.30730
H26 H 0.56160 0.37410 0.24900
C21 C 0.6840(5) 0.4800(3) 0.1037(4)
H27 H 0.69110 0.52600 0.07550
H28 H 0.60470 0.45640 0.05100
H29 H 0.77070 0.45510 0.10930
#END
