####################################################################### 
# 
# This file contains crystal structure data downloaded from the 
# Cambridge Structural Database (CSD) hosted by the Cambridge 
# Crystallographic Data Centre (CCDC).
# 
# Full information about CCDC data access policies and citation 
# guidelines are available at http://www.ccdc.cam.ac.uk/access/V1 
# 
# Audit and citation data items may have been added by the CCDC. 
# Please retain this information to preserve the provenance of 
# this file and to allow appropriate attribution of the data. 
# 
#######################################################################

data_FINGEO
#This CIF has been generated from an entry in the Cambridge Structural Database
_database_code_depnum_ccdc_archive 'CCDC 1156753'
_database_code_CSD               FINGEO
loop_
_citation_id
_citation_doi
_citation_year
1 10.1016/S0020-1693(00)87575-1 1985
_audit_creation_method           'Created from the CSD'
_audit_update_record             
;
2024-07-10 downloaded from the CCDC.
;
_database_code_NBS               573924
_chemical_name_common            
"catena-[(mu-4,4'-Bipyridyl)-bis(O-n-butylxanthato-S,S')-nickel(ii) carbon tetrachloride solvate]"
_chemical_formula_moiety         '(C20 H26 N2 Ni1 O2 S4)n,2n(C1 Cl4)'
_chemical_name_systematic        
"catena-[(\m-4,4'-bipyridine)-bis(O-butyl carbonodithioato)-di-nickel(ii) tetrachloromethane solvate]"
_chemical_absolute_configuration unk
_diffrn_ambient_temperature      295
_exptl_crystal_density_diffrn    1.56147
#These two values have been output from a single CSD field.
_refine_ls_R_factor_gt           0.04
_refine_ls_wR_factor_gt          0.04
_diffrn_radiation_probe          x-ray
_symmetry_cell_setting           triclinic
_symmetry_space_group_name_H-M   'P -1'
_symmetry_Int_Tables_number      2
_space_group_name_Hall           '-P 1'
loop_
_symmetry_equiv_pos_site_id
_symmetry_equiv_pos_as_xyz
1 x,y,z
2 -x,-y,-z
_cell_length_a                   6.6349(8)
_cell_length_b                   11.3135(9)
_cell_length_c                   13.1101(9)
_cell_angle_alpha                64.454(7)
_cell_angle_beta                 79.551(8)
_cell_angle_gamma                84.984(8)
_cell_volume                     873.119
_exptl_crystal_colour            brown
_cell_formula_units_Z            1
loop_
_atom_site_label
_atom_site_type_symbol
_atom_site_fract_x
_atom_site_fract_y
_atom_site_fract_z
Ni1 Ni 0.0000 0.0000 0.0000
S1 S 0.2908(1) -0.0725(1) 0.1051(1)
S2 S -0.1465(1) -0.0911(1) 0.2029(1)
C1 C 0.1019(4) -0.1235(3) 0.2197(2)
O1 O 0.1361(3) -0.1893(2) 0.3268(2)
C2 C 0.3457(5) -0.2253(4) 0.3473(3)
C3 C 0.3384(6) -0.2996(4) 0.4732(3)
C4 C 0.2180(7) -0.4248(4) 0.5257(4)
C5 C 0.2167(9) -0.5018(5) 0.6534(4)
C6 C -0.0015(4) -0.4340(2) 0.0008(2)
C7 C 0.1749(5) -0.3595(3) -0.0368(3)
C8 C 0.1664(5) -0.2380(3) -0.0346(3)
N1 N -0.0033(4) -0.1869(2) 0.0018(2)
C9 C -0.1732(5) -0.2572(2) 0.0377(3)
C10 C -0.1779(5) -0.3805(3) 0.0386(3)
S1A S -0.2908(1) 0.0725(1) -0.1051(1)
S2A S 0.1465(1) 0.0911(1) -0.2029(1)
N1A N 0.0033(4) 0.1869(2) -0.0018(2)
C6A C 0.0015(4) -0.5660(2) -0.0008(2)
C1A C -0.1019(4) 0.1235(3) -0.2197(2)
C7A C -0.1749(5) -0.6405(3) 0.0368(3)
C10A C 0.1779(5) -0.6195(3) -0.0386(3)
O1A O -0.1361(3) 0.1893(2) -0.3268(2)
C8A C -0.1664(5) -0.7620(3) 0.0346(3)
C9A C 0.1732(5) -0.7428(2) -0.0377(3)
C2A C -0.3457(5) 0.2253(4) -0.3473(3)
C3A C -0.3384(6) 0.2996(4) -0.4732(3)
C4A C -0.2180(7) 0.4248(4) -0.5257(4)
C5A C -0.2167(9) 0.5018(5) -0.6534(4)
N1A N 0.0033(4) -0.8131(2) -0.0018(2)
Ni1 Ni 0.0000 -1.0000 0.0000
Cl1 Cl 0.8013(2) -0.1631(1) 0.5229(1)
Cl2 Cl 0.9017(3) -0.1441(2) 0.7172(1)
Cl3 Cl 0.4853(2) -0.1218(2) 0.6829(1)
Cl4 Cl 0.6911(2) -0.3692(1) 0.7453(1)
C11 C 0.7183(6) -0.1981(4) 0.6661(3)

#END
