####################################################################### 
# 
# This file contains crystal structure data downloaded from the 
# Cambridge Structural Database (CSD) hosted by the Cambridge 
# Crystallographic Data Centre (CCDC).
# 
# Full information about CCDC data access policies and citation 
# guidelines are available at http://www.ccdc.cam.ac.uk/access/V1 
# 
# Audit and citation data items may have been added by the CCDC. 
# Please retain this information to preserve the provenance of 
# this file and to allow appropriate attribution of the data. 
# 
#######################################################################

data_shx97
_audit_block_doi                 10.5517/cc102myn
_database_code_depnum_ccdc_archive 'CCDC 926061'
loop_
_citation_id
_citation_doi
_citation_year
1 10.5560/ZNB.2013-3119 2013
_audit_update_record             
;
2013-02-22 deposited with the CCDC.	2024-07-10 downloaded from the CCDC.
;
#TrackingRef '1111.cif'


_audit_creation_method           SHELXL-97
_chemical_name_systematic        
;
[Mn(H2O)2(bpe)(SO4)]H2O
;
_chemical_name_common            ?
_chemical_melting_point          ?
_chemical_formula_moiety         'C12 H14 Mn N2 O6 S, H2 O'
_chemical_formula_sum            'C12 H16 Mn N2 O7 S'
_chemical_formula_weight         387.27

loop_
_atom_type_symbol
_atom_type_description
_atom_type_scat_dispersion_real
_atom_type_scat_dispersion_imag
_atom_type_scat_source
C C 0.0033 0.0016 'International Tables Vol C Tables 4.2.6.8 and 6.1.1.4'
H H 0.0000 0.0000 'International Tables Vol C Tables 4.2.6.8 and 6.1.1.4'
N N 0.0061 0.0033 'International Tables Vol C Tables 4.2.6.8 and 6.1.1.4'
O O 0.0106 0.0060 'International Tables Vol C Tables 4.2.6.8 and 6.1.1.4'
S S 0.1246 0.1234 'International Tables Vol C Tables 4.2.6.8 and 6.1.1.4'
Mn Mn 0.3368 0.7283 'International Tables Vol C Tables 4.2.6.8 and 6.1.1.4'

_symmetry_cell_setting           monoclinic
_symmetry_space_group_name_H-M   'C 2'
_symmetrY_space_group_name_Hall  'C 2y'

loop_
_symmetry_equiv_pos_as_xyz
'x, y, z'
'-x, y, -z'
'x+1/2, y+1/2, z'
'-x+1/2, y+1/2, -z'

_cell_length_a                   26.123(5)
_cell_length_b                   9.5698(19)
_cell_length_c                   7.7492(15)
_cell_angle_alpha                90.00
_cell_angle_beta                 99.14(3)
_cell_angle_gamma                90.00
_cell_volume                     1912.7(7)
_cell_formula_units_Z            4
_cell_measurement_temperature    295(2)
_cell_measurement_reflns_used    7934
_cell_measurement_theta_min      3.2
_cell_measurement_theta_max      27.5

_exptl_crystal_description       block
_exptl_crystal_colour            yellow
_exptl_crystal_size_max          0.38
_exptl_crystal_size_mid          0.23
_exptl_crystal_size_min          0.15
_exptl_crystal_density_meas      ?
_exptl_crystal_density_diffrn    1.345
_exptl_crystal_density_method    'not measured'
_exptl_crystal_F_000             796
_exptl_absorpt_coefficient_mu    0.830
_exptl_absorpt_correction_type   multi-scan
_exptl_absorpt_correction_T_min  0.762
_exptl_absorpt_correction_T_max  0.857
_exptl_absorpt_process_details   'ABSCOR (Rigaku, 1995)'

_exptl_special_details           
;
?
;

_diffrn_ambient_temperature      295(2)
_diffrn_radiation_wavelength     0.71073
_diffrn_radiation_type           MoK\a
_diffrn_radiation_source         'fine-focus sealed tube'
_diffrn_radiation_monochromator  graphite
_diffrn_measurement_device_type  'Rigaku R-AXIS RAPID'
_diffrn_measurement_method       '\w scans'
_diffrn_detector_area_resol_mean .
_diffrn_standards_number         image
_diffrn_standards_interval_count .
_diffrn_standards_interval_time  .
_diffrn_standards_decay_%        0
_diffrn_reflns_number            9293
_diffrn_reflns_av_R_equivalents  0.0781
_diffrn_reflns_av_sigmaI/netI    0.1272
_diffrn_reflns_limit_h_min       -33
_diffrn_reflns_limit_h_max       33
_diffrn_reflns_limit_k_min       -9
_diffrn_reflns_limit_k_max       12
_diffrn_reflns_limit_l_min       -9
_diffrn_reflns_limit_l_max       10
_diffrn_reflns_theta_min         3.16
_diffrn_reflns_theta_max         27.48
_reflns_number_total             3771
_reflns_number_gt                3052
_reflns_threshold_expression     >2\s(I)

_computing_data_collection       'RAPID-AUTO (Rigaku, 1998)'
_computing_cell_refinement       RAPID-AUTO
_computing_data_reduction        'CrystalStructure (RigakuMSC, 2004)'
_computing_structure_solution    'SHELXS-97 (Sheldrick, 1990)'
_computing_structure_refinement  'SHELXL-97 (Sheldrick, 1997)'
_computing_molecular_graphics    SHELXL-97
_computing_publication_material  SHELXL-97

_refine_special_details          
;
Refinement of F^2^ against ALL reflections. The weighted R-factor wR and
goodness of fit S are based on F^2^, conventional R-factors R are based
on F, with F set to zero for negative F^2^. The threshold expression of
F^2^ > 2sigma(F^2^) is used only for calculating R-factors(gt) etc. and is
not relevant to the choice of reflections for refinement. R-factors based
on F^2^ are statistically about twice as large as those based on F, and R-
factors based on ALL data will be even larger.
;

_refine_ls_structure_factor_coef Fsqd
_refine_ls_matrix_type           full
_refine_ls_weighting_scheme      calc
_refine_ls_weighting_details     
'calc w=1/[\s^2^(Fo^2^)+(0.1177P)^2^+0.0000P] where P=(Fo^2^+2Fc^2^)/3'
_atom_sites_solution_primary     direct
_atom_sites_solution_secondary   difmap
_atom_sites_solution_hydrogens   geom
_refine_ls_hydrogen_treatment    constr
_refine_ls_extinction_method     none
_refine_ls_extinction_coef       ?
_refine_ls_abs_structure_details 'Flack H D (1983), Acta Cryst. A39, 876-881'
_refine_ls_abs_structure_Flack   0.00(4)
_refine_ls_number_reflns         3771
_refine_ls_number_parameters     208
_refine_ls_number_restraints     1
_refine_ls_R_factor_all          0.0778
_refine_ls_R_factor_gt           0.0629
_refine_ls_wR_factor_ref         0.1994
_refine_ls_wR_factor_gt          0.1751
_refine_ls_goodness_of_fit_ref   1.110
_refine_ls_restrained_S_all      1.110
_refine_ls_shift/su_max          0.001
_refine_ls_shift/su_mean         0.000

loop_
_atom_site_label
_atom_site_type_symbol
_atom_site_fract_x
_atom_site_fract_y
_atom_site_fract_z
_atom_site_U_iso_or_equiv
_atom_site_adp_type
_atom_site_occupancy
_atom_site_symmetry_multiplicity
_atom_site_calc_flag
_atom_site_refinement_flags
_atom_site_disorder_assembly
_atom_site_disorder_group
Mn1 Mn 0.72606(3) 0.02709(8) 0.76893(10) 0.0348(2) Uani 1 1 d . . .
S1 S 0.78150(5) -0.30024(13) 0.83864(18) 0.0383(3) Uani 1 1 d . . .
O1 O 0.76467(16) -0.1604(4) 0.8853(5) 0.0455(9) Uani 1 1 d . . .
O2 O 0.73998(18) -0.3663(6) 0.7171(8) 0.0707(16) Uani 1 1 d . . .
O3 O 0.7909(2) -0.3834(5) 0.9946(7) 0.0618(13) Uani 1 1 d . . .
O4 O 0.82781(17) -0.2918(6) 0.7550(6) 0.0559(12) Uani 1 1 d . . .
O5 O 0.69370(19) 0.2116(5) 0.6122(6) 0.0555(11) Uani 1 1 d . . .
H5B H 0.6818 0.2685 0.6713 0.083 Uiso 1 1 d R . .
H5A H 0.6814 0.2134 0.5093 0.083 Uiso 1 1 d R . .
O6 O 0.73549(17) -0.0563(5) 0.5147(5) 0.0519(11) Uani 1 1 d . . .
H6B H 0.7386 -0.0030 0.4336 0.078 Uiso 1 1 d R . .
H6C H 0.7468 -0.1352 0.4924 0.078 Uiso 1 1 d R . .
O7 O 0.6691(2) 0.4338(6) 0.7951(8) 0.0714(14) Uani 1 1 d . . .
H7B H 0.6841 0.5045 0.7638 0.107 Uiso 1 1 d R . .
H7C H 0.6773 0.4245 0.9040 0.107 Uiso 1 1 d R . .
N1 N 0.80572(17) 0.1315(5) 0.7901(7) 0.0424(11) Uani 1 1 d . . .
N2 N 1.14461(18) 0.4372(6) 0.7419(7) 0.0468(12) Uani 1 1 d . . .
C1 C 0.8937(2) 0.1156(7) 0.7409(13) 0.066(2) Uani 1 1 d . . .
H1A H 0.9202 0.0597 0.7121 0.079 Uiso 1 1 calc R . .
C2 C 0.8458(2) 0.0595(7) 0.7483(11) 0.062(2) Uani 1 1 d . . .
H2A H 0.8409 -0.0349 0.7225 0.074 Uiso 1 1 calc R . .
C3 C 0.8135(2) 0.2650(7) 0.8285(8) 0.0436(13) Uani 1 1 d . . .
H3A H 0.7867 0.3155 0.8646 0.052 Uiso 1 1 calc R . .
C4 C 0.8600(2) 0.3344(7) 0.8179(9) 0.0465(14) Uani 1 1 d . . .
H4 H 0.8627 0.4302 0.8375 0.056 Uiso 1 1 calc R . .
C5 C 0.9023(2) 0.2586(7) 0.7773(9) 0.0462(14) Uani 1 1 d . . .
C6 C 0.9505(2) 0.3256(8) 0.7688(10) 0.0575(17) Uani 1 1 d . . .
H6A H 0.9517 0.4222 0.7819 0.069 Uiso 1 1 calc R . .
C7 C 0.9938(2) 0.2617(7) 0.7439(10) 0.0553(16) Uani 1 1 d . . .
H7A H 0.9921 0.1654 0.7275 0.066 Uiso 1 1 calc R . .
C8 C 1.0449(2) 0.3295(7) 0.7397(9) 0.0511(15) Uani 1 1 d . . .
C9 C 1.0556(2) 0.4666(8) 0.7748(11) 0.0573(17) Uani 1 1 d . . .
H9A H 1.0293 0.5253 0.7995 0.069 Uiso 1 1 calc R . .
C10 C 1.1056(2) 0.5217(11) 0.7747(10) 0.0614(16) Uani 1 1 d . . .
H10A H 1.1118 0.6162 0.7970 0.074 Uiso 1 1 calc R . .
C11 C 1.1339(2) 0.3065(7) 0.7049(10) 0.0544(17) Uani 1 1 d . . .
H11A H 1.1603 0.2497 0.6774 0.065 Uiso 1 1 calc R . .
C12 C 1.0850(3) 0.2468(8) 0.7042(11) 0.0606(19) Uani 1 1 d . . .
H12A H 1.0797 0.1523 0.6799 0.073 Uiso 1 1 calc R . .

loop_
_atom_site_aniso_label
_atom_site_aniso_U_11
_atom_site_aniso_U_22
_atom_site_aniso_U_33
_atom_site_aniso_U_23
_atom_site_aniso_U_13
_atom_site_aniso_U_12
Mn1 0.0300(4) 0.0295(4) 0.0462(4) 0.0004(3) 0.0107(3) -0.0031(3)
S1 0.0364(6) 0.0322(7) 0.0488(7) 0.0026(6) 0.0143(5) 0.0032(5)
O1 0.054(2) 0.032(2) 0.052(2) 0.0026(18) 0.0131(19) 0.0058(18)
O2 0.050(3) 0.075(4) 0.086(4) -0.039(3) 0.006(3) -0.002(3)
O3 0.079(3) 0.048(3) 0.065(3) 0.023(2) 0.034(2) 0.021(2)
O4 0.046(2) 0.057(3) 0.069(3) 0.004(2) 0.022(2) -0.004(2)
O5 0.070(3) 0.040(2) 0.055(2) 0.006(2) 0.004(2) 0.013(2)
O6 0.072(3) 0.043(2) 0.045(2) 0.0023(19) 0.022(2) 0.006(2)
O7 0.083(4) 0.054(3) 0.078(3) -0.007(3) 0.016(3) 0.004(3)
N1 0.033(2) 0.037(3) 0.059(3) -0.001(2) 0.013(2) -0.0079(19)
N2 0.031(2) 0.047(3) 0.064(3) -0.001(2) 0.011(2) -0.004(2)
C1 0.037(3) 0.042(4) 0.125(7) -0.007(4) 0.031(4) 0.001(3)
C2 0.031(3) 0.035(4) 0.123(6) -0.011(3) 0.023(3) -0.004(2)
C3 0.032(3) 0.048(3) 0.053(3) -0.001(3) 0.014(2) -0.010(2)
C4 0.031(3) 0.038(3) 0.072(4) -0.004(3) 0.013(3) -0.003(2)
C5 0.036(3) 0.042(3) 0.063(4) -0.001(3) 0.016(3) -0.006(2)
C6 0.036(3) 0.059(4) 0.081(5) -0.006(3) 0.018(3) -0.014(3)
C7 0.042(3) 0.041(3) 0.086(5) -0.007(3) 0.017(3) -0.007(3)
C8 0.034(3) 0.052(4) 0.069(4) 0.003(3) 0.013(3) 0.001(3)
C9 0.029(3) 0.052(4) 0.094(5) -0.008(4) 0.019(3) -0.002(3)
C10 0.032(3) 0.055(4) 0.097(5) -0.008(4) 0.007(3) -0.003(3)
C11 0.031(3) 0.047(4) 0.088(5) -0.016(3) 0.016(3) -0.005(2)
C12 0.042(3) 0.049(4) 0.093(5) -0.017(3) 0.018(3) -0.007(3)

_geom_special_details            
;
All esds (except the esd in the dihedral angle between two l.s. planes)
are estimated using the full covariance matrix. The cell esds are taken
into account individually in the estimation of esds in distances, angles
and torsion angles; correlations between esds in cell parameters are only
used when they are defined by crystal symmetry. An approximate (isotropic)
treatment of cell esds is used for estimating esds involving l.s. planes.
;

loop_
_geom_bond_atom_site_label_1
_geom_bond_atom_site_label_2
_geom_bond_distance
_geom_bond_site_symmetry_2
_geom_bond_publ_flag
Mn1 O3 2.132(4) 4_657 ?
Mn1 O6 2.176(4) . ?
Mn1 O1 2.182(4) . ?
Mn1 O5 2.232(5) . ?
Mn1 N2 2.274(5) 3_445 ?
Mn1 N1 2.291(4) . ?
S1 O3 1.435(5) . ?
S1 O2 1.462(5) . ?
S1 O4 1.463(4) . ?
S1 O1 1.471(4) . ?
O3 Mn1 2.132(4) 4_647 ?
O5 H5B 0.8054 . ?
O5 H5A 0.8110 . ?
O6 H6B 0.8232 . ?
O6 H6C 0.8386 . ?
O7 H7B 0.8374 . ?
O7 H7C 0.8418 . ?
N1 C3 1.320(8) . ?
N1 C2 1.335(8) . ?
N2 C11 1.303(9) . ?
N2 C10 1.357(9) . ?
N2 Mn1 2.274(5) 3 ?
C1 C2 1.371(8) . ?
C1 C5 1.409(9) . ?
C1 H1A 0.9300 . ?
C2 H2A 0.9300 . ?
C3 C4 1.397(7) . ?
C3 H3A 0.9300 . ?
C4 C5 1.399(8) . ?
C4 H4 0.9300 . ?
C5 C6 1.423(8) . ?
C6 C7 1.327(9) . ?
C6 H6A 0.9300 . ?
C7 C8 1.489(8) . ?
C7 H7A 0.9300 . ?
C8 C9 1.360(10) . ?
C8 C12 1.376(9) . ?
C9 C10 1.409(9) . ?
C9 H9A 0.9300 . ?
C10 H10A 0.9300 . ?
C11 C12 1.398(9) . ?
C11 H11A 0.9300 . ?
C12 H12A 0.9300 . ?

loop_
_geom_angle_atom_site_label_1
_geom_angle_atom_site_label_2
_geom_angle_atom_site_label_3
_geom_angle
_geom_angle_site_symmetry_1
_geom_angle_site_symmetry_3
_geom_angle_publ_flag
O3 Mn1 O6 174.0(2) 4_657 . ?
O3 Mn1 O1 96.93(19) 4_657 . ?
O6 Mn1 O1 87.78(16) . . ?
O3 Mn1 O5 92.1(2) 4_657 . ?
O6 Mn1 O5 83.40(18) . . ?
O1 Mn1 O5 170.31(16) . . ?
O3 Mn1 N2 84.92(19) 4_657 3_445 ?
O6 Mn1 N2 91.0(2) . 3_445 ?
O1 Mn1 N2 95.23(19) . 3_445 ?
O5 Mn1 N2 88.9(2) . 3_445 ?
O3 Mn1 N1 94.25(18) 4_657 . ?
O6 Mn1 N1 89.58(18) . . ?
O1 Mn1 N1 88.51(18) . . ?
O5 Mn1 N1 87.43(19) . . ?
N2 Mn1 N1 176.2(2) 3_445 . ?
O3 S1 O2 108.2(4) . . ?
O3 S1 O4 111.1(3) . . ?
O2 S1 O4 108.6(3) . . ?
O3 S1 O1 108.4(3) . . ?
O2 S1 O1 109.4(3) . . ?
O4 S1 O1 111.1(3) . . ?
S1 O1 Mn1 141.5(3) . . ?
S1 O3 Mn1 156.2(3) . 4_647 ?
Mn1 O5 H5B 111.9 . . ?
Mn1 O5 H5A 127.5 . . ?
H5B O5 H5A 114.6 . . ?
Mn1 O6 H6B 120.2 . . ?
Mn1 O6 H6C 127.7 . . ?
H6B O6 H6C 108.7 . . ?
H7B O7 H7C 108.6 . . ?
C3 N1 C2 117.0(5) . . ?
C3 N1 Mn1 123.0(4) . . ?
C2 N1 Mn1 119.7(4) . . ?
C11 N2 C10 118.2(6) . . ?
C11 N2 Mn1 123.2(4) . 3 ?
C10 N2 Mn1 118.5(5) . 3 ?
C2 C1 C5 119.3(6) . . ?
C2 C1 H1A 120.3 . . ?
C5 C1 H1A 120.3 . . ?
N1 C2 C1 124.4(6) . . ?
N1 C2 H2A 117.8 . . ?
C1 C2 H2A 117.8 . . ?
N1 C3 C4 123.5(6) . . ?
N1 C3 H3A 118.3 . . ?
C4 C3 H3A 118.3 . . ?
C3 C4 C5 119.4(6) . . ?
C3 C4 H4 120.3 . . ?
C5 C4 H4 120.3 . . ?
C4 C5 C1 116.2(5) . . ?
C4 C5 C6 120.9(6) . . ?
C1 C5 C6 122.9(6) . . ?
C7 C6 C5 125.4(7) . . ?
C7 C6 H6A 117.3 . . ?
C5 C6 H6A 117.3 . . ?
C6 C7 C8 126.2(7) . . ?
C6 C7 H7A 116.9 . . ?
C8 C7 H7A 116.9 . . ?
C9 C8 C12 117.1(6) . . ?
C9 C8 C7 124.9(6) . . ?
C12 C8 C7 117.9(6) . . ?
C8 C9 C10 121.5(6) . . ?
C8 C9 H9A 119.3 . . ?
C10 C9 H9A 119.3 . . ?
N2 C10 C9 120.1(8) . . ?
N2 C10 H10A 120.0 . . ?
C9 C10 H10A 120.0 . . ?
N2 C11 C12 123.9(6) . . ?
N2 C11 H11A 118.1 . . ?
C12 C11 H11A 118.1 . . ?
C8 C12 C11 119.3(7) . . ?
C8 C12 H12A 120.4 . . ?
C11 C12 H12A 120.4 . . ?

_diffrn_measured_fraction_theta_max 0.993
_diffrn_reflns_theta_full        27.48
_diffrn_measured_fraction_theta_full 0.993
_refine_diff_density_max         0.695
_refine_diff_density_min         -0.539
_refine_diff_density_rms         0.126


