
#######################################################################
#
#                 Cambridge Crystallographic Data Centre
#                                CCDC
#
#######################################################################
#
# If this CIF has been generated from an entry in the Cambridge
# Structural Database, then it will include bibliographic, chemical,
# crystal, experimental, refinement or atomic coordinate data resulting
# from the CCDC's data processing and validation procedures.
#
#######################################################################

data_CSD_CIF_FINNUM
_audit_creation_date 2005-06-07
_audit_creation_method CSD-ConQuest-V1
_database_code_CSD FINNUM
_database_code_depnum_ccdc_archive 'CCDC 256507'
_chemical_formula_sum 'C20 H26 Cu1 O12 S2'
_chemical_formula_moiety
;
H12 Cu1 O6 2+,2(C10 H7 O3 S1 1-)
;
_journal_coden_Cambridge 119
_journal_volume 738
_journal_year 2005
_journal_page_first 291
_journal_name_full 'J.Mol.Struct. '
loop_
_publ_author_name
"R.P.Sharma"
"R.Sharma"
"R.Bala"
"U.Rychlewska"
"B.Warzajtis"
_chemical_name_systematic
;
hexaaqua-copper(ii) bis(naphthalene-2-sulfonate)
;
_chemical_name_common
;
Teaching Subset: Fundamental Chemistry
;
_chemical_melting_point 363.15
_cell_volume   1199.204
_exptl_crystal_colour 'light blue'
_exptl_crystal_density_diffrn 1.623
_exptl_crystal_description 'planar'
_exptl_crystal_preparation 'hot water'
_diffrn_ambient_temperature 293
#These two values have been output from a single CSD field.
_refine_ls_R_factor_gt 0.033
_refine_ls_wR_factor_gt 0.033
_symmetry_cell_setting monoclinic
_symmetry_space_group_name_H-M 'P 21/n'
_symmetry_Int_Tables_number 14
loop_
_symmetry_equiv_pos_site_id
_symmetry_equiv_pos_as_xyz
1 x,y,z
2 1/2-x,1/2+y,1/2-z
3 -x,-y,-z
4 -1/2+x,-1/2-y,-1/2+z
_cell_length_a 7.0582(3)
_cell_length_b 6.2666(3)
_cell_length_c 27.142(1)
_cell_angle_alpha 90
_cell_angle_beta 92.678(4)
_cell_angle_gamma 90
_cell_formula_units_Z 2
loop_
_atom_type_symbol
_atom_type_radius_bond
C 0.68
H 0.23
Cu 1.52
O 0.68
S 1.02
loop_
_atom_site_label
_atom_site_type_symbol
_atom_site_fract_x
_atom_site_fract_y
_atom_site_fract_z
C1 C 0.4539(3) 0.8168(4) 0.18610(9)
H1 H 0.40960 0.68080 0.17810
C2 C 0.5027(3) 0.9533(3) 0.14971(8)
C3 C 0.5678(3) 1.1622(4) 0.16083(9)
H2 H 0.59820 1.25470 0.13560
C4 C 0.5856(3) 1.2265(4) 0.20848(9)
H3 H 0.62970 1.36330 0.21570
C5 C 0.5556(3) 1.1538(4) 0.29780(9)
H4 H 0.60020 1.28970 0.30580
C6 C 0.5071(4) 1.0175(5) 0.33418(10)
H5 H 0.51870 1.06130 0.36690
C7 C 0.4398(4) 0.8118(5) 0.32289(10)
H6 H 0.40740 0.72050 0.34820
C8 C 0.4216(3) 0.7445(4) 0.27517(10)
H7 H 0.37690 0.60770 0.26820
C9 C 0.4703(3) 0.8812(4) 0.23609(9)
C10 C 0.5381(3) 1.0891(4) 0.24754(9)
S1 S 0.48216(8) 0.87463(9) 0.08699(2)
O1 O 0.6523(2) 0.9519(3) 0.06433(6)
O2 O 0.3109(2) 0.9777(2) 0.06604(6)
O3 O 0.4672(2) 0.6427(2) 0.08629(6)
Cu1 Cu 0.00000 0.50000 0.00000
O4 O -0.0153(2) 0.7753(3) 0.03445(7)
H8 H 0.08560 0.84300 0.04730
H9 H -0.11120 0.83080 0.04530
O5 O 0.1749(2) 0.3906(3) 0.05291(6)
H10 H 0.21790 0.26300 0.05350
H11 H 0.26650 0.47090 0.06230
O6 O -0.2623(2) 0.3786(3) 0.03739(7)
H12 H -0.34940 0.46280 0.04680
H13 H -0.28950 0.24740 0.04160
O4B O 0.0153(2) 0.2247(3) -0.03445(7)
H8B H -0.08560 0.15700 -0.04730
H9B H 0.11120 0.16920 -0.04530
O5B O -0.1749(2) 0.6094(3) -0.05291(6)
H10B H -0.21790 0.73700 -0.05350
H11B H -0.26650 0.52910 -0.06230
O6B O 0.2623(2) 0.6214(3) -0.03739(7)
H12B H 0.34940 0.53720 -0.04680
H13B H 0.28950 0.75260 -0.04160
#END
