####################################################################### 
# 
# This file contains crystal structure data downloaded from the 
# Cambridge Structural Database (CSD) hosted by the Cambridge 
# Crystallographic Data Centre (CCDC).
# 
# Full information about CCDC data access policies and citation 
# guidelines are available at http://www.ccdc.cam.ac.uk/access/V1 
# 
# Audit and citation data items may have been added by the CCDC. 
# Please retain this information to preserve the provenance of 
# this file and to allow appropriate attribution of the data. 
# 
#######################################################################

data_ZnCar
_audit_block_doi                 10.5517/cc10vrqb
_database_code_depnum_ccdc_archive 'CCDC 949242'
loop_
_citation_id
_citation_doi
_citation_year
1 10.1002/anie.201307074 2014
_audit_update_record             
;
2013-07-08 deposited with the CCDC.	2024-07-10 downloaded from the CCDC.
;
_audit_creation_date             2013-07-02
_audit_creation_method           
;
  Olex2 1.2
  (compiled Apr 23 2013 17:59:47, GUI svn.r4466)
;
_chemical_name_common            'Zinc carnosine'
_chemical_name_systematic        ?
_chemical_formula_moiety         'C9 H12 N4 O3 Zn'
_chemical_formula_sum            'C9 H12 N4 O3 Zn'
_chemical_formula_weight         289.60
_chemical_absolute_configuration ad
_chemical_melting_point          ?
loop_
_atom_type_symbol
_atom_type_description
_atom_type_scat_dispersion_real
_atom_type_scat_dispersion_imag
_atom_type_scat_source
C C 0.0033 0.0016 'International Tables Vol C Tables 4.2.6.8 and 6.1.1.4'
H H 0.0000 0.0000 'International Tables Vol C Tables 4.2.6.8 and 6.1.1.4'
N N 0.0061 0.0033 'International Tables Vol C Tables 4.2.6.8 and 6.1.1.4'
O O 0.0106 0.0060 'International Tables Vol C Tables 4.2.6.8 and 6.1.1.4'
Zn Zn 0.2839 1.4301 'International Tables Vol C Tables 4.2.6.8 and 6.1.1.4'

_space_group_crystal_system      monoclinic
_space_group_IT_number           4
_space_group_name_H-M_alt        'P 1 21 1'
_space_group_name_Hall           'P 2yb'
loop_
_space_group_symop_id
_space_group_symop_operation_xyz
1 'x, y, z'
2 '-x, y+1/2, -z'

_cell_length_a                   9.198(3)
_cell_length_b                   9.330(3)
_cell_length_c                   9.636(3)
_cell_angle_alpha                90.00
_cell_angle_beta                 118.480(11)
_cell_angle_gamma                90.00
_cell_volume                     726.8(4)
_cell_formula_units_Z            2
_cell_measurement_reflns_used    2050
_cell_measurement_temperature    394(2)
_cell_measurement_theta_max      20.66
_cell_measurement_theta_min      2.40
_exptl_absorpt_coefficient_mu    1.691
_exptl_absorpt_correction_T_max  0.7446
_exptl_absorpt_correction_T_min  0.5223
_exptl_absorpt_correction_type   multi-scan
_exptl_absorpt_process_details   
;
Absorption correction performed using SADABS2008-1 (Bruker, 2008).
wR2(int) was 0.1505 before parameter refinement and 0.0977 after
parameter refinement.
The ratio of minimum to maximum transmission was 0.7015.
The \l/2 correction factor is 0.0015.
;
_exptl_crystal_colour            'clear light colourless'
_exptl_crystal_colour_lustre     clear
_exptl_crystal_colour_modifier   light
_exptl_crystal_colour_primary    colourless
_exptl_crystal_density_diffrn    1.323
_exptl_crystal_density_meas      ?
_exptl_crystal_density_method    'not measured'
_exptl_crystal_description       needle
_exptl_crystal_F_000             296
_exptl_crystal_preparation       ?
_exptl_crystal_recrystallization_method ?
_exptl_crystal_size_max          0.495
_exptl_crystal_size_mid          0.049
_exptl_crystal_size_min          0.012
_exptl_special_details           
;
 ? 
;
_diffrn_reflns_av_R_equivalents  0.0833
_diffrn_reflns_av_unetI/netI     0.0665
_diffrn_reflns_limit_h_max       9
_diffrn_reflns_limit_h_min       -9
_diffrn_reflns_limit_k_max       9
_diffrn_reflns_limit_k_min       -9
_diffrn_reflns_limit_l_max       9
_diffrn_reflns_limit_l_min       -9
_diffrn_reflns_number            7194
_diffrn_reflns_theta_full        20.89
_diffrn_reflns_theta_max         20.89
_diffrn_reflns_theta_min         2.40
_diffrn_ambient_temperature      394(2)
_diffrn_detector                 CCD
_diffrn_detector_area_resol_mean 28.5714
_diffrn_detector_type            'Rigaku Saturn724+'
_diffrn_measured_fraction_theta_full 0.995
_diffrn_measured_fraction_theta_max 0.995
_diffrn_measurement_device       'AFC12 (Right): Kappa 3 circle'
_diffrn_measurement_device_type  'Rigaku Saturn724+ (2x2 bin mode)'
_diffrn_measurement_method       'profile data from \w-scans'
_diffrn_measurement_specimen_support 'Mitegen 50um'
_diffrn_radiation_collimation    0.3
_diffrn_radiation_monochromator  Confocal
_diffrn_radiation_probe          x-ray
_diffrn_radiation_type           'Mo K\a'
_diffrn_radiation_wavelength     0.710747
_diffrn_radiation_xray_symbol    K-L~3~
_diffrn_source                   'Rotating Anode'
_diffrn_source_current           24.0
_diffrn_source_power             1.2
_diffrn_source_target            Mo
_diffrn_source_type              'Rotating Anode'
_diffrn_source_voltage           50.0
_diffrn_special_details          
;
Collection was part of an 18-step variable temperature study 
from 240K to 408K starting from the N,N-dimethylformamide solvate 
isolated from the reaction medium. 
;
_reflns_number_gt                1258
_reflns_number_total             1543
_reflns_threshold_expression     >2sigma(I)
_computing_cell_refinement       
;
CrystalClear-SM Expert 2.0 r7 (Rigaku, 2011)
;
_computing_data_collection       
;
CrystalClear-SM Expert 2.0 r7 (Rigaku, 2011)
;
_computing_data_reduction        
;
CrystalClear-SM Expert 2.0 r7 (Rigaku, 2011)
;
_computing_molecular_graphics    
;
O. V. Dolomanov, L. J. Bourhis, R. J. Gildea, J. A. K. Howard and H. Puschmann,
OLEX2: a complete structure solution, refinement and analysis program.
J. Appl. Cryst. (2009). 42, 339-341.
;
_computing_publication_material  
;
O. V. Dolomanov, L. J. Bourhis, R. J. Gildea, J. A. K. Howard and H. Puschmann,
OLEX2: a complete structure solution, refinement and analysis program.
J. Appl. Cryst. (2009). 42, 339-341.
;
_computing_structure_refinement  
;
XLMP, G.M. Sheldrick, Acta Cryst.
(2008). A64, 112-122
;
_computing_structure_solution    
;
SHELXS, G.M. Sheldrick, Acta Cryst.
(2008). A64, 112-122
;
_refine_diff_density_max         0.999
_refine_diff_density_min         -0.375
_refine_diff_density_rms         0.102
_refine_ls_abs_structure_details 'Flack H D (1983), Acta Cryst. A39, 876-881'
_refine_ls_abs_structure_Flack   0.02(4)
_refine_ls_extinction_coef       ?
_refine_ls_extinction_method     none
_refine_ls_goodness_of_fit_ref   1.066
_refine_ls_hydrogen_treatment    mixed
_refine_ls_matrix_type           full
_refine_ls_number_parameters     154
_refine_ls_number_reflns         1543
_refine_ls_number_restraints     1
_refine_ls_R_factor_all          0.0714
_refine_ls_R_factor_gt           0.0561
_refine_ls_restrained_S_all      1.066
_refine_ls_shift/su_max          0.000
_refine_ls_shift/su_mean         0.000
_refine_ls_structure_factor_coef Fsqd
_refine_ls_weighting_details     
'calc w=1/[\s^2^(Fo^2^)+(0.0881P)^2^+0.0000P] where P=(Fo^2^+2Fc^2^)/3'
_refine_ls_weighting_scheme      calc
_refine_ls_wR_factor_gt          0.1324
_refine_ls_wR_factor_ref         0.1423
_refine_special_details          
;
 Refinement of F^2^ against ALL reflections.  The weighted R-factor wR and 
 goodness of fit S are based on F^2^, conventional R-factors R are based 
 on F, with F set to zero for negative F^2^. The threshold expression of 
 F^2^ > 2sigma(F^2^) is used only for calculating R-factors(gt) etc. and is 
 not relevant to the choice of reflections for refinement.  R-factors based 
 on F^2^ are statistically about twice as large as those based on F, and R- 
 factors based on ALL data will be even larger. 
;
_olex2_refinement_description    
;
1. Fixed Uiso
 At 1.2 times of:
  All C(H) groups, All C(H,H) groups, All N(H) groups, All N(H,H) groups
2.a Ternary CH refined with riding coordinates:
 C7(H7)
2.b Secondary CH2 refined with riding coordinates:
 N16(H16a,H16b), C6(H6a,H6b), C14(H14a,H14b), C15(H15a,H15b)
2.c Aromatic/amide H refined with riding coordinates:
 C2(H2), N8(H8), C5(H5)
;
_atom_sites_solution_hydrogens   geom
_atom_sites_solution_primary     direct
_atom_sites_solution_secondary   difmap
loop_
_atom_site_label
_atom_site_type_symbol
_atom_site_fract_x
_atom_site_fract_y
_atom_site_fract_z
_atom_site_U_iso_or_equiv
_atom_site_adp_type
_atom_site_occupancy
_atom_site_symmetry_multiplicity
_atom_site_calc_flag
_atom_site_refinement_flags
_atom_site_disorder_assembly
_atom_site_disorder_group
Zn1 Zn 1.08399(13) 0.55921(16) 0.86288(10) 0.0682(5) Uani 1 1 d . . .
N16 N 0.3270(12) 0.5791(14) -0.0654(10) 0.101(3) Uani 1 1 d . . .
H16A H 0.3649 0.4912 -0.0700 0.121 Uiso 1 1 calc R . .
H16B H 0.3369 0.6331 -0.1378 0.121 Uiso 1 1 calc R . .
O12 O 0.9933(10) 0.5064(7) 0.6434(8) 0.083(2) Uani 1 1 d . . .
C2 C 1.006(2) 0.3051(17) 0.0027(17) 0.077(3) Uani 1 1 d . . .
H2 H 0.9648 0.2564 -0.0929 0.092 Uiso 1 1 calc R . .
N3 N 1.0050(11) 0.2501(9) 0.1282(9) 0.074(2) Uani 1 1 d . . .
O13 O 1.0118(18) 0.2734(11) 0.6709(11) 0.123(4) Uani 1 1 d . . .
C6 C 1.0977(15) 0.3525(13) 0.4089(13) 0.074(3) Uani 1 1 d . . .
H6A H 1.1727 0.4285 0.4706 0.088 Uiso 1 1 calc R . .
H6B H 1.1488 0.2620 0.4569 0.088 Uiso 1 1 calc R . .
N8 N 0.8423(12) 0.4876(9) 0.3243(9) 0.068(2) Uani 1 1 d . . .
H8 H 0.8942 0.5679 0.3438 0.081 Uiso 1 1 calc R . .
C5 C 1.1139(15) 0.4664(11) 0.1774(11) 0.075(3) Uani 1 1 d . . .
H5 H 1.1620 0.5520 0.2276 0.091 Uiso 1 1 calc R . .
C7 C 0.9369(14) 0.3684(10) 0.4175(11) 0.066(3) Uani 1 1 d . . .
H7 H 0.8714 0.2809 0.3758 0.079 Uiso 1 1 calc R . .
C11 C 0.9851(13) 0.3817(13) 0.5917(10) 0.068(3) Uani 1 1 d . . .
O10 O 0.6133(13) 0.3727(13) 0.1696(15) 0.162(5) Uani 1 1 d . . .
C9 C 0.6916(18) 0.4909(16) 0.2165(17) 0.100(4) Uani 1 1 d . . .
N1 N 1.0712(12) 0.4341(10) 0.0236(10) 0.076(3) Uani 1 1 d . . .
C4 C 1.0767(14) 0.3576(11) 0.2446(10) 0.066(3) Uani 1 1 d . . .
C14 C 0.617(2) 0.6346(17) 0.139(2) 0.134(7) Uani 1 1 d . . .
H14A H 0.6693 0.7114 0.2146 0.161 Uiso 1 1 calc R . .
H14B H 0.6366 0.6506 0.0503 0.161 Uiso 1 1 calc R . .
C15 C 0.4364(19) 0.6366(17) 0.0841(16) 0.123(5) Uani 1 1 d . . .
H15A H 0.4175 0.5859 0.1619 0.148 Uiso 1 1 calc R . .
H15B H 0.4047 0.7356 0.0850 0.148 Uiso 1 1 calc R . .

loop_
_atom_site_aniso_label
_atom_site_aniso_U_11
_atom_site_aniso_U_22
_atom_site_aniso_U_33
_atom_site_aniso_U_23
_atom_site_aniso_U_13
_atom_site_aniso_U_12
Zn1 0.1250(9) 0.0429(6) 0.0493(6) 0.0005(6) 0.0518(6) 0.0006(9)
N16 0.150(8) 0.069(8) 0.087(6) 0.024(6) 0.059(6) 0.018(7)
O12 0.163(7) 0.040(6) 0.053(4) -0.007(3) 0.056(4) -0.004(4)
C2 0.145(8) 0.050(7) 0.046(5) 0.003(4) 0.054(5) -0.001(6)
N3 0.137(7) 0.053(6) 0.053(5) 0.009(5) 0.063(5) 0.005(5)
O13 0.265(13) 0.064(6) 0.074(5) 0.005(6) 0.108(7) 0.015(8)
C6 0.125(10) 0.046(7) 0.054(6) -0.001(6) 0.046(6) 0.001(6)
N8 0.103(7) 0.054(5) 0.049(5) 0.002(4) 0.038(5) 0.001(4)
C5 0.155(10) 0.043(7) 0.046(6) 0.002(5) 0.063(6) -0.006(6)
C7 0.114(9) 0.033(6) 0.057(6) -0.002(5) 0.046(6) -0.004(5)
C11 0.115(9) 0.056(9) 0.043(6) -0.003(6) 0.047(6) 0.004(6)
O10 0.142(9) 0.098(8) 0.166(11) -0.020(8) 0.009(7) 0.000(7)
C9 0.094(11) 0.080(9) 0.092(10) -0.012(8) 0.017(9) -0.014(8)
N1 0.146(8) 0.038(6) 0.057(6) 0.008(4) 0.058(5) 0.005(5)
C4 0.129(8) 0.045(6) 0.040(5) 0.003(5) 0.054(6) 0.001(6)
C14 0.100(13) 0.102(12) 0.132(14) 0.043(10) 0.000(9) 0.005(9)
C15 0.157(16) 0.090(10) 0.102(11) -0.018(8) 0.045(10) -0.002(9)

_geom_special_details            
;
 All esds (except the esd in the dihedral angle between two l.s. planes) 
 are estimated using the full covariance matrix.  The cell esds are taken 
 into account individually in the estimation of esds in distances, angles 
 and torsion angles; correlations between esds in cell parameters are only 
 used when they are defined by crystal symmetry.  An approximate (isotropic) 
 treatment of cell esds is used for estimating esds involving l.s. planes. 
;
loop_
_geom_bond_atom_site_label_1
_geom_bond_atom_site_label_2
_geom_bond_distance
_geom_bond_site_symmetry_2
_geom_bond_publ_flag
Zn1 N16 2.009(10) 1_656 ?
Zn1 O12 1.931(7) . ?
Zn1 N3 1.979(9) 2_756 ?
Zn1 N1 1.987(9) 1_556 ?
N16 Zn1 2.009(10) 1_454 ?
N16 H16A 0.9000 . ?
N16 H16B 0.9000 . ?
N16 C15 1.412(15) . ?
O12 C11 1.254(12) . ?
C2 H2 0.9300 . ?
C2 N3 1.319(17) . ?
C2 N1 1.316(17) . ?
N3 Zn1 1.979(9) 2_746 ?
N3 C4 1.412(12) . ?
O13 C11 1.219(13) . ?
C6 H6A 0.9700 . ?
C6 H6B 0.9700 . ?
C6 C7 1.528(15) . ?
C6 C4 1.501(14) . ?
N8 H8 0.8600 . ?
N8 C7 1.434(13) . ?
N8 C9 1.275(14) . ?
C5 H5 0.9300 . ?
C5 N1 1.374(13) . ?
C5 C4 1.333(14) . ?
C7 H7 0.9800 . ?
C7 C11 1.523(12) . ?
O10 C9 1.276(16) . ?
C9 C14 1.530(18) . ?
N1 Zn1 1.987(9) 1_554 ?
C14 H14A 0.9700 . ?
C14 H14B 0.9700 . ?
C14 C15 1.48(2) . ?
C15 H15A 0.9700 . ?
C15 H15B 0.9700 . ?

loop_
_geom_angle_atom_site_label_1
_geom_angle_atom_site_label_2
_geom_angle_atom_site_label_3
_geom_angle
_geom_angle_site_symmetry_1
_geom_angle_site_symmetry_3
_geom_angle_publ_flag
O12 Zn1 N16 103.3(4) . 1_656 ?
O12 Zn1 N3 107.8(3) . 2_756 ?
O12 Zn1 N1 123.2(4) . 1_556 ?
N3 Zn1 N16 108.5(5) 2_756 1_656 ?
N3 Zn1 N1 108.4(3) 2_756 1_556 ?
N1 Zn1 N16 104.8(4) 1_556 1_656 ?
Zn1 N16 H16A 107.0 1_454 . ?
Zn1 N16 H16B 107.0 1_454 . ?
H16A N16 H16B 106.7 . . ?
C15 N16 Zn1 121.4(9) . 1_454 ?
C15 N16 H16A 107.0 . . ?
C15 N16 H16B 107.0 . . ?
C11 O12 Zn1 125.8(6) . . ?
N3 C2 H2 122.6 . . ?
N1 C2 H2 122.6 . . ?
N1 C2 N3 114.7(13) . . ?
C2 N3 Zn1 125.1(9) . 2_746 ?
C2 N3 C4 104.3(10) . . ?
C4 N3 Zn1 130.6(6) . 2_746 ?
H6A C6 H6B 107.6 . . ?
C7 C6 H6A 108.7 . . ?
C7 C6 H6B 108.7 . . ?
C4 C6 H6A 108.7 . . ?
C4 C6 H6B 108.7 . . ?
C4 C6 C7 114.4(10) . . ?
C7 N8 H8 115.6 . . ?
C9 N8 H8 115.6 . . ?
C9 N8 C7 128.9(10) . . ?
N1 C5 H5 124.8 . . ?
C4 C5 H5 124.8 . . ?
C4 C5 N1 110.5(9) . . ?
C6 C7 H7 108.6 . . ?
N8 C7 C6 110.8(9) . . ?
N8 C7 H7 108.6 . . ?
N8 C7 C11 113.5(8) . . ?
C11 C7 C6 106.7(9) . . ?
C11 C7 H7 108.6 . . ?
O12 C11 C7 116.4(9) . . ?
O13 C11 O12 124.4(9) . . ?
O13 C11 C7 119.3(10) . . ?
N8 C9 O10 118.6(14) . . ?
N8 C9 C14 118.7(12) . . ?
O10 C9 C14 122.5(12) . . ?
C2 N1 Zn1 127.6(9) . 1_554 ?
C2 N1 C5 103.9(10) . . ?
C5 N1 Zn1 128.3(8) . 1_554 ?
N3 C4 C6 126.3(9) . . ?
C5 C4 N3 106.6(7) . . ?
C5 C4 C6 127.0(10) . . ?
C9 C14 H14A 109.5 . . ?
C9 C14 H14B 109.5 . . ?
H14A C14 H14B 108.1 . . ?
C15 C14 C9 110.7(14) . . ?
C15 C14 H14A 109.5 . . ?
C15 C14 H14B 109.5 . . ?
N16 C15 C14 119.5(14) . . ?
N16 C15 H15A 107.4 . . ?
N16 C15 H15B 107.4 . . ?
C14 C15 H15A 107.4 . . ?
C14 C15 H15B 107.4 . . ?
H15A C15 H15B 107.0 . . ?

loop_
_refln_index_h
_refln_index_k
_refln_index_l
_refln_F_squared_meas
_refln_F_squared_sigma
1 0 0 982.45 87.56
1 0 0 895.74 79.99
-1 0 0 977.38 79.98
-1 0 0 1000 87.56
-2 0 0 428.18 37.15
2 0 0 371.71 34.47
2 0 0 377.12 37.12
2 0 0 397.25 35.04
-2 0 0 491.22 38.15
-2 0 0 399.77 34.47
-2 0 0 438.05 35.04
-2 0 0 452.82 33.45
3 0 0 87.95 8.1
3 0 0 86.25 8.16
-3 0 0 92.63 8.13
-3 0 0 93.86 8.44
-3 0 0 90.25 7.53
3 0 0 86.5 7.55
3 0 0 95.62 8.46
-3 0 0 91.63 7.39
-4 0 0 23.43 2.06
-4 0 0 20.13 3
4 0 0 23.77 2.55
4 0 0 23.02 2.13
4 0 0 18.98 2.98
-4 0 0 27.11 2.51
-4 0 0 22.34 2.16
4 0 0 21.82 2.17
5 0 0 4.68 1.15
-5 0 0 4.34 1.6
-5 0 0 5.13 0.76
-5 0 0 5.64 0.99
-6 0 0 1.57 1.48
-6 0 0 1.35 1.37
-6 0 0 4.7 0.95
6 0 0 3.76 1.11
-6 0 0 3.26 0.64
-7 0 0 1.3 0.91
7 0 0 2.64 1.24
-7 0 0 1.32 0.59
-7 0 0 0.23 1.59
-7 0 0 -0.15 1.54
-8 0 0 -0.41 0.98
8 0 0 1.68 1.08
-8 0 0 0.82 0.71
0 -1 0 16.72 1.29
0 -1 0 11.69 1.46
0 1 0 1