####################################################################### 
# 
# This file contains crystal structure data downloaded from the 
# Cambridge Structural Database (CSD) hosted by the Cambridge 
# Crystallographic Data Centre (CCDC).
# 
# Full information about CCDC data access policies and citation 
# guidelines are available at http://www.ccdc.cam.ac.uk/access/V1 
# 
# Audit and citation data items may have been added by the CCDC. 
# Please retain this information to preserve the provenance of 
# this file and to allow appropriate attribution of the data. 
# 
#######################################################################

data_ZnCar_MeOH
_audit_block_doi                 10.5517/cc10vrrc
_database_code_depnum_ccdc_archive 'CCDC 949243'
loop_
_citation_id
_citation_doi
_citation_year
1 10.1002/anie.201307074 2014
_audit_update_record             
;
2013-07-08 deposited with the CCDC.	2024-07-10 downloaded from the CCDC.
;
_audit_creation_date             2013-07-02
_audit_creation_method           
;
  Olex2 1.2
  (compiled Apr 23 2013 17:59:47, GUI svn.r4466)
;
_chemical_name_common            'Zinc carnosine methanol'
_chemical_name_systematic        ?
_chemical_formula_moiety         'C9 H12 N4 O3 Zn, C H4 O'
_chemical_formula_sum            'C10 H16 N4 O4 Zn'
_chemical_formula_weight         321.64
_chemical_absolute_configuration ad
_chemical_melting_point          ?
loop_
_atom_type_symbol
_atom_type_description
_atom_type_scat_dispersion_real
_atom_type_scat_dispersion_imag
_atom_type_scat_source
C C 0.0033 0.0016 'International Tables Vol C Tables 4.2.6.8 and 6.1.1.4'
H H 0.0000 0.0000 'International Tables Vol C Tables 4.2.6.8 and 6.1.1.4'
N N 0.0061 0.0033 'International Tables Vol C Tables 4.2.6.8 and 6.1.1.4'
O O 0.0106 0.0060 'International Tables Vol C Tables 4.2.6.8 and 6.1.1.4'
Zn Zn 0.2839 1.4301 'International Tables Vol C Tables 4.2.6.8 and 6.1.1.4'

_space_group_crystal_system      monoclinic
_space_group_IT_number           4
_space_group_name_H-M_alt        'P 1 21 1'
_space_group_name_Hall           'P 2yb'
loop_
_space_group_symop_id
_space_group_symop_operation_xyz
1 'x, y, z'
2 '-x, y+1/2, -z'

_cell_length_a                   9.2522(8)
_cell_length_b                   9.2556(7)
_cell_length_c                   9.4781(8)
_cell_angle_alpha                90.00
_cell_angle_beta                 118.419(3)
_cell_angle_gamma                90.00
_cell_volume                     713.84(10)
_cell_formula_units_Z            2
_cell_measurement_reflns_used    3120
_cell_measurement_temperature    100.0
_cell_measurement_theta_max      2.44
_cell_measurement_theta_min      32.19
_exptl_absorpt_coefficient_mu    1.735
_exptl_absorpt_correction_T_max  0.7464
_exptl_absorpt_correction_T_min  0.4769
_exptl_absorpt_correction_type   multi-scan
_exptl_absorpt_process_details   
;
SADABS-2008/1 (Bruker,2008) was used for absorption correction.
wR2(int) was 0.1173  before and 0.0841 after correction.

The Ratio of minimum to maximum transmission is 0.6389.

The \l/2 correction factor is 0.0015.
;
_exptl_crystal_colour            'clear light colourless'
_exptl_crystal_colour_lustre     clear
_exptl_crystal_colour_modifier   light
_exptl_crystal_colour_primary    colourless
_exptl_crystal_density_diffrn    1.496
_exptl_crystal_density_meas      ?
_exptl_crystal_density_method    'not measured'
_exptl_crystal_description       needle
_exptl_crystal_F_000             332
_exptl_crystal_preparation       
;
Zinc carnosine DMF crystals were desolvated under vacuum and 
then immersed in methanol at room temperature.
;
_exptl_crystal_recrystallization_method ?
_exptl_crystal_size_max          0.1
_exptl_crystal_size_mid          0.02
_exptl_crystal_size_min          0.015
_exptl_special_details           
;
 ? 
;
_diffrn_reflns_av_R_equivalents  0.0992
_diffrn_reflns_av_unetI/netI     0.1030
_diffrn_reflns_limit_h_max       11
_diffrn_reflns_limit_h_min       -11
_diffrn_reflns_limit_k_max       8
_diffrn_reflns_limit_k_min       -11
_diffrn_reflns_limit_l_max       12
_diffrn_reflns_limit_l_min       -12
_diffrn_reflns_number            10516
_diffrn_reflns_theta_full        27.00
_diffrn_reflns_theta_max         27.00
_diffrn_reflns_theta_min         2.44
_diffrn_ambient_temperature      100.0
_diffrn_detector                 CCD
_diffrn_detector_area_resol_mean 28.5714
_diffrn_detector_type            'Rigaku Saturn724+'
_diffrn_measured_fraction_theta_full 0.999
_diffrn_measured_fraction_theta_max 0.999
_diffrn_measurement_device       'AFC12 (Right): Kappa 3 circle'
_diffrn_measurement_device_type  'Rigaku Saturn724+ (2x2 bin mode)'
_diffrn_measurement_method       'profile data from \w-scans'
_diffrn_measurement_specimen_support 'Mitegen 50um'
_diffrn_radiation_collimation    0.3
_diffrn_radiation_monochromator  Confocal
_diffrn_radiation_probe          x-ray
_diffrn_radiation_type           'Mo K\a'
_diffrn_radiation_wavelength     0.710747
_diffrn_radiation_xray_symbol    K-L~3~
_diffrn_source                   'Rotating Anode'
_diffrn_source_current           24.0
_diffrn_source_power             1.2
_diffrn_source_target            Mo
_diffrn_source_type              'Rotating Anode'
_diffrn_source_voltage           50.0
_reflns_number_gt                2135
_reflns_number_total             2820
_reflns_threshold_expression     >2sigma(I)
_computing_cell_refinement       
;
CrystalClear-SM Expert 2.0 r7 (Rigaku, 2011)
;
_computing_data_collection       
;
CrystalClear-SM Expert 2.0 r7 (Rigaku, 2011)
;
_computing_data_reduction        
;
CrystalClear-SM Expert 2.0 r7 (Rigaku, 2011)
;
_computing_molecular_graphics    
;
O. V. Dolomanov, L. J. Bourhis, R. J. Gildea, J. A. K. Howard and H. Puschmann,
OLEX2: a complete structure solution, refinement and analysis program.
J. Appl. Cryst. (2009). 42, 339-341.
;
_computing_publication_material  
;
O. V. Dolomanov, L. J. Bourhis, R. J. Gildea, J. A. K. Howard and H. Puschmann,
OLEX2: a complete structure solution, refinement and analysis program.
J. Appl. Cryst. (2009). 42, 339-341.
;
_computing_structure_refinement  
;
XLMP, G.M. Sheldrick, Acta Cryst.
(2008). A64, 112-122
;
_computing_structure_solution    
;
SHELXS, G.M. Sheldrick, Acta Cryst.
(2008). A64, 112-122
;
_refine_diff_density_max         0.599
_refine_diff_density_min         -0.562
_refine_diff_density_rms         0.111
_refine_ls_abs_structure_details 'Flack H D (1983), Acta Cryst. A39, 876-881'
_refine_ls_abs_structure_Flack   0.00(3)
_refine_ls_extinction_coef       0.012(3)
_refine_ls_extinction_expression Fc^*^=kFc[1+0.001xFc^2^\l^3^/sin(2\q)]^-1/4^
_refine_ls_extinction_method     SHELXL
_refine_ls_goodness_of_fit_ref   0.985
_refine_ls_hydrogen_treatment    constr
_refine_ls_matrix_type           full
_refine_ls_number_parameters     176
_refine_ls_number_reflns         2820
_refine_ls_number_restraints     38
_refine_ls_R_factor_all          0.0755
_refine_ls_R_factor_gt           0.0487
_refine_ls_restrained_S_all      0.980
_refine_ls_shift/su_max          0.000
_refine_ls_shift/su_mean         0.000
_refine_ls_structure_factor_coef Fsqd
_refine_ls_weighting_details     
'calc w=1/[\s^2^(Fo^2^)+(0.0481P)^2^+0.0000P] where P=(Fo^2^+2Fc^2^)/3'
_refine_ls_weighting_scheme      calc
_refine_ls_wR_factor_gt          0.0994
_refine_ls_wR_factor_ref         0.1072
_refine_special_details          ?
_olex2_refinement_description    
;
1. Fixed Uiso
 At 1.2 times of:
  All C(H) groups, All C(H,H) groups, All N(H) groups, All N(H,H) groups
 At 1.5 times of:
  All C(H,H,H) groups, All O(H,H) groups
2. Restrained distances
 O1-C8 \\sim O1-C14
 with sigma of 0.02
3. Uiso/Uaniso restraints and constraints
Uanis(O1) \\sim Ueq, Uanis(C14) \\sim Ueq, 
Uanis(C8) \\sim Ueq: with sigma of 0.1 and sigma for terminal atoms of 0.2
Uanis(C14) \\sim Ueq, Uanis(O1) \\sim Ueq, 
Uanis(C8) \\sim Ueq: with sigma of 0.1 and sigma for terminal atoms of 0.2
Uanis(C14) = Uanis(C8)
4. Others
 Fixed Sof: H1b(0.45) H1aa(0.55) C8(0.45) H8a(0.45) H8b(0.45) H8c(0.45)
 C14(0.55) H14a(0.55) H14b(0.55) H14c(0.55)
5.a Ternary CH refined with riding coordinates:
 C1(H1)
5.b Secondary CH2 refined with riding coordinates:
 N3(H3a,H3b), C3(H3c,H3d), C5(H5a,H5b), C6(H6a,H6b)
5.c Me refined with riding coordinates:
 C8(H8a,H8b,H8c), C14(H14a,H14b,H14c)
5.d Aromatic/amide H refined with riding coordinates:
 C2(H2), N1(H1a), C7(H7)
5.e Tetrahedral OH refined with riding coordinates:
 O1(H1b), O1(H1aa)
;
_atom_sites_solution_hydrogens   geom
_atom_sites_solution_primary     direct
_atom_sites_solution_secondary   difmap
loop_
_atom_site_label
_atom_site_type_symbol
_atom_site_fract_x
_atom_site_fract_y
_atom_site_fract_z
_atom_site_U_iso_or_equiv
_atom_site_adp_type
_atom_site_occupancy
_atom_site_symmetry_multiplicity
_atom_site_calc_flag
_atom_site_refinement_flags
_atom_site_disorder_assembly
_atom_site_disorder_group
Zn1 Zn 0.27889(6) 0.62679(8) 0.86336(6) 0.02153(19) Uani 1 1 d . . .
N3 N 0.1053(5) 0.6268(9) 0.9362(5) 0.0354(11) Uani 1 1 d . . .
H3A H 0.0975 0.7182 0.9701 0.042 Uiso 1 1 calc R . .
H3B H 0.0053 0.6040 0.8504 0.042 Uiso 1 1 calc R . .
O5 O 0.1674(5) 0.6777(4) 0.6369(4) 0.0292(10) Uani 1 1 d . . .
N9 N 0.3649(5) 0.4286(5) 0.8681(5) 0.0235(11) Uani 1 1 d . . .
C11 C 0.1172(6) 0.8053(7) 0.5871(7) 0.0252(14) Uani 1 1 d . . .
O3 O 0.1628(5) 0.9142(5) 0.6701(5) 0.0342(11) Uani 1 1 d . . .
C1 C -0.0175(6) 0.8144(6) 0.4122(6) 0.0197(12) Uani 1 1 d . . .
H1 H 0.0023 0.9015 0.3613 0.024 Uiso 1 1 calc R . .
C2 C 0.4939(10) 0.3781(10) 1.0014(11) 0.0222(11) Uani 1 1 d . . .
H2 H 0.5427 0.4267 1.1018 0.027 Uiso 1 1 calc R . .
C12 C 0.3264(6) 0.3262(6) 0.7516(7) 0.0230(13) Uani 1 1 d . . .
N1 N -0.0231(5) 0.6881(5) 0.3204(5) 0.0234(11) Uani 1 1 d . A .
H1A H -0.0780 0.6125 0.3255 0.028 Uiso 1 1 calc R . .
N2 N 0.5455(5) 0.2491(5) 0.9747(6) 0.0246(12) Uani 1 1 d . . .
C7 C 0.4353(6) 0.2153(6) 0.8149(7) 0.0251(14) Uani 1 1 d . . .
H7 H 0.4363 0.1296 0.7601 0.030 Uiso 1 1 calc R . .
C3 C 0.1417(9) 0.5237(8) 1.0671(9) 0.0451(19) Uani 1 1 d . . .
H3C H 0.2564 0.5383 1.1522 0.054 Uiso 1 1 calc R . .
H3D H 0.1329 0.4242 1.0254 0.054 Uiso 1 1 calc R . .
C5 C -0.1829(6) 0.8323(7) 0.4128(7) 0.0202(13) Uani 1 1 d . . .
H5A H -0.1939 0.7549 0.4792 0.024 Uiso 1 1 calc R . .
H5B H -0.1835 0.9261 0.4626 0.024 Uiso 1 1 calc R . .
C4 C 0.0479(8) 0.6788(7) 0.2302(9) 0.0372(17) Uani 1 1 d . . .
C6 C 0.0267(11) 0.5389(9) 1.1406(10) 0.052(2) Uani 1 1 d . . .
H6A H -0.0884 0.5320 1.0540 0.063 Uiso 1 1 calc R . .
H6B H 0.0465 0.4573 1.2152 0.063 Uiso 1 1 calc R . .
O8 O 0.1260(8) 0.7801(6) 0.2112(8) 0.0646(17) Uani 1 1 d . A 1
O1 O 0.2402(6) 1.0569(6) 0.3099(8) 0.0680(17) Uani 1 1 d DU . .
H1B H 0.2041 0.9731 0.2790 0.102 Uiso 0.45 1 calc PR B 2
H1AA H 0.2159 0.9705 0.2811 0.102 Uiso 0.55 1 calc PR B 1
C8 C 0.380(4) 1.081(10) 0.289(8) 0.116(15) Uani 0.45 1 d PDU C 2
H8A H 0.3470 1.0836 0.1743 0.173 Uiso 0.45 1 calc PR C 2
H8B H 0.4594 1.0021 0.3400 0.173 Uiso 0.45 1 calc PR C 2
H8C H 0.4314 1.1729 0.3386 0.173 Uiso 0.45 1 calc PR C 2
C14 C 0.411(3) 1.079(7) 0.364(6) 0.116(15) Uani 0.55 1 d PDU C 1
H14A H 0.4307 1.0861 0.2721 0.173 Uiso 0.55 1 calc PR C 1
H14B H 0.4729 0.9973 0.4320 0.173 Uiso 0.55 1 calc PR C 1
H14C H 0.4459 1.1683 0.4271 0.173 Uiso 0.55 1 calc PR C 1

loop_
_atom_site_aniso_label
_atom_site_aniso_U_11
_atom_site_aniso_U_22
_atom_site_aniso_U_33
_atom_site_aniso_U_23
_atom_site_aniso_U_13
_atom_site_aniso_U_12
Zn1 0.0242(3) 0.0133(3) 0.0178(3) -0.0005(4) 0.00241(18) 0.0004(4)
N3 0.042(2) 0.029(3) 0.039(3) -0.013(4) 0.0218(19) -0.010(4)
O5 0.041(2) 0.015(2) 0.022(2) 0.0005(16) 0.0070(17) 0.0044(15)
N9 0.029(2) 0.011(3) 0.020(3) 0.001(2) 0.0035(18) -0.0020(18)
C11 0.021(3) 0.025(4) 0.024(3) 0.010(3) 0.005(2) 0.007(2)
O3 0.036(2) 0.018(3) 0.027(2) -0.007(2) -0.003(2) 0.0005(18)
C1 0.024(3) 0.013(3) 0.016(3) -0.003(2) 0.005(2) -0.002(2)
C2 0.025(2) 0.009(2) 0.022(2) -0.0031(18) 0.0030(17) 0.0018(16)
C12 0.025(3) 0.013(3) 0.023(3) 0.000(2) 0.005(2) 0.000(2)
N1 0.028(2) 0.018(3) 0.020(3) -0.001(2) 0.0078(19) -0.0026(18)
N2 0.026(2) 0.014(3) 0.023(3) 0.001(2) 0.003(2) 0.0031(19)
C7 0.031(3) 0.018(3) 0.020(3) 0.003(2) 0.007(2) 0.001(2)
C3 0.071(5) 0.025(4) 0.055(5) 0.000(4) 0.042(4) 0.000(3)
C5 0.029(3) 0.016(3) 0.010(3) 0.001(2) 0.005(2) 0.003(2)
C4 0.050(4) 0.021(4) 0.044(4) -0.009(3) 0.025(3) -0.011(3)
C6 0.081(6) 0.032(5) 0.062(6) -0.013(4) 0.048(5) -0.012(4)
O8 0.101(4) 0.041(4) 0.090(5) -0.025(3) 0.077(4) -0.029(3)
O1 0.051(3) 0.048(4) 0.101(5) -0.018(3) 0.033(3) -0.009(2)
C8 0.087(12) 0.096(12) 0.20(4) -0.07(3) 0.10(2) -0.043(13)
C14 0.087(12) 0.096(12) 0.20(4) -0.07(3) 0.10(2) -0.043(13)

_geom_special_details            
;
 All esds (except the esd in the dihedral angle between two l.s. planes) 
 are estimated using the full covariance matrix.  The cell esds are taken 
 into account individually in the estimation of esds in distances, angles 
 and torsion angles; correlations between esds in cell parameters are only 
 used when they are defined by crystal symmetry.  An approximate (isotropic) 
 treatment of cell esds is used for estimating esds involving l.s. planes. 
;
loop_
_geom_bond_atom_site_label_1
_geom_bond_atom_site_label_2
_geom_bond_distance
_geom_bond_site_symmetry_2
_geom_bond_publ_flag
Zn1 N3 2.027(4) . ?
Zn1 O5 1.946(4) . ?
Zn1 N9 1.991(5) . ?
Zn1 N2 1.976(4) 2_657 ?
N3 C3 1.472(9) . ?
O5 C11 1.274(7) . ?
N9 C2 1.343(9) . ?
N9 C12 1.367(7) . ?
C11 O3 1.224(7) . ?
C11 C1 1.531(7) . ?
C1 N1 1.443(7) . ?
C1 C5 1.542(8) . ?
C2 N2 1.354(10) . ?
C12 C7 1.362(8) . ?
C12 C5 1.492(7) 2_546 ?
N1 C4 1.305(9) . ?
N2 Zn1 1.976(4) 2_647 ?
N2 C7 1.401(7) . ?
C3 C6 1.531(10) . ?
C5 C12 1.492(7) 2_556 ?
C4 C6 1.510(10) 1_554 ?
C4 O8 1.248(8) . ?
C6 C4 1.510(10) 1_556 ?
O1 C8 1.42(2) . ?
O1 C14 1.421(18) . ?

loop_
_geom_angle_atom_site_label_1
_geom_angle_atom_site_label_2
_geom_angle_atom_site_label_3
_geom_angle
_geom_angle_site_symmetry_1
_geom_angle_site_symmetry_3
_geom_angle_publ_flag
O5 Zn1 N3 106.60(18) . . ?
O5 Zn1 N9 104.15(17) . . ?
O5 Zn1 N2 121.74(19) . 2_657 ?
N9 Zn1 N3 111.4(3) . . ?
N2 Zn1 N3 103.1(2) 2_657 . ?
N2 Zn1 N9 109.77(18) 2_657 . ?
C3 N3 Zn1 112.8(4) . . ?
C11 O5 Zn1 122.8(4) . . ?
C2 N9 Zn1 120.6(5) . . ?
C2 N9 C12 107.0(6) . . ?
C12 N9 Zn1 132.3(3) . . ?
O5 C11 C1 114.7(5) . . ?
O3 C11 O5 124.9(5) . . ?
O3 C11 C1 120.3(5) . . ?
C11 C1 C5 107.4(5) . . ?
N1 C1 C11 112.7(5) . . ?
N1 C1 C5 109.8(4) . . ?
N9 C2 N2 111.5(7) . . ?
N9 C12 C5 125.3(5) . 2_546 ?
C7 C12 N9 108.3(5) . . ?
C7 C12 C5 126.3(5) . 2_546 ?
C4 N1 C1 124.3(5) . . ?
C2 N2 Zn1 126.4(5) . 2_647 ?
C2 N2 C7 105.0(5) . . ?
C7 N2 Zn1 128.2(4) . 2_647 ?
C12 C7 N2 108.2(5) . . ?
N3 C3 C6 113.3(6) . . ?
C12 C5 C1 112.6(5) 2_556 . ?
N1 C4 C6 117.0(6) . 1_554 ?
O8 C4 N1 123.5(6) . . ?
O8 C4 C6 119.5(7) . 1_554 ?
C4 C6 C3 113.7(7) 1_556 . ?
C8 O1 C14 26(4) . . ?

loop_
_refln_index_h
_refln_index_k
_refln_index_l
_refln_F_squared_meas
_refln_F_squared_sigma
-1 0 0 88.05 5.43
1 0 0 82.15 6.71
1 0 0 81.82 4.36
1 0 0 79.55 4.26
1 0 0 92.47 5.56
-1 0 0 85.74 6.75
-1 0 0 84.88 4.29
-1 0 0 79.99 4.22
2 0 0 19.68 2.49
-2 0 0 23.09 2.46
-2 0 0 18.72 2.48
2 0 0 27.39 1.71
-2 0 0 20.51 3.93
2 0 0 22.52 4.5
2 0 0 26.72 2.9
-2 0 0 27 4.43
3 0 0 0.03 1.12
-3 0 0 -0.67 4.34
-3 0 0 1.4 1.38
3 0 0 -0.99 4.38
3 0 0 -0.56 2.39
3 0 0 -0.48 1.42
-3 0 0 0.62 1.35
-3 0 0 1.57 2.09
4 0 0 29.18 2.96
4 0 0 30.04 3.79
4 0 0 26.12 3.14
-4 0 0 29.93 5.27
-4 0 0 27.74 2.95
-4 0 0 27.84 2.97
-4 0 0 31.42 5.46
4 0 0 33.16 5.72
4 0 0 26.02 3.31
5 0 0 27.04 4.02
5 0 0 28.38 3.34
-5 0 0 31.85 5.89
-5 0 0 24.24 2.92
-5 0 0 24.29 2.98
5 0 0 23.38 5.55
6 0 0 0.44 5.13
6 0 0 -0.74 3.33
-6 0 0 -0.11 1.71
-6 0 0 1.79 1.82
6 0 0 -0.98 1.79
-6 0 0 0.01 5.14
-7 0 0 55.54 3.97
-7 0 0 39.42 7.39
7 0 0 42.41 7.38
-7 0 0 52.14 4.02
8 0 0 3.28 2.47
-8 0 0 4 2.29
-8 0 0 4.06 2.23
-8 0 0 0.29 6.21
-9 0 0 7.55 2.34
-9 0 0 8.02 2.38
-10 0 0 2.33 2.35
-10 0 0 -0.71 2.28
-11 0 0 1.75 2.36
-11 0 0 6.02 2.49
0 -1 0 0.15 0.84
1 -1 0 312.11 17.15
-1 -1 0 335.57 16.83
1 1 0 340.35 16.85
-1 1 0 327.31 17.02
-2 -1 0 131.95 6.4
-2 -1 0 118.03 10.37
2 -1 0 119.28 6.44
2 -1 0 109.92 6.28
-2 -1 0 122.97 6.45
-2 -1 0 130.36 8.36
2 -1 0 122.88 8.92
2 -1 0 124.04 9.85
-2 1 0 126.2 10.06
2 1 0 117.81 6.4
-2 1 0 126.52 8.79
-2 1 0 113.14 6.35
-2 1 0 120.89 6.43
2 1 0 125.48 8.52
-3 -1 0 29.41 5
3 -1 0 24.19 2.98
3 -1 0 25.38 2.73
-3 -1 0 32.74 3.3
3 -1 0 24.31 4.3
3 -1 0 28.56 5.29
-3 -1 0 29.64 2.85
-3 -1 0 27.67 2.81
-3 1 0 28.69 2.76
-3 1 0 25.08 5.1
3 1 0 23.22 2.85
3 1 0 24.28 2.87
3 1 0 27.69 5.06
-3 1 0 23.24 2.71
-3 1 0 25.48 4.34
-4 -1 0 77.76 7.19
4 -1 0 77.8 4.77
4 -1 0 77.4 7.87
-4 -1 0 74.51 4.52
-4 -1 0 81.57 4.56
4 -1 0 72.67 4.44
4 -1 0 72.05 6.99
-4 -1 0 79.22 7.57
-4 1 0 72.62 4.52
4 1 0 85.24 7.65
-4 1 0 72.94 7.02
-4 1 0 68.46 7.7
-4 1 0 71.29 4.49
4 1 0 72.22 4.7
4 1 0 62 4.33
5 -1 0 5.68 3.01
-5 -1 0 5.73 1.65
-5 -1 0 6.99 4.94
5 -1 0 8.32 1.97
5 -1 0 4.49 5
-5 -1 0 7 1.76
-5 1 0 6.29 1.73
-5 1 0 6.76 1.69
5 1 0 1.34 4.89
-5 1 0 5.1 5.07
-6 -1 0 93.53 5.52
-6 -1 0 77.54 8.93
6 -1 0 100.67 6.8
6 -1 0 84.85 9.03
6 -1 0 86.83 9.07
-6 -1 0 93.82 5.53
6 1 0 89.07 8.9
-6 1 0 102.78 5.55
-6 1 0 75.62 9.06
-6 1 0 98.13 5.55
7 -1 0 5.08 4.34
-7 -1 0 5.72 5.83
-7 -1 0 3.5 2.02
7 -1 0 6.4 5.8
7 -1 0 7.94 2.38
-7 -1 0 4.55 2.14
7 1 0 1.97 5.77
-7 1 0 9.06 2.21
-7 1 0 9.86 2.08
-7 1 0 8.18 6.17
-8 -1 0 17.07 2.5
8 -1 0 26.84 3.12
-8 -1 0 21.57 2.71
-8 -1 0 13.61 6.77
-8 1 0 20.16 2.74
-8 1 0 19.5 2.59
-9 -1 0 -0.85 2.41
-9 -1 0 -1.61 2.26
-9 1 0 1.32 2.38
-9 1 0 -1.03 2.26
-10 -1 0 15.64 2.6
-10 -1 0 14.77 2.83
-10 1 0 8.81 2.52
-10 1 0 15.82 2.72
-11 -1 0 1.38 2.32
-11 -1 0 1.12 2.37
-11 1 0 0.04 2.38
-11 1 0 -0.14 2.43
-1 -2 0 20.39 2.69
1 -2 0 16.74 2.38
1 -2 0 13.31 1.22
1 -2 0 15.64 1.09
-1 -2 0 16.9 1.29
-1 -2 0 14.49 1.48
1 -2 0 17.6 3.61
1 2 0 15.1 1.39
-1 2 0 12.38 3.4
-1 2 0 16.27 2.25
1 2 0 17.05 1.29
1 2 0 13.46 2.61
-1 2 0 15.34 1.12
2 -2 0 147.94 9.72
-2 -2 0 159.73 7.38
-2 -2 0 151.67 8.98
-2 -2 0 158.39 7.53
2 -2 0 140.1 7.24
2 -2 0 149.87 11.47
2 -2 0 143.85 7.41
2 2 0 139.57 7.35
-2 2 0 129.97 7.36
-2 2 0 142.06 9.55
-2 2 0 132.44 11.54
2 2 0 142.8 9.06
-2 2 0 124.12 7.22
2 2 0 134.78 7.5
-3 -2 0 78.97 6.98
3 -2 0 67.48 7.57
3 -2 0 69.23 4.22
3 -2 0 73.03 6.99
-3 -2 0 72.18 4.34
3 -2 0 72.56 4.51
-3 -2 0 75.01 7.2
-3 -2 0 77.59 4.38
3 2 0 75.51 4.34
-3 2 0 70.85 4.36
-3 2 0 68.93 7.03
3 2 0 89.59 7.12
-3 2 0 74.04 7.45
-3 2 0 67.06 4.23
3 2 0 72.32 4.54
-4 -2 0 81.78 4.96
4 -2 0 79.57 7.92
4 -2 0 80.94 8.25
4 -2 0 82.58 5.01
-4 -2 0 85.22 7.76
-4 -2 0 91.06 4.98
4 -2 0 80.71 4.92
-4 2 0 82.4 4.88
-4 2 0 78.99 7.89
-4 2 0 90.59 4.91
-4 2 0 83.77 8.29
4 2 0 99.38 7.84
-5 -2 0 34.98 5.96
5 -2 0 28.26 5.48
5 -2 0 42.55 6.43
-5 -2 0 33.11 3.14
-5 -2 0 33.87 3.25
-5 2 0 28.88 6.15
5 2 0 31.9 5.94
-5 2 0 35.9 3.16
-5 2 0 35.21 3.13
6 -2 0 57.34 7.47
-6 -2 0 57.74 3.99
6 -2 0 55.54 5.09
-6 -2 0 50.31 7.23
6 -2 0 49.18 6.59
-6 -2 0 56.58 4
6 2 0 54.44 7.21
-6 2 0 38.84 7.21
-6 2 0 52.01 3.94
-6 2 0 57.78 3.95
-7 -2 0 48.83 3.91
-7 -2 0 45.32 7.39
7 -2 0 37.74 7.24
7 -2 0 37.74 6.66
-7 -2 0 45.67 3.82
7 -2 0 51.39 4.92
-7 2 0 34.28 7.35
-7 2 0 47.65 3.83
-7 2 0 52.5 3.94
7 2 0 38.62 7.3
-8 -2 0 -0.31 2.11
8 -2 0 1.38 4.96
8 -2 0 1.54 2.59
-8 -2 0 0.31 2.26
-8 -2 0 -5.08 6.1
-8 2 0 0.51 2.33
-8 2 0 0.8 2.23
8 2 0 4.83 6.17
9 -2 0 19.25 3.29
-9 -2 0 11.15 2.64
-9 -2 0 15.33 2.5
-9 2 0 13.3 2.72
-9 2 0 12.68 2.56
-10 -2 0 0.27 2.28
-10 -2 0 -2.96 2.25
-10 2 0 -0.14 2.4
-10 2 0 0.48 2.4
-11 -2 0 3.71 2.36
-11 -2 0 3.85 2.39
-11 2 0 2.67 2.45
-11 2 0 3.59 2.54
1 -3 0 180.2 16.18
-1 -3 0 185.84 10.22
1 -3 0 212.63 11.64
-1 -3 0 193.07 10.47
1 -3 0 204.42 10.12
1 3 0 238.52 10.26
-1 3 0 212.92 16.05
-1 3 0 229.75 11.56
-2 -3 0 5.73 1.52
2 -3 0 5.38 4.28
2 -3 0 4.82 2.4
2 -3 0 4.36 0.99
-2 -3 0 3.97 3.36
-2 -3 0 6.79 1.33
2 3 0 8.89 1.27
2 3 0 9.37 1.55
-2 3 0 8.99 1.48
-2 3 0 8.12 4.11
2 3 0 9.46 3.35
-2 3 0 7.29 1.16
-2 3 0 8.18 2.16
-3 -3 0 166.61 10.27
-3 -3 0 167.18 8.41
-3 -3 0 164.26 8.49
3 -3 0 146.89 8.29
3 -3 0 161.64 13.24
3 -3 0 157.51 8.46
3 -3 0 159.27 11.07
-3 3 0 161.79 10.92
-3 3 0 161.77 13.28
-3 3 0 162.56 8.31
3 3 0 173.34 8.39
3 3 0 162.24 8.51
3 3 0 168.99 10.28
-3 3 0 164.99 8.44
4 -3 0 49.61 6.47
4 -3 0 49.16 3.56
4 -3 0 41.45 3.41
-4 -3 0 46.94 3.45
-4 -3 0 43.07 3.38
4 -3 0 40.61 5.53
-4 -3 0 47.9 5.83
-4 3 0 41.7 3.35
-4 3 0 39.29 5.59
-4 3 0 35.41 6.3
4 3 0 52 6.04
-4 3 0 44.25 3.33
5 -3 0 20.66 3.64
-5 -3 0 21.9 2.23
5 -3 0 20.18 5.95
-5 -3 0 21.27 2.76
-5 -3 0 21.41 5.46
-5 3 0 22.95 2.93
-5 3 0 20.17 5.95
5 3 0 23.58 5.64
-5 3 0 19.88 2.18
6 -3 0 16.51 6.14
6 -3 0 30.99 4.64
-6 -3 0 33.6 3.32
-6 -3 0 30.25 3.07
6 -3 0 28.9 5.65
-6 -3 0 27.62 6.33
6 3 0 33.67 6.61
-6 3 0 23.37 6.58
-6 3 0 30.37 3.42
-6 3 0 35.42 3.32
7 -3 0 -5.34 5.61
7 -3 0 2.53 2.65
7 -3 0 -2.44 3.87
-7 -3 0 2.08 2.15
-7 -3 0 0.38 1.99
-7 -3 0 -0.36 6.08
-7 3 0 -2.49 6.2
7 3 0 0.33 5.83
-7 3 0 1.42 2.09
-7 3 0 1.79 2.18
8 -3 0 36.62 6.52
-8 -3 0 16.09 7.28
8 -3 0 41.83 4.92
-8 -3 0 38.44 3.58
-8 -3 0 35.2 3.56
-8 3 0 34.35 3.68
8 3 0 26.04 7.35
-8 3 0 38.21 3.84
-9 -3 0 2.36 2.27
9 -3 0 6.21 4.43
-9 -3 0 1.13 2.5
9 -3 0 4.51 2.97
-9 3 0 3.96 2.53
-9 3 0 3.76 2.4
-10 -3 0 5.83 2.36
-10 -3 0 8.09 2.7
-10 3 0 11.1 2.61
-10 3 0 11.63 2.65
-11 -3 0 1.69 2.34
-11 -3 0 -3.89 2.27
-11 3 0 -2.13 2.53
-11 3 0 -3.48 2.44
0 -4 0 148.01 11.93
1 -4 0 5.7 3.44
-1 -4 0 2.76 1.3
1 -4 0 -0.68 2.34
-1 -4 0 -0.16 0.88
-1 4 0 7.69 2.06
-1 4 0 8.82 3.21
-2 -4 0 155.23 9
-2 -4 0 147.33 7.79
2 -4 0 144.39 12.1
-2 -4 0 146.98 7.51
2 -4 0 148.5 7.37
2 -4 0 148.1 9.75
-2 4 0 137.99 11.98
2 4 0 155.91 8.61
-2 4 0 139.17 7.39
2 4 0 149.17 7.52
-2 4 0 139.92 9.66
-3 -4 0 29.65 3.17
3 -4 0 33.94 5.22
3 -4 0 29.56 2.62
3 -4 0 35.44 5.65
-3 -4 0 33.7 2.89
-3 -4 0 39.99 4.93
-3 4 0 30.18 2.76
-3 4 0 28.03 5.1
-3 4 0 29.21 5.45
3 4 0 31.81 4.65
-3 4 0 27.95 3.03
3 4 0 28.66 2.91
4 -4 0 36.17 6.28
-4 -4 0 38.51 3.36
-4 -4 0 41.57 5.74
4 -4 0 41.88 3.33
4 -4 0 39.03 3.16
-4 -4 0 36.41 3.34
4 -4 0 36.69 5.46
-4 4 0 38.24 3.19
-4 4 0 35.87 3.19
4 4 0 42.55 5.68
-4 4 0 33.35 6.32
-5 -4 0 55.22 6.84
-5 -4 0 53.3 3.9
-5 -4 0 53.76 3.68
5 -4 0 49.85 6.54
5 -4 0 47.17 7.07
-5 4 0 46.08 3.72
-5 4 0 45.37 3.67
5 4 0 50.22 6.75
-5 4 0 44.95 7.21
-6 -4 0 2.12 5.83
6 -4 0 3.67 5.92
-6 -4 0 4.57 2.03
6 -4 0 7.04 3.62
-6 -4 0 2.48 1.92
6 -4 0 7.67 2.73
-6 4 0 0.01 6.12
6 4 0 -1.51 5.61
-6 4 0 3.05 1.97
-6 4 0 2.04 2.06
-7 -4 0 14.84 2.35
-7 -4 0 15.38 6.86
7 -4 0 16.98 6.7
7 -4 0 16.02 3.17
7 -4 0 14.38 4.42
-7 -4 0 14.5 2.51
-7 4 0 13.77 7.01
-7 4 0 14.62 2.34
-7 4 0 17.95 2.57
7 4 0 11.2 6.55
-8 -4 0 1.46 2.17
8 -4 0 8.09 4.83
-8 -4 0 3.46 2.44
8 -4 0 3.8 2.88
-8 -4 0 -1.08 6.88
-8 4 0 1.97 2.49
-8 4 0 1.93 2.35
8 4 0 1.25 6.67
-9 -4 0 24.16 2.9
9 -4 0 32.23 5.12
-9 -4 0 22.82 3.04
-9 4 0 26.17 3.14
-9 4 0 32.45 3.79
-10 -4 0 2.15 2.34
-10 -4 0 1.61 2.32
-10 4 0 3.54 2.59
-10 4 0 4.38 2.59
-11 -4 0 0.4 2.36
-11 4 0 6.81 2.65
-11 4 0 3.56 2.69
1 -5 0 90.63 6.5
-1 -5 0 65.99 4.22
-1 -5 0 80.09 4.73
-1 5 0 90.29 6.1
-1 5 0 88.62 7.46
2 -5 0 33.64 5.13
-2 -5 0 29.85 2.35
2 -5 0 28.63 2.13
2 -5 0 37.66 2.63
2 -5 0 27.16 5.3
-2 -5 0 23.28 2.57
-2 5 0 25.24 4.56
-2 5 0 29.68 4.84
2 5 0 29.87 2.74
-3 -5 0 45.82 3.8
3 -5 0 45.7 3.19
-3 -5 0 47.49 3.49
3 -5 0 42.37 6.29
-3 -5 0 47.93 5.5
3 -5 0 41.8 6.23
-3 5 0 51.51 3.3
3 5 0 48.91 3.5
-3 5 0 53.9 6.4
3 5 0 57.67 5.62
4 -5 0 61.5 4.08
4 -5 0 52.67 6.39
-4 -5 0 57.21 4.01
-4 -5 0 57.21 7.24
4 -5 0 46.87 7.02
-4 -5 0 55.8 3.92
4 -5 0 51.94 3.72
-4 5 0 59.48 3.84
4 5 0 51.58 6.2
-4 5 0 50.9 7.15
-4 5 0 50.96 4.06
-5 -5 0 33.48 3.17
-5 -5 0 30.49 6.4
-5 -5 0 32.17 3.46
5 -5 0 30.72 4.98
5 -5 0 25.13 6.49
5 -5 0 32.02 4.37
-5 5 0 29.74 3.31
5 5 0 28.22 6.15
-5 5 0 31.34 3.4
-5 5 0 26.46 6.86
6 -5 0 41.47 7.45
-6 -5 0 38.33 3.44
6 -5 0 37.7 6.14
-6 -5 0 40.7 7.53
-6 -5 0 37.05 3.81
6 -5 0 41.94 5.19
-6 5 0 32.69 3.53
-6 5 0 36.9 3.8
6 5 0 42.16 7.15
-6 5 0 25.56 7.46
7 -5 0 23.3 7.36
-7 -5 0 29.62 7.9
7 -5 0 33 5.11
-7 -5 0 27.15 2.97
7 -5 0 28.94 3.78
-7 -5 0 27.93 3.38
7 5 0 20.37 7.27
-7 5 0 28.43 2.98
-7 5 0 30.61 3.42
-7 5 0 17.51 7.61
-8 -5 0 1.27 7.73
-8 -5 0 7.36 2.4
8 -5 0 8.89 3.05
8 -5 0 8.52 4.91
-8 -5 0 4.5 2.53
-8 5 0 13.46 2.56
-8 5 0 11.02 2.67
8 5 0 8.07 7.37
9 -5 0 0.72 3.09
-9 -5 0 -0.79 2.28
9 -5 0 4.75 4.39
-9 -5 0 -1.71 2.56
-9 5 0 1.88 2.62
-9 5 0 2.81 2.46
-10 -5 0 5.39 2.69
-10 -5 0 3.1 2.38
10 -5 0 7.32 3.47
-10 5 0 7.02 2.77
-10 5 0 8.78 2.79
-11 5 0 -0.87 2.54
0 -6 0 72.3 6.65
-1 -6 0 32.67 3.53
-1 -6 0 37.76 3.22
-1 -6 0 34.54 4.23
1 -6 0 39.86 4.44
2 -6 0 95.56 7.91
-2 -6 0 71.2 4.99
2 -6 0 84.79 4.88
-2 -6 0 80.43 4.66
-2 6 0 106.01 7.71
3 -6 0 34.18 6.14
-3 -6 0 30.7 3.55
-3 -6 0 35.94 3.09
3 -6 0 30.7 6.03
3 -6 0 34.13 2.61
-3 6 0 35.75 2.78
-3 6 0 41.65 6.12
3 6 0 36.71 3.1
4 -6 0 3.98 1.27
4 -6 0 2.09 3.38
-4 -6 0 2.73 1.88
4 -6 0 1.44 2.65
4 -6 0 -0.52 5.6
-4 -6 0 -1.67 5.29
-4 -6 0 3.31 1.8
-4 6 0 5.75 5.76
4 6 0 11.8 4.7
-4 6 0 4.1 1.79
-5 -6 0 49.21 7.34
5 -6 0 38.76 5.45
5 -6 0 33.78 7.36
5 -6 0 51.86 7.04
-5 -6 0 45.88 3.86
-5 -6 0 47.83 3.99
-5 6 0 35.61 7.6
5 6 0 52.25 7.02
-5 6 0 54.74 4.04
-6 -6 0 15.01 2.45
6 -6 0 16.34 3.27
6 -6 0 13.94 4.29
-6 -6 0 13.63 2.38
-6 -6 0 10.8 7.12
6 -6 0 4.27 6.68
-6 6 0 9.16 7.08
6 6 0 10.12 6.56
-6 6 0 12.11 2.56
-6 6 0 14.38 2.56
-7 -6 0 11.94 7.94
7 -6 0 26.3 5.06
-7 -6 0 20.7 2.83
-7 -6 0 18.36 2.62
7 -6 0 16.56 3.55
-7 6 0 25.2 2.86
7 6 0 17.39 7.54
-7 6 0 18.25 2.87
-8 -6 0 0.02 2.53
8 -6 0 -0.43 3.06
8 -6 0 1.88 4.47
-8 -6 0 -0.24 2.31
-8 6 0 -0.41 2.63
-8 6 0 2.55 2.6
-9 -6 0 3.97 2.7
9 -6 0 3.67 3.15
9 -6 0 14.73 4.72
-9 -6 0 5.26 2.43
-9 6 0 6.71 2.65
-9 6 0 5.34 2.85
10 -6 0 2.77 3.28
-10 -6 0 1.34 2.69
-10 -6 0 1.08 2.43
-10 6 0 2.32 2.97
11 -6 0 128.1 12.28
0 -7 0 -1.87 2.65
-1 -7 0 100.37 7.85
1 -7 0 93.9 9.49
-1 -7 0 104.61 9.17
2 -7 0 18.04 3.02
-2 -7 0 10.69 1.5
2 -7 0 11.85 1.89
-2 -7 0 10.96 2
-2 -7 0 12.83 3.67
-2 7 0 15.16 4.88
3 -7 0 34.08 6.83
-3 -7 0 35.72 2.98
3 -7 0 35.96 5.2
3 -7 0 34.99 6.67
-3 -7 0 38.52 3.43
-3 7 0 40.88 6.58
4 -7 0 10.12 3.88
-4 -7 0 10.91 2.2
4 -7 0 2.72 6.32
4 -7 0 11.17 3.13
-4 -7 0 11.64 2.04
-4 7 0 11.38 1.88
-4 7 0 6.73 6.32
-5 -7 0 19.49 2.49
5 -7 0 16.41 7.11
-5 -7 0 15.58 7.49
-5 -7 0 19.1 2.56
5 -7 0 16.33 3.46
5 -7 0 22.93 4.63
5 7 0 12.93 5.77
-5 7 0 23.88 2.52
-5 7 0 11.83 7.04
-6 -7 0 31.53 3.61
6 -7 0 18.56 7.61
-6 -7 0 36.49 4.05
6 -7 0 37.17 5.5
6 -7 0 29.68 4.15
-6 7 0 31.6 8.38
-6 7 0 44.24 4.09
-7 -7 0 -0.69 2.51
-7 -7 0 1.86 2.36
7 -7 0 3.67 3.11
7 -7 0 -0.55 4.62
-7 7 0 3.14 2.61
-8 -7 0 11.02 2.87
8 -7 0 15.96 3.59
-8 -7 0 12.57 2.67
8 -7 0 11.36 4.96
-8 7 0 11.96 2.99
9 -7 0 1.04 3.23
-9 -7 0 0.9 2.71
9 -7 0 8.41 4.86
-9 -7 0 1.13 2.41
0 -8 0 13.63 3.14
1 -8 0 27.33 4.67
-1 -8 0 35.75 3.92
-1 -8 0 33.61 4.71
1 -8 0 38.09 5.56
-2 -8 0 20.25 1.99
2 -8 0 41.79 6.65
-2 -8 0 29.41 4.52
-2 -8 0 25.63 2.56
2 -8 0 30.87 3.76
-2 -8 0 31.3 3.54
-3 -8 0 7.49 1.75
3 -8 0 3.7 4.13
3 -8 0 1.29 2.97
-3 8 0 4.01 6.02
-4 -8 0 24.55 2.52
4 -8 0 19.57 7.66
4 -8 0 28.82 4.93
-4 -8 0 24.02 2.67
4 -8 0 19.56 3.66
-4 8 0 22.64 7.26
-5 -8 0 43.07 3.97
-5 -8 0 51.11 4.32
5 -8 0 42.6 5.49
5 -8 0 37.89 7.77
5 -8 0 30.95 8.45
-5 8 0 44.84 8.68
-6 -8 0 10.71 2.47
-6 -8 0 11.97 2.65
6 -8 0 5.58 7.73
6 -8 0 8.05 3.31
6 -8 0 7.45 5
-6 8 0 6.57 8.12
-7 -8 0 8.31 2.74
-7 -8 0 9.41 2.56
7 -8 0 5.56 5.14
7 -8 0 6.31 3.29
-8 -8 0 3.78 2.43
-8 -8 0 0.08 2.79
8 -8 0 4.49 5.09
8 -8 0 2.37 3.2
-9 -8 0 6.22 2.53
-9 -8 0 6.61 2.94
9 -8 0 7.01 3.29
0 -9 0 0.44 3.17
1 -9 0 27.93 3.69
1 -9 0 12.04 4.32
-1 -9 0 20.95 3.68
-1 -9 0 14.12 4.3
2 -9 0 15.32 3.37
-2 -9 0 0.87 4.07
-2 -9 0 11.48 3.27
-2 -9 0 10.39 2.21
-3 -9 0 11.8 2.52
-3 -9 0 21.77 2.19
-3 -9 0 17.92 4.66
3 -9 0 28.01 3.77
-4 -9 0 20.67 2.51
4 -9 0 21.12 5.12
4 -9 0 15.9 3.63
-4 -9 0 16.02 2.56
-5 -9 0 22.76 2.81
-5 -9 0 22.5 2.84
5 -9 0 21.72 5.89
5 -9 0 20.52 3.86
6 -9 0 7.01 5.5
6 -9 0 8.88 3.36
-6 -9 0 12.83 2.65
-6 -9 0 9.6 2.78
-7 -9 0 3.15 2.5
7 -9 0 1.35 5.45
-7 -9 0 2.95 2.91
7 -9 0 5.69 3.24
8 -9 0 3.61 3.29
-8 -9 0 4.18 2.53
0 -10 0 56.28 6.13
0 -10 0 37.79 6.04
1 -10 0 2.86 3.41
1 -10 0 14.92 2.83
-2 -10 0 9.13 4.67
2 -10 0 26.51 3.88
-2 -10 0 12.05 3.69
-2 -10 0 18.89 2.52
3 -10 0 15.62 3.76
-3 -10 0 15.69 3.7
3 -10 0 14.7 5.33
-4 -10 0 -7.15 4.43
4 -10 0 6.48 5.32
-4 -10 0 -4.96 2.25
4 -10 0 3.11 3.44
-5 -10 0 4.61 2.54
5 -10 0 9.43 3.37
5 -10 0 -2.99 6.01
-5 -10 0 2.63 4.94
-6 -10 0 1.68 2.57
6 -10 0 1.71 3.21
-7 -10 0 10.38 2.73
7 -10 0 9.35 3.45
0 -11 0 0.98 3.72
1 -11 0 28.23 4.24
1 -11 0 27.07 5.57
2 -11 0 1.47 3.49
2 -11 0 11.33 5.17
3 -11 0 7.34 3.67
3 -11 0 14.96 5.73
-4 -11 0 -2.3 2.45
-4 -11 0 -8.31 4.76
4 -11 0 12.34 3.76
-5 -11 0 -4.7 4.76
-5 -11 0 1.24 2.64
5 -11 0 0.73 3.24
-6 -11 0 3.6 2.75
6 -11 0 4.52 3.3
-6 -11 0 6.15 5.17
-7 -11 0 5.08 2.65
0 -12 0 12.97 4.19
1 -12 0 -0.45 3.67
2 -12 0 5 3.66
3 -12 0 7.44 3.73
4 -12 0 7.26 3.45
-5 -12 0 8.81 2.87
-5 -12 0 3.86 5.26
-6 -12 0 5.71 2.72
0 -13 0 0.1 4.15
1 -13 0 11.4 4.12
2 -13 0 2.15 3.79
-12 0 1 14.21 2.68
-11 0 1 2.25 2.38
-11 0 1 -1.18 2.31
-10 0 1 4.71 2.38
-10 0 1 4.95 2.42
-9 0 1 4.52 2.47
-9 0 1 1.8 2.29
8 0 -1 16.97 2.44
-8 0 1 10.16 2.27
-8 0 1 12.79 2.43
8 0 -1 13.82 6.43
8 0 -1 8.98 4.38
-8 0 1 4.35 6.18
7 0 -1 6.13 2.25
-7 0 1 1.07 1.86
-7 0 1 1.21 1.93
7 0 -1 0.82 3.92
-7 0 1 3.63 5.49
7 0 -1 6.51 5.73
-6 0 1 3.94 5.13
6 0 -1 3.98 1.98
-6 0 1 0.99 1.77
-6 0 1 3.39 1.67
6 0 -1 1.58 3.25
6 0 -1 0.49 5.29
-5 0 1 101.24 8.9
5 0 -1 99.09 8.86
-5 0 1 106.37 5.72
5 0 -1 92.01 9.33
-5 0 1 107.44 5.78
-4 0 1 0.46 1.32
4 0 -1 -0.09 1.2
4 0 -1 0.89 1.49
-4 0 1 0.24 1.5
-4 0 1 1.32 2.09
-4 0 1 2.91 4.59
4 0 -1 1.75 4.94
4 0 -1 1.04 2.41
-3 0 1 101.34 8.32
3 0 -1 90.76 5.26
3 0 -1 86.67 8.6
3 0 -1 103.29 8.41
3 0 -1 96.51 5.46
3 0 -1 94.14 6.81
-3 0 1 93.59 5.31
-3 0 1 105.82 5.41
-3 0 1 97.57 8.32
-2 0 1 16.6 1.39
2 0 -1 16.84 1.71
-2 0 1 19.31 1.55
2 0 -1 17.52 1.36
2 0 -1 17.38 2.26
-2 0 1 18.61 4.31
2 0 -1 15.7 4.38
1 0 -1 647.38 33.25
-1 0 1 659.17 33.41
0 0 1 154.3 9.26
0 0 -1 151.76 9.15
1 0 1 24.04 2.55
-1 0 -1 30.2 2.47
-1 0 -1 30.14 2.68
1 0 1 28.67 3.15
-1 0 -1 39.99 4.54
1 0 1 42.54 4.46
1 0 1 28.05 2.32
-1 0 -1 29.85 3.43
2 0 1 21.87 2.44
2 0 1 26.33 2.26
-2 0 -1 31.73 3.13
-2 0 -1 21.92 5.02
2 0 1 24.08 2.99
-2 0 -1 27.58 2.19
-2 0 -1 23.04 2.94
-2 0 -1 19.92 2.44
2 0 1 28.27 4.96
-3 0 -1 1.34 2.14
3 0 1 1.95 1.49
3 0 1 1.05 1.11
3 0 1 -2.77 4.33
-3 0 -1 0.92 1.43
3 0 1 -0.87 1.51
-3 0 -1 0.07 1.39
-3 0 -1 1.79 4.63
4 0 1 59.39 4.73
4 0 1 51.55 6.88
-4 0 -1 60.35 7.05
-4 0 -1 57.95 3.94
-4 0 -1 55.97 3.97
-5 0 -1 65.37 8.41
-5 0 -1 73.16 4.64
5 0 1 77.06 5.7
5 0 1 71.62 8.1
-5 0 -1 73.9 4.69
-6 0 -1 68.71 9.08
6 0 1 73.13 8.48
-6 0 -1 78.13 4.86
-6 0 -1 77.43 4.74
-7 0 -1 9.82 2.32
-7 0 -1 12.93 6.67
7 0 1 14.66 2.55
-7 0 -1 12.17 2.22
7 0 1 11.32 5.9
-8 0 -1 26.48 2.98
-8 0 -1 27.96 3.37
-9 0 -1 2.65 2.3
-9 0 -1 2.67 2.32
-10 0 -1 3.5 2.39
-10 0 -1 2.12 2.35
-11 0 -1 -0.39 2.37
-11 0 -1 0.31 2.3
-12 -1 1 -2.34 2.32
-12 1 1 -0.69 2.47
-12 1 1 1.13 2.42
-11 -1 1 7.36 2.45
-11 -1 1 6.29 2.43
-11 1 1 7.06 2.45
-11 1 1 8.82 2.58
-10 -1 1 -0.44 2.33
-10 -1 1 1.51 2.29
-10 1 1 3.27 2.39
-10 1 1 4.25 2.53
9 -1 -1 13.46 5.04
9 -1 -1 13.82 2.79
-9 -1 1 11.03 2.44
-9 -1 1 5.52 2.55
-9 1 1 11.37 2.47
-8 -1 1 21.53 2.76
8 -1 -1 16.68 6.49
-8 -1 1 18.28 6.54
8 -1 -1 31.23 5.52
-8 -1 1 23.68 2.61
8 -1 -1 31.06 4.2
-8 1 1 26.87 2.85
8 1 -1 20.68 6.6
-8 1 1 17.35 6.6
-8 1 1 21.91 2.66
-7 -1 1 9.66 2.06
7 -1 -1 9.75 4.05
-7 -1 1 10.11 2.15
7 -1 -1 11.21 5.91
-7 -1 1 6.94 5.62
-7 1 1 7.19 5.75
7 1 -1 17.44 2.37
7 1 -1 10.29 6.08
-7 1 1 11.52 2.2
-7 1 1 9.17 2.09
7 1 -1 15.78 1.97
6 -1 -1 64.47 7.17
-6 -1 1 60.1 7.72
6 -1 -1 57.82 7.53
-6 -1 1 73 4.52
-6 -1 1 75.79 4.46
-6 1 1 73.78 4.46
6 1 -1 65.69 8.11
6 1 -1 60.76 7.81
-6 1 1 70.76 8.15
-6 1 1 74.43 4.54
-5 -1 1 6.46 1.55
5 -1 -1 5.39 2.83
5 -1 -1 8.65 5.21
5 -1 -1 6.07 1.55
-5 -1 1 4.08 1.61
-5 -1 1 3.17 4.76
-5 1 1 6.93 1.69
5 1 -1 5.4 1.36
5 1 -1 3.65 3.01
-5 1 1 3.5 5.03
5 1 -1 3.66 5.16
-5 1 1 2.43 1.55
4 -1 -1 94.86 8.58
-4 -1 1 106.43 5.51
4 -1 -1 95.3 5.54
-4 -1 1 101.22 8.59
-4 -1 1 96.06 5.42
-4 -1 1 107.7 8.5
4 -1 -1 95.98 5.38
4 -1 -1 94.29 8.63
-4 1 1 93.12 5.42
-4 1 1 98.77 8.52
4 1 -1 96.13 5.58
4 1 -1 99.85 8.61
-4 1 1 92.14 5.33
4 1 -1 86.87 8.57
4 1 -1 100.15 6.44
-4 1 1 88.91 8.51
4 1 -1 99.39 5.5
-3 -1 1 55.82 3.72
3 -1 -1 52.23 3.59
3 -1 -1 47.49 3.61
-3 -1 1 50.34 5.83
-3 -1 1 55.44 3.73
3 -1 -1 58.37 6.31
3 -1 -1 55.89 5.98
-3 -1 1 59.94 6.81
-3 1 1 63.69 7.17
3 1 -1 57.41 4.15
3 1 -1 59.99 3.76
-3 1 1 59 3.64
3 1 -1 55.18 3.82
3 1 -1 41.83 6.23
3 1 -1 62.07 7.03
-3 1 1 54.44 3.46
-3 1 1 58.38 6.29
-2 -1 1 510.59 25.94
2 -1 -1 480.26 26.15
-2 1 1 504.21 26.17
2 1 -1 520.93 26.01
-1 -1 1 45.73 3.68
-1 -1 1 61.99 5.75
1 -1 -1 39.72 4.43
1 1 -1 41.97 3.75
-1 1 1 55.34 5.65
1 1 -1 57.2 5.16
0 -1 1 131.08 8.26
0 -1 -1 137.68 9.4
0 -1 -1 129.25 6.22
0 -1 1 132.1 8.05
0 -1 -1 126.81 8
0 -1 1 134.12 6.53
0 -1 1 135.33 6.31
0 1 1 119.91 8.67
0 1 -1 114.8 6.25
0 1 -1 115.1 8.19
0 1 1 112.24 6.2
0 1 1 109.74 6.28
-1 -1 -1 561.84 27.98
1 -1 1 528.37 27.85
1 1 1 559.52 27.86
-1 1 -1 524.92 27.96
-2 -1 -1 273.18 16.02
2 -1 1 250.67 20.04
-2 -1 -1 264.99 13.09
2 -1 1 270.47 14.99
-2 -1 -1 268.85 12.92
-2 -1 -1 264.66 15.07
2 -1 1 231.39 12.87
2 -1 1 265.51 16.21
2 -1 1 259.99 13.12
-2 1 -1 256.67 13.08
2 1 1 272.24 13.11
2 1 1 250.99 12.89
-2 1 -1 263.15 15.06
-2 1 -1 260.2 20.04
-2 1 -1 236.5 12.88
2 1 1 270.66 14.75
-3 -1 -1 49.33 3.23
3 -1 1 48.76 3.51
-3 -1 -1 51.65 3.3
3 -1 1 41.05 5.62
3 -1 1 44.5 3.15
-3 -1 -1 59.1 6.27
3 -1 1 46.16 4.19
3 -1 1 59.33 6.58
-3 -1 -1 47.55 5.86
-3 1 -1 50.34 6.19
-3 1 -1 36.72 5.18
3 1 1 32.41 3.41
-3 1 -1 33.84 3.34
3 1 1 31.02 3.13
-3 1 -1 33.2 3.16
3 1 1 40.49 5.6
3 1 1 36.77 2.99
-4 -1 -1 3.25 1.57
4 -1 1 1.68 2.85
4 -1 1 2.89 1.86
-4 -1 -1 3.3 1.53
4 -1 1 6.44 4.77
-4 -1 -1 6.11 4.96
4 1 1 1.76 1.23
-4 1 -1 2.12 4.91
-4 1 -1 5.1 1.58
-4 1 -1 1.96 1.56
4 1 1 -3.89 4.55
-5 -1 -1 100.72 9.91
-5 -1 -1 111.16 6.56
5 -1 1 88.51 9.53
5 -1 1 125.76 8.22
5 -1 1 104.78 10.56
-5 -1 -1 119.94 6.55
-5 1 -1 123.26 6.59
-5 1 -1 124.72 6.52
5 1 1 129.6 9.78
-5 1 -1 125.37 10.09
5 1 1 124.76 7.62
6 -1 1 -0.3 2.3
-6 -1 -1 1.1 1.87
6 -1 1 -1.94 5.11
-6 -1 -1 -2.73 5.62
-6 -1 -1 0.94 1.81
-6 1 -1 3.59 1.88
-6 1 -1 4.17 5.85
-6 1 -1 2.55 1.93
6 1 1 5.42 5.46
-7 -1 -1 20.97 2.54
-7 -1 -1 15.96 6.51
7 -1 1 25.69 3.01
-7 -1 -1 19.55 2.43
7 -1 1 9.5 5.99
7 1 1 15.64 6.11
-7 1 -1 16.61 2.41
-7 1 -1 16.68 2.52
-7 1 -1 19.6 6.63
8 -1 1 0.31 2.74
-8 -1 -1 1.42 2.19
-8 -1 -1 3.9 2.34
-8 1 -1 4.35 2.41
-8 1 -1 0.31 2.22
-9 -1 -1 12.39 2.48
-9 1 -1 9.62 2.54
-9 1 -1 13.8 2.53
-10 -1 -1 3.47 2.36
-10 -1 -1 6.24 2.4
-10 1 -1 4.59 2.39
-10 1 -1 3.06 2.42
-11 -1 -1 -1.27 2.31
-11 1 -1 -0.14 2.43
-11 1 -1 2.01 2.48
-12 2 1 6.89 2.65
-12 2 1 5.29 2.52
-11 -2 1 -1.16 2.23
-11 -2 1 0.76 2.26
-11 2 1 2.87 2.49
-11 2 1 0.2 2.5
-10 -2 1 8.79 2.39
-10 -2 1 13.87 2.73
-10 2 1 9.19 2.56
-10 2 1 10.55 2.56
9 -2 -1 5.56 5.57
9 -2 -1 3.63 2.66
-9 -2 1 1.51 2.25
-9 -2 1 0.4 2.45
-9 2 1 -1.45 2.44
-9 2 1 0.87 2.39
8 -2 -1 21.28 3.16
-8 -2 1 13.56 6.68
-8 -2 1 16.84 2.6
-8 -2 1 21.14 2.53
8 -2 -1 4.55 6.18
8 -2 -1 25.21 4.93
-8 2 1 23.54 7
8 2 -1 9.63 6.36
-8 2 1 24.64 2.78
-8 2 1 22.01 2.6
7 -2 -1 51.73 7.55
-7 -2 1 36.74 7.02
7 -2 -1 52.5 7.01
-7 -2 1 52.99 3.88
-7 -2 1 57.58 3.98
-7 2 1 59.84 4.1
-7 2 1 57.65 4.03
-7 2 1 43.47 7.38
7 2 -1 46.41 7.46
-6 -2 1 25.59 2.81
-6 -2 1 23.13 2.34
6 -2 -1 23.13 3.92
-6 -2 1 24.69 5.71
6 -2 -1 17.34 5.87
-6 2 1 17.67 5.81
-6 2 1 25.17 3
-6 2 1 21.65 2.35
6 2 -1 17.96 5.96
5 -2 -1 106.86 9.87
5 -2 -1 10