####################################################################### 
# 
# This file contains crystal structure data downloaded from the 
# Cambridge Structural Database (CSD) hosted by the Cambridge 
# Crystallographic Data Centre (CCDC).
# 
# Full information about CCDC data access policies and citation 
# guidelines are available at http://www.ccdc.cam.ac.uk/access/V1 
# 
# Audit and citation data items may have been added by the CCDC. 
# Please retain this information to preserve the provenance of 
# this file and to allow appropriate attribution of the data. 
# 
#######################################################################

data_sn0401
_audit_block_doi                 10.5517/cc85lpp
_database_code_depnum_ccdc_archive 'CCDC 243712'
loop_
_citation_id
_citation_doi
_citation_year
1 10.1002/anie.200461274 2005
_audit_update_record             
;
2004-07-02 deposited with the CCDC.	2024-07-10 downloaded from the CCDC.
;

_audit_creation_method           SHELXL-97
_chemical_name_systematic        
;
?
;
_chemical_name_common            ?
_chemical_melting_point          ?
_chemical_formula_moiety         
;
C81 H75 N12 O9 Zn3, 3(C F3 S O3), 2.5(C H4 O)
;
_chemical_formula_sum            'C86.50 H85 F9 N12 O20.50 S3 Zn3'
_chemical_formula_weight         2083.96

loop_
_atom_type_symbol
_atom_type_description
_atom_type_scat_dispersion_real
_atom_type_scat_dispersion_imag
_atom_type_scat_source
C C 0.0033 0.0016 'International Tables Vol C Tables 4.2.6.8 and 6.1.1.4'
H H 0.0000 0.0000 'International Tables Vol C Tables 4.2.6.8 and 6.1.1.4'
N N 0.0061 0.0033 'International Tables Vol C Tables 4.2.6.8 and 6.1.1.4'
O O 0.0106 0.0060 'International Tables Vol C Tables 4.2.6.8 and 6.1.1.4'
F F 0.0171 0.0103 'International Tables Vol C Tables 4.2.6.8 and 6.1.1.4'
S S 0.1246 0.1234 'International Tables Vol C Tables 4.2.6.8 and 6.1.1.4'
Zn Zn 0.2839 1.4301 'International Tables Vol C Tables 4.2.6.8 and 6.1.1.4'

_symmetry_cell_setting           monoclinic
_symmetry_space_group_name_H-M   P2(1)

loop_
_symmetry_equiv_pos_as_xyz
'x, y, z'
'-x, y+1/2, -z'

_cell_length_a                   15.065(2)
_cell_length_b                   13.053(2)
_cell_length_c                   24.108(2)
_cell_angle_alpha                90.00
_cell_angle_beta                 93.30(1)
_cell_angle_gamma                90.00
_cell_volume                     4732.8(9)
_cell_formula_units_Z            2
_cell_measurement_temperature    100(2)
_cell_measurement_reflns_used    166
_cell_measurement_theta_min      6.00
_cell_measurement_theta_max      20.00

_exptl_crystal_description       irregular
_exptl_crystal_colour            colorless
_exptl_crystal_size_max          0.30
_exptl_crystal_size_mid          0.25
_exptl_crystal_size_min          0.16
_exptl_crystal_density_meas      ?
_exptl_crystal_density_diffrn    1.462
_exptl_crystal_density_method    'not measured'
_exptl_crystal_F_000             2142
_exptl_absorpt_coefficient_mu    0.912
_exptl_absorpt_correction_type   multi-scan
_exptl_absorpt_correction_T_min  0.804
_exptl_absorpt_correction_T_max  1.000
_exptl_absorpt_process_details   'SADABS, Bruker-Nonius, 2002'

_exptl_special_details           
;
?
;

_diffrn_ambient_temperature      100(2)
_diffrn_radiation_wavelength     0.71073
_diffrn_radiation_type           MoK\a
_diffrn_radiation_source         'fine-focus sealed tube'
_diffrn_radiation_monochromator  graphite
_diffrn_measurement_device_type  'Nonius KappaCCD'
_diffrn_measurement_method       
;
\f- and \w-scans with 1.40 \% and 210 sec per frame'
;
_diffrn_detector_area_resol_mean 9
_diffrn_standards_number         ?
_diffrn_standards_interval_count ?
_diffrn_standards_interval_time  ?
_diffrn_standards_decay_%        ?
_diffrn_reflns_number            105250
_diffrn_reflns_av_R_equivalents  0.0527
_diffrn_reflns_av_sigmaI/netI    0.0674
_diffrn_reflns_limit_h_min       -19
_diffrn_reflns_limit_h_max       19
_diffrn_reflns_limit_k_min       -16
_diffrn_reflns_limit_k_max       16
_diffrn_reflns_limit_l_min       -30
_diffrn_reflns_limit_l_max       30
_diffrn_reflns_theta_min         3.23
_diffrn_reflns_theta_max         27.00
_reflns_number_total             20414
_reflns_number_gt                14676
_reflns_threshold_expression     >2sigma(I)

_computing_data_collection       'COLLECT (Bruker-Nonius, 2002)'
_computing_cell_refinement       'EVALCCD (Bruker-Nonius, 2002)'
_computing_data_reduction        'EVALCCD (Bruker-Nonius, 2002)'
_computing_structure_solution    'SHELXTL 6.12 (Bruker AXS, 2002)'
_computing_structure_refinement  'SHELXTL 6.12 (Bruker AXS, 2002)'
_computing_molecular_graphics    'SHELXTL 6.12 (Bruker AXS, 2002)'
_computing_publication_material  'SHELXTL 6.12 (Bruker AXS, 2002)'

_refine_special_details          
;
Refinement of F^2^ against ALL reflections. The weighted R-factor wR and
goodness of fit S are based on F^2^, conventional R-factors R are based
on F, with F set to zero for negative F^2^. The threshold expression of
F^2^ > 2sigma(F^2^) is used only for calculating R-factors(gt) etc. and is
not relevant to the choice of reflections for refinement. R-factors based
on F^2^ are statistically about twice as large as those based on F, and R-
factors based on ALL data will be even larger.

Two of the CF3SO3 anions are disordered. The unit cell contains 2.5 MeOH
solvate molecules per formula unit. The atoms of the MeOH solvate molecules
have been refined isotropically and no H atoms have been included here.

SADI, SIMU, DELU and DFIX restraints have been used in the refinement of
the disordered parts.
;

_refine_ls_structure_factor_coef Fsqd
_refine_ls_matrix_type           full
_refine_ls_weighting_scheme      calc
_refine_ls_weighting_details     
'calc w=1/[\s^2^(Fo^2^)+(0.0953P)^2^+2.0675P] where P=(Fo^2^+2Fc^2^)/3'
_atom_sites_solution_primary     direct
_atom_sites_solution_secondary   difmap
_atom_sites_solution_hydrogens   geom
_refine_ls_hydrogen_treatment    mixed
_refine_ls_extinction_method     none
_refine_ls_extinction_coef       ?
_refine_ls_abs_structure_details 'Flack H D (1983), Acta Cryst. A39, 876-881'
_refine_ls_abs_structure_Flack   0.045(10)
_refine_ls_number_reflns         20414
_refine_ls_number_parameters     1305
_refine_ls_number_restraints     142
_refine_ls_R_factor_all          0.0961
_refine_ls_R_factor_gt           0.0598
_refine_ls_wR_factor_ref         0.1627
_refine_ls_wR_factor_gt          0.1461
_refine_ls_goodness_of_fit_ref   1.057
_refine_ls_restrained_S_all      1.069
_refine_ls_shift/su_max          0.038
_refine_ls_shift/su_mean         0.001

loop_
_atom_site_label
_atom_site_type_symbol
_atom_site_fract_x
_atom_site_fract_y
_atom_site_fract_z
_atom_site_U_iso_or_equiv
_atom_site_adp_type
_atom_site_occupancy
_atom_site_symmetry_multiplicity
_atom_site_calc_flag
_atom_site_refinement_flags
_atom_site_disorder_assembly
_atom_site_disorder_group
Zn1 Zn 0.68384(4) 0.30388(4) 0.18828(2) 0.02725(14) Uani 1 1 d . . .
Zn2 Zn 0.36104(4) 0.19475(4) 0.26743(2) 0.03404(16) Uani 1 1 d . . .
Zn3 Zn 0.03326(4) 0.39548(4) 0.26708(2) 0.03139(15) Uani 1 1 d . . .
N1 N 0.7670(3) 0.1702(3) 0.16639(18) 0.0330(10) Uani 1 1 d . . .
N2 N 0.7741(3) 0.3724(3) 0.13868(16) 0.0282(9) Uani 1 1 d . . .
N3 N 0.5905(3) 0.2104(3) 0.14476(17) 0.0308(10) Uani 1 1 d . . .
N4 N 0.8294(3) 0.1471(4) 0.3097(2) 0.0463(13) Uani 1 1 d . . .
H4A H 0.8496 0.0839 0.3122 0.056 Uiso 1 1 calc R . .
N5 N 0.4431(3) 0.2335(4) 0.34573(18) 0.0383(11) Uani 1 1 d . . .
N6 N 0.4630(3) 0.0883(4) 0.26397(19) 0.0395(11) Uani 1 1 d . . .
N7 N 0.2694(3) 0.1768(3) 0.32780(18) 0.0363(11) Uani 1 1 d . . .
N9 N 0.1105(3) 0.4956(3) 0.21012(17) 0.0353(10) Uani 1 1 d . . .
N8 N 0.4805(3) 0.4805(3) 0.28686(17) 0.0298(10) Uani 1 1 d . . .
H8A H 0.4997 0.5150 0.3165 0.036 Uiso 1 1 calc R . .
N10 N 0.1374(3) 0.4478(4) 0.32050(18) 0.0359(10) Uani 1 1 d . . .
N11 N -0.0579(3) 0.5072(4) 0.24491(19) 0.0412(12) Uani 1 1 d . . .
N12 N 0.1484(3) 0.2733(3) 0.12973(17) 0.0331(10) Uani 1 1 d . . .
H12A H 0.1683 0.3025 0.1000 0.040 Uiso 1 1 calc R . .
O1 O -0.0474(2) 0.2871(3) 0.29106(16) 0.0427(9) Uani 1 1 d . . .
O2 O -0.0525(3) 0.3601(4) 0.3736(2) 0.0660(14) Uani 1 1 d . . .
O3 O 0.7387(3) 0.2587(3) 0.26388(15) 0.0386(9) Uani 1 1 d . . .
O4 O 0.6089(2) 0.4011(3) 0.22664(14) 0.0350(8) Uani 1 1 d . . .
O5 O 0.5529(3) 0.4727(3) 0.14825(16) 0.0419(9) Uani 1 1 d . . .
O6 O 0.4068(2) 0.3420(3) 0.25278(14) 0.0339(8) Uani 1 1 d . . .
O7 O 0.2791(2) 0.2112(3) 0.20186(14) 0.0366(9) Uani 1 1 d . . .
O8 O 0.2602(5) 0.0470(4) 0.1831(3) 0.105(3) Uani 1 1 d . . .
O9 O 0.0721(2) 0.2951(3) 0.20682(13) 0.0322(8) Uani 1 1 d . . .
C1 C 0.8557(3) 0.2126(4) 0.1561(2) 0.0305(11) Uani 1 1 d . . .
H1A H 0.8889 0.1638 0.1337 0.037 Uiso 1 1 calc R . .
H1B H 0.8900 0.2235 0.1919 0.037 Uiso 1 1 calc R . .
C2 C 0.8440(3) 0.3122(4) 0.12589(18) 0.0262(10) Uani 1 1 d . . .
C3 C 0.9027(3) 0.3447(4) 0.08694(19) 0.0284(11) Uani 1 1 d . . .
H3A H 0.9506 0.3018 0.0776 0.034 Uiso 1 1 calc R . .
C4 C 0.8915(4) 0.4390(4) 0.0619(2) 0.0326(11) Uani 1 1 d . . .
H4B H 0.9306 0.4610 0.0347 0.039 Uiso 1 1 calc R . .
C5 C 0.8226(4) 0.5014(4) 0.0769(2) 0.0400(13) Uani 1 1 d . . .
H5A H 0.8150 0.5680 0.0614 0.048 Uiso 1 1 calc R . .
C6 C 0.7643(4) 0.4640(4) 0.1155(2) 0.0360(12) Uani 1 1 d . . .
H6A H 0.7161 0.5059 0.1253 0.043 Uiso 1 1 calc R . .
C7 C 0.7209(4) 0.1223(4) 0.1165(2) 0.0396(13) Uani 1 1 d . . .
H7A H 0.7431 0.1539 0.0826 0.048 Uiso 1 1 calc R . .
H7B H 0.7357 0.0484 0.1158 0.048 Uiso 1 1 calc R . .
C8 C 0.6233(4) 0.1342(4) 0.1157(2) 0.0355(13) Uani 1 1 d . . .
C9 C 0.5679(4) 0.0704(5) 0.0830(3) 0.0470(15) Uani 1 1 d . . .
H9A H 0.5921 0.0145 0.0636 0.056 Uiso 1 1 calc R . .
C10 C 0.4780(4) 0.0887(5) 0.0789(3) 0.0515(16) Uani 1 1 d . . .
H10A H 0.4393 0.0467 0.0563 0.062 Uiso 1 1 calc R . .
C11 C 0.4452(4) 0.1692(4) 0.1083(2) 0.0405(13) Uani 1 1 d . . .
H11A H 0.3834 0.1844 0.1056 0.049 Uiso 1 1 calc R . .
C12 C 0.5027(4) 0.2276(4) 0.1418(2) 0.0365(12) Uani 1 1 d . . .
H12B H 0.4794 0.2814 0.1632 0.044 Uiso 1 1 calc R . .
C13 C 0.7694(4) 0.1037(4) 0.2163(2) 0.0407(14) Uani 1 1 d . . .
H13A H 0.8202 0.0556 0.2161 0.049 Uiso 1 1 calc R . .
H13B H 0.7138 0.0635 0.2173 0.049 Uiso 1 1 calc R . .
C14 C 0.7793(4) 0.1740(4) 0.2659(2) 0.0394(13) Uani 1 1 d . . .
C15 C 0.8527(4) 0.2195(6) 0.3549(3) 0.0506(17) Uani 1 1 d . . .
H15A H 0.7981 0.2594 0.3625 0.061 Uiso 1 1 calc R . .
C16 C 0.8812(5) 0.1588(7) 0.4079(3) 0.072(2) Uani 1 1 d . . .
H16A H 0.9241 0.1048 0.3988 0.087 Uiso 1 1 calc R . .
H16B H 0.9106 0.2054 0.4356 0.087 Uiso 1 1 calc R . .
C17 C 0.7994(5) 0.1100(8) 0.4320(3) 0.074(3) Uani 1 1 d . . .
C18 C 0.7835(5) 0.0107(7) 0.4265(3) 0.067(2) Uani 1 1 d . . .
H18A H 0.8244 -0.0318 0.4087 0.080 Uiso 1 1 calc R . .
C19 C 0.7012(7) -0.0346(7) 0.4483(3) 0.073(3) Uani 1 1 d . . .
C20 C 0.6886(8) -0.1374(9) 0.4434(4) 0.097(3) Uani 1 1 d . . .
H20A H 0.7309 -0.1793 0.4263 0.117 Uiso 1 1 calc R . .
C21 C 0.6123(9) -0.1800(11) 0.4640(4) 0.108(4) Uani 1 1 d . . .
H21A H 0.5997 -0.2510 0.4599 0.130 Uiso 1 1 calc R . .
C22 C 0.5536(8) -0.1133(13) 0.4916(4) 0.112(4) Uani 1 1 d . . .
H22A H 0.5036 -0.1427 0.5078 0.135 Uiso 1 1 calc R . .
C23 C 0.5653(7) -0.0106(10) 0.4958(4) 0.098(4) Uani 1 1 d . . .
H23A H 0.5234 0.0312 0.5132 0.117 Uiso 1 1 calc R . .
C24 C 0.6452(5) 0.0346(9) 0.4726(3) 0.075(3) Uani 1 1 d . . .
C25 C 0.6615(6) 0.1339(8) 0.4774(3) 0.075(2) Uani 1 1 d . . .
H25A H 0.6197 0.1758 0.4948 0.090 Uiso 1 1 calc R . .
C26 C 0.7359(6) 0.1787(10) 0.4585(3) 0.091(3) Uani 1 1 d . . .
H26A H 0.7464 0.2502 0.4621 0.109 Uiso 1 1 calc R . .
C27 C -0.0765(4) 0.2946(5) 0.3389(2) 0.0449(14) Uani 1 1 d . . .
C28 C 0.5342(4) 0.1958(5) 0.3364(2) 0.0432(14) Uani 1 1 d . . .
H28A H 0.5674 0.2495 0.3173 0.052 Uiso 1 1 calc R . .
H28B H 0.5661 0.1819 0.3727 0.052 Uiso 1 1 calc R . .
C29 C 0.5315(4) 0.1009(5) 0.3023(2) 0.0432(14) Uani 1 1 d . . .
C30 C 0.5997(4) 0.0281(5) 0.3062(3) 0.0523(17) Uani 1 1 d . . .
H30A H 0.6459 0.0354 0.3345 0.063 Uiso 1 1 calc R . .
C31 C 0.6018(5) -0.0532(5) 0.2706(3) 0.0586(18) Uani 1 1 d . . .
H31A H 0.6485 -0.1021 0.2733 0.070 Uiso 1 1 calc R . .
C32 C 0.5321(5) -0.0609(5) 0.2300(3) 0.061(2) Uani 1 1 d . . .
H32A H 0.5320 -0.1143 0.2033 0.073 Uiso 1 1 calc R . .
C33 C 0.4632(5) 0.0092(4) 0.2289(2) 0.0453(15) Uani 1 1 d . . .
H33A H 0.4146 0.0008 0.2024 0.054 Uiso 1 1 calc R . .
C34 C 0.4011(4) 0.1785(5) 0.3907(2) 0.0418(13) Uani 1 1 d . . .
H34A H 0.4180 0.2115 0.4268 0.050 Uiso 1 1 calc R . .
H34B H 0.4225 0.1068 0.3923 0.050 Uiso 1 1 calc R . .
C35 C 0.3012(4) 0.1799(4) 0.3810(2) 0.0379(13) Uani 1 1 d . . .
C36 C 0.2451(4) 0.1780(5) 0.4250(2) 0.0465(15) Uani 1 1 d . . .
H36A H 0.2686 0.1823 0.4623 0.056 Uiso 1 1 calc R . .
C37 C 0.1551(4) 0.1699(5) 0.4132(3) 0.0520(16) Uani 1 1 d . . .
H37A H 0.1152 0.1675 0.4423 0.062 Uiso 1 1 calc R . .
C38 C 0.1237(4) 0.1652(5) 0.3584(3) 0.0482(15) Uani 1 1 d . . .
H38A H 0.0618 0.1582 0.3495 0.058 Uiso 1 1 calc R . .
C39 C 0.1802(4) 0.1705(4) 0.3175(2) 0.0381(13) Uani 1 1 d . . .
H39A H 0.1569 0.1698 0.2800 0.046 Uiso 1 1 calc R . .
C40 C 0.4395(4) 0.3452(5) 0.3502(2) 0.0397(13) Uani 1 1 d . . .
H40A H 0.4906 0.3704 0.3739 0.048 Uiso 1 1 calc R . .
H40B H 0.3841 0.3662 0.3672 0.048 Uiso 1 1 calc R . .
C41 C 0.4422(3) 0.3896(4) 0.2930(2) 0.0315(11) Uani 1 1 d . . .
C42 C 0.4911(3) 0.5232(4) 0.2327(2) 0.0300(11) Uani 1 1 d . . .
H42A H 0.4319 0.5218 0.2116 0.036 Uiso 1 1 calc R . .
C43 C 0.5216(4) 0.6348(4) 0.2377(3) 0.0359(13) Uani 1 1 d . . .
H43A H 0.5746 0.6389 0.2639 0.043 Uiso 1 1 calc R . .
H43B H 0.5390 0.6593 0.2010 0.043 Uiso 1 1 calc R . .
C44 C 0.4490(3) 0.7039(4) 0.2581(2) 0.0320(11) Uani 1 1 d . . .
C45 C 0.4535(4) 0.7390(4) 0.3114(2) 0.0334(12) Uani 1 1 d . . .
H45A H 0.5033 0.7219 0.3356 0.040 Uiso 1 1 calc R . .
C46 C 0.3852(3) 0.8003(4) 0.3312(2) 0.0348(11) Uani 1 1 d . . .
C47 C 0.3860(5) 0.8357(5) 0.3869(3) 0.0530(16) Uani 1 1 d . . .
H47A H 0.4352 0.8201 0.4119 0.064 Uiso 1 1 calc R . .
C48 C 0.3162(5) 0.8925(6) 0.4050(3) 0.0619(18) Uani 1 1 d . . .
H48A H 0.3189 0.9171 0.4422 0.074 Uiso 1 1 calc R . .
C49 C 0.2433(6) 0.9142(6) 0.3709(4) 0.072(2) Uani 1 1 d . . .
H49A H 0.1948 0.9509 0.3848 0.086 Uiso 1 1 calc R . .
C50 C 0.2398(4) 0.8827(5) 0.3163(3) 0.0565(17) Uani 1 1 d . . .
H50A H 0.1899 0.9006 0.2924 0.068 Uiso 1 1 calc R . .
C51 C 0.3100(4) 0.8237(4) 0.2948(2) 0.0427(14) Uani 1 1 d . . .
C52 C 0.3090(4) 0.7892(5) 0.2402(2) 0.0467(14) Uani 1 1 d . . .
H52A H 0.2600 0.8060 0.2153 0.056 Uiso 1 1 calc R . .
C53 C 0.3772(4) 0.7315(4) 0.2218(2) 0.0400(13) Uani 1 1 d . . .
H53A H 0.3758 0.7100 0.1841 0.048 Uiso 1 1 calc R . .
C54 C 0.5574(3) 0.4601(4) 0.1998(2) 0.0303(11) Uani 1 1 d . . .
C55 C 0.2022(4) 0.4949(5) 0.2341(2) 0.0417(14) Uani 1 1 d . . .
H55A H 0.2351 0.5544 0.2202 0.050 Uiso 1 1 calc R . .
H55B H 0.2327 0.4316 0.2229 0.050 Uiso 1 1 calc R . .
C56 C 0.2016(4) 0.4998(4) 0.2970(2) 0.0383(13) Uani 1 1 d . . .
C57 C 0.2672(4) 0.5534(5) 0.3286(2) 0.0455(15) Uani 1 1 d . . .
H57A H 0.3106 0.5927 0.3110 0.055 Uiso 1 1 calc R . .
C58 C 0.2677(4) 0.5482(6) 0.3860(3) 0.0581(18) Uani 1 1 d . . .
H58A H 0.3116 0.5836 0.4084 0.070 Uiso 1 1 calc R . .
C59 C 0.2039(5) 0.4913(7) 0.4099(3) 0.065(2) Uani 1 1 d . . .
H59A H 0.2043 0.4842 0.4492 0.078 Uiso 1 1 calc R . .
C60 C 0.1379(4) 0.4435(5) 0.3756(2) 0.0469(15) Uani 1 1 d . . .
H60A H 0.0921 0.4067 0.3923 0.056 Uiso 1 1 calc R . .
C61 C 0.0688(5) 0.5982(4) 0.2105(3) 0.0507(17) Uani 1 1 d . . .
H61A H 0.0795 0.6343 0.1754 0.061 Uiso 1 1 calc R . .
H61B H 0.0962 0.6391 0.2416 0.061 Uiso 1 1 calc R . .
C62 C -0.0306(5) 0.5890(5) 0.2170(2) 0.0459(15) Uani 1 1 d . . .
C63 C -0.0917(5) 0.6654(5) 0.1995(3) 0.062(2) Uani 1 1 d . . .
H63A H -0.0733 0.7214 0.1778 0.074 Uiso 1 1 calc R . .
C64 C -0.1794(6) 0.6582(6) 0.2142(3) 0.069(2) Uani 1 1 d . . .
H64A H -0.2205 0.7106 0.2032 0.082 Uiso 1 1 calc R . .
C65 C -0.2067(5) 0.5778(5) 0.2438(3) 0.0610(19) Uani 1 1 d . . .
H65A H -0.2660 0.5738 0.2551 0.073 Uiso 1 1 calc R . .
C66 C -0.1447(4) 0.5003(5) 0.2575(3) 0.0548(17) Uani 1 1 d . . .
H66A H -0.1640 0.4410 0.2762 0.066 Uiso 1 1 calc R . .
C67 C 0.1055(4) 0.4444(4) 0.1563(2) 0.0414(14) Uani 1 1 d . . .
H67A H 0.1558 0.4660 0.1344 0.050 Uiso 1 1 calc R . .
H67B H 0.0494 0.4629 0.1353 0.050 Uiso 1 1 calc R . .
C68 C 0.1091(4) 0.3304(4) 0.1660(2) 0.0332(12) Uani 1 1 d . . .
C69 C 0.1602(4) 0.1620(4) 0.1373(2) 0.0351(12) Uani 1 1 d . . .
H69A H 0.1058 0.1352 0.1543 0.042 Uiso 1 1 calc R . .
C70 C 0.1656(3) 0.1101(4) 0.0801(2) 0.0323(12) Uani 1 1 d . . .
H70A H 0.1832 0.0376 0.0853 0.039 Uiso 1 1 calc R . .
H70B H 0.2114 0.1447 0.0590 0.039 Uiso 1 1 calc R . .
C71 C 0.0749(4) 0.1159(4) 0.0471(2) 0.0349(12) Uani 1 1 d . . .
C72 C 0.0619(4) 0.1847(4) 0.0052(2) 0.0388(13) Uani 1 1 d . . .
H72A H 0.1088 0.2291 -0.0042 0.047 Uiso 1 1 calc R . .
C73 C -0.0232(4) 0.1900(5) -0.0249(2) 0.0432(14) Uani 1 1 d . . .
C74 C -0.0409(5) 0.2615(5) -0.0666(3) 0.0591(19) Uani 1 1 d . . .
H74A H 0.0053 0.3054 -0.0776 0.071 Uiso 1 1 calc R . .
C75 C -0.1255(6) 0.2699(7) -0.0925(4) 0.077(3) Uani 1 1 d . . .
H75A H -0.1371 0.3207 -0.1202 0.092 Uiso 1 1 calc R . .
C76 C -0.1925(6) 0.2048(8) -0.0783(4) 0.082(3) Uani 1 1 d . . .
H76A H -0.2500 0.2114 -0.0963 0.099 Uiso 1 1 calc R . .
C77 C -0.1770(5) 0.1304(7) -0.0385(3) 0.074(2) Uani 1 1 d . . .
H77A H -0.2231 0.0840 -0.0304 0.088 Uiso 1 1 calc R . .
C78 C -0.0923(4) 0.1226(5) -0.0094(3) 0.0486(16) Uani 1 1 d . . .
C79 C -0.0746(4) 0.0504(5) 0.0338(3) 0.0469(15) Uani 1 1 d . . .
H79A H -0.1193 0.0034 0.0435 0.056 Uiso 1 1 calc R . .
C80 C 0.0069(4) 0.0489(4) 0.0614(2) 0.0405(13) Uani 1 1 d . . .
H80A H 0.0180 0.0015 0.0908 0.049 Uiso 1 1 calc R . .
C81 C 0.2400(4) 0.1365(5) 0.1772(3) 0.0465(15) Uani 1 1 d . . .
S100 S 0.72913(11) 0.82706(11) 0.08963(7) 0.0482(4) Uani 1 1 d D . .
O11 O 0.7252(3) 0.9031(3) 0.04569(16) 0.0512(10) Uani 1 1 d D . .
O12 O 