
#######################################################################
#
#                 Cambridge Crystallographic Data Centre
#                                CCDC
#
#######################################################################
#
# If this CIF has been generated from an entry in the Cambridge
# Structural Database, then it will include bibliographic, chemical,
# crystal, experimental, refinement or atomic coordinate data resulting
# from the CCDC's data processing and validation procedures.
#
#######################################################################

data_CSD_CIF_FIRFUI
_audit_creation_date 2005-06-09
_audit_creation_method CSD-ConQuest-V1
_database_code_CSD FIRFUI
_database_code_depnum_ccdc_archive 'CCDC 241835'
_chemical_formula_sum 'C22 H27 Br1 Mo1 N4 O2'
_chemical_formula_moiety
;
C22 H27 Br1 Mo1 N4 O2
;
_journal_coden_Cambridge 155
_journal_volume 358
_journal_year 2005
_journal_page_first 1605
_journal_name_full 'Inorg.Chim.Acta '
loop_
_publ_author_name
"R.J.Abernethy"
"A.F.Hill"
"H.Neumann"
"A.C.Willis"
_chemical_name_systematic
;
Bromo-dicarbonyl-(mesitylmethylidyne)-bis(3,5-dimethylpyrazole)-molybdenum
;
_chemical_name_common
;
Teaching Subset: Fundamental Chemistry
;
_cell_volume   1203.402
_exptl_crystal_colour 'yellow'
_exptl_crystal_density_diffrn 1.532
_exptl_crystal_description 'rod'
_exptl_crystal_preparation 'dichloromethane/petroleum spirit'
_diffrn_ambient_temperature 200
#These two values have been output from a single CSD field.
_refine_ls_R_factor_gt 0.0244
_refine_ls_wR_factor_gt 0.0244
_symmetry_cell_setting triclinic
_symmetry_space_group_name_H-M 'P -1'
_symmetry_Int_Tables_number 2
loop_
_symmetry_equiv_pos_site_id
_symmetry_equiv_pos_as_xyz
1 x,y,z
2 -x,-y,-z
_cell_length_a 8.7147(1)
_cell_length_b 10.9222(2)
_cell_length_c 13.7466(2)
_cell_angle_alpha 73.8988(7)
_cell_angle_beta 78.0343(6)
_cell_angle_gamma 75.4495(7)
_cell_formula_units_Z 2
loop_
_atom_type_symbol
_atom_type_radius_bond
C 0.68
H 0.23
Br 1.21
Mo 1.47
N 0.68
O 0.68
loop_
_atom_site_label
_atom_site_type_symbol
_atom_site_fract_x
_atom_site_fract_y
_atom_site_fract_z
Mo1 Mo 0.80549(3) 0.320385(19) 0.234159(15)
Br1 Br 0.82795(3) 0.39008(2) 0.022848(18)
O1 O 0.8207(3) 0.6079(2) 0.2207(2)
O2 O 0.4304(3) 0.4182(3) 0.2522(2)
N1 N 0.7802(3) 0.1222(2) 0.22294(16)
N2 N 0.8131(3) 0.0922(2) 0.13091(17)
N3 N 1.0692(3) 0.2368(2) 0.20166(16)
N4 N 1.1650(3) 0.2969(2) 0.12100(17)
C1 C 0.8213(3) 0.5022(3) 0.2229(2)
C2 C 0.5663(4) 0.3838(3) 0.2451(2)
C3 C 0.7890(3) 0.3101(2) 0.36866(18)
C4 C 0.7856(3) 0.3166(2) 0.47325(18)
C5 C 0.9286(3) 0.3210(2) 0.5045(2)
C6 C 0.9277(4) 0.3131(3) 0.6076(2)
C7 C 0.7914(4) 0.3025(3) 0.6796(2)
C8 C 0.6504(4) 0.3050(3) 0.6470(2)
C9 C 0.6439(3) 0.3124(2) 0.54494(19)
C10 C 1.0790(4) 0.3355(3) 0.4293(2)
C11 C 0.7988(6) 0.2868(4) 0.7915(3)
C12 C 0.4864(4) 0.3203(3) 0.5129(2)
C13 C 0.7882(3) -0.0259(2) 0.1359(2)
C14 C 0.7392(3) -0.0766(3) 0.2370(2)
C15 C 0.7343(4) 0.0178(3) 0.2889(2)
C16 C 0.8083(5) -0.0769(4) 0.0431(3)
C17 C 0.6859(6) 0.0118(4) 0.3999(3)
C18 C 1.3176(3) 0.2308(3) 0.1136(2)
C19 C 1.3222(4) 0.1227(3) 0.1935(3)
C20 C 1.1662(3) 0.1292(3) 0.2470(2)
C21 C 1.4434(4) 0.2768(4) 0.0299(3)
C22 C 1.1078(4) 0.0357(3) 0.3406(3)
H1 H 1.019(4) 0.317(3) 0.627(3)
H2 H 0.546(4) 0.298(3) 0.702(2)
H3 H 1.147(3) 0.362(3) 0.455(2)
H4 H 1.058(3) 0.394(3) 0.370(2)
H5 H 1.127(3) 0.257(3) 0.411(2)
H6 H 0.696(4) 0.295(3) 0.829(2)
H7 H 0.842(4) 0.356(3) 0.797(2)
H8 H 0.861(4) 0.208(3) 0.820(2)
H9 H 0.407(3) 0.317(3) 0.567(2)
H10 H 0.458(3) 0.401(3) 0.466(2)
H11 H 0.494(3) 0.256(3) 0.480(2)
H12 H 0.837(4) 0.151(3) 0.080(2)
H13 H 0.720(4) -0.151(3) 0.264(2)
H14 H 0.849(4) -0.019(3) -0.016(2)
H15 H 0.878(4) -0.158(3) 0.051(2)
H16 H 0.713(4) -0.087(3) 0.034(2)
H17 H 0.728(4) -0.065(3) 0.437(2)
H18 H 0.718(4) 0.075(3) 0.419(2)
H19 H 0.577(4) 0.021(3) 0.416(2)
H20 H 1.127(4) 0.365(3) 0.082(2)
H21 H 1.413(4) 0.057(3) 0.210(3)
H22 H 1.526(4) 0.209(3) 0.021(2)
H23 H 1.483(4) 0.338(3) 0.045(2)
H24 H 1.408(3) 0.311(3) -0.029(2)
H25 H 1.193(3) -0.012(3) 0.376(2)
H26 H 1.025(4) 0.080(3) 0.383(2)
H27 H 1.064(3) -0.023(3) 0.320(2)
#END
