####################################################################### 
# 
# This file contains crystal structure data downloaded from the 
# Cambridge Structural Database (CSD) hosted by the Cambridge 
# Crystallographic Data Centre (CCDC).
# 
# Full information about CCDC data access policies and citation 
# guidelines are available at http://www.ccdc.cam.ac.uk/access/V1 
# 
# Audit and citation data items may have been added by the CCDC. 
# Please retain this information to preserve the provenance of 
# this file and to allow appropriate attribution of the data. 
# 
#######################################################################

data_TKL-107
_audit_block_doi                 10.5517/cc100l9x
_database_code_depnum_ccdc_archive 'CCDC 924088'
loop_
_citation_id
_citation_doi
_citation_year
1 10.1038/srep03312 2013
_audit_update_record             
;
2013-02-11 deposited with the CCDC.	2024-07-10 downloaded from the CCDC.
;
#TrackingRef '17650_web_deposit_cif_file_0_Da-ShuaiZhang_1360569648.Crystals.cif'


_audit_creation_method           SHELXL-97
_chemical_name_systematic        
;
?
;
_chemical_name_common            ?
_chemical_melting_point          ?
_chemical_formula_moiety         ?
_chemical_formula_sum            'C13 H6 F2 N3 Ni0.50 O2.50'
_chemical_formula_weight         311.56

loop_
_atom_type_symbol
_atom_type_description
_atom_type_scat_dispersion_real
_atom_type_scat_dispersion_imag
_atom_type_scat_source
C C 0.0033 0.0016 'International Tables Vol C Tables 4.2.6.8 and 6.1.1.4'
H H 0.0000 0.0000 'International Tables Vol C Tables 4.2.6.8 and 6.1.1.4'
F F 0.0171 0.0103 'International Tables Vol C Tables 4.2.6.8 and 6.1.1.4'
N N 0.0061 0.0033 'International Tables Vol C Tables 4.2.6.8 and 6.1.1.4'
Ni Ni 0.3393 1.1124 'International Tables Vol C Tables 4.2.6.8 and 6.1.1.4'
O O 0.0106 0.0060 'International Tables Vol C Tables 4.2.6.8 and 6.1.1.4'

_symmetry_cell_setting           Hexagonal
_symmetry_space_group_name_H-M   'P 31 2 1'

loop_
_symmetry_equiv_pos_as_xyz
'x, y, z'
'-y, x-y, z+1/3'
'-x+y, -x, z+2/3'
'y, x, -z'
'-x, -x+y, -z+1/3'
'x-y, -y, -z+2/3'

_cell_length_a                   15.1738(9)
_cell_length_b                   15.1738(9)
_cell_length_c                   18.859(3)
_cell_angle_alpha                90.00
_cell_angle_beta                 90.00
_cell_angle_gamma                120.00
_cell_volume                     3760.4(7)
_cell_formula_units_Z            6
_cell_measurement_temperature    386(2)
_cell_measurement_reflns_used    ?
_cell_measurement_theta_min      ?
_cell_measurement_theta_max      ?

_exptl_crystal_description       block
_exptl_crystal_colour            green
_exptl_crystal_size_max          0.20
_exptl_crystal_size_mid          0.18
_exptl_crystal_size_min          0.16
_exptl_crystal_density_meas      ?
_exptl_crystal_density_diffrn    0.825
_exptl_crystal_density_method    'not measured'
_exptl_crystal_F_000             942
_exptl_absorpt_coefficient_mu    0.428
_exptl_absorpt_correction_type   ?
_exptl_absorpt_correction_T_min  0.9193
_exptl_absorpt_correction_T_max  0.9347
_exptl_absorpt_process_details   ?

_exptl_special_details           
;
?
;

_diffrn_ambient_temperature      386(2)
_diffrn_radiation_wavelength     0.71073
_diffrn_radiation_type           MoK\a
_diffrn_radiation_source         'fine-focus sealed tube'
_diffrn_radiation_monochromator  graphite
_diffrn_measurement_device_type  ?
_diffrn_measurement_method       ?
_diffrn_detector_area_resol_mean ?
_diffrn_standards_number         ?
_diffrn_standards_interval_count ?
_diffrn_standards_interval_time  ?
_diffrn_standards_decay_%        ?
_diffrn_reflns_number            28665
_diffrn_reflns_av_R_equivalents  0.0431
_diffrn_reflns_av_sigmaI/netI    0.0320
_diffrn_reflns_limit_h_min       -18
_diffrn_reflns_limit_h_max       18
_diffrn_reflns_limit_k_min       -15
_diffrn_reflns_limit_k_max       18
_diffrn_reflns_limit_l_min       -22
_diffrn_reflns_limit_l_max       22
_diffrn_reflns_theta_min         1.55
_diffrn_reflns_theta_max         24.99
_reflns_number_total             4422
_reflns_number_gt                4227
_reflns_threshold_expression     >2sigma(I)

_computing_data_collection       ?
_computing_cell_refinement       ?
_computing_data_reduction        ?
_computing_structure_solution    'SHELXS-97 (Sheldrick, 1990)'
_computing_structure_refinement  'SHELXL-97 (Sheldrick, 1997)'
_computing_molecular_graphics    ?
_computing_publication_material  ?

_refine_special_details          
;
Refinement of F^2^ against ALL reflections. The weighted R-factor wR and
goodness of fit S are based on F^2^, conventional R-factors R are based
on F, with F set to zero for negative F^2^. The threshold expression of
F^2^ > 2sigma(F^2^) is used only for calculating R-factors(gt) etc. and is
not relevant to the choice of reflections for refinement. R-factors based
on F^2^ are statistically about twice as large as those based on F, and R-
factors based on ALL data will be even larger.
;

_refine_ls_structure_factor_coef Fsqd
_refine_ls_matrix_type           full
_refine_ls_weighting_scheme      calc
_refine_ls_weighting_details     
'calc w=1/[\s^2^(Fo^2^)+(0.0481P)^2^+0.0000P] where P=(Fo^2^+2Fc^2^)/3'
_atom_sites_solution_primary     direct
_atom_sites_solution_secondary   difmap
_atom_sites_solution_hydrogens   geom
_refine_ls_hydrogen_treatment    mixed
_refine_ls_extinction_method     none
_refine_ls_extinction_coef       ?
_refine_ls_abs_structure_details 'Flack H D (1983), Acta Cryst. A39, 876-881'
_refine_ls_abs_structure_Flack   0.00
_refine_ls_number_reflns         4422
_refine_ls_number_parameters     193
_refine_ls_number_restraints     0
_refine_ls_R_factor_all          0.0286
_refine_ls_R_factor_gt           0.0277
_refine_ls_wR_factor_ref         0.0731
_refine_ls_wR_factor_gt          0.0728
_refine_ls_goodness_of_fit_ref   0.999
_refine_ls_restrained_S_all      0.999
_refine_ls_shift/su_max          0.001
_refine_ls_shift/su_mean         0.000

loop_
_atom_site_label
_atom_site_type_symbol
_atom_site_fract_x
_atom_site_fract_y
_atom_site_fract_z
_atom_site_U_iso_or_equiv
_atom_site_adp_type
_atom_site_occupancy
_atom_site_symmetry_multiplicity
_atom_site_calc_flag
_atom_site_refinement_flags
_atom_site_disorder_assembly
_atom_site_disorder_group
Ni1 Ni 0.164823(18) 0.164823(18) 0.5000 0.01866(9) Uani 1 2 d S . .
C1 C 0.21127(14) 0.02470(15) 0.41012(10) 0.0295(4) Uani 1 1 d . . .
C2 C 0.29019(19) 0.0122(2) 0.37006(12) 0.0535(7) Uani 1 1 d . . .
C3 C 0.3767(2) 0.0238(2) 0.40417(14) 0.0662(8) Uani 1 1 d . . .
C4 C 0.4478(2) 0.0099(3) 0.37067(17) 0.1001(13) Uani 1 1 d . . .
C5 C 0.08216(15) 0.14934(14) 0.35281(10) 0.0335(5) Uani 1 1 d . . .
H5 H 0.0776 0.0859 0.3547 0.040 Uiso 1 1 calc R . .
C6 C 0.05100(18) 0.17527(14) 0.29229(10) 0.0374(5) Uani 1 1 d . . .
H6 H 0.0250 0.1300 0.2545 0.045 Uiso 1 1 calc R . .
C7 C 0.05870(16) 0.26928(14) 0.28824(9) 0.0287(4) Uani 1 1 d . . .
C8 C 0.09668(16) 0.33529(14) 0.34593(10) 0.0328(5) Uani 1 1 d . . .
H8 H 0.1025 0.3992 0.3447 0.039 Uiso 1 1 calc R . .
C9 C 0.12567(15) 0.30150(14) 0.40556(10) 0.0282(4) Uani 1 1 d . . .
H9 H 0.1510 0.3446 0.4446 0.034 Uiso 1 1 calc R . .
C10 C 0.02808(17) 0.30327(14) 0.22320(10) 0.0317(4) Uani 1 1 d . . .
C11 C 0.0000 0.41719(17) 0.1667 0.0335(7) Uani 1 2 d S . .
C12 C 0.33198(15) 0.36325(14) 0.55637(10) 0.0319(5) Uani 1 1 d . . .
H12 H 0.2902 0.3428 0.5962 0.038 Uiso 1 1 calc R . .
C13 C 0.42222(15) 0.45560(15) 0.55827(9) 0.0378(5) Uani 1 1 d . . .
H13 H 0.4400 0.4970 0.5982 0.045 Uiso 1 1 calc R . .
C14 C 0.48472(16) 0.48472(16) 0.5000 0.0313(6) Uani 1 2 d S . .
F1 F 0.38856(14) 0.04261(18) 0.47430(9) 0.0972(7) Uani 1 1 d . . .
F2 F 0.53106(18) 0.0228(3) 0.40383(12) 0.1560(13) Uani 1 1 d . . .
N1 N 0.11894(12) 0.21005(11) 0.40959(7) 0.0233(3) Uani 1 1 d . . .
N2 N 0.0000 0.24089(13) 0.1667 0.0309(5) Uani 1 2 d S . .
N3 N 0.02710(15) 0.39064(11) 0.22646(8) 0.0356(4) Uani 1 1 d . . .
N4 N 0.30298(12) 0.30298(12) 0.5000 0.0223(5) Uani 1 2 d S . .
O2 O 0.23960(9) 0.10880(9) 0.43814(6) 0.0244(3) Uani 1 1 d . . .
O3 O 0.12330(12) -0.05133(11) 0.41145(8) 0.0451(4) Uani 1 1 d . . .
O1W O 0.02734(11) 0.02734(11) 0.5000 0.0320(5) Uani 1 2 d S . .

loop_
_atom_site_aniso_label
_atom_site_aniso_U_11
_atom_site_aniso_U_22
_atom_site_aniso_U_33
_atom_site_aniso_U_23
_atom_site_aniso_U_13
_atom_site_aniso_U_12
Ni1 0.01773(12) 0.01773(12) 0.01642(14) 0.00199(6) -0.00199(6) 0.00578(13)
C1 0.0283(10) 0.0398(12) 0.0243(9) -0.0039(8) -0.0067(8) 0.0199(10)
C2 0.0562(15) 0.0869(19) 0.0437(13) -0.0299(13) -0.0203(11) 0.0555(15)
C3 0.0566(15) 0.104(2) 0.0509(14) -0.0241(15) -0.0191(12) 0.0499(16)
C4 0.0643(19) 0.189(4) 0.082(2) -0.052(3) -0.0316(17) 0.090(2)
C5 0.0528(12) 0.0208(9) 0.0290(10) -0.0088(8) -0.0208(9) 0.0199(9)
C6 0.0657(15) 0.0275(10) 0.0276(10) -0.0083(8) -0.0204(10) 0.0296(11)
C7 0.0470(12) 0.0249(9) 0.0184(8) -0.0036(8) -0.0094(9) 0.0210(8)
C8 0.0532(12) 0.0240(10) 0.0234(10) -0.0068(8) -0.0146(9) 0.0210(9)
C9 0.0436(12) 0.0223(9) 0.0199(9) -0.0058(7) -0.0109(8) 0.0175(9)
C10 0.0528(13) 0.0235(10) 0.0266(9) -0.0051(8) -0.0131(10) 0.0250(9)
C11 0.0562(18) 0.0253(10) 0.0293(14) -0.0073(7) -0.0145(13) 0.0281(9)
C12 0.0319(10) 0.0266(10) 0.0167(9) -0.0033(8) 0.0029(8) -0.0007(8)
C13 0.0313(11) 0.0375(11) 0.0174(9) -0.0096(8) 0.0012(8) -0.0033(9)
C14 0.0250(9) 0.0250(9) 0.0218(13) -0.0026(6) 0.0026(6) -0.0041(11)
F1 0.0965(12) 0.188(2) 0.0612(10) -0.0531(12) -0.0424(9) 0.1118(14)
F2 0.1112(17) 0.318(4) 0.1146(17) -0.091(2) -0.0605(15) 0.164(2)
N1 0.0299(8) 0.0165(7) 0.0192(7) -0.0024(6) -0.0084(7) 0.0084(6)
N2 0.0554(15) 0.0277(8) 0.0189(11) -0.0067(5) -0.0134(10) 0.0277(8)
N3 0.0633(12) 0.0272(8) 0.0229(8) -0.0080(6) -0.0141(9) 0.0276(9)
N4 0.0163(7) 0.0163(7) 0.0184(11) 0.0003(4) -0.0003(4) -0.0037(8)
O2 0.0241(7) 0.0267(7) 0.0211(6) -0.0005(5) 0.0001(5) 0.0118(5)
O3 0.0519(10) 0.0294(8) 0.0453(9) -0.0082(7) -0.0069(7) 0.0138(7)
O1W 0.0248(7) 0.0248(7) 0.0296(10) 0.0007(4) -0.0007(4) -0.0002(8)

_geom_special_details            
;
All esds (except the esd in the dihedral angle between two l.s. planes)
are estimated using the full covariance matrix. The cell esds are taken
into account individually in the estimation of esds in distances, angles
and torsion angles; correlations between esds in cell parameters are only
used when they are defined by crystal symmetry. An approximate (isotropic)
treatment of cell esds is used for estimating esds involving l.s. planes.
;

loop_
_geom_bond_atom_site_label_1
_geom_bond_atom_site_label_2
_geom_bond_distance
_geom_bond_site_symmetry_2
_geom_bond_publ_flag
Ni1 O2 2.0822(11) 4_556 ?
Ni1 O2 2.0822(11) . ?
Ni1 N1 2.0834(13) 4_556 ?
Ni1 N1 2.0834(13) . ?
Ni1 O1W 2.0862(18) . ?
Ni1 N4 2.0964(19) . ?
C1 O2 1.243(2) . ?
C1 O3 1.254(2) . ?
C1 C2 1.506(3) . ?
C2 C3 1.391(3) . ?
C2 C2 1.422(4) 6 ?
C3 F1 1.346(3) . ?
C3 C4 1.355(4) . ?
C4 F2 1.334(3) . ?
C4 C4 1.432(6) 6 ?
C5 N1 1.339(2) . ?
C5 C6 1.366(3) . ?
C5 H5 0.9300 . ?
C6 C7 1.374(3) . ?
C6 H6 0.9300 . ?
C7 C8 1.394(2) . ?
C7 C10 1.492(2) . ?
C8 C9 1.395(2) . ?
C8 H8 0.9300 . ?
C9 N1 1.342(2) . ?
C9 H9 0.9300 . ?
C10 N3 1.335(2) . ?
C10 N2 1.346(2) . ?
C11 N3 1.3300(19) . ?
C11 N3 1.3300(19) 5 ?
C11 C14 1.488(4) 3_564 ?
C12 N4 1.326(2) . ?
C12 C13 1.386(3) . ?
C12 H12 0.9300 . ?
C13 C14 1.372(2) . ?
C13 H13 0.9300 . ?
C14 C13 1.372(2) 4_556 ?
C14 C11 1.488(4) 2_665 ?
N2 C10 1.346(2) 5 ?
N4 C12 1.326(2) 4_556 ?

loop_
_geom_angle_atom_site_label_1
_geom_angle_atom_site_label_2
_geom_angle_atom_site_label_3
_geom_angle
_geom_angle_site_symmetry_1
_geom_angle_site_symmetry_3
_geom_angle_publ_flag
O2 Ni1 O2 172.16(7) 4_556 . ?
O2 Ni1 N1 90.92(5) 4_556 4_556 ?
O2 Ni1 N1 89.10(5) . 4_556 ?
O2 Ni1 N1 89.10(5) 4_556 . ?
O2 Ni1 N1 90.92(5) . . ?
N1 Ni1 N1 179.73(10) 4_556 . ?
O2 Ni1 O1W 93.92(3) 4_556 . ?
O2 Ni1 O1W 93.92(3) . . ?
N1 Ni1 O1W 89.86(4) 4_556 . ?
N1 Ni1 O1W 89.86(4) . . ?
O2 Ni1 N4 86.08(3) 4_556 . ?
O2 Ni1 N4 86.08(3) . . ?
N1 Ni1 N4 90.14(4) 4_556 . ?
N1 Ni1 N4 90.14(4) . . ?
O1W Ni1 N4 180.00(11) . . ?
O2 C1 O3 126.78(18) . . ?
O2 C1 C2 117.03(18) . . ?
O3 C1 C2 116.19(19) . . ?
C3 C2 C2 118.38(14) . 6 ?
C3 C2 C1 120.74(19) . . ?
C2 C2 C1 120.88(10) 6 . ?
F1 C3 C4 117.3(2) . . ?
F1 C3 C2 119.9(2) . . ?
C4 C3 C2 122.6(2) . . ?
F2 C4 C3 121.9(3) . . ?
F2 C4 C4 118.95(16) . 6 ?
C3 C4 C4 118.89(17) . 6 ?
N1 C5 C6 123.72(16) . . ?
N1 C5 H5 118.1 . . ?
C6 C5 H5 118.1 . . ?
C5 C6 C7 118.91(17) . . ?
C5 C6 H6 120.5 . . ?
C7 C6 H6 120.5 . . ?
C6 C7 C8 119.52(16) . . ?
C6 C7 C10 121.68(16) . . ?
C8 C7 C10 118.79(15) . . ?
C7 C8 C9 117.27(16) . . ?
C7 C8 H8 121.4 . . ?
C9 C8 H8 121.4 . . ?
N1 C9 C8 123.42(16) . . ?
N1 C9 H9 118.3 . . ?
C8 C9 H9 118.3 . . ?
N3 C10 N2 125.34(17) . . ?
N3 C10 C7 117.75(16) . . ?
N2 C10 C7 116.87(15) . . ?
N3 C11 N3 125.5(2) . 5 ?
N3 C11 C14 117.23(11) . 3_564 ?
N3 C11 C14 117.23(11) 5 3_564 ?
N4 C12 C13 122.51(18) . . ?
N4 C12 H12 118.7 . . ?
C13 C12 H12 118.7 . . ?
C14 C13 C12 118.63(18) . . ?
C14 C13 H13 120.7 . . ?
C12 C13 H13 120.7 . . ?
C13 C14 C13 119.1(2) 4_556 . ?
C13 C14 C11 120.43(12) 4_556 2_665 ?
C13 C14 C11 120.43(12) . 2_665 ?
C5 N1 C9 117.15(15) . . ?
C5 N1 Ni1 121.39(11) . . ?
C9 N1 Ni1 121.46(12) . . ?
C10 N2 C10 113.9(2) . 5 ?
C11 N3 C10 114.87(16) . . ?
C12 N4 C12 118.6(2) . 4_556 ?
C12 N4 Ni1 120.72(11) . . ?
C12 N4 Ni1 120.72(11) 4_556 . ?
C1 O2 Ni1 132.70(12) . . ?

_diffrn_measured_fraction_theta_max 1.000
_diffrn_reflns_theta_full        24.99
_diffrn_measured_fraction_theta_full 1.000
_refine_diff_density_max         0.259
_refine_diff_density_min         -0.145
_refine_diff_density_rms         0.032
# SQUEEZE RESULTS (APPEND TO CIF)
# Note: Data are Listed for all Voids in the P1 Unit Cell
# i.e. Centre of Gravity, Solvent Accessible Volume,
# Recovered number of Electrons in the Void and
# Details about the Squeezed Material
loop_
_platon_squeeze_void_nr
_platon_squeeze_void_average_x
_platon_squeeze_void_average_y
_platon_squeeze_void_average_z
_platon_squeeze_void_volume
_platon_squeeze_void_count_electrons
_platon_squeeze_void_content
1 -0.050 0.437 0.417 2242 707 ' '
_platon_squeeze_details          
;
;

