####################################################################### 
# 
# This file contains crystal structure data downloaded from the 
# Cambridge Structural Database (CSD) hosted by the Cambridge 
# Crystallographic Data Centre (CCDC).
# 
# Full information about CCDC data access policies and citation 
# guidelines are available at http://www.ccdc.cam.ac.uk/access/V1 
# 
# Audit and citation data items may have been added by the CCDC. 
# Please retain this information to preserve the provenance of 
# this file and to allow appropriate attribution of the data. 
# 
#######################################################################

data_TKL-105
_audit_block_doi                 10.5517/cc100l7v
_database_code_depnum_ccdc_archive 'CCDC 924086'
loop_
_citation_id
_citation_doi
_citation_year
1 10.1038/srep03312 2013
_audit_update_record             
;
2013-02-11 deposited with the CCDC.	2024-07-10 downloaded from the CCDC.
;
#TrackingRef '17650_web_deposit_cif_file_0_Da-ShuaiZhang_1360569648.Crystals.cif'


_audit_creation_method           SHELXL-97
_chemical_name_systematic        
;
?
;
_chemical_name_common            ?
_chemical_melting_point          ?
_chemical_formula_moiety         ?
_chemical_formula_sum            'C13 H7 F0.50 N3 Ni0.50 O2.50'
_chemical_formula_weight         284.07

loop_
_atom_type_symbol
_atom_type_description
_atom_type_scat_dispersion_real
_atom_type_scat_dispersion_imag
_atom_type_scat_source
C C 0.0033 0.0016 'International Tables Vol C Tables 4.2.6.8 and 6.1.1.4'
H H 0.0000 0.0000 'International Tables Vol C Tables 4.2.6.8 and 6.1.1.4'
F F 0.0171 0.0103 'International Tables Vol C Tables 4.2.6.8 and 6.1.1.4'
N N 0.0061 0.0033 'International Tables Vol C Tables 4.2.6.8 and 6.1.1.4'
Ni Ni 0.3393 1.1124 'International Tables Vol C Tables 4.2.6.8 and 6.1.1.4'
O O 0.0106 0.0060 'International Tables Vol C Tables 4.2.6.8 and 6.1.1.4'

_symmetry_cell_setting           Hexagonal
_symmetry_space_group_name_H-M   'P 31 2 1'

loop_
_symmetry_equiv_pos_as_xyz
'x, y, z'
'-y, x-y, z+1/3'
'-x+y, -x, z+2/3'
'y, x, -z'
'-x, -x+y, -z+1/3'
'x-y, -y, -z+2/3'

_cell_length_a                   15.698(2)
_cell_length_b                   15.698(2)
_cell_length_c                   18.557(4)
_cell_angle_alpha                90.00
_cell_angle_beta                 90.00
_cell_angle_gamma                120.00
_cell_volume                     3960.3(11)
_cell_formula_units_Z            6
_cell_measurement_temperature    293(2)
_cell_measurement_reflns_used    ?
_cell_measurement_theta_min      ?
_cell_measurement_theta_max      ?

_exptl_crystal_description       block
_exptl_crystal_colour            green
_exptl_crystal_size_max          0.20
_exptl_crystal_size_mid          0.18
_exptl_crystal_size_min          0.16
_exptl_crystal_density_meas      ?
_exptl_crystal_density_diffrn    0.715
_exptl_crystal_density_method    'not measured'
_exptl_crystal_F_000             867
_exptl_absorpt_coefficient_mu    0.395
_exptl_absorpt_correction_type   ?
_exptl_absorpt_correction_T_min  0.9252
_exptl_absorpt_correction_T_max  0.9396
_exptl_absorpt_process_details   ?

_exptl_special_details           
;
?
;

_diffrn_ambient_temperature      293(2)
_diffrn_radiation_wavelength     0.71073
_diffrn_radiation_type           MoK\a
_diffrn_radiation_source         'fine-focus sealed tube'
_diffrn_radiation_monochromator  graphite
_diffrn_measurement_device_type  ?
_diffrn_measurement_method       ?
_diffrn_detector_area_resol_mean ?
_diffrn_standards_number         ?
_diffrn_standards_interval_count ?
_diffrn_standards_interval_time  ?
_diffrn_standards_decay_%        ?
_diffrn_reflns_number            32129
_diffrn_reflns_av_R_equivalents  0.0731
_diffrn_reflns_av_sigmaI/netI    0.0466
_diffrn_reflns_limit_h_min       -18
_diffrn_reflns_limit_h_max       18
_diffrn_reflns_limit_k_min       -18
_diffrn_reflns_limit_k_max       18
_diffrn_reflns_limit_l_min       -22
_diffrn_reflns_limit_l_max       22
_diffrn_reflns_theta_min         2.59
_diffrn_reflns_theta_max         25.00
_reflns_number_total             4663
_reflns_number_gt                4187
_reflns_threshold_expression     >2sigma(I)

_computing_data_collection       ?
_computing_cell_refinement       ?
_computing_data_reduction        ?
_computing_structure_solution    'SHELXS-97 (Sheldrick, 1990)'
_computing_structure_refinement  'SHELXL-97 (Sheldrick, 1997)'
_computing_molecular_graphics    ?
_computing_publication_material  ?

_refine_special_details          
;
Refinement of F^2^ against ALL reflections. The weighted R-factor wR and
goodness of fit S are based on F^2^, conventional R-factors R are based
on F, with F set to zero for negative F^2^. The threshold expression of
F^2^ > 2sigma(F^2^) is used only for calculating R-factors(gt) etc. and is
not relevant to the choice of reflections for refinement. R-factors based
on F^2^ are statistically about twice as large as those based on F, and R-
factors based on ALL data will be even larger.
;

_refine_ls_structure_factor_coef Fsqd
_refine_ls_matrix_type           full
_refine_ls_weighting_scheme      calc
_refine_ls_weighting_details     
'calc w=1/[\s^2^(Fo^2^)+(0.0632P)^2^+0.0000P] where P=(Fo^2^+2Fc^2^)/3'
_atom_sites_solution_primary     direct
_atom_sites_solution_secondary   difmap
_atom_sites_solution_hydrogens   geom
_refine_ls_hydrogen_treatment    mixed
_refine_ls_extinction_method     none
_refine_ls_extinction_coef       ?
_refine_ls_abs_structure_details 'Flack H D (1983), Acta Cryst. A39, 876-881'
_refine_ls_abs_structure_Flack   0.054(16)
_refine_ls_number_reflns         4663
_refine_ls_number_parameters     184
_refine_ls_number_restraints     0
_refine_ls_R_factor_all          0.0509
_refine_ls_R_factor_gt           0.0454
_refine_ls_wR_factor_ref         0.1077
_refine_ls_wR_factor_gt          0.1050
_refine_ls_goodness_of_fit_ref   1.013
_refine_ls_restrained_S_all      1.013
_refine_ls_shift/su_max          0.001
_refine_ls_shift/su_mean         0.000

loop_
_atom_site_label
_atom_site_type_symbol
_atom_site_fract_x
_atom_site_fract_y
_atom_site_fract_z
_atom_site_U_iso_or_equiv
_atom_site_adp_type
_atom_site_occupancy
_atom_site_symmetry_multiplicity
_atom_site_calc_flag
_atom_site_refinement_flags
_atom_site_disorder_assembly
_atom_site_disorder_group
Ni1 Ni 0.82207(3) 1.0000 0.8333 0.03749(14) Uani 1 2 d S . .
F1 F 0.9342(7) 1.3263(4) 0.8012(4) 0.196(4) Uani 0.50 1 d P . .
O1 O 0.95410(19) 1.0000 0.8333 0.0771(10) Uani 1 2 d S . .
O2 O 0.87951(14) 1.12354(14) 0.76961(9) 0.0468(4) Uani 1 1 d . . .
O3 O 1.0301(2) 1.1557(2) 0.7482(2) 0.1137(12) Uani 1 1 d . . .
N1 N 0.77705(17) 0.91006(16) 0.74018(11) 0.0480(6) Uani 1 1 d . . .
N2 N 0.60452(16) 0.63956(18) 0.55820(12) 0.0612(8) Uani 1 1 d . . .
N3 N 0.7524(2) 0.7524(2) 0.5000 0.0665(12) Uani 1 2 d S . .
N4 N 0.6881(2) 1.0000 0.8333 0.0457(8) Uani 1 2 d S . .
C1 C 0.6934(2) 0.8239(2) 0.73922(15) 0.0600(9) Uani 1 1 d . . .
H1 H 0.6544 0.8050 0.7804 0.072 Uiso 1 1 calc R . .
C2 C 0.6614(2) 0.7613(2) 0.68086(15) 0.0655(10) Uani 1 1 d . . .
H2 H 0.6020 0.7023 0.6824 0.079 Uiso 1 1 calc R . .
C3 C 0.7200(2) 0.7886(2) 0.61994(14) 0.0585(8) Uani 1 1 d . . .
C4 C 0.8078(2) 0.8762(2) 0.62075(16) 0.0711(11) Uani 1 1 d . . .
H4 H 0.8497 0.8954 0.5812 0.085 Uiso 1 1 calc R . .
C5 C 0.8326(2) 0.9348(2) 0.68093(15) 0.0618(9) Uani 1 1 d . . .
H5 H 0.8911 0.9948 0.6804 0.074 Uiso 1 1 calc R . .
C6 C 0.6893(2) 0.7226(2) 0.55524(15) 0.0622(9) Uani 1 1 d . . .
C7 C 0.6625(2) 1.0380(3) 0.77849(17) 0.0673(10) Uani 1 1 d . . .
H7 H 0.7057 1.0649 0.7398 0.081 Uiso 1 1 calc R . .
C8 C 0.5765(2) 1.0390(3) 0.77663(17) 0.0733(11) Uani 1 1 d . . .
H8 H 0.5615 1.0659 0.7373 0.088 Uiso 1 1 calc R . .
C9 C 0.5118(2) 1.0000 0.8333 0.0559(11) Uani 1 2 d S . .
C10 C 0.5831(2) 0.5831(2) 0.5000 0.0569(12) Uani 1 2 d S . .
C11 C 0.9636(2) 1.1739(2) 0.74381(17) 0.0593(8) Uani 1 1 d . . .
C12 C 0.9817(3) 1.2651(3) 0.70147(19) 0.0779(11) Uani 1 1 d . . .
C13 C 0.9646(5) 1.3330(4) 0.7346(3) 0.147(3) Uani 1 1 d . . .
C14 C 0.9782(7) 1.4184(5) 0.7013(4) 0.226(5) Uani 1 1 d . . .
H14 H 0.9593 1.4594 0.7236 0.271 Uiso 1 1 calc R . .

loop_
_atom_site_aniso_label
_atom_site_aniso_U_11
_atom_site_aniso_U_22
_atom_site_aniso_U_33
_atom_site_aniso_U_23
_atom_site_aniso_U_13
_atom_site_aniso_U_12
Ni1 0.03595(18) 0.0469(3) 0.0333(2) -0.00808(19) -0.00404(10) 0.02344(14)
F1 0.318(11) 0.093(4) 0.189(6) 0.036(4) 0.166(7) 0.112(6)
O1 0.0506(14) 0.084(3) 0.108(3) 0.012(2) 0.0059(10) 0.0420(13)
O2 0.0446(11) 0.0554(11) 0.0429(10) -0.0007(8) 0.0049(9) 0.0270(10)
O3 0.0676(18) 0.109(2) 0.180(3) 0.070(2) 0.0572(19) 0.0558(18)
N1 0.0428(13) 0.0528(14) 0.0362(11) -0.0076(9) 0.0070(10) 0.0147(12)
N2 0.0413(13) 0.0543(15) 0.0442(13) -0.0141(11) 0.0158(10) -0.0090(12)
N3 0.0588(15) 0.0588(15) 0.0368(17) -0.0180(10) 0.0180(10) -0.0045(18)
N4 0.0459(14) 0.073(2) 0.0274(15) 0.0038(14) 0.0019(7) 0.0363(12)
C1 0.0453(17) 0.064(2) 0.0376(15) -0.0146(13) 0.0133(12) 0.0027(16)
C2 0.0537(18) 0.0558(19) 0.0439(16) -0.0156(14) 0.0107(13) -0.0048(15)
C3 0.0547(19) 0.0484(16) 0.0399(15) -0.0169(12) 0.0157(13) 0.0014(15)
C4 0.063(2) 0.0554(19) 0.0471(17) -0.0177(14) 0.0218(14) -0.0066(16)
C5 0.0491(17) 0.0502(17) 0.0507(17) -0.0165(13) 0.0133(13) -0.0019(14)
C6 0.0540(18) 0.0492(17) 0.0399(15) -0.0155(12) 0.0129(13) -0.0069(15)
C7 0.0523(19) 0.120(3) 0.0463(17) 0.0279(18) 0.0146(14) 0.055(2)
C8 0.0578(19) 0.141(3) 0.0457(16) 0.0348(19) 0.0155(14) 0.068(2)
C9 0.0435(15) 0.099(4) 0.044(2) 0.014(2) 0.0071(11) 0.0493(18)
C10 0.0486(16) 0.0486(16) 0.037(2) -0.0107(10) 0.0107(10) -0.0033(19)
C11 0.058(2) 0.062(2) 0.0604(19) 0.0001(15) 0.0140(15) 0.0319(17)
C12 0.096(3) 0.054(2) 0.095(3) 0.0173(17) 0.040(2) 0.046(2)
C13 0.232(7) 0.084(3) 0.152(4) 0.032(3) 0.112(5) 0.099(4)
C14 0.403(13) 0.131(5) 0.219(8) 0.076(5) 0.183(8) 0.189(8)

_geom_special_details            
;
All esds (except the esd in the dihedral angle between two l.s. planes)
are estimated using the full covariance matrix. The cell esds are taken
into account individually in the estimation of esds in distances, angles
and torsion angles; correlations between esds in cell parameters are only
used when they are defined by crystal symmetry. An approximate (isotropic)
treatment of cell esds is used for estimating esds involving l.s. planes.
;

loop_
_geom_bond_atom_site_label_1
_geom_bond_atom_site_label_2
_geom_bond_distance
_geom_bond_site_symmetry_2
_geom_bond_publ_flag
Ni1 O2 2.0552(18) . ?
Ni1 O2 2.0552(18) 6_676 ?
Ni1 O1 2.073(3) . ?
Ni1 N4 2.103(3) . ?
Ni1 N1 2.117(2) . ?
Ni1 N1 2.117(2) 6_676 ?
F1 C13 1.311(7) . ?
O2 C11 1.246(4) . ?
O3 C11 1.214(4) . ?
N1 C1 1.333(4) . ?
N1 C5 1.335(3) . ?
N2 C6 1.318(3) . ?
N2 C10 1.329(3) . ?
N3 C6 1.337(3) 4_556 ?
N3 C6 1.337(3) . ?
N4 C7 1.339(3) . ?
N4 C7 1.339(3) 6_676 ?
C1 C2 1.377(4) . ?
C1 H1 0.9300 . ?
C2 C3 1.384(4) . ?
C2 H2 0.9300 . ?
C3 C4 1.376(4) . ?
C3 C6 1.500(3) . ?
C4 C5 1.374(4) . ?
C4 H4 0.9300 . ?
C5 H5 0.9300 . ?
C7 C8 1.359(4) . ?
C7 H7 0.9300 . ?
C8 C9 1.376(3) . ?
C8 H8 0.9300 . ?
C9 C8 1.376(3) 6_676 ?
C9 C10 1.490(5) 2_665 ?
C10 N2 1.329(3) 4_556 ?
C10 C9 1.490(5) 3_564 ?
C11 C12 1.530(5) . ?
C12 C13 1.368(5) . ?
C12 C12 1.384(6) 5_766 ?
C13 C14 1.392(7) . ?
C14 C14 1.415(11) 5_766 ?
C14 H14 0.9300 . ?

loop_
_geom_angle_atom_site_label_1
_geom_angle_atom_site_label_2
_geom_angle_atom_site_label_3
_geom_angle
_geom_angle_site_symmetry_1
_geom_angle_site_symmetry_3
_geom_angle_publ_flag
O2 Ni1 O2 176.21(11) . 6_676 ?
O2 Ni1 O1 91.90(5) . . ?
O2 Ni1 O1 91.90(5) 6_676 . ?
O2 Ni1 N4 88.10(5) . . ?
O2 Ni1 N4 88.10(5) 6_676 . ?
O1 Ni1 N4 180.000(2) . . ?
O2 Ni1 N1 90.12(8) . . ?
O2 Ni1 N1 89.88(8) 6_676 . ?
O1 Ni1 N1 90.02(7) . . ?
N4 Ni1 N1 89.98(7) . . ?
O2 Ni1 N1 89.88(8) . 6_676 ?
O2 Ni1 N1 90.12(8) 6_676 6_676 ?
O1 Ni1 N1 90.02(7) . 6_676 ?
N4 Ni1 N1 89.98(7) . 6_676 ?
N1 Ni1 N1 179.96(14) . 6_676 ?
C11 O2 Ni1 130.2(2) . . ?
C1 N1 C5 116.9(2) . . ?
C1 N1 Ni1 121.23(17) . . ?
C5 N1 Ni1 121.78(18) . . ?
C6 N2 C10 114.8(2) . . ?
C6 N3 C6 113.9(3) 4_556 . ?
C7 N4 C7 117.0(3) . 6_676 ?
C7 N4 Ni1 121.50(17) . . ?
C7 N4 Ni1 121.50(17) 6_676 . ?
N1 C1 C2 123.9(3) . . ?
N1 C1 H1 118.1 . . ?
C2 C1 H1 118.1 . . ?
C1 C2 C3 118.2(3) . . ?
C1 C2 H2 120.9 . . ?
C3 C2 H2 120.9 . . ?
C4 C3 C2 118.6(2) . . ?
C4 C3 C6 121.0(2) . . ?
C2 C3 C6 120.4(2) . . ?
C5 C4 C3 119.0(3) . . ?
C5 C4 H4 120.5 . . ?
C3 C4 H4 120.5 . . ?
N1 C5 C4 123.3(3) . . ?
N1 C5 H5 118.3 . . ?
C4 C5 H5 118.3 . . ?
N2 C6 N3 125.6(3) . . ?
N2 C6 C3 117.9(2) . . ?
N3 C6 C3 116.5(2) . . ?
N4 C7 C8 123.1(3) . . ?
N4 C7 H7 118.5 . . ?
C8 C7 H7 118.5 . . ?
C7 C8 C9 119.5(3) . . ?
C7 C8 H8 120.3 . . ?
C9 C8 H8 120.3 . . ?
C8 C9 C8 117.9(4) . 6_676 ?
C8 C9 C10 121.06(18) . 2_665 ?
C8 C9 C10 121.06(18) 6_676 2_665 ?
N2 C10 N2 125.2(3) . 4_556 ?
N2 C10 C9 117.38(17) . 3_564 ?
N2 C10 C9 117.38(17) 4_556 3_564 ?
O3 C11 O2 126.0(3) . . ?
O3 C11 C12 118.3(3) . . ?
O2 C11 C12 115.7(3) . . ?
C13 C12 C12 118.7(3) . 5_766 ?
C13 C12 C11 118.8(3) . . ?
C12 C12 C11 122.48(17) 5_766 . ?
F1 C13 C12 124.5(5) . . ?
F1 C13 C14 111.7(4) . . ?
C12 C13 C14 123.8(5) . . ?
C13 C14 C14 117.3(3) . 5_766 ?
C13 C14 H14 121.4 . . ?
C14 C14 H14 121.4 5_766 . ?

loop_
_geom_torsion_atom_site_label_1
_geom_torsion_atom_site_label_2
_geom_torsion_atom_site_label_3
_geom_torsion_atom_site_label_4
_geom_torsion
_geom_torsion_site_symmetry_1
_geom_torsion_site_symmetry_2
_geom_torsion_site_symmetry_3
_geom_torsion_site_symmetry_4
_geom_torsion_publ_flag
O2 Ni1 O2 C11 179.9(2) 6_676 . . . ?
O1 Ni1 O2 C11 -0.1(2) . . . . ?
N4 Ni1 O2 C11 179.9(2) . . . . ?
N1 Ni1 O2 C11 -90.2(3) . . . . ?
N1 Ni1 O2 C11 89.9(3) 6_676 . . . ?
O2 Ni1 N1 C1 -144.2(3) . . . . ?
O2 Ni1 N1 C1 32.0(3) 6_676 . . . ?
O1 Ni1 N1 C1 123.9(3) . . . . ?
N4 Ni1 N1 C1 -56.1(3) . . . . ?
N1 Ni1 N1 C1 -56(100) 6_676 . . . ?
O2 Ni1 N1 C5 38.6(3) . . . . ?
O2 Ni1 N1 C5 -145.2(3) 6_676 . . . ?
O1 Ni1 N1 C5 -53.3(3) . . . . ?
N4 Ni1 N1 C5 126.7(3) . . . . ?
N1 Ni1 N1 C5 127(100) 6_676 . . . ?
O2 Ni1 N4 C7 27.9(2) . . . . ?
O2 Ni1 N4 C7 -152.1(2) 6_676 . . . ?
O1 Ni1 N4 C7 0(52) . . . . ?
N1 Ni1 N4 C7 -62.2(2) . . . . ?
N1 Ni1 N4 C7 117.8(2) 6_676 . . . ?
O2 Ni1 N4 C7 -152.1(2) . . . 6_676 ?
O2 Ni1 N4 C7 27.9(2) 6_676 . . 6_676 ?
O1 Ni1 N4 C7 0(94) . . . 6_676 ?
N1 Ni1 N4 C7 117.8(2) . . . 6_676 ?
N1 Ni1 N4 C7 -62.2(2) 6_676 . . 6_676 ?
C5 N1 C1 C2 -1.1(5) . . . . ?
Ni1 N1 C1 C2 -178.5(3) . . . . ?
N1 C1 C2 C3 0.9(6) . . . . ?
C1 C2 C3 C4 0.7(6) . . . . ?
C1 C2 C3 C6 179.2(4) . . . . ?
C2 C3 C4 C5 -2.1(6) . . . . ?
C6 C3 C4 C5 179.4(4) . . . . ?
C1 N1 C5 C4 -0.4(5) . . . . ?
Ni1 N1 C5 C4 177.0(3) . . . . ?
C3 C4 C5 N1 2.0(6) . . . . ?
C10 N2 C6 N3 -0.1(5) . . . . ?
C10 N2 C6 C3 -178.0(3) . . . . ?
C6 N3 C6 N2 0.1(3) 4_556 . . . ?
C6 N3 C6 C3 178.0(4) 4_556 . . . ?
C4 C3 C6 N2 179.6(4) . . . . ?
C2 C3 C6 N2 1.2(6) . . . . ?
C4 C3 C6 N3 1.6(5) . . . . ?
C2 C3 C6 N3 -176.9(3) . . . . ?
C7 N4 C7 C8 -0.2(3) 6_676 . . . ?
Ni1 N4 C7 C8 179.8(3) . . . . ?
N4 C7 C8 C9 0.3(6) . . . . ?
C7 C8 C9 C8 -0.1(3) . . . 6_676 ?
C7 C8 C9 C10 179.9(3) . . . 2_665 ?
C6 N2 C10 N2 0.1(2) . . . 4_556 ?
C6 N2 C10 C9 -179.9(2) . . . 3_564 ?
Ni1 O2 C11 O3 4.6(5) . . . . ?
Ni1 O2 C11 C12 -176.98(19) . . . . ?
O3 C11 C12 C13 -125.7(6) . . . . ?
O2 C11 C12 C13 55.7(6) . . . . ?
O3 C11 C12 C12 51.7(7) . . . 5_766 ?
O2 C11 C12 C12 -126.8(5) . . . 5_766 ?
C12 C12 C13 F1 -176.9(8) 5_766 . . . ?
C11 C12 C13 F1 0.6(11) . . . . ?
C12 C12 C13 C14 2.7(11) 5_766 . . . ?
C11 C12 C13 C14 -179.7(7) . . . . ?
F1 C13 C14 C14 172.8(12) . . . 5_766 ?
C12 C13 C14 C14 -6.9(17) . . . 5_766 ?

_diffrn_measured_fraction_theta_max 0.998
_diffrn_reflns_theta_full        25.00
_diffrn_measured_fraction_theta_full 0.998
_refine_diff_density_max         0.270
_refine_diff_density_min         -0.299
_refine_diff_density_rms         0.052
# SQUEEZE RESULTS (APPEND TO CIF)
# Note: Data are Listed for all Voids in the P1 Unit Cell
# i.e. Centre of Gravity, Solvent Accessible Volume,
# Recovered number of Electrons in the Void and
# Details about the Squeezed Material
loop_
_platon_squeeze_void_nr
_platon_squeeze_void_average_x
_platon_squeeze_void_average_y
_platon_squeeze_void_average_z
_platon_squeeze_void_volume
_platon_squeeze_void_count_electrons
_platon_squeeze_void_content
1 -0.056 0.431 0.434 2511 402 ' '
_platon_squeeze_details          
;
;
