####################################################################### 
# 
# This file contains crystal structure data downloaded from the 
# Cambridge Structural Database (CSD) hosted by the Cambridge 
# Crystallographic Data Centre (CCDC).
# 
# Full information about CCDC data access policies and citation 
# guidelines are available at http://www.ccdc.cam.ac.uk/access/V1 
# 
# Audit and citation data items may have been added by the CCDC. 
# Please retain this information to preserve the provenance of 
# this file and to allow appropriate attribution of the data. 
# 
#######################################################################

data_TKL-106
_audit_block_doi                 10.5517/cc100l8w
_database_code_depnum_ccdc_archive 'CCDC 924087'
loop_
_citation_id
_citation_doi
_citation_year
1 10.1038/srep03312 2013
_audit_update_record             
;
2013-02-11 deposited with the CCDC.	2024-07-10 downloaded from the CCDC.
;
#TrackingRef '17650_web_deposit_cif_file_0_Da-ShuaiZhang_1360569648.Crystals.cif'


_audit_creation_method           SHELXL-97
_chemical_name_systematic        
;
?
;
_chemical_name_common            ?
_chemical_melting_point          ?
_chemical_formula_moiety         ?
_chemical_formula_sum            'C13 H7 F N3 Ni0.50 O2.50'
_chemical_formula_weight         293.57

loop_
_atom_type_symbol
_atom_type_description
_atom_type_scat_dispersion_real
_atom_type_scat_dispersion_imag
_atom_type_scat_source
C C 0.0033 0.0016 'International Tables Vol C Tables 4.2.6.8 and 6.1.1.4'
H H 0.0000 0.0000 'International Tables Vol C Tables 4.2.6.8 and 6.1.1.4'
F F 0.0171 0.0103 'International Tables Vol C Tables 4.2.6.8 and 6.1.1.4'
N N 0.0061 0.0033 'International Tables Vol C Tables 4.2.6.8 and 6.1.1.4'
Ni Ni 0.3393 1.1124 'International Tables Vol C Tables 4.2.6.8 and 6.1.1.4'
O O 0.0106 0.0060 'International Tables Vol C Tables 4.2.6.8 and 6.1.1.4'

_symmetry_cell_setting           Hexagonal
_symmetry_space_group_name_H-M   'P 31 2 1'

loop_
_symmetry_equiv_pos_as_xyz
'x, y, z'
'-y, x-y, z+1/3'
'-x+y, -x, z+2/3'
'y, x, -z'
'-x, -x+y, -z+1/3'
'x-y, -y, -z+2/3'

_cell_length_a                   15.540(2)
_cell_length_b                   15.540(2)
_cell_length_c                   18.679(4)
_cell_angle_alpha                90.00
_cell_angle_beta                 90.00
_cell_angle_gamma                120.00
_cell_volume                     3906.5(11)
_cell_formula_units_Z            6
_cell_measurement_temperature    293(2)
_cell_measurement_reflns_used    ?
_cell_measurement_theta_min      ?
_cell_measurement_theta_max      ?

_exptl_crystal_description       block
_exptl_crystal_colour            green
_exptl_crystal_size_max          0.20
_exptl_crystal_size_mid          0.18
_exptl_crystal_size_min          0.16
_exptl_crystal_density_meas      ?
_exptl_crystal_density_diffrn    0.749
_exptl_crystal_density_method    'not measured'
_exptl_crystal_F_000             894
_exptl_absorpt_coefficient_mu    0.404
_exptl_absorpt_correction_type   ?
_exptl_absorpt_correction_T_min  0.9236
_exptl_absorpt_correction_T_max  0.9382
_exptl_absorpt_process_details   ?

_exptl_special_details           
;
?
;

_diffrn_ambient_temperature      293(2)
_diffrn_radiation_wavelength     0.71073
_diffrn_radiation_type           MoK\a
_diffrn_radiation_source         'fine-focus sealed tube'
_diffrn_radiation_monochromator  graphite
_diffrn_measurement_device_type  ?
_diffrn_measurement_method       ?
_diffrn_detector_area_resol_mean ?
_diffrn_standards_number         ?
_diffrn_standards_interval_count ?
_diffrn_standards_interval_time  ?
_diffrn_standards_decay_%        ?
_diffrn_reflns_number            32965
_diffrn_reflns_av_R_equivalents  0.0850
_diffrn_reflns_av_sigmaI/netI    0.0553
_diffrn_reflns_limit_h_min       -16
_diffrn_reflns_limit_h_max       18
_diffrn_reflns_limit_k_min       -18
_diffrn_reflns_limit_k_max       17
_diffrn_reflns_limit_l_min       -22
_diffrn_reflns_limit_l_max       21
_diffrn_reflns_theta_min         1.87
_diffrn_reflns_theta_max         25.00
_reflns_number_total             4592
_reflns_number_gt                4013
_reflns_threshold_expression     >2sigma(I)

_computing_data_collection       ?
_computing_cell_refinement       ?
_computing_data_reduction        ?
_computing_structure_solution    'SHELXS-97 (Sheldrick, 1990)'
_computing_structure_refinement  'SHELXL-97 (Sheldrick, 1997)'
_computing_molecular_graphics    ?
_computing_publication_material  ?

_refine_special_details          
;
Refinement of F^2^ against ALL reflections. The weighted R-factor wR and
goodness of fit S are based on F^2^, conventional R-factors R are based
on F, with F set to zero for negative F^2^. The threshold expression of
F^2^ > 2sigma(F^2^) is used only for calculating R-factors(gt) etc. and is
not relevant to the choice of reflections for refinement. R-factors based
on F^2^ are statistically about twice as large as those based on F, and R-
factors based on ALL data will be even larger.
;

_refine_ls_structure_factor_coef Fsqd
_refine_ls_matrix_type           full
_refine_ls_weighting_scheme      calc
_refine_ls_weighting_details     
'calc w=1/[\s^2^(Fo^2^)+(0.0778P)^2^+0.0000P] where P=(Fo^2^+2Fc^2^)/3'
_atom_sites_solution_primary     direct
_atom_sites_solution_secondary   difmap
_atom_sites_solution_hydrogens   geom
_refine_ls_hydrogen_treatment    mixed
_refine_ls_extinction_method     none
_refine_ls_extinction_coef       ?
_refine_ls_abs_structure_details 'Flack H D (1983), Acta Cryst. A39, 876-881'
_refine_ls_abs_structure_Flack   -0.03(2)
_refine_ls_number_reflns         4592
_refine_ls_number_parameters     184
_refine_ls_number_restraints     19
_refine_ls_R_factor_all          0.0589
_refine_ls_R_factor_gt           0.0520
_refine_ls_wR_factor_ref         0.1344
_refine_ls_wR_factor_gt          0.1308
_refine_ls_goodness_of_fit_ref   1.002
_refine_ls_restrained_S_all      1.040
_refine_ls_shift/su_max          0.000
_refine_ls_shift/su_mean         0.000

loop_
_atom_site_label
_atom_site_type_symbol
_atom_site_fract_x
_atom_site_fract_y
_atom_site_fract_z
_atom_site_U_iso_or_equiv
_atom_site_adp_type
_atom_site_occupancy
_atom_site_symmetry_multiplicity
_atom_site_calc_flag
_atom_site_refinement_flags
_atom_site_disorder_assembly
_atom_site_disorder_group
Ni1 Ni 0.82532(3) 1.0000 0.8333 0.04159(19) Uani 1 2 d S . .
F1 F 0.9453(15) 1.3398(5) 0.8157(5) 0.658(19) Uani 1 1 d D . .
O1 O 0.9598(2) 1.0000 0.8333 0.0740(12) Uani 1 2 d S . .
O2 O 0.88492(18) 1.12851(18) 0.77169(12) 0.0522(6) Uani 1 1 d . . .
O3 O 1.0379(2) 1.1601(3) 0.7463(2) 0.0994(11) Uani 1 1 d . . .
N1 N 0.7809(2) 0.9118(2) 0.74008(15) 0.0516(7) Uani 1 1 d . . .
N2 N 0.6061(2) 0.6406(2) 0.55863(15) 0.0663(10) Uani 1 1 d . . .
N3 N 0.7561(2) 0.7561(2) 0.5000 0.0638(15) Uani 1 2 d S . .
N4 N 0.6913(3) 1.0000 0.8333 0.0538(12) Uani 1 2 d S . .
C1 C 0.6935(3) 0.8283(3) 0.7366(2) 0.0678(13) Uani 1 1 d . . .
H1A H 0.6515 0.8113 0.7760 0.081 Uiso 1 1 calc R . .
C2 C 0.6609(3) 0.7649(3) 0.67791(19) 0.0689(13) Uani 1 1 d . . .
H2 H 0.5986 0.7078 0.6771 0.083 Uiso 1 1 calc R . .
C3 C 0.7254(3) 0.7908(3) 0.62090(17) 0.0595(11) Uani 1 1 d . . .
C4 C 0.8155(3) 0.8748(3) 0.6238(2) 0.0739(14) Uani 1 1 d . . .
H4 H 0.8599 0.8917 0.5860 0.089 Uiso 1 1 calc R . .
C5 C 0.8403(3) 0.9348(3) 0.68305(19) 0.0601(11) Uani 1 1 d . . .
H5 H 0.9010 0.9937 0.6836 0.072 Uiso 1 1 calc R . .
C6 C 0.6932(3) 0.7259(3) 0.55460(19) 0.0616(11) Uani 1 1 d . . .
C7 C 0.5845(3) 0.5845(3) 0.5000 0.0650(17) Uani 1 2 d S . .
C8 C 0.4889(3) 0.4889(3) 0.5000 0.0561(15) Uani 1 2 d S . .
C9 C 0.6655(3) 1.0411(4) 0.7805(2) 0.0696(13) Uani 1 1 d . . .
H9 H 0.7105 1.0727 0.7434 0.083 Uiso 1 1 calc R . .
C10 C 0.4637(3) 0.4247(3) 0.4448(2) 0.0748(14) Uani 1 1 d . . .
H10 H 0.5054 0.4409 0.4052 0.090 Uiso 1 1 calc R . .
C11 C 0.9690(3) 1.1791(3) 0.7431(2) 0.0664(11) Uani 1 1 d . . .
C12 C 0.9849(5) 1.2693(4) 0.7015(4) 0.136(2) Uani 1 1 d U . .
C13 C 0.9731(7) 1.3411(5) 0.7456(5) 0.188(3) Uani 1 1 d DU . .
C14 C 0.9791(8) 1.4199(6) 0.7018(5) 0.222(4) Uani 1 1 d U . .
H14 H 0.9545 1.4591 0.7200 0.266 Uiso 1 1 calc R . .

loop_
_atom_site_aniso_label
_atom_site_aniso_U_11
_atom_site_aniso_U_22
_atom_site_aniso_U_33
_atom_site_aniso_U_23
_atom_site_aniso_U_13
_atom_site_aniso_U_12
Ni1 0.0391(2) 0.0573(4) 0.0345(3) -0.0123(3) -0.00613(13) 0.0286(2)
F1 1.31(4) 0.144(5) 0.284(9) 0.050(6) 0.424(19) 0.189(12)
O1 0.0556(16) 0.086(3) 0.090(3) -0.007(2) -0.0033(12) 0.0431(14)
O2 0.0526(15) 0.0600(15) 0.0469(14) -0.0073(11) 0.0041(12) 0.0302(13)
O3 0.058(2) 0.113(3) 0.129(3) 0.000(2) 0.0194(19) 0.044(2)
N1 0.0430(16) 0.0567(18) 0.0423(17) -0.0097(13) 0.0064(14) 0.0154(15)
N2 0.0507(17) 0.064(2) 0.0369(17) -0.0183(15) 0.0130(13) -0.0071(16)
N3 0.0544(17) 0.0544(17) 0.028(2) -0.0200(12) 0.0200(12) -0.013(2)
N4 0.0577(18) 0.092(3) 0.023(2) 0.004(2) 0.0020(10) 0.0459(17)
C1 0.045(2) 0.072(3) 0.047(2) -0.024(2) 0.0179(17) -0.001(2)
C2 0.044(2) 0.075(3) 0.039(2) -0.0205(19) 0.0103(17) -0.0065(18)
C3 0.060(2) 0.055(2) 0.0307(19) -0.0158(15) 0.0164(17) 0.0039(19)
C4 0.066(3) 0.059(2) 0.040(2) -0.0138(18) 0.0210(19) -0.010(2)
C5 0.055(2) 0.050(2) 0.044(2) -0.0137(16) 0.0147(17) 0.0024(18)
C6 0.059(2) 0.047(2) 0.0369(19) -0.0215(15) 0.0099(18) -0.0052(18)
C7 0.057(2) 0.057(2) 0.041(3) -0.0120(15) 0.0120(15) -0.002(3)
C8 0.0457(18) 0.0457(18) 0.035(3) -0.0108(14) 0.0108(14) -0.009(2)
C9 0.051(2) 0.113(4) 0.049(3) 0.031(2) 0.0137(18) 0.045(3)
C10 0.075(3) 0.059(2) 0.042(2) -0.0056(18) 0.022(2) -0.003(2)
C11 0.056(3) 0.066(3) 0.069(3) -0.017(2) 0.011(2) 0.024(2)
C12 0.167(5) 0.063(3) 0.201(6) 0.042(3) 0.112(4) 0.074(3)
C13 0.223(6) 0.081(4) 0.272(7) 0.050(4) 0.128(6) 0.085(4)
C14 0.258(7) 0.125(5) 0.277(8) 0.038(5) 0.154(6) 0.092(5)

_geom_special_details            
;
All esds (except the esd in the dihedral angle between two l.s. planes)
are estimated using the full covariance matrix. The cell esds are taken
into account individually in the estimation of esds in distances, angles
and torsion angles; correlations between esds in cell parameters are only
used when they are defined by crystal symmetry. An approximate (isotropic)
treatment of cell esds is used for estimating esds involving l.s. planes.
;

loop_
_geom_bond_atom_site_label_1
_geom_bond_atom_site_label_2
_geom_bond_distance
_geom_bond_site_symmetry_2
_geom_bond_publ_flag
Ni1 O2 2.079(2) . ?
Ni1 O2 2.079(2) 6_676 ?
Ni1 N4 2.082(4) . ?
Ni1 O1 2.089(4) . ?
Ni1 N1 2.108(3) . ?
Ni1 N1 2.108(3) 6_676 ?
F1 C13 1.376(4) . ?
O2 C11 1.258(5) . ?
O3 C11 1.246(5) . ?
N1 C1 1.330(4) . ?
N1 C5 1.337(4) . ?
N2 C7 1.334(4) . ?
N2 C6 1.342(4) . ?
N3 C6 1.325(4) 4_556 ?
N3 C6 1.325(4) . ?
N4 C9 1.342(5) . ?
N4 C9 1.342(5) 6_676 ?
C1 C2 1.390(5) . ?
C1 H1A 0.9300 . ?
C2 C3 1.378(5) . ?
C2 H2 0.9300 . ?
C3 C4 1.356(5) . ?
C3 C6 1.516(4) . ?
C4 C5 1.371(5) . ?
C4 H4 0.9300 . ?
C5 H5 0.9300 . ?
C7 N2 1.334(4) 4_556 ?
C7 C8 1.485(7) . ?
C8 C10 1.350(4) . ?
C8 C10 1.350(4) 4_556 ?
C9 C10 1.386(5) 2_665 ?
C9 H9 0.9300 . ?
C10 C9 1.386(5) 3_564 ?
C10 H10 0.9300 . ?
C11 C12 1.511(7) . ?
C12 C12 1.364(12) 5_766 ?
C12 C13 1.470(8) . ?
C13 C14 1.437(11) . ?
C14 C14 1.427(16) 5_766 ?
C14 H14 0.9300 . ?

loop_
_geom_angle_atom_site_label_1
_geom_angle_atom_site_label_2
_geom_angle_atom_site_label_3
_geom_angle
_geom_angle_site_symmetry_1
_geom_angle_site_symmetry_3
_geom_angle_publ_flag
O2 Ni1 O2 176.01(14) . 6_676 ?
O2 Ni1 N4 88.01(7) . . ?
O2 Ni1 N4 88.01(7) 6_676 . ?
O2 Ni1 O1 91.99(7) . . ?
O2 Ni1 O1 91.99(7) 6_676 . ?
N4 Ni1 O1 180.000(2) . . ?
O2 Ni1 N1 90.61(10) . . ?
O2 Ni1 N1 89.38(10) 6_676 . ?
N4 Ni1 N1 89.85(9) . . ?
O1 Ni1 N1 90.15(9) . . ?
O2 Ni1 N1 89.38(10) . 6_676 ?
O2 Ni1 N1 90.61(10) 6_676 6_676 ?
N4 Ni1 N1 89.85(9) . 6_676 ?
O1 Ni1 N1 90.15(9) . 6_676 ?
N1 Ni1 N1 179.69(18) . 6_676 ?
C11 O2 Ni1 131.3(3) . . ?
C1 N1 C5 117.0(3) . . ?
C1 N1 Ni1 121.1(2) . . ?
C5 N1 Ni1 121.8(2) . . ?
C7 N2 C6 113.6(3) . . ?
C6 N3 C6 113.9(4) 4_556 . ?
C9 N4 C9 115.0(4) . 6_676 ?
C9 N4 Ni1 122.5(2) . . ?
C9 N4 Ni1 122.5(2) 6_676 . ?
N1 C1 C2 124.2(3) . . ?
N1 C1 H1A 117.9 . . ?
C2 C1 H1A 117.9 . . ?
C3 C2 C1 116.7(3) . . ?
C3 C2 H2 121.7 . . ?
C1 C2 H2 121.7 . . ?
C4 C3 C2 120.0(3) . . ?
C4 C3 C6 120.8(3) . . ?
C2 C3 C6 119.1(3) . . ?
C3 C4 C5 119.4(3) . . ?
C3 C4 H4 120.3 . . ?
C5 C4 H4 120.3 . . ?
N1 C5 C4 122.6(3) . . ?
N1 C5 H5 118.7 . . ?
C4 C5 H5 118.7 . . ?
N3 C6 N2 126.4(3) . . ?
N3 C6 C3 117.0(3) . . ?
N2 C6 C3 116.5(3) . . ?
N2 C7 N2 126.1(4) . 4_556 ?
N2 C7 C8 116.9(2) . . ?
N2 C7 C8 116.9(2) 4_556 . ?
C10 C8 C10 118.1(4) . 4_556 ?
C10 C8 C7 121.0(2) . . ?
C10 C8 C7 121.0(2) 4_556 . ?
N4 C9 C10 123.5(4) . 2_665 ?
N4 C9 H9 118.3 . . ?
C10 C9 H9 118.3 2_665 . ?
C8 C10 C9 119.9(4) . 3_564 ?
C8 C10 H10 120.1 . . ?
C9 C10 H10 120.1 3_564 . ?
O3 C11 O2 125.4(4) . . ?
O3 C11 C12 118.8(4) . . ?
O2 C11 C12 115.8(4) . . ?
C12 C12 C13 124.5(4) 5_766 . ?
C12 C12 C11 122.2(3) 5_766 . ?
C13 C12 C11 113.1(5) . . ?
F1 C13 C14 116.1(8) . . ?
F1 C13 C12 132.8(7) . . ?
C14 C13 C12 110.4(7) . . ?
C14 C14 C13 123.1(5) 5_766 . ?
C14 C14 H14 118.5 5_766 . ?
C13 C14 H14 118.5 . . ?

loop_
_geom_torsion_atom_site_label_1
_geom_torsion_atom_site_label_2
_geom_torsion_atom_site_label_3
_geom_torsion_atom_site_label_4
_geom_torsion
_geom_torsion_site_symmetry_1
_geom_torsion_site_symmetry_2
_geom_torsion_site_symmetry_3
_geom_torsion_site_symmetry_4
_geom_torsion_publ_flag
O2 Ni1 O2 C11 -175.9(3) 6_676 . . . ?
N4 Ni1 O2 C11 -175.9(3) . . . . ?
O1 Ni1 O2 C11 4.1(3) . . . . ?
N1 Ni1 O2 C11 -86.1(3) . . . . ?
N1 Ni1 O2 C11 94.2(3) 6_676 . . . ?
O2 Ni1 N1 C1 -139.6(4) . . . . ?
O2 Ni1 N1 C1 36.4(4) 6_676 . . . ?
N4 Ni1 N1 C1 -51.6(3) . . . . ?
O1 Ni1 N1 C1 128.4(3) . . . . ?
N1 Ni1 N1 C1 -51.6(4) 6_676 . . . ?
O2 Ni1 N1 C5 43.2(3) . . . . ?
O2 Ni1 N1 C5 -140.8(3) 6_676 . . . ?
N4 Ni1 N1 C5 131.2(3) . . . . ?
O1 Ni1 N1 C5 -48.8(3) . . . . ?
N1 Ni1 N1 C5 131.2(4) 6_676 . . . ?
O2 Ni1 N4 C9 27.1(3) . . . . ?
O2 Ni1 N4 C9 -152.9(3) 6_676 . . . ?
O1 Ni1 N4 C9 0(67) . . . . ?
N1 Ni1 N4 C9 -63.5(3) . . . . ?
N1 Ni1 N4 C9 116.5(3) 6_676 . . . ?
O2 Ni1 N4 C9 -152.9(3) . . . 6_676 ?
O2 Ni1 N4 C9 27.1(3) 6_676 . . 6_676 ?
O1 Ni1 N4 C9 0(100) . . . 6_676 ?
N1 Ni1 N4 C9 116.5(3) . . . 6_676 ?
N1 Ni1 N4 C9 -63.5(3) 6_676 . . 6_676 ?
C5 N1 C1 C2 -0.3(7) . . . . ?
Ni1 N1 C1 C2 -177.7(4) . . . . ?
N1 C1 C2 C3 1.4(8) . . . . ?
C1 C2 C3 C4 -0.3(7) . . . . ?
C1 C2 C3 C6 -178.6(4) . . . . ?
C2 C3 C4 C5 -1.7(8) . . . . ?
C6 C3 C4 C5 176.6(4) . . . . ?
C1 N1 C5 C4 -1.9(7) . . . . ?
Ni1 N1 C5 C4 175.5(4) . . . . ?
C3 C4 C5 N1 2.9(8) . . . . ?
C6 N3 C6 N2 0.4(4) 4_556 . . . ?
C6 N3 C6 C3 176.4(5) 4_556 . . . ?
C7 N2 C6 N3 -0.8(7) . . . . ?
C7 N2 C6 C3 -176.7(3) . . . . ?
C4 C3 C6 N3 -1.1(7) . . . . ?
C2 C3 C6 N3 177.2(4) . . . . ?
C4 C3 C6 N2 175.2(5) . . . . ?
C2 C3 C6 N2 -6.5(7) . . . . ?
C6 N2 C7 N2 0.3(3) . . . 4_556 ?
C6 N2 C7 C8 -179.7(3) . . . . ?
N2 C7 C8 C10 -175.9(3) . . . . ?
N2 C7 C8 C10 4.1(3) 4_556 . . . ?
N2 C7 C8 C10 4.1(3) . . . 4_556 ?
N2 C7 C8 C10 -175.9(3) 4_556 . . 4_556 ?
C9 N4 C9 C10 -2.3(4) 6_676 . . 2_665 ?
Ni1 N4 C9 C10 177.7(4) . . . 2_665 ?
C10 C8 C10 C9 -2.1(4) 4_556 . . 3_564 ?
C7 C8 C10 C9 177.9(4) . . . 3_564 ?
Ni1 O2 C11 O3 0.3(6) . . . . ?
Ni1 O2 C11 C12 179.9(3) . . . . ?
O3 C11 C12 C12 54.2(12) . . . 5_766 ?
O2 C11 C12 C12 -125.4(9) . . . 5_766 ?
O3 C11 C12 C13 -120.7(7) . . . . ?
O2 C11 C12 C13 59.7(8) . . . . ?
C12 C12 C13 F1 -179.0(16) 5_766 . . . ?
C11 C12 C13 F1 -4.2(19) . . . . ?
C12 C12 C13 C14 11.0(15) 5_766 . . . ?
C11 C12 C13 C14 -174.1(8) . . . . ?
F1 C13 C14 C14 170.3(17) . . . 5_766 ?
C12 C13 C14 C14 -18.0(19) . . . 5_766 ?

_diffrn_measured_fraction_theta_max 1.000
_diffrn_reflns_theta_full        25.00
_diffrn_measured_fraction_theta_full 1.000
_refine_diff_density_max         0.263
_refine_diff_density_min         -0.315
_refine_diff_density_rms         0.052
# SQUEEZE RESULTS (APPEND TO CIF)
# Note: Data are Listed for all Voids in the P1 Unit Cell
# i.e. Centre of Gravity, Solvent Accessible Volume,
# Recovered number of Electrons in the Void and
# Details about the Squeezed Material
loop_
_platon_squeeze_void_nr
_platon_squeeze_void_average_x
_platon_squeeze_void_average_y
_platon_squeeze_void_average_z
_platon_squeeze_void_volume
_platon_squeeze_void_count_electrons
_platon_squeeze_void_content
1 -0.061 0.431 0.410 2413 777 ' '
_platon_squeeze_details          
;
;
