####################################################################### 
# 
# This file contains crystal structure data downloaded from the 
# Cambridge Structural Database (CSD) hosted by the Cambridge 
# Crystallographic Data Centre (CCDC).
# 
# Full information about CCDC data access policies and citation 
# guidelines are available at http://www.ccdc.cam.ac.uk/access/V1 
# 
# Audit and citation data items may have been added by the CCDC. 
# Please retain this information to preserve the provenance of 
# this file and to allow appropriate attribution of the data. 
# 
#######################################################################

data_TKL-102
_audit_block_doi                 10.5517/cc100l4r
_database_code_depnum_ccdc_archive 'CCDC 924083'
loop_
_citation_id
_citation_doi
_citation_year
1 10.1038/srep03312 2013
_audit_update_record             
;
2013-02-11 deposited with the CCDC.	2024-07-10 downloaded from the CCDC.
;
#TrackingRef '17650_web_deposit_cif_file_0_Da-ShuaiZhang_1360569648.Crystals.cif'


_audit_creation_method           SHELXL-97
_chemical_name_systematic        
;
?
;
_chemical_name_common            ?
_chemical_melting_point          ?
_chemical_formula_moiety         ?
_chemical_formula_sum            'C13 H8 N3.50 Ni0.50 O2.50'
_chemical_formula_weight         282.58

loop_
_atom_type_symbol
_atom_type_description
_atom_type_scat_dispersion_real
_atom_type_scat_dispersion_imag
_atom_type_scat_source
C C 0.0033 0.0016 'International Tables Vol C Tables 4.2.6.8 and 6.1.1.4'
H H 0.0000 0.0000 'International Tables Vol C Tables 4.2.6.8 and 6.1.1.4'
N N 0.0061 0.0033 'International Tables Vol C Tables 4.2.6.8 and 6.1.1.4'
Ni Ni 0.3393 1.1124 'International Tables Vol C Tables 4.2.6.8 and 6.1.1.4'
O O 0.0106 0.0060 'International Tables Vol C Tables 4.2.6.8 and 6.1.1.4'

_symmetry_cell_setting           Hexagonal
_symmetry_space_group_name_H-M   'P 32 2 1'

loop_
_symmetry_equiv_pos_as_xyz
'x, y, z'
'-y, x-y, z+2/3'
'-x+y, -x, z+1/3'
'y, x, -z'
'-x, -x+y, -z+2/3'
'x-y, -y, -z+1/3'

_cell_length_a                   15.673(3)
_cell_length_b                   15.673(3)
_cell_length_c                   18.532(4)
_cell_angle_alpha                90.00
_cell_angle_beta                 90.00
_cell_angle_gamma                120.00
_cell_volume                     3942.4(14)
_cell_formula_units_Z            6
_cell_measurement_temperature    293(2)
_cell_measurement_reflns_used    ?
_cell_measurement_theta_min      ?
_cell_measurement_theta_max      ?

_exptl_crystal_description       block
_exptl_crystal_colour            green
_exptl_crystal_size_max          0.20
_exptl_crystal_size_mid          0.18
_exptl_crystal_size_min          0.16
_exptl_crystal_density_meas      ?
_exptl_crystal_density_diffrn    0.714
_exptl_crystal_density_method    'not measured'
_exptl_crystal_F_000             867
_exptl_absorpt_coefficient_mu    0.394
_exptl_absorpt_correction_type   ?
_exptl_absorpt_correction_T_min  0.9253
_exptl_absorpt_correction_T_max  0.9396
_exptl_absorpt_process_details   ?

_exptl_special_details           
;
?
;

_diffrn_ambient_temperature      293(2)
_diffrn_radiation_wavelength     0.71073
_diffrn_radiation_type           MoK\a
_diffrn_radiation_source         'fine-focus sealed tube'
_diffrn_radiation_monochromator  graphite
_diffrn_measurement_device_type  ?
_diffrn_measurement_method       ?
_diffrn_detector_area_resol_mean ?
_diffrn_standards_number         ?
_diffrn_standards_interval_count ?
_diffrn_standards_interval_time  ?
_diffrn_standards_decay_%        ?
_diffrn_reflns_number            33055
_diffrn_reflns_av_R_equivalents  0.2441
_diffrn_reflns_av_sigmaI/netI    0.1616
_diffrn_reflns_limit_h_min       -18
_diffrn_reflns_limit_h_max       18
_diffrn_reflns_limit_k_min       -18
_diffrn_reflns_limit_k_max       18
_diffrn_reflns_limit_l_min       -22
_diffrn_reflns_limit_l_max       22
_diffrn_reflns_theta_min         3.00
_diffrn_reflns_theta_max         25.00
_reflns_number_total             4634
_reflns_number_gt                3032
_reflns_threshold_expression     >2sigma(I)

_computing_data_collection       ?
_computing_cell_refinement       ?
_computing_data_reduction        ?
_computing_structure_solution    'SHELXS-97 (Sheldrick, 1990)'
_computing_structure_refinement  'SHELXL-97 (Sheldrick, 1997)'
_computing_molecular_graphics    ?
_computing_publication_material  ?

_refine_special_details          
;
Refinement of F^2^ against ALL reflections. The weighted R-factor wR and
goodness of fit S are based on F^2^, conventional R-factors R are based
on F, with F set to zero for negative F^2^. The threshold expression of
F^2^ > 2sigma(F^2^) is used only for calculating R-factors(gt) etc. and is
not relevant to the choice of reflections for refinement. R-factors based
on F^2^ are statistically about twice as large as those based on F, and R-
factors based on ALL data will be even larger.
;

_refine_ls_structure_factor_coef Fsqd
_refine_ls_matrix_type           full
_refine_ls_weighting_scheme      calc
_refine_ls_weighting_details     
'calc w=1/[\s^2^(Fo^2^)+(0.0930P)^2^+0.0000P] where P=(Fo^2^+2Fc^2^)/3'
_atom_sites_solution_primary     direct
_atom_sites_solution_secondary   difmap
_atom_sites_solution_hydrogens   geom
_refine_ls_hydrogen_treatment    mixed
_refine_ls_extinction_method     none
_refine_ls_extinction_coef       ?
_refine_ls_abs_structure_details 'Flack H D (1983), Acta Cryst. A39, 876-881'
_refine_ls_abs_structure_Flack   0.00
_refine_ls_number_reflns         4634
_refine_ls_number_parameters     184
_refine_ls_number_restraints     12
_refine_ls_R_factor_all          0.1409
_refine_ls_R_factor_gt           0.0941
_refine_ls_wR_factor_ref         0.2130
_refine_ls_wR_factor_gt          0.1909
_refine_ls_goodness_of_fit_ref   1.040
_refine_ls_restrained_S_all      1.048
_refine_ls_shift/su_max          0.001
_refine_ls_shift/su_mean         0.000

loop_
_atom_site_label
_atom_site_type_symbol
_atom_site_fract_x
_atom_site_fract_y
_atom_site_fract_z
_atom_site_U_iso_or_equiv
_atom_site_adp_type
_atom_site_occupancy
_atom_site_symmetry_multiplicity
_atom_site_calc_flag
_atom_site_refinement_flags
_atom_site_disorder_assembly
_atom_site_disorder_group
Ni1 Ni 0.82237(7) 0.82237(7) 0.5000 0.0327(4) Uani 1 2 d S . .
O1 O 0.8803(3) 0.7548(4) 0.4368(2) 0.0449(12) Uani 1 1 d . . .
O2 O 1.0302(5) 0.8748(5) 0.4165(4) 0.104(3) Uani 1 1 d . . .
O3 O 0.9565(4) 0.9565(4) 0.5000 0.074(3) Uani 1 2 d S . .
N1 N 0.3089(5) 1.0000 0.1667 0.044(2) Uani 1 2 d SU . .
N2 N 0.7782(4) 0.8679(5) 0.4068(3) 0.0442(15) Uani 1 1 d . . .
N3 N 0.7524(5) 1.0000 0.1667 0.061(3) Uani 1 2 d S . .
N4 N 0.6039(4) 0.9649(6) 0.2251(3) 0.067(2) Uani 1 1 d . . .
N5 N 0.963(3) 0.4827(17) 0.4060(19) 0.29(2) Uani 0.50 1 d P . .
H5A H 0.9390 0.4667 0.4507 0.352 Uiso 0.50 1 d PR . .
H5B H 0.9561 0.4309 0.3866 0.352 Uiso 0.50 1 d PR . .
C1 C 0.3363(5) 0.9629(7) 0.2178(4) 0.072(3) Uani 1 1 d . . .
H1 H 0.2913 0.9335 0.2552 0.086 Uiso 1 1 calc R . .
C2 C 0.4249(5) 0.9606(7) 0.2249(4) 0.061(2) Uani 1 1 d U . .
H2 H 0.4392 0.9348 0.2654 0.073 Uiso 1 1 calc R . .
C3 C 0.4890(6) 1.0000 0.1667 0.056(3) Uani 1 2 d S . .
C4 C 0.6934(6) 0.8719(6) 0.4067(4) 0.058(2) Uani 1 1 d . . .
H4 H 0.6547 0.8542 0.4481 0.069 Uiso 1 1 calc R . .
C5 C 0.6638(5) 0.9016(6) 0.3470(4) 0.063(3) Uani 1 1 d . . .
H5 H 0.6046 0.9017 0.3479 0.076 Uiso 1 1 calc R . .
C6 C 0.7190(6) 0.9305(7) 0.2872(4) 0.065(2) Uani 1 1 d . . .
C7 C 0.8077(6) 0.9318(7) 0.2899(4) 0.073(3) Uani 1 1 d . . .
H7 H 0.8521 0.9579 0.2518 0.087 Uiso 1 1 calc R . .
C8 C 0.8295(6) 0.8945(6) 0.3487(4) 0.065(3) Uani 1 1 d . . .
H8 H 0.8852 0.8878 0.3467 0.079 Uiso 1 1 calc R . .
C9 C 0.6883(6) 0.9662(7) 0.2236(4) 0.063(3) Uani 1 1 d . . .
C10 C 0.5862(6) 1.0000 0.1667 0.062(4) Uani 1 2 d S . .
C11 C 0.9628(6) 0.7872(6) 0.4091(5) 0.060(2) Uani 1 1 d . . .
C12 C 0.9799(7) 0.7160(7) 0.3686(5) 0.081(3) Uani 1 1 d . . .
C13 C 0.9630(10) 0.6359(7) 0.4064(6) 0.145(6) Uani 1 1 d . . .
H13 H 0.9386 0.6262 0.4532 0.174 Uiso 1 1 calc R . .
C14 C 0.9825(14) 0.5696(11) 0.3742(9) 0.197(8) Uani 1 1 d . . .

loop_
_atom_site_aniso_label
_atom_site_aniso_U_11
_atom_site_aniso_U_22
_atom_site_aniso_U_33
_atom_site_aniso_U_23
_atom_site_aniso_U_13
_atom_site_aniso_U_12
Ni1 0.0308(5) 0.0308(5) 0.0253(6) 0.0059(3) -0.0059(3) 0.0070(6)
O1 0.038(3) 0.047(3) 0.047(3) 0.009(3) 0.005(3) 0.019(2)
O2 0.059(4) 0.062(4) 0.161(7) -0.003(4) 0.052(4) 0.008(4)
O3 0.037(3) 0.037(3) 0.105(7) -0.015(3) 0.015(3) -0.014(4)
N1 0.046(4) 0.078(5) 0.020(4) 0.017(4) 0.008(2) 0.039(3)
N2 0.037(4) 0.068(4) 0.030(3) 0.027(3) 0.009(3) 0.028(3)
N3 0.053(4) 0.122(8) 0.031(5) 0.029(5) 0.014(3) 0.061(4)
N4 0.048(4) 0.141(7) 0.043(4) 0.031(4) 0.009(3) 0.072(5)
N5 0.42(6) 0.112(19) 0.40(5) 0.10(3) 0.13(4) 0.18(3)
C1 0.039(5) 0.140(9) 0.046(5) 0.035(6) 0.029(4) 0.052(6)
C2 0.046(4) 0.115(6) 0.042(4) 0.034(4) 0.025(3) 0.055(4)
C3 0.042(4) 0.119(11) 0.034(6) 0.006(7) 0.003(3) 0.059(5)
C4 0.047(5) 0.101(7) 0.035(4) 0.032(4) 0.023(4) 0.045(5)
C5 0.036(4) 0.120(7) 0.042(5) 0.036(5) 0.012(4) 0.045(5)
C6 0.054(5) 0.119(8) 0.033(4) 0.028(5) 0.005(4) 0.050(5)
C7 0.047(5) 0.147(9) 0.049(5) 0.038(6) 0.021(4) 0.066(6)
C8 0.057(5) 0.124(8) 0.032(4) 0.038(5) 0.008(4) 0.057(5)
C9 0.070(6) 0.127(8) 0.026(4) 0.029(5) 0.014(4) 0.074(5)
C10 0.035(4) 0.104(10) 0.070(8) 0.029(7) 0.014(4) 0.052(5)
C11 0.057(6) 0.046(5) 0.073(6) 0.016(5) 0.024(5) 0.024(5)
C12 0.101(8) 0.073(6) 0.094(7) 0.029(5) 0.051(6) 0.063(6)
C13 0.272(17) 0.085(8) 0.141(10) 0.066(7) 0.103(10) 0.136(11)
C14 0.29(2) 0.128(12) 0.234(19) 0.121(12) 0.132(16) 0.145(14)

_geom_special_details            
;
All esds (except the esd in the dihedral angle between two l.s. planes)
are estimated using the full covariance matrix. The cell esds are taken
into account individually in the estimation of esds in distances, angles
and torsion angles; correlations between esds in cell parameters are only
used when they are defined by crystal symmetry. An approximate (isotropic)
treatment of cell esds is used for estimating esds involving l.s. planes.
;

loop_
_geom_bond_atom_site_label_1
_geom_bond_atom_site_label_2
_geom_bond_distance
_geom_bond_site_symmetry_2
_geom_bond_publ_flag
Ni1 N1 2.058(8) 3_565 ?
Ni1 O1 2.069(5) . ?
Ni1 O1 2.069(5) 4_556 ?
Ni1 O3 2.103(7) . ?
Ni1 N2 2.113(5) 4_556 ?
Ni1 N2 2.113(5) . ?
O1 C11 1.240(9) . ?
O2 C11 1.253(9) . ?
N1 C1 1.292(9) . ?
N1 C1 1.292(9) 6_675 ?
N1 Ni1 2.058(8) 2_664 ?
N2 C8 1.283(8) . ?
N2 C4 1.361(8) . ?
N3 C9 1.368(8) . ?
N3 C9 1.368(8) 6_675 ?
N4 C10 1.306(6) . ?
N4 C9 1.314(8) . ?
N5 C14 1.37(2) . ?
N5 H5A 0.8940 . ?
N5 H5B 0.8401 . ?
C1 C2 1.413(9) . ?
C1 H1 0.9300 . ?
C2 C3 1.392(8) . ?
C2 H2 0.9300 . ?
C3 C2 1.392(8) 6_675 ?
C3 C10 1.523(12) . ?
C4 C5 1.369(9) . ?
C4 H4 0.9300 . ?
C5 C6 1.337(9) . ?
C5 H5 0.9300 . ?
C6 C7 1.381(10) . ?
C6 C9 1.484(9) . ?
C7 C8 1.359(9) . ?
C7 H7 0.9300 . ?
C8 H8 0.9300 . ?
C10 N4 1.306(6) 6_675 ?
C11 C12 1.475(11) . ?
C12 C13 1.342(11) . ?
C12 C12 1.416(15) 5_765 ?
C13 C14 1.358(15) . ?
C13 H13 0.9300 . ?
C14 C14 1.59(3) 5_765 ?

loop_
_geom_angle_atom_site_label_1
_geom_angle_atom_site_label_2
_geom_angle_atom_site_label_3
_geom_angle
_geom_angle_site_symmetry_1
_geom_angle_site_symmetry_3
_geom_angle_publ_flag
N1 Ni1 O1 87.91(14) 3_565 . ?
N1 Ni1 O1 87.91(14) 3_565 4_556 ?
O1 Ni1 O1 175.8(3) . 4_556 ?
N1 Ni1 O3 180.0 3_565 . ?
O1 Ni1 O3 92.09(14) . . ?
O1 Ni1 O3 92.09(14) 4_556 . ?
N1 Ni1 N2 90.28(17) 3_565 4_556 ?
O1 Ni1 N2 89.28(19) . 4_556 ?
O1 Ni1 N2 90.74(19) 4_556 4_556 ?
O3 Ni1 N2 89.72(17) . 4_556 ?
N1 Ni1 N2 90.28(17) 3_565 . ?
O1 Ni1 N2 90.74(19) . . ?
O1 Ni1 N2 89.28(19) 4_556 . ?
O3 Ni1 N2 89.72(17) . . ?
N2 Ni1 N2 179.4(4) 4_556 . ?
C11 O1 Ni1 131.3(5) . . ?
C1 N1 C1 112.3(9) . 6_675 ?
C1 N1 Ni1 123.9(4) . 2_664 ?
C1 N1 Ni1 123.9(4) 6_675 2_664 ?
C8 N2 C4 116.8(6) . . ?
C8 N2 Ni1 122.5(5) . . ?
C4 N2 Ni1 120.6(4) . . ?
C9 N3 C9 114.5(8) . 6_675 ?
C10 N4 C9 113.6(7) . . ?
C14 N5 H5A 121.6 . . ?
C14 N5 H5B 129.2 . . ?
H5A N5 H5B 107.0 . . ?
N1 C1 C2 129.2(8) . . ?
N1 C1 H1 115.4 . . ?
C2 C1 H1 115.4 . . ?
C3 C2 C1 114.6(7) . . ?
C3 C2 H2 122.7 . . ?
C1 C2 H2 122.7 . . ?
C2 C3 C2 119.9(9) . 6_675 ?
C2 C3 C10 120.0(4) . . ?
C2 C3 C10 120.0(4) 6_675 . ?
N2 C4 C5 121.4(6) . . ?
N2 C4 H4 119.3 . . ?
C5 C4 H4 119.3 . . ?
C6 C5 C4 120.9(7) . . ?
C6 C5 H5 119.5 . . ?
C4 C5 H5 119.5 . . ?
C5 C6 C7 116.8(6) . . ?
C5 C6 C9 120.6(7) . . ?
C7 C6 C9 122.5(7) . . ?
C8 C7 C6 119.4(7) . . ?
C8 C7 H7 120.3 . . ?
C6 C7 H7 120.3 . . ?
N2 C8 C7 124.2(7) . . ?
N2 C8 H8 117.9 . . ?
C7 C8 H8 117.9 . . ?
N4 C9 N3 124.2(6) . . ?
N4 C9 C6 119.4(6) . . ?
N3 C9 C6 116.4(6) . . ?
N4 C10 N4 130.0(9) . 6_675 ?
N4 C10 C3 115.0(4) . . ?
N4 C10 C3 115.0(4) 6_675 . ?
O1 C11 O2 122.5(8) . . ?
O1 C11 C12 116.6(8) . . ?
O2 C11 C12 120.8(8) . . ?
C13 C12 C12 123.2(6) . 5_765 ?
C13 C12 C11 114.6(8) . . ?
C12 C12 C11 122.0(5) 5_765 . ?
C12 C13 C14 118.1(11) . . ?
C12 C13 H13 120.9 . . ?
C14 C13 H13 120.9 . . ?
C13 C14 N5 123.4(18) . . ?
C13 C14 C14 118.5(7) . 5_765 ?
N5 C14 C14 117.7(16) . 5_765 ?

loop_
_geom_torsion_atom_site_label_1
_geom_torsion_atom_site_label_2
_geom_torsion_atom_site_label_3
_geom_torsion_atom_site_label_4
_geom_torsion
_geom_torsion_site_symmetry_1
_geom_torsion_site_symmetry_2
_geom_torsion_site_symmetry_3
_geom_torsion_site_symmetry_4
_geom_torsion_publ_flag
N1 Ni1 O1 C11 177.6(7) 3_565 . . . ?
O1 Ni1 O1 C11 177.6(7) 4_556 . . . ?
O3 Ni1 O1 C11 -2.4(7) . . . . ?
N2 Ni1 O1 C11 -92.1(7) 4_556 . . . ?
N2 Ni1 O1 C11 87.3(7) . . . . ?
N1 Ni1 N2 C8 -124.2(6) 3_565 . . . ?
O1 Ni1 N2 C8 -36.3(7) . . . . ?
O1 Ni1 N2 C8 147.9(7) 4_556 . . . ?
O3 Ni1 N2 C8 55.8(6) . . . . ?
N2 Ni1 N2 C8 55.8(7) 4_556 . . . ?
N1 Ni1 N2 C4 57.1(6) 3_565 . . . ?
O1 Ni1 N2 C4 145.0(6) . . . . ?
O1 Ni1 N2 C4 -30.8(6) 4_556 . . . ?
O3 Ni1 N2 C4 -122.9(6) . . . . ?
N2 Ni1 N2 C4 -122.9(6) 4_556 . . . ?
C1 N1 C1 C2 1.8(8) 6_675 . . . ?
Ni1 N1 C1 C2 -178.2(8) 2_664 . . . ?
N1 C1 C2 C3 -3.4(15) . . . . ?
C1 C2 C3 C2 1.4(6) . . . 6_675 ?
C1 C2 C3 C10 -178.6(6) . . . . ?
C8 N2 C4 C5 1.0(12) . . . . ?
Ni1 N2 C4 C5 179.7(7) . . . . ?
N2 C4 C5 C6 -2.0(14) . . . . ?
C4 C5 C6 C7 -2.0(14) . . . . ?
C4 C5 C6 C9 -177.7(9) . . . . ?
C5 C6 C7 C8 7.0(14) . . . . ?
C9 C6 C7 C8 -177.5(9) . . . . ?
C4 N2 C8 C7 4.4(13) . . . . ?
Ni1 N2 C8 C7 -174.4(7) . . . . ?
C6 C7 C8 N2 -8.6(15) . . . . ?
C10 N4 C9 N3 -0.5(13) . . . . ?
C10 N4 C9 C6 178.6(7) . . . . ?
C9 N3 C9 N4 0.3(7) 6_675 . . . ?
C9 N3 C9 C6 -178.8(10) 6_675 . . . ?
C5 C6 C9 N4 -3.2(15) . . . . ?
C7 C6 C9 N4 -178.6(10) . . . . ?
C5 C6 C9 N3 176.0(8) . . . . ?
C7 C6 C9 N3 0.6(14) . . . . ?
C9 N4 C10 N4 0.2(6) . . . 6_675 ?
C9 N4 C10 C3 -179.8(6) . . . . ?
C2 C3 C10 N4 -2.6(6) . . . . ?
C2 C3 C10 N4 177.4(6) 6_675 . . . ?
C2 C3 C10 N4 177.4(6) . . . 6_675 ?
C2 C3 C10 N4 -2.6(6) 6_675 . . 6_675 ?
Ni1 O1 C11 O2 0.5(13) . . . . ?
Ni1 O1 C11 C12 178.1(5) . . . . ?
O1 C11 C12 C13 -55.3(13) . . . . ?
O2 C11 C12 C13 122.4(12) . . . . ?
O1 C11 C12 C12 130.7(12) . . . 5_765 ?
O2 C11 C12 C12 -51.7(17) . . . 5_765 ?
C12 C12 C13 C14 -2(2) 5_765 . . . ?
C11 C12 C13 C14 -176.3(14) . . . . ?
C12 C13 C14 N5 -176(2) . . . . ?
C12 C13 C14 C14 -4(3) . . . 5_765 ?

_diffrn_measured_fraction_theta_max 0.997
_diffrn_reflns_theta_full        25.00
_diffrn_measured_fraction_theta_full 0.997
_refine_diff_density_max         0.584
_refine_diff_density_min         -0.884
_refine_diff_density_rms         0.079
# SQUEEZE RESULTS (APPEND TO CIF)
loop_
_platon_squeeze_void_nr
_platon_squeeze_void_average_x
_platon_squeeze_void_average_y
_platon_squeeze_void_average_z
_platon_squeeze_void_volume
_platon_squeeze_void_count_electrons
1 0.035 0.474 0.092 2457.0 78.6
_platon_squeeze_details          
;
;
