####################################################################### 
# 
# This file contains crystal structure data downloaded from the 
# Cambridge Structural Database (CSD) hosted by the Cambridge 
# Crystallographic Data Centre (CCDC).
# 
# Full information about CCDC data access policies and citation 
# guidelines are available at http://www.ccdc.cam.ac.uk/access/V1 
# 
# Audit and citation data items may have been added by the CCDC. 
# Please retain this information to preserve the provenance of 
# this file and to allow appropriate attribution of the data. 
# 
#######################################################################

data_TKL-104
_audit_block_doi                 10.5517/cc100l6t
_database_code_depnum_ccdc_archive 'CCDC 924085'
loop_
_citation_id
_citation_doi
_citation_year
1 10.1038/srep03312 2013
_audit_update_record             
;
2013-02-11 deposited with the CCDC.	2024-07-10 downloaded from the CCDC.
;
#TrackingRef '17650_web_deposit_cif_file_0_Da-ShuaiZhang_1360569648.Crystals.cif'


_audit_creation_method           SHELXL-97
_chemical_name_systematic        
;
?
;
_chemical_name_common            ?
_chemical_melting_point          ?
_chemical_formula_moiety         ?
_chemical_formula_sum            'C13 H7 F0.50 N3 Ni0.50 O2.50'
_chemical_formula_weight         284.07

loop_
_atom_type_symbol
_atom_type_description
_atom_type_scat_dispersion_real
_atom_type_scat_dispersion_imag
_atom_type_scat_source
C C 0.0033 0.0016 'International Tables Vol C Tables 4.2.6.8 and 6.1.1.4'
H H 0.0000 0.0000 'International Tables Vol C Tables 4.2.6.8 and 6.1.1.4'
F F 0.0171 0.0103 'International Tables Vol C Tables 4.2.6.8 and 6.1.1.4'
N N 0.0061 0.0033 'International Tables Vol C Tables 4.2.6.8 and 6.1.1.4'
Ni Ni 0.3393 1.1124 'International Tables Vol C Tables 4.2.6.8 and 6.1.1.4'
O O 0.0106 0.0060 'International Tables Vol C Tables 4.2.6.8 and 6.1.1.4'

_symmetry_cell_setting           Hexagonal
_symmetry_space_group_name_H-M   'P 32 2 1'

loop_
_symmetry_equiv_pos_as_xyz
'x, y, z'
'-y, x-y, z+2/3'
'-x+y, -x, z+1/3'
'y, x, -z'
'-x, -x+y, -z+2/3'
'x-y, -y, -z+1/3'

_cell_length_a                   15.688(2)
_cell_length_b                   15.688(2)
_cell_length_c                   18.678(4)
_cell_angle_alpha                90.00
_cell_angle_beta                 90.00
_cell_angle_gamma                120.00
_cell_volume                     3981.0(11)
_cell_formula_units_Z            6
_cell_measurement_temperature    293(2)
_cell_measurement_reflns_used    ?
_cell_measurement_theta_min      ?
_cell_measurement_theta_max      ?

_exptl_crystal_description       block
_exptl_crystal_colour            green
_exptl_crystal_size_max          0.20
_exptl_crystal_size_mid          0.18
_exptl_crystal_size_min          0.16
_exptl_crystal_density_meas      ?
_exptl_crystal_density_diffrn    0.711
_exptl_crystal_density_method    'not measured'
_exptl_crystal_F_000             867
_exptl_absorpt_coefficient_mu    0.393
_exptl_absorpt_correction_type   ?
_exptl_absorpt_correction_T_min  0.9256
_exptl_absorpt_correction_T_max  0.9399
_exptl_absorpt_process_details   ?

_exptl_special_details           
;
?
;

_diffrn_ambient_temperature      293(2)
_diffrn_radiation_wavelength     0.71073
_diffrn_radiation_type           MoK\a
_diffrn_radiation_source         'fine-focus sealed tube'
_diffrn_radiation_monochromator  graphite
_diffrn_measurement_device_type  ?
_diffrn_measurement_method       ?
_diffrn_detector_area_resol_mean ?
_diffrn_standards_number         ?
_diffrn_standards_interval_count ?
_diffrn_standards_interval_time  ?
_diffrn_standards_decay_%        ?
_diffrn_reflns_number            34058
_diffrn_reflns_av_R_equivalents  0.1425
_diffrn_reflns_av_sigmaI/netI    0.0844
_diffrn_reflns_limit_h_min       -18
_diffrn_reflns_limit_h_max       18
_diffrn_reflns_limit_k_min       -18
_diffrn_reflns_limit_k_max       18
_diffrn_reflns_limit_l_min       -22
_diffrn_reflns_limit_l_max       22
_diffrn_reflns_theta_min         3.00
_diffrn_reflns_theta_max         25.00
_reflns_number_total             4688
_reflns_number_gt                4025
_reflns_threshold_expression     >2sigma(I)

_computing_data_collection       ?
_computing_cell_refinement       ?
_computing_data_reduction        ?
_computing_structure_solution    'SHELXS-97 (Sheldrick, 1990)'
_computing_structure_refinement  'SHELXL-97 (Sheldrick, 1997)'
_computing_molecular_graphics    ?
_computing_publication_material  ?

_refine_special_details          
;
Refinement of F^2^ against ALL reflections. The weighted R-factor wR and
goodness of fit S are based on F^2^, conventional R-factors R are based
on F, with F set to zero for negative F^2^. The threshold expression of
F^2^ > 2sigma(F^2^) is used only for calculating R-factors(gt) etc. and is
not relevant to the choice of reflections for refinement. R-factors based
on F^2^ are statistically about twice as large as those based on F, and R-
factors based on ALL data will be even larger.
;

_refine_ls_structure_factor_coef Fsqd
_refine_ls_matrix_type           full
_refine_ls_weighting_scheme      calc
_refine_ls_weighting_details     
'calc w=1/[\s^2^(Fo^2^)+(0.0550P)^2^+0.0000P] where P=(Fo^2^+2Fc^2^)/3'
_atom_sites_solution_primary     direct
_atom_sites_solution_secondary   difmap
_atom_sites_solution_hydrogens   geom
_refine_ls_hydrogen_treatment    mixed
_refine_ls_extinction_method     none
_refine_ls_extinction_coef       ?
_refine_ls_abs_structure_details 'Flack H D (1983), Acta Cryst. A39, 876-881'
_refine_ls_abs_structure_Flack   0.01(2)
_refine_ls_number_reflns         4688
_refine_ls_number_parameters     184
_refine_ls_number_restraints     0
_refine_ls_R_factor_all          0.0684
_refine_ls_R_factor_gt           0.0569
_refine_ls_wR_factor_ref         0.1317
_refine_ls_wR_factor_gt          0.1265
_refine_ls_goodness_of_fit_ref   1.046
_refine_ls_restrained_S_all      1.046
_refine_ls_shift/su_max          0.001
_refine_ls_shift/su_mean         0.000

loop_
_atom_site_label
_atom_site_type_symbol
_atom_site_fract_x
_atom_site_fract_y
_atom_site_fract_z
_atom_site_U_iso_or_equiv
_atom_site_adp_type
_atom_site_occupancy
_atom_site_symmetry_multiplicity
_atom_site_calc_flag
_atom_site_refinement_flags
_atom_site_disorder_assembly
_atom_site_disorder_group
Ni1 Ni 1.0000 0.82365(3) 0.8333 0.03909(19) Uani 1 2 d S . .
C1 C 0.8238(3) 0.6958(3) 0.73960(19) 0.0661(12) Uani 1 1 d . . .
H1 H 0.8050 0.6564 0.7803 0.079 Uiso 1 1 calc R . .
C2 C 0.7602(3) 0.6637(3) 0.68078(18) 0.0764(14) Uani 1 1 d . . .
H2 H 0.7009 0.6045 0.6820 0.092 Uiso 1 1 calc R . .
C3 C 0.7882(3) 0.7228(3) 0.62104(17) 0.0597(11) Uani 1 1 d . . .
C4 C 0.8771(3) 0.8094(3) 0.6218(2) 0.0747(14) Uani 1 1 d . . .
H4 H 0.8974 0.8504 0.5819 0.090 Uiso 1 1 calc R . .
C5 C 0.9357(3) 0.8350(3) 0.68204(18) 0.0665(12) Uani 1 1 d . . .
H5 H 0.9959 0.8933 0.6818 0.080 Uiso 1 1 calc R . .
C6 C 0.7237(3) 0.6910(3) 0.55625(17) 0.0659(12) Uani 1 1 d . . .
C7 C 0.5839(3) 0.5839(3) 0.5000 0.0640(17) Uani 1 2 d S . .
C8 C 0.9641(4) 0.6269(3) 0.8871(2) 0.0746(14) Uani 1 1 d . . .
H8 H 0.9389 0.6444 0.9259 0.089 Uiso 1 1 calc R . .
C9 C 0.9607(4) 0.5367(3) 0.8906(2) 0.0757(14) Uani 1 1 d . . .
H9 H 0.9331 0.4952 0.9298 0.091 Uiso 1 1 calc R . .
C10 C 0.4897(3) 0.4897(3) 0.5000 0.0583(15) Uani 1 2 d S . .
C11 C 0.8246(3) 0.7888(3) 0.9230(2) 0.0657(11) Uani 1 1 d . . .
C12 C 0.7359(3) 0.7142(3) 0.9653(3) 0.0906(16) Uani 1 1 d . . .
C13 C 0.6682(4) 0.6285(4) 0.9280(3) 0.145(3) Uani 1 1 d . . .
H13 H 0.6818 0.6155 0.8821 0.174 Uiso 1 1 calc R . .
C14 C 0.5803(6) 0.5641(6) 0.9625(5) 0.233(6) Uani 1 1 d . . .
F1 F 0.5167(8) 0.4775(9) 0.9345(7) 0.342(10) Uani 0.50 1 d P . .
N1 N 0.9090(2) 0.7788(2) 0.74059(14) 0.0507(8) Uani 1 1 d . . .
N2 N 0.6388(2) 0.6054(2) 0.55917(15) 0.0722(11) Uani 1 1 d . . .
N3 N 0.7537(3) 0.7537(3) 0.5000 0.0680(15) Uani 1 2 d S . .
N4 N 1.0000 0.6898(2) 0.8333 0.0447(11) Uani 1 2 d S . .
O1 O 1.0000 0.9573(2) 0.8333 0.0746(12) Uani 1 2 d S . .
O2 O 0.87462(17) 0.75544(17) 0.89647(11) 0.0487(6) Uani 1 1 d . . .
O3 O 0.8412(3) 0.8740(3) 0.9183(2) 0.1063(13) Uani 1 1 d . . .

loop_
_atom_site_aniso_label
_atom_site_aniso_U_11
_atom_site_aniso_U_22
_atom_site_aniso_U_33
_atom_site_aniso_U_23
_atom_site_aniso_U_13
_atom_site_aniso_U_12
Ni1 0.0517(4) 0.0375(2) 0.0328(3) -0.00561(13) -0.0112(3) 0.0258(2)
C1 0.073(3) 0.049(2) 0.041(2) 0.0097(17) -0.0184(19) 0.003(2)
C2 0.079(3) 0.057(3) 0.040(2) 0.0099(19) -0.018(2) -0.005(2)
C3 0.058(2) 0.049(2) 0.0351(19) 0.0163(17) -0.0142(16) -0.001(2)
C4 0.056(2) 0.066(3) 0.055(3) 0.022(2) -0.0237(19) -0.005(2)
C5 0.058(2) 0.063(3) 0.041(2) 0.0184(18) -0.0138(17) 0.002(2)
C6 0.050(2) 0.067(3) 0.033(2) 0.0084(18) -0.0179(16) -0.006(2)
C7 0.064(3) 0.064(3) 0.039(3) 0.0089(14) -0.0089(14) 0.013(3)
C8 0.142(4) 0.070(3) 0.046(2) 0.015(2) 0.034(2) 0.078(3)
C9 0.145(4) 0.071(3) 0.039(2) 0.0138(19) 0.038(2) 0.075(3)
C10 0.046(2) 0.046(2) 0.049(3) 0.0065(15) -0.0065(15) -0.002(3)
C11 0.055(3) 0.059(3) 0.076(3) -0.019(2) -0.007(2) 0.022(2)
C12 0.056(3) 0.063(3) 0.124(4) -0.028(3) 0.025(2) 0.009(2)
C13 0.080(4) 0.110(5) 0.151(5) -0.053(4) 0.030(4) -0.025(4)
C14 0.137(7) 0.146(7) 0.264(11) -0.127(7) 0.067(7) -0.043(6)
F1 0.195(10) 0.240(11) 0.328(13) -0.197(11) 0.131(10) -0.089(9)
N1 0.0532(19) 0.0445(18) 0.0416(17) 0.0033(14) -0.0124(13) 0.0148(17)
N2 0.062(2) 0.062(2) 0.0390(18) 0.0152(14) -0.0183(15) -0.0094(19)
N3 0.0568(19) 0.0568(19) 0.037(2) 0.0189(13) -0.0189(13) -0.012(2)
N4 0.078(3) 0.0444(17) 0.023(2) 0.0012(10) 0.0023(19) 0.0388(16)
O1 0.093(3) 0.0466(16) 0.100(3) 0.0044(12) 0.009(2) 0.0466(16)
O2 0.0598(15) 0.0487(15) 0.0430(13) -0.0083(11) -0.0008(11) 0.0311(14)
O3 0.102(3) 0.063(2) 0.166(4) -0.011(2) 0.039(2) 0.050(2)

_geom_special_details            
;
All esds (except the esd in the dihedral angle between two l.s. planes)
are estimated using the full covariance matrix. The cell esds are taken
into account individually in the estimation of esds in distances, angles
and torsion angles; correlations between esds in cell parameters are only
used when they are defined by crystal symmetry. An approximate (isotropic)
treatment of cell esds is used for estimating esds involving l.s. planes.
;

loop_
_geom_bond_atom_site_label_1
_geom_bond_atom_site_label_2
_geom_bond_distance
_geom_bond_site_symmetry_2
_geom_bond_publ_flag
Ni1 O2 2.074(2) 5_766 ?
Ni1 O2 2.074(2) . ?
Ni1 O1 2.097(4) . ?
Ni1 N4 2.100(4) . ?
Ni1 N1 2.128(3) . ?
Ni1 N1 2.128(3) 5_766 ?
C1 N1 1.321(4) . ?
C1 C2 1.398(5) . ?
C1 H1 0.9300 . ?
C2 C3 1.375(5) . ?
C2 H2 0.9300 . ?
C3 C4 1.376(5) . ?
C3 C6 1.494(4) . ?
C4 C5 1.380(5) . ?
C4 H4 0.9300 . ?
C5 N1 1.333(4) . ?
C5 H5 0.9300 . ?
C6 N2 1.338(4) . ?
C6 N3 1.353(4) . ?
C7 N2 1.336(4) . ?
C7 N2 1.336(4) 4_556 ?
C7 C10 1.478(7) . ?
C8 N4 1.320(4) . ?
C8 C9 1.391(5) . ?
C8 H8 0.9300 . ?
C9 C10 1.397(4) 3_665 ?
C9 H9 0.9300 . ?
C10 C9 1.397(4) 6_566 ?
C10 C9 1.397(4) 2_654 ?
C11 O3 1.231(5) . ?
C11 O2 1.244(5) . ?
C11 C12 1.517(6) . ?
C12 C13 1.412(6) . ?
C12 C12 1.423(8) 4_557 ?
C13 C14 1.394(8) . ?
C13 H13 0.9300 . ?
C14 F1 1.326(9) . ?
C14 C14 1.469(14) 4_557 ?
N3 C6 1.353(4) 4_556 ?
N4 C8 1.320(4) 5_766 ?

loop_
_geom_angle_atom_site_label_1
_geom_angle_atom_site_label_2
_geom_angle_atom_site_label_3
_geom_angle
_geom_angle_site_symmetry_1
_geom_angle_site_symmetry_3
_geom_angle_publ_flag
O2 Ni1 O2 175.21(13) 5_766 . ?
O2 Ni1 O1 92.39(7) 5_766 . ?
O2 Ni1 O1 92.39(7) . . ?
O2 Ni1 N4 87.61(7) 5_766 . ?
O2 Ni1 N4 87.61(7) . . ?
O1 Ni1 N4 180.000(2) . . ?
O2 Ni1 N1 90.82(10) 5_766 . ?
O2 Ni1 N1 89.20(10) . . ?
O1 Ni1 N1 89.71(9) . . ?
N4 Ni1 N1 90.29(9) . . ?
O2 Ni1 N1 89.20(10) 5_766 5_766 ?
O2 Ni1 N1 90.82(10) . 5_766 ?
O1 Ni1 N1 89.71(9) . 5_766 ?
N4 Ni1 N1 90.29(9) . 5_766 ?
N1 Ni1 N1 179.43(17) . 5_766 ?
N1 C1 C2 123.7(3) . . ?
N1 C1 H1 118.2 . . ?
C2 C1 H1 118.2 . . ?
C3 C2 C1 117.7(4) . . ?
C3 C2 H2 121.1 . . ?
C1 C2 H2 121.1 . . ?
C2 C3 C4 118.8(3) . . ?
C2 C3 C6 119.8(3) . . ?
C4 C3 C6 121.4(3) . . ?
C3 C4 C5 119.6(3) . . ?
C3 C4 H4 120.2 . . ?
C5 C4 H4 120.2 . . ?
N1 C5 C4 122.2(3) . . ?
N1 C5 H5 118.9 . . ?
C4 C5 H5 118.9 . . ?
N2 C6 N3 124.8(3) . . ?
N2 C6 C3 118.1(3) . . ?
N3 C6 C3 117.0(3) . . ?
N2 C7 N2 126.7(5) . 4_556 ?
N2 C7 C10 116.6(2) . . ?
N2 C7 C10 116.6(2) 4_556 . ?
N4 C8 C9 125.6(4) . . ?
N4 C8 H8 117.2 . . ?
C9 C8 H8 117.2 . . ?
C8 C9 C10 117.8(4) . 3_665 ?
C8 C9 H9 121.1 . . ?
C10 C9 H9 121.1 3_665 . ?
C9 C10 C9 117.8(5) 6_566 2_654 ?
C9 C10 C7 121.1(2) 6_566 . ?
C9 C10 C7 121.1(2) 2_654 . ?
O3 C11 O2 126.3(4) . . ?
O3 C11 C12 119.4(4) . . ?
O2 C11 C12 114.3(4) . . ?
C13 C12 C12 121.4(3) . 4_557 ?
C13 C12 C11 116.1(4) . . ?
C12 C12 C11 121.7(2) 4_557 . ?
C14 C13 C12 117.6(5) . . ?
C14 C13 H13 121.2 . . ?
C12 C13 H13 121.2 . . ?
F1 C14 C13 121.7(7) . . ?
F1 C14 C14 116.5(6) . 4_557 ?
C13 C14 C14 120.6(4) . 4_557 ?
C1 N1 C5 117.9(3) . . ?
C1 N1 Ni1 121.2(2) . . ?
C5 N1 Ni1 120.8(2) . . ?
C7 N2 C6 114.3(3) . . ?
C6 N3 C6 114.9(4) 4_556 . ?
C8 N4 C8 115.5(4) 5_766 . ?
C8 N4 Ni1 122.3(2) 5_766 . ?
C8 N4 Ni1 122.3(2) . . ?
C11 O2 Ni1 130.2(3) . . ?

loop_
_geom_torsion_atom_site_label_1
_geom_torsion_atom_site_label_2
_geom_torsion_atom_site_label_3
_geom_torsion_atom_site_label_4
_geom_torsion
_geom_torsion_site_symmetry_1
_geom_torsion_site_symmetry_2
_geom_torsion_site_symmetry_3
_geom_torsion_site_symmetry_4
_geom_torsion_publ_flag
N1 C1 C2 C3 -0.5(7) . . . . ?
C1 C2 C3 C4 0.6(7) . . . . ?
C1 C2 C3 C6 178.9(4) . . . . ?
C2 C3 C4 C5 0.0(7) . . . . ?
C6 C3 C4 C5 -178.3(4) . . . . ?
C3 C4 C5 N1 -0.6(7) . . . . ?
C2 C3 C6 N2 1.1(7) . . . . ?
C4 C3 C6 N2 179.4(5) . . . . ?
C2 C3 C6 N3 177.9(4) . . . . ?
C4 C3 C6 N3 -3.8(7) . . . . ?
N4 C8 C9 C10 1.3(8) . . . 3_665 ?
N2 C7 C10 C9 175.7(3) . . . 6_566 ?
N2 C7 C10 C9 -4.3(3) 4_556 . . 6_566 ?
N2 C7 C10 C9 -4.3(3) . . . 2_654 ?
N2 C7 C10 C9 175.7(3) 4_556 . . 2_654 ?
O3 C11 C12 C13 123.5(6) . . . . ?
O2 C11 C12 C13 -57.0(7) . . . . ?
O3 C11 C12 C12 -46.8(9) . . . 4_557 ?
O2 C11 C12 C12 132.7(7) . . . 4_557 ?
C12 C12 C13 C14 -2.1(13) 4_557 . . . ?
C11 C12 C13 C14 -172.5(8) . . . . ?
C12 C13 C14 F1 -173.5(13) . . . . ?
C12 C13 C14 C14 -6.1(19) . . . 4_557 ?
C2 C1 N1 C5 -0.1(7) . . . . ?
C2 C1 N1 Ni1 178.6(4) . . . . ?
C4 C5 N1 C1 0.6(7) . . . . ?
C4 C5 N1 Ni1 -178.1(3) . . . . ?
O2 Ni1 N1 C1 143.3(3) 5_766 . . . ?
O2 Ni1 N1 C1 -32.0(3) . . . . ?
O1 Ni1 N1 C1 -124.3(3) . . . . ?
N4 Ni1 N1 C1 55.7(3) . . . . ?
N1 Ni1 N1 C1 -124.3(3) 5_766 . . . ?
O2 Ni1 N1 C5 -38.1(3) 5_766 . . . ?
O2 Ni1 N1 C5 146.7(3) . . . . ?
O1 Ni1 N1 C5 54.3(3) . . . . ?
N4 Ni1 N1 C5 -125.7(3) . . . . ?
N1 Ni1 N1 C5 54.3(4) 5_766 . . . ?
N2 C7 N2 C6 -0.6(3) 4_556 . . . ?
C10 C7 N2 C6 179.4(3) . . . . ?
N3 C6 N2 C7 1.3(7) . . . . ?
C3 C6 N2 C7 177.8(3) . . . . ?
N2 C6 N3 C6 -0.7(4) . . . 4_556 ?
C3 C6 N3 C6 -177.3(5) . . . 4_556 ?
C9 C8 N4 C8 -0.7(4) . . . 5_766 ?
C9 C8 N4 Ni1 179.3(4) . . . . ?
O2 Ni1 N4 C8 -29.4(3) 5_766 . . 5_766 ?
O2 Ni1 N4 C8 150.6(3) . . . 5_766 ?
O1 Ni1 N4 C8 -64(24) . . . 5_766 ?
N1 Ni1 N4 C8 61.4(3) . . . 5_766 ?
N1 Ni1 N4 C8 -118.6(3) 5_766 . . 5_766 ?
O2 Ni1 N4 C8 150.6(3) 5_766 . . . ?
O2 Ni1 N4 C8 -29.4(3) . . . . ?
O1 Ni1 N4 C8 116(24) . . . . ?
N1 Ni1 N4 C8 -118.6(3) . . . . ?
N1 Ni1 N4 C8 61.4(3) 5_766 . . . ?
O3 C11 O2 Ni1 -1.7(7) . . . . ?
C12 C11 O2 Ni1 178.9(3) . . . . ?
O2 Ni1 O2 C11 178.7(3) 5_766 . . . ?
O1 Ni1 O2 C11 -1.3(3) . . . . ?
N4 Ni1 O2 C11 178.7(3) . . . . ?
N1 Ni1 O2 C11 -90.9(3) . . . . ?
N1 Ni1 O2 C11 88.5(3) 5_766 . . . ?

_diffrn_measured_fraction_theta_max 0.997
_diffrn_reflns_theta_full        25.00
_diffrn_measured_fraction_theta_full 0.997
_refine_diff_density_max         0.513
_refine_diff_density_min         -0.450
_refine_diff_density_rms         0.049
# SQUEEZE RESULTS (APPEND TO CIF)
# Note: Data are Listed for all Voids in the P1 Unit Cell
# i.e. Centre of Gravity, Solvent Accessible Volume,
# Recovered number of Electrons in the Void and
# Details about the Squeezed Material
loop_
_platon_squeeze_void_nr
_platon_squeeze_void_average_x
_platon_squeeze_void_average_y
_platon_squeeze_void_average_z
_platon_squeeze_void_volume
_platon_squeeze_void_count_electrons
_platon_squeeze_void_content
1 0.021 0.463 0.111 2510 226 ' '
_platon_squeeze_details          
;
;
