####################################################################### 
# 
# This file contains crystal structure data downloaded from the 
# Cambridge Structural Database (CSD) hosted by the Cambridge 
# Crystallographic Data Centre (CCDC).
# 
# Full information about CCDC data access policies and citation 
# guidelines are available at http://www.ccdc.cam.ac.uk/access/V1 
# 
# Audit and citation data items may have been added by the CCDC. 
# Please retain this information to preserve the provenance of 
# this file and to allow appropriate attribution of the data. 
# 
#######################################################################

data_TKL-103
_audit_block_doi                 10.5517/cc100l5s
_database_code_depnum_ccdc_archive 'CCDC 924084'
loop_
_citation_id
_citation_doi
_citation_year
1 10.1038/srep03312 2013
_audit_update_record             
;
2013-02-11 deposited with the CCDC.	2024-07-10 downloaded from the CCDC.
;
#TrackingRef '17650_web_deposit_cif_file_0_Da-ShuaiZhang_1360569648.Crystals.cif'


_audit_creation_method           SHELXL-97
_chemical_name_systematic        
;
?
;
_chemical_name_common            ?
_chemical_melting_point          ?
_chemical_formula_moiety         ?
_chemical_formula_sum            'C13 H7 N3.50 Ni0.50 O3.50'
_chemical_formula_weight         297.58

loop_
_atom_type_symbol
_atom_type_description
_atom_type_scat_dispersion_real
_atom_type_scat_dispersion_imag
_atom_type_scat_source
C C 0.0033 0.0016 'International Tables Vol C Tables 4.2.6.8 and 6.1.1.4'
H H 0.0000 0.0000 'International Tables Vol C Tables 4.2.6.8 and 6.1.1.4'
N N 0.0061 0.0033 'International Tables Vol C Tables 4.2.6.8 and 6.1.1.4'
Ni Ni 0.3393 1.1124 'International Tables Vol C Tables 4.2.6.8 and 6.1.1.4'
O O 0.0106 0.0060 'International Tables Vol C Tables 4.2.6.8 and 6.1.1.4'

_symmetry_cell_setting           Hexagonal
_symmetry_space_group_name_H-M   'P 32 2 1'

loop_
_symmetry_equiv_pos_as_xyz
'x, y, z'
'-y, x-y, z+2/3'
'-x+y, -x, z+1/3'
'y, x, -z'
'-x, -x+y, -z+2/3'
'x-y, -y, -z+1/3'

_cell_length_a                   15.638(2)
_cell_length_b                   15.638(2)
_cell_length_c                   18.499(4)
_cell_angle_alpha                90.00
_cell_angle_beta                 90.00
_cell_angle_gamma                120.00
_cell_volume                     3917.8(11)
_cell_formula_units_Z            6
_cell_measurement_temperature    293(2)
_cell_measurement_reflns_used    ?
_cell_measurement_theta_min      ?
_cell_measurement_theta_max      ?

_exptl_crystal_description       block
_exptl_crystal_colour            green
_exptl_crystal_size_max          0.20
_exptl_crystal_size_mid          0.18
_exptl_crystal_size_min          0.16
_exptl_crystal_density_meas      ?
_exptl_crystal_density_diffrn    0.757
_exptl_crystal_density_method    'not measured'
_exptl_crystal_F_000             909
_exptl_absorpt_coefficient_mu    0.401
_exptl_absorpt_correction_type   ?
_exptl_absorpt_correction_T_min  ?
_exptl_absorpt_correction_T_max  ?
_exptl_absorpt_process_details   ?

_exptl_special_details           
;
?
;

_diffrn_ambient_temperature      293(2)
_diffrn_radiation_wavelength     0.71073
_diffrn_radiation_type           MoK\a
_diffrn_radiation_source         'fine-focus sealed tube'
_diffrn_radiation_monochromator  graphite
_diffrn_measurement_device_type  ?
_diffrn_measurement_method       ?
_diffrn_detector_area_resol_mean ?
_diffrn_standards_number         ?
_diffrn_standards_interval_count ?
_diffrn_standards_interval_time  ?
_diffrn_standards_decay_%        ?
_diffrn_reflns_number            33070
_diffrn_reflns_av_R_equivalents  0.1362
_diffrn_reflns_av_sigmaI/netI    0.0899
_diffrn_reflns_limit_h_min       -18
_diffrn_reflns_limit_h_max       18
_diffrn_reflns_limit_k_min       -18
_diffrn_reflns_limit_k_max       18
_diffrn_reflns_limit_l_min       -21
_diffrn_reflns_limit_l_max       21
_diffrn_reflns_theta_min         3.01
_diffrn_reflns_theta_max         25.01
_reflns_number_total             4600
_reflns_number_gt                3484
_reflns_threshold_expression     >2sigma(I)

_computing_data_collection       ?
_computing_cell_refinement       ?
_computing_data_reduction        ?
_computing_structure_solution    'SHELXS-97 (Sheldrick, 1990)'
_computing_structure_refinement  'SHELXL-97 (Sheldrick, 1997)'
_computing_molecular_graphics    ?
_computing_publication_material  ?

_refine_special_details          
;
Refinement of F^2^ against ALL reflections. The weighted R-factor wR and
goodness of fit S are based on F^2^, conventional R-factors R are based
on F, with F set to zero for negative F^2^. The threshold expression of
F^2^ > 2sigma(F^2^) is used only for calculating R-factors(gt) etc. and is
not relevant to the choice of reflections for refinement. R-factors based
on F^2^ are statistically about twice as large as those based on F, and R-
factors based on ALL data will be even larger.
;

_refine_ls_structure_factor_coef Fsqd
_refine_ls_matrix_type           full
_refine_ls_weighting_scheme      calc
_refine_ls_weighting_details     
'calc w=1/[\s^2^(Fo^2^)+(0.0831P)^2^+0.0000P] where P=(Fo^2^+2Fc^2^)/3'
_atom_sites_solution_primary     direct
_atom_sites_solution_secondary   difmap
_atom_sites_solution_hydrogens   geom
_refine_ls_hydrogen_treatment    mixed
_refine_ls_extinction_method     none
_refine_ls_extinction_coef       ?
_refine_ls_abs_structure_details 'Flack H D (1983), Acta Cryst. A39, 876-881'
_refine_ls_abs_structure_Flack   0.00
_refine_ls_number_reflns         4600
_refine_ls_number_parameters     202
_refine_ls_number_restraints     5
_refine_ls_R_factor_all          0.0999
_refine_ls_R_factor_gt           0.0763
_refine_ls_wR_factor_ref         0.1672
_refine_ls_wR_factor_gt          0.1560
_refine_ls_goodness_of_fit_ref   1.047
_refine_ls_restrained_S_all      1.047
_refine_ls_shift/su_max          0.000
_refine_ls_shift/su_mean         0.000

loop_
_atom_site_label
_atom_site_type_symbol
_atom_site_fract_x
_atom_site_fract_y
_atom_site_fract_z
_atom_site_U_iso_or_equiv
_atom_site_adp_type
_atom_site_occupancy
_atom_site_symmetry_multiplicity
_atom_site_calc_flag
_atom_site_refinement_flags
_atom_site_disorder_assembly
_atom_site_disorder_group
Ni1 Ni 1.0000 0.82381(5) 0.8333 0.0432(3) Uani 1 2 d S . .
O1 O 0.8752(3) 0.7562(3) 0.89737(17) 0.0587(9) Uani 1 1 d . . .
O2 O 0.8424(4) 0.8741(4) 0.9195(3) 0.121(2) Uani 1 1 d . . .
O3 O 1.0000 0.9573(3) 0.8333 0.0774(17) Uani 1 2 d S . .
O4 O 0.528(3) 0.454(3) 0.8637(17) 0.57(5) Uani 0.50 1 d PD . .
O5 O 0.461(2) 0.4037(19) 0.9690(15) 0.39(2) Uani 0.50 1 d PD . .
N1 N 0.9082(3) 0.7786(3) 0.74101(19) 0.0548(11) Uani 1 1 d . . .
N2 N 0.7516(4) 0.7516(4) 0.5000 0.071(2) Uani 1 2 d S . .
N3 N 0.6373(3) 0.6044(3) 0.5588(2) 0.0761(16) Uani 1 1 d . . .
N4 N 1.0000 0.6896(4) 0.8333 0.0558(17) Uani 1 2 d S . .
N5 N 0.526(2) 0.4634(16) 0.9292(17) 0.39(3) Uani 0.50 1 d PDU . .
C1 C 0.8242(4) 0.6945(4) 0.7396(3) 0.0694(18) Uani 1 1 d . . .
H1 H 0.8055 0.6544 0.7804 0.083 Uiso 1 1 calc R . .
C2 C 0.7631(4) 0.6634(4) 0.6804(3) 0.079(2) Uani 1 1 d . . .
H2 H 0.7053 0.6024 0.6812 0.095 Uiso 1 1 calc R . .
C3 C 0.7867(4) 0.7216(4) 0.6206(2) 0.0600(15) Uani 1 1 d . . .
C4 C 0.8744(4) 0.8097(4) 0.6227(3) 0.074(2) Uani 1 1 d . . .
H4 H 0.8947 0.8513 0.5827 0.089 Uiso 1 1 calc R . .
C5 C 0.9313(4) 0.8360(4) 0.6830(3) 0.0686(17) Uani 1 1 d . . .
H5 H 0.9891 0.8969 0.6838 0.082 Uiso 1 1 calc R . .
C6 C 0.7220(4) 0.6898(4) 0.5569(2) 0.0616(15) Uani 1 1 d . . .
C7 C 0.5829(5) 0.5829(5) 0.5000 0.063(2) Uani 1 2 d S . .
C8 C 1.0349(5) 0.6620(4) 0.7783(3) 0.0706(18) Uani 1 1 d . . .
H8 H 1.0607 0.7046 0.7391 0.085 Uiso 1 1 calc R . .
C9 C 1.0354(5) 0.5760(4) 0.7754(3) 0.080(2) Uani 1 1 d . . .
H9 H 1.0596 0.5601 0.7347 0.096 Uiso 1 1 calc R . .
C10 C 0.4882(4) 0.4882(4) 0.5000 0.056(2) Uani 1 2 d S . .
C11 C 0.8261(5) 0.7892(5) 0.9239(3) 0.0666(16) Uani 1 1 d . . .
C12 C 0.7366(5) 0.7153(5) 0.9654(4) 0.101(2) Uani 1 1 d . . .
C13 C 0.6712(7) 0.6310(7) 0.9278(6) 0.168(5) Uani 1 1 d . . .
H13 H 0.6833 0.6214 0.8801 0.201 Uiso 1 1 calc R . .
C14 C 0.5862(8) 0.5609(9) 0.9641(8) 0.241(8) Uani 1 1 d DU . .

loop_
_atom_site_aniso_label
_atom_site_aniso_U_11
_atom_site_aniso_U_22
_atom_site_aniso_U_33
_atom_site_aniso_U_23
_atom_site_aniso_U_13
_atom_site_aniso_U_12
Ni1 0.0615(6) 0.0435(4) 0.0305(4) -0.0079(2) -0.0158(4) 0.0307(3)
O1 0.072(2) 0.071(3) 0.048(2) -0.0038(18) -0.0011(17) 0.047(2)
O2 0.128(4) 0.091(4) 0.168(5) 0.008(4) 0.050(4) 0.072(4)
O3 0.098(5) 0.058(2) 0.089(4) -0.0017(18) -0.003(4) 0.049(2)
O4 0.51(7) 0.50(6) 0.52(7) -0.24(5) 0.16(6) 0.11(5)
O5 0.26(3) 0.17(2) 0.63(8) -0.07(3) 0.01(3) 0.029(19)
N1 0.057(3) 0.051(3) 0.039(2) 0.005(2) -0.0194(19) 0.015(2)
N2 0.061(3) 0.061(3) 0.044(3) 0.0180(19) -0.0180(19) -0.004(3)
N3 0.065(3) 0.063(3) 0.039(2) 0.014(2) -0.023(2) -0.014(3)
N4 0.103(5) 0.052(3) 0.030(3) 0.0006(16) 0.001(3) 0.051(3)
N5 0.23(3) 0.21(3) 0.43(6) -0.10(3) 0.09(3) -0.12(3)
C1 0.078(4) 0.053(4) 0.047(3) 0.018(3) -0.022(3) 0.010(3)
C2 0.072(4) 0.057(4) 0.048(3) 0.009(3) -0.028(3) -0.013(3)
C3 0.059(3) 0.050(3) 0.032(2) 0.011(2) -0.014(2) -0.002(3)
C4 0.065(4) 0.067(4) 0.038(3) 0.032(3) -0.021(3) -0.007(3)
C5 0.062(3) 0.062(4) 0.044(3) 0.016(3) -0.020(3) 0.003(3)
C6 0.062(3) 0.059(3) 0.032(3) 0.011(3) -0.010(2) 0.007(3)
C7 0.061(3) 0.061(3) 0.042(4) 0.011(2) -0.011(2) 0.010(4)
C8 0.126(6) 0.048(3) 0.048(3) 0.007(3) 0.018(3) 0.052(4)
C9 0.162(7) 0.063(4) 0.037(3) 0.011(3) 0.034(4) 0.072(4)
C10 0.050(3) 0.050(3) 0.043(4) 0.008(2) -0.008(2) 0.006(4)
C11 0.068(4) 0.064(4) 0.078(4) -0.016(3) -0.007(3) 0.040(4)
C12 0.080(5) 0.076(5) 0.133(6) -0.033(4) 0.024(4) 0.029(4)
C13 0.100(6) 0.129(8) 0.203(10) -0.091(7) 0.023(7) 0.004(6)
C14 0.113(8) 0.170(10) 0.301(18) -0.128(11) 0.049(9) -0.034(8)

_geom_special_details            
;
All esds (except the esd in the dihedral angle between two l.s. planes)
are estimated using the full covariance matrix. The cell esds are taken
into account individually in the estimation of esds in distances, angles
and torsion angles; correlations between esds in cell parameters are only
used when they are defined by crystal symmetry. An approximate (isotropic)
treatment of cell esds is used for estimating esds involving l.s. planes.
;

loop_
_geom_bond_atom_site_label_1
_geom_bond_atom_site_label_2
_geom_bond_distance
_geom_bond_site_symmetry_2
_geom_bond_publ_flag
Ni1 O1 2.066(4) 5_766 ?
Ni1 O1 2.066(4) . ?
Ni1 O3 2.087(5) . ?
Ni1 N4 2.098(6) . ?
Ni1 N1 2.113(3) . ?
Ni1 N1 2.113(3) 5_766 ?
O1 C11 1.221(6) . ?
O2 C11 1.223(7) . ?
O4 N5 1.2230(11) . ?
O5 N5 1.2231(11) . ?
N1 C1 1.314(6) . ?
N1 C5 1.327(6) . ?
N2 C6 1.344(5) 4_556 ?
N2 C6 1.344(5) . ?
N3 C7 1.316(5) . ?
N3 C6 1.330(6) . ?
N4 C8 1.326(6) . ?
N4 C8 1.326(6) 5_766 ?
N5 C14 1.4809(11) . ?
C1 C2 1.373(7) . ?
C1 H1 0.9300 . ?
C2 C3 1.361(6) . ?
C2 H2 0.9300 . ?
C3 C4 1.375(6) . ?
C3 C6 1.469(6) . ?
C4 C5 1.356(6) . ?
C4 H4 0.9300 . ?
C5 H5 0.9300 . ?
C7 N3 1.316(5) 4_556 ?
C7 C10 1.481(10) . ?
C8 C9 1.350(7) . ?
C8 H8 0.9300 . ?
C9 C10 1.380(6) 3_665 ?
C9 H9 0.9300 . ?
C10 C9 1.380(6) 2_654 ?
C10 C9 1.380(6) 6_566 ?
C11 C12 1.506(9) . ?
C12 C13 1.386(9) . ?
C12 C12 1.402(13) 4_557 ?
C13 C14 1.401(13) . ?
C13 H13 0.9300 . ?
C14 C14 1.49(2) 4_557 ?

loop_
_geom_angle_atom_site_label_1
_geom_angle_atom_site_label_2
_geom_angle_atom_site_label_3
_geom_angle
_geom_angle_site_symmetry_1
_geom_angle_site_symmetry_3
_geom_angle_publ_flag
O1 Ni1 O1 175.5(2) 5_766 . ?
O1 Ni1 O3 92.26(10) 5_766 . ?
O1 Ni1 O3 92.26(10) . . ?
O1 Ni1 N4 87.74(10) 5_766 . ?
O1 Ni1 N4 87.74(10) . . ?
O3 Ni1 N4 180.000(3) . . ?
O1 Ni1 N1 91.05(14) 5_766 . ?
O1 Ni1 N1 88.97(14) . . ?
O3 Ni1 N1 89.68(13) . . ?
N4 Ni1 N1 90.32(13) . . ?
O1 Ni1 N1 88.97(14) 5_766 5_766 ?
O1 Ni1 N1 91.05(14) . 5_766 ?
O3 Ni1 N1 89.68(13) . 5_766 ?
N4 Ni1 N1 90.32(13) . 5_766 ?
N1 Ni1 N1 179.4(3) . 5_766 ?
C11 O1 Ni1 130.3(4) . . ?
C1 N1 C5 117.3(4) . . ?
C1 N1 Ni1 121.5(3) . . ?
C5 N1 Ni1 121.2(3) . . ?
C6 N2 C6 115.8(6) 4_556 . ?
C7 N3 C6 115.2(5) . . ?
C8 N4 C8 115.7(6) . 5_766 ?
C8 N4 Ni1 122.2(3) . . ?
C8 N4 Ni1 122.2(3) 5_766 . ?
O4 N5 O5 124.42(17) . . ?
O4 N5 C14 121(3) . . ?
O5 N5 C14 112(2) . . ?
N1 C1 C2 122.7(5) . . ?
N1 C1 H1 118.6 . . ?
C2 C1 H1 118.6 . . ?
C3 C2 C1 120.2(5) . . ?
C3 C2 H2 119.9 . . ?
C1 C2 H2 119.9 . . ?
C2 C3 C4 116.6(4) . . ?
C2 C3 C6 121.0(4) . . ?
C4 C3 C6 122.3(4) . . ?
C5 C4 C3 120.1(4) . . ?
C5 C4 H4 120.0 . . ?
C3 C4 H4 120.0 . . ?
N1 C5 C4 123.0(5) . . ?
N1 C5 H5 118.5 . . ?
C4 C5 H5 118.5 . . ?
N3 C6 N2 123.7(4) . . ?
N3 C6 C3 119.3(4) . . ?
N2 C6 C3 117.0(4) . . ?
N3 C7 N3 126.4(7) . 4_556 ?
N3 C7 C10 116.8(3) . . ?
N3 C7 C10 116.8(3) 4_556 . ?
N4 C8 C9 124.3(5) . . ?
N4 C8 H8 117.8 . . ?
C9 C8 H8 117.8 . . ?
C8 C9 C10 119.5(5) . 3_665 ?
C8 C9 H9 120.2 . . ?
C10 C9 H9 120.2 3_665 . ?
C9 C10 C9 116.5(6) 2_654 6_566 ?
C9 C10 C7 121.7(3) 2_654 . ?
C9 C10 C7 121.7(3) 6_566 . ?
O1 C11 O2 126.7(6) . . ?
O1 C11 C12 114.8(6) . . ?
O2 C11 C12 118.4(6) . . ?
C13 C12 C12 122.3(5) . 4_557 ?
C13 C12 C11 115.7(7) . . ?
C12 C12 C11 121.6(3) 4_557 . ?
C12 C13 C14 117.6(9) . . ?
C12 C13 H13 121.2 . . ?
C14 C13 H13 121.2 . . ?
C13 C14 N5 117.6(14) . . ?
C13 C14 C14 119.5(5) . 4_557 ?
N5 C14 C14 122.9(13) . 4_557 ?

loop_
_geom_torsion_atom_site_label_1
_geom_torsion_atom_site_label_2
_geom_torsion_atom_site_label_3
_geom_torsion_atom_site_label_4
_geom_torsion
_geom_torsion_site_symmetry_1
_geom_torsion_site_symmetry_2
_geom_torsion_site_symmetry_3
_geom_torsion_site_symmetry_4
_geom_torsion_publ_flag
O1 Ni1 O1 C11 179(100) 5_766 . . . ?
O3 Ni1 O1 C11 -1.2(5) . . . . ?
N4 Ni1 O1 C11 178.8(5) . . . . ?
N1 Ni1 O1 C11 -90.9(5) . . . . ?
N1 Ni1 O1 C11 88.5(5) 5_766 . . . ?
O1 Ni1 N1 C1 141.5(5) 5_766 . . . ?
O1 Ni1 N1 C1 -34.0(5) . . . . ?
O3 Ni1 N1 C1 -126.3(5) . . . . ?
N4 Ni1 N1 C1 53.7(5) . . . . ?
N1 Ni1 N1 C1 -126.3(5) 5_766 . . . ?
O1 Ni1 N1 C5 -41.1(5) 5_766 . . . ?
O1 Ni1 N1 C5 143.4(5) . . . . ?
O3 Ni1 N1 C5 51.2(4) . . . . ?
N4 Ni1 N1 C5 -128.8(4) . . . . ?
N1 Ni1 N1 C5 51.2(5) 5_766 . . . ?
O1 Ni1 N4 C8 -30.1(3) 5_766 . . . ?
O1 Ni1 N4 C8 149.9(3) . . . . ?
O3 Ni1 N4 C8 -65(100) . . . . ?
N1 Ni1 N4 C8 60.9(4) . . . . ?
N1 Ni1 N4 C8 -119.1(4) 5_766 . . . ?
O1 Ni1 N4 C8 149.9(3) 5_766 . . 5_766 ?
O1 Ni1 N4 C8 -30.1(3) . . . 5_766 ?
O3 Ni1 N4 C8 115(100) . . . 5_766 ?
N1 Ni1 N4 C8 -119.1(4) . . . 5_766 ?
N1 Ni1 N4 C8 60.9(4) 5_766 . . 5_766 ?
C5 N1 C1 C2 2.4(10) . . . . ?
Ni1 N1 C1 C2 179.9(5) . . . . ?
N1 C1 C2 C3 -2.0(11) . . . . ?
C1 C2 C3 C4 1.5(10) . . . . ?
C1 C2 C3 C6 -179.7(6) . . . . ?
C2 C3 C4 C5 -1.7(10) . . . . ?
C6 C3 C4 C5 179.6(6) . . . . ?
C1 N1 C5 C4 -2.5(9) . . . . ?
Ni1 N1 C5 C4 180.0(5) . . . . ?
C3 C4 C5 N1 2.2(10) . . . . ?
C7 N3 C6 N2 0.5(9) . . . . ?
C7 N3 C6 C3 178.5(5) . . . . ?
C6 N2 C6 N3 -0.3(5) 4_556 . . . ?
C6 N2 C6 C3 -178.3(6) 4_556 . . . ?
C2 C3 C6 N3 2.5(10) . . . . ?
C4 C3 C6 N3 -178.8(6) . . . . ?
C2 C3 C6 N2 -179.4(6) . . . . ?
C4 C3 C6 N2 -0.7(9) . . . . ?
C6 N3 C7 N3 -0.2(4) . . . 4_556 ?
C6 N3 C7 C10 179.8(4) . . . . ?
C8 N4 C8 C9 0.8(5) 5_766 . . . ?
Ni1 N4 C8 C9 -179.2(5) . . . . ?
N4 C8 C9 C10 -1.5(11) . . . 3_665 ?
N3 C7 C10 C9 178.1(5) . . . 2_654 ?
N3 C7 C10 C9 -1.9(5) 4_556 . . 2_654 ?
N3 C7 C10 C9 -1.9(5) . . . 6_566 ?
N3 C7 C10 C9 178.1(5) 4_556 . . 6_566 ?
Ni1 O1 C11 O2 -2.0(10) . . . . ?
Ni1 O1 C11 C12 177.6(4) . . . . ?
O1 C11 C12 C13 -55.4(10) . . . . ?
O2 C11 C12 C13 124.3(9) . . . . ?
O1 C11 C12 C12 132.3(9) . . . 4_557 ?
O2 C11 C12 C12 -48.0(13) . . . 4_557 ?
C12 C12 C13 C14 -6.9(18) 4_557 . . . ?
C11 C12 C13 C14 -179.1(11) . . . . ?
C12 C13 C14 N5 -169(2) . . . . ?
C12 C13 C14 C14 10(3) . . . 4_557 ?
O4 N5 C14 C13 -25(6) . . . . ?
O5 N5 C14 C13 171(3) . . . . ?
O4 N5 C14 C14 156(4) . . . 4_557 ?
O5 N5 C14 C14 -8(5) . . . 4_557 ?

_diffrn_measured_fraction_theta_max 0.997
_diffrn_reflns_theta_full        25.01
_diffrn_measured_fraction_theta_full 0.997
_refine_diff_density_max         0.546
_refine_diff_density_min         -0.638
_refine_diff_density_rms         0.057
# SQUEEZE RESULTS (APPEND TO CIF)
# Note: Data are Listed for all Voids in the P1 Unit Cell
# i.e. Centre of Gravity, Solvent Accessible Volume,
# Recovered number of Electrons in the Void and
# Details about the Squeezed Material
loop_
_platon_squeeze_void_nr
_platon_squeeze_void_average_x
_platon_squeeze_void_average_y
_platon_squeeze_void_average_z
_platon_squeeze_void_volume
_platon_squeeze_void_count_electrons
_platon_squeeze_void_content
1 -0.018 0.474 0.832 2342 284 ' '
_platon_squeeze_details          
;
;
