####################################################################### 
# 
# This file contains crystal structure data downloaded from the 
# Cambridge Structural Database (CSD) hosted by the Cambridge 
# Crystallographic Data Centre (CCDC).
# 
# Full information about CCDC data access policies and citation 
# guidelines are available at http://www.ccdc.cam.ac.uk/access/V1 
# 
# Audit and citation data items may have been added by the CCDC. 
# Please retain this information to preserve the provenance of 
# this file and to allow appropriate attribution of the data. 
# 
#######################################################################

data_TKL-101
_audit_block_doi                 10.5517/cc100l3q
_database_code_depnum_ccdc_archive 'CCDC 924082'
loop_
_citation_id
_citation_doi
_citation_year
1 10.1038/srep03312 2013
_audit_update_record             
;
2013-02-11 deposited with the CCDC.	2024-07-10 downloaded from the CCDC.
;
#TrackingRef '17650_web_deposit_cif_file_0_Da-ShuaiZhang_1360569648.Crystals.cif'


_audit_creation_method           SHELXL-97
_chemical_name_systematic        
;
?
;
_chemical_name_common            ?
_chemical_melting_point          ?
_chemical_formula_moiety         ?
_chemical_formula_sum            'C13 H8 N3 Ni0.50 O2.50'
_chemical_formula_weight         275.58

loop_
_atom_type_symbol
_atom_type_description
_atom_type_scat_dispersion_real
_atom_type_scat_dispersion_imag
_atom_type_scat_source
C C 0.0033 0.0016 'International Tables Vol C Tables 4.2.6.8 and 6.1.1.4'
H H 0.0000 0.0000 'International Tables Vol C Tables 4.2.6.8 and 6.1.1.4'
N N 0.0061 0.0033 'International Tables Vol C Tables 4.2.6.8 and 6.1.1.4'
Ni Ni 0.3393 1.1124 'International Tables Vol C Tables 4.2.6.8 and 6.1.1.4'
O O 0.0106 0.0060 'International Tables Vol C Tables 4.2.6.8 and 6.1.1.4'

_symmetry_cell_setting           Hexagonal
_symmetry_space_group_name_H-M   'P 32 2 1'

loop_
_symmetry_equiv_pos_as_xyz
'x, y, z'
'-y, x-y, z+2/3'
'-x+y, -x, z+1/3'
'y, x, -z'
'-x, -x+y, -z+2/3'
'x-y, -y, -z+1/3'

_cell_length_a                   15.695(2)
_cell_length_b                   15.695(2)
_cell_length_c                   18.546(4)
_cell_angle_alpha                90.00
_cell_angle_beta                 90.00
_cell_angle_gamma                120.00
_cell_volume                     3956.4(11)
_cell_formula_units_Z            6
_cell_measurement_temperature    293(2)
_cell_measurement_reflns_used    ?
_cell_measurement_theta_min      ?
_cell_measurement_theta_max      ?

_exptl_crystal_description       block
_exptl_crystal_colour            green
_exptl_crystal_size_max          0.20
_exptl_crystal_size_mid          0.18
_exptl_crystal_size_min          0.16
_exptl_crystal_density_meas      ?
_exptl_crystal_density_diffrn    0.694
_exptl_crystal_density_method    'not measured'
_exptl_crystal_F_000             846
_exptl_absorpt_coefficient_mu    0.391
_exptl_absorpt_correction_type   ?
_exptl_absorpt_correction_T_min  0.9259
_exptl_absorpt_correction_T_max  0.9401
_exptl_absorpt_process_details   ?

_exptl_special_details           
;
?
;

_diffrn_ambient_temperature      293(2)
_diffrn_radiation_wavelength     0.71073
_diffrn_radiation_type           MoK\a
_diffrn_radiation_source         'fine-focus sealed tube'
_diffrn_radiation_monochromator  graphite
_diffrn_measurement_device_type  ?
_diffrn_measurement_method       ?
_diffrn_detector_area_resol_mean ?
_diffrn_standards_number         ?
_diffrn_standards_interval_count ?
_diffrn_standards_interval_time  ?
_diffrn_standards_decay_%        ?
_diffrn_reflns_number            33881
_diffrn_reflns_av_R_equivalents  0.1406
_diffrn_reflns_av_sigmaI/netI    0.0911
_diffrn_reflns_limit_h_min       -18
_diffrn_reflns_limit_h_max       18
_diffrn_reflns_limit_k_min       -18
_diffrn_reflns_limit_k_max       18
_diffrn_reflns_limit_l_min       -22
_diffrn_reflns_limit_l_max       22
_diffrn_reflns_theta_min         3.00
_diffrn_reflns_theta_max         25.00
_reflns_number_total             4654
_reflns_number_gt                3896
_reflns_threshold_expression     >2sigma(I)

_computing_data_collection       ?
_computing_cell_refinement       ?
_computing_data_reduction        ?
_computing_structure_solution    'SHELXS-97 (Sheldrick, 1990)'
_computing_structure_refinement  'SHELXL-97 (Sheldrick, 1997)'
_computing_molecular_graphics    ?
_computing_publication_material  ?

_refine_special_details          
;
Refinement of F^2^ against ALL reflections. The weighted R-factor wR and
goodness of fit S are based on F^2^, conventional R-factors R are based
on F, with F set to zero for negative F^2^. The threshold expression of
F^2^ > 2sigma(F^2^) is used only for calculating R-factors(gt) etc. and is
not relevant to the choice of reflections for refinement. R-factors based
on F^2^ are statistically about twice as large as those based on F, and R-
factors based on ALL data will be even larger.
;

_refine_ls_structure_factor_coef Fsqd
_refine_ls_matrix_type           full
_refine_ls_weighting_scheme      calc
_refine_ls_weighting_details     
'calc w=1/[\s^2^(Fo^2^)+(0.0802P)^2^+0.0000P] where P=(Fo^2^+2Fc^2^)/3'
_atom_sites_solution_primary     direct
_atom_sites_solution_secondary   difmap
_atom_sites_solution_hydrogens   geom
_refine_ls_hydrogen_treatment    mixed
_refine_ls_extinction_method     none
_refine_ls_extinction_coef       ?
_refine_ls_abs_structure_details 'Flack H D (1983), Acta Cryst. A39, 876-881'
_refine_ls_abs_structure_Flack   -10(10)
_refine_ls_number_reflns         4654
_refine_ls_number_parameters     175
_refine_ls_number_restraints     12
_refine_ls_R_factor_all          0.0801
_refine_ls_R_factor_gt           0.0665
_refine_ls_wR_factor_ref         0.1611
_refine_ls_wR_factor_gt          0.1545
_refine_ls_goodness_of_fit_ref   1.060
_refine_ls_restrained_S_all      1.067
_refine_ls_shift/su_max          0.000
_refine_ls_shift/su_mean         0.000

loop_
_atom_site_label
_atom_site_type_symbol
_atom_site_fract_x
_atom_site_fract_y
_atom_site_fract_z
_atom_site_U_iso_or_equiv
_atom_site_adp_type
_atom_site_occupancy
_atom_site_symmetry_multiplicity
_atom_site_calc_flag
_atom_site_refinement_flags
_atom_site_disorder_assembly
_atom_site_disorder_group
Ni1 Ni 0.17757(4) 0.17757(4) 0.0000 0.0383(2) Uani 1 2 d S . .
C1 C 0.1308(4) 0.3057(4) 0.0933(2) 0.0631(15) Uani 1 1 d . . .
H1 H 0.1526 0.3455 0.0525 0.076 Uiso 1 1 calc R . .
C2 C 0.1001(4) 0.3383(4) 0.1530(2) 0.0717(16) Uani 1 1 d . . .
H2 H 0.1019 0.3984 0.1519 0.086 Uiso 1 1 calc R . .
C3 C 0.0676(4) 0.2800(3) 0.2125(2) 0.0564(12) Uani 1 1 d . . .
C4 C 0.0636(5) 0.1900(4) 0.2104(2) 0.0749(18) Uani 1 1 d . . .
H4 H 0.0385 0.1470 0.2493 0.090 Uiso 1 1 calc R . .
C5 C 0.0974(4) 0.1647(3) 0.1501(2) 0.0624(14) Uani 1 1 d . . .
H5 H 0.0972 0.1054 0.1500 0.075 Uiso 1 1 calc R . .
C6 C 0.0300(4) 0.3077(3) 0.2764(2) 0.0551(13) Uani 1 1 d . . .
C7 C 0.0000 0.4148(4) 0.3333 0.0595(19) Uani 1 2 d S . .
C8 C 0.3379(3) 0.3743(4) -0.0544(3) 0.0655(15) Uani 1 1 d . . .
H8 H 0.2956 0.3576 -0.0936 0.079 Uiso 1 1 calc R . .
C9 C 0.4243(4) 0.4630(4) -0.0562(2) 0.0755(17) Uani 1 1 d . . .
H9 H 0.4390 0.5051 -0.0954 0.091 Uiso 1 1 calc R . .
C10 C 0.4883(4) 0.4883(4) 0.0000 0.0502(16) Uani 1 2 d S . .
C11 C 0.0351(4) 0.2106(4) -0.0907(3) 0.0652(14) Uani 1 1 d . . .
C12 C 0.0228(5) 0.2856(4) -0.1321(3) 0.091(2) Uani 1 1 d . . .
C13 C 0.0423(6) 0.3698(6) -0.0943(5) 0.127(3) Uani 1 1 d U . .
H13 H 0.0687 0.3808 -0.0481 0.152 Uiso 1 1 calc R . .
C14 C 0.0218(12) 0.4369(12) -0.1267(7) 0.246(7) Uani 1 1 d U . .
H14 H 0.0333 0.4935 -0.1025 0.295 Uiso 1 1 calc R . .
N1 N 0.1302(3) 0.2215(3) 0.09212(17) 0.0477(9) Uani 1 1 d . . .
N2 N 0.0345(4) 0.3953(3) 0.27440(19) 0.0680(13) Uani 1 1 d . . .
N3 N 0.0000 0.2466(3) 0.3333 0.0635(17) Uani 1 2 d S . .
N4 N 0.3112(3) 0.3112(3) 0.0000 0.0458(13) Uani 1 2 d S . .
O1 O 0.0433(3) 0.0433(3) 0.0000 0.0654(13) Uani 1 2 d S . .
O2 O 0.1197(2) 0.2449(2) -0.06374(14) 0.0496(7) Uani 1 1 d . . .
O3 O -0.0305(3) 0.1273(3) -0.0867(3) 0.1055(16) Uani 1 1 d . . .

loop_
_atom_site_aniso_label
_atom_site_aniso_U_11
_atom_site_aniso_U_22
_atom_site_aniso_U_33
_atom_site_aniso_U_23
_atom_site_aniso_U_13
_atom_site_aniso_U_12
Ni1 0.0376(3) 0.0376(3) 0.0295(3) -0.00495(16) 0.00495(16) 0.0112(3)
C1 0.105(4) 0.055(3) 0.039(2) 0.017(2) 0.033(3) 0.047(3)
C2 0.130(5) 0.056(3) 0.052(3) 0.012(2) 0.035(3) 0.064(3)
C3 0.101(4) 0.051(3) 0.033(2) 0.014(2) 0.028(3) 0.050(3)
C4 0.147(5) 0.069(3) 0.041(3) 0.024(2) 0.046(3) 0.078(4)
C5 0.107(4) 0.056(3) 0.044(2) 0.020(2) 0.033(3) 0.055(3)
C6 0.093(4) 0.060(3) 0.031(2) 0.008(2) 0.026(2) 0.053(3)
C7 0.082(5) 0.045(3) 0.064(4) 0.0126(18) 0.025(4) 0.041(2)
C8 0.039(3) 0.062(3) 0.054(3) 0.013(2) -0.024(2) -0.006(2)
C9 0.079(4) 0.069(3) 0.031(2) 0.003(2) -0.013(2) 0.002(3)
C10 0.041(2) 0.041(2) 0.042(3) 0.0050(17) -0.0050(17) 0.002(3)
C11 0.060(3) 0.057(3) 0.076(4) -0.019(3) -0.002(3) 0.027(3)
C12 0.098(5) 0.064(4) 0.127(5) -0.035(4) -0.051(4) 0.053(4)
C13 0.146(5) 0.115(4) 0.138(5) -0.004(3) -0.025(4) 0.080(4)
C14 0.251(8) 0.244(8) 0.250(8) -0.005(5) -0.010(5) 0.129(5)
N1 0.067(2) 0.036(2) 0.042(2) 0.0046(17) 0.0130(19) 0.0271(17)
N2 0.135(4) 0.048(2) 0.043(2) 0.0132(17) 0.034(2) 0.062(3)
N3 0.123(5) 0.047(2) 0.046(3) 0.0194(16) 0.039(3) 0.061(3)
N4 0.047(2) 0.047(2) 0.022(2) 0.0041(12) -0.0041(12) 0.007(2)
O1 0.0483(19) 0.0483(19) 0.075(3) 0.0035(14) -0.0035(14) 0.006(2)
O2 0.0426(17) 0.061(2) 0.0440(16) -0.0061(15) -0.0103(14) 0.0249(15)
O3 0.060(3) 0.071(3) 0.165(4) -0.003(3) -0.044(3) 0.017(2)

_geom_special_details            
;
All esds (except the esd in the dihedral angle between two l.s. planes)
are estimated using the full covariance matrix. The cell esds are taken
into account individually in the estimation of esds in distances, angles
and torsion angles; correlations between esds in cell parameters are only
used when they are defined by crystal symmetry. An approximate (isotropic)
treatment of cell esds is used for estimating esds involving l.s. planes.
;

loop_
_geom_bond_atom_site_label_1
_geom_bond_atom_site_label_2
_geom_bond_distance
_geom_bond_site_symmetry_2
_geom_bond_publ_flag
Ni1 O2 2.073(3) . ?
Ni1 O2 2.073(3) 4 ?
Ni1 N4 2.097(5) . ?
Ni1 O1 2.107(4) . ?
Ni1 N1 2.112(3) 4 ?
Ni1 N1 2.112(3) . ?
C1 N1 1.317(5) . ?
C1 C2 1.402(6) . ?
C1 H1 0.9300 . ?
C2 C3 1.359(6) . ?
C2 H2 0.9300 . ?
C3 C4 1.383(6) . ?
C3 C6 1.483(5) . ?
C4 C5 1.379(6) . ?
C4 H4 0.9300 . ?
C5 N1 1.325(5) . ?
C5 H5 0.9300 . ?
C6 N2 1.342(5) . ?
C6 N3 1.343(5) . ?
C7 N2 1.321(4) . ?
C7 N2 1.321(4) 5 ?
C7 C10 1.522(8) 3_565 ?
C8 N4 1.326(5) . ?
C8 C9 1.375(6) . ?
C8 H8 0.9300 . ?
C9 C10 1.361(5) . ?
C9 H9 0.9300 . ?
C10 C9 1.361(5) 4 ?
C10 C7 1.522(8) 2_664 ?
C11 O3 1.195(6) . ?
C11 O2 1.261(6) . ?
C11 C12 1.497(8) . ?
C12 C13 1.387(9) . ?
C12 C12 1.424(11) 5_554 ?
C13 C14 1.383(14) . ?
C13 H13 0.9300 . ?
C14 C14 1.60(2) 5_554 ?
C14 H14 0.9300 . ?
N3 C6 1.343(5) 5 ?
N4 C8 1.326(5) 4 ?

loop_
_geom_angle_atom_site_label_1
_geom_angle_atom_site_label_2
_geom_angle_atom_site_label_3
_geom_angle
_geom_angle_site_symmetry_1
_geom_angle_site_symmetry_3
_geom_angle_publ_flag
O2 Ni1 O2 175.87(17) . 4 ?
O2 Ni1 N4 87.94(9) . . ?
O2 Ni1 N4 87.94(9) 4 . ?
O2 Ni1 O1 92.06(9) . . ?
O2 Ni1 O1 92.06(9) 4 . ?
N4 Ni1 O1 180.0(3) . . ?
O2 Ni1 N1 91.24(12) . 4 ?
O2 Ni1 N1 88.81(12) 4 4 ?
N4 Ni1 N1 90.73(10) . 4 ?
O1 Ni1 N1 89.27(10) . 4 ?
O2 Ni1 N1 88.81(12) . . ?
O2 Ni1 N1 91.24(12) 4 . ?
N4 Ni1 N1 90.73(10) . . ?
O1 Ni1 N1 89.27(10) . . ?
N1 Ni1 N1 178.5(2) 4 . ?
N1 C1 C2 123.2(4) . . ?
N1 C1 H1 118.4 . . ?
C2 C1 H1 118.4 . . ?
C3 C2 C1 118.5(4) . . ?
C3 C2 H2 120.8 . . ?
C1 C2 H2 120.8 . . ?
C2 C3 C4 118.4(4) . . ?
C2 C3 C6 121.5(4) . . ?
C4 C3 C6 120.0(4) . . ?
C5 C4 C3 119.2(4) . . ?
C5 C4 H4 120.4 . . ?
C3 C4 H4 120.4 . . ?
N1 C5 C4 122.7(4) . . ?
N1 C5 H5 118.6 . . ?
C4 C5 H5 118.6 . . ?
N2 C6 N3 124.9(4) . . ?
N2 C6 C3 117.0(4) . . ?
N3 C6 C3 117.9(4) . . ?
N2 C7 N2 128.3(5) . 5 ?
N2 C7 C10 115.9(3) . 3_565 ?
N2 C7 C10 115.9(3) 5 3_565 ?
N4 C8 C9 124.0(4) . . ?
N4 C8 H8 118.0 . . ?
C9 C8 H8 118.0 . . ?
C10 C9 C8 119.1(5) . . ?
C10 C9 H9 120.5 . . ?
C8 C9 H9 120.5 . . ?
C9 C10 C9 118.2(6) . 4 ?
C9 C10 C7 120.9(3) . 2_664 ?
C9 C10 C7 120.9(3) 4 2_664 ?
O3 C11 O2 126.2(5) . . ?
O3 C11 C12 120.9(5) . . ?
O2 C11 C12 112.9(5) . . ?
C13 C12 C12 122.5(4) . 5_554 ?
C13 C12 C11 115.8(6) . . ?
C12 C12 C11 120.7(3) 5_554 . ?
C14 C13 C12 118.8(9) . . ?
C14 C13 H13 120.6 . . ?
C12 C13 H13 120.6 . . ?
C13 C14 C14 118.6(7) . 5_554 ?
C13 C14 H14 120.7 . . ?
C14 C14 H14 120.7 5_554 . ?
C1 N1 C5 117.8(3) . . ?
C1 N1 Ni1 120.9(3) . . ?
C5 N1 Ni1 121.2(3) . . ?
C7 N2 C6 113.4(4) . . ?
C6 N3 C6 114.9(5) . 5 ?
C8 N4 C8 115.7(5) 4 . ?
C8 N4 Ni1 122.1(2) 4 . ?
C8 N4 Ni1 122.1(2) . . ?
C11 O2 Ni1 130.1(3) . . ?

loop_
_geom_torsion_atom_site_label_1
_geom_torsion_atom_site_label_2
_geom_torsion_atom_site_label_3
_geom_torsion_atom_site_label_4
_geom_torsion
_geom_torsion_site_symmetry_1
_geom_torsion_site_symmetry_2
_geom_torsion_site_symmetry_3
_geom_torsion_site_symmetry_4
_geom_torsion_publ_flag
N1 C1 C2 C3 -0.4(9) . . . . ?
C1 C2 C3 C4 -1.9(9) . . . . ?
C1 C2 C3 C6 -177.3(5) . . . . ?
C2 C3 C4 C5 3.5(9) . . . . ?
C6 C3 C4 C5 178.9(5) . . . . ?
C3 C4 C5 N1 -2.8(9) . . . . ?
C2 C3 C6 N2 -3.6(8) . . . . ?
C4 C3 C6 N2 -178.9(6) . . . . ?
C2 C3 C6 N3 -179.5(5) . . . . ?
C4 C3 C6 N3 5.2(8) . . . . ?
N4 C8 C9 C10 1.2(9) . . . . ?
C8 C9 C10 C9 -0.6(4) . . . 4 ?
C8 C9 C10 C7 179.4(4) . . . 2_664 ?
O3 C11 C12 C13 125.3(7) . . . . ?
O2 C11 C12 C13 -56.3(8) . . . . ?
O3 C11 C12 C12 -44.0(11) . . . 5_554 ?
O2 C11 C12 C12 134.5(8) . . . 5_554 ?
C12 C12 C13 C14 -3.8(15) 5_554 . . . ?
C11 C12 C13 C14 -172.8(10) . . . . ?
C12 C13 C14 C14 -1(2) . . . 5_554 ?
C2 C1 N1 C5 1.1(8) . . . . ?
C2 C1 N1 Ni1 180.0(4) . . . . ?
C4 C5 N1 C1 0.5(8) . . . . ?
C4 C5 N1 Ni1 -178.3(4) . . . . ?
O2 Ni1 N1 C1 -34.5(4) . . . . ?
O2 Ni1 N1 C1 141.3(4) 4 . . . ?
N4 Ni1 N1 C1 53.4(4) . . . . ?
O1 Ni1 N1 C1 -126.6(4) . . . . ?
N1 Ni1 N1 C1 -126.6(4) 4 . . . ?
O2 Ni1 N1 C5 144.3(4) . . . . ?
O2 Ni1 N1 C5 -39.8(4) 4 . . . ?
N4 Ni1 N1 C5 -127.8(4) . . . . ?
O1 Ni1 N1 C5 52.2(4) . . . . ?
N1 Ni1 N1 C5 52.2(4) 4 . . . ?
N2 C7 N2 C6 1.9(4) 5 . . . ?
C10 C7 N2 C6 -178.1(4) 3_565 . . . ?
N3 C6 N2 C7 -4.1(8) . . . . ?
C3 C6 N2 C7 -179.7(4) . . . . ?
N2 C6 N3 C6 2.3(4) . . . 5 ?
C3 C6 N3 C6 177.8(6) . . . 5 ?
C9 C8 N4 C8 -0.6(5) . . . 4 ?
C9 C8 N4 Ni1 179.4(5) . . . . ?
O2 Ni1 N4 C8 150.9(3) . . . 4 ?
O2 Ni1 N4 C8 -29.1(3) 4 . . 4 ?
O1 Ni1 N4 C8 -64(100) . . . 4 ?
N1 Ni1 N4 C8 -117.9(3) 4 . . 4 ?
N1 Ni1 N4 C8 62.1(3) . . . 4 ?
O2 Ni1 N4 C8 -29.1(3) . . . . ?
O2 Ni1 N4 C8 150.9(3) 4 . . . ?
O1 Ni1 N4 C8 116(100) . . . . ?
N1 Ni1 N4 C8 62.1(3) 4 . . . ?
N1 Ni1 N4 C8 -117.9(3) . . . . ?
O3 C11 O2 Ni1 -3.2(8) . . . . ?
C12 C11 O2 Ni1 178.5(3) . . . . ?
O2 Ni1 O2 C11 179(100) 4 . . . ?
N4 Ni1 O2 C11 178.8(4) . . . . ?
O1 Ni1 O2 C11 -1.2(4) . . . . ?
N1 Ni1 O2 C11 88.2(4) 4 . . . ?
N1 Ni1 O2 C11 -90.4(4) . . . . ?

_diffrn_measured_fraction_theta_max 0.997
_diffrn_reflns_theta_full        25.00
_diffrn_measured_fraction_theta_full 0.997
_refine_diff_density_max         0.546
_refine_diff_density_min         -0.432
_refine_diff_density_rms         0.056
# SQUEEZE RESULTS (APPEND TO CIF)
# Note: Data are Listed for all Voids in the P1 Unit Cell
# i.e. Centre of Gravity, Solvent Accessible Volume,
# Recovered number of Electrons in the Void and
# Details about the Squeezed Material
loop_
_platon_squeeze_void_nr
_platon_squeeze_void_average_x
_platon_squeeze_void_average_y
_platon_squeeze_void_average_z
_platon_squeeze_void_volume
_platon_squeeze_void_count_electrons
_platon_squeeze_void_content
1 -0.018 0.474 0.832 2342 284 ' '
_platon_squeeze_details          
;
;
