####################################################################### 
# 
# This file contains crystal structure data downloaded from the 
# Cambridge Structural Database (CSD) hosted by the Cambridge 
# Crystallographic Data Centre (CCDC).
# 
# Full information about CCDC data access policies and citation 
# guidelines are available at http://www.ccdc.cam.ac.uk/access/V1 
# 
# Audit and citation data items may have been added by the CCDC. 
# Please retain this information to preserve the provenance of 
# this file and to allow appropriate attribution of the data. 
# 
#######################################################################

data_catenapb
_audit_block_doi                 10.5517/cc8x8n2
_database_code_depnum_ccdc_archive 'CCDC 265504'
_audit_update_record             
;
2005-03-07 deposited with the CCDC.	2024-07-10 downloaded from the CCDC.
;

_audit_creation_method           SHELXL-97
_chemical_name_systematic        
;
catena-bis(\m-paranitrophenolate)lead(II)
;
_chemical_name_common            ?
_chemical_melting_point          ?
_chemical_formula_moiety         'C12 H8 N2 O6 Pb'
_chemical_formula_sum            'C12 H8 N2 O6 Pb'
_chemical_formula_weight         483.39

loop_
_atom_type_symbol
_atom_type_description
_atom_type_scat_dispersion_real
_atom_type_scat_dispersion_imag
_atom_type_scat_source
C C 0.0033 0.0016 'International Tables Vol C Tables 4.2.6.8 and 6.1.1.4'
H H 0.0000 0.0000 'International Tables Vol C Tables 4.2.6.8 and 6.1.1.4'
N N 0.0061 0.0033 'International Tables Vol C Tables 4.2.6.8 and 6.1.1.4'
O O 0.0106 0.0060 'International Tables Vol C Tables 4.2.6.8 and 6.1.1.4'
Pb Pb -3.3944 10.1111 'International Tables Vol C Tables 4.2.6.8 and 6.1.1.4'

_symmetry_cell_setting           Monoclinic
_symmetry_space_group_name_H-M   C2/c
_symmetry_space_group_name_Hall  -C2yc

loop_
_symmetry_equiv_pos_as_xyz
'x, y, z'
'x, -y, z+1/2'
'x+1/2, y+1/2, z'
'x+1/2, -y+1/2, z+1/2'
'-x, -y, -z'
'-x, y, -z-1/2'
'-x+1/2, -y+1/2, -z'
'-x+1/2, y+1/2, -z-1/2'

_cell_length_a                   15.1153(12)
_cell_length_b                   15.3621(13)
_cell_length_c                   6.8134(5)
_cell_angle_alpha                90.00
_cell_angle_beta                 92.908(3)
_cell_angle_gamma                90.00
_cell_volume                     1580.1(2)
_cell_formula_units_Z            4
_cell_measurement_temperature    298(2)
_cell_measurement_reflns_used    3310
_cell_measurement_theta_min      2.65
_cell_measurement_theta_max      25.27

_exptl_crystal_description       Block
_exptl_crystal_colour            Yellow
_exptl_crystal_size_max          0.28
_exptl_crystal_size_mid          0.18
_exptl_crystal_size_min          0.15
_exptl_crystal_density_meas      ?
_exptl_crystal_density_diffrn    2.032
_exptl_crystal_density_method    'not measured'
_exptl_crystal_F_000             896
_exptl_absorpt_coefficient_mu    10.703
_exptl_absorpt_correction_type   Integration
_exptl_absorpt_correction_T_min  0.1535
_exptl_absorpt_correction_T_max  0.2966
_exptl_absorpt_process_details   'SADABS (Siemens, 1997)'

_diffrn_ambient_temperature      298(2)
_diffrn_radiation_wavelength     0.71073
_diffrn_radiation_type           MoK\a
_diffrn_radiation_source         'fine-focus sealed tube'
_diffrn_radiation_monochromator  graphite
_diffrn_measurement_device_type  'Bruker APEX area-detector diffractometer'
_diffrn_measurement_method       '600 frames, delta omega = 0.3 dgr'
_diffrn_detector_area_resol_mean ?
_diffrn_standards_number         0
_diffrn_standards_interval_count ?
_diffrn_standards_interval_time  0
_diffrn_standards_decay_%        0
_diffrn_reflns_number            4177
_diffrn_reflns_av_R_equivalents  0.0256
_diffrn_reflns_av_sigmaI/netI    0.0290
_diffrn_reflns_limit_h_min       -17
_diffrn_reflns_limit_h_max       18
_diffrn_reflns_limit_k_min       -12
_diffrn_reflns_limit_k_max       18
_diffrn_reflns_limit_l_min       -8
_diffrn_reflns_limit_l_max       8
_diffrn_reflns_theta_min         1.89
_diffrn_reflns_theta_max         25.27
_reflns_number_total             1433
_reflns_number_gt                1421
_reflns_threshold_expression     I>2sigma(I)

_computing_data_collection       'SMART (Siemens, 1997)'
_computing_cell_refinement       'SAINT (Siemens, 1997)'
_computing_data_reduction        'SAINT (Siemens, 1997)'
_computing_structure_solution    'SHELXS-97 (Sheldrick, 1997)'
_computing_structure_refinement  'SHELXL-97 (Sheldrick, 1997)'
_computing_molecular_graphics    'ORTEP-II (Johnson, 1976)'
_computing_publication_material  'SHELXL-97 (Sheldrick, 1997)'

_refine_special_details          
;
Refinement of F^2^ against ALL reflections. The weighted R-factor wR and
goodness of fit S are based on F^2^, conventional R-factors R are based
on F, with F set to zero for negative F^2^. The threshold expression of
F^2^ > 2sigma(F^2^) is used only for calculating R-factors(gt) etc. and is
not relevant to the choice of reflections for refinement. R-factors based
on F^2^ are statistically about twice as large as those based on F, and R-
factors based on ALL data will be even larger.
;

_refine_ls_structure_factor_coef Fsqd
_refine_ls_matrix_type           full
_refine_ls_weighting_scheme      calc
_refine_ls_weighting_details     
'calc w=1/[\s^2^(Fo^2^)+(0.0540P)^2^+19.6720P] where P=(Fo^2^+2Fc^2^)/3'
_atom_sites_solution_primary     direct
_atom_sites_solution_secondary   difmap
_atom_sites_solution_hydrogens   geom
_refine_ls_hydrogen_treatment    mixed
_refine_ls_extinction_method     none
_refine_ls_extinction_coef       ?
_refine_ls_number_reflns         1433
_refine_ls_number_parameters     96
_refine_ls_number_restraints     0
_refine_ls_R_factor_all          0.0409
_refine_ls_R_factor_gt           0.0406
_refine_ls_wR_factor_ref         0.1288
_refine_ls_wR_factor_gt          0.1286
_refine_ls_goodness_of_fit_ref   1.497
_refine_ls_restrained_S_all      1.497
_refine_ls_shift/su_max          0.000
_refine_ls_shift/su_mean         0.000

loop_
_atom_site_label
_atom_site_type_symbol
_atom_site_fract_x
_atom_site_fract_y
_atom_site_fract_z
_atom_site_U_iso_or_equiv
_atom_site_adp_type
_atom_site_occupancy
_atom_site_symmetry_multiplicity
_atom_site_Wyckoff_symbol
_atom_site_calc_flag
_atom_site_refinement_flags
_atom_site_disorder_assembly
_atom_site_disorder_group
Pb1 Pb 0.0000 0.43157(3) 0.2500 0.0291(2) Uani 1 4 e d S . .
O1 O 0.0703(6) 0.5438(6) 0.0877(13) 0.045(2) Uani 1 8 f d . . .
O2 O 0.4085(7) 0.7494(8) 0.3602(17) 0.067(3) Uani 1 8 f d . . .
O3 O 0.3200(7) 0.8565(6) 0.2942(16) 0.060(3) Uani 1 8 f d . . .
N1 N 0.3346(8) 0.7785(7) 0.3094(15) 0.047(3) Uani 1 8 f d . . .
C1 C 0.1324(8) 0.5992(8) 0.1540(16) 0.037(3) Uani 1 8 f d . . .
C2 C 0.2156(10) 0.5696(8) 0.223(2) 0.052(4) Uani 1 8 f d . . .
H2 H 0.2269 0.5101 0.2301 0.063 Uiso 1 8 f calc R . .
C3 C 0.2807(9) 0.6279(10) 0.279(2) 0.054(4) Uani 1 8 f d . . .
H3 H 0.3356 0.6080 0.3281 0.065 Uiso 1 8 f calc R . .
C4 C 0.2643(8) 0.7169(8) 0.2641(17) 0.039(3) Uani 1 8 f d . . .
C5 C 0.1821(9) 0.7465(8) 0.2024(18) 0.043(3) Uani 1 8 f d . . .
H5 H 0.1711 0.8061 0.1970 0.051 Uiso 1 8 f calc R . .
C6 C 0.1150(9) 0.6883(8) 0.1481(18) 0.041(3) Uani 1 8 f d . . .
H6 H 0.0590 0.7086 0.1081 0.049 Uiso 1 8 f calc R . .

loop_
_atom_site_aniso_label
_atom_site_aniso_U_11
_atom_site_aniso_U_22
_atom_site_aniso_U_33
_atom_site_aniso_U_23
_atom_site_aniso_U_13
_atom_site_aniso_U_12
Pb1 0.0262(3) 0.0246(3) 0.0361(4) 0.000 -0.0015(2) 0.000
O1 0.038(5) 0.048(5) 0.047(5) 0.004(4) -0.010(4) -0.020(4)
O2 0.039(6) 0.071(7) 0.090(8) -0.005(6) 0.000(5) -0.018(5)
O3 0.066(7) 0.037(5) 0.079(7) -0.012(5) 0.014(5) -0.023(5)
N1 0.053(7) 0.049(7) 0.041(5) -0.008(5) 0.010(5) -0.020(5)
C1 0.037(6) 0.040(6) 0.034(6) 0.004(5) 0.001(5) -0.013(5)
C2 0.049(8) 0.034(7) 0.073(10) 0.008(6) -0.020(7) -0.011(5)
C3 0.039(7) 0.059(9) 0.062(8) 0.009(7) -0.014(6) -0.014(6)
C4 0.038(6) 0.037(6) 0.042(6) -0.002(5) 0.000(5) -0.017(5)
C5 0.052(8) 0.036(6) 0.041(6) -0.005(5) 0.011(5) -0.007(6)
C6 0.041(7) 0.034(6) 0.047(6) -0.001(5) -0.001(5) -0.006(5)

_geom_special_details            
;
All esds (except the esd in the dihedral angle between two l.s. planes)
are estimated using the full covariance matrix. The cell esds are taken
into account individually in the estimation of esds in distances, angles
and torsion angles; correlations between esds in cell parameters are only
used when they are defined by crystal symmetry. An approximate (isotropic)
treatment of cell esds is used for estimating esds involving l.s. planes.
;

loop_
_geom_bond_atom_site_label_1
_geom_bond_atom_site_label_2
_geom_bond_distance
_geom_bond_site_symmetry_2
_geom_bond_publ_flag
Pb1 O1 2.333(8) 6_556 ?
Pb1 O1 2.333(8) . ?
Pb1 O1 2.514(8) 2_565 ?
Pb1 O1 2.514(8) 5_565 ?
O1 C1 1.329(15) . ?
O1 Pb1 2.514(8) 5_565 ?
O2 N1 1.237(16) . ?
O3 N1 1.222(15) . ?
N1 C4 1.444(15) . ?
C1 C6 1.394(17) . ?
C1 C2 1.396(19) . ?
C2 C3 1.372(19) . ?
C2 H2 0.9300 . ?
C3 C4 1.39(2) . ?
C3 H3 0.9300 . ?
C4 C5 1.369(19) . ?
C5 C6 1.388(17) . ?
C5 H5 0.9300 . ?
C6 H6 0.9300 . ?

loop_
_geom_angle_atom_site_label_1
_geom_angle_atom_site_label_2
_geom_angle_atom_site_label_3
_geom_angle
_geom_angle_site_symmetry_1
_geom_angle_site_symmetry_3
_geom_angle_publ_flag
O1 Pb1 O1 84.7(5) 6_556 . ?
O1 Pb1 O1 68.7(3) 6_556 2_565 ?
O1 Pb1 O1 98.1(3) . 2_565 ?
O1 Pb1 O1 98.1(3) 6_556 5_565 ?
O1 Pb1 O1 68.7(3) . 5_565 ?
O1 Pb1 O1 162.7(4) 2_565 5_565 ?
C1 O1 Pb1 130.0(7) . . ?
C1 O1 Pb1 118.2(7) . 5_565 ?
Pb1 O1 Pb1 111.3(3) . 5_565 ?
O3 N1 O2 122.3(11) . . ?
O3 N1 C4 119.8(12) . . ?
O2 N1 C4 117.9(11) . . ?
O1 C1 C6 119.4(12) . . ?
O1 C1 C2 120.9(12) . . ?
C6 C1 C2 119.7(11) . . ?
C3 C2 C1 120.2(12) . . ?
C3 C2 H2 119.9 . . ?
C1 C2 H2 119.9 . . ?
C2 C3 C4 119.9(13) . . ?
C2 C3 H3 120.1 . . ?
C4 C3 H3 120.1 . . ?
C5 C4 C3 120.3(11) . . ?
C5 C4 N1 119.6(11) . . ?
C3 C4 N1 120.1(11) . . ?
C4 C5 C6 120.4(12) . . ?
C4 C5 H5 119.8 . . ?
C6 C5 H5 119.8 . . ?
C5 C6 C1 119.4(12) . . ?
C5 C6 H6 120.3 . . ?
C1 C6 H6 120.3 . . ?

_diffrn_measured_fraction_theta_max 0.997
_diffrn_reflns_theta_full        25.27
_diffrn_measured_fraction_theta_full 0.997
_refine_diff_density_max         1.998
_refine_diff_density_min         -1.879
_refine_diff_density_rms         0.301


