
#######################################################################
#
#                 Cambridge Crystallographic Data Centre
#                                CCDC
#
#######################################################################
#
# If this CIF has been generated from an entry in the Cambridge
# Structural Database, then it will include bibliographic, chemical,
# crystal, experimental, refinement or atomic coordinate data resulting
# from the CCDC's data processing and validation procedures.
#
#######################################################################

data_CSD_CIF_FIRTIJ
_audit_creation_date 1988-03-22
_audit_creation_method CSD-ConQuest-V1
_database_code_CSD FIRTIJ
_database_code_depnum_ccdc_archive 'CCDC 1157023'
_chemical_formula_sum 'C12 H28 I2 O6 Sm1'
_chemical_formula_moiety
;
C12 H28 I2 O6 Sm1
;
_journal_coden_Cambridge 9
_journal_volume 26
_journal_year 1987
_journal_page_first 1821
_journal_name_full 'Inorg.Chem. '
loop_
_publ_author_name
"A.Sen"
"V.Chebolu"
"A.L.Rheingold"
_chemical_name_systematic
;
cis-Di-iodo-bis(2,5,8-trioxanonane-O,O',O'')-samarium
;
_chemical_name_common
;
Teaching Subset: Fundamental Chemistry
;
_cell_volume   4367.805
_exptl_crystal_colour 'deep red'
_exptl_crystal_density_diffrn 2.045
_diffrn_ambient_temperature ?
_diffrn_special_details
;
The study was carried out at room temperature,in the range 283-303K

;
#These two values have been output from a single CSD field.
_refine_ls_R_factor_gt 0.0385
_refine_ls_wR_factor_gt 0.0385
loop_
_citation_database_id_CSD
_citation_special_details
DIRYUY "is a stereoisomer of this entry"
_symmetry_cell_setting orthorhombic
_symmetry_space_group_name_H-M 'P b c a'
_symmetry_Int_Tables_number 61
loop_
_symmetry_equiv_pos_site_id
_symmetry_equiv_pos_as_xyz
1 x,y,z
2 1/2-x,-y,1/2+z
3 1/2+x,1/2-y,-z
4 -x,1/2+y,1/2-z
5 -x,-y,-z
6 -1/2+x,y,-1/2-z
7 -1/2-x,-1/2+y,z
8 x,-1/2-y,-1/2+z
_cell_length_a 15.414(5)
_cell_length_b 14.261(3)
_cell_length_c 19.870(6)
_cell_angle_alpha 90
_cell_angle_beta 90
_cell_angle_gamma 90
_cell_formula_units_Z 8
loop_
_atom_type_symbol
_atom_type_radius_bond
C 0.68
H 0.23
I 1.40
O 0.68
Sm 1.80
loop_
_atom_site_label
_atom_site_type_symbol
_atom_site_fract_x
_atom_site_fract_y
_atom_site_fract_z
I1 I 0.59875(7) 0.21465(8) -0.03550(5)
I2 I 0.64549(8) 0.41039(8) 0.15695(6)
Sm1 Sm 0.49473(4) 0.25757(5) 0.10763(3)
O1 O 0.4265(6) 0.4143(7) 0.0538(5)
O2 O 0.3611(6) 0.2448(8) 0.0240(5)
O3 O 0.3970(7) 0.1038(7) 0.1075(6)
O4 O 0.5977(7) 0.1158(8) 0.1490(6)
O5 O 0.5071(7) 0.2114(7) 0.2385(5)
O6 O 0.3725(7) 0.3142(7) 0.1945(5)
C1 C 0.4291(11) 0.5047(11) 0.0832(10)
C2 C 0.3580(11) 0.4097(11) 0.0057(8)
C3 C 0.3585(11) 0.3161(13) -0.0264(8)
C4 C 0.3443(11) 0.1512(12) 0.0010(9)
C5 C 0.3260(11) 0.0928(13) 0.0602(11)
C6 C 0.3858(12) 0.0420(12) 0.1644(10)
C7 C 0.6159(14) 0.0358(14) 0.1099(10)
C8 C 0.6187(14) 0.1017(15) 0.216(1)
C9 C 0.5892(13) 0.1773(13) 0.2571(10)
C10 C 0.4656(15) 0.2788(15) 0.2823(6)
C11 C 0.3805(13) 0.2917(15) 0.2626(8)
C12 C 0.2854(11) 0.3253(18) 0.1754(9)
H1 H 0.47560 0.50650 0.11530
H2 H 0.37520 0.51710 0.10570
H3 H 0.43880 0.55130 0.04920
H4 H 0.30340 0.41930 0.02780
H5 H 0.36610 0.45710 -0.02810
H6 H 0.40920 0.31060 -0.05420
H7 H 0.30750 0.30800 -0.05360
H8 H 0.29740 0.15090 -0.03080
H9 H 0.39580 0.12760 -0.02010
H10 H 0.31890 0.02830 0.04750
H11 H 0.27340 0.11520 0.08060
H12 H 0.43400 0.04940 0.19450
H13 H 0.38300 -0.02190 0.14930
H14 H 0.33310 0.06790 0.18740
H15 H 0.59990 0.04750 0.06400
H16 H 0.58400 -0.01710 0.12660
H17 H 0.67690 0.02290 0.11230
H18 H 0.59200 0.04520 0.23220
H19 H 0.68060 0.09650 0.21980
H20 H 0.63010 0.22770 0.25280
H21 H 0.56630 0.15790 0.30330
H22 H 0.49320 0.33860 0.27650
H23 H 0.47140 0.25910 0.32830
H24 H 0.35400 0.23120 0.26810
H25 H 0.35150 0.33650 0.29070
H26 H 0.28180 0.34440 0.12910
H27 H 0.25780 0.37130 0.20330
H28 H 0.25690 0.26590 0.18090
#END
