####################################################################### 
# 
# This file contains crystal structure data downloaded from the 
# Cambridge Structural Database (CSD) hosted by the Cambridge 
# Crystallographic Data Centre (CCDC).
# 
# Full information about CCDC data access policies and citation 
# guidelines are available at http://www.ccdc.cam.ac.uk/access/V1 
# 
# Audit and citation data items may have been added by the CCDC. 
# Please retain this information to preserve the provenance of 
# this file and to allow appropriate attribution of the data. 
# 
#######################################################################

data_kagomeN3
_audit_block_doi                 10.5517/cc11nwq9
_database_code_depnum_ccdc_archive 'CCDC 973391'
loop_
_citation_id
_citation_doi
_citation_year
1 10.1126/science.1246423 2014
_audit_update_record             
;
2013-11-23 deposited with the CCDC.	2024-07-10 downloaded from the CCDC.
;

#==============================================================================
# CHEMICAL DATA

_chemical_formula_sum            'C8 H3 Cu N3 O5'
_chemical_formula_moiety         'C8 H3 Cu N3 O5'
_chemical_formula_weight         284.67
_chemical_melting_point          ?

#==============================================================================
# CRYSTAL DATA
_symmetry_cell_setting           trigonal
_symmetry_space_group_name_H-M   'P -3 m 1'
_symmetry_space_group_name_Hall  '-P 3 2"'
_symmetry_Int_Tables_number      164
loop_
_symmetry_equiv_pos_site_id
_symmetry_equiv_pos_as_xyz
1 +X,+Y,+Z
2 -Y,+X-Y,+Z
3 -X+Y,-X,+Z
4 -X+Y,+Y,+Z
5 +X,+X-Y,+Z
6 -Y,-X,+Z
7 -X,-Y,-Z
8 +Y,-X+Y,-Z
9 +X-Y,+X,-Z
10 +X-Y,-Y,-Z
11 -X,-X+Y,-Z
12 +Y,+X,-Z
#------------------------------------------------------------------------------
_cell_length_a                   18.550(3)
_cell_length_b                   18.550(3)
_cell_length_c                   6.7262(8)
_cell_angle_alpha                90.0000
_cell_angle_beta                 90.0000
_cell_angle_gamma                120.0000
_cell_volume                     2004.5(5)
_cell_formula_units_Z            6
_cell_measurement_reflns_used    6537
_cell_measurement_theta_min      2.20
_cell_measurement_theta_max      31.33
_cell_measurement_temperature    113
#------------------------------------------------------------------------------
_exptl_crystal_description       'hexagonal plate'
_exptl_crystal_colour            blue
_exptl_crystal_size_max          0.050
_exptl_crystal_size_mid          0.050
_exptl_crystal_size_min          0.020
_exptl_crystal_density_diffrn    1.415
_exptl_crystal_density_meas      ?
_exptl_crystal_density_method    'not measured'
_exptl_crystal_F_000             846.00
_exptl_absorpt_coefficient_mu    1.645
_exptl_absorpt_correction_type   multi-scan
_exptl_absorpt_process_details   'REQAB (Rigaku, 1998)'
_exptl_absorpt_correction_T_min  0.890
_exptl_absorpt_correction_T_max  0.968

#==============================================================================
# EXPERIMENTAL DATA

_diffrn_ambient_temperature      113
_diffrn_radiation_type           'Mo K\a'
_diffrn_radiation_wavelength     0.71075
_diffrn_measurement_device_type  'Rigaku Saturn724'
_diffrn_measurement_method       \w
_diffrn_detector_area_resol_mean 7.111
_diffrn_reflns_number            16839
_diffrn_reflns_av_R_equivalents  0.0312
_diffrn_reflns_theta_max         27.50
_diffrn_reflns_theta_full        27.50
_diffrn_measured_fraction_theta_max 0.998
_diffrn_measured_fraction_theta_full 0.998
_diffrn_reflns_limit_h_min       -24
_diffrn_reflns_limit_h_max       23
_diffrn_reflns_limit_k_min       -16
_diffrn_reflns_limit_k_max       24
_diffrn_reflns_limit_l_min       -8
_diffrn_reflns_limit_l_max       8
_diffrn_standards_number         0
_diffrn_standards_interval_count .
_diffrn_standards_decay_%        ?

#==============================================================================
# REFINEMENT DATA

_refine_special_details          
;
    Refinement was performed using all reflections. The weighted 
    R-factor (wR) and goodness of fit (S) are based on F^2^.
    R-factor (gt) are based on F. The threshold expression of
    F^2^ > 2.0 sigma(F^2^) is used only for calculating R-factor (gt).
;
_reflns_number_total             1690
_reflns_number_gt                1574
_reflns_threshold_expression     F^2^>2.0\s(F^2^)
_refine_ls_structure_factor_coef Fsqd
_refine_ls_R_factor_gt           0.0523
_refine_ls_wR_factor_ref         0.1777
_refine_ls_number_restraints     0
_refine_ls_hydrogen_treatment    constr
_refine_ls_number_reflns         1689
_refine_ls_number_parameters     94
_refine_ls_goodness_of_fit_ref   1.565
_refine_ls_weighting_scheme      calc
_refine_ls_weighting_details     
'w = 1/[\s^2^(Fo^2^)+(0.1000P)^2^+0.0000P] where P=(Fo^2^+2Fc^2^)/3'
_atom_sites_solution_hydrogens   geom
_atom_sites_solution_primary     direct
_atom_sites_solution_secondary   difmap
_refine_ls_shift/su_max          0.000
_refine_diff_density_max         3.780
_refine_diff_density_min         -0.570
_refine_ls_extinction_method     none
_refine_ls_extinction_coef       ?

# SQUEEZE RESULTS (APPEND TO CIF)
# Note: Data are Listed for all Voids in the P1 Unit Cell
# i.e. Centre of Gravity, Solvent Accessible Volume,
# Recovered number of Electrons in the Void and
# Details about the Squeezed Material
loop_
_platon_squeeze_void_nr
_platon_squeeze_void_average_x
_platon_squeeze_void_average_y
_platon_squeeze_void_average_z
_platon_squeeze_void_volume
_platon_squeeze_void_count_electrons
_platon_squeeze_void_content
1 0.000 0.000 -0.026 344 72 ' '
2 0.333 0.667 -0.004 128 28 ' '
3 0.667 0.333 -0.049 128 29 ' '
_platon_squeeze_details          
;
;

loop_
_atom_type_symbol
_atom_type_description
_atom_type_scat_dispersion_real
_atom_type_scat_dispersion_imag
_atom_type_scat_source
C C 0.0033 0.0016
;
International Tables for Crystallography
(1992, Vol. C, Tables 4.2.6.8 and 6.1.1.4)
;
H H 0.0000 0.0000
;
International Tables for Crystallography
(1992, Vol. C, Table 6.1.1.4)
;
N N 0.0061 0.0033
;
International Tables for Crystallography
(1992, Vol. C, Tables 4.2.6.8 and 6.1.1.4)
;
O O 0.0106 0.0060
;
International Tables for Crystallography
(1992, Vol. C, Tables 4.2.6.8 and 6.1.1.4)
;
Cu Cu 0.3201 1.2651
;
International Tables for Crystallography
(1992, Vol. C, Tables 4.2.6.8 and 6.1.1.4)
;

#==============================================================================
# ATOMIC COORDINATES AND THERMAL PARAMETERS

loop_
_atom_site_label
_atom_site_type_symbol
_atom_site_fract_x
_atom_site_fract_y
_atom_site_fract_z
_atom_site_U_iso_or_equiv
_atom_site_adp_type
_atom_site_occupancy
_atom_site_symmetry_multiplicity
_atom_site_calc_flag
_atom_site_refinement_flags
_atom_site_disorder_assembly
_atom_site_disorder_group
Cu1 Cu 0.523614(13) 1.04723(3) 0.65541(6) 0.0120(3) Uani 1.0 6 d . . .
O1 O 0.56126(9) 1.12252(18) 0.9162(5) 0.0212(7) Uani 1.0 6 d . . .
O2 O 0.41133(14) 0.96997(16) 0.7540(4) 0.0325(6) Uani 1.0 12 d . . .
O3 O 0.37151(17) 0.89110(16) 0.4878(4) 0.0453(9) Uani 1.0 12 d . . .
N1 N 0.16456(12) 0.83544(12) 1.2235(6) 0.0230(8) Uani 1.0 6 d . . .
N2 N 0.2080(4) 0.9067(4) 1.2864(8) 0.0241(11) Uani 0.5000 12 d . . .
N3 N 0.2415(4) 0.9694(4) 1.3648(10) 0.0389(15) Uani 0.5000 12 d . . .
C1 C 0.27707(18) 0.85282(16) 0.7530(5) 0.0149(6) Uani 1.0 12 d . . .
C2 C 0.25957(18) 0.87175(17) 0.9403(4) 0.0176(6) Uani 1.0 12 d . . .
C3 C 0.18355(13) 0.81645(13) 1.0322(7) 0.0187(9) Uani 1.0 6 d . . .
C4 C 0.22103(11) 0.77897(11) 0.6567(6) 0.0142(8) Uani 1.0 6 d . . .
C5 C 0.35982(17) 0.90924(16) 0.6558(4) 0.0149(6) Uani 1.0 12 d . . .
H2 H 0.2986 0.9216 1.0056 0.0211 Uiso 1.0 12 calc R . .
H4 H 0.2330 0.7670 0.5274 0.0171 Uiso 1.0 6 calc R . .


loop_
_atom_site_aniso_label
_atom_site_aniso_U_11
_atom_site_aniso_U_22
_atom_site_aniso_U_33
_atom_site_aniso_U_12
_atom_site_aniso_U_13
_atom_site_aniso_U_23
Cu1 0.0119(3) 0.0078(4) 0.0149(4) 0.00390(16) -0.00023(7) -0.00046(14)
O1 0.0239(12) 0.0187(15) 0.0193(14) 0.0094(7) -0.0026(6) -0.0051(11)
O2 0.0149(11) 0.0365(14) 0.0246(12) -0.0033(10) 0.0029(9) -0.0135(10)
O3 0.0307(14) 0.0320(14) 0.0331(14) -0.0145(11) 0.0198(11) -0.0189(11)
N1 0.0225(13) 0.0225(13) 0.0171(17) 0.0061(16) 0.0039(7) -0.0039(7)
N2 0.022(3) 0.029(3) 0.020(3) 0.012(3) 0.005(2) -0.006(3)
N3 0.034(4) 0.032(4) 0.039(4) 0.008(3) 0.004(3) -0.013(3)
C1 0.0146(14) 0.0113(12) 0.0192(13) 0.0068(10) 0.0019(11) 0.0009(10)
C2 0.0158(14) 0.0149(13) 0.0189(14) 0.0053(11) -0.0018(10) -0.0032(10)
C3 0.0193(15) 0.0193(15) 0.019(2) 0.0108(17) 0.0019(8) -0.0019(8)
C4 0.0141(13) 0.0141(13) 0.0140(17) 0.0067(16) 0.0001(7) -0.0001(7)
C5 0.0121(13) 0.0097(12) 0.0197(13) 0.0028(11) -0.0012(10) 0.0008(10)

#==============================================================================
_computing_data_collection       'CrystalClear (Rigaku Inc., 2008)'
_computing_cell_refinement       CrystalClear
_computing_data_reduction        CrystalClear
_computing_structure_solution    'Il Milione (Burla, et al., 2007)'
_computing_structure_refinement  'SHELXL97 (Sheldrick, 2008)'
_computing_publication_material  'CrystalStructure 4.0 (Rigaku, 2010)'
_computing_molecular_graphics    'CrystalStructure 4.0'

#==============================================================================
# MOLECULAR GEOMETRY

_geom_special_details            
;
    ENTER SPECIAL DETAILS OF THE MOLECULAR GEOMETRY
;

loop_
_geom_bond_atom_site_label_1
_geom_bond_atom_site_label_2
_geom_bond_distance
_geom_bond_publ_flag
_geom_bond_site_symmetry_1
_geom_bond_site_symmetry_2
Cu1 Cu1 2.5833(7) yes . 7_676
Cu1 O1 2.131(3) yes . .
Cu1 O2 1.961(2) yes . .
Cu1 O2 1.962(3) yes . 4_555
Cu1 O3 1.948(3) yes . 7_676
Cu1 O3 1.948(3) yes . 10_676
O2 C5 1.242(4) yes . .
O3 C5 1.229(4) yes . .
N1 N2 1.230(6) yes . .
N1 N2 1.230(6) yes . 6_665
N1 C3 1.424(6) yes . .
N2 N3 1.137(9) yes . .
C1 C2 1.389(5) yes . .
C1 C4 1.398(4) yes . .
C1 C5 1.507(4) yes . .
C2 C3 1.406(4) yes . .
C2 H2 0.950 no . .
C4 H4 0.950 no . .

loop_
_geom_angle_atom_site_label_1
_geom_angle_atom_site_label_2
_geom_angle_atom_site_label_3
_geom_angle
_geom_angle_publ_flag
_geom_angle_site_symmetry_1
_geom_angle_site_symmetry_2
_geom_angle_site_symmetry_3
Cu1 Cu1 O1 178.62(8) yes 7_676 . .
Cu1 Cu1 O2 84.38(8) yes 7_676 . .
Cu1 Cu1 O2 84.38(8) yes 7_676 . 4_555
Cu1 Cu1 O3 84.19(8) yes 7_676 . 7_676
Cu1 Cu1 O3 84.19(8) yes 7_676 . 10_676
O1 Cu1 O2 94.63(9) yes . . .
O1 Cu1 O2 94.63(12) yes . . 4_555
O1 Cu1 O3 96.79(9) yes . . 7_676
O1 Cu1 O3 96.79(12) yes . . 10_676
O2 Cu1 O2 88.30(14) yes . . 4_555
O2 Cu1 O3 168.54(11) yes . . 7_676
O2 Cu1 O3 89.88(14) yes . . 10_676
O2 Cu1 O3 89.88(15) yes 4_555 . 7_676
O2 Cu1 O3 168.54(11) yes 4_555 . 10_676
O3 Cu1 O3 89.66(15) yes 7_676 . 10_676
Cu1 O2 C5 122.5(3) yes . . .
Cu1 O3 C5 123.70(19) yes 7_676 . .
N2 N1 N2 119.9(5) yes . . 6_665
N2 N1 C3 117.8(3) yes . . .
N2 N1 C3 117.8(3) yes 6_665 . .
N1 N2 N3 171.2(7) yes . . .
C2 C1 C4 121.0(3) yes . . .
C2 C1 C5 120.2(3) yes . . .
C4 C1 C5 118.7(3) yes . . .
C1 C2 C3 119.4(3) yes . . .
N1 C3 C2 119.9(3) yes . . .
N1 C3 C2 119.9(3) yes . . 6_665
C2 C3 C2 120.1(4) yes . . 6_665
C1 C4 C1 119.1(3) yes . . 6_665
O2 C5 O3 125.2(3) yes . . .
O2 C5 C1 117.0(3) yes . . .
O3 C5 C1 117.8(3) yes . . .
C1 C2 H2 120.324 no . . .
C3 C2 H2 120.324 no . . .
C1 C4 H4 120.452 no . . .
C1 C4 H4 120.452 no 6_665 . .

loop_
_geom_torsion_atom_site_label_1
_geom_torsion_atom_site_label_2
_geom_torsion_atom_site_label_3
_geom_torsion_atom_site_label_4
_geom_torsion
_geom_torsion_publ_flag
_geom_torsion_site_symmetry_1
_geom_torsion_site_symmetry_2
_geom_torsion_site_symmetry_3
_geom_torsion_site_symmetry_4
Cu1 Cu1 O2 C5 0.0 no 7_676 . . .
O2 Cu1 Cu1 O2 180.0 no . . 7_676 7_676
O2 Cu1 Cu1 O2 91.2 no . . 7_676 10_676
O2 Cu1 Cu1 O3 0.7 no . . 7_676 .
O2 Cu1 Cu1 O3 -89.5 no . . 7_676 4_555
Cu1 Cu1 O2 C5 -0.0 no 7_676 . 4_555 4_555
O2 Cu1 Cu1 O2 -91.2 no 4_555 . 7_676 7_676
O2 Cu1 Cu1 O2 180.0 no 4_555 . 7_676 10_676
O2 Cu1 Cu1 O3 89.5 no 4_555 . 7_676 .
O2 Cu1 Cu1 O3 -0.7 no 4_555 . 7_676 4_555
Cu1 Cu1 O3 C5 1.8 no 7_676 . 7_676 7_676
O3 Cu1 Cu1 O2 -0.7 no 7_676 . 7_676 7_676
O3 Cu1 Cu1 O2 -89.5 no 7_676 . 7_676 10_676
O3 Cu1 Cu1 O3 180.0 no 7_676 . 7_676 .
O3 Cu1 Cu1 O3 89.7 no 7_676 . 7_676 4_555
Cu1 Cu1 O3 C5 -1.8 no 7_676 . 10_676 10_676
O3 Cu1 Cu1 O2 89.5 no 10_676 . 7_676 7_676
O3 Cu1 Cu1 O2 0.7 no 10_676 . 7_676 10_676
O3 Cu1 Cu1 O3 -89.7 no 10_676 . 7_676 .
O3 Cu1 Cu1 O3 180.0 no 10_676 . 7_676 4_555
O1 Cu1 O2 C5 -179.0 no . . . .
O1 Cu1 O2 C5 179.0 no . . 4_555 4_555
O1 Cu1 O3 C5 -179.2 no . . 7_676 7_676
O1 Cu1 O3 C5 179.2 no . . 10_676 10_676
O2 Cu1 O2 C5 84.5 no . . 4_555 4_555
O2 Cu1 O2 C5 -84.5 no 4_555 . . .
O2 Cu1 O3 C5 -86.1 no . . 10_676 10_676
O3 Cu1 O2 C5 84.2 no 10_676 . . .
O2 Cu1 O3 C5 86.1 no 4_555 . 7_676 7_676
O3 Cu1 O2 C5 -84.2 no 7_676 . 4_555 4_555
O3 Cu1 O3 C5 82.4 no 7_676 . 10_676 10_676
O3 Cu1 O3 C5 -82.4 no 10_676 . 7_676 7_676
Cu1 O2 C5 O3 -1.5 no . . . .
Cu1 O2 C5 C1 177.5 no . . . .
Cu1 O3 C5 O2 2.5 no 7_676 . . .
Cu1 O3 C5 C1 -176.4 no 7_676 . . .
N2 N1 C3 C2 13.5 no . . . .
N2 N1 C3 C2 -169.9 no . . . 6_665
N2 N1 C3 C2 169.9 no 6_665 . . .
N2 N1 C3 C2 -13.5 no 6_665 . . 6_665
C2 C1 C4 C1 -1.3 no . . . 6_665
C4 C1 C2 C3 -1.3 no . . . .
C2 C1 C5 O2 3.0 no . . . .
C2 C1 C5 O3 -178.0 no . . . .
C5 C1 C2 C3 -177.2 no . . . .
C4 C1 C5 O2 -173.0 no . . . .
C4 C1 C5 O3 6.0 no . . . .
C5 C1 C4 C1 174.7 no . . . 6_665
C1 C2 C3 N1 -179.5 no . . . .
C1 C2 C3 C2 3.9 no . . . 6_665

loop_
_geom_contact_atom_site_label_1
_geom_contact_atom_site_label_2
_geom_contact_distance
_geom_contact_publ_flag
_geom_contact_site_symmetry_1
_geom_contact_site_symmetry_2
Cu1 C5 2.830(3) no . 4_555
Cu1 C5 2.822(3) no . 10_676
O2 O2 3.551(4) no . 10_676
O2 O3 3.510(5) no . 4_555
O2 C2 2.772(4) no . .
O2 C4 3.597(3) no . .
O2 C5 3.340(5) no . 4_555
O2 C5 3.394(4) no . 10_676
O3 O3 3.503(4) no . 10_676
O3 C4 2.757(4) no . .
O3 C5 3.343(5) no . 4_555
O3 C5 3.372(4) no . 10_676
N1 N3 2.360(7) no . 6_665
N2 N3 3.102(7) no . 6_665
N2 C2 2.716(7) no . .
N2 C2 3.544(7) no . 6_665
N3 C2 3.486(8) no . .
N3 C3 3.341(8) no . .
C1 C2 2.793(4) no . 6_665
C3 C4 2.798(6) no . .
C4 C5 2.499(3) no . 6_665
C5 C5 3.517(5) no . 4_555
C5 C5 3.591(4) no . 10_676
O1 O2 2.999(5) no . 7_677
O1 O2 2.999(4) no . 10_677
O1 C1 3.575(4) no . 7_677
O1 C1 3.575(5) no . 10_677
O1 C2 3.411(5) no . 7_677
O1 C2 3.411(5) no . 10_677
O1 C5 3.412(5) no . 7_677
O1 C5 3.412(4) no . 10_677
O2 O1 2.999(5) no . 7_677
O2 O2 3.447(4) no . 10_677
O2 N3 3.388(8) no . 10_677
O3 N2 3.463(8) no . 1_554
O3 N3 3.481(10) no . 1_554
N1 C4 3.433(5) no . 1_556
N2 O3 3.463(8) no . 1_556
N2 N3 3.077(9) no . 10_678
N2 C4 3.529(7) no . 1_556
N3 O2 3.388(8) no . 10_677
N3 O3 3.481(10) no . 1_556
N3 N2 3.077(9) no . 10_678
N3 N3 2.068(10) no . 10_678
N3 C1 3.438(7) no . 10_677
N3 C2 3.502(7) no . 10_677
N3 C5 3.514(9) no . 1_556
N3 C5 3.376(8) no . 10_677
C1 O1 3.575(4) no . 7_677
C1 N3 3.438(7) no . 10_677
C2 O1 3.411(5) no . 7_677
C2 N3 3.502(7) no . 10_677
C4 N1 3.433(5) no . 1_554
C4 N2 3.529(7) no . 1_554
C4 N2 3.529(7) no . 6_664
C5 O1 3.412(5) no . 7_677
C5 N3 3.514(9) no . 1_554
C5 N3 3.376(8) no . 10_677
O2 H2 2.4832 no . .
O3 H4 2.4613 no . .
N1 H2 2.6284 no . .
N1 H2 2.6284 no . 6_665
N2 H2 2.4496 no . .
N3 H2 2.9469 no . .
C2 H2 3.2941 no . 6_665
C2 H4 3.2817 no . .
C3 H2 2.0560 no . 6_665
C4 H2 3.2820 no . .
C4 H2 3.2820 no . 6_665
C5 H2 2.6719 no . .
C5 H4 2.6522 no . .
O1 H2 3.1354 no . 7_677
O1 H2 3.1354 no . 10_677
O2 H2 2.8890 no . 10_677
N1 H4 3.0020 no . 1_556
N2 H4 3.2802 no . 1_556
N3 H2 3.3962 no . 10_677
C2 H2 3.3504 no . 10_677
H2 O1 3.1354 no . 7_677
H2 O2 2.8890 no . 10_677
H2 N3 3.3962 no . 10_677
H2 C2 3.3504 no . 10_677
H2 H2 2.5211 no . 10_677
H4 N1 3.0020 no . 1_554
H4 N2 3.2802 no . 1_554
H4 N2 3.2802 no . 6_664

#==============================================================================

#==============================================================================
# Additional structures and associated data_? identifiers
# should be added at this point if there is more than one 
# structure analysis in the CIF.

#==============================================================================
#     End of CIF
#==============================================================================
