####################################################################### 
# 
# This file contains crystal structure data downloaded from the 
# Cambridge Structural Database (CSD) hosted by the Cambridge 
# Crystallographic Data Centre (CCDC).
# 
# Full information about CCDC data access policies and citation 
# guidelines are available at http://www.ccdc.cam.ac.uk/access/V1 
# 
# Audit and citation data items may have been added by the CCDC. 
# Please retain this information to preserve the provenance of 
# this file and to allow appropriate attribution of the data. 
# 
#######################################################################

data_e:\manusc~1\ic-ag\h031101a\a
_audit_block_doi                 10.5517/cc8kdw2
_database_code_depnum_ccdc_archive 'CCDC 255064'
loop_
_citation_id
_citation_doi
_citation_year
1 10.1016/j.ica.2004.12.023 2005
_audit_update_record             
;
2004-11-08 deposited with the CCDC.	2024-07-10 downloaded from the CCDC.
;

_audit_creation_method           SHELXL-97
_chemical_name_systematic        
;
?
;
_chemical_name_common            ?
_chemical_melting_point          ?
_chemical_formula_moiety         ?
_chemical_formula_sum            'C18 H16 Ag2 Cl6 N6 O6 S2'
_chemical_formula_weight         904.93

loop_
_atom_type_symbol
_atom_type_description
_atom_type_scat_dispersion_real
_atom_type_scat_dispersion_imag
_atom_type_scat_source
C C 0.0033 0.0016 'International Tables Vol C Tables 4.2.6.8 and 6.1.1.4'
H H 0.0000 0.0000 'International Tables Vol C Tables 4.2.6.8 and 6.1.1.4'
N N 0.0061 0.0033 'International Tables Vol C Tables 4.2.6.8 and 6.1.1.4'
O O 0.0106 0.0060 'International Tables Vol C Tables 4.2.6.8 and 6.1.1.4'
S S 0.1246 0.1234 'International Tables Vol C Tables 4.2.6.8 and 6.1.1.4'
Cl Cl 0.1484 0.1585 'International Tables Vol C Tables 4.2.6.8 and 6.1.1.4'
Ag Ag -0.8971 1.1015 'International Tables Vol C Tables 4.2.6.8 and 6.1.1.4'

_symmetry_cell_setting           triclinic
_symmetry_space_group_name_H-M   P-1

loop_
_symmetry_equiv_pos_as_xyz
'x, y, z'
'-x, -y, -z'

_cell_length_a                   5.7792(5)
_cell_length_b                   10.4275(8)
_cell_length_c                   12.7426(10)
_cell_angle_alpha                104.478(2)
_cell_angle_beta                 98.077(2)
_cell_angle_gamma                94.366(2)
_cell_volume                     731.17(10)
_cell_formula_units_Z            1
_cell_measurement_temperature    293(2)
_cell_measurement_reflns_used    ?
_cell_measurement_theta_min      ?
_cell_measurement_theta_max      ?

_exptl_crystal_description       prism
_exptl_crystal_colour            colorless
_exptl_crystal_size_max          0.40
_exptl_crystal_size_mid          0.30
_exptl_crystal_size_min          0.20
_exptl_crystal_density_meas      ?
_exptl_crystal_density_diffrn    2.055
_exptl_crystal_density_method    'not measured'
_exptl_crystal_F_000             442
_exptl_absorpt_coefficient_mu    2.076
_exptl_absorpt_correction_type   ?
_exptl_absorpt_correction_T_min  ?
_exptl_absorpt_correction_T_max  ?
_exptl_absorpt_process_details   ?

_exptl_special_details           
;
?
;

_diffrn_ambient_temperature      173(2)
_diffrn_radiation_wavelength     0.71073
_diffrn_radiation_type           MoK\a
_diffrn_radiation_source         'fine-focus sealed tube'
_diffrn_radiation_monochromator  graphite
_diffrn_measurement_device_type  ?
_diffrn_measurement_method       ?
_diffrn_detector_area_resol_mean ?
_diffrn_standards_number         ?
_diffrn_standards_interval_count ?
_diffrn_standards_interval_time  ?
_diffrn_standards_decay_%        ?
_diffrn_reflns_number            3797
_diffrn_reflns_av_R_equivalents  0.0249
_diffrn_reflns_av_sigmaI/netI    0.0284
_diffrn_reflns_limit_h_min       -4
_diffrn_reflns_limit_h_max       6
_diffrn_reflns_limit_k_min       -12
_diffrn_reflns_limit_k_max       12
_diffrn_reflns_limit_l_min       -15
_diffrn_reflns_limit_l_max       14
_diffrn_reflns_theta_min         1.67
_diffrn_reflns_theta_max         25.01
_reflns_number_total             2515
_reflns_number_gt                2400
_reflns_threshold_expression     >2sigma(I)

_computing_data_collection       ?
_computing_cell_refinement       ?
_computing_data_reduction        ?
_computing_structure_solution    'SHELXS-97 (Sheldrick, 1990)'
_computing_structure_refinement  'SHELXL-97 (Sheldrick, 1997)'
_computing_molecular_graphics    ?
_computing_publication_material  ?

_refine_special_details          
;
Refinement of F^2^ against ALL reflections. The weighted R-factor wR and
goodness of fit S are based on F^2^, conventional R-factors R are based
on F, with F set to zero for negative F^2^. The threshold expression of
F^2^ > 2sigma(F^2^) is used only for calculating R-factors(gt) etc. and is
not relevant to the choice of reflections for refinement. R-factors based
on F^2^ are statistically about twice as large as those based on F, and R-
factors based on ALL data will be even larger.
;

_refine_ls_structure_factor_coef Fsqd
_refine_ls_matrix_type           full
_refine_ls_weighting_scheme      calc
_refine_ls_weighting_details     
'calc w=1/[\s^2^(Fo^2^)+(0.0461P)^2^+1.6100P] where P=(Fo^2^+2Fc^2^)/3'
_atom_sites_solution_primary     direct
_atom_sites_solution_secondary   difmap
_atom_sites_solution_hydrogens   geom
_refine_ls_hydrogen_treatment    mixed
_refine_ls_extinction_method     SHELXL
_refine_ls_extinction_coef       0.034(2)
_refine_ls_extinction_expression Fc^*^=kFc[1+0.001xFc^2^\l^3^/sin(2\q)]^-1/4^
_refine_ls_number_reflns         2515
_refine_ls_number_parameters     214
_refine_ls_number_restraints     0
_refine_ls_R_factor_all          0.0388
_refine_ls_R_factor_gt           0.0364
_refine_ls_wR_factor_ref         0.0957
_refine_ls_wR_factor_gt          0.0921
_refine_ls_goodness_of_fit_ref   1.103
_refine_ls_restrained_S_all      1.103
_refine_ls_shift/su_max          0.001
_refine_ls_shift/su_mean         0.000

loop_
_atom_site_label
_atom_site_type_symbol
_atom_site_fract_x
_atom_site_fract_y
_atom_site_fract_z
_atom_site_U_iso_or_equiv
_atom_site_adp_type
_atom_site_occupancy
_atom_site_symmetry_multiplicity
_atom_site_calc_flag
_atom_site_refinement_flags
_atom_site_disorder_assembly
_atom_site_disorder_group
Ag1 Ag 0.91023(6) -0.06533(3) 1.08068(3) 0.04019(18) Uani 1 1 d . . .
S1 S 0.69830(17) -0.20785(10) 0.89742(8) 0.0317(2) Uani 1 1 d . . .
Cl1 Cl 0.9609(3) -0.2130(2) 1.39157(14) 0.0787(5) Uani 1 1 d . . .
Cl2 Cl 0.5344(3) -0.37133(15) 1.39614(14) 0.0695(4) Uani 1 1 d . . .
Cl3 Cl 0.6733(3) -0.11693(14) 1.55685(11) 0.0609(4) Uani 1 1 d . . .
O1 O 0.2589(7) -0.1038(4) 1.2198(3) 0.0627(10) Uani 1 1 d . . .
O2 O 0.3299(7) -0.1349(4) 1.0554(3) 0.0592(10) Uani 1 1 d . . .
O3 O 0.6045(6) -0.1463(4) 1.1860(3) 0.0541(9) Uani 1 1 d . . .
N1 N 0.8550(7) -0.3651(4) 0.7301(3) 0.0440(9) Uani 1 1 d . . .
N2 N 1.0562(6) -0.1451(4) 0.8022(3) 0.0341(7) Uani 1 1 d . . .
N3 N 0.3976(6) -0.1284(4) 1.1537(3) 0.0379(8) Uani 1 1 d . . .
C1 C 1.1955(8) -0.1724(5) 0.7256(4) 0.0431(10) Uani 1 1 d . . .
H1 H 1.303(11) -0.101(6) 0.721(5) 0.061(17) Uiso 1 1 d . . .
C2 C 1.1798(10) -0.2960(5) 0.6531(4) 0.0502(12) Uani 1 1 d . . .
H2 H 1.286(12) -0.317(6) 0.600(5) 0.070(18) Uiso 1 1 d . . .
C3 C 1.0047(10) -0.3895(5) 0.6575(4) 0.0528(12) Uani 1 1 d . . .
H3 H 0.980(10) -0.483(6) 0.610(5) 0.056(15) Uiso 1 1 d . . .
C4 C 0.8924(7) -0.2456(4) 0.8002(3) 0.0321(8) Uani 1 1 d . . .
C5 C 0.6105(8) -0.3747(4) 0.9125(4) 0.0378(9) Uani 1 1 d . . .
H4 H 0.524(9) -0.426(5) 0.843(4) 0.037(12) Uiso 1 1 d . . .
H5 H 0.503(9) -0.361(5) 0.956(4) 0.040(13) Uiso 1 1 d . . .
C6 C 0.8108(8) -0.4396(4) 0.9584(3) 0.0346(9) Uani 1 1 d . . .
C7 C 0.8986(9) -0.5459(4) 0.8908(4) 0.0403(10) Uani 1 1 d . . .
H6 H 0.829(8) -0.579(5) 0.819(4) 0.036(12) Uiso 1 1 d . . .
C8 C 0.9155(9) -0.3952(5) 1.0686(4) 0.0408(10) Uani 1 1 d . . .
H7 H 0.857(10) -0.324(6) 1.116(5) 0.052(15) Uiso 1 1 d . . .
C9 C 0.6737(9) -0.2078(6) 1.4208(4) 0.0485(11) Uani 1 1 d . . .
H8 H 0.581(9) -0.168(5) 1.376(4) 0.046(14) Uiso 1 1 d . . .

loop_
_atom_site_aniso_label
_atom_site_aniso_U_11
_atom_site_aniso_U_22
_atom_site_aniso_U_33
_atom_site_aniso_U_23
_atom_site_aniso_U_13
_atom_site_aniso_U_12
Ag1 0.0435(2) 0.0366(2) 0.0361(2) 0.00497(14) 0.00483(14) -0.00303(14)
S1 0.0327(5) 0.0290(5) 0.0324(5) 0.0078(4) 0.0031(4) 0.0032(4)
Cl1 0.0510(8) 0.1103(14) 0.0721(10) 0.0186(9) 0.0207(7) -0.0084(8)
Cl2 0.0631(9) 0.0526(8) 0.0801(10) -0.0020(7) 0.0132(7) -0.0088(6)
Cl3 0.0707(9) 0.0567(8) 0.0482(7) 0.0025(6) 0.0073(6) 0.0065(6)
O1 0.048(2) 0.081(3) 0.055(2) 0.0013(19) 0.0216(17) 0.0114(19)
O2 0.057(2) 0.079(3) 0.051(2) 0.0286(19) 0.0131(17) 0.026(2)
O3 0.0418(19) 0.069(2) 0.060(2) 0.0287(19) 0.0105(16) 0.0160(17)
N1 0.056(2) 0.034(2) 0.039(2) 0.0059(16) 0.0084(18) 0.0015(17)
N2 0.0341(18) 0.0357(19) 0.0310(17) 0.0088(14) 0.0020(14) 0.0008(14)
N3 0.0341(19) 0.0334(18) 0.048(2) 0.0103(16) 0.0115(16) 0.0056(15)
C1 0.042(2) 0.046(3) 0.039(2) 0.010(2) 0.0084(19) -0.005(2)
C2 0.057(3) 0.054(3) 0.042(3) 0.010(2) 0.018(2) 0.011(2)
C3 0.068(3) 0.045(3) 0.041(3) 0.001(2) 0.015(2) 0.006(2)
C4 0.032(2) 0.035(2) 0.0284(19) 0.0094(16) -0.0001(16) 0.0034(16)
C5 0.040(2) 0.030(2) 0.041(2) 0.0076(18) 0.007(2) -0.0040(18)
C6 0.040(2) 0.028(2) 0.034(2) 0.0089(17) 0.0066(17) -0.0039(17)
C7 0.060(3) 0.028(2) 0.029(2) 0.0040(17) 0.001(2) 0.0005(19)
C8 0.055(3) 0.032(2) 0.035(2) 0.0062(18) 0.009(2) 0.007(2)
C9 0.044(3) 0.057(3) 0.041(3) 0.010(2) 0.004(2) 0.002(2)

_geom_special_details            
;
All esds (except the esd in the dihedral angle between two l.s. planes)
are estimated using the full covariance matrix. The cell esds are taken
into account individually in the estimation of esds in distances, angles
and torsion angles; correlations between esds in cell parameters are only
used when they are defined by crystal symmetry. An approximate (isotropic)
treatment of cell esds is used for estimating esds involving l.s. planes.
;

loop_
_geom_bond_atom_site_label_1
_geom_bond_atom_site_label_2
_geom_bond_distance
_geom_bond_site_symmetry_2
_geom_bond_publ_flag
Ag1 N2 2.302(4) 2_757 ?
Ag1 S1 2.5191(11) . ?
Ag1 O3 2.577(4) . ?
Ag1 Ag1 2.9908(7) 2_757 ?
S1 C4 1.778(4) . ?
S1 C5 1.839(4) . ?
Cl1 C9 1.753(5) . ?
Cl2 C9 1.763(6) . ?
Cl3 C9 1.756(5) . ?
O1 N3 1.238(5) . ?
O2 N3 1.242(5) . ?
O3 N3 1.252(5) . ?
N1 C4 1.322(6) . ?
N1 C3 1.346(7) . ?
N2 C1 1.341(6) . ?
N2 C4 1.350(5) . ?
N2 Ag1 2.302(4) 2_757 ?
C1 C2 1.373(7) . ?
C2 C3 1.368(8) . ?
C5 C6 1.506(6) . ?
C6 C8 1.394(6) . ?
C6 C7 1.400(6) . ?
C7 C8 1.380(7) 2_747 ?
C8 C7 1.380(7) 2_747 ?

loop_
_geom_angle_atom_site_label_1
_geom_angle_atom_site_label_2
_geom_angle_atom_site_label_3
_geom_angle
_geom_angle_site_symmetry_1
_geom_angle_site_symmetry_3
_geom_angle_publ_flag
N2 Ag1 S1 142.53(9) 2_757 . ?
N2 Ag1 O3 89.73(13) 2_757 . ?
S1 Ag1 O3 92.97(9) . . ?
N2 Ag1 Ag1 86.78(9) 2_757 2_757 ?
S1 Ag1 Ag1 76.43(3) . 2_757 ?
O3 Ag1 Ag1 156.90(8) . 2_757 ?
C4 S1 C5 101.1(2) . . ?
C4 S1 Ag1 111.73(14) . . ?
C5 S1 Ag1 108.39(16) . . ?
N3 O3 Ag1 114.2(3) . . ?
C4 N1 C3 115.7(4) . . ?
C1 N2 C4 115.5(4) . . ?
C1 N2 Ag1 120.3(3) . 2_757 ?
C4 N2 Ag1 124.1(3) . 2_757 ?
O1 N3 O2 119.5(4) . . ?
O1 N3 O3 120.1(4) . . ?
O2 N3 O3 120.5(4) . . ?
N2 C1 C2 122.3(4) . . ?
C3 C2 C1 117.0(5) . . ?
N1 C3 C2 122.7(5) . . ?
N1 C4 N2 126.6(4) . . ?
N1 C4 S1 117.5(3) . . ?
N2 C4 S1 115.8(3) . . ?
C6 C5 S1 114.0(3) . . ?
C8 C6 C7 118.2(4) . . ?
C8 C6 C5 121.3(4) . . ?
C7 C6 C5 120.5(4) . . ?
C8 C7 C6 121.1(4) 2_747 . ?
C7 C8 C6 120.7(4) 2_747 . ?
Cl1 C9 Cl3 111.2(3) . . ?
Cl1 C9 Cl2 109.8(3) . . ?
Cl3 C9 Cl2 110.6(3) . . ?

_diffrn_measured_fraction_theta_max 0.976
_diffrn_reflns_theta_full        25.01
_diffrn_measured_fraction_theta_full 0.976
_refine_diff_density_max         0.799
_refine_diff_density_min         -0.731
_refine_diff_density_rms         0.115
