####################################################################### 
# 
# This file contains crystal structure data downloaded from the 
# Cambridge Structural Database (CSD) hosted by the Cambridge 
# Crystallographic Data Centre (CCDC).
# 
# Full information about CCDC data access policies and citation 
# guidelines are available at http://www.ccdc.cam.ac.uk/access/V1 
# 
# Audit and citation data items may have been added by the CCDC. 
# Please retain this information to preserve the provenance of 
# this file and to allow appropriate attribution of the data. 
# 
#######################################################################

data_complex2
_audit_block_doi                 10.5517/cc100607
_database_code_depnum_ccdc_archive 'CCDC 923707'
loop_
_citation_id
_citation_doi
_citation_year
1 10.1016/j.poly.2013.09.012 2014
_audit_update_record             
;
2013-02-07 deposited with the CCDC.	2024-07-10 downloaded from the CCDC.
;
#TrackingRef '2.cif'


_audit_creation_method           SHELXL-97
_chemical_name_systematic        ?
_chemical_name_common            ?
_chemical_melting_point          ?
_chemical_formula_moiety         ?
_chemical_formula_sum            'C36 H56 N4 Ni2 O22'
_chemical_formula_weight         1014.27

loop_
_atom_type_symbol
_atom_type_description
_atom_type_scat_dispersion_real
_atom_type_scat_dispersion_imag
_atom_type_scat_source
C C 0.0181 0.0091 'International Tables Vol C Tables 4.2.6.8 and 6.1.1.4'
H H 0.0000 0.0000 'International Tables Vol C Tables 4.2.6.8 and 6.1.1.4'
N N 0.0311 0.0180 'International Tables Vol C Tables 4.2.6.8 and 6.1.1.4'
O O 0.0492 0.0322 'International Tables Vol C Tables 4.2.6.8 and 6.1.1.4'
Ni Ni -3.0029 0.5091 'International Tables Vol C Tables 4.2.6.8 and 6.1.1.4'

_symmetry_cell_setting           trigonal
_symmetry_space_group_name_H-M   R-3

loop_
_symmetry_equiv_pos_as_xyz
'x, y, z'
'-y, x-y, z'
'-x+y, -x, z'
'x+2/3, y+1/3, z+1/3'
'-y+2/3, x-y+1/3, z+1/3'
'-x+y+2/3, -x+1/3, z+1/3'
'x+1/3, y+2/3, z+2/3'
'-y+1/3, x-y+2/3, z+2/3'
'-x+y+1/3, -x+2/3, z+2/3'
'-x, -y, -z'
'y, -x+y, -z'
'x-y, x, -z'
'-x+2/3, -y+1/3, -z+1/3'
'y+2/3, -x+y+1/3, -z+1/3'
'x-y+2/3, x+1/3, -z+1/3'
'-x+1/3, -y+2/3, -z+2/3'
'y+1/3, -x+y+2/3, -z+2/3'
'x-y+1/3, x+2/3, -z+2/3'

_cell_length_a                   37.4822(8)
_cell_length_b                   37.4822(8)
_cell_length_c                   17.2024(6)
_cell_angle_alpha                90.00
_cell_angle_beta                 90.00
_cell_angle_gamma                120.00
_cell_volume                     20930.0(10)
_cell_formula_units_Z            18
_cell_measurement_temperature    123(2)
_cell_measurement_reflns_used    ?
_cell_measurement_theta_min      ?
_cell_measurement_theta_max      ?

_exptl_crystal_description       block
_exptl_crystal_colour            green
_exptl_crystal_size_max          0.13
_exptl_crystal_size_mid          0.12
_exptl_crystal_size_min          0.10
_exptl_crystal_density_meas      ?
_exptl_crystal_density_diffrn    1.448
_exptl_crystal_density_method    'not measured'
_exptl_crystal_F_000             9576
_exptl_absorpt_coefficient_mu    1.735
_exptl_absorpt_correction_type   multi-scan
_exptl_absorpt_correction_T_min  0.8059
_exptl_absorpt_correction_T_max  0.8456
_exptl_absorpt_process_details   'SADABS (Bruker, 2002)'

_exptl_special_details           ?

_diffrn_ambient_temperature      123(2)
_diffrn_radiation_wavelength     1.54178
_diffrn_radiation_type           CuK\a
_diffrn_radiation_source         'fine-focus sealed tube'
_diffrn_radiation_monochromator  graphite
_diffrn_measurement_device_type  'CCD area detector'
_diffrn_measurement_method       'phi and omega scans'
_diffrn_detector_area_resol_mean ?
_diffrn_standards_number         ?
_diffrn_standards_interval_count ?
_diffrn_standards_interval_time  ?
_diffrn_standards_decay_%        ?
_diffrn_reflns_number            10896
_diffrn_reflns_av_R_equivalents  0.0266
_diffrn_reflns_av_sigmaI/netI    0.0314
_diffrn_reflns_limit_h_min       -39
_diffrn_reflns_limit_h_max       41
_diffrn_reflns_limit_k_min       -23
_diffrn_reflns_limit_k_max       43
_diffrn_reflns_limit_l_min       -18
_diffrn_reflns_limit_l_max       19
_diffrn_reflns_theta_min         2.91
_diffrn_reflns_theta_max         62.62
_reflns_number_total             7115
_reflns_number_gt                6027
_reflns_threshold_expression     >2sigma(I)

_computing_data_collection       'SMART, 1998.'
_computing_cell_refinement       'SAINT-PLUS, Ver. 6.0, 1997'
_computing_data_reduction        'SAINT-PLUS, Ver. 6.0, 1997'
_computing_structure_solution    'SHELXS-97 (Sheldrick, 1990)'
_computing_structure_refinement  'SHELXL-97 (Sheldrick, 1997)'
_computing_molecular_graphics    'XP, Ver. 6.10, Bruker AXS Inc., 2000'
_computing_publication_material  'SHELXTL-Bruker AXS Inc., 1998'

_refine_special_details          
;
Refinement of F^2^ against ALL reflections. The weighted R-factor wR and
goodness of fit S are based on F^2^, conventional R-factors R are based
on F, with F set to zero for negative F^2^. The threshold expression of
F^2^ > 2sigma(F^2^) is used only for calculating R-factors(gt) etc. and is
not relevant to the choice of reflections for refinement. R-factors based
on F^2^ are statistically about twice as large as those based on F, and R-
factors based on ALL data will be even larger.
;

_refine_ls_structure_factor_coef Fsqd
_refine_ls_matrix_type           full
_refine_ls_weighting_scheme      calc
_refine_ls_weighting_details     
;
calc w=1/[\s^2^(Fo^2^)+(0.1468P)^2^+135.8718P] where P=(Fo^2^+2Fc^2^)/3
;
_atom_sites_solution_primary     direct
_atom_sites_solution_secondary   difmap
_atom_sites_solution_hydrogens   geom
_refine_ls_hydrogen_treatment    constr
_refine_ls_extinction_method     none
_refine_ls_extinction_coef       ?
_refine_ls_number_reflns         7115
_refine_ls_number_parameters     595
_refine_ls_number_restraints     62
_refine_ls_R_factor_all          0.0784
_refine_ls_R_factor_gt           0.0705
_refine_ls_wR_factor_ref         0.2185
_refine_ls_wR_factor_gt          0.2111
_refine_ls_goodness_of_fit_ref   1.052
_refine_ls_restrained_S_all      1.076
_refine_ls_shift/su_max          0.001
_refine_ls_shift/su_mean         0.000

loop_
_atom_site_label
_atom_site_type_symbol
_atom_site_fract_x
_atom_site_fract_y
_atom_site_fract_z
_atom_site_U_iso_or_equiv
_atom_site_adp_type
_atom_site_occupancy
_atom_site_symmetry_multiplicity
_atom_site_calc_flag
_atom_site_refinement_flags
_atom_site_disorder_assembly
_atom_site_disorder_group
Ni1 Ni 0.50708(2) 0.30913(2) 1.81054(4) 0.0190(2) Uani 1 1 d . . .
Ni2 Ni 0.43149(2) 0.43934(2) 1.51966(4) 0.0214(2) Uani 1 1 d . . .
O1 O 0.52342(9) 0.34607(9) 1.71266(17) 0.0219(7) Uani 1 1 d . . .
O2 O 0.53769(13) 0.31242(10) 1.6227(2) 0.0377(9) Uani 1 1 d . . .
O3 O 0.61591(10) 0.39328(9) 1.72227(18) 0.0251(7) Uani 1 1 d . . .
O4 O 0.61005(9) 0.44807(9) 1.75486(17) 0.0223(7) Uani 1 1 d . . .
O8 O 0.59982(10) 0.52678(9) 1.46543(18) 0.0254(7) Uani 1 1 d . . .
O7 O 0.54657(9) 0.50484(9) 1.54239(17) 0.0229(7) Uani 1 1 d . . .
O6 O 0.51327(10) 0.44710(10) 1.39996(18) 0.0271(7) Uani 1 1 d . . .
O5 O 0.47090(10) 0.41776(10) 1.50098(18) 0.0263(7) Uani 1 1 d . . .
O1W O 0.51597(10) 0.26669(9) 1.74957(18) 0.0245(7) Uani 1 1 d . . .
H1WA H 0.5325 0.2593 1.7672 0.029 Uiso 1 1 d R . .
H1WB H 0.5265 0.2812 1.7090 0.029 Uiso 1 1 d R . .
O2W O 0.56953(9) 0.34262(9) 1.84129(18) 0.0240(7) Uani 1 1 d . . .
H2WA H 0.5884 0.3539 1.8073 0.029 Uiso 1 1 d R . .
H2WB H 0.5727 0.3247 1.8658 0.029 Uiso 1 1 d R . .
O3W O 0.47171(10) 0.47509(10) 1.61162(17) 0.0250(7) Uani 1 1 d . . .
H3WA H 0.4718 0.4978 1.6124 0.030 Uiso 1 1 d R . .
H3WB H 0.4941 0.4793 1.5908 0.030 Uiso 1 1 d R . .
N1 N 0.44548(12) 0.27355(11) 1.7769(2) 0.0243(8) Uani 1 1 d . . .
N2 N 0.19003(11) 0.16971(12) 1.5344(2) 0.0238(8) Uani 1 1 d . . .
N3 N 0.39483(12) 0.40882(12) 1.4255(2) 0.0254(8) Uani 1 1 d . . .
N4 N 0.27118(12) 0.33844(12) 0.9362(2) 0.0238(8) Uani 1 1 d . . .
C1 C 0.55461(14) 0.38144(13) 1.5940(2) 0.0211(9) Uani 1 1 d . . .
H1A H 0.5641 0.3741 1.5453 0.025 Uiso 1 1 calc R . .
C2 C 0.59163(14) 0.42211(13) 1.6259(2) 0.0208(9) Uani 1 1 d . . .
H2A H 0.6155 0.4287 1.5909 0.025 Uiso 1 1 calc R . .
C3 C 0.51947(14) 0.39022(14) 1.5708(3) 0.0230(10) Uani 1 1 d . . .
H3A H 0.4939 0.3641 1.5565 0.028 Uiso 1 1 calc R . .
C4 C 0.53571(14) 0.41984(13) 1.5007(2) 0.0220(9) Uani 1 1 d . . .
H4A H 0.5442 0.4065 1.4600 0.026 Uiso 1 1 calc R . .
C5 C 0.57549(14) 0.46051(14) 1.5265(2) 0.0223(9) Uani 1 1 d . . .
H5A H 0.5996 0.4624 1.4979 0.027 Uiso 1 1 calc R . .
C6 C 0.58207(14) 0.45739(14) 1.6155(3) 0.0229(9) Uani 1 1 d . . .
H6A H 0.6054 0.4839 1.6353 0.027 Uiso 1 1 calc R . .
C7 C 0.51109(14) 0.41153(14) 1.6364(2) 0.0223(9) Uani 1 1 d . . .
H7A H 0.4847 0.4006 1.6599 0.027 Uiso 1 1 calc R . .
C8 C 0.54311(14) 0.44648(14) 1.6588(2) 0.0224(9) Uani 1 1 d . . .
H8A H 0.5417 0.4633 1.6986 0.027 Uiso 1 1 calc R . .
C9 C 0.53800(14) 0.34404(13) 1.6484(3) 0.0222(10) Uani 1 1 d . . .
C10 C 0.60600(13) 0.42039(13) 1.7082(3) 0.0211(9) Uani 1 1 d . . .
C11 C 0.50394(14) 0.42897(13) 1.4640(3) 0.0232(10) Uani 1 1 d . . .
C12 C 0.57360(14) 0.49921(14) 1.5106(2) 0.0220(9) Uani 1 1 d . . .
C13 C 0.43618(14) 0.26351(15) 1.7017(3) 0.0292(11) Uani 1 1 d D . .
H13A H 0.4581 0.2729 1.6652 0.035 Uiso 1 1 calc R . .
C14 C 0.39634(14) 0.24016(15) 1.6751(3) 0.0310(11) Uani 1 1 d D . .
H14A H 0.3913 0.2342 1.6212 0.037 Uiso 1 1 calc R . .
C15 C 0.36326(14) 0.22515(14) 1.7269(3) 0.0292(11) Uani 1 1 d D . .
C16 C 0.37286(15) 0.23328(15) 1.8058(3) 0.0299(11) Uani 1 1 d . . .
H16A H 0.3516 0.2222 1.8438 0.036 Uiso 1 1 calc R . .
C17 C 0.41373(15) 0.25774(15) 1.8284(3) 0.0276(10) Uani 1 1 d . . .
H17A H 0.4197 0.2637 1.8821 0.033 Uiso 1 1 calc R . .
C18 C 0.31994(15) 0.20474(15) 1.7019(3) 0.0316(11) Uani 1 1 d . . .
H18A H 0.2993 0.1945 1.7411 0.038 Uiso 1 1 calc R . .
C19 C 0.30750(16) 0.19953(16) 1.6279(3) 0.0335(12) Uani 1 1 d . . .
H19A H 0.3280 0.2053 1.5897 0.040 Uiso 1 1 calc R . .
C20 C 0.26575(15) 0.18586(14) 1.5986(3) 0.0287(11) Uani 1 1 d . . .
C21 C 0.26062(16) 0.18874(18) 1.5189(3) 0.0369(12) Uani 1 1 d . . .
H21A H 0.2831 0.1961 1.4845 0.044 Uiso 1 1 calc R . .
C22 C 0.22317(15) 0.18102(17) 1.4899(3) 0.0338(12) Uani 1 1 d . . .
H22A H 0.2208 0.1839 1.4356 0.041 Uiso 1 1 calc R . .
C23 C 0.19402(15) 0.16515(15) 1.6106(3) 0.0266(10) Uani 1 1 d . . .
H23A H 0.1705 0.1563 1.6429 0.032 Uiso 1 1 calc R . .
C24 C 0.23072(16) 0.17271(15) 1.6447(3) 0.0317(11) Uani 1 1 d . . .
H24A H 0.2320 0.1689 1.6990 0.038 Uiso 1 1 calc R . .
C25 C 0.35525(15) 0.39819(15) 1.4227(3) 0.0272(10) Uani 1 1 d . . .
H25A H 0.3426 0.4008 1.4685 0.033 Uiso 1 1 calc R . .
C26 C 0.33172(15) 0.38346(15) 1.3558(3) 0.0294(10) Uani 1 1 d . . .
H26A H 0.3035 0.3761 1.3563 0.035 Uiso 1 1 calc R . .
C27 C 0.34956(15) 0.37940(14) 1.2878(3) 0.0277(10) Uani 1 1 d . . .
C28 C 0.39117(16) 0.39021(16) 1.2916(3) 0.0308(11) Uani 1 1 d . . .
H28A H 0.4046 0.3875 1.2470 0.037 Uiso 1 1 calc R . .
C29 C 0.41252(16) 0.40486(16) 1.3609(3) 0.0321(11) Uani 1 1 d . . .
H29A H 0.4408 0.4124 1.3627 0.039 Uiso 1 1 calc R . .
C30 C 0.32581(16) 0.36499(15) 1.2162(3) 0.0294(11) Uani 1 1 d . . .
H30A H 0.2970 0.3469 1.2205 0.035 Uiso 1 1 calc R . .
C31 C 0.34177(16) 0.37546(14) 1.1446(3) 0.0291(11) Uani 1 1 d . . .
H31A H 0.3707 0.3929 1.1401 0.035 Uiso 1 1 calc R . .
C32 C 0.31758(15) 0.36179(15) 1.0729(3) 0.0264(10) Uani 1 1 d . . .
C33 C 0.33033(15) 0.38713(15) 1.0064(3) 0.0275(10) Uani 1 1 d . . .
H33A H 0.3554 0.4127 1.0071 0.033 Uiso 1 1 calc R . .
C34 C 0.30631(14) 0.37459(15) 0.9404(3) 0.0249(10) Uani 1 1 d . . .
H34A H 0.3150 0.3922 0.8963 0.030 Uiso 1 1 calc R . .
C35 C 0.25981(15) 0.31323(15) 0.9986(3) 0.0261(10) Uani 1 1 d . . .
H35A H 0.2356 0.2870 0.9950 0.031 Uiso 1 1 calc R . .
C36 C 0.28176(14) 0.32387(15) 1.0671(3) 0.0269(10) Uani 1 1 d . . .
H36A H 0.2725 0.3054 1.1100 0.032 Uiso 1 1 calc R . .
O4W O -0.12503(17) 0.17990(16) 0.8843(3) 0.0657(13) Uani 1 1 d . . .
H4WA H -0.1266 0.1865 0.9309 0.099 Uiso 1 1 d R . .
H4WB H -0.1404 0.1540 0.8800 0.099 Uiso 1 1 d R . .
O5W O 0.20625(19) 0.2468(2) 1.1630(4) 0.0875(18) Uani 1 1 d . . .
H5WA H 0.1988 0.2640 1.1500 0.131 Uiso 1 1 d R . .
H5WB H 0.1977 0.2279 1.1286 0.131 Uiso 1 1 d R . .
O6W O -0.0882(2) 0.1147(2) 0.9792(3) 0.097(2) Uani 1 1 d . . .
H6WA H -0.1082 0.1161 0.9589 0.145 Uiso 1 1 d R . .
H6WB H -0.0805 0.1026 0.9473 0.145 Uiso 1 1 d R . .
O7W O 0.4888(3) 0.4277(3) 1.2226(6) 0.141(3) Uani 1 1 d U . .
H7WA H 0.4914 0.4281 1.2718 0.211 Uiso 1 1 d R . .
H7WB H 0.4723 0.4031 1.2083 0.211 Uiso 1 1 d R . .
O8W O 0.2118(3) 0.1985(3) 0.8922(6) 0.141(3) Uani 1 1 d U . .
H8WA H 0.1865 0.1815 0.8844 0.211 Uiso 1 1 d R . .
H8WB H 0.2132 0.2210 0.9055 0.211 Uiso 1 1 d R . .
O9W O -0.0881(3) 0.1064(4) 0.8128(6) 0.150(4) Uani 1 1 d U . .
H9WA H -0.0782 0.1319 0.8226 0.225 Uiso 1 1 d R . .
H9WB H -0.0711 0.1038 0.7841 0.225 Uiso 1 1 d R . .
O10W O 0.1763(4) 0.1846(3) 1.0454(6) 0.164(4) Uani 1 1 d U . .
H10A H 0.1662 0.1937 1.0119 0.246 Uiso 1 1 d R . .
H10B H 0.1982 0.1872 1.0248 0.246 Uiso 1 1 d R . .
O11W O -0.2012(4) 0.3113(4) 0.5347(7) 0.186(5) Uani 1 1 d U . .
H11A H -0.2070 0.2863 0.5319 0.279 Uiso 1 1 d R . .
H11B H -0.2236 0.3117 0.5314 0.279 Uiso 1 1 d R . .
O12W O 0.0187(4) -0.0321(5) 0.7208(7) 0.197(5) Uani 1 1 d U . .
H12A H -0.0072 -0.0481 0.7183 0.295 Uiso 1 1 d R . .
H12B H 0.0305 -0.0379 0.6849 0.295 Uiso 1 1 d R . .
O13W O -0.0681(5) -0.0805(5) 0.8384(9) 0.107(4) Uani 0.50 1 d PU A 1
O13Q O -0.0511(8) -0.0980(8) 0.8192(13) 0.167(8) Uani 0.50 1 d PU B 2
O14W O -0.0257(7) -0.1220(7) 1.0406(12) 0.154(7) Uani 0.50 1 d PU . .
O15W O -0.1187(8) 0.0346(8) 0.9112(14) 0.167(8) Uani 0.50 1 d PU . .

loop_
_atom_site_aniso_label
_atom_site_aniso_U_11
_atom_site_aniso_U_22
_atom_site_aniso_U_33
_atom_site_aniso_U_23
_atom_site_aniso_U_13
_atom_site_aniso_U_12
Ni1 0.0185(4) 0.0162(4) 0.0226(4) 0.0000(3) -0.0013(3) 0.0088(3)
Ni2 0.0232(4) 0.0192(4) 0.0196(4) 0.0015(3) -0.0028(3) 0.0090(3)
O1 0.0257(16) 0.0191(15) 0.0225(15) -0.0001(12) 0.0007(13) 0.0124(13)
O2 0.059(2) 0.0229(18) 0.0370(19) 0.0036(15) 0.0118(17) 0.0252(18)
O3 0.0253(16) 0.0219(16) 0.0320(17) 0.0004(13) -0.0042(13) 0.0147(14)
O4 0.0238(16) 0.0214(16) 0.0234(15) -0.0025(13) -0.0031(12) 0.0126(13)
O8 0.0274(17) 0.0212(16) 0.0247(16) 0.0058(13) 0.0019(13) 0.0100(14)
O7 0.0242(16) 0.0195(16) 0.0238(15) 0.0036(12) -0.0008(13) 0.0100(13)
O6 0.0330(18) 0.0254(17) 0.0221(16) 0.0022(13) -0.0052(13) 0.0140(14)
O5 0.0252(17) 0.0246(17) 0.0292(16) -0.0006(13) -0.0045(14) 0.0124(14)
O1W 0.0272(17) 0.0223(16) 0.0274(16) 0.0005(13) -0.0023(13) 0.0150(14)
O2W 0.0221(16) 0.0190(15) 0.0274(16) 0.0027(12) 0.0001(12) 0.0076(13)
O3W 0.0269(17) 0.0218(16) 0.0251(16) 0.0020(13) -0.0012(13) 0.0113(14)
N1 0.0213(19) 0.0201(19) 0.033(2) 0.0020(16) -0.0040(16) 0.0112(16)
N2 0.0192(19) 0.0214(19) 0.030(2) -0.0041(15) -0.0009(15) 0.0097(16)
N3 0.029(2) 0.021(2) 0.0239(19) 0.0024(15) -0.0024(16) 0.0108(17)
N4 0.022(2) 0.029(2) 0.0217(19) -0.0032(15) -0.0010(15) 0.0138(17)
C1 0.023(2) 0.019(2) 0.021(2) -0.0010(17) -0.0012(17) 0.0106(19)
C2 0.022(2) 0.018(2) 0.021(2) 0.0011(17) 0.0004(17) 0.0095(19)
C3 0.023(2) 0.020(2) 0.024(2) -0.0004(18) -0.0051(17) 0.0091(19)
C4 0.027(2) 0.021(2) 0.020(2) -0.0008(17) -0.0017(18) 0.014(2)
C5 0.025(2) 0.022(2) 0.020(2) -0.0002(17) -0.0024(17) 0.011(2)
C6 0.024(2) 0.019(2) 0.023(2) 0.0021(17) -0.0002(18) 0.0088(19)
C7 0.024(2) 0.027(2) 0.021(2) 0.0049(18) 0.0006(18) 0.016(2)
C8 0.029(2) 0.026(2) 0.018(2) 0.0003(17) -0.0025(18) 0.018(2)
C9 0.021(2) 0.018(2) 0.027(2) -0.0026(18) -0.0045(18) 0.0093(19)
C10 0.016(2) 0.019(2) 0.025(2) 0.0011(18) 0.0019(17) 0.0061(18)
C11 0.028(3) 0.017(2) 0.023(2) -0.0063(18) -0.0114(19) 0.0105(19)
C12 0.022(2) 0.021(2) 0.021(2) 0.0008(18) -0.0047(18) 0.0092(19)
C13 0.024(2) 0.027(2) 0.035(3) -0.001(2) -0.004(2) 0.012(2)
C14 0.029(3) 0.027(3) 0.039(3) -0.005(2) -0.009(2) 0.016(2)
C15 0.025(2) 0.021(2) 0.046(3) -0.003(2) -0.008(2) 0.015(2)
C16 0.022(2) 0.025(2) 0.042(3) 0.004(2) -0.001(2) 0.011(2)
C17 0.024(2) 0.026(2) 0.034(3) 0.003(2) -0.001(2) 0.014(2)
C18 0.023(2) 0.024(2) 0.048(3) -0.001(2) -0.004(2) 0.013(2)
C19 0.027(3) 0.028(3) 0.049(3) -0.010(2) -0.010(2) 0.016(2)
C20 0.023(2) 0.022(2) 0.043(3) -0.011(2) -0.009(2) 0.013(2)
C21 0.024(3) 0.044(3) 0.043(3) -0.012(2) -0.002(2) 0.017(2)
C22 0.024(3) 0.047(3) 0.029(3) -0.009(2) -0.003(2) 0.017(2)
C23 0.024(2) 0.027(2) 0.029(2) -0.0004(19) -0.0007(19) 0.013(2)
C24 0.030(3) 0.029(3) 0.035(3) -0.002(2) -0.012(2) 0.014(2)
C25 0.027(3) 0.027(2) 0.026(2) -0.0012(19) -0.0038(19) 0.013(2)
C26 0.026(2) 0.030(3) 0.032(2) -0.002(2) -0.005(2) 0.014(2)
C27 0.033(3) 0.022(2) 0.027(2) 0.0003(18) -0.009(2) 0.013(2)
C28 0.032(3) 0.039(3) 0.023(2) -0.004(2) -0.005(2) 0.020(2)
C29 0.026(3) 0.039(3) 0.032(3) -0.005(2) -0.006(2) 0.017(2)
C30 0.029(3) 0.027(3) 0.033(3) -0.006(2) -0.010(2) 0.014(2)
C31 0.028(3) 0.023(2) 0.034(3) -0.006(2) -0.012(2) 0.011(2)
C32 0.024(2) 0.028(2) 0.028(2) -0.0042(19) -0.0054(19) 0.014(2)
C33 0.022(2) 0.024(2) 0.032(2) -0.0014(19) -0.0045(19) 0.008(2)
C34 0.022(2) 0.026(2) 0.026(2) -0.0009(18) -0.0013(18) 0.012(2)
C35 0.023(2) 0.024(2) 0.027(2) -0.0049(19) -0.0039(19) 0.009(2)
C36 0.025(2) 0.027(2) 0.027(2) -0.0008(19) -0.0039(19) 0.011(2)
O4W 0.076(3) 0.063(3) 0.044(2) 0.001(2) -0.010(2) 0.025(3)
O5W 0.075(4) 0.091(4) 0.084(4) 0.025(3) 0.005(3) 0.033(3)
O6W 0.104(5) 0.138(6) 0.070(4) -0.014(4) 0.007(3) 0.076(5)
O7W 0.121(6) 0.110(5) 0.199(7) 0.020(5) -0.036(5) 0.064(5)
O8W 0.145(6) 0.116(5) 0.208(7) 0.028(5) -0.006(5) 0.101(5)
O9W 0.145(7) 0.169(7) 0.137(6) -0.007(6) 0.013(5) 0.078(6)
O10W 0.204(8) 0.164(7) 0.1