
#######################################################################
#
#                 Cambridge Crystallographic Data Centre
#                                CCDC
#
#######################################################################
#
# If this CIF has been generated from an entry in the Cambridge
# Structural Database, then it will include bibliographic, chemical,
# crystal, experimental, refinement or atomic coordinate data resulting
# from the CCDC's data processing and validation procedures.
#
#######################################################################

data_CSD_CIF_FLUREN01
_audit_creation_date 1985-03-02
_audit_creation_method CSD-ConQuest-V1
_database_code_CSD FLUREN01
_database_code_depnum_ccdc_archive 'CCDC 1157853'
_chemical_formula_sum 'C13 H10'
_chemical_formula_moiety
;
C13 H10
;
_journal_coeditor_code "IUCr A23742"
_journal_coden_Cambridge 591
_journal_volume 40
_journal_year 1984
_journal_page_first 1210
_journal_name_full 'Acta Crystallogr.,Sect.C:Cryst.Struct.Commun. '
loop_
_publ_author_name
"V.K.Belskii"
"V.E.Zavodnik"
"V.M.Vozzhennikov"
_chemical_name_systematic
;
Fluorene
;
_chemical_name_common
;
Teaching Subset: Symmetry
;
_cell_volume    916.558
_exptl_crystal_colour 'colorless'
_exptl_crystal_density_diffrn 1.2
_diffrn_ambient_temperature ?
_diffrn_special_details
;
The study was carried out at room temperature,in the range 283-303K

;
#These two values have been output from a single CSD field.
_refine_ls_R_factor_gt 0.056
_refine_ls_wR_factor_gt 0.056
_symmetry_cell_setting orthorhombic
_symmetry_space_group_name_H-M 'P n m a'
_symmetry_Int_Tables_number 62
loop_
_symmetry_equiv_pos_site_id
_symmetry_equiv_pos_as_xyz
1 x,y,z
2 1/2-x,-y,1/2+z
3 1/2+x,1/2-y,1/2-z
4 -x,1/2+y,-z
5 -x,-y,-z
6 -1/2+x,y,-1/2-z
7 -1/2-x,-1/2+y,-1/2+z
8 x,-1/2-y,z
_cell_length_a 8.475(2)
_cell_length_b 18.917(3)
_cell_length_c 5.717(1)
_cell_angle_alpha 90
_cell_angle_beta 90
_cell_angle_gamma 90
_cell_formula_units_Z 4
loop_
_atom_type_symbol
_atom_type_radius_bond
C 0.68
H 0.23
loop_
_atom_site_label
_atom_site_type_symbol
_atom_site_fract_x
_atom_site_fract_y
_atom_site_fract_z
C1 C 0.74990 0.38420 0.16960
C2 C 0.81940 0.43120 0.01430
C3 C 0.90580 0.40840 -0.17650
C4 C 0.92550 0.33680 -0.22340
C5 C 0.85470 0.28940 -0.06990
C6 C 0.76810 0.31210 0.12430
C7 C 0.70640 0.25000 0.26090
H1 H 0.69100 0.39700 0.33500
H2 H 0.81100 0.48300 0.05900
H3 H 0.94900 0.44400 -0.30300
H4 H 0.96900 0.31600 -0.39100
H5 H 0.74800 0.25000 0.45200
H6 H 0.58000 0.25000 0.28200
C5G C 0.85470 0.21060 -0.06990
C6G C 0.76810 0.18790 0.12430
C4G C 0.92550 0.16320 -0.22340
C1G C 0.74990 0.11580 0.16960
C3G C 0.90580 0.09160 -0.17650
H4G H 0.96900 0.18400 -0.39100
C2G C 0.81940 0.06880 0.01430
H1G H 0.69100 0.10300 0.33500
H3G H 0.94900 0.05600 -0.30300
H2G H 0.81100 0.01700 0.05900
#END
