
#######################################################################
#
#                 Cambridge Crystallographic Data Centre
#                                CCDC
#
#######################################################################
#
# If this CIF has been generated from an entry in the Cambridge
# Structural Database, then it will include bibliographic, chemical,
# crystal, experimental, refinement or atomic coordinate data resulting
# from the CCDC's data processing and validation procedures.
#
#######################################################################

data_CSD_CIF_FOCLOY
_audit_creation_date 1988-04-19
_audit_creation_method CSD-ConQuest-V1
_database_code_CSD FOCLOY
_database_code_depnum_ccdc_archive 'CCDC 1158149'
_chemical_formula_sum 'C6 H12 Cl5 Hg2 N1'
_chemical_formula_moiety
;
C6 H12 Cl2 Hg1 N1 1+,Cl3 Hg1 1-
;
_journal_coden_Cambridge 579
_journal_volume 6
_journal_year 1987
_journal_page_first 1780
_journal_name_full 'Organometallics '
loop_
_publ_author_name
"R.C.Larock"
"L.D.Burns"
"S.Varaprath"
"C.E.Russell"
"J.W.Richardson Junior"
"M.N.Janakiraman"
"R.A.Jacobson"
_chemical_name_systematic
;
(((E)-3-Chloro-2-(chloromercurio)but-2-enyl)dimethylammonium) 
trichloro-mercury(ii)
;
_chemical_name_common
;
Teaching Subset: Fundamental Chemistry
;
_chemical_melting_point 375
_cell_volume   1445.425
_exptl_crystal_density_diffrn 3.11
_exptl_special_details
;
Melting point range 375-375.5K
It is not certain whether this compound retains water and/or benzene after 
recrystallization
;
_diffrn_ambient_temperature ?
_diffrn_special_details
;
The study was carried out at room temperature,in the range 283-303K

;
#These two values have been output from a single CSD field.
_refine_ls_R_factor_gt 0.047
_refine_ls_wR_factor_gt 0.047
_symmetry_cell_setting monoclinic
_symmetry_space_group_name_H-M 'P c'
_symmetry_Int_Tables_number 7
loop_
_symmetry_equiv_pos_site_id
_symmetry_equiv_pos_as_xyz
1 x,y,z
2 x,-y,1/2+z
_cell_length_a 10.532(6)
_cell_length_b 9.866(2)
_cell_length_c 14.093(7)
_cell_angle_alpha 90
_cell_angle_beta 99.23(6)
_cell_angle_gamma 90
_cell_formula_units_Z 4
loop_
_atom_type_symbol
_atom_type_radius_bond
C 0.68
Cl 0.99
Hg 1.53
N 0.68
loop_
_atom_site_label
_atom_site_type_symbol
_atom_site_fract_x
_atom_site_fract_y
_atom_site_fract_z
Hg1 Hg 0.10870 0.7731(2) 0.34780
Cl1 Cl 0.3278(8) 0.7606(10) 0.3289(8)
Cl2 Cl -0.3159(9) 0.7086(12) 0.3764(9)
N1 N -0.0876(27) 1.0325(30) 0.4173(23)
C1 C -0.1049(35) 0.552(4) 0.3824(29)
C2 C -0.1483(35) 0.6880(35) 0.3726(28)
C3 C -0.0817(29) 0.7927(33) 0.3539(24)
C4 C -0.1296(28) 0.9383(33) 0.3363(23)
C5 C -0.1210(35) 1.1783(40) 0.3841(29)
C6 C -0.1241(39) 0.9945(46) 0.5118(31)
Hg2 Hg 0.2601(1) 1.3341(2) 0.5982(1)
Cl3 Cl 0.0525(8) 1.3242(11) 0.6242(8)
Cl4 Cl 0.7032(9) 1.2945(13) 0.6007(10)
N2 N 0.4676(27) 1.613(3) 0.6296(22)
C7 C 0.5140(38) 1.1244(42) 0.6332(31)
C8 C 0.5372(33) 1.2688(38) 0.6043(27)
C9 C 0.4513(35) 1.3645(38) 0.5816(29)
C10 C 0.4908(38) 1.5112(45) 0.5541(30)
C11 C 0.5424(40) 1.5694(45) 0.7238(32)
C12 C 0.5036(42) 1.7484(43) 0.5964(34)
Hg3 Hg 0.3086(2) 1.0887(2) 0.3444(2)
Cl5 Cl 0.2103(8) 1.0491(12) 0.4891(8)
Cl6 Cl 0.1251(10) 1.0583(12) 0.2194(8)
Cl7 Cl 0.5334(9) 1.1055(13) 0.3565(10)
Hg4 Hg 0.0686(2) 1.6534(2) 0.6899(2)
Cl8 Cl 0.1859(9) 1.6433(12) 0.5463(8)
Cl9 Cl 0.2361(13) 1.6117(13) 0.8235(10)
Cl10 Cl -0.1506(8) 1.6695(12) 0.6498(9)
#END
