####################################################################### 
# 
# This file contains crystal structure data downloaded from the 
# Cambridge Structural Database (CSD) hosted by the Cambridge 
# Crystallographic Data Centre (CCDC).
# 
# Full information about CCDC data access policies and citation 
# guidelines are available at http://www.ccdc.cam.ac.uk/access/V1 
# 
# Audit and citation data items may have been added by the CCDC. 
# Please retain this information to preserve the provenance of 
# this file and to allow appropriate attribution of the data. 
# 
#######################################################################

data_w4
_audit_block_doi                 10.5517/cc81rjk
_database_code_depnum_ccdc_archive 'CCDC 240018'
loop_
_citation_id
_citation_doi
_citation_year
1 10.1002/ejic.200400659 2005
_audit_update_record             
;
2004-05-28 deposited with the CCDC.	2024-07-10 downloaded from the CCDC.
;

_audit_creation_method           SHELXL-97
_chemical_name_systematic        
;
?
;
_chemical_name_common            ?
_chemical_melting_point          ?
_chemical_formula_moiety         ?
_chemical_formula_sum            'C33.50 H28.50 Cl2 N2.50 O3 Zn'
_chemical_formula_weight         650.36

loop_
_atom_type_symbol
_atom_type_description
_atom_type_scat_dispersion_real
_atom_type_scat_dispersion_imag
_atom_type_scat_source
C C 0.0033 0.0016 'International Tables Vol C Tables 4.2.6.8 and 6.1.1.4'
H H 0.0000 0.0000 'International Tables Vol C Tables 4.2.6.8 and 6.1.1.4'
N N 0.0061 0.0033 'International Tables Vol C Tables 4.2.6.8 and 6.1.1.4'
O O 0.0106 0.0060 'International Tables Vol C Tables 4.2.6.8 and 6.1.1.4'
Zn Zn 0.2839 1.4301 'International Tables Vol C Tables 4.2.6.8 and 6.1.1.4'
Cl Cl 0.1484 0.1585 'International Tables Vol C Tables 4.2.6.8 and 6.1.1.4'

_symmetry_cell_setting           Orthorhombic
_symmetry_space_group_name_H-M   P2(1)2(1)2(1)

loop_
_symmetry_equiv_pos_as_xyz
'x, y, z'
'-x+1/2, -y, z+1/2'
'-x, y+1/2, -z+1/2'
'x+1/2, -y+1/2, -z'

_cell_length_a                   11.2955(13)
_cell_length_b                   16.5633(19)
_cell_length_c                   19.966(2)
_cell_angle_alpha                90.00
_cell_angle_beta                 90.00
_cell_angle_gamma                90.00
_cell_volume                     3735.4(7)
_cell_formula_units_Z            4
_cell_measurement_temperature    293(2)
_cell_measurement_reflns_used    ?
_cell_measurement_theta_min      ?
_cell_measurement_theta_max      ?

_exptl_crystal_description       ?
_exptl_crystal_colour            colorless
_exptl_crystal_size_max          0.40
_exptl_crystal_size_mid          0.36
_exptl_crystal_size_min          0.34
_exptl_crystal_density_meas      ?
_exptl_crystal_density_diffrn    1.156
_exptl_crystal_density_method    'not measured'
_exptl_crystal_F_000             1340
_exptl_absorpt_coefficient_mu    0.832
_exptl_absorpt_correction_type   ?
_exptl_absorpt_correction_T_min  0.7321
_exptl_absorpt_correction_T_max  0.7652
_exptl_absorpt_process_details   ?

_exptl_special_details           
;
?
;

_diffrn_ambient_temperature      293(2)
_diffrn_radiation_wavelength     0.71073
_diffrn_radiation_type           MoK\a
_diffrn_radiation_source         'fine-focus sealed tube'
_diffrn_radiation_monochromator  graphite
_diffrn_measurement_device_type  ?
_diffrn_measurement_method       ?
_diffrn_detector_area_resol_mean ?
_diffrn_standards_number         ?
_diffrn_standards_interval_count ?
_diffrn_standards_interval_time  ?
_diffrn_standards_decay_%        ?
_diffrn_reflns_number            25626
_diffrn_reflns_av_R_equivalents  0.1264
_diffrn_reflns_av_sigmaI/netI    0.2889
_diffrn_reflns_limit_h_min       -14
_diffrn_reflns_limit_h_max       14
_diffrn_reflns_limit_k_min       -21
_diffrn_reflns_limit_k_max       13
_diffrn_reflns_limit_l_min       -25
_diffrn_reflns_limit_l_max       25
_diffrn_reflns_theta_min         2.66
_diffrn_reflns_theta_max         27.57
_reflns_number_total             8586
_reflns_number_gt                2297
_reflns_threshold_expression     >2sigma(I)

_computing_data_collection       ?
_computing_cell_refinement       ?
_computing_data_reduction        ?
_computing_structure_solution    'SHELXS-97 (Sheldrick, 1990)'
_computing_structure_refinement  'SHELXL-97 (Sheldrick, 1997)'
_computing_molecular_graphics    ?
_computing_publication_material  ?

_refine_special_details          
;
Refinement of F^2^ against ALL reflections. The weighted R-factor wR and
goodness of fit S are based on F^2^, conventional R-factors R are based
on F, with F set to zero for negative F^2^. The threshold expression of
F^2^ > 2sigma(F^2^) is used only for calculating R-factors(gt) etc. and is
not relevant to the choice of reflections for refinement. R-factors based
on F^2^ are statistically about twice as large as those based on F, and R-
factors based on ALL data will be even larger.
;

_refine_ls_structure_factor_coef Fsqd
_refine_ls_matrix_type           full
_refine_ls_weighting_scheme      calc
_refine_ls_weighting_details     
'calc w=1/[\s^2^(Fo^2^)+(0.0860P)^2^+0.0000P] where P=(Fo^2^+2Fc^2^)/3'
_atom_sites_solution_primary     direct
_atom_sites_solution_secondary   difmap
_atom_sites_solution_hydrogens   geom
_refine_ls_hydrogen_treatment    mixed
_refine_ls_extinction_method     none
_refine_ls_extinction_coef       ?
_refine_ls_abs_structure_details 'Flack H D (1983), Acta Cryst. A39, 876-881'
_refine_ls_abs_structure_Flack   0.03(3)
_refine_ls_number_reflns         8586
_refine_ls_number_parameters     401
_refine_ls_number_restraints     4
_refine_ls_R_factor_all          0.2681
_refine_ls_R_factor_gt           0.0799
_refine_ls_wR_factor_ref         0.2405
_refine_ls_wR_factor_gt          0.2040
_refine_ls_goodness_of_fit_ref   0.945
_refine_ls_restrained_S_all      0.948
_refine_ls_shift/su_max          0.066
_refine_ls_shift/su_mean         0.003

loop_
_atom_site_label
_atom_site_type_symbol
_atom_site_fract_x
_atom_site_fract_y
_atom_site_fract_z
_atom_site_U_iso_or_equiv
_atom_site_adp_type
_atom_site_occupancy
_atom_site_symmetry_multiplicity
_atom_site_calc_flag
_atom_site_refinement_flags
_atom_site_disorder_assembly
_atom_site_disorder_group
Zn Zn 2.55991(9) 0.26990(7) 0.50434(6) 0.0738(4) Uani 1 1 d . . .
Cl1 Cl 2.4909(3) 0.16470(16) 0.44790(17) 0.0991(10) Uani 1 1 d . . .
Cl2 Cl 2.6260(3) 0.2641(2) 0.60912(14) 0.1001(10) Uani 1 1 d . . .
N1 N 2.4291(8) 0.3518(4) 0.5026(6) 0.069(2) Uani 1 1 d . . .
N2 N 1.6850(7) 0.3169(6) 0.4430(5) 0.066(2) Uani 1 1 d . . .
O1 O 2.1274(7) 0.5622(5) 0.4558(4) 0.091(2) Uani 1 1 d . . .
O2 O 1.9721(6) 0.4928(4) 0.3241(4) 0.084(2) Uani 1 1 d . . .
C11 C 2.1444(10) 0.5230(6) 0.5164(5) 0.081(3) Uani 1 1 d . . .
H11A H 2.0723 0.4957 0.5300 0.097 Uiso 1 1 calc R . .
H11B H 2.1658 0.5616 0.5509 0.097 Uiso 1 1 calc R . .
C12 C 2.2407(9) 0.4639(6) 0.5068(8) 0.076(3) Uani 1 1 d . . .
C13 C 2.3067(15) 0.4506(10) 0.5622(9) 0.160(8) Uani 1 1 d . . .
H13A H 2.2897 0.4749 0.6031 0.192 Uiso 1 1 calc R . .
C14 C 2.4091(12) 0.3942(10) 0.5534(8) 0.121(6) Uani 1 1 d . . .
H14A H 2.4626 0.3903 0.5886 0.145 Uiso 1 1 calc R . .
C15 C 2.3557(12) 0.3661(8) 0.4539(6) 0.093(4) Uani 1 1 d . . .
H15A H 2.3674 0.3376 0.4143 0.111 Uiso 1 1 calc R . .
C16 C 2.2604(13) 0.4204(8) 0.4552(7) 0.111(5) Uani 1 1 d . . .
H16A H 2.2110 0.4248 0.4181 0.133 Uiso 1 1 calc R . .
C22 C 2.0380(9) 0.6134(6) 0.4470(5) 0.062(3) Uani 1 1 d . . .
C21 C 2.0174(10) 0.6374(5) 0.3823(6) 0.066(3) Uani 1 1 d . . .
C30 C 1.9187(9) 0.6904(6) 0.3669(6) 0.068(3) Uani 1 1 d . . .
C29 C 1.8953(10) 0.7214(7) 0.3016(5) 0.070(3) Uani 1 1 d . . .
H29A H 1.9451 0.7068 0.2665 0.084 Uiso 1 1 calc R . .
C28 C 1.8067(11) 0.7694(7) 0.2893(6) 0.086(4) Uani 1 1 d . . .
H28A H 1.7938 0.7888 0.2462 0.103 Uiso 1 1 calc R . .
C27 C 1.7294(11) 0.7920(7) 0.3429(8) 0.093(4) Uani 1 1 d . . .
H27A H 1.6640 0.8244 0.3339 0.111 Uiso 1 1 calc R . .
C26 C 1.7506(10) 0.7662(8) 0.4084(7) 0.089(4) Uani 1 1 d . . .
H26A H 1.7014 0.7828 0.4431 0.107 Uiso 1 1 calc R . .
C25 C 1.8441(9) 0.7163(6) 0.4208(6) 0.070(3) Uani 1 1 d . . .
C24 C 1.8656(10) 0.6886(7) 0.4846(6) 0.094(4) Uani 1 1 d . . .
H24A H 1.8145 0.7042 0.5188 0.113 Uiso 1 1 calc R . .
C23 C 1.9580(9) 0.6395(6) 0.5001(5) 0.084(3) Uani 1 1 d . . .
H23A H 1.9701 0.6228 0.5440 0.101 Uiso 1 1 calc R . .
C41 C 1.9646(9) 0.4072(5) 0.3174(5) 0.070(3) Uani 1 1 d . . .
H41A H 2.0389 0.3822 0.3302 0.084 Uiso 1 1 calc R . .
H41B H 1.9475 0.3927 0.2713 0.084 Uiso 1 1 calc R . .
C42 C 1.8661(10) 0.3790(7) 0.3628(5) 0.068(3) Uani 1 1 d . . .
C43 C 1.8261(11) 0.4231(7) 0.4175(6) 0.097(4) Uani 1 1 d . . .
H43A H 1.8599 0.4723 0.4294 0.117 Uiso 1 1 calc R . .
C44 C 1.7339(12) 0.3900(8) 0.4530(6) 0.095(4) Uani 1 1 d . . .
H44A H 1.7021 0.4212 0.4873 0.114 Uiso 1 1 calc R . .
C45 C 1.7307(10) 0.2765(7) 0.3937(7) 0.089(4) Uani 1 1 d . . .
H45A H 1.7022 0.2245 0.3866 0.107 Uiso 1 1 calc R . .
C46 C 1.8162(10) 0.3033(7) 0.3516(6) 0.090(4) Uani 1 1 d . . .
H46A H 1.8412 0.2716 0.3158 0.108 Uiso 1 1 calc R . .
C32 C 2.0720(10) 0.5302(7) 0.3023(5) 0.073(3) Uani 1 1 d . . .
C31 C 2.0976(8) 0.6091(6) 0.3304(5) 0.051(3) Uani 1 1 d . . .
C40 C 2.1943(9) 0.6498(7) 0.3075(5) 0.066(3) Uani 1 1 d . . .
C39 C 2.2283(11) 0.7264(8) 0.3336(6) 0.088(4) Uani 1 1 d . . .
H39A H 2.1788 0.7519 0.3643 0.106 Uiso 1 1 calc R . .
C38 C 2.3315(14) 0.7638(9) 0.3152(7) 0.116(5) Uani 1 1 d . . .
H38A H 2.3512 0.8134 0.3339 0.139 Uiso 1 1 calc R . .
C37 C 2.4044(10) 0.7296(9) 0.2704(7) 0.100(4) Uani 1 1 d . . .
H37A H 2.4731 0.7568 0.2582 0.120 Uiso 1 1 calc R . .
C36 C 2.3813(10) 0.6555(8) 0.2416(6) 0.090(4) Uani 1 1 d . . .
H36A H 2.4329 0.6336 0.2102 0.108 Uiso 1 1 calc R . .
C35 C 2.2790(10) 0.6143(8) 0.2606(5) 0.073(3) Uani 1 1 d . . .
C34 C 2.2574(10) 0.5342(7) 0.2356(5) 0.073(3) Uani 1 1 d . . .
H34A H 2.3102 0.5094 0.2064 0.087 Uiso 1 1 calc R . .
C33 C 2.1579(10) 0.4962(6) 0.2559(5) 0.076(3) Uani 1 1 d . . .
H33A H 2.1434 0.4448 0.2391 0.091 Uiso 1 1 calc R . .
N N 1.6318(17) 0.5119(11) 0.2229(15) 0.119(10) Uani 0.50 1 d PD . .
O O 1.5043(11) 0.4372(7) 0.1600(6) 0.044(3) Uani 0.50 1 d PD . .
C1 C 1.709(2) 0.5808(16) 0.222(2) 0.20(2) Uani 0.50 1 d PD . .
C2 C 1.587(2) 0.4695(17) 0.2809(14) 0.143(13) Uani 0.50 1 d PD . .
C3 C 1.5753(19) 0.4921(11) 0.1672(10) 0.071(8) Uani 0.50 1 d PD . .
OW O 1.5644(18) 0.5780(11) 0.5108(10) 0.164(7) Uiso 0.50 1 d P . .

loop_
_atom_site_aniso_label
_atom_site_aniso_U_11
_atom_site_aniso_U_22
_atom_site_aniso_U_33
_atom_site_aniso_U_23
_atom_site_aniso_U_13
_atom_site_aniso_U_12
Zn 0.0551(6) 0.0713(7) 0.0950(9) 0.0147(8) 0.0058(8) -0.0001(6)
Cl1 0.0730(19) 0.0738(19) 0.150(3) -0.0013(19) 0.002(2) -0.0139(16)
Cl2 0.088(2) 0.116(2) 0.096(2) 0.028(2) -0.0055(17) 0.005(2)
N1 0.077(6) 0.069(5) 0.061(6) -0.014(6) 0.015(7) 0.011(5)
N2 0.068(6) 0.052(6) 0.078(6) 0.003(5) -0.011(5) -0.013(5)
O1 0.089(6) 0.112(6) 0.070(5) 0.023(5) 0.028(5) 0.055(5)
O2 0.057(5) 0.068(5) 0.128(6) -0.006(5) 0.039(5) -0.010(4)
C11 0.083(8) 0.077(8) 0.083(9) 0.005(7) 0.025(7) 0.011(7)
C12 0.075(7) 0.051(7) 0.100(10) 0.017(8) -0.034(9) 0.003(6)
C13 0.134(13) 0.206(18) 0.140(14) 0.071(13) 0.076(13) 0.120(13)
C14 0.081(11) 0.184(16) 0.097(11) 0.063(12) -0.011(9) 0.003(11)
C15 0.102(10) 0.118(11) 0.059(8) -0.040(8) -0.031(8) 0.036(9)
C16 0.133(13) 0.101(11) 0.099(11) -0.043(9) -0.038(10) 0.063(10)
C22 0.056(7) 0.066(7) 0.062(7) 0.000(6) 0.001(6) 0.010(6)
C21 0.075(8) 0.046(6) 0.077(8) -0.004(6) 0.016(7) -0.003(6)
C30 0.072(8) 0.045(6) 0.087(8) -0.003(6) 0.019(7) 0.020(6)
C29 0.081(8) 0.060(7) 0.070(8) 0.005(7) 0.018(6) 0.009(7)
C28 0.083(8) 0.073(8) 0.101(9) -0.007(8) 0.005(8) 0.029(8)
C27 0.087(10) 0.056(8) 0.135(12) 0.010(9) -0.023(9) 0.018(7)
C26 0.089(9) 0.082(8) 0.096(10) -0.023(8) 0.016(7) 0.027(8)
C25 0.063(7) 0.057(7) 0.089(9) 0.007(7) 0.015(7) 0.018(6)
C24 0.103(9) 0.097(8) 0.082(9) 0.012(8) 0.041(8) 0.057(7)
C23 0.107(9) 0.084(7) 0.061(6) 0.014(7) 0.045(8) 0.024(7)
C41 0.078(8) 0.036(6) 0.096(8) -0.011(5) 0.008(7) -0.010(5)
C42 0.053(7) 0.080(8) 0.072(8) 0.011(7) 0.008(6) 0.017(7)
C43 0.095(10) 0.086(9) 0.111(10) -0.025(8) 0.053(9) -0.036(8)
C44 0.117(11) 0.091(10) 0.077(9) -0.018(8) 0.021(8) -0.022(9)
C45 0.086(9) 0.059(8) 0.123(10) -0.032(9) 0.028(8) -0.022(7)
C46 0.068(8) 0.076(9) 0.127(10) -0.040(8) 0.031(7) -0.041(6)
C32 0.074(8) 0.078(8) 0.067(7) 0.002(6) -0.007(7) -0.001(7)
C31 0.044(6) 0.045(6) 0.066(7) 0.003(5) 0.019(5) 0.006(5)
C40 0.055(7) 0.070(8) 0.075(8) -0.014(7) 0.004(6) 0.008(6)
C39 0.088(9) 0.082(9) 0.095(9) -0.006(8) 0.011(7) -0.016(8)
C38 0.122(12) 0.115(12) 0.110(11) -0.011(10) 0.023(9) -0.057(12)
C37 0.059(8) 0.113(12) 0.128(11) -0.004(10) 0.030(7) -0.031(8)
C36 0.070(8) 0.089(10) 0.112(10) 0.019(8) 0.035(8) -0.011(7)
C35 0.074(9) 0.087(9) 0.057(7) 0.009(7) -0.001(6) -0.006(7)
C34 0.052(7) 0.080(9) 0.086(9) 0.012(7) 0.016(7) -0.002(7)
C33 0.077(8) 0.071(8) 0.080(8) -0.027(7) 0.010(7) 0.017(7)
N 0.075(15) 0.053(14) 0.23(3) 0.047(18) -0.046(19) 0.041(12)
O 0.043(8) 0.043(8) 0.047(7) -0.023(7) -0.004(6) 0.013(6)
C1 0.09(2) 0.09(2) 0.41(6) -0.10(3) -0.09(3) -0.008(17)
C2 0.12(3) 0.13(2) 0.18(3) -0.01(2) -0.08(2) 0.10(2)
C3 0.10(2) 0.073(18) 0.040(13) 0.014(13) 0.025(14) 0.088(17)

_geom_special_details            
;
All esds (except the esd in the dihedral angle between two l.s. planes)
are estimated using the full covariance matrix. The cell esds are taken
into account individually in the estimation of esds in distances, angles
and torsion angles; correlations between esds in cell parameters are only
used when they are defined by crystal symmetry. An approximate (isotropic)
treatment of cell esds is used for estimating esds involving l.s. planes.
;

loop_
_geom_bond_atom_site_label_1
_geom_bond_atom_site_label_2
_geom_bond_distance
_geom_bond_site_symmetry_2
_geom_bond_publ_flag
Zn N1 2.006(8) . ?
Zn N2 2.026(8) 1_655 ?
Zn Cl1 2.217(3) . ?
Zn Cl2 2.223(3) . ?
N1 C14 1.254(15) . ?
N1 C15 1.300(12) . ?
N2 C45 1.297(12) . ?
N2 C44 1.346(12) . ?
N2 Zn 2.026(8) 1_455 ?
O1 C22 1.330(11) . ?
O1 C11 1.387(11) . ?
O2 C32 1.358(12) . ?
O2 C41 1.428(9) . ?
C11 C12 1.476(13) . ?
C12 C16 1.278(15) . ?
C12 C13 1.351(18) . ?
C13 C14 1.498(18) . ?
C15 C16 1.403(15) . ?
C22 C21 1.372(12) . ?
C22 C23 1.457(12) . ?
C21 C30 1.452(13) . ?
C21 C31 1.454(12) . ?
C30 C29 1.427(13) . ?
C30 C25 1.432(12) . ?
C29 C28 1.302(13) . ?
C28 C27 1.431(15) . ?
C27 C26 1.396(14) . ?
C26 C25 1.364(14) . ?
C25 C24 1.376(13) . ?
C24 C23 1.359(12) . ?
C41 C42 1.510(13) . ?
C42 C43 1.388(13) . ?
C42 C46 1.393(13) . ?
C43 C44 1.374(15) . ?
C45 C46 1.355(13) . ?
C32 C31 1.452(12) . ?
C32 C33 1.455(13) . ?
C31 C40 1.362(13) . ?
C40 C39 1.424(14) . ?
C40 C35 1.463(14) . ?
C39 C38 1.370(15) . ?
C38 C37 1.342(15) . ?
C37 C36 1.378(14) . ?
C36 C35 1.395(14) . ?
C35 C34 1.437(14) . ?
C34 C33 1.350(13) . ?
N C3 1.323(17) . ?
N C1 1.440(17) . ?
N C2 1.448(18) . ?
O C3 1.221(17) . ?

loop_
_geom_angle_atom_site_label_1
_geom_angle_atom_site_label_2
_geom_angle_atom_site_label_3
_geom_angle
_geom_angle_site_symmetry_1
_geom_angle_site_symmetry_3
_geom_angle_publ_flag
N1 Zn N2 104.1(3) . 1_655 ?
N1 Zn Cl1 105.3(3) . . ?
N2 Zn Cl1 103.9(3) 1_655 . ?
N1 Zn Cl2 107.0(3) . . ?
N2 Zn Cl2 110.6(2) 1_655 . ?
Cl1 Zn Cl2 124.22(12) . . ?
C14 N1 C15 112.8(10) . . ?
C14 N1 Zn 119.8(10) . . ?
C15 N1 Zn 127.3(8) . . ?
C45 N2 C44 114.5(10) . . ?
C45 N2 Zn 122.5(8) . 1_455 ?
C44 N2 Zn 122.8(9) . 1_455 ?
C22 O1 C11 121.1(8) . . ?
C32 O2 C41 118.1(8) . . ?
O1 C11 C12 107.4(9) . . ?
C16 C12 C13 118.2(12) . . ?
C16 C12 C11 127.4(12) . . ?
C13 C12 C11 114.1(13) . . ?
C12 C13 C14 115.5(14) . . ?
N1 C14 C13 125.7(14) . . ?
N1 C15 C16 126.3(11) . . ?
C12 C16 C15 120.7(13) . . ?
O1 C22 C21 115.9(9) . . ?
O1 C22 C23 124.4(9) . . ?
C21 C22 C23 119.6(9) . . ?
C22 C21 C30 120.2(10) . . ?
C22 C21 C31 118.2(9) . . ?
C30 C21 C31 121.5(9) . . ?
C29 C30 C25 118.0(9) . . ?
C29 C30 C21 123.5(10) . . ?
C25 C30 C21 118.4(10) . . ?
C28 C29 C30 122.3(10) . . ?
C29 C28 C27 119.2(11) . . ?
C26 C27 C28 121.1(10) . . ?
C25 C26 C27 119.2(11) . . ?
C26 C25 C24 120.5(11) . . ?
C26 C25 C30 120.1(11) . . ?
C24 C25 C30 119.4(10) . . ?
C23 C24 C25 123.0(11) . . ?
C24 C23 C22 119.3(10) . . ?
O2 C41 C42 107.1(8) . . ?
C43 C42 C46 117.9(11) . . ?
C43 C42 C41 123.3(10) . . ?
C46 C42 C41 118.7(10) . . ?
C44 C43 C42 116.3(11) . . ?
N2 C44 C43 126.3(12) . . ?
N2 C45 C46 125.8(11) . . ?
C45 C46 C42 118.9(11) . . ?
O2 C32 C31 116.9(10) . . ?
O2 C32 C33 125.6(10) . . ?
C31 C32 C33 117.5(10) . . ?
C40 C31 C32 118.4(9) . . ?
C40 C31 C21 125.4(9) . . ?
C32 C31 C21 116.2(9) . . ?
C31 C40 C39 122.3(10) . . ?
C31 C40 C35 122.7(10) . . ?
C39 C40 C35 114.6(11) . . ?
C38 C39 C40 122.2(12) . . ?
C37 C38 C39 120.7(14) . . ?
C38 C37 C36 122.5(12) . . ?
C37 C36 C35 118.6(11) . . ?
C36 C35 C34 119.9(12) . . ?
C36 C35 C40 121.2(11) . . ?
C34 C35 C40 118.8(10) . . ?
C33 C34 C35 117.9(11) . . ?
C34 C33 C32 124.4(11) . . ?
C3 N C1 119(3) . . ?
C3 N C2 112.5(19) . . ?
C1 N C2 128(3) . . ?
O C3 N 126.9(19) . . ?

loop_
_geom_torsion_atom_site_label_1
_geom_torsion_atom_site_label_2
_geom_torsion_atom_site_label_3
_geom_torsion_atom_site_label_4
_geom_torsion
_geom_torsion_site_symmetry_1
_geom_torsion_site_symmetry_2
_geom_torsion_site_symmetry_3
_geom_torsion_site_symmetry_4
_geom_torsion_publ_flag
N2 Zn N1 C14 -109.3(10) 1_655 . . . ?
Cl1 Zn N1 C14 141.7(9) . . . . ?
Cl2 Zn N1 C14 7.8(10) . . . . ?
N2 Zn N1 C15 73.0(10) 1_655 . . . ?
Cl1 Zn N1 C15 -35.9(10) . . . . ?
Cl2 Zn N1 C15 -