####################################################################### 
# 
# This file contains crystal structure data downloaded from the 
# Cambridge Structural Database (CSD) hosted by the Cambridge 
# Crystallographic Data Centre (CCDC).
# 
# Full information about CCDC data access policies and citation 
# guidelines are available at http://www.ccdc.cam.ac.uk/access/V1 
# 
# Audit and citation data items may have been added by the CCDC. 
# Please retain this information to preserve the provenance of 
# this file and to allow appropriate attribution of the data. 
# 
#######################################################################

data_2a
_audit_block_doi                 10.5517/cc11qxnb
_database_code_depnum_ccdc_archive 'CCDC 975342'
loop_
_citation_id
_citation_doi
_citation_year
1 10.1002/chem.201304784 2014
_audit_update_record             
;
2013-12-05 deposited with the CCDC.	2024-07-10 downloaded from the CCDC.
;

_audit_creation_method           SHELXL-97
_chemical_name_systematic        
; 
 ? 
;
_chemical_name_common            ?
_chemical_melting_point          ?
_chemical_formula_moiety         ?
_chemical_formula_sum            'C46 H30 N6 O8 Zn2'
_chemical_formula_weight         925.50

loop_
_atom_type_symbol
_atom_type_description
_atom_type_scat_dispersion_real
_atom_type_scat_dispersion_imag
_atom_type_scat_source
C C 0.0033 0.0016 'International Tables Vol C Tables 4.2.6.8 and 6.1.1.4'
H H 0.0000 0.0000 'International Tables Vol C Tables 4.2.6.8 and 6.1.1.4'
O O 0.0106 0.0060 'International Tables Vol C Tables 4.2.6.8 and 6.1.1.4'
N N 0.0061 0.0033 'International Tables Vol C Tables 4.2.6.8 and 6.1.1.4'
Zn Zn 0.2839 1.4301 'International Tables Vol C Tables 4.2.6.8 and 6.1.1.4'

_symmetry_cell_setting           Triclinic
_symmetry_space_group_name_H-M   P-1

loop_
_symmetry_equiv_pos_as_xyz
'x, y, z'
'-x, -y, -z'

_cell_length_a                   10.279(7)
_cell_length_b                   14.310(9)
_cell_length_c                   18.560(11)
_cell_angle_alpha                83.628(8)
_cell_angle_beta                 82.150(9)
_cell_angle_gamma                90.025(9)
_cell_volume                     2687(3)
_cell_formula_units_Z            2
_cell_measurement_temperature    298(2)
_cell_measurement_reflns_used    1948
_cell_measurement_theta_min      2.73
_cell_measurement_theta_max      26.591

_exptl_crystal_description       block
_exptl_crystal_colour            colorless
_exptl_crystal_size_max          0.32
_exptl_crystal_size_mid          0.16
_exptl_crystal_size_min          0.15
_exptl_crystal_density_meas      ?
_exptl_crystal_density_diffrn    1.144
_exptl_crystal_density_method    'not measured'
_exptl_crystal_F_000             944
_exptl_absorpt_coefficient_mu    0.941
_exptl_absorpt_correction_type   multi-scan
_exptl_absorpt_correction_T_min  0.7527
_exptl_absorpt_correction_T_max  0.8717
_exptl_absorpt_process_details   sadabs

_exptl_special_details           
; 
 ? 
;

_diffrn_ambient_temperature      298(2)
_diffrn_radiation_wavelength     0.71073
_diffrn_radiation_type           MoK\a
_diffrn_radiation_source         'fine-focus sealed tube'
_diffrn_radiation_monochromator  graphite
_diffrn_measurement_device_type  'CCD area detector'
_diffrn_measurement_method       'phi and omega scans'
_diffrn_detector_area_resol_mean ?
_diffrn_standards_number         ?
_diffrn_standards_interval_count ?
_diffrn_standards_interval_time  ?
_diffrn_standards_decay_%        ?
_diffrn_reflns_number            13367
_diffrn_reflns_av_R_equivalents  0.0889
_diffrn_reflns_av_sigmaI/netI    0.2524
_diffrn_reflns_limit_h_min       -10
_diffrn_reflns_limit_h_max       12
_diffrn_reflns_limit_k_min       -17
_diffrn_reflns_limit_k_max       15
_diffrn_reflns_limit_l_min       -22
_diffrn_reflns_limit_l_max       20
_diffrn_reflns_theta_min         2.78
_diffrn_reflns_theta_max         25.02
_reflns_number_total             9250
_reflns_number_gt                3425
_reflns_threshold_expression     >2sigma(I)

_computing_data_collection       'Bruker SMART'
_computing_cell_refinement       'Bruker SMART'
_computing_data_reduction        'Bruker SAINT'
_computing_structure_solution    'SHELXS-97 (Sheldrick, 1990)'
_computing_structure_refinement  'SHELXL-97 (Sheldrick, 1997)'
_computing_molecular_graphics    'Bruker SHELXTL'
_computing_publication_material  'Bruker SHELXTL'

_refine_special_details          
; 
 Refinement of F^2^ against ALL reflections.  The weighted R-factor wR and 
 goodness of fit S are based on F^2^, conventional R-factors R are based 
 on F, with F set to zero for negative F^2^. The threshold expression of 
 F^2^ > 2sigma(F^2^) is used only for calculating R-factors(gt) etc. and is 
 not relevant to the choice of reflections for refinement.  R-factors based 
 on F^2^ are statistically about twice as large as those based on F, and R- 
 factors based on ALL data will be even larger. 
;

_refine_ls_structure_factor_coef Fsqd
_refine_ls_matrix_type           full
_refine_ls_weighting_scheme      calc
_refine_ls_weighting_details     
'calc w=1/[\s^2^(Fo^2^)+(0.0264P)^2^+0.0000P] where P=(Fo^2^+2Fc^2^)/3'
_atom_sites_solution_primary     direct
_atom_sites_solution_secondary   difmap
_atom_sites_solution_hydrogens   geom
_refine_ls_hydrogen_treatment    constr
_refine_ls_extinction_method     none
_refine_ls_extinction_coef       ?
_refine_ls_number_reflns         9250
_refine_ls_number_parameters     559
_refine_ls_number_restraints     0
_refine_ls_R_factor_all          0.1783
_refine_ls_R_factor_gt           0.0882
_refine_ls_wR_factor_ref         0.1841
_refine_ls_wR_factor_gt          0.1658
_refine_ls_goodness_of_fit_ref   1.001
_refine_ls_restrained_S_all      1.001
_refine_ls_shift/su_max          0.000
_refine_ls_shift/su_mean         0.000

loop_
_atom_site_label
_atom_site_type_symbol
_atom_site_fract_x
_atom_site_fract_y
_atom_site_fract_z
_atom_site_U_iso_or_equiv
_atom_site_adp_type
_atom_site_occupancy
_atom_site_symmetry_multiplicity
_atom_site_calc_flag
_atom_site_refinement_flags
_atom_site_disorder_assembly
_atom_site_disorder_group
Zn1 Zn 0.10923(9) 0.28208(7) 0.12950(5) 0.0383(3) Uani 1 1 d . . .
Zn2 Zn 0.47316(10) 0.39070(7) 0.65555(5) 0.0401(3) Uani 1 1 d . . .
O1 O 0.2652(5) 0.2035(4) 0.1392(3) 0.0472(17) Uani 1 1 d . . .
O2 O 0.4013(6) 0.3009(4) 0.0607(4) 0.075(2) Uani 1 1 d . . .
O3 O 0.8621(5) 0.3145(4) 0.1265(3) 0.0470(17) Uani 1 1 d . . .
O4 O 0.9662(6) 0.1754(4) 0.1361(3) 0.0508(18) Uani 1 1 d . . .
O5 O -0.3554(5) 0.3769(4) 0.5915(3) 0.0446(16) Uani 1 1 d . . .
O6 O -0.2702(7) 0.4118(8) 0.6880(4) 0.131(4) Uani 1 1 d . . .
O7 O 0.2134(6) 0.4130(4) 0.6836(3) 0.0517(19) Uani 1 1 d . . .
O8 O 0.3458(5) 0.3786(4) 0.5835(3) 0.0445(16) Uani 1 1 d . . .
N1 N 0.5471(8) -0.2397(5) 0.3061(4) 0.055(2) Uani 1 1 d . . .
N2 N 0.0669(7) 0.2926(5) 0.2445(4) 0.044(2) Uani 1 1 d . . .
N3 N 0.1561(6) 0.4326(5) 0.1126(4) 0.0381(19) Uani 1 1 d . . .
N4 N 0.1191(7) 0.3110(6) 0.0121(4) 0.046(2) Uani 1 1 d . . .
N5 N 0.4636(7) 0.4248(6) 0.7630(4) 0.053(2) Uani 1 1 d . . .
N6 N 0.4725(7) 0.5426(5) 0.6405(4) 0.040(2) Uani 1 1 d . . .
C1 C 0.3805(10) 0.2302(6) 0.1084(5) 0.045(3) Uani 1 1 d . . .
C2 C 0.8625(9) 0.2245(7) 0.1336(4) 0.039(2) Uani 1 1 d . . .
C3 C 0.4945(8) 0.1783(6) 0.1335(5) 0.039(2) Uani 1 1 d . . .
C4 C 0.6216(7) 0.2191(5) 0.1195(4) 0.035(2) Uani 1 1 d . . .
H4 H 0.6326 0.2777 0.0921 0.043 Uiso 1 1 calc R . .
C5 C 0.7300(7) 0.1774(5) 0.1440(4) 0.032(2) Uani 1 1 d . . .
C6 C 0.7148(8) 0.0873(6) 0.1839(4) 0.049(3) Uani 1 1 d . . .
H6 H 0.7865 0.0559 0.2001 0.059 Uiso 1 1 calc R . .
C7 C 0.5885(8) 0.0462(6) 0.1984(5) 0.042(2) Uani 1 1 d . . .
C8 C 0.4785(8) 0.0898(5) 0.1741(5) 0.042(2) Uani 1 1 d . . .
H8 H 0.3962 0.0605 0.1846 0.050 Uiso 1 1 calc R . .
C9 C 0.5756(9) -0.0554(6) 0.2387(5) 0.055(3) Uani 1 1 d . . .
C10 C 0.4550(9) -0.0935(7) 0.2737(6) 0.103(5) Uani 1 1 d . . .
H10 H 0.3797 -0.0574 0.2758 0.124 Uiso 1 1 calc R . .
C11 C 0.4501(12) -0.1853(7) 0.3050(7) 0.112(5) Uani 1 1 d . . .
H11 H 0.3686 -0.2095 0.3273 0.135 Uiso 1 1 calc R . .
C12 C 0.6627(10) -0.2082(6) 0.2727(6) 0.079(4) Uani 1 1 d . . .
H12 H 0.7346 -0.2476 0.2731 0.094 Uiso 1 1 calc R . .
C13 C 0.6800(9) -0.1167(7) 0.2365(6) 0.069(3) Uani 1 1 d . . .
H13 H 0.7615 -0.0972 0.2110 0.083 Uiso 1 1 calc R . .
C14 C -0.2573(9) 0.3933(7) 0.6246(6) 0.051(3) Uani 1 1 d . . .
C15 C 0.2287(9) 0.3951(5) 0.6181(6) 0.039(2) Uani 1 1 d . . .
C16 C -0.1226(7) 0.3851(5) 0.5803(5) 0.033(2) Uani 1 1 d . . .
C17 C -0.0125(8) 0.3949(5) 0.6153(5) 0.042(2) Uani 1 1 d . . .
H17 H -0.0233 0.4075 0.6639 0.050 Uiso 1 1 calc R . .
C18 C 0.1129(8) 0.3862(5) 0.5785(5) 0.030(2) Uani 1 1 d . . .
C19 C 0.1277(8) 0.3680(5) 0.5065(5) 0.038(2) Uani 1 1 d . . .
H19 H 0.2120 0.3628 0.4818 0.046 Uiso 1 1 calc R . .
C20 C 0.0215(8) 0.3573(6) 0.4698(4) 0.035(2) Uani 1 1 d . . .
C21 C -0.1082(8) 0.3678(5) 0.5085(5) 0.037(2) Uani 1 1 d . . .
H21 H -0.1817 0.3629 0.4848 0.044 Uiso 1 1 calc R . .
C22 C 0.0375(8) 0.3353(6) 0.3925(5) 0.038(2) Uani 1 1 d . . .
C23 C -0.0538(8) 0.3643(6) 0.3459(5) 0.043(2) Uani 1 1 d . . .
H23 H -0.1268 0.3984 0.3624 0.051 Uiso 1 1 calc R . .
C24 C -0.0337(10) 0.3415(7) 0.2739(5) 0.056(3) Uani 1 1 d . . .
H24 H -0.0958 0.3621 0.2439 0.068 Uiso 1 1 calc R . .
C25 C 0.1529(9) 0.2661(7) 0.2901(5) 0.057(3) Uani 1 1 d . . .
H25 H 0.2253 0.2324 0.2723 0.068 Uiso 1 1 calc R . .
C26 C 0.1419(8) 0.2856(6) 0.3631(5) 0.052(3) Uani 1 1 d . . .
H26 H 0.2058 0.2647 0.3918 0.062 Uiso 1 1 calc R . .
C27 C 0.1774(8) 0.4881(6) 0.1623(5) 0.045(3) Uani 1 1 d . . .
H27 H 0.1747 0.4610 0.2104 0.054 Uiso 1 1 calc R . .
C28 C 0.2038(9) 0.5845(6) 0.1474(6) 0.060(3) Uani 1 1 d . . .
H28 H 0.2159 0.6216 0.1840 0.072 Uiso 1 1 calc R . .
C29 C 0.2109(9) 0.6216(7) 0.0745(6) 0.062(3) Uani 1 1 d . . .
H29 H 0.2292 0.6854 0.0614 0.074 Uiso 1 1 calc R . .
C30 C 0.1914(8) 0.5657(6) 0.0220(5) 0.049(3) Uani 1 1 d . . .
H30 H 0.1960 0.5914 -0.0266 0.059 Uiso 1 1 calc R . .
C31 C 0.1643(7) 0.4696(6) 0.0413(5) 0.040(2) Uani 1 1 d . . .
C32 C 0.1395(8) 0.4065(7) -0.0132(5) 0.044(2) Uani 1 1 d . . .
C33 C 0.1405(8) 0.4340(7) -0.0887(5) 0.050(3) Uani 1 1 d . . .
H33 H 0.1540 0.4967 -0.1076 0.060 Uiso 1 1 calc R . .
C34 C 0.1215(9) 0.3675(9) -0.1337(6) 0.067(3) Uani 1 1 d . . .
H34 H 0.1220 0.3850 -0.1835 0.081 Uiso 1 1 calc R . .
C35 C 0.1024(11) 0.2780(9) -0.1067(7) 0.078(4) Uani 1 1 d . . .
H35 H 0.0932 0.2321 -0.1375 0.094 Uiso 1 1 calc R . .
C36 C 0.0963(9) 0.2541(7) -0.0324(6) 0.055(3) Uani 1 1 d . . .
H36 H 0.0741 0.1923 -0.0137 0.066 Uiso 1 1 calc R . .
C37 C 0.4639(9) 0.3638(9) 0.8256(6) 0.077(4) Uani 1 1 d . . .
H37 H 0.4616 0.2992 0.8238 0.093 Uiso 1 1 calc R . .
C38 C 0.4677(9) 0.4022(12) 0.8951(7) 0.088(5) Uani 1 1 d . . .
H38 H 0.4611 0.3613 0.9381 0.106 Uiso 1 1 calc R . .
C39 C 0.4808(12) 0.4977(12) 0.8987(8) 0.093(5) Uani 1 1 d . . .
H39 H 0.4887 0.5215 0.9425 0.112 Uiso 1 1 calc R . .
C40 C 0.4815(11) 0.5544(10) 0.8362(7) 0.098(4) Uani 1 1 d . . .
H40 H 0.4896 0.6188 0.8378 0.117 Uiso 1 1 calc R . .
C41 C 0.4707(9) 0.5222(9) 0.7675(6) 0.057(3) Uani 1 1 d . . .
C42 C 0.4701(9) 0.5852(8) 0.6989(5) 0.054(3) Uani 1 1 d . . .
C43 C 0.4634(14) 0.6896(9) 0.6945(8) 0.115(5) Uani 1 1 d . . .
H43 H 0.4628 0.7212 0.7357 0.138 Uiso 1 1 calc R . .
C44 C 0.4581(17) 0.7364(9) 0.6272(10) 0.146(7) Uani 1 1 d . . .
H44 H 0.4472 0.8012 0.6220 0.175 Uiso 1 1 calc R . .
C45 C 0.4688(13) 0.6886(9) 0.5674(7) 0.103(5) Uani 1 1 d . . .
H45 H 0.4751 0.7215 0.5209 0.123 Uiso 1 1 calc R . .
C46 C 0.4703(9) 0.5937(7) 0.5752(6) 0.057(3) Uani 1 1 d . . .
H46 H 0.4698 0.5624 0.5339 0.069 Uiso 1 1 calc R . .

loop_
_atom_site_aniso_label
_atom_site_aniso_U_11
_atom_site_aniso_U_22
_atom_site_aniso_U_33
_atom_site_aniso_U_23
_atom_site_aniso_U_13
_atom_site_aniso_U_12
Zn1 0.0271(6) 0.0388(7) 0.0447(7) 0.0098(5) -0.0011(5) -0.0043(5)
Zn2 0.0325(7) 0.0410(7) 0.0435(7) 0.0055(5) -0.0022(5) -0.0068(5)
O1 0.027(4) 0.041(4) 0.066(4) 0.019(3) -0.001(3) 0.001(3)
O2 0.042(4) 0.068(5) 0.101(6) 0.046(4) -0.004(4) -0.013(4)
O3 0.047(4) 0.042(4) 0.049(4) 0.011(3) -0.009(3) -0.017(3)
O4 0.025(4) 0.049(4) 0.077(5) 0.006(3) -0.011(3) -0.006(3)
O5 0.023(4) 0.044(4) 0.063(4) 0.007(3) -0.003(3) -0.006(3)
O6 0.042(5) 0.308(13) 0.046(5) -0.049(7) 0.010(4) 0.020(6)
O7 0.043(4) 0.070(5) 0.043(4) 0.000(4) -0.014(3) -0.013(3)
O8 0.028(4) 0.041(4) 0.061(4) 0.006(3) -0.002(3) -0.006(3)
N1 0.048(6) 0.033(5) 0.074(6) 0.018(4) 0.009(5) -0.005(4)
N2 0.027(5) 0.049(5) 0.056(5) 0.004(4) -0.013(4) 0.010(4)
N3 0.037(5) 0.037(5) 0.038(5) -0.004(4) 0.005(4) 0.002(4)
N4 0.031(5) 0.045(6) 0.061(6) -0.012(5) -0.001(4) 0.005(4)
N5 0.023(5) 0.076(7) 0.054(6) 0.008(5) 0.007(4) -0.005(4)
N6 0.044(5) 0.039(5) 0.036(5) -0.008(4) 0.003(4) -0.004(4)
C1 0.054(7) 0.032(6) 0.047(6) -0.002(5) -0.006(5) 0.005(5)
C2 0.029(6) 0.043(7) 0.042(6) 0.003(5) 0.002(5) -0.021(5)
C3 0.020(5) 0.035(6) 0.060(6) 0.010(5) -0.007(4) -0.002(4)
C4 0.019(5) 0.032(5) 0.053(6) 0.005(4) -0.003(4) -0.015(4)
C5 0.016(5) 0.022(5) 0.056(6) 0.005(4) -0.010(4) -0.004(4)
C6 0.026(6) 0.051(6) 0.065(7) 0.029(5) -0.014(5) -0.013(5)
C7 0.034(6) 0.030(5) 0.060(6) 0.016(5) -0.011(5) -0.010(4)
C8 0.028(5) 0.025(5) 0.069(7) -0.001(5) -0.001(5) -0.003(4)
C9 0.035(6) 0.045(7) 0.079(8) 0.016(6) -0.011(5) 0.000(5)
C10 0.027(6) 0.079(9) 0.172(13) 0.063(8) 0.041(7) 0.009(6)
C11 0.073(10) 0.043(7) 0.185(14) 0.065(8) 0.048(9) 0.003(7)
C12 0.053(8) 0.040(7) 0.131(10) 0.039(7) -0.009(7) -0.001(5)
C13 0.023(6) 0.060(8) 0.116(10) 0.012(7) 0.009(6) 0.005(5)
C14 0.017(6) 0.082(8) 0.047(7) 0.016(6) 0.002(5) 0.018(5)
C15 0.030(6) 0.020(5) 0.066(7) 0.014(5) -0.016(6) -0.005(4)
C16 0.017(5) 0.039(6) 0.038(5) 0.008(4) 0.000(4) -0.005(4)
C17 0.022(5) 0.046(6) 0.056(6) 0.012(5) -0.014(5) -0.008(4)
C18 0.019(5) 0.021(5) 0.045(6) 0.006(4) 0.001(4) 0.001(4)
C19 0.027(5) 0.046(6) 0.039(6) 0.008(5) -0.001(4) -0.007(4)
C20 0.024(5) 0.040(6) 0.038(6) 0.005(4) -0.005(4) 0.002(4)
C21 0.025(5) 0.035(5) 0.049(6) 0.005(5) -0.007(4) -0.003(4)
C22 0.017(5) 0.054(7) 0.042(6) 0.004(5) -0.003(4) 0.011(4)
C23 0.038(6) 0.058(7) 0.033(6) 0.000(5) -0.010(5) -0.005(5)
C24 0.045(7) 0.064(8) 0.058(7) 0.018(6) -0.019(6) -0.015(6)
C25 0.037(6) 0.074(8) 0.051(7) 0.005(6) 0.014(5) 0.014(5)
C26 0.026(6) 0.077(8) 0.054(7) -0.016(6) -0.007(5) 0.033(5)
C27 0.025(6) 0.047(7) 0.059(7) 0.003(5) -0.003(5) -0.001(5)
C28 0.067(8) 0.036(7) 0.073(8) -0.007(6) 0.008(6) -0.015(5)
C29 0.042(7) 0.045(7) 0.093(9) 0.010(7) -0.004(6) -0.022(5)
C30 0.047(7) 0.042(7) 0.052(7) 0.014(5) 0.001(5) -0.014(5)
C31 0.015(5) 0.045(6) 0.056(7) 0.011(5) -0.001(4) 0.003(4)
C32 0.033(6) 0.056(7) 0.041(6) -0.003(5) -0.004(5) 0.001(5)
C33 0.032(6) 0.069(8) 0.042(6) 0.016(6) 0.001(5) -0.003(5)
C34 0.039(7) 0.095(10) 0.061(8) 0.005(8) 0.003(6) 0.000(7)
C35 0.080(9) 0.083(10) 0.077(10) -0.028(8) -0.011(7) 0.003(7)
C36 0.066(8) 0.049(7) 0.050(7) -0.001(6) -0.010(6) 0.000(6)
C37 0.050(8) 0.129(11) 0.050(8) 0.005(8) -0.008(6) -0.011(7)
C38 0.017(6) 0.174(14) 0.063(9) 0.026(11) 0.001(6) -0.002(8)
C39 0.052(9) 0.165(15) 0.064(10) -0.014(11) -0.014(7) 0.042(10)
C40 0.089(10) 0.129(13) 0.087(10) -0.044(10) -0.028(9) 0.014(9)
C41 0.034(6) 0.098(9) 0.048(7) -0.037(7) -0.011(5) 0.008(6)
C42 0.033(6) 0.088(9) 0.040(7) -0.007(6) 0.004(5) 0.006(6)
C43 0.179(16) 0.061(10) 0.120(13) -0.034(9) -0.049(11) 0.017(10)
C44 0.226(19) 0.049(10) 0.158(16) 0.038(11) -0.046(15) -0.003(11)
C45 0.180(15) 0.056(10) 0.071(9) -0.024(8) 0.004(9) -0.005(9)
C46 0.070(8) 0.029(6) 0.068(8) -0.002(5) 0.008(6) 0.015(5)

_geom_special_details            
; 
 All esds (except the esd in the dihedral angle between two l.s. planes) 
 are estimated using the full covariance matrix.  The cell esds are taken 
 into account individually in the estimation of esds in distances, angles 
 and torsion angles; correlations between esds in cell parameters are only 
 used when they are defined by crystal symmetry.  An approximate (isotropic) 
 treatment of cell esds is used for estimating esds involving l.s. planes. 
;

loop_
_geom_bond_atom_site_label_1
_geom_bond_atom_site_label_2
_geom_bond_distance
_geom_bond_site_symmetry_2
_geom_bond_publ_flag
Zn1 O1 1.976(6) . ?
Zn1 O4 2.101(5) 1_455 ?
Zn1 N2 2.142(8) . ?
Zn1 N4 2.160(8) . ?
Zn1 N3 2.186(7) . ?
Zn2 O5 2.010(6) 1_655 ?
Zn2 O8 2.016(6) . ?
Zn2 N5 2.095(8) . ?
Zn2 N6 2.160(7) . ?
Zn2 N1 2.199(7) 2_656 ?
O1 C1 1.282(9) . ?
O2 C1 1.267(9) . ?
O3 C2 1.281(9) . ?
O4 C2 1.280(10) . ?
O4 Zn1 2.101(5) 1_655 ?
O5 C14 1.285(10) . ?
O5 Zn2 2.010(5) 1_455 ?
O6 C14 1.224(10) . ?
O7 C15 1.258(10) . ?
O8 C15 1.319(10) . ?
N1 C11 1.266(12) . ?
N1 C12 1.318(10) . ?
N1 Zn2 2.199(7) 2_656 ?
N2 C25 1.332(10) . ?
N2 C24 1.338(11) . ?
N3 C27 1.322(10) . ?
N3 C31 1.360(10) . ?
N4 C36 1.265(10) . ?
N4 C32 1.402(10) . ?
N5 C37 1.374(11) . ?
N5 C41 1.408(11) . ?
N6 C42 1.299(10) . ?
N6 C46 1.347(10) . ?
C1 C3 1.488(11) . ?
C2 C5 1.498(10) . ?
C3 C8 1.398(10) . ?
C3 C4 1.410(9) . ?
C4 C5 1.372(10) . ?
C4 H4 0.9300 . ?
C5 C6 1.411(9) . ?
C6 C7 1.405(10) . ?
C6 H6 0.9300 . ?
C7 C8 1.396(10) . ?
C7 C9 1.557(10) . ?
C8 H8 0.9300 . ?
C9 C13 1.385(12) . ?
C9 C10 1.399(11) . ?
C10 C11 1.374(12) . ?
C10 H10 0.9300 . ?
C11 H11 0.9300 . ?
C12 C13 1.404(11) . ?
C12 H12 0.9300 . ?
C13 H13 0.9300 . ?
C14 C16 1.522(11) . ?
C15 C18 1.494(11) . ?
C16 C21 1.371(10) . ?
C16 C17 1.395(10) . ?
C17 C18 1.386(10) . ?
C17 H17 0.9300 . ?
C18 C19 1.379(10) . ?
C19 C20 1.381(10) . ?
C19 H19 0.9300 . ?
C20 C21 1.442(10) . ?
C20 C22 1.490(1