####################################################################### 
# 
# This file contains crystal structure data downloaded from the 
# Cambridge Structural Database (CSD) hosted by the Cambridge 
# Crystallographic Data Centre (CCDC).
# 
# Full information about CCDC data access policies and citation 
# guidelines are available at http://www.ccdc.cam.ac.uk/access/V1 
# 
# Audit and citation data items may have been added by the CCDC. 
# Please retain this information to preserve the provenance of 
# this file and to allow appropriate attribution of the data. 
# 
#######################################################################

data_sntb00106c1
_audit_block_doi                 10.5517/cczws8w
_database_code_depnum_ccdc_archive 'CCDC 920429'
loop_
_citation_id
_citation_doi
_citation_year
1 10.1002/anie.201307656 2014
_audit_update_record             
;
2013-01-17 deposited with the CCDC.	2024-07-10 downloaded from the CCDC.
;
#TrackingRef '16942_web_deposit_cif_file_0_JohnEdwardWarren_1358422849.combined.cif'

_audit_creation_date             2011-09-15
_audit_creation_method           
;
Olex2 1.1-alpha
(compiled Sep 15 2011 08:32:28, GUI svn.r3854)
;
_chemical_name_common            ?
_chemical_name_systematic        
;
?
;
_chemical_formula_moiety         'C34 H19 Ce O8, 2(C4 H5)'
_chemical_formula_sum            'C42 H29 Ce O8'
_chemical_formula_weight         801.77
_chemical_melting_point          ?
loop_
_atom_type_symbol
_atom_type_description
_atom_type_scat_dispersion_real
_atom_type_scat_dispersion_imag
_atom_type_scat_source
C C 0.0033 0.0016 'International Tables Vol C Tables 4.2.6.8 and 6.1.1.4'
H H 0.0000 0.0000 'International Tables Vol C Tables 4.2.6.8 and 6.1.1.4'
Ce Ce -0.2486 2.6331 'International Tables Vol C Tables 4.2.6.8 and 6.1.1.4'
O O 0.0106 0.0060 'International Tables Vol C Tables 4.2.6.8 and 6.1.1.4'

_space_group_crystal_system      triclinic
_space_group_IT_number           2
_space_group_name_H-M_alt        'P -1'
_space_group_name_Hall           '-P 1'
loop_
_space_group_symop_id
_space_group_symop_operation_xyz
1 'x, y, z'
2 '-x, -y, -z'

_cell_length_a                   9.5603(4)
_cell_length_b                   12.1386(5)
_cell_length_c                   15.9458(6)
_cell_angle_alpha                88.4550(10)
_cell_angle_beta                 74.4170(10)
_cell_angle_gamma                70.2330(10)
_cell_volume                     1673.27(12)
_cell_formula_units_Z            2
_cell_measurement_reflns_used    7340
_cell_measurement_temperature    100.0
_cell_measurement_theta_max      26.40
_cell_measurement_theta_min      2.36
_exptl_absorpt_coefficient_mu    1.418
_exptl_absorpt_correction_T_max  0.4296
_exptl_absorpt_correction_T_min  0.2843
_exptl_absorpt_correction_type   multi-scan
_exptl_absorpt_process_details   
;
SADABS-2008/1 (Bruker,2008) was used for absorption correction.
R(int) was 0.0904 before and 0.0648 after correction.
The Ratio of minimum to maximum transmission is 0.6618.
The \l/2 correction factor is 0.0015.
;
_exptl_crystal_colour            'clear yellowish colourless'
_exptl_crystal_colour_lustre     clear
_exptl_crystal_colour_modifier   yellowish
_exptl_crystal_colour_primary    colourless
_exptl_crystal_density_diffrn    1.591
_exptl_crystal_density_meas      ?
_exptl_crystal_density_method    'not measured'
_exptl_crystal_description       Prism
_exptl_crystal_F_000             806
_exptl_crystal_preparation       
'Crystals of sample where activated under Schlenk conditions prior to exposure of dry para-xylene.'
_exptl_crystal_size_max          0.179
_exptl_crystal_size_mid          0.05
_exptl_crystal_size_min          0.031
_exptl_special_details           
;
?
;
_diffrn_reflns_av_R_equivalents  0.0681
_diffrn_reflns_av_unetI/netI     0.0688
_diffrn_reflns_limit_h_max       11
_diffrn_reflns_limit_h_min       -11
_diffrn_reflns_limit_k_max       15
_diffrn_reflns_limit_k_min       -15
_diffrn_reflns_limit_l_max       15
_diffrn_reflns_limit_l_min       -19
_diffrn_reflns_number            26198
_diffrn_reflns_theta_full        26.44
_diffrn_reflns_theta_max         26.44
_diffrn_reflns_theta_min         1.79
_diffrn_ambient_temperature      100.0
_diffrn_detector                 CCD
_diffrn_detector_area_resol_mean 28.5714
_diffrn_detector_type            'Rigaku Saturn724+'
_diffrn_measured_fraction_theta_full 0.999
_diffrn_measured_fraction_theta_max 0.999
_diffrn_measurement_device       'AFC12 (Right): Kappa 3 circle'
_diffrn_measurement_device_type  'Rigaku Saturn724+ (2x2 bin mode)'
_diffrn_measurement_method       'profile data from \w-scans'
_diffrn_measurement_specimen_support 'Mitegen 10um'
_diffrn_radiation_collimation    0.3
_diffrn_radiation_monochromator  Confocal
_diffrn_radiation_probe          x-ray
_diffrn_radiation_type           'Mo K\a'
_diffrn_radiation_wavelength     0.710747
_diffrn_radiation_xray_symbol    K-L~3~
_diffrn_source                   'Rotating Anode'
_diffrn_source_current           24.0
_diffrn_source_power             1.2
_diffrn_source_target            Mo
_diffrn_source_type              'Rotating Anode'
_diffrn_source_voltage           50.0
_diffrn_special_details          
'Crystals of sample where activated under Schlenk conditions prior to exposure of dry para-xylene.'
_diffrn_standards_decay_%        ?
_diffrn_standards_interval_count ?
_diffrn_standards_interval_time  ?
_diffrn_standards_number         0
_reflns_number_gt                5807
_reflns_number_total             6878
_reflns_threshold_expression     >2sigma(I)
_computing_cell_refinement       
;
SAINT v7.68A (Bruker, 2009)
;
_computing_data_collection       
;
CrystalClear-SM Expert 2.1 b2 (Rigaku, 2011)
;
_computing_data_reduction        
;
SAINT v7.68A (Bruker, 2009)
;
_computing_molecular_graphics    
;
O. V. Dolomanov, L. J. Bourhis, R. J. Gildea, J. A. K. Howard and H. Puschmann,
OLEX2: a complete structure solution, refinement and analysis program.
J. Appl. Cryst. (2009). 42, 339-341.
;
_computing_publication_material  
;
O. V. Dolomanov, L. J. Bourhis, R. J. Gildea, J. A. K. Howard and H. Puschmann,
OLEX2: a complete structure solution, refinement and analysis program.
J. Appl. Cryst. (2009). 42, 339-341.
;
_computing_structure_refinement  
;
SHELXL, G.M. Sheldrick, Acta Cryst.
(2008). A64, 112-122
;
_computing_structure_solution    
;
XS, G.M. Sheldrick, Acta Cryst.
(2008). A64, 112-122
;
_refine_diff_density_max         1.866
_refine_diff_density_min         -1.966
_refine_diff_density_rms         0.123
_refine_ls_extinction_coef       ?
_refine_ls_extinction_method     none
_refine_ls_goodness_of_fit_ref   1.034
_refine_ls_hydrogen_treatment    Constr
_refine_ls_matrix_type           full
_refine_ls_number_parameters     463
_refine_ls_number_reflns         6878
_refine_ls_number_restraints     0
_refine_ls_R_factor_all          0.0535
_refine_ls_R_factor_gt           0.0416
_refine_ls_restrained_S_all      1.034
_refine_ls_shift/su_max          0.001
_refine_ls_shift/su_mean         0.000
_refine_ls_structure_factor_coef Fsqd
_refine_ls_weighting_details     
'calc w=1/[\s^2^(Fo^2^)+(0.0481P)^2^+0.4688P] where P=(Fo^2^+2Fc^2^)/3'
_refine_ls_weighting_scheme      calc
_refine_ls_wR_factor_gt          0.0945
_refine_ls_wR_factor_ref         0.1001
_refine_special_details          
;
Refinement of F^2^ against ALL reflections. The weighted R-factor wR and
goodness of fit S are based on F^2^, conventional R-factors R are based
on F, with F set to zero for negative F^2^. The threshold expression of
F^2^ > 2sigma(F^2^) is used only for calculating R-factors(gt) etc. and is
not relevant to the choice of reflections for refinement. R-factors based
on F^2^ are statistically about twice as large as those based on F, and R-
factors based on ALL data will be even larger.
;
_atom_sites_solution_hydrogens   geom
_atom_sites_solution_primary     direct
_atom_sites_solution_secondary   difmap
loop_
_atom_site_label
_atom_site_type_symbol
_atom_site_fract_x
_atom_site_fract_y
_atom_site_fract_z
_atom_site_U_iso_or_equiv
_atom_site_adp_type
_atom_site_occupancy
_atom_site_symmetry_multiplicity
_atom_site_calc_flag
_atom_site_refinement_flags
_atom_site_disorder_assembly
_atom_site_disorder_group
Ce1 Ce 0.29554(3) 0.97447(2) 0.018287(14) 0.01936(8) Uani 1 1 d . . .
O17 O 0.1254(3) 0.8835(3) 0.11778(18) 0.0288(7) Uani 1 1 d . . .
O18 O 0.0109(3) 0.7575(3) 0.09946(19) 0.0282(7) Uani 1 1 d . . .
H18 H -0.0082 0.7998 0.0585 0.042 Uiso 1 1 calc R . .
O27 O 0.2369(3) 0.0628(3) 0.16735(18) 0.0271(7) Uani 1 1 d . . .
O28 O 0.4412(3) 0.0982(3) 0.08460(17) 0.0271(7) Uani 1 1 d . . .
O47 O 0.5342(3) 0.1692(3) 0.90960(18) 0.0256(6) Uani 1 1 d . . .
O48 O 0.3213(3) 0.1240(3) 0.92131(19) 0.0288(7) Uani 1 1 d . . .
O57 O 0.2063(3) 0.8906(3) 0.91296(17) 0.0264(7) Uani 1 1 d . . .
O58 O -0.0303(3) 0.8783(2) 0.96102(17) 0.0229(6) Uani 1 1 d . . .
C1 C 0.2238(4) 0.5511(4) 0.4396(2) 0.0206(8) Uani 1 1 d . . .
C2 C 0.2730(4) 0.4281(4) 0.4405(2) 0.0212(8) Uani 1 1 d . . .
C3 C 0.3044(5) 0.3764(4) 0.5155(2) 0.0230(9) Uani 1 1 d . . .
H3 H 0.3398 0.2932 0.5149 0.028 Uiso 1 1 calc R . .
C4 C 0.2867(5) 0.4405(4) 0.5917(2) 0.0223(9) Uani 1 1 d . . .
C5 C 0.2332(4) 0.5644(4) 0.5921(2) 0.0195(8) Uani 1 1 d . . .
C6 C 0.2074(4) 0.6150(4) 0.5155(2) 0.0201(8) Uani 1 1 d . . .
H6 H 0.1769 0.6980 0.5149 0.024 Uiso 1 1 calc R . .
C10 C 0.1839(5) 0.6161(4) 0.3636(2) 0.0231(9) Uani 1 1 d . . .
C11 C 0.1127(4) 0.5760(4) 0.3106(3) 0.0226(9) Uani 1 1 d . . .
H11 H 0.0851 0.5082 0.3246 0.027 Uiso 1 1 calc R . .
C12 C 0.0823(5) 0.6338(4) 0.2384(3) 0.0244(9) Uani 1 1 d . . .
H12 H 0.0373 0.6039 0.2021 0.029 Uiso 1 1 calc R . .
C13 C 0.1171(5) 0.7354(4) 0.2181(3) 0.0245(9) Uani 1 1 d . . .
C14 C 0.1839(5) 0.7789(4) 0.2715(3) 0.0262(9) Uani 1 1 d . . .
H14 H 0.2070 0.8488 0.2586 0.031 Uiso 1 1 calc R . .
C15 C 0.2162(5) 0.7196(4) 0.3432(3) 0.0252(9) Uani 1 1 d . . .
H15 H 0.2612 0.7496 0.3795 0.030 Uiso 1 1 calc R . .
C16 C 0.0860(5) 0.7989(4) 0.1408(3) 0.0241(9) Uani 1 1 d . . .
C20 C 0.2940(5) 0.3463(4) 0.3661(3) 0.0226(9) Uani 1 1 d . . .
C21 C 0.4027(5) 0.3371(4) 0.2867(3) 0.0239(9) Uani 1 1 d . . .
H21 H 0.4647 0.3855 0.2777 0.029 Uiso 1 1 calc R . .
C22 C 0.4215(5) 0.2573(4) 0.2200(3) 0.0254(9) Uani 1 1 d . . .
H22 H 0.4997 0.2490 0.1668 0.030 Uiso 1 1 calc R . .
C23 C 0.3276(5) 0.1901(4) 0.2302(3) 0.0215(8) Uani 1 1 d . . .
C24 C 0.2182(5) 0.1991(4) 0.3102(3) 0.0250(9) Uani 1 1 d . . .
H24 H 0.1535 0.1528 0.3181 0.030 Uiso 1 1 calc R . .
C25 C 0.2030(5) 0.2744(4) 0.3779(3) 0.0245(9) Uani 1 1 d . . .
H25 H 0.1306 0.2777 0.4327 0.029 Uiso 1 1 calc R . .
C26 C 0.3365(5) 0.1122(4) 0.1575(2) 0.0209(8) Uani 1 1 d . . .
C40 C 0.3222(5) 0.3741(4) 0.6679(2) 0.0220(9) Uani 1 1 d . . .
C41 C 0.2799(5) 0.2752(4) 0.6873(3) 0.0243(9) Uani 1 1 d . . .
H41 H 0.2301 0.2504 0.6511 0.029 Uiso 1 1 calc R . .
C42 C 0.3086(5) 0.2127(4) 0.7578(3) 0.0264(9) Uani 1 1 d . . .
H42 H 0.2749 0.1474 0.7711 0.032 Uiso 1 1 calc R . .
C43 C 0.3871(5) 0.2445(4) 0.8099(2) 0.0230(9) Uani 1 1 d . . .
C44 C 0.4347(5) 0.3407(4) 0.7898(3) 0.0239(9) Uani 1 1 d . . .
H44 H 0.4903 0.3623 0.8238 0.029 Uiso 1 1 calc R . .
C45 C 0.4011(5) 0.4053(4) 0.7197(2) 0.0224(9) Uani 1 1 d . . .
H45 H 0.4325 0.4717 0.7070 0.027 Uiso 1 1 calc R . .
C46 C 0.4170(5) 0.1751(4) 0.8864(3) 0.0250(9) Uani 1 1 d . . .
C50 C 0.1952(4) 0.6430(4) 0.6713(2) 0.0214(8) Uani 1 1 d . . .
C51 C 0.0964(5) 0.6295(4) 0.7495(2) 0.0220(9) Uani 1 1 d . . .
H51 H 0.0533 0.5691 0.7525 0.026 Uiso 1 1 calc R . .
C52 C 0.0600(5) 0.7032(4) 0.8232(3) 0.0228(9) Uani 1 1 d . . .
H52 H -0.0106 0.6947 0.8755 0.027 Uiso 1 1 calc R . .
C53 C 0.1266(4) 0.7895(4) 0.8206(2) 0.0208(8) Uani 1 1 d . . .
C54 C 0.2241(5) 0.8043(4) 0.7428(3) 0.0250(9) Uani 1 1 d . . .
H54 H 0.2698 0.8630 0.7406 0.030 Uiso 1 1 calc R . .
C55 C 0.2556(5) 0.7337(4) 0.6680(3) 0.0236(9) Uani 1 1 d . . .
H55 H 0.3185 0.7472 0.6144 0.028 Uiso 1 1 calc R . .
C56 C 0.0992(5) 0.8591(4) 0.9025(3) 0.0219(8) Uani 1 1 d . . .
C10X C 0.1913(9) 0.9980(6) 0.5045(5) 0.086(2) Uani 1 1 d . . .
H10A H 0.1152 1.0772 0.5208 0.129 Uiso 1 1 calc R . .
H10B H 0.1635 0.9443 0.5475 0.129 Uiso 1 1 calc R . .
H10C H 0.1926 0.9714 0.4467 0.129 Uiso 1 1 calc R . .
C11X C 0.3524(9) 0.9996(5) 0.5021(4) 0.0629(18) Uani 1 1 d . . .
C12X C 0.4613(9) 0.9956(5) 0.4240(4) 0.069(2) Uani 1 1 d . . .
H12X H 0.4365 0.9913 0.3706 0.082 Uiso 1 1 calc R . .
C13X C 0.6079(9) 0.9978(5) 0.4223(4) 0.0659(19) Uani 1 1 d . . .
H13X H 0.6799 0.9974 0.3680 0.079 Uiso 1 1 calc R . .
C20X C 0.2043(7) 0.4824(5) -0.0058(4) 0.0521(14) Uani 1 1 d . . .
H20A H 0.1193 0.5426 0.0352 0.078 Uiso 1 1 calc R . .
H20B H 0.2016 0.4045 0.0104 0.078 Uiso 1 1 calc R . .
H20C H 0.1932 0.4942 -0.0650 0.078 Uiso 1 1 calc R . .
C21X C 0.3571(6) 0.4914(4) -0.0026(3) 0.0403(12) Uani 1 1 d . . .
C22X C 0.4614(7) 0.4049(5) 0.0303(4) 0.0530(15) Uani 1 1 d . . .
H22X H 0.4366 0.3380 0.0513 0.064 Uiso 1 1 calc R . .
C23X C 0.6007(8) 0.4132(5) 0.0335(4) 0.0563(15) Uani 1 1 d . . .
H23X H 0.6687 0.3525 0.0572 0.068 Uiso 1 1 calc R . .

loop_
_atom_site_aniso_label
_atom_site_aniso_U_11
_atom_site_aniso_U_22
_atom_site_aniso_U_33
_atom_site_aniso_U_23
_atom_site_aniso_U_13
_atom_site_aniso_U_12
Ce1 0.02630(13) 0.02225(14) 0.01446(11) -0.00067(8) -0.01054(9) -0.01057(10)
O17 0.0396(17) 0.0321(18) 0.0228(15) 0.0093(13) -0.0153(13) -0.0179(14)
O18 0.0381(17) 0.0343(18) 0.0250(15) 0.0087(13) -0.0209(14) -0.0194(15)
O27 0.0328(16) 0.0322(17) 0.0211(14) -0.0051(12) -0.0098(13) -0.0147(14)
O28 0.0348(16) 0.0285(17) 0.0176(14) -0.0034(12) -0.0077(13) -0.0096(13)
O47 0.0279(15) 0.0279(17) 0.0261(15) 0.0063(12) -0.0155(13) -0.0098(13)
O48 0.0305(15) 0.0310(18) 0.0302(16) 0.0095(13) -0.0138(13) -0.0136(14)
O57 0.0314(15) 0.0325(17) 0.0193(14) -0.0060(12) -0.0088(12) -0.0140(14)
O58 0.0295(15) 0.0234(15) 0.0198(13) 0.0008(11) -0.0113(12) -0.0106(12)
C1 0.0230(19) 0.025(2) 0.0162(18) -0.0023(16) -0.0089(16) -0.0079(17)
C2 0.026(2) 0.024(2) 0.0176(18) -0.0011(16) -0.0086(16) -0.0107(17)
C3 0.032(2) 0.023(2) 0.0181(19) 0.0000(16) -0.0101(17) -0.0116(18)
C4 0.025(2) 0.028(2) 0.0172(19) 0.0017(16) -0.0106(16) -0.0107(18)
C5 0.0231(19) 0.023(2) 0.0163(18) -0.0026(15) -0.0091(16) -0.0100(17)
C6 0.030(2) 0.018(2) 0.0182(18) 0.0004(15) -0.0114(17) -0.0122(17)
C10 0.030(2) 0.024(2) 0.0149(18) -0.0008(16) -0.0074(16) -0.0082(18)
C11 0.027(2) 0.023(2) 0.022(2) 0.0000(17) -0.0114(17) -0.0104(18)
C12 0.028(2) 0.029(2) 0.022(2) 0.0015(17) -0.0146(17) -0.0120(18)
C13 0.028(2) 0.028(2) 0.0203(19) 0.0032(17) -0.0110(17) -0.0099(18)
C14 0.036(2) 0.028(2) 0.023(2) -0.0012(17) -0.0132(18) -0.017(2)
C15 0.032(2) 0.032(2) 0.0186(19) 0.0017(17) -0.0126(17) -0.0150(19)
C16 0.028(2) 0.028(2) 0.0205(19) 0.0009(17) -0.0095(17) -0.0119(19)
C20 0.030(2) 0.022(2) 0.0201(19) -0.0014(16) -0.0133(17) -0.0091(18)
C21 0.026(2) 0.026(2) 0.023(2) -0.0049(17) -0.0092(17) -0.0125(18)
C22 0.030(2) 0.031(2) 0.0185(19) -0.0055(17) -0.0066(17) -0.0140(19)
C23 0.028(2) 0.021(2) 0.0213(19) -0.0007(16) -0.0145(17) -0.0094(17)
C24 0.029(2) 0.027(2) 0.024(2) -0.0022(17) -0.0087(18) -0.0133(19)
C25 0.031(2) 0.026(2) 0.0191(19) -0.0005(17) -0.0073(17) -0.0131(19)
C26 0.027(2) 0.022(2) 0.0163(18) -0.0031(16) -0.0117(16) -0.0072(17)
C40 0.028(2) 0.021(2) 0.0177(18) -0.0006(16) -0.0111(16) -0.0056(17)
C41 0.030(2) 0.028(2) 0.0206(19) -0.0036(17) -0.0139(17) -0.0121(19)
C42 0.032(2) 0.026(2) 0.026(2) 0.0042(18) -0.0119(18) -0.0138(19)
C43 0.028(2) 0.026(2) 0.0183(19) 0.0029(16) -0.0113(17) -0.0088(18)
C44 0.027(2) 0.029(2) 0.0189(19) -0.0016(17) -0.0108(17) -0.0094(18)
C45 0.029(2) 0.022(2) 0.0206(19) -0.0011(16) -0.0109(17) -0.0111(18)
C46 0.032(2) 0.024(2) 0.0187(19) 0.0000(17) -0.0075(18) -0.0081(18)
C50 0.026(2) 0.022(2) 0.0192(19) -0.0023(16) -0.0130(17) -0.0066(17)
C51 0.029(2) 0.024(2) 0.0198(19) -0.0025(16) -0.0134(17) -0.0120(18)
C52 0.028(2) 0.025(2) 0.0203(19) 0.0015(16) -0.0108(17) -0.0117(18)
C53 0.026(2) 0.023(2) 0.0179(18) -0.0030(16) -0.0111(16) -0.0095(17)
C54 0.030(2) 0.025(2) 0.026(2) 0.0004(17) -0.0125(18) -0.0116(18)
C55 0.031(2) 0.027(2) 0.0173(19) 0.0017(16) -0.0084(17) -0.0145(19)
C56 0.029(2) 0.020(2) 0.022(2) 0.0027(16) -0.0136(17) -0.0097(17)
C10X 0.103(6) 0.058(5) 0.096(6) 0.010(4) -0.035(5) -0.021(4)
C11X 0.099(5) 0.029(3) 0.049(3) 0.002(3) -0.020(4) -0.008(3)
C12X 0.097(5) 0.049(4) 0.040(3) -0.001(3) -0.023(4) 0.002(4)
C13X 0.094(5) 0.044(4) 0.041(3) 0.001(3) -0.010(3) -0.006(4)
C20X 0.067(4) 0.047(3) 0.042(3) -0.004(3) -0.018(3) -0.016(3)
C21X 0.060(3) 0.032(3) 0.031(2) 0.002(2) -0.017(2) -0.014(2)
C22X 0.079(4) 0.046(3) 0.046(3) 0.014(3) -0.030(3) -0.028(3)
C23X 0.078(4) 0.041(3) 0.059(4) 0.017(3) -0.040(3) -0.016(3)

_geom_special_details            
;
All esds (except the esd in the dihedral angle between two l.s. planes)
are estimated using the full covariance matrix. The cell esds are taken
into account individually in the estimation of esds in distances, angles
and torsion angles; correlations between esds in cell parameters are only
used when they are defined by crystal symmetry. An approximate (isotropic)
treatment of cell esds is used for estimating esds involving l.s. planes.
;
loop_
_geom_bond_atom_site_label_1
_geom_bond_atom_site_label_2
_geom_bond_distance
_geom_bond_site_symmetry_2
_geom_bond_publ_flag
Ce1 Ce1 4.0500(5) 2_675 ?
Ce1 O17 2.473(3) . ?
Ce1 O27 2.476(3) 1_565 ?
Ce1 O28 2.482(3) 2_665 ?
Ce1 O28 2.758(3) 1_565 ?
Ce1 O47 2.448(3) 2_666 ?
Ce1 O48 2.386(3) 1_564 ?
Ce1 O57 2.456(3) 1_5