####################################################################### 
# 
# This file contains crystal structure data downloaded from the 
# Cambridge Structural Database (CSD) hosted by the Cambridge 
# Crystallographic Data Centre (CCDC).
# 
# Full information about CCDC data access policies and citation 
# guidelines are available at http://www.ccdc.cam.ac.uk/access/V1 
# 
# Audit and citation data items may have been added by the CCDC. 
# Please retain this information to preserve the provenance of 
# this file and to allow appropriate attribution of the data. 
# 
#######################################################################

data_snt100k-3
_audit_block_doi                 10.5517/cczws7v
_database_code_depnum_ccdc_archive 'CCDC 920428'
loop_
_citation_id
_citation_doi
_citation_year
1 10.1002/anie.201307656 2014
_audit_update_record             
;
2013-01-17 deposited with the CCDC.	2024-07-10 downloaded from the CCDC.
;
#TrackingRef '16942_web_deposit_cif_file_0_JohnEdwardWarren_1358422849.combined.cif'


_audit_creation_date             2012-03-01
_audit_creation_method           
;
Olex2 1.2-alpha
(compiled Mar 1 2012 10:31:42, GUI svn.r4098)
;
_chemical_name_common            ?
_chemical_name_systematic        
;
?
;
_chemical_formula_moiety         'C34 H19 Ce O8'
_chemical_formula_sum            'C34 H19 Ce O8'
_chemical_formula_weight         695.61
_chemical_melting_point          ?
loop_
_atom_type_symbol
_atom_type_description
_atom_type_scat_dispersion_real
_atom_type_scat_dispersion_imag
_atom_type_scat_source
C C 0.0033 0.0016 'International Tables Vol C Tables 4.2.6.8 and 6.1.1.4'
H H 0.0000 0.0000 'International Tables Vol C Tables 4.2.6.8 and 6.1.1.4'
Ce Ce -0.2486 2.6331 'International Tables Vol C Tables 4.2.6.8 and 6.1.1.4'
O O 0.0106 0.0060 'International Tables Vol C Tables 4.2.6.8 and 6.1.1.4'

_space_group_crystal_system      triclinic
_space_group_IT_number           2
_space_group_name_H-M_alt        'P -1'
_space_group_name_Hall           '-P 1'
loop_
_space_group_symop_id
_space_group_symop_operation_xyz
1 'x, y, z'
2 '-x, -y, -z'

_cell_length_a                   9.2989(11)
_cell_length_b                   11.4163(13)
_cell_length_c                   15.2492(17)
_cell_angle_alpha                93.756(5)
_cell_angle_beta                 90.263(6)
_cell_angle_gamma                93.814(6)
_cell_volume                     1611.7(3)
_cell_formula_units_Z            2
_cell_measurement_reflns_used    11719
_cell_measurement_temperature    100.0
_cell_measurement_theta_max      27.5
_cell_measurement_theta_min      3.0
_exptl_absorpt_coefficient_mu    1.460
_exptl_absorpt_correction_T_max  1.000
_exptl_absorpt_correction_T_min  0.560
_exptl_absorpt_correction_type   Multi-scan
_exptl_absorpt_process_details   
;
"SADABS-2008/1 (Bruker,2008) was used for absorption correction.
R(int) was 0.1006 before and 0.0746 after correction.
The Ratio of minimum to maximum transmission is 0.7427.
The \l/2 correction factor is 0.00.
{Info from /home/xray/data2/Liverpool/A/A00154/work/09_100K/work/sad.abs}
;
_exptl_crystal_colour            'dull whitish colourless'
_exptl_crystal_colour_lustre     dull
_exptl_crystal_colour_modifier   whitish
_exptl_crystal_colour_primary    colourless
_exptl_crystal_density_diffrn    1.433
_exptl_crystal_density_meas      ?
_exptl_crystal_density_method    'not measured'
_exptl_crystal_description       Prism
_exptl_crystal_F_000             690
_exptl_crystal_preparation       
;
Sample was left on slide overnight for solvent to evaporate off.
A nice crystal was isolated prior to this and is to be glue mounted to a 10 micron tip and collected.
Sample undergone data collections from 100 K to 340K.
;
_exptl_crystal_recrystallization_method 'Isolated from reaction media.'
_exptl_crystal_size_max          0.055
_exptl_crystal_size_mid          0.055
_exptl_crystal_size_min          0.045
_exptl_special_details           
;
?
;
_diffrn_reflns_av_R_equivalents  0.1273
_diffrn_reflns_av_unetI/netI     0.1449
_diffrn_reflns_limit_h_max       10
_diffrn_reflns_limit_h_min       -10
_diffrn_reflns_limit_k_max       13
_diffrn_reflns_limit_k_min       -13
_diffrn_reflns_limit_l_max       17
_diffrn_reflns_limit_l_min       -17
_diffrn_reflns_number            18718
_diffrn_reflns_theta_full        24.71
_diffrn_reflns_theta_max         24.71
_diffrn_reflns_theta_min         1.79
_diffrn_ambient_temperature      100.0
_diffrn_detector                 CCD
_diffrn_detector_area_resol_mean 28.5714
_diffrn_detector_type            'Rigaku Saturn724+'
_diffrn_measured_fraction_theta_full 0.995
_diffrn_measured_fraction_theta_max 0.995
_diffrn_measurement_details      
;
scan:
Number of images: 125
Slice: -110.0000 - 15.0000
Image width: 1.0000
Exp time: 10.0000
Rotation axis: Omega
Omega: 0.0000
Kappa: -68.0000
Phi: 0.0000
XTD: 40.0000
2theta: -20.0000
scan:
Number of images: 125
Slice: -110.0000 - 15.0000
Image width: 1.0000
Exp time: 10.0000
Rotation axis: Omega
Omega: 0.0000
Kappa: -68.0000
Phi: 120.0000
XTD: 40.0000
2theta: -20.0000
scan:
Number of images: 125
Slice: -110.0000 - 15.0000
Image width: 1.0000
Exp time: 10.0000
Rotation axis: Omega
Omega: 0.0000
Kappa: -68.0000
Phi: 240.0000
XTD: 40.0000
2theta: -20.0000
scan:
Number of images: 125
Slice: -110.0000 - 15.0000
Image width: 1.0000
Exp time: 10.0000
Rotation axis: Omega
Omega: 0.0000
Kappa: -30.0000
Phi: 90.0000
XTD: 40.0000
2theta: -20.0000
scan:
Number of images: 180
Slice: -90.0000 - 90.0000
Image width: 1.0000
Exp time: 4.0000
Rotation axis: Omega
Omega: 0.0000
Kappa: 0.0000
Phi: 0.0000
XTD: 40.0000
2theta: 0.0000
;
_diffrn_measurement_device       'AFC12 (Right): Kappa 3 circle'
_diffrn_measurement_device_type  'Rigaku Saturn724+ (2x2 bin mode)'
_diffrn_measurement_method       'profile data from \w-scans'
_diffrn_measurement_specimen_support 'Mitegen 10um'
_diffrn_orient_matrix_type       FS_PROCESS
_diffrn_orient_matrix_UB_11      -0.076885
_diffrn_orient_matrix_UB_12      -0.065303
_diffrn_orient_matrix_UB_13      0.001680
_diffrn_orient_matrix_UB_21      -0.022569
_diffrn_orient_matrix_UB_22      0.026532
_diffrn_orient_matrix_UB_23      0.062015
_diffrn_orient_matrix_UB_31      -0.072095
_diffrn_orient_matrix_UB_32      0.052662
_diffrn_orient_matrix_UB_33      -0.021974
_diffrn_radiation_collimation    0.3
_diffrn_radiation_monochromator  Confocal
_diffrn_radiation_probe          x-ray
_diffrn_radiation_type           'Mo K\a'
_diffrn_radiation_wavelength     0.710747
_diffrn_radiation_xray_symbol    K-L~3~
_diffrn_source                   'Rotating Anode'
_diffrn_source_current           24.0
_diffrn_source_power             1.2
_diffrn_source_target            Mo
_diffrn_source_type              'Rotating Anode'
_diffrn_source_voltage           50.0
_diffrn_special_details          'Part of VT study.'
_diffrn_standards_decay_%        ?
_diffrn_standards_interval_count ?
_diffrn_standards_interval_time  ?
_diffrn_standards_number         ?
_reflns_number_gt                3461
_reflns_number_total             5476
_reflns_threshold_expression     >2sigma(I)
_computing_cell_refinement       
;
SAINT v7.68A (Bruker, 2009)
;
_computing_data_collection       
;
CrystalClear-SM Expert 2.1 b2 (Rigaku, 2011)
;
_computing_data_reduction        
;
SAINT v7.68A (Bruker, 2009)
;
_computing_molecular_graphics    
;
O. V. Dolomanov, L. J. Bourhis, R. J. Gildea, J. A. K. Howard and H. Puschmann,
OLEX2: a complete structure solution, refinement and analysis program.
J. Appl. Cryst. (2009). 42, 339-341.
;
_computing_publication_material  
;
O. V. Dolomanov, L. J. Bourhis, R. J. Gildea, J. A. K. Howard and H. Puschmann,
OLEX2: a complete structure solution, refinement and analysis program.
J. Appl. Cryst. (2009). 42, 339-341.
;
_computing_structure_refinement  
;
SHELXL, G.M. Sheldrick, Acta Cryst.
(2008). A64, 112-122
;
_computing_structure_solution    
;
olex2.solve (L.J. Bourhis, O.V. Dolomanov, R.J. Gildea, J.A.K. Howard,
H. Puschmann, in preparation, 2011)
;
_refine_diff_density_max         6.167
_refine_diff_density_min         -1.316
_refine_diff_density_rms         0.199
_refine_ls_extinction_coef       ?
_refine_ls_extinction_method     none
_refine_ls_goodness_of_fit_ref   0.935
_refine_ls_hydrogen_treatment    mixed
_refine_ls_matrix_type           full
_refine_ls_number_parameters     389
_refine_ls_number_reflns         5476
_refine_ls_number_restraints     0
_refine_ls_R_factor_all          0.1224
_refine_ls_R_factor_gt           0.0832
_refine_ls_restrained_S_all      0.935
_refine_ls_shift/su_max          0.001
_refine_ls_shift/su_mean         0.000
_refine_ls_structure_factor_coef Fsqd
_refine_ls_weighting_details     
'calc w=1/[\s^2^(Fo^2^)+(0.1194P)^2^+0.0000P] where P=(Fo^2^+2Fc^2^)/3'
_refine_ls_weighting_scheme      calc
_refine_ls_wR_factor_gt          0.1872
_refine_ls_wR_factor_ref         0.2072
_refine_special_details          
;
Refinement of F^2^ against ALL reflections. The weighted R-factor wR and
goodness of fit S are based on F^2^, conventional R-factors R are based
on F, with F set to zero for negative F^2^. The threshold expression of
F^2^ > 2sigma(F^2^) is used only for calculating R-factors(gt) etc. and is
not relevant to the choice of reflections for refinement. R-factors based
on F^2^ are statistically about twice as large as those based on F, and R-
factors based on ALL data will be even larger.
;
_atom_sites_solution_hydrogens   geom
_atom_sites_solution_primary     iterative
_atom_sites_solution_secondary   difmap
loop_
_atom_site_label
_atom_site_type_symbol
_atom_site_fract_x
_atom_site_fract_y
_atom_site_fract_z
_atom_site_U_iso_or_equiv
_atom_site_adp_type
_atom_site_occupancy
_atom_site_symmetry_multiplicity
_atom_site_calc_flag
_atom_site_refinement_flags
_atom_site_disorder_assembly
_atom_site_disorder_group
Ce1 Ce 0.20843(5) 0.03014(4) 0.97945(3) 0.03477(12) Uani 1 1 d . . .
O17 O 0.3943(6) 0.1185(5) 0.8861(3) 0.0459(16) Uani 1 1 d . . .
O18 O 0.5802(6) 0.2522(5) 0.9123(3) 0.0464(16) Uani 1 1 d . . .
H18 H 0.5851 0.2188 0.9595 0.070 Uiso 1 1 calc R . .
O27 O 0.3840(6) 0.8775(4) 0.9531(3) 0.0379(14) Uani 1 1 d . . .
O28 O 0.6146(6) 0.8872(5) 0.9104(3) 0.0435(15) Uani 1 1 d . . .
O47 O -0.0761(6) 0.8226(5) 0.0953(3) 0.0384(14) Uani 1 1 d . . .
O48 O 0.1521(6) 0.8926(5) 0.0909(3) 0.0420(15) Uani 1 1 d . . .
O57 O -0.1422(6) 0.0502(5) 0.1740(3) 0.0411(15) Uani 1 1 d . . .
O58 O 0.0180(6) 0.1080(5) 0.0778(3) 0.0418(15) Uani 1 1 d . . .
C1 C 0.3096(8) 0.4624(6) 0.5715(5) 0.0339(19) Uani 1 1 d . . .
C2 C 0.3103(8) 0.5889(7) 0.5751(5) 0.036(2) Uani 1 1 d . . .
C3 C 0.2686(9) 0.6399(7) 0.4992(5) 0.036(2) Uani 1 1 d . . .
H5 H 0.2787 0.7232 0.4986 0.043 Uiso 1 1 calc R . .
C4 C 0.2127(8) 0.5762(6) 0.4238(5) 0.0330(19) Uani 1 1 d . . .
C5 C 0.2057(8) 0.4524(7) 0.4213(5) 0.034(2) Uani 1 1 d . . .
C6 C 0.2569(9) 0.4035(6) 0.4957(5) 0.037(2) Uani 1 1 d . . .
H2 H 0.2551 0.3201 0.4937 0.044 Uiso 1 1 calc R . .
C10 C 0.3540(9) 0.3965(7) 0.6482(4) 0.037(2) Uani 1 1 d . . .
C11 C 0.4723(9) 0.4401(7) 0.7027(5) 0.038(2) Uani 1 1 d . . .
H11 H 0.5277 0.5098 0.6900 0.045 Uiso 1 1 calc R . .
C12 C 0.5045(9) 0.3798(7) 0.7736(5) 0.041(2) Uani 1 1 d . . .
H12 H 0.5784 0.4116 0.8131 0.049 Uiso 1 1 calc R . .
C13 C 0.4324(9) 0.2730(8) 0.7896(5) 0.043(2) Uani 1 1 d . . .
C14 C 0.3189(8) 0.2269(7) 0.7336(4) 0.035(2) Uani 1 1 d . . .
H14 H 0.2682 0.1544 0.7446 0.042 Uiso 1 1 calc R . .
C15 C 0.2821(9) 0.2881(7) 0.6624(5) 0.039(2) Uani 1 1 d . . .
H15 H 0.2077 0.2564 0.6231 0.047 Uiso 1 1 calc R . .
C16 C 0.4627(10) 0.2085(8) 0.8668(5) 0.048(2) Uani 1 1 d . . .
C20 C 0.3539(8) 0.6638(6) 0.6552(5) 0.035(2) Uani 1 1 d . . .
C21 C 0.2788(9) 0.6508(7) 0.7320(5) 0.036(2) Uani 1 1 d . . .
H65 H 0.1982 0.5951 0.7318 0.044 Uiso 1 1 calc R . .
C22 C 0.3168(9) 0.7159(7) 0.8095(5) 0.042(2) Uani 1 1 d . . .
H64 H 0.2611 0.7069 0.8610 0.050 Uiso 1 1 calc R . .
C23 C 0.4386(9) 0.7953(7) 0.8108(5) 0.039(2) Uani 1 1 d . . .
C24 C 0.5176(8) 0.8103(6) 0.7357(5) 0.036(2) Uani 1 1 d . . .
H62 H 0.6017 0.8624 0.7366 0.043 Uiso 1 1 calc R . .
C25 C 0.4703(9) 0.7463(7) 0.6575(5) 0.040(2) Uani 1 1 d . . .
H61 H 0.5200 0.7603 0.6045 0.048 Uiso 1 1 calc R . .
C26 C 0.4807(9) 0.8607(7) 0.8968(5) 0.038(2) Uani 1 1 d . . .
C40 C 0.1664(9) 0.6431(7) 0.3485(5) 0.037(2) Uani 1 1 d . . .
C41 C 0.2466(9) 0.7454(7) 0.3276(5) 0.039(2) Uani 1 1 d . . .
H45 H 0.3267 0.7747 0.3633 0.047 Uiso 1 1 calc R . .
C42 C 0.2095(9) 0.8041(7) 0.2547(5) 0.042(2) Uani 1 1 d . . .
H44 H 0.2676 0.8709 0.2388 0.050 Uiso 1 1 calc R . .
C43 C 0.0855(9) 0.7652(7) 0.2040(5) 0.040(2) Uani 1 1 d . . .
C44 C 0.0049(9) 0.6685(7) 0.2266(5) 0.041(2) Uani 1 1 d . . .
H42 H -0.0767 0.6406 0.1917 0.049 Uiso 1 1 calc R . .
C45 C 0.0397(9) 0.6097(6) 0.2997(5) 0.036(2) Uani 1 1 d . . .
H41 H -0.0227 0.5462 0.3170 0.043 Uiso 1 1 calc R . .
C46 C 0.0516(9) 0.8305(7) 0.1249(5) 0.037(2) Uani 1 1 d . . .
C50 C 0.1480(8) 0.3684(6) 0.3493(5) 0.0347(19) Uani 1 1 d . . .
C51 C 0.1901(8) 0.3732(6) 0.2630(5) 0.035(2) Uani 1 1 d . . .
H35 H 0.2566 0.4349 0.2471 0.042 Uiso 1 1 calc R . .
C52 C 0.1365(9) 0.2890(7) 0.1986(5) 0.038(2) Uani 1 1 d . . .
H34 H 0.1658 0.2929 0.1392 0.046 Uiso 1 1 calc R . .
C53 C 0.0376(8) 0.1976(7) 0.2233(5) 0.037(2) Uani 1 1 d . . .
C54 C -0.0052(9) 0.1917(8) 0.3096(5) 0.045(2) Uani 1 1 d . . .
H32 H -0.0713 0.1302 0.3263 0.054 Uiso 1 1 calc R . .
C55 C 0.0507(9) 0.2778(7) 0.3715(5) 0.041(2) Uani 1 1 d . . .
H31 H 0.0213 0.2746 0.4309 0.050 Uiso 1 1 calc R . .
C56 C -0.0322(10) 0.1133(7) 0.1558(5) 0.042(2) Uani 1 1 d . . .

loop_
_atom_site_aniso_label
_atom_site_aniso_U_11
_atom_site_aniso_U_22
_atom_site_aniso_U_33
_atom_site_aniso_U_23
_atom_site_aniso_U_13
_atom_site_aniso_U_12
Ce1 0.0426(2) 0.0372(2) 0.02422(19) -0.00032(16) -0.00809(17) 0.00357(18)
O17 0.049(3) 0.048(3) 0.040(3) 0.007(3) -0.011(3) -0.002(3)
O18 0.051(3) 0.050(3) 0.040(3) 0.015(3) -0.014(3) 0.002(3)
O27 0.043(3) 0.043(3) 0.029(3) -0.001(2) -0.007(2) 0.010(2)
O28 0.045(3) 0.055(3) 0.030(3) -0.004(2) -0.013(2) 0.007(3)
O47 0.041(3) 0.044(3) 0.031(3) 0.000(2) -0.004(2) 0.011(3)
O48 0.052(3) 0.045(3) 0.030(3) 0.012(2) -0.013(2) 0.004(3)
O57 0.037(3) 0.047(3) 0.039(3) 0.005(2) -0.003(2) 0.001(3)
O58 0.053(3) 0.047(3) 0.026(3) 0.001(2) -0.015(2) 0.009(3)
C1 0.032(4) 0.031(4) 0.039(4) 0.000(3) -0.001(3) 0.014(3)
C2 0.031(4) 0.043(4) 0.032(4) 0.002(3) -0.007(3) -0.007(3)
C3 0.047(5) 0.033(4) 0.029(4) 0.000(3) -0.005(3) 0.012(4)
C4 0.037(4) 0.035(4) 0.027(4) 0.001(3) 0.002(3) 0.003(3)
C5 0.039(4) 0.040(4) 0.024(3) -0.001(3) -0.002(3) 0.006(4)
C6 0.056(5) 0.026(4) 0.029(4) 0.002(3) -0.005(4) 0.008(4)
C10 0.043(4) 0.049(5) 0.018(3) -0.002(3) -0.007(3) 0.009(4)
C11 0.039(4) 0.041(4) 0.033(4) -0.001(3) -0.001(3) 0.003(4)
C12 0.044(5) 0.044(5) 0.033(4) 0.001(3) -0.013(4) 0.003(4)
C13 0.043(5) 0.060(5) 0.026(4) 0.003(4) 0.002(3) 0.009(4)
C14 0.041(4) 0.039(4) 0.025(4) 0.001(3) -0.005(3) 0.005(4)
C15 0.036(4) 0.050(5) 0.032(4) -0.004(4) -0.001(3) 0.006(4)
C16 0.049(5) 0.061(6) 0.033(4) -0.005(4) 0.001(4) 0.003(5)
C20 0.040(4) 0.026(4) 0.041(4) 0.000(3) -0.004(4) 0.013(3)
C21 0.044(4) 0.037(4) 0.029(4) 0.006(3) -0.007(3) -0.002(4)
C22 0.037(4) 0.049(5) 0.039(4) -0.001(4) -0.010(4) 0.006(4)
C23 0.049(5) 0.046(4) 0.025(4) 0.002(3) -0.015(3) 0.019(4)
C24 0.038(4) 0.033(4) 0.037(4) -0.004(3) -0.016(3) 0.010(3)
C25 0.046(5) 0.043(4) 0.033(4) -0.001(3) 0.001(4) 0.012(4)
C26 0.044(5) 0.037(4) 0.034(4) 0.004(3) -0.013(4) 0.006(4)
C40 0.042(4) 0.039(4) 0.031(4) 0.002(3) 0.005(3) 0.009(4)
C41 0.047(5) 0.041(4) 0.031(4) 0.001(3) -0.001(4) 0.001(4)
C42 0.044(5) 0.042(4) 0.040(4) 0.005(4) 0.004(4) 0.008(4)
C43 0.038(4) 0.047(5) 0.035(4) -0.005(4) -0.008(4) 0.009(4)
C44 0.047(5) 0.033(4) 0.044(4) 0.006(4) -0.004(4) 0.006(4)
C45 0.041(4) 0.028(4) 0.039(4) 0.000(3) -0.005(4) 0.007(3)
C46 0.047(5) 0.036(4) 0.029(4) -0.004(3) -0.010(4) 0.011(4)
C50 0.040(4) 0.034(4) 0.031(4) 0.000(3) -0.015(3) 0.015(3)
C51 0.041(4) 0.033(4) 0.031(4) 0.000(3) -0.011(3) -0.001(3)
C52 0.051(5) 0.037(4) 0.028(4) 0.001(3) -0.011(3) 0.009(4)
C53 0.033(4) 0.039(4) 0.039(4) -0.004(3) -0.019(3) 0.005(3)
C54 0.048(5) 0.054(5) 0.034(4) 0.004(4) -0.014(4) 0.007(4)
C55 0.051(5) 0.041(4) 0.032(4) 0.003(3) -0.003(4) -0.003(4)
C56 0.057(5) 0.046(5) 0.020(4) -0.004(3) -0.004(4) -0.003(4)

_geom_special_details            
;
All esds (except the esd in the dihedral angle between two l.s. planes)
are estimated using the full covariance matrix. The cell esds are taken
into account individually in the estimation of esds in distances, angles
and torsion angles; correlations between esds in cell parameters are only
used when they are defined by crystal symmetry. An approximate (isotropic)
treatment of cell esds is used for estimating esds involving l.s. planes.
;
loop_
_geom_bond_atom_site_label_1
_geom_bond_atom_site_label_2
_geom_bond_distance
_geom_bond_site_symmetry_2
_geom_bond_publ_flag
Ce1 O17 2.452(6) . ?
Ce1 O27 2.481(5) 1_545 ?
Ce1 O28 2.446(5) 2_667 ?
Ce1 O47 2.480(5) 2_566 ?
Ce1 O48 2.425(5) 1_546 ?
Ce1 O57 2.515(5) 2_556 ?
Ce1 O58 2.497(5) 1_556 ?
O17 C16 1.224(10) . ?
O18 H18 0.8400 . ?
O18 C16 1.341(10) . ?
O27 Ce1 2.481(5) 1_565 ?
O27 C26 1.261(9) . ?
O28 Ce1 2.446(5) 2_667 ?
O28 C26 1.274(10) . ?
O47 Ce1 2.480(5) 2_566 ?
O47 C46 1.264(9) . ?
O48 Ce1 2.425(5) 1_564 ?
O48 C46 1.268(9) . ?
O57 Ce1 2.515(5) 2_556 ?
O57 C56 1.254(10) . ?
O58 Ce1 2.497(5) 1_554 ?
O58 C56 1.279(9) . ?
C1 C2 1.441(11) . ?
C1 C6 1.371(10) . ?
C1 C10 1.502(11) . ?
C2 C20 1.484(10) . ?
C3 C2 1.394(11) . ?
C3 H5 0.9500 . ?
C4 C3 1.399(10) . ?
C4 C40 1.496(11) . ?
C5 C4 1.408(10) . ?
C5 C50 1.484(10) . ?
C6 C5 1.393(11) . ?
C6 H2 0.9500 . ?
C10 C11 1.419(10) . ?
C10 C15 1.397(11) . ?
C11 H11 0.9500 . ?
C11 C12 1.362(11) . ?
C12 H12 0.9500 . ?
C12 C13 1.388(11) . ?
C13 C14 1.407(11) . ?
C13 C16 1.466(12) . ?
C14 