
#######################################################################
#
#                 Cambridge Crystallographic Data Centre
#                                CCDC
#
#######################################################################
#
# If this CIF has been generated from an entry in the Cambridge
# Structural Database, then it will include bibliographic, chemical,
# crystal, experimental, refinement or atomic coordinate data resulting
# from the CCDC's data processing and validation procedures.
#
#######################################################################

data_CSD_CIF_FOFTOK
_audit_creation_date 2005-06-23
_audit_creation_method CSD-ConQuest-V1
_database_code_CSD FOFTOK
_database_code_depnum_ccdc_archive 'CCDC 247993'
_chemical_formula_sum 'C19 H10 F5 Mo1 O5 P1'
_chemical_formula_moiety
;
C19 H10 F5 Mo1 O5 P1
;
_journal_coden_Cambridge 36
_journal_volume 690
_journal_year 2005
_journal_page_first 534
_journal_name_full 'J.Organomet.Chem. '
loop_
_publ_author_name
"J.D.Palcic"
"R.G.Baughman"
"M.V.Golynskiy"
"S.B.Frawley"
"R.G.Peters"
_chemical_name_systematic
;
Pentacarbonyl-(pentafluoroethyl(diphenyl)phosphine)-molybdenum(0)
;
_chemical_name_common
;
Teaching Subset: Fundamental Chemistry
;
_cell_volume   4299.846
_exptl_crystal_colour 'pale blue'
_exptl_crystal_density_diffrn 1.669
_exptl_special_details
;
isostructural with the chromium analogue

;
_exptl_crystal_description 'block cut from larger crystal'
_exptl_crystal_preparation 'petroleum ether'
_diffrn_ambient_temperature 293
_refine_special_details
;
The terminal trifluoromethyl groups are disordered in each of the independent 
molecules.
;
#These two values have been output from a single CSD field.
_refine_ls_R_factor_gt 0.0379
_refine_ls_wR_factor_gt 0.0379
_symmetry_cell_setting triclinic
_symmetry_space_group_name_H-M 'P -1'
_symmetry_Int_Tables_number 2
loop_
_symmetry_equiv_pos_site_id
_symmetry_equiv_pos_as_xyz
1 x,y,z
2 -x,-y,-z
_cell_length_a 12.1674(9)
_cell_length_b 12.2604(12)
_cell_length_c 28.918(3)
_cell_angle_alpha 92.837(5)
_cell_angle_beta 93.588(6)
_cell_angle_gamma 90.527(5)
_cell_formula_units_Z 8
loop_
_atom_type_symbol
_atom_type_radius_bond
C 0.68
H 0.23
F 0.64
Mo 1.47
O 0.68
P 1.05
loop_
_atom_site_label
_atom_site_type_symbol
_atom_site_fract_x
_atom_site_fract_y
_atom_site_fract_z
Mo1 Mo -0.10562(3) 0.87518(3) 0.076178(12)
P1 P 0.02761(8) 0.77096(8) 0.12647(3)
F1 F 0.0567(2) 0.6859(2) 0.21184(10)
F2 F -0.1077(2) 0.7471(3) 0.19472(10)
F3 F -0.0452(11) 0.9519(6) 0.2053(2)
F4 F 0.1429(6) 0.8766(8) 0.2288(3)
F5 F -0.0025(3) 0.8633(3) 0.26297(11)
O1 O -0.2628(3) 0.9937(3) 0.00437(14)
O2 O -0.0164(4) 1.1115(3) 0.11297(16)
O3 O 0.0594(4) 0.8439(4) -0.00375(14)
O4 O -0.2154(3) 0.6487(3) 0.03919(13)
O5 O -0.2919(3) 0.8997(3) 0.14812(14)
C1 C -0.2072(4) 0.9511(4) 0.03088(16)
C2 C -0.0449(4) 1.0259(4) 0.09991(16)
C3 C 0.0034(4) 0.8569(4) 0.02550(16)
C4 C -0.1757(4) 0.7290(4) 0.05245(15)
C5 C -0.2231(4) 0.8901(3) 0.12396(16)
C6 C 0.1744(3) 0.8036(3) 0.13073(15)
C7 C 0.2506(4) 0.7354(4) 0.15164(19)
H1 H 0.22710 0.67100 0.16380
C8 C 0.3611(4) 0.7627(6) 0.1545(2)
H2 H 0.41190 0.71700 0.16880
C9 C 0.3965(4) 0.8575(6) 0.1361(2)
H3 H 0.47100 0.87570 0.13800
C10 C 0.3230(4) 0.9239(5) 0.1152(2)
H4 H 0.34730 0.98770 0.10280
C11 C 0.2119(4) 0.8979(4) 0.11219(18)
H5 H 0.16210 0.94400 0.09760
C12 C 0.0235(4) 0.6253(3) 0.10974(15)
C13 C 0.0927(5) 0.5884(4) 0.07594(19)
H6 H 0.14580 0.63480 0.06560
C14 C 0.0818(7) 0.4811(5) 0.0578(2)
H7 H 0.12650 0.45670 0.03460
C15 C 0.0065(7) 0.4116(5) 0.0736(3)
H8 H 0.00090 0.33980 0.06170
C16 C -0.0602(6) 0.4471(5) 0.1067(3)
H9 H -0.11170 0.39920 0.11730
C17 C -0.0532(4) 0.5531(4) 0.1250(2)
H10 H -0.09990 0.57630 0.14770
C18 C 0.0018(4) 0.7676(4) 0.19065(15)
C19 C 0.0293(5) 0.8716(5) 0.22070(18)
Mo2 Mo 0.61973(3) 0.87196(3) 0.424668(12)
P2 P 0.72013(8) 0.98961(8) 0.37229(4)
F6 F 0.7859(2) 0.9969(2) 0.2842(1)
F7 F 0.7396(2) 0.8353(2) 0.30442(9)
F8 F 0.5335(6) 0.8729(9) 0.2956(2)
F9 F 0.5662(3) 1.0533(3) 0.28166(13)
F10 F 0.6057(3) 0.9204(3) 0.23765(10)
O6 O 0.5016(3) 0.7358(3) 0.49722(14)
O7 O 0.3812(3) 0.9500(4) 0.38820(16)
O8 O 0.6576(4) 1.0605(3) 0.50357(14)
O9 O 0.8507(3) 0.7792(3) 0.46180(13)
O10 O 0.5966(3) 0.6645(3) 0.35397(12)
C20 C 0.5444(4) 0.7839(4) 0.47064(16)
C21 C 0.4670(4) 0.9252(4) 0.40082(17)
C22 C 0.6413(4) 0.9953(4) 0.47439(17)
C23 C 0.7693(4) 0.8131(3) 0.44830(15)
C24 C 0.6042(3) 0.7398(3) 0.37799(15)
C25 C 0.6891(3) 1.1342(3) 0.36781(14)
C26 C 0.7570(5) 1.2031(4) 0.3447(2)
H11 H 0.81890 1.17540 0.33120
C27 C 0.7318(6) 1.3123(4) 0.3421(3)
H12 H 0.77590 1.35770 0.32600
C28 C 0.6415(6) 1.3545(4) 0.3631(2)
H13 H 0.62620 1.42860 0.36210
C29 C 0.5748(5) 1.2872(4) 0.3855(2)
H14 H 0.51340 1.31540 0.39920
C30 C 0.5979(4) 1.1774(4) 0.38790(17)
H15 H 0.55170 1.13230 0.40310
C31 C 0.8682(3) 0.9914(3) 0.38706(15)
C32 C 0.9075(4) 1.0675(5) 0.4208(2)
H16 H 0.86130 1.12160 0.43170
C33 C 1.0164(5) 1.0637(6) 0.4386(2)
H17 H 1.04230 1.11440 0.46180
C34 C 1.0856(5) 0.9851(6) 0.4220(3)
H18 H 1.15860 0.98330 0.43360
C35 C 1.0476(5) 0.9115(5) 0.3893(2)
H19 H 1.09490 0.85810 0.37850
C36 C 0.9392(4) 0.9122(4) 0.37092(19)
H20 H 0.91450 0.86020 0.34800
C37 C 0.7125(4) 0.9436(3) 0.30826(14)
C38 C 0.6007(4) 0.9526(4) 0.28151(17)
Mo3 Mo 0.47917(3) 0.27672(3) 0.055723(12)
P3 P 0.49458(9) 0.31683(8) 0.14172(4)
F11 F 0.5604(3) 0.2389(3) 0.22532(11)
F12 F 0.5505(3) 0.1171(2) 0.16740(12)
F13 F 0.7333(3) 0.2146(5) 0.13507(18)
F14 F 0.7535(7) 0.3191(6) 0.1827(5)
F15 F 0.7537(3) 0.1516(3) 0.20176(16)
O11 O 0.4434(3) 0.2368(4) -0.05269(13)
O12 O 0.7270(3) 0.3343(4) 0.03659(17)
O13 O 0.3989(4) 0.5196(3) 0.04319(16)
O14 O 0.2276(3) 0.2115(4) 0.06330(13)
O15 O 0.5443(4) 0.0270(3) 0.06308(18)
C39 C 0.4571(4) 0.2506(4) -0.01343(18)
C40 C 0.6403(4) 0.3150(4) 0.04509(18)
C41 C 0.4298(4) 0.4331(4) 0.04804(17)
C42 C 0.3168(4) 0.2349(4) 0.06096(15)
C43 C 0.5230(4) 0.1163(4) 0.06130(19)
C44 C 0.5472(3) 0.4489(3) 0.16619(14)
C45 C 0.5307(4) 0.4849(4) 0.21146(15)
H21 H 0.49070 0.44210 0.23020
C46 C 0.5741(4) 0.5851(4) 0.22872(17)
H22 H 0.56240 0.60930 0.25900
C47 C 0.6338(4) 0.6485(4) 0.2017(2)
H23 H 0.66350 0.71490 0.21370
C48 C 0.6498(4) 0.6141(4) 0.15684(18)
H24 H 0.68950 0.65780 0.13830
C49 C 0.6074(4) 0.5149(3) 0.13918(16)
H25 H 0.61930 0.49200 0.10880
C50 C 0.3603(4) 0.3054(4) 0.16676(14)
C51 C 0.2928(4) 0.3952(4) 0.16540(18)
H26 H 0.32040 0.46150 0.15660
C52 C 0.1850(5) 0.3873(6) 0.1769(2)
H27 H 0.14120 0.44900 0.17630
C53 C 0.1410(5) 0.2910(7) 0.1893(2)
H28 H 0.06790 0.28660 0.19670
C54 C 0.2064(6) 0.2012(6) 0.1905(2)
H29 H 0.17750 0.13530 0.19910
C55 C 0.3164(5) 0.2067(5) 0.17896(18)
H30 H 0.35980 0.14460 0.17950
C56 C 0.5796(4) 0.2223(4) 0.17961(18)
C57 C 0.7047(5) 0.2271(5) 0.1775(3)
Mo4 Mo 0.22417(3) 0.46402(3) 0.444614(12)
P4 P 0.18387(8) 0.46027(8) 0.35843(4)
F16 F 0.2642(3) 0.5102(3) 0.27594(10)
F17 F 0.3866(2) 0.5111(3) 0.33437(12)
F18 F 0.2982(4) 0.6988(3) 0.36897(14)
F19 F 0.1838(6) 0.6902(8) 0.2995(6)
F20 F 0.3527(3) 0.7066(3) 0.30124(14)
O16 O 0.2632(4) 0.4555(3) 0.55304(13)
O17 O 0.1710(4) 0.7158(3) 0.46339(17)
O18 O -0.0211(3) 0.3854(4) 0.45605(17)
O19 O 0.2855(4) 0.2121(3) 0.43609(14)
O20 O 0.4778(3) 0.5247(3) 0.43855(16)
C58 C 0.2496(4) 0.4587(4) 0.51346(18)
C59 C 0.1888(4) 0.6266(4) 0.45541(18)
C60 C 0.0647(4) 0.4160(4) 0.45107(17)
C61 C 0.2634(4) 0.3017(4) 0.43844(15)
C62 C 0.3867(4) 0.5040(4) 0.44032(17)
C63 C 0.0504(3) 0.5071(3) 0.33402(15)
C64 C 0.0134(4) 0.4813(4) 0.28894(16)
H31 H 0.05600 0.43850 0.26970
C65 C -0.0883(4) 0.5194(4) 0.27196(18)
H32 H -0.11280 0.50330 0.24120
C66 C -0.1526(4) 0.5808(4) 0.3007(2)
H33 H -0.22080 0.60520 0.28950
C67 C -0.1165(4) 0.6056(4) 0.3451(2)
H34 H -0.16020 0.64720 0.36430
C68 C -0.0149(4) 0.5699(4) 0.36260(17)
H35 H 0.00940 0.58770 0.39320
C69 C 0.1936(4) 0.3222(3) 0.33224(14)
C70 C 0.1018(4) 0.2544(4) 0.33151(18)
H36 H 0.03460 0.28310 0.33940
C71 C 0.1089(6) 0.1447(4) 0.3192(2)
H37 H 0.04610 0.10060 0.31830
C72 C 0.2067(6) 0.0999(5) 0.3086(2)
H38 H 0.21140 0.02540 0.30140
C73 C 0.2975(6) 0.1658(5) 0.3086(2)
H39 H 0.36380 0.13580 0.30030
C74 C 0.2934(4) 0.2766(4) 0.32076(19)
H40 H 0.35660 0.31990 0.32120
C75 C 0.2805(4) 0.5379(4) 0.32186(17)
C76 C 0.2774(4) 0.6628(4) 0.3255(2)
F21? F 0.0074(12) 0.9613(6) 0.2007(3)
F22? F 0.1206(8) 0.9185(11) 0.2175(4)
F23? F 0.5166(7) 0.9180(11) 0.3040(3)
F24? F 0.7383(7) 0.3248(6) 0.2052(5)
F25? F 0.1805(5) 0.7074(6) 0.3197(5)
#END
