####################################################################### 
# 
# This file contains crystal structure data downloaded from the 
# Cambridge Structural Database (CSD) hosted by the Cambridge 
# Crystallographic Data Centre (CCDC).
# 
# Full information about CCDC data access policies and citation 
# guidelines are available at http://www.ccdc.cam.ac.uk/access/V1 
# 
# Audit and citation data items may have been added by the CCDC. 
# Please retain this information to preserve the provenance of 
# this file and to allow appropriate attribution of the data. 
# 
#######################################################################

data_I
_audit_block_doi                 10.5517/cc11yc2f
_database_code_depnum_ccdc_archive 'CCDC 981524'
loop_
_citation_id
_citation_doi
_citation_year
1 10.1016/j.ica.2014.04.025 2014
_audit_update_record             
;
2014-01-14 deposited with the CCDC.	2024-07-10 downloaded from the CCDC.
;
_chemical_name_systematic        ?
_chemical_name_common            ?
_chemical_formula_moiety         ?
_chemical_formula_sum            'C10 H12 N4 Ni O8'
_chemical_formula_iupac          ?
_chemical_formula_weight         374.95

_chemical_melting_point          ?

_space_group_crystal_system      monoclinic
_space_group_name_H-M_alt        'C 1 2/c 1'
_space_group_name_Hall           '-C 2yc'
loop_
_space_group_symop_operation_xyz
'x, y, z'
'-x, y, -z+1/2'
'x+1/2, y+1/2, z'
'-x+1/2, y+1/2, -z+1/2'
'-x, -y, -z'
'x, -y, z-1/2'
'-x+1/2, -y+1/2, -z'
'x+1/2, -y+1/2, z-1/2'

_cell_length_a                   19.3423(11)
_cell_length_b                   11.6451(6)
_cell_length_c                   7.3859(4)
_cell_angle_alpha                90
_cell_angle_beta                 95.7120(10)
_cell_angle_gamma                90
_cell_volume                     1655.36(16)
_cell_formula_units_Z            4
_cell_measurement_reflns_used    5063
_cell_measurement_theta_min      2.77
_cell_measurement_theta_max      28.70
_cell_measurement_temperature    173.(2)

_exptl_crystal_description       prism
_exptl_crystal_colour            blue-green
_exptl_crystal_size_max          0.280
_exptl_crystal_size_mid          0.210
_exptl_crystal_size_min          0.190
_exptl_crystal_density_diffrn    1.504
_exptl_crystal_density_meas      ?
_exptl_crystal_density_method    'not measured'
_exptl_crystal_F_000             768

_exptl_absorpt_coefficient_mu    1.216
_exptl_absorpt_correction_type   multi-scan
_exptl_absorpt_process_details   'SADABS (Bruker, 2013)'
_exptl_absorpt_correction_T_min  0.73
_exptl_absorpt_correction_T_max  0.80

_exptl_special_details           
;
A X--ray quality crystal was selected under ambient conditions
and covered with PARATONE oil
The crystal was mounted and centered in the X--ray beam by
using a video camera.The crystal evaluation and data
collection with the detector to crystal distance of 5cm till resolution of 0.68
\%A..
The initial cell constants were obtained from three series of
scans at different starting angles. Each series consisted
of 30 frames collected at intervals of 0.3 in a 10 range about
\w with the exposure time of 20 seconds per frame. The
obtained reflections were successfully indexed. The final cell
constants were calculated from a set of strong reflections based
upon the actual data collection.
;

_diffrn_ambient_temperature      173.(2)

_diffrn_source                   'X-ray tuve'
_diffrn_source_type              'Sealed tube'

_diffrn_radiation_type           'MoK\a '
_diffrn_radiation_wavelength     0.71073
_diffrn_radiation_monochromator  graphite

_diffrn_measurement_device_type  'Bruker APEX-II CCD'
_diffrn_measurement_method       ' full spere \w scans'

_diffrn_detector_area_resol_mean ?

_diffrn_reflns_number            8612
_diffrn_reflns_av_R_equivalents  0.0183
_diffrn_reflns_av_sigmaI/netI    ?
_diffrn_reflns_theta_min         2.12
_diffrn_reflns_theta_max         28.72
_diffrn_reflns_theta_full        28.72
_diffrn_measured_fraction_theta_max 0.997
_diffrn_measured_fraction_theta_full 0.997
_diffrn_reflns_limit_h_min       -26
_diffrn_reflns_limit_h_max       26
_diffrn_reflns_limit_k_min       -15
_diffrn_reflns_limit_k_max       15
_diffrn_reflns_limit_l_min       -9
_diffrn_reflns_limit_l_max       9

_refine_special_details          
;
The systematic absences in the diffraction data were consistent for the
stated space group. The position of almost all non-hydrogen atoms
were found by direct methods. The remaining atoms were located in an
alternating series of least-squares cycles on difference Fourier maps.
All non-hydrogen atoms were refined in full-matrix anisotropic approximation.
H-atoms of water solvent were found objectively on a difference Fourier
map and were refind using DFIX and DANG restraints. All other hydrogen 
atoms were placed in the structure factor calculation at
idealized positions and were allowed to ride on the neighboring atoms with
relative isotropic displacement coefficients.

Final results were tested with CHECKCIF routine and all A and B-warnings 
were addressed on the very top of this file.
;

_reflns_number_total             2134
_reflns_number_gt                1954
_reflns_threshold_expression     'I > 2\s(I)'

_refine_ls_structure_factor_coef Fsqd
_refine_ls_matrix_type           full
_refine_ls_R_factor_all          0.0455
_refine_ls_R_factor_gt           0.0425
_refine_ls_wR_factor_gt          0.1427
_refine_ls_wR_factor_ref         0.1453
_refine_ls_goodness_of_fit_ref   1.096
_refine_ls_restrained_S_all      1.095
_refine_ls_number_reflns         2134
_refine_ls_number_parameters     112
_refine_ls_number_restraints     3
_refine_ls_hydrogen_treatment    mixed
_refine_ls_weighting_scheme      calc
_refine_ls_weighting_details     
;
w=1/[\s^2^(Fo^2^)+(0.0862P)^2^+6.8859P]
where P=(Fo^2^+2Fc^2^)/3
;

_atom_sites_solution_hydrogens   mixed
_atom_sites_solution_primary     direct
_atom_sites_solution_secondary   difmap

_refine_ls_shift/su_max          0.000
_refine_ls_shift/su_mean         0.000
_refine_diff_density_max         1.733
_refine_diff_density_min         -0.344
_refine_ls_extinction_method     none
_refine_ls_extinction_coef       ?

loop_
_atom_type_symbol
_atom_type_description
_atom_type_scat_dispersion_real
_atom_type_scat_dispersion_imag
_atom_type_scat_source
C C 0.0033 0.0016 'International Tables Vol C Tables 4.2.6.8 and 6.1.1.4'
H H 0.0000 0.0000 'International Tables Vol C Tables 4.2.6.8 and 6.1.1.4'
N N 0.0061 0.0033 'International Tables Vol C Tables 4.2.6.8 and 6.1.1.4'
O O 0.0106 0.0060 'International Tables Vol C Tables 4.2.6.8 and 6.1.1.4'
Ni Ni 0.3393 1.1124 'International Tables Vol C Tables 4.2.6.8 and 6.1.1.4'

_computing_data_collection       'APEX2 Suite (Bruker AXS, 2013)'
_computing_cell_refinement       'SAINT V7.66A (Bruker AXS, 2013)'
_computing_data_reduction        'SAINT V7.66A (Bruker AXS, 2013)'
_computing_structure_solution    'SHELXS-2013 (Sheldrick, 2013)'
_computing_structure_refinement  'SHELXL-2013 (Sheldrick, 2013)'
_computing_molecular_graphics    'XSHELL (Bruker AXS, 2007)'
_computing_publication_material  'APEX2 Suite (Bruker AXS, 2013)'

loop_
_atom_site_type_symbol
_atom_site_label
_atom_site_fract_x
_atom_site_fract_y
_atom_site_fract_z
_atom_site_U_iso_or_equiv
_atom_site_adp_type
_atom_site_calc_flag
_atom_site_refinement_flags_adp
_atom_site_refinement_flags_occupancy
_atom_site_refinement_flags_posn
_atom_site_occupancy
_atom_site_disorder_assembly
_atom_site_disorder_group
Ni Ni1 0.75 0.75 0 0.01104(17) Uani d . P S 1 . .
O O1 0.77921(10) 0.86042(17) -0.2024(3) 0.0183(4) Uani d . . . 1 . .
N N1 0.80420(12) 0.83081(19) -0.3482(3) 0.0156(4) Uani d . . . 1 . .
O O2 0.81381(14) 0.72949(19) -0.3839(3) 0.0268(5) Uani d . . . 1 . .
O O3 0.81782(12) 0.90999(18) -0.4550(3) 0.0241(5) Uani d . . . 1 . .
N N2 0.65776(11) 0.84462(19) -0.0109(3) 0.0150(4) Uani d . . . 1 . .
C C1 0.59719(15) 0.7914(3) -0.0024(5) 0.0287(7) Uani d . . . 1 . .
H H1 0.597 0.7099 0.0005 0.034 Uiso calc U . R 1 . .
C C2 0.53453(15) 0.8481(3) 0.0024(6) 0.0305(7) Uani d . . . 1 . .
H H2 0.4929 0.8058 0.0092 0.037 Uiso calc U . R 1 . .
C C3 0.53282(12) 0.9674(2) -0.0029(3) 0.0143(5) Uani d . . . 1 . .
C C4 0.59583(14) 1.0224(2) -0.0121(5) 0.0259(7) Uani d . . . 1 . .
H H3 0.5976 1.1039 -0.0157 0.031 Uiso calc U . R 1 . .
C C5 0.65631(14) 0.9589(2) -0.0162(5) 0.0240(6) Uani d . . . 1 . .
H H4 0.6988 0.9988 -0.0231 0.029 Uiso calc U . R 1 . .
O O4 0.69681(10) 0.63276(16) -0.1698(3) 0.0172(4) Uani d . . D 1 . .
H H4A 0.696(2) 0.635(3) -0.285(2) 0.021 Uiso d U . D 1 . .
H H4B 0.6948(19) 0.5625(18) -0.137(4) 0.021 Uiso d U . D 1 . .

loop_
_atom_site_aniso_label
_atom_site_aniso_U_11
_atom_site_aniso_U_22
_atom_site_aniso_U_33
_atom_site_aniso_U_12
_atom_site_aniso_U_13
_atom_site_aniso_U_23
Ni1 0.0101(3) 0.0102(3) 0.0131(3) 0.00312(14) 0.00265(16) 0.00102(14)
O1 0.0251(10) 0.0158(9) 0.0152(9) 0.0041(7) 0.0085(7) 0.0008(7)
N1 0.0173(10) 0.0151(10) 0.0145(10) 0.0023(8) 0.0026(8) -0.0010(8)
O2 0.0404(14) 0.0147(9) 0.0269(11) 0.0074(9) 0.0110(10) -0.0015(8)
O3 0.0368(12) 0.0186(10) 0.0185(10) -0.0024(8) 0.0103(8) 0.0018(7)
N2 0.0123(10) 0.0139(10) 0.0192(10) 0.0038(7) 0.0031(8) 0.0018(8)
C1 0.0150(13) 0.0135(13) 0.058(2) 0.0031(10) 0.0045(13) -0.0015(13)
C2 0.0112(12) 0.0156(13) 0.065(2) 0.0002(10) 0.0052(13) -0.0032(13)
C3 0.0104(11) 0.0141(11) 0.0186(12) 0.0042(9) 0.0018(9) 0.0013(9)
C4 0.0139(12) 0.0118(12) 0.053(2) 0.0027(9) 0.0093(12) 0.0050(12)
C5 0.0126(12) 0.0154(12) 0.0450(18) 0.0027(9) 0.0080(11) 0.0045(12)
O4 0.0226(9) 0.0142(9) 0.0145(9) 0.0000(7) 0.0005(7) 0.0000(7)

_geom_special_details            
;
All esds (except the esd in the dihedral angle between two l.s. planes)
are estimated using the full covariance matrix.  The cell esds are taken
into account individually in the estimation of esds in distances, angles
and torsion angles; correlations between esds in cell parameters are only
used when they are defined by crystal symmetry.  An approximate (isotropic)
treatment of cell esds is used for estimating esds involving l.s. planes.
;

loop_
_geom_bond_atom_site_label_1
_geom_bond_atom_site_label_2
_geom_bond_site_symmetry_2
_geom_bond_distance
_geom_bond_publ_flag
Ni1 O4 . 2.0587(19) ?
Ni1 O4 7_665 2.0587(19) ?
Ni1 N2 . 2.092(2) ?
Ni1 N2 7_665 2.092(2) ?
Ni1 O1 7_665 2.0916(19) ?
Ni1 O1 . 2.0916(19) ?
O1 N1 . 1.272(3) ?
N1 O2 . 1.227(3) ?
N1 O3 . 1.258(3) ?
N2 C5 . 1.331(3) ?
N2 C1 . 1.332(4) ?
C1 C2 . 1.384(4) ?
C1 H1 . 0.95 ?
C2 C3 . 1.389(4) ?
C2 H2 . 0.95 ?
C3 C4 . 1.385(4) ?
C3 C3 5_675 1.484(5) ?
C4 C5 . 1.387(4) ?
C4 H3 . 0.95 ?
C5 H4 . 0.95 ?
O4 H4A . 0.852(17) ?
O4 H4B . 0.854(17) ?

loop_
_geom_angle_atom_site_label_1
_geom_angle_atom_site_label_2
_geom_angle_atom_site_label_3
_geom_angle_site_symmetry_1
_geom_angle_site_symmetry_3
_geom_angle
_geom_angle_publ_flag
O4 Ni1 O4 . 7_665 180.0 ?
O4 Ni1 N2 . . 87.33(8) ?
O4 Ni1 N2 7_665 . 92.68(8) ?
O4 Ni1 N2 . 7_665 92.67(8) ?
O4 Ni1 N2 7_665 7_665 87.32(8) ?
N2 Ni1 N2 . 7_665 180.0 ?
O4 Ni1 O1 . 7_665 82.73(8) ?
O4 Ni1 O1 7_665 7_665 97.27(8) ?
N2 Ni1 O1 . 7_665 93.51(8) ?
N2 Ni1 O1 7_665 7_665 86.49(8) ?
O4 Ni1 O1 . . 97.27(8) ?
O4 Ni1 O1 7_665 . 82.73(8) ?
N2 Ni1 O1 . . 86.49(8) ?
N2 Ni1 O1 7_665 . 93.51(8) ?
O1 Ni1 O1 7_665 . 180.0 ?
N1 O1 Ni1 . . 126.25(16) ?
O2 N1 O3 . . 121.6(2) ?
O2 N1 O1 . . 121.4(2) ?
O3 N1 O1 . . 117.0(2) ?
C5 N2 C1 . . 116.7(2) ?
C5 N2 Ni1 . . 122.90(18) ?
C1 N2 Ni1 . . 120.27(18) ?
N2 C1 C2 . . 123.8(3) ?
N2 C1 H1 . . 118.1 ?
C2 C1 H1 . . 118.1 ?
C1 C2 C3 . . 119.7(3) ?
C1 C2 H2 . . 120.2 ?
C3 C2 H2 . . 120.2 ?
C4 C3 C2 . . 116.4(2) ?
C4 C3 C3 . 5_675 121.6(3) ?
C2 C3 C3 . 5_675 122.0(3) ?
C5 C4 C3 . . 120.2(2) ?
C5 C4 H3 . . 119.9 ?
C3 C4 H3 . . 119.9 ?
N2 C5 C4 . . 123.2(3) ?
N2 C5 H4 . . 118.4 ?
C4 C5 H4 . . 118.4 ?
Ni1 O4 H4A . . 124.(2) ?
Ni1 O4 H4B . . 120.(2) ?
H4A O4 H4B . . 108.(2) ?

loop_
_geom_hbond_atom_site_label_D
_geom_hbond_atom_site_label_H
_geom_hbond_atom_site_label_A
_geom_hbond_site_symmetry_A
_geom_hbond_distance_DH
_geom_hbond_distance_HA
_geom_hbond_distance_DA
_geom_hbond_angle_DHA
_geom_hbond_publ_flag
O4 H4A O3 7_664 0.852(17) 1.98(2) 2.802(3) 162.(3) ?
O4 H4B O3 4_644 0.854(17) 1.927(18) 2.777(3) 173.(3) ?

