####################################################################### 
# 
# This file contains crystal structure data downloaded from the 
# Cambridge Structural Database (CSD) hosted by the Cambridge 
# Crystallographic Data Centre (CCDC).
# 
# Full information about CCDC data access policies and citation 
# guidelines are available at http://www.ccdc.cam.ac.uk/access/V1 
# 
# Audit and citation data items may have been added by the CCDC. 
# Please retain this information to preserve the provenance of 
# this file and to allow appropriate attribution of the data. 
# 
#######################################################################

data_Wee001
_audit_block_doi                 10.5517/cc11yc0c
_database_code_depnum_ccdc_archive 'CCDC 981522'
loop_
_citation_id
_citation_doi
_citation_year
1 10.1016/j.ica.2014.04.025 2014
_audit_update_record             
;
2014-01-14 deposited with the CCDC.	2024-07-10 downloaded from the CCDC.
;
_chemical_name_systematic        ?
_chemical_name_common            ?
_chemical_formula_moiety         ?
_chemical_formula_sum            'C10 H12 Co N4 O8'
_chemical_formula_iupac          ?
_chemical_formula_weight         375.17

_chemical_melting_point          ?

_space_group_crystal_system      orthorhombic
_space_group_name_H-M_alt        'P c c n'
_space_group_name_Hall           '-P 2ab 2ac'
loop_
_space_group_symop_operation_xyz
'x, y, z'
'-x+1/2, -y+1/2, z'
'-x, y+1/2, -z+1/2'
'x+1/2, -y, -z+1/2'
'-x, -y, -z'
'x-1/2, y-1/2, -z'
'x, -y-1/2, z-1/2'
'-x-1/2, y, z-1/2'

_cell_length_a                   11.7636(14)
_cell_length_b                   19.487(2)
_cell_length_c                   7.3919(9)
_cell_angle_alpha                90
_cell_angle_beta                 90
_cell_angle_gamma                90
_cell_volume                     1694.5(4)
_cell_formula_units_Z            4
_cell_measurement_reflns_used    8888
_cell_measurement_theta_min      2.7553
_cell_measurement_theta_max      29.5587
_cell_measurement_temperature    173.(2)

_exptl_crystal_description       cube
_exptl_crystal_colour            orange
_exptl_crystal_size_max          0.300
_exptl_crystal_size_mid          0.300
_exptl_crystal_size_min          0.300
_exptl_crystal_density_diffrn    1.471
_exptl_crystal_density_meas      ?
_exptl_crystal_density_method    'not measured'
_exptl_crystal_F_000             764

_exptl_absorpt_coefficient_mu    1.055
_exptl_absorpt_correction_type   multi-scan
_exptl_absorpt_process_details   'SADABS (Bruker, 2013)'
_exptl_absorpt_correction_T_min  0.68
_exptl_absorpt_correction_T_max  0.74

_exptl_special_details           
;
A X--ray quality crystal was selected under ambient conditions
and covered with PARATONE oil
The crystal was mounted and centered in the X--ray beam by
using a video camera.The crystal evaluation and data
collection with the detector to crystal distance of 5cm till resolution of 0.68
\%A..
The initial cell constants were obtained from three series of
scans at different starting angles. Each series consisted
of 30 frames collected at intervals of 0.3 in a 10 range about
\w with the exposure time of 20 seconds per frame. The
obtained reflections were successfully indexed. The final cell
constants were calculated from a set of strong reflections based
upon the actual data collection.
;

_diffrn_ambient_temperature      173.(2)

_diffrn_source                   'X-ray tuve'
_diffrn_source_type              'Sealed tube'

_diffrn_radiation_type           'MoK\a '
_diffrn_radiation_wavelength     0.71073
_diffrn_radiation_monochromator  graphite

_diffrn_measurement_device_type  'Bruker APEX-II CCD'
_diffrn_measurement_method       ' full spere \w scans'

_diffrn_detector_area_resol_mean 8.3333

_diffrn_reflns_number            17585
_diffrn_reflns_av_R_equivalents  0.0232
_diffrn_reflns_av_sigmaI/netI    ?
_diffrn_reflns_theta_min         2.02
_diffrn_reflns_theta_max         29.57
_diffrn_reflns_theta_full        29.57
_diffrn_measured_fraction_theta_max 1.000
_diffrn_measured_fraction_theta_full 1.000
_diffrn_reflns_limit_h_min       -16
_diffrn_reflns_limit_h_max       16
_diffrn_reflns_limit_k_min       -26
_diffrn_reflns_limit_k_max       26
_diffrn_reflns_limit_l_min       -10
_diffrn_reflns_limit_l_max       10

_refine_special_details          
;
The systematic absences in the diffraction data were consistent for the
stated space group. The position of almost all non-hydrogen atoms
were found by direct methods. The remaining atoms were located in an
alternating series of least-squares cycles on difference Fourier maps.
All non-hydrogen atoms were refined in full-matrix anisotropic approximation.
H-atoms of water solvent were found objectively on a difference Fourier
map and were refind using DFIX and DANG restraints. All other hydrogen 
atoms were placed in the structure factor calculation at
idealized positions and were allowed to ride on the neighboring atoms with
relative isotropic displacement coefficients.

Final results were tested with CHECKCIF routine and all A and B-warnings 
were addressed on the very top of this file.
;

_reflns_number_total             2378
_reflns_number_gt                2204
_reflns_threshold_expression     'I > 2\s(I)'

_refine_ls_structure_factor_coef Fsqd
_refine_ls_matrix_type           full
_refine_ls_R_factor_all          0.0647
_refine_ls_R_factor_gt           0.0619
_refine_ls_wR_factor_gt          0.1833
_refine_ls_wR_factor_ref         0.1886
_refine_ls_goodness_of_fit_ref   1.200
_refine_ls_restrained_S_all      1.200
_refine_ls_number_reflns         2378
_refine_ls_number_parameters     113
_refine_ls_number_restraints     3
_refine_ls_hydrogen_treatment    mixed
_refine_ls_weighting_scheme      calc
_refine_ls_weighting_details     
;
w=1/[\s^2^(Fo^2^)+(0.1012P)^2^+3.2205P]
where P=(Fo^2^+2Fc^2^)/3
;

_atom_sites_solution_hydrogens   mixed
_atom_sites_solution_primary     direct
_atom_sites_solution_secondary   difmap

_refine_ls_shift/su_max          0.046
_refine_ls_shift/su_mean         0.004
_refine_diff_density_max         2.098
_refine_diff_density_min         -0.650
_refine_ls_extinction_method     SHELXL
_refine_ls_extinction_coef       0.041(4)

loop_
_atom_type_symbol
_atom_type_description
_atom_type_scat_dispersion_real
_atom_type_scat_dispersion_imag
_atom_type_scat_source
C C 0.0033 0.0016 'International Tables Vol C Tables 4.2.6.8 and 6.1.1.4'
H H 0.0000 0.0000 'International Tables Vol C Tables 4.2.6.8 and 6.1.1.4'
N N 0.0061 0.0033 'International Tables Vol C Tables 4.2.6.8 and 6.1.1.4'
O O 0.0106 0.0060 'International Tables Vol C Tables 4.2.6.8 and 6.1.1.4'
Co Co 0.3494 0.9721 'International Tables Vol C Tables 4.2.6.8 and 6.1.1.4'

_computing_data_collection       'APEX2 Suite (Bruker AXS, 2013)'
_computing_cell_refinement       'SAINT V8.30C (Bruker AXS Inc., 2013)'
_computing_data_reduction        'SAINT V8.30C (Bruker AXS Inc., 2013)'
_computing_structure_solution    'SHELXS-2013 (Sheldrick, 2013)'
_computing_structure_refinement  'SHELXL-2013 (Sheldrick, 2013)'
_computing_molecular_graphics    'XSHELL (Bruker AXS, 2007)'
_computing_publication_material  'APEX2 Suite (Bruker AXS, 2013)'

loop_
_atom_site_type_symbol
_atom_site_label
_atom_site_fract_x
_atom_site_fract_y
_atom_site_fract_z
_atom_site_U_iso_or_equiv
_atom_site_adp_type
_atom_site_calc_flag
_atom_site_refinement_flags_adp
_atom_site_refinement_flags_occupancy
_atom_site_refinement_flags_posn
_atom_site_occupancy
_atom_site_disorder_assembly
_atom_site_disorder_group
Co Co1 0.5 0.5 0.5 0.0125(2) Uani d . P S 1 . .
O O1 0.61235(15) 0.46751(10) 0.2872(3) 0.0190(4) Uani d . . . 1 . .
O O3 0.66213(18) 0.43319(13) 0.0211(3) 0.0235(5) Uani d . . . 1 . .
N N2 0.58367(18) 0.44515(11) 0.1334(3) 0.0155(4) Uani d . . . 1 . .
O O2 0.48400(17) 0.43521(13) 0.0948(3) 0.0270(5) Uani d . . . 1 . .
C C2 0.2286(2) 0.34501(14) 0.5291(4) 0.0193(5) Uani d . . . 1 . .
H H2 0.1492 0.3463 0.5518 0.023 Uiso calc U . R 1 . .
N N1 0.4040(2) 0.40668(12) 0.4996(3) 0.0160(5) Uani d . . . 1 . .
C C4 0.3991(2) 0.28439(13) 0.4615(4) 0.0206(5) Uani d . . . 1 . .
H H3 0.4394 0.2432 0.4365 0.025 Uiso calc U . R 1 . .
C C1 0.2918(2) 0.40514(13) 0.5306(4) 0.0189(5) Uani d . . . 1 . .
H H1 0.2538 0.4472 0.5547 0.023 Uiso calc U . R 1 . .
C C5 0.4557(2) 0.34671(14) 0.4657(4) 0.0205(5) Uani d . . . 1 . .
H H4 0.5353 0.347 0.4435 0.025 Uiso calc U . R 1 . .
C C3 0.2825(2) 0.28260(13) 0.4942(3) 0.0152(5) Uani d . . . 1 . .
O O4 0.37964(16) 0.54961(10) 0.3458(3) 0.0182(4) Uani d . . D 1 . .
H H4A 0.383(3) 0.5493(18) 0.233(2) 0.022 Uiso d U . D 1 . .
H H4B 0.3134(19) 0.5557(19) 0.385(4) 0.022 Uiso d U . D 1 . .

loop_
_atom_site_aniso_label
_atom_site_aniso_U_11
_atom_site_aniso_U_22
_atom_site_aniso_U_33
_atom_site_aniso_U_12
_atom_site_aniso_U_13
_atom_site_aniso_U_23
Co1 0.0115(3) 0.0116(3) 0.0143(3) -0.00256(14) 0.00045(14) -0.00049(14)
O1 0.0162(8) 0.0274(10) 0.0134(9) -0.0032(7) -0.0007(7) -0.0052(7)
O3 0.0193(10) 0.0376(12) 0.0136(9) 0.0024(9) 0.0025(7) -0.0050(8)
N2 0.0153(9) 0.0173(9) 0.0139(9) -0.0033(7) 0.0005(7) -0.0009(7)
O2 0.0156(9) 0.0414(13) 0.0239(11) -0.0097(8) -0.0025(8) -0.0031(9)
C2 0.0138(12) 0.0137(11) 0.0304(13) -0.0010(9) 0.0035(9) -0.0010(9)
N1 0.0146(10) 0.0124(10) 0.0210(11) -0.0022(8) 0.0020(7) 0.0010(7)
C4 0.0142(11) 0.0125(11) 0.0351(14) -0.0002(8) 0.0037(10) -0.0010(10)
C1 0.0162(11) 0.0123(11) 0.0281(13) -0.0012(9) 0.0041(10) -0.0019(9)
C5 0.0134(11) 0.0157(11) 0.0324(14) -0.0018(9) 0.0041(10) -0.0018(10)
C3 0.0137(11) 0.0107(11) 0.0211(12) -0.0026(9) -0.0003(8) -0.0006(8)
O4 0.0148(8) 0.0262(9) 0.0135(8) 0.0011(7) 0.0007(6) 0.0015(7)

_geom_special_details            
;
All esds (except the esd in the dihedral angle between two l.s. planes)
are estimated using the full covariance matrix.  The cell esds are taken
into account individually in the estimation of esds in distances, angles
and torsion angles; correlations between esds in cell parameters are only
used when they are defined by crystal symmetry.  An approximate (isotropic)
treatment of cell esds is used for estimating esds involving l.s. planes.
;

loop_
_geom_bond_atom_site_label_1
_geom_bond_atom_site_label_2
_geom_bond_site_symmetry_2
_geom_bond_distance
_geom_bond_publ_flag
Co1 O4 5_666 2.0585(19) ?
Co1 O4 . 2.0586(19) ?
Co1 N1 . 2.141(2) ?
Co1 N1 5_666 2.141(2) ?
Co1 O1 . 2.1501(19) ?
Co1 O1 5_666 2.1501(19) ?
O1 N2 . 1.263(3) ?
O3 N2 . 1.263(3) ?
N2 O2 . 1.222(3) ?
C2 C1 . 1.388(4) ?
C2 C3 . 1.395(3) ?
C2 H2 . 0.95 ?
N1 C1 . 1.340(3) ?
N1 C5 . 1.341(3) ?
C4 C5 . 1.386(4) ?
C4 C3 . 1.393(4) ?
C4 H3 . 0.95 ?
C1 H1 . 0.95 ?
C5 H4 . 0.95 ?
C3 C3 2 1.483(5) ?
O4 H4A . 0.839(17) ?
O4 H4B . 0.840(17) ?

loop_
_geom_angle_atom_site_label_1
_geom_angle_atom_site_label_2
_geom_angle_atom_site_label_3
_geom_angle_site_symmetry_1
_geom_angle_site_symmetry_3
_geom_angle
_geom_angle_publ_flag
O4 Co1 O4 5_666 . 180.00(7) ?
O4 Co1 N1 5_666 . 87.98(8) ?
O4 Co1 N1 . . 92.02(8) ?
O4 Co1 N1 5_666 5_666 92.02(8) ?
O4 Co1 N1 . 5_666 87.98(8) ?
N1 Co1 N1 . 5_666 180.00(6) ?
O4 Co1 O1 5_666 . 81.03(7) ?
O4 Co1 O1 . . 98.97(7) ?
N1 Co1 O1 . . 94.20(8) ?
N1 Co1 O1 5_666 . 85.80(8) ?
O4 Co1 O1 5_666 5_666 98.97(7) ?
O4 Co1 O1 . 5_666 81.03(7) ?
N1 Co1 O1 . 5_666 85.80(8) ?
N1 Co1 O1 5_666 5_666 94.20(8) ?
O1 Co1 O1 . 5_666 180.00(8) ?
N2 O1 Co1 . . 126.58(15) ?
O2 N2 O1 . . 121.4(2) ?
O2 N2 O3 . . 121.3(2) ?
O1 N2 O3 . . 117.4(2) ?
C1 C2 C3 . . 119.6(2) ?
C1 C2 H2 . . 120.2 ?
C3 C2 H2 . . 120.2 ?
C1 N1 C5 . . 117.4(2) ?
C1 N1 Co1 . . 122.58(18) ?
C5 N1 Co1 . . 120.05(18) ?
C5 C4 C3 . . 119.4(2) ?
C5 C4 H3 . . 120.3 ?
C3 C4 H3 . . 120.3 ?
N1 C1 C2 . . 123.0(2) ?
N1 C1 H1 . . 118.5 ?
C2 C1 H1 . . 118.5 ?
N1 C5 C4 . . 123.3(2) ?
N1 C5 H4 . . 118.3 ?
C4 C5 H4 . . 118.3 ?
C4 C3 C2 . . 117.2(2) ?
C4 C3 C3 . 2 121.9(3) ?
C2 C3 C3 . 2 120.9(3) ?
Co1 O4 H4A . . 121.(2) ?
Co1 O4 H4B . . 121.(2) ?
H4A O4 H4B . . 113.(3) ?

loop_
_geom_torsion_atom_site_label_1
_geom_torsion_atom_site_label_2
_geom_torsion_atom_site_label_3
_geom_torsion_atom_site_label_4
_geom_torsion_site_symmetry_1
_geom_torsion_site_symmetry_2
_geom_torsion_site_symmetry_3
_geom_torsion_site_symmetry_4
_geom_torsion
_geom_torsion_publ_flag
Co1 O1 N2 O2 . . . . -5.3(3) ?
Co1 O1 N2 O3 . . . . 175.01(18) ?
C5 N1 C1 C2 . . . . 0.1(4) ?
Co1 N1 C1 C2 . . . . 179.4(2) ?
C3 C2 C1 N1 . . . . 0.0(4) ?
C1 N1 C5 C4 . . . . 0.0(4) ?
Co1 N1 C5 C4 . . . . -179.4(2) ?
C3 C4 C5 N1 . . . . -0.2(5) ?
C5 C4 C3 C2 . . . . 0.3(4) ?
C5 C4 C3 C3 . . . 2 -179.1(2) ?
C1 C2 C3 C4 . . . . -0.2(4) ?
C1 C2 C3 C3 . . . 2 179.2(2) ?

loop_
_geom_hbond_atom_site_label_D
_geom_hbond_atom_site_label_H
_geom_hbond_atom_site_label_A
_geom_hbond_site_symmetry_A
_geom_hbond_distance_DH
_geom_hbond_distance_HA
_geom_hbond_distance_DA
_geom_hbond_angle_DHA
_geom_hbond_publ_flag
O4 H4A O3 5_665 0.839(17) 1.98(2) 2.777(3) 159.(3) ?
O4 H4B O3 4_465 0.840(17) 1.922(17) 2.762(3) 178.(4) ?

