####################################################################### 
# 
# This file contains crystal structure data downloaded from the 
# Cambridge Structural Database (CSD) hosted by the Cambridge 
# Crystallographic Data Centre (CCDC).
# 
# Full information about CCDC data access policies and citation 
# guidelines are available at http://www.ccdc.cam.ac.uk/access/V1 
# 
# Audit and citation data items may have been added by the CCDC. 
# Please retain this information to preserve the provenance of 
# this file and to allow appropriate attribution of the data. 
# 
#######################################################################

data_3
_audit_block_doi                 10.5517/cc11q496
_database_code_depnum_ccdc_archive 'CCDC 974587'
loop_
_citation_id
_citation_doi
_citation_year
1 10.1016/j.ica.2014.04.011 2014
_audit_update_record             
;
2013-11-30 deposited with the CCDC.	2024-07-10 downloaded from the CCDC.
;
_audit_creation_date             2013-11-30
_audit_creation_method           
;
  Olex2 1.1
  (compiled 2011.08.18 svn.r1932, GUI svn.r3819)
;
_chemical_name_common            ?
_chemical_name_systematic        
;
 ? 
;
_chemical_formula_moiety         'C66 H58 Cd N8 O4'
_chemical_formula_sum            'C66 H58 Cd N8 O4'
_chemical_formula_weight         1139.60
_chemical_melting_point          ?
loop_
_atom_type_symbol
_atom_type_description
_atom_type_scat_dispersion_real
_atom_type_scat_dispersion_imag
_atom_type_scat_source
C C 0.0181 0.0091 'International Tables Vol C Tables 4.2.6.8 and 6.1.1.4'
H H 0.0000 0.0000 'International Tables Vol C Tables 4.2.6.8 and 6.1.1.4'
Cd Cd 0.1185 4.6533 'International Tables Vol C Tables 4.2.6.8 and 6.1.1.4'
N N 0.0311 0.0180 'International Tables Vol C Tables 4.2.6.8 and 6.1.1.4'
O O 0.0492 0.0322 'International Tables Vol C Tables 4.2.6.8 and 6.1.1.4'

_space_group_crystal_system      monoclinic
_space_group_IT_number           15
_space_group_name_H-M_alt        'C 1 2/c 1'
_space_group_name_Hall           '-C 2yc'
loop_
_space_group_symop_id
_space_group_symop_operation_xyz
1 'x, y, z'
2 '-x, y, -z+1/2'
3 'x+1/2, y+1/2, z'
4 '-x+1/2, y+1/2, -z+1/2'
5 '-x, -y, -z'
6 'x, -y, z-1/2'
7 '-x+1/2, -y+1/2, -z'
8 'x+1/2, -y+1/2, z-1/2'

_cell_length_a                   38.973(2)
_cell_length_b                   17.2005(3)
_cell_length_c                   29.5303(19)
_cell_angle_alpha                90.00
_cell_angle_beta                 139.054(12)
_cell_angle_gamma                90.00
_cell_volume                     12973.1(12)
_cell_formula_units_Z            8
_cell_measurement_reflns_used    ?
_cell_measurement_temperature    293(2)
_cell_measurement_theta_max      ?
_cell_measurement_theta_min      ?
_exptl_absorpt_coefficient_mu    3.088
_exptl_absorpt_correction_T_max  0.8129
_exptl_absorpt_correction_T_min  0.7082
_exptl_absorpt_correction_type   ?
_exptl_absorpt_process_details   ?
_exptl_crystal_colour            ?
_exptl_crystal_density_diffrn    1.167
_exptl_crystal_density_meas      ?
_exptl_crystal_density_method    'not measured'
_exptl_crystal_description       ?
_exptl_crystal_F_000             4720
_exptl_crystal_size_max          0.12
_exptl_crystal_size_mid          0.09
_exptl_crystal_size_min          0.07
_exptl_special_details           
;
 ? 
;
_diffrn_reflns_av_R_equivalents  0.0000
_diffrn_reflns_av_unetI/netI     0.0361
_diffrn_reflns_limit_h_max       31
_diffrn_reflns_limit_h_min       -47
_diffrn_reflns_limit_k_max       21
_diffrn_reflns_limit_k_min       0
_diffrn_reflns_limit_l_max       36
_diffrn_reflns_limit_l_min       0
_diffrn_reflns_number            12915
_diffrn_reflns_theta_full        73.79
_diffrn_reflns_theta_max         73.79
_diffrn_reflns_theta_min         3.10
_diffrn_ambient_temperature      293(2)
_diffrn_detector_area_resol_mean ?
_diffrn_measured_fraction_theta_full 0.981
_diffrn_measured_fraction_theta_max 0.981
_diffrn_measurement_device_type  ?
_diffrn_measurement_method       ?
_diffrn_radiation_monochromator  graphite
_diffrn_radiation_type           'CU K\a'
_diffrn_radiation_wavelength     1.54184
_diffrn_source                   'fine-focus sealed tube'
_diffrn_source_current           n/a
_diffrn_source_voltage           n/a
_diffrn_standards_decay_%        ?
_diffrn_standards_interval_count ?
_diffrn_standards_interval_time  ?
_diffrn_standards_number         ?
_reflns_number_gt                10532
_reflns_number_total             12915
_reflns_threshold_expression     >2sigma(I)
_computing_cell_refinement       ?
_computing_data_collection       ?
_computing_data_reduction        ?
_computing_molecular_graphics    
;
O. V. Dolomanov, L. J. Bourhis, R. J. Gildea, J. A. K. Howard and H. Puschmann,
OLEX2: a complete structure solution, refinement and analysis program.
J. Appl. Cryst. (2009). 42, 339-341.
;
_computing_publication_material  
;
O. V. Dolomanov, L. J. Bourhis, R. J. Gildea, J. A. K. Howard and H. Puschmann,
OLEX2: a complete structure solution, refinement and analysis program.
J. Appl. Cryst. (2009). 42, 339-341.
;
_computing_structure_refinement  
;
XL, G.M. Sheldrick, Acta Cryst.
(2008). A64, 112-122
;
_computing_structure_solution    'SHELXS-97 (Sheldrick, 1990)'
_refine_diff_density_max         2.011
_refine_diff_density_min         -1.045
_refine_diff_density_rms         0.069
_refine_ls_extinction_coef       ?
_refine_ls_extinction_method     none
_refine_ls_goodness_of_fit_ref   1.049
_refine_ls_hydrogen_treatment    mixed
_refine_ls_matrix_type           full
_refine_ls_number_parameters     718
_refine_ls_number_reflns         12915
_refine_ls_number_restraints     0
_refine_ls_R_factor_all          0.0540
_refine_ls_R_factor_gt           0.0440
_refine_ls_restrained_S_all      1.049
_refine_ls_shift/su_max          0.002
_refine_ls_shift/su_mean         0.000
_refine_ls_structure_factor_coef Fsqd
_refine_ls_weighting_details     
'calc w=1/[\s^2^(Fo^2^)+(0.0744P)^2^+9.1138P] where P=(Fo^2^+2Fc^2^)/3'
_refine_ls_weighting_scheme      calc
_refine_ls_wR_factor_gt          0.1187
_refine_ls_wR_factor_ref         0.1269
_refine_special_details          
;
 Refinement of F^2^ against ALL reflections.  The weighted R-factor wR and 
 goodness of fit S are based on F^2^, conventional R-factors R are based 
 on F, with F set to zero for negative F^2^. The threshold expression of 
 F^2^ > 2sigma(F^2^) is used only for calculating R-factors(gt) etc. and is 
 not relevant to the choice of reflections for refinement.  R-factors based 
 on F^2^ are statistically about twice as large as those based on F, and R- 
 factors based on ALL data will be even larger. 
;
_atom_sites_solution_hydrogens   geom
_atom_sites_solution_primary     direct
_atom_sites_solution_secondary   difmap
loop_
_atom_site_label
_atom_site_type_symbol
_atom_site_fract_x
_atom_site_fract_y
_atom_site_fract_z
_atom_site_U_iso_or_equiv
_atom_site_adp_type
_atom_site_occupancy
_atom_site_symmetry_multiplicity
_atom_site_calc_flag
_atom_site_refinement_flags
_atom_site_disorder_assembly
_atom_site_disorder_group
Cd1 Cd 0.747751(6) 0.373078(11) 0.865267(9) 0.03423(7) Uani 1 1 d . . .
O3 O 0.73919(8) 0.49035(12) 0.88477(10) 0.0446(5) Uani 1 1 d . . .
O1 O 1.19123(7) 0.20202(12) 1.26856(10) 0.0411(4) Uani 1 1 d . . .
N7 N 0.67057(8) 0.86632(13) 0.58422(11) 0.0333(5) Uani 1 1 d . . .
O2 O 1.19969(10) 0.08379(13) 1.25077(12) 0.0528(5) Uani 1 1 d . . .
O4 O 0.66221(10) 0.43830(14) 0.82468(14) 0.0571(6) Uani 1 1 d . . .
N4 N 0.77434(8) 0.29304(14) 0.94832(11) 0.0341(5) Uani 1 1 d . . .
N8 N 0.59211(8) 0.82122(14) 0.52571(11) 0.0353(5) Uani 1 1 d . . .
N2 N 0.96537(9) 0.53627(15) 1.15539(12) 0.0405(5) Uani 1 1 d . . .
N3 N 0.82438(8) 0.22584(14) 1.04614(11) 0.0353(5) Uani 1 1 d . . .
N5 N 0.76798(9) 0.59022(15) 0.71149(14) 0.0429(6) Uani 1 1 d . . .
N1 N 0.99782(8) 0.41541(15) 1.18764(11) 0.0375(5) Uani 1 1 d . . .
N6 N 0.72793(11) 0.50539(16) 0.62603(16) 0.0509(7) Uani 1 1 d . . .
C62 C 0.60803(11) 1.05749(19) 0.54419(15) 0.0432(6) Uani 1 1 d . . .
H62 H 0.6132 1.1110 0.5486 0.052 Uiso 1 1 calc R . .
C22 C 0.83831(10) 0.43304(17) 1.03444(13) 0.0358(6) Uani 1 1 d . . .
H22 H 0.8023 0.4403 0.9999 0.043 Uiso 1 1 calc R . .
C21 C 0.85761(10) 0.35652(17) 1.05412(14) 0.0343(5) Uani 1 1 d . . .
C60 C 0.63851(10) 0.92878(16) 0.56278(13) 0.0330(5) Uani 1 1 d . . .
C65 C 0.58912(10) 0.90051(18) 0.52642(13) 0.0357(6) Uani 1 1 d . . .
C33 C 0.75075(10) 0.22169(16) 0.93310(14) 0.0346(5) Uani 1 1 d . . .
C45 C 0.72520(11) 0.58576(18) 0.75741(15) 0.0410(6) Uani 1 1 d . . .
H45 H 0.7135 0.5510 0.7238 0.049 Uiso 1 1 calc R . .
C20 C 0.91145(10) 0.34211(17) 1.10532(13) 0.0345(5) Uani 1 1 d . . .
H20 H 0.9251 0.2920 1.1188 0.041 Uiso 1 1 calc R . .
C52 C 0.72433(11) 0.62756(17) 0.65091(16) 0.0389(6) Uani 1 1 d . . .
C53 C 0.70633(10) 0.70260(17) 0.64069(14) 0.0368(6) Uani 1 1 d . . .
H53 H 0.7241 0.7370 0.6772 0.044 Uiso 1 1 calc R . .
C25 C 0.92439(10) 0.48380(17) 1.11594(14) 0.0359(6) Uani 1 1 d . . .
C59 C 0.64145(9) 0.80302(16) 0.56054(13) 0.0331(5) Uani 1 1 d . . .
C23 C 0.87003(10) 0.49824(17) 1.06372(14) 0.0376(6) Uani 1 1 d . . .
C19 C 0.94333(10) 0.40753(17) 1.13478(13) 0.0345(5) Uani 1 1 d . . .
C11 C 1.05088(10) 0.31989(17) 1.19551(13) 0.0365(6) Uani 1 1 d . . .
C13 C 1.07509(10) 0.33664(18) 1.14136(14) 0.0380(6) Uani 1 1 d . . .
H13 H 1.0797 0.3693 1.1211 0.046 Uiso 1 1 calc R . .
C61 C 0.64866(10) 1.00811(17) 0.57155(14) 0.0382(6) Uani 1 1 d . . .
H61 H 0.6810 1.0274 0.5945 0.046 Uiso 1 1 calc R . .
C64 C 0.54891(10) 0.95009(19) 0.50015(14) 0.0423(6) Uani 1 1 d . . .
H64 H 0.5165 0.9312 0.4770 0.051 Uiso 1 1 calc R . .
C26 C 0.81907(10) 0.29231(17) 1.01676(14) 0.0346(5) Uani 1 1 d . . .
C31 C 0.69280(11) 0.11488(18) 0.86993(16) 0.0412(6) Uani 1 1 d . . .
H31 H 0.6628 0.0918 0.8283 0.049 Uiso 1 1 calc R . .
C54 C 0.66031(10) 0.72336(17) 0.57281(14) 0.0361(6) Uani 1 1 d . . .
C24 C 0.84870(11) 0.57943(18) 1.04256(16) 0.0462(7) Uani 1 1 d . . .
H24A H 0.8112 0.5777 1.0034 0.069 Uiso 1 1 calc R . .
H24B H 0.8623 0.6074 1.0305 0.069 Uiso 1 1 calc R . .
H24C H 0.8590 0.6052 1.0802 0.069 Uiso 1 1 calc R . .
C1 C 1.17902(11) 0.14882(18) 1.22866(16) 0.0397(6) Uani 1 1 d . . .
C2 C 1.14032(11) 0.16755(17) 1.15294(15) 0.0396(6) Uani 1 1 d . . .
C63 C 0.55984(11) 1.02809(19) 0.51039(15) 0.0451(7) Uani 1 1 d . . .
H63 H 0.5341 1.0628 0.4942 0.054 Uiso 1 1 calc R . .
C7 C 1.10029(10) 0.22333(18) 1.11754(14) 0.0401(6) Uani 1 1 d . . .
C44 C 0.76845(11) 0.63212(18) 0.79164(16) 0.0433(7) Uani 1 1 d . . .
C32 C 0.70505(10) 0.18972(18) 0.86920(14) 0.0382(6) Uani 1 1 d . . .
H32 H 0.6840 0.2176 0.8283 0.046 Uiso 1 1 calc R . .
C46 C 0.69928(11) 0.59064(18) 0.77265(16) 0.0436(6) Uani 1 1 d . . .
H46 H 0.6701 0.5595 0.7487 0.052 Uiso 1 1 calc R . .
C15 C 1.00842(10) 0.49329(18) 1.19749(14) 0.0404(6) Uani 1 1 d . . .
C9 C 1.07813(10) 0.21002(18) 1.17750(14) 0.0395(6) Uani 1 1 d . . .
H9 H 1.0848 0.1570 1.1819 0.047 Uiso 1 1 calc R . .
C14 C 1.03521(10) 0.35135(18) 1.22591(14) 0.0397(6) Uani 1 1 d . . .
H14A H 1.0202 0.3092 1.2286 0.048 Uiso 1 1 calc R . .
H14B H 1.0665 0.3687 1.2727 0.048 Uiso 1 1 calc R . .
C8 C 1.08555(10) 0.25796(18) 1.14738(14) 0.0377(6) Uani 1 1 d . . .
C3 C 1.14795(13) 0.13077(18) 1.11855(17) 0.0462(7) Uani 1 1 d . . .
H3 H 1.1732 0.0921 1.1410 0.055 Uiso 1 1 calc R . .
C28 C 0.78163(10) 0.17865(17) 0.99389(14) 0.0367(6) Uani 1 1 d . . .
C10 C 1.06083(10) 0.24092(18) 1.20095(14) 0.0403(6) Uani 1 1 d . . .
H10 H 1.0558 0.2082 1.2206 0.048 Uiso 1 1 calc R . .
C41 C 0.71603(12) 0.64135(18) 0.82316(17) 0.0449(7) Uani 1 1 d . . .
C34 C 0.69190(12) 0.49550(19) 0.85129(16) 0.0442(7) Uani 1 1 d . . .
C30 C 0.72379(11) 0.07250(18) 0.93102(16) 0.0424(6) Uani 1 1 d . . .
H30 H 0.7141 0.0221 0.9290 0.051 Uiso 1 1 calc R . .
C29 C 0.76886(11) 0.10426(18) 0.99467(16) 0.0409(6) Uani 1 1 d . . .
H29 H 0.7893 0.0768 1.0356 0.049 Uiso 1 1 calc R . .
C57 C 0.69928(12) 0.57443(17) 0.59779(17) 0.0424(6) Uani 1 1 d . . .
C27 C 0.86496(11) 0.20544(18) 1.11952(14) 0.0410(6) Uani 1 1 d . . .
H27A H 0.8925 0.1774 1.1320 0.061 Uiso 1 1 calc R . .
H27B H 0.8501 0.1735 1.1280 0.061 Uiso 1 1 calc R . .
H27C H 0.8790 0.2520 1.1467 0.061 Uiso 1 1 calc R . .
C6 C 1.07133(11) 0.2429(2) 1.05030(15) 0.0472(7) Uani 1 1 d . . .
H6 H 1.0451 0.2802 1.0267 0.057 Uiso 1 1 calc R . .
C12 C 1.05783(10) 0.36764(17) 1.16511(15) 0.0383(6) Uani 1 1 d . . .
H12 H 1.0509 0.4206 1.1605 0.046 Uiso 1 1 calc R . .
C66 C 0.55237(11) 0.76595(19) 0.50115(17) 0.0463(7) Uani 1 1 d . . .
H66A H 0.5375 0.7835 0.5144 0.069 Uiso 1 1 calc R . .
H66B H 0.5681 0.7158 0.5212 0.069 Uiso 1 1 calc R . .
H66C H 0.5253 0.7622 0.4517 0.069 Uiso 1 1 calc R . .
C48 C 0.76821(12) 0.51756(19) 0.69385(18) 0.0488(7) Uani 1 1 d . . .
C55 C 0.63403(11) 0.66982(18) 0.51793(15) 0.0412(6) Uani 1 1 d . . .
H55 H 0.6031 0.6852 0.4731 0.049 Uiso 1 1 calc R . .
C56 C 0.65283(12) 0.59542(18) 0.52887(17) 0.0438(6) Uani 1 1 d . . .
C40 C 0.68774(13) 0.6435(2) 0.83893(17) 0.0489(7) Uani 1 1 d . . .
C39 C 0.67248(15) 0.7144(2) 0.8422(2) 0.0590(9) Uani 1 1 d . . .
H39 H 0.6823 0.7603 0.8377 0.071 Uiso 1 1 calc R . .
C35 C 0.67373(13) 0.5751(2) 0.84745(17) 0.0482(7) Uani 1 1 d . . .
C16 C 1.06346(11) 0.5248(2) 1.25182(16) 0.0499(8) Uani 1 1 d . . .
H16A H 1.0858 0.4880 1.2584 0.060 Uiso 1 1 calc R . .
H16B H 1.0759 0.5287 1.2951 0.060 Uiso 1 1 calc R . .
C4 C 1.11846(14) 0.1513(2) 1.05182(18) 0.0559(8) Uani 1 1 d . . .
H4 H 1.1240 0.1267 1.0297 0.067 Uiso 1 1 calc R . .
C43 C 0.78387(12) 0.68606(18) 0.84007(16) 0.0478(7) Uani 1 1 d . . .
H43 H 0.8117 0.7194 0.8620 0.057 Uiso 1 1 calc R . .
C49 C 0.81031(14) 0.4584(2) 0.7434(2) 0.0612(9) Uani 1 1 d . . .
H49A H 0.8380 0.4822 0.7887 0.073 Uiso 1 1 calc R . .
H49B H 0.8251 0.4442 0.7290 0.073 Uiso 1 1 calc R . .
C42 C 0.75830(12) 0.69019(19) 0.85557(16) 0.0486(7) Uani 1 1 d . . .
H42 H 0.7693 0.7261 0.8881 0.058 Uiso 1 1 calc R . .
C47 C 0.79945(12) 0.62343(19) 0.77939(17) 0.0471(7) Uani 1 1 d . . .
H47A H 0.8124 0.6740 0.7830 0.057 Uiso 1 1 calc R . .
H47B H 0.8294 0.5902 0.8149 0.057 Uiso 1 1 calc R . .
C51 C 0.83613(13) 0.32553(19) 0.79581(17) 0.0473(7) Uani 1 1 d . . .
H51A H 0.8469 0.3110 0.7766 0.071 Uiso 1 1 calc R . .
H51B H 0.8235 0.2805 0.7990 0.071 Uiso 1 1 calc R . .
H51C H 0.8654 0.3471 0.8411 0.071 Uiso 1 1 calc R . .
C5 C 1.08029(13) 0.2091(2) 1.01771(17) 0.0552(8) Uani 1 1 d . . .
H5 H 1.0611 0.2245 0.9734 0.066 Uiso 1 1 calc R . .
C50 C 0.79280(13) 0.38566(19) 0.74961(18) 0.0490(7) Uani 1 1 d . . .
H50A H 0.7633 0.3636 0.7040 0.059 Uiso 1 1 calc R . .
H50B H 0.7811 0.3987 0.7682 0.059 Uiso 1 1 calc R . .
C58 C 0.62440(15) 0.5390(2) 0.4702(2) 0.0575(8) Uani 1 1 d . . .
H58A H 0.6488 0.5159 0.4737 0.086 Uiso 1 1 calc R . .
H58B H 0.5978 0.5661 0.4270 0.086 Uiso 1 1 calc R . .
H58C H 0.6085 0.4990 0.4724 0.086 Uiso 1 1 calc R . .
C17 C 1.06922(14) 0.6040(2) 1.2351(2) 0.0609(9) Uani 1 1 d . . .
H17A H 1.0500 0.6419 1.2336 0.073 Uiso 1 1 calc R . .
H17B H 1.1059 0.6188 1.2724 0.073 Uiso 1 1 calc R . .
C36 C 0.64296(16) 0.5788(2) 0.8560(2) 0.0633(10) Uani 1 1 d . . .
H36 H 0.6329 0.5332 0.8605 0.076 Uiso 1 1 calc R . .
C38 C 0.64292(18) 0.7178(3) 0.8521(2) 0.0717(11) Uani 1 1 d . . .
H38 H 0.6336 0.7657 0.8548 0.086 Uiso 1 1 calc R . .
C18 C 1.05054(16) 0.6084(3) 1.1684(2) 0.0726(11) Uani 1 1 d . . .
H18A H 1.0140 0.5957 1.1307 0.109 Uiso 1 1 calc R . .
H18B H 1.0699 0.5721 1.1695 0.109 Uiso 1 1 calc R . .
H18C H 1.0558 0.6600 1.1623 0.109 Uiso 1 1 calc R . .
C37 C 0.62739(19) 0.6505(3) 0.8578(3) 0.0740(12) Uani 1 1 d . . .
H37 H 0.6066 0.6528 0.8628 0.089 Uiso 1 1 calc R . .

loop_
_atom_site_aniso_label
_atom_site_aniso_U_11
_atom_site_aniso_U_22
_atom_site_aniso_U_33
_atom_site_aniso_U_23
_atom_site_aniso_U_13
_atom_site_aniso_U_12
Cd1 0.02248(10) 0.03897(12) 0.03773(11) -0.00186(7) 0.02173(9) -0.00180(7)
O3 0.0382(10) 0.0450(11) 0.0427(11) 0.0032(9) 0.0283(10) 0.0110(9)
O1 0.0254(9) 0.0453(11) 0.0361(9) 0.0030(8) 0.0185(8) 0.0012(8)
N7 0.0244(11) 0.0390(12) 0.0344(11) 0.0006(9) 0.0217(10) 0.0008(8)
O2 0.0595(14) 0.0456(12) 0.0621(13) 0.0101(10) 0.0485(13) 0.0134(11)
O4 0.0578(14) 0.0455(13) 0.0753(16) 0.0039(11) 0.0523(14) 0.0024(11)
N4 0.0236(10) 0.0432(12) 0.0336(11) -0.0044(9) 0.0210(9) -0.0041(9)
N8 0.0208(10) 0.0445(13) 0.0345(11) 0.0015(9) 0.0192(9) -0.0012(9)
N2 0.0268(11) 0.0470(14) 0.0427(12) -0.0070(10) 0.0248(10) -0.0056(10)
N3 0.0259(10) 0.0445(13) 0.0361(11) -0.0036(9) 0.0236(10) -0.0042(9)
N5 0.0317(12) 0.0440(13) 0.0552(14) 0.0167(11) 0.0334(12) 0.0093(10)
N1 0.0207(10) 0.0511(14) 0.0332(11) -0.0028(10) 0.0182(9) -0.0024(9)
N6 0.0542(16) 0.0397(14) 0.0780(19) 0.0113(13) 0.0554(16) 0.0075(12)
C62 0.0302(13) 0.0477(16) 0.0388(14) -0.0053(12) 0.0224(12) 0.0019(12)
C22 0.0237(12) 0.0479(16) 0.0324(12) -0.0039(11) 0.0202(11) -0.0005(11)
C21 0.0250(12) 0.0481(15) 0.0326(12) -0.0056(11) 0.0225(11) -0.0034(11)
C60 0.0232(12) 0.0425(14) 0.0294(11) -0.0004(10) 0.0188(10) 0.0037(10)
C65 0.0252(12) 0.0478(15) 0.0319(12) -0.0011(11) 0.0209(11) 0.0012(11)
C33 0.0260(12) 0.0422(14) 0.0401(13) -0.0040(11) 0.0263(12) -0.0014(10)
C45 0.0311(13) 0.0455(16) 0.0391(14) 0.0060(12) 0.0244(12) 0.0027(12)
C20 0.0264(12) 0.0438(15) 0.0336(12) 0.0002(11) 0.0227(11) 0.0012(11)
C52 0.0331(14) 0.0418(15) 0.0480(15) 0.0063(12) 0.0325(14) 0.0003(11)
C53 0.0286(13) 0.0457(15) 0.0404(14) 0.0063(11) 0.0273(12) 0.0017(11)
C25 0.0264(12) 0.0437(15) 0.0361(13) -0.0034(11) 0.0232(11) -0.0021(11)
C59 0.0205(11) 0.0451(15) 0.0306(12) 0.0036(10) 0.0184(10) 0.0010(10)
C23 0.0268(12) 0.0473(16) 0.0363(13) -0.0026(11) 0.0231(12) -0.0001(11)
C19 0.0216(11) 0.0487(15) 0.0305(12) -0.0024(11) 0.0