####################################################################### 
# 
# This file contains crystal structure data downloaded from the 
# Cambridge Structural Database (CSD) hosted by the Cambridge 
# Crystallographic Data Centre (CCDC).
# 
# Full information about CCDC data access policies and citation 
# guidelines are available at http://www.ccdc.cam.ac.uk/access/V1 
# 
# Audit and citation data items may have been added by the CCDC. 
# Please retain this information to preserve the provenance of 
# this file and to allow appropriate attribution of the data. 
# 
#######################################################################

data_1
_audit_block_doi                 10.5517/cc11s959
_database_code_depnum_ccdc_archive 'CCDC 976660'
loop_
_citation_id
_citation_doi
_citation_year
1 10.1016/j.inoche.2014.03.011 2014
_audit_update_record             
;
2013-12-13 deposited with the CCDC.	2024-07-10 downloaded from the CCDC.
;

_audit_creation_method           SHELXL-97
_chemical_name_systematic        
; 
 ? 
;
_chemical_name_common            ?
_chemical_melting_point          ?
_chemical_formula_moiety         ?
_chemical_formula_sum            'C17 H13 Mg N O5'
_chemical_formula_weight         335.59

loop_
_atom_type_symbol
_atom_type_description
_atom_type_scat_dispersion_real
_atom_type_scat_dispersion_imag
_atom_type_scat_source
C C 0.0033 0.0016 'International Tables Vol C Tables 4.2.6.8 and 6.1.1.4'
H H 0.0000 0.0000 'International Tables Vol C Tables 4.2.6.8 and 6.1.1.4'
N N 0.0061 0.0033 'International Tables Vol C Tables 4.2.6.8 and 6.1.1.4'
O O 0.0106 0.0060 'International Tables Vol C Tables 4.2.6.8 and 6.1.1.4'
Mg Mg 0.0486 0.0363 'International Tables Vol C Tables 4.2.6.8 and 6.1.1.4'

_symmetry_cell_setting           monoclinic
_symmetry_space_group_name_H-M   P2(1)/c

loop_
_symmetry_equiv_pos_as_xyz
'x, y, z'
'-x, y+1/2, -z+1/2'
'-x, -y, -z'
'x, -y-1/2, z-1/2'

_cell_length_a                   7.1722(2)
_cell_length_b                   12.8109(3)
_cell_length_c                   17.3162(4)
_cell_angle_alpha                90.00
_cell_angle_beta                 90.933(2)
_cell_angle_gamma                90.00
_cell_volume                     1590.84(7)
_cell_formula_units_Z            4
_cell_measurement_temperature    293(2)
_cell_measurement_reflns_used    2128
_cell_measurement_theta_min      3.8630
_cell_measurement_theta_max      28.9300

_exptl_crystal_description       rod-like
_exptl_crystal_colour            colorless
_exptl_crystal_size_max          0.22
_exptl_crystal_size_mid          0.12
_exptl_crystal_size_min          0.10
_exptl_crystal_density_meas      ?
_exptl_crystal_density_diffrn    1.401
_exptl_crystal_density_method    'not measured'
_exptl_crystal_F_000             696
_exptl_absorpt_coefficient_mu    0.138
_exptl_absorpt_correction_type   multi-scan
_exptl_absorpt_correction_T_min  0.91820
_exptl_absorpt_correction_T_max  1.00000
_exptl_absorpt_process_details   
;
CrysAlisPro, Agilent Technologies,
Version 1.171.36.28 (release 01-02-2013 CrysAlis171 .NET)
(compiled Feb  1 2013,16:14:44)
Empirical absorption correction using spherical harmonics,
 implemented in SCALE3 ABSPACK scaling algorithm.
;

_exptl_special_details           
; 
 ? 
;

_diffrn_ambient_temperature      293(2)
_diffrn_radiation_wavelength     0.71073
_diffrn_radiation_type           MoK\a
_diffrn_radiation_source         'fine-focus sealed tube'
_diffrn_radiation_monochromator  graphite
_diffrn_measurement_device_type  'Xcalibur, Eos'
_diffrn_measurement_method       '\w scans'
_diffrn_detector_area_resol_mean ?
_diffrn_standards_number         ?
_diffrn_standards_interval_count ?
_diffrn_standards_interval_time  ?
_diffrn_standards_decay_%        ?
_diffrn_reflns_number            6362
_diffrn_reflns_av_R_equivalents  0.0235
_diffrn_reflns_av_sigmaI/netI    0.0370
_diffrn_reflns_limit_h_min       -8
_diffrn_reflns_limit_h_max       8
_diffrn_reflns_limit_k_min       -14
_diffrn_reflns_limit_k_max       15
_diffrn_reflns_limit_l_min       -20
_diffrn_reflns_limit_l_max       12
_diffrn_reflns_theta_min         3.18
_diffrn_reflns_theta_max         25.00
_reflns_number_total             2801
_reflns_number_gt                2283
_reflns_threshold_expression     >2sigma(I)

_computing_data_collection       ?
_computing_cell_refinement       ?
_computing_data_reduction        ?
_computing_structure_solution    'SHELXS-97 (Sheldrick, 1990)'
_computing_structure_refinement  'SHELXL-97 (Sheldrick, 1997)'
_computing_molecular_graphics    ?
_computing_publication_material  ?

_refine_special_details          
; 
 Refinement of F^2^ against ALL reflections.  The weighted R-factor wR and 
 goodness of fit S are based on F^2^, conventional R-factors R are based 
 on F, with F set to zero for negative F^2^. The threshold expression of 
 F^2^ > 2sigma(F^2^) is used only for calculating R-factors(gt) etc. and is 
 not relevant to the choice of reflections for refinement.  R-factors based 
 on F^2^ are statistically about twice as large as those based on F, and R- 
 factors based on ALL data will be even larger. 
;

_refine_ls_structure_factor_coef Fsqd
_refine_ls_matrix_type           full
_refine_ls_weighting_scheme      calc
_refine_ls_weighting_details     
'calc w=1/[\s^2^(Fo^2^)+(0.0436P)^2^+0.2685P] where P=(Fo^2^+2Fc^2^)/3'
_atom_sites_solution_primary     direct
_atom_sites_solution_secondary   difmap
_atom_sites_solution_hydrogens   geom
_refine_ls_hydrogen_treatment    constr
_refine_ls_extinction_method     none
_refine_ls_extinction_coef       ?
_refine_ls_number_reflns         2801
_refine_ls_number_parameters     220
_refine_ls_number_restraints     0
_refine_ls_R_factor_all          0.0503
_refine_ls_R_factor_gt           0.0379
_refine_ls_wR_factor_ref         0.0928
_refine_ls_wR_factor_gt          0.0873
_refine_ls_goodness_of_fit_ref   1.040
_refine_ls_restrained_S_all      1.040
_refine_ls_shift/su_max          0.001
_refine_ls_shift/su_mean         0.000

loop_
_atom_site_label
_atom_site_type_symbol
_atom_site_fract_x
_atom_site_fract_y
_atom_site_fract_z
_atom_site_U_iso_or_equiv
_atom_site_adp_type
_atom_site_occupancy
_atom_site_symmetry_multiplicity
_atom_site_calc_flag
_atom_site_refinement_flags
_atom_site_disorder_assembly
_atom_site_disorder_group
Mg1 Mg 0.5000 0.5000 0.0000 0.01426(19) Uani 1 2 d S . .
Mg2 Mg 0.0000 0.5000 0.0000 0.01452(19) Uani 1 2 d S . .
O1 O 0.10440(16) 0.38175(9) 0.06817(7) 0.0237(3) Uani 1 1 d . . .
O2 O 0.40913(17) 0.40769(9) 0.08749(7) 0.0223(3) Uani 1 1 d . . .
O3 O 0.08254(16) 0.07144(9) 0.39912(7) 0.0242(3) Uani 1 1 d . . .
O4 O 0.38757(16) 0.09719(9) 0.41828(7) 0.0224(3) Uani 1 1 d . . .
O5 O 0.74973(15) 0.40901(8) 0.00547(7) 0.0199(3) Uani 1 1 d . . .
H1 H 0.7586 0.3523 -0.0197 0.030 Uiso 1 1 d R . .
H2 H 0.7489 0.3910 0.0515 0.030 Uiso 1 1 d R . .
C1 C 0.2571(2) 0.36354(12) 0.10175(9) 0.0169(4) Uani 1 1 d . . .
C2 C 0.2389(2) 0.10445(12) 0.37877(10) 0.0181(4) Uani 1 1 d . . .
C3 C 0.2556(2) 0.28494(12) 0.16699(9) 0.0186(4) Uani 1 1 d . . .
C4 C 0.1022(2) 0.28266(14) 0.21314(10) 0.0245(4) Uani 1 1 d . . .
H3 H -0.0009 0.3234 0.2002 0.029 Uiso 1 1 calc R . .
C5 C 0.0977(2) 0.21981(14) 0.27971(10) 0.0241(4) Uani 1 1 d . . .
H4 H -0.0096 0.2184 0.3091 0.029 Uiso 1 1 calc R . .
C6 C 0.2485(2) 0.16061(13) 0.30203(9) 0.0190(4) Uani 1 1 d . . .
C7 C 0.4083(2) 0.15625(12) 0.25359(9) 0.0185(4) Uani 1 1 d . . .
C8 C 0.4098(2) 0.21744(12) 0.18448(10) 0.0184(4) Uani 1 1 d . . .
C9 C 0.5616(3) 0.20563(14) 0.13380(11) 0.0280(4) Uani 1 1 d . . .
H5 H 0.5621 0.2431 0.0878 0.034 Uiso 1 1 calc R . .
C10 C 0.7068(3) 0.14072(15) 0.15099(12) 0.0361(5) Uani 1 1 d . . .
H6 H 0.8057 0.1350 0.1172 0.043 Uiso 1 1 calc R . .
C11 C 0.7077(3) 0.08256(15) 0.21955(12) 0.0355(5) Uani 1 1 d . . .
H7 H 0.8080 0.0390 0.2314 0.043 Uiso 1 1 calc R . .
C12 C 0.5628(3) 0.08942(14) 0.26884(11) 0.0268(4) Uani 1 1 d . . .
H8 H 0.5647 0.0494 0.3137 0.032 Uiso 1 1 calc R . .
C13 C 0.6553(4) 0.3198(2) 0.39860(16) 0.0603(7) Uani 1 1 d . . .
H9 H 0.5415 0.2862 0.3912 0.072 Uiso 1 1 calc R . .
C14 C 0.6836(5) 0.4149(2) 0.3636(2) 0.0907(12) Uani 1 1 d . . .
H10 H 0.5901 0.4452 0.3332 0.109 Uiso 1 1 calc R . .
C15 C 0.8518(4) 0.4643(2) 0.37420(19) 0.0798(10) Uani 1 1 d . . .
H11 H 0.8744 0.5283 0.3509 0.096 Uiso 1 1 calc R . .
C16 C 0.9844(4) 0.41833(18) 0.41909(16) 0.0583(7) Uani 1 1 d . . .
H12 H 1.0992 0.4505 0.4274 0.070 Uiso 1 1 calc R . .
C17 C 0.9464(3) 0.32352(16) 0.45208(13) 0.0434(6) Uani 1 1 d . . .
H13 H 1.0383 0.2920 0.4826 0.052 Uiso 1 1 calc R . .
N1 N 0.7845(3) 0.27470(12) 0.44238(10) 0.0386(4) Uani 1 1 d . . .

loop_
_atom_site_aniso_label
_atom_site_aniso_U_11
_atom_site_aniso_U_22
_atom_site_aniso_U_33
_atom_site_aniso_U_23
_atom_site_aniso_U_13
_atom_site_aniso_U_12
Mg1 0.0143(4) 0.0159(4) 0.0126(4) -0.0003(3) 0.0004(3) -0.0014(3)
Mg2 0.0144(4) 0.0171(4) 0.0121(4) -0.0004(3) 0.0005(3) 0.0028(3)
O1 0.0217(7) 0.0266(7) 0.0227(7) 0.0098(5) -0.0028(5) 0.0033(6)
O2 0.0243(7) 0.0242(6) 0.0184(7) 0.0069(5) 0.0008(5) -0.0051(6)
O3 0.0203(7) 0.0339(7) 0.0185(7) 0.0092(5) 0.0023(5) -0.0034(6)
O4 0.0216(7) 0.0280(7) 0.0176(6) 0.0065(5) -0.0023(5) 0.0020(6)
O5 0.0193(7) 0.0176(6) 0.0228(7) -0.0029(5) 0.0012(5) 0.0012(5)
C1 0.0231(10) 0.0151(8) 0.0125(8) 0.0004(7) 0.0003(7) 0.0015(7)
C2 0.0217(10) 0.0174(8) 0.0154(9) 0.0015(7) 0.0023(7) 0.0018(7)
C3 0.0204(9) 0.0202(9) 0.0151(9) 0.0037(7) -0.0012(7) -0.0022(7)
C4 0.0191(10) 0.0325(10) 0.0220(10) 0.0114(8) 0.0010(8) 0.0060(8)
C5 0.0181(10) 0.0331(10) 0.0214(10) 0.0089(8) 0.0038(7) 0.0031(8)
C6 0.0206(9) 0.0218(9) 0.0147(9) 0.0053(7) 0.0015(7) -0.0013(8)
C7 0.0191(9) 0.0203(9) 0.0162(9) 0.0037(7) -0.0012(7) 0.0000(7)
C8 0.0186(9) 0.0191(8) 0.0175(9) 0.0037(7) 0.0027(7) -0.0016(7)
C9 0.0305(11) 0.0288(10) 0.0250(10) 0.0101(8) 0.0098(8) 0.0049(9)
C10 0.0324(12) 0.0399(11) 0.0367(12) 0.0089(10) 0.0184(9) 0.0126(10)
C11 0.0279(12) 0.0407(12) 0.0382(12) 0.0121(10) 0.0066(9) 0.0153(9)
C12 0.0279(11) 0.0298(10) 0.0228(10) 0.0085(8) 0.0020(8) 0.0077(9)
C13 0.0474(16) 0.0551(15) 0.0783(19) 0.0206(15) -0.0059(14) -0.0080(13)
C14 0.069(2) 0.074(2) 0.128(3) 0.061(2) -0.017(2) -0.0002(18)
C15 0.081(2) 0.0452(15) 0.113(3) 0.0436(17) 0.010(2) -0.0062(16)
C16 0.0600(18) 0.0382(13) 0.0768(19) 0.0071(13) 0.0068(15) -0.0127(13)
C17 0.0517(15) 0.0357(12) 0.0428(13) 0.0037(10) 0.0025(11) -0.0007(11)
N1 0.0494(12) 0.0273(9) 0.0395(11) 0.0055(8) 0.0083(9) -0.0016(9)

_geom_special_details            
; 
 All esds (except the esd in the dihedral angle between two l.s. planes) 
 are estimated using the full covariance matrix.  The cell esds are taken 
 into account individually in the estimation of esds in distances, angles 
 and torsion angles; correlations between esds in cell parameters are only 
 used when they are defined by crystal symmetry.  An approximate (isotropic) 
 treatment of cell esds is used for estimating esds involving l.s. planes. 
;

loop_
_geom_bond_atom_site_label_1
_geom_bond_atom_site_label_2
_geom_bond_distance
_geom_bond_site_symmetry_2
_geom_bond_publ_flag
Mg1 O2 2.0374(11) . ?
Mg1 O2 2.0374(11) 3_665 ?
Mg1 O4 2.0410(11) 4_565 ?
Mg1 O4 2.0410(11) 2_655 ?
Mg1 O5 2.1378(11) 3_665 ?
Mg1 O5 2.1378(11) . ?
Mg1 Mg2 3.58612(11) . ?
Mg1 Mg2 3.58613(11) 1_655 ?
Mg2 O1 2.0543(11) 3_565 ?
Mg2 O1 2.0543(11) . ?
Mg2 O3 2.0672(11) 2 ?
Mg2 O3 2.0672(11) 4_565 ?
Mg2 O5 2.1436(11) 1_455 ?
Mg2 O5 2.1436(11) 3_665 ?
Mg2 Mg1 3.58612(11) 1_455 ?
O1 C1 1.254(2) . ?
O2 C1 1.256(2) . ?
O3 C2 1.254(2) . ?
O3 Mg2 2.0672(11) 2_545 ?
O4 C2 1.261(2) . ?
O4 Mg1 2.0410(11) 2_645 ?
O5 Mg2 2.1436(11) 1_655 ?
O5 H1 0.8497 . ?
O5 H2 0.8301 . ?
C1 C3 1.514(2) . ?
C2 C6 1.514(2) . ?
C3 C4 1.371(2) . ?
C3 C8 1.432(2) . ?
C4 C5 1.407(2) . ?
C4 H3 0.9300 . ?
C5 C6 1.372(2) . ?
C5 H4 0.9300 . ?
C6 C7 1.433(2) . ?
C7 C12 1.421(2) . ?
C7 C8 1.431(2) . ?
C8 C9 1.418(2) . ?
C9 C10 1.362(3) . ?
C9 H5 0.9300 . ?
C10 C11 1.402(3) . ?
C10 H6 0.9300 . ?
C11 C12 1.358(3) . ?
C11 H7 0.9300 . ?
C12 H8 0.9300 . ?
C13 N1 1.321(3) . ?
C13 C14 1.378(4) . ?
C13 H9 0.9300 . ?
C14 C15 1.372(4) . ?
C14 H10 0.9300 . ?
C15 C16 1.353(3) . ?
C15 H11 0.9300 . ?
C16 C17 1.371(3) . ?
C16 H12 0.9300 . ?
C17 N1 1.327(3) . ?
C17 H13 0.9300 . ?

loop_
_geom_angle_atom_site_label_1
_geom_angle_atom_site_label_2
_geom_angle_atom_site_label_3
_geom_angle
_geom_angle_site_symmetry_1
_geom_angle_site_symmetry_3
_geom_angle_publ_flag
O2 Mg1 O2 180.00(6) . 3_665 ?
O2 Mg1 O4 91.94(5) . 4_565 ?
O2 Mg1 O4 88.06(5) 3_665 4_565 ?
O2 Mg1 O4 88.06(5) . 2_655 ?
O2 Mg1 O4 91.94(5) 3_665 2_655 ?
O4 Mg1 O4 180.00(5) 4_565 2_655 ?
O2 Mg1 O5 94.10(5) . 3_665 ?
O2 Mg1 O5 85.90(5) 3_665 3_665 ?
O4 Mg1 O5 88.89(4) 4_565 3_665 ?
O4 Mg1 O5 91.11(4) 2_655 3_665 ?
O2 Mg1 O5 85.90(5) . . ?
O2 Mg1 O5 94.10(5) 3_665 . ?
O4 Mg1 O5 91.11(4) 4_565 . ?
O4 Mg1 O5 88.89(4) 2_655 . ?
O5 Mg1 O5 180.0 3_665 . ?
O2 Mg1 Mg2 70.61(3) . . ?
O2 Mg1 Mg2 109.39(3) 3_665 . ?
O4 Mg1 Mg2 67.43(3) 4_565 . ?
O4 Mg1 Mg2 112.57(3) 2_655 . ?
O5 Mg1 Mg2 33.16(3) 3_665 . ?
O5 Mg1 Mg2 146.84(3) . . ?
O2 Mg1 Mg2 109.39(3) . 1_655 ?
O2 Mg1 Mg2 70.61(3) 3_665 1_655 ?
O4 Mg1 Mg2 112.57(3) 4_565 1_655 ?
O4 Mg1 Mg2 67.43(3) 2_655 1_655 ?
O5 Mg1 Mg2 146.84(3) 3_665 1_655 ?
O5 Mg1 Mg2 33.16(3) . 1_655 ?
Mg2 Mg1 Mg2 180.0 . 1_655 ?
O1 Mg2 O1 180.00(7) 3_565 . ?
O1 Mg2 O3 93.00(5) 3_565 2 ?
O1 Mg2 O3 87.00(5) . 2 ?
O1 Mg2 O3 87.00(5) 3_565 4_565 ?
O1 Mg2 O3 93.00(5) . 4_565 ?
O3 Mg2 O3 180.00(3) 2 4_565 ?
O1 Mg2 O5 97.39(4) 3_565 1_455 ?
O1 Mg2 O5 82.61(4) . 1_455 ?
O3 Mg2 O5 87.24(5) 2 1_455 ?
O3 Mg2 O5 92.76(5) 4_565 1_455 ?
O1 Mg2 O5 82.61(4) 3_565 3_665 ?
O1 Mg2 O5 97.39(4) . 3_665 ?
O3 Mg2 O5 92.76(5) 2 3_665 ?
O3 Mg2 O5 87.24(5) 4_565 3_665 ?
O5 Mg2 O5 180.0 1_455 3_665 ?
O1 Mg2 Mg1 110.80(3) 3_565 . ?
O1 Mg2 Mg1 69.20(3) . . ?
O3 Mg2 Mg1 107.46(3) 2 . ?
O3 Mg2 Mg1 72.54(3) 4_565 . ?
O5 Mg2 Mg1 146.94(3) 1_455 . ?
O5 Mg2 Mg1 33.06(3) 3_665 . ?
O1 Mg2 Mg1 69.20(3) 3_565 1_455 ?
O1 Mg2 Mg1 110.80(3) . 1_455 ?
O3 Mg2 Mg1 72.54(3) 2 1_455 ?
O3 Mg2 Mg1 107.46(3) 4_565 1_455 ?
O5 Mg2 Mg1 33.06(3) 1_455 1_455 ?
O5 Mg2 Mg1 146.94(3) 3_665 1_455 ?
Mg1 Mg2 Mg1 180.0 . 1_455 ?
C1 O1 Mg2 135.35(11) . . ?
C1 O2 Mg1 134.15(10) . . ?
C2 O3 Mg2 131.02(11) . 2_545 ?
C2 O4 Mg1 137.92(11) . 2_645 ?
Mg1 O5 Mg2 113.77(5) . 1_655 ?
Mg1 O5 H1 120.9 . . ?
Mg2 O5 H1 111.8 1_655 . ?
Mg1 O5 H2 100.1 . . ?
Mg2 O5 H2 102.3 1_655 . ?
H1 O5 H2 104.9 . . ?
O1 C1 O2 125.42(15) . . ?
O1 C1 C3 116.95(15) . . ?
O2 C1 C3 117.58(14) . . ?
O3 C2 O4 125.08(15) . . ?
O3 C2 C6 117.42(14) . . ?
O4 C2 C6 117.46(15) . . ?
C4 C3 C8 119.23(15) . . ?
C4 C3 C1 117.70(15) . . ?
C8 C3 C1 122.99(15) . . ?
C3 C4 C5 121.27(16) . . ?
C3 C4 H3 119.4 . . ?
C5 C4 H3 119.4 . . ?
C6 C5 C4 121.25(17) . . ?
C6 C5 H4 119.4 . . ?
C4 C5 H4 119.4 . . ?
C5 C6 C7 119.45(15) . . ?
C5 C6 C2 117.59(16) . . ?
C7 C6 C2 122.95(15) . . ?
C12 C7 C8 117.97(16) . . ?
C12 C7 C6 122.92(15) . . ?
C8 C7 C6 119.03(15) . . ?
C9 C8 C7 118.39(15) . . ?
C9 C8 C3 122.13(15) . . ?
C7 C8 C3 119.43(16) . . ?
C10 C9 C8 121.48(17) . . ?
C10 C9 H5 119.3 . . ?
C8 C9 H5 119.3 . . ?
C9 C10 C11 120.17(19) . . ?
C9 C10 H6 119.9 . . ?
C11 C10 H6 119.9 . . ?
C12 C11 C10 120.33(18) . . ?
C12 C11 H7 119.8 . . ?
C10 C11 H7 119.8 . . ?
C11 C12 C7 121.62(17) . . ?
C11 C12 H8 119.2 . . ?
C7 C12 H8 119.2 . . ?
N1 C13 C14 122.2(2) . . ?
N1 C13 H9 118.9 . . ?
C14 C13 H9 118.9 . . ?
C15 C14 C13 119.0(3) . . ?
C15 C14 H10 120.5 . . ?
C13 C14 H10 120.5 . . ?
C16 C15 C14 119.0(2) . . ?
C16 C15 H11 120.5 . . ?
C14 C15 H11 120.5 . . ?
C15 C16 C17 118.8(2) . . ?
C15 C16 H12 120.6 . . ?
C17 C16 H12 120.6 . . ?
N1 C17 C16 122.9(2) . . ?
N1 C17 H13 118.5 . . ?
C16 C17 H13 118.5 . . ?
C13 N1 C17 118.09(19) . . ?

_diffrn_measured_fraction_theta_max 0.999
_diffrn_reflns_theta_full        25.00
_diffrn_measured_fraction_theta_full 0.999
_refine_diff_density_max         0.217
_refine_diff_density_min         -0.243
_refine_diff_density_rms         0.045
