####################################################################### 
# 
# This file contains crystal structure data downloaded from the 
# Cambridge Structural Database (CSD) hosted by the Cambridge 
# Crystallographic Data Centre (CCDC).
# 
# Full information about CCDC data access policies and citation 
# guidelines are available at http://www.ccdc.cam.ac.uk/access/V1 
# 
# Audit and citation data items may have been added by the CCDC. 
# Please retain this information to preserve the provenance of 
# this file and to allow appropriate attribution of the data. 
# 
#######################################################################

data_1_shelxl
_audit_block_doi                 10.5517/cc11tqbx
_database_code_depnum_ccdc_archive 'CCDC 978029'
loop_
_citation_id
_citation_doi
_citation_year
1 10.1002/zaac.201300677 2014
_audit_update_record             
;
2013-12-23 deposited with the CCDC.	2024-07-10 downloaded from the CCDC.
;

_audit_creation_method           SHELXL-97
_chemical_name_systematic        
;
 ?
;
_chemical_name_common            ?
_chemical_melting_point          ?
_chemical_formula_moiety         'C33 H30 O10 Zn'
_chemical_formula_sum            'C33 H30 O10 Zn'
_chemical_formula_weight         651.94

loop_
_atom_type_symbol
_atom_type_description
_atom_type_scat_dispersion_real
_atom_type_scat_dispersion_imag
_atom_type_scat_source
C C 0.0033 0.0016 'International Tables Vol C Tables 4.2.6.8 and 6.1.1.4'
H H 0.0000 0.0000 'International Tables Vol C Tables 4.2.6.8 and 6.1.1.4'
O O 0.0106 0.0060 'International Tables Vol C Tables 4.2.6.8 and 6.1.1.4'
Zn Zn 0.2839 1.4301 'International Tables Vol C Tables 4.2.6.8 and 6.1.1.4'

_symmetry_cell_setting           monoclinic
_symmetry_space_group_name_H-M   'C 2/c'
_symmetry_space_group_name_Hall  '-C 2yc'

loop_
_symmetry_equiv_pos_as_xyz
'x, y, z'
'-x, y, -z+1/2'
'x+1/2, y+1/2, z'
'-x+1/2, y+1/2, -z+1/2'
'-x, -y, -z'
'x, -y, z-1/2'
'-x+1/2, -y+1/2, -z'
'x+1/2, -y+1/2, z-1/2'

_cell_length_a                   36.991(14)
_cell_length_b                   8.394(3)
_cell_length_c                   36.940(15)
_cell_angle_alpha                90.00
_cell_angle_beta                 116.750(5)
_cell_angle_gamma                90.00
_cell_volume                     10242(7)
_cell_formula_units_Z            8
_cell_measurement_temperature    150(2)
_cell_measurement_reflns_used    7110
_cell_measurement_theta_min      3.1
_cell_measurement_theta_max      25.3

_exptl_crystal_description       Block
_exptl_crystal_colour            Colorless
_exptl_crystal_size_max          0.28
_exptl_crystal_size_mid          0.23
_exptl_crystal_size_min          0.08
_exptl_crystal_density_meas      ?
_exptl_crystal_density_diffrn    0.846
_exptl_crystal_density_method    'not measured'
_exptl_crystal_F_000             2704
_exptl_absorpt_coefficient_mu    0.514
_exptl_absorpt_correction_type   Multi-scan
_exptl_absorpt_correction_T_max  1.000
_exptl_absorpt_correction_T_min  0.811
_exptl_absorpt_process_details   'NUMABS (Rigaku, 1999)'

_exptl_special_details           
;
 ?
;

_diffrn_ambient_temperature      150(2)
_diffrn_radiation_wavelength     0.71075
_diffrn_radiation_type           MoK\a
_diffrn_radiation_source         'fine-focus sealed tube'
_diffrn_radiation_monochromator  graphite
_diffrn_measurement_device_type  'Rigaku Saturn724+'
_diffrn_measurement_method       \w
_diffrn_detector_area_resol_mean ?
_diffrn_standards_number         ?
_diffrn_standards_interval_count ?
_diffrn_standards_interval_time  ?
_diffrn_standards_decay_%        ?
_diffrn_reflns_number            34298
_diffrn_reflns_av_R_equivalents  0.0601
_diffrn_reflns_av_sigmaI/netI    0.0775
_diffrn_reflns_limit_h_min       -42
_diffrn_reflns_limit_h_max       43
_diffrn_reflns_limit_k_min       -7
_diffrn_reflns_limit_k_max       9
_diffrn_reflns_limit_l_min       -43
_diffrn_reflns_limit_l_max       43
_diffrn_reflns_theta_min         3.05
_diffrn_reflns_theta_max         25.00
_reflns_number_total             8908
_reflns_number_gt                6803
_reflns_threshold_expression     >2sigma(I)

_computing_data_collection       'CrystalClear-SM Expert 2.0 r4 (Rigaku, 2009)'
_computing_cell_refinement       'CrystalClear-SM Expert 2.0 r4'
_computing_data_reduction        'CrystalClear-SM Expert 2.0 r4'
_computing_structure_solution    'SHELXS86 (Sheldrick, 1985)'
_computing_structure_refinement  'SHELXL97 (Sheldrick, 2008)'
_computing_molecular_graphics    'CrystalStructure 4.0 (Rigaku, 2010)'
_computing_publication_material  'CrystalStructure 4.0'

_refine_special_details          
;
 Refinement of F^2^ against ALL reflections.  The weighted R-factor wR and
 goodness of fit S are based on F^2^, conventional R-factors R are based
 on F, with F set to zero for negative F^2^. The threshold expression of
 F^2^ > 2sigma(F^2^) is used only for calculating R-factors(gt) etc. and is
 not relevant to the choice of reflections for refinement.  R-factors based
 on F^2^ are statistically about twice as large as those based on F, and R-
 factors based on ALL data will be even larger.
;

_refine_ls_structure_factor_coef Fsqd
_refine_ls_matrix_type           full
_refine_ls_weighting_scheme      calc
_refine_ls_weighting_details     
'calc w=1/[\s^2^(Fo^2^)+(0.1633P)^2^+17.4508P] where P=(Fo^2^+2Fc^2^)/3'
_atom_sites_solution_primary     direct
_atom_sites_solution_secondary   difmap
_atom_sites_solution_hydrogens   geom
_refine_ls_hydrogen_treatment    mixed
_refine_ls_extinction_method     none
_refine_ls_extinction_coef       ?
_refine_ls_number_reflns         8908
_refine_ls_number_parameters     397
_refine_ls_number_restraints     7
_refine_ls_R_factor_all          0.1072
_refine_ls_R_factor_gt           0.0920
_refine_ls_wR_factor_ref         0.2725
_refine_ls_wR_factor_gt          0.2587
_refine_ls_goodness_of_fit_ref   1.025
_refine_ls_restrained_S_all      1.051
_refine_ls_shift/su_max          0.004
_refine_ls_shift/su_mean         0.000

loop_
_atom_site_label
_atom_site_type_symbol
_atom_site_fract_x
_atom_site_fract_y
_atom_site_fract_z
_atom_site_U_iso_or_equiv
_atom_site_adp_type
_atom_site_occupancy
_atom_site_symmetry_multiplicity
_atom_site_calc_flag
_atom_site_refinement_flags
_atom_site_disorder_assembly
_atom_site_disorder_group
Zn1 Zn 0.830746(17) 0.03267(7) 0.177017(16) 0.0437(2) Uani 1 1 d . . .
O1 O 0.59234(9) 0.1970(4) 0.02214(11) 0.0437(8) Uani 1 1 d . . .
O2 O 0.91362(13) -0.5465(4) 0.37831(10) 0.0576(11) Uani 1 1 d . . .
O3 O 0.92730(11) -0.1791(4) 0.02048(11) 0.0480(9) Uani 1 1 d . . .
O4 O 0.76270(12) -0.1237(5) 0.13257(14) 0.0698(12) Uani 1 1 d . . .
O5 O 0.77862(10) 0.1320(5) 0.14470(11) 0.0506(9) Uani 1 1 d . . .
O6 O 0.84648(13) -0.1375(5) 0.21711(12) 0.0651(11) Uani 1 1 d . . .
O7 O 0.8221(4) -0.0119(12) 0.2503(3) 0.186(4) Uani 1 1 d U . .
O8 O 0.85552(13) -0.0403(5) 0.14270(13) 0.0585(10) Uani 1 1 d . . .
O9 O 0.8636(2) 0.2183(4) 0.1277(2) 0.114(2) Uani 1 1 d D . .
O10 O 0.86066(13) 0.2210(5) 0.21049(13) 0.0712(12) Uani 1 1 d . . .
C1 C 0.50161(15) 0.1537(5) -0.05664(15) 0.0398(10) Uani 1 1 d . . .
C2 C 0.46296(14) 0.2197(5) -0.07809(13) 0.0365(10) Uani 1 1 d . . .
C3 C 0.44450(13) 0.3055(5) -0.05836(13) 0.0349(9) Uani 1 1 d . . .
C4 C 0.46558(12) 0.3270(5) -0.01622(12) 0.0304(9) Uani 1 1 d . . .
C5 C 0.50302(13) 0.2538(5) 0.00574(13) 0.0310(9) Uani 1 1 d . . .
C6 C 0.52061(13) 0.1622(5) -0.01515(14) 0.0349(9) Uani 1 1 d . . .
C7 C 0.5226(2) 0.0768(7) -0.0795(2) 0.0602(16) Uani 1 1 d . . .
H7A H 0.5050 0.0805 -0.1081 0.090 Uiso 1 1 calc R . .
H7B H 0.5290 -0.0321 -0.0710 0.090 Uiso 1 1 calc R . .
H7C H 0.5472 0.1336 -0.0737 0.090 Uiso 1 1 calc R . .
C8 C 0.40203(16) 0.3698(6) -0.08151(17) 0.0531(13) Uani 1 1 d . . .
H8A H 0.3920 0.3453 -0.1098 0.080 Uiso 1 1 calc R . .
H8B H 0.4023 0.4832 -0.0780 0.080 Uiso 1 1 calc R . .
H8C H 0.3848 0.3217 -0.0714 0.080 Uiso 1 1 calc R . .
C9 C 0.52452(16) 0.2696(6) 0.05139(14) 0.0438(11) Uani 1 1 d . . .
H9A H 0.5497 0.2130 0.0618 0.066 Uiso 1 1 calc R . .
H9B H 0.5079 0.2257 0.0627 0.066 Uiso 1 1 calc R . .
H9C H 0.5296 0.3801 0.0586 0.066 Uiso 1 1 calc R . .
C10 C 0.56014(13) 0.0769(6) 0.00913(17) 0.0434(11) Uani 1 1 d . . .
H10A H 0.5599 0.0253 0.0325 0.052 Uiso 1 1 calc R . .
H10B H 0.5644 -0.0037 -0.0074 0.052 Uiso 1 1 calc R . .
C11 C 0.63061(14) 0.1438(6) 0.04721(14) 0.0393(10) Uani 1 1 d . . .
C12 C 0.65991(16) 0.2629(6) 0.06288(17) 0.0508(13) Uani 1 1 d . . .
H12 H 0.6529 0.3691 0.0563 0.061 Uiso 1 1 calc R . .
C13 C 0.69953(17) 0.2209(6) 0.08839(17) 0.0530(13) Uani 1 1 d . . .
H13 H 0.7193 0.2996 0.0985 0.064 Uiso 1 1 calc R . .
C14 C 0.71007(15) 0.0640(6) 0.09905(16) 0.0462(12) Uani 1 1 d . . .
C15 C 0.68069(17) -0.0530(6) 0.08166(17) 0.0504(13) Uani 1 1 d . . .
H15 H 0.6879 -0.1594 0.0878 0.060 Uiso 1 1 calc R . .
C16 C 0.64167(17) -0.0154(6) 0.05589(18) 0.0496(13) Uani 1 1 d . . .
H16 H 0.6225 -0.0955 0.0442 0.060 Uiso 1 1 calc R . .
C17 C 0.75348(17) 0.0149(6) 0.12749(17) 0.0497(12) Uani 1 1 d . . .
C18 C 0.93883(19) -0.6768(7) 0.37780(14) 0.0553(14) Uani 1 1 d . . .
H18A H 0.9565 -0.6439 0.3661 0.066 Uiso 1 1 calc R . .
H18B H 0.9225 -0.7661 0.3624 0.066 Uiso 1 1 calc R . .
C19 C 0.89647(19) -0.4490(6) 0.34462(15) 0.0518(13) Uani 1 1 d . . .
C20 C 0.8759(2) -0.3174(8) 0.3493(2) 0.0715(19) Uani 1 1 d . . .
H20 H 0.8732 -0.3030 0.3729 0.086 Uiso 1 1 calc R . .
C21 C 0.8598(3) -0.2106(9) 0.3182(2) 0.089(3) Uani 1 1 d . . .
H21 H 0.8476 -0.1190 0.3216 0.106 Uiso 1 1 calc R . .
C22 C 0.86119(19) -0.2336(9) 0.28223(19) 0.073(2) Uani 1 1 d . . .
C23 C 0.8801(2) -0.3646(9) 0.27765(17) 0.0691(18) Uani 1 1 d . . .
H23 H 0.8813 -0.3809 0.2533 0.083 Uiso 1 1 calc R . .
C24 C 0.8976(2) -0.4741(8) 0.30850(18) 0.0657(17) Uani 1 1 d . . .
H24 H 0.9102 -0.5644 0.3048 0.079 Uiso 1 1 calc R . .
C25 C 0.8437(3) -0.1143(14) 0.2478(3) 0.134(5) Uani 1 1 d . . .
C26 C 0.94799(15) -0.0749(5) 0.00534(15) 0.0375(10) Uani 1 1 d . . .
H26A H 0.9693 -0.0180 0.0276 0.045 Uiso 1 1 calc R . .
H26B H 0.9292 0.0024 -0.0131 0.045 Uiso 1 1 calc R . .
C27 C 0.91323(17) -0.1095(6) 0.04511(18) 0.0493(12) Uani 1 1 d . . .
C28 C 0.91233(19) 0.0524(6) 0.05169(18) 0.0509(13) Uani 1 1 d . . .
H28 H 0.9225 0.1241 0.0393 0.061 Uiso 1 1 calc R . .
C29 C 0.8962(2) 0.1073(7) 0.0769(2) 0.0629(16) Uani 1 1 d . . .
H29 H 0.8945 0.2163 0.0804 0.075 Uiso 1 1 calc R . .
C30 C 0.8824(2) -0.0004(6) 0.0971(2) 0.0602(16) Uani 1 1 d . . .
C31 C 0.8828(3) -0.1579(8) 0.0902(3) 0.085(2) Uani 1 1 d . . .
H31 H 0.8723 -0.2290 0.1024 0.103 Uiso 1 1 calc R . .
C32 C 0.8989(2) -0.2156(6) 0.0646(2) 0.073(2) Uani 1 1 d . . .
H32 H 0.8999 -0.3247 0.0607 0.088 Uiso 1 1 calc R . .
C33 C 0.8662(2) 0.0633(7) 0.1254(2) 0.0680(19) Uani 1 1 d . . .
H10C H 0.8763 0.2901 0.2277 0.080 Uiso 1 1 d . . .
H10D H 0.8393 0.2717 0.1947 0.080 Uiso 1 1 d . . .
H9W H 0.8790 0.3033 0.1214 0.200 Uiso 1 1 d D . .

loop_
_atom_site_aniso_label
_atom_site_aniso_U_11
_atom_site_aniso_U_22
_atom_site_aniso_U_33
_atom_site_aniso_U_23
_atom_site_aniso_U_13
_atom_site_aniso_U_12
Zn1 0.0474(4) 0.0459(4) 0.0380(3) 0.0093(2) 0.0194(3) 0.0162(3)
O1 0.0349(16) 0.0299(16) 0.067(2) 0.0041(15) 0.0233(16) -0.0041(13)
O2 0.085(3) 0.053(2) 0.0360(18) 0.0129(15) 0.0277(19) 0.027(2)
O3 0.068(2) 0.0246(16) 0.075(2) -0.0015(15) 0.054(2) -0.0030(15)
O4 0.056(2) 0.047(2) 0.083(3) 0.019(2) 0.012(2) 0.0202(19)
O5 0.0377(18) 0.055(2) 0.0514(19) 0.0038(16) 0.0134(15) 0.0100(16)
O6 0.067(3) 0.078(3) 0.050(2) 0.025(2) 0.026(2) 0.011(2)
O7 0.265(8) 0.199(7) 0.144(5) 0.096(5) 0.135(6) 0.161(6)
O8 0.079(3) 0.053(2) 0.067(2) 0.0096(18) 0.053(2) 0.0107(19)
O9 0.212(7) 0.055(3) 0.164(6) -0.001(3) 0.164(6) 0.001(4)
O10 0.068(3) 0.062(3) 0.065(2) 0.004(2) 0.014(2) 0.001(2)
C1 0.052(3) 0.025(2) 0.052(3) -0.0081(18) 0.032(2) -0.008(2)
C2 0.045(2) 0.028(2) 0.035(2) -0.0090(17) 0.0166(19) -0.0096(19)
C3 0.036(2) 0.026(2) 0.038(2) -0.0001(16) 0.0120(18) -0.0051(18)
C4 0.033(2) 0.0195(19) 0.038(2) -0.0032(16) 0.0155(18) -0.0074(16)
C5 0.038(2) 0.0193(19) 0.040(2) -0.0009(16) 0.0217(19) -0.0028(17)
C6 0.034(2) 0.025(2) 0.050(2) 0.0068(17) 0.022(2) 0.0019(17)
C7 0.091(4) 0.039(3) 0.079(4) -0.011(3) 0.065(4) 0.000(3)
C8 0.047(3) 0.037(3) 0.061(3) 0.005(2) 0.011(2) 0.000(2)
C9 0.053(3) 0.036(2) 0.040(2) 0.0041(19) 0.019(2) -0.007(2)
C10 0.031(2) 0.032(2) 0.068(3) -0.001(2) 0.024(2) -0.0087(19)
C11 0.041(2) 0.036(2) 0.045(2) 0.0075(19) 0.023(2) 0.002(2)
C12 0.045(3) 0.031(2) 0.070(3) 0.009(2) 0.021(3) 0.006(2)
C13 0.055(3) 0.031(3) 0.063(3) 0.000(2) 0.018(3) -0.002(2)
C14 0.039(3) 0.043(3) 0.053(3) 0.002(2) 0.018(2) 0.007(2)
C15 0.058(3) 0.033(3) 0.063(3) 0.013(2) 0.030(3) 0.012(2)
C16 0.052(3) 0.030(2) 0.067(3) -0.003(2) 0.026(3) -0.006(2)
C17 0.051(3) 0.041(3) 0.059(3) 0.006(2) 0.026(3) 0.011(2)
C18 0.074(4) 0.054(3) 0.034(2) 0.002(2) 0.021(2) 0.016(3)
C19 0.073(4) 0.042(3) 0.039(3) 0.012(2) 0.024(3) 0.010(3)
C20 0.099(5) 0.068(4) 0.065(4) 0.021(3) 0.053(4) 0.043(4)
C21 0.126(6) 0.079(5) 0.086(5) 0.038(4) 0.070(5) 0.065(5)
C22 0.063(4) 0.097(5) 0.068(4) 0.050(4) 0.037(3) 0.039(4)
C23 0.074(4) 0.093(5) 0.037(3) 0.011(3) 0.022(3) 0.022(4)
C24 0.095(5) 0.060(4) 0.048(3) 0.007(3) 0.037(3) 0.021(3)
C25 0.155(9) 0.168(10) 0.122(7) 0.107(7) 0.102(7) 0.134(8)
C26 0.047(3) 0.0191(19) 0.056(3) -0.0002(18) 0.032(2) -0.0020(18)
C27 0.062(3) 0.033(3) 0.076(3) 0.001(2) 0.052(3) 0.003(2)
C28 0.078(4) 0.029(2) 0.070(3) -0.001(2) 0.056(3) -0.001(2)
C29 0.086(4) 0.039(3) 0.094(4) 0.007(3) 0.068(4) 0.008(3)
C30 0.087(4) 0.036(3) 0.095(4) 0.019(3) 0.075(4) 0.016(3)
C31 0.131(6) 0.055(4) 0.137(7) 0.021(4) 0.119(6) 0.018(4)
C32 0.113(5) 0.026(3) 0.130(6) 0.006(3) 0.099(5) 0.006(3)
C33 0.103(5) 0.041(3) 0.106(5) 0.012(3) 0.087(5) 0.018(3)

_geom_special_details            
;
 All esds (except the esd in the dihedral angle between two l.s. planes)
 are estimated using the full covariance matrix.  The cell esds are taken
 into account individually in the estimation of esds in distances, angles
 and torsion angles; correlations between esds in cell parameters are only
 used when they are defined by crystal symmetry.  An approximate (isotropic)
 treatment of cell esds is used for estimating esds involving l.s. planes.
;

loop_
_geom_bond_atom_site_label_1
_geom_bond_atom_site_label_2
_geom_bond_distance
_geom_bond_site_symmetry_2
_geom_bond_publ_flag
Zn1 O5 1.941(3) . ?
Zn1 O6 1.948(4) . ?
Zn1 O8 1.967(4) . ?
Zn1 O10 2.005(4) . ?
O1 C11 1.371(6) . ?
O1 C10 1.466(5) . ?
O2 C19 1.382(6) . ?
O2 C18 1.443(6) . ?
O3 C27 1.366(6) . ?
O3 C26 1.431(5) . ?
O4 C17 1.203(7) . ?
O5 C17 1.305(7) . ?
O6 C25 1.199(9) . ?
O7 C25 1.205(10) . ?
O8 C33 1.244(7) . ?
O9 C33 1.310(7) . ?
C1 C6 1.371(7) . ?
C1 C2 1.400(7) . ?
C1 C7 1.524(7) . ?
C2 C3 1.401(6) . ?
C2 C18 1.507(6) 8_445 ?
C3 C4 1.404(6) . ?
C3 C8 1.510(7) . ?
C4 C5 1.394(6) . ?
C4 C26 1.484(6) 3_455 ?
C5 C6 1.436(6) . ?
C5 C9 1.512(6) . ?
C6 C10 1.508(6) . ?
C7 H7A 0.9600 . ?
C7 H7B 0.9600 . ?
C7 H7C 0.9600 . ?
C8 H8A 0.9600 . ?
C8 H8B 0.9600 . ?
C8 H8C 0.9600 . ?
C9 H9A 0.9600 . ?
C9 H9B 0.9600 . ?
C9 H9C 0.9600 . ?
C10 H10A 0.9700 . ?
C10 H10B 0.9700 . ?
C11 C16 1.393(7) . ?
C11 C12 1.394(7) . ?
C12 C13 1.385(7) . ?
C12 H12 0.9300 . ?
C13 C14 1.380(7) . ?
C13 H13 0.9300 . ?
C14 C15 1.389(8) . ?
C14 C17 1.528(7) . ?
C15 C16 1.361(8) . ?
C15 H15 0.9300 . ?
C16 H16 0.9300 . ?
C18 C2 1.507(6) 8_546 ?
C18 H18A 0.9700 . ?
C18 H18B 0.9700 . ?
C19 C24 1.370(8) . ?
C19 C20 1.396(8) . ?
C20 C21 1.364(8) . ?
C20 H20 0.9300 . ?
C21 C22 1.366(9) . ?
C21 H21 0.9300 . ?
C22 C23 1.355(9) . ?
C22 C25 1.516(8) . ?
C23 C24 1.378(8) . ?
C23 H23 0.9300 . ?
C24 H24 0.9300 . ?
C26 C4 1.484(6) 3_545 ?
C26 H26A 0.9700 . ?
C26 H26B 0.9700 . ?
C27 C28 1.383(7) . ?
C27 C32 1.392(7) . ?
C28 C29 1.392(8) . ?
C28 H28 0.9300 . ?
C29 C30 1.406(7) . ?
C29 H29 0.9300 . ?
C30 C31 1.348(9) . ?
C30 C33 1.518(8) . ?
C31 C32 1.412(8) . ?
C31 H31 0.9300 . ?
C32 H32 0.9300 . ?

loop_
_geom_angle_atom_site_label_1
_geom_angle_atom_site_label_2
_geom_angle_atom_site_label_3
_geom_angle
_geom_angle_site_symmetry_1
_geom_angle_site_symmetry_3
_geom_angle_publ_flag
O5 Zn1 O6 131.04(17) . . ?
O5 Zn1 O8 111.08(17) . . ?
O6 Zn1 O8 101.25(18) . . ?
O5 Zn1 O10 99.23(17) . . ?
O6 Zn1 O10 102.47(19) . . ?
O8 Zn1 O10 110.8(2) . . ?
C11 O1 C10 115.9(3) . . ?
C19 O2 C18 118.3(4) . . ?
C27 O3 C26 115.4(3) . . ?
C17 O5 Zn1 105.6(3) . . ?
C25 O6 Zn1 118.4(5) . . ?
C33 O8 Zn1 117.4(4) . . ?
C6 C1 C2 119.4(4) . . ?
C6 C1 C7 120.5(5) . . ?
C2 C1 C7 120.0(5) . . ?
C3 C2 C1 121.4(4) . . ?
C3 C2 C18 119.7(4) . 8_445 ?
C1 C2 C18 118.3(4) . 8_445 ?
C2 C3 C4 119.0(4) . . ?
C2 C3 C8 121.0(4) . . ?
C4 C3 C8 119.9(4) . . ?
C5 C4 C3 120.0(4) . . ?
C5 C4 C26 119.5(4) . 3_455 ?
C3 C4 C26 120.5(4) . 3_455 ?
C4 C5 C6 119.7(4) . . ?
C4 C5 C9 119.8(4) . . ?
C6 C5 C9 120.5(4) . . ?
C1 C6 C5 120.0(4) . . ?
C1 C6 C10 120.8(4) . . ?
C5 C6 C10 119.2(4) . . ?
C1 C7 H7A 109.5 . . ?
C1 C7 H7B 109.5 . . ?
H7A C7 H7B 109.5 . . ?
C1 C7 H7C 109.5 . . ?
H7A C7 H7C 109.5 . . ?
H7B C7 H7C 109.5 . . ?
C3 C8 H8A 109.5 . . ?
C3 C8 H8B 109.5 . . ?
H8A C8 H8B 109.5 . . ?
C3 C8 H8C 109.5 . . ?
H8A C8 H8C 109.5 . . ?
H8B C8 H8C 109.5 . . ?
C5 C9 H9A 109.5 . . ?
C5 C9 H9B 109.5 . . ?
H9A C9 H9B 109.5 . . ?
C5 C9 H9C 109.5 . . ?
H9A C9 H9C 109.5 . . ?
H9B C9 H9C 109.5 . . ?
O1 C10 C6 107.2(4) . . ?
O1 C10 H10A 110.3 . . ?
C6 C10 H10A 110.3 . . ?
O1 C10 H10B 110.3 . . ?
C6 C10 H10B 110.3 . . ?
H10A C10 H10B 108.5 . . ?
O1 C11 C16 125.1(4) . . ?
O1 C11 C12 114.9(4) . . ?
C16 C11 C12 120.0(5) . 