####################################################################### 
# 
# This file contains crystal structure data downloaded from the 
# Cambridge Structural Database (CSD) hosted by the Cambridge 
# Crystallographic Data Centre (CCDC).
# 
# Full information about CCDC data access policies and citation 
# guidelines are available at http://www.ccdc.cam.ac.uk/access/V1 
# 
# Audit and citation data items may have been added by the CCDC. 
# Please retain this information to preserve the provenance of 
# this file and to allow appropriate attribution of the data. 
# 
#######################################################################

data_2_shelxl
_audit_block_doi                 10.5517/cc11tqcy
_database_code_depnum_ccdc_archive 'CCDC 978030'
loop_
_citation_id
_citation_doi
_citation_year
1 10.1002/zaac.201300677 2014
_audit_update_record             
;
2013-12-23 deposited with the CCDC.	2024-07-10 downloaded from the CCDC.
;

_audit_creation_method           SHELXL-97
_chemical_name_systematic        
;
 ?
;
_chemical_name_common            ?
_chemical_melting_point          ?
_chemical_formula_moiety         'C39 H44 Cd N2 O10'
_chemical_formula_sum            'C39 H44 Cd N2 O10'
_chemical_formula_weight         813.16

loop_
_atom_type_symbol
_atom_type_description
_atom_type_scat_dispersion_real
_atom_type_scat_dispersion_imag
_atom_type_scat_source
C C 0.0033 0.0016 'International Tables Vol C Tables 4.2.6.8 and 6.1.1.4'
H H 0.0000 0.0000 'International Tables Vol C Tables 4.2.6.8 and 6.1.1.4'
N N 0.0061 0.0033 'International Tables Vol C Tables 4.2.6.8 and 6.1.1.4'
O O 0.0106 0.0060 'International Tables Vol C Tables 4.2.6.8 and 6.1.1.4'
Cd Cd -0.8075 1.2024 'International Tables Vol C Tables 4.2.6.8 and 6.1.1.4'

_symmetry_cell_setting           triclinic
_symmetry_space_group_name_H-M   'P -1'
_symmetry_space_group_name_Hall  '-P 1'

loop_
_symmetry_equiv_pos_as_xyz
'x, y, z'
'-x, -y, -z'

_cell_length_a                   14.275(5)
_cell_length_b                   18.902(5)
_cell_length_c                   19.667(7)
_cell_angle_alpha                67.586(16)
_cell_angle_beta                 85.46(2)
_cell_angle_gamma                68.972(16)
_cell_volume                     4569(3)
_cell_formula_units_Z            4
_cell_measurement_temperature    150(2)
_cell_measurement_reflns_used    8734
_cell_measurement_theta_min      1.1
_cell_measurement_theta_max      31.4

_exptl_crystal_description       block
_exptl_crystal_colour            Colorless
_exptl_crystal_size_max          0.20
_exptl_crystal_size_mid          0.11
_exptl_crystal_size_min          0.02
_exptl_crystal_density_meas      ?
_exptl_crystal_density_diffrn    1.182
_exptl_crystal_density_method    'not measured'
_exptl_crystal_F_000             1680
_exptl_absorpt_coefficient_mu    0.527
_exptl_absorpt_correction_type   Multi-scan
_exptl_absorpt_correction_T_max  1.000
_exptl_absorpt_correction_T_min  0.661
_exptl_absorpt_process_details   'NUMABS (Rigaku, 1999)'

_exptl_special_details           
;
 ?
;

_diffrn_ambient_temperature      150(2)
_diffrn_radiation_wavelength     0.71075
_diffrn_radiation_type           MoK\a
_diffrn_radiation_source         'fine-focus sealed tube'
_diffrn_radiation_monochromator  graphite
_diffrn_measurement_device_type  'Rigaku Saturn724'
_diffrn_measurement_method       \w
_diffrn_detector_area_resol_mean 28.5714
_diffrn_standards_number         ?
_diffrn_standards_interval_count ?
_diffrn_standards_interval_time  ?
_diffrn_standards_decay_%        ?
_diffrn_reflns_number            34619
_diffrn_reflns_av_R_equivalents  0.0500
_diffrn_reflns_av_sigmaI/netI    0.0902
_diffrn_reflns_limit_h_min       -16
_diffrn_reflns_limit_h_max       16
_diffrn_reflns_limit_k_min       -22
_diffrn_reflns_limit_k_max       22
_diffrn_reflns_limit_l_min       -23
_diffrn_reflns_limit_l_max       16
_diffrn_reflns_theta_min         2.12
_diffrn_reflns_theta_max         25.00
_reflns_number_total             15926
_reflns_number_gt                11368
_reflns_threshold_expression     >2sigma(I)

_computing_data_collection       'CrystalClear-SM Expert 2.0 r4 (Rigaku, 2009)'
_computing_cell_refinement       'CrystalClear-SM Expert 2.0 r4'
_computing_data_reduction        'CrystalClear-SM Expert 2.0 r4'
_computing_structure_solution    'SHELXS86 (Sheldrick, 1985)'
_computing_structure_refinement  'SHELXL97 (Sheldrick, 2008)'
_computing_molecular_graphics    'CrystalStructure 4.0 (Rigaku, 2010)'
_computing_publication_material  'CrystalStructure 4.0'

_refine_special_details          
;
 Refinement of F^2^ against ALL reflections.  The weighted R-factor wR and
 goodness of fit S are based on F^2^, conventional R-factors R are based
 on F, with F set to zero for negative F^2^. The threshold expression of
 F^2^ > 2sigma(F^2^) is used only for calculating R-factors(gt) etc. and is
 not relevant to the choice of reflections for refinement.  R-factors based
 on F^2^ are statistically about twice as large as those based on F, and R-
 factors based on ALL data will be even larger.
;

_refine_ls_structure_factor_coef Fsqd
_refine_ls_matrix_type           full
_refine_ls_weighting_scheme      calc
_refine_ls_weighting_details     
'calc w=1/[\s^2^(Fo^2^)+(0.0868P)^2^+0.0000P] where P=(Fo^2^+2Fc^2^)/3'
_atom_sites_solution_primary     direct
_atom_sites_solution_secondary   difmap
_atom_sites_solution_hydrogens   geom
_refine_ls_hydrogen_treatment    mixed
_refine_ls_extinction_method     none
_refine_ls_extinction_coef       ?
_refine_ls_number_reflns         15926
_refine_ls_number_parameters     938
_refine_ls_number_restraints     8
_refine_ls_R_factor_all          0.0879
_refine_ls_R_factor_gt           0.0656
_refine_ls_wR_factor_ref         0.1838
_refine_ls_wR_factor_gt          0.1691
_refine_ls_goodness_of_fit_ref   1.010
_refine_ls_restrained_S_all      1.012
_refine_ls_shift/su_max          0.001
_refine_ls_shift/su_mean         0.000

loop_
_atom_site_label
_atom_site_type_symbol
_atom_site_fract_x
_atom_site_fract_y
_atom_site_fract_z
_atom_site_U_iso_or_equiv
_atom_site_adp_type
_atom_site_occupancy
_atom_site_symmetry_multiplicity
_atom_site_calc_flag
_atom_site_refinement_flags
_atom_site_disorder_assembly
_atom_site_disorder_group
Cd1 Cd 0.77002(3) 0.49001(2) 0.099696(19) 0.04014(13) Uani 1 1 d . . .
Cd2 Cd 0.81083(3) 0.27206(2) 0.793404(19) 0.03943(13) Uani 1 1 d . . .
O1 O 0.8907(2) 0.6749(2) 0.3932(2) 0.0475(9) Uani 1 1 d . . .
O2 O 0.8874(2) 0.7129(3) -0.33885(19) 0.0587(12) Uani 1 1 d . . .
O3 O 0.9499(2) -0.0093(2) 0.36687(18) 0.0411(9) Uani 1 1 d . . .
O4 O 0.7157(3) 0.5598(2) 0.1837(2) 0.0540(10) Uani 1 1 d . . .
O5 O 0.8702(3) 0.5381(2) 0.1481(2) 0.0564(10) Uani 1 1 d . . .
O6 O 0.8744(3) 0.5100(2) 0.00063(19) 0.0558(11) Uani 1 1 d . . .
O7 O 0.7200(3) 0.5987(3) -0.0204(2) 0.0711(14) Uani 1 1 d . . .
O8 O 0.7900(3) 0.3783(2) 0.2080(2) 0.0662(12) Uani 1 1 d . . .
O9 O 0.8624(3) 0.3444(2) 0.1162(2) 0.0581(11) Uani 1 1 d . . .
O10 O 0.6197(3) 0.4776(3) 0.0874(2) 0.0635(11) Uani 1 1 d D . .
O11 O 0.6917(2) 0.0823(2) 0.5008(2) 0.0451(9) Uani 1 1 d . . .
O12 O 0.6749(3) 0.0703(3) 1.23006(19) 0.0594(11) Uani 1 1 d . . .
O13 O 0.6257(2) 0.7677(2) 0.5208(2) 0.0461(9) Uani 1 1 d . . .
O14 O 0.8402(3) 0.1999(2) 0.7197(2) 0.0529(10) Uani 1 1 d . . .
O15 O 0.6794(3) 0.2737(3) 0.7095(2) 0.0631(12) Uani 1 1 d . . .
O16 O 0.8248(2) 0.3888(2) 0.7169(2) 0.0595(12) Uani 1 1 d . . .
O17 O 0.6770(3) 0.4147(2) 0.7624(2) 0.0590(11) Uani 1 1 d . . .
O18 O 0.8213(4) 0.2527(3) 0.9228(2) 0.0764(14) Uani 1 1 d . . .
O19 O 0.7246(3) 0.2066(3) 0.8853(2) 0.0597(11) Uani 1 1 d . . .
O20 O 0.9859(3) 0.2198(3) 0.8170(2) 0.0663(12) Uani 1 1 d D . .
N1 N 0.5528(4) 0.3812(3) 0.1030(4) 0.0737(17) Uani 1 1 d D . .
N2 N 1.1387(6) 0.1372(5) 0.8690(5) 0.140(3) Uani 1 1 d D . .
N3 N 0.4911(5) 0.6358(6) 0.2113(4) 0.129(4) Uani 1 1 d . . .
H3D H 0.4323 0.6368 0.2319 0.154 Uiso 1 1 calc R . .
H3C H 0.5405 0.5916 0.2413 0.154 Uiso 1 1 calc R . .
N4 N 0.9914(4) 0.3980(3) 0.9412(3) 0.0682(15) Uani 1 1 d . . .
H4D H 0.9627 0.4357 0.9613 0.082 Uiso 1 1 calc R . .
H4C H 1.0323 0.4161 0.9073 0.082 Uiso 1 1 calc R . .
C1 C 0.9723(3) 0.7389(3) 0.4381(3) 0.0366(12) Uani 1 1 d . . .
C2 C 0.9914(3) 0.6992(3) 0.5149(3) 0.0387(12) Uani 1 1 d . . .
C3 C 0.9783(3) 0.7459(3) -0.4423(3) 0.0353(11) Uani 1 1 d . . .
C4 C 0.9485(3) 0.8304(3) -0.4745(3) 0.0365(11) Uani 1 1 d . . .
C5 C 0.9217(3) -0.1299(3) 0.4498(2) 0.0334(11) Uani 1 1 d . . .
C6 C 0.9343(3) 0.8233(3) 0.4063(3) 0.0332(11) Uani 1 1 d . . .
C7 C 1.0223(4) 0.6060(3) 0.5507(3) 0.0502(14) Uani 1 1 d . . .
H7A H 1.0274 0.5842 0.5131 0.075 Uiso 1 1 calc R . .
H7B H 0.9726 0.5921 0.5836 0.075 Uiso 1 1 calc R . .
H7C H 1.0862 0.5831 0.5778 0.075 Uiso 1 1 calc R . .
C8 C 0.9409(4) 0.8816(4) -0.4288(3) 0.0526(15) Uani 1 1 d . . .
H8A H 0.9186 0.9385 -0.4604 0.079 Uiso 1 1 calc R . .
H8B H 1.0057 0.8659 -0.4055 0.079 Uiso 1 1 calc R . .
H8C H 0.8937 0.8726 -0.3919 0.079 Uiso 1 1 calc R . .
C9 C 0.9064(4) 0.8664(3) 0.3225(3) 0.0435(13) Uani 1 1 d . . .
H9A H 0.8816 0.9247 0.3090 0.065 Uiso 1 1 calc R . .
H9B H 0.8554 0.8505 0.3100 0.065 Uiso 1 1 calc R . .
H9C H 0.9650 0.8507 0.2964 0.065 Uiso 1 1 calc R . .
C10 C 0.9842(4) 0.6896(3) 0.3915(3) 0.0412(12) Uani 1 1 d . . .
H10A H 0.9962 0.7197 0.3413 0.049 Uiso 1 1 calc R . .
H10B H 1.0403 0.6382 0.4112 0.049 Uiso 1 1 calc R . .
C11 C 0.8790(4) 0.6397(3) 0.3476(3) 0.0401(12) Uani 1 1 d . . .
C12 C 0.7822(4) 0.6358(4) 0.3450(3) 0.0528(15) Uani 1 1 d . . .
H12 H 0.7346 0.6520 0.3765 0.063 Uiso 1 1 calc R . .
C13 C 0.7592(4) 0.6081(4) 0.2960(3) 0.0503(14) Uani 1 1 d . . .
H13 H 0.6954 0.6060 0.2941 0.060 Uiso 1 1 calc R . .
C14 C 0.8303(4) 0.5828(3) 0.2483(3) 0.0421(13) Uani 1 1 d . . .
C15 C 0.9257(4) 0.5821(3) 0.2558(3) 0.0464(14) Uani 1 1 d . . .
H15 H 0.9751 0.5609 0.2278 0.056 Uiso 1 1 calc R . .
C16 C 0.9511(3) 0.6115(3) 0.3032(3) 0.0386(12) Uani 1 1 d . . .
H16 H 1.0154 0.6124 0.3054 0.046 Uiso 1 1 calc R . .
C17 C 0.8033(4) 0.5584(3) 0.1903(3) 0.0452(13) Uani 1 1 d . . .
C18 C 0.9899(4) 0.7034(3) -0.3588(3) 0.0447(13) Uani 1 1 d . . .
H18A H 1.0321 0.6461 -0.3437 0.054 Uiso 1 1 calc R . .
H18B H 1.0186 0.7297 -0.3367 0.054 Uiso 1 1 calc R . .
C19 C 0.8728(4) 0.6773(4) -0.2668(3) 0.0548(16) Uani 1 1 d . . .
C20 C 0.7735(4) 0.6871(4) -0.2499(3) 0.075(2) Uani 1 1 d . . .
H20 H 0.7223 0.7153 -0.2873 0.090 Uiso 1 1 calc R . .
C21 C 0.7510(4) 0.6545(4) -0.1769(3) 0.070(2) Uani 1 1 d . . .
H21 H 0.6845 0.6617 -0.1659 0.084 Uiso 1 1 calc R . .
C22 C 0.8271(4) 0.6109(3) -0.1198(3) 0.0483(14) Uani 1 1 d . . .
C23 C 0.9246(4) 0.6016(3) -0.1381(3) 0.0439(13) Uani 1 1 d . . .
H23 H 0.9764 0.5712 -0.1012 0.053 Uiso 1 1 calc R . .
C24 C 0.9478(4) 0.6369(3) -0.2112(3) 0.0433(13) Uani 1 1 d . . .
H24 H 1.0137 0.6329 -0.2219 0.052 Uiso 1 1 calc R . .
C25 C 0.8057(4) 0.5717(4) -0.0422(3) 0.0487(14) Uani 1 1 d . . .
C26 C 0.8770(3) -0.0380(3) 0.4146(3) 0.0359(11) Uani 1 1 d . . .
H26A H 0.8151 -0.0213 0.3860 0.043 Uiso 1 1 calc R . .
H26B H 0.8620 -0.0148 0.4522 0.043 Uiso 1 1 calc R . .
C27 C 0.9185(3) 0.0726(3) 0.3234(3) 0.0342(11) Uani 1 1 d . . .
C28 C 0.8351(3) 0.1310(3) 0.3368(3) 0.0398(12) Uani 1 1 d . . .
H28 H 0.7962 0.1160 0.3762 0.048 Uiso 1 1 calc R . .
C29 C 0.8116(4) 0.2126(3) 0.2895(3) 0.0452(13) Uani 1 1 d . . .
H29 H 0.7561 0.2522 0.2981 0.054 Uiso 1 1 calc R . .
C30 C 0.8684(4) 0.2371(3) 0.2296(3) 0.0468(13) Uani 1 1 d . . .
C31 C 0.9506(4) 0.1762(3) 0.2181(3) 0.0444(13) Uani 1 1 d . . .
H31 H 0.9885 0.1904 0.1779 0.053 Uiso 1 1 calc R . .
C32 C 0.9765(4) 0.0967(3) 0.2646(3) 0.0439(13) Uani 1 1 d . . .
H32 H 1.0337 0.0576 0.2571 0.053 Uiso 1 1 calc R . .
C33 C 0.8377(4) 0.3261(4) 0.1814(3) 0.0508(14) Uani 1 1 d . . .
C34 C 0.6077(3) 0.0251(3) 0.4488(2) 0.0295(10) Uani 1 1 d . . .
C35 C 0.5884(4) 0.0605(3) 0.3713(3) 0.0391(12) Uani 1 1 d . . .
C36 C 0.5980(3) 0.0089(3) 1.3333(3) 0.0360(11) Uani 1 1 d . . .
C37 C 0.6301(3) -0.0764(3) 1.3697(3) 0.0389(12) Uani 1 1 d . . .
C38 C 0.6560(3) 0.8889(3) 0.4450(3) 0.0362(11) Uani 1 1 d . . .
C39 C 0.6451(3) -0.0603(3) 0.4852(2) 0.0320(11) Uani 1 1 d . . .
C40 C 0.5561(4) 0.1512(3) 0.3302(3) 0.0526(15) Uani 1 1 d . . .
H40A H 0.5527 0.1772 0.3643 0.079 Uiso 1 1 calc R . .
H40B H 0.4910 0.1712 0.3055 0.079 Uiso 1 1 calc R . .
H40C H 0.6038 0.1633 0.2946 0.079 Uiso 1 1 calc R . .
C41 C 0.6335(4) -0.1314(4) 1.3289(3) 0.0543(15) Uani 1 1 d . . .
H41A H 0.6571 -0.1875 1.3627 0.081 Uiso 1 1 calc R . .
H41B H 0.6784 -0.1242 1.2899 0.081 Uiso 1 1 calc R . .
H41C H 0.5673 -0.1171 1.3085 0.081 Uiso 1 1 calc R . .
C42 C 0.6705(4) -0.0987(3) 0.5676(3) 0.0446(13) Uani 1 1 d . . .
H42A H 0.6944 -0.1573 0.5835 0.067 Uiso 1 1 calc R . .
H42B H 0.6114 -0.0808 0.5925 0.067 Uiso 1 1 calc R . .
H42C H 0.7217 -0.0824 0.5791 0.067 Uiso 1 1 calc R . .
C43 C 0.5941(3) 0.0785(3) 0.4915(3) 0.0403(12) Uani 1 1 d . . .
H43A H 0.5461 0.1329 0.4650 0.048 Uiso 1 1 calc R . .
H43B H 0.5692 0.0555 0.5392 0.048 Uiso 1 1 calc R . .
C44 C 0.7005(4) 0.1205(3) 0.5462(3) 0.0441(13) Uani 1 1 d . . .
C45 C 0.6189(4) 0.1689(3) 0.5714(3) 0.0456(13) Uani 1 1 d . . .
H45 H 0.5535 0.1783 0.5573 0.055 Uiso 1 1 calc R . .
C46 C 0.6367(4) 0.2027(3) 0.6178(3) 0.0473(14) Uani 1 1 d . . .
H46 H 0.5822 0.2360 0.6340 0.057 Uiso 1 1 calc R . .
C47 C 0.7329(4) 0.1888(3) 0.6410(3) 0.0459(13) Uani 1 1 d . . .
C48 C 0.8137(4) 0.1416(3) 0.6139(3) 0.0502(15) Uani 1 1 d . . .
H48 H 0.8790 0.1323 0.6281 0.060 Uiso 1 1 calc R . .
C49 C 0.7982(4) 0.1088(3) 0.5667(3) 0.0481(14) Uani 1 1 d . . .
H49 H 0.8528 0.0784 0.5481 0.058 Uiso 1 1 calc R . .
C50 C 0.7525(4) 0.2234(3) 0.6939(3) 0.0456(13) Uani 1 1 d . . .
C51 C 0.5874(4) 0.0467(4) 1.2496(3) 0.0497(14) Uani 1 1 d . . .
H51A H 0.5877 0.0073 1.2292 0.060 Uiso 1 1 calc R . .
H51B H 0.5258 0.0941 1.2321 0.060 Uiso 1 1 calc R . .
C52 C 0.6879(4) 0.1066(4) 1.1563(3) 0.0507(15) Uani 1 1 d . . .
C53 C 0.6319(5) 0.1131(4) 1.0978(3) 0.0621(18) Uani 1 1 d . . .
H53 H 0.5786 0.0941 1.1063 0.074 Uiso 1 1 calc R . .
C54 C 0.6571(5) 0.1479(4) 1.0279(3) 0.0595(16) Uani 1 1 d . . .
H54 H 0.6215 0.1511 0.9886 0.071 Uiso 1 1 calc R . .
C55 C 0.7345(4) 0.1789(3) 1.0136(3) 0.0470(14) Uani 1 1 d . . .
C56 C 0.7843(5) 0.1774(4) 1.0708(3) 0.069(2) Uani 1 1 d . . .
H56 H 0.8322 0.2023 1.0616 0.083 Uiso 1 1 calc R . .
C57 C 0.7634(5) 0.1388(4) 1.1429(3) 0.0688(19) Uani 1 1 d . . .
H57 H 0.8003 0.1346 1.1820 0.083 Uiso 1 1 calc R . .
C58 C 0.7625(4) 0.2172(3) 0.9345(3) 0.0480(14) Uani 1 1 d . . .
C59 C 0.7037(4) 0.7972(3) 0.4845(3) 0.0464(14) Uani 1 1 d . . .
H59A H 0.7331 0.7718 0.4495 0.056 Uiso 1 1 calc R . .
H59B H 0.7564 0.7840 0.5204 0.056 Uiso 1 1 calc R . .
C60 C 0.6579(3) 0.6868(3) 0.5672(3) 0.0390(12) Uani 1 1 d . . .
C61 C 0.5854(4) 0.6595(3) 0.6091(3) 0.0462(14) Uani 1 1 d . . .
H61 H 0.5193 0.6955 0.6037 0.055 Uiso 1 1 calc R . .
C62 C 0.6111(4) 0.5794(3) 0.6586(3) 0.0472(14) Uani 1 1 d . . .
H62 H 0.5626 0.5619 0.6873 0.057 Uiso 1 1 calc R . .
C63 C 0.7085(4) 0.5254(3) 0.6654(3) 0.0453(13) Uani 1 1 d . . .
C64 C 0.7798(4) 0.5524(3) 0.6234(3) 0.0551(16) Uani 1 1 d . . .
H64 H 0.8456 0.5160 0.6282 0.066 Uiso 1 1 calc R . .
C65 C 0.7555(4) 0.6324(3) 0.5741(3) 0.0560(16) Uani 1 1 d . . .
H65 H 0.8044 0.6497 0.5458 0.067 Uiso 1 1 calc R . .
C66 C 0.7380(4) 0.4372(4) 0.7191(3) 0.0494(14) Uani 1 1 d . . .
C67 C 0.6066(4) 0.4274(4) 0.0651(3) 0.0582(17) Uani 1 1 d D . .
C68 C 0.6496(5) 0.4207(4) -0.0054(4) 0.0723(19) Uani 1 1 d D . .
H68A H 0.6330 0.3802 -0.0148 0.108 Uiso 1 1 calc R . .
H68B H 0.7214 0.4049 -0.0011 0.108 Uiso 1 1 calc R . .
H68C H 0.6219 0.4727 -0.0454 0.108 Uiso 1 1 calc R . .
C69 C 0.5107(6) 0.3888(6) 0.1724(4) 0.117(4) Uani 1 1 d D . .
H69A H 0.4746 0.3521 0.1931 0.175 Uiso 1 1 calc R . .
H69B H 0.4657 0.4441 0.1621 0.175 Uiso 1 1 calc R . .
H69C H 0.5644 0.3753 0.2068 0.175 Uiso 1 1 calc R . .
C70 C 0.5277(5) 0.3284(5) 0.0764(6) 0.115(4) Uani 1 1 d D . .
H70A H 0.4896 0.3006 0.1117 0.173 Uiso 1 1 calc R . .
H70B H 0.5884 0.2889 0.0695 0.173 Uiso 1 1 calc R . .
H70C H 0.4884 0.3607 0.0303 0.173 Uiso 1 1 calc R . .
C71 C 1.0383(7) 0.1508(6) 0.8530(5) 0.096(3) Uani 1 1 d D . .
C72 C 1.0021(8) 0.0746(6) 0.8794(6) 0.166(5) Uani 1 1 d D . .
H72A H 1.0569 0.0255 0.9061 0.249 Uiso 1 1 calc R . .
H72B H 0.9799 0.0695 0.8372 0.249 Uiso 1 1 calc R . .
H72C H 0.9475 0.0827 0.9108 0.249 Uiso 1 1 calc R . .
C73 C 1.1817(8) 0.2027(6) 0.8463(6) 0.139(4) Uani 1 1 d D . .
H10C H 1.2512 0.1794 0.8638 0.208 Uiso 1 1 calc R . .
H10D H 1.1454 0.2426 0.8670 0.208 Uiso 1 1 calc R . .
H10E H 1.1763 0.2286 0.7935 0.208 Uiso 1 1 calc R . .
C74 C 1.2091(11) 0.0501(7) 0.9054(10) 0.325(12) Uani 1 1 d D . .
H74A H 1.2748 0.0494 0.9137 0.488 Uiso 1 1 calc R . .
H74B H 1.2128 0.0209 0.8741 0.488 Uiso 1 1 calc R . .
H74C H 1.1846 0.0243 0.9517 0.488 Uiso 1 1 calc R . .
C75 C 0.4882(5) 0.6303(5) 0.1383(5) 0.102(3) Uani 1 1 d . . .
H80A H 0.4778 0.5808 0.1444 0.153 Uiso 1 1 calc R . .
H80B H 0.5508 0.6297 0.1162 0.153 Uiso 1 1 calc R . .
H80C H 0.4341 0.6767 0.1069 0.153 Uiso 1 1 calc R . .
C76 C 0.5092(6) 0.7108(7) 0.2024(6) 0.132(4) Uani 1 1 d . . .
H11A H 0.5100 0.7146 0.2497 0.198 Uiso 1 1 calc R . .
H11B H 0.4566 0.7578 0.1703 0.198 Uiso 1 1 calc R . .
H11C H 0.5728 0.7089 0.1816 0.198 Uiso 1 1 calc R . .
C77 C 1.0518(6) 0.3194(4) 0.9996(4) 0.087(2) Uani 1 1 d . . .
H77A H 1.1021 0.3277 1.0223 0.130 Uiso 1 1 calc R . .
H77B H 1.0840 0.2795 0.9781 0.130 Uiso 1 1 calc R . .
H77C H 1.0086 0.3002 1.0361 0.130 Uiso 1 1 calc R . .
C78 C 0.9126(5) 0.3890(5) 0.9049(5) 0.087(2) Uani 1 1 d . . .
H78A H 0.8756 0.4408 0.8674 0.130 Uiso 1 1 calc R . .
H78B H 0.8678 0.3711 0.9407 0.130 Uiso 1 1 calc R . .
H78C H 0.9430 0.3493 0.8830 0.130 Uiso 1 1 calc R . .

loop_
_atom_site_aniso_label
_atom_site_