####################################################################### 
# 
# This file contains crystal structure data downloaded from the 
# Cambridge Structural Database (CSD) hosted by the Cambridge 
# Crystallographic Data Centre (CCDC).
# 
# Full information about CCDC data access policies and citation 
# guidelines are available at http://www.ccdc.cam.ac.uk/access/V1 
# 
# Audit and citation data items may have been added by the CCDC. 
# Please retain this information to preserve the provenance of 
# this file and to allow appropriate attribution of the data. 
# 
#######################################################################

data_squeeze
_audit_block_doi                 10.5517/cc11p4zv
_database_code_depnum_ccdc_archive 'CCDC 973647'
loop_
_citation_id
_citation_doi
_citation_year
1 10.1016/j.inoche.2014.02.009 2014
_audit_update_record             
;
2013-11-25 deposited with the CCDC.	2024-07-10 downloaded from the CCDC.
;

_audit_creation_method           SHELXL-97
_chemical_name_systematic        
; 
 ? 
;
_chemical_name_common            ?
_chemical_melting_point          ?
_chemical_formula_moiety         'C22 H24 Cu N2 O6'
_chemical_formula_sum            'C22 H24 Cu N2 O6'
_chemical_formula_weight         475.98
_chemical_absolute_configuration ad

loop_
_atom_type_symbol
_atom_type_description
_atom_type_scat_dispersion_real
_atom_type_scat_dispersion_imag
_atom_type_scat_source
C C 0.0033 0.0016 'International Tables Vol C Tables 4.2.6.8 and 6.1.1.4'
H H 0.0000 0.0000 'International Tables Vol C Tables 4.2.6.8 and 6.1.1.4'
N N 0.0061 0.0033 'International Tables Vol C Tables 4.2.6.8 and 6.1.1.4'
O O 0.0106 0.0060 'International Tables Vol C Tables 4.2.6.8 and 6.1.1.4'
Cu Cu 0.3201 1.2651 'International Tables Vol C Tables 4.2.6.8 and 6.1.1.4'

_symmetry_cell_setting           Tetragonal
_symmetry_space_group_name_H-M   P4(2)2(1)2
_symmetry_space_group_name_Hall  P4n2n

loop_
_symmetry_equiv_pos_as_xyz
'x, y, z'
'-x, -y, z'
'-y+1/2, x+1/2, z+1/2'
'y+1/2, -x+1/2, z+1/2'
'-x+1/2, y+1/2, -z+1/2'
'x+1/2, -y+1/2, -z+1/2'
'y, x, -z'
'-y, -x, -z'

_cell_length_a                   14.052(2)
_cell_length_b                   14.052(2)
_cell_length_c                   20.056(4)
_cell_angle_alpha                90.00
_cell_angle_beta                 90.00
_cell_angle_gamma                90.00
_cell_volume                     3960.3(12)
_cell_formula_units_Z            4
_cell_measurement_temperature    173(2)
_cell_measurement_reflns_used    1749
_cell_measurement_theta_min      5.59
_cell_measurement_theta_max      58.01

_exptl_crystal_description       block
_exptl_crystal_colour            blue
_exptl_crystal_size_max          0.11
_exptl_crystal_size_mid          0.11
_exptl_crystal_size_min          0.04
_exptl_crystal_density_meas      ?
_exptl_crystal_density_diffrn    0.798
_exptl_crystal_density_method    'not measured'
_exptl_crystal_F_000             988
_exptl_absorpt_coefficient_mu    0.574
_exptl_absorpt_correction_type   multi-scan
_exptl_absorpt_correction_T_min  0.9396
_exptl_absorpt_correction_T_max  0.9774
_exptl_absorpt_process_details   '(Blessing 1951)'

_exptl_special_details           
; 
 ? 
;

_diffrn_ambient_temperature      173(2)
_diffrn_radiation_wavelength     0.71073
_diffrn_radiation_type           MoK\a
_diffrn_radiation_source         'fine-focus sealed tube'
_diffrn_radiation_monochromator  graphite
_diffrn_measurement_device_type  'Stoe IPDS'
_diffrn_measurement_method       '\w scans'
_diffrn_detector_area_resol_mean ?
_diffrn_standards_number         ?
_diffrn_standards_interval_count ?
_diffrn_standards_interval_time  ?
_diffrn_standards_decay_%        ?
_diffrn_reflns_number            3502
_diffrn_reflns_av_R_equivalents  0.0000
_diffrn_reflns_av_sigmaI/netI    0.0329
_diffrn_reflns_limit_h_min       -11
_diffrn_reflns_limit_h_max       11
_diffrn_reflns_limit_k_min       0
_diffrn_reflns_limit_k_max       16
_diffrn_reflns_limit_l_min       0
_diffrn_reflns_limit_l_max       23
_diffrn_reflns_theta_min         2.29
_diffrn_reflns_theta_max         25.04
_reflns_number_total             3502
_reflns_number_gt                2956
_reflns_threshold_expression     >2sigma(I)

_computing_data_collection       'Stoe IPDS'
_computing_cell_refinement       'Stoe IPDS'
_computing_data_reduction        'Stoe IPDS'
_computing_structure_solution    'SHELXS-97 (Sheldrick, 1990)'
_computing_structure_refinement  'SHELXL-97 (Sheldrick, 1997)'
_computing_molecular_graphics    'Bruker SHELXTL'
_computing_publication_material  'Bruker SHELXTL'

_refine_special_details          
; 
 Refinement of F^2^ against ALL reflections.  The weighted R-factor wR and 
 goodness of fit S are based on F^2^, conventional R-factors R are based 
 on F, with F set to zero for negative F^2^. The threshold expression of 
 F^2^ > 2sigma(F^2^) is used only for calculating R-factors(gt) etc. and is 
 not relevant to the choice of reflections for refinement.  R-factors based 
 on F^2^ are statistically about twice as large as those based on F, and R- 
 factors based on ALL data will be even larger. 
;

_refine_ls_structure_factor_coef Fsqd
_refine_ls_matrix_type           full
_refine_ls_weighting_scheme      calc
_refine_ls_weighting_details     
'calc w=1/[\s^2^(Fo^2^)+(0.0746P)^2^+0.0000P] where P=(Fo^2^+2Fc^2^)/3'
_atom_sites_solution_primary     direct
_atom_sites_solution_secondary   difmap
_atom_sites_solution_hydrogens   geom
_refine_ls_hydrogen_treatment    constr
_refine_ls_extinction_method     none
_refine_ls_extinction_coef       ?
_refine_ls_abs_structure_details 'Flack H D (1983), Acta Cryst. A39, 876-881'
_refine_ls_abs_structure_Flack   -0.06(3)
_refine_ls_number_reflns         3502
_refine_ls_number_parameters     142
_refine_ls_number_restraints     0
_refine_ls_R_factor_all          0.0508
_refine_ls_R_factor_gt           0.0431
_refine_ls_wR_factor_ref         0.1104
_refine_ls_wR_factor_gt          0.1072
_refine_ls_goodness_of_fit_ref   1.035
_refine_ls_restrained_S_all      1.035
_refine_ls_shift/su_max          0.001
_refine_ls_shift/su_mean         0.000

loop_
_atom_site_label
_atom_site_type_symbol
_atom_site_fract_x
_atom_site_fract_y
_atom_site_fract_z
_atom_site_U_iso_or_equiv
_atom_site_adp_type
_atom_site_occupancy
_atom_site_symmetry_multiplicity
_atom_site_calc_flag
_atom_site_refinement_flags
_atom_site_disorder_assembly
_atom_site_disorder_group
Cu1 Cu 1.0000 0.5000 0.701810(19) 0.02337(14) Uani 1 2 d S . .
N1 N 1.06232(18) 0.42354(18) 0.63041(11) 0.0256(5) Uani 1 1 d . . .
H1C H 1.1248 0.4445 0.6259 0.031 Uiso 1 1 calc R . .
O1 O 1.06436(15) 0.43103(15) 0.77227(8) 0.0249(4) Uani 1 1 d . . .
C1 C 1.0096(3) 0.4463(3) 0.44307(15) 0.0586(11) Uani 1 1 d . . .
H1A H 0.9483 0.4116 0.4414 0.070 Uiso 1 1 calc R . .
H1B H 1.0465 0.4291 0.4028 0.070 Uiso 1 1 calc R . .
C2 C 1.0644(3) 0.4162(3) 0.50484(14) 0.0406(9) Uani 1 1 d . . .
H2A H 1.1282 0.4462 0.5046 0.049 Uiso 1 1 calc R . .
H2B H 1.0729 0.3463 0.5048 0.049 Uiso 1 1 calc R . .
C3 C 1.0099(2) 0.4466(2) 0.56751(13) 0.0277(6) Uani 1 1 d . . .
H3A H 0.9476 0.4123 0.5682 0.033 Uiso 1 1 calc R . .
C4 C 1.0642(2) 0.32121(19) 0.64658(15) 0.0277(6) Uani 1 1 d . . .
H4A H 1.0890 0.2855 0.6078 0.033 Uiso 1 1 calc R . .
H4B H 0.9984 0.2991 0.6552 0.033 Uiso 1 1 calc R . .
C5 C 1.1248(2) 0.30004(19) 0.70649(14) 0.0245(6) Uani 1 1 d . . .
C6 C 1.12013(18) 0.35626(18) 0.76562(14) 0.0216(6) Uani 1 1 d . . .
C7 C 1.1800(2) 0.3318(2) 0.81935(13) 0.0304(6) Uani 1 1 d . . .
H7A H 1.1799 0.3700 0.8585 0.036 Uiso 1 1 calc R . .
C8 C 1.2383(2) 0.2542(3) 0.81604(13) 0.0335(6) Uani 1 1 d . . .
H8A H 1.2759 0.2381 0.8537 0.040 Uiso 1 1 calc R . .
C9 C 1.2440(2) 0.1983(2) 0.75918(14) 0.0258(6) Uani 1 1 d . . .
C10 C 1.1860(2) 0.22306(19) 0.70375(16) 0.0271(6) Uani 1 1 d . . .
H10A H 1.1893 0.1861 0.6642 0.033 Uiso 1 1 calc R . .
C11 C 1.3111(2) 0.1193(2) 0.75760(15) 0.0287(6) Uani 1 1 d . . .
O2 O 1.35917(17) 0.09817(16) 0.80592(11) 0.0388(6) Uani 1 1 d . . .
O3 O 1.31641(16) 0.07203(15) 0.70168(11) 0.0327(5) Uani 1 1 d . . .
H3 H 1.3562 0.0278 0.7056 0.049 Uiso 1 1 calc R . .

loop_
_atom_site_aniso_label
_atom_site_aniso_U_11
_atom_site_aniso_U_22
_atom_site_aniso_U_33
_atom_site_aniso_U_23
_atom_site_aniso_U_13
_atom_site_aniso_U_12
Cu1 0.0262(3) 0.0223(3) 0.0216(2) 0.000 0.000 0.00297(18)
N1 0.0271(14) 0.0259(13) 0.0237(10) 0.0001(10) -0.0028(10) 0.0031(10)
O1 0.0272(12) 0.0225(11) 0.0251(8) -0.0015(8) -0.0008(9) 0.0046(7)
C1 0.072(3) 0.083(3) 0.0208(16) -0.0106(15) -0.0024(16) 0.030(3)
C2 0.047(2) 0.052(2) 0.0226(13) -0.0081(14) 0.0021(14) 0.0184(17)
C3 0.0298(16) 0.0337(15) 0.0197(12) -0.0054(11) -0.0003(11) 0.0066(14)
C4 0.0353(16) 0.0169(13) 0.0310(15) -0.0045(11) -0.0096(13) 0.0019(12)
C5 0.0250(14) 0.0252(14) 0.0232(13) 0.0001(12) -0.0026(12) 0.0018(11)
C6 0.0202(14) 0.0162(13) 0.0284(13) -0.0003(10) -0.0012(11) -0.0051(11)
C7 0.0454(19) 0.0213(15) 0.0246(13) -0.0033(11) -0.0004(13) 0.0039(12)
C8 0.0310(18) 0.044(2) 0.0251(13) 0.0023(14) -0.0066(13) 0.0070(13)
C9 0.0258(15) 0.0242(15) 0.0276(15) 0.0026(12) 0.0005(12) 0.0045(11)
C10 0.0324(15) 0.0182(13) 0.0306(14) -0.0035(12) -0.0019(13) -0.0024(11)
C11 0.0296(16) 0.0271(16) 0.0295(16) 0.0054(13) -0.0005(13) 0.0001(12)
O2 0.0430(13) 0.0400(12) 0.0335(12) -0.0033(9) -0.0068(10) 0.0217(10)
O3 0.0390(12) 0.0283(11) 0.0309(11) -0.0037(10) -0.0032(10) 0.0133(9)

_geom_special_details            
; 
 All esds (except the esd in the dihedral angle between two l.s. planes) 
 are estimated using the full covariance matrix.  The cell esds are taken 
 into account individually in the estimation of esds in distances, angles 
 and torsion angles; correlations between esds in cell parameters are only 
 used when they are defined by crystal symmetry.  An approximate (isotropic) 
 treatment of cell esds is used for estimating esds involving l.s. planes. 
;

loop_
_geom_bond_atom_site_label_1
_geom_bond_atom_site_label_2
_geom_bond_distance
_geom_bond_site_symmetry_2
_geom_bond_publ_flag
Cu1 O1 1.9376(17) . ?
Cu1 O1 1.9376(17) 2_765 ?
Cu1 N1 1.993(2) . ?
Cu1 N1 1.993(2) 2_765 ?
Cu1 O2 2.417(2) 6_456 ?
Cu1 O2 2.417(2) 5_756 ?
N1 C4 1.474(4) . ?
N1 C3 1.496(3) . ?
N1 H1C 0.9300 . ?
O1 C6 1.317(3) . ?
C1 C2 1.519(5) . ?
C1 C1 1.534(9) 2_765 ?
C1 H1A 0.9900 . ?
C1 H1B 0.9900 . ?
C2 C3 1.533(4) . ?
C2 H2A 0.9900 . ?
C2 H2B 0.9900 . ?
C3 C3 1.525(6) 2_765 ?
C3 H3A 1.0000 . ?
C4 C5 1.503(4) . ?
C4 H4A 0.9900 . ?
C4 H4B 0.9900 . ?
C5 C10 1.383(4) . ?
C5 C6 1.426(4) . ?
C6 C7 1.410(4) . ?
C7 C8 1.365(4) . ?
C7 H7A 0.9500 . ?
C8 C9 1.387(4) . ?
C8 H8A 0.9500 . ?
C9 C10 1.422(4) . ?
C9 C11 1.457(4) . ?
C10 H10A 0.9500 . ?
C11 O2 1.218(4) . ?
C11 O3 1.305(4) . ?
O2 Cu1 2.417(2) 5_746 ?
O3 H3 0.8400 . ?

loop_
_geom_angle_atom_site_label_1
_geom_angle_atom_site_label_2
_geom_angle_atom_site_label_3
_geom_angle
_geom_angle_site_symmetry_1
_geom_angle_site_symmetry_3
_geom_angle_publ_flag
O1 Cu1 O1 86.35(10) . 2_765 ?
O1 Cu1 N1 92.82(8) . . ?
O1 Cu1 N1 177.20(12) 2_765 . ?
O1 Cu1 N1 177.20(12) . 2_765 ?
O1 Cu1 N1 92.82(8) 2_765 2_765 ?
N1 Cu1 N1 88.14(13) . 2_765 ?
O1 Cu1 O2 98.25(9) . 6_456 ?
O1 Cu1 O2 87.14(9) 2_765 6_456 ?
N1 Cu1 O2 90.34(10) . 6_456 ?
N1 Cu1 O2 84.37(10) 2_765 6_456 ?
O1 Cu1 O2 87.14(9) . 5_756 ?
O1 Cu1 O2 98.25(9) 2_765 5_756 ?
N1 Cu1 O2 84.37(10) . 5_756 ?
N1 Cu1 O2 90.34(10) 2_765 5_756 ?
O2 Cu1 O2 172.65(10) 6_456 5_756 ?
C4 N1 C3 113.9(2) . . ?
C4 N1 Cu1 112.06(18) . . ?
C3 N1 Cu1 105.81(16) . . ?
C4 N1 H1C 108.3 . . ?
C3 N1 H1C 108.3 . . ?
Cu1 N1 H1C 108.3 . . ?
C6 O1 Cu1 127.07(16) . . ?
C2 C1 C1 111.3(3) . 2_765 ?
C2 C1 H1A 109.4 . . ?
C1 C1 H1A 109.4 2_765 . ?
C2 C1 H1B 109.4 . . ?
C1 C1 H1B 109.4 2_765 . ?
H1A C1 H1B 108.0 . . ?
C1 C2 C3 109.8(3) . . ?
C1 C2 H2A 109.7 . . ?
C3 C2 H2A 109.7 . . ?
C1 C2 H2B 109.7 . . ?
C3 C2 H2B 109.7 . . ?
H2A C2 H2B 108.2 . . ?
N1 C3 C3 107.65(19) . 2_765 ?
N1 C3 C2 112.6(2) . . ?
C3 C3 C2 111.4(2) 2_765 . ?
N1 C3 H3A 108.3 . . ?
C3 C3 H3A 108.3 2_765 . ?
C2 C3 H3A 108.3 . . ?
N1 C4 C5 112.3(2) . . ?
N1 C4 H4A 109.2 . . ?
C5 C4 H4A 109.2 . . ?
N1 C4 H4B 109.2 . . ?
C5 C4 H4B 109.2 . . ?
H4A C4 H4B 107.9 . . ?
C10 C5 C6 119.7(3) . . ?
C10 C5 C4 118.4(3) . . ?
C6 C5 C4 121.9(2) . . ?
O1 C6 C7 118.2(2) . . ?
O1 C6 C5 123.6(2) . . ?
C7 C6 C5 118.2(2) . . ?
C8 C7 C6 121.0(3) . . ?
C8 C7 H7A 119.5 . . ?
C6 C7 H7A 119.5 . . ?
C7 C8 C9 121.8(3) . . ?
C7 C8 H8A 119.1 . . ?
C9 C8 H8A 119.1 . . ?
C8 C9 C10 118.1(3) . . ?
C8 C9 C11 119.2(3) . . ?
C10 C9 C11 122.7(3) . . ?
C5 C10 C9 121.1(3) . . ?
C5 C10 H10A 119.4 . . ?
C9 C10 H10A 119.4 . . ?
O2 C11 O3 121.9(3) . . ?
O2 C11 C9 121.8(3) . . ?
O3 C11 C9 116.3(3) . . ?
C11 O2 Cu1 122.8(2) . 5_746 ?
C11 O3 H3 109.5 . . ?

_diffrn_measured_fraction_theta_max 0.996
_diffrn_reflns_theta_full        25.04
_diffrn_measured_fraction_theta_full 0.996
_refine_diff_density_max         0.295
_refine_diff_density_min         -0.435
_refine_diff_density_rms         0.059


# SQUEEZE RESULTS (APPEND TO CIF)
# Note: Data are Listed for all Voids in the P1 Unit Cell
# i.e. Centre of Gravity, Solvent Accessible Volume,
# Recovered number of Electrons in the Void and
# Details about the Squeezed Material
loop_
_platon_squeeze_void_nr
_platon_squeeze_void_average_x
_platon_squeeze_void_average_y
_platon_squeeze_void_average_z
_platon_squeeze_void_volume
_platon_squeeze_void_count_electrons
_platon_squeeze_void_content
1 -0.028 -0.019 -0.013 2274 448 ' '
_platon_squeeze_details          
;
;
