
#######################################################################
#
#                 Cambridge Crystallographic Data Centre
#                                CCDC
#
#######################################################################
#
# If this CIF has been generated from an entry in the Cambridge
# Structural Database, then it will include bibliographic, chemical,
# crystal, experimental, refinement or atomic coordinate data resulting
# from the CCDC's data processing and validation procedures.
#
#######################################################################

data_CSD_CIF_FOLCAH01
_audit_creation_date 2016-03-17
_audit_creation_method CSD-ConQuest-V1
_database_code_CSD FOLCAH01
_database_code_depnum_ccdc_archive 'CCDC 1446314'
_chemical_formula_sum 'C19 H23 N7 O8'
_chemical_formula_moiety
;
C19 H19 N7 O6,2(H2 O1)
;
_journal_coden_Cambridge 1147
_journal_volume 16
_journal_year 2016
_journal_page_first 2218
_journal_name_full 'Cryst.Growth Des. '
loop_
_publ_author_name
"D.Braga"
"L.Chelazzi"
"F.Grepioni"
"L.Maschio"
"S.Nanna"
"P.Taddei"
_chemical_name_systematic
;
(2S)-2-((4-(((2-amino-4-hydroxypteridin-6-yl)methyl)amino)phenyl)formamido)pen
tanedioic acid dihydrate
;
_chemical_name_common
;
folic acid dihydrate; vitamin B9 dihydrate; Teaching Subset: Essential 
Nutrients
;
_cell_volume   2033.290
_exptl_crystal_colour 'yellow'
_exptl_crystal_density_diffrn 1.546
_exptl_special_details
;
powder data

;
_diffrn_ambient_temperature 293
#These two values have been output from a single CSD field.
_refine_ls_R_factor_gt 0.076
_refine_ls_wR_factor_gt 0.076
_symmetry_cell_setting orthorhombic
_symmetry_space_group_name_H-M 'P 21 21 21'
_symmetry_Int_Tables_number 19
loop_
_symmetry_equiv_pos_site_id
_symmetry_equiv_pos_as_xyz
1 x,y,z
2 -x,1/2+y,1/2-z
3 1/2-x,-y,1/2+z
4 1/2+x,1/2-y,-z
_cell_length_a 8.6163(9)
_cell_length_b 32.428(4)
_cell_length_c 7.2771(5)
_cell_angle_alpha 90
_cell_angle_beta 90
_cell_angle_gamma 90
_cell_formula_units_Z 4
loop_
_atom_type_symbol
_atom_type_radius_bond
C 0.68
H 0.23
N 0.68
O 0.68
loop_
_atom_site_label
_atom_site_type_symbol
_atom_site_fract_x
_atom_site_fract_y
_atom_site_fract_z
N1 N 1.298(2) 0.5708(3) 0.003(3)
H1 H 1.40889 0.56566 0.04410
H2 H 1.23034 0.54683 -0.03731
C1 C 1.2432(8) 0.6077(2) 0.002(2)
N2 N 1.097(1) 0.6148(2) -0.052(2)
H3 H 1.03613 0.59248 -0.11807
C2 C 1.0352(8) 0.6524(2) -0.029(1)
O1 O 0.921(1) 0.6620(3) -0.113(1)
C3 C 1.1172(8) 0.6845(2) 0.070(1)
C4 C 1.2680(8) 0.6760(2) 0.124(1)
N3 N 1.330(1) 0.6386(2) 0.083(2)
N4 N 1.356(1) 0.7044(2) 0.204(2)
C5 C 1.293(1) 0.7417(3) 0.224(3)
H4 H 1.36251 0.76607 0.28584
C6 C 1.1446(8) 0.7506(2) 0.170(2)
N5 N 1.0527(9) 0.7215(2) 0.103(2)
C7 C 1.065(1) 0.790(3) 0.234(3)
H5 H 1.07825 0.81358 0.12862
H6 H 1.11933 0.80045 0.36084
N6 N 0.9007(9) 0.7831(2) 0.267(2)
H7 H 0.84840 0.75691 0.22228
C8 C 0.8171(7) 0.8127(2) 0.360(2)
C9 C 0.890(1) 0.8462(3) 0.441(2)
H8 H 1.01567 0.84918 0.43224
C10 C 0.8054(9) 0.8756(3) 0.532(2)
H9 H 0.86710 0.90111 0.59628
C11 C 0.6459(7) 0.8744(2) 0.546(2)
C12 C 0.572(1) 0.8404(3) 0.469(2)
H10 H 0.44654 0.83732 0.48080
C13 C 0.656(1) 0.8106(3) 0.378(2)
H11 H 0.59466 0.78450 0.31803
C14 C 0.5655(8) 0.9086(2) 0.639(1)
O2 O 0.633(1) 0.9418(3) 0.668(3)
N7 N 0.4317(9) 0.9009(4) 0.725(2)
H12 H 0.43260 0.88463 0.84416
C15 C 0.2827(9) 0.9156(3) 0.650(1)
H13 H 0.30407 0.94191 0.56049
C16 C 0.205(1) 0.8834(4) 0.525(1)
H14 H 0.09350 0.89587 0.55339
H15 H 0.22507 0.86081 0.57394
C17 C 0.249(2) 0.8857(3) 0.325(1)
H16 H 0.15378 0.89707 0.27436
H17 H 0.28709 0.86473 0.24008
C18 C 0.2837(8) 0.9264(2) 0.255(2)
O3 O 0.175(1) 0.9532(3) 0.292(4)
H18 H 0.20447 0.98051 0.24112
O4 O 0.406(1) 0.9358(4) 0.194(3)
C19 C 0.1792(9) 0.9302(2) 0.807(1)
O5 O 0.067(1) 0.9084(4) 0.841(2)
H19 H 0.10301 0.88034 0.87515
O6 O 0.203(2) 0.9647(3) 0.877(2)
O7 O 0.855(4) 1.004(1) 0.577(4)
O8 O 0.767(2) 0.7083(3) 0.154(2)
#END
