####################################################################### 
# 
# This file contains crystal structure data downloaded from the 
# Cambridge Structural Database (CSD) hosted by the Cambridge 
# Crystallographic Data Centre (CCDC).
# 
# Full information about CCDC data access policies and citation 
# guidelines are available at http://www.ccdc.cam.ac.uk/access/V1 
# 
# Audit and citation data items may have been added by the CCDC. 
# Please retain this information to preserve the provenance of 
# this file and to allow appropriate attribution of the data. 
# 
#######################################################################

data_1
_audit_block_doi                 10.5517/cc13376n
_database_code_depnum_ccdc_archive 'CCDC 1016000'
loop_
_citation_id
_citation_doi
_citation_year
1 10.1039/C4CC08214A 2014
_audit_update_record             
;
2014-07-25 deposited with the CCDC.	2024-07-10 downloaded from the CCDC.
;

_audit_creation_method           SHELXL-97
_chemical_name_systematic        
; 
 ? 
;
_chemical_name_common            ?
_chemical_melting_point          ?
_chemical_formula_moiety         ?
_chemical_formula_sum            'C53 H38 N6 O20 Zn2'
_chemical_formula_weight         1209.63

loop_
_atom_type_symbol
_atom_type_description
_atom_type_scat_dispersion_real
_atom_type_scat_dispersion_imag
_atom_type_scat_source
C C 0.0033 0.0016 'International Tables Vol C Tables 4.2.6.8 and 6.1.1.4'
H H 0.0000 0.0000 'International Tables Vol C Tables 4.2.6.8 and 6.1.1.4'
N N 0.0061 0.0033 'International Tables Vol C Tables 4.2.6.8 and 6.1.1.4'
O O 0.0106 0.0060 'International Tables Vol C Tables 4.2.6.8 and 6.1.1.4'
Zn Zn 0.2839 1.4301 'International Tables Vol C Tables 4.2.6.8 and 6.1.1.4'

_symmetry_cell_setting           monoclinic
_symmetry_space_group_name_H-M   C2/c

loop_
_symmetry_equiv_pos_as_xyz
'x, y, z'
'-x, y, -z+1/2'
'x+1/2, y+1/2, z'
'-x+1/2, y+1/2, -z+1/2'
'-x, -y, -z'
'x, -y, z-1/2'
'-x+1/2, -y+1/2, -z'
'x+1/2, -y+1/2, z-1/2'

_cell_length_a                   38.596(8)
_cell_length_b                   15.279(3)
_cell_length_c                   23.600(5)
_cell_angle_alpha                90.00
_cell_angle_beta                 101.29(3)
_cell_angle_gamma                90.00
_cell_volume                     13648(5)
_cell_formula_units_Z            8
_cell_measurement_temperature    293(2)
_cell_measurement_reflns_used    ?
_cell_measurement_theta_min      ?
_cell_measurement_theta_max      ?

_exptl_crystal_description       block
_exptl_crystal_colour            'deep yellow'
_exptl_crystal_size_max          0.42
_exptl_crystal_size_mid          0.36
_exptl_crystal_size_min          0.28
_exptl_crystal_density_meas      ?
_exptl_crystal_density_diffrn    1.177
_exptl_crystal_density_method    'not measured'
_exptl_crystal_F_000             4944
_exptl_absorpt_coefficient_mu    0.769
_exptl_absorpt_correction_type   multi-scan
_exptl_absorpt_correction_T_min  0.735
_exptl_absorpt_correction_T_max  0.802
_exptl_absorpt_process_details   'sadabs (sheldrick, 1996)'

_exptl_special_details           
; 
 ? 
;

_diffrn_ambient_temperature      293(2)
_diffrn_radiation_wavelength     0.71073
_diffrn_radiation_type           MoK\a
_diffrn_radiation_source         'fine-focus sealed tube'
_diffrn_radiation_monochromator  graphite
_diffrn_measurement_device_type  ?
_diffrn_measurement_method       ?
_diffrn_detector_area_resol_mean ?
_diffrn_standards_number         ?
_diffrn_standards_interval_count ?
_diffrn_standards_interval_time  ?
_diffrn_standards_decay_%        ?
_diffrn_reflns_number            60601
_diffrn_reflns_av_R_equivalents  0.1379
_diffrn_reflns_av_sigmaI/netI    0.1582
_diffrn_reflns_limit_h_min       -50
_diffrn_reflns_limit_h_max       50
_diffrn_reflns_limit_k_min       -18
_diffrn_reflns_limit_k_max       19
_diffrn_reflns_limit_l_min       -30
_diffrn_reflns_limit_l_max       29
_diffrn_reflns_theta_min         3.04
_diffrn_reflns_theta_max         27.48
_reflns_number_total             15586
_reflns_number_gt                5974
_reflns_threshold_expression     >2sigma(I)

_computing_data_collection       'Bruker SMART'
_computing_cell_refinement       'Bruker SMART'
_computing_data_reduction        'Bruker SAINT'
_computing_structure_solution    'SHELXS-97 (Sheldrick, 1990)'
_computing_structure_refinement  'SHELXL-97 (Sheldrick, 1997)'
_computing_molecular_graphics    'Bruker SHELXTL'
_computing_publication_material  'Bruker SHELXTL'

_refine_special_details          
; 
 Refinement of F^2^ against ALL reflections.  The weighted R-factor wR and 
 goodness of fit S are based on F^2^, conventional R-factors R are based 
 on F, with F set to zero for negative F^2^. The threshold expression of 
 F^2^ > 2sigma(F^2^) is used only for calculating R-factors(gt) etc. and is 
 not relevant to the choice of reflections for refinement.  R-factors based 
 on F^2^ are statistically about twice as large as those based on F, and R- 
 factors based on ALL data will be even larger. 
;

_refine_ls_structure_factor_coef Fsqd
_refine_ls_matrix_type           full
_refine_ls_weighting_scheme      calc
_refine_ls_weighting_details     
'calc w=1/[\s^2^(Fo^2^)+(0.0786P)^2^+0.0000P] where P=(Fo^2^+2Fc^2^)/3'
_atom_sites_solution_primary     direct
_atom_sites_solution_secondary   difmap
_atom_sites_solution_hydrogens   geom
_refine_ls_hydrogen_treatment    mixed
_refine_ls_extinction_method     none
_refine_ls_extinction_coef       ?
_refine_ls_number_reflns         15586
_refine_ls_number_parameters     726
_refine_ls_number_restraints     48
_refine_ls_R_factor_all          0.1832
_refine_ls_R_factor_gt           0.0783
_refine_ls_wR_factor_ref         0.2101
_refine_ls_wR_factor_gt          0.1782
_refine_ls_goodness_of_fit_ref   0.973
_refine_ls_restrained_S_all      0.977
_refine_ls_shift/su_max          0.001
_refine_ls_shift/su_mean         0.000

loop_
_atom_site_label
_atom_site_type_symbol
_atom_site_fract_x
_atom_site_fract_y
_atom_site_fract_z
_atom_site_U_iso_or_equiv
_atom_site_adp_type
_atom_site_occupancy
_atom_site_symmetry_multiplicity
_atom_site_calc_flag
_atom_site_refinement_flags
_atom_site_disorder_assembly
_atom_site_disorder_group
Zn1 Zn 0.256031(15) 0.87902(5) 0.37174(3) 0.0528(2) Uani 1 1 d . . .
Zn2 Zn 0.186819(15) 0.99616(5) 0.30468(3) 0.0571(2) Uani 1 1 d . . .
C1 C 0.20455(15) 0.7681(4) 0.2122(2) 0.0625(16) Uani 1 1 d . . .
C2 C 0.22564(14) 0.6967(4) 0.2087(2) 0.0603(15) Uani 1 1 d . . .
H2 H 0.2463 0.6891 0.2360 0.072 Uiso 1 1 calc R . .
C3 C 0.21646(15) 0.6362(4) 0.1650(2) 0.0624(16) Uani 1 1 d . . .
C4 C 0.18606(15) 0.6485(4) 0.1246(3) 0.0742(19) Uani 1 1 d . . .
H4 H 0.1793 0.6078 0.0952 0.089 Uiso 1 1 calc R . .
C5 C 0.16590(16) 0.7203(5) 0.1277(3) 0.0735(18) Uani 1 1 d . . .
C6 C 0.17420(15) 0.7800(5) 0.1704(3) 0.0743(18) Uani 1 1 d . . .
H6 H 0.1598 0.8284 0.1717 0.089 Uiso 1 1 calc R . .
C7 C 0.21391(15) 0.8328(4) 0.2605(3) 0.0614(15) Uani 1 1 d . . .
C8 C 0.23834(17) 0.5565(4) 0.1630(3) 0.0628(16) Uani 1 1 d . . .
C9 C 0.13757(19) 0.7909(5) 0.0381(3) 0.080(2) Uani 1 1 d . . .
C10 C 0.10614(16) 0.8102(4) -0.0056(3) 0.0699(17) Uani 1 1 d . . .
C11 C 0.10838(19) 0.8676(5) -0.0483(3) 0.090(2) Uani 1 1 d . . .
H11 H 0.1297 0.8947 -0.0499 0.108 Uiso 1 1 calc R . .
C12 C 0.0777(2) 0.8860(5) -0.0906(3) 0.091(2) Uani 1 1 d . . .
H12 H 0.0791 0.9251 -0.1203 0.110 Uiso 1 1 calc R . .
C13 C 0.04616(18) 0.8463(5) -0.0881(3) 0.0721(18) Uani 1 1 d . . .
C14 C 0.01518(19) 0.8611(5) -0.1330(3) 0.082(2) Uani 1 1 d . . .
C15 C -0.01907(19) 0.7609(7) -0.0842(3) 0.102(3) Uani 1 1 d . . .
C16 C 0.01206(17) 0.7450(6) -0.0393(3) 0.089(2) Uani 1 1 d . . .
C17 C 0.01065(18) 0.6891(7) 0.0052(3) 0.117(3) Uani 1 1 d . . .
H17 H -0.0104 0.6614 0.0078 0.140 Uiso 1 1 calc R . .
C18 C 0.0411(2) 0.6736(7) 0.0470(3) 0.114(3) Uani 1 1 d . . .
H18 H 0.0398 0.6363 0.0776 0.137 Uiso 1 1 calc R . .
C19 C 0.07219(17) 0.7112(5) 0.0441(3) 0.082(2) Uani 1 1 d . . .
C20 C 0.10351(19) 0.6895(6) 0.0884(3) 0.090(2) Uani 1 1 d . . .
C21 C 0.07485(16) 0.7694(5) 0.0000(3) 0.0692(17) Uani 1 1 d . . .
C22 C 0.04397(16) 0.7878(5) -0.0427(3) 0.0719(18) Uani 1 1 d . . .
C23 C -0.04383(15) 0.8145(5) -0.1801(3) 0.0739(18) Uani 1 1 d . . .
C24 C -0.04172(16) 0.7557(5) -0.2234(3) 0.0765(19) Uani 1 1 d . . .
H24 H -0.0225 0.7181 -0.2202 0.092 Uiso 1 1 calc R . .
C25 C -0.06838(15) 0.7532(4) -0.2713(3) 0.0691(17) Uani 1 1 d . . .
C26 C -0.09611(15) 0.8123(5) -0.2746(3) 0.0724(18) Uani 1 1 d . . .
H26 H -0.1145 0.8110 -0.3066 0.087 Uiso 1 1 calc R . .
C27 C -0.09690(15) 0.8718(5) -0.2322(3) 0.0693(17) Uani 1 1 d . . .
C28 C -0.07017(16) 0.8740(5) -0.1841(3) 0.0762(19) Uani 1 1 d . . .
H28 H -0.0702 0.9152 -0.1551 0.091 Uiso 1 1 calc R . .
C29 C -0.0668(2) 0.6911(5) -0.3185(3) 0.084(2) Uani 1 1 d . . .
C30 C -0.1267(2) 0.9385(7) -0.2394(4) 0.098(2) Uani 1 1 d . . .
C31 C 0.16767(12) 0.8696(4) 0.4540(2) 0.0572(15) Uani 1 1 d . . .
C32 C 0.13454(14) 0.9025(4) 0.4554(3) 0.0657(17) Uani 1 1 d . . .
H32 H 0.1241 0.9438 0.4284 0.079 Uiso 1 1 calc R . .
C33 C 0.11724(13) 0.8730(5) 0.4977(3) 0.0690(18) Uani 1 1 d . . .
C34 C 0.13239(14) 0.8143(4) 0.5384(3) 0.0712(19) Uani 1 1 d . . .
H34 H 0.1203 0.7960 0.5667 0.085 Uiso 1 1 calc R . .
C35 C 0.16572(13) 0.7817(4) 0.5378(2) 0.0556(15) Uani 1 1 d . . .
C36 C 0.18301(13) 0.8113(4) 0.4951(2) 0.0579(15) Uani 1 1 d . . .
H36 H 0.2056 0.7908 0.4946 0.070 Uiso 1 1 calc R . .
C37 C 0.18668(14) 0.9014(4) 0.4086(2) 0.0587(16) Uani 1 1 d . . .
C38 C 0.18316(14) 0.7195(4) 0.5818(3) 0.0615(16) Uani 1 1 d . . .
C39 C 0.05400(16) 0.8763(5) 0.4597(3) 0.0757(19) Uani 1 1 d . . .
C40 C 0.01998(15) 0.9168(4) 0.4593(3) 0.0670(17) Uani 1 1 d . . .
C41 C -0.00882(17) 0.8897(5) 0.4202(3) 0.081(2) Uani 1 1 d . . .
H41 H -0.0067 0.8466 0.3933 0.098 Uiso 1 1 calc R . .
C42 C 0.04246(15) 1.0710(5) 0.5786(3) 0.077(2) Uani 1 1 d . . .
H42 H 0.0622 1.0878 0.6058 0.092 Uiso 1 1 calc R . .
C43 C 0.04578(14) 1.0106(4) 0.5390(3) 0.0624(17) Uani 1 1 d . . .
C44 C 0.08136(15) 0.9736(5) 0.5386(3) 0.0651(18) Uani 1 1 d . . .
C45 C 0.01651(13) 0.9812(4) 0.4990(3) 0.0589(16) Uani 1 1 d . . .
N1 N 0.13421(14) 0.7355(4) 0.0833(2) 0.0781(16) Uani 1 1 d . . .
N2 N -0.01504(13) 0.8143(4) -0.1293(2) 0.0724(15) Uani 1 1 d . . .
N3 N 0.08242(12) 0.9092(4) 0.4998(2) 0.0662(15) Uani 1 1 d . . .
O1 O 0.24125(10) 0.8207(3) 0.29768(16) 0.0632(11) Uani 1 1 d . . .
O2 O 0.19257(10) 0.8947(3) 0.26049(17) 0.0730(12) Uani 1 1 d . . .
O3 O 0.22394(10) 0.4899(3) 0.13819(19) 0.0757(12) Uani 1 1 d . . .
O4 O 0.27044(11) 0.5640(3) 0.1863(2) 0.0810(13) Uani 1 1 d . . .
O5 O -0.04005(15) 0.6538(4) -0.3221(3) 0.127(2) Uani 1 1 d . . .
O6 O -0.09545(14) 0.6864(4) -0.3558(2) 0.1186(19) Uani 1 1 d . . .
H6A H -0.0931 0.6509 -0.3809 0.178 Uiso 1 1 calc R . .
O7 O -0.15213(12) 0.9221(3) -0.2786(2) 0.0880(14) Uani 1 1 d . . .
O8 O -0.1244(2) 1.0018(6) -0.2094(4) 0.197(4) Uani 1 1 d . . .
O9 O 0.10388(13) 0.6392(5) 0.1270(2) 0.126(2) Uani 1 1 d . . .
O10 O 0.16563(14) 0.8231(4) 0.0363(2) 0.1111(18) Uani 1 1 d . . .
O11 O 0.01544(15) 0.9119(4) -0.1718(2) 0.121(2) Uani 1 1 d . . .
O12 O -0.04707(14) 0.7283(5) -0.0828(2) 0.156(3) Uani 1 1 d . . .
O13 O 0.21646(10) 0.8702(3) 0.40931(19) 0.0896(15) Uani 1 1 d . . .
O14 O 0.17253(10) 0.9573(3) 0.37370(18) 0.0760(13) Uani 1 1 d . . .
O15 O 0.21411(9) 0.6985(3) 0.57949(16) 0.0690(12) Uani 1 1 d . . .
O16 O 0.16765(12) 0.6913(4) 0.6185(2) 0.111(2) Uani 1 1 d . . .
O17 O 0.10763(11) 1.0003(4) 0.5692(2) 0.0979(17) Uani 1 1 d . . .
O18 O 0.05796(12) 0.8199(4) 0.4268(3) 0.1126(19) Uani 1 1 d . . .
N4 N 0.1689(4) 0.5949(12) 0.7211(5) 0.303(10) Uani 1 1 d . . .
H4A H 0.1797 0.6004 0.6908 0.364 Uiso 1 1 calc R . .
H4B H 0.1774 0.5478 0.7422 0.364 Uiso 1 1 calc R . .
N5 N 0.2190(6) 0.0189(11) 0.1451(7) 0.282(8) Uani 1 1 d D . .
C47 C 0.1721(4) 0.6830(11) 0.7598(7) 0.229(6) Uani 1 1 d U . .
H47A H 0.1502 0.6937 0.7719 0.344 Uiso 1 1 calc R . .
H47B H 0.1775 0.7317 0.7373 0.344 Uiso 1 1 calc R . .
H47C H 0.1906 0.6760 0.7932 0.344 Uiso 1 1 calc R . .
C50 C 0.1961(5) -0.0033(14) 0.0884(9) 0.276(9) Uani 1 1 d DU . .
C46 C 0.1281(7) 0.591(2) 0.7017(12) 0.412(16) Uani 1 1 d U . .
H46A H 0.1191 0.5418 0.7196 0.619 Uiso 1 1 calc R . .
H46B H 0.1221 0.5849 0.6604 0.619 Uiso 1 1 calc R . .
H46C H 0.1179 0.6439 0.7130 0.619 Uiso 1 1 calc R . .
O19 O 0.1027(3) 0.5906(7) 0.9486(3) 0.186(3) Uani 1 1 d . . .
N6 N 0.0965(4) 0.4590(14) 0.9838(10) 0.318(9) Uani 1 1 d D . .
C49 C 0.2011(6) 0.0920(18) 0.1650(8) 0.302(12) Uani 1 1 d D . .
C53 C 0.1305(6) 0.4671(17) 1.0223(10) 0.333(11) Uani 1 1 d DU . .
C51 C 0.0849(6) 0.5258(18) 0.9322(10) 0.260(10) Uani 1 1 d U . .
O20 O 0.2761(4) -0.0098(10) 0.2146(6) 0.308(5) Uani 1 1 d D . .
C52 C 0.0952(8) 0.3647(19) 0.9543(12) 0.412(16) Uani 1 1 d DU . .
C48 C 0.2553(6) -0.0428(17) 0.1808(10) 0.308(5) Uani 1 1 d DU . .

loop_
_atom_site_aniso_label
_atom_site_aniso_U_11
_atom_site_aniso_U_22
_atom_site_aniso_U_33
_atom_site_aniso_U_23
_atom_site_aniso_U_13
_atom_site_aniso_U_12
Zn1 0.0297(3) 0.0607(4) 0.0642(4) 0.0121(3) -0.0003(3) 0.0096(3)
Zn2 0.0361(3) 0.0619(5) 0.0695(4) 0.0083(4) 0.0010(3) 0.0091(3)
C1 0.053(3) 0.069(4) 0.057(3) -0.004(3) -0.010(3) 0.008(3)
C2 0.040(3) 0.063(4) 0.067(4) -0.006(3) -0.016(3) 0.009(3)
C3 0.046(3) 0.061(4) 0.070(4) -0.008(3) -0.016(3) 0.009(3)
C4 0.053(4) 0.072(5) 0.080(4) -0.018(3) -0.031(3) 0.009(3)
C5 0.052(4) 0.080(5) 0.071(4) -0.003(4) -0.032(3) 0.016(3)
C6 0.050(4) 0.078(5) 0.081(4) -0.014(4) -0.022(3) 0.016(3)
C7 0.046(3) 0.068(4) 0.065(4) -0.006(3) 0.001(3) -0.001(3)
C8 0.056(4) 0.064(4) 0.063(4) -0.002(3) -0.004(3) 0.001(3)
C9 0.063(5) 0.071(5) 0.092(5) 0.001(4) -0.022(4) -0.004(4)
C10 0.053(4) 0.064(5) 0.075(4) -0.003(3) -0.029(3) 0.005(3)
C11 0.071(5) 0.078(5) 0.100(5) 0.018(4) -0.034(4) -0.006(4)
C12 0.089(6) 0.073(5) 0.098(5) 0.009(4) -0.018(4) -0.002(4)
C13 0.066(4) 0.068(5) 0.068(4) -0.001(3) -0.020(3) 0.016(4)
C14 0.071(5) 0.082(6) 0.078(5) -0.001(4) -0.023(4) 0.010(4)
C15 0.047(4) 0.170(9) 0.079(5) 0.016(5) -0.015(4) 0.014(5)
C16 0.045(4) 0.138(7) 0.072(4) 0.018(5) -0.014(3) 0.014(4)
C17 0.050(4) 0.199(10) 0.092(5) 0.049(6) -0.008(4) -0.002(5)
C18 0.059(5) 0.188(10) 0.080(5) 0.045(5) -0.022(4) -0.002(5)
C19 0.050(4) 0.109(6) 0.075(4) 0.009(4) -0.022(3) 0.017(4)
C20 0.055(4) 0.111(7) 0.092(6) 0.007(5) -0.014(4) 0.012(4)
C21 0.050(4) 0.080(5) 0.064(4) -0.004(3) -0.025(3) 0.014(3)
C22 0.053(4) 0.081(5) 0.070(4) -0.012(4) -0.018(3) 0.017(3)
C23 0.043(3) 0.088(5) 0.077(4) 0.003(4) -0.022(3) 0.015(3)
C24 0.051(4) 0.089(5) 0.082(4) -0.004(4) -0.007(3) 0.019(3)
C25 0.045(3) 0.078(5) 0.073(4) -0.015(3) -0.016(3) 0.007(3)
C26 0.043(3) 0.092(5) 0.070(4) 0.004(4) -0.018(3) 0.012(3)
C27 0.046(3) 0.084(5) 0.069(4) -0.007(4) -0.010(3) 0.021(3)
C28 0.064(4) 0.085(5) 0.067(4) -0.009(4) -0.017(3) 0.027(4)
C29 0.063(5) 0.097(6) 0.081(5) -0.016(4) -0.010(4) 0.005(4)
C30 0.079(6) 0.114(8) 0.090(6) -0.001(5) -0.008(5) 0.028(5)
C31 0.031(3) 0.075(4) 0.068(4) 0.019(3) 0.016(3) 0.021(3)
C32 0.042(3) 0.079(5) 0.078(4) 0.027(3) 0.017(3) 0.029(3)
C33 0.030(3) 0.094(5) 0.085(4) 0.025(4) 0.016(3) 0.024(3)
C34 0.043(3) 0.097(5) 0.078(4) 0.037(4) 0.023(3) 0.030(3)
C35 0.031(3) 0.071(4) 0.063(3) 0.019(3) 0.005(3) 0.020(3)
C36 0.028(3) 0.075(4) 0.073(4) 0.018(3) 0.016(3) 0.020(3)
C37 0.035(3) 0.075(4) 0.066(4) 0.012(3) 0.010(3) 0.017(3)
C38 0.044(3) 0.070(4) 0.069(4) 0.011(3) 0.008(3) 0.024(3)
C39 0.041(3) 0.089(5) 0.098(5) 0.006(4) 0.016(4) 0.031(4)
C40 0.040(3) 0.075(5) 0.087(5) 0.017(4) 0.015(3) 0.023(3)
C41 0.052(4) 0.097(6) 0.096(5) 0.005(4) 0.015(4) 0.026(4)
C42 0.034(3) 0.103(6) 0.090(5) 0.013(4) 0.006(3) 0.021(3)
C43 0.036(3) 0.076(5) 0.079(4) 0.024(4) 0.021(3) 0.027(3)
C44 0.037(3) 0.097(6) 0.063(4) 0.024(4) 0.014(3) 0.028(3)
C45 0.029(3) 0.074(4) 0.077(4) 0.028(3) 0.018(3) 0.021(3)
N1 0.059(3) 0.087(4) 0.073(3) -0.003(3) -0.025(3) 0.012(3)
N2 0.052(3) 0.090(4) 0.063(3) -0.002(3) -0.020(3) 0.020(3)
N3 0.033(3) 0.091(4) 0.076(3) 0.024(3) 0.014(3) 0.029(3)
O1 0.045(2) 0.071(3) 0.063(2) -0.008(2) -0.0176(19) 0.0096(19)
O2 0.055(2) 0.066(3) 0.086(3) -0.015(2) -0.016(2) 0.024(2)
O3 0.053(2) 0.063(3) 0.099(3) -0.017(3) -0.015(2) 0.010(2)
O4 0.050(3) 0.076(3) 0.108(3) -0.021(3) -0.008(2) 0.006(2)
O5 0.086(4) 0.130(5) 0.157(5) -0.061(4) 0.003(4) 0.022(4)
O6 0.094(4) 0.135(5) 0.110(4) -0.049(4) -0.020(3) 0.007(3)
O7 0.055(3) 0.092(4) 0.104(4) 0.018(3) -0.018(3) 0.015(2)
O8 0.165(7) 0.190(8) 0.192(7) -0.093(6) -0.075(5) 0.117(6)
O9 0.075(4) 0.170(6) 0.114(4) 0.063(4) -0.026(3) 0.000(4)
O10 0.070(3) 0.114(5) 0.127(4) 0.034(3) -0.037(3) -0.019(3)
O11 0.105(4) 0.123(5) 0.107(4) 0.045(4) -0.050(3) -0.016(3)
O12 0.050(3) 0.285(9) 0.117(4) 0.082(5) -0.025(3) -0.012(4)
O13 0.057(3) 0.120(4) 0.098(3) 0.043(3) 0.031(2) 0.044(3)
O14 0.046(2) 0.099(4) 0.085(3) 0.043(3) 0.018(2) 0.030(2)
O15 0.039(2) 0.088(3) 0.080(3) 0.025(2) 0.012(2) 0.032(2)
O16 0.075(3) 0.161(5) 0.106(4) 0.072(4) 0.041(3) 0.052(3)
O17 0.039(2) 0.154(5) 0.098(3) 0.000(3) 0.005(2) 0.032(3)
O18 0.056(3) 0.130(5) 0.150(5) -0.027(4) 0.017(3) 0.038(3)
N4 0.36(2) 0.41(2) 0.175(10) 0.100(13) 0.128(12) 0.259(18)
N5 0.44(3) 0.201(15) 0.189(12) 0.040(11) 0.011(15) 0.082(16)
C47 0.232(8) 0.234(8) 0.226(8) -0.002(5) 0.057(5) 0.009(5)
C50 0.275(10) 0.272(10) 0.276(10) -0.004(5) 0.041(5) 0.005(5)
C46 0.413(17) 0.414(17) 0.413(17) 0.004(5) 0.087(6) -0.006(5)
O19 0.226(10) 0.186(9) 0.138(6) 0.023(6) 0.014(6) 0.020(8)
N6 0.208(15) 0.27(2) 0.41(2) -0.009(19) -0.077(15) 0.060(13)
C49 0.32(2) 0.39(3) 0.193(16) 0.029(18)