
#######################################################################
#
#                 Cambridge Crystallographic Data Centre
#                                CCDC
#
#######################################################################
#
# If this CIF has been generated from an entry in the Cambridge
# Structural Database, then it will include bibliographic, chemical,
# crystal, experimental, refinement or atomic coordinate data resulting
# from the CCDC's data processing and validation procedures.
#
#######################################################################

data_CSD_CIF_FOPCAO
_audit_creation_date 1988-06-10
_audit_creation_method CSD-ConQuest-V1
_database_code_CSD FOPCAO
_database_code_depnum_ccdc_archive 'CCDC 1159189'
_chemical_formula_sum 'C8 H16 S4'
_chemical_formula_moiety
;
C8 H16 S4
;
_journal_coden_Cambridge 4
_journal_volume 109
_journal_year 1987
_journal_page_first 4328
_journal_name_full 'J.Am.Chem.Soc. '
loop_
_publ_author_name
"R.E.Wolf Junior"
"J.A.R.Hartman"
"J.M.E.Storey"
"B.M.Foxman"
"S.R.Cooper"
_chemical_name_systematic
;
Tetrathia-12-crown-4
;
_chemical_name_common
;
1,4,7,10-Tetrathiacyclododecane; Teaching Subset: Fundamental Chemistry, 
Symmetry
;
_chemical_melting_point 488
_cell_volume   2311.253
_exptl_crystal_density_diffrn 1.38
_exptl_special_details
;
Melting point range 488-491K

;
_diffrn_ambient_temperature ?
_diffrn_special_details
;
The study was carried out at room temperature,in the range 283-303K

;
#These two values have been output from a single CSD field.
_refine_ls_R_factor_gt 0.0336
_refine_ls_wR_factor_gt 0.0336
_symmetry_cell_setting monoclinic
_symmetry_space_group_name_H-M 'C c'
_symmetry_Int_Tables_number 9
loop_
_symmetry_equiv_pos_site_id
_symmetry_equiv_pos_as_xyz
1 x,y,z
2 1/2+x,1/2+y,z
3 x,-y,1/2+z
4 1/2+x,1/2-y,1/2+z
_cell_length_a 13.028(7)
_cell_length_b 12.884(5)
_cell_length_c 14.493(7)
_cell_angle_alpha 90
_cell_angle_beta 108.18(4)
_cell_angle_gamma 90
_cell_formula_units_Z 8
loop_
_atom_type_symbol
_atom_type_radius_bond
C 0.68
H 0.23
S 1.02
loop_
_atom_site_label
_atom_site_type_symbol
_atom_site_fract_x
_atom_site_fract_y
_atom_site_fract_z
S1 S 0.3714(1) 0.6638(1) 0.3429(1)
S2 S 0.1119(1) 0.8868(1) 0.1899(1)
S3 S 0.1751(1) 1.0779(1) 0.4570(1)
S4 S 0.4370(1) 0.8579(1) 0.6097(1)
C1 C 0.2383(4) 0.7217(4) 0.2886(4)
C2 C 0.2407(5) 0.8210(4) 0.2316(4)
C3 C 0.1012(4) 0.9427(4) 0.3004(4)
C4 C 0.1751(5) 1.0334(4) 0.3383(4)
C5 C 0.2487(4) 0.9729(4) 0.5335(4)
C6 C 0.3674(5) 0.9712(4) 0.5432(4)
C7 C 0.3831(4) 0.7559(4) 0.5213(3)
C8 C 0.4318(4) 0.7542(4) 0.4398(4)
H1 H 0.20830 0.73780 0.33960
H2 H 0.19300 0.67200 0.24530
H3 H 0.29260 0.86750 0.27280
H4 H 0.26240 0.80330 0.17610
H5 H 0.11800 0.88970 0.34950
H6 H 0.02810 0.96560 0.28870
H7 H 0.24740 1.01330 0.34240
H8 H 0.15250 1.08980 0.29320
H9 H 0.21740 0.90820 0.50570
H10 H 0.24140 0.98050 0.59700
H11 H 0.37500 0.97070 0.47940
H12 H 0.40050 1.03260 0.57710
H13 H 0.30660 0.76600 0.49390
H14 H 0.39690 0.69020 0.55410
H15 H 0.42530 0.82260 0.41220
H16 H 0.50690 0.73670 0.46690
S5 S 0.3261(1) 0.5336(1) 1.1182(1)
S6 S 0.5063(1) 0.7396(1) 0.9739(1)
S7 S 0.2276(1) 0.7187(1) 0.7006(1)
S8 S 0.0522(1) 0.5087(1) 0.8448(1)
C9 C 0.3824(4) 0.6467(4) 1.0774(4)
C10 C 0.4627(4) 0.6244(4) 1.0250(4)
C11 C 0.3847(4) 0.7704(4) 0.8744(4)
C12 C 0.3576(4) 0.6933(4) 0.7913(4)
C13 C 0.1348(4) 0.6715(4) 0.7622(4)
C14 C 0.1336(4) 0.5544(4) 0.7720(4)
C15 C 0.1341(4) 0.5492(4) 0.9654(4)
C16 C 0.2361(4) 0.4845(4) 1.0047(4)
H17 H 0.41780 0.68810 1.13340
H18 H 0.32390 0.68550 1.03450
H19 H 0.52520 0.59270 1.06980
H20 H 0.43030 0.57700 0.97300
H21 H 0.39440 0.83740 0.84920
H22 H 0.32500 0.77300 0.89980
H23 H 0.41280 0.69670 0.76030
H24 H 0.35610 0.62490 0.81710
H25 H 0.06330 0.69410 0.72620
H26 H 0.15530 0.70130 0.82610
H27 H 0.10540 0.52500 0.70820
H28 H 0.20650 0.53100 0.80150
H29 H 0.09180 0.54280 1.00880
H30 H 0.15440 0.62050 0.96260
H31 H 0.21570 0.41490 1.01490
H32 H 0.27380 0.48410 0.95740
#END
