####################################################################### 
# 
# This file contains crystal structure data downloaded from the 
# Cambridge Structural Database (CSD) hosted by the Cambridge 
# Crystallographic Data Centre (CCDC).
# 
# Full information about CCDC data access policies and citation 
# guidelines are available at http://www.ccdc.cam.ac.uk/access/V1 
# 
# Audit and citation data items may have been added by the CCDC. 
# Please retain this information to preserve the provenance of 
# this file and to allow appropriate attribution of the data. 
# 
#######################################################################

data_jcc061
_audit_block_doi                 10.5517/ccrv90w
_database_code_depnum_ccdc_archive 'CCDC 710458'
loop_
_citation_id
_citation_doi
_citation_year
1 10.1039/b816275a 2009
_audit_update_record             
;
2008-11-20 deposited with the CCDC.	2024-07-10 downloaded from the CCDC.
;

_audit_creation_method           SHELXL-97
_chemical_name_systematic        
;
?
;
_chemical_name_common            ?
_chemical_melting_point          ?
_chemical_formula_moiety         
'C40 H36 Cu F6 N6 O P S3,0.333(C3 H6 O),0.111(H2 O)'
_chemical_formula_sum            'C41 H38.222 Cu F6 N6 O1.444 P S3'
_chemical_formula_weight         942.80

loop_
_atom_type_symbol
_atom_type_description
_atom_type_scat_dispersion_real
_atom_type_scat_dispersion_imag
_atom_type_scat_source
C C 0.0033 0.0016 'International Tables Vol C Tables 4.2.6.8 and 6.1.1.4'
H H 0.0000 0.0000 'International Tables Vol C Tables 4.2.6.8 and 6.1.1.4'
N N 0.0061 0.0033 'International Tables Vol C Tables 4.2.6.8 and 6.1.1.4'
F F 0.0171 0.0103 'International Tables Vol C Tables 4.2.6.8 and 6.1.1.4'
P P 0.1023 0.0942 'International Tables Vol C Tables 4.2.6.8 and 6.1.1.4'
S S 0.1246 0.1234 'International Tables Vol C Tables 4.2.6.8 and 6.1.1.4'
Cu Cu 0.3201 1.2651 'International Tables Vol C Tables 4.2.6.8 and 6.1.1.4'
O O 0.0106 0.0060 'International Tables Vol C Tables 4.2.6.8 and 6.1.1.4'

_symmetry_cell_setting           Trigonal
_symmetry_space_group_name_H-M   'R -3'
_symmetry_space_group_name_Hall  '-R 3'

loop_
_symmetry_equiv_pos_as_xyz
'x, y, z'
'-y, x-y, z'
'-x+y, -x, z'
'x+2/3, y+1/3, z+1/3'
'-y+2/3, x-y+1/3, z+1/3'
'-x+y+2/3, -x+1/3, z+1/3'
'x+1/3, y+2/3, z+2/3'
'-y+1/3, x-y+2/3, z+2/3'
'-x+y+1/3, -x+2/3, z+2/3'
'-x, -y, -z'
'y, -x+y, -z'
'x-y, x, -z'
'-x+2/3, -y+1/3, -z+1/3'
'y+2/3, -x+y+1/3, -z+1/3'
'x-y+2/3, x+1/3, -z+1/3'
'-x+1/3, -y+2/3, -z+2/3'
'y+1/3, -x+y+2/3, -z+2/3'
'x-y+1/3, x+2/3, -z+2/3'

_cell_length_a                   38.012(1)
_cell_length_b                   38.012(1)
_cell_length_c                   15.523(1)
_cell_angle_alpha                90.00
_cell_angle_beta                 90.00
_cell_angle_gamma                120.00
_cell_volume                     19424.4(14)
_cell_formula_units_Z            18
_cell_measurement_temperature    115(2)
_cell_measurement_reflns_used    22671
_cell_measurement_theta_min      2.59
_cell_measurement_theta_max      26.0

_exptl_crystal_description       Prism
_exptl_crystal_colour            Colourless
_exptl_crystal_size_max          0.30
_exptl_crystal_size_mid          0.12
_exptl_crystal_size_min          0.10
_exptl_crystal_density_meas      ?
_exptl_crystal_density_diffrn    1.451
_exptl_crystal_density_method    'not measured'
_exptl_crystal_F_000             8708
_exptl_absorpt_coefficient_mu    0.756
_exptl_absorpt_correction_type   None
_exptl_absorpt_correction_T_min  ?
_exptl_absorpt_correction_T_max  ?
_exptl_absorpt_process_details   ?

_exptl_special_details           
;
?
;

_diffrn_ambient_temperature      115(2)
_diffrn_radiation_wavelength     0.71069
_diffrn_radiation_type           MoK\a
_diffrn_radiation_source         'fine-focus sealed tube'
_diffrn_radiation_monochromator  graphite
_diffrn_orient_matrix_type       'by Nonius Collect from scalepack cell'
_diffrn_measurement_device       '95mm CCD camera on \k-goniostat'
_diffrn_measurement_device_type  KappaCCD
_diffrn_measurement_method       CCD
_diffrn_detector_area_resol_mean ?
_diffrn_standards_number         ?
_diffrn_standards_interval_count ?
_diffrn_standards_interval_time  ?
_diffrn_standards_decay_%        ?
_diffrn_reflns_number            22671
_diffrn_reflns_av_R_equivalents  0.0603
_diffrn_reflns_av_sigmaI/netI    0.0671
_diffrn_reflns_limit_h_min       -36
_diffrn_reflns_limit_h_max       46
_diffrn_reflns_limit_k_min       -42
_diffrn_reflns_limit_k_max       37
_diffrn_reflns_limit_l_min       -18
_diffrn_reflns_limit_l_max       18
_diffrn_reflns_theta_min         2.59
_diffrn_reflns_theta_max         26.0
_reflns_number_total             8302
_reflns_number_gt                5780
_reflns_threshold_expression     >2sigma(I)

_computing_data_collection       ?
_computing_cell_refinement       ?
_computing_data_reduction        ?
_computing_structure_solution    ?
_computing_structure_refinement  'SHELXL-97 (Sheldrick, 1997)'
_computing_molecular_graphics    ?
_computing_publication_material  ?

_refine_special_details          
;
Refinement of F^2^ against ALL reflections. The weighted R-factor wR and
goodness of fit S are based on F^2^, conventional R-factors R are based
on F, with F set to zero for negative F^2^. The threshold expression of
F^2^ > 2sigma(F^2^) is used only for calculating R-factors(gt) etc. and is
not relevant to the choice of reflections for refinement. R-factors based
on F^2^ are statistically about twice as large as those based on F, and R-
factors based on ALL data will be even larger.
In order to drive the refinement towards a meaningful model, 383 restrains
were used. They were applied to all disordered parts of the molecular
structure and concern bonding distances (DFIX instruction), flatness of
phenyl rings (FLAT instruction), rigid bond and isotropic restrains on
the anisotropic displacement parameters (DELU and ISOR instructions).
;

_refine_ls_structure_factor_coef Fsqd
_refine_ls_matrix_type           full
_refine_ls_weighting_scheme      calc
_refine_ls_weighting_details     
'calc w=1/[\s^2^(Fo^2^)+(0.0633P)^2^+63.2790P] where P=(Fo^2^+2Fc^2^)/3'
_atom_sites_solution_primary     direct
_atom_sites_solution_secondary   difmap
_atom_sites_solution_hydrogens   geom
_refine_ls_hydrogen_treatment    mixed
_refine_ls_extinction_method     none
_refine_ls_extinction_coef       ?
_refine_ls_number_reflns         8302
_refine_ls_number_parameters     677
_refine_ls_number_restraints     201
_refine_ls_R_factor_all          0.0876
_refine_ls_R_factor_gt           0.0520
_refine_ls_wR_factor_ref         0.1393
_refine_ls_wR_factor_gt          0.1219
_refine_ls_goodness_of_fit_ref   1.019
_refine_ls_restrained_S_all      1.013
_refine_ls_shift/su_max          0.001
_refine_ls_shift/su_mean         0.000

loop_
_atom_site_label
_atom_site_type_symbol
_atom_site_fract_x
_atom_site_fract_y
_atom_site_fract_z
_atom_site_U_iso_or_equiv
_atom_site_adp_type
_atom_site_occupancy
_atom_site_symmetry_multiplicity
_atom_site_calc_flag
_atom_site_refinement_flags
_atom_site_disorder_assembly
_atom_site_disorder_group
Cu1 Cu 0.247246(12) 0.007668(13) 0.60735(3) 0.02597(13) Uani 1 1 d . . .
O1 O 0.21152(8) -0.00871(8) 0.49203(16) 0.0374(6) Uani 1 1 d D . .
H11 H 0.2128(10) 0.0003(11) 0.4333(11) 0.049 Uiso 1 1 d D . .
H12 H 0.1849(5) -0.0200(11) 0.5168(19) 0.049 Uiso 1 1 d D . .
C1 C 0.16371(10) -0.04687(11) 0.7328(2) 0.0296(8) Uani 1 1 d . . .
H1 H 0.1507 -0.0581 0.7898 0.038 Uiso 1 1 calc R . .
N1A N 0.18843(8) -0.06520(8) 0.71472(17) 0.0259(6) Uani 1 1 d . . .
N2A N 0.21656(8) -0.05276(8) 0.64990(18) 0.0254(6) Uani 1 1 d . . .
C2A C 0.18601(11) -0.09705(11) 0.7582(2) 0.0313(8) Uani 1 1 d . . .
H2A H 0.1685 -0.1106 0.8054 0.041 Uiso 1 1 calc R . .
C3A C 0.21312(11) -0.10637(11) 0.7222(2) 0.0327(9) Uani 1 1 d . . .
H3A H 0.2185 -0.1273 0.7391 0.043 Uiso 1 1 calc R . .
C4A C 0.23139(10) -0.07841(10) 0.6548(2) 0.0259(8) Uani 1 1 d . . .
C5A C 0.26335(10) -0.07450(10) 0.5961(2) 0.0270(8) Uani 1 1 d . . .
C6A C 0.29215(11) -0.08452(11) 0.6259(2) 0.0310(8) Uani 1 1 d . . .
H6A H 0.2899 -0.0952 0.6823 0.040 Uiso 1 1 calc R . .
C7A C 0.32392(11) -0.07877(11) 0.5724(2) 0.0338(9) Uani 1 1 d . . .
H7A H 0.3435 -0.0855 0.5924 0.044 Uiso 1 1 calc R . .
C8A C 0.32722(11) -0.06349(11) 0.4908(2) 0.0319(8) Uani 1 1 d . . .
H8A H 0.3494 -0.0592 0.4553 0.041 Uiso 1 1 calc R . .
C9A C 0.26620(10) -0.06022(10) 0.5127(2) 0.0253(8) Uani 1 1 d . . .
H9A H 0.2461 -0.0545 0.4919 0.033 Uiso 1 1 calc R . .
C10A C 0.29828(11) -0.05407(10) 0.4591(2) 0.0277(8) Uani 1 1 d . . .
C11A C 0.30366(11) -0.03370(11) 0.3733(2) 0.0288(8) Uani 1 1 d . . .
H11A H 0.3330 -0.0151 0.3627 0.037 Uiso 1 1 calc R . .
H11B H 0.2901 -0.0173 0.3745 0.037 Uiso 1 1 calc R . .
S12A S 0.28275(3) -0.07019(3) 0.28592(6) 0.0260(2) Uani 1 1 d . . .
C13A C 0.29163(11) -0.03546(11) 0.1960(2) 0.0302(8) Uani 1 1 d . . .
H13A H 0.3214 -0.0183 0.1883 0.039 Uiso 1 1 calc R . .
H13B H 0.2807 -0.0520 0.1431 0.039 Uiso 1 1 calc R . .
N1B N 0.13033(8) -0.05937(9) 0.67273(19) 0.0318(7) Uani 1 1 d . . .
N2B N 0.13413(9) -0.05166(9) 0.58629(18) 0.0305(7) Uani 1 1 d . . .
C2B C 0.09061(11) -0.08008(12) 0.6974(3) 0.0398(10) Uani 1 1 d . . .
H2B H 0.0807 -0.0885 0.7542 0.052 Uiso 1 1 calc R . .
C3B C 0.06803(12) -0.08638(13) 0.6260(3) 0.0429(10) Uani 1 1 d . . .
H3B H 0.0392 -0.1002 0.6225 0.056 Uiso 1 1 calc R . .
C4B C 0.09563(11) -0.06839(11) 0.5579(2) 0.0329(9) Uani 1 1 d . A .
C5B C 0.08567(11) -0.06704(12) 0.4670(2) 0.0355(9) Uani 1 1 d D . .
C9B C 0.11388(11) -0.05737(11) 0.4006(2) 0.0344(9) Uani 1 1 d D A .
H9B H 0.1407 -0.0510 0.4147 0.045 Uiso 1 1 calc R . .
C10B C 0.10421(12) -0.05672(12) 0.3158(2) 0.0386(9) Uani 1 1 d D . .
C11B C 0.13532(12) -0.04739(12) 0.2450(3) 0.0390(9) Uani 1 1 d . A .
H11C H 0.1250 -0.0705 0.2044 0.051 Uiso 1 1 calc R . .
H11D H 0.1609 -0.0436 0.2706 0.051 Uiso 1 1 calc R . .
S12B S 0.14532(3) -0.00207(3) 0.18780(8) 0.0459(3) Uani 1 1 d . . .
C13B C 0.18472(12) 0.00113(13) 0.1163(3) 0.0422(10) Uani 1 1 d . A .
H13C H 0.1741 -0.0248 0.0847 0.055 Uiso 1 1 calc R . .
H13D H 0.1914 0.0228 0.0734 0.055 Uiso 1 1 calc R . .
C6B C 0.0455(2) -0.0797(3) 0.4441(6) 0.041(2) Uani 0.70 1 d PDU A 1
H6B H 0.0254 -0.0874 0.4877 0.053 Uiso 0.70 1 calc PR A 1
C7B C 0.0346(3) -0.0811(2) 0.3582(6) 0.045(2) Uani 0.70 1 d PD A 1
H7B H 0.0072 -0.0900 0.3435 0.058 Uiso 0.70 1 calc PR A 1
C8B C 0.0632(4) -0.0699(3) 0.2946(8) 0.039(2) Uani 0.70 1 d PD A 1
H8B H 0.0555 -0.0708 0.2361 0.050 Uiso 0.70 1 calc PR A 1
C6E C 0.0484(4) -0.0695(5) 0.4489(12) 0.054(7) Uani 0.30 1 d PDU A 2
H6E H 0.0296 -0.0740 0.4937 0.070 Uiso 0.30 1 calc PR A 2
C7E C 0.0397(6) -0.0654(5) 0.3646(12) 0.041(5) Uani 0.30 1 d PDU A 2
H7E H 0.0143 -0.0677 0.3509 0.053 Uiso 0.30 1 calc PR A 2
C8E C 0.0675(10) -0.0579(8) 0.300(2) 0.043(7) Uani 0.30 1 d PDU A 2
H8E H 0.0614 -0.0535 0.2429 0.055 Uiso 0.30 1 calc PR A 2
N1C N 0.18743(8) -0.00353(9) 0.74510(18) 0.0275(7) Uani 1 1 d . . .
N2C N 0.21063(9) 0.02264(9) 0.68225(18) 0.0285(7) Uani 1 1 d . . .
C2C C 0.18602(12) 0.01621(12) 0.8165(2) 0.0343(9) Uani 1 1 d . . .
H2C H 0.1715 0.0042 0.8680 0.045 Uiso 1 1 calc R . .
C3C C 0.20953(13) 0.05667(12) 0.7999(2) 0.0398(10) Uani 1 1 d . . .
H3C H 0.2150 0.0784 0.8380 0.052 Uiso 1 1 calc R . .
C4C C 0.22393(11) 0.05985(11) 0.7157(2) 0.0323(8) Uani 1 1 d . . .
C5C C 0.2513(3) 0.0981(4) 0.6712(6) 0.028(2) Uani 0.60 1 d PDU A 1
C6C C 0.2728(3) 0.1352(3) 0.7131(6) 0.038(2) Uani 0.60 1 d PDU A 1
H6C H 0.2707 0.1364 0.7739 0.050 Uiso 0.60 1 calc PR A 1
C7C C 0.2970(3) 0.1702(3) 0.6681(6) 0.049(2) Uani 0.60 1 d PDU A 1
H7C H 0.3107 0.1955 0.6977 0.063 Uiso 0.60 1 calc PR A 1
C8C C 0.3015(3) 0.1689(2) 0.5797(6) 0.0423(18) Uani 0.60 1 d PDU A 1
H8C H 0.3187 0.1932 0.5490 0.055 Uiso 0.60 1 calc PR A 1
C9C C 0.2553(3) 0.0975(3) 0.5816(6) 0.035(2) Uani 0.60 1 d PDU A 1
H9C H 0.2399 0.0726 0.5515 0.045 Uiso 0.60 1 calc PR A 1
C10C C 0.2810(2) 0.1323(3) 0.5358(5) 0.0340(16) Uani 0.60 1 d PDU A 1
C11C C 0.2864(3) 0.1312(2) 0.4386(5) 0.0395(16) Uani 0.60 1 d PU A 1
H11E H 0.3133 0.1539 0.4216 0.051 Uiso 0.60 1 calc PR A 1
H11F H 0.2654 0.1347 0.4085 0.051 Uiso 0.60 1 calc PR A 1
S12C S 0.28221(6) 0.08359(5) 0.40674(11) 0.0354(4) Uani 0.60 1 d PU A 1
C13C C 0.2997(3) 0.0942(3) 0.2965(7) 0.034(2) Uani 0.60 1 d PU A 1
H13E H 0.2923 0.1135 0.2712 0.045 Uiso 0.60 1 calc PR A 1
H13F H 0.3296 0.1070 0.2952 0.045 Uiso 0.60 1 calc PR A 1
C5D C 0.2443(5) 0.0934(6) 0.6524(12) 0.030(3) Uani 0.40 1 d PDU A 2
C6D C 0.2636(4) 0.1320(5) 0.6875(9) 0.037(3) Uani 0.40 1 d PDU A 2
H6D H 0.2629 0.1356 0.7479 0.048 Uiso 0.40 1 calc PR A 2
C7D C 0.2844(4) 0.1661(4) 0.6327(10) 0.040(3) Uani 0.40 1 d PDU A 2
H7D H 0.2971 0.1929 0.6550 0.051 Uiso 0.40 1 calc PR A 2
C8D C 0.2855(4) 0.1588(5) 0.5445(8) 0.044(3) Uani 0.40 1 d PDU A 2
H8D H 0.3007 0.1812 0.5071 0.057 Uiso 0.40 1 calc PR A 2
C9D C 0.2443(4) 0.0876(4) 0.5658(10) 0.030(2) Uani 0.40 1 d PDU A 2
H9D H 0.2298 0.0609 0.5431 0.039 Uiso 0.40 1 calc PR A 2
C10D C 0.2653(3) 0.1203(4) 0.5103(7) 0.032(2) Uani 0.40 1 d PDU A 2
C11D C 0.2675(3) 0.1124(4) 0.4151(7) 0.037(2) Uani 0.40 1 d PU A 2
H11G H 0.2714 0.1359 0.3804 0.048 Uiso 0.40 1 calc PR A 2
H11H H 0.2421 0.0880 0.3962 0.048 Uiso 0.40 1 calc PR A 2
S12D S 0.31056(11) 0.10454(11) 0.40175(18) 0.0477(7) Uani 0.40 1 d PU A 2
C13D C 0.3133(4) 0.1008(5) 0.2860(11) 0.032(3) Uani 0.40 1 d PU A 2
H13G H 0.3084 0.1216 0.2590 0.041 Uiso 0.40 1 calc PR A 2
H13H H 0.3412 0.1073 0.2705 0.041 Uiso 0.40 1 calc PR A 2
C14 C 0.27396(11) -0.00773(11) 0.2024(2) 0.0301(8) Uani 1 1 d . . .
C15 C 0.23723(11) -0.01755(11) 0.1639(2) 0.0318(8) Uani 1 1 d . A .
H15 H 0.2215 -0.0434 0.1375 0.041 Uiso 1 1 calc R . .
C16 C 0.22306(11) 0.00988(11) 0.1634(2) 0.0325(9) Uani 1 1 d . . .
C17 C 0.24535(12) 0.04673(11) 0.2060(2) 0.0338(9) Uani 1 1 d . A .
H17 H 0.2352 0.0651 0.2079 0.044 Uiso 1 1 calc R . .
C18 C 0.28186(12) 0.05734(11) 0.2456(2) 0.0350(9) Uani 1 1 d . . .
C19 C 0.29630(11) 0.02990(11) 0.2425(2) 0.0320(8) Uani 1 1 d . A .
H19 H 0.3217 0.0371 0.2681 0.042 Uiso 1 1 calc R . .
P1 P 0.12697(3) -0.10807(4) 0.97827(7) 0.0509(3) Uani 1 1 d . . .
F1 F 0.14711(9) -0.10729(10) 1.06705(17) 0.0799(10) Uani 1 1 d . . .
F2 F 0.10707(8) -0.10778(8) 0.88727(16) 0.0620(7) Uani 1 1 d . . .
F3 F 0.10968(9) -0.08257(10) 1.0202(2) 0.0894(11) Uani 1 1 d . . .
F4 F 0.14431(10) -0.13452(8) 0.93563(18) 0.0745(9) Uani 1 1 d . . .
F5 F 0.16731(7) -0.06753(7) 0.94814(16) 0.0545(7) Uani 1 1 d . . .
F6 F 0.08703(9) -0.14909(9) 1.00389(17) 0.0871(11) Uani 1 1 d . . .
O100 O 0.1214(3) 0.0946(3) 0.1367(6) 0.062(3) Uani 0.33 1 d P . .
C100 C 0.1031(4) 0.0822(4) 0.0716(10) 0.055(4) Uani 0.33 1 d P . .
C101 C 0.0833(4) 0.1029(4) 0.0293(8) 0.047(3) Uani 0.33 1 d P . .
H20A H 0.0805 0.1207 0.0709 0.062 Uiso 0.33 1 calc PR . .
H20B H 0.0564 0.0825 0.0083 0.062 Uiso 0.33 1 calc PR . .
H20C H 0.1000 0.1191 -0.0193 0.062 Uiso 0.33 1 calc PR . .
C102 C 0.1014(4) 0.0467(4) 0.0207(10) 0.058(4) Uani 0.33 1 d P . .
H20D H 0.1165 0.0569 -0.0332 0.076 Uiso 0.33 1 calc PR . .
H20E H 0.0730 0.0267 0.0078 0.076 Uiso 0.33 1 calc PR . .
H20F H 0.1135 0.0338 0.0552 0.076 Uiso 0.33 1 calc PR . .
O200 O 0.0000(6) 0.0000(5) 0.1134(18) 0.112(8) Uani 0.33 3 d SPRU . .

loop_
_atom_site_aniso_label
_atom_site_aniso_U_11
_atom_site_aniso_U_22
_atom_site_aniso_U_33
_atom_site_aniso_U_23
_atom_site_aniso_U_13
_atom_site_aniso_U_12
Cu1 0.0224(2) 0.0273(2) 0.0271(2) -0.00071(18) -0.00006(18) 0.01156(19)
O1 0.0303(14) 0.0498(17) 0.0283(14) -0.0026(13) -0.0036(11) 0.0171(13)
C1 0.0228(18) 0.036(2) 0.0278(19) 0.0005(16) 0.0029(15) 0.0131(16)
N1A 0.0243(15) 0.0274(15) 0.0215(15) 0.0008(12) 0.0038(12) 0.0096(13)
N2A 0.0225(15) 0.0264(15) 0.0242(15) -0.0002(12) 0.0019(12) 0.0099(13)
C2A 0.034(2) 0.0260(19) 0.025(2) 0.0033(15) 0.0026(16) 0.0090(16)
C3A 0.038(2) 0.029(2) 0.029(2) 0.0013(16) 0.0008(17) 0.0148(17)
C4A 0.0227(18) 0.0237(18) 0.0272(19) -0.0049(15) -0.0040(15) 0.0085(15)
C5A 0.0283(19) 0.0226(18) 0.029(2) -0.0054(15) -0.0042(15) 0.0118(15)
C6A 0.036(2) 0.030(2) 0.029(2) -0.0030(16) -0.0028(16) 0.0183(17)
C7A 0.036(2) 0.040(2) 0.036(2) -0.0052(18) -0.0042(17) 0.0263(19)
C8A 0.032(2) 0.035(2) 0.034(2) -0.0047(17) 0.0023(16) 0.0206(17)
C9A 0.0241(18) 0.0245(18) 0.0281(19) -0.0043(15) -0.0036(14) 0.0127(15)
C10A 0.0301(19) 0.0272(18) 0.0281(19) -0.0013(15) 0.0016(15) 0.0159(16)
C11A 0.033(2) 0.0300(19) 0.0272(19) -0.0021(15) 0.0044(16) 0.0183(17)
S12A 0.0253(4) 0.0256(4) 0.0279(5) 0.0002(4) 0.0015(4) 0.0134(4)
C13A 0.036(2) 0.034(2) 0.0269(19) 0.0042(16) 0.0045(16) 0.0225(18)
N1B 0.0205(15) 0.0410(18) 0.0274(17) 0.0002(14) 0.0032(13) 0.0106(14)
N2B 0.0261(16) 0.0390(18) 0.0255(16) -0.0023(13) 0.0005(13) 0.0157(14)
C2B 0.024(2) 0.050(3) 0.037(2) 0.0048(19) 0.0087(17) 0.0126(19)
C3B 0.024(2) 0.054(3) 0.044(2) -0.001(2) 0.0006(18) 0.0141(19)
C4B 0.0234(19) 0.035(2) 0.036(2) -0.0014(17) -0.0011(16) 0.0120(17)
C5B 0.0244(19) 0.041(2) 0.038(2) -0.0015(18) -0.0047(17) 0.0135(17)
C9B 0.0261(19) 0.038(2) 0.037(2) -0.0030(17) -0.0050(16) 0.0144(17)
C10B 0.036(2) 0.043(2) 0.035(2) -0.0034(18) -0.0041(18) 0.0190(19)
C11B 0.034(2) 0.034(2) 0.047(2) -0.0028(18) -0.0040(18) 0.0162(18)
S12B 0.0374(6) 0.0358(6) 0.0690(8) 0.0048(5) 0.0063(5) 0.0216(5)
C13B 0.034(2) 0.0