####################################################################### 
# 
# This file contains crystal structure data downloaded from the 
# Cambridge Structural Database (CSD) hosted by the Cambridge 
# Crystallographic Data Centre (CCDC).
# 
# Full information about CCDC data access policies and citation 
# guidelines are available at http://www.ccdc.cam.ac.uk/access/V1 
# 
# Audit and citation data items may have been added by the CCDC. 
# Please retain this information to preserve the provenance of 
# this file and to allow appropriate attribution of the data. 
# 
#######################################################################

data_p43_sq_d
_audit_block_doi                 10.5517/cc12bv3c
_database_code_depnum_ccdc_archive 'CCDC 993522'
loop_
_citation_id
_citation_doi
_citation_year
1 10.1002/chem.201404047 2014
_audit_update_record             
;
2014-03-25 deposited with the CCDC.	2024-07-10 downloaded from the CCDC.
;
_audit_creation_date             2013-10-31
_audit_creation_method           
;
Olex2 1.2
(compiled 2013.09.17 svn.r2790 for OlexSys, GUI svn.r4601)
;
_chemical_name_common            ?
_chemical_name_systematic        
;
 ?
;
_chemical_formula_moiety         'C96 H76 Mn2 N8 O20, 0.5(C3 H7 N O)'
_chemical_formula_sum            'C97.50 H79.50 Mn2 N8.50 O20.50'
_chemical_formula_weight         1808.08
_chemical_absolute_configuration ad
_chemical_melting_point          ?
loop_
_atom_type_symbol
_atom_type_description
_atom_type_scat_dispersion_real
_atom_type_scat_dispersion_imag
_atom_type_scat_source
C C 0.0033 0.0016 'International Tables Vol C Tables 4.2.6.8 and 6.1.1.4'
H H 0.0000 0.0000 'International Tables Vol C Tables 4.2.6.8 and 6.1.1.4'
Mn Mn 0.3370 0.7270 'International Tables Vol C Tables 4.2.6.8 and 6.1.1.4'
N N 0.0061 0.0033 'International Tables Vol C Tables 4.2.6.8 and 6.1.1.4'
O O 0.0106 0.0060 'International Tables Vol C Tables 4.2.6.8 and 6.1.1.4'

_space_group_crystal_system      tetragonal
_space_group_IT_number           76
_space_group_name_H-M_alt        'P 41'
_space_group_name_Hall           'P 41'
loop_
_space_group_symop_id
_space_group_symop_operation_xyz
1 'x, y, z'
2 '-y, x, z+1/4'
3 '-x, -y, z+1/2'
4 'y, -x, z+3/4'

_cell_length_a                   26.222(4)
_cell_length_b                   26.222(4)
_cell_length_c                   14.287(3)
_cell_angle_alpha                90.00
_cell_angle_beta                 90.00
_cell_angle_gamma                90.00
_cell_volume                     9824(3)
_cell_formula_units_Z            4
_cell_measurement_reflns_used    ?
_cell_measurement_temperature    100(2)
_cell_measurement_theta_max      ?
_cell_measurement_theta_min      ?
_exptl_absorpt_coefficient_mu    0.328
_exptl_absorpt_correction_T_max  ?
_exptl_absorpt_correction_T_min  ?
_exptl_absorpt_correction_type   Multi-Scan
_exptl_absorpt_process_details   'XScale within XDS'
_exptl_crystal_colour            red
_exptl_crystal_density_diffrn    1.223
_exptl_crystal_density_meas      ?
_exptl_crystal_density_method    'not measured'
_exptl_crystal_description       block
_exptl_crystal_F_000             3752
_exptl_crystal_size_max          0.03
_exptl_crystal_size_mid          0.02
_exptl_crystal_size_min          0.01
_exptl_special_details           
;
 ?
;
_diffrn_reflns_av_R_equivalents  0.1088
_diffrn_reflns_av_unetI/netI     0.0872
_diffrn_reflns_limit_h_max       33
_diffrn_reflns_limit_h_min       -33
_diffrn_reflns_limit_k_max       33
_diffrn_reflns_limit_k_min       -33
_diffrn_reflns_limit_l_max       16
_diffrn_reflns_limit_l_min       -18
_diffrn_reflns_number            75719
_diffrn_reflns_theta_full        25.00
_diffrn_reflns_theta_max         26.80
_diffrn_reflns_theta_min         0.78
_diffrn_ambient_temperature      100.15
_diffrn_detector_area_resol_mean ?
_diffrn_measured_fraction_theta_full 0.999
_diffrn_measured_fraction_theta_max 0.998
_diffrn_measurement_device_type  'ADSC Quantum 210r'
_diffrn_measurement_method       'Phi Scan'
_diffrn_radiation_monochromator  'Silicon Double Crystal'
_diffrn_radiation_type           Synchrotron
_diffrn_radiation_wavelength     0.71080
_diffrn_source                   'Australian Synchrotron'
_reflns_number_gt                15491
_reflns_number_total             20527
_reflns_threshold_expression     >2sigma(I)
_computing_cell_refinement       'XDS (Kabsch, 1993)'
_computing_data_collection       'BluIce (McPhillips, 2002)'
_computing_data_reduction        'XDS (Kabsch, 1993)'
_computing_molecular_graphics    
;
O. V. Dolomanov, L. J. Bourhis, R. J. Gildea, J. A. K. Howard and H. Puschmann,
OLEX2: a complete structure solution, refinement and analysis program.
J. Appl. Cryst. (2009). 42, 339-341.
;
_computing_publication_material  
;
O. V. Dolomanov, L. J. Bourhis, R. J. Gildea, J. A. K. Howard and H. Puschmann,
OLEX2: a complete structure solution, refinement and analysis program.
J. Appl. Cryst. (2009). 42, 339-341.
;
_computing_structure_refinement  
;
SHELX, G.M. Sheldrick, Acta Cryst.
(2008). A64, 112-122
;
_computing_structure_solution    'SHELXS-97 (Sheldrick, 2008)'
_refine_diff_density_max         0.975
_refine_diff_density_min         -0.861
_refine_diff_density_rms         0.129
_refine_ls_abs_structure_details 'Flack H D (1983), Acta Cryst. A39, 876-881'
_refine_ls_abs_structure_Flack   0.20(3)
_refine_ls_extinction_coef       ?
_refine_ls_extinction_method     none
_refine_ls_goodness_of_fit_ref   1.407
_refine_ls_hydrogen_treatment    mixed
_refine_ls_matrix_type           full
_refine_ls_number_parameters     1147
_refine_ls_number_reflns         20527
_refine_ls_number_restraints     90
_refine_ls_R_factor_all          0.1496
_refine_ls_R_factor_gt           0.1300
_refine_ls_restrained_S_all      1.410
_refine_ls_shift/su_max          0.020
_refine_ls_shift/su_mean         0.001
_refine_ls_structure_factor_coef Fsqd
_refine_ls_weighting_details     
'calc w=1/[\s^2^(Fo^2^)+(0.2000P)^2^+0.0000P] where P=(Fo^2^+2Fc^2^)/3'
_refine_ls_weighting_scheme      calc
_refine_ls_wR_factor_gt          0.3518
_refine_ls_wR_factor_ref         0.3665
_refine_special_details          
;
 Refinement of F^2^ against ALL reflections.  The weighted R-factor wR and
 goodness of fit S are based on F^2^, conventional R-factors R are based
 on F, with F set to zero for negative F^2^. The threshold expression of
 F^2^ > 2sigma(F^2^) is used only for calculating R-factors(gt) etc. and is
 not relevant to the choice of reflections for refinement.  R-factors based
 on F^2^ are statistically about twice as large as those based on F, and R-
 factors based on ALL data will be even larger.
;
_olex2_refinement_description    
;
1. Fixed Uiso
 At 1.2 times of:
  All C(H) groups, All C(H,H) groups
 At 1.5 times of:
  All C(H,H,H) groups
2. Restrained distances
 N6-C89
 1.5 with sigma of 0.02
 N8-C96
 1.5 with sigma of 0.02
 C93-N7
 1.5 with sigma of 0.02
 N5-C85
 1.32 with sigma of 0.02
 N5-C86 = N5-C87
 1.5 with sigma of 0.02
 H1BC-H86C
 2 with sigma of 0.02
 C19-C18 = C20-C19
 1.35 with sigma of 0.02
 C21-C20
 1.35 with sigma of 0.02
 C47-C46
 1.45 with sigma of 0.02
 C40-C39
 1.395 with sigma of 0.02
 C59-C58 = C63-C58 = C63-C62 = C62-C61 = C61-C60 = C60-C59
 1.395 with sigma of 0.02
 C80-C79 = C84-C79 = C84-C83 = C83-C82 = C82-C81 = C81-C80
 1.395 with sigma of 0.02
 C19-C18 = C20-C19 = C21-C20 = C21-C16 = C17-C16 = C18-C17
 1.395 with sigma of 0.02
 O12-C45
 1.29 with sigma of 0.005
 C86-C87
 2.5 with sigma of 0.04
3. Restrained planarity
 C41, C40, C39, C38, C37, C42
 with sigma of 0.1
4. Uiso/Uaniso restraints and constraints
C89 \\sim N6 \\sim C90: within 1.7A with sigma of 0.04 and sigma for terminal
atoms of 0.08
N5 \\sim C87 \\sim C86 \\sim C85: within 1.7A with sigma of 0.04 and sigma for
terminal atoms of 0.08
Uanis(C93) \\sim Ueq, Uanis(C87) \\sim Ueq, Uanis(C86) \\sim Ueq: with sigma of
0.1 and sigma for terminal atoms of 0.2
Uanis(C41) \\sim Ueq: with sigma of 0.01 and sigma for terminal atoms of 0.02
5. Others
 Fixed Sof: O1A(0.5) C1A(0.5) H1A(0.5) N9(0.5) C1B(0.5) H1BA(0.5) H1BB(0.5)
 H1BC(0.5) C1C(0.5) H1CA(0.5) H1CB(0.5) H1CC(0.5)
6.a Free rotating group:
 O1A(C1A,N9,C1B,C1C)
6.b Ternary CH refined with riding coordinates:
 C65(H65), C2(H2), C44(H44), C23(H23)
6.c Secondary CH2 refined with riding coordinates:
 C15(H15A,H15B), C78(H78A,H78B), C57(H57A,H57B), C36(H36A,H36B)
6.d Me refined with riding coordinates:
 C95(H95A,H95B,H95C), C96(H96A,H96B,H96C), C89(H89A,H89B,H89C), C92(H92A,H92B,
 H92C), C93(H93A,H93B,H93C), C86(H86A,H86B,H86C), C87(H87A,H87B,H87C), C1B(H1BA,
 H1BB,H1BC), C1C(H1CA,H1CB,H1CC)
6.e Aromatic/amide H refined with riding coordinates:
 C34(H34), C48(H48), C76(H76), C54(H54), C6(H6), C12(H12), C49(H49), C75(H75),
 C70(H70), C7(H7), C33(H33), C28(H28), C69(H69), C13(H13), C27(H27), C55(H55),
 C82(H82), C20(H20), C17(H17), C21(H21), C18(H18), C81(H81), C84(H84), C83(H83),
  C19(H19), C80(H80), C88(H88), C94(H94), C38(H38), C60(H60), C59(H59),
 C39(H39), C63(H63), C61(H61), C91(H91), C40(H40), C62(H62), C42(H42), C41(H41),
  C85(H85), C1A(H1A)
6.f Idealised Me refined as rotating group:
 C90(H90A,H90B,H90C)
;
_atom_sites_solution_hydrogens   geom
_atom_sites_solution_primary     direct
_atom_sites_solution_secondary   difmap
loop_
_atom_site_label
_atom_site_type_symbol
_atom_site_fract_x
_atom_site_fract_y
_atom_site_fract_z
_atom_site_U_iso_or_equiv
_atom_site_adp_type
_atom_site_occupancy
_atom_site_symmetry_multiplicity
_atom_site_calc_flag
_atom_site_refinement_flags
_atom_site_disorder_assembly
_atom_site_disorder_group
Mn1 Mn 0.20091(4) 0.63302(5) 0.77395(8) 0.0487(3) Uani 1 1 d . . .
Mn2 Mn 0.12569(5) 0.70102(4) 0.53488(8) 0.0441(3) Uani 1 1 d . . .
C52 C -0.0227(3) 0.8702(3) 0.2821(5) 0.0457(16) Uani 1 1 d . . .
C53 C 0.0304(3) 0.8601(3) 0.2779(6) 0.0508(18) Uani 1 1 d . . .
O4 O 0.3227(3) 0.6070(2) 1.0026(6) 0.0704(19) Uani 1 1 d . A .
C47 C -0.0562(3) 0.8303(3) 0.2885(6) 0.0514(18) Uani 1 1 d D . .
C67 C 0.0812(3) 0.8299(3) 0.7824(6) 0.0494(17) Uani 1 1 d . . .
O14 O 0.14020(19) 0.6860(2) 0.7509(4) 0.0507(13) Uani 1 1 d . A .
N4 N 0.1338(3) 0.8220(3) 0.7872(5) 0.0560(17) Uani 1 1 d . . .
O16 O 0.0531(2) 0.7939(2) 0.7911(4) 0.0480(12) Uani 1 1 d . . .
C30 C 0.4600(3) 0.5744(3) 0.5174(6) 0.052(2) Uani 1 1 d . . .
C51 C -0.0415(3) 0.9227(4) 0.2801(6) 0.055(2) Uani 1 1 d . . .
O15 O 0.2154(2) 0.8549(3) 0.7776(5) 0.0677(17) Uani 1 1 d . . .
O3 O 0.2589(3) 0.4466(3) 0.9970(5) 0.0721(19) Uani 1 1 d . A .
N2 N 0.3087(3) 0.6321(3) 0.5040(6) 0.0559(18) Uani 1 1 d . . .
C11 C 0.3838(4) 0.5432(3) 1.0059(6) 0.057(2) Uani 1 1 d . A .
C8 C 0.4469(3) 0.4135(3) 1.0129(5) 0.0463(16) Uani 1 1 d . . .
C34 C 0.4913(4) 0.6596(3) 0.5148(5) 0.053(2) Uani 1 1 d . . .
H34 H 0.5194 0.6826 0.5138 0.064 Uiso 1 1 calc R . .
C48 C -0.1095(4) 0.8407(4) 0.2976(6) 0.059(2) Uani 1 1 d . . .
H48 H -0.1325 0.8133 0.3081 0.071 Uiso 1 1 calc R . .
O13 O 0.1268(2) 0.7508(2) 0.6529(4) 0.0500(13) Uani 1 1 d . A .
C76 C 0.1648(3) 1.0083(3) 0.7818(6) 0.0516(18) Uani 1 1 d . . .
H76 H 0.1884 1.0358 0.7824 0.062 Uiso 1 1 calc R . .
C56 C -0.0060(3) 0.9611(3) 0.2772(6) 0.0516(18) Uani 1 1 d . . .
C68 C 0.0628(3) 0.8841(3) 0.7790(6) 0.0464(16) Uani 1 1 d . . .
O2 O 0.2527(2) 0.5739(2) 0.8474(4) 0.0523(13) Uani 1 1 d . A .
C14 C 0.4814(3) 0.5015(3) 1.0168(5) 0.0474(17) Uani 1 1 d . . .
C74 C 0.1516(3) 0.9166(3) 0.7812(6) 0.0509(18) Uani 1 1 d . . .
C54 C 0.0644(4) 0.8996(5) 0.2753(8) 0.073(3) Uani 1 1 d . . .
H54 H 0.0999 0.8924 0.2722 0.087 Uiso 1 1 calc R . .
N3 N 0.0150(3) 0.7679(3) 0.2891(6) 0.0581(18) Uani 1 1 d . . .
C45 C 0.0482(2) 0.8074(3) 0.2838(7) 0.056(2) Uani 1 1 d D . .
C72 C 0.0784(3) 0.9768(3) 0.7797(5) 0.0409(15) Uani 1 1 d . . .
C26 C 0.3665(3) 0.5590(3) 0.5186(6) 0.0531(19) Uani 1 1 d . . .
C50 C -0.0953(3) 0.9291(3) 0.2827(5) 0.0464(17) Uani 1 1 d . . .
O1 O 0.1935(3) 0.6164(3) 0.9263(5) 0.068(2) Uani 1 1 d . A .
C46 C -0.0395(3) 0.7756(3) 0.3008(6) 0.0487(18) Uani 1 1 d D . .
C35 C 0.5012(4) 0.6098(3) 0.5144(5) 0.0512(19) Uani 1 1 d . . .
O11 O -0.0668(2) 0.7395(3) 0.3115(6) 0.0664(17) Uani 1 1 d . . .
C6 C 0.3543(3) 0.4010(3) 1.0051(5) 0.0470(17) Uani 1 1 d . . .
H6 H 0.3252 0.3794 1.0020 0.056 Uiso 1 1 calc R . .
N1 N 0.2914(3) 0.5277(3) 1.0009(5) 0.062(2) Uani 1 1 d . A .
C65 C 0.1541(4) 0.7722(4) 0.8070(7) 0.061(2) Uani 1 1 d . A .
H65 H 0.1920 0.7753 0.8026 0.074 Uiso 1 1 calc R . .
C77 C 0.1144(3) 1.0173(4) 0.7828(6) 0.055(2) Uani 1 1 d . . .
O7 O 0.2769(3) 0.5512(2) 0.5135(5) 0.0634(17) Uani 1 1 d . . .
C5 C 0.3473(4) 0.4540(4) 1.0053(5) 0.057(2) Uani 1 1 d . A .
C12 C 0.4241(3) 0.5730(3) 1.0079(6) 0.051(2) Uani 1 1 d . . .
H12 H 0.4194 0.6090 1.0081 0.061 Uiso 1 1 calc R . .
C9 C 0.4414(4) 0.4692(3) 1.0124(5) 0.054(2) Uani 1 1 d . . .
C32 C 0.3991(3) 0.6431(4) 0.5099(6) 0.055(2) Uani 1 1 d . . .
C49 C -0.1271(3) 0.8871(4) 0.2918(6) 0.0526(19) Uani 1 1 d . . .
H49 H -0.1630 0.8923 0.2938 0.063 Uiso 1 1 calc R . .
C75 C 0.1828(3) 0.9556(3) 0.7799(6) 0.0527(18) Uani 1 1 d . . .
H75 H 0.2185 0.9494 0.7776 0.063 Uiso 1 1 calc R . .
C2 C 0.2387(5) 0.5495(4) 1.0031(7) 0.076(3) Uani 1 1 d . . .
H2 H 0.2155 0.5194 0.9973 0.091 Uiso 1 1 calc R A .
O8 O 0.3424(3) 0.7125(2) 0.5135(6) 0.080(2) Uani 1 1 d . . .
C70 C -0.0072(3) 0.9409(4) 0.7730(7) 0.064(2) Uani 1 1 d . . .
H70 H -0.0431 0.9458 0.7711 0.077 Uiso 1 1 calc R . .
C10 C 0.3901(3) 0.4874(3) 1.0075(6) 0.0503(18) Uani 1 1 d . . .
C7 C 0.4040(4) 0.3786(4) 1.0095(7) 0.072(3) Uani 1 1 d . . .
H7 H 0.4087 0.3427 1.0101 0.087 Uiso 1 1 calc R . .
O12 O 0.09593(19) 0.7970(3) 0.2686(6) 0.0671(17) Uani 1 1 d D . .
C33 C 0.4427(4) 0.6797(3) 0.5166(6) 0.059(2) Uani 1 1 d . . .
H33 H 0.4371 0.7154 0.5218 0.071 Uiso 1 1 calc R . .
C73 C 0.0962(2) 0.9246(3) 0.7800(6) 0.0424(15) Uani 1 1 d . . .
C28 C 0.4230(4) 0.4879(4) 0.5204(6) 0.058(2) Uani 1 1 d . . .
H28 H 0.4268 0.4519 0.5213 0.069 Uiso 1 1 calc R . .
C22 C 0.2228(3) 0.6377(3) 0.5731(5) 0.0466(19) Uani 1 1 d . . .
C4 C 0.2968(3) 0.4744(3) 1.0014(5) 0.0458(17) Uani 1 1 d . . .
C16 C 0.2423(4) 0.5372(5) 1.1785(8) 0.079(3) Uani 1 1 d D . .
C64 C 0.1380(3) 0.7359(3) 0.7301(6) 0.0439(16) Uani 1 1 d . . .
C29 C 0.4666(4) 0.5193(3) 0.5184(6) 0.056(2) Uani 1 1 d . . .
C66 C 0.1696(3) 0.8628(3) 0.7792(6) 0.0441(15) Uani 1 1 d . . .
C3 C 0.3304(4) 0.5607(3) 1.0031(6) 0.052(2) Uani 1 1 d . . .
C44 C 0.0331(3) 0.7187(4) 0.3020(6) 0.056(2) Uani 1 1 d . . .
H44 H 0.0032 0.6973 0.3205 0.067 Uiso 1 1 calc R . .
C23 C 0.2576(4) 0.6496(3) 0.4912(6) 0.057(2) Uani 1 1 d . A .
H23 H 0.2599 0.6876 0.4887 0.069 Uiso 1 1 calc R . .
C71 C 0.0238(3) 0.9847(3) 0.7745(6) 0.0496(18) Uani 1 1 d . . .
C69 C 0.0096(3) 0.8937(3) 0.7740(6) 0.0500(18) Uani 1 1 d . . .
H69 H -0.0138 0.8661 0.7714 0.060 Uiso 1 1 calc R . .
C13 C 0.4730(4) 0.5539(3) 1.0096(6) 0.055(2) Uani 1 1 d . . .
H13 H 0.5012 0.5765 1.0059 0.065 Uiso 1 1 calc R . .
C31 C 0.4070(4) 0.5923(3) 0.5146(5) 0.055(2) Uani 1 1 d . . .
C27 C 0.3769(5) 0.5081(4) 0.5211(7) 0.073(3) Uani 1 1 d . . .
H27 H 0.3488 0.4854 0.5235 0.087 Uiso 1 1 calc R . .
C79 C 0.1596(5) 0.7979(3) 0.9770(8) 0.083(4) Uani 1 1 d D A .
C1 C 0.2270(4) 0.5821(4) 0.9210(6) 0.068(3) Uani 1 1 d . A .
C25 C 0.3123(5) 0.5753(4) 0.5127(6) 0.066(3) Uani 1 1 d . . .
C55 C 0.0470(3) 0.9537(4) 0.2772(7) 0.057(2) Uani 1 1 d . . .
H55 H 0.0704 0.9814 0.2782 0.069 Uiso 1 1 calc R . .
C24 C 0.3478(4) 0.6657(4) 0.5125(6) 0.069(3) Uani 1 1 d . . .
C82 C 0.1859(5) 0.8782(4) 1.0884(8) 0.082(4) Uani 1 1 d D . .
H82 H 0.1952 0.9051 1.1295 0.098 Uiso 1 1 calc R . .
C20 C 0.3015(5) 0.5024(6) 1.2966(8) 0.129(7) Uani 1 1 d D . .
H20 H 0.3347 0.5017 1.3233 0.154 Uiso 1 1 calc R A .
C17 C 0.2070(6) 0.5046(5) 1.2119(10) 0.104(5) Uani 1 1 d D A .
H17 H 0.1749 0.5027 1.1811 0.124 Uiso 1 1 calc R . .
C15 C 0.2278(5) 0.5717(4) 1.1005(7) 0.068(3) Uani 1 1 d . A .
H15A H 0.2466 0.6042 1.1073 0.082 Uiso 1 1 calc R . .
H15B H 0.1909 0.5795 1.1053 0.082 Uiso 1 1 calc R . .
C21 C 0.2886(4) 0.5363(6) 1.2228(8) 0.088(4) Uani 1 1 d D A .
H21 H 0.3137 0.5600 1.2029 0.105 Uiso 1 1 calc R . .
C78 C 0.1426(4) 0.7568(4) 0.9053(7) 0.060(2) Uani 1 1 d . . .
H78A H 0.1603 0.7243 0.9193 0.072 Uiso 1 1 calc R A .
H78B H 0.1055 0.7509 0.9117 0.072 Uiso 1 1 calc R . .
C58 C 0.0175(3) 0.6948(4) 0.1306(7) 0.058(2) Uani 1 1 d D . .
C18 C 0.2153(8) 0.4740(6) 1.2889(12) 0.124(6) Uani 1 1 d D . .
H18 H 0.1876 0.4554 1.3152 0.148 Uiso 1 1 calc R A .
C81 C 0.1357(6) 0.8728(3) 1.0649(8) 0.093(5) Uani 1 1 d D A .
H81 H 0.1108 0.8967 1.0855 0.112 Uiso 1 1 calc R . .
C84 C 0.2094(5) 0.8052(4) 0.9988(8) 0.076(3) Uani 1 1 d D . .
H84 H 0.2346 0.7824 0.9756 0.0