
#######################################################################
#
#                 Cambridge Crystallographic Data Centre
#                                CCDC
#
#######################################################################
#
# If this CIF has been generated from an entry in the Cambridge
# Structural Database, then it will include bibliographic, chemical,
# crystal, experimental, refinement or atomic coordinate data resulting
# from the CCDC's data processing and validation procedures.
#
#######################################################################

data_CSD_CIF_FOQBAO
_audit_creation_date 2000-12-15
_audit_creation_method CSD-ConQuest-V1
_database_code_CSD FOQBAO
_database_code_depnum_ccdc_archive 'CCDC 143214; not CCDC 116611 as published'
_chemical_formula_sum 'C20 H30 F6 P1 Rh1'
_chemical_formula_moiety
;
C20 H30 Rh1 1+,F6 P1 1-
;
_journal_coden_Cambridge 36
_journal_volume 593
_journal_year 2000
_journal_page_first 494
_journal_name_full 'J.Organomet.Chem. '
loop_
_publ_author_name
"D.Buchholz"
"L.Zsolnai"
"G.Huttner"
"D.Astruc"
_chemical_name_systematic
;
Decamethylrhodocenium hexafluorophosphate
;
_chemical_name_common
;
bis(eta$5!-Pentamethylcyclopentadienyl)-rhodium(iii) hexafluorophosphate; 
Teaching Subset: Fundamental Chemistry, Symmetry
;
_cell_volume   1088.149
_exptl_crystal_colour 'yellow'
_exptl_crystal_density_diffrn 1.582
_exptl_crystal_preparation 'acetone/water'
_diffrn_ambient_temperature 210
#These two values have been output from a single CSD field.
_refine_ls_R_factor_gt 0.0396
_refine_ls_wR_factor_gt 0.0396
_symmetry_cell_setting monoclinic
_symmetry_space_group_name_H-M 'P 21/n'
_symmetry_Int_Tables_number 14
loop_
_symmetry_equiv_pos_site_id
_symmetry_equiv_pos_as_xyz
1 x,y,z
2 1/2-x,1/2+y,1/2-z
3 -x,-y,-z
4 -1/2+x,-1/2-y,-1/2+z
_cell_length_a 10.024(5)
_cell_length_b 8.425(6)
_cell_length_c 12.885(9)
_cell_angle_alpha 90
_cell_angle_beta 90.33(5)
_cell_angle_gamma 90
_cell_formula_units_Z 2
loop_
_atom_type_symbol
_atom_type_radius_bond
C 0.68
H 0.23
F 0.64
P 1.05
Rh 1.45
loop_
_atom_site_label
_atom_site_type_symbol
_atom_site_fract_x
_atom_site_fract_y
_atom_site_fract_z
Rh1 Rh 0.00000 0.00000 0.00000
C1 C 0.0049(3) 0.2570(5) 0.0105(3)
C2 C -0.0455(5) 0.2122(5) -0.0885(3)
C3 C -0.1656(4) 0.1262(5) -0.0733(3)
C4 C -0.1895(3) 0.1179(4) 0.0351(3)
C5 C -0.0842(4) 0.1987(5) 0.0868(2)
C6 C 0.1255(7) 0.3502(9) 0.0345(9)
H1 H 0.13430 0.36180 0.10840
H2 H 0.11840 0.45320 0.00300
H3 H 0.20250 0.29640 0.00780
C7 C 0.0119(12) 0.2520(14) -0.1927(7)
H4 H 0.09220 0.31280 -0.18350
H5 H -0.05170 0.31290 -0.23190
H6 H 0.03200 0.15580 -0.22930
C8 C -0.2596(12) 0.0572(14) -0.1542(10)
H7 H -0.22450 0.07630 -0.22220
H8 H -0.34550 0.10660 -0.14820
H9 H -0.26830 -0.05510 -0.14320
C9 C -0.3062(9) 0.0396(10) 0.0878(10)
H10 H -0.36210 -0.01020 0.03670
H11 H -0.35660 0.11820 0.12460
H12 H -0.27400 -0.03890 0.13580
C10 C -0.0729(10) 0.2270(12) 0.2017(6)
H13 H -0.14310 0.17130 0.23660
H14 H -0.08040 0.33860 0.21560
H15 H 0.01190 0.18920 0.22630
P1 P 0.50000 0.50000 0.00000
F1 F 0.3855(5) 0.5335(6) -0.0830(5)
F2 F 0.4517(6) 0.3232(5) 0.0070(4)
F3 F 0.3989(5) 0.5454(8) 0.0886(4)
C1B C -0.0049(3) -0.2570(5) -0.0105(3)
C2B C 0.0455(5) -0.2122(5) 0.0885(3)
C3B C 0.1656(4) -0.1262(5) 0.0733(3)
C7B C -0.0119(12) -0.2520(14) 0.1927(7)
H4B H -0.09220 -0.31280 0.18350
H5B H 0.05170 -0.31290 0.23190
H6B H -0.03200 -0.15580 0.22930
C4B C 0.1895(3) -0.1179(4) -0.0351(3)
C5B C 0.0842(4) -0.1987(5) -0.0868(2)
C6B C -0.1255(7) -0.3502(9) -0.0345(9)
H1B H -0.13430 -0.36180 -0.10840
H2B H -0.11840 -0.45320 -0.00300
H3B H -0.20250 -0.29640 -0.00780
C9B C 0.3062(9) -0.0396(10) -0.0878(10)
H10B H 0.36210 0.01020 -0.03670
H11B H 0.35660 -0.11820 -0.12460
H12B H 0.27400 0.03890 -0.13580
C10B C 0.0729(10) -0.2270(12) -0.2017(6)
H13B H 0.14310 -0.17130 -0.23660
H14B H 0.08040 -0.33860 -0.21560
H15B H -0.01190 -0.18920 -0.22630
C8B C 0.2596(12) -0.0572(14) 0.1542(10)
H7B H 0.22450 -0.07630 0.22220
H8B H 0.34550 -0.10660 0.14820
H9B H 0.26830 0.05510 0.14320
F1B F 0.6145(5) 0.4665(6) 0.0830(5)
F2B F 0.5483(6) 0.6768(5) -0.0070(4)
F3B F 0.6011(5) 0.4546(8) -0.0886(4)
#END
