####################################################################### 
# 
# This file contains crystal structure data downloaded from the 
# Cambridge Structural Database (CSD) hosted by the Cambridge 
# Crystallographic Data Centre (CCDC).
# 
# Full information about CCDC data access policies and citation 
# guidelines are available at http://www.ccdc.cam.ac.uk/access/V1 
# 
# Audit and citation data items may have been added by the CCDC. 
# Please retain this information to preserve the provenance of 
# this file and to allow appropriate attribution of the data. 
# 
#######################################################################

data_2_[Zn7(OH)2L(L-H)2)Cd2(py)4(H2O)].10H2O
_audit_block_doi                 10.5517/ccz6cdx
_database_code_depnum_ccdc_archive 'CCDC 899849'
loop_
_citation_id
_citation_doi
_citation_year
1 10.1002/anie.201408896 2014
_audit_update_record             
;
2014-09-06 deposited with the CCDC.	2024-07-10 downloaded from the CCDC.
;

_audit_creation_method           SHELXL-97

_chemical_name_systematic        
; 
 ? 
;
_chemical_name_common            ?
_chemical_melting_point          ?
_chemical_formula_moiety         ?
_chemical_formula_sum            'C146 H134 Cd2 N12 O39 Zn7'
_chemical_formula_weight         3363.04

loop_
_atom_type_symbol
_atom_type_description
_atom_type_scat_dispersion_real
_atom_type_scat_dispersion_imag
_atom_type_scat_source
C C 0.0033 0.0016 'International Tables Vol C Tables 4.2.6.8 and 6.1.1.4'
H H 0.0000 0.0000 'International Tables Vol C Tables 4.2.6.8 and 6.1.1.4'
N N 0.0061 0.0033 'International Tables Vol C Tables 4.2.6.8 and 6.1.1.4'
O O 0.0106 0.0060 'International Tables Vol C Tables 4.2.6.8 and 6.1.1.4'
Cd Cd -0.8075 1.2024 'International Tables Vol C Tables 4.2.6.8 and 6.1.1.4'
Zn Zn 0.2839 1.4301 'International Tables Vol C Tables 4.2.6.8 and 6.1.1.4'

_symmetry_cell_setting           Orthorhombic
_symmetry_space_group_name_H-M   I2(1)2(1)2(1)

loop_
_symmetry_equiv_pos_as_xyz
'x, y, z'
'-x, -y+1/2, z'
'x, -y, -z+1/2'
'-x+1/2, y, -z'
'x+1/2, y+1/2, z+1/2'
'-x+1/2, -y+1, z+1/2'
'x+1/2, -y+1/2, -z+1'
'-x+1, y+1/2, -z+1/2'

_cell_length_a                   17.5150(19)
_cell_length_b                   32.963(4)
_cell_length_c                   38.137(4)
_cell_angle_alpha                90.00
_cell_angle_beta                 90.00
_cell_angle_gamma                90.00
_cell_volume                     22018(4)
_cell_formula_units_Z            4
_cell_measurement_temperature    123(2)
_cell_measurement_reflns_used    ?
_cell_measurement_theta_min      ?
_cell_measurement_theta_max      ?

_exptl_crystal_description       block
_exptl_crystal_colour            yellow
_exptl_crystal_size_max          0.08
_exptl_crystal_size_mid          0.08
_exptl_crystal_size_min          0.06
_exptl_crystal_density_meas      ?
_exptl_crystal_density_diffrn    1.015
_exptl_crystal_density_method    'not measured'
_exptl_crystal_F_000             6848
_exptl_absorpt_coefficient_mu    0.993
_exptl_absorpt_correction_type   Multi-scan
_exptl_absorpt_correction_T_min  0.92
_exptl_absorpt_correction_T_max  0.94
_exptl_absorpt_process_details   'SADABS (Sheldrick, 1996)'

_exptl_special_details           
; 
 ? 
;

_diffrn_ambient_temperature      123(2)
_diffrn_radiation_wavelength     0.71073
_diffrn_radiation_type           MoK\a
_diffrn_radiation_source         'fine-focus sealed tube'
_diffrn_radiation_monochromator  graphite
_diffrn_measurement_device_type  ?
_diffrn_measurement_method       ?
_diffrn_detector_area_resol_mean ?
_diffrn_standards_number         ?
_diffrn_standards_interval_count ?
_diffrn_standards_interval_time  ?
_diffrn_standards_decay_%        ?
_diffrn_reflns_number            43038
_diffrn_reflns_av_R_equivalents  0.0843
_diffrn_reflns_av_sigmaI/netI    0.1120
_diffrn_reflns_limit_h_min       -20
_diffrn_reflns_limit_h_max       15
_diffrn_reflns_limit_k_min       -39
_diffrn_reflns_limit_k_max       18
_diffrn_reflns_limit_l_min       -45
_diffrn_reflns_limit_l_max       37
_diffrn_reflns_theta_min         1.63
_diffrn_reflns_theta_max         25.00
_reflns_number_total             17475
_reflns_number_gt                11133
_reflns_threshold_expression     >2sigma(I)

_computing_data_collection       'SMART (Bruker, 1997)'
_computing_cell_refinement       'SAINT (Bruker, 1999)'
_computing_data_reduction        SAINT
_computing_structure_solution    'SHELXS-97 (Sheldrick, 1990)'
_computing_structure_refinement  'SHELXL-97 (Sheldrick, 1997)'
_computing_molecular_graphics    'SHELXTL-PLUS (Sheldrick, 1990)'
_computing_publication_material  SHELXL-97

_refine_special_details          
; 
 Refinement of F^2^ against ALL reflections.  The weighted R-factor wR and 
 goodness of fit S are based on F^2^, conventional R-factors R are based 
 on F, with F set to zero for negative F^2^. The threshold expression of 
 F^2^ > 2sigma(F^2^) is used only for calculating R-factors(gt) etc. and is 
 not relevant to the choice of reflections for refinement.  R-factors based 
 on F^2^ are statistically about twice as large as those based on F, and R- 
 factors based on ALL data will be even larger. 

 All of the phenyl rings are
 constrained to ideal six membered rings. All non-hydrogen atoms are refined anisotropically, except for the guest molecule water.


CheckCIF Alert and Discussion:

Alert level A

PLAT602_ALERT_2_A VERY LARGE Solvent Accessible VOID(S) in Structure  
  
Discussion: The voids contain disordered solvent at partial occupancy. 
but only part of them could be modeled in the difference map.
So missing solvent gust molecules in the model resulting
in apparent large structural voids. 
;

_refine_ls_structure_factor_coef Fsqd
_refine_ls_matrix_type           full
_refine_ls_weighting_scheme      calc
_refine_ls_weighting_details     
'calc w=1/[\s^2^(Fo^2^)+(0.1692P)^2^+0.0000P] where P=(Fo^2^+2Fc^2^)/3'
_atom_sites_solution_primary     direct
_atom_sites_solution_secondary   difmap
_atom_sites_solution_hydrogens   geom
_refine_ls_hydrogen_treatment    constr
_refine_ls_extinction_method     none
_refine_ls_extinction_coef       ?
_refine_ls_abs_structure_details 'Flack H D (1983), Acta Cryst. A39, 876-881'
_refine_ls_abs_structure_Flack   0.02(16)
_refine_ls_number_reflns         17475
_refine_ls_number_parameters     740
_refine_ls_number_restraints     44
_refine_ls_R_factor_all          0.1431
_refine_ls_R_factor_gt           0.0931
_refine_ls_wR_factor_ref         0.2735
_refine_ls_wR_factor_gt          0.2295
_refine_ls_goodness_of_fit_ref   1.047
_refine_ls_restrained_S_all      7.179
_refine_ls_shift/su_max          0.001
_refine_ls_shift/su_mean         0.000

loop_
_atom_site_label
_atom_site_type_symbol
_atom_site_fract_x
_atom_site_fract_y
_atom_site_fract_z
_atom_site_U_iso_or_equiv
_atom_site_adp_type
_atom_site_occupancy
_atom_site_symmetry_multiplicity
_atom_site_calc_flag
_atom_site_refinement_flags
_atom_site_disorder_assembly
_atom_site_disorder_group
Cd1 Cd 0.7500 0.55764(7) 0.0000 0.1084(13) Uani 1 2 d S . .
Cd2 Cd -0.0048(2) 0.5000 0.2500 0.1062(15) Uani 1 2 d S . .
Zn1 Zn 0.5000 0.7500 0.25235(9) 0.0331(8) Uani 1 2 d S . .
Zn2 Zn 0.62260(16) 0.69757(6) 0.21173(7) 0.0403(7) Uani 1 1 d . . .
Zn3 Zn 0.38548(17) 0.80799(7) 0.29198(7) 0.0421(7) Uani 1 1 d . . .
Zn4 Zn 0.32308(15) 0.73064(7) 0.25697(7) 0.0420(7) Uani 1 1 d . . .
C1 C 0.712(2) 0.5825(7) 0.0663(7) 0.090(11) Uani 1 1 d . . .
C2 C 0.6895(7) 0.5963(3) 0.1015(3) 0.062(8) Uani 1 1 d G . .
C3 C 0.6905(10) 0.5710(3) 0.1307(3) 0.061(9) Uani 1 1 d G . .
H3A H 0.7024 0.5437 0.1281 0.074 Uiso 1 1 calc R . .
C4 C 0.6737(12) 0.5866(4) 0.1636(3) 0.051(7) Uani 1 1 d GD . .
C5 C 0.6559(14) 0.6275(5) 0.1675(3) 0.053(8) Uani 1 1 d G . .
C6 C 0.6549(14) 0.6528(4) 0.1383(4) 0.054(8) Uani 1 1 d G . .
C7 C 0.6717(11) 0.6372(3) 0.1053(3) 0.069(9) Uani 1 1 d G . .
H7A H 0.6711 0.6541 0.0858 0.083 Uiso 1 1 calc R . .
C8 C 0.6740(17) 0.5573(5) 0.1957(5) 0.048(7) Uani 1 1 d D . .
C9 C 0.732(2) 0.5693(8) 0.2202(9) 0.081(11) Uani 1 1 d . . .
H9A H 0.7319 0.5512 0.2399 0.122 Uiso 1 1 calc R . .
H9B H 0.7221 0.5965 0.2281 0.122 Uiso 1 1 calc R . .
H9C H 0.7811 0.5684 0.2090 0.122 Uiso 1 1 calc R . .
C10 C 0.5950(15) 0.5563(7) 0.2141(6) 0.050(7) Uani 1 1 d . . .
H10A H 0.5971 0.5383 0.2338 0.075 Uiso 1 1 calc R . .
H10B H 0.5570 0.5470 0.1978 0.075 Uiso 1 1 calc R . .
H10C H 0.5821 0.5832 0.2219 0.075 Uiso 1 1 calc R . .
C11 C 0.6917(18) 0.5129(6) 0.1855(8) 0.069(9) Uani 1 1 d D . .
H11A H 0.6916 0.4963 0.2062 0.104 Uiso 1 1 calc R . .
H11B H 0.7409 0.5116 0.1745 0.104 Uiso 1 1 calc R . .
H11C H 0.6534 0.5033 0.1695 0.104 Uiso 1 1 calc R . .
C12 C 0.6327(15) 0.6958(6) 0.1367(6) 0.047(7) Uani 1 1 d . . .
H12A H 0.6304 0.7076 0.1146 0.057 Uiso 1 1 calc R . .
C13 C 0.5938(6) 0.7605(2) 0.1590(2) 0.042(7) Uani 1 1 d G . .
C14 C 0.5866(9) 0.7834(3) 0.1894(3) 0.035(6) Uani 1 1 d G . .
C15 C 0.5670(10) 0.8242(3) 0.1874(3) 0.032(6) Uani 1 1 d G . .
C16 C 0.5547(10) 0.8421(3) 0.1549(4) 0.041(7) Uani 1 1 d GD . .
C17 C 0.5619(11) 0.8193(3) 0.1244(3) 0.046(7) Uani 1 1 d G . .
C18 C 0.5815(9) 0.7785(3) 0.1265(2) 0.044(7) Uani 1 1 d G . .
H18A H 0.5863 0.7632 0.1061 0.053 Uiso 1 1 calc R . .
C19 C 0.545(2) 0.8380(8) 0.0885(7) 0.066(9) Uani 1 1 d . . .
H19A H 0.5521 0.8179 0.0706 0.099 Uiso 1 1 calc R . .
H19B H 0.5787 0.8604 0.0844 0.099 Uiso 1 1 calc R . .
H19C H 0.4929 0.8474 0.0880 0.099 Uiso 1 1 calc R . .
C20 C 0.5213(16) 0.8862(6) 0.1491(7) 0.069(10) Uani 1 1 d D . .
H20A H 0.5172 0.8916 0.1244 0.104 Uiso 1 1 calc R . .
H20B H 0.5546 0.9058 0.1596 0.104 Uiso 1 1 calc RD . .
H20C H 0.4716 0.8881 0.1596 0.104 Uiso 1 1 calc R . .
C21 C 0.5659(6) 0.8501(2) 0.2214(2) 0.033(6) Uani 1 1 d G . .
C22 C 0.5111(7) 0.8424(3) 0.2469(3) 0.039(6) Uani 1 1 d G . .
C23 C 0.5049(9) 0.8679(4) 0.2758(3) 0.033(6) Uani 1 1 d G . .
C24 C 0.5535(11) 0.9010(4) 0.2792(3) 0.046(7) Uani 1 1 d G . .
H24A H 0.5493 0.9180 0.2986 0.055 Uiso 1 1 calc R . .
C25 C 0.6082(10) 0.9087(3) 0.2537(4) 0.045(6) Uani 1 1 d GD . .
C26 C 0.6144(7) 0.8832(3) 0.2247(3) 0.039(6) Uani 1 1 d GD . .
C27 C 0.6827(14) 0.8905(7) 0.1963(7) 0.064(9) Uani 1 1 d D . .
H27A H 0.7112 0.9142 0.2027 0.095 Uiso 1 1 calc RD . .
H27B H 0.6610 0.8941 0.1734 0.095 Uiso 1 1 calc RD . .
H27C H 0.7160 0.8673 0.1962 0.095 Uiso 1 1 calc R . .
C28 C 0.6598(16) 0.9469(6) 0.2605(8) 0.070(10) Uani 1 1 d D . .
H28A H 0.6957 0.9498 0.2417 0.105 Uiso 1 1 calc RD . .
H28B H 0.6869 0.9434 0.2822 0.105 Uiso 1 1 calc R . .
H28C H 0.6283 0.9707 0.2619 0.105 Uiso 1 1 calc R . .
C29 C 0.4269(16) 0.8831(6) 0.3250(6) 0.046(7) Uani 1 1 d . . .
H29A H 0.4553 0.9068 0.3272 0.055 Uiso 1 1 calc R . .
C30 C 0.3659(8) 0.8774(3) 0.3507(3) 0.050(8) Uani 1 1 d G . .
C31 C 0.3191(9) 0.8437(3) 0.3546(3) 0.062(9) Uani 1 1 d G . .
C32 C 0.2631(9) 0.8434(4) 0.3805(4) 0.052(7) Uani 1 1 d GD . .
C33 C 0.2540(11) 0.8768(5) 0.4023(4) 0.054(8) Uani 1 1 d G . .
H33A H 0.2165 0.8765 0.4196 0.064 Uiso 1 1 calc R . .
C34 C 0.3008(11) 0.9105(4) 0.3984(4) 0.064(9) Uani 1 1 d G . .
C35 C 0.3568(9) 0.9108(3) 0.3725(3) 0.063(9) Uani 1 1 d G . .
H35A H 0.3882 0.9334 0.3699 0.075 Uiso 1 1 calc R . .
C36 C 0.285(2) 0.9480(6) 0.4196(7) 0.067(10) Uani 1 1 d . . .
C37 C 0.2103(18) 0.8055(7) 0.3854(8) 0.072(10) Uani 1 1 d D . .
C38 C 0.1528(19) 0.8117(9) 0.4182(8) 0.084(10) Uani 1 1 d . . .
H38A H 0.1198 0.7886 0.4201 0.126 Uiso 1 1 calc R . .
H38B H 0.1227 0.8357 0.4146 0.126 Uiso 1 1 calc R . .
H38C H 0.1819 0.8146 0.4394 0.126 Uiso 1 1 calc R . .
C39 C 0.252(2) 0.7679(8) 0.3932(9) 0.083(11) Uani 1 1 d . . .
H39A H 0.2166 0.7461 0.3963 0.124 Uiso 1 1 calc R . .
H39B H 0.2813 0.7715 0.4143 0.124 Uiso 1 1 calc R . .
H39C H 0.2859 0.7617 0.3741 0.124 Uiso 1 1 calc R . .
C40 C 0.159(2) 0.8008(11) 0.3525(9) 0.091(12) Uani 1 1 d . . .
H40A H 0.1244 0.7784 0.3559 0.137 Uiso 1 1 calc R . .
H40B H 0.1901 0.7958 0.3323 0.137 Uiso 1 1 calc R . .
H40C H 0.1299 0.8252 0.3490 0.137 Uiso 1 1 calc R . .
C41 C 0.0769(16) 0.5660(8) 0.2473(10) 0.073(10) Uani 1 1 d . . .
C42 C 0.1189(7) 0.6046(3) 0.2438(4) 0.067(9) Uani 1 1 d G . .
C43 C 0.1061(9) 0.6289(4) 0.2146(4) 0.063(9) Uani 1 1 d G . .
H43A H 0.0700 0.6212 0.1980 0.076 Uiso 1 1 calc R . .
C44 C 0.1472(11) 0.6646(4) 0.2102(5) 0.063(9) Uani 1 1 d GD . .
C45 C 0.2012(11) 0.6760(4) 0.2350(6) 0.056(8) Uani 1 1 d G . .
C46 C 0.2140(10) 0.6518(5) 0.2643(6) 0.054(8) Uani 1 1 d G . .
C47 C 0.1729(8) 0.6161(4) 0.2687(4) 0.078(11) Uani 1 1 d G . .
H47A H 0.1815 0.5998 0.2882 0.094 Uiso 1 1 calc R . .
C48 C 0.1311(16) 0.6912(8) 0.1773(7) 0.087(11) Uani 1 1 d D . .
C49 C 0.0712(16) 0.6725(12) 0.1523(9) 0.112(14) Uani 1 1 d D . .
H49A H 0.0640 0.6900 0.1325 0.168 Uiso 1 1 calc R . .
H49B H 0.0237 0.6693 0.1646 0.168 Uiso 1 1 calc R . .
H49C H 0.0888 0.6465 0.1444 0.168 Uiso 1 1 calc R . .
C50 C 0.2067(19) 0.6928(12) 0.1546(9) 0.086(12) Uani 1 1 d . . .
H50A H 0.2473 0.7041 0.1684 0.129 Uiso 1 1 calc R . .
H50B H 0.1985 0.7093 0.1343 0.129 Uiso 1 1 calc R . .
H50C H 0.2202 0.6658 0.1474 0.129 Uiso 1 1 calc R . .
C51 C 0.106(3) 0.7344(9) 0.1874(12) 0.103(14) Uani 1 1 d . . .
H51A H 0.1428 0.7462 0.2028 0.155 Uiso 1 1 calc R . .
H51B H 0.0571 0.7332 0.1991 0.155 Uiso 1 1 calc R . .
H51C H 0.1011 0.7507 0.1666 0.155 Uiso 1 1 calc R . .
C52 C 0.2718(14) 0.6582(6) 0.2918(7) 0.046(7) Uani 1 1 d . . .
H52A H 0.2755 0.6385 0.3091 0.055 Uiso 1 1 calc R . .
C53 C 0.3740(7) 0.6915(3) 0.3217(3) 0.042(6) Uani 1 1 d G . .
C54 C 0.4230(8) 0.7246(3) 0.3206(3) 0.034(6) Uani 1 1 d G . .
C55 C 0.4772(9) 0.7300(4) 0.3468(4) 0.048(7) Uani 1 1 d G . .
C56 C 0.4823(10) 0.7023(5) 0.3742(4) 0.053(8) Uani 1 1 d GD . .
C57 C 0.4332(10) 0.6692(5) 0.3753(3) 0.058(9) Uani 1 1 d G . .
C58 C 0.3790(8) 0.6638(3) 0.3491(3) 0.054(8) Uani 1 1 d G . .
H58A H 0.3462 0.6417 0.3499 0.065 Uiso 1 1 calc R . .
C59 C 0.442(2) 0.6357(8) 0.4042(8) 0.076(11) Uani 1 1 d . . .
H59A H 0.4033 0.6153 0.4007 0.114 Uiso 1 1 calc R . .
H59B H 0.4356 0.6477 0.4269 0.114 Uiso 1 1 calc R . .
H59C H 0.4914 0.6236 0.4025 0.114 Uiso 1 1 calc R . .
C60 C 0.5394(17) 0.7065(7) 0.4023(6) 0.062(9) Uani 1 1 d D . .
H60A H 0.5693 0.7305 0.3984 0.092 Uiso 1 1 calc R . .
H60B H 0.5723 0.6832 0.4023 0.092 Uiso 1 1 calc R . .
H60C H 0.5139 0.7085 0.4245 0.092 Uiso 1 1 calc R . .
N4 N 0.884(3) 0.5557(14) 0.0174(11) 0.2383(16) Uani 1 1 d GU . .
C61 C 0.906(3) 0.5239(16) 0.0390(14) 0.2399(16) Uani 1 1 d G . .
H61A H 0.8697 0.5073 0.0493 0.288 Uiso 1 1 calc R . .
C62 C 0.983(4) 0.517(2) 0.0451(18) 0.2399(16) Uani 1 1 d GU . .
H62A H 0.9984 0.4956 0.0596 0.288 Uiso 1 1 calc R . .
C63 C 1.038(3) 0.542(2) 0.030(2) 0.2399(16) Uani 1 1 d G . .
H63A H 1.0896 0.5371 0.0338 0.288 Uiso 1 1 calc R . .
C64 C 1.016(3) 0.574(2) 0.0081(18) 0.2399(16) Uani 1 1 d G . .
H64A H 1.0521 0.5902 -0.0022 0.288 Uiso 1 1 calc R . .
C65 C 0.938(3) 0.5805(16) 0.0020(14) 0.2399(16) Uani 1 1 d GU . .
H65A H 0.9234 0.6018 -0.0125 0.288 Uiso 1 1 calc R . .
C71 C 0.997(3) -0.0044(15) 0.6299(11) 0.20(3) Uiso 1 1 d D . .
C72 C 0.938(6) -0.0233(19) 0.5708(19) 0.37(8) Uiso 1 1 d D . .
C73 C 1.012(3) 0.032(2) 0.5727(16) 0.22(3) Uiso 1 1 d D . .
N5 N -0.0782(11) 0.4814(7) 0.2061(9) 0.128(7) Uani 1 1 d GU . .
C66 C -0.1179(17) 0.4451(8) 0.2103(11) 0.173(8) Uani 1 1 d G . .
H66A H -0.1239 0.4340 0.2325 0.207 Uiso 1 1 calc R . .
C67 C -0.149(2) 0.4256(10) 0.1812(13) 0.173(8) Uani 1 1 d G . .
H67A H -0.1751 0.4014 0.1840 0.207 Uiso 1 1 calc R . .
C68 C -0.140(3) 0.4423(14) 0.1480(11) 0.173(8) Uani 1 1 d G . .
H68A H -0.1601 0.4292 0.1286 0.207 Uiso 1 1 calc R . .
C69 C -0.100(2) 0.4785(14) 0.1438(9) 0.173(8) Uani 1 1 d G . .
H69A H -0.0939 0.4896 0.1216 0.207 Uiso 1 1 calc R . .
C70 C -0.0693(17) 0.4980(9) 0.1729(9) 0.173(8) Uani 1 1 d GU . .
H70A H -0.0427 0.5222 0.1701 0.207 Uiso 1 1 calc R . .
N1 N 0.6161(12) 0.7188(4) 0.1633(5) 0.040(5) Uani 1 1 d . . .
N2 N 0.4460(13) 0.8594(5) 0.3000(5) 0.044(6) Uani 1 1 d . . .
N3 N 0.3171(13) 0.6881(6) 0.2940(5) 0.052(6) Uani 1 1 d . . .
N6 N 0.964(2) 0.0086(11) 0.5960(8) 0.177(19) Uiso 1 1 d D . .
O1 O 0.4185(8) 0.7494(4) 0.2921(4) 0.034(4) Uani 1 1 d . . .
O2 O 0.6879(8) 0.7080(4) 0.2542(4) 0.041(4) Uani 1 1 d . . .
O3 O 0.6430(11) 0.6425(4) 0.1992(4) 0.053(5) Uani 1 1 d . . .
O4 O 0.5932(8) 0.7632(3) 0.2201(3) 0.033(4) Uani 1 1 d . . .
O5 O 0.4653(8) 0.8091(4) 0.2458(4) 0.035(4) Uani 1 1 d . . .
O6 O 0.3232(12) 0.8115(4) 0.3335(4) 0.058(5) Uani 1 1 d . . .
O7 O 0.2380(10) 0.7114(5) 0.2298(5) 0.057(5) Uani 1 1 d . . .
O8 O 0.724(2) 0.6069(5) 0.0417(5) 0.135(11) Uani 1 1 d . . .
O9 O 0.7208(14) 0.5447(5) 0.0613(5) 0.086(7) Uani 1 1 d D . .
O10 O 0.3294(15) 0.9785(5) 0.4122(5) 0.076(7) Uani 1 1 d D . .
O11 O 0.2336(14) 0.9484(5) 0.4414(5) 0.081(7) Uani 1 1 d . . .
O12 O 0.0266(12) 0.5569(6) 0.2247(6) 0.079(7) Uani 1 1 d . . .
O13 O 0.0875(13) 0.5438(6) 0.2752(7) 0.088(8) Uani 1 1 d . . .
O14 O 0.7500 0.4886(8) 0.0000 0.18(3) Uani 1 2 d S . .
O15 O 0.966(3) -0.0318(11) 0.6493(9) 0.196(18) Uiso 1 1 d D . .
O16 O 0.225(4) 0.600(2) 0.3646(17) 0.25(3) Uiso 1 1 d . . .
O17 O 0.214(3) 0.5068(16) 0.1773(13) 0.199(18) Uiso 1 1 d . . .
O18 O 0.830(2) 0.6705(13) 0.2535(12) 0.168(13) Uiso 1 1 d . . .
O19 O 0.641(5) 0.731(2) 0.051(2) 0.28(3) Uiso 1 1 d . . .
O20 O 0.370(8) 0.882(4) 0.487(4) 0.25(5) Uiso 0.50 1 d P . .
O21 O 0.461(12) 0.573(6) 0.488(5) 0.34(9) Uiso 0.50 1 d P . .

loop_
_atom_site_aniso_label
_atom_site_aniso_U_1