####################################################################### 
# 
# This file contains crystal structure data downloaded from the 
# Cambridge Structural Database (CSD) hosted by the Cambridge 
# Crystallographic Data Centre (CCDC).
# 
# Full information about CCDC data access policies and citation 
# guidelines are available at http://www.ccdc.cam.ac.uk/access/V1 
# 
# Audit and citation data items may have been added by the CCDC. 
# Please retain this information to preserve the provenance of 
# this file and to allow appropriate attribution of the data. 
# 
#######################################################################

data_ye140sadr-3s_sqd
_audit_block_doi                 10.5517/cc125yw2
_database_code_depnum_ccdc_archive 'CCDC 988834'
loop_
_citation_id
_citation_doi
_citation_year
1 10.1021/cg5005837 2014
_audit_update_record             
;
2014-07-29 deposited with the CCDC.	2024-07-10 downloaded from the CCDC.
;

_audit_creation_method           SHELXL-97
_chemical_name_systematic        
; 
 ? 
;
_chemical_name_common            ?
_chemical_melting_point          ?
_chemical_formula_moiety         ?
_chemical_formula_sum            'C185 H75 In4 N O34'
_chemical_formula_weight         3314.74

loop_
_atom_type_symbol
_atom_type_description
_atom_type_scat_dispersion_real
_atom_type_scat_dispersion_imag
_atom_type_scat_source
C C 0.0033 0.0016 'International Tables Vol C Tables 4.2.6.8 and 6.1.1.4'
H H 0.0000 0.0000 'International Tables Vol C Tables 4.2.6.8 and 6.1.1.4'
N N 0.0061 0.0033 'International Tables Vol C Tables 4.2.6.8 and 6.1.1.4'
O O 0.0106 0.0060 'International Tables Vol C Tables 4.2.6.8 and 6.1.1.4'
In In -0.7276 1.3100 'International Tables Vol C Tables 4.2.6.8 and 6.1.1.4'

_symmetry_cell_setting           Trigonal
_symmetry_space_group_name_H-M   R-3

loop_
_symmetry_equiv_pos_as_xyz
'x, y, z'
'-y, x-y, z'
'-x+y, -x, z'
'x+2/3, y+1/3, z+1/3'
'-y+2/3, x-y+1/3, z+1/3'
'-x+y+2/3, -x+1/3, z+1/3'
'x+1/3, y+2/3, z+2/3'
'-y+1/3, x-y+2/3, z+2/3'
'-x+y+1/3, -x+2/3, z+2/3'
'-x, -y, -z'
'y, -x+y, -z'
'x-y, x, -z'
'-x+2/3, -y+1/3, -z+1/3'
'y+2/3, -x+y+1/3, -z+1/3'
'x-y+2/3, x+1/3, -z+1/3'
'-x+1/3, -y+2/3, -z+2/3'
'y+1/3, -x+y+2/3, -z+2/3'
'x-y+1/3, x+2/3, -z+2/3'

_cell_length_a                   45.597(6)
_cell_length_b                   45.597(6)
_cell_length_c                   40.718(8)
_cell_angle_alpha                90.00
_cell_angle_beta                 90.00
_cell_angle_gamma                120.00
_cell_volume                     73314(21)
_cell_formula_units_Z            9
_cell_measurement_temperature    295(2)
_cell_measurement_reflns_used    4112
_cell_measurement_theta_min      2.44
_cell_measurement_theta_max      21.21

_exptl_crystal_description       block
_exptl_crystal_colour            'pale yellow'
_exptl_crystal_size_max          0.20
_exptl_crystal_size_mid          0.20
_exptl_crystal_size_min          0.12
_exptl_crystal_density_meas      ?
_exptl_crystal_density_diffrn    0.676
_exptl_crystal_density_method    'not measured'
_exptl_crystal_F_000             14940
_exptl_absorpt_coefficient_mu    0.317
_exptl_absorpt_correction_type   multi-scan
_exptl_absorpt_correction_T_min  0.9393
_exptl_absorpt_correction_T_max  0.9630
_exptl_absorpt_process_details   '(SADABS; Bruker, 1997)'

_exptl_special_details           
; 
 ? 
;

_diffrn_ambient_temperature      295(2)
_diffrn_radiation_wavelength     0.71073
_diffrn_radiation_type           MoK\a
_diffrn_radiation_source         'fine-focus sealed tube'
_diffrn_radiation_monochromator  graphite
_diffrn_measurement_device_type  'CCD area detector'
_diffrn_measurement_method       'phi and omega scans'
_diffrn_detector_area_resol_mean ?
_diffrn_standards_number         ?
_diffrn_standards_interval_count ?
_diffrn_standards_interval_time  ?
_diffrn_standards_decay_%        ?
_diffrn_reflns_number            154276
_diffrn_reflns_av_R_equivalents  0.1972
_diffrn_reflns_av_unetI/netI     0.4580
_diffrn_reflns_limit_h_min       -40
_diffrn_reflns_limit_h_max       60
_diffrn_reflns_limit_k_min       -59
_diffrn_reflns_limit_k_max       41
_diffrn_reflns_limit_l_min       -53
_diffrn_reflns_limit_l_max       53
_diffrn_reflns_theta_min         0.72
_diffrn_reflns_theta_max         28.28
_reflns_number_total             38108
_reflns_number_gt                6578
_reflns_threshold_expression     >2sigma(I)

_computing_data_collection       'Bruker SMART'
_computing_cell_refinement       'Bruker SMART'
_computing_data_reduction        'Bruker SAINT'
_computing_structure_solution    'SHELXS-97 (Sheldrick, 2008)'
_computing_structure_refinement  'SHELXL-97 (Sheldrick, 2008)'
_computing_molecular_graphics    'Bruker SHELXTL'
_computing_publication_material  'Bruker SHELXTL'

_refine_special_details          
; 
 Refinement of F^2^ against ALL reflections.  The weighted R-factor wR and 
 goodness of fit S are based on F^2^, conventional R-factors R are based 
 on F, with F set to zero for negative F^2^. The threshold expression of 
 F^2^ > 2sigma(F^2^) is used only for calculating R-factors(gt) etc. and is 
 not relevant to the choice of reflections for refinement.  R-factors based 
 on F^2^ are statistically about twice as large as those based on F, and R- 
 factors based on ALL data will be even larger. 
;

_refine_ls_structure_factor_coef Fsqd
_refine_ls_matrix_type           full
_refine_ls_weighting_scheme      calc
_refine_ls_weighting_details     
'calc w=1/[\s^2^(Fo^2^)+(0.1237P)^2^+0.0000P] where P=(Fo^2^+2Fc^2^)/3'
_atom_sites_solution_primary     direct
_atom_sites_solution_secondary   difmap
_atom_sites_solution_hydrogens   geom
_refine_ls_hydrogen_treatment    constr
_refine_ls_extinction_method     none
_refine_ls_extinction_coef       ?
_refine_ls_number_reflns         38108
_refine_ls_number_parameters     815
_refine_ls_number_restraints     48
_refine_ls_R_factor_all          0.3237
_refine_ls_R_factor_gt           0.0925
_refine_ls_wR_factor_ref         0.3075
_refine_ls_wR_factor_gt          0.2502
_refine_ls_goodness_of_fit_ref   0.671
_refine_ls_restrained_S_all      0.670
_refine_ls_shift/su_max          0.003
_refine_ls_shift/su_mean         0.000

loop_
_atom_site_label
_atom_site_type_symbol
_atom_site_fract_x
_atom_site_fract_y
_atom_site_fract_z
_atom_site_U_iso_or_equiv
_atom_site_adp_type
_atom_site_occupancy
_atom_site_symmetry_multiplicity
_atom_site_calc_flag
_atom_site_refinement_flags
_atom_site_disorder_assembly
_atom_site_disorder_group
In1 In 0.240656(17) 1.064410(17) 0.457801(16) 0.0996(3) Uani 1 1 d . . .
In2 In 0.069166(15) 0.828802(15) 0.794546(14) 0.0791(2) Uani 1 1 d . . .
O11 O 0.2614(2) 1.0745(2) 0.50587(15) 0.157(3) Uani 1 1 d . . .
O12 O 0.2307(2) 1.0228(3) 0.4944(2) 0.185(4) Uani 1 1 d . . .
O13 O 0.0962(2) 0.8624(2) 0.75095(19) 0.127(3) Uani 1 1 d . . .
O14 O 0.12985(17) 0.86215(18) 0.78906(19) 0.130(3) Uani 1 1 d . . .
O15 O 0.45389(17) 1.09498(19) 0.75408(17) 0.145(2) Uani 1 1 d D . .
O16 O 0.43946(13) 1.04672(17) 0.77533(16) 0.125(2) Uani 1 1 d D . .
O21 O 0.0346(2) 0.79617(17) 0.83641(16) 0.117(2) Uani 1 1 d . . .
O22 O 0.09048(19) 0.8242(2) 0.84359(17) 0.141(3) Uani 1 1 d . . .
O23 O -0.11696(19) 0.58694(19) 1.09360(17) 0.134(3) Uani 1 1 d . . .
O24 O -0.1180(4) 0.6262(4) 1.1209(3) 0.134(6) Uiso 0.50 1 d PD . .
O24# O -0.1267(3) 0.6284(3) 1.1050(3) 0.089(4) Uiso 0.50 1 d PD . .
O25 O 0.21265(18) 0.8181(2) 1.1248(2) 0.156(3) Uani 1 1 d D . .
O26 O 0.2348(2) 0.8154(2) 1.0793(2) 0.153(3) Uani 1 1 d D . .
O31 O 0.03035(16) 0.84499(16) 0.78176(18) 0.109(2) Uani 1 1 d . . .
O32 O 0.07242(18) 0.87573(15) 0.81692(15) 0.107(2) Uani 1 1 d . . .
O41 O 0.1950(2) 1.0744(3) 0.4818(3) 0.195(4) Uani 1 1 d D . .
O42 O 0.18677(15) 1.0381(2) 0.4477(2) 0.168(3) Uani 1 1 d D . .
C11 C 0.2534(7) 1.0516(11) 0.5161(4) 0.45(3) Uani 1 1 d . . .
C12 C 0.2537(4) 1.0384(3) 0.5362(8) 0.228(11) Uani 1 1 d . . .
C13 C 0.2770(4) 1.0585(4) 0.5691(4) 0.181(6) Uani 1 1 d . . .
H13 H 0.2900 1.0817 0.5656 0.217 Uiso 1 1 calc R . .
C14 C 0.2823(3) 1.0490(4) 0.6015(3) 0.171(5) Uani 1 1 d . . .
H14 H 0.2977 1.0651 0.6159 0.206 Uiso 1 1 calc R . .
C15 C 0.2637(3) 1.0154(4) 0.6104(3) 0.142(5) Uani 1 1 d . . .
C16 C 0.2423(3) 0.9922(3) 0.5842(5) 0.194(8) Uani 1 1 d . . .
H16 H 0.2294 0.9688 0.5865 0.233 Uiso 1 1 calc R . .
C17 C 0.2439(5) 1.0105(9) 0.5538(3) 0.303(19) Uani 1 1 d . . .
H17 H 0.2313 0.9932 0.5389 0.363 Uiso 1 1 calc R . .
C18 C 0.2683(3) 1.0083(3) 0.6459(3) 0.116(3) Uani 1 1 d . . .
C19 C 0.2412(3) 0.9848(3) 0.6634(3) 0.122(4) Uani 1 1 d . . .
H19 H 0.2200 0.9750 0.6536 0.147 Uiso 1 1 calc R . .
C110 C 0.2433(3) 0.9748(3) 0.6950(3) 0.099(3) Uani 1 1 d . . .
C111 C 0.2749(3) 0.9896(3) 0.7091(2) 0.107(3) Uani 1 1 d . . .
H111 H 0.2768 0.9833 0.7303 0.128 Uiso 1 1 calc R . .
C112 C 0.3036(3) 1.0132(3) 0.6935(2) 0.096(3) Uani 1 1 d . . .
C113 C 0.3006(3) 1.0231(3) 0.6617(3) 0.121(3) Uani 1 1 d . . .
H113 H 0.3197 1.0394 0.6507 0.145 Uiso 1 1 calc R . .
C114 C 0.2144(2) 0.95054(17) 0.7136(2) 0.117(4) Uani 1 1 d G . .
C115 C 0.1821(3) 0.94339(19) 0.70448(15) 0.137(4) Uani 1 1 d G . .
H115 H 0.1794 0.9555 0.6876 0.164 Uiso 1 1 calc R . .
C116 C 0.15389(17) 0.9181(2) 0.7206(2) 0.144(4) Uani 1 1 d G . .
H116 H 0.1323 0.9133 0.7145 0.172 Uiso 1 1 calc R . .
C117 C 0.15797(19) 0.89991(17) 0.7458(2) 0.122(4) Uani 1 1 d GD . .
C118 C 0.1903(2) 0.9071(2) 0.7550(2) 0.24(3) Uiso 0.50 1 d PG . .
C119 C 0.21846(17) 0.9324(3) 0.7389(3) 0.202(7) Uani 1 1 d GD . .
C68# C 0.1899(3) 0.9041(3) 0.7513(5) 0.096(12) Uiso 0.50 1 d PD . .
C120 C 0.1238(4) 0.8713(3) 0.7634(4) 0.125(5) Uani 1 1 d . . .
C121 C 0.3379(3) 1.0281(3) 0.7088(2) 0.098(3) Uani 1 1 d . . .
C122 C 0.3450(3) 1.0065(3) 0.7285(3) 0.126(4) Uani 1 1 d . . .
H122 H 0.3284 0.9839 0.7313 0.151 Uiso 1 1 calc R . .
C123 C 0.3761(3) 1.0185(3) 0.7435(3) 0.122(4) Uani 1 1 d . . .
H123 H 0.3805 1.0040 0.7559 0.146 Uiso 1 1 calc R . .
C124 C 0.4005(2) 1.0521(3) 0.7401(3) 0.115(4) Uani 1 1 d D . .
C125 C 0.3936(3) 1.0715(3) 0.7215(3) 0.130(4) Uani 1 1 d . . .
H125 H 0.4100 1.0943 0.7197 0.157 Uiso 1 1 calc R . .
C126 C 0.3632(3) 1.0602(3) 0.7043(3) 0.133(4) Uani 1 1 d . . .
H126 H 0.3606 1.0746 0.6900 0.159 Uiso 1 1 calc R . .
C127 C 0.4333(2) 1.0646(2) 0.7573(3) 0.021(4) Uiso 0.40 1 d PD . .
C67# C 0.4349(2) 1.06357(19) 0.7538(2) 0.38(4) Uiso 0.60 1 d PD . .
C21 C 0.0620(4) 0.8053(3) 0.8532(3) 0.115(4) Uani 1 1 d . . .
C22 C 0.0547(2) 0.7898(2) 0.88851(15) 0.110(3) Uani 1 1 d GD . .
C23 C 0.0261(2) 0.7598(2) 0.8978(2) 0.103(7) Uiso 0.50 1 d PG . .
C24 C 0.02292(17) 0.74797(19) 0.9298(2) 0.072(5) Uiso 0.50 1 d PG . .
C25 C 0.0484(2) 0.7662(2) 0.95254(16) 0.110(3) Uani 1 1 d GD . .
C26 C 0.07696(18) 0.7963(2) 0.94329(19) 0.059(4) Uiso 0.50 1 d PG . .
C27 C 0.08011(19) 0.80806(18) 0.9113(2) 0.090(6) Uiso 0.50 1 d PG . .
C23# C 0.0229(3) 0.7723(5) 0.9032(4) 0.119(8) Uiso 0.50 1 d PD . .
C24# C 0.0199(3) 0.7617(5) 0.9357(4) 0.093(6) Uiso 0.50 1 d PD . .
C26# C 0.0774(4) 0.7754(7) 0.9342(6) 0.198(12) Uiso 0.50 1 d PD . .
C27# C 0.0823(5) 0.7902(8) 0.9033(7) 0.219(14) Uiso 0.50 1 d PD . .
C28 C 0.0469(3) 0.7517(3) 0.9855(2) 0.097(3) Uani 1 1 d . . .
C29 C 0.0166(3) 0.7275(2) 1.0007(2) 0.102(3) Uani 1 1 d . . .
H29 H -0.0040 0.7194 0.9899 0.122 Uiso 1 1 calc R . .
C210 C 0.0177(2) 0.7157(2) 1.0321(2) 0.094(3) Uani 1 1 d . . .
C211 C 0.0481(3) 0.7274(2) 1.0490(2) 0.102(3) Uani 1 1 d . . .
H211 H 0.0486 0.7196 1.0699 0.122 Uiso 1 1 calc R . .
C212 C 0.0782(3) 0.7516(3) 1.0331(3) 0.100(3) Uani 1 1 d . . .
C213 C 0.0765(2) 0.7619(2) 1.0028(2) 0.096(3) Uani 1 1 d . . .
H213 H 0.0967 0.7771 0.9926 0.115 Uiso 1 1 calc R . .
C214 C -0.0153(2) 0.6902(2) 1.04839(17) 0.107(3) Uani 1 1 d GD . .
C215 C -0.0428(3) 0.69544(19) 1.0498(2) 0.114(6) Uiso 0.60 1 d PG . .
C216 C -0.0727(2) 0.6716(3) 1.0648(2) 0.126(6) Uiso 0.60 1 d PG . .
C217 C -0.07512(17) 0.6425(2) 1.07841(19) 0.113(3) Uani 1 1 d GD . .
C218 C -0.0476(2) 0.63726(18) 1.0770(2) 0.100(5) Uiso 0.60 1 d PG . .
C219 C -0.01773(19) 0.6611(3) 1.0620(2) 0.106(5) Uiso 0.60 1 d PG . .
C15# C -0.0281(7) 0.6976(7) 1.0762(5) 0.185(13) Uiso 0.40 1 d PD . .
C16# C -0.0564(6) 0.6739(3) 1.0934(5) 0.130(9) Uiso 0.40 1 d PD . .
C18# C -0.0643(5) 0.6329(4) 1.0506(4) 0.118(8) Uiso 0.40 1 d PD . .
C19# C -0.0376(4) 0.6593(3) 1.0339(4) 0.098(7) Uiso 0.40 1 d PD . .
C220 C -0.1084(2) 0.6166(3) 1.0966(2) 0.104(3) Uani 1 1 d D . .
C221 C 0.1110(3) 0.7637(2) 1.0515(3) 0.094(3) Uani 1 1 d . . .
C222 C 0.1148(3) 0.7697(3) 1.0851(3) 0.133(4) Uani 1 1 d . . .
H222 H 0.0964 0.7650 1.0985 0.160 Uiso 1 1 calc R . .
C223 C 0.1479(4) 0.7833(3) 1.0983(3) 0.134(4) Uani 1 1 d . . .
H223 H 0.1509 0.7867 1.1208 0.161 Uiso 1 1 calc R . .
C224 C 0.1757(3) 0.7917(2) 1.0788(4) 0.107(3) Uani 1 1 d D . .
C225 C 0.1709(3) 0.7836(3) 1.0481(3) 0.127(4) Uani 1 1 d . . .
H225 H 0.1893 0.7867 1.0356 0.153 Uiso 1 1 calc R . .
C226 C 0.1410(3) 0.7711(3) 1.0333(2) 0.122(4) Uani 1 1 d . . .
H226 H 0.1394 0.7671 1.0108 0.146 Uiso 1 1 calc R . .
C227 C 0.2089(3) 0.8083(3) 1.0957(2) 0.125(5) Uani 1 1 d D . .
C31 C 0.0466(3) 0.8696(3) 0.7988(3) 0.098(3) Uani 1 1 d . . .
C32 C 0.0361(2) 0.8967(2) 0.8030(2) 0.121(4) Uani 1 1 d GD . .
C33 C 0.0518(3) 0.9222(3) 0.8262(3) 0.097(7) Uiso 0.50 1 d PG . .
C34 C 0.0412(4) 0.9458(3) 0.8305(3) 0.161(12) Uiso 0.50 1 d PG . .
C35 C 0.0150(4) 0.9438(3) 0.8115(4) 0.102(7) Uiso 0.50 1 d PGD . .
C36 C -0.0007(3) 0.9183(3) 0.7882(3) 0.119(9) Uiso 0.50 1 d PG . .
C37 C 0.0098(2) 0.89472(19) 0.7840(2) 0.160(5) Uani 1 1 d GD . .
C38 C 0.0085(4) 0.9725(3) 0.8111(4) 0.074(5) Uiso 0.50 1 d PD . .
C39 C -0.0263(4) 0.9668(5) 0.8146(5) 0.112(7) Uiso 0.50 1 d PD . .
C33# C 0.0575(4) 0.9301(3) 0.8124(6) 0.125(8) Uiso 0.50 1 d PD . .
C34# C 0.0473(4) 0.9540(5) 0.8151(5) 0.106(7) Uiso 0.50 1 d PD . .
C35# C 0.0213(4) 0.9487(4) 0.7937(5) 0.100(6) Uiso 0.50 1 d PD . .
C36# C 0.0036(6) 0.9203(4) 0.7739(5) 0.142(9) Uiso 0.50 1 d PD . .
C38# C 0.0103(5) 0.9741(5) 0.7899(5) 0.119(7) Uiso 0.50 1 d PD . .
C39# C -0.0253(4) 0.9654(4) 0.7949(4) 0.079(6) Uiso 0.50 1 d PD . .
C41 C 0.1735(4) 1.0519(4) 0.4636(3) 0.070(5) Uiso 0.50 1 d PD . .
C42 C 0.1382(8) 1.0249(16) 0.456(2) 0.52(5) Uiso 0.50 1 d PD . .
C41# C 0.1781(3) 1.0582(5) 0.4580(5) 0.55(7) Uiso 0.50 1 d PD . .
C42# C 0.1414(4) 1.0440(3) 0.4638(3) 0.047(4) Uiso 0.50 1 d PD . .
C43 C 0.1265(3) 1.0606(3) 0.4789(3) 0.146(4) Uani 1 1 d D . .
C44 C 0.0905(3) 1.0470(3) 0.4737(3) 0.120(4) Uani 1 1 d . . .
H44 H 0.0801 1.0575 0.4842 0.143 Uiso 1 1 calc R . .
C45 C 0.0717(3) 1.0203(3) 0.4549(3) 0.118(4) Uani 1 1 d . . .
C46 C 0.0858(4) 1.0036(3) 0.4396(3) 0.146(5) Uani 1 1 d . . .
H46 H 0.0727 0.9845 0.4268 0.176 Uiso 1 1 calc R . .
C47 C 0.1214(3) 1.0164(3) 0.4438(3) 0.171(7) Uani 1 1 d D . .
C51 C 1.00567(13) 0.78972(19) 0.6805(2) 0.094(5) Uiso 0.50 1 d PGD . .
C52 C 1.03119(13) 0.78164(14) 0.67754(18) 0.098(6) Uiso 0.50 1 d PG . .
H52 H 1.0259 0.7591 0.6783 0.117 Uiso 0.50 1 calc PR . .
C53 C 1.06460(13) 0.80720(13) 0.67339(11) 0.082(5) Uiso 0.50 1 d PG . .
C54 C 1.07250(14) 0.84084(13) 0.67220(17) 0.102(6) Uiso 0.50 1 d PG . .
H54 H 1.0948 0.8579 0.6694 0.123 Uiso 0.50 1 calc PR . .
C55 C 1.04698(18) 0.84892(17) 0.6752(2) 0.104(6) Uiso 0.50 1 d PGD . .
N51 N 1.01357(16) 0.8234(2) 0.67932(18) 0.102(4) Uiso 0.50 1 d PGD . .
C57 C 1.09311(14) 0.80201(15) 0.66891(13) 0.096(5) Uiso 0.50 1 d PG . .
C58 C 1.0896(2) 0.77716(19) 0.64688(19) 0.127(7) Uiso 0.50 1 d PG . .
H58 H 1.0695 0.7648 0.6353 0.153 Uiso 0.50 1 calc PR . .
C59 C 1.1161(2) 0.7708(2) 0.6422(2) 0.164(9) Uiso 0.50 1 d PG . .
H59 H 1.1138 0.7542 0.6275 0.197 Uiso 0.50 1 calc PR . .
C510 C 1.1462(2) 0.7893(3) 0.6596(2) 0.215(12) Uiso 0.50 1 d PG . .
H510 H 1.1639 0.7851 0.6565 0.258 Uiso 0.50 1 calc PR . .
C511 C 1.14968(17) 0.8142(3) 0.6816(2) 0.133(7) Uiso 0.50 1 d PG . .
H511 H 1.1698 0.8266 0.6932 0.160 Uiso 0.50 1 calc PR . .
C512 C 1.12315(14) 0.8205(2) 0.68627(18) 0.078(5) Uiso 0.50 1 d PG . .
H512 H 1.1255 0.8371 0.7010 0.094 Uiso 0.50 1 calc PR . .
O51 O 0.9001(3) 0.8438(4) 0.6926(4) 0.208(7) Uiso 0.50 1 d PD . .
C513 C 0.98950(19) 0.83705(14) 0.6861(3) 0.170(9) Uiso 0.50 1 d PGD . .
C514 C 0.9786(3) 0.84519(19) 0.6574(2) 0.207(11) Uiso 0.50 1 d PG . .
H514 H 0.9905 0.8484 0.6379 0.248 Uiso 0.50 1 calc PR . .
C515 C 0.9499(3) 0.8486(2) 0.6579(2) 0.221(12) Uiso 0.50 1 d PGD . .
C516 C 0.9322(3) 0.8438(2) 0.6870(3) 0.283(17) Uiso 0.50 1 d PGD . .
C517 C 0.9431(3) 0.83565(19) 0.7156(2) 0.149(8) Uiso 0.50 1 d PGD . .
C518 C 0.9717(3) 0.83228(16) 0.7152(2) 0.126(7) Uiso 0.50 1 d PG . .
H518 H 0.9790 0.8268 0.7344 0.151 Uiso 0.50 1 calc PR . .
C519 C 0.96982(14) 0.76379(15) 0.6862(3) 0.106(6) Uiso 0.50 1 d PGD . .
C524 C 0.9623(2) 0.74415(18) 0.7144(3) 0.118(6) Uiso 0.50 1 d PG . .
H524 H 0.9790 0.7491 0.7300 0.141 Uiso 0.50 1 calc PR . .
C529 C 0.9298(3) 0.71709(17) 0.7193(3) 0.194(11) Uiso 0.50 1 d PG . .
H529 H 0.9247 0.7040 0.7382 0.232 Uiso 0.50 1 calc PR . .
C530 C 0.90477(18) 0.70965(14) 0.6959(3) 0.162(9) Uiso 0.50 1 d PG . .
H530 H 0.8830 0.6915 0.6992 0.194 Uiso 0.50 1 calc PR . .
C531 C 0.9123(2) 0.72928(17) 0.6677(3) 0.149(8) Uiso 0.50 1 d PG . .
H531 H 0.8956 0.7243 0.6521 0.179 Uiso 0.50 1 calc PR . .
C532 C 0.9448(2) 0.75635(17) 0.66283(19) 0.152(8) Uiso 0.50 1 d PG . .
H532 H 0.9498 0.7695 0.6440 0.182 Uiso 0.50 1 calc PR . .
C49 C 0.0117(3) 0.9772(3) 0.4547(3) 0.123(4) Uani 1 1 d . . .
H49 H 0.0196 0.9621 0.4543 0.147 Uiso 1 1 calc R . .
C520 C 1.0548(2) 0.88353(17) 0.6839(4) 0.158(9) Uiso 0.50 1 d PGD . .
C539 C 1.05873(19) 0.9047(2) 0.7101(3) 0.202(11) Uiso 0.50 1 d PG . .
H5