####################################################################### 
# 
# This file contains crystal structure data downloaded from the 
# Cambridge Structural Database (CSD) hosted by the Cambridge 
# Crystallographic Data Centre (CCDC).
# 
# Full information about CCDC data access policies and citation 
# guidelines are available at http://www.ccdc.cam.ac.uk/access/V1 
# 
# Audit and citation data items may have been added by the CCDC. 
# Please retain this information to preserve the provenance of 
# this file and to allow appropriate attribution of the data. 
# 
#######################################################################

data_yjp270_0ms_sqd
_audit_block_doi                 10.5517/cc1272q3
_database_code_depnum_ccdc_archive 'CCDC 989914'
loop_
_citation_id
_citation_doi
_citation_year
1 10.1021/cg5005837 2014
_audit_update_record             
;
2014-07-29 deposited with the CCDC.	2024-07-10 downloaded from the CCDC.
;

_audit_creation_method           SHELXL-97
_chemical_name_systematic        
; 
 ? 
;
_chemical_name_common            ?
_chemical_melting_point          ?
_chemical_formula_moiety         ?
_chemical_formula_sum            'C72.67 H40 In2 O21.83'
_chemical_formula_weight         1492.02

loop_
_atom_type_symbol
_atom_type_description
_atom_type_scat_dispersion_real
_atom_type_scat_dispersion_imag
_atom_type_scat_source
C C 0.0033 0.0016 'International Tables Vol C Tables 4.2.6.8 and 6.1.1.4'
H H 0.0000 0.0000 'International Tables Vol C Tables 4.2.6.8 and 6.1.1.4'
O O 0.0106 0.0060 'International Tables Vol C Tables 4.2.6.8 and 6.1.1.4'
In In -0.7276 1.3100 'International Tables Vol C Tables 4.2.6.8 and 6.1.1.4'

_symmetry_cell_setting           Trigonal
_symmetry_space_group_name_H-M   R-3

loop_
_symmetry_equiv_pos_as_xyz
'x, y, z'
'-y, x-y, z'
'-x+y, -x, z'
'x+2/3, y+1/3, z+1/3'
'-y+2/3, x-y+1/3, z+1/3'
'-x+y+2/3, -x+1/3, z+1/3'
'x+1/3, y+2/3, z+2/3'
'-y+1/3, x-y+2/3, z+2/3'
'-x+y+1/3, -x+2/3, z+2/3'
'-x, -y, -z'
'y, -x+y, -z'
'x-y, x, -z'
'-x+2/3, -y+1/3, -z+1/3'
'y+2/3, -x+y+1/3, -z+1/3'
'x-y+2/3, x+1/3, -z+1/3'
'-x+1/3, -y+2/3, -z+2/3'
'y+1/3, -x+y+2/3, -z+2/3'
'x-y+1/3, x+2/3, -z+2/3'

_cell_length_a                   44.1252(8)
_cell_length_b                   44.1252(8)
_cell_length_c                   42.2961(9)
_cell_angle_alpha                90.00
_cell_angle_beta                 90.00
_cell_angle_gamma                120.00
_cell_volume                     71319(2)
_cell_formula_units_Z            18
_cell_measurement_temperature    100(2)
_cell_measurement_reflns_used    5717
_cell_measurement_theta_min      2.54
_cell_measurement_theta_max      23.21

_exptl_crystal_description       block
_exptl_crystal_colour            orange
_exptl_crystal_size_max          0.45
_exptl_crystal_size_mid          0.35
_exptl_crystal_size_min          0.28
_exptl_crystal_density_meas      ?
_exptl_crystal_density_diffrn    0.625
_exptl_crystal_density_method    'not measured'
_exptl_crystal_F_000             13476
_exptl_absorpt_coefficient_mu    0.324
_exptl_absorpt_correction_type   multi-scan
_exptl_absorpt_correction_T_min  0.8680
_exptl_absorpt_correction_T_max  0.9148
_exptl_absorpt_process_details   '(SADABS; Bruker, 1997)'

_exptl_special_details           
; 
 ? 
;

_diffrn_ambient_temperature      100(2)
_diffrn_radiation_wavelength     0.71073
_diffrn_radiation_type           MoK\a
_diffrn_radiation_source         'fine-focus sealed tube'
_diffrn_radiation_monochromator  graphite
_diffrn_measurement_device_type  'Bruker APEX-II CCD'
_diffrn_measurement_method       '\f and \w scans'
_diffrn_detector_area_resol_mean ?
_diffrn_standards_number         ?
_diffrn_standards_interval_count ?
_diffrn_standards_interval_time  ?
_diffrn_standards_decay_%        ?
_diffrn_reflns_number            440467
_diffrn_reflns_av_R_equivalents  0.1039
_diffrn_reflns_av_unetI/netI     0.0860
_diffrn_reflns_limit_h_min       -58
_diffrn_reflns_limit_h_max       57
_diffrn_reflns_limit_k_min       -58
_diffrn_reflns_limit_k_max       58
_diffrn_reflns_limit_l_min       -56
_diffrn_reflns_limit_l_max       56
_diffrn_reflns_theta_min         0.72
_diffrn_reflns_theta_max         28.35
_reflns_number_total             39539
_reflns_number_gt                16292
_reflns_threshold_expression     >2sigma(I)

_computing_data_collection       'Bruker APEX-II'
_computing_cell_refinement       'SAINT V8.27B (Bruker AXS Inc., 2012)'
_computing_data_reduction        'SAINT V8.27B (Bruker AXS Inc., 2012)'
_computing_structure_solution    'SHELXS-97 (Sheldrick, 2008)'
_computing_structure_refinement  'SHELXL-97 (Sheldrick, 2008)'
_computing_molecular_graphics    'Bruker SHELXTL'
_computing_publication_material  'Bruker SHELXTL'

_refine_special_details          
; 
 Refinement of F^2^ against ALL reflections.  The weighted R-factor wR and 
 goodness of fit S are based on F^2^, conventional R-factors R are based 
 on F, with F set to zero for negative F^2^. The threshold expression of 
 F^2^ > 2sigma(F^2^) is used only for calculating R-factors(gt) etc. and is 
 not relevant to the choice of reflections for refinement.  R-factors based 
 on F^2^ are statistically about twice as large as those based on F, and R- 
 factors based on ALL data will be even larger. 
;

_refine_ls_structure_factor_coef Fsqd
_refine_ls_matrix_type           full
_refine_ls_weighting_scheme      calc
_refine_ls_weighting_details     
'calc w=1/[\s^2^(Fo^2^)+(0.2000P)^2^+0.0000P] where P=(Fo^2^+2Fc^2^)/3'
_atom_sites_solution_primary     direct
_atom_sites_solution_secondary   difmap
_atom_sites_solution_hydrogens   geom
_refine_ls_hydrogen_treatment    constr
_refine_ls_extinction_method     none
_refine_ls_extinction_coef       ?
_refine_ls_number_reflns         39539
_refine_ls_number_parameters     739
_refine_ls_number_restraints     22
_refine_ls_R_factor_all          0.2075
_refine_ls_R_factor_gt           0.1153
_refine_ls_wR_factor_ref         0.3758
_refine_ls_wR_factor_gt          0.3365
_refine_ls_goodness_of_fit_ref   1.074
_refine_ls_restrained_S_all      1.074
_refine_ls_shift/su_max          0.002
_refine_ls_shift/su_mean         0.000

loop_
_atom_site_label
_atom_site_type_symbol
_atom_site_fract_x
_atom_site_fract_y
_atom_site_fract_z
_atom_site_U_iso_or_equiv
_atom_site_adp_type
_atom_site_occupancy
_atom_site_symmetry_multiplicity
_atom_site_calc_flag
_atom_site_refinement_flags
_atom_site_disorder_assembly
_atom_site_disorder_group
In1 In 0.801380(11) 0.040429(12) 0.959054(10) 0.06356(17) Uani 1 1 d . . .
In2 In 0.859978(12) 0.288257(13) 0.637824(12) 0.0827(2) Uani 1 1 d . . .
O11 O 0.82457(10) 0.07384(11) 0.91413(9) 0.0724(11) Uani 1 1 d . . .
O12 O 0.82316(11) 0.09836(11) 0.95823(10) 0.0792(12) Uani 1 1 d . . .
O13 O 0.86344(17) 0.26172(17) 0.68051(11) 0.1211(19) Uani 1 1 d . . .
O14 O 0.88779(12) 0.31838(14) 0.68463(10) 0.0952(15) Uani 1 1 d . . .
O15 O 1.04044(18) 0.4404(2) 0.95087(19) 0.181(4) Uani 1 1 d . . .
O16 O 1.0778(2) 0.42435(15) 0.94644(15) 0.127(2) Uani 1 1 d . . .
O21 O 0.77823(10) -0.00029(11) 0.99811(9) 0.0697(10) Uani 1 1 d . . .
O22 O 0.79318(11) 0.05293(11) 1.00926(9) 0.0710(11) Uani 1 1 d . . .
O23 O 0.77198(18) -0.16391(18) 1.25420(16) 0.125(2) Uani 1 1 d . . .
O24 O 0.7478(2) -0.1526(2) 1.2929(2) 0.159(2) Uani 1 1 d U . .
O25 O 0.74917(11) 0.03796(12) 0.94825(9) 0.0741(11) Uani 1 1 d . . .
O26 O 0.76123(10) -0.00037(11) 0.92634(10) 0.0731(11) Uani 1 1 d . . .
O31 O 0.82779(10) 0.01057(10) 0.94289(9) 0.0684(10) Uani 1 1 d . . .
O32 O 0.85507(10) 0.05389(10) 0.97612(9) 0.0676(10) Uani 1 1 d . . .
O41 O 0.84286(12) 0.32739(13) 0.62941(11) 0.0920(14) Uani 1 1 d D . .
O42 O 0.81203(16) 0.28426(15) 0.66133(15) 0.1309(19) Uani 1 1 d DU . .
C11 C 0.83202(13) 0.10193(15) 0.92934(17) 0.0644(15) Uani 1 1 d . . .
C12 C 0.84931(8) 0.13598(6) 0.91374(7) 0.0701(16) Uani 1 1 d G . .
C13 C 0.86029(9) 0.16558(7) 0.93243(6) 0.0811(18) Uani 1 1 d G . .
H13 H 0.8569 0.1633 0.9542 0.097 Uiso 1 1 calc R . .
C14 C 0.87636(8) 0.19857(7) 0.91859(5) 0.090(2) Uani 1 1 d G . .
H14 H 0.8837 0.2184 0.9311 0.108 Uiso 1 1 calc R . .
C15 C 0.88146(5) 0.20196(5) 0.88606(5) 0.0812(18) Uani 1 1 d G . .
C16 C 0.87048(8) 0.17237(5) 0.86738(6) 0.0825(19) Uani 1 1 d G . .
H16 H 0.8739 0.1746 0.8456 0.099 Uiso 1 1 calc R . .
C17 C 0.85441(9) 0.13938(5) 0.88122(7) 0.0757(17) Uani 1 1 d G . .
H17 H 0.8471 0.1196 0.8687 0.091 Uiso 1 1 calc R . .
C18 C 0.90016(6) 0.23783(5) 0.87137(5) 0.0817(18) Uani 1 1 d G . .
C19 C 0.89170(8) 0.24250(6) 0.84078(6) 0.092(2) Uani 1 1 d G . .
H19 H 0.8739 0.2238 0.8299 0.110 Uiso 1 1 calc R . .
C110 C 0.90988(10) 0.27519(7) 0.82650(7) 0.093(2) Uani 1 1 d G . .
C111 C 0.93650(10) 0.30322(6) 0.84280(8) 0.108(3) Uani 1 1 d G . .
H111 H 0.9486 0.3251 0.8332 0.129 Uiso 1 1 calc R . .
C112 C 0.94495(10) 0.29855(6) 0.87339(8) 0.099(2) Uani 1 1 d G . .
C113 C 0.92677(8) 0.26586(6) 0.88768(6) 0.096(2) Uani 1 1 d G . .
H113 H 0.9324 0.2627 0.9081 0.115 Uiso 1 1 calc R . .
C114 C 0.9025(2) 0.27993(19) 0.79279(16) 0.096(2) Uani 1 1 d . . .
C115 C 0.90864(18) 0.31127(18) 0.78104(17) 0.090(2) Uani 1 1 d . . .
H115 H 0.9182 0.3307 0.7943 0.108 Uiso 1 1 calc R . .
C116 C 0.90112(17) 0.31505(19) 0.75028(15) 0.087(2) Uani 1 1 d . . .
H116 H 0.9051 0.3366 0.7429 0.104 Uiso 1 1 calc R . .
C117 C 0.88761(17) 0.2864(2) 0.73047(15) 0.085(2) Uani 1 1 d . . .
C118 C 0.8845(2) 0.2555(2) 0.7420(2) 0.107(2) Uani 1 1 d U . .
H118 H 0.8785 0.2370 0.7281 0.128 Uiso 1 1 calc R . .
C119 C 0.8898(2) 0.25177(19) 0.77246(16) 0.116(3) Uani 1 1 d . . .
H119 H 0.8849 0.2300 0.7800 0.139 Uiso 1 1 calc R . .
C120 C 0.87998(19) 0.2892(2) 0.69660(16) 0.0849(19) Uani 1 1 d . . .
C121 C 0.97238(14) 0.32888(14) 0.89147(13) 0.095(2) Uiso 1 1 d G . .
C122 C 0.99856(16) 0.32719(13) 0.90829(15) 0.150(4) Uiso 1 1 d G . .
H122 H 0.9993 0.3065 0.9087 0.180 Uiso 1 1 calc R . .
C123 C 1.02367(14) 0.35645(16) 0.92446(14) 0.133(3) Uiso 1 1 d G . .
H123 H 1.0412 0.3553 0.9357 0.160 Uiso 1 1 calc R . .
C124 C 1.02261(14) 0.38740(13) 0.92382(14) 0.095(2) Uiso 1 1 d G . .
C125 C 0.99643(17) 0.38909(13) 0.90701(16) 0.172(4) Uiso 1 1 d G . .
H125 H 0.9957 0.4098 0.9066 0.206 Uiso 1 1 calc R . .
C126 C 0.97131(15) 0.35983(17) 0.89083(15) 0.159(4) Uiso 1 1 d G . .
H126 H 0.9538 0.3610 0.8796 0.191 Uiso 1 1 calc R . .
C127 C 1.0479(3) 0.41734(18) 0.94142(18) 0.092(2) Uani 1 1 d . . .
C21 C 0.78124(14) 0.02156(16) 1.01837(13) 0.0597(14) Uani 1 1 d . . .
C22 C 0.77181(15) 0.01249(15) 1.05155(13) 0.0624(14) Uani 1 1 d . . .
C23 C 0.76025(17) -0.02118(17) 1.06228(15) 0.0780(17) Uani 1 1 d . . .
H23 H 0.7587 -0.0381 1.0482 0.094 Uiso 1 1 calc R . .
C24 C 0.75099(19) -0.03023(18) 1.09336(15) 0.088(2) Uani 1 1 d . . .
H24 H 0.7427 -0.0531 1.1000 0.106 Uiso 1 1 calc R . .
C25 C 0.7541(2) -0.00489(19) 1.11468(13) 0.083(2) Uani 1 1 d . . .
C26 C 0.76647(19) 0.02907(18) 1.10404(15) 0.087(2) Uani 1 1 d . . .
H26 H 0.7687 0.0461 1.1183 0.104 Uiso 1 1 calc R . .
C27 C 0.77547(19) 0.03815(19) 1.07287(15) 0.0856(19) Uani 1 1 d . . .
H27 H 0.7839 0.0611 1.0662 0.103 Uiso 1 1 calc R . .
C28 C 0.7438(2) -0.01355(17) 1.14920(14) 0.0834(19) Uani 1 1 d . . .
C29 C 0.74996(18) -0.03761(17) 1.16433(14) 0.0818(19) Uani 1 1 d . . .
H29 H 0.7609 -0.0480 1.1538 0.098 Uiso 1 1 calc R . .
C210 C 0.7395(2) -0.04611(18) 1.19592(15) 0.092(2) Uani 1 1 d . . .
C211 C 0.7238(2) -0.02952(19) 1.21122(15) 0.093(2) Uani 1 1 d . . .
H211 H 0.7167 -0.0352 1.2321 0.112 Uiso 1 1 calc R . .
C212 C 0.7185(2) -0.00482(18) 1.19603(14) 0.089(2) Uani 1 1 d . . .
C213 C 0.7289(2) 0.00304(19) 1.16438(15) 0.090(2) Uani 1 1 d . . .
H213 H 0.7257 0.0196 1.1537 0.107 Uiso 1 1 calc R . .
C214 C 0.74628(15) -0.07121(13) 1.21356(14) 0.092(2) Uiso 1 1 d G . .
C215 C 0.73764(18) -0.07673(18) 1.24545(15) 0.194(5) Uiso 1 1 d G . .
H215 H 0.7293 -0.0637 1.2556 0.233 Uiso 1 1 calc R . .
C216 C 0.7415(2) -0.1017(2) 1.26214(11) 0.246(7) Uiso 1 1 d G . .
H216 H 0.7357 -0.1054 1.2835 0.296 Uiso 1 1 calc R . .
C217 C 0.75406(16) -0.12117(14) 1.24693(13) 0.109(2) Uiso 1 1 d G . .
C218 C 0.76270(13) -0.11565(13) 1.21503(13) 0.101(2) Uiso 1 1 d G . .
H218 H 0.7711 -0.1287 1.2048 0.121 Uiso 1 1 calc R . .
C219 C 0.75881(14) -0.09067(14) 1.19834(10) 0.101(2) Uiso 1 1 d G . .
H219 H 0.7646 -0.0870 1.1770 0.121 Uiso 1 1 calc R . .
C220 C 0.7577(3) -0.1507(3) 1.2643(2) 0.116(3) Uani 1 1 d . . .
C221 C 0.70185(19) 0.01260(19) 1.21304(13) 0.0809(19) Uani 1 1 d . . .
C222 C 0.67509(19) -0.00654(17) 1.23467(15) 0.0830(19) Uani 1 1 d . . .
H222 H 0.6676 -0.0300 1.2383 0.100 Uiso 1 1 calc R . .
C223 C 0.68333(17) 0.00691(18) 0.91739(15) 0.0809(18) Uani 1 1 d . . .
H223 H 0.6887 0.0251 0.9315 0.097 Uiso 1 1 calc R . .
C224 C 0.70706(14) -0.00456(16) 0.91262(13) 0.0661(15) Uani 1 1 d . . .
C225 C 0.69926(17) -0.03047(18) 0.89079(15) 0.0823(18) Uani 1 1 d . . .
H225 H 0.7151 -0.0381 0.8870 0.099 Uiso 1 1 calc R . .
C226 C 0.7121(2) 0.04657(18) 1.20765(14) 0.0822(19) Uani 1 1 d . . .
H226 H 0.7294 0.0591 1.1927 0.099 Uiso 1 1 calc R . .
C227 C 0.74062(16) 0.01060(17) 0.92981(12) 0.0668(16) Uani 1 1 d . . .
C31 C 0.85485(14) 0.02913(16) 0.95998(13) 0.0581(13) Uani 1 1 d . . .
C32 C 0.88460(13) 0.02306(13) 0.95972(12) 0.0530(13) Uani 1 1 d . . .
C33 C 0.88172(15) -0.00596(15) 0.94391(13) 0.0640(14) Uani 1 1 d . . .
H33 H 0.8612 -0.0213 0.9334 0.077 Uiso 1 1 calc R . .
C34 C 0.90923(14) -0.01154(14) 0.94407(13) 0.0603(14) Uani 1 1 d . . .
H34 H 0.9067 -0.0315 0.9342 0.072 Uiso 1 1 calc R . .
C35 C 0.94149(13) 0.01159(13) 0.95851(12) 0.0536(12) Uani 1 1 d . . .
C36 C 0.94342(14) 0.04039(14) 0.97381(13) 0.0598(14) Uani 1 1 d . . .
H36 H 0.9643 0.0562 0.9836 0.072 Uiso 1 1 calc R . .
C37 C 0.91601(14) 0.04631(15) 0.97499(13) 0.0608(14) Uani 1 1 d . . .
H37 H 0.9181 0.0656 0.9858 0.073 Uiso 1 1 calc R . .
C38 C 0.97184(13) 0.00614(12) 0.95708(12) 0.0503(12) Uani 1 1 d . . .
C39 C 1.00567(13) 0.03337(12) 0.95756(12) 0.0531(12) Uani 1 1 d . . .
H39 H 1.0096 0.0561 0.9582 0.064 Uiso 1 1 calc R . .
C41 C 0.81587(16) 0.30988(16) 0.64550(17) 0.099(2) Uani 1 1 d D . .
C42 C 0.78615(13) 0.31708(16) 0.64547(15) 0.113(3) Uani 1 1 d G . .
C43 C 0.75522(16) 0.29412(14) 0.66089(14) 0.122(3) Uani 1 1 d G . .
H43 H 0.7539 0.2757 0.6728 0.146 Uiso 1 1 calc R . .
C44 C 0.72629(13) 0.29863(14) 0.65857(15) 0.129(3) Uani 1 1 d G . .
H44 H 0.7056 0.2833 0.6689 0.155 Uiso 1 1 calc R . .
C45 C 0.72830(13) 0.32609(15) 0.64083(15) 0.115(3) Uani 1 1 d G . .
C46 C 0.75924(16) 0.34905(13) 0.62542(14) 0.112(3) Uani 1 1 d G . .
H46 H 0.7606 0.3674 0.6135 0.134 Uiso 1 1 calc R . .
C47 C 0.78816(12) 0.34455(14) 0.62773(15) 0.117(3) Uani 1 1 d G . .
H47 H 0.8089 0.3599 0.6174 0.140 Uiso 1 1 calc R . .
C48 C 0.6964(2) 0.3306(2) 0.6378(2) 0.108(3) Uani 1 1 d . . .
C49 C 0.6632(2) 0.3008(2) 0.63794(19) 0.100(2) Uani 1 1 d . . .
H49 H 0.6610 0.2788 0.6381 0.120 Uiso 1 1 calc R . .
O1W O 0.7906(5) 0.9273(5) 0.9870(5) 0.204(7) Uiso 0.50 1 d P . .
O2W O 0.7255(5) 0.0797(5) 0.0022(4) 0.197(7) Uiso 0.50 1 d P . .
O3W O 0.8529(4) 0.0590(4) 0.8592(4) 0.173(5) Uiso 0.50 1 d P . .
O4W O 0.9068(5) 0.1397(5) 0.9924(5) 0.210(7) Uiso 0.50 1 d P . .
O5W O 0.8016(6) 0.0381(5) 0.8095(6) 0.238(9) Uiso 0.50 1 d P . .
O6W O 0.6837(6) 0.9559(7) 0.0001(6) 0.262(10) Uiso 0.50 1 d P . .
O7W O 0.9231(6) 0.1077(5) 0.8711(5) 0.230(8) Uiso 0.50 1 d P . .
O8W O 0.8729(6) 0.0285(6) 0.0570(6) 0.247(9) Uiso 0.50 1 d P . .
O9W O 0.9082(7) 0.2423(7) 0.9948(6) 0.278(11) Uiso 0.50 1 d P . .
O10W O 0.9564(6) 0.2680(7) 0.6813(6) 0.267(10) Uiso 0.50 1 d P . .
O11W O 0.0245(5) 0.9964(5) 0.7840(5) 0.211(7) Uiso 0.50 1 d P . .
O1S O 1.0000 1.0000 0.8671(5) 0.286(10) Uiso 1 3 d SD . .
C1S C 0.9976(5) 0.9677(2) 0.8695(5) 0.079(5) Uiso 0.33 1 d PD . .
C2S C 0.9620(5) 0.9448(7) 0.8701(7) 0.136(10) Uiso 0.33 1 d PD . .

loop_
_atom_site_aniso_label
_atom_site_aniso_U_11
_atom_site_aniso_U_22
_atom_site_aniso_U_33
_atom_site_aniso_U_23
_atom_site_aniso_U_13
_atom_site_aniso_U_12
In1 0.0664(3) 0.0787(3) 0.0559(3) 0.0062(2) 0.00448(19) 0.0439(2)
In2 0.0652(3) 0.1021(4) 0.0684(3) 0.0019(2) -0.0043(2) 0.0325(3)
O11 0.070(3) 0.072(3) 0.072(3) 0.021(2) 0.009(2) 0.033(2)
O12 0.080(3) 0.092(3) 0.063(3) 0.024(2) 0.006(2) 0.041(2)
O13 0.175(6) 0.151(5) 0.054(3) -0.024(3) -0.030(3) 0.094(5)
O14 0.088(3) 0.112(4) 0.058(3) 0.021(3) 0.002(2) 0.030(3)
O15 0.125(5) 0.171(7) 0.177(7) -0.092(6) 0.011(5) 0.021(5)
O16 0.140(5) 0.088(4) 0.126(5) -0.038(3) -0.019(4) 0.037(4)
O21 0.084(3) 0.081(3) 0.058(2) 0.005(2) 0.014(2) 0.051(2)
O22 0.090(3) 0.077(3) 0.057(2) 0.020(2) 0.022(2) 0.049(2)
O23 0.141(5) 0.140(5) 0.123(5) 0.046(4) 0.004(4) 0.093(5)
O24 0.161(3) 0.158(3) 0.159(3) 0.0024(10) -0.0006(10) 0.0801(15)
O25 0.079(3) 0.098(3) 0.056(2) -0.003(2) -0.007(2) 0.052(2)
O26 0.058(2) 0.096(3) 0.083(3) -0.018(2) -0.006(2) 0.052(2)
O31 0.063(2) 0.081(3) 0.070(2) 0.007(2) 0.004(2) 0.042(2)
O32 0.067(2) 0.075(3) 0.069(2) 0.003(2) 0.0065(19) 0.041(2)
O41 0.084(3) 0.091(3) 0.085(3) -0.006(3) -0.013(3) 0.032(3)
O42 0.130(2) 0.131(2) 0.133(2) 0.0030(10) -0.0007(10) 0.0657(13)
C11 0.038(3) 0.050(3) 0.098(5) 0.002(3) -0.013(3) 0.017(3)
C12 0.067(4) 0.070(4) 0.064(4) 0.013(3) 0.002(3) 0.028(3)
C13 0.106(5) 0.080(4) 0.053(3) 0.007(3) -0.001(3) 0.043(4)
C14 0.137(6) 0.074(4) 0.045(3) 0.002(3) -0.003(4) 0.042(4)
C15 0.081(4) 0.076(4) 0.070(4) 0.015(3) -0.010(3) 0.026(4)
C16 0.091(5) 0.069(