####################################################################### 
# 
# This file contains crystal structure data downloaded from the 
# Cambridge Structural Database (CSD) hosted by the Cambridge 
# Crystallographic Data Centre (CCDC).
# 
# Full information about CCDC data access policies and citation 
# guidelines are available at http://www.ccdc.cam.ac.uk/access/V1 
# 
# Audit and citation data items may have been added by the CCDC. 
# Please retain this information to preserve the provenance of 
# this file and to allow appropriate attribution of the data. 
# 
#######################################################################

data_aaa_sq
_audit_block_doi                 10.5517/cc130ftc
_database_code_depnum_ccdc_archive 'CCDC 1013322'
loop_
_citation_id
_citation_doi
_citation_year
1 10.1002/anie.201409334 2015
_audit_update_record             
;
2014-07-10 deposited with the CCDC.	2024-07-10 downloaded from the CCDC.
;

_diffrn_reflns_theta_min         0.7996
_diffrn_reflns_theta_max         18.9974
_reflns_number_total             514
_diffrn_radiation_wavelength     0.72775
_cell_measurement_temperature    298(2)
_diffrn_ambient_temperature      298(2)
_refine_ls_goodness_of_fit_ref   1.134

_chemical_formula_sum            'C48 H24 N6 O97.2562 Zr6'
_chemical_formula_moiety         
;
C48 H24 N6 O97.2562 Zr6
;
_symmetry_cell_setting           cubic
_symmetry_space_group_name_H-M   F-43m
_symmetry_Int_Tables_number      216
loop_
_symmetry_equiv_pos_site_id
_symmetry_equiv_pos_as_xyz
1 x,y,z
2 y,-x,-z
3 -x,-y,z
4 -y,x,-z
5 -x,z,-y
6 x,-y,-z
7 -x,-z,y
8 -z,-y,x
9 -x,y,-z
10 z,-y,-x
11 z,x,y
12 y,z,x
13 -y,-z,x
14 z,-x,-y
15 -y,z,-x
16 -z,-x,y
17 -z,x,-y
18 y,-z,-x
19 -y,-x,z
20 y,x,z
21 x,-z,-y
22 x,z,y
23 -z,y,-x
24 z,y,x
25 x,1/2+y,1/2+z
26 1/2+x,y,1/2+z
27 1/2+x,1/2+y,z
28 y,1/2-x,1/2-z
29 1/2+y,-x,1/2-z
30 1/2+y,1/2-x,-z
31 -x,1/2-y,1/2+z
32 1/2-x,-y,1/2+z
33 1/2-x,1/2-y,z
34 -y,1/2+x,1/2-z
35 1/2-y,x,1/2-z
36 1/2-y,1/2+x,-z
37 -x,1/2+z,1/2-y
38 1/2-x,z,1/2-y
39 1/2-x,1/2+z,-y
40 x,1/2-y,1/2-z
41 1/2+x,-y,1/2-z
42 1/2+x,1/2-y,-z
43 -x,1/2-z,1/2+y
44 1/2-x,-z,1/2+y
45 1/2-x,1/2-z,y
46 -z,1/2-y,1/2+x
47 1/2-z,-y,1/2+x
48 1/2-z,1/2-y,x
49 -x,1/2+y,1/2-z
50 1/2-x,y,1/2-z
51 1/2-x,1/2+y,-z
52 z,1/2-y,1/2-x
53 1/2+z,-y,1/2-x
54 1/2+z,1/2-y,-x
55 z,1/2+x,1/2+y
56 1/2+z,x,1/2+y
57 1/2+z,1/2+x,y
58 y,1/2+z,1/2+x
59 1/2+y,z,1/2+x
60 1/2+y,1/2+z,x
61 -y,1/2-z,1/2+x
62 1/2-y,-z,1/2+x
63 1/2-y,1/2-z,x
64 z,1/2-x,1/2-y
65 1/2+z,-x,1/2-y
66 1/2+z,1/2-x,-y
67 -y,1/2+z,1/2-x
68 1/2-y,z,1/2-x
69 1/2-y,1/2+z,-x
70 -z,1/2-x,1/2+y
71 1/2-z,-x,1/2+y
72 1/2-z,1/2-x,y
73 -z,1/2+x,1/2-y
74 1/2-z,x,1/2-y
75 1/2-z,1/2+x,-y
76 y,1/2-z,1/2-x
77 1/2+y,-z,1/2-x
78 1/2+y,1/2-z,-x
79 -y,1/2-x,1/2+z
80 1/2-y,-x,1/2+z
81 1/2-y,1/2-x,z
82 y,1/2+x,1/2+z
83 1/2+y,x,1/2+z
84 1/2+y,1/2+x,z
85 x,1/2-z,1/2-y
86 1/2+x,-z,1/2-y
87 1/2+x,1/2-z,-y
88 x,1/2+z,1/2+y
89 1/2+x,z,1/2+y
90 1/2+x,1/2+z,y
91 -z,1/2+y,1/2-x
92 1/2-z,y,1/2-x
93 1/2-z,1/2+y,-x
94 z,1/2+y,1/2+x
95 1/2+z,y,1/2+x
96 1/2+z,1/2+y,x
_cell_length_a                   55.5686(2)
_cell_length_b                   55.5686(2)
_cell_length_c                   55.5686(2)
_cell_angle_alpha                90.0000
_cell_angle_beta                 90.0000
_cell_angle_gamma                90.0000
_cell_volume                     171588.57
loop_
_atom_site_label
_atom_site_type_symbol
_atom_site_fract_x
_atom_site_fract_y
_atom_site_fract_z
Zr1 Zr 0.6544500 0.1090000 0.3455500
Zr2 Zr 0.6405200 0.0951800 0.4048200
O3 O 0.6318400 0.0868400 0.3681600
O4 O 0.6627300 0.1175200 0.3824800
O5 O 0.6464500 0.1464500 0.3535500
O6 O 0.6031800 0.1031800 0.3968200
O7 O 0.6789300 0.0792900 0.3511100
O8 O 0.6653700 0.0655300 0.4048200
O1 O 0.6578200 0.1287500 0.3122200
C1 C 0.6460700 0.1460700 0.3020900
C2 C 0.6535700 0.1535700 0.2774600
C3 C 0.6731200 0.1421900 0.2658700
C4 C 0.6815200 0.1506000 0.2435900
C5 C 0.6706000 0.1706000 0.2323500
C6 C 0.6806800 0.1806800 0.2096500
N7 N 0.6708100 0.1995300 0.1995300
H3 H 0.6823300 0.1271000 0.2742500
H4 H 0.6969200 0.1416900 0.2354400
O2 O 0.6196300 0.0905600 0.4366300
C11 C 0.6023100 0.1023100 0.4467600
C12 C 0.5948100 0.0948100 0.4713900
C13 C 0.6061900 0.0752600 0.4829800
C14 C 0.5977800 0.0668600 0.5052600
C15 C 0.5777800 0.0777800 0.5165000
C16 C 0.5677000 0.0677000 0.5392000
N17 N 0.5493200 0.0775700 0.5493200
H13 H 0.6212800 0.0660500 0.4746000
H14 H 0.6066900 0.0514600 0.5134100
O17 O 0.9087200 0.6643100 0.8707790
O18 O 0.9603830 0.5717630 0.5149960
O15 O 0.2163590 0.1229590 0.1768460
O21 O 0.0837190 0.7551070 0.1207900
O20 O 0.9561740 0.1463010 0.9950490
O13 O 0.3014780 0.1146690 0.5822170
O9 O 0.3549590 0.4764530 0.8909140
O12 O 0.2349260 0.0594270 0.6935420
O22 O 0.1552540 0.7819060 0.0551860
O23 O 0.0669770 0.4712750 0.6814370
O10 O 0.2092100 0.1080710 0.9621710
O19 O 0.8504720 0.2018300 0.7394010
O14 O 0.1136040 0.0210200 0.1784600
O16 O 0.1392780 0.0919620 0.0519300
O11 O 0.1447570 0.0287790 0.8231920
#END
_chemical_name_common            PCN-777
_exptl_crystal_colour            Colorless
_exptl_crystal_description       Octahedron
_chemical_melting_point          'Not measured.'
_exptl_crystal_recrystallization_method 'Solvothermal Reaction'
