####################################################################### 
# 
# This file contains crystal structure data downloaded from the 
# Cambridge Structural Database (CSD) hosted by the Cambridge 
# Crystallographic Data Centre (CCDC).
# 
# Full information about CCDC data access policies and citation 
# guidelines are available at http://www.ccdc.cam.ac.uk/access/V1 
# 
# Audit and citation data items may have been added by the CCDC. 
# Please retain this information to preserve the provenance of 
# this file and to allow appropriate attribution of the data. 
# 
#######################################################################

data_squeezed
_audit_block_doi                 10.5517/cc13rbck
_database_code_depnum_ccdc_archive 'CCDC 1035318'
loop_
_citation_id
_citation_doi
_citation_year
1 10.1002/chem.201406233 2015
_audit_update_record             
;
2014-11-20 deposited with the CCDC.	2024-07-10 downloaded from the CCDC.
;

_audit_creation_method           SHELXL-2013
_chemical_name_systematic        
;
 ?
;
_chemical_name_common            ?
_chemical_melting_point          ?
_chemical_formula_moiety         'C58 H64 Cu N12 O12'
_chemical_formula_sum            'C58 H64 Cu N12 O12'
_chemical_formula_weight         1184.75

loop_
_atom_type_symbol
_atom_type_description
_atom_type_scat_dispersion_real
_atom_type_scat_dispersion_imag
_atom_type_scat_source
C C 0.0033 0.0016 'International Tables Vol C Tables 4.2.6.8 and 6.1.1.4'
H H 0.0000 0.0000 'International Tables Vol C Tables 4.2.6.8 and 6.1.1.4'
N N 0.0061 0.0033 'International Tables Vol C Tables 4.2.6.8 and 6.1.1.4'
O O 0.0106 0.0060 'International Tables Vol C Tables 4.2.6.8 and 6.1.1.4'
Cu Cu 0.3201 1.2651 'International Tables Vol C Tables 4.2.6.8 and 6.1.1.4'

_space_group_crystal_system      monoclinic
_space_group_IT_number           13
_space_group_name_H-M_alt        'P 2/c'
_space_group_name_Hall           '-P 2yc'

_shelx_space_group_comment       
;
The symmetry employed for this shelxl refinement is uniquely defined
by the following loop, which should always be used as a source of
symmetry information in preference to the above space-group names.
They are only intended as comments.
;

loop_
_space_group_symop_operation_xyz
'x, y, z'
'-x, y, -z+1/2'
'-x, -y, -z'
'x, -y, z-1/2'

_cell_length_a                   16.6868(19)
_cell_length_b                   13.6318(16)
_cell_length_c                   15.1712(18)
_cell_angle_alpha                90
_cell_angle_beta                 107.420(2)
_cell_angle_gamma                90
_cell_volume                     3292.7(7)
_cell_formula_units_Z            2
_cell_measurement_temperature    200(2)
_cell_measurement_reflns_used    ?
_cell_measurement_theta_min      ?
_cell_measurement_theta_max      ?

_exptl_crystal_description       plate
_exptl_crystal_colour            blue
_exptl_crystal_density_meas      ?
_exptl_crystal_density_method    ?
_exptl_crystal_density_diffrn    1.195
_exptl_crystal_F_000             1242
_exptl_transmission_factor_min   ?
_exptl_transmission_factor_max   ?
_exptl_crystal_size_max          ?
_exptl_crystal_size_mid          ?
_exptl_crystal_size_min          ?
_exptl_absorpt_coefficient_mu    0.396
_shelx_estimated_absorpt_T_min   ?
_shelx_estimated_absorpt_T_max   ?
_exptl_absorpt_correction_type   ?
_exptl_absorpt_correction_T_min  ?
_exptl_absorpt_correction_T_max  ?
_exptl_absorpt_process_details   ?

_exptl_special_details           
;
 ?
;

_diffrn_ambient_temperature      200(2)
_diffrn_radiation_wavelength     0.71073
_diffrn_radiation_type           MoK\a
_diffrn_source                   ?
_diffrn_measurement_device_type  ?
_diffrn_measurement_method       ?
_diffrn_detector_area_resol_mean ?
_diffrn_reflns_number            33031
_diffrn_reflns_av_unetI/netI     0.0565
_diffrn_reflns_av_R_equivalents  0.0546
_diffrn_reflns_limit_h_min       -22
_diffrn_reflns_limit_h_max       21
_diffrn_reflns_limit_k_min       -18
_diffrn_reflns_limit_k_max       18
_diffrn_reflns_limit_l_min       -20
_diffrn_reflns_limit_l_max       20
_diffrn_reflns_theta_min         1.279
_diffrn_reflns_theta_max         28.323
_diffrn_reflns_theta_full        25.242
_diffrn_measured_fraction_theta_max 0.993
_diffrn_measured_fraction_theta_full 0.999
_diffrn_reflns_Laue_measured_fraction_max 0.993
_diffrn_reflns_Laue_measured_fraction_full 0.999
_diffrn_reflns_point_group_measured_fraction_max 0.993
_diffrn_reflns_point_group_measured_fraction_full 0.999
_reflns_number_total             8151
_reflns_number_gt                5610
_reflns_threshold_expression     'I > 2\s(I)'
_reflns_Friedel_coverage         0.000
_reflns_Friedel_fraction_max     .
_reflns_Friedel_fraction_full    .

_reflns_special_details          
;
 Reflections were merged by SHELXL according to the crystal
 class for the calculation of statistics and refinement.
 
 _reflns_Friedel_fraction is defined as the number of unique
 Friedel pairs measured divided by the number that would be
 possible theoretically, ignoring centric projections and
 systematic absences.
;

_computing_data_collection       ?
_computing_cell_refinement       ?
_computing_data_reduction        ?
_computing_structure_solution    ?
_computing_structure_refinement  'SHELXL-2013 (Sheldrick, 2013)'
_computing_molecular_graphics    ?
_computing_publication_material  ?

_refine_special_details          
;
 ?
;
_refine_ls_structure_factor_coef Fsqd
_refine_ls_matrix_type           full
_refine_ls_weighting_scheme      calc
_refine_ls_weighting_details     
'w=1/[\s^2^(Fo^2^)+(0.1000P)^2^+0.1875P] where P=(Fo^2^+2Fc^2^)/3'
_atom_sites_solution_primary     ?
_atom_sites_solution_secondary   ?
_atom_sites_solution_hydrogens   geom
_refine_ls_hydrogen_treatment    constr
_refine_ls_extinction_method     none
_refine_ls_extinction_coef       .
_refine_ls_number_reflns         8151
_refine_ls_number_parameters     381
_refine_ls_number_restraints     0
_refine_ls_R_factor_all          0.0955
_refine_ls_R_factor_gt           0.0683
_refine_ls_wR_factor_ref         0.2082
_refine_ls_wR_factor_gt          0.1955
_refine_ls_goodness_of_fit_ref   1.260
_refine_ls_restrained_S_all      1.260
_refine_ls_shift/su_max          0.000
_refine_ls_shift/su_mean         0.000

loop_
_atom_site_label
_atom_site_type_symbol
_atom_site_fract_x
_atom_site_fract_y
_atom_site_fract_z
_atom_site_U_iso_or_equiv
_atom_site_adp_type
_atom_site_occupancy
_atom_site_site_symmetry_order
_atom_site_calc_flag
_atom_site_refinement_flags_posn
_atom_site_refinement_flags_adp
_atom_site_refinement_flags_occupancy
_atom_site_disorder_assembly
_atom_site_disorder_group
C1 C 0.39501(17) 0.0956(2) 0.2330(2) 0.0347(7) Uani 1 1 d . . . . .
H1 H 0.4178 0.0957 0.2969 0.042 Uiso 1 1 calc R U . . .
C2 C 0.33756(17) 0.0240(2) 0.1927(2) 0.0322(7) Uani 1 1 d . . . . .
H4 H 0.3221 -0.0229 0.2290 0.039 Uiso 1 1 calc R U . . .
C3 C 0.30276(15) 0.02239(19) 0.0970(2) 0.0274(6) Uani 1 1 d . . . . .
C4 C 0.32871(16) 0.0938(2) 0.0458(2) 0.0326(7) Uani 1 1 d . . . . .
H2 H 0.3075 0.0951 -0.0183 0.039 Uiso 1 1 calc R U . . .
C5 C 0.38657(16) 0.1626(2) 0.0922(2) 0.0345(7) Uani 1 1 d . . . . .
H3 H 0.4036 0.2100 0.0575 0.041 Uiso 1 1 calc R U . . .
C7 C 0.44065(18) 0.4360(2) 0.1215(3) 0.0410(8) Uani 1 1 d . . . . .
H20 H 0.4954 0.4354 0.1183 0.049 Uiso 1 1 calc R U . . .
C8 C 0.38452(19) 0.5013(3) 0.0669(3) 0.0420(8) Uani 1 1 d . . . . .
H19 H 0.4016 0.5440 0.0282 0.050 Uiso 1 1 calc R U . . .
C9 C 0.30154(15) 0.5032(2) 0.06989(19) 0.0252(6) Uani 1 1 d . . . . .
C10 C 0.28058(16) 0.4383(2) 0.1295(2) 0.0274(6) Uani 1 1 d . . . . .
H18 H 0.2263 0.4367 0.1342 0.033 Uiso 1 1 calc R U . . .
C11 C 0.34117(16) 0.3763(2) 0.1817(2) 0.0320(7) Uani 1 1 d . . . . .
H17 H 0.3262 0.3334 0.2218 0.038 Uiso 1 1 calc R U . . .
C12 C 0.16263(16) 0.58336(19) 0.00927(18) 0.0233(5) Uani 1 1 d . . . . .
C14 C 0.17475(16) 0.7650(2) -0.01529(19) 0.0229(5) Uani 1 1 d . . . . .
H16 H 0.2324 0.7616 0.0133 0.027 Uiso 1 1 calc R U . . .
C15 C 0.13685(15) 0.8539(2) -0.04529(18) 0.0233(5) Uani 1 1 d . . . . .
C16 C 0.05074(15) 0.85920(19) -0.09141(18) 0.0221(5) Uani 1 1 d . . . . .
H15 H 0.0268 0.9192 -0.1140 0.027 Uiso 1 1 calc R U . . .
C17 C 0.00057(15) 0.77602(19) -0.10382(17) 0.0194(5) Uani 1 1 d . . . . .
C18 C 0.03927(15) 0.68665(19) -0.06957(17) 0.0208(5) Uani 1 1 d . . . . .
H5 H 0.0065 0.6305 -0.0745 0.025 Uiso 1 1 calc R U . . .
C19 C -0.09524(15) 0.78061(19) -0.14783(19) 0.0230(5) Uani 1 1 d . . . . .
C20 C -0.12340(16) 0.7007(2) -0.22167(19) 0.0293(6) Uani 1 1 d . . . . .
H8 H -0.1111 0.6373 -0.1932 0.044 Uiso 1 1 calc R U . . .
H6 H -0.0940 0.7084 -0.2668 0.044 Uiso 1 1 calc R U . . .
H7 H -0.1827 0.7063 -0.2513 0.044 Uiso 1 1 calc R U . . .
C21 C -0.13634(17) 0.7640(2) -0.0709(2) 0.0305(6) Uani 1 1 d . . . . .
H12 H -0.1963 0.7682 -0.0963 0.046 Uiso 1 1 calc R U . . .
H14 H -0.1171 0.8132 -0.0240 0.046 Uiso 1 1 calc R U . . .
H13 H -0.1213 0.7002 -0.0442 0.046 Uiso 1 1 calc R U . . .
C22 C -0.12374(17) 0.8807(2) -0.1929(2) 0.0341(7) Uani 1 1 d . . . . .
H11 H -0.0957 0.8939 -0.2383 0.051 Uiso 1 1 calc R U . . .
H9 H -0.1100 0.9310 -0.1464 0.051 Uiso 1 1 calc R U . . .
H10 H -0.1834 0.8798 -0.2220 0.051 Uiso 1 1 calc R U . . .
C23 C 0.2545(4) 0.6181(3) 0.2732(3) 0.0748(13) Uani 1 1 d . . . . .
H26 H 0.2591 0.6291 0.2124 0.112 Uiso 1 1 calc R U . . .
H27 H 0.2099 0.5722 0.2698 0.112 Uiso 1 1 calc R U . . .
H22 H 0.3064 0.5920 0.3123 0.112 Uiso 1 1 calc R U . . .
C24 C 0.2105(3) 0.7049(3) 0.3931(3) 0.0538(10) Uani 1 1 d . . . . .
H24 H 0.1963 0.7699 0.4079 0.081 Uiso 1 1 calc R U . . .
H21 H 0.2555 0.6797 0.4434 0.081 Uiso 1 1 calc R U . . .
H23 H 0.1622 0.6631 0.3830 0.081 Uiso 1 1 calc R U . . .
C25 C 0.2370(2) 0.7926(3) 0.2674(2) 0.0395(7) Uani 1 1 d . . . . .
H25 H 0.2199 0.8482 0.2925 0.047 Uiso 1 1 calc R U . . .
C26 C 0.9874(3) 0.5854(3) 0.2877(4) 0.091(2) Uani 1 1 d . . . . .
H31 H 0.9794 0.5263 0.3146 0.109 Uiso 1 1 calc R U . . .
C27 C 0.9732(2) 0.6728(4) 0.3258(3) 0.0642(13) Uani 1 1 d . . . . .
H32 H 0.9543 0.6719 0.3776 0.077 Uiso 1 1 calc R U . . .
C28 C 0.98614(18) 0.7610(2) 0.2893(2) 0.0347(7) Uani 1 1 d . . . . .
C29 C 0.9713(3) 0.8566(4) 0.3316(4) 0.0861(18) Uani 1 1 d . . . . .
H34 H 0.9479 0.8439 0.3811 0.129 Uiso 1 1 calc R U . . .
H33 H 0.9330 0.8961 0.2855 0.129 Uiso 1 1 calc R U . . .
H30 H 1.0237 0.8909 0.3553 0.129 Uiso 1 1 calc R U . . .
C100 C 0.18775(16) 0.9468(2) -0.0269(2) 0.0268(6) Uani 1 1 d . . . . .
C14A C 0.12571(15) 0.68027(19) -0.02836(17) 0.0199(5) Uani 1 1 d . . . . .
Cu1 Cu 0.5000 0.27074(4) 0.2500 0.03325(18) Uani 1 2 d S T P . .
N1 N 0.41967(13) 0.16564(17) 0.18396(18) 0.0308(6) Uani 1 1 d . . . . .
N2 N 0.42029(13) 0.37352(17) 0.17865(17) 0.0292(5) Uani 1 1 d . . . . .
N3 N 0.24728(13) 0.57336(17) 0.01655(17) 0.0280(5) Uani 1 1 d . . . . .
N4 N 0.24513(14) -0.05228(17) 0.05991(16) 0.0287(5) Uani 1 1 d . . . . .
N5 N 0.3809(2) 0.2813(4) 0.4127(3) 0.0780(12) Uani 1 1 d . . . . .
N6 N 0.23657(19) 0.7081(2) 0.31030(19) 0.0414(7) Uani 1 1 d . . . . .
O1 O 0.12187(11) 0.52062(14) 0.03358(15) 0.0320(5) Uani 1 1 d . . . . .
O2 O 0.17590(13) 1.01518(15) -0.08158(15) 0.0375(5) Uani 1 1 d . . . . .
O3 O 0.3391(3) 0.3494(4) 0.3942(3) 0.142(2) Uani 1 1 d . . . . .
O4 O 0.43609(14) 0.25707(17) 0.37965(18) 0.0431(6) Uani 1 1 d . . . . .
O5 O 0.3638(5) 0.2325(8) 0.4685(8) 0.316(7) Uani 1 1 d . . . . .
O6 O 0.25802(17) 0.80349(19) 0.19731(17) 0.0507(6) Uani 1 1 d . . . . .

loop_
_atom_site_aniso_label
_atom_site_aniso_U_11
_atom_site_aniso_U_22
_atom_site_aniso_U_33
_atom_site_aniso_U_23
_atom_site_aniso_U_13
_atom_site_aniso_U_12
C1 0.0255(13) 0.0295(15) 0.0421(17) -0.0036(13) -0.0003(13) -0.0019(12)
C2 0.0264(13) 0.0265(15) 0.0391(17) 0.0016(12) 0.0027(12) -0.0050(11)
C3 0.0166(11) 0.0214(13) 0.0405(16) -0.0023(12) 0.0027(11) -0.0007(10)
C4 0.0200(12) 0.0311(15) 0.0411(17) 0.0024(13) 0.0005(12) -0.0016(11)
C5 0.0185(12) 0.0302(15) 0.0497(19) 0.0067(14) 0.0025(13) -0.0034(11)
C7 0.0168(12) 0.0392(18) 0.068(2) 0.0141(16) 0.0152(14) 0.0063(12)
C8 0.0291(15) 0.0453(19) 0.057(2) 0.0233(16) 0.0214(15) 0.0095(14)
C9 0.0176(11) 0.0258(14) 0.0305(14) -0.0007(11) 0.0047(10) 0.0026(10)
C10 0.0160(11) 0.0242(14) 0.0407(16) 0.0033(12) 0.0066(11) 0.0008(10)
C11 0.0158(12) 0.0290(15) 0.0476(18) 0.0080(13) 0.0041(12) 0.0010(11)
C12 0.0196(11) 0.0233(13) 0.0248(13) -0.0019(11) 0.0032(10) 0.0016(10)
C14 0.0162(11) 0.0271(13) 0.0233(13) 0.0034(11) 0.0028(10) 0.0030(10)
C15 0.0200(11) 0.0241(13) 0.0243(13) -0.0026(11) 0.0044(10) -0.0027(10)
C16 0.0215(12) 0.0213(13) 0.0225(13) 0.0001(10) 0.0050(10) 0.0022(10)
C17 0.0169(11) 0.0259(13) 0.0155(12) -0.0024(10) 0.0048(9) 0.0002(10)
C18 0.0179(11) 0.0221(13) 0.0209(12) -0.0011(10) 0.0033(10) -0.0004(10)
C19 0.0151(11) 0.0260(14) 0.0273(14) -0.0022(11) 0.0055(10) -0.0009(10)
C20 0.0192(12) 0.0403(16) 0.0258(14) -0.0062(12) 0.0028(11) -0.0025(11)
C21 0.0217(13) 0.0395(16) 0.0324(16) -0.0020(13) 0.0115(12) -0.0017(12)
C22 0.0203(13) 0.0380(17) 0.0391(17) 0.0082(14) 0.0015(12) 0.0062(12)
C23 0.113(4) 0.048(2) 0.070(3) 0.000(2) 0.037(3) 0.016(2)
C24 0.058(2) 0.068(3) 0.0369(19) -0.0016(18) 0.0164(17) -0.0121(19)
C25 0.0385(17) 0.0444(19) 0.0320(17) 0.0000(14) 0.0049(14) -0.0010(14)
C26 0.083(4) 0.037(2) 0.117(5) 0.028(2) -0.025(4) -0.021(2)
C27 0.051(2) 0.103(4) 0.0344(19) 0.024(2) 0.0049(17) -0.029(2)
C28 0.0282(15) 0.0430(18) 0.0309(15) -0.0114(13) 0.0059(12) -0.0036(13)
C29 0.043(2) 0.093(4) 0.106(4) -0.073(3) -0.003(2) 0.008(2)
C100 0.0187(12) 0.0234(14) 0.0338(15) 0.0011(12) 0.0010(11) -0.0015(10)
C14A 0.0196(11) 0.0213(13) 0.0183(12) 0.0001(10) 0.0047(10) 0.0015(10)
Cu1 0.0138(2) 0.0215(3) 0.0535(4) 0.000 -0.0065(2) 0.000
N1 0.0166(10) 0.0216(11) 0.0476(15) 0.0001(11) -0.0006(10) 0.0002(9)
N2 0.0153(10) 0.0235(12) 0.0428(14) 0.0000(10) -0.0003(10) -0.0014(9)
N3 0.0206(10) 0.0284(12) 0.0362(13) 0.0068(10) 0.0102(10) 0.0073(9)
N4 0.0234(11) 0.0255(12) 0.0319(13) -0.0012(10) 0.0004(10) -0.0053(9)
N5 0.0368(18) 0.123(4) 0.079(3) -0.005(3) 0.0245(19) 0.007(2)
N6 0.0588(18) 0.0353(15) 0.0331(15) 0.0010(12) 0.0183(13) -0.0017(13)
O1 0.0188(9) 0.0249(10) 0.0487(13) 0.0077(9) 0.0044(9) -0.0013(8)
O2 0.0295(10) 0.0279(11) 0.0452(13) 0.0085(10) -0.0039(9) -0.0074(8)
O3 0.104(3) 0.214(5) 0.074(2) -0.073(3) -0.026(2) 0.115(3)
O4 0.0293(11) 0.0467(14) 0.0593(16) -0.0062(11) 0.0225(11) 0.0017(10)
O5 0.173(7) 0.465(15) 0.403(14) 0.242(12) 0.229(10) 0.111(8)
O6 0.0644(16) 0.0519(15) 0.0359(13) 0.0088(11) 0.0152(12) -0.0063(13)

_geom_special_details            
;
 All esds (except the esd in the dihedral angle between two l.s. planes)
 are estimated using the full covariance matrix.  The cell esds are taken
 into account individually in the estimation of esds in distances, angles
 and torsion angles; correlations between esds in cell parameters are only
 used when they are defined by crystal symmetry.  An approximate (isotropic)
 treatment of cell esds is used for estimating esds involving l.s. planes.
;

loop_
_geom_bond_atom_site_label_1
_geom_bond_atom_site_label_2
_geom_bond_distance
_geom_bond_site_symmetry_2
_geom_bond_publ_flag
C1 N1 1.348(4) . ?
C1 C2 1.377(4) . ?
C1 H1 0.9300 . ?
C2 C3 1.393(4) . ?
C2 H4 0.9300 . ?
C3 C4 1.393(4) . ?
C3 N4 1.398(3) . ?
C4 C5 1.379(4) . ?
C4 H2 0.9300 . ?
C5 N1 1.335(4) . ?
C5 H3 0.9300 . ?
C7 N2 1.330(4) . ?
C7 C8 1.375(4) . ?
C7 H20 0.9300 . ?
C8 C9 1.399(4) . ?
C8 H19 0.9300 . ?
C9 C10 1.383(4) . ?
C9 N3 1.397(3) . ?
C10 C11 1.373(4) . ?
C10 H18 0.9300 . ?
C11 N2 1.335(3) . ?
C11 H17 0.9300 . ?
C12 O1 1.217(3) . ?
C12 N3 1.390(3) . ?
C12 C14A 1.497(4) . ?
C14 C15 1.379(4) . ?
C14 C14A 1.395(4) . ?
C14 H16 0.9300 . ?
C15 C16 1.399(3) . ?
C15 C100 1.504(4) . ?
C16 C17 1.389(4) . ?
C16 H15 0.9300 . ?
C17 C18 1.404(4) . ?
C17 C19 1.538(3) . ?
C18 C14A 1.392(3) . ?
C18 H5 0.9300 . ?
C19 C20 1.532(4) . ?
C19 C22 1.536(4) . ?
C19 C21 1.538(4) . ?
C20 H8 0.9600 . ?
C20 H6 0.9600 . ?
C20 H7 0.9600 . ?
C21 H12 0.9600 . ?
C21 H14 0.9600 . ?
C21 H13 0.9600 . ?
C22 H11 0.9600 . ?
C22 H9 0.9600 . ?
C22 H10 0.9600 . ?
C23 N6 1.418(5) . ?
C23 H26 0.9600 . ?
C23 H27 0.9600 . ?
C23 H22 0.9600 . ?
C24 N6 1.449(5) . ?
C24 H24 0.9600 . ?
C24 H21 0.9600 . ?
C24 H23 0.9600 . ?
C25 O6 1.225(4) . ?
C25 N6 1.325(4) . ?
C25 H25 0.9300 . ?
C26 C26 1.333(12) 2_755 ?
C26 C27 1.375(7) . ?
C26 H31 0.9300 . ?
C27 C28 1.368(5) . ?
C27 H32 0.9300 . ?
C28 C28 1.402(6) 