####################################################################### 
# 
# This file contains crystal structure data downloaded from the 
# Cambridge Structural Database (CSD) hosted by the Cambridge 
# Crystallographic Data Centre (CCDC).
# 
# Full information about CCDC data access policies and citation 
# guidelines are available at http://www.ccdc.cam.ac.uk/access/V1 
# 
# Audit and citation data items may have been added by the CCDC. 
# Please retain this information to preserve the provenance of 
# this file and to allow appropriate attribution of the data. 
# 
#######################################################################

data_network_1_(Zn3I6(2)2(3))
_audit_block_doi                 10.5517/ccsc2pw
_database_code_depnum_ccdc_archive 'CCDC 725638'
loop_
_citation_id
_citation_doi
_citation_year
1 10.1038/nature08326 2009
_audit_update_record             
;
2009-03-27 deposited with the CCDC.	2024-07-10 downloaded from the CCDC.
;


_audit_creation_method           SHELXL-97
_chemical_name_systematic        
;
?
;
_chemical_name_common            ?
_chemical_melting_point          ?
_chemical_formula_moiety         ?
_chemical_formula_sum            'C72.75 H74.50 I6 N13 O9.38 Zn3'
_chemical_formula_weight         2238.52

loop_
_atom_type_symbol
_atom_type_description
_atom_type_scat_dispersion_real
_atom_type_scat_dispersion_imag
_atom_type_scat_source
C C 0.0033 0.0016 'International Tables Vol C Tables 4.2.6.8 and 6.1.1.4'
H H 0.0000 0.0000 'International Tables Vol C Tables 4.2.6.8 and 6.1.1.4'
N N 0.0061 0.0033 'International Tables Vol C Tables 4.2.6.8 and 6.1.1.4'
O O 0.0106 0.0060 'International Tables Vol C Tables 4.2.6.8 and 6.1.1.4'
Zn Zn 0.2839 1.4301 'International Tables Vol C Tables 4.2.6.8 and 6.1.1.4'
I I -0.4742 1.8119 'International Tables Vol C Tables 4.2.6.8 and 6.1.1.4'

_symmetry_cell_setting           Orthorhombic
_symmetry_space_group_name_H-M   Pbca

loop_
_symmetry_equiv_pos_as_xyz
'x, y, z'
'-x+1/2, -y, z+1/2'
'-x, y+1/2, -z+1/2'
'x+1/2, -y+1/2, -z'
'-x, -y, -z'
'x-1/2, y, -z-1/2'
'x, -y-1/2, z-1/2'
'-x-1/2, y-1/2, z'

_cell_length_a                   27.908(5)
_cell_length_b                   13.845(2)
_cell_length_c                   44.236(7)
_cell_angle_alpha                90.00
_cell_angle_beta                 90.00
_cell_angle_gamma                90.00
_cell_volume                     17092(5)
_cell_formula_units_Z            8
_cell_measurement_temperature    85(2)
_cell_measurement_reflns_used    8406
_cell_measurement_theta_min      2.268
_cell_measurement_theta_max      27.522

_exptl_crystal_description       needle
_exptl_crystal_colour            red
_exptl_crystal_size_max          0.08
_exptl_crystal_size_mid          0.07
_exptl_crystal_size_min          0.04
_exptl_crystal_density_meas      ?
_exptl_crystal_density_diffrn    1.740
_exptl_crystal_density_method    'not measured'
_exptl_crystal_F_000             8680
_exptl_absorpt_coefficient_mu    3.061
_exptl_absorpt_correction_type   empirical
_exptl_absorpt_correction_T_min  0.7918
_exptl_absorpt_correction_T_max  0.8873
_exptl_absorpt_process_details   SADABS

_exptl_special_details           
;
?
;

_diffrn_ambient_temperature      85(2)
_diffrn_radiation_wavelength     0.71073
_diffrn_radiation_type           MoK\/Ya
_diffrn_radiation_source         'fine-focus rotating anode'
_diffrn_radiation_monochromator  'focusing mirror'
_diffrn_measurement_device_type  'Bruker SMART CCD area detector system'
_diffrn_measurement_method       omega_scan
_diffrn_detector_area_resol_mean ?
_diffrn_standards_number         ?
_diffrn_standards_interval_count ?
_diffrn_standards_interval_time  ?
_diffrn_standards_decay_%        none
_diffrn_reflns_number            182368
_diffrn_reflns_av_R_equivalents  0.0860
_diffrn_reflns_av_sigmaI/netI    0.0549
_diffrn_reflns_limit_h_min       -35
_diffrn_reflns_limit_h_max       35
_diffrn_reflns_limit_k_min       -18
_diffrn_reflns_limit_k_max       17
_diffrn_reflns_limit_l_min       -59
_diffrn_reflns_limit_l_max       59
_diffrn_reflns_theta_min         0.92
_diffrn_reflns_theta_max         28.61
_reflns_number_total             21061
_reflns_number_gt                16962
_reflns_threshold_expression     >2sigma(I)

_computing_data_collection       'Bruker SMART'
_computing_cell_refinement       'Bruker SAINT'
_computing_data_reduction        'Bruker SAINT'
_computing_structure_solution    'SHELXS-97 (Sheldrick, 1990)'
_computing_structure_refinement  'SHELXL-97 (Sheldrick, 1997)'
_computing_molecular_graphics    'Bruker XP'
_computing_publication_material  'Bruker SHELXTL'

_refine_special_details          
;
Refinement of F^2^ against ALL reflections. The weighted R-factor wR
and
goodness of fit S are based on F^2^, conventional R-factors R are based
on F, with F set to zero for negative F^2^. The threshold expression of
F^2^ > 2sigma(F^2^) is used only for calculating R-factors(gt) etc. and
is
not relevant to the choice of reflections for refinement. R-factors
based
on F^2^ are statistically about twice as large as those based on F, and
R-
factors based on ALL data will be even larger.
The occupancy factors of the disordered molecules converged as follows:
1-aminotriphenylene, 44%(C1S to N1S), 33%(C1T to N1T) and
23%(C1U to N1U); ethyl acetate, 59%(C1A to O2A), 41%(C1B to O2B),
20%(C1C to O2C), 29%(C1D to O2D), 33%(C1E to O2E), 17%(C1F to O2F),
24%(C1G to O2G), 30%(C1H to O2H), 56%(C1I to O2I), 26%(C1J to O2J),
and 20%(C1K to O2K).
Several restraints were applied to disordered molecules on a basis of
chemical symmetry of the molecules, and constrains (EADP) were
applied to the groups of atoms((C18U, C12S and C7T), (C7U, C18T,
C1S, C12U, C13T and C6S), (C7S, C12T and C13U), (C6U, C1T and C18S),
(C2U and C5T)), (C2A and C2B), (O1A and O1B), (O2A and O2B) and
(C1K, O1G and C2G) on a basis of chemical symmetry of the molecules
because of severe disorder of 1-aminotriphenylene and ethyl acetate
molecules.
;

_refine_ls_structure_factor_coef Fsqd
_refine_ls_matrix_type           full
_refine_ls_weighting_scheme      calc
_refine_ls_weighting_details     
'calc w=1/[\/Ys^2^(Fo^2^)+(0.0331P)^2^+102.4265P] where P=(Fo^2^+2Fc^2^)/3'
_atom_sites_solution_primary     direct
_atom_sites_solution_secondary   difmap
_atom_sites_solution_hydrogens   geom
_refine_ls_hydrogen_treatment    constr
_refine_ls_extinction_method     none
_refine_ls_extinction_coef       ?
_refine_ls_number_reflns         21061
_refine_ls_number_parameters     1533
_refine_ls_number_restraints     2615
_refine_ls_R_factor_all          0.0754
_refine_ls_R_factor_gt           0.0573
_refine_ls_wR_factor_ref         0.1400
_refine_ls_wR_factor_gt          0.1310
_refine_ls_goodness_of_fit_ref   1.202
_refine_ls_restrained_S_all      1.148
_refine_ls_shift/su_max          0.042
_refine_ls_shift/su_mean         0.001

loop_
_atom_site_label
_atom_site_type_symbol
_atom_site_fract_x
_atom_site_fract_y
_atom_site_fract_z
_atom_site_U_iso_or_equiv
_atom_site_adp_type
_atom_site_occupancy
_atom_site_symmetry_multiplicity
_atom_site_calc_flag
_atom_site_refinement_flags
_atom_site_disorder_assembly
_atom_site_disorder_group
Zn1 Zn 0.45374(2) -0.14077(5) 0.087748(14) 0.02485(13) Uani 1 1 d . . .
Zn2 Zn 0.23999(2) 0.18258(4) 0.319675(13) 0.02366(13) Uani 1 1 d . . .
Zn3 Zn -0.02377(2) -0.11954(4) 0.086172(15) 0.02477(13) Uani 1 1 d . . .
I1 I 0.445721(15) -0.32342(3) 0.084087(11) 0.04021(11) Uani 1 1 d . . .
I2 I 0.517831(13) -0.05274(3) 0.117662(10) 0.03815(10) Uani 1 1 d . . .
I3 I 0.328785(15) 0.18743(3) 0.332489(10) 0.04214(11) Uani 1 1 d . . .
I4 I 0.194868(16) 0.34091(3) 0.311814(9) 0.03533(10) Uani 1 1 d . . .
I5 I -0.071926(17) -0.20606(4) 0.126250(13) 0.05247(13) Uani 1 1 d . . .
I6 I -0.006277(14) -0.19537(3) 0.034471(10) 0.03637(10) Uani 1 1 d . . .
C1 C 0.3169(2) -0.1461(4) -0.12572(12) 0.0288(12) Uani 1 1 d . . .
H1A H 0.3162 -0.2146 -0.1249 0.035 Uiso 1 1 calc R . .
C2 C 0.3405(2) -0.0962(4) -0.10270(13) 0.0306(12) Uani 1 1 d . . .
H2A H 0.3550 -0.1300 -0.0864 0.037 Uiso 1 1 calc R . .
C3 C 0.2976(3) -0.0055(4) -0.14968(13) 0.0374(14) Uani 1 1 d . . .
H3A H 0.2824 0.0268 -0.1661 0.045 Uiso 1 1 calc R . .
C4 C 0.3205(3) 0.0491(4) -0.12810(14) 0.0386(15) Uani 1 1 d . . .
H4A H 0.3215 0.1175 -0.1297 0.046 Uiso 1 1 calc R . .
C5 C 0.34214(19) 0.0029(4) -0.10412(12) 0.0238(10) Uani 1 1 d . . .
C6 C 0.36805(19) 0.0582(4) -0.08049(11) 0.0227(10) Uani 1 1 d . . .
C7 C 0.42657(19) 0.4345(4) -0.10032(12) 0.0268(11) Uani 1 1 d . . .
H7A H 0.4239 0.4635 -0.1197 0.032 Uiso 1 1 calc R . .
C8 C 0.4108(2) 0.3414(4) -0.09667(12) 0.0271(11) Uani 1 1 d . . .
H8A H 0.3972 0.3072 -0.1132 0.033 Uiso 1 1 calc R . .
C9 C 0.44947(19) 0.4445(4) -0.05045(12) 0.0264(11) Uani 1 1 d . . .
H9A H 0.4630 0.4804 -0.0343 0.032 Uiso 1 1 calc R . .
C10 C 0.4345(2) 0.3516(4) -0.04502(12) 0.0275(11) Uani 1 1 d . . .
H10A H 0.4376 0.3242 -0.0254 0.033 Uiso 1 1 calc R . .
C11 C 0.41488(18) 0.2982(4) -0.06860(12) 0.0237(10) Uani 1 1 d . . .
C12 C 0.40161(18) 0.1959(4) -0.06391(12) 0.0240(10) Uani 1 1 d . . .
C13 C 0.45716(19) 0.0127(4) 0.04117(12) 0.0256(11) Uani 1 1 d . . .
H13A H 0.4718 0.0481 0.0571 0.031 Uiso 1 1 calc R . .
C14 C 0.44512(19) 0.0604(4) 0.01502(12) 0.0262(11) Uani 1 1 d . . .
H14A H 0.4514 0.1276 0.0130 0.031 Uiso 1 1 calc R . .
C15 C 0.4308(2) -0.1322(4) 0.02194(13) 0.0288(11) Uani 1 1 d . . .
H15A H 0.4268 -0.2000 0.0241 0.035 Uiso 1 1 calc R . .
C16 C 0.4173(2) -0.0900(4) -0.00523(12) 0.0295(12) Uani 1 1 d . . .
H16A H 0.4042 -0.1277 -0.0212 0.035 Uiso 1 1 calc R . .
C17 C 0.42367(18) 0.0093(4) -0.00841(11) 0.0226(10) Uani 1 1 d . . .
C18 C 0.40763(18) 0.0599(4) -0.03613(12) 0.0231(10) Uani 1 1 d . . .
C21 C 0.34732(18) -0.1078(4) 0.08989(11) 0.0235(10) Uani 1 1 d . . .
H21A H 0.3485 -0.1283 0.0694 0.028 Uiso 1 1 calc R . .
C22 C 0.30287(18) -0.0920(4) 0.10286(11) 0.0226(10) Uani 1 1 d . . .
H22A H 0.2742 -0.1012 0.0916 0.027 Uiso 1 1 calc R . .
C23 C 0.38673(18) -0.0635(4) 0.13345(12) 0.0246(10) Uani 1 1 d . . .
H23A H 0.4158 -0.0512 0.1439 0.029 Uiso 1 1 calc R . .
C24 C 0.34411(19) -0.0482(4) 0.14800(12) 0.0248(11) Uani 1 1 d . . .
H24A H 0.3439 -0.0279 0.1685 0.030 Uiso 1 1 calc R . .
C25 C 0.30151(17) -0.0624(3) 0.13289(11) 0.0189(9) Uani 1 1 d . . .
C26 C 0.25544(17) -0.0484(3) 0.14886(11) 0.0183(9) Uani 1 1 d . . .
C27 C 0.2683(2) 0.0651(4) 0.26668(12) 0.0267(11) Uani 1 1 d . . .
H27A H 0.2986 0.0651 0.2765 0.032 Uiso 1 1 calc R . .
C28 C 0.26508(19) 0.0265(4) 0.23802(12) 0.0248(11) Uani 1 1 d . . .
H28A H 0.2928 0.0023 0.2281 0.030 Uiso 1 1 calc R . .
C29 C 0.1873(2) 0.0980(5) 0.26769(13) 0.0347(14) Uani 1 1 d . . .
H29A H 0.1602 0.1231 0.2781 0.042 Uiso 1 1 calc R . .
C30 C 0.1809(2) 0.0579(4) 0.23931(13) 0.0312(12) Uani 1 1 d . . .
H30A H 0.1499 0.0541 0.2306 0.037 Uiso 1 1 calc R . .
C31 C 0.22074(18) 0.0233(3) 0.22379(11) 0.0215(10) Uani 1 1 d . . .
C32 C 0.21733(18) -0.0109(3) 0.19230(11) 0.0209(10) Uani 1 1 d . . .
C33 C 0.0428(2) -0.0683(5) 0.13585(13) 0.0323(13) Uani 1 1 d . . .
H33A H 0.0137 -0.0649 0.1469 0.039 Uiso 1 1 calc R . .
C34 C 0.0854(2) -0.0540(5) 0.15111(13) 0.0324(12) Uani 1 1 d . . .
H34A H 0.0854 -0.0408 0.1722 0.039 Uiso 1 1 calc R . .
C35 C 0.08189(18) -0.0897(4) 0.09091(12) 0.0261(11) Uani 1 1 d . . .
H35A H 0.0808 -0.1015 0.0698 0.031 Uiso 1 1 calc R . .
C36 C 0.12620(18) -0.0765(4) 0.10467(12) 0.0255(11) Uani 1 1 d . . .
H36A H 0.1548 -0.0794 0.0931 0.031 Uiso 1 1 calc R . .
C37 C 0.12822(18) -0.0591(3) 0.13507(12) 0.0221(10) Uani 1 1 d . . .
C38 C 0.17486(18) -0.0476(3) 0.15045(11) 0.0204(10) Uani 1 1 d . . .
N1 N 0.29565(16) -0.1020(3) -0.14861(10) 0.0229(9) Uani 1 1 d . . .
N2 N 0.44568(15) 0.4866(3) -0.07765(10) 0.0247(9) Uani 1 1 d . . .
N3 N 0.44898(15) -0.0829(3) 0.04512(10) 0.0222(9) Uani 1 1 d . . .
N4 N 0.37569(16) 0.1526(3) -0.08504(10) 0.0246(9) Uani 1 1 d . . .
N5 N 0.41855(16) 0.1532(3) -0.03882(10) 0.0247(9) Uani 1 1 d . . .
N6 N 0.38294(16) 0.0085(3) -0.05629(10) 0.0247(9) Uani 1 1 d . . .
N21 N 0.38872(15) -0.0957(3) 0.10468(9) 0.0211(8) Uani 1 1 d . . .
N22 N 0.23058(17) 0.1027(3) 0.28109(10) 0.0248(9) Uani 1 1 d . . .
N23 N 0.04079(16) -0.0866(3) 0.10634(10) 0.0253(9) Uani 1 1 d . . .
N24 N 0.25876(15) -0.0240(3) 0.17811(9) 0.0203(8) Uani 1 1 d . . .
N25 N 0.17397(15) -0.0218(3) 0.17990(9) 0.0205(8) Uani 1 1 d . . .
N26 N 0.21427(15) -0.0615(3) 0.13399(9) 0.0200(8) Uani 1 1 d . . .
C1T C 0.1703(10) 0.712(3) 0.1872(6) 0.042(3) Uani 0.33 1 d PDU A 2
C2T C 0.1397(10) 0.712(2) 0.2152(6) 0.050(5) Uani 0.33 1 d PDU A 2
C3T C 0.1591(13) 0.746(2) 0.2409(6) 0.058(5) Uani 0.33 1 d PDU A 2
H3TA H 0.1413 0.7394 0.2591 0.070 Uiso 0.33 1 calc PR A 2
C4T C 0.2052(13) 0.791(4) 0.2424(8) 0.055(5) Uani 0.33 1 d PDU A 2
H4TA H 0.2147 0.8275 0.2596 0.065 Uiso 0.33 1 calc PR A 2
C5T C 0.2349(11) 0.780(3) 0.2180(7) 0.050(4) Uani 0.33 1 d PDU A 2
H5TA H 0.2678 0.7966 0.2199 0.060 Uiso 0.33 1 calc PR A 2
C6T C 0.2177(10) 0.744(4) 0.1897(7) 0.041(4) Uani 0.33 1 d PDU A 2
C7T C 0.2493(9) 0.724(3) 0.1664(6) 0.042(2) Uani 0.33 1 d PDU A 2
C8T C 0.3006(9) 0.731(3) 0.1709(7) 0.053(5) Uani 0.33 1 d PDU A 2
H8TA H 0.3128 0.7530 0.1898 0.063 Uiso 0.33 1 calc PR A 2
C9T C 0.3327(11) 0.706(3) 0.1472(8) 0.056(6) Uani 0.33 1 d PDU A 2
H9TA H 0.3664 0.7099 0.1502 0.067 Uiso 0.33 1 calc PR A 2
C10T C 0.3140(12) 0.676(4) 0.1194(8) 0.055(6) Uani 0.33 1 d PDU A 2
H10B H 0.3355 0.6591 0.1036 0.066 Uiso 0.33 1 calc PR A 2
C11T C 0.2668(10) 0.669(3) 0.1144(6) 0.048(5) Uani 0.33 1 d PDU A 2
H11B H 0.2554 0.6496 0.0951 0.057 Uiso 0.33 1 calc PR A 2
C12T C 0.2349(9) 0.690(4) 0.1370(7) 0.042(3) Uani 0.33 1 d PDU A 2
C13T C 0.1808(10) 0.686(4) 0.1321(6) 0.0394(18) Uani 0.33 1 d PDU A 2
C14T C 0.1632(10) 0.666(3) 0.1036(6) 0.041(5) Uani 0.33 1 d PDU A 2
H14B H 0.1846 0.6570 0.0871 0.049 Uiso 0.33 1 calc PR A 2
C15T C 0.1147(10) 0.659(2) 0.0991(6) 0.043(5) Uani 0.33 1 d PDU A 2
H15B H 0.1030 0.6464 0.0794 0.052 Uiso 0.33 1 calc PR A 2
C16T C 0.0814(11) 0.672(4) 0.1231(6) 0.038(5) Uani 0.33 1 d PDU A 2
H16B H 0.0481 0.6606 0.1205 0.045 Uiso 0.33 1 calc PR A 2
C17T C 0.1004(9) 0.701(2) 0.1507(6) 0.037(4) Uani 0.33 1 d PDU A 2
H17B H 0.0794 0.7272 0.1655 0.045 Uiso 0.33 1 calc PR A 2
C18T C 0.1491(10) 0.694(5) 0.1575(6) 0.0394(18) Uani 0.33 1 d PDU A 2
N1T N 0.0961(7) 0.6764(14) 0.2169(5) 0.060(5) Uani 0.33 1 d PDU A 2
C1S C 0.1488(8) 0.7022(19) 0.1493(4) 0.0394(18) Uani 0.44 1 d PDU B 1
C2S C 0.0973(8) 0.6783(19) 0.1445(5) 0.049(4) Uani 0.44 1 d PDU B 1
C3S C 0.0814(9) 0.679(3) 0.1158(6) 0.046(5) Uani 0.44 1 d PDU B 1
H3SA H 0.0479 0.6735 0.1124 0.056 Uiso 0.44 1 calc PR B 1
C4S C 0.1125(8) 0.6860(14) 0.0899(5) 0.049(4) Uani 0.44 1 d PDU B 1
H4SA H 0.0999 0.6893 0.0700 0.058 Uiso 0.44 1 calc PR B 1
C5S C 0.1608(8) 0.6883(17) 0.0951(5) 0.041(4) Uani 0.44 1 d PDU B 1
H5SA H 0.1821 0.6841 0.0784 0.050 Uiso 0.44 1 calc PR B 1
C6S C 0.1803(8) 0.6967(18) 0.1246(5) 0.0394(18) Uani 0.44 1 d PDU B 1
C7S C 0.2293(8) 0.694(4) 0.1292(6) 0.042(3) Uani 0.44 1 d PDU B 1
C8S C 0.2624(9) 0.677(3) 0.1047(6) 0.049(5) Uani 0.44 1 d PDU B 1
H8SA H 0.2505 0.6693 0.0848 0.058 Uiso 0.44 1 calc PR B 1
C9S C 0.3127(9) 0.671(3) 0.1099(6) 0.045(5) Uani 0.44 1 d PDU B 1
H9SA H 0.3341 0.6552 0.0939 0.054 Uiso 0.44 1 calc PR B 1
C10S C 0.3299(9) 0.689(2) 0.1393(7) 0.049(6) Uani 0.44 1 d PDU B 1
H10A H 0.3634 0.6857 0.1430 0.058 Uiso 0.44 1 calc PR B 1
C11S C 0.3004(8) 0.710(2) 0.1622(6) 0.043(5) Uani 0.44 1 d PDU B 1
H11A H 0.3133 0.7255 0.1815 0.052 Uiso 0.44 1 calc PR B 1
C12S C 0.2516(8) 0.710(6) 0.1581(6) 0.042(2) Uani 0.44 1 d PDU B 1
C13S C 0.2177(9) 0.731(4) 0.1841(7) 0.041(4) Uani 0.44 1 d PDU B 1
C14S C 0.2362(9) 0.762(2) 0.2115(6) 0.053(4) Uani 0.44 1 d PDU B 1
H14A H 0.2697 0.7719 0.2137 0.063 Uiso 0.44 1 calc PR B 1
C15S C 0.2060(11) 0.778(3) 0.2354(6) 0.058(4) Uani 0.44 1 d PDU B 1
H15A H 0.2192 0.7882 0.2550 0.069 Uiso 0.44 1 calc PR B 1
C16S C 0.1553(9) 0.7809(17) 0.2314(5) 0.061(4) Uani 0.44 1 d PDU B 1
H16A H 0.1345 0.8019 0.2471 0.074 Uiso 0.44 1 calc PR B 1
C17S C 0.1376(8) 0.7511(13) 0.2035(4) 0.051(4) Uani 0.44 1 d PDU B 1
H17A H 0.1038 0.7481 0.2007 0.061 Uiso 0.44 1 calc PR B 1
C18S C 0.1671(8) 0.726(2) 0.1795(5) 0.042(3) Uani 0.44 1 d PDU B 1
N1S N 0.0638(6) 0.6687(13) 0.1651(4) 0.076(5) Uani 0.44 1 d PDU B 1
C1U C 0.2253(11) 0.727(6) 0.1871(9) 0.043(5) Uani 0.22 1 d PDU C 3
C2U C 0.2481(12) 0.756(3) 0.2165(8) 0.050(4) Uani 0.22 1 d PDU C 3
C3U C 0.2187(15) 0.784(6) 0.2392(11) 0.058(6) Uani 0.22 1 d PDU C 3
H3UA H 0.2326 0.8173 0.2558 0.070 Uiso 0.22 1 calc PR C 3
C4U C 0.1682(15) 0.767(4) 0.2400(8) 0.056(6) Uani 0.22 1 d PDU C 3
H4UA H 0.1496 0.7791 0.2575 0.067 Uiso 0.22 1 calc PR C 3
C5U C 0.1483(13) 0.732(4) 0.2138(8) 0.050(6) Uani 0.22 1 d PDU C 3
H5UA H 0.1155 0.7137 0.2138 0.060 Uiso 0.22 1 calc PR C 3
C6U C 0.1753(12) 0.723(5) 0.1865(8) 0.042(3) Uani 0.22 1 d PDU C 3
C7U C 0.1517(11) 0.698(6) 0.1601(8) 0.0394(18) Uani 0.22 1 d PDU C 3
C8U C 0.1001(11) 0.688(4) 0.1595(8) 0.049(6) Uani 0.22 1 d PDU C 3
H8UA H 0.0828 0.6776 0.1777 0.059 Uiso 0.22 1 calc PR C 3
C9U C 0.0752(12) 0.693(3) 0.1313(9) 0.053(6) Uani 0.22 1 d PDU C 3
H9UA H 0.0423 0.7101 0.1303 0.064 Uiso 0.22 1 calc PR C 3
C10U C 0.1015(13) 0.671(4) 0.1052(8) 0.048(6) Uani 0.22 1 d PDU C 3
H10C H 0.0850 0.6513 0.0875 0.057 Uiso 0.22 1 calc PR C 3
C11U C 0.1494(12) 0.676(4) 0.1048(8) 0.043(5) Uani 0.22 1 d PDU C 3
H11C H 0.1659 0.6753 0.0860 0.051 Uiso 0.22 1 calc PR C 3
C12U C 0.1748(11) 0.683(6) 0.1314(8) 0.0394(18) Uani 0.22 1 d PDU C 3
C13U C 0.2293(12) 0.687(9) 0.1318(10) 0.042(3) Uani 0.22 1 d PDU C 3
C14U C 0.2549(13) 0.659(4) 0.1066(9) 0.042(