####################################################################### 
# 
# This file contains crystal structure data downloaded from the 
# Cambridge Structural Database (CSD) hosted by the Cambridge 
# Crystallographic Data Centre (CCDC).
# 
# Full information about CCDC data access policies and citation 
# guidelines are available at http://www.ccdc.cam.ac.uk/access/V1 
# 
# Audit and citation data items may have been added by the CCDC. 
# Please retain this information to preserve the provenance of 
# this file and to allow appropriate attribution of the data. 
# 
#######################################################################

data_Znbtx13bdcnew
_audit_block_doi                 10.5517/cc120hxh
_database_code_depnum_ccdc_archive 'CCDC 983596'
loop_
_citation_id
_citation_doi
_citation_year
1 10.1016/j.saa.2015.03.087 2015
_audit_update_record             
;
2014-07-21 deposited with the CCDC.	2024-07-10 downloaded from the CCDC.
;

_audit_creation_method           SHELXL-97
_chemical_name_systematic        
; 
 ? 
;
_chemical_name_common            ?
_chemical_melting_point          ?
_chemical_formula_moiety         'C18 H12 N6 O4 Zn, C3 H7 N O, 2(H2 O)'
_chemical_formula_sum            'C21 H23 N7 O7 Zn'
_chemical_formula_weight         550.83

loop_
_atom_type_symbol
_atom_type_description
_atom_type_scat_dispersion_real
_atom_type_scat_dispersion_imag
_atom_type_scat_source
C C 0.0033 0.0016 'International Tables Vol C Tables 4.2.6.8 and 6.1.1.4'
H H 0.0000 0.0000 'International Tables Vol C Tables 4.2.6.8 and 6.1.1.4'
N N 0.0061 0.0033 'International Tables Vol C Tables 4.2.6.8 and 6.1.1.4'
O O 0.0106 0.0060 'International Tables Vol C Tables 4.2.6.8 and 6.1.1.4'
Zn Zn 0.2839 1.4301 'International Tables Vol C Tables 4.2.6.8 and 6.1.1.4'

_symmetry_cell_setting           Orthorhombic
_symmetry_space_group_name_H-M   'P b c m'
_symmetry_space_group_name_Hall  '-P 2c 2b'
_symmetry_Int_Tables_number      57


loop_
_symmetry_equiv_pos_as_xyz
'x, y, z'
'-x, y+1/2, z'
'x, -y+1/2, z+1/2'
'-x, -y, z+1/2'
'-x, -y, -z'
'x, -y-1/2, -z'
'-x, y-1/2, -z-1/2'
'x, y, -z-1/2'

_cell_length_a                   6.1365(15)
_cell_length_b                   18.763(4)
_cell_length_c                   20.057(5)
_cell_angle_alpha                90.00
_cell_angle_beta                 90.00
_cell_angle_gamma                90.00
_cell_volume                     2309.4(9)
_cell_formula_units_Z            4
_cell_measurement_temperature    293(2)
_cell_measurement_reflns_used    7260
_cell_measurement_theta_min      3.0
_cell_measurement_theta_max      25.3


_exptl_crystal_description       block
_exptl_crystal_colour            colorless
_exptl_crystal_size_max          0.50
_exptl_crystal_size_mid          0.20
_exptl_crystal_size_min          0.10
_exptl_crystal_density_meas      ?
_exptl_crystal_density_diffrn    1.584
_exptl_crystal_density_method    'not measured'
_exptl_crystal_F_000             1136
_exptl_absorpt_coefficient_mu    1.122
_exptl_absorpt_correction_type   Multi-scan
_exptl_absorpt_correction_T_min  0.6037
_exptl_absorpt_correction_T_max  0.8960
_exptl_absorpt_process_details   'Jacobson, R. (1998) Private communication'

_exptl_special_details           
; 
 ? 
;

_diffrn_ambient_temperature      293(2)
_diffrn_radiation_wavelength     0.71070
_diffrn_radiation_type           MoK\a
_diffrn_radiation_source         'fine-focus sealed tube'
_diffrn_radiation_monochromator  graphite
_diffrn_measurement_device_type  'Rigaku Mercury CCD'
_diffrn_measurement_method       \w
_diffrn_detector_area_resol_mean 7.31
_diffrn_standards_number         0
_diffrn_standards_interval_count 0
_diffrn_standards_interval_time  0
_diffrn_standards_decay_%        0
_diffrn_reflns_number            20447
_diffrn_reflns_av_R_equivalents  0.0497
_diffrn_reflns_av_sigmaI/netI    0.0274
_diffrn_reflns_limit_h_min       -7
_diffrn_reflns_limit_h_max       6
_diffrn_reflns_limit_k_min       -22
_diffrn_reflns_limit_k_max       22
_diffrn_reflns_limit_l_min       -24
_diffrn_reflns_limit_l_max       24
_diffrn_reflns_theta_min         3.32
_diffrn_reflns_theta_max         25.34
_reflns_number_total             2180
_reflns_number_gt                1924
_reflns_threshold_expression     >2sigma(I)


_computing_data_collection       CrystalClear
_computing_cell_refinement       CrystalClear
_computing_data_reduction        CrystalStructure
_computing_structure_solution    'SHELXS-97 (Sheldrick, 1990)'
_computing_structure_refinement  'SHELXL-97 (Sheldrick, 1997)'
_computing_molecular_graphics    'Bruker SHELXTL'
_computing_publication_material  'Bruker SHELXTL'


_refine_special_details          
; 
 Refinement of F^2^ against ALL reflections.  The weighted R-factor wR and 
 goodness of fit S are based on F^2^, conventional R-factors R are based 
 on F, with F set to zero for negative F^2^. The threshold expression of 
 F^2^ > 2sigma(F^2^) is used only for calculating R-factors(gt) etc. and is 
 not relevant to the choice of reflections for refinement.  R-factors based 
 on F^2^ are statistically about twice as large as those based on F, and R- 
 factors based on ALL data will be even larger. 
;

_refine_ls_structure_factor_coef Fsqd
_refine_ls_matrix_type           full
_refine_ls_weighting_scheme      calc
_refine_ls_weighting_details     
'calc w=1/[\s^2^(Fo^2^)+(0.0820P)^2^+3.8700P] where P=(Fo^2^+2Fc^2^)/3'
_atom_sites_solution_primary     direct
_atom_sites_solution_secondary   difmap
_atom_sites_solution_hydrogens   geom
_refine_ls_hydrogen_treatment    mixed
_refine_ls_extinction_method     none
_refine_ls_extinction_coef       ?
_refine_ls_number_reflns         2180
_refine_ls_number_parameters     182
_refine_ls_number_restraints     4
_refine_ls_R_factor_all          0.0631
_refine_ls_R_factor_gt           0.0533
_refine_ls_wR_factor_ref         0.1483
_refine_ls_wR_factor_gt          0.1411
_refine_ls_goodness_of_fit_ref   1.019
_refine_ls_restrained_S_all      1.018
_refine_ls_shift/su_max          0.000
_refine_ls_shift/su_mean         0.000

loop_
_atom_site_label
_atom_site_type_symbol
_atom_site_fract_x
_atom_site_fract_y
_atom_site_fract_z
_atom_site_U_iso_or_equiv
_atom_site_adp_type
_atom_site_occupancy
_atom_site_symmetry_multiplicity
_atom_site_calc_flag
_atom_site_refinement_flags
_atom_site_disorder_assembly
_atom_site_disorder_group
Zn1 Zn 0.18868(9) 0.7500 0.5000 0.0306(2) Uani 1 2 d S . .
O1 O -0.0294(4) 0.74212(14) 0.57193(13) 0.0409(7) Uani 1 1 d . . .
O2 O 0.2612(5) 0.70467(17) 0.62678(14) 0.0498(7) Uani 1 1 d . . .
O3 O 0.1981(9) 1.0622(3) 0.7500 0.0817(17) Uani 1 2 d S . .
O4 O 0.5058(8) 0.5835(2) 0.6491(2) 0.0850(12) Uani 1 1 d D . .
H1W H 0.605(8) 0.586(3) 0.682(2) 0.102 Uiso 1 1 d D . .
H2W H 0.433(8) 0.625(2) 0.652(3) 0.102 Uiso 1 1 d D . .
N1 N 0.3890(5) 0.66879(15) 0.47387(15) 0.0346(7) Uani 1 1 d . . .
N2 N 0.3250(5) 0.61989(19) 0.42605(19) 0.0468(9) Uani 1 1 d . . .
N3 N 0.6368(5) 0.58566(16) 0.47028(16) 0.0380(7) Uani 1 1 d . . .
N4 N -0.0391(9) 0.9721(3) 0.7500 0.0575(14) Uani 1 2 d S . .
C1 C 0.8244(6) 0.5428(2) 0.4853(2) 0.0402(10) Uani 1 1 d . . .
C2 C 0.9384(7) 0.5536(2) 0.5431(2) 0.0488(11) Uani 1 1 d . . .
H2A H 0.8969 0.5896 0.5723 0.059 Uiso 1 1 calc R . .
C3 C 0.8851(7) 0.4891(2) 0.4421(2) 0.0460(10) Uani 1 1 d . . .
H3A H 0.8070 0.4817 0.4029 0.055 Uiso 1 1 calc R . .
C4 C 0.5737(6) 0.6476(2) 0.49917(18) 0.0384(9) Uani 1 1 d . . .
H4A H 0.6509 0.6715 0.5322 0.046 Uiso 1 1 calc R . .
C5 C 0.4759(7) 0.5711(2) 0.4256(2) 0.0473(10) Uani 1 1 d . . .
H5A H 0.4740 0.5312 0.3982 0.057 Uiso 1 1 calc R . .
C6 C -0.0531(6) 0.73414(17) 0.68980(17) 0.0307(8) Uani 1 1 d . . .
C7 C 0.0501(8) 0.7216(3) 0.7500 0.0321(11) Uani 1 2 d S . .
H7A H 0.1922 0.7044 0.7500 0.038 Uiso 1 2 calc SR . .
C8 C -0.2700(6) 0.7570(2) 0.6901(2) 0.0369(9) Uani 1 1 d . . .
H8A H -0.3425 0.7648 0.6500 0.044 Uiso 1 1 calc R . .
C9 C -0.3769(9) 0.7681(3) 0.7500 0.0415(13) Uani 1 2 d S . .
H9A H -0.5213 0.7831 0.7500 0.050 Uiso 1 2 calc SR . .
C10 C 0.0705(6) 0.72522(19) 0.62598(18) 0.0342(8) Uani 1 1 d . . .
C11 C 0.0174(14) 1.0396(4) 0.7500 0.0671(19) Uani 1 2 d SD . .
H11A H -0.119(7) 1.065(4) 0.7500 0.080 Uiso 1 2 d SD . .
C12 C -0.2675(15) 0.9492(5) 0.7500 0.096(3) Uani 1 2 d S . .
H12A H -0.3605 0.9904 0.7500 0.144 Uiso 1 2 calc SR . .
H12B H -0.2957 0.9212 0.7891 0.144 Uiso 0.50 1 calc PR . .
H12C H -0.2958 0.9212 0.7109 0.144 Uiso 0.50 1 calc PR . .
C13 C 0.1260(16) 0.9175(5) 0.7500 0.136(5) Uani 1 2 d S . .
H13A H 0.2675 0.9393 0.7500 0.204 Uiso 1 2 calc SR . .
H13B H 0.1102 0.8884 0.7109 0.204 Uiso 0.50 1 calc PR . .
H13C H 0.1102 0.8884 0.7891 0.204 Uiso 0.50 1 calc PR . .

loop_
_atom_site_aniso_label
_atom_site_aniso_U_11
_atom_site_aniso_U_22
_atom_site_aniso_U_33
_atom_site_aniso_U_23
_atom_site_aniso_U_13
_atom_site_aniso_U_12
Zn1 0.0275(4) 0.0350(4) 0.0292(4) -0.0023(2) 0.000 0.000
O1 0.0364(14) 0.0628(18) 0.0234(12) 0.0025(11) -0.0022(11) -0.0067(13)
O2 0.0427(16) 0.070(2) 0.0366(15) -0.0051(14) 0.0045(13) 0.0120(15)
O3 0.067(4) 0.071(4) 0.107(5) 0.000 0.000 -0.025(3)
O4 0.099(3) 0.066(2) 0.090(3) -0.020(2) -0.031(2) 0.020(2)
N1 0.0350(16) 0.0349(16) 0.0338(16) -0.0047(13) -0.0016(15) 0.0039(14)
N2 0.0416(19) 0.0479(19) 0.051(2) -0.0144(17) -0.0078(16) 0.0068(16)
N3 0.0343(16) 0.0372(16) 0.0426(18) -0.0075(15) -0.0021(15) 0.0045(14)
N4 0.055(3) 0.042(3) 0.076(4) 0.000 0.000 -0.001(3)
C1 0.034(2) 0.040(2) 0.047(2) -0.0048(18) -0.0038(17) 0.0068(16)
C2 0.048(2) 0.047(2) 0.051(3) -0.019(2) -0.010(2) 0.012(2)
C3 0.043(2) 0.051(2) 0.045(2) -0.0141(19) -0.0112(19) 0.0101(19)
C4 0.039(2) 0.040(2) 0.036(2) -0.0065(16) -0.0063(17) 0.0046(17)
C5 0.047(2) 0.044(2) 0.051(2) -0.0153(19) -0.009(2) 0.003(2)
C6 0.0363(19) 0.0282(17) 0.0277(19) -0.0009(14) -0.0014(15) -0.0048(15)
C7 0.029(3) 0.028(2) 0.039(3) 0.000 0.000 -0.001(2)
C8 0.0314(18) 0.047(2) 0.033(2) 0.0033(17) -0.0071(17) 0.0008(17)
C9 0.028(3) 0.057(3) 0.040(3) 0.000 0.000 -0.002(3)
C10 0.035(2) 0.0350(18) 0.0323(19) -0.0024(16) 0.0016(16) -0.0085(17)
C11 0.073(5) 0.046(4) 0.082(5) 0.000 0.000 -0.002(4)
C12 0.077(6) 0.057(5) 0.154(10) 0.000 0.000 -0.012(4)
C13 0.084(7) 0.062(6) 0.262(16) 0.000 0.000 0.019(5)

_geom_special_details            
; 
 All esds (except the esd in the dihedral angle between two l.s. planes) 
 are estimated using the full covariance matrix.  The cell esds are taken 
 into account individually in the estimation of esds in distances, angles 
 and torsion angles; correlations between esds in cell parameters are only 
 used when they are defined by crystal symmetry.  An approximate (isotropic) 
 treatment of cell esds is used for estimating esds involving l.s. planes. 
;

loop_
_geom_bond_atom_site_label_1
_geom_bond_atom_site_label_2
_geom_bond_distance
_geom_bond_site_symmetry_2
_geom_bond_publ_flag
Zn1 O1 1.973(3) 6_576 ?
Zn1 O1 1.973(3) . ?
Zn1 N1 2.027(3) 6_576 ?
Zn1 N1 2.027(3) . ?
O1 C10 1.285(4) . ?
O2 C10 1.232(5) . ?
O3 C11 1.187(9) . ?
O4 H1W 0.90(2) . ?
O4 H2W 0.897(19) . ?
N1 C4 1.304(5) . ?
N1 N2 1.384(4) . ?
N2 C5 1.302(5) . ?
N3 C4 1.356(5) . ?
N3 C5 1.360(5) . ?
N3 C1 1.437(5) . ?
N4 C11 1.314(9) . ?
N4 C13 1.440(10) . ?
N4 C12 1.465(10) . ?
C1 C2 1.370(5) . ?
C1 C3 1.379(6) . ?
C2 C3 1.379(5) 5_766 ?
C2 H2A 0.9300 . ?
C3 C2 1.379(5) 5_766 ?
C3 H3A 0.9300 . ?
C4 H4A 0.9300 . ?
C5 H5A 0.9300 . ?
C6 C7 1.384(4) . ?
C6 C8 1.399(6) . ?
C6 C10 1.497(5) . ?
C7 C6 1.384(4) 8_557 ?
C7 H7A 0.9300 . ?
C8 C9 1.385(5) . ?
C8 H8A 0.9300 . ?
C9 C8 1.385(5) 8_557 ?
C9 H9A 0.9300 . ?
C11 H11A 0.97(2) . ?
C12 H12A 0.9600 . ?
C12 H12B 0.9600 . ?
C12 H12C 0.9600 . ?
C13 H13A 0.9600 . ?
C13 H13B 0.9600 . ?
C13 H13C 0.9600 . ?

loop_
_geom_angle_atom_site_label_1
_geom_angle_atom_site_label_2
_geom_angle_atom_site_label_3
_geom_angle
_geom_angle_site_symmetry_1
_geom_angle_site_symmetry_3
_geom_angle_publ_flag
O1 Zn1 O1 94.61(16) 6_576 . ?
O1 Zn1 N1 122.96(12) 6_576 6_576 ?
O1 Zn1 N1 106.18(11) . 6_576 ?
O1 Zn1 N1 106.18(11) 6_576 . ?
O1 Zn1 N1 122.96(12) . . ?
N1 Zn1 N1 105.32(17) 6_576 . ?
C10 O1 Zn1 108.2(2) . . ?
H1W O4 H2W 103(3) . . ?
C4 N1 N2 108.3(3) . . ?
C4 N1 Zn1 131.0(3) . . ?
N2 N1 Zn1 120.4(2) . . ?
C5 N2 N1 105.6(3) . . ?
C4 N3 C5 104.2(3) . . ?
C4 N3 C1 128.3(3) . . ?
C5 N3 C1 127.4(3) . . ?
C11 N4 C13 120.0(7) . . ?
C11 N4 C12 122.3(7) . . ?
C13 N4 C12 117.7(7) . . ?
C2 C1 C3 120.1(4) . . ?
C2 C1 N3 120.2(4) . . ?
C3 C1 N3 119.6(4) . . ?
C1 C2 C3 119.8(4) . 5_766 ?
C1 C2 H2A 120.1 . . ?
C3 C2 H2A 120.1 5_766 . ?
C1 C3 C2 120.0(4) . 5_766 ?
C1 C3 H3A 120.0 . . ?
C2 C3 H3A 120.0 5_766 . ?
N1 C4 N3 110.1(3) . . ?
N1 C4 H4A 125.0 . . ?
N3 C4 H4A 125.0 . . ?
N2 C5 N3 111.8(3) . . ?
N2 C5 H5A 124.1 . . ?
N3 C5 H5A 124.1 . . ?
C7 C6 C8 119.0(4) . . ?
C7 C6 C10 119.7(3) . . ?
C8 C6 C10 121.3(3) . . ?
C6 C7 C6 121.6(5) . 8_557 ?
C6 C7 H7A 119.2 . . ?
C6 C7 H7A 119.2 8_557 . ?
C9 C8 C6 120.0(4) . . ?
C9 C8 H8A 120.0 . . ?
C6 C8 H8A 120.0 . . ?
C8 C9 C8 120.4(5) 8_557 . ?
C8 C9 H9A 119.8 8_557 . ?
C8 C9 H9A 119.8 . . ?
O2 C10 O1 122.8(3) . . ?
O2 C10 C6 120.3(3) . . ?
O1 C10 C6 116.9(3) . . ?
O3 C11 N4 126.2(8) . . ?
O3 C11 H11A 129(5) . . ?
N4 C11 H11A 105(5) . . ?
N4 C12 H12A 109.5 . . ?
N4 C12 H12B 109.5 . . ?
H12A C12 H12B 109.5 . . ?
N4 C12 H12C 109.5 . . ?
H12A C12 H12C 109.5 . . ?
H12B C12 H12C 109.5 . . ?
N4 C13 H13A 109.5 . . ?
N4 C13 H13B 109.5 . . ?
H13A C13 H13B 109.5 . . ?
N4 C13 H13C 109.5 . . ?
H13A C13 H13C 109.5 . . ?
H13B C13 H13C 109.5 . . ?

loop_
_geom_torsion_atom_site_label_1
_geom_torsion_atom_site_label_2
_geom_torsion_atom_site_label_3
_geom_torsion_atom_site_label_4
_geom_torsion
_geom_torsion_site_symmetry_1
_geom_torsion_site_symmetry_2
_geom_torsion_site_symmetry_3
_geom_torsion_site_symmetry_4
_geom_torsion_publ_flag
O1 Zn1 O1 C10 170.3(3) 6_576 . . . ?
N1 Zn1 O1 C10 -63.4(2) 6_576 . . . ?
N1 Zn1 O1 C10 57.7(3) . . . . ?
O1 Zn1 N1 C4 170.0(3) 6_576 . . . ?
O1 Zn1 N1 C4 -83.2(4) . . . . ?
N1 Zn1 N1 C4 38.2(3) 6_576 . . . ?
O1 Zn1 N1 N2 -17.5(3) 6_576 . . . ?
O1 Zn1 N1 N2 89.2(3) . . . . ?
N1 Zn1 N1 N2 -149.4(3) 6_576 . . . ?
C4 N1 N2 C5 0.5(4) . . . . ?
Zn1 N1 N2 C5 -173.5(3) . . . . ?
C4 N3 C1 C2 14.8(6) . . . . ?
C5 N3 C1 C2 -161.8(4) . . . . ?
C4 N3 C1 C3 -167.2(4) . . . . ?
C5 N3 C1 C3 16.2(6) . . . . ?
C3 C1 C2 C3 0.3(7) . . . 5_766 ?
N3 C1 C2 C3 178.3(4) . . . 5_766 ?
C2 C1 C3 C2 -0.3(7) . . . 5_766 ?
N3 C1 C3 C2 -178.3(4) . . . 5_766 ?
N2 N1 C4 N3 -0.3(4) . . . . ?
Zn1 N1 C4 N3 172.8(3) . . . . ?
C5 N3 C4 N1 0.0(4) . . . . ?
C1 N3 C4 N1 -177.2(4) . . . . ?
N1 N2 C5 N3 -0.5(5) . . . . ?
C4 N3 C5 N2 0.3(5) . . . . ?
C1 N3 C5 N2 177.6(4) . . . . ?
C8 C6 C7 C6 -2.8(7) . . . 8_557 ?
C10 C6 C7 C6 175.3(3) . . . 8_557 ?
C7 C6 C8 C9 1.2(6) . . . . ?
C10 C6 C8 C9 -176.8(4) . . . . ?
C6 C8 C9 C8 0.3(8) . . . 8_557 ?
Zn1 O1 C10 O2 -12.6(4) . . . . ?
Zn1 O1 C10 C6 165.2(2) . . . . ?
C7 C6 C10 O2 2.3(5) . . . . ?
C8 C6 C10 O2 -179.7(4) . . . . ?
C7 C6 C10 O1 -175.5(4) . . . . ?
C8 C6 C10 O1 2.5(5) . . . . ?
C13 N4 C11 O3 0.0 . . . . ?
C12 N4 C11 O3 180.0 . . . . ?

loop_
_geom_hbond_atom_site_label_D
_geom_hbond_atom_site_label_H
_geom_hbond_atom_site_label_A
_geom_hbond_distance_DH
_geom_hbond_distance_HA
_geom_hbond_distance_DA
_geom_hbond_angle_DHA
_geom_hbond_site_symmetry_A
O4 H1W O3 0.90(2) 1.88(2) 2.750(5) 163(6) 2_645
O4 H2W O2 0.897(19) 1.90(2) 2.760(5) 159(5) .

_diffrn_measured_fraction_theta_max 0.998
_diffrn_reflns_theta_full        25.34
_diffrn_measured_fraction_theta_full 0.998
_refine_diff_density_max         0.547
_refine_diff_density_min         -0.366
_refine_diff_density_rms         0.061
