####################################################################### 
# 
# This file contains crystal structure data downloaded from the 
# Cambridge Structural Database (CSD) hosted by the Cambridge 
# Crystallographic Data Centre (CCDC).
# 
# Full information about CCDC data access policies and citation 
# guidelines are available at http://www.ccdc.cam.ac.uk/access/V1 
# 
# Audit and citation data items may have been added by the CCDC. 
# Please retain this information to preserve the provenance of 
# this file and to allow appropriate attribution of the data. 
# 
#######################################################################

data_II
_audit_block_doi                 10.5517/cc12y2lp
_database_code_depnum_ccdc_archive 'CCDC 1011052'
loop_
_citation_id
_citation_doi
_citation_year
1 10.1016/j.ica.2014.08.010 2014
_audit_update_record             
;
2014-06-29 deposited with the CCDC.	2024-07-10 downloaded from the CCDC.
;


_audit_creation_method           SHELXL-97
_chemical_name_systematic        
; 
 ? 
;
_chemical_name_common            'C36 H40 N6 O8 Zn'
_chemical_melting_point          ?
_chemical_formula_moiety         'C30 H22 N4 O4 Zn,2(C3 H7 N O), 2(H2 O)'
_chemical_formula_sum            'C36 H40 N6 O8 Zn'
_chemical_formula_weight         750.11

loop_
_atom_type_symbol
_atom_type_description
_atom_type_scat_dispersion_real
_atom_type_scat_dispersion_imag
_atom_type_scat_source
C C 0.0033 0.0016 'International Tables Vol C Tables 4.2.6.8 and 6.1.1.4'
H H 0.0000 0.0000 'International Tables Vol C Tables 4.2.6.8 and 6.1.1.4'
O O 0.0106 0.0060 'International Tables Vol C Tables 4.2.6.8 and 6.1.1.4'
N N 0.0061 0.0033 'International Tables Vol C Tables 4.2.6.8 and 6.1.1.4'
Zn Zn 0.2839 1.4301 'International Tables Vol C Tables 4.2.6.8 and 6.1.1.4'

_symmetry_cell_setting           orthorhombic
_symmetry_space_group_name_H-M   'P b c a'

loop_
_symmetry_equiv_pos_as_xyz
'x, y, z'
'-x+1/2, -y, z+1/2'
'x+1/2, -y+1/2, -z'
'-x, y+1/2, -z+1/2'
'-x, -y, -z'
'x-1/2, y, -z-1/2'
'-x-1/2, y-1/2, z'
'x, -y-1/2, z-1/2'

_cell_length_a                   11.7783(7)
_cell_length_b                   19.380(2)
_cell_length_c                   32.183(2)
_cell_angle_alpha                90.00
_cell_angle_beta                 90.00
_cell_angle_gamma                90.00
_cell_volume                     7346.0(10)
_cell_formula_units_Z            8
_cell_measurement_temperature    291(2)
_cell_measurement_reflns_used    4408
_cell_measurement_theta_min      2.9961
_cell_measurement_theta_max      26.3152

_exptl_crystal_description       block
_exptl_crystal_colour            colourless
_exptl_crystal_size_max          0.20
_exptl_crystal_size_mid          0.14
_exptl_crystal_size_min          0.12
_exptl_crystal_density_meas      ?
_exptl_crystal_density_diffrn    1.356
_exptl_crystal_density_method    'not measured'
_exptl_crystal_F_000             3136
_exptl_absorpt_coefficient_mu    0.727
_exptl_absorpt_correction_type   multi-scan
_exptl_absorpt_correction_T_min  0.883
_exptl_absorpt_correction_T_max  0.956
_exptl_absorpt_process_details   CrysAlisPro

_exptl_special_details           
; 
 CrysAlisPro, Agilent Technologies,
Version 1.171.35.15 (release 03-08-2011 CrysAlis171 .NET)
(compiled Aug  3 2011,13:03:54)
Empirical absorption correction using spherical harmonics,
 implemented in SCALE3 ABSPACK scaling algorithm. 
;

_diffrn_ambient_temperature      291(2)
_diffrn_radiation_wavelength     0.71073
_diffrn_radiation_type           MoK\a
_diffrn_radiation_source         'fine-focus sealed tube'
_diffrn_radiation_monochromator  graphite
_diffrn_measurement_device_type  'Xcalibur, Eos, Gemini'
_diffrn_measurement_method       '\w scans'
_diffrn_detector_area_resol_mean ?
_diffrn_standards_number         ?
_diffrn_standards_interval_count ?
_diffrn_standards_interval_time  ?
_diffrn_standards_decay_%        ?
_diffrn_reflns_number            17738
_diffrn_reflns_av_R_equivalents  0.0581
_diffrn_reflns_av_sigmaI/netI    0.0536
_diffrn_reflns_limit_h_min       -13
_diffrn_reflns_limit_h_max       14
_diffrn_reflns_limit_k_min       -23
_diffrn_reflns_limit_k_max       12
_diffrn_reflns_limit_l_min       -35
_diffrn_reflns_limit_l_max       38
_diffrn_reflns_theta_min         3.00
_diffrn_reflns_theta_max         25.00
_reflns_number_total             6436
_reflns_number_gt                5169
_reflns_threshold_expression     >2sigma(I)

_computing_data_collection       
;
CrysAlisPro, Agilent Technologies,
Version 1.171.35.15 (release 03-08-2011 CrysAlis171 .NET)
(compiled Aug  3 2011,13:03:54)
;
_computing_cell_refinement       
;
CrysAlisPro, Agilent Technologies,
Version 1.171.35.15 (release 03-08-2011 CrysAlis171 .NET)
(compiled Aug  3 2011,13:03:54)
;
_computing_data_reduction        
;
CrysAlisPro, Agilent Technologies,
Version 1.171.35.15 (release 03-08-2011 CrysAlis171 .NET)
(compiled Aug  3 2011,13:03:54)
;
_computing_structure_solution    'SHELXS-97 (Sheldrick, 1990)'
_computing_structure_refinement  'SHELXL-97 (Sheldrick, 1997)'
_computing_molecular_graphics    ?
_computing_publication_material  ?

_refine_special_details          
; 
 Refinement of F^2^ against ALL reflections.  The weighted R-factor wR and 
 goodness of fit S are based on F^2^, conventional R-factors R are based 
 on F, with F set to zero for negative F^2^. The threshold expression of 
 F^2^ > 2sigma(F^2^) is used only for calculating R-factors(gt) etc. and is 
 not relevant to the choice of reflections for refinement.  R-factors based 
 on F^2^ are statistically about twice as large as those based on F, and R- 
 factors based on ALL data will be even larger. 
;

_refine_ls_structure_factor_coef Fsqd
_refine_ls_matrix_type           full
_refine_ls_weighting_scheme      calc
_refine_ls_weighting_details     
'calc w=1/[\s^2^(Fo^2^)+(0.0842P)^2^+0.7892P] where P=(Fo^2^+2Fc^2^)/3'
_atom_sites_solution_primary     direct
_atom_sites_solution_secondary   difmap
_atom_sites_solution_hydrogens   geom
_refine_ls_hydrogen_treatment    mixed
_refine_ls_extinction_method     none
_refine_ls_extinction_coef       ?
_refine_ls_number_reflns         6436
_refine_ls_number_parameters     476
_refine_ls_number_restraints     4
_refine_ls_R_factor_all          0.0656
_refine_ls_R_factor_gt           0.0540
_refine_ls_wR_factor_ref         0.1512
_refine_ls_wR_factor_gt          0.1365
_refine_ls_goodness_of_fit_ref   1.058
_refine_ls_restrained_S_all      1.058
_refine_ls_shift/su_max          0.001
_refine_ls_shift/su_mean         0.000

loop_
_atom_site_label
_atom_site_type_symbol
_atom_site_fract_x
_atom_site_fract_y
_atom_site_fract_z
_atom_site_U_iso_or_equiv
_atom_site_adp_type
_atom_site_occupancy
_atom_site_symmetry_multiplicity
_atom_site_calc_flag
_atom_site_refinement_flags
_atom_site_disorder_assembly
_atom_site_disorder_group
Zn1 Zn 0.02797(2) 0.398140(16) 0.131820(10) 0.03312(15) Uani 1 1 d . . .
O1 O 0.13744(16) 0.47128(10) 0.14351(7) 0.0468(5) Uani 1 1 d . . .
O2 O -0.00774(18) 0.54097(11) 0.15415(9) 0.0602(7) Uani 1 1 d . . .
O3 O 0.36315(17) 0.82153(10) 0.13379(7) 0.0455(5) Uani 1 1 d . . .
O4 O 0.50005(19) 0.75118(11) 0.11344(9) 0.0604(7) Uani 1 1 d . . .
O5 O 0.1304(2) 0.05310(13) 0.01723(8) 0.0703(7) Uani 1 1 d . . .
O6 O 0.1029(2) 0.23181(14) 0.28098(11) 0.0893(9) Uani 1 1 d . . .
O7 O -0.1725(2) 0.64099(18) 0.15334(10) 0.0840(9) Uani 1 1 d D . .
O8 O -0.3468(2) 0.64101(16) 0.09241(9) 0.0738(8) Uani 1 1 d D . .
N1 N -0.04063(18) 0.42199(12) 0.07631(8) 0.0369(5) Uani 1 1 d . . .
N2 N -0.1668(2) 0.44252(12) 0.02695(8) 0.0440(6) Uani 1 1 d . . .
H2 H -0.2312 0.4541 0.0150 0.053 Uiso 1 1 calc R . .
N3 N -0.09556(19) 0.37757(11) 0.17345(7) 0.0386(5) Uani 1 1 d . . .
N4 N -0.2514(2) 0.33808(14) 0.20309(8) 0.0524(7) Uani 1 1 d . . .
H4 H -0.3185 0.3186 0.2058 0.063 Uiso 1 1 calc R . .
N5 N 0.0679(3) 0.16373(17) 0.01243(10) 0.0642(8) Uani 1 1 d . . .
N6 N 0.0034(3) 0.16621(19) 0.23679(11) 0.0697(9) Uani 1 1 d . . .
C1 C 0.0094(3) 0.40798(15) 0.03798(10) 0.0408(7) Uani 1 1 d . . .
C2 C 0.1191(3) 0.38777(17) 0.02810(11) 0.0535(8) Uani 1 1 d . . .
H2A H 0.1747 0.3803 0.0490 0.064 Uiso 1 1 calc R . .
C3 C 0.1441(3) 0.37892(19) -0.01398(12) 0.0631(10) Uani 1 1 d . . .
H3 H 0.2185 0.3651 -0.0218 0.076 Uiso 1 1 calc R . .
C4 C 0.0630(4) 0.38979(19) -0.04478(12) 0.0658(10) Uani 1 1 d . . .
H4A H 0.0827 0.3822 -0.0730 0.079 Uiso 1 1 calc R . .
C5 C -0.0448(3) 0.4112(2) -0.03515(12) 0.0607(9) Uani 1 1 d . . .
H5 H -0.0999 0.4193 -0.0561 0.073 Uiso 1 1 calc R . .
C6 C -0.0699(3) 0.42062(16) 0.00674(10) 0.0442(7) Uani 1 1 d . . .
C7 C -0.1459(2) 0.44319(14) 0.06832(9) 0.0379(6) Uani 1 1 d . . .
C8 C -0.2308(2) 0.46777(14) 0.09932(9) 0.0404(6) Uani 1 1 d . . .
H8A H -0.2491 0.5166 0.0933 0.048 Uiso 1 1 calc R . .
H8B H -0.1963 0.4658 0.1273 0.048 Uiso 1 1 calc R . .
C9 C -0.3406(2) 0.42613(15) 0.09962(9) 0.0400(6) Uani 1 1 d . . .
C10 C -0.4404(3) 0.45773(19) 0.08639(10) 0.0516(8) Uani 1 1 d . . .
H10 H -0.4391 0.5049 0.0784 0.062 Uiso 1 1 calc R . .
C11 C -0.5413(3) 0.4215(2) 0.08461(11) 0.0584(10) Uani 1 1 d . . .
H11 H -0.6087 0.4438 0.0755 0.070 Uiso 1 1 calc R . .
C12 C -0.5438(3) 0.3537(2) 0.09594(12) 0.0576(9) Uani 1 1 d . . .
H12 H -0.6128 0.3284 0.0942 0.069 Uiso 1 1 calc R . .
C13 C -0.4465(3) 0.32163(18) 0.10990(11) 0.0518(8) Uani 1 1 d . . .
H13 H -0.4499 0.2747 0.1183 0.062 Uiso 1 1 calc R . .
C14 C -0.3434(2) 0.35666(15) 0.11190(9) 0.0396(6) Uani 1 1 d . . .
C15 C -0.2376(2) 0.31951(15) 0.12663(9) 0.0419(7) Uani 1 1 d . . .
H15A H -0.2548 0.2697 0.1294 0.050 Uiso 1 1 calc R . .
H15B H -0.1776 0.3246 0.1053 0.050 Uiso 1 1 calc R . .
C16 C -0.1933(2) 0.34561(14) 0.16724(9) 0.0396(7) Uani 1 1 d . . .
C17 C -0.1879(3) 0.36603(18) 0.23469(10) 0.0529(8) Uani 1 1 d . . .
C18 C -0.2072(3) 0.3707(2) 0.27722(11) 0.0719(11) Uani 1 1 d . . .
H18 H -0.2746 0.3532 0.2895 0.086 Uiso 1 1 calc R . .
C19 C -0.1239(4) 0.4019(2) 0.30055(12) 0.0811(14) Uani 1 1 d . . .
H19 H -0.1343 0.4069 0.3297 0.097 Uiso 1 1 calc R . .
C20 C -0.0242(4) 0.4264(2) 0.28222(13) 0.0754(12) Uani 1 1 d . . .
H20 H 0.0325 0.4467 0.2993 0.090 Uiso 1 1 calc R . .
C21 C -0.0056(3) 0.4219(2) 0.23979(12) 0.0573(9) Uani 1 1 d . . .
H21 H 0.0621 0.4391 0.2275 0.069 Uiso 1 1 calc R . .
C22 C -0.0896(3) 0.39135(15) 0.21598(9) 0.0425(7) Uani 1 1 d . . .
C23 C 0.0946(2) 0.53131(14) 0.14801(10) 0.0408(7) Uani 1 1 d . . .
C24 C 0.1755(2) 0.59052(14) 0.14429(9) 0.0378(6) Uani 1 1 d . . .
C25 C 0.2846(3) 0.57983(16) 0.12973(10) 0.0473(8) Uani 1 1 d . . .
H25 H 0.3097 0.5343 0.1237 0.057 Uiso 1 1 calc R . .
C26 C 0.3576(3) 0.63516(15) 0.12384(11) 0.0492(8) Uani 1 1 d . . .
H26 H 0.4319 0.6272 0.1134 0.059 Uiso 1 1 calc R . .
C27 C 0.1421(2) 0.65707(15) 0.15401(11) 0.0477(8) Uani 1 1 d . . .
H27 H 0.0678 0.6649 0.1645 0.057 Uiso 1 1 calc R . .
C28 C 0.2148(2) 0.71222(15) 0.14874(11) 0.0456(7) Uani 1 1 d . . .
H28 H 0.1905 0.7574 0.1559 0.055 Uiso 1 1 calc R . .
C29 C 0.3234(2) 0.70193(14) 0.13305(9) 0.0381(6) Uani 1 1 d . . .
C30 C 0.4031(2) 0.76163(15) 0.12607(9) 0.0393(7) Uani 1 1 d . . .
C31 C 0.0537(4) 0.0966(2) 0.01450(12) 0.0654(11) Uani 1 1 d . . .
H31 H -0.0221 0.0800 0.0139 0.079 Uiso 1 1 calc R . .
C32 C -0.0279(3) 0.2110(2) 0.00735(15) 0.0796(12) Uani 1 1 d . . .
H32A H -0.0987 0.1846 0.0062 0.119 Uiso 1 1 calc R . .
H32B H -0.0186 0.2372 -0.0185 0.119 Uiso 1 1 calc R . .
H32C H -0.0304 0.2430 0.0309 0.119 Uiso 1 1 calc R . .
C33 C 0.1807(3) 0.1938(2) 0.01392(17) 0.0881(14) Uani 1 1 d . . .
H33A H 0.2339 0.1604 0.0259 0.132 Uiso 1 1 calc R . .
H33B H 0.1792 0.2355 0.0311 0.132 Uiso 1 1 calc R . .
H33C H 0.2051 0.2057 -0.0143 0.132 Uiso 1 1 calc R . .
C34 C 0.0218(4) 0.2222(2) 0.25730(16) 0.0814(13) Uani 1 1 d . . .
H34 H -0.0309 0.2589 0.2540 0.098 Uiso 1 1 calc R . .
C35 C -0.0952(5) 0.1586(4) 0.2102(2) 0.140(3) Uani 1 1 d . . .
H35A H -0.1401 0.2011 0.2108 0.211 Uiso 1 1 calc R . .
H35B H -0.1417 0.1200 0.2201 0.211 Uiso 1 1 calc R . .
H35C H -0.0704 0.1494 0.1817 0.211 Uiso 1 1 calc R . .
C36 C 0.0810(6) 0.1095(3) 0.23936(18) 0.1130(19) Uani 1 1 d . . .
H36A H 0.1518 0.1249 0.2524 0.170 Uiso 1 1 calc R . .
H36B H 0.0971 0.0921 0.2114 0.170 Uiso 1 1 calc R . .
H36C H 0.0472 0.0726 0.2561 0.170 Uiso 1 1 calc R . .
H7B H -0.124(4) 0.610(2) 0.150(3) 0.170 Uiso 1 1 d D . .
H8C H -0.389(4) 0.674(2) 0.099(2) 0.170 Uiso 1 1 d D . .
H8D H -0.297(4) 0.646(4) 0.1108(16) 0.170 Uiso 1 1 d D . .
H7A H -0.148(6) 0.664(3) 0.1738(14) 0.170 Uiso 1 1 d D . .

loop_
_atom_site_aniso_label
_atom_site_aniso_U_11
_atom_site_aniso_U_22
_atom_site_aniso_U_33
_atom_site_aniso_U_23
_atom_site_aniso_U_13
_atom_site_aniso_U_12
Zn1 0.0355(2) 0.0276(2) 0.0362(2) 0.00285(13) -0.00036(12) -0.00052(12)
O1 0.0433(10) 0.0277(10) 0.0694(14) 0.0013(10) -0.0075(10) -0.0040(9)
O2 0.0459(12) 0.0399(13) 0.095(2) 0.0021(14) 0.0119(13) -0.0043(10)
O3 0.0444(10) 0.0272(11) 0.0647(14) -0.0014(10) 0.0062(9) -0.0037(9)
O4 0.0475(11) 0.0420(13) 0.092(2) -0.0107(14) 0.0229(12) -0.0075(10)
O5 0.0732(15) 0.0717(16) 0.0660(17) 0.0130(14) 0.0194(13) -0.0041(14)
O6 0.0948(19) 0.0651(17) 0.108(2) 0.0040(17) -0.0407(19) -0.0192(15)
O7 0.0738(17) 0.101(2) 0.077(2) -0.0172(18) -0.0158(15) 0.0331(16)
O8 0.0676(17) 0.0773(19) 0.0764(19) -0.0244(16) -0.0048(13) 0.0153(14)
N1 0.0398(12) 0.0336(12) 0.0374(13) 0.0088(11) 0.0045(10) 0.0024(10)
N2 0.0443(12) 0.0476(14) 0.0401(13) 0.0094(12) -0.0044(11) 0.0034(11)
N3 0.0449(13) 0.0331(12) 0.0378(13) 0.0027(11) -0.0005(10) 0.0000(11)
N4 0.0461(14) 0.0616(16) 0.0495(16) 0.0187(14) 0.0120(12) 0.0016(12)
N5 0.0684(18) 0.066(2) 0.0585(19) 0.0004(16) 0.0106(15) -0.0023(16)
N6 0.0724(18) 0.071(2) 0.066(2) 0.0022(19) -0.0201(16) -0.0144(18)
C1 0.0483(16) 0.0364(16) 0.0375(16) 0.0056(13) 0.0060(13) -0.0008(13)
C2 0.0490(17) 0.057(2) 0.0550(19) 0.0081(17) 0.0113(15) 0.0042(15)
C3 0.061(2) 0.066(2) 0.062(2) 0.008(2) 0.0262(18) 0.0078(18)
C4 0.085(3) 0.067(2) 0.045(2) 0.0049(18) 0.021(2) -0.001(2)
C5 0.077(2) 0.061(2) 0.044(2) 0.0093(18) 0.0011(17) -0.0026(18)
C6 0.0489(16) 0.0437(16) 0.0400(16) 0.0097(14) 0.0020(13) -0.0013(14)
C7 0.0421(14) 0.0309(14) 0.0406(15) 0.0069(13) 0.0026(12) 0.0006(12)
C8 0.0428(14) 0.0342(14) 0.0442(16) 0.0043(14) 0.0030(13) 0.0055(12)
C9 0.0402(14) 0.0421(16) 0.0377(15) -0.0013(14) 0.0022(12) 0.0059(12)
C10 0.0494(17) 0.057(2) 0.0480(19) 0.0074(16) 0.0036(14) 0.0142(16)
C11 0.0411(16) 0.086(3) 0.048(2) 0.001(2) -0.0006(14) 0.0140(18)
C12 0.0399(16) 0.078(3) 0.055(2) -0.003(2) 0.0010(15) -0.0077(16)
C13 0.0533(17) 0.054(2) 0.0481(19) 0.0033(17) 0.0025(15) -0.0071(16)
C14 0.0389(14) 0.0433(16) 0.0366(15) -0.0023(13) 0.0017(12) 0.0019(12)
C15 0.0440(15) 0.0326(15) 0.0491(17) 0.0036(13) 0.0018(13) -0.0025(13)
C16 0.0386(14) 0.0352(15) 0.0450(16) 0.0110(13) 0.0051(12) 0.0046(12)
C17 0.0567(18) 0.059(2) 0.0425(17) 0.0148(16) 0.0068(15) 0.0159(16)
C18 0.076(2) 0.095(3) 0.044(2) 0.025(2) 0.0171(19) 0.032(2)
C19 0.104(3) 0.102(3) 0.037(2) 0.010(2) 0.006(2) 0.042(3)
C20 0.106(3) 0.074(3) 0.046(2) -0.006(2) -0.022(2) 0.025(2)
C21 0.0673(19) 0.056(2) 0.048(2) -0.0017(18) -0.0060(17) 0.0099(18)
C22 0.0519(17) 0.0420(16) 0.0336(15) 0.0056(13) 0.0011(13) 0.0083(13)
C23 0.0441(16) 0.0355(16) 0.0428(16) 0.0035(14) -0.0037(13) -0.0049(13)
C24 0.0424(15) 0.0295(14) 0.0417(15) 0.0012(13) -0.0007(13) 0.0009(12)
C25 0.0458(16) 0.0288(15) 0.067(2) -0.0100(14) 0.0056(14) 0.0012(13)
C26 0.0416(15) 0.0351(16) 0.071(2) -0.0096(16) 0.0111(15) -0.0002(13)
C27 0.0397(15) 0.0368(16) 0.066(2) -0.0026(15) 0.0097(15) -0.0001(13)
C28 0.0436(15) 0.0300(14) 0.0631(19) -0.0063(15) 0.0076(14) -0.0008(13)
C29 0.0419(14) 0.0303(15) 0.0422(15) 0.0007(12) 0.0012(12) -0.0039(12)
C30 0.0415(15) 0.0343(15) 0.0421(16) 0.0006(13) -0.0015(12) -0.0066(13)
C31 0.062(2) 0.085(3) 0.049(2) 0.010(2) 0.0172(18) -0.007(2)
C32 0.079(3) 0.087(3) 0.073(3) 0.003(3) 0.005(2) 0.008(2)
C33 0.075(2) 0.070(3) 0.119(4) -0.013(3) 0.010(3) -0.012(2)
C34 0.092(3) 0.060(3) 0.092(3) 0.013(3) -0.026(3) 0.005(2)
C35 0.101(4) 0.209(7) 0.111(5) -0.013(5) -0.050(3) -0.038(4)
C36 0.172(6) 0.084(3) 0.083(4) -0.017(3) -0.024(4) 0.007(4)

_geom_special_details            
; 
 All esds (except the esd in the dihedral angle between two l.s. planes) 
 are estimated using the full covariance matrix.  The cell esds are taken 
 into account individually in the estimation of esds in distances, angles 
 and torsion angles; correlations between esds in cell parameters are only 
 used when they are defined by crystal symmetry.  An approximate (isotropic) 
 treatment of cell esds is used for estimating esds involving l.s. planes. 
;

loop_
_geom_bond_atom_site_label_1
_geom_bond_atom_site_label_2
_geom_bond_distance
_geom_bond_site_symmetry_2
_geom_bond_publ_flag
Zn1 O1 1.9528(19) . ?
Zn1 O3 1.9629(19) 7_655 ?
Zn1 N1 2.014(2) . ?
Zn1 N3 2.018(2) . ?
O1 C23 1.276(3) . ?
O2 C23 1.236(4) . ?
O3 C30 1.277(3) . ?
O3 Zn1 1.9629(19) 7_665 ?
O4 C30 1.229(4) . ?
O5 C31 1.239(5) . ?
O6 C34 1.236(5) . ?
O7 H7B 0.837(10) . ?
O7 H7A 0.839(10) . ?
O8 H8C 0.841(10) . ?
O8 H8D 0.837(10) . ?
N1 C7 1.331(3) . ?
N1 C1 1.394(4) . ?
N2 C7 1.354(4) . ?
N2 C6 1.381(4) . ?
N2 H2 0.8800 . ?
N3 C16 1.323(3) . ?
N3 C22 1.396(4) . ?
N4 C16 1.349(4) . ?
N4 C1