####################################################################### 
# 
# This file contains crystal structure data downloaded from the 
# Cambridge Structural Database (CSD) hosted by the Cambridge 
# Crystallographic Data Centre (CCDC).
# 
# Full information about CCDC data access policies and citation 
# guidelines are available at http://www.ccdc.cam.ac.uk/access/V1 
# 
# Audit and citation data items may have been added by the CCDC. 
# Please retain this information to preserve the provenance of 
# this file and to allow appropriate attribution of the data. 
# 
#######################################################################

data_Compound-1
_audit_block_doi                 10.5517/cc142ycj
_database_code_depnum_ccdc_archive 'CCDC 1045517'
loop_
_citation_id
_citation_doi
_citation_year
1 10.1039/C5CE00181A 2015
_audit_update_record             
;
2015-03-04 deposited with the CCDC.	2024-07-10 downloaded from the CCDC.
;

_audit_creation_method           SHELXL-97
_chemical_name_systematic        
;
 ?
;
_chemical_name_common            ?
_chemical_melting_point          ?
_chemical_formula_moiety         'C112 H98 Mn5 O44'
_chemical_formula_sum            'C112 H98 Mn5 O44'
_chemical_formula_weight         2422.60

loop_
_atom_type_symbol
_atom_type_description
_atom_type_scat_dispersion_real
_atom_type_scat_dispersion_imag
_atom_type_scat_source
C C 0.0033 0.0016 'International Tables Vol C Tables 4.2.6.8 and 6.1.1.4'
H H 0.0000 0.0000 'International Tables Vol C Tables 4.2.6.8 and 6.1.1.4'
O O 0.0106 0.0060 'International Tables Vol C Tables 4.2.6.8 and 6.1.1.4'
Mn Mn 0.3368 0.7283 'International Tables Vol C Tables 4.2.6.8 and 6.1.1.4'

_symmetry_cell_setting           monoclinic
_symmetry_space_group_name_H-M   'P 2/c'

loop_
_symmetry_equiv_pos_as_xyz
'x, y, z'
'-x, y, -z+1/2'
'-x, -y, -z'
'x, -y, z-1/2'

_cell_length_a                   16.7488(9)
_cell_length_b                   12.8214(9)
_cell_length_c                   30.458(2)
_cell_angle_alpha                90.00
_cell_angle_beta                 116.084(4)
_cell_angle_gamma                90.00
_cell_volume                     5874.5(6)
_cell_formula_units_Z            2
_cell_measurement_temperature    293(2)
_cell_measurement_reflns_used    2384
_cell_measurement_theta_min      2.9726
_cell_measurement_theta_max      29.2374

_exptl_crystal_description       block
_exptl_crystal_colour            colorless
_exptl_crystal_size_max          0.26
_exptl_crystal_size_mid          0.24
_exptl_crystal_size_min          0.22
_exptl_crystal_density_meas      ?
_exptl_crystal_density_diffrn    1.370
_exptl_crystal_density_method    'not measured'
_exptl_crystal_F_000             2494
_exptl_absorpt_coefficient_mu    0.609
_exptl_absorpt_correction_type   multi-scan
_exptl_absorpt_correction_T_min  0.8578
_exptl_absorpt_correction_T_max  0.8777
_exptl_absorpt_process_details   
;
CrysAlis (Oxford Diffraction, 2006)
;
_exptl_special_details           
;
 ?
;

_diffrn_ambient_temperature      293(2)
_diffrn_radiation_wavelength     0.71073
_diffrn_radiation_type           MoK\a
_diffrn_radiation_source         'fine-focus sealed tube'
_diffrn_radiation_monochromator  graphite
_diffrn_measurement_device_type  'Oxford Diffraction Gemini R Ultra'
_diffrn_measurement_method       '\w scan'
_diffrn_detector_area_resol_mean 10.0
_diffrn_standards_number         ?
_diffrn_standards_interval_count ?
_diffrn_standards_interval_time  ?
_diffrn_standards_decay_%        ?
_diffrn_reflns_number            23006
_diffrn_reflns_av_R_equivalents  0.0756
_diffrn_reflns_av_sigmaI/netI    0.1353
_diffrn_reflns_limit_h_min       -20
_diffrn_reflns_limit_h_max       17
_diffrn_reflns_limit_k_min       -15
_diffrn_reflns_limit_k_max       12
_diffrn_reflns_limit_l_min       -34
_diffrn_reflns_limit_l_max       36
_diffrn_reflns_theta_min         2.98
_diffrn_reflns_theta_max         25.35
_reflns_number_total             10714
_reflns_number_gt                4582
_reflns_threshold_expression     >2\s(I)

_computing_data_collection       
'CrysAlisPro(1.171.35.21) (Agilent Tech., 2012)'
_computing_cell_refinement       
'CrysAlisPro(1.171.35.21) (Agilent Tech., 2012)'
_computing_data_reduction        
'CrysAlisPro(1.171.35.21) (Agilent Tech., 2012)'
_computing_structure_solution    'SHELXS-97 (Sheldrick, 2008)'
_computing_structure_refinement  'SHELXL-97 (Sheldrick, 2008)'
_computing_molecular_graphics    ?
_computing_publication_material  ?

_refine_special_details          
;
 Refinement of F^2^ against ALL reflections.  The weighted R-factor wR and
 goodness of fit S are based on F^2^, conventional R-factors R are based
 on F, with F set to zero for negative F^2^. The threshold expression of
 F^2^ > 2\s(F^2^) is used only for calculating R-factors(gt) etc. and is
 not relevant to the choice of reflections for refinement.  R-factors based
 on F^2^ are statistically about twice as large as those based on F, and R-
 factors based on ALL data will be even larger.

H atoms of O17 were refined isotropically with 
distance restraints of O---H = 0.9+-0.01 \%A. 
The distances of H8A...H48B  and H32A...H40B were restrained to 2.0+-0.01 \%A, respectively.
For  O1W atom, some anisotropic displacement ellipsoids were rather 
elongated which led us to use the ISOR restraint.
;

_refine_ls_structure_factor_coef Fsqd
_refine_ls_matrix_type           full
_refine_ls_weighting_scheme      calc
_refine_ls_weighting_details     
'calc w=1/[\s^2^(Fo^2^)+(0.0200P)^2^+10.0000P] where P=(Fo^2^+2Fc^2^)/3'
_atom_sites_solution_primary     direct
_atom_sites_solution_secondary   difmap
_atom_sites_solution_hydrogens   geom
_refine_ls_hydrogen_treatment    mixed
_refine_ls_extinction_method     none
_refine_ls_extinction_coef       ?
_refine_ls_number_reflns         10714
_refine_ls_number_parameters     685
_refine_ls_number_restraints     9
_refine_ls_R_factor_all          0.1612
_refine_ls_R_factor_gt           0.0830
_refine_ls_wR_factor_ref         0.1875
_refine_ls_wR_factor_gt          0.1674
_refine_ls_goodness_of_fit_ref   1.085
_refine_ls_restrained_S_all      1.088
_refine_ls_shift/su_max          0.001
_refine_ls_shift/su_mean         0.000

loop_
_atom_site_label
_atom_site_type_symbol
_atom_site_fract_x
_atom_site_fract_y
_atom_site_fract_z
_atom_site_U_iso_or_equiv
_atom_site_adp_type
_atom_site_occupancy
_atom_site_symmetry_multiplicity
_atom_site_calc_flag
_atom_site_refinement_flags
_atom_site_disorder_assembly
_atom_site_disorder_group
Mn1 Mn 0.5000 0.0000 0.5000 0.0568(4) Uani 1 2 d S . .
Mn2 Mn 0.61678(6) -0.03509(9) 0.63630(4) 0.0587(3) Uani 1 1 d . . .
Mn3 Mn -0.15536(6) 1.06531(10) 0.20871(4) 0.0636(4) Uani 1 1 d . . .
C1 C 0.4448(4) 0.0892(6) 0.5758(3) 0.061(2) Uani 1 1 d . . .
C2 C 0.3873(4) 0.1572(6) 0.5881(2) 0.0533(18) Uani 1 1 d . . .
C3 C 0.3992(5) 0.1655(6) 0.6355(2) 0.068(2) Uani 1 1 d . . .
H3 H 0.4436 0.1274 0.6602 0.081 Uiso 1 1 calc R . .
C4 C 0.3446(5) 0.2309(7) 0.6463(3) 0.088(3) Uani 1 1 d . . .
H4 H 0.3530 0.2366 0.6785 0.105 Uiso 1 1 calc R . .
C5 C 0.2788(5) 0.2871(7) 0.6109(3) 0.072(2) Uani 1 1 d . . .
H5 H 0.2433 0.3321 0.6186 0.086 Uiso 1 1 calc R . .
C6 C 0.2657(4) 0.2754(6) 0.5622(2) 0.0527(18) Uani 1 1 d . . .
C7 C 0.3202(4) 0.2123(5) 0.5516(2) 0.0526(18) Uani 1 1 d . . .
H7 H 0.3122 0.2063 0.5195 0.063 Uiso 1 1 calc R . .
C8 C 0.1380(4) 0.3861(5) 0.5317(2) 0.0585(19) Uani 1 1 d . . .
H8A H 0.1671 0.4382 0.5568 0.070 Uiso 1 1 calc RD . .
H8B H 0.1026 0.3413 0.5419 0.070 Uiso 1 1 calc R . .
C9 C 0.2855(4) 0.0299(5) 0.4136(2) 0.0500(17) Uani 1 1 d . . .
C10 C 0.2248(4) 0.0438(6) 0.4373(2) 0.0526(18) Uani 1 1 d . . .
C11 C 0.2328(5) -0.0197(6) 0.4753(3) 0.0603(19) Uani 1 1 d . . .
H11 H 0.2776 -0.0695 0.4874 0.072 Uiso 1 1 calc R . .
C12 C 0.1731(5) -0.0085(6) 0.4953(3) 0.071(2) Uani 1 1 d . . .
H12 H 0.1764 -0.0530 0.5201 0.085 Uiso 1 1 calc R . .
C13 C 0.1092(5) 0.0679(6) 0.4785(3) 0.065(2) Uani 1 1 d . . .
H13 H 0.0685 0.0736 0.4916 0.078 Uiso 1 1 calc R . .
C14 C 0.1048(4) 0.1354(6) 0.4429(2) 0.0546(19) Uani 1 1 d . . .
C15 C 0.1621(4) 0.1200(5) 0.4220(2) 0.0503(17) Uani 1 1 d . . .
H15 H 0.1576 0.1633 0.3966 0.060 Uiso 1 1 calc R . .
C16 C 0.0078(5) 0.2624(6) 0.4529(3) 0.070(2) Uani 1 1 d . . .
H16A H 0.0396 0.2425 0.4870 0.084 Uiso 1 1 calc R . .
H16B H -0.0537 0.2407 0.4408 0.084 Uiso 1 1 calc R . .
C17 C -0.3213(7) 0.1304(10) 0.2274(4) 0.128(5) Uani 1 1 d . . .
C18 C -0.3178(6) 0.1712(13) 0.2746(4) 0.175(7) Uani 1 1 d . . .
C19 C -0.3753(7) 0.1226(11) 0.2947(4) 0.159(6) Uani 1 1 d . . .
H19 H -0.4171 0.0722 0.2771 0.191 Uiso 1 1 calc R . .
C20 C -0.3640(8) 0.1566(11) 0.3427(5) 0.154(5) Uani 1 1 d . . .
H20 H -0.3995 0.1285 0.3561 0.184 Uiso 1 1 calc R . .
C21 C -0.3006(7) 0.2307(12) 0.3682(5) 0.184(7) Uani 1 1 d . . .
H21 H -0.2910 0.2498 0.3996 0.220 Uiso 1 1 calc R . .
C22 C -0.2476(6) 0.2798(11) 0.3452(4) 0.147(5) Uani 1 1 d . . .
C23 C -0.2537(5) 0.2443(9) 0.3002(3) 0.118(4) Uani 1 1 d . . .
H23 H -0.2154 0.2695 0.2880 0.141 Uiso 1 1 calc R . .
C24 C -0.1102(4) 0.3620(7) 0.3635(3) 0.076(3) Uani 1 1 d . . .
H24A H -0.1278 0.3950 0.3319 0.092 Uiso 1 1 calc R . .
H24B H -0.0858 0.2938 0.3625 0.092 Uiso 1 1 calc R . .
C25 C -0.2634(6) 0.8664(7) 0.2071(3) 0.077(2) Uani 1 1 d . . .
C26 C -0.2756(5) 0.7697(7) 0.2316(3) 0.077(2) Uani 1 1 d . . .
C27 C -0.3550(6) 0.7154(8) 0.2106(4) 0.106(3) Uani 1 1 d . . .
H27 H -0.4003 0.7405 0.1818 0.127 Uiso 1 1 calc R . .
C28 C -0.3693(8) 0.6275(9) 0.2303(4) 0.141(5) Uani 1 1 d . . .
H28 H -0.4242 0.5942 0.2161 0.169 Uiso 1 1 calc R . .
C29 C -0.3012(8) 0.5878(8) 0.2719(4) 0.125(4) Uani 1 1 d . . .
H29 H -0.3082 0.5246 0.2848 0.150 Uiso 1 1 calc R . .
C30 C -0.2226(7) 0.6426(9) 0.2943(3) 0.091(3) Uani 1 1 d . . .
C31 C -0.2075(6) 0.7323(8) 0.2748(3) 0.087(3) Uani 1 1 d . . .
H31 H -0.1534 0.7672 0.2899 0.104 Uiso 1 1 calc R . .
C32 C -0.0861(5) 0.5774(8) 0.3419(3) 0.116(4) Uani 1 1 d . . .
H32A H -0.0566 0.6376 0.3364 0.139 Uiso 1 1 calc RD . .
H32B H -0.0947 0.5258 0.3170 0.139 Uiso 1 1 calc R . .
C33 C -0.0043(5) 1.0216(6) 0.3120(2) 0.0569(19) Uani 1 1 d . . .
C34 C -0.0409(4) 0.9763(6) 0.3448(2) 0.0502(17) Uani 1 1 d . . .
C35 C -0.1180(5) 1.0139(6) 0.3439(3) 0.071(2) Uani 1 1 d . . .
H35 H -0.1485 1.0683 0.3231 0.085 Uiso 1 1 calc R . .
C36 C -0.1503(6) 0.9691(7) 0.3747(3) 0.083(3) Uani 1 1 d . . .
H36 H -0.2012 0.9961 0.3755 0.100 Uiso 1 1 calc R . .
C37 C -0.1085(6) 0.8874(6) 0.4031(3) 0.072(2) Uani 1 1 d . . .
H37 H -0.1311 0.8580 0.4233 0.086 Uiso 1 1 calc R . .
C38 C -0.0340(5) 0.8475(6) 0.4028(3) 0.0551(18) Uani 1 1 d . . .
C39 C 0.0012(4) 0.8936(5) 0.3746(2) 0.0521(18) Uani 1 1 d . . .
H39 H 0.0541 0.8686 0.3756 0.062 Uiso 1 1 calc R . .
C40 C 0.0577(5) 0.6959(6) 0.4210(3) 0.078(2) Uani 1 1 d . . .
H40A H 0.1195 0.7132 0.4415 0.094 Uiso 1 1 calc R . .
H40B H 0.0464 0.7040 0.3871 0.094 Uiso 1 1 calc RD . .
C41 C 0.4982(6) 0.8064(7) 0.5646(4) 0.078(2) Uani 1 1 d . . .
C42 C 0.4502(5) 0.7132(6) 0.5699(3) 0.070(2) Uani 1 1 d . . .
C43 C 0.4917(6) 0.6491(8) 0.6086(4) 0.110(3) Uani 1 1 d . . .
H43 H 0.5488 0.6654 0.6320 0.132 Uiso 1 1 calc R . .
C44 C 0.4506(8) 0.5592(11) 0.6141(5) 0.166(6) Uani 1 1 d . . .
H44 H 0.4800 0.5156 0.6408 0.200 Uiso 1 1 calc R . .
C45 C 0.3690(9) 0.5358(9) 0.5808(5) 0.146(5) Uani 1 1 d . . .
H45 H 0.3411 0.4766 0.5850 0.176 Uiso 1 1 calc R . .
C46 C 0.3252(6) 0.5969(8) 0.5406(4) 0.089(3) Uani 1 1 d . . .
C47 C 0.3645(5) 0.6864(7) 0.5346(3) 0.080(2) Uani 1 1 d . . .
H47 H 0.3348 0.7286 0.5074 0.096 Uiso 1 1 calc R . .
C48 C 0.1696(5) 0.6026(6) 0.5117(3) 0.077(2) Uani 1 1 d . . .
H48A H 0.1587 0.6769 0.5063 0.092 Uiso 1 1 calc R . .
H48B H 0.1795 0.5859 0.5447 0.092 Uiso 1 1 calc RD . .
C49 C 0.0802(4) 0.4377(6) 0.4837(2) 0.0485(17) Uani 1 1 d . . .
C50 C 0.0136(4) 0.3777(6) 0.4471(3) 0.0534(19) Uani 1 1 d . . .
C51 C -0.0415(4) 0.4268(7) 0.4025(3) 0.063(2) Uani 1 1 d . . .
C52 C -0.0276(5) 0.5300(7) 0.3949(3) 0.062(2) Uani 1 1 d . . .
C53 C 0.0405(5) 0.5863(6) 0.4300(3) 0.0543(18) Uani 1 1 d . . .
C54 C 0.0928(4) 0.5399(6) 0.4745(2) 0.0525(18) Uani 1 1 d . . .
O1 O 0.4465(3) 0.0991(4) 0.53522(18) 0.0693(14) Uani 1 1 d . . .
O2 O 0.4898(3) 0.0215(5) 0.6069(2) 0.093(2) Uani 1 1 d . . .
O1W O -0.1106(5) 1.2249(6) 0.1975(3) 0.152(3) Uani 1 1 d U . .
O3 O 0.2013(3) 0.3270(4) 0.52373(16) 0.0703(15) Uani 1 1 d . . .
O4 O 0.3593(3) -0.0120(4) 0.43483(16) 0.0550(12) Uani 1 1 d . . .
O5 O 0.2596(3) 0.0676(4) 0.37077(15) 0.0526(12) Uani 1 1 d . . .
O6 O 0.0478(3) 0.2158(4) 0.42473(18) 0.0698(14) Uani 1 1 d . . .
O7 O -0.2546(4) 0.1435(5) 0.2210(2) 0.103(2) Uani 1 1 d . . .
O8 O -0.3892(5) 0.0839(8) 0.1999(3) 0.181(4) Uani 1 1 d . . .
O9 O -0.1846(3) 0.3510(6) 0.3731(2) 0.116(3) Uani 1 1 d . . .
O10 O -0.1926(4) 0.9169(4) 0.22673(19) 0.0795(16) Uani 1 1 d . . .
O11 O -0.3277(4) 0.8902(5) 0.1675(2) 0.0980(19) Uani 1 1 d . . .
O12 O -0.1580(5) 0.6031(6) 0.3402(2) 0.133(3) Uani 1 1 d . . .
O13 O 0.0691(3) 0.9912(4) 0.31633(17) 0.0706(15) Uani 1 1 d . . .
O14 O -0.0514(3) 1.0910(4) 0.28233(17) 0.0634(13) Uani 1 1 d . . .
O15 O 0.0024(4) 0.7632(4) 0.43149(19) 0.0762(15) Uani 1 1 d . . .
O16 O 0.5729(3) 0.8238(5) 0.5992(3) 0.115(3) Uani 1 1 d . . .
O18 O 0.2408(4) 0.5724(5) 0.5035(2) 0.112(2) Uani 1 1 d . . .
O17 O 0.4585(4) 0.8580(5) 0.5245(2) 0.0832(17) Uani 1 1 d D . .
H17 H 0.477(6) 0.893(6) 0.505(3) 0.125 Uiso 1 1 d D . .

loop_
_atom_site_aniso_label
_atom_site_aniso_U_11
_atom_site_aniso_U_22
_atom_site_aniso_U_33
_atom_site_aniso_U_23
_atom_site_aniso_U_13
_atom_site_aniso_U_12
Mn1 0.0487(9) 0.0775(12) 0.0426(9) 0.0087(8) 0.0188(8) 0.0064(8)
Mn2 0.0400(6) 0.0874(9) 0.0406(6) 0.0175(6) 0.0103(5) 0.0097(6)
Mn3 0.0414(6) 0.1024(10) 0.0402(6) -0.0137(7) 0.0118(5) 0.0041(6)
C1 0.031(4) 0.092(6) 0.048(5) 0.002(5) 0.006(4) 0.003(4)
C2 0.034(4) 0.080(5) 0.041(4) 0.010(4) 0.013(3) 0.012(4)
C3 0.063(5) 0.103(6) 0.030(4) 0.012(4) 0.013(4) 0.017(5)
C4 0.076(5) 0.146(9) 0.034(4) 0.016(5) 0.017(4) 0.039(6)
C5 0.060(5) 0.113(7) 0.042(4) 0.011(5) 0.022(4) 0.032(5)
C6 0.036(4) 0.086(5) 0.027(4) 0.011(4) 0.007(3) 0.013(4)
C7 0.038(4) 0.090(5) 0.028(4) -0.002(4) 0.013(3) 0.005(4)
C8 0.051(4) 0.086(6) 0.033(4) 0.003(4) 0.014(3) 0.016(4)
C9 0.047(4) 0.057(5) 0.033(4) -0.010(4) 0.006(3) -0.009(4)
C10 0.045(4) 0.068(5) 0.040(4) 0.012(4) 0.013(3) 0.008(4)
C11 0.062(5) 0.064(5) 0.050(4) 0.007(4) 0.020(4) 0.007(4)
C12 0.083(5) 0.081(6) 0.051(5) 0.017(4) 0.033(5) -0.004(5)
C13 0.066(5) 0.082(6) 0.061(5) 0.003(5) 0.041(4) -0.005(5)
C14 0.049(4) 0.073(5) 0.042(4) -0.005(4) 0.019(4) -0.006(4)
C15 0.060(4) 0.057(5) 0.031(4) 0.001(3) 0.017(4) -0.012(4)
C16 0.062(5) 0.090(7) 0.075(6) 0.000(5) 0.046(5) 0.007(5)
C17 0.068(6) 0.224(13) 0.068(7) -0.080(8) 0.008(6) 0.018(8)
C18 0.056(6) 0.36(2) 0.116(9) -0.151(12) 0.042(6) -0.040(9)
C19 0.101(8) 0.237(15) 0.137(11) -0.107(11) 0.051(8) -0.023(9)
C20 0.138(10) 0.219(14) 0.140(11) -0.081(11) 0.095(10) -0.059(10)
C21 0.117(9) 0.297(18) 0.190(14) -0.155(13) 0.115(10) -0.107(11)
C22 0.060(6) 0.297(16) 0.091(7) -0.118(9) 0.039(6) -0.042(8)
C23 0.044(5) 0.237(12) 0.060(6) -0.078(7) 0.011(4) -0.008(6)
C24 0.037(4) 0.135(8) 0.046(5) -0.025(5) 0.008(4) 0.006(5)
C25 0.076(6) 0.097(7) 0.042(5) -0.004(5) 0.012(5) -0.006(6)
C26 0.069(5) 0.087(6) 0.052(5) 0.003(5) 0.005(5) -0.004(5)
C27 0.087(7) 0.114(8) 0.074(7) 0.021(6) -0.003(6) -0.011(6)
C28 0.131(9) 0.124(10) 0.096(9) 0.054(8) -0.015(7) -0.035(8)
C29 0.144(10) 0.085(8) 0.099(9) 0.013(7) 0.011(8) -0.017(8)
C30 0.098(8) 0.101(8) 0.059(6) 0.007(6) 0.020(6) 0.023(7)
C31 0.070(6) 0.110(8) 0.055(6) 0.011(6) 0.005(5) 0.005(6)
C32 0.056(5) 0.136(9) 0.152(11) 0.044(8) 0.042(7) 0.039(6)
C33 0.055(5) 0.072(6) 0.032(4) -0.004(4) 0.009(4) -0.017(4)
C34 0.047(4) 0.067(5) 0.032(4) -0.009(4) 0.013(3) -0.013(4)
C35 0.074(5) 0.077(6) 0.067(5) 0.008(5) 0.037(5) 0.005(5)
C36 0.098(6) 0.076(6) 0.110(7) 0.005(6) 0.078(6) 0.005(5)
C37 0.101(6) 0.056(5) 0.080(6) 0.005(5) 0.060(6) -0.003(5)
C38 0.061(5) 0.055(5) 0.051(5) -0.012(4) 0.026(4) -0.008(4)
C39 0.049(4) 0.068(5) 0.041(4) -0.002(4) 0.021(4) -0.004(4)
C40 0.077(5) 0.102(7) 0.072(6) 0.017(5) 0.047(5) 0.020(5)
C41 0.082(6) 0.068(6) 0.091(7) 0.026(6) 0.044(6) 0.004(5)
C42 0.062(5) 0.076(6) 0.064(6) 0.008(5) 0.021(5) -0.012(5)
C43 0.085(7) 0.113(8) 0.087(8) 0.036(7) -0.003(6) -0.015(6)
C44 0.088(8) 0.175(13) 0.165(13) 0.079(11) -0.010(8) -0.041(9)
C45 0.125(10) 0.109(9) 0.165(13) 0.062(10) 0.027(10) -0.011(8)
C46 0.068(6) 0.108(8) 0.092(7) -0.042(7) 0.036(6) -0.041(6)
C47 0.054(5) 0.102(7) 0.081(6) 0.003(6) 0.027(5) 0.000(5)
C48 0.065(5) 0.099(7) 0.072(6) 0.000(5) 0.034(5) 0.016(5)
C49 0.046(4) 0.068(5) 0.034(4) 0.006(4) 0.021(3) 0.017(4)
C50 0.043(4) 0.081(6) 0.041(4) -0.008(4) 0.023(4) 0.007(4)
C51 0.036(4) 0.108(7) 0.041(4) -0.009(5) 0.014(4) 0.014(4)
C52 0.050(4) 0.096(7) 0.038(4) 0.009(5) 0.018(4) 0.023(5)
C53 0.050(4) 0.063(5) 0.053(5) 0.005(4) 0.026(4) 0.013(4)
C54 0.040(4) 0.073(5) 0.045(4) 0.001(4) 0.018(4) 0.008(4)
O1 0.068(3) 0.094(4) 0.050(3) 0.012(3) 0.029(3) 0.022(3)
O2 0.059(3) 0.151(6) 0.063(4) 0.040(4) 0.022(3) 0.052(4)
O1W 0.154(3) 0.151(3) 0.150(3) -0.0002(10) 0.0654(15) -0.0001(10)
O3 