####################################################################### 
# 
# This file contains crystal structure data downloaded from the 
# Cambridge Structural Database (CSD) hosted by the Cambridge 
# Crystallographic Data Centre (CCDC).
# 
# Full information about CCDC data access policies and citation 
# guidelines are available at http://www.ccdc.cam.ac.uk/access/V1 
# 
# Audit and citation data items may have been added by the CCDC. 
# Please retain this information to preserve the provenance of 
# this file and to allow appropriate attribution of the data. 
# 
#######################################################################

data_FUGBOY
#This CIF has been generated from an entry in the Cambridge Structural Database
_database_code_depnum_ccdc_archive 'CCDC 1160709'
_database_code_CSD               FUGBOY
loop_
_citation_id
_citation_doi
_citation_year
1 10.1071/CH9872107 1987
_audit_creation_method           'Created from the CSD'
_audit_update_record             
;
2024-07-10 downloaded from the CCDC.
;
_database_code_NBS               577420
_chemical_formula_moiety         '(C12 H14 Cl2 N2 Pb1)n'
_chemical_name_systematic        
catena-(trans-bis((\m~2~-Chloro)-(4-methylpyridine-N))-lead(ii))
_chemical_absolute_configuration unk
_diffrn_ambient_temperature      295
_exptl_crystal_density_diffrn    2.06194
#These two values have been output from a single CSD field.
_refine_ls_R_factor_gt           0.04
_refine_ls_wR_factor_gt          0.04
_diffrn_radiation_probe          x-ray
_symmetry_cell_setting           monoclinic
_symmetry_space_group_name_H-M   'C 2/m'
_symmetry_Int_Tables_number      12
_space_group_name_Hall           '-C 2y'
loop_
_symmetry_equiv_pos_site_id
_symmetry_equiv_pos_as_xyz
1 x,y,z
2 1/2+x,1/2+y,z
3 -x,y,-z
4 1/2-x,1/2+y,-z
5 -x,-y,-z
6 1/2-x,1/2-y,-z
7 x,-y,z
8 1/2+x,1/2-y,z
_cell_length_a                   21.129(7)
_cell_length_b                   4.216(1)
_cell_length_c                   9.205(3)
_cell_angle_alpha                90
_cell_angle_beta                 114.20(2)
_cell_angle_gamma                90
_cell_volume                     747.92
_cell_formula_units_Z            2
loop_
_atom_site_label
_atom_site_type_symbol
_atom_site_fract_x
_atom_site_fract_y
_atom_site_fract_z
Pb1 Pb 0.0000 0.00000 0.0000
Cl1 Cl 0.0837(3) 0.50000 -0.0438(6)
N1 N 0.0820(8) 0.00000 0.311(2)
Cl1 Cl -0.0837(3) 0.50000 0.0438(6)
N1 N -0.0820(8) 0.00000 -0.311(2)
Pb1 Pb 0.0000 1.00000 0.0000
Cl1 Cl 0.0837(3) -0.50000 -0.0438(6)
Cl1 Cl -0.0837(3) -0.50000 0.0438(6)

#END
