
#######################################################################
#
#                 Cambridge Crystallographic Data Centre
#                                CCDC
#
#######################################################################
#
# If this CIF has been generated from an entry in the Cambridge
# Structural Database, then it will include bibliographic, chemical,
# crystal, experimental, refinement or atomic coordinate data resulting
# from the CCDC's data processing and validation procedures.
#
#######################################################################

data_CSD_CIF_FUJCUI
_audit_creation_date 1988-07-18
_audit_creation_method CSD-ConQuest-V1
_database_code_CSD FUJCUI
_database_code_depnum_ccdc_archive 'CCDC 1160900'
_chemical_formula_sum 'C24 H48 Cs2 O12'
_chemical_formula_moiety
;
C24 H48 Cs1 O12 1+,Cs1 1-
;
_journal_coden_Cambridge 4
_journal_volume 109
_journal_year 1987
_journal_page_first 5561
_journal_name_full 'J.Am.Chem.Soc. '
loop_
_publ_author_name
"R.H.Huang"
"D.L.Ward"
"M.E.Kuchenmeister"
"J.L.Dye"
_chemical_name_systematic
;
Cesium-bis(1,4,7,10,13,16-hexaoxacyclo-octadecane-O,O',O'',O''',O'''',O''''') 
ceside
;
_chemical_name_common
;
Cesium-bis(18-crown-6) ceside; Teaching Subset: Fundamental Chemistry
;
_chemical_melting_point 253
_cell_volume   8312.732
_exptl_crystal_colour 'bronze'
_exptl_crystal_density_diffrn 1.27
_exptl_special_details
;
air- and moisture-sensitive

;
_diffrn_ambient_temperature 204
_refine_special_details
;
Large void space, possible disorder.

;
#These two values have been output from a single CSD field.
_refine_ls_R_factor_gt 0.041
_refine_ls_wR_factor_gt 0.041
_symmetry_cell_setting orthorhombic
_symmetry_space_group_name_H-M 'P b c a'
_symmetry_Int_Tables_number 61
loop_
_symmetry_equiv_pos_site_id
_symmetry_equiv_pos_as_xyz
1 x,y,z
2 1/2-x,-y,1/2+z
3 1/2+x,1/2-y,-z
4 -x,1/2+y,1/2-z
5 -x,-y,-z
6 -1/2+x,y,-1/2-z
7 -1/2-x,-1/2+y,z
8 x,-1/2-y,-1/2+z
_cell_length_a 16.212(8)
_cell_length_b 16.374(6)
_cell_length_c 31.315(14)
_cell_angle_alpha 90
_cell_angle_beta 90
_cell_angle_gamma 90
_cell_formula_units_Z 8
loop_
_atom_type_symbol
_atom_type_radius_bond
C 0.68
H 0.23
Cs 2.44
O 0.68
loop_
_atom_site_label
_atom_site_type_symbol
_atom_site_fract_x
_atom_site_fract_y
_atom_site_fract_z
Cs1 Cs 0.34763(4) 0.42001(3) 0.36264(2)
O1 O 0.4636(5) 0.5064(4) 0.4312(2)
O2 O 0.5077(5) 0.5372(4) 0.3433(3)
O3 O 0.3824(5) 0.5604(4) 0.2809(2)
O4 O 0.2260(5) 0.4780(4) 0.2890(2)
O5 O 0.1829(4) 0.5353(3) 0.3710(2)
O6 O 0.3044(5) 0.5816(4) 0.4324(2)
O7 O 0.2389(5) 0.3601(4) 0.4383(2)
O8 O 0.1887(5) 0.2994(4) 0.3561(3)
O9 O 0.3060(5) 0.2581(4) 0.2921(2)
O10 O 0.4609(6) 0.3390(4) 0.2906(3)
O11 O 0.5152(5) 0.3048(4) 0.3755(3)
O12 O 0.3970(5) 0.2826(4) 0.4419(2)
C1 C 0.5458(9) 0.5090(8) 0.4142(5)
C2 C 0.5552(8) 0.5658(7) 0.3771(4)
C3 C 0.5151(7) 0.5891(6) 0.3072(4)
C4 C 0.4660(8) 0.5557(6) 0.2720(4)
C5 C 0.3314(8) 0.5337(6) 0.2461(3)
C6 C 0.2441(9) 0.5365(7) 0.2582(3)
C7 C 0.1442(7) 0.4824(6) 0.3051(4)
C8 C 0.1317(7) 0.5500(6) 0.3357(4)
C9 C 0.1711(7) 0.5952(5) 0.4043(4)
C10 C 0.2213(8) 0.5729(7) 0.4434(3)
C11 C 0.3562(8) 0.5664(6) 0.4688(3)
C12 C 0.4430(9) 0.5756(7) 0.4555(4)
C13 C 0.1575(7) 0.3491(6) 0.4252(4)
C14 C 0.1424(8) 0.2817(6) 0.3936(4)
C15 C 0.1755(7) 0.2393(6) 0.3240(4)
C16 C 0.2221(8) 0.2639(6) 0.2852(3)
C17 C 0.353(1) 0.2775(7) 0.2546(4)
C18 C 0.439(1) 0.2727(7) 0.2649(4)
C19 C 0.5440(9) 0.3389(7) 0.3043(5)
C20 C 0.5597(9) 0.2791(8) 0.3383(5)
C21 C 0.5255(8) 0.2539(7) 0.4097(4)
C22 C 0.4847(8) 0.2837(7) 0.4484(4)
C23 C 0.3549(9) 0.3105(7) 0.4777(3)
C24 C 0.265(1) 0.3028(7) 0.4706(3)
H1 H 0.56300 0.45500 0.40700
H2 H 0.58000 0.53000 0.43600
H3 H 0.54100 0.62100 0.38400
H4 H 0.61100 0.56300 0.36800
H5 H 0.57100 0.59200 0.29900
H6 H 0.49600 0.64200 0.31400
H7 H 0.47700 0.58600 0.24700
H8 H 0.48000 0.50000 0.26700
H9 H 0.34600 0.47900 0.23900
H10 H 0.34000 0.56800 0.22200
H11 H 0.23100 0.58900 0.26900
H12 H 0.21200 0.52500 0.23300
H13 H 0.13100 0.43200 0.31900
H14 H 0.10800 0.49000 0.28200
H15 H 0.14600 0.60100 0.32300
H16 H 0.07600 0.55200 0.34400
H17 H 0.11400 0.59800 0.41100
H18 H 0.18900 0.64700 0.39400
H19 H 0.20800 0.60900 0.46600
H20 H 0.21000 0.51800 0.45200
H21 H 0.34600 0.51300 0.48000
H22 H 0.34500 0.60500 0.49000
H23 H 0.45200 0.62500 0.44000
H24 H 0.47700 0.57600 0.48000
H25 H 0.13800 0.39900 0.41300
H26 H 0.12600 0.33700 0.45000
H27 H 0.15900 0.23100 0.40500
H28 H 0.08500 0.28000 0.38700
H29 H 0.11900 0.23700 0.31700
H30 H 0.19300 0.18700 0.33400
H31 H 0.20700 0.22800 0.26300
H32 H 0.20900 0.31900 0.27800
H33 H 0.33800 0.33000 0.24500
H34 H 0.34100 0.23800 0.23300
H35 H 0.45000 0.22300 0.28000
H36 H 0.47100 0.27400 0.23900
H37 H 0.55800 0.39100 0.31500
H38 H 0.57800 0.32600 0.28100
H39 H 0.53800 0.22800 0.33000
H40 H 0.61700 0.27400 0.34400
H41 H 0.58300 0.24800 0.41500
H42 H 0.50300 0.20200 0.40300
H43 H 0.49900 0.25100 0.47200
H44 H 0.50200 0.33800 0.45400
H45 H 0.37000 0.36500 0.48400
H46 H 0.36900 0.27700 0.50100
H47 H 0.25100 0.24900 0.46200
H48 H 0.23700 0.31500 0.49600
Cs2 Cs 0.35442(8) 0.42456(9) 0.09779(3)
#END
