
#######################################################################
#
#                 Cambridge Crystallographic Data Centre
#                                CCDC
#
#######################################################################
#
# If this CIF has been generated from an entry in the Cambridge
# Structural Database, then it will include bibliographic, chemical,
# crystal, experimental, refinement or atomic coordinate data resulting
# from the CCDC's data processing and validation procedures.
#
#######################################################################

data_CSD_CIF_FUJLAX
_audit_creation_date 1988-07-18
_audit_creation_method CSD-ConQuest-V1
_database_code_CSD FUJLAX
_database_code_depnum_ccdc_archive 'CCDC 1160946'
_chemical_formula_sum 'C38 H38 F6 I2 Ir1 P2 Sb1'
_chemical_formula_moiety
;
C38 H38 I2 Ir1 P2 1+,F6 Sb1 1-
;
_journal_coden_Cambridge 579
_journal_volume 6
_journal_year 1987
_journal_page_first 2241
_journal_name_full 'Organometallics '
loop_
_publ_author_name
"M.J.Burk"
"B.Segmuller"
"R.H.Crabtree"
_chemical_name_systematic
;
Dihydrido-bis(iodomethane)-bis(triphenylphosphine)-iridium(iii) 
hexafluoroantimonate
;
_chemical_name_common
;
Teaching Subset: Fundamental Chemistry
;
_cell_volume   8190.801
_exptl_crystal_colour 'colorless'
_exptl_crystal_density_diffrn 2.008
_exptl_special_details
;
v reported as 1891; we calculate 8190.79. H34 and H43 are deleted for 
suspected coordinate error. x(C62) should be 0.2182 not 0.2820
;
_diffrn_ambient_temperature ?
_diffrn_special_details
;
The study was carried out at room temperature,in the range 283-303K

;
#These two values have been output from a single CSD field.
_refine_ls_R_factor_gt 0.04
_refine_ls_wR_factor_gt 0.04
_symmetry_cell_setting orthorhombic
_symmetry_space_group_name_H-M 'P b c a'
_symmetry_Int_Tables_number 61
loop_
_symmetry_equiv_pos_site_id
_symmetry_equiv_pos_as_xyz
1 x,y,z
2 1/2-x,-y,1/2+z
3 1/2+x,1/2-y,-z
4 -x,1/2+y,1/2-z
5 -x,-y,-z
6 -1/2+x,y,-1/2-z
7 -1/2-x,-1/2+y,z
8 x,-1/2-y,-1/2+z
_cell_length_a 22.896(6)
_cell_length_b 19.307(3)
_cell_length_c 18.529(5)
_cell_angle_alpha 90
_cell_angle_beta 90
_cell_angle_gamma 90
_cell_formula_units_Z 8
loop_
_atom_type_symbol
_atom_type_radius_bond
C 0.68
H 0.23
F 0.64
I 1.40
Ir 1.32
P 1.05
Sb 1.46
loop_
_atom_site_label
_atom_site_type_symbol
_atom_site_fract_x
_atom_site_fract_y
_atom_site_fract_z
Ir1 Ir 0.15644(3) 0.18585(4) 0.00343(4)
I1 I 0.15068(5) 0.04888(7) 0.04238(8)
I2 I 0.16554(6) 0.14267(10) -0.13932(8)
P1 P 0.0566(2) 0.2046(2) 0.0049(3)
P2 P 0.2539(2) 0.2119(3) 0.0212(3)
C1 C 0.2255(8) 0.0015(12) -0.0048(11)
C2 C 0.1514(11) 0.2298(15) -0.2069(15)
C3 C 0.0136(6) 0.1474(9) 0.0667(9)
C4 C 0.0368(7) 0.1344(10) 0.1333(10)
C5 C 0.0059(8) 0.0918(11) 0.1813(11)
C6 C -0.0460(8) 0.0661(12) 0.1604(11)
C7 C -0.0704(8) 0.0801(12) 0.0964(11)
C8 C -0.0396(7) 0.1228(11) 0.0462(11)
C9 C 0.0180(7) 0.1962(10) -0.0827(9)
C10 C 0.0010(7) 0.2555(11) -0.1181(11)
C11 C -0.0240(8) 0.2478(13) -0.1872(12)
C12 C -0.0277(8) 0.1832(12) -0.2170(11)
C13 C -0.0101(8) 0.1295(11) -0.1822(11)
C14 C 0.0140(7) 0.1328(11) -0.1156(10)
C15 C 0.0375(6) 0.2896(9) 0.0366(9)
C16 C 0.0718(7) 0.3486(10) 0.0166(10)
C17 C 0.0555(8) 0.4161(11) 0.0377(11)
C18 C 0.0052(7) 0.4232(10) 0.0771(10)
C19 C -0.0293(7) 0.3696(10) 0.0940(9)
C20 C -0.0133(6) 0.3033(9) 0.0765(9)
C21 C 0.3002(7) 0.1537(10) 0.0711(10)
C22 C 0.2783(6) 0.1190(9) 0.1349(9)
C23 C 0.3126(7) 0.0759(10) 0.1731(10)
C24 C 0.3680(8) 0.0617(11) 0.152(1)
C25 C 0.3918(8) 0.0917(10) 0.093(1)
C26 C 0.3584(7) 0.137(1) 0.0503(10)
C27 C 0.2916(6) 0.2312(9) -0.0640(9)
C28 C 0.3107(7) 0.1786(10) -0.1081(9)
C29 C 0.3306(7) 0.1941(10) -0.1749(10)
C30 C 0.3312(8) 0.2590(12) -0.2003(11)
C31 C 0.311(9) 0.3071(12) -0.1574(11)
C32 C 0.2919(7) 0.2971(10) -0.0878(90)
C33 C 0.2640(6) 0.2898(8) 0.0760(8)
C34 C 0.2182(7) 0.3287(10) 0.1007(9)
C35 C 0.2287(7) 0.3864(11) 0.1443(10)
C36 C 0.2832(7) 0.410(1) 0.1583(9)
C37 C 0.3280(7) 0.3712(11) 0.1322(11)
C38 C 0.3207(7) 0.3081(10) 0.0917(9)
H1 H 0.22810 -0.04560 0.00330
H2 H 0.22480 0.00860 -0.05860
H3 H 0.26120 0.02440 0.01020
H4 H 0.12240 0.21750 -0.24170
H5 H 0.18580 0.24310 -0.22920
H6 H 0.13610 0.26720 -0.17810
H7 H 0.07380 0.15210 0.14540
H8 H 0.02190 0.08480 0.22820
H9 H -0.06660 0.03940 0.19430
H10 H -0.10590 0.06190 0.08350
H11 H -0.05630 0.13880 0.00250
H12 H 0.00710 0.30090 -0.09610
H13 H -0.03580 0.29250 -0.20980
H14 H -0.04360 0.18270 -0.26640
H15 H -0.01750 0.08760 -0.20260
H16 H 0.02630 0.09300 -0.08940
H17 H 0.10300 0.33840 -0.02130
H18 H 0.08020 0.45460 0.02130
H19 H -0.06520 0.37560 0.11950
H20 H -0.03730 0.26390 0.08940
H21 H 0.23940 0.13030 0.14990
H22 H 0.39030 0.03210 0.17940
H23 H 0.43190 0.08680 0.08050
H24 H 0.37410 0.15820 0.00970
H25 H 0.31130 0.13440 -0.09050
H26 H 0.34430 0.16040 -0.20430
H27 H 0.34540 0.27190 -0.24840
H28 H 0.31110 0.35340 -0.17590
H29 H 0.27910 0.33410 -0.05960
H30 H 0.18000 0.31130 0.08950
H31 H 0.19580 0.40980 0.16010
H32 H 0.28970 0.44970 0.18480
H33 H 0.36700 0.38220 0.14570
H34 H 0.35320 0.28240 0.07210
Sb1 Sb 0.14710(5) 0.04475(7) 0.33242(7)
F1 F 0.1397(4) -0.0123(6) 0.4127(6)
F2 F 0.1768(5) 0.1131(7) 0.3922(7)
F3 F 0.1559(5) 0.0994(8) 0.2518(7)
F4 F 0.1166(5) -0.0240(7) 0.2729(7)
F5 F 0.0715(5) 0.0778(7) 0.3471(6)
F6 F 0.2221(4) 0.0108(7) 0.3181(6)
#END
