####################################################################### 
# 
# This file contains crystal structure data downloaded from the 
# Cambridge Structural Database (CSD) hosted by the Cambridge 
# Crystallographic Data Centre (CCDC).
# 
# Full information about CCDC data access policies and citation 
# guidelines are available at http://www.ccdc.cam.ac.uk/access/V1 
# 
# Audit and citation data items may have been added by the CCDC. 
# Please retain this information to preserve the provenance of 
# this file and to allow appropriate attribution of the data. 
# 
#######################################################################

data_1
_audit_block_doi                 10.5517/cc1jghq6
_database_code_depnum_ccdc_archive 'CCDC 1414118'
loop_
_citation_id
_citation_doi
_citation_year
1 10.1039/C5DT02774H 2015
_audit_update_record             
;
2015-08-15 deposited with the CCDC.	2024-07-10 downloaded from the CCDC.
;

_audit_creation_method           SHELXL-2014/7
_shelx_SHELXL_version_number     2014/7
_chemical_name_systematic        ?
_chemical_name_common            ?
_chemical_melting_point          ?
_chemical_formula_moiety         'C66 H54 Co3 N20 O18'
_chemical_formula_sum            'C66 H54 Co3 N20 O18'
_chemical_formula_weight         1592.08

loop_
_atom_type_symbol
_atom_type_description
_atom_type_scat_dispersion_real
_atom_type_scat_dispersion_imag
_atom_type_scat_source
C C 0.0033 0.0016 'International Tables Vol C Tables 4.2.6.8 and 6.1.1.4'
H H 0.0000 0.0000 'International Tables Vol C Tables 4.2.6.8 and 6.1.1.4'
Co Co 0.3494 0.9721 'International Tables Vol C Tables 4.2.6.8 and 6.1.1.4'
N N 0.0061 0.0033 'International Tables Vol C Tables 4.2.6.8 and 6.1.1.4'
O O 0.0106 0.0060 'International Tables Vol C Tables 4.2.6.8 and 6.1.1.4'

_space_group_crystal_system      triclinic
_space_group_IT_number           2
_space_group_name_H-M_alt        'P -1'
_space_group_name_Hall           '-P 1'

_shelx_space_group_comment       
;
The symmetry employed for this shelxl refinement is uniquely defined
by the following loop, which should always be used as a source of
symmetry information in preference to the above space-group names.
They are only intended as comments.
;

loop_
_space_group_symop_operation_xyz
'x, y, z'
'-x, -y, -z'

_cell_length_a                   10.0510(8)
_cell_length_b                   17.7700(13)
_cell_length_c                   17.9534(13)
_cell_angle_alpha                67.2500(10)
_cell_angle_beta                 74.9280(10)
_cell_angle_gamma                81.5690(10)
_cell_volume                     2851.6(4)
_cell_formula_units_Z            1
_cell_measurement_temperature    293(2)
_cell_measurement_reflns_used    4778
_cell_measurement_theta_min      2.37
_cell_measurement_theta_max      24.50

_exptl_crystal_description       clock
_exptl_crystal_colour            purple
_exptl_crystal_density_meas      ?
_exptl_crystal_density_method    ?
_exptl_crystal_density_diffrn    0.927
_exptl_crystal_F_000             815
_exptl_transmission_factor_min   ?
_exptl_transmission_factor_max   ?
_exptl_crystal_size_max          0.290
_exptl_crystal_size_mid          0.180
_exptl_crystal_size_min          0.160
_exptl_absorpt_coefficient_mu    0.484
_shelx_estimated_absorpt_T_min   0.872
_shelx_estimated_absorpt_T_max   0.927
_exptl_absorpt_correction_type   multi-scan
_exptl_absorpt_correction_T_min  0.8724
_exptl_absorpt_correction_T_max  0.9266
_exptl_absorpt_process_details   sadabs
_exptl_absorpt_special_details   ?
_diffrn_ambient_temperature      293(2)
_diffrn_radiation_wavelength     0.71073
_diffrn_radiation_type           MoK\a
_diffrn_source                   'fine-focus sealed tube'
_diffrn_measurement_device_type  'CCD area detector'
_diffrn_measurement_method       'phi and omega scans'
_diffrn_detector_area_resol_mean ?
_diffrn_reflns_number            21376
_diffrn_reflns_av_unetI/netI     0.0570
_diffrn_reflns_av_R_equivalents  0.0372
_diffrn_reflns_limit_h_min       -7
_diffrn_reflns_limit_h_max       11
_diffrn_reflns_limit_k_min       -21
_diffrn_reflns_limit_k_max       21
_diffrn_reflns_limit_l_min       -21
_diffrn_reflns_limit_l_max       21
_diffrn_reflns_theta_min         1.412
_diffrn_reflns_theta_max         24.997
_diffrn_reflns_theta_full        24.997
_diffrn_measured_fraction_theta_max 0.989
_diffrn_measured_fraction_theta_full 0.989
_diffrn_reflns_Laue_measured_fraction_max 0.989
_diffrn_reflns_Laue_measured_fraction_full 0.989
_diffrn_reflns_point_group_measured_fraction_max 0.989
_diffrn_reflns_point_group_measured_fraction_full 0.989
_reflns_number_total             9930
_reflns_number_gt                7379
_reflns_threshold_expression     'I > 2\s(I)'
_reflns_Friedel_coverage         0.000
_reflns_Friedel_fraction_max     .
_reflns_Friedel_fraction_full    .

_reflns_special_details          
;
 Reflections were merged by SHELXL according to the crystal
 class for the calculation of statistics and refinement.
 
 _reflns_Friedel_fraction is defined as the number of unique
 Friedel pairs measured divided by the number that would be
 possible theoretically, ignoring centric projections and
 systematic absences.
;

_computing_data_collection       'Bruker SMART'
_computing_cell_refinement       'Bruker SMART'
_computing_data_reduction        'Bruker SAINT'
_computing_structure_solution    'SHELXS-97 (Sheldrick, 1990)'
_computing_structure_refinement  'SHELXL-2014/7 (Sheldrick, 2014)'
_computing_molecular_graphics    'Bruker SHELXTL'
_computing_publication_material  'Bruker SHELXTL'
_refine_special_details          ?
_refine_ls_structure_factor_coef Fsqd
_refine_ls_matrix_type           full
_refine_ls_weighting_scheme      calc
_refine_ls_weighting_details     
'w=1/[\s^2^(Fo^2^)+(0.1100P)^2^] where P=(Fo^2^+2Fc^2^)/3'
_atom_sites_solution_primary     direct
_atom_sites_solution_secondary   difmap
_atom_sites_solution_hydrogens   mixed
_refine_ls_hydrogen_treatment    constr
_refine_ls_extinction_method     none
_refine_ls_extinction_coef       .
_refine_ls_number_reflns         9930
_refine_ls_number_parameters     484
_refine_ls_number_restraints     0
_refine_ls_R_factor_all          0.0657
_refine_ls_R_factor_gt           0.0513
_refine_ls_wR_factor_ref         0.1727
_refine_ls_wR_factor_gt          0.1623
_refine_ls_goodness_of_fit_ref   1.028
_refine_ls_restrained_S_all      1.028
_refine_ls_shift/su_max          0.001
_refine_ls_shift/su_mean         0.000

loop_
_atom_site_label
_atom_site_type_symbol
_atom_site_fract_x
_atom_site_fract_y
_atom_site_fract_z
_atom_site_U_iso_or_equiv
_atom_site_adp_type
_atom_site_occupancy
_atom_site_site_symmetry_order
_atom_site_calc_flag
_atom_site_refinement_flags_posn
_atom_site_refinement_flags_adp
_atom_site_refinement_flags_occupancy
_atom_site_disorder_assembly
_atom_site_disorder_group
Co1 Co 0.70228(4) 0.43109(2) 0.48700(2) 0.02512(14) Uani 1 1 d . . . . .
Co2 Co 1.5000 0.0000 0.5000 0.03588(18) Uani 1 2 d S . P . .
C1 C 0.9433(3) 0.36698(18) 0.48834(19) 0.0295(7) Uani 1 1 d . . . . .
C2 C 1.0869(3) 0.33172(17) 0.49231(19) 0.0295(6) Uani 1 1 d . . . . .
C3 C 1.1332(3) 0.26144(18) 0.4759(2) 0.0343(7) Uani 1 1 d . . . . .
H3 H 1.0743 0.2352 0.4627 0.041 Uiso 1 1 calc R U . . .
C4 C 1.2677(3) 0.22972(18) 0.4792(2) 0.0347(7) Uani 1 1 d . . . . .
C5 C 1.3562(3) 0.27110(18) 0.4956(2) 0.0320(7) Uani 1 1 d . . . . .
H5 H 1.4473 0.2514 0.4951 0.038 Uiso 1 1 calc R U . . .
C6 C 1.3115(3) 0.34150(16) 0.51279(18) 0.0274(6) Uani 1 1 d . . . . .
C7 C 1.1746(3) 0.37131(17) 0.51218(19) 0.0294(6) Uani 1 1 d . . . . .
H7 H 1.1423 0.4176 0.5251 0.035 Uiso 1 1 calc R U . . .
C8 C 1.3161(3) 0.15142(19) 0.4631(2) 0.0413(8) Uani 1 1 d . . . . .
C9 C 1.4079(3) 0.38854(17) 0.52785(18) 0.0267(6) Uani 1 1 d . . . . .
C10 C 0.7465(3) 0.4974(2) 0.2911(2) 0.0368(7) Uani 1 1 d . . . . .
H10 H 0.7655 0.5503 0.2823 0.044 Uiso 1 1 calc R U . . .
C11 C 0.7020(5) 0.3735(2) 0.3454(2) 0.0538(10) Uani 1 1 d . . . . .
H11 H 0.6820 0.3220 0.3855 0.065 Uiso 1 1 calc R U . . .
C12 C 0.7583(3) 0.5136(2) 0.1444(2) 0.0386(7) Uani 1 1 d . . . . .
C13 C 0.7966(4) 0.4682(2) 0.0938(2) 0.0503(9) Uani 1 1 d . . . . .
H13 H 0.8072 0.4116 0.1167 0.060 Uiso 1 1 calc R U . . .
C14 C 0.8186(4) 0.5074(2) 0.0103(2) 0.0526(10) Uani 1 1 d . . . . .
H14 H 0.8439 0.4768 -0.0236 0.063 Uiso 1 1 calc R U . . .
C15 C 0.8043(4) 0.5912(2) -0.0253(2) 0.0420(8) Uani 1 1 d . . . . .
C16 C 0.7626(4) 0.6358(2) 0.0260(2) 0.0535(10) Uani 1 1 d . . . . .
H16 H 0.7486 0.6923 0.0033 0.064 Uiso 1 1 calc R U . . .
C17 C 0.7418(4) 0.5966(2) 0.1109(2) 0.0532(10) Uani 1 1 d . . . . .
H17 H 0.7167 0.6268 0.1452 0.064 Uiso 1 1 calc R U . . .
C18 C 0.9097(4) 0.6994(2) -0.1557(2) 0.0445(8) Uani 1 1 d . . . . .
C19 C 0.9034(4) 0.7474(3) -0.2372(2) 0.0580(10) Uani 1 1 d . . . . .
H19 H 0.8409 0.7364 -0.2614 0.070 Uiso 1 1 calc R U . . .
C20 C 0.9900(4) 0.8115(3) -0.2823(2) 0.0595(11) Uani 1 1 d . . . . .
H20 H 0.9854 0.8434 -0.3366 0.071 Uiso 1 1 calc R U . . .
C21 C 1.0819(4) 0.8279(2) -0.2473(2) 0.0536(10) Uani 1 1 d . . . . .
C22 C 1.0859(4) 0.7828(2) -0.1659(2) 0.0533(9) Uani 1 1 d . . . . .
H22 H 1.1457 0.7957 -0.1413 0.064 Uiso 1 1 calc R U . . .
C23 C 1.0007(4) 0.7185(2) -0.1212(2) 0.0484(9) Uani 1 1 d . . . . .
H23 H 1.0051 0.6875 -0.0666 0.058 Uiso 1 1 calc R U . . .
C24 C 1.2534(4) 0.9040(2) -0.3714(2) 0.0513(9) Uani 1 1 d . . . . .
H24 H 1.2475 0.8760 -0.4046 0.062 Uiso 1 1 calc R U . . .
C25 C 1.3074(5) 0.9826(3) -0.3250(3) 0.0875(17) Uani 1 1 d . . . . .
H25 H 1.3526 1.0228 -0.3217 0.105 Uiso 1 1 calc R U . . .
C26 C 0.7964(4) 0.5874(2) -0.1587(2) 0.0440(8) Uani 1 1 d . . . . .
C27 C 0.8939(4) 0.5711(2) -0.2210(2) 0.0507(9) Uani 1 1 d . . . . .
H27 H 0.9832 0.5880 -0.2341 0.061 Uiso 1 1 calc R U . . .
C28 C 0.8605(4) 0.5302(2) -0.2641(2) 0.0467(9) Uani 1 1 d . . . . .
H28 H 0.9270 0.5194 -0.3061 0.056 Uiso 1 1 calc R U . . .
C29 C 0.7291(3) 0.5054(2) -0.2452(2) 0.0395(8) Uani 1 1 d . . . . .
C30 C 0.6306(4) 0.5194(2) -0.1816(2) 0.0510(9) Uani 1 1 d . . . . .
H30 H 0.5418 0.5017 -0.1681 0.061 Uiso 1 1 calc R U . . .
C31 C 0.6658(4) 0.5595(2) -0.1386(2) 0.0542(10) Uani 1 1 d . . . . .
H31 H 0.6004 0.5682 -0.0950 0.065 Uiso 1 1 calc R U . . .
C32 C 0.7587(3) 0.45964(19) -0.36416(19) 0.0352(7) Uani 1 1 d . . . . .
H32 H 0.8473 0.4767 -0.3921 0.042 Uiso 1 1 calc R U . . .
C33 C 0.5647(4) 0.4102(3) -0.3288(2) 0.0550(10) Uani 1 1 d . . . . .
H33 H 0.4908 0.3847 -0.3295 0.066 Uiso 1 1 calc R U . . .
N1 N 0.7226(3) 0.43716(16) 0.36426(16) 0.0377(6) Uani 1 1 d . . . . .
N2 N 0.7392(3) 0.47128(16) 0.23212(16) 0.0371(6) Uani 1 1 d . . . . .
N3 N 0.7124(4) 0.38974(18) 0.26687(18) 0.0561(9) Uani 1 1 d . . . . .
N4 N 0.8291(3) 0.63067(18) -0.11335(16) 0.0491(8) Uani 1 1 d . . . . .
N5 N 1.1786(3) 0.89019(19) -0.2958(2) 0.0560(8) Uani 1 1 d . . . . .
N6 N 1.2122(5) 0.9421(3) -0.2650(3) 0.0967(16) Uani 1 1 d . . . . .
N7 N 1.3372(3) 0.96249(17) -0.39329(19) 0.0483(8) Uani 1 1 d . . . . .
N8 N 0.6805(3) 0.42519(16) -0.38960(16) 0.0365(6) Uani 1 1 d . . . . .
N9 N 0.6915(3) 0.46622(17) -0.29236(16) 0.0377(6) Uani 1 1 d . . . . .
N10 N 0.5651(3) 0.4347(2) -0.26878(19) 0.0619(10) Uani 1 1 d . . . . .
O1 O 0.8465(2) 0.32115(13) 0.50472(15) 0.0382(5) Uani 1 1 d . . . . .
O2 O 0.9208(2) 0.44301(12) 0.46885(13) 0.0338(5) Uani 1 1 d . . . . .
O3 O 1.2376(3) 0.12202(16) 0.4393(2) 0.0713(9) Uani 1 1 d . . . . .
O4 O 1.4314(2) 0.12114(12) 0.47670(16) 0.0453(6) Uani 1 1 d . . . . .
O5 O 1.3600(2) 0.44917(12) 0.54775(13) 0.0343(5) Uani 1 1 d . . . . .
O6 O 1.5328(2) 0.36432(12) 0.51821(14) 0.0343(5) Uani 1 1 d . . . . .
O7 O 1.3756(3) -0.01584(15) 0.42747(17) 0.0544(7) Uani 1 1 d . . . . .
H7A H 1.3645 0.0351 0.3834 0.082 Uiso 1 1 d R U . . .
H7B H 1.2868 -0.0333 0.4620 0.082 Uiso 1 1 d R U . . .
O8 O 0.7747(5) 0.1702(2) 0.5064(3) 0.1181(15) Uani 1 1 d . . . . .
H8A H 0.7959 0.2150 0.5059 0.142 Uiso 1 1 d R U . . .
H8B H 0.7047 0.1525 0.5454 0.177 Uiso 1 1 d R U . . .
O9 O 0.9909(5) 0.0593(3) 0.5298(4) 0.179(3) Uani 1 1 d . . . . .
H9A H 1.0681 0.0791 0.5011 0.214 Uiso 1 1 d R U . . .
H9B H 0.9376 0.0960 0.5433 0.268 Uiso 1 1 d R U . . .

loop_
_atom_site_aniso_label
_atom_site_aniso_U_11
_atom_site_aniso_U_22
_atom_site_aniso_U_33
_atom_site_aniso_U_23
_atom_site_aniso_U_13
_atom_site_aniso_U_12
Co1 0.0168(2) 0.0329(2) 0.0326(2) -0.01909(17) -0.00788(16) 0.00216(15)
Co2 0.0254(3) 0.0248(3) 0.0599(4) -0.0213(3) -0.0059(3) 0.0011(2)
C1 0.0204(15) 0.0359(16) 0.0401(18) -0.0227(13) -0.0101(13) 0.0050(12)
C2 0.0181(15) 0.0335(15) 0.0399(18) -0.0169(13) -0.0078(13) 0.0016(12)
C3 0.0234(15) 0.0332(16) 0.055(2) -0.0235(14) -0.0141(14) 0.0017(13)
C4 0.0263(16) 0.0311(15) 0.054(2) -0.0235(14) -0.0102(14) 0.0023(13)
C5 0.0177(14) 0.0345(16) 0.0473(19) -0.0187(14) -0.0106(13) 0.0051(12)
C6 0.0188(14) 0.0279(14) 0.0387(17) -0.0145(12) -0.0093(12) 0.0009(11)
C7 0.0197(14) 0.0303(14) 0.0424(18) -0.0174(13) -0.0088(13) 0.0006(12)
C8 0.0287(17) 0.0325(16) 0.069(2) -0.0267(16) -0.0130(16) 0.0056(14)
C9 0.0212(15) 0.0297(14) 0.0301(16) -0.0102(12) -0.0089(12) -0.0004(12)
C10 0.0346(18) 0.0432(18) 0.041(2) -0.0251(15) -0.0066(15) -0.0015(14)
C11 0.088(3) 0.0357(18) 0.042(2) -0.0160(15) -0.015(2) -0.0117(19)
C12 0.0383(18) 0.0475(19) 0.0340(18) -0.0190(14) -0.0065(15) -0.0061(15)
C13 0.068(3) 0.048(2) 0.039(2) -0.0227(16) -0.0083(18) -0.0031(18)
C14 0.072(3) 0.058(2) 0.038(2) -0.0295(17) -0.0064(18) -0.011(2)
C15 0.043(2) 0.057(2) 0.0313(18) -0.0207(15) -0.0024(15) -0.0153(16)
C16 0.075(3) 0.048(2) 0.038(2) -0.0189(16) -0.0027(19) -0.0112(19)
C17 0.067(3) 0.059(2) 0.041(2) -0.0323(18) -0.0015(18) -0.0079(19)
C18 0.049(2) 0.0483(19) 0.0363(19) -0.0185(15) 0.0008(16) -0.0142(16)
C19 0.056(2) 0.075(3) 0.046(2) -0.0192(19) -0.0097(19) -0.023(2)
C20 0.065(3) 0.070(3) 0.039(2) -0.0124(18) -0.0051(19) -0.023(2)
C21 0.050(2) 0.056(2) 0.054(2) -0.0227(18) 0.0024(19) -0.0192(18)
C22 0.054(2) 0.062(2) 0.053(2) -0.0290(19) -0.0096(19) -0.0142(19)
C23 0.055(2) 0.056(2) 0.040(2) -0.0211(16) -0.0101(17) -0.0132(18)
C24 0.046(2) 0.049(2) 0.062(3) -0.0279(18) 0.0010(19) -0.0128(17)
C25 0.089(4) 0.078(3) 0.105(4) -0.058(3) 0.023(3) -0.047(3)
C26 0.047(2) 0.062(2) 0.0299(18) -0.0219(16) -0.0039(15) -0.0163(17)
C27 0.039(2) 0.079(3) 0.045(2) -0.0328(19) -0.0031(17) -0.0182(19)
C28 0.0335(18) 0.074(2) 0.043(2) -0.0358(18) 0.0023(16) -0.0121(17)
C29 0.0385(19) 0.056(2) 0.0317(18) -0.0239(15) -0.0052(15) -0.0097(16)
C30 0.038(2) 0.080(3) 0.046(2) -0.0355(19) 0.0009(17) -0.0191(19)
C31 0.046(2) 0.086(3) 0.041(2) -0.038(2) 0.0038(17) -0.017(2)
C32 0.0310(17) 0.0492(18) 0.0297(17) -0.0207(14) -0.0028(14) -0.0047(14)
C33 0.0322(19) 0.099(3) 0.051(2) -0.045(2) -0.0036(17) -0.016(2)
N1 0.0377(15) 0.0482(16) 0.0357(16) -0.0240(13) -0.0090(12) -0.0015(13)
N2 0.0395(15) 0.0486(16) 0.0295(15) -0.0221(12) -0.0039(12) -0.0056(12)
N3 0.096(3) 0.0466(17) 0.0345(17) -0.0203(13) -0.0140(17) -0.0172(17)
N4 0.067(2) 0.0587(18) 0.0260(15) -0.0180(13) -0.0005(14) -0.0283(16)
N5 0.055(2) 0.0569(19) 0.057(2) -0.0279(15) 0.0060(16) -0.0219(16)
N6 0.113(4) 0.106(3) 0.083(3) -0.065(3) 0.039(3) -0.069(3)
N7 0.0405(17) 0.0412(15) 0.065(2) -0.0286(15) 0.0021(15) -0.0081(13)
N8 0.0287(14) 0.0536(16) 0.0344(15) -0.0230(12) -0.0071(12) -0.0041(12)
N9 0.0314(14) 0.0569(17) 0.0305(15) -0.0217(12) -0.0031(12) -0.0104(13)
N10 0.0356(17) 0.121(3) 0.0467(19) -0.0498(19) 0.0056(14) -0.0312(18)
O1 0.0191(11) 0.0383(12) 0.0615(15) -0.0211(10) -0.0114(10) -0.0016(9)
O2 0.0214(10) 0.0325(11) 0.0523(14) -0.0204(10) -0.0120(10) 0.0051(8)
O3 0.0499(16) 0.0565(16) 0.149(3) -0.0720(18) -0.0513(18) 0.0205(13)
O4 0.0303(12) 0.0275(11) 0.0865(18) -0.0287(11) -0.0194(12) 0.0075(9)
O5 0.0318(12) 0.0309(11) 0.0504(14) -0.0238(10) -0.0164(10) 0.0054(9)
O6 0.0193(11) 0.0388(11) 0.0541(14) -0.0257(10) -0.0113(10) 0.0014(9)
O7 0.0442(15) 0.0472(14) 0.0771(19) -0.0268(13) -0.0152(13) -0.0040(11)
O8 0.135(4) 0.104(3) 0.142(4) -0.064(3) -0.022(3) -0.047(3)
O9 0.097(3) 0.119(4) 0.322(8) -0.105(4) 0.002(4) -0.031(3)

_geom_special_details            
;
 All esds (except the esd in the dihedral angle between two l.s. planes)
 are estimated using the full covariance matrix.  The cell esds are taken
 into account individually in the estimation of esds in distances, angles
 and torsion angles; correlations between esds in cell parameters are only
 used when they are defined by crystal symmetry.  An approximate (isotropic)
 treatment of cell esds is used for estimating esds involving l.s. planes.
;

loop_
_geom_bond_atom_site_label_1
_geom_bond_atom_site_label_2
_geom_bond_distance
_geom_bond_site_symmetry_2
_geom_bond_publ_flag
Co1 O5 2.0236(19) 2_766 ?
Co1 O6 2.051(2) 1_455 ?
Co1 N1 2.121(3) . ?
Co1 N8 2.131(3) 1_556 ?
Co1 O2 2.164(2) . ?
Co1 O1 2.224(2) . ?
Co2 O4 2.0744(19) 2_856 ?
Co2 O4 2.0744(19) . ?
Co2 N7 2.120(3) 2_865 ?
Co2 N7 2.120(3) 1_546 ?
Co2 O7 2.138(3) 2_856 ?
Co2 O7 2.138(3) . ?
C1 O2 1.259(3) . ?
C1 O1 1.263(3) . ?
C1 C2 1.495(4) . ?
C2 C3 1.380(4) . ?
C2 C7 1.392(4) . ?
C3 C4 1.394(4) . ?
C3 H3 0.9300 . ?
C4 C5 1.384(4) . ?
C4 C8 1.515(4) . ?
C5 C6 1.387(4) . ?
C5 H5 0.9300 . ?
C6 C7 1.401(4) . ?
C6 C9 1.503(4) . ?
C7 H7 0.9300 . ?
C8 O3 1.243(4) . ?
C8 O4 1.247(4) . ?
C9 O5 1.255(3) . ?
C9 O6 1.256(3) . ?
C10 N1 1.324(4) . ?
C10 N2 1.332(4) . ?
C10 H10 0.9300 . ?
C11 N3 1.303(4) . ?
C11 N1 1.357(4) . ?
C11 H11 0.9300 . ?
C12 C17 1.364(5) . ?
C12 C13 1.385(5) . ?
C12 N2 1.432(4) . ?
C13 C14 1.358(5) . ?
C13 H13 0.9300 . ?
C14 C15 1.378(5) . ?
C14 H14 0.9300 . ?
C15 C16 1.386(5) . ?
C15 N4 1.428(4) . ?
C16 C17 1.381(5) . ?
C16 H16 0.9300 . ?
C17 H17 0.9300 . ?
C18 C23 1.374(5) . ?
C18 C19 1.392(5) . ?
C18 N4 1.406(4) . ?
C19 C20 1.386(5) . ?
C19 H19 0.9300 . ?
C20 C21 1.361(5) . ?
C20 H20 0.9300 . ?
C21 C22 1.377(5) . ?
C21 N5 1.435(4) . ?
C22 C23 1.380(5) . ?
C22 H22 0.9300 . ?
C23 H23 0.9300 . ?
C24 N7 1.309(4) . ?
C24 N5 1.315(5) . ?
C24 H24 0.9300 . ?
C25 N6 1.288(6) . ?
C25 N7 1.354(6) . ?
C25 H25 0.9300 . ?
C26 C27 1.377(5) . ?
C26 C31 1.380(5) . ?
C26 N4 1.435(4) . ?
C27 C28 1.372(5) . ?
C27 H27 0.9300 . ?
C28 C29 1.370(5) . ?
C28 H28 0.9300 . ?
C29 C30 1.380(5) . ?
C29 N9 1.429(4) . ?
C30 C31 1.368(5) . ?
C30 H30 0.9300 . ?
C31 H31 0.9300 . ?
C32 N8 1.321(4) . ?
C32 N9 1.331(4) . ?
C32 H32 0.9300 . ?
C33 N10 1.310(4) . ?
C33 N8 1.350(4) . ?
C33 H33 0.9300 . ?
N2 N3 1.374(4) . ?
N5 N6 1.362(4) . ?
N7 Co2 2.120(3) 1_564 ?
N8 Co1 2.131(3) 1_554 ?
N9 N10 1.361(4) . ?
O5 Co1 2.024(2) 2_766 ?
O6 Co1 2.051(2) 1_655 ?
O7 H7A 0.9600 . ?
O7 H7B 0.9600 . ?
O8 H8A 0.8500 . ?
O8 H8B 0.8501 . ?
O9 H9A 0.8500 . ?
O9 H9B 0.8500 . ?

loop_
_geom_angle_atom_site_label_1
_geom_angle_atom_site_label_2
_geom_angle_atom_site_label_3
_geom_angle
_geom_angle_site_symmetry_1
_geom_angle_site_symmetry_3
_geom_angle_publ_flag
O5 Co1 O6 108.22(8) 2_766 1_455 ?
O5 Co1 N1 89.78(9) 2_766 . ?
O6 Co1 N1 86.47(10) 1_455 . ?
O5 Co1 N8 90.05(9) 2_766 1_556 ?
O6 Co1 N8 93.27(9) 1_455 1_556 ?
N1 Co1 N8 179.62(10) . 1_556 ?
O5 Co1 O2 98.90(8) 2_766 . ?
O6 Co1 O2 152.87(8) 1_455 . ?
N1 Co1 O2 93.00(9) . . ?
N8 Co1 O2 87.36(9) 1_556 . ?
O5 Co1 O1 158.42(8) 2_766 . ?
O6 Co1 O1 92.97(8) 1_455 . ?
N1 Co1 O1 87.42(9) . . ?
N8 Co1 O1 92.87(9) 1_556 . ?
O2 Co1 O1 59.93(7) . . ?
O4 Co2 O4 180.0 2_856 . ?
O4 Co2 N7 90.25(10) 2_856 2_865 ?
O4 Co2 N7 89.75(10) . 2_865 ?
O4 Co2 N7 89.75(10) 2_856 1_546 ?
O4 Co2 N7 90.25(10) . 1_546 ?
N7 Co2 N7 180.0 2_865 1_546 ?
O4 Co2 O7 93.02(9) 2_856 2_856 ?
O4 Co2 O7 86.98(9) . 2_856 ?
N7 Co2 O7 90.17(11) 2_865 2_856 ?
N7 Co2 O7 89.83(11) 1_546 2_856 ?
O4 Co2 O7 86.98(9) 2_856 . ?
O4 Co2 O7 93.02(9) . . ?
N7 Co2 O7 89.83(11) 2_865 . ?
N7 Co2 O7 90.17(11) 1_546 . ?
O7 Co2 O7 180.00(9) 2_856 . ?
O2 C1 O1 120.8(3) . . ?
O2 C1 C2 118.7(3) . . ?
O1 C1 C2 120.5(3) . . ?
C3 C2 C7 120.1(3) . . ?
C3 C2 C1 120.9(3) . . ?
C7 C2 C1 119.0(3) . . ?
C2 C3 C4 120.3(3) . . ?
C2 C3 H3 119.9 . . ?
C4 C3 H3 119.9 . . ?
C5 C4 C3 119.4(3) . . ?
C5 C4 C8 120.9(3) . . ?
C3 C4 C8 119.7(3) . . ?
C4 C5 C6 121.1(3) . . ?
C4 C5 H5 119.4 . . ?
C6 C5 H5 119.4 . . ?
C5 C6 C7 118.9(3) . . ?
C5 C6 C9 121.6(3) . . ?
C7 C6 C9 119.4(2) . . ?
C2 C7 C6 120.1(3) . . ?
C2 C7 H7 120.0 . . ?
C6 C7 H7 120.0 . . ?
O3 C8 O4 125.6(3) . . ?
O3 C8 C4 118.0(3) . . ?
O4 C8 C4 116.4(3) . . ?
O5 C9 O6 124.5(3) . . ?
O5 C9 C6 118.8(2) . . ?
O6 C9 C6 116.6(2) . . ?
N1 C10 N2 110.0(3) . . ?
N1 C10 H10 125.0 . . ?
N2 C10 H10 125.0 . . ?
N3 C11 N1 115.1(3) . . ?
N3 C11 H11 122.5 . . ?
N1 C11 H11 122.5 . . ?
C17 C12 C13 120.4(3) . . ?
C17 C12 N2 121.2(3) . . ?
C13 C12 N2 118.4(3) . . ?
C14 C13 C12 119.3(3) . . ?
C14 C13 H13 120.4 . . ?
C12 C13 H13 120.4 . . ?
C13 C14 C15 121.6(3) . . ?
C13 C14 H14 119.2 . . ?
C15 C14 H14 119.2 . . ?
C14 C15 C16 118.6(3) . . ?
C14 C15 N4 120.3(3) . . ?
C16 C15 N4 121.1(3) . . ?
C17 C16 C15 120.2(3) . . ?
C17 C16 H16 119.9 . . ?
C15 C16 H16 119.9 . . ?
C12 C17 C16 119.9(3) . . ?
C12 C17 H17 120.0 . . ?
C16 C17 H17 120.0 . . ?
C23 C18 C19 118.4(3) . . ?
C23 C18 N4 122.3(3) . . ?
C19 C18 N4 119.2(3) . . ?
C20 C19 C18 120.1(4) . . ?
C20 C19 H19 119.9 . . ?
C18 C19 H19 119.9 . . ?
C21 C20 C19 120.3(4) . . ?
C21 C20 H20 119.8 . . ?
C19 C20 H20 119.8 . . ?
C20 C21 C22 120.2(3) . . ?
C20 C21 N5 120.3(4) . . ?
C22 C21 N5 119.5(4) . . ?
C21 C22 C23 119.5(4) . . ?
C21 C22 H22 120.2 . . ?
C23 C22 H22 120.2 . . ?
C18 C23 C22 121.3(3) . . ?
C18 C23 H23 119.3 . . ?
C22 C23 H23 119.3 . . ?
N7 C24 N5 110.8(3) . . ?
N7 C24 H24 124.6 . . ?
N5 C24 H24 124.6 . . ?
N6 C25 N7 115.5(4) . . ?
N6 C25 H25 122.2 . . ?
N7 C25 H25 122.2 . . ?
C27 C26 C31 118.8(3) . . ?
C27 C26 N4 121.3(3) . . ?
C31 C26 N4 119.9(3) . . ?
C28 C27 C26 120.5(3) . . ?
C28 C27 H27 119.8 . . ?
C26 C27 H27 119.8 . . ?
C29 C28 C27 119.9(3) . . ?
C29 C28 H28 120.0 . . ?
C27 C28 H28 120.0 . . ?
C28 C29 C30 120.5(3) . . ?
C28 C29 N9 120.4(3) . . ?
C30 C29 N9 119.2(3) . . ?
C31 C30 C29 118.9(3) . . ?
C31 C30 H30 120.5 . . ?
C29 C30 H30 120.5 . . ?
C30 C31 C26 121.3(3) . . ?
C30 C31 H31 119.3 . . ?
C26 C31 H31 119.3 . . ?
N8 C32 N9 109.6(3) . . ?
N8 C32 H32 125.2 . . ?
N9 C32 H32 125.2 . . ?
N10 C33 N8 114.3(3) . . ?
N10 C33 H33 122.8 . . ?
N8 C33 H33 122.8 . . ?
C10 N1 C11 103.0(3) . . ?
C10 N1 Co1 133.1(2) . . ?
C11 N1 Co1 123.7(2) . . ?
C10 N2 N3 109.5(3) . . ?
C10 N2 C12 130.4(3) . . ?
N3 N2 C12 120.2(2) . . ?
C11 N3 N2 102.4(3) . . ?
C18 N4 C15 121.7(3) . . ?
C18 N4 C26 119.7(3) . . ?
C15 N4 C26 117.1(3) . . ?
C24 N5 N6 109.5(3) . . ?
C24 N5 C21 128.1(3) . . ?
N6 N5 C21 122.3(3) . . ?
C25 N6 N5 102.1(4) . . ?
C24 N7 C25 102.1(3) . . ?
C24 N7 Co2 127.8(2) . 1_564 ?
C25 N7 Co2 129.4(3) . 1_564 ?
C32 N8 C33 103.6(3) . . ?
C32 N8 Co1 126.5(2) . 1_554 ?
C33 N8 Co1 126.8(2) . 1_554 ?
C32 N9 N10 109.8(3) . . ?
C32 N9 C29 129.8(3) . . ?
N10 N9 C29 120.3(3) . . ?
C33 N10 N9 102.7(3) . . ?
C1 O1 Co1 88.20(17) . . ?
C1 O2 Co1 91.01(17) . . ?
C8 O4 Co2 126.0(2) . . ?
C9 O5 Co1 148.9(2) . 2_766 ?
C9 O6 Co1 128.13(19) . 1_655 ?
Co2 O7 H7A 109.3 . . ?
Co2 O7 H7B 109.3 . . ?
H7A O7 H7B 109.5 . . ?
H8A O8 H8B 109.5 . . ?
H9A O9 H9B 109.5 . . ?

loop_
_geom_torsion_atom_site_label_1
_geom_torsion_atom_site_label_2
_geom_torsion_atom_site_label_3
_geom_torsion_atom_site_label_4
_geom_torsion
_geom_torsion_site_symmetry_1
_geom_torsion_site_symmetry_2
_geom_torsion_site_symmetry_3
_geom_torsion_site_symmetry_4
_geom_torsion_publ_flag
O2 C1 C2 C3 -150.4(3) . . . . ?
O1 C1 C2 C3 30.0(4) . . . . ?
O2 C1 C2 C7 29.0(4) . . . . ?
O1 C1 C2 C7 -150.6(3) . . . . ?
C7 C2 C3 C4 0.0(5) . . . . ?
C1 C2 C3 C4 179.4(3) . . . . ?
C2 C3 C4 C5 -2.7(5) . . . . ?
C2 C3 C4 C8 178.5(3) . . . . ?
C3 C4 C5 C6 3.1(5) . . . . ?
C8 C4 C5 C6 -178.1(3) . . . . ?
C4 C5 C6 C7 -0.9(5) . . . . ?
C4 C5 C6 C9 -177.9(3) . . . . ?
C3 C2 C7 C6 2.2(5) . . . . ?
C1 C2 C7 C6 -177.2(3) . . . . ?
C5 C6 C7 C2 -1.8(4) . . . . ?
C9 C6 C7 C2 175.3(3) . . . . ?
C5 C4 C8 O3 -171.8(3) . . . . ?
C3 C4 C8 O3 7.0(5) . . . . ?
C5 C4 C8 O4 9.6(5) . . . . ?
C3 C4 C8 O4 -171.6(3) . . . . ?
C5 C6 C9 O5 -176.0(3) . . . . ?
C7 C6 C9 O5 7.0(4) . . . . ?
C5 C6 C9 O6 5.0(4) . . . . ?
C7 C6 C9 O6 -172.0(3) . . . . ?
C17 C12 C13 C14 0.4(6) . . . . ?
N2 C12 C13 C14 -178.4(3) . . . . ?
C12 C13 C14 C15 0.3(6) . . . . ?
C13 C14 C15 C16 -1.9(6) . . . . ?
C13 C14 C15 N4 179.5(4) . . . . ?
C14 C15 C16 C17 2.7(6) . . . . ?
N4 C15 C16 C17 -178.7(3) . . . . ?
C13 C12 C17 C16 0.4(6) . . . . ?
N2 C12 C17 C16 179.2(3) . . . . ?
C15 C16 C17 C12 -2.0(6) . . . . ?
C23 C18 C19 C20 1.6(6) . . . . ?
N4 C18 C19 C20 -174.8(4) . . . . ?
C18 C19 C20 C21 0.1(7) . . . . ?
C19 C20 C21 C22 -2.4(6) . . . . ?
C19 C20 C21 N5 175.3(4) . . . . ?
C20 C21 C22 C23 3.0(6) . . . . ?
N5 C21 C22 C23 -174.7(4) . . . . ?
C19 C18 C23 C22 -1.0(6) . . . . ?
N4 C18 C23 C22 175.3(4) . . . . ?
C21 C22 C23 C18 -1.3(6) . . . . ?
C31 C26 C27 C28 2.1(6) . . . . ?
N4 C26 C27 C28 -179.5(3) . . . . ?
C26 C27 C28 C29 0.1(6) . . . . ?
C27 C28 C29 C30 -1.7(6) . . . . ?
C27 C28 C29 N9 177.0(3) . . . . ?
C28 C29 C30 C31 1.0(6) . . . . ?
N9 C29 C30 C31 -177.7(3) . . . . ?
C29 C30 C31 C26 1.2(6) . . . . ?
C27 C26 C31 C30 -2.8(6) . . . . ?
N4 C26 C31 C30 178.8(4) . . . . ?
N2 C10 N1 C11 0.6(4) . . . . ?
N2 C10 N1 Co1 -175.1(2) . . . . ?
N3 C11 N1 C10 0.5(5) . . . . ?
N3 C11 N1 Co1 176.7(3) . . . . ?
N1 C10 N2 N3 -1.4(4) . . . . ?
N1 C10 N2 C12 -179.5(3) . . . . ?
C17 C12 N2 C10 -23.0(5) . . . . ?
C13 C12 N2 C10 155.9(4) . . . . ?
C17 C12 N2 N3 159.2(4) . . . . ?
C13 C12 N2 N3 -22.0(5) . . . . ?
N1 C11 N3 N2 -1.3(5) . . . . ?
C10 N2 N3 C11 1.6(4) . . . . ?
C12 N2 N3 C11 179.9(3) . . . . ?
C23 C18 N4 C15 19.5(5) . . . . ?
C19 C18 N4 C15 -164.2(4) . . . . ?
C23 C18 N4 C26 -146.2(4) . . . . ?
C19 C18 N4 C26 30.1(5) . . . . ?
C14 C15 N4 C18 -133.6(4) . . . . ?
C16 C15 N4 C18 47.8(5) . . . . ?
C14 C15 N4 C26 32.5(5) . . . . ?
C16 C15 N4 C26 -146.1(4) . . . . ?
C27 C26 N4 C18 42.5(5) . . . . ?
C31 C26 N4 C18 -139.2(4) . . . . ?
C27 C26 N4 C15 -123.9(4) . . . . ?
C31 C26 N4 C15 54.5(5) . . . . ?
N7 C24 N5 N6 0.5(5) . . . . ?
N7 C24 N5 C21 -175.5(4) . . . . ?
C20 C21 N5 C24 -44.1(6) . . . . ?
C22 C21 N5 C24 133.5(4) . . . . ?
C20 C21 N5 N6 140.4(5) . . . . ?
C22 C21 N5 N6 -41.9(6) . . . . ?
N7 C25 N6 N5 1.2(7) . . . . ?
C24 N5 N6 C25 -1.0(6) . . . . ?
C21 N5 N6 C25 175.3(5) . . . . ?
N5 C24 N7 C25 0.2(5) . . . . ?
N5 C24 N7 Co2 170.8(3) . . . 1_564 ?
N6 C25 N7 C24 -0.9(6) . . . . ?
N6 C25 N7 Co2 -171.3(4) . . . 1_564 ?
N9 C32 N8 C33 -1.1(4) . . . . ?
N9 C32 N8 Co1 159.9(2) . . . 1_554 ?
N10 C33 N8 C32 1.4(5) . . . . ?
N10 C33 N8 Co1 -159.5(3) . . . 1_554 ?
N8 C32 N9 N10 0.5(4) . . . . ?
N8 C32 N9 C29 -174.0(3) . . . . ?
C28 C29 N9 C32 -12.2(6) . . . . ?
C30 C29 N9 C32 166.5(4) . . . . ?
C28 C29 N9 N10 173.7(3) . . . . ?
C30 C29 N9 N10 -7.6(5) . . . . ?
N8 C33 N10 N9 -1.1(5) . . . . ?
C32 N9 N10 C33 0.3(4) . . . . ?
C29 N9 N10 C33 175.4(3) . . . . ?
O2 C1 O1 Co1 -2.6(3) . . . . ?
C2 C1 O1 Co1 177.0(3) . . . . ?
O1 C1 O2 Co1 2.7(3) . . . . ?
C2 C1 O2 Co1 -176.9(2) . . . . ?
O3 C8 O4 Co2 -20.5(6) . . . . ?
C4 C8 O4 Co2 158.0(2) . . . . ?
O6 C9 O5 Co1 97.6(4) . . . 2_766 ?
C6 C9 O5 Co1 -81.3(4) . . . 2_766 ?
O5 C9 O6 Co1 -25.6(4) . . . 1_655 ?
C6 C9 O6 Co1 153.3(2) . . . 1_655 ?

_refine_diff_density_max         0.445
_refine_diff_density_min         -0.439
_refine_diff_density_rms         0.098
loop_
_platon_squeeze_void_nr
_platon_squeeze_void_average_x
_platon_squeeze_void_average_y
_platon_squeeze_void_average_z
_platon_squeeze_void_volume
_platon_squeeze_void_count_electrons
_platon_squeeze_void_content
1 -0.021 0.000 0.000 1352 241 ' '
_platon_squeeze_details          
;
;

_shelx_res_file                  
;

    1.res created by SHELXL-2014/7

TITL 1 in P-1
CELL  0.71073   10.0510   17.7700   17.9534    67.250    74.928    81.569
ZERR        1    0.0008    0.0013    0.0013     0.001     0.001     0.001
LATT 1
SFAC C  H  Co N  O
UNIT 66 54 3 20 18
OMIT   0.00  50.00
L.S. 5
ACTA
BOND $H
FMAP 2
PLAN 3
SIZE 0.29 0.18 0.16
CONF
WGHT    0.110000
FVAR       1.35492
CO1   3    0.702276    0.431089    0.486997    11.00000    0.01685    0.03289 =
         0.03258   -0.01909   -0.00788    0.00216
CO2   3    1.500000    0.000000    0.500000    10.50000    0.02537    0.02483 =
         0.05992   -0.02130   -0.00588    0.00114
C1    1    0.943272    0.366980    0.488344    11.00000    0.02044    0.03594 =
         0.04009   -0.02269   -0.01012    0.00500
C2    1    1.086893    0.331719    0.492311    11.00000    0.01814    0.03350 =
         0.03986   -0.01685   -0.00779    0.00155
C3    1    1.133169    0.261443    0.475925    11.00000    0.02339    0.03315 =
         0.05548   -0.02352   -0.01408    0.00167
AFIX  43
H3    2    1.074331    0.235157    0.462661    11.00000   -1.20000
AFIX   0
C4    1    1.267731    0.229722    0.479179    11.00000    0.02626    0.03105 =
         0.05382   -0.02354   -0.01017    0.00229
C5    1    1.356245    0.271097    0.495598    11.00000    0.01767    0.03451 =
         0.04734   -0.01872   -0.01057    0.00513
AFIX  43
H5    2    1.447312    0.251362    0.495101    11.00000   -1.20000
AFIX   0
C6    1    1.311487    0.341504    0.512788    11.00000    0.01878    0.02787 =
         0.03873   -0.01455   -0.00931    0.00094
C7    1    1.174595    0.371314    0.512183    11.00000    0.01970    0.03033 =
         0.04239   -0.01737   -0.00884    0.00062
AFIX  43
H7    2    1.142282    0.417590    0.525066    11.00000   -1.20000
AFIX   0
C8    1    1.316080    0.151420    0.463095    11.00000    0.02873    0.03252 =
         0.06925   -0.02670   -0.01302    0.00556
C9    1    1.407868    0.388536    0.527854    11.00000    0.02124    0.02967 =
         0.03005   -0.01019   -0.00890   -0.00043
C10   1    0.746463    0.497427    0.291143    11.00000    0.03457    0.04317 =
         0.04063   -0.02506   -0.00660   -0.00145
AFIX  43
H10   2    0.765541    0.550263    0.282270    11.00000   -1.20000
AFIX   0
C11   1    0.702024    0.373461    0.345361    11.00000    0.08809    0.03575 =
         0.04224   -0.01600   -0.01494   -0.01165
AFIX  43
H11   2    0.682019    0.321984    0.385469    11.00000   -1.20000
AFIX   0
C12   1    0.758307    0.513564    0.144449    11.00000    0.03830    0.04750 =
         0.03404   -0.01897   -0.00652   -0.00614
C13   1    0.796629    0.468211    0.093797    11.00000    0.06827    0.04837 =
         0.03861   -0.02272   -0.00832   -0.00313
AFIX  43
H13   2    0.807222    0.411563    0.116691    11.00000   -1.20000
AFIX   0
C14   1    0.818572    0.507356    0.010331    11.00000    0.07195    0.05842 =
         0.03762   -0.02952   -0.00639   -0.01078
AFIX  43
H14   2    0.843870    0.476801   -0.023584    11.00000   -1.20000
AFIX   0
C15   1    0.804270    0.591241   -0.025338    11.00000    0.04262    0.05712 =
         0.03132   -0.02072   -0.00244   -0.01533
C16   1    0.762604    0.635848    0.026029    11.00000    0.07470    0.04820 =
         0.03752   -0.01893   -0.00273   -0.01122
AFIX  43
H16   2    0.748591    0.692311    0.003284    11.00000   -1.20000
AFIX   0
C17   1    0.741850    0.596626    0.110924    11.00000    0.06719    0.05914 =
         0.04149   -0.03228   -0.00147   -0.00785
AFIX  43
H17   2    0.716681    0.626812    0.145198    11.00000   -1.20000
AFIX   0
C18   1    0.909709    0.699395   -0.155739    11.00000    0.04942    0.04826 =
         0.03627   -0.01845    0.00082   -0.01420
C19   1    0.903397    0.747399   -0.237194    11.00000    0.05622    0.07516 =
         0.04553   -0.01919   -0.00973   -0.02341
AFIX  43
H19   2    0.840921    0.736449   -0.261430    11.00000   -1.20000
AFIX   0
C20   1    0.990036    0.811489   -0.282262    11.00000    0.06488    0.07037 =
         0.03876   -0.01239   -0.00514   -0.02303
AFIX  43
H20   2    0.985372    0.843429   -0.336640    11.00000   -1.20000
AFIX   0
C21   1    1.081865    0.827900   -0.247339    11.00000    0.04972    0.05604 =
         0.05444   -0.02267    0.00244   -0.01925
C22   1    1.085934    0.782848   -0.165939    11.00000    0.05445    0.06186 =
         0.05319   -0.02901   -0.00962   -0.01416
AFIX  43
H22   2    1.145670    0.795670   -0.141275    11.00000   -1.20000
AFIX   0
C23   1    1.000743    0.718525   -0.121201    11.00000    0.05510    0.05625 =
         0.04022   -0.02109   -0.01010   -0.01318
AFIX  43
H23   2    1.005052    0.687501   -0.066562    11.00000   -1.20000
AFIX   0
C24   1    1.253352    0.903997   -0.371357    11.00000    0.04588    0.04907 =
         0.06171   -0.02793    0.00100   -0.01278
AFIX  43
H24   2    1.247450    0.876009   -0.404641    11.00000   -1.20000
AFIX   0
C25   1    1.307383    0.982556   -0.325048    11.00000    0.08913    0.07842 =
         0.10499   -0.05761    0.02258   -0.04651
AFIX  43
H25   2    1.352579    1.022846   -0.321732    11.00000   -1.20000
AFIX   0
C26   1    0.796368    0.587416   -0.158663    11.00000    0.04709    0.06155 =
         0.02992   -0.02191   -0.00388   -0.01633
C27   1    0.893948    0.571145   -0.221032    11.00000    0.03884    0.07872 =
         0.04540   -0.03282   -0.00308   -0.01818
AFIX  43
H27   2    0.983200    0.588019   -0.234052    11.00000   -1.20000
AFIX   0
C28   1    0.860506    0.530233   -0.264106    11.00000    0.03346    0.07433 =
         0.04251   -0.03581    0.00229   -0.01210
AFIX  43
H28   2    0.926992    0.519359   -0.306091    11.00000   -1.20000
AFIX   0
C29   1    0.729081    0.505397   -0.245234    11.00000    0.03854    0.05641 =
         0.03167   -0.02392   -0.00524   -0.00972
C30   1    0.630636    0.519354   -0.181589    11.00000    0.03811    0.07955 =
         0.04608   -0.03550    0.00092   -0.01910
AFIX  43
H30   2    0.541800    0.501741   -0.168145    11.00000   -1.20000
AFIX   0
C31   1    0.665828    0.559512   -0.138596    11.00000    0.04634    0.08598 =
         0.04093   -0.03830    0.00382   -0.01722
AFIX  43
H31   2    0.600447    0.568175   -0.094970    11.00000   -1.20000
AFIX   0
C32   1    0.758740    0.459645   -0.364159    11.00000    0.03099    0.04924 =
         0.02972   -0.02070   -0.00279   -0.00466
AFIX  43
H32   2    0.847281    0.476691   -0.392135    11.00000   -1.20000
AFIX   0
C33   1    0.564657    0.410233   -0.328820    11.00000    0.03225    0.09944 =
         0.05084   -0.04524   -0.00361   -0.01649
AFIX  43
H33   2    0.490779    0.384725   -0.329516    11.00000   -1.20000
AFIX   0
N1    4    0.722555    0.437157    0.364265    11.00000    0.03771    0.04817 =
         0.03566   -0.02396   -0.00898   -0.00150
N2    4    0.739182    0.471278    0.232124    11.00000    0.03948    0.04859 =
         0.02948   -0.02208   -0.00389   -0.00564
N3    4    0.712405    0.389741    0.266870    11.00000    0.09640    0.04664 =
         0.03453   -0.02027   -0.01401   -0.01725
N4    4    0.829127    0.630675   -0.113351    11.00000    0.06732    0.05870 =
         0.02601   -0.01801   -0.00053   -0.02827
N5    4    1.178574    0.890188   -0.295842    11.00000    0.05522    0.05687 =
         0.05749   -0.02786    0.00600   -0.02189
N6    4    1.212219    0.942104   -0.265030    11.00000    0.11322    0.10645 =
         0.08307   -0.06465    0.03889   -0.06945
N7    4    1.337214    0.962492   -0.393294    11.00000    0.04051    0.04119 =
         0.06540   -0.02861    0.00208   -0.00813
N8    4    0.680484    0.425191   -0.389596    11.00000    0.02865    0.05364 =
         0.03438   -0.02303   -0.00709   -0.00412
N9    4    0.691466    0.466225   -0.292365    11.00000    0.03141    0.05693 =
         0.03050   -0.02167   -0.00311   -0.01040
N10   4    0.565110    0.434681   -0.268779    11.00000    0.03560    0.12130 =
         0.04668   -0.04976    0.00562   -0.03118
O1    5    0.846489    0.321149    0.504715    11.00000    0.01905    0.03830 =
         0.06146   -0.02115   -0.01142   -0.00161
O2    5    0.920754    0.443015    0.468850    11.00000    0.02142    0.03250 =
         0.05228   -0.02039   -0.01205    0.00512
O3    5    1.237568    0.122017    0.439341    11.00000    0.04994    0.05648 =
         0.14941   -0.07198   -0.05131    0.02051
O4    5    1.431362    0.121141    0.476698    11.00000    0.03028    0.02750 =
         0.08646   -0.02873   -0.01936    0.00752
O5    5    1.360029    0.449169    0.547749    11.00000    0.03176    0.03094 =
         0.05044   -0.02376   -0.01644    0.00539
O6    5    1.532772    0.364324    0.518209    11.00000    0.01926    0.03882 =
         0.05407   -0.02573   -0.01131    0.00140
O7    5    1.375586   -0.015841    0.427468    11.00000    0.04419    0.04720 =
         0.07707   -0.02680   -0.01519   -0.00399
AFIX   3
H7A   2    1.364457    0.035131    0.383361    11.00000   -1.50000
H7B   2    1.286787   -0.033254    0.462005    11.00000   -1.50000
AFIX   0
O8    5    0.774671    0.170215    0.506378    11.00000    0.13465    0.10379 =
         0.14213   -0.06443   -0.02192   -0.04671
AFIX   3
H8A   2    0.795851    0.215005    0.505908    11.00000   -1.20000
H8B   2    0.704721    0.152505    0.545418    11.00000   -1.50000
AFIX   0
O9    5    0.990933    0.059339    0.529827    11.00000    0.09676    0.11852 =
         0.32230   -0.10480    0.00187   -0.03105
AFIX   3
H9A   2    1.068071    0.079139    0.501127    11.00000   -1.20000
H9B   2    0.937613    0.096009    0.543307    11.00000   -1.50000
AFIX   0
HKLF 4

REM  1 in P-1
REM R1 =  0.0513 for    7379 Fo > 4sig(Fo)  and  0.0657 for all    9930 data
REM    484 parameters refined using      0 restraints

END

WGHT      0.1100      0.0000

REM Highest difference peak  0.445,  deepest hole -0.439,  1-sigma level  0.098
Q1    1   1.5592  0.3615  0.4486  11.00000  0.05    0.44
Q2    1   1.3354  0.3304  0.4755  11.00000  0.05    0.44
Q3    1   0.7518  0.5034  0.3877  11.00000  0.05    0.42
;
_shelx_res_checksum              7464

_shelx_hkl_file                  
;
   1   0   0      38      44                                                        1237  -17.17  -14.67  1.0000
   2   0   0   52002    1262                                                       39595   21.44   -0.17  1.0000
   3   0   0    2814      44                                                         965  -16.25   -1.84  1.0000
   4   0   0    4699     204                                                        6031    6.72    0.23  1.0000
   5   0   0    7670     300                                                        8968   -5.26    0.16  1.0000
   6   0   0     129      36                                                         188    1.77   -0.04  1.0000
   6   0   0      89      24                                                         139    1.77   -0.04  1.0000
   7   0   0     418      52                                                         351   -1.26    0.02  1.0000
   7   0   0     395      40                                                         330   -1.26    0.02  1.0000
   8   0   0     262      47                                                         209    1.28   -0.06  1.0000
   8   0   0     233      38                                                         183    1.28   -0.06  1.0000
   8   0   0     223      35                                                         174    1.28   -0.06  1.0000
   9   0   0     237      51                                                         251   -0.33   -0.01  1.0000
   9   0   0     306      48                                                         322   -0.33   -0.01  1.0000
  10   0   0     485      64                                                         541    0.92    0.00  1.0000
  10   0   0     560      79                                                         620    0.92    0.00  1.0000
  11   0   0      29      43                                                          47    1.07   -0.32  1.0000
  11  -1   0     284      61                                                         289   -0.11   -0.06  1.0000
  10  -1   0      10      38                                                          16    0.61    0.08  1.0000
  10  -1   0       1      29                                                         -30    0.61    0.08  1.0000
   9  -1   0     226      41                                                         224   -0.05    0.19  1.0000
   9  -1   0     149      48                                                         148   -0.05    0.19  1.0000
   8  -1   0     889      68                                                         929    0.48    0.13  1.0000
   8  -1   0     948      81                                                         989    0.48    0.13  1.0000
   7  -1   0    5781     212                                                        5786   -0.03    0.06  1.0000
   7  -1   0    5728     228                                                        5733   -0.03    0.06  1.0000
   6  -1   0    2908     132                                                        2954    0.31    0.08  1.0000
   6  -1   0    2797     116                                                        2842    0.31    0.08  1.0000
   5  -1   0    1131      57                                                        1148    0.18    0.17  1.0000
   5  -1   0    1170      71                                                        1188    0.18    0.17  1.0000
   4  -1   0     233      16                                                          88    4.34    0.13  1.0000
   4  -1   0     255      23                                                         102    4.34    0.13  1.0000
   3  -1   0     119      60                                                        1181  -17.44    0.29  1.0000
   3  -1   0     109      49                                                        1147  -17.44    0.29  1.0000
   2  -1   0   42128    1597                                                       50406   14.22   -0.27  1.0000
   2  -1   0   41874    1598                                                       50129   14.22   -0.27  1.0000
   1  -1   0     144      17                                                         214  -19.03   -3.51  1.0000
   1  -1   0     131      14                                                         231  -19.03   -3.51  1.0000
  -1   1   0     149      15                                                         196  -19.03    3.51  1.0000
   1   1   0     234      23                                                         599   -6.31   -5.04  1.0000
   2   1   0   29759     809                                                       26883   -6.29   -1.25  1.0000
   2   1   0   28725     846                                                       25901   -6.29   -1.25  1.0000
   3   1   0    4116     144                                                        4169   -0.33    0.42  1.0000
   3   1   0    4078     138                                                        4131   -0.33    0.42  1.0000
   4   1   0     717      33                                                         474   -3.70   -0.03  1.0000
   4   1   0     648      30                                                         418   -3.70   -0.03  1.0000
   5   1   0    6507     219                                                        6055   -2.11    0.08  1.0000
   5   1   0    7090     211                                                        6617   -2.11    0.08  1.0000
   6   1   0      21      19                                                          28    0.51   -0.27  1.0000
   6   1   0      31      20                                                          40    0.51   -0.27  1.0000
   7   1   0     770      59                                                         798   -0.36    0.02  1.0000
   7   1   0     770      55                                                         798   -0.36    0.02  1.0000
   8   1   0    3088     148                                                        3028   -0.40    0.03  1.0000
   8   1   0    3113     125                                                        3053   -0.40    0.03  1.0000
   8   1   0    3143     136                                                        3083   -0.40    0.03  1.0000
   9   1   0       0      25                                                         -27   -0.02   -0.43  1.0000
   9   1   0      21      34                                                          24   -0.02   -0.43  1.0000
  10   1   0     179      44                                                         196   -0.47   -0.05  1.0000
  10   1   0     274      58                                                         295   -0.47   -0.05  1.0000
  11   1   0     111      46                                                         109    0.08   -0.34  1.0000
  11   1   0      59      41                                                          57    0.08   -0.34  1.0000
  11  -2   0       0      39                                                         -19    0.12   -0.06  1.0000
  10  -2   0     495      69                                                         437   -1.01    0.11  1.0000
   9  -2   0    1168     100                                                        1136    0.34    0.15  1.0000
   9  -2   0    1075      79                                                        1044    0.34    0.15  1.0000
   8  -2   0     705      57                                                         625   -1.15    0.11  1.0000
   8  -2   0     737      71                                                         655   -1.15    0.11  1.0000
   7  -2   0     689      77                                                         829    1.89   -0.15  1.0000
   7  -2   0     740      58                                                         885    1.89   -0.15  1.0000
   6  -2   0    3671     146                                                        3891   -1.32   -0.02  1.0000
   6  -2   0    3583     161                                                        3800   -1.32   -0.02  1.0000
   5  -2   0     606      59                                                         853    3.42    0.09  1.0000
   5  -2   0     569      46                                                         809    3.42    0.09  1.0000
   4  -2   0   13503     375                                                       11176   -7.72   -0.73  1.0000
   4  -2   0   13652     365                                                       11312   -7.72   -0.73  1.0000
   3  -2   0    1179      85                                                        2037    7.97    1.41  1.0000
   3  -2   0    1108      73                                                        1943    7.97    1.41  1.0000
   2  -2   0   65059    2560                                                       80743  -21.43   -2.84  1.0000
   2  -2   0   66619    2567                                                       82480  -21.43   -2.84  1.0000
  -2   2   0   64588    2471                                                       80198  -21.43    2.84  1.0000
   1  -2   0   22775     333                                                       10634   35.26    0.16  1.0000
   1  -2   0   22911     336                                                       10727   35.26    0.16  1.0000
  -1   2   0   22425     323                                                       10395   35.26   -0.16  1.0000
  -1  -2   0   13143     401                                                       12463    2.36   -3.01  1.0000
   1   2   0   13774     387                                                       13019    2.36    3.01  1.0000
   2   2   0     793      90                                                        2633  -17.10   -1.01  1.0000
   3   2   0    3155     142                                                        4026    5.36    0.61  1.0000
   3   2   0    3167     135                                                        4040    5.36    0.61  1.0000
   4   2   0       9      13                                                          21   -5.53   -0.29  1.0000
   4   2   0       4      14                                                          31   -5.53   -0.29  1.0000
   5   2   0    8855     253                                                        7380    6.05   -0.01  1.0000
   5   2   0    8782     240                                                        7313    6.05   -0.01  1.0000
   6   2   0   10464     345                                                        9986   -1.74   -0.08  1.0000
   6   2   0   10846     329                                                       10359   -1.74   -0.08  1.0000
   7   2   0    1277      66                                                        1094    1.96    0.21  1.0000
   7   2   0    1150      59                                                         977    1.96    0.21  1.0000
   8   2   0     780      64                                                         798   -0.24    0.15  1.0000
   8   2   0     771      58                                                         789   -0.24    0.15  1.0000
   9   2   0      48      34                                                          35    0.73   -0.19  1.0000
   9   2   0      24      29                                                          15    0.73   -0.19  1.0000
  10   2   0     116      46                                                         107   -0.31    0.06  1.0000
  10   2   0     128      42                                                         119   -0.31    0.06  1.0000
  11   2   0     277      61                                                         298   -0.47    0.00  1.0000
  11   2   0     344      59                                                         368   -0.47    0.00  1.0000
  11  -3   0     600      84                                                         610   -0.15    0.04  1.0000
  10  -3   0     217      56                                                         217   -0.01    0.38  1.0000
   9  -3   0      29      39                                                          25   -0.42    0.37  1.0000
   8  -3   0      91      31                                                          86    0.18   -0.11  1.0000
   8  -3   0      92      43                                                          87    0.18   -0.11  1.0000
   7  -3   0    2236     119                                                        2134    0.81   -0.01  1.0000
   7  -3   0    2396     100                                                        2290    0.81   -0.01  1.0000
   6  -3   0   15140     506                                                       15012   -0.38   -0.11  1.0000
   6  -3   0   16209     524                                                       16076   -0.38   -0.11  1.0000
   5  -3   0    2209      98                                                        1966    1.96    0.32  1.0000
   5  -3   0    2352      85                                                        2101    1.96    0.32  1.0000
   4  -3   0   16390     576                                                       17977   -4.47   -0.09  1.0000
   4  -3   0   16500     585                                                       18092   -4.47   -0.09  1.0000
   3  -3   0       0      21                                                          74    6.11   -0.26  1.0000
   3  -3   0      10      16                                                         131    6.11   -0.26  1.0000
  -3   3   0      12      19                                                         138    6.11    0.26  1.0000
   2  -3   0   30692     603                                                       19179  -27.07   -0.92  1.0000
   2  -3   0   31726     608                                                       19998  -27.07   -0.92  1.0000
  -2   3   0   29599     583                                                       18333  -27.07    0.92  1.0000
   1  -3   0   21044     405                                                       12750   23.80   -1.95  1.0000
  -1   3   0   21052     390                                                       12723   23.80    1.95  1.0000
   0  -3   0    1735       2                                                           0   30.73    0.42  1.0000
  -1  -3   0    7752     392                                                       12178   16.39    2.40  1.0000
   1   3   0    8073     379                                                       12562   16.39   -2.40  1.0000
  -2  -3   0    4359      99                                                        2591  -11.17    0.72  1.0000
   2   3   0    4516      92                                                        2710  -11.17   -0.72  1.0000
   3   3   0    5586     186                                                        5397    0.96   -0.37  1.0000
   3   3   0    5706     178                                                        5515    0.96   -0.37  1.0000
   4   3   0    5856     188                                                        5707   -0.73    0.03  1.0000
   4   3   0    5834     199                                                        5685   -0.73    0.03  1.0000
   5   3   0     904      52                                                         996    1.10   -0.14  1.0000
   5   3   0     790      53                                                         876    1.10   -0.14  1.0000
   6   3   0     130      30                                                         213   -2.39    0.25  1.0000
   6   3   0     107      31                                                         184   -2.39    0.25  1.0000
   7   3   0       0      21                                                           1    0.85    0.06  1.0000
   7   3   0       1      20                                                         -16    0.85    0.06  1.0000
   8   3   0     801      56                                                         756   -0.60    0.00  1.0000
   8   3   0     710      63                                                         668   -0.60    0.00  1.0000
   9   3   0    1240      86                                                        1210    0.31    0.15  1.0000
  10   3   0       1      34                                                         -27   -0.77    0.06  1.0000
  10   3   0      23      31                                                          14   -0.77    0.06  1.0000
  11   3   0      19      40                                                          24    0.39    0.01  1.0000
  11   3   0      30      39                                                          36    0.39    0.01  1.0000
  11  -4   0     179      57                                                         127   -1.54   -0.05  1.0000
  10  -4   0       2      38                                                         -18    0.91    0.02  1.0000
   9  -4   0    3391     171                                                        3448   -0.37    0.20  1.0000
   8  -4   0    4152     190                                                        4231    0.45   -0.01  1.0000
   8  -4   0    4136     169                                                        4215    0.45   -0.01  1.0000
   7  -4   0     579      57                                                         744   -2.38    0.19  1.0000
   7  -4   0     449      67                                                         596   -2.38    0.19  1.0000
   6  -4   0    1796      76                                                        1598    1.78   -0.03  1.0000
   6  -4   0    1635      89                                                        1446    1.78   -0.03  1.0000
   5  -4   0     627      49                                                         454   -2.76    0.08  1.0000
   5  -4   0     596      35                                                         427   -2.76    0.08  1.0000
   4  -4   0    4597     199                                                        5468    4.51    0.52  1.0000
   4  -4   0    4506     183                                                        5368    4.51    0.52  1.0000
   3  -4   0      86      46                                                        1042  -17.27   -0.26  1.0000
   3  -4   0      99      60                                                        1086  -17.27   -0.26  1.0000
  -3   4   0      65      49                                                         957  -17.27    0.26  1.0000
   2  -4   0     278      23                                                         278   -0.03   -0.82  1.0000
   2  -4   0     328      32                                                         328   -0.03   -0.82  1.0000
  -2   4   0     319      26                                                         320   -0.03    0.82  1.0000
   1  -4   0    2714      37                                                         548  -21.30    1.61  1.0000
  -1   4   0    2698      33                                                         532  -21.30   -1.61  1.0000
   0  -4   0      48       3                                                           1    5.72   -1.26  1.0000
   0   4   0      28       4                                                           8    5.72    1.26  1.0000
  -1  -4   0    3701     131                                                        3752   -0.26   -0.80  1.0000
   1   4   0    3689     125                                                        3725   -0.26    0.80  1.0000
   2   4   0    2472     133                                                        3952    9.70    0.28  1.0000
   3   4   0    2611     103                                                        2896    2.01   -0.14  1.0000
   4   4   0   10003     328                                                        9596    1.52   -0.08  1.0000
   4   4   0   10428     312                                                       10012    1.52   -0.08  1.0000
   5   4   0    9301     344                                                       10287   -3.67   -0.10  1.0000
   5   4   0    9016     324                                                        9987   -3.67   -0.10  1.0000
   6   4   0    7738     273                                                        7863    0.53   -0.06  1.0000
   6   4   0    7431     255                                                        7554    0.53   -0.06  1.0000
   7   4   0    1197      69                                                        1249   -0.55    0.07  1.0000
   7   4   0    1217      75                                                        1269   -0.55    0.07  1.0000
   8   4   0    2340     114                                                        2274   -0.51    0.03  1.0000
   8   4   0    2287     101                                                        2222   -0.51    0.03  1.0000
   9   4   0    1663     108                                                        1749    0.77    0.06  1.0000
   9   4   0    1859      94                                                        1950    0.77    0.06  1.0000
  10   4   0      13      33                                                           7   -0.72   -0.09  1.0000
  11   4   0     120      48                                                         112    0.30   -0.12  1.0000
  11   4   0     200      52                                                         190    0.30   -0.12  1.0000
  10  -5   0     596      81                                                         628    0.51   -0.54  1.0000
   9  -5   0     749      86                                                         767    0.24   -0.08  1.0000
   8  -5   0    1218      91                                                        1216    0.02   -0.03  1.0000
   7  -5   0     557      54                                                         652   -1.43    0.02  1.0000
   7  -5   0     469      66                                                         557   -1.43    0.02  1.0000
   6  -5   0    3836     174                                                        4146    1.81    0.07  1.0000
   6  -5   0    3744     153                                                        4050    1.81    0.07  1.0000
   5  -5   0    7619     272                                                        8181   -2.32   -0.44  1.0000
   5  -5   0    7477     291                                                        8034   -2.32   -0.44  1.0000
   4  -5   0     974      47                                                         954    0.23    0.46  1.0000
   4  -5   0     885      59                                                         866    0.23    0.46  1.0000
  -4   5   0     838      51                                                         820    0.23   -0.46  1.0000
   3  -5   0    8574     225                                                        6371   -9.43   -0.02  1.0000
   3  -5   0    8565     207                                                        6363   -9.43   -0.02  1.0000
   2  -5   0    7002     295                                                        8707    7.11   -1.44  1.0000
  -2   5   0    7205     281                                                        8943    7.11    1.44  1.0000
  -1   5   0   28485     926                                                       30539   -4.38   -1.35  1.0000
   0  -5   0     996       2                                                           0  -23.26   -1.16  1.0000
   0   5   0     996       3                                                           0  -23.26    1.16  1.0000
  -1  -5   0     262      12                                                         181   -2.05   -1.28  1.0000
  -1  -5   0     268      26                                                         186   -2.05   -1.28  1.0000
   1   5   0     298      23                                                         213   -2.05    1.28  1.0000
  -2  -5   0     768      20                                                         121   12.32    0.49  1.0000
   2   5   0    1134      26                                                         290   12.32   -0.49  1.0000
  -3  -5   0    1732      82                                                        1786   -0.48    0.27  1.0000
   3   5   0    1762      73                                                        1818   -0.48   -0.27  1.0000
   4   5   0    4620     147                                                        4327   -1.62    0.03  1.0000
   4   5   0    4357     155                                                        4073   -1.62    0.03  1.0000
   5   5   0     365      35                                                         386   -0.41    0.15  1.0000
   5   5   0     328      37                                                         347   -0.41    0.15  1.0000
   6   5   0      24      20                                                          21    0.21   -0.13  1.0000
   6   5   0      36      23                                                          33    0.21   -0.13  1.0000
   7   5   0     340      38                                                         327   -0.27    0.21  1.0000
   7   5   0     290      41                                                         278   -0.27    0.21  1.0000
   8   5   0       1      25                                                         -11    0.74    0.34  1.0000
   8   5   0       1      20                                                         -43    0.74    0.34  1.0000
   9   5   0    4151     160                                                        4136    0.09   -0.10  1.0000
   9   5   0    4104     179                                                        4090    0.09   -0.10  1.0000
  10   5   0    1906     116                                                        1877   -0.25   -0.03  1.0000
  11   5   0       0      34                                                         -42    0.16    0.08  1.0000
  10  -6   0     279      60                                                         255    0.54   -0.08  1.0000
   9  -6   0    1223     101                                                        1288   -0.67    0.02  1.0000
   8  -6   0    3973     187                                                        4057    0.49   -0.10  1.0000
   7  -6   0    1287      90                                                        1142    1.54   -0.04  1.0000
   6  -6   0      11      33                                                          24   -1.20    0.09  1.0000
   6  -6   0       0      23                                                           2   -1.20    0.09  1.0000
   5  -6   0     535      47                                                         702    2.49   -0.23  1.0000
   5  -6   0     575      67                                                         747    2.49   -0.23  1.0000
  -5   6   0     522      52                                                         688    2.49    0.23  1.0000
   4  -6   0     174      15                                                          36   -7.21    0.67  1.0000
   4  -6   0      96      21                                                          -8   -7.21    0.67  1.0000
  -4   6   0     200      20                                                          21   -7.21   -0.67  1.0000
   3  -6   0   16942     472                                                       15267    4.88   -0.29  1.0000
   3  -6   0   16524     491                                                       14871    4.88   -0.29  1.0000
  -3   6   0   16245     469                                                       14600    4.88    0.29  1.0000
   2  -6   0    8144     196                                                        5716  -10.84    0.69  1.0000
  -2   6   0    7618     184                                                        5267  -10.84   -0.69  1.0000
   1  -6   0       0       5                                                           0   -0.33    0.04  1.0000
  -1   6   0       0       3                                                          -2   -0.33   -0.04  1.0000
   0  -6   0       7       3                                                          -1    1.84   -0.61  1.0000
   0   6   0       7       3                                                           0    1.84    0.61  1.0000
  -1  -6   0     882      14                                                         195   11.59    0.71  1.0000
   1   6   0     894      25                                                         210   11.59   -0.71  1.0000
  -2  -6   0      48      16                                                          19   -7.12   -0.05  1.0000
   2   6   0      47      15                                                          21   -7.12    0.05  1.0000
  -3  -6   0    1016      60                                                         881   -1.63   -0.09  1.0000
   3   6   0    1127      50                                                         983   -1.63    0.09  1.0000
   5   6   0      88      21                                                          57    1.33   -0.07  1.0000
   5   6   0     118      24                                                          82    1.33   -0.07  1.0000
   6   6   0    1582      80                                                        1462   -1.14    0.13  1.0000
   6   6   0    1545      72                                                        1426   -1.14    0.13  1.0000
   7   6   0    2513     116                                                        2398    0.86   -0.12  1.0000
   7   6   0    2565     105                                                        2449    0.86   -0.12  1.0000
   8   6   0       2      22                                                         -24    0.88    0.38  1.0000
   8   6   0      14      26                                                          14    0.88    0.38  1.0000
   9   6   0      86      34                                                          76   -0.38   -0.27  1.0000
   9   6   0      75      30                                                          66   -0.38   -0.27  1.0000
  10   6   0      71      43                                                         102   -1.24    0.04  1.0000
  11   6   0     239      58                                                         229    0.24    0.20  1.0000
  10  -7   0     809      98                                                         849    0.49    0.28  1.0000
   9  -7   0      10      39                                                          10    0.07   -0.02  1.0000
   8  -7   0     290      55                                                         264    0.58    0.02  1.0000
   7  -7   0     181      49                                                         222    1.06    0.17  1.0000
   6  -7   0     687      65                                                         542   -2.14   -0.38  1.0000
   5  -7   0    4477     171                                                        4102    2.12   -0.07  1.0000
   5  -7   0    4487     142                                                        4112    2.12   -0.07  1.0000
  -5   7   0    4408     157                                                        4035    2.12    0.07  1.0000
   4  -7   0     355      18                                                         199   -3.50   -0.02  1.0000
   4  -7   0     288      34                                                         150   -3.50   -0.02  1.0000
  -4   7   0     345      30                                                         192   -3.50    0.02  1.0000
   3  -7   0    3725     150                                                        3726    0.01   -0.29  1.0000
  -3   7   0    3735     139                                                        3737    0.01    0.29  1.0000
   2  -7   0     480      47                                                         639   -2.50    0.47  1.0000
  -2   7   0     340      41                                                         478   -2.50   -0.47  1.0000
   0   7   0     351       3                                                          -2  -13.81   -0.39  1.0000
  -1  -7   0     174      20                                                         334    3.53   -1.65  1.0000
  -1  -7   0     153      34                                                         305    3.53   -1.65  1.0000
   1   7   0     172      31                                                         318    3.53    1.65  1.0000
  -2  -7   0     331      26                                                          89   -6.47    0.02  1.0000
   2   7   0     427      25                                                         142   -6.47   -0.02  1.0000
  -3  -7   0     749      61                                                         925    2.24    0.03  1.0000
   3   7   0     796      55                                                         977    2.24   -0.03  1.0000
   4   7   0    1133      60                                                        1057    0.84   -0.18  1.0000
   4   7   0    1178      58                                                        1100    0.84   -0.18  1.0000
   6   7   0     677      57                                                         748    0.97    0.18  1.0000
   6   7   0     697      54                                                         769    0.97    0.18  1.0000
   7   7   0       0      23                                                           1    1.01    0.04  1.0000
   7   7   0       5      25                                                          12    1.01    0.04  1.0000
   8   7   0      79      29                                                          75    0.16   -0.07  1.0000
   8   7   0     107      34                                                         103    0.16   -0.07  1.0000
   9   7   0      29      30                                                          28    0.13   -0.11  1.0000
   9   7   0      39      28                                                          37    0.13   -0.11  1.0000
  10   7   0    1331      95                                                        1252   -0.81    0.00  1.0000
  10  -8   0     287      67                                                         310   -0.50    0.13  1.0000
   9  -8   0       0      35                                                         -37    0.12   -0.09  1.0000
   8  -8   0     831      85                                                         807   -0.31    0.05  1.0000
   7  -8   0     835      86                                                         922   -1.10    0.16  1.0000
   6  -8   0      53      39                                                          59    0.35   -0.36  1.0000
  -6   8   0      49      30                                                          57    0.35    0.36  1.0000
   5  -8   0    1755      96                                                        1524   -2.11    0.09  1.0000
  -5   8   0    1881      86                                                        1641   -2.11   -0.09  1.0000
   4  -8   0       0      23                                                         -38   -0.11   -0.15  1.0000
  -4   8   0       0      20                                                          -1   -0.11    0.15  1.0000
   3  -8   0    7351     317                                                        9112   -7.17   -0.08  1.0000
  -3   8   0    7299     301                                                        9053   -7.17    0.08  1.0000
   2  -8   0    4798     218                                                        6008    6.09   -0.06  1.0000
  -2   8   0    4816     207                                                        6030    6.09    0.06  1.0000
   0  -8   0     220      23                                                          68  -16.99    1.06  1.0000
  -1  -8   0    2191     124                                                        3089   -6.46   -1.22  1.0000
  -1  -8   0    2123     104                                                        3009   -6.46   -1.22  1.0000
   1   8   0    2240     118                                                        3149   -6.46    1.22  1.0000
  -2  -8   0     667      41                                                         373    4.93    0.56  1.0000
   2   8   0     697      37                                                         387    4.93   -0.56  1.0000
  -3  -8   0    6440     240                                                        6622   -0.84    0.09  1.0000
   3   8   0    6361     224                                                        6544   -0.84   -0.09  1.0000
  -4  -8   0    2088     114                                                        2220    1.05   -0.09  1.0000
   4   8   0    2363     103                                                        2503    1.05    0.09  1.0000
   4   8   0    2485     107                                                        2629    1.05    0.09  1.0000
   5   8   0     167      30                                                         136   -0.98    0.33  1.0000
   6   8   0      99      29                                                          80    0.75   -0.18  1.0000
   7   8   0     341      51                                                         401   -1.12   -0.26  1.0000
   7   8   0     406      50                                                         471   -1.12   -0.26  1.0000
   8   8   0    1406      92                                                        1421    0.16   -0.08  1.0000
   8   8   0    1519      85                                                        1535    0.16   -0.08  1.0000
   9   8   0     667      60                                                         634    0.48    0.08  1.0000
   9   8   0     748      74                                                         713    0.48    0.08  1.0000
  10   8   0     250      55                                                         242    0.18    0.05  1.0000
   9  -9   0     677      84                                                         659    0.27   -0.08  1.0000
   8  -9   0     212      59                                                         238    0.64    0.02  1.0000
   7  -9   0      62      40                                                          75    0.58   -0.14  1.0000
   6  -9   0     651      68                                                         538    1.71    0.19  1.0000
  -6   9   0     643      58                                                         531    1.71   -0.19  1.0000
   5  -9   0    4711     204                                                        4850   -0.74   -0.06  1.0000
  -5   9   0    4940     191                                                        5082   -0.74    0.06  1.0000
   4  -9   0     487      59                                                         529    0.69   -0.01  1.0000
  -4   9   0     434      50                                                         474    0.69    0.01  1.0000
   3  -9   0     152      41                                                         205   -1.43   -0.30  1.0000
   2  -9   0     134      33                                                         179   -1.32    0.05  1.0000
  -2   9   0     113      29                                                         154   -1.32   -0.05  1.0000
  -1   9   0      35      22                                                          62    1.29    0.99  1.0000
  -1  -9   0    7468     257                                                        7902   -1.84    0.30  1.0000
  -1  -9   0    7484     279                                                        7918   -1.84    0.30  1.0000
   1   9   0    7732     268                                                        8178   -1.84   -0.30  1.0000
  -2  -9   0       9      25                                                          44    2.71   -0.30  1.0000
   2   9   0      19      23                                                          65    2.71    0.30  1.0000
  -3  -9   0     117      31                                                          85   -1.18    0.12  1.0000
   3   9   0     131      27                                                          97   -1.18   -0.12  1.0000
  -4  -9   0      29      30                                                          41   -0.72    0.03  1.0000
   4   9   0      32      23                                                          44   -0.72   -0.03  1.0000
   4   9   0      56      24                                                          71   -0.72   -0.03  1.0000
   5   9   0    2595     113                                                        2606   -0.08    0.03  1.0000
   5   9   0    2735     120                                                        2747   -0.08    0.03  1.0000
   6   9   0    1406      78                                                        1282   -1.26    0.13  1.0000
   6   9   0    1249      73                                                        1132   -1.26    0.13  1.0000
   7   9   0      12      26                                                          14    0.34   -0.83  1.0000
   7   9   0      24      27                                                          28    0.34   -0.83  1.0000
   8   9   0    1003      73                                                        1049   -0.53    0.10  1.0000
   8   9   0    1155      85                                                        1204   -0.53    0.10  1.0000
   9   9   0      58      36                                                          54    0.18    0.08  1.0000
   9   9   0      19      30                                                          17    0.18    0.08  1.0000
  10   9   0     179      48                                                         186    0.17    0.10  1.0000
   9 -10   0       1      38                                                         -32    0.70    0.01  1.0000
   8 -10   0       0      36                                                         -16    0.24    0.01  1.0000
   7 -10   0     504      67                                                         473    0.53   -0.13  1.0000
   6 -10   0     293      55                                                         285   -0.21    0.15  1.0000
  -6  10   0     331      49                                                         320   -0.21   -0.15  1.0000
   5 -10   0    3958     178                                                        4037    0.46   -0.27  1.0000
  -5  10   0    4020     168                                                        4099    0.46    0.27  1.0000
   4 -10   0      56      34                                                          39   -0.98   -0.10  1.0000
  -4  10   0      41      28                                                          26   -0.98    0.10  1.0000
  -2  10   0    1630      70                                                        1252   -3.70    0.03  1.0000
   1 -10   0    1398      71                                                        1235    1.68   -0.39  1.0000
   0 -10   0      50      27                                                          68   -0.87   -0.17  1.0000
  -1 -10   0     493      29                                                         420   -1.28    0.22  1.0000
  -1 -10   0     479      47                                                         407   -1.28    0.22  1.0000
   1  10   0     448      41                                                         377   -1.28   -0.22  1.0000
  -2 -10   0       5      23                                                           0   -1.65   -0.13  1.0000
   2  10   0       5      21                                                          -1   -1.65    0.13  1.0000
  -3 -10   0    1807      95                                                        1643    1.46   -0.01  1.0000
   3  10   0    1554      77                                                        1402    1.46    0.01  1.0000
   3  10   0    1667      77                                                        1509    1.46    0.01  1.0000
  -4 -10   0    1938     108                                                        1892   -0.38   -0.15  1.0000
   4  10   0    2169      98                                                        2122   -0.38    0.15  1.0000
   4  10   0    1929      95                                                        1885   -0.38    0.15  1.0000
   5  10   0     563      54                                                         533    0.47    0.19  1.0000
   5  10   0     593      56                                                         562    0.47    0.19  1.0000
   6  10   0     399      51                                                         432   -0.61    0.19  1.0000
   6  10   0     474      57                                                         510   -0.61    0.19  1.0000
   7  10   0     129      40                                                         206    2.18   -0.31  1.0000
   7  10   0      78      36                                                         140    2.18   -0.31  1.0000
   8  10   0    2281     106                                                        2141   -1.10   -0.07  1.0000
   8  10   0    2114     113                                                        1979   -1.10   -0.07  1.0000
   9  10   0     550      61                                                         577   -0.44    0.26  1.0000
   9  10   0     481      66                                                         506   -0.44    0.26  1.0000
  10  10   0       0      33                                                           1    0.90    0.04  1.0000
   9 -11   0     819      97                                                         794    0.32    0.05  1.0000
   8 -11   0    1095     106                                                        1123    0.31    0.07  1.0000
   7 -11   0     295      57                                                         285    0.22    0.17  1.0000
  -7  11   0     364      57                                                         353    0.22   -0.17  1.0000
   6 -11   0       1      35                                                         -32    0.58   -0.11  1.0000
  -6  11   0       0      29                                                           1    0.58    0.11  1.0000
   5 -11   0      28      40                                                          42    0.90   -0.08  1.0000
  -5  11   0      47      35                                                          65    0.90    0.08  1.0000
   4 -11   0     117      42                                                          89   -1.05    0.02  1.0000
  -4  11   0     171      36                                                         136   -1.05   -0.02  1.0000
  -3  11   0     388      51                                                         460   -1.29   -0.08  1.0000
  -2  11   0     457      51                                                         505    0.81   -0.29  1.0000
   1 -11   0       4       7                                                           1    2.14   -0.10  1.0000
  -1  11   0       5      23                                                          26    2.14    0.10  1.0000
  -1 -11   0    1455      83                                                        1304    1.49    0.20  1.0000
  -1 -11   0    1288      54                                                        1146    1.49    0.20  1.0000
   1  11   0    1387      73                                                        1243    1.49   -0.20  1.0000
  -2 -11   0    1997     104                                                        2009    0.09    0.15  1.0000
   2  11   0    2059      97                                                        2069    0.09   -0.15  1.0000
  -3 -11   0      25      35                                                          45    1.25   -0.37  1.0000
   3  11   0      15      22                                                          31    1.25    