####################################################################### 
# 
# This file contains crystal structure data downloaded from the 
# Cambridge Structural Database (CSD) hosted by the Cambridge 
# Crystallographic Data Centre (CCDC).
# 
# Full information about CCDC data access policies and citation 
# guidelines are available at http://www.ccdc.cam.ac.uk/access/V1 
# 
# Audit and citation data items may have been added by the CCDC. 
# Please retain this information to preserve the provenance of 
# this file and to allow appropriate attribution of the data. 
# 
#######################################################################

data_d588
_audit_block_doi                 10.5517/cc13ybn1
_database_code_depnum_ccdc_archive 'CCDC 1041093'
loop_
_citation_id
_citation_doi
_citation_year
1 10.1038/ncomms8954 2015
_audit_update_record             
;
2014-12-29 deposited with the CCDC.	2024-07-10 downloaded from the CCDC.
;

_audit_creation_method           SHELXL-97
_chemical_name_systematic        
; 
 ? 
;
_chemical_name_common            ?
_chemical_melting_point          ?
_chemical_formula_moiety         ?
_chemical_formula_sum            'C63 H55 N3 O13 Zn2'
_chemical_formula_weight         1192.84

loop_
_atom_type_symbol
_atom_type_description
_atom_type_scat_dispersion_real
_atom_type_scat_dispersion_imag
_atom_type_scat_source
C C 0.0033 0.0016 'International Tables Vol C Tables 4.2.6.8 and 6.1.1.4'
H H 0.0000 0.0000 'International Tables Vol C Tables 4.2.6.8 and 6.1.1.4'
N N 0.0061 0.0033 'International Tables Vol C Tables 4.2.6.8 and 6.1.1.4'
O O 0.0106 0.0060 'International Tables Vol C Tables 4.2.6.8 and 6.1.1.4'
Zn Zn 0.2839 1.4301 'International Tables Vol C Tables 4.2.6.8 and 6.1.1.4'

_symmetry_cell_setting           Monoclinic
_symmetry_space_group_name_H-M   C2/c

loop_
_symmetry_equiv_pos_as_xyz
'x, y, z'
'-x, y, -z+1/2'
'x+1/2, y+1/2, z'
'-x+1/2, y+1/2, -z+1/2'
'-x, -y, -z'
'x, -y, z-1/2'
'-x+1/2, -y+1/2, -z'
'x+1/2, -y+1/2, z-1/2'

_cell_length_a                   15.084(13)
_cell_length_b                   27.43(2)
_cell_length_c                   15.799(13)
_cell_angle_alpha                90.00
_cell_angle_beta                 95.447(14)
_cell_angle_gamma                90.00
_cell_volume                     6508(9)
_cell_formula_units_Z            4
_cell_measurement_temperature    100(2)
_cell_measurement_reflns_used    2611
_cell_measurement_theta_min      2.59
_cell_measurement_theta_max      22.51

_exptl_crystal_description       Block
_exptl_crystal_colour            Yellow
_exptl_crystal_size_max          0.40
_exptl_crystal_size_mid          0.26
_exptl_crystal_size_min          0.12
_exptl_crystal_density_meas      'Not Measured'
_exptl_crystal_density_diffrn    1.217
_exptl_crystal_density_method    'not measured'
_exptl_crystal_F_000             2472
_exptl_absorpt_coefficient_mu    0.797
_exptl_absorpt_correction_type   Multi-scan
_exptl_absorpt_correction_T_min  0.6033
_exptl_absorpt_correction_T_max  0.7456
_exptl_absorpt_process_details   'SADABS (Sheldrick, 2010)'

_exptl_special_details           
; 
 ? 
;

_diffrn_ambient_temperature      100(2)
_diffrn_radiation_wavelength     0.71073
_diffrn_radiation_type           MoK\a
_diffrn_radiation_source         'fine-focus sealed tube'
_diffrn_radiation_monochromator  graphite
_diffrn_measurement_device_type  'Bruker APEX-II CCD'
_diffrn_measurement_method       '\f and \w scans'
_diffrn_detector_area_resol_mean ?
_diffrn_reflns_number            23006
_diffrn_reflns_av_R_equivalents  0.0737
_diffrn_reflns_av_sigmaI/netI    0.0867
_diffrn_reflns_limit_h_min       -9
_diffrn_reflns_limit_h_max       19
_diffrn_reflns_limit_k_min       -35
_diffrn_reflns_limit_k_max       35
_diffrn_reflns_limit_l_min       -20
_diffrn_reflns_limit_l_max       20
_diffrn_reflns_theta_min         1.93
_diffrn_reflns_theta_max         27.50
_reflns_number_total             7475
_reflns_number_gt                5382
_reflns_threshold_expression     >2sigma(I)

_computing_data_collection       'Bruker APEX2'
_computing_cell_refinement       'Bruker SAINT'
_computing_data_reduction        'Bruker SAINT'
_computing_structure_solution    'SHELXS-97 (Sheldrick, 2008)'
_computing_structure_refinement  'SHELXL-97 (Sheldrick, 2008)'
_computing_molecular_graphics    'Bruker SHELXTL'
_computing_publication_material  'Bruker SHELXTL'

_refine_special_details          
; 
 Refinement of F^2^ against ALL reflections.  The weighted R-factor wR and 
 goodness of fit S are based on F^2^, conventional R-factors R are based 
 on F, with F set to zero for negative F^2^. The threshold expression of 
 F^2^ > 2sigma(F^2^) is used only for calculating R-factors(gt) etc. and is 
 not relevant to the choice of reflections for refinement.  R-factors based 
 on F^2^ are statistically about twice as large as those based on F, and R- 
 factors based on ALL data will be even larger. 
;

_refine_ls_structure_factor_coef Fsqd
_refine_ls_matrix_type           full
_refine_ls_weighting_scheme      calc
_refine_ls_weighting_details     
'calc w=1/[\s^2^(Fo^2^)+(0.0997P)^2^+31.4244P] where P=(Fo^2^+2Fc^2^)/3'
_atom_sites_solution_primary     direct
_atom_sites_solution_secondary   difmap
_atom_sites_solution_hydrogens   geom
_refine_ls_hydrogen_treatment    constr
_refine_ls_extinction_method     none
_refine_ls_extinction_coef       ?
_refine_ls_number_reflns         7475
_refine_ls_number_parameters     402
_refine_ls_number_restraints     0
_refine_ls_R_factor_all          0.1024
_refine_ls_R_factor_gt           0.0752
_refine_ls_wR_factor_ref         0.2209
_refine_ls_wR_factor_gt          0.2056
_refine_ls_goodness_of_fit_ref   1.065
_refine_ls_restrained_S_all      1.065
_refine_ls_shift/su_max          0.001
_refine_ls_shift/su_mean         0.000

loop_
_atom_site_label
_atom_site_type_symbol
_atom_site_fract_x
_atom_site_fract_y
_atom_site_fract_z
_atom_site_U_iso_or_equiv
_atom_site_adp_type
_atom_site_occupancy
_atom_site_symmetry_multiplicity
_atom_site_calc_flag
_atom_site_refinement_flags
_atom_site_disorder_assembly
_atom_site_disorder_group
Zn1 Zn 0.06349(3) 0.503730(15) 0.43543(3) 0.01690(17) Uani 1 1 d . . .
O1 O 0.1040(2) 0.44027(11) 0.4942(2) 0.0349(8) Uani 1 1 d . . .
O2 O 0.0083(2) 0.43500(12) 0.5926(2) 0.0334(8) Uani 1 1 d . . .
O3 O 0.3742(2) 0.03909(13) 0.9625(2) 0.0362(8) Uani 1 1 d . . .
O4 O 0.4706(2) 0.03619(12) 0.8652(2) 0.0330(8) Uani 1 1 d . . .
N1 N 0.1597(3) 0.50962(15) 0.3554(2) 0.0271(8) Uani 1 1 d . . .
C1 C 0.0715(3) 0.41920(16) 0.5543(3) 0.0256(9) Uani 1 1 d . . .
C2 C 0.1121(3) 0.37153(16) 0.5827(3) 0.0301(10) Uani 1 1 d . . .
C3 C 0.0802(4) 0.3464(2) 0.6496(4) 0.0484(15) Uani 1 1 d . . .
H3 H 0.0321 0.3594 0.6772 0.058 Uiso 1 1 calc R . .
C4 C 0.1182(5) 0.3025(2) 0.6764(4) 0.0562(17) Uani 1 1 d . . .
H4 H 0.0966 0.2857 0.7229 0.067 Uiso 1 1 calc R . .
C5 C 0.1882(4) 0.2826(2) 0.6353(4) 0.0489(15) Uani 1 1 d . . .
C6 C 0.2189(4) 0.3084(2) 0.5694(4) 0.0523(16) Uani 1 1 d . . .
H6 H 0.2675 0.2958 0.5420 0.063 Uiso 1 1 calc R . .
C7 C 0.1811(4) 0.35165(18) 0.5424(4) 0.0390(12) Uani 1 1 d . . .
H7 H 0.2025 0.3682 0.4956 0.047 Uiso 1 1 calc R . .
C8 C 0.2318(4) 0.2361(2) 0.6627(4) 0.0563(17) Uani 1 1 d . . .
H8 H 0.2833 0.2269 0.6363 0.068 Uiso 1 1 calc R . .
C9 C 0.2053(4) 0.2070(2) 0.7199(4) 0.0482(14) Uani 1 1 d . . .
H9 H 0.1502 0.2147 0.7413 0.058 Uiso 1 1 calc R . .
C10 C 0.2519(4) 0.1630(2) 0.7553(4) 0.0463(14) Uani 1 1 d . . .
C11 C 0.2249(4) 0.1448(2) 0.8298(4) 0.0465(14) Uani 1 1 d . . .
H11 H 0.1735 0.1578 0.8520 0.056 Uiso 1 1 calc R . .
C12 C 0.2717(3) 0.10806(19) 0.8722(4) 0.0390(12) Uani 1 1 d . . .
H12 H 0.2530 0.0964 0.9243 0.047 Uiso 1 1 calc R . .
C13 C 0.3462(3) 0.08744(16) 0.8406(3) 0.0292(10) Uani 1 1 d . . .
C14 C 0.3703(3) 0.10342(18) 0.7629(3) 0.0362(12) Uani 1 1 d . . .
H14 H 0.4189 0.0885 0.7388 0.043 Uiso 1 1 calc R . .
C15 C 0.3240(4) 0.1410(2) 0.7201(4) 0.0435(13) Uani 1 1 d . . .
H15 H 0.3410 0.1519 0.6670 0.052 Uiso 1 1 calc R . .
C16 C 0.4009(3) 0.05120(16) 0.8933(3) 0.0265(9) Uani 1 1 d . . .
C17 C 0.2356(4) 0.4857(3) 0.3760(4) 0.0539(16) Uani 1 1 d . . .
H17 H 0.2421 0.4677 0.4277 0.065 Uiso 1 1 calc R . .
C18 C 0.3051(4) 0.4859(3) 0.3252(4) 0.0616(19) Uani 1 1 d . . .
H18 H 0.3592 0.4696 0.3429 0.074 Uiso 1 1 calc R . .
C19 C 0.2948(4) 0.5103(2) 0.2478(4) 0.0462(15) Uani 1 1 d . . .
C20 C 0.2136(3) 0.52985(19) 0.2241(3) 0.0322(11) Uani 1 1 d . . .
H20 H 0.2018 0.5445 0.1697 0.039 Uiso 1 1 calc R . .
C21 C 0.1486(3) 0.52826(18) 0.2790(3) 0.0301(10) Uani 1 1 d . . .
H21 H 0.0920 0.5415 0.2604 0.036 Uiso 1 1 calc R . .
C22 C 0.3680(4) 0.5072(3) 0.1917(4) 0.0556(18) Uani 1 1 d . . .
H22 H 0.4269 0.5042 0.2185 0.067 Uiso 1 1 calc R . .
C23 C 0.3591(4) 0.50828(18) 0.1113(4) 0.0371(12) Uani 1 1 d . . .
H23 H 0.3005 0.5123 0.0845 0.045 Uiso 1 1 calc R . .
C24 C 0.4319(3) 0.50380(18) 0.0554(3) 0.0347(11) Uani 1 1 d . . .
C25 C 0.4472(3) 0.54211(19) 0.0004(3) 0.0370(12) Uani 1 1 d . . .
C26 C 0.5157(3) 0.53810(19) -0.0566(3) 0.0364(12) Uani 1 1 d . . .
C27 C 0.5289(4) 0.5789(2) -0.1101(4) 0.0465(14) Uani 1 1 d . . .
H27 H 0.5755 0.5778 -0.1464 0.056 Uiso 1 1 calc R . .
C28 C 0.4773(4) 0.6189(2) -0.1106(4) 0.0556(17) Uani 1 1 d . . .
H28 H 0.4864 0.6448 -0.1487 0.067 Uiso 1 1 calc R . .
C29 C 0.4091(5) 0.6227(2) -0.0545(5) 0.0609(19) Uani 1 1 d . . .
H29 H 0.3729 0.6511 -0.0553 0.073 Uiso 1 1 calc R . .
C30 C 0.3961(4) 0.5860(2) -0.0004(4) 0.0470(14) Uani 1 1 d . . .
H30 H 0.3519 0.5894 0.0383 0.056 Uiso 1 1 calc R . .
O1S O 0.4372(8) 0.2662(3) 1.1317(7) 0.076(3) Uani 0.50 1 d P A 1
C1S C 0.4542(13) 0.2505(5) 1.0673(12) 0.081(5) Uani 0.50 1 d P A 1
H1S H 0.4956 0.2696 1.0399 0.098 Uiso 0.50 1 calc PR A 1
N1S N 0.4259(9) 0.2098(5) 1.0234(9) 0.078(4) Uani 0.50 1 d P A 1
C2S C 0.4551(9) 0.1954(4) 0.9371(9) 0.058(3) Uani 0.50 1 d P A 1
H2S1 H 0.4919 0.2214 0.9162 0.086 Uiso 0.50 1 calc PR A 1
H2S2 H 0.4025 0.1903 0.8968 0.086 Uiso 0.50 1 calc PR A 1
H2S3 H 0.4898 0.1651 0.9429 0.086 Uiso 0.50 1 calc PR A 1
C3S C 0.3609(16) 0.1793(8) 1.0629(14) 0.128(9) Uani 0.50 1 d P A 1
H3S1 H 0.3019 0.1944 1.0541 0.192 Uiso 0.50 1 calc PR A 1
H3S2 H 0.3787 0.1764 1.1240 0.192 Uiso 0.50 1 calc PR A 1
H3S3 H 0.3589 0.1469 1.0369 0.192 Uiso 0.50 1 calc PR A 1
O2S O 0.173(2) 0.3538(12) 0.890(2) 0.127(10) Uiso 0.25 1 d P B 2
O3S O 0.2724(17) 0.3444(9) 0.9087(15) 0.089(7) Uiso 0.25 1 d P B 2
O4S O 0.3430(18) 0.3861(10) 0.9091(17) 0.098(8) Uiso 0.25 1 d P B 2
O5S O 0.5534(14) 0.2897(8) 0.8836(14) 0.075(6) Uiso 0.25 1 d P C 2
O6S O 0.524(3) 0.2630(14) 0.958(3) 0.152(13) Uiso 0.25 1 d P C 2
O7S O 0.5000 0.3682(18) 0.7500 0.29(2) Uiso 0.25 1 d P D 2
O8S O 0.386(4) 0.363(2) 0.850(4) 0.22(2) Uiso 0.25 1 d P B 2
O9S O 0.328(4) 0.343(2) 0.787(4) 0.22(2) Uiso 0.25 1 d P B 2

loop_
_atom_site_aniso_label
_atom_site_aniso_U_11
_atom_site_aniso_U_22
_atom_site_aniso_U_33
_atom_site_aniso_U_23
_atom_site_aniso_U_13
_atom_site_aniso_U_12
Zn1 0.0171(3) 0.0175(2) 0.0175(3) -0.00048(17) 0.00847(18) -0.00085(18)
O1 0.045(2) 0.0271(17) 0.0347(19) 0.0102(14) 0.0164(16) 0.0100(15)
O2 0.0311(18) 0.0286(17) 0.042(2) 0.0104(14) 0.0126(15) 0.0063(14)
O3 0.0358(19) 0.047(2) 0.0264(18) 0.0152(15) 0.0069(15) 0.0113(16)
O4 0.0272(18) 0.0394(19) 0.0333(19) 0.0136(14) 0.0073(14) 0.0098(14)
N1 0.0213(19) 0.041(2) 0.0198(18) 0.0019(16) 0.0069(15) 0.0012(16)
C1 0.024(2) 0.023(2) 0.029(2) 0.0019(17) 0.0013(18) 0.0028(17)
C2 0.037(3) 0.023(2) 0.031(2) 0.0062(18) 0.005(2) 0.0068(19)
C3 0.066(4) 0.036(3) 0.046(3) 0.016(2) 0.021(3) 0.013(3)
C4 0.077(5) 0.043(3) 0.051(4) 0.025(3) 0.021(3) 0.013(3)
C5 0.054(4) 0.034(3) 0.059(4) 0.016(3) 0.006(3) 0.014(3)
C6 0.051(4) 0.037(3) 0.072(4) 0.017(3) 0.022(3) 0.022(3)
C7 0.038(3) 0.032(3) 0.049(3) 0.007(2) 0.013(2) 0.008(2)
C8 0.054(4) 0.049(4) 0.068(4) 0.023(3) 0.013(3) 0.015(3)
C9 0.041(3) 0.042(3) 0.062(4) 0.012(3) 0.004(3) 0.004(2)
C10 0.035(3) 0.034(3) 0.068(4) 0.015(3) -0.006(3) 0.005(2)
C11 0.036(3) 0.037(3) 0.066(4) 0.018(3) 0.007(3) 0.008(2)
C12 0.026(3) 0.038(3) 0.053(3) 0.012(2) 0.005(2) 0.007(2)
C13 0.027(2) 0.027(2) 0.032(3) 0.0080(18) -0.0035(19) 0.0010(18)
C14 0.033(3) 0.034(3) 0.043(3) 0.014(2) 0.005(2) 0.002(2)
C15 0.048(3) 0.043(3) 0.039(3) 0.021(2) 0.002(3) 0.001(2)
C16 0.023(2) 0.026(2) 0.030(2) 0.0082(18) -0.0021(19) -0.0041(17)
C17 0.033(3) 0.090(5) 0.041(3) 0.017(3) 0.019(3) 0.010(3)
C18 0.034(3) 0.107(6) 0.046(4) 0.019(4) 0.014(3) 0.020(3)
C19 0.026(3) 0.086(4) 0.029(3) 0.000(3) 0.013(2) -0.007(3)
C20 0.030(3) 0.048(3) 0.021(2) 0.008(2) 0.013(2) 0.004(2)
C21 0.020(2) 0.048(3) 0.023(2) 0.006(2) 0.0088(18) 0.008(2)
C22 0.027(3) 0.106(6) 0.037(3) 0.001(3) 0.017(2) -0.003(3)
C23 0.032(3) 0.041(3) 0.042(3) -0.001(2) 0.019(2) -0.001(2)
C24 0.032(3) 0.040(3) 0.035(3) -0.001(2) 0.018(2) 0.002(2)
C25 0.035(3) 0.042(3) 0.038(3) -0.001(2) 0.020(2) 0.001(2)
C26 0.031(3) 0.040(3) 0.042(3) 0.004(2) 0.019(2) -0.003(2)
C27 0.042(3) 0.049(3) 0.054(4) 0.013(3) 0.031(3) 0.003(3)
C28 0.060(4) 0.045(3) 0.067(4) 0.018(3) 0.037(3) 0.005(3)
C29 0.063(4) 0.046(3) 0.081(5) 0.005(3) 0.042(4) 0.012(3)
C30 0.052(3) 0.045(3) 0.049(3) 0.004(3) 0.032(3) 0.007(3)
O1S 0.105(8) 0.047(5) 0.089(8) -0.013(5) 0.073(7) 0.006(5)
C1S 0.105(14) 0.037(7) 0.104(14) 0.013(8) 0.021(11) -0.012(8)
N1S 0.089(10) 0.063(8) 0.081(9) 0.000(7) 0.009(8) 0.007(7)
C2S 0.054(8) 0.038(6) 0.079(10) -0.002(6) -0.004(7) 0.005(5)
C3S 0.16(2) 0.117(17) 0.114(17) -0.001(13) 0.040(15) -0.084(16)

_geom_special_details            
; 
 All esds (except the esd in the dihedral angle between two l.s. planes) 
 are estimated using the full covariance matrix.  The cell esds are taken 
 into account individually in the estimation of esds in distances, angles 
 and torsion angles; correlations between esds in cell parameters are only 
 used when they are defined by crystal symmetry.  An approximate (isotropic) 
 treatment of cell esds is used for estimating esds involving l.s. planes. 
;

loop_
_geom_bond_atom_site_label_1
_geom_bond_atom_site_label_2
_geom_bond_distance
_geom_bond_site_symmetry_2
_geom_bond_publ_flag
Zn1 N1 2.020(4) . ?
Zn1 O4 2.025(3) 8_455 ?
Zn1 O2 2.026(3) 5_566 ?
Zn1 O3 2.034(3) 4_556 ?
Zn1 O1 2.039(3) . ?
Zn1 Zn1 2.935(2) 5_566 ?
O1 C1 1.251(5) . ?
O2 C1 1.253(5) . ?
O2 Zn1 2.026(3) 5_566 ?
O3 C16 1.244(5) . ?
O3 Zn1 2.034(3) 4_546 ?
O4 C16 1.250(6) . ?
O4 Zn1 2.025(3) 8_556 ?
N1 C21 1.307(6) . ?
N1 C17 1.333(7) . ?
C1 C2 1.495(6) . ?
C2 C7 1.383(7) . ?
C2 C3 1.386(7) . ?
C3 C4 1.382(8) . ?
C4 C5 1.401(8) . ?
C5 C6 1.375(8) . ?
C5 C8 1.480(8) . ?
C6 C7 1.368(7) . ?
C8 C9 1.299(8) . ?
C9 C10 1.478(7) . ?
C10 C11 1.376(8) . ?
C10 C15 1.403(8) . ?
C11 C12 1.369(7) . ?
C12 C13 1.393(7) . ?
C13 C14 1.384(7) . ?
C13 C16 1.494(6) . ?
C14 C15 1.386(7) . ?
C17 C18 1.379(8) . ?
C18 C19 1.389(9) . ?
C19 C20 1.358(7) . ?
C19 C22 1.482(7) . ?
C20 C21 1.370(6) . ?
C22 C23 1.265(8) . ?
C23 C24 1.478(7) . ?
C24 C26 1.394(7) 5_665 ?
C24 C25 1.397(7) . ?
C25 C30 1.430(7) . ?
C25 C26 1.437(7) . ?
C26 C24 1.394(7) 5_665 ?
C26 C27 1.427(7) . ?
C27 C28 1.344(8) . ?
C28 C29 1.423(8) . ?
C29 C30 1.347(8) . ?
O1S C1S 1.155(18) . ?
C1S N1S 1.36(2) . ?
N1S C3S 1.47(2) . ?
N1S C2S 1.524(18) . ?
O2S O3S 1.52(4) . ?
O3S O4S 1.56(3) . ?
O4S O8S 1.35(5) . ?
O5S O6S 1.49(4) . ?
O8S O9S 1.37(6) . ?

loop_
_geom_angle_atom_site_label_1
_geom_angle_atom_site_label_2
_geom_angle_atom_site_label_3
_geom_angle
_geom_angle_site_symmetry_1
_geom_angle_site_symmetry_3
_geom_angle_publ_flag
N1 Zn1 O4 101.61(16) . 8_455 ?
N1 Zn1 O2 101.44(15) . 5_566 ?
O4 Zn1 O2 90.07(15) 8_455 5_566 ?
N1 Zn1 O3 98.79(16) . 4_556 ?
O4 Zn1 O3 159.42(13) 8_455 4_556 ?
O2 Zn1 O3 88.54(16) 5_566 4_556 ?
N1 Zn1 O1 98.67(15) . . ?
O4 Zn1 O1 87.13(16) 8_455 . ?
O2 Zn1 O1 159.86(13) 5_566 . ?
O3 Zn1 O1 87.15(16) 4_556 . ?
N1 Zn1 Zn1 174.74(12) . 5_566 ?
O4 Zn1 Zn1 83.12(11) 8_455 5_566 ?
O2 Zn1 Zn1 80.72(10) 5_566 5_566 ?
O3 Zn1 Zn1 76.39(11) 4_556 5_566 ?
O1 Zn1 Zn1 79.14(10) . 5_566 ?
C1 O1 Zn1 128.1(3) . . ?
C1 O2 Zn1 126.6(3) . 5_566 ?
C16 O3 Zn1 131.3(3) . 4_546 ?
C16 O4 Zn1 123.0(3) . 8_556 ?
C21 N1 C17 116.7(4) . . ?
C21 N1 Zn1 124.9(3) . . ?
C17 N1 Zn1 117.3(3) . . ?
O1 C1 O2 125.3(4) . . ?
O1 C1 C2 117.0(4) . . ?
O2 C1 C2 117.8(4) . . ?
C7 C2 C3 119.1(5) . . ?
C7 C2 C1 120.7(4) . . ?
C3 C2 C1 120.2(4) . . ?
C4 C3 C2 120.2(5) . . ?
C3 C4 C5 120.4(5) . . ?
C6 C5 C4 118.3(5) . . ?
C6 C5 C8 119.4(5) . . ?
C4 C5 C8 122.3(5) . . ?
C7 C6 C5 121.4(5) . . ?
C6 C7 C2 120.5(5) . . ?
C9 C8 C5 125.2(6) . . ?
C8 C9 C10 126.8(6) . . ?
C11 C10 C15 119.0(5) . . ?
C11 C10 C9 116.8(5) . . ?
C15 C10 C9 124.0(5) . . ?
C12 C11 C10 120.4(5) . . ?
C11 C12 C13 121.3(5) . . ?
C14 C13 C12 118.6(4) . . ?
C14 C13 C16 121.8(4) . . ?
C12 C13 C16 119.5(4) . . ?
C13 C14 C15 120.4(5) . . ?
C14 C15 C10 120.1(5) . . ?
O3 C16 O4 125.3(4) . . ?
O3 C16 C13 117.4(4) . . ?
O4 C16 C13 117.3(4) . . ?
N1 C17 C18 122.5(6) . . ?
C17 C18 C19 119.3(6) . . ?
C20 C19 C18 117.1(5) . . ?
C20 C19 C22 124.1(5) . . ?
C18 C19 C22 118.2(6) . . ?
C19 C20 C21 119.6(5) . . ?
N1 C21 C20 124.1(4) . . ?
C23 C22 C19 125.8(6) . . ?
C22 C23 C24 125.7(6) . . ?
C26 C24 C25 120.1(4) 5_665 . ?
C26 C24 C23 120.9(4) 5_665 . ?
C25 C24 C23 119.1(4) . . ?
C24 C25 C30 121.2(4) . . ?
C24 C25 C26 120.2(5) . . ?
C30 C25 C26 118.6(5) . . ?
C24 C26 C27 123.0(5) 5_665 . ?
C24 C26 C25 119.7(4) 5_665 . ?
C27 C26 C25 117.3(5) . . ?
C28 C27 C26 122.1(5) . . ?
C27 C28 C29 120.5(5) . . ?
C30 C29 C28 119.9(6) . . ?
C29 C30 C25 121.6(5) . . ?
O1S C1S N1S 131.9(16) . . ?
C1S N1S C3S 116.0(15) . . ?
C1S N1S C2S 124.4(14) . . ?
C3S N1S C2S 119.5(14) . . ?
O2S O3S O4S 122(2) . . ?
O8S O4S O3S 91(3) . . ?
O4S O8S O9S 112(5) . . ?

_diffrn_measured_fraction_theta_max 0.997
_diffrn_reflns_theta_full        27.50
_diffrn_measured_fraction_theta_full 0.997
_refine_diff_density_max         1.083
_refine_diff_density_min         -0.641
_refine_diff_density_rms         0.154
