
#######################################################################
#
#                 Cambridge Crystallographic Data Centre
#                                CCDC
#
#######################################################################
#
# If this CIF has been generated from an entry in the Cambridge
# Structural Database, then it will include bibliographic, chemical,
# crystal, experimental, refinement or atomic coordinate data resulting
# from the CCDC's data processing and validation procedures.
#
#######################################################################

data_CSD_CIF_FURANE10
_audit_creation_date 1973-02-27
_audit_creation_method CSD-ConQuest-V1
_database_code_CSD FURANE10
_database_code_depnum_ccdc_archive 'CCDC 1161451'
_chemical_formula_sum 'C4 H4 O1'
_chemical_formula_moiety
;
C4 H4 O1
;
_journal_coeditor_code "IUCr A09336"
_journal_coden_Cambridge 107
_journal_volume 28
_journal_year 1972
_journal_page_first 2984
_journal_name_full 'Acta Crystallogr.,Sect.B:Struct.Crystallogr.Cryst.Chem. '
loop_
_publ_author_name
"R.Fourme"
_chemical_name_systematic
;
Furan
;
_chemical_name_common
;
Teaching Subset: Fundamental Chemistry
;
_cell_volume    385.923
_exptl_special_details
;
tetragonal polymorph
SPACE GROUP COULD BE THE ENANTIOMORPHOUS P43212

;
_diffrn_ambient_temperature 123
#These two values have been output from a single CSD field.
_refine_ls_R_factor_gt 0.065
_refine_ls_wR_factor_gt 0.065
_symmetry_cell_setting tetragonal
_symmetry_space_group_name_H-M 'P 41 21 2'
_symmetry_Int_Tables_number 92
loop_
_symmetry_equiv_pos_site_id
_symmetry_equiv_pos_as_xyz
1 x,y,z
2 1/2-y,1/2+x,1/4+z
3 -x,-y,1/2+z
4 1/2+y,1/2-x,3/4+z
5 y,x,-z
6 1/2+x,1/2-y,3/4-z
7 -y,-x,1/2-z
8 1/2-x,1/2+y,1/4-z
_cell_length_a 5.69(1)
_cell_length_b 5.69(1)
_cell_length_c 11.92(2)
_cell_angle_alpha 90
_cell_angle_beta 90
_cell_angle_gamma 90
_cell_formula_units_Z 4
loop_
_atom_type_symbol
_atom_type_radius_bond
C 0.68
H 0.20
O 0.68
loop_
_atom_site_label
_atom_site_type_symbol
_atom_site_fract_x
_atom_site_fract_y
_atom_site_fract_z
C1 C -0.07040 0.11550 0.06700
C2 C 0.11950 0.24030 0.04370
H1 H -0.21240 0.13400 0.12500
H2 H 0.16960 0.40120 0.08360
O1 O -0.07960 -0.07960 0.00000
C2D C 0.24030 0.11950 -0.04370
C1D C 0.11550 -0.07040 -0.06700
H2D H 0.40120 0.16960 -0.08360
H1D H 0.13400 -0.21240 -0.12500
#END
