####################################################################### 
# 
# This file contains crystal structure data downloaded from the 
# Cambridge Structural Database (CSD) hosted by the Cambridge 
# Crystallographic Data Centre (CCDC).
# 
# Full information about CCDC data access policies and citation 
# guidelines are available at http://www.ccdc.cam.ac.uk/access/V1 
# 
# Audit and citation data items may have been added by the CCDC. 
# Please retain this information to preserve the provenance of 
# this file and to allow appropriate attribution of the data. 
# 
#######################################################################

data_bz4
_audit_block_doi                 10.5517/ccrphqm
_database_code_depnum_ccdc_archive 'CCDC 705861'
loop_
_citation_id
_citation_doi
_citation_year
1 10.1002/chem.200900010 2009
_audit_update_record             
;
2008-10-19 deposited with the CCDC.	2024-07-10 downloaded from the CCDC.
;

_audit_creation_method           SHELXL-97
_chemical_name_systematic        
;
?
;
_chemical_name_common            ?
_chemical_melting_point          ?
_chemical_formula_moiety         ?
_chemical_formula_sum            'C19 H14 Ag F3 N2 O3'
_chemical_formula_weight         483.19

loop_
_atom_type_symbol
_atom_type_description
_atom_type_scat_dispersion_real
_atom_type_scat_dispersion_imag
_atom_type_scat_source
C C 0.0033 0.0016 'International Tables Vol C Tables 4.2.6.8 and 6.1.1.4'
H H 0.0000 0.0000 'International Tables Vol C Tables 4.2.6.8 and 6.1.1.4'
N N 0.0061 0.0033 'International Tables Vol C Tables 4.2.6.8 and 6.1.1.4'
O O 0.0106 0.0060 'International Tables Vol C Tables 4.2.6.8 and 6.1.1.4'
F F 0.0171 0.0103 'International Tables Vol C Tables 4.2.6.8 and 6.1.1.4'
Ag Ag -0.8971 1.1015 'International Tables Vol C Tables 4.2.6.8 and 6.1.1.4'

_symmetry_cell_setting           Rhombohedral
_symmetry_space_group_name_H-M   R-3

loop_
_symmetry_equiv_pos_as_xyz
'x, y, z'
'-y, x-y, z'
'-x+y, -x, z'
'x+2/3, y+1/3, z+1/3'
'-y+2/3, x-y+1/3, z+1/3'
'-x+y+2/3, -x+1/3, z+1/3'
'x+1/3, y+2/3, z+2/3'
'-y+1/3, x-y+2/3, z+2/3'
'-x+y+1/3, -x+2/3, z+2/3'
'-x, -y, -z'
'y, -x+y, -z'
'x-y, x, -z'
'-x+2/3, -y+1/3, -z+1/3'
'y+2/3, -x+y+1/3, -z+1/3'
'x-y+2/3, x+1/3, -z+1/3'
'-x+1/3, -y+2/3, -z+2/3'
'y+1/3, -x+y+2/3, -z+2/3'
'x-y+1/3, x+2/3, -z+2/3'

_cell_length_a                   34.5383(11)
_cell_length_b                   34.5383(11)
_cell_length_c                   8.5168(6)
_cell_angle_alpha                90.00
_cell_angle_beta                 90.00
_cell_angle_gamma                120.00
_cell_volume                     8798.5(7)
_cell_formula_units_Z            18
_cell_measurement_temperature    293(2)
_cell_measurement_reflns_used    ?
_cell_measurement_theta_min      ?
_cell_measurement_theta_max      ?

_exptl_crystal_description       Block
_exptl_crystal_colour            Colorless
_exptl_crystal_size_max          0.25
_exptl_crystal_size_mid          0.20
_exptl_crystal_size_min          0.15
_exptl_crystal_density_meas      ?
_exptl_crystal_density_diffrn    1.641
_exptl_crystal_density_method    'not measured'
_exptl_crystal_F_000             4320
_exptl_absorpt_coefficient_mu    1.080
_exptl_absorpt_correction_type   MULTI-SCAN
_exptl_absorpt_correction_T_min  0.732675
_exptl_absorpt_correction_T_max  1.000000
_exptl_absorpt_process_details   SADABS

_exptl_special_details           
;
?
;

_diffrn_ambient_temperature      293(2)
_diffrn_radiation_wavelength     0.71073
_diffrn_radiation_type           MoK\a
_diffrn_radiation_source         'fine-focus sealed tube'
_diffrn_radiation_monochromator  graphite
_diffrn_measurement_device_type  'CCD area detector'
_diffrn_measurement_method       'phi and omega scans'
_diffrn_detector_area_resol_mean ?
_diffrn_standards_number         ?
_diffrn_standards_interval_count ?
_diffrn_standards_interval_time  ?
_diffrn_standards_decay_%        ?
_diffrn_reflns_number            14582
_diffrn_reflns_av_R_equivalents  0.0209
_diffrn_reflns_av_sigmaI/netI    0.0165
_diffrn_reflns_limit_h_min       -40
_diffrn_reflns_limit_h_max       37
_diffrn_reflns_limit_k_min       -36
_diffrn_reflns_limit_k_max       41
_diffrn_reflns_limit_l_min       -10
_diffrn_reflns_limit_l_max       8
_diffrn_reflns_theta_min         2.04
_diffrn_reflns_theta_max         25.00
_reflns_number_total             3441
_reflns_number_gt                2895
_reflns_threshold_expression     >2sigma(I)

_computing_data_collection       'Bruker XSCANS'
_computing_cell_refinement       'Bruker XSCANS'
_computing_data_reduction        'Bruker SHELXTL'
_computing_structure_solution    'SHELXS-97 (Sheldrick, 1990)'
_computing_structure_refinement  'SHELXL-97 (Sheldrick, 1997)'
_computing_molecular_graphics    'Bruker SHELXTL'
_computing_publication_material  'Bruker SHELXTL'

_refine_special_details          
;
Refinement of F^2^ against ALL reflections. The weighted R-factor wR and
goodness of fit S are based on F^2^, conventional R-factors R are based
on F, with F set to zero for negative F^2^. The threshold expression of
F^2^ > 2sigma(F^2^) is used only for calculating R-factors(gt) etc. and is
not relevant to the choice of reflections for refinement. R-factors based
on F^2^ are statistically about twice as large as those based on F, and R-
factors based on ALL data will be even larger.
;

_refine_ls_structure_factor_coef Fsqd
_refine_ls_matrix_type           full
_refine_ls_weighting_scheme      calc
_refine_ls_weighting_details     
'calc w=1/[\s^2^(Fo^2^)+(0.0550P)^2^+12.6238P] where P=(Fo^2^+2Fc^2^)/3'
_atom_sites_solution_primary     direct
_atom_sites_solution_secondary   difmap
_atom_sites_solution_hydrogens   geom
_refine_ls_hydrogen_treatment    constr
_refine_ls_extinction_method     none
_refine_ls_extinction_coef       ?
_refine_ls_number_reflns         3441
_refine_ls_number_parameters     241
_refine_ls_number_restraints     0
_refine_ls_R_factor_all          0.0409
_refine_ls_R_factor_gt           0.0326
_refine_ls_wR_factor_ref         0.0996
_refine_ls_wR_factor_gt          0.0920
_refine_ls_goodness_of_fit_ref   1.088
_refine_ls_restrained_S_all      1.088
_refine_ls_shift/su_max          0.001
_refine_ls_shift/su_mean         0.000

loop_
_atom_site_label
_atom_site_type_symbol
_atom_site_fract_x
_atom_site_fract_y
_atom_site_fract_z
_atom_site_U_iso_or_equiv
_atom_site_adp_type
_atom_site_occupancy
_atom_site_symmetry_multiplicity
_atom_site_calc_flag
_atom_site_refinement_flags
_atom_site_disorder_assembly
_atom_site_disorder_group
Ag1 Ag 0.146048(9) 0.317475(10) 0.50608(4) 0.06936(14) Uani 1 1 d . . .
O1 O 0.33354(7) 0.32746(8) 0.7573(3) 0.0578(5) Uani 1 1 d . . .
N1 N 0.20506(8) 0.33689(9) 0.6561(3) 0.0524(6) Uani 1 1 d . . .
N2 N 0.27611(9) 0.19644(9) 0.6037(3) 0.0583(7) Uani 1 1 d . . .
C1 C 0.21878(10) 0.37203(11) 0.7508(4) 0.0559(7) Uani 1 1 d . . .
H1A H 0.2025 0.3869 0.7530 0.067 Uiso 1 1 calc R . .
C2 C 0.25573(11) 0.38734(11) 0.8452(4) 0.0602(8) Uani 1 1 d . . .
H2A H 0.2642 0.4120 0.9100 0.072 Uiso 1 1 calc R . .
C3 C 0.28013(11) 0.36591(11) 0.8428(4) 0.0551(7) Uani 1 1 d . . .
H3A H 0.3056 0.3760 0.9047 0.066 Uiso 1 1 calc R . .
C4 C 0.26626(9) 0.32892(9) 0.7467(3) 0.0442(6) Uani 1 1 d . . .
C5 C 0.22850(10) 0.31562(10) 0.6550(3) 0.0489(7) Uani 1 1 d . . .
H5A H 0.2191 0.2909 0.5900 0.059 Uiso 1 1 calc R . .
C6 C 0.29334(10) 0.30612(10) 0.7384(3) 0.0455(6) Uani 1 1 d . . .
C7 C 0.27044(10) 0.25721(10) 0.7112(3) 0.0471(6) Uani 1 1 d . . .
C8 C 0.22921(12) 0.22799(12) 0.7735(4) 0.0645(9) Uani 1 1 d . . .
H8A H 0.2133 0.2385 0.8303 0.077 Uiso 1 1 calc R . .
C9 C 0.21206(14) 0.18291(13) 0.7500(5) 0.0807(12) Uani 1 1 d . . .
H9A H 0.1844 0.1624 0.7920 0.097 Uiso 1 1 calc R . .
C10 C 0.23595(13) 0.16854(12) 0.6642(5) 0.0716(10) Uani 1 1 d . . .
H10A H 0.2237 0.1380 0.6472 0.086 Uiso 1 1 calc R . .
C11 C 0.29275(11) 0.23995(10) 0.6280(4) 0.0507(7) Uani 1 1 d . . .
H11A H 0.3208 0.2598 0.5870 0.061 Uiso 1 1 calc R . .
C12 C 0.15207(11) 0.40761(13) 0.4681(5) 0.0671(9) Uani 1 1 d . . .
O2 O 0.15464(11) 0.38795(12) 0.3537(4) 0.1029(10) Uani 1 1 d . . .
O3 O 0.14393(14) 0.39493(12) 0.6038(4) 0.1056(10) Uani 1 1 d . . .
C13 C 0.16120(17) 0.45484(17) 0.4347(6) 0.0923(13) Uani 1 1 d . . .
F1 F 0.15048(12) 0.47290(10) 0.5495(4) 0.1238(11) Uani 1 1 d . . .
F2 F 0.20330(13) 0.48183(11) 0.4027(6) 0.1693(18) Uani 1 1 d . . .
F3 F 0.13558(17) 0.45444(17) 0.3133(4) 0.1629(17) Uani 1 1 d . . .
C21 C 0.1299(8) 0.0542(6) 0.4074(11) 0.49(2) Uani 1 1 d G . .
H21A H 0.1299 0.0492 0.5147 0.594 Uiso 1 1 calc R . .
C22 C 0.0902(5) 0.0441(6) 0.332(2) 0.46(2) Uani 1 1 d G . .
H22A H 0.0637 0.0324 0.3892 0.554 Uiso 1 1 calc R . .
C23 C 0.0901(5) 0.0516(6) 0.172(2) 0.335(11) Uani 1 1 d G . .
H23A H 0.0635 0.0449 0.1217 0.403 Uiso 1 1 calc R . .
C24 C 0.1296(7) 0.0692(5) 0.0868(11) 0.368(15) Uani 1 1 d G . .
H24A H 0.1295 0.0742 -0.0205 0.441 Uiso 1 1 calc R . .
C25 C 0.1693(4) 0.0792(3) 0.162(2) 0.249(8) Uani 1 1 d G . .
H25A H 0.1958 0.0910 0.1050 0.299 Uiso 1 1 calc R . .
C26 C 0.1694(5) 0.0717(5) 0.322(2) 0.287(9) Uani 1 1 d G . .
H26A H 0.1960 0.0785 0.3726 0.344 Uiso 1 1 calc R . .

loop_
_atom_site_aniso_label
_atom_site_aniso_U_11
_atom_site_aniso_U_22
_atom_site_aniso_U_33
_atom_site_aniso_U_23
_atom_site_aniso_U_13
_atom_site_aniso_U_12
Ag1 0.05130(18) 0.0837(2) 0.0772(2) -0.01467(14) -0.01803(12) 0.03678(15)
O1 0.0451(12) 0.0707(14) 0.0590(13) -0.0097(11) -0.0057(9) 0.0300(11)
N1 0.0464(13) 0.0585(15) 0.0576(15) -0.0079(12) -0.0064(11) 0.0303(12)
N2 0.0680(17) 0.0559(16) 0.0601(16) 0.0065(12) 0.0125(13) 0.0378(14)
C1 0.0551(18) 0.0578(18) 0.0634(19) -0.0057(15) -0.0026(15) 0.0346(15)
C2 0.065(2) 0.0551(18) 0.066(2) -0.0146(15) -0.0081(16) 0.0338(16)
C3 0.0536(17) 0.0562(17) 0.0576(18) -0.0101(14) -0.0106(14) 0.0289(15)
C4 0.0456(15) 0.0493(15) 0.0391(14) -0.0010(12) 0.0006(11) 0.0247(13)
C5 0.0477(16) 0.0498(16) 0.0501(16) -0.0061(13) -0.0027(13) 0.0250(13)
C6 0.0515(17) 0.0557(17) 0.0345(14) -0.0003(12) 0.0001(12) 0.0307(14)
C7 0.0527(16) 0.0565(17) 0.0407(14) 0.0039(12) 0.0038(12) 0.0337(14)
C8 0.067(2) 0.061(2) 0.073(2) 0.0105(16) 0.0224(17) 0.0383(17)
C9 0.072(2) 0.058(2) 0.110(3) 0.022(2) 0.036(2) 0.0317(19)
C10 0.078(2) 0.0510(19) 0.089(3) 0.0116(17) 0.017(2) 0.0339(18)
C11 0.0542(17) 0.0533(17) 0.0513(17) 0.0052(13) 0.0087(13) 0.0319(14)
C12 0.0520(19) 0.076(2) 0.085(3) -0.013(2) -0.0029(17) 0.0402(18)
O2 0.097(2) 0.107(2) 0.115(3) -0.039(2) -0.0064(19) 0.059(2)
O3 0.141(3) 0.112(3) 0.093(2) 0.0160(19) 0.010(2) 0.086(2)
C13 0.092(3) 0.102(3) 0.104(3) 0.016(3) 0.030(3) 0.064(3)
F1 0.160(3) 0.104(2) 0.141(3) -0.0095(18) 0.025(2) 0.091(2)
F2 0.135(3) 0.096(2) 0.275(5) 0.048(3) 0.098(3) 0.057(2)
F3 0.240(5) 0.231(5) 0.112(2) 0.037(3) 0.012(3) 0.188(4)
C21 0.39(3) 1.00(8) 0.26(2) 0.10(3) 0.07(2) 0.48(5)
C22 0.41(4) 0.73(6) 0.25(2) 0.12(3) -0.04(2) 0.29(3)
C23 0.33(3) 0.44(3) 0.27(2) -0.03(2) -0.042(19) 0.22(2)
C24 0.26(2) 0.34(3) 0.37(3) 0.01(2) -0.09(2) 0.04(2)
C25 0.235(17) 0.144(8) 0.287(19) -0.022(11) 0.066(13) 0.034(9)
C26 0.37(3) 0.35(2) 0.224(16) -0.044(16) -0.039(16) 0.25(2)

_geom_special_details            
;
All esds (except the esd in the dihedral angle between two l.s. planes)
are estimated using the full covariance matrix. The cell esds are taken
into account individually in the estimation of esds in distances, angles
and torsion angles; correlations between esds in cell parameters are only
used when they are defined by crystal symmetry. An approximate (isotropic)
treatment of cell esds is used for estimating esds involving l.s. planes.
;

loop_
_geom_bond_atom_site_label_1
_geom_bond_atom_site_label_2
_geom_bond_distance
_geom_bond_site_symmetry_2
_geom_bond_publ_flag
Ag1 N1 2.207(2) . ?
Ag1 N2 2.213(3) 12_556 ?
Ag1 Ag1 3.2135(7) 16 ?
O1 C6 1.214(3) . ?
N1 C1 1.332(4) . ?
N1 C5 1.337(4) . ?
N2 C11 1.330(4) . ?
N2 C10 1.335(5) . ?
N2 Ag1 2.213(3) 11_556 ?
C1 C2 1.371(5) . ?
C1 H1A 0.9300 . ?
C2 C3 1.372(4) . ?
C2 H2A 0.9300 . ?
C3 C4 1.385(4) . ?
C3 H3A 0.9300 . ?
C4 C5 1.387(4) . ?
C4 C6 1.495(4) . ?
C5 H5A 0.9300 . ?
C6 C7 1.482(4) . ?
C7 C8 1.375(4) . ?
C7 C11 1.382(4) . ?
C8 C9 1.376(5) . ?
C8 H8A 0.9300 . ?
C9 C10 1.368(5) . ?
C9 H9A 0.9300 . ?
C10 H10A 0.9300 . ?
C11 H11A 0.9300 . ?
C12 O2 1.216(5) . ?
C12 O3 1.218(5) . ?
C12 C13 1.526(6) . ?
C13 F2 1.305(6) . ?
C13 F1 1.309(5) . ?
C13 F3 1.356(6) . ?
C21 C22 1.3900 . ?
C21 C26 1.3900 . ?
C21 H21A 0.9300 . ?
C22 C23 1.3900 . ?
C22 H22A 0.9300 . ?
C23 C24 1.3900 . ?
C23 H23A 0.9300 . ?
C24 C25 1.3900 . ?
C24 H24A 0.9300 . ?
C25 C26 1.3900 . ?
C25 H25A 0.9300 . ?
C26 H26A 0.9300 . ?

loop_
_geom_angle_atom_site_label_1
_geom_angle_atom_site_label_2
_geom_angle_atom_site_label_3
_geom_angle
_geom_angle_site_symmetry_1
_geom_angle_site_symmetry_3
_geom_angle_publ_flag
N1 Ag1 N2 160.43(10) . 12_556 ?
N1 Ag1 Ag1 104.00(7) . 16 ?
N2 Ag1 Ag1 88.44(7) 12_556 16 ?
C1 N1 C5 117.9(3) . . ?
C1 N1 Ag1 118.8(2) . . ?
C5 N1 Ag1 123.4(2) . . ?
C11 N2 C10 117.5(3) . . ?
C11 N2 Ag1 120.6(2) . 11_556 ?
C10 N2 Ag1 121.5(2) . 11_556 ?
N1 C1 C2 123.0(3) . . ?
N1 C1 H1A 118.5 . . ?
C2 C1 H1A 118.5 . . ?
C1 C2 C3 119.2(3) . . ?
C1 C2 H2A 120.4 . . ?
C3 C2 H2A 120.4 . . ?
C2 C3 C4 118.9(3) . . ?
C2 C3 H3A 120.5 . . ?
C4 C3 H3A 120.5 . . ?
C3 C4 C5 118.2(3) . . ?
C3 C4 C6 119.6(3) . . ?
C5 C4 C6 122.1(3) . . ?
N1 C5 C4 122.8(3) . . ?
N1 C5 H5A 118.6 . . ?
C4 C5 H5A 118.6 . . ?
O1 C6 C7 120.6(3) . . ?
O1 C6 C4 120.1(3) . . ?
C7 C6 C4 119.3(2) . . ?
C8 C7 C11 118.5(3) . . ?
C8 C7 C6 122.9(3) . . ?
C11 C7 C6 118.5(3) . . ?
C7 C8 C9 118.4(3) . . ?
C7 C8 H8A 120.8 . . ?
C9 C8 H8A 120.8 . . ?
C10 C9 C8 119.5(3) . . ?
C10 C9 H9A 120.3 . . ?
C8 C9 H9A 120.3 . . ?
N2 C10 C9 122.8(3) . . ?
N2 C10 H10A 118.6 . . ?
C9 C10 H10A 118.6 . . ?
N2 C11 C7 123.3(3) . . ?
N2 C11 H11A 118.4 . . ?
C7 C11 H11A 118.4 . . ?
O2 C12 O3 128.9(4) . . ?
O2 C12 C13 114.4(4) . . ?
O3 C12 C13 116.7(4) . . ?
F2 C13 F1 107.2(5) . . ?
F2 C13 F3 109.7(5) . . ?
F1 C13 F3 103.6(4) . . ?
F2 C13 C12 111.3(4) . . ?
F1 C13 C12 114.4(4) . . ?
F3 C13 C12 110.3(5) . . ?
C22 C21 C26 120.0 . . ?
C22 C21 H21A 120.0 . . ?
C26 C21 H21A 120.0 . . ?
C21 C22 C23 120.0 . . ?
C21 C22 H22A 120.0 . . ?
C23 C22 H22A 120.0 . . ?
C24 C23 C22 120.0 . . ?
C24 C23 H23A 120.0 . . ?
C22 C23 H23A 120.0 . . ?
C25 C24 C23 120.0 . . ?
C25 C24 H24A 120.0 . . ?
C23 C24 H24A 120.0 . . ?
C24 C25 C26 120.0 . . ?
C24 C25 H25A 120.0 . . ?
C26 C25 H25A 120.0 . . ?
C25 C26 C21 120.0 . . ?
C25 C26 H26A 120.0 . . ?
C21 C26 H26A 120.0 . . ?

loop_
_geom_torsion_atom_site_label_1
_geom_torsion_atom_site_label_2
_geom_torsion_atom_site_label_3
_geom_torsion_atom_site_label_4
_geom_torsion
_geom_torsion_site_symmetry_1
_geom_torsion_site_symmetry_2
_geom_torsion_site_symmetry_3
_geom_torsion_site_symmetry_4
_geom_torsion_publ_flag
N2 Ag1 N1 C1 -126.0(3) 12_556 . . . ?
Ag1 Ag1 N1 C1 105.9(2) 16 . . . ?
N2 Ag1 N1 C5 55.3(4) 12_556 . . . ?
Ag1 Ag1 N1 C5 -72.9(2) 16 . . . ?
C5 N1 C1 C2 0.5(5) . . . . ?
Ag1 N1 C1 C2 -178.2(3) . . . . ?
N1 C1 C2 C3 0.2(5) . . . . ?
C1 C2 C3 C4 -1.0(5) . . . . ?
C2 C3 C4 C5 1.0(5) . . . . ?
C2 C3 C4 C6 177.9(3) . . . . ?
C1 N1 C5 C4 -0.6(5) . . . . ?
Ag1 N1 C5 C4 178.2(2) . . . . ?
C3 C4 C5 N1 -0.2(4) . . . . ?
C6 C4 C5 N1 -177.0(3) . . . . ?
C3 C4 C6 O1 -30.4(4) . . . . ?
C5 C4 C6 O1 146.4(3) . . . . ?
C3 C4 C6 C7 148.0(3) . . . . ?
C5 C4 C6 C7 -35.2(4) . . . . ?
O1 C6 C7 C8 141.8(3) . . . . ?
C4 C6 C7 C8 -36.6(4) . . . . ?
O1 C6 C7 C11 -33.8(4) . . . . ?
C4 C6 C7 C11 147.7(3) . . . . ?
C11 C7 C8 C9 -0.1(5) . . . . ?
C6 C7 C8 C9 -175.8(3) . . . . ?
C7 C8 C9 C10 -0.9(6) . . . . ?
C11 N2 C10 C9 -0.7(6) . . . . ?
Ag1 N2 C10 C9 171.5(3) 11_556 . . . ?
C8 C9 C10 N2 1.3(7) . . . . ?
C10 N2 C11 C7 -0.4(5) . . . . ?
Ag1 N2 C11 C7 -172.7(2) 11_556 . . . ?
C8 C7 C11 N2 0.8(5) . . . . ?
C6 C7 C11 N2 176.6(3) . . . . ?
O2 C12 C13 F2 -70.3(6) . . . . ?
O3 C12 C13 F2 108.6(5) . . . . ?
O2 C12 C13 F1 168.0(4) . . . . ?
O3 C12 C13 F1 -13.1(6) . . . . ?
O2 C12 C13 F3 51.6(5) . . . . ?
O3 C12 C13 F3 -129.4(4) . . . . ?
C26 C21 C22 C23 0.0 . . . . ?
C21 C22 C23 C24 0.0 . . . . ?
C22 C23 C24 C25 0.0 . . . . ?
C23 C24 C25 C26 0.0 . . . . ?
C24 C25 C26 C21 0.0 . . . . ?
C22 C21 C26 C25 0.0 . . . . ?

_diffrn_measured_fraction_theta_max 1.000
_diffrn_reflns_theta_full        25.00
_diffrn_measured_fraction_theta_full 1.000
_refine_diff_density_max         0.412
_refine_diff_density_min         -0.362
_refine_diff_density_rms         0.059
