####################################################################### 
# 
# This file contains crystal structure data downloaded from the 
# Cambridge Structural Database (CSD) hosted by the Cambridge 
# Crystallographic Data Centre (CCDC).
# 
# Full information about CCDC data access policies and citation 
# guidelines are available at http://www.ccdc.cam.ac.uk/access/V1 
# 
# Audit and citation data items may have been added by the CCDC. 
# Please retain this information to preserve the provenance of 
# this file and to allow appropriate attribution of the data. 
# 
#######################################################################

data_clbz
_audit_block_doi                 10.5517/ccrphrn
_database_code_depnum_ccdc_archive 'CCDC 705862'
loop_
_citation_id
_citation_doi
_citation_year
1 10.1002/chem.200900010 2009
_audit_update_record             
;
2008-10-19 deposited with the CCDC.	2024-07-10 downloaded from the CCDC.
;

_audit_creation_method           SHELXL-97
_chemical_name_systematic        
;
?
;
_chemical_name_common            ?
_chemical_melting_point          ?
_chemical_formula_moiety         ?
_chemical_formula_sum            'C19 H13 Ag Cl F3 N2 O3'
_chemical_formula_weight         517.63

loop_
_atom_type_symbol
_atom_type_description
_atom_type_scat_dispersion_real
_atom_type_scat_dispersion_imag
_atom_type_scat_source
C C 0.0033 0.0016 'International Tables Vol C Tables 4.2.6.8 and 6.1.1.4'
H H 0.0000 0.0000 'International Tables Vol C Tables 4.2.6.8 and 6.1.1.4'
N N 0.0061 0.0033 'International Tables Vol C Tables 4.2.6.8 and 6.1.1.4'
O O 0.0106 0.0060 'International Tables Vol C Tables 4.2.6.8 and 6.1.1.4'
F F 0.0171 0.0103 'International Tables Vol C Tables 4.2.6.8 and 6.1.1.4'
Cl Cl 0.1484 0.1585 'International Tables Vol C Tables 4.2.6.8 and 6.1.1.4'
Ag Ag -0.8971 1.1015 'International Tables Vol C Tables 4.2.6.8 and 6.1.1.4'

_symmetry_cell_setting           Rhombohedral
_symmetry_space_group_name_H-M   R-3

loop_
_symmetry_equiv_pos_as_xyz
'x, y, z'
'-y, x-y, z'
'-x+y, -x, z'
'x+2/3, y+1/3, z+1/3'
'-y+2/3, x-y+1/3, z+1/3'
'-x+y+2/3, -x+1/3, z+1/3'
'x+1/3, y+2/3, z+2/3'
'-y+1/3, x-y+2/3, z+2/3'
'-x+y+1/3, -x+2/3, z+2/3'
'-x, -y, -z'
'y, -x+y, -z'
'x-y, x, -z'
'-x+2/3, -y+1/3, -z+1/3'
'y+2/3, -x+y+1/3, -z+1/3'
'x-y+2/3, x+1/3, -z+1/3'
'-x+1/3, -y+2/3, -z+2/3'
'y+1/3, -x+y+2/3, -z+2/3'
'x-y+1/3, x+2/3, -z+2/3'

_cell_length_a                   34.091(3)
_cell_length_b                   34.091(3)
_cell_length_c                   8.5083(13)
_cell_angle_alpha                90.00
_cell_angle_beta                 90.00
_cell_angle_gamma                120.00
_cell_volume                     8563.4(16)
_cell_formula_units_Z            18
_cell_measurement_temperature    123(2)
_cell_measurement_reflns_used    5337
_cell_measurement_theta_min      2.39
_cell_measurement_theta_max      27.79

_exptl_crystal_description       Block
_exptl_crystal_colour            Colorless
_exptl_crystal_size_max          0.25
_exptl_crystal_size_mid          0.19
_exptl_crystal_size_min          0.17
_exptl_crystal_density_meas      ?
_exptl_crystal_density_diffrn    1.807
_exptl_crystal_density_method    'not measured'
_exptl_crystal_F_000             4608
_exptl_absorpt_coefficient_mu    1.252
_exptl_absorpt_correction_type   MULTI-SCAN
_exptl_absorpt_correction_T_min  0.813013
_exptl_absorpt_correction_T_max  1.000000
_exptl_absorpt_process_details   SADABS

_exptl_special_details           
;
?
;

_diffrn_ambient_temperature      123(2)
_diffrn_radiation_wavelength     0.71073
_diffrn_radiation_type           MoK\a
_diffrn_radiation_source         'fine-focus sealed tube'
_diffrn_radiation_monochromator  graphite
_diffrn_measurement_device_type  'CCD area detector'
_diffrn_measurement_method       'phi and omega scans'
_diffrn_detector_area_resol_mean ?
_diffrn_standards_number         ?
_diffrn_standards_interval_count ?
_diffrn_standards_interval_time  ?
_diffrn_standards_decay_%        ?
_diffrn_reflns_number            15129
_diffrn_reflns_av_R_equivalents  0.0325
_diffrn_reflns_av_sigmaI/netI    0.0287
_diffrn_reflns_limit_h_min       -40
_diffrn_reflns_limit_h_max       40
_diffrn_reflns_limit_k_min       -40
_diffrn_reflns_limit_k_max       40
_diffrn_reflns_limit_l_min       -6
_diffrn_reflns_limit_l_max       10
_diffrn_reflns_theta_min         2.07
_diffrn_reflns_theta_max         25.01
_reflns_number_total             3358
_reflns_number_gt                3027
_reflns_threshold_expression     >2sigma(I)

_computing_data_collection       'Bruker SMART'
_computing_cell_refinement       'Bruker SMART'
_computing_data_reduction        'Bruker SAINT'
_computing_structure_solution    'SHELXS-97 (Sheldrick, 1990)'
_computing_structure_refinement  'SHELXL-97 (Sheldrick, 1997)'
_computing_molecular_graphics    'Bruker SHELXTL'
_computing_publication_material  'Bruker SHELXTL'

_refine_special_details          
;
Refinement of F^2^ against ALL reflections. The weighted R-factor wR and
goodness of fit S are based on F^2^, conventional R-factors R are based
on F, with F set to zero for negative F^2^. The threshold expression of
F^2^ > 2sigma(F^2^) is used only for calculating R-factors(gt) etc. and is
not relevant to the choice of reflections for refinement. R-factors based
on F^2^ are statistically about twice as large as those based on F, and R-
factors based on ALL data will be even larger.
;

_refine_ls_structure_factor_coef Fsqd
_refine_ls_matrix_type           full
_refine_ls_weighting_scheme      calc
_refine_ls_weighting_details     
'calc w=1/[\s^2^(Fo^2^)+(0.0271P)^2^+43.1977P] where P=(Fo^2^+2Fc^2^)/3'
_atom_sites_solution_primary     direct
_atom_sites_solution_secondary   difmap
_atom_sites_solution_hydrogens   geom
_refine_ls_hydrogen_treatment    constr
_refine_ls_extinction_method     none
_refine_ls_extinction_coef       ?
_refine_ls_number_reflns         3358
_refine_ls_number_parameters     301
_refine_ls_number_restraints     0
_refine_ls_R_factor_all          0.0439
_refine_ls_R_factor_gt           0.0382
_refine_ls_wR_factor_ref         0.0783
_refine_ls_wR_factor_gt          0.0762
_refine_ls_goodness_of_fit_ref   1.116
_refine_ls_restrained_S_all      1.116
_refine_ls_shift/su_max          0.001
_refine_ls_shift/su_mean         0.000

loop_
_atom_site_label
_atom_site_type_symbol
_atom_site_fract_x
_atom_site_fract_y
_atom_site_fract_z
_atom_site_U_iso_or_equiv
_atom_site_adp_type
_atom_site_occupancy
_atom_site_symmetry_multiplicity
_atom_site_calc_flag
_atom_site_refinement_flags
_atom_site_disorder_assembly
_atom_site_disorder_group
Ag1 Ag 0.148538(9) 0.319535(10) 0.50367(3) 0.02995(11) Uani 1 1 d . . .
O1 O 0.33621(8) 0.32813(8) 0.7724(3) 0.0238(5) Uani 1 1 d . . .
N1 N 0.20688(9) 0.33823(9) 0.6576(3) 0.0237(6) Uani 1 1 d . . .
N2 N 0.27827(10) 0.19565(10) 0.6112(3) 0.0261(7) Uani 1 1 d . . .
C1 C 0.21948(11) 0.37282(11) 0.7574(4) 0.0250(8) Uani 1 1 d . . .
H1A H 0.2024 0.3879 0.7591 0.030 Uiso 1 1 calc R . .
C2 C 0.25585(12) 0.38772(12) 0.8579(4) 0.0252(8) Uani 1 1 d . . .
H2A H 0.2635 0.4123 0.9273 0.030 Uiso 1 1 calc R . .
C3 C 0.28100(12) 0.36627(11) 0.8561(4) 0.0237(8) Uani 1 1 d . . .
H3A H 0.3067 0.3763 0.9221 0.028 Uiso 1 1 calc R . .
C4 C 0.26791(11) 0.32969(11) 0.7555(4) 0.0201(7) Uani 1 1 d . . .
C5 C 0.23096(11) 0.31685(11) 0.6588(4) 0.0217(7) Uani 1 1 d . . .
H5A H 0.2222 0.2918 0.5902 0.026 Uiso 1 1 calc R . .
C6 C 0.29562(12) 0.30675(12) 0.7506(4) 0.0211(7) Uani 1 1 d . . .
C7 C 0.27221(11) 0.25712(11) 0.7209(4) 0.0214(7) Uani 1 1 d . . .
C8 C 0.22980(12) 0.22739(12) 0.7799(4) 0.0280(8) Uani 1 1 d . . .
H8A H 0.2132 0.2382 0.8374 0.034 Uiso 1 1 calc R . .
C9 C 0.21195(13) 0.18168(13) 0.7538(5) 0.0337(9) Uani 1 1 d . . .
H9A H 0.1829 0.1604 0.7934 0.040 Uiso 1 1 calc R . .
C10 C 0.23678(13) 0.16724(13) 0.6696(4) 0.0306(9) Uani 1 1 d . . .
H10A H 0.2241 0.1357 0.6517 0.037 Uiso 1 1 calc R . .
C11 C 0.29534(12) 0.23975(11) 0.6379(4) 0.0236(8) Uani 1 1 d . . .
H11A H 0.3247 0.2603 0.5986 0.028 Uiso 1 1 calc R . .
C12 C 0.15300(12) 0.41031(13) 0.4668(5) 0.0307(9) Uani 1 1 d . . .
O2 O 0.15262(10) 0.39042(11) 0.3459(4) 0.0507(8) Uani 1 1 d . . .
O3 O 0.14808(11) 0.39744(10) 0.6039(4) 0.0462(7) Uani 1 1 d . . .
C13 C 0.16225(14) 0.45879(15) 0.4403(5) 0.0389(10) Uani 1 1 d . . .
F1 F 0.15157(9) 0.47581(8) 0.5630(3) 0.0503(7) Uani 1 1 d . . .
F2 F 0.20650(9) 0.48684(8) 0.4117(3) 0.0539(7) Uani 1 1 d . . .
F3 F 0.13957(10) 0.46179(11) 0.3171(3) 0.0659(8) Uani 1 1 d . . .
Cl21 Cl 0.21374(6) 0.08798(6) 0.3566(2) 0.0382(4) Uani 0.60 1 d P A 1
C21 C 0.16293(16) 0.07590(19) 0.2763(7) 0.0346(15) Uani 0.60 1 d PG A 1
C22 C 0.1252(2) 0.0604(3) 0.3731(6) 0.077(5) Uani 0.60 1 d PG A 1
H22A H 0.1277 0.0562 0.4822 0.092 Uiso 0.60 1 calc PR A 1
C23 C 0.08378(18) 0.0511(3) 0.3101(9) 0.096(5) Uani 0.60 1 d PG A 1
H23A H 0.0580 0.0405 0.3763 0.115 Uiso 0.60 1 calc PR A 1
C24 C 0.0801(2) 0.0572(3) 0.1504(10) 0.077(3) Uani 0.60 1 d PG A 1
H24A H 0.0518 0.0509 0.1074 0.092 Uiso 0.60 1 calc PR A 1
C25 C 0.1178(3) 0.0727(3) 0.0537(7) 0.082(4) Uani 0.60 1 d PG A 1
H25A H 0.1153 0.0769 -0.0555 0.098 Uiso 0.60 1 calc PR A 1
C26 C 0.1592(2) 0.0820(3) 0.1166(6) 0.056(3) Uani 0.60 1 d PG A 1
H26A H 0.1850 0.0926 0.0505 0.067 Uiso 0.60 1 calc PR A 1
Cl31 Cl 0.05210(16) 0.04728(18) 0.2788(6) 0.1045(16) Uani 0.40 1 d P B 2
C31 C 0.1073(3) 0.0611(4) 0.2606(13) 0.062(4) Uani 0.40 1 d PG B 2
C32 C 0.1304(3) 0.0788(4) 0.1203(10) 0.050(4) Uani 0.40 1 d PG B 2
H32A H 0.1155 0.0837 0.0345 0.060 Uiso 0.40 1 calc PR B 2
C33 C 0.1752(3) 0.0892(4) 0.1056(9) 0.052(5) Uani 0.40 1 d PG B 2
H33A H 0.1909 0.1013 0.0097 0.062 Uiso 0.40 1 calc PR B 2
C34 C 0.1969(3) 0.0821(3) 0.2312(12) 0.060(4) Uani 0.40 1 d PG B 2
H34A H 0.2276 0.0892 0.2211 0.072 Uiso 0.40 1 calc PR B 2
C35 C 0.1739(4) 0.0644(4) 0.3715(10) 0.081(5) Uani 0.40 1 d PG B 2
H35A H 0.1887 0.0595 0.4573 0.097 Uiso 0.40 1 calc PR B 2
C36 C 0.1290(4) 0.0539(4) 0.3862(10) 0.069(7) Uani 0.40 1 d PG B 2
H36A H 0.1133 0.0419 0.4821 0.083 Uiso 0.40 1 calc PR B 2

loop_
_atom_site_aniso_label
_atom_site_aniso_U_11
_atom_site_aniso_U_22
_atom_site_aniso_U_33
_atom_site_aniso_U_23
_atom_site_aniso_U_13
_atom_site_aniso_U_12
Ag1 0.02115(16) 0.03449(18) 0.03304(18) -0.00474(12) -0.00796(12) 0.01303(13)
O1 0.0209(13) 0.0320(14) 0.0200(13) -0.0010(10) -0.0007(10) 0.0143(11)
N1 0.0200(15) 0.0244(15) 0.0258(16) -0.0017(13) -0.0003(12) 0.0104(13)
N2 0.0323(17) 0.0262(16) 0.0257(16) 0.0028(13) 0.0047(13) 0.0191(14)
C1 0.0227(18) 0.0232(18) 0.031(2) 0.0008(15) 0.0024(15) 0.0127(15)
C2 0.0264(19) 0.0230(18) 0.0275(19) -0.0053(15) -0.0019(15) 0.0133(15)
C3 0.0214(18) 0.0229(18) 0.0252(19) -0.0002(15) -0.0005(14) 0.0098(15)
C4 0.0194(17) 0.0211(17) 0.0186(17) 0.0018(14) 0.0043(14) 0.0093(14)
C5 0.0236(18) 0.0194(17) 0.0190(18) 0.0008(14) 0.0036(14) 0.0084(15)
C6 0.027(2) 0.0282(19) 0.0107(17) 0.0014(14) 0.0010(14) 0.0158(16)
C7 0.0268(18) 0.0252(18) 0.0177(18) 0.0023(14) 0.0013(14) 0.0171(16)
C8 0.030(2) 0.029(2) 0.029(2) 0.0057(16) 0.0087(16) 0.0177(17)
C9 0.032(2) 0.027(2) 0.041(2) 0.0084(17) 0.0128(18) 0.0139(17)
C10 0.034(2) 0.0230(19) 0.036(2) 0.0053(16) 0.0047(17) 0.0157(17)
C11 0.0251(18) 0.0246(19) 0.0223(18) 0.0056(15) 0.0032(15) 0.0133(16)
C12 0.0164(18) 0.035(2) 0.044(3) -0.0103(19) -0.0036(16) 0.0148(17)
O2 0.0372(17) 0.0547(19) 0.058(2) -0.0290(16) -0.0020(15) 0.0214(15)
O3 0.059(2) 0.0427(17) 0.049(2) 0.0059(14) -0.0013(15) 0.0342(16)
C13 0.040(2) 0.049(3) 0.039(2) 0.0063(19) 0.0113(19) 0.030(2)
F1 0.0683(17) 0.0406(14) 0.0534(16) 0.0012(12) 0.0208(13) 0.0359(14)
F2 0.0478(15) 0.0409(14) 0.0715(18) 0.0119(13) 0.0241(13) 0.0211(13)
F3 0.076(2) 0.109(2) 0.0487(17) 0.0273(16) 0.0152(14) 0.073(2)
Cl21 0.0366(10) 0.0313(9) 0.0448(11) 0.0036(8) 0.0014(8) 0.0155(8)
C21 0.037(4) 0.021(3) 0.040(4) -0.004(3) 0.001(3) 0.011(3)
C22 0.068(11) 0.124(14) 0.039(9) -0.009(8) 0.002(8) 0.049(11)
C23 0.032(6) 0.156(13) 0.097(10) -0.028(8) 0.002(6) 0.045(7)
C24 0.055(6) 0.086(7) 0.086(8) -0.010(6) -0.025(6) 0.033(6)
C25 0.070(7) 0.081(8) 0.053(8) 0.016(7) -0.027(6) 0.006(6)
C26 0.042(7) 0.046(6) 0.056(7) 0.010(5) 0.008(5) 0.004(5)
Cl31 0.061(3) 0.114(4) 0.117(4) -0.012(3) 0.024(3) 0.028(3)
C31 0.052(9) 0.054(8) 0.067(11) -0.017(7) 0.015(8) 0.016(8)
C32 0.079(13) 0.040(8) 0.027(8) 0.009(6) 0.019(9) 0.027(9)
C33 0.053(10) 0.059(11) 0.038(8) 0.006(7) 0.002(6) 0.024(9)
C34 0.061(9) 0.034(7) 0.086(11) 0.007(7) 0.020(8) 0.025(6)
C35 0.134(18) 0.082(12) 0.049(9) 0.012(8) 0.016(10) 0.071(13)
C36 0.056(14) 0.073(14) 0.064(15) 0.017(12) 0.023(11) 0.022(12)

_geom_special_details            
;
All esds (except the esd in the dihedral angle between two l.s. planes)
are estimated using the full covariance matrix. The cell esds are taken
into account individually in the estimation of esds in distances, angles
and torsion angles; correlations between esds in cell parameters are only
used when they are defined by crystal symmetry. An approximate (isotropic)
treatment of cell esds is used for estimating esds involving l.s. planes.
;

loop_
_geom_bond_atom_site_label_1
_geom_bond_atom_site_label_2
_geom_bond_distance
_geom_bond_site_symmetry_2
_geom_bond_publ_flag
Ag1 N1 2.193(3) . ?
Ag1 N2 2.196(3) 12_556 ?
Ag1 Ag1 3.1068(7) 16 ?
O1 C6 1.213(4) . ?
N1 C1 1.338(4) . ?
N1 C5 1.343(4) . ?
N2 C11 1.333(4) . ?
N2 C10 1.347(5) . ?
N2 Ag1 2.196(3) 11_556 ?
C1 C2 1.377(5) . ?
C2 C3 1.378(5) . ?
C3 C4 1.389(5) . ?
C4 C5 1.380(5) . ?
C4 C6 1.498(5) . ?
C6 C7 1.488(5) . ?
C7 C8 1.380(5) . ?
C7 C11 1.392(5) . ?
C8 C9 1.378(5) . ?
C9 C10 1.374(5) . ?
C12 O2 1.228(5) . ?
C12 O3 1.228(5) . ?
C12 C13 1.537(6) . ?
C13 F1 1.331(5) . ?
C13 F3 1.337(5) . ?
C13 F2 1.344(5) . ?
Cl21 C21 1.710(5) . ?
C21 C22 1.3900 . ?
C21 C26 1.3900 . ?
C22 C23 1.3900 . ?
C23 C24 1.3900 . ?
C24 C25 1.3900 . ?
C25 C26 1.3900 . ?
Cl31 C31 1.703(9) . ?
C31 C32 1.3900 . ?
C31 C36 1.3900 . ?
C32 C33 1.3900 . ?
C33 C34 1.3900 . ?
C34 C35 1.3900 . ?
C35 C36 1.3900 . ?

loop_
_geom_angle_atom_site_label_1
_geom_angle_atom_site_label_2
_geom_angle_atom_site_label_3
_geom_angle
_geom_angle_site_symmetry_1
_geom_angle_site_symmetry_3
_geom_angle_publ_flag
N1 Ag1 N2 160.19(11) . 12_556 ?
N1 Ag1 Ag1 107.66(8) . 16 ?
N2 Ag1 Ag1 84.46(8) 12_556 16 ?
C1 N1 C5 117.4(3) . . ?
C1 N1 Ag1 118.7(2) . . ?
C5 N1 Ag1 124.0(2) . . ?
C11 N2 C10 117.2(3) . . ?
C11 N2 Ag1 120.4(2) . 11_556 ?
C10 N2 Ag1 122.2(2) . 11_556 ?
N1 C1 C2 123.5(3) . . ?
C1 C2 C3 118.8(3) . . ?
C2 C3 C4 118.5(3) . . ?
C5 C4 C3 119.0(3) . . ?
C5 C4 C6 122.1(3) . . ?
C3 C4 C6 118.8(3) . . ?
N1 C5 C4 122.8(3) . . ?
O1 C6 C7 120.8(3) . . ?
O1 C6 C4 120.6(3) . . ?
C7 C6 C4 118.6(3) . . ?
C8 C7 C11 118.7(3) . . ?
C8 C7 C6 122.9(3) . . ?
C11 C7 C6 118.3(3) . . ?
C9 C8 C7 118.7(3) . . ?
C10 C9 C8 119.1(3) . . ?
N2 C10 C9 123.2(3) . . ?
N2 C11 C7 123.1(3) . . ?
O2 C12 O3 129.5(4) . . ?
O2 C12 C13 114.3(4) . . ?
O3 C12 C13 116.2(3) . . ?
F1 C13 F3 106.7(3) . . ?
F1 C13 F2 106.6(4) . . ?
F3 C13 F2 106.9(3) . . ?
F1 C13 C12 113.6(3) . . ?
F3 C13 C12 112.4(4) . . ?
F2 C13 C12 110.2(3) . . ?
C22 C21 C26 120.0 . . ?
C22 C21 Cl21 119.3(4) . . ?
C26 C21 Cl21 120.7(4) . . ?
C21 C22 C23 120.0 . . ?
C24 C23 C22 120.0 . . ?
C23 C24 C25 120.0 . . ?
C24 C25 C26 120.0 . . ?
C25 C26 C21 120.0 . . ?
C32 C31 C36 120.0 . . ?
C32 C31 Cl31 120.4(7) . . ?
C36 C31 Cl31 119.6(7) . . ?
C31 C32 C33 120.0 . . ?
C34 C33 C32 120.0 . . ?
C33 C34 C35 120.0 . . ?
C36 C35 C34 120.0 . . ?
C35 C36 C31 120.0 . . ?

loop_
_geom_torsion_atom_site_label_1
_geom_torsion_atom_site_label_2
_geom_torsion_atom_site_label_3
_geom_torsion_atom_site_label_4
_geom_torsion
_geom_torsion_site_symmetry_1
_geom_torsion_site_symmetry_2
_geom_torsion_site_symmetry_3
_geom_torsion_site_symmetry_4
_geom_torsion_publ_flag
N2 Ag1 N1 C1 -124.9(3) 12_556 . . . ?
Ag1 Ag1 N1 C1 109.3(2) 16 . . . ?
N2 Ag1 N1 C5 54.7(5) 12_556 . . . ?
Ag1 Ag1 N1 C5 -71.1(3) 16 . . . ?
C5 N1 C1 C2 1.1(5) . . . . ?
Ag1 N1 C1 C2 -179.2(3) . . . . ?
N1 C1 C2 C3 0.3(5) . . . . ?
C1 C2 C3 C4 -1.6(5) . . . . ?
C2 C3 C4 C5 1.5(5) . . . . ?
C2 C3 C4 C6 178.8(3) . . . . ?
C1 N1 C5 C4 -1.2(5) . . . . ?
Ag1 N1 C5 C4 179.1(2) . . . . ?
C3 C4 C5 N1 -0.1(5) . . . . ?
C6 C4 C5 N1 -177.3(3) . . . . ?
C5 C4 C6 O1 145.0(3) . . . . ?
C3 C4 C6 O1 -32.3(5) . . . . ?
C5 C4 C6 C7 -35.9(5) . . . . ?
C3 C4 C6 C7 146.8(3) . . . . ?
O1 C6 C7 C8 142.1(3) . . . . ?
C4 C6 C7 C8 -37.0(5) . . . . ?
O1 C6 C7 C11 -33.9(5) . . . . ?
C4 C6 C7 C11 147.0(3) . . . . ?
C11 C7 C8 C9 -0.3(5) . . . . ?
C6 C7 C8 C9 -176.3(3) . . . . ?
C7 C8 C9 C10 -0.3(6) . . . . ?
C11 N2 C10 C9 0.0(5) . . . . ?
Ag1 N2 C10 C9 174.2(3) 11_556 . . . ?
C8 C9 C10 N2 0.4(6) . . . . ?
C10 N2 C11 C7 -0.6(5) . . . . ?
Ag1 N2 C11 C7 -174.9(3) 11_556 . . . ?
C8 C7 C11 N2 0.7(5) . . . . ?
C6 C7 C11 N2 176.9(3) . . . . ?
O2 C12 C13 F1 164.1(3) . . . . ?
O3 C12 C13 F1 -17.4(5) . . . . ?
O2 C12 C13 F3 42.8(4) . . . . ?
O3 C12 C13 F3 -138.7(4) . . . . ?
O2 C12 C13 F2 -76.3(4) . . . . ?
O3 C12 C13 F2 102.2(4) . . . . ?
C26 C21 C22 C23 0.0 . . . . ?
Cl21 C21 C22 C23 179.0(4) . . . . ?
C21 C22 C23 C24 0.0 . . . . ?
C22 C23 C24 C25 0.0 . . . . ?
C23 C24 C25 C26 0.0 . . . . ?
C24 C25 C26 C21 0.0 . . . . ?
C22 C21 C26 C25 0.0 . . . . ?
Cl21 C21 C26 C25 -179.0(4) . . . . ?
C36 C31 C32 C33 0.0 . . . . ?
Cl31 C31 C32 C33 -178.9(8) . . . . ?
C31 C32 C33 C34 0.0 . . . . ?
C32 C33 C34 C35 0.0 . . . . ?
C33 C34 C35 C36 0.0 . . . . ?
C34 C35 C36 C31 0.0 . . . . ?
C32 C31 C36 C35 0.0 . . . . ?
Cl31 C31 C36 C35 178.9(8) . . . . ?

_diffrn_measured_fraction_theta_max 0.999
_diffrn_reflns_theta_full        25.01
_diffrn_measured_fraction_theta_full 0.999
_refine_diff_density_max         0.624
_refine_diff_density_min         -1.276
_refine_diff_density_rms         0.078
