####################################################################### 
# 
# This file contains crystal structure data downloaded from the 
# Cambridge Structural Database (CSD) hosted by the Cambridge 
# Crystallographic Data Centre (CCDC).
# 
# Full information about CCDC data access policies and citation 
# guidelines are available at http://www.ccdc.cam.ac.uk/access/V1 
# 
# Audit and citation data items may have been added by the CCDC. 
# Please retain this information to preserve the provenance of 
# this file and to allow appropriate attribution of the data. 
# 
#######################################################################

data_bz3
_audit_block_doi                 10.5517/ccrphpl
_database_code_depnum_ccdc_archive 'CCDC 705860'
loop_
_citation_id
_citation_doi
_citation_year
1 10.1002/chem.200900010 2009
_audit_update_record             
;
2008-10-19 deposited with the CCDC.	2024-07-10 downloaded from the CCDC.
;

_audit_creation_method           SHELXL-97
_chemical_name_systematic        
;
?
;
_chemical_name_common            ?
_chemical_melting_point          ?
_chemical_formula_moiety         ?
_chemical_formula_sum            'C19 H14 Ag F3 N2 O3'
_chemical_formula_weight         483.19

loop_
_atom_type_symbol
_atom_type_description
_atom_type_scat_dispersion_real
_atom_type_scat_dispersion_imag
_atom_type_scat_source
C C 0.0033 0.0016 'International Tables Vol C Tables 4.2.6.8 and 6.1.1.4'
H H 0.0000 0.0000 'International Tables Vol C Tables 4.2.6.8 and 6.1.1.4'
N N 0.0061 0.0033 'International Tables Vol C Tables 4.2.6.8 and 6.1.1.4'
O O 0.0106 0.0060 'International Tables Vol C Tables 4.2.6.8 and 6.1.1.4'
F F 0.0171 0.0103 'International Tables Vol C Tables 4.2.6.8 and 6.1.1.4'
Ag Ag -0.8971 1.1015 'International Tables Vol C Tables 4.2.6.8 and 6.1.1.4'

_symmetry_cell_setting           Rhombohedral
_symmetry_space_group_name_H-M   R-3

loop_
_symmetry_equiv_pos_as_xyz
'x, y, z'
'-y, x-y, z'
'-x+y, -x, z'
'x+2/3, y+1/3, z+1/3'
'-y+2/3, x-y+1/3, z+1/3'
'-x+y+2/3, -x+1/3, z+1/3'
'x+1/3, y+2/3, z+2/3'
'-y+1/3, x-y+2/3, z+2/3'
'-x+y+1/3, -x+2/3, z+2/3'
'-x, -y, -z'
'y, -x+y, -z'
'x-y, x, -z'
'-x+2/3, -y+1/3, -z+1/3'
'y+2/3, -x+y+1/3, -z+1/3'
'x-y+2/3, x+1/3, -z+1/3'
'-x+1/3, -y+2/3, -z+2/3'
'y+1/3, -x+y+2/3, -z+2/3'
'x-y+1/3, x+2/3, -z+2/3'

_cell_length_a                   33.9770(12)
_cell_length_b                   33.9770(12)
_cell_length_c                   8.3794(6)
_cell_angle_alpha                90.00
_cell_angle_beta                 90.00
_cell_angle_gamma                120.00
_cell_volume                     8377.5(7)
_cell_formula_units_Z            18
_cell_measurement_temperature    123(2)
_cell_measurement_reflns_used    ?
_cell_measurement_theta_min      ?
_cell_measurement_theta_max      ?

_exptl_crystal_description       Block
_exptl_crystal_colour            Colorless
_exptl_crystal_size_max          0.42
_exptl_crystal_size_mid          0.35
_exptl_crystal_size_min          0.23
_exptl_crystal_density_meas      ?
_exptl_crystal_density_diffrn    1.724
_exptl_crystal_density_method    'not measured'
_exptl_crystal_F_000             4320
_exptl_absorpt_coefficient_mu    1.134
_exptl_absorpt_correction_type   MULTI-SCAN
_exptl_absorpt_correction_T_min  0.862833
_exptl_absorpt_correction_T_max  1.000000
_exptl_absorpt_process_details   SADABS

_exptl_special_details           
;
?
;

_diffrn_ambient_temperature      123(2)
_diffrn_radiation_wavelength     0.71073
_diffrn_radiation_type           MoK\a
_diffrn_radiation_source         'fine-focus sealed tube'
_diffrn_radiation_monochromator  graphite
_diffrn_measurement_device_type  'CCD area detector'
_diffrn_measurement_method       'phi and omega scans'
_diffrn_detector_area_resol_mean ?
_diffrn_standards_number         ?
_diffrn_standards_interval_count ?
_diffrn_standards_interval_time  ?
_diffrn_standards_decay_%        ?
_diffrn_reflns_number            14401
_diffrn_reflns_av_R_equivalents  0.0239
_diffrn_reflns_av_sigmaI/netI    0.0201
_diffrn_reflns_limit_h_min       -40
_diffrn_reflns_limit_h_max       40
_diffrn_reflns_limit_k_min       -39
_diffrn_reflns_limit_k_max       40
_diffrn_reflns_limit_l_min       -8
_diffrn_reflns_limit_l_max       9
_diffrn_reflns_theta_min         2.08
_diffrn_reflns_theta_max         25.01
_reflns_number_total             3273
_reflns_number_gt                3144
_reflns_threshold_expression     >2sigma(I)

_computing_data_collection       'Bruker XSCANS'
_computing_cell_refinement       'Bruker XSCANS'
_computing_data_reduction        'Bruker SHELXTL'
_computing_structure_solution    'SHELXS-97 (Sheldrick, 1990)'
_computing_structure_refinement  'SHELXL-97 (Sheldrick, 1997)'
_computing_molecular_graphics    'Bruker SHELXTL'
_computing_publication_material  'Bruker SHELXTL'

_refine_special_details          
;
Refinement of F^2^ against ALL reflections. The weighted R-factor wR and
goodness of fit S are based on F^2^, conventional R-factors R are based
on F, with F set to zero for negative F^2^. The threshold expression of
F^2^ > 2sigma(F^2^) is used only for calculating R-factors(gt) etc. and is
not relevant to the choice of reflections for refinement. R-factors based
on F^2^ are statistically about twice as large as those based on F, and R-
factors based on ALL data will be even larger.
;

_refine_ls_structure_factor_coef Fsqd
_refine_ls_matrix_type           full
_refine_ls_weighting_scheme      calc
_refine_ls_weighting_details     
'calc w=1/[\s^2^(Fo^2^)+(0.0314P)^2^+30.7417P] where P=(Fo^2^+2Fc^2^)/3'
_atom_sites_solution_primary     direct
_atom_sites_solution_secondary   difmap
_atom_sites_solution_hydrogens   geom
_refine_ls_hydrogen_treatment    constr
_refine_ls_extinction_method     none
_refine_ls_extinction_coef       ?
_refine_ls_number_reflns         3273
_refine_ls_number_parameters     253
_refine_ls_number_restraints     0
_refine_ls_R_factor_all          0.0315
_refine_ls_R_factor_gt           0.0298
_refine_ls_wR_factor_ref         0.0725
_refine_ls_wR_factor_gt          0.0716
_refine_ls_goodness_of_fit_ref   1.133
_refine_ls_restrained_S_all      1.133
_refine_ls_shift/su_max          0.001
_refine_ls_shift/su_mean         0.000

loop_
_atom_site_label
_atom_site_type_symbol
_atom_site_fract_x
_atom_site_fract_y
_atom_site_fract_z
_atom_site_U_iso_or_equiv
_atom_site_adp_type
_atom_site_occupancy
_atom_site_symmetry_multiplicity
_atom_site_calc_flag
_atom_site_refinement_flags
_atom_site_disorder_assembly
_atom_site_disorder_group
Ag1 Ag 0.147637(7) 0.320843(7) 0.50573(3) 0.02681(9) Uani 1 1 d . . .
O1 O 0.33468(6) 0.32778(6) 0.7829(2) 0.0235(4) Uani 1 1 d . . .
N1 N 0.20629(7) 0.33996(7) 0.6630(3) 0.0217(5) Uani 1 1 d . . .
N2 N 0.27786(8) 0.19601(8) 0.6132(3) 0.0233(5) Uani 1 1 d . . .
C1 C 0.21991(9) 0.37573(9) 0.7607(3) 0.0229(6) Uani 1 1 d . . .
H1A H 0.2035 0.3916 0.7600 0.027 Uiso 1 1 calc R . .
C2 C 0.25665(9) 0.39050(9) 0.8622(3) 0.0233(6) Uani 1 1 d . . .
H2A H 0.2652 0.4159 0.9302 0.028 Uiso 1 1 calc R . .
C3 C 0.28079(9) 0.36773(9) 0.8631(3) 0.0219(6) Uani 1 1 d . . .
H3A H 0.3067 0.3776 0.9298 0.026 Uiso 1 1 calc R . .
C4 C 0.26661(9) 0.33011(9) 0.7648(3) 0.0192(5) Uani 1 1 d . . .
C5 C 0.22918(9) 0.31728(9) 0.6659(3) 0.0207(5) Uani 1 1 d . . .
H5A H 0.2195 0.2916 0.5984 0.025 Uiso 1 1 calc R . .
C6 C 0.29387(9) 0.30650(9) 0.7592(3) 0.0192(5) Uani 1 1 d . . .
C7 C 0.27068(9) 0.25683(9) 0.7262(3) 0.0206(6) Uani 1 1 d . . .
C8 C 0.22782(10) 0.22637(10) 0.7844(3) 0.0263(6) Uani 1 1 d . . .
H8A H 0.2107 0.2367 0.8428 0.032 Uiso 1 1 calc R . .
C9 C 0.21053(10) 0.18050(10) 0.7553(4) 0.0304(7) Uani 1 1 d . . .
H9A H 0.1813 0.1587 0.7937 0.036 Uiso 1 1 calc R . .
C10 C 0.23633(10) 0.16693(10) 0.6699(4) 0.0271(6) Uani 1 1 d . . .
H10A H 0.2241 0.1354 0.6501 0.032 Uiso 1 1 calc R . .
C11 C 0.29458(9) 0.24020(9) 0.6425(3) 0.0222(6) Uani 1 1 d . . .
H11A H 0.3241 0.2612 0.6044 0.027 Uiso 1 1 calc R . .
C12 C 0.15347(9) 0.41155(10) 0.4604(4) 0.0262(6) Uani 1 1 d . . .
O2 O 0.15259(7) 0.38982(7) 0.3408(3) 0.0370(5) Uani 1 1 d . . .
O3 O 0.14857(8) 0.40029(8) 0.6019(3) 0.0385(5) Uani 1 1 d . . .
C13 C 0.16368(11) 0.46028(11) 0.4234(4) 0.0339(7) Uani 1 1 d . . .
F1 F 0.15407(7) 0.47974(6) 0.5435(2) 0.0418(5) Uani 1 1 d . . .
F2 F 0.14027(8) 0.46166(8) 0.2973(2) 0.0554(6) Uani 1 1 d . . .
F3 F 0.20789(7) 0.48723(7) 0.3908(3) 0.0618(7) Uani 1 1 d . . .
C21 C 0.16472(18) 0.06787(16) 0.1693(6) 0.0694(13) Uani 1 1 d . . .
H21A H 0.1912 0.0740 0.1112 0.083 Uiso 1 1 calc R . .
C22 C 0.1681(2) 0.0814(2) 0.3179(7) 0.0920(18) Uani 1 1 d . . .
H22A H 0.1965 0.0940 0.3709 0.110 Uiso 1 1 calc R . .
C23 C 0.1309(3) 0.0776(2) 0.3984(8) 0.103(2) Uani 1 1 d . . .
H23A H 0.1341 0.0904 0.5018 0.124 Uiso 1 1 calc R . .
C24 C 0.0891(2) 0.0550(3) 0.3258(7) 0.098(2) Uani 1 1 d . . .
H24A H 0.0627 0.0501 0.3818 0.118 Uiso 1 1 calc R . .
C25 C 0.0856(2) 0.0401(3) 0.1789(8) 0.126(3) Uani 1 1 d . . .
H25A H 0.0568 0.0258 0.1273 0.151 Uiso 1 1 calc R . .
C26 C 0.1231(2) 0.0450(3) 0.0992(8) 0.129(3) Uani 1 1 d . . .
H26A H 0.1200 0.0325 -0.0045 0.155 Uiso 1 1 calc R . .

loop_
_atom_site_aniso_label
_atom_site_aniso_U_11
_atom_site_aniso_U_22
_atom_site_aniso_U_33
_atom_site_aniso_U_23
_atom_site_aniso_U_13
_atom_site_aniso_U_12
Ag1 0.02118(13) 0.03125(14) 0.02894(15) -0.00497(9) -0.00733(8) 0.01382(10)
O1 0.0217(10) 0.0290(10) 0.0209(10) -0.0019(8) -0.0014(8) 0.0136(8)
N1 0.0197(11) 0.0235(11) 0.0223(13) -0.0003(9) -0.0002(9) 0.0112(10)
N2 0.0285(12) 0.0238(12) 0.0224(12) 0.0000(10) 0.0014(10) 0.0166(10)
C1 0.0238(14) 0.0237(14) 0.0245(15) -0.0006(11) 0.0023(11) 0.0144(12)
C2 0.0252(14) 0.0214(13) 0.0232(15) -0.0041(11) -0.0013(11) 0.0117(12)
C3 0.0205(13) 0.0242(14) 0.0198(14) -0.0015(11) -0.0020(11) 0.0102(11)
C4 0.0199(13) 0.0199(13) 0.0165(13) 0.0024(10) 0.0018(10) 0.0089(11)
C5 0.0216(13) 0.0211(13) 0.0194(14) -0.0011(11) 0.0021(11) 0.0108(11)
C6 0.0250(14) 0.0247(13) 0.0112(13) 0.0016(10) 0.0009(10) 0.0149(12)
C7 0.0240(13) 0.0240(14) 0.0168(14) 0.0006(11) -0.0009(10) 0.0143(12)
C8 0.0277(15) 0.0288(15) 0.0269(16) 0.0023(12) 0.0056(12) 0.0174(13)
C9 0.0277(15) 0.0253(15) 0.0369(18) 0.0062(13) 0.0096(13) 0.0123(12)
C10 0.0282(15) 0.0227(14) 0.0307(17) 0.0015(12) 0.0013(12) 0.0129(12)
C11 0.0232(13) 0.0243(14) 0.0209(14) 0.0022(11) 0.0010(11) 0.0133(12)
C12 0.0188(13) 0.0299(15) 0.0330(18) -0.0035(13) -0.0013(12) 0.0146(12)
O2 0.0337(12) 0.0372(12) 0.0409(14) -0.0122(10) -0.0016(10) 0.0184(10)
O3 0.0486(14) 0.0425(13) 0.0352(14) 0.0050(10) 0.0026(10) 0.0308(11)
C13 0.0327(16) 0.0369(17) 0.0388(19) 0.0020(14) 0.0059(14) 0.0225(14)
F1 0.0510(12) 0.0388(10) 0.0471(12) -0.0079(9) 0.0018(9) 0.0311(9)
F2 0.0847(16) 0.0782(16) 0.0355(12) 0.0108(11) 0.0029(11) 0.0649(14)
F3 0.0432(12) 0.0356(11) 0.107(2) 0.0156(12) 0.0322(12) 0.0199(10)
C21 0.074(3) 0.062(3) 0.070(3) 0.002(2) 0.010(3) 0.033(2)
C22 0.079(4) 0.085(4) 0.079(4) -0.005(3) 0.013(3) 0.016(3)
C23 0.126(6) 0.083(4) 0.068(4) -0.002(3) 0.015(4) 0.028(4)
C24 0.104(5) 0.149(6) 0.071(4) 0.023(4) 0.021(3) 0.085(5)
C25 0.098(5) 0.255(10) 0.067(4) -0.024(5) -0.012(3) 0.120(6)
C26 0.092(5) 0.246(10) 0.072(4) -0.032(5) -0.016(3) 0.102(6)

_geom_special_details            
;
All esds (except the esd in the dihedral angle between two l.s. planes)
are estimated using the full covariance matrix. The cell esds are taken
into account individually in the estimation of esds in distances, angles
and torsion angles; correlations between esds in cell parameters are only
used when they are defined by crystal symmetry. An approximate (isotropic)
treatment of cell esds is used for estimating esds involving l.s. planes.
;

loop_
_geom_bond_atom_site_label_1
_geom_bond_atom_site_label_2
_geom_bond_distance
_geom_bond_site_symmetry_2
_geom_bond_publ_flag
Ag1 N1 2.199(2) . ?
Ag1 N2 2.204(2) 12_556 ?
Ag1 Ag1 3.1052(5) 16 ?
O1 C6 1.218(3) . ?
N1 C5 1.341(3) . ?
N1 C1 1.341(3) . ?
N2 C11 1.336(4) . ?
N2 C10 1.341(4) . ?
N2 Ag1 2.204(2) 11_556 ?
C1 C2 1.381(4) . ?
C1 H1A 0.9500 . ?
C2 C3 1.380(4) . ?
C2 H2A 0.9500 . ?
C3 C4 1.389(4) . ?
C3 H3A 0.9500 . ?
C4 C5 1.393(4) . ?
C4 C6 1.499(4) . ?
C5 H5A 0.9500 . ?
C6 C7 1.488(4) . ?
C7 C8 1.387(4) . ?
C7 C11 1.389(4) . ?
C8 C9 1.385(4) . ?
C8 H8A 0.9500 . ?
C9 C10 1.377(4) . ?
C9 H9A 0.9500 . ?
C10 H10A 0.9500 . ?
C11 H11A 0.9500 . ?
C12 O3 1.231(4) . ?
C12 O2 1.236(4) . ?
C12 C13 1.544(4) . ?
C13 F1 1.331(4) . ?
C13 F2 1.338(4) . ?
C13 F3 1.339(4) . ?
C21 C22 1.312(7) . ?
C21 C26 1.361(8) . ?
C21 H21A 0.9500 . ?
C22 C23 1.381(9) . ?
C22 H22A 0.9500 . ?
C23 C24 1.373(9) . ?
C23 H23A 0.9500 . ?
C24 C25 1.313(9) . ?
C24 H24A 0.9500 . ?
C25 C26 1.372(8) . ?
C25 H25A 0.9500 . ?
C26 H26A 0.9500 . ?

loop_
_geom_angle_atom_site_label_1
_geom_angle_atom_site_label_2
_geom_angle_atom_site_label_3
_geom_angle
_geom_angle_site_symmetry_1
_geom_angle_site_symmetry_3
_geom_angle_publ_flag
N1 Ag1 N2 159.35(8) . 12_556 ?
N1 Ag1 Ag1 106.54(6) . 16 ?
N2 Ag1 Ag1 84.61(6) 12_556 16 ?
C5 N1 C1 118.2(2) . . ?
C5 N1 Ag1 122.79(18) . . ?
C1 N1 Ag1 118.97(18) . . ?
C11 N2 C10 117.6(2) . . ?
C11 N2 Ag1 119.60(18) . 11_556 ?
C10 N2 Ag1 122.62(18) . 11_556 ?
N1 C1 C2 123.0(2) . . ?
N1 C1 H1A 118.5 . . ?
C2 C1 H1A 118.5 . . ?
C3 C2 C1 118.8(2) . . ?
C3 C2 H2A 120.6 . . ?
C1 C2 H2A 120.6 . . ?
C2 C3 C4 118.9(2) . . ?
C2 C3 H3A 120.6 . . ?
C4 C3 H3A 120.6 . . ?
C3 C4 C5 118.9(2) . . ?
C3 C4 C6 119.2(2) . . ?
C5 C4 C6 121.7(2) . . ?
N1 C5 C4 122.2(2) . . ?
N1 C5 H5A 118.9 . . ?
C4 C5 H5A 118.9 . . ?
O1 C6 C7 120.2(2) . . ?
O1 C6 C4 120.1(2) . . ?
C7 C6 C4 119.6(2) . . ?
C8 C7 C11 118.9(3) . . ?
C8 C7 C6 123.0(2) . . ?
C11 C7 C6 118.0(2) . . ?
C9 C8 C7 118.3(3) . . ?
C9 C8 H8A 120.8 . . ?
C7 C8 H8A 120.8 . . ?
C10 C9 C8 119.0(3) . . ?
C10 C9 H9A 120.5 . . ?
C8 C9 H9A 120.5 . . ?
N2 C10 C9 123.3(3) . . ?
N2 C10 H10A 118.4 . . ?
C9 C10 H10A 118.4 . . ?
N2 C11 C7 122.9(3) . . ?
N2 C11 H11A 118.5 . . ?
C7 C11 H11A 118.5 . . ?
O3 C12 O2 129.5(3) . . ?
O3 C12 C13 116.7(3) . . ?
O2 C12 C13 113.8(3) . . ?
F1 C13 F2 106.4(2) . . ?
F1 C13 F3 106.5(3) . . ?
F2 C13 F3 107.3(3) . . ?
F1 C13 C12 113.7(3) . . ?
F2 C13 C12 112.2(3) . . ?
F3 C13 C12 110.4(2) . . ?
C22 C21 C26 119.5(5) . . ?
C22 C21 H21A 120.2 . . ?
C26 C21 H21A 120.2 . . ?
C21 C22 C23 121.1(6) . . ?
C21 C22 H22A 119.5 . . ?
C23 C22 H22A 119.5 . . ?
C24 C23 C22 118.5(6) . . ?
C24 C23 H23A 120.7 . . ?
C22 C23 H23A 120.7 . . ?
C25 C24 C23 120.0(6) . . ?
C25 C24 H24A 120.0 . . ?
C23 C24 H24A 120.0 . . ?
C24 C25 C26 120.6(6) . . ?
C24 C25 H25A 119.7 . . ?
C26 C25 H25A 119.7 . . ?
C21 C26 C25 119.8(6) . . ?
C21 C26 H26A 120.1 . . ?
C25 C26 H26A 120.1 . . ?

loop_
_geom_torsion_atom_site_label_1
_geom_torsion_atom_site_label_2
_geom_torsion_atom_site_label_3
_geom_torsion_atom_site_label_4
_geom_torsion
_geom_torsion_site_symmetry_1
_geom_torsion_site_symmetry_2
_geom_torsion_site_symmetry_3
_geom_torsion_site_symmetry_4
_geom_torsion_publ_flag
N2 Ag1 N1 C5 49.7(4) 12_556 . . . ?
Ag1 Ag1 N1 C5 -71.0(2) 16 . . . ?
N2 Ag1 N1 C1 -130.2(2) 12_556 . . . ?
Ag1 Ag1 N1 C1 109.09(19) 16 . . . ?
C5 N1 C1 C2 0.8(4) . . . . ?
Ag1 N1 C1 C2 -179.3(2) . . . . ?
N1 C1 C2 C3 0.4(4) . . . . ?
C1 C2 C3 C4 -1.6(4) . . . . ?
C2 C3 C4 C5 1.5(4) . . . . ?
C2 C3 C4 C6 177.1(2) . . . . ?
C1 N1 C5 C4 -0.9(4) . . . . ?
Ag1 N1 C5 C4 179.21(19) . . . . ?
C3 C4 C5 N1 -0.2(4) . . . . ?
C6 C4 C5 N1 -175.8(2) . . . . ?
C3 C4 C6 O1 -29.6(4) . . . . ?
C5 C4 C6 O1 145.9(3) . . . . ?
C3 C4 C6 C7 149.8(2) . . . . ?
C5 C4 C6 C7 -34.7(4) . . . . ?
O1 C6 C7 C8 142.0(3) . . . . ?
C4 C6 C7 C8 -37.4(4) . . . . ?
O1 C6 C7 C11 -33.5(4) . . . . ?
C4 C6 C7 C11 147.1(2) . . . . ?
C11 C7 C8 C9 -0.5(4) . . . . ?
C6 C7 C8 C9 -175.9(3) . . . . ?
C7 C8 C9 C10 -0.1(4) . . . . ?
C11 N2 C10 C9 0.2(4) . . . . ?
Ag1 N2 C10 C9 174.8(2) 11_556 . . . ?
C8 C9 C10 N2 0.3(5) . . . . ?
C10 N2 C11 C7 -0.8(4) . . . . ?
Ag1 N2 C11 C7 -175.6(2) 11_556 . . . ?
C8 C7 C11 N2 1.0(4) . . . . ?
C6 C7 C11 N2 176.6(2) . . . . ?
O3 C12 C13 F1 -16.9(4) . . . . ?
O2 C12 C13 F1 164.8(2) . . . . ?
O3 C12 C13 F2 -137.7(3) . . . . ?
O2 C12 C13 F2 44.0(3) . . . . ?
O3 C12 C13 F3 102.7(3) . . . . ?
O2 C12 C13 F3 -75.6(3) . . . . ?
C26 C21 C22 C23 -7.6(10) . . . . ?
C21 C22 C23 C24 6.8(10) . . . . ?
C22 C23 C24 C25 -4.4(11) . . . . ?
C23 C24 C25 C26 3.1(13) . . . . ?
C22 C21 C26 C25 6.1(12) . . . . ?
C24 C25 C26 C21 -3.9(14) . . . . ?

_diffrn_measured_fraction_theta_max 0.998
_diffrn_reflns_theta_full        25.01
_diffrn_measured_fraction_theta_full 0.998
_refine_diff_density_max         0.609
_refine_diff_density_min         -0.484
_refine_diff_density_rms         0.074
