####################################################################### 
# 
# This file contains crystal structure data downloaded from the 
# Cambridge Structural Database (CSD) hosted by the Cambridge 
# Crystallographic Data Centre (CCDC).
# 
# Full information about CCDC data access policies and citation 
# guidelines are available at http://www.ccdc.cam.ac.uk/access/V1 
# 
# Audit and citation data items may have been added by the CCDC. 
# Please retain this information to preserve the provenance of 
# this file and to allow appropriate attribution of the data. 
# 
#######################################################################

data_ccl4
_audit_block_doi                 10.5517/ccrphzw
_database_code_depnum_ccdc_archive 'CCDC 705869'
loop_
_citation_id
_citation_doi
_citation_year
1 10.1002/chem.200900010 2009
_audit_update_record             
;
2008-10-19 deposited with the CCDC.	2024-07-10 downloaded from the CCDC.
;

_audit_creation_method           SHELXL-97
_chemical_name_systematic        
;
?
;
_chemical_name_common            ?
_chemical_melting_point          ?
_chemical_formula_moiety         ?
_chemical_formula_sum            'C14 H8.33 Ag Cl4 F3 N2 O3.17'
_chemical_formula_weight         561.90

loop_
_atom_type_symbol
_atom_type_description
_atom_type_scat_dispersion_real
_atom_type_scat_dispersion_imag
_atom_type_scat_source
C C 0.0033 0.0016 'International Tables Vol C Tables 4.2.6.8 and 6.1.1.4'
H H 0.0000 0.0000 'International Tables Vol C Tables 4.2.6.8 and 6.1.1.4'
N N 0.0061 0.0033 'International Tables Vol C Tables 4.2.6.8 and 6.1.1.4'
O O 0.0106 0.0060 'International Tables Vol C Tables 4.2.6.8 and 6.1.1.4'
F F 0.0171 0.0103 'International Tables Vol C Tables 4.2.6.8 and 6.1.1.4'
Cl Cl 0.1484 0.1585 'International Tables Vol C Tables 4.2.6.8 and 6.1.1.4'
Ag Ag -0.8971 1.1015 'International Tables Vol C Tables 4.2.6.8 and 6.1.1.4'

_symmetry_cell_setting           Rhombohedral
_symmetry_space_group_name_H-M   R-3

loop_
_symmetry_equiv_pos_as_xyz
'x, y, z'
'-y, x-y, z'
'-x+y, -x, z'
'x+2/3, y+1/3, z+1/3'
'-y+2/3, x-y+1/3, z+1/3'
'-x+y+2/3, -x+1/3, z+1/3'
'x+1/3, y+2/3, z+2/3'
'-y+1/3, x-y+2/3, z+2/3'
'-x+y+1/3, -x+2/3, z+2/3'
'-x, -y, -z'
'y, -x+y, -z'
'x-y, x, -z'
'-x+2/3, -y+1/3, -z+1/3'
'y+2/3, -x+y+1/3, -z+1/3'
'x-y+2/3, x+1/3, -z+1/3'
'-x+1/3, -y+2/3, -z+2/3'
'y+1/3, -x+y+2/3, -z+2/3'
'x-y+1/3, x+2/3, -z+2/3'

_cell_length_a                   34.638(3)
_cell_length_b                   34.638(3)
_cell_length_c                   8.3954(12)
_cell_angle_alpha                90.00
_cell_angle_beta                 90.00
_cell_angle_gamma                120.00
_cell_volume                     8723.0(15)
_cell_formula_units_Z            18
_cell_measurement_temperature    123(2)
_cell_measurement_reflns_used    ?
_cell_measurement_theta_min      ?
_cell_measurement_theta_max      ?

_exptl_crystal_description       Block
_exptl_crystal_colour            Yellow
_exptl_crystal_size_max          0.18
_exptl_crystal_size_mid          0.16
_exptl_crystal_size_min          0.15
_exptl_crystal_density_meas      ?
_exptl_crystal_density_diffrn    1.925
_exptl_crystal_density_method    'not measured'
_exptl_crystal_F_000             4926
_exptl_absorpt_coefficient_mu    1.637
_exptl_absorpt_correction_type   MULTI-SCAN
_exptl_absorpt_correction_T_min  0.777869
_exptl_absorpt_correction_T_max  1.000000
_exptl_absorpt_process_details   SADABS

_exptl_special_details           
;
?
;

_diffrn_ambient_temperature      123(2)
_diffrn_radiation_wavelength     0.71073
_diffrn_radiation_type           MoK\a
_diffrn_radiation_source         'fine-focus sealed tube'
_diffrn_radiation_monochromator  graphite
_diffrn_measurement_device_type  'CCD area detector'
_diffrn_measurement_method       'phi and omega scans'
_diffrn_detector_area_resol_mean ?
_diffrn_standards_number         ?
_diffrn_standards_interval_count ?
_diffrn_standards_interval_time  ?
_diffrn_standards_decay_%        ?
_diffrn_reflns_number            16431
_diffrn_reflns_av_R_equivalents  0.0513
_diffrn_reflns_av_sigmaI/netI    0.0447
_diffrn_reflns_limit_h_min       -41
_diffrn_reflns_limit_h_max       41
_diffrn_reflns_limit_k_min       -41
_diffrn_reflns_limit_k_max       33
_diffrn_reflns_limit_l_min       -9
_diffrn_reflns_limit_l_max       9
_diffrn_reflns_theta_min         2.78
_diffrn_reflns_theta_max         25.01
_reflns_number_total             3371
_reflns_number_gt                2587
_reflns_threshold_expression     >2sigma(I)

_computing_data_collection       'Bruker XSCANS'
_computing_cell_refinement       'Bruker XSCANS'
_computing_data_reduction        'Bruker SHELXTL'
_computing_structure_solution    'SHELXS-97 (Sheldrick, 1990)'
_computing_structure_refinement  'SHELXL-97 (Sheldrick, 1997)'
_computing_molecular_graphics    'Bruker SHELXTL'
_computing_publication_material  'Bruker SHELXTL'

_refine_special_details          
;
Refinement of F^2^ against ALL reflections. The weighted R-factor wR and
goodness of fit S are based on F^2^, conventional R-factors R are based
on F, with F set to zero for negative F^2^. The threshold expression of
F^2^ > 2sigma(F^2^) is used only for calculating R-factors(gt) etc. and is
not relevant to the choice of reflections for refinement. R-factors based
on F^2^ are statistically about twice as large as those based on F, and R-
factors based on ALL data will be even larger.
;

_refine_ls_structure_factor_coef Fsqd
_refine_ls_matrix_type           full
_refine_ls_weighting_scheme      calc
_refine_ls_weighting_details     
'calc w=1/[\s^2^(Fo^2^)+(0.0548P)^2^+220.5785P] where P=(Fo^2^+2Fc^2^)/3'
_atom_sites_solution_primary     direct
_atom_sites_solution_secondary   difmap
_atom_sites_solution_hydrogens   geom
_refine_ls_hydrogen_treatment    constr
_refine_ls_extinction_method     none
_refine_ls_extinction_coef       ?
_refine_ls_number_reflns         3371
_refine_ls_number_parameters     293
_refine_ls_number_restraints     136
_refine_ls_R_factor_all          0.0906
_refine_ls_R_factor_gt           0.0687
_refine_ls_wR_factor_ref         0.1715
_refine_ls_wR_factor_gt          0.1587
_refine_ls_goodness_of_fit_ref   1.099
_refine_ls_restrained_S_all      1.158
_refine_ls_shift/su_max          0.046
_refine_ls_shift/su_mean         0.002

loop_
_atom_site_label
_atom_site_type_symbol
_atom_site_fract_x
_atom_site_fract_y
_atom_site_fract_z
_atom_site_U_iso_or_equiv
_atom_site_adp_type
_atom_site_occupancy
_atom_site_symmetry_multiplicity
_atom_site_calc_flag
_atom_site_refinement_flags
_atom_site_disorder_assembly
_atom_site_disorder_group
Ag1 Ag 0.14316(2) 0.31755(3) 0.50970(8) 0.0443(3) Uani 1 1 d . . .
O1 O 0.3355(2) 0.3354(2) 0.7142(7) 0.0453(15) Uani 1 1 d . . .
N1 N 0.2035(2) 0.3386(2) 0.6550(7) 0.0341(15) Uani 1 1 d . . .
N2 N 0.2782(3) 0.2009(2) 0.6020(7) 0.0395(17) Uani 1 1 d . . .
C1 C 0.2173(3) 0.3739(3) 0.7510(8) 0.0333(18) Uani 1 1 d . . .
H1A H 0.1998 0.3880 0.7583 0.040 Uiso 1 1 calc R . .
C2 C 0.2559(3) 0.3906(3) 0.8403(10) 0.0382(19) Uani 1 1 d . . .
H2A H 0.2645 0.4154 0.9085 0.046 Uiso 1 1 calc R . .
C3 C 0.2817(3) 0.3710(3) 0.8296(9) 0.0326(18) Uani 1 1 d . . .
H3A H 0.3088 0.3825 0.8871 0.039 Uiso 1 1 calc R . .
C4 C 0.2672(3) 0.3338(3) 0.7326(8) 0.0292(17) Uani 1 1 d . . .
C5 C 0.2280(3) 0.3188(3) 0.6491(8) 0.0295(17) Uani 1 1 d . . .
H5A H 0.2179 0.2931 0.5840 0.035 Uiso 1 1 calc R . .
C6 C 0.2953(3) 0.3125(3) 0.7137(8) 0.0330(18) Uani 1 1 d . . .
C7 C 0.2733(3) 0.2633(3) 0.7011(8) 0.0334(18) Uani 1 1 d . . .
C8 C 0.2343(3) 0.2349(3) 0.7813(9) 0.040(2) Uani 1 1 d . . .
H8A H 0.2186 0.2461 0.8405 0.048 Uiso 1 1 calc R . .
C9 C 0.2190(3) 0.1898(3) 0.7726(10) 0.047(2) Uani 1 1 d . . .
H9A H 0.1933 0.1696 0.8315 0.056 Uiso 1 1 calc R . .
C10 C 0.2403(3) 0.1738(3) 0.6801(10) 0.045(2) Uani 1 1 d . . .
H10A H 0.2280 0.1425 0.6708 0.054 Uiso 1 1 calc R . .
C11 C 0.2941(3) 0.2443(3) 0.6134(9) 0.0356(19) Uani 1 1 d . . .
H11A H 0.3210 0.2637 0.5592 0.043 Uiso 1 1 calc R . .
C12 C 0.1511(3) 0.4058(3) 0.4663(10) 0.042(2) Uani 1 1 d . . .
O2 O 0.1563(2) 0.3871(2) 0.3502(7) 0.0560(18) Uani 1 1 d . . .
O3 O 0.1399(2) 0.3924(2) 0.6022(7) 0.0546(17) Uani 1 1 d . . .
C13 C 0.1602(3) 0.4535(4) 0.4301(10) 0.049(2) Uani 1 1 d . . .
F1 F 0.1517(2) 0.4730(2) 0.5483(7) 0.0625(16) Uani 1 1 d . . .
F2 F 0.1367(2) 0.4538(2) 0.3038(7) 0.0732(18) Uani 1 1 d . . .
F3 F 0.2036(2) 0.4807(2) 0.3916(8) 0.0735(18) Uani 1 1 d . . .
O1W O 0.0000 0.0000 0.547(2) 0.103(11) Uani 0.50 3 d SP . .
C16 C 0.1573(3) 0.0688(3) 0.2865(10) 0.095(7) Uiso 0.50 1 d PDU A 1
Cl1 Cl 0.1592(4) 0.0804(5) 0.0788(9) 0.123(4) Uani 0.50 1 d PDU A 1
Cl2 Cl 0.2118(2) 0.0832(2) 0.3517(8) 0.091(2) Uani 0.50 1 d PDU A 1
Cl3 Cl 0.1417(3) 0.1043(3) 0.3864(11) 0.133(3) Uani 0.50 1 d PDU A 1
Cl4 Cl 0.1177(3) 0.0122(3) 0.3300(15) 0.141(4) Uani 0.50 1 d PDU A 1
C17 C 0.1214(5) 0.0519(4) 0.2236(14) 0.113(7) Uiso 0.30 1 d PDU B 2
Cl5 Cl 0.0888(5) 0.0789(5) 0.2217(19) 0.124(5) Uani 0.30 1 d PDU B 2
Cl6 Cl 0.1554(5) 0.0683(5) 0.3987(14) 0.123(5) Uani 0.30 1 d PDU B 2
Cl7 Cl 0.0841(5) -0.0071(4) 0.227(2) 0.132(5) Uani 0.30 1 d PDU B 2
Cl8 Cl 0.1569(7) 0.0657(8) 0.0531(19) 0.164(9) Uani 0.30 1 d PDU B 2
Cl9 Cl 0.0000 0.0000 0.108(5) 0.18(2) Uiso 0.20 3 d SPD . 3
Cl10 Cl 0.0409(7) 0.0521(5) 0.194(3) 0.112(6) Uani 0.20 1 d PDU C 3

loop_
_atom_site_aniso_label
_atom_site_aniso_U_11
_atom_site_aniso_U_22
_atom_site_aniso_U_33
_atom_site_aniso_U_23
_atom_site_aniso_U_13
_atom_site_aniso_U_12
Ag1 0.0342(4) 0.0666(6) 0.0348(4) -0.0075(3) -0.0052(3) 0.0272(4)
O1 0.033(4) 0.056(4) 0.046(3) -0.018(3) -0.003(3) 0.021(3)
N1 0.031(4) 0.041(4) 0.032(3) -0.003(3) -0.005(3) 0.019(3)
N2 0.059(5) 0.047(5) 0.027(3) 0.006(3) 0.005(3) 0.038(4)
C1 0.040(5) 0.042(5) 0.025(4) -0.005(3) 0.001(3) 0.026(4)
C2 0.043(5) 0.038(5) 0.035(4) -0.009(4) -0.005(4) 0.021(4)
C3 0.036(5) 0.032(4) 0.027(4) -0.001(3) -0.002(3) 0.015(4)
C4 0.030(4) 0.031(4) 0.023(3) 0.003(3) 0.007(3) 0.013(4)
C5 0.033(4) 0.034(4) 0.025(4) 0.000(3) 0.004(3) 0.019(4)
C6 0.036(5) 0.044(5) 0.019(4) -0.003(3) -0.002(3) 0.020(4)
C7 0.046(5) 0.047(5) 0.019(4) 0.001(3) -0.002(3) 0.032(4)
C8 0.052(5) 0.042(5) 0.028(4) 0.003(4) 0.008(4) 0.026(5)
C9 0.060(6) 0.046(6) 0.036(5) 0.013(4) 0.015(4) 0.028(5)
C10 0.062(6) 0.040(5) 0.035(4) 0.004(4) 0.007(4) 0.026(5)
C11 0.041(5) 0.048(5) 0.025(4) 0.005(3) 0.001(3) 0.028(4)
C12 0.032(5) 0.068(6) 0.033(5) -0.011(4) -0.005(4) 0.031(5)
O2 0.054(4) 0.075(5) 0.043(4) -0.018(3) 0.000(3) 0.036(4)
O3 0.076(5) 0.067(5) 0.038(4) 0.000(3) 0.011(3) 0.048(4)
C13 0.040(5) 0.074(7) 0.036(5) 0.003(4) 0.009(4) 0.031(5)
F1 0.070(4) 0.066(4) 0.056(3) -0.003(3) 0.018(3) 0.038(3)
F2 0.081(5) 0.105(5) 0.053(3) 0.019(3) 0.007(3) 0.061(4)
F3 0.056(4) 0.077(4) 0.076(4) 0.010(3) 0.024(3) 0.025(3)
O1W 0.150(18) 0.150(18) 0.009(13) 0.000 0.000 0.075(9)
Cl1 0.127(7) 0.186(10) 0.061(4) -0.027(5) 0.006(4) 0.083(7)
Cl2 0.132(6) 0.085(5) 0.073(4) 0.023(3) 0.016(4) 0.067(5)
Cl3 0.178(9) 0.120(7) 0.137(7) -0.013(6) 0.046(6) 0.102(7)
Cl4 0.124(7) 0.093(6) 0.210(10) 0.038(6) 0.079(7) 0.058(6)
Cl5 0.154(12) 0.110(10) 0.159(12) -0.014(9) -0.019(10) 0.106(10)
Cl6 0.157(11) 0.124(9) 0.081(7) 0.002(7) -0.023(7) 0.064(8)
Cl7 0.181(13) 0.122(10) 0.151(12) -0.033(9) -0.049(10) 0.120(10)
Cl8 0.194(14) 0.195(18) 0.104(12) -0.011(12) 0.063(11) 0.098(13)
Cl10 0.119(13) 0.060(9) 0.171(15) 0.049(10) 0.051(12) 0.056(9)

_geom_special_details            
;
All esds (except the esd in the dihedral angle between two l.s. planes)
are estimated using the full covariance matrix. The cell esds are taken
into account individually in the estimation of esds in distances, angles
and torsion angles; correlations between esds in cell parameters are only
used when they are defined by crystal symmetry. An approximate (isotropic)
treatment of cell esds is used for estimating esds involving l.s. planes.
;

loop_
_geom_bond_atom_site_label_1
_geom_bond_atom_site_label_2
_geom_bond_distance
_geom_bond_site_symmetry_2
_geom_bond_publ_flag
Ag1 N2 2.199(7) 12_556 ?
Ag1 N1 2.206(6) . ?
Ag1 O2 2.590(8) . ?
Ag1 Ag1 3.2919(14) 16 ?
O1 C6 1.209(10) . ?
N1 C5 1.330(10) . ?
N1 C1 1.337(10) . ?
N2 C11 1.321(11) . ?
N2 C10 1.341(12) . ?
N2 Ag1 2.199(7) 11_556 ?
C1 C2 1.383(11) . ?
C1 H1A 0.9500 . ?
C2 C3 1.368(11) . ?
C2 H2A 0.9500 . ?
C3 C4 1.389(11) . ?
C3 H3A 0.9500 . ?
C4 C5 1.379(11) . ?
C4 C6 1.496(11) . ?
C5 H5A 0.9500 . ?
C6 C7 1.481(12) . ?
C7 C8 1.385(12) . ?
C7 C11 1.403(11) . ?
C8 C9 1.377(12) . ?
C8 H8A 0.9500 . ?
C9 C10 1.368(13) . ?
C9 H9A 0.9500 . ?
C10 H10A 0.9500 . ?
C11 H11A 0.9500 . ?
C12 O3 1.220(10) . ?
C12 O2 1.234(10) . ?
C12 C13 1.547(14) . ?
C13 F1 1.314(10) . ?
C13 F2 1.340(11) . ?
C13 F3 1.354(11) . ?
O1W O1W 0.79(4) 10_556 ?
C16 Cl3 1.780(5) . ?
C16 Cl4 1.780(5) . ?
C16 Cl2 1.781(5) . ?
C16 Cl1 1.783(5) . ?
C17 Cl8 1.789(5) . ?
C17 Cl6 1.789(5) . ?
C17 Cl5 1.789(5) . ?
C17 Cl7 1.791(5) . ?
Cl9 Cl9 1.81(9) 10 ?
Cl9 Cl10 1.800(5) . ?
Cl9 Cl10 1.800(5) 2 ?
Cl9 Cl10 1.800(5) 3 ?

loop_
_geom_angle_atom_site_label_1
_geom_angle_atom_site_label_2
_geom_angle_atom_site_label_3
_geom_angle
_geom_angle_site_symmetry_1
_geom_angle_site_symmetry_3
_geom_angle_publ_flag
N2 Ag1 N1 163.6(3) 12_556 . ?
N2 Ag1 O2 90.1(2) 12_556 . ?
N1 Ag1 O2 106.3(2) . . ?
N2 Ag1 Ag1 90.58(17) 12_556 16 ?
N1 Ag1 Ag1 99.08(17) . 16 ?
O2 Ag1 Ag1 52.98(13) . 16 ?
C5 N1 C1 117.7(7) . . ?
C5 N1 Ag1 123.4(5) . . ?
C1 N1 Ag1 118.8(5) . . ?
C11 N2 C10 117.8(7) . . ?
C11 N2 Ag1 120.9(6) . 11_556 ?
C10 N2 Ag1 120.6(6) . 11_556 ?
N1 C1 C2 122.5(8) . . ?
N1 C1 H1A 118.8 . . ?
C2 C1 H1A 118.8 . . ?
C3 C2 C1 119.5(8) . . ?
C3 C2 H2A 120.3 . . ?
C1 C2 H2A 120.3 . . ?
C2 C3 C4 118.4(7) . . ?
C2 C3 H3A 120.8 . . ?
C4 C3 H3A 120.8 . . ?
C5 C4 C3 118.5(7) . . ?
C5 C4 C6 121.6(7) . . ?
C3 C4 C6 119.8(7) . . ?
N1 C5 C4 123.3(7) . . ?
N1 C5 H5A 118.4 . . ?
C4 C5 H5A 118.4 . . ?
O1 C6 C7 121.2(8) . . ?
O1 C6 C4 119.7(8) . . ?
C7 C6 C4 119.1(7) . . ?
C8 C7 C11 117.9(8) . . ?
C8 C7 C6 122.8(7) . . ?
C11 C7 C6 119.2(7) . . ?
C9 C8 C7 117.9(8) . . ?
C9 C8 H8A 121.1 . . ?
C7 C8 H8A 121.1 . . ?
C10 C9 C8 120.6(9) . . ?
C10 C9 H9A 119.7 . . ?
C8 C9 H9A 119.7 . . ?
N2 C10 C9 122.1(9) . . ?
N2 C10 H10A 118.9 . . ?
C9 C10 H10A 118.9 . . ?
N2 C11 C7 123.5(8) . . ?
N2 C11 H11A 118.2 . . ?
C7 C11 H11A 118.2 . . ?
O3 C12 O2 129.8(10) . . ?
O3 C12 C13 116.6(8) . . ?
O2 C12 C13 113.6(8) . . ?
C12 O2 Ag1 94.4(6) . . ?
F1 C13 F2 107.5(8) . . ?
F1 C13 F3 106.2(8) . . ?
F2 C13 F3 105.7(7) . . ?
F1 C13 C12 115.0(7) . . ?
F2 C13 C12 111.4(8) . . ?
F3 C13 C12 110.6(8) . . ?
Cl3 C16 Cl4 109.4(5) . . ?
Cl3 C16 Cl2 107.8(5) . . ?
Cl4 C16 Cl2 111.7(6) . . ?
Cl3 C16 Cl1 107.3(6) . . ?
Cl4 C16 Cl1 111.7(6) . . ?
Cl2 C16 Cl1 108.7(5) . . ?
Cl8 C17 Cl6 108.5(7) . . ?
Cl8 C17 Cl5 112.5(8) . . ?
Cl6 C17 Cl5 109.2(7) . . ?
Cl8 C17 Cl7 108.9(7) . . ?
Cl6 C17 Cl7 109.4(7) . . ?
Cl5 C17 Cl7 108.3(6) . . ?
Cl9 Cl9 Cl10 113.9(12) 10 . ?
Cl9 Cl9 Cl10 113.9(12) 10 2 ?
Cl10 Cl9 Cl10 104.7(14) . 2 ?
Cl9 Cl9 Cl10 113.9(12) 10 3 ?
Cl10 Cl9 Cl10 104.7(14) . 3 ?
Cl10 Cl9 Cl10 104.7(14) 2 3 ?

loop_
_geom_torsion_atom_site_label_1
_geom_torsion_atom_site_label_2
_geom_torsion_atom_site_label_3
_geom_torsion_atom_site_label_4
_geom_torsion
_geom_torsion_site_symmetry_1
_geom_torsion_site_symmetry_2
_geom_torsion_site_symmetry_3
_geom_torsion_site_symmetry_4
_geom_torsion_publ_flag
N2 Ag1 N1 C5 55.6(11) 12_556 . . . ?
O2 Ag1 N1 C5 -123.7(6) . . . . ?
Ag1 Ag1 N1 C5 -69.7(6) 16 . . . ?
N2 Ag1 N1 C1 -126.3(9) 12_556 . . . ?
O2 Ag1 N1 C1 54.4(6) . . . . ?
Ag1 Ag1 N1 C1 108.3(6) 16 . . . ?
C5 N1 C1 C2 1.3(12) . . . . ?
Ag1 N1 C1 C2 -176.9(6) . . . . ?
N1 C1 C2 C3 0.9(13) . . . . ?
C1 C2 C3 C4 -2.2(12) . . . . ?
C2 C3 C4 C5 1.3(11) . . . . ?
C2 C3 C4 C6 177.8(7) . . . . ?
C1 N1 C5 C4 -2.2(11) . . . . ?
Ag1 N1 C5 C4 175.9(5) . . . . ?
C3 C4 C5 N1 0.9(11) . . . . ?
C6 C4 C5 N1 -175.6(7) . . . . ?
C5 C4 C6 O1 141.9(8) . . . . ?
C3 C4 C6 O1 -34.5(10) . . . . ?
C5 C4 C6 C7 -40.5(10) . . . . ?
C3 C4 C6 C7 143.1(7) . . . . ?
O1 C6 C7 C8 143.5(8) . . . . ?
C4 C6 C7 C8 -34.1(10) . . . . ?
O1 C6 C7 C11 -32.0(11) . . . . ?
C4 C6 C7 C11 150.4(7) . . . . ?
C11 C7 C8 C9 1.4(12) . . . . ?
C6 C7 C8 C9 -174.2(8) . . . . ?
C7 C8 C9 C10 -3.6(13) . . . . ?
C11 N2 C10 C9 -1.7(13) . . . . ?
Ag1 N2 C10 C9 169.0(7) 11_556 . . . ?
C8 C9 C10 N2 3.9(14) . . . . ?
C10 N2 C11 C7 -0.6(12) . . . . ?
Ag1 N2 C11 C7 -171.3(6) 11_556 . . . ?
C8 C7 C11 N2 0.7(12) . . . . ?
C6 C7 C11 N2 176.5(7) . . . . ?
O3 C12 O2 Ag1 -5.1(11) . . . . ?
C13 C12 O2 Ag1 174.9(6) . . . . ?
N2 Ag1 O2 C12 106.4(5) 12_556 . . . ?
N1 Ag1 O2 C12 -73.8(5) . . . . ?
Ag1 Ag1 O2 C12 -162.9(6) 16 . . . ?
O3 C12 C13 F1 -4.7(12) . . . . ?
O2 C12 C13 F1 175.3(8) . . . . ?
O3 C12 C13 F2 -127.3(8) . . . . ?
O2 C12 C13 F2 52.7(10) . . . . ?
O3 C12 C13 F3 115.5(9) . . . . ?
O2 C12 C13 F3 -64.5(10) . . . . ?

_diffrn_measured_fraction_theta_max 0.991
_diffrn_reflns_theta_full        25.01
_diffrn_measured_fraction_theta_full 0.991
_refine_diff_density_max         1.150
_refine_diff_density_min         -0.899
_refine_diff_density_rms         0.132
