
#######################################################################
#
#                 Cambridge Crystallographic Data Centre
#                                CCDC
#
#######################################################################
#
# If this CIF has been generated from an entry in the Cambridge
# Structural Database, then it will include bibliographic, chemical,
# crystal, experimental, refinement or atomic coordinate data resulting
# from the CCDC's data processing and validation procedures.
#
#######################################################################

data_CSD_CIF_FURROZ
_audit_creation_date 1988-09-05
_audit_creation_method CSD-ConQuest-V1
_database_code_CSD FURROZ
_database_code_depnum_ccdc_archive 'CCDC 1161541'
_chemical_formula_sum 'C7 H4 Fe1 O3'
_chemical_formula_moiety
;
C7 H4 Fe1 O3
;
_journal_coden_Cambridge 9
_journal_volume 27
_journal_year 1988
_journal_page_first 57
_journal_name_full 'Inorg.Chem. '
loop_
_publ_author_name
"P.D.Harvey"
"W.P.Schaefer"
"H.B.Gray"
"D.F.R.Gilson"
"I.S.Butler"
_chemical_name_systematic
;
Tricarbonyl-(\h^4^-cyclobutenyl)-iron(0)
;
_chemical_name_common
;
Teaching Subset: Fundamental Chemistry
;
_cell_volume    725.799
_exptl_crystal_colour 'yellow'
_exptl_crystal_density_diffrn 1.76
_diffrn_ambient_temperature 228.15
#These two values have been output from a single CSD field.
_refine_ls_R_factor_gt 0.035
_refine_ls_wR_factor_gt 0.035
_symmetry_cell_setting orthorhombic
_symmetry_space_group_name_H-M 'P n m a'
_symmetry_Int_Tables_number 62
loop_
_symmetry_equiv_pos_site_id
_symmetry_equiv_pos_as_xyz
1 x,y,z
2 1/2-x,-y,1/2+z
3 1/2+x,1/2-y,1/2-z
4 -x,1/2+y,-z
5 -x,-y,-z
6 -1/2+x,y,-1/2-z
7 -1/2-x,-1/2+y,-1/2+z
8 x,-1/2-y,z
_cell_length_a 12.494(3)
_cell_length_b 9.503(2)
_cell_length_c 6.113(1)
_cell_angle_alpha 90
_cell_angle_beta 90
_cell_angle_gamma 90
_cell_formula_units_Z 4
loop_
_atom_type_symbol
_atom_type_radius_bond
C 0.68
H 0.23
Fe 1.34
O 0.68
loop_
_atom_site_label
_atom_site_type_symbol
_atom_site_fract_x
_atom_site_fract_y
_atom_site_fract_z
Fe1 Fe 0.07750(2) 0.25000 0.04570(5)
C1 C 0.1444(1) 0.1082(2) -0.0890(2)
O1 O 0.1866(1) 0.0164(1) -0.1721(2)
C2 C -0.0423(2) 0.25000 -0.1108(4)
O2 O -0.1209(1) 0.25000 -0.2069(3)
C3 C -0.0120(2) 0.25000 0.3250(4)
C4 C 0.0678(2) 0.3561(2) 0.3347(3)
C5 C 0.1489(2) 0.25000 0.3440(4)
H1 H -0.0822(22) 0.25000 0.3348(48)
H2 H 0.0663(16) 0.4520(23) 0.3535(32)
H3 H 0.2217(22) 0.25000 0.3811(41)
C1G C 0.1444(1) 0.3918(2) -0.0890(2)
C4G C 0.0678(2) 0.1439(2) 0.3347(3)
O1G O 0.1866(1) 0.4836(1) -0.1721(2)
H2G H 0.0663(16) 0.0480(23) 0.3535(32)
#END
