####################################################################### 
# 
# This file contains crystal structure data downloaded from the 
# Cambridge Structural Database (CSD) hosted by the Cambridge 
# Crystallographic Data Centre (CCDC).
# 
# Full information about CCDC data access policies and citation 
# guidelines are available at http://www.ccdc.cam.ac.uk/access/V1 
# 
# Audit and citation data items may have been added by the CCDC. 
# Please retain this information to preserve the provenance of 
# this file and to allow appropriate attribution of the data. 
# 
#######################################################################

data_1buol
_audit_block_doi                 10.5517/ccrphvr
_database_code_depnum_ccdc_archive 'CCDC 705865'
loop_
_citation_id
_citation_doi
_citation_year
1 10.1002/chem.200900010 2009
_audit_update_record             
;
2008-10-19 deposited with the CCDC.	2024-07-10 downloaded from the CCDC.
;

_audit_creation_method           SHELXL-97
_chemical_name_systematic        
;
?
;
_chemical_name_common            ?
_chemical_melting_point          ?
_chemical_formula_moiety         ?
_chemical_formula_sum            'C17 H18 Ag F3 N2 O4'
_chemical_formula_weight         479.20

loop_
_atom_type_symbol
_atom_type_description
_atom_type_scat_dispersion_real
_atom_type_scat_dispersion_imag
_atom_type_scat_source
C C 0.0033 0.0016 'International Tables Vol C Tables 4.2.6.8 and 6.1.1.4'
H H 0.0000 0.0000 'International Tables Vol C Tables 4.2.6.8 and 6.1.1.4'
N N 0.0061 0.0033 'International Tables Vol C Tables 4.2.6.8 and 6.1.1.4'
O O 0.0106 0.0060 'International Tables Vol C Tables 4.2.6.8 and 6.1.1.4'
F F 0.0171 0.0103 'International Tables Vol C Tables 4.2.6.8 and 6.1.1.4'
Ag Ag -0.8971 1.1015 'International Tables Vol C Tables 4.2.6.8 and 6.1.1.4'

_symmetry_cell_setting           Rhombohedral
_symmetry_space_group_name_H-M   R-3

loop_
_symmetry_equiv_pos_as_xyz
'x, y, z'
'-y, x-y, z'
'-x+y, -x, z'
'x+2/3, y+1/3, z+1/3'
'-y+2/3, x-y+1/3, z+1/3'
'-x+y+2/3, -x+1/3, z+1/3'
'x+1/3, y+2/3, z+2/3'
'-y+1/3, x-y+2/3, z+2/3'
'-x+y+1/3, -x+2/3, z+2/3'
'-x, -y, -z'
'y, -x+y, -z'
'x-y, x, -z'
'-x+2/3, -y+1/3, -z+1/3'
'y+2/3, -x+y+1/3, -z+1/3'
'x-y+2/3, x+1/3, -z+1/3'
'-x+1/3, -y+2/3, -z+2/3'
'y+1/3, -x+y+2/3, -z+2/3'
'x-y+1/3, x+2/3, -z+2/3'

_cell_length_a                   33.4968(12)
_cell_length_b                   33.4968(12)
_cell_length_c                   8.5164(6)
_cell_angle_alpha                90.00
_cell_angle_beta                 90.00
_cell_angle_gamma                120.00
_cell_volume                     8275.5(7)
_cell_formula_units_Z            18
_cell_measurement_temperature    123(2)
_cell_measurement_reflns_used    ?
_cell_measurement_theta_min      ?
_cell_measurement_theta_max      ?

_exptl_crystal_description       Block
_exptl_crystal_colour            Brown
_exptl_crystal_size_max          0.24
_exptl_crystal_size_mid          0.17
_exptl_crystal_size_min          0.15
_exptl_crystal_density_meas      ?
_exptl_crystal_density_diffrn    1.731
_exptl_crystal_density_method    'not measured'
_exptl_crystal_F_000             4320
_exptl_absorpt_coefficient_mu    1.151
_exptl_absorpt_correction_type   MULTI-SCAN
_exptl_absorpt_correction_T_min  0.868928
_exptl_absorpt_correction_T_max  1.000000
_exptl_absorpt_process_details   SADABS

_exptl_special_details           
;
?
;

_diffrn_ambient_temperature      123(2)
_diffrn_radiation_wavelength     0.71073
_diffrn_radiation_type           MoK\a
_diffrn_radiation_source         'fine-focus sealed tube'
_diffrn_radiation_monochromator  graphite
_diffrn_measurement_device_type  'CCD area detector'
_diffrn_measurement_method       'phi and omega scans'
_diffrn_detector_area_resol_mean ?
_diffrn_standards_number         ?
_diffrn_standards_interval_count ?
_diffrn_standards_interval_time  ?
_diffrn_standards_decay_%        ?
_diffrn_reflns_number            14477
_diffrn_reflns_av_R_equivalents  0.0559
_diffrn_reflns_av_sigmaI/netI    0.0506
_diffrn_reflns_limit_h_min       -24
_diffrn_reflns_limit_h_max       39
_diffrn_reflns_limit_k_min       -39
_diffrn_reflns_limit_k_max       38
_diffrn_reflns_limit_l_min       -10
_diffrn_reflns_limit_l_max       10
_diffrn_reflns_theta_min         2.11
_diffrn_reflns_theta_max         25.01
_reflns_number_total             3218
_reflns_number_gt                2705
_reflns_threshold_expression     >2sigma(I)

_computing_data_collection       'Bruker XSCANS'
_computing_cell_refinement       'Bruker XSCANS'
_computing_data_reduction        'Bruker SHELXTL'
_computing_structure_solution    'SHELXS-97 (Sheldrick, 1990)'
_computing_structure_refinement  'SHELXL-97 (Sheldrick, 1997)'
_computing_molecular_graphics    'Bruker SHELXTL'
_computing_publication_material  'Bruker SHELXTL'

_refine_special_details          
;
Refinement of F^2^ against ALL reflections. The weighted R-factor wR and
goodness of fit S are based on F^2^, conventional R-factors R are based
on F, with F set to zero for negative F^2^. The threshold expression of
F^2^ > 2sigma(F^2^) is used only for calculating R-factors(gt) etc. and is
not relevant to the choice of reflections for refinement. R-factors based
on F^2^ are statistically about twice as large as those based on F, and R-
factors based on ALL data will be even larger.
;

_refine_ls_structure_factor_coef Fsqd
_refine_ls_matrix_type           full
_refine_ls_weighting_scheme      calc
_refine_ls_weighting_details     
'calc w=1/[\s^2^(Fo^2^)+(0.0551P)^2^+45.7355P] where P=(Fo^2^+2Fc^2^)/3'
_atom_sites_solution_primary     direct
_atom_sites_solution_secondary   difmap
_atom_sites_solution_hydrogens   geom
_refine_ls_hydrogen_treatment    constr
_refine_ls_extinction_method     none
_refine_ls_extinction_coef       ?
_refine_ls_number_reflns         3218
_refine_ls_number_parameters     244
_refine_ls_number_restraints     54
_refine_ls_R_factor_all          0.0683
_refine_ls_R_factor_gt           0.0551
_refine_ls_wR_factor_ref         0.1240
_refine_ls_wR_factor_gt          0.1188
_refine_ls_goodness_of_fit_ref   1.177
_refine_ls_restrained_S_all      1.186
_refine_ls_shift/su_max          0.001
_refine_ls_shift/su_mean         0.000

loop_
_atom_site_label
_atom_site_type_symbol
_atom_site_fract_x
_atom_site_fract_y
_atom_site_fract_z
_atom_site_U_iso_or_equiv
_atom_site_adp_type
_atom_site_occupancy
_atom_site_symmetry_multiplicity
_atom_site_calc_flag
_atom_site_refinement_flags
_atom_site_disorder_assembly
_atom_site_disorder_group
Ag1 Ag 0.147255(15) 0.323067(15) 0.50308(5) 0.01946(17) Uani 1 1 d . . .
O1 O 0.33676(13) 0.33306(13) 0.7849(4) 0.0176(9) Uani 1 1 d . . .
N1 N 0.20678(15) 0.34446(15) 0.6588(5) 0.0145(10) Uani 1 1 d . . .
N2 N 0.28152(15) 0.19960(16) 0.6217(5) 0.0162(10) Uani 1 1 d . . .
C1 C 0.21791(19) 0.37884(18) 0.7625(6) 0.0160(12) Uani 1 1 d . . .
H1A H 0.2007 0.3943 0.7619 0.019 Uiso 1 1 calc R . .
C2 C 0.2535(2) 0.39251(19) 0.8700(7) 0.0190(13) Uani 1 1 d . . .
H2A H 0.2602 0.4166 0.9425 0.023 Uiso 1 1 calc R . .
C3 C 0.27891(19) 0.37043(18) 0.8697(6) 0.0162(12) Uani 1 1 d . . .
H3A H 0.3041 0.3797 0.9397 0.019 Uiso 1 1 calc R . .
C4 C 0.26700(19) 0.33432(18) 0.7649(6) 0.0141(12) Uani 1 1 d . . .
C5 C 0.23083(18) 0.32234(19) 0.6631(6) 0.0148(12) Uani 1 1 d . . .
H5A H 0.2226 0.2974 0.5929 0.018 Uiso 1 1 calc R . .
C6 C 0.29514(19) 0.31102(19) 0.7602(6) 0.0134(11) Uani 1 1 d . . .
C7 C 0.27219(19) 0.26080(19) 0.7283(6) 0.0149(12) Uani 1 1 d . . .
C8 C 0.2284(2) 0.2299(2) 0.7775(7) 0.0199(13) Uani 1 1 d . . .
H8A H 0.2100 0.2401 0.8295 0.024 Uiso 1 1 calc R . .
C9 C 0.2114(2) 0.1833(2) 0.7499(7) 0.0234(14) Uani 1 1 d . . .
H9A H 0.1815 0.1612 0.7848 0.028 Uiso 1 1 calc R . .
C10 C 0.2383(2) 0.16965(19) 0.6720(7) 0.0201(13) Uani 1 1 d . . .
H10A H 0.2260 0.1377 0.6523 0.024 Uiso 1 1 calc R . .
C11 C 0.29763(19) 0.24404(19) 0.6509(6) 0.0149(12) Uani 1 1 d . . .
H11A H 0.3280 0.2655 0.6174 0.018 Uiso 1 1 calc R . .
C12 C 0.15433(19) 0.4172(2) 0.4454(7) 0.0212(13) Uani 1 1 d . . .
O2 O 0.14268(16) 0.39689(16) 0.5713(5) 0.0338(11) Uani 1 1 d . . .
O3 O 0.15623(15) 0.40243(15) 0.3136(5) 0.0295(10) Uani 1 1 d . . .
C13 C 0.1710(2) 0.4691(2) 0.4495(8) 0.0296(15) Uani 1 1 d . . .
F1 F 0.15811(15) 0.48291(13) 0.5757(4) 0.0382(10) Uani 1 1 d . . .
F2 F 0.15552(17) 0.48278(15) 0.3258(5) 0.0469(11) Uani 1 1 d . . .
F3 F 0.21697(14) 0.49371(13) 0.4428(6) 0.0504(12) Uani 1 1 d . . .
O4 O 0.22077(17) 0.09052(17) 0.3660(6) 0.0403(12) Uani 1 1 d U . .
H4A H 0.2307 0.0880 0.4539 0.060 Uiso 1 1 calc R . .
C21 C 0.1722(3) 0.0713(3) 0.3737(9) 0.0442(18) Uani 1 1 d U . .
H21A H 0.1647 0.0900 0.4450 0.053 Uiso 1 1 calc R . .
H21B H 0.1577 0.0396 0.4158 0.053 Uiso 1 1 calc R . .
C22 C 0.1541(3) 0.0707(3) 0.2141(10) 0.055(2) Uani 1 1 d U . .
H22A H 0.1600 0.0502 0.1461 0.066 Uiso 1 1 calc R . .
H22B H 0.1710 0.1022 0.1694 0.066 Uiso 1 1 calc R . .
C23 C 0.1029(4) 0.0544(4) 0.2118(15) 0.090(3) Uani 1 1 d U . .
H23A H 0.0966 0.0740 0.2829 0.108 Uiso 1 1 calc R . .
H23B H 0.0938 0.0578 0.1043 0.108 Uiso 1 1 calc R . .
C24 C 0.0757(6) 0.0070(6) 0.260(2) 0.158(6) Uani 1 1 d U . .
H24A H 0.0430 -0.0020 0.2595 0.238 Uiso 1 1 calc R . .
H24B H 0.0848 0.0035 0.3661 0.238 Uiso 1 1 calc R . .
H24C H 0.0808 -0.0126 0.1871 0.238 Uiso 1 1 calc R . .

loop_
_atom_site_aniso_label
_atom_site_aniso_U_11
_atom_site_aniso_U_22
_atom_site_aniso_U_33
_atom_site_aniso_U_23
_atom_site_aniso_U_13
_atom_site_aniso_U_12
Ag1 0.0151(3) 0.0207(3) 0.0235(3) -0.00494(19) -0.00735(18) 0.0096(2)
O1 0.016(2) 0.022(2) 0.015(2) -0.0041(16) -0.0023(16) 0.0098(18)
N1 0.012(2) 0.014(2) 0.017(2) -0.0020(19) -0.0019(19) 0.006(2)
N2 0.015(2) 0.016(3) 0.017(2) -0.001(2) 0.000(2) 0.008(2)
C1 0.015(3) 0.009(3) 0.022(3) 0.000(2) 0.001(2) 0.005(2)
C2 0.030(3) 0.016(3) 0.015(3) -0.003(2) 0.002(3) 0.015(3)
C3 0.014(3) 0.015(3) 0.015(3) 0.002(2) -0.003(2) 0.003(2)
C4 0.016(3) 0.010(3) 0.011(3) 0.002(2) 0.005(2) 0.002(2)
C5 0.015(3) 0.017(3) 0.014(3) 0.000(2) 0.003(2) 0.010(2)
C6 0.018(3) 0.021(3) 0.004(3) 0.005(2) 0.005(2) 0.012(3)
C7 0.015(3) 0.016(3) 0.012(3) 0.002(2) 0.000(2) 0.007(2)
C8 0.023(3) 0.025(3) 0.021(3) 0.002(2) 0.005(2) 0.019(3)
C9 0.021(3) 0.014(3) 0.029(3) 0.003(3) 0.009(3) 0.005(3)
C10 0.023(3) 0.012(3) 0.026(3) 0.003(2) 0.000(3) 0.010(3)
C11 0.015(3) 0.016(3) 0.014(3) 0.000(2) -0.002(2) 0.007(2)
C12 0.011(3) 0.031(4) 0.027(4) -0.003(3) -0.004(2) 0.014(3)
O2 0.042(3) 0.032(3) 0.035(3) 0.003(2) 0.001(2) 0.024(2)
O3 0.026(2) 0.032(3) 0.031(3) -0.009(2) -0.003(2) 0.016(2)
C13 0.035(4) 0.031(4) 0.031(4) -0.004(3) 0.004(3) 0.022(3)
F1 0.059(3) 0.029(2) 0.035(2) -0.0039(17) 0.008(2) 0.028(2)
F2 0.077(3) 0.054(3) 0.035(2) 0.015(2) 0.015(2) 0.052(3)
F3 0.027(2) 0.028(2) 0.086(3) -0.011(2) 0.012(2) 0.0059(19)
O4 0.041(3) 0.041(3) 0.038(2) 0.003(2) 0.003(2) 0.020(2)
C21 0.043(3) 0.044(3) 0.045(3) -0.003(3) -0.003(3) 0.021(3)
C22 0.062(4) 0.047(3) 0.061(4) 0.003(3) -0.009(3) 0.030(3)
C23 0.088(5) 0.082(4) 0.096(5) 0.006(4) -0.013(4) 0.040(4)
C24 0.154(7) 0.155(7) 0.162(7) 0.006(5) -0.011(5) 0.073(5)

_geom_special_details            
;
All esds (except the esd in the dihedral angle between two l.s. planes)
are estimated using the full covariance matrix. The cell esds are taken
into account individually in the estimation of esds in distances, angles
and torsion angles; correlations between esds in cell parameters are only
used when they are defined by crystal symmetry. An approximate (isotropic)
treatment of cell esds is used for estimating esds involving l.s. planes.
;

loop_
_geom_bond_atom_site_label_1
_geom_bond_atom_site_label_2
_geom_bond_distance
_geom_bond_site_symmetry_2
_geom_bond_publ_flag
Ag1 N2 2.193(5) 12_556 ?
Ag1 N1 2.195(4) . ?
Ag1 Ag1 3.1031(9) 16 ?
O1 C6 1.226(7) . ?
N1 C5 1.340(7) . ?
N1 C1 1.347(7) . ?
N2 C11 1.329(7) . ?
N2 C10 1.355(7) . ?
N2 Ag1 2.193(5) 11_556 ?
C1 C2 1.387(8) . ?
C1 H1A 0.9500 . ?
C2 C3 1.379(8) . ?
C2 H2A 0.9500 . ?
C3 C4 1.391(7) . ?
C3 H3A 0.9500 . ?
C4 C5 1.377(8) . ?
C4 C6 1.495(8) . ?
C5 H5A 0.9500 . ?
C6 C7 1.483(8) . ?
C7 C8 1.372(8) . ?
C7 C11 1.398(8) . ?
C8 C9 1.387(8) . ?
C8 H8A 0.9500 . ?
C9 C10 1.367(8) . ?
C9 H9A 0.9500 . ?
C10 H10A 0.9500 . ?
C11 H11A 0.9500 . ?
C12 O2 1.225(7) . ?
C12 O3 1.241(7) . ?
C12 C13 1.537(9) . ?
C13 F1 1.325(7) . ?
C13 F3 1.335(8) . ?
C13 F2 1.352(8) . ?
O4 C21 1.420(9) . ?
O4 H4A 0.8400 . ?
C21 C22 1.485(11) . ?
C21 H21A 0.9900 . ?
C21 H21B 0.9900 . ?
C22 C23 1.516(14) . ?
C22 H22A 0.9900 . ?
C22 H22B 0.9900 . ?
C23 C24 1.438(18) . ?
C23 H23A 0.9900 . ?
C23 H23B 0.9900 . ?
C24 H24A 0.9800 . ?
C24 H24B 0.9800 . ?
C24 H24C 0.9800 . ?

loop_
_geom_angle_atom_site_label_1
_geom_angle_atom_site_label_2
_geom_angle_atom_site_label_3
_geom_angle
_geom_angle_site_symmetry_1
_geom_angle_site_symmetry_3
_geom_angle_publ_flag
N2 Ag1 N1 162.78(16) 12_556 . ?
N2 Ag1 Ag1 82.18(12) 12_556 16 ?
N1 Ag1 Ag1 106.20(12) . 16 ?
C5 N1 C1 118.0(5) . . ?
C5 N1 Ag1 122.3(4) . . ?
C1 N1 Ag1 119.5(4) . . ?
C11 N2 C10 117.1(5) . . ?
C11 N2 Ag1 121.4(4) . 11_556 ?
C10 N2 Ag1 121.5(4) . 11_556 ?
N1 C1 C2 122.7(5) . . ?
N1 C1 H1A 118.7 . . ?
C2 C1 H1A 118.7 . . ?
C3 C2 C1 118.7(5) . . ?
C3 C2 H2A 120.6 . . ?
C1 C2 H2A 120.6 . . ?
C2 C3 C4 118.8(5) . . ?
C2 C3 H3A 120.6 . . ?
C4 C3 H3A 120.6 . . ?
C5 C4 C3 119.0(5) . . ?
C5 C4 C6 121.6(5) . . ?
C3 C4 C6 119.3(5) . . ?
N1 C5 C4 122.7(5) . . ?
N1 C5 H5A 118.6 . . ?
C4 C5 H5A 118.6 . . ?
O1 C6 C7 120.2(5) . . ?
O1 C6 C4 120.3(5) . . ?
C7 C6 C4 119.5(5) . . ?
C8 C7 C11 118.5(5) . . ?
C8 C7 C6 123.5(5) . . ?
C11 C7 C6 117.9(5) . . ?
C7 C8 C9 118.6(5) . . ?
C7 C8 H8A 120.7 . . ?
C9 C8 H8A 120.7 . . ?
C10 C9 C8 119.4(5) . . ?
C10 C9 H9A 120.3 . . ?
C8 C9 H9A 120.3 . . ?
N2 C10 C9 122.9(5) . . ?
N2 C10 H10A 118.5 . . ?
C9 C10 H10A 118.5 . . ?
N2 C11 C7 123.4(5) . . ?
N2 C11 H11A 118.3 . . ?
C7 C11 H11A 118.3 . . ?
O2 C12 O3 129.5(6) . . ?
O2 C12 C13 116.3(6) . . ?
O3 C12 C13 114.2(6) . . ?
F1 C13 F3 107.2(5) . . ?
F1 C13 F2 105.4(5) . . ?
F3 C13 F2 106.1(6) . . ?
F1 C13 C12 114.5(5) . . ?
F3 C13 C12 110.6(5) . . ?
F2 C13 C12 112.4(5) . . ?
C21 O4 H4A 109.5 . . ?
O4 C21 C22 109.4(7) . . ?
O4 C21 H21A 109.8 . . ?
C22 C21 H21A 109.8 . . ?
O4 C21 H21B 109.8 . . ?
C22 C21 H21B 109.8 . . ?
H21A C21 H21B 108.2 . . ?
C21 C22 C23 113.5(8) . . ?
C21 C22 H22A 108.9 . . ?
C23 C22 H22A 108.9 . . ?
C21 C22 H22B 108.9 . . ?
C23 C22 H22B 108.9 . . ?
H22A C22 H22B 107.7 . . ?
C24 C23 C22 111.9(11) . . ?
C24 C23 H23A 109.2 . . ?
C22 C23 H23A 109.2 . . ?
C24 C23 H23B 109.2 . . ?
C22 C23 H23B 109.2 . . ?
H23A C23 H23B 107.9 . . ?
C23 C24 H24A 109.5 . . ?
C23 C24 H24B 109.5 . . ?
H24A C24 H24B 109.5 . . ?
C23 C24 H24C 109.5 . . ?
H24A C24 H24C 109.5 . . ?
H24B C24 H24C 109.5 . . ?

loop_
_geom_torsion_atom_site_label_1
_geom_torsion_atom_site_label_2
_geom_torsion_atom_site_label_3
_geom_torsion_atom_site_label_4
_geom_torsion
_geom_torsion_site_symmetry_1
_geom_torsion_site_symmetry_2
_geom_torsion_site_symmetry_3
_geom_torsion_site_symmetry_4
_geom_torsion_publ_flag
N2 Ag1 N1 C5 49.2(8) 12_556 . . . ?
Ag1 Ag1 N1 C5 -68.1(4) 16 . . . ?
N2 Ag1 N1 C1 -125.9(6) 12_556 . . . ?
Ag1 Ag1 N1 C1 116.9(4) 16 . . . ?
C5 N1 C1 C2 1.2(8) . . . . ?
Ag1 N1 C1 C2 176.5(4) . . . . ?
N1 C1 C2 C3 0.8(8) . . . . ?
C1 C2 C3 C4 -2.0(8) . . . . ?
C2 C3 C4 C5 1.2(8) . . . . ?
C2 C3 C4 C6 178.2(5) . . . . ?
C1 N1 C5 C4 -2.1(8) . . . . ?
Ag1 N1 C5 C4 -177.2(4) . . . . ?
C3 C4 C5 N1 0.9(8) . . . . ?
C6 C4 C5 N1 -176.0(5) . . . . ?
C5 C4 C6 O1 143.2(5) . . . . ?
C3 C4 C6 O1 -33.7(7) . . . . ?
C5 C4 C6 C7 -37.9(7) . . . . ?
C3 C4 C6 C7 145.2(5) . . . . ?
O1 C6 C7 C8 144.9(6) . . . . ?
C4 C6 C7 C8 -34.0(8) . . . . ?
O1 C6 C7 C11 -31.7(7) . . . . ?
C4 C6 C7 C11 149.4(5) . . . . ?
C11 C7 C8 C9 0.7(8) . . . . ?
C6 C7 C8 C9 -175.9(5) . . . . ?
C7 C8 C9 C10 -1.4(9) . . . . ?
C11 N2 C10 C9 -0.1(8) . . . . ?
Ag1 N2 C10 C9 -179.9(5) 11_556 . . . ?
C8 C9 C10 N2 1.1(9) . . . . ?
C10 N2 C11 C7 -0.6(8) . . . . ?
Ag1 N2 C11 C7 179.2(4) 11_556 . . . ?
C8 C7 C11 N2 0.3(8) . . . . ?
C6 C7 C11 N2 177.1(5) . . . . ?
O2 C12 C13 F1 -19.4(8) . . . . ?
O3 C12 C13 F1 162.9(5) . . . . ?
O2 C12 C13 F3 101.9(6) . . . . ?
O3 C12 C13 F3 -75.8(7) . . . . ?
O2 C12 C13 F2 -139.7(6) . . . . ?
O3 C12 C13 F2 42.6(7) . . . . ?
O4 C21 C22 C23 -175.3(7) . . . . ?
C21 C22 C23 C24 -64.6(14) . . . . ?

_diffrn_measured_fraction_theta_max 0.995
_diffrn_reflns_theta_full        25.01
_diffrn_measured_fraction_theta_full 0.995
_refine_diff_density_max         0.722
_refine_diff_density_min         -3.483
_refine_diff_density_rms         0.133
