####################################################################### 
# 
# This file contains crystal structure data downloaded from the 
# Cambridge Structural Database (CSD) hosted by the Cambridge 
# Crystallographic Data Centre (CCDC).
# 
# Full information about CCDC data access policies and citation 
# guidelines are available at http://www.ccdc.cam.ac.uk/access/V1 
# 
# Audit and citation data items may have been added by the CCDC. 
# Please retain this information to preserve the provenance of 
# this file and to allow appropriate attribution of the data. 
# 
#######################################################################

data_diox
_audit_block_doi                 10.5517/ccrphsp
_database_code_depnum_ccdc_archive 'CCDC 705863'
loop_
_citation_id
_citation_doi
_citation_year
1 10.1002/chem.200900010 2009
_audit_update_record             
;
2008-10-19 deposited with the CCDC.	2024-07-10 downloaded from the CCDC.
;

_audit_creation_method           SHELXL-97
_chemical_name_systematic        
;
?
;
_chemical_name_common            ?
_chemical_melting_point          ?
_chemical_formula_moiety         ?
_chemical_formula_sum            'C17 H16 Ag F3 N2 O5'
_chemical_formula_weight         493.19

loop_
_atom_type_symbol
_atom_type_description
_atom_type_scat_dispersion_real
_atom_type_scat_dispersion_imag
_atom_type_scat_source
C C 0.0033 0.0016 'International Tables Vol C Tables 4.2.6.8 and 6.1.1.4'
H H 0.0000 0.0000 'International Tables Vol C Tables 4.2.6.8 and 6.1.1.4'
N N 0.0061 0.0033 'International Tables Vol C Tables 4.2.6.8 and 6.1.1.4'
O O 0.0106 0.0060 'International Tables Vol C Tables 4.2.6.8 and 6.1.1.4'
F F 0.0171 0.0103 'International Tables Vol C Tables 4.2.6.8 and 6.1.1.4'
Ag Ag -0.8971 1.1015 'International Tables Vol C Tables 4.2.6.8 and 6.1.1.4'

_symmetry_cell_setting           Rhombohedral
_symmetry_space_group_name_H-M   R-3

loop_
_symmetry_equiv_pos_as_xyz
'x, y, z'
'-y, x-y, z'
'-x+y, -x, z'
'x+2/3, y+1/3, z+1/3'
'-y+2/3, x-y+1/3, z+1/3'
'-x+y+2/3, -x+1/3, z+1/3'
'x+1/3, y+2/3, z+2/3'
'-y+1/3, x-y+2/3, z+2/3'
'-x+y+1/3, -x+2/3, z+2/3'
'-x, -y, -z'
'y, -x+y, -z'
'x-y, x, -z'
'-x+2/3, -y+1/3, -z+1/3'
'y+2/3, -x+y+1/3, -z+1/3'
'x-y+2/3, x+1/3, -z+1/3'
'-x+1/3, -y+2/3, -z+2/3'
'y+1/3, -x+y+2/3, -z+2/3'
'x-y+1/3, x+2/3, -z+2/3'

_cell_length_a                   33.786(5)
_cell_length_b                   33.786(5)
_cell_length_c                   8.417(3)
_cell_angle_alpha                90.00
_cell_angle_beta                 90.00
_cell_angle_gamma                120.00
_cell_volume                     8320(3)
_cell_formula_units_Z            18
_cell_measurement_temperature    123(2)
_cell_measurement_reflns_used    ?
_cell_measurement_theta_min      ?
_cell_measurement_theta_max      ?

_exptl_crystal_description       Block
_exptl_crystal_colour            Brown
_exptl_crystal_size_max          0.49
_exptl_crystal_size_mid          0.42
_exptl_crystal_size_min          0.38
_exptl_crystal_density_meas      ?
_exptl_crystal_density_diffrn    1.772
_exptl_crystal_density_method    'not measured'
_exptl_crystal_F_000             4428
_exptl_absorpt_coefficient_mu    1.151
_exptl_absorpt_correction_type   MULTI-SCAN
_exptl_absorpt_correction_T_min  0.586867
_exptl_absorpt_correction_T_max  1.000000
_exptl_absorpt_process_details   SADABS

_exptl_special_details           
;
?
;

_diffrn_ambient_temperature      123(2)
_diffrn_radiation_wavelength     0.71073
_diffrn_radiation_type           MoK\a
_diffrn_radiation_source         'fine-focus sealed tube'
_diffrn_radiation_monochromator  graphite
_diffrn_measurement_device_type  'CCD area detector'
_diffrn_measurement_method       'phi and omega scans'
_diffrn_detector_area_resol_mean ?
_diffrn_standards_number         ?
_diffrn_standards_interval_count ?
_diffrn_standards_interval_time  ?
_diffrn_standards_decay_%        ?
_diffrn_reflns_number            12966
_diffrn_reflns_av_R_equivalents  0.0316
_diffrn_reflns_av_sigmaI/netI    0.0270
_diffrn_reflns_limit_h_min       -38
_diffrn_reflns_limit_h_max       40
_diffrn_reflns_limit_k_min       -36
_diffrn_reflns_limit_k_max       40
_diffrn_reflns_limit_l_min       -9
_diffrn_reflns_limit_l_max       10
_diffrn_reflns_theta_min         2.52
_diffrn_reflns_theta_max         25.00
_reflns_number_total             3234
_reflns_number_gt                2935
_reflns_threshold_expression     >2sigma(I)

_computing_data_collection       'Bruker XSCANS'
_computing_cell_refinement       'Bruker XSCANS'
_computing_data_reduction        'Bruker SHELXTL'
_computing_structure_solution    'SHELXS-97 (Sheldrick, 1990)'
_computing_structure_refinement  'SHELXL-97 (Sheldrick, 1997)'
_computing_molecular_graphics    'Bruker SHELXTL'
_computing_publication_material  'Bruker SHELXTL'

_refine_special_details          
;
Refinement of F^2^ against ALL reflections. The weighted R-factor wR and
goodness of fit S are based on F^2^, conventional R-factors R are based
on F, with F set to zero for negative F^2^. The threshold expression of
F^2^ > 2sigma(F^2^) is used only for calculating R-factors(gt) etc. and is
not relevant to the choice of reflections for refinement. R-factors based
on F^2^ are statistically about twice as large as those based on F, and R-
factors based on ALL data will be even larger.
;

_refine_ls_structure_factor_coef Fsqd
_refine_ls_matrix_type           full
_refine_ls_weighting_scheme      calc
_refine_ls_weighting_details     
'calc w=1/[\s^2^(Fo^2^)+(0.0606P)^2^+111.6255P] where P=(Fo^2^+2Fc^2^)/3'
_atom_sites_solution_primary     direct
_atom_sites_solution_secondary   difmap
_atom_sites_solution_hydrogens   geom
_refine_ls_hydrogen_treatment    constr
_refine_ls_extinction_method     none
_refine_ls_extinction_coef       ?
_refine_ls_number_reflns         3234
_refine_ls_number_parameters     253
_refine_ls_number_restraints     92
_refine_ls_R_factor_all          0.0474
_refine_ls_R_factor_gt           0.0433
_refine_ls_wR_factor_ref         0.1208
_refine_ls_wR_factor_gt          0.1161
_refine_ls_goodness_of_fit_ref   1.039
_refine_ls_restrained_S_all      1.086
_refine_ls_shift/su_max          0.001
_refine_ls_shift/su_mean         0.000

loop_
_atom_site_label
_atom_site_type_symbol
_atom_site_fract_x
_atom_site_fract_y
_atom_site_fract_z
_atom_site_U_iso_or_equiv
_atom_site_adp_type
_atom_site_occupancy
_atom_site_symmetry_multiplicity
_atom_site_calc_flag
_atom_site_refinement_flags
_atom_site_disorder_assembly
_atom_site_disorder_group
Ag1 Ag 0.147452(12) 0.321855(12) 0.50460(4) 0.02632(16) Uani 1 1 d . . .
O1 O 0.33579(10) 0.33034(11) 0.7852(4) 0.0245(7) Uani 1 1 d . . .
N1 N 0.20642(13) 0.34187(13) 0.6621(4) 0.0230(8) Uani 1 1 d . . .
N2 N 0.27930(13) 0.19753(13) 0.6163(4) 0.0239(8) Uani 1 1 d . . .
C1 C 0.21927(16) 0.37744(16) 0.7610(5) 0.0243(10) Uani 1 1 d . . .
H1A H 0.2027 0.3933 0.7598 0.029 Uiso 1 1 calc R . .
C2 C 0.25576(17) 0.39191(16) 0.8648(5) 0.0256(10) Uani 1 1 d . . .
H2A H 0.2636 0.4170 0.9341 0.031 Uiso 1 1 calc R . .
C3 C 0.28063(16) 0.36950(16) 0.8664(5) 0.0240(9) Uani 1 1 d . . .
H3A H 0.3064 0.3794 0.9341 0.029 Uiso 1 1 calc R . .
C4 C 0.26681(15) 0.33200(15) 0.7659(5) 0.0211(9) Uani 1 1 d . . .
C5 C 0.23000(15) 0.31953(15) 0.6665(5) 0.0208(9) Uani 1 1 d . . .
H5A H 0.2209 0.2940 0.5982 0.025 Uiso 1 1 calc R . .
C6 C 0.29469(15) 0.30859(16) 0.7613(5) 0.0211(9) Uani 1 1 d . . .
C7 C 0.27161(15) 0.25873(16) 0.7280(5) 0.0216(9) Uani 1 1 d . . .
C8 C 0.22809(16) 0.22797(16) 0.7838(5) 0.0260(10) Uani 1 1 d . . .
H8A H 0.2106 0.2383 0.8406 0.031 Uiso 1 1 calc R . .
C9 C 0.21080(18) 0.18161(17) 0.7540(6) 0.0318(11) Uani 1 1 d . . .
H9A H 0.1813 0.1596 0.7914 0.038 Uiso 1 1 calc R . .
C10 C 0.23695(17) 0.16820(16) 0.6698(6) 0.0275(10) Uani 1 1 d . . .
H10A H 0.2245 0.1366 0.6483 0.033 Uiso 1 1 calc R . .
C11 C 0.29613(16) 0.24195(16) 0.6464(5) 0.0218(9) Uani 1 1 d . . .
H11A H 0.3261 0.2630 0.6108 0.026 Uiso 1 1 calc R . .
C12 C 0.15389(16) 0.41339(18) 0.4550(6) 0.0292(11) Uani 1 1 d . . .
O2 O 0.14631(14) 0.39834(14) 0.5914(5) 0.0409(9) Uani 1 1 d . . .
O3 O 0.15406(13) 0.39441(14) 0.3290(5) 0.0430(10) Uani 1 1 d . . .
C13 C 0.16621(19) 0.4634(2) 0.4334(6) 0.0380(13) Uani 1 1 d . . .
F1 F 0.14636(16) 0.46949(16) 0.3047(4) 0.0624(11) Uani 1 1 d . . .
F2 F 0.21165(12) 0.49028(12) 0.4131(5) 0.0584(10) Uani 1 1 d . . .
F3 F 0.15467(11) 0.48049(11) 0.5564(4) 0.0401(7) Uani 1 1 d . . .
O4 O 0.1030(6) 0.0121(5) 0.228(2) 0.281(8) Uani 1 1 d DU . .
C14 C 0.1088(7) 0.0340(5) 0.3748(19) 0.232(8) Uani 1 1 d DU . .
H14A H 0.0998 0.0115 0.4620 0.279 Uiso 1 1 calc R . .
H14B H 0.0893 0.0482 0.3799 0.279 Uiso 1 1 calc R . .
C15 C 0.1572(7) 0.0694(5) 0.3926(19) 0.210(7) Uani 1 1 d DU . .
H15A H 0.1616 0.0854 0.4951 0.252 Uiso 1 1 calc R . .
H15B H 0.1765 0.0549 0.3929 0.252 Uiso 1 1 calc R . .
O5 O 0.1701(6) 0.0998(5) 0.2715(18) 0.283(8) Uani 1 1 d DU . .
C16 C 0.1625(6) 0.0760(5) 0.1327(19) 0.219(8) Uani 1 1 d DU . .
H16A H 0.1786 0.0583 0.1353 0.263 Uiso 1 1 calc R . .
H16B H 0.1745 0.0976 0.0421 0.263 Uiso 1 1 calc R . .
C17 C 0.1138(7) 0.0453(7) 0.1127(19) 0.240(9) Uani 1 1 d DU . .
H17A H 0.0966 0.0615 0.1297 0.288 Uiso 1 1 calc R . .
H17B H 0.1069 0.0316 0.0051 0.288 Uiso 1 1 calc R . .

loop_
_atom_site_aniso_label
_atom_site_aniso_U_11
_atom_site_aniso_U_22
_atom_site_aniso_U_33
_atom_site_aniso_U_23
_atom_site_aniso_U_13
_atom_site_aniso_U_12
Ag1 0.0237(2) 0.0327(2) 0.0228(2) -0.00397(14) -0.00435(13) 0.01425(16)
O1 0.0227(17) 0.0323(18) 0.0165(14) -0.0018(13) -0.0015(12) 0.0123(14)
N1 0.0243(19) 0.028(2) 0.0161(18) -0.0017(15) 0.0017(15) 0.0127(17)
N2 0.030(2) 0.027(2) 0.0187(19) 0.0037(15) 0.0021(15) 0.0173(18)
C1 0.026(2) 0.026(2) 0.021(2) 0.0006(18) 0.0044(18) 0.013(2)
C2 0.032(2) 0.024(2) 0.018(2) -0.0023(18) 0.0001(19) 0.012(2)
C3 0.024(2) 0.027(2) 0.018(2) -0.0008(18) -0.0013(18) 0.0100(19)
C4 0.022(2) 0.023(2) 0.015(2) 0.0025(17) 0.0026(17) 0.0088(19)
C5 0.023(2) 0.024(2) 0.015(2) 0.0003(17) 0.0044(17) 0.0111(19)
C6 0.026(2) 0.030(2) 0.0084(19) 0.0017(17) 0.0011(16) 0.014(2)
C7 0.025(2) 0.028(2) 0.013(2) 0.0022(17) -0.0010(17) 0.014(2)
C8 0.027(2) 0.029(2) 0.023(2) 0.0020(19) 0.0047(19) 0.015(2)
C9 0.029(3) 0.029(3) 0.033(3) 0.003(2) 0.007(2) 0.012(2)
C10 0.030(3) 0.024(2) 0.027(2) 0.0039(19) 0.003(2) 0.012(2)
C11 0.023(2) 0.026(2) 0.016(2) 0.0031(17) -0.0003(17) 0.0126(19)
C12 0.022(2) 0.037(3) 0.034(3) -0.007(2) -0.001(2) 0.018(2)
O2 0.052(2) 0.044(2) 0.039(2) 0.0067(18) 0.0086(18) 0.034(2)
O3 0.031(2) 0.050(2) 0.045(2) -0.0230(19) -0.0025(17) 0.0181(18)
C13 0.040(3) 0.051(3) 0.034(3) 0.004(2) 0.012(2) 0.030(3)
F1 0.094(3) 0.102(3) 0.0331(19) 0.0179(19) 0.0135(19) 0.081(3)
F2 0.046(2) 0.0374(19) 0.089(3) 0.0037(18) 0.026(2) 0.0185(16)
F3 0.052(2) 0.0388(17) 0.0395(18) -0.0035(14) 0.0079(15) 0.0305(16)
O4 0.293(14) 0.175(12) 0.262(15) 0.000(11) -0.073(13) 0.032(11)
C14 0.296(16) 0.101(10) 0.210(15) -0.028(10) -0.014(14) 0.031(11)
C15 0.305(16) 0.111(10) 0.189(13) 0.040(9) -0.087(12) 0.085(10)
O5 0.289(14) 0.222(13) 0.241(14) -0.045(11) 0.035(12) 0.054(11)
C16 0.253(15) 0.159(12) 0.206(13) -0.112(10) 0.043(12) 0.074(11)
C17 0.261(16) 0.182(15) 0.219(15) -0.031(12) -0.031(15) 0.067(13)

_geom_special_details            
;
All esds (except the esd in the dihedral angle between two l.s. planes)
are estimated using the full covariance matrix. The cell esds are taken
into account individually in the estimation of esds in distances, angles
and torsion angles; correlations between esds in cell parameters are only
used when they are defined by crystal symmetry. An approximate (isotropic)
treatment of cell esds is used for estimating esds involving l.s. planes.
;

loop_
_geom_bond_atom_site_label_1
_geom_bond_atom_site_label_2
_geom_bond_distance
_geom_bond_site_symmetry_2
_geom_bond_publ_flag
Ag1 N1 2.199(4) . ?
Ag1 N2 2.199(4) 12_556 ?
Ag1 Ag1 3.0972(11) 16 ?
O1 C6 1.220(5) . ?
N1 C1 1.343(6) . ?
N1 C5 1.344(6) . ?
N2 C11 1.337(6) . ?
N2 C10 1.347(6) . ?
N2 Ag1 2.199(4) 11_556 ?
C1 C2 1.385(7) . ?
C2 C3 1.384(7) . ?
C3 C4 1.396(6) . ?
C4 C5 1.378(6) . ?
C4 C6 1.503(6) . ?
C6 C7 1.487(6) . ?
C7 C8 1.391(7) . ?
C7 C11 1.396(6) . ?
C8 C9 1.394(7) . ?
C9 C10 1.374(7) . ?
C12 O2 1.229(6) . ?
C12 O3 1.241(6) . ?
C12 C13 1.534(8) . ?
C13 F3 1.336(6) . ?
C13 F1 1.343(7) . ?
C13 F2 1.348(7) . ?
O4 C17 1.385(12) . ?
O4 C14 1.403(12) . ?
C14 C15 1.472(17) . ?
C15 O5 1.357(12) . ?
O5 C16 1.367(11) . ?
C16 C17 1.451(17) . ?

loop_
_geom_angle_atom_site_label_1
_geom_angle_atom_site_label_2
_geom_angle_atom_site_label_3
_geom_angle
_geom_angle_site_symmetry_1
_geom_angle_site_symmetry_3
_geom_angle_publ_flag
N1 Ag1 N2 160.52(15) . 12_556 ?
N1 Ag1 Ag1 106.38(10) . 16 ?
N2 Ag1 Ag1 83.84(10) 12_556 16 ?
C1 N1 C5 117.9(4) . . ?
C1 N1 Ag1 119.1(3) . . ?
C5 N1 Ag1 123.0(3) . . ?
C11 N2 C10 117.5(4) . . ?
C11 N2 Ag1 120.0(3) . 11_556 ?
C10 N2 Ag1 122.4(3) . 11_556 ?
N1 C1 C2 122.6(4) . . ?
C3 C2 C1 119.3(4) . . ?
C2 C3 C4 118.2(4) . . ?
C5 C4 C3 119.1(4) . . ?
C5 C4 C6 122.1(4) . . ?
C3 C4 C6 118.7(4) . . ?
N1 C5 C4 122.9(4) . . ?
O1 C6 C7 120.5(4) . . ?
O1 C6 C4 120.2(4) . . ?
C7 C6 C4 119.3(4) . . ?
C8 C7 C11 118.9(4) . . ?
C8 C7 C6 122.8(4) . . ?
C11 C7 C6 118.1(4) . . ?
C7 C8 C9 118.1(4) . . ?
C10 C9 C8 119.1(5) . . ?
N2 C10 C9 123.5(5) . . ?
N2 C11 C7 122.9(4) . . ?
O2 C12 O3 129.6(5) . . ?
O2 C12 C13 116.9(4) . . ?
O3 C12 C13 113.5(5) . . ?
F3 C13 F1 106.4(4) . . ?
F3 C13 F2 106.7(5) . . ?
F1 C13 F2 106.4(5) . . ?
F3 C13 C12 114.0(4) . . ?
F1 C13 C12 112.6(5) . . ?
F2 C13 C12 110.4(4) . . ?
C17 O4 C14 106.2(13) . . ?
O4 C14 C15 108.9(13) . . ?
O5 C15 C14 110.1(12) . . ?
C15 O5 C16 107.5(15) . . ?
O5 C16 C17 109.4(13) . . ?
O4 C17 C16 104.1(13) . . ?

_diffrn_measured_fraction_theta_max 0.993
_diffrn_reflns_theta_full        25.00
_diffrn_measured_fraction_theta_full 0.993
_refine_diff_density_max         1.714
_refine_diff_density_min         -0.902
_refine_diff_density_rms         0.121
