####################################################################### 
# 
# This file contains crystal structure data downloaded from the 
# Cambridge Structural Database (CSD) hosted by the Cambridge 
# Crystallographic Data Centre (CCDC).
# 
# Full information about CCDC data access policies and citation 
# guidelines are available at http://www.ccdc.cam.ac.uk/access/V1 
# 
# Audit and citation data items may have been added by the CCDC. 
# Please retain this information to preserve the provenance of 
# this file and to allow appropriate attribution of the data. 
# 
#######################################################################

data_2buol1
_audit_block_doi                 10.5517/ccrphws
_database_code_depnum_ccdc_archive 'CCDC 705866'
loop_
_citation_id
_citation_doi
_citation_year
1 10.1002/chem.200900010 2009
_audit_update_record             
;
2008-10-19 deposited with the CCDC.	2024-07-10 downloaded from the CCDC.
;

_audit_creation_method           SHELXL-97
_chemical_name_systematic        
;
?
;
_chemical_name_common            ?
_chemical_melting_point          ?
_chemical_formula_moiety         ?
_chemical_formula_sum            'C17 H18 Ag F3 N2 O4'
_chemical_formula_weight         479.20

loop_
_atom_type_symbol
_atom_type_description
_atom_type_scat_dispersion_real
_atom_type_scat_dispersion_imag
_atom_type_scat_source
C C 0.0033 0.0016 'International Tables Vol C Tables 4.2.6.8 and 6.1.1.4'
H H 0.0000 0.0000 'International Tables Vol C Tables 4.2.6.8 and 6.1.1.4'
N N 0.0061 0.0033 'International Tables Vol C Tables 4.2.6.8 and 6.1.1.4'
O O 0.0106 0.0060 'International Tables Vol C Tables 4.2.6.8 and 6.1.1.4'
F F 0.0171 0.0103 'International Tables Vol C Tables 4.2.6.8 and 6.1.1.4'
Ag Ag -0.8971 1.1015 'International Tables Vol C Tables 4.2.6.8 and 6.1.1.4'

_symmetry_cell_setting           Rhombohedral
_symmetry_space_group_name_H-M   R-3

loop_
_symmetry_equiv_pos_as_xyz
'x, y, z'
'-y, x-y, z'
'-x+y, -x, z'
'x+2/3, y+1/3, z+1/3'
'-y+2/3, x-y+1/3, z+1/3'
'-x+y+2/3, -x+1/3, z+1/3'
'x+1/3, y+2/3, z+2/3'
'-y+1/3, x-y+2/3, z+2/3'
'-x+y+1/3, -x+2/3, z+2/3'
'-x, -y, -z'
'y, -x+y, -z'
'x-y, x, -z'
'-x+2/3, -y+1/3, -z+1/3'
'y+2/3, -x+y+1/3, -z+1/3'
'x-y+2/3, x+1/3, -z+1/3'
'-x+1/3, -y+2/3, -z+2/3'
'y+1/3, -x+y+2/3, -z+2/3'
'x-y+1/3, x+2/3, -z+2/3'

_cell_length_a                   34.0297(16)
_cell_length_b                   34.0297(16)
_cell_length_c                   8.3643(8)
_cell_angle_alpha                90.00
_cell_angle_beta                 90.00
_cell_angle_gamma                120.00
_cell_volume                     8388.3(10)
_cell_formula_units_Z            18
_cell_measurement_temperature    123(2)
_cell_measurement_reflns_used    ?
_cell_measurement_theta_min      ?
_cell_measurement_theta_max      ?

_exptl_crystal_description       Block
_exptl_crystal_colour            Yellow
_exptl_crystal_size_max          0.13
_exptl_crystal_size_mid          0.11
_exptl_crystal_size_min          0.10
_exptl_crystal_density_meas      ?
_exptl_crystal_density_diffrn    1.708
_exptl_crystal_density_method    'not measured'
_exptl_crystal_F_000             4320
_exptl_absorpt_coefficient_mu    1.135
_exptl_absorpt_correction_type   MULTI-SCAN
_exptl_absorpt_correction_T_min  0.770576
_exptl_absorpt_correction_T_max  1.000000
_exptl_absorpt_process_details   SADABS

_exptl_special_details           
;
?
;

_diffrn_ambient_temperature      123(2)
_diffrn_radiation_wavelength     0.71073
_diffrn_radiation_type           MoK\a
_diffrn_radiation_source         'fine-focus sealed tube'
_diffrn_radiation_monochromator  graphite
_diffrn_measurement_device_type  'CCD area detector'
_diffrn_measurement_method       'phi and omega scans'
_diffrn_detector_area_resol_mean ?
_diffrn_standards_number         ?
_diffrn_standards_interval_count ?
_diffrn_standards_interval_time  ?
_diffrn_standards_decay_%        ?
_diffrn_reflns_number            14753
_diffrn_reflns_av_R_equivalents  0.0443
_diffrn_reflns_av_sigmaI/netI    0.0377
_diffrn_reflns_limit_h_min       -37
_diffrn_reflns_limit_h_max       40
_diffrn_reflns_limit_k_min       -40
_diffrn_reflns_limit_k_max       39
_diffrn_reflns_limit_l_min       -9
_diffrn_reflns_limit_l_max       9
_diffrn_reflns_theta_min         2.07
_diffrn_reflns_theta_max         25.00
_reflns_number_total             3283
_reflns_number_gt                2664
_reflns_threshold_expression     >2sigma(I)

_computing_data_collection       'Bruker XSCANS'
_computing_cell_refinement       'Bruker XSCANS'
_computing_data_reduction        'Bruker SHELXTL'
_computing_structure_solution    'SHELXS-97 (Sheldrick, 1990)'
_computing_structure_refinement  'SHELXL-97 (Sheldrick, 1997)'
_computing_molecular_graphics    'Bruker SHELXTL'
_computing_publication_material  'Bruker SHELXTL'

_refine_special_details          
;
Refinement of F^2^ against ALL reflections. The weighted R-factor wR and
goodness of fit S are based on F^2^, conventional R-factors R are based
on F, with F set to zero for negative F^2^. The threshold expression of
F^2^ > 2sigma(F^2^) is used only for calculating R-factors(gt) etc. and is
not relevant to the choice of reflections for refinement. R-factors based
on F^2^ are statistically about twice as large as those based on F, and R-
factors based on ALL data will be even larger.
;

_refine_ls_structure_factor_coef Fsqd
_refine_ls_matrix_type           full
_refine_ls_weighting_scheme      calc
_refine_ls_weighting_details     
'calc w=1/[\s^2^(Fo^2^)+(0.0840P)^2^+77.6355P] where P=(Fo^2^+2Fc^2^)/3'
_atom_sites_solution_primary     direct
_atom_sites_solution_secondary   difmap
_atom_sites_solution_hydrogens   geom
_refine_ls_hydrogen_treatment    constr
_refine_ls_extinction_method     none
_refine_ls_extinction_coef       ?
_refine_ls_number_reflns         3283
_refine_ls_number_parameters     289
_refine_ls_number_restraints     114
_refine_ls_R_factor_all          0.0636
_refine_ls_R_factor_gt           0.0507
_refine_ls_wR_factor_ref         0.1439
_refine_ls_wR_factor_gt          0.1336
_refine_ls_goodness_of_fit_ref   1.052
_refine_ls_restrained_S_all      1.042
_refine_ls_shift/su_max          0.001
_refine_ls_shift/su_mean         0.000

loop_
_atom_site_label
_atom_site_type_symbol
_atom_site_fract_x
_atom_site_fract_y
_atom_site_fract_z
_atom_site_U_iso_or_equiv
_atom_site_adp_type
_atom_site_occupancy
_atom_site_symmetry_multiplicity
_atom_site_calc_flag
_atom_site_refinement_flags
_atom_site_disorder_assembly
_atom_site_disorder_group
Ag1 Ag 0.147856(14) 0.320770(15) 0.50677(5) 0.02927(19) Uani 1 1 d . . .
O1 O 0.33501(12) 0.32789(12) 0.7796(4) 0.0239(8) Uani 1 1 d . . .
N1 N 0.20660(14) 0.33997(15) 0.6616(5) 0.0240(10) Uani 1 1 d . . .
N2 N 0.27824(15) 0.19639(15) 0.6113(5) 0.0253(10) Uani 1 1 d . . .
C1 C 0.22036(18) 0.37545(18) 0.7608(6) 0.0255(11) Uani 1 1 d . . .
H1A H 0.2039 0.3913 0.7613 0.031 Uiso 1 1 calc R . .
C2 C 0.25715(19) 0.39023(18) 0.8623(7) 0.0272(12) Uani 1 1 d . . .
H2A H 0.2654 0.4153 0.9315 0.033 Uiso 1 1 calc R . .
C3 C 0.28159(18) 0.36796(18) 0.8612(6) 0.0241(11) Uani 1 1 d . . .
H3A H 0.3077 0.3780 0.9267 0.029 Uiso 1 1 calc R . .
C4 C 0.26699(16) 0.33006(17) 0.7611(6) 0.0198(10) Uani 1 1 d . . .
C5 C 0.22959(17) 0.31716(17) 0.6650(6) 0.0222(11) Uani 1 1 d . . .
H5A H 0.2196 0.2912 0.5986 0.027 Uiso 1 1 calc R . .
C6 C 0.29437(17) 0.30682(17) 0.7558(6) 0.0202(11) Uani 1 1 d . . .
C7 C 0.27121(18) 0.25724(18) 0.7239(6) 0.0218(11) Uani 1 1 d . . .
C8 C 0.22811(19) 0.22701(19) 0.7808(7) 0.0281(12) Uani 1 1 d . . .
H8A H 0.2109 0.2374 0.8382 0.034 Uiso 1 1 calc R . .
C9 C 0.2108(2) 0.18096(19) 0.7512(7) 0.0332(13) Uani 1 1 d . . .
H9A H 0.1815 0.1592 0.7887 0.040 Uiso 1 1 calc R . .
C10 C 0.23688(19) 0.16719(19) 0.6666(7) 0.0295(12) Uani 1 1 d . . .
H10A H 0.2248 0.1357 0.6471 0.035 Uiso 1 1 calc R . .
C11 C 0.29508(18) 0.24043(17) 0.6406(6) 0.0221(11) Uani 1 1 d . . .
H11A H 0.3247 0.2613 0.6029 0.027 Uiso 1 1 calc R . .
C12 C 0.15382(18) 0.4119(2) 0.4653(7) 0.0321(13) Uani 1 1 d . . .
O2 O 0.15369(15) 0.39106(16) 0.3440(6) 0.0476(12) Uani 1 1 d . . .
O3 O 0.14724(17) 0.39880(17) 0.6045(6) 0.0483(12) Uani 1 1 d . . .
C13 C 0.1658(2) 0.4613(2) 0.4337(9) 0.0458(17) Uani 1 1 d . . .
F1 F 0.15529(15) 0.47982(14) 0.5555(5) 0.0551(11) Uani 1 1 d . . .
F2 F 0.1434(2) 0.4642(2) 0.3070(6) 0.0862(18) Uani 1 1 d . . .
F3 F 0.20947(17) 0.48733(15) 0.4071(8) 0.0875(19) Uani 1 1 d . . .
O4 O 0.1819(10) 0.0817(8) 0.313(4) 0.260(11) Uani 0.50 1 d PDU A 1
H4A H 0.1837 0.0641 0.3792 0.390 Uiso 0.50 1 calc PR A 1
C21 C 0.1227(14) 0.0826(13) 0.462(5) 0.305(12) Uani 0.50 1 d PDU A 1
H21A H 0.1345 0.1154 0.4688 0.458 Uiso 0.50 1 calc PR A 1
H21B H 0.1359 0.0732 0.5474 0.458 Uiso 0.50 1 calc PR A 1
H21C H 0.0896 0.0665 0.4730 0.458 Uiso 0.50 1 calc PR A 1
C22 C 0.1352(11) 0.0713(8) 0.301(4) 0.291(11) Uani 0.50 1 d PDU A 1
H22A H 0.1332 0.0913 0.2173 0.349 Uiso 0.50 1 calc PR A 1
C23 C 0.1072(11) 0.0221(9) 0.247(5) 0.294(11) Uani 0.50 1 d PDU A 1
H23A H 0.1221 0.0176 0.1530 0.353 Uiso 0.50 1 calc PR A 1
H23B H 0.1074 0.0024 0.3340 0.353 Uiso 0.50 1 calc PR A 1
C24 C 0.0582(11) 0.0069(13) 0.205(5) 0.293(12) Uani 0.50 1 d PDU A 1
H24A H 0.0380 -0.0153 0.2837 0.440 Uiso 0.50 1 calc PR A 1
H24B H 0.0514 -0.0071 0.0984 0.440 Uiso 0.50 1 calc PR A 1
H24C H 0.0538 0.0332 0.2044 0.440 Uiso 0.50 1 calc PR A 1
O5 O 0.1711(10) 0.0805(10) 0.177(4) 0.282(11) Uani 0.50 1 d PDU B 2
H5B H 0.1840 0.0784 0.0947 0.424 Uiso 0.50 1 calc PR B 2
C31 C 0.1029(13) 0.0541(16) 0.031(4) 0.304(13) Uani 0.50 1 d PDU B 2
H31A H 0.1158 0.0491 -0.0662 0.456 Uiso 0.50 1 calc PR B 2
H31B H 0.1093 0.0856 0.0339 0.456 Uiso 0.50 1 calc PR B 2
H31C H 0.0700 0.0335 0.0322 0.456 Uiso 0.50 1 calc PR B 2
C32 C 0.1238(11) 0.0450(9) 0.176(4) 0.293(11) Uani 0.50 1 d PDU B 2
H32A H 0.1221 0.0150 0.1630 0.352 Uiso 0.50 1 calc PR B 2
C33 C 0.1059(11) 0.0468(14) 0.341(4) 0.292(11) Uani 0.50 1 d PDU B 2
H33A H 0.1165 0.0791 0.3651 0.351 Uiso 0.50 1 calc PR B 2
H33B H 0.1204 0.0363 0.4192 0.351 Uiso 0.50 1 calc PR B 2
C34 C 0.0551(12) 0.0202(15) 0.370(5) 0.288(12) Uani 0.50 1 d PDU B 2
H34A H 0.0480 0.0311 0.4688 0.432 Uiso 0.50 1 calc PR B 2
H34B H 0.0452 -0.0121 0.3811 0.432 Uiso 0.50 1 calc PR B 2
H34C H 0.0392 0.0246 0.2802 0.432 Uiso 0.50 1 calc PR B 2

loop_
_atom_site_aniso_label
_atom_site_aniso_U_11
_atom_site_aniso_U_22
_atom_site_aniso_U_33
_atom_site_aniso_U_23
_atom_site_aniso_U_13
_atom_site_aniso_U_12
Ag1 0.0202(3) 0.0342(3) 0.0348(3) -0.00577(18) -0.00785(17) 0.0146(2)
O1 0.0187(19) 0.030(2) 0.0236(19) -0.0010(15) -0.0019(14) 0.0123(16)
N1 0.018(2) 0.025(2) 0.029(2) -0.0004(19) -0.0003(18) 0.0108(19)
N2 0.028(2) 0.022(2) 0.028(2) 0.0016(19) 0.0020(19) 0.014(2)
C1 0.025(3) 0.025(3) 0.029(3) 0.000(2) 0.002(2) 0.014(2)
C2 0.029(3) 0.023(3) 0.032(3) -0.007(2) -0.005(2) 0.015(2)
C3 0.024(3) 0.023(3) 0.025(3) -0.002(2) -0.003(2) 0.011(2)
C4 0.017(2) 0.018(2) 0.022(3) 0.004(2) 0.004(2) 0.006(2)
C5 0.020(3) 0.021(3) 0.023(3) -0.001(2) 0.002(2) 0.008(2)
C6 0.022(3) 0.024(3) 0.016(2) 0.003(2) 0.0035(19) 0.012(2)
C7 0.023(3) 0.024(3) 0.020(3) 0.001(2) 0.000(2) 0.013(2)
C8 0.029(3) 0.028(3) 0.030(3) 0.004(2) 0.010(2) 0.016(3)
C9 0.029(3) 0.025(3) 0.046(4) 0.007(3) 0.012(3) 0.013(3)
C10 0.031(3) 0.021(3) 0.035(3) 0.004(2) 0.003(2) 0.013(2)
C11 0.022(3) 0.021(3) 0.023(3) 0.006(2) 0.003(2) 0.011(2)
C12 0.020(3) 0.041(3) 0.042(4) -0.008(3) -0.003(2) 0.020(3)
O2 0.036(3) 0.047(3) 0.059(3) -0.020(2) -0.004(2) 0.020(2)
O3 0.058(3) 0.055(3) 0.048(3) 0.007(2) 0.005(2) 0.041(3)
C13 0.049(4) 0.050(4) 0.050(4) 0.004(3) 0.015(3) 0.034(4)
F1 0.070(3) 0.047(2) 0.064(3) -0.004(2) 0.013(2) 0.042(2)
F2 0.146(5) 0.129(5) 0.050(3) 0.024(3) 0.018(3) 0.119(5)
F3 0.062(3) 0.040(3) 0.161(5) 0.016(3) 0.055(3) 0.026(2)
O4 0.36(2) 0.119(11) 0.27(2) 0.049(14) 0.221(19) 0.100(13)
C21 0.39(2) 0.154(13) 0.30(2) 0.050(14) 0.20(2) 0.078(15)
C22 0.38(2) 0.144(11) 0.29(2) 0.048(12) 0.211(19) 0.087(13)
C23 0.38(2) 0.147(11) 0.29(2) 0.049(13) 0.210(19) 0.084(13)
C24 0.38(2) 0.147(13) 0.29(2) 0.045(14) 0.21(2) 0.082(15)
O5 0.37(2) 0.137(11) 0.29(2) 0.048(13) 0.212(19) 0.092(13)
C31 0.39(2) 0.157(15) 0.30(2) 0.050(16) 0.20(2) 0.085(16)
C32 0.38(2) 0.146(11) 0.29(2) 0.049(13) 0.209(19) 0.086(13)
C33 0.38(2) 0.146(11) 0.29(2) 0.048(12) 0.211(19) 0.085(13)
C34 0.38(2) 0.144(13) 0.29(2) 0.041(14) 0.21(2) 0.087(15)

_geom_special_details            
;
All esds (except the esd in the dihedral angle between two l.s. planes)
are estimated using the full covariance matrix. The cell esds are taken
into account individually in the estimation of esds in distances, angles
and torsion angles; correlations between esds in cell parameters are only
used when they are defined by crystal symmetry. An approximate (isotropic)
treatment of cell esds is used for estimating esds involving l.s. planes.
;

loop_
_geom_bond_atom_site_label_1
_geom_bond_atom_site_label_2
_geom_bond_distance
_geom_bond_site_symmetry_2
_geom_bond_publ_flag
Ag1 N1 2.190(4) . ?
Ag1 N2 2.205(4) 12_556 ?
Ag1 Ag1 3.1134(9) 16 ?
O1 C6 1.214(6) . ?
N1 C1 1.342(7) . ?
N1 C5 1.350(7) . ?
N2 C11 1.332(7) . ?
N2 C10 1.336(7) . ?
N2 Ag1 2.205(4) 11_556 ?
C1 C2 1.382(8) . ?
C1 H1A 0.9500 . ?
C2 C3 1.377(7) . ?
C2 H2A 0.9500 . ?
C3 C4 1.404(7) . ?
C3 H3A 0.9500 . ?
C4 C5 1.379(7) . ?
C4 C6 1.494(7) . ?
C5 H5A 0.9500 . ?
C6 C7 1.486(7) . ?
C7 C8 1.388(8) . ?
C7 C11 1.392(7) . ?
C8 C9 1.393(8) . ?
C8 H8A 0.9500 . ?
C9 C10 1.386(8) . ?
C9 H9A 0.9500 . ?
C10 H10A 0.9500 . ?
C11 H11A 0.9500 . ?
C12 O3 1.227(8) . ?
C12 O2 1.237(7) . ?
C12 C13 1.541(9) . ?
C13 F3 1.315(8) . ?
C13 F1 1.336(8) . ?
C13 F2 1.336(9) . ?
O4 C22 1.448(5) . ?
O4 H4A 0.8400 . ?
C21 C22 1.519(5) . ?
C21 H21A 0.9800 . ?
C21 H21B 0.9800 . ?
C21 H21C 0.9800 . ?
C22 C23 1.522(5) . ?
C22 H22A 1.0000 . ?
C23 C24 1.520(5) . ?
C23 H23A 0.9900 . ?
C23 H23B 0.9900 . ?
C24 H24A 0.9800 . ?
C24 H24B 0.9800 . ?
C24 H24C 0.9800 . ?
O5 C32 1.450(5) . ?
O5 H5B 0.8400 . ?
C31 C32 1.516(5) . ?
C31 H31A 0.9800 . ?
C31 H31B 0.9800 . ?
C31 H31C 0.9800 . ?
C32 C33 1.517(5) . ?
C32 H32A 1.0000 . ?
C33 C34 1.518(5) . ?
C33 H33A 0.9900 . ?
C33 H33B 0.9900 . ?
C34 H34A 0.9800 . ?
C34 H34B 0.9800 . ?
C34 H34C 0.9800 . ?

loop_
_geom_angle_atom_site_label_1
_geom_angle_atom_site_label_2
_geom_angle_atom_site_label_3
_geom_angle
_geom_angle_site_symmetry_1
_geom_angle_site_symmetry_3
_geom_angle_publ_flag
N1 Ag1 N2 159.87(17) . 12_556 ?
N1 Ag1 Ag1 106.29(12) . 16 ?
N2 Ag1 Ag1 84.67(12) 12_556 16 ?
C1 N1 C5 117.6(4) . . ?
C1 N1 Ag1 119.3(3) . . ?
C5 N1 Ag1 123.1(3) . . ?
C11 N2 C10 118.3(5) . . ?
C11 N2 Ag1 119.9(3) . 11_556 ?
C10 N2 Ag1 121.6(4) . 11_556 ?
N1 C1 C2 123.5(5) . . ?
N1 C1 H1A 118.2 . . ?
C2 C1 H1A 118.2 . . ?
C3 C2 C1 118.8(5) . . ?
C3 C2 H2A 120.6 . . ?
C1 C2 H2A 120.6 . . ?
C2 C3 C4 118.4(5) . . ?
C2 C3 H3A 120.8 . . ?
C4 C3 H3A 120.8 . . ?
C5 C4 C3 119.1(5) . . ?
C5 C4 C6 122.3(5) . . ?
C3 C4 C6 118.4(5) . . ?
N1 C5 C4 122.5(5) . . ?
N1 C5 H5A 118.8 . . ?
C4 C5 H5A 118.8 . . ?
O1 C6 C7 120.1(5) . . ?
O1 C6 C4 120.7(5) . . ?
C7 C6 C4 119.3(4) . . ?
C8 C7 C11 119.0(5) . . ?
C8 C7 C6 122.9(5) . . ?
C11 C7 C6 118.0(5) . . ?
C7 C8 C9 117.9(5) . . ?
C7 C8 H8A 121.1 . . ?
C9 C8 H8A 121.1 . . ?
C10 C9 C8 119.3(5) . . ?
C10 C9 H9A 120.3 . . ?
C8 C9 H9A 120.3 . . ?
N2 C10 C9 122.6(5) . . ?
N2 C10 H10A 118.7 . . ?
C9 C10 H10A 118.7 . . ?
N2 C11 C7 122.9(5) . . ?
N2 C11 H11A 118.5 . . ?
C7 C11 H11A 118.5 . . ?
O3 C12 O2 128.4(6) . . ?
O3 C12 C13 117.4(5) . . ?
O2 C12 C13 114.1(6) . . ?
F3 C13 F1 106.8(6) . . ?
F3 C13 F2 108.1(6) . . ?
F1 C13 F2 105.9(5) . . ?
F3 C13 C12 110.9(5) . . ?
F1 C13 C12 113.4(6) . . ?
F2 C13 C12 111.5(6) . . ?
C22 O4 H4A 109.5 . . ?
C22 C21 H21A 109.5 . . ?
C22 C21 H21B 109.5 . . ?
H21A C21 H21B 109.5 . . ?
C22 C21 H21C 109.5 . . ?
H21A C21 H21C 109.5 . . ?
H21B C21 H21C 109.5 . . ?
O4 C22 C21 106.8(11) . . ?
O4 C22 C23 107.3(11) . . ?
C21 C22 C23 116.0(14) . . ?
O4 C22 H22A 108.9 . . ?
C21 C22 H22A 108.9 . . ?
C23 C22 H22A 108.9 . . ?
C24 C23 C22 114.9(14) . . ?
C24 C23 H23A 108.5 . . ?
C22 C23 H23A 108.5 . . ?
C24 C23 H23B 108.5 . . ?
C22 C23 H23B 108.5 . . ?
H23A C23 H23B 107.5 . . ?
C23 C24 H24A 109.5 . . ?
C23 C24 H24B 109.5 . . ?
H24A C24 H24B 109.5 . . ?
C23 C24 H24C 109.5 . . ?
H24A C24 H24C 109.5 . . ?
H24B C24 H24C 109.5 . . ?
C32 O5 H5B 109.5 . . ?
C32 C31 H31A 109.5 . . ?
C32 C31 H31B 109.5 . . ?
H31A C31 H31B 109.5 . . ?
C32 C31 H31C 109.5 . . ?
H31A C31 H31C 109.5 . . ?
H31B C31 H31C 109.5 . . ?
O5 C32 C31 105.8(11) . . ?
O5 C32 C33 105.2(11) . . ?
C31 C32 C33 118.5(15) . . ?
O5 C32 H32A 109.0 . . ?
C31 C32 H32A 109.0 . . ?
C33 C32 H32A 109.0 . . ?
C32 C33 C34 119.0(14) . . ?
C32 C33 H33A 107.6 . . ?
C34 C33 H33A 107.6 . . ?
C32 C33 H33B 107.6 . . ?
C34 C33 H33B 107.6 . . ?
H33A C33 H33B 107.0 . . ?
C33 C34 H34A 109.5 . . ?
C33 C34 H34B 109.5 . . ?
H34A C34 H34B 109.5 . . ?
C33 C34 H34C 109.5 . . ?
H34A C34 H34C 109.5 . . ?
H34B C34 H34C 109.5 . . ?

loop_
_geom_torsion_atom_site_label_1
_geom_torsion_atom_site_label_2
_geom_torsion_atom_site_label_3
_geom_torsion_atom_site_label_4
_geom_torsion
_geom_torsion_site_symmetry_1
_geom_torsion_site_symmetry_2
_geom_torsion_site_symmetry_3
_geom_torsion_site_symmetry_4
_geom_torsion_publ_flag
N2 Ag1 N1 C1 -129.3(5) 12_556 . . . ?
Ag1 Ag1 N1 C1 109.6(4) 16 . . . ?
N2 Ag1 N1 C5 49.4(7) 12_556 . . . ?
Ag1 Ag1 N1 C5 -71.7(4) 16 . . . ?
C5 N1 C1 C2 1.6(8) . . . . ?
Ag1 N1 C1 C2 -179.7(4) . . . . ?
N1 C1 C2 C3 0.8(9) . . . . ?
C1 C2 C3 C4 -2.3(8) . . . . ?
C2 C3 C4 C5 1.5(8) . . . . ?
C2 C3 C4 C6 178.0(5) . . . . ?
C1 N1 C5 C4 -2.4(7) . . . . ?
Ag1 N1 C5 C4 178.9(4) . . . . ?
C3 C4 C5 N1 0.9(8) . . . . ?
C6 C4 C5 N1 -175.4(5) . . . . ?
C5 C4 C6 O1 146.8(5) . . . . ?
C3 C4 C6 O1 -29.5(7) . . . . ?
C5 C4 C6 C7 -34.2(7) . . . . ?
C3 C4 C6 C7 149.4(5) . . . . ?
O1 C6 C7 C8 142.8(5) . . . . ?
C4 C6 C7 C8 -36.2(7) . . . . ?
O1 C6 C7 C11 -33.6(7) . . . . ?
C4 C6 C7 C11 147.4(5) . . . . ?
C11 C7 C8 C9 0.0(8) . . . . ?
C6 C7 C8 C9 -176.4(5) . . . . ?
C7 C8 C9 C10 -0.3(9) . . . . ?
C11 N2 C10 C9 0.7(8) . . . . ?
Ag1 N2 C10 C9 175.2(4) 11_556 . . . ?
C8 C9 C10 N2 -0.1(9) . . . . ?
C10 N2 C11 C7 -1.0(8) . . . . ?
Ag1 N2 C11 C7 -175.6(4) 11_556 . . . ?
C8 C7 C11 N2 0.7(8) . . . . ?
C6 C7 C11 N2 177.2(5) . . . . ?
O3 C12 C13 F3 102.6(7) . . . . ?
O2 C12 C13 F3 -75.1(8) . . . . ?
O3 C12 C13 F1 -17.5(8) . . . . ?
O2 C12 C13 F1 164.8(6) . . . . ?
O3 C12 C13 F2 -136.9(6) . . . . ?
O2 C12 C13 F2 45.4(7) . . . . ?
O4 C22 C23 C24 -172(4) . . . . ?
C21 C22 C23 C24 69(4) . . . . ?
O5 C32 C33 C34 168(4) . . . . ?
C31 C32 C33 C34 50(4) . . . . ?

_diffrn_measured_fraction_theta_max 1.000
_diffrn_reflns_theta_full        25.00
_diffrn_measured_fraction_theta_full 1.000
_refine_diff_density_max         1.337
_refine_diff_density_min         -1.409
_refine_diff_density_rms         0.138
