####################################################################### 
# 
# This file contains crystal structure data downloaded from the 
# Cambridge Structural Database (CSD) hosted by the Cambridge 
# Crystallographic Data Centre (CCDC).
# 
# Full information about CCDC data access policies and citation 
# guidelines are available at http://www.ccdc.cam.ac.uk/access/V1 
# 
# Audit and citation data items may have been added by the CCDC. 
# Please retain this information to preserve the provenance of 
# this file and to allow appropriate attribution of the data. 
# 
#######################################################################

data_chcl3
_audit_block_doi                 10.5517/ccrpj0y
_database_code_depnum_ccdc_archive 'CCDC 705870'
loop_
_citation_id
_citation_doi
_citation_year
1 10.1002/chem.200900010 2009
_audit_update_record             
;
2008-10-19 deposited with the CCDC.	2024-07-10 downloaded from the CCDC.
;

_audit_creation_method           SHELXL-97
_chemical_name_systematic        
;
?
;
_chemical_name_common            ?
_chemical_melting_point          ?
_chemical_formula_moiety         ?
_chemical_formula_sum            'C14 H9 Ag Cl3 F3 N2 O3'
_chemical_formula_weight         524.45

loop_
_atom_type_symbol
_atom_type_description
_atom_type_scat_dispersion_real
_atom_type_scat_dispersion_imag
_atom_type_scat_source
C C 0.0033 0.0016 'International Tables Vol C Tables 4.2.6.8 and 6.1.1.4'
H H 0.0000 0.0000 'International Tables Vol C Tables 4.2.6.8 and 6.1.1.4'
N N 0.0061 0.0033 'International Tables Vol C Tables 4.2.6.8 and 6.1.1.4'
O O 0.0106 0.0060 'International Tables Vol C Tables 4.2.6.8 and 6.1.1.4'
F F 0.0171 0.0103 'International Tables Vol C Tables 4.2.6.8 and 6.1.1.4'
Cl Cl 0.1484 0.1585 'International Tables Vol C Tables 4.2.6.8 and 6.1.1.4'
Ag Ag -0.8971 1.1015 'International Tables Vol C Tables 4.2.6.8 and 6.1.1.4'

_symmetry_cell_setting           Rhombohedral
_symmetry_space_group_name_H-M   R-3

loop_
_symmetry_equiv_pos_as_xyz
'x, y, z'
'-y, x-y, z'
'-x+y, -x, z'
'x+2/3, y+1/3, z+1/3'
'-y+2/3, x-y+1/3, z+1/3'
'-x+y+2/3, -x+1/3, z+1/3'
'x+1/3, y+2/3, z+2/3'
'-y+1/3, x-y+2/3, z+2/3'
'-x+y+1/3, -x+2/3, z+2/3'
'-x, -y, -z'
'y, -x+y, -z'
'x-y, x, -z'
'-x+2/3, -y+1/3, -z+1/3'
'y+2/3, -x+y+1/3, -z+1/3'
'x-y+2/3, x+1/3, -z+1/3'
'-x+1/3, -y+2/3, -z+2/3'
'y+1/3, -x+y+2/3, -z+2/3'
'x-y+1/3, x+2/3, -z+2/3'

_cell_length_a                   33.856(2)
_cell_length_b                   33.856(2)
_cell_length_c                   8.4224(12)
_cell_angle_alpha                90.00
_cell_angle_beta                 90.00
_cell_angle_gamma                120.00
_cell_volume                     8360.8(15)
_cell_formula_units_Z            18
_cell_measurement_temperature    123(2)
_cell_measurement_reflns_used    ?
_cell_measurement_theta_min      ?
_cell_measurement_theta_max      ?

_exptl_crystal_description       Block
_exptl_crystal_colour            Yellow
_exptl_crystal_size_max          0.23
_exptl_crystal_size_mid          0.21
_exptl_crystal_size_min          0.17
_exptl_crystal_density_meas      ?
_exptl_crystal_density_diffrn    1.875
_exptl_crystal_density_method    'not measured'
_exptl_crystal_F_000             4608
_exptl_absorpt_coefficient_mu    1.561
_exptl_absorpt_correction_type   MULTI-SCAN
_exptl_absorpt_correction_T_min  0.809824
_exptl_absorpt_correction_T_max  1.000000
_exptl_absorpt_process_details   SADABS

_exptl_special_details           
;
?
;

_diffrn_ambient_temperature      123(2)
_diffrn_radiation_wavelength     0.71073
_diffrn_radiation_type           MoK\a
_diffrn_radiation_source         'fine-focus sealed tube'
_diffrn_radiation_monochromator  graphite
_diffrn_measurement_device_type  'CCD area detector'
_diffrn_measurement_method       'phi and omega scans'
_diffrn_detector_area_resol_mean ?
_diffrn_standards_number         ?
_diffrn_standards_interval_count ?
_diffrn_standards_interval_time  ?
_diffrn_standards_decay_%        ?
_diffrn_reflns_number            12502
_diffrn_reflns_av_R_equivalents  0.0684
_diffrn_reflns_av_sigmaI/netI    0.0720
_diffrn_reflns_limit_h_min       -39
_diffrn_reflns_limit_h_max       40
_diffrn_reflns_limit_k_min       -30
_diffrn_reflns_limit_k_max       40
_diffrn_reflns_limit_l_min       -8
_diffrn_reflns_limit_l_max       10
_diffrn_reflns_theta_min         2.08
_diffrn_reflns_theta_max         25.01
_reflns_number_total             3236
_reflns_number_gt                2320
_reflns_threshold_expression     >2sigma(I)

_computing_data_collection       'Bruker XSCANS'
_computing_cell_refinement       'Bruker XSCANS'
_computing_data_reduction        'Bruker SHELXTL'
_computing_structure_solution    'SHELXS-97 (Sheldrick, 1990)'
_computing_structure_refinement  'SHELXL-97 (Sheldrick, 1997)'
_computing_molecular_graphics    'Bruker SHELXTL'
_computing_publication_material  'Bruker SHELXTL'

_refine_special_details          
;
Refinement of F^2^ against ALL reflections. The weighted R-factor wR and
goodness of fit S are based on F^2^, conventional R-factors R are based
on F, with F set to zero for negative F^2^. The threshold expression of
F^2^ > 2sigma(F^2^) is used only for calculating R-factors(gt) etc. and is
not relevant to the choice of reflections for refinement. R-factors based
on F^2^ are statistically about twice as large as those based on F, and R-
factors based on ALL data will be even larger.
;

_refine_ls_structure_factor_coef Fsqd
_refine_ls_matrix_type           full
_refine_ls_weighting_scheme      calc
_refine_ls_weighting_details     
'calc w=1/[\s^2^(Fo^2^)+(0.0953P)^2^+42.6466P] where P=(Fo^2^+2Fc^2^)/3'
_atom_sites_solution_primary     direct
_atom_sites_solution_secondary   difmap
_atom_sites_solution_hydrogens   geom
_refine_ls_hydrogen_treatment    constr
_refine_ls_extinction_method     none
_refine_ls_extinction_coef       ?
_refine_ls_number_reflns         3236
_refine_ls_number_parameters     235
_refine_ls_number_restraints     9
_refine_ls_R_factor_all          0.0943
_refine_ls_R_factor_gt           0.0640
_refine_ls_wR_factor_ref         0.1724
_refine_ls_wR_factor_gt          0.1546
_refine_ls_goodness_of_fit_ref   1.023
_refine_ls_restrained_S_all      1.029
_refine_ls_shift/su_max          0.003
_refine_ls_shift/su_mean         0.000

loop_
_atom_site_label
_atom_site_type_symbol
_atom_site_fract_x
_atom_site_fract_y
_atom_site_fract_z
_atom_site_U_iso_or_equiv
_atom_site_adp_type
_atom_site_occupancy
_atom_site_symmetry_multiplicity
_atom_site_calc_flag
_atom_site_refinement_flags
_atom_site_disorder_assembly
_atom_site_disorder_group
Ag1 Ag 0.14736(2) 0.32092(2) 0.50424(7) 0.0329(2) Uani 1 1 d . . .
O1 O 0.33504(17) 0.32901(17) 0.7864(6) 0.0276(12) Uani 1 1 d . . .
N1 N 0.2062(2) 0.3407(2) 0.6593(7) 0.0239(13) Uani 1 1 d . . .
N2 N 0.2775(2) 0.1961(2) 0.6149(8) 0.0302(15) Uani 1 1 d . . .
C1 C 0.2194(2) 0.3766(2) 0.7617(9) 0.0263(17) Uani 1 1 d . . .
H1A H 0.2029 0.3924 0.7616 0.032 Uiso 1 1 calc R . .
C2 C 0.2555(3) 0.3906(3) 0.8645(9) 0.0306(18) Uani 1 1 d . . .
H2A H 0.2638 0.4158 0.9333 0.037 Uiso 1 1 calc R . .
C3 C 0.2792(2) 0.3677(3) 0.8659(9) 0.0253(16) Uani 1 1 d . . .
H3A H 0.3046 0.3774 0.9348 0.030 Uiso 1 1 calc R . .
C4 C 0.2664(2) 0.3305(2) 0.7670(8) 0.0208(15) Uani 1 1 d . . .
C5 C 0.2294(2) 0.3181(2) 0.6657(8) 0.0239(16) Uani 1 1 d . . .
H5A H 0.2201 0.2925 0.5981 0.029 Uiso 1 1 calc R . .
C6 C 0.2934(3) 0.3069(3) 0.7629(8) 0.0258(16) Uani 1 1 d . . .
C7 C 0.2703(2) 0.2573(2) 0.7289(8) 0.0218(15) Uani 1 1 d . . .
C8 C 0.2274(3) 0.2268(3) 0.7852(10) 0.037(2) Uani 1 1 d . . .
H8A H 0.2101 0.2369 0.8436 0.044 Uiso 1 1 calc R . .
C9 C 0.2103(3) 0.1810(3) 0.7538(11) 0.038(2) Uani 1 1 d . . .
H9A H 0.1809 0.1591 0.7913 0.046 Uiso 1 1 calc R . .
C10 C 0.2358(3) 0.1672(3) 0.6687(9) 0.0337(19) Uani 1 1 d . . .
H10A H 0.2232 0.1356 0.6471 0.040 Uiso 1 1 calc R . .
C11 C 0.2948(3) 0.2410(2) 0.6462(8) 0.0235(16) Uani 1 1 d . . .
H11A H 0.3247 0.2621 0.6104 0.028 Uiso 1 1 calc R . .
C12 C 0.1539(3) 0.4126(3) 0.4589(11) 0.037(2) Uani 1 1 d . . .
O2 O 0.1532(2) 0.3916(2) 0.3364(8) 0.0558(18) Uani 1 1 d . . .
O3 O 0.1486(2) 0.4013(3) 0.5949(9) 0.0593(19) Uani 1 1 d . . .
C13 C 0.1642(3) 0.4618(3) 0.4228(13) 0.052(3) Uani 1 1 d . . .
F1 F 0.1551(2) 0.48167(18) 0.5408(7) 0.0597(15) Uani 1 1 d . . .
F2 F 0.2085(2) 0.4887(2) 0.3899(10) 0.093(3) Uani 1 1 d . . .
F3 F 0.1402(3) 0.4629(3) 0.2971(8) 0.091(3) Uani 1 1 d . . .
C14 C 0.1219(5) 0.0699(6) 0.2154(19) 0.26(2) Uani 1 1 d D . .
H14A H 0.1141 0.0923 0.1689 0.308 Uiso 1 1 calc R . .
Cl1 Cl 0.1696(5) 0.0755(3) 0.141(3) 0.65(2) Uani 1 1 d D . .
Cl2 Cl 0.1322(5) 0.0776(4) 0.4102(13) 0.393(10) Uani 1 1 d D . .
Cl3 Cl 0.0809(5) 0.0172(5) 0.1931(17) 0.419(10) Uani 1 1 d D . .

loop_
_atom_site_aniso_label
_atom_site_aniso_U_11
_atom_site_aniso_U_22
_atom_site_aniso_U_33
_atom_site_aniso_U_23
_atom_site_aniso_U_13
_atom_site_aniso_U_12
Ag1 0.0247(3) 0.0435(4) 0.0320(4) -0.0063(3) -0.0072(2) 0.0181(3)
O1 0.027(3) 0.034(3) 0.026(3) -0.005(2) -0.003(2) 0.018(2)
N1 0.022(3) 0.031(3) 0.023(3) -0.004(3) -0.001(2) 0.017(3)
N2 0.035(4) 0.029(4) 0.030(4) 0.004(3) 0.003(3) 0.019(3)
C1 0.027(4) 0.028(4) 0.025(4) -0.001(3) 0.002(3) 0.015(3)
C2 0.038(5) 0.028(4) 0.031(4) -0.008(3) -0.005(3) 0.020(4)
C3 0.023(4) 0.036(4) 0.023(4) 0.004(3) -0.002(3) 0.019(3)
C4 0.026(4) 0.021(4) 0.015(4) -0.002(3) 0.001(3) 0.012(3)
C5 0.024(4) 0.023(4) 0.021(4) -0.002(3) 0.004(3) 0.009(3)
C6 0.032(4) 0.033(4) 0.017(4) -0.002(3) -0.003(3) 0.020(4)
C7 0.030(4) 0.027(4) 0.013(4) 0.004(3) 0.001(3) 0.017(3)
C8 0.047(5) 0.039(5) 0.032(5) 0.003(4) 0.013(4) 0.027(4)
C9 0.032(5) 0.033(5) 0.051(6) 0.011(4) 0.018(4) 0.016(4)
C10 0.036(5) 0.030(4) 0.031(5) 0.007(3) 0.003(4) 0.014(4)
C11 0.029(4) 0.029(4) 0.012(4) 0.001(3) 0.001(3) 0.014(3)
C12 0.022(4) 0.053(5) 0.043(6) -0.005(4) -0.002(4) 0.023(4)
O2 0.043(4) 0.067(4) 0.065(5) -0.033(4) -0.009(3) 0.033(4)
O3 0.074(5) 0.083(5) 0.046(4) 0.015(4) 0.012(4) 0.058(4)
C13 0.051(6) 0.057(6) 0.056(7) 0.008(5) 0.026(5) 0.032(5)
F1 0.064(4) 0.051(3) 0.071(4) -0.011(3) 0.011(3) 0.034(3)
F2 0.072(5) 0.049(4) 0.157(7) 0.018(4) 0.058(5) 0.029(3)
F3 0.142(7) 0.144(7) 0.053(4) 0.033(4) 0.031(4) 0.120(6)
C14 0.21(3) 0.099(17) 0.39(5) -0.01(2) -0.20(3) 0.021(18)
Cl1 0.48(2) 0.107(6) 1.34(5) 0.120(14) 0.65(3) 0.127(9)
Cl2 0.52(2) 0.203(9) 0.277(13) 0.066(8) -0.187(14) 0.044(11)
Cl3 0.37(2) 0.289(16) 0.42(2) -0.012(15) -0.099(16) 0.040(14)

_geom_special_details            
;
All esds (except the esd in the dihedral angle between two l.s. planes)
are estimated using the full covariance matrix. The cell esds are taken
into account individually in the estimation of esds in distances, angles
and torsion angles; correlations between esds in cell parameters are only
used when they are defined by crystal symmetry. An approximate (isotropic)
treatment of cell esds is used for estimating esds involving l.s. planes.
;

loop_
_geom_bond_atom_site_label_1
_geom_bond_atom_site_label_2
_geom_bond_distance
_geom_bond_site_symmetry_2
_geom_bond_publ_flag
Ag1 N1 2.188(6) . ?
Ag1 N2 2.205(6) 12_556 ?
Ag1 Ag1 3.0992(13) 16 ?
O1 C6 1.238(8) . ?
N1 C5 1.343(9) . ?
N1 C1 1.370(9) . ?
N2 C10 1.332(10) . ?
N2 C11 1.355(9) . ?
N2 Ag1 2.205(6) 11_556 ?
C1 C2 1.372(11) . ?
C2 C3 1.368(10) . ?
C3 C4 1.388(10) . ?
C4 C5 1.396(10) . ?
C4 C6 1.485(10) . ?
C6 C7 1.485(10) . ?
C7 C8 1.378(11) . ?
C7 C11 1.391(10) . ?
C8 C9 1.382(11) . ?
C9 C10 1.371(11) . ?
C12 O3 1.193(10) . ?
C12 O2 1.245(10) . ?
C12 C13 1.554(13) . ?
C13 F1 1.319(11) . ?
C13 F2 1.340(11) . ?
C13 F3 1.346(12) . ?
C14 Cl3 1.635(14) . ?
C14 Cl1 1.650(15) . ?
C14 Cl2 1.670(15) . ?

loop_
_geom_angle_atom_site_label_1
_geom_angle_atom_site_label_2
_geom_angle_atom_site_label_3
_geom_angle
_geom_angle_site_symmetry_1
_geom_angle_site_symmetry_3
_geom_angle_publ_flag
N1 Ag1 N2 159.7(2) . 12_556 ?
N1 Ag1 Ag1 105.99(16) . 16 ?
N2 Ag1 Ag1 84.67(17) 12_556 16 ?
C5 N1 C1 117.0(6) . . ?
C5 N1 Ag1 123.4(5) . . ?
C1 N1 Ag1 119.4(5) . . ?
C10 N2 C11 117.5(7) . . ?
C10 N2 Ag1 123.1(5) . 11_556 ?
C11 N2 Ag1 119.2(5) . 11_556 ?
N1 C1 C2 123.0(7) . . ?
C3 C2 C1 118.8(7) . . ?
C2 C3 C4 120.3(7) . . ?
C3 C4 C5 117.8(6) . . ?
C3 C4 C6 120.3(6) . . ?
C5 C4 C6 121.8(6) . . ?
N1 C5 C4 123.1(6) . . ?
O1 C6 C7 120.8(6) . . ?
O1 C6 C4 119.5(7) . . ?
C7 C6 C4 119.7(6) . . ?
C8 C7 C11 119.3(7) . . ?
C8 C7 C6 122.9(7) . . ?
C11 C7 C6 117.6(6) . . ?
C7 C8 C9 117.9(7) . . ?
C10 C9 C8 120.0(7) . . ?
N2 C10 C9 123.1(8) . . ?
N2 C11 C7 122.3(7) . . ?
O3 C12 O2 130.9(9) . . ?
O3 C12 C13 116.7(8) . . ?
O2 C12 C13 112.4(8) . . ?
F1 C13 F2 106.2(8) . . ?
F1 C13 F3 106.3(8) . . ?
F2 C13 F3 107.8(9) . . ?
F1 C13 C12 114.5(8) . . ?
F2 C13 C12 109.9(7) . . ?
F3 C13 C12 111.7(8) . . ?
Cl3 C14 Cl1 109.3(13) . . ?
Cl3 C14 Cl2 106.2(12) . . ?
Cl1 C14 Cl2 103.8(12) . . ?

loop_
_geom_torsion_atom_site_label_1
_geom_torsion_atom_site_label_2
_geom_torsion_atom_site_label_3
_geom_torsion_atom_site_label_4
_geom_torsion
_geom_torsion_site_symmetry_1
_geom_torsion_site_symmetry_2
_geom_torsion_site_symmetry_3
_geom_torsion_site_symmetry_4
_geom_torsion_publ_flag
N2 Ag1 N1 C5 47.8(9) 12_556 . . . ?
Ag1 Ag1 N1 C5 -72.0(6) 16 . . . ?
N2 Ag1 N1 C1 -129.0(7) 12_556 . . . ?
Ag1 Ag1 N1 C1 111.2(5) 16 . . . ?
C5 N1 C1 C2 1.9(11) . . . . ?
Ag1 N1 C1 C2 179.0(6) . . . . ?
N1 C1 C2 C3 -0.4(12) . . . . ?
C1 C2 C3 C4 -1.2(11) . . . . ?
C2 C3 C4 C5 1.2(11) . . . . ?
C2 C3 C4 C6 177.2(7) . . . . ?
C1 N1 C5 C4 -2.0(10) . . . . ?
Ag1 N1 C5 C4 -178.9(5) . . . . ?
C3 C4 C5 N1 0.5(11) . . . . ?
C6 C4 C5 N1 -175.5(7) . . . . ?
C3 C4 C6 O1 -31.7(10) . . . . ?
C5 C4 C6 O1 144.2(7) . . . . ?
C3 C4 C6 C7 149.1(7) . . . . ?
C5 C4 C6 C7 -35.1(10) . . . . ?
O1 C6 C7 C8 142.9(8) . . . . ?
C4 C6 C7 C8 -37.8(10) . . . . ?
O1 C6 C7 C11 -32.4(10) . . . . ?
C4 C6 C7 C11 146.8(7) . . . . ?
C11 C7 C8 C9 -1.1(11) . . . . ?
C6 C7 C8 C9 -176.3(7) . . . . ?
C7 C8 C9 C10 -0.3(13) . . . . ?
C11 N2 C10 C9 -0.4(11) . . . . ?
Ag1 N2 C10 C9 174.6(6) 11_556 . . . ?
C8 C9 C10 N2 1.0(13) . . . . ?
C10 N2 C11 C7 -1.0(10) . . . . ?
Ag1 N2 C11 C7 -176.2(5) 11_556 . . . ?
C8 C7 C11 N2 1.8(11) . . . . ?
C6 C7 C11 N2 177.2(6) . . . . ?
O3 C12 C13 F1 -15.6(12) . . . . ?
O2 C12 C13 F1 165.1(8) . . . . ?
O3 C12 C13 F2 103.9(10) . . . . ?
O2 C12 C13 F2 -75.4(10) . . . . ?
O3 C12 C13 F3 -136.5(8) . . . . ?
O2 C12 C13 F3 44.1(10) . . . . ?

_diffrn_measured_fraction_theta_max 0.987
_diffrn_reflns_theta_full        25.01
_diffrn_measured_fraction_theta_full 0.987
_refine_diff_density_max         1.326
_refine_diff_density_min         -1.130
_refine_diff_density_rms         0.143
