####################################################################### 
# 
# This file contains crystal structure data downloaded from the 
# Cambridge Structural Database (CSD) hosted by the Cambridge 
# Crystallographic Data Centre (CCDC).
# 
# Full information about CCDC data access policies and citation 
# guidelines are available at http://www.ccdc.cam.ac.uk/access/V1 
# 
# Audit and citation data items may have been added by the CCDC. 
# Please retain this information to preserve the provenance of 
# this file and to allow appropriate attribution of the data. 
# 
#######################################################################

data_thf
_audit_block_doi                 10.5517/ccrphtq
_database_code_depnum_ccdc_archive 'CCDC 705864'
loop_
_citation_id
_citation_doi
_citation_year
1 10.1002/chem.200900010 2009
_audit_update_record             
;
2008-10-19 deposited with the CCDC.	2024-07-10 downloaded from the CCDC.
;

_audit_creation_method           SHELXL-97
_chemical_name_systematic        
;
?
;
_chemical_name_common            ?
_chemical_melting_point          ?
_chemical_formula_moiety         ?
_chemical_formula_sum            'C17 H16 Ag F3 N2 O4'
_chemical_formula_weight         477.19

loop_
_atom_type_symbol
_atom_type_description
_atom_type_scat_dispersion_real
_atom_type_scat_dispersion_imag
_atom_type_scat_source
C C 0.0033 0.0016 'International Tables Vol C Tables 4.2.6.8 and 6.1.1.4'
H H 0.0000 0.0000 'International Tables Vol C Tables 4.2.6.8 and 6.1.1.4'
N N 0.0061 0.0033 'International Tables Vol C Tables 4.2.6.8 and 6.1.1.4'
O O 0.0106 0.0060 'International Tables Vol C Tables 4.2.6.8 and 6.1.1.4'
F F 0.0171 0.0103 'International Tables Vol C Tables 4.2.6.8 and 6.1.1.4'
Ag Ag -0.8971 1.1015 'International Tables Vol C Tables 4.2.6.8 and 6.1.1.4'

_symmetry_cell_setting           Rhombohedral
_symmetry_space_group_name_H-M   R-3

loop_
_symmetry_equiv_pos_as_xyz
'x, y, z'
'-y, x-y, z'
'-x+y, -x, z'
'x+2/3, y+1/3, z+1/3'
'-y+2/3, x-y+1/3, z+1/3'
'-x+y+2/3, -x+1/3, z+1/3'
'x+1/3, y+2/3, z+2/3'
'-y+1/3, x-y+2/3, z+2/3'
'-x+y+1/3, -x+2/3, z+2/3'
'-x, -y, -z'
'y, -x+y, -z'
'x-y, x, -z'
'-x+2/3, -y+1/3, -z+1/3'
'y+2/3, -x+y+1/3, -z+1/3'
'x-y+2/3, x+1/3, -z+1/3'
'-x+1/3, -y+2/3, -z+2/3'
'y+1/3, -x+y+2/3, -z+2/3'
'x-y+1/3, x+2/3, -z+2/3'

_cell_length_a                   33.453(3)
_cell_length_b                   33.453(3)
_cell_length_c                   8.4275(12)
_cell_angle_alpha                90.00
_cell_angle_beta                 90.00
_cell_angle_gamma                120.00
_cell_volume                     8167.8(14)
_cell_formula_units_Z            18
_cell_measurement_temperature    123(2)
_cell_measurement_reflns_used    ?
_cell_measurement_theta_min      ?
_cell_measurement_theta_max      ?

_exptl_crystal_description       Block
_exptl_crystal_colour            Brown
_exptl_crystal_size_max          0.56
_exptl_crystal_size_mid          0.43
_exptl_crystal_size_min          0.31
_exptl_crystal_density_meas      ?
_exptl_crystal_density_diffrn    1.746
_exptl_crystal_density_method    'not measured'
_exptl_crystal_F_000             4284
_exptl_absorpt_coefficient_mu    1.166
_exptl_absorpt_correction_type   MULTI-SCAN
_exptl_absorpt_correction_T_min  0.634782
_exptl_absorpt_correction_T_max  1.000000
_exptl_absorpt_process_details   SADABS

_exptl_special_details           
;
?
;

_diffrn_ambient_temperature      123(2)
_diffrn_radiation_wavelength     0.71073
_diffrn_radiation_type           MoK\a
_diffrn_radiation_source         'fine-focus sealed tube'
_diffrn_radiation_monochromator  graphite
_diffrn_measurement_device_type  'CCD area detector'
_diffrn_measurement_method       'phi and omega scans'
_diffrn_detector_area_resol_mean ?
_diffrn_standards_number         ?
_diffrn_standards_interval_count ?
_diffrn_standards_interval_time  ?
_diffrn_standards_decay_%        ?
_diffrn_reflns_number            9780
_diffrn_reflns_av_R_equivalents  0.0186
_diffrn_reflns_av_sigmaI/netI    0.0191
_diffrn_reflns_limit_h_min       -39
_diffrn_reflns_limit_h_max       27
_diffrn_reflns_limit_k_min       -39
_diffrn_reflns_limit_k_max       37
_diffrn_reflns_limit_l_min       -9
_diffrn_reflns_limit_l_max       9
_diffrn_reflns_theta_min         2.52
_diffrn_reflns_theta_max         25.00
_reflns_number_total             3136
_reflns_number_gt                2884
_reflns_threshold_expression     >2sigma(I)

_computing_data_collection       'Bruker SMART'
_computing_cell_refinement       'Bruker SMART'
_computing_data_reduction        'Bruker SAINT'
_computing_structure_solution    'SHELXS-97 (Sheldrick, 1990)'
_computing_structure_refinement  'SHELXL-97 (Sheldrick, 1997)'
_computing_molecular_graphics    'Bruker SHELXTL'
_computing_publication_material  'Bruker SHELXTL'

_refine_special_details          
;
Refinement of F^2^ against ALL reflections. The weighted R-factor wR and
goodness of fit S are based on F^2^, conventional R-factors R are based
on F, with F set to zero for negative F^2^. The threshold expression of
F^2^ > 2sigma(F^2^) is used only for calculating R-factors(gt) etc. and is
not relevant to the choice of reflections for refinement. R-factors based
on F^2^ are statistically about twice as large as those based on F, and R-
factors based on ALL data will be even larger.
;

_refine_ls_structure_factor_coef Fsqd
_refine_ls_matrix_type           full
_refine_ls_weighting_scheme      calc
_refine_ls_weighting_details     
'calc w=1/[\s^2^(Fo^2^)+(0.0342P)^2^+37.7893P] where P=(Fo^2^+2Fc^2^)/3'
_atom_sites_solution_primary     direct
_atom_sites_solution_secondary   difmap
_atom_sites_solution_hydrogens   geom
_refine_ls_hydrogen_treatment    constr
_refine_ls_extinction_method     none
_refine_ls_extinction_coef       ?
_refine_ls_number_reflns         3136
_refine_ls_number_parameters     244
_refine_ls_number_restraints     38
_refine_ls_R_factor_all          0.0325
_refine_ls_R_factor_gt           0.0295
_refine_ls_wR_factor_ref         0.0778
_refine_ls_wR_factor_gt          0.0756
_refine_ls_goodness_of_fit_ref   1.085
_refine_ls_restrained_S_all      1.118
_refine_ls_shift/su_max          0.019
_refine_ls_shift/su_mean         0.001

loop_
_atom_site_label
_atom_site_type_symbol
_atom_site_fract_x
_atom_site_fract_y
_atom_site_fract_z
_atom_site_U_iso_or_equiv
_atom_site_adp_type
_atom_site_occupancy
_atom_site_symmetry_multiplicity
_atom_site_calc_flag
_atom_site_refinement_flags
_atom_site_disorder_assembly
_atom_site_disorder_group
Ag1 Ag 0.147058(8) 0.321810(9) 0.50263(3) 0.03232(11) Uani 1 1 d . . .
O1 O 0.33491(7) 0.33006(7) 0.7924(2) 0.0286(5) Uani 1 1 d . . .
N1 N 0.20605(9) 0.34242(9) 0.6615(3) 0.0262(5) Uani 1 1 d . . .
N2 N 0.27857(9) 0.19738(9) 0.6182(3) 0.0278(6) Uani 1 1 d . . .
C1 C 0.21847(11) 0.37789(11) 0.7602(4) 0.0294(7) Uani 1 1 d . . .
H1A H 0.2018 0.3940 0.7572 0.035 Uiso 1 1 calc R . .
C2 C 0.25446(11) 0.39209(11) 0.8664(4) 0.0298(7) Uani 1 1 d . . .
H2A H 0.2621 0.4172 0.9360 0.036 Uiso 1 1 calc R . .
C3 C 0.27909(11) 0.36936(10) 0.8700(4) 0.0277(6) Uani 1 1 d . . .
H3A H 0.3045 0.3790 0.9404 0.033 Uiso 1 1 calc R . .
C4 C 0.26631(10) 0.33225(10) 0.7697(3) 0.0239(6) Uani 1 1 d . . .
C5 C 0.22944(10) 0.31975(10) 0.6675(3) 0.0247(6) Uani 1 1 d . . .
H5A H 0.2205 0.2941 0.5991 0.030 Uiso 1 1 calc R . .
C6 C 0.29388(10) 0.30853(10) 0.7665(3) 0.0238(6) Uani 1 1 d . . .
C7 C 0.27083(10) 0.25845(10) 0.7321(3) 0.0245(6) Uani 1 1 d . . .
C8 C 0.22695(11) 0.22745(11) 0.7858(4) 0.0314(7) Uani 1 1 d . . .
H8A H 0.2092 0.2377 0.8430 0.038 Uiso 1 1 calc R . .
C9 C 0.20962(12) 0.18099(12) 0.7536(4) 0.0368(8) Uani 1 1 d . . .
H9A H 0.1797 0.1587 0.7891 0.044 Uiso 1 1 calc R . .
C10 C 0.23600(11) 0.16772(11) 0.6704(4) 0.0330(7) Uani 1 1 d . . .
H10A H 0.2236 0.1358 0.6485 0.040 Uiso 1 1 calc R . .
C11 C 0.29543(10) 0.24189(10) 0.6509(3) 0.0257(6) Uani 1 1 d . . .
H11A H 0.3259 0.2633 0.6168 0.031 Uiso 1 1 calc R . .
C12 C 0.15379(11) 0.41398(12) 0.4486(4) 0.0340(7) Uani 1 1 d . . .
O2 O 0.15432(9) 0.39517(10) 0.3241(3) 0.0512(7) Uani 1 1 d . . .
O3 O 0.14579(10) 0.39872(10) 0.5837(3) 0.0513(7) Uani 1 1 d . . .
C13 C 0.16693(14) 0.46460(14) 0.4281(5) 0.0442(9) Uani 1 1 d . . .
F1 F 0.15578(9) 0.48173(8) 0.5511(3) 0.0533(6) Uani 1 1 d . . .
F2 F 0.21216(9) 0.49099(8) 0.4070(4) 0.0722(8) Uani 1 1 d . . .
F3 F 0.14635(11) 0.47054(11) 0.3020(3) 0.0751(9) Uani 1 1 d . . .
O4 O 0.0941(5) 0.0164(6) 0.2530(16) 0.366(9) Uani 1 1 d DU . .
C14 C 0.1207(4) 0.0381(5) 0.3878(12) 0.181(5) Uani 1 1 d DU . .
H14A H 0.1243 0.0155 0.4530 0.217 Uiso 1 1 calc R . .
H14B H 0.1054 0.0511 0.4530 0.217 Uiso 1 1 calc R . .
C15 C 0.1666(4) 0.0755(3) 0.3347(10) 0.198(6) Uani 1 1 d DU . .
H15A H 0.1727 0.1057 0.3757 0.237 Uiso 1 1 calc R . .
H15B H 0.1914 0.0698 0.3723 0.237 Uiso 1 1 calc R . .
C16 C 0.1644(4) 0.0746(3) 0.1588(10) 0.168(5) Uani 1 1 d DU . .
H16A H 0.1748 0.1058 0.1162 0.202 Uiso 1 1 calc R . .
H16B H 0.1842 0.0631 0.1141 0.202 Uiso 1 1 calc R . .
C17 C 0.1156(4) 0.0429(6) 0.1195(14) 0.240(8) Uani 1 1 d DU . .
H17A H 0.1005 0.0608 0.0883 0.288 Uiso 1 1 calc R . .
H17B H 0.1132 0.0228 0.0297 0.288 Uiso 1 1 calc R . .

loop_
_atom_site_aniso_label
_atom_site_aniso_U_11
_atom_site_aniso_U_22
_atom_site_aniso_U_33
_atom_site_aniso_U_23
_atom_site_aniso_U_13
_atom_site_aniso_U_12
Ag1 0.02790(15) 0.03667(16) 0.03356(17) -0.00507(10) -0.00809(9) 0.01701(11)
O1 0.0259(12) 0.0358(12) 0.0239(11) -0.0039(9) -0.0026(8) 0.0152(10)
N1 0.0258(13) 0.0299(13) 0.0239(13) -0.0016(10) -0.0003(10) 0.0148(11)
N2 0.0326(14) 0.0284(14) 0.0252(14) 0.0023(10) 0.0018(10) 0.0175(12)
C1 0.0300(16) 0.0306(16) 0.0298(17) 0.0001(13) 0.0031(13) 0.0168(14)
C2 0.0329(17) 0.0285(16) 0.0272(17) -0.0060(12) -0.0023(13) 0.0148(14)
C3 0.0297(16) 0.0290(16) 0.0225(16) -0.0014(12) -0.0026(12) 0.0133(13)
C4 0.0255(15) 0.0260(15) 0.0188(15) 0.0015(11) 0.0029(11) 0.0119(12)
C5 0.0263(15) 0.0247(14) 0.0218(15) -0.0010(11) 0.0016(12) 0.0117(13)
C6 0.0293(16) 0.0307(16) 0.0125(14) 0.0011(11) 0.0008(11) 0.0159(13)
C7 0.0277(15) 0.0290(15) 0.0184(15) 0.0011(11) -0.0013(11) 0.0155(13)
C8 0.0316(17) 0.0329(17) 0.0332(18) 0.0037(13) 0.0056(13) 0.0188(14)
C9 0.0308(17) 0.0300(17) 0.047(2) 0.0072(15) 0.0092(15) 0.0135(14)
C10 0.0344(17) 0.0257(16) 0.0378(19) 0.0019(13) -0.0003(14) 0.0142(14)
C11 0.0276(15) 0.0272(15) 0.0221(15) 0.0042(12) 0.0019(12) 0.0137(13)
C12 0.0287(17) 0.0381(18) 0.041(2) -0.0063(15) -0.0026(14) 0.0212(15)
O2 0.0419(15) 0.0548(16) 0.0563(17) -0.0224(14) -0.0048(12) 0.0238(13)
O3 0.0685(19) 0.0541(17) 0.0474(17) 0.0107(13) 0.0089(13) 0.0428(15)
C13 0.049(2) 0.051(2) 0.044(2) 0.0051(17) 0.0133(17) 0.0331(19)
F1 0.0694(15) 0.0473(13) 0.0560(15) -0.0050(10) 0.0104(12) 0.0388(12)
F2 0.0566(15) 0.0419(13) 0.112(2) 0.0065(14) 0.0316(15) 0.0198(12)
F3 0.115(2) 0.109(2) 0.0480(15) 0.0242(15) 0.0158(15) 0.091(2)
O4 0.314(16) 0.386(18) 0.256(15) 0.031(14) -0.055(13) 0.068(13)
C14 0.195(12) 0.207(12) 0.146(10) 0.024(9) -0.009(9) 0.105(10)
C15 0.347(16) 0.092(6) 0.132(8) 0.012(5) 0.078(10) 0.092(8)
C16 0.274(13) 0.076(5) 0.148(8) 0.024(5) 0.111(9) 0.084(7)
C17 0.167(11) 0.294(17) 0.162(12) 0.056(11) -0.035(10) 0.041(11)

_geom_special_details            
;
All esds (except the esd in the dihedral angle between two l.s. planes)
are estimated using the full covariance matrix. The cell esds are taken
into account individually in the estimation of esds in distances, angles
and torsion angles; correlations between esds in cell parameters are only
used when they are defined by crystal symmetry. An approximate (isotropic)
treatment of cell esds is used for estimating esds involving l.s. planes.
;

loop_
_geom_bond_atom_site_label_1
_geom_bond_atom_site_label_2
_geom_bond_distance
_geom_bond_site_symmetry_2
_geom_bond_publ_flag
Ag1 N2 2.190(3) 12_556 ?
Ag1 N1 2.191(3) . ?
Ag1 Ag1 3.0735(6) 16 ?
O1 C6 1.209(4) . ?
N1 C1 1.334(4) . ?
N1 C5 1.335(4) . ?
N2 C11 1.331(4) . ?
N2 C10 1.339(4) . ?
N2 Ag1 2.190(3) 11_556 ?
C1 C2 1.380(5) . ?
C2 C3 1.373(4) . ?
C3 C4 1.381(4) . ?
C4 C5 1.387(4) . ?
C4 C6 1.487(4) . ?
C6 C7 1.481(4) . ?
C7 C11 1.382(4) . ?
C7 C8 1.383(4) . ?
C8 C9 1.387(5) . ?
C9 C10 1.363(5) . ?
C12 O3 1.222(5) . ?
C12 O2 1.228(4) . ?
C12 C13 1.532(5) . ?
C13 F1 1.325(4) . ?
C13 F2 1.328(5) . ?
C13 F3 1.334(5) . ?
O4 C17 1.390(9) . ?
O4 C14 1.401(9) . ?
C14 C15 1.483(8) . ?
C15 C16 1.483(8) . ?
C16 C17 1.473(8) . ?

loop_
_geom_angle_atom_site_label_1
_geom_angle_atom_site_label_2
_geom_angle_atom_site_label_3
_geom_angle
_geom_angle_site_symmetry_1
_geom_angle_site_symmetry_3
_geom_angle_publ_flag
N2 Ag1 N1 160.43(10) 12_556 . ?
N2 Ag1 Ag1 84.05(7) 12_556 16 ?
N1 Ag1 Ag1 106.49(7) . 16 ?
C1 N1 C5 118.1(3) . . ?
C1 N1 Ag1 119.4(2) . . ?
C5 N1 Ag1 122.4(2) . . ?
C11 N2 C10 117.4(3) . . ?
C11 N2 Ag1 120.0(2) . 11_556 ?
C10 N2 Ag1 122.6(2) . 11_556 ?
N1 C1 C2 122.7(3) . . ?
C3 C2 C1 119.1(3) . . ?
C2 C3 C4 118.8(3) . . ?
C3 C4 C5 118.7(3) . . ?
C3 C4 C6 119.6(3) . . ?
C5 C4 C6 121.5(3) . . ?
N1 C5 C4 122.5(3) . . ?
O1 C6 C7 120.2(3) . . ?
O1 C6 C4 120.1(3) . . ?
C7 C6 C4 119.7(3) . . ?
C11 C7 C8 118.9(3) . . ?
C11 C7 C6 118.2(3) . . ?
C8 C7 C6 122.8(3) . . ?
C7 C8 C9 117.9(3) . . ?
C10 C9 C8 119.3(3) . . ?
N2 C10 C9 123.3(3) . . ?
N2 C11 C7 123.2(3) . . ?
O3 C12 O2 129.7(4) . . ?
O3 C12 C13 116.7(3) . . ?
O2 C12 C13 113.6(3) . . ?
F1 C13 F2 106.9(3) . . ?
F1 C13 F3 106.3(3) . . ?
F2 C13 F3 107.2(3) . . ?
F1 C13 C12 113.7(3) . . ?
F2 C13 C12 110.6(3) . . ?
F3 C13 C12 111.7(3) . . ?
C17 O4 C14 109.5(11) . . ?
O4 C14 C15 108.3(8) . . ?
C16 C15 C14 105.3(5) . . ?
C17 C16 C15 105.4(5) . . ?
O4 C17 C16 108.0(9) . . ?

loop_
_geom_torsion_atom_site_label_1
_geom_torsion_atom_site_label_2
_geom_torsion_atom_site_label_3
_geom_torsion_atom_site_label_4
_geom_torsion
_geom_torsion_site_symmetry_1
_geom_torsion_site_symmetry_2
_geom_torsion_site_symmetry_3
_geom_torsion_site_symmetry_4
_geom_torsion_publ_flag
N2 Ag1 N1 C1 -127.4(3) 12_556 . . . ?
Ag1 Ag1 N1 C1 112.0(2) 16 . . . ?
N2 Ag1 N1 C5 50.3(4) 12_556 . . . ?
Ag1 Ag1 N1 C5 -70.3(2) 16 . . . ?
C5 N1 C1 C2 0.5(5) . . . . ?
Ag1 N1 C1 C2 178.3(2) . . . . ?
N1 C1 C2 C3 0.9(5) . . . . ?
C1 C2 C3 C4 -1.5(5) . . . . ?
C2 C3 C4 C5 0.9(4) . . . . ?
C2 C3 C4 C6 177.2(3) . . . . ?
C1 N1 C5 C4 -1.2(4) . . . . ?
Ag1 N1 C5 C4 -178.9(2) . . . . ?
C3 C4 C5 N1 0.5(4) . . . . ?
C6 C4 C5 N1 -175.7(3) . . . . ?
C3 C4 C6 O1 -31.3(4) . . . . ?
C5 C4 C6 O1 144.9(3) . . . . ?
C3 C4 C6 C7 148.5(3) . . . . ?
C5 C4 C6 C7 -35.3(4) . . . . ?
O1 C6 C7 C11 -33.3(4) . . . . ?
C4 C6 C7 C11 146.9(3) . . . . ?
O1 C6 C7 C8 142.8(3) . . . . ?
C4 C6 C7 C8 -37.0(4) . . . . ?
C11 C7 C8 C9 -0.7(5) . . . . ?
C6 C7 C8 C9 -176.7(3) . . . . ?
C7 C8 C9 C10 -0.4(5) . . . . ?
C11 N2 C10 C9 0.3(5) . . . . ?
Ag1 N2 C10 C9 176.2(3) 11_556 . . . ?
C8 C9 C10 N2 0.6(5) . . . . ?
C10 N2 C11 C7 -1.4(4) . . . . ?
Ag1 N2 C11 C7 -177.4(2) 11_556 . . . ?
C8 C7 C11 N2 1.6(5) . . . . ?
C6 C7 C11 N2 177.9(3) . . . . ?
O3 C12 C13 F1 -17.6(5) . . . . ?
O2 C12 C13 F1 164.4(3) . . . . ?
O3 C12 C13 F2 102.7(4) . . . . ?
O2 C12 C13 F2 -75.3(4) . . . . ?
O3 C12 C13 F3 -138.0(3) . . . . ?
O2 C12 C13 F3 44.1(4) . . . . ?
C17 O4 C14 C15 -13(2) . . . . ?
O4 C14 C15 C16 1.1(16) . . . . ?
C14 C15 C16 C17 9.9(14) . . . . ?
C14 O4 C17 C16 19(2) . . . . ?
C15 C16 C17 O4 -17.7(19) . . . . ?

_diffrn_measured_fraction_theta_max 0.983
_diffrn_reflns_theta_full        25.00
_diffrn_measured_fraction_theta_full 0.983
_refine_diff_density_max         1.087
_refine_diff_density_min         -0.482
_refine_diff_density_rms         0.072
