####################################################################### 
# 
# This file contains crystal structure data downloaded from the 
# Cambridge Structural Database (CSD) hosted by the Cambridge 
# Crystallographic Data Centre (CCDC).
# 
# Full information about CCDC data access policies and citation 
# guidelines are available at http://www.ccdc.cam.ac.uk/access/V1 
# 
# Audit and citation data items may have been added by the CCDC. 
# Please retain this information to preserve the provenance of 
# this file and to allow appropriate attribution of the data. 
# 
#######################################################################

data_ibuol
_audit_block_doi                 10.5517/ccrphxt
_database_code_depnum_ccdc_archive 'CCDC 705867'
loop_
_citation_id
_citation_doi
_citation_year
1 10.1002/chem.200900010 2009
_audit_update_record             
;
2008-10-19 deposited with the CCDC.	2024-07-10 downloaded from the CCDC.
;

_audit_creation_method           SHELXL-97
_chemical_name_systematic        
;
?
;
_chemical_name_common            ?
_chemical_melting_point          ?
_chemical_formula_moiety         ?
_chemical_formula_sum            'C17 H18 Ag F3 N2 O4'
_chemical_formula_weight         479.20

loop_
_atom_type_symbol
_atom_type_description
_atom_type_scat_dispersion_real
_atom_type_scat_dispersion_imag
_atom_type_scat_source
C C 0.0033 0.0016 'International Tables Vol C Tables 4.2.6.8 and 6.1.1.4'
H H 0.0000 0.0000 'International Tables Vol C Tables 4.2.6.8 and 6.1.1.4'
N N 0.0061 0.0033 'International Tables Vol C Tables 4.2.6.8 and 6.1.1.4'
O O 0.0106 0.0060 'International Tables Vol C Tables 4.2.6.8 and 6.1.1.4'
F F 0.0171 0.0103 'International Tables Vol C Tables 4.2.6.8 and 6.1.1.4'
Ag Ag -0.8971 1.1015 'International Tables Vol C Tables 4.2.6.8 and 6.1.1.4'

_symmetry_cell_setting           Rhombohedral
_symmetry_space_group_name_H-M   R-3

loop_
_symmetry_equiv_pos_as_xyz
'x, y, z'
'-y, x-y, z'
'-x+y, -x, z'
'x+2/3, y+1/3, z+1/3'
'-y+2/3, x-y+1/3, z+1/3'
'-x+y+2/3, -x+1/3, z+1/3'
'x+1/3, y+2/3, z+2/3'
'-y+1/3, x-y+2/3, z+2/3'
'-x+y+1/3, -x+2/3, z+2/3'
'-x, -y, -z'
'y, -x+y, -z'
'x-y, x, -z'
'-x+2/3, -y+1/3, -z+1/3'
'y+2/3, -x+y+1/3, -z+1/3'
'x-y+2/3, x+1/3, -z+1/3'
'-x+1/3, -y+2/3, -z+2/3'
'y+1/3, -x+y+2/3, -z+2/3'
'x-y+1/3, x+2/3, -z+2/3'

_cell_length_a                   34.1447(14)
_cell_length_b                   34.1447(14)
_cell_length_c                   8.3594(7)
_cell_angle_alpha                90.00
_cell_angle_beta                 90.00
_cell_angle_gamma                120.00
_cell_volume                     8440.2(9)
_cell_formula_units_Z            18
_cell_measurement_temperature    123(2)
_cell_measurement_reflns_used    ?
_cell_measurement_theta_min      ?
_cell_measurement_theta_max      ?

_exptl_crystal_description       Block
_exptl_crystal_colour            Brown
_exptl_crystal_size_max          0.19
_exptl_crystal_size_mid          0.17
_exptl_crystal_size_min          0.13
_exptl_crystal_density_meas      ?
_exptl_crystal_density_diffrn    1.697
_exptl_crystal_density_method    'not measured'
_exptl_crystal_F_000             4320
_exptl_absorpt_coefficient_mu    1.128
_exptl_absorpt_correction_type   MULTI-SCAN
_exptl_absorpt_correction_T_min  0.853160
_exptl_absorpt_correction_T_max  1.000000
_exptl_absorpt_process_details   SADABS

_exptl_special_details           
;
?
;

_diffrn_ambient_temperature      123(2)
_diffrn_radiation_wavelength     0.71073
_diffrn_radiation_type           MoK\a
_diffrn_radiation_source         'fine-focus sealed tube'
_diffrn_radiation_monochromator  graphite
_diffrn_measurement_device_type  'CCD area detector'
_diffrn_measurement_method       'phi and omega scans'
_diffrn_detector_area_resol_mean ?
_diffrn_standards_number         ?
_diffrn_standards_interval_count ?
_diffrn_standards_interval_time  ?
_diffrn_standards_decay_%        ?
_diffrn_reflns_number            14638
_diffrn_reflns_av_R_equivalents  0.0236
_diffrn_reflns_av_sigmaI/netI    0.0203
_diffrn_reflns_limit_h_min       -40
_diffrn_reflns_limit_h_max       40
_diffrn_reflns_limit_k_min       -40
_diffrn_reflns_limit_k_max       34
_diffrn_reflns_limit_l_min       -9
_diffrn_reflns_limit_l_max       9
_diffrn_reflns_theta_min         2.80
_diffrn_reflns_theta_max         25.01
_reflns_number_total             3279
_reflns_number_gt                2915
_reflns_threshold_expression     >2sigma(I)

_computing_data_collection       'Bruker SMART'
_computing_cell_refinement       'Bruker SMART'
_computing_data_reduction        'Bruker SAINT'
_computing_structure_solution    'SHELXS-97 (Sheldrick, 1990)'
_computing_structure_refinement  'SHELXL-97 (Sheldrick, 1997)'
_computing_molecular_graphics    'Bruker SHELXTL'
_computing_publication_material  'Bruker SHELXTL'

_refine_special_details          
;
Refinement of F^2^ against ALL reflections. The weighted R-factor wR and
goodness of fit S are based on F^2^, conventional R-factors R are based
on F, with F set to zero for negative F^2^. The threshold expression of
F^2^ > 2sigma(F^2^) is used only for calculating R-factors(gt) etc. and is
not relevant to the choice of reflections for refinement. R-factors based
on F^2^ are statistically about twice as large as those based on F, and R-
factors based on ALL data will be even larger.
;

_refine_ls_structure_factor_coef Fsqd
_refine_ls_matrix_type           full
_refine_ls_weighting_scheme      calc
_refine_ls_weighting_details     
'calc w=1/[\s^2^(Fo^2^)+(0.0805P)^2^+22.0803P] where P=(Fo^2^+2Fc^2^)/3'
_atom_sites_solution_primary     direct
_atom_sites_solution_secondary   difmap
_atom_sites_solution_hydrogens   geom
_refine_ls_hydrogen_treatment    constr
_refine_ls_extinction_method     none
_refine_ls_extinction_coef       ?
_refine_ls_number_reflns         3279
_refine_ls_number_parameters     298
_refine_ls_number_restraints     134
_refine_ls_R_factor_all          0.0393
_refine_ls_R_factor_gt           0.0338
_refine_ls_wR_factor_ref         0.1109
_refine_ls_wR_factor_gt          0.1050
_refine_ls_goodness_of_fit_ref   1.029
_refine_ls_restrained_S_all      1.036
_refine_ls_shift/su_max          0.001
_refine_ls_shift/su_mean         0.000

loop_
_atom_site_label
_atom_site_type_symbol
_atom_site_fract_x
_atom_site_fract_y
_atom_site_fract_z
_atom_site_U_iso_or_equiv
_atom_site_adp_type
_atom_site_occupancy
_atom_site_symmetry_multiplicity
_atom_site_calc_flag
_atom_site_refinement_flags
_atom_site_disorder_assembly
_atom_site_disorder_group
Ag1 Ag 0.147114(9) 0.320138(9) 0.50711(3) 0.02932(15) Uani 1 1 d . . .
O1 O 0.33472(8) 0.32830(8) 0.7758(3) 0.0263(5) Uani 1 1 d . . .
N1 N 0.20603(9) 0.33960(9) 0.6612(3) 0.0243(6) Uani 1 1 d . . .
N2 N 0.27764(10) 0.19651(10) 0.6094(3) 0.0261(6) Uani 1 1 d . . .
C1 C 0.21966(12) 0.37535(12) 0.7596(4) 0.0259(7) Uani 1 1 d . . .
H1A H 0.2031 0.3910 0.7606 0.031 Uiso 1 1 calc R . .
C2 C 0.25698(12) 0.39028(11) 0.8596(4) 0.0269(7) Uani 1 1 d . . .
H2A H 0.2658 0.4157 0.9275 0.032 Uiso 1 1 calc R . .
C3 C 0.28109(12) 0.36768(11) 0.8589(4) 0.0248(7) Uani 1 1 d . . .
H3A H 0.3069 0.3775 0.9252 0.030 Uiso 1 1 calc R . .
C4 C 0.26696(11) 0.33031(11) 0.7598(4) 0.0217(7) Uani 1 1 d . . .
C5 C 0.22933(11) 0.31740(11) 0.6630(4) 0.0229(7) Uani 1 1 d . . .
H5A H 0.2197 0.2918 0.5954 0.027 Uiso 1 1 calc R . .
C6 C 0.29392(11) 0.30693(11) 0.7531(4) 0.0216(7) Uani 1 1 d . . .
C7 C 0.27079(11) 0.25735(11) 0.7212(4) 0.0215(7) Uani 1 1 d . . .
C8 C 0.22820(12) 0.22737(12) 0.7817(4) 0.0278(8) Uani 1 1 d . . .
H8A H 0.2114 0.2379 0.8402 0.033 Uiso 1 1 calc R . .
C9 C 0.21096(13) 0.18141(12) 0.7536(5) 0.0331(8) Uani 1 1 d . . .
H9A H 0.1820 0.1598 0.7935 0.040 Uiso 1 1 calc R . .
C10 C 0.23631(13) 0.16772(12) 0.6673(4) 0.0303(8) Uani 1 1 d . . .
H10A H 0.2240 0.1363 0.6477 0.036 Uiso 1 1 calc R . .
C11 C 0.29427(12) 0.24057(11) 0.6384(4) 0.0234(7) Uani 1 1 d . . .
H11A H 0.3237 0.2614 0.6001 0.028 Uiso 1 1 calc R . .
C12 C 0.15298(11) 0.41045(13) 0.4648(5) 0.0294(8) Uani 1 1 d . . .
O2 O 0.15351(10) 0.38954(10) 0.3442(4) 0.0447(7) Uani 1 1 d . . .
O3 O 0.14637(11) 0.39825(10) 0.6040(4) 0.0439(7) Uani 1 1 d . . .
C13 C 0.16362(15) 0.45894(15) 0.4298(5) 0.0422(10) Uani 1 1 d . . .
F1 F 0.15380(9) 0.47818(8) 0.5503(3) 0.0478(6) Uani 1 1 d . . .
F2 F 0.20734(11) 0.48575(10) 0.3975(5) 0.0802(11) Uani 1 1 d . . .
F3 F 0.14003(14) 0.46042(13) 0.3027(3) 0.0754(10) Uani 1 1 d . . .
C21 C 0.1097(9) 0.0644(9) 0.405(3) 0.227(7) Uani 0.50 1 d PDU A 1
H21A H 0.1088 0.0932 0.4049 0.272 Uiso 0.50 1 calc PR A 1
C22 C 0.1176(9) 0.0682(7) 0.225(3) 0.230(7) Uani 0.50 1 d PDU A 1
H22A H 0.1272 0.1007 0.2045 0.276 Uiso 0.50 1 calc PRD A 1
C23 C 0.1574(12) 0.0649(9) 0.158(4) 0.240(7) Uani 0.50 1 d PDU A 1
H23A H 0.1808 0.0741 0.2397 0.360 Uiso 0.50 1 calc PR A 1
H23B H 0.1698 0.0848 0.0644 0.360 Uiso 0.50 1 calc PR A 1
H23C H 0.1470 0.0336 0.1253 0.360 Uiso 0.50 1 calc PR A 1
C24 C 0.0752(11) 0.0435(8) 0.120(3) 0.244(8) Uani 0.50 1 d PDU A 1
H24A H 0.0840 0.0412 0.0106 0.366 Uiso 0.50 1 calc PR A 1
H24B H 0.0590 0.0605 0.1198 0.366 Uiso 0.50 1 calc PR A 1
H24C H 0.0554 0.0132 0.1632 0.366 Uiso 0.50 1 calc PR A 1
O4 O 0.0616(9) 0.0388(12) 0.439(3) 0.248(9) Uani 0.30 1 d PDU A 1
H4A H 0.0546 0.0124 0.4676 0.372 Uiso 0.30 1 calc PR A 1
O4' O 0.1520(11) 0.0860(15) 0.491(4) 0.234(9) Uani 0.20 1 d PDU A 1
H4'A H 0.1471 0.0892 0.5874 0.351 Uiso 0.20 1 calc PR A 1
C31 C 0.1391(8) 0.0598(10) 0.340(3) 0.226(7) Uani 0.50 1 d PDU B 2
H31A H 0.1307 0.0816 0.3843 0.271 Uiso 0.50 1 calc PR B 2
H31B H 0.1316 0.0358 0.4210 0.271 Uiso 0.50 1 calc PR B 2
C32 C 0.1132(7) 0.0391(8) 0.184(3) 0.224(7) Uani 0.50 1 d PDU B 2
H32A H 0.1156 0.0112 0.1706 0.269 Uiso 0.50 1 calc PR B 2
C33 C 0.1423(11) 0.0700(9) 0.045(3) 0.222(8) Uani 0.50 1 d PDU B 2
H33A H 0.1733 0.0754 0.0534 0.333 Uiso 0.50 1 calc PR B 2
H33B H 0.1428 0.0989 0.0498 0.333 Uiso 0.50 1 calc PR B 2
H33C H 0.1293 0.0552 -0.0578 0.333 Uiso 0.50 1 calc PR B 2
C34 C 0.0624(7) 0.0205(11) 0.207(4) 0.259(9) Uani 0.50 1 d PDU B 2
H34A H 0.0529 0.0051 0.3105 0.389 Uiso 0.50 1 calc PR B 2
H34B H 0.0457 -0.0011 0.1210 0.389 Uiso 0.50 1 calc PR B 2
H34C H 0.0560 0.0454 0.2035 0.389 Uiso 0.50 1 calc PR B 2
O5 O 0.1876(7) 0.0830(7) 0.302(3) 0.248(8) Uani 0.50 1 d PDU B 2
H5B H 0.2026 0.0959 0.3849 0.373 Uiso 0.50 1 calc PR B 2

loop_
_atom_site_aniso_label
_atom_site_aniso_U_11
_atom_site_aniso_U_22
_atom_site_aniso_U_33
_atom_site_aniso_U_23
_atom_site_aniso_U_13
_atom_site_aniso_U_12
Ag1 0.02344(19) 0.0346(2) 0.0312(2) -0.00545(10) -0.00703(10) 0.01543(13)
O1 0.0233(13) 0.0332(13) 0.0233(12) -0.0020(10) -0.0022(9) 0.0148(11)
N1 0.0218(14) 0.0279(15) 0.0231(14) 0.0000(12) 0.0001(11) 0.0123(12)
N2 0.0303(16) 0.0246(15) 0.0250(15) 0.0027(12) 0.0025(12) 0.0150(13)
C1 0.0271(17) 0.0256(17) 0.0266(18) -0.0005(14) 0.0006(14) 0.0144(15)
C2 0.0339(19) 0.0231(17) 0.0251(17) -0.0042(14) -0.0030(14) 0.0152(15)
C3 0.0240(17) 0.0245(17) 0.0234(17) -0.0014(13) -0.0017(13) 0.0103(14)
C4 0.0232(16) 0.0218(16) 0.0190(16) 0.0031(12) 0.0035(13) 0.0104(14)
C5 0.0221(16) 0.0248(17) 0.0201(16) -0.0040(13) -0.0002(13) 0.0104(14)
C6 0.0248(18) 0.0262(17) 0.0152(16) -0.0003(12) 0.0003(12) 0.0138(15)
C7 0.0246(16) 0.0249(17) 0.0178(15) 0.0003(12) -0.0019(12) 0.0145(14)
C8 0.0291(18) 0.0291(18) 0.0277(18) 0.0024(14) 0.0076(14) 0.0165(16)
C9 0.0276(19) 0.0259(18) 0.041(2) 0.0064(16) 0.0096(16) 0.0100(16)
C10 0.0331(19) 0.0226(17) 0.035(2) 0.0025(14) 0.0014(15) 0.0138(15)
C11 0.0250(17) 0.0265(17) 0.0200(16) 0.0025(13) 0.0019(13) 0.0137(14)
C12 0.0189(17) 0.037(2) 0.036(2) -0.0049(16) -0.0004(14) 0.0166(15)
O2 0.0400(16) 0.0489(17) 0.0483(18) -0.0191(14) -0.0050(13) 0.0246(15)
O3 0.0557(18) 0.0468(17) 0.0431(17) 0.0072(13) 0.0064(14) 0.0361(15)
C13 0.045(2) 0.045(2) 0.046(2) 0.0077(19) 0.0160(19) 0.030(2)
F1 0.0601(16) 0.0405(13) 0.0542(15) -0.0031(11) 0.0113(12) 0.0337(13)
F2 0.0592(19) 0.0413(16) 0.141(3) 0.0211(17) 0.053(2) 0.0257(14)
F3 0.125(3) 0.113(3) 0.0403(15) 0.0184(16) 0.0124(17) 0.098(3)
C21 0.275(16) 0.185(11) 0.297(16) 0.077(11) 0.108(13) 0.172(12)
C22 0.277(16) 0.187(11) 0.297(16) 0.080(11) 0.106(13) 0.168(12)
C23 0.285(16) 0.192(11) 0.299(16) 0.080(11) 0.101(13) 0.162(12)
C24 0.285(17) 0.196(12) 0.301(16) 0.091(12) 0.096(14) 0.158(13)
O4 0.296(19) 0.195(14) 0.305(18) 0.068(14) 0.118(16) 0.161(15)
O4' 0.278(17) 0.189(13) 0.302(17) 0.072(12) 0.110(15) 0.167(14)
C31 0.274(16) 0.185(11) 0.296(16) 0.079(10) 0.108(13) 0.173(12)
C32 0.272(16) 0.185(11) 0.297(16) 0.083(11) 0.105(13) 0.175(12)
C33 0.276(17) 0.182(12) 0.295(17) 0.088(12) 0.096(14) 0.180(13)
C34 0.291(17) 0.207(13) 0.303(17) 0.090(12) 0.100(15) 0.142(14)
O5 0.303(17) 0.184(12) 0.286(16) 0.064(12) 0.118(14) 0.143(13)

_geom_special_details            
;
All esds (except the esd in the dihedral angle between two l.s. planes)
are estimated using the full covariance matrix. The cell esds are taken
into account individually in the estimation of esds in distances, angles
and torsion angles; correlations between esds in cell parameters are only
used when they are defined by crystal symmetry. An approximate (isotropic)
treatment of cell esds is used for estimating esds involving l.s. planes.
;

loop_
_geom_bond_atom_site_label_1
_geom_bond_atom_site_label_2
_geom_bond_distance
_geom_bond_site_symmetry_2
_geom_bond_publ_flag
Ag1 N1 2.194(3) . ?
Ag1 N2 2.205(3) 12_556 ?
Ag1 Ag1 3.1357(6) 16 ?
O1 C6 1.222(4) . ?
N1 C5 1.346(4) . ?
N1 C1 1.347(4) . ?
N2 C11 1.338(5) . ?
N2 C10 1.343(5) . ?
N2 Ag1 2.205(3) 11_556 ?
C1 C2 1.391(5) . ?
C1 H1A 0.9500 . ?
C2 C3 1.381(5) . ?
C2 H2A 0.9500 . ?
C3 C4 1.390(5) . ?
C3 H3A 0.9500 . ?
C4 C5 1.391(5) . ?
C4 C6 1.491(5) . ?
C5 H5A 0.9500 . ?
C6 C7 1.491(5) . ?
C7 C11 1.382(5) . ?
C7 C8 1.389(5) . ?
C8 C9 1.393(5) . ?
C8 H8A 0.9500 . ?
C9 C10 1.376(5) . ?
C9 H9A 0.9500 . ?
C10 H10A 0.9500 . ?
C11 H11A 0.9500 . ?
C12 O3 1.219(5) . ?
C12 O2 1.240(5) . ?
C12 C13 1.535(6) . ?
C13 F2 1.332(5) . ?
C13 F1 1.334(5) . ?
C13 F3 1.350(5) . ?
C21 O4' 1.446(5) . ?
C21 O4 1.452(5) . ?
C21 C22 1.521(10) . ?
C21 H21A 1.0000 . ?
C22 C23 1.525(9) . ?
C22 C24 1.534(9) . ?
C22 H22A 1.0000 . ?
C23 H23A 0.9800 . ?
C23 H23B 0.9800 . ?
C23 H23C 0.9800 . ?
C24 H24A 0.9800 . ?
C24 H24B 0.9800 . ?
C24 H24C 0.9800 . ?
O4 H4A 0.8400 . ?
O4' H4'A 0.8400 . ?
C31 O5 1.469(10) . ?
C31 C32 1.537(10) . ?
C31 H31A 0.9900 . ?
C31 H31B 0.9900 . ?
C32 C34 1.533(10) . ?
C32 C33 1.554(10) . ?
C32 H32A 1.0000 . ?
C33 H33A 0.9800 . ?
C33 H33B 0.9800 . ?
C33 H33C 0.9800 . ?
C34 H34A 0.9800 . ?
C34 H34B 0.9800 . ?
C34 H34C 0.9800 . ?
O5 H5B 0.8400 . ?

loop_
_geom_angle_atom_site_label_1
_geom_angle_atom_site_label_2
_geom_angle_atom_site_label_3
_geom_angle
_geom_angle_site_symmetry_1
_geom_angle_site_symmetry_3
_geom_angle_publ_flag
N1 Ag1 N2 159.96(11) . 12_556 ?
N1 Ag1 Ag1 105.24(7) . 16 ?
N2 Ag1 Ag1 85.87(8) 12_556 16 ?
C5 N1 C1 118.0(3) . . ?
C5 N1 Ag1 123.2(2) . . ?
C1 N1 Ag1 118.8(2) . . ?
C11 N2 C10 117.2(3) . . ?
C11 N2 Ag1 120.2(2) . 11_556 ?
C10 N2 Ag1 122.3(2) . 11_556 ?
N1 C1 C2 122.5(3) . . ?
N1 C1 H1A 118.7 . . ?
C2 C1 H1A 118.7 . . ?
C3 C2 C1 119.0(3) . . ?
C3 C2 H2A 120.5 . . ?
C1 C2 H2A 120.5 . . ?
C2 C3 C4 119.0(3) . . ?
C2 C3 H3A 120.5 . . ?
C4 C3 H3A 120.5 . . ?
C3 C4 C5 118.6(3) . . ?
C3 C4 C6 119.4(3) . . ?
C5 C4 C6 121.9(3) . . ?
N1 C5 C4 122.7(3) . . ?
N1 C5 H5A 118.6 . . ?
C4 C5 H5A 118.6 . . ?
O1 C6 C4 120.0(3) . . ?
O1 C6 C7 120.3(3) . . ?
C4 C6 C7 119.8(3) . . ?
C11 C7 C8 119.2(3) . . ?
C11 C7 C6 118.2(3) . . ?
C8 C7 C6 122.5(3) . . ?
C7 C8 C9 117.8(3) . . ?
C7 C8 H8A 121.1 . . ?
C9 C8 H8A 121.1 . . ?
C10 C9 C8 119.2(3) . . ?
C10 C9 H9A 120.4 . . ?
C8 C9 H9A 120.4 . . ?
N2 C10 C9 123.3(3) . . ?
N2 C10 H10A 118.3 . . ?
C9 C10 H10A 118.3 . . ?
N2 C11 C7 123.3(3) . . ?
N2 C11 H11A 118.4 . . ?
C7 C11 H11A 118.4 . . ?
O3 C12 O2 129.2(4) . . ?
O3 C12 C13 117.0(3) . . ?
O2 C12 C13 113.7(4) . . ?
F2 C13 F1 106.6(4) . . ?
F2 C13 F3 107.4(4) . . ?
F1 C13 F3 105.9(3) . . ?
F2 C13 C12 111.1(3) . . ?
F1 C13 C12 113.9(3) . . ?
F3 C13 C12 111.5(4) . . ?
O4' C21 O4 138.4(15) . . ?
O4' C21 C22 111.1(9) . . ?
O4 C21 C22 110.4(9) . . ?
O4' C21 H21A 90.6 . . ?
O4 C21 H21A 90.6 . . ?
C22 C21 H21A 90.6 . . ?
C21 C22 C23 119.0(12) . . ?
C21 C22 C24 115.9(11) . . ?
C23 C22 C24 112(2) . . ?
C21 C22 H22A 102.0 . . ?
C23 C22 H22A 102.0 . . ?
C24 C22 H22A 102.0 . . ?
C22 C23 H23A 109.5 . . ?
C22 C23 H23B 109.5 . . ?
H23A C23 H23B 109.5 . . ?
C22 C23 H23C 109.5 . . ?
H23A C23 H23C 109.5 . . ?
H23B C23 H23C 109.5 . . ?
C22 C24 H24A 109.5 . . ?
C22 C24 H24B 109.5 . . ?
H24A C24 H24B 109.5 . . ?
C22 C24 H24C 109.5 . . ?
H24A C24 H24C 109.5 . . ?
H24B C24 H24C 109.5 . . ?
C21 O4 H4A 109.5 . . ?
C21 O4' H4'A 109.5 . . ?
O5 C31 C32 107.3(9) . . ?
O5 C31 H31A 110.3 . . ?
C32 C31 H31A 110.3 . . ?
O5 C31 H31B 110.3 . . ?
C32 C31 H31B 110.3 . . ?
H31A C31 H31B 108.5 . . ?
C34 C32 C31 110.8(12) . . ?
C34 C32 C33 126(2) . . ?
C31 C32 C33 107.5(11) . . ?
C34 C32 H32A 103.5 . . ?
C31 C32 H32A 103.5 . . ?
C33 C32 H32A 103.5 . . ?
C32 C33 H33A 109.5 . . ?
C32 C33 H33B 109.5 . . ?
H33A C33 H33B 109.5 . . ?
C32 C33 H33C 109.5 . . ?
H33A C33 H33C 109.5 . . ?
H33B C33 H33C 109.5 . . ?
C32 C34 H34A 109.5 . . ?
C32 C34 H34B 109.5 . . ?
H34A C34 H34B 109.5 . . ?
C32 C34 H34C 109.5 . . ?
H34A C34 H34C 109.5 . . ?
H34B C34 H34C 109.5 . . ?
C31 O5 H5B 109.5 . . ?

loop_
_geom_torsion_atom_site_label_1
_geom_torsion_atom_site_label_2
_geom_torsion_atom_site_label_3
_geom_torsion_atom_site_label_4
_geom_torsion
_geom_torsion_site_symmetry_1
_geom_torsion_site_symmetry_2
_geom_torsion_site_symmetry_3
_geom_torsion_site_symmetry_4
_geom_torsion_publ_flag
N2 Ag1 N1 C5 50.6(4) 12_556 . . . ?
Ag1 Ag1 N1 C5 -71.4(3) 16 . . . ?
N2 Ag1 N1 C1 -129.2(3) 12_556 . . . ?
Ag1 Ag1 N1 C1 108.9(2) 16 . . . ?
C5 N1 C1 C2 1.1(5) . . . . ?
Ag1 N1 C1 C2 -179.2(3) . . . . ?
N1 C1 C2 C3 -0.1(5) . . . . ?
C1 C2 C3 C4 -0.9(5) . . . . ?
C2 C3 C4 C5 0.9(5) . . . . ?
C2 C3 C4 C6 177.4(3) . . . . ?
C1 N1 C5 C4 -1.0(5) . . . . ?
Ag1 N1 C5 C4 179.2(2) . . . . ?
C3 C4 C5 N1 0.0(5) . . . . ?
C6 C4 C5 N1 -176.3(3) . . . . ?
C3 C4 C6 O1 -29.9(5) . . . . ?
C5 C4 C6 O1 146.4(3) . . . . ?
C3 C4 C6 C7 149.1(3) . . . . ?
C5 C4 C6 