####################################################################### 
# 
# This file contains crystal structure data downloaded from the 
# Cambridge Structural Database (CSD) hosted by the Cambridge 
# Crystallographic Data Centre (CCDC).
# 
# Full information about CCDC data access policies and citation 
# guidelines are available at http://www.ccdc.cam.ac.uk/access/V1 
# 
# Audit and citation data items may have been added by the CCDC. 
# Please retain this information to preserve the provenance of 
# this file and to allow appropriate attribution of the data. 
# 
#######################################################################

data_water2
_audit_block_doi                 10.5517/ccrpj20
_database_code_depnum_ccdc_archive 'CCDC 705872'
loop_
_citation_id
_citation_doi
_citation_year
1 10.1002/chem.200900010 2009
_audit_update_record             
;
2008-10-19 deposited with the CCDC.	2024-07-10 downloaded from the CCDC.
;

_audit_creation_method           SHELXL-97
_chemical_name_systematic        
;
?
;
_chemical_name_common            ?
_chemical_melting_point          ?
_chemical_formula_moiety         ?
_chemical_formula_sum            'C13 H10 Ag F3 N2 O4'
_chemical_formula_weight         423.10

loop_
_atom_type_symbol
_atom_type_description
_atom_type_scat_dispersion_real
_atom_type_scat_dispersion_imag
_atom_type_scat_source
C C 0.0033 0.0016 'International Tables Vol C Tables 4.2.6.8 and 6.1.1.4'
H H 0.0000 0.0000 'International Tables Vol C Tables 4.2.6.8 and 6.1.1.4'
N N 0.0061 0.0033 'International Tables Vol C Tables 4.2.6.8 and 6.1.1.4'
O O 0.0106 0.0060 'International Tables Vol C Tables 4.2.6.8 and 6.1.1.4'
F F 0.0171 0.0103 'International Tables Vol C Tables 4.2.6.8 and 6.1.1.4'
Ag Ag -0.8971 1.1015 'International Tables Vol C Tables 4.2.6.8 and 6.1.1.4'

_symmetry_cell_setting           Rhombohedral
_symmetry_space_group_name_H-M   R-3

loop_
_symmetry_equiv_pos_as_xyz
'x, y, z'
'-y, x-y, z'
'-x+y, -x, z'
'x+2/3, y+1/3, z+1/3'
'-y+2/3, x-y+1/3, z+1/3'
'-x+y+2/3, -x+1/3, z+1/3'
'x+1/3, y+2/3, z+2/3'
'-y+1/3, x-y+2/3, z+2/3'
'-x+y+1/3, -x+2/3, z+2/3'
'-x, -y, -z'
'y, -x+y, -z'
'x-y, x, -z'
'-x+2/3, -y+1/3, -z+1/3'
'y+2/3, -x+y+1/3, -z+1/3'
'x-y+2/3, x+1/3, -z+1/3'
'-x+1/3, -y+2/3, -z+2/3'
'y+1/3, -x+y+2/3, -z+2/3'
'x-y+1/3, x+2/3, -z+2/3'

_cell_length_a                   34.533(6)
_cell_length_b                   34.533(6)
_cell_length_c                   8.473(3)
_cell_angle_alpha                90.00
_cell_angle_beta                 90.00
_cell_angle_gamma                120.00
_cell_volume                     8751(4)
_cell_formula_units_Z            18
_cell_measurement_temperature    293(2)
_cell_measurement_reflns_used    ?
_cell_measurement_theta_min      ?
_cell_measurement_theta_max      ?

_exptl_crystal_description       Block
_exptl_crystal_colour            Colorless
_exptl_crystal_size_max          0.25
_exptl_crystal_size_mid          0.20
_exptl_crystal_size_min          0.15
_exptl_crystal_density_meas      ?
_exptl_crystal_density_diffrn    1.445
_exptl_crystal_density_method    'not measured'
_exptl_crystal_F_000             3744
_exptl_absorpt_coefficient_mu    1.078
_exptl_absorpt_correction_type   MULTI-SCAN
_exptl_absorpt_correction_T_min  0.801245
_exptl_absorpt_correction_T_max  1.000000
_exptl_absorpt_process_details   SADABS

_exptl_special_details           
;
?
;

_diffrn_ambient_temperature      293(2)
_diffrn_radiation_wavelength     0.71073
_diffrn_radiation_type           MoK\a
_diffrn_radiation_source         'fine-focus sealed tube'
_diffrn_radiation_monochromator  graphite
_diffrn_measurement_device_type  'CCD area detector'
_diffrn_measurement_method       'phi and omega scans'
_diffrn_detector_area_resol_mean ?
_diffrn_standards_number         ?
_diffrn_standards_interval_count ?
_diffrn_standards_interval_time  ?
_diffrn_standards_decay_%        ?
_diffrn_reflns_number            13497
_diffrn_reflns_av_R_equivalents  0.0973
_diffrn_reflns_av_sigmaI/netI    0.0742
_diffrn_reflns_limit_h_min       -41
_diffrn_reflns_limit_h_max       37
_diffrn_reflns_limit_k_min       -32
_diffrn_reflns_limit_k_max       41
_diffrn_reflns_limit_l_min       -10
_diffrn_reflns_limit_l_max       9
_diffrn_reflns_theta_min         2.04
_diffrn_reflns_theta_max         25.01
_reflns_number_total             3388
_reflns_number_gt                2475
_reflns_threshold_expression     >2sigma(I)

_computing_data_collection       'Bruker SMART'
_computing_cell_refinement       'Bruker SMART'
_computing_data_reduction        'Bruker SAINT'
_computing_structure_solution    'SHELXS-97 (Sheldrick, 1990)'
_computing_structure_refinement  'SHELXL-97 (Sheldrick, 1997)'
_computing_molecular_graphics    'Bruker SHELXTL'
_computing_publication_material  'Bruker SHELXTL'

_refine_special_details          
;
Refinement of F^2^ against ALL reflections. The weighted R-factor wR and
goodness of fit S are based on F^2^, conventional R-factors R are based
on F, with F set to zero for negative F^2^. The threshold expression of
F^2^ > 2sigma(F^2^) is used only for calculating R-factors(gt) etc. and is
not relevant to the choice of reflections for refinement. R-factors based
on F^2^ are statistically about twice as large as those based on F, and R-
factors based on ALL data will be even larger.
;

_refine_ls_structure_factor_coef Fsqd
_refine_ls_matrix_type           full
_refine_ls_weighting_scheme      calc
_refine_ls_weighting_details     
'calc w=1/[\s^2^(Fo^2^)+(0.1516P)^2^+25.9321P] where P=(Fo^2^+2Fc^2^)/3'
_atom_sites_solution_primary     direct
_atom_sites_solution_secondary   difmap
_atom_sites_solution_hydrogens   geom
_refine_ls_hydrogen_treatment    constr
_refine_ls_extinction_method     none
_refine_ls_extinction_coef       ?
_refine_ls_number_reflns         3388
_refine_ls_number_parameters     215
_refine_ls_number_restraints     0
_refine_ls_R_factor_all          0.0954
_refine_ls_R_factor_gt           0.0785
_refine_ls_wR_factor_ref         0.2548
_refine_ls_wR_factor_gt          0.2391
_refine_ls_goodness_of_fit_ref   1.066
_refine_ls_restrained_S_all      1.066
_refine_ls_shift/su_max          0.000
_refine_ls_shift/su_mean         0.000

loop_
_atom_site_label
_atom_site_type_symbol
_atom_site_fract_x
_atom_site_fract_y
_atom_site_fract_z
_atom_site_U_iso_or_equiv
_atom_site_adp_type
_atom_site_occupancy
_atom_site_symmetry_multiplicity
_atom_site_calc_flag
_atom_site_refinement_flags
_atom_site_disorder_assembly
_atom_site_disorder_group
Ag1 Ag 0.14518(2) 0.31774(3) 0.50581(9) 0.0770(4) Uani 1 1 d . . .
O1 O 0.33328(18) 0.3288(2) 0.7516(7) 0.0694(15) Uani 1 1 d . . .
N1 N 0.2047(2) 0.3378(2) 0.6547(7) 0.0595(15) Uani 1 1 d . . .
N2 N 0.2765(2) 0.1975(2) 0.6036(8) 0.0628(16) Uani 1 1 d . . .
C1 C 0.2181(3) 0.3728(3) 0.7508(10) 0.0622(18) Uani 1 1 d . . .
H1A H 0.2015 0.3874 0.7542 0.075 Uiso 1 1 calc R . .
C2 C 0.2555(3) 0.3884(3) 0.8456(11) 0.072(2) Uani 1 1 d . . .
H2A H 0.2638 0.4128 0.9118 0.086 Uiso 1 1 calc R . .
C3 C 0.2800(3) 0.3675(3) 0.8408(9) 0.0614(18) Uani 1 1 d . . .
H3A H 0.3057 0.3779 0.9016 0.074 Uiso 1 1 calc R . .
C4 C 0.2660(2) 0.3301(2) 0.7438(7) 0.0514(15) Uani 1 1 d . . .
C5 C 0.2280(2) 0.3171(3) 0.6528(8) 0.0549(16) Uani 1 1 d . . .
H5A H 0.2184 0.2924 0.5871 0.066 Uiso 1 1 calc R . .
C6 C 0.2928(3) 0.3074(3) 0.7344(8) 0.0559(17) Uani 1 1 d . . .
C7 C 0.2705(3) 0.2585(3) 0.7086(8) 0.0556(17) Uani 1 1 d . . .
C8 C 0.2284(3) 0.2288(3) 0.7744(11) 0.076(2) Uani 1 1 d . . .
H8A H 0.2125 0.2392 0.8317 0.091 Uiso 1 1 calc R . .
C9 C 0.2118(4) 0.1840(3) 0.7508(15) 0.094(3) Uani 1 1 d . . .
H9A H 0.1840 0.1633 0.7916 0.113 Uiso 1 1 calc R . .
C10 C 0.2365(3) 0.1694(3) 0.6662(12) 0.080(3) Uani 1 1 d . . .
H10A H 0.2247 0.1389 0.6521 0.097 Uiso 1 1 calc R . .
C11 C 0.2933(3) 0.2412(3) 0.6286(9) 0.0573(17) Uani 1 1 d . . .
H11A H 0.3217 0.2609 0.5902 0.069 Uiso 1 1 calc R . .
C12 C 0.1536(3) 0.4097(4) 0.4639(13) 0.075(2) Uani 1 1 d . . .
O3 O 0.1444(4) 0.3962(4) 0.5952(11) 0.128(3) Uani 1 1 d . . .
O2 O 0.1554(3) 0.3884(3) 0.3489(12) 0.116(3) Uani 1 1 d . . .
C13 C 0.1630(5) 0.4565(6) 0.4334(18) 0.120(5) Uani 1 1 d . . .
F1 F 0.2029(5) 0.4816(4) 0.390(2) 0.246(9) Uani 1 1 d . . .
F2 F 0.1363(6) 0.4555(6) 0.3100(12) 0.206(6) Uani 1 1 d . . .
F3 F 0.1529(4) 0.4753(3) 0.5423(12) 0.152(4) Uani 1 1 d . . .
O1W O 0.1719(18) 0.0810(17) 0.180(6) 0.152(16) Uiso 0.25 1 d P A 1
O1WA O 0.114(3) 0.044(3) 0.293(10) 0.22(3) Uiso 0.25 1 d P B 2
O1WB O 0.136(3) 0.062(3) 0.118(9) 0.21(3) Uiso 0.25 1 d P C 3
O1WC O 0.151(3) 0.081(3) 0.331(11) 0.25(4) Uiso 0.25 1 d P D 4

loop_
_atom_site_aniso_label
_atom_site_aniso_U_11
_atom_site_aniso_U_22
_atom_site_aniso_U_33
_atom_site_aniso_U_23
_atom_site_aniso_U_13
_atom_site_aniso_U_12
Ag1 0.0595(5) 0.0940(6) 0.0813(6) -0.0152(3) -0.0171(3) 0.0413(4)
O1 0.052(3) 0.082(4) 0.073(4) -0.015(3) -0.008(2) 0.033(3)
N1 0.053(3) 0.069(4) 0.060(4) -0.004(3) -0.004(3) 0.032(3)
N2 0.077(4) 0.065(4) 0.061(4) 0.006(3) 0.009(3) 0.046(4)
C1 0.063(5) 0.068(5) 0.065(4) -0.002(4) -0.003(4) 0.039(4)
C2 0.076(5) 0.065(5) 0.074(5) -0.017(4) -0.007(4) 0.035(4)
C3 0.061(4) 0.066(5) 0.056(4) -0.011(3) -0.009(3) 0.031(4)
C4 0.050(4) 0.062(4) 0.042(3) -0.005(3) -0.001(3) 0.028(3)
C5 0.056(4) 0.061(4) 0.050(4) -0.009(3) 0.000(3) 0.032(4)
C6 0.061(4) 0.072(5) 0.038(3) -0.005(3) -0.003(3) 0.035(4)
C7 0.063(4) 0.065(4) 0.046(4) 0.009(3) 0.006(3) 0.037(4)
C8 0.072(5) 0.083(6) 0.081(5) 0.015(4) 0.029(4) 0.045(5)
C9 0.085(7) 0.072(6) 0.124(8) 0.034(6) 0.052(6) 0.039(5)
C10 0.080(6) 0.064(5) 0.099(7) 0.015(5) 0.018(5) 0.038(5)
C11 0.059(4) 0.065(5) 0.054(4) 0.006(3) 0.012(3) 0.035(4)
C12 0.061(5) 0.093(6) 0.089(6) -0.016(5) 0.001(4) 0.052(5)
O3 0.178(10) 0.163(9) 0.097(6) 0.024(6) 0.025(6) 0.124(8)
O2 0.108(6) 0.123(7) 0.130(7) -0.054(6) -0.020(5) 0.068(5)
C13 0.117(10) 0.143(12) 0.126(11) 0.028(9) 0.052(9) 0.085(10)
F1 0.204(12) 0.138(9) 0.41(2) 0.092(12) 0.172(15) 0.098(9)
F2 0.327(18) 0.313(17) 0.120(7) 0.046(9) 0.023(9) 0.267(16)
F3 0.196(10) 0.129(7) 0.177(9) -0.031(6) 0.017(7) 0.115(7)

_geom_special_details            
;
All esds (except the esd in the dihedral angle between two l.s. planes)
are estimated using the full covariance matrix. The cell esds are taken
into account individually in the estimation of esds in distances, angles
and torsion angles; correlations between esds in cell parameters are only
used when they are defined by crystal symmetry. An approximate (isotropic)
treatment of cell esds is used for estimating esds involving l.s. planes.
;

loop_
_geom_bond_atom_site_label_1
_geom_bond_atom_site_label_2
_geom_bond_distance
_geom_bond_site_symmetry_2
_geom_bond_publ_flag
Ag1 N2 2.203(6) 12_556 ?
Ag1 N1 2.208(6) . ?
Ag1 Ag1 3.2105(18) 16 ?
O1 C6 1.219(9) . ?
N1 C5 1.316(10) . ?
N1 C1 1.335(10) . ?
N2 C11 1.334(10) . ?
N2 C10 1.339(12) . ?
N2 Ag1 2.203(6) 11_556 ?
C1 C2 1.383(12) . ?
C2 C3 1.358(12) . ?
C3 C4 1.397(10) . ?
C4 C5 1.390(10) . ?
C4 C6 1.484(11) . ?
C6 C7 1.481(11) . ?
C7 C11 1.382(11) . ?
C7 C8 1.409(12) . ?
C8 C9 1.371(14) . ?
C9 C10 1.384(14) . ?
C12 O3 1.187(13) . ?
C12 O2 1.243(12) . ?
C12 C13 1.499(19) . ?
C13 F1 1.261(17) . ?
C13 F3 1.276(15) . ?
C13 F2 1.386(19) . ?

loop_
_geom_angle_atom_site_label_1
_geom_angle_atom_site_label_2
_geom_angle_atom_site_label_3
_geom_angle
_geom_angle_site_symmetry_1
_geom_angle_site_symmetry_3
_geom_angle_publ_flag
N2 Ag1 N1 161.0(3) 12_556 . ?
N2 Ag1 Ag1 89.41(18) 12_556 16 ?
N1 Ag1 Ag1 102.32(17) . 16 ?
C5 N1 C1 118.2(7) . . ?
C5 N1 Ag1 123.2(5) . . ?
C1 N1 Ag1 118.6(5) . . ?
C11 N2 C10 117.6(7) . . ?
C11 N2 Ag1 120.6(5) . 11_556 ?
C10 N2 Ag1 121.2(6) . 11_556 ?
N1 C1 C2 122.6(7) . . ?
C3 C2 C1 119.1(8) . . ?
C2 C3 C4 119.3(7) . . ?
C5 C4 C3 117.3(7) . . ?
C5 C4 C6 122.5(6) . . ?
C3 C4 C6 120.1(6) . . ?
N1 C5 C4 123.5(7) . . ?
O1 C6 C7 119.6(7) . . ?
O1 C6 C4 120.2(7) . . ?
C7 C6 C4 120.2(6) . . ?
C11 C7 C8 118.8(8) . . ?
C11 C7 C6 118.8(7) . . ?
C8 C7 C6 122.2(7) . . ?
C9 C8 C7 117.5(8) . . ?
C8 C9 C10 120.0(9) . . ?
N2 C10 C9 122.8(9) . . ?
N2 C11 C7 123.2(7) . . ?
O3 C12 O2 125.7(12) . . ?
O3 C12 C13 117.2(10) . . ?
O2 C12 C13 117.1(11) . . ?
F1 C13 F3 110.2(16) . . ?
F1 C13 F2 106.2(16) . . ?
F3 C13 F2 101.9(12) . . ?
F1 C13 C12 111.6(11) . . ?
F3 C13 C12 117.2(12) . . ?
F2 C13 C12 108.7(14) . . ?

loop_
_geom_torsion_atom_site_label_1
_geom_torsion_atom_site_label_2
_geom_torsion_atom_site_label_3
_geom_torsion_atom_site_label_4
_geom_torsion
_geom_torsion_site_symmetry_1
_geom_torsion_site_symmetry_2
_geom_torsion_site_symmetry_3
_geom_torsion_site_symmetry_4
_geom_torsion_publ_flag
N2 Ag1 N1 C5 54.9(10) 12_556 . . . ?
Ag1 Ag1 N1 C5 -72.1(6) 16 . . . ?
N2 Ag1 N1 C1 -125.6(8) 12_556 . . . ?
Ag1 Ag1 N1 C1 107.4(6) 16 . . . ?
C5 N1 C1 C2 1.0(12) . . . . ?
Ag1 N1 C1 C2 -178.5(7) . . . . ?
N1 C1 C2 C3 0.3(14) . . . . ?
C1 C2 C3 C4 -1.8(13) . . . . ?
C2 C3 C4 C5 1.8(11) . . . . ?
C2 C3 C4 C6 178.7(8) . . . . ?
C1 N1 C5 C4 -1.0(11) . . . . ?
Ag1 N1 C5 C4 178.6(5) . . . . ?
C3 C4 C5 N1 -0.4(11) . . . . ?
C6 C4 C5 N1 -177.2(7) . . . . ?
C5 C4 C6 O1 145.9(7) . . . . ?
C3 C4 C6 O1 -30.8(10) . . . . ?
C5 C4 C6 C7 -35.8(10) . . . . ?
C3 C4 C6 C7 147.5(7) . . . . ?
O1 C6 C7 C11 -32.1(10) . . . . ?
C4 C6 C7 C11 149.7(7) . . . . ?
O1 C6 C7 C8 142.4(8) . . . . ?
C4 C6 C7 C8 -35.9(10) . . . . ?
C11 C7 C8 C9 -1.9(14) . . . . ?
C6 C7 C8 C9 -176.3(9) . . . . ?
C7 C8 C9 C10 0.6(17) . . . . ?
C11 N2 C10 C9 1.7(15) . . . . ?
Ag1 N2 C10 C9 172.8(9) 11_556 . . . ?
C8 C9 C10 N2 -0.4(18) . . . . ?
C10 N2 C11 C7 -3.2(12) . . . . ?
Ag1 N2 C11 C7 -174.3(6) 11_556 . . . ?
C8 C7 C11 N2 3.3(12) . . . . ?
C6 C7 C11 N2 178.0(7) . . . . ?
O3 C12 C13 F1 116.1(17) . . . . ?
O2 C12 C13 F1 -65(2) . . . . ?
O3 C12 C13 F3 -12(2) . . . . ?
O2 C12 C13 F3 166.7(12) . . . . ?
O3 C12 C13 F2 -127.1(12) . . . . ?
O2 C12 C13 F2 51.9(13) . . . . ?

_diffrn_measured_fraction_theta_max 0.990
_diffrn_reflns_theta_full        25.01
_diffrn_measured_fraction_theta_full 0.990
_refine_diff_density_max         0.954
_refine_diff_density_min         -0.425
_refine_diff_density_rms         0.145
