####################################################################### 
# 
# This file contains crystal structure data downloaded from the 
# Cambridge Structural Database (CSD) hosted by the Cambridge 
# Crystallographic Data Centre (CCDC).
# 
# Full information about CCDC data access policies and citation 
# guidelines are available at http://www.ccdc.cam.ac.uk/access/V1 
# 
# Audit and citation data items may have been added by the CCDC. 
# Please retain this information to preserve the provenance of 
# this file and to allow appropriate attribution of the data. 
# 
#######################################################################

data_meoh
_audit_block_doi                 10.5517/ccrpj1z
_database_code_depnum_ccdc_archive 'CCDC 705871'
loop_
_citation_id
_citation_doi
_citation_year
1 10.1002/chem.200900010 2009
_audit_update_record             
;
2008-10-19 deposited with the CCDC.	2024-07-10 downloaded from the CCDC.
;

_audit_creation_method           SHELXL-97
_chemical_name_systematic        
;
?
;
_chemical_name_common            ?
_chemical_melting_point          ?
_chemical_formula_moiety         ?
_chemical_formula_sum            'C14 H12 Ag F3 N2 O4'
_chemical_formula_weight         437.13

loop_
_atom_type_symbol
_atom_type_description
_atom_type_scat_dispersion_real
_atom_type_scat_dispersion_imag
_atom_type_scat_source
C C 0.0033 0.0016 'International Tables Vol C Tables 4.2.6.8 and 6.1.1.4'
H H 0.0000 0.0000 'International Tables Vol C Tables 4.2.6.8 and 6.1.1.4'
N N 0.0061 0.0033 'International Tables Vol C Tables 4.2.6.8 and 6.1.1.4'
O O 0.0106 0.0060 'International Tables Vol C Tables 4.2.6.8 and 6.1.1.4'
F F 0.0171 0.0103 'International Tables Vol C Tables 4.2.6.8 and 6.1.1.4'
Ag Ag -0.8971 1.1015 'International Tables Vol C Tables 4.2.6.8 and 6.1.1.4'

_symmetry_cell_setting           Rhombohedral
_symmetry_space_group_name_H-M   R-3

loop_
_symmetry_equiv_pos_as_xyz
'x, y, z'
'-y, x-y, z'
'-x+y, -x, z'
'x+2/3, y+1/3, z+1/3'
'-y+2/3, x-y+1/3, z+1/3'
'-x+y+2/3, -x+1/3, z+1/3'
'x+1/3, y+2/3, z+2/3'
'-y+1/3, x-y+2/3, z+2/3'
'-x+y+1/3, -x+2/3, z+2/3'
'-x, -y, -z'
'y, -x+y, -z'
'x-y, x, -z'
'-x+2/3, -y+1/3, -z+1/3'
'y+2/3, -x+y+1/3, -z+1/3'
'x-y+2/3, x+1/3, -z+1/3'
'-x+1/3, -y+2/3, -z+2/3'
'y+1/3, -x+y+2/3, -z+2/3'
'x-y+1/3, x+2/3, -z+2/3'

_cell_length_a                   34.471(6)
_cell_length_b                   34.471(6)
_cell_length_c                   8.463(2)
_cell_angle_alpha                90.00
_cell_angle_beta                 90.00
_cell_angle_gamma                120.00
_cell_volume                     8709(3)
_cell_formula_units_Z            18
_cell_measurement_temperature    293(2)
_cell_measurement_reflns_used    ?
_cell_measurement_theta_min      ?
_cell_measurement_theta_max      ?

_exptl_crystal_description       Block
_exptl_crystal_colour            Colorless
_exptl_crystal_size_max          0.27
_exptl_crystal_size_mid          0.17
_exptl_crystal_size_min          0.15
_exptl_crystal_density_meas      ?
_exptl_crystal_density_diffrn    1.500
_exptl_crystal_density_method    'not measured'
_exptl_crystal_F_000             3888
_exptl_absorpt_coefficient_mu    1.086
_exptl_absorpt_correction_type   MULTI-SCAN
_exptl_absorpt_correction_T_min  0.631539
_exptl_absorpt_correction_T_max  1.000000
_exptl_absorpt_process_details   SADABS

_exptl_special_details           
;
?
;

_diffrn_ambient_temperature      293(2)
_diffrn_radiation_wavelength     0.71073
_diffrn_radiation_type           MoK\a
_diffrn_radiation_source         'fine-focus sealed tube'
_diffrn_radiation_monochromator  graphite
_diffrn_measurement_device_type  'CCD area detector'
_diffrn_measurement_method       'phi and omega scans'
_diffrn_detector_area_resol_mean ?
_diffrn_standards_number         ?
_diffrn_standards_interval_count ?
_diffrn_standards_interval_time  ?
_diffrn_standards_decay_%        ?
_diffrn_reflns_number            15803
_diffrn_reflns_av_R_equivalents  0.0453
_diffrn_reflns_av_sigmaI/netI    0.0379
_diffrn_reflns_limit_h_min       -40
_diffrn_reflns_limit_h_max       39
_diffrn_reflns_limit_k_min       -29
_diffrn_reflns_limit_k_max       40
_diffrn_reflns_limit_l_min       -10
_diffrn_reflns_limit_l_max       9
_diffrn_reflns_theta_min         2.05
_diffrn_reflns_theta_max         25.01
_reflns_number_total             3403
_reflns_number_gt                2285
_reflns_threshold_expression     >2sigma(I)

_computing_data_collection       'Bruker SMART'
_computing_cell_refinement       'Bruker SMART'
_computing_data_reduction        'Bruker SAINT'
_computing_structure_solution    'SHELXS-97 (Sheldrick, 1990)'
_computing_structure_refinement  'SHELXL-97 (Sheldrick, 1997)'
_computing_molecular_graphics    'Bruker SHELXTL'
_computing_publication_material  'Bruker SHELXTL'

_refine_special_details          
;
Refinement of F^2^ against ALL reflections. The weighted R-factor wR and
goodness of fit S are based on F^2^, conventional R-factors R are based
on F, with F set to zero for negative F^2^. The threshold expression of
F^2^ > 2sigma(F^2^) is used only for calculating R-factors(gt) etc. and is
not relevant to the choice of reflections for refinement. R-factors based
on F^2^ are statistically about twice as large as those based on F, and R-
factors based on ALL data will be even larger.
;

_refine_ls_structure_factor_coef Fsqd
_refine_ls_matrix_type           full
_refine_ls_weighting_scheme      calc
_refine_ls_weighting_details     
'calc w=1/[\s^2^(Fo^2^)+(0.1189P)^2^+2.4340P] where P=(Fo^2^+2Fc^2^)/3'
_atom_sites_solution_primary     direct
_atom_sites_solution_secondary   difmap
_atom_sites_solution_hydrogens   geom
_refine_ls_hydrogen_treatment    constr
_refine_ls_extinction_method     none
_refine_ls_extinction_coef       ?
_refine_ls_number_reflns         3403
_refine_ls_number_parameters     231
_refine_ls_number_restraints     17
_refine_ls_R_factor_all          0.0853
_refine_ls_R_factor_gt           0.0535
_refine_ls_wR_factor_ref         0.1742
_refine_ls_wR_factor_gt          0.1470
_refine_ls_goodness_of_fit_ref   0.984
_refine_ls_restrained_S_all      0.984
_refine_ls_shift/su_max          0.000
_refine_ls_shift/su_mean         0.000

loop_
_atom_site_label
_atom_site_type_symbol
_atom_site_fract_x
_atom_site_fract_y
_atom_site_fract_z
_atom_site_U_iso_or_equiv
_atom_site_adp_type
_atom_site_occupancy
_atom_site_symmetry_multiplicity
_atom_site_calc_flag
_atom_site_refinement_flags
_atom_site_disorder_assembly
_atom_site_disorder_group
Ag1 Ag 0.145703(15) 0.318468(18) 0.50522(7) 0.0734(3) Uani 1 1 d . . .
O1 O 0.33385(12) 0.32890(14) 0.7573(5) 0.0602(10) Uani 1 1 d . . .
N1 N 0.20490(15) 0.33842(15) 0.6550(5) 0.0542(11) Uani 1 1 d . . .
N2 N 0.27686(17) 0.19766(16) 0.6070(6) 0.0602(12) Uani 1 1 d . . .
C1 C 0.21891(19) 0.37387(19) 0.7508(7) 0.0573(14) Uani 1 1 d . . .
H1A H 0.2026 0.3887 0.7533 0.069 Uiso 1 1 calc R . .
C2 C 0.2557(2) 0.3894(2) 0.8446(8) 0.0672(16) Uani 1 1 d . . .
H2A H 0.2643 0.4142 0.9089 0.081 Uiso 1 1 calc R . .
C3 C 0.2802(2) 0.36750(19) 0.8430(7) 0.0578(14) Uani 1 1 d . . .
H3A H 0.3057 0.3776 0.9054 0.069 Uiso 1 1 calc R . .
C4 C 0.26623(17) 0.33015(17) 0.7465(6) 0.0453(12) Uani 1 1 d . . .
C5 C 0.22835(17) 0.31697(18) 0.6541(6) 0.0488(12) Uani 1 1 d . . .
H5A H 0.2188 0.2922 0.5887 0.059 Uiso 1 1 calc R . .
C6 C 0.29322(18) 0.30746(18) 0.7381(6) 0.0477(12) Uani 1 1 d . . .
C7 C 0.27085(18) 0.25862(19) 0.7109(6) 0.0498(13) Uani 1 1 d . . .
C8 C 0.2290(2) 0.2291(2) 0.7719(8) 0.0667(17) Uani 1 1 d . . .
H8A H 0.2127 0.2394 0.8272 0.080 Uiso 1 1 calc R . .
C9 C 0.2123(2) 0.1839(2) 0.7484(10) 0.085(2) Uani 1 1 d . . .
H9A H 0.1845 0.1633 0.7897 0.103 Uiso 1 1 calc R . .
C10 C 0.2364(2) 0.1698(2) 0.6651(9) 0.0740(18) Uani 1 1 d . . .
H10A H 0.2241 0.1392 0.6477 0.089 Uiso 1 1 calc R . .
C11 C 0.29337(19) 0.24115(18) 0.6316(6) 0.0510(13) Uani 1 1 d . . .
H11A H 0.3218 0.2609 0.5929 0.061 Uiso 1 1 calc R . .
C12 C 0.1532(2) 0.4098(3) 0.4628(10) 0.0732(18) Uani 1 1 d . . .
O2 O 0.15530(19) 0.3904(2) 0.3488(8) 0.113(2) Uani 1 1 d . . .
O3 O 0.1440(3) 0.3963(2) 0.5957(9) 0.125(2) Uani 1 1 d . . .
C13 C 0.1648(4) 0.4582(4) 0.4345(15) 0.123(4) Uani 1 1 d . . .
F1 F 0.1542(2) 0.4765(2) 0.5470(8) 0.150(2) Uani 1 1 d . . .
F2 F 0.2061(3) 0.4848(2) 0.3984(15) 0.233(5) Uani 1 1 d . . .
F3 F 0.1386(4) 0.4585(4) 0.3153(10) 0.222(5) Uani 1 1 d . . .
O4 O 0.1338(19) 0.063(2) 0.402(7) 0.255(18) Uiso 0.25 1 d PDU A 1
C14 C 0.1737(19) 0.082(2) 0.327(8) 0.157(15) Uiso 0.25 1 d PDU A 1
O4A O 0.122(2) 0.036(2) 0.290(9) 0.245(19) Uiso 0.25 1 d PDU B 2
C14A C 0.142(3) 0.075(2) 0.211(10) 0.218(18) Uiso 0.25 1 d PDU B 2
O4B O 0.1757(18) 0.0802(17) 0.219(7) 0.206(16) Uiso 0.25 1 d PDU C 3
C14B C 0.2093(19) 0.0911(19) 0.324(7) 0.160(16) Uiso 0.25 1 d PDU C 3
O4C O 0.121(2) 0.033(2) 0.156(10) 0.27(2) Uiso 0.25 1 d PDU D 4
C14C C 0.143(3) 0.065(3) 0.048(10) 0.24(3) Uiso 0.25 1 d PDU D 4

loop_
_atom_site_aniso_label
_atom_site_aniso_U_11
_atom_site_aniso_U_22
_atom_site_aniso_U_33
_atom_site_aniso_U_23
_atom_site_aniso_U_13
_atom_site_aniso_U_12
Ag1 0.0540(3) 0.0883(4) 0.0815(4) -0.0159(3) -0.0188(2) 0.0382(3)
O1 0.048(2) 0.073(3) 0.059(3) -0.011(2) -0.0066(18) 0.030(2)
N1 0.050(3) 0.061(3) 0.057(3) -0.008(2) -0.005(2) 0.032(2)
N2 0.070(3) 0.059(3) 0.062(3) 0.008(2) 0.014(2) 0.040(3)
C1 0.056(3) 0.062(4) 0.061(4) 0.000(3) 0.002(3) 0.036(3)
C2 0.075(4) 0.060(4) 0.073(4) -0.017(3) -0.009(3) 0.038(3)
C3 0.057(3) 0.064(4) 0.052(3) -0.012(3) -0.012(3) 0.030(3)
C4 0.046(3) 0.049(3) 0.039(3) 0.000(2) 0.004(2) 0.022(2)
C5 0.046(3) 0.052(3) 0.047(3) -0.009(2) -0.003(2) 0.024(3)
C6 0.056(3) 0.059(3) 0.032(3) -0.003(2) -0.001(2) 0.031(3)
C7 0.056(3) 0.062(3) 0.042(3) 0.005(2) 0.002(2) 0.037(3)
C8 0.071(4) 0.064(4) 0.074(4) 0.016(3) 0.029(3) 0.041(3)
C9 0.073(4) 0.062(4) 0.120(6) 0.025(4) 0.042(4) 0.033(4)
C10 0.079(4) 0.051(3) 0.091(5) 0.014(3) 0.020(4) 0.032(3)
C11 0.055(3) 0.056(3) 0.049(3) 0.005(2) 0.007(2) 0.033(3)
C12 0.063(4) 0.096(5) 0.080(5) -0.012(4) -0.001(3) 0.054(4)
O2 0.103(4) 0.120(5) 0.126(5) -0.052(4) -0.013(4) 0.063(4)
O3 0.156(6) 0.137(5) 0.119(6) 0.021(4) 0.025(5) 0.101(5)
C13 0.124(8) 0.149(9) 0.141(9) 0.022(7) 0.045(7) 0.102(8)
F1 0.195(6) 0.127(5) 0.172(6) -0.019(4) 0.028(5) 0.112(5)
F2 0.162(7) 0.117(5) 0.420(16) 0.041(7) 0.146(8) 0.070(5)
F3 0.341(13) 0.302(12) 0.153(7) 0.071(7) 0.047(8) 0.260(11)

_geom_special_details            
;
All esds (except the esd in the dihedral angle between two l.s. planes)
are estimated using the full covariance matrix. The cell esds are taken
into account individually in the estimation of esds in distances, angles
and torsion angles; correlations between esds in cell parameters are only
used when they are defined by crystal symmetry. An approximate (isotropic)
treatment of cell esds is used for estimating esds involving l.s. planes.
;

loop_
_geom_bond_atom_site_label_1
_geom_bond_atom_site_label_2
_geom_bond_distance
_geom_bond_site_symmetry_2
_geom_bond_publ_flag
Ag1 N1 2.200(4) . ?
Ag1 N2 2.219(4) 12_556 ?
Ag1 Ag1 3.1815(13) 16 ?
O1 C6 1.224(6) . ?
N1 C1 1.340(7) . ?
N1 C5 1.341(7) . ?
N2 C11 1.327(7) . ?
N2 C10 1.331(8) . ?
N2 Ag1 2.219(4) 11_556 ?
C1 C2 1.360(8) . ?
C1 H1A 0.9300 . ?
C2 C3 1.385(8) . ?
C2 H2A 0.9300 . ?
C3 C4 1.391(7) . ?
C3 H3A 0.9300 . ?
C4 C5 1.389(7) . ?
C4 C6 1.487(7) . ?
C5 H5A 0.9300 . ?
C6 C7 1.478(8) . ?
C7 C11 1.372(7) . ?
C7 C8 1.383(8) . ?
C8 C9 1.377(9) . ?
C8 H8A 0.9300 . ?
C9 C10 1.353(10) . ?
C9 H9A 0.9300 . ?
C10 H10A 0.9300 . ?
C11 H11A 0.9300 . ?
C12 O2 1.197(9) . ?
C12 O3 1.198(9) . ?
C12 C13 1.528(14) . ?
C13 F2 1.286(12) . ?
C13 F1 1.291(11) . ?
C13 F3 1.357(14) . ?
O4 C14 1.348(10) . ?
O4A C14A 1.349(10) . ?
O4B C14B 1.352(10) . ?
O4C C14C 1.351(10) . ?

loop_
_geom_angle_atom_site_label_1
_geom_angle_atom_site_label_2
_geom_angle_atom_site_label_3
_geom_angle
_geom_angle_site_symmetry_1
_geom_angle_site_symmetry_3
_geom_angle_publ_flag
N1 Ag1 N2 160.98(19) . 12_556 ?
N1 Ag1 Ag1 103.00(12) . 16 ?
N2 Ag1 Ag1 88.46(13) 12_556 16 ?
C1 N1 C5 117.7(5) . . ?
C1 N1 Ag1 119.3(4) . . ?
C5 N1 Ag1 123.0(3) . . ?
C11 N2 C10 117.4(5) . . ?
C11 N2 Ag1 120.6(4) . 11_556 ?
C10 N2 Ag1 121.7(4) . 11_556 ?
N1 C1 C2 123.5(5) . . ?
N1 C1 H1A 118.3 . . ?
C2 C1 H1A 118.3 . . ?
C1 C2 C3 118.9(5) . . ?
C1 C2 H2A 120.5 . . ?
C3 C2 H2A 120.5 . . ?
C2 C3 C4 119.1(5) . . ?
C2 C3 H3A 120.5 . . ?
C4 C3 H3A 120.5 . . ?
C5 C4 C3 117.9(5) . . ?
C5 C4 C6 122.3(5) . . ?
C3 C4 C6 119.7(5) . . ?
N1 C5 C4 122.9(5) . . ?
N1 C5 H5A 118.5 . . ?
C4 C5 H5A 118.5 . . ?
O1 C6 C7 119.8(5) . . ?
O1 C6 C4 120.3(5) . . ?
C7 C6 C4 120.0(5) . . ?
C11 C7 C8 118.0(5) . . ?
C11 C7 C6 119.3(5) . . ?
C8 C7 C6 122.6(5) . . ?
C9 C8 C7 118.2(6) . . ?
C9 C8 H8A 120.9 . . ?
C7 C8 H8A 120.9 . . ?
C10 C9 C8 119.8(6) . . ?
C10 C9 H9A 120.1 . . ?
C8 C9 H9A 120.1 . . ?
N2 C10 C9 122.9(6) . . ?
N2 C10 H10A 118.6 . . ?
C9 C10 H10A 118.6 . . ?
N2 C11 C7 123.7(5) . . ?
N2 C11 H11A 118.1 . . ?
C7 C11 H11A 118.1 . . ?
O2 C12 O3 128.2(9) . . ?
O2 C12 C13 115.4(9) . . ?
O3 C12 C13 116.5(8) . . ?
F2 C13 F1 108.1(11) . . ?
F2 C13 F3 108.8(12) . . ?
F1 C13 F3 101.1(8) . . ?
F2 C13 C12 114.0(8) . . ?
F1 C13 C12 115.7(9) . . ?
F3 C13 C12 108.1(10) . . ?

loop_
_geom_torsion_atom_site_label_1
_geom_torsion_atom_site_label_2
_geom_torsion_atom_site_label_3
_geom_torsion_atom_site_label_4
_geom_torsion
_geom_torsion_site_symmetry_1
_geom_torsion_site_symmetry_2
_geom_torsion_site_symmetry_3
_geom_torsion_site_symmetry_4
_geom_torsion_publ_flag
N2 Ag1 N1 C1 -127.0(6) 12_556 . . . ?
Ag1 Ag1 N1 C1 107.2(4) 16 . . . ?
N2 Ag1 N1 C5 53.8(7) 12_556 . . . ?
Ag1 Ag1 N1 C5 -72.0(4) 16 . . . ?
C5 N1 C1 C2 1.0(9) . . . . ?
Ag1 N1 C1 C2 -178.3(5) . . . . ?
N1 C1 C2 C3 -0.4(10) . . . . ?
C1 C2 C3 C4 -0.6(9) . . . . ?
C2 C3 C4 C5 0.9(8) . . . . ?
C2 C3 C4 C6 177.4(5) . . . . ?
C1 N1 C5 C4 -0.5(8) . . . . ?
Ag1 N1 C5 C4 178.7(4) . . . . ?
C3 C4 C5 N1 -0.4(8) . . . . ?
C6 C4 C5 N1 -176.8(5) . . . . ?
C5 C4 C6 O1 146.3(5) . . . . ?
C3 C4 C6 O1 -30.0(7) . . . . ?
C5 C4 C6 C7 -35.4(7) . . . . ?
C3 C4 C6 C7 148.3(5) . . . . ?
O1 C6 C7 C11 -32.3(7) . . . . ?
C4 C6 C7 C11 149.4(5) . . . . ?
O1 C6 C7 C8 143.0(6) . . . . ?
C4 C6 C7 C8 -35.3(7) . . . . ?
C11 C7 C8 C9 -0.5(9) . . . . ?
C6 C7 C8 C9 -175.9(6) . . . . ?
C7 C8 C9 C10 -1.2(11) . . . . ?
C11 N2 C10 C9 -0.9(10) . . . . ?
Ag1 N2 C10 C9 172.9(6) 11_556 . . . ?
C8 C9 C10 N2 2.0(12) . . . . ?
C10 N2 C11 C7 -1.0(9) . . . . ?
Ag1 N2 C11 C7 -174.9(4) 11_556 . . . ?
C8 C7 C11 N2 1.7(9) . . . . ?
C6 C7 C11 N2 177.2(5) . . . . ?
O2 C12 C13 F2 -67.0(14) . . . . ?
O3 C12 C13 F2 111.7(12) . . . . ?
O2 C12 C13 F1 166.7(9) . . . . ?
O3 C12 C13 F1 -14.7(13) . . . . ?
O2 C12 C13 F3 54.1(10) . . . . ?
O3 C12 C13 F3 -127.2(9) . . . . ?

_diffrn_measured_fraction_theta_max 0.999
_diffrn_reflns_theta_full        25.01
_diffrn_measured_fraction_theta_full 0.999
_refine_diff_density_max         0.774
_refine_diff_density_min         -0.374
_refine_diff_density_rms         0.106
