####################################################################### 
# 
# This file contains crystal structure data downloaded from the 
# Cambridge Structural Database (CSD) hosted by the Cambridge 
# Crystallographic Data Centre (CCDC).
# 
# Full information about CCDC data access policies and citation 
# guidelines are available at http://www.ccdc.cam.ac.uk/access/V1 
# 
# Audit and citation data items may have been added by the CCDC. 
# Please retain this information to preserve the provenance of 
# this file and to allow appropriate attribution of the data. 
# 
#######################################################################

data_ch16a
_audit_block_doi                 10.5517/ccrpj53
_database_code_depnum_ccdc_archive 'CCDC 705875'
loop_
_citation_id
_citation_doi
_citation_year
1 10.1002/chem.200900010 2009
_audit_update_record             
;
2008-10-19 deposited with the CCDC.	2024-07-10 downloaded from the CCDC.
;

_audit_creation_method           SHELXL-97
_chemical_name_systematic        
;
?
;
_chemical_name_common            ?
_chemical_melting_point          ?
_chemical_formula_moiety         ?
_chemical_formula_sum            'C15.33 H12 Ag F5 N2 O3.67'
_chemical_formula_weight         485.81

loop_
_atom_type_symbol
_atom_type_description
_atom_type_scat_dispersion_real
_atom_type_scat_dispersion_imag
_atom_type_scat_source
C C 0.0033 0.0016 'International Tables Vol C Tables 4.2.6.8 and 6.1.1.4'
H H 0.0000 0.0000 'International Tables Vol C Tables 4.2.6.8 and 6.1.1.4'
N N 0.0061 0.0033 'International Tables Vol C Tables 4.2.6.8 and 6.1.1.4'
O O 0.0106 0.0060 'International Tables Vol C Tables 4.2.6.8 and 6.1.1.4'
F F 0.0171 0.0103 'International Tables Vol C Tables 4.2.6.8 and 6.1.1.4'
Ag Ag -0.8971 1.1015 'International Tables Vol C Tables 4.2.6.8 and 6.1.1.4'

_symmetry_cell_setting           Rhombohedral
_symmetry_space_group_name_H-M   R-3

loop_
_symmetry_equiv_pos_as_xyz
'x, y, z'
'-y, x-y, z'
'-x+y, -x, z'
'x+2/3, y+1/3, z+1/3'
'-y+2/3, x-y+1/3, z+1/3'
'-x+y+2/3, -x+1/3, z+1/3'
'x+1/3, y+2/3, z+2/3'
'-y+1/3, x-y+2/3, z+2/3'
'-x+y+1/3, -x+2/3, z+2/3'
'-x, -y, -z'
'y, -x+y, -z'
'x-y, x, -z'
'-x+2/3, -y+1/3, -z+1/3'
'y+2/3, -x+y+1/3, -z+1/3'
'x-y+2/3, x+1/3, -z+1/3'
'-x+1/3, -y+2/3, -z+2/3'
'y+1/3, -x+y+2/3, -z+2/3'
'x-y+1/3, x+2/3, -z+2/3'

_cell_length_a                   34.5619(6)
_cell_length_b                   34.5619(6)
_cell_length_c                   8.3343(3)
_cell_angle_alpha                90.00
_cell_angle_beta                 90.00
_cell_angle_gamma                120.00
_cell_volume                     8621.7(4)
_cell_formula_units_Z            18
_cell_measurement_temperature    123(2)
_cell_measurement_reflns_used    ?
_cell_measurement_theta_min      ?
_cell_measurement_theta_max      ?

_exptl_crystal_description       Block
_exptl_crystal_colour            Colorless
_exptl_crystal_size_max          0.20
_exptl_crystal_size_mid          0.18
_exptl_crystal_size_min          0.16
_exptl_crystal_density_meas      ?
_exptl_crystal_density_diffrn    1.684
_exptl_crystal_density_method    'not measured'
_exptl_crystal_F_000             4308
_exptl_absorpt_coefficient_mu    1.119
_exptl_absorpt_correction_type   MULTI-SCAN
_exptl_absorpt_correction_T_min  0.813302
_exptl_absorpt_correction_T_max  1.000000
_exptl_absorpt_process_details   SADABS

_exptl_special_details           
;
?
;

_diffrn_ambient_temperature      123(2)
_diffrn_radiation_wavelength     0.71073
_diffrn_radiation_type           MoK\a
_diffrn_radiation_source         'fine-focus sealed tube'
_diffrn_radiation_monochromator  graphite
_diffrn_measurement_device_type  'CCD area detector'
_diffrn_measurement_method       'phi and omega scans'
_diffrn_detector_area_resol_mean ?
_diffrn_standards_number         ?
_diffrn_standards_interval_count ?
_diffrn_standards_interval_time  ?
_diffrn_standards_decay_%        ?
_diffrn_reflns_number            32928
_diffrn_reflns_av_R_equivalents  0.0197
_diffrn_reflns_av_sigmaI/netI    0.0089
_diffrn_reflns_limit_h_min       -41
_diffrn_reflns_limit_h_max       41
_diffrn_reflns_limit_k_min       -41
_diffrn_reflns_limit_k_max       41
_diffrn_reflns_limit_l_min       -9
_diffrn_reflns_limit_l_max       9
_diffrn_reflns_theta_min         2.04
_diffrn_reflns_theta_max         25.01
_reflns_number_total             3355
_reflns_number_gt                3181
_reflns_threshold_expression     >2sigma(I)

_computing_data_collection       'Bruker SMART'
_computing_cell_refinement       'Bruker SMART'
_computing_data_reduction        'Bruker SAINT'
_computing_structure_solution    'SHELXS-97 (Sheldrick, 1990)'
_computing_structure_refinement  'SHELXL-97 (Sheldrick, 1997)'
_computing_molecular_graphics    'Bruker SHELXTL'
_computing_publication_material  'Bruker SHELXTL'

_refine_special_details          
;
Refinement of F^2^ against ALL reflections. The weighted R-factor wR and
goodness of fit S are based on F^2^, conventional R-factors R are based
on F, with F set to zero for negative F^2^. The threshold expression of
F^2^ > 2sigma(F^2^) is used only for calculating R-factors(gt) etc. and is
not relevant to the choice of reflections for refinement. R-factors based
on F^2^ are statistically about twice as large as those based on F, and R-
factors based on ALL data will be even larger.
;

_refine_ls_structure_factor_coef Fsqd
_refine_ls_matrix_type           full
_refine_ls_weighting_scheme      calc
_refine_ls_weighting_details     
'calc w=1/[\s^2^(Fo^2^)+(0.1360P)^2^+258.1242P] where P=(Fo^2^+2Fc^2^)/3'
_atom_sites_solution_primary     direct
_atom_sites_solution_secondary   difmap
_atom_sites_solution_hydrogens   geom
_refine_ls_hydrogen_treatment    constr
_refine_ls_extinction_method     none
_refine_ls_extinction_coef       ?
_refine_ls_number_reflns         3355
_refine_ls_number_parameters     307
_refine_ls_number_restraints     238
_refine_ls_R_factor_all          0.0766
_refine_ls_R_factor_gt           0.0738
_refine_ls_wR_factor_ref         0.2108
_refine_ls_wR_factor_gt          0.2066
_refine_ls_goodness_of_fit_ref   1.024
_refine_ls_restrained_S_all      1.046
_refine_ls_shift/su_max          0.002
_refine_ls_shift/su_mean         0.000

loop_
_atom_site_label
_atom_site_type_symbol
_atom_site_fract_x
_atom_site_fract_y
_atom_site_fract_z
_atom_site_U_iso_or_equiv
_atom_site_adp_type
_atom_site_occupancy
_atom_site_symmetry_multiplicity
_atom_site_calc_flag
_atom_site_refinement_flags
_atom_site_disorder_assembly
_atom_site_disorder_group
Ag1 Ag 0.807378(16) 0.150602(17) 0.83647(7) 0.0288(3) Uani 1 1 d . . .
O1 O 1.00200(14) 0.32394(15) 1.0196(5) 0.0213(9) Uani 1 1 d . . .
N1 N 0.86756(19) 0.19000(19) 0.9814(7) 0.0231(12) Uani 1 1 d . . .
N2 N 0.95121(19) 0.40832(19) 0.9396(7) 0.0239(12) Uani 1 1 d . . .
C1 C 0.8927(2) 0.2350(2) 0.9694(8) 0.0207(13) Uani 1 1 d . . .
H1A H 0.8830 0.2505 0.9012 0.025 Uiso 1 1 calc R . .
C2 C 0.9322(2) 0.2589(2) 1.0541(7) 0.0195(12) Uani 1 1 d . . .
C3 C 0.9460(2) 0.2367(2) 1.1577(8) 0.0245(14) Uani 1 1 d . . .
H3A H 0.9733 0.2525 1.2151 0.029 Uiso 1 1 calc R . .
C4 C 0.9189(2) 0.1909(2) 1.1751(8) 0.0273(14) Uani 1 1 d . . .
H4A H 0.9267 0.1748 1.2480 0.033 Uiso 1 1 calc R . .
C5 C 0.8804(2) 0.1691(2) 1.0844(8) 0.0245(14) Uani 1 1 d . . .
H5A H 0.8621 0.1376 1.0960 0.029 Uiso 1 1 calc R . .
C6 C 0.9620(2) 0.3085(2) 1.0307(7) 0.0194(13) Uani 1 1 d . . .
C7 C 0.9650(2) 0.3784(2) 0.9443(7) 0.0202(13) Uani 1 1 d . . .
H7A H 0.9921 0.3854 0.8912 0.024 Uiso 1 1 calc R . .
C8 C 0.9418(2) 0.3376(2) 1.0230(7) 0.0194(12) Uani 1 1 d . . .
C9 C 0.9021(2) 0.3272(2) 1.1009(8) 0.0268(14) Uani 1 1 d . . .
H9A H 0.8854 0.2997 1.1563 0.032 Uiso 1 1 calc R . .
C10 C 0.8876(3) 0.3573(3) 1.0964(10) 0.0358(17) Uani 1 1 d . . .
H10A H 0.8607 0.3510 1.1493 0.043 Uiso 1 1 calc R . .
C11 C 0.9121(2) 0.3971(2) 1.0148(9) 0.0308(16) Uani 1 1 d . . .
H11A H 0.9011 0.4174 1.0110 0.037 Uiso 1 1 calc R . .
C12 C 0.8238(2) 0.0737(2) 0.7821(10) 0.0322(16) Uani 1 1 d . A .
O2 O 0.8066(2) 0.0752(2) 0.9110(7) 0.0465(15) Uani 1 1 d . . .
O3 O 0.8334(2) 0.0987(2) 0.6668(7) 0.0494(16) Uani 1 1 d . . .
C13 C 0.8428(3) 0.0422(3) 0.7960(13) 0.139(10) Uani 1 1 d D . .
F1 F 0.8180(2) 0.00600(19) 0.8788(10) 0.084(2) Uani 1 1 d DU A .
F2 F 0.8425(5) 0.0257(4) 0.6291(14) 0.162(2) Uani 0.50 1 d PU A 1
C14 C 0.8917(4) 0.0593(4) 0.827(2) 0.188(2) Uani 0.50 1 d PDU A 1
F4 F 0.9115(6) 0.0777(6) 0.687(2) 0.181(3) Uani 0.50 1 d PDU A 1
F5 F 0.8964(7) 0.0242(6) 0.873(3) 0.182(3) Uani 0.50 1 d PDU A 1
F3 F 0.9057(7) 0.0902(7) 0.945(3) 0.187(3) Uani 0.50 1 d PDU A 1
O4 O 0.8711(4) 0.0949(4) 0.3558(17) 0.024(3) Uani 0.33 1 d PDU B 1
H4B H 0.8626 0.0926 0.4516 0.036 Uiso 0.33 1 calc PR B 1
C15 C 0.8942(8) 0.0722(8) 0.335(3) 0.042(5) Uani 0.33 1 d PDU B 1
H15A H 0.9261 0.0939 0.3564 0.050 Uiso 0.33 1 calc PR B 1
H15B H 0.8919 0.0642 0.2203 0.050 Uiso 0.33 1 calc PR B 1
C16 C 0.883(2) 0.0302(13) 0.430(8) 0.17(2) Uani 0.33 1 d PDU B 1
H16A H 0.9025 0.0189 0.3968 0.254 Uiso 0.33 1 calc PR B 1
H16B H 0.8516 0.0074 0.4094 0.254 Uiso 0.33 1 calc PR B 1
H16C H 0.8868 0.0372 0.5448 0.254 Uiso 0.33 1 calc PR B 1
F2' F 0.8917(4) 0.0593(4) 0.827(2) 0.188(2) Uani 0.50 1 d PU A 2
C14' C 0.8425(5) 0.0257(4) 0.6291(14) 0.162(2) Uani 0.50 1 d PDU A 2
F3' F 0.7968(6) 0.0079(6) 0.610(2) 0.157(3) Uani 0.50 1 d PDU A 2
F4' F 0.8652(8) 0.0604(6) 0.519(2) 0.164(3) Uani 0.50 1 d PDU A 2
F5' F 0.8600(8) -0.0009(7) 0.625(3) 0.161(3) Uani 0.50 1 d PDU A 2
O4' O 0.8712(9) 0.0640(8) 1.074(4) 0.085(8) Uani 0.33 1 d PDU C 2
H4'A H 0.8617 0.0393 1.0282 0.127 Uiso 0.33 1 calc PR C 2
C15' C 0.9086(9) 0.0738(10) 1.162(3) 0.067(8) Uani 0.33 1 d PDU C 2
H15C H 0.8996 0.0692 1.2761 0.080 Uiso 0.33 1 calc PR C 2
H15D H 0.9297 0.1061 1.1482 0.080 Uiso 0.33 1 calc PR C 2
C16' C 0.9351(18) 0.050(2) 1.134(8) 0.15(2) Uani 0.33 1 d PDU C 2
H16D H 0.9622 0.0640 1.1997 0.232 Uiso 0.33 1 calc PR C 2
H16E H 0.9434 0.0525 1.0202 0.232 Uiso 0.33 1 calc PR C 2
H16F H 0.9168 0.0185 1.1630 0.232 Uiso 0.33 1 calc PR C 2

loop_
_atom_site_aniso_label
_atom_site_aniso_U_11
_atom_site_aniso_U_22
_atom_site_aniso_U_33
_atom_site_aniso_U_23
_atom_site_aniso_U_13
_atom_site_aniso_U_12
Ag1 0.0203(3) 0.0244(4) 0.0337(4) 0.00102(19) -0.00559(19) 0.0052(2)
O1 0.018(2) 0.024(2) 0.019(2) 0.0017(17) -0.0002(17) 0.0087(19)
N1 0.018(3) 0.022(3) 0.025(3) 0.003(2) 0.001(2) 0.007(2)
N2 0.030(3) 0.024(3) 0.023(3) 0.001(2) 0.005(2) 0.017(2)
C1 0.022(3) 0.022(3) 0.020(3) 0.005(2) 0.003(2) 0.012(3)
C2 0.021(3) 0.020(3) 0.017(3) 0.002(2) 0.003(2) 0.010(3)
C3 0.021(3) 0.026(3) 0.026(3) -0.002(3) -0.005(3) 0.012(3)
C4 0.030(4) 0.025(3) 0.027(3) 0.005(3) -0.001(3) 0.014(3)
C5 0.021(3) 0.020(3) 0.030(3) 0.004(3) 0.007(3) 0.008(3)
C6 0.024(3) 0.021(3) 0.012(3) -0.001(2) -0.001(2) 0.011(3)
C7 0.019(3) 0.020(3) 0.019(3) -0.001(2) 0.002(2) 0.008(3)
C8 0.022(3) 0.020(3) 0.015(3) 0.000(2) -0.001(2) 0.010(3)
C9 0.029(4) 0.024(3) 0.026(3) 0.005(3) 0.007(3) 0.013(3)
C10 0.032(4) 0.036(4) 0.045(4) 0.008(3) 0.015(3) 0.021(3)
C11 0.031(4) 0.027(4) 0.039(4) 0.003(3) 0.008(3) 0.018(3)
C12 0.020(3) 0.024(3) 0.043(4) 0.003(3) 0.001(3) 0.004(3)
O2 0.051(4) 0.038(3) 0.041(3) 0.006(3) 0.008(3) 0.015(3)
O3 0.047(4) 0.048(4) 0.034(3) 0.012(3) -0.001(3) 0.009(3)
C13 0.147(16) 0.075(10) 0.23(2) 0.070(12) 0.133(17) 0.082(11)
F1 0.083(5) 0.038(3) 0.129(6) 0.007(4) -0.031(4) 0.030(3)
F2 0.267(4) 0.153(3) 0.142(4) -0.011(3) 0.028(4) 0.163(3)
C14 0.128(3) 0.122(3) 0.357(4) -0.029(4) -0.065(4) 0.094(3)
F4 0.124(4) 0.116(4) 0.354(5) -0.027(5) -0.066(5) 0.098(4)
F5 0.123(4) 0.118(4) 0.356(5) -0.025(5) -0.066(5) 0.099(4)
F3 0.127(4) 0.122(4) 0.356(5) -0.030(5) -0.067(5) 0.094(4)
O4 0.026(7) 0.020(6) 0.026(7) 0.013(5) 0.008(5) 0.012(6)
C15 0.036(12) 0.055(14) 0.039(12) 0.004(10) 0.003(10) 0.027(11)
C16 0.12(3) 0.15(3) 0.16(4) -0.04(3) -0.03(3) 0.01(3)
F2' 0.128(3) 0.122(3) 0.357(4) -0.029(4) -0.065(4) 0.094(3)
C14' 0.267(4) 0.153(3) 0.142(4) -0.011(3) 0.028(4) 0.163(3)
F3' 0.263(5) 0.150(4) 0.138(5) -0.012(4) 0.030(5) 0.164(4)
F4' 0.267(5) 0.154(4) 0.143(5) -0.010(4) 0.028(5) 0.160(4)
F5' 0.267(5) 0.152(4) 0.143(5) -0.012(4) 0.028(5) 0.165(4)
O4' 0.085(16) 0.045(12) 0.102(18) -0.006(12) -0.056(14) 0.015(11)
C15' 0.10(2) 0.040(14) 0.055(16) 0.010(12) 0.018(16) 0.031(14)
C16' 0.15(4) 0.12(3) 0.14(3) 0.00(3) 0.03(3) 0.03(3)

_geom_special_details            
;
All esds (except the esd in the dihedral angle between two l.s. planes)
are estimated using the full covariance matrix. The cell esds are taken
into account individually in the estimation of esds in distances, angles
and torsion angles; correlations between esds in cell parameters are only
used when they are defined by crystal symmetry. An approximate (isotropic)
treatment of cell esds is used for estimating esds involving l.s. planes.
;

loop_
_geom_bond_atom_site_label_1
_geom_bond_atom_site_label_2
_geom_bond_distance
_geom_bond_site_symmetry_2
_geom_bond_publ_flag
Ag1 N2 2.178(6) 17_556 ?
Ag1 N1 2.193(6) . ?
Ag1 Ag1 3.2358(11) 13_656 ?
O1 C6 1.211(8) . ?
N1 C5 1.334(9) . ?
N1 C1 1.353(9) . ?
N2 C7 1.341(9) . ?
N2 C11 1.359(9) . ?
N2 Ag1 2.178(6) 18_546 ?
C1 C2 1.385(9) . ?
C2 C3 1.389(9) . ?
C2 C6 1.507(9) . ?
C3 C4 1.387(10) . ?
C4 C5 1.382(10) . ?
C6 C8 1.483(9) . ?
C7 C8 1.389(9) . ?
C8 C9 1.394(9) . ?
C9 C10 1.363(10) . ?
C10 C11 1.379(11) . ?
C12 O3 1.222(10) . ?
C12 O2 1.242(10) . ?
C12 C13 1.530(13) . ?
C13 F1 1.305(9) . ?
C13 F2 1.502(9) . ?
C13 C14 1.508(9) . ?
C14 F4 1.339(10) . ?
C14 F3 1.349(10) . ?
C14 F5 1.360(10) . ?
O4 C15 1.382(10) . ?
C15 C16 1.521(11) . ?
O4' C15' 1.371(10) . ?
C15' C16' 1.520(11) . ?

loop_
_geom_angle_atom_site_label_1
_geom_angle_atom_site_label_2
_geom_angle_atom_site_label_3
_geom_angle
_geom_angle_site_symmetry_1
_geom_angle_site_symmetry_3
_geom_angle_publ_flag
N2 Ag1 N1 163.4(2) 17_556 . ?
N2 Ag1 Ag1 93.51(15) 17_556 13_656 ?
N1 Ag1 Ag1 94.46(15) . 13_656 ?
C5 N1 C1 118.4(6) . . ?
C5 N1 Ag1 119.1(5) . . ?
C1 N1 Ag1 122.5(4) . . ?
C7 N2 C11 116.9(6) . . ?
C7 N2 Ag1 123.0(4) . 18_546 ?
C11 N2 Ag1 119.9(4) . 18_546 ?
N1 C1 C2 121.5(6) . . ?
C1 C2 C3 119.7(6) . . ?
C1 C2 C6 121.5(6) . . ?
C3 C2 C6 118.8(6) . . ?
C4 C3 C2 118.3(6) . . ?
C5 C4 C3 118.8(6) . . ?
N1 C5 C4 123.2(6) . . ?
O1 C6 C8 121.3(6) . . ?
O1 C6 C2 119.4(6) . . ?
C8 C6 C2 119.3(5) . . ?
N2 C7 C8 123.3(6) . . ?
C7 C8 C9 118.4(6) . . ?
C7 C8 C6 118.6(6) . . ?
C9 C8 C6 122.8(6) . . ?
C10 C9 C8 118.8(6) . . ?
C9 C10 C11 119.8(7) . . ?
N2 C11 C10 122.7(7) . . ?
O3 C12 O2 128.2(8) . . ?
O3 C12 C13 120.0(8) . . ?
O2 C12 C13 110.4(7) . . ?
F1 C13 F2 104.4(9) . . ?
F1 C13 C14 110.8(9) . . ?
F2 C13 C14 95.8(10) . . ?
F1 C13 C12 114.4(8) . . ?
F2 C13 C12 106.0(8) . . ?
C14 C13 C12 121.9(8) . . ?
F4 C14 F3 111.2(12) . . ?
F4 C14 F5 114.0(12) . . ?
F3 C14 F5 110.2(11) . . ?
F4 C14 C13 104.2(12) . . ?
F3 C14 C13 108.9(11) . . ?
F5 C14 C13 108.0(11) . . ?
O4 C15 C16 122(3) . . ?
O4' C15' C16' 122(3) . . ?

loop_
_geom_torsion_atom_site_label_1
_geom_torsion_atom_site_label_2
_geom_torsion_atom_site_label_3
_geom_torsion_atom_site_label_4
_geom_torsion
_geom_torsion_site_symmetry_1
_geom_torsion_site_symmetry_2
_geom_torsion_site_symmetry_3
_geom_torsion_site_symmetry_4
_geom_torsion_publ_flag
N2 Ag1 N1 C5 121.6(7) 17_556 . . . ?
Ag1 Ag1 N1 C5 -119.9(5) 13_656 . . . ?
N2 Ag1 N1 C1 -59.1(10) 17_556 . . . ?
Ag1 Ag1 N1 C1 59.4(5) 13_656 . . . ?
C5 N1 C1 C2 3.7(9) . . . . ?
Ag1 N1 C1 C2 -175.6(5) . . . . ?
N1 C1 C2 C3 -1.8(10) . . . . ?
N1 C1 C2 C6 175.0(6) . . . . ?
C1 C2 C3 C4 -1.3(10) . . . . ?
C6 C2 C3 C4 -178.3(6) . . . . ?
C2 C3 C4 C5 2.5(10) . . . . ?
C1 N1 C5 C4 -2.5(10) . . . . ?
Ag1 N1 C5 C4 176.9(5) . . . . ?
C3 C4 C5 N1 -0.7(11) . . . . ?
C1 C2 C6 O1 -136.0(6) . . . . ?
C3 C2 C6 O1 40.8(9) . . . . ?
C1 C2 C6 C8 44.5(8) . . . . ?
C3 C2 C6 C8 -138.7(6) . . . . ?
C11 N2 C7 C8 -0.9(10) . . . . ?
Ag1 N2 C7 C8 175.6(5) 18_546 . . . ?
N2 C7 C8 C9 0.0(10) . . . . ?
N2 C7 C8 C6 -175.5(6) . . . . ?
O1 C6 C8 C7 24.3(9) . . . . ?
C2 C6 C8 C7 -156.2(6) . . . . ?
O1 C6 C8 C9 -151.0(6) . . . . ?
C2 C6 C8 C9 28.5(9) . . . . ?
C7 C8 C9 C10 0.2(10) . . . . ?
C6 C8 C9 C10 175.5(7) . . . . ?
C8 C9 C10 C11 0.3(12) . . . . ?
C7 N2 C11 C10 1.5(11) . . . . ?
Ag1 N2 C11 C10 -175.1(6) 18_546 . . . ?
C9 C10 C11 N2 -1.3(13) . . . . ?
O3 C12 C13 F1 -153.2(8) . . . . ?
O2 C12 C13 F1 39.4(11) . . . . ?
O3 C12 C13 F2 -38.7(11) . . . . ?
O2 C12 C13 F2 153.9(8) . . . . ?
O3 C12 C13 C14 68.9(13) . . . . ?
O2 C12 C13 C14 -98.5(11) . . . . ?
F1 C13 C14 F4 147.2(12) . . . . ?
F2 C13 C14 F4 39.4(12) . . . . ?
C12 C13 C14 F4 -73.5(13) . . . . ?
F1 C13 C14 F3 -94.0(14) . . . . ?
F2 C13 C14 F3 158.2(12) . . . . ?
C12 C13 C14 F3 45.3(15) . . . . ?
F1 C13 C14 F5 25.7(14) . . . . ?
F2 C13 C14 F5 -82.1(13) . . . . ?
C12 C13 C14 F5 164.9(12) . . . . ?

_diffrn_measured_fraction_theta_max 0.997
_diffrn_reflns_theta_full        25.01
_diffrn_measured_fraction_theta_full 0.997
_refine_diff_density_max         3.602
_refine_diff_density_min         -2.477
_refine_diff_density_rms         0.198
