####################################################################### 
# 
# This file contains crystal structure data downloaded from the 
# Cambridge Structural Database (CSD) hosted by the Cambridge 
# Crystallographic Data Centre (CCDC).
# 
# Full information about CCDC data access policies and citation 
# guidelines are available at http://www.ccdc.cam.ac.uk/access/V1 
# 
# Audit and citation data items may have been added by the CCDC. 
# Please retain this information to preserve the provenance of 
# this file and to allow appropriate attribution of the data. 
# 
#######################################################################

data_12sb007_0m_sq_d
_audit_block_doi                 10.5517/cc1j7700
_database_code_depnum_ccdc_archive 'CCDC 1407121'
loop_
_citation_id
_citation_doi
_citation_year
1 10.1039/C5TA05210F 2015
_audit_update_record             
;
2015-06-16 deposited with the CCDC.	2024-07-10 downloaded from the CCDC.
;

_audit_creation_method           SHELXL-97
_chemical_name_systematic        
; 
 ? 
;
_chemical_name_common            ?
_chemical_melting_point          ?
_chemical_formula_moiety         ?
_chemical_formula_sum            'C68 H64 Co2 N8 O14'
_chemical_formula_weight         1335.13

loop_
_atom_type_symbol
_atom_type_description
_atom_type_scat_dispersion_real
_atom_type_scat_dispersion_imag
_atom_type_scat_source
C C 0.0033 0.0016 'International Tables Vol C Tables 4.2.6.8 and 6.1.1.4'
H H 0.0000 0.0000 'International Tables Vol C Tables 4.2.6.8 and 6.1.1.4'
N N 0.0061 0.0033 'International Tables Vol C Tables 4.2.6.8 and 6.1.1.4'
O O 0.0106 0.0060 'International Tables Vol C Tables 4.2.6.8 and 6.1.1.4'
Co Co 0.3494 0.9721 'International Tables Vol C Tables 4.2.6.8 and 6.1.1.4'

_symmetry_cell_setting           Monoclinic
_symmetry_space_group_name_H-M   C2/c

loop_
_symmetry_equiv_pos_as_xyz
'x, y, z'
'-x, y, -z+1/2'
'x+1/2, y+1/2, z'
'-x+1/2, y+1/2, -z+1/2'
'-x, -y, -z'
'x, -y, z-1/2'
'-x+1/2, -y+1/2, -z'
'x+1/2, -y+1/2, z-1/2'

_cell_length_a                   38.226(7)
_cell_length_b                   13.456(2)
_cell_length_c                   33.945(7)
_cell_angle_alpha                90.00
_cell_angle_beta                 110.132(11)
_cell_angle_gamma                90.00
_cell_volume                     16394(5)
_cell_formula_units_Z            8
_cell_measurement_temperature    120(2)
_cell_measurement_reflns_used    14708
_cell_measurement_theta_min      2.202
_cell_measurement_theta_max      24.84

_exptl_crystal_description       Block
_exptl_crystal_colour            Purple
_exptl_crystal_size_max          0.26
_exptl_crystal_size_mid          0.22
_exptl_crystal_size_min          0.20
_exptl_crystal_density_meas      'not measured'
_exptl_crystal_density_diffrn    1.082
_exptl_crystal_density_method    'not measured'
_exptl_crystal_F_000             5552
_exptl_absorpt_coefficient_mu    0.461
_exptl_absorpt_correction_type   multi-scan
_exptl_absorpt_correction_T_min  0.8888
_exptl_absorpt_correction_T_max  1.0000
_exptl_absorpt_process_details   
'SADABS v.2.03 (Bruker, 2001),wR2(int)= 0.0923 before correction'


_exptl_special_details           
; 
 ? 
;

_diffrn_ambient_temperature      120(2)
_diffrn_radiation_wavelength     0.71073
_diffrn_radiation_type           MoK\a
_diffrn_radiation_source         'fine-focus sealed tube'
_diffrn_radiation_monochromator  graphite
_diffrn_measurement_device_type  'Bruker APEX-2 CCD area detector'
_diffrn_measurement_method       '/w scans'
_diffrn_detector_area_resol_mean 8
_diffrn_reflns_number            93123
_diffrn_reflns_av_R_equivalents  0.2029
_diffrn_reflns_av_sigmaI/netI    0.1938
_diffrn_reflns_limit_h_min       -44
_diffrn_reflns_limit_h_max       44
_diffrn_reflns_limit_k_min       -13
_diffrn_reflns_limit_k_max       15
_diffrn_reflns_limit_l_min       -39
_diffrn_reflns_limit_l_max       39
_diffrn_reflns_theta_min         1.13
_diffrn_reflns_theta_max         24.84
_reflns_number_total             14029
_reflns_number_gt                5685
_reflns_threshold_expression     I>2\s(I)

_computing_data_collection       'Bruker APEX-2'
_computing_cell_refinement       'Bruker APEX-2'
_computing_data_reduction        'Bruker SHELXTL'
_computing_structure_solution    'SHELXS-97 (Sheldrick, 2008)'
_computing_structure_refinement  'SHELXL-97 (Sheldrick, 2008)'
_computing_molecular_graphics    'Bruker SHELXTL'
_computing_publication_material  'Bruker SHELXTL'

_refine_special_details          
; 
 Refinement of F^2^ against ALL reflections.  The weighted R-factor wR and 
 goodness of fit S are based on F^2^, conventional R-factors R are based 
 on F, with F set to zero for negative F^2^. The threshold expression of 
 F^2^ > 2sigma(F^2^) is used only for calculating R-factors(gt) etc. and is 
 not relevant to the choice of reflections for refinement.  R-factors based 
 on F^2^ are statistically about twice as large as those based on F, and R- 
 factors based on ALL data will be even larger. 
;

_refine_ls_structure_factor_coef Fsqd
_refine_ls_matrix_type           full
_refine_ls_weighting_scheme      calc
_refine_ls_weighting_details     
'calc w=1/[\s^2^(Fo^2^)+(0.0877P)^2^+0.0000P] where P=(Fo^2^+2Fc^2^)/3'
_atom_sites_solution_primary     direct
_atom_sites_solution_secondary   difmap
_atom_sites_solution_hydrogens   geom
_refine_ls_hydrogen_treatment    constr
_refine_ls_extinction_method     none
_refine_ls_extinction_coef       ?
_refine_ls_number_reflns         14029
_refine_ls_number_parameters     824
_refine_ls_number_restraints     0
_refine_ls_R_factor_all          0.1830
_refine_ls_R_factor_gt           0.0803
_refine_ls_wR_factor_ref         0.2274
_refine_ls_wR_factor_gt          0.1887
_refine_ls_goodness_of_fit_ref   0.893
_refine_ls_restrained_S_all      0.893
_refine_ls_shift/su_max          0.002
_refine_ls_shift/su_mean         0.000

loop_
_atom_site_label
_atom_site_type_symbol
_atom_site_fract_x
_atom_site_fract_y
_atom_site_fract_z
_atom_site_U_iso_or_equiv
_atom_site_adp_type
_atom_site_occupancy
_atom_site_symmetry_multiplicity
_atom_site_calc_flag
_atom_site_refinement_flags
_atom_site_disorder_assembly
_atom_site_disorder_group
Co1 Co 0.00961(2) 0.31545(6) 0.04214(3) 0.0548(3) Uani 1 1 d . . .
Co2 Co 0.28975(2) 0.38202(6) 0.46733(3) 0.0514(3) Uani 1 1 d . . .
O5B O 0.26213(12) 0.3689(3) 0.40031(12) 0.0634(12) Uani 1 1 d . . .
O6C O 0.21829(11) 0.3357(3) -0.01576(14) 0.0635(12) Uani 1 1 d . . .
O3C O 0.11850(11) 0.2859(3) 0.04194(14) 0.0655(12) Uani 1 1 d . . .
H3CA H 0.0982 0.2988 0.0440 0.098 Uiso 1 1 calc R . .
O6B O 0.22392(13) 0.3805(4) 0.32096(13) 0.0905(16) Uani 1 1 d . . .
H6BA H 0.2405 0.3934 0.3432 0.136 Uiso 1 1 calc R . .
O1B O 0.02423(13) 0.3761(4) 0.09889(14) 0.0763(14) Uani 1 1 d . . .
O1C O 0.04867(10) 0.3215(3) 0.01738(14) 0.0605(12) Uani 1 1 d . . .
N2A N -0.04400(14) 0.4194(4) -0.03132(18) 0.0616(15) Uani 1 1 d . . .
H2AA H -0.0291 0.4132 -0.0452 0.074 Uiso 1 1 calc R . .
O2C O 0.01632(12) 0.3453(4) -0.05005(15) 0.0791(14) Uani 1 1 d . . .
O2B O 0.06344(13) 0.2583(4) 0.10729(14) 0.0871(16) Uani 1 1 d . . .
O4B O 0.23739(10) 0.2982(3) 0.44170(13) 0.0599(11) Uani 1 1 d . . .
C21B C 0.20679(17) 0.2742(5) 0.36923(18) 0.0532(16) Uani 1 1 d . . .
N1A N -0.03429(13) 0.3983(4) 0.00986(17) 0.0550(14) Uani 1 1 d . . .
O3B O 0.12198(12) 0.2473(4) 0.17259(13) 0.0781(14) Uani 1 1 d . . .
H3BA H 0.1073 0.2328 0.1493 0.117 Uiso 1 1 calc R . .
C1A C -0.06472(17) 0.4190(5) 0.0196(2) 0.0573(17) Uani 1 1 d . . .
C12C C 0.18163(16) 0.2321(5) 0.0282(2) 0.0600(18) Uani 1 1 d . . .
H12A H 0.1974 0.1889 0.0187 0.072 Uiso 1 1 calc R . .
H12B H 0.1762 0.1979 0.0506 0.072 Uiso 1 1 calc R . .
C22C C 0.22082(17) 0.3739(5) 0.0217(2) 0.0534(16) Uani 1 1 d . . .
C23B C 0.23677(17) 0.3173(5) 0.40486(19) 0.0487(16) Uani 1 1 d . . .
C12B C 0.16667(19) 0.3165(6) 0.2504(2) 0.078(2) Uani 1 1 d . . .
H12C H 0.1707 0.2640 0.2329 0.094 Uiso 1 1 calc R . .
H12D H 0.1857 0.3665 0.2533 0.094 Uiso 1 1 calc R . .
N7A N -0.01030(14) 0.1768(4) 0.04049(18) 0.0621(15) Uani 1 1 d . . .
C11C C 0.14530(16) 0.2475(4) -0.0079(2) 0.0497(16) Uani 1 1 d . . .
C1C C 0.04568(18) 0.3240(5) -0.0214(2) 0.0564(17) Uani 1 1 d . . .
C2C C 0.07974(16) 0.2963(4) -0.0310(2) 0.0514(16) Uani 1 1 d . . .
C3C C 0.11463(17) 0.2767(4) 0.0012(2) 0.0488(16) Uani 1 1 d . . .
C1B C 0.0519(2) 0.3294(5) 0.1215(2) 0.0548(17) Uani 1 1 d . . .
C18A C -0.06708(17) -0.0473(5) -0.0005(2) 0.070(2) Uani 1 1 d . . .
H18A H -0.0570 -0.0723 -0.0212 0.084 Uiso 1 1 calc R . .
H18B H -0.0668 -0.1017 0.0184 0.084 Uiso 1 1 calc R . .
C16A C -0.04172(17) 0.0337(5) 0.0243(2) 0.0584(17) Uani 1 1 d . . .
C22B C 0.20161(19) 0.3086(5) 0.3273(2) 0.0660(19) Uani 1 1 d . . .
C10C C 0.14134(19) 0.2272(5) -0.0501(2) 0.0629(18) Uani 1 1 d . . .
C13C C 0.20357(16) 0.3268(5) 0.0463(2) 0.0536(17) Uani 1 1 d . . .
C19C C 0.22706(18) 0.4570(6) 0.0990(2) 0.0647(19) Uani 1 1 d . . .
N8A N -0.00339(15) 0.1184(5) 0.0743(2) 0.0789(18) Uani 1 1 d . . .
H8AA H 0.0115 0.1345 0.0989 0.095 Uiso 1 1 calc R . .
C14B C 0.1501(2) 0.1946(6) 0.2993(2) 0.076(2) Uani 1 1 d . . .
C15A C -0.03333(17) 0.1237(5) 0.0095(2) 0.0603(18) Uani 1 1 d . . .
C14C C 0.20718(16) 0.3679(6) 0.0862(2) 0.0598(18) Uani 1 1 d . . .
C20C C 0.24482(16) 0.5018(5) 0.0737(2) 0.0592(18) Uani 1 1 d . . .
H20A H 0.2585 0.5596 0.0828 0.071 Uiso 1 1 calc R . .
C2B C 0.07356(18) 0.3670(5) 0.16410(19) 0.0590(18) Uani 1 1 d . . .
C5B C 0.1292(2) 0.3630(6) 0.2274(2) 0.072(2) Uani 1 1 d . . .
C13B C 0.17271(19) 0.2733(6) 0.29326(19) 0.0663(19) Uani 1 1 d . . .
C5C C 0.1068(2) 0.2492(5) -0.0838(2) 0.0655(19) Uani 1 1 d . . .
C3A C -0.07860(19) 0.4504(4) -0.0480(2) 0.0612(18) Uani 1 1 d . . .
C15C C 0.19001(18) 0.3242(6) 0.1131(2) 0.079(2) Uani 1 1 d . . .
H15A H 0.1763 0.2660 0.1050 0.095 Uiso 1 1 calc R . .
C9C C 0.1701(2) 0.1826(5) -0.0627(3) 0.075(2) Uani 1 1 d . . .
H9CA H 0.1928 0.1660 -0.0423 0.090 Uiso 1 1 calc R . .
C4B C 0.10813(19) 0.3264(6) 0.1883(2) 0.0641(18) Uani 1 1 d . . .
C13A C -0.10658(16) -0.0168(4) -0.0226(2) 0.0512(16) Uani 1 1 d . . .
C21C C 0.24231(16) 0.4619(5) 0.0359(2) 0.0536(17) Uani 1 1 d . . .
C9A C -0.0962(2) 0.4768(6) -0.0932(2) 0.089(2) Uani 1 1 d . . .
H9AA H -0.0786 0.4667 -0.1073 0.134 Uiso 1 1 calc R . .
H9AB H -0.1038 0.5452 -0.0956 0.134 Uiso 1 1 calc R . .
H9AC H -0.1176 0.4354 -0.1058 0.134 Uiso 1 1 calc R . .
C6C C 0.1014(2) 0.2303(6) -0.1262(2) 0.087(2) Uani 1 1 d . . .
H6CA H 0.0789 0.2445 -0.1474 0.105 Uiso 1 1 calc R . .
C4C C 0.07717(18) 0.2852(5) -0.0719(2) 0.0611(18) Uani 1 1 d . . .
H4CA H 0.0549 0.3022 -0.0928 0.073 Uiso 1 1 calc R . .
C19B C 0.1557(2) 0.1588(6) 0.3398(2) 0.077(2) Uani 1 1 d . . .
C18B C 0.1332(3) 0.0842(7) 0.3474(3) 0.125(4) Uani 1 1 d . . .
H18C H 0.1373 0.0616 0.3745 0.150 Uiso 1 1 calc R . .
C2A C -0.09324(16) 0.4528(4) -0.0156(2) 0.0564(17) Uani 1 1 d . . .
C21A C -0.0476(2) 0.1607(6) -0.0357(2) 0.095(3) Uani 1 1 d . . .
H21A H -0.0372 0.2250 -0.0371 0.142 Uiso 1 1 calc R . .
H21B H -0.0743 0.1654 -0.0452 0.142 Uiso 1 1 calc R . .
H21C H -0.0403 0.1151 -0.0532 0.142 Uiso 1 1 calc R . .
C18C C 0.2311(2) 0.4984(8) 0.1383(3) 0.106(3) Uani 1 1 d . . .
H18D H 0.2450 0.5561 0.1471 0.128 Uiso 1 1 calc R . .
C17A C -0.0219(2) 0.0333(6) 0.0660(2) 0.077(2) Uani 1 1 d . . .
C7C C 0.1311(3) 0.1896(7) -0.1351(3) 0.103(3) Uani 1 1 d . . .
H7CA H 0.1287 0.1786 -0.1630 0.124 Uiso 1 1 calc R . .
C15B C 0.1212(3) 0.1520(6) 0.2660(2) 0.104(3) Uani 1 1 d . . .
H15B H 0.1169 0.1735 0.2387 0.124 Uiso 1 1 calc R . .
C16C C 0.1937(2) 0.3679(8) 0.1510(3) 0.101(3) Uani 1 1 d . . .
H16A H 0.1819 0.3392 0.1680 0.122 Uiso 1 1 calc R . .
C20B C 0.1832(2) 0.2017(5) 0.3739(2) 0.073(2) Uani 1 1 d . . .
H20B H 0.1857 0.1806 0.4008 0.087 Uiso 1 1 calc R . .
C8C C 0.1647(2) 0.1644(6) -0.1035(3) 0.090(2) Uani 1 1 d . . .
H8CA H 0.1835 0.1347 -0.1108 0.108 Uiso 1 1 calc R . .
C16B C 0.0993(3) 0.0796(8) 0.2732(3) 0.168(6) Uani 1 1 d . . .
H16B H 0.0802 0.0527 0.2507 0.202 Uiso 1 1 calc R . .
C8A C -0.06520(18) 0.4070(6) 0.0631(2) 0.087(2) Uani 1 1 d . . .
H8AB H -0.0415 0.3824 0.0810 0.130 Uiso 1 1 calc R . .
H8AC H -0.0844 0.3607 0.0629 0.130 Uiso 1 1 calc R . .
H8AD H -0.0701 0.4700 0.0734 0.130 Uiso 1 1 calc R . .
C11B C 0.0794(3) 0.4811(7) 0.2216(3) 0.104(3) Uani 1 1 d . . .
C3B C 0.0595(2) 0.4426(6) 0.1805(2) 0.086(2) Uani 1 1 d . . .
H3BB H 0.0366 0.4701 0.1648 0.103 Uiso 1 1 calc R . .
C17C C 0.2142(3) 0.4528(9) 0.1641(3) 0.127(4) Uani 1 1 d . . .
H17A H 0.2169 0.4799 0.1902 0.152 Uiso 1 1 calc R . .
C6B C 0.1151(3) 0.4434(6) 0.2437(2) 0.087(2) Uani 1 1 d . . .
C10B C 0.0647(3) 0.5605(9) 0.2386(3) 0.176(6) Uani 1 1 d . . .
H10A H 0.0411 0.5850 0.2239 0.211 Uiso 1 1 calc R . .
C22A C -0.0190(3) -0.0396(7) 0.1008(3) 0.136(4) Uani 1 1 d . . .
H22A H -0.0019 -0.0145 0.1268 0.204 Uiso 1 1 calc R . .
H22B H -0.0101 -0.1023 0.0945 0.204 Uiso 1 1 calc R . .
H22C H -0.0431 -0.0485 0.1032 0.204 Uiso 1 1 calc R . .
C17B C 0.1046(3) 0.0446(9) 0.3135(4) 0.160(5) Uani 1 1 d . . .
H17B H 0.0893 -0.0047 0.3177 0.192 Uiso 1 1 calc R . .
C7B C 0.1345(3) 0.4876(7) 0.2831(3) 0.121(3) Uani 1 1 d . . .
H7BA H 0.1580 0.4645 0.2991 0.145 Uiso 1 1 calc R . .
C8B C 0.1188(4) 0.5637(9) 0.2976(3) 0.178(6) Uani 1 1 d . . .
H8BA H 0.1319 0.5913 0.3237 0.213 Uiso 1 1 calc R . .
C9B C 0.0847(4) 0.6004(10) 0.2755(4) 0.203(7) Uani 1 1 d . . .
H9BA H 0.0752 0.6537 0.2860 0.244 Uiso 1 1 calc R . .
O1W O 0.28336(16) 0.5469(5) 0.35078(17) 0.124(2) Uani 1 1 d . . .
O2W O 0.2590(3) 0.1457(8) 0.1597(3) 0.227(4) Uiso 1 1 d . . .
C12A C -0.13091(18) 0.0250(4) -0.0045(2) 0.0504(16) Uani 1 1 d . . .
C14A C -0.12669(19) -0.0273(5) -0.0639(2) 0.0586(17) Uani 1 1 d . . .
N6A N -0.16151(14) 0.0075(4) -0.07028(16) 0.0604(15) Uani 1 1 d . . .
H6AA H -0.1791 0.0088 -0.0943 0.073 Uiso 1 1 calc R . .
N5A N -0.16500(12) 0.0401(4) -0.03393(16) 0.0496(13) Uani 1 1 d . . .
C19A C -0.12474(18) 0.0547(5) 0.0386(2) 0.074(2) Uani 1 1 d . . .
H19A H -0.1474 0.0811 0.0406 0.110 Uiso 1 1 calc R . .
H19B H -0.1057 0.1046 0.0470 0.110 Uiso 1 1 calc R . .
H19C H -0.1171 -0.0020 0.0567 0.110 Uiso 1 1 calc R . .
C20A C -0.1170(2) -0.0700(6) -0.0996(2) 0.090(2) Uani 1 1 d . . .
H20C H -0.1381 -0.0645 -0.1251 0.135 Uiso 1 1 calc R . .
H20D H -0.1103 -0.1387 -0.0941 0.135 Uiso 1 1 calc R . .
H20E H -0.0963 -0.0341 -0.1026 0.135 Uiso 1 1 calc R . .
C23C C 0.26144(17) 0.5136(5) 0.0090(2) 0.0578(18) Uani 1 1 d . . .
O5C O 0.28146(12) 0.5891(3) 0.02358(13) 0.0649(12) Uani 1 1 d . . .
O4C O 0.25726(11) 0.4793(3) -0.02670(14) 0.0633(12) Uani 1 1 d . . .
C7A C -0.13249(15) 0.4810(5) -0.0184(2) 0.068(2) Uani 1 1 d . . .
H7AA H -0.1311 0.5345 0.0012 0.082 Uiso 1 1 calc R . .
H7AB H -0.1459 0.5057 -0.0464 0.082 Uiso 1 1 calc R . .
C5A C -0.15354(16) 0.3974(5) -0.0093(2) 0.0556(17) Uani 1 1 d . . .
C6A C -0.16682(16) 0.3896(5) 0.0235(2) 0.0549(17) Uani 1 1 d . . .
C4A C -0.16563(17) 0.3108(5) -0.0333(2) 0.0571(17) Uani 1 1 d . . .
N4A N -0.18517(13) 0.3008(4) 0.01855(17) 0.0589(14) Uani 1 1 d . . .
H4AA H -0.1958 0.2787 0.0354 0.071 Uiso 1 1 calc R . .
N3A N -0.18469(13) 0.2522(4) -0.01572(16) 0.0523(13) Uani 1 1 d . . .
C10A C -0.16348(18) 0.4556(5) 0.0600(2) 0.075(2) Uani 1 1 d . . .
H10B H -0.1499 0.5144 0.0583 0.112 Uiso 1 1 calc R . .
H10C H -0.1505 0.4210 0.0856 0.112 Uiso 1 1 calc R . .
H10D H -0.1879 0.4738 0.0595 0.112 Uiso 1 1 calc R . .
C11A C -0.1588(2) 0.2818(5) -0.0727(2) 0.082(2) Uani 1 1 d . . .
H11A H -0.1704 0.2190 -0.0824 0.122 Uiso 1 1 calc R . .
H11B H -0.1324 0.2764 -0.0670 0.122 Uiso 1 1 calc R . .
H11C H -0.1690 0.3314 -0.0938 0.122 Uiso 1 1 calc R . .

loop_
_atom_site_aniso_label
_atom_site_aniso_U_11
_atom_site_aniso_U_22
_atom_site_aniso_U_33
_atom_site_aniso_U_23
_atom_site_aniso_U_13
_atom_site_aniso_U_12
Co1 0.0395(5) 0.0587(6) 0.0638(6) 0.0009(5) 0.0146(4) -0.0063(4)
Co2 0.0413(5) 0.0547(6) 0.0586(5) 0.0002(4) 0.0177(4) 0.0083(4)
O5B 0.055(3) 0.085(4) 0.049(3) 0.004(2) 0.015(2) -0.004(3)
O6C 0.066(3) 0.054(3) 0.073(3) -0.008(2) 0.027(2) -0.012(2)
O3C 0.047(2) 0.076(3) 0.071(3) 0.005(2) 0.018(2) 0.000(2)
O6B 0.082(3) 0.120(4) 0.057(3) 0.006(3) 0.008(3) -0.044(3)
O1B 0.053(3) 0.095(4) 0.072(3) -0.012(3) 0.010(2) -0.006(3)
O1C 0.044(2) 0.069(3) 0.070(3) 0.010(2) 0.021(2) -0.007(2)
N2A 0.037(3) 0.069(4) 0.080(4) 0.012(3) 0.022(3) -0.005(3)
O2C 0.047(3) 0.112(4) 0.076(3) 0.001(3) 0.019(3) 0.008(3)
O2B 0.074(3) 0.106(4) 0.066(3) -0.027(3) 0.004(3) 0.011(3)
O4B 0.050(2) 0.075(3) 0.051(3) 0.001(2) 0.013(2) 0.003(2)
C21B 0.054(4) 0.056(4) 0.041(4) 0.005(3) 0.006(3) 0.006(3)
N1A 0.033(3) 0.066(4) 0.064(4) 0.006(3) 0.014(3) -0.006(3)
O3B 0.068(3) 0.105(4) 0.052(3) -0.013(3) 0.008(2) 0.012(3)
C1A 0.038(4) 0.055(4) 0.073(5) 0.009(4) 0.012(4) -0.003(3)
C12C 0.049(4) 0.050(4) 0.079(5) 0.009(4) 0.020(4) -0.011(3)
C22C 0.049(4) 0.050(4) 0.054(4) 0.002(4) 0.009(3) 0.003(3)
C23B 0.048(4) 0.052(4) 0.041(4) 0.005(3) 0.010(3) 0.012(3)
C12B 0.070(5) 0.095(6) 0.057(5) -0.001(4) 0.006(4) -0.002(4)
N7A 0.047(3) 0.063(4) 0.070(4) 0.012(3) 0.012(3) -0.019(3)
C11C 0.048(4) 0.035(4) 0.070(5) 0.010(3) 0.025(4) -0.005(3)
C1C 0.052(4) 0.046(4) 0.067(5) 0.012(4) 0.014(4) -0.009(3)
C2C 0.047(4) 0.042(4) 0.072(5) -0.001(3) 0.028(4) -0.009(3)
C3C 0.047(4) 0.028(4) 0.072(5) 0.005(3) 0.020(4) -0.003(3)
C1B 0.056(4) 0.056(5) 0.059(5) -0.005(4) 0.028(4) -0.004(4)
C18A 0.059(4) 0.044(4) 0.104(6) 0.002(4) 0.024(4) -0.005(4)
C16A 0.045(4) 0.050(5) 0.080(5) -0.001(4) 0.022(4) -0.003(3)
C22B 0.066(4) 0.065(5) 0.060(5) 0.013(4) 0.013(4) -0.008(4)
C10C 0.058(5) 0.042(4) 0.096(6) 0.000(4) 0.036(4) -0.007(4)
C13C 0.042(4) 0.045(4) 0.077(5) 0.026(4) 0.024(3) 0.007(3)
C19C 0.056(4) 0.083(6) 0.062(5) 0.012(4) 0.029(4) -0.005(4)
N8A 0.059(4) 0.073(5) 0.090(5) 0.019(4) 0.008(3) -0.013(3)
C14B 0.082(5) 0.084(6) 0.057(5) 0.003(4) 0.017(4) -0.015(5)
C15A 0.046(4) 0.052(5) 0.081(5) -0.00