####################################################################### 
# 
# This file contains crystal structure data downloaded from the 
# Cambridge Structural Database (CSD) hosted by the Cambridge 
# Crystallographic Data Centre (CCDC).
# 
# Full information about CCDC data access policies and citation 
# guidelines are available at http://www.ccdc.cam.ac.uk/access/V1 
# 
# Audit and citation data items may have been added by the CCDC. 
# Please retain this information to preserve the provenance of 
# this file and to allow appropriate attribution of the data. 
# 
#######################################################################

data_40402f2e
_audit_block_doi                 10.5517/cc8kw7x
_database_code_depnum_ccdc_archive 'CCDC 255509'
_audit_update_record             
;
2004-11-11 deposited with the CCDC.	2024-07-10 downloaded from the CCDC.
;

_audit_creation_method           SHELXL-97
_chemical_name_systematic        
;
?
;
_chemical_name_common            ?
_chemical_melting_point          'not measured'
_chemical_formula_moiety         'C42 H24 Cd2 N0 O12'
_chemical_formula_sum            'C42 H24 Cd2 N0 O12'
_chemical_formula_weight         945.41

loop_
_atom_type_symbol
_atom_type_description
_atom_type_scat_dispersion_real
_atom_type_scat_dispersion_imag
_atom_type_scat_source
C C 0.0033 0.0016 'International Tables Vol C Tables 4.2.6.8 and 6.1.1.4'
H H 0.0000 0.0000 'International Tables Vol C Tables 4.2.6.8 and 6.1.1.4'
N N 0.0061 0.0033 'International Tables Vol C Tables 4.2.6.8 and 6.1.1.4'
O O 0.0106 0.0060 'International Tables Vol C Tables 4.2.6.8 and 6.1.1.4'
Cd Cd -0.8075 1.2024 'International Tables Vol C Tables 4.2.6.8 and 6.1.1.4'

_symmetry_cell_setting           Trigonal
_symmetry_space_group_name_H-M   P3(1)21

loop_
_symmetry_equiv_pos_as_xyz
'x, y, z'
'-y, x-y, z+1/3'
'-x+y, -x, z+2/3'
'y, x, -z'
'x-y, -y, -z+2/3'
'-x, -x+y, -z+1/3'

_cell_length_a                   26.698(4)
_cell_length_b                   26.698(4)
_cell_length_c                   7.9535(16)
_cell_angle_alpha                90.00
_cell_angle_beta                 90.00
_cell_angle_gamma                120.00
_cell_volume                     4909.6(14)
_cell_formula_units_Z            3
_cell_measurement_temperature    293(2)
_cell_measurement_reflns_used    ?
_cell_measurement_theta_min      ?
_cell_measurement_theta_max      ?

_exptl_crystal_description       strip
_exptl_crystal_colour            colorless
_exptl_crystal_size_max          0.35
_exptl_crystal_size_mid          0.12
_exptl_crystal_size_min          0.12
_exptl_crystal_density_meas      none
_exptl_crystal_density_diffrn    0.959
_exptl_crystal_density_method    'not measured'
_exptl_crystal_F_000             1404
_exptl_absorpt_coefficient_mu    0.687
_exptl_absorpt_correction_type   empirical
_exptl_absorpt_correction_T_min  0.398
_exptl_absorpt_correction_T_max  0.477
_exptl_absorpt_process_details   SADABS

_exptl_special_details           
;
?
;

_diffrn_ambient_temperature      293(2)
_diffrn_radiation_wavelength     0.71073
_diffrn_radiation_type           MoK\a
_diffrn_radiation_source         'fine-focus sealed tube'
_diffrn_radiation_monochromator  graphite
_diffrn_measurement_device_type  'CCD area detector'
_diffrn_measurement_method       'phi and omega scans'
_diffrn_detector_area_resol_mean 9.00cm
_diffrn_standards_number         none
_diffrn_standards_interval_count none
_diffrn_standards_interval_time  none
_diffrn_standards_decay_%        none
_diffrn_reflns_number            28964
_diffrn_reflns_av_R_equivalents  0.0383
_diffrn_reflns_av_sigmaI/netI    0.0378
_diffrn_reflns_limit_h_min       -29
_diffrn_reflns_limit_h_max       34
_diffrn_reflns_limit_k_min       -35
_diffrn_reflns_limit_k_max       33
_diffrn_reflns_limit_l_min       -10
_diffrn_reflns_limit_l_max       10
_diffrn_reflns_theta_min         1.76
_diffrn_reflns_theta_max         28.26
_reflns_number_total             7326
_reflns_number_gt                6150
_reflns_threshold_expression     >2sigma(I)

_computing_data_collection       'Bruker SMART'
_computing_cell_refinement       'Bruker SMART'
_computing_data_reduction        'Bruker SAINT'
_computing_structure_solution    'SHELXS-97 (Sheldrick, 1990)'
_computing_structure_refinement  'SHELXL-97 (Sheldrick, 1997)'
_computing_molecular_graphics    SHELXP-97
_computing_publication_material  SHELXTL

_refine_special_details          
;
Refinement of F^2^ against ALL reflections.  The weighted R-factor wR and
goodness of fit S are based on F^2^, conventional R-factors R are based
on F, with F set to zero for negative F^2^. The threshold expression of
F^2^ > 2sigma(F^2^) is used only for calculating R-factors(gt) etc. and is
not relevant to the choice of reflections for refinement.  R-factors based
on F^2^ are statistically about twice as large as those based on F, and R-
factors based on ALL data will be even larger.
;

_refine_ls_structure_factor_coef Fsqd
_refine_ls_matrix_type           full
_refine_ls_weighting_scheme      calc
_refine_ls_weighting_details     
'calc w=1/[\s^2^(Fo^2^)+(0.1325P)^2^+0.0000P] where P=(Fo^2^+2Fc^2^)/3'
_atom_sites_solution_primary     direct
_atom_sites_solution_secondary   difmap
_atom_sites_solution_hydrogens   geom
_refine_ls_hydrogen_treatment    mixed
_refine_ls_extinction_method     none
_refine_ls_extinction_coef       ?
_refine_ls_abs_structure_details 'Flack H D (1983), Acta Cryst. A39, 876-881'
_refine_ls_abs_structure_Flack   -0.01(6)
_refine_ls_number_reflns         7326
_refine_ls_number_parameters     248
_refine_ls_number_restraints     60
_refine_ls_R_factor_all          0.0776
_refine_ls_R_factor_gt           0.0660
_refine_ls_wR_factor_ref         0.1743
_refine_ls_wR_factor_gt          0.1645
_refine_ls_goodness_of_fit_ref   0.998
_refine_ls_restrained_S_all      1.010
_refine_ls_shift/su_max          0.001
_refine_ls_shift/su_mean         0.000

loop_
_atom_site_label
_atom_site_type_symbol
_atom_site_fract_x
_atom_site_fract_y
_atom_site_fract_z
_atom_site_U_iso_or_equiv
_atom_site_adp_type
_atom_site_occupancy
_atom_site_symmetry_multiplicity
_atom_site_calc_flag
_atom_site_refinement_flags
_atom_site_disorder_assembly
_atom_site_disorder_group
Cd1 Cd 0.0000 0.41882(2) 0.1667 0.04695(17) Uani 1 2 d S . .
Cd2 Cd 0.0000 0.58118(2) 0.1667 0.04704(17) Uani 1 2 d S . .
O1 O 0.0291(2) 0.4165(3) 0.4355(6) 0.0668(13) Uani 1 1 d . . .
O2 O 0.0703(3) 0.3911(3) 0.2443(7) 0.0865(19) Uani 1 1 d . . .
O3 O 0.3208(3) 0.3911(4) 1.4224(7) 0.0855(19) Uani 1 1 d . . .
O4 O 0.3871(2) 0.4166(3) 1.2315(6) 0.0654(12) Uani 1 1 d . . .
O5 O 0.0673(4) 0.5060(5) 0.0722(13) 0.129(3) Uani 1 1 d U . .
O6 O 0.0668(5) 0.5598(5) 0.2611(14) 0.132(3) Uani 1 1 d U . .
C1 C 0.0655(3) 0.4027(3) 0.3931(8) 0.0573(15) Uani 1 1 d . . .
C2 C 0.10252(18) 0.3974(3) 0.5272(4) 0.076(2) Uani 1 1 d G . .
C3 C 0.1447(2) 0.3840(3) 0.4808(4) 0.100(3) Uani 1 1 d GU . .
H3 H 0.1489 0.3771 0.3685 0.120 Uiso 1 1 calc R . .
C4 C 0.18062(19) 0.3811(2) 0.6021(4) 0.099(3) Uani 1 1 d GU . .
H4 H 0.2088 0.3722 0.5711 0.119 Uiso 1 1 calc R . .
C5 C 0.17434(12) 0.39149(14) 0.7699(3) 0.076(2) Uani 1 1 d GU . .
C6 C 0.13215(17) 0.4048(3) 0.8163(4) 0.091(3) Uani 1 1 d G . .
H6 H 0.1279 0.4118 0.9286 0.109 Uiso 1 1 calc R . .
C7 C 0.0962(2) 0.4077(3) 0.6949(5) 0.087(3) Uani 1 1 d G . .
H7 H 0.0680 0.4167 0.7260 0.104 Uiso 1 1 calc R . .
C8 C 0.21761(13) 0.39262(14) 0.8959(4) 0.076(2) Uani 1 1 d GU . .
C9 C 0.27292(16) 0.4053(3) 0.8495(4) 0.085(3) Uani 1 1 d G . .
H9 H 0.2841 0.4121 0.7372 0.103 Uiso 1 1 calc R . .
C10 C 0.31153(18) 0.4076(3) 0.9708(5) 0.086(3) Uani 1 1 d G . .
H10 H 0.3485 0.4161 0.9397 0.103 Uiso 1 1 calc R . .
C11 C 0.29483(19) 0.3973(3) 1.1385(4) 0.077(2) Uani 1 1 d G . .
C12 C 0.23953(19) 0.3847(3) 1.1850(4) 0.097(3) Uani 1 1 d GU . .
H12 H 0.2284 0.3778 1.2972 0.116 Uiso 1 1 calc R . .
C13 C 0.20092(15) 0.3823(2) 1.0637(4) 0.103(3) Uani 1 1 d GU . .
H13 H 0.1639 0.3739 1.0948 0.123 Uiso 1 1 calc R . .
C14 C 0.3368(3) 0.4020(3) 1.2743(9) 0.0588(16) Uani 1 1 d . . .
C15 C 0.0905(3) 0.5454(4) 0.1668(14) 0.084(2) Uani 1 1 d . . .
C16 C 0.1468(3) 0.5516(5) 0.2368(12) 0.072(4) Uani 0.50 1 d PG . .
C17 C 0.1707(4) 0.5308(6) 0.1201(11) 0.091(6) Uani 0.50 1 d PG . .
H17 H 0.1537 0.5186 0.0149 0.110 Uiso 0.50 1 calc PR . .
C18 C 0.2201(3) 0.5284(5) 0.1605(9) 0.088(5) Uani 0.50 1 d PG . .
H18 H 0.2361 0.5144 0.0824 0.105 Uiso 0.50 1 calc PR . .
C19 C 0.2456(2) 0.5467(3) 0.3177(7) 0.085(5) Uani 0.50 1 d PG . .
C20 C 0.2217(3) 0.5675(5) 0.4344(9) 0.099(7) Uani 0.50 1 d PG . .
H20 H 0.2387 0.5798 0.5396 0.118 Uiso 0.50 1 calc PR . .
C21 C 0.1723(4) 0.5700(5) 0.3940(12) 0.095(6) Uani 0.50 1 d PGU . .
H21 H 0.1563 0.5839 0.4721 0.114 Uiso 0.50 1 calc PR . .
C22 C 0.3028(2) 0.5489(3) 0.3511(7) 0.087(5) Uani 0.50 1 d PG . .
C23 C 0.3477(3) 0.5696(5) 0.2351(9) 0.088(6) Uani 0.50 1 d PG . .
H23 H 0.3435 0.5825 0.1304 0.106 Uiso 0.50 1 calc PR . .
C24 C 0.3990(3) 0.5709(5) 0.2758(12) 0.093(5) Uani 0.50 1 d PGU . .
H24 H 0.4291 0.5848 0.1982 0.111 Uiso 0.50 1 calc PR . .
C25 C 0.4054(3) 0.5517(5) 0.4323(12) 0.072(4) Uani 0.50 1 d PG . .
C26 C 0.3605(4) 0.5310(6) 0.5482(11) 0.093(6) Uani 0.50 1 d PG . .
H26 H 0.3647 0.5181 0.6530 0.112 Uiso 0.50 1 calc PR . .
C27 C 0.3091(3) 0.5296(5) 0.5076(9) 0.086(5) Uani 0.50 1 d PG . .
H27 H 0.2791 0.5158 0.5852 0.103 Uiso 0.50 1 calc PR . .

loop_
_atom_site_aniso_label
_atom_site_aniso_U_11
_atom_site_aniso_U_22
_atom_site_aniso_U_33
_atom_site_aniso_U_23
_atom_site_aniso_U_13
_atom_site_aniso_U_12
Cd1 0.0418(3) 0.0569(3) 0.0371(3) -0.00453(10) -0.0091(2) 0.02090(15)
Cd2 0.0421(3) 0.0569(3) 0.0372(3) 0.00466(10) 0.0093(2) 0.02103(15)
O1 0.061(3) 0.098(4) 0.047(2) 0.000(2) -0.010(2) 0.044(3)
O2 0.085(4) 0.142(6) 0.054(3) -0.014(3) -0.023(3) 0.073(4)
O3 0.076(3) 0.146(6) 0.049(3) 0.018(3) -0.005(2) 0.066(4)
O4 0.068(3) 0.095(4) 0.049(2) -0.004(2) -0.010(2) 0.052(3)
O5 0.127(3) 0.126(3) 0.120(3) 0.0051(19) -0.0058(19) 0.054(2)
O6 0.128(3) 0.140(3) 0.131(3) 0.0050(19) 0.0003(19) 0.070(2)
C1 0.046(3) 0.075(4) 0.048(3) 0.004(3) -0.007(3) 0.028(3)
C2 0.071(4) 0.148(8) 0.028(3) -0.005(4) -0.007(3) 0.070(5)
C3 0.097(3) 0.107(3) 0.098(3) -0.0003(19) -0.0005(19) 0.053(2)
C4 0.097(3) 0.106(3) 0.098(3) -0.0010(19) -0.0009(19) 0.053(2)
C5 0.073(2) 0.085(3) 0.074(3) -0.0008(18) -0.0024(17) 0.0422(19)
C6 0.073(5) 0.169(10) 0.053(4) -0.022(5) -0.015(3) 0.078(6)
C7 0.073(5) 0.170(10) 0.049(4) -0.017(5) -0.012(3) 0.085(6)
C8 0.072(2) 0.085(3) 0.074(3) 0.0028(18) -0.0017(17) 0.0412(19)
C9 0.076(5) 0.157(9) 0.051(4) 0.015(5) 0.006(3) 0.079(6)
C10 0.077(5) 0.176(10) 0.045(4) 0.017(4) 0.007(3) 0.094(6)
C11 0.089(6) 0.139(8) 0.037(3) 0.001(4) -0.005(3) 0.082(6)
C12 0.094(3) 0.104(3) 0.095(3) 0.0013(19) -0.0016(19) 0.051(2)
C13 0.099(3) 0.110(3) 0.101(3) 0.0011(19) -0.0008(19) 0.054(2)
C14 0.064(4) 0.073(4) 0.054(4) -0.006(3) -0.015(3) 0.045(4)
C15 0.051(3) 0.057(4) 0.142(8) 0.006(5) -0.003(4) 0.026(4)
C16 0.051(7) 0.080(10) 0.098(12) -0.010(8) -0.016(7) 0.042(7)
C17 0.113(15) 0.133(17) 0.061(9) -0.036(10) -0.020(9) 0.088(14)
C18 0.071(10) 0.134(17) 0.076(10) -0.026(11) -0.007(8) 0.065(12)
C19 0.069(9) 0.088(12) 0.103(13) 0.000(10) -0.007(9) 0.044(9)
C20 0.068(10) 0.17(2) 0.098(13) -0.029(13) -0.032(9) 0.087(13)
C21 0.094(6) 0.096(6) 0.096(6) -0.001(2) -0.001(2) 0.048(3)
C22 0.082(12) 0.096(13) 0.089(12) -0.006(10) -0.012(9) 0.048(10)
C23 0.079(11) 0.142(17) 0.077(10) 0.015(11) -0.003(9) 0.080(12)
C24 0.083(7) 0.102(7) 0.098(7) 0.009(5) -0.002(4) 0.050(5)
C25 0.049(7) 0.083(10) 0.092(11) 0.025(8) 0.010(7) 0.039(7)
C26 0.077(10) 0.151(19) 0.060(9) 0.025(10) 0.009(8) 0.062(12)
C27 0.063(9) 0.134(17) 0.071(10) 0.030(10) 0.010(8) 0.057(10)

_geom_special_details            
;
All esds (except the esd in the dihedral angle between two l.s. planes)
are estimated using the full covariance matrix.  The cell esds are taken
into account individually in the estimation of esds in distances, angles
and torsion angles; correlations between esds in cell parameters are only
used when they are defined by crystal symmetry.  An approximate (isotropic)
treatment of cell esds is used for estimating esds involving l.s. planes.
;

loop_
_geom_bond_atom_site_label_1
_geom_bond_atom_site_label_2
_geom_bond_distance
_geom_bond_site_symmetry_2
_geom_bond_publ_flag
Cd1 O5 2.242(11) . ?
Cd1 O5 2.242(11) 6 ?
Cd1 O1 2.286(5) . ?
Cd1 O1 2.286(5) 6 ?
Cd1 O2 2.417(6) . ?
Cd1 O2 2.417(6) 6 ?
Cd1 C1 2.690(6) 6 ?
Cd2 O6 2.255(11) 6 ?
Cd2 O6 2.255(11) . ?
Cd2 O4 2.287(5) 5_566 ?
Cd2 O4 2.287(5) 3_563 ?
Cd2 O3 2.417(5) 5_566 ?
Cd2 O3 2.417(5) 3_563 ?
Cd2 C14 2.690(6) 3_563 ?
Cd2 C14 2.690(6) 5_566 ?
O1 C1 1.245(9) . ?
O2 C1 1.246(9) . ?
O3 C14 1.237(9) . ?
O3 Cd2 2.417(5) 2_666 ?
O4 C14 1.245(9) . ?
O4 Cd2 2.286(5) 2_666 ?
O5 C15 1.186(13) . ?
O6 C15 1.164(13) . ?
C1 C2 1.509(7) . ?
C2 C3 1.3900 . ?
C2 C7 1.3900 . ?
C3 C4 1.3900 . ?
C4 C5 1.3900 . ?
C5 C6 1.3900 . ?
C5 C8 1.5183 . ?
C6 C7 1.3900 . ?
C8 C13 1.3900 . ?
C8 C9 1.3901 . ?
C9 C10 1.3900 . ?
C10 C11 1.3901 . ?
C11 C12 1.3899 . ?
C11 C14 1.516(7) . ?
C12 C13 1.3901 . ?
C14 Cd2 2.690(6) 2_666 ?
C15 C25 1.508(9) 3_564 ?
C15 C16 1.532(9) . ?
C16 C17 1.3900 . ?
C16 C21 1.3900 . ?
C16 C25 1.592(19) 3_564 ?
C17 C18 1.3900 . ?
C18 C19 1.3900 . ?
C19 C20 1.3900 . ?
C19 C22 1.5221 . ?
C20 C21 1.3900 . ?
C22 C23 1.3900 . ?
C22 C27 1.3901 . ?
C23 C24 1.3900 . ?
C24 C25 1.3901 . ?
C25 C26 1.3900 . ?
C25 C15 1.508(9) 2_665 ?
C25 C16 1.592(12) 2_665 ?
C26 C27 1.3900 . ?

loop_
_geom_angle_atom_site_label_1
_geom_angle_atom_site_label_2
_geom_angle_atom_site_label_3
_geom_angle
_geom_angle_site_symmetry_1
_geom_angle_site_symmetry_3
_geom_angle_publ_flag
O5 Cd1 O5 100.9(6) . 6 ?
O5 Cd1 O1 103.6(3) . . ?
O5 Cd1 O1 91.0(3) 6 . ?
O5 Cd1 O1 90.9(3) . 6 ?
O5 Cd1 O1 103.6(3) 6 6 ?
O1 Cd1 O1 157.3(3) . 6 ?
O5 Cd1 O2 93.5(3) . . ?
O5 Cd1 O2 145.5(3) 6 . ?
O1 Cd1 O2 55.00(19) . . ?
O1 Cd1 O2 107.4(2) 6 . ?
O5 Cd1 O2 145.5(3) . 6 ?
O5 Cd1 O2 93.5(3) 6 6 ?
O1 Cd1 O2 107.4(2) . 6 ?
O1 Cd1 O2 55.00(19) 6 6 ?
O2 Cd1 O2 92.0(4) . 6 ?
O5 Cd1 C1 118.4(3) . 6 ?
O5 Cd1 C1 98.2(3) 6 6 ?
O1 Cd1 C1 134.1(2) . 6 ?
O1 Cd1 C1 27.5(2) 6 6 ?
O2 Cd1 C1 102.3(2) . 6 ?
O2 Cd1 C1 27.6(2) 6 6 ?
O6 Cd2 O6 99.1(6) 6 . ?
O6 Cd2 O4 103.6(3) 6 5_566 ?
O6 Cd2 O4 91.2(3) . 5_566 ?
O6 Cd2 O4 91.2(3) 6 3_563 ?
O6 Cd2 O4 103.6(3) . 3_563 ?
O4 Cd2 O4 157.1(3) 5_566 3_563 ?
O6 Cd2 O3 94.3(3) 6 5_566 ?
O6 Cd2 O3 145.7(3) . 5_566 ?
O4 Cd2 O3 54.80(18) 5_566 5_566 ?
O4 Cd2 O3 107.5(2) 3_563 5_566 ?
O6 Cd2 O3 145.7(3) 6 3_563 ?
O6 Cd2 O3 94.3(3) . 3_563 ?
O4 Cd2 O3 107.5(2) 5_566 3_563 ?
O4 Cd2 O3 54.80(18) 3_563 3_563 ?
O3 Cd2 O3 92.0(4) 5_566 3_563 ?
O6 Cd2 C14 118.7(3) 6 3_563 ?
O6 Cd2 C14 99.0(3) . 3_563 ?
O4 Cd2 C14 133.8(2) 5_566 3_563 ?
O4 Cd2 C14 27.5(2) 3_563 3_563 ?
O3 Cd2 C14 101.9(2) 5_566 3_563 ?
O3 Cd2 C14 27.4(2) 3_563 3_563 ?
O6 Cd2 C14 99.0(3) 6 5_566 ?
O6 Cd2 C14 118.7(3) . 5_566 ?
O4 Cd2 C14 27.5(2) 5_566 5_566 ?
O4 Cd2 C14 133.8(2) 3_563 5_566 ?
O3 Cd2 C14 27.4(2) 5_566 5_566 ?
O3 Cd2 C14 101.9(2) 3_563 5_566 ?
C14 Cd2 C14 121.3(3) 3_563 5_566 ?
C1 O1 Cd1 94.6(4) . . ?
C1 O2 Cd1 88.5(4) . . ?
C14 O3 Cd2 88.7(4) . 2_666 ?
C14 O4 Cd2 94.6(4) . 2_666 ?
C15 O5 Cd1 120.1(9) . . ?
C15 O6 Cd2 119.9(9) . . ?
O1 C1 O2 121.6(6) . . ?
O1 C1 C2 118.8(6) . . ?
O2 C1 C2 119.6(6) . . ?
C3 C2 C7 120.0 . . ?
C3 C2 C1 119.3(3) . . ?
C7 C2 C1 120.6(4) . . ?
C4 C3 C2 120.0 . . ?
C3 C4 C5 120.0 . . ?
C6 C5 C4 120.0 . . ?
C6 C5 C8 121.7 . . ?
C4 C5 C8 118.1 . . ?
C7 C6 C5 120.0 . . ?
C6 C7 C2 120.0 . . ?
C13 C8 C9 120.0 . . ?
C13 C8 C5 117.7 . . ?
C9 C8 C5 122.3 . . ?
C10 C9 C8 120.0 . . ?
C9 C10 C11 120.0 . . ?
C12 C11 C10 120.0 . . ?
C12 C11 C14 118.8(4) . . ?
C10 C11 C14 121.1(4) . . ?
C11 C12 C13 120.0 . . ?
C8 C13 C12 120.0 . . ?
O3 C14 O4 121.7(6) . . ?
O3 C14 C11 120.3(6) . . ?
O4 C14 C11 118.0(6) . . ?
O3 C14 Cd2 63.9(4) . 2_666 ?
O4 C14 Cd2 57.9(3) . 2_666 ?
C11 C14 Cd2 174.7(6) . 2_666 ?
O6 C15 O5 124.9(9) . . ?
O6 C15 C25 114.0(10) . 3_564 ?
O5 C15 C25 113.3(11) . 3_564 ?
O6 C15 C16 113.4(11) . . ?
O5 C15 C16 112.1(9) . . ?
C25 C15 C16 63.2(9) 3_564 . ?
C17 C16 C21 120.0 . . ?
C17 C16 C15 109.6(6) . . ?
C21 C16 C15 130.2(6) . . ?
C17 C16 C25 90.0(6) . 3_564 ?
C21 C16 C25 123.0(6) . 3_564 ?
C15 C16 C25 57.7(6) . 3_564 ?
C16 C17 C18 120.0 . . ?
C19 C18 C17 120.0 . . ?
C20 C19 C18 120.0 . . ?
C20 C19 C22 121.4 . . ?
C18 C19 C22 118.4 . . ?
C19 C20 C21 120.0 . . ?
C20 C21 C16 120.0 . . ?
C23 C22 C27 120.0 . . ?
C23 C22 C19 123.4 . . ?
C27 C22 C19 116.6 . . ?
C22 C23 C24 120.0 . . ?
C23 C24 C25 120.0 . . ?
C26 C25 C24 120.0 . . ?
C26 C25 C15 110.2(6) . 2_665 ?
C24 C25 C15 129.7(6) . 2_665 ?
C26 C25 C16 89.8(6) . 2_665 ?
C24 C25 C16 121.6(6) . 2_665 ?
C15 C25 C16 59.1(5) 2_665 2_665 ?
C25 C26 C27 120.0 . . ?
C26 C27 C22 120.0 . . ?

_diffrn_measured_fraction_theta_max 0.924
_diffrn_reflns_theta_full        28.26
_diffrn_measured_fraction_theta_full 0.924
_refine_diff_density_max         1.265
_refine_diff_density_min         -0.606
_refine_diff_density_rms         0.124
