####################################################################### 
# 
# This file contains crystal structure data downloaded from the 
# Cambridge Structural Database (CSD) hosted by the Cambridge 
# Crystallographic Data Centre (CCDC).
# 
# Full information about CCDC data access policies and citation 
# guidelines are available at http://www.ccdc.cam.ac.uk/access/V1 
# 
# Audit and citation data items may have been added by the CCDC. 
# Please retain this information to preserve the provenance of 
# this file and to allow appropriate attribution of the data. 
# 
#######################################################################

data_sq
_audit_block_doi                 10.5517/ccqx2d2
_database_code_depnum_ccdc_archive 'CCDC 682384'
loop_
_citation_id
_citation_doi
_citation_year
1 10.1021/ic900217t 2009
_audit_update_record             
;
2008-03-20 deposited with the CCDC.	2024-07-10 downloaded from the CCDC.
;

_audit_creation_method           SHELXL-97
_chemical_name_systematic        
;
?
;
_chemical_name_common            PCN-15
_chemical_melting_point          'NOT MEASURED'
_chemical_formula_moiety         'Fe6 (C30 H14 O8)3 Cl (H2 O)6'
_chemical_formula_sum            'C90 H54 Cl Fe6 O30'
_chemical_formula_weight         1985.88

loop_
_atom_type_symbol
_atom_type_description
_atom_type_scat_dispersion_real
_atom_type_scat_dispersion_imag
_atom_type_scat_source
C C 0.0033 0.0016 'International Tables Vol C Tables 4.2.6.8 and 6.1.1.4'
H H 0.0000 0.0000 'International Tables Vol C Tables 4.2.6.8 and 6.1.1.4'
Cl Cl 0.1484 0.1585 'International Tables Vol C Tables 4.2.6.8 and 6.1.1.4'
Fe Fe 0.3463 0.8444 'International Tables Vol C Tables 4.2.6.8 and 6.1.1.4'
O O 0.0106 0.0060 'International Tables Vol C Tables 4.2.6.8 and 6.1.1.4'

_symmetry_cell_setting           Rhombohedral
_symmetry_space_group_name_H-M   R-3m

loop_
_symmetry_equiv_pos_as_xyz
'x, y, z'
'-y, x-y, z'
'-x+y, -x, z'
'x-y, -y, -z'
'-x, -x+y, -z'
'y, x, -z'
'x+2/3, y+1/3, z+1/3'
'-y+2/3, x-y+1/3, z+1/3'
'-x+y+2/3, -x+1/3, z+1/3'
'x-y+2/3, -y+1/3, -z+1/3'
'-x+2/3, -x+y+1/3, -z+1/3'
'y+2/3, x+1/3, -z+1/3'
'x+1/3, y+2/3, z+2/3'
'-y+1/3, x-y+2/3, z+2/3'
'-x+y+1/3, -x+2/3, z+2/3'
'x-y+1/3, -y+2/3, -z+2/3'
'-x+1/3, -x+y+2/3, -z+2/3'
'y+1/3, x+2/3, -z+2/3'
'-x, -y, -z'
'y, -x+y, -z'
'x-y, x, -z'
'-x+y, y, z'
'x, x-y, z'
'-y, -x, z'
'-x+2/3, -y+1/3, -z+1/3'
'y+2/3, -x+y+1/3, -z+1/3'
'x-y+2/3, x+1/3, -z+1/3'
'-x+y+2/3, y+1/3, z+1/3'
'x+2/3, x-y+1/3, z+1/3'
'-y+2/3, -x+1/3, z+1/3'
'-x+1/3, -y+2/3, -z+2/3'
'y+1/3, -x+y+2/3, -z+2/3'
'x-y+1/3, x+2/3, -z+2/3'
'-x+y+1/3, y+2/3, z+2/3'
'x+1/3, x-y+2/3, z+2/3'
'-y+1/3, -x+2/3, z+2/3'

_cell_length_a                   27.1117(9)
_cell_length_b                   27.1117(9)
_cell_length_c                   16.5413(13)
_cell_angle_alpha                90.00
_cell_angle_beta                 90.00
_cell_angle_gamma                120.00
_cell_volume                     10529.6(10)
_cell_formula_units_Z            3
_cell_measurement_temperature    173(2)
_cell_measurement_reflns_used    ?
_cell_measurement_theta_min      ?
_cell_measurement_theta_max      ?

_exptl_crystal_description       block
_exptl_crystal_colour            orange
_exptl_crystal_size_max          0.15
_exptl_crystal_size_mid          0.12
_exptl_crystal_size_min          0.10
_exptl_crystal_density_meas      'not measured'
_exptl_crystal_density_diffrn    0.940
_exptl_crystal_density_method    'not measured'
_exptl_crystal_F_000             3021
_exptl_absorpt_coefficient_mu    0.674
_exptl_absorpt_correction_type   NONE
_exptl_absorpt_correction_T_min  ?
_exptl_absorpt_correction_T_max  ?
_exptl_absorpt_process_details   ?

_exptl_special_details           
;
?
;

_diffrn_ambient_temperature      173(2)
_diffrn_radiation_wavelength     0.71073
_diffrn_radiation_type           MoK\a
_diffrn_radiation_source         'fine-focus sealed tube'
_diffrn_radiation_monochromator  graphite
_diffrn_measurement_device_type  'CCD area detector'
_diffrn_measurement_method       'phi and omega scans'
_diffrn_detector_area_resol_mean ?
_diffrn_standards_number         ?
_diffrn_standards_interval_count ?
_diffrn_standards_interval_time  ?
_diffrn_standards_decay_%        NONE
_diffrn_reflns_number            13516
_diffrn_reflns_av_R_equivalents  0.0436
_diffrn_reflns_av_sigmaI/netI    0.0311
_diffrn_reflns_limit_h_min       -19
_diffrn_reflns_limit_h_max       30
_diffrn_reflns_limit_k_min       -29
_diffrn_reflns_limit_k_max       30
_diffrn_reflns_limit_l_min       -18
_diffrn_reflns_limit_l_max       18
_diffrn_reflns_theta_min         1.50
_diffrn_reflns_theta_max         23.27
_reflns_number_total             1818
_reflns_number_gt                1544
_reflns_threshold_expression     >2sigma(I)

_computing_data_collection       'Bruker SMART'
_computing_cell_refinement       'Bruker SMART'
_computing_data_reduction        'Bruker SMART'
_computing_structure_solution    'SHELXS-97 (Sheldrick, 1990)'
_computing_structure_refinement  'SHELXL-97 (Sheldrick, 1997)'
_computing_molecular_graphics    'Bruker SHELXTL'
_computing_publication_material  'Bruker SHELXTL'

_refine_special_details          
;
Refinement of F^2^ against ALL reflections. The weighted R-factor wR and
goodness of fit S are based on F^2^, conventional R-factors R are based
on F, with F set to zero for negative F^2^. The threshold expression of
F^2^ > 2sigma(F^2^) is used only for calculating R-factors(gt) etc. and is
not relevant to the choice of reflections for refinement. R-factors based
on F^2^ are statistically about twice as large as those based on F, and R-
factors based on ALL data will be even larger.
;

_refine_ls_structure_factor_coef Fsqd
_refine_ls_matrix_type           full
_refine_ls_weighting_scheme      calc
_refine_ls_weighting_details     
'calc w=1/[\s^2^(Fo^2^)+(0.2000P)^2^+0.0000P] where P=(Fo^2^+2Fc^2^)/3'
_atom_sites_solution_primary     direct
_atom_sites_solution_secondary   difmap
_atom_sites_solution_hydrogens   geom
_refine_ls_hydrogen_treatment    mixed
_refine_ls_extinction_method     none
_refine_ls_extinction_coef       ?
_refine_ls_number_reflns         1818
_refine_ls_number_parameters     102
_refine_ls_number_restraints     0
_refine_ls_R_factor_all          0.1143
_refine_ls_R_factor_gt           0.1088
_refine_ls_wR_factor_ref         0.3553
_refine_ls_wR_factor_gt          0.3462
_refine_ls_goodness_of_fit_ref   1.636
_refine_ls_restrained_S_all      1.636
_refine_ls_shift/su_max          0.000
_refine_ls_shift/su_mean         0.000

loop_
_atom_site_label
_atom_site_type_symbol
_atom_site_fract_x
_atom_site_fract_y
_atom_site_fract_z
_atom_site_U_iso_or_equiv
_atom_site_adp_type
_atom_site_occupancy
_atom_site_symmetry_multiplicity
_atom_site_calc_flag
_atom_site_refinement_flags
_atom_site_disorder_assembly
_atom_site_disorder_group
Fe1 Fe 0.13381(2) 0.26761(4) 0.34003(7) 0.0444(7) Uani 1 2 d S . .
O1 O 0.19582(19) 0.2851(2) 0.2558(3) 0.0766(15) Uani 1 1 d . . .
O2 O 0.2434(2) 0.3799(2) 0.2424(3) 0.0738(14) Uani 1 1 d . . .
O5 O 0.08508(10) 0.1702(2) 0.3386(4) 0.0690(19) Uani 1 2 d S . .
H5A H 0.0963 0.1508 0.3055 0.083 Uiso 0.50 1 d PR . .
H5B H 0.0547 0.1504 0.3711 0.083 Uiso 0.50 1 d PR . .
C1 C 0.2384(3) 0.3309(3) 0.2357(4) 0.0605(17) Uani 1 1 d . . .
C2 C 0.2870(2) 0.3281(3) 0.1989(4) 0.0492(14) Uani 1 1 d . . .
C3 C 0.3333 0.3771(3) 0.1667 0.058(2) Uani 1 2 d S . .
H3 H 0.3333 0.4121 0.1667 0.070 Uiso 1 2 calc SR . .
C6 C 0.2866(2) 0.2769(3) 0.1950(4) 0.0589(17) Uani 1 1 d . . .
H6 H 0.2535 0.2430 0.2120 0.071 Uiso 1 1 calc R . .
C8 C 0.3333 0.2736(3) 0.1667 0.052(2) Uani 1 2 d S . .
C9 C 0.3333 0.2182(3) 0.1667 0.059(2) Uani 1 2 d S . .
C10 C 0.3512(3) 0.2024(3) 0.2368(4) 0.0670(18) Uani 1 1 d . . .
C11 C 0.3696(3) 0.2369(3) 0.3051(5) 0.074(2) Uani 1 1 d . . .
H11 H 0.3672 0.2706 0.3105 0.089 Uiso 1 1 calc R . .
C14 C 0.3921(3) 0.2169(3) 0.3659(7) 0.139(6) Uani 1 1 d . . .
H14 H 0.4090 0.2410 0.4113 0.167 Uiso 1 1 calc R . .
Cl1 Cl 0.0000 0.0000 0.0000 0.0499(12) Uani 1 12 d S . .

loop_
_atom_site_aniso_label
_atom_site_aniso_U_11
_atom_site_aniso_U_22
_atom_site_aniso_U_33
_atom_site_aniso_U_23
_atom_site_aniso_U_13
_atom_site_aniso_U_12
Fe1 0.0329(8) 0.0429(9) 0.0607(11) 0.0151(5) 0.0076(2) 0.0215(5)
O1 0.047(3) 0.088(3) 0.093(3) 0.023(3) 0.027(2) 0.032(3)
O2 0.061(3) 0.074(3) 0.099(4) 0.007(3) 0.016(2) 0.043(2)
O5 0.050(3) 0.021(2) 0.126(5) 0.014(3) 0.0069(15) 0.0107(12)
C1 0.049(4) 0.070(4) 0.068(4) 0.011(3) 0.013(3) 0.034(3)
C2 0.037(3) 0.051(3) 0.059(3) 0.003(3) 0.013(3) 0.021(3)
C3 0.044(5) 0.048(3) 0.081(6) 0.000(2) 0.000(4) 0.022(2)
C6 0.036(3) 0.047(3) 0.085(4) 0.012(3) 0.012(3) 0.014(3)
C8 0.041(4) 0.036(3) 0.082(6) 0.0060(19) 0.012(4) 0.020(2)
C9 0.067(6) 0.050(3) 0.067(5) 0.011(2) 0.021(4) 0.033(3)
C10 0.079(4) 0.076(5) 0.061(4) 0.012(3) 0.011(3) 0.050(4)
C11 0.084(5) 0.056(4) 0.084(5) -0.007(3) 0.018(4) 0.035(4)
C14 0.062(4) 0.106(7) 0.172(8) 0.092(7) -0.070(5) -0.017(4)
Cl1 0.0494(17) 0.0494(17) 0.051(2) 0.000 0.000 0.0247(9)

_geom_special_details            
;
All esds (except the esd in the dihedral angle between two l.s. planes)
are estimated using the full covariance matrix. The cell esds are taken
into account individually in the estimation of esds in distances, angles
and torsion angles; correlations between esds in cell parameters are only
used when they are defined by crystal symmetry. An approximate (isotropic)
treatment of cell esds is used for estimating esds involving l.s. planes.
;

loop_
_geom_bond_atom_site_label_1
_geom_bond_atom_site_label_2
_geom_bond_distance
_geom_bond_site_symmetry_2
_geom_bond_publ_flag
Fe1 O1 2.049(4) . ?
Fe1 O1 2.049(4) 22 ?
Fe1 O2 2.059(5) 31 ?
Fe1 O2 2.060(5) 16 ?
Fe1 O5 2.288(5) . ?
O1 C1 1.246(8) . ?
O2 C1 1.271(8) . ?
O2 Fe1 2.059(5) 31 ?
O5 H5A 0.9077 . ?
O5 H5B 0.9014 . ?
C1 C2 1.487(8) . ?
C2 C6 1.385(9) . ?
C2 C3 1.399(7) . ?
C3 C2 1.399(7) 11 ?
C3 H3 0.9500 . ?
C6 C8 1.395(7) . ?
C6 H6 0.9500 . ?
C8 C6 1.395(7) 11 ?
C8 C9 1.504(12) . ?
C9 C10 1.404(8) 11 ?
C9 C10 1.404(8) . ?
C10 C11 1.391(10) . ?
C10 C10 1.454(14) 23 ?
C11 C14 1.419(11) . ?
C11 H11 0.9500 . ?
C14 C14 1.13(2) 23 ?
C14 H14 0.9500 . ?

loop_
_geom_angle_atom_site_label_1
_geom_angle_atom_site_label_2
_geom_angle_atom_site_label_3
_geom_angle
_geom_angle_site_symmetry_1
_geom_angle_site_symmetry_3
_geom_angle_publ_flag
O1 Fe1 O1 89.6(3) . 22 ?
O1 Fe1 O2 155.8(2) . 31 ?
O1 Fe1 O2 85.5(2) 22 31 ?
O1 Fe1 O2 85.5(2) . 16 ?
O1 Fe1 O2 155.8(2) 22 16 ?
O2 Fe1 O2 89.4(3) 31 16 ?
O1 Fe1 O5 101.2(2) . . ?
O1 Fe1 O5 101.2(2) 22 . ?
O2 Fe1 O5 103.01(18) 31 . ?
O2 Fe1 O5 103.01(18) 16 . ?
C1 O1 Fe1 131.1(5) . . ?
C1 O2 Fe1 123.3(4) . 31 ?
Fe1 O5 H5A 120.4 . . ?
Fe1 O5 H5B 120.6 . . ?
H5A O5 H5B 119.0 . . ?
O1 C1 O2 125.4(6) . . ?
O1 C1 C2 117.5(6) . . ?
O2 C1 C2 117.1(6) . . ?
C6 C2 C3 119.1(6) . . ?
C6 C2 C1 120.5(5) . . ?
C3 C2 C1 120.4(6) . . ?
C2 C3 C2 120.0(8) 11 . ?
C2 C3 H3 120.0 11 . ?
C2 C3 H3 120.0 . . ?
C2 C6 C8 121.8(5) . . ?
C2 C6 H6 119.1 . . ?
C8 C6 H6 119.1 . . ?
C6 C8 C6 117.7(7) . 11 ?
C6 C8 C9 121.2(4) . . ?
C6 C8 C9 121.2(4) 11 . ?
C10 C9 C10 123.0(8) 11 . ?
C10 C9 C8 118.5(4) 11 . ?
C10 C9 C8 118.5(4) . . ?
C11 C10 C9 121.9(6) . . ?
C11 C10 C10 119.6(4) . 23 ?
C9 C10 C10 118.5(4) . 23 ?
C10 C11 C14 113.3(7) . . ?
C10 C11 H11 123.4 . . ?
C14 C11 H11 123.4 . . ?
C14 C14 C11 126.8(5) 23 . ?
C14 C14 H14 116.6 23 . ?
C11 C14 H14 116.6 . . ?

_diffrn_measured_fraction_theta_max 0.998
_diffrn_reflns_theta_full        23.27
_diffrn_measured_fraction_theta_full 0.998
_refine_diff_density_max         2.140
_refine_diff_density_min         -0.562
_refine_diff_density_rms         0.153


