
#######################################################################
#
#                 Cambridge Crystallographic Data Centre
#                                CCDC
#
#######################################################################
#
# If this CIF has been generated from an entry in the Cambridge
# Structural Database, then it will include bibliographic, chemical,
# crystal, experimental, refinement or atomic coordinate data resulting
# from the CCDC's data processing and validation procedures.
#
#######################################################################

data_CSD_CIF_FUWPUI
_audit_creation_date 1988-09-21
_audit_creation_method CSD-ConQuest-V1
_database_code_CSD FUWPUI
_database_code_depnum_ccdc_archive 'CCDC 1161954'
_chemical_formula_sum 'C21 H15 N1 O1'
_chemical_formula_moiety
;
C21 H15 N1 O1
;
_journal_coeditor_code "IUCr A27688"
_journal_coden_Cambridge 591
_journal_volume 43
_journal_year 1987
_journal_page_first 2449
_journal_name_full 'Acta Crystallogr.,Sect.C:Cryst.Struct.Commun. '
loop_
_publ_author_name
"K.W.Tornroos"
_chemical_name_systematic
;
2-Benzoyl-3-phenylindole
;
_chemical_name_common
;
Teaching Subset: Fundamental Chemistry
;
_cell_volume    780.244
_exptl_crystal_colour 'yellow'
_exptl_crystal_density_diffrn 1.266
_diffrn_ambient_temperature ?
_diffrn_special_details
;
The study was carried out at room temperature,in the range 283-303K

;
#These two values have been output from a single CSD field.
_refine_ls_R_factor_gt 0.0439
_refine_ls_wR_factor_gt 0.0439
_symmetry_cell_setting triclinic
_symmetry_space_group_name_H-M 'P -1'
_symmetry_Int_Tables_number 2
loop_
_symmetry_equiv_pos_site_id
_symmetry_equiv_pos_as_xyz
1 x,y,z
2 -x,-y,-z
_cell_length_a 10.702(1)
_cell_length_b 9.776(1)
_cell_length_c 8.265(1)
_cell_angle_alpha 106.43(1)
_cell_angle_beta 103.63(1)
_cell_angle_gamma 99.63(1)
_cell_formula_units_Z 2
loop_
_atom_type_symbol
_atom_type_radius_bond
C 0.68
H 0.23
N 0.68
O 0.68
loop_
_atom_site_label
_atom_site_type_symbol
_atom_site_fract_x
_atom_site_fract_y
_atom_site_fract_z
N1 N -0.0703(2) 0.1379(2) 0.1796(2)
C1 C 0.0327(2) 0.1785(2) 0.3344(2)
C2 C -0.0107(2) 0.2438(2) 0.4765(2)
C3 C -0.1467(2) 0.2417(2) 0.4033(2)
C4 C -0.2450(2) 0.2857(2) 0.4779(3)
C5 C -0.3707(2) 0.2622(2) 0.3671(3)
C6 C -0.4009(2) 0.1951(2) 0.1827(3)
C7 C -0.3074(2) 0.1510(2) 0.1063(3)
C8 C -0.1801(2) 0.1742(2) 0.2183(2)
C9 C 0.1547(2) 0.1330(2) 0.3230(2)
O1 O 0.1555(1) 0.0403(2) 0.1870(3)
C10 C 0.2766(2) 0.1950(2) 0.4771(2)
C11 C 0.3217(1) 0.3449(2) 0.5717(2)
C12 C 0.4341(2) 0.3962(2) 0.7166(3)
C13 C 0.4998(2) 0.2996(2) 0.7705(3)
C14 C 0.4555(2) 0.1503(2) 0.6755(3)
C15 C 0.3455(2) 0.0983(2) 0.5282(3)
C16 C 0.0602(2) 0.2973(2) 0.6685(2)
C17 C 0.0752(2) 0.4430(2) 0.7704(2)
C18 C 0.1420(2) 0.4941(2) 0.9492(3)
C19 C 0.1936(2) 0.4011(3) 1.0290(3)
C20 C 0.1787(2) 0.2565(2) 0.9302(3)
C21 C 0.1114(2) 0.2042(2) 0.7503(2)
H1 H -0.0666(19) 0.0837(23) 0.0689(29)
H2 H -0.22236(19) 0.33692(20) 0.61906(26)
H3 H -0.44726(20) 0.29551(22) 0.42226(29)
H4 H -0.50048(20) 0.17810(23) 0.09958(30)
H5 H -0.33123(19) 0.10019(22) -0.03514(27)
H6 H 0.26920(18) 0.42105(20) 0.53232(24)
H7 H 0.47076(20) 0.51305(23) 0.78817(28)
H8 H 0.5856(2) 0.34011(25) 0.88637(28)
H9 H 0.50715(21) 0.07438(25) 0.71698(29)
H10 H 0.31283(19) -0.01791(22) 0.45236(26)
H11 H 0.03443(19) 0.51639(21) 0.70917(25)
H12 H 0.15377(21) 0.60731(25) 1.02689(28)
H13 H 0.24559(22) 0.44151(27) 1.16880(27)
H14 H 0.21947(21) 0.18383(25) 0.99255(26)
H15 H 0.09876(19) 0.09049(22) 0.67382(24)
#END
