####################################################################### 
# 
# This file contains crystal structure data downloaded from the 
# Cambridge Structural Database (CSD) hosted by the Cambridge 
# Crystallographic Data Centre (CCDC).
# 
# Full information about CCDC data access policies and citation 
# guidelines are available at http://www.ccdc.cam.ac.uk/access/V1 
# 
# Audit and citation data items may have been added by the CCDC. 
# Please retain this information to preserve the provenance of 
# this file and to allow appropriate attribution of the data. 
# 
#######################################################################

data_4-stm5
_audit_block_doi                 10.5517/cctsx3l
_database_code_depnum_ccdc_archive 'CCDC 768710'
loop_
_citation_id
_citation_doi
_citation_year
1 10.1016/j.ica.2010.04.015 2010
_audit_update_record             
;
2010-03-08 deposited with the CCDC.	2024-07-10 downloaded from the CCDC.
;

_audit_creation_method           SHELXL-97
_chemical_name_systematic        
;
?
;
_chemical_name_common            ?
_chemical_melting_point          ?
_chemical_formula_moiety         'C15 H24 Cl2 Fe N4 S2, C4 H10 O'
_chemical_formula_sum            'C19 H34 Cl2 Fe N4 O S2'
_chemical_formula_weight         525.37

loop_
_atom_type_symbol
_atom_type_description
_atom_type_scat_dispersion_real
_atom_type_scat_dispersion_imag
_atom_type_scat_source
C C 0.0033 0.0016 'International Tables Vol C Tables 4.2.6.8 and 6.1.1.4'
H H 0.0000 0.0000 'International Tables Vol C Tables 4.2.6.8 and 6.1.1.4'
N N 0.0061 0.0033 'International Tables Vol C Tables 4.2.6.8 and 6.1.1.4'
O O 0.0106 0.0060 'International Tables Vol C Tables 4.2.6.8 and 6.1.1.4'
S S 0.1246 0.1234 'International Tables Vol C Tables 4.2.6.8 and 6.1.1.4'
Cl Cl 0.1484 0.1585 'International Tables Vol C Tables 4.2.6.8 and 6.1.1.4'
Fe Fe 0.3463 0.8444 'International Tables Vol C Tables 4.2.6.8 and 6.1.1.4'

_symmetry_cell_setting           orthorhombic
_symmetry_space_group_name_H-M   'P c a 21'

loop_
_symmetry_equiv_pos_as_xyz
'x, y, z'
'-x, -y, z+1/2'
'x+1/2, -y, z'
'-x+1/2, y, z+1/2'

_cell_length_a                   14.0393(5)
_cell_length_b                   9.9142(5)
_cell_length_c                   18.2288(7)
_cell_angle_alpha                90.00
_cell_angle_beta                 90.00
_cell_angle_gamma                90.00
_cell_volume                     2537.24(18)
_cell_formula_units_Z            4
_cell_measurement_temperature    133(2)
_cell_measurement_reflns_used    25791
_cell_measurement_theta_min      2.51
_cell_measurement_theta_max      26.77

_exptl_crystal_description       needle
_exptl_crystal_colour            colorless
_exptl_crystal_size_max          0.50
_exptl_crystal_size_mid          0.18
_exptl_crystal_size_min          0.12
_exptl_crystal_density_meas      ?
_exptl_crystal_density_diffrn    1.375
_exptl_crystal_density_method    'not measured'
_exptl_crystal_F_000             1104
_exptl_absorpt_coefficient_mu    0.987
_exptl_absorpt_correction_type   numerical
_exptl_absorpt_correction_T_min  0.6356
_exptl_absorpt_correction_T_max  0.8237
_exptl_absorpt_process_details   'X-RED (Stoe & Cie, 2002)'

_exptl_special_details           
;
?
;

_diffrn_ambient_temperature      133(2)
_diffrn_radiation_wavelength     0.71073
_diffrn_radiation_type           MoK\a
_diffrn_radiation_source         'fine-focus sealed tube'
_diffrn_radiation_monochromator  graphite
_diffrn_measurement_device_type  'Stoe IPDS II'
_diffrn_measurement_method       \w
_diffrn_detector_area_resol_mean ?
_diffrn_standards_number         ?
_diffrn_standards_interval_count ?
_diffrn_standards_interval_time  ?
_diffrn_standards_decay_%        ?
_diffrn_reflns_number            25791
_diffrn_reflns_av_R_equivalents  0.0723
_diffrn_reflns_av_sigmaI/netI    0.0390
_diffrn_reflns_limit_h_min       -15
_diffrn_reflns_limit_h_max       17
_diffrn_reflns_limit_k_min       -12
_diffrn_reflns_limit_k_max       12
_diffrn_reflns_limit_l_min       -22
_diffrn_reflns_limit_l_max       22
_diffrn_reflns_theta_min         2.51
_diffrn_reflns_theta_max         26.77
_reflns_number_total             5126
_reflns_number_gt                4972
_reflns_threshold_expression     >2sigma(I)

_computing_data_collection       'X-AREA (Stoe & Cie, 2002)'
_computing_cell_refinement       'X-AREA (Stoe & Cie, 2002)'
_computing_data_reduction        'X-AREA (Stoe & Cie, 2002)'
_computing_structure_solution    'SHELXS-97 (Sheldrick, 1990)'
_computing_structure_refinement  'SHELXL-97 (Sheldrick, 1997)'
_computing_molecular_graphics    'DIAMOND (Brandenburg, 2001)'
_computing_publication_material  'SHELXL-97 (Sheldrick, 1997)'

_refine_special_details          
;
Refinement of F^2^ against ALL reflections. The weighted R-factor wR and
goodness of fit S are based on F^2^, conventional R-factors R are based
on F, with F set to zero for negative F^2^. The threshold expression of
F^2^ > 2sigma(F^2^) is used only for calculating R-factors(gt) etc. and is
not relevant to the choice of reflections for refinement. R-factors based
on F^2^ are statistically about twice as large as those based on F, and R-
factors based on ALL data will be even larger.
;

_refine_ls_structure_factor_coef Fsqd
_refine_ls_matrix_type           full
_refine_ls_weighting_scheme      calc
_refine_ls_weighting_details     
'calc w=1/[\s^2^(Fo^2^)+(0.0465P)^2^+0.0000P] where P=(Fo^2^+2Fc^2^)/3'
_atom_sites_solution_primary     direct
_atom_sites_solution_secondary   difmap
_atom_sites_solution_hydrogens   geom
_refine_ls_hydrogen_treatment    constr
_refine_ls_extinction_method     none
_refine_ls_extinction_coef       ?
_refine_ls_abs_structure_details 'Flack H D (1983), Acta Cryst. A39, 876-881'
_refine_ls_abs_structure_Flack   0.003(11)
_refine_ls_number_reflns         5126
_refine_ls_number_parameters     270
_refine_ls_number_restraints     1
_refine_ls_R_factor_all          0.0285
_refine_ls_R_factor_gt           0.0275
_refine_ls_wR_factor_ref         0.0684
_refine_ls_wR_factor_gt          0.0680
_refine_ls_goodness_of_fit_ref   1.030
_refine_ls_restrained_S_all      1.030
_refine_ls_shift/su_max          0.001
_refine_ls_shift/su_mean         0.000

loop_
_atom_site_label
_atom_site_type_symbol
_atom_site_fract_x
_atom_site_fract_y
_atom_site_fract_z
_atom_site_U_iso_or_equiv
_atom_site_adp_type
_atom_site_occupancy
_atom_site_symmetry_multiplicity
_atom_site_calc_flag
_atom_site_refinement_flags
_atom_site_disorder_assembly
_atom_site_disorder_group
Fe1 Fe 0.199790(18) 0.65741(2) 0.689608(16) 0.01605(7) Uani 1 1 d . . .
Cl1 Cl 0.33496(3) 0.78142(4) 0.68448(3) 0.02460(11) Uani 1 1 d . . .
Cl2 Cl 0.12640(4) 0.63392(5) 0.79942(3) 0.02494(11) Uani 1 1 d . . .
N1 N 0.37130(11) 0.33385(15) 0.68798(10) 0.0169(3) Uani 1 1 d . . .
N2 N 0.24387(13) 0.21328(15) 0.70619(9) 0.0181(3) Uani 1 1 d . . .
N3 N 0.46493(12) 0.44449(15) 0.59176(9) 0.0165(3) Uani 1 1 d . . .
N4 N 0.54377(12) 0.40706(17) 0.49076(9) 0.0174(3) Uani 1 1 d . . .
S1 S 0.21332(3) 0.44901(4) 0.62639(3) 0.01711(10) Uani 1 1 d . . .
S2 S 0.59018(3) 0.23721(4) 0.60723(3) 0.01716(10) Uani 1 1 d . . .
C1 C 0.27539(14) 0.33003(18) 0.67605(11) 0.0166(4) Uani 1 1 d . . .
C2 C 0.39920(16) 0.2203(2) 0.72624(13) 0.0234(4) Uani 1 1 d . . .
H2 H 0.4607 0.1995 0.7415 0.080 Uiso 1 1 calc R . .
C3 C 0.32075(17) 0.1457(2) 0.73713(13) 0.0243(5) Uani 1 1 d . . .
H3 H 0.3182 0.0631 0.7612 0.080 Uiso 1 1 calc R . .
C4 C 0.43553(14) 0.44366(19) 0.66845(11) 0.0175(4) Uani 1 1 d . . .
H4A H 0.4044 0.5287 0.6794 0.080 Uiso 1 1 calc R . .
H4B H 0.4919 0.4378 0.6990 0.080 Uiso 1 1 calc R . .
C5 C 0.53361(13) 0.36525(19) 0.56112(11) 0.0162(4) Uani 1 1 d . . .
C6 C 0.43254(15) 0.5366(2) 0.54038(12) 0.0209(4) Uani 1 1 d . . .
H6 H 0.3863 0.6024 0.5477 0.080 Uiso 1 1 calc R . .
C7 C 0.48073(15) 0.5129(2) 0.47788(12) 0.0212(4) Uani 1 1 d . . .
H7 H 0.4733 0.5591 0.4338 0.080 Uiso 1 1 calc R . .
C8 C 0.14139(15) 0.16569(19) 0.71102(12) 0.0203(4) Uani 1 1 d . . .
C9 C 0.08484(16) 0.2702(2) 0.75402(13) 0.0238(4) Uani 1 1 d . . .
H9A H 0.1122 0.2807 0.8019 0.080 Uiso 1 1 calc R . .
H9B H 0.0200 0.2408 0.7586 0.080 Uiso 1 1 calc R . .
H9C H 0.0867 0.3550 0.7286 0.080 Uiso 1 1 calc R . .
C10 C 0.10172(18) 0.1443(2) 0.63395(13) 0.0291(5) Uani 1 1 d . . .
H10A H 0.1050 0.2275 0.6071 0.080 Uiso 1 1 calc R . .
H10B H 0.0366 0.1153 0.6371 0.080 Uiso 1 1 calc R . .
H10C H 0.1386 0.0768 0.6091 0.080 Uiso 1 1 calc R . .
C11 C 0.13843(17) 0.0327(2) 0.75302(15) 0.0304(5) Uani 1 1 d . . .
H11A H 0.1754 -0.0337 0.7273 0.080 Uiso 1 1 calc R . .
H11B H 0.0737 0.0024 0.7569 0.080 Uiso 1 1 calc R . .
H11C H 0.1644 0.0457 0.8012 0.080 Uiso 1 1 calc R . .
C12 C 0.61058(17) 0.3494(2) 0.43348(12) 0.0218(4) Uani 1 1 d . . .
C13 C 0.71328(17) 0.3574(3) 0.46077(13) 0.0273(5) Uani 1 1 d . . .
H13A H 0.7200 0.3039 0.5043 0.080 Uiso 1 1 calc R . .
H13B H 0.7290 0.4495 0.4716 0.080 Uiso 1 1 calc R . .
H13C H 0.7554 0.3239 0.4235 0.080 Uiso 1 1 calc R . .
C14 C 0.58157(19) 0.2035(2) 0.41790(13) 0.0296(5) Uani 1 1 d . . .
H14A H 0.5973 0.1481 0.4594 0.080 Uiso 1 1 calc R . .
H14B H 0.6150 0.1714 0.3754 0.080 Uiso 1 1 calc R . .
H14C H 0.5142 0.1994 0.4091 0.080 Uiso 1 1 calc R . .
C15 C 0.60177(17) 0.4337(2) 0.36321(12) 0.0269(5) Uani 1 1 d . . .
H15A H 0.6434 0.3976 0.3263 0.080 Uiso 1 1 calc R . .
H15B H 0.6192 0.5254 0.3734 0.080 Uiso 1 1 calc R . .
H15C H 0.5372 0.4308 0.3459 0.080 Uiso 1 1 calc R . .
O1 O 0.35251(16) 0.0632(2) 0.44989(11) 0.0424(5) Uani 1 1 d . . .
C16 C 0.4617(3) -0.1185(3) 0.4457(2) 0.0600(10) Uani 1 1 d . . .
H16A H 0.4190 -0.1685 0.4149 0.080 Uiso 1 1 calc R . .
H16B H 0.4978 -0.1800 0.4755 0.080 Uiso 1 1 calc R . .
H16C H 0.5043 -0.0666 0.4158 0.080 Uiso 1 1 calc R . .
C17 C 0.4055(3) -0.0254(4) 0.49437(19) 0.0555(9) Uani 1 1 d . . .
H17A H 0.3629 -0.0773 0.5254 0.080 Uiso 1 1 calc R . .
H17B H 0.4482 0.0255 0.5257 0.080 Uiso 1 1 calc R . .
C18 C 0.2969(3) 0.1548(5) 0.4904(2) 0.0678(12) Uani 1 1 d . . .
H18A H 0.3385 0.2126 0.5190 0.080 Uiso 1 1 calc R . .
H18B H 0.2566 0.1053 0.5242 0.080 Uiso 1 1 calc R . .
C19 C 0.2375(3) 0.2379(4) 0.4427(2) 0.0654(10) Uani 1 1 d . . .
H19A H 0.2772 0.2863 0.4088 0.080 Uiso 1 1 calc R . .
H19B H 0.2020 0.3009 0.4719 0.080 Uiso 1 1 calc R . .
H19C H 0.1942 0.1813 0.4160 0.080 Uiso 1 1 calc R . .

loop_
_atom_site_aniso_label
_atom_site_aniso_U_11
_atom_site_aniso_U_22
_atom_site_aniso_U_33
_atom_site_aniso_U_23
_atom_site_aniso_U_13
_atom_site_aniso_U_12
Fe1 0.01193(13) 0.01820(12) 0.01800(14) -0.00041(10) -0.00058(11) -0.00003(9)
Cl1 0.0140(2) 0.0211(2) 0.0387(3) -0.0022(2) -0.0014(2) -0.00214(16)
Cl2 0.0227(3) 0.0356(3) 0.0166(2) -0.00096(19) 0.00001(18) -0.0037(2)
N1 0.0127(8) 0.0184(7) 0.0197(8) 0.0028(6) 0.0017(7) 0.0010(5)
N2 0.0144(8) 0.0166(7) 0.0233(9) 0.0007(6) 0.0038(6) 0.0015(6)
N3 0.0122(8) 0.0185(7) 0.0188(8) 0.0018(6) 0.0002(6) 0.0011(6)
N4 0.0145(8) 0.0201(8) 0.0177(8) 0.0000(6) -0.0007(6) -0.0004(6)
S1 0.0154(2) 0.0173(2) 0.0186(2) 0.00042(16) -0.00219(17) 0.00121(16)
S2 0.0160(2) 0.01592(19) 0.0196(2) -0.00034(17) -0.00301(17) 0.00168(16)
C1 0.0148(9) 0.0180(8) 0.0171(10) -0.0007(7) 0.0020(7) 0.0005(6)
C2 0.0148(10) 0.0249(10) 0.0305(11) 0.0088(8) 0.0019(9) 0.0039(8)
C3 0.0200(10) 0.0207(9) 0.0323(12) 0.0084(8) 0.0043(9) 0.0032(8)
C4 0.0131(9) 0.0198(8) 0.0196(10) -0.0001(7) 0.0015(7) -0.0010(7)
C5 0.0124(9) 0.0172(8) 0.0189(9) -0.0022(7) -0.0010(7) -0.0026(7)
C6 0.0167(9) 0.0229(9) 0.0231(11) 0.0048(8) -0.0011(8) 0.0044(8)
C7 0.0180(11) 0.0242(9) 0.0212(10) 0.0060(8) 0.0000(8) 0.0035(8)
C8 0.0151(9) 0.0202(9) 0.0256(11) -0.0016(7) 0.0041(8) -0.0024(7)
C9 0.0172(11) 0.0251(10) 0.0292(11) -0.0044(8) 0.0047(8) -0.0020(8)
C10 0.0283(12) 0.0312(11) 0.0277(12) -0.0051(9) 0.0013(10) -0.0113(9)
C11 0.0245(11) 0.0240(10) 0.0428(14) 0.0063(9) 0.0093(10) -0.0033(9)
C12 0.0190(11) 0.0286(11) 0.0179(10) -0.0016(7) 0.0004(8) 0.0025(8)
C13 0.0167(10) 0.0442(13) 0.0211(11) -0.0016(9) 0.0026(8) 0.0012(9)
C14 0.0370(14) 0.0279(11) 0.0238(11) -0.0062(8) -0.0018(9) 0.0018(10)
C15 0.0240(12) 0.0377(11) 0.0191(10) -0.0003(9) -0.0007(8) -0.0022(9)
O1 0.0477(12) 0.0480(11) 0.0315(9) -0.0006(8) 0.0018(8) -0.0053(9)
C16 0.078(3) 0.0291(13) 0.073(2) 0.0023(13) -0.0324(19) -0.0037(14)
C17 0.071(2) 0.0539(16) 0.0417(17) 0.0129(13) -0.0119(15) -0.0180(17)
C18 0.067(3) 0.097(3) 0.0395(19) -0.0146(17) 0.0190(16) 0.004(2)
C19 0.066(3) 0.076(2) 0.054(2) -0.0172(18) 0.0096(18) 0.016(2)

_geom_special_details            
;
All esds (except the esd in the dihedral angle between two l.s. planes)
are estimated using the full covariance matrix. The cell esds are taken
into account individually in the estimation of esds in distances, angles
and torsion angles; correlations between esds in cell parameters are only
used when they are defined by crystal symmetry. An approximate (isotropic)
treatment of cell esds is used for estimating esds involving l.s. planes.
;

loop_
_geom_bond_atom_site_label_1
_geom_bond_atom_site_label_2
_geom_bond_distance
_geom_bond_site_symmetry_2
_geom_bond_publ_flag
Fe1 Cl1 2.2631(5) . ?
Fe1 Cl2 2.2633(6) . ?
Fe1 S1 2.3733(5) . ?
Fe1 S2 2.3906(5) 3_465 ?
N1 C1 1.364(2) . ?
N1 C2 1.381(3) . ?
N1 C4 1.458(2) . ?
N2 C1 1.355(2) . ?
N2 C3 1.390(3) . ?
N2 C8 1.517(3) . ?
N3 C5 1.363(3) . ?
N3 C6 1.385(3) . ?
N3 C4 1.458(3) . ?
N4 C5 1.355(3) . ?
N4 C7 1.393(3) . ?
N4 C12 1.516(3) . ?
S1 C1 1.7235(19) . ?
S2 C5 1.717(2) . ?
S2 Fe1 2.3906(5) 3_565 ?
C2 C3 1.341(3) . ?
C6 C7 1.346(3) . ?
C8 C9 1.523(3) . ?
C8 C11 1.525(3) . ?
C8 C10 1.526(3) . ?
C12 C13 1.527(3) . ?
C12 C14 1.529(3) . ?
C12 C15 1.535(3) . ?
O1 C18 1.407(4) . ?
O1 C17 1.407(4) . ?
C16 C17 1.504(6) . ?
C18 C19 1.460(6) . ?

loop_
_geom_angle_atom_site_label_1
_geom_angle_atom_site_label_2
_geom_angle_atom_site_label_3
_geom_angle
_geom_angle_site_symmetry_1
_geom_angle_site_symmetry_3
_geom_angle_publ_flag
Cl1 Fe1 Cl2 118.30(2) . . ?
Cl1 Fe1 S1 112.69(2) . . ?
Cl2 Fe1 S1 112.10(2) . . ?
Cl1 Fe1 S2 106.04(2) . 3_465 ?
Cl2 Fe1 S2 107.91(2) . 3_465 ?
S1 Fe1 S2 97.295(19) . 3_465 ?
C1 N1 C2 109.74(16) . . ?
C1 N1 C4 126.31(16) . . ?
C2 N1 C4 123.83(17) . . ?
C1 N2 C3 108.81(17) . . ?
C1 N2 C8 126.79(17) . . ?
C3 N2 C8 124.27(17) . . ?
C5 N3 C6 109.59(16) . . ?
C5 N3 C4 126.14(16) . . ?
C6 N3 C4 124.00(16) . . ?
C5 N4 C7 108.85(17) . . ?
C5 N4 C12 126.99(17) . . ?
C7 N4 C12 124.16(17) . . ?
C1 S1 Fe1 112.41(7) . . ?
C5 S2 Fe1 106.38(6) . 3_565 ?
N2 C1 N1 106.34(16) . . ?
N2 C1 S1 129.21(16) . . ?
N1 C1 S1 124.32(14) . . ?
C3 C2 N1 106.93(19) . . ?
C2 C3 N2 108.18(18) . . ?
N3 C4 N1 114.43(16) . . ?
N4 C5 N3 106.61(16) . . ?
N4 C5 S2 129.83(15) . . ?
N3 C5 S2 123.55(14) . . ?
C7 C6 N3 106.99(18) . . ?
C6 C7 N4 107.96(18) . . ?
N2 C8 C9 108.23(16) . . ?
N2 C8 C11 108.90(17) . . ?
C9 C8 C11 108.39(18) . . ?
N2 C8 C10 109.63(17) . . ?
C9 C8 C10 112.21(19) . . ?
C11 C8 C10 109.41(18) . . ?
N4 C12 C13 109.88(17) . . ?
N4 C12 C14 108.67(18) . . ?
C13 C12 C14 111.19(19) . . ?
N4 C12 C15 108.64(17) . . ?
C13 C12 C15 108.63(19) . . ?
C14 C12 C15 109.80(19) . . ?
C18 O1 C17 113.2(3) . . ?
O1 C17 C16 108.7(3) . . ?
O1 C18 C19 111.7(3) . . ?

_diffrn_measured_fraction_theta_max 0.949
_diffrn_reflns_theta_full        25.50
_diffrn_measured_fraction_theta_full 0.948
_refine_diff_density_max         0.359
_refine_diff_density_min         -0.214
_refine_diff_density_rms         0.054
