####################################################################### 
# 
# This file contains crystal structure data downloaded from the 
# Cambridge Structural Database (CSD) hosted by the Cambridge 
# Crystallographic Data Centre (CCDC).
# 
# Full information about CCDC data access policies and citation 
# guidelines are available at http://www.ccdc.cam.ac.uk/access/V1 
# 
# Audit and citation data items may have been added by the CCDC. 
# Please retain this information to preserve the provenance of 
# this file and to allow appropriate attribution of the data. 
# 
#######################################################################

data_yk343p21c
_audit_block_doi                 10.5517/cct84sz
_database_code_depnum_ccdc_archive 'CCDC 752611'
loop_
_citation_id
_citation_doi
_citation_year
1 10.1016/j.inoche.2010.03.039 2010
_audit_update_record             
;
2009-10-28 deposited with the CCDC.	2024-07-10 downloaded from the CCDC.
;

_audit_creation_method           SHELXL-97
_chemical_name_systematic        
;
?
;
_chemical_name_common            ?
_chemical_melting_point          ?
_chemical_formula_moiety         ?
_chemical_formula_sum            'C20 H22 Cu N6 O4 S'
_chemical_formula_weight         506.04

loop_
_atom_type_symbol
_atom_type_description
_atom_type_scat_dispersion_real
_atom_type_scat_dispersion_imag
_atom_type_scat_source
C C 0.0033 0.0016 'International Tables Vol C Tables 4.2.6.8 and 6.1.1.4'
H H 0.0000 0.0000 'International Tables Vol C Tables 4.2.6.8 and 6.1.1.4'
N N 0.0061 0.0033 'International Tables Vol C Tables 4.2.6.8 and 6.1.1.4'
O O 0.0106 0.0060 'International Tables Vol C Tables 4.2.6.8 and 6.1.1.4'
Cu Cu 0.3201 1.2651 'International Tables Vol C Tables 4.2.6.8 and 6.1.1.4'
S S 0.1246 0.1234 'International Tables Vol C Tables 4.2.6.8 and 6.1.1.4'

_symmetry_cell_setting           Monoclinic
_symmetry_space_group_name_H-M   P2(1)/c

loop_
_symmetry_equiv_pos_as_xyz
'x, y, z'
'-x, y+1/2, -z+1/2'
'-x, -y, -z'
'x, -y-1/2, z-1/2'

_cell_length_a                   13.9851(11)
_cell_length_b                   9.7932(8)
_cell_length_c                   16.0191(13)
_cell_angle_alpha                90.00
_cell_angle_beta                 100.780(2)
_cell_angle_gamma                90.00
_cell_volume                     2155.2(3)
_cell_formula_units_Z            4
_cell_measurement_temperature    293(2)
_cell_measurement_reflns_used    2547
_cell_measurement_theta_min      2.45
_cell_measurement_theta_max      21.69

_exptl_crystal_description       'dark purple'
_exptl_crystal_colour            block
_exptl_crystal_size_max          0.20
_exptl_crystal_size_mid          0.20
_exptl_crystal_size_min          0.15
_exptl_crystal_density_meas      ?
_exptl_crystal_density_diffrn    1.560
_exptl_crystal_density_method    'not measured'
_exptl_crystal_F_000             1044
_exptl_absorpt_coefficient_mu    1.151
_exptl_absorpt_correction_type   none
_exptl_absorpt_correction_T_min  ?
_exptl_absorpt_correction_T_max  ?
_exptl_absorpt_process_details   ?

_exptl_special_details           
;
?
;

_diffrn_ambient_temperature      293(2)
_diffrn_radiation_wavelength     0.71073
_diffrn_radiation_type           MoK\a
_diffrn_radiation_source         'fine-focus sealed tube'
_diffrn_radiation_monochromator  graphite
_diffrn_measurement_device_type  'CCD area detector'
_diffrn_measurement_method       'phi and omega scans'
_diffrn_detector_area_resol_mean ?
_diffrn_standards_number         ?
_diffrn_standards_interval_count ?
_diffrn_standards_interval_time  ?
_diffrn_standards_decay_%        ?
_diffrn_reflns_number            11669
_diffrn_reflns_av_R_equivalents  0.0516
_diffrn_reflns_av_sigmaI/netI    0.0813
_diffrn_reflns_limit_h_min       -15
_diffrn_reflns_limit_h_max       17
_diffrn_reflns_limit_k_min       -12
_diffrn_reflns_limit_k_max       11
_diffrn_reflns_limit_l_min       -16
_diffrn_reflns_limit_l_max       19
_diffrn_reflns_theta_min         2.45
_diffrn_reflns_theta_max         26.00
_reflns_number_total             4214
_reflns_number_gt                2622
_reflns_threshold_expression     >2sigma(I)

_computing_data_collection       'Bruker SMART'
_computing_cell_refinement       'Bruker SMART'
_computing_data_reduction        'Bruker SAINT'
_computing_structure_solution    'SHELXS-97 (Sheldrick, 1990)'
_computing_structure_refinement  'SHELXL-97 (Sheldrick, 1997)'
_computing_molecular_graphics    'Bruker SHELXTL'
_computing_publication_material  'Bruker SHELXTL'

_refine_special_details          
;
Refinement of F^2^ against ALL reflections. The weighted R-factor wR and
goodness of fit S are based on F^2^, conventional R-factors R are based
on F, with F set to zero for negative F^2^. The threshold expression of
F^2^ > 2sigma(F^2^) is used only for calculating R-factors(gt) etc. and is
not relevant to the choice of reflections for refinement. R-factors based
on F^2^ are statistically about twice as large as those based on F, and R-
factors based on ALL data will be even larger.
;

_refine_ls_structure_factor_coef Fsqd
_refine_ls_matrix_type           full
_refine_ls_weighting_scheme      calc
_refine_ls_weighting_details     
'calc w=1/[\s^2^(Fo^2^)+(0.0662P)^2^+0.0000P] where P=(Fo^2^+2Fc^2^)/3'
_atom_sites_solution_primary     direct
_atom_sites_solution_secondary   difmap
_atom_sites_solution_hydrogens   geom
_refine_ls_hydrogen_treatment    mixed
_refine_ls_extinction_method     none
_refine_ls_extinction_coef       ?
_refine_ls_number_reflns         4214
_refine_ls_number_parameters     299
_refine_ls_number_restraints     2
_refine_ls_R_factor_all          0.0695
_refine_ls_R_factor_gt           0.0484
_refine_ls_wR_factor_ref         0.1271
_refine_ls_wR_factor_gt          0.1232
_refine_ls_goodness_of_fit_ref   0.934
_refine_ls_restrained_S_all      0.934
_refine_ls_shift/su_max          0.000
_refine_ls_shift/su_mean         0.000

loop_
_atom_site_label
_atom_site_type_symbol
_atom_site_fract_x
_atom_site_fract_y
_atom_site_fract_z
_atom_site_U_iso_or_equiv
_atom_site_adp_type
_atom_site_occupancy
_atom_site_symmetry_multiplicity
_atom_site_calc_flag
_atom_site_refinement_flags
_atom_site_disorder_assembly
_atom_site_disorder_group
Cu1 Cu -0.03874(3) 0.64131(5) 0.08463(3) 0.03460(18) Uani 1 1 d . . .
N1 N -0.0387(2) 0.4865(3) 0.16974(18) 0.0325(7) Uani 1 1 d . . .
N2 N 0.0918(2) 0.5802(3) 0.08719(18) 0.0329(7) Uani 1 1 d . . .
N3 N -0.0089(2) 0.7608(3) -0.00285(19) 0.0362(8) Uani 1 1 d . . .
N4 N -0.1747(2) 0.7130(3) 0.04339(19) 0.0397(8) Uani 1 1 d . . .
N5 N -0.0056(2) 0.7895(3) 0.20376(19) 0.0383(8) Uani 1 1 d . . .
N6 N -0.3469(3) 0.8417(5) -0.0330(3) 0.0746(13) Uani 1 1 d . . .
O1 O 0.20780(19) 0.4213(3) 0.15045(17) 0.0459(7) Uani 1 1 d . . .
O2 O -0.0796(2) 0.9185(3) -0.1042(2) 0.0679(10) Uani 1 1 d . . .
C1 C 0.1037(3) 0.9454(4) 0.2849(2) 0.0390(10) Uani 1 1 d . . .
H1 H 0.1659 0.9828 0.2959 0.047 Uiso 1 1 calc R . .
C2 C 0.0811(3) 0.8485(4) 0.2218(2) 0.0405(10) Uani 1 1 d . . .
H2 H 0.1284 0.8238 0.1908 0.049 Uiso 1 1 calc R . .
C3 C 0.0709(3) 0.3285(4) 0.2498(2) 0.0378(10) Uani 1 1 d . . .
H3 H 0.1322 0.2881 0.2600 0.045 Uiso 1 1 calc R . .
C4 C 0.0504(3) 0.4274(4) 0.1869(2) 0.0331(9) Uani 1 1 d . . .
C5 C 0.1263(3) 0.4757(4) 0.1388(2) 0.0337(9) Uani 1 1 d . . .
C6 C 0.1432(3) 0.6526(4) 0.0333(2) 0.0332(9) Uani 1 1 d . . .
C7 C 0.2386(3) 0.6347(4) 0.0252(2) 0.0403(10) Uani 1 1 d . . .
H7 H 0.2763 0.5692 0.0582 0.048 Uiso 1 1 calc R . .
C8 C 0.2799(3) 0.7129(5) -0.0317(3) 0.0471(11) Uani 1 1 d . . .
C9 C 0.2224(3) 0.8130(5) -0.0813(3) 0.0475(11) Uani 1 1 d . . .
C10 C 0.1292(3) 0.8309(4) -0.0721(3) 0.0430(10) Uani 1 1 d . . .
H10 H 0.0922 0.8974 -0.1047 0.052 Uiso 1 1 calc R . .
C11 C 0.0858(3) 0.7539(4) -0.0157(2) 0.0351(9) Uani 1 1 d . . .
C12 C -0.0816(3) 0.8376(4) -0.0462(3) 0.0422(10) Uani 1 1 d . . .
C13 C -0.1753(3) 0.8091(4) -0.0176(2) 0.0416(10) Uani 1 1 d . . .
C14 C -0.2609(4) 0.8724(5) -0.0533(3) 0.0609(13) Uani 1 1 d . . .
H14 H -0.2589 0.9401 -0.0937 0.073 Uiso 1 1 calc R . .
C15 C -0.3446(3) 0.7445(6) 0.0248(3) 0.0704(15) Uani 1 1 d . . .
H15 H -0.4028 0.7177 0.0399 0.084 Uiso 1 1 calc R . .
C16 C -0.2602(3) 0.6812(5) 0.0634(3) 0.0511(12) Uani 1 1 d . . .
H16 H -0.2628 0.6147 0.1044 0.061 Uiso 1 1 calc R . .
C17 C 0.3857(3) 0.6797(6) -0.0381(3) 0.0827(19) Uani 1 1 d . . .
H17A H 0.4108 0.6112 0.0031 0.124 Uiso 1 1 calc R . .
H17B H 0.4246 0.7608 -0.0274 0.124 Uiso 1 1 calc R . .
H17C H 0.3879 0.6462 -0.0941 0.124 Uiso 1 1 calc R . .
C18 C 0.2644(4) 0.8997(5) -0.1443(3) 0.0761(16) Uani 1 1 d . . .
H18A H 0.2196 0.9717 -0.1651 0.114 Uiso 1 1 calc R . .
H18B H 0.2749 0.8438 -0.1910 0.114 Uiso 1 1 calc R . .
H18C H 0.3251 0.9385 -0.1167 0.114 Uiso 1 1 calc R . .
O1S O 0.3387(2) 0.9651(4) 0.2522(3) 0.0960(13) Uani 1 1 d . . .
S1S S 0.43209(11) 0.89147(15) 0.25290(10) 0.0776(4) Uani 1 1 d . . .
C2S C 0.4565(5) 0.8994(8) 0.1503(4) 0.125(3) Uani 1 1 d . . .
H2S1 H 0.4062 0.8525 0.1119 0.187 Uiso 1 1 calc R . .
H2S2 H 0.5181 0.8570 0.1492 0.187 Uiso 1 1 calc R . .
H2S3 H 0.4586 0.9932 0.1332 0.187 Uiso 1 1 calc R . .
C1S C 0.5274(4) 0.9991(7) 0.3018(5) 0.130(3) Uani 1 1 d . . .
H1S1 H 0.5182 1.0888 0.2774 0.195 Uiso 1 1 calc R . .
H1S2 H 0.5885 0.9629 0.2930 0.195 Uiso 1 1 calc R . .
H1S3 H 0.5274 1.0043 0.3616 0.195 Uiso 1 1 calc R . .
O2S O 0.3288(3) 0.2498(5) 0.2646(3) 0.0976(13) Uani 1 1 d D . .
H2B H 0.310(5) 0.160(2) 0.253(4) 0.117 Uiso 1 1 d D . .
H2A H 0.290(4) 0.307(5) 0.226(3) 0.117 Uiso 1 1 d D . .

loop_
_atom_site_aniso_label
_atom_site_aniso_U_11
_atom_site_aniso_U_22
_atom_site_aniso_U_33
_atom_site_aniso_U_23
_atom_site_aniso_U_13
_atom_site_aniso_U_12
Cu1 0.0376(3) 0.0348(3) 0.0319(3) 0.0045(2) 0.0077(2) 0.0043(2)
N1 0.0350(18) 0.0330(18) 0.0301(18) -0.0013(14) 0.0077(14) -0.0007(14)
N2 0.0358(18) 0.0363(18) 0.0277(17) 0.0042(14) 0.0084(14) -0.0010(14)
N3 0.0414(19) 0.0341(18) 0.0336(18) 0.0053(15) 0.0084(15) 0.0053(15)
N4 0.042(2) 0.042(2) 0.0349(19) -0.0033(16) 0.0048(16) 0.0056(16)
N5 0.049(2) 0.0349(19) 0.0327(18) -0.0025(15) 0.0116(16) 0.0001(16)
N6 0.057(3) 0.096(4) 0.067(3) 0.019(3) 0.005(2) 0.027(2)
O1 0.0400(17) 0.0507(18) 0.0490(18) 0.0130(14) 0.0131(14) 0.0134(14)
O2 0.076(2) 0.069(2) 0.061(2) 0.0357(18) 0.0195(18) 0.0207(18)
C1 0.039(2) 0.040(2) 0.038(2) -0.0008(19) 0.0095(19) -0.0030(18)
C2 0.046(3) 0.039(2) 0.039(2) -0.001(2) 0.016(2) 0.002(2)
C3 0.046(2) 0.035(2) 0.034(2) 0.0028(17) 0.010(2) 0.0047(18)
C4 0.043(2) 0.030(2) 0.027(2) -0.0026(17) 0.0076(18) -0.0003(18)
C5 0.039(2) 0.034(2) 0.028(2) -0.0029(17) 0.0063(18) -0.0014(18)
C6 0.041(2) 0.034(2) 0.026(2) -0.0007(17) 0.0087(17) 0.0000(18)
C7 0.040(2) 0.045(2) 0.036(2) 0.006(2) 0.0074(18) 0.0031(19)
C8 0.049(3) 0.057(3) 0.039(2) 0.000(2) 0.018(2) -0.008(2)
C9 0.059(3) 0.049(3) 0.038(2) 0.003(2) 0.017(2) -0.008(2)
C10 0.056(3) 0.036(2) 0.037(2) 0.0080(18) 0.011(2) 0.002(2)
C11 0.047(2) 0.027(2) 0.033(2) -0.0025(17) 0.0105(19) 0.0003(17)
C12 0.055(3) 0.035(2) 0.036(2) 0.0032(19) 0.007(2) 0.008(2)
C13 0.046(3) 0.043(2) 0.035(2) -0.0019(19) 0.004(2) 0.011(2)
C14 0.058(3) 0.068(3) 0.053(3) 0.012(2) 0.003(2) 0.021(3)
C15 0.042(3) 0.097(4) 0.071(4) 0.004(3) 0.005(3) 0.010(3)
C16 0.040(3) 0.065(3) 0.048(3) 0.006(2) 0.008(2) 0.008(2)
C17 0.051(3) 0.147(5) 0.059(3) -0.032(3) 0.033(3) -0.041(3)
C18 0.082(4) 0.083(4) 0.072(4) 0.026(3) 0.035(3) -0.010(3)
O1S 0.074(3) 0.094(3) 0.122(3) 0.022(3) 0.021(2) 0.018(2)
S1S 0.0787(10) 0.0679(10) 0.0835(11) 0.0086(7) 0.0078(8) 0.0063(7)
C2S 0.114(6) 0.184(8) 0.075(4) 0.007(5) 0.014(4) 0.055(5)
C1S 0.093(5) 0.128(6) 0.169(7) -0.052(6) 0.023(5) -0.019(4)
O2S 0.100(3) 0.097(3) 0.085(3) 0.011(3) -0.010(2) 0.022(3)

_geom_special_details            
;
All esds (except the esd in the dihedral angle between two l.s. planes)
are estimated using the full covariance matrix. The cell esds are taken
into account individually in the estimation of esds in distances, angles
and torsion angles; correlations between esds in cell parameters are only
used when they are defined by crystal symmetry. An approximate (isotropic)
treatment of cell esds is used for estimating esds involving l.s. planes.
;

loop_
_geom_bond_atom_site_label_1
_geom_bond_atom_site_label_2
_geom_bond_distance
_geom_bond_site_symmetry_2
_geom_bond_publ_flag
Cu1 N2 1.914(3) . ?
Cu1 N3 1.930(3) . ?
Cu1 N4 2.019(3) . ?
Cu1 N1 2.039(3) . ?
Cu1 N5 2.373(3) . ?
N1 C1 1.328(4) 2_545 ?
N1 C4 1.355(4) . ?
N2 C5 1.348(5) . ?
N2 C6 1.413(5) . ?
N3 C12 1.348(5) . ?
N3 C11 1.380(5) . ?
N4 C16 1.330(5) . ?
N4 C13 1.357(5) . ?
N5 C2 1.326(5) . ?
N5 C3 1.337(5) 2 ?
N6 C15 1.324(6) . ?
N6 C14 1.339(6) . ?
O1 C5 1.239(4) . ?
O2 C12 1.226(5) . ?
C1 N1 1.328(4) 2 ?
C1 C2 1.378(5) . ?
C1 H1 0.9300 . ?
C2 H2 0.9300 . ?
C3 N5 1.337(5) 2_545 ?
C3 C4 1.389(5) . ?
C3 H3 0.9300 . ?
C4 C5 1.500(5) . ?
C6 C7 1.376(5) . ?
C6 C11 1.417(5) . ?
C7 C8 1.395(5) . ?
C7 H7 0.9300 . ?
C8 C9 1.415(6) . ?
C8 C17 1.538(6) . ?
C9 C10 1.349(6) . ?
C9 C18 1.519(6) . ?
C10 C11 1.399(5) . ?
C10 H10 0.9300 . ?
C12 C13 1.493(6) . ?
C13 C14 1.373(6) . ?
C14 H14 0.9300 . ?
C15 C16 1.373(6) . ?
C15 H15 0.9300 . ?
C16 H16 0.9300 . ?
C17 H17A 0.9600 . ?
C17 H17B 0.9600 . ?
C17 H17C 0.9600 . ?
C18 H18A 0.9600 . ?
C18 H18B 0.9600 . ?
C18 H18C 0.9600 . ?
O1S S1S 1.490(4) . ?
S1S C2S 1.742(6) . ?
S1S C1S 1.764(6) . ?
C2S H2S1 0.9600 . ?
C2S H2S2 0.9600 . ?
C2S H2S3 0.9600 . ?
C1S H1S1 0.9600 . ?
C1S H1S2 0.9600 . ?
C1S H1S3 0.9600 . ?
O2S H2B 0.93(3) . ?
O2S H2A 0.93(5) . ?

loop_
_geom_angle_atom_site_label_1
_geom_angle_atom_site_label_2
_geom_angle_atom_site_label_3
_geom_angle
_geom_angle_site_symmetry_1
_geom_angle_site_symmetry_3
_geom_angle_publ_flag
N2 Cu1 N3 82.55(13) . . ?
N2 Cu1 N4 162.16(12) . . ?
N3 Cu1 N4 82.53(13) . . ?
N2 Cu1 N1 82.67(12) . . ?
N3 Cu1 N1 164.41(13) . . ?
N4 Cu1 N1 111.07(13) . . ?
N2 Cu1 N5 97.58(12) . . ?
N3 Cu1 N5 100.20(12) . . ?
N4 Cu1 N5 94.64(12) . . ?
N1 Cu1 N5 86.64(11) . . ?
C1 N1 C4 117.2(3) 2_545 . ?
C1 N1 Cu1 132.6(3) 2_545 . ?
C4 N1 Cu1 109.7(2) . . ?
C5 N2 C6 126.2(3) . . ?
C5 N2 Cu1 118.8(2) . . ?
C6 N2 Cu1 115.0(2) . . ?
C12 N3 C11 127.1(3) . . ?
C12 N3 Cu1 117.9(3) . . ?
C11 N3 Cu1 115.0(2) . . ?
C16 N4 C13 116.8(4) . . ?
C16 N4 Cu1 132.3(3) . . ?
C13 N4 Cu1 110.8(3) . . ?
C2 N5 C3 116.5(3) . 2 ?
C2 N5 Cu1 118.4(3) . . ?
C3 N5 Cu1 124.8(3) 2 . ?
C15 N6 C14 115.2(4) . . ?
N1 C1 C2 121.5(4) 2 . ?
N1 C1 H1 119.2 2 . ?
C2 C1 H1 119.2 . . ?
N5 C2 C1 122.4(4) . . ?
N5 C2 H2 118.8 . . ?
C1 C2 H2 118.8 . . ?
N5 C3 C4 122.2(4) 2_545 . ?
N5 C3 H3 118.9 2_545 . ?
C4 C3 H3 118.9 . . ?
N1 C4 C3 120.1(3) . . ?
N1 C4 C5 118.3(3) . . ?
C3 C4 C5 121.5(3) . . ?
O1 C5 N2 129.3(3) . . ?
O1 C5 C4 120.4(3) . . ?
N2 C5 C4 110.3(3) . . ?
C7 C6 N2 127.4(3) . . ?
C7 C6 C11 119.7(3) . . ?
N2 C6 C11 112.9(3) . . ?
C6 C7 C8 121.2(4) . . ?
C6 C7 H7 119.4 . . ?
C8 C7 H7 119.4 . . ?
C7 C8 C9 119.1(4) . . ?
C7 C8 C17 116.6(4) . . ?
C9 C8 C17 124.2(4) . . ?
C10 C9 C8 119.1(4) . . ?
C10 C9 C18 120.1(4) . . ?
C8 C9 C18 120.7(4) . . ?
C9 C10 C11 123.1(4) . . ?
C9 C10 H10 118.5 . . ?
C11 C10 H10 118.5 . . ?
N3 C11 C10 127.9(3) . . ?
N3 C11 C6 114.3(3) . . ?
C10 C11 C6 117.7(4) . . ?
O2 C12 N3 129.0(4) . . ?
O2 C12 C13 119.9(4) . . ?
N3 C12 C13 111.0(3) . . ?
N4 C13 C14 120.1(4) . . ?
N4 C13 C12 117.6(3) . . ?
C14 C13 C12 122.3(4) . . ?
N6 C14 C13 123.3(4) . . ?
N6 C14 H14 118.3 . . ?
C13 C14 H14 118.3 . . ?
N6 C15 C16 123.1(5) . . ?
N6 C15 H15 118.5 . . ?
C16 C15 H15 118.5 . . ?
N4 C16 C15 121.4(4) . . ?
N4 C16 H16 119.3 . . ?
C15 C16 H16 119.3 . . ?
C8 C17 H17A 109.5 . . ?
C8 C17 H17B 109.5 . . ?
H17A C17 H17B 109.5 . . ?
C8 C17 H17C 109.5 . . ?
H17A C17 H17C 109.5 . . ?
H17B C17 H17C 109.5 . . ?
C9 C18 H18A 109.5 . . ?
C9 C18 H18B 109.5 . . ?
H18A C18 H18B 109.5 . . ?
C9 C18 H18C 109.5 . . ?
H18A C18 H18C 109.5 . . ?
H18B C18 H18C 109.5 . . ?
O1S S1S C2S 107.3(3) . . ?
O1S S1S C1S 107.6(3) . . ?
C2S S1S C1S 97.3(4) . . ?
S1S C2S H2S1 109.5 . . ?
S1S C2S H2S2 109.5 . . ?
H2S1 C2S H2S2 109.5 . . ?
S1S C2S H2S3 109.5 . . ?
H2S1 C2S H2S3 109.5 . . ?
H2S2 C2S H2S3 109.5 . . ?
S1S C1S H1S1 109.5 . . ?
S1S C1S H1S2 109.5 . . ?
H1S1 C1S H1S2 109.5 . . ?
S1S C1S H1S3 109.5 . . ?
H1S1 C1S H1S3 109.5 . . ?
H1S2 C1S H1S3 109.5 . . ?
H2B O2S H2A 109(6) . . ?

loop_
_geom_torsion_atom_site_label_1
_geom_torsion_atom_site_label_2
_geom_torsion_atom_site_label_3
_geom_torsion_atom_site_label_4
_geom_torsion
_geom_torsion_site_symmetry_1
_geom_torsion_site_symmetry_2
_geom_torsion_site_symmetry_3
_geom_torsion_site_symmetry_4
_geom_torsion_publ_flag
N2 Cu1 N1 C1 175.2(3) . . . 2_545 ?
N3 Cu1 N1 C1 -166.2(4) . . . 2_545 ?
N4 Cu1 N1 C1 -16.6(4) . . . 2_545 ?
N5 Cu1 N1 C1 77.1(3) . . . 2_545 ?
N2 Cu1 N1 C4 3.0(2) . . . . ?
N3 Cu1 N1 C4 21.6(6) . . . . ?
N4 Cu1 N1 C4 171.2(2) . . . . ?
N5 Cu1 N1 C4 -95.1(2) . . . . ?
N3 Cu1 N2 C5 -176.3(3) . . . . ?
N4 Cu1 N2 C5 -142.9(4) . . . . ?
N1 Cu1 N2 C5 -1.3(3) . . . . ?
N5 Cu1 N2 C5 84.3(3) . . . . ?
N3 Cu1 N2 C6 4.0(2) . . . . ?
N4 Cu1 N2 C6 37.5(6) . . . . ?
N1 Cu1 N2 C6 179.1(3) . . . . ?
N5 Cu1 N2 C6 -95.3(2) . . . . ?
N2 Cu1 N3 C12 173.3(3) . . . . ?
N4 Cu1 N3 C12 3.1(3) . . . . ?
N1 Cu1 N3 C12 154.6(4) . . . . ?
N5 Cu1 N3 C12 -90.3(3) . . . . ?
N2 Cu1 N3 C11 -4.7(3) . . . . ?
N4 Cu1 N3 C11 -174.9(3) . . . . ?
N1 Cu1 N3 C11 -23.4(6) . . . . ?
N5 Cu1 N3 C11 91.7(3) . . . . ?
N2 Cu1 N4 C16 141.2(4) . . . . ?
N3 Cu1 N4 C16 174.7(4) . . . . ?
N1 Cu1 N4 C16 2.5(4) . . . . ?
N5 Cu1 N4 C16 -85.6(4) . . . . ?
N2 Cu1 N4 C13 -37.0(6) . . . . ?
N3 Cu1 N4 C13 -3.5(3) . . . . ?
N1 Cu1 N4 C13 -175.6(2) . . . . ?
N5 Cu1 N4 C13 96.2(3) . . . . ?
N2 Cu1 N5 C2 29.3(3) . . . . ?
N3 Cu1 N5 C2 -54.5(3) . . . . ?
N4 Cu1 N5 C2 -137.7(3) . . . . ?
N1 Cu1 N5 C2 111.4(3) . . . . ?
N2 Cu1 N5 C3 -157.2(3) . . . 2 ?
N3 Cu1 N5 C3 119.0(3) . . . 2 ?
N4 Cu1 N5 C3 35.8(3) . . . 2 ?
N1 Cu1 N5 C3 -75.1(3) . . . 2 ?
C3 N5 C2 C1 -0.1(6) 2 . . . ?
Cu1 N5 C2 C1 174.0(3) . . . . ?
N1 C1 C2 N5 -1.1(6) 2 . . . ?
C1 N1 C4 C3 -0.2(5) 2_545 . . . ?
Cu1 N1 C4 C3 173.4(3) . . . . ?
C1 N1 C4 C5 -177.7(3) 2_545 . . . ?
Cu1 N1 C4 C5 -4.2(4) . . . . ?
N5 C3 C4 N1 -1.0(6) 2_545 . . . ?
N5 C3 C4 C5 176.5(3) 2_545 . . . ?
C6 N2 C5 O1 0.0(6) . . . . ?
Cu1 N2 C5 O1 -179.6(3) . . . . ?
C6 N2 C5 C4 179.0(3) . . . . ?
Cu1 N2 C5 C4 -0.5(4) . . . . ?
N1 C4 C5 O1 -17