
#######################################################################
#
#                 Cambridge Crystallographic Data Centre
#                                CCDC
#
#######################################################################
#
# If this CIF has been generated from an entry in the Cambridge
# Structural Database, then it will include bibliographic, chemical,
# crystal, experimental, refinement or atomic coordinate data resulting
# from the CCDC's data processing and validation procedures.
#
#######################################################################

data_CSD_CIF_GAGSIR
_audit_creation_date 2005-02-28
_audit_creation_method CSD-ConQuest-V1
_database_code_CSD GAGSIR
_database_code_depnum_ccdc_archive 'CCDC 227808'
_chemical_formula_sum 'C11 H8 O3'
_chemical_formula_moiety
;
C11 H8 O3
;
_journal_coden_Cambridge 1147
_journal_volume 4
_journal_year 2004
_journal_page_first 1105
_journal_name_full 'Cryst.Growth Des. '
loop_
_publ_author_name
"P.Munshi"
"K.N.Venugopala"
"B.S.Jayashree"
"T.N.G.Row"
_chemical_name_systematic
;
3-Acetyl-2H-1-benzopyran-2-one
;
_chemical_name_common
;
3-Acetylcoumarin; Teaching Subset: Fundamental Chemistry
;
_chemical_melting_point 397
_cell_volume    855.592
_exptl_crystal_colour 'pale yellow'
_exptl_crystal_density_diffrn 1.461
_exptl_special_details
;
triclinic polymorph A

;
_exptl_crystal_description 'prism'
_exptl_crystal_preparation 'chloroform/n-hexane'
_diffrn_ambient_temperature 90.0
#These two values have been output from a single CSD field.
_refine_ls_R_factor_gt 0.0353
_refine_ls_wR_factor_gt 0.0353
_symmetry_cell_setting triclinic
_symmetry_space_group_name_H-M 'P -1'
_symmetry_Int_Tables_number 2
loop_
_symmetry_equiv_pos_site_id
_symmetry_equiv_pos_as_xyz
1 x,y,z
2 -x,-y,-z
_cell_length_a 7.496(4)
_cell_length_b 9.653(6)
_cell_length_c 12.002(7)
_cell_angle_alpha 85.740(9)
_cell_angle_beta 86.097(9)
_cell_angle_gamma 81.728(9)
_cell_formula_units_Z 4
loop_
_atom_type_symbol
_atom_type_radius_bond
C 0.68
H 0.23
O 0.68
loop_
_atom_site_label
_atom_site_type_symbol
_atom_site_fract_x
_atom_site_fract_y
_atom_site_fract_z
O1 O 0.43664(10) 0.17806(8) 0.32473(6)
C1 C 0.48895(15) -0.05097(12) 0.26168(9)
O2 O 0.38426(12) 0.39916(8) 0.36540(7)
C2 C 0.30310(14) -0.00561(11) 0.43400(9)
O3 O 0.07762(11) 0.29001(9) 0.65991(7)
C3 C 0.40895(14) 0.03961(11) 0.34123(9)
C4 C 0.35886(14) 0.28056(11) 0.39488(9)
C5 C 0.25576(14) 0.23306(11) 0.49576(9)
C6 C 0.22898(14) 0.09648(11) 0.51158(9)
C7 C 0.17487(14) 0.33283(12) 0.58273(9)
C8 C 0.45950(15) -0.19045(12) 0.27534(9)
C9 C 0.35330(15) -0.23913(12) 0.36667(10)
C10 C 0.27628(14) -0.14781(11) 0.44634(9)
C11 C 0.21564(18) 0.48158(13) 0.57389(11)
H1 H 0.3345(19) -0.3379(16) 0.3711(12)
H2 H 0.5110(19) -0.2554(15) 0.2229(12)
H3 H 0.157(2) 0.0681(16) 0.5758(14)
H4 H 0.2030(19) -0.1803(15) 0.5100(13)
H5 H 0.5610(19) -0.0188(14) 0.1962(12)
H6 H 0.164(2) 0.5332(16) 0.5046(13)
H7 H 0.343(2) 0.4856(15) 0.5675(12)
H8 H 0.156(2) 0.5339(19) 0.6363(16)
O4 O 0.27919(10) 0.32438(8) 0.94276(6)
O5 O -0.01214(11) 0.21937(8) 1.30091(7)
O6 O 0.24951(11) 0.10339(8) 0.99219(7)
C12 C 0.34758(14) 0.55173(12) 0.88484(9)
C13 C 0.12156(14) 0.40943(11) 1.14612(9)
C14 C 0.12836(14) 0.27264(11) 1.12405(9)
C15 C 0.19552(13) 0.50979(11) 1.06838(9)
C16 C 0.03971(14) 0.17624(11) 1.20909(9)
C17 C 0.21945(14) 0.22305(11) 1.01914(9)
C18 C 0.01410(17) 0.03130(12) 1.18104(10)
C19 C 0.19422(14) 0.65174(11) 1.08935(9)
C20 C 0.27090(15) 0.74110(12) 1.00973(10)
C21 C 0.27264(14) 0.46257(11) 0.96603(9)
C22 C 0.34651(14) 0.69072(12) 0.90796(9)
H9 H 0.271(2) 0.8381(16) 1.0231(12)
H10 H 0.3982(19) 0.7547(15) 0.8544(13)
H11 H 0.4037(19) 0.5169(15) 0.8149(13)
H12 H 0.067(2) 0.4403(15) 1.2169(13)
H13 H 0.141(2) 0.6843(15) 1.1617(13)
H14 H -0.0285(19) 0.0317(15) 1.1083(13)
H15 H 0.132(2) -0.0293(16) 1.1812(13)
H16 H -0.067(3) -0.0095(19) 1.2386(16)
#END
