####################################################################### 
# 
# This file contains crystal structure data downloaded from the 
# Cambridge Structural Database (CSD) hosted by the Cambridge 
# Crystallographic Data Centre (CCDC).
# 
# Full information about CCDC data access policies and citation 
# guidelines are available at http://www.ccdc.cam.ac.uk/access/V1 
# 
# Audit and citation data items may have been added by the CCDC. 
# Please retain this information to preserve the provenance of 
# this file and to allow appropriate attribution of the data. 
# 
#######################################################################

data_p9_24mo
_audit_block_doi                 10.5517/cctxmkw
_database_code_depnum_ccdc_archive 'CCDC 772289'
loop_
_citation_id
_citation_doi
_citation_year
1 10.1039/c0nj00272k 2010
_audit_update_record             
;
2010-04-06 deposited with the CCDC.	2024-07-10 downloaded from the CCDC.
;
#TrackingRef 'mslah_rev.cif'


_audit_creation_method           SHELXL-97
_chemical_name_systematic        
;
?
;
_chemical_name_common            ?
_chemical_melting_point          ?
_chemical_formula_moiety         ?
_chemical_formula_sum            'C126 H92 N14 O43 Zn8'
_chemical_formula_weight         3013.10

loop_
_atom_type_symbol
_atom_type_description
_atom_type_scat_dispersion_real
_atom_type_scat_dispersion_imag
_atom_type_scat_source
C C 0.0033 0.0016 'International Tables Vol C Tables 4.2.6.8 and 6.1.1.4'
H H 0.0000 0.0000 'International Tables Vol C Tables 4.2.6.8 and 6.1.1.4'
N N 0.0061 0.0033 'International Tables Vol C Tables 4.2.6.8 and 6.1.1.4'
O O 0.0106 0.0060 'International Tables Vol C Tables 4.2.6.8 and 6.1.1.4'
Zn Zn 0.2839 1.4301 'International Tables Vol C Tables 4.2.6.8 and 6.1.1.4'

_symmetry_cell_setting           Monoclinic
_symmetry_space_group_name_H-M   P2(1)/c

loop_
_symmetry_equiv_pos_as_xyz
'x, y, z'
'-x, y+1/2, -z+1/2'
'-x, -y, -z'
'x, -y-1/2, z-1/2'

_cell_length_a                   36.130(7)
_cell_length_b                   27.033(5)
_cell_length_c                   34.291(7)
_cell_angle_alpha                90.00
_cell_angle_beta                 108.81(3)
_cell_angle_gamma                90.00
_cell_volume                     31704(11)
_cell_formula_units_Z            4
_cell_measurement_temperature    100(2)
_cell_measurement_reflns_used    313486
_cell_measurement_theta_min      1.01
_cell_measurement_theta_max      23.74

_exptl_crystal_description       block
_exptl_crystal_colour            colorless
_exptl_crystal_size_max          0.63
_exptl_crystal_size_mid          0.40
_exptl_crystal_size_min          0.36
_exptl_crystal_density_meas      ?
_exptl_crystal_density_diffrn    0.631
_exptl_crystal_density_method    'not measured'
_exptl_crystal_F_000             6120
_exptl_absorpt_coefficient_mu    0.632
_exptl_absorpt_correction_type   empirical
_exptl_absorpt_correction_T_min  0.6917
_exptl_absorpt_correction_T_max  0.8045
_exptl_absorpt_process_details   'HKL2000 Scalepack'

_exptl_special_details           
;
?
;

_diffrn_ambient_temperature      100(2)
_diffrn_radiation_wavelength     0.75000
_diffrn_radiation_type           synchrotron
_diffrn_radiation_source         'bending magnet 6B MX beamline'
_diffrn_radiation_monochromator  'Si(111) double crystal monochromator'
_diffrn_measurement_device_type  'CCD area detector'
_diffrn_measurement_method       'phi scans'
_diffrn_detector_area_resol_mean ?
_diffrn_standards_number         ?
_diffrn_standards_interval_count ?
_diffrn_standards_interval_time  ?
_diffrn_standards_decay_%        ?
_diffrn_reflns_number            149700
_diffrn_reflns_av_R_equivalents  0.0811
_diffrn_reflns_av_sigmaI/netI    0.0622
_diffrn_reflns_limit_h_min       -38
_diffrn_reflns_limit_h_max       37
_diffrn_reflns_limit_k_min       -29
_diffrn_reflns_limit_k_max       28
_diffrn_reflns_limit_l_min       -36
_diffrn_reflns_limit_l_max       36
_diffrn_reflns_theta_min         1.01
_diffrn_reflns_theta_max         23.76
_reflns_number_total             40052
_reflns_number_gt                20269
_reflns_threshold_expression     >2sigma(I)

_computing_data_collection       'ADSC Quantum-210 ADX Program'
_computing_cell_refinement       HKL2000
_computing_data_reduction        HKL2000
_computing_structure_solution    'Bruker SHELXTL'
_computing_structure_refinement  'Bruker SHELXTL'
_computing_molecular_graphics    'Diamond 3.1e,ORTEP3'
_computing_publication_material  WinGX

_refine_special_details          
;
Refinement of F^2^ against ALL reflections. The weighted R-factor wR and
goodness of fit S are based on F^2^, conventional R-factors R are based
on F, with F set to zero for negative F^2^. The threshold expression of
F^2^ > 2sigma(F^2^) is used only for calculating R-factors(gt) etc. and is
not relevant to the choice of reflections for refinement. R-factors based
on F^2^ are statistically about twice as large as those based on F, and R-
factors based on ALL data will be even larger.
;

_refine_ls_structure_factor_coef Fsqd
_refine_ls_matrix_type           full
_refine_ls_weighting_scheme      calc
_refine_ls_weighting_details     
'calc w=1/[\s^2^(Fo^2^)+(0.1688P)^2^+0.0000P] where P=(Fo^2^+2Fc^2^)/3'
_atom_sites_solution_primary     direct
_atom_sites_solution_secondary   difmap
_atom_sites_solution_hydrogens   geom
_refine_ls_hydrogen_treatment    constr
_refine_ls_extinction_method     none
_refine_ls_extinction_coef       ?
_refine_ls_number_reflns         40052
_refine_ls_number_parameters     1626
_refine_ls_number_restraints     23
_refine_ls_R_factor_all          0.1247
_refine_ls_R_factor_gt           0.0846
_refine_ls_wR_factor_ref         0.2602
_refine_ls_wR_factor_gt          0.2347
_refine_ls_goodness_of_fit_ref   0.917
_refine_ls_restrained_S_all      0.923
_refine_ls_shift/su_max          0.002
_refine_ls_shift/su_mean         0.000

loop_
_atom_site_label
_atom_site_type_symbol
_atom_site_fract_x
_atom_site_fract_y
_atom_site_fract_z
_atom_site_U_iso_or_equiv
_atom_site_adp_type
_atom_site_occupancy
_atom_site_symmetry_multiplicity
_atom_site_calc_flag
_atom_site_refinement_flags
_atom_site_disorder_assembly
_atom_site_disorder_group
Zn1 Zn 0.400831(16) 0.46688(2) 0.196834(19) 0.0987(2) Uani 1 1 d . . .
Zn2 Zn 0.39514(2) 0.49824(3) 0.28309(2) 0.1156(3) Uani 1 1 d . . .
Zn3 Zn 0.31881(2) 0.48690(3) 0.20895(2) 0.1178(3) Uani 1 1 d . . .
Zn4 Zn 0.376513(18) 0.57632(3) 0.21028(2) 0.1060(2) Uani 1 1 d D . .
Zn5 Zn 0.872740(17) 0.49568(3) 0.13566(2) 0.1042(2) Uani 1 1 d . . .
Zn6 Zn 0.950150(19) 0.51122(3) 0.20908(2) 0.1277(3) Uani 1 1 d . . .
Zn7 Zn 0.866123(17) 0.53164(3) 0.22009(2) 0.1038(2) Uani 1 1 d . . .
Zn8 Zn 0.894248(18) 0.42285(3) 0.21162(2) 0.1040(2) Uani 1 1 d . . .
O1 O 0.44569(11) 0.43284(17) 0.23338(15) 0.1286(14) Uani 1 1 d . . .
O2 O 0.43637(13) 0.4509(2) 0.29415(16) 0.174(2) Uani 1 1 d . . .
O3 O 0.85121(14) 0.0681(2) 0.61446(12) 0.1402(16) Uani 1 1 d . . .
O4 O 0.87482(11) 0.12407(15) 0.66644(13) 0.1138(11) Uani 1 1 d . . .
O5 O 0.83824(12) 0.49387(19) 0.24935(14) 0.1283(14) Uani 1 1 d . . .
O6 O 0.85466(12) 0.41520(16) 0.23987(13) 0.1172(12) Uani 1 1 d . . .
O7 O 0.60976(13) 0.3605(2) 0.42703(16) 0.173(2) Uani 1 1 d . . .
O8 O 0.70634(13) 0.2205(2) 0.49756(18) 0.192(3) Uani 1 1 d . . .
O9 O 0.78082(16) 0.3090(3) 0.37992(19) 0.207(3) Uani 1 1 d . . .
O10 O 0.30539(12) 0.46945(17) 0.25754(14) 0.1301(13) Uani 1 1 d . . .
O11 O 0.36094(13) 0.47113(17) 0.31109(12) 0.1272(14) Uani 1 1 d . . .
O12 O 0.32080(13) 0.07935(18) 0.68756(13) 0.1363(16) Uani 1 1 d . . .
O13 O 0.36820(13) 0.07919(18) 0.65873(13) 0.1339(16) Uani 1 1 d . . .
O14 O -0.05926(14) 0.39630(18) 0.25312(13) 0.1321(15) Uani 1 1 d . . .
O15 O -0.03667(16) 0.4740(3) 0.26441(19) 0.194(2) Uani 1 1 d . . .
O16 O 0.28669(16) 0.3777(3) 0.46020(17) 0.186(2) Uani 1 1 d . . .
O17 O 0.19939(13) 0.2507(2) 0.55611(16) 0.184(3) Uani 1 1 d . . .
O18 O 0.09393(17) 0.2953(3) 0.4175(2) 0.250(4) Uani 1 1 d . . .
O19 O 0.28777(19) 0.5332(4) 0.1790(3) 0.346(7) Uani 1 1 d D . .
O20 O 0.32701(17) 0.5965(3) 0.17168(19) 0.229(3) Uani 1 1 d D . .
O21 O -0.10063(12) 0.52218(17) 0.09991(15) 0.1232(13) Uani 1 1 d . . .
O22 O -0.0586(3) 0.5527(3) 0.1567(2) 0.288(5) Uani 1 1 d . . .
O23 O -0.05611(15) 0.9242(2) -0.26201(15) 0.1555(19) Uani 1 1 d . . .
O24 O -0.10528(14) 0.92487(18) -0.23736(15) 0.1412(16) Uani 1 1 d . . .
O25 O 0.17702(11) 0.72528(16) 0.02739(12) 0.1173(12) Uani 1 1 d . . .
O26 O -0.01994(12) 0.6437(2) -0.03399(14) 0.1431(18) Uani 1 1 d . . .
O27 O 0.07552(12) 0.78055(19) -0.11411(14) 0.1543(18) Uani 1 1 d . . .
O28 O 0.42417(11) 0.50244(17) 0.16160(13) 0.1125(12) Uani 1 1 d . . .
O29 O 0.40968(10) 0.58000(15) 0.17272(13) 0.1128(12) Uani 1 1 d . . .
O30 O 0.82174(10) 0.56593(15) 0.17990(13) 0.1129(12) Uani 1 1 d . . .
O31 O 0.82534(11) 0.53506(18) 0.11994(13) 0.1243(14) Uani 1 1 d . . .
O32 O 0.4138(3) 0.9448(3) -0.1889(2) 0.253(4) Uani 1 1 d . . .
O33 O 0.4157(2) 0.8949(3) -0.2392(2) 0.267(5) Uani 1 1 d . . .
O34 O 0.48253(13) 0.69167(18) 0.03388(16) 0.1448(17) Uani 1 1 d . . .
O35 O 0.65150(11) 0.61882(17) -0.01018(13) 0.1240(13) Uani 1 1 d . . .
O36 O 0.54905(15) 0.7284(2) -0.11278(16) 0.166(2) Uani 1 1 d . . .
O1M O 0.37346(9) 0.50657(13) 0.22431(10) 0.0961(10) Uani 1 1 d . . .
O2M O 0.89368(8) 0.48961(13) 0.19408(9) 0.0926(10) Uani 1 1 d . . .
N1 N 0.60927(13) 0.3629(2) 0.36049(18) 0.143(2) Uani 1 1 d . . .
H1N H 0.6237 0.3560 0.3448 0.171 Uiso 1 1 calc R . .
N2 N 0.76577(14) 0.25440(19) 0.51862(15) 0.1205(16) Uani 1 1 d . . .
H2N H 0.7787 0.2815 0.5171 0.145 Uiso 1 1 calc R . .
N3 N 0.75322(14) 0.3809(2) 0.35934(17) 0.1374(19) Uani 1 1 d . . .
H3N H 0.7344 0.4007 0.3609 0.165 Uiso 1 1 calc R . .
N4 N 0.24591(16) 0.3775(2) 0.39559(19) 0.153(2) Uani 1 1 d . . .
H4N H 0.2219 0.3697 0.3807 0.183 Uiso 1 1 calc R . .
N5 N 0.25476(14) 0.2334(2) 0.53994(15) 0.1369(19) Uani 1 1 d . . .
H5N H 0.2666 0.2400 0.5218 0.164 Uiso 1 1 calc R . .
N6 N 0.10366(17) 0.3697(3) 0.3987(2) 0.176(3) Uani 1 1 d . . .
H6N H 0.1205 0.3943 0.4040 0.211 Uiso 1 1 calc R . .
N7 N 0.16296(14) 0.6468(2) 0.0381(2) 0.195(3) Uani 1 1 d . . .
H7N H 0.1443 0.6245 0.0298 0.234 Uiso 1 1 calc R . .
N8 N 0.01791(13) 0.6447(2) 0.03248(16) 0.1254(17) Uani 1 1 d . . .
H8N H 0.0408 0.6548 0.0488 0.151 Uiso 1 1 calc R . .
N9 N 0.01768(16) 0.7951(2) -0.10250(18) 0.162(2) Uani 1 1 d . . .
H9N H 0.0062 0.7911 -0.0837 0.195 Uiso 1 1 calc R . .
N10 N 0.50766(12) 0.6171(2) 0.05185(15) 0.1091(14) Uani 1 1 d . . .
H10N H 0.5247 0.5959 0.0480 0.131 Uiso 1 1 calc R . .
N11 N 0.65768(12) 0.63302(19) 0.05680(15) 0.1130(15) Uani 1 1 d . . .
H11N H 0.6455 0.6449 0.0732 0.136 Uiso 1 1 calc R . .
N12 N 0.5152(2) 0.7764(3) -0.08165(19) 0.174(3) Uani 1 1 d . . .
H12N H 0.5128 0.7825 -0.0574 0.209 Uiso 1 1 calc R . .
C1 C 0.4571(2) 0.4326(3) 0.2730(3) 0.144(3) Uani 1 1 d . . .
C2 C 0.49557(17) 0.4125(3) 0.2959(3) 0.133(2) Uani 1 1 d . . .
C3 C 0.5087(2) 0.4119(3) 0.3374(2) 0.173(4) Uani 1 1 d . . .
H3 H 0.4912 0.4219 0.3515 0.207 Uiso 1 1 calc R . .
C4 C 0.5445(2) 0.3985(3) 0.3597(2) 0.176(4) Uani 1 1 d . . .
H4 H 0.5527 0.4008 0.3889 0.211 Uiso 1 1 calc R . .
C5 C 0.57002(19) 0.3808(3) 0.3399(2) 0.140(2) Uani 1 1 d . . .
C6 C 0.55707(19) 0.3787(3) 0.2978(2) 0.162(3) Uani 1 1 d . . .
H6 H 0.5737 0.3667 0.2834 0.195 Uiso 1 1 calc R . .
C7 C 0.5196(2) 0.3943(3) 0.2763(2) 0.151(3) Uani 1 1 d . . .
H7 H 0.5106 0.3921 0.2471 0.181 Uiso 1 1 calc R . .
C8 C 0.62586(19) 0.3556(3) 0.4014(2) 0.142(3) Uani 1 1 d . . .
C9 C 0.66744(17) 0.3382(3) 0.4134(2) 0.131(2) Uani 1 1 d . . .
C10 C 0.67883(16) 0.3068(2) 0.44650(19) 0.1169(19) Uani 1 1 d . . .
H10 H 0.6610 0.2978 0.4604 0.140 Uiso 1 1 calc R . .
C11 C 0.71779(16) 0.2878(2) 0.45990(19) 0.119(2) Uani 1 1 d . . .
C12 C 0.74200(16) 0.2996(2) 0.4379(2) 0.1187(19) Uani 1 1 d . . .
H12 H 0.7676 0.2861 0.4455 0.142 Uiso 1 1 calc R . .
C13 C 0.72927(16) 0.3311(2) 0.40471(19) 0.1157(19) Uani 1 1 d D . .
C14 C 0.69262(16) 0.3509(2) 0.39254(19) 0.1166(19) Uani 1 1 d . . .
H14 H 0.6847 0.3732 0.3699 0.140 Uiso 1 1 calc R . .
C15 C 0.7288(2) 0.2521(3) 0.4931(2) 0.131(2) Uani 1 1 d . . .
C16 C 0.78625(17) 0.2193(3) 0.5472(2) 0.1132(19) Uani 1 1 d . . .
C17 C 0.77803(19) 0.1672(3) 0.5405(2) 0.135(2) Uani 1 1 d . . .
H17 H 0.7572 0.1564 0.5172 0.161 Uiso 1 1 calc R . .
C18 C 0.7995(2) 0.1346(3) 0.56683(19) 0.124(2) Uani 1 1 d . . .
H18 H 0.7935 0.1004 0.5625 0.149 Uiso 1 1 calc R . .
C19 C 0.83089(18) 0.1490(3) 0.6009(2) 0.123(2) Uani 1 1 d . . .
C20 C 0.83950(18) 0.1970(3) 0.60730(19) 0.121(2) Uani 1 1 d . . .
H20 H 0.8607 0.2066 0.6307 0.145 Uiso 1 1 calc R . .
C21 C 0.81856(18) 0.2326(3) 0.5810(2) 0.1220(19) Uani 1 1 d . . .
H21 H 0.8259 0.2664 0.5858 0.146 Uiso 1 1 calc R . .
C22 C 0.8534(2) 0.1105(3) 0.6294(2) 0.122(2) Uani 1 1 d . . .
C23 C 0.75686(17) 0.3409(3) 0.3805(2) 0.140(3) Uani 1 1 d D . .
C24 C 0.77489(19) 0.3983(4) 0.3336(2) 0.133(2) Uani 1 1 d . . .
C25 C 0.7914(2) 0.3621(3) 0.3138(2) 0.144(2) Uani 1 1 d . . .
H25 H 0.7885 0.3276 0.3172 0.172 Uiso 1 1 calc R . .
C26 C 0.81283(19) 0.3819(3) 0.2883(2) 0.132(2) Uani 1 1 d . . .
H26 H 0.8265 0.3591 0.2769 0.158 Uiso 1 1 calc R . .
C27 C 0.81483(18) 0.4278(3) 0.2799(2) 0.1054(18) Uani 1 1 d . . .
C28 C 0.7978(3) 0.4584(4) 0.2995(3) 0.164(3) Uani 1 1 d . . .
H28 H 0.8009 0.4927 0.2956 0.197 Uiso 1 1 calc R . .
C29 C 0.7756(3) 0.4463(3) 0.3255(3) 0.173(3) Uani 1 1 d . . .
H29 H 0.7623 0.4704 0.3363 0.208 Uiso 1 1 calc R . .
C30 C 0.83769(18) 0.4464(3) 0.25536(19) 0.1111(18) Uani 1 1 d . . .
C31 C 0.3257(2) 0.4594(2) 0.29528(19) 0.1103(18) Uani 1 1 d . . .
C32 C 0.30520(19) 0.4399(2) 0.32249(19) 0.1173(19) Uani 1 1 d . . .
C33 C 0.32310(19) 0.4342(3) 0.3636(2) 0.138(2) Uani 1 1 d . . .
H33 H 0.3496 0.4441 0.3751 0.166 Uiso 1 1 calc R . .
C34 C 0.3049(2) 0.4151(3) 0.3886(2) 0.140(2) Uani 1 1 d . . .
H34 H 0.3182 0.4134 0.4174 0.168 Uiso 1 1 calc R . .
C35 C 0.2676(2) 0.3983(3) 0.3730(2) 0.130(2) Uani 1 1 d . . .
C36 C 0.2494(2) 0.4005(3) 0.3308(2) 0.178(3) Uani 1 1 d . . .
H36 H 0.2240 0.3866 0.3192 0.213 Uiso 1 1 calc R . .
C37 C 0.2676(2) 0.4230(3) 0.3049(2) 0.158(3) Uani 1 1 d . . .
H37 H 0.2544 0.4264 0.2762 0.189 Uiso 1 1 calc R . .
C38 C 0.2542(2) 0.3673(3) 0.4348(3) 0.147(3) Uani 1 1 d . . .
C39 C 0.2240(2) 0.3454(3) 0.4511(2) 0.131(2) Uani 1 1 d . . .
C40 C 0.23539(19) 0.3151(3) 0.4841(2) 0.133(2) Uani 1 1 d . . .
H40 H 0.2625 0.3112 0.4987 0.159 Uiso 1 1 calc R . .
C41 C 0.20841(19) 0.2895(3) 0.4972(2) 0.141(3) Uani 1 1 d . . .
C42 C 0.16849(18) 0.2958(3) 0.4760(2) 0.161(3) Uani 1 1 d . . .
H42 H 0.1498 0.2785 0.4850 0.193 Uiso 1 1 calc R . .
C43 C 0.1561(2) 0.3259(3) 0.4431(2) 0.152(3) Uani 1 1 d . . .
C44 C 0.1834(2) 0.3494(3) 0.4281(2) 0.150(3) Uani 1 1 d . . .
H44 H 0.1750 0.3676 0.4031 0.180 Uiso 1 1 calc R . .
C45 C 0.2192(2) 0.2582(3) 0.5348(3) 0.163(3) Uani 1 1 d . . .
C46 C 0.27324(19) 0.1994(3) 0.5709(2) 0.146(3) Uani 1 1 d . . .
C47 C 0.2608(2) 0.1882(3) 0.6041(2) 0.142(2) Uani 1 1 d . . .
H47 H 0.2380 0.2035 0.6066 0.170 Uiso 1 1 calc R . .
C48 C 0.28207(19) 0.1538(3) 0.6343(2) 0.136(2) Uani 1 1 d . . .
H48 H 0.2744 0.1471 0.6578 0.163 Uiso 1 1 calc R . .
C49 C 0.31385(17) 0.1305(2) 0.6291(2) 0.120(2) Uani 1 1 d . . .
C50 C 0.3259(2) 0.1431(3) 0.5959(2) 0.145(3) Uani 1 1 d . . .
H50 H 0.3494 0.1293 0.5938 0.174 Uiso 1 1 calc R . .
C51 C 0.30542(18) 0.1738(3) 0.5670(2) 0.141(2) Uani 1 1 d . . .
H51 H 0.3128 0.1785 0.5430 0.169 Uiso 1 1 calc R . .
C52 C 0.3361(3) 0.0947(2) 0.6622(2) 0.127(2) Uani 1 1 d . . .
C53 C 0.1163(2) 0.3316(5) 0.4187(3) 0.190(4) Uani 1 1 d . . .
C54 C 0.0665(2) 0.3810(4) 0.3683(3) 0.164(3) Uani 1 1 d . . .
C55 C 0.0612(2) 0.4291(5) 0.3576(3) 0.223(5) Uani 1 1 d . . .
H55 H 0.0807 0.4526 0.3711 0.267 Uiso 1 1 calc R . .
C56 C 0.0267(3) 0.4450(4) 0.3263(3) 0.191(4) Uani 1 1 d . . .
H56 H 0.0218 0.4792 0.3203 0.229 Uiso 1 1 calc R . .
C57 C 0.0005(2) 0.4094(4) 0.3047(3) 0.148(3) Uani 1 1 d . . .
C58 C 0.00566(19) 0.3633(3) 0.3175(2) 0.149(3) Uani 1 1 d . . .
H58 H -0.0139 0.3395 0.3049 0.179 Uiso 1 1 calc R . .
C59 C 0.0394(2) 0.3484(3) 0.3492(3) 0.160(3) Uani 1 1 d . . .
H59 H 0.0428 0.3145 0.3570 0.192 Uiso 1 1 calc R . .
C60 C -0.0345(2) 0.4277(4) 0.2723(3) 0.160(3) Uani 1 1 d . . .
C61 C 0.2909(6) 0.5709(8) 0.1593(5) 0.373(11) Uiso 1 1 d D . .
C62 C 0.2607(2) 0.5923(5) 0.1257(4) 0.257(7) Uani 1 1 d D . .
C63 C 0.2267(3) 0.5624(4) 0.1126(4) 0.254(6) Uani 1 1 d D . .
H63 H 0.2253 0.5304 0.1235 0.305 Uiso 1 1 calc R . .
C64 C 0.1951(2) 0.5841(4) 0.0819(3) 0.226(5) Uani 1 1 d . . .
H64 H 0.1713 0.5661 0.0722 0.271 Uiso 1 1 calc R . .
C65 C 0.1965(2) 0.6298(4) 0.0651(3) 0.202(4) Uani 1 1 d . . .
C66 C 0.23182(19) 0.6576(4) 0.0795(3) 0.211(5) Uani 1 1 d . . .
H66 H 0.2341 0.6899 0.0696 0.253 Uiso 1 1 calc R . .
C67 C 0.26206(19) 0.6351(4) 0.1085(3) 0.245(6) Uani 1 1 d D . .
H67 H 0.2864 0.6521 0.1170 0.294 Uiso 1 1 calc R . .
C68 C 0.15322(16) 0.6908(3) 0.0219(2) 0.119(2) Uani 1 1 d . . .
C69 C 0.11112(16) 0.6973(2) -0.00303(18) 0.1107(18) Uani 1 1 d . . .
C70 C 0.08207(15) 0.6732(2) 0.00671(18) 0.1137(19) Uani 1 1 d . . .
H70 H 0.0884 0.6516 0.0298 0.136 Uiso 1 1 calc R . .
C71 C 0.04228(14) 0.6803(2) -0.01770(18) 0.1070(17) Uani 1 1 d . . .
C72 C 0.03396(16) 0.7124(2) -0.04933(18) 0.1102(18) Uani 1 1 d . . .
H72 H 0.0074 0.7170 -0.0655 0.132 Uiso 1 1 calc R . .
C73 C 0.06196(17) 0.7387(2) -0.05921(17) 0.