
#######################################################################
#
#                 Cambridge Crystallographic Data Centre
#                                CCDC
#
#######################################################################
#
# If this CIF has been generated from an entry in the Cambridge
# Structural Database, then it will include bibliographic, chemical,
# crystal, experimental, refinement or atomic coordinate data resulting
# from the CCDC's data processing and validation procedures.
#
#######################################################################

data_CSD_CIF_GAJLEJ
_audit_creation_date 2005-02-28
_audit_creation_method CSD-ConQuest-V1
_database_code_CSD GAJLEJ
_database_code_depnum_ccdc_archive 'CCDC 239662'
_chemical_formula_sum 'C8 H18 S2 Se1'
_chemical_formula_moiety
;
C8 H18 S2 Se1
;
_journal_coden_Cambridge 222
_journal_year 2004
_journal_page_first 3765
_journal_name_full 'Dalton Trans. '
loop_
_publ_author_name
"H.Fleischer"
"S.Glang"
"D.Schollmeyer"
"N.W.Mitzel"
"M.Buhl"
_chemical_name_systematic
;
bis(2-Methyl-2-propanethiolate)selenium(ii)
;
_chemical_name_common
;
Teaching Subset: Fundamental Chemistry, Symmetry
;
_chemical_melting_point 303
_cell_volume   2427.063
_exptl_crystal_colour 'colorless'
_exptl_crystal_density_diffrn 1.408
_exptl_special_details
;
Melting point range 303-305K

;
_exptl_crystal_description 'block'
_exptl_crystal_preparation 'methanol'
_diffrn_ambient_temperature 168
#These two values have been output from a single CSD field.
_refine_ls_R_factor_gt 0.0283
_refine_ls_wR_factor_gt 0.0283
_symmetry_cell_setting orthorhombic
_symmetry_space_group_name_H-M 'P b c a'
_symmetry_Int_Tables_number 61
loop_
_symmetry_equiv_pos_site_id
_symmetry_equiv_pos_as_xyz
1 x,y,z
2 1/2-x,-y,1/2+z
3 1/2+x,1/2-y,-z
4 -x,1/2+y,1/2-z
5 -x,-y,-z
6 -1/2+x,y,-1/2-z
7 -1/2-x,-1/2+y,z
8 x,-1/2-y,-1/2+z
_cell_length_a 12.9250(7)
_cell_length_b 9.7214(6)
_cell_length_c 19.3162(10)
_cell_angle_alpha 90
_cell_angle_beta 90
_cell_angle_gamma 90
_cell_formula_units_Z 8
loop_
_atom_type_symbol
_atom_type_radius_bond
C 0.68
H 0.23
S 1.02
Se 1.22
loop_
_atom_site_label
_atom_site_type_symbol
_atom_site_fract_x
_atom_site_fract_y
_atom_site_fract_z
Se1 Se 0.24934(2) 0.38661(2) 0.374836(14)
S1 S 0.23570(5) 0.24616(6) 0.28643(3)
S2 S 0.26755(5) 0.25054(6) 0.46482(3)
C1 C 0.36997(19) 0.2310(2) 0.25216(12)
C2 C 0.44436(19) 0.1853(3) 0.30902(12)
H1 H 0.42100 0.09740 0.32830
H2 H 0.44600 0.25490 0.34570
H3 H 0.51390 0.17430 0.28960
C3 C 0.3617(2) 0.1202(3) 0.19646(14)
H4 H 0.42960 0.10640 0.17500
H5 H 0.31190 0.14930 0.16120
H6 H 0.33840 0.03390 0.21750
C4 C 0.4049(2) 0.3684(3) 0.22193(15)
H7 H 0.47570 0.35960 0.20420
H8 H 0.40300 0.43910 0.25810
H9 H 0.35860 0.39480 0.18410
C5 C 0.13539(18) 0.2352(3) 0.50220(12)
C6 C 0.0594(2) 0.1810(3) 0.44824(13)
H10 H -0.00910 0.17070 0.46930
H11 H 0.08330 0.09140 0.43120
H12 H 0.05540 0.24590 0.40950
C7 C 0.1491(2) 0.1310(3) 0.56057(13)
H13 H 0.20160 0.16450 0.59310
H14 H 0.17140 0.04260 0.54120
H15 H 0.08330 0.11890 0.58490
C8 C 0.1011(2) 0.3744(3) 0.53033(16)
H16 H 0.03120 0.36650 0.54960
H17 H 0.10120 0.44220 0.49280
H18 H 0.14900 0.40400 0.56670
#END
