####################################################################### 
# 
# This file contains crystal structure data downloaded from the 
# Cambridge Structural Database (CSD) hosted by the Cambridge 
# Crystallographic Data Centre (CCDC).
# 
# Full information about CCDC data access policies and citation 
# guidelines are available at http://www.ccdc.cam.ac.uk/access/V1 
# 
# Audit and citation data items may have been added by the CCDC. 
# Please retain this information to preserve the provenance of 
# this file and to allow appropriate attribution of the data. 
# 
#######################################################################

data_c:\Ag
_audit_block_doi                 10.5517/cc89my3
_database_code_depnum_ccdc_archive 'CCDC 247595'
loop_
_citation_id
_citation_doi
_citation_year
1 10.1002/ejic.200400734 2005
_audit_update_record             
;
2004-08-16 deposited with the CCDC.	2024-07-10 downloaded from the CCDC.
;

_audit_creation_method           SHELXL-97
_chemical_name_systematic        
;
?
;
_chemical_name_common            ' C13 H12 Ag N3 O4 S2'
_chemical_melting_point          ?
_chemical_formula_moiety         ' C13 H12 Ag N3 O4 S2'
_chemical_formula_sum            'C13 H12 Ag N3 O4 S2'
_chemical_formula_weight         446.25

loop_
_atom_type_symbol
_atom_type_description
_atom_type_scat_dispersion_real
_atom_type_scat_dispersion_imag
_atom_type_scat_source
C C 0.0033 0.0016 'International Tables Vol C Tables 4.2.6.8 and 6.1.1.4'
Ag Ag -0.8971 1.1015 'International Tables Vol C Tables 4.2.6.8 and 6.1.1.4'
N N 0.0061 0.0033 'International Tables Vol C Tables 4.2.6.8 and 6.1.1.4'
O O 0.0106 0.0060 'International Tables Vol C Tables 4.2.6.8 and 6.1.1.4'
S S 0.1246 0.1234 'International Tables Vol C Tables 4.2.6.8 and 6.1.1.4'
H H 0.0000 0.0000 'International Tables Vol C Tables 4.2.6.8 and 6.1.1.4'

_symmetry_cell_setting           orthorhombic
_symmetry_space_group_name_H-M   Pnma

loop_
_symmetry_equiv_pos_as_xyz
'x, y, z'
'-x+1/2, -y, z+1/2'
'x+1/2, -y+1/2, -z+1/2'
'-x, y+1/2, -z'
'-x, -y, -z'
'x-1/2, y, -z-1/2'
'-x-1/2, y-1/2, z-1/2'
'x, -y-1/2, z'

_cell_length_a                   5.5447(5)
_cell_length_b                   14.5664(15)
_cell_length_c                   22.6241(22)
_cell_angle_alpha                90.00(0)
_cell_angle_beta                 90.00(0)
_cell_angle_gamma                90.00(0)
_cell_volume                     1827.3(0)
_cell_formula_units_Z            4
_cell_measurement_temperature    293(2)
_cell_measurement_reflns_used    ?
_cell_measurement_theta_min      ?
_cell_measurement_theta_max      ?

_exptl_crystal_description       needle
_exptl_crystal_colour            khaki
_exptl_crystal_size_max          0.2500
_exptl_crystal_size_mid          0.1200
_exptl_crystal_size_min          0.1000
_exptl_crystal_density_meas      ?
_exptl_crystal_density_diffrn    1.622
_exptl_crystal_density_method    'not measured'
_exptl_crystal_F_000             888
_exptl_absorpt_coefficient_mu    1.351
_exptl_absorpt_correction_type   ?
_exptl_absorpt_correction_T_min  ?
_exptl_absorpt_correction_T_max  ?
_exptl_absorpt_process_details   ?

_exptl_special_details           
;
?
;

_diffrn_ambient_temperature      293(2)
_diffrn_radiation_wavelength     0.71073
_diffrn_radiation_type           MoK\a
_diffrn_radiation_source         'fine-focus sealed tube'
_diffrn_radiation_monochromator  graphite
_diffrn_measurement_device_type  ?
_diffrn_measurement_method       ?
_diffrn_detector_area_resol_mean ?
_diffrn_standards_number         ?
_diffrn_standards_interval_count ?
_diffrn_standards_interval_time  ?
_diffrn_standards_decay_%        ?
_diffrn_reflns_number            8042
_diffrn_reflns_av_R_equivalents  0.0337
_diffrn_reflns_av_sigmaI/netI    0.0221
_diffrn_reflns_limit_h_min       -5
_diffrn_reflns_limit_h_max       5
_diffrn_reflns_limit_k_min       -15
_diffrn_reflns_limit_k_max       13
_diffrn_reflns_limit_l_min       -24
_diffrn_reflns_limit_l_max       24
_diffrn_reflns_theta_min         3.60
_diffrn_reflns_theta_max         22.50
_reflns_number_total             1219
_reflns_number_gt                1168
_reflns_threshold_expression     >2sigma(I)

_computing_data_collection       ?
_computing_cell_refinement       ?
_computing_data_reduction        ?
_computing_structure_solution    'SHELXS-97 (Sheldrick, 1990)'
_computing_structure_refinement  'SHELXL-97 (Sheldrick, 1997)'
_computing_molecular_graphics    ?
_computing_publication_material  ?

_refine_special_details          
;
Refinement of F^2^ against ALL reflections. The weighted R-factor wR and
goodness of fit S are based on F^2^, conventional R-factors R are based
on F, with F set to zero for negative F^2^. The threshold expression of
F^2^ > 2sigma(F^2^) is used only for calculating R-factors(gt) etc. and is
not relevant to the choice of reflections for refinement. R-factors based
on F^2^ are statistically about twice as large as those based on F, and R-
factors based on ALL data will be even larger.
;

_refine_ls_structure_factor_coef Fsqd
_refine_ls_matrix_type           full
_refine_ls_weighting_scheme      calc
_refine_ls_weighting_details     
'calc w=1/[\s^2^(Fo^2^)+(0.0601P)^2^+4.2767P] where P=(Fo^2^+2Fc^2^)/3'
_atom_sites_solution_primary     direct
_atom_sites_solution_secondary   difmap
_atom_sites_solution_hydrogens   geom
_refine_ls_hydrogen_treatment    mixed
_refine_ls_extinction_method     none
_refine_ls_extinction_coef       ?
_refine_ls_number_reflns         1219
_refine_ls_number_parameters     112
_refine_ls_number_restraints     0
_refine_ls_R_factor_all          0.0695
_refine_ls_R_factor_gt           0.0660
_refine_ls_wR_factor_ref         0.1601
_refine_ls_wR_factor_gt          0.1578
_refine_ls_goodness_of_fit_ref   1.301
_refine_ls_restrained_S_all      1.301
_refine_ls_shift/su_max          0.000
_refine_ls_shift/su_mean         0.000

loop_
_atom_site_label
_atom_site_type_symbol
_atom_site_fract_x
_atom_site_fract_y
_atom_site_fract_z
_atom_site_U_iso_or_equiv
_atom_site_adp_type
_atom_site_occupancy
_atom_site_symmetry_multiplicity
_atom_site_calc_flag
_atom_site_refinement_flags
_atom_site_disorder_assembly
_atom_site_disorder_group
Ag1 Ag 0.0000 0.5000 0.0000 0.1001(6) Uani 1 2 d S . .
S1 S 0.8978(3) 0.55852(13) 0.19343(8) 0.0616(6) Uani 1 1 d . . .
O1 O 0.7010(12) 0.7500 0.2027(3) 0.0526(16) Uani 1 2 d S . .
O2 O 0.0415(19) 0.7500 0.0326(5) 0.114(3) Uani 1 2 d S . .
O3 O 0.083(2) 0.8222(6) -0.0511(4) 0.160(4) Uani 1 1 d . . .
N1 N 0.3009(12) 0.5160(5) 0.0591(3) 0.0726(19) Uani 1 1 d . . .
N2 N 0.029(2) 0.7500 -0.0204(7) 0.102(4) Uani 1 2 d S . .
C1 C 0.3395(15) 0.4587(7) 0.1039(4) 0.080(2) Uani 1 1 d . . .
H1 H 0.2384 0.4082 0.1080 0.096 Uiso 1 1 calc R . .
C2 C 0.5213(14) 0.4706(6) 0.1444(4) 0.074(2) Uani 1 1 d . . .
H2 H 0.5419 0.4284 0.1749 0.089 Uiso 1 1 calc R . .
C3 C 0.6733(12) 0.5453(5) 0.1398(3) 0.0546(17) Uani 1 1 d . . .
C4 C 0.6364(12) 0.6052(5) 0.0920(3) 0.0600(19) Uani 1 1 d . . .
H4 H 0.7369 0.6556 0.0866 0.072 Uiso 1 1 calc R . .
C5 C 0.4511(13) 0.5888(6) 0.0535(3) 0.063(2) Uani 1 1 d . . .
H5 H 0.4275 0.6292 0.0222 0.076 Uiso 1 1 calc R . .
C6 C 1.0473(12) 0.6619(5) 0.1725(3) 0.0559(18) Uani 1 1 d . . .
H6A H 1.2001 0.6653 0.1933 0.067 Uiso 1 1 calc R . .
H6B H 1.0820 0.6594 0.1305 0.067 Uiso 1 1 calc R . .
C7 C 0.9018(18) 0.7500 0.1856(3) 0.044(2) Uani 1 2 d S . .

loop_
_atom_site_aniso_label
_atom_site_aniso_U_11
_atom_site_aniso_U_22
_atom_site_aniso_U_33
_atom_site_aniso_U_23
_atom_site_aniso_U_13
_atom_site_aniso_U_12
Ag1 0.0543(7) 0.1594(12) 0.0865(8) -0.0601(7) -0.0087(5) -0.0086(6)
S1 0.0570(12) 0.0719(12) 0.0559(11) -0.0035(9) -0.0053(9) 0.0063(10)
O1 0.039(4) 0.069(4) 0.050(4) 0.000 0.012(3) 0.000
O2 0.103(7) 0.159(10) 0.081(7) 0.000 0.018(6) 0.000
O3 0.227(10) 0.119(7) 0.136(7) 0.018(6) -0.037(7) 0.022(7)
N1 0.052(4) 0.097(5) 0.069(4) -0.039(4) 0.002(3) -0.003(4)
N2 0.128(11) 0.086(9) 0.093(9) 0.000 -0.033(8) 0.000
C1 0.069(6) 0.089(6) 0.083(6) -0.029(5) 0.004(5) -0.020(5)
C2 0.073(6) 0.073(5) 0.077(6) -0.008(4) 0.007(4) -0.007(4)
C3 0.044(4) 0.064(4) 0.055(4) -0.018(3) 0.006(3) 0.005(4)
C4 0.047(4) 0.078(5) 0.055(4) -0.019(4) 0.000(3) -0.005(4)
C5 0.049(4) 0.083(5) 0.057(4) -0.028(4) -0.001(3) 0.008(4)
C6 0.045(4) 0.081(5) 0.042(4) -0.011(3) -0.006(3) 0.003(4)
C7 0.042(6) 0.064(6) 0.027(4) 0.000 -0.008(4) 0.000

_geom_special_details            
;
All esds (except the esd in the dihedral angle between two l.s. planes)
are estimated using the full covariance matrix. The cell esds are taken
into account individually in the estimation of esds in distances, angles
and torsion angles; correlations between esds in cell parameters are only
used when they are defined by crystal symmetry. An approximate (isotropic)
treatment of cell esds is used for estimating esds involving l.s. planes.
;

loop_
_geom_bond_atom_site_label_1
_geom_bond_atom_site_label_2
_geom_bond_distance
_geom_bond_site_symmetry_2
_geom_bond_publ_flag
Ag1 N1 2.151(7) 5_565 ?
Ag1 N1 2.151(7) . ?
S1 C3 1.749(7) . ?
S1 C6 1.782(8) . ?
O1 C7 1.178(10) . ?
O2 N2 1.202(16) . ?
O3 N2 1.295(12) . ?
N1 C1 1.330(11) . ?
N1 C5 1.354(10) . ?
N2 O3 1.295(12) 8_575 ?
C1 C2 1.373(12) . ?
C2 C3 1.381(10) . ?
C3 C4 1.404(10) . ?
C4 C5 1.368(9) . ?
C6 C7 1.545(9) . ?
C7 C6 1.545(9) 8_575 ?

loop_
_geom_angle_atom_site_label_1
_geom_angle_atom_site_label_2
_geom_angle_atom_site_label_3
_geom_angle
_geom_angle_site_symmetry_1
_geom_angle_site_symmetry_3
_geom_angle_publ_flag
N1 Ag1 N1 180.0(3) 5_565 . ?
C3 S1 C6 103.9(3) . . ?
C1 N1 C5 117.7(7) . . ?
C1 N1 Ag1 122.0(6) . . ?
C5 N1 Ag1 120.2(6) . . ?
O2 N2 O3 121.4(7) . 8_575 ?
O2 N2 O3 121.4(7) . . ?
O3 N2 O3 108.7(15) 8_575 . ?
N1 C1 C2 123.2(8) . . ?
C1 C2 C3 119.7(8) . . ?
C2 C3 C4 117.4(7) . . ?
C2 C3 S1 117.9(6) . . ?
C4 C3 S1 124.7(6) . . ?
C5 C4 C3 119.4(7) . . ?
N1 C5 C4 122.6(8) . . ?
C7 C6 S1 114.1(5) . . ?
O1 C7 C6 123.8(4) . 8_575 ?
O1 C7 C6 123.8(4) . . ?
C6 C7 C6 112.4(8) 8_575 . ?

loop_
_geom_torsion_atom_site_label_1
_geom_torsion_atom_site_label_2
_geom_torsion_atom_site_label_3
_geom_torsion_atom_site_label_4
_geom_torsion
_geom_torsion_site_symmetry_1
_geom_torsion_site_symmetry_2
_geom_torsion_site_symmetry_3
_geom_torsion_site_symmetry_4
_geom_torsion_publ_flag
N1 Ag1 N1 C1 47(17) 5_565 . . . ?
N1 Ag1 N1 C5 -129(13) 5_565 . . . ?
C5 N1 C1 C2 0.7(12) . . . . ?
Ag1 N1 C1 C2 -175.9(6) . . . . ?
N1 C1 C2 C3 0.4(12) . . . . ?
C1 C2 C3 C4 -1.5(11) . . . . ?
C1 C2 C3 S1 178.7(6) . . . . ?
C6 S1 C3 C2 -179.1(6) . . . . ?
C6 S1 C3 C4 1.1(6) . . . . ?
C2 C3 C4 C5 1.6(10) . . . . ?
S1 C3 C4 C5 -178.6(5) . . . . ?
C1 N1 C5 C4 -0.6(10) . . . . ?
Ag1 N1 C5 C4 176.0(5) . . . . ?
C3 C4 C5 N1 -0.5(10) . . . . ?
C3 S1 C6 C7 73.9(5) . . . . ?
S1 C6 C7 O1 -6.8(10) . . . . ?
S1 C6 C7 C6 174.4(3) . . . 8_575 ?

_diffrn_measured_fraction_theta_max 0.980
_diffrn_reflns_theta_full        22.50
_diffrn_measured_fraction_theta_full 0.980
_refine_diff_density_max         0.861
_refine_diff_density_min         -0.366
_refine_diff_density_rms         0.086
