####################################################################### 
# 
# This file contains crystal structure data downloaded from the 
# Cambridge Structural Database (CSD) hosted by the Cambridge 
# Crystallographic Data Centre (CCDC).
# 
# Full information about CCDC data access policies and citation 
# guidelines are available at http://www.ccdc.cam.ac.uk/access/V1 
# 
# Audit and citation data items may have been added by the CCDC. 
# Please retain this information to preserve the provenance of 
# this file and to allow appropriate attribution of the data. 
# 
#######################################################################

data_GAMVOF
#This CIF has been generated from an entry in the Cambridge Structural Database
_database_code_depnum_ccdc_archive 'CCDC 1163599'
_database_code_CSD               GAMVOF
loop_
_citation_id
_citation_doi
_citation_year
1 10.1021/ic00281a032 1988
_audit_creation_method           'Created from the CSD'
_audit_update_record             
;
2024-07-10 downloaded from the CCDC.
;
_database_code_NBS               580160
_chemical_formula_moiety         '(C10 H6 Cd1 N8 S2)n,2n(H2 O1)'
_chemical_name_systematic        
'catena(bis(\m~2~-6-Mercaptopurinato-N,S,S)-cadmium(ii) dihydrate)'
_chemical_absolute_configuration unk
_diffrn_ambient_temperature      295
_exptl_crystal_density_diffrn    2.025
#These two values have been output from a single CSD field.
_refine_ls_R_factor_gt           0.044
_refine_ls_wR_factor_gt          0.044
_diffrn_radiation_probe          x-ray
_symmetry_cell_setting           triclinic
_symmetry_space_group_name_H-M   'P -1'
_symmetry_Int_Tables_number      2
_space_group_name_Hall           '-P 1'
loop_
_symmetry_equiv_pos_site_id
_symmetry_equiv_pos_as_xyz
1 x,y,z
2 -x,-y,-z
_cell_length_a                   3.918(3)
_cell_length_b                   9.371(3)
_cell_length_c                   11.162(5)
_cell_angle_alpha                67.89(3)
_cell_angle_beta                 84.40(4)
_cell_angle_gamma                76.84(4)
_cell_volume                     369.679
_exptl_crystal_colour            'pale yellow'
_chemical_melting_point          'decomposes above 350deg.C'
_cell_formula_units_Z            1
loop_
_atom_site_label
_atom_site_type_symbol
_atom_site_fract_x
_atom_site_fract_y
_atom_site_fract_z
Cd1 Cd 0.5000 0.5000 0.50000
N1 N -0.2703(9) 0.9780(4) 0.4009(3)
C1 C -0.255(1) 1.0999(4) 0.2869(4)
N2 N -0.053(1) 1.0978(4) 0.1858(4)
C2 C 0.146(1) 0.9544(4) 0.2011(4)
C3 C 0.1482(9) 0.8217(4) 0.3161(3)
C4 C -0.0700(9) 0.8324(4) 0.4183(4)
S1 S -0.0808(2) 0.6761(1) 0.56225(9)
N3 N 0.3832(8) 0.6958(4) 0.3023(3)
C5 C 0.518(1) 0.7534(5) 0.1839(4)
N4 N 0.382(1) 0.9085(4) 0.1181(3)
H1 H -0.41(2) 1.199(7) 0.309(6)
H2 H 0.73(2) 0.687(7) 0.173(6)
H3 H 0.48(2) 0.941(7) 0.062(6)
N1 N 0.7297(9) 0.9780(4) 0.4009(3)
C1 C 0.745(1) 1.0999(4) 0.2869(4)
N2 N 0.947(1) 1.0978(4) 0.1858(4)
C2 C 1.146(1) 0.9544(4) 0.2011(4)
C3 C 1.1482(9) 0.8217(4) 0.3161(3)
C4 C 0.9300(9) 0.8324(4) 0.4183(4)
S1 S 0.9192(2) 0.6761(1) 0.56225(9)
N3 N 1.3832(8) 0.6958(4) 0.3023(3)
C5 C 1.518(1) 0.7534(5) 0.1839(4)
N4 N 1.382(1) 0.9085(4) 0.1181(3)
H1 H 0.59(2) 1.199(7) 0.309(6)
H2 H 1.73(2) 0.687(7) 0.173(6)
H3 H 1.48(2) 0.941(7) 0.062(6)
S1A S 0.0808(2) 0.3239(1) 0.43775(9)
S1A S 1.0808(2) 0.3239(1) 0.43775(9)
N3A N 0.6168(8) 0.3042(4) 0.6977(3)
Cd1 Cd -0.5000 0.5000 0.50000
Cd1 Cd 1.5000 0.5000 0.50000
O1 O 0.188(2) 0.5889(6) 0.0142(6)

#END
