
#######################################################################
#
#                 Cambridge Crystallographic Data Centre
#                                CCDC
#
#######################################################################
#
# If this CIF has been generated from an entry in the Cambridge
# Structural Database, then it will include bibliographic, chemical,
# crystal, experimental, refinement or atomic coordinate data resulting
# from the CCDC's data processing and validation procedures.
#
#######################################################################

data_CSD_CIF_GAQYUT
_audit_creation_date 2005-12-08
_audit_creation_method CSD-ConQuest-V1
_database_code_CSD GAQYUT
_database_code_depnum_ccdc_archive 'CCDC 257085'
_chemical_formula_sum 'C84 H104 Cu4 N8 O20'
_chemical_formula_moiety
;
(C84 H100 Cu4 N8 O18)n,2n(H2 O1)
;
_journal_coden_Cambridge 179
_journal_volume 44
_journal_year 2005
_journal_page_first 3864
_journal_name_full 'Angew.Chem.,Int.Ed. '
loop_
_publ_author_name
"Xin-Jun Luan"
"Yao-Yu Wang"
"Dong-Sheng Li"
"Ping Liu"
"Huai-Ming Hu"
"Qi-Zhen Shi"
"Shie-Ming Peng"
_chemical_name_systematic
;
catena-(tetrakis(\m~2~-1,3-bis(4-Pyridyl)propane-N,N')-diaqua-bis(2-methylacry
lato-O,O')-hexakis(2-methylacrylato-O)-tetra-copper(ii) dihydrate)
;
_chemical_name_common
;
Teaching Subset: MOFs
;
_cell_volume   2229.505
_exptl_crystal_colour 'blue'
_exptl_crystal_density_diffrn 1.341
_exptl_crystal_description 'needle'
_diffrn_ambient_temperature 293
#These two values have been output from a single CSD field.
_refine_ls_R_factor_gt 0.0397
_refine_ls_wR_factor_gt 0.0397
_symmetry_cell_setting triclinic
_symmetry_space_group_name_H-M 'P -1'
_symmetry_Int_Tables_number 2
loop_
_symmetry_equiv_pos_site_id
_symmetry_equiv_pos_as_xyz
1 x,y,z
2 -x,-y,-z
_cell_length_a 12.0997(14)
_cell_length_b 12.8855(16)
_cell_length_c 14.7601(17)
_cell_angle_alpha 89.462(2)
_cell_angle_beta 86.349(2)
_cell_angle_gamma 76.122(2)
_cell_formula_units_Z 1
loop_
_atom_type_symbol
_atom_type_radius_bond
C 0.68
H 0.23
Cu 1.49
N 0.68
O 0.68
loop_
_atom_site_label
_atom_site_type_symbol
_atom_site_fract_x
_atom_site_fract_y
_atom_site_fract_z
Cu1 Cu 0.29625(3) 0.67972(3) 0.76155(2)
Cu2 Cu 0.00000 1.00000 1.50000
Cu3 Cu 0.00000 1.00000 0.00000
N1 N 0.2540(2) 0.61103(19) 0.87863(16)
N2 N 0.0637(2) 0.8708(2) 1.42257(17)
N3 N 0.3683(2) 0.7199(2) 0.64282(16)
N4 N 0.1426(2) 0.9469(2) 0.06313(15)
O1 O 0.37045(18) 0.76843(16) 0.82729(13)
O2 O 0.5404(2) 0.65456(19) 0.82828(16)
O3 O 0.20486(19) 0.6086(2) 0.69447(14)
O4 O 0.3227(2) 0.4485(2) 0.68591(18)
O5 O -0.13830(17) 0.94607(17) 1.53253(15)
O6 O -0.0214(2) 0.8732(2) 1.63581(15)
O7 O -0.0575(2) 0.8625(2) 0.03754(17)
O8 O -0.1089(2) 0.9885(2) 0.1366(2)
O9 O 0.1343(2) 0.8207(2) 0.77116(18)
H1 H 0.09850 0.82090 0.72580
C1 C 0.3307(3) 0.5552(3) 0.9322(2)
H2 H 0.40760 0.54640 0.91480
C2 C 0.3014(3) 0.5097(3) 1.0127(2)
H3 H 0.35840 0.47020 1.04720
C3 C 0.1910(3) 0.5221(2) 1.0417(2)
C4 C 0.1117(3) 0.5814(3) 0.9864(2)
H4 H 0.03430 0.59280 1.00330
C5 C 0.1456(3) 0.6235(3) 0.9069(2)
H5 H 0.08990 0.66270 0.87110
C6 C 0.1555(3) 0.4745(3) 1.1291(2)
H6 H 0.22150 0.42540 1.15200
H7 H 0.10010 0.43390 1.11700
C7 C 0.1043(3) 0.5583(3) 1.2010(2)
H8 H 0.05150 0.61720 1.17360
H9 H 0.06160 0.52740 1.24730
C8 C 0.1937(3) 0.6000(3) 1.2443(2)
H10 H 0.24270 0.62150 1.19690
H11 H 0.24040 0.54250 1.27780
C9 C 0.1473(2) 0.6933(3) 1.3078(2)
C10 C 0.1611(3) 0.6883(3) 1.4002(2)
H12 H 0.19910 0.62430 1.42560
C11 C 0.1197(3) 0.7762(3) 1.4547(2)
H13 H 0.13080 0.77020 1.51650
C12 C 0.0893(3) 0.7904(3) 1.2752(2)
H14 H 0.07680 0.79790 1.21380
C13 C 0.0501(3) 0.8757(3) 1.3327(2)
H15 H 0.01210 0.94040 1.30850
C14 C 0.3469(3) 0.8196(3) 0.6153(2)
H16 H 0.30300 0.87250 0.65380
C15 C 0.3865(3) 0.8491(3) 0.5323(3)
H17 H 0.36860 0.92080 0.51590
C16 C 0.4524(2) 0.7744(3) 0.4727(2)
C17 C 0.4764(3) 0.6720(3) 0.5029(2)
H18 H 0.52270 0.61790 0.46680
C18 C 0.4326(3) 0.6483(3) 0.5860(3)
H19 H 0.44920 0.57700 0.60380
C19 C 0.4926(3) 0.8037(3) 0.3807(2)
H20 H 0.55790 0.74830 0.35850
H21 H 0.51680 0.86990 0.38450
C20 C 0.3992(2) 0.8171(3) 0.31414(19)
H22 H 0.37180 0.75230 0.31380
H23 H 0.33580 0.87510 0.33520
C21 C 0.4372(3) 0.8405(3) 0.2180(2)
H24 H 0.47960 0.89550 0.21910
H25 H 0.48760 0.77650 0.19140
C22 C 0.3375(2) 0.8770(3) 0.16049(19)
C23 C 0.2642(3) 0.9760(3) 0.1756(2)
H26 H 0.27920 1.02160 0.21920
C24 C 0.1690(3) 1.0078(3) 0.1267(2)
H27 H 0.12090 1.07490 0.13850
C25 C 0.2150(3) 0.8530(3) 0.0466(2)
H28 H 0.20000 0.80990 0.00100
C26 C 0.3113(3) 0.8160(3) 0.0938(2)
H29 H 0.35870 0.74910 0.08000
C27 C 0.4490(4) 0.9318(3) 0.8934(3)
H30 H 0.47320 0.98560 0.92220
H31 H 0.38000 0.94760 0.86580
C28 C 0.5164(3) 0.8273(3) 0.8915(2)
C29 C 0.6218(3) 0.7988(3) 0.9321(3)
H32 H 0.63300 0.85900 0.96510
H33 H 0.68240 0.77750 0.88590
H34 H 0.62180 0.74050 0.97310
C30 C 0.4743(3) 0.7429(3) 0.84502(19)
C31 C 0.0473(3) 0.5421(3) 0.6057(3)
H35 H -0.00820 0.51970 0.57540
H36 H 0.03400 0.61240 0.62570
C32 C 0.1460(3) 0.4730(3) 0.6203(2)
C33 C 0.1728(4) 0.3622(3) 0.5911(3)
H37 H 0.10720 0.34670 0.56600
H38 H 0.19370 0.31670 0.64220
H39 H 0.23520 0.34990 0.54590
C34 C 0.2325(3) 0.5116(3) 0.6711(2)
C35 C -0.3114(4) 0.8513(4) 1.5942(3)
H40 H -0.35630 0.80420 1.61860
H41 H -0.29900 0.84110 1.52970
H42 H -0.35110 0.92410 1.60720
C36 C -0.2014(3) 0.8279(3) 1.6357(2)
C37 C -0.1770(4) 0.7585(3) 1.7028(3)
H43 H -0.23090 0.72240 1.72530
H44 H -0.10610 0.74580 1.72730
C38 C -0.1139(3) 0.8855(3) 1.6006(2)
C39 C -0.2362(4) 0.8826(5) 0.2483(3)
H45 H -0.28370 0.83860 0.27420
H46 H -0.28170 0.95340 0.23890
H47 H -0.17810 0.88570 0.28890
C40 C -0.1826(3) 0.8368(3) 0.1613(3)
C41 C -0.1948(4) 0.7456(4) 0.1277(4)
H48 H -0.23960 0.70660 0.15990
H49 H -0.15870 0.72050 0.07200
C42 C -0.1123(3) 0.8994(3) 0.1084(3)
H50 H 0.131(3) 0.879(3) 0.802(2)
O10 O 0.5310(3) 0.4491(3) 0.7578(3)
H51 H 0.529(3) 0.517(3) 0.777(2)
H52 H 0.465(3) 0.449(3) 0.742(2)
Cu1A Cu -0.29625(3) 1.32028(3) 2.23845(2)
Cu3* Cu 0.00000 1.00000 3.00000
N1A N -0.2540(2) 1.38897(19) 2.12137(16)
N2A N -0.0637(2) 1.1292(2) 1.57743(17)
N3A N -0.3683(2) 1.2801(2) 2.35718(16)
N4A N -0.1426(2) 1.0531(2) 2.93687(15)
N4A* N -0.1426(2) 1.0531(2) -0.06313(15)
O1A O -0.37045(18) 1.23157(16) 2.17271(13)
O2A O -0.5404(2) 1.34544(19) 2.17172(16)
O3A O -0.20486(19) 1.3914(2) 2.30553(14)
O4A O -0.3227(2) 1.5515(2) 2.31409(18)
O5A O 0.13830(17) 1.05393(17) 1.46747(15)
O6A O 0.0214(2) 1.1268(2) 1.36419(15)
O7A O 0.0575(2) 1.1375(2) -0.03754(17)
O8A O 0.1089(2) 1.0115(2) -0.1366(2)
O9A O -0.1343(2) 1.1793(2) 2.22884(18)
H1A H -0.09850 1.17910 2.27420
C1A C -0.3307(3) 1.4448(3) 2.0678(2)
H2A H -0.40760 1.45360 2.08520
C2A C -0.3014(3) 1.4903(3) 1.9873(2)
H3A H -0.35840 1.52980 1.95280
C3A C -0.1910(3) 1.4779(2) 1.9583(2)
C4A C -0.1117(3) 1.4186(3) 2.0136(2)
H4A H -0.03430 1.40720 1.99670
C5A C -0.1456(3) 1.3765(3) 2.0931(2)
H5A H -0.08990 1.33730 2.12890
C6A C -0.1555(3) 1.5255(3) 1.8709(2)
H6A H -0.22150 1.57460 1.84800
H7A H -0.10010 1.56610 1.88300
C7A C -0.1043(3) 1.4417(3) 1.7990(2)
H8A H -0.05150 1.38280 1.82640
H9A H -0.06160 1.47260 1.75270
C8A C -0.1937(3) 1.4000(3) 1.7557(2)
H10A H -0.24270 1.37850 1.80310
H11A H -0.24040 1.45750 1.72220
C9A C -0.1473(2) 1.3067(3) 1.6922(2)
C10A C -0.1611(3) 1.3117(3) 1.5998(2)
H12A H -0.19910 1.37570 1.57440
C11A C -0.1197(3) 1.2238(3) 1.5453(2)
H13A H -0.13080 1.22980 1.48350
C12A C -0.0893(3) 1.2096(3) 1.7248(2)
H14A H -0.07680 1.20210 1.78620
C13A C -0.0501(3) 1.1243(3) 1.6673(2)
H15A H -0.01210 1.05960 1.69150
C14A C -0.3469(3) 1.1804(3) 2.3847(2)
H16A H -0.30300 1.12750 2.34620
C15A C -0.3865(3) 1.1509(3) 2.4677(3)
H17A H -0.36860 1.07920 2.48410
C16A C -0.4524(2) 1.2256(3) 2.5273(2)
C17A C -0.4764(3) 1.3280(3) 2.4971(2)
H18A H -0.52270 1.38210 2.53320
C18A C -0.4326(3) 1.3517(3) 2.4140(3)
H19A H -0.44920 1.42300 2.39620
C19A C -0.4926(3) 1.1963(3) 2.6193(2)
H20A H -0.55790 1.25170 2.64150
H21A H -0.51680 1.13010 2.61550
C20A C -0.3992(2) 1.1829(3) 2.68586(19)
H22A H -0.37180 1.24770 2.68620
H23A H -0.33580 1.12490 2.66480
C21A C -0.4372(3) 1.1595(3) 2.7820(2)
H24A H -0.47960 1.10450 2.78090
H25A H -0.48760 1.22350 2.80860
C22A C -0.3375(2) 1.1230(3) 2.83951(19)
C23A C -0.2642(3) 1.0240(3) 2.8244(2)
H26A H -0.27920 0.97840 2.78080
C24A C -0.1690(3) 0.9922(3) 2.8733(2)
H27A H -0.12090 0.92510 2.86150
C25A C -0.2150(3) 1.1470(3) 2.9534(2)
H28A H -0.20000 1.19010 2.99900
C26A C -0.3113(3) 1.1840(3) 2.9062(2)
H29A H -0.35870 1.25090 2.92000
C27A C -0.4490(4) 1.0682(3) 2.1066(3)
H30A H -0.47320 1.01440 2.07780
H31A H -0.38000 1.05240 2.13420
C28A C -0.5164(3) 1.1727(3) 2.1085(2)
C29A C -0.6218(3) 1.2012(3) 2.0679(3)
H32A H -0.63300 1.14100 2.03490
H33A H -0.68240 1.22250 2.11410
H34A H -0.62180 1.25950 2.02690
C30A C -0.4743(3) 1.2571(3) 2.15498(19)
C31A C -0.0473(3) 1.4579(3) 2.3943(3)
H35A H 0.00820 1.48030 2.42460
H36A H -0.03400 1.38760 2.37430
C32A C -0.1460(3) 1.5270(3) 2.3797(2)
C33A C -0.1728(4) 1.6378(3) 2.4089(3)
H37A H -0.10720 1.65330 2.43400
H38A H -0.19370 1.68330 2.35780
H39A H -0.23520 1.65010 2.45410
C34A C -0.2325(3) 1.4884(3) 2.3289(2)
C35A C 0.3114(4) 1.1487(4) 1.4058(3)
H40A H 0.35630 1.19580 1.38140
H41A H 0.29900 1.15890 1.47030
H42A H 0.35110 1.07590 1.39280
C36A C 0.2014(3) 1.1721(3) 1.3643(2)
C37A C 0.1770(4) 1.2415(3) 1.2972(3)
H43A H 0.23090 1.27760 1.27470
H44A H 0.10610 1.25420 1.27270
C38A C 0.1139(3) 1.1145(3) 1.3994(2)
C39A C 0.2362(4) 1.1174(5) -0.2483(3)
H45A H 0.28370 1.16140 -0.27420
H46A H 0.28170 1.04660 -0.23890
H47A H 0.17810 1.11430 -0.28890
C40A C 0.1826(3) 1.1632(3) -0.1613(3)
C41A C 0.1948(4) 1.2544(4) -0.1277(4)
H48A H 0.23960 1.29340 -0.15990
H49A H 0.15870 1.27950 -0.07200
C42A C 0.1123(3) 1.1006(3) -0.1084(3)
H50A H -0.131(3) 1.121(3) 2.198(2)
#END
