####################################################################### 
# 
# This file contains crystal structure data downloaded from the 
# Cambridge Structural Database (CSD) hosted by the Cambridge 
# Crystallographic Data Centre (CCDC).
# 
# Full information about CCDC data access policies and citation 
# guidelines are available at http://www.ccdc.cam.ac.uk/access/V1 
# 
# Audit and citation data items may have been added by the CCDC. 
# Please retain this information to preserve the provenance of 
# this file and to allow appropriate attribution of the data. 
# 
#######################################################################

data_011221a
_audit_block_doi                 10.5517/cc6213d
_database_code_depnum_ccdc_archive 'CCDC 180702'
_audit_update_record             
;
2002-03-01 deposited with the CCDC.	2024-07-10 downloaded from the CCDC.
;


_audit_creation_method           SHELXL-97
_chemical_name_systematic        
;
?
;
_chemical_name_common            ?
_chemical_melting_point          ?
_chemical_formula_moiety         ?
_chemical_formula_sum            'C48 H56 Cl2 K2 N6 O14 Pt S6'
_chemical_formula_weight         1477.54

loop_
_atom_type_symbol
_atom_type_description
_atom_type_scat_dispersion_real
_atom_type_scat_dispersion_imag
_atom_type_scat_source
C C 0.0033 0.0016 'International Tables Vol C Tables 4.2.6.8 and 6.1.1.4'
H H 0.0000 0.0000 'International Tables Vol C Tables 4.2.6.8 and 6.1.1.4'
N N 0.0061 0.0033 'International Tables Vol C Tables 4.2.6.8 and 6.1.1.4'
O O 0.0106 0.0060 'International Tables Vol C Tables 4.2.6.8 and 6.1.1.4'
S S 0.1246 0.1234 'International Tables Vol C Tables 4.2.6.8 and 6.1.1.4'
Pt Pt -1.7033 8.3905 'International Tables Vol C Tables 4.2.6.8 and 6.1.1.4'
K K 0.2009 0.2494 'International Tables Vol C Tables 4.2.6.8 and 6.1.1.4'
Cl Cl 0.1484 0.1585 'International Tables Vol C Tables 4.2.6.8 and 6.1.1.4'

_symmetry_cell_setting           Triclinic
_symmetry_space_group_name_H-M   P-1

loop_
_symmetry_equiv_pos_as_xyz
'x, y, z'
'-x, -y, -z'

_cell_length_a                   9.919(3)
_cell_length_b                   13.451(4)
_cell_length_c                   14.028(4)
_cell_angle_alpha                111.185(4)
_cell_angle_beta                 101.151(4)
_cell_angle_gamma                102.857(5)
_cell_volume                     1622.3(9)
_cell_formula_units_Z            1
_cell_measurement_temperature    293(2)
_cell_measurement_reflns_used    2152
_cell_measurement_theta_min      2.209
_cell_measurement_theta_max      21.383

_exptl_crystal_description       ?
_exptl_crystal_colour            ?
_exptl_crystal_size_max          0.40
_exptl_crystal_size_mid          0.20
_exptl_crystal_size_min          0.10
_exptl_crystal_density_meas      ?
_exptl_crystal_density_diffrn    1.512
_exptl_crystal_density_method    'not measured'
_exptl_crystal_F_000             744
_exptl_absorpt_coefficient_mu    2.626
_exptl_absorpt_correction_type   multi-scan
_exptl_absorpt_correction_T_min  0.4197
_exptl_absorpt_correction_T_max  0.7792
_exptl_absorpt_process_details   sadabs

_exptl_special_details           
;
?
;

_diffrn_ambient_temperature      293(2)
_diffrn_radiation_wavelength     0.71073
_diffrn_radiation_type           MoK\a
_diffrn_radiation_source         'fine-focus sealed tube'
_diffrn_radiation_monochromator  graphite
_diffrn_measurement_device_type  'CCD area detector'
_diffrn_measurement_method       'phi and omega scans'
_diffrn_detector_area_resol_mean ?
_diffrn_standards_number         ?
_diffrn_standards_interval_count ?
_diffrn_standards_interval_time  ?
_diffrn_standards_decay_%        ?
_diffrn_reflns_number            7802
_diffrn_reflns_av_R_equivalents  0.0481
_diffrn_reflns_av_sigmaI/netI    0.1139
_diffrn_reflns_limit_h_min       -11
_diffrn_reflns_limit_h_max       11
_diffrn_reflns_limit_k_min       -11
_diffrn_reflns_limit_k_max       16
_diffrn_reflns_limit_l_min       -16
_diffrn_reflns_limit_l_max       16
_diffrn_reflns_theta_min         3.27
_diffrn_reflns_theta_max         25.03
_reflns_number_total             5399
_reflns_number_gt                3716
_reflns_threshold_expression     >2sigma(I)

_computing_data_collection       'Bruker SMART'
_computing_cell_refinement       'Bruker SMART'
_computing_data_reduction        'Bruker SHELXTL'
_computing_structure_solution    'SHELXS-97 (Sheldrick, 1990)'
_computing_structure_refinement  'SHELXL-97 (Sheldrick, 1997)'
_computing_molecular_graphics    'Bruker SHELXTL'
_computing_publication_material  'Bruker SHELXTL'

_refine_special_details          
;
Refinement of F^2^ against ALL reflections. The weighted R-factor wR and
goodness of fit S are based on F^2^, conventional R-factors R are based
on F, with F set to zero for negative F^2^. The threshold expression of
F^2^ > 2sigma(F^2^) is used only for calculating R-factors(gt) etc. and is
not relevant to the choice of reflections for refinement. R-factors based
on F^2^ are statistically about twice as large as those based on F, and R-
factors based on ALL data will be even larger.
;

_refine_ls_structure_factor_coef Fsqd
_refine_ls_matrix_type           full
_refine_ls_weighting_scheme      calc
_refine_ls_weighting_details     
'calc w=1/[\s^2^(Fo^2^)+(0.0265P)^2^+0.0000P] where P=(Fo^2^+2Fc^2^)/3'
_atom_sites_solution_primary     direct
_atom_sites_solution_secondary   difmap
_atom_sites_solution_hydrogens   geom
_refine_ls_hydrogen_treatment    mixed
_refine_ls_extinction_method     none
_refine_ls_extinction_coef       ?
_refine_ls_number_reflns         5399
_refine_ls_number_parameters     358
_refine_ls_number_restraints     5
_refine_ls_R_factor_all          0.0769
_refine_ls_R_factor_gt           0.0484
_refine_ls_wR_factor_ref         0.0889
_refine_ls_wR_factor_gt          0.0806
_refine_ls_goodness_of_fit_ref   0.875
_refine_ls_restrained_S_all      0.937
_refine_ls_shift/su_max          0.000
_refine_ls_shift/su_mean         0.000

loop_
_atom_site_label
_atom_site_type_symbol
_atom_site_fract_x
_atom_site_fract_y
_atom_site_fract_z
_atom_site_U_iso_or_equiv
_atom_site_adp_type
_atom_site_occupancy
_atom_site_symmetry_multiplicity
_atom_site_calc_flag
_atom_site_refinement_flags
_atom_site_disorder_assembly
_atom_site_disorder_group
Pt1 Pt 0.0000 0.5000 0.5000 0.04875(16) Uani 1 2 d S . .
K1 K 0.62048(15) 0.75669(11) 0.91901(10) 0.0516(4) Uani 1 1 d D . .
Cl1 Cl 0.5434(4) 0.8438(2) 0.4476(2) 0.1373(11) Uani 1 1 d D . .
N1 N 0.3319(7) 0.6869(5) 0.7948(5) 0.0753(18) Uani 1 1 d . . .
N2 N 0.2697(10) 0.3447(7) 0.6171(8) 0.119(3) Uani 1 1 d . . .
N3 N -0.2495(10) 0.1623(7) 0.4017(7) 0.126(3) Uani 1 1 d . . .
O1 O 0.6439(4) 0.5427(3) 0.8237(3) 0.0520(11) Uani 1 1 d . . .
O2 O 0.6483(4) 0.6165(4) 1.0221(3) 0.0542(11) Uani 1 1 d . . .
O3 O 0.6577(5) 0.8367(4) 1.1336(4) 0.0691(13) Uani 1 1 d . . .
O4 O 0.7122(5) 0.9873(3) 1.0418(4) 0.0651(13) Uani 1 1 d . . .
O5 O 0.7241(5) 0.9169(4) 0.8469(4) 0.0599(12) Uani 1 1 d . . .
O6 O 0.6670(4) 0.6882(3) 0.7242(3) 0.0529(11) Uani 1 1 d . . .
O7 O 0.9610(7) 0.1070(6) 0.6458(4) 0.130(3) Uani 1 1 d . . .
S1 S 0.05367(19) 0.52809(16) 0.68170(14) 0.0635(5) Uani 1 1 d . . .
S2 S 0.0974(2) 0.35090(16) 0.44094(16) 0.0742(6) Uani 1 1 d . . .
S3 S -0.22947(18) 0.38866(16) 0.48901(14) 0.0646(5) Uani 1 1 d . . .
C1 C 0.7085(7) 0.4936(5) 0.8821(6) 0.0503(16) Uani 1 1 d . . .
C2 C 0.7669(8) 0.4096(6) 0.8392(7) 0.067(2) Uani 1 1 d . . .
C3 C 0.8297(9) 0.3658(7) 0.9078(9) 0.086(3) Uani 1 1 d . . .
C4 C 0.8288(10) 0.4034(8) 1.0110(9) 0.091(3) Uani 1 1 d . . .
C5 C 0.7715(8) 0.4908(7) 1.0552(7) 0.076(2) Uani 1 1 d . . .
C6 C 0.7101(7) 0.5319(5) 0.9877(6) 0.0515(17) Uani 1 1 d . . .
C7 C 0.6538(8) 0.6608(6) 1.1339(6) 0.071(2) Uani 1 1 d . . .
C8 C 0.5763(9) 0.7471(6) 1.1540(6) 0.076(2) Uani 1 1 d D . .
C9 C 0.5946(10) 0.9279(6) 1.1569(7) 0.088(3) Uani 1 1 d D . .
C10 C 0.7091(11) 1.0235(6) 1.1500(6) 0.087(3) Uani 1 1 d . . .
C11 C 0.8162(7) 1.0554(5) 1.0223(6) 0.0559(17) Uani 1 1 d . . .
C12 C 0.9133(8) 1.1596(5) 1.1022(6) 0.069(2) Uani 1 1 d . . .
C13 C 1.0157(8) 1.2214(6) 1.0730(8) 0.074(2) Uani 1 1 d . . .
C14 C 1.0233(8) 1.1852(6) 0.9691(8) 0.071(2) Uani 1 1 d . . .
C15 C 0.9261(7) 1.0809(6) 0.8892(6) 0.0628(19) Uani 1 1 d . . .
C16 C 0.8245(7) 1.0191(5) 0.9180(6) 0.0544(17) Uani 1 1 d . . .
C17 C 0.7325(8) 0.8730(6) 0.7394(5) 0.0651(19) Uani 1 1 d . . .
C18 C 0.6213(8) 0.7580(6) 0.6760(5) 0.0621(19) Uani 1 1 d D . .
C19 C 0.5764(7) 0.5720(5) 0.6646(5) 0.0592(19) Uani 1 1 d D . .
C20 C 0.6448(7) 0.5050(5) 0.7140(5) 0.0549(18) Uani 1 1 d . . .
C21 C 0.2188(8) 0.6227(6) 0.7453(5) 0.0538(17) Uani 1 1 d . . .
C22 C 0.1942(9) 0.3509(7) 0.5485(8) 0.077(2) Uani 1 1 d . . .
C23 C -0.2323(9) 0.2571(9) 0.4392(6) 0.081(2) Uani 1 1 d . . .
C24 C 0.479(3) 0.9559(12) 0.473(3) 0.266(12) Uani 1 1 d D . .

loop_
_atom_site_aniso_label
_atom_site_aniso_U_11
_atom_site_aniso_U_22
_atom_site_aniso_U_33
_atom_site_aniso_U_23
_atom_site_aniso_U_13
_atom_site_aniso_U_12
Pt1 0.0408(2) 0.0591(3) 0.0364(2) 0.00888(18) 0.01179(17) 0.01648(18)
K1 0.0564(9) 0.0501(8) 0.0393(8) 0.0123(7) 0.0113(7) 0.0141(7)
Cl1 0.201(3) 0.1088(19) 0.127(2) 0.0493(18) 0.070(2) 0.079(2)
N1 0.051(4) 0.093(5) 0.058(4) 0.014(4) 0.009(3) 0.016(4)
N2 0.109(7) 0.115(6) 0.138(8) 0.061(6) 0.011(6) 0.056(5)
N3 0.152(8) 0.077(5) 0.117(7) 0.020(5) 0.048(6) 0.004(5)
O1 0.061(3) 0.052(3) 0.045(3) 0.017(2) 0.020(2) 0.023(2)
O2 0.058(3) 0.062(3) 0.043(3) 0.023(2) 0.016(2) 0.018(2)
O3 0.081(3) 0.057(3) 0.058(3) 0.015(2) 0.030(3) 0.009(3)
O4 0.075(3) 0.051(3) 0.053(3) 0.009(2) 0.023(3) 0.010(2)
O5 0.055(3) 0.057(3) 0.054(3) 0.020(2) 0.012(2) 0.003(2)
O6 0.053(3) 0.056(3) 0.036(2) 0.012(2) 0.006(2) 0.012(2)
O7 0.098(5) 0.211(7) 0.059(4) 0.059(4) 0.026(3) 0.003(5)
S1 0.0536(11) 0.0850(13) 0.0391(10) 0.0193(9) 0.0120(9) 0.0123(9)
S2 0.0703(13) 0.0758(13) 0.0677(14) 0.0121(11) 0.0226(11) 0.0364(11)
S3 0.0448(10) 0.0771(13) 0.0524(11) 0.0121(10) 0.0155(9) 0.0088(9)
C1 0.050(4) 0.052(4) 0.055(5) 0.028(4) 0.016(3) 0.018(3)
C2 0.061(5) 0.066(5) 0.092(6) 0.042(4) 0.030(4) 0.032(4)
C3 0.077(6) 0.086(6) 0.117(8) 0.054(6) 0.036(6) 0.045(5)
C4 0.096(7) 0.100(7) 0.104(8) 0.061(6) 0.030(6) 0.049(6)
C5 0.071(5) 0.078(5) 0.084(6) 0.043(5) 0.010(5) 0.027(4)
C6 0.046(4) 0.046(4) 0.056(5) 0.023(4) 0.005(3) 0.010(3)
C7 0.089(6) 0.081(5) 0.051(5) 0.031(4) 0.031(4) 0.025(4)
C8 0.102(6) 0.068(5) 0.068(5) 0.030(4) 0.051(5) 0.020(5)
C9 0.111(7) 0.056(5) 0.108(7) 0.027(5) 0.071(6) 0.028(5)
C10 0.142(8) 0.066(5) 0.063(5) 0.021(4) 0.059(5) 0.039(5)
C11 0.056(4) 0.051(4) 0.061(5) 0.024(4) 0.014(4) 0.022(4)
C12 0.060(5) 0.034(4) 0.092(6) 0.016(4) 0.005(4) 0.012(4)
C13 0.050(5) 0.050(4) 0.102(7) 0.023(5) -0.002(5) 0.015(4)
C14 0.051(5) 0.061(5) 0.091(7) 0.031(5) 0.009(4) 0.013(4)
C15 0.048(4) 0.058(4) 0.095(6) 0.048(4) 0.021(4) 0.014(4)
C16 0.058(4) 0.046(4) 0.054(5) 0.018(4) 0.010(4) 0.019(4)
C17 0.070(5) 0.080(5) 0.038(4) 0.025(4) 0.012(4) 0.016(4)
C18 0.071(5) 0.056(4) 0.052(4) 0.029(4) 0.002(4) 0.012(4)
C19 0.065(5) 0.053(4) 0.041(4) 0.010(3) 0.003(3) 0.014(4)
C20 0.069(5) 0.061(4) 0.028(4) 0.011(3) 0.010(3) 0.027(4)
C21 0.056(4) 0.072(5) 0.031(4) 0.015(3) 0.009(3) 0.031(4)
C22 0.052(5) 0.069(5) 0.099(7) 0.025(5) 0.012(5) 0.024(4)
C23 0.073(5) 0.090(6) 0.058(5) 0.017(5) 0.019(4) 0.012(5)
C24 0.29(2) 0.151(18) 0.45(4) 0.13(3) 0.24(3) 0.13(2)

_geom_special_details            
;
All esds (except the esd in the dihedral angle between two l.s. planes)
are estimated using the full covariance matrix. The cell esds are taken
into account individually in the estimation of esds in distances, angles
and torsion angles; correlations between esds in cell parameters are only
used when they are defined by crystal symmetry. An approximate (isotropic)
treatment of cell esds is used for estimating esds involving l.s. planes.
;

loop_
_geom_bond_atom_site_label_1
_geom_bond_atom_site_label_2
_geom_bond_distance
_geom_bond_site_symmetry_2
_geom_bond_publ_flag
Pt1 S2 2.3689(18) . ?
Pt1 S2 2.3689(18) 2_566 ?
Pt1 S1 2.3691(19) 2_566 ?
Pt1 S1 2.3691(19) . ?
Pt1 S3 2.3722(18) 2_566 ?
Pt1 S3 2.3722(18) . ?
K1 O6 2.718(4) . ?
K1 O3 2.722(5) . ?
K1 O4 2.773(4) . ?
K1 O5 2.778(4) . ?
K1 O1 2.786(4) . ?
K1 O2 2.788(4) . ?
K1 N1 2.793(6) . ?
K1 C14 3.361(7) 2_777 ?
K1 C9 3.398(7) . ?
K1 C19 3.407(6) . ?
K1 C18 3.417(7) . ?
K1 C8 3.451(7) . ?
Cl1 C24 1.713(13) . ?
N1 C21 1.149(8) . ?
N2 C22 1.141(10) . ?
N3 C23 1.147(10) . ?
O1 C1 1.376(7) . ?
O1 C20 1.439(7) . ?
O2 C6 1.390(7) . ?
O2 C7 1.448(8) . ?
O3 C8 1.447(8) . ?
O3 C9 1.460(8) . ?
O4 C11 1.360(8) . ?
O4 C10 1.426(8) . ?
O5 C16 1.375(7) . ?
O5 C17 1.433(8) . ?
O6 C18 1.440(7) . ?
O6 C19 1.445(7) . ?
S1 C21 1.669(8) . ?
S2 C22 1.624(11) . ?
S3 C23 1.642(10) . ?
C1 C6 1.377(9) . ?
C1 C2 1.382(9) . ?
C2 C3 1.416(11) . ?
C3 C4 1.351(12) . ?
C4 C5 1.414(11) . ?
C5 C6 1.369(9) . ?
C7 C8 1.504(10) . ?
C9 C10 1.561(11) . ?
C11 C16 1.390(9) . ?
C11 C12 1.413(9) . ?
C12 C13 1.386(11) . ?
C13 C14 1.383(11) . ?
C13 K1 3.531(8) 2_777 ?
C14 C15 1.414(10) . ?
C14 K1 3.361(7) 2_777 ?
C15 C16 1.377(9) . ?
C17 C18 1.506(9) . ?
C19 C20 1.516(9) . ?
C24 C24 1.08(3) 2_676 ?

loop_
_geom_angle_atom_site_label_1
_geom_angle_atom_site_label_2
_geom_angle_atom_site_label_3
_geom_angle
_geom_angle_site_symmetry_1
_geom_angle_site_symmetry_3
_geom_angle_publ_flag
S2 Pt1 S2 180.000(1) . 2_566 ?
S2 Pt1 S1 83.56(7) . 2_566 ?
S2 Pt1 S1 96.44(7) 2_566 2_566 ?
S2 Pt1 S1 96.44(7) . . ?
S2 Pt1 S1 83.56(7) 2_566 . ?
S1 Pt1 S1 180.000(1) 2_566 . ?
S2 Pt1 S3 83.29(7) . 2_566 ?
S2 Pt1 S3 96.71(7) 2_566 2_566 ?
S1 Pt1 S3 82.47(6) 2_566 2_566 ?
S1 Pt1 S3 97.53(6) . 2_566 ?
S2 Pt1 S3 96.71(7) . . ?
S2 Pt1 S3 83.29(7) 2_566 . ?
S1 Pt1 S3 97.53(6) 2_566 . ?
S1 Pt1 S3 82.47(6) . . ?
S3 Pt1 S3 180.0 2_566 . ?
O6 K1 O3 163.45(15) . . ?
O6 K1 O4 116.07(15) . . ?
O3 K1 O4 60.73(14) . . ?
O6 K1 O5 60.94(14) . . ?
O3 K1 O5 115.43(14) . . ?
O4 K1 O5 55.54(14) . . ?
O6 K1 O1 60.66(13) . . ?
O3 K1 O1 115.34(15) . . ?
O4 K1 O1 157.68(14) . . ?
O5 K1 O1 119.11(14) . . ?
O6 K1 O2 114.99(14) . . ?
O3 K1 O2 60.48(14) . . ?
O4 K1 O2 118.67(14) . . ?
O5 K1 O2 154.57(14) . . ?
O1 K1 O2 55.20(13) . . ?
O6 K1 N1 82.81(16) . . ?
O3 K1 N1 113.72(17) . . ?
O4 K1 N1 109.25(17) . . ?
O5 K1 N1 96.02(17) . . ?
O1 K1 N1 92.55(16) . . ?
O2 K1 N1 108.62(17) . . ?
O6 K1 C14 88.2(2) . 2_777 ?
O3 K1 C14 75.3(2) . 2_777 ?
O4 K1 C14 77.31(17) . 2_777 ?
O5 K1 C14 82.02(17) . 2_777 ?
O1 K1 C14 80.48(16) . 2_777 ?
O2 K1 C14 72.65(16) . 2_777 ?
N1 K1 C14 170.6(2) . 2_777 ?
O6 K1 C9 160.34(17) . . ?
O3 K1 C9 24.58(17) . . ?
O4 K1 C9 44.75(17) . . ?
O5 K1 C9 99.46(17) . . ?
O1 K1 C9 138.27(17) . . ?
O2 K1 C9 83.17(17) . . ?
N1 K1 C9 99.0(2) . . ?
C14 K1 C9 90.4(2) 2_777 . ?
O6 K1 C19 24.10(14) . . ?
O3 K1 C19 159.26(16) . . ?
O4 K1 C19 138.94(16) . . ?
O5 K1 C19 83.43(15) . . ?
O1 K1 C19 44.23(15) . . ?
O2 K1 C19 98.79(15) . . ?
N1 K1 C19 70.15(17) . . ?
C14 K1 C19 100.4(2) 2_777 . ?
C9 K1 C19 169.1(2) . . ?
O6 K1 C18 23.84(14) . . ?
O3 K1 C18 159.27(16) . . ?
O4 K1 C18 98.57(16) . . ?
O5 K1 C18 44.00(15) . . ?
O1 K1 C18 83.17(15) . . ?
O2 K1 C18 138.28(15) . . ?
N1 K1 C18 72.42(18) . . ?
C14 K1 C18 100.2(2) 2_777 . ?
C9 K1 C18 138.53(19) . . ?
C19 K1 C18 40.83(16) . . ?
O6 K1 C8 158.41(17) . . ?
O3 K1 C8 23.51(15) . . ?
O4 K1 C8 83.05(16) . . ?
O5 K1 C8 138.48(16) . . ?
O1 K1 C8 97.80(16) . . ?
O2 K1 C8 43.56(16) . . ?
N1 K1 C8 100.9(2) . . ?
C14 K1 C8 86.4(2) 2_777 . ?
C9 K1 C8 40.71(19) . . ?
C19 K1 C8 138.00(18) . . ?
C18 K1 C8 173.32(19) . . ?
C21 N1 K1 154.8(6) . . ?
C1 O1 C20 116.2(5) . . ?
C1 O1 K1 122.5(4) . . ?
C20 O1 K1 116.3(3) . . ?
C6 O2 C7 116.7(5) . . ?
C6 O2 K1 122.2(4) . . ?
C7 O2 K1 116.5(4) . . ?
C8 O3 C9 110.1(5) . . ?
C8 O3 K1 107.8(4) . . ?
C9 O3 K1 104.6(4) . . ?
C11 O4 C10 116.5(6) . . ?
C11 O4 K1 119.4(4) . . ?
C10 O4 K1 116.4(4) . . ?
C16 O5 C17 116.9(5) . . ?
C16 O5 K1 119.9(4) . . ?
C17 O5 K1 115.4(4) . . ?
C18 O6 C19 111.2(5) . . ?
C18 O6 K1 106.4(3) . . ?
C19 O6 K1 105.7(3) . . ?
C21 S1 Pt1 106.8(2) . . ?
C22 S2 Pt1 106.1(3) . . ?
C23 S3 Pt1 106.9(3) . . ?
O1 C1 C6 115.9(6) . . ?
O1 C1 C2 123.3(7) . . ?
C6 C1 C2 120.8(7) . . ?
C1 C2 C3 117.7(8) . . ?
C4 C3 C2 120.8(7) . . ?
C3 C4 C5 121.4(8) . . ?
C6 C5 C4 117.2(8) . . ?
C5 C6 C1 122.1(7) . . ?
C5 C6 O2 122.1(7) . . ?
C1 C6 O2 115.8(6) . . ?
O2 C7 C8 108.5(6) . . ?
O3 C8 C7 106.2(6) . . ?
O3 C8 K1 48.7(3) . . ?
C7 C8 K1 86.1(4) . . ?
O3 C9 C10 103.0(6) . . ?
O3 C9 K1 50.8(3) . . ?
C10 C9 K1 86.0(4) . . ?
O4 C10 C9 108.1(6) . . ?
O4 C11 C16 117.2(6) . . ?
O4 C11 C12 123.0(7) . . ?
C16 C11 C12 119.7(7) . . ?
C13 C12 C11 117.8(8) . . ?
C14 C13 C12 122.3(7) . . ?
C14 C13 K1 71.6(4) . 2_777 ?
C12 C13 K1 134.1(5) . 2_777 ?
C13 C14 C15 119.8(7) . . ?
C13 C14 K1 85.5(5) . 2_777 ?
C15 C14 K1 126.4(5) . 2_777 ?
C16 C15 C14 118.1(7) . . ?
O5 C16 C15 123.1(7) . . ?
O5 C16 C11 114.6(6) . . ?
C15 C16 C11 122.3(7) . . ?
O5 C17 C18 109.1(6) . . ?
O6 C18 C17 105.3(5) . . ?
O6 C18 K1 49.7(3) . . ?
C17 C18 K1 85.8(4) . . ?
O6 C19 C20 106.5(5) . . ?
O6 C19 K1 50.2(3) . . ?
C20 C19 K1 87.1(3) . . ?
O1 C20 C19 108.7(5) . . ?
N1 C21 S1 175.6(7) . . ?
N2 C22 S2 172.6(9) . . ?
N3 C23 S3 173.0(9) . . ?
C24 C24 Cl1 136(4) 2_676 . ?

_diffrn_measured_fraction_theta_max 0.943
_diffrn_reflns_theta_full        25.03
_diffrn_measured_fraction_theta_full 0.943
_refine_diff_density_max         0.910
_refine_diff_density_min         -1.078
_refine_diff_density_rms         0.089
