####################################################################### 
# 
# This file contains crystal structure data downloaded from the 
# Cambridge Structural Database (CSD) hosted by the Cambridge 
# Crystallographic Data Centre (CCDC).
# 
# Full information about CCDC data access policies and citation 
# guidelines are available at http://www.ccdc.cam.ac.uk/access/V1 
# 
# Audit and citation data items may have been added by the CCDC. 
# Please retain this information to preserve the provenance of 
# this file and to allow appropriate attribution of the data. 
# 
#######################################################################

data_NOTT-203_180K
_audit_block_doi                 10.5517/ccvhmb8
_database_code_depnum_ccdc_archive 'CCDC 789580'
loop_
_citation_id
_citation_doi
_citation_year
1 10.1038/nmat3343 2012
_audit_update_record             
;
2010-08-17 deposited with the CCDC.	2024-07-10 downloaded from the CCDC.
;

#_database_code_depnum_ccdc_archive 'CCDC 000000'

_refine_special_details          
;
The C20--C25 phenyl ring of the ligand is rotationally disordered
over two equally-occupied orientations. The occupancy of the
interpenetrated network is 0.875, based on the occupancies of the
fully occupied (1.00) and partially occupied (0.75) interpentrating
networks in the corresponding solvated structure (NOTT-202; CCDC
756304).
;

loop_
_platon_squeeze_void_nr
_platon_squeeze_void_average_x
_platon_squeeze_void_average_y
_platon_squeeze_void_average_z
_platon_squeeze_void_volume
_platon_squeeze_void_count_electrons
1 -0.007 -0.001 -0.009 8802 1229

_platon_squeeze_details          
;
Although the crystal was slightly degassed before measurement,
approximately 66% of the unit cell volume comprises a large region of
disordered residual solvent which could not be modelled as discrete
atomic sites. We employed PLATON SQUEEZE to calculate the contribution
to the diffraction from the solvent region and thereby produced a set
of solvent-free diffraction intensities.
;

_audit_creation_method           'enCIFer editing of SHELXL97 CIF output'
_chemical_name_systematic        
;
?
;
_chemical_name_common            ?
_chemical_melting_point          ?
_chemical_formula_moiety         'In1.75 (C40 O8 H22)1.75 (C2 H6 N H2)1.75'
_chemical_formula_sum            'C73.50 H52.50 In1.75 N1.75 O14'
_chemical_formula_weight         1385.11

loop_
_atom_type_symbol
_atom_type_description
_atom_type_scat_dispersion_real
_atom_type_scat_dispersion_imag
_atom_type_scat_source





C C 0.0033 0.0016 'International Tables Vol C Tables 4.2.6.8 and 6.1.1.4'
H H 0.0000 0.0000 'International Tables Vol C Tables 4.2.6.8 and 6.1.1.4'
N N 0.0061 0.0033 'International Tables Vol C Tables 4.2.6.8 and 6.1.1.4'
O O 0.0106 0.0060 'International Tables Vol C Tables 4.2.6.8 and 6.1.1.4'
In In -0.7276 1.3100 'International Tables Vol C Tables 4.2.6.8 and 6.1.1.4'

_symmetry_cell_setting           monoclinic
_symmetry_space_group_name_H-M   'C 2/c'

loop_
_symmetry_equiv_pos_as_xyz




'x, y, z'
'-x, y, -z+1/2'
'x+1/2, y+1/2, z'
'-x+1/2, y+1/2, -z+1/2'
'-x, -y, -z'
'x, -y, z-1/2'
'-x+1/2, -y+1/2, -z'
'x+1/2, -y+1/2, z-1/2'

_cell_length_a                   19.787(3)
_cell_length_b                   28.491(5)
_cell_length_c                   26.443(5)
_cell_angle_alpha                90.00
_cell_angle_beta                 97.234(2)
_cell_angle_gamma                90.00
_cell_volume                     14789(4)
_cell_formula_units_Z            4
_cell_measurement_temperature    180(2)
_cell_measurement_reflns_used    13140
_cell_measurement_theta_min      1.2
_cell_measurement_theta_max      31.6

_exptl_crystal_description       TABLET
_exptl_crystal_colour            COLORLESS
_exptl_crystal_size_max          0.10
_exptl_crystal_size_mid          0.08
_exptl_crystal_size_min          0.05
_exptl_crystal_density_meas      ?
_exptl_crystal_density_diffrn    0.622
_exptl_crystal_density_method    'not measured'
_exptl_crystal_F_000             2814
_exptl_absorpt_coefficient_mu    0.303
_exptl_absorpt_correction_type   Multi-scan
_exptl_absorpt_correction_T_min  0.729
_exptl_absorpt_correction_T_max  1.000
_exptl_absorpt_process_details   'Jacobson, R. (1998) Private communication'

_exptl_special_details           
;
?
;

_diffrn_ambient_temperature      180(2)
_diffrn_radiation_wavelength     0.6889
_diffrn_radiation_source         'Diamond Light Source Beamline I19'
_diffrn_radiation_monochromator  'silicon double crystal'
_diffrn_measurement_device_type  'Rigaku Saturn724+'
_diffrn_measurement_method       \w-scans
_diffrn_detector_area_resol_mean 28.5714
_diffrn_reflns_number            32650
_diffrn_reflns_av_R_equivalents  0.048
_diffrn_reflns_av_sigmaI/netI    0.052
_diffrn_reflns_limit_h_min       -23
_diffrn_reflns_limit_h_max       21
_diffrn_reflns_limit_k_min       -33
_diffrn_reflns_limit_k_max       30
_diffrn_reflns_limit_l_min       -31
_diffrn_reflns_limit_l_max       31
_diffrn_reflns_theta_min         2.44
_diffrn_reflns_theta_max         24.21
_reflns_number_total             12960
_reflns_number_gt                10369
_reflns_threshold_expression     >2sigma(I)

_computing_data_collection       'Rigaku CrystalClear (Rigaku, 2009)'
#Rigaku(2009). CrystalClear. Rigaku Corporation, Tokyo, Japan.
_computing_cell_refinement       'Rigaku CrystalClear'
_computing_data_reduction        'Rigaku CrystalClear'
_computing_structure_solution    'SHELXS97 (Sheldrick, 2008)'
_computing_structure_refinement  'SHELXL97 (Sheldrick, 2008)'
_computing_publication_material  
'enCIFer (Allen et al., 2004); PLATON (Spek, 2009)'


_refine_ls_structure_factor_coef Fsqd
_refine_ls_matrix_type           full
_refine_ls_weighting_scheme      calc
_refine_ls_weighting_details     
'calc w=1/[\s^2^(Fo^2^)+(0.0750P)^2^+4.0000P] where P=(Fo^2^+2Fc^2^)/3'

_atom_sites_solution_primary     direct
_atom_sites_solution_secondary   difmap
_atom_sites_solution_hydrogens   geom
_refine_ls_hydrogen_treatment    CONSTR
_refine_ls_extinction_method     none
_refine_ls_extinction_coef       ?
_refine_ls_number_reflns         12960
_refine_ls_number_parameters     451
_refine_ls_number_restraints     1
_refine_ls_R_factor_all          0.0595
_refine_ls_R_factor_gt           0.0499
_refine_ls_wR_factor_ref         0.1414
_refine_ls_wR_factor_gt          0.1341
_refine_ls_goodness_of_fit_ref   1.055
_refine_ls_restrained_S_all      1.056
_refine_ls_shift/su_max          0.008
_refine_ls_shift/su_mean         0.000

loop_
_atom_site_label
_atom_site_type_symbol
_atom_site_fract_x
_atom_site_fract_y
_atom_site_fract_z
_atom_site_U_iso_or_equiv
_atom_site_adp_type
_atom_site_occupancy
_atom_site_symmetry_multiplicity
_atom_site_calc_flag
_atom_site_refinement_flags
_atom_site_disorder_assembly
_atom_site_disorder_group
















































In1 In 0.885750(10) 0.254803(7) 1.115436(7) 0.03095(9) Uani 1 1 d . . .
O1 O -0.01570(10) 0.21627(7) 1.11951(7) 0.0377(5) Uani 1 1 d . . .
O2 O -0.06489(11) 0.23867(8) 1.04460(8) 0.0424(5) Uani 1 1 d . . .
O3 O 0.39247(14) 0.23996(9) 0.69558(9) 0.0529(6) Uani 1 1 d . . .
O4 O 0.28073(15) 0.23348(11) 0.67323(9) 0.0658(7) Uani 1 1 d . . .
O5 O 0.83204(10) 0.18273(7) 1.11751(8) 0.0421(5) Uani 1 1 d . . .
O6 O 0.78810(10) 0.23926(7) 1.06714(8) 0.0352(5) Uani 1 1 d . . .
O7 O 0.34869(12) -0.17229(8) 1.09740(10) 0.0551(6) Uani 1 1 d . . .
O8 O 0.45809(12) -0.18007(8) 1.11659(11) 0.0600(7) Uani 1 1 d . . .
C1 C 0.04751(15) 0.20700(11) 1.04900(11) 0.0358(7) Uani 1 1 d . . .
C2 C 0.04905(18) 0.21278(18) 0.99740(14) 0.0700(13) Uani 1 1 d . . .
H2A H 0.0100 0.2241 0.9764 0.084 Uiso 1 1 calc R . .
C3 C 0.10859(19) 0.20182(18) 0.97594(14) 0.0744(14) Uani 1 1 d . . .
H3A H 0.1090 0.2047 0.9402 0.089 Uiso 1 1 calc R . .
C4 C 0.16724(16) 0.18666(11) 1.00665(11) 0.0406(7) Uani 1 1 d . . .
C5 C 0.16298(18) 0.18122(14) 1.05744(12) 0.0527(9) Uani 1 1 d . . .
H5A H 0.2018 0.1701 1.0789 0.063 Uiso 1 1 calc R . .
C6 C 0.10516(17) 0.19116(13) 1.07851(12) 0.0513(9) Uani 1 1 d . . .
H6A H 0.1047 0.1871 1.1141 0.062 Uiso 1 1 calc R . .
C7 C 0.32385(17) 0.22435(12) 0.76119(11) 0.0439(8) Uani 1 1 d . . .
C8 C 0.37970(17) 0.22357(13) 0.79823(12) 0.0468(8) Uani 1 1 d . . .
H8A H 0.4235 0.2309 0.7892 0.056 Uiso 1 1 calc R . .
C9 C 0.37281(15) 0.21235(12) 0.84811(11) 0.0421(7) Uani 1 1 d . . .
H9A H 0.4119 0.2115 0.8729 0.051 Uiso 1 1 calc R . .
C10 C 0.30898(15) 0.20235(11) 0.86226(11) 0.0396(7) Uani 1 1 d . . .
C11 C 0.25223(18) 0.20454(14) 0.82492(13) 0.0541(9) Uani 1 1 d . . .
H11A H 0.2080 0.1988 0.8340 0.065 Uiso 1 1 calc R . .
C12 C 0.26007(18) 0.21492(14) 0.77502(13) 0.0554(9) Uani 1 1 d . . .
H12A H 0.2213 0.2156 0.7499 0.067 Uiso 1 1 calc R . .
C13 C 0.71792(15) 0.17267(11) 1.07497(12) 0.0379(7) Uani 1 1 d . . .
C14 C 0.70282(17) 0.13498(12) 1.10443(14) 0.0515(9) Uani 1 1 d . . .
H14A H 0.7361 0.1238 1.1307 0.062 Uiso 1 1 calc R . .
C15 C 0.63959(17) 0.11334(12) 1.09601(14) 0.0543(10) Uani 1 1 d . . .
H15A H 0.6298 0.0876 1.1167 0.065 Uiso 1 1 calc R . .
C16 C 0.59045(15) 0.12906(11) 1.05763(12) 0.0401(7) Uani 1 1 d . . .
C17 C 0.60733(15) 0.16652(11) 1.02689(12) 0.0401(7) Uani 1 1 d . . .
H17A H 0.5751 0.1770 0.9996 0.048 Uiso 1 1 calc R . .
C18 C 0.67000(15) 0.18820(11) 1.03581(11) 0.0377(7) Uani 1 1 d . . .
H18A H 0.6803 0.2138 1.0151 0.045 Uiso 1 1 calc R . .
C19 C 0.41693(16) -0.10360(11) 1.09306(12) 0.0419(7) Uani 1 1 d . . .
C22 C 0.43527(16) -0.00858(11) 1.07007(13) 0.0425(7) Uani 1 1 d . . .
C20A C 0.3623(3) -0.0717(2) 1.0920(3) 0.0489(17) Uiso 0.535(6) 1 d P A 1
H20A H 0.3186 -0.0828 1.0977 0.059 Uiso 0.535(6) 1 calc PR A 1
C21A C 0.3715(4) -0.0240(2) 1.0827(3) 0.057(2) Uiso 0.535(6) 1 d P A 1
H21A H 0.3355 -0.0023 1.0847 0.068 Uiso 0.535(6) 1 calc PR A 1
C23A C 0.4876(3) -0.0390(2) 1.0731(3) 0.0401(15) Uiso 0.535(6) 1 d P A 1
H23A H 0.5313 -0.0284 1.0667 0.048 Uiso 0.535(6) 1 calc PR A 1
C24A C 0.4783(3) -0.0858(2) 1.0853(3) 0.0412(15) Uiso 0.535(6) 1 d P A 1
H24A H 0.5165 -0.1062 1.0885 0.049 Uiso 0.535(6) 1 calc PR A 1
C20B C 0.3686(4) -0.0803(2) 1.0599(3) 0.0437(19) Uiso 0.465(6) 1 d P A 2
H20B H 0.3282 -0.0959 1.0457 0.052 Uiso 0.465(6) 1 calc PR A 2
C21B C 0.3794(4) -0.0343(2) 1.0477(3) 0.0444(19) Uiso 0.465(6) 1 d P A 2
H21B H 0.3476 -0.0194 1.0229 0.053 Uiso 0.465(6) 1 calc PR A 2
C23B C 0.4871(4) -0.0346(2) 1.0995(3) 0.0406(17) Uiso 0.465(6) 1 d P A 2
H23B H 0.5293 -0.0197 1.1107 0.049 Uiso 0.465(6) 1 calc PR A 2
C24B C 0.4781(4) -0.0813(2) 1.1126(3) 0.0433(18) Uiso 0.465(6) 1 d P A 2
H24B H 0.5124 -0.0977 1.1340 0.052 Uiso 0.465(6) 1 calc PR A 2
C25 C 0.30035(15) 0.18695(11) 0.91484(11) 0.0385(7) Uani 1 1 d . . .
C26 C 0.35255(16) 0.16108(11) 0.94321(11) 0.0395(7) Uani 1 1 d . . .
H26A H 0.3942 0.1562 0.9296 0.047 Uiso 1 1 calc R . .
C27 C 0.34461(15) 0.14257(11) 0.99047(11) 0.0380(7) Uani 1 1 d . . .
C28 C 0.28321(15) 0.15016(11) 1.01020(12) 0.0394(7) Uani 1 1 d . . .
H28A H 0.2767 0.1367 1.0421 0.047 Uiso 1 1 calc R . .
C29 C 0.23120(15) 0.17715(11) 0.98378(12) 0.0387(7) Uani 1 1 d . . .
C30 C 0.24098(15) 0.19519(12) 0.93633(11) 0.0415(7) Uani 1 1 d . . .
H30A H 0.2060 0.2137 0.9181 0.050 Uiso 1 1 calc R . .
C31 C 0.44531(16) 0.04137(11) 1.05627(12) 0.0411(7) Uani 1 1 d . A .
C32 C 0.39067(15) 0.06887(11) 1.03413(12) 0.0406(7) Uani 1 1 d . . .
H32A H 0.3459 0.0562 1.0302 0.049 Uiso 1 1 calc R A .
C33 C 0.40114(15) 0.11430(11) 1.01781(11) 0.0382(7) Uani 1 1 d . A .
C34 C 0.46588(15) 0.13312(11) 1.02540(11) 0.0385(7) Uani 1 1 d . . .
H34A H 0.4729 0.1643 1.0144 0.046 Uiso 1 1 calc R A .
C35 C 0.52107(15) 0.10749(11) 1.04874(12) 0.0404(7) Uani 1 1 d . A .
C36 C 0.51010(16) 0.06162(11) 1.06338(13) 0.0436(8) Uani 1 1 d . . .
H36A H 0.5476 0.0435 1.0786 0.052 Uiso 1 1 calc R A .
C37 C -0.01464(15) 0.22088(11) 1.07193(11) 0.0364(7) Uani 1 1 d . . .
C38 C 0.3316(2) 0.23347(13) 0.70616(13) 0.0491(8) Uani 1 1 d . . .
C39 C 0.78316(15) 0.19868(11) 1.08707(11) 0.0369(7) Uani 1 1 d . . .
C40 C 0.40784(17) -0.15441(11) 1.10325(12) 0.0412(7) Uani 1 1 d . . .
N1 N 0.69588(18) 0.31605(12) 1.09323(13) 0.0687(9) Uiso 1 1 d D . .
H1A H 0.7075 0.3406 1.1153 0.082 Uiso 1 1 calc R . .
H1B H 0.7316 0.2951 1.0960 0.082 Uiso 1 1 calc R . .
C41 C 0.6830(3) 0.33375(17) 1.04071(17) 0.0830(13) Uiso 1 1 d D . .
H41A H 0.7238 0.3497 1.0319 0.100 Uiso 1 1 calc R . .
H41B H 0.6448 0.3559 1.0379 0.100 Uiso 1 1 calc R . .
H41C H 0.6717 0.3074 1.0173 0.100 Uiso 1 1 calc R . .
C42 C 0.6330(4) 0.2921(3) 1.1072(3) 0.149(3) Uiso 1 1 d D . .
H42A H 0.6422 0.2794 1.1418 0.179 Uiso 1 1 calc R . .
H42B H 0.6201 0.2665 1.0832 0.179 Uiso 1 1 calc R . .
H42C H 0.5956 0.3149 1.1057 0.179 Uiso 1 1 calc R . .

loop_
_atom_site_aniso_label
_atom_site_aniso_U_11
_atom_site_aniso_U_22
_atom_site_aniso_U_33
_atom_site_aniso_U_23
_atom_site_aniso_U_13
_atom_site_aniso_U_12






















In1 0.02374(14) 0.03692(15) 0.03365(14) -0.00031(8) 0.00931(9) -0.00318(8)
O1 0.0325(11) 0.0464(12) 0.0363(11) 0.0042(9) 0.0125(8) 0.0067(9)
O2 0.0300(12) 0.0582(14) 0.0409(12) 0.0045(10) 0.0114(9) 0.0069(10)
O3 0.0571(17) 0.0655(16) 0.0405(13) 0.0059(11) 0.0234(11) 0.0094(12)
O4 0.074(2) 0.0889(19) 0.0353(14) 0.0076(13) 0.0077(13) -0.0139(16)
O5 0.0316(12) 0.0414(12) 0.0524(13) 0.0045(10) 0.0014(10) -0.0062(9)
O6 0.0273(11) 0.0393(11) 0.0404(12) -0.0001(9) 0.0096(9) -0.0083(9)
O7 0.0406(14) 0.0398(13) 0.0823(18) 0.0071(12) -0.0023(12) -0.0116(11)
O8 0.0411(15) 0.0401(13) 0.101(2) -0.0006(13) 0.0170(13) -0.0051(11)
C1 0.0319(16) 0.0433(17) 0.0345(16) 0.0032(13) 0.0127(12) 0.0021(13)
C2 0.036(2) 0.130(4) 0.047(2) 0.015(2) 0.0163(15) 0.021(2)
C3 0.043(2) 0.143(4) 0.041(2) 0.030(2) 0.0193(16) 0.029(2)
C4 0.0347(18) 0.0502(19) 0.0390(17) 0.0013(14) 0.0129(13) 0.0055(14)
C5 0.045(2) 0.077(3) 0.0384(18) 0.0117(17) 0.0163(14) 0.0231(18)
C6 0.042(2) 0.076(2) 0.0376(18) 0.0125(16) 0.0141(14) 0.0175(17)
C7 0.047(2) 0.054(2) 0.0334(16) 0.0023(14) 0.0131(14) -0.0004(16)
C8 0.0409(19) 0.063(2) 0.0391(18) 0.0043(15) 0.0164(14) -0.0018(16)
C9 0.0294(17) 0.061(2) 0.0373(17) -0.0002(14) 0.0087(12) -0.0009(15)
C10 0.0342(17) 0.054(2) 0.0322(16) -0.0014(13) 0.0108(12) 0.0037(14)
C11 0.038(2) 0.082(3) 0.0442(19) 0.0119(17) 0.0141(15) -0.0012(18)
C12 0.046(2) 0.079(3) 0.0414(19) 0.0085(17) 0.0079(15) -0.0022(18)
C13 0.0288(16) 0.0397(17) 0.0445(17) 0.0041(13) 0.0016(13) -0.0059(13)
C14 0.0357(19) 0.052(2) 0.064(2) 0.0233(17) -0.0058(15) -0.0098(15)
C15 0.0370(19) 0.052(2) 0.071(2) 0.0297(18) -0.0066(16) -0.0152(16)
C16 0.0324(17) 0.0395(17) 0.0483(18) 0.0062(14) 0.0048(13) -0.0067(13)
C17 0.0332(17) 0.0426(18) 0.0444(17) 0.0069(14) 0.0041(13) -0.0085(14)
C18 0.0356(17) 0.0380(17) 0.0411(17) 0.0058(13) 0.0109(13) -0.0086(13)
C19 0.0358(18) 0.0415(18) 0.0489(19) -0.0045(14) 0.0071(14) -0.0084(14)
C22 0.0384(18) 0.0349(17) 0.055(2) 0.0033(14) 0.0079(14) -0.0086(14)
C25 0.0274(16) 0.0532(19) 0.0367(16) 0.0037(14) 0.0115(12) 0.0005(14)
C26 0.0318(17) 0.0485(18) 0.0405(17) 0.0013(14) 0.0139(13) 0.0014(14)
C27 0.0314(16) 0.0413(17) 0.0423(17) 0.0016(13) 0.0086(12) -0.0011(13)
C28 0.0319(17) 0.0442(18) 0.0450(18) 0.0058(14) 0.0163(13) -0.0009(14)
C29 0.0297(16) 0.0499(19) 0.0377(16) 0.0033(14) 0.0093(12) 0.0047(14)
C30 0.0323(17) 0.055(2) 0.0389(17) 0.0066(14) 0.0095(13) 0.0024(14)
C31 0.0349(17) 0.0417(18) 0.0470(18) 0.0050(14) 0.0061(13) -0.0055(14)
C32 0.0271(16) 0.0484(19) 0.0469(18) 0.0021(14) 0.0077(13) -0.0074(13)
C33 0.0310(17) 0.0421(17) 0.0425(17) 0.0035(13) 0.0086(12) -0.0012(13)
C34 0.0357(17) 0.0386(17) 0.0426(17) 0.0064(13) 0.0108(13) -0.0028(13)
C35 0.0313(17) 0.0410(18) 0.0497(18) 0.0044(14) 0.0081(13) -0.0072(13)
C36 0.0319(17) 0.0398(18) 0.060(2) 0.0104(15) 0.0082(14) -0.0065(14)
C37 0.0348(17) 0.0368(17) 0.0398(17) -0.0010(13) 0.0129(13) -0.0022(13)
C38 0.057(2) 0.051(2) 0.0425(19) 0.0048(16) 0.0182(17) 0.0028(17)
C39 0.0334(17) 0.0392(17) 0.0401(17) -0.0015(13) 0.0123(13) -0.0079(13)
C40 0.0432(19) 0.0398(18) 0.0418(17) -0.0034(13) 0.0100(14) -0.0071(15)

_geom_special_details            
;
All esds (except the esd in the dihedral angle between two l.s. planes)

are estimated using the full covariance matrix. The cell esds are
taken
into account individually in the estimation of esds in distances,
angles
and torsion angles; correlations between esds in cell parameters are
only
used when they are defined by crystal symmetry. An approximate
(isotropic)
treatment of cell esds is used for estimating esds involving l.s.
planes.
;

loop_
_geom_bond_atom_site_label_1
_geom_bond_atom_site_label_2
_geom_bond_distance
_geom_bond_site_symmetry_2
_geom_bond_publ_flag


















































In1 O3 2.112(2) 8_556 ?
In1 O6 2.222(2) . ?
In1 O1 2.229(2) 1_655 ?
In1 O7 2.234(2) 3 ?
In1 O2 2.266(2) 1_655 ?
In1 O5 2.316(2) . ?
In1 O8 2.341(2) 3 ?
O2 C37 1.260(4) 