####################################################################### 
# 
# This file contains crystal structure data downloaded from the 
# Cambridge Structural Database (CSD) hosted by the Cambridge 
# Crystallographic Data Centre (CCDC).
# 
# Full information about CCDC data access policies and citation 
# guidelines are available at http://www.ccdc.cam.ac.uk/access/V1 
# 
# Audit and citation data items may have been added by the CCDC. 
# Please retain this information to preserve the provenance of 
# this file and to allow appropriate attribution of the data. 
# 
#######################################################################

data_NOTT-203_200K
_audit_block_doi                 10.5517/ccvhmc9
_database_code_depnum_ccdc_archive 'CCDC 789581'
loop_
_citation_id
_citation_doi
_citation_year
1 10.1038/nmat3343 2012
_audit_update_record             
;
2010-08-17 deposited with the CCDC.	2024-07-10 downloaded from the CCDC.
;



#_database_code_depnum_ccdc_archive 'CCDC 000000'



_refine_special_details          
;

The C20--C25 phenyl ring of the ligand is rotationally disordered

over two equally-occupied orientations. The occupancy of the

interpenetrated network is 0.875, based on the occupancies of the

fully occupied (1.00) and partially occupied (0.75) interpentrating

networks in the corresponding solvated structure (NOTT-202; CCDC
756304).

;



loop_

_platon_squeeze_void_nr

_platon_squeeze_void_average_x

_platon_squeeze_void_average_y

_platon_squeeze_void_average_z

_platon_squeeze_void_volume

_platon_squeeze_void_count_electrons

1 -0.008 -0.003 -0.003 8867 1217



_platon_squeeze_details          
;

Although the crystal was slightly degassed before measurement,

approximately 66% of the unit cell volume comprises a large region of

disordered residual solvent which could not be modelled as discrete

atomic sites. We employed PLATON SQUEEZE to calculate the contribution

to the diffraction from the solvent region and thereby produced a set

of solvent-free diffraction intensities.

;



_audit_creation_method           'enCIFer editing of SHELXL97 CIF output'

_chemical_name_systematic        
;

?

;

_chemical_name_common            ?

_chemical_melting_point          ?

_chemical_formula_moiety         'In1.75 (C40 O8 H22)1.75 (C2 H6 N H2)1.75'

_chemical_formula_sum            'C73.50 H52.50 In1.75 N1.75 O14'

_chemical_formula_weight         1385.11



loop_

_atom_type_symbol

_atom_type_description

_atom_type_scat_dispersion_real

_atom_type_scat_dispersion_imag

_atom_type_scat_source










C C 0.0033 0.0016 'International Tables Vol C Tables 4.2.6.8 and 6.1.1.4'
H H 0.0000 0.0000 'International Tables Vol C Tables 4.2.6.8 and 6.1.1.4'
N N 0.0061 0.0033 'International Tables Vol C Tables 4.2.6.8 and 6.1.1.4'
O O 0.0106 0.0060 'International Tables Vol C Tables 4.2.6.8 and 6.1.1.4'
In In -0.7276 1.3100 'International Tables Vol C Tables 4.2.6.8 and 6.1.1.4'



_symmetry_cell_setting           monoclinic

_symmetry_space_group_name_H-M   'C 2/c'



loop_

_symmetry_equiv_pos_as_xyz








'x, y, z'
'-x, y, -z+1/2'
'x+1/2, y+1/2, z'
'-x+1/2, y+1/2, -z+1/2'
'-x, -y, -z'
'x, -y, z-1/2'
'-x+1/2, -y+1/2, -z'
'x+1/2, -y+1/2, z-1/2'



_cell_length_a                   19.722(3)

_cell_length_b                   28.524(5)

_cell_length_c                   26.562(5)

_cell_angle_alpha                90.00

_cell_angle_beta                 96.774(3)

_cell_angle_gamma                90.00

_cell_volume                     14838(4)

_cell_formula_units_Z            4

_cell_measurement_temperature    200(2)

_cell_measurement_reflns_used    12004

_cell_measurement_theta_min      1.2

_cell_measurement_theta_max      31.6



_exptl_crystal_description       TABLET

_exptl_crystal_colour            COLORLESS

_exptl_crystal_size_max          0.10

_exptl_crystal_size_mid          0.08

_exptl_crystal_size_min          0.05

_exptl_crystal_density_meas      ?

_exptl_crystal_density_diffrn    0.620

_exptl_crystal_density_method    'not measured'

_exptl_crystal_F_000             2814

_exptl_absorpt_coefficient_mu    0.302

_exptl_absorpt_correction_type   Multi-scan

_exptl_absorpt_correction_T_min  0.672

_exptl_absorpt_correction_T_max  1.000

_exptl_absorpt_process_details   'Jacobson, R. (1998) Private communication'



_exptl_special_details           
;

?

;



_diffrn_ambient_temperature      200(2)

_diffrn_radiation_wavelength     0.6889

_diffrn_radiation_source         'Diamond Light Source Beamline I19'

_diffrn_radiation_monochromator  'silicon double crystal'

_diffrn_measurement_device_type  'Rigaku Saturn724+'

_diffrn_measurement_method       \w-scans

_diffrn_detector_area_resol_mean 28.5714

_diffrn_reflns_number            32254

_diffrn_reflns_av_R_equivalents  0.047

_diffrn_reflns_av_sigmaI/netI    0.056

_diffrn_reflns_limit_h_min       -23

_diffrn_reflns_limit_h_max       22

_diffrn_reflns_limit_k_min       -33

_diffrn_reflns_limit_k_max       31

_diffrn_reflns_limit_l_min       -31

_diffrn_reflns_limit_l_max       31

_diffrn_reflns_theta_min         2.49

_diffrn_reflns_theta_max         24.21

_reflns_number_total             13001

_reflns_number_gt                10467

_reflns_threshold_expression     >2sigma(I)



_computing_data_collection       'Rigaku CrystalClear (Rigaku, 2009)'

#Rigaku(2009). CrystalClear. Rigaku Corporation, Tokyo, Japan.

_computing_cell_refinement       'Rigaku CrystalClear'

_computing_data_reduction        'Rigaku CrystalClear'

_computing_structure_solution    'SHELXS97 (Sheldrick, 2008)'

_computing_structure_refinement  'SHELXL97 (Sheldrick, 2008)'

_computing_publication_material  
'enCIFer (Allen et al., 2004); PLATON (Spek, 2009)'





_refine_ls_structure_factor_coef Fsqd

_refine_ls_matrix_type           full

_refine_ls_weighting_scheme      calc

_refine_ls_weighting_details     
'calc w=1/[\s^2^(Fo^2^)+(0.0750P)^2^+4.0000P] where P=(Fo^2^+2Fc^2^)/3'


_atom_sites_solution_primary     direct

_atom_sites_solution_secondary   difmap

_atom_sites_solution_hydrogens   geom

_refine_ls_hydrogen_treatment    CONSTR

_refine_ls_extinction_method     none

_refine_ls_extinction_coef       ?

_refine_ls_number_reflns         13001

_refine_ls_number_parameters     451

_refine_ls_number_restraints     1

_refine_ls_R_factor_all          0.0576

_refine_ls_R_factor_gt           0.0487

_refine_ls_wR_factor_ref         0.1364

_refine_ls_wR_factor_gt          0.1296

_refine_ls_goodness_of_fit_ref   1.036

_refine_ls_restrained_S_all      1.036

_refine_ls_shift/su_max          0.002

_refine_ls_shift/su_mean         0.000



loop_

_atom_site_label

_atom_site_type_symbol

_atom_site_fract_x

_atom_site_fract_y

_atom_site_fract_z

_atom_site_U_iso_or_equiv

_atom_site_adp_type

_atom_site_occupancy

_atom_site_symmetry_multiplicity

_atom_site_calc_flag

_atom_site_refinement_flags

_atom_site_disorder_assembly

_atom_site_disorder_group































































































In1 In 0.885844(9) 0.256379(7) 1.115175(7) 0.03321(9) Uani 1 1 d . . .
O1 O -0.01534(10) 0.21768(7) 1.11868(7) 0.0416(5) Uani 1 1 d . . .
O2 O -0.06473(11) 0.23925(8) 1.04441(8) 0.0454(5) Uani 1 1 d . . .
O3 O 0.39454(14) 0.23873(9) 0.69508(9) 0.0583(6) Uani 1 1 d . . .
O4 O 0.28375(15) 0.23089(11) 0.67325(9) 0.0724(8) Uani 1 1 d . . .
O5 O 0.83171(10) 0.18432(7) 1.11792(8) 0.0473(5) Uani 1 1 d . . .
O6 O 0.78844(10) 0.24032(7) 1.06784(8) 0.0392(5) Uani 1 1 d . . .
O7 O 0.34894(11) -0.17077(8) 1.09603(10) 0.0591(6) Uani 1 1 d . . .
O8 O 0.45816(12) -0.17853(8) 1.11506(11) 0.0644(7) Uani 1 1 d . . .
C1 C 0.04806(15) 0.20845(10) 1.04803(11) 0.0401(7) Uani 1 1 d . . .
C2 C 0.05099(18) 0.21310(16) 0.99742(13) 0.0687(11) Uani 1 1 d . . .
H2A H 0.0118 0.2240 0.9764 0.082 Uiso 1 1 calc R . .
C3 C 0.10954(17) 0.20244(17) 0.97560(14) 0.0706(12) Uani 1 1 d . . .
H3A H 0.1098 0.2054 0.9400 0.085 Uiso 1 1 calc R . .
C4 C 0.16791(15) 0.18739(11) 1.00580(11) 0.0436(7) Uani 1 1 d . . .
C5 C 0.16462(17) 0.18316(13) 1.05689(12) 0.0556(9) Uani 1 1 d . . .
H5A H 0.2040 0.1730 1.0782 0.067 Uiso 1 1 calc R . .
C6 C 0.10592(17) 0.19319(13) 1.07835(13) 0.0543(9) Uani 1 1 d . . .
H6A H 0.1051 0.1897 1.1138 0.065 Uiso 1 1 calc R . .
C7 C 0.32644(18) 0.22296(13) 0.76080(12) 0.0518(8) Uani 1 1 d . . .
C8 C 0.38240(16) 0.22207(12) 0.79769(12) 0.0493(8) Uani 1 1 d . . .
H8A H 0.4266 0.2289 0.7888 0.059 Uiso 1 1 calc R . .
C9 C 0.37425(16) 0.21130(12) 0.84696(12) 0.0483(8) Uani 1 1 d . . .
H9A H 0.4132 0.2107 0.8717 0.058 Uiso 1 1 calc R . .
C10 C 0.31029(15) 0.20130(11) 0.86156(11) 0.0432(7) Uani 1 1 d . . .
C11 C 0.25448(17) 0.20302(14) 0.82419(12) 0.0577(9) Uani 1 1 d . . .
H11A H 0.2101 0.1968 0.8330 0.069 Uiso 1 1 calc R . .
C12 C 0.26243(17) 0.21354(14) 0.77508(13) 0.0580(9) Uani 1 1 d . . .
H12A H 0.2235 0.2144 0.7503 0.070 Uiso 1 1 calc R . .
C13 C 0.71826(14) 0.17410(10) 1.07552(12) 0.0412(7) Uani 1 1 d . . .
C14 C 0.70251(16) 0.13626(12) 1.10458(13) 0.0549(9) Uani 1 1 d . . .
H14A H 0.7355 0.1247 1.1306 0.066 Uiso 1 1 calc R . .
C15 C 0.63903(16) 0.11502(12) 1.09601(14) 0.0578(10) Uani 1 1 d . . .
H15A H 0.6286 0.0895 1.1168 0.069 Uiso 1 1 calc R . .
C16 C 0.59068(15) 0.13044(10) 1.05762(12) 0.0423(7) Uani 1 1 d . . .
C17 C 0.60888(15) 0.16738(11) 1.02717(12) 0.0434(7) Uani 1 1 d . . .
H17A H 0.5772 0.1777 0.9997 0.052 Uiso 1 1 calc R . .
C18 C 0.67092(15) 0.18889(11) 1.03595(11) 0.0433(7) Uani 1 1 d . . .
H18A H 0.6817 0.2141 1.0149 0.052 Uiso 1 1 calc R . .
C19 C 0.41701(15) -0.10212(11) 1.09151(12) 0.0442(7) Uani 1 1 d . . .
C22 C 0.43556(15) -0.00760(11) 1.06851(12) 0.0432(7) Uani 1 1 d . . .
C20A C 0.3616(3) -0.0706(2) 1.0901(3) 0.0534(17) Uiso 0.555(6) 1 d P A 1
H20A H 0.3180 -0.0817 1.0966 0.064 Uiso 0.555(6) 1 calc PR A 1
C21A C 0.3705(3) -0.0230(2) 1.0793(2) 0.0531(17) Uiso 0.555(6) 1 d P A 1
H21A H 0.3337 -0.0015 1.0792 0.064 Uiso 0.555(6) 1 calc PR A 1
C23A C 0.4881(3) -0.0379(2) 1.0712(3) 0.0440(15) Uiso 0.555(6) 1 d P A 1
H23A H 0.5319 -0.0275 1.0644 0.053 Uiso 0.555(6) 1 calc PR A 1
C24A C 0.4783(3) -0.0842(2) 1.0839(3) 0.0468(15) Uiso 0.555(6) 1 d P A 1
H24A H 0.5168 -0.1045 1.0874 0.056 Uiso 0.555(6) 1 calc PR A 1
C20B C 0.3689(4) -0.0795(3) 1.0593(3) 0.050(2) Uiso 0.445(6) 1 d P A 2
H20B H 0.3287 -0.0955 1.0455 0.061 Uiso 0.445(6) 1 calc PR A 2
C21B C 0.3789(4) -0.0333(2) 1.0468(3) 0.046(2) Uiso 0.445(6) 1 d P A 2
H21B H 0.3463 -0.0184 1.0229 0.056 Uiso 0.445(6) 1 calc PR A 2
C23B C 0.4880(4) -0.0344(3) 1.0968(4) 0.050(2) Uiso 0.445(6) 1 d P A 2
H23B H 0.5310 -0.0199 1.1063 0.061 Uiso 0.445(6) 1 calc PR A 2
C24B C 0.4792(4) -0.0805(3) 1.1112(3) 0.0455(19) Uiso 0.445(6) 1 d P A 2
H24B H 0.5130 -0.0968 1.1329 0.055 Uiso 0.445(6) 1 calc PR A 2
C25 C 0.30229(15) 0.18661(11) 0.91407(11) 0.0423(7) Uani 1 1 d . . .
C26 C 0.35414(15) 0.16121(11) 0.94208(11) 0.0419(7) Uani 1 1 d . . .
H26A H 0.3960 0.1561 0.9285 0.050 Uiso 1 1 calc R . .
C27 C 0.34542(15) 0.14343(10) 0.98935(11) 0.0409(7) Uani 1 1 d . . .
C28 C 0.28396(14) 0.15077(10) 1.00942(11) 0.0403(7) Uani 1 1 d . . .
H28A H 0.2773 0.1374 1.0412 0.048 Uiso 1 1 calc R . .
C29 C 0.23235(15) 0.17756(11) 0.98309(11) 0.0420(7) Uani 1 1 d . . .
C30 C 0.24228(15) 0.19511(12) 0.93564(11) 0.0448(7) Uani 1 1 d . . .
H30A H 0.2073 0.2134 0.9174 0.054 Uiso 1 1 calc R . .
C31 C 0.44526(15) 0.04247(10) 1.05478(11) 0.0420(7) Uani 1 1 d . A .
C32 C 0.39133(15) 0.06957(10) 1.03271(11) 0.0416(7) Uani 1 1 d . . .
H32A H 0.3465 0.0568 1.0283 0.050 Uiso 1 1 calc R A .
C33 C 0.40205(14) 0.11511(11) 1.01700(11) 0.0411(7) Uani 1 1 d . A .
C34 C 0.46704(14) 0.13424(11) 1.02471(11) 0.0423(7) Uani 1 1 d . . .
H34A H 0.4743 0.1653 1.0137 0.051 Uiso 1 1 calc R A .
C35 C 0.52171(15) 0.10872(11) 1.04828(12) 0.0432(7) Uani 1 1 d . A .
C36 C 0.51021(15) 0.06280(11) 1.06283(12) 0.0465(8) Uani 1 1 d . . .
H36A H 0.5473 0.0448 1.0786 0.056 Uiso 1 1 calc R A .
C37 C -0.01390(15) 0.22219(10) 1.07133(11) 0.0379(6) Uani 1 1 d . . .
C38 C 0.3347(2) 0.23159(13) 0.70611(13) 0.0557(9) Uani 1 1 d . . .
C39 C 0.78359(15) 0.20000(10) 1.08751(11) 0.0396(7) Uani 1 1 d . . .
C40 C 0.40784(17) -0.15309(11) 1.10173(12) 0.0452(7) Uani 1 1 d . . .
N1 N 0.69497(19) 0.31668(13) 1.09310(14) 0.0836(10) Uiso 1 1 d D . .
H1A H 0.7066 0.3417 1.1142 0.100 Uiso 1 1 calc R . .
H1B H 0.7315 0.2964 1.0957 0.100 Uiso 1 1 calc R . .
C41 C 0.6816(3) 0.33341(18) 1.04099(18) 0.0960(15) Uiso 1 1 d D . .
H41A H 0.7222 0.3495 1.0316 0.115 Uiso 1 1 calc R . .
H41B H 0.6430 0.3552 1.0381 0.115 Uiso 1 1 calc R . .
H41C H 0.6707 0.3067 1.0182 0.115 Uiso 1 1 calc R . .
C42 C 0.6347(4) 0.2924(3) 1.1099(3) 0.165(3) Uiso 1 1 d D . .
H42A H 0.6465 0.2804 1.1444 0.198 Uiso 1 1 calc R . .
H42B H 0.6214 0.2662 1.0869 0.198 Uiso 1 1 calc R . .
H42C H 0.5966 0.3145 1.1094 0.198 Uiso 1 1 calc R . .



loop_

_atom_site_aniso_label

_atom_site_aniso_U_11

_atom_site_aniso_U_22

_atom_site_aniso_U_33

_atom_site_aniso_U_23

_atom_site_aniso_U_13

_atom_site_aniso_U_12













































In1 0.02608(13) 0.03879(14) 0.03595(14) -0.00024(8) 0.00869(9) -0.00376(8)
O1 0.0355(11) 0.0511(13) 0.0402(12) 0.0031(9) 0.0123(9) 0.0062(9)
O2 0.0368(12) 0.0586(14) 0.0427(12) 0.0058(10) 0.0120(10) 0.0039(10)
O3 0.0606(17) 0.0754(17) 0.0431(13) 0.0099(11) 0.0244(12) 0.0124(13)
O4 0.087(2) 0.093(2) 0.0372(14) 0.0050(13) 0.0069(14) -0.0185(17)
O5 0.0382(12) 0.0467(12) 0.0557(13) 0.0086(10) 0.0002(10) -0.0066(10)
O6 0.0350(12) 0.0426(12) 0.0408(11) 0.0011(9) 0.0074(9) -0.0110(9)
O7 0.0439(13) 0.0417(13) 0.0892(18) 0.0111(12) -0.0022(12) -0.0145(10)
O8 0.0458(14) 0.0419(13) 0.106(2) 0.0032(13) 0.0120(13) -0.0067(11)
C1 0.0363(16) 0.0435(17) 0.0424(16) 0.0022(13) 0.0122(13) -0.0005(13)
C2 0.0406(19) 0.122(4) 0.045(2) 0.016(2) 0.0126(15) 0.020(2)
C3 0.0391(19) 0.132(4) 0.0431(19) 0.021(2) 0.0163(15) 0.018(2)
C4 0.0396(17) 0.0524(19) 0.0413(17) 0.0033(13) 0.0148(13) 0.0037(14)
C5 0.0462(19) 0.079(2) 0.0439(18) 0.0131(16) 0.0130(15) 0.0210(17)
C6 0.052(2) 0.071(2) 0.0433(18) 0.0112(16) 0.0191(15) 0.0150(17)
C7 0.057(2) 0.061(2) 0.0396(17) 0.0017(15) 0.0168(15) 0.0024(17)
C8 0.0404(18) 0.062(2) 0.0484(19) 0.0035(15) 0.0184(14) -0.0004(15)
C9 0.0362(17) 0.068(2) 0.0424(17) 0.0045(15) 0.0140(13) 0.0018(15)
C10 0.0341(16) 0.0571(19) 0.0402(16) 0.0010(13) 0.0122(13) 0.0033(14)
C11 0.0374(18) 0.092(3) 0.0450(19) 0.0137(17) 0.0089(14) -0.0028(17)
C12 0.0424(19) 0.089(3) 0.0428(18) 0.0053(17) 0.0054(15) -0.0009(18)
C13 0.0311(15) 0.0409(16) 0.0512(18) 0.0027(13) 0.0036(13) -0.0081(13)
C14 0.0407(18) 0.053(2) 0.068(2) 0.0224(16) -0.0062(16) -0.0084(15)
C15 0.0419(19) 0.055(2) 0.074(2) 0.0279(17) -0.0065(16) -0.0172(15)
C16 0.0357(16) 0.0376(16) 0.0534(18) 0.0062(13) 0.0038(13) -0.0063(13)
C17 0.0378(16) 0.0450(17) 0.0472(18) 0.0077(13) 0.0039(13) -0.0076(14)
C18 0.0424(17) 0.0439(17) 0.0441(17) 0.0056(13) 0.0071(13) -0.0099(14)
C19 0.0393(17) 0.0426(17) 0.0520(18) -0.0013(13) 0.0112(14) -0.0084(14)
C22 0.0366(16) 0.0414(17) 0.0514(18) 0.0054(13) 0.0049(14) -0.0059(13)
C25 0.0351(16) 0.0526(19) 0.0404(16) 0.0024(13) 0.0086(13) 0.0027(14)
C26 0.0349(16) 0.0533(18) 0.0396(16) 0.0044(13) 0.0131(13) -0.0020(14)
C27 0.0336(16) 0.0437(17) 0.0467(17) -0.0003(13) 0.0101(13) -0.0036(13)
C28 0.0327(16) 0.0486(18) 0.0408(16) 0.0059(13) 0.0087(12) -0.0020(13)
C29 0.0362(16) 0.0533(19) 0.0387(16) 0.0022(13) 0.0134(13) 0.0012(14)
C30 0.0355(16) 0.059(2) 0.0406(17) 0.0051(14) 0.0081(13) 0.0041(14)
C31 0.0353(16) 0.0420(17) 0.0487(17) 0.0058(13) 0.0043(13) -0.0065(13)
C32 0.0326(15) 0.0443(17) 0.0495(18) 0.0026(13) 0.0117(13) -0.0045(13)
C33 0.0336(16) 0.0490(18) 0.0422(16) 0.0060(13) 0.0101(13) -0.0009(13)
C34 0.0363(16) 0.0411(17) 0.0505(18) 0.0066(13) 0.0089(13) -0.0056(13)
C35 0.0336(16) 0.0457(17) 0.0498(18) 0.0073(13) 0.0022(13) -0.0083(13)
C36 0.0330(16) 0.0471(18) 0.059(2) 0.0083(14) 0.0012(14) -0.0066(13)
C37 0.0356(16) 0.0352(16) 0.0448(17) -0.0011(12) 0.0128(13) -0.0013(12)
C38 0.072(3) 0.058(2) 0.0401(19) 0.0024(15) 0.0203(18) 0.0028(19)
C39 0.0365(16) 0.0420(17) 0.0413(16) -0.0021(13) 0.0092(13) -0.0089(13)
C40 0.0492(19) 0.0422(17) 0.0455(18) -0.0014(13) 0.0109(14) -0.0077(15)



_geom_special_details            
;

All esds (except the esd in the dihedral angle between two l.s. planes)


are estimated using the full covariance matrix. The cell esds are
taken

into account individually in the estimation of esds in distances,
angles

and torsion angles; correlations between esds in cell parameters are
only

used when they are defined by crystal symmetry. An approximate
(isotropic)

treatment of cell esds is used for estimating esds involving l.s.
planes.

;



loop_

_geom_bond_atom_site_label_1

_geom_bond_atom_site_label_2

_geom_bond_distance

_geom_bond_site_symmetry_2

_geom_bond_publ_flag






































































































In1 O3 2.114(2) 8_556 ?
In1 O6 2.216(2) . ?
In1 O1 2.2321(19) 1_655 ?
In1 O7 2.240(2) 3 ?
In1 O2 2.270(2) 1_655 ?
In1 O5 2.