####################################################################### 
# 
# This file contains crystal structure data downloaded from the 
# Cambridge Structural Database (CSD) hosted by the Cambridge 
# Crystallographic Data Centre (CCDC).
# 
# Full information about CCDC data access policies and citation 
# guidelines are available at http://www.ccdc.cam.ac.uk/access/V1 
# 
# Audit and citation data items may have been added by the CCDC. 
# Please retain this information to preserve the provenance of 
# this file and to allow appropriate attribution of the data. 
# 
#######################################################################

data_NOTT-203_120K
_audit_block_doi                 10.5517/ccvhm86
_database_code_depnum_ccdc_archive 'CCDC 789578'
loop_
_citation_id
_citation_doi
_citation_year
1 10.1038/nmat3343 2012
_audit_update_record             
;
2010-08-17 deposited with the CCDC.	2024-07-10 downloaded from the CCDC.
;

#_database_code_depnum_ccdc_archive 'CCDC 000000'

_refine_special_details          
;
The C20--C25 phenyl ring of the ligand is rotationally disordered
over two equally-occupied orientations. The occupancy of the
interpenetrated network is 0.875, based on the occupancies of the
fully occupied (1.00) and partially occupied (0.75) interpentrating
networks in the corresponding solvated structure (NOTT-202; CCDC
756304).
;

loop_
_platon_squeeze_void_nr
_platon_squeeze_void_average_x
_platon_squeeze_void_average_y
_platon_squeeze_void_average_z
_platon_squeeze_void_volume
_platon_squeeze_void_count_electrons
1 -0.007 -0.001 -0.004 8809 2511

_platon_squeeze_details          
;
Although the crystal was slightly degassed before measurement,
approximately 66% of the unit cell volume comprises a large region of
disordered residual solvent which could not be modelled as discrete
atomic sites. We employed PLATON SQUEEZE to calculate the contribution
to the diffraction from the solvent region and thereby produced a set
of solvent-free diffraction intensities.
;

_audit_creation_method           'enCIFer editing of SHELXL97 CIF output'
_chemical_name_systematic        
;
?
;
_chemical_name_common            ?
_chemical_melting_point          ?
_chemical_formula_moiety         'In1.75 (C40 O8 H22)1.75 (C2 H6 N H2)1.75'
_chemical_formula_sum            'C73.50 H52.50 In1.75 N1.75 O14'
_chemical_formula_weight         1385.11

loop_
_atom_type_symbol
_atom_type_description
_atom_type_scat_dispersion_real
_atom_type_scat_dispersion_imag
_atom_type_scat_source





C C 0.0033 0.0016 'International Tables Vol C Tables 4.2.6.8 and 6.1.1.4'
H H 0.0000 0.0000 'International Tables Vol C Tables 4.2.6.8 and 6.1.1.4'
N N 0.0061 0.0033 'International Tables Vol C Tables 4.2.6.8 and 6.1.1.4'
O O 0.0106 0.0060 'International Tables Vol C Tables 4.2.6.8 and 6.1.1.4'
In In -0.7276 1.3100 'International Tables Vol C Tables 4.2.6.8 and 6.1.1.4'

_symmetry_cell_setting           monoclinic
_symmetry_space_group_name_H-M   'C 2/c'

loop_
_symmetry_equiv_pos_as_xyz




'x, y, z'
'-x, y, -z+1/2'
'x+1/2, y+1/2, z'
'-x+1/2, y+1/2, -z+1/2'
'-x, -y, -z'
'x, -y, z-1/2'
'-x+1/2, -y+1/2, -z'
'x+1/2, -y+1/2, z-1/2'

_cell_length_a                   19.814(7)
_cell_length_b                   28.330(10)
_cell_length_c                   26.219(10)
_cell_angle_alpha                90.00
_cell_angle_beta                 97.866(6)
_cell_angle_gamma                90.00
_cell_volume                     14580(9)
_cell_formula_units_Z            4
_cell_measurement_temperature    120(2)
_cell_measurement_reflns_used    12687
_cell_measurement_theta_min      1.2
_cell_measurement_theta_max      31.6

_exptl_crystal_description       TABLET
_exptl_crystal_colour            COLORLESS
_exptl_crystal_size_max          0.10
_exptl_crystal_size_mid          0.08
_exptl_crystal_size_min          0.05
_exptl_crystal_density_meas      ?
_exptl_crystal_density_diffrn    0.631
_exptl_crystal_density_method    'not measured'
_exptl_crystal_F_000             2814
_exptl_absorpt_coefficient_mu    0.308
_exptl_absorpt_correction_type   Multi-scan
_exptl_absorpt_correction_T_min  0.683
_exptl_absorpt_correction_T_max  1.000
_exptl_absorpt_process_details   'Jacobson, R. (1998) Private communication'

_exptl_special_details           
;
?
;

_diffrn_ambient_temperature      120(2)
_diffrn_radiation_wavelength     0.6889
_diffrn_radiation_type           synchrotron
_diffrn_radiation_source         'Diamond Light Source Beamline I19'
_diffrn_radiation_monochromator  'silicon double crystal'
_diffrn_measurement_device_type  'Rigaku Saturn724+'
_diffrn_measurement_method       \w-scans
_diffrn_detector_area_resol_mean 28.5714
_diffrn_reflns_number            31585
_diffrn_reflns_av_R_equivalents  0.047
_diffrn_reflns_av_sigmaI/netI    0.059
_diffrn_reflns_limit_h_min       -23
_diffrn_reflns_limit_h_max       21
_diffrn_reflns_limit_k_min       -33
_diffrn_reflns_limit_k_max       29
_diffrn_reflns_limit_l_min       -31
_diffrn_reflns_limit_l_max       28
_diffrn_reflns_theta_min         2.32
_diffrn_reflns_theta_max         24.21
_reflns_number_total             12789
_reflns_number_gt                9429
_reflns_threshold_expression     >2sigma(I)

_computing_data_collection       'Rigaku CrystalClear (Rigaku, 2009)'
#Rigaku(2009). CrystalClear. Rigaku Corporation, Tokyo, Japan.
_computing_cell_refinement       'Rigaku CrystalClear'
_computing_data_reduction        'Rigaku CrystalClear'
_computing_structure_solution    'SHELXS97 (Sheldrick, 2008)'
_computing_structure_refinement  'SHELXL97 (Sheldrick, 2008)'
_computing_publication_material  
'enCIFer (Allen et al., 2004); PLATON (Spek, 2009)'


_refine_ls_structure_factor_coef Fsqd
_refine_ls_matrix_type           full
_refine_ls_weighting_scheme      calc
_refine_ls_weighting_details     
'calc w=1/[\s^2^(Fo^2^)+(0.067P)^2^+1.500P] where P=(Fo^2^+2Fc^2^)/3'
_atom_sites_solution_primary     direct
_atom_sites_solution_secondary   difmap
_atom_sites_solution_hydrogens   geom
_refine_ls_hydrogen_treatment    CONSTR
_refine_ls_extinction_method     none
_refine_ls_extinction_coef       ?
_refine_ls_number_reflns         12789
_refine_ls_number_parameters     451
_refine_ls_number_restraints     1
_refine_ls_R_factor_all          0.0586
_refine_ls_R_factor_gt           0.0479
_refine_ls_wR_factor_ref         0.132
_refine_ls_wR_factor_gt          0.124
_refine_ls_goodness_of_fit_ref   1.01
_refine_ls_restrained_S_all      1.01
_refine_ls_shift/su_max          0.008
_refine_ls_shift/su_mean         0.000

loop_
_atom_site_label
_atom_site_type_symbol
_atom_site_fract_x
_atom_site_fract_y
_atom_site_fract_z
_atom_site_U_iso_or_equiv
_atom_site_adp_type
_atom_site_occupancy
_atom_site_symmetry_multiplicity
_atom_site_calc_flag
_atom_site_refinement_flags
_atom_site_disorder_assembly
_atom_site_disorder_group
















































In1 In 0.885810(9) 0.252180(6) 1.115705(7) 0.03118(9) Uani 1 1 d . . .
O1 O -0.01560(9) 0.21338(7) 1.12037(7) 0.0373(4) Uani 1 1 d . . .
O2 O -0.06523(10) 0.23737(8) 1.04448(7) 0.0397(5) Uani 1 1 d . . .
O3 O 0.39131(12) 0.24328(7) 0.69646(9) 0.0494(6) Uani 1 1 d . . .
O4 O 0.27906(13) 0.23800(9) 0.67319(9) 0.0608(6) Uani 1 1 d . . .
O5 O 0.83280(10) 0.17968(7) 1.11610(8) 0.0425(5) Uani 1 1 d . . .
O6 O 0.78807(9) 0.23727(7) 1.06608(7) 0.0365(4) Uani 1 1 d . . .
O7 O 0.34815(11) -0.17461(7) 1.09940(10) 0.0549(6) Uani 1 1 d . . .
O8 O 0.45763(11) -0.18246(7) 1.11846(9) 0.0532(6) Uani 1 1 d . . .
C1 C 0.04681(14) 0.20535(10) 1.04905(11) 0.0376(7) Uani 1 1 d . . .
C2 C 0.04870(17) 0.21094(16) 0.99755(13) 0.0689(12) Uani 1 1 d . . .
H2A H 0.0093 0.2217 0.9760 0.083 Uiso 1 1 calc R . .
C3 C 0.10807(17) 0.20096(17) 0.97603(14) 0.0784(13) Uani 1 1 d . . .
H3A H 0.1085 0.2048 0.9401 0.094 Uiso 1 1 calc R . .
C4 C 0.16646(14) 0.18542(11) 1.00719(11) 0.0397(7) Uani 1 1 d . . .
C5 C 0.16295(17) 0.17916(13) 1.05843(12) 0.0547(9) Uani 1 1 d . . .
H5A H 0.2020 0.1679 1.0802 0.066 Uiso 1 1 calc R . .
C6 C 0.10446(16) 0.18866(12) 1.07941(12) 0.0546(9) Uani 1 1 d . . .
H6A H 0.1037 0.1837 1.1152 0.066 Uiso 1 1 calc R . .
C7 C 0.32311(16) 0.22784(12) 0.76175(11) 0.0448(7) Uani 1 1 d . . .
C8 C 0.37873(15) 0.22608(11) 0.79967(11) 0.0443(7) Uani 1 1 d . . .
H8A H 0.4226 0.2335 0.7912 0.053 Uiso 1 1 calc R . .
C9 C 0.37189(14) 0.21392(11) 0.84916(11) 0.0409(7) Uani 1 1 d . . .
H9A H 0.4110 0.2125 0.8744 0.049 Uiso 1 1 calc R . .
C10 C 0.30730(14) 0.20355(11) 0.86298(11) 0.0422(7) Uani 1 1 d . . .
C11 C 0.25065(15) 0.20760(13) 0.82462(12) 0.0527(9) Uani 1 1 d . . .
H11A H 0.2062 0.2028 0.8333 0.063 Uiso 1 1 calc R . .
C12 C 0.25861(16) 0.21830(12) 0.77529(12) 0.0517(8) Uani 1 1 d . . .
H12A H 0.2198 0.2193 0.7496 0.062 Uiso 1 1 calc R . .
C13 C 0.71768(14) 0.17052(10) 1.07369(11) 0.0392(7) Uani 1 1 d . . .
C14 C 0.70378(15) 0.13179(11) 1.10328(13) 0.0494(8) Uani 1 1 d . . .
H14A H 0.7378 0.1200 1.1292 0.059 Uiso 1 1 calc R . .
C15 C 0.64012(15) 0.11049(11) 1.09476(13) 0.0512(8) Uani 1 1 d . . .
H15A H 0.6308 0.0841 1.1150 0.061 Uiso 1 1 calc R . .
C16 C 0.58979(14) 0.12740(10) 1.05695(12) 0.0425(7) Uani 1 1 d . . .
C17 C 0.60591(15) 0.16476(10) 1.02621(11) 0.0423(7) Uani 1 1 d . . .
H17A H 0.5731 0.1754 0.9988 0.051 Uiso 1 1 calc R . .
C18 C 0.66961(14) 0.18686(10) 1.03494(11) 0.0382(7) Uani 1 1 d . . .
H18A H 0.6795 0.2129 1.0143 0.046 Uiso 1 1 calc R . .
C19 C 0.41638(14) -0.10552(10) 1.09501(12) 0.0426(7) Uani 1 1 d . . .
C22 C 0.43488(14) -0.00998(10) 1.07131(12) 0.0409(7) Uani 1 1 d . . .
C20A C 0.3618(3) -0.0732(2) 1.0956(3) 0.0539(19) Uiso 0.502(6) 1 d P A 1
H20A H 0.3190 -0.0839 1.1035 0.065 Uiso 0.502(6) 1 calc PR A 1
C21A C 0.3711(3) -0.0263(2) 1.0846(3) 0.0513(19) Uiso 0.502(6) 1 d P A 1
H21A H 0.3348 -0.0045 1.0858 0.062 Uiso 0.502(6) 1 calc PR A 1
C23A C 0.4875(3) -0.0410(2) 1.0754(3) 0.0447(16) Uiso 0.502(6) 1 d P A 1
H23A H 0.5317 -0.0305 1.0707 0.054 Uiso 0.502(6) 1 calc PR A 1
C24A C 0.4768(3) -0.0883(2) 1.0865(3) 0.0476(17) Uiso 0.502(6) 1 d P A 1
H24A H 0.5143 -0.1095 1.0882 0.057 Uiso 0.502(6) 1 calc PR A 1
C20B C 0.3670(4) -0.0820(2) 1.0623(3) 0.057(2) Uiso 0.498(6) 1 d P A 2
H20B H 0.3268 -0.0980 1.0480 0.068 Uiso 0.498(6) 1 calc PR A 2
C21B C 0.3762(3) -0.0355(2) 1.0506(3) 0.0524(19) Uiso 0.498(6) 1 d P A 2
H21B H 0.3420 -0.0199 1.0278 0.063 Uiso 0.498(6) 1 calc PR A 2
C23B C 0.4858(3) -0.0355(2) 1.1016(3) 0.0436(16) Uiso 0.498(6) 1 d P A 2
H23B H 0.5268 -0.0200 1.1153 0.052 Uiso 0.498(6) 1 calc PR A 2
C24B C 0.4777(3) -0.0843(2) 1.1124(3) 0.0452(17) Uiso 0.498(6) 1 d P A 2
H24B H 0.5138 -0.1017 1.1312 0.054 Uiso 0.498(6) 1 calc PR A 2
C25 C 0.29933(14) 0.18751(11) 0.91559(11) 0.0384(7) Uani 1 1 d . . .
C26 C 0.35158(15) 0.16143(11) 0.94383(11) 0.0416(7) Uani 1 1 d . . .
H26A H 0.3933 0.1572 0.9304 0.050 Uiso 1 1 calc R . .
C27 C 0.34374(14) 0.14140(10) 0.99160(11) 0.0381(6) Uani 1 1 d . . .
C28 C 0.28281(14) 0.14851(11) 1.01097(11) 0.0411(7) Uani 1 1 d . . .
H28A H 0.2762 0.1344 1.0428 0.049 Uiso 1 1 calc R . .
C29 C 0.23066(14) 0.17628(11) 0.98418(11) 0.0378(7) Uani 1 1 d . . .
C30 C 0.23996(14) 0.19529(11) 0.93721(11) 0.0408(7) Uani 1 1 d . . .
H30A H 0.2049 0.2142 0.9192 0.049 Uiso 1 1 calc R . .
C31 C 0.44460(14) 0.03927(11) 1.05681(11) 0.0412(7) Uani 1 1 d . A .
C32 C 0.38913(14) 0.06765(11) 1.03508(12) 0.0419(7) Uani 1 1 d . . .
H32A H 0.3441 0.0554 1.0316 0.050 Uiso 1 1 calc R A .
C33 C 0.40031(14) 0.11350(10) 1.01870(11) 0.0395(7) Uani 1 1 d . A .
C34 C 0.46485(14) 0.13188(10) 1.02557(11) 0.0385(7) Uani 1 1 d . . .
H34A H 0.4719 0.1632 1.0144 0.046 Uiso 1 1 calc R A .
C35 C 0.52002(14) 0.10588(11) 1.04848(12) 0.0420(7) Uani 1 1 d . A .
C36 C 0.50939(14) 0.05998(11) 1.06282(12) 0.0451(7) Uani 1 1 d . . .
H36A H 0.5474 0.0417 1.0773 0.054 Uiso 1 1 calc R A .
C37 C -0.01432(14) 0.21891(10) 1.07229(11) 0.0376(6) Uani 1 1 d . . .
C38 C 0.33036(19) 0.23723(12) 0.70635(13) 0.0492(8) Uani 1 1 d . . .
C39 C 0.78372(14) 0.19645(10) 1.08589(11) 0.0356(6) Uani 1 1 d . . .
C40 C 0.40731(15) -0.15637(11) 1.10550(11) 0.0408(7) Uani 1 1 d . . .
N1 N 0.69590(15) 0.31354(11) 1.09391(11) 0.0635(8) Uiso 1 1 d D . .
H1A H 0.7084 0.3376 1.1168 0.076 Uiso 1 1 calc R . .
H1B H 0.7311 0.2921 1.0962 0.076 Uiso 1 1 calc R . .
C41 C 0.6828(2) 0.33259(14) 1.04137(15) 0.0710(11) Uiso 1 1 d D . .
H41A H 0.7239 0.3484 1.0330 0.085 Uiso 1 1 calc R . .
H41B H 0.6453 0.3553 1.0391 0.085 Uiso 1 1 calc R . .
H41C H 0.6706 0.3068 1.0170 0.085 Uiso 1 1 calc R . .
C42 C 0.6327(3) 0.2898(2) 1.1072(3) 0.136(2) Uiso 1 1 d D . .
H42A H 0.6417 0.2769 1.1421 0.163 Uiso 1 1 calc R . .
H42B H 0.6196 0.2642 1.0827 0.163 Uiso 1 1 calc R . .
H42C H 0.5956 0.3129 1.1054 0.163 Uiso 1 1 calc R . .

loop_
_atom_site_aniso_label
_atom_site_aniso_U_11
_atom_site_aniso_U_22
_atom_site_aniso_U_33
_atom_site_aniso_U_23
_atom_site_aniso_U_13
_atom_site_aniso_U_12






















In1 0.02371(13) 0.03800(14) 0.03337(13) 0.00042(7) 0.00936(9) -0.00345(7)
O1 0.0344(11) 0.0465(12) 0.0331(11) 0.0040(8) 0.0117(8) 0.0070(9)
O2 0.0295(11) 0.0566(12) 0.0346(11) 0.0058(9) 0.0106(8) 0.0030(9)
O3 0.0499(15) 0.0625(15) 0.0399(13) 0.0043(10) 0.0201(10) 0.0083(10)
O4 0.0606(17) 0.0847(17) 0.0362(13) 0.0060(12) 0.0038(11) -0.0084(13)
O5 0.0305(11) 0.0410(11) 0.0556(13) 0.0067(10) 0.0046(9) -0.0047(9)
O6 0.0313(11) 0.0380(11) 0.0412(11) 0.0024(9) 0.0084(8) -0.0083(8)
O7 0.0364(12) 0.0374(12) 0.0886(18) 0.0081(11) 0.0003(11) -0.0091(10)
O8 0.0348(12) 0.0428(13) 0.0837(17) 0.0039(11) 0.0142(11) -0.0053(10)
C1 0.0323(16) 0.0434(17) 0.0395(16) 0.0027(12) 0.0132(12) 0.0035(13)
C2 0.0381(19) 0.125(4) 0.047(2) 0.022(2) 0.0172(15) 0.018(2)
C3 0.045(2) 0.148(4) 0.046(2) 0.025(2) 0.0186(16) 0.029(2)
C4 0.0299(15) 0.0545(19) 0.0370(16) 0.0015(13) 0.0126(12) -0.0004(13)
C5 0.0447(19) 0.081(2) 0.0416(18) 0.0153(16) 0.0180(14) 0.0242(17)
C6 0.049(2) 0.078(2) 0.0420(18) 0.0164(16) 0.0224(14) 0.0226(17)
C7 0.0460(19) 0.058(2) 0.0327(16) 0.0025(14) 0.0133(13) -0.0002(15)
C8 0.0379(17) 0.0547(19) 0.0436(18) -0.0022(14) 0.0175(13) -0.0034(14)
C9 0.0329(16) 0.0547(19) 0.0366(16) 0.0026(13) 0.0106(12) -0.0020(13)
C10 0.0332(16) 0.0574(19) 0.0377(16) -0.0048(13) 0.0113(12) 0.0047(13)
C11 0.0315(17) 0.084(3) 0.0459(19) 0.0077(16) 0.0162(13) 0.0003(16)
C12 0.0395(18) 0.078(2) 0.0380(18) 0.0025(16) 0.0054(13) 0.0018(16)
C13 0.0283(15) 0.0384(16) 0.0509(18) 0.0019(13) 0.0060(12) -0.0102(12)
C14 0.0307(16) 0.0523(19) 0.063(2) 0.0158(16) -0.0023(14) -0.0068(14)
C15 0.0387(18) 0.0472(19) 0.065(2) 0.0189(16) -0.0019(15) -0.0125(14)
C16 0.0322(16) 0.0380(16) 0.0566(19) 0.0065(14) 0.0035(13) -0.0090(13)
C17 0.0387(17) 0.0470(18) 0.0417(17) 0.0083(13) 0.0070(12) -0.0066(14)
C18 0.0320(15) 0.0399(16) 0.0439(17) 0.0043(13) 0.0094(12) -0.0084(12)
C19 0.0337(16) 0.0383(16) 0.0569(19) -0.0058(14) 0.0106(13) -0.0070(13)
C22 0.0348(16) 0.0371(16) 0.0519(18) -0.0002(13) 0.0098(13) -0.0066(13)
C25 0.0271(15) 0.0535(18) 0.0368(16) 0.0041(13) 0.0122(11) -0.0036(13)
C26 0.0362(16) 0.0495(18) 0.0429(17) 0.0010(13) 0.0190(13) 0.0016(13)
C27 0.0322(15) 0.0440(17) 0.0390(16) 0.0016(12) 0.0087(12) -0.0030(12)
C28 0.0315(16) 0.0521(18) 0.0427(17) 0.0066(14) 0.0161(12) -0.0009(14)
C29 0.0275(14) 0.0526(18) 0.0353(15) 0.0013(13) 0.0115(11) 0.0021(13)
C30 0.0280(15) 0.0564(19) 0.0390(17) 0.0031(13) 0.0085(12) 0.0049(13)
C31 0.0319(16) 0.0464(18) 0.0461(18) 0.0029(13) 0.0083(12) -0.0027(13)
C32 0.0250(15) 0.0503(18) 0.0520(19) -0.0006(14) 0.0112(12) -0.0018(13)
C33 0.0314(16) 0.0448(17) 0.0438(17) 0.0061(13) 0.0100(12) -0.0013(13)
C34 0.0336(16) 0.0373(16) 0.0468(17) 0.0065(12) 0.0134(12) -0.0026(12)
C35 0.0352(16) 0.0435(17) 0.0485(18) 0.0039(13) 0.0100(13) -0.0034(13)
C36 0.0313(16) 0.0427(17) 0.063(2) 0.0132(14) 0.0122(13) -0.0069(13)
C37 0.0320(16) 0.0416(17) 0.0413(17) 0.0020(13) 0.0124(12) -0.0016(13)
C38 0.057(2) 0.0469(18) 0.048(2) -0.0002(15) 0.0231(17) -0.0006(16)
C39 0.0306(15) 0.0372(16) 0.0417(16) -0.0012(12) 0.0139(12) -0.0052(12)
C40 0.0355(17) 0.0457(18) 0.0430(17) -0.0025(13) 0.0116(12) -0.0093(14)

_geom_special_details            
;
All esds (except the esd in the dihedral angle between two l.s. planes)

are estimated using the full covariance matrix. The cell esds are
taken
into account individually in the estimation of esds in distances,
angles
and torsion angles; correlations between esds in cell parameters are
only
used when they are defined by crystal symmetry. An approximate
(isotropic)
treatment of cell esds is used for estimating esds involving l.s.
planes.
;

loop_
_geom_bond_atom_site_label_1
_geom_bond_atom_site_label_2
_geom_bond_distance
_geom_bond_site_symmetry_2
_geom_bond_publ_flag



















































In1 O3 2.109(2) 8_556 ?
In1 O6 2.221(2) . ?
In1 O7 2.226(2) 3 ?
In1 O1 2.2302(19) 1_655 ?
In1 O2 2.258(2) 1_655 ?
In1 O5 2.308(2) . ?
In1 O8 2.330(2) 3 ?
O1 C37 1.274(3) . ?
