####################################################################### 
# 
# This file contains crystal structure data downloaded from the 
# Cambridge Structural Database (CSD) hosted by the Cambridge 
# Crystallographic Data Centre (CCDC).
# 
# Full information about CCDC data access policies and citation 
# guidelines are available at http://www.ccdc.cam.ac.uk/access/V1 
# 
# Audit and citation data items may have been added by the CCDC. 
# Please retain this information to preserve the provenance of 
# this file and to allow appropriate attribution of the data. 
# 
#######################################################################

data_SNU-70
_audit_block_doi                 10.5517/ccxf9h3
_database_code_depnum_ccdc_archive 'CCDC 846935'
loop_
_citation_id
_citation_doi
_citation_year
1 10.1002/chem.201200456 2012
_audit_update_record             
;
2011-10-04 deposited with the CCDC.	2024-07-10 downloaded from the CCDC.
;
#TrackingRef '7461_web_deposit_cif_file_0_ThazheKootteriPrasad_1317690167.SNU_70_71_CCDC.cif'


_audit_creation_method           SHELXL-97
_chemical_name_systematic        
;
?
;
_chemical_name_common            ?
_chemical_melting_point          ?
_chemical_formula_moiety         ?
_chemical_formula_sum            'C30 H24 O13 Zn4'
_chemical_formula_weight         853.97

loop_
_atom_type_symbol
_atom_type_description
_atom_type_scat_dispersion_real
_atom_type_scat_dispersion_imag
_atom_type_scat_source
C C 0.0033 0.0016 'International Tables Vol C Tables 4.2.6.8 and 6.1.1.4'
H H 0.0000 0.0000 'International Tables Vol C Tables 4.2.6.8 and 6.1.1.4'
Zn Zn 0.2839 1.4301 'International Tables Vol C Tables 4.2.6.8 and 6.1.1.4'
O O 0.0106 0.0060 'International Tables Vol C Tables 4.2.6.8 and 6.1.1.4'

_symmetry_cell_setting           Cubic
_symmetry_space_group_name_H-M   Fm-3m

loop_
_symmetry_equiv_pos_as_xyz
'x, y, z'
'x, -y, -z'
'-x, -y, z'
'-x, y, -z'
'-y, x, z'
'y, x, -z'
'y, -x, z'
'-y, -x, -z'
'y, z, x'
'-y, -z, x'
'y, -z, -x'
'-y, z, -x'
'-z, y, x'
'-z, -y, -x'
'z, -y, x'
'z, y, -x'
'z, x, y'
'-z, x, -y'
'-z, -x, y'
'z, -x, -y'
'-x, -z, -y'
'-x, z, y'
'x, -z, y'
'x, z, -y'
'x, y+1/2, z+1/2'
'x, -y+1/2, -z+1/2'
'-x, -y+1/2, z+1/2'
'-x, y+1/2, -z+1/2'
'-y, x+1/2, z+1/2'
'y, x+1/2, -z+1/2'
'y, -x+1/2, z+1/2'
'-y, -x+1/2, -z+1/2'
'y, z+1/2, x+1/2'
'-y, -z+1/2, x+1/2'
'y, -z+1/2, -x+1/2'
'-y, z+1/2, -x+1/2'
'-z, y+1/2, x+1/2'
'-z, -y+1/2, -x+1/2'
'z, -y+1/2, x+1/2'
'z, y+1/2, -x+1/2'
'z, x+1/2, y+1/2'
'-z, x+1/2, -y+1/2'
'-z, -x+1/2, y+1/2'
'z, -x+1/2, -y+1/2'
'-x, -z+1/2, -y+1/2'
'-x, z+1/2, y+1/2'
'x, -z+1/2, y+1/2'
'x, z+1/2, -y+1/2'
'x+1/2, y, z+1/2'
'x+1/2, -y, -z+1/2'
'-x+1/2, -y, z+1/2'
'-x+1/2, y, -z+1/2'
'-y+1/2, x, z+1/2'
'y+1/2, x, -z+1/2'
'y+1/2, -x, z+1/2'
'-y+1/2, -x, -z+1/2'
'y+1/2, z, x+1/2'
'-y+1/2, -z, x+1/2'
'y+1/2, -z, -x+1/2'
'-y+1/2, z, -x+1/2'
'-z+1/2, y, x+1/2'
'-z+1/2, -y, -x+1/2'
'z+1/2, -y, x+1/2'
'z+1/2, y, -x+1/2'
'z+1/2, x, y+1/2'
'-z+1/2, x, -y+1/2'
'-z+1/2, -x, y+1/2'
'z+1/2, -x, -y+1/2'
'-x+1/2, -z, -y+1/2'
'-x+1/2, z, y+1/2'
'x+1/2, -z, y+1/2'
'x+1/2, z, -y+1/2'
'x+1/2, y+1/2, z'
'x+1/2, -y+1/2, -z'
'-x+1/2, -y+1/2, z'
'-x+1/2, y+1/2, -z'
'-y+1/2, x+1/2, z'
'y+1/2, x+1/2, -z'
'y+1/2, -x+1/2, z'
'-y+1/2, -x+1/2, -z'
'y+1/2, z+1/2, x'
'-y+1/2, -z+1/2, x'
'y+1/2, -z+1/2, -x'
'-y+1/2, z+1/2, -x'
'-z+1/2, y+1/2, x'
'-z+1/2, -y+1/2, -x'
'z+1/2, -y+1/2, x'
'z+1/2, y+1/2, -x'
'z+1/2, x+1/2, y'
'-z+1/2, x+1/2, -y'
'-z+1/2, -x+1/2, y'
'z+1/2, -x+1/2, -y'
'-x+1/2, -z+1/2, -y'
'-x+1/2, z+1/2, y'
'x+1/2, -z+1/2, y'
'x+1/2, z+1/2, -y'
'-x, -y, -z'
'-x, y, z'
'x, y, -z'
'x, -y, z'
'y, -x, -z'
'-y, -x, z'
'-y, x, -z'
'y, x, z'
'-y, -z, -x'
'y, z, -x'
'-y, z, x'
'y, -z, x'
'z, -y, -x'
'z, y, x'
'-z, y, -x'
'-z, -y, x'
'-z, -x, -y'
'z, -x, y'
'z, x, -y'
'-z, x, y'
'x, z, y'
'x, -z, -y'
'-x, z, -y'
'-x, -z, y'
'-x, -y+1/2, -z+1/2'
'-x, y+1/2, z+1/2'
'x, y+1/2, -z+1/2'
'x, -y+1/2, z+1/2'
'y, -x+1/2, -z+1/2'
'-y, -x+1/2, z+1/2'
'-y, x+1/2, -z+1/2'
'y, x+1/2, z+1/2'
'-y, -z+1/2, -x+1/2'
'y, z+1/2, -x+1/2'
'-y, z+1/2, x+1/2'
'y, -z+1/2, x+1/2'
'z, -y+1/2, -x+1/2'
'z, y+1/2, x+1/2'
'-z, y+1/2, -x+1/2'
'-z, -y+1/2, x+1/2'
'-z, -x+1/2, -y+1/2'
'z, -x+1/2, y+1/2'
'z, x+1/2, -y+1/2'
'-z, x+1/2, y+1/2'
'x, z+1/2, y+1/2'
'x, -z+1/2, -y+1/2'
'-x, z+1/2, -y+1/2'
'-x, -z+1/2, y+1/2'
'-x+1/2, -y, -z+1/2'
'-x+1/2, y, z+1/2'
'x+1/2, y, -z+1/2'
'x+1/2, -y, z+1/2'
'y+1/2, -x, -z+1/2'
'-y+1/2, -x, z+1/2'
'-y+1/2, x, -z+1/2'
'y+1/2, x, z+1/2'
'-y+1/2, -z, -x+1/2'
'y+1/2, z, -x+1/2'
'-y+1/2, z, x+1/2'
'y+1/2, -z, x+1/2'
'z+1/2, -y, -x+1/2'
'z+1/2, y, x+1/2'
'-z+1/2, y, -x+1/2'
'-z+1/2, -y, x+1/2'
'-z+1/2, -x, -y+1/2'
'z+1/2, -x, y+1/2'
'z+1/2, x, -y+1/2'
'-z+1/2, x, y+1/2'
'x+1/2, z, y+1/2'
'x+1/2, -z, -y+1/2'
'-x+1/2, z, -y+1/2'
'-x+1/2, -z, y+1/2'
'-x+1/2, -y+1/2, -z'
'-x+1/2, y+1/2, z'
'x+1/2, y+1/2, -z'
'x+1/2, -y+1/2, z'
'y+1/2, -x+1/2, -z'
'-y+1/2, -x+1/2, z'
'-y+1/2, x+1/2, -z'
'y+1/2, x+1/2, z'
'-y+1/2, -z+1/2, -x'
'y+1/2, z+1/2, -x'
'-y+1/2, z+1/2, x'
'y+1/2, -z+1/2, x'
'z+1/2, -y+1/2, -x'
'z+1/2, y+1/2, x'
'-z+1/2, y+1/2, -x'
'-z+1/2, -y+1/2, x'
'-z+1/2, -x+1/2, -y'
'z+1/2, -x+1/2, y'
'z+1/2, x+1/2, -y'
'-z+1/2, x+1/2, y'
'x+1/2, z+1/2, y'
'x+1/2, -z+1/2, -y'
'-x+1/2, z+1/2, -y'
'-x+1/2, -z+1/2, y'

_cell_length_a                   30.234(4)
_cell_length_b                   30.234(4)
_cell_length_c                   30.234(4)
_cell_angle_alpha                90.00
_cell_angle_beta                 90.00
_cell_angle_gamma                90.00
_cell_volume                     27637(6)
_cell_formula_units_Z            8
_cell_measurement_temperature    298(2)
_cell_measurement_reflns_used    625
_cell_measurement_theta_min      0.998
_cell_measurement_theta_max      27.485

_exptl_crystal_description       Cubic
_exptl_crystal_colour            'pale yellow'
_exptl_crystal_size_max          0.2
_exptl_crystal_size_mid          0.2
_exptl_crystal_size_min          0.2
_exptl_crystal_density_meas      ?
_exptl_crystal_density_diffrn    0.410
_exptl_crystal_density_method    'not measured'
_exptl_crystal_F_000             3424
_exptl_absorpt_coefficient_mu    0.701
_exptl_absorpt_correction_type   none
_exptl_absorpt_correction_T_min  ?
_exptl_absorpt_correction_T_max  ?
_exptl_absorpt_process_details   ?

_exptl_special_details           
;
?
;

_diffrn_ambient_temperature      298(2)
_diffrn_radiation_wavelength     0.71073
_diffrn_radiation_type           MoK\a
_diffrn_radiation_source         'fine-focus sealed tube'
_diffrn_radiation_monochromator  graphite
_diffrn_measurement_device_type  'Kappa CCD'
_diffrn_measurement_method       'CCD rotation images, thick slices'
_diffrn_detector_area_resol_mean ?
_diffrn_standards_number         ?
_diffrn_standards_interval_count ?
_diffrn_standards_interval_time  ?
_diffrn_standards_decay_%        ?
_diffrn_reflns_number            214
_diffrn_reflns_av_R_equivalents  0.0000
_diffrn_reflns_av_sigmaI/netI    0.0261
_diffrn_reflns_limit_h_min       1
_diffrn_reflns_limit_h_max       26
_diffrn_reflns_limit_k_min       0
_diffrn_reflns_limit_k_max       16
_diffrn_reflns_limit_l_min       0
_diffrn_reflns_limit_l_max       12
_diffrn_reflns_theta_min         1.17
_diffrn_reflns_theta_max         17.90
_reflns_number_total             214
_reflns_number_gt                193
_reflns_threshold_expression     >2sigma(I)

_computing_data_collection       'Collect (Bruker AXS BV, 1997-2004)'
_computing_cell_refinement       'HKL Scalepack (Otwinowski & Minor 1997)'
_computing_data_reduction        'HKL Scalepack (Otwinowski & Minor 1997)'
_computing_structure_solution    'SHELXL-97 (Sheldrick, 1997)'
_computing_structure_refinement  'SHELXL-97 (Sheldrick, 1997)'
_computing_molecular_graphics    Mercury
_computing_publication_material  WinGX

_refine_special_details          
;
Refinement of F^2^ against ALL reflections. The weighted R-factor wR and
goodness of fit S are based on F^2^, conventional R-factors R are based
on F, with F set to zero for negative F^2^. The threshold expression of
F^2^ > 2sigma(F^2^) is used only for calculating R-factors(gt) etc. and is
not relevant to the choice of reflections for refinement. R-factors based
on F^2^ are statistically about twice as large as those based on F, and R-
factors based on ALL data will be even larger.The unsymmetrical dicarboxylate
linkers are randomly oriented and cannot be differentiated between
the long and short parts from the benzene ring, and the structures
were refined by
providing the appropriate occupancy factors. The solvent molecules
could not be located from the difference maps, and the residual
electron density corresponding to the solvent molecules were
removed by SQUEEZE. The data collection at lower temerature does
not impove the quality.
;

_refine_ls_structure_factor_coef Fsqd
_refine_ls_matrix_type           full
_refine_ls_weighting_scheme      calc
_refine_ls_weighting_details     
'calc w=1/[\s^2^(Fo^2^)+(0.1916P)^2^+0.0000P] where P=(Fo^2^+2Fc^2^)/3'
_atom_sites_solution_primary     direct
_atom_sites_solution_secondary   difmap
_atom_sites_solution_hydrogens   geom
_refine_ls_hydrogen_treatment    constr
_refine_ls_extinction_method     none
_refine_ls_extinction_coef       ?
_refine_ls_number_reflns         214
_refine_ls_number_parameters     15
_refine_ls_number_restraints     0
_refine_ls_R_factor_all          0.0897
_refine_ls_R_factor_gt           0.0869
_refine_ls_wR_factor_ref         0.2640
_refine_ls_wR_factor_gt          0.2633
_refine_ls_goodness_of_fit_ref   1.203
_refine_ls_restrained_S_all      1.203
_refine_ls_shift/su_max          0.000
_refine_ls_shift/su_mean         0.000

loop_
_atom_site_label
_atom_site_type_symbol
_atom_site_fract_x
_atom_site_fract_y
_atom_site_fract_z
_atom_site_U_iso_or_equiv
_atom_site_adp_type
_atom_site_occupancy
_atom_site_symmetry_multiplicity
_atom_site_calc_flag
_atom_site_refinement_flags
_atom_site_disorder_assembly
_atom_site_disorder_group
C3 C 0.2243 0.2756 0.0691 0.19(2) Uiso 0.63 2 d SP . .
H3 H 0.2073 0.2927 0.0882 0.225 Uiso 1 2 calc SR . .
C2 C 0.2500 0.2500 0.0821 0.146(17) Uiso 1 4 d S . .
C1 C 0.2500 0.2500 0.1359 0.16(3) Uiso 1 4 d S . .
O2 O 0.2500 0.2500 0.2500 0.21(4) Uani 1 24 d S . .
C4 C 0.2200 0.2798 0.0159 0.52(8) Uiso 0.63 2 d SP . .
H4 H 0.1900 0.3100 0.0159 0.627 Uiso 1 2 d SR . .
C5 C 0.2500 0.2500 0.0000 0.66(13) Uiso 1 8 d S . .
Zn1 Zn 0.21312(11) 0.28688(11) 0.21312(11) 0.126(4) Uiso 1 6 d S . .
O1 O 0.2221(5) 0.2779(5) 0.1478(6) 0.204(10) Uani 1 2 d S . .

loop_
_atom_site_aniso_label
_atom_site_aniso_U_11
_atom_site_aniso_U_22
_atom_site_aniso_U_33
_atom_site_aniso_U_23
_atom_site_aniso_U_13
_atom_site_aniso_U_12
O2 0.21(4) 0.21(4) 0.21(4) 0.000 0.000 0.000
O1 0.181(16) 0.181(16) 0.25(3) 0.045(14) -0.045(14) 0.03(2)

_geom_special_details            
;
All esds (except the esd in the dihedral angle between two l.s. planes)
are estimated using the full covariance matrix. The cell esds are taken
into account individually in the estimation of esds in distances, angles
and torsion angles; correlations between esds in cell parameters are only
used when they are defined by crystal symmetry. An approximate (isotropic)
treatment of cell esds is used for estimating esds involving l.s. planes.
;

loop_
_geom_bond_atom_site_label_1
_geom_bond_atom_site_label_2
_geom_bond_distance
_geom_bond_site_symmetry_2
_geom_bond_publ_flag
C3 C2 1.16464(15) . ?
C3 C4 1.6196(2) . ?
C2 C3 1.16463(16) 75 ?
C2 C1 1.6273(2) . ?
C1 O1 1.24(2) 75 ?
C1 O1 1.24(2) . ?
O2 Zn1 1.931(6) 52 ?
O2 Zn1 1.931(6) 75 ?
O2 Zn1 1.931(6) . ?
O2 Zn1 1.931(6) 26 ?
C4 C4 0.96165(13) 99 ?
C4 C5 1.36526(19) . ?
C5 C4 1.36525(18) 75 ?
C5 C4 1.36525(18) 169 ?
C5 C4 1.36526(19) 99 ?
Zn1 O1 2.011(19) 82 ?
Zn1 O1 2.011(19) . ?
Zn1 O1 2.011(19) 110 ?
Zn1 Zn1 3.154(9) 52 ?
Zn1 Zn1 3.154(9) 75 ?
Zn1 Zn1 3.154(9) 26 ?

loop_
_geom_angle_atom_site_label_1
_geom_angle_atom_site_label_2
_geom_angle_atom_site_label_3
_geom_angle
_geom_angle_site_symmetry_1
_geom_angle_site_symmetry_3
_geom_angle_publ_flag
C2 C3 C4 116.1 . . ?
C3 C2 C3 140.6 75 . ?
C3 C2 C1 109.7 75 . ?
C3 C2 C1 109.7 . . ?
O1 C1 O1 146.4(16) 75 . ?
O1 C1 C2 106.8(8) 75 . ?
O1 C1 C2 106.8(8) . . ?
Zn1 O2 Zn1 109.471(1) 52 75 ?
Zn1 O2 Zn1 109.471(1) 52 . ?
Zn1 O2 Zn1 109.5 75 . ?
Zn1 O2 Zn1 109.5 52 26 ?
Zn1 O2 Zn1 109.471(1) 75 26 ?
Zn1 O2 Zn1 109.5 . 26 ?
C4 C4 C5 69.4 99 . ?
C4 C4 C3 173.6 99 . ?
C5 C4 C3 104.2 . . ?
C4 C5 C4 41.2 75 169 ?
C4 C5 C4 138.8 75 . ?
C4 C5 C4 180.0 169 . ?
C4 C5 C4 180.0 75 99 ?
C4 C5 C4 138.8 169 99 ?
C4 C5 C4 41.2 . 99 ?
O2 Zn1 O1 114.2(6) . 82 ?
O2 Zn1 O1 114.2(6) . . ?
O1 Zn1 O1 104.4(7) 82 . ?
O2 Zn1 O1 114.2(6) . 110 ?
O1 Zn1 O1 104.4(7) 82 110 ?
O1 Zn1 O1 104.4(7) . 110 ?
O2 Zn1 Zn1 35.3 . 52 ?
O1 Zn1 Zn1 78.9(6) 82 52 ?
O1 Zn1 Zn1 126.7(5) . 52 ?
O1 Zn1 Zn1 126.7(5) 110 52 ?
O2 Zn1 Zn1 35.3 . 75 ?
O1 Zn1 Zn1 126.7(5) 82 75 ?
O1 Zn1 Zn1 78.9(6) . 75 ?
O1 Zn1 Zn1 126.7(5) 110 75 ?
Zn1 Zn1 Zn1 60.0 52 75 ?
O2 Zn1 Zn1 35.3 . 26 ?
O1 Zn1 Zn1 126.7(5) 82 26 ?
O1 Zn1 Zn1 126.7(5) . 26 ?
O1 Zn1 Zn1 78.9(6) 110 26 ?
Zn1 Zn1 Zn1 60.0 52 26 ?
Zn1 Zn1 Zn1 60.0 75 26 ?
C1 O1 Zn1 117.9(12) . . ?

_diffrn_measured_fraction_theta_max 0.400
_diffrn_reflns_theta_full        17.90
_diffrn_measured_fraction_theta_full 0.400
_refine_diff_density_max         0.396
_refine_diff_density_min         -0.342
_refine_diff_density_rms         0.056

# SQUEEZE RESULTS (APPEND TO CIF)
# Note: Data are Listed for all Voids in the P1 Unit Cell
# i.e. Centre of Gravity, Solvent Accessible Volume,
# Recovered number of Electrons in the Void and
# Details about the Squeezed Material
loop_
_platon_squeeze_void_nr
_platon_squeeze_void_average_x
_platon_squeeze_void_average_y
_platon_squeeze_void_average_z
_platon_squeeze_void_volume
_platon_squeeze_void_count_electrons
_platon_squeeze_void_content
1 -0.004 -0.012 -0.005 22511 10739 ' '
_platon_squeeze_details          
;
;
