####################################################################### 
# 
# This file contains crystal structure data downloaded from the 
# Cambridge Structural Database (CSD) hosted by the Cambridge 
# Crystallographic Data Centre (CCDC).
# 
# Full information about CCDC data access policies and citation 
# guidelines are available at http://www.ccdc.cam.ac.uk/access/V1 
# 
# Audit and citation data items may have been added by the CCDC. 
# Please retain this information to preserve the provenance of 
# this file and to allow appropriate attribution of the data. 
# 
#######################################################################

data_p21overn
_audit_block_doi                 10.5517/cc93jnk
_database_code_depnum_ccdc_archive 'CCDC 271518'
loop_
_citation_id
_citation_doi
_citation_year
1 10.1016/j.jssc.2005.08.013 2005
_audit_update_record             
;
2005-05-10 deposited with the CCDC.	2024-07-10 downloaded from the CCDC.
;

_audit_creation_method           SHELXL-97
_chemical_name_systematic        
;
?
;
_chemical_name_common            ?
_chemical_melting_point          ?
_chemical_formula_moiety         ?
_chemical_formula_sum            'C11 H13 N O6 Zn'
_chemical_formula_weight         320.59

loop_
_atom_type_symbol
_atom_type_description
_atom_type_scat_dispersion_real
_atom_type_scat_dispersion_imag
_atom_type_scat_source
C C 0.0033 0.0016 'International Tables Vol C Tables 4.2.6.8 and 6.1.1.4'
H H 0.0000 0.0000 'International Tables Vol C Tables 4.2.6.8 and 6.1.1.4'
N N 0.0061 0.0033 'International Tables Vol C Tables 4.2.6.8 and 6.1.1.4'
O O 0.0106 0.0060 'International Tables Vol C Tables 4.2.6.8 and 6.1.1.4'
Zn Zn 0.2839 1.4301 'International Tables Vol C Tables 4.2.6.8 and 6.1.1.4'

_symmetry_cell_setting           Monoclinic
_symmetry_space_group_name_H-M   P2(1)/n

loop_
_symmetry_equiv_pos_as_xyz
'x, y, z'
'-x+1/2, y+1/2, -z+1/2'
'-x, -y, -z'
'x-1/2, -y-1/2, z-1/2'

_cell_length_a                   6.6456(2)
_cell_length_b                   15.2232(5)
_cell_length_c                   12.6148(4)
_cell_angle_alpha                90.00
_cell_angle_beta                 104.110(2)
_cell_angle_gamma                90.00
_cell_volume                     1237.70(7)
_cell_formula_units_Z            4
_cell_measurement_temperature    273(2)
_cell_measurement_reflns_used    5196
_cell_measurement_theta_min      2.68
_cell_measurement_theta_max      34.67

_exptl_crystal_description       plate
_exptl_crystal_colour            colourless
_exptl_crystal_size_max          0.15
_exptl_crystal_size_mid          0.15
_exptl_crystal_size_min          0.10
_exptl_crystal_density_meas      ?
_exptl_crystal_density_diffrn    1.720
_exptl_crystal_density_method    'not measured'
_exptl_crystal_F_000             656
_exptl_absorpt_coefficient_mu    1.933
_exptl_absorpt_correction_type   sphere
_exptl_absorpt_correction_T_min  ?
_exptl_absorpt_correction_T_max  ?
_exptl_absorpt_process_details   ?

_exptl_special_details           
;
?
;

_diffrn_ambient_temperature      100(2)
_diffrn_radiation_wavelength     0.71073
_diffrn_radiation_type           MoK\a
_diffrn_radiation_source         'fine-focus sealed tube'
_diffrn_radiation_monochromator  graphite
_diffrn_measurement_device_type  'CCD area detector'
_diffrn_measurement_method       'phi and omega scans'
_diffrn_detector_area_resol_mean ?
_diffrn_standards_number         ?
_diffrn_standards_interval_count ?
_diffrn_standards_interval_time  ?
_diffrn_standards_decay_%        ?
_diffrn_reflns_number            33664
_diffrn_reflns_av_R_equivalents  0.0357
_diffrn_reflns_av_sigmaI/netI    0.0404
_diffrn_reflns_limit_h_min       -10
_diffrn_reflns_limit_h_max       10
_diffrn_reflns_limit_k_min       -25
_diffrn_reflns_limit_k_max       25
_diffrn_reflns_limit_l_min       -19
_diffrn_reflns_limit_l_max       21
_diffrn_reflns_theta_min         2.14
_diffrn_reflns_theta_max         38.40
_reflns_number_total             5919
_reflns_number_gt                4608
_reflns_threshold_expression     >2sigma(I)

_computing_data_collection       'Bruker SMART'
_computing_cell_refinement       'Bruker SMART'
_computing_data_reduction        'Bruker SAINT'
_computing_structure_solution    'SHELXS-97 (Sheldrick, 1990)'
_computing_structure_refinement  'SHELXL-97 (Sheldrick, 1997)'
_computing_molecular_graphics    'Bruker SHELXTL'
_computing_publication_material  'Bruker SHELXTL'

_refine_special_details          
;
Refinement of F^2^ against ALL reflections. The weighted R-factor wR and
goodness of fit S are based on F^2^, conventional R-factors R are based
on F, with F set to zero for negative F^2^. The threshold expression of
F^2^ > 2sigma(F^2^) is used only for calculating R-factors(gt) etc. and is
not relevant to the choice of reflections for refinement. R-factors based
on F^2^ are statistically about twice as large as those based on F, and R-
factors based on ALL data will be even larger.
;

_refine_ls_structure_factor_coef Fsqd
_refine_ls_matrix_type           full
_refine_ls_weighting_scheme      calc
_refine_ls_weighting_details     
'calc w=1/[\s^2^(Fo^2^)+(0.0175P)^2^+3.9050P] where P=(Fo^2^+2Fc^2^)/3'
_atom_sites_solution_primary     direct
_atom_sites_solution_secondary   difmap
_atom_sites_solution_hydrogens   geom
_refine_ls_hydrogen_treatment    mixed
_refine_ls_extinction_method     none
_refine_ls_extinction_coef       ?
_refine_ls_number_reflns         5919
_refine_ls_number_parameters     180
_refine_ls_number_restraints     2
_refine_ls_R_factor_all          0.0680
_refine_ls_R_factor_gt           0.0477
_refine_ls_wR_factor_ref         0.0997
_refine_ls_wR_factor_gt          0.0913
_refine_ls_goodness_of_fit_ref   1.074
_refine_ls_restrained_S_all      1.074
_refine_ls_shift/su_max          0.003
_refine_ls_shift/su_mean         0.000

loop_
_atom_site_label
_atom_site_type_symbol
_atom_site_fract_x
_atom_site_fract_y
_atom_site_fract_z
_atom_site_U_iso_or_equiv
_atom_site_adp_type
_atom_site_occupancy
_atom_site_symmetry_multiplicity
_atom_site_calc_flag
_atom_site_refinement_flags
_atom_site_disorder_assembly
_atom_site_disorder_group
Zn1 Zn -0.20502(3) 0.494610(13) 0.423127(17) 0.00661(5) Uani 1 1 d . . .
O6 O 0.6526(3) 0.49261(12) -0.13607(13) 0.0199(3) Uani 1 1 d . . .
O3 O 0.2844(3) 0.08377(17) 0.05431(19) 0.0420(7) Uani 1 1 d . . .
O4 O 0.5901(4) 0.08126(19) 0.16788(17) 0.0504(8) Uani 1 1 d . . .
C11 C 0.8296(4) 0.43645(18) 0.0762(2) 0.0230(5) Uani 1 1 d . . .
H15 H 0.9462 0.4003 0.0728 0.035 Uiso 1 1 calc R . .
H14 H 0.8144 0.4378 0.1499 0.035 Uiso 1 1 calc R . .
H16 H 0.8518 0.4950 0.0531 0.035 Uiso 1 1 calc R . .
C10 C 0.5407(4) 0.32747(16) 0.0447(2) 0.0234(5) Uani 1 1 d . . .
H9 H 0.4168 0.3120 -0.0091 0.035 Uiso 1 1 calc R . .
H10 H 0.5056 0.3443 0.1112 0.035 Uiso 1 1 calc R . .
H8 H 0.6328 0.2779 0.0583 0.035 Uiso 1 1 calc R . .
N1 N 0.6421(3) 0.40037(13) 0.00454(15) 0.0169(3) Uani 1 1 d . . .
O1 O -0.0674(4) 0.39400(18) 0.36533(19) 0.0527(9) Uani 1 1 d . . .
O5 O -0.4959(2) 0.48173(10) 0.34310(12) 0.0125(3) Uani 1 1 d D . .
C5 C 0.4697(3) 0.21072(13) 0.29975(17) 0.0137(4) Uani 1 1 d . . .
H5 H 0.6082 0.1936 0.3180 0.016 Uiso 1 1 calc R . .
C6 C 0.4010(3) 0.27391(13) 0.36227(17) 0.0134(4) Uani 1 1 d . . .
H6 H 0.4937 0.2997 0.4213 0.016 Uiso 1 1 calc R . .
C1 C 0.1920(3) 0.29847(12) 0.33604(16) 0.0113(3) Uani 1 1 d . . .
C8 C 0.4086(3) 0.10760(12) 0.13888(16) 0.0106(3) Uani 1 1 d . . .
C7 C 0.1152(3) 0.37045(12) 0.39753(16) 0.0110(3) Uani 1 1 d . . .
C4 C 0.3325(3) 0.17262(12) 0.20964(16) 0.0111(3) Uani 1 1 d . . .
C2 C 0.0536(3) 0.25854(13) 0.24805(16) 0.0126(3) Uani 1 1 d . . .
H3 H -0.0862 0.2737 0.2318 0.015 Uiso 1 1 calc R . .
C3 C 0.1229(3) 0.19632(13) 0.18445(16) 0.0122(3) Uani 1 1 d . . .
H4 H 0.0302 0.1706 0.1254 0.015 Uiso 1 1 calc R . .
O2 O 0.2405(3) 0.40350(15) 0.4769(2) 0.0400(6) Uani 1 1 d . . .
C9 C 0.5713(4) 0.43187(15) -0.09603(18) 0.0170(4) Uani 1 1 d . . .
H7 H 0.4521 0.4065 -0.1394 0.020 Uiso 1 1 calc R . .
H2 H -0.553(5) 0.489(2) 0.2655(5) 0.020 Uiso 1 1 d D . .
H1 H -0.606(3) 0.484(2) 0.381(2) 0.020 Uiso 1 1 d D . .

loop_
_atom_site_aniso_label
_atom_site_aniso_U_11
_atom_site_aniso_U_22
_atom_site_aniso_U_33
_atom_site_aniso_U_23
_atom_site_aniso_U_13
_atom_site_aniso_U_12
Zn1 0.00720(9) 0.00672(8) 0.00638(8) -0.00003(7) 0.00253(6) 0.00008(7)
O6 0.0231(8) 0.0247(8) 0.0109(6) 0.0024(6) 0.0019(6) -0.0003(7)
O3 0.0119(9) 0.0652(15) 0.0457(13) -0.0491(12) 0.0009(8) 0.0031(9)
O4 0.0371(12) 0.0794(18) 0.0236(10) -0.0310(11) -0.0139(9) 0.0460(13)
C11 0.0238(12) 0.0274(11) 0.0142(9) 0.0040(8) -0.0024(9) -0.0023(9)
C10 0.0294(13) 0.0196(10) 0.0211(11) 0.0025(8) 0.0060(10) -0.0025(9)
N1 0.0199(9) 0.0165(8) 0.0134(8) 0.0013(6) 0.0021(7) 0.0007(7)
O1 0.0386(13) 0.0681(16) 0.0348(11) -0.0401(12) -0.0234(10) 0.0435(12)
O5 0.0088(6) 0.0189(7) 0.0095(6) 0.0012(5) 0.0017(5) -0.0016(5)
C5 0.0150(9) 0.0140(8) 0.0119(8) -0.0026(6) 0.0032(7) 0.0063(7)
C6 0.0153(9) 0.0134(8) 0.0116(8) -0.0028(6) 0.0036(7) 0.0044(7)
C1 0.0159(9) 0.0088(7) 0.0106(8) -0.0001(6) 0.0061(7) 0.0034(6)
C8 0.0155(9) 0.0073(7) 0.0114(8) -0.0001(6) 0.0078(7) 0.0004(6)
C7 0.0176(9) 0.0081(7) 0.0098(7) 0.0015(6) 0.0078(7) 0.0026(6)
C4 0.0158(9) 0.0091(7) 0.0099(7) -0.0006(6) 0.0058(7) 0.0017(6)
C2 0.0156(9) 0.0121(8) 0.0107(8) -0.0012(6) 0.0045(7) 0.0044(7)
C3 0.0163(9) 0.0107(7) 0.0105(8) -0.0006(6) 0.0047(7) 0.0026(6)
O2 0.0099(8) 0.0405(12) 0.0656(15) -0.0458(11) 0.0018(9) 0.0017(7)
C9 0.0194(10) 0.0193(9) 0.0116(8) -0.0017(7) 0.0021(7) 0.0032(8)

_geom_special_details            
;
All esds (except the esd in the dihedral angle between two l.s. planes)
are estimated using the full covariance matrix. The cell esds are taken
into account individually in the estimation of esds in distances, angles
and torsion angles; correlations between esds in cell parameters are only
used when they are defined by crystal symmetry. An approximate (isotropic)
treatment of cell esds is used for estimating esds involving l.s. planes.
;

loop_
_geom_bond_atom_site_label_1
_geom_bond_atom_site_label_2
_geom_bond_distance
_geom_bond_site_symmetry_2
_geom_bond_publ_flag
Zn1 O5 1.9601(15) . ?
Zn1 O1 2.0098(19) . ?
Zn1 O4 2.0174(18) 2 ?
Zn1 O2 2.0490(17) 3_566 ?
Zn1 O3 2.0553(17) 4_566 ?
Zn1 Zn1 2.9389(5) 3_566 ?
O6 C9 1.239(3) . ?
O3 C8 1.234(3) . ?
O3 Zn1 2.0553(17) 4_665 ?
O4 C8 1.238(3) . ?
O4 Zn1 2.0174(18) 2_545 ?
C11 N1 1.457(3) . ?
C11 H15 0.9600 . ?
C11 H14 0.9600 . ?
C11 H16 0.9600 . ?
C10 N1 1.452(3) . ?
C10 H9 0.9600 . ?
C10 H10 0.9600 . ?
C10 H8 0.9600 . ?
N1 C9 1.330(3) . ?
O1 C7 1.235(3) . ?
O5 H2 0.9669(10) . ?
O5 H1 0.9668(10) . ?
C5 C6 1.389(3) . ?
C5 C4 1.398(3) . ?
C5 H5 0.9300 . ?
C6 C1 1.398(3) . ?
C6 H6 0.9300 . ?
C1 C2 1.396(3) . ?
C1 C7 1.502(3) . ?
C8 C4 1.501(3) . ?
C7 O2 1.242(3) . ?
C4 C3 1.399(3) . ?
C2 C3 1.390(3) . ?
C2 H3 0.9300 . ?
C3 H4 0.9300 . ?
O2 Zn1 2.0490(17) 3_566 ?
C9 H7 0.9300 . ?

loop_
_geom_angle_atom_site_label_1
_geom_angle_atom_site_label_2
_geom_angle_atom_site_label_3
_geom_angle
_geom_angle_site_symmetry_1
_geom_angle_site_symmetry_3
_geom_angle_publ_flag
O5 Zn1 O1 102.46(8) . . ?
O5 Zn1 O4 103.59(7) . 2 ?
O1 Zn1 O4 91.31(14) . 2 ?
O5 Zn1 O2 98.39(7) . 3_566 ?
O1 Zn1 O2 158.61(8) . 3_566 ?
O4 Zn1 O2 88.38(12) 2 3_566 ?
O5 Zn1 O3 97.68(7) . 4_566 ?
O1 Zn1 O3 87.57(12) . 4_566 ?
O4 Zn1 O3 158.43(8) 2 4_566 ?
O2 Zn1 O3 84.95(12) 3_566 4_566 ?
O5 Zn1 Zn1 169.97(5) . 3_566 ?
O1 Zn1 Zn1 81.44(6) . 3_566 ?
O4 Zn1 Zn1 85.42(6) 2 3_566 ?
O2 Zn1 Zn1 77.21(6) 3_566 3_566 ?
O3 Zn1 Zn1 73.10(6) 4_566 3_566 ?
C8 O3 Zn1 136.05(16) . 4_665 ?
C8 O4 Zn1 121.34(16) . 2_545 ?
N1 C11 H15 109.5 . . ?
N1 C11 H14 109.5 . . ?
H15 C11 H14 109.5 . . ?
N1 C11 H16 109.5 . . ?
H15 C11 H16 109.5 . . ?
H14 C11 H16 109.5 . . ?
N1 C10 H9 109.5 . . ?
N1 C10 H10 109.5 . . ?
H9 C10 H10 109.5 . . ?
N1 C10 H8 109.5 . . ?
H9 C10 H8 109.5 . . ?
H10 C10 H8 109.5 . . ?
C9 N1 C10 121.4(2) . . ?
C9 N1 C11 120.4(2) . . ?
C10 N1 C11 118.13(19) . . ?
C7 O1 Zn1 126.82(16) . . ?
Zn1 O5 H2 127.1(19) . . ?
Zn1 O5 H1 120.6(18) . . ?
H2 O5 H1 110(3) . . ?
C6 C5 C4 120.6(2) . . ?
C6 C5 H5 119.7 . . ?
C4 C5 H5 119.7 . . ?
C5 C6 C1 119.71(19) . . ?
C5 C6 H6 120.1 . . ?
C1 C6 H6 120.1 . . ?
C2 C1 C6 119.70(18) . . ?
C2 C1 C7 119.16(18) . . ?
C6 C1 C7 121.07(18) . . ?
O3 C8 O4 123.9(2) . . ?
O3 C8 C4 117.19(19) . . ?
O4 C8 C4 118.86(19) . . ?
O1 C7 O2 124.0(2) . . ?
O1 C7 C1 118.17(19) . . ?
O2 C7 C1 117.79(19) . . ?
C5 C4 C3 119.57(18) . . ?
C5 C4 C8 120.67(19) . . ?
C3 C4 C8 119.75(18) . . ?
C3 C2 C1 120.6(2) . . ?
C3 C2 H3 119.7 . . ?
C1 C2 H3 119.7 . . ?
C2 C3 C4 119.76(19) . . ?
C2 C3 H4 120.1 . . ?
C4 C3 H4 120.1 . . ?
C7 O2 Zn1 130.37(16) . 3_566 ?
O6 C9 N1 124.7(2) . . ?
O6 C9 H7 117.6 . . ?
N1 C9 H7 117.6 . . ?

_diffrn_measured_fraction_theta_max 0.855
_diffrn_reflns_theta_full        38.40
_diffrn_measured_fraction_theta_full 0.855
_refine_diff_density_max         2.132
_refine_diff_density_min         -1.870
_refine_diff_density_rms         0.149


