####################################################################### 
# 
# This file contains crystal structure data downloaded from the 
# Cambridge Structural Database (CSD) hosted by the Cambridge 
# Crystallographic Data Centre (CCDC).
# 
# Full information about CCDC data access policies and citation 
# guidelines are available at http://www.ccdc.cam.ac.uk/access/V1 
# 
# Audit and citation data items may have been added by the CCDC. 
# Please retain this information to preserve the provenance of 
# this file and to allow appropriate attribution of the data. 
# 
#######################################################################

data_2
_audit_block_doi                 10.5517/cc5rylf
_database_code_depnum_ccdc_archive 'CCDC 171975'
loop_
_citation_id
_citation_doi
_citation_year
1 10.1002/1521-3765(20011203)7:23<5168::AID-CHEM5168>3.3.CO;2-J 2001
_audit_update_record             
;
2001-10-05 deposited with the CCDC.	2024-07-10 downloaded from the CCDC.
;

_audit_creation_method           SHELXL-97
_chemical_name_systematic        
;
?
;
_chemical_name_common            ?
_chemical_melting_point          ?
_chemical_formula_moiety         'Zn.(C8 H4 O4).(C3 H7 N O).(H2 O)'
_chemical_formula_sum            'C11 H13 N O6 Zn'
_chemical_formula_weight         320.59

loop_
_atom_type_symbol
_atom_type_description
_atom_type_scat_dispersion_real
_atom_type_scat_dispersion_imag
_atom_type_scat_source
C C 0.0033 0.0016 'International Tables Vol C Tables 4.2.6.8 and 6.1.1.4'
H H 0.0000 0.0000 'International Tables Vol C Tables 4.2.6.8 and 6.1.1.4'
N N 0.0061 0.0033 'International Tables Vol C Tables 4.2.6.8 and 6.1.1.4'
O O 0.0106 0.0060 'International Tables Vol C Tables 4.2.6.8 and 6.1.1.4'
Zn Zn 0.2839 1.4301 'International Tables Vol C Tables 4.2.6.8 and 6.1.1.4'

_symmetry_cell_setting           Monoclinic
_symmetry_space_group_name_H-M   P2(1)/n

loop_
_symmetry_equiv_pos_as_xyz
'x, y, z'
'-x+1/2, y+1/2, -z+1/2'
'-x, -y, -z'
'x-1/2, -y-1/2, z-1/2'

_cell_length_a                   6.7334(3)
_cell_length_b                   15.5158(7)
_cell_length_c                   12.4532(6)
_cell_angle_alpha                90.00
_cell_angle_beta                 102.7950(10)
_cell_angle_gamma                90.00
_cell_volume                     1268.73(10)
_cell_formula_units_Z            4
_cell_measurement_temperature    293(2)
_cell_measurement_reflns_used    27
_cell_measurement_theta_min      12
_cell_measurement_theta_max      168

_exptl_crystal_description       plate
_exptl_crystal_colour            colourless
_exptl_crystal_size_max          .12
_exptl_crystal_size_mid          .1
_exptl_crystal_size_min          .01
_exptl_crystal_density_meas      ?
_exptl_crystal_density_diffrn    1.678
_exptl_crystal_density_method    'not measured'
_exptl_crystal_F_000             656
_exptl_absorpt_coefficient_mu    1.958
_exptl_absorpt_correction_type   sadabs
_exptl_absorpt_correction_T_min  0.789698
_exptl_absorpt_correction_T_max  1.000000
_exptl_absorpt_process_details   ?

_exptl_special_details           
;
-
;

_diffrn_ambient_temperature      293(2)
_diffrn_radiation_wavelength     0.71073
_diffrn_radiation_type           MoK\a
_diffrn_radiation_source         'fine-focus sealed tube'
_diffrn_radiation_monochromator  graphite
_diffrn_measurement_device_type  CCD
_diffrn_measurement_method       CCD
_diffrn_detector_area_resol_mean 0.9
_diffrn_standards_number         ?
_diffrn_standards_interval_count ?
_diffrn_standards_interval_time  ?
_diffrn_standards_decay_%        ?
_diffrn_reflns_number            5319
_diffrn_reflns_av_R_equivalents  0.0553
_diffrn_reflns_av_sigmaI/netI    0.0534
_diffrn_reflns_limit_h_min       -7
_diffrn_reflns_limit_h_max       5
_diffrn_reflns_limit_k_min       -13
_diffrn_reflns_limit_k_max       17
_diffrn_reflns_limit_l_min       -13
_diffrn_reflns_limit_l_max       13
_diffrn_reflns_theta_min         2.13
_diffrn_reflns_theta_max         23.25
_reflns_number_total             1773
_reflns_number_gt                1289
_reflns_threshold_expression     >2sigma(I)

_computing_data_collection       SMART
_computing_cell_refinement       SMART/SAINT
_computing_data_reduction        SAINT
_computing_structure_solution    'SHELXS-97 (Sheldrick, 1990)'
_computing_structure_refinement  'SHELXL-97 (Sheldrick, 1997)'
_computing_molecular_graphics    SHELXTL
_computing_publication_material  SHELXTL

_refine_special_details          
;
Refinement of F^2^ against ALL reflections.  The weighted R-factor wR and
goodness of fit S are based on F^2^, conventional R-factors R are based
on F, with F set to zero for negative F^2^. The threshold expression of
F^2^ > 2sigma(F^2^) is used only for calculating R-factors(gt) etc. and is
not relevant to the choice of reflections for refinement.  R-factors based
on F^2^ are statistically about twice as large as those based on F, and R-
factors based on ALL data will be even larger.
;

_refine_ls_structure_factor_coef Fsqd
_refine_ls_matrix_type           full
_refine_ls_weighting_scheme      calc
_refine_ls_weighting_details     
'calc w=1/[\s^2^(Fo^2^)+(0.0334P)^2^+0.1430P] where P=(Fo^2^+2Fc^2^)/3'
_atom_sites_solution_primary     direct
_atom_sites_solution_secondary   difmap
_atom_sites_solution_hydrogens   geom
_refine_ls_hydrogen_treatment    mixed
_refine_ls_extinction_method     SHELXL
_refine_ls_extinction_coef       0.0000(6)
_refine_ls_extinction_expression Fc^*^=kFc[1+0.001xFc^2^\l^3^/sin(2\q)]^-1/4^
_refine_ls_number_reflns         1773
_refine_ls_number_parameters     181
_refine_ls_number_restraints     2
_refine_ls_R_factor_all          0.0619
_refine_ls_R_factor_gt           0.0347
_refine_ls_wR_factor_ref         0.0754
_refine_ls_wR_factor_gt          0.0667
_refine_ls_goodness_of_fit_ref   1.023
_refine_ls_restrained_S_all      1.022
_refine_ls_shift/su_max          1.943
_refine_ls_shift/su_mean         0.011

loop_
_atom_site_label
_atom_site_type_symbol
_atom_site_fract_x
_atom_site_fract_y
_atom_site_fract_z
_atom_site_U_iso_or_equiv
_atom_site_adp_type
_atom_site_occupancy
_atom_site_symmetry_multiplicity
_atom_site_calc_flag
_atom_site_refinement_flags
_atom_site_disorder_assembly
_atom_site_disorder_group
Zn1 Zn 0.70004(7) 0.00501(3) 0.07703(3) 0.01861(18) Uani 1 1 d . . .
C1 C 0.3330(6) -0.1717(2) 0.2133(3) 0.0226(10) Uani 1 1 d . . .
C2 C 0.1284(6) -0.1957(2) 0.1891(3) 0.0255(10) Uani 1 1 d . . .
H2A H 0.0374 -0.1698 0.1309 0.031 Uiso 1 1 calc R . .
C3 C 0.0615(7) -0.2580(2) 0.2517(3) 0.0262(10) Uani 1 1 d . . .
H3A H -0.0758 -0.2727 0.2363 0.031 Uiso 1 1 calc R . .
C4 C 0.1934(6) -0.2989(2) 0.3366(3) 0.0225(10) Uani 1 1 d . . .
C5 C 0.3975(7) -0.2743(2) 0.3613(3) 0.0286(11) Uani 1 1 d . . .
H5A H 0.4884 -0.3007 0.4190 0.034 Uiso 1 1 calc R . .
C6 C 0.4651(7) -0.2111(3) 0.3005(4) 0.0301(11) Uani 1 1 d . . .
H6A H 0.6012 -0.1947 0.3182 0.036 Uiso 1 1 calc R . .
C7 C 0.4064(7) -0.1054(2) 0.1427(3) 0.0224(10) Uani 1 1 d . . .
O1 O 0.5868(5) -0.0800(2) 0.1721(3) 0.0468(9) Uani 1 1 d . . .
O2 O 0.2836(5) -0.0794(2) 0.0591(3) 0.0441(9) Uani 1 1 d . . .
C8 C 0.1190(7) -0.3708(2) 0.3980(3) 0.0239(10) Uani 1 1 d . . .
O3 O 0.2441(5) -0.40297(19) 0.4796(3) 0.0437(9) Uani 1 1 d . . .
O4 O -0.0603(5) -0.3950(2) 0.3665(3) 0.0444(9) Uani 1 1 d . . .
O7 O 0.9850(5) 0.02010(18) 0.1571(2) 0.0314(7) Uani 1 1 d D . .
H7A H 1.044(9) 0.012(3) 0.2355(12) 0.09(2) Uiso 1 1 d D . .
H7B H 1.075(12) 0.026(6) 0.105(6) 0.22(5) Uiso 1 1 d D . .
O10 O 1.1428(6) -0.0134(2) 0.3628(3) 0.0565(10) Uani 1 1 d . . .
C10 C 1.0637(8) -0.0708(3) 0.4069(4) 0.0465(14) Uani 1 1 d . . .
H10A H 0.9410 -0.0932 0.3676 0.056 Uiso 1 1 calc R . .
N11 N 1.1382(7) -0.1029(3) 0.5049(3) 0.0525(12) Uani 1 1 d . . .
C12 C 1.0353(9) -0.1723(4) 0.5504(5) 0.0728(19) Uani 1 1 d . . .
H12A H 1.1126 -0.1870 0.6224 0.109 Uiso 1 1 calc R . .
H12B H 1.0240 -0.2218 0.5032 0.109 Uiso 1 1 calc R . .
H12C H 0.9018 -0.1535 0.5554 0.109 Uiso 1 1 calc R . .
C13 C 1.3283(10) -0.0708(4) 0.5718(5) 0.079(2) Uani 1 1 d . . .
H13A H 1.3597 -0.1014 0.6404 0.119 Uiso 1 1 calc R . .
H13B H 1.3152 -0.0104 0.5857 0.119 Uiso 1 1 calc R . .
H13C H 1.4358 -0.0793 0.5334 0.119 Uiso 1 1 calc R . .

loop_
_atom_site_aniso_label
_atom_site_aniso_U_11
_atom_site_aniso_U_22
_atom_site_aniso_U_33
_atom_site_aniso_U_23
_atom_site_aniso_U_13
_atom_site_aniso_U_12
Zn1 0.0212(3) 0.0173(3) 0.0189(3) -0.0004(2) 0.00768(18) 0.0003(2)
C1 0.024(3) 0.022(2) 0.023(2) 0.0006(19) 0.008(2) 0.0004(19)
C2 0.033(3) 0.023(2) 0.022(2) 0.0056(18) 0.009(2) 0.0024(19)
C3 0.024(3) 0.021(2) 0.034(3) 0.003(2) 0.007(2) -0.0045(19)
C4 0.031(3) 0.014(2) 0.024(2) 0.0026(18) 0.009(2) -0.0034(19)
C5 0.033(3) 0.026(2) 0.027(3) 0.0096(19) 0.006(2) 0.002(2)
C6 0.023(3) 0.032(3) 0.036(3) 0.003(2) 0.007(2) -0.012(2)
C7 0.034(3) 0.013(2) 0.026(2) -0.0014(19) 0.018(2) 0.0031(19)
O1 0.042(2) 0.054(2) 0.045(2) 0.0224(17) 0.0087(18) -0.0145(18)
O2 0.036(2) 0.054(2) 0.042(2) 0.0301(17) 0.0060(17) -0.0056(16)
C8 0.033(3) 0.018(2) 0.025(3) -0.0034(19) 0.015(2) -0.001(2)
O3 0.036(2) 0.041(2) 0.050(2) 0.0247(17) 0.0022(18) -0.0073(15)
O4 0.037(2) 0.044(2) 0.048(2) 0.0206(16) 0.0004(17) -0.0190(16)
O7 0.0268(17) 0.0388(19) 0.0274(17) 0.0027(14) 0.0034(14) -0.0035(14)
O10 0.070(3) 0.065(3) 0.0321(19) 0.0073(18) 0.0056(18) 0.001(2)
C10 0.051(4) 0.052(3) 0.036(3) -0.010(3) 0.010(3) 0.005(3)
N11 0.070(3) 0.047(3) 0.040(3) 0.007(2) 0.011(2) 0.004(2)
C12 0.097(5) 0.056(4) 0.065(4) 0.010(3) 0.020(4) -0.005(3)
C13 0.088(6) 0.085(5) 0.057(4) 0.020(3) 0.002(4) -0.010(4)

_geom_special_details            
;
All esds (except the esd in the dihedral angle between two l.s. planes)
are estimated using the full covariance matrix.  The cell esds are taken
into account individually in the estimation of esds in distances, angles
and torsion angles; correlations between esds in cell parameters are only
used when they are defined by crystal symmetry.  An approximate (isotropic)
treatment of cell esds is used for estimating esds involving l.s. planes.
;

loop_
_geom_bond_atom_site_label_1
_geom_bond_atom_site_label_2
_geom_bond_distance
_geom_bond_site_symmetry_2
_geom_bond_publ_flag
Zn1 O7 1.971(3) . ?
Zn1 O4 2.020(3) 2 ?
Zn1 O1 2.030(3) . ?
Zn1 O3 2.056(3) 4_655 ?
Zn1 O2 2.073(3) 3_655 ?
Zn1 Zn1 2.9450(8) 3_655 ?
C1 C6 1.384(5) . ?
C1 C2 1.394(5) . ?
C1 C7 1.506(5) . ?
C2 C3 1.379(5) . ?
C3 C4 1.376(5) . ?
C4 C5 1.393(5) . ?
C4 C8 1.500(5) . ?
C5 C6 1.376(6) . ?
C7 O2 1.245(5) . ?
C7 O1 1.252(5) . ?
O2 Zn1 2.073(3) 3_655 ?
C8 O4 1.241(5) . ?
C8 O3 1.270(5) . ?
O3 Zn1 2.056(3) 4_556 ?
O4 Zn1 2.020(3) 2_545 ?
O10 C10 1.228(6) . ?
C10 N11 1.311(6) . ?
N11 C13 1.452(6) . ?
N11 C12 1.460(7) . ?

loop_
_geom_angle_atom_site_label_1
_geom_angle_atom_site_label_2
_geom_angle_atom_site_label_3
_geom_angle
_geom_angle_site_symmetry_1
_geom_angle_site_symmetry_3
_geom_angle_publ_flag
O7 Zn1 O4 102.08(12) . 2 ?
O7 Zn1 O1 103.39(13) . . ?
O4 Zn1 O1 91.86(15) 2 . ?
O7 Zn1 O3 97.96(12) . 4_655 ?
O4 Zn1 O3 159.42(12) 2 4_655 ?
O1 Zn1 O3 87.99(14) . 4_655 ?
O7 Zn1 O2 97.20(12) . 3_655 ?
O4 Zn1 O2 88.29(14) 2 3_655 ?
O1 Zn1 O2 158.89(12) . 3_655 ?
O3 Zn1 O2 84.58(14) 4_655 3_655 ?
O7 Zn1 Zn1 169.61(10) . 3_655 ?
O4 Zn1 Zn1 80.66(9) 2 3_655 ?
O1 Zn1 Zn1 86.44(9) . 3_655 ?
O3 Zn1 Zn1 78.79(8) 4_655 3_655 ?
O2 Zn1 Zn1 72.75(9) 3_655 3_655 ?
C6 C1 C2 118.9(4) . . ?
C6 C1 C7 121.5(4) . . ?
C2 C1 C7 119.5(3) . . ?
C3 C2 C1 119.7(4) . . ?
C4 C3 C2 121.4(4) . . ?
C3 C4 C5 118.7(4) . . ?
C3 C4 C8 120.2(4) . . ?
C5 C4 C8 121.0(4) . . ?
C6 C5 C4 120.2(4) . . ?
C5 C6 C1 120.9(4) . . ?
O2 C7 O1 124.4(4) . . ?
O2 C7 C1 117.8(4) . . ?
O1 C7 C1 117.8(4) . . ?
C7 O1 Zn1 119.9(3) . . ?
C7 O2 Zn1 135.9(3) . 3_655 ?
O4 C8 O3 124.1(4) . . ?
O4 C8 C4 118.4(4) . . ?
O3 C8 C4 117.6(4) . . ?
C8 O3 Zn1 128.2(3) . 4_556 ?
C8 O4 Zn1 128.1(3) . 2_545 ?
O10 C10 N11 125.3(5) . . ?
C10 N11 C13 120.7(5) . . ?
C10 N11 C12 121.7(5) . . ?
C13 N11 C12 117.6(4) . . ?

loop_
_geom_torsion_atom_site_label_1
_geom_torsion_atom_site_label_2
_geom_torsion_atom_site_label_3
_geom_torsion_atom_site_label_4
_geom_torsion
_geom_torsion_site_symmetry_1
_geom_torsion_site_symmetry_2
_geom_torsion_site_symmetry_3
_geom_torsion_site_symmetry_4
_geom_torsion_publ_flag
C6 C1 C2 C3 -0.2(6) . . . . ?
C7 C1 C2 C3 178.4(4) . . . . ?
C1 C2 C3 C4 -1.5(6) . . . . ?
C2 C3 C4 C5 2.1(6) . . . . ?
C2 C3 C4 C8 -175.6(4) . . . . ?
C3 C4 C5 C6 -0.9(6) . . . . ?
C8 C4 C5 C6 176.8(4) . . . . ?
C4 C5 C6 C1 -0.8(7) . . . . ?
C2 C1 C6 C5 1.4(6) . . . . ?
C7 C1 C6 C5 -177.2(4) . . . . ?
C6 C1 C7 O2 172.7(4) . . . . ?
C2 C1 C7 O2 -5.8(6) . . . . ?
C6 C1 C7 O1 -7.4(6) . . . . ?
C2 C1 C7 O1 174.1(4) . . . . ?
O2 C7 O1 Zn1 -3.0(6) . . . . ?
C1 C7 O1 Zn1 177.1(3) . . . . ?
O7 Zn1 O1 C7 -178.4(3) . . . . ?
O4 Zn1 O1 C7 78.7(3) 2 . . . ?
O3 Zn1 O1 C7 -80.7(3) 4_655 . . . ?
O2 Zn1 O1 C7 -11.4(6) 3_655 . . . ?
Zn1 Zn1 O1 C7 -1.8(3) 3_655 . . . ?
O1 C7 O2 Zn1 10.1(7) . . . 3_655 ?
C1 C7 O2 Zn1 -170.0(3) . . . 3_655 ?
C3 C4 C8 O4 3.7(6) . . . . ?
C5 C4 C8 O4 -173.9(4) . . . . ?
C3 C4 C8 O3 -176.0(4) . . . . ?
C5 C4 C8 O3 6.3(6) . . . . ?
O4 C8 O3 Zn1 3.5(6) . . . 4_556 ?
C4 C8 O3 Zn1 -176.7(3) . . . 4_556 ?
O3 C8 O4 Zn1 -5.4(7) . . . 2_545 ?
C4 C8 O4 Zn1 174.8(3) . . . 2_545 ?
O10 C10 N11 C13 0.5(8) . . . . ?
O10 C10 N11 C12 -179.0(5) . . . . ?

_diffrn_measured_fraction_theta_max 0.975
_diffrn_reflns_theta_full        23.25
_diffrn_measured_fraction_theta_full 0.975
_refine_diff_density_max         0.385
_refine_diff_density_min         -0.300
_refine_diff_density_rms         0.072

