####################################################################### 
# 
# This file contains crystal structure data downloaded from the 
# Cambridge Structural Database (CSD) hosted by the Cambridge 
# Crystallographic Data Centre (CCDC).
# 
# Full information about CCDC data access policies and citation 
# guidelines are available at http://www.ccdc.cam.ac.uk/access/V1 
# 
# Audit and citation data items may have been added by the CCDC. 
# Please retain this information to preserve the provenance of 
# this file and to allow appropriate attribution of the data. 
# 
#######################################################################

data_1solvents
_audit_block_doi                 10.5517/ccxl1wd
_database_code_depnum_ccdc_archive 'CCDC 851504'
loop_
_citation_id
_citation_doi
_citation_year
1 10.1021/ic300487a 2012
_audit_update_record             
;
2011-10-30 deposited with the CCDC.	2024-07-10 downloaded from the CCDC.
;
#TrackingRef 'crystaldata.cif'


_audit_creation_method           SHELXL-97
_chemical_name_systematic        
;
?
;
_chemical_name_common            ?
_chemical_melting_point          ?
_chemical_formula_moiety         ?
_chemical_formula_sum            'C60 H140 Co12 O67 S18'
_chemical_formula_weight         3217.96

loop_
_atom_type_symbol
_atom_type_description
_atom_type_scat_dispersion_real
_atom_type_scat_dispersion_imag
_atom_type_scat_source
C C 0.0033 0.0016 'International Tables Vol C Tables 4.2.6.8 and 6.1.1.4'
H H 0.0000 0.0000 'International Tables Vol C Tables 4.2.6.8 and 6.1.1.4'
O O 0.0106 0.0060 'International Tables Vol C Tables 4.2.6.8 and 6.1.1.4'
S S 0.1246 0.1234 'International Tables Vol C Tables 4.2.6.8 and 6.1.1.4'
Co Co 0.3494 0.9721 'International Tables Vol C Tables 4.2.6.8 and 6.1.1.4'

_symmetry_cell_setting           ?
_symmetry_space_group_name_H-M   ?

loop_
_symmetry_equiv_pos_as_xyz
'x, y, z'
'-y, x-y, z'
'-x+y, -x, z'
'x+2/3, y+1/3, z+1/3'
'-y+2/3, x-y+1/3, z+1/3'
'-x+y+2/3, -x+1/3, z+1/3'
'x+1/3, y+2/3, z+2/3'
'-y+1/3, x-y+2/3, z+2/3'
'-x+y+1/3, -x+2/3, z+2/3'
'-x, -y, -z'
'y, -x+y, -z'
'x-y, x, -z'
'-x+2/3, -y+1/3, -z+1/3'
'y+2/3, -x+y+1/3, -z+1/3'
'x-y+2/3, x+1/3, -z+1/3'
'-x+1/3, -y+2/3, -z+2/3'
'y+1/3, -x+y+2/3, -z+2/3'
'x-y+1/3, x+2/3, -z+2/3'

_cell_length_a                   27.402(4)
_cell_length_b                   27.402(4)
_cell_length_c                   28.865(6)
_cell_angle_alpha                90.00
_cell_angle_beta                 90.00
_cell_angle_gamma                120.00
_cell_volume                     18770(5)
_cell_formula_units_Z            6
_cell_measurement_temperature    173(2)
_cell_measurement_reflns_used    ?
_cell_measurement_theta_min      ?
_cell_measurement_theta_max      ?

_exptl_crystal_description       ?
_exptl_crystal_colour            ?
_exptl_crystal_size_max          ?
_exptl_crystal_size_mid          ?
_exptl_crystal_size_min          ?
_exptl_crystal_density_meas      ?
_exptl_crystal_density_diffrn    1.708
_exptl_crystal_density_method    'not measured'
_exptl_crystal_F_000             9888
_exptl_absorpt_coefficient_mu    1.939
_exptl_absorpt_correction_type   ?
_exptl_absorpt_correction_T_min  ?
_exptl_absorpt_correction_T_max  ?
_exptl_absorpt_process_details   ?

_exptl_special_details           
;
?
;

_diffrn_ambient_temperature      173(2)
_diffrn_radiation_wavelength     0.71073
_diffrn_radiation_type           MoK\a
_diffrn_radiation_source         'fine-focus sealed tube'
_diffrn_radiation_monochromator  graphite
_diffrn_measurement_device_type  ?
_diffrn_measurement_method       ?
_diffrn_detector_area_resol_mean ?
_diffrn_standards_number         ?
_diffrn_standards_interval_count ?
_diffrn_standards_interval_time  ?
_diffrn_standards_decay_%        ?
_diffrn_reflns_number            60232
_diffrn_reflns_av_R_equivalents  0.1826
_diffrn_reflns_av_sigmaI/netI    0.1190
_diffrn_reflns_limit_h_min       -35
_diffrn_reflns_limit_h_max       35
_diffrn_reflns_limit_k_min       -35
_diffrn_reflns_limit_k_max       32
_diffrn_reflns_limit_l_min       -37
_diffrn_reflns_limit_l_max       37
_diffrn_reflns_theta_min         3.17
_diffrn_reflns_theta_max         27.48
_reflns_number_total             9545
_reflns_number_gt                5531
_reflns_threshold_expression     >2sigma(I)

_computing_data_collection       ?
_computing_cell_refinement       ?
_computing_data_reduction        ?
_computing_structure_solution    'SHELXS-97 (Sheldrick, 1990)'
_computing_structure_refinement  'SHELXL-97 (Sheldrick, 1997)'
_computing_molecular_graphics    ?
_computing_publication_material  ?

_refine_special_details          
;
Refinement of F^2^ against ALL reflections. The weighted R-factor wR and
goodness of fit S are based on F^2^, conventional R-factors R are based
on F, with F set to zero for negative F^2^. The threshold expression of
F^2^ > 2sigma(F^2^) is used only for calculating R-factors(gt) etc. and is
not relevant to the choice of reflections for refinement. R-factors based
on F^2^ are statistically about twice as large as those based on F, and R-
factors based on ALL data will be even larger.
;

_refine_ls_structure_factor_coef Fsqd
_refine_ls_matrix_type           full
_refine_ls_weighting_scheme      calc
_refine_ls_weighting_details     
'calc w=1/[\s^2^(Fo^2^)+(0.1074P)^2^+367.3218P] where P=(Fo^2^+2Fc^2^)/3'
_atom_sites_solution_primary     direct
_atom_sites_solution_secondary   difmap
_atom_sites_solution_hydrogens   geom
_refine_ls_hydrogen_treatment    mixed
_refine_ls_extinction_method     none
_refine_ls_extinction_coef       ?
_refine_ls_number_reflns         9545
_refine_ls_number_parameters     481
_refine_ls_number_restraints     2
_refine_ls_R_factor_all          0.1791
_refine_ls_R_factor_gt           0.1071
_refine_ls_wR_factor_ref         0.2716
_refine_ls_wR_factor_gt          0.2349
_refine_ls_goodness_of_fit_ref   1.035
_refine_ls_restrained_S_all      1.036
_refine_ls_shift/su_max          0.287
_refine_ls_shift/su_mean         0.016

loop_
_atom_site_label
_atom_site_type_symbol
_atom_site_fract_x
_atom_site_fract_y
_atom_site_fract_z
_atom_site_U_iso_or_equiv
_atom_site_adp_type
_atom_site_occupancy
_atom_site_symmetry_multiplicity
_atom_site_calc_flag
_atom_site_refinement_flags
_atom_site_disorder_assembly
_atom_site_disorder_group
Co1 Co 1.04483(5) 0.28349(5) 1.03696(4) 0.0381(3) Uani 1 1 d . . .
Co2 Co 0.96865(5) 0.24243(5) 0.94745(4) 0.0370(3) Uani 1 1 d . . .
Co3 Co 0.93191(5) 0.15817(5) 1.02980(4) 0.0388(3) Uani 1 1 d . . .
Co4 Co 1.17714(5) 0.35180(5) 1.02917(4) 0.0364(3) Uani 1 1 d . . .
O1 O 1.1510(3) 0.4043(3) 1.0560(2) 0.0426(15) Uani 1 1 d . . .
O2 O 1.0640(3) 0.3457(3) 1.0831(2) 0.0450(16) Uani 1 1 d . . .
O3 O 1.0045(3) 0.3915(3) 1.2342(2) 0.0440(16) Uani 1 1 d . . .
O4 O 1.0505(3) 0.4831(3) 1.2527(3) 0.063(2) Uani 1 1 d . . .
C1 C 1.1112(4) 0.3909(4) 1.0850(3) 0.042(2) Uani 1 1 d . . .
C2 C 1.0442(4) 0.4413(4) 1.2300(3) 0.044(2) Uani 1 1 d . . .
C3 C 1.1208(4) 0.4295(4) 1.1250(3) 0.044(2) Uani 1 1 d . . .
C4 C 1.1742(4) 0.4784(5) 1.1298(4) 0.055(3) Uani 1 1 d . . .
H4A H 1.2032 0.4869 1.1078 0.066 Uiso 1 1 calc R . .
C5 C 1.1833(4) 0.5136(5) 1.1669(4) 0.063(3) Uani 1 1 d . . .
H5A H 1.2188 0.5469 1.1703 0.075 Uiso 1 1 calc R . .
C6 C 1.1417(5) 0.5013(5) 1.1991(4) 0.058(3) Uani 1 1 d . . .
H6A H 1.1489 0.5262 1.2244 0.070 Uiso 1 1 calc R . .
C7 C 1.0894(4) 0.4528(4) 1.1949(3) 0.039(2) Uani 1 1 d . . .
C8 C 1.0797(4) 0.4170(4) 1.1577(3) 0.037(2) Uani 1 1 d . . .
H8A H 1.0443 0.3835 1.1548 0.045 Uiso 1 1 calc R . .
S1 S 1.11110(10) 0.22182(10) 1.07215(8) 0.0387(5) Uani 1 1 d . . .
O5 O 1.1119(3) 0.2772(3) 1.0679(2) 0.0408(15) Uani 1 1 d . . .
O6 O 1.1666(3) 0.2341(3) 1.0901(2) 0.0446(16) Uani 1 1 d . . .
O7 O 1.0666(3) 0.1854(3) 1.1043(2) 0.0456(16) Uani 1 1 d . . .
O8 O 1.1002(3) 0.1950(3) 1.0257(2) 0.0430(16) Uani 1 1 d . . .
S2 S 1.10383(10) 0.30196(10) 0.93383(8) 0.0374(5) Uani 1 1 d . . .
O9 O 1.1077(2) 0.3226(3) 0.9831(2) 0.0384(14) Uani 1 1 d . . .
O10 O 1.1086(3) 0.2507(3) 0.9347(2) 0.0501(17) Uani 1 1 d . . .
O11 O 1.0485(3) 0.2874(3) 0.9154(2) 0.0389(15) Uani 1 1 d . . .
O12 O 1.1481(3) 0.3461(3) 0.9065(2) 0.0561(19) Uani 1 1 d . . .
O13 O 1.0046(2) 0.2149(2) 0.9971(2) 0.0362(14) Uani 1 1 d . . .
H13 H 1.0247 0.2017 0.9865 0.043 Uiso 1 1 d R . .
O14 O 0.9034(2) 0.2058(2) 0.9965(2) 0.0374(14) Uani 1 1 d . . .
H14 H 0.9090 0.2321 1.0152 0.045 Uiso 1 1 d R . .
S3 S 1.22514(19) 0.45896(18) 0.96596(15) 0.0942(12) Uani 1 1 d . . .
O15 O 1.2348(3) 0.4147(3) 0.9839(3) 0.062(2) Uani 1 1 d . . .
C9 C 1.2719(10) 0.4851(8) 0.9165(7) 0.155(9) Uani 1 1 d . . .
H9A H 1.2576 0.4567 0.8919 0.233 Uiso 1 1 calc R . .
H9B H 1.3096 0.4931 0.9257 0.233 Uiso 1 1 calc R . .
H9C H 1.2739 0.5197 0.9051 0.233 Uiso 1 1 calc R . .
C10 C 1.2634(10) 0.5197(7) 1.0003(7) 0.146(9) Uani 1 1 d . . .
H10A H 1.2448 0.5140 1.0305 0.219 Uiso 1 1 calc R . .
H10B H 1.2648 0.5521 0.9847 0.219 Uiso 1 1 calc R . .
H10C H 1.3018 0.5266 1.0049 0.219 Uiso 1 1 calc R . .
S4 S 0.97476(14) 0.24168(14) 1.13232(10) 0.0638(8) Uani 1 1 d . . .
O16 O 0.9758(3) 0.2288(3) 1.0801(2) 0.0495(17) Uani 1 1 d . . .
C11 C 0.9227(5) 0.2613(5) 1.1362(4) 0.065(3) Uani 1 1 d . . .
H11A H 0.9365 0.2981 1.1214 0.097 Uiso 1 1 calc R . .
H11B H 0.9144 0.2637 1.1689 0.097 Uiso 1 1 calc R . .
H11C H 0.8884 0.2331 1.1205 0.097 Uiso 1 1 calc R . .
C12 C 0.9398(6) 0.1759(6) 1.1594(5) 0.082(4) Uani 1 1 d . . .
H12A H 0.9644 0.1594 1.1600 0.123 Uiso 1 1 calc R . .
H12B H 0.9053 0.1509 1.1422 0.123 Uiso 1 1 calc R . .
H12C H 0.9300 0.1804 1.1912 0.123 Uiso 1 1 calc R . .
S5 S 1.01488(13) 0.37580(12) 0.99760(11) 0.0615(8) Uani 1 1 d . . .
O17 O 0.9963(3) 0.3128(3) 0.9987(2) 0.0464(16) Uani 1 1 d . . .
C13 C 0.9533(6) 0.3786(6) 0.9857(5) 0.077(4) Uani 1 1 d . . .
H13A H 0.9285 0.3656 1.0129 0.116 Uiso 1 1 calc R . .
H13B H 0.9337 0.3543 0.9592 0.116 Uiso 1 1 calc R . .
H13C H 0.9634 0.4175 0.9785 0.116 Uiso 1 1 calc R . .
C14 C 1.0522(6) 0.4020(5) 0.9433(5) 0.083(4) Uani 1 1 d . . .
H14A H 1.0881 0.4023 0.9447 0.125 Uiso 1 1 calc R . .
H14B H 1.0594 0.4403 0.9379 0.125 Uiso 1 1 calc R . .
H14C H 1.0292 0.3775 0.9179 0.125 Uiso 1 1 calc R . .
O18 O 1.1420(9) 0.3221(10) 1.1810(6) 0.219(9) Uani 1 1 d . . .
S6A S 1.1352(8) 0.2690(10) 1.2162(7) 0.088(6) Uani 0.20 1 d P . .
S6B S 1.1841(2) 0.3210(3) 1.22486(17) 0.0923(15) Uani 0.80 1 d P . .
C15 C 1.1922(9) 0.2648(10) 1.2038(6) 0.134(8) Uani 1 1 d . . .
C16 C 1.1502(5) 0.3007(5) 1.2689(3) 0.055(3) Uani 1 1 d . . .
O19 O 0.9650(3) 0.1155(3) 1.0627(2) 0.0509(18) Uani 1 1 d D . .
H19 H 0.9880 0.1345 1.0841 0.061 Uiso 1 1 d R . .
C17 C 0.9303(15) 0.0625(14) 1.0801(17) 0.63(7) Uani 1 1 d D . .
H17A H 0.9550 0.0456 1.0802 0.755 Uiso 1 1 calc R . .
H17B H 0.9035 0.0435 1.0544 0.755 Uiso 1 1 calc R . .
C18 C 0.8928(19) 0.0357(10) 1.1242(10) 0.40(4) Uani 1 1 d D . .
H18A H 0.8777 -0.0052 1.1240 0.597 Uiso 1 1 calc R . .
H18B H 0.8616 0.0435 1.1240 0.597 Uiso 1 1 calc R . .
H18C H 0.9156 0.0520 1.1521 0.597 Uiso 1 1 calc R . .
O20 O 1.0911(16) 0.178(2) 1.3880(15) 0.47(3) Uani 1 1 d . . .
C19 C 1.0793(11) 0.2123(13) 1.3603(10) 0.183(12) Uani 1 1 d . . .
H19A H 1.1013 0.2525 1.3693 0.220 Uiso 1 1 calc R . .
H19B H 1.0386 0.1999 1.3598 0.220 Uiso 1 1 calc R . .
C20 C 1.1003(8) 0.1999(8) 1.3125(7) 0.125(7) Uani 1 1 d . . .
H20A H 1.0949 0.2210 1.2876 0.188 Uiso 1 1 calc R . .
H20B H 1.0785 0.1595 1.3057 0.188 Uiso 1 1 calc R . .
H20C H 1.1403 0.2116 1.3149 0.188 Uiso 1 1 calc R . .
O1W O 1.3333 0.6667 0.9570(12) 0.207(13) Uani 1 3 d S . .
O2W O 1.3958(17) 0.7821(15) 0.8433(13) 0.42(2) Uani 1 1 d . . .
O3W O 1.0344(11) 0.1089(11) 1.2576(10) 0.299(13) Uani 1 1 d . . .

loop_
_atom_site_aniso_label
_atom_site_aniso_U_11
_atom_site_aniso_U_22
_atom_site_aniso_U_33
_atom_site_aniso_U_23
_atom_site_aniso_U_13
_atom_site_aniso_U_12
Co1 0.0380(7) 0.0405(7) 0.0346(7) -0.0024(5) -0.0012(5) 0.0187(6)
Co2 0.0359(7) 0.0390(7) 0.0340(7) 0.0027(5) -0.0009(5) 0.0171(6)
Co3 0.0381(7) 0.0417(7) 0.0340(7) 0.0045(5) 0.0007(5) 0.0180(6)
Co4 0.0372(7) 0.0407(7) 0.0336(7) -0.0039(5) -0.0027(5) 0.0213(6)
O1 0.050(4) 0.046(4) 0.036(4) -0.003(3) 0.004(3) 0.027(3)
O2 0.052(4) 0.050(4) 0.037(4) -0.012(3) -0.006(3) 0.029(4)
O3 0.040(4) 0.041(4) 0.044(4) 0.001(3) 0.007(3) 0.015(3)
O4 0.074(5) 0.050(4) 0.064(5) -0.005(4) 0.028(4) 0.030(4)
C1 0.045(6) 0.039(6) 0.045(6) -0.007(4) -0.012(5) 0.024(5)
C2 0.058(6) 0.049(6) 0.032(5) 0.002(4) -0.004(4) 0.032(5)
C3 0.049(6) 0.040(5) 0.048(6) 0.000(4) 0.004(5) 0.028(5)
C4 0.043(6) 0.061(7) 0.051(7) -0.006(5) 0.006(5) 0.018(5)
C5 0.037(6) 0.059(7) 0.069(8) -0.019(6) 0.006(5) 0.007(5)
C6 0.065(7) 0.056(7) 0.052(7) -0.015(5) 0.008(6) 0.030(6)
C7 0.040(5) 0.038(5) 0.037(5) 0.001(4) 0.012(4) 0.018(4)
C8 0.037(5) 0.041(5) 0.036(5) -0.006(4) 0.001(4) 0.022(4)
S1 0.0385(13) 0.0448(14) 0.0343(12) 0.0028(10) 0.0001(10) 0.0219(11)
O5 0.048(4) 0.045(4) 0.035(4) 0.000(3) -0.001(3) 0.027(3)
O6 0.052(4) 0.050(4) 0.037(4) 0.006(3) 0.003(3) 0.030(3)
O7 0.046(4) 0.051(4) 0.037(4) 0.007(3) 0.002(3) 0.022(3)
O8 0.042(4) 0.049(4) 0.039(4) -0.003(3) -0.004(3) 0.024(3)
S2 0.0377(13) 0.0425(13) 0.0310(12) 0.0012(10) -0.0003(9) 0.0193(11)
O9 0.033(3) 0.042(4) 0.038(4) 0.002(3) 0.000(3) 0.018(3)
O10 0.057(4) 0.064(5) 0.042(4) -0.014(3) -0.014(3) 0.040(4)
O11 0.037(3) 0.049(4) 0.032(3) 0.002(3) 0.002(3) 0.022(3)
O12 0.052(4) 0.062(5) 0.040(4) 0.002(3) 0.001(3) 0.018(4)
O13 0.036(3) 0.035(3) 0.035(3) -0.002(3) 0.002(3) 0.016(3)
O14 0.037(3) 0.038(3) 0.038(3) -0.006(3) -0.008(3) 0.019(3)
S3 0.099(3) 0.090(3) 0.092(3) 0.015(2) 0.009(2) 0.046(2)
O15 0.071(5) 0.041(4) 0.075(5) 0.017(4) 0.024(4) 0.029(4)
C9 0.22(2) 0.105(14) 0.120(16) 0.059(12) 0.072(16) 0.062(15)
C10 0.20(2) 0.077(12) 0.109(15) -0.012(10) 0.027(14) 0.028(13)
S4 0.075(2) 0.075(2) 0.0361(15) -0.0021(14) 0.0019(13) 0.0335(17)
O16 0.050(4) 0.059(4) 0.035(4) -0.003(3) 0.003(3) 0.023(4)
C11 0.078(8) 0.075(8) 0.048(7) -0.012(6) 0.001(6) 0.043(7)
C12 0.093(10) 0.078(9) 0.070(9) -0.015(7) 0.007(8) 0.039(8)
S5 0.069(2) 0.0447(16) 0.074(2) -0.0049(14) -0.0138(16) 0.0306(15)
O17 0.047(4) 0.044(4) 0.048(4) 0.003(3) -0.001(3) 0.022(3)
C13 0.081(9) 0.078(9) 0.091(10) -0.002(7) -0.002(8) 0.053(8)
C14 0.086(10) 0.047(7) 0.116(12) 0.034(7) 0.024(8) 0.033(7)
O18 0.28(2) 0.36(3) 0.124(13) 0.047(15) 0.015(14) 0.24(2)
S6A 0.064(11) 0.115(16) 0.073(12) 0.034(11) 0.005(9) 0.035(11)
S6B 0.079(3) 0.126(4) 0.064(3) 0.005(3) 0.011(2) 0.045(3)
C15 0.165(18) 0.23(2) 0.079(12) -0.001(13) 0.013(11) 0.150(19)
C16 0.070(7) 0.087(8) 0.026(5) 0.017(5) 0.014(5) 0.054(7)
O19 0.054(4) 0.047(4) 0.051(4) 0.009(3) -0.011(3) 0.025(4)
C17 0.57(11) 0.67(13) 0.60(11) 0.23(10) -0.33(9) 0.28(10)
C18 0.69(9) 0.076(15) 0.23(3) 0.031(18) -0.29(5) 0.04(3)
O20 0.36(4) 0.66(7) 0.49(6) 0.37(6) 0.10(4) 0.33(5)
C19 0.14(2) 0.23(3) 0.15(2) 0.07(2) 0.025(18) 0.08(2)
C20 0.112(15) 0.121(15) 0.121(17) 0.004(12) 0.000(12) 0.042(12)
O1W 0.21(2) 0.21(2) 0.21(3) 0.000 0.000 0.104(10)
O2W 0.43(5) 0.36(4) 0.37(4) 0.13(3) -0.10(4) 0.12(4)
O3W 0.24(2) 0.25(3) 0.31(3) 0.04(2) 0.05(2) 0.05(2)

_geom_special_details            
;
All esds (except the esd in the dihedral angle between two l.s. planes)
are estimated using the full covariance matrix. The cell esds are taken
into account individually in the estimation of esds in distances, angles
and torsion angles; correlations between esds in cell parameters are only
used when they are defined by crystal symmetry. An approximate (isotropic)
treatment of cell esds is used for estimating esds involving l.s. planes.
;

loop_
_geom_bond_atom_site_label_1
_geom_bond_atom_site_label_2
_geom_bond_distance
_geom_bond_site_symmetry_2
_geom_bond_publ_flag
Co1 O13 2.001(6) . ?
Co1 O2 2.016(6) . ?
Co1 O5 2.126(6) . ?
Co1 O16 2.132(7) . ?
Co1 O9 2.165(6) . ?
Co1 O17 2.167(7) . ?
Co2 O3 2.034(6) 8_644 ?
Co2 O13 2.083(6) . ?
Co2 O6 2.101(7) 12_547 ?
Co2 O14 2.102(6) . ?
Co2 O11 2.113(6) . ?
Co2 O17 2.240(7) . ?
Co3 O19 2.039(7) . ?
Co3 O13 2.045(6) . ?
Co3 O10 2.061(7) 12_547 ?
Co3 O14 2.064(6) . ?
Co3 O8 2.114(6) 12_547 ?
Co3 O16 2.230(7) . ?
Co4 O4 2.011(7) 15_547 ?
Co4 O14 2.014(6) 11_667 ?
Co4 O1 2.053(6) . ?
Co4 O15 2.110(7) . ?
Co4 O9 2.122(6) . ?
Co4 O5 2.229(6) . ?
O1 C1 1.273(11) . ?
O2 C1 1.268(11) . ?
O3 C2 1.256(11) . ?
O3 Co2 2.034(6) 6_665 ?
O4 C2 1.254(11) . ?
O4 Co4 2.011(7) 14_567 ?
C1 C3 1.499(13) . ?
C2 C7 1.505(13) . ?
C3 C8 1.374(13) . ?
C3 C4 1.413(14) . ?
C4 C5 1.379(15) . ?
C5 C6 1.374(15) . ?
C6 C7 1.391(14) . ?
C7 C8 1.388(12) . ?
S1 O7 1.459(7) . ?
S1 O6 1.478(7) . ?
S1 O8 1.484(7) . ?
S1 O5 1.513(6) . ?
O6 Co2 2.101(7) 11_667 ?
O8 Co3 2.114(6) 11_667 ?
S2 O12 1.446(7) . ?
S2 O11 1.461(6) . ?
S2 O10 1.474(7) . ?
S2 O9 1.516(6) . ?
O10 Co3 2.061(7) 11_667 ?
O14 Co4 2.014(6) 12_547 ?
S3 O15 1.459(8) . ?
S3 C10 1.762(17) . ?
S3 C9 1.810(18) . ?
S4 O16 1.551(7) . ?
S4 C12 1.748(14) . ?
S4 C11 1.761(12) . ?
S5 O17 1.537(7) . ?
S5 C13 1.761(12) . ?
S5 C14 1.812(14) . ?
O18 S6A 1.71(3) . ?
O18 S6B 1.723(17) . ?
S6A S6B 1.41(2) . ?
S6A C15 1.66(3) . ?
S6A C16 1.70(2) . ?
S6B C16 1.507(10) . ?
S6B C15 1.77(2) . ?
O19 C17 1.37(2) . ?
C17 C18 1.57(2) . ?
O20 C19 1.39(3) . ?
C19 C20 1.59(3) . ?

loop_
_geom_angle_atom_site_label_1
_geom_angle_atom_site_label_2
_geom_angle_atom_site_label_3
_geom_angle
_geom_angle_site_symmetry_1
_geom_angle_site_symmetry_3
_geom_angle_publ_flag
O13 Co1 O2 