
#######################################################################
#
#                 Cambridge Crystallographic Data Centre
#                                CCDC
#
#######################################################################
#
# If this CIF has been generated from an entry in the Cambridge
# Structural Database, then it will include bibliographic, chemical,
# crystal, experimental, refinement or atomic coordinate data resulting
# from the CCDC's data processing and validation procedures.
#
#######################################################################

data_CSD_CIF_GEGTOB
_audit_creation_date 1989-03-17
_audit_creation_method CSD-ConQuest-V1
_database_code_CSD GEGTOB
_database_code_depnum_ccdc_archive 'CCDC 1165383'
_chemical_formula_sum 'C12 H30 N8 O6 Sr1'
_chemical_formula_moiety
;
C12 H30 N2 O6 Sr1 2+,2(N3 1-)
;
_journal_coden_Cambridge 643
_journal_volume 177
_journal_year 1986
_journal_page_first 263
_journal_name_full 'Z.Krist.Cryst.Mater. '
loop_
_publ_author_name
"A.Taeb"
"H.Krischner"
"C.Kratky"
_chemical_name_systematic
;
bis(Triethanolamine-O,O',O'',N)-strontium diazide
;
_chemical_name_common
;
Teaching Subset: Fundamental Chemistry
;
_cell_volume   1606.672
_exptl_crystal_colour 'colorless'
_exptl_crystal_density_diffrn 1.457
_exptl_special_details
;
Bond lengths are averaged over all Ca-O and Ca-N bonds

;
_diffrn_ambient_temperature ?
_diffrn_special_details
;
The study was carried out at room temperature,in the range 283-303K

;
#These two values have been output from a single CSD field.
_refine_ls_R_factor_gt 0.0704
_refine_ls_wR_factor_gt 0.0704
_symmetry_cell_setting rhombohedral
_symmetry_space_group_name_H-M 'R 3 2'
_symmetry_Int_Tables_number 155
loop_
_symmetry_equiv_pos_site_id
_symmetry_equiv_pos_as_xyz
1 x,y,z
2 1/3+x,2/3+y,2/3+z
3 2/3+x,1/3+y,1/3+z
4 -y,x-y,z
5 -x+y,-x,z
6 1/3-y,2/3+x-y,2/3+z
7 1/3-x+y,2/3-x,2/3+z
8 2/3-y,1/3+x-y,1/3+z
9 2/3-x+y,1/3-x,1/3+z
10 y,x,-z
11 2/3+y,1/3+x,1/3-z
12 1/3+y,2/3+x,2/3-z
13 x-y,-y,-z
14 -x,-x+y,-z
15 2/3+x-y,1/3-y,1/3-z
16 2/3-x,1/3-x+y,1/3-z
17 1/3+x-y,2/3-y,2/3-z
18 1/3-x,2/3-x+y,2/3-z
_cell_length_a 8.232(1)
_cell_length_b 8.232(1)
_cell_length_c 27.377(12)
_cell_angle_alpha 90
_cell_angle_beta 90
_cell_angle_gamma 120
_cell_formula_units_Z 3
loop_
_atom_type_symbol
_atom_type_radius_bond
C 0.68
H 0.23
N 0.68
O 0.68
Sr 1.72
loop_
_atom_site_label
_atom_site_type_symbol
_atom_site_fract_x
_atom_site_fract_y
_atom_site_fract_z
Sr1 Sr 0.00000 0.00000 0.00000
N1 N 0.00000 0.00000 0.1022(7)
C1 C 0.0418(27) -0.1447(28) 0.1205(5)
H1 H -0.0872(27) -0.2781(28) 0.1206(5)
H2 H 0.0946(27) -0.1087(28) 0.1574(5)
C2 C 0.1759(53) -0.1670(56) 0.0910(6)
H3 H 0.1693(53) -0.2973(56) 0.1008(6)
H4 H 0.3134(53) -0.0511(56) 0.0996(6)
O1 O 0.1524(58) -0.1647(53) 0.0426(3)
H5 H 0.2656(93) -0.0153(15) 0.0261(39)
N2 N 0.66670 0.33330 0.0023(7)
N3 N 0.66670 0.33330 0.0457(7)
N4 N 0.66670 0.33330 0.0875(10)
N1I N 0.00000 0.00000 -0.1022(7)
O1C O 0.1647(58) 0.3171(53) 0.0426(3)
O1D O -0.3171(58) -0.1524(53) 0.0426(3)
O1I O -0.1647(58) 0.1524(53) -0.0426(3)
O1L O 0.3171(58) 0.1647(53) -0.0426(3)
O1M O -0.1524(58) -0.3171(53) -0.0426(3)
C1C C 0.1447(27) 0.1865(28) 0.1205(5)
C1D C -0.1865(27) -0.0418(28) 0.1205(5)
C1I C -0.1447(27) 0.0418(28) -0.1205(5)
C1L C 0.1865(27) 0.1447(28) -0.1205(5)
C1M C -0.0418(27) -0.1865(28) -0.1205(5)
C2C C 0.1670(53) 0.3429(56) 0.0910(6)
H5C H 0.0153(93) 0.2809(15) 0.0261(39)
C2D C -0.3429(53) -0.1759(56) 0.0910(6)
H5D H -0.2809(93) -0.2656(15) 0.0261(39)
C2I C -0.1670(53) 0.1759(56) -0.0910(6)
H5I H -0.0153(93) 0.2656(15) -0.0261(39)
C2L C 0.3429(53) 0.1670(56) -0.0910(6)
H5L H 0.2809(93) 0.0153(15) -0.0261(39)
C2M C -0.1759(53) -0.3429(56) -0.0910(6)
H5M H -0.2656(93) -0.2809(15) -0.0261(39)
H1C H 0.2781(27) 0.1909(28) 0.1206(5)
H2C H 0.1087(27) 0.2033(28) 0.1574(5)
H1D H -0.1909(27) 0.0872(28) 0.1206(5)
H2D H -0.2033(27) -0.0946(28) 0.1574(5)
H1I H -0.2781(27) -0.0872(28) -0.1206(5)
H2I H -0.1087(27) 0.0946(28) -0.1574(5)
H1L H 0.1909(27) 0.2781(28) -0.1206(5)
H2L H 0.2033(27) 0.1087(28) -0.1574(5)
H1M H 0.0872(27) -0.1909(28) -0.1206(5)
H2M H -0.0946(27) -0.2033(28) -0.1574(5)
H3C H 0.2973(53) 0.4666(56) 0.1008(6)
H4C H 0.0511(53) 0.3645(56) 0.0996(6)
H3D H -0.4666(53) -0.1693(56) 0.1008(6)
H4D H -0.3645(53) -0.3134(56) 0.0996(6)
H3I H -0.2973(53) 0.1693(56) -0.1008(6)
H4I H -0.0511(53) 0.3134(56) -0.0996(6)
H3L H 0.4666(53) 0.2973(56) -0.1008(6)
H4L H 0.3645(53) 0.0511(56) -0.0996(6)
H3M H -0.1693(53) -0.4666(56) -0.1008(6)
H4M H -0.3134(53) -0.3645(56) -0.0996(6)
#END
