####################################################################### 
# 
# This file contains crystal structure data downloaded from the 
# Cambridge Structural Database (CSD) hosted by the Cambridge 
# Crystallographic Data Centre (CCDC).
# 
# Full information about CCDC data access policies and citation 
# guidelines are available at http://www.ccdc.cam.ac.uk/access/V1 
# 
# Audit and citation data items may have been added by the CCDC. 
# Please retain this information to preserve the provenance of 
# this file and to allow appropriate attribution of the data. 
# 
#######################################################################

data_c12
_audit_block_doi                 10.5517/cc9tdq6
_database_code_depnum_ccdc_archive 'CCDC 292538'
loop_
_citation_id
_citation_doi
_citation_year
1 10.1002/chem.200501542 2006
_audit_update_record             
;
2005-12-09 deposited with the CCDC.	2024-07-10 downloaded from the CCDC.
;

_audit_creation_method           SHELXL-97
_chemical_name_systematic        
;
(1,3-dicyanopropane)[2,7,12-trimethoxy-3,8,13-tris(4-pyridylmethylamino)-
10,15-dihydro-5H-tribenzo[a,d,g]cyclononene]-
tris(acetonitrile)silver(I) hexafluorophosphate
1,3-dicyanopropane clathrate
;
_chemical_name_common            ?
_chemical_melting_point          ?
_chemical_formula_moiety         ?
_chemical_formula_sum            'C52 H54 Ag F6 N10 O3 P'
_chemical_formula_weight         1119.89

loop_
_atom_type_symbol
_atom_type_description
_atom_type_scat_dispersion_real
_atom_type_scat_dispersion_imag
_atom_type_scat_source
C C 0.0033 0.0016 'International Tables Vol C Tables 4.2.6.8 and 6.1.1.4'
H H 0.0000 0.0000 'International Tables Vol C Tables 4.2.6.8 and 6.1.1.4'
N N 0.0061 0.0033 'International Tables Vol C Tables 4.2.6.8 and 6.1.1.4'
O O 0.0106 0.0060 'International Tables Vol C Tables 4.2.6.8 and 6.1.1.4'
F F 0.0171 0.0103 'International Tables Vol C Tables 4.2.6.8 and 6.1.1.4'
P P 0.1023 0.0942 'International Tables Vol C Tables 4.2.6.8 and 6.1.1.4'
Ag Ag -0.8971 1.1015 'International Tables Vol C Tables 4.2.6.8 and 6.1.1.4'

_symmetry_cell_setting           Monoclinic
_symmetry_space_group_name_H-M   C2/c

loop_
_symmetry_equiv_pos_as_xyz
'x, y, z'
'-x, y, -z+1/2'
'x+1/2, y+1/2, z'
'-x+1/2, y+1/2, -z+1/2'
'-x, -y, -z'
'x, -y, z-1/2'
'-x+1/2, -y+1/2, -z'
'x+1/2, -y+1/2, z-1/2'

_cell_length_a                   31.208(5)
_cell_length_b                   21.048(3)
_cell_length_c                   21.988(3)
_cell_angle_alpha                90.00
_cell_angle_beta                 109.780(6)
_cell_angle_gamma                90.00
_cell_volume                     13591(4)
_cell_formula_units_Z            8
_cell_measurement_temperature    273(2)
_cell_measurement_reflns_used    5198
_cell_measurement_theta_min      2.20
_cell_measurement_theta_max      20.08

_exptl_crystal_description       rod
_exptl_crystal_colour            'pale brown'
_exptl_crystal_size_max          0.28
_exptl_crystal_size_mid          0.06
_exptl_crystal_size_min          0.05
_exptl_crystal_density_meas      ?
_exptl_crystal_density_diffrn    1.095
_exptl_crystal_density_method    'not measured'
_exptl_crystal_F_000             4608
_exptl_absorpt_coefficient_mu    0.377
_exptl_absorpt_correction_type   multi-scan
_exptl_absorpt_correction_T_min  0.765011
_exptl_absorpt_correction_T_max  1.000000
_exptl_absorpt_process_details   
;
Using multiple and symmetry-related data measurements via the program SADABS
See R.H. Blessing, Acta Cryst (1995), A51, 33-38
;

_exptl_special_details           
;
?
;

_diffrn_ambient_temperature      150(2)
_diffrn_radiation_wavelength     0.71073
_diffrn_radiation_type           MoK\a
_diffrn_radiation_source         'rotating anode'
_diffrn_radiation_monochromator  graphite
_diffrn_measurement_device_type  
;
Bruker FR591 diffractometer with an ApexII detector
;
_diffrn_measurement_method       'phi and omega scans'
_diffrn_detector_area_resol_mean ?
_diffrn_standards_number         ?
_diffrn_standards_interval_count ?
_diffrn_standards_interval_time  ?
_diffrn_standards_decay_%        ?
_diffrn_reflns_number            59467
_diffrn_reflns_av_R_equivalents  0.0425
_diffrn_reflns_av_sigmaI/netI    0.0854
_diffrn_reflns_limit_h_min       -37
_diffrn_reflns_limit_h_max       39
_diffrn_reflns_limit_k_min       -27
_diffrn_reflns_limit_k_max       21
_diffrn_reflns_limit_l_min       -28
_diffrn_reflns_limit_l_max       21
_diffrn_reflns_theta_min         1.19
_diffrn_reflns_theta_max         27.17
_reflns_number_total             15003
_reflns_number_gt                6442
_reflns_threshold_expression     >2sigma(I)

_computing_data_collection       'APEXII (Bruker, 2004)'
_computing_cell_refinement       'APEXII (Bruker, 2004)'
_computing_data_reduction        'APEXII (Bruker, 2004)'
_computing_structure_solution    'SHELXS-97 (Sheldrick, 1990)'
_computing_structure_refinement  'SHELXL-97 (Sheldrick, 1997)'
_computing_molecular_graphics    'XSeed (Barbour, 2001)'
_computing_publication_material  'local program'

_refine_special_details          
;
Refinement of F^2^ against ALL reflections. The weighted R-factor wR and
goodness of fit S are based on F^2^, conventional R-factors R are based
on F, with F set to zero for negative F^2^. The threshold expression of
F^2^ > 2sigma(F^2^) is used only for calculating R-factors(gt) etc. and is
not relevant to the choice of reflections for refinement. R-factors based
on F^2^ are statistically about twice as large as those based on F, and R-
factors based on ALL data will be even larger.
;

_refine_ls_structure_factor_coef Fsqd
_refine_ls_matrix_type           full
_refine_ls_weighting_scheme      calc
_refine_ls_weighting_details     
'calc w=1/[\s^2^(Fo^2^)+(0.1235P)^2^+0.0000P] where P=(Fo^2^+2Fc^2^)/3'
_atom_sites_solution_primary     direct
_atom_sites_solution_secondary   difmap
_atom_sites_solution_hydrogens   geom
_refine_ls_hydrogen_treatment    mixed
_refine_ls_extinction_method     none
_refine_ls_extinction_coef       ?
_refine_ls_number_reflns         15003
_refine_ls_number_parameters     626
_refine_ls_number_restraints     23
_refine_ls_R_factor_all          0.1427
_refine_ls_R_factor_gt           0.0722
_refine_ls_wR_factor_ref         0.2310
_refine_ls_wR_factor_gt          0.2119
_refine_ls_goodness_of_fit_ref   0.984
_refine_ls_restrained_S_all      0.989
_refine_ls_shift/su_max          0.001
_refine_ls_shift/su_mean         0.000

loop_
_atom_site_label
_atom_site_type_symbol
_atom_site_fract_x
_atom_site_fract_y
_atom_site_fract_z
_atom_site_U_iso_or_equiv
_atom_site_adp_type
_atom_site_occupancy
_atom_site_symmetry_multiplicity
_atom_site_calc_flag
_atom_site_refinement_flags
_atom_site_disorder_assembly
_atom_site_disorder_group
Ag1 Ag 0.223948(16) 0.28901(2) 0.283180(18) 0.0861(2) Uani 1 1 d . . .
C1 C 0.04646(12) 0.05315(17) 0.00523(16) 0.0385(9) Uani 1 1 d . . .
C2 C 0.05215(12) 0.05761(18) 0.07196(17) 0.0419(9) Uani 1 1 d . . .
H2 H 0.0436 0.0950 0.0873 0.050 Uiso 1 1 calc R . .
C3 C 0.07015(12) 0.00782(18) 0.11567(16) 0.0411(9) Uani 1 1 d . . .
C4 C 0.08543(13) -0.04773(17) 0.09104(18) 0.0457(10) Uani 1 1 d . . .
C5 C 0.08026(13) -0.05223(18) 0.02620(18) 0.0464(10) Uani 1 1 d . . .
H5 H 0.0906 -0.0885 0.0114 0.056 Uiso 1 1 calc R . .
C6 C 0.05967(12) -0.00328(17) -0.01830(16) 0.0408(9) Uani 1 1 d . . .
C7 C 0.05101(13) -0.01528(18) -0.09042(16) 0.0452(10) Uani 1 1 d . . .
H7A H 0.0248 0.0096 -0.1153 0.054 Uiso 1 1 calc R . .
H7B H 0.0432 -0.0597 -0.0995 0.054 Uiso 1 1 calc R . .
C8 C 0.09086(13) 0.00055(17) -0.11436(16) 0.0396(9) Uani 1 1 d . . .
C9 C 0.12514(13) -0.04650(18) -0.10456(16) 0.0450(10) Uani 1 1 d . . .
H9 H 0.1230 -0.0835 -0.0827 0.054 Uiso 1 1 calc R . .
C10 C 0.16232(14) -0.03941(18) -0.12661(16) 0.0457(10) Uani 1 1 d . . .
C11 C 0.16461(14) 0.01709(19) -0.16022(17) 0.0473(10) Uani 1 1 d . . .
C12 C 0.13152(13) 0.06411(19) -0.16939(17) 0.0450(10) Uani 1 1 d . . .
H12 H 0.1339 0.1011 -0.1912 0.054 Uiso 1 1 calc R . .
C13 C 0.09412(13) 0.05747(17) -0.14652(15) 0.0408(9) Uani 1 1 d . . .
C14 C 0.06060(13) 0.11315(18) -0.15583(16) 0.0438(9) Uani 1 1 d . . .
H14A H 0.0307 0.0968 -0.1598 0.053 Uiso 1 1 calc R . .
H14B H 0.0581 0.1353 -0.1956 0.053 Uiso 1 1 calc R . .
C15 C 0.07620(13) 0.16012(17) -0.09885(17) 0.0418(9) Uani 1 1 d . . .
C16 C 0.10875(15) 0.20691(18) -0.09926(19) 0.0519(11) Uani 1 1 d . . .
H16 H 0.1181 0.2095 -0.1351 0.062 Uiso 1 1 calc R . .
C17 C 0.12758(15) 0.2498(2) -0.0478(2) 0.0555(11) Uani 1 1 d . . .
C18 C 0.11256(15) 0.24413(19) 0.00623(18) 0.0504(10) Uani 1 1 d . . .
C19 C 0.07998(15) 0.20004(18) 0.00674(18) 0.0494(10) Uani 1 1 d . . .
H19 H 0.0701 0.1986 0.0422 0.059 Uiso 1 1 calc R . .
C20 C 0.06093(12) 0.15649(17) -0.04514(17) 0.0415(9) Uani 1 1 d . . .
C21 C 0.02535(13) 0.10993(17) -0.03797(17) 0.0426(9) Uani 1 1 d . . .
H21A H 0.0071 0.0945 -0.0804 0.051 Uiso 1 1 calc R . .
H21B H 0.0052 0.1322 -0.0199 0.051 Uiso 1 1 calc R . .
C22 C 0.06282(13) 0.06423(19) 0.21161(17) 0.0467(10) Uani 1 1 d . . .
H22A H 0.0599 0.0517 0.2525 0.056 Uiso 1 1 calc R . .
H22B H 0.0337 0.0814 0.1849 0.056 Uiso 1 1 calc R . .
N23 N 0.07185(11) 0.00807(15) 0.18048(13) 0.0477(8) Uani 1 1 d . . .
H23 H 0.0785 -0.0266 0.2023 0.057 Uiso 1 1 calc R . .
O24 O 0.10317(10) -0.09502(12) 0.13689(12) 0.0604(8) Uani 1 1 d . . .
C25 C 0.1243(3) -0.1471(2) 0.1178(2) 0.109(2) Uani 1 1 d . . .
H25A H 0.1024 -0.1688 0.0824 0.164 Uiso 1 1 calc R . .
H25B H 0.1362 -0.1757 0.1535 0.164 Uiso 1 1 calc R . .
H25C H 0.1488 -0.1319 0.1044 0.164 Uiso 1 1 calc R . .
C26 C 0.19205(16) -0.1493(2) -0.0974(2) 0.0633(12) Uani 1 1 d . . .
H26A H 0.2086 -0.1771 -0.1167 0.076 Uiso 1 1 calc R . .
H26B H 0.1601 -0.1609 -0.1150 0.076 Uiso 1 1 calc R . .
N27 N 0.19695(12) -0.08442(17) -0.11653(15) 0.0575(9) Uani 1 1 d . . .
H27 H 0.2220 -0.0734 -0.1219 0.069 Uiso 1 1 calc R . .
O28 O 0.20107(10) 0.02016(14) -0.18265(13) 0.0622(8) Uani 1 1 d . . .
C29 C 0.20387(17) 0.0745(2) -0.2203(2) 0.0734(14) Uani 1 1 d . . .
H29A H 0.1762 0.0784 -0.2565 0.110 Uiso 1 1 calc R . .
H29B H 0.2291 0.0696 -0.2356 0.110 Uiso 1 1 calc R . .
H29C H 0.2082 0.1120 -0.1941 0.110 Uiso 1 1 calc R . .
C30 C 0.1568(2) 0.3266(2) -0.1084(3) 0.0869(16) Uani 1 1 d . . .
H30A H 0.1668 0.3703 -0.0995 0.104 Uiso 1 1 calc R . .
H30B H 0.1250 0.3275 -0.1355 0.104 Uiso 1 1 calc R . .
N31 N 0.16006(14) 0.29627(17) -0.04719(18) 0.0693(11) Uani 1 1 d . . .
H31 H 0.1812 0.3066 -0.0119 0.083 Uiso 1 1 calc R . .
O32 O 0.13238(12) 0.28851(14) 0.05501(15) 0.0741(10) Uani 1 1 d . . .
C33 C 0.1136(2) 0.2919(3) 0.1062(2) 0.097(2) Uani 1 1 d . . .
H33A H 0.0818 0.3022 0.0885 0.145 Uiso 1 1 calc R . .
H33B H 0.1292 0.3242 0.1365 0.145 Uiso 1 1 calc R . .
H33C H 0.1172 0.2517 0.1279 0.145 Uiso 1 1 calc R . .
N41 N 0.16489(13) 0.21493(18) 0.25306(16) 0.0578(10) Uani 1 1 d . . .
C42 C 0.17334(15) 0.1563(2) 0.23459(19) 0.0578(11) Uani 1 1 d . . .
H42 H 0.2019 0.1484 0.2317 0.069 Uiso 1 1 calc R . .
C43 C 0.14185(14) 0.1076(2) 0.21979(18) 0.0493(10) Uani 1 1 d . . .
H43 H 0.1492 0.0683 0.2066 0.059 Uiso 1 1 calc R . .
C44 C 0.09856(13) 0.11759(19) 0.22476(16) 0.0456(10) Uani 1 1 d . . .
C45 C 0.08977(15) 0.1776(2) 0.24328(18) 0.0515(10) Uani 1 1 d . . .
H45 H 0.0615 0.1869 0.2464 0.062 Uiso 1 1 calc R . .
C46 C 0.12297(18) 0.2234(2) 0.2570(2) 0.0612(12) Uani 1 1 d . . .
H46 H 0.1162 0.2631 0.2700 0.073 Uiso 1 1 calc R . .
N51 N 0.24230(15) -0.1891(2) 0.10907(18) 0.0673(10) Uani 1 1 d . . .
C52 C 0.2576(2) -0.1394(3) 0.0834(2) 0.0906(17) Uani 1 1 d . . .
H52 H 0.2802 -0.1137 0.1109 0.109 Uiso 1 1 calc R . .
C53 C 0.24137(19) -0.1247(2) 0.0181(2) 0.0782(15) Uani 1 1 d . . .
H53 H 0.2528 -0.0895 0.0032 0.094 Uiso 1 1 calc R . .
C54 C 0.20862(15) -0.1614(2) -0.02485(19) 0.0554(11) Uani 1 1 d . . .
C55 C 0.19323(17) -0.2134(2) 0.0009(2) 0.0664(13) Uani 1 1 d . . .
H55 H 0.1708 -0.2397 -0.0258 0.080 Uiso 1 1 calc R . .
C56 C 0.21144(19) -0.2260(3) 0.0668(3) 0.0766(15) Uani 1 1 d . . .
H56 H 0.2016 -0.2622 0.0824 0.092 Uiso 1 1 calc R . .
N61 N 0.23383(16) 0.2444(2) -0.22016(18) 0.0695(11) Uani 1 1 d . . .
C62 C 0.24628(18) 0.2356(2) -0.1555(2) 0.0689(13) Uani 1 1 d . . .
H62 H 0.2725 0.2121 -0.1354 0.083 Uiso 1 1 calc R . .
C63 C 0.22283(19) 0.2589(2) -0.1172(2) 0.0684(13) Uani 1 1 d . . .
H63 H 0.2327 0.2503 -0.0731 0.082 Uiso 1 1 calc R . .
C64 C 0.1835(2) 0.2962(2) -0.1462(2) 0.0695(15) Uani 1 1 d . . .
C65 C 0.1699(2) 0.3051(3) -0.2132(3) 0.0821(15) Uani 1 1 d . . .
H65 H 0.1438 0.3284 -0.2346 0.099 Uiso 1 1 calc R . .
C66 C 0.1953(2) 0.2789(3) -0.2470(2) 0.0821(17) Uani 1 1 d . . .
H66 H 0.1855 0.2853 -0.2914 0.098 Uiso 1 1 calc R . .
N71 N 0.18559(19) 0.3872(3) 0.2515(3) 0.1132(17) Uiso 1 1 d D . .
C72 C 0.1714(3) 0.4371(4) 0.2394(4) 0.142(3) Uiso 1 1 d D . .
C73 C 0.1540(6) 0.5096(7) 0.2320(8) 0.303(8) Uiso 1 1 d D . .
H73A H 0.1346 0.5176 0.2574 0.363 Uiso 1 1 calc R . .
H73B H 0.1795 0.5389 0.2453 0.363 Uiso 1 1 calc R . .
C74 C 0.1301(8) 0.5153(11) 0.1669(10) 0.459(16) Uiso 1 1 d D . .
H74A H 0.1112 0.5531 0.1602 0.551 Uiso 1 1 calc R . .
H74B H 0.1100 0.4790 0.1534 0.551 Uiso 1 1 calc R . .
C75 C 0.1612(8) 0.5200(10) 0.1206(10) 0.402(12) Uiso 1 1 d D . .
H75A H 0.1856 0.4893 0.1370 0.483 Uiso 1 1 calc R . .
H75B H 0.1425 0.5052 0.0782 0.483 Uiso 1 1 calc R . .
C76 C 0.1826(6) 0.5803(8) 0.1108(8) 0.278(7) Uiso 1 1 d D . .
N77 N 0.2101(3) 0.6167(4) 0.1348(4) 0.166(3) Uiso 1 1 d D . .
N81 N 0.2331(3) 0.0332(4) 0.1727(4) 0.185(4) Uani 1 1 d D . .
C82 C 0.2064(3) 0.0474(4) 0.1237(4) 0.129(3) Uani 1 1 d D . .
C83 C 0.1741(3) 0.0717(4) 0.0623(5) 0.143(3) Uani 1 1 d D . .
H83A H 0.1544 0.0371 0.0403 0.172 Uiso 1 1 calc R . .
H83B H 0.1550 0.1036 0.0722 0.172 Uiso 1 1 calc R . .
C84 C 0.1944(3) 0.0993(4) 0.0182(4) 0.137(3) Uani 1 1 d D . .
H84A H 0.2088 0.1392 0.0360 0.164 Uiso 1 1 calc R . .
H84B H 0.1706 0.1085 -0.0225 0.164 Uiso 1 1 calc R . .
C85 C 0.2311(3) 0.0545(4) 0.0051(3) 0.142(3) Uani 1 1 d D . .
H85A H 0.2514 0.0388 0.0462 0.170 Uiso 1 1 calc R . .
H85B H 0.2155 0.0181 -0.0197 0.170 Uiso 1 1 calc R . .
C86 C 0.2571(4) 0.0829(5) -0.0276(3) 0.157(4) Uani 1 1 d D . .
N87 N 0.2781(3) 0.0984(4) -0.0566(4) 0.175(3) Uani 1 1 d D . .
P90 P 0.04326(8) -0.24152(10) -0.09624(12) 0.1221(7) Uani 1 1 d . . .
F91 F 0.0792(3) -0.2759(3) -0.1209(4) 0.233(3) Uani 1 1 d . . .
F92 F 0.0085(3) -0.2027(3) -0.0772(5) 0.256(4) Uani 1 1 d . . .
F93 F 0.0238(4) -0.3076(3) -0.0903(6) 0.311(5) Uani 1 1 d . . .
F94 F 0.0700(5) -0.2582(8) -0.0252(4) 0.396(8) Uani 1 1 d U . .
F95 F 0.0745(3) -0.1882(3) -0.0794(5) 0.277(4) Uani 1 1 d . . .
F96 F 0.0190(3) -0.2328(8) -0.1667(4) 0.438(9) Uani 1 1 d U . .

loop_
_atom_site_aniso_label
_atom_site_aniso_U_11
_atom_site_aniso_U_22
_atom_site_aniso_U_33
_atom_site_aniso_U_23
_atom_site_aniso_U_13
_atom_site_aniso_U_12
Ag1 0.1048(4) 0.0981(4) 0.0657(3) -0.0318(2) 0.0420(2) -0.0512(2)
C1 0.037(2) 0.045(2) 0.032(2) -0.0016(16) 0.0107(16) -0.0066(17)
C2 0.039(2) 0.045(2) 0.040(2) -0.0010(17) 0.0117(18) -0.0065(18)
C3 0.038(2) 0.048(2) 0.034(2) 0.0000(17) 0.0065(17) -0.0083(18)
C4 0.050(2) 0.040(2) 0.041(2) 0.0053(17) 0.0073(18) -0.0028(18)
C5 0.053(3) 0.038(2) 0.046(2) -0.0018(17) 0.0148(19) -0.0061(18)
C6 0.042(2) 0.042(2) 0.037(2) 0.0009(17) 0.0107(17) -0.0068(18)
C7 0.050(2) 0.044(2) 0.038(2) 0.0009(17) 0.0096(18) -0.0016(18)
C8 0.046(2) 0.045(2) 0.0272(18) -0.0071(16) 0.0107(17) -0.0056(19)
C9 0.054(3) 0.045(2) 0.032(2) 0.0007(16) 0.0092(19) -0.003(2)
C10 0.052(3) 0.053(3) 0.030(2) -0.0008(17) 0.0120(19) 0.005(2)
C11 0.045(3) 0.061(3) 0.038(2) -0.0073(19) 0.0156(19) -0.006(2)
C12 0.051(3) 0.049(2) 0.034(2) -0.0009(17) 0.0131(19) -0.011(2)
C13 0.049(2) 0.048(2) 0.0222(18) -0.0070(16) 0.0087(17) -0.0067(19)
C14 0.050(2) 0.051(2) 0.0288(19) 0.0024(16) 0.0115(17) -0.0012(19)
C15 0.050(2) 0.038(2) 0.038(2) -0.0005(16) 0.0167(18) 0.0011(18)
C16 0.063(3) 0.058(3) 0.042(2) -0.0051(19) 0.027(2) -0.009(2)
C17 0.068(3) 0.049(3) 0.054(3) -0.009(2) 0.027(2) -0.007(2)
C18 0.062(3) 0.045(2) 0.043(2) -0.0066(18) 0.017(2) -0.012(2)
C19 0.061(3) 0.055(3) 0.036(2) -0.0013(18) 0.021(2) -0.003(2)
C20 0.043(2) 0.040(2) 0.039(2) 0.0040(16) 0.0102(18) 0.0054(18)
C21 0.044(2) 0.049(2) 0.036(2) 0.0033(17) 0.0143(18) 0.0011(18)
C22 0.047(2) 0.060(3) 0.032(2) 0.0006(18) 0.0133(18) -0.009(2)
N23 0.061(2) 0.0460(19) 0.0324(17) 0.0014(14) 0.0104(15) -0.0067(16)
O24 0.085(2) 0.0420(17) 0.0475(16) 0.0070(13) 0.0132(15) 0.0086(15)
C25 0.189(7) 0.059(3) 0.057(3) 0.014(2) 0.012(4) 0.046(4)
C26 0.063(3) 0.066(3) 0.060(3) -0.010(2) 0.019(2) 0.013(2)
N27 0.054(2) 0.071(3) 0.047(2) 0.0071(17) 0.0161(17) 0.0127(19)
O28 0.0555(19) 0.078(2) 0.0581(18) 0.0000(15) 0.0254(15) -0.0081(15)
C29 0.066(3) 0.086(4) 0.079(3) 0.012(3) 0.038(3) -0.009(3)
C30 0.111(5) 0.063(3) 0.097(4) -0.016(3) 0.050(4) -0.032(3)
N31 0.088(3) 0.067(3) 0.061(2) -0.0171(19) 0.035(2) -0.041(2)
O32 0.094(3) 0.076(2) 0.0571(19) -0.0315(15) 0.0314(18) -0.0314(18)
C33 0.133(5) 0.111(5) 0.053(3) -0.043(3) 0.039(3) -0.050(4)
N41 0.057(3) 0.070(3) 0.044(2) -0.0063(17) 0.0145(18) -0.0188(19)
C42 0.053(3) 0.072(3) 0.053(3) -0.003(2) 0.024(2) -0.006(2)
C43 0.046(3) 0.053(3) 0.048(2) -0.0050(18) 0.015(2) -0.006(2)
C44 0.046(3) 0.055(3) 0.0293(19) 0.0012(17) 0.0044(18) -0.002(2)
C45 0.052(3) 0.057(3) 0.044(2) -0.0025(19) 0.013(2) -0.004(2)
C46 0.076(4) 0.054(3) 0.051(3) -0.008(2) 0.018(2) -0.003(3)
N51 0.074(3) 0.070(3) 0.057(2) 0.014(2) 0.021(2) 0.017(2)
C52 0.118(5) 0.083(4) 0.054(3) 0.0