
#######################################################################
#
#                 Cambridge Crystallographic Data Centre
#                                CCDC
#
#######################################################################
#
# If this CIF has been generated from an entry in the Cambridge
# Structural Database, then it will include bibliographic, chemical,
# crystal, experimental, refinement or atomic coordinate data resulting
# from the CCDC's data processing and validation procedures.
#
#######################################################################

data_CSD_CIF_GEGZOI
_audit_creation_date 2006-07-18
_audit_creation_method CSD-ConQuest-V1
_database_code_CSD GEGZOI
_database_code_depnum_ccdc_archive 'CCDC 264901'
_chemical_formula_sum 'C26 H32 Ba1 N2 O8 S2'
_chemical_formula_moiety
;
C26 H32 Ba1 N2 O8 S2
;
_journal_coden_Cambridge 643
_journal_volume 221
_journal_year 2006
_journal_page_first 231
_journal_name_full 'Z.Krist.Cryst.Mater. '
loop_
_publ_author_name
"U.Schilde"
"C.Erk"
"E.Kleinpeter"
_chemical_name_systematic
;
Di-isothiocyanato-(6,7,9,10,12,13,20,21,23,24,26,27-dodecahydro-dibenzo(b,n)-1
,4,7,10,13,16,19,22-octa-oxacyclotetracosine)-barium
;
_chemical_name_common
;
(Di-isothiocyanato-dibenzo-24-crown-8)-barium; Teaching Subset: Fundamental 
Chemistry, Symmetry
;
_cell_volume   2193.014
_exptl_crystal_colour 'colorless'
_exptl_crystal_density_diffrn 1.595
_exptl_crystal_description 'prism'
_diffrn_ambient_temperature 210
#These two values have been output from a single CSD field.
_refine_ls_R_factor_gt 0.018
_refine_ls_wR_factor_gt 0.018
_symmetry_cell_setting hexagonal
_symmetry_space_group_name_H-M 'P 31 2 1'
_symmetry_Int_Tables_number 152
loop_
_symmetry_equiv_pos_site_id
_symmetry_equiv_pos_as_xyz
1 x,y,z
2 -y,x-y,1/3+z
3 y,x,-z
4 -x+y,-x,2/3+z
5 -x,-x+y,1/3-z
6 x-y,-y,2/3-z
_cell_length_a 10.6549(6)
_cell_length_b 10.6549(6)
_cell_length_c 22.3055(16)
_cell_angle_alpha 90
_cell_angle_beta 90
_cell_angle_gamma 120
_cell_formula_units_Z 3
loop_
_atom_type_symbol
_atom_type_radius_bond
C 0.68
H 0.23
Ba 1.89
N 0.68
O 0.68
S 1.02
loop_
_atom_site_label
_atom_site_type_symbol
_atom_site_fract_x
_atom_site_fract_y
_atom_site_fract_z
C1 C -0.6953(4) -0.7733(4) -0.33313(13)
C2 C -0.6791(4) -0.8448(5) -0.28446(16)
H1 H -0.702(5) -0.949(5) -0.2878(18)
C3 C -0.6198(5) -0.7708(7) -0.23169(17)
H2 H -0.602(5) -0.836(5) -0.1933(19)
C4 C -0.5776(4) -0.6296(7) -0.22800(14)
H3 H -0.540(5) -0.573(5) -0.1969(18)
C5 C -0.5896(4) -0.5526(5) -0.27634(17)
H4 H -0.571(3) -0.457(3) -0.2808(11)
C6 C -0.6487(3) -0.6264(3) -0.32977(10)
C7 C -0.7135(5) -0.4584(4) -0.36907(17)
H5 H -0.800(4) -0.507(4) -0.3426(14)
H6 H -0.635(4) -0.359(4) -0.3488(15)
C8 C -0.7591(5) -0.4252(4) -0.42652(18)
H7 H -0.669(4) -0.365(4) -0.4494(14)
H8 H -0.813(4) -0.369(4) -0.4172(14)
C9 C -0.9803(5) -0.6529(5) -0.4359(2)
H9 H -0.956(4) -0.697(4) -0.4027(15)
H10 H -1.028(4) -0.598(4) -0.4183(15)
C10 C -1.0692(4) -0.7585(5) -0.4821(2)
H11 H -1.157(6) -0.833(5) -0.471(2)
H12 H -1.097(6) -0.729(6) -0.518(2)
C11 C -0.3070(3) -0.5166(3) -0.41856(12)
C12 C -0.9114(4) -1.0500(4) -0.44352(19)
H13 H -0.985(4) -1.022(4) -0.4420(14)
H14 H -0.955(4) -1.167(4) -0.4463(14)
C13 C -0.8202(5) -0.9961(4) -0.38814(18)
H15 H -0.878(6) -1.024(5) -0.3565(19)
H16 H -0.726(6) -1.022(6) -0.390(2)
Ba1 Ba -0.680855(17) -0.680855(17) -0.50000
N1 N -0.4151(3) -0.5823(4) -0.44416(12)
O1 O -0.7586(3) -0.83956(19) -0.38614(8)
O2 O -0.6683(2) -0.5618(2) -0.38040(9)
O3 O -0.8482(3) -0.5519(3) -0.46248(11)
O4 O -0.8270(3) -0.99025(18) -0.49589(9)
S1 S -0.15302(7) -0.42542(9) -0.38337(3)
C1B C -0.7733(4) -0.6953(4) -0.66687(13)
C2B C -0.8448(4) -0.6791(5) -0.71554(16)
H1B H -0.949(5) -0.702(5) -0.7122(18)
C3B C -0.7708(5) -0.6198(7) -0.76831(17)
H2B H -0.836(5) -0.602(5) -0.8067(19)
C4B C -0.6296(4) -0.5776(7) -0.77200(14)
H3B H -0.573(5) -0.540(5) -0.8031(18)
C5B C -0.5526(4) -0.5896(5) -0.72366(17)
H4B H -0.457(3) -0.571(3) -0.7192(11)
C6B C -0.6264(3) -0.6487(3) -0.67023(10)
C7B C -0.4584(5) -0.7135(4) -0.63093(17)
H5B H -0.507(4) -0.800(4) -0.6574(14)
H6B H -0.359(4) -0.635(4) -0.6512(15)
C8B C -0.4252(5) -0.7591(4) -0.57348(18)
H7B H -0.365(4) -0.669(4) -0.5506(14)
H8B H -0.369(4) -0.813(4) -0.5828(14)
C9B C -0.6529(5) -0.9803(5) -0.5641(2)
H9B H -0.697(4) -0.956(4) -0.5973(15)
H10B H -0.598(4) -1.028(4) -0.5817(15)
C10B C -0.7585(4) -1.0692(5) -0.5179(2)
H11B H -0.833(6) -1.157(5) -0.529(2)
H12B H -0.729(6) -1.097(6) -0.482(2)
C11B C -0.5166(3) -0.3070(3) -0.58144(12)
C12B C -1.0500(4) -0.9114(4) -0.55648(19)
H13B H -1.022(4) -0.985(4) -0.5580(14)
H14B H -1.167(4) -0.955(4) -0.5537(14)
C13B C -0.9961(5) -0.8202(4) -0.61186(18)
H15B H -1.024(6) -0.878(5) -0.6435(19)
H16B H -1.022(6) -0.726(6) -0.610(2)
N1B N -0.5823(3) -0.4151(4) -0.55584(12)
O1B O -0.83956(30) -0.75860(19) -0.61386(8)
O2B O -0.5618(2) -0.6683(2) -0.61960(9)
O3B O -0.5519(3) -0.8482(3) -0.53752(11)
O4B O -0.99025(30) -0.82700(18) -0.50411(9)
S1B S -0.42542(7) -0.15302(9) -0.61663(3)
#END
