
#######################################################################
#
#                 Cambridge Crystallographic Data Centre
#                                CCDC
#
#######################################################################
#
# If this CIF has been generated from an entry in the Cambridge
# Structural Database, then it will include bibliographic, chemical,
# crystal, experimental, refinement or atomic coordinate data resulting
# from the CCDC's data processing and validation procedures.
#
#######################################################################

data_CSD_CIF_GEJNOY
_audit_creation_date 1989-03-17
_audit_creation_method CSD-ConQuest-V1
_database_code_CSD GEJNOY
_database_code_depnum_ccdc_archive 'CCDC 1165582'
_chemical_formula_sum 'C30 H39 K1 O6 Sn1'
_chemical_formula_moiety
;
C18 H15 Sn1 1-,C12 H24 K1 O6 1+
;
_journal_coden_Cambridge 182
_journal_year 1988
_journal_page_first 877
_journal_name_full 'Chem.Commun. '
loop_
_publ_author_name
"T.Birchall"
"J.A.Vetrone"
_chemical_name_systematic
;
18-Crown-6-potassium triphenyl-tin
;
_chemical_name_common
;
Teaching Subset: Fundamental Chemistry
;
_cell_volume   3090.904
_exptl_crystal_density_diffrn 1.4
_exptl_special_details
;
Absolute configuration

;
_diffrn_ambient_temperature ?
_diffrn_special_details
;
The study was carried out at room temperature,in the range 283-303K

;
#These two values have been output from a single CSD field.
_refine_ls_R_factor_gt 0.035
_refine_ls_wR_factor_gt 0.035
_symmetry_cell_setting orthorhombic
_symmetry_space_group_name_H-M 'P 21 21 21'
_symmetry_Int_Tables_number 19
loop_
_symmetry_equiv_pos_site_id
_symmetry_equiv_pos_as_xyz
1 x,y,z
2 1/2+x,1/2-y,-z
3 -x,1/2+y,1/2-z
4 1/2-x,-y,1/2+z
_cell_length_a 9.740(1)
_cell_length_b 12.811(1)
_cell_length_c 24.771(1)
_cell_angle_alpha 90
_cell_angle_beta 90
_cell_angle_gamma 90
_cell_formula_units_Z 4
loop_
_atom_type_symbol
_atom_type_radius_bond
C 0.68
H 0.23
K 1.78
O 0.68
Sn 1.46
loop_
_atom_site_label
_atom_site_type_symbol
_atom_site_fract_x
_atom_site_fract_y
_atom_site_fract_z
Sn1 Sn 0.24687(7) -0.07970(3) 0.61468(2)
C1 C 0.2994(6) 0.0450(5) 0.5548(2)
C2 C 0.2219(9) 0.1309(6) 0.5423(2)
C3 C 0.2535(12) 0.2008(5) 0.5007(3)
C4 C 0.3777(12) 0.1831(7) 0.4732(3)
C5 C 0.4599(9) 0.1026(7) 0.4844(3)
C6 C 0.4207(8) 0.0312(6) 0.5252(3)
C7 C 0.0257(6) -0.0440(4) 0.6205(2)
C8 C -0.0467(8) -0.0607(6) 0.6680(2)
C9 C -0.1874(9) -0.0502(6) 0.6712(2)
C10 C -0.2643(10) -0.0192(5) 0.6275(3)
C11 C -0.1958(9) 0.0017(6) 0.5794(3)
C12 C -0.0545(9) -0.0114(5) 0.5769(2)
C13 C 0.3084(7) 0.0062(4) 0.6890(2)
C14 C 0.2364(9) 0.0934(6) 0.7091(2)
C15 C 0.280(1) 0.1441(6) 0.7553(3)
C16 C 0.3944(10) 0.1114(7) 0.7837(2)
C17 C 0.4642(9) 0.0260(8) 0.7640(3)
C18 C 0.4231(8) -0.0261(6) 0.7180(3)
H1 H 0.133(7) 0.140(5) 0.556(2)
H2 H 0.197(7) 0.259(5) 0.499(2)
H3 H 0.399(9) 0.223(6) 0.456(3)
H4 H 0.538(7) 0.079(5) 0.467(2)
H5 H 0.486(7) -0.026(5) 0.531(2)
H6 H 0.000(7) -0.076(7) 0.698(2)
H7 H -0.224(7) -0.081(4) 0.701(2)
H8 H -0.353(7) 0.001(5) 0.623(2)
H9 H -0.238(9) 0.012(4) 0.547(2)
H10 H -0.008(8) -0.011(6) 0.544(2)
H11 H 0.168(6) 0.108(6) 0.691(2)
H12 H 0.240(9) 0.200(4) 0.769(2)
H13 H 0.416(6) 0.170(4) 0.816(2)
H14 H 0.540(7) 0.007(6) 0.776(2)
H15 H 0.469(7) -0.091(6) 0.706(2)
K1 K 0.2404(2) 0.03458(9) 0.37901(6)
O1 O 0.4245(5) 0.1409(4) 0.3119(1)
O2 O 0.1712(5) 0.2288(3) 0.3383(2)
O3 O -0.0394(4) 0.0996(3) 0.3825(1)
O4 O 0.0494(5) -0.0840(4) 0.4358(1)
O5 O 0.3065(6) -0.1669(3) 0.4093(1)
O6 O 0.5152(5) -0.0371(4) 0.3657(1)
C19 C 0.3972(11) 0.2504(7) 0.3052(3)
C20 C 0.2445(15) 0.2623(5) 0.2929(2)
C21 C 0.0268(10) 0.2494(7) 0.3333(4)
C22 C -0.0453(9) 0.2107(6) 0.3812(4)
C23 C -0.1090(8) 0.0548(10) 0.4265(3)
C24 C -0.0911(11) -0.0596(8) 0.4266(3)
C25 C 0.0823(13) -0.1906(7) 0.4407(4)
C26 C 0.2245(14) -0.2064(6) 0.4523(3)
C27 C 0.4510(13) -0.1858(8) 0.4149(4)
C28 C 0.5254(11) -0.1471(7) 0.3667(3)
C29 C 0.5839(10) 0.0064(8) 0.3202(3)
C30 C 0.5649(10) 0.1207(7) 0.3209(3)
H16 H 0.418(8) 0.286(6) 0.334(3)
H17 H 0.438(7) 0.262(5) 0.264(2)
H18 H 0.229(7) 0.213(4) 0.255(2)
H19 H 0.243(10) 0.335(4) 0.290(2)
H20 H 0.019(7) 0.326(5) 0.336(2)
H21 H -0.002(7) 0.216(5) 0.297(2)
H22 H -0.156(6) 0.226(4) 0.379(2)
H23 H 0.002(7) 0.242(5) 0.421(2)
H24 H -0.077(6) 0.073(5) 0.463(2)
H25 H -0.196(6) 0.067(5) 0.428(2)
H26 H -0.147(6) -0.109(5) 0.456(2)
H27 H -0.122(7) -0.095(5) 0.394(2)
H28 H 0.023(7) -0.214(5) 0.469(2)
H29 H 0.038(7) -0.236(6) 0.405(2)
H30 H 0.262(10) -0.282(4) 0.458(2)
H31 H 0.274(7) -0.171(4) 0.487(2)
H32 H 0.487(8) -0.172(7) 0.443(3)
H33 H 0.430(8) -0.253(5) 0.425(3)
H34 H 0.481(7) -0.185(5) 0.335(2)
H35 H 0.616(7) -0.169(5) 0.374(2)
H36 H 0.676(6) -0.017(5) 0.318(2)
H37 H 0.535(7) -0.031(5) 0.286(2)
H38 H 0.610(7) 0.155(5) 0.291(2)
H39 H 0.576(7) 0.162(6) 0.360(2)
#END
