
#######################################################################
#
#                 Cambridge Crystallographic Data Centre
#                                CCDC
#
#######################################################################
#
# If this CIF has been generated from an entry in the Cambridge
# Structural Database, then it will include bibliographic, chemical,
# crystal, experimental, refinement or atomic coordinate data resulting
# from the CCDC's data processing and validation procedures.
#
#######################################################################

data_CSD_CIF_GEJVEW
_audit_creation_date 1989-03-17
_audit_creation_method CSD-ConQuest-V1
_database_code_CSD GEJVEW
_database_code_depnum_ccdc_archive 'CCDC 1165614'
_chemical_formula_sum 'C14 H16 O8'
_chemical_formula_moiety
;
C14 H16 O8
;
_journal_coden_Cambridge 4
_journal_volume 110
_journal_year 1988
_journal_page_first 3747
_journal_name_full 'J.Am.Chem.Soc. '
loop_
_publ_author_name
"O.Ermer"
_chemical_name_systematic
;
Adamantane-1,3,5,7-tetracarboxylic acid
;
_chemical_name_common
;
Teaching Subset: Fundamental Chemistry
;
_chemical_melting_point 663.15
_cell_volume   1255.805
_exptl_crystal_density_diffrn 1.651
_exptl_special_details
;
Melts above 663.15K

;
_diffrn_ambient_temperature ?
_diffrn_special_details
;
The study was carried out at room temperature,in the range 283-303K

;
#These two values have been output from a single CSD field.
_refine_ls_R_factor_gt 0.051
_refine_ls_wR_factor_gt 0.051
_symmetry_cell_setting tetragonal
_symmetry_space_group_name_H-M 'I 41/a'
_symmetry_Int_Tables_number 88
loop_
_symmetry_equiv_pos_site_id
_symmetry_equiv_pos_as_xyz
1 x,y,z
2 1/2+x,1/2+y,1/2+z
3 3/4-y,1/4+x,1/4+z
4 1/4-y,3/4+x,3/4+z
5 1/2-x,-y,1/2+z
6 -x,1/2-y,z
7 3/4+y,3/4-x,3/4+z
8 1/4+y,1/4-x,1/4+z
9 -x,-y,-z
10 -1/2-x,-1/2-y,-1/2-z
11 -3/4+y,-1/4-x,-1/4-z
12 -1/4+y,-3/4-x,-3/4-z
13 -1/2+x,y,-1/2-z
14 x,-1/2+y,-z
15 -3/4-y,-3/4+x,-3/4-z
16 -1/4-y,-1/4+x,-1/4-z
_cell_length_a 7.510(5)
_cell_length_b 7.510(5)
_cell_length_c 22.266(21)
_cell_angle_alpha 90
_cell_angle_beta 90
_cell_angle_gamma 90
_cell_formula_units_Z 4
loop_
_atom_type_symbol
_atom_type_radius_bond
C 0.68
H 0.23
O 0.68
loop_
_atom_site_label
_atom_site_type_symbol
_atom_site_fract_x
_atom_site_fract_y
_atom_site_fract_z
C1 C 1.00000 0.25000 0.04512(6)
C2 C 0.94158(12) 0.02023(12) 0.12470(4)
C3 C 0.85620(11) 0.16435(11) 0.08483(4)
C4 C 0.70782(12) 0.08654(12) 0.04627(5)
O1 O 0.60213(11) -0.02352(12) 0.07544(4)
O2 O 0.68532(11) 0.12621(12) -0.00613(4)
H1 H 0.9460(17) 0.3354(17) 0.0181(6)
H2 H 0.9922(20) -0.0731(17) 0.1002(6)
H3 H 0.8493(18) -0.0385(18) 0.1484(6)
H4 H 0.51600 -0.0679(24) 0.0466(7)
C3E C 1.14380(11) 0.33565(11) 0.08483(4)
H1E H 1.0540(17) 0.1646(17) 0.0181(6)
C2K C 0.77023(12) 0.30842(12) 0.12530(4)
C3N C 1.08565(11) 0.10620(11) 0.16517(4)
C2E C 1.05842(12) 0.47977(12) 0.12470(4)
C2N C 1.22977(12) 0.19158(12) 0.12530(4)
C4E C 1.29218(12) 0.41346(12) 0.04627(5)
C3K C 0.91435(11) 0.39380(11) 0.16517(4)
H2K H 0.6769(20) 0.2578(17) 0.1498(6)
H3K H 0.7115(18) 0.4007(18) 0.1016(6)
C1K C 1.00000 0.25000 0.20488(6)
C4N C 1.16346(12) -0.04218(12) 0.20373(5)
H2E H 1.0078(20) 0.5731(17) 0.1002(6)
H3E H 1.1507(18) 0.5385(18) 0.1484(6)
H2N H 1.3231(20) 0.2422(17) 0.1498(6)
H3N H 1.2885(18) 0.0993(18) 0.1016(6)
O1E O 1.39787(11) 0.52352(12) 0.07544(4)
O2E O 1.31468(11) 0.37379(12) -0.00613(4)
C4K C 0.83654(12) 0.54218(12) 0.20373(5)
H1K H 1.0854(17) 0.3040(17) 0.2319(6)
H1N H 0.9146(17) 0.1960(17) 0.2319(6)
O1N O 1.27352(11) -0.14787(12) 0.17456(4)
O2N O 1.12379(11) -0.06468(12) 0.25613(4)
H4E H 1.48400 0.5679(24) 0.0466(7)
O1K O 0.72648(11) 0.64787(12) 0.17456(4)
O2K O 0.87621(11) 0.56468(12) 0.25613(4)
H4N H 1.31790 -0.2340(24) 0.2034(7)
H4K H 0.68210 0.7340(24) 0.2034(7)
#END
