
#######################################################################
#
#                 Cambridge Crystallographic Data Centre
#                                CCDC
#
#######################################################################
#
# If this CIF has been generated from an entry in the Cambridge
# Structural Database, then it will include bibliographic, chemical,
# crystal, experimental, refinement or atomic coordinate data resulting
# from the CCDC's data processing and validation procedures.
#
#######################################################################

data_CSD_CIF_GENFEK
_audit_creation_date 1989-04-05
_audit_creation_method CSD-ConQuest-V1
_database_code_CSD GENFEK
_database_code_depnum_ccdc_archive 'CCDC 1165984'
_chemical_formula_sum 'C18 H36 I6 N6'
_chemical_formula_moiety
;
C18 H36 N6 2+,2(I3 1-)
;
_journal_coden_Cambridge 35
_journal_volume 53
_journal_year 1988
_journal_page_first 3226
_journal_name_full 'J.Org.Chem. '
loop_
_publ_author_name
"J.M.Chance"
"B.Kahr"
"A.B.Buda"
"J.P.Toscano"
"K.Mislow"
_chemical_name_systematic
;
hexakis(Dimethylamino)benzene dication bis(tri-iodide)
;
_chemical_name_common
;
Teaching Subset: Symmetry
;
_chemical_melting_point 396
_cell_volume   3387.720
_exptl_crystal_colour 'black'
_diffrn_ambient_temperature 175
#These two values have been output from a single CSD field.
_refine_ls_R_factor_gt 0.102
_refine_ls_wR_factor_gt 0.102
_symmetry_cell_setting monoclinic
_symmetry_space_group_name_H-M 'P 2/c'
_symmetry_Int_Tables_number 13
loop_
_symmetry_equiv_pos_site_id
_symmetry_equiv_pos_as_xyz
1 x,y,z
2 -x,y,1/2-z
3 -x,-y,-z
4 x,-y,-1/2+z
_cell_length_a 16.243(5)
_cell_length_b 11.051(4)
_cell_length_c 20.358(7)
_cell_angle_alpha 90
_cell_angle_beta 112.02(3)
_cell_angle_gamma 90
_cell_formula_units_Z 4
loop_
_atom_type_symbol
_atom_type_radius_bond
C 0.68
H 0.23
I 1.40
N 0.68
loop_
_atom_site_label
_atom_site_type_symbol
_atom_site_fract_x
_atom_site_fract_y
_atom_site_fract_z
I1 I 0.0979(2) 0.4865(3) 0.9762(2)
I2 I 0.1863(1) 0.4368(2) 0.8812(2)
I3 I 0.2667(2) 0.3847(2) 0.7754(2)
I4 I 0.5041(3) 0.1693(3) 0.4285(2)
I5 I 0.6666(3) 0.0967(2) 0.4102(1)
I6 I 0.8250(3) 0.0301(4) 0.3865(2)
C1 C 0.4967(14) 0.2808(22) 0.7113(11)
C2 C 0.4545(14) 0.3767(20) 0.6750(13)
C3 C 0.4557(14) 0.4776(18) 0.7148(12)
N1 N 0.5347(12) 0.1786(17) 0.6905(10)
N2 N 0.4096(14) 0.3775(18) 0.5991(10)
N3 N 0.4032(11) 0.5673(16) 0.7021(11)
C4 C 0.5870(18) 0.0865(23) 0.7352(14)
C5 C 0.5388(17) 0.180(2) 0.6174(12)
C6 C 0.3381(16) 0.2916(27) 0.5663(16)
C7 C 0.4397(17) 0.4597(25) 0.5562(14)
C8 C 0.3163(15) 0.5670(22) 0.6358(13)
C9 C 0.4093(15) 0.6654(20) 0.7536(14)
H1 H 0.60660 0.03110 0.70780
H2 H 0.55220 0.04380 0.75680
H3 H 0.63760 0.12230 0.77140
H4 H 0.50290 0.24500 0.59020
H5 H 0.51700 0.10450 0.59400
H6 H 0.59920 0.19150 0.62160
H7 H 0.31490 0.30260 0.51590
H8 H 0.29170 0.30490 0.58400
H9 H 0.36040 0.21060 0.57750
H10 H 0.40310 0.44930 0.50700
H11 H 0.50030 0.44190 0.56330
H12 H 0.43530 0.54180 0.57000
H13 H 0.28490 0.64130 0.63390
H14 H 0.27990 0.50010 0.63830
H15 H 0.33000 0.55960 0.59400
H16 H 0.36380 0.72440 0.73170
H17 H 0.46650 0.70330 0.76800
H18 H 0.40120 0.63190 0.79430
C10 C 0.9720(16) -0.0429(23) 0.2098(14)
C11 C 0.9134(14) 0.0546(24) 0.1907(14)
C12 C 0.9480(14) 0.1603(19) 0.2316(14)
N4 N 0.9808(11) -0.1343(17) 0.1715(11)
N5 N 0.8317(13) 0.0663(20) 0.1320(12)
N6 N 0.9067(10) 0.251(2) 0.2479(12)
C13 C 1.0437(17) -0.2220(26) 0.1939(15)
C14 C 0.9351(18) -0.1255(24) 0.0952(13)
C15 C 0.7681(15) -0.0307(28) 0.1308(16)
C16 C 0.8208(19) 0.1438(24) 0.0776(14)
C17 C 0.8076(14) 0.2468(23) 0.2251(16)
C18 C 0.9479(18) 0.3439(25) 0.3017(17)
H19 H 1.04070 -0.27190 0.15440
H20 H 1.03350 -0.27070 0.22910
H21 H 1.10130 -0.18530 0.21390
H22 H 0.95080 -0.19330 0.07290
H23 H 0.95200 -0.05180 0.07870
H24 H 0.87210 -0.12550 0.08370
H25 H 0.71470 -0.02160 0.08950
H26 H 0.75400 -0.02530 0.17250
H27 H 0.79420 -0.10810 0.12950
H28 H 0.76220 0.13430 0.04220
H29 H 0.86400 0.12660 0.05720
H30 H 0.82830 0.22550 0.09500
H31 H 0.78770 0.31660 0.24300
H32 H 0.79080 0.17480 0.24340
H33 H 0.78090 0.24630 0.17430
H34 H 0.90280 0.39580 0.30590
H35 H 0.98850 0.39090 0.28800
H36 H 0.97950 0.30570 0.34650
C1A C 0.5033(14) 0.2808(22) 0.7887(11)
C3A C 0.5443(14) 0.4776(18) 0.7852(12)
C2A C 0.5455(14) 0.3767(20) 0.8250(13)
N1A N 0.4653(12) 0.1786(17) 0.8095(10)
N3A N 0.5968(11) 0.5673(16) 0.7979(11)
N2A N 0.5904(14) 0.3775(18) 0.9009(10)
C4A C 0.4130(18) 0.0865(23) 0.7648(14)
C5A C 0.4612(17) 0.180(2) 0.8826(12)
C8A C 0.6837(15) 0.5670(22) 0.8642(13)
C9A C 0.5907(15) 0.6654(20) 0.7464(14)
C6A C 0.6619(16) 0.2916(27) 0.9337(16)
C7A C 0.5603(17) 0.4597(25) 0.9438(14)
H1A H 0.39340 0.03110 0.79220
H2A H 0.44780 0.04380 0.74320
H3A H 0.36240 0.12230 0.72860
H4A H 0.49710 0.24500 0.90980
H5A H 0.48300 0.10450 0.90600
H6A H 0.40080 0.19150 0.87840
H13A H 0.71510 0.64130 0.86610
H14A H 0.72010 0.50010 0.86170
H15A H 0.67000 0.55960 0.90600
H16A H 0.63620 0.72440 0.76830
H17A H 0.53350 0.70330 0.73200
H18A H 0.59880 0.63190 0.70570
H7A H 0.68510 0.30260 0.98410
H8A H 0.70830 0.30490 0.91600
H9A H 0.63960 0.21060 0.92250
H10A H 0.59690 0.44930 0.99300
H11A H 0.49970 0.44190 0.93670
H12A H 0.56470 0.54180 0.93000
C10A C 1.0280(16) -0.0429(23) 0.2902(14)
C12A C 1.0520(14) 0.1603(19) 0.2684(14)
C11A C 1.0866(14) 0.0546(24) 0.3093(14)
N4A N 1.0192(11) -0.1343(17) 0.3285(11)
N6A N 1.0933(10) 0.251(2) 0.2521(12)
N5A N 1.1683(13) 0.0663(20) 0.3680(12)
C13A C 0.9563(17) -0.2220(26) 0.3061(15)
C14A C 1.0649(18) -0.1255(24) 0.4048(13)
C17A C 1.1924(14) 0.2468(23) 0.2749(16)
C18A C 1.0521(18) 0.3439(25) 0.1983(17)
C15A C 1.2319(15) -0.0307(28) 0.3692(16)
C16A C 1.1792(19) 0.1438(24) 0.4224(14)
H19A H 0.95930 -0.27190 0.34560
H20A H 0.96650 -0.27070 0.27090
H21A H 0.89870 -0.18530 0.28610
H22A H 1.04920 -0.19330 0.42710
H23A H 1.04800 -0.05180 0.42130
H24A H 1.12790 -0.12550 0.41630
H31A H 1.21230 0.31660 0.25700
H32A H 1.20920 0.17480 0.25660
H33A H 1.21910 0.24630 0.32570
H34A H 1.09720 0.39580 0.19410
H35A H 1.01150 0.39090 0.21200
H36A H 1.02050 0.30570 0.15350
H25A H 1.28530 -0.02160 0.41050
H26A H 1.24600 -0.02530 0.32750
H27A H 1.20580 -0.10810 0.37050
H28A H 1.23780 0.13430 0.45780
H29A H 1.13600 0.12660 0.44280
H30A H 1.17170 0.22550 0.40500
#END
