
#######################################################################
#
#                 Cambridge Crystallographic Data Centre
#                                CCDC
#
#######################################################################
#
# If this CIF has been generated from an entry in the Cambridge
# Structural Database, then it will include bibliographic, chemical,
# crystal, experimental, refinement or atomic coordinate data resulting
# from the CCDC's data processing and validation procedures.
#
#######################################################################

data_CSD_CIF_GENFAG
_audit_creation_date 1989-04-05
_audit_creation_method CSD-ConQuest-V1
_database_code_CSD GENFAG
_database_code_depnum_ccdc_archive 'CCDC 1165983'
_chemical_formula_sum 'C18 H36 N6'
_chemical_formula_moiety
;
C18 H36 N6
;
_journal_coden_Cambridge 35
_journal_volume 53
_journal_year 1988
_journal_page_first 3226
_journal_name_full 'J.Org.Chem. '
loop_
_publ_author_name
"J.M.Chance"
"B.Kahr"
"A.B.Buda"
"J.P.Toscano"
"K.Mislow"
_chemical_name_systematic
;
hexakis(Dimethylamino)benzene
;
_chemical_name_common
;
Teaching Subset: Symmetry
;
_chemical_melting_point 508
_cell_volume   2027.501
_exptl_crystal_colour 'white'
_exptl_crystal_density_diffrn 1.1
_exptl_special_details
;
Melting point range 508-510K

;
_diffrn_ambient_temperature 175
#These two values have been output from a single CSD field.
_refine_ls_R_factor_gt 0.048
_refine_ls_wR_factor_gt 0.048
_symmetry_cell_setting monoclinic
_symmetry_space_group_name_H-M 'C 2/c'
_symmetry_Int_Tables_number 15
loop_
_symmetry_equiv_pos_site_id
_symmetry_equiv_pos_as_xyz
1 x,y,z
2 1/2+x,1/2+y,z
3 -x,y,1/2-z
4 1/2-x,1/2+y,1/2-z
5 -x,-y,-z
6 -1/2-x,-1/2-y,-z
7 x,-y,-1/2+z
8 -1/2+x,-1/2-y,-1/2+z
_cell_length_a 18.440(6)
_cell_length_b 9.461(3)
_cell_length_c 12.017(4)
_cell_angle_alpha 90
_cell_angle_beta 104.74(3)
_cell_angle_gamma 90
_cell_formula_units_Z 4
loop_
_atom_type_symbol
_atom_type_radius_bond
C 0.68
H 0.23
N 0.68
loop_
_atom_site_label
_atom_site_type_symbol
_atom_site_fract_x
_atom_site_fract_y
_atom_site_fract_z
C1 C 0.3234(1) 0.2127(2) 0.4991(1)
C2 C 0.2626(1) 0.1325(2) 0.4365(1)
C3 C 0.3109(1) 0.3300(2) 0.5628(1)
N1 N 0.3969(1) 0.1678(2) 0.4933(1)
N2 N 0.2719(1) 0.0095(2) 0.3710(1)
N3 N 0.3757(1) 0.4070(2) 0.6261(1)
C4 C 0.4352(1) 0.2648(2) 0.4344(2)
C5 C 0.4457(1) 0.1183(2) 0.6009(2)
C6 C 0.3006(1) 0.0345(2) 0.2715(2)
C7 C 0.3089(1) -0.1086(2) 0.4390(2)
C8 C 0.3895(1) 0.3970(2) 0.7505(2)
C9 C 0.3816(1) 0.5512(2) 0.5879(2)
H1 H 0.47850 0.21930 0.42010
H2 H 0.45060 0.34690 0.48140
H3 H 0.40190 0.29270 0.36260
H4 H 0.46490 0.19780 0.64900
H5 H 0.48670 0.06610 0.58530
H6 H 0.41780 0.05820 0.63940
H7 H 0.28560 -0.04130 0.21750
H8 H 0.35430 0.03950 0.29490
H9 H 0.28090 0.12210 0.23590
H10 H 0.36210 -0.10070 0.44950
H11 H 0.29150 -0.19540 0.39990
H12 H 0.29760 -0.10780 0.51270
H13 H 0.43970 0.42740 0.78600
H14 H 0.35460 0.45620 0.77600
H15 H 0.38330 0.30080 0.77180
H16 H 0.43340 0.57890 0.60660
H17 H 0.36120 0.55670 0.50610
H18 H 0.35430 0.61320 0.62560
C3E C 0.1891(1) 0.1700(2) 0.4372(1)
C2E C 0.2374(1) 0.3675(2) 0.5635(1)
C1E C 0.1766(1) 0.2873(2) 0.5009(1)
N3E N 0.1243(1) 0.0930(2) 0.3739(1)
N2E N 0.2281(1) 0.4905(2) 0.6290(1)
N1E N 0.1031(1) 0.3322(2) 0.5067(1)
C8E C 0.1105(1) 0.1030(2) 0.2495(2)
C9E C 0.1184(1) -0.0512(2) 0.4121(2)
C6E C 0.1994(1) 0.4655(2) 0.7285(2)
C7E C 0.1911(1) 0.6086(2) 0.5610(2)
C4E C 0.0648(1) 0.2352(2) 0.5656(2)
C5E C 0.0543(1) 0.3817(2) 0.3991(2)
H13E H 0.06030 0.07260 0.21400
H14E H 0.14540 0.04380 0.22400
H15E H 0.11670 0.19920 0.22820
H16E H 0.06660 -0.07890 0.39340
H17E H 0.13880 -0.05670 0.49390
H18E H 0.14570 -0.11320 0.37440
H7E H 0.21440 0.54130 0.78250
H8E H 0.14570 0.46050 0.70510
H9E H 0.21910 0.37790 0.76410
H10E H 0.13790 0.60070 0.55050
H11E H 0.20850 0.69540 0.60010
H12E H 0.20240 0.60780 0.48730
H1E H 0.02150 0.28070 0.57990
H2E H 0.04940 0.15310 0.51860
H3E H 0.09810 0.20730 0.63740
H4E H 0.03510 0.30220 0.35100
H5E H 0.01330 0.43390 0.41470
H6E H 0.08220 0.44180 0.36060
#END
