####################################################################### 
# 
# This file contains crystal structure data downloaded from the 
# Cambridge Structural Database (CSD) hosted by the Cambridge 
# Crystallographic Data Centre (CCDC).
# 
# Full information about CCDC data access policies and citation 
# guidelines are available at http://www.ccdc.cam.ac.uk/access/V1 
# 
# Audit and citation data items may have been added by the CCDC. 
# Please retain this information to preserve the provenance of 
# this file and to allow appropriate attribution of the data. 
# 
#######################################################################

data_znbtpbtec
_audit_block_doi                 10.5517/ccw855g
_database_code_depnum_ccdc_archive 'CCDC 812205'
loop_
_citation_id
_citation_doi
_citation_year
1 10.1016/j.inoche.2012.09.024 2012
_audit_update_record             
;
2011-02-09 deposited with the CCDC.	2024-07-10 downloaded from the CCDC.
;
#TrackingRef 'znbtpbtec.cif'


_audit_creation_method           SHELXL-97
_chemical_name_systematic        
;
?
;
_chemical_name_common            ?
_chemical_melting_point          ?
_chemical_formula_moiety         ?
_chemical_formula_sum            'C24 H42 N12 O18 Zn2'
_chemical_formula_weight         917.44

loop_
_atom_type_symbol
_atom_type_description
_atom_type_scat_dispersion_real
_atom_type_scat_dispersion_imag
_atom_type_scat_source
C C 0.0033 0.0016 'International Tables Vol C Tables 4.2.6.8 and 6.1.1.4'
H H 0.0000 0.0000 'International Tables Vol C Tables 4.2.6.8 and 6.1.1.4'
N N 0.0061 0.0033 'International Tables Vol C Tables 4.2.6.8 and 6.1.1.4'
O O 0.0106 0.0060 'International Tables Vol C Tables 4.2.6.8 and 6.1.1.4'
Zn Zn 0.2839 1.4301 'International Tables Vol C Tables 4.2.6.8 and 6.1.1.4'

_symmetry_cell_setting           triclinic
_symmetry_space_group_name_H-M   P-1

loop_
_symmetry_equiv_pos_as_xyz
'x, y, z'
'-x, -y, -z'

_cell_length_a                   9.6491(17)
_cell_length_b                   10.7245(17)
_cell_length_c                   10.9775(16)
_cell_angle_alpha                92.771(3)
_cell_angle_beta                 98.955(3)
_cell_angle_gamma                114.076(3)
_cell_volume                     1016.6(3)
_cell_formula_units_Z            1
_cell_measurement_temperature    193(2)
_cell_measurement_reflns_used    4823
_cell_measurement_theta_min      3.2
_cell_measurement_theta_max      27.5


_exptl_crystal_description       prism
_exptl_crystal_colour            colorless
_exptl_crystal_size_max          0.55
_exptl_crystal_size_mid          0.50
_exptl_crystal_size_min          0.25
_exptl_crystal_density_meas      ?
_exptl_crystal_density_diffrn    1.499
_exptl_crystal_density_method    'not measured'
_exptl_crystal_F_000             474
_exptl_absorpt_coefficient_mu    1.263
_exptl_absorpt_correction_type   Multi-scan
_exptl_absorpt_correction_T_min  0.5433
_exptl_absorpt_correction_T_max  0.7430
_exptl_absorpt_process_details   Empirical

_exptl_special_details           
;
?
;

_diffrn_ambient_temperature      193(2)
_diffrn_radiation_wavelength     0.71075
_diffrn_radiation_type           MoK\a
_diffrn_radiation_source         'fine-focus sealed tube'
_diffrn_radiation_monochromator  graphite
_diffrn_measurement_device_type  'Rigaku Saturn'
_diffrn_measurement_method       \w
_diffrn_detector_area_resol_mean 14.63
_diffrn_standards_number         0
_diffrn_standards_interval_count 0
_diffrn_standards_interval_time  0
_diffrn_standards_decay_%        0
_diffrn_reflns_number            8710
_diffrn_reflns_av_R_equivalents  0.0257
_diffrn_reflns_av_sigmaI/netI    0.0457
_diffrn_reflns_limit_h_min       -12
_diffrn_reflns_limit_h_max       10
_diffrn_reflns_limit_k_min       -13
_diffrn_reflns_limit_k_max       13
_diffrn_reflns_limit_l_min       -14
_diffrn_reflns_limit_l_max       14
_diffrn_reflns_theta_min         3.18
_diffrn_reflns_theta_max         27.50
_reflns_number_total             4573
_reflns_number_gt                3943
_reflns_threshold_expression     >2sigma(I)


_computing_data_collection       CrystalClear
_computing_cell_refinement       CrystalClear
_computing_data_reduction        CrystalStructure
_computing_structure_solution    'SHELXS-97 (Sheldrick, 1990)'
_computing_structure_refinement  'SHELXL-97 (Sheldrick, 1997)'
_computing_molecular_graphics    'Bruker SHELXTL'
_computing_publication_material  'Bruker SHELXTL'

_refine_special_details          
;
Refinement of F^2^ against ALL reflections. The weighted R-factor wR and
goodness of fit S are based on F^2^, conventional R-factors R are based
on F, with F set to zero for negative F^2^. The threshold expression of
F^2^ > 2sigma(F^2^) is used only for calculating R-factors(gt) etc. and is
not relevant to the choice of reflections for refinement. R-factors based
on F^2^ are statistically about twice as large as those based on F, and R-
factors based on ALL data will be even larger.
;

_refine_ls_structure_factor_coef Fsqd
_refine_ls_matrix_type           full
_refine_ls_weighting_scheme      calc
_refine_ls_weighting_details     
'calc w=1/[\s^2^(Fo^2^)+(0.0790P)^2^+2.3662P] where P=(Fo^2^+2Fc^2^)/3'
_atom_sites_solution_primary     direct
_atom_sites_solution_secondary   difmap
_atom_sites_solution_hydrogens   geom
_refine_ls_hydrogen_treatment    constr
_refine_ls_extinction_method     none
_refine_ls_extinction_coef       ?
_refine_ls_number_reflns         4573
_refine_ls_number_parameters     307
_refine_ls_number_restraints     0
_refine_ls_R_factor_all          0.0569
_refine_ls_R_factor_gt           0.0497
_refine_ls_wR_factor_ref         0.1618
_refine_ls_wR_factor_gt          0.1577
_refine_ls_goodness_of_fit_ref   1.079
_refine_ls_restrained_S_all      1.079
_refine_ls_shift/su_max          0.000
_refine_ls_shift/su_mean         0.000

loop_
_atom_site_label
_atom_site_type_symbol
_atom_site_fract_x
_atom_site_fract_y
_atom_site_fract_z
_atom_site_U_iso_or_equiv
_atom_site_adp_type
_atom_site_occupancy
_atom_site_symmetry_multiplicity
_atom_site_calc_flag
_atom_site_refinement_flags
_atom_site_disorder_assembly
_atom_site_disorder_group
Zn1 Zn 0.87088(5) 0.22589(4) 0.48741(4) 0.02196(16) Uani 1 1 d . . .
O1 O 0.7925(3) 0.3661(3) 0.4881(3) 0.0286(6) Uani 1 1 d . . .
O2 O 0.5726(3) 0.1897(3) 0.5005(3) 0.0317(6) Uani 1 1 d . . .
O3 O 0.9015(3) 0.6878(3) 0.4676(3) 0.0292(6) Uani 1 1 d . . .
O4 O 0.9078(3) 0.6231(3) 0.6557(3) 0.0320(6) Uani 1 1 d . . .
O5 O 1.2395(11) 0.3846(10) 0.7865(7) 0.077(3) Uani 0.55 1 d P . .
O6 O 0.7681(9) 0.5097(9) 0.8431(7) 0.063(2) Uani 0.55 1 d P . .
O7 O 0.9393(13) 0.7159(10) 1.0355(8) 0.071(2) Uani 0.55 1 d P . .
O8 O 1.2274(11) 0.7235(9) 1.0502(9) 0.072(2) Uani 0.55 1 d P . .
O9 O 1.2175(12) 0.6343(9) 0.8053(7) 0.074(2) Uani 0.55 1 d P . .
O10 O 1.082(2) 0.4753(16) 0.7518(11) 0.091(5) Uani 0.40 1 d P . .
O11 O 1.5323(16) 0.4401(14) 0.9325(14) 0.079(3) Uani 0.40 1 d P . .
O12 O 1.4546(15) 0.4283(13) 0.8352(13) 0.077(4) Uani 0.40 1 d P . .
O13 O 0.7983(16) 0.6322(16) 0.8786(11) 0.066(3) Uani 0.35 1 d P . .
O14 O 1.2688(16) 0.6890(14) 0.9602(16) 0.077(4) Uani 0.35 1 d P . .
O15 O 1.0405(19) 0.7088(14) 1.0738(13) 0.069(4) Uani 0.35 1 d P . .
N1 N 0.7548(4) -0.0182(4) 0.1498(3) 0.0380(9) Uani 1 1 d . . .
N2 N 0.6545(5) -0.1112(4) 0.2103(4) 0.0470(11) Uani 1 1 d . . .
N3 N 0.7889(4) 0.0902(3) 0.3315(3) 0.0244(6) Uani 1 1 d . . .
N4 N 0.7311(4) -0.0511(4) -0.2581(3) 0.0313(7) Uani 1 1 d . . .
N5 N 0.8797(5) -0.0337(5) -0.2414(4) 0.0502(11) Uani 1 1 d . . .
N6 N 0.8373(4) 0.1036(3) -0.3756(3) 0.0270(7) Uani 1 1 d . . .
C1 C 0.7698(6) -0.0549(6) 0.0232(4) 0.0419(11) Uani 1 1 d . . .
H1A H 0.7941 -0.1361 0.0210 0.050 Uiso 1 1 calc R . .
H1B H 0.8556 0.0225 -0.0017 0.050 Uiso 1 1 calc R . .
C2 C 0.6208(6) -0.0869(5) -0.0661(4) 0.0409(11) Uani 1 1 d . . .
H2A H 0.6067 -0.0011 -0.0742 0.049 Uiso 1 1 calc R . .
H2B H 0.5332 -0.1516 -0.0321 0.049 Uiso 1 1 calc R . .
C3 C 0.6191(6) -0.1503(5) -0.1948(4) 0.0423(11) Uani 1 1 d . . .
H3A H 0.6436 -0.2309 -0.1858 0.051 Uiso 1 1 calc R . .
H3B H 0.5141 -0.1830 -0.2461 0.051 Uiso 1 1 calc R . .
C4 C 0.6777(5) -0.0416(4) 0.3193(4) 0.0340(9) Uani 1 1 d . . .
H4A H 0.6226 -0.0793 0.3830 0.041 Uiso 1 1 calc R . .
C5 C 0.8335(5) 0.1009(4) 0.2226(4) 0.0315(9) Uani 1 1 d . . .
H5A H 0.9098 0.1811 0.2001 0.038 Uiso 1 1 calc R . .
C6 C 0.9392(6) 0.0618(6) -0.3136(5) 0.0459(12) Uani 1 1 d . . .
H6A H 1.0448 0.0977 -0.3211 0.055 Uiso 1 1 calc R . .
C7 C 0.7071(5) 0.0293(4) -0.3367(4) 0.0316(9) Uani 1 1 d . . .
H7A H 0.6109 0.0340 -0.3624 0.038 Uiso 1 1 calc R . .
C8 C 0.5750(4) 0.4127(4) 0.5019(3) 0.0208(7) Uani 1 1 d . . .
C9 C 0.6619(4) 0.5555(4) 0.5225(3) 0.0203(7) Uani 1 1 d . . .
C10 C 0.5851(4) 0.6403(4) 0.5195(3) 0.0227(7) Uani 1 1 d . . .
H10A H 0.6437 0.7373 0.5323 0.027 Uiso 1 1 calc R . .
C11 C 0.6499(4) 0.3139(4) 0.4976(3) 0.0231(7) Uani 1 1 d . . .
C12 C 0.8368(4) 0.6237(4) 0.5521(4) 0.0230(7) Uani 1 1 d . . .

loop_
_atom_site_aniso_label
_atom_site_aniso_U_11
_atom_site_aniso_U_22
_atom_site_aniso_U_33
_atom_site_aniso_U_23
_atom_site_aniso_U_13
_atom_site_aniso_U_12
Zn1 0.0167(2) 0.0226(2) 0.0278(2) 0.00293(17) 0.00596(16) 0.00884(17)
O1 0.0191(13) 0.0266(14) 0.0455(16) 0.0060(12) 0.0107(12) 0.0132(11)
O2 0.0223(14) 0.0238(14) 0.0500(17) 0.0040(13) 0.0065(12) 0.0109(11)
O3 0.0171(13) 0.0332(15) 0.0368(15) 0.0096(12) 0.0091(11) 0.0081(11)
O4 0.0227(14) 0.0367(16) 0.0317(14) 0.0014(12) -0.0006(11) 0.0100(12)
O5 0.085(6) 0.101(7) 0.043(4) -0.002(4) 0.013(4) 0.038(5)
O6 0.060(5) 0.078(6) 0.047(4) 0.026(4) 0.021(3) 0.019(4)
O7 0.093(7) 0.069(5) 0.071(5) 0.020(4) 0.027(5) 0.050(5)
O8 0.073(6) 0.062(5) 0.073(5) 0.015(4) 0.024(5) 0.017(4)
O9 0.103(7) 0.062(5) 0.054(4) 0.013(4) 0.002(4) 0.038(5)
O10 0.158(14) 0.113(11) 0.056(7) 0.030(7) 0.033(8) 0.103(11)
O11 0.068(8) 0.083(9) 0.084(9) 0.008(7) 0.034(7) 0.023(7)
O12 0.072(8) 0.064(7) 0.076(8) -0.012(6) 0.035(7) 0.005(6)
O13 0.068(8) 0.091(10) 0.056(7) 0.032(7) 0.033(6) 0.041(8)
O14 0.056(8) 0.061(8) 0.104(11) 0.026(8) 0.000(8) 0.019(7)
O15 0.084(10) 0.056(8) 0.063(8) 0.002(6) 0.021(7) 0.022(8)
N1 0.037(2) 0.039(2) 0.0285(18) -0.0018(15) 0.0099(15) 0.0054(17)
N2 0.043(2) 0.041(2) 0.038(2) -0.0018(17) 0.0145(18) -0.0023(18)
N3 0.0201(15) 0.0242(16) 0.0293(16) 0.0047(13) 0.0096(12) 0.0080(13)
N4 0.0362(19) 0.0299(18) 0.0253(16) 0.0041(14) 0.0089(14) 0.0104(15)
N5 0.052(3) 0.068(3) 0.049(2) 0.030(2) 0.020(2) 0.038(2)
N6 0.0244(16) 0.0283(17) 0.0282(16) 0.0065(13) 0.0084(13) 0.0096(14)
C1 0.038(2) 0.055(3) 0.032(2) -0.003(2) 0.0086(19) 0.020(2)
C2 0.037(2) 0.047(3) 0.035(2) 0.007(2) 0.0108(19) 0.012(2)
C3 0.049(3) 0.034(2) 0.027(2) 0.0049(18) 0.0096(19) 0.000(2)
C4 0.029(2) 0.033(2) 0.031(2) 0.0018(17) 0.0122(16) 0.0012(17)
C5 0.030(2) 0.031(2) 0.030(2) 0.0011(16) 0.0094(16) 0.0077(17)
C6 0.035(2) 0.069(3) 0.051(3) 0.030(3) 0.019(2) 0.032(2)
C7 0.027(2) 0.033(2) 0.0293(19) 0.0041(17) 0.0059(16) 0.0080(17)
C8 0.0169(16) 0.0224(17) 0.0236(17) 0.0031(14) 0.0059(13) 0.0080(14)
C9 0.0144(15) 0.0233(17) 0.0237(16) 0.0026(14) 0.0054(12) 0.0080(13)
C10 0.0193(17) 0.0188(16) 0.0298(18) 0.0019(14) 0.0059(14) 0.0074(14)
C11 0.0193(17) 0.0263(18) 0.0234(17) 0.0001(14) 0.0026(13) 0.0102(14)
C12 0.0166(16) 0.0210(17) 0.0324(19) -0.0004(15) 0.0050(14) 0.0091(14)

_geom_special_details            
;
All esds (except the esd in the dihedral angle between two l.s. planes)
are estimated using the full covariance matrix. The cell esds are taken
into account individually in the estimation of esds in distances, angles
and torsion angles; correlations between esds in cell parameters are only
used when they are defined by crystal symmetry. An approximate (isotropic)
treatment of cell esds is used for estimating esds involving l.s. planes.
;

loop_
_geom_bond_atom_site_label_1
_geom_bond_atom_site_label_2
_geom_bond_distance
_geom_bond_site_symmetry_2
_geom_bond_publ_flag
Zn1 O1 1.940(3) . ?
Zn1 O3 1.971(3) 2_766 ?
Zn1 N3 2.017(3) . ?
Zn1 N6 2.020(3) 1_556 ?
O1 C11 1.281(4) . ?
O2 C11 1.238(5) . ?
O3 C12 1.271(5) . ?
O3 Zn1 1.971(3) 2_766 ?
O4 C12 1.235(5) . ?
O6 O13 1.252(16) . ?
O7 O15 1.035(16) . ?
O8 O14 1.216(18) . ?
O8 O15 1.806(19) . ?
O9 O10 1.676(19) . ?
O9 O14 1.699(18) . ?
O11 O12 1.175(18) . ?
N1 C5 1.329(5) . ?
N1 N2 1.360(5) . ?
N1 C1 1.471(5) . ?
N2 C4 1.316(6) . ?
N3 C5 1.328(5) . ?
N3 C4 1.367(5) . ?
N4 C7 1.309(6) . ?
N4 N5 1.350(6) . ?
N4 C3 1.467(6) . ?
N5 C6 1.321(7) . ?
N6 C7 1.333(5) . ?
N6 C6 1.346(6) . ?
N6 Zn1 2.020(3) 1_554 ?
C1 C2 1.507(7) . ?
C1 H1A 0.9900 . ?
C1 H1B 0.9900 . ?
C2 C3 1.533(6) . ?
C2 H2A 0.9900 . ?
C2 H2B 0.9900 . ?
C3 H3A 0.9900 . ?
C3 H3B 0.9900 . ?
C4 H4A 0.9500 . ?
C5 H5A 0.9500 . ?
C6 H6A 0.9500 . ?
C7 H7A 0.9500 . ?
C8 C10 1.387(5) 2_666 ?
C8 C9 1.400(5) . ?
C8 C11 1.509(5) . ?
C9 C10 1.387(5) . ?
C9 C12 1.512(5) . ?
C10 C8 1.387(5) 2_666 ?
C10 H10A 0.9500 . ?

loop_
_geom_angle_atom_site_label_1
_geom_angle_atom_site_label_2
_geom_angle_atom_site_label_3
_geom_angle
_geom_angle_site_symmetry_1
_geom_angle_site_symmetry_3
_geom_angle_publ_flag
O1 Zn1 O3 110.02(12) . 2_766 ?
O1 Zn1 N3 114.81(13) . . ?
O3 Zn1 N3 113.24(12) 2_766 . ?
O1 Zn1 N6 118.22(13) . 1_556 ?
O3 Zn1 N6 95.92(13) 2_766 1_556 ?
N3 Zn1 N6 103.17(13) . 1_556 ?
C11 O1 Zn1 110.7(2) . . ?
C12 O3 Zn1 113.3(2) . 2_766 ?
O14 O8 O15 131.7(11) . . ?
O10 O9 O14 120.4(8) . . ?
O8 O14 O9 144.9(12) . . ?
O7 O15 O8 146.0(14) . . ?
C5 N1 N2 110.3(3) . . ?
C5 N1 C1 128.2(4) . . ?
N2 N1 C1 121.5(4) . . ?
C4 N2 N1 103.2(4) . . ?
C5 N3 C4 103.9(3) . . ?
C5 N3 Zn1 130.1(3) . . ?
C4 N3 Zn1 125.8(3) . . ?
C7 N4 N5 110.4(4) . . ?
C7 N4 C3 128.0(4) . . ?
N5 N4 C3 121.6(4) . . ?
C6 N5 N4 102.5(4) . . ?
C7 N6 C6 102.7(4) . . ?
C7 N6 Zn1 129.6(3) . 1_554 ?
C6 N6 Zn1 127.1(3) . 1_554 ?
N1 C1 C2 109.7(4) . . ?
N1 C1 H1A 109.7 . . ?
C2 C1 H1A 109.7 . . ?
N1 C1 H1B 109.7 . . ?
C2 C1 H1B 109.7 . . ?
H1A C1 H1B 108.2 . . ?
C1 C2 C3 112.0(4) . . ?
C1 C2 H2A 109.2 . . ?
C3 C2 H2A 109.2 . . ?
C1 C2 H2B 109.2 . . ?
C3 C2 H2B 109.2 . . ?
H2A C2 H2B 107.9 . . ?
N4 C3 C2 111.7(4) . . ?
N4 C3 H3A 109.3 . . ?
C2 C3 H3A 109.3 . . ?
N4 C3 H3B 109.3 . . ?
C2 C3 H3B 109.3 . . ?
H3A C3 H3B 107.9 . . ?
N2 C4 N3 113.2(4) . . ?
N2 C4 H4A 123.4 . . ?
N3 C4 H4A 123.4 . . ?
N1 C5 N3 109.3(4) . . ?
N1 C5 H5A 125.3 . . ?
N3 C5 H5A 125.3 . . ?
N5 C6 N6 114.2(4) . . ?
N5 C6 H6A 122.9 . . ?
N6 C6 H6A 122.9 . . ?
N4 C7 N6 110.2(4) . . ?
N4 C7 H7A 124.9 . . ?
N6 C7 H7A 124.9 . . ?
C10 C8 C9 119.3(3) 2_666 . ?
C10 C8 C11 118.6(3) 2_666 . ?
C9 C8 C11 122.0(3) . . ?
C10 C9 C8 118.9(3) . . ?
C10 C9 C12 117.5(3) . . ?
C8 C9 C12 123.6(3) . . ?
C8 C10 C9 121.7(3) 2_666 . ?
C8 C10 H10A 119.1 2_666 . ?
C9 C10 H10A 119.1 . . ?
O2 C11 O1 123.9(3) . . ?
O2 C11 C8 119.9(3) . . ?
O1 C11 C8 116.2(3) . . ?
O4 C12 O3 123.8(3) . . ?
O4 C12 C9 120.5(3) . . ?
O3 C12 C9 115.6(3) . . ?

loop_
_geom_torsion_atom_site_label_1
_geom_torsion_atom_site_label_2
_geom_torsion_atom_site_label_3
_geom_torsion_atom_site_label_4
_geom_torsion
_geom_torsion_site_symmetry_1
_geom_torsion_site_symmetry_2
_geom_torsion_site_symmetry_3
_geom_torsion_site_symmetry_4
_geom_torsion_publ_flag
O3 Zn1 O1 C11 -159.9(2) 2_766 . . . ?
N3 Zn1 O1 C11 70.9(3) . . . . ?
N6 Zn1 O1 C11 -51.3(3) 1_556 . . . ?
C5 N1 N2 C4 0.4(6) . . . . ?
C1 N1 N2 C4 178.5(4) . . . . ?
O1 Zn1 N3 C5 81.9(4) . . . . ?
O3 Zn1 N3 C5 -45.6(4) 2_766 . . . ?
N6 Zn1 N3 C5 -148.0(4) 1_556 . . . ?
O1 Zn1 N3 C4 -103.2(3) . . . . ?
O3 Zn1 N3 C4 129.2(3) 2_766 . . . ?
N6 Zn1 N3 C4 26.8(4) 1_556 . . . ?
C7 N4 N5 C6 0.7(5) . . . . ?
C3 N4 N5 C6 179.7(4) . . . . ?
C5 N1 C1 C2 -116.9(5) . . . . ?
N2 N1 C1 C2 65.3(6) . . . . ?
N1 C1 C2 C3 -169.8(4) . . . . ?
C7 N4 C3 C2 -93.9(5) . . . . ?
N5 N4 C3 C2 87.3(6) . . . . ?
C1 C2 C3 N4 -67.8(6) . . . . ?
N1 N2 C4 N3 -0.8(6) . . . . ?
C5 N3 C4 N2 0.9(5) . . . . ?
Zn1 N3 C4 N2 -175.0(3) . . . . ?
N2 N1 C5 N3 0.2(5) . . . . ?
C1 N1 C5 N3 -177.7(4) . . . . ?
C4 N3 C5 N1 -0.7(5) . . . . ?
Zn1 N3 C5 N1 175.0(3) . . . . ?
N4 N5 C6 N6 -0.9(6) . . . . ?
C7 N6 C6 N5 0.8(6) . . . . ?
Zn1 N6 C6 N5 -170.6(4) 1_554 . . . ?
N5 N4 C7 N6 -0.2(5) . . . . ?
C3 N4 C7 N6 -179.1(4) . . . . ?
C6 N6 C7 N4 -0.4(5) . . . . ?
Zn1 N6 C7 N4 170.7(3) 1_554 . . . ?
C10 C8 C9 C10 -0.8(6) 2_666 . . . ?
C11 C8 C9 C10 177.0(3) . . . . ?
C10 C8 C9 C12 177.3(3) 2_666 . . . ?
C11 C8 C9 C12 -4.9(5) . . . . ?
C8 C9 C10 C8 0.9(6) . . . 2_666 ?
C12 C9 C10 C8 -177.4(3) . . . 2_666 ?
Zn1 O1 C11 O2 -2.9(5) . . . . ?
Zn1 O1 C11 C8 178.8(2) . . . . ?
C10 C8 C11 O2 -14.5(5) 2_666 . . . ?
C9 C8 C11 O2 167.6(4) . . . . ?
C10 C8 C11 O1 163.9(3) 2_666 . . . ?
C9 C8 C11 O1 -14.0(5) . . . . ?
Zn1 O3 C12 O4 5.0(5) 2_766 . . . ?
Zn1 O3 C12 C9 180.0(2) 2_766 . . . ?
C10 C9 C12 O4 104.2(4) . . . . ?
C8 C9 C12 O4 -73.9(5) . . . . ?
C10 C9 C12 O3 -71.0(4) . . . . ?
C8 C9 C12 O3 110.9(4) . . . . ?

_diffrn_measured_fraction_theta_max 0.975
_diffrn_reflns_theta_full        27.50
_diffrn_measured_fraction_theta_full 0.975
_refine_diff_density_max         0.902
_refine_diff_density_min         -0.425
_refine_diff_density_rms         0.107


