####################################################################### 
# 
# This file contains crystal structure data downloaded from the 
# Cambridge Structural Database (CSD) hosted by the Cambridge 
# Crystallographic Data Centre (CCDC).
# 
# Full information about CCDC data access policies and citation 
# guidelines are available at http://www.ccdc.cam.ac.uk/access/V1 
# 
# Audit and citation data items may have been added by the CCDC. 
# Please retain this information to preserve the provenance of 
# this file and to allow appropriate attribution of the data. 
# 
#######################################################################

data_'complex_A_[Cu1]'
_audit_block_doi                 10.5517/cc9rsc5
_database_code_depnum_ccdc_archive 'CCDC 290977'
loop_
_citation_id
_citation_doi
_citation_year
1 10.1039/b604591j 2006
_audit_update_record             
;
2005-11-28 deposited with the CCDC.	2024-07-10 downloaded from the CCDC.
;

_audit_creation_method           SHELXL-97
_chemical_name_systematic        
;
?
;
_chemical_name_common            ?
_chemical_melting_point          ?
_chemical_formula_moiety         '0.5(C38 H18 Cu1 F12 N2 O4)'
_chemical_formula_sum            'C19 H9 Cu0.5 F6 N O2'
_chemical_formula_weight         429.04

loop_
_atom_type_symbol
_atom_type_description
_atom_type_scat_dispersion_real
_atom_type_scat_dispersion_imag
_atom_type_scat_source
C C 0.0033 0.0016 'International Tables Vol C Tables 4.2.6.8 and 6.1.1.4'
H H 0.0000 0.0000 'International Tables Vol C Tables 4.2.6.8 and 6.1.1.4'
F F 0.0171 0.0103 'International Tables Vol C Tables 4.2.6.8 and 6.1.1.4'
N N 0.0061 0.0033 'International Tables Vol C Tables 4.2.6.8 and 6.1.1.4'
O O 0.0106 0.0060 'International Tables Vol C Tables 4.2.6.8 and 6.1.1.4'
Cu Cu 0.3201 1.2651 'International Tables Vol C Tables 4.2.6.8 and 6.1.1.4'

_symmetry_cell_setting           Orthorhombic
_symmetry_space_group_name_H-M   'P n a n'

loop_
_symmetry_equiv_pos_as_xyz
'x, y, z'
'-x+1/2, y, -z'
'-x+1/2, -y+1/2, z+1/2'
'x, -y+1/2, -z+1/2'
'-x, -y, -z'
'x-1/2, -y, z'
'x-1/2, y-1/2, -z-1/2'
'-x, y-1/2, z-1/2'

_cell_length_a                   10.9340(10)
_cell_length_b                   14.846(2)
_cell_length_c                   25.624(4)
_cell_angle_alpha                90.00
_cell_angle_beta                 90.00
_cell_angle_gamma                90.00
_cell_volume                     4159.4(9)
_cell_formula_units_Z            8
_cell_measurement_temperature    295(2)
_cell_measurement_reflns_used    5000
_cell_measurement_theta_min      ?
_cell_measurement_theta_max      ?

_exptl_crystal_description       staff-like'
_exptl_crystal_colour            yellow-brown
_exptl_crystal_size_max          0.40
_exptl_crystal_size_mid          0.10
_exptl_crystal_size_min          0.08
_exptl_crystal_density_meas      ?
_exptl_crystal_density_diffrn    1.370
_exptl_crystal_density_method    'not measured'
_exptl_crystal_F_000             1716
_exptl_absorpt_coefficient_mu    0.617
_exptl_absorpt_correction_type   numerical
_exptl_absorpt_correction_T_min  0.78
_exptl_absorpt_correction_T_max  0.90
_exptl_absorpt_process_details   ?

_exptl_special_details           
;
Numerical absorption corrections have been carried out using
programs X-SHAPE and X-RED (Stoe & Cie GmbH 1997)
;

_diffrn_ambient_temperature      295(2)
_diffrn_radiation_wavelength     0.71073
_diffrn_radiation_type           MoK\a
_diffrn_radiation_source         'fine-focus sealed tube'
_diffrn_radiation_monochromator  graphite
_diffrn_measurement_device_type  'STOE IPDS'
_diffrn_measurement_method       'area detector scans'
_diffrn_detector_area_resol_mean ?
_diffrn_standards_number         ?
_diffrn_standards_interval_count ?
_diffrn_standards_interval_time  ?
_diffrn_standards_decay_%        ?
_diffrn_reflns_number            48108
_diffrn_reflns_av_R_equivalents  0.0920
_diffrn_reflns_av_sigmaI/netI    0.0804
_diffrn_reflns_limit_h_min       -12
_diffrn_reflns_limit_h_max       12
_diffrn_reflns_limit_k_min       -18
_diffrn_reflns_limit_k_max       18
_diffrn_reflns_limit_l_min       -22
_diffrn_reflns_limit_l_max       31
_diffrn_reflns_theta_min         3.41
_diffrn_reflns_theta_max         25.86
_reflns_number_total             3941
_reflns_number_gt                1745
_reflns_threshold_expression     >2sigma(I)

_computing_data_collection       'Stoe & Cie GmbH 1997 (Publications 48005-014)'
_computing_cell_refinement       'Stoe & Cie GmbH 1997 (Publications 48005-014)'
_computing_data_reduction        'Stoe & Cie GmbH 1997 (Publications 48005-014)'
_computing_structure_solution    'SHELXS-97 (Sheldrick, 1990)'
_computing_structure_refinement  'SHELXL-97 (Sheldrick, 1997)'
_computing_molecular_graphics    
'SHELXTL/XP/PC (Sheldrick, 1990) and DIAMOND (Brandenburg & Benrdt, 1996)'
_computing_publication_material  'SHELXL-97 (Sheldrick, 1997)'

_refine_special_details          
;
Refinement of F^2^ against ALL reflections. The weighted R-factor wR and
goodness of fit S are based on F^2^, conventional R-factors R are based
on F, with F set to zero for negative F^2^. The threshold expression of
F^2^ > 2sigma(F^2^) is used only for calculating R-factors(gt) etc. and is
not relevant to the choice of reflections for refinement. R-factors based
on F^2^ are statistically about twice as large as those based on F, and R-
factors based on ALL data will be even larger.
;

_refine_ls_structure_factor_coef Fsqd
_refine_ls_matrix_type           full
_refine_ls_weighting_scheme      calc
_refine_ls_weighting_details     
'calc w=1/[\s^2^(Fo^2^)+(0.0700P)^2^+0.0000P] where P=(Fo^2^+2Fc^2^)/3'
_atom_sites_solution_primary     direct
_atom_sites_solution_secondary   difmap
_atom_sites_solution_hydrogens   geom
_refine_ls_hydrogen_treatment    mixed
_refine_ls_extinction_method     none
_refine_ls_extinction_coef       ?
_refine_ls_number_reflns         3941
_refine_ls_number_parameters     268
_refine_ls_number_restraints     45
_refine_ls_R_factor_all          0.0969
_refine_ls_R_factor_gt           0.0523
_refine_ls_wR_factor_ref         0.1382
_refine_ls_wR_factor_gt          0.1290
_refine_ls_goodness_of_fit_ref   0.826
_refine_ls_restrained_S_all      0.853
_refine_ls_shift/su_max          0.000
_refine_ls_shift/su_mean         0.000

loop_
_atom_site_label
_atom_site_type_symbol
_atom_site_fract_x
_atom_site_fract_y
_atom_site_fract_z
_atom_site_U_iso_or_equiv
_atom_site_adp_type
_atom_site_occupancy
_atom_site_symmetry_multiplicity
_atom_site_calc_flag
_atom_site_refinement_flags
_atom_site_disorder_assembly
_atom_site_disorder_group
Cu Cu 0.14764(6) 0.2500 0.7500 0.0607(2) Uani 1 2 d S . .
N1 N 0.0212(3) 0.1999(3) 0.70111(13) 0.0644(9) Uani 1 1 d . . .
C1 C 0.0134(5) 0.1136(3) 0.69023(18) 0.0798(14) Uani 1 1 d . . .
H1 H 0.0680 0.0744 0.7063 0.112(19) Uiso 1 1 calc R . .
C2 C -0.0727(5) 0.0781(4) 0.65579(18) 0.0917(16) Uani 1 1 d . . .
H2 H -0.0755 0.0165 0.6494 0.110(18) Uiso 1 1 calc R . .
C3 C -0.1528(5) 0.1350(4) 0.63160(16) 0.0764(12) Uani 1 1 d . . .
C4 C -0.1442(5) 0.2242(3) 0.64210(19) 0.0881(15) Uani 1 1 d . . .
H4 H -0.1967 0.2649 0.6261 0.078(14) Uiso 1 1 calc R . .
C5 C -0.0570(4) 0.2540(4) 0.67664(18) 0.0855(13) Uani 1 1 d . . .
H5 H -0.0525 0.3155 0.6833 0.101(17) Uiso 1 1 calc R . .
C6 C -0.2427(4) 0.0990(4) 0.59567(17) 0.0802(13) Uani 1 1 d . . .
C7 C -0.3168(4) 0.0711(3) 0.56684(17) 0.0788(13) Uani 1 1 d . . .
C8 C -0.4091(4) 0.0348(4) 0.53257(15) 0.0681(12) Uani 1 1 d . . .
C9 C -0.4233(4) -0.0579(4) 0.52911(15) 0.0701(13) Uani 1 1 d . . .
C10 C -0.3483(5) -0.1193(4) 0.55788(19) 0.0915(15) Uani 1 1 d . . .
H10 H -0.2868 -0.0965 0.5792 0.13(2) Uiso 1 1 calc R . .
C11 C -0.3643(7) -0.2081(5) 0.5550(2) 0.1115(19) Uani 1 1 d . . .
H11 H -0.3140 -0.2465 0.5740 0.12(2) Uiso 1 1 calc R . .
C12 C -0.4579(7) -0.2443(5) 0.5229(2) 0.1152(18) Uani 1 1 d . . .
H12 H -0.4697 -0.3063 0.5212 0.14(3) Uiso 1 1 calc R . .
C13 C -0.5307(5) -0.1881(4) 0.4944(2) 0.0942(16) Uani 1 1 d . . .
H13 H -0.5911 -0.2127 0.4732 0.091(16) Uiso 1 1 calc R . .
C14 C -0.5168(4) -0.0946(4) 0.49637(16) 0.0712(12) Uani 1 1 d . . .
O2 O 0.2802(3) 0.2103(2) 0.70163(12) 0.0753(9) Uani 1 1 d . . .
C21 C 0.3564(5) 0.2610(4) 0.68028(17) 0.0791(12) Uani 1 1 d . . .
C22 C 0.4695(5) 0.2096(5) 0.6609(3) 0.113(2) Uani 1 1 d D . .
F1 F 0.4373(4) 0.1483(2) 0.62591(15) 0.1315(13) Uani 1 1 d D . .
F2 F 0.5511(4) 0.2612(3) 0.6383(2) 0.180(2) Uani 1 1 d DU . .
F3 F 0.5208(4) 0.1662(4) 0.6978(2) 0.200(3) Uani 1 1 d DU . .
C23 C 0.3516(6) 0.3517(4) 0.6711(2) 0.1019(17) Uani 1 1 d . . .
H23 H 0.4174 0.3786 0.6542 0.111(19) Uiso 1 1 calc R . .
C24 C 0.2527(6) 0.4063(4) 0.6859(2) 0.0879(14) Uani 1 1 d . . .
C25 C 0.2582(9) 0.5031(7) 0.6702(4) 0.188(4) Uani 1 1 d DU . .
F4 F 0.3520(7) 0.5307(4) 0.6463(3) 0.279(4) Uani 1 1 d DU . .
F5 F 0.1673(8) 0.5292(5) 0.6442(5) 0.327(6) Uani 1 1 d DU . .
F6 F 0.2548(13) 0.5527(4) 0.7111(4) 0.352(7) Uani 1 1 d DU . .
O3 O 0.1598(3) 0.3834(2) 0.70738(12) 0.0824(9) Uani 1 1 d . . .

loop_
_atom_site_aniso_label
_atom_site_aniso_U_11
_atom_site_aniso_U_22
_atom_site_aniso_U_33
_atom_site_aniso_U_23
_atom_site_aniso_U_13
_atom_site_aniso_U_12
Cu 0.0403(3) 0.0775(4) 0.0641(4) -0.0200(4) 0.000 0.000
N1 0.047(2) 0.078(3) 0.069(2) -0.0226(18) -0.0081(18) 0.0023(18)
C1 0.071(3) 0.081(3) 0.087(3) -0.022(3) -0.025(3) 0.002(3)
C2 0.100(4) 0.085(4) 0.090(3) -0.025(3) -0.023(3) -0.009(3)
C3 0.054(3) 0.109(4) 0.066(2) -0.027(3) -0.004(2) -0.003(3)
C4 0.058(3) 0.101(4) 0.105(3) -0.025(3) -0.028(3) 0.013(3)
C5 0.065(3) 0.082(3) 0.109(3) -0.032(3) -0.026(3) 0.004(3)
C6 0.053(3) 0.118(4) 0.069(3) -0.031(3) -0.002(2) -0.004(3)
C7 0.064(3) 0.109(4) 0.063(3) -0.024(3) 0.007(2) -0.010(3)
C8 0.047(2) 0.110(4) 0.047(2) -0.023(2) 0.0025(19) -0.012(3)
C9 0.047(3) 0.115(4) 0.048(2) -0.013(2) 0.003(2) -0.009(3)
C10 0.069(3) 0.130(5) 0.076(3) -0.014(3) 0.001(3) -0.005(4)
C11 0.108(5) 0.125(5) 0.102(4) 0.000(4) -0.016(4) 0.013(5)
C12 0.125(5) 0.098(5) 0.122(5) -0.010(4) -0.007(4) -0.003(5)
C13 0.086(4) 0.112(4) 0.085(3) -0.016(3) -0.006(3) -0.015(4)
C14 0.057(3) 0.103(4) 0.053(2) -0.019(2) 0.007(2) -0.012(3)
O2 0.057(2) 0.084(2) 0.085(2) -0.0171(16) 0.0090(17) -0.0034(16)
C21 0.061(3) 0.099(4) 0.077(3) -0.027(3) 0.011(3) -0.008(3)
C22 0.062(4) 0.156(6) 0.120(5) -0.032(5) 0.032(4) -0.002(4)
F1 0.123(3) 0.130(3) 0.142(3) -0.053(2) 0.044(2) 0.003(2)
F2 0.094(3) 0.163(4) 0.282(5) -0.074(4) 0.089(3) -0.023(3)
F3 0.119(4) 0.327(7) 0.153(4) 0.000(4) 0.008(3) 0.121(4)
C23 0.082(4) 0.101(4) 0.123(4) -0.012(3) 0.032(4) -0.009(4)
C24 0.080(4) 0.077(3) 0.107(4) -0.007(3) 0.009(3) -0.014(3)
C25 0.136(8) 0.144(8) 0.284(12) -0.008(9) 0.047(9) -0.041(7)
F4 0.244(7) 0.127(4) 0.464(11) 0.050(5) 0.172(8) -0.021(4)
F5 0.243(9) 0.219(7) 0.520(16) 0.208(10) -0.014(9) 0.008(6)
F6 0.602(19) 0.116(4) 0.336(9) -0.038(5) 0.130(13) -0.056(7)
O3 0.060(2) 0.090(2) 0.097(2) -0.0062(17) 0.0124(19) 0.0021(19)

_geom_special_details            
;
All esds (except the esd in the dihedral angle between two l.s. planes)
are estimated using the full covariance matrix. The cell esds are taken
into account individually in the estimation of esds in distances, angles
and torsion angles; correlations between esds in cell parameters are only
used when they are defined by crystal symmetry. An approximate (isotropic)
treatment of cell esds is used for estimating esds involving l.s. planes.
;

loop_
_geom_bond_atom_site_label_1
_geom_bond_atom_site_label_2
_geom_bond_distance
_geom_bond_site_symmetry_2
_geom_bond_publ_flag
Cu O2 1.996(3) 4_556 ?
Cu O2 1.996(3) . ?
Cu N1 2.008(3) . ?
Cu N1 2.008(3) 4_556 ?
Cu O3 2.266(3) . ?
Cu O3 2.266(3) 4_556 ?
Cu O3 2.266(3) 4_556 ?
N1 C1 1.314(5) . ?
N1 C5 1.330(6) . ?
C1 C2 1.394(6) . ?
C1 H1 0.9300 . ?
C2 C3 1.366(7) . ?
C2 H2 0.9300 . ?
C3 C4 1.355(6) . ?
C3 C6 1.449(6) . ?
C4 C5 1.373(6) . ?
C4 H4 0.9300 . ?
C5 H5 0.9300 . ?
C6 C7 1.172(6) . ?
C7 C8 1.443(6) . ?
C8 C9 1.388(7) . ?
C8 C14 1.412(7) 5_456 ?
C9 C10 1.429(7) . ?
C9 C14 1.431(6) . ?
C10 C11 1.333(8) . ?
C10 H10 0.9300 . ?
C11 C12 1.418(9) . ?
C11 H11 0.9300 . ?
C12 C13 1.364(8) . ?
C12 H12 0.9300 . ?
C13 C14 1.398(7) . ?
C13 H13 0.9300 . ?
C14 C8 1.412(7) 5_456 ?
O2 C21 1.249(6) . ?
C21 C23 1.368(7) . ?
C21 C22 1.535(8) . ?
C22 F3 1.273(6) . ?
C22 F2 1.311(6) . ?
C22 F1 1.326(6) . ?
C23 C24 1.403(7) . ?
C23 H23 0.9300 . ?
C24 O3 1.204(6) . ?
C24 C25 1.494(11) . ?
C25 F5 1.257(8) . ?
C25 F4 1.264(8) . ?
C25 F6 1.281(8) . ?

loop_
_geom_angle_atom_site_label_1
_geom_angle_atom_site_label_2
_geom_angle_atom_site_label_3
_geom_angle
_geom_angle_site_symmetry_1
_geom_angle_site_symmetry_3
_geom_angle_publ_flag
O2 Cu O2 86.88(18) 4_556 . ?
O2 Cu N1 175.18(15) 4_556 . ?
O2 Cu N1 90.18(12) . . ?
O2 Cu N1 90.18(12) 4_556 4_556 ?
O2 Cu N1 175.18(15) . 4_556 ?
N1 Cu N1 93.0(2) . 4_556 ?
O2 Cu O3 89.92(13) 4_556 . ?
O2 Cu O3 85.19(13) . . ?
N1 Cu O3 93.64(14) . . ?
N1 Cu O3 91.00(14) 4_556 . ?
O2 Cu O3 85.19(13) 4_556 4_556 ?
O2 Cu O3 89.92(13) . 4_556 ?
N1 Cu O3 91.00(14) . 4_556 ?
N1 Cu O3 93.64(14) 4_556 4_556 ?
O3 Cu O3 173.27(18) . 4_556 ?
O2 Cu O3 85.19(13) 4_556 4_556 ?
O2 Cu O3 89.92(13) . 4_556 ?
N1 Cu O3 91.00(14) . 4_556 ?
N1 Cu O3 93.64(14) 4_556 4_556 ?
O3 Cu O3 173.27(18) . 4_556 ?
O3 Cu O3 0.00(8) 4_556 4_556 ?
C1 N1 C5 116.5(4) . . ?
C1 N1 Cu 122.6(3) . . ?
C5 N1 Cu 120.9(3) . . ?
N1 C1 C2 123.2(5) . . ?
N1 C1 H1 118.4 . . ?
C2 C1 H1 118.4 . . ?
C3 C2 C1 119.1(5) . . ?
C3 C2 H2 120.4 . . ?
C1 C2 H2 120.4 . . ?
C4 C3 C2 118.0(5) . . ?
C4 C3 C6 122.3(5) . . ?
C2 C3 C6 119.7(5) . . ?
C3 C4 C5 119.4(5) . . ?
C3 C4 H4 120.3 . . ?
C5 C4 H4 120.3 . . ?
N1 C5 C4 123.8(5) . . ?
N1 C5 H5 118.1 . . ?
C4 C5 H5 118.1 . . ?
C7 C6 C3 178.8(6) . . ?
C6 C7 C8 178.2(6) . . ?
C9 C8 C14 121.8(4) . 5_456 ?
C9 C8 C7 119.2(5) . . ?
C14 C8 C7 119.1(5) 5_456 . ?
C8 C9 C10 122.3(5) . . ?
C8 C9 C14 119.6(5) . . ?
C10 C9 C14 118.0(5) . . ?
C11 C10 C9 121.8(6) . . ?
C11 C10 H10 119.1 . . ?
C9 C10 H10 119.1 . . ?
C10 C11 C12 120.1(7) . . ?
C10 C11 H11 119.9 . . ?
C12 C11 H11 119.9 . . ?
C13 C12 C11 120.0(7) . . ?
C13 C12 H12 120.0 . . ?
C11 C12 H12 120.0 . . ?
C12 C13 C14 121.6(6) . . ?
C12 C13 H13 119.2 . . ?
C14 C13 H13 119.2 . . ?
C8 C14 C13 122.9(5) 5_456 . ?
C8 C14 C9 118.6(4) 5_456 . ?
C13 C14 C9 118.5(5) . . ?
C21 O2 Cu 125.4(3) . . ?
O2 C21 C23 130.0(5) . . ?
O2 C21 C22 112.4(5) . . ?
C23 C21 C22 117.7(5) . . ?
F3 C22 F2 108.9(6) . . ?
F3 C22 F1 105.7(6) . . ?
F2 C22 F1 106.4(5) . . ?
F3 C22 C21 111.5(5) . . ?
F2 C22 C21 113.7(6) . . ?
F1 C22 C21 110.3(5) . . ?
C21 C23 C24 123.5(5) . . ?
C21 C23 H23 118.3 . . ?
C24 C23 H23 118.3 . . ?
O3 C24 C23 127.6(5) . . ?
O3 C24 C25 115.3(6) . . ?
C23 C24 C25 116.9(6) . . ?
F5 C25 F4 106.5(9) . . ?
F5 C25 F6 103.5(11) . . ?
F4 C25 F6 103.5(9) . . ?
F5 C25 C24 114.0(8) . . ?
F4 C25 C24 118.4(8) . . ?
F6 C25 C24 109.4(8) . . ?
C24 O3 Cu 121.1(3) . . ?

loop_
_geom_torsion_atom_site_label_1
_geom_torsion_atom_site_label_2
_geom_torsion_atom_site_label_3
_geom_torsion_atom_site_label_4
_geom_torsion
_geom_torsion_site_symmetry_1
_geom_torsion_site_symmetry_2
_geom_torsion_site_symmetry_3
_geom_torsion_site_symmetry_4
_geom_torsion_publ_flag
O2 Cu N1 C1 11(2) 4_556 . . . ?
O2 Cu N1 C1 63.7(4) . . . . ?
N1 Cu N1 C1 -120.0(4) 4_556 . . . ?
O3 Cu N1 C1 148.8(4) . . . . ?
O3 Cu N1 C1 -26.3(4) 4_556 . . . ?
O3 Cu N1 C1 -26.3(4) 4_556 . . . ?
O2 Cu N1 C5 -166.5(16) 4_556 . . . ?
O2 Cu N1 C5 -114.1(4) . . . . ?
N1 Cu N1 C5 62.3(3) 4_556 . . . ?
O3 Cu N1 C5 -28.9(4) . . . . ?
O3 Cu N1 C5 156.0(4) 4_556 . . . ?
O3 Cu N1 C5 156.0(4) 4_556 . . . ?
C5 N1 C1 C2 -1.2(7) . . . . ?
Cu N1 C1 C2 -179.0(4) . . . . ?
N1 C1 C2 C3 0.5(8) . . . . ?
C1 C2 C3 C4 0.4(8) . . . . ?
C1 C2 C3 C6 179.9(4) . . . . ?
C2 C3 C4 C5 -0.6(8) . . . . ?
C6 C3 C4 C5 179.9(4) . . . . ?
C1 N1 C5 C4 1.0(7) . . . . ?
Cu N1 C5 C4 178.9(4) . . . . ?
C3 C4 C5 N1 -0.1(8) . . . . ?
C4 C3 C6 C7 -31(29) . . . . ?
C2 C3 C6 C7 150(29) . . . . ?
C3 C6 C7 C8 -99(36) . . . . ?
C6 C7 C8 C9 -43(18) . . . . ?
C6 C7 C8 C14 136(18) . . . 5_456 ?
C14 C8 C9 C10 179.5(4) 5_456 . . . ?
C7 C8 C9 C10 -0.8(7) . . . . ?
C14 C8 C9 C14 -1.4(7) 5_456 . . . ?
C7 C8 C9 C14 178.2(3) . . . . ?
C8 C9 C10 C11 178.7(5) . . . . ?
C14 C9 C10 C11 -0.3(7) . . . . ?
C9 C10 C11 C12 -0.3(9) . . . . ?
C10 C11 C12 C13 0.9(9) . . . . ?
C11 C12 C13 C14 -0.8(9) . . . . ?
C12 C13 C14 C8 -179.9(5) . . . 5_456 ?
C12 C13 C14 C9 0.2(8) . . . . ?
C8 C9 C14 C8 1.4(7) . . . 5_456 ?
C10 C9 C14 C8 -179.5(4) . . . 5_456 ?
C8 C9 C14 C13 -178.7(4) . . . . ?
C10 C9 C14 C13 0.4(6) . . . . ?
O2 Cu O2 C21 -63.8(3) 4_556 . . . ?
N1 Cu O2 C21 120.0(4) . . . . ?
N1 Cu O2 C21 -11(2) 4_556 . . . ?
O3 Cu O2 C21 26.3(4) . . . . ?
O3 Cu O2 C21 -149.0(4) 4_556 . . . ?
O3 Cu O2 C21 -149.0(4) 4_556 . . . ?
Cu O2 C21 C23 -20.9(7) . . . . ?
Cu O2 C21 C22 160.8(3) . . . . ?
O2 C21 C22 F3 -56.5(7) . . . . ?
C23 C21 C22 F3 124.9(6) . . . . ?
O2 C21 C22 F2 180.0(5) . . . . ?
C23 C21 C22 F2 1.4(8) . . . . ?
O2 C21 C22 F1 60.6(6) . . . . ?
C23 C21 C22 F1 -117.9(6) . . . . ?
O2 C21 C23 C24 0.6(9) . . . . ?
C22 C21 C23 C24 178.8(5) . . . . ?
C21 C23 C24 O3 -0.9(10) . . . . ?
C21 C23 C24 C25 -176.4(7) . . . . ?
O3 C24 C25 F5 -51.7(12) . . . . ?
C23 C24 C25 F5 124.4(9) . . . . ?
O3 C24 C25 F4 -178.2(8) . . . . ?
C23 C24 C25 F4 -2.1(12) . . . . ?
O3 C24 C25 F6 63.6(11) . . . . ?
C23 C24 C25 F6 -120.2(10) . . . . ?
C23 C24 O3 Cu 18.0(8) . . . . ?
C25 C24 O3 Cu -166.4(5) . . . . ?
O2 Cu O3 C24 61.4(4) 4_556 . . . ?
O2 Cu O3 C24 -25.5(4) . . . . ?
N1 Cu O3 C24 -115.4(4) . . . . ?
N1 Cu O3 C24 151.5(4) 4_556 . . . ?
O3 Cu O3 C24 18.0(4) 4_556 . . . ?
O3 Cu O3 C24 18.0(4) 4_556 . . . ?

_diffrn_measured_fraction_theta_max 0.976
_diffrn_reflns_theta_full        25.86
_diffrn_measured_fraction_theta_full 0.976
_refine_diff_density_max         0.379
_refine_diff_density_min         -0.238
_refine_diff_density_rms         0.048
