
#######################################################################
#
#                 Cambridge Crystallographic Data Centre
#                                CCDC
#
#######################################################################
#
# If this CIF has been generated from an entry in the Cambridge
# Structural Database, then it will include bibliographic, chemical,
# crystal, experimental, refinement or atomic coordinate data resulting
# from the CCDC's data processing and validation procedures.
#
#######################################################################

data_CSD_CIF_GEVREE
_audit_creation_date 1989-05-23
_audit_creation_method CSD-ConQuest-V1
_database_code_CSD GEVREE
_database_code_depnum_ccdc_archive 'CCDC 1166683'
_chemical_formula_sum 'C16 H14 O1'
_chemical_formula_moiety
;
C16 H14 O1
;
_journal_coden_Cambridge 154
_journal_volume 41
_journal_year 1988
_journal_page_first 727
_journal_name_full 'Aust.J.Chem. '
loop_
_publ_author_name
"O.Axelsson"
"H.-D.Becker"
"B.W.Skelton"
"H.Sorenson"
"A.H.White"
_chemical_name_systematic
;
(E)-2,4-Diphenylbut-2-enal
;
_chemical_name_common
;
Teaching Subset: Fundamental Chemistry
;
_chemical_melting_point 312
_cell_volume   1244.468
_exptl_crystal_colour 'colorless'
_exptl_crystal_density_diffrn 1.19
_diffrn_ambient_temperature ?
_diffrn_special_details
;
The study was carried out at room temperature,in the range 283-303K

;
#These two values have been output from a single CSD field.
_refine_ls_R_factor_gt 0.037
_refine_ls_wR_factor_gt 0.037
_symmetry_cell_setting monoclinic
_symmetry_space_group_name_H-M 'P 21/c'
_symmetry_Int_Tables_number 14
loop_
_symmetry_equiv_pos_site_id
_symmetry_equiv_pos_as_xyz
1 x,y,z
2 -x,1/2+y,1/2-z
3 -x,-y,-z
4 x,-1/2-y,-1/2+z
_cell_length_a 5.781(2)
_cell_length_b 23.163(8)
_cell_length_c 9.297(5)
_cell_angle_alpha 90
_cell_angle_beta 91.54(4)
_cell_angle_gamma 90
_cell_formula_units_Z 4
loop_
_atom_type_symbol
_atom_type_radius_bond
C 0.68
H 0.23
O 0.68
loop_
_atom_site_label
_atom_site_type_symbol
_atom_site_fract_x
_atom_site_fract_y
_atom_site_fract_z
C1 C 0.2777(4) 0.67113(9) 0.2485(2)
C2 C 0.0833(4) 0.6839(1) 0.3274(3)
C3 C 0.0650(5) 0.6628(1) 0.4665(3)
C4 C 0.2370(6) 0.6292(1) 0.5264(3)
C5 C 0.4287(5) 0.6165(1) 0.4502(3)
C6 C 0.4499(5) 0.6376(1) 0.3121(3)
C7 C 0.4907(5) 0.7357(1) 0.0757(3)
O1 O 0.6155(3) 0.75582(8) 0.1689(3)
C8 C 0.3057(4) 0.69325(9) 0.1002(3)
C9 C 0.1736(5) 0.6776(1) -0.0135(3)
C10 C -0.0271(5) 0.6374(1) -0.0155(3)
C11 C 0.0051(4) 0.5849(1) -0.1108(2)
C12 C -0.1644(5) 0.5683(1) -0.2093(3)
C13 C -0.1380(6) 0.5196(1) -0.2926(3)
C14 C 0.0603(6) 0.4871(1) -0.2795(3)
C15 C 0.2301(6) 0.5033(1) -0.1820(3)
C16 C 0.2029(5) 0.5517(1) -0.0981(3)
H1 H -0.034(4) 0.709(1) 0.282(2)
H2 H -0.071(4) 0.674(1) 0.521(2)
H3 H 0.225(4) 0.616(1) 0.623(3)
H4 H 0.559(4) 0.592(1) 0.491(3)
H5 H 0.588(4) 0.630(1) 0.261(2)
H6 H 0.510(4) 0.748(1) -0.029(3)
H7 H 0.214(4) 0.694(1) -0.102(3)
H8 H -0.181(5) 0.660(1) -0.046(3)
H9 H -0.055(4) 0.624(1) 0.079(3)
H10 H -0.309(4) 0.592(1) -0.217(2)
H11 H -0.252(4) 0.510(1) -0.367(3)
H12 H 0.078(4) 0.454(1) -0.333(3)
H13 H 0.373(4) 0.482(1) -0.173(3)
H14 H 0.334(4) 0.565(1) -0.028(3)
#END
