####################################################################### 
# 
# This file contains crystal structure data downloaded from the 
# Cambridge Structural Database (CSD) hosted by the Cambridge 
# Crystallographic Data Centre (CCDC).
# 
# Full information about CCDC data access policies and citation 
# guidelines are available at http://www.ccdc.cam.ac.uk/access/V1 
# 
# Audit and citation data items may have been added by the CCDC. 
# Please retain this information to preserve the provenance of 
# this file and to allow appropriate attribution of the data. 
# 
#######################################################################

data_6
_audit_block_doi                 10.5517/ccym05q
_database_code_depnum_ccdc_archive 'CCDC 882203'
loop_
_citation_id
_citation_doi
_citation_year
1 10.1002/chem.201201797 2013
_audit_update_record             
;
2012-05-14 deposited with the CCDC.	2024-07-10 downloaded from the CCDC.
;
#TrackingRef 'rks1.cif'


_audit_creation_method           SHELXL-97
_chemical_name_systematic        
;
?
;
_chemical_name_common            ?
_chemical_melting_point          ?
_chemical_formula_moiety         ?
_chemical_formula_sum            'C30 H24 Ag2 Cl2 N4 O10'
_chemical_formula_weight         887.17

loop_
_atom_type_symbol
_atom_type_description
_atom_type_scat_dispersion_real
_atom_type_scat_dispersion_imag
_atom_type_scat_source
C C 0.0033 0.0016 'International Tables Vol C Tables 4.2.6.8 and 6.1.1.4'
H H 0.0000 0.0000 'International Tables Vol C Tables 4.2.6.8 and 6.1.1.4'
N N 0.0061 0.0033 'International Tables Vol C Tables 4.2.6.8 and 6.1.1.4'
O O 0.0106 0.0060 'International Tables Vol C Tables 4.2.6.8 and 6.1.1.4'
Cl Cl 0.1484 0.1585 'International Tables Vol C Tables 4.2.6.8 and 6.1.1.4'
Ag Ag -0.8971 1.1015 'International Tables Vol C Tables 4.2.6.8 and 6.1.1.4'

_symmetry_cell_setting           Triclinic
_symmetry_space_group_name_H-M   P-1

loop_
_symmetry_equiv_pos_as_xyz
'x, y, z'
'-x, -y, -z'

_cell_length_a                   8.901(3)
_cell_length_b                   13.883(5)
_cell_length_c                   17.787(6)
_cell_angle_alpha                75.295(10)
_cell_angle_beta                 77.174(11)
_cell_angle_gamma                85.833(10)
_cell_volume                     2072.5(12)
_cell_formula_units_Z            2
_cell_measurement_temperature    293(2)
_cell_measurement_reflns_used    1292
_cell_measurement_theta_min      1.21
_cell_measurement_theta_max      25.00

_exptl_crystal_description       plate
_exptl_crystal_colour            'light yellow'
_exptl_crystal_size_max          0.20
_exptl_crystal_size_mid          0.17
_exptl_crystal_size_min          0.12
_exptl_crystal_density_meas      'not measured'
_exptl_crystal_density_diffrn    1.422
_exptl_crystal_density_method    'not measured'
_exptl_crystal_F_000             880
_exptl_absorpt_coefficient_mu    1.123
_exptl_absorpt_correction_type   empirical
_exptl_absorpt_correction_T_min  0.799
_exptl_absorpt_correction_T_max  0.874
_exptl_absorpt_process_details   sadabs

_exptl_special_details           
;
?
;

_diffrn_ambient_temperature      293(2)
_diffrn_radiation_wavelength     0.71073
_diffrn_radiation_type           MoK\a
_diffrn_radiation_source         'fine-focus sealed tube'
_diffrn_radiation_monochromator  graphite
_diffrn_measurement_device_type  'Bruker CCD APEX-2'
_diffrn_measurement_method       hemisphere
_diffrn_detector_area_resol_mean ?
_diffrn_standards_number         ?
_diffrn_standards_interval_count ?
_diffrn_standards_interval_time  ?
_diffrn_standards_decay_%        ?
_diffrn_reflns_number            24912
_diffrn_reflns_av_R_equivalents  0.2086
_diffrn_reflns_av_sigmaI/netI    0.4900
_diffrn_reflns_limit_h_min       -10
_diffrn_reflns_limit_h_max       10
_diffrn_reflns_limit_k_min       -16
_diffrn_reflns_limit_k_max       16
_diffrn_reflns_limit_l_min       -19
_diffrn_reflns_limit_l_max       21
_diffrn_reflns_theta_min         1.21
_diffrn_reflns_theta_max         25.00
_reflns_number_total             7272
_reflns_number_gt                1292
_reflns_threshold_expression     >2sigma(I)

_computing_data_collection       ?
_computing_cell_refinement       ?
_computing_data_reduction        ?
_computing_structure_solution    'SHELXS-97 (Sheldrick, 1990)'
_computing_structure_refinement  'SHELXL-97 (Sheldrick, 1997)'
_computing_molecular_graphics    ?
_computing_publication_material  ?

_refine_special_details          
;
Refinement of F^2^ against ALL reflections. The weighted R-factor wR and
goodness of fit S are based on F^2^, conventional R-factors R are based
on F, with F set to zero for negative F^2^. The threshold expression of
F^2^ > 2sigma(F^2^) is used only for calculating R-factors(gt) etc. and is
not relevant to the choice of reflections for refinement. R-factors based
on F^2^ are statistically about twice as large as those based on F, and R-
factors based on ALL data will be even larger.
;

_refine_ls_structure_factor_coef Fsqd
_refine_ls_matrix_type           full
_refine_ls_weighting_scheme      calc
_refine_ls_weighting_details     
'calc w=1/[\s^2^(Fo^2^)+(0.0500P)^2^+0.0000P] where P=(Fo^2^+2Fc^2^)/3'
_atom_sites_solution_primary     direct
_atom_sites_solution_secondary   difmap
_atom_sites_solution_hydrogens   geom
_refine_ls_hydrogen_treatment    constr
_refine_ls_extinction_method     none
_refine_ls_extinction_coef       ?
_refine_ls_number_reflns         7272
_refine_ls_number_parameters     376
_refine_ls_number_restraints     0
_refine_ls_R_factor_all          0.2768
_refine_ls_R_factor_gt           0.0721
_refine_ls_wR_factor_ref         0.1794
_refine_ls_wR_factor_gt          0.1540
_refine_ls_goodness_of_fit_ref   0.641
_refine_ls_restrained_S_all      0.641
_refine_ls_shift/su_max          0.001
_refine_ls_shift/su_mean         0.000

loop_
_atom_site_label
_atom_site_type_symbol
_atom_site_fract_x
_atom_site_fract_y
_atom_site_fract_z
_atom_site_U_iso_or_equiv
_atom_site_adp_type
_atom_site_occupancy
_atom_site_symmetry_multiplicity
_atom_site_calc_flag
_atom_site_refinement_flags
_atom_site_disorder_assembly
_atom_site_disorder_group
Ag1 Ag -0.92370(12) 0.07433(9) 0.04630(8) 0.1159(6) Uani 1 1 d . . .
Ag2 Ag -2.43110(13) 0.51401(12) 0.58388(7) 0.1478(7) Uani 1 1 d . . .
Cl1 Cl 0.1538(7) 0.1792(5) -0.1830(4) 0.1312(18) Uani 1 1 d . . .
O104 O 0.0237(14) 0.2465(7) -0.1904(7) 0.185(5) Uani 1 1 d . . .
O103 O 0.2677(18) 0.2023(11) -0.2489(10) 0.268(9) Uani 1 1 d . . .
O102 O 0.207(2) 0.1963(12) -0.1221(13) 0.290(11) Uani 1 1 d . . .
O101 O 0.1120(14) 0.0858(10) -0.1730(9) 0.200(7) Uani 1 1 d . . .
O1A O -1.6385(10) 0.5601(7) 0.1486(6) 0.100(4) Uani 1 1 d . . .
C1A C -1.6571(16) 0.4791(14) 0.2020(10) 0.092(5) Uani 1 1 d . . .
C2A C -1.7747(14) 0.4596(13) 0.2762(8) 0.123(7) Uani 1 1 d . . .
H2A H -1.7843 0.3973 0.3118 0.147 Uiso 1 1 calc R . .
C3A C -1.5539(15) 0.3915(12) 0.1882(8) 0.099(6) Uani 1 1 d . . .
H3A H -1.5648 0.3312 0.2263 0.119 Uiso 1 1 calc R . .
N11A N -2.2371(8) 0.5170(10) 0.4865(5) 0.125(6) Uani 1 1 d G . .
C11A C -2.1498(12) 0.4313(7) 0.4797(6) 0.101(5) Uani 1 1 d G . .
H11A H -2.1755 0.3716 0.5174 0.121 Uiso 1 1 calc R . .
C12A C -2.0242(11) 0.4347(7) 0.4168(7) 0.163(10) Uani 1 1 d G . .
H12A H -1.9658 0.3773 0.4123 0.196 Uiso 1 1 calc R . .
C13A C -1.9858(9) 0.5239(9) 0.3605(5) 0.095(5) Uani 1 1 d G . .
C14A C -2.0730(13) 0.6097(7) 0.3672(6) 0.148(8) Uani 1 1 d G . .
H14A H -2.0473 0.6693 0.3296 0.177 Uiso 1 1 calc R . .
C15A C -2.1987(11) 0.6062(8) 0.4302(7) 0.156(8) Uani 1 1 d G . .
H15A H -2.2570 0.6636 0.4347 0.188 Uiso 1 1 calc R . .
C16A C -1.8622(15) 0.5322(14) 0.2888(7) 0.130(7) Uani 1 1 d . . .
H16A H -1.8480 0.5931 0.2515 0.156 Uiso 1 1 calc R . .
N21A N -1.0968(15) 0.1753(10) 0.0733(9) 0.092(5) Uani 1 1 d . . .
C21A C -1.1249(14) 0.2550(14) 0.0178(10) 0.088(6) Uani 1 1 d . . .
H21A H -1.0649 0.2609 -0.0331 0.106 Uiso 1 1 calc R . .
C22A C -1.2329(14) 0.3291(11) 0.0274(7) 0.084(5) Uani 1 1 d . . .
H22A H -1.2427 0.3836 -0.0144 0.100 Uiso 1 1 calc R . .
C23A C -1.3298(13) 0.3187(11) 0.1049(10) 0.071(5) Uani 1 1 d . . .
C24A C -1.3063(14) 0.2257(13) 0.1624(9) 0.090(5) Uani 1 1 d . . .
H24A H -1.3711 0.2116 0.2125 0.108 Uiso 1 1 calc R . .
C25A C -1.1953(17) 0.1610(11) 0.1451(10) 0.086(5) Uani 1 1 d . . .
H25A H -1.1845 0.1032 0.1838 0.103 Uiso 1 1 calc R . .
C26A C -1.4505(15) 0.4006(9) 0.1235(8) 0.081(4) Uani 1 1 d . . .
H26A H -1.4479 0.4605 0.0852 0.097 Uiso 1 1 calc R . .
O1B O -3.1989(10) 0.5793(7) 1.0028(6) 0.102(4) Uani 1 1 d . . .
C1B C -3.2016(14) 0.6468(11) 0.9403(9) 0.080(5) Uani 1 1 d . . .
C2B C -3.3035(12) 0.7306(8) 0.9455(7) 0.079(4) Uani 1 1 d . . .
H2B H -3.2987 0.7820 0.8999 0.094 Uiso 1 1 calc R . .
C3B C -3.0881(13) 0.6435(10) 0.8737(8) 0.095(5) Uani 1 1 d . . .
H3B H -3.0799 0.6982 0.8302 0.114 Uiso 1 1 calc R . .
N11B N -3.7500(15) 0.9653(10) 1.0333(10) 0.098(6) Uani 1 1 d . . .
C11B C -3.6504(16) 0.9710(10) 0.9670(10) 0.082(5) Uani 1 1 d . . .
H11B H -3.6553 1.0273 0.9259 0.099 Uiso 1 1 calc R . .
C12B C -3.5344(12) 0.8982(9) 0.9519(8) 0.055(4) Uani 1 1 d . . .
H12B H -3.4728 0.9031 0.9015 0.066 Uiso 1 1 calc R . .
C13B C -3.5169(13) 0.8195(10) 1.0154(9) 0.069(4) Uani 1 1 d . . .
C14B C -3.6140(14) 0.8174(9) 1.0896(9) 0.095(5) Uani 1 1 d . . .
H14B H -3.6019 0.7686 1.1347 0.114 Uiso 1 1 calc R . .
C15B C -3.7261(17) 0.8887(14) 1.0938(11) 0.106(6) Uani 1 1 d . . .
H15B H -3.7926 0.8843 1.1428 0.127 Uiso 1 1 calc R . .
C16B C -3.4027(12) 0.7404(9) 1.0094(9) 0.094(5) Uani 1 1 d . . .
H16B H -3.3998 0.6916 1.0558 0.113 Uiso 1 1 calc R . .
N21B N -2.6188(14) 0.5351(12) 0.6713(8) 0.104(5) Uani 1 1 d . . .
C21B C -2.6676(16) 0.4567(13) 0.7379(12) 0.117(6) Uani 1 1 d . . .
H21B H -2.6200 0.3944 0.7405 0.140 Uiso 1 1 calc R . .
C22B C -2.7892(15) 0.4708(10) 0.8020(7) 0.090(4) Uani 1 1 d . . .
H22B H -2.8192 0.4191 0.8469 0.108 Uiso 1 1 calc R . .
C23B C -2.8608(15) 0.5629(14) 0.7956(12) 0.101(7) Uani 1 1 d . . .
C24B C -2.8261(19) 0.6367(15) 0.7297(9) 0.117(8) Uani 1 1 d . . .
H24B H -2.8859 0.6948 0.7231 0.140 Uiso 1 1 calc R . .
C25B C -2.6999(15) 0.6244(12) 0.6719(7) 0.085(5) Uani 1 1 d . . .
H25B H -2.6667 0.6795 0.6305 0.101 Uiso 1 1 calc R . .
C26B C -2.9927(12) 0.5697(10) 0.8677(7) 0.085(5) Uani 1 1 d . . .
H26B H -3.0044 0.5150 0.9113 0.102 Uiso 1 1 calc R . .

loop_
_atom_site_aniso_label
_atom_site_aniso_U_11
_atom_site_aniso_U_22
_atom_site_aniso_U_33
_atom_site_aniso_U_23
_atom_site_aniso_U_13
_atom_site_aniso_U_12
Ag1 0.0809(9) 0.0972(10) 0.1766(14) -0.0666(10) -0.0129(8) 0.0274(7)
Ag2 0.0834(10) 0.2511(18) 0.1136(11) -0.0904(12) 0.0189(8) 0.0078(10)
Cl1 0.119(4) 0.119(5) 0.138(5) -0.021(5) -0.004(4) 0.003(4)
O104 0.186(11) 0.111(9) 0.213(13) -0.004(9) -0.015(10) 0.076(9)
O103 0.256(17) 0.256(17) 0.231(17) -0.080(15) 0.102(15) -0.012(14)
O102 0.35(2) 0.196(16) 0.44(3) -0.18(2) -0.24(2) 0.098(14)
O101 0.186(13) 0.074(9) 0.302(18) 0.014(11) -0.032(11) -0.029(9)
O1A 0.083(7) 0.090(8) 0.087(8) 0.002(6) 0.030(6) 0.025(6)
C1A 0.042(10) 0.132(17) 0.107(16) -0.031(13) -0.014(11) -0.036(12)
C2A 0.045(9) 0.213(18) 0.116(13) -0.108(13) 0.039(9) 0.029(10)
C3A 0.057(10) 0.141(16) 0.062(11) 0.006(11) 0.032(8) -0.007(10)
N11A 0.087(9) 0.224(17) 0.083(11) -0.071(13) -0.051(8) 0.098(11)
C11A 0.091(12) 0.103(13) 0.099(14) -0.021(11) -0.003(10) -0.016(10)
C12A 0.075(12) 0.34(3) 0.082(14) -0.101(17) 0.055(10) -0.088(16)
C13A 0.073(11) 0.152(16) 0.064(12) -0.052(12) -0.006(9) 0.045(11)
C14A 0.104(13) 0.200(19) 0.117(14) -0.070(14) 0.039(10) 0.062(13)
C15A 0.158(19) 0.18(2) 0.128(19) -0.006(16) -0.073(15) 0.039(15)
C16A 0.074(12) 0.28(2) 0.035(10) -0.038(13) -0.008(8) 0.002(13)
N21A 0.086(11) 0.090(12) 0.102(13) -0.010(11) -0.027(9) -0.035(9)
C21A 0.043(9) 0.141(17) 0.099(15) -0.101(13) 0.033(9) -0.007(10)
C22A 0.064(10) 0.127(14) 0.056(10) -0.025(10) 0.009(8) -0.030(10)
C23A 0.048(9) 0.056(11) 0.115(15) -0.048(11) 0.002(9) -0.003(9)
C24A 0.044(9) 0.094(14) 0.122(16) -0.037(13) 0.017(9) -0.003(10)
C25A 0.070(12) 0.077(12) 0.110(15) -0.024(12) -0.015(10) -0.008(10)
C26A 0.082(11) 0.048(10) 0.104(13) -0.003(10) -0.010(9) -0.023(9)
O1B 0.095(7) 0.101(8) 0.077(8) -0.009(7) 0.023(6) 0.041(6)
C1B 0.048(9) 0.079(13) 0.088(14) -0.013(11) 0.024(9) 0.012(9)
C2B 0.047(8) 0.070(10) 0.109(12) -0.043(9) 0.026(8) 0.006(7)
C3B 0.044(9) 0.127(13) 0.117(13) -0.067(11) 0.011(8) 0.026(9)
N11B 0.075(10) 0.077(11) 0.144(16) -0.073(11) 0.031(10) -0.018(9)
C11B 0.070(11) 0.059(11) 0.140(16) -0.026(12) -0.076(11) 0.026(10)
C12B 0.041(8) 0.037(9) 0.083(12) -0.013(9) 0.001(8) -0.014(7)
C13B 0.056(9) 0.046(10) 0.078(12) -0.001(9) 0.030(8) -0.006(8)
C14B 0.068(10) 0.063(10) 0.139(15) -0.030(10) 0.013(10) 0.014(8)
C15B 0.065(11) 0.105(16) 0.15(2) -0.062(14) 0.000(12) 0.009(12)
C16B 0.035(8) 0.084(11) 0.162(14) -0.061(11) 0.015(9) 0.003(8)
N21B 0.082(10) 0.136(14) 0.100(12) -0.062(11) 0.018(8) -0.027(10)
C21B 0.055(11) 0.143(18) 0.165(19) -0.081(16) -0.004(12) 0.016(11)
C22B 0.076(10) 0.098(13) 0.076(11) -0.003(10) 0.001(9) 0.001(9)
C23B 0.058(10) 0.141(17) 0.163(19) -0.131(15) -0.068(12) 0.082(11)
C24B 0.141(16) 0.18(2) 0.035(11) -0.047(13) -0.013(11) -0.015(15)
C25B 0.076(10) 0.114(13) 0.056(10) -0.048(11) 0.041(8) -0.026(10)
C26B 0.049(9) 0.121(13) 0.069(10) -0.030(10) 0.033(7) -0.008(9)

_geom_special_details            
;
All esds (except the esd in the dihedral angle between two l.s. planes)
are estimated using the full covariance matrix. The cell esds are taken
into account individually in the estimation of esds in distances, angles
and torsion angles; correlations between esds in cell parameters are only
used when they are defined by crystal symmetry. An approximate (isotropic)
treatment of cell esds is used for estimating esds involving l.s. planes.
;

loop_
_geom_bond_atom_site_label_1
_geom_bond_atom_site_label_2
_geom_bond_distance
_geom_bond_site_symmetry_2
_geom_bond_publ_flag
Ag1 N21A 2.067(14) . ?
Ag1 N11B 2.101(13) 1_844 ?
Ag2 N11A 2.152(7) . ?
Ag2 N21B 2.073(12) . ?
Cl1 O103 1.353(13) . ?
Cl1 O101 1.332(11) . ?
Cl1 O104 1.442(10) . ?
Cl1 O102 1.356(15) . ?
O1A C1A 1.269(15) . ?
C1A C3A 1.507(18) . ?
C1A C2A 1.469(17) . ?
C2A C16A 1.264(18) . ?
C3A C26A 1.289(14) . ?
N11A C11A 1.3900 . ?
N11A C15A 1.3900 . ?
C11A C12A 1.3900 . ?
C12A C13A 1.3900 . ?
C13A C14A 1.3900 . ?
C13A C16A 1.474(13) . ?
C14A C15A 1.3900 . ?
N21A C21A 1.333(16) . ?
N21A C25A 1.355(15) . ?
C21A C22A 1.374(16) . ?
C22A C23A 1.434(15) . ?
C23A C24A 1.463(16) . ?
C23A C26A 1.553(15) . ?
C24A C25A 1.324(15) . ?
O1B C1B 1.263(12) . ?
C1B C3B 1.385(14) . ?
C1B C2B 1.431(14) . ?
C2B C16B 1.305(13) . ?
C3B C26B 1.292(14) . ?
N11B C11B 1.297(16) . ?
N11B C15B 1.350(16) . ?
N11B Ag1 2.101(13) 1_266 ?
C11B C12B 1.423(14) . ?
C12B C13B 1.386(13) . ?
C13B C14B 1.403(15) . ?
C13B C16B 1.449(14) . ?
C14B C15B 1.357(16) . ?
N21B C21B 1.402(16) . ?
N21B C25B 1.389(15) . ?
C21B C22B 1.430(16) . ?
C22B C23B 1.376(16) . ?
C23B C24B 1.340(19) . ?
C23B C26B 1.553(17) . ?
C24B C25B 1.377(16) . ?

loop_
_geom_angle_atom_site_label_1
_geom_angle_atom_site_label_2
_geom_angle_atom_site_label_3
_geom_angle
_geom_angle_site_symmetry_1
_geom_angle_site_symmetry_3
_geom_angle_publ_flag
N21A Ag1 N11B 173.3(7) . 1_844 ?
N11A Ag2 N21B 171.0(6) . . ?
O103 Cl1 O101 108.4(10) . . ?
O103 Cl1 O104 110.9(10) . . ?
O101 Cl1 O104 110.4(9) . . ?
O103 Cl1 O102 107.3(12) . . ?
O101 Cl1 O102 114.9(12) . . ?
O104 Cl1 O102 105.0(10) . . ?
O1A C1A C3A 118.1(14) . . ?
O1A C1A C2A 126.5(16) . . ?
C3A C1A C2A 115.3(15) . . ?
C16A C2A C1A 116.2(17) . . ?
C26A C3A C1A 119.8(14) . . ?
C11A N11A C15A 120.0 . . ?
C11A N11A Ag2 120.7(7) . . ?
C15A N11A Ag2 119.3(7) . . ?
N11A C11A C12A 120.0 . . ?
C11A C12A C13A 120.0 . . ?
C14A C13A C12A 120.0 . . ?
C14A C13A C16A 116.5(11) . . ?
C12A C13A C16A 123.4(11) . . ?
C15A C14A C13A 120.0 . . ?
C14A C15A N11A 120.0 . . ?
C2A C16A C13A 122.3(16) . . ?
C21A N21A C25A 116.3(15) . . ?
C21A N21A Ag1 120.7(12) . . ?
C25A N21A Ag1 122.8(12) . . ?
C22A C21A N21A 127.1(14) . . ?
C21A C22A C23A 116.8(13) . . ?
C22A C23A C24A 114.6(12) . . ?
C22A C23A C26A 121.1(15) . . ?
C24A C23A C26A 124.2(13) . . ?
C25A C24A C23A 121.8(14) . . ?
C24A C25A N21A 122.9(17) . . ?
C3A C26A C23A 124.7(14) . . ?
O1B C1B C3B 117.5(13) . . ?
O1B C1B C2B 118.5(12) . . ?
C3B C1B C2B 123.1(14) . . ?
C16B C2B C1B 125.0(13) . . ?
C26B C3B C1B 124.5(14) . . ?
C11B N11B C15B 114.8(15) . . ?
C11B N11B Ag1 121.7(13) . 1_266 ?
C15B N11B Ag1 123.3(12) . 1_266 ?
N11B C11B C12B 125.3(14) . . ?
C11B C12B C13B 117.2(12) . . ?
C12B C13B C14B 118.0(12) . . ?
C12B C13B C16B 123.5(12) . . ?
C14B C13B C16B 118.5(14) . . ?
C13B C14B C15B 118.0(15) . . ?
N11B C15B C14B 126.1(17) . . ?
C2B C16B C13B 126.7(14) . . ?
C21B N21B C25B 115.1(12) . . ?
C21B N21B Ag2 119.7(12) . . ?
C25B N21B Ag2 125.1(12) . . ?
N21B C21B C22B 121.2(15) . . ?
C23B C22B C21B 118.2(15) . . ?
C24B C23B C22B 122.0(16) . . ?
C24B C23B C26B 123.7(14) . . ?
C22B C23B C26B 114.1(18) . . ?
C23B C24B C25B 118.4(18) . . ?
C24B C25B N21B 124.4(15) . . ?
C3B C26B C23B 126.9(14) . . ?

_diffrn_measured_fraction_theta_max 0.996
_diffrn_reflns_theta_full        25.00
_diffrn_measured_fraction_theta_full 0.996
_refine_diff_density_max         0.700
_refine_diff_density_min         -0.301
_refine_diff_density_rms         0.107
# S