####################################################################### 
# 
# This file contains crystal structure data downloaded from the 
# Cambridge Structural Database (CSD) hosted by the Cambridge 
# Crystallographic Data Centre (CCDC).
# 
# Full information about CCDC data access policies and citation 
# guidelines are available at http://www.ccdc.cam.ac.uk/access/V1 
# 
# Audit and citation data items may have been added by the CCDC. 
# Please retain this information to preserve the provenance of 
# this file and to allow appropriate attribution of the data. 
# 
#######################################################################

data_2
_audit_block_doi                 10.5517/ccyj24n
_database_code_depnum_ccdc_archive 'CCDC 879381'
loop_
_citation_id
_citation_doi
_citation_year
1 10.1002/asia.201200601 2012
_audit_update_record             
;
2012-04-29 deposited with the CCDC.	2024-07-10 downloaded from the CCDC.
;
#TrackingRef '2.cif'


_audit_creation_method           SHELXL-97
_chemical_name_systematic        
;
?
;
_chemical_name_common            ?
_chemical_melting_point          ?
_chemical_formula_moiety         ?
_chemical_formula_sum            'C54 H58 O32 Zn3'
_chemical_formula_weight         1415.11

loop_
_atom_type_symbol
_atom_type_description
_atom_type_scat_dispersion_real
_atom_type_scat_dispersion_imag
_atom_type_scat_source
C C 0.0181 0.0091 'International Tables Vol C Tables 4.2.6.8 and 6.1.1.4'
H H 0.0000 0.0000 'International Tables Vol C Tables 4.2.6.8 and 6.1.1.4'
O O 0.0492 0.0322 'International Tables Vol C Tables 4.2.6.8 and 6.1.1.4'
Zn Zn -1.5491 0.6778 'International Tables Vol C Tables 4.2.6.8 and 6.1.1.4'

_symmetry_cell_setting           trigonal
_symmetry_space_group_name_H-M   'P -31c'

loop_
_symmetry_equiv_pos_as_xyz
'x, y, z'
'-y, x-y, z'
'-x+y, -x, z'
'-y, -x, -z+1/2'
'-x+y, y, -z+1/2'
'x, x-y, -z+1/2'
'-x, -y, -z'
'y, -x+y, -z'
'x-y, x, -z'
'y, x, z-1/2'
'x-y, -y, z-1/2'
'-x, -x+y, z-1/2'

_cell_length_a                   16.7057(4)
_cell_length_b                   16.7057(4)
_cell_length_c                   14.3418(5)
_cell_angle_alpha                90.00
_cell_angle_beta                 90.00
_cell_angle_gamma                120.00
_cell_volume                     3466.28(17)
_cell_formula_units_Z            2
_cell_measurement_temperature    150(2)
_cell_measurement_reflns_used    4661
_cell_measurement_theta_min      3.0520
_cell_measurement_theta_max      62.5154

_exptl_crystal_description       block
_exptl_crystal_colour            colorless
_exptl_crystal_size_max          0.20
_exptl_crystal_size_mid          0.10
_exptl_crystal_size_min          0.10
_exptl_crystal_density_meas      ?
_exptl_crystal_density_diffrn    1.356
_exptl_crystal_density_method    'not measured'
_exptl_crystal_F_000             1456
_exptl_absorpt_coefficient_mu    1.932
_exptl_absorpt_correction_type   multi-scan
_exptl_absorpt_correction_T_min  0.6986
_exptl_absorpt_correction_T_max  0.8302
_exptl_absorpt_process_details   ?

_exptl_special_details           
;
?
;

_diffrn_ambient_temperature      150(2)
_diffrn_radiation_wavelength     1.54178
_diffrn_radiation_type           CuK\a
_diffrn_radiation_source         'fine-focus sealed tube'
_diffrn_radiation_monochromator  graphite
_diffrn_measurement_device_type  'Xcalibur, Sapphire3, Gemini ultra'
_diffrn_measurement_method       '\w scans'
_diffrn_detector_area_resol_mean ?
_diffrn_standards_number         2
_diffrn_standards_interval_count 150
_diffrn_standards_interval_time  ?
_diffrn_standards_decay_%        none
_diffrn_reflns_number            11970
_diffrn_reflns_av_R_equivalents  0.0289
_diffrn_reflns_av_sigmaI/netI    0.0177
_diffrn_reflns_limit_h_min       -19
_diffrn_reflns_limit_h_max       18
_diffrn_reflns_limit_k_min       -16
_diffrn_reflns_limit_k_max       19
_diffrn_reflns_limit_l_min       -16
_diffrn_reflns_limit_l_max       13
_diffrn_reflns_theta_min         3.05
_diffrn_reflns_theta_max         62.60
_reflns_number_total             1847
_reflns_number_gt                1584
_reflns_threshold_expression     >2sigma(I)

_computing_data_collection       ?
_computing_cell_refinement       ?
_computing_data_reduction        ?
_computing_structure_solution    'SHELXS-97 (Sheldrick, 1990)'
_computing_structure_refinement  'SHELXL-97 (Sheldrick, 1997)'
_computing_molecular_graphics    ?
_computing_publication_material  ?

_refine_special_details          
;
Refinement of F^2^ against ALL reflections. The weighted R-factor wR and
goodness of fit S are based on F^2^, conventional R-factors R are based
on F, with F set to zero for negative F^2^. The threshold expression of
F^2^ > 2sigma(F^2^) is used only for calculating R-factors(gt) etc. and is
not relevant to the choice of reflections for refinement. R-factors based
on F^2^ are statistically about twice as large as those based on F, and R-
factors based on ALL data will be even larger.
;

_refine_ls_structure_factor_coef Fsqd
_refine_ls_matrix_type           full
_refine_ls_weighting_scheme      calc
_refine_ls_weighting_details     
'calc w=1/[\s^2^(Fo^2^)+(0.1842P)^2^+4.2814P] where P=(Fo^2^+2Fc^2^)/3'
_atom_sites_solution_primary     direct
_atom_sites_solution_secondary   difmap
_atom_sites_solution_hydrogens   geom
_refine_ls_hydrogen_treatment    mixed
_refine_ls_extinction_method     none
_refine_ls_extinction_coef       ?
_refine_ls_number_reflns         1847
_refine_ls_number_parameters     125
_refine_ls_number_restraints     0
_refine_ls_R_factor_all          0.0925
_refine_ls_R_factor_gt           0.0859
_refine_ls_wR_factor_ref         0.2848
_refine_ls_wR_factor_gt          0.2745
_refine_ls_goodness_of_fit_ref   1.176
_refine_ls_restrained_S_all      1.176
_refine_ls_shift/su_max          0.034
_refine_ls_shift/su_mean         0.002

loop_
_atom_site_label
_atom_site_type_symbol
_atom_site_fract_x
_atom_site_fract_y
_atom_site_fract_z
_atom_site_U_iso_or_equiv
_atom_site_adp_type
_atom_site_occupancy
_atom_site_symmetry_multiplicity
_atom_site_calc_flag
_atom_site_refinement_flags
_atom_site_disorder_assembly
_atom_site_disorder_group
C1 C 0.7002(4) 0.4891(4) 0.3937(5) 0.0611(16) Uani 1 1 d . . .
C2 C 0.7296(4) 0.5895(4) 0.3849(4) 0.0525(13) Uani 1 1 d . . .
C3 C 0.7750(4) 0.6488(4) 0.4591(4) 0.0579(14) Uani 1 1 d . . .
H3A H 0.7862 0.6257 0.5152 0.069 Uiso 1 1 calc R . .
C4 C 0.8037(4) 0.7416(4) 0.4505(4) 0.0572(14) Uani 1 1 d . . .
H4A H 0.8342 0.7825 0.5011 0.069 Uiso 1 1 calc R . .
C5 C 0.7884(4) 0.7750(4) 0.3692(4) 0.0507(13) Uani 1 1 d . . .
C6 C 0.7415(4) 0.7162(4) 0.2954(4) 0.0583(14) Uani 1 1 d . . .
H6A H 0.7294 0.7393 0.2398 0.070 Uiso 1 1 calc R . .
C7 C 0.7128(4) 0.6233(4) 0.3046(4) 0.0617(16) Uani 1 1 d . . .
H7A H 0.6811 0.5823 0.2546 0.074 Uiso 1 1 calc R . .
C8 C 0.9090(4) 0.9312(4) 0.3654(3) 0.0475(12) Uani 1 1 d . . .
C9 C 0.9297(4) 1.0231(4) 0.3651(3) 0.0466(12) Uani 1 1 d . . .
H9A H 0.8821 1.0385 0.3647 0.056 Uiso 1 1 calc R . .
Zn1 Zn 0.6667 0.3333 0.2500 0.0398(6) Uani 1 6 d S . .
Zn2 Zn 0.6667 0.3333 0.49575(9) 0.0545(6) Uani 1 3 d S . .
O1 O 0.6629(3) 0.4375(3) 0.3264(4) 0.0786(15) Uani 1 1 d . . .
O2 O 0.7145(3) 0.4628(3) 0.4725(4) 0.0721(13) Uani 1 1 d . . .
O3 O 0.8158(3) 0.8678(3) 0.3589(3) 0.0549(10) Uani 1 1 d . . .
O1W O 0.6667 0.3333 0.6331(12) 0.157(7) Uiso 1 3 d S . .
O2W O 0.5000 0.5000 0.5000 0.247(10) Uiso 1 2 d S . .
O3W O 0.538(2) 0.567(2) 0.5642(19) 0.375(12) Uiso 1 1 d . . .
O4W O 0.7515(18) 0.503(4) 0.7500 0.61(4) Uiso 1 2 d S . .

loop_
_atom_site_aniso_label
_atom_site_aniso_U_11
_atom_site_aniso_U_22
_atom_site_aniso_U_33
_atom_site_aniso_U_23
_atom_site_aniso_U_13
_atom_site_aniso_U_12
C1 0.043(3) 0.051(3) 0.089(5) -0.022(3) -0.006(3) 0.023(3)
C2 0.042(3) 0.048(3) 0.063(3) -0.013(2) 0.001(2) 0.019(2)
C3 0.063(4) 0.045(3) 0.060(3) -0.009(2) -0.004(3) 0.023(3)
C4 0.067(4) 0.047(3) 0.051(3) -0.010(2) -0.006(3) 0.024(3)
C5 0.046(3) 0.047(3) 0.055(3) -0.007(2) -0.002(2) 0.020(2)
C6 0.045(3) 0.065(4) 0.055(3) -0.006(3) -0.005(2) 0.021(3)
C7 0.044(3) 0.061(4) 0.067(4) -0.023(3) -0.004(3) 0.017(3)
C8 0.045(3) 0.053(3) 0.039(3) 0.001(2) 0.000(2) 0.021(3)
C9 0.051(3) 0.051(3) 0.041(3) 0.001(2) 0.001(2) 0.027(2)
Zn1 0.0345(7) 0.0345(7) 0.0504(10) 0.000 0.000 0.0172(3)
Zn2 0.0539(7) 0.0539(7) 0.0557(9) 0.000 0.000 0.0270(3)
O1 0.064(3) 0.061(3) 0.117(4) -0.043(3) -0.023(3) 0.035(2)
O2 0.062(3) 0.048(2) 0.100(4) -0.017(2) -0.006(2) 0.023(2)
O3 0.045(2) 0.051(2) 0.064(2) 0.0002(17) -0.0066(16) 0.0199(17)

_geom_special_details            
;
All esds (except the esd in the dihedral angle between two l.s. planes)
are estimated using the full covariance matrix. The cell esds are taken
into account individually in the estimation of esds in distances, angles
and torsion angles; correlations between esds in cell parameters are only
used when they are defined by crystal symmetry. An approximate (isotropic)
treatment of cell esds is used for estimating esds involving l.s. planes.
;

loop_
_geom_bond_atom_site_label_1
_geom_bond_atom_site_label_2
_geom_bond_distance
_geom_bond_site_symmetry_2
_geom_bond_publ_flag
C1 O1 1.235(8) . ?
C1 O2 1.276(8) . ?
C1 C2 1.499(8) . ?
C2 C7 1.371(9) . ?
C2 C3 1.393(8) . ?
C3 C4 1.380(8) . ?
C3 H3A 0.9500 . ?
C4 C5 1.371(8) . ?
C4 H4A 0.9500 . ?
C5 O3 1.387(7) . ?
C5 C6 1.390(8) . ?
C6 C7 1.383(9) . ?
C6 H6A 0.9500 . ?
C7 H7A 0.9500 . ?
C8 C9 1.388(8) 2_765 ?
C8 O3 1.380(7) . ?
C8 C9 1.394(8) . ?
C9 C8 1.388(8) 3_675 ?
C9 H9A 0.9500 . ?
Zn1 O1 2.084(4) 3_665 ?
Zn1 O1 2.084(4) 6 ?
Zn1 O1 2.084(4) 5_655 ?
Zn1 O1 2.084(4) 2_655 ?
Zn1 O1 2.084(4) 4_665 ?
Zn1 O1 2.084(4) . ?
Zn2 O2 1.924(5) 3_665 ?
Zn2 O2 1.924(5) 2_655 ?
Zn2 O2 1.924(5) . ?
Zn2 O1W 1.969(17) . ?
O2W O3W 1.34(3) . ?
O2W O3W 1.34(3) 7_666 ?

loop_
_geom_angle_atom_site_label_1
_geom_angle_atom_site_label_2
_geom_angle_atom_site_label_3
_geom_angle
_geom_angle_site_symmetry_1
_geom_angle_site_symmetry_3
_geom_angle_publ_flag
O1 C1 O2 124.6(6) . . ?
O1 C1 C2 118.9(7) . . ?
O2 C1 C2 116.5(5) . . ?
C7 C2 C3 120.0(6) . . ?
C7 C2 C1 120.8(5) . . ?
C3 C2 C1 119.3(6) . . ?
C4 C3 C2 119.4(6) . . ?
C4 C3 H3A 120.3 . . ?
C2 C3 H3A 120.3 . . ?
C5 C4 C3 120.2(5) . . ?
C5 C4 H4A 119.9 . . ?
C3 C4 H4A 119.9 . . ?
C4 C5 O3 121.4(5) . . ?
C4 C5 C6 121.0(5) . . ?
O3 C5 C6 117.6(5) . . ?
C7 C6 C5 118.5(6) . . ?
C7 C6 H6A 120.8 . . ?
C5 C6 H6A 120.8 . . ?
C2 C7 C6 121.0(5) . . ?
C2 C7 H7A 119.5 . . ?
C6 C7 H7A 119.5 . . ?
C9 C8 O3 123.3(5) 2_765 . ?
C9 C8 C9 122.5(5) 2_765 . ?
O3 C8 C9 114.1(5) . . ?
C8 C9 C8 117.5(5) 3_675 . ?
C8 C9 H9A 121.3 3_675 . ?
C8 C9 H9A 121.3 . . ?
O1 Zn1 O1 87.4(3) 3_665 6 ?
O1 Zn1 O1 82.9(3) 3_665 5_655 ?
O1 Zn1 O1 94.9(2) 6 5_655 ?
O1 Zn1 O1 94.9(2) 3_665 2_655 ?
O1 Zn1 O1 82.9(3) 6 2_655 ?
O1 Zn1 O1 177.0(2) 5_655 2_655 ?
O1 Zn1 O1 177.0(2) 3_665 4_665 ?
O1 Zn1 O1 94.9(2) 6 4_665 ?
O1 Zn1 O1 94.9(2) 5_655 4_665 ?
O1 Zn1 O1 87.4(3) 2_655 4_665 ?
O1 Zn1 O1 94.9(2) 3_665 . ?
O1 Zn1 O1 177.0(2) 6 . ?
O1 Zn1 O1 87.4(3) 5_655 . ?
O1 Zn1 O1 94.9(2) 2_655 . ?
O1 Zn1 O1 82.9(3) 4_665 . ?
O2 Zn2 O2 117.05(9) 3_665 2_655 ?
O2 Zn2 O2 117.05(9) 3_665 . ?
O2 Zn2 O2 117.05(9) 2_655 . ?
O2 Zn2 O1W 100.00(16) 3_665 . ?
O2 Zn2 O1W 100.00(16) 2_655 . ?
O2 Zn2 O1W 100.00(16) . . ?
C1 O1 Zn1 141.1(4) . . ?
C1 O2 Zn2 119.7(4) . . ?
C8 O3 C5 117.8(4) . . ?
O3W O2W O3W 180(2) . 7_666 ?

_diffrn_measured_fraction_theta_max 0.992
_diffrn_reflns_theta_full        62.60
_diffrn_measured_fraction_theta_full 0.991
_refine_diff_density_max         1.014
_refine_diff_density_min         -0.830
_refine_diff_density_rms         0.150


