####################################################################### 
# 
# This file contains crystal structure data downloaded from the 
# Cambridge Structural Database (CSD) hosted by the Cambridge 
# Crystallographic Data Centre (CCDC).
# 
# Full information about CCDC data access policies and citation 
# guidelines are available at http://www.ccdc.cam.ac.uk/access/V1 
# 
# Audit and citation data items may have been added by the CCDC. 
# Please retain this information to preserve the provenance of 
# this file and to allow appropriate attribution of the data. 
# 
#######################################################################

data_q37a
_audit_block_doi                 10.5517/ccyhzds
_database_code_depnum_ccdc_archive 'CCDC 879296'
loop_
_citation_id
_citation_doi
_citation_year
1 10.1016/j.poly.2012.08.042 2013
_audit_update_record             
;
2012-04-27 deposited with the CCDC.	2024-07-10 downloaded from the CCDC.
;
#TrackingRef 'Q37A_Ni2+.CIF'




_audit_creation_method           SHELXTL

_chemical_name_systematic        
;

?

;

_chemical_name_common            ?

_chemical_melting_point          ?

_chemical_formula_moiety         ?

_chemical_formula_sum            'C51.50 H64.05 N16.50 Na Ni O13.65'

_chemical_formula_weight         1214.34



loop_

_atom_type_symbol

_atom_type_description

_atom_type_scat_dispersion_real

_atom_type_scat_dispersion_imag

_atom_type_scat_source












C C 0.0181 0.0091 'International Tables Vol C Tables 4.2.6.8 and 6.1.1.4'
H H 0.0000 0.0000 'International Tables Vol C Tables 4.2.6.8 and 6.1.1.4'
N N 0.0311 0.0180 'International Tables Vol C Tables 4.2.6.8 and 6.1.1.4'
O O 0.0492 0.0322 'International Tables Vol C Tables 4.2.6.8 and 6.1.1.4'
Na Na 0.1353 0.1239 'International Tables Vol C Tables 4.2.6.8 and 6.1.1.4'
Ni Ni -3.0029 0.5091 'International Tables Vol C Tables 4.2.6.8 and 6.1.1.4'



_symmetry_cell_setting           Orthorhombic

_symmetry_space_group_name_H-M   P2(1)2(1)2(1)



loop_

_symmetry_equiv_pos_as_xyz




'x, y, z'
'x+1/2, -y+1/2, -z'
'-x, y+1/2, -z+1/2'
'-x+1/2, -y, z+1/2'



_cell_length_a                   18.2706(4)

_cell_length_b                   24.9868(6)

_cell_length_c                   28.9140(6)

_cell_angle_alpha                90.00

_cell_angle_beta                 90.00

_cell_angle_gamma                90.00

_cell_volume                     13199.9(5)

_cell_formula_units_Z            8

_cell_measurement_temperature    100(2)

_cell_measurement_reflns_used    9592

_cell_measurement_theta_min      2.34

_cell_measurement_theta_max      68.03



_exptl_crystal_description       Plate

_exptl_crystal_colour            orange

_exptl_crystal_size_max          0.18

_exptl_crystal_size_mid          0.14

_exptl_crystal_size_min          0.04

_exptl_crystal_density_meas      ?

_exptl_crystal_density_diffrn    1.222

_exptl_crystal_density_method    'not measured'

_exptl_crystal_F_000             5094

_exptl_absorpt_coefficient_mu    1.065

_exptl_absorpt_correction_type   multi-scan

_exptl_absorpt_correction_T_min  0.816

_exptl_absorpt_correction_T_max  1.000

_exptl_absorpt_process_details   ?



_exptl_special_details           
;

?

;



_diffrn_ambient_temperature      100(2)

_diffrn_radiation_wavelength     1.54178

_diffrn_radiation_type           CuK\a

_diffrn_radiation_source         'Bruker MicroStar microfocus rotating anode'

_diffrn_radiation_monochromator  'Helios multilayer optics'

_diffrn_measurement_device_type  'Bruker APEX-II CCD'

_diffrn_measurement_method       '\f and \w scans'

_diffrn_detector_area_resol_mean ?

_diffrn_standards_number         0

_diffrn_standards_interval_count ?

_diffrn_standards_interval_time  ?

_diffrn_standards_decay_%        0.00

_diffrn_reflns_number            51292

_diffrn_reflns_av_R_equivalents  0.0309

_diffrn_reflns_av_sigmaI/netI    0.0457

_diffrn_reflns_limit_h_min       -22

_diffrn_reflns_limit_h_max       18

_diffrn_reflns_limit_k_min       -24

_diffrn_reflns_limit_k_max       29

_diffrn_reflns_limit_l_min       -26

_diffrn_reflns_limit_l_max       33

_diffrn_reflns_theta_min         2.34

_diffrn_reflns_theta_max         69.04

_reflns_number_total             22447

_reflns_number_gt                18532

_reflns_threshold_expression     >2sigma(I)



_computing_data_collection       'Bruker APEX2'

_computing_cell_refinement       'Bruker SAINT'

_computing_data_reduction        'Bruker SAINT'

_computing_structure_solution    'Bruker SHELXTL'

_computing_structure_refinement  'Bruker SHELXTL'

_computing_molecular_graphics    'Bruker SHELXTL'

_computing_publication_material  'Bruker SHELXTL'



_refine_special_details          
;

Refinement of F^2^ against ALL reflections. The weighted R-factor wR and

goodness of fit S are based on F^2^, conventional R-factors R are based

on F, with F set to zero for negative F^2^. The threshold expression of

F^2^ > 2sigma(F^2^) is used only for calculating R-factors(gt) etc. and is

not relevant to the choice of reflections for refinement. R-factors based

on F^2^ are statistically about twice as large as those based on F, and R-

factors based on ALL data will be even larger.

;



_refine_ls_structure_factor_coef Fsqd

_refine_ls_matrix_type           full

_refine_ls_weighting_scheme      calc

_refine_ls_weighting_details     
'calc w=1/[\s^2^(Fo^2^)+(0.0962P)^2^+62.2360P] where P=(Fo^2^+2Fc^2^)/3'

_atom_sites_solution_primary     direct

_atom_sites_solution_secondary   difmap

_atom_sites_solution_hydrogens   geom

_refine_ls_hydrogen_treatment    noref

_refine_ls_extinction_method     none

_refine_ls_extinction_coef       ?

_refine_ls_abs_structure_details 'Flack H D (1983), Acta Cryst. A39, 876-881'

_refine_ls_abs_structure_Flack   0.06(5)

_refine_ls_number_reflns         22447

_refine_ls_number_parameters     1441

_refine_ls_number_restraints     168

_refine_ls_R_factor_all          0.1261

_refine_ls_R_factor_gt           0.1122

_refine_ls_wR_factor_ref         0.2910

_refine_ls_wR_factor_gt          0.2843

_refine_ls_goodness_of_fit_ref   1.064

_refine_ls_restrained_S_all      1.070

_refine_ls_shift/su_max          0.013

_refine_ls_shift/su_mean         0.000



loop_

_atom_site_label

_atom_site_type_symbol

_atom_site_fract_x

_atom_site_fract_y

_atom_site_fract_z

_atom_site_U_iso_or_equiv

_atom_site_adp_type

_atom_site_occupancy

_atom_site_symmetry_multiplicity

_atom_site_calc_flag

_atom_site_refinement_flags

_atom_site_disorder_assembly

_atom_site_disorder_group












































































































































































































































































































































Ni1 Ni 0.60609(7) 0.67133(8) 0.23593(5) 0.0593(4) Uani 1 1 d . . .
O1A O 0.6367(3) 0.6944(3) 0.5541(2) 0.0650(18) Uani 1 1 d . . .
O2A O 0.2957(3) 0.6611(3) 0.4457(2) 0.0584(16) Uani 1 1 d . . .
O3A O 0.3062(3) 0.7908(3) 0.4273(2) 0.0569(15) Uani 1 1 d . . .
O4A O 0.6794(3) 0.7924(3) 0.48196(19) 0.0548(16) Uani 1 1 d . . .
O5A O 0.9121(3) 0.6564(3) 0.3766(2) 0.0659(19) Uani 1 1 d . . .
O6A O 0.8787(3) 0.6749(3) 0.1350(2) 0.073(2) Uani 1 1 d . . .
O7A O 0.6632(3) 0.7134(3) 0.10795(19) 0.0636(19) Uani 1 1 d . . .
O8A O 0.5373(3) 0.7770(3) 0.3297(2) 0.069(2) Uani 1 1 d . . .
O9A O 0.6002(3) 0.6018(3) 0.2507(2) 0.075(2) Uani 1 1 d . . .
O10A O 0.7196(3) 0.5908(3) 0.2630(2) 0.0680(18) Uani 1 1 d . . .
N1A N 0.7046(4) 0.6667(4) 0.4015(3) 0.066(2) Uani 1 1 d . . .
C2A C 0.7362(4) 0.6702(4) 0.4466(3) 0.058(2) Uani 1 1 d . . .
H2AA H 0.7318 0.7075 0.4579 0.070 Uiso 1 1 calc R . .
H2AB H 0.7889 0.6614 0.4446 0.070 Uiso 1 1 calc R . .
C3A C 0.6996(5) 0.6325(5) 0.4815(3) 0.066(3) Uani 1 1 d . . .
H3AA H 0.7038 0.5952 0.4702 0.079 Uiso 1 1 calc R . .
H3AB H 0.7257 0.6349 0.5114 0.079 Uiso 1 1 calc R . .
N4A N 0.6228(4) 0.6454(4) 0.4885(3) 0.066(2) Uani 1 1 d . . .
H4N H 0.5911 0.6331 0.4681 0.080 Uiso 1 1 calc R . .
C5A C 0.5972(5) 0.6739(4) 0.5228(4) 0.061(2) Uani 1 1 d . . .
C6A C 0.5160(4) 0.6859(4) 0.5234(3) 0.0474(19) Uani 1 1 d . . .
N7A N 0.4768(4) 0.6619(3) 0.4912(2) 0.0507(17) Uani 1 1 d . . .
C8A C 0.4870(4) 0.7207(4) 0.5571(3) 0.053(2) Uani 1 1 d . . .
H8AA H 0.5173 0.7370 0.5798 0.064 Uiso 1 1 calc R . .
C9A C 0.4116(5) 0.7301(4) 0.5555(3) 0.061(2) Uani 1 1 d . . .
H9AA H 0.3897 0.7534 0.5774 0.073 Uiso 1 1 calc R . .
C10A C 0.3695(4) 0.7060(4) 0.5229(3) 0.050(2) Uani 1 1 d . . .
H10A H 0.3182 0.7118 0.5215 0.060 Uiso 1 1 calc R . .
C11A C 0.4049(4) 0.6725(4) 0.4915(3) 0.0462(19) Uani 1 1 d . . .
C12A C 0.3601(4) 0.6467(4) 0.4525(3) 0.049(2) Uani 1 1 d . . .
N13A N 0.3930(4) 0.6082(3) 0.4300(3) 0.0570(19) Uani 1 1 d . . .
H13N H 0.4359 0.5971 0.4401 0.068 Uiso 1 1 calc R . .
C14A C 0.3619(5) 0.5824(4) 0.3888(4) 0.067(3) Uani 1 1 d . . .
H14A H 0.3157 0.5644 0.3976 0.080 Uiso 1 1 calc R . .
H14B H 0.3963 0.5545 0.3779 0.080 Uiso 1 1 calc R . .
C15A C 0.3463(5) 0.6211(4) 0.3489(3) 0.060(3) Uani 1 1 d . . .
H15A H 0.3367 0.6002 0.3205 0.072 Uiso 1 1 calc R . .
H15B H 0.3016 0.6419 0.3562 0.072 Uiso 1 1 calc R . .
N16A N 0.4068(4) 0.6584(3) 0.3402(3) 0.057(2) Uani 1 1 d . . .
C17A C 0.3823(5) 0.7028(4) 0.3131(3) 0.061(3) Uani 1 1 d . . .
H17A H 0.3483 0.6896 0.2890 0.073 Uiso 1 1 calc R . .
H17B H 0.4249 0.7191 0.2973 0.073 Uiso 1 1 calc R . .
C18A C 0.3437(5) 0.7456(5) 0.3419(4) 0.064(3) Uani 1 1 d . . .
H18A H 0.3245 0.7738 0.3213 0.077 Uiso 1 1 calc R . .
H18B H 0.3017 0.7293 0.3585 0.077 Uiso 1 1 calc R . .
N19A N 0.3942(3) 0.7693(3) 0.3755(3) 0.0545(19) Uani 1 1 d . . .
H19N H 0.4411 0.7707 0.3686 0.065 Uiso 1 1 calc R . .
C20A C 0.3727(4) 0.7882(4) 0.4146(3) 0.049(2) Uani 1 1 d . . .
C21A C 0.4310(4) 0.8077(4) 0.4469(3) 0.0452(19) Uani 1 1 d . . .
N22A N 0.4997(3) 0.7922(3) 0.4369(2) 0.0474(17) Uani 1 1 d . . .
C23A C 0.4149(5) 0.8396(4) 0.4857(3) 0.059(2) Uani 1 1 d . . .
H23A H 0.3664 0.8514 0.4916 0.071 Uiso 1 1 calc R . .
C24A C 0.4715(5) 0.8533(4) 0.5152(3) 0.060(2) Uani 1 1 d . . .
H24A H 0.4618 0.8747 0.5416 0.072 Uiso 1 1 calc R . .
C25A C 0.5416(5) 0.8361(4) 0.5064(3) 0.050(2) Uani 1 1 d . . .
H25A H 0.5806 0.8443 0.5269 0.060 Uiso 1 1 calc R . .
C26A C 0.5534(4) 0.8065(4) 0.4666(3) 0.0435(19) Uani 1 1 d . . .
C27A C 0.6300(5) 0.7893(4) 0.4535(3) 0.051(2) Uani 1 1 d . . .
N28A N 0.6380(4) 0.7736(4) 0.4104(2) 0.064(2) Uani 1 1 d . . .
H28N H 0.5982 0.7685 0.3938 0.076 Uiso 1 1 calc R . .
C29A C 0.7085(5) 0.7640(5) 0.3883(3) 0.068(3) Uani 1 1 d . . .
H29A H 0.7131 0.7889 0.3619 0.082 Uiso 1 1 calc R . .
H29B H 0.7474 0.7732 0.4108 0.082 Uiso 1 1 calc R . .
C30A C 0.7225(5) 0.7102(4) 0.3715(3) 0.061(3) Uani 1 1 d . . .
H30A H 0.6949 0.7054 0.3423 0.073 Uiso 1 1 calc R . .
H30B H 0.7752 0.7075 0.3638 0.073 Uiso 1 1 calc R . .
C31A C 0.7117(5) 0.6117(5) 0.3807(4) 0.070(3) Uani 1 1 d . . .
H31A H 0.6875 0.6125 0.3501 0.084 Uiso 1 1 calc R . .
H31B H 0.6832 0.5868 0.4004 0.084 Uiso 1 1 calc R . .
C32A C 0.7871(5) 0.5876(5) 0.3741(3) 0.062(3) Uani 1 1 d . . .
H32A H 0.8164 0.5935 0.4024 0.074 Uiso 1 1 calc R . .
H32B H 0.7823 0.5485 0.3695 0.074 Uiso 1 1 calc R . .
N33A N 0.8257(4) 0.6105(3) 0.3349(2) 0.0552(19) Uani 1 1 d . . .
H33N H 0.8099 0.6028 0.3069 0.066 Uiso 1 1 calc R . .
C34A C 0.8841(4) 0.6428(4) 0.3390(3) 0.052(2) Uani 1 1 d . . .
C35A C 0.9130(4) 0.6642(4) 0.2942(3) 0.050(2) Uani 1 1 d . . .
N36A N 0.8770(3) 0.6513(3) 0.2564(3) 0.0532(18) Uani 1 1 d . . .
C37A C 0.9737(6) 0.6972(5) 0.2948(4) 0.071(3) Uani 1 1 d . . .
H37A H 0.9983 0.7057 0.3228 0.085 Uiso 1 1 calc R . .
C38A C 0.9970(5) 0.7173(5) 0.2524(4) 0.073(3) Uani 1 1 d . . .
H38A H 1.0387 0.7399 0.2507 0.087 Uiso 1 1 calc R . .
C39A C 0.9599(5) 0.7044(5) 0.2141(4) 0.075(3) Uani 1 1 d . . .
H39A H 0.9745 0.7190 0.1852 0.089 Uiso 1 1 calc R . .
C40A C 0.9016(4) 0.6708(4) 0.2162(3) 0.053(2) Uani 1 1 d . . .
C41A C 0.8572(5) 0.6587(5) 0.1728(3) 0.062(3) Uani 1 1 d . . .
N42A N 0.7976(4) 0.6294(4) 0.1792(3) 0.060(2) Uani 1 1 d . . .
H42N H 0.7860 0.6182 0.2071 0.072 Uiso 1 1 calc R . .
C43A C 0.7505(5) 0.6154(6) 0.1392(3) 0.073(3) Uani 1 1 d . . .
H43A H 0.7647 0.5797 0.1273 0.087 Uiso 1 1 calc R . .
H43B H 0.7582 0.6418 0.1142 0.087 Uiso 1 1 calc R . .
C44A C 0.6694(6) 0.6147(5) 0.1527(3) 0.069(3) Uani 1 1 d . . .
H44A H 0.6395 0.6081 0.1247 0.083 Uiso 1 1 calc R . .
H44B H 0.6607 0.5848 0.1745 0.083 Uiso 1 1 calc R . .
N45A N 0.6457(4) 0.6644(4) 0.1741(3) 0.061(2) Uani 1 1 d . . .
C46A C 0.6476(4) 0.7079(5) 0.1496(3) 0.059(3) Uani 1 1 d . . .
C47A C 0.6251(4) 0.7554(5) 0.1780(3) 0.056(2) Uani 1 1 d . . .
N48A N 0.6050(3) 0.7391(3) 0.2219(3) 0.060(2) Uani 1 1 d . . .
C49A C 0.6217(5) 0.8097(5) 0.1642(3) 0.063(3) Uani 1 1 d . . .
H49A H 0.6336 0.8209 0.1337 0.075 Uiso 1 1 calc R . .
C50A C 0.6001(6) 0.8452(5) 0.1980(4) 0.073(3) Uani 1 1 d . . .
H50A H 0.5998 0.8822 0.1905 0.087 Uiso 1 1 calc R . .
C51A C 0.5788(5) 0.8305(5) 0.2416(4) 0.070(3) Uani 1 1 d . . .
H51A H 0.5628 0.8561 0.2637 0.084 Uiso 1 1 calc R . .
C52A C 0.5819(4) 0.7780(5) 0.2514(3) 0.063(3) Uani 1 1 d . . .
C53A C 0.5602(4) 0.7504(4) 0.2951(3) 0.054(2) Uani 1 1 d . . .
N54A N 0.5654(3) 0.6963(4) 0.2926(3) 0.062(2) Uani 1 1 d . . .
C55A C 0.5406(5) 0.6640(5) 0.3308(4) 0.072(3) Uani 1 1 d . . .
H55A H 0.5323 0.6878 0.3577 0.087 Uiso 1 1 calc R . .
H55B H 0.5803 0.6389 0.3393 0.087 Uiso 1 1 calc R . .
C56A C 0.4709(4) 0.6315(4) 0.3228(3) 0.058(2) Uani 1 1 d . . .
H56A H 0.4649 0.6250 0.2892 0.070 Uiso 1 1 calc R . .
H56B H 0.4758 0.5963 0.3383 0.070 Uiso 1 1 calc R . .
C57A C 0.6567(6) 0.5725(5) 0.2652(4) 0.070(3) Uani 1 1 d . . .
C58A C 0.6405(7) 0.5175(6) 0.2830(5) 0.100(4) Uani 1 1 d . . .
H58A H 0.6862 0.5003 0.2927 0.150 Uiso 1 1 calc R . .
H58B H 0.6174 0.4963 0.2586 0.150 Uiso 1 1 calc R . .
H58C H 0.6073 0.5200 0.3096 0.150 Uiso 1 1 calc R . .
Ni2 Ni 0.19607(7) 0.64516(6) 0.26615(5) 0.0508(4) Uani 1 1 d . . .
Na1 Na 0.21201(15) 0.73098(14) 0.44488(10) 0.0471(8) Uani 1 1 d . . .
Na2 Na 0.58316(17) 0.74160(17) 0.05432(12) 0.0586(9) Uani 1 1 d . . .
O1B O 0.1624(4) 0.6812(4) -0.0507(3) 0.094(3) Uani 1 1 d . . .
O2B O 0.5095(3) 0.6604(3) 0.0538(2) 0.0592(17) Uani 1 1 d . . .
O3B O 0.4816(3) 0.7894(3) 0.0746(2) 0.0530(15) Uani 1 1 d . . .
O4B O 0.1076(3) 0.7778(3) 0.02045(18) 0.0562(16) Uani 1 1 d . . .
O5B O -0.1250(4) 0.5132(3) 0.1450(3) 0.082(2) Uani 1 1 d . . .
O6B O -0.0491(4) 0.5142(3) 0.3828(3) 0.080(2) Uani 1 1 d . . .
O7B O 0.1338(3) 0.6924(3) 0.39126(19) 0.0505(15) Uani 1 1 d . . .
O8B O 0.2472(3) 0.7474(3) 0.1649(2) 0.0654(19) Uani 1 1 d . . .
O9B O 0.2070(3) 0.5729(3) 0.2548(2) 0.0618(17) Uani 1 1 d . . .
O10B O 0.0900(3) 0.5789(3) 0.2365(3) 0.0706(19) Uani 1 1 d . . .
N1B N 0.0899(5) 0.6290(5) 0.0837(4) 0.096(3) Uani 1 1 d . . .
C2B C 0.0829(8) 0.5892(9) 0.0443(5) 0.135(8) Uani 1 1 d . . .
H2BA H 0.1061 0.5553 0.0541 0.162 Uiso 1 1 calc R . .
H2BB H 0.0303 0.5819 0.0394 0.162 Uiso 1 1 calc R . .
C3B C 0.1112(7) 0.6031(9) 0.0048(6) 0.145(8) Uani 1 1 d . . .
H3BA H 0.0810 0.6322 -0.0084 0.175 Uiso 1 1 calc R . .
H3BB H 0.1077 0.5722 -0.0165 0.175 Uiso 1 1 calc R . .
N4B N 0.1885(5) 0.6212(5) 0.0059(4) 0.092(3) Uani 1 1 d . . .
H4M H 0.2211 0.6069 0.0245 0.110 Uiso 1 1 calc R . .
C5B C 0.2047(6) 0.6598(5) -0.0229(4) 0.068(3) Uani 1 1 d . . .
C6B C 0.2860(4) 0.6747(4) -0.0247(3) 0.055(2) Uani 1 1 d . . .
N7B N 0.3306(4) 0.6510(3) 0.0082(2) 0.0498(17) Uani 1 1 d . . .
C8B C 0.3098(5) 0.7101(4) -0.0563(3) 0.058(2) Uani 1 1 d . . .
H8BA H 0.2769 0.7253 -0.0781 0.069 Uiso 1 1 calc R . .
C9B C 0.3830(5) 0.7241(4) -0.0565(3) 0.058(2) Uani 1 1 d . . .
H9BA H 0.4012 0.7488 -0.0788 0.070 Uiso 1 1 calc R . .
C10B C 0.4293(5) 0.7019(4) -0.0239(3) 0.060(2) Uani 1 1 d . . .
H10B H 0.4800 0.7104 -0.0238 0.071 Uiso 1 1 calc R . .
C11B C 0.4004(4) 0.6667(4) 0.0089(3) 0.0486(19) Uani 1 1 d . . .
C12B C 0.4471(5) 0.6422(4) 0.0458(3) 0.0489(19) Uani 1 1 d . . .
N13B N 0.4194(4) 0.6013(3) 0.0676(3) 0.0553(18) Uani 1 1 d . . .
H13M H 0.3770 0.5893 0.0576 0.066 Uiso 1 1 calc R . .
C14B C 0.4518(5) 0.5735(4) 0.1070(3) 0.062(3) Uani 1 1 d . . .
H14C H 0.5004 0.5594 0.0981 0.075 Uiso 1 1 calc R . .
H14D H 0.4205 0.5426 0.1154 0.075 Uiso 1 1 calc R . .
C15B C 0.4604(5) 0.6109(4) 0.1499(3) 0.055(2) Uani 1 1 d . . .
H15C H 0.4702 0.5887 0.1776 0.066 Uiso 1 1 calc R . .
H15D H 0.5032 0.6346 0.1450 0.066 Uiso 1 1 calc R . .
N16B N 0.3956(3) 0.6440(3) 0.1585(2) 0.0475(16) Uani 1 1 d . . .
C17B C 0.4134(4) 0.6902(4) 0.1867(3) 0.051(2) Uani 1 1 d . . .
H17C H 0.4481 0.6797 0.2114 0.061 Uiso 1 1 calc R . .
H17D H 0.3684 0.7041 0.2016 0.061 Uiso 1 1 calc R . .
C18B C 0.4473(4) 0.7335(4) 0.1570(3) 0.055(2) Uani 1 1 d . . .
H18C H 0.4623 0.7638 0.1769 0.066 Uiso 1 1 calc R . .
H18D H 0.4918 0.7192 0.1418 0.066 Uiso 1 1 calc R . .
N19B N 0.3965(4) 0.7526(3) 0.1218(2) 0.0520(18) Uani 1 1 d . . .
H19M H 0.3495 0.7464 0.1256 0.062 Uiso 1 1 calc R . .
C20B C 0.4176(4) 0.7788(4) 0.0846(3) 0.047(2) Uani 1 1 d . . .
C21B C 0.3561(4) 0.7960(3) 0.0519(3) 0.0446(18) Uani 1 1 d . . .
N22B N 0.2894(3) 0.7772(3) 0.0624(2) 0.0462(16) Uani 1 1 d . . .
C23B C 0.3717(4) 0.8288(5) 0.0154(3) 0.059(2) Uani 1 1 d . . .
H23B H 0.4200 0.8416 0.0103 0.071 Uiso 1 1 calc R . .
C24B C 0.3140(5) 0.8432(5) -0.0146(3) 0.070(3) Uani 1 1 d . . .
H24B H 0.3217 0.8659 -0.0405 0.084 Uiso 1 1 calc R . .
C25B C 0.2452(5) 0.8225(4) -0.0040(3) 0.060(2) Uani 1 1 d . . .
H25B H 0.2047 0.8305 -0.0234 0.072 Uiso 1 1 calc R . .
C26B C 0.2356(4) 0.7909(4) 0.0338(3) 0.0429(18) Uani 1 1 d . . .
C27B C 0.1600(4) 0.7701(4) 0.0464(3) 0.050(2) Uani 1 1 d . . .
N28B N 0.1551(4) 0.7428(4) 0.0863(3) 0.064(2) Uani 1 1 d . . .
H28M H 0.1950 0.7355 0.1021 0.077 Uiso 1 1 calc R . .
C29B C 0.0834(5) 0.7250(5) 0.1039(4) 0.071(3) Uani 1 1 d . . .
H29C H 0.0490 0.7556 0.1027 0.085 Uiso 1 1 calc R . .
H29D H 0.0890 0.7144 0.1367 0.085 Uiso 1 1 calc R . .
C30B C 0.0496(5) 0.6776(6) 0.0768(4) 0.092(4) Uani 1 1 d . . .
H30C H -0.0016 0.6723 0.0871 0.110 Uiso 1 1 calc R . .
H30D H 0.0487 0.6864 0.0435 0.110 Uiso 1 1 calc R . .
C31B C 0.0724(6) 0.5997(5) 0.1271(4) 0.072(3) Uani 1 1 d . . .
H31C H 0.0739 0.6253 0.1532 0.086 Uiso 1 1 calc R . .
H31D H 0.1110 0.5726 0.1326 0.086 Uiso 1 1 calc R . .
C32B C -0.0016(5) 0.5718(4) 0.1272(4) 0.067(3) Uani 1 1 d . . .
H32C H -0.0391 0.5968 0.1152 0.081 Uiso 1 1 calc R . .
H32D H 0.0004 0.5406 0.1061 0.081 Uiso 1 1 calc R . .
N33B N -0.0231(5) 0.5541(4) 0.1718(3) 0.072(2) Uani 1 1 d . . .
H33M H 0.0040 0.5625 0.1959 0.086 Uiso 1 1 calc R . .
C34B C -0.0847(5) 0.5245(4) 0.1782(4) 0.070(3) Uani 1 1 d . . .
C35B C -0.1036(6) 0.5067(4) 0.2260(5) 0.071(3) Uani 1 1 d . . .
N36B N -0.0599(4) 0.5231(3) 0.2610(3) 0.065(2) Uani 1 1 d . . .
C37B C -0.1612(6) 0.4731(4) 0.2335(5) 0.079(3) Uani 1 1 d . . .
H37B H -0.1897 0.4617 0.2079 0.095 Uiso 1 1 calc R . .
C38B C -0.1793(5) 0.4552(4) 0.2773(4) 0.069(3) Uani 1 1 d . . .
H38B H -0.2195 0.4319 0.2828 0.083 Uiso 1 1 calc R . .
C39B C -0.1348(6) 0.4736(4) 0.3125(4) 0.067(3) Uani 1 1 d . . .
H39B H -0.1452 0.4636 0.3435 0.081 Uiso 1 1 calc R . .
C40B C -0.0765(6) 0.5056(4) 0.3035(4) 0.065(3) Uani 1 1 d . . .
C41B C -0.0299(6) 0.5252(5) 0.3431(4) 0.073(3) Uani 1 1 d . . .
N42B N 0.0262(4) 0.5568(3) 0.3318(3) 0.065(2) Uani 1 1 d . . .
H42M H 0.0362 0.5642 0.3028 0.078 Uiso 1 1 calc R . .
C43B C 0.0717(5) 0.5794(5) 0.3705(3) 0.062(3) Uani 1 1 d . . .
H43C H 0.0724 0.5535 0.3964 0.074 Uiso 1 1 calc R . .
H43D H 0.0486 0.6128 0.3817 0.074 Uiso 1 1 calc R . .
C44B C 0.1501(5) 0.5914(4) 0.3561(4) 0.062(2) Uani 1 1 d . . .
H44C H 0.1804 0.5951 0.3843 0.074 Uiso 1 1 calc R . .
H44D H 0.1692 0.5605 0.3384 0.074 Uiso 1 1 calc R . .
N45B N 0.1584(3) 0.6395(3) 0.3282(3) 0.0484(16) Uani 1 1 d . . .
C46B C 0.1505(4) 0.6860(4) 0.3500(2) 0.0430(19) Uani 1 1 d . . .
C47B C 0.1616(4) 0.7321(4) 0.3182(3) 0.0440(19) Uani 1 1 d . . .
N48B N 0.1864(3) 0.7146(3) 0.27695(19) 0.0489(18) Uani 1 1 d . . .
C49B C 0.1507(4) 0.7852(4) 0.3254(3) 0.054(2) Uani 1 1 d . . .
H49B H 0.1334 0.7971 0.3546 0.065 Uiso 1 1 calc R . .
C50B C 0.1642(5) 0.8220(5) 0.2912(4) 0.067(3) Uani 1 1 d . . .
H50B H 0.1568 0.8592 0.2965 0.080 Uiso 1 1 calc R . .
C51B C 0.1890(4) 0.8034(4) 0.2486(3) 0.052(2) Uani 1 1 d . . .
H51B H 0.1984 0.8277 0.2241 0.062 Uiso 1 1 calc R . .
C52B C 0.1998(4) 0.7498(4) 0.2424(3) 0.054(2) Uani 1 1 d . . .
C53B C 0.2303(4) 0.7209(4) 0.1999(3) 0.053(2) Uani 1 1 d . . .
N54B N 0.2339(4) 0.6683(4) 0.2081(2) 0.0532(19) Uani 1 1 d . . .
C55B C 0.2603(4) 0.6349(5) 0.1708(3) 0.059(3) Uani 1 1 d . . .
H55C H 0.2616 0.6563 0.1420 0.070 Uiso 1 1 calc R . .
H55D H 0.2254 0.6051 0.1660 0.070 Uiso 1 1 calc R . .
C56B C 0.3375(5) 0.6112(4) 0.1795(3) 0.055(2) Uani 1 1 d . . .
H56C H 0.3461 0.6086 0.2132 0.066 Uiso 1 1 calc R . .
H56D H 0.3397 0.5746 0.1665 0.066 Uiso 1 1 calc R . .
C57B C 0.1474(5) 0.5505(4) 0.2399(4) 0.064(3) Uani 1 1 d . . .
C58B C 0.1490(7) 0.4950(5) 0.2248(6) 0.102(5) Uani 1 1 d . . .
H58D H 0.0999 0.4842 0.2149 0.152 Uiso 1 1 calc R . .
H58E H 0.1649 0.4722 0.2505 0.152 Uiso 1 1 calc R . .
H58F H 0.1832 0.4912 0.1989 0.152 Uiso 1 1 calc R . .
O1S O 0.2324(11) 0.3978(7) 0.2944(7) 0.155(7) Uiso 0.70 1 d PD . .
N1S N 0.2133(6) 0.3104(4) 0.2738(3) 0.052(2) Uiso 0.70 1 d PD . .
C1S C 0.2303(10) 0.3612(6) 0.2635(6) 0.088(5) Uiso 0.70 1 d PD . .
H1S H 0.2410 0.3703 0.2323 0.106 Uiso 0.70 1 calc PR . .
C2S C 0.1879(7) 0.2986(5) 0.3201(4) 0.051(3) Uiso 0.70 1 d PD . .
H2SA H 0.1883 0.3314 0.3386 0.076 Uiso 0.70 1 calc PR . .
H2SB H 0.2202 0.2720 0.3343 0.076 Uiso 0.70 1 calc PR . .
H2SC H 0.1380 0.2844 0.3186 0.076 Uiso 0.70 1 calc PR . .
C3S C 0.2176(8) 0.2691(5) 0.2392(4) 0.059(3) Uiso 0.70 1 d PD . .
H3SA H 0.2353 0.2844 0.2101 0.089 Uiso 0.70 1 calc PR . .
H3SB H 0.1689 0.2536 0.2344 0.089 Uiso 0.70 1 calc PR . .
H3SC H 0.2514 0.2411 0.2496 0.089 Uiso 0.70 1 calc PR . .
O2S O 0.0842(12) 0.4460(9) 0.0745(8) 0.174(8) Uiso 0.70 1 d PD . .
N2S N 0.0606(10) 0.3903(7) 0.1378(6) 0.116(6) Uiso 0.70 1 d PD . .
C4S C 0.1033(15) 0.4186(13) 0.1089(10) 0.193(15) Uiso 0.70 1 d PD . .
H4S H 0.1543 0.4178 0.1153 0.232 Uiso 0.70 1 calc PR . .
C5S C -0.0164(11) 0.3992(11) 0.1375(10) 0.146(10) Uiso 0.70 1 d PD . .
H5SA H -0.0272 0.4320 0.1202 0.218 Uiso 0.70 1 calc PR . .
H5SB H -0.0340 0.4029 0.1693 0.218 Uiso 0.70 1 calc PR . .
H5SC H -0.0409 0.3688 0.1227 0.218 Uiso 0.70 1 calc PR . .
C6S C 0.0884(19) 0.3409(12) 0.1584(14) 0.238(19) Uiso 0.70 1 d PD . .
H6SA H 0.1418 0.3398 0.1555 0.358 Uiso 0.70 1 calc PR . .
H6SB H 0.0671 0.3100 0.1424 0.358 Uiso 0.70 1 calc PR . .
H6SC H 0.0749 0.3397 0.1912 0.358 Uiso 0.70 1 calc PR . .
O3S O 0.7784(13) 0.5121(14) 0.4693(13) 0.219(15) Uiso 0.50 1 d PD . .
N3S N 0.8834(9) 0.4686(7) 0.4863(6) 0.070(4) Uiso 0.50 1 d PD . .
C7S C 0.8471(12) 0.5120(8) 0.4696(8) 0.080(6) Uiso 0.50 1 d PD . .
H7S H 0.8735 0.5421 0.4584 0.096 Uiso 0.50 1 calc PR . .
C8S C 0.842(2) 0.431(2) 0.511(2) 0.31(4) Uiso 0.50 1 d PD . .
H8SA H 0.7926 0.4283 0.4981 0.468 Uiso 0.50 1 calc PR . .
H8SB H 0.8386 0.4419 0.5438 0.468 Uiso 0.50 1 calc PR . .
H8SC H 0.8658 0.3956 0.5096 0.468 Uiso 0.50 1 calc PR . .
C9S C 0.9584(12) 0.4833(12) 0.4987(11) 0.110(9) Uiso 0.50 1 d PD . .
H9SA H 0.9741 0.5139 0.4799 0.165 Uiso 0.50 1 calc PR . .
H9SB H 0.9910 0.4529 0.4930 0.165 Uiso 0.50 1 calc PR . .
H9SC H 0.9603 0.4931 0.5315 0.165 Uiso 0.50 1 calc PR . .
O4S O 0.2744(5) 0.5476(3) 0.0697(3) 0.0498(19) Uiso 0.70 1 d PD . .
N4S N 0.2899(10) 0.4670(6) 0.0359(6) 0.110(5) Uiso 0.70 1 d PD . .
C10S C 0.2685(9) 0.5001(5) 0.0710(6) 0.078(4) Uiso 0.70 1 d PD . .
H10S H 0.2477 0.4844 0.0979 0.093 Uiso 0.70 1 calc PR . .
C11S C 0.3692(13) 0.4604(18) 0.0402(16) 0.29(3) Uiso 0.70 1 d PD . .
H11A H 0.3926 0.4957 0.0415 0.432 Uiso 0.70 1 calc PR . .
H11B H 0.3878 0.4407 0.0133 0.432 Uiso 0.70 1 calc PR . .
H11C H 0.3804 0.4405 0.0685 0.432 Uiso 0.70 1 calc PR . .
C12S C 0.251(3) 0.4149(13) 0.035(2) 0.39(4) Uiso 0.70 1 d PD . .
H12A H 0.1986 0.4209 0.0321 0.581 Uiso 0.70 1 calc PR . .
H12B H 0.2608 0.3959 0.0645 0.581 Uiso 0.70 1 calc PR . .
H12C H 0.2691 0.3933 0.0094 0.581 Uiso 0.70 1 calc PR . .
O5S O 0.3053(11) 0.4113(9) 0.1615(8) 0.183(8) Uiso 0.70 1 d PD . .
N5S N 0.4234(10) 0.4397(8) 0.1693(7) 0.122(6) Uiso 0.70 1 d PD . .
C13S C 0.3519(11) 0.4420(10) 0.1795(9) 0.142(9) Uiso 0.70 1 d PD . .
H13S H 0.3356 0.4680 0.2012 0.171 Uiso 0.70 1 calc PR . .
C14S C 0.4517(13) 0.4046(10) 0.1348(8) 0.137(9) Uiso 0.70 1 d PD . .
H14E H 0.4116 0.3921 0.1150 0.205 Uiso 0.70 1 calc PR . .
H14F H 0.4751 0.3738 0.1497 0.205 Uiso 0.70 1 calc PR . .
H14G H 0.4877 0.4237 0.1159 0.205 Uiso 0.70 1 calc PR . .
C15S C 0.4712(14) 0.4639(12) 0.2047(9) 0.168(12) Uiso 0.70 1 d PD . .
H15E H 0.4419 0.4867 0.2251 0.251 Uiso 0.70 1 calc PR . .
H15F H 0.5090 0.4855 0.1895 0.251 Uiso 0.70 1 calc PR . .
H15G H 0.4945 0.4355 0.2229 0.251 Uiso 0.70 1 calc PR . .
O6S O 0.6391(17) 0.3974(12) 0.2034(9) 0.179(12) Uiso 0.50 1 d PD . .
N6S N 0.6965(11) 0.4277(8) 0.1331(7) 0.091(6) Uiso 0.50 1 d PD . .
C16S C 0.6770(15) 0.3954(10) 0.1678(8) 0.097(8) Uiso 0.50 1 d PD . .
H16S H 0.6982 0.3609 0.1641 0.116 Uiso 0.50 1 calc PR . .
C17S C 0.7554(14) 0.4104(11) 0.1044(9) 0.102(9) Uiso 0.50 1 d PD . .
H17E H 0.7606 0.3715 0.1068 0.153 Uiso 0.50 1 calc PR . .
H17F H 0.8008 0.4277 0.1144 0.153 Uiso 0.50 1 calc PR . .
H17G H 0.7451 0.4202 0.0722 0.153 Uiso 0.50 1 calc PR . .
C18S C 0.675(2) 0.4836(10) 0.1375(14) 0.175(17) Uiso 0.50 1 d PD . .
H18E H 0.6327 0.4864 0.1581 0.263 Uiso 0.50 1 calc PR . .
H18F H 0.6623 0.4977 0.1069 0.263 Uiso 0.50 1 calc PR . .
H18G H 0.7159 0.5042 0.1503 0.263 Uiso 0.50 1 calc PR . .
O7S O 0.628(2) 0.4510(19) 0.4104(17) 0.30(2) Uiso 0.50 1 d PD . .
N7S N 0.6881(16) 0.3931(15) 0.3646(13) 0.200(17) Uiso 0.50 1 d PD . .
C19S C 0.6901(19) 0.4334(14) 0.3962(13) 0.150(14) Uiso 0.50 1 d PD . .
H19S H 0.7350 0.4478 0.4072 0.180 Uiso 0.50 1 calc PR . .
C20S C 0.6182(18) 0.3884(19) 0.3421(16) 0.21(2) Uiso 0.50 1 d PD . .
H20A H 0.5822 0.4106 0.3584 0.309 Uiso 0.50 1 calc PR . .
H20B H 0.6024 0.3509 0.3428 0.309 Uiso 0.50 1 calc PR . .
H20C H 0.6224 0.4004 0.3100 0.309 Uiso 0.50 1 calc PR . .
C21S C 0.7549(13) 0.3677(10) 0.3502(9) 0.083(7) Uiso 0.50 1 d PD . .
H21A H 0.7947 0.3784 0.3710 0.124 Uiso 0.50 1 calc PR . .
H21B H 0.7667 0.3786 0.3185 0.124 Uiso 0.50 1 calc PR . .
H21C H 0.7489 0.3287 0.3515 0.124 Uiso 0.50 1 calc PR . .
N8S N 0.0314(17) 0.3847(12) 0.3413(10) 0.164(9) Uiso 0.70 1 d P . .
C22S C 0.0726(17) 0.4080(12) 0.3670(11) 0.138(9) Uiso 0.70 1 d P . .
C23S C -0.015(2) 0.3513(16) 0.2969(14) 0.204(16) Uiso 0.70 1 d P . .
C24S C -0.021(2) 0.3698(13) 0.3631(12) 0.160(11) Uiso 0.70 1 d P . .
O1W O -0.1343(12) 0.5213(9) 0.0423(8) 0.120(7) Uiso 0.50 1 d P . .
O2W O 0.3291(14) 0.4923(9) 0.2860(8) 0.157(8) Uiso 0.60 1 d P . .
O2W' O 0.409(2) 0.4791(17) 0.3142(15) 0.184(15) Uiso 0.40 1 d P . .
O3W O 0.3086(18) 0.4473(12) 0.3896(11) 0.174(11) Uiso 0.50 1 d P . .
O4W O 0.5419(6) 0.5591(4) 0.4251(3) 0.074(3) Uiso 0.75 1 d P . .
O5W O 0.548(2) 0.5172(15) 0.4956(13) 0.095(10) Uiso 0.25 1 d P . .



loop_

_atom_site_aniso_label

_atom_site_aniso_U_11

_atom_site_aniso_U_22

_atom_site_aniso_U_33

_atom_site_aniso_U_23

_atom_site_aniso_U_13

_atom_site_aniso_U_12












































































































































Ni1 0.0312(7) 0.1079(13) 0.0387(7) -0.0110(8) 0.0015(6) 0.0014(8)
O1A 0.037(3) 0.100(5) 0.057(4) -0.006(4) -0.011(3) -0.010(3)
O2A 0.034(3) 0.092(5) 0.048(3) 0.002(3) -0.004(3) 0.009(3)
O3A 0.026(3) 0.084(4) 0.060(4) -0.003(3) 0.006(3) 0.002(3)
O4A 0.029(3) 0.092(5) 0.044(3) -0.004(3) -0.005(2) 0.003(3)
O5A 0.038(3) 0.114(6) 0.045(3) -0.008(3) -0.004(3) 0.012(3)
O6A 0.046(3) 0.122(6) 0.052(4) 0.013(4) 0.004(3) 0.009(4)
O7A 0.031(3) 0.126(6) 0.034(3) -0.017(3) -0.004(2) 0.007(3)
O8A 0.030(3) 0.132(6) 0.044(3) -0.021(4) 0.002(2) -0.002(3)
O9A 0.039(3) 0.113(6) 0.073(5) -0.024(4) 0.004(3) 0.009(4)
O10A 0.043(3) 0.104(5) 0.057(4) -0.011(4) 0.000(3) -0.007(3)
N1A 0.032(4) 0.106(7) 0.059(5) -0.019(5) 0.004(3) -0.005(4)
C2A 0.019(3) 0.098(7) 0.057(5) -0.005(5) -0.009(3) 0.011(4)
C3A 0.037(5) 0.106(8) 0.055(6) 0.001(5) 0.000(4) 0.012(5)
N4A 0.039(4) 0.112(7) 0.048(4) -0.022(4) 0.000(3) 0.008(4)
C5A 0.043(5) 0.066(6) 0.074(6) 0.009(5) -0.002(5) -0.001(5)
C6A 0.036(4) 0.060(5) 0.045(5) 0.003(4) -0.004(3) -0.004(4)
N7A 0.038(4) 0.062(5) 0.052(4) 0.002(3) -0.003(3) 0.005(3)
C8A 0.036(4) 0.080(6) 0.043(5) -0.005(4) -0.004(3) -0.004(4)
C9A 0.047(5) 0.082(7) 0.054(5) -0.006(5) 0.004(4) 0.013(5)
C10A 0.026(4) 0.090(7) 0.035(4) 0.001(4) -0.002(3) 0.007(4)
C11A 0.022(3) 0.075(6) 0.042(4) 0.001(4) -0.002(3) 0.001(4)
C12A 0.038(4) 0.072(6) 0.038(4) 0.005(4) 0.005(3) 0.003(4)
N13A 0.035(4) 0.057(4) 0.078(5) -0.010(4) -0.010(4) 0.006(3)
C14A 0.031(4) 0.086(7) 0.084(7) -0.031(6) 0.015(4) -0.015(5)
C15A 0.040(5) 0.091(7) 0.049(5) -0.029(5) 0.004(4) -0.005(5)
N16A 0.030(3) 0.088(6) 0.054(4) -0.012(4) 0.006(3) -0.005(4)
C17A 0.039(5) 0.090(7) 0.054(5) -0.014(5) -0.014(4) 0.007(5)
C18A 0.033(4) 0.092(7) 0.069(6) -0.018(5) -0.002(4) -0.002(5)
N19A 0.022(3) 0.083(5) 0.059(4) -0.017(4) 0.000(3) -0.007(3)
C20A 0.035(4) 0.062(5) 0.051(5) 0.001(4) 0.009(4) 0.000(4)
C21A 0.020(3) 0.071(5) 0.045(4) 0.001(4) 0.003(3) -0.001(3)
N22A 0.034(3) 0.073(5) 0.035(3) -0.004(3) 0.002(3) -0.002(3)
C23A 0.055(5) 0.088(7) 0.034(4) -0.006(4) 0.003(4) -0.010(5)
C24A 0.048(5) 0.084(7) 0.048(5) 0.001(5) 0.006(4) -0.003(5)
C25A 0.044(4) 0.080(6) 0.026(4) 0.001(4) 0.001(3) 0.001(4)
C26A 0.028(4) 0.072(6) 0.031(4) 0.000(3) 0.003(3) 0.005(4)
C27A 0.042(4) 0.071(6) 0.040(4) -0.005(4) 0.000(4) -0.004(4)
N28A 0.025(3) 0.121(7) 0.045(4) -0.031(4) 0.000(3) 0.007(4)
C29A 0.030(4) 0.119(9) 0.056(6) -0.014(6) -0.002(4) 0.007(5)
C30A 0.028(4) 0.101(8) 0.053(5) -0.009(5) -0.003(4) 0.000(5)
C31A 0.041(5) 0.099(8) 0.068(6) -0.029(6) -0.011(5) 0.017(5)
C32A 0.042(5) 0.090(7) 0.054(5) -0.009(5) 0.010(4) -0.004(5)
N33A 0.036(4) 0.088(6) 0.041(4) -0.014(4) 0.002(3) 0.013(4)
C34A 0.037(4) 0.069(6) 0.050(5) -0.007(4) -0.012(4) 0.012(4)
C35A 0.023(4) 0.070(6) 0.056(5) -0.011(4) -0.006(3) 0.013(4)
N36A 0.027(3) 0.076(5) 0.056(4) -0.003(4) -0.007(3) 0.013(3)
C37A 0.048(5) 0.082(8) 0.081(7) 0.000(6) -0.007(5) 0.001(5)
C38A 0.036(4) 0.102(8) 0.081(7) 0.017(6) -0.017(5) -0.009(5)
C39A 0.038(5) 0.114(9) 0.072(7) 0.014(6) 0.001(5) -0.001(6)
C40A 0.035(4) 0.076(6) 0.048(5) 0.003(4) 0.008(3) 0.003(4)
C41A 0.038(5) 0.093(8) 0.055(6) -0.003(5) 0.010(4) 0.010(5)
N42A 0.040(4) 0.098(6) 0.041(4) -0.005(4) -0.004(3) 0.007(4)
C43A 0.040(5) 0.129(10) 0.049(6) -0.016(6) 0.003(4) 0.016(6)
C44A 0.057(6) 0.102(8) 0.048(5) -0.025(5) -0.012(4) 0.010(6)
N45A 0.030(3) 0.113(7) 0.041(4) -0.011(4) -0.002(3) -0.004(4)
C46A 0.021(4) 0.103(8) 0.051(6) -0.011(5) -0.006(3) -0.003(4)
C47A 0.026(4) 0.103(8) 0.038(4) -0.015(5) 0.002(3) -0.003(4)
N48A 0.013(3) 0.093(6) 0.072(5) -0.031(4) -0.008(3) -0.004(3)
C49A 0.035(4) 0.104(8) 0.048(5) -0.004(5) 0.000(4) -0.014(5)
C50A 0.052(6) 0.090(8) 0.076(7) 0.002(6) 0.007(5) -0.013(5)
C51A 0.043(5) 0.090(8) 0.077(7) -0.029(6) -0.005(5) -0.005(5)
C52A 0.014(3) 0.123(9) 0.051(5) -0.025(5) -0.001(3) -0.006(4)
C53A 0.026(4) 0.087(7) 0.048(5) -0.023(5) -0.006(3) 0.002(4)
N54A 0.020(3) 0.117(7) 0.050(4) -0.010(4) 0.001(3) -0.008(4)
C55A 0.029(4) 0.111(9) 0.078(7) -0.002(6) -0.002(4) 0.000(5)
C56A 0.031(4) 0.091(7) 0.053(5) -0.017(5) -0.002(4) 0.005(4)
C57A 0.060(6) 0.090(8) 0.058(6) -0.020(6) 0.009(5) -0.005(6)
C58A 0.077(8) 0.099(10) 0.124(12) -0.005(9) 0.006(8) -0.004(7)
Ni2 0.0293(6) 0.0767(10) 0.0465(8) 0.0020(7) 0.0009(6) -0.0041(7)
Na1 0.0248(14) 0.082(2) 0.0341(15) -0.0041(14) 0.0003(11) -0.0019(14)
Na2 0.0295(15) 0.102(3) 0.0441(18) -0.0027(18) 0.0034(13) 0.0029(17)
O1B 0.043(4) 0.163(8) 0.077(5) -0.015(5) -0.012(4) 0.018(5)
O2B 0.033(3) 0.096(5) 0.049(3) 0.007(3) -0.005(3) -0.001(3)
O3B 0.026(3) 0.075(4) 0.058(4) 0.007(3) 0.004(2) -0.002(3)
O4B 0.044(3) 0.095(5) 0.030(3) 0.004(3) -0.001(2) -0.004(3)
O5B 0.058(4) 0.091(6) 0.097(6) -0.001(4) -0.014(4) -0.016(4)
O6B 0.071(5) 0.088(5) 0.081(5) 0.019(4) 0.015(4) -0.014(4)
O7B 0.025(3) 0.083(4) 0.043(3) -0.001(3) 0.007(2) -0.005(3)
O8B 0.038(3) 0.126(6) 0.032(3) 0.013(3) 0.001(2) -0.015(3)
O9B 0.032(3) 0.089(5) 0.064(4) 0.001(3) -0.004(3) -0.008(3)
O10B 0.041(3) 0.103(5) 0.068(4) -0.005(4) -0.006(3) -0.012(3)
N1B 0.052(5) 0.145(11) 0.092(8) -0.003(7) 0.009(5) -0.011(6)
C2B 0.067(8) 0.26(2) 0.077(9) -0.070(12) 0.009(7) -0.049(11)
C3B 0.056(8) 0.26(2) 0.119(13) -0.054(14) 0.021(8) -0.076(11)
N4B 0.044(5) 0.117(9) 0.114(9) -0.017(7) -0.008(5) -0.011(5)
C5B 0.060(6) 0.095(8) 0.048(6) -0.008(5) -0.004(5) -0.008(6)
C6B 0.036(4) 0.066(6) 0.064(6) -0.019(5) -0.007(4) 0.010(4)
N7B 0.042(4) 0.068(5) 0.040(4) -0.008(3) -0.003(3) -0.001(3)
C8B 0.038(4) 0.084(7) 0.051(5) -0.003(5) -0.006(4) 0.009(5)
C9B 0.047(5) 0.087(7) 0.040(5) -0.001(4) -0.010(4) -0.003(5)
C10B 0.049(5) 0.078(7) 0.052(5) 0.000(5) -0.001(4) 0.002(5)
C11B 0.036(4) 0.063(5) 0.047(5) -0.008(4) 0.004(3) -0.002(4)
C12B 0.049(5) 0.054(5) 0.044(5) -0.001(4) 0.005(4) -0.004(4)
N13B 0.052(4) 0.064(5) 0.050(4) -0.006(3) -0.007(3) 0.001(4)
C14B 0.046(5) 0.083(7) 0.057(6) 0.013(5) 0.002(4) 0.013(5)
C15B 0.033(4) 0.076(6) 0.055(5) 0.001(4) -0.004(4) 0.000(4)
N16B 0.033(3) 0.070(5) 0.040(4) 0.003(3) 0.009(3) -0.005(3)
C17B 0.036(4) 0.072(6) 0.045(5) 0.000(4) 0.001(3) -0.007(4)
C18B 0.033(4) 0.087(7) 0.045(5) 0.011(4) -0.004(3) -0.004(4)
N19B 0.031(3) 0.076(5) 0.049(4) 0.005(4) 0.000(3) -0.010(3)
C20B 0.025(4) 0.074(6) 0.042(4) 0.002(4) 0.000(3) -0.004(4)
C21B 0.034(4) 0.061(5) 0.039(4) -0.004(4) 0.008(3) -0.005(4)
N22B 0.034(3) 0.071(5) 0.034(3) -0.005(3) 0.005(3) 0.002(3)
C23B 0.030(4) 0.095(7) 0.054(5) 0.013(5) 0.007(4) -0.009(4)
C24B 0.056(6) 0.102(8) 0.051(5) 0.015(5) 0.003(4) -0.024(6)
C25B 0.041(5) 0.086(7) 0.054(5) 0.002(5) -0.009(4) 0.000(5)
C26B 0.036(4) 0.062(5) 0.031(4) -0.008(3) 0.010(3) -0.002(4)
C27B 0.034(4) 0.084(6) 0.031(4) -0.005(4) 0.000(3) 0.004(4)
N28B 0.030(3) 0.105(7) 0.058(5) 0.022(4) -0.002(3) -0.003(4)
C29B 0.033(4) 0.118(9) 0.061(6) 0.024(6) 0.012(4) -0.011(5)
C30B 0.036(5) 0.141(12) 0.099(9) 0.048(9) -0.014(5) -0.035(7)
C31B 0.048(5) 0.080(7) 0.087(8) -0.008(6) 0.010(5) -0.015(5)
C32B 0.047(5) 0.068(6) 0.087(8) -0.012(6) 0.005(5) -0.011(5)
N33B 0.051(5) 0.083(6) 0.081(6) 0.006(5) -0.013(4) -0.017(4)
C34B 0.041(5) 0.068(6) 0.101(9) -0.010(6) -0.007(5) -0.003(5)
C35B 0.051(5) 0.050(5) 0.111(9) -0.002(5) -0.005(6) -0.016(4)
N36B 0.049(4) 0.058(5) 0.088(6) 0.005(4) -0.010(4) -0.001(4)
C37B 0.053(6) 0.065(7) 0.120(10) 0.000(7) 0.001(7) -0.007(5)
C38B 0.039(5) 0.056(6) 0.112(9) -0.005(6) 0.004(5) -0.003(4)
C39B 0.059(6) 0.052(6) 0.091(8) 0.004(5) 0.010(5) 0.005(5)
C40B 0.052(6) 0.052(6) 0.092(8) 0.010(5) 0.004(5) -0.010(5)
C41B 0.056(6) 0.076(7) 0.087(8) 0.011(6) -0.001(6) -0.010(5)
N42B 0.043(4) 0.075(6) 0.076(6) 0.006(4) 0.005(4) -0.016(4)
C43B 0.045(5) 0.089(7) 0.051(5) 0.009(5) 0.007(4) -0.011(5)
C44B 0.049(5) 0.076(7) 0.061(6) 0.016(5) 0.007(4) -0.002(5)
N45B 0.027(3) 0.062(4) 0.056(4) 0.003(4) -0.001(3) -0.007(3)
C46B 0.020(3) 0.079(6) 0.030(4) 0.004(4) 0.001(3) -0.004(4)
C47B 0.011(3) 0.067(6) 0.054(5) 0.002(4) 0.000(3) -0.001(3)
N48B 0.022(3) 0.104(6) 0.021(3) 0.007(3) -0.004(2) -0.009(3)
C49B 0.032(4) 0.091(7) 0.040(4) -0.001(4) -0.003(3) -0.004(4)
C50B 0.043(5) 0.081(7) 0.076(7) 0.019(6) 0.009(5) 0.002(5)
C51B 0.030(4) 0.079(6) 0.046(5) 0.009(4) 0.006(3) 0.000(4)
C52B 0.020(3) 0.102(7) 0.039(4) 0.008(4) -0.005(3) -0.002(4)
C53B 0.024(4) 0.085(7) 0.050(5) 0.003(5) -0.006(3) -0.008(4)
N54B 0.030(3) 0.091(6) 0.038(4) -0.007(4) 0.005(3) -0.005(4)
C55B 0.027(4) 0.112(8) 0.036(4) -0.010(5) 0.003(3) -0.013(4)
C56B 0.042(5) 0.078(6) 0.046(5) 0.002(4) 0.010(4) -0.004(4)
C57B 0.039(5) 0.088(7) 0.063(6) -0.003(5) 0.006(4) -0.003(5)
C58B 0.070(8) 0.081(9) 0.154(14) -0.013(9) -0.005(8) 0.003(7)



_geom_special_details            
;

All esds (except the esd in the dihedral angle between two l.s. planes)

are estimated using the full covariance matrix. The cell esds are taken

into account individually in the estimation of esds in distances, angles

and torsion angles; correlations between esds in cell parameters are only

used when they are defined by crystal symmetry. An approximate (isotropic)

treatment of cell esds is used for estimating esds involving l.s. planes.

;



loop_

_geom_bond_atom_site_label_1

_geom_bond_atom_site_label_2

_geom_bond_distance

_geom_bond_site_symmetry_2

_geom_bond_publ_flag




























































































































































































































































































































































Ni1 N48A 1.741(9) . ?
Ni1 O9A 1.792(9) . ?
Ni1 N54A 1.904(8) . ?
Ni1 N45A 1.936(7) . ?
O1A C5A 1.265(11) . ?
O1A Na1 2.318(8) 2_566 ?
O2A C12A 1.246(10) . ?
O2A Na1 2.321(7) . ?
O3A C20A 1.272(9) . ?
O3A Na1 2.335(7) . ?
O4A C27A 1.223(10) . ?
O4A Na1 2.273(6) 2_566 ?
O5A C34A 1.249(10) . ?
O6A C41A 1.228(11) . ?
O7A C46A 1.245(11) . ?
O7A Na2 2.245(7) . ?
O8A C53A 1.272(10) . ?
O9A C57A 1.334(13) . ?
O10A C57A 1.239(12) . ?
N1A C2A 1.428(11) . ?
N1A C30A 1.428(13) . ?
N1A C31A 1.506(13) . ?
C2A C3A 1.533(14) . ?
C2A H2AA 0.9900 . ?
C2A H2AB 0.9900 . ?
C3A N4A 1.455(11) . ?
C3A H3AA 0.9900 . ?
C3A H3AB 0.9900 . ?
N4A C5A 1.308(13) . ?
N4A H4N 0.8800 . ?
C5A C6A 1.514(12) . ?
C6A N7A 1.319(11) . ?
C6A C8A 1.410(12) . ?
N7A C11A 1.340(10) . ?
C8A C9A 1.398(12) . ?
C8A H8AA 0.9500 . ?
C9A C10A 1.359(12) . ?
C9A H9AA 0.9500 . ?
C10A C11A 1.394(12) . ?
C10A H10A 0.9500 . ?
C11A C12A 1.535(11) . ?
C12A N13A 1.307(11) . ?
N13A C14A 1.468(12) . ?
N13A H13N 0.8800 . ?
C14A C15A 1.533(15) . ?
C14A H14A 0.9900 . ?
C14A H14B 0.9900 . ?
C15A N16A 1.467(12) . ?
C15A H15A 0.9900 . ?
C15A H15B 0.9900 . ?
N16A C17A 1.430(13) . ?
N16A C56A 1.443(11) . ?
C17A C18A 1.529(13) . ?
C17A H17A 0.9900 . ?
C17A H17B 0.9900 . ?
C18A N19A 1.465(11) . ?
C18A H18A 0.9900 . ?
C18A H18B 0.9900 . ?
N19A C20A 1.288(11) . ?
N19A H19N 0.8800 . ?
C20A C21A 1.497(11) . ?
C21A N22A 1.347(10) . ?
C21A C23A 1.406(12) . ?
N22A C26A 1.354(10) . ?
C23A C24A 1.381(13) . ?
C23A H23A 0.9500 . ?
C24A C25A 1.375(12) . ?
C24A H24A 0.9500 . ?
C25A C26A 1.383(11) . ?
C25A H25A 0.9500 . ?
C26A C27A 1.513(11) . ?
C27A N28A 1.316(11) . ?
N28A C29A 1.457(10) . ?
N28A H28N 0.8800 . ?
C29A C30A 1.452(15) . ?
C29A H29A 0.9900 . ?
C29A H29B 0.9900 . ?
C30A H30A 0.9900 . ?
C30A H30B 0.9900 . ?
C31A C32A 1.517(12) . ?
C31A H31A 0.9900 . ?
C31A H31B 0.9900 . ?
C32A N33A 1.452(12) . ?
C32A H32A 0.9900 . ?
C32A H32B 0.9900 . ?
N33A C34A 1.343(12) . ?
N33A H33N 0.8800 . ?
C34A C35A 1.497(13) . ?
C35A N36A 1.316(10) . ?
C35A C37A 1.382(13) . ?
N36A C40A 1.338(11) . ?
C37A C38A 1.391(15) . ?
C37A H37A 0.9500 . ?
C38A C39A 1.338(14) . ?
C38A H38A 0.9500 . ?
C39A C40A 1.357(14) . ?
C39A H39A 0.9500 . ?
C40A C41A 1.526(13) . ?
C41A N42A 1.325(12) . ?
N42A C43A 1.483(12) . ?
N42A H42N 0.8800 . ?
C43A C44A 1.532(14) . ?
C43A H43A 0.9900 . ?
C43A H43B 0.9900 . ?
C44A N45A 1.454(13) . ?
C44A H44A 0.9900 . ?
C44A H44B 0.9900 . ?
N45A C46A 1.298(13) . ?
C46A C47A 1.501(14) . ?
C46A Na2 3.111(10) . ?
C47A N48A 1.385(12) . ?
C47A C49A 1.415(15) . ?
N48A C52A 1.359(12) . ?
C49A C50A 1.378(15) . ?
C49A H49A 0.9500 . ?
C50A C51A 1.369(15) . ?
C50A H50A 0.9500 . ?
C51A C52A 1.344(16) . ?
C51A H51A 0.9500 . ?
C52A C53A 1.492(14) . ?
C53A N54A 1.359(13) . ?
N54A C55A 1.441(13) . ?
C55A C56A 1.527(13) . ?
C55A H55A 0.9900 . ?
C55A H55B 0.9900 . ?
C56A H56A 0.9900 . ?
C56A H56B 0.9900 . ?
C57A C58A 1.497(17) . ?
C58A H58A 0.9800 . ?
C58A H58B 0.9800 . ?
C58A H58C 0.9800 . ?
Ni2 N48B 1.771(8) . ?
Ni2 O9B 1.847(7) . ?
Ni2 N54B 1.906(7) . ?
Ni2 N45B 1.928(7) . ?
Na1 O4A 2.273(6) 2_466 ?
Na1 O7B 2.318(6) . ?
Na1 O1A 2.318(8) 2_466 ?
Na2 O4B 2.260(6) 2_565 ?
Na2 O3B 2.284(7) . ?
Na2 O1B 2.415(10) 2_565 ?
Na2 O2B 2.435(8) . ?
O1B C5B 1.235(13) . ?
O1B Na2 2.415(10) 2_465 ?
O2B C12B 1.249(10) . ?
O3B C20B 1.232(9) . ?
O4B C27B 1.233(9) . ?
O4B Na2 2.260(6) 2_465 ?
O5B C34B 1.242(13) . ?
O6B C41B 1.233(13) . ?
O7B C46B 1.242(9) . ?
O8B C53B 1.249(11) . ?
O9B C57B 1.297(11) . ?
O10B C57B 1.271(12) . ?
N1B C30B 1.435(17) . ?
N1B C31B 1.488(15) . ?
N1B C2B 1.516(17) . ?
C2B C3B 1.30(2) . ?
C2B H2BA 0.9900 . ?
C2B H2BB 0.9900 . ?
C3B N4B 1.483(14) . ?
C3B H3BA 0.9900 . ?
C3B H3BB 0.9900 . ?
N4B C5B 1.307(15) . ?
N4B H4M 0.8800 . ?
C5B C6B 1.532(14) . ?
C6B C8B 1.345(14) . ?
C6B N7B 1.384(11) . ?
N7B C11B 1.335(11) . ?
C8B C9B 1.381(12) . ?
C8B H8BA 0.9500 . ?
C9B C10B 1.384(13) . ?
C9B H9BA 0.9500 . ?
C10B C11B 1.396(13) . ?
C10B H10B 0.9500 . ?
C11B C12B 1.497(12) . ?
C12B N13B 1.303(11) . ?
N13B C14B 1.460(11) . ?
N13B H13M 0.8800 . ?
C14B C15B 1.561(14) . ?
C14B H14C 0.9900 . ?
C14B H14D 0.9900 . ?
C15B N16B 1.465(11) . ?
C15B H15C 0.9900 . ?
C15B H15D 0.9900 . ?
N16B C17B 1.452(11) . ?
N16B C56B 1.472(11) . ?
C17B C18B 1.512(12) . ?
C17B H17C 0.9900 . ?
C17B H17D 0.9900 . ?
C18B N19B 1.460(10) . ?
C18B H18C 0.9900 . ?
C18B H18D 0.9900 . ?
N19B C20B 1.316(11) . ?
N19B H19M 0.8800 . ?
C20B C21B 1.531(11) . ?
C21B N22B 1.342(10) . ?
C21B C23B 1.366(12) . ?
N22B C26B 1.330(10) . ?
C23B C24B 1.410(13) . ?
C23B H23B 0.9500 . ?
C24B C25B 1.394(13) . ?
C24B H24B 0.9500 . ?
C25B C26B 1.359(12) . ?
C25B H25B 0.9500 . ?
C26B C27B 1.521(11) . ?
C27B N28B 1.342(11) . ?
N28B C29B 1.473(11) . ?
N28B H28M 0.8800 . ?
C29B C30B 1.548(18) . ?
C29B H29C 0.9900 . ?
C29B H29D 0.9900 . ?
C30B H30C 0.9900 . ?
C30B H30D 0.9900 . ?
C31B C32B 1.5