####################################################################### 
# 
# This file contains crystal structure data downloaded from the 
# Cambridge Structural Database (CSD) hosted by the Cambridge 
# Crystallographic Data Centre (CCDC).
# 
# Full information about CCDC data access policies and citation 
# guidelines are available at http://www.ccdc.cam.ac.uk/access/V1 
# 
# Audit and citation data items may have been added by the CCDC. 
# Please retain this information to preserve the provenance of 
# this file and to allow appropriate attribution of the data. 
# 
#######################################################################

data_GIFKAH
#This CIF has been generated from an entry in the Cambridge Structural Database
_database_code_depnum_ccdc_archive 'CCDC 1167558'
_database_code_CSD               GIFKAH
loop_
_citation_id
_citation_doi
_citation_year
1 10.1007/BF00663047 1988
_audit_creation_method           'Created from the CSD'
_audit_update_record             
;
2024-07-10 downloaded from the CCDC.
;
_database_code_NBS               583391
_chemical_formula_moiety         '(C10 H16 Cd1 N6 Ni1)n,n(C7 H9 N1)'
_chemical_name_systematic        
'catena-((\m~2~-1,6-Diaminohexane-N,N)-tetrakis(\m~2~-cyano-C,N)-cadmium(ii)-nickel(ii) m-toluidine clathrate)'
_chemical_absolute_configuration unk
_diffrn_ambient_temperature      295
_exptl_crystal_density_diffrn    1.588
#These two values have been output from a single CSD field.
_refine_ls_R_factor_gt           0.032
_refine_ls_wR_factor_gt          0.032
_diffrn_radiation_probe          x-ray
_symmetry_cell_setting           triclinic
_symmetry_space_group_name_H-M   'P -1'
_symmetry_Int_Tables_number      2
_space_group_name_Hall           '-P 1'
loop_
_symmetry_equiv_pos_site_id
_symmetry_equiv_pos_as_xyz
1 x,y,z
2 -x,-y,-z
_cell_length_a                   9.725(2)
_cell_length_b                   7.598(1)
_cell_length_c                   7.177(1)
_cell_angle_alpha                90.44(1)
_cell_angle_beta                 98.80(1)
_cell_angle_gamma                95.70(1)
_cell_volume                     521.338
_cell_formula_units_Z            1
loop_
_atom_site_label
_atom_site_type_symbol
_atom_site_fract_x
_atom_site_fract_y
_atom_site_fract_z
Cd1 Cd 0.00000 0.00000 0.00000
Ni1 Ni 0.00000 -0.5 0.50000
N1 N 0.0526(3) -0.2132(3) 0.2288(3)
N2 N 0.0635(3) -0.7703(3) 0.2282(3)
C1 C 0.0354(3) -0.3217(3) 0.3336(3)
C2 C 0.0426(3) -0.6675(3) 0.3334(3)
N3 N 0.2288(3) 0.0178(4) -0.0603(2)
C3 C 0.2537(3) 0.0222(5) -0.2585(4)
C4 C 0.4062(3) 0.0132(5) -0.2782(4)
C5 C 0.4228(3) 0.0074(5) -0.4898(5)
H1 H 0.30689 0.10074 -0.00378
H2 H 0.18680 0.09659 -0.29274
H3 H 0.46870 0.11237 -0.21650
H4 H 0.36393 -0.13481 -0.55221
H5 H 0.35116 0.11229 -0.52202
C5A C 0.5772(3) -0.0074(5) -0.5102(5)
C4A C 0.5938(3) -0.0132(5) -0.7218(4)
C3A C 0.7463(3) -0.0222(5) -0.7415(4)
N3A N 0.7712(3) -0.0178(4) -0.9397(2)
H1A H 0.69311 -0.10074 -0.99622
H2A H 0.81320 -0.09659 -0.70726
H3A H 0.53130 -0.11237 -0.78350
H4A H 0.63607 0.13481 -0.44779
H5A H 0.64884 -0.11229 -0.47798
N1A N -0.0526(3) 0.2132(3) -0.2288(3)
N2A N -0.0635(3) -0.2297(3) -0.2282(3)
N3A N -0.2288(3) -0.0178(4) 0.0603(2)
C1A C -0.0354(3) -0.6783(3) 0.6664(3)
C2A C -0.0426(3) -0.3325(3) 0.6666(3)
Cd1 Cd 1.00000 0.00000 -1.00000
H1A H -0.30689 -0.10074 0.00378
N2 N 0.0635(3) 0.2297(3) 0.2282(3)
N2A N -0.0635(3) -0.2297(3) 0.7718(3)
N1A N -0.0526(3) -0.7868(3) 0.7712(3)
Cd1 Cd 0.00000 -1.00000 0.00000
Cd1 Cd 0.00000 -1.00000 1.00000
Cd1 Cd 0.00000 0.00000 1.00000

#END
