
#######################################################################
#
#                 Cambridge Crystallographic Data Centre
#                                CCDC
#
#######################################################################
#
# If this CIF has been generated from an entry in the Cambridge
# Structural Database, then it will include bibliographic, chemical,
# crystal, experimental, refinement or atomic coordinate data resulting
# from the CCDC's data processing and validation procedures.
#
#######################################################################

data_CSD_CIF_GINROK
_audit_creation_date 1989-06-08
_audit_creation_method CSD-ConQuest-V1
_database_code_CSD GINROK
_database_code_depnum_ccdc_archive 'CCDC 1168285'
_chemical_formula_sum 'C9 H22 Cl3 O6 Y1'
_chemical_formula_moiety
;
C9 H22 Cl2 O6 Y1 1+,Cl1 1-
;
_journal_coden_Cambridge 9
_journal_volume 27
_journal_year 1988
_journal_page_first 3826
_journal_name_full 'Inorg.Chem. '
loop_
_publ_author_name
"R.D.Rogers"
"A.N.Rollins"
"M.M.Benning"
_chemical_name_systematic
;
Aqua-(12-crown-4-O,O',O'',O''')-dichloro-methanol-yttrium chloride
;
_chemical_name_common
;
Teaching Subset: Fundamental Chemistry
;
_cell_volume    795.048
_exptl_crystal_colour 'colorless'
_exptl_crystal_density_diffrn 1.76
_diffrn_ambient_temperature 123.15
#These two values have been output from a single CSD field.
_refine_ls_R_factor_gt 0.036
_refine_ls_wR_factor_gt 0.036
_symmetry_cell_setting triclinic
_symmetry_space_group_name_H-M 'P -1'
_symmetry_Int_Tables_number 2
loop_
_symmetry_equiv_pos_site_id
_symmetry_equiv_pos_as_xyz
1 x,y,z
2 -x,-y,-z
_cell_length_a 7.301(4)
_cell_length_b 8.148(2)
_cell_length_c 14.032(3)
_cell_angle_alpha 89.66(2)
_cell_angle_beta 81.75(3)
_cell_angle_gamma 74.36(4)
_cell_formula_units_Z 2
loop_
_atom_type_symbol
_atom_type_radius_bond
C 0.68
H 0.23
Cl 0.99
O 0.68
Y 1.78
loop_
_atom_site_label
_atom_site_type_symbol
_atom_site_fract_x
_atom_site_fract_y
_atom_site_fract_z
Y1 Y 0.89397(6) -0.16633(5) 0.23216(3)
Cl1 Cl 0.6565(2) 0.1194(1) 0.18463(7)
Cl2 Cl 0.7267(2) -0.3041(1) 0.11311(8)
O1 O 1.1038(4) -0.1583(4) 0.0822(2)
O2 O 1.0795(4) 0.0452(4) 0.2342(2)
O3 O 1.1290(4) -0.2229(4) 0.3470(2)
O4 O 1.1560(4) -0.4291(4) 0.1943(2)
O5 O 0.7988(4) -0.3776(4) 0.3276(2)
O6 O 0.7286(4) -0.0361(4) 0.3782(2)
C1 C 1.2323(6) -0.0474(6) 0.0739(3)
C2 C 1.1331(7) 0.1037(6) 0.1395(3)
C3 C 1.2305(7) 0.0236(6) 0.2939(3)
C4 C 1.1703(7) -0.0701(6) 0.3800(3)
C5 C 1.3025(6) -0.3613(6) 0.3262(3)
C6 C 1.2467(6) -0.4989(6) 0.2764(3)
C7 C 1.2928(6) -0.4417(6) 0.1067(3)
C8 C 1.1917(6) -0.3243(6) 0.0363(3)
C9 C 0.7925(7) -0.5524(6) 0.3074(4)
H1 H 0.73900 -0.35300 0.38400
H2 H 0.67600 -0.09600 0.42200
H3 H 0.63500 0.05300 0.38200
H4 H 1.35100 -0.10500 0.09300
H5 H 1.25200 -0.01300 0.00900
H6 H 1.02100 0.16800 0.11500
H7 H 1.21600 0.17300 0.14300
H8 H 1.34900 -0.04200 0.26000
H9 H 1.24200 0.13100 0.31300
H10 H 1.05800 0.00100 0.41700
H11 H 1.27000 -0.10000 0.41900
H12 H 1.39800 -0.32500 0.28500
H13 H 1.34900 -0.40100 0.38400
H14 H 1.16000 -0.54200 0.32000
H15 H 1.35800 -0.58900 0.25500
H16 H 1.40100 -0.40800 0.12000
H17 H 1.33200 -0.55600 0.08100
H18 H 1.09400 -0.36900 0.01600
H19 H 1.28200 -0.31500 -0.01800
H20 H 0.82100 -0.58000 0.23300
H21 H 0.68400 -0.57600 0.35000
H22 H 0.91200 -0.65500 0.31500
Cl3 Cl 0.6131(2) -0.2659(1) 0.53220(7)
#END
