####################################################################### 
# 
# This file contains crystal structure data downloaded from the 
# Cambridge Structural Database (CSD) hosted by the Cambridge 
# Crystallographic Data Centre (CCDC).
# 
# Full information about CCDC data access policies and citation 
# guidelines are available at http://www.ccdc.cam.ac.uk/access/V1 
# 
# Audit and citation data items may have been added by the CCDC. 
# Please retain this information to preserve the provenance of 
# this file and to allow appropriate attribution of the data. 
# 
#######################################################################

data_compound_3_bistyrile
_audit_block_doi                 10.5517/ccpfskf
_database_code_depnum_ccdc_archive 'CCDC 638865'
loop_
_citation_id
_citation_doi
_citation_year
1 10.1002/anie.200702756 2007
_audit_update_record             
;
2007-03-01 deposited with the CCDC.	2024-07-10 downloaded from the CCDC.
;

_audit_creation_method           SHELXL-97
_chemical_name_systematic        
;
?
;
_chemical_name_common            ?
_chemical_melting_point          ?
_chemical_formula_moiety         'C86 H68 Cl0 Cu2 F0 N3 P4'
_chemical_formula_sum            'C86 H68 Cl0 Cu2 F0 N3 P4'
_chemical_formula_weight         1394.39

loop_
_atom_type_symbol
_atom_type_description
_atom_type_scat_dispersion_real
_atom_type_scat_dispersion_imag
_atom_type_scat_source
C C 0.0033 0.0016 'International Tables Vol C Tables 4.2.6.8 and 6.1.1.4'
H H 0.0000 0.0000 'International Tables Vol C Tables 4.2.6.8 and 6.1.1.4'
N N 0.0061 0.0033 'International Tables Vol C Tables 4.2.6.8 and 6.1.1.4'
F F 0.0171 0.0103 'International Tables Vol C Tables 4.2.6.8 and 6.1.1.4'
P P 0.1023 0.0942 'International Tables Vol C Tables 4.2.6.8 and 6.1.1.4'
Cl Cl 0.1484 0.1585 'International Tables Vol C Tables 4.2.6.8 and 6.1.1.4'
Cu Cu 0.3201 1.2651 'International Tables Vol C Tables 4.2.6.8 and 6.1.1.4'

_symmetry_cell_setting           triclinic
_symmetry_space_group_name_H-M   P-1

loop_
_symmetry_equiv_pos_as_xyz
'x, y, z'
'-x, -y, -z'

_cell_length_a                   14.376(3)
_cell_length_b                   16.082(3)
_cell_length_c                   23.959(5)
_cell_angle_alpha                91.405(9)
_cell_angle_beta                 102.253(9)
_cell_angle_gamma                113.678(8)
_cell_volume                     4920(3)
_cell_formula_units_Z            2
_cell_measurement_temperature    100(2)
_cell_measurement_reflns_used    0
_cell_measurement_theta_min      1.55
_cell_measurement_theta_max      27.79

_exptl_crystal_description       block
_exptl_crystal_colour            yellow
_exptl_crystal_size_max          0.4
_exptl_crystal_size_mid          0.4
_exptl_crystal_size_min          0.3
_exptl_crystal_density_meas      ?
_exptl_crystal_density_diffrn    0.941
_exptl_crystal_density_method    'not measured'
_exptl_crystal_F_000             1446
_exptl_absorpt_coefficient_mu    0.532
_exptl_absorpt_correction_type   none
_exptl_absorpt_correction_T_min  ?
_exptl_absorpt_correction_T_max  ?
_exptl_absorpt_process_details   ?

_exptl_special_details           
;
?
;

_diffrn_ambient_temperature      100(2)
_diffrn_radiation_wavelength     0.71069
_diffrn_radiation_type           MoK\a
_diffrn_radiation_source         'fine-focus sealed tube'
_diffrn_radiation_monochromator  graphite
_diffrn_measurement_device_type  CCD
_diffrn_measurement_method       none
_diffrn_detector_area_resol_mean ?
_diffrn_standards_number         ?
_diffrn_standards_interval_count ?
_diffrn_standards_interval_time  ?
_diffrn_standards_decay_%        none
_diffrn_reflns_number            68256
_diffrn_reflns_av_R_equivalents  0.0735
_diffrn_reflns_av_sigmaI/netI    0.1173
_diffrn_reflns_limit_h_min       -17
_diffrn_reflns_limit_h_max       18
_diffrn_reflns_limit_k_min       -20
_diffrn_reflns_limit_k_max       20
_diffrn_reflns_limit_l_min       -31
_diffrn_reflns_limit_l_max       31
_diffrn_reflns_theta_min         1.55
_diffrn_reflns_theta_max         27.79
_reflns_number_total             22684
_reflns_number_gt                11867
_reflns_threshold_expression     >2sigma(I)

_computing_data_collection       ?
_computing_cell_refinement       ?
_computing_data_reduction        ?
_computing_structure_solution    'SHELXS-86 (Sheldrick, 1986)'
_computing_structure_refinement  'SHELXL-97 (Sheldrick, 1997)'
_computing_molecular_graphics    'Ortep-3 for Windows (Farrugia, 1997)'
_computing_publication_material  'WinGX publication routines (Farrugia, 1999)'

_refine_special_details          
;
Refinement of F^2^ against ALL
reflections. The weighted R-factor wR
and
goodness of fit S are based on F^2^,
conventional R-factors R are based
on F, with F set to zero for negative F^2^.
The threshold expression of
F^2^ > 2sigma(F^2^) is used only for
calculating R-factors(gt) etc. and is
not relevant to the choice of reflections for
refinement. R-factors based
on F^2^ are statistically about twice as large
as those based on F, and R-
factors based on ALL data will be even larger.
;

_refine_ls_structure_factor_coef Fsqd
_refine_ls_matrix_type           full
_refine_ls_weighting_scheme      calc
_refine_ls_weighting_details     
'calc w=1/[\s^2^(Fo^2^)+(0.1408P)^2^+0.0000P] where P=(Fo^2^+2Fc^2^)/3'
_atom_sites_solution_primary     direct
_atom_sites_solution_secondary   difmap
_atom_sites_solution_hydrogens   geom
_refine_ls_hydrogen_treatment    mixed
_refine_ls_extinction_method     none
_refine_ls_extinction_coef       ?
_refine_ls_number_reflns         22684
_refine_ls_number_parameters     844
_refine_ls_number_restraints     0
_refine_ls_R_factor_all          0.1337
_refine_ls_R_factor_gt           0.0862
_refine_ls_wR_factor_ref         0.2485
_refine_ls_wR_factor_gt          0.2252
_refine_ls_goodness_of_fit_ref   0.980
_refine_ls_restrained_S_all      0.980
_refine_ls_shift/su_max          0.001
_refine_ls_shift/su_mean         0.000

loop_
_atom_site_label
_atom_site_type_symbol
_atom_site_fract_x
_atom_site_fract_y
_atom_site_fract_z
_atom_site_U_iso_or_equiv
_atom_site_adp_type
_atom_site_occupancy
_atom_site_symmetry_multiplicity
_atom_site_calc_flag
_atom_site_refinement_flags
_atom_site_disorder_assembly
_atom_site_disorder_group
Cu1 Cu 0.33425(4) 0.20651(3) 0.29470(2) 0.03029(15) Uani 1 1 d . . .
Cu2 Cu 0.14045(4) 0.12115(3) 0.35420(2) 0.03004(15) Uani 1 1 d . . .
P1 P 0.42013(8) 0.16836(7) 0.37318(5) 0.0305(2) Uani 1 1 d . . .
P2 P 0.23895(8) 0.09570(7) 0.43148(5) 0.0303(2) Uani 1 1 d . . .
P3 P 0.30791(8) 0.33528(7) 0.28830(5) 0.0340(3) Uani 1 1 d . . .
P4 P 0.13120(8) 0.25625(7) 0.34853(5) 0.0355(3) Uani 1 1 d . . .
N100 N 0.2096(3) 0.1052(2) 0.24411(16) 0.0416(9) Uani 1 1 d . . .
N115 N 0.0198(3) 0.0140(2) 0.30947(15) 0.0335(8) Uani 1 1 d . . .
N200 N 0.4353(3) 0.2293(3) 0.24168(17) 0.0461(9) Uani 1 1 d . . .
C1 C 0.3788(3) 0.1692(3) 0.44013(17) 0.0310(9) Uani 1 1 d . . .
H1A H 0.3925 0.2314 0.4535 0.037 Uiso 1 1 calc R . .
H1B H 0.4198 0.1484 0.4692 0.037 Uiso 1 1 calc R . .
C2 C 0.4176(3) 0.0550(3) 0.3606(2) 0.0399(10) Uani 1 1 d . . .
C3 C 0.3703(4) 0.0070(3) 0.3065(2) 0.0507(12) Uani 1 1 d . . .
H3 H 0.3434 0.0337 0.2770 0.061 Uiso 1 1 calc R . .
C4 C 0.3624(5) -0.0820(4) 0.2957(3) 0.0676(16) Uani 1 1 d . . .
H4 H 0.3307 -0.1145 0.2591 0.081 Uiso 1 1 calc R . .
C5 C 0.4014(5) -0.1199(4) 0.3391(3) 0.0656(16) Uani 1 1 d . . .
H5 H 0.3942 -0.1796 0.3323 0.079 Uiso 1 1 calc R . .
C6 C 0.4515(4) -0.0726(4) 0.3932(3) 0.0596(14) Uani 1 1 d . . .
H6 H 0.4809 -0.0991 0.4217 0.072 Uiso 1 1 calc R . .
C7 C 0.4580(3) 0.0151(3) 0.4050(2) 0.0416(11) Uani 1 1 d . . .
H7 H 0.4888 0.0466 0.4419 0.050 Uiso 1 1 calc R . .
C8 C 0.5610(3) 0.2397(3) 0.3962(2) 0.0385(10) Uani 1 1 d . . .
C9 C 0.6074(3) 0.3028(3) 0.4446(2) 0.0421(11) Uani 1 1 d . . .
H9 H 0.5663 0.3099 0.4678 0.050 Uiso 1 1 calc R . .
C10 C 0.7141(4) 0.3561(3) 0.4593(3) 0.0542(14) Uani 1 1 d . . .
H10 H 0.7437 0.3988 0.4920 0.065 Uiso 1 1 calc R . .
C11 C 0.7753(4) 0.3465(4) 0.4267(3) 0.0602(15) Uani 1 1 d . . .
H11 H 0.8471 0.3821 0.4368 0.072 Uiso 1 1 calc R . .
C12 C 0.7306(4) 0.2835(4) 0.3783(3) 0.0680(17) Uani 1 1 d . . .
H12 H 0.7732 0.2766 0.3559 0.082 Uiso 1 1 calc R . .
C13 C 0.6236(4) 0.2299(4) 0.3618(2) 0.0518(13) Uani 1 1 d . . .
H13 H 0.5944 0.1884 0.3285 0.062 Uiso 1 1 calc R . .
C14 C 0.2327(3) -0.0190(3) 0.4390(2) 0.0392(10) Uani 1 1 d . . .
C15 C 0.1838(3) -0.0834(3) 0.3910(2) 0.0443(11) Uani 1 1 d . . .
H15 H 0.1532 -0.0686 0.3567 0.053 Uiso 1 1 calc R . .
C16 C 0.1808(4) -0.1705(3) 0.3945(3) 0.0563(14) Uani 1 1 d . . .
H16 H 0.1467 -0.2150 0.3627 0.068 Uiso 1 1 calc R . .
C17 C 0.2288(4) -0.1912(4) 0.4456(3) 0.0636(16) Uani 1 1 d . . .
H17 H 0.2289 -0.2489 0.4473 0.076 Uiso 1 1 calc R . .
C18 C 0.2758(4) -0.1278(4) 0.4930(3) 0.0562(15) Uani 1 1 d . . .
H18 H 0.3056 -0.1431 0.5273 0.067 Uiso 1 1 calc R . .
C19 C 0.2795(3) -0.0412(3) 0.4906(2) 0.0486(12) Uani 1 1 d . . .
H19 H 0.3127 0.0023 0.5229 0.058 Uiso 1 1 calc R . .
C20 C 0.2106(3) 0.1285(3) 0.49757(19) 0.0418(11) Uani 1 1 d . . .
C21 C 0.1389(4) 0.0624(4) 0.5217(2) 0.0587(14) Uani 1 1 d . . .
H21 H 0.1103 0.0014 0.5060 0.070 Uiso 1 1 calc R . .
C22 C 0.1090(6) 0.0867(5) 0.5696(3) 0.084(2) Uani 1 1 d . . .
H22 H 0.0612 0.0427 0.5860 0.101 Uiso 1 1 calc R . .
C23 C 0.1532(6) 0.1784(5) 0.5917(3) 0.087(2) Uani 1 1 d . . .
H23 H 0.1336 0.1969 0.6227 0.104 Uiso 1 1 calc R . .
C24 C 0.2239(5) 0.2404(4) 0.5685(3) 0.0699(17) Uani 1 1 d . . .
H24 H 0.2551 0.3011 0.5850 0.084 Uiso 1 1 calc R . .
C25 C 0.2519(4) 0.2170(3) 0.5209(2) 0.0534(13) Uani 1 1 d . . .
H25 H 0.2991 0.2620 0.5048 0.064 Uiso 1 1 calc R . .
C31 C 0.2489(3) 0.3574(3) 0.34474(19) 0.0344(9) Uani 1 1 d . . .
H31A H 0.2995 0.3741 0.3816 0.041 Uiso 1 1 calc R . .
H31B H 0.2304 0.4084 0.3367 0.041 Uiso 1 1 calc R . .
C32 C 0.4328(3) 0.4341(3) 0.29623(18) 0.0359(10) Uani 1 1 d . . .
C33 C 0.5162(3) 0.4387(3) 0.3387(2) 0.0465(12) Uani 1 1 d . . .
H33 H 0.5065 0.3948 0.3640 0.056 Uiso 1 1 calc R . .
C34 C 0.6151(4) 0.5085(3) 0.3441(2) 0.0590(14) Uani 1 1 d . . .
H34 H 0.6712 0.5108 0.3728 0.071 Uiso 1 1 calc R . .
C35 C 0.6306(4) 0.5743(3) 0.3071(2) 0.0578(14) Uani 1 1 d . . .
H35 H 0.6968 0.6213 0.3111 0.069 Uiso 1 1 calc R . .
C36 C 0.5490(4) 0.5704(3) 0.2650(2) 0.0568(14) Uani 1 1 d . . .
H36 H 0.5595 0.6146 0.2398 0.068 Uiso 1 1 calc R . .
C37 C 0.4494(4) 0.5007(3) 0.2589(2) 0.0493(12) Uani 1 1 d . . .
H37 H 0.3939 0.4987 0.2299 0.059 Uiso 1 1 calc R . .
C38 C 0.2290(4) 0.3459(3) 0.2204(2) 0.0456(12) Uani 1 1 d . . .
C39 C 0.1806(4) 0.4040(4) 0.2152(2) 0.0580(14) Uani 1 1 d . . .
H39 H 0.1828 0.4373 0.2482 0.070 Uiso 1 1 calc R . .
C40 C 0.1289(5) 0.4144(5) 0.1627(3) 0.081(2) Uani 1 1 d . . .
H40 H 0.0955 0.4536 0.1598 0.097 Uiso 1 1 calc R . .
C41 C 0.1276(6) 0.3654(6) 0.1141(3) 0.092(2) Uani 1 1 d . . .
H41 H 0.0951 0.3738 0.0781 0.111 Uiso 1 1 calc R . .
C42 C 0.1722(5) 0.3058(5) 0.1175(3) 0.0782(19) Uani 1 1 d . . .
H42 H 0.1690 0.2725 0.0843 0.094 Uiso 1 1 calc R . .
C43 C 0.2235(4) 0.2943(4) 0.1712(2) 0.0552(13) Uani 1 1 d . . .
H43 H 0.2536 0.2526 0.1742 0.066 Uiso 1 1 calc R . .
C44 C 0.0285(3) 0.2581(3) 0.2907(2) 0.0478(12) Uani 1 1 d . . .
C45 C -0.0080(4) 0.1944(3) 0.2419(2) 0.0535(13) Uani 1 1 d . . .
H45 H 0.0201 0.1517 0.2400 0.064 Uiso 1 1 calc R . .
C46 C -0.0870(5) 0.1941(4) 0.1952(3) 0.0750(18) Uani 1 1 d . . .
H46 H -0.1113 0.1518 0.1625 0.090 Uiso 1 1 calc R . .
C47 C -0.1275(6) 0.2586(6) 0.1995(4) 0.103(3) Uani 1 1 d . . .
H47 H -0.1802 0.2590 0.1695 0.123 Uiso 1 1 calc R . .
C48 C -0.0914(5) 0.3205(5) 0.2467(4) 0.086(2) Uani 1 1 d . . .
H48 H -0.1185 0.3640 0.2480 0.104 Uiso 1 1 calc R . .
C49 C -0.0150(5) 0.3213(4) 0.2933(3) 0.0727(18) Uani 1 1 d . . .
H49 H 0.0070 0.3633 0.3259 0.087 Uiso 1 1 calc R . .
C50 C 0.0967(4) 0.2847(3) 0.4127(2) 0.0438(11) Uani 1 1 d . . .
C51 C 0.0084(4) 0.2159(3) 0.4259(3) 0.0652(17) Uani 1 1 d . . .
H51 H -0.0275 0.1602 0.4024 0.078 Uiso 1 1 calc R . .
C52 C -0.0242(5) 0.2311(4) 0.4730(3) 0.078(2) Uani 1 1 d . . .
H52 H -0.0828 0.1856 0.4812 0.093 Uiso 1 1 calc R . .
C53 C 0.0281(5) 0.3128(4) 0.5088(3) 0.0765(19) Uani 1 1 d . . .
H53 H 0.0029 0.3242 0.5395 0.092 Uiso 1 1 calc R . .
C54 C 0.1189(5) 0.3773(4) 0.4981(3) 0.0724(18) Uani 1 1 d . . .
H54 H 0.1585 0.4303 0.5238 0.087 Uiso 1 1 calc R . .
C55 C 0.1515(4) 0.3643(3) 0.4498(3) 0.0579(14) Uani 1 1 d . . .
H55 H 0.2109 0.4096 0.4423 0.069 Uiso 1 1 calc R . .
C100 C 0.1447(4) 0.0531(3) 0.2086(2) 0.0494(12) Uani 1 1 d . . .
C101 C 0.0613(4) -0.0148(4) 0.1650(3) 0.0706(19) Uani 1 1 d . . .
C102 C -0.0103(5) 0.0062(5) 0.1264(3) 0.087(2) Uani 1 1 d . . .
H102 H -0.0009 0.0670 0.1279 0.104 Uiso 1 1 calc R . .
C103 C 0.0526(6) -0.1013(4) 0.1639(3) 0.081(2) Uani 1 1 d . . .
H103 H 0.1009 -0.1169 0.1884 0.097 Uiso 1 1 calc R . .
C104 C -0.0932(6) -0.0556(5) 0.0866(3) 0.093(2) Uani 1 1 d . . .
H104 H -0.1389 -0.0384 0.0611 0.112 Uiso 1 1 calc R . .
C105 C -0.0407(6) -0.1724(4) 0.1201(3) 0.083(2) Uani 1 1 d . . .
H105 H -0.0533 -0.2340 0.1166 0.099 Uiso 1 1 calc R . .
C106 C -0.1053(5) -0.1396(5) 0.0860(3) 0.0734(17) Uani 1 1 d . . .
C107 C -0.1998(5) -0.2142(5) 0.0416(3) 0.084(2) Uani 1 1 d . . .
H107 H -0.2442 -0.1935 0.0180 0.101 Uiso 1 1 calc R . .
C108 C -0.2231(5) -0.2960(4) 0.0337(3) 0.0700(17) Uani 1 1 d . . .
H108 H -0.1753 -0.3143 0.0564 0.084 Uiso 1 1 calc R . .
C109 C -0.3125(4) -0.3711(3) -0.0048(2) 0.0552(14) Uani 1 1 d . . .
C110 C -0.3948(5) -0.3630(4) -0.0426(3) 0.0713(17) Uani 1 1 d . . .
H110 H -0.3949 -0.3054 -0.0451 0.086 Uiso 1 1 calc R . .
C111 C -0.3167(5) -0.4583(4) -0.0043(3) 0.083(2) Uani 1 1 d . . .
H111 H -0.2623 -0.4667 0.0200 0.100 Uiso 1 1 calc R . .
C112 C -0.4761(4) -0.4372(4) -0.0763(2) 0.0675(16) Uani 1 1 d . . .
H112 H -0.5309 -0.4287 -0.1003 0.081 Uiso 1 1 calc R . .
C113 C -0.3970(5) -0.5327(4) -0.0376(3) 0.082(2) Uani 1 1 d . . .
H113 H -0.3972 -0.5904 -0.0350 0.099 Uiso 1 1 calc R . .
C114 C -0.4795(4) -0.5227(4) -0.0760(2) 0.0646(16) Uani 1 1 d . . .
C115 C -0.0486(3) -0.0487(3) 0.28236(19) 0.0360(10) Uani 1 1 d . . .
C116 C -0.1314(4) -0.1281(3) 0.2467(2) 0.0494(13) Uani 1 1 d . . .
C117 C -0.2140(4) -0.1199(5) 0.2094(2) 0.0739(18) Uani 1 1 d . . .
H117 H -0.2187 -0.0640 0.2071 0.089 Uiso 1 1 calc R . .
C118 C -0.1270(5) -0.2114(3) 0.2483(2) 0.0671(17) Uani 1 1 d . . .
H118 H -0.0717 -0.2171 0.2737 0.080 Uiso 1 1 calc R . .
C119 C -0.7079(5) -0.7985(7) -0.1743(3) 0.101(3) Uani 1 1 d . . .
H119 H -0.6499 -0.8003 -0.1493 0.121 Uiso 1 1 calc R . .
C120 C -0.7957(7) -0.7125(4) -0.2123(3) 0.103(3) Uani 1 1 d . . .
H120 H -0.8026 -0.6576 -0.2149 0.124 Uiso 1 1 calc R . .
C121 C -0.7195(7) -0.7112(6) -0.1777(3) 0.103(3) Uani 1 1 d . . .
C122 C -0.6434(6) -0.6232(5) -0.1455(3) 0.093(2) Uani 1 1 d . . .
H122 H -0.6611 -0.5743 -0.1534 0.112 Uiso 1 1 calc R . .
C123 C -0.5647(5) -0.6043(6) -0.1119(3) 0.099(3) Uani 1 1 d . . .
H123 H -0.5516 -0.6558 -0.1058 0.118 Uiso 1 1 calc R . .
C200 C 0.4967(4) 0.2608(3) 0.2163(2) 0.0475(12) Uani 1 1 d . . .
C201 C 0.5755(4) 0.3010(4) 0.1852(2) 0.0489(12) Uani 1 1 d . . .
C202 C 0.6601(4) 0.3826(3) 0.2074(3) 0.0529(13) Uani 1 1 d . . .
H202 H 0.6660 0.4126 0.2425 0.063 Uiso 1 1 calc R . .
C203 C 0.5649(4) 0.2537(4) 0.1310(3) 0.0660(16) Uani 1 1 d . . .
H203 H 0.5095 0.1973 0.1165 0.079 Uiso 1 1 calc R . .
C204 C 0.7362(4) 0.4195(4) 0.1771(3) 0.0663(17) Uani 1 1 d . . .
H204 H 0.7949 0.4734 0.1926 0.080 Uiso 1 1 calc R . .
C205 C 0.6417(5) 0.2961(5) 0.1010(3) 0.0766(19) Uani 1 1 d . . .
H205 H 0.6354 0.2688 0.0649 0.092 Uiso 1 1 calc R . .
C206 C 0.7255 0.3765 0.1234 0.0692(19) Uani 1 1 d . . .
C209 C 0.9208 0.4654 0.0300 0.220(9) Uani 1 1 d . . .
C210 C 1.0072(9) 0.5323(12) 0.0531(7) 0.250(11) Uani 1 1 d . . .
H210 H 1.0164 0.5560 0.0906 0.300 Uiso 1 1 calc R . .
C211 C 0.9074(9) 0.4254(13) -0.0258(6) 0.273(11) Uani 1 1 d . . .
H211 H 0.8470 0.3746 -0.0440 0.327 Uiso 1 1 calc R . .
C207 C 0.8190 0.4258 0.0973 0.107(3) Uani 1 1 d . . .
H207 H 0.8758 0.4763 0.1191 0.128 Uiso 1 1 calc R . .
C208 C 0.8224 0.4014 0.0485 0.158(5) Uani 1 1 d . . .
H208 H 0.7705 0.3495 0.0253 0.189 Uiso 1 1 calc R . .

loop_
_atom_site_aniso_label
_atom_site_aniso_U_11
_atom_site_aniso_U_22
_atom_site_aniso_U_33
_atom_site_aniso_U_23
_atom_site_aniso_U_13
_atom_site_aniso_U_12
Cu1 0.0215(2) 0.0257(3) 0.0308(3) -0.0021(2) 0.0062(2) -0.0027(2)
Cu2 0.0207(2) 0.0229(3) 0.0336(3) -0.0051(2) 0.0020(2) -0.0012(2)
P1 0.0205(5) 0.0247(5) 0.0365(6) 0.0008(4) 0.0072(5) -0.0004(4)
P2 0.0191(5) 0.0269(5) 0.0313(6) -0.0023(4) 0.0046(4) -0.0030(4)
P3 0.0283(5) 0.0261(5) 0.0313(6) 0.0007(4) 0.0017(5) -0.0021(4)
P4 0.0232(5) 0.0225(5) 0.0490(7) -0.0033(5) 0.0038(5) 0.0007(4)
N100 0.0276(19) 0.037(2) 0.044(2) -0.0118(17) 0.0095(18) -0.0022(17)
N115 0.0263(18) 0.0280(18) 0.0344(19) -0.0035(15) -0.0007(16) 0.0038(16)
N200 0.031(2) 0.047(2) 0.042(2) 0.0029(18) 0.0073(19) -0.0011(18)
C1 0.0165(18) 0.029(2) 0.032(2) -0.0055(17) 0.0004(17) -0.0028(16)
C2 0.033(2) 0.031(2) 0.053(3) 0.002(2) 0.019(2) 0.0071(19)
C3 0.055(3) 0.039(3) 0.059(3) 0.007(2) 0.016(3) 0.019(2)
C4 0.078(4) 0.050(3) 0.072(4) -0.012(3) 0.016(3) 0.026(3)
C5 0.071(4) 0.052(3) 0.087(5) 0.008(3) 0.023(4) 0.037(3)
C6 0.049(3) 0.054(3) 0.081(4) 0.022(3) 0.016(3) 0.027(3)
C7 0.030(2) 0.036(2) 0.053(3) 0.004(2) 0.007(2) 0.010(2)
C8 0.022(2) 0.038(2) 0.051(3) 0.016(2) 0.012(2) 0.0063(19)
C9 0.023(2) 0.029(2) 0.059(3) 0.008(2) 0.005(2) -0.0017(18)
C10 0.025(2) 0.041(3) 0.075(4) 0.013(3) -0.004(2) 0.000(2)
C11 0.023(2) 0.055(3) 0.088(4) 0.018(3) 0.008(3) 0.004(2)
C12 0.036(3) 0.087(4) 0.086(5) 0.033(4) 0.031(3) 0.022(3)
C13 0.030(2) 0.060(3) 0.064(3) 0.014(3) 0.018(2) 0.014(2)
C14 0.025(2) 0.029(2) 0.049(3) 0.007(2) 0.009(2) -0.0034(18)
C15 0.026(2) 0.032(2) 0.061(3) 0.002(2) 0.006(2) 0.0011(19)
C16 0.046(3) 0.030(2) 0.080(4) 0.005(3) 0.005(3) 0.007(2)
C17 0.043(3) 0.043(3) 0.105(5) 0.022(3) 0.027(3) 0.013(3)
C18 0.028(2) 0.048(3) 0.088(4) 0.034(3) 0.015(3) 0.010(2)
C19 0.022(2) 0.054(3) 0.054(3) 0.017(2) 0.006(2) 0.001(2)
C20 0.032(2) 0.042(3) 0.037(2) -0.002(2) 0.007(2) 0.002(2)
C21 0.050(3) 0.057(3) 0.060(3) 0.005(3) 0.028(3) 0.007(3)
C22 