####################################################################### 
# 
# This file contains crystal structure data downloaded from the 
# Cambridge Structural Database (CSD) hosted by the Cambridge 
# Crystallographic Data Centre (CCDC).
# 
# Full information about CCDC data access policies and citation 
# guidelines are available at http://www.ccdc.cam.ac.uk/access/V1 
# 
# Audit and citation data items may have been added by the CCDC. 
# Please retain this information to preserve the provenance of 
# this file and to allow appropriate attribution of the data. 
# 
#######################################################################

data_2
_audit_block_doi                 10.5517/ccpttdp
_database_code_depnum_ccdc_archive 'CCDC 650423'
loop_
_citation_id
_citation_doi
_citation_year
1 10.1039/b709118d 2007
_audit_update_record             
;
2007-06-12 deposited with the CCDC.	2024-07-10 downloaded from the CCDC.
;

_audit_creation_method           SHELXL-97
_chemical_name_systematic        
;
?
;
_chemical_name_common            ?
_chemical_melting_point          ?
_chemical_formula_moiety         ?
_chemical_formula_sum            'C204 H171 Ag5 F30 N24 O1.50 Sb5'
_chemical_formula_weight         4700.75

loop_
_atom_type_symbol
_atom_type_description
_atom_type_scat_dispersion_real
_atom_type_scat_dispersion_imag
_atom_type_scat_source
C C 0.0033 0.0016 'International Tables Vol C Tables 4.2.6.8 and 6.1.1.4'
H H 0.0000 0.0000 'International Tables Vol C Tables 4.2.6.8 and 6.1.1.4'
N N 0.0061 0.0033 'International Tables Vol C Tables 4.2.6.8 and 6.1.1.4'
O O 0.0106 0.0060 'International Tables Vol C Tables 4.2.6.8 and 6.1.1.4'
F F 0.0171 0.0103 'International Tables Vol C Tables 4.2.6.8 and 6.1.1.4'
Ag Ag -0.8971 1.1015 'International Tables Vol C Tables 4.2.6.8 and 6.1.1.4'
Sb Sb -0.5866 1.5461 'International Tables Vol C Tables 4.2.6.8 and 6.1.1.4'

_symmetry_cell_setting           Hexagonal
_symmetry_space_group_name_H-M   P6(3)22

loop_
_symmetry_equiv_pos_as_xyz
'x, y, z'
'-y, x-y, z'
'-x+y, -x, z'
'-x, -y, z+1/2'
'y, -x+y, z+1/2'
'x-y, x, z+1/2'
'y, x, -z'
'x-y, -y, -z'
'-x, -x+y, -z'
'-y, -x, -z+1/2'
'-x+y, y, -z+1/2'
'x, x-y, -z+1/2'

_cell_length_a                   17.9271(6)
_cell_length_b                   17.9271(6)
_cell_length_c                   37.530(3)
_cell_angle_alpha                90.00
_cell_angle_beta                 90.00
_cell_angle_gamma                120.00
_cell_volume                     10445.5(9)
_cell_formula_units_Z            2
_cell_measurement_temperature    150(2)
_cell_measurement_reflns_used    ?
_cell_measurement_theta_min      ?
_cell_measurement_theta_max      ?

_exptl_crystal_description       Block
_exptl_crystal_colour            Colorless
_exptl_crystal_size_max          0.36
_exptl_crystal_size_mid          0.30
_exptl_crystal_size_min          0.22
_exptl_crystal_density_meas      ?
_exptl_crystal_density_diffrn    1.495
_exptl_crystal_density_method    'not measured'
_exptl_crystal_F_000             4670
_exptl_absorpt_coefficient_mu    1.176
_exptl_absorpt_correction_type   multi-scan
_exptl_absorpt_correction_T_min  0.6769
_exptl_absorpt_correction_T_max  0.7819
_exptl_absorpt_process_details   SADABS

_exptl_special_details           
;
?
;

_diffrn_ambient_temperature      150(2)
_diffrn_radiation_wavelength     0.71073
_diffrn_radiation_type           MoK\a
_diffrn_radiation_source         'fine-focus sealed tube'
_diffrn_radiation_monochromator  graphite
_diffrn_measurement_device_type  'APEX II'
_diffrn_measurement_method       '\w scan'
_diffrn_detector_area_resol_mean ?
_diffrn_standards_number         ?
_diffrn_standards_interval_count ?
_diffrn_standards_interval_time  ?
_diffrn_standards_decay_%        ?
_diffrn_reflns_number            56368
_diffrn_reflns_av_R_equivalents  0.0643
_diffrn_reflns_av_sigmaI/netI    0.0504
_diffrn_reflns_limit_h_min       -22
_diffrn_reflns_limit_h_max       23
_diffrn_reflns_limit_k_min       -21
_diffrn_reflns_limit_k_max       23
_diffrn_reflns_limit_l_min       -23
_diffrn_reflns_limit_l_max       48
_diffrn_reflns_theta_min         2.34
_diffrn_reflns_theta_max         27.49
_reflns_number_total             7772
_reflns_number_gt                6347
_reflns_threshold_expression     >2sigma(I)

_computing_data_collection       ?
_computing_cell_refinement       ?
_computing_data_reduction        ?
_computing_structure_solution    'SHELXS-97 (Sheldrick, 1990)'
_computing_structure_refinement  'SHELXL-97 (Sheldrick, 1997)'
_computing_molecular_graphics    ?
_computing_publication_material  ?

_refine_special_details          
;
Refinement of F^2^ against ALL reflections. The weighted R-factor wR and
goodness of fit S are based on F^2^, conventional R-factors R are based
on F, with F set to zero for negative F^2^. The threshold expression of
F^2^ > 2sigma(F^2^) is used only for calculating R-factors(gt) etc. and is
not relevant to the choice of reflections for refinement. R-factors based
on F^2^ are statistically about twice as large as those based on F, and R-
factors based on ALL data will be even larger.

Sb1 is in a site with imposed 32 symmetry, thus four F atoms are disordered
over two positions required by 32 symmetry. Sb2 and Sb3 are located in a
2-fold symmetry and Sb3 is assigned with 1/6 occupancy. Geometric restraints
were applied to all SbF~6~^-^ anions by using SADI to model it as octahedral.
ISOR in combination of SIMU was applied to all Sb and F atoms to give
isotropic approximation. The central benzene rings were restrained by FLAT
to give a satisfying plane.
;

_refine_ls_structure_factor_coef Fsqd
_refine_ls_matrix_type           full
_refine_ls_weighting_scheme      calc
_refine_ls_weighting_details     
'calc w=1/[\s^2^(Fo^2^)+(0.0670P)^2^+76.5000P] where P=(Fo^2^+2Fc^2^)/3'
_atom_sites_solution_primary     direct
_atom_sites_solution_secondary   difmap
_atom_sites_solution_hydrogens   geom
_refine_ls_hydrogen_treatment    geom
_refine_ls_extinction_method     none
_refine_ls_extinction_coef       ?
_refine_ls_abs_structure_details 'Flack H D (1983), Acta Cryst. A39, 876-881'
_refine_ls_abs_structure_Flack   0.03(6)
_refine_ls_number_reflns         7772
_refine_ls_number_parameters     458
_refine_ls_number_restraints     242
_refine_ls_R_factor_all          0.0984
_refine_ls_R_factor_gt           0.0811
_refine_ls_wR_factor_ref         0.1924
_refine_ls_wR_factor_gt          0.1836
_refine_ls_goodness_of_fit_ref   1.011
_refine_ls_restrained_S_all      1.040
_refine_ls_shift/su_max          0.003
_refine_ls_shift/su_mean         0.000

loop_
_atom_site_label
_atom_site_type_symbol
_atom_site_fract_x
_atom_site_fract_y
_atom_site_fract_z
_atom_site_U_iso_or_equiv
_atom_site_adp_type
_atom_site_occupancy
_atom_site_symmetry_multiplicity
_atom_site_calc_flag
_atom_site_refinement_flags
_atom_site_disorder_assembly
_atom_site_disorder_group
Ag1 Ag 0.28888(8) 0.14444(4) 0.2500 0.0878(3) Uani 1 2 d S . .
Ag2 Ag 0.6667 0.3333 0.12188(2) 0.03926(17) Uani 1 3 d S . .
N1 N 0.2883(4) 0.1604(4) 0.30455(16) 0.0681(18) Uani 1 1 d . . .
N2 N 0.3240(3) 0.2219(3) 0.35667(15) 0.0537(13) Uani 1 1 d . . .
C34 C 0.2611(4) 0.5874(4) 0.36683(16) 0.0437(17) Uani 1 1 d D . .
H34A H 0.2111 0.5319 0.3671 0.052 Uiso 1 1 calc R . .
N4 N 0.5320(3) 0.3115(3) 0.11480(15) 0.0400(13) Uani 1 1 d . . .
N5 N 0.4151(3) 0.2907(3) 0.08590(15) 0.0411(13) Uani 1 1 d . . .
C33 C 0.2599(3) 0.5878(4) 0.03835(17) 0.0386(15) Uani 1 1 d . . .
H33A H 0.2086 0.5333 0.0382 0.046 Uiso 1 1 calc R . .
C1 C 0.3465(5) 0.2289(4) 0.3224(2) 0.066(2) Uani 1 1 d . . .
C2 C 0.2264(5) 0.1060(5) 0.3302(2) 0.060(2) Uani 1 1 d . . .
C3 C 0.2493(3) 0.1449(4) 0.36317(19) 0.0444(16) Uani 1 1 d . . .
C4 C 0.2046(4) 0.1073(6) 0.3930(2) 0.072(2) Uani 1 1 d . . .
H4A H 0.2221 0.1359 0.4153 0.086 Uiso 1 1 calc R . .
C5 C 0.1334(6) 0.0268(7) 0.3905(4) 0.109(4) Uani 1 1 d U . .
H5A H 0.1001 -0.0009 0.4111 0.130 Uiso 1 1 calc R . .
C6 C 0.1095(5) -0.0156(6) 0.3560(3) 0.090(4) Uani 1 1 d . . .
H6A H 0.0615 -0.0720 0.3534 0.108 Uiso 1 1 calc R . .
C7 C 0.1593(5) 0.0292(6) 0.3277(3) 0.089(3) Uani 1 1 d . . .
H7A H 0.1443 0.0030 0.3048 0.107 Uiso 1 1 calc R . .
C8 C 0.3737(5) 0.2901(5) 0.3838(2) 0.063(2) Uani 1 1 d . . .
H8A H 0.4353 0.3070 0.3825 0.076 Uiso 1 1 calc R . .
H8B H 0.3524 0.2669 0.4080 0.076 Uiso 1 1 calc R . .
C9 C 0.3644(5) 0.3686(4) 0.37756(18) 0.0568(17) Uani 1 1 d DU . .
C10 C 0.4295(6) 0.4428(6) 0.37711(19) 0.107(3) Uani 1 1 d DU . .
H10A H 0.4853 0.4492 0.3789 0.128 Uiso 1 1 calc R . .
C11 C 0.4212(6) 0.5152(7) 0.3740(2) 0.118(4) Uani 1 1 d DU . .
H11A H 0.4724 0.5698 0.3752 0.141 Uiso 1 1 calc R . .
C12 C 0.3486(3) 0.5144(4) 0.36958(19) 0.0432(16) Uani 1 1 d DU . .
C13 C 0.2853(5) 0.4392(6) 0.3725(3) 0.094(3) Uani 1 1 d DU . .
H13A H 0.2290 0.4317 0.3708 0.113 Uiso 1 1 calc R . .
C14 C 0.2929(6) 0.3664(6) 0.3781(4) 0.098(3) Uani 1 1 d DU . .
H14A H 0.2421 0.3128 0.3824 0.118 Uiso 1 1 calc R . .
C15 C 0.3426(4) 0.5932(4) 0.3666(2) 0.0499(18) Uani 1 1 d D . .
C16 C 0.4899(4) 0.2899(3) 0.08403(19) 0.0430(16) Uani 1 1 d . . .
C17 C 0.4088(3) 0.3149(3) 0.1203(2) 0.0420(16) Uani 1 1 d . . .
C18 C 0.4845(3) 0.3283(4) 0.13741(19) 0.0421(16) Uani 1 1 d . . .
C19 C 0.4964(4) 0.3521(4) 0.1733(2) 0.053(2) Uani 1 1 d . . .
H19A H 0.5461 0.3600 0.1857 0.064 Uiso 1 1 calc R . .
C20 C 0.4357(5) 0.3637(5) 0.1902(3) 0.073(3) Uani 1 1 d . . .
H20A H 0.4449 0.3812 0.2144 0.088 Uiso 1 1 calc R . .
C21 C 0.3594(5) 0.3507(5) 0.1732(3) 0.078(3) Uani 1 1 d . . .
H21A H 0.3178 0.3576 0.1862 0.094 Uiso 1 1 calc R . .
C22 C 0.3461(4) 0.3275(4) 0.1373(2) 0.059(2) Uani 1 1 d . . .
H22A H 0.2969 0.3207 0.1248 0.070 Uiso 1 1 calc R . .
C23 C 0.5205(4) 0.2662(4) 0.05081(17) 0.0461(16) Uani 1 1 d . . .
H23A H 0.5758 0.2696 0.0555 0.069 Uiso 1 1 calc R . .
H23B H 0.5274 0.3062 0.0316 0.069 Uiso 1 1 calc R . .
H23C H 0.4780 0.2074 0.0437 0.069 Uiso 1 1 calc R . .
C24 C 0.3563(4) 0.2795(4) 0.0550(2) 0.0501(19) Uani 1 1 d . . .
H24A H 0.3787 0.2673 0.0330 0.060 Uiso 1 1 calc R . .
H24B H 0.2982 0.2300 0.0597 0.060 Uiso 1 1 calc R . .
C25 C 0.3508(4) 0.3589(5) 0.0500(2) 0.063(2) Uani 1 1 d . . .
C26 C 0.2735(4) 0.3566(4) 0.0478(2) 0.056(2) Uani 1 1 d . . .
H26A H 0.2214 0.3030 0.0497 0.067 Uiso 1 1 calc R . .
C27 C 0.2706(3) 0.4311(4) 0.0427(2) 0.0514(19) Uani 1 1 d . . .
H27A H 0.2155 0.4263 0.0404 0.062 Uiso 1 1 calc R . .
C28 C 0.3397(4) 0.5096(4) 0.0408(2) 0.0491(18) Uani 1 1 d . . .
C29 C 0.4178(5) 0.5113(5) 0.0414(4) 0.103(3) Uani 1 1 d U . .
H29A H 0.4696 0.5645 0.0379 0.124 Uiso 1 1 calc R . .
C30 C 0.4219(5) 0.4363(5) 0.0471(4) 0.102(3) Uani 1 1 d U . .
H30A H 0.4767 0.4404 0.0489 0.123 Uiso 1 1 calc R . .
C31 C 0.3372(4) 0.5905(4) 0.03847(17) 0.0382(15) Uani 1 1 d . . .
C32 C 0.4248(7) 0.3030(6) 0.3073(3) 0.099(4) Uani 1 1 d . . .
H32A H 0.4273 0.2946 0.2816 0.148 Uiso 1 1 calc R . .
H32B H 0.4759 0.3073 0.3188 0.148 Uiso 1 1 calc R . .
H32C H 0.4231 0.3560 0.3116 0.148 Uiso 1 1 calc R . .
Sb1 Sb 0.6667 0.3333 0.2500 0.0388(2) Uani 1 6 d SDU . .
F1 F 0.6667 0.3333 0.29999(13) 0.0485(14) Uani 1 3 d SDU . .
F2 F 0.6067(3) 0.3933(3) 0.2500 0.092(4) Uani 0.50 2 d SPDU . .
F3 F 0.5493(6) 0.2530(8) 0.2515(6) 0.053(5) Uani 0.25 1 d PDU . .
F4 F 0.7735(7) 0.4329(8) 0.2545(4) 0.018(4) Uani 0.17 1 d PDU . .
Sb2 Sb 0.71563(4) 0.71563(4) 0.0000 0.04003(14) Uani 0.90 2 d SPDU A 1
F7 F 0.6855(5) 0.7760(4) -0.0306(2) 0.150(3) Uani 1 1 d DU A 1
F5 F 0.7571(5) 0.8164(4) 0.0260(3) 0.164(3) Uani 1 1 d DU A 1
F6 F 0.6792(4) 0.6200(4) -0.02760(19) 0.117(2) Uani 1 1 d DU A 1
Sb2' Sb 0.6892(5) 0.6892(5) 0.0000 0.0626(18) Uani 0.10 2 d SPU B 2
Sb3 Sb 1.14573(8) 0.29146(15) 0.2500 0.0778(6) Uani 0.33 2 d SPDU . .
F8 F 1.2035(3) 0.4070(7) 0.2500 0.147(7) Uani 0.33 2 d SPDU . .
F9 F 1.1442(8) 0.2928(6) 0.2981(2) 0.105(4) Uani 0.33 1 d PDU . .
F10 F 1.0498(6) 0.2965(7) 0.2481(4) 0.125(6) Uani 0.33 1 d PDU . .
F11 F 1.0888(4) 0.1775(7) 0.2500 0.210(8) Uani 0.33 2 d SPDU . .
O1 O 0.4363(16) 0.5579(17) 0.2838(6) 0.081(6) Uani 0.25 1 d PU . .

loop_
_atom_site_aniso_label
_atom_site_aniso_U_11
_atom_site_aniso_U_22
_atom_site_aniso_U_33
_atom_site_aniso_U_23
_atom_site_aniso_U_13
_atom_site_aniso_U_12
Ag1 0.1324(9) 0.0819(4) 0.0660(5) -0.0283(4) 0.000 0.0662(4)
Ag2 0.0363(2) 0.0363(2) 0.0453(4) 0.000 0.000 0.01813(10)
N1 0.109(4) 0.071(3) 0.046(3) 0.001(2) 0.006(3) 0.061(3)
N2 0.087(3) 0.064(2) 0.044(3) 0.001(2) -0.002(3) 0.0624(19)
C34 0.051(3) 0.038(3) 0.033(3) 0.004(2) -0.005(3) 0.015(2)
N4 0.036(2) 0.0247(19) 0.061(3) -0.005(2) -0.017(2) 0.0164(15)
N5 0.0329(18) 0.0284(19) 0.066(3) 0.008(2) -0.015(2) 0.0185(15)
C33 0.024(2) 0.029(2) 0.057(4) 0.009(2) 0.008(2) 0.0096(18)
C1 0.091(4) 0.056(3) 0.069(5) 0.017(3) 0.025(4) 0.050(3)
C2 0.071(4) 0.053(3) 0.063(4) -0.016(3) -0.019(3) 0.036(3)
C3 0.039(2) 0.048(3) 0.060(4) 0.007(3) 0.003(3) 0.0317(19)
C4 0.052(3) 0.113(5) 0.066(4) 0.023(4) 0.001(3) 0.053(3)
C5 0.081(5) 0.124(6) 0.136(8) 0.047(6) 0.033(5) 0.063(4)
C6 0.048(3) 0.073(5) 0.149(10) 0.010(6) -0.010(5) 0.028(3)
C7 0.074(4) 0.109(6) 0.103(7) 0.001(5) -0.018(5) 0.059(4)
C8 0.056(3) 0.073(4) 0.065(5) 0.002(4) -0.010(4) 0.035(3)
C9 0.068(3) 0.040(2) 0.076(4) -0.012(3) -0.010(3) 0.037(2)
C10 0.071(4) 0.067(4) 0.200(7) -0.006(5) -0.013(5) 0.048(3)
C11 0.065(4) 0.084(5) 0.196(8) 0.004(6) -0.012(6) 0.031(4)
C12 0.036(2) 0.037(2) 0.064(4) -0.006(2) 0.001(3) 0.0231(18)
C13 0.050(3) 0.066(4) 0.170(7) 0.005(5) 0.008(5) 0.032(3)
C14 0.061(4) 0.070(4) 0.173(7) 0.021(5) 0.008(5) 0.040(3)
C15 0.038(3) 0.056(3) 0.062(4) 0.006(3) 0.007(3) 0.028(2)
C16 0.047(3) 0.023(2) 0.064(4) 0.006(2) -0.002(3) 0.021(2)
C17 0.031(2) 0.022(2) 0.073(4) -0.012(3) -0.012(3) 0.0133(17)
C18 0.033(2) 0.031(2) 0.066(4) -0.007(3) -0.014(3) 0.0184(19)
C19 0.039(3) 0.050(3) 0.068(5) -0.004(3) -0.004(3) 0.020(2)
C20 0.068(4) 0.073(4) 0.074(5) -0.020(4) 0.014(4) 0.031(3)
C21 0.050(3) 0.059(4) 0.130(8) -0.006(5) 0.001(4) 0.032(3)
C22 0.029(2) 0.039(3) 0.111(6) -0.016(3) -0.010(3) 0.020(2)
C23 0.047(3) 0.042(3) 0.049(3) -0.006(3) -0.011(3) 0.022(2)
C24 0.032(2) 0.030(3) 0.083(5) -0.001(3) -0.027(3) 0.012(2)
C25 0.042(3) 0.047(3) 0.088(5) 0.022(3) -0.016(3) 0.015(2)
C26 0.025(2) 0.037(3) 0.094(5) 0.009(3) -0.017(3) 0.007(2)
C27 0.029(2) 0.036(3) 0.093(5) 0.007(3) -0.023(3) 0.0185(19)
C28 0.036(2) 0.033(2) 0.081(5) 0.021(3) 0.000(3) 0.019(2)
C29 0.047(3) 0.039(3) 0.224(9) 0.050(5) 0.020(5) 0.022(3)
C30 0.041(3) 0.055(3) 0.222(8) 0.043(5) 0.006(5) 0.032(3)
C31 0.031(2) 0.035(2) 0.046(3) 0.011(2) -0.002(3) 0.014(2)
C32 0.123(7) 0.058(4) 0.116(8) 0.025(5) 0.034(7) 0.045(4)
Sb1 0.0446(3) 0.0446(3) 0.0274(4) 0.000 0.000 0.02229(15)
F1 0.057(2) 0.057(2) 0.031(2) 0.000 0.000 0.0286(10)
F2 0.118(4) 0.118(4) 0.075(8) -0.020(7) -0.020(7) 0.086(5)
F3 0.040(6) 0.055(10) 0.046(6) -0.006(9) 0.001(8) 0.010(5)
F4 0.017(6) 0.020(6) 0.011(7) 0.000(6) -0.012(6) 0.004(5)
Sb2 0.04679(12) 0.04679(12) 0.0441(3) 0.00066(15) -0.00066(15) 0.03663(16)
F7 0.187(5) 0.155(4) 0.148(5) 0.048(4) 0.004(4) 0.116(3)
F5 0.175(5) 0.127(4) 0.218(6) -0.070(4) -0.013(5) 0.096(3)
F6 0.105(3) 0.097(3) 0.145(4) -0.056(3) -0.001(3) 0.048(2)
Sb2' 0.0627(17) 0.0627(17) 0.083(4) -0.0059(18) 0.0059(18) 0.047(2)
Sb3 0.0640(8) 0.0636(13) 0.1058(15) 0.000 0.0541(10) 0.0318(7)
F8 0.155(10) 0.136(9) 0.144(11) 0.000 -0.006(8) 0.068(4)
F9 0.115(6) 0.119(7) 0.094(7) -0.027(6) 0.035(6) 0.068(5)
F10 0.107(8) 0.144(8) 0.106(8) -0.006(8) -0.019(7) 0.050(6)
F11 0.216(11) 0.207(9) 0.203(12) 0.000 0.004(9) 0.103(5)
O1 0.077(8) 0.094(9) 0.056(8) 0.008(7) -0.012(7) 0.030(6)

_geom_special_details            
;
All esds (except the esd in the dihedral angle between two l.s. planes)
are estimated using the full covariance matrix. The cell esds are taken
into account individually in the estimation of esds in distances, angles
and torsion angles; correlations between esds in cell parameters are only
used when they are defined by crystal symmetry. An approximate (isotropic)
treatment of cell esds is used for estimating esds involving l.s. planes.
;

loop_
_geom_bond_atom_site_label_1
_geom_bond_atom_site_label_2
_geom_bond_distance
_geom_bond_site_symmetry_2
_geom_bond_publ_flag
Ag1 N1 2.068(6) 12 ?
Ag1 N1 2.068(6) . ?
Ag2 N4 2.260(5) 2_655 ?
Ag2 N4 2.260(5) 3_665 ?
Ag2 N4 2.260(5) . ?
N1 C1 1.328(9) . ?
N1 C2 1.425(9) . ?
N2 C1 1.335(10) . ?
N2 C3 1.382(7) . ?
N2 C8 1.496(9) . ?
C34 C15 1.358(9) 3_565 ?
C34 C15 1.413(10) . ?
C34 H34A 0.9500 . ?
N4 C16 1.327(9) . ?
N4 C18 1.339(9) . ?
N5 C16 1.350(8) . ?
N5 C17 1.386(9) . ?
N5 C24 1.510(8) . ?
C33 C31 1.361(8) . ?
C33 C31 1.408(8) 3_565 ?
C33 H33A 0.9500 . ?
C1 C32 1.479(11) . ?
C2 C7 1.302(11) . ?
C2 C3 1.377(10) . ?
C3 C4 1.345(10) . ?
C4 C5 1.370(13) . ?
C4 H4A 0.9500 . ?
C5 C6 1.453(17) . ?
C5 H5A 0.9500 . ?
C6 C7 1.363(15) . ?
C6 H6A 0.9500 . ?
C7 H7A 0.9500 . ?
C8 C9 1.515(12) . ?
C8 H8A 0.9900 . ?
C8 H8B 0.9900 . ?
C9 C10 1.257(10) . ?
C9 C14 1.263(12) . ?
C10 C