####################################################################### 
# 
# This file contains crystal structure data downloaded from the 
# Cambridge Structural Database (CSD) hosted by the Cambridge 
# Crystallographic Data Centre (CCDC).
# 
# Full information about CCDC data access policies and citation 
# guidelines are available at http://www.ccdc.cam.ac.uk/access/V1 
# 
# Audit and citation data items may have been added by the CCDC. 
# Please retain this information to preserve the provenance of 
# this file and to allow appropriate attribution of the data. 
# 
#######################################################################

data_1
_audit_block_doi                 10.5517/ccpkd9x
_database_code_depnum_ccdc_archive 'CCDC 642329'
loop_
_citation_id
_citation_doi
_citation_year
1 10.1039/b709118d 2007
_audit_update_record             
;
2007-03-30 deposited with the CCDC.	2024-07-10 downloaded from the CCDC.
;

_audit_creation_method           SHELXL-97
_chemical_name_systematic        
;
?
;
_chemical_name_common            ?
_chemical_melting_point          ?
_chemical_formula_moiety         ?
_chemical_formula_sum            'C194 H160 Ag5 Cl6 F30 N36 O Sb5'
_chemical_formula_weight         4942.38

loop_
_atom_type_symbol
_atom_type_description
_atom_type_scat_dispersion_real
_atom_type_scat_dispersion_imag
_atom_type_scat_source
C C 0.0033 0.0016 'International Tables Vol C Tables 4.2.6.8 and 6.1.1.4'
H H 0.0000 0.0000 'International Tables Vol C Tables 4.2.6.8 and 6.1.1.4'
N N 0.0061 0.0033 'International Tables Vol C Tables 4.2.6.8 and 6.1.1.4'
O O 0.0106 0.0060 'International Tables Vol C Tables 4.2.6.8 and 6.1.1.4'
F F 0.0171 0.0103 'International Tables Vol C Tables 4.2.6.8 and 6.1.1.4'
Ag Ag -0.8971 1.1015 'International Tables Vol C Tables 4.2.6.8 and 6.1.1.4'
Sb Sb -0.5866 1.5461 'International Tables Vol C Tables 4.2.6.8 and 6.1.1.4'
Cl Cl 0.1484 0.1585 'International Tables Vol C Tables 4.2.6.8 and 6.1.1.4'

_symmetry_cell_setting           Hexagonal
_symmetry_space_group_name_H-M   P6(3)22

loop_
_symmetry_equiv_pos_as_xyz
'x, y, z'
'-y, x-y, z'
'-x+y, -x, z'
'-x, -y, z+1/2'
'y, -x+y, z+1/2'
'x-y, x, z+1/2'
'y, x, -z'
'x-y, -y, -z'
'-x, -x+y, -z'
'-y, -x, -z+1/2'
'-x+y, y, -z+1/2'
'x, x-y, -z+1/2'

_cell_length_a                   17.791(4)
_cell_length_b                   17.791(4)
_cell_length_c                   37.231(15)
_cell_angle_alpha                90.00
_cell_angle_beta                 90.00
_cell_angle_gamma                120.00
_cell_volume                     10206(5)
_cell_formula_units_Z            2
_cell_measurement_temperature    173(2)
_cell_measurement_reflns_used    ?
_cell_measurement_theta_min      ?
_cell_measurement_theta_max      ?

_exptl_crystal_description       Block
_exptl_crystal_colour            Colorless
_exptl_crystal_size_max          0.28
_exptl_crystal_size_mid          0.28
_exptl_crystal_size_min          0.26
_exptl_crystal_density_meas      ?
_exptl_crystal_density_diffrn    1.608
_exptl_crystal_density_method    'not measured'
_exptl_crystal_F_000             4892
_exptl_absorpt_coefficient_mu    1.285
_exptl_absorpt_correction_type   Multi-scan
_exptl_absorpt_correction_T_min  0.7148
_exptl_absorpt_correction_T_max  0.7311
_exptl_absorpt_process_details   'SADABS Bruker 1997'

_exptl_special_details           
;
?
;

_diffrn_ambient_temperature      173(2)
_diffrn_radiation_wavelength     0.71073
_diffrn_radiation_type           MoK\a
_diffrn_radiation_source         'fine-focus sealed tube'
_diffrn_radiation_monochromator  graphite
_diffrn_measurement_device_type  'Apex II'
_diffrn_measurement_method       '\w scan'
_diffrn_detector_area_resol_mean ?
_diffrn_standards_number         ?
_diffrn_standards_interval_count ?
_diffrn_standards_interval_time  ?
_diffrn_standards_decay_%        none
_diffrn_reflns_number            65372
_diffrn_reflns_av_R_equivalents  0.1056
_diffrn_reflns_av_sigmaI/netI    0.0552
_diffrn_reflns_limit_h_min       -22
_diffrn_reflns_limit_h_max       22
_diffrn_reflns_limit_k_min       -22
_diffrn_reflns_limit_k_max       22
_diffrn_reflns_limit_l_min       -44
_diffrn_reflns_limit_l_max       45
_diffrn_reflns_theta_min         2.35
_diffrn_reflns_theta_max         26.17
_reflns_number_total             6784
_reflns_number_gt                4311
_reflns_threshold_expression     >2sigma(I)

_computing_data_collection       ?
_computing_cell_refinement       ?
_computing_data_reduction        ?
_computing_structure_solution    'SHELXS-97 (Sheldrick, 1990)'
_computing_structure_refinement  'SHELXL-97 (Sheldrick, 1997)'
_computing_molecular_graphics    ?
_computing_publication_material  ?

_refine_special_details          
;
Refinement of F^2^ against ALL reflections. The weighted R-factor wR and
goodness of fit S are based on F^2^, conventional R-factors R are based
on F, with F set to zero for negative F^2^. The threshold expression of
F^2^ > 2sigma(F^2^) is used only for calculating R-factors(gt) etc. and is
not relevant to the choice of reflections for refinement. R-factors based
on F^2^ are statistically about twice as large as those based on F, and R-
factors based on ALL data will be even larger.

Sb1 is in a site with imposed 32 symmetry, thus four F atoms are disordered
over two positions required by 32 symmetry. Sb2 and Sb3 are located in a
2-fold symmetry and Sb3 is assigned with 1/6 occupancy. Geometric restraints
were applied to all SbF~6~^-^ anions by using SADI to model it as octahedral.
ISOR in combination of SIMU was applied to all Sb and F atoms to give
isotropic approximation. The chloroform solvent molecule is also located about
a 2-fold symmetry and disordered over four positions. SADI and DIFX
restraints were used to model its C~3v~ symmetry.
;

_refine_ls_structure_factor_coef Fsqd
_refine_ls_matrix_type           full
_refine_ls_weighting_scheme      calc
_refine_ls_weighting_details     
'calc w=1/[\s^2^(Fo^2^)+(0.0910P)^2^+53.6227P] where P=(Fo^2^+2Fc^2^)/3'
_atom_sites_solution_primary     direct
_atom_sites_solution_secondary   difmap
_atom_sites_solution_hydrogens   geom
_refine_ls_hydrogen_treatment    geom
_refine_ls_extinction_method     none
_refine_ls_extinction_coef       ?
_refine_ls_abs_structure_details 'Flack H D (1983), Acta Cryst. A39, 876-881'
_refine_ls_abs_structure_Flack   -0.03(7)
_refine_ls_number_reflns         6784
_refine_ls_number_parameters     463
_refine_ls_number_restraints     158
_refine_ls_R_factor_all          0.1193
_refine_ls_R_factor_gt           0.0721
_refine_ls_wR_factor_ref         0.2111
_refine_ls_wR_factor_gt          0.1818
_refine_ls_goodness_of_fit_ref   1.034
_refine_ls_restrained_S_all      1.047
_refine_ls_shift/su_max          0.033
_refine_ls_shift/su_mean         0.003

loop_
_atom_site_label
_atom_site_type_symbol
_atom_site_fract_x
_atom_site_fract_y
_atom_site_fract_z
_atom_site_U_iso_or_equiv
_atom_site_adp_type
_atom_site_occupancy
_atom_site_symmetry_multiplicity
_atom_site_calc_flag
_atom_site_refinement_flags
_atom_site_disorder_assembly
_atom_site_disorder_group
Ag1 Ag 0.28773(9) 0.14386(4) 0.2500 0.0953(3) Uani 1 2 d S . .
Ag2 Ag 0.6667 0.3333 0.11906(2) 0.0483(2) Uani 1 3 d S . .
N1 N 0.2897(5) 0.1616(4) 0.30570(17) 0.074(2) Uani 1 1 d . . .
N2 N 0.3216(4) 0.2245(4) 0.35781(17) 0.0593(17) Uani 1 1 d . . .
N3 N 0.2609(3) 0.5866(3) 0.36925(14) 0.0414(14) Uani 1 1 d . . .
N4 N 0.5310(3) 0.3082(3) 0.11190(16) 0.0458(15) Uani 1 1 d . . .
N5 N 0.4131(3) 0.2913(3) 0.08339(15) 0.0424(14) Uani 1 1 d . . .
N6 N 0.2583(3) 0.5874(3) 0.04144(14) 0.0347(13) Uani 1 1 d . . .
C1 C 0.3435(6) 0.2307(5) 0.3227(2) 0.070(2) Uani 1 1 d . . .
C2 C 0.2276(5) 0.1059(6) 0.3301(2) 0.069(2) Uani 1 1 d . . .
C3 C 0.2503(4) 0.1474(4) 0.3639(2) 0.0505(19) Uani 1 1 d . . .
C4 C 0.2034(5) 0.1086(6) 0.3942(2) 0.063(2) Uani 1 1 d . . .
H4A H 0.2178 0.1382 0.4166 0.076 Uiso 1 1 calc R . .
C5 C 0.1360(5) 0.0267(6) 0.3912(3) 0.091(3) Uani 1 1 d . . .
H5A H 0.1043 -0.0025 0.4122 0.110 Uiso 1 1 calc R . .
C6 C 0.1120(5) -0.0156(6) 0.3587(3) 0.091(4) Uani 1 1 d . . .
H6A H 0.0629 -0.0723 0.3573 0.110 Uiso 1 1 calc R . .
C7 C 0.1603(6) 0.0252(6) 0.3277(3) 0.082(3) Uani 1 1 d . . .
H7A H 0.1452 -0.0043 0.3053 0.098 Uiso 1 1 calc R . .
C8 C 0.3727(5) 0.2935(4) 0.3849(2) 0.061(2) Uani 1 1 d . . .
H8A H 0.4348 0.3109 0.3830 0.073 Uiso 1 1 calc R . .
H8B H 0.3526 0.2704 0.4093 0.073 Uiso 1 1 calc R . .
C9 C 0.3620(4) 0.3721(4) 0.37869(18) 0.0484(18) Uani 1 1 d . . .
C10 C 0.4329(4) 0.4516(4) 0.3752(2) 0.060(2) Uani 1 1 d . . .
H10A H 0.4885 0.4563 0.3747 0.072 Uiso 1 1 calc R . .
C11 C 0.4280(4) 0.5248(4) 0.3723(2) 0.0475(19) Uani 1 1 d . . .
H11A H 0.4796 0.5798 0.3711 0.057 Uiso 1 1 calc R . .
C12 C 0.3479(4) 0.5198(4) 0.37100(17) 0.0429(17) Uani 1 1 d . . .
C13 C 0.2745(4) 0.4377(4) 0.3741(2) 0.053(2) Uani 1 1 d . . .
H13A H 0.2186 0.4324 0.3737 0.064 Uiso 1 1 calc R . .
C14 C 0.2811(4) 0.3640(5) 0.3778(2) 0.059(2) Uani 1 1 d . . .
H14A H 0.2304 0.3085 0.3796 0.071 Uiso 1 1 calc R . .
C15 C 0.3401(4) 0.5970(4) 0.36939(17) 0.0414(17) Uani 1 1 d . . .
C16 C 0.4892(4) 0.2891(4) 0.08069(19) 0.0426(17) Uani 1 1 d . . .
C17 C 0.4069(4) 0.3142(4) 0.11791(19) 0.0418(17) Uani 1 1 d . . .
C18 C 0.4811(4) 0.3245(4) 0.13563(18) 0.0424(17) Uani 1 1 d . . .
C19 C 0.4942(5) 0.3466(5) 0.1711(2) 0.059(2) Uani 1 1 d . . .
H19A H 0.5438 0.3531 0.1835 0.071 Uiso 1 1 calc R . .
C20 C 0.4328(6) 0.3592(5) 0.1884(2) 0.070(3) Uani 1 1 d . . .
H20A H 0.4413 0.3754 0.2130 0.084 Uiso 1 1 calc R . .
C21 C 0.3600(6) 0.3492(6) 0.1714(2) 0.074(3) Uani 1 1 d . . .
H21A H 0.3189 0.3579 0.1843 0.089 Uiso 1 1 calc R . .
C22 C 0.3464(4) 0.3263(4) 0.1351(2) 0.052(2) Uani 1 1 d . . .
H22A H 0.2964 0.3193 0.1229 0.063 Uiso 1 1 calc R . .
C23 C 0.5186(4) 0.2648(5) 0.04770(17) 0.0547(19) Uani 1 1 d . . .
H23A H 0.5744 0.2680 0.0523 0.082 Uiso 1 1 calc R . .
H23B H 0.5252 0.3047 0.0282 0.082 Uiso 1 1 calc R . .
H23C H 0.4754 0.2054 0.0408 0.082 Uiso 1 1 calc R . .
C24 C 0.3556(4) 0.2828(4) 0.05350(19) 0.0423(18) Uani 1 1 d . . .
H24A H 0.2968 0.2332 0.0582 0.051 Uiso 1 1 calc R . .
H24B H 0.3775 0.2705 0.0311 0.051 Uiso 1 1 calc R . .
C25 C 0.3506(4) 0.3652(4) 0.04875(17) 0.0388(16) Uani 1 1 d . . .
C26 C 0.2713(4) 0.3604(4) 0.0480(2) 0.0462(19) Uani 1 1 d . . .
H26A H 0.2196 0.3057 0.0498 0.055 Uiso 1 1 calc R . .
C27 C 0.2669(4) 0.4351(4) 0.04481(19) 0.0454(18) Uani 1 1 d . . .
H27A H 0.2119 0.4315 0.0441 0.054 Uiso 1 1 calc R . .
C28 C 0.3419(4) 0.5156(3) 0.04261(16) 0.0353(15) Uani 1 1 d . . .
C29 C 0.4223(4) 0.5188(4) 0.04274(18) 0.0410(17) Uani 1 1 d . . .
H29A H 0.4745 0.5732 0.0411 0.049 Uiso 1 1 calc R . .
C30 C 0.4258(4) 0.4431(4) 0.04534(19) 0.0451(19) Uani 1 1 d . . .
H30A H 0.4802 0.4451 0.0447 0.054 Uiso 1 1 calc R . .
C31 C 0.3373(4) 0.5953(4) 0.04199(17) 0.0354(15) Uani 1 1 d . . .
C32 C 0.4225(6) 0.3047(6) 0.3075(3) 0.091(3) Uani 1 1 d . . .
H32A H 0.4247 0.2962 0.2816 0.137 Uiso 1 1 calc R . .
H32B H 0.4739 0.3087 0.3190 0.137 Uiso 1 1 calc R . .
H32C H 0.4213 0.3585 0.3118 0.137 Uiso 1 1 calc R . .
Sb1 Sb 0.6667 0.3333 0.2500 0.0465(3) Uani 1 6 d SDU . .
F1 F 0.6667 0.3333 0.30026(15) 0.0616(18) Uani 1 3 d SDU . .
F2 F 0.6066(3) 0.3934(3) 0.2500 0.106(5) Uani 0.50 2 d SPDU . .
F3 F 0.5480(6) 0.2537(8) 0.2506(8) 0.061(6) Uani 0.25 1 d PDU . .
F4 F 0.7737(8) 0.4348(9) 0.2526(6) 0.031(5) Uani 0.17 1 d PDU . .
Sb2 Sb 0.72682(5) 0.72682(5) 0.0000 0.06428(16) Uani 1 2 d SDU . .
F7 F 0.6789(4) 0.7803(4) -0.02474(19) 0.133(2) Uani 1 1 d DU . .
F5 F 0.7672(6) 0.8113(5) 0.0347(3) 0.193(3) Uani 1 1 d DU . .
F6 F 0.6871(5) 0.6401(5) -0.0338(2) 0.161(3) Uani 1 1 d DU . .
Sb3 Sb 1.15427(15) 0.3085(3) 0.2500 0.1803(16) Uani 0.33 2 d SPDU . .
F8 F 1.2083(4) 0.4167(7) 0.2500 0.210(7) Uani 0.33 2 d SPDU . .
F9 F 1.1661(9) 0.3102(7) 0.2941(3) 0.192(7) Uani 0.33 1 d PDU . .
F10 F 1.0614(6) 0.3078(8) 0.2542(5) 0.179(7) Uani 0.33 1 d PDU . .
F11 F 1.1005(4) 0.2011(8) 0.2500 0.198(7) Uani 0.33 2 d SPDU . .
C33 C 1.4110(3) 0.5890(3) 0.2500 0.24(2) Uiso 0.67 2 d SPD A 1
Cl3 Cl 1.3263(6) 0.5055(6) 0.2246(6) 0.250 Uiso 0.17 1 d PD . 1
Cl2 Cl 1.4945(5) 0.5857(7) 0.2280(6) 0.160(10) Uiso 0.17 1 d PD A 1
Cl1 Cl 1.4132(8) 0.6736(6) 0.2253(7) 0.250 Uiso 0.17 1 d PD . 1
Cl5 Cl 1.3572(9) 0.5534(12) 0.2104(3) 0.250 Uiso 0.33 1 d PD B 2
Cl4 Cl 1.4672(4) 0.5328(4) 0.2500 0.268(14) Uiso 0.33 2 d SPD C 2
O2 O 1.0000 1.0000 0.0000 0.20(2) Uiso 0.50 6 d SP . .
O1 O 1.0000 0.0000 0.2500 0.172(19) Uiso 0.50 6 d SP . .

loop_
_atom_site_aniso_label
_atom_site_aniso_U_11
_atom_site_aniso_U_22
_atom_site_aniso_U_33
_atom_site_aniso_U_23
_atom_site_aniso_U_13
_atom_site_aniso_U_12
Ag1 0.1339(10) 0.0941(5) 0.0711(5) -0.0226(5) 0.000 0.0669(5)
Ag2 0.0471(3) 0.0471(3) 0.0507(4) 0.000 0.000 0.02354(13)
N1 0.109(4) 0.074(4) 0.052(4) -0.009(3) 0.000(3) 0.055(3)
N2 0.080(3) 0.056(3) 0.059(4) -0.001(3) 0.008(3) 0.047(2)
N3 0.039(2) 0.049(2) 0.041(3) 0.001(2) 0.000(2) 0.0260(19)
N4 0.037(2) 0.041(3) 0.057(3) -0.006(2) -0.010(2) 0.017(2)
N5 0.043(2) 0.034(2) 0.056(3) 0.005(2) -0.003(2) 0.0233(18)
N6 0.029(2) 0.032(2) 0.039(3) 0.000(2) 0.000(2) 0.0131(17)
C1 0.097(4) 0.060(3) 0.070(5) 0.008(4) 0.014(5) 0.052(3)
C2 0.079(4) 0.061(4) 0.082(5) -0.009(4) -0.015(4) 0.046(3)
C3 0.050(3) 0.053(3) 0.065(5) -0.001(3) 0.000(3) 0.039(2)
C4 0.063(4) 0.063(4) 0.069(5) 0.003(4) 0.002(4) 0.035(3)
C5 0.069(4) 0.111(6) 0.111(8) 0.024(6) 0.014(5) 0.058(4)
C6 0.056(4) 0.070(5) 0.145(9) -0.028(6) -0.020(5) 0.028(4)
C7 0.079(5) 0.080(5) 0.096(7) -0.021(5) -0.023(5) 0.047(4)
C8 0.065(4) 0.051(3) 0.078(6) 0.006(4) 0.001(4) 0.036(3)
C9 0.054(3) 0.032(3) 0.055(4) 0.003(3) 0.007(3) 0.019(2)
C10 0.044(3) 0.057(3) 0.091(6) -0.018(4) -0.007(4) 0.035(3)
C11 0.033(3) 0.039(3) 0.070(5) 0.005(3) 0.000(3) 0.017(2)
C12 0.045(3) 0.048(3) 0.036(3) -0.001(3) -0.003(3) 0.024(2)
C13 0.040(3) 0.043(3) 0.075(5) -0.002(3) -0.003(3) 0.020(3)
C14 0.043(3) 0.043(3) 0.087(6) 0.011(4) 0.002(4) 0.018(3)
C15 0.042(3) 0.046(3) 0.035(3) 0.002(3) 0.004(3) 0.021(2)
C16 0.046(3) 0.034(3) 0.049(4) 0.000(3) -0.001(3) 0.021(2)
C17 0.048(3) 0.030(3) 0.044(3) 0.000(3) 0.002(3) 0.017(2)
C18 0.045(3) 0.031(3) 0.048(4) 0.002(3) 0.003(3) 0.017(2)
C19 0.051(4) 0.054(4) 0.063(5) 0.009(3) 0.003(4) 0.019(3)
C20 0.091(5) 0.070(4) 0.053(5) 0.000(4) 0.004(4) 0.043(4)
C21 0.090(5) 0.092(5) 0.059(4) 0.001(4) 0.006(4) 0.059(4)
C22 0.035(3) 0.041(3) 0.075(5) -0.002(3) -0.005(3) 0.014(3)
C23 0.055(3) 0.068(4) 0.042(3) -0.007(4) -0.001(3) 0.031(3)
C24 0.036(3) 0.031(3) 0.059(4) -0.004(3) -0.015(3) 0.015(2)
C25 0.033(3) 0.031(3) 0.050(3) 0.000(3) -0.008(3) 0.014(2)
C26 0.032(3) 0.033(3) 0.074(5) 0.007(3) 0.005(3) 0.017(2)
C27 0.035(3) 0.037(3) 0.059(4) -0.002(3) -0.002(3) 0.014(2)
C28 0.039(3) 0.031(2) 0.039(3) 0.000(2) -0.005(3) 0.019(2)
C29 0.038(3) 0.030(3) 0.054(4) 0.005(3) 0.002(3) 0.015(2)
C30 0.039(3) 0.043(3) 0.060(4) -0.007(3) 0.000(3) 0.026(2)
C31 0.035(3) 0.035(3) 0.036(3) 0.002(2) 0.006(3) 0.017(2)
C32 0.104(5) 0.073(5) 0.106(8) 0.014(5) 0.036(6) 0.052(4)
Sb1 0.0550(4) 0.0550(4) 0.0295(4) 0.000 0.000 0.02752(18)
F1 0.077(3) 0.077(3) 0.031(3) 0.000 0.000 0.0385(13)
F2 0.129(5) 0.129(5) 0.082(8) -0.009(8) -0.009(8) 0.081(6)
F3 0.062(7) 0.056(10) 0.054(7) 0.003(10) 0.006(9) 0.023(6)
F4 0.040(8) 0.027(7) 0.021(8) 0.002(8) -0.001(8) 0.014(6)
Sb2 0.08744(16) 0.08744(16) 0.0553(4) 0.00215(18) -0.00215(18) 0.0717(2)
F7 0.167(4) 0.165(4) 0.126(5) 0.026(4) -0.005(4) 0.127(3)
F5 0.243(6) 0.170(5) 0.227(8) -0.060(5) -0.108(6) 0.150(4)
F6 0.192(6) 0.147(5) 0.168(6) -0.051(5) -0.062(5) 0.104(4)
Sb3 0.163(2) 0.154(3) 0.221(4) 0.000 0.114(2) 0.0768(17)
F8 0.203(11) 0.175(10) 0.243(11) 0.000 0.048(10) 0.087(5)
F9 0.184(10) 0.186(10) 0.202(10) -0.026(9) 0.059(9) 0.090(8)
F10 0.149(9) 0.176(10) 0.206(10) 0.005(9) 0.040(9) 0.078(7)
F11 0.204(11) 0.171(10) 0.208(11) 0.000 0.059(10) 0.085(5)

_geom_special_details            
;
All esds (except the esd in the dihedral angle between two l.s. planes)
are estimated using the full covariance matrix. The cell esds are taken
into account individually in the estimation of esds in distances, angles
and torsion angles; correlations between esds in cell parameters are only
used when they are defined by crystal symmetry. An approximate (isotropic)
treatment of cell esds is used for estimating esds involving l.s. planes.
;

loop_
_geom_bond_atom_site_label_1
_geom_bond_atom_site_label_2
_geom_bond_distance
_geom_bond_site_symmetry_2
_geom_bond_publ_flag
Ag1 N1 2.095(6) . ?
Ag1 N1 2.095(6) 12 ?
Ag2 N4 2.240(6) 2_655 ?
Ag2 N4 2.240(6) 3_665 ?
Ag2 N4 2.240(6) . ?
N1 C1 1.284(10) . ?
N1 C2 1.390(10) . ?
N2 C3 1.343(8) . ?
N2 C1 1.354(10) . ?
N2 C8 1.493(10) . ?
N3 C15 1.326(8) . ?
N3 C15 1.341(8) 3_565 ?
N4 C16 1.329(9) . ?
N4 C18 1.382(9) . ?
N5 C17 1.369(9) . ?
N5 C16 1.377(9) . ?
N5 C24 1.468(8) . ?
N6 C31 1.340(8) . ?
N6 C31 1.342(7) 3_565 ?
C1 C32 1.477(12) . ?
C2 C7 1.335(11) . ?
C2 C3 1.414(11) . ?
C3 C4 1.367(10) . ?
C4 C5 1.352(12) . ?
C4 H4A 0.9500 . ?
C5 C6 1.376(15) . ?
C5 H5A 0.9500 . ?
C6 C7 1.405(14) . ?
C6 H6A 0.9500 . ?
C7 H7A 0.9500 . ?
C8 C9 1.520(11) . ?
C8 H8A 0.9900 . ?
C8 H8B 0.9900 . ?
C9 C10 1.352(8) . ?
C9 C14 1.374(11) . ?
C10 C11 1.353(11) . ?
C10 H10A 0.9500 . ?
C11 C12 1.3