####################################################################### 
# 
# This file contains crystal structure data downloaded from the 
# Cambridge Structural Database (CSD) hosted by the Cambridge 
# Crystallographic Data Centre (CCDC).
# 
# Full information about CCDC data access policies and citation 
# guidelines are available at http://www.ccdc.cam.ac.uk/access/V1 
# 
# Audit and citation data items may have been added by the CCDC. 
# Please retain this information to preserve the provenance of 
# this file and to allow appropriate attribution of the data. 
# 
#######################################################################

data_1
_audit_block_doi                 10.5517/cc11f76x
_database_code_depnum_ccdc_archive 'CCDC 966028'
loop_
_citation_id
_citation_doi
_citation_year
1 10.1039/C3CE42360C 2014

_audit_update_record             
;
2013-10-11 deposited with the CCDC.	2024-07-10 downloaded from the CCDC.
;

_audit_creation_method           SHELXL-97
_chemical_name_systematic        ?
_chemical_name_common            ?
_chemical_melting_point          ?
_chemical_formula_moiety         
'C48 H52 Cd3 N8 O14 S2, O4 S, 2(H O0.50), H O0.50'
_chemical_formula_sum            'C48 H56 Cd3 N8 O20 S3'
_chemical_formula_weight         1498.39

loop_
_atom_type_symbol
_atom_type_description
_atom_type_scat_dispersion_real
_atom_type_scat_dispersion_imag
_atom_type_scat_source
C C 0.0033 0.0016 'International Tables Vol C Tables 4.2.6.8 and 6.1.1.4'
H H 0.0000 0.0000 'International Tables Vol C Tables 4.2.6.8 and 6.1.1.4'
N N 0.0061 0.0033 'International Tables Vol C Tables 4.2.6.8 and 6.1.1.4'
O O 0.0106 0.0060 'International Tables Vol C Tables 4.2.6.8 and 6.1.1.4'
S S 0.1246 0.1234 'International Tables Vol C Tables 4.2.6.8 and 6.1.1.4'
Cd Cd -0.8075 1.2024 'International Tables Vol C Tables 4.2.6.8 and 6.1.1.4'

_symmetry_cell_setting           monoclinic
_symmetry_space_group_name_H-M   P2(1)/n
_symmetry_space_group_name_Hall  '-P 2yn'

loop_
_symmetry_equiv_pos_as_xyz
'x, y, z'
'-x+1/2, y+1/2, -z+1/2'
'-x, -y, -z'
'x-1/2, -y-1/2, z-1/2'

_cell_length_a                   14.070(3)
_cell_length_b                   22.001(4)
_cell_length_c                   20.966(4)
_cell_angle_alpha                90.00
_cell_angle_beta                 101.07(3)
_cell_angle_gamma                90.00
_cell_volume                     6370(2)
_cell_formula_units_Z            4
_cell_measurement_temperature    298(2)
_cell_measurement_reflns_used    25406
_cell_measurement_theta_min      2.4541
_cell_measurement_theta_max      34.7606

_exptl_crystal_description       rod
_exptl_crystal_colour            colourless
_exptl_crystal_size_max          0.70
_exptl_crystal_size_mid          0.30
_exptl_crystal_size_min          0.30
_exptl_crystal_density_meas      ?
_exptl_crystal_density_diffrn    1.563
_exptl_crystal_density_method    'not measured'
_exptl_crystal_F_000             3008
_exptl_absorpt_coefficient_mu    1.164
_exptl_absorpt_correction_type   multi-scan
_exptl_absorpt_correction_T_min  0.4964
_exptl_absorpt_correction_T_max  0.7216
_exptl_absorpt_process_details   'SADABS, (Sheldrick 2008)'

_exptl_special_details           ?

_diffrn_ambient_temperature      298(2)
_diffrn_radiation_wavelength     0.71073
_diffrn_radiation_type           MoK\a
_diffrn_radiation_source         'fine-focus sealed tube'
_diffrn_radiation_monochromator  graphite
_diffrn_measurement_device_type  Rigaku
_diffrn_detector_area_resol_mean 28.5714
_diffrn_measurement_method       dtprofit.ref
_diffrn_reflns_number            11150
_diffrn_reflns_av_R_equivalents  0.0000
_diffrn_reflns_av_sigmaI/netI    0.0394
_diffrn_reflns_limit_h_min       -16
_diffrn_reflns_limit_h_max       16
_diffrn_reflns_limit_k_min       0
_diffrn_reflns_limit_k_max       26
_diffrn_reflns_limit_l_min       0
_diffrn_reflns_limit_l_max       24
_diffrn_reflns_theta_min         2.45
_diffrn_reflns_theta_max         25.00
_reflns_number_total             11150
_reflns_number_gt                10051
_reflns_threshold_expression     >2sigma(I)

_computing_data_collection       ?
_computing_cell_refinement       ?
_computing_data_reduction        ?
_computing_structure_solution    'SHELXS-97 (Sheldrick, 2008)'
_computing_structure_refinement  'SHELXL-97 (Sheldrick, 2008)'
_computing_molecular_graphics    ?
_computing_publication_material  ?

_refine_special_details          
; 
 Refinement of F^2^ against ALL reflections.  The weighted R-factor wR and 
 goodness of fit S are based on F^2^, conventional R-factors R are based 
 on F, with F set to zero for negative F^2^. The threshold expression of 
 F^2^ > 2sigma(F^2^) is used only for calculating R-factors(gt) etc. and is 
 not relevant to the choice of reflections for refinement.  R-factors based 
 on F^2^ are statistically about twice as large as those based on F, and R- 
 factors based on ALL data will be even larger. 
;

_refine_ls_structure_factor_coef Fsqd
_refine_ls_matrix_type           full
_refine_ls_weighting_scheme      calc
_refine_ls_weighting_details     
'calc w=1/[\s^2^(Fo^2^)+(0.0454P)^2^+19.0285P] where P=(Fo^2^+2Fc^2^)/3'
_atom_sites_solution_primary     direct
_atom_sites_solution_secondary   difmap
_atom_sites_solution_hydrogens   geom
_refine_ls_hydrogen_treatment    constr
_refine_ls_extinction_method     none
_refine_ls_extinction_coef       ?
_refine_ls_number_reflns         11150
_refine_ls_number_parameters     748
_refine_ls_number_restraints     0
_refine_ls_R_factor_all          0.0558
_refine_ls_R_factor_gt           0.0486
_refine_ls_wR_factor_ref         0.1202
_refine_ls_wR_factor_gt          0.1161
_refine_ls_goodness_of_fit_ref   1.108
_refine_ls_restrained_S_all      1.108
_refine_ls_shift/su_max          0.002
_refine_ls_shift/su_mean         0.000

loop_
_atom_site_label
_atom_site_type_symbol
_atom_site_fract_x
_atom_site_fract_y
_atom_site_fract_z
_atom_site_U_iso_or_equiv
_atom_site_adp_type
_atom_site_occupancy
_atom_site_symmetry_multiplicity
_atom_site_calc_flag
_atom_site_refinement_flags
_atom_site_disorder_assembly
_atom_site_disorder_group
Cd1 Cd 0.51501(2) 0.744167(17) 0.262178(16) 0.02480(10) Uani 1 1 d . . .
Cd2 Cd 0.64014(3) 0.988824(17) 0.19028(2) 0.03163(11) Uani 1 1 d . . .
Cd3 Cd 0.32061(3) 0.502884(17) 0.302553(19) 0.03089(11) Uani 1 1 d . . .
S1 S 0.51480(9) 0.91389(6) 0.28282(7) 0.0322(3) Uani 1 1 d . . .
S2 S 0.51008(9) 0.57758(6) 0.24546(6) 0.0290(3) Uani 1 1 d . . .
S3 S 0.20568(10) 0.41736(6) 0.48838(7) 0.0351(3) Uani 1 1 d . . .
O1 O 0.4984(3) 0.84829(17) 0.2780(2) 0.0455(10) Uani 1 1 d . . .
O2 O 0.4386(4) 0.9422(2) 0.3086(3) 0.0771(16) Uani 1 1 d . . .
O3 O 0.6074(4) 0.9289(2) 0.3209(4) 0.106(3) Uani 1 1 d . . .
O4 O 0.5092(4) 0.9392(2) 0.2163(2) 0.0631(13) Uani 1 1 d . . .
O5 O 0.5404(3) 0.64097(18) 0.2527(2) 0.0469(10) Uani 1 1 d . . .
O6 O 0.4180(3) 0.5709(2) 0.2648(3) 0.0741(16) Uani 1 1 d . . .
O7 O 0.5791(4) 0.5377(3) 0.2846(3) 0.102(2) Uani 1 1 d . . .
O8 O 0.4995(6) 0.5594(3) 0.1790(3) 0.125(3) Uani 1 1 d . . .
O9 O 0.2199(3) 0.37892(19) 0.5467(2) 0.0537(11) Uani 1 1 d . . .
O10 O 0.1938(3) 0.3786(2) 0.4301(2) 0.0548(12) Uani 1 1 d . . .
O11 O 0.1201(3) 0.4552(2) 0.4867(2) 0.0611(13) Uani 1 1 d . . .
O12 O 0.2903(3) 0.4561(2) 0.4897(2) 0.0517(11) Uani 1 1 d . . .
O13 O 0.7809(4) 0.9726(2) 0.2753(2) 0.0695(14) Uani 1 1 d . . .
H13A H 0.8263 0.9959 0.2935 0.083 Uiso 1 1 d R . .
H13B H 0.7635 0.9512 0.3048 0.083 Uiso 1 1 d R . .
O14 O 0.7387(3) 1.05839(19) 0.1559(2) 0.0485(10) Uani 1 1 d . . .
H14A H 0.7510 1.0943 0.1449 0.058 Uiso 1 1 d R . .
H14B H 0.7886 1.0368 0.1552 0.058 Uiso 1 1 d R . .
O15 O 0.5386(3) 1.0120(2) 0.0933(2) 0.0522(11) Uani 1 1 d . . .
H15A H 0.4893 1.0340 0.0795 0.063 Uiso 1 1 d R . .
H15B H 0.5700 1.0082 0.0627 0.063 Uiso 1 1 d R . .
O16 O 0.4002(3) 0.45190(19) 0.39326(19) 0.0457(10) Uani 1 1 d . . .
H16A H 0.3943 0.4475 0.4326 0.055 Uiso 1 1 d R . .
H16B H 0.4551 0.4377 0.3897 0.055 Uiso 1 1 d R . .
O17 O 0.1972(3) 0.4445(2) 0.3246(2) 0.0524(11) Uani 1 1 d . . .
H17A H 0.1854 0.4191 0.3527 0.063 Uiso 1 1 d R . .
H17B H 0.1572 0.4378 0.2894 0.063 Uiso 1 1 d R . .
O18 O 0.2011(3) 0.5340(2) 0.2140(2) 0.0523(11) Uani 1 1 d . . .
H18A H 0.1405 0.5284 0.2027 0.063 Uiso 1 1 d R . .
H18B H 0.2221 0.5459 0.1807 0.063 Uiso 1 1 d R . .
O19 O 0.2349(5) 0.2571(3) 0.4870(3) 0.0907(19) Uani 1 1 d . . .
H19A H 0.2293 0.2774 0.5206 0.109 Uiso 1 1 d R . .
H19B H 0.1782 0.2493 0.4662 0.109 Uiso 1 1 d R . .
O20 O 0.4450(4) 0.4802(3) 0.5819(3) 0.0325(18) Uani 0.50 1 d P . .
H20A H 0.3910 0.4865 0.5567 0.039 Uiso 0.50 1 d PR . .
H20B H 0.4334 0.4675 0.6180 0.039 Uiso 0.50 1 d PR . .
O21 O 0.2990(7) 0.5397(4) 0.1107(4) 0.051(2) Uani 0.50 1 d P . .
H21A H 0.3568 0.5484 0.1285 0.062 Uiso 0.50 1 d PR . .
H21B H 0.2947 0.5421 0.0698 0.062 Uiso 0.50 1 d PR . .
N1 N 0.3491(3) 0.7434(2) 0.2114(2) 0.0298(10) Uani 1 1 d . . .
N2 N -0.0089(3) 0.7701(2) -0.1316(2) 0.0310(10) Uani 1 1 d . . .
N3 N -0.2838(3) 0.90870(19) 0.1489(2) 0.0336(10) Uani 1 1 d . . .
N4 N -0.0990(3) 0.56963(19) 0.2496(2) 0.0322(10) Uani 1 1 d . . .
N5 N 0.6803(3) 0.75166(19) 0.3120(2) 0.0282(9) Uani 1 1 d . . .
N6 N 1.0408(3) 0.7430(2) 0.6563(2) 0.0289(9) Uani 1 1 d . . .
N7 N 1.2728(3) 0.58423(19) 0.3587(2) 0.0336(10) Uani 1 1 d . . .
N8 N 1.1330(3) 0.92773(19) 0.2628(2) 0.0329(10) Uani 1 1 d . . .
C1 C 0.2913(4) 0.7919(2) 0.2070(3) 0.0329(12) Uani 1 1 d . . .
H1 H 0.3168 0.8281 0.2258 0.039 Uiso 1 1 calc R . .
C2 C 0.1952(4) 0.7909(2) 0.1760(3) 0.0342(12) Uani 1 1 d . . .
H2 H 0.1576 0.8258 0.1749 0.041 Uiso 1 1 calc R . .
C3 C 0.1549(3) 0.7384(2) 0.1468(2) 0.0239(10) Uani 1 1 d . . .
C4 C 0.2154(4) 0.6889(2) 0.1504(3) 0.0345(12) Uani 1 1 d . . .
H4 H 0.1919 0.6522 0.1315 0.041 Uiso 1 1 calc R . .
C5 C 0.3103(4) 0.6931(2) 0.1817(3) 0.0380(13) Uani 1 1 d . . .
H5 H 0.3497 0.6591 0.1823 0.046 Uiso 1 1 calc R . .
C6 C 0.0506(3) 0.7324(2) 0.1153(2) 0.0220(10) Uani 1 1 d . . .
H6 H 0.0420 0.6946 0.0902 0.026 Uiso 1 1 calc R . .
C7 C 0.0263(4) 0.8184(3) -0.0982(3) 0.0417(14) Uani 1 1 d . . .
H7 H 0.0523 0.8494 -0.1196 0.050 Uiso 1 1 calc R . .
C8 C 0.0264(4) 0.8250(3) -0.0322(3) 0.0370(13) Uani 1 1 d . . .
H8 H 0.0521 0.8600 -0.0106 0.044 Uiso 1 1 calc R . .
C9 C -0.0109(3) 0.7806(2) 0.0010(2) 0.0259(10) Uani 1 1 d . . .
C10 C -0.0488(4) 0.7302(3) -0.0344(3) 0.0373(13) Uani 1 1 d . . .
H10 H -0.0762 0.6989 -0.0141 0.045 Uiso 1 1 calc R . .
C11 C -0.0463(4) 0.7261(3) -0.0995(3) 0.0380(13) Uani 1 1 d . . .
H11 H -0.0714 0.6915 -0.1222 0.046 Uiso 1 1 calc R . .
C12 C -0.0062(3) 0.7841(2) 0.0734(2) 0.0245(10) Uani 1 1 d . . .
H12 H 0.0191 0.8238 0.0897 0.029 Uiso 1 1 calc R . .
C13 C -0.2402(4) 0.9133(2) 0.0982(3) 0.0403(14) Uani 1 1 d . . .
H13 H -0.2514 0.9479 0.0724 0.048 Uiso 1 1 calc R . .
C14 C -0.1790(4) 0.8693(3) 0.0818(3) 0.0377(13) Uani 1 1 d . . .
H14 H -0.1491 0.8752 0.0464 0.045 Uiso 1 1 calc R . .
C15 C -0.1620(3) 0.8161(2) 0.1181(2) 0.0242(10) Uani 1 1 d . . .
C16 C -0.2092(4) 0.8114(2) 0.1704(2) 0.0306(11) Uani 1 1 d . . .
H16 H -0.2008 0.7768 0.1964 0.037 Uiso 1 1 calc R . .
C17 C -0.2685(4) 0.8578(2) 0.1839(3) 0.0329(12) Uani 1 1 d . . .
H17 H -0.2992 0.8533 0.2192 0.039 Uiso 1 1 calc R . .
C18 C -0.0962(3) 0.7673(2) 0.1029(2) 0.0229(10) Uani 1 1 d . . .
H18 H -0.1345 0.7366 0.0754 0.027 Uiso 1 1 calc R . .
C19 C -0.1659(4) 0.5999(2) 0.2076(3) 0.0350(12) Uani 1 1 d . . .
H19 H -0.2289 0.5849 0.1989 0.042 Uiso 1 1 calc R . .
C20 C -0.1460(4) 0.6524(2) 0.1765(3) 0.0328(12) Uani 1 1 d . . .
H20 H -0.1949 0.6715 0.1472 0.039 Uiso 1 1 calc R . .
C21 C -0.0534(3) 0.6768(2) 0.1888(2) 0.0239(10) Uani 1 1 d . . .
C22 C 0.0160(4) 0.6443(2) 0.2319(2) 0.0298(11) Uani 1 1 d . . .
H22 H 0.0795 0.6582 0.2416 0.036 Uiso 1 1 calc R . .
C23 C -0.0088(4) 0.5918(2) 0.2601(3) 0.0331(12) Uani 1 1 d . . .
H23 H 0.0395 0.5706 0.2878 0.040 Uiso 1 1 calc R . .
C24 C -0.0276(3) 0.7352(2) 0.1594(2) 0.0234(10) Uani 1 1 d . . .
H24 H -0.0067 0.7647 0.1943 0.028 Uiso 1 1 calc R . .
C25 C 0.7112(4) 0.8022(3) 0.3443(3) 0.0406(14) Uani 1 1 d . . .
H25 H 0.6665 0.8329 0.3466 0.049 Uiso 1 1 calc R . .
C26 C 0.8066(4) 0.8116(2) 0.3748(3) 0.0372(13) Uani 1 1 d . . .
H26 H 0.8253 0.8485 0.3950 0.045 Uiso 1 1 calc R . .
C27 C 0.8739(3) 0.7657(2) 0.3749(2) 0.0241(10) Uani 1 1 d . . .
C28 C 0.8413(4) 0.7124(2) 0.3427(3) 0.0318(12) Uani 1 1 d . . .
H28 H 0.8837 0.6801 0.3415 0.038 Uiso 1 1 calc R . .
C29 C 0.7451(4) 0.7076(2) 0.3122(3) 0.0329(12) Uani 1 1 d . . .
H29 H 0.7247 0.6715 0.2907 0.039 Uiso 1 1 calc R . .
C30 C 0.9779(3) 0.7756(2) 0.4070(2) 0.0229(10) Uani 1 1 d . . .
H30 H 0.9848 0.8146 0.4298 0.027 Uiso 1 1 calc R . .
C31 C 1.0107(4) 0.6920(3) 0.6245(3) 0.0337(12) Uani 1 1 d . . .
H31 H 0.9893 0.6600 0.6471 0.040 Uiso 1 1 calc R . .
C32 C 1.0102(4) 0.6849(2) 0.5589(2) 0.0308(11) Uani 1 1 d . . .
H32 H 0.9893 0.6483 0.5386 0.037 Uiso 1 1 calc R . .
C33 C 1.0398(3) 0.7308(2) 0.5233(2) 0.0241(10) Uani 1 1 d . . .
C34 C 1.0735(4) 0.7832(2) 0.5573(3) 0.0354(12) Uani 1 1 d . . .
H34 H 1.0969 0.8153 0.5359 0.043 Uiso 1 1 calc R . .
C35 C 1.0723(4) 0.7876(3) 0.6226(3) 0.0362(13) Uani 1 1 d . . .
H35 H 1.0943 0.8233 0.6442 0.043 Uiso 1 1 calc R . .
C36 C 1.0327(3) 0.7250(2) 0.4514(2) 0.0222(10) Uani 1 1 d . . .
H36 H 1.0054 0.6852 0.4370 0.027 Uiso 1 1 calc R . .
C37 C 1.2838(4) 0.6402(2) 0.3370(3) 0.0381(13) Uani 1 1 d . . .
H37 H 1.3238 0.6457 0.3069 0.046 Uiso 1 1 calc R . .
C38 C 1.2386(4) 0.6903(2) 0.3570(3) 0.0339(12) Uani 1 1 d . . .
H38 H 1.2484 0.7284 0.3403 0.041 Uiso 1 1 calc R . .
C39 C 1.1786(3) 0.6842(2) 0.4019(2) 0.0247(10) Uani 1 1 d . . .
C40 C 1.1712(4) 0.6267(2) 0.4258(3) 0.0371(13) Uani 1 1 d . . .
H40 H 1.1342 0.6202 0.4575 0.044 Uiso 1 1 calc R . .
C41 C 1.2180(5) 0.5782(3) 0.4033(3) 0.0436(15) Uani 1 1 d . . .
H41 H 1.2107 0.5398 0.4201 0.052 Uiso 1 1 calc R . .
C42 C 1.1233(3) 0.7376(2) 0.4203(2) 0.0210(10) Uani 1 1 d . . .
H42 H 1.1670 0.7668 0.4464 0.025 Uiso 1 1 calc R . .
C43 C 1.1987(4) 0.8990(2) 0.3069(3) 0.0355(12) Uani 1 1 d . . .
H43 H 1.2623 0.9130 0.3142 0.043 Uiso 1 1 calc R . .
C44 C 1.1772(3) 0.8496(2) 0.3422(2) 0.0291(11) Uani 1 1 d . . .
H44 H 1.2254 0.8317 0.3730 0.035 Uiso 1 1 calc R . .
C45 C 1.0836(3) 0.8267(2) 0.3315(2) 0.0237(10) Uani 1 1 d . . .
C46 C 1.0152(4) 0.8584(2) 0.2872(3) 0.0326(12) Uani 1 1 d . . .
H46 H 0.9508 0.8461 0.2797 0.039 Uiso 1 1 calc R . .
C47 C 1.0416(4) 0.9076(2) 0.2545(3) 0.0333(12) Uani 1 1 d . . .
H47 H 0.9940 0.9280 0.2254 0.040 Uiso 1 1 calc R . .
C48 C 1.0550(3) 0.7701(2) 0.3627(2) 0.0225(10) Uani 1 1 d . . .
H48 H 1.0324 0.7401 0.3286 0.027 Uiso 1 1 calc R . .

loop_
_atom_site_aniso_label
_atom_site_aniso_U_11
_atom_site_aniso_U_22
_atom_site_aniso_U_33
_atom_site_aniso_U_23
_atom_site_aniso_U_13
_atom_site_aniso_U_12
Cd1 0.02210(18) 0.0345(2) 0.01836(18) 0.00140(15) 0.00522(13) -0.00285(14)
Cd2 0.0336(2) 0.0243(2) 0.0400(2) -0.00551(16) 0.01468(17) 0.00102(15)
Cd3 0.0362(2) 0.0238(2) 0.0344(2) -0.00509(16) 0.01110(16) 0.00312(15)
S1 0.0253(6) 0.0292(7) 0.0418(8) -0.0025(6) 0.0059(5) 0.0011(5)
S2 0.0271(6) 0.0279(7) 0.0336(7) -0.0046(5) 0.0098(5) 0.0010(5)
S3 0.0395(7) 0.0354(7) 0.0318(7) -0.0003(6) 0.0107(6) -0.0033(6)
O1 0.054(3) 0.029(2) 0.050(3) 0.0004(19) 0.003(2) -0.0048(18)
O2 0.075(4) 0.073(4) 0.092(4) -0.012(3) 0.039(3) 0.023(3)
O3 0.062(3) 0.045(3) 0.179(7) -0.009(4) -0.060(4) -0.002(3)
O4 0.081(3) 0.058(3) 0.056(3) 0.002(2) 0.028(3) -0.024(3)
O5 0.058(3) 0.034(2) 0.049(3) -0.0024(19) 0.013(2) -0.0102(19)
O6 0.055(3) 0.044(3) 0.137(5) 0.009(3) 0.054(3) -0.003(2)
O7 0.062(3) 0.056(3) 0.164(6) 0.022(4) -0.036(4) 0.001(3)
O8 0.227(9) 0.094(5) 0.073(4) -0.041(4) 0.074(5) -0.055(5)
O9 0.087(3) 0.039(2) 0.038(2) 0.0086(19) 0.021(2) 0.003(2)
O10 0.078(3) 0.051(3) 0.040(2) -0.011(2) 0.024(2) -0.019(2)
O11 0.052(3) 0.081(4) 0.053(3) 0.007(2) 0.015(2) 0.023(2)
O12 0.046(2) 0.053(3) 0.055(3) 0.003(2) 0.007(2) -0.016(2)
O13 0.080(4) 0.065(3) 0.058(3) -0.001(3) -0.001(3) 0.009(3)
O14 0.045(2) 0.043(2) 0.058(3) 0.010(2) 0.014(2) -0.0094(19)
O15 0.037(2) 0.077(3) 0.042(3) 0.001(2) 0.0046(18) -0.003(2)
O16 0.039(2) 0.056(3) 0.040(2) 0.007(2) 0.0024(17) 0.0034(19)
O17 0.047(2) 0.069(3) 0.038(2) 0.007(2) 0.0011(18) -0.023(2)
O18 0.050(3) 0.055(3) 0.048(3) 0.004(2) 0.002(2) 0.010(2)
O19 0.132(6) 0.064(4) 0.083(4) -0.009(3) 0.037(4) 0.008(3)
O20 0.010(3) 0.062(5) 0.021(3) 0.011(3) -0.008(2) -0.028(3)
O21 0.076(6) 0.057(6) 0.023(4) 0.007(4) 0.012(4) -0.014(5)
N1 0.024(2) 0.038(3) 0.029(2) -0.0002(19) 0.0066(17) 0.0002(18)
N2 0.031(2) 0.040(3) 0.023(2) -0.0017(19) 0.0067(17) -0.0003(19)
N3 0.035(2) 0.027(2) 0.040(3) 0.001(2) 0.012(2) 0.0073(19)
N4 0.034(2) 0.028(2) 0.036(3) 0.009(2) 0.0109(19) 0.0015(19)
N5 0.022(2) 0.035(2) 0.026(2) 0.0009(19) 0.0016(16) 0.0000(18)
N6 0.029(2) 0.037(3) 0.022(2) -0.0033(19) 0.0080(17) 0.0012(18)
N7 0.040(3) 0.027(2) 0.036(3) -0.001(2) 0.012(2) 0.0051(19)
N8 0.036(2) 0.023(2) 0.040(3) 0.004(2) 0.010(2) -0.0009(18)
C1 0.028(3) 0.029(3) 0.040(3) -0.006(2) 0.004(2) -0.004(2)
C2 0.025(3) 0.030(3) 0.047(3) -0.003(2) 0.007(2) 0.002(2)
C3 0.023(2) 0.027(3) 0.022(2) 0.000(2) 0.0053(18) -0.0016(19)
C4 0.032(3) 0.031(3) 0.038(3) -0.006(2) 0.000(2) 0.004(2)
C5 0.028(3) 0.031(3) 0.052(4) -0.006(3) 0.002(2) 0.008(2)
C6 0.022(2) 0.022(2) 0.021(2) -0.0014(19) 0.0024(18) 0.0002(19)
C7 0.060(4) 0.039(3) 0.029(3) 0.004(3) 0.014(3) -0.011(3)
C8 0.053(4) 0.031(3) 0.028(3) -0.004(2) 0.012(2) -0.007(2)
C9 0.025(2) 0.029(3) 0.025(3) 0.001(2) 0.0074(19) 0.004(2)
C10 0.044(3) 0.040(3) 0.030(3) -0.003(2) 0.014(2) -0.010(3)
C11 0.043(3) 0.044(3) 0.028(3) -0.008(2) 0.010(2) -0.005(3)
C12 0.025(2) 0.026(3) 0.022(3) 0.001(2) 0.0047(19) 0.002(2)
C13 0.052(4) 0.027(3) 0.046(4) 0.013(3) 0.017(3) 0.013(3)
C14 0.045(3) 0.037(3) 0.036(3) 0.009(2) 0.022(3) 0.010(2)
C15 0.021(2) 0.026(3) 0.025(3) 0.001(2) 0.0003(18) 0.0043(19)
C16 0.036(3) 0.027(3) 0.032(3) 0.009(2) 0.014(2) 0.005(2)
C17 0.035(3) 0.034(3) 0.035(3) 0.004(2) 0.019(2) 0.0