####################################################################### 
# 
# This file contains crystal structure data downloaded from the 
# Cambridge Structural Database (CSD) hosted by the Cambridge 
# Crystallographic Data Centre (CCDC).
# 
# Full information about CCDC data access policies and citation 
# guidelines are available at http://www.ccdc.cam.ac.uk/access/V1 
# 
# Audit and citation data items may have been added by the CCDC. 
# Please retain this information to preserve the provenance of 
# this file and to allow appropriate attribution of the data. 
# 
#######################################################################

data_3-ClO4
_audit_block_doi                 10.5517/cc10llhp
_database_code_depnum_ccdc_archive 'CCDC 941392'
loop_
_citation_id
_citation_doi
_citation_year
1 10.1002/chem.201303700 2014
_audit_update_record             
;
2013-05-27 deposited with the CCDC.	2024-07-10 downloaded from the CCDC.
;

_audit_creation_method           SHELXL-97
_chemical_name_systematic        
; 
 ? 
;
_chemical_name_common            ?
_chemical_melting_point          ?
_chemical_formula_moiety         'C80 H84 Cd2 Cl4 N8 O34'
_chemical_formula_sum            'C80 H84 Cd2 Cl4 N8 O34'
_chemical_formula_weight         2068.15

loop_
_atom_type_symbol
_atom_type_description
_atom_type_scat_dispersion_real
_atom_type_scat_dispersion_imag
_atom_type_scat_source
C C 0.0033 0.0016 'International Tables Vol C Tables 4.2.6.8 and 6.1.1.4'
H H 0.0000 0.0000 'International Tables Vol C Tables 4.2.6.8 and 6.1.1.4'
N N 0.0061 0.0033 'International Tables Vol C Tables 4.2.6.8 and 6.1.1.4'
O O 0.0106 0.0060 'International Tables Vol C Tables 4.2.6.8 and 6.1.1.4'
Cd Cd -0.8075 1.2024 'International Tables Vol C Tables 4.2.6.8 and 6.1.1.4'
Cl Cl 0.1484 0.1585 'International Tables Vol C Tables 4.2.6.8 and 6.1.1.4'

_symmetry_cell_setting           triclinic
_symmetry_space_group_name_H-M   P-1

loop_
_symmetry_equiv_pos_as_xyz
'x, y, z'
'-x, -y, -z'

_cell_length_a                   16.125(17)
_cell_length_b                   18.349(19)
_cell_length_c                   20.599(19)
_cell_angle_alpha                106.353(13)
_cell_angle_beta                 92.182(7)
_cell_angle_gamma                112.908(9)
_cell_volume                     5311(9)
_cell_formula_units_Z            2
_cell_measurement_temperature    123(2)
_cell_measurement_reflns_used    15376
_cell_measurement_theta_min      2.0677
_cell_measurement_theta_max      27.7159

_exptl_crystal_description       slice
_exptl_crystal_colour            red
_exptl_crystal_size_max          0.18
_exptl_crystal_size_mid          0.12
_exptl_crystal_size_min          0.08
_exptl_crystal_density_meas      ?
_exptl_crystal_density_diffrn    1.293
_exptl_crystal_density_method    'not measured'
_exptl_crystal_F_000             2112
_exptl_absorpt_coefficient_mu    0.576
_exptl_absorpt_correction_type   Multi-scan
_exptl_absorpt_correction_T_min  0.5750
_exptl_absorpt_correction_T_max  1.0000
_exptl_absorpt_process_details   'CrystalClear (Rigaku Inc., 2008)'

_exptl_special_details           
; 
 ? 
;

_diffrn_ambient_temperature      123(2)
_diffrn_radiation_wavelength     0.71073
_diffrn_radiation_type           MoK\a
_diffrn_radiation_source         'fine-focus sealed tube'
_diffrn_radiation_monochromator  graphite
_diffrn_measurement_device_type  Saturn724+
_diffrn_measurement_method       CCD_Profile_fitting
_diffrn_detector_area_resol_mean ?
_diffrn_standards_number         ?
_diffrn_standards_interval_count ?
_diffrn_standards_interval_time  ?
_diffrn_standards_decay_%        <1.0
_diffrn_reflns_number            34483
_diffrn_reflns_av_R_equivalents  0.0437
_diffrn_reflns_av_sigmaI/netI    0.0682
_diffrn_reflns_limit_h_min       -19
_diffrn_reflns_limit_h_max       19
_diffrn_reflns_limit_k_min       -21
_diffrn_reflns_limit_k_max       21
_diffrn_reflns_limit_l_min       -24
_diffrn_reflns_limit_l_max       23
_diffrn_reflns_theta_min         2.07
_diffrn_reflns_theta_max         25.00
_reflns_number_total             18067
_reflns_number_gt                12412
_reflns_threshold_expression     >2sigma(I)

_computing_data_collection       'CrystalClear (Rigaku Inc., 2008)'
_computing_cell_refinement       'CrystalClear (Rigaku Inc., 2008)'
_computing_data_reduction        'CrystalClear (Rigaku Inc., 2008)'
_computing_structure_solution    'SHELXS-97 (Sheldrick, 1990)'
_computing_structure_refinement  'SHELXL-97 (Sheldrick, 1997)'
_computing_molecular_graphics    'DIAMOND. Version 3.0. Crystal Impact'
_computing_publication_material  SHELXTL

_refine_special_details          
; 
 Refinement of F^2^ against ALL reflections.  The weighted R-factor wR and 
 goodness of fit S are based on F^2^, conventional R-factors R are based 
 on F, with F set to zero for negative F^2^. The threshold expression of 
 F^2^ > 2sigma(F^2^) is used only for calculating R-factors(gt) etc. and is 
 not relevant to the choice of reflections for refinement.  R-factors based 
 on F^2^ are statistically about twice as large as those based on F, and R- 
 factors based on ALL data will be even larger. 
;

_refine_ls_structure_factor_coef Fsqd
_refine_ls_matrix_type           full
_refine_ls_weighting_scheme      calc
_refine_ls_weighting_details     
'calc w=1/[\s^2^(Fo^2^)+(0.1279P)^2^+0.0000P] where P=(Fo^2^+2Fc^2^)/3'
_atom_sites_solution_primary     direct
_atom_sites_solution_secondary   difmap
_atom_sites_solution_hydrogens   geom
_refine_ls_hydrogen_treatment    constr
_refine_ls_extinction_method     none
_refine_ls_extinction_coef       ?
_refine_ls_number_reflns         18067
_refine_ls_number_parameters     901
_refine_ls_number_restraints     2
_refine_ls_R_factor_all          0.0856
_refine_ls_R_factor_gt           0.0676
_refine_ls_wR_factor_ref         0.2050
_refine_ls_wR_factor_gt          0.1919
_refine_ls_goodness_of_fit_ref   0.967
_refine_ls_restrained_S_all      0.969
_refine_ls_shift/su_max          0.001
_refine_ls_shift/su_mean         0.000

loop_
_atom_site_label
_atom_site_type_symbol
_atom_site_fract_x
_atom_site_fract_y
_atom_site_fract_z
_atom_site_U_iso_or_equiv
_atom_site_adp_type
_atom_site_occupancy
_atom_site_symmetry_multiplicity
_atom_site_calc_flag
_atom_site_refinement_flags
_atom_site_disorder_assembly
_atom_site_disorder_group
Cd1 Cd 0.75818(2) 0.28256(2) 0.267827(18) 0.05499(14) Uani 1 1 d . . .
Cd2 Cd 0.00902(2) 0.28875(2) 0.886200(18) 0.05108(14) Uani 1 1 d . . .
O1 O -0.0499(2) 0.1449(2) 0.88546(19) 0.0607(9) Uani 1 1 d . . .
O1W O 0.0736(3) 0.4291(2) 0.9642(2) 0.0696(10) Uani 1 1 d . . .
O2W O 0.83131(16) 0.43027(16) 0.26589(13) 0.0345(6) Uani 1 1 d . . .
O2 O -0.0158(2) 0.2395(2) 0.9876(2) 0.0644(9) Uani 1 1 d . . .
O3 O -0.0308(3) 0.2220(3) 0.76653(19) 0.0695(10) Uani 1 1 d . . .
O4 O 0.0281(3) 0.3593(3) 0.7957(2) 0.0755(11) Uani 1 1 d . . .
O5 O 0.7332(3) 0.2052(3) 0.3522(2) 0.0679(10) Uani 1 1 d . . .
O6 O 0.7964(2) 0.3444(3) 0.39427(18) 0.0661(10) Uani 1 1 d . . .
O7 O 0.6820(2) 0.1428(2) 0.19011(18) 0.0639(9) Uani 1 1 d . . .
O8 O 0.7420(3) 0.2362(3) 0.13871(18) 0.0645(9) Uani 1 1 d . . .
N1 N -0.2384(3) -0.1288(3) 1.0855(2) 0.0544(10) Uani 1 1 d . . .
N2 N -0.8610(3) -0.2802(3) 1.1134(3) 0.0637(12) Uani 1 1 d . . .
N3 N 0.1532(3) 0.2878(2) 0.8732(2) 0.0488(9) Uani 1 1 d . . .
N4 N 0.6786(3) 0.2571(4) 0.7054(3) 0.0734(14) Uani 1 1 d . . .
N5 N 0.0663(3) 0.2579(3) 0.4379(2) 0.0677(13) Uani 1 1 d . . .
N6 N 0.6155(2) 0.2852(3) 0.2826(2) 0.0494(9) Uani 1 1 d . . .
N7 N 0.6101(3) -0.1335(3) -0.1560(2) 0.0604(11) Uani 1 1 d . . .
N8 N 1.1087(3) -0.2612(4) -0.2620(2) 0.0821(16) Uani 1 1 d . . .
C1 C -0.0448(3) 0.1649(3) 0.9503(3) 0.0502(11) Uani 1 1 d . . .
C2 C -0.0737(3) 0.0968(3) 0.9822(2) 0.0480(11) Uani 1 1 d . . .
C3 C -0.1000(3) 0.0138(3) 0.9424(3) 0.0521(12) Uani 1 1 d . . .
H3 H -0.1033 -0.0003 0.8940 0.063 Uiso 1 1 calc R . .
C4 C -0.1217(3) -0.0491(3) 0.9731(2) 0.0496(11) Uani 1 1 d . . .
H4 H -0.1391 -0.1054 0.9454 0.059 Uiso 1 1 calc R . .
C5 C -0.1179(3) -0.0303(3) 1.0425(2) 0.0515(12) Uani 1 1 d . . .
C6 C -0.0918(4) 0.0537(3) 1.0835(3) 0.0614(14) Uani 1 1 d . . .
H6 H -0.0895 0.0676 1.1317 0.074 Uiso 1 1 calc R . .
C7 C -0.0700(4) 0.1147(4) 1.0532(3) 0.0626(13) Uani 1 1 d . . .
H7 H -0.0518 0.1710 1.0812 0.075 Uiso 1 1 calc R . .
C8 C -0.1395(3) -0.0978(3) 1.0763(3) 0.0563(12) Uani 1 1 d . . .
H8A H -0.1277 -0.1448 1.0474 0.068 Uiso 1 1 calc R . .
H8B H -0.0998 -0.0749 1.1216 0.068 Uiso 1 1 calc R . .
C9 C -0.3014(3) -0.1939(4) 1.0380(3) 0.0634(14) Uani 1 1 d . . .
H9 H -0.2858 -0.2246 0.9989 0.076 Uiso 1 1 calc R . .
C10 C -0.2601(4) -0.0853(4) 1.1430(3) 0.0648(14) Uani 1 1 d . . .
H10 H -0.2128 -0.0406 1.1774 0.078 Uiso 1 1 calc R . .
C11 C -0.3492(5) -0.1059(5) 1.1512(4) 0.086(2) Uani 1 1 d . . .
H11 H -0.3630 -0.0734 1.1905 0.104 Uiso 1 1 calc R . .
C12 C -0.3944(4) -0.2162(5) 1.0479(4) 0.089(2) Uani 1 1 d . . .
H12 H -0.4409 -0.2631 1.0144 0.106 Uiso 1 1 calc R . .
C13 C -0.4192(4) -0.1724(6) 1.1041(4) 0.087(2) Uani 1 1 d D . .
C14 C -0.5165(7) -0.1796(6) 1.1212(4) 0.118(3) Uani 1 1 d D . .
H14 H -0.5256 -0.1393 1.1572 0.142 Uiso 1 1 calc R . .
C15 C -0.5759(7) -0.2400(6) 1.0843(5) 0.122(3) Uani 1 1 d D . .
H15 H -0.5665 -0.2796 1.0478 0.147 Uiso 1 1 calc R . .
C16 C -0.6758(5) -0.2494(6) 1.1022(5) 0.097(3) Uani 1 1 d D . .
C17 C -0.7477(5) -0.3196(5) 1.0604(4) 0.090(2) Uani 1 1 d . . .
H17 H -0.7364 -0.3597 1.0258 0.108 Uiso 1 1 calc R . .
C18 C -0.8352(4) -0.3320(4) 1.0683(4) 0.0765(17) Uani 1 1 d . . .
H18 H -0.8823 -0.3824 1.0388 0.092 Uiso 1 1 calc R . .
C19 C -0.7936(4) -0.2091(4) 1.1578(3) 0.0753(17) Uani 1 1 d . . .
H19 H -0.8086 -0.1709 1.1917 0.090 Uiso 1 1 calc R . .
C20 C -0.6981(4) -0.1925(5) 1.1526(4) 0.090(2) Uani 1 1 d . . .
H20 H -0.6507 -0.1432 1.1831 0.107 Uiso 1 1 calc R . .
C21 C -0.0030(4) 0.2879(4) 0.7511(3) 0.0646(15) Uani 1 1 d . . .
C22 C -0.0074(3) 0.2806(4) 0.6747(3) 0.0585(13) Uani 1 1 d . . .
C23 C 0.0178(4) 0.3532(4) 0.6559(3) 0.0644(14) Uani 1 1 d . . .
H23 H 0.0382 0.4067 0.6896 0.077 Uiso 1 1 calc R . .
C24 C 0.0118(4) 0.3442(4) 0.5861(3) 0.0666(15) Uani 1 1 d . . .
H24 H 0.0268 0.3923 0.5721 0.080 Uiso 1 1 calc R . .
C25 C -0.0154(4) 0.2667(4) 0.5372(3) 0.0643(15) Uani 1 1 d . . .
C26 C -0.0430(5) 0.1965(4) 0.5578(3) 0.088(2) Uani 1 1 d . . .
H26 H -0.0659 0.1425 0.5244 0.106 Uiso 1 1 calc R . .
C27 C -0.0374(5) 0.2047(4) 0.6275(3) 0.088(2) Uani 1 1 d . . .
H27 H -0.0548 0.1564 0.6415 0.105 Uiso 1 1 calc R . .
C28 C -0.0217(4) 0.2590(4) 0.4616(3) 0.0723(16) Uani 1 1 d . . .
H28A H -0.0306 0.3068 0.4546 0.087 Uiso 1 1 calc R . .
H28B H -0.0744 0.2069 0.4345 0.087 Uiso 1 1 calc R . .
C29 C 0.1281(4) 0.3241(4) 0.4301(3) 0.0809(18) Uani 1 1 d . . .
H29 H 0.1171 0.3729 0.4383 0.097 Uiso 1 1 calc R . .
C30 C 0.2107(4) 0.3261(4) 0.4099(3) 0.0788(17) Uani 1 1 d . . .
H30 H 0.2547 0.3756 0.4044 0.095 Uiso 1 1 calc R . .
C31 C 0.2275(3) 0.2564(4) 0.3982(3) 0.0625(14) Uani 1 1 d . . .
C32 C 0.1617(5) 0.1888(5) 0.4071(4) 0.097(2) Uani 1 1 d . . .
H32 H 0.1712 0.1394 0.4004 0.116 Uiso 1 1 calc R . .
C33 C 0.0803(5) 0.1899(5) 0.4259(4) 0.089(2) Uani 1 1 d . . .
H33 H 0.0341 0.1407 0.4300 0.106 Uiso 1 1 calc R . .
C34 C 0.3138(4) 0.2514(4) 0.3772(3) 0.0682(15) Uani 1 1 d . . .
H34 H 0.3235 0.2041 0.3789 0.082 Uiso 1 1 calc R . .
C35 C 0.3765(3) 0.3065(3) 0.3567(3) 0.0577(13) Uani 1 1 d . . .
H35 H 0.3689 0.3557 0.3581 0.069 Uiso 1 1 calc R . .
C36 C 0.4582(3) 0.2990(3) 0.3315(2) 0.0534(12) Uani 1 1 d . . .
C37 C 0.5166(4) 0.3563(4) 0.3053(3) 0.0644(14) Uani 1 1 d . . .
H37 H 0.5045 0.4023 0.3030 0.077 Uiso 1 1 calc R . .
C38 C 0.5936(3) 0.3484(4) 0.2819(3) 0.0620(13) Uani 1 1 d . . .
H38 H 0.6326 0.3900 0.2646 0.074 Uiso 1 1 calc R . .
C39 C 0.5576(3) 0.2275(3) 0.3052(3) 0.0590(13) Uani 1 1 d . . .
H39 H 0.5701 0.1809 0.3050 0.071 Uiso 1 1 calc R . .
C40 C 0.4786(3) 0.2312(3) 0.3297(3) 0.0609(13) Uani 1 1 d . . .
H40 H 0.4391 0.1877 0.3450 0.073 Uiso 1 1 calc R . .
C41 C 0.7641(3) 0.2721(4) 0.4007(3) 0.0616(14) Uani 1 1 d . . .
C42 C 0.7651(3) 0.2683(4) 0.4751(3) 0.0574(13) Uani 1 1 d . . .
C43 C 0.7453(5) 0.1922(5) 0.4854(3) 0.0845(19) Uani 1 1 d . . .
H43 H 0.7328 0.1435 0.4476 0.101 Uiso 1 1 calc R . .
C44 C 0.7438(5) 0.1877(5) 0.5498(3) 0.090(2) Uani 1 1 d . . .
H44 H 0.7301 0.1353 0.5564 0.108 Uiso 1 1 calc R . .
C45 C 0.7619(4) 0.2579(4) 0.6068(3) 0.0667(15) Uani 1 1 d . . .
C46 C 0.7823(5) 0.3325(5) 0.5961(3) 0.0812(18) Uani 1 1 d . . .
H46 H 0.7949 0.3812 0.6340 0.097 Uiso 1 1 calc R . .
C47 C 0.7849(4) 0.3381(4) 0.5295(3) 0.0771(17) Uani 1 1 d . . .
H47 H 0.8005 0.3905 0.5226 0.092 Uiso 1 1 calc R . .
C48 C 0.7656(4) 0.2546(5) 0.6793(3) 0.0784(18) Uani 1 1 d . . .
H48A H 0.8200 0.3028 0.7093 0.094 Uiso 1 1 calc R . .
H48B H 0.7702 0.2026 0.6802 0.094 Uiso 1 1 calc R . .
C49 C 0.5991(5) 0.1850(5) 0.6789(3) 0.0821(18) Uani 1 1 d . . .
H49 H 0.6008 0.1367 0.6474 0.098 Uiso 1 1 calc R . .
C50 C 0.5184(4) 0.1831(5) 0.6978(3) 0.0804(17) Uani 1 1 d . . .
H50 H 0.4636 0.1340 0.6784 0.096 Uiso 1 1 calc R . .
C51 C 0.5157(4) 0.2543(4) 0.7465(3) 0.0613(14) Uani 1 1 d . . .
C52 C 0.5982(4) 0.3247(4) 0.7732(3) 0.0710(15) Uani 1 1 d . . .
H52 H 0.5999 0.3736 0.8062 0.085 Uiso 1 1 calc R . .
C53 C 0.6789(4) 0.3225(4) 0.7506(3) 0.0749(17) Uani 1 1 d . . .
H53 H 0.7350 0.3703 0.7692 0.090 Uiso 1 1 calc R . .
C54 C 0.4265(4) 0.2497(3) 0.7648(3) 0.0604(13) Uani 1 1 d . . .
H54 H 0.3735 0.2037 0.7368 0.072 Uiso 1 1 calc R . .
C55 C 0.4137(4) 0.3039(4) 0.8167(3) 0.0650(14) Uani 1 1 d . . .
H55 H 0.4665 0.3503 0.8446 0.078 Uiso 1 1 calc R . .
C56 C 0.3239(3) 0.2983(3) 0.8351(3) 0.0553(12) Uani 1 1 d . . .
C57 C 0.3171(4) 0.3541(4) 0.8939(3) 0.0682(15) Uani 1 1 d . . .
H57 H 0.3709 0.3978 0.9230 0.082 Uiso 1 1 calc R . .
C58 C 0.2335(3) 0.3464(3) 0.9103(3) 0.0603(13) Uani 1 1 d . . .
H58 H 0.2322 0.3858 0.9511 0.072 Uiso 1 1 calc R . .
C59 C 0.1594(4) 0.2334(3) 0.8178(3) 0.0597(13) Uani 1 1 d . . .
H59 H 0.1038 0.1903 0.7906 0.072 Uiso 1 1 calc R . .
C60 C 0.2402(3) 0.2339(3) 0.7959(3) 0.0575(12) Uani 1 1 d . . .
H60 H 0.2393 0.1921 0.7559 0.069 Uiso 1 1 calc R . .
C61 C 0.6989(3) 0.1620(4) 0.1358(3) 0.0580(13) Uani 1 1 d . . .
C62 C 0.6629(3) 0.0943(3) 0.0679(2) 0.0480(11) Uani 1 1 d . . .
C63 C 0.6778(3) 0.1124(3) 0.0065(3) 0.0572(12) Uani 1 1 d . . .
H63 H 0.7141 0.1680 0.0079 0.069 Uiso 1 1 calc R . .
C64 C 0.6404(4) 0.0505(3) -0.0554(3) 0.0590(13) Uani 1 1 d . . .
H64 H 0.6513 0.0642 -0.0963 0.071 Uiso 1 1 calc R . .
C65 C 0.5872(3) -0.0313(3) -0.0602(2) 0.0502(11) Uani 1 1 d . . .
C66 C 0.5707(3) -0.0513(3) -0.0004(2) 0.0494(11) Uani 1 1 d . . .
H66 H 0.5337 -0.1072 -0.0027 0.059 Uiso 1 1 calc R . .
C67 C 0.6086(3) 0.0108(3) 0.0630(3) 0.0556(13) Uani 1 1 d . . .
H67 H 0.5977 -0.0034 0.1038 0.067 Uiso 1 1 calc R . .
C68 C 0.5446(3) -0.0985(4) -0.1291(3) 0.0612(13) Uani 1 1 d . . .
H68A H 0.4888 -0.1436 -0.1241 0.073 Uiso 1 1 calc R . .
H68B H 0.5269 -0.0746 -0.1619 0.073 Uiso 1 1 calc R . .
C69 C 0.6749(4) -0.0939(4) -0.1868(3) 0.0704(15) Uani 1 1 d . . .
H69 H 0.6757 -0.0456 -0.1958 0.084 Uiso 1 1 calc R . .
C70 C 0.7416(4) -0.1212(5) -0.2063(3) 0.083(2) Uani 1 1 d . . .
H70 H 0.7875 -0.0919 -0.2286 0.099 Uiso 1 1 calc R . .
C71 C 0.7413(4) -0.1934(5) -0.1930(3) 0.087(2) Uani 1 1 d . . .
C72 C 0.6721(4) -0.2333(5) -0.1631(3) 0.0809(19) Uani 1 1 d . . .
H72 H 0.6677 -0.2833 -0.1554 0.097 Uiso 1 1 calc R . .
C73 C 0.6073(4) -0.2029(4) -0.1435(3) 0.0713(16) Uani 1 1 d . . .
H73 H 0.5606 -0.2310 -0.1212 0.086 Uiso 1 1 calc R . .
C74 C 0.8142(5) -0.2221(6) -0.2085(4) 0.107(3) Uani 1 1 d . . .
H74 H 0.8052 -0.2737 -0.2020 0.128 Uiso 1 1 calc R . .
C75 C 0.8815(5) -0.1891(6) -0.2278(3) 0.111(3) Uani 1 1 d . . .
H75 H 0.8885 -0.1392 -0.2370 0.134 Uiso 1 1 calc R . .
C76 C 0.9613(5) -0.2161(6) -0.2406(4) 0.097(2) Uani 1 1 d . . .
C77 C 1.0309(5) -0.1732(5) -0.2641(3) 0.091(2) Uani 1 1 d . . .
H77 H 1.0320 -0.1255 -0.2743 0.110 Uiso 1 1 calc R . .
C78 C 1.1049(4) -0.1952(5) -0.2751(3) 0.0809(19) Uani 1 1 d . . .
H78 H 1.1541 -0.1618 -0.2925 0.097 Uiso 1 1 calc R . .
C79 C 1.0375(5) -0.3107(6) -0.2392(4) 0.105(3) Uani 1 1 d . . .
H79 H 1.0379 -0.3587 -0.2304 0.126 Uiso 1 1 calc R . .
C80 C 0.9601(5) -0.2887(7) -0.2283(4) 0.112(3) Uani 1 1 d . . .
H80 H 0.9090 -0.3231 -0.2131 0.134 Uiso 1 1 calc R . .

loop_
_atom_site_aniso_label
_atom_site_aniso_U_11
_atom_site_aniso_U_22
_atom_site_aniso_U_33
_atom_site_aniso_U_23
_atom_site_aniso_U_13
_atom_site_aniso_U_12
Cd1 0.0363(2) 0.0842(3) 0.0514(2) 0.0262(2) 0.01185(16) 0.02864(19)
Cd2 0.0373(2) 0.0658(2) 0.0605(2) 0.03421(19) 0.01563(17) 0.02169(17)
O1 0.051(2) 0.079(2) 0.068(2) 0.047(2) 0.0152(17) 0.0270(18)
O1W 0.060(2) 0.086(3) 0.083(3) 0.041(2) 0.029(2) 0.041(2)
O2W 0.0158(12) 0.0422(15) 0.0411(15) 0.0107(12) 0.0126(11) 0.0090(11)
O2 0.052(2) 0.071(3) 0.078(2) 0.043(2) 0.0132(19) 0.0201(18)
O3 0.059(2) 0.094(3) 0.067(2) 0.049(2) 0.0126(19) 0.028(2)
O4 0.069(3) 0.090(3) 0.060(2) 0.036(2) 0.009(2) 0.018(2)
O5 0.061(2) 0.092(3) 0.051(2) 0.021(2) 0.0038(19) 0.033(2)
O6 0.052(2) 0.101(3) 0.052(2) 0.035(2) 0.0128(17) 0.031(2)
O7 0.054(2) 0.089(3) 0.054(2) 0.0266(19) 0.0144(17) 0.0321(19)
O8 0.065(2) 0.075(3) 0.058(2) 0.0228(19) 0.0090(18) 0.033(2)
N1 0.036(2) 0.069(3) 0.071(3) 0.044(2) 0.016(2) 0.019(2)
N2 0.038(2) 0.076(3) 0.086(3) 0.046(3) 0.008(2) 0.019(2)
N3 0.040(2) 0.060(2) 0.053(2) 0.028(2) 0.0126(19) 0.0207(19)
N4 0.069(3) 0.127(5) 0.069(3) 0.061(3) 0.038(3) 0.063(3)
N5 0.048(3) 0.104(4) 0.050(2) 0.029(3) 0.017(2) 0.027(3)
N6 0.035(2) 0.066(3) 0.052(2) 0.024(2) 0.0130(18) 0.0223(18)
N7 0.044(2) 0.088(3) 0.057(3) 0.018(2) 0.007(2) 0.038(2)
N8 0.058(3) 0.141(5) 0.062(3) 0.026(3) 0.017(2) 0.061(3)
C1 0.028(2) 0.065(3) 0.063(3) 0.034(3) 0.005(2) 0.016(2)
C2 0.029(2) 0.061(3) 0.056(3) 0.029(2) 0.007(2) 0.013(2)
C3 0.031(2) 0.074(3) 0.055(3) 0.038(3) 0.009(2) 0.014(2)
C4 0.033(2) 0.055(3) 0.059(3) 0.026(2) 0.003(2) 0.0116(19)
C5 0.027(2) 0.075(3) 0.056(3) 0.035(3) 0.009(2) 0.015(2)
C6 0.064(3) 0.067(3) 0.042(3) 0.025(3) 0.008(2) 0.012(3)
C7 0.064(3) 0.070(3) 0.056(3) 0.029(3) 0.016(3) 0.024(3)
C8 0.0