####################################################################### 
# 
# This file contains crystal structure data downloaded from the 
# Cambridge Structural Database (CSD) hosted by the Cambridge 
# Crystallographic Data Centre (CCDC).
# 
# Full information about CCDC data access policies and citation 
# guidelines are available at http://www.ccdc.cam.ac.uk/access/V1 
# 
# Audit and citation data items may have been added by the CCDC. 
# Please retain this information to preserve the provenance of 
# this file and to allow appropriate attribution of the data. 
# 
#######################################################################

data_ZIF60-MER
_audit_block_doi                 10.5517/ccqj9bv
_database_code_depnum_ccdc_archive 'CCDC 671067'
loop_
_citation_id
_citation_doi
_citation_year
1 10.1126/science.1152516 2008
_audit_update_record             
;
2007-12-14 deposited with the CCDC.	2024-07-10 downloaded from the CCDC.
;

_audit_creation_method           SHELXL-97
_chemical_name_systematic        
;
?
;
_chemical_name_common            ZIF-60-MER
_chemical_melting_point          ?
_chemical_formula_moiety         '4(C13 H14 N8 Zn2),2(C4 N2 O),3(C5),C4 O2,8(C)'
_chemical_formula_sum            'C87 H56 N36 O4 Zn8'
_chemical_formula_weight         2192.80

loop_
_atom_type_symbol
_atom_type_description
_atom_type_scat_dispersion_real
_atom_type_scat_dispersion_imag
_atom_type_scat_source
C C 0.0181 0.0091 'International Tables Vol C Tables 4.2.6.8 and 6.1.1.4'
H H 0.0000 0.0000 'International Tables Vol C Tables 4.2.6.8 and 6.1.1.4'
N N 0.0311 0.0180 'International Tables Vol C Tables 4.2.6.8 and 6.1.1.4'
Zn Zn -1.5491 0.6778 'International Tables Vol C Tables 4.2.6.8 and 6.1.1.4'
O O 0.0492 0.0322 'International Tables Vol C Tables 4.2.6.8 and 6.1.1.4'

_symmetry_cell_setting           Tetragonal
_symmetry_space_group_name_H-M   I4/mmm

loop_
_symmetry_equiv_pos_as_xyz
'x, y, z'
'-x, -y, z'
'-y, x, z'
'y, -x, z'
'-x, y, -z'
'x, -y, -z'
'y, x, -z'
'-y, -x, -z'
'x+1/2, y+1/2, z+1/2'
'-x+1/2, -y+1/2, z+1/2'
'-y+1/2, x+1/2, z+1/2'
'y+1/2, -x+1/2, z+1/2'
'-x+1/2, y+1/2, -z+1/2'
'x+1/2, -y+1/2, -z+1/2'
'y+1/2, x+1/2, -z+1/2'
'-y+1/2, -x+1/2, -z+1/2'
'-x, -y, -z'
'x, y, -z'
'y, -x, -z'
'-y, x, -z'
'x, -y, z'
'-x, y, z'
'-y, -x, z'
'y, x, z'
'-x+1/2, -y+1/2, -z+1/2'
'x+1/2, y+1/2, -z+1/2'
'y+1/2, -x+1/2, -z+1/2'
'-y+1/2, x+1/2, -z+1/2'
'x+1/2, -y+1/2, z+1/2'
'-x+1/2, y+1/2, z+1/2'
'-y+1/2, -x+1/2, z+1/2'
'y+1/2, x+1/2, z+1/2'

_cell_length_a                   27.2448(3)
_cell_length_b                   27.2448(3)
_cell_length_c                   19.2254(3)
_cell_angle_alpha                90.00
_cell_angle_beta                 90.00
_cell_angle_gamma                90.00
_cell_volume                     14270.6(3)
_cell_formula_units_Z            4
_cell_measurement_temperature    258(2)
_cell_measurement_reflns_used    9659
_cell_measurement_theta_min      2.29
_cell_measurement_theta_max      59.27

_exptl_crystal_description       Prismic
_exptl_crystal_colour            colorless
_exptl_crystal_size_max          0.25
_exptl_crystal_size_mid          0.20
_exptl_crystal_size_min          0.18
_exptl_crystal_density_meas      ?
_exptl_crystal_density_diffrn    1.021
_exptl_crystal_density_method    'not measured'
_exptl_crystal_F_000             4408
_exptl_absorpt_coefficient_mu    1.839
_exptl_absorpt_correction_type   multi-scan
_exptl_absorpt_correction_T_min  0.6563
_exptl_absorpt_correction_T_max  0.7331
_exptl_absorpt_process_details   'Blessing, Acta Cryst. (1995) A51 33-58'

_exptl_special_details           
;
Due to the highly porous nature of this compound
solvent included in the pores was highly disordered
causing a high background which washed out high angle
data. Therefore diffraction was limited toa theta max 59.36.
;

_diffrn_ambient_temperature      258(2)
_diffrn_radiation_wavelength     1.54178
_diffrn_radiation_type           CuK\a
_diffrn_radiation_source         'fine-focus sealed tube'
_diffrn_radiation_monochromator  Gobelmirror
_diffrn_measurement_device_type  'CCD area detector'
_diffrn_measurement_method       'phi and omega scans'
_diffrn_detector_area_resol_mean ?
_diffrn_standards_number         ?
_diffrn_standards_interval_count ?
_diffrn_standards_interval_time  ?
_diffrn_standards_decay_%        ?
_diffrn_reflns_number            36256
_diffrn_reflns_av_R_equivalents  0.0254
_diffrn_reflns_av_sigmaI/netI    0.0122
_diffrn_reflns_limit_h_min       -30
_diffrn_reflns_limit_h_max       24
_diffrn_reflns_limit_k_min       -30
_diffrn_reflns_limit_k_max       28
_diffrn_reflns_limit_l_min       -21
_diffrn_reflns_limit_l_max       19
_diffrn_reflns_theta_min         2.29
_diffrn_reflns_theta_max         59.36
_reflns_number_total             2911
_reflns_number_gt                2404
_reflns_threshold_expression     >2sigma(I)

_computing_data_collection       'Bruker ApexII'
_computing_cell_refinement       'Bruker ApexII'
_computing_data_reduction        'Bruker SAINT'
_computing_structure_solution    'SHELXS-97 (Sheldrick, 1990)'
_computing_structure_refinement  'SHELXL-97 (Sheldrick, 1997)'
_computing_molecular_graphics    'Bruker SHELXTL'
_computing_publication_material  'Bruker SHELXTL'

_refine_special_details          
;
Refinement of F^2^ against ALL reflections. The weighted R-factor wR and
goodness of fit S are based on F^2^, conventional R-factors R are based
on F, with F set to zero for negative F^2^. The threshold expression of
F^2^ > 2sigma(F^2^) is used only for calculating R-factors(gt) etc. and is
not relevant to the choice of reflections for refinement. R-factors based
on F^2^ are statistically about twice as large as those based on F, and R-
factors based on ALL data will be even larger.
Atoms C2 and C4 were found to be disordered
and refined isotropically with each group
modeled as its own independent free variable.
All other non-hydrogen atoms were refined
anisotropically with hydrogen atoms generated
as spheres riding the coordinates of their
parent atoms.
The Methyl group C9 would be expected
to have higher displacement parameters
because it is attached to C8.
In this case C9 is probably disordered
about the symmetry axis rather than
located on the symmetry axis as seems
to be the case for C8. We have also
noticed the evidence of this fact by
the short
C8-C9 distance (1.48 A).
It is also noticeable that
the esd of the distance is
fairly high.
The Highest Ueqs are calculated for
the partial occupancy carbon atoms
and these values have a high esd.
Since each positional and displacement
parameter for H is dependent on C, The
similar high ratio must also found for
hydrogen. The disorder associated with
the framework is not due to missed
symmetry or wrong space group selection
because the majority
of atoms in the frame do not require
disorder to fit in the assigned space
group symmetry.
The attempts made to model the guests
(solvent molecules) did not lead to
identification of guest entities in
all structures due to the limited
periodicity of the solvent molecules
in the crystals. Since the solvent
is not bonded to the framework this
is can be expected for the MOF
structures. Many atomic co-ordinates
that have been attributed to solvent
molecules lie on a special position.
However very high displacement parameters ,
high esds and partial occupancy due
to the disorder
make it impossible to determine
accurate location/position for
these solvent molecules.
;

_refine_ls_structure_factor_coef Fsqd
_refine_ls_matrix_type           full
_refine_ls_weighting_scheme      calc
_refine_ls_weighting_details     
'calc w=1/[\s^2^(Fo^2^)+(0.1994P)^2^+13.5396P] where P=(Fo^2^+2Fc^2^)/3'
_atom_sites_solution_primary     direct
_atom_sites_solution_secondary   difmap
_atom_sites_solution_hydrogens   geom
_refine_ls_hydrogen_treatment    constr
_refine_ls_extinction_method     none
_refine_ls_extinction_coef       ?
_refine_ls_number_reflns         2911
_refine_ls_number_parameters     146
_refine_ls_number_restraints     0
_refine_ls_R_factor_all          0.0761
_refine_ls_R_factor_gt           0.0674
_refine_ls_wR_factor_ref         0.2605
_refine_ls_wR_factor_gt          0.2421
_refine_ls_goodness_of_fit_ref   1.059
_refine_ls_restrained_S_all      1.059
_refine_ls_shift/su_max          0.034
_refine_ls_shift/su_mean         0.002

loop_
_atom_site_label
_atom_site_type_symbol
_atom_site_fract_x
_atom_site_fract_y
_atom_site_fract_z
_atom_site_U_iso_or_equiv
_atom_site_adp_type
_atom_site_occupancy
_atom_site_symmetry_multiplicity
_atom_site_calc_flag
_atom_site_refinement_flags
_atom_site_disorder_assembly
_atom_site_disorder_group
C1 C 0.32762(15) 0.17238(15) 0.2500 0.0711(17) Uani 1 2 d S A .
H1 H 0.3035 0.1965 0.2500 0.085 Uiso 1 2 calc SR . .
C3 C 0.2680(3) 0.0000 0.1536(3) 0.0697(18) Uani 1 2 d S . .
H3 H 0.2958 0.0000 0.1255 0.084 Uiso 1 2 calc SR . .
C5 C 0.1927(2) 0.1574(2) 0.2508(3) 0.1036(19) Uani 1 1 d . A .
H5 H 0.2030 0.1395 0.2893 0.124 Uiso 1 1 calc R . .
C6 C 0.18685(17) 0.18685(17) 0.1490(3) 0.0647(16) Uani 1 2 d S A .
H6 H 0.1936 0.1936 0.1026 0.078 Uiso 1 2 calc SR . .
C7 C 0.3255(2) 0.1446(3) 0.0345(3) 0.115(2) Uani 1 1 d . . .
H7 H 0.3495 0.1586 0.0625 0.138 Uiso 1 1 calc R . .
C8 C 0.2619(2) 0.1070(2) 0.0000 0.0663(19) Uani 1 2 d S . .
C9 C 0.2134(6) 0.0810(6) 0.0000 0.168(5) Uani 1 2 d S . .
H9A H 0.2188 0.0462 0.0013 0.201 Uiso 1 2 calc SR . .
H9B H 0.1956 0.0894 -0.0414 0.201 Uiso 0.50 1 calc PR . .
H9C H 0.1949 0.0908 0.0401 0.201 Uiso 0.50 1 calc PR . .
C2A C 0.3608(5) 0.1017(6) 0.2383(9) 0.069(4) Uiso 0.49(4) 1 d P A 1
H2A H 0.3628 0.0677 0.2393 0.083 Uiso 0.49(4) 1 calc PR A 1
C2B C 0.3704(5) 0.1112(4) 0.2171(9) 0.067(4) Uiso 0.51(4) 1 d P A 2
H2B H 0.3861 0.0915 0.1846 0.080 Uiso 0.51(4) 1 calc PR A 2
C4A C 0.2164(9) 0.0278(7) 0.2275(17) 0.159(8) Uiso 0.48(3) 1 d P . 3
H4A H 0.1990 0.0487 0.2568 0.191 Uiso 0.48(3) 1 calc PR . 3
C4B C 0.2009(4) 0.0244(4) 0.1910(7) 0.078(4) Uiso 0.52(3) 1 d P . 4
H4B H 0.1742 0.0443 0.2009 0.093 Uiso 0.52(3) 1 calc PR . 4
N1 N 0.32316(13) 0.13076(13) 0.21521(19) 0.0673(10) Uani 1 1 d . . .
N2 N 0.24833(15) 0.04064(13) 0.1735(2) 0.0727(10) Uani 1 1 d . . .
N3 N 0.21044(14) 0.15277(14) 0.1850(2) 0.0710(10) Uani 1 1 d . . .
N4 N 0.28516(14) 0.12090(14) 0.0579(2) 0.0684(10) Uani 1 1 d . . .
Zn1 Zn 0.26649(2) 0.110251(19) 0.15652(3) 0.0600(4) Uani 1 1 d . A .
C1S C 0.415(3) 0.042(3) 0.060(2) 0.80(6) Uiso 1 1 d . . .
N1S N 0.3903(10) 0.0000 0.1173(15) 0.305(10) Uiso 1 2 d S . .
O1S O 0.4031(18) 0.0000 0.0000 0.40(2) Uiso 1 4 d S . .
C1T C 0.2920(12) 0.2920(12) 1.052(2) 0.37(2) Uiso 1 2 d S . .
C2T C 0.339(4) 0.339(4) 1.0000 0.68(9) Uiso 1 4 d S . .
C3T C 0.284(2) 0.336(3) 1.0000 0.42(3) Uiso 1 2 d S . .
C4T C 0.268(2) 0.386(2) 0.942(3) 0.57(3) Uiso 1 1 d . . .
C2U C 0.4472(14) 0.0000 0.2922(14) 0.373(17) Uiso 1 2 d S . .
C1U C 0.5000 0.0000 0.2500 0.215(15) Uiso 1 8 d S . .
O1X O 0.5000 0.186(2) 0.129(2) 0.329(19) Uiso 0.50 2 d SP . .
C2X C 0.460(2) 0.223(2) 0.129(3) 0.32(2) Uiso 0.50 1 d P . .

loop_
_atom_site_aniso_label
_atom_site_aniso_U_11
_atom_site_aniso_U_22
_atom_site_aniso_U_33
_atom_site_aniso_U_23
_atom_site_aniso_U_13
_atom_site_aniso_U_12
C1 0.065(2) 0.065(2) 0.083(5) -0.012(2) -0.012(2) 0.010(3)
C3 0.074(4) 0.055(4) 0.080(5) 0.000 0.010(3) 0.000
C5 0.124(4) 0.113(4) 0.074(3) 0.012(3) -0.003(3) 0.046(3)
C6 0.066(2) 0.066(2) 0.063(4) -0.0001(19) -0.0001(19) 0.011(3)
C7 0.100(4) 0.156(6) 0.089(4) 0.002(3) -0.014(3) -0.056(4)
C8 0.071(4) 0.069(4) 0.058(4) 0.000 0.000 -0.011(3)
C9 0.171(12) 0.214(15) 0.118(9) 0.000 0.000 -0.050(11)
N1 0.070(2) 0.060(2) 0.072(2) -0.0105(17) -0.0151(16) 0.0118(16)
N2 0.081(2) 0.053(2) 0.084(3) 0.0014(19) 0.012(2) 0.0023(18)
N3 0.077(2) 0.066(2) 0.070(2) -0.0005(19) 0.002(2) 0.0164(18)
N4 0.070(2) 0.069(2) 0.066(2) -0.0010(17) -0.0026(19) -0.005(2)
Zn1 0.0677(5) 0.0490(5) 0.0635(6) -0.0050(2) -0.0082(2) 0.0068(2)

_geom_special_details            
;
All esds (except the esd in the dihedral angle between two l.s. planes)
are estimated using the full covariance matrix. The cell esds are taken
into account individually in the estimation of esds in distances, angles
and torsion angles; correlations between esds in cell parameters are only
used when they are defined by crystal symmetry. An approximate (isotropic)
treatment of cell esds is used for estimating esds involving l.s. planes.
;

loop_
_geom_bond_atom_site_label_1
_geom_bond_atom_site_label_2
_geom_bond_distance
_geom_bond_site_symmetry_2
_geom_bond_publ_flag
C1 N1 1.322(5) . ?
C1 N1 1.322(5) 16 ?
C1 H1 0.9300 . ?
C3 N2 1.289(5) 21 ?
C3 N2 1.289(5) . ?
C3 H3 0.9300 . ?
C5 N3 1.360(7) . ?
C5 C5 1.360(11) 24 ?
C5 H5 0.9300 . ?
C6 N3 1.324(5) 24 ?
C6 N3 1.324(5) . ?
C6 H6 0.9300 . ?
C7 C7 1.328(11) 18 ?
C7 N4 1.351(7) . ?
C7 H7 0.9300 . ?
C8 N4 1.335(5) . ?
C8 N4 1.335(5) 18 ?
C8 C9 1.499(15) . ?
C9 H9A 0.9601 . ?
C9 H9B 0.9601 . ?
C9 H9C 0.9601 . ?
C2A N1 1.369(12) . ?
C2A C2A 1.51(3) 16 ?
C2A H2A 0.9300 . ?
C2B N1 1.394(12) . ?
C2B C2B 1.45(2) 16 ?
C2B H2B 0.9300 . ?
C4A N2 1.40(2) . ?
C4A C4A 1.52(4) 21 ?
C4A H4A 0.9300 . ?
C4B C4B 1.327(19) 21 ?
C4B N2 1.406(12) . ?
C4B H4B 0.9300 . ?
N1 Zn1 1.992(3) . ?
N2 Zn1 1.987(4) . ?
N3 Zn1 1.993(4) . ?
N4 Zn1 1.985(4) . ?
C1S O1S 1.66(7) . ?
C1S N1S 1.74(6) . ?
N1S C1S 1.74(6) 21 ?
O1S C1S 1.66(7) 6 ?
O1S C1S 1.66(7) 18 ?
O1S C1S 1.66(7) 21 ?
C1T C3T 1.57(4) . ?
C1T C3T 1.57(4) 7_557 ?
C1T C1T 1.98(9) 18_557 ?
C2T C3T 1.51(10) 7_557 ?
C2T C3T 1.51(10) . ?
C3T C1T 1.57(4) 18_557 ?
C3T C4T 1.82(5) 18_557 ?
C3T C4T 1.82(5) . ?
C3T C3T 2.02(15) 7_557 ?
C2U C1U 1.65(4) . ?
C1U C2U 1.65(4) 28_545 ?
C1U C2U 1.65(4) 27 ?
C1U C2U 1.65(4) 2_655 ?
O1X C2X 1.47(5) . ?
O1X C2X 1.47(5) 22_655 ?

loop_
_geom_angle_atom_site_label_1
_geom_angle_atom_site_label_2
_geom_angle_atom_site_label_3
_geom_angle
_geom_angle_site_symmetry_1
_geom_angle_site_symmetry_3
_geom_angle_publ_flag


N1 C1 N1 114.4(5) . 16 ?
N1 C1 H1 122.8 . . ?
N1 C1 H1 122.8 16 . ?
N2 C3 N2 118.4(6) 21 . ?
N2 C3 H3 120.8 21 . ?
N2 C3 H3 120.8 . . ?
N3 C5 C5 108.5(3) . 24 ?
N3 C5 H5 125.8 . . ?
C5 C5 H5 125.8 24 . ?
N3 C6 N3 114.1(6) 24 . ?
N3 C6 H6 122.9 24 . ?
N3 C6 H6 122.9 . . ?
C7 C7 N4 109.4(3) 18 . ?
C7 C7 H7 125.3 18 . ?
N4 C7 H7 125.3 . . ?
N4 C8 N4 113.0(6) . 18 ?
N4 C8 C9 123.5(3) . . ?
N4 C8 C9 123.5(3) 18 . ?
C8 C9 H9A 109.5 . . ?
C8 C9 H9B 109.5 . . ?
H9A C9 H9B 109.5 . . ?
C8 C9 H9C 109.5 . . ?
H9A C9 H9C 109.5 . . ?
H9B C9 H9C 109.5 . . ?
N1 C2A C2A 102.2(10) . 16 ?
N1 C2A H2A 128.9 . . ?
C2A C2A H2A 128.9 16 . ?
N1 C2B C2B 102.1(10) . 16 ?
N1 C2B H2B 128.9 . . ?
C2B C2B H2B 128.9 16 . ?
N2 C4A C4A 104.5(8) . 21 ?
N2 C4A H4A 127.8 . . ?
C4A C4A H4A 127.8 21 . ?
C4B C4B N2 108.4(4) 21 . ?
C4B C4B H4B 125.8 21 . ?
N2 C4B H4B 125.8 . . ?
C1 N1 C2A 105.2(6) . . ?
C1 N1 C2B 103.2(5) . . ?
C1 N1 Zn1 126.8(3) . . ?
C2A N1 Zn1 127.0(6) . . ?
C2B N1 Zn1 128.6(5) . . ?
C3 N2 C4A 105.4(8) . . ?
C3 N2 C4B 100.5(5) . . ?
C3 N2 Zn1 131.9(4) . . ?
C4A N2 Zn1 121.0(9) . . ?
C4B N2 Zn1 124.7(5) . . ?
C6 N3 C5 104.3(4) . . ?
C6 N3 Zn1 129.5(3) . . ?
C5 N3 Zn1 125.5(3) . . ?
C8 N4 C7 104.1(4) . . ?
C8 N4 Zn1 129.3(4) . . ?
C7 N4 Zn1 126.6(3) . . ?
N4 Zn1 N2 111.13(17) . . ?
N4 Zn1 N1 107.55(16) . . ?
N2 Zn1 N1 111.57(17) . . ?
N4 Zn1 N3 111.93(16) . . ?
N2 Zn1 N3 108.59(17) . . ?
N1 Zn1 N3 105.97(15) . . ?
O1S C1S N1S 84(4) . . ?
C1S N1S C1S 83(4) . 21 ?
C1S O1S C1S 157(6) . 6 ?
C1S O1S C1S 88(4) . 18 ?
C1S O1S C1S 88(4) 6 18 ?
C1S O1S C1S 88(4) . 21 ?
C1S O1S C1S 88(4) 6 21 ?
C1S O1S C1S 157(6) 18 21 ?
C3T C1T C3T 80(6) . 7_557 ?
C3T C1T C1T 51(3) . 18_557 ?
C3T C1T C1T 51(3) 7_557 18_557 ?
C3T C2T C3T 84(10) 7_557 . ?
C2T C3T C1T 84(6) . 18_557 ?
C2T C3T C1T 84(6) . . ?
C1T C3T C1T 78(5) 18_557 . ?
C2T C3T C4T 102(5) . 18_557 ?
C1T C3T C4T 174(6) 18_557 18_557 ?
C1T C3T C4T 102.8(19) . 18_557 ?
C2T C3T C4T 102(5) . . ?
C1T C3T C4T 102.8(19) 18_557 . ?
C1T C3T C4T 174(6) . . ?
C4T C3T C4T 76(4) 18_557 . ?
C2T C3T C3T 48(5) . 7_557 ?
C1T C3T C3T 50(3) 18_557 7_557 ?
C1T C3T C3T 50(3) . 7_557 ?
C4T C3T C3T 135(3) 18_557 7_557 ?
C4T C3T C3T 135(3) . 7_557 ?
C2U C1U C2U 104.0(10) 28_545 . ?
C2U C1U C2U 121(2) 28_545 27 ?
C2U C1U C2U 104.0(10) . 27 ?
C2U C1U C2U 104.0(10) 28_545 2_655 ?
C2U C1U C2U 121(2) . 2_655 ?
C2U C1U C2U 104.0(10) 27 2_655 ?
C2X O1X C2X 96(6) . 22_655 ?

loop_
_geom_torsion_atom_site_label_1
_geom_torsion_atom_site_label_2
_geom_torsion_atom_site_label_3
_geom_torsion_atom_site_label_4
_geom_torsion
_geom_torsion_site_symmetry_1
_geom_torsion_site_symmetry_2
_geom_torsion_site_symmetry_3
_geom_torsion_site_symmetry_4
_geom_torsion_publ_flag

N1 C1 N1 C2A 11.1(10) 16 . . . ?
N1 C1 N1 C2B -12.4(9) 16 . . . ?
N1 C1 N1 Zn1 -179.8(4) 16 . . . ?
C2A C2A N1 C1 -26(2) 16 . . . ?
C2A C2A N1 C2B 62(3) 16 . . . ?
C2A C2A N1 Zn1 164.9(11) 16 . . . ?
C2B C2B N1 C1 30.8(19) 16 . . . ?
C2B C2B N1 C2A -67(3) 16 . . . ?
C2B C2B N1 Zn1 -162.2(11) 16 . . . ?
N2 C3 N2 C4A 14.6(16) 21 . . . ?
N2 C3 N2 C4B -20.2(10) 21 . . . ?
N2 C3 N2 Zn1 179.2(2) 21 . . . ?
C4A C4A N2 C3 -7.6(8) 21 . . . ?
C4A C4A N2 C4B 78.5(15) 21 . . . ?
C4A C4A N2 Zn1 -174.3(5) 21 . . . ?
C4B C4B N2 C3 10.7(5) 21 . . . ?
C4B C4B N2 C4A -91.2