####################################################################### 
# 
# This file contains crystal structure data downloaded from the 
# Cambridge Structural Database (CSD) hosted by the Cambridge 
# Crystallographic Data Centre (CCDC).
# 
# Full information about CCDC data access policies and citation 
# guidelines are available at http://www.ccdc.cam.ac.uk/access/V1 
# 
# Audit and citation data items may have been added by the CCDC. 
# Please retain this information to preserve the provenance of 
# this file and to allow appropriate attribution of the data. 
# 
#######################################################################

data_compound10
_audit_block_doi                 10.5517/cc11b6h2
_database_code_depnum_ccdc_archive 'CCDC 963123'
loop_
_citation_id
_citation_doi
_citation_year
1 10.1002/chem.201304319 2014
_audit_update_record             
;
2013-11-05 deposited with the CCDC.	2024-07-10 downloaded from the CCDC.
;

_audit_creation_method           SHELXL-97
_chemical_name_systematic        
;
 ?
;
_chemical_name_common            ?
_chemical_melting_point          ?
_chemical_formula_moiety         'C32 H14 Ag N6 Zn, F6 Sb'
_chemical_formula_sum            'C64 H36 Ag2 F12 N12 Sb2 Zn2'
_chemical_formula_weight         1791.03

loop_
_atom_type_symbol
_atom_type_description
_atom_type_scat_dispersion_real
_atom_type_scat_dispersion_imag
_atom_type_scat_source
C C 0.0033 0.0016 'International Tables Vol C Tables 4.2.6.8 and 6.1.1.4'
H H 0.0000 0.0000 'International Tables Vol C Tables 4.2.6.8 and 6.1.1.4'
N N 0.0061 0.0033 'International Tables Vol C Tables 4.2.6.8 and 6.1.1.4'
F F 0.0171 0.0103 'International Tables Vol C Tables 4.2.6.8 and 6.1.1.4'
Zn Zn 0.2839 1.4301 'International Tables Vol C Tables 4.2.6.8 and 6.1.1.4'
Ag Ag -0.8971 1.1015 'International Tables Vol C Tables 4.2.6.8 and 6.1.1.4'
Sb Sb -0.5866 1.5461 'International Tables Vol C Tables 4.2.6.8 and 6.1.1.4'

_symmetry_cell_setting           Monoclinic
_symmetry_space_group_name_H-M   'C2/c  '

loop_
_symmetry_equiv_pos_as_xyz
'x, y, z'
'-x, y, -z+1/2'
'x+1/2, y+1/2, z'
'-x+1/2, y+1/2, -z+1/2'
'-x, -y, -z'
'x, -y, z-1/2'
'-x+1/2, -y+1/2, -z'
'x+1/2, -y+1/2, z-1/2'

_cell_length_a                   34.607(2)
_cell_length_b                   12.8631(8)
_cell_length_c                   23.8751(14)
_cell_angle_alpha                90.00
_cell_angle_beta                 114.026(2)
_cell_angle_gamma                90.00
_cell_volume                     9707.3(11)
_cell_formula_units_Z            4
_cell_measurement_temperature    173(2)
_cell_measurement_reflns_used    9946
_cell_measurement_theta_min      2.33
_cell_measurement_theta_max      27.92

_exptl_crystal_description       rod
_exptl_crystal_colour            black-purple
_exptl_crystal_size_max          0.10
_exptl_crystal_size_mid          0.10
_exptl_crystal_size_min          0.04
_exptl_crystal_density_meas      'not measured'
_exptl_crystal_density_diffrn    1.226
_exptl_crystal_density_method    'not measured'
_exptl_crystal_F_000             3472
_exptl_absorpt_coefficient_mu    1.487
_exptl_absorpt_correction_type   multi-scan
_exptl_absorpt_correction_T_min  0.8655
_exptl_absorpt_correction_T_max  0.9429
_exptl_absorpt_process_details   sadabs

_exptl_special_details           
;
Owing to solvent disorder, the SQUEEZE command was applied
;

_diffrn_ambient_temperature      173(2)
_diffrn_radiation_wavelength     0.71073
_diffrn_radiation_type           MoK\a
_diffrn_radiation_source         'fine-focus sealed tube'
_diffrn_radiation_monochromator  graphite
_diffrn_measurement_device_type  'Bruker APEX-II CCD'
_diffrn_measurement_method       '\f and \w scans'
_diffrn_detector_area_resol_mean ?
_diffrn_standards_number         ?
_diffrn_standards_interval_count ?
_diffrn_standards_interval_time  ?
_diffrn_standards_decay_%        ?
_diffrn_reflns_number            61591
_diffrn_reflns_av_R_equivalents  0.0595
_diffrn_reflns_av_sigmaI/netI    0.0834
_diffrn_reflns_limit_h_min       -48
_diffrn_reflns_limit_h_max       48
_diffrn_reflns_limit_k_min       -17
_diffrn_reflns_limit_k_max       18
_diffrn_reflns_limit_l_min       -33
_diffrn_reflns_limit_l_max       25
_diffrn_reflns_theta_min         1.79
_diffrn_reflns_theta_max         30.17
_reflns_number_total             14099
_reflns_number_gt                6482
_reflns_threshold_expression     >2sigma(I)

_computing_data_collection       'Bruker APEX2'
_computing_cell_refinement       'Bruker SAINT'
_computing_data_reduction        'Bruker SAINT'

_computing_structure_solution    'SHELXS-97 (Sheldrick, 2008)'
_computing_structure_refinement  'SHELXL-97 (Sheldrick, 2008)'
_computing_molecular_graphics    'Bruker SHELXTL'
_computing_publication_material  'Bruker SHELXTL'

_refine_special_details          
;
 Refinement of F^2^ against ALL reflections.  The weighted R-factor wR and
 goodness of fit S are based on F^2^, conventional R-factors R are based
 on F, with F set to zero for negative F^2^. The threshold expression of
 F^2^ > 2sigma(F^2^) is used only for calculating R-factors(gt) etc. and is
 not relevant to the choice of reflections for refinement.  R-factors based
 on F^2^ are statistically about twice as large as those based on F, and R-
 factors based on ALL data will be even larger.
;

_refine_ls_structure_factor_coef Fsqd
_refine_ls_matrix_type           full
_refine_ls_weighting_scheme      calc
_refine_ls_weighting_details     
'calc w=1/[\s^2^(Fo^2^)+(0.1648P)^2^+0.0000P] where P=(Fo^2^+2Fc^2^)/3'
_atom_sites_solution_primary     direct
_atom_sites_solution_secondary   difmap
_atom_sites_solution_hydrogens   geom
_refine_ls_hydrogen_treatment    constr
_refine_ls_extinction_method     none
_refine_ls_extinction_coef       ?
_refine_ls_number_reflns         14099
_refine_ls_number_parameters     425
_refine_ls_number_restraints     0
_refine_ls_R_factor_all          0.1369
_refine_ls_R_factor_gt           0.0847
_refine_ls_wR_factor_ref         0.2671
_refine_ls_wR_factor_gt          0.2463
_refine_ls_goodness_of_fit_ref   0.917
_refine_ls_restrained_S_all      0.917
_refine_ls_shift/su_max          0.001
_refine_ls_shift/su_mean         0.000

loop_
_atom_site_label
_atom_site_type_symbol
_atom_site_fract_x
_atom_site_fract_y
_atom_site_fract_z
_atom_site_U_iso_or_equiv
_atom_site_adp_type
_atom_site_occupancy
_atom_site_symmetry_multiplicity
_atom_site_calc_flag
_atom_site_refinement_flags
_atom_site_disorder_assembly
_atom_site_disorder_group
C1 C 0.0816(2) 0.9505(6) 0.7797(3) 0.0509(16) Uani 1 1 d . . .
H1 H 0.0752 0.9335 0.7390 0.061 Uiso 1 1 calc R . .
C2 C 0.1210(2) 0.9332(6) 0.8303(3) 0.065(2) Uani 1 1 d . . .
H2 H 0.1451 0.9046 0.8284 0.078 Uiso 1 1 calc R . .
C3 C 0.11704(19) 0.9650(5) 0.8803(3) 0.0492(15) Uani 1 1 d . . .
H3 H 0.1379 0.9616 0.9200 0.059 Uiso 1 1 calc R . .
C4 C 0.07639(18) 1.0046(4) 0.8635(2) 0.0391(13) Uani 1 1 d . . .
C5 C 0.05852(18) 1.0488(4) 0.9026(2) 0.0371(12) Uani 1 1 d . . .
C6 C 0.01967(16) 1.0964(5) 0.8837(2) 0.0379(13) Uani 1 1 d . . .
C7 C -0.0036(2) 1.1232(5) 0.9209(3) 0.0467(15) Uani 1 1 d . . .
H7 H 0.0052 1.1104 0.9626 0.056 Uiso 1 1 calc R . .
C8 C -0.04018(18) 1.1699(5) 0.8840(3) 0.0454(15) Uani 1 1 d . . .
H8 H -0.0610 1.1952 0.8957 0.054 Uiso 1 1 calc R . .
C9 C -0.04086(17) 1.1731(5) 0.8245(3) 0.0414(13) Uani 1 1 d . . .
C10 C 0.08299(18) 1.0326(5) 0.9698(2) 0.0423(14) Uani 1 1 d . . .
C11 C 0.0949(2) 0.9342(6) 0.9934(3) 0.0513(16) Uani 1 1 d . . .
C12 C 0.1143(2) 0.9239(6) 1.0566(3) 0.0533(17) Uani 1 1 d . . .
C13 C 0.12304(19) 1.0055(5) 1.0955(3) 0.0483(16) Uani 1 1 d . . .
C14 C 0.1126(2) 1.1076(6) 1.0716(3) 0.0606(19) Uani 1 1 d . . .
C15 C 0.0908(2) 1.1189(6) 1.0078(3) 0.0497(15) Uani 1 1 d . . .
C16 C 0.1409(2) 0.9900(8) 1.1610(3) 0.072(2) Uani 1 1 d . . .
C17 C -0.07196(16) 1.2207(5) 0.7689(2) 0.0372(12) Uani 1 1 d . . .
C18 C -0.11480(17) 1.2405(5) 0.7516(2) 0.0445(14) Uani 1 1 d . . .
H18 H -0.1305 1.2255 0.7742 0.053 Uiso 1 1 calc R . .
C19 C -0.12945(16) 1.2863(5) 0.6948(2) 0.0428(14) Uani 1 1 d . . .
H19 H -0.1571 1.3074 0.6713 0.051 Uiso 1 1 calc R . .
C20 C -0.09372(16) 1.2953(6) 0.6788(2) 0.0459(15) Uani 1 1 d . . .
C21 C -0.09165(18) 1.3375(4) 0.6261(2) 0.0383(13) Uani 1 1 d . . .
C22 C -0.05728(17) 1.3732(5) 0.6199(3) 0.0420(13) Uani 1 1 d . . .
C23 C -0.05252(19) 1.4065(5) 0.5655(3) 0.0470(15) Uani 1 1 d . . .
H23 H -0.0746 1.4125 0.5269 0.056 Uiso 1 1 calc R . .
C24 C -0.0103(2) 1.4286(6) 0.5784(4) 0.069(2) Uani 1 1 d . . .
H24 H 0.0017 1.4467 0.5513 0.083 Uiso 1 1 calc R . .
C25 C 0.0103(2) 1.4168(5) 0.6438(3) 0.0466(14) Uani 1 1 d . . .
H25 H 0.0386 1.4323 0.6669 0.056 Uiso 1 1 calc R . .
C26 C -0.13373(16) 1.3520(5) 0.5736(2) 0.0436(14) Uani 1 1 d . . .
C27 C -0.15892(18) 1.2635(6) 0.5484(3) 0.0503(16) Uani 1 1 d . . .
H27 H -0.1491 1.1980 0.5644 0.060 Uiso 1 1 calc R . .
C28 C -0.19911(19) 1.2739(6) 0.4988(2) 0.0518(16) Uani 1 1 d . . .
H28 H -0.2169 1.2170 0.4839 0.062 Uiso 1 1 calc R . .
C29 C -0.21046(18) 1.3684(6) 0.4744(3) 0.0528(17) Uani 1 1 d . . .
C30 C -0.1868(2) 1.4589(7) 0.4960(3) 0.072(2) Uani 1 1 d . . .
H30 H -0.1962 1.5235 0.4782 0.087 Uiso 1 1 calc R . .
C31 C -0.1473(2) 1.4454(6) 0.5472(3) 0.0570(18) Uani 1 1 d . . .
H31 H -0.1302 1.5033 0.5631 0.068 Uiso 1 1 calc R . .
C32 C -0.2518(2) 1.3826(7) 0.4224(3) 0.0592(19) Uani 1 1 d . . .
N1 N 0.05512(16) 0.9961(4) 0.8011(2) 0.0461(12) Uani 1 1 d . . .
N2 N -0.00574(13) 1.1249(4) 0.82387(17) 0.0365(10) Uani 1 1 d . . .
N3 N 0.1544(2) 0.9804(6) 1.2122(2) 0.0710(19) Uani 1 1 d . . .
N4 N -0.05756(13) 1.2547(4) 0.72681(19) 0.0392(11) Uani 1 1 d . . .
N5 N -0.01623(15) 1.3805(4) 0.6675(2) 0.0443(12) Uani 1 1 d . . .
N6 N -0.28428(19) 1.3961(7) 0.3848(3) 0.083(2) Uani 1 1 d . . .
Zn1 Zn 0.0000 1.06686(8) 0.7500 0.0411(3) Uani 1 2 d S . .
Zn2 Zn 0.0000 1.31425(8) 0.7500 0.0402(2) Uani 1 2 d S . .
Ag1 Ag 0.152998(15) 1.08615(5) 0.80434(2) 0.0600(2) Uani 1 1 d . . .
F1 F 0.1549(2) 0.2777(5) 0.6497(3) 0.1047(18) Uani 1 1 d . . .
F2 F 0.0902(2) 0.3924(8) 0.6107(4) 0.152(3) Uani 1 1 d . . .
F3 F 0.13466(19) 0.3665(5) 0.5423(3) 0.1045(19) Uani 1 1 d . . .
F4 F 0.13058(19) 0.5543(5) 0.5978(6) 0.209(6) Uani 1 1 d . . .
F5 F 0.19896(17) 0.4407(5) 0.6292(3) 0.1044(19) Uani 1 1 d . . .
F6 F 0.1544(3) 0.4636(5) 0.6987(3) 0.126(2) Uani 1 1 d . . .
Sb1 Sb 0.144473(19) 0.41537(5) 0.61960(3) 0.0736(2) Uani 1 1 d . . .

loop_
_atom_site_aniso_label
_atom_site_aniso_U_11
_atom_site_aniso_U_22
_atom_site_aniso_U_33
_atom_site_aniso_U_23
_atom_site_aniso_U_13
_atom_site_aniso_U_12
C1 0.056(4) 0.066(4) 0.027(3) 0.002(3) 0.013(3) 0.008(3)
C2 0.043(4) 0.087(5) 0.049(4) 0.006(4) 0.004(3) 0.022(4)
C3 0.030(3) 0.067(4) 0.035(3) -0.006(3) -0.002(2) -0.002(3)
C4 0.039(3) 0.048(3) 0.024(2) 0.008(2) 0.006(2) -0.002(3)
C5 0.035(3) 0.039(3) 0.028(3) 0.004(2) 0.004(2) -0.001(2)
C6 0.024(2) 0.072(4) 0.011(2) 0.006(2) 0.0004(18) 0.005(2)
C7 0.048(4) 0.065(4) 0.022(3) 0.000(3) 0.010(2) -0.010(3)
C8 0.033(3) 0.072(4) 0.027(3) -0.008(3) 0.008(2) -0.012(3)
C9 0.028(3) 0.058(4) 0.031(3) 0.013(3) 0.004(2) -0.003(3)
C10 0.034(3) 0.069(4) 0.016(2) 0.008(2) 0.001(2) -0.005(3)
C11 0.037(3) 0.089(5) 0.024(3) 0.004(3) 0.008(2) 0.007(3)
C12 0.037(3) 0.088(5) 0.026(3) 0.008(3) 0.003(2) -0.005(3)
C13 0.033(3) 0.071(4) 0.038(3) 0.023(3) 0.010(2) 0.018(3)
C14 0.060(4) 0.094(6) 0.019(3) 0.002(3) 0.008(3) -0.014(4)
C15 0.046(4) 0.074(4) 0.024(3) 0.003(3) 0.009(2) -0.004(3)
C16 0.040(4) 0.129(7) 0.031(3) 0.018(4) -0.003(3) -0.006(4)
C17 0.026(3) 0.062(4) 0.014(2) 0.001(2) -0.0028(18) -0.005(2)
C18 0.028(3) 0.079(4) 0.023(2) 0.008(3) 0.007(2) 0.012(3)
C19 0.020(2) 0.065(4) 0.024(2) 0.006(2) -0.0115(19) 0.008(2)
C20 0.018(2) 0.088(5) 0.019(2) 0.001(3) -0.0052(18) -0.002(3)
C21 0.038(3) 0.046(3) 0.025(2) 0.005(2) 0.006(2) 0.010(2)
C22 0.025(3) 0.059(4) 0.031(3) -0.001(3) 0.000(2) 0.000(3)
C23 0.034(3) 0.057(4) 0.036(3) 0.007(3) 0.000(2) -0.004(3)
C24 0.044(4) 0.088(6) 0.061(5) 0.032(4) 0.007(3) 0.004(4)
C25 0.032(3) 0.059(4) 0.042(3) 0.001(3) 0.009(3) -0.003(3)
C26 0.019(2) 0.079(4) 0.023(2) 0.007(3) -0.0015(19) -0.003(3)
C27 0.029(3) 0.081(5) 0.041(3) -0.004(3) 0.013(2) -0.013(3)
C28 0.034(3) 0.086(5) 0.021(3) 0.006(3) -0.004(2) -0.008(3)
C29 0.025(3) 0.086(5) 0.028(3) 0.015(3) -0.010(2) 0.002(3)
C30 0.031(3) 0.116(6) 0.048(4) 0.049(4) -0.007(3) 0.010(4)
C31 0.036(3) 0.059(4) 0.047(4) -0.001(3) -0.013(3) -0.002(3)
C32 0.037(3) 0.099(6) 0.030(3) 0.021(3) 0.001(2) 0.006(3)
N1 0.041(3) 0.067(3) 0.021(2) -0.001(2) 0.0027(19) -0.001(2)
N2 0.022(2) 0.065(3) 0.0118(17) 0.0046(19) -0.0040(15) -0.004(2)
N3 0.062(4) 0.120(6) 0.021(3) 0.018(3) 0.007(2) 0.009(4)
N4 0.019(2) 0.064(3) 0.022(2) 0.009(2) -0.0039(16) -0.004(2)
N5 0.027(2) 0.065(3) 0.025(2) 0.003(2) -0.0052(18) 0.004(2)
N6 0.038(3) 0.148(7) 0.033(3) 0.024(4) -0.017(2) -0.016(4)
Zn1 0.0298(5) 0.0700(7) 0.0150(4) 0.000 0.0005(3) 0.000
Zn2 0.0208(4) 0.0668(6) 0.0210(4) 0.000 -0.0039(3) 0.000
Ag1 0.0316(3) 0.1112(5) 0.0229(2) -0.0112(2) -0.00356(17) 0.0043(3)
F1 0.129(5) 0.119(4) 0.087(4) 0.003(3) 0.066(4) -0.009(4)
F2 0.084(5) 0.259(10) 0.123(6) -0.004(6) 0.051(4) -0.050(5)
F3 0.089(4) 0.146(5) 0.072(3) -0.026(3) 0.026(3) -0.048(4)
F4 0.042(3) 0.097(4) 0.418(17) 0.077(7) 0.020(6) 0.017(3)
F5 0.069(3) 0.151(5) 0.079(4) 0.026(3) 0.016(3) -0.024(3)
F6 0.209(8) 0.115(4) 0.068(4) -0.003(3) 0.069(5) 0.017(5)
Sb1 0.0610(4) 0.1000(5) 0.0574(3) 0.0027(3) 0.0215(3) -0.0092(3)

_geom_special_details            
;
 All esds (except the esd in the dihedral angle between two l.s. planes)
 are estimated using the full covariance matrix.  The cell esds are taken
 into account individually in the estimation of esds in distances, angles
 and torsion angles; correlations between esds in cell parameters are only
 used when they are defined by crystal symmetry.  An approximate (isotropic)
 treatment of cell esds is used for estimating esds involving l.s. planes.
;

loop_
_geom_bond_atom_site_label_1
_geom_bond_atom_site_label_2
_geom_bond_distance
_geom_bond_site_symmetry_2
_geom_bond_publ_flag
C1 N1 1.352(8) . ?
C1 C2 1.423(9) . ?
C1 H1 0.9300 . ?
C2 C3 1.322(10) . ?
C2 Ag1 2.458(9) . ?
C2 H2 0.9300 . ?
C3 C4 1.393(8) . ?
C3 H3 0.9300 . ?
C4 N1 1.371(7) . ?
C4 C5 1.431(8) . ?
C5 C6 1.375(8) . ?
C5 C10 1.491(7) . ?
C6 N2 1.388(6) . ?
C6 C7 1.462(8) . ?
C7 C8 1.353(9) . ?
C7 H7 0.9300 . ?
C8 C9 1.414(8) . ?
C8 H8 0.9300 . ?
C9 N2 1.370(7) . ?
C9 C17 1.459(7) . ?
C10 C11 1.379(10) . ?
C10 C15 1.390(9) . ?
C11 C12 1.386(8) . ?
C12 C13 1.352(10) . ?
C13 C14 1.420(10) . ?
C13 C16 1.442(9) . ?
C14 C15 1.404(9) . ?
C16 N3 1.124(8) . ?
C17 N4 1.363(7) . ?
C17 C18 1.391(7) . ?
C18 C19 1.372(8) . ?
C18 Ag1 2.457(7) 2_556 ?
C18 H18 0.9300 . ?
C19 C20 1.440(8) . ?
C19 Ag1 2.703(6) 2_556 ?
C19 H19 0.9300 . ?
C20 C21 1.399(8) . ?
C20 N4 1.409(7) . ?
C21 C22 1.338(8) . ?
C21 C26 1.496(7) . ?
C22 N5 1.416(7) . ?
C22 C23 1.440(9) . ?
C23 C24 1.395(10) . ?
C23 H23 0.9300 . ?
C24 C25 1.435(10) . ?
C24 H24 0.9300 . ?
C25 N5 1.345(8) . ?
C25 H25 0.9300 . ?
C26 C31 1.349(9) . ?
C26 C27 1.410(9) . ?
C27 C28 1.419(8) . ?
C27 H27 0.9300 . ?
C28 C29 1.336(10) . ?
C28 H28 0.9300 . ?
C29 C30 1.394(12) . ?
C29 C32 1.474(8) . ?
C30 C31 1.427(8) . ?
C30 H30 0.9300 . ?
C31 H31 0.9300 . ?
C32 N6 1.131(8) . ?
N1 Zn1 2.015(5) . ?
N2 Zn1 1.998(4) . ?
N3 Ag1 2.378(5) 6_576 ?
N4 Zn2 1.991(4) . ?
N5 Zn2 2.005(5) . ?
N6 Ag1 2.250(5) 8_475 ?
Zn1 N2 1.998(4) 2_556 ?
Zn1 N1 2.015(5) 2_556 ?
Zn2 N4 1.991(4) 2_556 ?
Zn2 N5 2.005(5) 2_556 ?
Ag1 N6 2.250(5) 8_576 ?
Ag1 N3 2.378(5) 6_575 ?
Ag1 C18 2.457(7) 2_556 ?
Ag1 C19 2.703(6) 2_556 ?
F1 Sb1 1.890(6) . ?
F2 Sb1 1.826(7) . ?
F3 Sb1 1.846(5) . ?
F4 Sb1 1.868(6) . ?
F5 Sb1 1.834(5) . ?
F6 Sb1 1.881(5) . ?

loop_
_geom_angle_atom_site_label_1
_geom_angle_atom_site_label_2
_geom_angle_atom_site_label_3
_geom_angle
_geom_angle_site_symmetry_1
_geom_angle_site_symmetry_3
_geom_angle_publ_flag
N1 C1 C2 107.9(5) . . ?
N1 C1 H1 126.0 . . ?
C2 C1 H1 126.0 . . ?
C3 C2 C1 107.7(6) . . ?
C3 C2 Ag1 101.7(5) . . ?
C1 C2 Ag1 92.0(5) . . ?
C3 C2 H2 126.2 . . ?
C1 C2 H2 126.2 . . ?
Ag1 C2 H2 78.4 . . ?
C2 C3 C4 108.4(6) . . ?
C2 C3 H3 125.8 . . ?
C4 C3 H3 125.8 . . ?
N1 C4 C3 108.4(5) . . ?
N1 C4 C5 123.9(5) . . ?
C3 C4 C5 127.7(5) . . ?
C6 C5 C4 125.9(5) . . ?
C6 C5 C10 117.8(5) . . ?
C4 C5 C10 116.0(5) . . ?
C5 C6 N2 125.5(5) . . ?
C5 C6 C7 127.7(5) . . ?
N2 C6 C7 106.7(5) . . ?
C8 C7 C6 108.1(5) . . ?
C8 C7 H7 126.0 . . ?
C6 C7 H7 126.0 . . ?
C7 C8 C9 107.2(5) . . ?
C7 C8 H8 126.4 . . ?
C9 C8 H8 126.4 . . ?
N2 C9 C8 110.2(5) . . ?
N2 C9 C17 120.6(5) . . ?
C8 C9 C17 129.1(6) . . ?
C11 C10 C15 121.3(5) . . ?
C11 C10 C5 120.8(6) . . ?
C15 C10 C5 117.7(6) . . ?
C10 C11 C12 117.7(6) . . ?
C13 C12 C11 123.2(6) . . ?
C12 C13 C14 119.4(6) . . ?
C12 C13 C16 121.0(7) . . ?
C14 C13 C16 119.5(7) . . ?
C15 C14 C13 118.0(7) . . ?
C10 C15 C14 120.1(6) . . ?
N3 C16 C13 178.2(11) . . ?
N4 C17 C18 112.8(5) . . ?
N4 C17 C9 116.7(5) . . ?
C18 C17 C9 130.5(5) . . ?
C19 C18 C17 107.0(5) . . ?
C19 C18 Ag1 84.8(4) . 2_556 ?
C17 C18 Ag1 106.6(4) . 2_556 ?
C19 C18 H18 126.5 . . ?
C17 C18 H18 126.5 . . ?
Ag1 C18 H18 80.5 2_556 . ?
C18 C19 C20 106.6(5) . . ?
C18 C19 Ag1 64.8(4) . 2_556 ?
C20 C19 Ag1 111.9(4) . 2_556 ?
C18 C19 H19 126.7 . . ?
C20 C19 H19 126.7 . . ?
Ag1 C19 H19 92.5 2_556 . ?
C21 C20 N4 121.5(5) . . ?
C21 C20 C19 129.4(5) . . ?
N4 C20 C19 109.1(5) . . ?
C22 C21 C20 127.