####################################################################### 
# 
# This file contains crystal structure data downloaded from the 
# Cambridge Structural Database (CSD) hosted by the Cambridge 
# Crystallographic Data Centre (CCDC).
# 
# Full information about CCDC data access policies and citation 
# guidelines are available at http://www.ccdc.cam.ac.uk/access/V1 
# 
# Audit and citation data items may have been added by the CCDC. 
# Please retain this information to preserve the provenance of 
# this file and to allow appropriate attribution of the data. 
# 
#######################################################################

data_jrs154-sqz2
_audit_block_doi                 10.5517/ccq1vm6
_database_code_depnum_ccdc_archive 'CCDC 657188'
loop_
_citation_id
_citation_doi
_citation_year
1 10.1021/ic7016159 2007
_audit_update_record             
;
2007-08-13 deposited with the CCDC.	2024-07-10 downloaded from the CCDC.
;

_audit_creation_method           SHELXL-97
_chemical_name_systematic        
;
?
;
_chemical_name_common            MOF-Ga/AgPF~6~-1b
_chemical_melting_point          ?
_chemical_formula_moiety         ?
_chemical_formula_sum            'C42 H30 Ag F4 Ga N9 P'
_chemical_formula_weight         945.31

loop_
_atom_type_symbol
_atom_type_description
_atom_type_scat_dispersion_real
_atom_type_scat_dispersion_imag
_atom_type_scat_source
C C 0.0033 0.0016 'International Tables Vol C Tables 4.2.6.8 and 6.1.1.4'
H H 0.0000 0.0000 'International Tables Vol C Tables 4.2.6.8 and 6.1.1.4'
N N 0.0061 0.0033 'International Tables Vol C Tables 4.2.6.8 and 6.1.1.4'
F F 0.0171 0.0103 'International Tables Vol C Tables 4.2.6.8 and 6.1.1.4'
P P 0.1023 0.0942 'International Tables Vol C Tables 4.2.6.8 and 6.1.1.4'
Ga Ga 0.2307 1.6083 'International Tables Vol C Tables 4.2.6.8 and 6.1.1.4'
Ag Ag -0.8971 1.1015 'International Tables Vol C Tables 4.2.6.8 and 6.1.1.4'

_symmetry_cell_setting           monoclinic
_symmetry_space_group_name_H-M   'C 2/c'

loop_
_symmetry_equiv_pos_as_xyz
'x, y, z'
'-x, y, -z+1/2'
'x+1/2, y+1/2, z'
'-x+1/2, y+1/2, -z+1/2'
'-x, -y, -z'
'x, -y, z-1/2'
'-x+1/2, -y+1/2, -z'
'x+1/2, -y+1/2, z-1/2'

_cell_length_a                   30.705(6)
_cell_length_b                   12.857(3)
_cell_length_c                   33.146(7)
_cell_angle_alpha                90.00
_cell_angle_beta                 116.457(3)
_cell_angle_gamma                90.00
_cell_volume                     11715(4)
_cell_formula_units_Z            8
_cell_measurement_temperature    100(2)
_cell_measurement_reflns_used    961
_cell_measurement_theta_min      2.57
_cell_measurement_theta_max      26.8

_exptl_crystal_description       'cut needle'
_exptl_crystal_colour            red
_exptl_crystal_size_max          0.30
_exptl_crystal_size_mid          0.28
_exptl_crystal_size_min          0.17
_exptl_crystal_density_meas      ?
_exptl_crystal_density_diffrn    1.072
_exptl_crystal_density_method    'not measured'
_exptl_crystal_F_000             3792
_exptl_absorpt_coefficient_mu    0.864
_exptl_absorpt_correction_type   multi-scan
_exptl_absorpt_correction_T_min  0.78182
_exptl_absorpt_correction_T_max  0.88946
_exptl_absorpt_process_details   'SADABS 2.10 (Sheldrick, 2004)'

_exptl_special_details           
;
?
;

_diffrn_ambient_temperature      100(2)
_diffrn_radiation_wavelength     0.71073
_diffrn_radiation_type           MoK\a
_diffrn_radiation_source         'fine-focus sealed tube'
_diffrn_radiation_monochromator  graphite
_diffrn_measurement_device_type  'Bruker APEX'
_diffrn_measurement_method       \w
_diffrn_detector_area_resol_mean 8.3
_diffrn_standards_number         0
_diffrn_standards_interval_count ?
_diffrn_standards_interval_time  ?
_diffrn_standards_decay_%        ?
_diffrn_reflns_number            35576
_diffrn_reflns_av_R_equivalents  0.0506
_diffrn_reflns_av_sigmaI/netI    0.0647
_diffrn_reflns_limit_h_min       -37
_diffrn_reflns_limit_h_max       38
_diffrn_reflns_limit_k_min       -16
_diffrn_reflns_limit_k_max       15
_diffrn_reflns_limit_l_min       -41
_diffrn_reflns_limit_l_max       36
_diffrn_reflns_theta_min         1.37
_diffrn_reflns_theta_max         26.37
_reflns_number_total             11900
_reflns_number_gt                7224
_reflns_threshold_expression     I>2\s(I)

_computing_data_collection       'SMART 5.632 (Bruker, 2005)'
_computing_cell_refinement       SMART
_computing_data_reduction        'SAINT 6.45A (Bruker, 2003)'
_computing_structure_solution    'SHELXS97 (Sheldrick, 1990)'
_computing_structure_refinement  'SHELXL97 (Sheldrick, 1997)'
_computing_molecular_graphics    'SHELXTL 5.1 (Sheldrick, 1994)'
_computing_publication_material  SHELXL97

_refine_special_details          
;
Refinement of F^2^ against ALL reflections. The weighted R-factor wR and
goodness of fit S are based on F^2^, conventional R-factors R are based
on F, with F set to zero for negative F^2^. The threshold expression of
F^2^ > 2sigma(F^2^) is used only for calculating R-factors(gt) etc. and is
not relevant to the choice of reflections for refinement. R-factors based
on F^2^ are statistically about twice as large as those based on F, and R-
factors based on ALL data will be even larger.

All H atoms were located in a difference map, placed in calculated
positions and included in the refinement as riding atoms.

Several severely disordered and partially occupied solvent molecules were
found. Acceptable atomic positions could not be determined, so these
solvent molecules were treated as a diffuse contribution using the
program SQUEEZE (A. Spek, Platon Library). SQUEEZE calculated 5139.6
Ang^3^ void space per cell and 1069.0 electrons. Twenty molecules of
benzene and ten molecules of acetonitrile require 1060 electrons per unit
cell, giving two and a half molecules of benzene and one and a quarter
acetonitrile molecules per formula unit.

The silver atom appears to be disordered. Two positions were located and
assigned as silver atoms. The site occupancies were set to a total of
unity and the thermal parameters were constrained to be mutually equal.
The occupancy of the major position refined to 86.29(13) percent.

The PF~6~ anion was grossly disordered. Only four fluorine atoms could
be identified, albeit with large thermal parameters. Efforts to locate
additional fluorine atoms or split the atoms into separate atoms were
unsuccessful. Assigning the P atom as a boron were also unsuccessful.
This laboratory does not have any other silver salts with four-coordinate
anions, so we conclude that the anion is a disordered PF~6~ moiety.
;

_refine_ls_structure_factor_coef Fsqd
_refine_ls_matrix_type           full
_refine_ls_weighting_scheme      calc
_refine_ls_weighting_details     
'calc w=1/[\s^2^(Fo^2^)+(0.0717P)^2^] where P=(Fo^2^+2Fc^2^)/3'
_atom_sites_solution_primary     direct
_atom_sites_solution_secondary   difmap
_atom_sites_solution_hydrogens   geom
_refine_ls_hydrogen_treatment    constr
_refine_ls_extinction_method     none
_refine_ls_extinction_coef       ?
_refine_ls_number_reflns         11900
_refine_ls_number_parameters     527
_refine_ls_number_restraints     0
_refine_ls_R_factor_all          0.0850
_refine_ls_R_factor_gt           0.0505
_refine_ls_wR_factor_ref         0.1280
_refine_ls_wR_factor_gt          0.1173
_refine_ls_goodness_of_fit_ref   0.893
_refine_ls_restrained_S_all      0.893
_refine_ls_shift/su_max          0.002
_refine_ls_shift/su_mean         0.000

loop_
_atom_site_label
_atom_site_type_symbol
_atom_site_fract_x
_atom_site_fract_y
_atom_site_fract_z
_atom_site_U_iso_or_equiv
_atom_site_adp_type
_atom_site_occupancy
_atom_site_symmetry_multiplicity
_atom_site_calc_flag
_atom_site_refinement_flags
_atom_site_disorder_assembly
_atom_site_disorder_group
Ag1 Ag 0.21700(2) 0.20514(5) 0.226449(12) 0.04846(17) Uani 0.8629(13) 1 d P . 1
Ag2 Ag 0.23013(11) 0.2611(3) 0.23388(9) 0.04846(17) Uani 0.1371(13) 1 d P . 2
Ga1 Ga 0.565089(13) 0.01709(3) 0.412391(12) 0.03928(12) Uani 1 1 d . . .
C1 C 0.50522(13) -0.1685(3) 0.36053(11) 0.0465(9) Uani 1 1 d . . .
H1 H 0.5330 -0.2123 0.3732 0.056 Uiso 1 1 calc R . .
C2 C 0.45903(14) -0.2008(3) 0.32715(12) 0.0532(10) Uani 1 1 d . . .
H2 H 0.4503 -0.2680 0.3141 0.064 Uiso 1 1 calc R . .
C3 C 0.42962(14) -0.1156(3) 0.31768(12) 0.0491(9) Uani 1 1 d . . .
H3 H 0.3964 -0.1121 0.2961 0.059 Uiso 1 1 calc R . .
C4 C 0.45741(12) -0.0331(3) 0.34573(10) 0.0393(8) Uani 1 1 d . . .
C5 C 0.44202(12) 0.0680(3) 0.34796(11) 0.0384(8) Uani 1 1 d . . .
C6 C 0.46983(12) 0.1495(3) 0.37556(10) 0.0387(8) Uani 1 1 d . . .
C7 C 0.45355(13) 0.2493(3) 0.37988(11) 0.0445(9) Uani 1 1 d . . .
H7 H 0.4212 0.2748 0.3646 0.053 Uiso 1 1 calc R . .
C8 C 0.49374(14) 0.3037(3) 0.41067(12) 0.0472(9) Uani 1 1 d . . .
H8 H 0.4944 0.3732 0.4206 0.057 Uiso 1 1 calc R . .
C9 C 0.53294(14) 0.2354(3) 0.42396(11) 0.0447(9) Uani 1 1 d . . .
H9 H 0.5653 0.2528 0.4449 0.054 Uiso 1 1 calc R . .
C10 C 0.39023(12) 0.0932(3) 0.31750(10) 0.0383(8) Uani 1 1 d . . .
C11 C 0.35182(13) 0.0444(3) 0.32135(11) 0.0471(9) Uani 1 1 d . . .
H11 H 0.3582 -0.0068 0.3440 0.056 Uiso 1 1 calc R . .
C12 C 0.30465(13) 0.0704(3) 0.29244(12) 0.0503(10) Uani 1 1 d . . .
H12 H 0.2790 0.0352 0.2954 0.060 Uiso 1 1 calc R . .
C13 C 0.32967(14) 0.1880(3) 0.25629(11) 0.0452(9) Uani 1 1 d . . .
H13 H 0.3218 0.2383 0.2331 0.054 Uiso 1 1 calc R . .
C14 C 0.37851(13) 0.1671(3) 0.28363(11) 0.0436(9) Uani 1 1 d . . .
H14 H 0.4033 0.2024 0.2793 0.052 Uiso 1 1 calc R . .
C15 C 0.53003(12) -0.0994(3) 0.47223(11) 0.0413(8) Uani 1 1 d . . .
H15 H 0.5080 -0.1394 0.4474 0.050 Uiso 1 1 calc R . .
C16 C 0.53616(13) -0.1105(3) 0.51702(11) 0.0426(9) Uani 1 1 d . . .
H16 H 0.5196 -0.1579 0.5273 0.051 Uiso 1 1 calc R . .
C17 C 0.57039(13) -0.0402(3) 0.54219(12) 0.0459(9) Uani 1 1 d . . .
H17 H 0.5823 -0.0291 0.5737 0.055 Uiso 1 1 calc R . .
C18 C 0.58536(12) 0.0141(3) 0.51300(11) 0.0401(8) Uani 1 1 d . . .
C19 C 0.62129(12) 0.0900(3) 0.52416(11) 0.0418(9) Uani 1 1 d . . .
C20 C 0.63977(12) 0.1343(3) 0.49638(11) 0.0452(9) Uani 1 1 d . . .
C21 C 0.67594(14) 0.2123(3) 0.50754(13) 0.0557(10) Uani 1 1 d . . .
H21 H 0.6930 0.2444 0.5362 0.067 Uiso 1 1 calc R . .
C22 C 0.68192(15) 0.2331(4) 0.47002(14) 0.0605(11) Uani 1 1 d . . .
H22 H 0.7037 0.2818 0.4673 0.073 Uiso 1 1 calc R . .
C23 C 0.64902(14) 0.1672(3) 0.43608(13) 0.0542(10) Uani 1 1 d . . .
H23 H 0.6454 0.1652 0.4061 0.065 Uiso 1 1 calc R . .
C24 C 0.64343(12) 0.1294(3) 0.57237(11) 0.0439(9) Uani 1 1 d . . .
C25 C 0.69102(13) 0.1071(3) 0.60158(12) 0.0500(10) Uani 1 1 d . . .
H25 H 0.7104 0.0652 0.5923 0.060 Uiso 1 1 calc R . .
C26 C 0.71017(13) 0.1478(3) 0.64532(12) 0.0503(10) Uani 1 1 d . . .
H26 H 0.7428 0.1316 0.6658 0.060 Uiso 1 1 calc R . .
C27 C 0.63884(14) 0.2284(3) 0.63054(12) 0.0530(10) Uani 1 1 d . . .
H27 H 0.6203 0.2717 0.6403 0.064 Uiso 1 1 calc R . .
C28 C 0.61687(13) 0.1898(3) 0.58722(12) 0.0489(10) Uani 1 1 d . . .
H28 H 0.5837 0.2051 0.5679 0.059 Uiso 1 1 calc R . .
C29 C 0.55088(14) 0.1386(4) 0.32911(12) 0.0573(11) Uani 1 1 d . . .
H29 H 0.5316 0.1888 0.3348 0.069 Uiso 1 1 calc R . .
C30 C 0.56112(16) 0.1404(4) 0.29130(13) 0.0661(12) Uani 1 1 d . . .
H30 H 0.5510 0.1915 0.2682 0.079 Uiso 1 1 calc R . .
C31 C 0.58842(16) 0.0540(4) 0.29492(13) 0.0637(12) Uani 1 1 d . . .
H31 H 0.6002 0.0325 0.2741 0.076 Uiso 1 1 calc R . .
C32 C 0.59604(14) 0.0026(3) 0.33499(12) 0.0482(9) Uani 1 1 d . . .
C33 C 0.62268(14) -0.0883(3) 0.35195(12) 0.0526(10) Uani 1 1 d . . .
C34 C 0.63009(14) -0.1396(3) 0.39174(12) 0.0506(10) Uani 1 1 d . . .
C35 C 0.65941(17) -0.2284(4) 0.41108(15) 0.0685(13) Uani 1 1 d . . .
H35 H 0.6769 -0.2670 0.3986 0.082 Uiso 1 1 calc R . .
C36 C 0.65792(17) -0.2479(4) 0.45072(14) 0.0708(13) Uani 1 1 d . . .
H36 H 0.6746 -0.3018 0.4715 0.085 Uiso 1 1 calc R . .
C37 C 0.62718(14) -0.1734(3) 0.45482(12) 0.0593(11) Uani 1 1 d . . .
H37 H 0.6193 -0.1703 0.4794 0.071 Uiso 1 1 calc R . .
C38 C 0.64581(15) -0.1374(4) 0.32501(12) 0.0560(11) Uani 1 1 d . . .
C39 C 0.62942(18) -0.2313(4) 0.30307(15) 0.0668(12) Uani 1 1 d . . .
H39 H 0.6036 -0.2673 0.3054 0.080 Uiso 1 1 calc R . .
C40 C 0.65080(19) -0.2720(4) 0.27797(15) 0.0693(13) Uani 1 1 d . . .
H40 H 0.6395 -0.3371 0.2635 0.083 Uiso 1 1 calc R . .
C41 C 0.70195(16) -0.1359(4) 0.29289(15) 0.0689(13) Uani 1 1 d . . .
H41 H 0.7276 -0.1019 0.2895 0.083 Uiso 1 1 calc R . .
C42 C 0.68231(16) -0.0868(4) 0.31982(14) 0.0653(12) Uani 1 1 d . . .
H42 H 0.6941 -0.0213 0.3337 0.078 Uiso 1 1 calc R . .
N1 N 0.50486(10) -0.0693(2) 0.37191(8) 0.0391(7) Uani 1 1 d . . .
N2 N 0.51995(10) 0.1425(2) 0.40390(9) 0.0399(7) Uani 1 1 d . . .
N3 N 0.29325(10) 0.1418(2) 0.26070(9) 0.0442(7) Uani 1 1 d . . .
N4 N 0.55913(10) -0.0257(2) 0.46922(9) 0.0395(7) Uani 1 1 d . . .
N5 N 0.62353(10) 0.1077(2) 0.45114(9) 0.0445(7) Uani 1 1 d . . .
N6 N 0.68453(11) 0.2080(2) 0.65933(10) 0.0487(8) Uani 1 1 d . . .
N7 N 0.57191(10) 0.0572(2) 0.35542(9) 0.0467(8) Uani 1 1 d . . .
N8 N 0.61024(10) -0.1072(2) 0.42055(9) 0.0464(8) Uani 1 1 d . . .
N9 N 0.68661(14) -0.2246(3) 0.27285(12) 0.0637(10) Uani 1 1 d . . .
P1 P 0.16312(4) -0.03361(11) 0.21417(4) 0.0649(3) Uani 1 1 d . . .
F1 F 0.11695(11) -0.0832(2) 0.21176(13) 0.1161(12) Uani 1 1 d . . .
F2 F 0.16551(16) -0.1135(3) 0.18031(13) 0.1327(14) Uani 1 1 d . . .
F3 F 0.15340(14) 0.0692(3) 0.19716(11) 0.1314(13) Uani 1 1 d . . .
F4 F 0.20175(17) -0.0602(4) 0.25654(15) 0.208(3) Uani 1 1 d . . .

loop_
_atom_site_aniso_label
_atom_site_aniso_U_11
_atom_site_aniso_U_22
_atom_site_aniso_U_33
_atom_site_aniso_U_23
_atom_site_aniso_U_13
_atom_site_aniso_U_12
Ag1 0.0401(2) 0.0720(4) 0.02935(18) 0.0086(2) 0.01190(15) 0.0122(2)
Ag2 0.0401(2) 0.0720(4) 0.02935(18) 0.0086(2) 0.01190(15) 0.0122(2)
Ga1 0.0349(2) 0.0554(3) 0.02223(19) 0.00098(17) 0.00787(15) 0.00347(18)
C1 0.046(2) 0.059(3) 0.0250(18) -0.0016(17) 0.0073(16) 0.0100(19)
C2 0.058(2) 0.055(2) 0.036(2) -0.0124(18) 0.0114(18) 0.007(2)
C3 0.049(2) 0.054(2) 0.0326(19) -0.0085(17) 0.0082(16) 0.0044(19)
C4 0.0371(18) 0.050(2) 0.0218(16) -0.0027(15) 0.0053(14) 0.0028(17)
C5 0.0372(19) 0.046(2) 0.0276(17) 0.0040(15) 0.0107(15) 0.0080(17)
C6 0.045(2) 0.046(2) 0.0230(17) 0.0016(15) 0.0132(15) 0.0011(17)
C7 0.047(2) 0.047(2) 0.0333(19) 0.0021(16) 0.0117(17) 0.0064(18)
C8 0.056(2) 0.044(2) 0.035(2) -0.0031(16) 0.0144(18) -0.0004(19)
C9 0.046(2) 0.054(2) 0.0273(18) -0.0013(16) 0.0103(16) -0.0053(18)
C10 0.0377(18) 0.044(2) 0.0263(17) -0.0055(15) 0.0080(14) 0.0056(16)
C11 0.045(2) 0.059(3) 0.0273(18) 0.0043(16) 0.0079(16) 0.0070(19)
C12 0.040(2) 0.069(3) 0.035(2) 0.0069(19) 0.0102(17) 0.0051(19)
C13 0.053(2) 0.051(2) 0.0254(18) 0.0028(15) 0.0116(16) 0.0154(19)
C14 0.043(2) 0.058(2) 0.0258(18) 0.0010(16) 0.0116(16) 0.0070(18)
C15 0.0376(19) 0.049(2) 0.0316(18) -0.0025(16) 0.0108(15) 0.0042(17)
C16 0.048(2) 0.051(2) 0.0317(19) 0.0034(16) 0.0205(17) 0.0046(18)
C17 0.044(2) 0.063(3) 0.0261(18) -0.0033(17) 0.0113(16) 0.0052(19)
C18 0.0369(18) 0.055(2) 0.0238(17) -0.0035(15) 0.0092(14) 0.0064(17)
C19 0.0372(18) 0.056(2) 0.0242(17) -0.0005(16) 0.0065(14) 0.0065(17)
C20 0.0345(18) 0.061(3) 0.0319(19) -0.0022(17) 0.0076(15) -0.0013(18)
C21 0.050(2) 0.072(3) 0.039(2) -0.006(2) 0.0135(18) -0.008(2)
C22 0.048(2) 0.078(3) 0.050(3) -0.001(2) 0.017(2) -0.017(2)
C23 0.047(2) 0.077(3) 0.037(2) 0.006(2) 0.0168(18) 0.000(2)
C24 0.043(2) 0.054(2) 0.0258(17) -0.0004(16) 0.0068(15) -0.0015(18)
C25 0.044(2) 0.062(3) 0.033(2) -0.0094(17) 0.0080(16) 0.0042(19)
C26 0.039(2) 0.066(3) 0.035(2) -0.0010(18) 0.0062(16) -0.0049(19)
C27 0.052(2) 0.068(3) 0.036(2) -0.0095(18) 0.0168(19) -0.002(2)
C28 0.042(2) 0.067(3) 0.0318(19) -0.0062(18) 0.0114(16) 0.0011(19)
C29 0.052(2) 0.082(3) 0.034(2) 0.016(2) 0.0160(18) 0.016(2)
C30 0.080(3) 0.084(3) 0.038(2) 0.018(2) 0.029(2) 0.016(3)
C31 0.074(3) 0.083(3) 0.043(2) 0.008(2) 0.034(2) 0.012(3)
C32 0.053(2) 0.063(3) 0.0298(19) 0.0028(17) 0.0199(17) 0.004(2)
C33 0.060(2) 0.067(3) 0.031(2) 0.0030(18) 0.0204(18) 0.004(2)
C34 0.054(2) 0.063(3) 0.039(2) 0.0064(18) 0.0254(19) 0.009(2)
C35 0.079(3) 0.083(3) 0.058(3) 0.014(2) 0.044(2) 0.032(3)
C36 0.081(3) 0.093(3) 0.049(3) 0.024(2) 0.038(2) 0.037(3)
C37 0.057(2) 0.088(3) 0.031(2) 0.016(2) 0.0177(19) 0.030(2)
C38 0.062(3) 0.080(3) 0.035(2) 0.014(2) 0.029(2) 0.018(2)
C39 0.094(3) 0.065(3) 0.063(3) 0.003(2) 0.054(3) 0.003(3)
C40 0.094(4) 0.071(3) 0.058(3) 0.015(2) 0.047(3) 0.014(3)
C41 0.055(3) 0.105(4) 0.052(3) 0.020(3) 0.030(2) 0.006(3)
C42 0.067(3) 0.085(3) 0.049(3) 0.001(2) 0.031(2) 0.005(3)
N1 0.0372(15) 0.0520(19) 0.0223(14) -0.0033(13) 0.0080(12) 0.0048(14)
N2 0.0391(16) 0.0507(19) 0.0242(14) -0.0022(13) 0.0091(12) -0.0004(14)
N3 0.0409(17) 0.060(2) 0.0276(15) 0.0024(14) 0.0112(13) 0.0119(15)
N4 0.0367(15) 0.0525(19) 0.0246(14) 0.0002(13) 0.0094(12) 0.0036(14)
N5 0.0346(15) 0.065(2) 0.0301(15) 0.0011(14) 0.0112(13) -0.0021(15)
N6 0.0456(18) 0.062(2) 0.0344(17) -0.0086(15) 0.0140(15) -0.0081(16)
N7 0.0445(17) 0.062(2) 0.0299(16) 0.0078(14) 0.0130(14) 0.0064(16)
N8 0.0443(17) 0.069(2) 0.0258(15) 0.0048(14) 0.0157(13) 0.0073(16)
N9 0.074(3) 0.073(3) 0.0