
#######################################################################
#
#                 Cambridge Crystallographic Data Centre
#                                CCDC
#
#######################################################################
#
# If this CIF has been generated from an entry in the Cambridge
# Structural Database, then it will include bibliographic, chemical,
# crystal, experimental, refinement or atomic coordinate data resulting
# from the CCDC's data processing and validation procedures.
#
#######################################################################

data_CSD_CIF_GIWVUD
_audit_creation_date 1999-04-26
_audit_creation_method CSD-ConQuest-V1
_database_code_CSD GIWVUD
_database_code_depnum_ccdc_archive 'CCDC 113775'
_database_code_depnum_ccdc_journal 186/1175
_chemical_formula_sum 'C20 H30 As3 F18 La1 N10'
_chemical_formula_moiety
;
C18 H27 La1 N9 3+,3(As1 F6 1-),C2 H3 N1
;
_journal_coden_Cambridge 186
_journal_year 1998
_journal_page_first 3887
_journal_name_full 'J.Chem.Soc.,Dalton Trans. '
loop_
_publ_author_name
"G.B.Deacon"
"B.Gortler"
"P.C.Junk"
"E.Lork"
"R.Mews"
"J.Petersen"
"B.Zemva"
_chemical_name_systematic
;
nonakis(Acetonitrile)-lanthanum(iii) tris(hexafluoroarsenate) acetonitrile 
solvate
;
_chemical_name_common
;
Teaching Subset: Fundamental Chemistry
;
_chemical_melting_point 376
_cell_volume   4126.308
_exptl_crystal_colour 'colorless'
_exptl_crystal_density_diffrn 1.797
_exptl_crystal_description 'plate'
_diffrn_ambient_temperature 173
_refine_special_details
;
Two of the anions are disordered with F atoms refined at half occupancy.

;
#These two values have been output from a single CSD field.
_refine_ls_R_factor_gt 0.0391
_refine_ls_wR_factor_gt 0.0391
_symmetry_cell_setting monoclinic
_symmetry_space_group_name_H-M 'P 21/n'
_symmetry_Int_Tables_number 14
loop_
_symmetry_equiv_pos_site_id
_symmetry_equiv_pos_as_xyz
1 x,y,z
2 1/2-x,1/2+y,1/2-z
3 -x,-y,-z
4 -1/2+x,-1/2-y,-1/2+z
_cell_length_a 12.674(1)
_cell_length_b 20.534(2)
_cell_length_c 16.312(1)
_cell_angle_alpha 90
_cell_angle_beta 103.59(1)
_cell_angle_gamma 90
_cell_formula_units_Z 4
loop_
_atom_type_symbol
_atom_type_radius_bond
C 0.68
H 0.23
As 1.21
F 0.64
La 1.87
N 0.68
loop_
_atom_site_label
_atom_site_type_symbol
_atom_site_fract_x
_atom_site_fract_y
_atom_site_fract_z
La1 La 0.78627(4) 0.146049(17) 0.15208(2)
N1 N 0.8001(6) 0.1427(3) 0.3165(4)
C1 C 0.8112(9) 0.1391(3) 0.3850(5)
C2 C 0.8267(10) 0.1357(4) 0.4782(5)
H1 H 0.90450 0.13570 0.50500
H2 H 0.79380 0.09560 0.49320
H3 H 0.79220 0.17340 0.49780
N2 N 0.8192(5) 0.2672(3) 0.2055(4)
C3 C 0.8221(6) 0.3206(3) 0.2192(4)
C4 C 0.8267(8) 0.3900(3) 0.2404(5)
H4 H 0.75640 0.41030 0.21560
H5 H 0.88340 0.41110 0.21810
H6 H 0.84330 0.39520 0.30190
N3 N 0.9969(5) 0.1509(3) 0.2097(5)
C5 C 1.0875(7) 0.1475(4) 0.2208(6)
C6 C 1.2094(7) 0.1424(4) 0.2330(6)
H7 H 1.23590 0.10400 0.26740
H8 H 1.24390 0.18150 0.26160
H9 H 1.22720 0.13830 0.17790
N4 N 0.6268(5) 0.0595(3) 0.1309(4)
C7 C 0.5477(8) 0.0330(3) 0.1193(6)
C8 C 0.4430(7) 0.0000(4) 0.1070(6)
H10 H 0.43740 -0.02100 0.15980
H11 H 0.43690 -0.03310 0.06280
H12 H 0.38430 0.03180 0.09020
N5 N 0.6457(5) 0.1768(3) 0.0126(4)
C9 C 0.5887(6) 0.2016(3) -0.0414(5)
C10 C 0.5183(6) 0.2349(3) -0.1121(5)
H13 H 0.52720 0.28210 -0.10440
H14 H 0.44260 0.22310 -0.11500
H15 H 0.53760 0.22210 -0.16460
N6 N 0.8326(8) 0.0746(3) 0.0310(4)
C11 C 0.8594(10) 0.0543(4) -0.0225(6)
C12 C 0.8959(9) 0.0261(4) -0.0938(5)
H16 H 0.84100 0.03400 -0.14610
H17 H 0.90670 -0.02090 -0.08520
H18 H 0.96450 0.04650 -0.09770
N7 N 0.6145(6) 0.1979(3) 0.1827(6)
C13 C 0.5393(8) 0.2220(4) 0.1983(9)
C14 C 0.4446(9) 0.2556(5) 0.2186(9)
H19 H 0.45910 0.26350 0.27950
H20 H 0.37990 0.22820 0.20120
H21 H 0.43240 0.29720 0.18850
N8 N 0.8765(7) 0.2172(3) 0.0533(4)
C15 C 0.9156(9) 0.2524(4) 0.0187(6)
C16 C 0.9685(9) 0.2995(4) -0.0248(6)
H22 H 0.91340 0.32360 -0.06580
H23 H 1.01680 0.27670 -0.05410
H24 H 1.01090 0.33000 0.01630
N9 N 0.8682(5) 0.0344(2) 0.2201(4)
C17 C 0.9185(7) -0.0039(3) 0.2588(5)
C18 C 0.9853(8) -0.0546(4) 0.3099(6)
H25 H 0.95430 -0.09750 0.29240
H26 H 0.98670 -0.04760 0.36960
H27 H 1.05940 -0.05240 0.30180
N10 N 0.4629(9) 0.1027(5) 0.2915(7)
C19 C 0.5032(9) 0.0693(5) 0.3399(8)
C20 C 0.5420(14) 0.0291(5) 0.4059(9)
H28 H 0.56720 0.05500 0.45720
H29 H 0.60270 0.00370 0.39490
H30 H 0.48430 -0.00040 0.41330
As1 As 0.17871(8) 0.08956(4) 0.48521(6)
F1 F 0.3069(5) 0.1012(2) 0.5432(3)
F2 F 0.1309(5) 0.1419(2) 0.5506(3)
F3 F 0.0516(5) 0.0815(3) 0.4265(4)
F4 F 0.1957(6) 0.1548(3) 0.4243(3)
F5 F 0.1670(6) 0.0269(2) 0.5493(4)
F6 F 0.2229(7) 0.0376(3) 0.4237(4)
As2 As 0.21979(8) 0.14948(4) 0.96233(5)
F7 F 0.3406(5) 0.1381(6) 0.9512(6)
F8 F 0.2626(10) 0.2070(3) 1.0280(6)
F9 F 0.2412(9) 0.0979(4) 1.0384(4)
F10 F 0.1985(8) 0.2009(4) 0.8863(4)
F11 F 0.1768(9) 0.0918(3) 0.8966(6)
F12 F 0.0989(5) 0.1607(5) 0.9736(6)
As3 As 0.67910(7) 0.12903(4) 0.71146(6)
F13 F 0.6744(6) 0.0533(3) 0.7186(6)
F14 F 0.6847(6) 0.2046(3) 0.7052(7)
F15 F 0.6784(10) 0.1228(5) 0.6162(4)
F16 F 0.5528(5) 0.1322(4) 0.6891(7)
F17 F 0.8060(5) 0.1258(4) 0.7346(7)
F18 F 0.6804(9) 0.1348(5) 0.8073(4)
F19? F 0.1340(11) 0.1994(6) 0.9879(6)
F20? F 0.3093(9) 0.1683(7) 1.0476(5)
F21? F 0.1319(8) 0.1298(7) 0.8770(5)
F22? F 0.3062(11) 0.0993(6) 0.9374(5)
F23? F 0.2652(12) 0.2070(6) 0.9121(6)
F24? F 0.1758(13) 0.0912(7) 1.0125(7)
F25? F 0.7738(7) 0.1554(3) 0.7969(4)
F26? F 0.7219(7) 0.0512(3) 0.7330(5)
F27? F 0.7702(7) 0.1384(5) 0.6506(6)
F28? F 0.5852(7) 0.1027(3) 0.6258(5)
F29? F 0.6365(8) 0.2069(3) 0.6898(6)
F30? F 0.5884(8) 0.1197(6) 0.7722(7)
#END
