
#######################################################################
#
#                 Cambridge Crystallographic Data Centre
#                                CCDC
#
#######################################################################
#
# If this CIF has been generated from an entry in the Cambridge
# Structural Database, then it will include bibliographic, chemical,
# crystal, experimental, refinement or atomic coordinate data resulting
# from the CCDC's data processing and validation procedures.
#
#######################################################################

data_CSD_CIF_GIWWEO
_audit_creation_date 1999-04-26
_audit_creation_method CSD-ConQuest-V1
_database_code_CSD GIWWEO
_database_code_depnum_ccdc_archive 'CCDC 113777'
_database_code_depnum_ccdc_journal 186/1175
_chemical_formula_sum 'C20 H30 Al3 Cl12 N10 Pr1'
_chemical_formula_moiety
;
C18 H27 N9 Pr1 3+,3(Al1 Cl4 1-),C2 H3 N1
;
_journal_coden_Cambridge 186
_journal_year 1998
_journal_page_first 3887
_journal_name_full 'J.Chem.Soc.,Dalton Trans. '
loop_
_publ_author_name
"G.B.Deacon"
"B.Gortler"
"P.C.Junk"
"E.Lork"
"R.Mews"
"J.Petersen"
"B.Zemva"
_chemical_name_systematic
;
nonakis(Acetonitrile)-praseodymium(iii) tris(tetrachloroaluminate) 
acetonitrile solvate
;
_chemical_name_common
;
Teaching Subset: Fundamental Chemistry
;
_chemical_melting_point ?
_cell_volume   2338.325
_exptl_crystal_colour 'light green'
_exptl_crystal_density_diffrn 1.502
_exptl_special_details
;
Decomposes above 573.15K

;
_exptl_crystal_description 'plate'
_diffrn_ambient_temperature 173
#These two values have been output from a single CSD field.
_refine_ls_R_factor_gt 0.0295
_refine_ls_wR_factor_gt 0.0295
_symmetry_cell_setting monoclinic
_symmetry_space_group_name_H-M 'P 21'
_symmetry_Int_Tables_number 4
loop_
_symmetry_equiv_pos_site_id
_symmetry_equiv_pos_as_xyz
1 x,y,z
2 -x,1/2+y,-z
_cell_length_a 13.097(1)
_cell_length_b 13.251(1)
_cell_length_c 14.207(1)
_cell_angle_alpha 90
_cell_angle_beta 108.49
_cell_angle_gamma 90
_cell_formula_units_Z 2
loop_
_atom_type_symbol
_atom_type_radius_bond
C 0.68
H 0.23
Al 1.35
Cl 0.99
N 0.68
Pr 1.82
loop_
_atom_site_label
_atom_site_type_symbol
_atom_site_fract_x
_atom_site_fract_y
_atom_site_fract_z
Pr1 Pr 0.282179(12) 0.384167(15) 0.109025(11)
N1 N 0.4903(2) 0.3723(3) 0.1711(2)
C1 C 0.5789(3) 0.3748(4) 0.2138(2)
C2 C 0.6935(2) 0.3799(5) 0.2705(3)
H1 H 0.72320 0.44410 0.25680
H2 H 0.73150 0.32390 0.25120
H3 H 0.70270 0.37520 0.34160
N2 N 0.3215(3) 0.2950(3) -0.0375(2)
C3 C 0.3258(3) 0.2572(3) -0.1080(3)
C4 C 0.3309(4) 0.2080(4) -0.1981(3)
H4 H 0.26950 0.16220 -0.22300
H5 H 0.39800 0.16960 -0.18340
H6 H 0.32850 0.25920 -0.24850
N3 N 0.3312(3) 0.2020(3) 0.1748(3)
C5 C 0.3505(3) 0.1295(3) 0.2192(3)
C6 C 0.3765(4) 0.0376(3) 0.2765(4)
H7 H 0.40390 0.05420 0.34730
H8 H 0.43160 0.00030 0.25750
H9 H 0.31170 -0.00410 0.26340
N4 N 0.2898(3) 0.5635(3) 0.1858(3)
C7 C 0.3049(4) 0.6299(3) 0.2385(3)
C8 C 0.3232(5) 0.7158(4) 0.3070(4)
H10 H 0.35660 0.69200 0.37520
H11 H 0.25430 0.74830 0.30130
H12 H 0.37100 0.76460 0.29030
N5 N 0.1365(3) 0.4737(3) -0.0329(2)
C9 C 0.0794(3) 0.5041(3) -0.1046(3)
C10 C 0.0061(4) 0.5449(4) -0.1968(4)
H13 H -0.04120 0.49100 -0.23360
H14 H 0.04770 0.57240 -0.23730
H15 H -0.03760 0.59860 -0.18140
N6 N 0.1266(2) 0.3952(3) 0.1854(2)
C11 C 0.0687(3) 0.3929(4) 0.2294(2)
C12 C -0.0067(3) 0.3882(6) 0.2864(3)
H16 H -0.07340 0.35540 0.24650
H17 H -0.02270 0.45670 0.30350
H18 H 0.02560 0.34930 0.34730
N7 N 0.3685(3) 0.5095(3) 0.0164(3)
C13 C 0.4055(3) 0.5596(3) -0.0284(3)
C14 C 0.4531(4) 0.6231(4) -0.0863(4)
H19 H 0.46390 0.69120 -0.05790
H20 H 0.40510 0.62630 -0.15500
H21 H 0.52270 0.59480 -0.08510
N8 N 0.1297(3) 0.2599(2) 0.0222(3)
C15 C 0.0677(3) 0.2075(3) -0.0276(3)
C16 C -0.0126(4) 0.1408(4) -0.0936(4)
H22 H -0.07670 0.13820 -0.07210
H23 H 0.01750 0.07280 -0.09110
H24 H -0.03250 0.16660 -0.16160
N9 N 0.3594(2) 0.3793(4) 0.30116(19)
C17 C 0.3993(3) 0.3726(4) 0.3841(2)
C18 C 0.4499(4) 0.3653(4) 0.4909(3)
H25 H 0.40800 0.31950 0.51870
H26 H 0.45240 0.43230 0.52080
H27 H 0.52320 0.33920 0.50540
Al1 Al 0.26262(10) 0.58438(10) -0.41130(9)
Cl1 Cl 0.39470(11) 0.68453(10) -0.39643(11)
Cl2 Cl 0.20586(11) 0.53288(12) -0.56007(9)
Cl3 Cl 0.13966(10) 0.65778(12) -0.36986(12)
Cl4 Cl 0.32236(13) 0.45915(10) -0.31484(11)
Al2 Al 0.25442(10) 0.86782(10) 0.01444(9)
Cl5 Cl 0.15767(8) 0.88264(19) 0.10851(9)
Cl6 Cl 0.19600(12) 0.74690(9) -0.08623(10)
Cl7 Cl 0.24892(16) 1.00504(10) -0.06434(13)
Cl8 Cl 0.4167(1) 0.83841(13) 0.10115(11)
Al3 Al 0.24055(10) 0.07090(9) 0.50012(9)
Cl9 Cl 0.40285(11) 0.09001(12) 0.59524(11)
Cl10 Cl 0.13325(9) 0.07663(9) 0.58521(9)
Cl11 Cl 0.20266(10) 0.18597(9) 0.39018(9)
Cl12 Cl 0.22879(10) -0.07350(8) 0.43086(9)
N10 N 0.0534(6) 0.2894(6) 0.7428(4)
C19 C 0.0467(5) 0.3125(5) 0.6650(4)
C20 C 0.0395(4) 0.3397(4) 0.5655(4)
H28 H -0.01060 0.29410 0.51870
H29 H 0.11080 0.33420 0.55720
H30 H 0.01360 0.40920 0.55240
#END
