####################################################################### 
# 
# This file contains crystal structure data downloaded from the 
# Cambridge Structural Database (CSD) hosted by the Cambridge 
# Crystallographic Data Centre (CCDC).
# 
# Full information about CCDC data access policies and citation 
# guidelines are available at http://www.ccdc.cam.ac.uk/access/V1 
# 
# Audit and citation data items may have been added by the CCDC. 
# Please retain this information to preserve the provenance of 
# this file and to allow appropriate attribution of the data. 
# 
#######################################################################

data_RPF4alpha
_audit_block_doi                 10.5517/ccpzw1k
_database_code_depnum_ccdc_archive 'CCDC 655279'
loop_
_citation_id
_citation_doi
_citation_year
1 10.1021/cg700796m 2008
2 10.1021/ic801779j 2009
_audit_update_record             
;
2007-07-23 deposited with the CCDC.	2024-07-10 downloaded from the CCDC.
;

_audit_creation_method           SHELXL-97
_chemical_name_systematic        
;
?
;
_chemical_name_common            ?
_chemical_melting_point          ?
_chemical_formula_moiety         'C51 H24 F18 La2 O12'
_chemical_formula_sum            'C51 H24 F18 La2 O12'
_chemical_formula_weight         1448.52

loop_
_atom_type_symbol
_atom_type_description
_atom_type_scat_dispersion_real
_atom_type_scat_dispersion_imag
_atom_type_scat_source
C C 0.0033 0.0016 'International Tables Vol C Tables 4.2.6.8 and 6.1.1.4'
H H 0.0000 0.0000 'International Tables Vol C Tables 4.2.6.8 and 6.1.1.4'
O O 0.0106 0.0060 'International Tables Vol C Tables 4.2.6.8 and 6.1.1.4'
F F 0.0171 0.0103 'International Tables Vol C Tables 4.2.6.8 and 6.1.1.4'
La La -0.2871 2.4523 'International Tables Vol C Tables 4.2.6.8 and 6.1.1.4'

_symmetry_cell_setting           Orthorhombic
_symmetry_space_group_name_H-M   Pnan

loop_
_symmetry_equiv_pos_as_xyz
'x, y, z'
'-x+1/2, y, -z'
'-x+1/2, -y+1/2, z+1/2'
'x, -y+1/2, -z+1/2'
'-x, -y, -z'
'x-1/2, -y, z'
'x-1/2, y-1/2, -z-1/2'
'-x, y-1/2, z-1/2'

_cell_length_a                   7.7910(9)
_cell_length_b                   21.372(3)
_cell_length_c                   36.997(3)
_cell_angle_alpha                90.00
_cell_angle_beta                 90.00
_cell_angle_gamma                90.00
_cell_volume                     6160.2(13)
_cell_formula_units_Z            4
_cell_measurement_temperature    296(2)
_cell_measurement_reflns_used    1107
_cell_measurement_theta_min      2.21
_cell_measurement_theta_max      16.79

_exptl_crystal_description       needle
_exptl_crystal_colour            colorless
_exptl_crystal_size_max          0.06
_exptl_crystal_size_mid          0.04
_exptl_crystal_size_min          0.02
_exptl_crystal_density_meas      ?
_exptl_crystal_density_diffrn    1.562
_exptl_crystal_density_method    'not measured'
_exptl_crystal_F_000             2808
_exptl_absorpt_coefficient_mu    1.475
_exptl_absorpt_correction_type   multi-scan
_exptl_absorpt_correction_T_min  0.9167
_exptl_absorpt_correction_T_max  0.9711
_exptl_absorpt_process_details   TWINABS

_exptl_special_details           
;
?
;

_diffrn_ambient_temperature      296(2)
_diffrn_radiation_wavelength     0.71073
_diffrn_radiation_type           MoK\a
_diffrn_radiation_source         'fine-focus sealed tube'
_diffrn_radiation_monochromator  graphite
_diffrn_measurement_device_type  'CCD area detector'
_diffrn_measurement_method       'phi and omega scans'
_diffrn_detector_area_resol_mean ?
_diffrn_standards_number         ?
_diffrn_standards_interval_count ?
_diffrn_standards_interval_time  ?
_diffrn_standards_decay_%        ?
_diffrn_reflns_number            22622
_diffrn_reflns_av_R_equivalents  0.0000
_diffrn_reflns_av_sigmaI/netI    0.7485
_diffrn_reflns_limit_h_min       0
_diffrn_reflns_limit_h_max       10
_diffrn_reflns_limit_k_min       0
_diffrn_reflns_limit_k_max       28
_diffrn_reflns_limit_l_min       0
_diffrn_reflns_limit_l_max       48
_diffrn_reflns_theta_min         1.10
_diffrn_reflns_theta_max         28.62
_reflns_number_total             22866
_reflns_number_gt                4370
_reflns_threshold_expression     >2sigma(I)

_computing_data_collection       'Bruker SMART'
_computing_cell_refinement       'Bruker SMART'
_computing_data_reduction        'Bruker SAINT'
_computing_structure_solution    'SHELXS-97 (Sheldrick, 1990)'
_computing_structure_refinement  'SHELXL-97 (Sheldrick, 1997)'
_computing_molecular_graphics    'Bruker SHELXTL'
_computing_publication_material  'Bruker SHELXTL'

_refine_special_details          
;
Refinement of F^2^ against ALL reflections. The weighted R-factor wR and
goodness of fit S are based on F^2^, conventional R-factors R are based
on F, with F set to zero for negative F^2^. The threshold expression of
F^2^ > 2sigma(F^2^) is used only for calculating R-factors(gt) etc. and is
not relevant to the choice of reflections for refinement. R-factors based
on F^2^ are statistically about twice as large as those based on F, and R-
factors based on ALL data will be even larger.
;

_refine_ls_structure_factor_coef Fsqd
_refine_ls_matrix_type           full
_refine_ls_weighting_scheme      calc
_refine_ls_weighting_details     
'calc w=1/[\s^2^(Fo^2^)+(0.1077P)^2^+0.0000P] where P=(Fo^2^+2Fc^2^)/3'
_atom_sites_solution_primary     direct
_atom_sites_solution_secondary   difmap
_atom_sites_solution_hydrogens   geom
_refine_ls_hydrogen_treatment    constr
_refine_ls_extinction_method     none
_refine_ls_extinction_coef       ?
_refine_ls_number_reflns         22866
_refine_ls_number_parameters     293
_refine_ls_number_restraints     160
_refine_ls_R_factor_all          0.4358
_refine_ls_R_factor_gt           0.1385
_refine_ls_wR_factor_ref         0.3620
_refine_ls_wR_factor_gt          0.2388
_refine_ls_goodness_of_fit_ref   0.863
_refine_ls_restrained_S_all      0.862
_refine_ls_shift/su_max          0.001
_refine_ls_shift/su_mean         0.000

loop_
_atom_site_label
_atom_site_type_symbol
_atom_site_fract_x
_atom_site_fract_y
_atom_site_fract_z
_atom_site_U_iso_or_equiv
_atom_site_adp_type
_atom_site_occupancy
_atom_site_symmetry_multiplicity
_atom_site_calc_flag
_atom_site_refinement_flags
_atom_site_disorder_assembly
_atom_site_disorder_group
C1 C -0.109(2) 0.3781(9) 0.3409(6) 0.047(2) Uani 1 1 d U . .
C2 C -0.035(2) 0.3155(11) 0.3449(7) 0.0495(19) Uani 1 1 d U . .
C3 C 0.127(2) 0.3031(8) 0.3336(5) 0.0495(19) Uani 1 1 d U . .
H3 H 0.1856 0.3350 0.3217 0.059 Uiso 1 1 calc R . .
C7 C -0.124(2) 0.2694(9) 0.3635(5) 0.051(2) Uani 1 1 d U . .
H7 H -0.2332 0.2784 0.3725 0.061 Uiso 1 1 calc R . .
C6 C -0.056(2) 0.2098(10) 0.3692(5) 0.0495(19) Uani 1 1 d U . .
H6 H -0.1203 0.1782 0.3799 0.059 Uiso 1 1 calc R . .
C5 C 0.117(2) 0.1991(9) 0.3580(5) 0.0495(19) Uani 1 1 d U . .
C10 C 0.353(3) 0.1434(12) 0.3947(6) 0.068(5) Uani 1 1 d U . .
C11 C 0.308(3) 0.1124(9) 0.3268(5) 0.054(5) Uani 1 1 d U . .
C16 C 0.471(2) 0.0879(11) 0.3272(6) 0.0430(19) Uani 1 1 d U . .
H16 H 0.5378 0.0853 0.3479 0.052 Uiso 1 1 calc R . .
C15 C 0.524(2) 0.0676(9) 0.2937(5) 0.0430(19) Uani 1 1 d U . .
H15 H 0.6299 0.0473 0.2931 0.052 Uiso 1 1 calc R . .
C14 C 0.441(2) 0.0734(10) 0.2614(6) 0.047(2) Uani 1 1 d U . .
C13 C 0.272(2) 0.0967(9) 0.2627(5) 0.046(5) Uani 1 1 d U . .
H13 H 0.2049 0.0979 0.2419 0.055 Uiso 1 1 calc R . .
C12 C 0.205(3) 0.1181(10) 0.2962(5) 0.059(6) Uani 1 1 d U . .
H12 H 0.0951 0.1353 0.2977 0.071 Uiso 1 1 calc R . .
C18 C -0.106(2) 0.5702(9) 0.3950(5) 0.0430(19) Uani 1 1 d U . .
C19 C -0.0158(19) 0.6125(12) 0.4222(7) 0.0430(19) Uani 1 1 d U . .
C20 C -0.091(2) 0.6640(9) 0.4360(5) 0.051(2) Uani 1 1 d U . .
H20 H -0.2015 0.6740 0.4285 0.061 Uiso 1 1 calc R . .
C21 C -0.0119(19) 0.7022(12) 0.4604(7) 0.047(2) Uani 1 1 d U . .
H21 H -0.0666 0.7381 0.4688 0.057 Uiso 1 1 calc R . .
C22 C 0.153(2) 0.6866(9) 0.4728(5) 0.0430(19) Uani 1 1 d U . .
C23 C 0.229(2) 0.6344(9) 0.4587(5) 0.0495(19) Uani 1 1 d U . .
H23 H 0.3417 0.6255 0.4653 0.059 Uiso 1 1 calc R . .
C25 C 0.2500 0.7290(13) 0.5000 0.031(4) Uani 1 2 d SU . .
C17 C -0.4928(19) 0.4462(11) 0.2730(6) 0.0430(19) Uani 1 1 d U . .
C24 C 0.148(2) 0.5947(9) 0.4354(5) 0.051(2) Uani 1 1 d U . .
H24 H 0.1989 0.5572 0.4284 0.061 Uiso 1 1 calc R . .
C4 C 0.214(2) 0.2473(9) 0.3382(6) 0.0495(19) Uani 1 1 d U . .
H4 H 0.3244 0.2408 0.3295 0.059 Uiso 1 1 calc R . .
C9 C 0.082(3) 0.0838(11) 0.3736(8) 0.071(5) Uani 1 1 d U . .
C26 C 0.133(3) 0.7699(10) 0.5250(6) 0.055(4) Uani 1 1 d U . .
C8 C 0.208(3) 0.1328(10) 0.3626(5) 0.056(3) Uani 1 1 d U . .
F1 F -0.0491(18) 0.0784(7) 0.3527(4) 0.084(4) Uani 1 1 d U . .
F2 F 0.0190(17) 0.0916(9) 0.4079(4) 0.103(5) Uani 1 1 d U . .
F5 F 0.2668(15) 0.1741(6) 0.4222(3) 0.091(4) Uani 1 1 d U . .
F4 F 0.4738(16) 0.1811(8) 0.3840(4) 0.078(4) Uani 1 1 d U . .
F3 F 0.1619(17) 0.0275(5) 0.3733(3) 0.091(4) Uani 1 1 d U . .
F6 F 0.416(2) 0.0928(7) 0.4066(4) 0.105(5) Uani 1 1 d U . .
F7 F 0.0581(18) 0.8133(8) 0.5038(4) 0.088(5) Uani 1 1 d U . .
F8 F 0.2207(14) 0.7970(6) 0.5511(3) 0.085(4) Uani 1 1 d U . .
F9 F 0.0031(9) 0.7341(9) 0.5387(4) 0.063(4) Uani 1 1 d U . .
La1 La -0.29603(9) 0.49954(7) 0.33741(3) 0.0354(3) Uani 1 1 d U . .
O1 O -0.2628(13) 0.3881(6) 0.3503(4) 0.054(3) Uani 1 1 d U . .
O6 O -0.0274(13) 0.5224(6) 0.3802(3) 0.033(3) Uani 1 1 d U . .
O3 O -0.5725(15) 0.4446(6) 0.3027(3) 0.047(3) Uani 1 1 d U . .
O4 O -0.3371(15) 0.4672(6) 0.2740(3) 0.064(3) Uani 1 1 d U . .
O5 O -0.2590(12) 0.5842(6) 0.3857(4) 0.055(4) Uani 1 1 d U . .
O2 O -0.0232(13) 0.4232(8) 0.3260(4) 0.040(3) Uani 1 1 d U . .

loop_
_atom_site_aniso_label
_atom_site_aniso_U_11
_atom_site_aniso_U_22
_atom_site_aniso_U_33
_atom_site_aniso_U_23
_atom_site_aniso_U_13
_atom_site_aniso_U_12
C1 0.041(5) 0.047(4) 0.054(6) -0.018(4) -0.007(4) 0.003(4)
C2 0.057(4) 0.040(4) 0.052(6) -0.015(4) -0.005(4) 0.007(3)
C3 0.057(4) 0.040(4) 0.052(6) -0.015(4) -0.005(4) 0.007(3)
C7 0.046(5) 0.045(6) 0.061(9) -0.011(5) -0.014(5) 0.009(4)
C6 0.057(4) 0.040(4) 0.052(6) -0.015(4) -0.005(4) 0.007(3)
C5 0.057(4) 0.040(4) 0.052(6) -0.015(4) -0.005(4) 0.007(3)
C10 0.105(15) 0.058(15) 0.042(12) -0.010(10) -0.004(8) 0.027(8)
C11 0.064(10) 0.061(13) 0.037(9) -0.005(9) 0.001(7) 0.024(10)
C16 0.038(4) 0.050(5) 0.041(4) -0.014(4) -0.004(3) 0.005(3)
C15 0.038(4) 0.050(5) 0.041(4) -0.014(4) -0.004(3) 0.005(3)
C14 0.041(5) 0.047(4) 0.054(6) -0.018(4) -0.007(4) 0.003(4)
C13 0.054(10) 0.048(14) 0.036(9) -0.005(10) -0.008(8) 0.017(9)
C12 0.066(11) 0.068(16) 0.043(10) -0.015(12) 0.001(8) 0.022(12)
C18 0.038(4) 0.050(5) 0.041(4) -0.014(4) -0.004(3) 0.005(3)
C19 0.038(4) 0.050(5) 0.041(4) -0.014(4) -0.004(3) 0.005(3)
C20 0.046(5) 0.045(6) 0.061(9) -0.011(5) -0.014(5) 0.009(4)
C21 0.041(5) 0.047(4) 0.054(6) -0.018(4) -0.007(4) 0.003(4)
C22 0.038(4) 0.050(5) 0.041(4) -0.014(4) -0.004(3) 0.005(3)
C23 0.057(4) 0.040(4) 0.052(6) -0.015(4) -0.005(4) 0.007(3)
C25 0.009(11) 0.024(11) 0.060(14) 0.000 -0.003(6) 0.000
C17 0.038(4) 0.050(5) 0.041(4) -0.014(4) -0.004(3) 0.005(3)
C24 0.046(5) 0.045(6) 0.061(9) -0.011(5) -0.014(5) 0.009(4)
C4 0.057(4) 0.040(4) 0.052(6) -0.015(4) -0.005(4) 0.007(3)
C9 0.097(16) 0.040(9) 0.075(14) 0.002(13) 0.028(9) 0.014(9)
C26 0.063(13) 0.036(13) 0.065(16) -0.011(7) 0.001(8) 0.005(7)
C8 0.082(8) 0.045(7) 0.041(8) -0.004(8) 0.017(6) 0.021(6)
F1 0.105(9) 0.060(11) 0.087(10) 0.014(8) 0.009(8) -0.004(8)
F2 0.195(15) 0.057(12) 0.059(9) 0.016(9) 0.053(8) 0.013(8)
F5 0.136(12) 0.096(11) 0.041(8) -0.028(7) 0.002(6) 0.026(8)
F4 0.110(10) 0.085(12) 0.040(9) 0.004(9) -0.003(6) 0.009(7)
F3 0.115(10) 0.046(7) 0.111(11) 0.013(7) 0.032(8) 0.020(7)
F6 0.194(14) 0.072(10) 0.049(10) 0.009(8) -0.011(10) 0.060(10)
F7 0.112(12) 0.073(12) 0.081(10) -0.006(7) -0.017(8) 0.068(9)
F8 0.099(9) 0.092(11) 0.065(9) -0.036(7) -0.016(7) 0.002(7)
F9 0.006(6) 0.124(14) 0.059(10) -0.003(9) 0.000(4) 0.005(5)
La1 0.0352(4) 0.0372(5) 0.0339(5) -0.0022(8) -0.0095(6) 0.0010(9)
O1 0.042(6) 0.037(5) 0.081(10) 0.006(6) 0.006(5) 0.005(4)
O6 0.051(6) 0.028(7) 0.021(6) 0.004(5) -0.014(5) 0.012(4)
O3 0.053(6) 0.062(10) 0.027(7) -0.015(6) -0.010(4) -0.002(6)
O4 0.047(6) 0.099(11) 0.048(6) -0.017(5) -0.022(5) -0.020(7)
O5 0.022(6) 0.072(8) 0.070(9) -0.039(7) -0.007(5) 0.008(5)
O2 0.044(5) 0.045(7) 0.032(9) -0.007(5) 0.001(4) 0.007(5)

_geom_special_details            
;
All esds (except the esd in the dihedral angle between two l.s. planes)
are estimated using the full covariance matrix. The cell esds are taken
into account individually in the estimation of esds in distances, angles
and torsion angles; correlations between esds in cell parameters are only
used when they are defined by crystal symmetry. An approximate (isotropic)
treatment of cell esds is used for estimating esds involving l.s. planes.
;

loop_
_geom_bond_atom_site_label_1
_geom_bond_atom_site_label_2
_geom_bond_distance
_geom_bond_site_symmetry_2
_geom_bond_publ_flag
C1 O1 1.268(18) . ?
C1 O2 1.30(2) . ?
C1 C2 1.46(3) . ?
C1 La1 2.981(18) . ?
C2 C3 1.36(2) . ?
C2 C7 1.39(3) . ?
C3 C4 1.38(2) . ?
C3 H3 0.9300 . ?
C7 C6 1.40(2) . ?
C7 H7 0.9300 . ?
C6 C5 1.43(2) . ?
C6 H6 0.9300 . ?
C5 C4 1.47(2) . ?
C5 C8 1.59(3) . ?
C10 F6 1.26(2) . ?
C10 F4 1.30(3) . ?
C10 F5 1.39(2) . ?
C10 C8 1.66(3) . ?
C11 C16 1.37(2) . ?
C11 C12 1.40(2) . ?
C11 C8 1.60(2) . ?
C16 C15 1.38(3) . ?
C16 H16 0.9300 . ?
C15 C14 1.37(3) . ?
C15 H15 0.9300 . ?
C14 C13 1.41(2) . ?
C14 C17 1.43(3) 4_655 ?
C13 C12 1.42(2) . ?
C13 H13 0.9300 . ?
C12 H12 0.9300 . ?
C18 O5 1.278(17) . ?
C18 O6 1.31(2) . ?
C18 C19 1.52(3) . ?
C18 La1 3.003(18) . ?
C19 C20 1.35(3) . ?
C19 C24 1.42(2) . ?
C20 C21 1.37(3) . ?
C20 H20 0.9300 . ?
C21 C22 1.40(2) . ?
C21 H21 0.9300 . ?
C22 C23 1.37(2) . ?
C22 C25 1.55(2) . ?
C23 C24 1.36(2) . ?
C23 H23 0.9300 . ?
C25 C22 1.55(2) 2_556 ?
C25 C26 1.57(2) . ?
C25 C26 1.57(2) 2_556 ?
C17 O3 1.26(2) . ?
C17 O4 1.294(18) . ?
C17 C14 1.43(3) 4_455 ?
C17 La1 3.05(2) . ?
C24 H24 0.9300 . ?
C4 H4 0.9300 . ?
C9 F1 1.29(3) . ?
C9 F3 1.35(2) . ?
C9 F2 1.37(3) . ?
C9 C8 1.49(3) . ?
C26 F8 1.32(2) . ?
C26 F7 1.35(2) . ?
C26 F9 1.37(2) . ?
La1 O1 2.443(12) . ?
La1 O6 2.443(12) 6_565 ?
La1 O2 2.456(14) 6_565 ?
La1 O4 2.467(11) . ?
La1 O3 2.471(12) 6_665 ?
La1 O5 2.560(12) . ?
La1 O6 2.668(11) . ?
La1 O2 2.712(13) . ?
La1 O3 2.769(11) . ?
O6 La1 2.443(12) 6_665 ?
O3 La1 2.471(12) 6_565 ?
O2 La1 2.456(14) 6_665 ?

loop_
_geom_angle_atom_site_label_1
_geom_angle_atom_site_label_2
_geom_angle_atom_site_label_3
_geom_angle
_geom_angle_site_symmetry_1
_geom_angle_site_symmetry_3
_geom_angle_publ_flag
O1 C1 O2 118.5(18) . . ?
O1 C1 C2 120(2) . . ?
O2 C1 C2 121.5(18) . . ?
O1 C1 La1 53.2(10) . . ?
O2 C1 La1 65.5(10) . . ?
C2 C1 La1 173.0(16) . . ?
C3 C2 C7 118.6(19) . . ?
C3 C2 C1 121(2) . . ?
C7 C2 C1 120.3(19) . . ?
C2 C3 C4 126(2) . . ?
C2 C3 H3 117.1 . . ?
C4 C3 H3 117.1 . . ?
C2 C7 C6 122.0(19) . . ?
C2 C7 H7 119.0 . . ?
C6 C7 H7 119.0 . . ?
C7 C6 C5 118(2) . . ?
C7 C6 H6 121.2 . . ?
C5 C6 H6 121.2 . . ?
C6 C5 C4 121.0(17) . . ?
C6 C5 C8 121.9(17) . . ?
C4 C5 C8 116.8(16) . . ?
F6 C10 F4 111(2) . . ?
F6 C10 F5 110(2) . . ?
F4 C10 F5 106(2) . . ?
F6 C10 C8 113(2) . . ?
F4 C10 C8 111(2) . . ?
F5 C10 C8 104.8(18) . . ?
C16 C11 C12 125.3(19) . . ?
C16 C11 C8 123.2(17) . . ?
C12 C11 C8 111.3(18) . . ?
C11 C16 C15 113.1(18) . . ?
C11 C16 H16 123.5 . . ?
C15 C16 H16 123.5 . . ?
C14 C15 C16 128.0(18) . . ?
C14 C15 H15 116.0 . . ?
C16 C15 H15 116.0 . . ?
C15 C14 C13 116(2) . . ?
C15 C14 C17 125.6(19) . 4_655 ?
C13 C14 C17 117.9(18) . 4_655 ?
C14 C13 C12 119.3(18) . . ?
C14 C13 H13 120.4 . . ?
C12 C13 H13 120.4 . . ?
C11 C12 C13 117.7(19) . . ?
C11 C12 H12 121.1 . . ?
C13 C12 H12 121.1 . . ?
O5 C18 O6 120.4(17) . . ?
O5 C18 C19 117.9(17) . . ?
O6 C18 C19 121.6(16) . . ?
O5 C18 La1 57.7(9) . . ?
O6 C18 La1 62.7(9) . . ?
C19 C18 La1 173.8(14) . . ?
C20 C19 C24 119(2) . . ?
C20 C19 C18 122.3(16) . . ?
C24 C19 C18 118.9(19) . . ?
C19 C20 C21 123.0(19) . . ?
C19 C20 H20 118.5 . . ?
C21 C20 H20 118.5 . . ?
C20 C21 C22 119(2) . . ?
C20 C21 H21 120.5 . . ?
C22 C21 H21 120.5 . . ?
C23 C22 C21 117.9(18) . . ?
C23 C22 C25 120.8(16) . . ?
C21 C22 C25 121.3(17) . . ?
C24 C23 C22 123.2(18) . . ?
C24 C23 H23 118.4 . . ?
C22 C23 H23 118.4 . . ?
C22 C25 C22 109(2) . 2_556 ?
C22 C25 C26 115.2(10) . . ?
C22 C25 C26 103.1(10) 2_556 . ?
C22 C25 C26 103.1(11) . 2_556 ?
C22 C25 C26 115.2(10) 2_556 2_556 ?
C26 C25 C26 112(2) . 2_556 ?
O3 C17 O4 116.5(18) . . ?
O3 C17 C14 126.0(17) . 4_455 ?
O4 C17 C14 117.5(19) . 4_455 ?
O3 C17 La1 65.0(10) . . ?
O4 C17 La1 51.5(10) . . ?
C14 C17 La1 168.7(15) 4_455 . ?
C23 C24 C19 117.9(18) . . ?
C23 C24 H24 121.0 . . ?
C19 C24 H24 121.0 . . ?
C3 C4 C5 114.7(18) . . ?
C3 C4 H4 122.7 . . ?
C5 C4 H4 122.7 . . ?
F1 C9 F3 106(2) . . ?
F1 C9 F2 106(2) . . ?
F3 C9 F2 106(2) . . ?
F1 C9 C8 115(2) . . ?
F3 C9 C8 108.8(19) . . ?
F2 C9 C8 114(2) . . ?
F8 C26 F7 110.5(18) . . ?
F8 C26 F9 111.0(18) . . ?
F7 C26 F9 106.3(18) . . ?
F8 C26 C25 112.2(16) . . ?
F7 C26 C25 107.0(17) . . ?
F9 C26 C25 109.7(17) . . ?
C9 C8 C5 111.4(17) . . ?
C9 C8 C11 110.9(19) . . ?
C5 C8 C11 111.8(15) . . ?
C9 C8 C10 110.4(19) . . ?
C5 C8 C10 105.0(17) . . ?
C11 C8 C10 107.2(16) . . ?
O1 La1 O6 76.4(4) . 6_565 ?
O1 La1 O2 139.9(4) . 6_565 ?
O6 La1 O2 73.0(4) 6_565 6_565 ?
O1 La1 O4 85.7(4) . . ?
O6 La1 O4 117.8(4) 6_565 . ?
O2 La1 O4 86.1(5) 6_565 . ?
O1 La1 O3 119.8(4) . 6_665 ?
O6 La1 O3 161.6(4) 6_565 6_665 ?
O2 La1 O3 95.4(4) 6_565 6_665 ?
O4 La1 O3 74.5(4) . 6_665 ?
O1 La1 O5 122.8(4) . . ?
O6 La1 O5 76.5(4) 6_565 . ?
O2 La1 O5 74.1(4) 6_565 . ?
O4 La1 O5 151.2(4) . . ?
O3 La1 O5 86.7(4) 6_665 . ?
O1 La1 O6 88.8(4) . . ?
O6 La1 O6 103.3(4) 6_565 . ?
O2 La1 O6 122.9(4) 6_565 . ?
O4 La1 O6 135.8(4) . . ?
O3 La1 O6 70.5(4) 6_665 . ?
O5 La1 O6 50.9(3) . . ?
O1 La1 O2 50.3(4) . . ?
O6 La1 O2 124.3(3) 6_565 . ?
O2 La1 O2 160.5(6) 6_565 . ?
O4 La1 O2 77.6(4) . . ?
O3 La1 O2 70.0(4) 6_665 . ?
O5 La1 O2 116.4(4) . . ?
O6 La1 O2 65.6(4) . . ?
O1 La1 O3 76.1(4) . . ?
O6 La1 O3 69.2(4) 6_565 . ?
O2 La1 O3 69.2(4) 6_565 . ?
O4 La1 O3 48.7(4) . . ?
O3 La1 O3 120.8(5) 6_665 . ?
O5 La1 O3 135.3(3) . . ?
O6 La1 O3 164.3(4) . . ?
O2 La1 O3 106.4(4) . . ?
O1 La1 C1 24.6(4) . . ?
O6 La1 C1 99.6(5) 6_565 . ?
O2 La1 C1 161.0(5) 6_565 . ?
O4 La1 C1 82.0(5) . . ?
O3 La1 C1 95.6(5) 6_665 . ?
O5 La1 C1 122.0(4) . . ?
O6 La1 C1 75.5(4) . . ?
O2 La1 C1 25.7(4) . . ?
O3 La1 C1 91.8(4) . . ?
O1 La1 C18 107.4(4) . . ?
O6 La1 C18 90.1(4) 6_565 . ?
O2 La1 C18 98.0(5) 6_565 . ?
O4 La1 C18 151.6(5) . . ?
O3 La1 C18 77.2(5) 6_665 . ?
O5 La1 C18 25.0(4) . . ?
O6 La1 C18 25.9(4) . . ?
O2 La1 C18 91.5(4) . . ?
O3 La1 C18 157.8(4) 