
#######################################################################
#
#                 Cambridge Crystallographic Data Centre
#                                CCDC
#
#######################################################################
#
# If this CIF has been generated from an entry in the Cambridge
# Structural Database, then it will include bibliographic, chemical,
# crystal, experimental, refinement or atomic coordinate data resulting
# from the CCDC's data processing and validation procedures.
#
#######################################################################

data_CSD_CIF_GLUCIT03
_audit_creation_date 2005-04-18
_audit_creation_method CSD-ConQuest-V1
_database_code_CSD GLUCIT03
_database_code_depnum_ccdc_archive 'CCDC 254343'
_chemical_formula_sum 'C6 H14 O6'
_chemical_formula_moiety
;
C6 H14 O6
;
_journal_coeditor_code "IUCr HX5008"
_journal_coden_Cambridge 228
_journal_volume 37
_journal_year 2004
_journal_page_first 766
_journal_name_full 'J.Appl.Crystallogr. '
loop_
_publ_author_name
"M.Rukiah"
"J.Lefebvre"
"O.Hernandez"
"W.Van Beek"
"M.Serpelloni"
_chemical_name_systematic
;
D-Sorbitol
;
_chemical_name_common
;
D-Glucitol; Teaching Subset: Fundamental Chemistry; Sorbitol: DrugBank: 
DB01638
;
_cell_volume   2433.301
_exptl_special_details
;
gamma polymorph
powder data

;
_diffrn_ambient_temperature 295
_diffrn_radiation_probe x-ray
_diffrn_source synchrotron
#These two values have been output from a single CSD field.
_refine_ls_R_factor_gt 0.0377
_refine_ls_wR_factor_gt 0.0377
_symmetry_cell_setting orthorhombic
_symmetry_space_group_name_H-M 'P 21 21 2'
_symmetry_Int_Tables_number 18
loop_
_symmetry_equiv_pos_site_id
_symmetry_equiv_pos_as_xyz
1 x,y,z
2 1/2+x,1/2-y,-z
3 1/2-x,1/2+y,-z
4 -x,-y,z
_cell_length_a 24.30122(17)
_cell_length_b 20.57261(14)
_cell_length_c 4.86719(3)
_cell_angle_alpha 90
_cell_angle_beta 90
_cell_angle_gamma 90
_cell_formula_units_Z 12
loop_
_atom_type_symbol
_atom_type_radius_bond
C 0.68
H 0.23
O 0.68
loop_
_atom_site_label
_atom_site_type_symbol
_atom_site_fract_x
_atom_site_fract_y
_atom_site_fract_z
C1 C 0.36472(15) 0.51245(19) 0.6125(10)
C2 C 0.41877(13) 0.50350(11) 0.4570(7)
C3 C 0.41601(15) 0.44029(12) 0.2907(6)
C4 C 0.42261(14) 0.38001(11) 0.4713(7)
C5 C 0.41697(16) 0.31586(11) 0.3152(7)
C6 C 0.42283(19) 0.2534(2) 0.4798(10)
O1 O 0.36953(15) 0.56981(15) 0.7773(7)
O2 O 0.42365(16) 0.55813(15) 0.2784(7)
O3 O 0.46221(13) 0.44282(18) 0.1099(8)
O4 O 0.47456(11) 0.37937(18) 0.6094(8)
O5 O 0.37078(13) 0.31704(18) 0.1344(7)
O6 O 0.37906(13) 0.25555(19) 0.6723(7)
H1 H 0.33360 0.51660 0.48090
H2 H 0.35800 0.47360 0.73380
H3 H 0.45050 0.50210 0.58810
H4 H 0.38090 0.43810 0.18380
H5 H 0.39310 0.38130 0.61450
H6 H 0.44940 0.31540 0.18870
H7 H 0.41950 0.21460 0.35830
H8 H 0.45920 0.25210 0.57630
H9 H 0.33379 0.58747 0.75049
H10 H 0.45349 0.56125 0.27003
H11 H 0.45930 0.42230 -0.03062
H12 H 0.47024 0.36535 0.75735
H13 H 0.33798 0.32362 0.20605
H14 H 0.34860 0.26271 0.60495
C7 C 0.10186(15) 0.22078(19) 0.3416(9)
C8 C 0.07691(11) 0.27904(15) 0.1977(7)
C9 C 0.11906(12) 0.31472(16) 0.0233(7)
C10 C 0.16296(11) 0.34940(16) 0.1958(7)
C11 C 0.20804(11) 0.37951(16) 0.0202(7)
C12 C 0.25327(19) 0.41219(17) 0.187(1)
O7 O 0.06459(13) 0.19346(18) 0.5354(7)
O8 O 0.03162(13) 0.25723(19) 0.0365(7)
O9 O 0.09113(15) 0.36106(15) -0.1473(7)
O10 O 0.13952(14) 0.40146(15) 0.3502(7)
O11 O 0.23291(16) 0.32992(16) -0.1452(8)
O12 O 0.27807(15) 0.36617(14) 0.3701(8)
H15 H 0.11220 0.18740 0.20330
H16 H 0.13600 0.23520 0.44210
H17 H 0.06270 0.30980 0.34040
H18 H 0.13780 0.28240 -0.09810
H19 H 0.17990 0.31740 0.32540
H20 H 0.19110 0.41260 -0.10430
H21 H 0.28180 0.43010 0.06020
H22 H 0.23710 0.44880 0.29640
H23 H 0.06385 0.15432 0.55250
H24 H 0.04755 0.23840 -0.14054
H25 H 0.10669 0.35595 -0.28832
H26 H 0.13148 0.41060 0.50022
H27 H 0.21536 0.32980 -0.26875
H28 H 0.28423 0.38638 0.50852
C13 C 0.4478(2) 0.10689(15) 0.9420(12)
C14 C 0.41397(10) 0.05197(16) 0.8158(7)
C15 C 0.36336(11) 0.07649(19) 0.6578(7)
C16 C 0.31614(11) 0.10469(16) 0.8290(7)
C17 C 0.26915(11) 0.13216(16) 0.6570(7)
C18 C 0.22303(14) 0.1562(2) 0.8399(9)
O13 O 0.48932(15) 0.0791(2) 1.1122(8)
O14 O 0.45244(14) 0.0260(2) 0.6236(7)
O15 O 0.34700(17) 0.02917(17) 0.4592(7)
O16 O 0.29366(15) 0.05072(15) 0.9758(9)
O17 O 0.29054(15) 0.18453(16) 0.5000(9)
O18 O 0.24119(16) 0.20219(16) 1.0400(8)
H29 H 0.46510 0.13340 0.79340
H30 H 0.42330 0.13560 1.05490
H31 H 0.40350 0.01890 0.95710
H32 H 0.37720 0.11400 0.54720
H33 H 0.33020 0.13830 0.95990
H34 H 0.25490 0.09770 0.53100
H35 H 0.19430 0.17720 0.72210
H36 H 0.20640 0.11820 0.93680
H37 H 0.52151 0.07209 1.03566
H38 H 0.43449 0.00434 0.43925
H39 H 0.32332 0.00529 0.52058
H40 H 0.30225 0.05733 1.11887
H41 H 0.31953 0.17597 0.44736
H42 H 0.23909 0.23850 0.95956
#END
