####################################################################### 
# 
# This file contains crystal structure data downloaded from the 
# Cambridge Structural Database (CSD) hosted by the Cambridge 
# Crystallographic Data Centre (CCDC).
# 
# Full information about CCDC data access policies and citation 
# guidelines are available at http://www.ccdc.cam.ac.uk/access/V1 
# 
# Audit and citation data items may have been added by the CCDC. 
# Please retain this information to preserve the provenance of 
# this file and to allow appropriate attribution of the data. 
# 
#######################################################################

data_70514d
_audit_block_doi                 10.5517/ccqnhc6
_database_code_depnum_ccdc_archive 'CCDC 675098'
loop_
_citation_id
_citation_doi
_citation_year
1 10.1016/j.poly.2008.04.051 2008
_audit_update_record             
;
2008-01-18 deposited with the CCDC.	2024-07-10 downloaded from the CCDC.
;

_audit_creation_method           SHELXL-97
_chemical_name_systematic        
;
?
;
_chemical_name_common            ?
_chemical_melting_point          ?
_chemical_formula_moiety         ?
_chemical_formula_sum            'C72 H68 Cl4 N20 O8 Zn2'
_chemical_formula_weight         1614.00

loop_
_atom_type_symbol
_atom_type_description
_atom_type_scat_dispersion_real
_atom_type_scat_dispersion_imag
_atom_type_scat_source
C C 0.0033 0.0016 'International Tables Vol C Tables 4.2.6.8 and 6.1.1.4'
H H 0.0000 0.0000 'International Tables Vol C Tables 4.2.6.8 and 6.1.1.4'
Cl Cl 0.1484 0.1585 'International Tables Vol C Tables 4.2.6.8 and 6.1.1.4'
O O 0.0106 0.0060 'International Tables Vol C Tables 4.2.6.8 and 6.1.1.4'
Zn Zn 0.2839 1.4301 'International Tables Vol C Tables 4.2.6.8 and 6.1.1.4'
N N 0.0061 0.0033 'International Tables Vol C Tables 4.2.6.8 and 6.1.1.4'

_symmetry_cell_setting           monoclinic
_symmetry_space_group_name_H-M   P2/c
_symmetry_space_group_name_Hall  '-P 2yc'

loop_
_symmetry_equiv_pos_as_xyz
'x, y, z'
'-x, y, -z+1/2'
'-x, -y, -z'
'x, -y, z-1/2'

_cell_length_a                   12.087(2)
_cell_length_b                   10.0316(18)
_cell_length_c                   17.466(3)
_cell_angle_alpha                90.00
_cell_angle_beta                 101.142(4)
_cell_angle_gamma                90.00
_cell_volume                     2077.9(6)
_cell_formula_units_Z            1
_cell_measurement_temperature    291(2)
_cell_measurement_reflns_used    1342
_cell_measurement_theta_min      2.25
_cell_measurement_theta_max      25.56

_exptl_crystal_description       block
_exptl_crystal_colour            yelllow
_exptl_crystal_size_max          0.30
_exptl_crystal_size_mid          0.26
_exptl_crystal_size_min          0.24
_exptl_crystal_density_meas      ?
_exptl_crystal_density_diffrn    1.290
_exptl_crystal_density_method    'not measured'
_exptl_crystal_F_000             832
_exptl_absorpt_coefficient_mu    0.768
_exptl_absorpt_correction_type   multi-scan
_exptl_absorpt_correction_T_min  0.8024
_exptl_absorpt_correction_T_max  0.8322
_exptl_absorpt_process_details   'SADABS; Bruker, 2000'

_exptl_special_details           
;
?
;

_diffrn_ambient_temperature      291(2)
_diffrn_radiation_wavelength     0.71073
_diffrn_radiation_type           MoK\a
_diffrn_radiation_source         'sealed tube'
_diffrn_radiation_monochromator  graphite
_diffrn_measurement_device_type  'Bruker Smart Apex CCD '
_diffrn_measurement_method       'phi and omega scans'
_diffrn_detector_area_resol_mean ?
_diffrn_standards_number         ?
_diffrn_standards_interval_count ?
_diffrn_standards_interval_time  ?
_diffrn_standards_decay_%        ?
_diffrn_reflns_number            10951
_diffrn_reflns_av_R_equivalents  0.0401
_diffrn_reflns_av_sigmaI/netI    0.0605
_diffrn_reflns_limit_h_min       -13
_diffrn_reflns_limit_h_max       14
_diffrn_reflns_limit_k_min       -12
_diffrn_reflns_limit_k_max       12
_diffrn_reflns_limit_l_min       -20
_diffrn_reflns_limit_l_max       21
_diffrn_reflns_theta_min         2.03
_diffrn_reflns_theta_max         26.00
_reflns_number_total             4086
_reflns_number_gt                3000
_reflns_threshold_expression     >2sigma(I)

_computing_data_collection       'SMART (Bruker, 2000)'
_computing_cell_refinement       'SMART (Bruker, 2000)'
_computing_data_reduction        'SAINT (Bruker, 2000)'
_computing_structure_solution    'SHELXTL (Bruker, 2000)'
_computing_structure_refinement  'SHELXTL (Bruker, 2000)'
_computing_molecular_graphics    'SHELXTL (Bruker, 2000)'
_computing_publication_material  'SHELXTL (Bruker, 2000)'

_refine_special_details          
;
Refinement of F^2^ against ALL reflections. The weighted R-factor wR and
goodness of fit S are based on F^2^, conventional R-factors R are based
on F, with F set to zero for negative F^2^. The threshold expression of
F^2^ > 2sigma(F^2^) is used only for calculating R-factors(gt) etc. and is
not relevant to the choice of reflections for refinement. R-factors based
on F^2^ are statistically about twice as large as those based on F, and R-
factors based on ALL data will be even larger.
;

_refine_ls_structure_factor_coef Fsqd
_refine_ls_matrix_type           full
_refine_ls_weighting_scheme      calc
_refine_ls_weighting_details     
'calc w=1/[\s^2^(Fo^2^)+(0.0600P)^2^+1.9900P] where P=(Fo^2^+2Fc^2^)/3'
_atom_sites_solution_primary     direct
_atom_sites_solution_secondary   difmap
_atom_sites_solution_hydrogens   geom
_refine_ls_hydrogen_treatment    constr
_refine_ls_extinction_method     none
_refine_ls_extinction_coef       ?
_refine_ls_number_reflns         4086
_refine_ls_number_parameters     249
_refine_ls_number_restraints     0
_refine_ls_R_factor_all          0.0910
_refine_ls_R_factor_gt           0.0592
_refine_ls_wR_factor_ref         0.1322
_refine_ls_wR_factor_gt          0.1224
_refine_ls_goodness_of_fit_ref   0.970
_refine_ls_restrained_S_all      0.970
_refine_ls_shift/su_max          0.000
_refine_ls_shift/su_mean         0.000

loop_
_atom_site_label
_atom_site_type_symbol
_atom_site_fract_x
_atom_site_fract_y
_atom_site_fract_z
_atom_site_U_iso_or_equiv
_atom_site_adp_type
_atom_site_occupancy
_atom_site_symmetry_multiplicity
_atom_site_calc_flag
_atom_site_refinement_flags
_atom_site_disorder_assembly
_atom_site_disorder_group
C1 C 0.3576(3) -0.2581(3) 0.23636(19) 0.0261(7) Uani 1 1 d . . .
H1 H 0.3882 -0.2456 0.1920 0.031 Uiso 1 1 calc R . .
C2 C 0.2843(3) -0.1648(3) 0.25474(18) 0.0237(6) Uani 1 1 d . . .
H2 H 0.2696 -0.0881 0.2246 0.028 Uiso 1 1 calc R . .
C3 C 0.2322(3) -0.1835(3) 0.3174(2) 0.0323(8) Uani 1 1 d . . .
C4 C 0.2586(3) -0.3008(3) 0.36346(18) 0.0276(7) Uani 1 1 d . . .
H4 H 0.2235 -0.3188 0.4052 0.033 Uiso 1 1 calc R . .
C5 C 0.3370(3) -0.3854(4) 0.3443(2) 0.0363(8) Uani 1 1 d . . .
H5 H 0.3577 -0.4589 0.3764 0.044 Uiso 1 1 calc R . .
C6 C 0.1509(3) -0.0903(3) 0.3389(2) 0.0320(7) Uani 1 1 d . . .
C7 C 0.1508(3) 0.0517(3) 0.33583(19) 0.0263(7) Uani 1 1 d . . .
C8 C 0.0044(3) -0.0154(3) 0.38063(19) 0.0295(7) Uani 1 1 d . . .
C9 C -0.1003(3) -0.0106(3) 0.41127(18) 0.0309(7) Uani 1 1 d . . .
C10 C -0.1556(3) 0.1068(4) 0.41377(18) 0.0371(9) Uani 1 1 d . . .
H10 H -0.1275 0.1859 0.3973 0.045 Uiso 1 1 calc R . .
C11 C -0.2577(4) 0.1045(4) 0.4425(2) 0.0481(10) Uani 1 1 d . . .
H11 H -0.2954 0.1846 0.4455 0.058 Uiso 1 1 calc R . .
C12 C -0.2502(3) -0.1211(4) 0.4637(2) 0.0466(10) Uani 1 1 d . . .
H12 H -0.2808 -0.1980 0.4809 0.056 Uiso 1 1 calc R . .
C13 C -0.1467(3) -0.1292(4) 0.43583(19) 0.0354(8) Uani 1 1 d . . .
H13 H -0.1105 -0.2106 0.4339 0.043 Uiso 1 1 calc R . .
C14 C 0.2304(3) 0.1434(3) 0.3127(2) 0.0338(8) Uani 1 1 d . . .
C15 C 0.3438(3) 0.1263(3) 0.33590(19) 0.0284(7) Uani 1 1 d . . .
H15 H 0.3720 0.0509 0.3640 0.034 Uiso 1 1 calc R . .
C16 C 0.4178(2) 0.2238(3) 0.3168(2) 0.0295(7) Uani 1 1 d . . .
H16 H 0.4946 0.2133 0.3360 0.035 Uiso 1 1 calc R . .
C17 C 0.2727(3) 0.3478(3) 0.25261(19) 0.0304(7) Uani 1 1 d . . .
H17 H 0.2464 0.4254 0.2261 0.037 Uiso 1 1 calc R . .
C18 C 0.1937(3) 0.2587(3) 0.2684(2) 0.0350(8) Uani 1 1 d . . .
H18 H 0.1173 0.2740 0.2503 0.042 Uiso 1 1 calc R . .
N1 N 0.3875(2) -0.3698(2) 0.28129(16) 0.0301(6) Uani 1 1 d . . .
N2 N 0.0589(2) -0.1283(3) 0.36626(16) 0.0332(7) Uani 1 1 d . . .
N3 N 0.0567(2) 0.0960(3) 0.35954(16) 0.0281(6) Uani 1 1 d . . .
H3A H 0.0338 0.1811 0.3616 0.034 Uiso 1 1 d R . .
N4 N -0.3026(3) -0.0074(3) 0.46544(18) 0.0401(7) Uani 1 1 d . . .
N5 N 0.3835(2) 0.3315(3) 0.27232(16) 0.0282(6) Uani 1 1 d . . .
O1 O -0.0248(5) 0.5964(5) 0.3419(3) 0.0425(12) Uani 0.50 1 d P . .
H1B H 0.0199 0.6192 0.3122 0.064 Uiso 0.50 1 d PR . .
H1C H -0.0920 0.5949 0.3160 0.064 Uiso 0.50 1 d PR . .
O2 O 0.0308(4) 0.3763(4) 0.4012(3) 0.0316(10) Uani 0.50 1 d P . .
H2A H 0.0747 0.4241 0.3802 0.047 Uiso 0.50 1 d PR . .
H2B H -0.0371 0.3997 0.3841 0.047 Uiso 0.50 1 d PR . .
O3 O 0.5159(2) 0.1119(3) 0.52443(15) 0.0442(6) Uani 1 1 d . . .
H3X H 0.4745 0.1157 0.4792 0.053 Uiso 1 1 d R . .
H3Y H 0.5842 0.1006 0.5202 0.053 Uiso 1 1 d R . .
Cl1 Cl 0.59800(8) -0.52322(9) 0.38317(5) 0.0426(2) Uani 1 1 d . . .
Zn1 Zn 0.5000 -0.51886(6) 0.2500 0.03837(19) Uani 1 2 d S . .

loop_
_atom_site_aniso_label
_atom_site_aniso_U_11
_atom_site_aniso_U_22
_atom_site_aniso_U_33
_atom_site_aniso_U_23
_atom_site_aniso_U_13
_atom_site_aniso_U_12
C1 0.0170(15) 0.0252(15) 0.0342(17) 0.0062(13) -0.0001(13) 0.0061(12)
C2 0.0205(15) 0.0209(14) 0.0310(16) 0.0019(13) 0.0088(12) -0.0035(12)
C3 0.0321(19) 0.0259(16) 0.0420(19) -0.0095(14) 0.0149(15) 0.0007(14)
C4 0.0247(16) 0.0299(16) 0.0282(17) -0.0023(13) 0.0050(13) -0.0087(13)
C5 0.038(2) 0.0354(18) 0.0395(19) 0.0034(15) 0.0180(16) -0.0030(16)
C6 0.0312(18) 0.0262(16) 0.0394(19) 0.0063(14) 0.0087(15) 0.0006(14)
C7 0.0209(15) 0.0258(16) 0.0338(17) -0.0002(13) 0.0092(13) 0.0037(13)
C8 0.0298(17) 0.0281(16) 0.0321(17) 0.0001(13) 0.0101(14) 0.0053(14)
C9 0.0284(16) 0.043(2) 0.0238(15) 0.0044(14) 0.0117(13) -0.0080(15)
C10 0.046(2) 0.048(2) 0.0191(16) 0.0032(15) 0.0115(15) 0.0119(17)
C11 0.054(3) 0.048(2) 0.050(2) -0.0007(18) 0.029(2) 0.0047(19)
C12 0.037(2) 0.057(3) 0.051(2) 0.0162(19) 0.0248(18) -0.0084(19)
C13 0.0257(18) 0.057(2) 0.0276(17) -0.0013(16) 0.0145(14) -0.0106(16)
C14 0.0212(17) 0.0285(17) 0.053(2) -0.0031(15) 0.0104(15) -0.0058(13)
C15 0.0200(16) 0.0244(15) 0.0423(19) 0.0136(14) 0.0095(14) 0.0055(12)
C16 0.0086(14) 0.0358(18) 0.0445(19) 0.0072(15) 0.0058(13) 0.0095(12)
C17 0.0311(18) 0.0245(15) 0.0340(17) -0.0003(14) 0.0018(14) 0.0031(14)
C18 0.0221(17) 0.0362(18) 0.046(2) 0.0106(16) 0.0050(15) -0.0034(14)
N1 0.0387(17) 0.0199(13) 0.0373(15) 0.0024(11) 0.0215(13) -0.0104(12)
N2 0.0282(15) 0.0354(15) 0.0376(16) 0.0128(13) 0.0101(13) 0.0065(12)
N3 0.0255(15) 0.0227(13) 0.0394(16) -0.0015(12) 0.0141(12) -0.0006(11)
N4 0.0356(17) 0.0498(19) 0.0363(16) 0.0057(14) 0.0105(13) -0.0027(15)
N5 0.0186(14) 0.0276(14) 0.0333(15) -0.0041(11) -0.0078(11) -0.0056(11)
O1 0.048(3) 0.035(3) 0.045(3) -0.011(2) 0.011(2) 0.005(2)
O2 0.041(3) 0.026(2) 0.033(2) -0.0101(19) 0.019(2) -0.002(2)
O3 0.0426(16) 0.0530(16) 0.0388(14) 0.0115(12) 0.0128(12) -0.0048(12)
Cl1 0.0409(5) 0.0438(5) 0.0437(5) 0.0001(4) 0.0093(4) 0.0004(4)
Zn1 0.0377(3) 0.0373(3) 0.0407(4) 0.000 0.0090(3) 0.000

_geom_special_details            
;
All esds (except the esd in the dihedral angle between two l.s. planes)
are estimated using the full covariance matrix. The cell esds are taken
into account individually in the estimation of esds in distances, angles
and torsion angles; correlations between esds in cell parameters are only
used when they are defined by crystal symmetry. An approximate (isotropic)
treatment of cell esds is used for estimating esds involving l.s. planes.
;

loop_
_geom_bond_atom_site_label_1
_geom_bond_atom_site_label_2
_geom_bond_distance
_geom_bond_site_symmetry_2
_geom_bond_publ_flag
C1 C2 1.369(4) . ?
C1 N1 1.375(4) . ?
C1 H1 0.9300 . ?
C2 C3 1.377(4) . ?
C2 H2 0.9300 . ?
C3 C4 1.426(5) . ?
C3 C6 1.457(5) . ?
C4 C5 1.361(5) . ?
C4 H4 0.9300 . ?
C5 N1 1.367(4) . ?
C5 H5 0.9300 . ?
C6 N2 1.347(4) . ?
C6 C7 1.426(4) . ?
C7 N3 1.358(4) . ?
C7 C14 1.444(4) . ?
C8 N2 1.359(4) . ?
C8 N3 1.369(4) . ?
C8 C9 1.467(4) . ?
C9 C10 1.359(5) . ?
C9 C13 1.417(5) . ?
C10 C11 1.420(5) . ?
C10 H10 0.9300 . ?
C11 N4 1.342(5) . ?
C11 H11 0.9300 . ?
C12 N4 1.307(5) . ?
C12 C13 1.430(5) . ?
C12 H12 0.9300 . ?
C13 H13 0.9300 . ?
C14 C15 1.363(5) . ?
C14 C18 1.414(5) . ?
C15 C16 1.408(4) . ?
C15 H15 0.9300 . ?
C16 N5 1.349(4) . ?
C16 H16 0.9300 . ?
C17 N5 1.327(4) . ?
C17 C18 1.373(5) . ?
C17 H17 0.9300 . ?
C18 H18 0.9300 . ?
N1 Zn1 2.162(3) . ?
N3 H3A 0.9000 . ?
N5 Zn1 2.145(3) 1_565 ?
O1 H1B 0.8500 . ?
O1 H1C 0.8500 . ?
O2 H2A 0.8500 . ?
O2 H2B 0.8499 . ?
O3 H3X 0.8500 . ?
O3 H3Y 0.8500 . ?
Cl1 Zn1 2.3980(10) . ?
Zn1 N5 2.145(3) 1_545 ?
Zn1 N5 2.145(3) 2_645 ?
Zn1 N1 2.162(3) 2_655 ?
Zn1 Cl1 2.3980(10) 2_655 ?

loop_
_geom_angle_atom_site_label_1
_geom_angle_atom_site_label_2
_geom_angle_atom_site_label_3
_geom_angle
_geom_angle_site_symmetry_1
_geom_angle_site_symmetry_3
_geom_angle_publ_flag
C2 C1 N1 122.2(3) . . ?
C2 C1 H1 118.9 . . ?
N1 C1 H1 118.9 . . ?
C1 C2 C3 120.6(3) . . ?
C1 C2 H2 119.7 . . ?
C3 C2 H2 119.7 . . ?
C2 C3 C4 118.3(3) . . ?
C2 C3 C6 123.5(3) . . ?
C4 C3 C6 118.2(3) . . ?
C5 C4 C3 117.8(3) . . ?
C5 C4 H4 121.1 . . ?
C3 C4 H4 121.1 . . ?
C4 C5 N1 124.5(3) . . ?
C4 C5 H5 117.7 . . ?
N1 C5 H5 117.7 . . ?
N2 C6 C7 107.6(3) . . ?
N2 C6 C3 123.6(3) . . ?
C7 C6 C3 128.8(3) . . ?
N3 C7 C6 108.0(3) . . ?
N3 C7 C14 121.3(3) . . ?
C6 C7 C14 130.7(3) . . ?
N2 C8 N3 111.4(3) . . ?
N2 C8 C9 125.3(3) . . ?
N3 C8 C9 123.2(3) . . ?
C10 C9 C13 119.5(3) . . ?
C10 C9 C8 120.3(3) . . ?
C13 C9 C8 120.2(3) . . ?
C9 C10 C11 117.6(4) . . ?
C9 C10 H10 121.2 . . ?
C11 C10 H10 121.2 . . ?
N4 C11 C10 123.3(4) . . ?
N4 C11 H11 118.4 . . ?
C10 C11 H11 118.4 . . ?
N4 C12 C13 121.1(3) . . ?
N4 C12 H12 119.4 . . ?
C13 C12 H12 119.4 . . ?
C9 C13 C12 118.6(4) . . ?
C9 C13 H13 120.7 . . ?
C12 C13 H13 120.7 . . ?
C15 C14 C18 117.2(3) . . ?
C15 C14 C7 121.5(3) . . ?
C18 C14 C7 121.2(3) . . ?
C14 C15 C16 119.3(3) . . ?
C14 C15 H15 120.3 . . ?
C16 C15 H15 120.3 . . ?
N5 C16 C15 123.7(3) . . ?
N5 C16 H16 118.1 . . ?
C15 C16 H16 118.1 . . ?
N5 C17 C18 125.0(3) . . ?
N5 C17 H17 117.5 . . ?
C18 C17 H17 117.5 . . ?
C17 C18 C14 119.0(3) . . ?
C17 C18 H18 120.5 . . ?
C14 C18 H18 120.5 . . ?
C5 N1 C1 116.4(3) . . ?
C5 N1 Zn1 121.7(2) . . ?
C1 N1 Zn1 121.9(2) . . ?
C6 N2 C8 107.0(3) . . ?
C7 N3 C8 105.8(3) . . ?
C7 N3 H3A 127.1 . . ?
C8 N3 H3A 127.0 . . ?
C12 N4 C11 119.9(3) . . ?
C17 N5 C16 115.5(3) . . ?
C17 N5 Zn1 122.2(2) . 1_565 ?
C16 N5 Zn1 121.8(2) . 1_565 ?
H1B O1 H1C 109.5 . . ?
H2A O2 H2B 109.5 . . ?
H3X O3 H3Y 109.5 . . ?
N5 Zn1 N5 91.16(15) 1_545 2_645 ?
N5 Zn1 N1 175.91(10) 1_545 2_655 ?
N5 Zn1 N1 88.34(10) 2_645 2_655 ?
N5 Zn1 N1 88.34(10) 1_545 . ?
N5 Zn1 N1 175.91(10) 2_645 . ?
N1 Zn1 N1 92.44(13) 2_655 . ?
N5 Zn1 Cl1 86.84(7) 1_545 2_655 ?
N5 Zn1 Cl1 91.69(7) 2_645 2_655 ?
N1 Zn1 Cl1 89.11(8) 2_655 2_655 ?
N1 Zn1 Cl1 92.34(8) . 2_655 ?
N5 Zn1 Cl1 91.69(7) 1_545 . ?
N5 Zn1 Cl1 86.84(7) 2_645 . ?
N1 Zn1 Cl1 92.34(8) 2_655 . ?
N1 Zn1 Cl1 89.11(8) . . ?
Cl1 Zn1 Cl1 177.91(6) 2_655 . ?

loop_
_geom_hbond_atom_site_label_D
_geom_hbond_atom_site_label_H
_geom_hbond_atom_site_label_A
_geom_hbond_distance_DH
_geom_hbond_distance_HA
_geom_hbond_distance_DA
_geom_hbond_angle_DHA
_geom_hbond_site_symmetry_A
N3 H3A O2 0.90 2.08 2.936(5) 158.7 .
O3 H3Y N4 0.85 2.11 2.861(4) 146.3 1_655

_diffrn_measured_fraction_theta_max 0.999
_diffrn_reflns_theta_full        26.00
_diffrn_measured_fraction_theta_full 0.999
_refine_diff_density_max         0.247
_refine_diff_density_min         -0.501
_refine_diff_density_rms         0.056
