
#######################################################################
#
#                 Cambridge Crystallographic Data Centre
#                                CCDC
#
#######################################################################
#
# If this CIF has been generated from an entry in the Cambridge
# Structural Database, then it will include bibliographic, chemical,
# crystal, experimental, refinement or atomic coordinate data resulting
# from the CCDC's data processing and validation procedures.
#
#######################################################################

data_CSD_CIF_GODGIP
_audit_creation_date 1999-05-04
_audit_creation_method CSD-ConQuest-V1
_database_code_CSD GODGIP
_database_code_depnum_ccdc_archive 'CCDC 131050'
_chemical_formula_sum 'C36 H30 I2 P2 Pd1'
_chemical_formula_moiety
;
C36 H30 I2 P2 Pd1
;
_journal_coeditor_code "IUCr CF1284"
_journal_coden_Cambridge 591
_journal_volume 55
_journal_year 1999
_journal_page_first 320
_journal_name_full 'Acta Crystallogr.,Sect.C:Cryst.Struct.Commun. '
loop_
_publ_author_name
"G.W.V.Cave"
"W.Errington"
"J.P.Rourke"
_chemical_name_systematic
;
trans-Di-iodo-bis(triphenylphosphine)-palladium(ii)
;
_chemical_name_common
;
Teaching Subset: Fundamental Chemistry
;
_cell_volume    834.184
_exptl_crystal_colour 'orange'
_exptl_crystal_density_diffrn 1.761
_exptl_crystal_description 'block'
_exptl_crystal_preparation 'ethyl acetate'
_diffrn_ambient_temperature 160
#These two values have been output from a single CSD field.
_refine_ls_R_factor_gt 0.034
_refine_ls_wR_factor_gt 0.034
_symmetry_cell_setting triclinic
_symmetry_space_group_name_H-M 'P -1'
_symmetry_Int_Tables_number 2
loop_
_symmetry_equiv_pos_site_id
_symmetry_equiv_pos_as_xyz
1 x,y,z
2 -x,-y,-z
_cell_length_a 9.3761(6)
_cell_length_b 9.4407(5)
_cell_length_c 10.7822(6)
_cell_angle_alpha 71.424(3)
_cell_angle_beta 87.87(1)
_cell_angle_gamma 67.852(3)
_cell_formula_units_Z 1
loop_
_atom_type_symbol
_atom_type_radius_bond
C 0.68
H 0.23
I 1.40
P 1.05
Pd 1.50
loop_
_atom_site_label
_atom_site_type_symbol
_atom_site_fract_x
_atom_site_fract_y
_atom_site_fract_z
Pd1 Pd 0.00000 0.00000 0.00000
I1 I 0.23187(4) -0.19913(4) -0.07763(3)
P1 P -0.00861(12) 0.20600(13) -0.19581(10)
C1 C 0.1824(5) 0.2069(5) -0.2350(5)
C2 C 0.2284(6) 0.2280(6) -0.3607(5)
H1 H 0.16090 0.24010 -0.43020
C3 C 0.3747(6) 0.2315(7) -0.3849(6)
H2 H 0.40780 0.24400 -0.47070
C4 C 0.4706(6) 0.2167(7) -0.2843(7)
H3 H 0.56900 0.22170 -0.30130
C5 C 0.4260(6) 0.1950(7) -0.1605(7)
H4 H 0.49310 0.18540 -0.09180
C6 C 0.2827(6) 0.1867(7) -0.1342(5)
H5 H 0.25350 0.16710 -0.04690
C7 C -0.0948(5) 0.1898(5) -0.3372(4)
C8 C -0.1153(5) 0.0486(6) -0.3264(5)
H6 H -0.08380 -0.03890 -0.24580
C9 C -0.1811(5) 0.0342(6) -0.4318(5)
H7 H -0.19520 -0.06300 -0.42290
C10 C -0.2264(6) 0.1587(8) -0.5494(5)
H8 H -0.27050 0.14770 -0.62200
C11 C -0.2073(7) 0.2995(7) -0.5610(5)
H9 H -0.23860 0.38600 -0.64220
C12 C -0.1432(6) 0.3172(6) -0.4562(5)
H10 H -0.13210 0.41590 -0.46520
C13 C -0.1207(5) 0.4147(5) -0.2034(4)
C14 C -0.0526(7) 0.5067(6) -0.1699(5)
H11 H 0.05640 0.46570 -0.15120
C15 C -0.1438(8) 0.6580(7) -0.1637(6)
H12 H -0.09640 0.71880 -0.13830
C16 C -0.2999(8) 0.7219(7) -0.1932(6)
H13 H -0.36040 0.82720 -0.19060
C17 C -0.3688(7) 0.6329(7) -0.2266(6)
H14 H -0.47800 0.67610 -0.24550
C18 C -0.2817(6) 0.4808(6) -0.2332(5)
H15 H -0.33070 0.42100 -0.25800
I1A I -0.23187(4) 0.19913(4) 0.07763(3)
P1A P 0.00861(12) -0.20600(13) 0.19581(10)
C1A C -0.1824(5) -0.2069(5) 0.2350(5)
C2A C -0.2284(6) -0.2280(6) 0.3607(5)
H1A H -0.16090 -0.24010 0.43020
C3A C -0.3747(6) -0.2315(7) 0.3849(6)
H2A H -0.40780 -0.24400 0.47070
C4A C -0.4706(6) -0.2167(7) 0.2843(7)
H3A H -0.56900 -0.22170 0.30130
C5A C -0.4260(6) -0.1950(7) 0.1605(7)
H4A H -0.49310 -0.18540 0.09180
C6A C -0.2827(6) -0.1867(7) 0.1342(5)
H5A H -0.25350 -0.16710 0.04690
C7A C 0.0948(5) -0.1898(5) 0.3372(4)
C8A C 0.1153(5) -0.0486(6) 0.3264(5)
H6A H 0.08380 0.03890 0.24580
C9A C 0.1811(5) -0.0342(6) 0.4318(5)
H7A H 0.19520 0.06300 0.42290
C10A C 0.2264(6) -0.1587(8) 0.5494(5)
H8A H 0.27050 -0.14770 0.62200
C11A C 0.2073(7) -0.2995(7) 0.5610(5)
H9A H 0.23860 -0.38600 0.64220
C12A C 0.1432(6) -0.3172(6) 0.4562(5)
H10A H 0.13210 -0.41590 0.46520
C13A C 0.1207(5) -0.4147(5) 0.2034(4)
C14A C 0.0526(7) -0.5067(6) 0.1699(5)
H11A H -0.05640 -0.46570 0.15120
C15A C 0.1438(8) -0.6580(7) 0.1637(6)
H12A H 0.09640 -0.71880 0.13830
C16A C 0.2999(8) -0.7219(7) 0.1932(6)
H13A H 0.36040 -0.82720 0.19060
C17A C 0.3688(7) -0.6329(7) 0.2266(6)
H14A H 0.47800 -0.67610 0.24550
C18A C 0.2817(6) -0.4808(6) 0.2332(5)
H15A H 0.33070 -0.42100 0.25800
#END
