####################################################################### 
# 
# This file contains crystal structure data downloaded from the 
# Cambridge Structural Database (CSD) hosted by the Cambridge 
# Crystallographic Data Centre (CCDC).
# 
# Full information about CCDC data access policies and citation 
# guidelines are available at http://www.ccdc.cam.ac.uk/access/V1 
# 
# Audit and citation data items may have been added by the CCDC. 
# Please retain this information to preserve the provenance of 
# this file and to allow appropriate attribution of the data. 
# 
#######################################################################

data_1
_audit_block_doi                 10.5517/ccw0l6n
_database_code_depnum_ccdc_archive 'CCDC 804921'
loop_
_citation_id
_citation_doi
_citation_year
1 10.4028/www.scientific.net/AMR.803.80 2013
_audit_update_record             
;
2010-12-16 deposited with the CCDC.	2024-07-10 downloaded from the CCDC.
;
#TrackingRef '1.cif'


_audit_creation_method           SHELXL-97
_chemical_name_systematic        
;
?
;
_chemical_name_common            ?
_chemical_melting_point          ?
_chemical_formula_moiety         ?
_chemical_formula_sum            'C72 H62 Co3 N29 O2 S6'
_chemical_formula_weight         1734.66

loop_
_atom_type_symbol
_atom_type_description
_atom_type_scat_dispersion_real
_atom_type_scat_dispersion_imag
_atom_type_scat_source
C C 0.0033 0.0016 'International Tables Vol C Tables 4.2.6.8 and 6.1.1.4'
H H 0.0000 0.0000 'International Tables Vol C Tables 4.2.6.8 and 6.1.1.4'
N N 0.0061 0.0033 'International Tables Vol C Tables 4.2.6.8 and 6.1.1.4'
O O 0.0106 0.0060 'International Tables Vol C Tables 4.2.6.8 and 6.1.1.4'
S S 0.1246 0.1234 'International Tables Vol C Tables 4.2.6.8 and 6.1.1.4'
Co Co 0.3494 0.9721 'International Tables Vol C Tables 4.2.6.8 and 6.1.1.4'

_symmetry_cell_setting           Triclinic
_symmetry_space_group_name_H-M   P-1

loop_
_symmetry_equiv_pos_as_xyz
'x, y, z'
'-x, -y, -z'

_cell_length_a                   12.928(3)
_cell_length_b                   15.644(3)
_cell_length_c                   25.739(5)
_cell_angle_alpha                91.980(3)
_cell_angle_beta                 93.995(3)
_cell_angle_gamma                114.215(3)
_cell_volume                     4724.7(17)
_cell_formula_units_Z            2
_cell_measurement_temperature    293(2)
_cell_measurement_reflns_used    1021
_cell_measurement_theta_min      2.21
_cell_measurement_theta_max      15.60

_exptl_crystal_description       block
_exptl_crystal_colour            orange
_exptl_crystal_size_max          0.23
_exptl_crystal_size_mid          0.17
_exptl_crystal_size_min          0.14
_exptl_crystal_density_meas      ?
_exptl_crystal_density_diffrn    1.219
_exptl_crystal_density_method    'not measured'
_exptl_crystal_F_000             1780
_exptl_absorpt_coefficient_mu    0.708
_exptl_absorpt_correction_type   multi-scan
_exptl_absorpt_correction_T_min  0.3369
_exptl_absorpt_correction_T_max  1.0000
_exptl_absorpt_process_details   sadabs

_exptl_special_details           
;
?
;

_diffrn_ambient_temperature      293(2)
_diffrn_radiation_wavelength     0.71073
_diffrn_radiation_type           MoK\a
_diffrn_radiation_source         'fine-focus sealed tube'
_diffrn_radiation_monochromator  graphite
_diffrn_measurement_device_type  'CCD area detector'
_diffrn_measurement_method       'phi and omega scans'
_diffrn_detector_area_resol_mean ?
_diffrn_standards_number         ?
_diffrn_standards_interval_count ?
_diffrn_standards_interval_time  ?
_diffrn_standards_decay_%        ?
_diffrn_reflns_number            33944
_diffrn_reflns_av_R_equivalents  0.1191
_diffrn_reflns_av_sigmaI/netI    0.3028
_diffrn_reflns_limit_h_min       -16
_diffrn_reflns_limit_h_max       17
_diffrn_reflns_limit_k_min       -20
_diffrn_reflns_limit_k_max       20
_diffrn_reflns_limit_l_min       -33
_diffrn_reflns_limit_l_max       33
_diffrn_reflns_theta_min         1.59
_diffrn_reflns_theta_max         28.06
_reflns_number_total             19793
_reflns_number_gt                5508
_reflns_threshold_expression     >2sigma(I)

_computing_data_collection       'Bruker apex-II'
_computing_cell_refinement       'Bruker apex-II'
_computing_data_reduction        'Bruker SAINT'
_computing_structure_solution    'SHELXS-97 (Sheldrick, 1990)'
_computing_structure_refinement  'SHELXL-97 (Sheldrick, 1997)'
_computing_molecular_graphics    'Bruker SHELXTL'
_computing_publication_material  'Bruker SHELXTL'

_refine_special_details          
;
Refinement of F^2^ against ALL reflections. The weighted R-factor wR and
goodness of fit S are based on F^2^, conventional R-factors R are based
on F, with F set to zero for negative F^2^. The threshold expression of
F^2^ > 2sigma(F^2^) is used only for calculating R-factors(gt) etc. and is
not relevant to the choice of reflections for refinement. R-factors based
on F^2^ are statistically about twice as large as those based on F, and R-
factors based on ALL data will be even larger.
;

_refine_ls_structure_factor_coef Fsqd
_refine_ls_matrix_type           full
_refine_ls_weighting_scheme      calc
_refine_ls_weighting_details     
'calc w=1/[\s^2^(Fo^2^)+(0.2000P)^2^+0.0000P] where P=(Fo^2^+2Fc^2^)/3'
_atom_sites_solution_primary     direct
_atom_sites_solution_secondary   difmap
_atom_sites_solution_hydrogens   geom
_refine_ls_hydrogen_treatment    constr
_refine_ls_extinction_method     none
_refine_ls_extinction_coef       ?
_refine_ls_number_reflns         19793
_refine_ls_number_parameters     1005
_refine_ls_number_restraints     0
_refine_ls_R_factor_all          0.3205
_refine_ls_R_factor_gt           0.1267
_refine_ls_wR_factor_ref         0.4411
_refine_ls_wR_factor_gt          0.3323
_refine_ls_goodness_of_fit_ref   0.975
_refine_ls_restrained_S_all      0.975
_refine_ls_shift/su_max          0.049
_refine_ls_shift/su_mean         0.002

loop_
_atom_site_label
_atom_site_type_symbol
_atom_site_fract_x
_atom_site_fract_y
_atom_site_fract_z
_atom_site_U_iso_or_equiv
_atom_site_adp_type
_atom_site_occupancy
_atom_site_symmetry_multiplicity
_atom_site_calc_flag
_atom_site_refinement_flags
_atom_site_disorder_assembly
_atom_site_disorder_group
Co1 Co 0.30796(14) 0.43501(10) 0.28321(6) 0.0434(5) Uani 1 1 d . . .
Co2 Co 0.73521(13) 0.17789(10) 1.41442(6) 0.0438(5) Uani 1 1 d . . .
Co3 Co 0.20276(15) 0.14813(12) 0.85303(6) 0.0551(5) Uani 1 1 d . . .
N1 N 0.4821(10) 0.4809(7) 0.3018(4) 0.062(3) Uani 1 1 d . . .
N2 N 0.1366(10) 0.3865(7) 0.2659(4) 0.054(3) Uani 1 1 d . . .
N3 N 0.3374(9) 0.4566(7) 0.2014(4) 0.053(3) Uani 1 1 d . . .
N4 N 0.3242(8) 0.5790(6) 0.2917(3) 0.045(2) Uani 1 1 d . . .
N5 N 0.2831(9) 0.4173(6) 0.3657(4) 0.051(3) Uani 1 1 d . . .
N6 N 0.2079(14) 0.2787(11) 0.5396(5) 0.106(5) Uani 1 1 d . . .
N7 N 0.2136(17) 0.2509(14) 0.5915(6) 0.140(7) Uani 1 1 d . . .
N8 N 0.2673(12) 0.8784(8) 0.2994(5) 0.083(4) Uani 1 1 d . . .
N9 N 0.2948(12) 0.9758(7) 0.3035(6) 0.087(4) Uani 1 1 d . . .
N10 N 0.4941(12) 0.4873(8) 0.0260(4) 0.086(4) Uani 1 1 d . . .
N11 N 0.2907(8) 1.2912(6) 0.2745(4) 0.049(3) Uani 1 1 d . . .
N12 N 0.1604(10) 0.1459(7) 0.7685(4) 0.062(3) Uani 1 1 d . . .
N13 N 0.1925(10) 0.0063(7) 0.8488(4) 0.058(3) Uani 1 1 d . . .
N14 N 0.3783(11) 0.1925(8) 0.8410(4) 0.068(3) Uani 1 1 d . . .
N15 N 0.2462(10) 0.1631(7) 0.9376(4) 0.056(3) Uani 1 1 d . . .
N16 N 0.2196(10) 0.2934(7) 0.8582(4) 0.059(3) Uani 1 1 d . . .
N17 N 0.0295(12) 0.0974(8) 0.8655(4) 0.071(3) Uani 1 1 d . . .
N18 N 0.2193(15) -0.2993(10) 0.8820(7) 0.122(6) Uani 1 1 d . . .
N19 N 0.207(2) 0.6074(13) 0.8924(9) 0.193(12) Uani 1 1 d . . .
N20 N 0.4572(11) 0.2304(8) 1.1131(4) 0.070(3) Uani 1 1 d . . .
N21 N 0.4910(12) 0.2322(9) 1.1658(5) 0.081(4) Uani 1 1 d . . .
N22 N 0.6701(8) 0.1792(6) 1.3353(4) 0.050(3) Uani 1 1 d . . .
N23 N 0.6139(8) 0.0301(7) 1.4180(4) 0.055(3) Uani 1 1 d . . .
N24 N 0.8540(8) 0.1341(7) 1.3866(4) 0.052(3) Uani 1 1 d . . .
N25 N 0.7991(7) 0.1710(6) 1.4908(3) 0.042(2) Uani 1 1 d . . .
H25A H 0.8467 0.2284 1.5037 0.063 Uiso 1 1 calc R . .
H25B H 0.8359 0.1339 1.4903 0.063 Uiso 1 1 calc R . .
H25C H 0.7416 0.1479 1.5108 0.063 Uiso 1 1 calc R . .
N26 N 0.8521(8) 0.3285(6) 1.4205(4) 0.048(3) Uani 1 1 d . . .
N27 N 0.6144(8) 0.2180(7) 1.4415(4) 0.049(3) Uani 1 1 d . . .
N28 N 0.2650(9) -0.2703(6) 1.4313(4) 0.055(3) Uani 1 1 d . . .
N29 N 0.2007(9) -0.3671(7) 1.4292(4) 0.058(3) Uani 1 1 d . . .
O1W O 0.004(3) 0.790(3) 0.9629(14) 0.69(4) Uani 1 1 d . . .
H2W H -0.0335 0.8233 0.9721 1.033 Uiso 1 1 d R . .
H3W H 0.0788 0.8240 0.9695 1.033 Uiso 1 1 d R . .
S1 S 0.7051(4) 0.5125(4) 0.3313(2) 0.1172(18) Uani 1 1 d . . .
S2 S -0.0839(5) 0.3693(6) 0.2780(3) 0.158(3) Uani 1 1 d . . .
S3 S 0.5630(6) 0.1495(6) 0.8416(3) 0.169(3) Uani 1 1 d . . .
S4 S 1.0070(4) 0.0869(3) 1.3360(2) 0.1143(19) Uani 1 1 d . . .
S5 S 0.4536(4) 0.2880(4) 1.4598(2) 0.1076(16) Uani 1 1 d . . .
S6 S -0.1904(4) 0.0768(4) 0.8715(2) 0.1184(18) Uani 1 1 d . . .
C1 C 0.5759(13) 0.4941(8) 0.3151(5) 0.054(3) Uani 1 1 d . . .
C2 C 0.0505(14) 0.3786(10) 0.2710(6) 0.069(4) Uani 1 1 d . . .
C3 C 0.4025(12) 0.4215(9) 0.1788(5) 0.060(4) Uani 1 1 d . . .
H3 H 0.4263 0.3824 0.1980 0.072 Uiso 1 1 calc R . .
C4 C 0.4376(12) 0.4384(10) 0.1292(5) 0.066(4) Uani 1 1 d . . .
H4 H 0.4863 0.4145 0.1160 0.079 Uiso 1 1 calc R . .
C5 C 0.3962(13) 0.4935(9) 0.0997(5) 0.068(4) Uani 1 1 d . . .
C6 C 0.4227(14) 0.5141(9) 0.0440(5) 0.075(5) Uani 1 1 d . . .
H6 H 0.3882 0.5450 0.0239 0.090 Uiso 1 1 calc R . .
C7 C 0.3239(14) 0.5283(11) 0.1226(5) 0.081(5) Uani 1 1 d . . .
H7 H 0.2950 0.5651 0.1043 0.097 Uiso 1 1 calc R . .
C8 C 0.2967(14) 0.5063(11) 0.1736(5) 0.080(5) Uani 1 1 d . . .
H8 H 0.2476 0.5280 0.1883 0.096 Uiso 1 1 calc R . .
C9 C 0.4194(12) 0.6531(8) 0.2838(5) 0.065(4) Uani 1 1 d . . .
H9 H 0.4835 0.6421 0.2784 0.078 Uiso 1 1 calc R . .
C10 C 0.4305(12) 0.7439(8) 0.2829(6) 0.067(4) Uani 1 1 d . . .
H10 H 0.4993 0.7916 0.2761 0.081 Uiso 1 1 calc R . .
C11 C 0.3420(12) 0.7635(9) 0.2918(5) 0.056(3) Uani 1 1 d . . .
C12 C 0.2440(11) 0.6884(8) 0.3015(5) 0.061(4) Uani 1 1 d . . .
H12 H 0.1802 0.6988 0.3082 0.073 Uiso 1 1 calc R . .
C13 C 0.2379(11) 0.6001(8) 0.3016(5) 0.055(3) Uani 1 1 d . . .
H13 H 0.1700 0.5519 0.3089 0.066 Uiso 1 1 calc R . .
C14 C 0.3514(14) 0.8588(9) 0.2929(6) 0.071(4) Uani 1 1 d . . .
H14 H 0.4215 0.9073 0.2886 0.086 Uiso 1 1 calc R . .
C15 C 0.2432(12) 1.0048(10) 0.2702(6) 0.067(4) Uani 1 1 d . . .
H15 H 0.1930 0.9631 0.2439 0.080 Uiso 1 1 calc R . .
C16 C 0.2614(10) 1.1023(8) 0.2725(5) 0.046(3) Uani 1 1 d . . .
C17 C 0.3348(11) 1.1670(9) 0.3097(5) 0.056(3) Uani 1 1 d . . .
H17 H 0.3763 1.1497 0.3349 0.068 Uiso 1 1 calc R . .
C18 C 0.3463(10) 1.2593(8) 0.3094(5) 0.048(3) Uani 1 1 d . . .
H18 H 0.3962 1.3022 0.3353 0.058 Uiso 1 1 calc R . .
C19 C 0.2218(11) 1.2284(8) 0.2375(5) 0.050(3) Uani 1 1 d . . .
H19 H 0.1829 1.2484 0.2124 0.060 Uiso 1 1 calc R . .
C20 C 0.2046(11) 1.1352(8) 0.2340(5) 0.055(3) Uani 1 1 d . . .
H20 H 0.1564 1.0943 0.2069 0.066 Uiso 1 1 calc R . .
C21 C 0.2083(11) 0.3358(8) 0.3806(5) 0.050(3) Uani 1 1 d . . .
H21 H 0.1592 0.2913 0.3551 0.060 Uiso 1 1 calc R . .
C22 C 0.2010(12) 0.3147(10) 0.4321(5) 0.069(4) Uani 1 1 d . . .
H22 H 0.1465 0.2576 0.4409 0.082 Uiso 1 1 calc R . .
C23 C 0.2772(12) 0.3806(11) 0.4719(5) 0.061(4) Uani 1 1 d . . .
C24 C 0.3508(12) 0.4641(10) 0.4560(5) 0.063(4) Uani 1 1 d . . .
H24 H 0.3992 0.5106 0.4807 0.076 Uiso 1 1 calc R . .
C25 C 0.3545(10) 0.4802(9) 0.4051(5) 0.054(3) Uani 1 1 d . . .
H25 H 0.4084 0.5371 0.3958 0.065 Uiso 1 1 calc R . .
C26 C 0.2734(14) 0.3576(13) 0.5264(5) 0.081(5) Uani 1 1 d . . .
H26 H 0.3209 0.4026 0.5520 0.097 Uiso 1 1 calc R . .
C27 C 0.107(3) 0.2144(14) 0.6099(7) 0.211(17) Uani 1 1 d . . .
H27 H 0.0362 0.2058 0.5940 0.253 Uiso 1 1 calc R . .
C28 C 0.1414(13) 0.1921(10) 0.6649(5) 0.062(4) Uani 1 1 d . . .
C29 C 0.2236(14) 0.1639(10) 0.6829(6) 0.081(5) Uani 1 1 d . . .
H29 H 0.2754 0.1613 0.6603 0.097 Uiso 1 1 calc R . .
C30 C 0.2330(12) 0.1389(9) 0.7340(5) 0.066(4) Uani 1 1 d . . .
H30 H 0.2881 0.1176 0.7445 0.079 Uiso 1 1 calc R . .
C31 C 0.0787(12) 0.1689(9) 0.7512(5) 0.061(4) Uani 1 1 d . . .
H31 H 0.0269 0.1713 0.7739 0.073 Uiso 1 1 calc R . .
C32 C 0.0676(13) 0.1901(11) 0.6995(5) 0.078(4) Uani 1 1 d . . .
H32 H 0.0061 0.2034 0.6885 0.093 Uiso 1 1 calc R . .
C33 C 0.4553(15) 0.1760(12) 0.8413(6) 0.082(5) Uani 1 1 d . . .
C34 C 0.1176(14) -0.0625(10) 0.8161(6) 0.081(5) Uani 1 1 d . . .
H34 H 0.0703 -0.0494 0.7919 0.098 Uiso 1 1 calc R . .
C35 C 0.1090(17) -0.1571(11) 0.8180(7) 0.104(6) Uani 1 1 d . . .
H35 H 0.0581 -0.2034 0.7939 0.125 Uiso 1 1 calc R . .
C36 C 0.1723(18) -0.1805(11) 0.8535(8) 0.095(6) Uani 1 1 d . . .
C37 C 0.2516(14) -0.1095(10) 0.8857(6) 0.080(5) Uani 1 1 d . . .
H37 H 0.2983 -0.1218 0.9107 0.096 Uiso 1 1 calc R . .
C38 C 0.2613(16) -0.0204(12) 0.8805(6) 0.090(5) Uani 1 1 d . . .
H38 H 0.3209 0.0272 0.9007 0.109 Uiso 1 1 calc R . .
C39 C 0.147(2) -0.2795(13) 0.8534(8) 0.119(7) Uani 1 1 d . . .
H39 H 0.0840 -0.3253 0.8341 0.142 Uiso 1 1 calc R . .
C40 C 0.1729(14) 0.3251(10) 0.8924(6) 0.081(5) Uani 1 1 d . . .
H40 H 0.1308 0.2847 0.9163 0.097 Uiso 1 1 calc R . .
C41 C 0.1833(16) 0.4199(11) 0.8949(7) 0.098(6) Uani 1 1 d . . .
H41 H 0.1523 0.4408 0.9215 0.118 Uiso 1 1 calc R . .
C42 C 0.2361(14) 0.4771(10) 0.8602(7) 0.079(5) Uani 1 1 d . . .
C43 C 0.2882(14) 0.4443(10) 0.8228(7) 0.088(5) Uani 1 1 d . . .
H43 H 0.3277 0.4830 0.7977 0.105 Uiso 1 1 calc R . .
C44 C 0.2796(13) 0.3552(9) 0.8242(6) 0.075(4) Uani 1 1 d . . .
H44 H 0.3171 0.3351 0.8003 0.090 Uiso 1 1 calc R . .
C45 C 0.2437(16) 0.5770(12) 0.8603(9) 0.110(6) Uani 1 1 d . . .
H45 H 0.2784 0.6145 0.8338 0.132 Uiso 1 1 calc R . .
C46 C 0.3456(14) 0.2295(10) 0.9568(5) 0.075(5) Uani 1 1 d . . .
H46 H 0.3909 0.2715 0.9344 0.090 Uiso 1 1 calc R . .
C47 C 0.3849(14) 0.2385(10) 1.0098(6) 0.079(5) Uani 1 1 d . . .
H47 H 0.4530 0.2876 1.0229 0.095 Uiso 1 1 calc R . .
C48 C 0.3175(15) 0.1708(10) 1.0425(5) 0.068(4) Uani 1 1 d . . .
C49 C 0.2153(13) 0.1030(11) 1.0219(5) 0.073(4) Uani 1 1 d . . .
H49 H 0.1689 0.0579 1.0426 0.087 Uiso 1 1 calc R . .
C50 C 0.1829(13) 0.1030(10) 0.9708(5) 0.071(4) Uani 1 1 d . . .
H50 H 0.1117 0.0581 0.9577 0.085 Uiso 1 1 calc R . .
C51 C 0.3582(14) 0.1733(11) 1.0972(5) 0.071(4) Uani 1 1 d . . .
H51 H 0.3112 0.1332 1.1199 0.085 Uiso 1 1 calc R . .
C52 C 0.5318(12) 0.1737(11) 1.1800(5) 0.070(4) Uani 1 1 d . . .
H52 H 0.5305 0.1289 1.1550 0.083 Uiso 1 1 calc R . .
C53 C 0.5802(11) 0.1727(10) 1.2329(5) 0.060(4) Uani 1 1 d . . .
C54 C 0.6105(11) 0.1044(9) 1.2487(5) 0.060(4) Uani 1 1 d . . .
H54 H 0.6006 0.0541 1.2256 0.072 Uiso 1 1 calc R . .
C55 C 0.6558(11) 0.1094(9) 1.2990(5) 0.064(4) Uani 1 1 d . . .
H55 H 0.6779 0.0623 1.3088 0.076 Uiso 1 1 calc R . .
C56 C 0.6402(10) 0.2456(8) 1.3200(4) 0.045(3) Uani 1 1 d . . .
H56 H 0.6488 0.2934 1.3447 0.054 Uiso 1 1 calc R . .
C57 C 0.5982(11) 0.2499(9) 1.2716(5) 0.063(4) Uani 1 1 d . . .
H57 H 0.5810 0.3000 1.2628 0.075 Uiso 1 1 calc R . .
C58 C 0.9155(11) 0.1147(8) 1.3669(5) 0.055(3) Uani 1 1 d . . .
C59 C 0.9585(11) 0.3514(10) 1.4155(7) 0.099(6) Uani 1 1 d . . .
H59 H 0.9817 0.3032 1.4096 0.119 Uiso 1 1 calc R . .
C60 C 1.0392(13) 0.4415(10) 1.4183(8) 0.103(6) Uani 1 1 d . . .
H60 H 1.1144 0.4534 1.4134 0.123 Uiso 1 1 calc R . .
C61 C 1.0092(11) 0.5150(7) 1.4285(4) 0.049(3) Uani 1 1 d . . .
C62 C 0.8981(11) 0.4912(9) 1.4334(6) 0.072(4) Uani 1 1 d . . .
H62 H 0.8724 0.5374 1.4407 0.086 Uiso 1 1 calc R . .
C63 C 0.8238(11) 0.3997(8) 1.4277(6) 0.066(4) Uani 1 1 d . . .
H63 H 0.7469 0.3860 1.4290 0.080 Uiso 1 1 calc R . .
C64 C 0.5473(11) 0.2464(8) 1.4480(5) 0.047(3) Uani 1 1 d . . .
C65 C 0.5007(10) 0.0090(9) 1.4145(5) 0.056(3) Uani 1 1 d . . .
H65 H 0.4773 0.0572 1.4094 0.068 Uiso 1 1 calc R . .
C66 C 0.4183(11) -0.0809(9) 1.4183(6) 0.068(4) Uani 1 1 d . . .
H66 H 0.3413 -0.0931 1.4164 0.082 Uiso 1 1 calc R . .
C67 C 0.4554(11) -0.1536(8) 1.4253(4) 0.049(3) Uani 1 1 d . . .
C68 C 0.5694(12) -0.1303(9) 1.4285(5) 0.064(4) Uani 1 1 d . . .
H68 H 0.5961 -0.1764 1.4341 0.076 Uiso 1 1 calc R . .
C69 C 0.6434(11) -0.0419(9) 1.4237(5) 0.057(3) Uani 1 1 d . . .
H69 H 0.7203 -0.0296 1.4245 0.068 Uiso 1 1 calc R . .
C70 C 0.3667(12) -0.2523(8) 1.4263(4) 0.057(4) Uani 1 1 d . . .
H70 H 0.3886 -0.3018 1.4232 0.069 Uiso 1 1 calc R . .
C71 C 0.0960(12) -0.3869(9) 1.4303(5) 0.058(4) Uani 1 1 d . . .
H71 H 0.0725 -0.3381 1.4324 0.069 Uiso 1 1 calc R . .
C72 C -0.0651(14) 0.0882(11) 0.8682(5) 0.070(4) Uani 1 1 d . . .
O2W O 0.9887(18) 0.5475(14) 0.9873(8) 0.234(9) Uiso 1 1 d . . .
H6W H 0.9227 0.5530 0.9846 0.350 Uiso 1 1 d R . .
H7W H 0.9962 0.5201 0.9578 0.350 Uiso 1 1 d R . .

loop_
_atom_site_aniso_label
_atom_site_aniso_U_11
_atom_site_aniso_U_22
_atom_site_aniso_U_33
_atom_site_aniso_U_23
_atom_site_aniso_U_13
_atom_site_aniso_U_12
Co1 0.0571(11) 0.0356(9) 0.0435(9) 0.0088(7) 0.0152(8) 0.0233(8)
Co2 0.0386(9) 0.0352(9) 0.0527(10) 0.0019(7) 0.0078(8) 0.0099(7)
Co3 0.0740(13) 0.0453(10) 0.0489(10) 0.0059(8) 0.0030(9) 0.0277(9)
N1 0.063(8) 0.054(7) 0.070(8) 0.012(6) 0.027(7) 0.022(6)
N2 0.057(7) 0.044(6) 0.066(7) 0.003(5) 0.015(6) 0.023(6)
N3 0.065(7) 0.062(7) 0.044(6) 0.009(5) 0.014(5) 0.038(6)
N4 0.054(6) 0.046(6) 0.045(6) 0.020(5) 0.014(5) 0.027(5)
N5 0.067(7) 0.031(5) 0.066(7) 0.008(5) 0.033(6) 0.026(5)
N6 0.134(13) 0.122(13) 0.063(9) 0.036(9) 0.024(9) 0.049(11)
N7 0.173(17) 0.190(18) 0.057(9) 0.023(11) -0.033(10) 0.080(15)
N8 0.106(11) 0.053(8) 0.086(9) -0.004(7) -0.006(8) 0.034(8)
N9 0.124(11) 0.030(6) 0.117(11) -0.006(7) -0.004(9) 0.044(7)
N10 0.123(11) 0.074(8) 0.055(7) 0.009(6) 0.057(8) 0.026(8)
N11 0.052(6) 0.039(6) 0.060(7) 0.012(5) 0.023(5) 0.019(5)
N12 0.077(8) 0.051(7) 0.048(7) 0.01