
#######################################################################
#
#                 Cambridge Crystallographic Data Centre
#                                CCDC
#
#######################################################################
#
# If this CIF has been generated from an entry in the Cambridge
# Structural Database, then it will include bibliographic, chemical,
# crystal, experimental, refinement or atomic coordinate data resulting
# from the CCDC's data processing and validation procedures.
#
#######################################################################

data_CSD_CIF_GONXUC
_audit_creation_date 1999-09-09
_audit_creation_method CSD-ConQuest-V1
_database_code_CSD GONXUC
_database_code_depnum_ccdc_archive 'CCDC 1170070'
_database_code_depnum_ccdc_journal 186/1158
_chemical_formula_sum 'C14 H32 N6 Ni1 O4'
_chemical_formula_moiety
;
C14 H32 N6 Ni1 O4
;
_journal_coden_Cambridge 186
_journal_year 1998
_journal_page_first 3987
_journal_name_full 'J.Chem.Soc.,Dalton Trans. '
loop_
_publ_author_name
"D.Das"
"I.R.Laskar"
"A.Ghosh"
"A.Mondal"
"K.Okamoto"
"N.R.Chaudhuri"
_chemical_name_systematic
;
trans-bis(1-(2-Aminoethyl)piperidine)-dinitro-nickel(ii)
;
_chemical_name_common
;
Teaching Subset: Fundamental Chemistry, Symmetry
;
_cell_volume    910.995
_exptl_crystal_colour 'brown'
_exptl_crystal_density_diffrn 1.484
_exptl_crystal_description 'prismatic'
_diffrn_ambient_temperature ?
_diffrn_special_details
;
The study was carried out at room temperature,in the range 283-303K

;
_refine_special_details
;
The dimethylene group, C11, C21, and the associated hydrogen atoms, are 
disordered over two sites with occupancies of 0.75:0.25.
;
#These two values have been output from a single CSD field.
_refine_ls_R_factor_gt 0.046
_refine_ls_wR_factor_gt 0.046
_symmetry_cell_setting monoclinic
_symmetry_space_group_name_H-M 'P 21/c'
_symmetry_Int_Tables_number 14
loop_
_symmetry_equiv_pos_site_id
_symmetry_equiv_pos_as_xyz
1 x,y,z
2 -x,1/2+y,1/2-z
3 -x,-y,-z
4 x,-1/2-y,-1/2+z
_cell_length_a 9.689(7)
_cell_length_b 8.348(6)
_cell_length_c 11.912(6)
_cell_angle_alpha 90
_cell_angle_beta 109.00(4)
_cell_angle_gamma 90
_cell_formula_units_Z 2
loop_
_atom_type_symbol
_atom_type_radius_bond
C 0.68
H 0.23
N 0.68
Ni 1.50
O 0.68
loop_
_atom_site_label
_atom_site_type_symbol
_atom_site_fract_x
_atom_site_fract_y
_atom_site_fract_z
Ni1 Ni 1.00000 0.00000 1.00000
O1 O 1.0259(4) -0.0551(4) 1.2553(3)
O2 O 1.1730(4) -0.2034(4) 1.20460(3)
N1 N 0.8724(3) 0.1639(4) 1.0497(3)
N2 N 0.7967(3) -0.1512(3) 0.95552(2)
N3 N 1.0761(4) -0.0983(4) 1.1763(2)
C1 C 0.7479(5) -0.2059(6) 0.8299(3)
C2 C 0.6136(5) -0.3135(6) 0.7956(4)
C3 C 0.6382(5) -0.4587(6) 0.8740(4)
C4 C 0.6867(6) -0.4076(6) 1.0025(4)
C5 C 0.8165(5) -0.2942(6) 1.0314(3)
C6 C 0.7403(8) 0.0834(10) 1.0575(10)
C7 C 0.6813(6) -0.03510(7) 0.9593(6)
H1 H 0.72620 -0.11400 0.78020
H2 H 0.82580 -0.26360 0.81680
H3 H 0.53310 -0.25480 0.80320
H4 H 0.59270 -0.34690 0.71560
H5 H 0.55000 -0.51790 0.85630
H6 H 0.71150 -0.52400 0.86040
H7 H 0.60790 -0.35490 1.01810
H8 H 0.71350 -0.49990 1.05140
H9 H 0.89760 -0.35250 1.02450
H10 H 0.83710 -0.25910 1.11100
H11 H 0.76370 0.02910 1.13140
H12 H 0.66750 0.16190 1.05280
H13 H 0.64710 0.02050 0.88580
H14 H 0.60280 -0.09200 0.97200
H15 H 0.92580 0.20780 1.12490
H16 H 0.84510 0.24740 0.99250
C8? C 0.7210(2) 0.1140(3) 1.0010(2)
C9? C 0.7140(1) -0.0620(2) 1.0260(1)
H17? H 0.66330 0.17290 1.03650
H18? H 0.68760 0.13140 0.91740
H19? H 0.61480 -0.09650 1.00200
H20? H 0.75800 -0.08230 1.10880
H21? H 0.90020 0.16810 1.13390
H22? H 0.88410 0.26680 1.02000
N1B N 1.1276(3) -0.1639(4) 0.9503(3)
C6B C 1.2597(8) -0.0834(10) 0.9425(10)
C7B C 1.3187(6) 0.03510(7) 1.0407(6)
N2B N 1.2033(3) 0.1512(3) 1.04448(2)
N3B N 0.9239(4) 0.0983(4) 0.8237(2)
O1B O 0.9741(4) 0.0551(4) 0.7447(3)
O2B O 0.8270(4) 0.2034(4) 0.79540(3)
C1B C 1.2521(5) 0.2059(6) 1.1701(3)
C2B C 1.3864(5) 0.3135(6) 1.2044(4)
C3B C 1.3618(5) 0.4587(6) 1.1260(4)
C4B C 1.3133(6) 0.4076(6) 0.9975(4)
C5B C 1.1835(5) 0.2942(6) 0.9686(3)
H9B H 1.10240 0.35250 0.97550
H10B H 1.16290 0.25910 0.88900
H7B H 1.39210 0.35490 0.98190
H8B H 1.28650 0.49990 0.94860
H5B H 1.45000 0.51790 1.14370
H6B H 1.28850 0.52400 1.13960
H3B H 1.46690 0.25480 1.19680
H4B H 1.40730 0.34690 1.28440
H1B H 1.27380 0.11400 1.21980
H2B H 1.17420 0.26360 1.18320
H13B H 1.35290 -0.02050 1.11420
H14B H 1.39720 0.09200 1.02800
H11B H 1.23630 -0.02910 0.86860
H12B H 1.33250 -0.16190 0.94720
H15B H 1.07420 -0.20780 0.87510
H16B H 1.15490 -0.24740 1.00750
#END
