
#######################################################################
#
#                 Cambridge Crystallographic Data Centre
#                                CCDC
#
#######################################################################
#
# If this CIF has been generated from an entry in the Cambridge
# Structural Database, then it will include bibliographic, chemical,
# crystal, experimental, refinement or atomic coordinate data resulting
# from the CCDC's data processing and validation procedures.
#
#######################################################################

data_CSD_CIF_GONYAJ
_audit_creation_date 1999-09-09
_audit_creation_method CSD-ConQuest-V1
_database_code_CSD GONYAJ
_database_code_depnum_ccdc_archive 'CCDC 1170071'
_database_code_depnum_ccdc_journal 186/1158
_chemical_formula_sum 'C14 H32 N6 Ni1 O4'
_chemical_formula_moiety
;
C14 H32 N6 Ni1 O4
;
_journal_coden_Cambridge 186
_journal_year 1998
_journal_page_first 3987
_journal_name_full 'J.Chem.Soc.,Dalton Trans. '
loop_
_publ_author_name
"D.Das"
"I.R.Laskar"
"A.Ghosh"
"A.Mondal"
"K.Okamoto"
"N.R.Chaudhuri"
_chemical_name_systematic
;
trans-bis(1-(2-Aminoethyl)piperidine)-dinitrito-nickel(ii)
;
_chemical_name_common
;
Teaching Subset: Fundamental Chemistry, Symmetry
;
_cell_volume   1835.463
_exptl_crystal_colour 'blue'
_exptl_crystal_density_diffrn 1.473
_exptl_special_details
;
Z (C4) is 0.5615,3 not 0.6615,3

;
_exptl_crystal_description 'prismatic'
_diffrn_ambient_temperature ?
_diffrn_special_details
;
The study was carried out at room temperature,in the range 283-303K

;
#These two values have been output from a single CSD field.
_refine_ls_R_factor_gt 0.036
_refine_ls_wR_factor_gt 0.036
_symmetry_cell_setting orthorhombic
_symmetry_space_group_name_H-M 'P b c a'
_symmetry_Int_Tables_number 61
loop_
_symmetry_equiv_pos_site_id
_symmetry_equiv_pos_as_xyz
1 x,y,z
2 1/2-x,-y,1/2+z
3 1/2+x,1/2-y,-z
4 -x,1/2+y,1/2-z
5 -x,-y,-z
6 -1/2+x,y,-1/2-z
7 -1/2-x,-1/2+y,z
8 x,-1/2-y,-1/2+z
_cell_length_a 9.67(5)
_cell_length_b 19.98(4)
_cell_length_c 9.50(5)
_cell_angle_alpha 90
_cell_angle_beta 90
_cell_angle_gamma 90
_cell_formula_units_Z 4
loop_
_atom_type_symbol
_atom_type_radius_bond
C 0.68
H 0.23
N 0.68
Ni 1.50
O 0.68
loop_
_atom_site_label
_atom_site_type_symbol
_atom_site_fract_x
_atom_site_fract_y
_atom_site_fract_z
Ni1 Ni 0.50000 0.00000 0.50000
O1 O 0.3092(2) -0.03347(8) 0.5829(2)
O2 O 0.1134(2) -0.0779(1) 0.5563(3)
N1 N 0.4527(2) -0.0259(1) 0.2945(2)
N2 N 0.5952(2) -0.1027(1) 0.5053(2)
N3 N 0.2228(3) -0.0627(1) 0.5012(2)
C1 C 0.4739(3) -0.0987(1) 0.2770(3)
C2 C 0.5998(3) -0.1212(1) 0.3538(3)
C3 C 0.739(3) -0.1025(1) 0.5608(3)
C4 C 0.8051(3) -0.1714(1) 0.5615(3)
C5 C 0.7202(3) -0.2179(1) 0.6615(3)
C6 C 0.5727(3) -0.2201(1) 0.6061(4)
C7 C 0.5126(2) -0.1496(1) 0.5894(3)
H1 H 0.35960 -0.01510 0.23160
H2 H 0.51080 0.00220 0.23160
H3 H 0.39640 -0.12190 0.31330
H4 H 0.48390 -0.10860 0.17980
H5 H 0.67800 -0.10090 0.31190
H6 H 0.60720 -0.16850 0.34620
H7 H 0.79350 -0.07520 0.50090
H8 H 0.73770 -0.08380 0.65270
H9 H 0.89470 -0.16730 0.60750
H10 H 0.81100 -0.18980 0.47690
H11 H 0.72030 -0.21060 0.75550
H12 H 0.75850 -0.26160 0.65940
H13 H 0.51750 -0.24470 0.67040
H14 H 0.57210 -0.24180 0.51720
H15 H 0.50170 -0.13100 0.68080
H16 H 0.42520 -0.15370 0.54580
O1D O 0.6908(2) 0.03347(8) 0.4171(2)
N3D N 0.7772(3) 0.0627(1) 0.4988(2)
O2D O 0.8866(2) 0.0779(1) 0.4437(3)
N1D N 0.5473(2) 0.0259(1) 0.7055(2)
C1D C 0.5261(3) 0.0987(1) 0.7230(3)
C2D C 0.4002(3) 0.1212(1) 0.6462(3)
N2D N 0.4048(2) 0.1027(1) 0.4947(2)
C3D C 0.261(3) 0.1025(1) 0.4392(3)
C4D C 0.1949(3) 0.1714(1) 0.4385(3)
C5D C 0.2798(3) 0.2179(1) 0.3385(3)
C6D C 0.4273(3) 0.2201(1) 0.3939(4)
C7D C 0.4874(2) 0.1496(1) 0.4106(3)
H15D H 0.49830 0.13100 0.31920
H16D H 0.57480 0.15370 0.45420
H13D H 0.48250 0.24470 0.32960
H14D H 0.42790 0.24180 0.48280
H11D H 0.27970 0.21060 0.24450
H12D H 0.24150 0.26160 0.34060
H9D H 0.10530 0.16730 0.39250
H10D H 0.18900 0.18980 0.52310
H7D H 0.20650 0.07520 0.49910
H8D H 0.26230 0.08380 0.34730
H5D H 0.32200 0.10090 0.68810
H6D H 0.39280 0.16850 0.65380
H3D H 0.60360 0.12190 0.68670
H4D H 0.51610 0.10860 0.82020
H1D H 0.64040 0.01510 0.76840
H2D H 0.48920 -0.00220 0.76840
#END
