####################################################################### 
# 
# This file contains crystal structure data downloaded from the 
# Cambridge Structural Database (CSD) hosted by the Cambridge 
# Crystallographic Data Centre (CCDC).
# 
# Full information about CCDC data access policies and citation 
# guidelines are available at http://www.ccdc.cam.ac.uk/access/V1 
# 
# Audit and citation data items may have been added by the CCDC. 
# Please retain this information to preserve the provenance of 
# this file and to allow appropriate attribution of the data. 
# 
#######################################################################

data_e:\reddy\znbttb~1\y
_audit_block_doi                 10.5517/cc123dh2
_database_code_depnum_ccdc_archive 'CCDC 986373'
loop_
_citation_id
_citation_doi
_citation_year
1 10.1039/C4TA01372G 2015
_audit_update_record             
;
2014-05-28 deposited with the CCDC.	2024-07-10 downloaded from the CCDC.
;

_audit_creation_method           SHELXL-97
_chemical_name_systematic        
; 
 ? 
;
_chemical_name_common            ?
_chemical_melting_point          ?
_chemical_formula_moiety         ?
_chemical_formula_sum            'C106 H60 O28 Zn6'
_chemical_formula_weight         2173.73

loop_
_atom_type_symbol
_atom_type_description
_atom_type_scat_dispersion_real
_atom_type_scat_dispersion_imag
_atom_type_scat_source
C C 0.0181 0.0091 'International Tables Vol C Tables 4.2.6.8 and 6.1.1.4'
H H 0.0000 0.0000 'International Tables Vol C Tables 4.2.6.8 and 6.1.1.4'
O O 0.0492 0.0322 'International Tables Vol C Tables 4.2.6.8 and 6.1.1.4'
Zn Zn -1.5491 0.6778 'International Tables Vol C Tables 4.2.6.8 and 6.1.1.4'

_symmetry_cell_setting           Triclinic
_symmetry_space_group_name_H-M   P-1

loop_
_symmetry_equiv_pos_as_xyz
'x, y, z'
'-x, -y, -z'

_cell_length_a                   15.8225(5)
_cell_length_b                   16.8196(5)
_cell_length_c                   28.4760(11)
_cell_angle_alpha                96.700(2)
_cell_angle_beta                 100.221(3)
_cell_angle_gamma                109.597(2)
_cell_volume                     6898.0(4)
_cell_formula_units_Z            2
_cell_measurement_temperature    173(2)
_cell_measurement_reflns_used    ?
_cell_measurement_theta_min      ?
_cell_measurement_theta_max      ?

_exptl_crystal_description       ?
_exptl_crystal_colour            ?
_exptl_crystal_size_max          ?
_exptl_crystal_size_mid          ?
_exptl_crystal_size_min          ?
_exptl_crystal_density_meas      ?
_exptl_crystal_density_diffrn    1.045
_exptl_crystal_density_method    'not measured'
_exptl_crystal_F_000             2192
_exptl_absorpt_coefficient_mu    1.618
_exptl_absorpt_correction_type   ?
_exptl_absorpt_correction_T_min  ?
_exptl_absorpt_correction_T_max  ?
_exptl_absorpt_process_details   ?

_exptl_special_details           
; 
 ? 
;

_diffrn_ambient_temperature      173(2)
_diffrn_radiation_wavelength     1.54178
_diffrn_radiation_type           CuK\a
_diffrn_radiation_source         'fine-focus sealed tube'
_diffrn_radiation_monochromator  graphite
_diffrn_measurement_device_type  ?
_diffrn_measurement_method       ?
_diffrn_detector_area_resol_mean ?
_diffrn_standards_number         ?
_diffrn_standards_interval_count ?
_diffrn_standards_interval_time  ?
_diffrn_standards_decay_%        ?
_diffrn_reflns_number            61381
_diffrn_reflns_av_R_equivalents  0.0435
_diffrn_reflns_av_sigmaI/netI    0.0475
_diffrn_reflns_limit_h_min       -17
_diffrn_reflns_limit_h_max       18
_diffrn_reflns_limit_k_min       -19
_diffrn_reflns_limit_k_max       16
_diffrn_reflns_limit_l_min       -33
_diffrn_reflns_limit_l_max       32
_diffrn_reflns_theta_min         2.84
_diffrn_reflns_theta_max         68.24
_reflns_number_total             20992
_reflns_number_gt                13636
_reflns_threshold_expression     >2sigma(I)

_computing_data_collection       ?
_computing_cell_refinement       ?
_computing_data_reduction        ?
_computing_structure_solution    'SHELXS-97 (Sheldrick, 1990)'
_computing_structure_refinement  'SHELXL-97 (Sheldrick, 1997)'
_computing_molecular_graphics    ?
_computing_publication_material  ?

_refine_special_details          
; 
 Refinement of F^2^ against ALL reflections.  The weighted R-factor wR and 
 goodness of fit S are based on F^2^, conventional R-factors R are based 
 on F, with F set to zero for negative F^2^. The threshold expression of 
 F^2^ > 2sigma(F^2^) is used only for calculating R-factors(gt) etc. and is 
 not relevant to the choice of reflections for refinement.  R-factors based 
 on F^2^ are statistically about twice as large as those based on F, and R- 
 factors based on ALL data will be even larger. 
;

_refine_ls_structure_factor_coef Fsqd
_refine_ls_matrix_type           full
_refine_ls_weighting_scheme      calc
_refine_ls_weighting_details     
'calc w=1/[\s^2^(Fo^2^)+(0.2000P)^2^+0.0000P] where P=(Fo^2^+2Fc^2^)/3'
_atom_sites_solution_primary     direct
_atom_sites_solution_secondary   difmap
_atom_sites_solution_hydrogens   geom
_refine_ls_hydrogen_treatment    mixed
_refine_ls_extinction_method     none
_refine_ls_extinction_coef       ?
_refine_ls_number_reflns         20992
_refine_ls_number_parameters     1333
_refine_ls_number_restraints     41
_refine_ls_R_factor_all          0.1205
_refine_ls_R_factor_gt           0.1009
_refine_ls_wR_factor_ref         0.3230
_refine_ls_wR_factor_gt          0.3001
_refine_ls_goodness_of_fit_ref   1.198
_refine_ls_restrained_S_all      1.203
_refine_ls_shift/su_max          0.006
_refine_ls_shift/su_mean         0.001

loop_
_atom_site_label
_atom_site_type_symbol
_atom_site_fract_x
_atom_site_fract_y
_atom_site_fract_z
_atom_site_U_iso_or_equiv
_atom_site_adp_type
_atom_site_occupancy
_atom_site_symmetry_multiplicity
_atom_site_calc_flag
_atom_site_refinement_flags
_atom_site_disorder_assembly
_atom_site_disorder_group
Zn1 Zn 0.28817(7) -0.59183(5) 0.11744(3) 0.0777(3) Uani 1 1 d . . .
O1 O 0.2847(4) -0.5101(3) 0.08321(18) 0.0852(13) Uani 1 1 d . . .
C1 C 0.3180(5) -0.2175(4) -0.0211(2) 0.0701(15) Uani 1 1 d . . .
O32 O -0.3707(11) -1.2290(13) -0.4821(7) 0.167(7) Uani 0.50 1 d P . .
Zn2 Zn 0.35296(9) -0.40507(7) 0.21057(4) 0.0985(4) Uani 1 1 d . . .
O2 O 0.3606(4) -0.3830(4) 0.1481(2) 0.1107(18) Uani 1 1 d . . .
C2 C 0.3054(5) -0.2504(4) -0.0708(2) 0.0772(17) Uani 1 1 d . . .
Zn3 Zn 0.27459(14) -0.76494(9) -0.22552(4) 0.1463(7) Uani 1 1 d . . .
O3 O 0.4172(9) 0.1488(7) -0.2050(4) 0.192(5) Uani 1 1 d . . .
C3 C 0.3120(6) -0.1891(4) -0.0963(2) 0.0836(19) Uani 1 1 d . . .
H3 H 0.3071 -0.2025 -0.1303 0.100 Uiso 1 1 calc R . .
Zn4 Zn 0.07312(8) -0.74062(6) -0.28924(3) 0.0842(3) Uani 1 1 d . . .
O4 O 0.2891(8) 0.1568(7) -0.1901(3) 0.174(4) Uani 1 1 d . . .
C4 C 0.3262(5) -0.1029(4) -0.0748(2) 0.0795(17) Uani 1 1 d . . .
Zn5 Zn -0.17202(6) -0.97452(5) -0.31032(3) 0.0711(3) Uani 1 1 d . . .
O5 O 0.1488(6) -0.6533(4) -0.2234(2) 0.1132(19) Uani 1 1 d . . .
C5 C 0.3345(4) -0.0704(4) -0.0248(2) 0.0651(14) Uani 1 1 d . . .
Zn6 Zn -0.25754(7) -1.17382(5) -0.40692(4) 0.0863(3) Uani 1 1 d . . .
O6 O 0.2866(6) -0.6461(4) -0.1888(2) 0.122(2) Uani 1 1 d . . .
C6 C 0.3310(5) -0.1266(4) 0.0006(2) 0.0692(15) Uani 1 1 d . . .
H6 H 0.3365 -0.1118 0.0345 0.083 Uiso 1 1 calc R . .
O7 O 0.2917(4) 0.2960(4) 0.0857(2) 0.1009(17) Uani 1 1 d . . .
C7 C 0.3153(5) -0.2745(4) 0.0096(2) 0.0722(16) Uani 1 1 d . . .
O8 O 0.4138(3) 0.3577(3) 0.0611(2) 0.0893(13) Uani 1 1 d . . .
C8 C 0.2487(5) -0.3599(4) -0.0034(2) 0.0747(16) Uani 1 1 d . . .
H8 H 0.2043 -0.3794 -0.0335 0.090 Uiso 1 1 calc R . .
O9 O -0.1795(4) -0.9468(3) -0.36795(18) 0.1005(16) Uani 1 1 d . . .
C9 C 0.2519(5) -0.4089(4) 0.0275(3) 0.0765(17) Uani 1 1 d . . .
H9 H 0.2110 -0.4671 0.0212 0.092 Uiso 1 1 calc R . .
O10 O -0.2222(4) -1.0741(3) -0.43095(17) 0.0868(14) Uani 1 1 d . . .
C10 C 0.3197(5) -0.3717(4) 0.0715(2) 0.0750(17) Uani 1 1 d . . .
O11 O -0.0047(9) -0.3428(5) -0.6790(2) 0.189(5) Uani 1 1 d . . .
C11 C 0.3847(6) -0.2848(5) 0.0852(3) 0.089(2) Uani 1 1 d . . .
H11 H 0.4266 -0.2653 0.1161 0.107 Uiso 1 1 calc R . .
O12 O -0.1469(8) -0.3428(5) -0.6766(3) 0.149(3) Uani 1 1 d . . .
C12 C 0.3851(5) -0.2355(5) 0.0558(2) 0.0814(18) Uani 1 1 d . . .
H12 H 0.4270 -0.1776 0.0625 0.098 Uiso 1 1 calc R . .
O13 O -0.0474(6) -1.1404(4) -0.6583(3) 0.125(2) Uani 1 1 d . . .
C13 C 0.3284(6) -0.0448(5) -0.1037(2) 0.090(2) Uani 1 1 d . . .
O14 O -0.1620(6) -1.1716(5) -0.7182(3) 0.153(3) Uani 1 1 d . . .
C14 C 0.2679(8) -0.0029(5) -0.1069(3) 0.108(3) Uani 1 1 d . . .
H14 H 0.2201 -0.0159 -0.0898 0.130 Uiso 1 1 calc R . .
O15 O -0.2927(5) -0.3145(4) -0.4306(3) 0.123(2) Uani 1 1 d . . .
C15 C 0.2769(9) 0.0556(7) -0.1340(3) 0.129(3) Uani 1 1 d U . .
H15 H 0.2379 0.0880 -0.1370 0.154 Uiso 1 1 calc R . .
O16 O -0.1759(6) -0.2351(5) -0.4450(3) 0.145(3) Uani 1 1 d . . .
C16 C 0.3468(8) 0.0666(6) -0.1579(3) 0.113(3) Uani 1 1 d U . .
O17 O -0.0694(4) -1.0103(4) -0.2917(2) 0.0987(16) Uani 1 1 d . . .
C17 C 0.4102(8) 0.0276(6) -0.1543(3) 0.109(3) Uani 1 1 d . . .
H17 H 0.4594 0.0417 -0.1704 0.131 Uiso 1 1 calc R . .
O18 O -0.1653(4) -1.1465(4) -0.3451(3) 0.1113(18) Uani 1 1 d . . .
C18 C 0.3986(7) -0.0280(5) -0.1281(3) 0.104(3) Uani 1 1 d . . .
H18 H 0.4387 -0.0593 -0.1249 0.125 Uiso 1 1 calc R . .
O19 O 0.6327(6) -1.4538(6) -0.1835(3) 0.141(3) Uani 1 1 d . . .
C19 C 0.2863(5) -0.3447(4) -0.0996(2) 0.0773(17) Uani 1 1 d . . .
O20 O 0.5220(7) -1.5862(6) -0.2289(3) 0.153(3) Uani 1 1 d . . .
C20 C 0.1960(5) -0.4035(4) -0.1295(2) 0.0715(16) Uani 1 1 d . . .
H20 H 0.1448 -0.3858 -0.1305 0.086 Uiso 1 1 calc R . .
O21 O -0.1778(4) -1.3780(3) -0.1398(2) 0.1051(18) Uani 1 1 d . . .
C21 C 0.1802(5) -0.4896(4) -0.1584(2) 0.0765(17) Uani 1 1 d . . .
H21 H 0.1203 -0.5224 -0.1780 0.092 Uiso 1 1 calc R . .
O22 O -0.2154(5) -1.5205(4) -0.1870(3) 0.122(2) Uani 1 1 d . . .
C22 C 0.2465(6) -0.5224(4) -0.1579(2) 0.0774(18) Uani 1 1 d . . .
O23 O 0.7032(4) -1.0529(4) -0.3126(2) 0.0994(16) Uani 1 1 d U . .
C23 C 0.3368(7) -0.4652(6) -0.1305(4) 0.116(3) Uani 1 1 d . . .
H23 H 0.3872 -0.4838 -0.1304 0.139 Uiso 1 1 calc R . .
O24 O 0.6399(3) -1.1747(4) -0.3773(2) 0.1002(16) Uani 1 1 d . . .
C24 C 0.3552(7) -0.3784(6) -0.1022(4) 0.113(3) Uani 1 1 d . . .
H24 H 0.4166 -0.3444 -0.0851 0.136 Uiso 1 1 calc R . .
O25 O -0.1644(5) -0.8712(4) -0.2583(2) 0.0546(17) Uani 0.50 1 d P . .
C25 C 0.3441(5) 0.0241(4) 0.0009(2) 0.0683(15) Uani 1 1 d . . .
O26 O -0.0362(6) -0.8083(5) -0.2683(3) 0.074(2) Uani 0.50 1 d P . .
C26 C 0.4146(5) 0.0995(4) -0.0009(2) 0.0673(14) Uani 1 1 d . . .
H26 H 0.4626 0.0959 -0.0158 0.081 Uiso 1 1 calc R . .
O27 O -0.0154(10) -0.4733(15) -0.0467(7) 0.170(7) Uani 0.50 1 d PU . .
C27 C 0.4164(5) 0.1842(4) 0.0195(2) 0.0701(15) Uani 1 1 d . . .
H27 H 0.4653 0.2328 0.0159 0.084 Uiso 1 1 calc R . .
O28 O -0.0102(9) -0.5827(12) -0.0144(7) 0.148(6) Uani 0.50 1 d PU . .
C28 C 0.3530(4) 0.1999(4) 0.0438(2) 0.0693(15) Uani 1 1 d . . .
O29 O 0.3721(9) -0.2767(9) 0.2457(4) 0.116(4) Uani 0.50 1 d P . .
C29 C 0.2846(6) 0.1235(5) 0.0454(3) 0.092(2) Uani 1 1 d . . .
H29 H 0.2371 0.1265 0.0610 0.111 Uiso 1 1 calc R . .
O30 O 0.3367(13) -0.4302(14) 0.2764(5) 0.163(6) Uani 0.50 1 d P . .
C30 C 0.2815(6) 0.0393(4) 0.0247(3) 0.090(2) Uani 1 1 d . . .
H30 H 0.2319 -0.0092 0.0278 0.109 Uiso 1 1 calc R . .
O31 O 0.3676(7) -0.7442(7) -0.2618(6) 0.124(5) Uani 0.50 1 d P . .
C31 C 0.3241(5) -0.4253(5) 0.1045(3) 0.0790(18) Uani 1 1 d . . .
C32 C 0.3509(16) 0.1289(9) -0.1866(4) 0.169(7) Uani 1 1 d . . .
C33 C 0.2291(7) -0.6131(5) -0.1917(3) 0.093(2) Uani 1 1 d . . .
C34 C 0.3550(5) 0.2901(5) 0.0636(3) 0.0775(17) Uani 1 1 d . . .
C35 C -0.1540(5) -0.7677(4) -0.5309(2) 0.0770(18) Uani 1 1 d . . .
C36 C -0.1388(5) -0.7869(4) -0.5763(2) 0.0665(14) Uani 1 1 d . . .
C37 C -0.1262(5) -0.7222(4) -0.5971(2) 0.0748(16) Uani 1 1 d . . .
H37 H -0.1103 -0.7268 -0.6277 0.090 Uiso 1 1 calc R . .
C38 C -0.1343(5) -0.6406(4) -0.5775(2) 0.0699(15) Uani 1 1 d . . .
C39 C -0.1550(5) -0.6226(4) -0.5322(2) 0.0695(15) Uani 1 1 d . . .
C40 C -0.1659(5) -0.6887(4) -0.5113(2) 0.0724(16) Uani 1 1 d . . .
H40 H -0.1829 -0.6857 -0.4809 0.087 Uiso 1 1 calc R . .
C41 C -0.1639(5) -0.8311(4) -0.5031(2) 0.0761(17) Uani 1 1 d . . .
C42 C -0.2169(6) -0.9222(5) -0.5227(2) 0.0847(19) Uani 1 1 d . . .
H42 H -0.2446 -0.9416 -0.5565 0.102 Uiso 1 1 calc R . .
C43 C -0.2253(5) -0.9753(4) -0.4939(3) 0.0815(18) Uani 1 1 d . . .
H43 H -0.2568 -1.0355 -0.5043 0.098 Uiso 1 1 calc R . .
C44 C -0.1828(5) -0.9354(4) -0.4443(2) 0.0715(16) Uani 1 1 d . . .
C45 C -0.1261(5) -0.8428(5) -0.4233(3) 0.0809(18) Uani 1 1 d . . .
H45 H -0.0982 -0.8236 -0.3896 0.097 Uiso 1 1 calc R . .
C46 C -0.1173(6) -0.7923(5) -0.4523(3) 0.0875(19) Uani 1 1 d . . .
H46 H -0.0826 -0.7325 -0.4421 0.105 Uiso 1 1 calc R . .
C47 C -0.1170(5) -0.5729(4) -0.6011(2) 0.0729(16) Uani 1 1 d . . .
C48 C -0.0351(6) -0.5399(4) -0.6123(2) 0.0844(19) Uani 1 1 d . . .
H48 H 0.0110 -0.5638 -0.6046 0.101 Uiso 1 1 calc R . .
C49 C -0.0199(7) -0.4730(5) -0.6345(3) 0.107(3) Uani 1 1 d U . .
H49 H 0.0373 -0.4473 -0.6429 0.128 Uiso 1 1 calc R . .
C50 C -0.0914(8) -0.4417(5) -0.6449(3) 0.099(3) Uani 1 1 d U . .
C51 C -0.1730(7) -0.4747(6) -0.6336(3) 0.109(3) Uani 1 1 d . . .
H51 H -0.2197 -0.4518 -0.6422 0.130 Uiso 1 1 calc R . .
C52 C -0.1872(6) -0.5375(5) -0.6112(3) 0.099(2) Uani 1 1 d . . .
H52 H -0.2435 -0.5604 -0.6014 0.118 Uiso 1 1 calc R . .
C53 C -0.1300(5) -0.8731(4) -0.6022(2) 0.0719(16) Uani 1 1 d . . .
C54 C -0.0524(5) -0.8909(4) -0.5868(3) 0.0765(17) Uani 1 1 d . . .
H54 H -0.0034 -0.8533 -0.5610 0.092 Uiso 1 1 calc R . .
C55 C -0.0480(5) -0.9705(4) -0.6118(3) 0.0763(18) Uani 1 1 d . . .
H55 H 0.0070 -0.9811 -0.6012 0.092 Uiso 1 1 calc R . .
C56 C -0.1182(5) -1.0349(4) -0.6510(3) 0.083(2) Uani 1 1 d DU . .
C57 C -0.1953(6) -1.0190(5) -0.6679(3) 0.092(2) Uani 1 1 d U . .
H57 H -0.2424 -1.0564 -0.6946 0.110 Uiso 1 1 calc R . .
C58 C -0.2025(6) -0.9383(5) -0.6420(3) 0.095(2) Uani 1 1 d . . .
H58 H -0.2581 -0.9286 -0.6521 0.114 Uiso 1 1 calc R . .
C59 C -0.1725(5) -0.5432(4) -0.5090(2) 0.0762(17) Uani 1 1 d . . .
C60 C -0.1058(5) -0.4562(4) -0.4985(2) 0.0730(16) Uani 1 1 d . . .
H60 H -0.0474 -0.4467 -0.5059 0.088 Uiso 1 1 calc R . .
C61 C -0.1249(5) -0.3808(4) -0.4766(3) 0.0794(17) Uani 1 1 d . . .
H61 H -0.0785 -0.3252 -0.4709 0.095 Uiso 1 1 calc R . .
C62 C -0.2027(6) -0.3889(4) -0.4652(3) 0.090(2) Uani 1 1 d . . .
C63 C -0.2722(6) -0.4783(6) -0.4740(4) 0.108(3) Uani 1 1 d . . .
H63 H -0.3290 -0.4873 -0.4648 0.129 Uiso 1 1 calc R . .
C64 C -0.2546(6) -0.5528(5) -0.4966(3) 0.100(3) Uani 1 1 d . . .
H64 H -0.3011 -0.6084 -0.5027 0.119 Uiso 1 1 calc R . .
C65 C -0.1961(5) -0.9927(5) -0.4123(3) 0.0777(18) Uani 1 1 d . . .
C66 C -0.0795(10) -0.3676(7) -0.6686(3) 0.125(4) Uani 1 1 d . . .
C67 C -0.1115(7) -1.1233(6) -0.6774(4) 0.107(3) Uani 1 1 d D . .
C68 C -0.2260(7) -0.3104(7) -0.4446(3) 0.105(3) Uani 1 1 d . . .
C69 C 0.3223(4) -1.2504(4) -0.2664(2) 0.0705(15) Uani 1 1 d . . .
C70 C 0.3043(5) -1.3208(4) -0.2477(2) 0.0730(16) Uani 1 1 d . . .
C71 C 0.2225(5) -1.3496(4) -0.2353(2) 0.0737(16) Uani 1 1 d . . .
H71 H 0.2084 -1.4006 -0.2221 0.088 Uiso 1 1 calc R . .
C72 C 0.1566(4) -1.3111(4) -0.2401(2) 0.0668(14) Uani 1 1 d . . .
C73 C 0.1741(4) -1.2417(4) -0.2591(2) 0.0639(14) Uani 1 1 d . . .
C74 C 0.2576(4) -1.2117(4) -0.2708(2) 0.0722(16) Uani 1 1 d . . .
H74 H 0.2725 -1.1598 -0.2831 0.087 Uiso 1 1 calc R . .
C75 C 0.1045(4) -1.2029(4) -0.2704(2) 0.0625(14) Uani 1 1 d . . .
C76 C 0.0146(4) -1.2592(4) -0.3004(2) 0.0692(15) Uani 1 1 d . . .
H76 H 0.0006 -1.3190 -0.3100 0.083 Uiso 1 1 calc R . .
C77 C -0.0476(5) -1.2234(4) -0.3141(3) 0.0729(16) Uani 1 1 d . . .
H77 H -0.1068 -1.2563 -0.3344 0.087 Uiso 1 1 calc R . .
C78 C -0.0187(4) -1.1276(4) -0.2955(3) 0.0776(18) Uani 1 1 d . . .
C79 C 0.0677(4) -1.0735(4) -0.2665(3) 0.0742(16) Uani 1 1 d . . .
H79 H 0.0818 -1.0138 -0.2561 0.089 Uiso 1 1 calc R . .
C80 C 0.1301(4) -1.1112(4) -0.2543(3) 0.0737(16) Uani 1 1 d . . .
H80 H 0.1902 -1.0776 -0.2353 0.088 Uiso 1 1 calc R . .
C81 C 0.3703(5) -1.3643(5) -0.2388(2) 0.0748(16) Uani 1 1 d U . .
C82 C 0.3348(7) -1.4637(6) -0.2559(3) 0.104(2) Uani 1 1 d . . .
H82 H 0.2726 -1.4949 -0.2729 0.124 Uiso 1 1 calc R . .
C83 C 0.3942(7) -1.5043(7) -0.2460(3) 0.111(3) Uani 1 1 d U . .
H83 H 0.3758 -1.5647 -0.2560 0.133 Uiso 1 1 calc R . .
C84 C 0.4873(6) -1.4519(5) -0.2194(3) 0.0823(18) Uani 1 1 d U . .
C85 C 0.5141(9) -1.3684(8) -0.1973(4) 0.130(4) Uani 1 1 d . . .
H85 H 0.5723 -1.3423 -0.1749 0.156 Uiso 1 1 calc R . .
C86 C 0.4568(8) -1.3180(7) -0.2068(4) 0.113(3) Uani 1 1 d U . .
H86 H 0.4759 -1.2589 -0.1927 0.135 Uiso 1 1 calc R . .
C87 C 0.0747(4) -1.3421(4) -0.2218(2) 0.0696(15) Uani 1 1 d . . .
C88 C 0.0193(4) -1.4353(4) -0.2365(2) 0.0712(15) Uani 1 1 d . . .
H88 H 0.0372 -1.4718 -0.2574 0.085 Uiso 1 1 calc R . .
C89 C -0.0576(5) -1.4672(4) -0.2194(2) 0.0807(18) Uani 1 1 d . . .
H89 H -0.0959 -1.5264 -0.2277 0.097 Uiso 1 1 calc R . .
C90 C -0.0780(5) -1.4048(5) -0.1874(3) 0.0837(19) Uani 1 1 d . . .
C91 C -0.0209(5) -1.3119(4) -0.1712(3) 0.086(2) Uani 1 1 d . . .
H91 H -0.0357 -1.2754 -0.1486 0.103 Uiso 1 1 calc R . .
C92 C 0.0523(5) -1.2826(4) -0.1902(2) 0.0784(17) Uani 1 1 d . . .
H92 H 0.0893 -1.2231 -0.1830 0.094 Uiso 1 1 calc R . .
C93 C 0.4063(4) -1.2189(4) -0.2838(2) 0.0704(15) Uani 1 1 d . . .
C94 C 0.4279(6) -1.2813(6) -0.3146(3) 0.107(3) Uani 1 1 d . . .
H94 H 0.3918 -1.3409 -0.3212 0.128 Uiso 1 1 calc R . .
C95 C 0.5014(6) -1.2495(7) -0.3331(3) 0.112(3) Uani 1 1 d U . .
H95 H 0.5165 -1.2862 -0.3554 0.134 Uiso 1 1 calc R . .
C96 C 0.5595(4) -1.1572(4) -0.3186(3) 0.0727(16) Uani 1 1 d U . .
C97 C 0.5501(9) -1.108