####################################################################### 
# 
# This file contains crystal structure data downloaded from the 
# Cambridge Structural Database (CSD) hosted by the Cambridge 
# Crystallographic Data Centre (CCDC).
# 
# Full information about CCDC data access policies and citation 
# guidelines are available at http://www.ccdc.cam.ac.uk/access/V1 
# 
# Audit and citation data items may have been added by the CCDC. 
# Please retain this information to preserve the provenance of 
# this file and to allow appropriate attribution of the data. 
# 
#######################################################################

data_squeezed
_audit_block_doi                 10.5517/cc12c7f3
_database_code_depnum_ccdc_archive 'CCDC 993904'
loop_
_citation_id
_citation_doi
_citation_year
1 10.1021/ja509446h 2014
_audit_update_record             
;
2014-03-26 deposited with the CCDC.	2024-07-10 downloaded from the CCDC.
;

_audit_creation_method           SHELXL-97
_chemical_name_systematic        
; 
 ? 
;
_chemical_name_common            ?
_chemical_melting_point          ?
_chemical_formula_moiety         ?
_chemical_formula_sum            'C136 H94 N10 O26 Zn6'
_chemical_formula_weight         2676.43

loop_
_atom_type_symbol
_atom_type_description
_atom_type_scat_dispersion_real
_atom_type_scat_dispersion_imag
_atom_type_scat_source
C C 0.0033 0.0016 'International Tables Vol C Tables 4.2.6.8 and 6.1.1.4'
H H 0.0000 0.0000 'International Tables Vol C Tables 4.2.6.8 and 6.1.1.4'
N N 0.0061 0.0033 'International Tables Vol C Tables 4.2.6.8 and 6.1.1.4'
O O 0.0106 0.0060 'International Tables Vol C Tables 4.2.6.8 and 6.1.1.4'
Zn Zn 0.2839 1.4301 'International Tables Vol C Tables 4.2.6.8 and 6.1.1.4'

_space_group_crystal_system      triclinic
_space_group_IT_number           2
_space_group_name_H-M_alt        'P -1'
_space_group_name_Hall           '-P 1'

loop_
_symmetry_equiv_pos_as_xyz
'x, y, z'
'-x, -y, -z'

_cell_length_a                   10.117(5)
_cell_length_b                   29.539(5)
_cell_length_c                   29.556(5)
_cell_angle_alpha                91.446(5)
_cell_angle_beta                 93.321(5)
_cell_angle_gamma                91.615(5)
_cell_volume                     8811(5)
_cell_formula_units_Z            2
_cell_measurement_temperature    150(2)
_cell_measurement_reflns_used    89633
_cell_measurement_theta_min      1.38
_cell_measurement_theta_max      25.00

_exptl_crystal_description       block
_exptl_crystal_colour            colorless
_exptl_crystal_size_max          0.31
_exptl_crystal_size_mid          0.28
_exptl_crystal_size_min          0.26
_exptl_crystal_density_meas      ?
_exptl_crystal_density_diffrn    1.009
_exptl_crystal_density_method    'not measured'
_exptl_crystal_F_000             2736
_exptl_absorpt_coefficient_mu    0.859
_exptl_absorpt_correction_type   multi-scan
_exptl_absorpt_correction_T_min  0.7767
_exptl_absorpt_correction_T_max  0.8076
_exptl_absorpt_process_details   'SADABS, Sheldrick (2008)'

_exptl_special_details           
; 
 ? 
;

_diffrn_ambient_temperature      150(2)
_diffrn_radiation_wavelength     0.71073
_diffrn_radiation_type           MoK\a
_diffrn_radiation_source         'rotating anode'
_diffrn_radiation_monochromator  graphite
_diffrn_measurement_device_type  'Bruker SMART Apex II CCD Detector'
_diffrn_measurement_method       \w
_diffrn_detector_area_resol_mean ?
_diffrn_standards_number         ?
_diffrn_standards_interval_count ?
_diffrn_standards_interval_time  ?
_diffrn_standards_decay_%        ?
_diffrn_reflns_number            89633
_diffrn_reflns_av_R_equivalents  0.1037
_diffrn_reflns_av_sigmaI/netI    0.1524
_diffrn_reflns_limit_h_min       -12
_diffrn_reflns_limit_h_max       12
_diffrn_reflns_limit_k_min       -35
_diffrn_reflns_limit_k_max       35
_diffrn_reflns_limit_l_min       -35
_diffrn_reflns_limit_l_max       35
_diffrn_reflns_theta_min         1.38
_diffrn_reflns_theta_max         25.00
_reflns_number_total             30897
_reflns_number_gt                16521
_reflns_threshold_expression     >2sigma(I)

_computing_data_collection       'Bruker APEX2'
_computing_cell_refinement       'Bruker SAINT'
_computing_data_reduction        'Bruker SAINT'
_computing_structure_solution    'SHELXS-97 (Sheldrick, 2008)'
_computing_structure_refinement  'SHELXL-97 (Sheldrick, 2008)'

_refine_special_details          
; 
 Refinement of F^2^ against ALL reflections.  The weighted R-factor wR and 
 goodness of fit S are based on F^2^, conventional R-factors R are based 
 on F, with F set to zero for negative F^2^. The threshold expression of 
 F^2^ > 2sigma(F^2^) is used only for calculating R-factors(gt) etc. and is 
 not relevant to the choice of reflections for refinement.  R-factors based 
 on F^2^ are statistically about twice as large as those based on F, and R- 
 factors based on ALL data will be even larger. 
;
loop_
_platon_squeeze_void_nr
_platon_squeeze_void_average_x
_platon_squeeze_void_average_y
_platon_squeeze_void_average_z
_platon_squeeze_void_volume
_platon_squeeze_void_count_electrons
_platon_squeeze_void_content
1 0.146 -0.009 0.232 388 80 ' '
2 0.634 0.009 0.768 388 78 ' '
3 0.781 0.500 0.500 2544 555 ' '
4 0.504 0.231 0.001 364 76 ' '
5 0.141 0.769 0.999 364 77 ' '
_platon_squeeze_details          
;
;

_refine_ls_structure_factor_coef Fsqd
_refine_ls_matrix_type           full
_refine_ls_weighting_scheme      calc
_refine_ls_weighting_details     
'calc w=1/[\s^2^(Fo^2^)+(0.0021P)^2^+0.0000P] where P=(Fo^2^+2Fc^2^)/3'
_atom_sites_solution_primary     direct
_atom_sites_solution_secondary   difmap
_atom_sites_solution_hydrogens   geom
_refine_ls_hydrogen_treatment    constr
_refine_ls_extinction_method     none
_refine_ls_extinction_coef       ?
_refine_ls_number_reflns         30897
_refine_ls_number_parameters     1603
_refine_ls_number_restraints     108
_refine_ls_R_factor_all          0.1135
_refine_ls_R_factor_gt           0.0674
_refine_ls_wR_factor_ref         0.1524
_refine_ls_wR_factor_gt          0.1413
_refine_ls_goodness_of_fit_ref   1.005
_refine_ls_restrained_S_all      1.037
_refine_ls_shift/su_max          0.002
_refine_ls_shift/su_mean         0.000

loop_
_atom_site_label
_atom_site_type_symbol
_atom_site_fract_x
_atom_site_fract_y
_atom_site_fract_z
_atom_site_U_iso_or_equiv
_atom_site_adp_type
_atom_site_occupancy
_atom_site_symmetry_multiplicity
_atom_site_calc_flag
_atom_site_refinement_flags
_atom_site_disorder_assembly
_atom_site_disorder_group
Zn1 Zn 0.10060(6) 0.767944(18) 0.224255(18) 0.02918(15) Uani 1 1 d . . .
Zn2 Zn 0.39529(6) 0.772337(18) 0.233517(18) 0.02893(15) Uani 1 1 d . . .
Zn3 Zn -0.26718(6) 0.961429(19) 0.40323(2) 0.03579(16) Uani 1 1 d . . .
Zn4 Zn -0.23600(6) 0.595315(19) 1.037753(19) 0.03498(16) Uani 1 1 d . . .
Zn5 Zn 0.75233(6) 0.948250(19) 0.051120(19) 0.03526(16) Uani 1 1 d . . .
Zn6 Zn -0.25868(7) 0.59400(2) 0.40641(2) 0.04301(18) Uani 1 1 d . . .
C1 C 0.1180(6) 0.62371(17) 0.37162(18) 0.0445(14) Uani 1 1 d . . .
C2 C 0.1177(6) 0.65635(17) 0.33843(17) 0.0418(14) Uani 1 1 d . . .
H2A H 0.0355 0.6666 0.3260 0.050 Uiso 1 1 calc R . .
C3 C 0.2318(6) 0.67370(18) 0.32344(18) 0.0418(14) Uani 1 1 d . . .
C4 C 0.3510(6) 0.65871(18) 0.34109(17) 0.0462(15) Uani 1 1 d . . .
H4A H 0.4315 0.6709 0.3308 0.055 Uiso 1 1 calc R . .
C5 C 0.3545(6) 0.62528(18) 0.37451(17) 0.0418(14) Uani 1 1 d . . .
C6 C 0.2366(6) 0.60899(18) 0.38902(18) 0.0433(14) Uani 1 1 d . . .
H6A H 0.2374 0.5869 0.4118 0.052 Uiso 1 1 calc R . .
C7 C -0.0088(6) 0.60537(19) 0.38897(19) 0.0440(14) Uani 1 1 d . . .
C8 C 0.2328(7) 0.70924(17) 0.28789(17) 0.0396(14) Uani 1 1 d . . .
C9 C 0.1563(5) 0.62729(17) 1.07336(16) 0.0351(13) Uani 1 1 d . . .
C10 C 0.2723(5) 0.61198(17) 1.05669(16) 0.0354(12) Uani 1 1 d . . .
H10A H 0.2680 0.5899 1.0327 0.042 Uiso 1 1 calc R . .
C11 C 0.3948(5) 0.62831(16) 1.07446(16) 0.0326(12) Uani 1 1 d . . .
C12 C 0.3991(5) 0.66010(17) 1.10964(17) 0.0411(14) Uani 1 1 d . . .
H12A H 0.4826 0.6714 1.1222 0.049 Uiso 1 1 calc R . .
C13 C 0.2837(5) 0.67602(16) 1.12711(16) 0.0365(13) Uani 1 1 d . . .
C14 C 0.1636(6) 0.65937(17) 1.10821(17) 0.0424(14) Uani 1 1 d . . .
H14A H 0.0841 0.6703 1.1195 0.051 Uiso 1 1 calc R . .
C15 C 0.0272(5) 0.60809(19) 1.05370(18) 0.0407(13) Uani 1 1 d . . .
C16 C 0.5163(5) 0.61123(18) 1.05522(17) 0.0366(13) Uani 1 1 d . . .
C17 C 0.2872(7) 0.70988(17) 1.16674(18) 0.0424(14) Uani 1 1 d . . .
C18 C -0.1630(6) 0.9002(2) 0.97352(19) 0.0565(17) Uani 1 1 d . . .
H18A H -0.1106 0.8870 0.9972 0.068 Uiso 1 1 calc R . .
C19 C -0.1500(6) 0.8849(2) 0.9299(2) 0.0612(18) Uani 1 1 d . . .
H19A H -0.0896 0.8616 0.9242 0.073 Uiso 1 1 calc R . .
C20 C -0.2244(6) 0.90296(19) 0.89323(19) 0.0486(15) Uani 1 1 d . . .
C21 C -0.3070(6) 0.9370(2) 0.90507(19) 0.0501(15) Uani 1 1 d . . .
H21A H -0.3581 0.9517 0.8821 0.060 Uiso 1 1 calc R . .
C22 C -0.3168(6) 0.95050(17) 0.95069(17) 0.0429(14) Uani 1 1 d . . .
H22A H -0.3770 0.9734 0.9578 0.051 Uiso 1 1 calc R . .
C23 C -0.1143(7) 0.8321(3) 0.7968(2) 0.074(2) Uani 1 1 d . . .
H23A H -0.0424 0.8131 0.7912 0.089 Uiso 1 1 calc R . .
C24 C -0.1132(7) 0.8559(3) 0.8376(2) 0.078(2) Uani 1 1 d . . .
H24A H -0.0405 0.8534 0.8591 0.093 Uiso 1 1 calc R . .
C25 C -0.2159(6) 0.8832(2) 0.84738(18) 0.0514(16) Uani 1 1 d . . .
C26 C -0.3121(6) 0.88958(19) 0.81300(18) 0.0500(15) Uani 1 1 d . . .
H26A H -0.3789 0.9109 0.8176 0.060 Uiso 1 1 calc R . .
C27 C -0.3130(6) 0.86534(19) 0.77168(19) 0.0528(16) Uani 1 1 d . . .
H27A H -0.3810 0.8700 0.7489 0.063 Uiso 1 1 calc R . .
C28 C -0.3329(7) 0.6418(2) 0.9580(2) 0.071(2) Uani 1 1 d . . .
H28A H -0.4035 0.6472 0.9771 0.085 Uiso 1 1 calc R . .
C29 C -0.3326(7) 0.6638(3) 0.9176(2) 0.078(2) Uani 1 1 d . . .
H29A H -0.4019 0.6837 0.9097 0.093 Uiso 1 1 calc R . .
C30 C -0.2327(6) 0.6574(2) 0.88828(18) 0.0503(15) Uani 1 1 d . . .
C31 C -0.1428(7) 0.6270(2) 0.9021(2) 0.075(2) Uani 1 1 d . . .
H31A H -0.0744 0.6194 0.8828 0.090 Uiso 1 1 calc R . .
C32 C -0.1477(7) 0.6066(2) 0.9437(2) 0.073(2) Uani 1 1 d . . .
H32A H -0.0795 0.5866 0.9523 0.087 Uiso 1 1 calc R . .
C33 C -0.1199(8) 0.7025(2) 0.7787(2) 0.084(2) Uani 1 1 d . . .
H33A H -0.0511 0.6968 0.7590 0.100 Uiso 1 1 calc R . .
C34 C -0.1257(7) 0.6775(2) 0.8178(2) 0.082(2) Uani 1 1 d . . .
H34A H -0.0605 0.6557 0.8245 0.098 Uiso 1 1 calc R . .
C35 C -0.2247(6) 0.6840(2) 0.84635(18) 0.0508(15) Uani 1 1 d . . .
C36 C -0.3194(8) 0.7162(3) 0.8352(2) 0.094(3) Uani 1 1 d U . .
H36A H -0.3894 0.7214 0.8546 0.113 Uiso 1 1 calc R . .
C37 C -0.3111(8) 0.7405(3) 0.7957(2) 0.087(2) Uani 1 1 d U . .
H37A H -0.3780 0.7614 0.7881 0.105 Uiso 1 1 calc R . .
C38 C -0.2167(6) 0.8349(2) 0.76369(18) 0.0519(16) Uani 1 1 d . . .
C39 C -0.2089(6) 0.7353(2) 0.76727(18) 0.0499(15) Uani 1 1 d . . .
C40 C -0.2048(6) 0.7603(2) 0.72413(18) 0.0483(15) Uani 1 1 d . . .
C41 C -0.2182(6) 0.8050(2) 0.72218(17) 0.0465(14) Uani 1 1 d . . .
C42 C -0.2361(6) 0.8287(2) 0.67845(17) 0.0466(15) Uani 1 1 d . . .
C43 C -0.3102(6) 0.81097(19) 0.63997(19) 0.0489(15) Uani 1 1 d . . .
H43A H -0.3546 0.7824 0.6420 0.059 Uiso 1 1 calc R . .
C44 C -0.3212(6) 0.83271(19) 0.60021(18) 0.0481(15) Uani 1 1 d . . .
H44A H -0.3713 0.8190 0.5751 0.058 Uiso 1 1 calc R . .
C45 C -0.2583(5) 0.87588(19) 0.59584(17) 0.0437(14) Uani 1 1 d . . .
C46 C -0.1931(6) 0.8954(2) 0.63391(19) 0.0540(16) Uani 1 1 d . . .
H46A H -0.1540 0.9250 0.6325 0.065 Uiso 1 1 calc R . .
C47 C -0.1838(6) 0.8725(2) 0.67415(18) 0.0526(16) Uani 1 1 d . . .
H47A H -0.1400 0.8872 0.7000 0.063 Uiso 1 1 calc R . .
C48 C -0.2886(10) 0.8962(3) 0.4723(3) 0.125(3) Uani 1 1 d U . .
H48A H -0.2938 0.8762 0.4465 0.150 Uiso 1 1 calc R . .
C49 C -0.3066(10) 0.8784(3) 0.5152(3) 0.131(3) Uani 1 1 d U . .
H49A H -0.3521 0.8499 0.5167 0.158 Uiso 1 1 calc R . .
C50 C -0.2652(6) 0.8983(2) 0.55210(18) 0.0523(16) Uani 1 1 d . . .
C51 C -0.2152(11) 0.9382(3) 0.5454(3) 0.120(3) Uani 1 1 d U . .
H51A H -0.1810 0.9557 0.5711 0.145 Uiso 1 1 calc R . .
C52 C -0.2085(11) 0.9572(3) 0.5020(3) 0.117(3) Uani 1 1 d U . .
H52A H -0.1595 0.9848 0.4994 0.140 Uiso 1 1 calc R . .
C53 C -0.1924(7) 0.7303(2) 0.68394(18) 0.0547(17) Uani 1 1 d . . .
C54 C -0.2811(8) 0.6944(2) 0.6750(2) 0.082(2) Uani 1 1 d . . .
H54A H -0.3448 0.6873 0.6963 0.099 Uiso 1 1 calc R . .
C55 C -0.2787(9) 0.6686(3) 0.6356(3) 0.093(2) Uani 1 1 d U . .
H55A H -0.3411 0.6442 0.6303 0.112 Uiso 1 1 calc R . .
C56 C -0.1873(8) 0.6775(2) 0.6036(2) 0.068(2) Uani 1 1 d . . .
C57 C -0.0963(7) 0.7110(3) 0.6130(2) 0.073(2) Uani 1 1 d . . .
H57A H -0.0311 0.7172 0.5920 0.088 Uiso 1 1 calc R . .
C58 C -0.0960(7) 0.7374(2) 0.6541(2) 0.0648(18) Uani 1 1 d . . .
H58A H -0.0285 0.7600 0.6607 0.078 Uiso 1 1 calc R . .
C59 C -0.2694(11) 0.5977(3) 0.5027(3) 0.128(3) Uani 1 1 d U . .
H59A H -0.3145 0.5691 0.4988 0.154 Uiso 1 1 calc R . .
C60 C -0.2552(11) 0.6168(4) 0.5483(3) 0.135(3) Uani 1 1 d U . .
H60A H -0.2944 0.6008 0.5718 0.162 Uiso 1 1 calc R . .
C61 C -0.1927(8) 0.6543(3) 0.5587(2) 0.078(2) Uani 1 1 d . . .
C62 C -0.1607(9) 0.6791(3) 0.5195(3) 0.107(3) Uani 1 1 d . . .
H62A H -0.1311 0.7099 0.5224 0.129 Uiso 1 1 calc R . .
C63 C -0.1738(10) 0.6571(3) 0.4770(3) 0.115(3) Uani 1 1 d U . .
H63A H -0.1423 0.6724 0.4517 0.137 Uiso 1 1 calc R . .
C64 C 0.7024(6) 1.27613(17) 0.2403(2) 0.0510(16) Uani 1 1 d . . .
C65 C 0.7164(6) 1.27795(17) 0.1953(2) 0.0516(16) Uani 1 1 d . . .
C66 C 0.7070(6) 1.23368(18) 0.2663(2) 0.0542(16) Uani 1 1 d . . .
C67 C 0.8095(7) 1.2038(2) 0.2617(3) 0.091(3) Uani 1 1 d . . .
H67A H 0.8773 1.2108 0.2419 0.109 Uiso 1 1 calc R . .
C68 C 0.8148(7) 1.1644(2) 0.2851(3) 0.091(2) Uani 1 1 d U . .
H68A H 0.8825 1.1437 0.2794 0.109 Uiso 1 1 calc R . .
C69 C 0.7246(6) 1.15399(19) 0.3168(2) 0.0568(17) Uani 1 1 d . . .
C70 C 0.6263(8) 1.1833(2) 0.3215(2) 0.083(2) Uani 1 1 d . . .
H70A H 0.5604 1.1769 0.3422 0.099 Uiso 1 1 calc R . .
C71 C 0.6190(7) 1.2231(2) 0.2962(3) 0.085(2) Uani 1 1 d . . .
H71A H 0.5487 1.2431 0.3008 0.102 Uiso 1 1 calc R . .
C72 C 0.8343(6) 1.0419(2) 0.3618(2) 0.069(2) Uani 1 1 d . . .
H72A H 0.9094 1.0236 0.3596 0.082 Uiso 1 1 calc R . .
C73 C 0.8338(7) 1.0836(2) 0.3399(3) 0.083(2) Uani 1 1 d . . .
H73A H 0.9063 1.0919 0.3225 0.099 Uiso 1 1 calc R . .
C74 C 0.7351(6) 1.11112(18) 0.3430(2) 0.0510(16) Uani 1 1 d . . .
C75 C 0.6368(7) 1.0979(2) 0.3707(2) 0.068(2) Uani 1 1 d . . .
H75A H 0.5669 1.1177 0.3763 0.082 Uiso 1 1 calc R . .
C76 C 0.6395(7) 1.0564(2) 0.3902(2) 0.0657(19) Uani 1 1 d . . .
H76A H 0.5691 1.0478 0.4084 0.079 Uiso 1 1 calc R . .
C77 C 0.6775(9) 1.3983(2) 0.3207(2) 0.075(2) Uani 1 1 d . . .
C78 C 0.7702(9) 1.3652(2) 0.3316(3) 0.100(3) Uani 1 1 d U . .
H78A H 0.8325 1.3704 0.3566 0.120 Uiso 1 1 calc R . .
C79 C 0.7720(9) 1.3253(2) 0.3065(3) 0.093(3) Uani 1 1 d U . .
H79A H 0.8336 1.3030 0.3153 0.111 Uiso 1 1 calc R . .
C80 C 0.6879(7) 1.31667(18) 0.2692(2) 0.0542(16) Uani 1 1 d . . .
C81 C 0.5918(6) 1.3483(2) 0.2597(2) 0.0592(17) Uani 1 1 d . . .
H81A H 0.5276 1.3422 0.2354 0.071 Uiso 1 1 calc R . .
C82 C 0.5874(7) 1.3883(2) 0.2847(2) 0.0681(19) Uani 1 1 d . . .
H82A H 0.5210 1.4093 0.2770 0.082 Uiso 1 1 calc R . .
C83 C 0.6668(9) 1.5237(2) 0.3418(2) 0.091(3) Uani 1 1 d . . .
H83A H 0.6426 1.5495 0.3250 0.110 Uiso 1 1 calc R . .
C84 C 0.6476(9) 1.4818(2) 0.3210(2) 0.090(3) Uani 1 1 d . . .
H84A H 0.6082 1.4793 0.2911 0.108 Uiso 1 1 calc R . .
C85 C 0.6858(8) 1.4429(2) 0.3437(2) 0.076(2) Uani 1 1 d . . .
C86 C 0.7306(11) 1.4513(3) 0.3866(3) 0.134(3) Uani 1 1 d U . .
H86A H 0.7509 1.4265 0.4054 0.161 Uiso 1 1 calc R . .
C87 C 0.7490(10) 1.4963(3) 0.4051(3) 0.111(3) Uani 1 1 d U . .
H87A H 0.7875 1.5003 0.4350 0.133 Uiso 1 1 calc R . .
C88 C 0.7328(6) 1.32063(17) 0.1708(2) 0.0458(14) Uani 1 1 d . . .
C89 C 0.8073(6) 1.35780(18) 0.1891(2) 0.0507(15) Uani 1 1 d . . .
H89A H 0.8517 1.3554 0.2181 0.061 Uiso 1 1 calc R . .
C90 C 0.8189(6) 1.39762(19) 0.1667(2) 0.0533(16) Uani 1 1 d . . .
H90A H 0.8684 1.4224 0.1809 0.064 Uiso 1 1 calc R . .
C91 C 0.7601(6) 1.40257(17) 0.1239(2) 0.0450(14) Uani 1 1 d . . .
C92 C 0.6915(6) 1.36485(19) 0.1036(2) 0.0604(18) Uani 1 1 d . . .
H92A H 0.6526 1.3666 0.0737 0.072 Uiso 1 1 calc R . .
C93 C 0.6801(6) 1.32448(19) 0.1273(2) 0.0566(17) Uani 1 1 d . . .
H93A H 0.6344 1.2991 0.1128 0.068 Uiso 1 1 calc R . .
C94 C 0.8318(10) 1.5241(3) 0.0954(3) 0.114(3) Uani 1 1 d U . .
H94A H 0.8815 1.5487 0.1098 0.137 Uiso 1 1 calc R . .
C95 C 0.8374(9) 1.4806(3) 0.1162(3) 0.110(3) Uani 1 1 d U . .
H95A H 0.8965 1.4769 0.1419 0.132 Uiso 1 1 calc R . .
C96 C 0.7634(6) 1.44618(18) 0.1006(2) 0.0472(15) Uani 1 1 d . . .
C97 C 0.6916(9) 1.4553(2) 0.0611(2) 0.089(3) Uani 1 1 d . . .
H97A H 0.6389 1.4316 0.0463 0.107 Uiso 1 1 calc R . .
C98 C 0.6930(9) 1.4975(2) 0.0420(2) 0.085(3) Uani 1 1 d . . .
H98A H 0.6393 1.5019 0.0151 0.102 Uiso 1 1 calc R . .
C99 C 0.7139(6) 1.23537(18) 0.1666(2) 0.0544(16) Uani 1 1 d . . .
C100 C 0.6122(6) 1.20260(19) 0.1696(2) 0.071(2) Uani 1 1 d . . .
H10B H 0.5401 1.2085 0.1879 0.085 Uiso 1 1 calc R . .
C101 C 0.6160(7) 1.1621(2) 0.1463(3) 0.078(2) Uani 1 1 d . . .
H10C H 0.5470 1.1402 0.1496 0.094 Uiso 1 1 calc R . .
C102 C 0.7143(6) 1.15176(18) 0.1185(2) 0.0531(16) Uani 1 1 d . . .
C103 C 0.8085(6) 1.18518(18) 0.1118(2) 0.0547(16) Uani 1 1 d . . .
H10D H 0.8739 1.1801 0.0906 0.066 Uiso 1 1 calc R . .
C104 C 0.8087(6) 1.22653(18) 0.13599(19) 0.0531(16) Uani 1 1 d . . .
H10E H 0.8753 1.2490 0.1313 0.064 Uiso 1 1 calc R . .
C105 C 0.6684(6) 1.02547(17) 0.10288(18) 0.0462(15) Uani 1 1 d . . .
H10F H 0.6200 1.0020 0.1165 0.055 Uiso 1 1 calc R . .
C106 C 0.6575(6) 1.06853(18) 0.1179(2) 0.0583(18) Uani 1 1 d . . .
H10G H 0.6033 1.0746 0.1424 0.070 Uiso 1 1 calc R . .
C107 C 0.7243(6) 1.10469(18) 0.09817(19) 0.0481(15) Uani 1 1 d . . .
C108 C 0.7993(6) 1.09336(17) 0.06355