####################################################################### 
# 
# This file contains crystal structure data downloaded from the 
# Cambridge Structural Database (CSD) hosted by the Cambridge 
# Crystallographic Data Centre (CCDC).
# 
# Full information about CCDC data access policies and citation 
# guidelines are available at http://www.ccdc.cam.ac.uk/access/V1 
# 
# Audit and citation data items may have been added by the CCDC. 
# Please retain this information to preserve the provenance of 
# this file and to allow appropriate attribution of the data. 
# 
#######################################################################

data_dy-pna21
_audit_block_doi                 10.5517/cc12hddc
_database_code_depnum_ccdc_archive 'CCDC 997902'
loop_
_citation_id
_citation_doi
_citation_year
1 10.1515/zkri-2018-2050 2019
2 10.1039/C4CE02023E 2015
_audit_update_record             
;
2014-11-18 deposited with the CCDC.	2024-07-10 downloaded from the CCDC.
;
_audit_creation_date             2014-10-26
_audit_creation_method           
;
  Olex2 1.2
  (compiled 2012.05.09 svn.r2324, GUI svn.r4230)
;
_chemical_name_common            ?
_chemical_name_systematic        
;
 ? 
;
_chemical_formula_moiety         'C75 H60 Dy2 N2 O22, 3(C3 H7 N O), O'
_chemical_formula_sum            'C84 H83 Dy2 N5 O26'
_chemical_formula_weight         1903.54
_chemical_absolute_configuration ad
_chemical_melting_point          ?
loop_
_atom_type_symbol
_atom_type_description
_atom_type_scat_dispersion_real
_atom_type_scat_dispersion_imag
_atom_type_scat_source
C C 0.0033 0.0016 'International Tables Vol C Tables 4.2.6.8 and 6.1.1.4'
H H 0.0000 0.0000 'International Tables Vol C Tables 4.2.6.8 and 6.1.1.4'
Dy Dy -0.1892 4.4098 'International Tables Vol C Tables 4.2.6.8 and 6.1.1.4'
N N 0.0061 0.0033 'International Tables Vol C Tables 4.2.6.8 and 6.1.1.4'
O O 0.0106 0.0060 'International Tables Vol C Tables 4.2.6.8 and 6.1.1.4'

_space_group_crystal_system      orthorhombic
_space_group_IT_number           33
_space_group_name_H-M_alt        'P n a 21'
_space_group_name_Hall           'P 2c -2n'
loop_
_space_group_symop_id
_space_group_symop_operation_xyz
1 'x, y, z'
2 '-x, -y, z+1/2'
3 '-x+1/2, y+1/2, z+1/2'
4 'x+1/2, -y+1/2, z'

_cell_length_a                   19.1237(3)
_cell_length_b                   14.4603(2)
_cell_length_c                   30.6247(4)
_cell_angle_alpha                90.00
_cell_angle_beta                 90.00
_cell_angle_gamma                90.00
_cell_volume                     8468.8(2)
_cell_formula_units_Z            4
_cell_measurement_reflns_used    9085
_cell_measurement_temperature    291(2)
_cell_measurement_theta_max      29.1774
_cell_measurement_theta_min      3.0785
_exptl_absorpt_coefficient_mu    1.831
_exptl_absorpt_correction_T_max  1.00000
_exptl_absorpt_correction_T_min  0.71030
_exptl_absorpt_correction_type   multi-scan
_exptl_absorpt_process_details   
;
CrysAlisPro, Agilent Technologies,
Version 1.171.35.15 (release 03-08-2011 CrysAlis171 .NET)
(compiled Aug  3 2011,13:03:54)
Empirical absorption correction using spherical harmonics,
 implemented in SCALE3 ABSPACK scaling algorithm.
;
_exptl_crystal_colour            'pale yellow'
_exptl_crystal_density_diffrn    1.491
_exptl_crystal_density_meas      ?
_exptl_crystal_density_method    'not measured'
_exptl_crystal_description       prism
_exptl_crystal_F_000             3840
_exptl_crystal_size_max          0.20
_exptl_crystal_size_mid          0.15
_exptl_crystal_size_min          0.11
_exptl_special_details           
;
 ? 
;
_diffrn_reflns_av_R_equivalents  0.0302
_diffrn_reflns_av_unetI/netI     0.0467
_diffrn_reflns_limit_h_max       24
_diffrn_reflns_limit_h_min       -14
_diffrn_reflns_limit_k_max       18
_diffrn_reflns_limit_k_min       -11
_diffrn_reflns_limit_l_max       30
_diffrn_reflns_limit_l_min       -39
_diffrn_reflns_number            24916
_diffrn_reflns_theta_full        27.10
_diffrn_reflns_theta_max         27.10
_diffrn_reflns_theta_min         3.08
_diffrn_ambient_temperature      291.15
_diffrn_detector_area_resol_mean 16.2312
_diffrn_measured_fraction_theta_full 0.980
_diffrn_measured_fraction_theta_max 0.980
_diffrn_measurement_details      
;
#__ type_ start__ end____ width___ exp.time_
  1 omega   54.00   92.00   0.5000   13.0000
omega____ theta____ kappa____ phi______ frames
    -       19.7885  178.0000  150.0000 76

#__ type_ start__ end____ width___ exp.time_
  2 omega  -38.00   79.00   0.5000   13.0000
omega____ theta____ kappa____ phi______ frames
    -       19.7885    0.0000  -60.0000 234
;
_diffrn_measurement_device_type  'Xcalibur, Eos, Gemini'
_diffrn_measurement_method       '\w scans'
_diffrn_orient_matrix_UB_11      0.0158706000
_diffrn_orient_matrix_UB_12      0.0443468000
_diffrn_orient_matrix_UB_13      0.0000498000
_diffrn_orient_matrix_UB_21      0.0249091000
_diffrn_orient_matrix_UB_22      -0.0154826000
_diffrn_orient_matrix_UB_23      -0.0155253000
_diffrn_orient_matrix_UB_31      -0.0224403000
_diffrn_orient_matrix_UB_32      0.0141450000
_diffrn_orient_matrix_UB_33      -0.0171823000
_diffrn_radiation_monochromator  graphite
_diffrn_radiation_type           'Mo K\a'
_diffrn_radiation_wavelength     0.7107
_diffrn_source                   'Enhance (Mo) X-ray Source'
_diffrn_source_current           n/a
_diffrn_source_voltage           n/a
_diffrn_standards_decay_%        ?
_diffrn_standards_interval_count ?
_diffrn_standards_interval_time  ?
_diffrn_standards_number         ?
_reflns_number_gt                13436
_reflns_number_total             14672
_reflns_odcompleteness_completeness 99.70
_reflns_odcompleteness_iscentric 1
_reflns_odcompleteness_theta     26.32
_reflns_threshold_expression     >2sigma(I)
_computing_cell_refinement       
;
CrysAlisPro, Agilent Technologies,
Version 1.171.35.15 (release 03-08-2011 CrysAlis171 .NET)
(compiled Aug  3 2011,13:03:54)
;
_computing_data_collection       
;
CrysAlisPro, Agilent Technologies,
Version 1.171.35.15 (release 03-08-2011 CrysAlis171 .NET)
(compiled Aug  3 2011,13:03:54)
;
_computing_data_reduction        
;
CrysAlisPro, Agilent Technologies,
Version 1.171.35.15 (release 03-08-2011 CrysAlis171 .NET)
(compiled Aug  3 2011,13:03:54)
;
_computing_molecular_graphics    
;
O. V. Dolomanov, L. J. Bourhis, R. J. Gildea, J. A. K. Howard and H. Puschmann,
OLEX2: a complete structure solution, refinement and analysis program.
J. Appl. Cryst. (2009). 42, 339-341.
;
_computing_publication_material  
;
O. V. Dolomanov, L. J. Bourhis, R. J. Gildea, J. A. K. Howard and H. Puschmann,
OLEX2: a complete structure solution, refinement and analysis program.
J. Appl. Cryst. (2009). 42, 339-341.
;
_computing_structure_refinement  
;
XL, G.M. Sheldrick, Acta Cryst.
(2008). A64, 112-122
;
_computing_structure_solution    
;
XS, G.M. Sheldrick, Acta Cryst.
(2008). A64, 112-122
;
_refine_diff_density_max         0.861
_refine_diff_density_min         -0.734
_refine_diff_density_rms         0.093
_refine_ls_abs_structure_details 'Flack H D (1983), Acta Cryst. A39, 876-881'
_refine_ls_abs_structure_Flack   0.00(8)
_refine_ls_extinction_coef       ?
_refine_ls_extinction_method     none
_refine_ls_goodness_of_fit_ref   1.053
_refine_ls_hydrogen_treatment    noref
_refine_ls_matrix_type           full
_refine_ls_number_parameters     1015
_refine_ls_number_reflns         14672
_refine_ls_number_restraints     127
_refine_ls_R_factor_all          0.0449
_refine_ls_R_factor_gt           0.0388
_refine_ls_restrained_S_all      1.057
_refine_ls_shift/su_max          0.028
_refine_ls_shift/su_mean         0.007
_refine_ls_structure_factor_coef Fsqd
_refine_ls_weighting_details     
'calc w=1/[\s^2^(Fo^2^)+(0.0483P)^2^+6.8098P] where P=(Fo^2^+2Fc^2^)/3'
_refine_ls_weighting_scheme      calc
_refine_ls_wR_factor_gt          0.0935
_refine_ls_wR_factor_ref         0.0974
_refine_special_details          
;
 Refinement of F^2^ against ALL reflections.  The weighted R-factor wR and 
 goodness of fit S are based on F^2^, conventional R-factors R are based 
 on F, with F set to zero for negative F^2^. The threshold expression of 
 F^2^ > 2sigma(F^2^) is used only for calculating R-factors(gt) etc. and is 
 not relevant to the choice of reflections for refinement.  R-factors based 
 on F^2^ are statistically about twice as large as those based on F, and R- 
 factors based on ALL data will be even larger. 
 The anisotropic displacement parameters of N1 C71A C71 C72 C72A N2 C74 
 C74A C75A C75 and lattice water O26 are large, we model these as 
 disordered. EADP constrain command is used to give two distroded atoms
 the same anisotropic displacement parameters. The DFIX command is 
 used to fix the distances between two named atoms: DFIX 1.46 N5 C83;
 DFIX 1.46 N5 C84; DFIX 1.46 N1 C72; DFIX 1.46 N1 C71; DFIX 1.46 N2 C75; 
 DFIX 1.46 N2 C74; DFIX 1.36 C82 N5; DFIX 1.36 C70 N1; DFIX 1.36 C73 N2;
 DFIX 1.46 N1 C71A; DFIX 1.46 N1 C72A; DFIX 1.46 N2 C74A; 
 DFIX 1.46 N2 C75A; DFIX 2.50 C75A C74A; DFIX 2.50 C74 C75; 
 DFIX 2.50 C71 C72. DFIX 2.50 C72A C71A; DFIX 1.45 C13 C14;
 DFIX 1.35 C76 N3; DFIX 1.46 C78 N3; DFIX 1.46 N3 C77; DFIX 1.36 N4 C79;
 DFIX 1.46 N4 C81; DFIX 1.46 N4 C80. The DELU command is used to restrain 
 the large differences between anisotropic displacement parameters along
 chemical bonds between two atoms, such as: O19 C70; O2 C22; N1 C71A; 
 O20 C73; C36 C41; C51 C52. The ISOR command is used to resolve the
 PLAT 220 alert in checkcif report, the atoms with relative large Ueq 
 ranges (N1 C71A C71 C72 C72A C74A C74 C75A C75 N2) are restrained to 
 behave in isotropic manner. The SIMU command is used to restrain all
 the named atoms within a certain distance to having the same displacement
 parameters (SIMU 1.7 N2 C75 C75A; SIMU 1.7 N1 C72A C72).
;
_atom_sites_solution_hydrogens   geom
_atom_sites_solution_primary     direct
_atom_sites_solution_secondary   difmap
loop_
_atom_site_label
_atom_site_type_symbol
_atom_site_fract_x
_atom_site_fract_y
_atom_site_fract_z
_atom_site_U_iso_or_equiv
_atom_site_adp_type
_atom_site_occupancy
_atom_site_symmetry_multiplicity
_atom_site_calc_flag
_atom_site_refinement_flags
_atom_site_disorder_assembly
_atom_site_disorder_group
Dy1 Dy 0.358920(9) 0.537127(11) 0.536606(6) 0.02602(4) Uani 1 1 d . . .
Dy2 Dy 0.313808(9) 0.474681(11) 0.412364(7) 0.02774(4) Uani 1 1 d . . .
O1 O 0.33700(16) 0.63139(19) 0.42085(9) 0.0364(8) Uani 1 1 d . . .
O2 O 0.37956(14) 0.6603(2) 0.48754(9) 0.0330(7) Uani 1 1 d U . .
O3 O 0.40975(17) 0.8316(2) 0.50800(9) 0.0407(8) Uani 1 1 d . . .
H3 H 0.4008 0.7771 0.5126 0.061 Uiso 1 1 calc R . .
O4 O 0.76260(14) 0.9706(2) 0.48948(10) 0.0338(8) Uani 1 1 d . . .
O5 O 0.69696(15) 0.9802(2) 0.43130(11) 0.0418(9) Uani 1 1 d . . .
O6 O 0.56314(16) 0.9934(3) 0.43756(10) 0.0449(9) Uani 1 1 d . . .
H6 H 0.6016 0.9883 0.4259 0.067 Uiso 1 1 calc R . .
O7 O 0.33201(16) 0.3815(2) 0.52331(10) 0.0393(8) Uani 1 1 d . . .
O8 O 0.29265(16) 0.3463(2) 0.45666(10) 0.0380(8) Uani 1 1 d . . .
O9 O 0.26127(18) 0.1758(2) 0.43896(10) 0.0448(9) Uani 1 1 d . . .
H9 H 0.2423 0.2260 0.4353 0.067 Uiso 1 1 calc R . .
O10 O -0.08704(15) 0.0199(2) 0.45296(11) 0.0381(8) Uani 1 1 d . . .
O11 O -0.02495(15) -0.0016(2) 0.51170(10) 0.0396(8) Uani 1 1 d . . .
O12 O 0.11005(15) 0.0057(2) 0.50871(10) 0.0397(8) Uani 1 1 d . . .
H12 H 0.0717 0.0129 0.5201 0.060 Uiso 1 1 calc R . .
O13 O 0.3926(3) 0.4305(3) 0.30177(12) 0.0861(15) Uani 1 1 d . . .
O14 O 0.3402(2) 0.5328(2) 0.34455(11) 0.0493(10) Uani 1 1 d . . .
O15 O 0.29410(19) 0.6851(2) 0.31325(10) 0.0490(9) Uani 1 1 d . . .
H15 H 0.2957 0.6417 0.3304 0.073 Uiso 1 1 calc R . .
O16 O 0.08306(16) 0.9462(2) 0.09373(10) 0.0390(8) Uani 1 1 d . . .
O17 O 0.19057(16) 0.9905(2) 0.10618(11) 0.0397(8) Uani 1 1 d . . .
O18 O 0.25302(17) 0.9369(2) 0.17551(11) 0.0523(9) Uani 1 1 d . . .
H18 H 0.2500 0.9569 0.1505 0.078 Uiso 1 1 calc R . .
O19 O 0.42963(17) 0.6431(2) 0.57553(11) 0.0481(9) Uani 1 1 d U . .
O20 O 0.2340(2) 0.3993(3) 0.36752(14) 0.0822(14) Uani 1 1 d U . .
O21W O 0.28080(16) 0.6571(2) 0.55964(10) 0.0441(9) Uani 1 1 d . . .
H21A H 0.2734 0.6983 0.5382 0.066 Uiso 1 1 d R . .
H21B H 0.2979 0.6887 0.5825 0.066 Uiso 1 1 d R . .
O22W O 0.37879(19) 0.3534(2) 0.37930(11) 0.0511(10) Uani 1 1 d . . .
H22A H 0.4243 0.3469 0.3902 0.077 Uiso 1 1 d R . .
H22B H 0.3844 0.3620 0.3493 0.077 Uiso 1 1 d R . .
O23 O 0.4885(3) 0.2648(4) 0.41789(19) 0.1042(15) Uiso 1 1 d . . .
O24 O 0.6989(3) 0.7487(4) 0.50157(19) 0.1151(18) Uiso 1 1 d . . .
O25 O 0.7588(4) 0.7860(6) 0.6443(3) 0.172(3) Uiso 1 1 d . . .
O26 O 0.4521(8) 0.7014(14) 0.7077(5) 0.212(5) Uiso 0.580(9) 1 d P A 1
O26A O 0.5265(12) 0.7658(17) 0.7392(7) 0.212(5) Uiso 0.420(9) 1 d P A 2
N1 N 0.5348(2) 0.6998(3) 0.59746(19) 0.0993(17) Uani 1 1 d DU . .
N2 N 0.1474(2) 0.3179(3) 0.33734(18) 0.0844(15) Uani 1 1 d DU . .
N3 N 0.5282(2) 0.2530(4) 0.48552(14) 0.0764(15) Uiso 1 1 d D . .
N4 N 0.6368(2) 0.7484(4) 0.43978(14) 0.0677(13) Uiso 1 1 d D . .
N5 N 0.7136(5) 0.7774(5) 0.7161(2) 0.180(4) Uiso 1 1 d D . .
C1 C 0.4053(2) 0.8490(3) 0.46419(13) 0.0280(10) Uani 1 1 d . . .
C2 C 0.3846(2) 0.7801(3) 0.43412(13) 0.0282(10) Uani 1 1 d . . .
C3 C 0.3825(2) 0.8015(3) 0.39137(14) 0.0329(11) Uani 1 1 d . . .
H3A H 0.3707 0.7555 0.3715 0.039 Uiso 1 1 calc R . .
C4 C 0.3975(2) 0.8903(3) 0.37573(14) 0.0318(10) Uani 1 1 d . . .
C5 C 0.3935(3) 0.9103(3) 0.33020(15) 0.0432(13) Uani 1 1 d . . .
H5 H 0.3837 0.8631 0.3105 0.052 Uiso 1 1 calc R . .
C6 C 0.4039(3) 0.9974(4) 0.31555(19) 0.0594(16) Uani 1 1 d . . .
H6A H 0.4017 1.0100 0.2858 0.071 Uiso 1 1 calc R . .
C7 C 0.4181(3) 1.0691(4) 0.3456(2) 0.0622(16) Uani 1 1 d . . .
H7 H 0.4227 1.1294 0.3354 0.075 Uiso 1 1 calc R . .
C8 C 0.4253(3) 1.0521(3) 0.38906(19) 0.0491(14) Uani 1 1 d . . .
H8 H 0.4370 1.1001 0.4079 0.059 Uiso 1 1 calc R . .
C9 C 0.41493(19) 0.9603(2) 0.40603(16) 0.0331(11) Uani 1 1 d . . .
C10 C 0.42117(19) 0.9381(3) 0.45099(14) 0.0275(10) Uani 1 1 d . . .
C11 C 0.4405(2) 1.0096(3) 0.48547(16) 0.0349(11) Uani 1 1 d . . .
H11A H 0.4384 1.0704 0.4721 0.042 Uiso 1 1 calc R . .
H11B H 0.4052 1.0079 0.5082 0.042 Uiso 1 1 calc R . .
C12 C 0.5110(2) 0.9989(3) 0.50669(16) 0.0321(11) Uani 1 1 d . . .
C13 C 0.5199(2) 1.0065(3) 0.55331(14) 0.0374(12) Uani 1 1 d D . .
C14 C 0.4628(3) 1.0177(4) 0.58327(18) 0.0553(16) Uani 1 1 d D . .
H14 H 0.4173 1.0193 0.5727 0.066 Uiso 1 1 calc R . .
C15 C 0.4742(3) 1.0259(5) 0.6261(2) 0.072(2) Uani 1 1 d . . .
H15A H 0.4361 1.0346 0.6446 0.087 Uiso 1 1 calc R . .
C16 C 0.5410(3) 1.0221(5) 0.6444(2) 0.068(2) Uani 1 1 d . . .
H16 H 0.5472 1.0285 0.6744 0.082 Uiso 1 1 calc R . .
C17 C 0.5960(3) 1.0091(5) 0.61811(19) 0.0561(16) Uani 1 1 d . . .
H17 H 0.6404 1.0046 0.6303 0.067 Uiso 1 1 calc R . .
C18 C 0.5883(2) 1.0018(3) 0.57180(16) 0.0389(12) Uani 1 1 d . . .
C19 C 0.6456(2) 0.9906(3) 0.54496(16) 0.0380(12) Uani 1 1 d . . .
H19 H 0.6899 0.9872 0.5574 0.046 Uiso 1 1 calc R . .
C20 C 0.6392(2) 0.9844(3) 0.50022(16) 0.0308(11) Uani 1 1 d . . .
C21 C 0.5709(2) 0.9929(3) 0.48150(15) 0.0314(11) Uani 1 1 d . . .
C22 C 0.3658(2) 0.6837(3) 0.44898(14) 0.0286(9) Uani 1 1 d U . .
C23 C 0.7024(2) 0.9767(3) 0.47278(17) 0.0365(12) Uani 1 1 d . . .
C24 C 0.2675(2) 0.1587(3) 0.48255(15) 0.0321(10) Uani 1 1 d . . .
C25 C 0.2895(2) 0.2309(3) 0.51272(14) 0.0311(10) Uani 1 1 d . . .
C26 C 0.2967(2) 0.2114(3) 0.55562(15) 0.0383(12) Uani 1 1 d . . .
H26 H 0.3104 0.2582 0.5746 0.046 Uiso 1 1 calc R . .
C27 C 0.2839(2) 0.1215(3) 0.57255(15) 0.0365(11) Uani 1 1 d . . .
C28 C 0.2925(2) 0.1036(4) 0.61659(17) 0.0479(14) Uani 1 1 d . . .
H28 H 0.3050 0.1513 0.6354 0.057 Uiso 1 1 calc R . .
C29 C 0.2827(3) 0.0176(4) 0.6323(2) 0.0608(17) Uani 1 1 d . . .
H29 H 0.2876 0.0060 0.6621 0.073 Uiso 1 1 calc R . .
C30 C 0.2651(3) -0.0552(4) 0.6034(2) 0.0689(18) Uani 1 1 d . . .
H30 H 0.2611 -0.1152 0.6141 0.083 Uiso 1 1 calc R . .
C31 C 0.2545(3) -0.0394(3) 0.5617(2) 0.0491(15) Uani 1 1 d . . .
H31 H 0.2409 -0.0882 0.5439 0.059 Uiso 1 1 calc R . .
C32 C 0.2629(2) 0.0507(3) 0.54271(18) 0.0372(11) Uani 1 1 d . . .
C33 C 0.2536(2) 0.0703(3) 0.49752(16) 0.0336(11) Uani 1 1 d . . .
C34 C 0.2352(2) -0.0024(3) 0.46406(17) 0.0402(13) Uani 1 1 d . . .
H34A H 0.2360 -0.0621 0.4785 0.048 Uiso 1 1 calc R . .
H34B H 0.2719 -0.0030 0.4422 0.048 Uiso 1 1 calc R . .
C35 C 0.1657(2) 0.0067(3) 0.44055(16) 0.0339(11) Uani 1 1 d . . .
C36 C 0.1593(2) 0.0032(4) 0.39425(17) 0.0397(13) Uani 1 1 d U . .
C37 C 0.2184(3) 0.0000(4) 0.3652(2) 0.0571(16) Uani 1 1 d . . .
H37 H 0.2632 0.0063 0.3766 0.068 Uiso 1 1 calc R . .
C38 C 0.2102(3) -0.0121(5) 0.3212(2) 0.070(2) Uani 1 1 d . . .
H38 H 0.2497 -0.0172 0.3037 0.085 Uiso 1 1 calc R . .
C39 C 0.1439(4) -0.0169(5) 0.3018(2) 0.079(2) Uani 1 1 d . . .
H39 H 0.1390 -0.0243 0.2718 0.094 Uiso 1 1 calc R . .
C40 C 0.0866(3) -0.0102(5) 0.3284(2) 0.0666(19) Uani 1 1 d . . .
H40 H 0.0423 -0.0117 0.3159 0.080 Uiso 1 1 calc R . .
C41 C 0.0923(3) -0.0012(4) 0.37395(16) 0.0423(13) Uani 1 1 d U . .
C42 C 0.0330(2) 0.0047(3) 0.40001(14) 0.0367(12) Uani 1 1 d . . .
H42 H -0.0108 0.0056 0.3867 0.044 Uiso 1 1 calc R . .
C43 C 0.0369(2) 0.0092(3) 0.44466(15) 0.03