####################################################################### 
# 
# This file contains crystal structure data downloaded from the 
# Cambridge Structural Database (CSD) hosted by the Cambridge 
# Crystallographic Data Centre (CCDC).
# 
# Full information about CCDC data access policies and citation 
# guidelines are available at http://www.ccdc.cam.ac.uk/access/V1 
# 
# Audit and citation data items may have been added by the CCDC. 
# Please retain this information to preserve the provenance of 
# this file and to allow appropriate attribution of the data. 
# 
#######################################################################

data_03
_audit_block_doi                 10.5517/cc13f03n
_database_code_depnum_ccdc_archive 'CCDC 1025390'
loop_
_citation_id
_citation_doi
_citation_year
1 10.1002/ejic.201402932 2015
_audit_update_record             
;
2014-09-20 deposited with the CCDC.	2024-07-10 downloaded from the CCDC.
;
_publ_requested_journal_name     'Eur. J. Inorg. Chem.'

_audit_creation_method           SHELXL-97
_chemical_name_systematic        
;
 ?
;
_chemical_name_common            ?
_chemical_melting_point          ?
_chemical_formula_moiety         ?
_chemical_formula_sum            'C36 H96 Cl6 N24 O42 Sr2 Zn'
_chemical_formula_weight         1990.68

loop_
_atom_type_symbol
_atom_type_description
_atom_type_scat_dispersion_real
_atom_type_scat_dispersion_imag
_atom_type_scat_source
C C 0.0033 0.0016 'International Tables Vol C Tables 4.2.6.8 and 6.1.1.4'
H H 0.0000 0.0000 'International Tables Vol C Tables 4.2.6.8 and 6.1.1.4'
N N 0.0061 0.0033 'International Tables Vol C Tables 4.2.6.8 and 6.1.1.4'
O O 0.0106 0.0060 'International Tables Vol C Tables 4.2.6.8 and 6.1.1.4'
Sr Sr -1.5307 3.2498 'International Tables Vol C Tables 4.2.6.8 and 6.1.1.4'
Zn Zn 0.2839 1.4301 'International Tables Vol C Tables 4.2.6.8 and 6.1.1.4'
Cl Cl 0.1484 0.1585 'International Tables Vol C Tables 4.2.6.8 and 6.1.1.4'

_symmetry_cell_setting           triclinic
_symmetry_space_group_name_H-M   'P -1'
_symmetry_space_group_name_Hall  '-P 1'

loop_
_symmetry_equiv_pos_as_xyz
'x, y, z'
'-x, -y, -z'

_cell_length_a                   12.823(10)
_cell_length_b                   16.194(13)
_cell_length_c                   19.302(16)
_cell_angle_alpha                92.083(10)
_cell_angle_beta                 104.001(10)
_cell_angle_gamma                107.167(10)
_cell_volume                     3691(5)
_cell_formula_units_Z            2
_cell_measurement_temperature    223(2)
_cell_measurement_reflns_used    ?
_cell_measurement_theta_min      ?
_cell_measurement_theta_max      ?

_exptl_crystal_description       prism
_exptl_crystal_colour            colorless
_exptl_crystal_size_max          0.21
_exptl_crystal_size_mid          0.15
_exptl_crystal_size_min          0.13
_exptl_crystal_density_meas      ?
_exptl_crystal_density_diffrn    1.791
_exptl_crystal_density_method    'not measured'
_exptl_crystal_F_000             2048
_exptl_absorpt_coefficient_mu    2.094
_exptl_absorpt_correction_type   multi-scan
_exptl_absorpt_correction_T_min  0.6675
_exptl_absorpt_correction_T_max  0.7725
_exptl_absorpt_process_details   'SADABS (Bruker, 2008)'

_exptl_special_details           
;
 ?
;

_diffrn_ambient_temperature      223(2)
_diffrn_radiation_wavelength     0.71073
_diffrn_radiation_type           MoK\a
_diffrn_radiation_source         'fine-focus sealed tube'
_diffrn_radiation_monochromator  graphite
_diffrn_measurement_device_type  'Bruker Smart Apex2 CCD Detector'
_diffrn_measurement_method       '\f and \w scan'
_diffrn_detector_area_resol_mean ?
_diffrn_standards_number         ?
_diffrn_standards_interval_count ?
_diffrn_standards_interval_time  ?
_diffrn_standards_decay_%        ?
_diffrn_reflns_number            25492
_diffrn_reflns_av_R_equivalents  0.0659
_diffrn_reflns_av_sigmaI/netI    0.1275
_diffrn_reflns_limit_h_min       -15
_diffrn_reflns_limit_h_max       14
_diffrn_reflns_limit_k_min       -19
_diffrn_reflns_limit_k_max       17
_diffrn_reflns_limit_l_min       -22
_diffrn_reflns_limit_l_max       22
_diffrn_reflns_theta_min         1.09
_diffrn_reflns_theta_max         25.00
_reflns_number_total             12705
_reflns_number_gt                6532
_reflns_threshold_expression     >2sigma(I)

_computing_data_collection       ?
_computing_cell_refinement       ?
_computing_data_reduction        ?
_computing_structure_solution    ?
_computing_structure_refinement  'SHELXL-97 (Sheldrick, 1997)'
_computing_molecular_graphics    ?
_computing_publication_material  ?

_refine_special_details          
;
 Refinement of F^2^ against ALL reflections.  The weighted R-factor wR and
 goodness of fit S are based on F^2^, conventional R-factors R are based
 on F, with F set to zero for negative F^2^. The threshold expression of
 F^2^ > 2sigma(F^2^) is used only for calculating R-factors(gt) etc. and is
 not relevant to the choice of reflections for refinement.  R-factors based
 on F^2^ are statistically about twice as large as those based on F, and R-
 factors based on ALL data will be even larger.
;

_refine_ls_structure_factor_coef Fsqd
_refine_ls_matrix_type           full
_refine_ls_weighting_scheme      calc
_refine_ls_weighting_details     
'calc w=1/[\s^2^(Fo^2^)+(0.0825P)^2^+0.0000P] where P=(Fo^2^+2Fc^2^)/3'
_atom_sites_solution_primary     direct
_atom_sites_solution_secondary   difmap
_atom_sites_solution_hydrogens   geom
_refine_ls_hydrogen_treatment    constr
_refine_ls_extinction_method     SHELXL
_refine_ls_extinction_coef       0.00002(11)
_refine_ls_extinction_expression Fc^*^=kFc[1+0.001xFc^2^\l^3^/sin(2\q)]^-1/4^
_refine_ls_number_reflns         12705
_refine_ls_number_parameters     785
_refine_ls_number_restraints     0
_refine_ls_R_factor_all          0.1047
_refine_ls_R_factor_gt           0.0578
_refine_ls_wR_factor_ref         0.1611
_refine_ls_wR_factor_gt          0.1437
_refine_ls_goodness_of_fit_ref   0.846
_refine_ls_restrained_S_all      0.846
_refine_ls_shift/su_max          0.001
_refine_ls_shift/su_mean         0.000

loop_
_atom_site_label
_atom_site_type_symbol
_atom_site_fract_x
_atom_site_fract_y
_atom_site_fract_z
_atom_site_U_iso_or_equiv
_atom_site_adp_type
_atom_site_occupancy
_atom_site_symmetry_multiplicity
_atom_site_calc_flag
_atom_site_refinement_flags
_atom_site_disorder_assembly
_atom_site_disorder_group
Cl6 Cl 1.0824(3) 0.0301(2) 0.1993(3) 0.218(2) Uani 1 1 d . . .
Zn1 Zn 1.59797(8) 0.88222(6) 0.24971(5) 0.0682(3) Uani 1 1 d . . .
Cl2 Cl 1.58555(18) 0.78080(13) 0.32752(11) 0.0769(6) Uani 1 1 d . . .
Cl3 Cl 1.7791(2) 0.94321(13) 0.24658(14) 0.0920(8) Uani 1 1 d . . .
Cl4 Cl 1.4873(2) 0.81947(16) 0.13966(12) 0.1051(8) Uani 1 1 d . . .
Cl5 Cl 1.5309(3) 0.98686(17) 0.28620(17) 0.1241(10) Uani 1 1 d . . .
O1W O 0.8843(3) 0.4927(3) 0.0118(2) 0.0459(11) Uani 1 1 d . . .
O2W O 1.0090(3) 0.4202(3) 0.5312(2) 0.0544(12) Uani 1 1 d . . .
O3W O 0.7716(4) 0.2697(3) 0.4695(2) 0.0629(13) Uani 1 1 d . . .
O4W O 0.8865(5) 0.4988(3) 0.3176(3) 0.0941(19) Uani 1 1 d . . .
O5W O 0.7268(6) 0.5488(5) 0.3904(4) 0.128(3) Uani 1 1 d . . .
O6W O 0.6056(4) 0.3812(4) 0.4309(3) 0.105(2) Uani 1 1 d . . .
Sr1 Sr 0.97731(5) 0.37040(4) 0.04751(3) 0.03643(17) Uani 1 1 d . . .
Sr2 Sr 0.82305(5) 0.42447(4) 0.42697(3) 0.04423(19) Uani 1 1 d . . .
Cl1 Cl 0.93406(16) 0.40507(15) 0.18642(10) 0.0808(7) Uani 1 1 d . . .
C1 C 1.2250(4) 0.4744(4) 0.1938(3) 0.0291(13) Uani 1 1 d . . .
C2 C 1.3322(5) 0.5569(4) 0.3059(3) 0.0359(14) Uani 1 1 d . . .
H2 H 1.4149 0.5856 0.3167 0.043 Uiso 1 1 calc R . .
C3 C 1.3033(5) 0.4582(4) 0.3138(3) 0.0341(14) Uani 1 1 d . . .
H3 H 1.3721 0.4408 0.3313 0.041 Uiso 1 1 calc R . .
C4 C 1.2319(5) 0.5261(4) 0.3927(3) 0.0343(14) Uani 1 1 d . . .
C5 C 1.2222(5) 0.3258(4) 0.2199(3) 0.0371(15) Uani 1 1 d . . .
H5A H 1.2251 0.3202 0.1697 0.044 Uiso 1 1 calc R . .
H5B H 1.2849 0.3089 0.2490 0.044 Uiso 1 1 calc R . .
C6 C 1.1921(5) 0.3667(4) 0.3929(3) 0.0389(15) Uani 1 1 d . . .
H6A H 1.1732 0.3782 0.4378 0.047 Uiso 1 1 calc R . .
H6B H 1.2518 0.3392 0.4041 0.047 Uiso 1 1 calc R . .
C7 C 1.0286(5) 0.2329(4) 0.1686(3) 0.0335(14) Uani 1 1 d . . .
C8 C 1.0955(5) 0.2372(4) 0.2934(3) 0.0427(16) Uani 1 1 d . . .
H8 H 1.1468 0.2053 0.3169 0.051 Uiso 1 1 calc R . .
C9 C 0.9701(5) 0.1777(4) 0.2683(3) 0.0358(14) Uani 1 1 d . . .
H9 H 0.9613 0.1176 0.2805 0.043 Uiso 1 1 calc R . .
C10 C 0.9845(5) 0.2958(4) 0.3486(3) 0.0379(15) Uani 1 1 d . . .
C11 C 0.8353(5) 0.1315(4) 0.1418(3) 0.0378(15) Uani 1 1 d . . .
H11A H 0.8092 0.0745 0.1585 0.045 Uiso 1 1 calc R . .
H11B H 0.8478 0.1217 0.0945 0.045 Uiso 1 1 calc R . .
C12 C 0.7954(5) 0.1855(4) 0.3069(3) 0.0413(15) Uani 1 1 d . . .
H12A H 0.7761 0.1220 0.3031 0.050 Uiso 1 1 calc R . .
H12B H 0.7863 0.2051 0.3531 0.050 Uiso 1 1 calc R . .
C13 C 0.7301(5) 0.2268(4) 0.0843(3) 0.0356(14) Uani 1 1 d . . .
C14 C 0.6680(5) 0.1596(4) 0.1789(3) 0.0354(14) Uani 1 1 d . . .
H14 H 0.6295 0.0973 0.1807 0.043 Uiso 1 1 calc R . .
C15 C 0.5832(5) 0.2069(4) 0.1421(3) 0.0377(15) Uani 1 1 d . . .
H15 H 0.5064 0.1656 0.1209 0.045 Uiso 1 1 calc R . .
C16 C 0.6665(5) 0.2698(4) 0.2615(3) 0.0424(16) Uani 1 1 d . . .
C17 C 0.5835(5) 0.2971(4) 0.0365(3) 0.0437(16) Uani 1 1 d . . .
H17A H 0.5010 0.2751 0.0275 0.052 Uiso 1 1 calc R . .
H17B H 0.6022 0.2897 -0.0092 0.052 Uiso 1 1 calc R . .
C18 C 0.5107(5) 0.3191(4) 0.1938(3) 0.0419(16) Uani 1 1 d . . .
H18A H 0.4388 0.2885 0.1586 0.050 Uiso 1 1 calc R . .
H18B H 0.4947 0.3277 0.2402 0.050 Uiso 1 1 calc R . .
C19 C 0.6284(5) 0.4531(4) 0.0184(3) 0.0399(15) Uani 1 1 d . . .
C20 C 0.6550(5) 0.4223(4) 0.1386(3) 0.0380(15) Uani 1 1 d . . .
H20 H 0.7187 0.4047 0.1670 0.046 Uiso 1 1 calc R . .
C21 C 0.6874(5) 0.5236(4) 0.1378(3) 0.0396(15) Uani 1 1 d . . .
H21 H 0.7683 0.5524 0.1625 0.047 Uiso 1 1 calc R . .
C22 C 0.5480(5) 0.4792(4) 0.1987(3) 0.0435(16) Uani 1 1 d . . .
C23 C 0.6677(5) 0.6148(4) 0.0330(3) 0.0488(17) Uani 1 1 d . . .
H23A H 0.6742 0.6110 -0.0165 0.059 Uiso 1 1 calc R . .
H23B H 0.5967 0.6265 0.0321 0.059 Uiso 1 1 calc R . .
C24 C 0.6192(5) 0.6361(4) 0.1945(4) 0.0509(18) Uani 1 1 d . . .
H24A H 0.6050 0.6417 0.2418 0.061 Uiso 1 1 calc R . .
H24B H 0.5595 0.6498 0.1591 0.061 Uiso 1 1 calc R . .
C25 C 0.8665(5) 0.7061(4) 0.0645(3) 0.0383(15) Uani 1 1 d . . .
C26 C 0.7561(5) 0.7417(4) 0.1345(3) 0.0424(16) Uani 1 1 d . . .
H26 H 0.7046 0.7761 0.1174 0.051 Uiso 1 1 calc R . .
C27 C 0.8800(5) 0.8012(4) 0.1643(3) 0.0405(15) Uani 1 1 d . . .
H27 H 0.8868 0.8637 0.1655 0.049 Uiso 1 1 calc R . .
C28 C 0.8237(6) 0.7162(4) 0.2531(4) 0.0473(17) Uani 1 1 d . . .
C29 C 1.0569(5) 0.8151(4) 0.1166(3) 0.0412(15) Uani 1 1 d . . .
H29A H 1.0662 0.8092 0.0680 0.049 Uiso 1 1 calc R . .
H29B H 1.0786 0.8773 0.1328 0.049 Uiso 1 1 calc R . .
C30 C 1.0172(6) 0.8209(4) 0.2875(3) 0.0522(18) Uani 1 1 d . . .
H30A H 1.0415 0.8818 0.2782 0.063 Uiso 1 1 calc R . .
H30B H 1.0057 0.8201 0.3359 0.063 Uiso 1 1 calc R . .
C31 C 1.1647(5) 0.7086(4) 0.1436(3) 0.0422(16) Uani 1 1 d . . .
C32 C 1.1831(5) 0.8088(4) 0.2394(3) 0.0422(16) Uani 1 1 d . . .
H32 H 1.2223 0.8723 0.2468 0.051 Uiso 1 1 calc R . .
C33 C 1.2674(5) 0.7566(4) 0.2642(3) 0.0360(14) Uani 1 1 d . . .
H33 H 1.3471 0.7944 0.2753 0.043 Uiso 1 1 calc R . .
C34 C 1.1435(5) 0.7356(4) 0.3374(3) 0.0430(16) Uani 1 1 d . . .
C35 C 1.3042(5) 0.6346(4) 0.1945(3) 0.0421(16) Uani 1 1 d . . .
H35A H 1.2912 0.6167 0.1433 0.050 Uiso 1 1 calc R . .
H35B H 1.3849 0.6664 0.2138 0.050 Uiso 1 1 calc R . .
C36 C 1.3072(5) 0.6805(4) 0.3770(3) 0.0415(15) Uani 1 1 d . . .
H36A H 1.3873 0.7105 0.3810 0.050 Uiso 1 1 calc R . .
H36B H 1.2949 0.6882 0.4247 0.050 Uiso 1 1 calc R . .
N1 N 1.2760(4) 0.5584(3) 0.2305(2) 0.0357(12) Uani 1 1 d . . .
N2 N 1.2398(4) 0.4173(3) 0.2423(2) 0.0363(12) Uani 1 1 d . . .
N3 N 1.2841(4) 0.5904(3) 0.3571(2) 0.0365(12) Uani 1 1 d . . .
N4 N 1.2354(4) 0.4486(3) 0.3660(2) 0.0406(13) Uani 1 1 d . . .
N5 N 1.1188(4) 0.2667(3) 0.2257(2) 0.0347(12) Uani 1 1 d . . .
N6 N 0.9417(4) 0.1813(3) 0.1909(2) 0.0362(12) Uani 1 1 d . . .
N7 N 1.0926(4) 0.3064(3) 0.3430(2) 0.0378(12) Uani 1 1 d . . .
N8 N 0.9128(4) 0.2220(3) 0.3069(2) 0.0409(13) Uani 1 1 d . . .
N9 N 0.7469(4) 0.1717(3) 0.1338(2) 0.0351(12) Uani 1 1 d . . .
N10 N 0.6343(4) 0.2478(3) 0.0871(2) 0.0393(12) Uani 1 1 d . . .
N11 N 0.7167(4) 0.2079(3) 0.2503(2) 0.0387(12) Uani 1 1 d . . .
N12 N 0.5854(4) 0.2659(3) 0.2003(3) 0.0421(13) Uani 1 1 d . . .
N13 N 0.6239(4) 0.3893(3) 0.0639(3) 0.0455(13) Uani 1 1 d . . .
N14 N 0.6646(5) 0.5324(3) 0.0609(3) 0.0481(14) Uani 1 1 d . . .
N15 N 0.5600(4) 0.4036(3) 0.1714(3) 0.0464(14) Uani 1 1 d . . .
N16 N 0.6159(4) 0.5472(3) 0.1764(3) 0.0446(13) Uani 1 1 d . . .
N17 N 0.7606(4) 0.6852(3) 0.0757(2) 0.0411(13) Uani 1 1 d . . .
N18 N 0.9372(4) 0.7744(3) 0.1142(3) 0.0385(12) Uani 1 1 d . . .
N19 N 0.7312(4) 0.6986(3) 0.1954(3) 0.0448(13) Uani 1 1 d . . .
N20 N 0.9102(4) 0.7752(3) 0.2356(3) 0.0433(13) Uani 1 1 d . . .
N21 N 1.1321(4) 0.7774(3) 0.1639(2) 0.0386(12) Uani 1 1 d . . .
N22 N 1.2391(4) 0.6932(3) 0.2020(2) 0.0352(12) Uani 1 1 d . . .
N23 N 1.1059(4) 0.7835(3) 0.2853(3) 0.0412(13) Uani 1 1 d . . .
N24 N 1.2387(4) 0.7219(3) 0.3272(2) 0.0412(13) Uani 1 1 d . . .
O1 O 1.1802(3) 0.4584(2) 0.12989(19) 0.0385(10) Uani 1 1 d . . .
O2 O 1.0272(3) 0.2461(3) 0.10579(19) 0.0407(10) Uani 1 1 d . . .
O3 O 0.7852(3) 0.2518(3) 0.04029(19) 0.0415(10) Uani 1 1 d . . .
O4 O 0.6060(4) 0.4443(3) -0.0466(2) 0.0540(12) Uani 1 1 d . . .
O5 O 0.8920(3) 0.6697(3) 0.0177(2) 0.0458(11) Uani 1 1 d . . .
O6 O 1.1333(3) 0.6688(3) 0.0823(2) 0.0473(11) Uani 1 1 d . . .
O7 O 1.1880(3) 0.5351(3) 0.4422(2) 0.0491(11) Uani 1 1 d . . .
O8 O 0.9573(3) 0.3443(3) 0.3870(2) 0.0496(11) Uani 1 1 d . . .
O9 O 0.6885(3) 0.3185(3) 0.3174(2) 0.0479(11) Uani 1 1 d . . .
O10 O 0.4809(4) 0.4822(3) 0.2349(3) 0.0605(13) Uani 1 1 d . . .
O11 O 0.8270(4) 0.6851(3) 0.3110(2) 0.0577(12) Uani 1 1 d . . .
O12 O 1.1014(4) 0.7137(3) 0.3872(2) 0.0591(13) Uani 1 1 d . . .

loop_
_atom_site_aniso_label
_atom_site_aniso_U_11
_atom_site_aniso_U_22
_atom_site_aniso_U_33
_atom_site_aniso_U_23
_atom_site_aniso_U_13
_atom_site_aniso_U_12
Cl6 0.192(4) 0.076(2) 0.432(7) 0.011(3) 0.163(5) 0.049(2)
Zn1 0.0741(7) 0.0538(6) 0.0759(6) -0.0019(5) 0.0350(5) 0.0078(5)
Cl2 0.0770(14) 0.0756(14) 0.0735(13) 0.0122(11) 0.0271(11) 0.0110(11)
Cl3 0.0944(17) 0.0552(13) 0.142(2) 0.0069(13) 0.0722(16) 0.0132(12)
Cl4 0.135(2) 0.0837(16) 0.0707(15) 0.0026(12) 0.0114(15) 0.0099(15)
Cl5 0.135(2) 0.0959(19) 0.170(3) 0.0015(18) 0.084(2) 0.0449(18)
O1W 0.042(3) 0.045(3) 0.057(3) 0.008(2) 0.019(2) 0.018(2)
O2W 0.051(3) 0.066(3) 0.040(2) -0.002(2) 0.018(2) 0.004(2)
O3W 0.064(3) 0.072(3) 0.047(3) 0.004(2) 0.022(2) 0.007(3)
O4W 0.166(6) 0.071(4) 0.058(3) 0.007(3) 0.062(4) 0.030(4)
O5W 0.112(5) 0.131(6) 0.179(7) 0.065(5) 0.070(5) 0.064(5)
O6W 0.051(4) 0.139(5) 0.117(5) -0.026(4) 0.029(3) 0.017(4)
Sr1 0.0405(4) 0.0423(4) 0.0291(3) 0.0026(2) 0.0120(3) 0.0146(3)
Sr2 0.0471(4) 0.0492(4) 0.0331(3) -0.0033(3) 0.0149(3) 0.0078(3)
Cl1 0.0610(13) 0.1260(19) 0.0526(11) -0.0249(11) 0.0214(10) 0.0243(12)
C1 0.026(3) 0.028(3) 0.034(3) -0.006(3) 0.012(3) 0.008(3)
C2 0.029(3) 0.050(4) 0.028(3) -0.007(3) 0.009(3) 0.011(3)
C3 0.027(3) 0.053(4) 0.027(3) 0.007(3) 0.010(3) 0.016(3)
C4 0.030(3) 0.041(4) 0.032(3) -0.001(3) 0.011(3) 0.010(3)
C5 0.045(4) 0.036(4) 0.040(3) -0.001(3) 0.021(3) 0.020(3)
C6 0.037(4) 0.051(4) 0.027(3) 0.011(3) 0.008(3) 0.011(3)
C7 0.036(4) 0.028(3) 0.045(4) 0.003(3) 0.015(3) 0.020(3)
C8 0.045(4) 0.050(4) 0.038(4) 0.013(3) 0.013(3) 0.020(3)
C9 0.041(4) 0.032(3) 0.038(3) 0.004(3) 0.015(3) 0.013(3)
C10 0.035(4) 0.045(4) 0.030(3) 0.002(3) 0.005(3) 0.011(3)
C11 0.043(4) 0.031(3) 0.038(3) 0.001(3) 0.015(3) 0.008(3)
C12 0.038(4) 0.049(4) 0.040(4) 0.007(3) 0.016(3) 0.013(3)
C13 0.035(4) 0.028(3) 0.035(3) -0.010(3) -0.001(3) 0.007(3)
C14 0.031(3) 0.033(3) 0.044(4) 0.003(3) 0.016(3) 0.007(3)
C15 0.021(3) 0.048(4) 0.038(3) -0.002(3) 0.005(3) 0.005(3)
C16 0.042(4) 0.043(4) 0.037(4) 0.002(3) 0.017(3) 0.002(3)
C17 0.043(4) 0.045(4) 0.033(3) -0.012(3) 0.000(3) 0.008(3)
C18 0.029(4) 0.050(4) 0.042(4) 0.005(3) 0.012(3) 0.003(3)
C19 0.037(4) 0.047(4) 0.038(4) 0.005(3) 0.006(3) 0.019(3)
C20 0.041(4) 0.041(4) 0.032(3) 0.008(3) 0.017(3) 0.006(3)
C21 0.035(4) 0.047(4) 0.035(3) 0.004(3) 0.018(3) 0.003(3)
C22 0.030(4) 0.059(5) 0.055(4) 0.016(3) 0.023(3) 0.022(3)
C23 0.040(4) 0.061(5) 0.040(4) 0.012(3) 0.008(3) 0.011(4)
C24 0.051(4) 0.054(5) 0.055(4) 0.005(3) 0.030(4) 0.016(4)
C25 0.041(4) 0.049(4) 0.030(3) 0.015(3) 0.016(3) 0.016(3)
C26 0.035(4) 0.048(4) 0.050(4) 0.007(3) 0.021(3) 0.014(3)
C27 0.047(4) 0.042(4) 0.045(4) 0.006(3) 0.023(3) 0.024(3)
C28 0.063(5) 0.049(4) 0.044(4) 0.003(3) 0.029(4) 0.026(4)
C29 0.052(4) 0.039(4) 0.040(4) 0.011(3) 0.020(3) 0.019(3)
C30 0.068(5) 0.048(4) 0.047(4) -0.012(3) 0.022(4) 0.025(4)
C31 0.041(4) 0.046(4) 0.043(4) 0.015(3) 0.020(3) 0.012(3)
C32 0.051(4) 0.041(4) 0.034(3) 0.000(3) 0.017(3) 0.010(3)
C33 0.030(3) 0.041(4) 0.034(3) -0.004(3) 0.004(3) 0.010(3)
C34 0.044(4) 0.044(4) 0.040(4) -0.007(3) 0.012(3) 0.013(3)
C35 0.050(4) 0.045(4) 0.037(3) 0.005(3) 0.021(3) 0.017(3)
C36 0.048(4) 0.047(4) 0.029(3) -0.001(3) 0.010(3) 0.016(3)
N1 0.035(3) 0.048(3) 0.028(3) 0.005(2) 0.011(2) 0.017(3)
N2 0.032(3) 0.047(3) 0.035(3) 0.009(2) 0.015(2) 0.014(2)
N3 0.034(3) 0.047(3) 0.029(3) -0.003(2) 0.012(2) 0.011(3)
N4 0.034(3) 0.059(4) 0.032(3) 0.007(3) 0.016(2) 0.012(3)
N5 0.032(3) 0.039(3) 0.033(3) 0.007(2) 0.013(2) 0.008(2)
N6 0.034(3) 0.045(3) 0.032(3) 0.003(2) 0.011(2) 0.015(3)
N7 0.033(3) 0.046(3) 0.032(3) -0.003(2) 0.010(2) 0.008(2)
N8 0.039(3) 0.051(3) 0.033(3) -0.002(2) 0.016(2) 0.010(3)
N9 0.032(3) 0.041(3) 0.034(3) 0.005(2) 0.010(2) 0.013(2)
N10 0.043(3) 0.047(3) 0.029(3) 0.007(2) 0.008(2) 0.016(3)
N11 0.040(3) 0.045(3) 0.029(3) 0.000(2) 0.004(2) 0.014(3)
N12 0.041(3) 0.049(3) 0.037(3) -0.002(2) 0.009(3) 0.018(3)
N13 0.055(4) 0.049(3) 0.034(3) 0.001(3) 0.013(3) 0.019(3)
N14 0.064(4) 0.047(3) 0.034(3) 0.013(3) 0.013(3) 0.018(3)
N15 0.038(3) 0.053(4) 0.062(3) 0.014(3) 0.033(3) 0.018(3)
N16 0.04