####################################################################### 
# 
# This file contains crystal structure data downloaded from the 
# Cambridge Structural Database (CSD) hosted by the Cambridge 
# Crystallographic Data Centre (CCDC).
# 
# Full information about CCDC data access policies and citation 
# guidelines are available at http://www.ccdc.cam.ac.uk/access/V1 
# 
# Audit and citation data items may have been added by the CCDC. 
# Please retain this information to preserve the provenance of 
# this file and to allow appropriate attribution of the data. 
# 
#######################################################################

data_[Ni3(btc)2(py)9(H2O)3].guest
_audit_block_doi                 10.5517/cc52wkn
_database_code_depnum_ccdc_archive 'CCDC 151731'
loop_
_citation_id
_citation_doi
_citation_year
1 10.1006/jssc.2000.8691 2000
_audit_update_record             
;
2000-10-30 deposited with the CCDC.	2024-07-10 downloaded from the CCDC.
;

_audit_creation_method           SHELXL-97
_chemical_name_systematic        
; 
? 
;
_chemical_name_common            ?
_chemical_melting_point          ?
_chemical_formula_moiety         'C126 H114 N18 Ni6 O30, 8(C5 O1 H12), 3(C5H5N)'
_chemical_formula_sum            'C181 H225 N21 Ni6 O38'
_chemical_formula_weight         3655.08

loop_
_atom_type_symbol
_atom_type_description
_atom_type_scat_dispersion_real
_atom_type_scat_dispersion_imag
_atom_type_scat_source
C C 0.0033 0.0016 'International Tables Vol C Tables 4.2.6.8 and 6.1.1.4'
H H 0.0000 0.0000 'International Tables Vol C Tables 4.2.6.8 and 6.1.1.4'
N N 0.0061 0.0033 'International Tables Vol C Tables 4.2.6.8 and 6.1.1.4'
O O 0.0106 0.0060 'International Tables Vol C Tables 4.2.6.8 and 6.1.1.4'
Ni Ni 0.3393 1.1124 'International Tables Vol C Tables 4.2.6.8 and 6.1.1.4'

_symmetry_cell_setting           trigonal
_symmetry_space_group_name_H-M   R-3
_symmetry_Int_Tables_number      148

loop_
_symmetry_equiv_pos_as_xyz
'x, y, z'
'-y, x-y, z'
'-x+y, -x, z'
'x+2/3, y+1/3, z+1/3'
'-y+2/3, x-y+1/3, z+1/3'
'-x+y+2/3, -x+1/3, z+1/3'
'x+1/3, y+2/3, z+2/3'
'-y+1/3, x-y+2/3, z+2/3'
'-x+y+1/3, -x+2/3, z+2/3'
'-x, -y, -z'
'y, -x+y, -z'
'x-y, x, -z'
'-x+2/3, -y+1/3, -z+1/3'
'y+2/3, -x+y+1/3, -z+1/3'
'x-y+2/3, x+1/3, -z+1/3'
'-x+1/3, -y+2/3, -z+2/3'
'y+1/3, -x+y+2/3, -z+2/3'
'x-y+1/3, x+2/3, -z+2/3'

_cell_length_a                   19.546(1)
_cell_length_b                   19.546(1)
_cell_length_c                   42.028(1)
_cell_angle_alpha                90.00
_cell_angle_beta                 90.00
_cell_angle_gamma                120.00
_cell_volume                     13905.4(11)
_cell_formula_units_Z            3
_cell_measurement_temperature    150(2)
_cell_measurement_reflns_used    43872
_cell_measurement_theta_min      1.30
_cell_measurement_theta_max      26.46

_exptl_crystal_description       'transparent blocks'
_exptl_crystal_colour            blue
_exptl_crystal_size_max          0.40
_exptl_crystal_size_mid          0.35
_exptl_crystal_size_min          0.30
_exptl_crystal_density_meas      ?
_exptl_crystal_density_diffrn    1.309
_exptl_crystal_density_method    'not measured'
_exptl_crystal_F_000             5790
_exptl_absorpt_coefficient_mu    0.675
_exptl_absorpt_correction_type   none
_exptl_absorpt_correction_T_min  1.0
_exptl_absorpt_correction_T_max  1.0

_exptl_special_details           
; 
? 
;

_diffrn_crystal_treatment        'Flash cooled in nitrogen stream'
_diffrn_ambient_temperature      150(2)
_diffrn_radiation_wavelength     0.71073
_diffrn_radiation_type           MoK\a
_diffrn_radiation_source         'fine-focus sealed tube'
_diffrn_radiation_monochromator  graphite
_diffrn_measurement_device       'Enraf-Nonius DIP2000 diffractometer'
_diffrn_detector                 'Eu/Ba image plate'
_diffrn_measurement_method       'Ninety 2-degree oscillations in phi'
_diffrn_standards_decay_%        0
_diffrn_reflns_number            33226
_diffrn_reflns_av_R_equivalents  0.060
_diffrn_reflns_av_sigmaI/netI    0.0318
_diffrn_reflns_limit_h_min       -24
_diffrn_reflns_limit_h_max       24
_diffrn_reflns_limit_k_min       -20
_diffrn_reflns_limit_k_max       20
_diffrn_reflns_limit_l_min       -52
_diffrn_reflns_limit_l_max       52
_diffrn_reflns_theta_min         1.30
_diffrn_reflns_theta_max         26.46
_reflns_number_total             6368
_reflns_number_gt                5518
_reflns_threshold_expression     >2sigma(I)

_computing_data_collection       'XPRESS (MAC Science, 1989)'
_computing_cell_refinement       'HKL (Otwinowski & Minor, 1996)'
_computing_data_reduction        'HKL (Otwinowski & Minor, 1996)'
_computing_structure_solution    'SHELXS-97 (Sheldrick, 1990)'
_computing_structure_refinement  'SHELXL-97 (Sheldrick, 1997)'
_computing_molecular_graphics    XPMA/ZORTEP
_computing_publication_material  CIFTAB

_refine_special_details          
; 
Refinement of F^2^ against ALL reflections.  The weighted R-factor wR and 
goodness of fit S are based on F^2^, conventional R-factors R are based 
on F, with F set to zero for negative F^2^. The threshold expression of 
F^2^ > 2sigma(F^2^) is used only for calculating R-factors(gt) etc. and is 
not relevant to the choice of reflections for refinement.  R-factors based 
on F^2^ are statistically about twice as large as those based on F, and R- 
factors based on ALL data will be even larger. 

The material is a 2-D framework material based on a hexagonal sheet
network of benzenetricarboxylate (btc) coordinated through Ni cations. Like
other such frameworks, this material contains disordered solvent molecules
lying within micropores. Great care has been taken to maximally model this
disorder.

Of the Ni3(btc)2(py)9(H2O)3 framework atoms, only the water molecule oxygen
atom O3 is noticeably disordered. This atom was refined isotropically in two
orientations with occupations 0.84(2) and 0.16(2). 

Due to difficulties in locating and refining all solvent species lying
within the pores of this material (there is a micropore centred about the
origin that is thought to contain water, although attempts to refine
partial occupation in this region was unstable), the stoichiometry of the
crystal as ascertained from the single crystal diffraction experiment
differs from that found from elemental microanalysis and is inconsistent
with behaviour observed in thermogravimetric experiments. These latter
methods suggest a stoichiometry 
[Ni3(btc)2(py)9(H2O)3].3.3(mb).1.5(py).4(H2O) rather than
[Ni3(btc)2(py)9(H2O)3].4(mb).1.5(py) as reported here.

All three solvent species modelled are disordered. The pyridine molecule
is centred on an inversion centre and has 50% disorder. The first 
2-methyl-1-butanol (mb) molecule lies on a general position but has two
different orientations with occupancies 0.62 and 0.38. Both orientations
were found to have the same chirality, suggesting that chiral pores within
molecular framework materials may show enantioselectivity in their
inclusion chemistry (although in this achiral material there are an equal
number of left and right-handed micropores). The second mb molecule sits
disordered about a three-fold axis and has three 1/3-occupied orientations.
For both the pyridine and the second mb molecules, symmetry related sites
were found to superimpose onto atom sites of the alternative molecular
orientations, allowing these sites to be modelled anisotropically with
100% occupation. 

Here we provide a definition of all of the restraints in SHELXL-97 format:
SADI C21 H21 C22 H22 C23 H23 C24 H24 C25 H25 =
C31 H31 C32 H32 C33 H33 C34 H34 C35 H35 =
C41 H41 C42 H42 C43 H43 C44 H44 C45 H45 =
C51 H51 C52 H52 C53 H53
SADI O3A H3A O3A H3B
SADI NI1 H3A NI1 H3B
SADI 0.1 O12 H3A O2 H3B
DFIX 1.7 0.1 H3A H3B
DFIX 1.5 0.05 C61 C62A C62A C63A C62A C64A C64A C65A
DFIX 1.5 0.05 C61 C62B C62B C63B C62B C64B C64B C65B
SADI 0.1 C61 C63A C61 C64A C62A C65A C63A C64A
SADI 0.1 C61 C63B C61 C64B C62B C65B C63B C64B
EXYZ O71 C71
EADP O71 C71
EXYZ C51 N51
EADP C51 N51

As a result of applying these restraints, geometry analyses both for the
solvent 2-methyl-1-butanol molecules and for hydrogen atom distances should
be interpreted with caution.
;

_refine_ls_structure_factor_coef Fsqd
_refine_ls_matrix_type           full
_refine_ls_weighting_scheme      calc
_refine_ls_weighting_details     
'calc w=1/[\s^2^(Fo^2^)+(0.0483P)^2^+295.6701P] where P=(Fo^2^+2Fc^2^)/3'
_atom_sites_solution_primary     Patterson
_atom_sites_solution_secondary   difmap
_atom_sites_solution_hydrogens   geom
_refine_ls_hydrogen_treatment    mixed
_refine_ls_extinction_method     none
_refine_ls_extinction_coef       ?
_refine_ls_number_reflns         6368
_refine_ls_number_parameters     408
_refine_ls_number_restraints     177
_refine_ls_R_factor_all          0.0991
_refine_ls_R_factor_gt           0.0910
_refine_ls_wR_factor_ref         0.2337
_refine_ls_wR_factor_gt          0.2304
_refine_ls_goodness_of_fit_ref   1.159
_refine_ls_restrained_S_all      1.147
_refine_ls_shift/su_max          0.000
_refine_ls_shift/su_mean         0.000

loop_
_atom_site_label
_atom_site_type_symbol
_atom_site_fract_x
_atom_site_fract_y
_atom_site_fract_z
_atom_site_U_iso_or_equiv
_atom_site_adp_type
_atom_site_occupancy
_atom_site_symmetry_multiplicity
_atom_site_calc_flag
_atom_site_refinement_flags
_atom_site_disorder_assembly
_atom_site_disorder_group
Ni1 Ni 0.15541(4) 0.33361(4) 0.086713(18) 0.0278(2) Uani 1 1 d D . .
O1 O 0.0945(2) 0.2143(2) 0.09562(10) 0.0312(8) Uani 1 1 d . . .
O2 O 0.1889(2) 0.1850(2) 0.08392(12) 0.0434(11) Uani 1 1 d D . .
O3 O 0.2614(3) 0.3362(3) 0.0949(2) 0.0295(12) Uiso 0.841(18) 1 d PD . .
O3B O 0.2651(16) 0.3366(15) 0.0817(10) 0.0295(12) Uiso 0.159(18) 1 d P . .
H3A H 0.293(3) 0.376(3) 0.0783(12) 0.0295(12) Uiso 1 1 d D . .
H3B H 0.246(3) 0.285(2) 0.0856(13) 0.0295(12) Uiso 1 1 d D . .
C1 C 0.1186(3) 0.1662(3) 0.08976(14) 0.0302(11) Uani 1 1 d . . .
C2 C 0.0571(3) 0.0805(3) 0.08972(13) 0.0280(11) Uani 1 1 d . . .
C3 C 0.0797(3) 0.0230(3) 0.08956(13) 0.0270(11) Uani 1 1 d . . .
H3 H 0.134(4) 0.038(3) 0.0899(13) 0.028(15) Uiso 1 1 d . . .
O11 O 0.2138(2) 0.4523(2) 0.07750(11) 0.0351(9) Uani 1 1 d . . .
O12 O 0.3384(2) 0.4818(2) 0.06893(12) 0.0429(11) Uani 1 1 d D . .
C11 C 0.2866(3) 0.5001(3) 0.07362(15) 0.0322(12) Uani 1 1 d . . .
C12 C 0.3109(3) 0.5868(3) 0.07413(14) 0.0300(12) Uani 1 1 d . . .
C13 C 0.2539(3) 0.6100(3) 0.07394(14) 0.0300(12) Uani 1 1 d . . .
H13 H 0.201(4) 0.576(4) 0.0777(17) 0.05(2) Uiso 1 1 d . . .
N21 N 0.1575(3) 0.3586(3) 0.13583(12) 0.0377(11) Uani 1 1 d . . .
C21 C 0.1510(5) 0.4191(4) 0.14625(18) 0.0511(17) Uani 1 1 d D . .
H21 H 0.152(4) 0.456(3) 0.1317(11) 0.032(16) Uiso 1 1 d D . .
C22 C 0.1548(6) 0.4375(5) 0.1786(2) 0.068(2) Uani 1 1 d D . .
H22 H 0.1501 0.4804 0.1852 0.082 Uiso 1 1 calc RD . .
C23 C 0.1654(6) 0.3919(6) 0.2003(2) 0.075(3) Uani 1 1 d D . .
H23 H 0.1674 0.4024 0.2220 0.090 Uiso 1 1 calc RD . .
C24 C 0.1732(6) 0.3288(6) 0.18905(18) 0.072(3) Uani 1 1 d D . .
H24 H 0.1812 0.2967 0.2031 0.087 Uiso 1 1 calc RD . .
C25 C 0.1687(5) 0.3154(5) 0.15684(16) 0.0558(19) Uani 1 1 d D . .
H25 H 0.1738 0.2733 0.1495 0.067 Uiso 1 1 calc RD . .
N31 N 0.0485(3) 0.3346(3) 0.08296(12) 0.0331(10) Uani 1 1 d . . .
C31 C 0.0439(4) 0.3891(4) 0.06458(17) 0.0419(14) Uani 1 1 d D . .
H31 H 0.091(2) 0.423(3) 0.0542(13) 0.032(16) Uiso 1 1 d D . .
C32 C -0.0236(4) 0.3947(5) 0.0625(2) 0.0562(19) Uani 1 1 d D . .
H32 H -0.0248 0.4330 0.0497 0.067 Uiso 1 1 calc RD . .
C33 C -0.0883(4) 0.3434(5) 0.0795(2) 0.0539(18) Uani 1 1 d D . .
H33 H -0.136(3) 0.343(5) 0.081(2) 0.07(3) Uiso 1 1 d D . .
C34 C -0.0846(4) 0.2869(5) 0.09812(19) 0.0517(17) Uani 1 1 d D . .
H34 H -0.125(3) 0.253(3) 0.1117(13) 0.05(2) Uiso 1 1 d D . .
C35 C -0.0156(4) 0.2843(4) 0.09885(16) 0.0395(14) Uani 1 1 d D . .
H35 H -0.011(4) 0.247(3) 0.1108(13) 0.039(18) Uiso 1 1 d D . .
N41 N 0.1492(3) 0.3061(3) 0.03792(12) 0.0341(10) Uani 1 1 d . . .
C41 C 0.2107(4) 0.3459(4) 0.01792(16) 0.0434(15) Uani 1 1 d D . .
H41 H 0.257(2) 0.387(2) 0.0263(13) 0.026(15) Uiso 1 1 d D . .
C42 C 0.2054(5) 0.3291(5) -0.01406(17) 0.0568(19) Uani 1 1 d D . .
H42 H 0.2490 0.3573 -0.0272 0.068 Uiso 1 1 calc RD . .
C43 C 0.1350(5) 0.2703(5) -0.02658(16) 0.0540(18) Uani 1 1 d D . .
H43 H 0.1305 0.2594 -0.0483 0.065 Uiso 1 1 calc RD . .
C44 C 0.0720(4) 0.2284(4) -0.00685(17) 0.0514(17) Uani 1 1 d D . .
H44 H 0.0243 0.1881 -0.0147 0.062 Uiso 1 1 calc RD . .
C45 C 0.0812(4) 0.2476(4) 0.02529(16) 0.0401(14) Uani 1 1 d D . .
H45 H 0.037(2) 0.228(3) 0.0383(10) 0.017(13) Uiso 1 1 d D . .
C51 C 0.2619(11) 0.1450(14) 0.1521(3) 0.139(6) Uani 0.50 1 d PD . .
H51 H 0.2149 0.1314 0.1415 0.167 Uiso 0.50 1 calc PRD . .
N51 N 0.2619(11) 0.1450(14) 0.1521(3) 0.139(6) Uani 0.50 1 d P . .
C52 C 0.3308(14) 0.2246(14) 0.1496(3) 0.137(6) Uani 1 1 d D . .
H52 H 0.3281 0.2642 0.1384 0.164 Uiso 1 1 calc RD . .
C53 C 0.2689(10) 0.0948(10) 0.1694(4) 0.113(4) Uani 1 1 d D . .
H53 H 0.2245 0.0453 0.1722 0.135 Uiso 1 1 calc RD . .
O61 O 0.4429(9) 0.5440(7) 0.0156(3) 0.183(5) Uani 1 1 d . A .
C61 C 0.4413(12) 0.6049(11) -0.0006(4) 0.150(7) Uani 1 1 d D . .
C62A C 0.5024(16) 0.6261(16) -0.0281(6) 0.127(7) Uiso 0.622(14) 1 d PD A 1
H62A H 0.4798 0.5777 -0.0400 0.152 Uiso 0.622(14) 1 calc PR A 1
C63A C 0.5780(16) 0.6420(18) -0.0235(7) 0.151(9) Uiso 0.622(14) 1 d PD A 1
H63A H 0.6045 0.6525 -0.0437 0.226 Uiso 0.622(14) 1 calc PR A 1
H63B H 0.5774 0.5974 -0.0137 0.226 Uiso 0.622(14) 1 calc PR A 1
H63C H 0.6054 0.6875 -0.0100 0.226 Uiso 0.622(14) 1 calc PR A 1
C64A C 0.4955(16) 0.6839(15) -0.0521(6) 0.131(7) Uiso 0.622(14) 1 d PD A 1
H64A H 0.4412 0.6612 -0.0585 0.164 Uiso 0.622(14) 1 calc PR A 1
H64B H 0.5100 0.7325 -0.0412 0.164 Uiso 0.622(14) 1 calc PR A 1
C65A C 0.542(2) 0.701(2) -0.0795(7) 0.192(12) Uiso 0.622(14) 1 d PD A 1
H65A H 0.5348 0.7371 -0.0927 0.289 Uiso 0.622(14) 1 calc PR A 1
H65B H 0.5267 0.6533 -0.0911 0.289 Uiso 0.622(14) 1 calc PR A 1
H65C H 0.5967 0.7248 -0.0735 0.289 Uiso 0.622(14) 1 calc PR A 1
C62B C 0.468(2) 0.632(2) -0.0317(9) 0.127(7) Uiso 0.378(14) 1 d PD A 2
H62B H 0.4337 0.5898 -0.0455 0.152 Uiso 0.378(14) 1 calc PR A 2
C63B C 0.554(3) 0.650(3) -0.0398(12) 0.151(9) Uiso 0.378(14) 1 d PD A 2
H63D H 0.5662 0.6675 -0.0615 0.226 Uiso 0.378(14) 1 calc PR A 2
H63E H 0.5570 0.6029 -0.0370 0.226 Uiso 0.378(14) 1 calc PR A 2
H63F H 0.5912 0.6907 -0.0259 0.226 Uiso 0.378(14) 1 calc PR A 2
C64B C 0.451(3) 0.696(2) -0.0383(9) 0.131(7) Uiso 0.378(14) 1 d PD A 2
H64C H 0.4883 0.7421 -0.0269 0.164 Uiso 0.378(14) 1 calc PR A 2
H64D H 0.3994 0.6805 -0.0297 0.164 Uiso 0.378(14) 1 calc PR A 2
C65B C 0.452(3) 0.719(3) -0.0727(11) 0.192(12) Uiso 0.378(14) 1 d PD A 2
H65D H 0.4424 0.7627 -0.0738 0.289 Uiso 0.378(14) 1 calc PR A 2
H65E H 0.4112 0.6750 -0.0842 0.289 Uiso 0.378(14) 1 calc PR A 2
H65F H 0.5023 0.7340 -0.0819 0.289 Uiso 0.378(14) 1 calc PR A 2
O71 O 0.017(3) 0.137(2) 0.1990(11) 0.34(3) Uani 0.33 1 d P . .
C71 C 0.017(3) 0.137(2) 0.1990(11) 0.34(3) Uani 0.33 1 d P . .
C72 C 0.055(2) 0.088(2) 0.1871(9) 0.282(19) Uani 1 1 d . . .
C73 C 0.0000 0.0000 0.1856(17) 0.27(3) Uani 1 3 d S . .

loop_
_atom_site_aniso_label
_atom_site_aniso_U_11
_atom_site_aniso_U_22
_atom_site_aniso_U_33
_atom_site_aniso_U_23
_atom_site_aniso_U_13
_atom_site_aniso_U_12
Ni1 0.0238(4) 0.0212(3) 0.0379(4) 0.0002(3) 0.0005(3) 0.0107(3)
O1 0.0278(19) 0.0206(18) 0.044(2) -0.0004(16) 0.0035(16) 0.0112(15)
O2 0.025(2) 0.027(2) 0.076(3) -0.001(2) 0.008(2) 0.0115(17)
C1 0.024(3) 0.024(3) 0.042(3) 0.004(2) 0.002(2) 0.011(2)
C2 0.025(3) 0.023(3) 0.034(3) 0.001(2) 0.001(2) 0.011(2)
C3 0.020(3) 0.024(2) 0.036(3) -0.001(2) 0.000(2) 0.011(2)
O11 0.0244(19) 0.0206(18) 0.059(3) 0.0026(17) 0.0002(18) 0.0103(16)
O12 0.029(2) 0.027(2) 0.077(3) 0.000(2) -0.001(2) 0.0160(17)
C11 0.023(3) 0.021(3) 0.050(3) 0.003(2) -0.004(2) 0.010(2)
C12 0.029(3) 0.023(3) 0.040(3) 0.002(2) -0.002(2) 0.014(2)
C13 0.020(3) 0.025(3) 0.043(3) 0.002(2) 0.003(2) 0.010(2)
N21 0.044(3) 0.035(3) 0.037(3) -0.004(2) -0.004(2) 0.023(2)
C21 0.066(5) 0.050(4) 0.050(4) -0.011(3) -0.006(3) 0.038(4)
C22 0.084(6) 0.074(6) 0.064(5) -0.027(4) -0.015(4) 0.053(5)
C23 0.095(7) 0.097(7) 0.042(4) -0.018(4) -0.005(4) 0.054(6)
C24 0.114(8) 0.090(6) 0.038(4) -0.005(4) -0.016(4) 0.070(6)
C25 0.090(6) 0.057(4) 0.035(3) -0.009(3) -0.012(4) 0.048(4)
N31 0.023(2) 0.028(2) 0.047(3) -0.006(2) -0.001(2) 0.0127(19)
C31 0.034(3) 0.037(3) 0.058(4) 0.002(3) -0.008(3) 0.020(3)
C32 0.051(4) 0.052(4) 0.076(5) -0.002(4) -0.019(4) 0.034(4)
C33 0.042(4) 0.065(5) 0.068(5) -0.015(4) -0.013(3) 0.036(4)
C34 0.033(3) 0.056(4) 0.057(4) -0.009(4) 0.004(3) 0.016(3)
C35 0.034(3) 0.037(3) 0.047(4) 0.000(3) 0.002(3) 0.017(3)
N41 0.033(3) 0.033(2) 0.037(3) 0.000(2) 