####################################################################### 
# 
# This file contains crystal structure data downloaded from the 
# Cambridge Structural Database (CSD) hosted by the Cambridge 
# Crystallographic Data Centre (CCDC).
# 
# Full information about CCDC data access policies and citation 
# guidelines are available at http://www.ccdc.cam.ac.uk/access/V1 
# 
# Audit and citation data items may have been added by the CCDC. 
# Please retain this information to preserve the provenance of 
# this file and to allow appropriate attribution of the data. 
# 
#######################################################################

data_twin5_sq
_audit_block_doi                 10.5517/cc12qpdw
_database_code_depnum_ccdc_archive 'CCDC 1004908'
loop_
_citation_id
_citation_doi
_citation_year
1 10.1039/C4CC07642G 2015
_audit_update_record             
;
2014-05-23 deposited with the CCDC.	2024-07-10 downloaded from the CCDC.
;

_audit_creation_method           SHELXL-2014
_chemical_name_systematic        
;
 ?
;
_chemical_name_common            ?
_chemical_melting_point          ?
_chemical_formula_moiety         'C54 H32 O8 Zn2'
_chemical_formula_sum            'C54 H32 O8 Zn2'
_chemical_formula_weight         939.53

loop_
_atom_type_symbol
_atom_type_description
_atom_type_scat_dispersion_real
_atom_type_scat_dispersion_imag
_atom_type_scat_source
C C 0.0040 0.0020
'XDISP Program in WinGX L.Kissel & R.H.Pratt Acta Cryst A46 170 1990'
H H 0.0000 0.0000
'XDISP Program in WinGX L.Kissel & R.H.Pratt Acta Cryst A46 170 1990'
N N 0.0076 0.0040
'XDISP Program in WinGX L.Kissel & R.H.Pratt Acta Cryst A46 170 1990'
O O 0.0132 0.0074
'XDISP Program in WinGX L.Kissel & R.H.Pratt Acta Cryst A46 170 1990'
Zn Zn 0.2282 1.6718
'XDISP Program in WinGX L.Kissel & R.H.Pratt Acta Cryst A46 170 1990'

_space_group_crystal_system      monoclinic
_space_group_IT_number           15
_space_group_name_H-M_alt        'C 2/c'
_space_group_name_Hall           '-C 2yc'

_shelx_space_group_comment       
;
The symmetry employed for this shelxl refinement is uniquely defined
by the following loop, which should always be used as a source of
symmetry information in preference to the above space-group names.
They are only intended as comments.
;

loop_
_space_group_symop_operation_xyz
'x, y, z'
'-x, y, -z+1/2'
'x+1/2, y+1/2, z'
'-x+1/2, y+1/2, -z+1/2'
'-x, -y, -z'
'x, -y, z-1/2'
'-x+1/2, -y+1/2, -z'
'x+1/2, -y+1/2, z-1/2'

_cell_length_a                   36.929(5)
_cell_length_b                   31.080(4)
_cell_length_c                   11.8533(17)
_cell_angle_alpha                90
_cell_angle_beta                 99.228(2)
_cell_angle_gamma                90
_cell_volume                     13429(3)
_cell_formula_units_Z            8
_cell_measurement_temperature    100(2)
_cell_measurement_reflns_used    9787
_cell_measurement_theta_min      2.98
_cell_measurement_theta_max      27.83

_exptl_crystal_description       needle
_exptl_crystal_colour            colorless
_exptl_crystal_density_meas      ?
_exptl_crystal_density_method    ?
_exptl_crystal_density_diffrn    0.929
_exptl_crystal_F_000             3840
_exptl_transmission_factor_min   ?
_exptl_transmission_factor_max   ?
_exptl_crystal_size_max          0.500
_exptl_crystal_size_mid          0.200
_exptl_crystal_size_min          0.050
_exptl_absorpt_coefficient_mu    0.947
_shelx_estimated_absorpt_T_min   0.649
_shelx_estimated_absorpt_T_max   0.954
_exptl_absorpt_correction_type   multi-scan
_exptl_absorpt_correction_T_min  0.444
_exptl_absorpt_correction_T_max  0.954
_exptl_absorpt_process_details   'TWINABS (sHELDRICK, 2012/1)'

_exptl_special_details           
;
  
;

_diffrn_ambient_temperature      100(2)
_diffrn_radiation_wavelength     0.7749
_diffrn_radiation_type           synchrotron
_diffrn_source                   'Advanced Light Source station 11.3.1'
_diffrn_measurement_device_type  'Bruker APEX II CCD diffractometer'
_diffrn_measurement_method       '\w/\q scans'
_diffrn_detector_area_resol_mean ?
_diffrn_reflns_number            76786
_diffrn_reflns_av_unetI/netI     0.0466
_diffrn_reflns_av_R_equivalents  0.0979
_diffrn_reflns_limit_h_min       -44
_diffrn_reflns_limit_h_max       43
_diffrn_reflns_limit_k_min       0
_diffrn_reflns_limit_k_max       37
_diffrn_reflns_limit_l_min       0
_diffrn_reflns_limit_l_max       14
_diffrn_reflns_theta_min         2.806
_diffrn_reflns_theta_max         27.848
_diffrn_reflns_theta_full        27.706
_diffrn_measured_fraction_theta_max 0.998
_diffrn_measured_fraction_theta_full 0.998
_diffrn_reflns_Laue_measured_fraction_max 0.998
_diffrn_reflns_Laue_measured_fraction_full 0.998
_diffrn_reflns_point_group_measured_fraction_max 0.998
_diffrn_reflns_point_group_measured_fraction_full 0.998
_reflns_number_total             12293
_reflns_number_gt                8190
_reflns_threshold_expression     'I > 2\s(I)'
_reflns_Friedel_coverage         0.000
_reflns_Friedel_fraction_max     .
_reflns_Friedel_fraction_full    .

_reflns_special_details          
;
 Structure factors included contributions from the .fab file.
 
 _reflns_Friedel_fraction is defined as the number of unique
 Friedel pairs measured divided by the number that would be
 possible theoretically, ignoring centric projections and
 systematic absences.
;

_computing_data_collection       'Bruker APEX 2'
_computing_cell_refinement       'Bruker SAINT v8.27b'
_computing_data_reduction        'Bruker SAINT v8.27b'
_computing_structure_solution    'Bruker SHELXT (beta version)'
_computing_structure_refinement  'SHELXL-2014 (Sheldrick, 2014)'
_computing_molecular_graphics    'Bruker SHELXTL'
_computing_publication_material  'Bruker SHELXTL & local programs'

_refine_special_details          
;
  Data cut at 0.83 Angstroms as I/sigma < 2 and therefore on average unobserved.
 Several crystals were tried and this was the best crystal. The diffraction
 pattern showed twinning. Using Cell_now two orientation matices were
 determined, the relationship between these components was determined to be
 180 degrees about real axis 1 0 0.  The data were integrated using the
 two matrices in SAINT, TWINABS was used to produce a merged HKLF4 file,
 for structure solution and initial refinement, and HKLF5 file for final
 structure refinement. The HKLF5 file contained the merged reflections first
 component and those that overlapped with this component, which were split
 into 2 reflection. TWINABS indicated the twin faction to be 53:47 The structure
 was solved using the HKLF4 file, but the best refinement was given by the
 HKLF5 file. SHELXL refined the twin fraction to 54:46.
 All atoms were refined anisotropically. Hydrogens were placed in calculted
 position and refined using a riding model. The solvent was disordered and so
 the SQUEEZE ruotine in PLATON was used to generate and solvent mask. 
 The solvent molecules were not added to the chemical formula. The SAME
 restraint was use on the phenyl ring C30 > C35 as some of the distance were
 shorter (1.34 Ang) than would be expected.
   
;
_refine_ls_structure_factor_coef Fsqd
_refine_ls_matrix_type           full
_refine_ls_weighting_scheme      calc
_refine_ls_weighting_details     
'w=1/[\s^2^(Fo^2^)+(0.1339P)^2^+88.0993P] where P=(Fo^2^+2Fc^2^)/3'
_atom_sites_solution_primary     direct
_atom_sites_solution_secondary   difmap
_atom_sites_solution_hydrogens   geom
_refine_ls_hydrogen_treatment    constr
_refine_ls_extinction_method     none
_refine_ls_extinction_coef       .
_refine_ls_number_reflns         12293
_refine_ls_number_parameters     580
_refine_ls_number_restraints     12
_refine_ls_R_factor_all          0.1126
_refine_ls_R_factor_gt           0.0898
_refine_ls_wR_factor_ref         0.2935
_refine_ls_wR_factor_gt          0.2803
_refine_ls_goodness_of_fit_ref   1.058
_refine_ls_restrained_S_all      1.061
_refine_ls_shift/su_max          0.001
_refine_ls_shift/su_mean         0.000

loop_
_atom_site_label
_atom_site_type_symbol
_atom_site_fract_x
_atom_site_fract_y
_atom_site_fract_z
_atom_site_U_iso_or_equiv
_atom_site_adp_type
_atom_site_occupancy
_atom_site_site_symmetry_order
_atom_site_calc_flag
_atom_site_refinement_flags_posn
_atom_site_refinement_flags_adp
_atom_site_refinement_flags_occupancy
_atom_site_disorder_assembly
_atom_site_disorder_group
Zn01 Zn 0.23058(2) 0.25153(3) 0.86500(13) 0.0369(3) Uani 1 1 d . . . . .
Zn02 Zn 0.27013(2) -0.25148(3) 1.13453(13) 0.0378(3) Uani 1 1 d . . . . .
O1 O -0.23311(13) -0.20172(16) -0.1316(7) 0.0460(16) Uani 1 1 d . . . . .
C1 C -0.2055(2) -0.2016(2) -0.1654(8) 0.039(2) Uani 1 1 d . . . . .
O2 O -0.19571(12) -0.22384(15) -0.2365(5) 0.0383(14) Uani 1 1 d . . . . .
C2 C -0.1756(2) -0.1716(3) -0.1013(9) 0.059(3) Uani 1 1 d D . . . .
C3 C -0.1452(2) -0.1623(3) -0.1560(9) 0.059(3) Uani 1 1 d D . . . .
H3A H -0.1444 -0.1735 -0.2301 0.070 Uiso 1 1 calc R U . . .
C4 C -0.1166(3) -0.1371(4) -0.1031(9) 0.084(4) Uani 1 1 d D . . . .
H4A H -0.0959 -0.1313 -0.1390 0.101 Uiso 1 1 calc R U . . .
C5 C -0.1192(2) -0.1199(2) 0.0081(7) 0.044(2) Uani 1 1 d D . . . .
C6 C -0.1496(2) -0.1286(3) 0.0544(8) 0.059(3) Uani 1 1 d D . . . .
H6A H -0.1516 -0.1155 0.1255 0.071 Uiso 1 1 calc R U . . .
C7 C -0.1786(2) -0.1557(3) 0.0054(8) 0.056(2) Uani 1 1 d D . . . .
H7A H -0.1988 -0.1624 0.0430 0.067 Uiso 1 1 calc R U . . .
C8 C -0.0884(2) -0.0925(2) 0.0681(8) 0.041(2) Uani 1 1 d . . . . .
C9 C -0.06829(18) -0.06482(19) 0.0082(7) 0.0349(17) Uani 1 1 d . . . . .
H9A H -0.0737 -0.0631 -0.0728 0.042 Uiso 1 1 calc R U . . .
C10 C -0.04161(18) -0.0410(2) 0.0654(7) 0.0356(17) Uani 1 1 d . . . . .
H10A H -0.0293 -0.0204 0.0258 0.043 Uiso 1 1 calc R U . . .
C11 C -0.03110(19) -0.0461(2) 0.1881(7) 0.037(2) Uani 1 1 d . . . . .
C12 C -0.0482(2) -0.0743(2) 0.2423(8) 0.044(2) Uani 1 1 d . . . . .
H12A H -0.0411 -0.0784 0.3222 0.053 Uiso 1 1 calc R U . . .
C13 C -0.0776(2) -0.0988(3) 0.1809(8) 0.050(2) Uani 1 1 d . . . . .
H13A H -0.0897 -0.1198 0.2200 0.060 Uiso 1 1 calc R U . . .
C14 C 0.0000 -0.0190(3) 0.2500 0.040(3) Uani 1 2 d S T P . .
C15 C 0.0000 0.0238(3) 0.2500 0.036(2) Uani 1 2 d S T P . .
C16 C 0.03309(18) 0.0496(2) 0.3069(7) 0.0330(19) Uani 1 1 d . . . . .
C17 C 0.0245(2) 0.0845(2) 0.3753(7) 0.0412(19) Uani 1 1 d . . . . .
H17A H -0.0001 0.0908 0.3831 0.049 Uiso 1 1 calc R U . . .
C18 C 0.05364(19) 0.1091(2) 0.4305(7) 0.0400(18) Uani 1 1 d . . . . .
H18A H 0.0486 0.1326 0.4766 0.048 Uiso 1 1 calc R U . . .
C19 C 0.0897(2) 0.1003(2) 0.4203(7) 0.0373(19) Uani 1 1 d . . . . .
C20 C 0.09594(18) 0.0650(2) 0.3556(7) 0.0381(18) Uani 1 1 d . . . . .
H20A H 0.1204 0.0572 0.3487 0.046 Uiso 1 1 calc R U . . .
C21 C 0.06722(18) 0.0409(2) 0.3010(6) 0.0348(17) Uani 1 1 d . . . . .
H21A H 0.0725 0.0169 0.2569 0.042 Uiso 1 1 calc R U . . .
C22 C 0.1195(2) 0.1277(2) 0.4805(7) 0.041(2) Uani 1 1 d . . . . .
C23 C 0.1551(2) 0.1253(3) 0.4563(8) 0.046(2) Uani 1 1 d . . . . .
H23A H 0.1602 0.1045 0.4023 0.056 Uiso 1 1 calc R U . . .
C24 C 0.1838(2) 0.1516(3) 0.5063(11) 0.073(3) Uani 1 1 d . . . . .
H24A H 0.2070 0.1512 0.4814 0.088 Uiso 1 1 calc R U . . .
C25 C 0.1768(3) 0.1794(3) 0.5973(10) 0.057(2) Uani 1 1 d . . . . .
C26 C 0.1407(2) 0.1784(2) 0.6306(8) 0.043(2) Uani 1 1 d . . . . .
H26A H 0.1366 0.1952 0.6943 0.052 Uiso 1 1 calc R U . . .
C27 C 0.1121(2) 0.1544(2) 0.5747(7) 0.0406(18) Uani 1 1 d . . . . .
H27A H 0.0885 0.1553 0.5966 0.049 Uiso 1 1 calc R U . . .
C28 C 0.2064(2) 0.2057(2) 0.6642(8) 0.042(2) Uani 1 1 d . . . . .
O3 O 0.19647(14) 0.22904(16) 0.7316(5) 0.0436(15) Uani 1 1 d . . . . .
O4 O 0.23582(13) 0.20393(16) 0.6346(6) 0.0428(16) Uani 1 1 d . . . . .
O5 O 0.26104(13) 0.19975(16) 0.8937(6) 0.0409(14) Uani 1 1 d . . . . .
O6 O 0.30240(14) 0.22909(19) 1.0454(6) 0.0514(17) Uani 1 1 d . . . . .
C29 C 0.2959(2) 0.2028(3) 0.9535(8) 0.051(3) Uani 1 1 d . . . . .
C30 C 0.32429(18) 0.1751(2) 0.9251(8) 0.0367(19) Uani 1 1 d D . . . .
C31 C 0.3561(2) 0.1740(3) 0.9913(8) 0.063(3) Uani 1 1 d D . . . .
H31A H 0.3605 0.1913 1.0580 0.075 Uiso 1 1 calc R U . . .
C32 C 0.3844(2) 0.1466(3) 0.9629(8) 0.069(3) Uani 1 1 d D . . . .
H32A H 0.4072 0.1449 1.0126 0.082 Uiso 1 1 calc R U . . .
C33 C 0.3788(2) 0.1232(3) 0.8662(8) 0.049(2) Uani 1 1 d D . . . .
C34 C 0.3461(2) 0.1260(3) 0.7963(9) 0.072(3) Uani 1 1 d D . . . .
H34A H 0.3423 0.1116 0.7247 0.086 Uiso 1 1 calc R U . . .
C35 C 0.3184(2) 0.1501(2) 0.8302(7) 0.048(2) Uani 1 1 d D . . . .
H35A H 0.2946 0.1492 0.7859 0.057 Uiso 1 1 calc R U . . .
C36 C 0.4106(2) 0.0985(3) 0.8372(9) 0.047(2) Uani 1 1 d . . . . .
C37 C 0.4478(2) 0.1085(2) 0.8780(10) 0.059(3) Uani 1 1 d . . . . .
H37A H 0.4534 0.1326 0.9271 0.071 Uiso 1 1 calc R U . . .
C38 C 0.4759(2) 0.0841(2) 0.8480(8) 0.047(2) Uani 1 1 d . . . . .
H38A H 0.5005 0.0929 0.8738 0.056 Uiso 1 1 calc R U . . .
C39 C 0.4699(2) 0.0464(2) 0.7804(8) 0.040(2) Uani 1 1 d . . . . .
C40 C 0.4315(2) 0.0373(2) 0.7310(9) 0.057(3) Uani 1 1 d . . . . .
H40A H 0.4261 0.0144 0.6779 0.068 Uiso 1 1 calc R U . . .
C41 C 0.4028(2) 0.0618(3) 0.7611(9) 0.057(3) Uani 1 1 d . . . . .
H41A H 0.3782 0.0544 0.7317 0.068 Uiso 1 1 calc R U . . .
C42 C 0.5000 0.0228(3) 0.7500 0.043(3) Uani 1 2 d S T P . .
C43 C 0.5000 -0.0223(3) 0.7500 0.038(3) Uani 1 2 d S T P . .
C44 C 0.4719(2) -0.0476(2) 0.7922(8) 0.041(2) Uani 1 1 d . . . . .
C45 C 0.4611(2) -0.0430(2) 0.8946(9) 0.049(2) Uani 1 1 d . . . . .
H45A H 0.4737 -0.0237 0.9493 0.058 Uiso 1 1 calc R U . . .
C46 C 0.4302(2) -0.0676(3) 0.9215(9) 0.064(3) Uani 1 1 d . . . . .
H46A H 0.4216 -0.0621 0.9915 0.077 Uiso 1 1 calc R U . . .
C47 C 0.4133(3) -0.0977(3) 0.8513(9) 0.053(3) Uani 1 1 d . . . . .
C48 C 0.4242(3) -0.1010(3) 0.7426(10) 0.072(3) Uani 1 1 d . . . . .
H48A H 0.4110 -0.1198 0.6876 0.086 Uiso 1 1 calc R U . . .
C49 C 0.4516(3) -0.0791(3) 0.7148(9) 0.059(3) Uani 1 1 d . . . . .
H49A H 0.4586 -0.0838 0.6421 0.071 Uiso 1 1 calc R U . . .
C50 C 0.3813(2) -0.1211(3) 0.8828(9) 0.053(2) Uani 1 1 d . . . . .
C51 C 0.3510(3) -0.1323(3) 0.7958(9) 0.059(3) Uani 1 1 d . . . . .
H51A H 0.3507 -0.1241 0.7185 0.071 Uiso 1 1 calc R U . . .
C52 C 0.3224(2) -0.1550(3) 0.8273(8) 0.049(2) Uani 1 1 d . . . . .
H52A H 0.3004 -0.1584 0.7743 0.059 Uiso 1 1 calc R U . . .
C53 C 0.3251(2) -0.1732(2) 0.9367(7) 0.039(2) Uani 1 1 d . . . . .
C54 C 0.3544(2) -0.1653(3) 1.0142(9) 0.053(2) Uani 1 1 d . . . . .
H54A H 0.3570 -0.1789 1.0869 0.064 Uiso 1 1 calc R U . . .
C55 C 0.3820(2) -0.1368(3) 0.9888(8) 0.047(2) Uani 1 1 d . . . . .
H55A H 0.4013 -0.1286 1.0478 0.056 Uiso 1 1 calc R U . . .
C56 C 0.2953(2) -0.2014(3) 0.9584(8) 0.054(3) Uani 1 1 d . . . . .
O7 O 0.30378(14) -0.22871(19) 1.0493(6) 0.0509(17) Uani 1 1 d . . . . .
O8 O 0.26216(13) -0.19851(16) 0.8972(6) 0.0412(14) Uani 1 1 d . . . . .

loop_
_atom_site_aniso_label
_atom_site_aniso_U_11
_atom_site_aniso_U_22
_atom_site_aniso_U_33
_atom_site_aniso_U_23
_atom_site_aniso_U_13
_atom_site_aniso_U_12
Zn01 0.0227(4) 0.0378(5) 0.0464(5) -0.0233(3) -0.0059(8) -0.0004(3)
Zn02 0.0222(4) 0.0363(4) 0.0520(6) 0.0252(3) -0.0033(8) 0.0020(3)
O1 0.025(3) 0.036(3) 0.077(5) -0.028(3) 0.007(3) 0.000(2)
C1 0.036(4) 0.023(4) 0.053(5) -0.005(4) -0.012(4) 0.004(3)
O2 0.019(2) 0.032(3) 0.058(4) -0.032(3) -0.010(2) 0.005(2)
C2 0.051(5) 0.066(6) 0.058(7) -0.029(6) 0.000(5) -0.014(4)
C3 0.046(5) 0.062(6) 0.069(7) -0.036(5) 0.010(5) -0.027(4)
C4 0.084(8) 0.099(8) 0.072(8) -0.058(7) 0.019(6) -0.039(7)
C5 0.045(5) 0.034(4) 0.047(5) -0.023(4) -0.009(4) -0.019(4)
C6 0.066(6) 0.070(6) 0.041(5) -0.031(5) 0.009(5) -0.041(5)
C7 0.047(5) 0.070(6) 0.050(6) -0.024(5) 0.003(4) -0.019(4)
C8 0.044(4) 0.022(3) 0.053(6) -0.015(3) -0.004(4) -0.004(3)
C9 0.034(4) 0.020(3) 0.047(5) -0.005(3) -0.004(3) -0.008(3)
C10 0.029(4) 0.032(4) 0.044(4) 0.005(3) -0.002(3) -0.001(3)
C11 0.028(4) 0.025(3) 0.049(5) -0.007(4) -0.017(4) 0.008(3)
C12 0.047(4) 0.027(4) 0.052(5) 0.005(4) -0.009(4) -0.012(3)
C13 0.044(5) 0.044(4) 0.055(6) -0.005(4) -0.016(4) -0.018(4)
C14 0.047(6) 0.017(4) 0.046(7) 0.000 -0.021(7) 0.000
C15 0.028(5) 0.035(5) 0.041(6) 0.000 -0.008(6) 0.000
C16 0.028(4) 0.017(3) 0.048(5) -0.004(3) -0.012(3) -0.005(3)
C17 0.040(4) 0.028(4) 0.054(5) -0.008(3) 0.001(4) -0.007(3)
C18 0.037(4) 0.037(4) 0.044(4) -0.005(3) 0.001(3) -0.018(3)
C19 0.038(4) 0.036(4) 0.035(5) -0.003(3) -0.004(4) -0.008(3)
C20 0.025(3) 0.034(4) 0.055(5) -0.009(4) 0.005(3) -0.007(3)
C21 0.031(4) 0.027(3) 0.042(4) -0.005(3) -0.007(3) -0.003(3)
C22 0.049(5) 0.034(4) 0.037(5) -0.010(3) -0.005(4) -0.024(3)
C23 0.040(4) 0.051(5) 0.049(5) -0.024(4) 0.012(4) -0.027(4)
C24 0.037(5) 0.085(7) 0.101(9) -0.045(7) 0.023(6) -0.020(5)
C25 0.060(5) 0.071(6) 0.041(5) -0.017(5) 0.011(5) -0.031(5)
C26 0.040(4) 0.039(4) 0.050(5) -0.006(4) 0.004(4) -0.010(3)
C27 0.054(5) 0.026(3) 0.039(5) -0.004(3) 0.000(4) -0.005(3)
C28 0.046(5) 0.022(4) 0.052(5) -0.002(4) -0.009(4) -0.011(3)
O3 0.040(3) 0.035(3) 0.052(4) -0.025(3) -0.004(3) -0.002(2)
O4 0.025(3) 0.035(3) 0.065(4) -0.028(3) -0.003(3) 0.003(2)
O5 0.030(2) 0.041(3) 0.049(4) -0.015(3) 0.003(3) 0.015(2)
O6 0.030(3) 0.056(4) 0.065(4) -0.034(3) -0.002(3) 0.012(3)
C29 0.028(4) 0.060(5) 0.061(6) -0.042(5) -0.004(4) -0.001(4)
C30 0.025(3) 0.028(3) 0.056(6) -0.014(4) 0.005(4) 0.012(3)
C31 0.048(5) 0.080(6) 0.058(6) -0.039(5) 0.001(5) 0.025(5)
C32 0.036(4) 0.098(7) 0.065(7) -0.041(6) -0.017(4) 0.040(5)
C33 0.037(4) 0.041(4) 0.066(7) -0.008(4) 0.000(4) 0.012(4)
C34 0.051(5) 0.087(7) 0.073(8) -0.045(6) -0.006(6) 0.019(5)
C35 0.047(5) 0.048(5) 0.044(5) -0.023(4) -0.004(4) 0.023(4)
C36 0.034(4) 0.038(4) 0.070(7) -0.009(4) 0.015(4) 0.021(3)
C37 0.040(4) 0.032(4) 0.110(8) -0.023(5) 0.026(5) 0.004(3)
C38 0.032(4) 0.029(4) 0.083(7) -0.010(4) 0.022(4) 0.001(3)
C39 0.040(4) 0.018(3) 0.068(6) 0.002(4) 0.023(4) 0.003(3)
C40 0.053(5) 0.031(4) 0.090(7) -0.022(5) 0.025(5) 0.002(3)
C41 0.032(4) 0.057(5) 0.087(7) -0.022(5) 0.028(4) 0.007(4)
C42 0.033(5) 0.021(5) 0.077(9) 0.000 0.015(7) 0.000
C43 0.026(5) 0.015(4) 0.081(9) 0.000 0.029(7) 0.000
C44 0.036(4) 0.023(3) 0.064(6) -0.003(4) 0.013(4) -0.013(3)
C45 0.037(4) 0.031(4) 0.080(7) 0.005(4) 0.016(4) -0.015(3)
C46 0.048(5) 0.081(7) 0.067(7) 0.006(5) 0.022(5) -0.020(5)
C47 0.065(6) 0.047(5) 0.049(6) -0.008(4) 0.015(5) -0.040(4)
C48 0.086(7) 0.048(5) 0.087(8) -0.028(5) 0.033(6) -0.045(5)
C49 0.072(6) 0.044(5) 0.073(7) -0.017(5) 0.044(5) -0.022(4)
C50 0.051(5) 0.052(5) 0.057(6) -0.004(5) 0.011(5) -0.024(4)
C51 0.071(6) 0.052(5) 0.057(7) -0.003(5) 0.022(5) -0.025(5)
C52 0.052(5) 0.049(5) 0.044(5) 0.008(4) 0.002(4) -0.038(4)
C53 0.031(4) 0.040(4) 0.048(6) 0.016(4) 0.014(4) -0.015(3)
C54 0.035(4) 0.067(6) 0.059(6) 0.025(5) 0.016(4) -0.010(4)
C55 0.030(4) 0.048(5) 0.065(6) -0.005(4) 0.017(4) -0.021(3)
C56 0.028(4) 0.079(6) 0.053(6) 0.044(5) -0.004(4) -0.017(4)
O7 0.025(3) 0.063(4) 0.062(4) 0.036(3) 0.000(3) -0.017(3)
O8 0.030(3) 0.040(3) 0.052(4) 0.020(3) 0.001(3) -0.013(2)

_geom_special_details            
;
 All esds (except the esd in the dihedral angle between two l.s. planes)
 are estimated using the full covariance matrix.  The cell esds are taken
 into account individually in the estimation of esds in distances, angles
 and torsion angles; correlations between esds in cell parameters are only
 used when they are defined by crystal symmetry.  An approximate (isotropic)
 treatment of cell esds is used for estimating esds involving l.s. planes.
;

loop_
_geom_bond_atom_site_label_1
_geom_bond_atom_site_label_2
_geom_bond_distance
_geom_bond_site_symmetry_2
_geom_bond_publ_flag
Zn01 O6 1.841(6) 7_557 ?
Zn01 O5 1.962(5) . ?
Zn01 O1 1.973(5) 3_556 ?
Zn01 O3 1.984(5) . ?
Zn02 O7 1.863(6) . ?
Zn02 O4 1.947(5) 6_556 ?
Zn02 O8 1.958(5) 7_547 ?
Zn02 O2 1.974(5) 8_547 ?
O1 C1 1.154(10) . ?
O1 Zn01 1.973(5) 3_444 ?
C1 O2 1.190(10) . ?
C1 C2 1.549(10) . ?
O2 Zn02 1.974(5) 8_444 ?
C2 C7 1.379(11) . ?
C2 C3 1.413(11) . ?
C3 C4 1.382(10) . ?
C4 C5 1.440(11) . ?
C5 C6 1.356(10) . ?
C5 C8 1.503(9) . ?
C6 C7 1.411(9) . ?
C8 C13 1.348(12) . ?
C8 C9 1.403(11) . ?
C9 C10 1.329(9) . ?
C10 C11 1.454(11) . ?
C11 C12 1.307(11) . ?
C11 C14 1.515(8) . ?
C12 C13 1.427(10) . ?
C14 C15 1.330(13) . ?
C14 C11 1.516(8) 2 ?
C15 C16 1.526(8) . ?
C15 C16 1.526(8) 2 ?
C16 C21 1.302(10) . ?
C16 C17 1.419(10) . ?
C17 C18 1.394(9) . ?
C18 C19 1.385(10) . ?
C19 C20 1.379(10) . ?
C19 C22 1.482(9) . ?
C20 C21 1.371(9) . ?
C22 C23 1.392(11) . ?
C22 C27 1.451(11) . ?
C23 C24 1.393(11) . ?
C24 C25 1.436(14) . ?
C25 C26 1.450(12) . ?
C25 C28 1.490(11) . ?
C26 C27 1.371(10) . ?
C28 O3 1.181(10) . ?
C28 O4 1.195(10) . ?
O4 Zn02 1.947(5) 6 ?
O5 C29 1.371(9) . ?
O6 C29 1.351(9) . ?
O6 Zn01 1.841(6) 7_557 ?
C29 C30 1.438(10) . ?
C30 C31 1.306(10) . ?
C30 C35 1.354(9) . ?
C31 C32 1.427(9) . ?
C32 C33 1.345(11) . ?
C33 C34 1.354(10) . ?
C33 C36 1.487(10) . ?
C34 C35 1.381(10) . ?
C36 C37 1.415(11) . ?
C36 C41 1.454(12) . ?
C37 C38 1.381(10) . ?
C38 C39 1.415(11) . ?
C39 C42 1.427(9) . ?
C39 C40 1.473(12) . ?
C40 C41 1.394(10) . ?
C42 C43 1.401(13) . ?
C42 C39 1.427(9) 2_656 ?
C43 C44 1.455(9) . ?
C43 C44 1.455(9) 2_656 ?
C44 C45 1.344(13) . ?
C44 C49 1.463(11) . ?
C45 C46 1.451(10) . ?
C46 C47 1.338(12) . ?
C47 C48 1.413(13) . ?
C47 C50 1.486(11) . ?
C48 C49 1.304(11) . ?
C50 C55 1.344(13) . ?
C50 C51 1.438(13) . ?
C51 C52 1.369(11) . ?
C52 C53 1.404(12) . ?
C53 C54 1.326(12) . ?
C53 C56 1.463(10) . ?
C54 C55 1.418(10) . ?
C56 O8 1.322(9) . ?
C56 O7 1.367(9) . ?
O8 Zn02 1.958(5) 7_547 ?

loop_
_geom_angle_atom_site_label_1
_geom_angle_atom_site_label_2
_geom_angle_atom_site_label_3
_geom_angle
_geom_angle_site_symmetry_1
_geom_angle_site_symmetry_3
_geom_angle_publ_flag
O6 Zn01 O5 125.6(3) 7_557 . ?
O6 Zn01 O1 104.9(3) 7_557 3_556 ?
O5 Zn01 O1 103.4(2) . 3_556 ?
O6 Zn01 O3 100.4(2) 7_557 . ?
O5 Zn01 O3 97.0(2) . . ?
O1 Zn01 O3 128.2(3) 3_556 . ?
O7 Zn02 O4 101.7(3) . 6_556 ?
O7 Zn02 O8 129.5(3) . 7_547 ?
O4 Zn02 O8 103.1(2) 6_556 7_547 ?
O7 Zn02 O2 99.72(19) . 8_547 ?
O4 Zn02 O2 129.0(3) 6_556 8_547 ?
O8 Zn02 O2 97.7(2) 7_547 8_547 ?
C1 O1 Zn01 129.0(5) . 3_444 ?
O1 C1 O2 129.1(7) . . ?
O1 C1 C2 115.6(8) . . ?
O2 C1 C2 115.0(7) . . ?
C1 O2 Zn02 123.0(5) . 8_444 ?
C7 C2 C3 122.3(8) . . ?
C7 C2 C1 120.6(8) . . ?
C3 C2 C1 117.1(8) . . ?
C4 C3 C2 120.9(9) . . ?
C3 C4 C5 117.9(9) . . ?
C6 C5 C4 118.5(7) . . ?
C6 C5 C8 122.3(7) . . ?
C4 C5 C8 119.2(8) . . ?
C5 C6 C7 125.2(8) . . ?
C2 C7 C6 115.0(8) . . ?
C13 C8 C9 119.7(7) . . ?
C13 C8 C5 117.9(8) . . ?
C9 C8 C5 121.9(8) . . ?
C10 C9 C8 119.6(8) . . ?
C9 C10 C11 120.5(7) . . ?
C12 C11 C10 119.5(7) . . ?
C12 C11 C14 121.6(7) . . ?
C10 C11 C14 118.9(6) . . ?
C11 C12 C13 119.7(8) . . ?
C8 C13 C12 120.5(8) . . ?
C15 C14 C11 123.8(4) . . ?
C15 C14 C11 123.8(4) . 2 ?
C11 C14 C11 112.5(7) . 2 ?
C14 C15 C16 121.8(4) . . ?
C14 C15 C16 121.8(4) . 2 ?
C16 C15 C16 116.5(8) . 2 ?
C21 C16 C17 119.7(6) . . ?
C21 C16 C15 125.5(6) . . ?
C17 C16 C15 114.7(6) . . ?
C18 C17 C16 117.5(7) . . ?
C19 C18 C17 122.1(7) . . ?
C20 C19 C18 117.0(6) . . ?
C20 C19 C22 123.3(7) . . ?
C18 C19 C22 119.6(7) . . ?
C21 C20 C19 120.7(7) . . ?
C16 C21 C20 123.0(7) . . ?
C23 C22 C27 119.3(7) . . ?
C23 C22 C19 121.5(7) . . ?
C27 C22 C19 118.9(7) . . ?
C22 C23 C24 124.0(8) . . ?
C23 C24 C25 117.1(8) . . ?
C24 C25 C26 118.5(7) . . ?
C24 C25 C28 121.6(8) . . ?
C26 C25 C28 119.7(9) . . ?
C27 C26 C25 123.2(8) . . ?
C26 C27 C22 117.3(8) . . ?
O3 C28 O4 128.5(7) . . ?
O3 C28 C25 114.6(8) . . ?
O4 C28 C25 116.3(9) . . ?
C28 O3 Zn01 121.9(5) . . ?
C28 O4 Zn02 126.0(5) . 6 ?
C29 O5 Zn01 119.8(5) . . ?
C29 O6 Zn01 128.0(5) . 7_557 ?
O6 C29 O5 119.2(7) . . ?
O6 C29 C30 120.7(7) . . ?
O5 C29 C30 119.7(7) . . ?
C31 C30 C35 119.6(7) . . ?
C31 C30 C29 119.6(7) . . ?
C35 C30 C29 120.8(6) . . ?
C30 C31 C32 119.7(7) . . ?
C33 C32 C31 120.5(7) . . ?
C32 C33 C34 119.0(8) . . ?
C32 C33 C36 117.3(7) . . ?
C34 C33 C36 123.5(8) . . ?
C33 C34 C35 119.2(8) . . ?
C30 C35 C34 121.6(7) . . ?
C37 C36 C41 118.0(7) . . ?
C37 C36 C33 124.4(7) . . ?
C41 C36 C33 117.6(7) . . ?
C38 C37 C36 121.3(8) . . ?
C37 C38 C39 123.0(7) . . ?
C38 C39 C42 120.7(7) . . ?
C38 C39 C40 116.0(6) . . ?
C42 C39 C40 122.8(7) . . ?
C41 C40 C39 121.0(8) . . ?
C40 C41 C36 120.3(8) . . ?
C43 C42 C39 121.0(4) . . ?
C43 C42 C39 121.0(4) . 2_656 ?
C39 C42 C39 118.1(9) . 2_656 ?
C42 C43 C44 122.7(4) . . ?
C42 C43 C44 122.7(4) . 2_656 ?
C44 C43 C44 114.6(8) . 2_656 ?
C45 C44 C43 125.7(7) . . ?
C45 C44 C49 116.3(7) . . ?
C43 C44 C49 117.9(8) . . ?
C44 C45 C46 119.9(8) . . ?
C47 C46 C45 122.4(9) . . ?
C46 C47 C48 116.5(8) . . ?
C46 C47 C50 119.7(9) . . ?
C48 C47 C50 123.2(8) . . ?
C49 C48 C47 122.5(9) . . ?
C48 C49 C44 122.0(9) . . ?
C55 C50 C51 118.6(8) . . ?
C55 C50 C47 121.1(8) . . ?
C51 C50 C47 119.8(9) . . ?
C52 C51 C50 118.3(9) . . ?
C51 C52 C53 121.1(8) . . ?
C54 C53 C52 119.6(7) . . ?
C54 C53 C56 122.9(8) . . ?
C52 C53 C56 117.5(7) . . ?
C53 C54 C55 120.1(8) . . ?
C50 C55 C54 121.3(8) . . ?
O8 C56 O7 123.4(7) . . ?
O8 C56 C53 121.3(7) . . ?
O7 C56 C53 115.3(6) . . ?
C56 O7 Zn02 125.1(5) . . ?
C56 O8 Zn02 122.2(5) . 7_547 ?

_refine_diff_density_max         0.700
_refine_diff_density_min         -1.129
_refine_diff_density_rms         0.118

_shelxl_version_number           2014-3

_shelx_res_file                  
;
TITL ZH3_40G in C2/c
CELL  0.77490  36.929  31.080  11.8533   90.000   99.228   90.000
ZERR   8.00     0.005   0.004   0.0017    0.000    0.002    0.000
LATT  7
SYMM -X, Y, 1/2-Z
SFAC C H N O ZN
DISP    C     0.00399    0.00197        13.60
DISP    H     0.00000    0.00000         0.67
DISP    N     0.00762    0.00403        23.92
DISP    O     0.01323    0.00737        40.17
DISP    Zn    0.22822    1.67179      7410.08
UNIT 432 256 0 64 16

TEMP -173
SIZE 0.500 0.200 0.050

ACTA

REM Colourless plate
REM Data cut at 0.83 Angstroms as I/sigma < 2
REM Twinned by 2-fold by c-axis
REM Solved by SHELXT (beta version)
REM Cell refinement by SAINT V8.27B
REM 9787 input reflections Min.2Th 5.85  Max.2Th 55.65

L.S. 5 0  140
BOND
FMAP 2
PLAN 40

ABIN
WGHT    0.133900   88.099297
BASF   0.54718
FVAR       0.16196
ZN01  5    0.230576    0.251527    0.864996    11.00000    0.02274    0.03784 =
         0.04641   -0.02326   -0.00588   -0.00035
ZN02  5    0.270134   -0.251485    1.134527    11.00000    0.02218    0.03627 =
         0.05197    0.02525   -0.00333    0.00203
O1    4   -0.233113   -0.201725   -0.131571    11.00000    0.02477    0.03583 =
         0.07687   -0.02786    0.00674   -0.00020
C1    1   -0.205507   -0.201643   -0.165383    11.00000    0.03591    0.02251 =
         0.05285   -0.00473   -0.01185    0.00361
O2    4   -0.195710   -0.223837   -0.236513    11.00000    0.01893    0.03242 =
         0.05815   -0.03157   -0.00985    0.00461
SAME C30 > C35
C2    1   -0.175563   -0.171631   -0.101265    11.00000    0.05089    0.06557 =
         0.05766   -0.02861   -0.00002   -0.01413
C3    1   -0.145179   -0.162319   -0.155961    11.00000    0.04581    0.06197 =
         0.06866   -0.03595    0.00995   -0.02733
AFIX  43
H3A   2   -0.144401   -0.173541   -0.230084    11.00000   -1.20000
AFIX   0
C4    1   -0.116586   -0.137118   -0.103121    11.00000    0.08450    0.09864 =
         0.07217   -0.05790    0.01943   -0.03879
AFIX  43
H4A   2   -0.095875   -0.131342   -0.139004    11.00000   -1.20000
AFIX   0
C5    1   -0.119173   -0.119886    0.008052    11.00000    0.04531    0.03406 =
         0.04716   -0.02255   -0.00945   -0.01866
C6    1   -0.149646   -0.128612    0.054368    11.00000    0.06622    0.06961 =
         0.04059   -0.03067    0.00891   -0.04146
AFIX  43
H6A   2   -0.151638   -0.115453    0.125452    11.00000   -1.20000
AFIX   0
C7    1   -0.178626   -0.155683    0.005369    11.00000    0.04652    0.06974 =
         0.05023   -0.02411    0.00338   -0.01943
AFIX  43
H7A   2   -0.198757   -0.162422    0.043047    11.00000   -1.20000
AFIX   0
C8    1   -0.088429   -0.092525    0.068087    11.00000    0.04377    0.02230 =
         0.05347   -0.01461   -0.00399   -0.00367
C9    1   -0.068291   -0.064822    0.008156    11.00000    0.03357    0.02037 =
         0.04746   -0.00493   -0.00359   -0.00848
AFIX  43
H9A   2   -0.073698   -0.063119   -0.072821    11.00000   -1.20000
AFIX   0
C10   1   -0.041614   -0.040985    0.065365    11.00000    0.02889    0.03157 =
         0.04385    0.00494   -0.00181   -0.00070
AFIX  43
H10A  2   -0.029323   -0.020440    0.025761    11.00000   -1.20000
AFIX   0
C11   1   -0.031102   -0.046126    0.188134    11.00000    0.02799    0.02511 =
         0.04909   -0.00711   -0.01661    0.00776
C12   1   -0.048229   -0.074284    0.242309    11.00000    0.04740    0.02725 =
         0.05172    0.00522   -0.00886   -0.01185
AFIX  43
H12A  2   -0.041133   -0.078391    0.322217    11.00000   -1.20000
AFIX   0
C13   1   -0.077631   -0.098835    0.180944    11.00000    0.04440    0.04371 =
         0.05485   -0.00505   -0.01561   -0.01762
AFIX  43
H13A  2   -0.089685   -0.119792    0.219972    11.00000   -1.20000
AFIX   0
C14   1    0.000000   -0.019021    0.250000    10.50000    0.04720    0.01725 =
         0.04605    0.00000   -0.02094    0.00000
C15   1    0.000000    0.023770    0.250000    10.50000    0.02756    0.03525 =
         0.04123    0.00000   -0.00842    0.00000
C16   1    0.033094    0.049613    0.306937    11.00000    0.02791    0.01749 =
         0.04787   -0.00407   -0.01150   -0.00467
C17   1    0.024525    0.084476    0.375270    11.00000    0.04006    0.02779 =
         0.05373   -0.00829    0.00125   -0.00709
AFIX  43
H17A  2   -0.000115    0.090815    0.383102    11.00000   -1.20000
AFIX   0
C18   1    0.053644    0.109081    0.430497    11.00000    0.03686    0.03750 =
         0.04360   -0.00461    0.00062   -0.01782
AFIX  43
H18A  2    0.048568    0.132639    0.476582    11.00000   -1.20000
AFIX   0
C19   1    0.089735    0.100260    0.420289    11.00000    0.03826    0.03564 =
         0.03492   -0.00335   -0.00353   -0.00821
C20   1    0.095941    0.064963    0.355580    11.00000    0.02517    0.03354 =
         0.05521   -0.00914    0.00490   -0.00682
AFIX  43
H20A  2    0.120373    0.057200    0.348707    11.00000   -1.20000
AFIX   0
C21   1    0.067219    0.040940    0.301028    11.00000    0.03125    0.02681 =
         0.04200   -0.00514   -0.00707   -0.00250
AFIX  43
H21A  2    0.072468    0.016879    0.256931    11.00000   -1.20000
AFIX   0
C22   1    0.119515    0.127712    0.480530    11.00000    0.04903    0.03448 =
         0.03675   -0.00986   -0.00452   -0.02389
C23   1    0.155116    0.125311    0.456285    11.00000    0.04044    0.05125 =
         0.04932   -0.02439    0.01239   -0.02701
AFIX  43
H23A  2    0.160166    0.104451    0.402324    11.00000   -1.20000
AFIX   0
C24   1    0.183792    0.151631    0.506317    11.00000    0.03681    0.08550 =
         0.10069   -0.04482    0.02325   -0.02049
AFIX  43
H24A  2    0.206986    0.151249    0.481363    11.00000   -1.20000
AFIX   0
C25   1    0.176758    0.179366    0.597266    11.00000    0.06032    0.07098 =
         0.04131   -0.01675    0.01084   -0.03085
C26   1    0.140657    0.178418    0.630634    11.00000    0.04042    0.03887 =
         0.04980   -0.00644    0.00368   -0.00971
AFIX  43
H26A  2    0.136567    0.195223    0.694346    11.00000   -1.20000
AFIX   0
C27   1    0.112148    0.154439    0.574664    11.00000    0.05421    0.02597 =
         0.03931   -0.00410    0.00048   -0.00454
AFIX  43
H27A  2    0.088521    0.155286    0.596618    11.00000   -1.20000
AFIX   0
C28   1    0.206416    0.205668    0.664223    11.00000    0.04614    0.02171 =
         0.05165   -0.00150   -0.00913   -0.01051
O3    4    0.196466    0.229039    0.731560    11.00000    0.04008    0.03523 =
         0.05183   -0.02544   -0.00401   -0.00188
O4    4    0.235823    0.203932    0.634565    11.00000    0.02465    0.03512 =
         0.06513   -0.02760   -0.00324    0.00281
O5    4    0.261040    0.199752    0.893718    11.00000    0.03045    0.04140 =
         0.04947   -0.01550    0.00254    0.01505
O6    4    0.302400    0.229089    1.045357    11.00000    0.03008    0.05617 =
         0.06482   -0.03376   -0.00189    0.01230
C29   1    0.295949    0.202840    0.953524    11.00000    0.02822    0.05951 =
         0.06088   -0.04222   -0.00360   -0.00118
C30   1    0.324289    0.175051    0.925052    11.00000    0.02536    0.02801 =
         0.05607   -0.01379    0.00452    0.01158
C31   1    0.356136    0.173967    0.991275    11.00000    0.04848    0.07975 =
         0.05778   -0.03920    0.00085    0.02455
AFIX  43
H31A  2    0.360506    0.191329    1.058038    11.00000   -1.20000
AFIX   0
C32   1    0.384353    0.146570    0.962864    11.00000    0.03553    0.09758 =
         0.06464   -0.04064   -0.01661    0.04043
AFIX  43
H32A  2    0.407195    0.144853    1.012604    11.00000   -1.20000
AFIX   0
C33   1    0.378843    0.123156    0.866164    11.00000    0.03686    0.04143 =
         0.06643   -0.00764   -0.00019    0.01227
C34   1    0.346138    0.126013    0.796263    11.00000    0.05051    0.08690 =
         0.07314   -0.04536   -0.00600    0.01931
AFIX  43
H34A  2    0.342325    0.111597    0.724664    11.00000   -1.20000
AFIX   0
C35   1    0.318387    0.150119    0.830220    11.00000    0.04682    0.04837 =
         0.04447   -0.02323   -0.00446    0.02339
AFIX  43
H35A  2    0.294558    0.149190    0.785945    11.00000   -1.20000
AFIX   0
C36   1    0.410602    0.098475    0.837225    11.00000    0.03437    0.03783 =
         0.07030   -0.00947    0.01482    0.02081
C37   1    0.447750    0.108538    0.878039    11.00000    0.03982    0.03166 =
         0.10998   -0.02257    0.02624    0.00422
AFIX  43
H37A  2    0.453429    0.132606    0.927094    11.00000   -1.20000
AFIX   0
C38   1    0.475932    0.084053    0.847958    11.00000    0.03237    0.02877 =
         0.08349   -0.00953    0.02210    0.00132
AFIX  43
H38A  2    0.500488    0.092894    0.873769    11.00000   -1.20000
AFIX   0
C39   1    0.469882    0.046397    0.780436    11.00000    0.03990    0.01767 =
         0.06843    0.00239    0.02271    0.00255
C40   1    0.431456    0.037296    0.731022    11.00000    0.05332    0.03107 =
         0.09017   -0.02160    0.02460    0.00169
AFIX  43
H40A  2    0.426097    0.014405    0.677852    11.00000   -1.20000
AFIX   0
C41   1    0.402847    0.061761    0.761101    11.00000    0.03199    0.05730 =
         0.08678   -0.02230    0.02781    0.00728
AFIX  43
H41A  2    0.378161    0.054422    0.731740    11.00000   -1.20000
AFIX   0
C42   1    0.500000    0.022775    0.750000    10.50000    0.03344    0.02072 =
         0.07686    0.00000    0.01492    0.00000
C43   1    0.500000   -0.022314    0.750000    10.50000    0.02608    0.01484 =
         0.08050    0.00000    0.02888    0.00000
C44   1    0.471856   -0.047616    0.792245    11.00000    0.03649    0.02325 =
         0.06384   -0.00337    0.01304   -0.01286
C45   1    0.461105   -0.043007    0.894614    11.00000    0.03718    0.03101 =
         0.08018    0.00492    0.01597   -0.01489
AFIX  43
H45A  2    0.473729   -0.023669    0.949349    11.00000   -1.20000
AFIX   0
C46   1    0.430185   -0.067603    0.921489    11.00000    0.04813    0.08094 =
         0.06658    0.00612    0.02217   -0.02044
AFIX  43
H46A  2    0.421586   -0.062107    0.991466    11.00000   -1.20000
AFIX   0
C47   1    0.413345   -0.097748    0.851261    11.00000    0.06536    0.04686 =
         0.04940   -0.00797    0.01488   -0.03958
C48   1    0.424199   -0.101001    0.742571    11.00000    0.08572    0.04838 =
         0.08708   -0.02829    0.03275   -0.04528
AFIX  43
H48A  2    0.411033   -0.119845    0.687592    11.00000   -1.20000
AFIX   0
C49   1    0.451597   -0.079127    0.714820    11.00000    0.07221    0.04430 =
         0.07267   -0.01705    0.04421   -0.02199
AFIX  43
H49A  2    0.458616   -0.083795    0.642118    11.00000   -1.20000
AFIX   0
C50   1    0.381332   -0.121124    0.882812    11.00000    0.05067    0.05226 =
         0.05655   -0.00354    0.01066   -0.02443
C51   1    0.350981   -0.132257    0.795807    11.00000    0.07079    0.05217 =
         0.05717   -0.00275    0.02170   -0.02517
AFIX  43
H51A  2    0.350747   -0.124074    0.718472    11.00000   -1.20000
AFIX   0
C52   1    0.322434   -0.154953    0.827326    11.00000    0.05228    0.04907 =
         0.04357    0.00843    0.00231   -0.03842
AFIX  43
H52A  2    0.300444   -0.158409    0.774288    11.00000   -1.20000
AFIX   0
C53   1    0.325111   -0.173198    0.936673    11.00000    0.03108    0.03965 =
         0.04758    0.01575    0.01419   -0.01536
C54   1    0.354449   -0.165349    1.014211    11.00000    0.03550    0.06667 =
         0.05949    0.02476    0.01617   -0.00972
AFIX  43
H54A  2    0.357018   -0.178878    1.086928    11.00000   -1.20000
AFIX   0
C55   1    0.382002   -0.136797    0.988795    11.00000    0.02989    0.04775 =
         0.06534   -0.00491    0.01703   -0.02123
AFIX  43
H55A  2    0.401299   -0.128596    1.047824    11.00000   -1.20000
AFIX   0
C56   1    0.295292   -0.201413    0.958434    11.00000    0.02796    0.07866 =
         0.05253    0.04395   -0.00418   -0.01664
O7    4    0.303781   -0.228711    1.049270    11.00000    0.02497    0.06331 =
         0.06204    0.03622   -0.00042   -0.01687
O8    4    0.262157   -0.198510    0.897172    11.00000    0.03001    0.03958 =
         0.05205    0.01980    0.00078   -0.01298

HKLF 5

REM  ZH3_40G in C2/c
REM R1 =  0.0898 for    8190 Fo > 4sig(Fo)  and  0.1126 for all   12293 data
REM    580 parameters refined using     12 restraints

END

WGHT      0.1339     88.1245

REM Highest difference peak  0.700,  deepest hole -1.129,  1-sigma level  0.118
Q1    1   0.2569  0.2472  0.8538  11.00000  0.05    0.70
Q2    1   0.2382  0.2685  0.7916  11.00000  0.05    0.62
Q3    1   0.2976 -0.2506  1.1132  11.00000  0.05    0.60
Q4    1   0.2037  0.2505  0.8810  11.00000  0.05    0.58
Q5    1   0.2677 -0.2393  1.2258  11.00000  0.05    0.56
Q6    1   0.2951 -0.2329  1.1831  11.00000  0.05    0.55
Q7    1   0.2695 -0.2625  1.0427  11.00000  0.05    0.53
Q8    1   0.2775  0.2493  1.0410  11.00000  0.05    0.51
Q9    1   0.3253  0.0037  0.5307  11.00000  0.05    0.49
Q10   1   0.1692  0.0035  0.1805  11.00000  0.05    0.47
Q11   1   0.3291  0.1194  0.8684  11.00000  0.05    0.46
Q12   1   0.4457  0.1101  0.9843  11.00000  0.05    0.45
Q13   1   0.2047  0.2314  0.8089  11.00000  0.05    0.44
Q14   1   0.0747  0.1370  0.6681  11.00000  0.05    0.43
Q15   1   0.2352  0.2298  0.94