
#######################################################################
#
#                 Cambridge Crystallographic Data Centre
#                                CCDC
#
#######################################################################
#
# If this CIF has been generated from an entry in the Cambridge
# Structural Database, then it will include bibliographic, chemical,
# crystal, experimental, refinement or atomic coordinate data resulting
# from the CCDC's data processing and validation procedures.
#
#######################################################################

data_CSD_CIF_GUANPH
_audit_creation_date 1971-12-31
_audit_creation_method CSD-ConQuest-V1
_database_code_CSD GUANPH
_database_code_depnum_ccdc_archive 'CCDC 1170418'
_chemical_formula_sum 'C10 H20 N5 O11 P1'
_chemical_formula_moiety
;
C10 H14 N5 O8 P1,3(H2 O1)
;
_journal_coeditor_code "IUCr A06962"
_journal_coden_Cambridge 107
_journal_volume 25
_journal_year 1969
_journal_page_first 2236
_journal_name_full 'Acta Crystallogr.,Sect.B:Struct.Crystallogr.Cryst.Chem. '
loop_
_publ_author_name
"W.Murayama"
"N.Nagashima"
"Y.Shimizu"
_chemical_name_systematic
;
Guanosine-5'-phosphate trihydrate
;
_chemical_name_common
;
Teaching Subset: Fundamental Chemistry
;
_cell_volume   1682.018
_exptl_crystal_density_diffrn 1.65
_exptl_special_details
;
X COORDINATE OF O3' SHOULD BE -0.48155 NOT -0.38155 AND THE BOND N3-C2 GIVEN 
AS 1.399 SHOULD BE 1.342
;
_diffrn_ambient_temperature ?
_diffrn_special_details
;
The study was carried out at room temperature,in the range 283-303K

;
#These two values have been output from a single CSD field.
_refine_ls_R_factor_gt 0.086
_refine_ls_wR_factor_gt 0.086
loop_
_citation_database_id_CSD
_citation_special_details
CIQYEH "is a stereoisomer of this entry"
_symmetry_cell_setting orthorhombic
_symmetry_space_group_name_H-M 'P 21 21 21'
_symmetry_Int_Tables_number 19
loop_
_symmetry_equiv_pos_site_id
_symmetry_equiv_pos_as_xyz
1 x,y,z
2 1/2+x,1/2-y,-z
3 -x,1/2+y,1/2-z
4 1/2-x,-y,1/2+z
_cell_length_a 10.64
_cell_length_b 6.18
_cell_length_c 25.58
_cell_angle_alpha 90
_cell_angle_beta 90
_cell_angle_gamma 90
_cell_formula_units_Z 4
loop_
_atom_type_symbol
_atom_type_radius_bond
C 0.68
H 0.25
N 0.68
O 0.68
P 1.05
loop_
_atom_site_label
_atom_site_type_symbol
_atom_site_fract_x
_atom_site_fract_y
_atom_site_fract_z
C1 C -0.36056 0.34063 0.31521
C2 C -0.18500 0.31774 0.16167
C3 C -0.41698 0.56615 0.30306
C4 C -0.39472 0.67807 0.35543
C5 C -0.18109 0.32620 0.24877
C6 C -0.40887 0.50299 0.39630
C7 C -0.05212 0.32773 0.25214
C8 C -0.33437 0.53678 0.44637
C9 C 0.02113 0.32290 0.20597
C10 C -0.12448 0.33299 0.33306
H1 H -0.01000 0.32200 0.12800
H2 H -0.39500 0.65000 0.46200
H3 H -0.18900 0.28800 0.09200
H4 H -0.33000 0.33700 0.11400
H5 H -0.14200 0.32300 0.37200
H6 H -0.40700 0.22700 0.29100
H7 H -0.38100 0.64200 0.27100
H8 H -0.49400 0.45300 0.40800
H9 H -0.56700 0.48000 0.27100
H10 H -0.32200 0.34700 0.46700
N1 N -0.05452 0.31851 0.16132
N2 N -0.24202 0.30849 0.11549
N3 N -0.25347 0.31762 0.20572
N4 N -0.02097 0.32783 0.30536
N5 N -0.22493 0.33146 0.30046
O1 O -0.01391 0.81049 0.44160
O2 O -0.36566 0.30476 0.37003
O3 O -0.06075 0.50326 0.50447
O4 O -0.54860 0.52274 0.29515
O5 O -0.18384 0.84208 0.51232
O6 O -0.48155 0.85054 0.36326
O7 O -0.20871 0.60111 0.43128
O8 O 0.13647 0.32700 0.20229
P1 P -0.11468 0.70290 0.47390
H11 H 0.24200 0.31700 0.37100
O9 O 0.22353 0.30855 0.33350
H12 H 0.32600 0.17500 0.44700
H13 H 0.32300 0.39000 0.46300
O10 O 0.29167 0.29713 0.43776
H14 H 0.10000 0.18500 0.43400
H15 H 0.04300 0.34700 0.47100
O11 O 0.03282 0.23140 0.43793
#END
