####################################################################### 
# 
# This file contains crystal structure data downloaded from the 
# Cambridge Structural Database (CSD) hosted by the Cambridge 
# Crystallographic Data Centre (CCDC).
# 
# Full information about CCDC data access policies and citation 
# guidelines are available at http://www.ccdc.cam.ac.uk/access/V1 
# 
# Audit and citation data items may have been added by the CCDC. 
# Please retain this information to preserve the provenance of 
# this file and to allow appropriate attribution of the data. 
# 
#######################################################################

data_1
_audit_block_doi                 10.5517/cc13x9cp
_database_code_depnum_ccdc_archive 'CCDC 1040092'
loop_
_citation_id
_citation_doi
_citation_year
1 10.1021/acs.cgd.5b00014 2015
_audit_update_record             
;
2014-12-18 deposited with the CCDC.	2024-07-10 downloaded from the CCDC.
;

_audit_creation_method           SHELXL-97
_chemical_name_systematic        
; 
 ? 
;
_chemical_name_common            ?
_chemical_melting_point          ?
_chemical_formula_moiety         ?
_chemical_formula_sum            'C30 H31 Co N3 O8 S2'
_chemical_formula_weight         684.63

loop_
_atom_type_symbol
_atom_type_description
_atom_type_scat_dispersion_real
_atom_type_scat_dispersion_imag
_atom_type_scat_source
C C 0.0033 0.0016 'International Tables Vol C Tables 4.2.6.8 and 6.1.1.4'
H H 0.0000 0.0000 'International Tables Vol C Tables 4.2.6.8 and 6.1.1.4'
N N 0.0061 0.0033 'International Tables Vol C Tables 4.2.6.8 and 6.1.1.4'
O O 0.0106 0.0060 'International Tables Vol C Tables 4.2.6.8 and 6.1.1.4'
S S 0.1246 0.1234 'International Tables Vol C Tables 4.2.6.8 and 6.1.1.4'
Cl Cl 0.1484 0.1585 'International Tables Vol C Tables 4.2.6.8 and 6.1.1.4'
Co Co 0.3494 0.9721 'International Tables Vol C Tables 4.2.6.8 and 6.1.1.4'

_symmetry_cell_setting           Orthorhombic
_symmetry_space_group_name_H-M   'Pbcn '

loop_
_symmetry_equiv_pos_as_xyz
'x, y, z'
'-x+1/2, -y+1/2, z+1/2'
'-x, y, -z+1/2'
'x+1/2, -y+1/2, -z'
'-x, -y, -z'
'x-1/2, y-1/2, -z-1/2'
'x, -y, z-1/2'
'-x-1/2, y-1/2, z'

_cell_length_a                   39.469(5)
_cell_length_b                   12.6053(17)
_cell_length_c                   11.4425(15)
_cell_angle_alpha                90.00
_cell_angle_beta                 90.00
_cell_angle_gamma                90.00
_cell_volume                     5692.8(13)
_cell_formula_units_Z            8
_cell_measurement_temperature    296(2)
_cell_measurement_reflns_used    6526
_cell_measurement_theta_min      2.24
_cell_measurement_theta_max      27.60

_exptl_crystal_description       block
_exptl_crystal_colour            'dark red'
_exptl_crystal_size_max          0.27
_exptl_crystal_size_mid          0.24
_exptl_crystal_size_min          0.19
_exptl_crystal_density_meas      ?
_exptl_crystal_density_diffrn    1.598
_exptl_crystal_density_method    'not measured'
_exptl_crystal_F_000             2840
_exptl_absorpt_coefficient_mu    0.809
_exptl_absorpt_correction_type   MULTI-SCAN
_exptl_absorpt_correction_T_min  0.8112
_exptl_absorpt_correction_T_max  0.8615
_exptl_absorpt_process_details   SADABS

_exptl_special_details           
; 
 ? 
;

_diffrn_ambient_temperature      296(2)
_diffrn_radiation_wavelength     0.71073
_diffrn_radiation_type           MoK\a
_diffrn_radiation_source         'fine-focus sealed tube'
_diffrn_radiation_monochromator  graphite
_diffrn_measurement_device_type  ?
_diffrn_measurement_method       ?
_diffrn_detector_area_resol_mean ?
_diffrn_reflns_number            36543
_diffrn_reflns_av_R_equivalents  0.0935
_diffrn_reflns_av_sigmaI/netI    0.0601
_diffrn_reflns_limit_h_min       -46
_diffrn_reflns_limit_h_max       46
_diffrn_reflns_limit_k_min       -14
_diffrn_reflns_limit_k_max       12
_diffrn_reflns_limit_l_min       -13
_diffrn_reflns_limit_l_max       13
_diffrn_reflns_theta_min         1.03
_diffrn_reflns_theta_max         24.71
_reflns_number_total             4753
_reflns_number_gt                3671
_reflns_threshold_expression     >2sigma(I)

_computing_data_collection       ?
_computing_cell_refinement       ?
_computing_data_reduction        ?
_computing_structure_solution    'SHELXS-97 (Sheldrick, 2008)'
_computing_structure_refinement  'SHELXL-97 (Sheldrick, 2008)'
_computing_molecular_graphics    ?
_computing_publication_material  ?

_refine_special_details          
; 
 Refinement of F^2^ against ALL reflections.  The weighted R-factor wR and 
 goodness of fit S are based on F^2^, conventional R-factors R are based 
 on F, with F set to zero for negative F^2^. The threshold expression of 
 F^2^ > 2sigma(F^2^) is used only for calculating R-factors(gt) etc. and is 
 not relevant to the choice of reflections for refinement.  R-factors based 
 on F^2^ are statistically about twice as large as those based on F, and R- 
 factors based on ALL data will be even larger. 
;

loop_
_platon_squeeze_void_nr
_platon_squeeze_void_average_x
_platon_squeeze_void_average_y
_platon_squeeze_void_average_z
_platon_squeeze_void_volume
_platon_squeeze_void_count_electrons
_platon_squeeze_void_content
1 0.000 0.000 -0.015 584 234 ' '
2 0.500 0.500 -0.010 584 234 ' '
_platon_squeeze_details          
;
In order to subtract the contribution from the disordered solvent molecules,
the SQUEEZE command was applied.
SQUEEZE removed one DMF and two H2O per formula unit. This valueis calculated based upon volume/count_electrons analysis.
See ref. Bi, Y. F.; Wang, X. T.; Liao, W. P.; Wang, X. F.; Wang, X. W.;
Zhang, H. J.; Gao, S. J. Am. Chem. Soc. 2009, 131, 11650.

CHEMW03_ALERT_2_A ALERT: The ratio of given/expected molecular weight as
            calculated from the _atom_site* data lies outside
            the range 0.90 <> 1.10
           From the CIF: _cell_formula_units_Z                    8
           From the CIF: _chemical_formula_weight           684.63
           TEST: Calculate formula weight from _atom_site_*
           atom     mass    num     sum
           C        12.01   27.00  324.30
           H         1.01   18.00   18.14
           N        14.01    2.00   28.01
           O        16.00    5.00   79.99
           S        32.07    2.00   64.13
           Cl       35.45    0.00    0.00
           Co       58.93    1.00   58.93
           Calculated formula weight              573.52
RESPONSE: This is caused by the given molecular weight being increased
from the atom count to account for disordered DMF and H2O omitted by SQUEEZE.
;

_refine_ls_structure_factor_coef Fsqd
_refine_ls_matrix_type           full
_refine_ls_weighting_scheme      calc
_refine_ls_weighting_details     
'calc w=1/[\s^2^(Fo^2^)+(0.0708P)^2^+11.7866P] where P=(Fo^2^+2Fc^2^)/3'
_atom_sites_solution_primary     direct
_atom_sites_solution_secondary   difmap
_atom_sites_solution_hydrogens   geom
_refine_ls_hydrogen_treatment    mixed
_refine_ls_extinction_method     none
_refine_ls_extinction_coef       ?
_refine_ls_number_reflns         4753
_refine_ls_number_parameters     334
_refine_ls_number_restraints     0
_refine_ls_R_factor_all          0.0988
_refine_ls_R_factor_gt           0.0760
_refine_ls_wR_factor_ref         0.1657
_refine_ls_wR_factor_gt          0.1575
_refine_ls_goodness_of_fit_ref   1.114
_refine_ls_restrained_S_all      1.114
_refine_ls_shift/su_max          0.000
_refine_ls_shift/su_mean         0.000

loop_
_atom_site_label
_atom_site_type_symbol
_atom_site_fract_x
_atom_site_fract_y
_atom_site_fract_z
_atom_site_U_iso_or_equiv
_atom_site_adp_type
_atom_site_occupancy
_atom_site_symmetry_multiplicity
_atom_site_calc_flag
_atom_site_refinement_flags
_atom_site_disorder_assembly
_atom_site_disorder_group
Co1 Co 0.315778(14) 0.43750(4) 0.23881(5) 0.0267(2) Uani 1 1 d . . .
C1 C 0.48889(12) -0.0554(4) 0.7068(5) 0.0349(11) Uani 1 1 d . . .
C2 C 0.44186(10) 0.0041(4) 0.5617(4) 0.0322(11) Uani 1 1 d . . .
C3 C 0.41812(11) 0.0796(4) 0.5067(4) 0.0310(11) Uani 1 1 d . . .
C4 C 0.38369(11) 0.0760(4) 0.5304(4) 0.0342(11) Uani 1 1 d . . .
H4 H 0.3751 0.0239 0.5798 0.041 Uiso 1 1 calc R . .
C5 C 0.36201(11) 0.1495(4) 0.4809(4) 0.0341(11) Uani 1 1 d . . .
H5 H 0.3390 0.1474 0.4988 0.041 Uiso 1 1 calc R . .
C6 C 0.37403(11) 0.2262(4) 0.4052(4) 0.0296(10) Uani 1 1 d . . .
C7 C 0.40832(12) 0.2298(4) 0.3813(5) 0.0456(14) Uani 1 1 d . . .
H7 H 0.4167 0.2808 0.3301 0.055 Uiso 1 1 calc R . .
C8 C 0.43031(12) 0.1580(4) 0.4332(5) 0.0474(14) Uani 1 1 d . . .
H8 H 0.4534 0.1626 0.4184 0.057 Uiso 1 1 calc R . .
C9 C 0.35072(11) 0.3046(3) 0.3476(4) 0.0300(11) Uani 1 1 d . . .
C10 C 0.44104(10) -0.1022(4) 0.5582(4) 0.0297(10) Uani 1 1 d . . .
C11 C 0.41714(10) -0.1691(3) 0.4905(4) 0.0296(10) Uani 1 1 d . . .
C12 C 0.40567(12) -0.2650(4) 0.5346(5) 0.0393(12) Uani 1 1 d . . .
H12 H 0.4136 -0.2887 0.6066 0.047 Uiso 1 1 calc R . .
C13 C 0.38273(12) -0.3258(4) 0.4737(4) 0.0373(12) Uani 1 1 d . . .
H13 H 0.3754 -0.3900 0.5046 0.045 Uiso 1 1 calc R . .
C14 C 0.37062(11) -0.2921(3) 0.3671(4) 0.0297(10) Uani 1 1 d . . .
C15 C 0.38280(12) -0.1980(4) 0.3208(4) 0.0379(12) Uani 1 1 d . . .
H15 H 0.3752 -0.1752 0.2481 0.046 Uiso 1 1 calc R . .
C16 C 0.40601(13) -0.1378(4) 0.3810(5) 0.0405(12) Uani 1 1 d . . .
H16 H 0.4143 -0.0757 0.3480 0.049 Uiso 1 1 calc R . .
C17 C 0.34474(11) -0.3544(4) 0.2982(4) 0.0329(11) Uani 1 1 d . . .
C18 C 0.30594(13) 0.2371(4) 0.0878(5) 0.0414(12) Uani 1 1 d . . .
H18 H 0.3295 0.2340 0.0879 0.050 Uiso 1 1 calc R . .
C19 C 0.28807(14) 0.1615(4) 0.0267(5) 0.0463(14) Uani 1 1 d . . .
H19 H 0.2995 0.1085 -0.0139 0.056 Uiso 1 1 calc R . .
C20 C 0.25367(15) 0.1646(4) 0.0261(5) 0.0485(14) Uani 1 1 d . . .
H20 H 0.2413 0.1137 -0.0146 0.058 Uiso 1 1 calc R . .
C21 C 0.23716(12) 0.2442(4) 0.0869(5) 0.0390(12) Uani 1 1 d . . .
H21 H 0.2136 0.2477 0.0879 0.047 Uiso 1 1 calc R . .
C22 C 0.25644(11) 0.3182(3) 0.1458(4) 0.0289(10) Uani 1 1 d . . .
C23 C 0.24180(11) 0.4094(3) 0.2114(4) 0.0291(10) Uani 1 1 d . . .
C24 C 0.20708(12) 0.4247(4) 0.2231(5) 0.0398(12) Uani 1 1 d . . .
H24 H 0.1919 0.3754 0.1931 0.048 Uiso 1 1 calc R . .
C25 C 0.19557(13) 0.5146(5) 0.2804(5) 0.0457(13) Uani 1 1 d . . .
H25 H 0.1725 0.5273 0.2880 0.055 Uiso 1 1 calc R . .
C26 C 0.21886(13) 0.5853(4) 0.3262(5) 0.0429(13) Uani 1 1 d . . .
H26 H 0.2118 0.6466 0.3641 0.051 Uiso 1 1 calc R . .
C27 C 0.25241(12) 0.5629(3) 0.3145(4) 0.0335(11) Uani 1 1 d . . .
H27 H 0.2680 0.6096 0.3473 0.040 Uiso 1 1 calc R . .
N1 N 0.29062(9) 0.3146(3) 0.1466(4) 0.0311(9) Uani 1 1 d . . .
N2 N 0.26430(9) 0.4766(3) 0.2580(3) 0.0292(9) Uani 1 1 d . . .
O1 O 0.36032(8) 0.3512(3) 0.2565(3) 0.0394(8) Uani 1 1 d . . .
O2 O 0.32196(8) 0.3217(3) 0.3912(3) 0.0366(8) Uani 1 1 d . . .
O3 O 0.33439(8) -0.4420(2) 0.3421(3) 0.0367(8) Uani 1 1 d . . .
O4 O 0.33461(11) -0.3166(3) 0.2055(4) 0.0589(12) Uani 1 1 d . . .
O5 O 0.32246(10) 0.5120(3) 0.0789(3) 0.0486(9) Uani 1 1 d . . .
H5B H 0.3408 0.5471 0.0803 0.073 Uiso 1 1 d R . .
H5A H 0.3235 0.4654 0.0253 0.073 Uiso 1 1 d R . .
S1 S 0.47362(3) 0.06348(9) 0.64622(13) 0.0431(4) Uani 1 1 d . . .
S2 S 0.47187(3) -0.17001(9) 0.64162(12) 0.0374(3) Uani 1 1 d . . .

loop_
_atom_site_aniso_label
_atom_site_aniso_U_11
_atom_site_aniso_U_22
_atom_site_aniso_U_33
_atom_site_aniso_U_23
_atom_site_aniso_U_13
_atom_site_aniso_U_12
Co1 0.0281(3) 0.0256(3) 0.0265(4) -0.0009(3) -0.0052(2) 0.0009(2)
C1 0.029(2) 0.033(2) 0.043(3) 0.003(2) -0.015(2) -0.0009(19)
C2 0.025(2) 0.036(3) 0.035(3) -0.001(2) -0.011(2) 0.0019(19)
C3 0.029(2) 0.034(2) 0.030(3) -0.002(2) -0.012(2) 0.0003(19)
C4 0.032(2) 0.040(3) 0.031(3) 0.005(2) -0.003(2) 0.001(2)
C5 0.028(2) 0.042(3) 0.031(3) 0.003(2) -0.003(2) 0.003(2)
C6 0.031(2) 0.036(2) 0.022(3) -0.002(2) -0.0059(19) 0.0042(19)
C7 0.035(3) 0.052(3) 0.050(4) 0.021(3) -0.001(2) 0.005(2)
C8 0.026(2) 0.056(3) 0.060(4) 0.017(3) -0.004(2) 0.003(2)
C9 0.035(3) 0.026(2) 0.029(3) -0.006(2) -0.008(2) 0.0046(19)
C10 0.022(2) 0.037(3) 0.030(3) 0.001(2) -0.0089(19) -0.0010(18)
C11 0.024(2) 0.032(2) 0.033(3) 0.000(2) -0.0033(19) -0.0033(18)
C12 0.039(3) 0.046(3) 0.033(3) 0.007(2) -0.015(2) -0.006(2)
C13 0.040(3) 0.036(3) 0.036(3) 0.010(2) -0.012(2) -0.012(2)
C14 0.029(2) 0.029(2) 0.031(3) -0.006(2) -0.005(2) -0.0021(18)
C15 0.049(3) 0.039(3) 0.026(3) 0.005(2) -0.014(2) -0.009(2)
C16 0.047(3) 0.032(3) 0.042(3) 0.007(2) -0.013(2) -0.011(2)
C17 0.035(3) 0.031(2) 0.033(3) -0.003(2) -0.009(2) -0.002(2)
C18 0.040(3) 0.041(3) 0.044(3) -0.007(2) 0.001(2) 0.001(2)
C19 0.061(4) 0.040(3) 0.038(3) -0.018(2) 0.002(3) 0.000(2)
C20 0.062(4) 0.049(3) 0.035(3) -0.015(3) -0.006(3) -0.014(3)
C21 0.039(3) 0.041(3) 0.038(3) -0.003(2) -0.006(2) -0.009(2)
C22 0.036(2) 0.029(2) 0.022(3) 0.0021(19) -0.0046(19) -0.0022(19)
C23 0.034(2) 0.030(2) 0.023(3) 0.0035(19) -0.0029(19) 0.0012(19)
C24 0.034(3) 0.050(3) 0.035(3) 0.001(2) -0.004(2) -0.004(2)
C25 0.035(3) 0.060(3) 0.042(3) 0.001(3) 0.002(2) 0.009(2)
C26 0.045(3) 0.040(3) 0.044(3) 0.002(2) 0.009(2) 0.012(2)
C27 0.042(3) 0.029(2) 0.029(3) -0.002(2) 0.003(2) 0.002(2)
N1 0.033(2) 0.028(2) 0.033(2) -0.0044(17) -0.0010(17) 0.0006(16)
N2 0.0305(19) 0.030(2) 0.027(2) 0.0004(17) -0.0042(16) -0.0014(15)
O1 0.0373(18) 0.048(2) 0.033(2) 0.0098(17) -0.0011(15) 0.0128(15)
O2 0.0308(17) 0.0377(18) 0.041(2) 0.0033(16) -0.0006(15) 0.0080(14)
O3 0.0401(18) 0.0343(18) 0.036(2) -0.0022(15) -0.0080(15) -0.0086(14)
O4 0.087(3) 0.038(2) 0.051(3) 0.0072(19) -0.046(2) -0.0126(19)
O5 0.079(3) 0.0338(19) 0.033(2) 0.0002(16) 0.0000(19) -0.0026(18)
S1 0.0416(7) 0.0304(6) 0.0571(9) 0.0005(6) -0.0289(6) -0.0008(5)
S2 0.0340(6) 0.0310(6) 0.0471(9) 0.0009(6) -0.0202(6) -0.0001(5)

_geom_special_details            
; 
 All esds (except the esd in the dihedral angle between two l.s. planes) 
 are estimated using the full covariance matrix.  The cell esds are taken 
 into account individually in the estimation of esds in distances, angles 
 and torsion angles; correlations between esds in cell parameters are only 
 used when they are defined by crystal symmetry.  An approximate (isotropic) 
 treatment of cell esds is used for estimating esds involving l.s. planes. 
;

loop_
_geom_bond_atom_site_label_1
_geom_bond_atom_site_label_2
_geom_bond_distance
_geom_bond_site_symmetry_2
_geom_bond_publ_flag
Co1 O3 2.060(3) 1_565 ?
Co1 O5 2.073(4) . ?
Co1 O1 2.077(3) . ?
Co1 N2 2.102(4) . ?
Co1 N1 2.121(4) . ?
Co1 O2 2.288(3) . ?
C1 C1 1.321(9) 3_656 ?
C1 S1 1.758(5) . ?
C1 S2 1.760(5) . ?
C2 C10 1.340(7) . ?
C2 C3 1.477(6) . ?
C2 S1 1.752(4) . ?
C3 C8 1.384(7) . ?
C3 C4 1.387(6) . ?
C4 C5 1.383(6) . ?
C4 H4 0.9300 . ?
C5 C6 1.382(7) . ?
C5 H5 0.9300 . ?
C6 C7 1.381(6) . ?
C6 C9 1.502(6) . ?
C7 C8 1.388(7) . ?
C7 H7 0.9300 . ?
C8 H8 0.9300 . ?
C9 O1 1.255(6) . ?
C9 O2 1.259(5) . ?
C10 C11 1.484(6) . ?
C10 S2 1.767(4) . ?
C11 C16 1.384(7) . ?
C11 C12 1.387(6) . ?
C12 C13 1.376(6) . ?
C12 H12 0.9300 . ?
C13 C14 1.377(7) . ?
C13 H13 0.9300 . ?
C14 C15 1.385(6) . ?
C14 C17 1.511(6) . ?
C15 C16 1.374(6) . ?
C15 H15 0.9300 . ?
C16 H16 0.9300 . ?
C17 O4 1.230(6) . ?
C17 O3 1.280(5) . ?
C18 N1 1.331(6) . ?
C18 C19 1.377(7) . ?
C18 H18 0.9300 . ?
C19 C20 1.358(8) . ?
C19 H19 0.9300 . ?
C20 C21 1.384(7) . ?
C20 H20 0.9300 . ?
C21 C22 1.380(6) . ?
C21 H21 0.9300 . ?
C22 N1 1.350(5) . ?
C22 C23 1.490(6) . ?
C23 N2 1.338(6) . ?
C23 C24 1.390(6) . ?
C24 C25 1.386(7) . ?
C24 H24 0.9300 . ?
C25 C26 1.383(8) . ?
C25 H25 0.9300 . ?
C26 C27 1.360(7) . ?
C26 H26 0.9300 . ?
C27 N2 1.350(6) . ?
C27 H27 0.9300 . ?
O3 Co1 2.060(3) 1_545 ?
O5 H5B 0.8501 . ?
O5 H5A 0.8501 . ?

loop_
_geom_angle_atom_site_label_1
_geom_angle_atom_site_label_2
_geom_angle_atom_site_label_3
_geom_angle
_geom_angle_site_symmetry_1
_geom_angle_site_symmetry_3
_geom_angle_publ_flag
O3 Co1 O5 97.31(14) 1_565 . ?
O3 Co1 O1 91.65(13) 1_565 . ?
O5 Co1 O1 102.43(14) . . ?
O3 Co1 N2 96.42(14) 1_565 . ?
O5 Co1 N2 96.26(15) . . ?
O1 Co1 N2 158.53(14) . . ?
O3 Co1 N1 172.24(14) 1_565 . ?
O5 Co1 N1 87.20(15) . . ?
O1 Co1 N1 93.55(14) . . ?
N2 Co1 N1 76.75(14) . . ?
O3 Co1 O2 89.73(13) 1_565 . ?
O5 Co1 O2 161.47(13) . . ?
O1 Co1 O2 60.08(12) . . ?
N2 Co1 O2 99.97(13) . . ?
N1 Co1 O2 87.87(14) . . ?
C1 C1 S1 121.52(16) 3_656 . ?
C1 C1 S2 124.79(15) 3_656 . ?
S1 C1 S2 113.7(3) . . ?
C10 C2 C3 128.1(4) . . ?
C10 C2 S1 117.4(3) . . ?
C3 C2 S1 114.4(3) . . ?
C8 C3 C4 118.9(4) . . ?
C8 C3 C2 119.9(4) . . ?
C4 C3 C2 121.1(4) . . ?
C5 C4 C3 120.3(4) . . ?
C5 C4 H4 119.9 . . ?
C3 C4 H4 119.9 . . ?
C6 C5 C4 120.9(4) . . ?
C6 C5 H5 119.6 . . ?
C4 C5 H5 119.6 . . ?
C7 C6 C5 118.9(4) . . ?
C7 C6 C9 119.4(4) . . ?
C5 C6 C9 121.6(4) . . ?
C6 C7 C8 120.4(5) . . ?
C6 C7 H7 119.8 . . ?
C8 C7 H7 119.8 . . ?
C3 C8 C7 120.6(5) . . ?
C3 C8 H8 119.7 . . ?
C7 C8 H8 119.7 . . ?
O1 C9 O2 121.4(4) . . ?
O1 C9 C6 119.1(4) . . ?
O2 C9 C6 119.4(4) . . ?
C2 C10 C11 126.7(4) . . ?
C2 C10 S2 116.8(3) . . ?
C11 C10 S2 116.4(3) . . ?
C16 C11 C12 118.3(4) . . ?
C16 C11 C10 120.9(4) . . ?
C12 C11 C10 120.9(4) . . ?
C13 C12 C11 121.1(5) . . ?
C13 C12 H12 119.5 . . ?
C11 C12 H12 119.5 . . ?
C12 C13 C14 120.4(4) . . ?
C12 C13 H13 119.8 . . ?
C14 C13 H13 119.8 . . ?
C13 C14 C15 118.8(4) . . ?
C13 C14 C17 122.4(4) . . ?
C15 C14 C17 118.7(4) . . ?
C16 C15 C14 120.8(5) . . ?
C16 C15 H15 119.6 . . ?
C14 C15 H15 119.6 . . ?
C15 C16 C11 120.5(4) . . ?
C15 C16 H16 119.7 . . ?
C11 C16 H16 119.7 . . ?
O4 C17 O3 124.7(4) . . ?
O4 C17 C14 117.9(4) . . ?
O3 C17 C14 117.4(4) . . ?
N1 C18 C19 122.1(5) . . ?
N1 C18 H18 118.9 . . ?
C19 C18 H18 118.9 . . ?
C20 C19 