####################################################################### 
# 
# This file contains crystal structure data downloaded from the 
# Cambridge Structural Database (CSD) hosted by the Cambridge 
# Crystallographic Data Centre (CCDC).
# 
# Full information about CCDC data access policies and citation 
# guidelines are available at http://www.ccdc.cam.ac.uk/access/V1 
# 
# Audit and citation data items may have been added by the CCDC. 
# Please retain this information to preserve the provenance of 
# this file and to allow appropriate attribution of the data. 
# 
#######################################################################

data_mm
_audit_block_doi                 10.5517/cc13f61s
_database_code_depnum_ccdc_archive 'CCDC 1025574'
loop_
_citation_id
_citation_doi
_citation_year
1 10.1021/ic5029383 2015
_audit_update_record             
;
2014-09-23 deposited with the CCDC.	2024-07-10 downloaded from the CCDC.
;
_audit_creation_method           SHELXL-97
_audit_creation_date             2014-01-06
_chemical_formula_sum            'C168 H84 N12 O58 Zn16'
_chemical_formula_weight         4244.390
_refine_ls_R_factor_all          0.284
_cell_length_a                   51.070(5)
_cell_length_b                   51.070(5)
_cell_length_c                   29.743(5)
_cell_angle_alpha                90.000(5)
_cell_angle_beta                 90.000(5)
_cell_angle_gamma                120.000(5)
_cell_volume                     67181.1(150)
_cell_formula_units_Z            6
_symmetry_int_tables_number      148
_symmetry_space_group_name_H-M   'R -3'
_symmetry_space_group_name_Hall  -R_3

loop_
_symmetry_equiv_pos_site_id
_symmetry_equiv_pos_as_xyz
1 x,y,z
2 -y,x-y,z
3 -x+y,-x,z
4 -x,-y,-z
5 y,-x+y,-z
6 x-y,x,-z
7 2/3+x,1/3+y,1/3+z
8 2/3-y,1/3+x-y,1/3+z
9 2/3-x+y,1/3-x,1/3+z
10 2/3-x,1/3-y,1/3-z
11 2/3+y,1/3-x+y,1/3-z
12 2/3+x-y,1/3+x,1/3-z
13 1/3+x,2/3+y,2/3+z
14 1/3-y,2/3+x-y,2/3+z
15 1/3-x+y,2/3-x,2/3+z
16 1/3-x,2/3-y,2/3-z
17 1/3+y,2/3-x+y,2/3-z
18 1/3+x-y,2/3+x,2/3-z

loop_
_atom_type_symbol
_atom_type_oxidation_number
_atom_type_radius_bond
C ? 1.200
H ? 1.200
O ? 1.200
Zn ? 1.200
N ? 1.200


loop_
_atom_site_label
_atom_site_type_symbol
_atom_site_fract_x
_atom_site_fract_y
_atom_site_fract_z
_atom_site_occupancy
_atom_site_symmetry_multiplicity
_atom_site_Wyckoff_symbol
_atom_site_attached_hydrogens
_atom_site_calc_flag
_atom_site_thermal_displace_type
_atom_site_u_iso_or_equiv
C1 C 0.5800(15) 0.8858(18) 0.049(2) 1.000 18 f ? d Uiso 0.14(2)
C2 C 0.5671(11) 0.8292(14) 0.0660(16) 1.000 18 f ? d Uiso 0.16(2)
H2 H 0.5537 0.8218 0.0419 1.000 18 f ? calc Uiso 0.19500
C3 C 0.5701(12) 0.8062(13) 0.0886(18) 1.000 18 f ? d Uiso 0.17(2)
H3 H 0.5582 0.7858 0.0814 1.000 18 f ? calc Uiso 0.20000
C4 C 0.5923(12) 0.8163(12) 0.1225(18) 1.000 18 f ? d Uiso 0.135(18)
C5 C 0.6073(9) 0.8484(10) 0.1364(13) 1.000 18 f ? d Uiso 0.088(14)
C6 C 0.5997(9) 0.867(1) 0.1089(14) 1.000 18 f ? d Uiso 0.106(16)
H6 H 0.6103 0.8872 0.1173 1.000 18 f ? calc Uiso 0.12800
C7 C 0.5802(11) 0.8616(13) 0.0723(17) 1.000 18 f ? d Uiso 0.123(17)
C9 C 0.6250(6) 0.8507(9) 0.1751(8) 1.000 18 f ? d Uiso 0.089(14)
C10 C 0.6201(6) 0.8219(7) 0.1846(10) 1.000 18 f ? d Uiso 0.15(2)
C11 C 0.6350(7) 0.8176(6) 0.2205(12) 1.000 18 f ? d Uiso 0.139(18)
H11 H 0.6318 0.7984 0.2269 1.000 18 f ? calc Uiso 0.16700
C12 C 0.6546(6) 0.8421(9) 0.2470(8) 1.000 18 f ? d Uiso 0.134(18)
H12 H 0.6646 0.8392 0.2710 1.000 18 f ? calc Uiso 0.16100
C13 C 0.6595(5) 0.8708(7) 0.2375(10) 1.000 18 f ? d Uiso 0.109(16)
C14 C 0.6446(7) 0.8751(6) 0.2016(11) 1.000 18 f ? d Uiso 0.110(15)
H14 H 0.6478 0.8943 0.1952 1.000 18 f ? calc Uiso 0.13200
C15 C 0.5508(13) 0.9860(11) -0.065(2) 1.000 18 f ? d Uiso 0.131(19)
C30 C 0.5780(12) 0.9772(10) 0.0901(12) 1.000 18 f ? d Uiso 0.126(18)
C31 C 0.5740(7) 1.0117(9) 0.1406(14) 1.000 18 f ? d Uiso 0.20(2)
H31 H 0.5611 1.0126 0.1194 1.000 18 f ? calc Uiso 0.24500
C32 C 0.5880(9) 0.9948(7) 0.1321(10) 1.000 18 f ? d Uiso 0.134(18)
C33 C 0.6073(7) 0.9936(7) 0.1638(16) 1.000 18 f ? d Uiso 0.144(19)
H33 H 0.6166 0.9823 0.1581 1.000 18 f ? calc Uiso 0.17300
C34 C 0.6127(7) 1.0093(9) 0.2041(12) 1.000 18 f ? d Uiso 0.147(19)
C35 C 0.5988(10) 1.0262(8) 0.2126(11) 1.000 18 f ? d Uiso 0.25(3)
C36 C 0.5794(9) 1.0274(8) 0.1809(18) 1.000 18 f ? d Uiso 0.23(3)
H36 H 0.5701 1.0388 0.1866 1.000 18 f ? calc Uiso 0.27100
C38 C 0.6501(10) 1.0018(7) 0.2544(16) 1.000 18 f ? d Uiso 0.17(2)
H38 H 0.6522 0.9886 0.2351 1.000 18 f ? calc Uiso 0.19900
C39 C 0.6329(9) 1.0146(11) 0.2413(11) 1.000 18 f ? d Uiso 0.18(2)
C40 C 0.6297(10) 1.0343(11) 0.270(2) 1.000 18 f ? d Uiso 0.36(5)
C41 C 0.6437(12) 1.0411(9) 0.3119(18) 1.000 18 f ? d Uiso 0.34(4)
H41 H 0.6415 1.0543 0.3311 1.000 18 f ? calc Uiso 0.40300
C42 C 0.6609(10) 1.0283(11) 0.3249(10) 1.000 18 f ? d Uiso 0.25(3)
H42 H 0.6703 1.0328 0.3529 1.000 18 f ? calc Uiso 0.29600
C43 C 0.6641(8) 1.0086(10) 0.2962(19) 1.000 18 f ? d Uiso 0.19(2)
C44 C 0.6841(13) 0.9987(17) 0.317(2) 1.000 18 f ? d Uiso 0.23(3)
C50 C 0.5329(11) 0.8896(16) -0.1069(19) 1.000 18 f ? d Uiso 0.17(2)
C51 C 0.5216(14) 0.8897(11) -0.185(3) 1.000 18 f ? d Uiso 0.47(7)
H51 H 0.5355 0.9103 -0.1835 1.000 18 f ? calc Uiso 0.56300
C52 C 0.5153(11) 0.8720(18) -0.147(2) 1.000 18 f ? d Uiso 0.29(4)
C53 C 0.4944(14) 0.8412(16) -0.148(2) 1.000 18 f ? d Uiso 0.22(3)
H53 H 0.4902 0.8293 -0.1228 1.000 18 f ? calc Uiso 0.26100
C54 C 0.4799(10) 0.8282(12) -0.189(3) 1.000 18 f ? d Uiso 0.35(5)
C55 C 0.4862(17) 0.846(2) -0.2270(19) 1.000 18 f ? d Uiso 0.41(6)
C56 C 0.507(2) 0.877(2) -0.225(2) 1.000 18 f ? d Uiso 2.0(7)
H56 H 0.5112 0.8886 -0.2507 1.000 18 f ? calc Uiso 2.40000
C57 C 0.4347(16) 0.7722(18) -0.1749(12) 1.000 18 f ? d Uiso 0.20(2)
H57 H 0.4392 0.7719 -0.1447 1.000 18 f ? calc Uiso 0.24400
C58 C 0.4526(9) 0.7975(12) -0.201(3) 1.000 18 f ? d Uiso 0.27(3)
C59 C 0.4458(16) 0.7979(14) -0.246(3) 1.000 18 f ? d Uiso 0.38(5)
C60 C 0.4210(18) 0.773(2) -0.2651(12) 1.000 18 f ? d Uiso 0.39(5)
H60 H 0.4164 0.7733 -0.2953 1.000 18 f ? calc Uiso 0.46300
C61 C 0.403(1) 0.7477(14) -0.239(3) 1.000 18 f ? d Uiso 0.30(4)
H61 H 0.3864 0.7311 -0.2518 1.000 18 f ? calc Uiso 0.36200
C62 C 0.4098(13) 0.7473(11) -0.194(2) 1.000 18 f ? d Uiso 0.21(3)
C63 C 0.3880(18) 0.7201(18) -0.173(3) 1.000 18 f ? d Uiso 0.21(3)
C70 C 0.4900(12) 0.8969(15) 0.0262(16) 1.000 18 f ? d Uiso 0.130(19)
C71 C 0.4371(14) 0.8483(13) 0.0280(12) 1.000 18 f ? d Uiso 0.15(2)
H71 H 0.4445 0.8386 0.0099 1.000 18 f ? calc Uiso 0.17700
C72 C 0.4585(12) 0.8772(14) 0.0414(14) 1.000 18 f ? d Uiso 0.139(19)
C73 C 0.4484(17) 0.8922(15) 0.0674(17) 1.000 18 f ? d Uiso 0.22(3)
H73 H 0.4625 0.9116 0.0768 1.000 18 f ? calc Uiso 0.25800
C74 C 0.420(2) 0.881(2) 0.080(2) 1.000 18 f ? d Uiso 0.31(4)
H74 H 0.4137 0.8918 0.0986 1.000 18 f ? calc Uiso 0.36900
C75 C 0.398(3) 0.849(3) 0.063(3) 1.000 18 f ? d Uiso 0.32(5)
C76 C 0.4068(19) 0.8317(19) 0.0371(19) 1.000 18 f ? d Uiso 0.17(2)
C77 C 0.353(2) 0.7564(19) -0.001(2) 1.000 18 f ? d Uiso 0.20(3)
C78 C 0.3793(16) 0.7802(17) 0.0049(17) 1.000 18 f ? d Uiso 0.18(2)
H78 H 0.3965 0.7804 -0.0059 1.000 18 f ? calc Uiso 0.21100
C79 C 0.382(2) 0.804(2) 0.025(2) 1.000 18 f ? d Uiso 0.19(3)
C80 C 0.359(3) 0.804(3) 0.046(3) 1.000 18 f ? d Uiso 0.30(5)
C81 C 0.331(3) 0.781(3) 0.050(2) 1.000 18 f ? d Uiso 0.31(5)
H81 H 0.3160 0.7817 0.0672 1.000 18 f ? calc Uiso 0.36800
C82 C 0.325(2) 0.757(2) 0.026(3) 1.000 18 f ? d Uiso 0.32(5)
H82 H 0.3055 0.7408 0.0237 1.000 18 f ? calc Uiso 0.38100
C83 C 0.346(2) 0.728(2) -0.026(3) 1.000 18 f ? d Uiso 0.24(3)
O1 O 0.5654(7) 0.9335(7) -0.0101(10) 1.000 18 f ? d Uiso 0.137(11)
O2 O 0.5567(7) 0.8695(7) 0.0248(10) 1.000 18 f ? d Uiso 0.125(11)
O3 O 0.5950(8) 0.9084(9) 0.058(1) 1.000 18 f ? d Uiso 0.132(14)
O4 O 0.5935(7) 0.9647(7) 0.0813(10) 1.000 18 f ? d Uiso 0.132(11)
O5 O 0.5604(8) 0.9776(7) 0.0634(12) 1.000 18 f ? d Uiso 0.146(12)
O6 O 0.5671(8) 0.9787(8) -0.0832(10) 1.000 18 f ? d Uiso 0.152(13)
O7 O 0.5354(7) 0.9767(8) -0.0301(12) 1.000 18 f ? d Uiso 0.149(13)
O8 O 0.5038(8) 0.9226(9) 0.0333(10) 1.000 18 f ? d Uiso 0.147(13)
O9 O 0.4992(7) 0.8792(7) 0.0119(10) 1.000 18 f ? d Uiso 0.135(12)
O10 O 0.5469(10) 0.9171(12) -0.1087(14) 1.000 18 f ? d Uiso 0.215(18)
O11 O 0.5287(7) 0.8729(7) -0.0716(13) 1.000 18 f ? d Uiso 0.155(13)
O12 O 0.6829(8) 0.9769(8) 0.2864(11) 1.000 18 f ? d Uiso 0.171(14)
O13 O 0.7018(10) 1.0047(9) 0.3481(13) 1.000 18 f ? d Uiso 0.201(16)
O14 O 0.3333 0.6667 -0.099(2) 1.000 6 c ? d Uiso 0.17(2)
O15 O 0.3673(12) 0.7025(11) -0.1890(15) 1.000 18 f ? d Uiso 0.22(2)
O16 O 0.3958(8) 0.7235(8) -0.1261(14) 1.000 18 f ? d Uiso 0.176(14)
O17 O 0.3921(9) 0.6825(11) -0.0400(14) 1.000 18 f ? d Uiso 0.211(18)
O18 O 0.3678(9) 0.7292(8) -0.0419(12) 1.000 18 f ? d Uiso 0.172(16)
O19 O 0.6048(9) 0.9696(9) -0.1426(13) 1.000 18 f ? d Uiso 0.220(17)
O20 O 0.6047(10) 0.9176(10) -0.0704(14) 1.000 18 f ? d Uiso 0.252(19)
Zn1 Zn 0.5426(1) 0.9524(1) 0.0106(2) 1.000 18 f ? d Uani 0.130(3)
Zn2 Zn 0.5979(1) 0.9433(1) 0.0293(2) 1.000 18 f ? d Uani 0.123(3)
Zn3 Zn 0.5400(1) 0.8909(1) -0.0145(2) 1.000 18 f ? d Uani 0.131(3)
Zn4 Zn 0.5826(1) 0.9492(2) -0.0726(2) 1.000 18 f ? d Uani 0.147(3)
Zn5 Zn 0.3721(2) 0.6986(2) -0.0762(2) 1.000 18 f ? d Uani 0.159(3)
Zn6 Zn 0.3333 0.6667 -0.1621(4) 1.000 6 c ? d Uani 0.179(5)
N1 N 0.6003(8) 0.8032(9) 0.1537(12) 1.000 18 f ? d Uiso 0.143(15)
H1 H 0.5933 0.7840 0.1543 1.000 18 f ? calc Uiso 0.17100
N2 N 0.6135(13) 1.0437(14) 0.248(2) 1.000 18 f ? d Uiso 0.29(3)
H2 H 0.6126 1.0595 0.2550 1.000 18 f ? calc Uiso 0.34300
N3 N 0.4630(19) 0.831(2) -0.264(3) 1.000 18 f ? d Uiso 0.42(5)
H3 H 0.4603 0.8379 -0.2883 1.000 18 f ? calc Uiso 0.49900
N4 N 0.3650(17) 0.8285(18) 0.0693(18) 1.000 18 f ? d Uiso 0.27(3)
H4 H 0.3526 0.8318 0.0845 1.000 18 f ? calc Uiso 0.32300


loop_
_atom_site_aniso_label
_atom_site_aniso_U_11
_atom_site_aniso_U_22
_atom_site_aniso_U_33
_atom_site_aniso_U_12
_atom_site_aniso_U_13
_atom_site_aniso_U_23
Zn1 0.106(5) 0.123(5) 0.162(6) 0.058(5) 0.007(5) 0.013(5)
Zn2 0.099(5) 0.117(5) 0.152(6) 0.053(4) 0.003(4) 0.011(5)
Zn3 0.114(5) 0.131(6) 0.150(6) 0.061(5) 0.001(5) -0.006(5)
Zn4 0.130(6) 0.156(6) 0.171(6) 0.084(5) 0.007(5) 0.016(5)
Zn5 0.170(7) 0.150(7) 0.161(6) 0.082(6) 0.010(5) 0.005(5)
Zn6 0.180(8) 0.180(8) 0.178(13) 0.090(4) 0.00000 0.00000

loop_
_geom_bond_atom_site_label_1
_geom_bond_atom_site_label_2
_geom_bond_site_symmetry_1
_geom_bond_site_symmetry_2
_geom_bond_distance
_geom_bond_publ_flag
C1 O3 . . 1.05(6) no
C1 O2 . . 1.28(6) no
C1 C7 . . 1.42(6) no
C2 C3 . . 1.43(6) no
C2 C7 . . 1.45(6) no
C2 H2 . . 0.9300 no
C3 C4 . . 1.41(6) no
C3 H3 . . 0.9300 no
C4 N1 . . 1.32(5) no
C4 C5 . . 1.48(5) no
C5 C9 . . 1.43(4) no
C5 C6 . . 1.45(4) no
C6 C7 . . 1.41(5) no
C6 H6 . . 0.9300 no
C9 C10 . . 1.3900 no
C9 C14 . . 1.3900 no
C10 N1 . . 1.35(4) no
C10 C11 . . 1.3900 no
C11 C12 . . 1.3900 no
C11 H11 . . 0.9300 no
C12 C13 . . 1.3900 no
C12 H12 . . 0.9300 no
C13 C14 . . 1.3900 no
C13 C15 . 8_665 1.57(5) no
C14 H14 . . 0.9300 no
C15 O6 . . 1.20(5) no
C15 O7 . . 1.24(5) no
C15 C13 . 15_564 1.6(3) no
C30 O5 . . 1.21(5) no
C30 O4 . . 1.27(5) no
C30 C32 . . 1.475(10) no
C31 C32 . . 1.3900 no
C31 C36 . . 1.3900 no
C31 H31 . . 0.9300 no
C32 C33 . . 1.3900 no
C33 C34 . . 1.3900 no
C33 H33 . . 0.9300 no
C34 C35 . . 1.3900 no
C34 C39 . . 1.44(4) no
C35 N2 . . 1.33(6) no
C35 C36 . . 1.3900 no
C36 H36 . . 0.9300 no
C38 C39 . . 1.3900 no
C38 C43 . . 1.3900 no
C38 H38 . . 0.9300 no
C39 C40 . . 1.3900 no
C40 N2 . . 1.32(7) no
C40 C41 . . 1.3900 no
C41 C42 . . 1.3900 no
C41 H41 . . 0.9300 no
C42 C43 . . 1.3900 no
C42 H42 . . 0.9300 no
C43 C44 . . 1.484(10) no
C44 O13 . . 1.22(6) no
C44 O12 . . 1.41(7) no
C50 O10 . . 1.22(6) no
C50 O11 . . 1.30(6) no
C50 C52 . . 1.482(10) no
C51 C52 . . 1.3900 no
C51 C56 . . 1.3900 no
C51 H51 . . 0.9300 no
C52 C53 . . 1.3900 no
C53 C54 . . 1.3900 no
C53 H53 . . 0.9300 no
C54 C55 . . 1.3900 no
C54 C58 . . 1.53(5) no
C55 C56 . . 1.3900 no
C55 N3 . . 1.52(9) no
C56 H56 . . 0.9300 no
C57 C58 . . 1.3900 no
C57 C62 . . 1.3900 no
C57 H57 . . 0.9300 no
C58 C59 . . 1.3900 no
C59 C60 . . 1.3900 no
C59 N3 . . 1.54(9) no
C60 C61 . . 1.3900 no
C60 H60 . . 0.9300 no
C61 C62 . . 1.3900 no
C61 H61 . . 0.9300 no
C62 C63 . . 1.41(7) no
C63 O15 . . 1.09(8) no
C63 O16 . . 1.45(7) no
C70 O8 . . 1.16(5) no
C70 O9 . . 1.28(5) no
C70 C72 . . 1.48(1) no
C71 C76 . . 1.37(7) no
C71 C72 . . 1.38(6) no
C71 H71 . . 0.9300 no
C72 C73 . . 1.36(7) no
C73 C74 . . 1.33(9) no
C73 H73 . . 0.9300 no
C74 C75 . . 1.54(11) no
C74 H74 . . 0.9300 no
C75 C76 . . 1.41(11) no
C75 N4 . . 1.48(11) no
C76 C79 . . 1.39(7) no
C77 C78 . . 1.29(7) no
C77 C83 . . 1.50(8) no
C77 C82 . . 1.66(9) no
C78 C79 . . 1.30(7) no
C78 H78 . . 0.9300 no
C79 C80 . . 1.34(12) no
C80 C81 . . 1.32(12) no
C80 N4 . . 1.33(11) no
C81 C82 . . 1.31(11) no
C81 H81 . . 0.9300 no
C82 H82 . . 0.9300 no
C83 O18 . . 1.20(9) no
C83 O17 . 2_665 1.32(9) no
O1 Zn2 . . 1.88(3) no
O1 Zn3 . . 1.90(3) no
O1 Zn1 . . 1.95(3) no
O1 Zn4 . . 2.04(3) no
O2 Zn3 . . 2.05(3) no
O3 Zn2 . . 1.91(4) no
O4 Zn2 . . 1.97(3) no
O5 Zn1 . . 1.94(4) no
O6 Zn4 . . 2.05(4) no
O7 Zn1 . . 1.89(4) no
O8 Zn1 . . 1.92(4) no
O9 Zn3 . . 2.02(3) no
O10 Zn4 . . 2.04(5) no
O11 Zn3 . . 1.88(3) no
O12 Zn4 . 8_665 2.21(4) no
O13 Zn2 . 8_665 1.76(5) no
O14 Zn6 . . 1.89(6) no
O14 Zn5 . 2_665 1.95(2) no
O14 Zn5 . . 1.95(2) no
O14 Zn5 . 3_565 1.95(2) no
O15 Zn6 . . 1.96(5) no
O16 Zn5 . . 1.93(4) no
O17 C83 . 3_565 1.32(9) no
O17 Zn5 . . 1.93(5) no
O18 Zn5 . . 1.97(4) no
O19 Zn4 . . 2.35(4) no
O20 Zn4 . . 2.39(4) no
Zn1 Zn2 . . 3.135(8) no
Zn2 O13 . 15_564 1.76(5) no
Zn2 Zn3 . . 3.114(8) no
Zn4 O12 . 15_564 2.21(4) no
Zn5 Zn6 . . 3.142(13) no
Zn6 O15 . 2_665 1.96(5) no
Zn6 O15 . 3_565 1.96(5) no
Zn6 Zn5 . 2_665 3.142(13) no
Zn6 Zn5 . 3_565 3.142(13) no
N1 H1 . . 0.8600 no
N2 H2 . . 0.8600 no
N3 H3 . . 0.8600 no
N4 H4 . . 0.8600 no

loop_
_geom_angle_atom_site_label_1
_geom_angle_atom_site_label_2
_geom_angle_atom_site_label_3
_geom_angle_site_symmetry_1
_geom_angle_site_symmetry_2
_geom_angle_site_symmetry_3
_geom_angle
_geom_angle_publ_flag
O3 C1 O2 . . . 142.(8) no
O3 C1 C7 . . . 121.(7) no
O2 C1 C7 . . . 97.(6) no
C3 C2 C7 . . . 134.(6) no
C3 C2 H2 . . . 112.80 no
C7 C2 H2 . . . 112.80 no
C4 C3 C2 . . . 116.(6) no
C4 C3 H3 . . . 122.20 no
C2 C3 H3 . . . 122.20 no
N1 C4 C3 . . . 135.(6) no
N1 C4 C5 . . . 104.(5) no
C3 C4 C5 . . . 119.(5) no
C9 C5 C6 . . . 140.(4) no
C9 C5 C4 . . . 106.(4) no
C6 C5 C4 . . . 114.(4) no
C7 C6 C5 . . . 135.(5) no
C7 C6 H6 . . . 112.60 no
C5 C6 H6 . . . 112.50 no
C6 C7 C1 . . . 121.(6) no
C6 C7 C2 . . . 101.(5) no
C1 C7 C2 . . . 137.(6) no
C10 C9 C14 . . . 120.00 no
C10 C9 C5 . . . 108.(3) no
C14 C9 C5 . . . 132.(3) no
N1 C10 C11 . . . 133.(4) no
N1 C10 C9 . . . 107.(4) no
C11 C10 C9 . . . 120.00 no
C10 C11 C12 . . . 120.00 no
C10 C11 H11 . . . 120.00 no
C12 C11 H11 . . . 120.00 no
C13 C12 C11 . . . 120.00 no
C13 C12 H12 . . . 120.00 no
C11 C12 H12 . . . 120.00 no
C12 C13 C14 . . . 120.00 no
C12 C13 C15 . . 8_665 120.(4) no
C14 C13 C15 . . 8_665 120.(4) no
C13 C14 C9 . . . 120.00 no
C13 C14 H14 . . . 120.00 no
C9 C14 H14 . . . 120.00 no
O6 C15 O7 . . . 132.(6) no
O6 C15 C13 . . 15_564 111.(6) no
O7 C15 C13 . . 15_564 117.(6) no
O5 C30 O4 . . . 122.(3) no
O5 C30 C32 . . . 125.(6) no
O4 C30 C32 . . . 112.(5) no
C32 C31 C36 . . . 120.00 no
C32 C31 H31 . . . 120.00 no
C36 C31 H31 . . . 120.00 no
C33 C32 C31 . . . 120.00 no
C33 C32 C30 . . . 126.(5) no
C31 C32 C30 . . . 114.(5) no
C32 C33 C34 . . . 120.00 no
C32 C33 H33 . . . 120.00 no
C34 C33 H33 . . . 120.00 no
C35 C34 C33 . . . 120.00 no
C35 C34 C39 . . . 106.(5) no
C33 C34 C39 . . . 133.(5) no
N2 C35 C34 . . . 105.(5) no
N2 C35 C36 . . . 133.(5) no
C34 C35 C36 . . . 120.00 no
C35 C36 C31 . . . 120.00 no
C35 C36 H36 . . . 120.00 no
C31 C36 H36 . . . 120.00 no
C39 C38 C43 . . . 120.00 no
C39 C38 H38 . . . 120.00 no
C43 C38 H38 . . . 120.00 no
C38 C39 C40 . . . 120.00 no
C38 C39 C34 . . . 133.(5) no
C40 C39 C34 . . . 106.(5) no
N2 C40 C39 . . . 106.(6) no
N2 C40 C41 . . . 134.(6) no
C39 C40 C41 . . . 120.00 no
C42 C41 C40 . . . 120.00 no
C42 C41 H41 . . . 120.00 no
C40 C41 H41 . . . 120.00 no
C41 C42 C43 . . . 120.00 no
C41 C42 H42 . . . 120.00 no
C43 C42 H42 . . . 120.00 no
C42 C43 C38 . . . 120.00 no
C42 C43 C44 . . . 110.(6) no
C38 C43 C44 . . . 130.(6) no
O13 C44 O12 . . . 115.(4) no
O13 C44 C43 . . . 141.(8) no
O12 C44 C43 . . . 103.(5) no
O10 C50 O11 . . . 127.(5) no
O10 C50 C52 . . . 120.(7) no
O11 C50 C52 . . . 113.(7) no
C52 C51 C56 . . . 120.00 no
C52 C51 H51 . . . 120.00 no
C56 C51 H51 . . . 120.00 no
C53 C52 C51 . . . 120.00(8) no
C53 C52 C50 . . . 127.(8) no
C51 C52 C50 . . . 113.(8) no
C52 C53 C54 . . . 120.00 no
C52 C53 H53 . . . 120.00 no
C54 C53 H53 . . . 120.00 no
C53 C54 C55 . . . 120.00 no
C53 C54 C58 . . . 134.(8) no
C55 C54 C58 . . . 105.(8) no
C56 C55 C54 . . . 120.00(8) no
C56 C55 N3 . . . 125.(8) no
C54 C55 N3 . . . 113.(8) no
C55 C56 C51 . . . 120.00 no
C55 C56 H56 . . . 120.00 no
C51 C56 H56 . . . 120.00 no
C58 C57 C62 . . . 120.00 no
C58 C57 H57 . . . 120.00 no
C62 C57 H57 . . . 120.00 no
C57 C58 C59 . . . 120.00 no
C57 C58 C54 . . . 131.(8) no
C59 C58 C54 . . . 109.(8) no
C58 C59 C60 . . . 120.00(6) no
C58 C59 N3 . . . 110.(8) no
C60 C59 N3 . . . 128.(8) no
C61 C60 C59 . . . 120.00 no
C61 C60 H60 . . . 120.00 no
C59 C60 H60 . . . 120.00 no
C60 C61 C62 . . . 120.00 no
C60 C61 H61 . . . 120.00 no
C62 C61 H61 . . . 120.00 no
C61 C62 C57 . . . 120.00(6) no
C61 C62 C63 . . . 111.(8) no
C57 C62 C63 . . . 129.(8) no
O15 C63 C62 . . . 126.(10) no
O15 C63 O16 . . . 127.(8) no
C62 C63 O16 . . . 106.(8) no
O8 C70 O9 . . . 129.(6) no
O8 C70 C72 . . . 123.(7) no
O9 C70 C72 . . . 106.(6) no
C76 C71 C72 . . . 130.(7) no
C76 C71 H71 . . . 114.80 no
C72 C71 H71 . . . 114.90 no
C73 C72 C71 . . . 117.(6) no
C73 C72 C70 . . . 112.(7) no
C71 C72 C70 . . . 130.(7) no
C74 C73 C72 . . . 124.(8) no
C74 C73 H73 . . . 117.70 no
C72 C73 H73 . . . 117.80 no
C73 C74 C75 . . . 115.(10) no
C73 C74 H74 . . . 122.40 no
C75 C74 H74 . . . 122.50 no
C76 C75 N4 . . . 103.(10) no
C76 C75 C74 . . . 123.(10) no
N4 C75 C74 . . . 133.(10) no
C71 C76 C79 . . . 138.(9) no
C71 C76 C75 . . . 110.(10) no
C79 C76 C75 . . . 111.(10) no
C78 C77 C83 . . . 129.(10) no
C78 C77 C82 . . . 114.(8) no
C83 C77 C82 . . . 117.(9) no
C77 C78 C79 . . . 121.(9) no
C77 C78 H78 . . . 119.20 no
C79 C78 H78 . . . 119.30 no
C78 C79 C80 . . . 122.(10) no
C78 C79 C76 . . . 134.(10) no
C80 C79 C76 . . . 104.(10) no
C81 C80 N4 . . . 116.(10) no
C81 C80 C79 . . . 128.(10) no
N4 C80 C79 . . . 116.(10) no
C82 C81 C80 . . . 114.(10) no
C82 C81 H81 . . . 123.00 no
C80 C81 H81 . . . 122.80 no
C81 C82 C77 . . . 120.(10) no
C81 C82 H82 . . . 120.20 no
C77 C82 H82 . . . 120.20 no
O18 C83 O17 . . 2_665 126.(9) no
O18 C83 C77 . . . 111.(10) no
O17 C83 C77 2_665 . . 120.(9) no
Zn2 O1 Zn3 . . . 110.6(15) no
Zn2 O1 Zn1 . . . 109.8(15) no
Zn3 O1 Zn1 . . . 110.8(15) no
Zn2 O1 Zn4 . . . 108.2(15) no
Zn3 O1 Zn4 . . . 107.5(14) no
Zn1 O1 Zn4 . . . 109.8(14) no
C1 O2 Zn3 . . . 118.(4) no
C1 O3 Zn2 . . . 126.(5) no
C30 O4 Zn2 . . . 136.(3) no
C30 O5 Zn1 . . . 129.(3) no
C15 O6 Zn4 . . . 138.(4) no
C15 O7 Zn1 . . . 119.(4) no
C70 O8 Zn1 . . . 129.(4) no
C70 O9 Zn3 . . . 128.(4) no
C50 O10 Zn4 . . . 133.(4) no
C50 O11 Zn3 . . . 120.(3) no
C44 O12 Zn4 . . 8_665 133.(3) no
C44 O1