####################################################################### 
# 
# This file contains crystal structure data downloaded from the 
# Cambridge Structural Database (CSD) hosted by the Cambridge 
# Crystallographic Data Centre (CCDC).
# 
# Full information about CCDC data access policies and citation 
# guidelines are available at http://www.ccdc.cam.ac.uk/access/V1 
# 
# Audit and citation data items may have been added by the CCDC. 
# Please retain this information to preserve the provenance of 
# this file and to allow appropriate attribution of the data. 
# 
#######################################################################

data_compound-1-L
_audit_block_doi                 10.5517/cc13h5tl
_database_code_depnum_ccdc_archive 'CCDC 1027489'
loop_
_citation_id
_citation_doi
_citation_year
1 10.1021/acs.inorgchem.5b00023 2015
_audit_update_record             
;
2014-10-03 deposited with the CCDC.	2024-07-10 downloaded from the CCDC.
;

_audit_creation_method           SHELXL-97
_chemical_name_systematic        
; 
 ? 
;
_chemical_name_common            ?
_chemical_melting_point          ?
_chemical_formula_moiety         'C43 H51 N4 O24 Zn2'
_chemical_formula_sum            'C43 H51 N4 O24 Zn2'
_chemical_formula_weight         1138.62

loop_
_atom_type_symbol
_atom_type_description
_atom_type_scat_dispersion_real
_atom_type_scat_dispersion_imag
_atom_type_scat_source
C C 0.0181 0.0091 'International Tables Vol C Tables 4.2.6.8 and 6.1.1.4'
H H 0.0000 0.0000 'International Tables Vol C Tables 4.2.6.8 and 6.1.1.4'
N N 0.0311 0.0180 'International Tables Vol C Tables 4.2.6.8 and 6.1.1.4'
O O 0.0492 0.0322 'International Tables Vol C Tables 4.2.6.8 and 6.1.1.4'
Zn Zn -1.5491 0.6778 'International Tables Vol C Tables 4.2.6.8 and 6.1.1.4'

_symmetry_cell_setting           monoclinic
_symmetry_space_group_name_H-M   P2(1)/n
_symmetry_space_group_name_Hall  '-P 2yn'

loop_
_symmetry_equiv_pos_as_xyz
'x, y, z'
'-x+1/2, y+1/2, -z+1/2'
'-x, -y, -z'
'x-1/2, -y-1/2, z-1/2'

_cell_length_a                   11.12310(10)
_cell_length_b                   29.0062(4)
_cell_length_c                   14.7756(2)
_cell_angle_alpha                90.00
_cell_angle_beta                 91.5430(10)
_cell_angle_gamma                90.00
_cell_volume                     4765.45(10)
_cell_formula_units_Z            4
_cell_measurement_temperature    100(2)
_cell_measurement_reflns_used    9666
_cell_measurement_theta_min      3.3140
_cell_measurement_theta_max      74.2260

_exptl_crystal_description       sheet
_exptl_crystal_colour            yellow
_exptl_crystal_size_max          0.40
_exptl_crystal_size_mid          0.10
_exptl_crystal_size_min          0.02
_exptl_crystal_density_meas      ?
_exptl_crystal_density_diffrn    1.587
_exptl_crystal_density_method    'not measured'
_exptl_crystal_F_000             2356
_exptl_absorpt_coefficient_mu    2.054
_exptl_absorpt_correction_type   multi-scan
_exptl_absorpt_correction_T_min  0.61084
_exptl_absorpt_correction_T_max  1.00000
_exptl_absorpt_process_details   
;
CrysAlisPro, Agilent Technologies,
Version 1.171.36.32 (release 02-08-2013 CrysAlis171 .NET)
(compiled Aug  2 2013,16:46:58)
Empirical absorption correction using spherical harmonics,
 implemented in SCALE3 ABSPACK scaling algorithm.
;

_exptl_special_details           
; 
 ? 
;

_diffrn_ambient_temperature      100(2)
_diffrn_radiation_wavelength     1.54178
_diffrn_radiation_type           CuK\a
_diffrn_radiation_source         'fine-focus sealed tube'
_diffrn_radiation_monochromator  graphite
_diffrn_measurement_device_type  'SuperNova, Dual, Cu at zero, Atlas'
_diffrn_measurement_method       '\w scans'
_diffrn_detector_area_resol_mean 10.3503
_diffrn_standards_number         ?
_diffrn_standards_interval_count ?
_diffrn_standards_interval_time  ?
_diffrn_standards_decay_%        ?
_diffrn_reflns_number            20186
_diffrn_reflns_av_R_equivalents  0.0193
_diffrn_reflns_av_sigmaI/netI    0.0249
_diffrn_reflns_limit_h_min       -13
_diffrn_reflns_limit_h_max       8
_diffrn_reflns_limit_k_min       -35
_diffrn_reflns_limit_k_max       36
_diffrn_reflns_limit_l_min       -16
_diffrn_reflns_limit_l_max       18
_diffrn_reflns_theta_min         3.05
_diffrn_reflns_theta_max         74.41
_reflns_number_total             9491
_reflns_number_gt                8315
_reflns_threshold_expression     >2sigma(I)

_computing_data_collection       
;
CrysAlisPro, Agilent Technologies,
Version 1.171.36.32 (release 02-08-2013 CrysAlis171 .NET)
(compiled Aug  2 2013,16:46:58)
;
_computing_cell_refinement       
;
CrysAlisPro, Agilent Technologies,
Version 1.171.36.32 (release 02-08-2013 CrysAlis171 .NET)
(compiled Aug  2 2013,16:46:58)
;
_computing_data_reduction        
;
CrysAlisPro, Agilent Technologies,
Version 1.171.36.32 (release 02-08-2013 CrysAlis171 .NET)
(compiled Aug  2 2013,16:46:58)
;
_computing_structure_solution    'SHELXS-97 (Sheldrick, 1990)'
_computing_structure_refinement  'SHELXL-97 (Sheldrick, 1997)'
_computing_molecular_graphics    'DIAMOND. Version 3.0. Crystal Impact'
_computing_publication_material  'Windows Word 2003'

_refine_special_details          
; 
 Refinement of F^2^ against ALL reflections.  The weighted R-factor wR and 
 goodness of fit S are based on F^2^, conventional R-factors R are based 
 on F, with F set to zero for negative F^2^. The threshold expression of 
 F^2^ > 2sigma(F^2^) is used only for calculating R-factors(gt) etc. and is 
 not relevant to the choice of reflections for refinement.  R-factors based 
 on F^2^ are statistically about twice as large as those based on F, and R- 
 factors based on ALL data will be even larger. 
;

_refine_ls_structure_factor_coef Fsqd
_refine_ls_matrix_type           full
_refine_ls_weighting_scheme      calc
_refine_ls_weighting_details     
'calc w=1/[\s^2^(Fo^2^)+(0.0700P)^2^+9.0000P] where P=(Fo^2^+2Fc^2^)/3'
_atom_sites_solution_primary     direct
_atom_sites_solution_secondary   difmap
_atom_sites_solution_hydrogens   geom
_refine_ls_hydrogen_treatment    mixed
_refine_ls_extinction_method     none
_refine_ls_extinction_coef       ?
_refine_ls_number_reflns         9491
_refine_ls_number_parameters     742
_refine_ls_number_restraints     51
_refine_ls_R_factor_all          0.0528
_refine_ls_R_factor_gt           0.0464
_refine_ls_wR_factor_ref         0.1381
_refine_ls_wR_factor_gt          0.1327
_refine_ls_goodness_of_fit_ref   1.007
_refine_ls_restrained_S_all      1.015
_refine_ls_shift/su_max          0.042
_refine_ls_shift/su_mean         0.001

loop_
_atom_site_label
_atom_site_type_symbol
_atom_site_fract_x
_atom_site_fract_y
_atom_site_fract_z
_atom_site_U_iso_or_equiv
_atom_site_adp_type
_atom_site_occupancy
_atom_site_symmetry_multiplicity
_atom_site_calc_flag
_atom_site_refinement_flags
_atom_site_disorder_assembly
_atom_site_disorder_group
Zn1 Zn 0.08517(3) 0.672007(12) 0.35520(2) 0.02024(11) Uani 1 1 d . . .
Zn2 Zn -0.21211(3) 0.671828(12) 0.52326(2) 0.02072(11) Uani 1 1 d . . .
O1 O 0.13586(18) 0.68607(7) 0.48132(13) 0.0276(4) Uani 1 1 d . . .
O2 O 0.1367(2) 0.76034(8) 0.44411(14) 0.0350(5) Uani 1 1 d . . .
O3 O 0.4701(2) 0.81272(8) 0.67852(15) 0.0341(5) Uani 1 1 d . . .
O4 O 0.45115(17) 0.78799(7) 0.81935(13) 0.0256(4) Uani 1 1 d . . .
O5 O 0.23566(18) 0.81813(7) 0.89674(13) 0.0265(4) Uani 1 1 d . . .
O6 O 0.2164(2) 0.74473(8) 0.93656(14) 0.0317(5) Uani 1 1 d . . .
O7 O -0.10843(18) 0.69142(8) 0.70134(14) 0.0291(4) Uani 1 1 d . . .
O8 O -0.08704(18) 0.71523(7) 0.55969(13) 0.0255(4) Uani 1 1 d . . .
O9 O 0.01806(18) 0.60890(7) 0.36932(13) 0.0258(4) Uani 1 1 d . . .
O10 O 0.20300(19) 0.58787(8) 0.41491(16) 0.0339(5) Uani 1 1 d . . .
O11 O -0.25735(19) 0.57430(8) 0.43595(15) 0.0325(5) Uani 1 1 d . . .
O12 O -0.13210(19) 0.61172(7) 0.53194(13) 0.0272(4) Uani 1 1 d . . .
N1 N 0.2451(2) 0.67152(9) 0.28958(17) 0.0267(5) Uani 1 1 d . . .
N2 N 0.8090(2) 0.60563(9) 0.12562(18) 0.0315(6) Uani 1 1 d . . .
N3 N 0.9355(2) 0.38495(9) 0.23689(18) 0.0303(5) Uani 1 1 d . . .
N4 N 0.3717(2) 0.33628(9) 0.41525(17) 0.0280(5) Uani 1 1 d . . .
C1 C 0.3444(3) 0.66860(11) 0.3438(2) 0.0287(6) Uani 1 1 d . . .
H1A H 0.3372 0.6746 0.4067 0.034 Uiso 1 1 calc R . .
C2 C 0.4553(3) 0.65729(11) 0.3120(2) 0.0292(6) Uani 1 1 d . . .
H2A H 0.5228 0.6556 0.3527 0.035 Uiso 1 1 calc R . .
C3 C 0.4696(3) 0.64827(10) 0.2208(2) 0.0265(6) Uani 1 1 d . . .
C4 C 0.3683(3) 0.65369(12) 0.1642(2) 0.0335(7) Uani 1 1 d . . .
H4A H 0.3743 0.6497 0.1006 0.040 Uiso 1 1 calc R . .
C5 C 0.2589(3) 0.66486(12) 0.2009(2) 0.0332(7) Uani 1 1 d . . .
H5A H 0.1906 0.6679 0.1613 0.040 Uiso 1 1 calc R . .
C6 C 0.5880(3) 0.63339(10) 0.1865(2) 0.0273(6) Uani 1 1 d . . .
C7 C 0.6193(3) 0.64029(12) 0.0968(2) 0.0321(7) Uani 1 1 d . . .
H7A H 0.5644 0.6547 0.0555 0.039 Uiso 1 1 calc R . .
C8 C 0.7302(3) 0.62610(12) 0.0684(2) 0.0347(7) Uani 1 1 d . . .
H8A H 0.7512 0.6309 0.0072 0.042 Uiso 1 1 calc R . .
C9 C 0.7816(3) 0.59893(11) 0.2129(2) 0.0314(6) Uani 1 1 d . . .
H9A H 0.8387 0.5849 0.2531 0.038 Uiso 1 1 calc R . .
C10 C 0.6721(3) 0.61212(11) 0.2442(2) 0.0293(6) Uani 1 1 d . . .
H10A H 0.6533 0.6067 0.3056 0.035 Uiso 1 1 calc R . .
C11 C 0.9313(3) 0.59219(12) 0.0949(3) 0.0405(8) Uani 1 1 d . . .
H11A H 0.9919 0.6132 0.1228 0.049 Uiso 1 1 calc R . .
H11B H 0.9343 0.5959 0.0284 0.049 Uiso 1 1 calc R . .
C12 C 0.9628(3) 0.54331(12) 0.1196(2) 0.0346(7) Uani 1 1 d . . .
C13 C 1.0576(3) 0.53403(13) 0.1790(2) 0.0422(8) Uani 1 1 d . . .
H13A H 1.1037 0.5587 0.2039 0.051 Uiso 1 1 calc R . .
C14 C 1.0864(3) 0.48880(13) 0.2027(2) 0.0420(8) Uani 1 1 d . . .
H14A H 1.1513 0.4828 0.2442 0.050 Uiso 1 1 calc R . .
C15 C 1.0203(3) 0.45266(12) 0.1658(2) 0.0339(7) Uani 1 1 d . . .
C16 C 0.9272(3) 0.46203(13) 0.1039(2) 0.0391(7) Uani 1 1 d . . .
H16A H 0.8832 0.4373 0.0770 0.047 Uiso 1 1 calc R . .
C17 C 0.8982(3) 0.50693(13) 0.0812(3) 0.0409(8) Uani 1 1 d . . .
H17A H 0.8338 0.5129 0.0393 0.049 Uiso 1 1 calc R . .
C18 C 1.0460(3) 0.40307(12) 0.1948(2) 0.0362(7) Uani 1 1 d . . .
H18A H 1.0664 0.3841 0.1416 0.043 Uiso 1 1 calc R . .
H18B H 1.1146 0.4021 0.2388 0.043 Uiso 1 1 calc R . .
C19 C 0.8525(3) 0.36308(11) 0.1853(2) 0.0342(7) Uani 1 1 d . . .
H19A H 0.8695 0.3555 0.1244 0.041 Uiso 1 1 calc R . .
C20 C 0.7434(3) 0.35161(11) 0.2199(2) 0.0322(6) Uani 1 1 d . . .
H20A H 0.6849 0.3362 0.1829 0.039 Uiso 1 1 calc R . .
C21 C 0.7181(3) 0.36249(11) 0.3086(2) 0.0279(6) Uani 1 1 d . . .
C22 C 0.8083(3) 0.38320(12) 0.3618(2) 0.0322(7) Uani 1 1 d . . .
H22A H 0.7953 0.3896 0.4239 0.039 Uiso 1 1 calc R . .
C23 C 0.9157(3) 0.39432(12) 0.3243(2) 0.0338(7) Uani 1 1 d . . .
H23A H 0.9768 0.4088 0.3604 0.041 Uiso 1 1 calc R . .
C24 C 0.5982(3) 0.35271(11) 0.3462(2) 0.0281(6) Uani 1 1 d . . .
C25 C 0.5201(3) 0.32083(12) 0.3064(2) 0.0317(7) Uani 1 1 d . . .
H25A H 0.5429 0.3043 0.2541 0.038 Uiso 1 1 calc R . .
C26 C 0.4088(3) 0.31330(11) 0.3435(2) 0.0318(6) Uani 1 1 d . . .
H26A H 0.3570 0.2908 0.3166 0.038 Uiso 1 1 calc R . .
C27 C 0.4468(3) 0.36819(13) 0.4532(2) 0.0364(7) Uani 1 1 d . . .
H27A H 0.4204 0.3853 0.5038 0.044 Uiso 1 1 calc R . .
C28 C 0.5595(3) 0.37670(13) 0.4210(2) 0.0381(7) Uani 1 1 d . . .
H28A H 0.6104 0.3989 0.4499 0.046 Uiso 1 1 calc R . .
C29 C 0.1389(2) 0.72864(10) 0.50058(19) 0.0250(6) Uani 1 1 d . . .
C30 C 0.1557(3) 0.74067(10) 0.59935(18) 0.0237(5) Uani 1 1 d . . .
C31 C 0.2649(3) 0.76069(10) 0.62541(19) 0.0244(6) Uani 1 1 d . . .
H31A H 0.3227 0.7667 0.5807 0.029 Uiso 1 1 calc R . .
C32 C 0.2918(3) 0.77218(10) 0.71542(19) 0.0236(5) Uani 1 1 d . . .
C33 C 0.2058(2) 0.76334(9) 0.78045(18) 0.0225(5) Uani 1 1 d . . .
C34 C 0.0962(2) 0.74317(10) 0.75456(19) 0.0235(5) Uani 1 1 d . . .
H34A H 0.0386 0.7368 0.7992 0.028 Uiso 1 1 calc R . .
C35 C 0.0698(2) 0.73215(9) 0.66455(18) 0.0222(5) Uani 1 1 d . . .
C36 C 0.4131(3) 0.79302(10) 0.73834(19) 0.0245(6) Uani 1 1 d . . .
C37 C 0.2222(2) 0.77571(10) 0.87932(18) 0.0236(6) Uani 1 1 d . . .
C38 C -0.0514(2) 0.71119(9) 0.64178(19) 0.0224(5) Uani 1 1 d . . .
C39 C 0.0923(3) 0.58184(10) 0.40998(19) 0.0255(6) Uani 1 1 d . . .
C40 C 0.0411(3) 0.53995(10) 0.45636(19) 0.0251(6) Uani 1 1 d . . .
C41 C -0.0773(3) 0.53764(10) 0.48645(19) 0.0247(6) Uani 1 1 d . . .
C42 C -0.1630(3) 0.57769(10) 0.48175(19) 0.0261(6) Uani 1 1 d . . .
C43 C 0.1166(3) 0.50223(10) 0.47113(19) 0.0260(6) Uani 1 1 d . . .
H43A H 0.1972 0.5038 0.4517 0.031 Uiso 1 1 calc R . .
O1W O 0.5478(3) 0.81936(11) 0.4969(2) 0.0628(9) Uani 1 1 d D . .
H1B H 0.597(4) 0.7998(15) 0.481(3) 0.094 Uiso 1 1 d D . .
H1C H 0.516(5) 0.8141(18) 0.546(2) 0.094 Uiso 1 1 d D . .
O2W O 0.5756(2) 0.31206(9) 0.05589(17) 0.0398(5) Uani 1 1 d D . .
H2C H 0.6383(19) 0.2979(12) 0.046(3) 0.060 Uiso 1 1 d D . .
H2B H 0.515(2) 0.2955(11) 0.057(3) 0.060 Uiso 1 1 d D . .
O3W O 0.3642(4) 0.54310(17) 0.2998(3) 0.0910(12) Uani 1 1 d D . .
H3A H 0.416(5) 0.539(3) 0.341(3) 0.137 Uiso 1 1 d D . .
H3B H 0.307(5) 0.559(2) 0.317(4) 0.137 Uiso 1 1 d D . .
O4W O 0.2490(3) 0.32943(10) 0.1458(2) 0.0424(10) Uani 0.868(9) 1 d PU . .
O4B O 0.160(2) 0.3115(9) 0.1156(14) 0.058(8) Uani 0.132(9) 1 d PU . .
O5W O 0.5639(6) 0.5070(2) 0.4057(5) 0.137(3) Uani 0.879(11) 1 d PU . .
O5B O 0.448(4) 0.496(2) 0.423(4) 0.150(16) Uani 0.121(11) 1 d PU . .
O6W O 0.4245(14) 0.5385(3) 0.1177(7) 0.134(5) Uani 0.541(7) 1 d PU . .
O6B O 0.3641(12) 0.5188(9) 0.1193(13) 0.206(9) Uani 0.459(7) 1 d PU . .
O7W O 0.3547(8) 0.4590(2) 0.0295(6) 0.102(3) Uani 0.541(7) 1 d PU . .
O7B O 0.3918(8) 0.4919(5) -0.0989(10) 0.122(5) Uani 0.459(7) 1 d PU . .
O8W O 0.6586(9) 0.4100(4) 0.0368(7) 0.104(3) Uani 0.541(7) 1 d PU . .
O8B O 0.564(2) 0.4135(10) 0.0577(19) 0.248(11) Uani 0.459(7) 1 d PU . .
O9W O 0.5908(8) 0.4544(3) 0.2379(9) 0.118(4) Uani 0.60 1 d PU . .
O9C O 0.606(4) 0.486(2) 0.182(2) 0.19(2) Uani 0.20 1 d P . .
O9B O 0.672(3) 0.4915(10) 0.351(2) 0.138(10) Uani 0.20 1 d PU . .
O10W O 0.4477(8) 0.3874(3) 0.1367(5) 0.082(2) Uani 0.541(7) 1 d PU . .
O10B O 0.3534(10) 0.4143(4) 0.1727(10) 0.123(5) Uani 0.459(7) 1 d PU . .
O11W O 0.319(3) 0.4367(13) 0.313(3) 0.23(2) Uani 0.25 1 d P . .

loop_
_atom_site_aniso_label
_atom_site_aniso_U_11
_atom_site_aniso_U_22
_atom_site_aniso_U_33
_atom_site_aniso_U_23
_atom_site_aniso_U_13
_atom_site_aniso_U_12
Zn1 0.01762(19) 0.0235(2) 0.01953(18) 0.00125(13) -0.00151(13) 0.00054(13)
Zn2 0.01643(19) 0.0244(2) 0.02120(19) 0.00282(13) -0.00206(14) -0.00150(13)
O1 0.0259(10) 0.0337(11) 0.0229(9) -0.0030(8) -0.0053(8) 0.0013(9)
O2 0.0396(12) 0.0389(12) 0.0262(10) 0.0059(9) -0.0035(9) -0.0130(10)
O3 0.0279(11) 0.0454(13) 0.0288(11) 0.0030(10) -0.0018(9) -0.0133(10)
O4 0.0213(9) 0.0276(10) 0.0275(10) 0.0001(8) -0.0041(8) -0.0042(8)
O5 0.0261(10) 0.0278(10) 0.0254(10) -0.0053(8) -0.0069(8) 0.0029(8)
O6 0.0340(11) 0.0363(12) 0.0245(10) 0.0041(9) -0.0030(8) -0.0100(9)
O7 0.0250(10) 0.0369(12) 0.0255(10) 0.0006(9) 0.0011(8) -0.0076(9)
O8 0.0228(9) 0.0281(10) 0.0251(9) 0.0024(8) -0.0068(8) -0.0043(8)
O9 0.0258(10) 0.0240(10) 0.0274(10) 0.0046(8) -0.0044(8) -0.0009(8)
O10 0.0264(11) 0.0320(11) 0.0433(12) 0.0083(9) -0.0028(9) -0.0014(9)
O11 0.0301(11) 0.0307(11) 0.0362(11) 0.0034(9) -0.0113(9) 0.0001(9)
O12 0.0290(10) 0.0265(10) 0.0260(10) 0.0003(8) -0.0039(8) 0.0042(8)
N1 0.0231(12) 0.0317(13) 0.0254(12) 0.0017(10) 0.0028(9) -0.0010(10)
N2 0.0320(14) 0.0302(13) 0.0326(13) 0.0021(11) 0.0088(11) 0.0052(11)
N3 0.0240(12) 0.0315(13) 0.0355(13) 0.0074(11) 0.0043(10) 0.0041(10)
N4 0.0225(12) 0.0350(13) 0.0264(12) 0.0033(10) 0.0009(10) -0.0015(10)
C1 0.0251(14) 0.0356(16) 0.0253(14) -0.0032(12) -0.0014(11) -0.0033(12)
C2 0.0221(14) 0.0358(16) 0.0292(14) -0.0021(12) -0.0045(11) -0.0011(12)
C3 0.0235(14) 0.0277(14) 0.0281(14) 0.0013(11) -0.0007(11) -0.0024(11)
C4 0.0280(15) 0.0469(19) 0.0256(14) 0.0059(13) 0.0000(12) 0.0055(14)
C5 0.0264(15) 0.0461(19) 0.0269(15) 0.0063(13) -0.0021(12) 0.0037(13)
C6 0.0257(14) 0.0280(14) 0.0281(14) -0.0013(11) 0.0000(11) -0.0007(11)
C7 0.0344(16) 0.0369(17) 0.0250(14) 0.0015(12) 0.0000(12) 0.0050(13)
C8 0.0425(18) 0.0360(17) 0.0260(14) 0.0036(13) 0.0068(13) 0.0054(14)
C9 0.0316(16) 0.0331(16) 0.0295(15) 0.0014(12) -0.0005(12) 0.0048(13)
C10 0.0295(15) 0.0320(15) 0.0261(14) 0.0002(12) -0.0011(11) 0.0020(12)
C11 0.0348(18) 0.0379(18) 0.050(2) 0.0061(15) 0.0151(15) 0.0061(14)
C12 0.0350(17) 0.0343(17) 0.0352(16) 0.0003(13) 0.0134(13) 0.0047(13)
C13 0.048(2) 0.0392(19) 0.0397(18) -0.0061(15) -0.0015(15) -0.0006(16)
C14 0.0412(19) 0.045(2) 0.0399(18) 0.0017(15) -0.0043(15) 0.0023(16)
C15 0.0312(16) 0.0351(17) 0.0357(16) 0.0036(13) 0.0095(13) 0.0042(13)
C16 0.0361(18) 0.0366(18) 0.0445(19) 0.0047(15) 0.0016(14) -0.0021(14)
C17 0.0318(17) 0.0424(19) 0.049(2) 0.0074(16) 0.0009(15) 0.0016(14)
C18 0.0288(16) 0.0388(18) 0.0414(18) 0.0083(14) 0.0098(13) 0.0038(13)
C19 0.0380(17) 0.0317(16) 0.0332(16) 0.0003(13) 0.0072(13) 0.0027(13)
C20 0.0317(16) 0.0332(16) 0.0319(15) -0.0018(13) 0.0032(12) -0.0018(13)
C21 0.0249(14) 0.0306(15) 0.0282(14) 0.0020(12) 0.0012(11) 0.0016(12)
C22 0.0266(15) 0.0440(18) 0.0258(14) 0.0044(13) 0.0000(11) -0.0001(13)
C23 0.0231(14) 0.0444(18) 0.0338(16) 0.0053(14) -0.0019(12) -0.0015(13)
C24 0.0240(14) 0.0307(15) 0.0295(14) 0.0017(12) 0.0003(11) 0.0001(12)
C25 0.0288(16) 0.0377(17) 0.0286(15) -0.0047(13) 0.0005(12) 0.0003(13)
C26 0.0258(15) 0.0334(16) 0.0362(16) -0.0037(13) -0.0025(12) -0.0041(12)
C27 0.0303(16) 0.046(2) 0.0328(16) -0.0100(14) 0.0037(13) -0.0058(14)
C28 0.0292(16) 0.0457(19) 0.0394(17) -0.0090(15) 0.0037(13) -0.0097(14)
C29 0.0179(13) 0.0332(15) 0.0240(13) -0.0003(11) 0.0009(10) -0.0043(11)
C30 0.0238(14) 0.0237(13) 0.0235(13) -0.0006(10) -0.0016(10) -0.0018(11)
C31 