####################################################################### 
# 
# This file contains crystal structure data downloaded from the 
# Cambridge Structural Database (CSD) hosted by the Cambridge 
# Crystallographic Data Centre (CCDC).
# 
# Full information about CCDC data access policies and citation 
# guidelines are available at http://www.ccdc.cam.ac.uk/access/V1 
# 
# Audit and citation data items may have been added by the CCDC. 
# Please retain this information to preserve the provenance of 
# this file and to allow appropriate attribution of the data. 
# 
#######################################################################

data_Zn
_audit_block_doi                 10.5517/cc12w47b
_database_code_depnum_ccdc_archive 'CCDC 1009181'
loop_
_citation_id
_citation_doi
_citation_year
1 10.1080/00958972.2014.981168 2015
_audit_update_record             
;
2014-06-19 deposited with the CCDC.	2024-07-10 downloaded from the CCDC.
;

_audit_creation_method           SHELXL-2013
_chemical_name_systematic        
;
 ?
;
_chemical_name_common            ?
_chemical_melting_point          ?
_chemical_formula_moiety         'C31 H24 N O7 Zn, C4 H9 N O, C2 H8 N'
_chemical_formula_sum            'C37 H41 N3 O8 Zn'
_chemical_formula_weight         721.10

loop_
_atom_type_symbol
_atom_type_description
_atom_type_scat_dispersion_real
_atom_type_scat_dispersion_imag
_atom_type_scat_source
C C 0.0033 0.0016 'International Tables Vol C Tables 4.2.6.8 and 6.1.1.4'
H H 0.0000 0.0000 'International Tables Vol C Tables 4.2.6.8 and 6.1.1.4'
N N 0.0061 0.0033 'International Tables Vol C Tables 4.2.6.8 and 6.1.1.4'
O O 0.0106 0.0060 'International Tables Vol C Tables 4.2.6.8 and 6.1.1.4'
Zn Zn 0.2839 1.4301 'International Tables Vol C Tables 4.2.6.8 and 6.1.1.4'

_space_group_crystal_system      monoclinic
_space_group_IT_number           14
_space_group_name_H-M_alt        'P 21/n'
_space_group_name_Hall           '-P 2yn'

_shelx_space_group_comment       
;
The symmetry employed for this shelxl refinement is uniquely defined
by the following loop, which should always be used as a source of
symmetry information in preference to the above space-group names.
They are only intended as comments.
;

loop_
_space_group_symop_operation_xyz
'x, y, z'
'-x+1/2, y+1/2, -z+1/2'
'-x, -y, -z'
'x-1/2, -y-1/2, z-1/2'

_cell_length_a                   14.3200(13)
_cell_length_b                   8.7789(8)
_cell_length_c                   27.653(3)
_cell_angle_alpha                90
_cell_angle_beta                 90.3054(13)
_cell_angle_gamma                90
_cell_volume                     3476.3(5)
_cell_formula_units_Z            4
_cell_measurement_temperature    100(2)
_cell_measurement_reflns_used    9883
_cell_measurement_theta_min      2.4341
_cell_measurement_theta_max      31.3661

_exptl_crystal_description       plate
_exptl_crystal_colour            colourless
_exptl_crystal_density_meas      ?
_exptl_crystal_density_method    ?
_exptl_crystal_density_diffrn    1.378
_exptl_crystal_F_000             1512
_exptl_transmission_factor_min   ?
_exptl_transmission_factor_max   ?
_exptl_crystal_size_max          0.250
_exptl_crystal_size_mid          0.220
_exptl_crystal_size_min          0.050
_exptl_absorpt_coefficient_mu    0.763
_shelx_estimated_absorpt_T_min   0.832
_shelx_estimated_absorpt_T_max   0.963
_exptl_absorpt_correction_type   multi-scan
_exptl_absorpt_correction_T_min  0.5979
_exptl_absorpt_correction_T_max  0.7462
_exptl_absorpt_process_details   'Apex2 v2013.4-1 (Bruker, 2013)'

_exptl_special_details           
;
One DMA molecule is disordered over two mutually exclusive positions. The 
two moieties were restrained to have a geometry close to that of another 
not disordered DMA molecules (SAME command in Shelxl) and overlapping C atoms 
C34 and C34B were constrained to have identical ADPs. Subject to these 
conditions, the occupancy ratio refined to 0.580(5) to 0.420(5). 

Reflections 1 0 1, 0 0 2, -1 0 1 and 1 0 3 were affected by the beam stop 
and were omitted from the refinement. 
;

_diffrn_ambient_temperature      100(2)
_diffrn_radiation_wavelength     0.71073
_diffrn_radiation_type           MoK\a
_diffrn_source                   'fine focus sealed tube'
_diffrn_radiation_monochromator  graphite
_diffrn_measurement_device_type  'Bruker AXS APEXII CCD diffractometer'
_diffrn_measurement_method       'omega and phi scans'
_diffrn_detector_area_resol_mean ?
_diffrn_reflns_number            39504
_diffrn_reflns_av_unetI/netI     0.0388
_diffrn_reflns_av_R_equivalents  0.0380
_diffrn_reflns_limit_h_min       -21
_diffrn_reflns_limit_h_max       20
_diffrn_reflns_limit_k_min       -12
_diffrn_reflns_limit_k_max       12
_diffrn_reflns_limit_l_min       -39
_diffrn_reflns_limit_l_max       39
_diffrn_reflns_theta_min         2.434
_diffrn_reflns_theta_max         31.495
_diffrn_reflns_theta_full        25.242
_diffrn_measured_fraction_theta_max 0.939
_diffrn_measured_fraction_theta_full 0.999
_diffrn_reflns_Laue_measured_fraction_max 0.939
_diffrn_reflns_Laue_measured_fraction_full 0.999
_diffrn_reflns_point_group_measured_fraction_max 0.939
_diffrn_reflns_point_group_measured_fraction_full 0.999
_reflns_number_total             10836
_reflns_number_gt                8876
_reflns_threshold_expression     'I > 2\s(I)'
_reflns_Friedel_coverage         0.000
_reflns_Friedel_fraction_max     .
_reflns_Friedel_fraction_full    .

_reflns_special_details          
;
 Reflections were merged by SHELXL according to the crystal
 class for the calculation of statistics and refinement.
 
 _reflns_Friedel_fraction is defined as the number of unique
 Friedel pairs measured divided by the number that would be
 possible theoretically, ignoring centric projections and
 systematic absences.
;

_computing_data_collection       'Apex2 v2013.4-1 (Bruker, 2013)'
_computing_cell_refinement       'SAINT V8.30C (Bruker, 2013)'
_computing_data_reduction        'SAINT V8.30C (Bruker, 2013)'
_computing_structure_solution    'SHELXS-97 (Sheldrick, 2008)'
_computing_structure_refinement  
;  
SHELXL-2013 (Sheldrick, 2013), 
SHELXLE Rev645 (H\"ubschle et al., 2011)
;
_computing_molecular_graphics    'Shelxtl (Bruker, 2003)'
_computing_publication_material  'Shelxtl (Bruker, 2003)'

_refine_special_details          
;
 ?
;
_refine_ls_structure_factor_coef Fsqd
_refine_ls_matrix_type           full
_refine_ls_weighting_scheme      calc
_refine_ls_weighting_details     
'w=1/[\s^2^(Fo^2^)+(0.0524P)^2^+1.0002P] where P=(Fo^2^+2Fc^2^)/3'
_atom_sites_solution_primary     direct
_atom_sites_solution_secondary   difmap
_atom_sites_solution_hydrogens   geom
_refine_ls_hydrogen_treatment    constr
_refine_ls_extinction_method     none
_refine_ls_extinction_coef       .
_refine_ls_number_reflns         10836
_refine_ls_number_parameters     502
_refine_ls_number_restraints     33
_refine_ls_R_factor_all          0.0506
_refine_ls_R_factor_gt           0.0377
_refine_ls_wR_factor_ref         0.0962
_refine_ls_wR_factor_gt          0.0903
_refine_ls_goodness_of_fit_ref   1.024
_refine_ls_restrained_S_all      1.023
_refine_ls_shift/su_max          0.001
_refine_ls_shift/su_mean         0.000

loop_
_atom_site_label
_atom_site_type_symbol
_atom_site_fract_x
_atom_site_fract_y
_atom_site_fract_z
_atom_site_U_iso_or_equiv
_atom_site_adp_type
_atom_site_occupancy
_atom_site_site_symmetry_order
_atom_site_calc_flag
_atom_site_refinement_flags_posn
_atom_site_refinement_flags_adp
_atom_site_refinement_flags_occupancy
_atom_site_disorder_assembly
_atom_site_disorder_group
C1 C 0.46896(9) 0.35448(15) 0.43669(5) 0.0110(2) Uani 1 1 d . . . . .
C2 C 0.38633(9) 0.38500(15) 0.46145(5) 0.0116(2) Uani 1 1 d . . . . .
H2 H 0.3365 0.4340 0.4448 0.014 Uiso 1 1 calc R U . . .
C3 C 0.37501(9) 0.34551(15) 0.50985(5) 0.0112(2) Uani 1 1 d . . . . .
C4 C 0.44734(10) 0.26924(16) 0.53370(5) 0.0117(2) Uani 1 1 d . . . . .
H4 H 0.4401 0.2406 0.5666 0.014 Uiso 1 1 calc R U . . .
C5 C 0.53048(9) 0.23445(15) 0.50967(5) 0.0106(2) Uani 1 1 d . . . . .
C6 C 0.54070(9) 0.27843(15) 0.46139(5) 0.0110(2) Uani 1 1 d . . . . .
H6 H 0.5973 0.2563 0.4451 0.013 Uiso 1 1 calc R U . . .
C7 C 0.49671(10) 0.55610(16) 0.23706(5) 0.0139(3) Uani 1 1 d . . . . .
C8 C 0.49301(9) 0.50706(16) 0.28947(5) 0.0119(2) Uani 1 1 d . . . . .
C9 C 0.43724(10) 0.58516(16) 0.32238(5) 0.0142(3) Uani 1 1 d . . . . .
H9 H 0.4033 0.6725 0.3122 0.017 Uiso 1 1 calc R U . . .
C10 C 0.43111(10) 0.53593(16) 0.36990(5) 0.0145(3) Uani 1 1 d . . . . .
H10 H 0.3937 0.5914 0.3921 0.017 Uiso 1 1 calc R U . . .
C11 C 0.47900(9) 0.40584(16) 0.38593(5) 0.0109(2) Uani 1 1 d . . . . .
C12 C 0.53680(10) 0.33096(16) 0.35295(5) 0.0137(3) Uani 1 1 d . . . . .
H12 H 0.5716 0.2444 0.3631 0.016 Uiso 1 1 calc R U . . .
C13 C 0.54380(10) 0.38189(16) 0.30550(5) 0.0148(3) Uani 1 1 d . . . . .
H13 H 0.5839 0.3303 0.2837 0.018 Uiso 1 1 calc R U . . .
C14 C 0.04429(10) 0.60724(16) 0.59725(5) 0.0143(3) Uani 1 1 d . . . . .
C15 C 0.13065(9) 0.53707(16) 0.57589(5) 0.0125(3) Uani 1 1 d . . . . .
C16 C 0.12532(10) 0.46806(17) 0.53046(5) 0.0148(3) Uani 1 1 d . . . . .
H16 H 0.0675 0.4672 0.5134 0.018 Uiso 1 1 calc R U . . .
C17 C 0.20331(10) 0.40068(16) 0.50987(5) 0.0139(3) Uani 1 1 d . . . . .
H17 H 0.1985 0.3554 0.4788 0.017 Uiso 1 1 calc R U . . .
C18 C 0.28902(9) 0.39879(15) 0.53457(5) 0.0111(2) Uani 1 1 d . . . . .
C19 C 0.29330(9) 0.46322(16) 0.58076(5) 0.0123(2) Uani 1 1 d . . . . .
H19 H 0.3501 0.4588 0.5986 0.015 Uiso 1 1 calc R U . . .
C20 C 0.21559(10) 0.53391(16) 0.60101(5) 0.0127(3) Uani 1 1 d . . . . .
H20 H 0.2204 0.5801 0.6320 0.015 Uiso 1 1 calc R U . . .
C21 C 0.83885(10) -0.07291(16) 0.60603(5) 0.0137(3) Uani 1 1 d . . . . .
C22 C 0.75793(9) 0.00492(15) 0.58122(5) 0.0118(2) Uani 1 1 d . . . . .
C23 C 0.66585(10) -0.03464(16) 0.59152(5) 0.0131(3) Uani 1 1 d . . . . .
H23 H 0.6533 -0.1134 0.6141 0.016 Uiso 1 1 calc R U . . .
C24 C 0.59211(9) 0.04085(16) 0.56877(5) 0.0125(3) Uani 1 1 d . . . . .
H24 H 0.5297 0.0138 0.5764 0.015 Uiso 1 1 calc R U . . .
C25 C 0.60877(9) 0.15576(15) 0.53496(5) 0.0108(2) Uani 1 1 d . . . . .
C26 C 0.70173(10) 0.19588(16) 0.52514(5) 0.0127(3) Uani 1 1 d . . . . .
H26 H 0.7145 0.2747 0.5026 0.015 Uiso 1 1 calc R U . . .
C27 C 0.77498(10) 0.12146(16) 0.54811(5) 0.0131(3) Uani 1 1 d . . . . .
H27 H 0.8375 0.1502 0.5412 0.016 Uiso 1 1 calc R U . . .
O7 O 0.38450(7) 0.95953(12) 0.19828(4) 0.0176(2) Uani 1 1 d D . . . .
C28 C 0.34863(10) 1.08500(17) 0.18744(5) 0.0156(3) Uani 1 1 d D . . . .
C29 C 0.33213(13) 1.1291(2) 0.13581(6) 0.0282(4) Uani 1 1 d D . . . .
H29A H 0.3512 1.0453 0.1146 0.042 Uiso 1 1 calc R U . . .
H29B H 0.3688 1.2202 0.1282 0.042 Uiso 1 1 calc R U . . .
H29C H 0.2656 1.1506 0.1308 0.042 Uiso 1 1 calc R U . . .
N1 N 0.32544(9) 1.18334(15) 0.22215(5) 0.0189(3) Uani 1 1 d D . . . .
C30 C 0.28283(14) 1.3319(2) 0.21333(7) 0.0318(4) Uani 1 1 d D . . . .
H30A H 0.2618 1.3379 0.1796 0.048 Uiso 1 1 calc R U . . .
H30B H 0.3288 1.4123 0.2196 0.048 Uiso 1 1 calc R U . . .
H30C H 0.2293 1.3453 0.2348 0.048 Uiso 1 1 calc R U . . .
C31 C 0.34237(12) 1.15007(18) 0.27317(6) 0.0224(3) Uani 1 1 d D . . . .
H31A H 0.3737 1.0512 0.2762 0.034 Uiso 1 1 calc R U . . .
H31B H 0.2827 1.1470 0.2903 0.034 Uiso 1 1 calc R U . . .
H31C H 0.3821 1.2297 0.2872 0.034 Uiso 1 1 calc R U . . .
O8 O 0.7754(11) 0.559(3) 0.1551(4) 0.0302(19) Uani 0.580(5) 1 d D . P A 1
C32 C 0.78687(19) 0.5834(3) 0.19936(10) 0.0191(7) Uani 0.580(5) 1 d D . P A 1
C33 C 0.7240(3) 0.6883(4) 0.22764(14) 0.0259(7) Uani 0.580(5) 1 d D . P A 1
H33A H 0.6728 0.7235 0.2068 0.039 Uiso 0.580(5) 1 calc R U P A 1
H33B H 0.7600 0.7762 0.2391 0.039 Uiso 0.580(5) 1 calc R U P A 1
H33C H 0.6982 0.6333 0.2554 0.039 Uiso 0.580(5) 1 calc R U P A 1
N2 N 0.8613(2) 0.5227(3) 0.22184(11) 0.0207(7) Uani 0.580(5) 1 d D . P A 1
C34 C 0.8886(11) 0.553(2) 0.2715(4) 0.0361(10) Uani 0.580(5) 1 d D . P A 1
H34A H 0.9483 0.6072 0.2721 0.054 Uiso 0.580(5) 1 calc R U P A 1
H34B H 0.8954 0.4558 0.2889 0.054 Uiso 0.580(5) 1 calc R U P A 1
H34C H 0.8407 0.6147 0.2872 0.054 Uiso 0.580(5) 1 calc R U P A 1
C35 C 0.9232(4) 0.4224(7) 0.1939(2) 0.0310(11) Uani 0.580(5) 1 d D . P A 1
H35A H 0.8856 0.3587 0.1721 0.046 Uiso 0.580(5) 1 calc R U P A 1
H35B H 0.9588 0.3572 0.2161 0.046 Uiso 0.580(5) 1 calc R U P A 1
H35C H 0.9664 0.4844 0.1748 0.046 Uiso 0.580(5) 1 calc R U P A 1
O8B O 0.7674(15) 0.538(3) 0.1599(6) 0.033(3) Uani 0.420(5) 1 d D . P A 2
C32B C 0.8332(3) 0.5139(4) 0.18914(14) 0.0206(10) Uani 0.420(5) 1 d D . P A 2
C33B C 0.9126(7) 0.4101(12) 0.1764(3) 0.039(2) Uani 0.420(5) 1 d D . P A 2
H33D H 0.9047 0.3739 0.1431 0.059 Uiso 0.420(5) 1 calc R U P A 2
H33E H 0.9133 0.3229 0.1985 0.059 Uiso 0.420(5) 1 calc R U P A 2
H33F H 0.9717 0.4658 0.1793 0.059 Uiso 0.420(5) 1 calc R U P A 2
N2B N 0.8277(3) 0.5691(4) 0.23401(13) 0.0190(9) Uani 0.420(5) 1 d D . P A 2
C34B C 0.8986(16) 0.553(3) 0.2713(6) 0.0361(10) Uani 0.420(5) 1 d D . P A 2
H34D H 0.9468 0.4823 0.2604 0.054 Uiso 0.420(5) 1 calc R U P A 2
H34E H 0.8700 0.5145 0.3010 0.054 Uiso 0.420(5) 1 calc R U P A 2
H34F H 0.9270 0.6531 0.2778 0.054 Uiso 0.420(5) 1 calc R U P A 2
C35B C 0.7499(4) 0.6663(6) 0.2484(3) 0.0352(13) Uani 0.420(5) 1 d D . P A 2
H35D H 0.7062 0.6773 0.2213 0.053 Uiso 0.420(5) 1 calc R U P A 2
H35E H 0.7737 0.7667 0.2578 0.053 Uiso 0.420(5) 1 calc R U P A 2
H35F H 0.7176 0.6199 0.2759 0.053 Uiso 0.420(5) 1 calc R U P A 2
C36 C 0.60232(14) 0.3212(2) 0.11548(6) 0.0282(4) Uani 1 1 d . . . . .
H36A H 0.5582 0.2792 0.0918 0.042 Uiso 1 1 calc R U . . .
H36B H 0.5811 0.2967 0.1482 0.042 Uiso 1 1 calc R U . . .
H36C H 0.6643 0.2769 0.1103 0.042 Uiso 1 1 calc R U . . .
C37 C 0.63807(16) 0.5330(2) 0.06102(6) 0.0346(4) Uani 1 1 d . . . . .
H37A H 0.5932 0.4953 0.0370 0.052 Uiso 1 1 calc R U . . .
H37B H 0.6997 0.4891 0.0546 0.052 Uiso 1 1 calc R U . . .
H37C H 0.6417 0.6443 0.0590 0.052 Uiso 1 1 calc R U . . .
N3 N 0.60738(8) 0.48831(14) 0.10971(4) 0.0150(2) Uani 1 1 d . . . . .
H3A H 0.5451 0.5328 0.1160 0.018 Uiso 1 1 calc R U . . .
H3B H 0.6515 0.5303 0.1340 0.018 Uiso 1 1 calc R U . . .
O1 O 0.44770(8) 0.67428(13) 0.22725(4) 0.0192(2) Uani 1 1 d . . . . .
O2 O 0.54327(9) 0.48226(14) 0.20809(4) 0.0270(3) Uani 1 1 d . . . . .
O3 O -0.03153(8) 0.59222(15) 0.57642(4) 0.0265(3) Uani 1 1 d . . . . .
O4 O 0.05439(7) 0.67992(12) 0.63764(4) 0.0151(2) Uani 1 1 d . . . . .
O5 O 0.81924(7) -0.18605(13) 0.63337(4) 0.0166(2) Uani 1 1 d . . . . .
O6 O 0.91883(7) -0.02321(14) 0.59958(4) 0.0242(2) Uani 1 1 d . . . . .
Zn1 Zn 0.43119(2) 0.77056(2) 0.16406(2) 0.01007(5) Uani 1 1 d . . . . .

loop_
_atom_site_aniso_label
_atom_site_aniso_U_11
_atom_site_aniso_U_22
_atom_site_aniso_U_33
_atom_site_aniso_U_23
_atom_site_aniso_U_13
_atom_site_aniso_U_12
C1 0.0134(6) 0.0103(6) 0.0093(6) 0.0008(4) 0.0000(5) 0.0005(5)
C2 0.0121(6) 0.0125(6) 0.0102(6) 0.0008(5) -0.0004(5) 0.0020(5)
C3 0.0115(6) 0.0123(6) 0.0099(6) -0.0007(5) 0.0017(5) 0.0008(5)
C4 0.0139(6) 0.0126(6) 0.0086(6) 0.0009(5) -0.0001(5) 0.0010(5)
C5 0.0116(6) 0.0095(6) 0.0106(6) -0.0001(4) -0.0015(5) 0.0003(5)
C6 0.0114(6) 0.0115(6) 0.0102(6) -0.0003(5) 0.0003(5) 0.0013(5)
C7 0.0154(6) 0.0160(6) 0.0103(6) 0.0016(5) 0.0003(5) -0.0032(5)
C8 0.0134(6) 0.0138(6) 0.0084(6) 0.0009(5) 0.0004(5) -0.0017(5)
C9 0.0168(6) 0.0140(6) 0.0119(6) 0.0037(5) 0.0006(5) 0.0041(5)
C10 0.0171(6) 0.0150(6) 0.0115(6) 0.0012(5) 0.0023(5) 0.0051(5)
C11 0.0109(6) 0.0130(6) 0.0089(6) 0.0011(5) -0.0006(5) -0.0003(5)
C12 0.0156(6) 0.0134(6) 0.0120(6) 0.0008(5) -0.0001(5) 0.0034(5)
C13 0.0164(6) 0.0163(7) 0.0116(6) -0.0012(5) 0.0035(5) 0.0025(5)
C14 0.0147(6) 0.0142(6) 0.0141(6) 0.0018(5) 0.0029(5) 0.0030(5)
C15 0.0117(6) 0.0128(6) 0.0130(6) 0.0009(5) 0.0023(5) 0.0012(5)
C16 0.0118(6) 0.0195(7) 0.0131(6) 0.0000(5) -0.0009(5) 0.0029(5)
C17 0.0139(6) 0.0174(7) 0.0105(6) -0.0010(5) -0.0011(5) 0.0024(5)
C18 0.0117(6) 0.0114(6) 0.0102(6) 0.0017(5) 0.0017(5) 0.0015(5)
C19 0.0104(6) 0.0150(6) 0.0116(6) 0.0007(5) 0.0002(5) 0.0004(5)
C20 0.0139(6) 0.0141(6) 0.0100(6) -0.0009(5) 0.0010(5) -0.0002(5)
C21 0.0152(6) 0.0139(6) 0.0119(6) -0.0027(5) -0.0031(5) 0.0045(5)
C22 0.0135(6) 0.0129(6) 0.0089(6) -0.0019(5) -0.0027(5) 0.0029(5)
C23 0.0152(6) 0.0118(6) 0.0123(6) 0.0016(5) -0.0019(5) 0.0012(5)
C24 0.0110(6) 0.0137(6) 0.0129(6) 0.0015(5) -0.0005(5) 0.0004(5)
C25 0.0129(6) 0.0108(6) 0.0086(6) -0.0006(4) -0.0013(5) 0.0022(5)
C26 0.0133(6) 0.0145(6) 0.0104(6) 0.0013(5) 0.0001(5) 0.0011(5)
C27 0.0110(6) 0.0165(6) 0.0118(6) -0.0007(5) 0.0001(5) 0.0007(5)
O7 0.0229(5) 0.0134(5) 0.0164(5) -0.0015(4) 0.0001(4) 0.0030(4)
C28 0.0131(6) 0.0155(7) 0.0181(7) 0.0013(5) 0.0018(5) -0.0010(5)
C29 0.0327(9) 0.0313(9) 0.0206(8) 0.0057(7) -0.0006(7) 0.0098(7)
N1 0.0193(6) 0.0146(6) 0.0227(7) 0.0002(5) 0.0035(5) 0.0022(5)
C30 0.0335(10) 0.0180(8) 0.0440(11) -0.0020(7) -0.0012(8) 0.0087(7)
C31 0.0270(8) 0.0190(7) 0.0213(8) -0.0056(6) 0.0026(6) -0.0042(6)
O8 0.020(3) 0.048(4) 0.022(2) 0.005(2) -0.004(2) -0.013(2)
C32 0.0147(13) 0.0189(14) 0.0238(14) 0.0040(10) -0.0008(11) -0.0031(11)
C33 0.0209(16) 0.0271(17) 0.0297(19) -0.0031(14) -0.0018(14) 0.0043(13)
N2 0.0165(13) 0.0201(13) 0.0254(15) 0.0044(11) -0.0027(11) 0.0014(10)
C34 0.036(3) 0.0489(13) 0.0229(9) 0.0114(9) -0.0060(14) 0.0000(19)
C35 0.0215(18) 0.0183(19) 0.053(4) 0.001(2) 0.001(2) 0.0063(15)
O8B 0.018(3) 0.056(9) 0.026(4) -0.002(4) -0.002(3) -0.010(4)
C32B 0.0157(19) 0.021(2) 0.025(2) -0.0014(15) 0.0046(15) -0.0067(16)
C33B 0.034(4) 0.039(3) 0.046(5) -0.018(4) 0.005(3) 0.002(3)
N2B 0.0169(18) 0.0188(18) 0.0214(18) 0.0011(13) 0.0052(14) 0.0022(14)
C34B 0.036(3) 0.0489(13) 0.0229(9) 0.0114(9) -0.0060(14) 0.0000(19)
C35B 0.022(3) 0.031(3) 0.052(4) -0.006(3) 0.012(2) 0.003(2)
C36 0.0412(10) 0.0172(7) 0.0263(9) 0.0004(6) 0.0098(7) 0.0061(7)
C37 0.0544(12) 0.0265(9) 0.0231(9) 0.0030(7) 0.0159(8) 0.0022(9)
N3 0.0144(6) 0.0163(6) 0.0143(6) -0.0018(4) 0.0014(4) 0.0013(4)
O1 0.0262(6) 0.0194(5) 0.0119(5) 0.0047(4) 0.0017(4) 0.0042(4)
O2 0.0397(7) 0.0289(6) 0.0124(5) 0.0030(4) 0.0093(5) 0.0109(5)
O3 0.0133(5) 0.0402(7) 0.0260(6) -0.0131(5) -0.0011(4) 0.0047(5)
O4 0.0144(5) 0.0187(5) 0.0121(5) -0.0008(4) 0.0024(4) 0.0034(4)
O5 0.0155(5) 0.0200(5) 0.0144(5) 0.0042(4) -0.0003(4) 0.0062(4)
O6 0.0131(5) 0.0248(6) 0.0347(7) 0.0070(5) -0.0063(5) -0.0001(4)
Zn1 0.01046(8) 0.01146(8) 0.00827(8) 0.00004(5) -0.00014(5) -0.00187(6)

_geom_special_details            
;
 All esds (except the esd in the dihedral angle between two l.s. planes)
 are estimated using the full covariance matrix.  The cell esds are taken
 into account individually in the estimation of esds in distances, angles
 and torsion angles; correlations between esds in cell parameters are only
 used when they are defined by crystal symmetry.  An approximate (isotropic)
 treatment of cell esds is used for estimating esds involving l.s. planes.
;

loop_
_geom_bond_atom_site_label_1
_geom_bond_atom_site_label_2
_geom_bond_distance
_geom_bond_site_symmetry_2
_geom_bond_publ_flag
C1 C2 1.3961(19) . ?
C1 C6 1.4002(18) . ?
C1 C11 1.4821(18) . ?
C2 C3 1.3930(18) . ?
C2 H2 0.9500 . ?
C3 C4 1.3961(19) . ?
C3 C18 1.4870(18) . ?
C4 C5 1.4003(19) . ?
C4 H4 0.9500 . ?
C5 C6 1.3983(18) . ?
C5 C25 1.4882(18) . ?
C6 H6 0.9500 . ?
C7 O2 1.2298(18) . ?
C7 O1 1.2808(18) . ?
C7 C8 1.5132(19) . ?
C8 C13 1.3891(19) . ?
C8 C9 1.3943(19) . ?
C9 C10 1.3865(19) . ?
C9 H9 0.9500 . ?
C10 C11 1.4028(19) . ?
C10 H10 0.9500 . ?
C11 C12 1.3990(19) . ?
C12 C13 1.3901(19) . ?
C12 H12 0.9500 . ?
C13 H13 0.9500 . ?
C14 O3 1.2334(18) . ?
C14 O4 1.2939(17) . ?
C14 C15 1.5052(19) . ?
C15 C16 1.3963(19) . ?
C15 C20 1.3978(19) . ?
C16 C17 1.3886(19) . ?
C16 H16 0.9500 . ?
C17 C18 1.4015(19) . ?
C17 H17 0.9500 . ?
C18 C19 1.3982(19) . ?
C19 C20 1.3941(19) . ?
C19 H19 0.9500 . ?
C20 H20 0.9500 . ?
C21 O6 1.2394(18) . ?
C21 O5 1.2803(18) . ?
C21 C22 1.5073(18) . ?
C22 C23 1.3944(19) . ?
C22 C27 1.3953(19) . ?
C23 C24 1.3939(18) . ?
C23 H23 0.9500 . ?
C24 C25 1.3967(19) . ?
C24 H24 0.9500 . ?
C25 C26 1.4050(19) . ?
C26 C27 1.3869(19) . ?
C26 H26 0.9500 . ?
C27 H27 0.9500 . ?
O7 C28 1.2511(18) . ?
O7 Zn1 2.0252(10) . ?
C28 N1 1.3343(19) . ?
C28 C29 1.497(2) . ?
C29 H29A 0.9800 . ?
C29 H29B 0.9800 . ?
C29 H29C 0.9800 . ?
N1 C31 1.460(2) . ?
N1 C30 1.460(2) . ?
C30 H30A 0.9800 . ?
C30 H30B 0.9800 . ?
C30 H30C 0.9800 . ?
C31 H31A 0.9800 . ?
C31 H31B 0.9800 . ?
C31 H31C 0.9800 . ?
O8 C32 1.253(12) . ?
C32 N2 1.341(4) . ?
C32 C33 1.509(4) . ?
C33 H33A 0.9800 . ?
C33 H33B 0.9800 . ?
C33 H33C 0.9800 . ?
N2 C34 1.451(9) . ?
N2 C35 1.472(6) . ?
C34 H34A 0.9800 . ?
C34 H34B 0.9800 . ?
C34 H34C 0.9800 . ?
C35 H35A 0.9800 . ?
C35 H35B 0.9800 . ?
C35 H35C 0.9800 . ?
O8B C32B 1.258(13) . ?
C32B N2B 1.335(5) . ?
C32B C33B 1.500(9) . ?
C33B H33D 0.9800 . ?
C33B H33E 0.9800 . ?
C33B H33F 0.9800 . ?
N2B C34B 1.452(11) . ?
N2B C35B 1.459(6) . ?
C34B H34D 0.9800 . ?
C34B H34E 0.9800 . ?
C34B H34F 0.9800 . ?
C35B H35D 0.9800 . ?
C35B H35E 0.9800 . ?
C35B H35F 0.9800 . ?
C36 N3 1.478(2) . ?
C36 H36A 0.9800 . ?
C36 H36B 0.9800 . ?
C36 H36C 0.9800 . ?
C37 N3 1.472(2) . ?
C37 H37A 0.9800 . ?
C37 H37B 0.9800 . ?
C37 H37C 0.9800 . ?
N3 H3A 0.9900 . ?
N3 H3B 0.9900 . ?
O1 Zn1 1.9543(10) . ?
O4 Zn1 1.9620(10) 4_576 ?
O5 Zn1 1.9560(10) 4_666 ?
Zn1 O5 1.9561(10) 4_565 ?
Zn1 O4 1.9620(10) 4_675 ?

loop_
_geom_angle_atom_site_label_1
_geom_angle_atom_site_label_2
_geom_angle_atom_site_label_3
_geom_angle
_geom_angle_site_symmetry_1
_geom_angle_site_symmetry_3
_geom_angle_publ_flag
C2 C1 C6 118.29(12) . . ?
C2 C1 C11 119.53(12) . . ?
C6 C1 C11 122.17(12) . . ?
C3 C2 C1 121.79(12) . . ?
C3 C2 H2 119.1 . . ?
C1 C2 H2 119.1 . . ?
C2 C3 C4 118.91(12) . . ?
C2 C3 C18 117.66(12) . . ?
C4 C3 C18 123.22(12) . . ?
C3 C4 C5 120.73(12) . . ?
C3 C4 H4 119.6 . . ?
C5 C4 H4 119.6 . . ?
C6 C5 C4 119.11(12) . . ?
C6 C5 C25 119.63(12) . . ?
C4 C5 C25 121.23(12) . . ?
C5 C6 C1 121.15(12) . . ?
C5 C6 H6 119.4 . . ?
C1 C6 H6 119.4 . . ?
O2 C7 O1 125.98(13) . . ?
O2 C7 C8 119.73(13) . . ?
O1 C7 C8 114.28(12) . . ?
C13 C8 C9 118.77(12) . . ?
C13 C8 C7 120.66(12) . . ?
C9 C8 C7 120.56(12) . . ?
C10 C9 C8 120.32(13) . . ?
C10 C9 H9 119.8 . . ?
C8 C9 H9 119.8 . . ?
C9 C10 C11 121.32(13) . . ?
C9 C10 H10 119.3 . . ?
C11 C10 H10 119.3 . . ?
C12 C11 C10 117.81(12) . . ?
C12 C11 C1 122.36(12) . . ?
C10 C11 C1 119.81(12) . . ?
C13 C12 C11 120.66(13) . . ?
C13 C12 H12 119.7 . . ?
C11 C12 H12 119.7 . . ?
C8 C13 C12 121.03(13) . . ?
C8 C13 H13 119.5 . . ?
C12 C13 H13 119.5 . . ?
O3 C14 O4 123.36(13) . . ?
O3 C14 C15 119.75(13) . . ?
O4 C14 C15 116.89(12) . . ?
C16 C15 C20 118.80(12) . . ?
C16 C15 C14 119.30(12) . . ?
C20 C15 C14 121.85(12) . . ?
C17 C16 C15 120.89(13) . . ?
C17 C16 H16 119.6 . . ?
C15 C16 H16 119.6 . . ?
C16 C17 C18 120.62(13) . . ?
C16 C17 H17 119.7 . . ?
C18 C17 H17 119.7 . . ?
C19 C18 C17 118.33(12) . . ?
C19 C18 C3 120.98(12) . . ?
C17 C18 C3 120.33(12) . . ?
C20 C19 C18 121.05(13) . . ?
C20 C19 H19 119.5 . . ?
C18 C19 H19 119.5 . . ?
C19 C20 C15 120.24(13) . . ?
C19 C20 H20 119.9 . . ?
C15 C20 H20 119.9 . . ?
O6 C21 O5 124.33(13) . . ?
O6 C21 C22 118.92(13) . . ?
O5 C21 C22 116.74(12) . . ?
C23 C22 C27 119.05(12) . . ?
C23 C22 C21 121.31(12) . . ?
C27 C22 C21 119.63(12) . . ?
C24 C23 C22 120.29(13) . . ?
C24 C23 H23 119.9 . . ?
C22 C23 H23 119.9 . . ?
C23 C24 C25 120.91(13) . . ?
C23 C24 H24 119.5 . . ?
C25 C24 H24 119.5 . . ?
C24 C25 C26 118.42(12) . . ?
C24 C25 C5 121.26(12) . . ?
C26 C25 C5 120.32(12) . . ?
C27 C26 C25 120.56(13) . . ?
C27 C26 H26 119.7 . . ?
C25 C26 H26 119.7 . . ?
C26 C27 C22 120.76(13) . . ?
C26 C27 H27 119.6 . . ?
C22 C27 H27 119.6 . . ?
C28 O7 Zn1 138.19(10) . . ?
O7 C28 N1 120.04(14) . . ?
O7 C28 C29 121.24(14) . . ?
N1 C28 C29 118.71(14) . . ?
C28 C29 H29A 109.5 . . ?
C28 C29 H29B 109.5 . . ?
H29A C29 H29B 109.5 . . ?
C28 C29 H29C 109.5 . . ?
H29A C29 H29C 109.5 . . ?
H29B C29 H29C 109.5 . . ?
C28 N1 C31 121.68(13) . . ?
C28 N1 C30 124.27(14) . . ?
C31 N1 C30 114.04(14) . . ?
N1 C30 H30A 109.5 . . ?
N1 C30 H30B 109.5 . . ?
H30A C30 H30B 109.5 . . ?
N1 C30 H30C 109.5 . . ?
H30A C30 H30C 109.5 . . ?
H30B C30 H30C 109.5 . . ?
N1 C31 H31A 109.5 . . ?
N1 C31 H31B 109.5 . . ?
H31A C31 H31B 109.5 . . ?
N1 C31 H31C 109.5 . . ?
H31A C31 H31C 109.5 . . ?
H31B C31 H31C 109.5 . . ?
O8 C32 N2 119.1(9) . . ?
O8 C32 C33 122.3(9) . . ?
N2 C32 C33 118.5(3) . . ?
C32 C33 H33A 109.5 . . ?
C32 C33 H33B 109.5 . . ?
H33A C33 H33B 109.5 . . ?
C32 C33 H33C 109.5 . . ?
H33A C33 H33C 109.5 . . ?
H33B C33 H33C 109.5 . . ?
C32 N2 C34 125.3(7) . . ?
C32 N2 C35 118.3(3) . . ?
C34 N2 C35 116.4(6) . . ?
N2 C34 H34A 109.5 . . ?
N2 C34 H34B 109.5 . . ?
H34A C34 H34B 109.5 . . ?
N2 C34 H34C 109.5 . . ?
H34A C34 H34C 109.5 . . ?
H34B C34 H34C 109.5 . . ?
N2 C35 H35A 109.5 . . ?
N2 C35 H35B 109.5 . . ?
H35A C35 H35B 109.5 . . ?
N2 C35 H35C 109.5 . . ?
H35A C35 H35C 109.5 . . ?
H35B C35 H35C 109.5 . . ?
O8B C32B N2B 119.2(13) . . ?
O8B C32B C33B 121.3(13) . . ?
N2B C32B C33B 119.2(5) . . ?
C32B C33B H33D 109.5 . . ?
C32B C33B H33E 109.5 . . ?
H33D C33B H33E 109.5 . . ?
C32B C33B H33F 109.5 . . ?
H33D C33B H33F 109.5 . . ?
H33E C33B H33F 109.5 . . ?
C32B N2B C34B 125.6(10) . . ?
C32B N2B C35B 121.0(5) . . ?
C34B N2B C35B 113.2(9) . . ?
N2B C34B H34D 109.5 . . ?
N2B C34B H34E 109.5 . . ?
H34D C34B H34E 109.5 . . ?
N2B C34B H34F 109.5 . . ?
H34D C34B H34F 109.5 . . ?
H34E C34B H34F 109.5 . . ?
N2B C35B H35D 109.5 . . ?
N2B C35B H35E 109.5 . . ?
H35D C35B H35E 109.5 . . ?
N2B C35B H35F 109.5 . . ?
H35D C35B H35F 109.5 . . ?
H35E C35B H35F 109.5 . . ?
N3 C36 H36A 109.5 . . ?
N3 C36 H36B 109.5 . . ?
H36A C36 H36B 109.5 . . ?
N3 C36 H36C 109.5 . . ?
H36A C36 H36C 109.5 . . ?
H36B C36 H36C 109.5 . . ?
N3 C37 H37A 109.5 . . ?
N3 C37 H37B 109.5 . . ?
H37A C37 H37B 109.5 . . ?
N3 C37 H37C 109.5 . . ?
H37A C37 H37C 109.5 . . ?
H37B C37 H37C 109.5 . . ?
C37 N3 C36 112.23(13) . . ?
C37 N3 H3A 109.2 . . ?
C36 N3 H3A 109.2 . . ?
C37 N3 H3B 109.2 . . ?
C36 N3 H3B 109.2 . . ?
H3A N3 H3B 107.9 . . ?
C7 O1 Zn1 127.09(9) . . ?
C14 O4 Zn1 109.52(9) . 4_576 ?
C21 O5 Zn1 111.63(9) . 4_666 ?
O1 Zn1 O5 108.60(5) . 4_565 ?
O1 Zn1 O4 108.91(5) . 4_675 ?
O5 Zn1 O4 131.22(4) 4_565 4_675 ?
O1 Zn1 O7 88.58(4) . . ?
O5 Zn1 O7 103.98(5) 4_565 . ?
O4 Zn1 O7 106.99(5) 4_675 . ?

loop_
_geom_torsion_atom_site_label_1
_geom_torsion_atom_site_label_2
_geom_torsion_atom_site_label_3
_geom_torsion_atom_site_label_4
_geom_torsion
_geom_torsion_site_symmetry_1
_geom_torsion_site_symmetry_2
_geom_torsion_site_symmetry_3
_geom_torsion_site_symmetry_4
_geom_torsion_publ_flag
C6 C1 C2 C3 1.7(2) . . . . ?
C11 C1 C2 C3 -176.96(13) . . . . ?
C1 C2 C3 C4 -2.0(2) . . . . ?
C1 C2 C3 C18 173.01(13) . . . . ?
C2 C3 C4 C5 0.8(2) . . . . ?
C18 C3 C4 C5 -173.91(13) . . . . ?
C3 C4 C5 C6 0.6(2) . . . . ?
C3 C4 C5 C25 178.85(12) . . . . ?
C4 C5 C6 C1 -0.9(2) . . . . ?
C25 C5 C6 C1 -179.14(12) . . . . ?
C2 C1 C6 C5 -0.3(2) . . . . ?
C11 C1 C6 C5 178.37(13) . . . . ?
O2 C7 C8 C13 1.8(2) . . . . ?
O1 C7 C8 C13 -179.09(13) . . . . ?
O2 C7 C8 C9 -177.05(14) . . . . ?
O1 C7 C8 C9 2.04(19) . . . . ?
C13 C8 C9 C10 -1.6(2) . . . . ?
C7 C8 C9 C10 177.32(13) . . . . ?
C8 C9 C10 C11 -1.1(2) . . . . ?
C9 C10 C11 C12 2.9(2) . . . . ?
C9 C10 C11 C1 -178.52(13) . . . . ?
C2 C1 C11 C12 -152.51(14) . . . . ?
C6 C1 C11 C12 28.9(2) . . . . ?
C2 C1 C11 C10 28.97(19) . . . . ?
C6 C1 C11 C10 -149.66(14) . . . . ?
C10 C11 C12 C13 -2.0(2) . . . . ?
C1 C11 C12 C13 179.48(13) . . . . ?
C9 C8 C13 C12 2.5(2) . . . . ?
C7 C8 C13 C12 -176.40(13) . . . . ?
C11 C12 C13 C8 -0.7(2) . . . . ?
O3 C14 C15 C16 6.0(2) . . . . ?
O4 C14 C15 C16 -174.83(13) . . . . ?
O3 C14 C15 C20 -171.62(14) . . . . ?
O4 C14 C15 C20 7.6(2) . . . . ?
C20 C15 C16 C17 -1.6(2) . . . . ?
C14 C15 C16 C17 -179.27(13) . . . . ?
C15 C16 C17 C18 0.8(2) . . . . ?
C16 C17 C18 C19 1.4(2) . . . . ?
C16 C17 C18 C3 -171.73(13) . . . . ?
C2 C3 C18 C19 -134.64(14) . . . . ?
C4 C3 C18 C19 40.1(2) . . . . ?
C2 C3 C18 C17 38.35(19) . . . . ?
C4 C3 C18 C17 -146.90(14) . . . . ?
C17 C18 C19 C20 -2.9(2) . . . . ?
C3 C18 C19 C20 170.23(13) . . . . ?
C18 C19 C20 C15 2.1(2) . . . . ?
C16 C15 C20 C19 0.2(2) . . . . ?
C14 C15 C20 C19 177.76(13) . . . . ?
O6 C21 C22 C23 -172.44(14) . . . . ?
O5 C21 C22 C23 6.40(19) . . . . ?
O6 C21 C22 C27 6.0(2) . . . . ?
O5 C21 C22 C27 -175.16(12) . . . . ?
C27 C22 C23 C24 0.4(2) . . . . ?
C21 C22 C23 C24 178.82(12) . . . . ?
C22 C23 C24 C25 0.8(2) . . . . ?
C23 C24 C25 C26 -1.3(2) . . . . ?
C23 C24 C25 C5 178.58(12) . . . . ?
C6 C5 C25 C24 -143.99(14) . . . . ?
C4 C5 C25 C24 37.77(19) . . . . ?
C6 C5 C25 C26 35.92(19) . . . . ?
C4 C5 C25 C26 -142.33(14) . . . . ?
C24 C25 C26 C27 0.8(2) . . . . ?
C5 C25 C26 C27 -179.10(12) . . . . ?
C25 C26 C27 C22 0.3(2) . . . . ?
C23 C22 C27 C26 -0.9(2) . . . . ?
C21 C22 C27 C26 -179.38(12) . . . . ?
Zn1 O7 C28 N1 179.13(10) . . . . ?
Zn1 O7 C28 C29 -1.8(2) . . . . ?
O7 C28 N1 C31 1.2(2) . . . . ?
C29 C28 N1 C31 -177.95(14) . . . . ?
O7 C28 N1 C30 -179.64(15) . . . . ?
C29 C28 N1 C30 1.2(2) . . . . ?
O8 C32 N2 C34 173.7(15) . . . . ?
C33 C32 N2 C34 -1.7(11) . . . . ?
O8 C32 N2 C35 -3.6(11) . . . . ?
C33 C32 N2 C35 -179.1(4) . . . . ?
O8B C32B N2B C34B -178(2) . . . . ?
C33B C32B N2B C34B 8.1(17) . . . . ?
O8B C32B N2B C35B -4.4(15) . . . . ?
C33B C32B N2B C35B -177.9(6) . . . . ?
O2 C7 O1 Zn1 0.7(2) . . . . ?
C8 C7 O1 Zn1 -178.33(9) . . . . ?
O3 C14 O4 Zn1 9.10(18) . . . 4_576 ?
C15 C14 O4 Zn1 -170.09(10) . . . 4_576 ?
O6 C21 O5 Zn1 0.27(18) . . . 4_666 ?
C22 C21 O5 Zn1 -178.50(9) . . . 4_666 ?

_refine_diff_density_max         0.600
_refine_diff_density_min         -0.392
_refine_diff_density_rms         0.075

_shelxl_version_number           2013-4

_shelx_res_file                  
;
TITL Zn in P2(1)/n
CELL 0.71073  14.3200    8.7789   27.6531   90.0000   90.3054   90.0000
ZERR   4.00   0.0013    0.0008    0.0025    0.0000    0.0013    0.0000
LATT  1
SYMM 0.5-X, 0.5+Y, 0.5-Z
SFAC C H N O Zn

UNIT 148 164 12 32 4
LIST 4 ! automatically inserted. Change 6 to 4 for CHECKCIF!!
TEMP -173.500
SIZE 0.05 0.22 0.25

L.S. 14
BOND $H
FMAP 2
PLAN 20
ACTA
CONF
HTAB

OMIT 1 0 1
OMIT 0 0 2
OMIT -1 0 1
OMIT 1 0 3

EADP C34 C34B

WGHT    0.052400    1.000200
FVAR       0.31358   0.58030
C1    1    0.468958    0.354481    0.436691    11.00000    0.01337    0.01028 =
         0.00930    0.00079   -0.00002    0.00051
C2    1    0.386334    0.384998    0.461449    11.00000    0.01210    0.01246 =
         0.01023    0.00075   -0.00038    0.00199
AFIX  43
H2    2    0.336480    0.434024    0.444834    11.00000   -1.20000
AFIX   0
C3    1    0.375008    0.345510    0.509854    11.00000    0.01148    0.01231 =
         0.00992   -0.00067    0.00171    0.00078
C4    1    0.447343    0.269242    0.533705    11.00000    0.01394    0.01257 =
         0.00864    0.00087   -0.00012    0.00103
AFIX  43
H4    2    0.440079    0.240629    0.566602    11.00000   -1.20000
AFIX   0
C5    1    0.530484    0.234452    0.509674    11.00000    0.01160    0.00954 =
         0.01058   -0.00011   -0.00152    0.00030
C6    1    0.540705    0.278428    0.461393    11.00000    0.01142    0.01149 =
         0.01015   -0.00031    0.00034    0.00126
AFIX  43
H6    2    0.597312    0.256320    0.445066    11.00000   -1.20000
AFIX   0
C7    1    0.496708    0.556104    0.237057    11.00000    0.01541    0.01601 =
         0.01026    0.00159    0.00034   -0.00322
C8    1    0.493011    0.507061    0.289470    11.00000    0.01339    0.01377 =
         0.00843    0.00093    0.00039   -0.00169
C9    1    0.437243    0.585162    0.322384    11.00000    0.01680    0.01397 =
         0.01186    0.00366    0.00063    0.00410
AFIX  43
H9    2    0.403287    0.672528    0.312203    11.00000   -1.20000
AFIX   0
C10   1    0.431107    0.535933    0.369904    11.00000    0.01712    0.01498 =
         0.01147    0.00121    0.00227    0.00506
AFIX  43
H10   2    0.393719    0.591413    0.392053    11.00000   -1.20000
AFIX   0
C11   1    0.479000    0.405843    0.385928    11.00000    0.01088    0.01304 =
         0.00891    0.00113   -0.00056   -0.00034
C12   1    0.536804    0.330964    0.352946    11.00000    0.01562    0.01342 =
         0.01195    0.00084   -0.00008    0.00341
AFIX  43
H12   2    0.571625    0.244443    0.363072    11.00000   -1.20000
AFIX   0
C13   1    0.543802    0.381893    0.305505    11.00000    0.01644    0.01631 =
         0.01159   -0.00123    0.00354    0.00249
AFIX  43
H13   2    0.583942    0.330294    0.283711    11.00000   -1.20000
AFIX   0
C14   1    0.044287    0.607237    0.597247    11.00000    0.01470    0.01417 =
         0.01405    0.00175    0.00288    0.00300
C15   1    0.130655    0.537070    0.575888    11.00000    0.01168    0.01277 =
         0.01300    0.00094    0.00226    0.00123
C16   1    0.125316    0.468060    0.530465    11.00000    0.01180    0.01950 =
         0.01312   -0.00001   -0.00088    0.00295
AFIX  43
H16   2    0.067546    0.467195    0.513417    11.00000   -1.20000
AFIX   0
C17   1    0.203305    0.400677    0.509872    11.00000    0.01389    0.01735 =
         0.01046   -0.00097   -0.00106    0.00241
AFIX  43
H17   2    0.198516    0.355430    0.478751    11.00000   -1.20000
AFIX   0
C18   1    0.289017    0.398787    0.534567    11.00000    0.01170    0.01140 =
         0.01022    0.00170    0.00168    0.00152
C19   1    0.293304    0.463222    0.580764    11.00000    0.01037    0.01501 =
         0.01164    0.00073    0.00023    0.00036
AFIX  43
H19   2    0.350075    0.458765    0.598639    11.00000   -1.20000
AFIX   0
C20   1    0.215594    0.533908    0.601011    11.00000    0.01393    0.01415 =
         0.01001   -0.00093    0.00099   -0.00019
AFIX  43
H20   2    0.220384    0.580092    0.631993    11.00000   -1.20000
AFIX   0
C21   1    0.838853   -0.072915    0.606035    11.00000    0.01518    0.01392 =
         0.01191   -0.00274   -0.00314    0.00447
C22   1    0.757931    0.004922    0.581221    11.00000    0.01354    0.01290 =
         0.00893   -0.00188   -0.00272    0.00285
C23   1    0.665852   -0.034636    0.591521    11.00000    0.01520    0.01178 =
         0.01226    0.00159   -0.00188    0.00120
AFIX  43
H23   2    0.653323   -0.113372    0.614143    11.00000   -1.20000
AFIX   0
C24   1    0.592108    0.040850    0.568769    11.00000    0.01102    0.01369 =
         0.01288    0.00148   -0.00051    0.00035
AFIX  43
H24   2    0.529653    0.013762    0.576361    11.00000   -1.20000
AFIX   0
C25   1    0.608767    0.155760    0.534963    11.00000    0.01286    0.01077 =
         0.00862   -0.00058   -0.00135    0.00217
C26   1    0.701731    0.195884    0.525139    11.00000    0.01333    0.01451 =
         0.01037    0.00135    0.00008    0.00109
AFIX  43
H26   2    0.714525    0.274655    0.502570    11.00000   -1.20000
AFIX   0
C27   1    0.774977    0.121462    0.548111    11.00000    0.01096    0.01649 =
         0.01178   -0.00074    0.00011    0.00070
AFIX  43
H27   2    0.837475    0.150159    0.541225    11.00000   -1.20000
AFIX   0
O7    4    0.384499    0.959531    0.198282    11.00000    0.02288    0.01344 =
         0.01639   -0.00146    0.00007    0.00301
C28   1    0.348629    1.085002    0.187442    11.00000    0.01313    0.01555 =
         0.01811    0.00132    0.00182   -0.00102
C29   1    0.332127    1.129083    0.135806    11.00000    0.03265    0.03135 =
         0.02055    0.00573   -0.00060    0.00975
AFIX 137
H29A  2    0.351189    1.045317    0.114614    11.00000   -1.50000
H29B  2    0.368762    1.220207    0.128216    11.00000   -1.50000
H29C  2    0.265625    1.150583    0.130783    11.00000   -1.50000
AFIX   0
N1    3    0.325441    1.183338    0.222155    11.00000    0.01932    0.01457 =
         0.02275    0.00017    0.00348    0.00221
C30   1    0.282832    1.331944    0.213327    11.00000    0.03345    0.01798 =
         0.04400   -0.00201   -0.00118    0.00866
AFIX 137
H30A  2    0.261767    1.337945    0.179604    11.00000   -1.50000
H30B  2    0.328840    1.412275    0.219613    11.00000   -1.50000
H30C  2    0.229291    1.345344    0.234839    11.00000   -1.50000
AFIX   0
C31   1    0.342371    1.150072    0.273168    11.00000    0.02704    0.01900 =
         0.02133   -0.00564    0.00260   -0.00420
AFIX 137
H31A  2    0.373655    1.051222    0.276199    11.00000   -1.50000
H31B  2    0.282721    1.146992    0.290348    11.00000   -1.50000
H31C  2    0.382104    1.229669    0.287208    11.00000   -1.50000
AFIX   0
PART 1
SAME O7 > C31
O8    4    0.775376    0.559207    0.155065    21.00000    0.02044    0.04843 =
         0.02159    0.00479   -0.00397   -0.01307
C32   1    0.786865    0.583416    0.199359    21.00000    0.01466    0.01885 =
         0.02382    0.00399   -0.00078   -0.00314
C33   1    0.723960    0.688291    0.227638    21.00000    0.02094    0.02707 =
         0.02969   -0.00311   -0.00178    0.00426
AFIX 137
H33A  2    0.672816    0.723476    0.206767    21.00000   -1.50000
H33B  2    0.759996    0.776156    0.239122    21.00000   -1.50000
H33C  2    0.698224    0.633333    0.255387    21.00000   -1.50000
AFIX   0
N2    3    0.861269    0.522718    0.221844    21.00000    0.01655    0.02015 =
         0.02544    0.00441   -0.00273    0.00138
C34   1    0.888620    0.552514    0.271545    21.00000    0.03641    0.04893 =
         0.02288    0.01145   -0.00597    0.00000
AFIX 137
H34A  2    0.948281    0.607192    0.272072    21.00000   -1.50000
H34B  2    0.895375    0.455791    0.288907    21.00000   -1.50000
H34C  2    0.840678    0.614686    0.287225    21.00000   -1.50000
AFIX   0
C35   1    0.923184    0.422383    0.193887    21.00000    0.02152    0.01828 =
         0.05306    0.00054    0.00113    0.00626
AFIX 137
H35A  2    0.885604    0.358707    0.172136    21.00000   -1.50000
H35B  2    0.958785    0.357205    0.216074    21.00000   -1.50000
H35C  2    0.966382    0.484440    0.174838    21.00000   -1.50000
AFIX   0
PART 2
SAME O7 > C31
O8B   4    0.767380    0.538327    0.159855   -21.00000    0.01791    0.05593 =
         0.02557   -0.00181   -0.00180   -0.00995
C32B  1    0.833182    0.513861    0.189135   -21.00000    0.01570    0.02077 =
         0.02539   -0.00140    0.00464   -0.00672
C33B  1    0.912622    0.410136    0.176425   -21.00000    0.03392    0.03853 =
         0.04583   -0.01814    0.00451    0.00168
AFIX 137
H33D  2    0.904740    0.373913    0.143131   -21.00000   -1.50000
H33E  2    0.913320    0.322901    0.198537   -21.00000   -1.50000
H33F  2    0.971696    0.465842    0.179306   -21.00000   -1.50000
AFIX   0
N2B   3    0.827651    0.569138    0.234010   -21.00000    0.01692    0.01884 =
         0.02138    0.00106    0.00516    0.00217
C34B  1    0.898639    0.553488    0.271348   -21.00000    0.03641    0.04893 =
         0.02288    0.01145   -0.00597    0.00000
AFIX 137
H34D  2    0.946846    0.482283    0.260446   -21.00000   -1.50000
H34E  2    0.870002    0.514543    0.300987   -21.00000   -1.50000
H34F  2    0.926994    0.653072    0.277818   -21.00000   -1.50000
AFIX   0
C35B  1    0.749926    0.666259    0.248433   -21.00000    0.02245    0.03087 =
         0.05237   -0.00559    0.01200    0.00280
AFIX 137
H35D  2    0.706217    0.677318    0.221269   -21.00000   -1.50000
H35E  2    0.773734    0.766731    0.257802   -21.00000   -1.50000
H35F  2    0.717629    0.619949    0.275913   -21.00000   -1.50000
AFIX   0
PART 0
C36   1    0.602323    0.321186    0.115482    11.00000    0.04122    0.01723 =
         0.02633    0.00039    0.00983    0.00613
AFIX 137
H36A  2    0.558224    0.279165    0.091770    11.00000   -1.50000
H36B  2    0.581108    0.296673    0.148206    11.00000   -1.50000
H36C  2    0.664280    0.276880    0.110295    11.00000   -1.50000
AFIX   0
C37   1    0.638068    0.532988    0.061019    11.00000    0.05442    0.02646 =
         0.02307    0.00302    0.01588    0.00225
AFIX 137
H37A  2    0.593183    0.495349    0.036959    11.00000   -1.50000
H37B  2    0.699706    0.489082    0.054643    11.00000   -1.50000
H37C  2    0.641744    0.644280    0.059033    11.00000   -1.50000
AFIX   0

N3    3    0.607383    0.488308    0.109714    11.00000    0.01445    0.01630 =
         0.01428   -0.00180    0.00139    0.00128
AFIX  23
H3A   2    0.545078    0.532803    0.115960    11.00000   -1.20000
H3B   2    0.651476    0.530314    0.133971    11.00000   -1.20000
AFIX   0
O1    4    0.447697    0.674285    0.227254    11.00000    0.02617    0.01941 =
         0.01194    0.00473    0.00169    0.00417
O2    4    0.543270    0.482264    0.208086    11.00000    0.03974    0.02894 =
         0.01240    0.00295    0.00927    0.01087
O3    4   -0.031534    0.592219    0.576423    11.00000    0.01327    0.04019 =
         0.02598   -0.01305   -0.00110    0.00471
O4    4    0.054389    0.679922    0.637640    11.00000    0.01436    0.01875 =
         0.01214   -0.00082    0.00240    0.00338
O5    4    0.819237   -0.186046    0.633373    11.00000    0.01546    0.01996 =
         0.01442    0.00421   -0.00025    0.00619
O6    4    0.918830   -0.023207    0.599580    11.00000    0.01307    0.02477 =
         0.03465    0.00696   -0.00630   -0.00008
ZN1   5    0.431185    0.770558    0.164063    11.00000    0.01046    0.01146 =
         0.00827    0.00004   -0.00014   -0.00187
HKLF 4

REM  Zn in P2(1)/n
REM R1 =  0.0377 for    8876 Fo > 4sig(Fo)  and  0.0506 for all   10836 data
REM    502 parameters refined using     33 restraints

END

WGHT      0.0524      0.9915

REM Instructions for potential hydrogen bonds
EQIV $1 x+1/2, -y+3/2, z-1/2
HTAB C29 O3_$1
EQIV $2 -x+1, -y+1, -z+1
HTAB C31 O5_$2
HTAB C34 O4_$2
EQIV $3 -x+3/2, y-1/2, -z+1/2
HTAB C35 O1_$3
HTAB C34B O4_$2
HTAB C36 O2
HTAB N3 O4_$1
EQIV $4 x-1/2, -y+1/2, z-1/2
HTAB N3 O6_$4
HTAB N3 O8
HTAB N3 O8B

REM Highest difference peak  0.600,  deepest hole -0.392,  1-sigma level  0.075
Q1    1   0.3985  0.8339  0.1532  11.00000  0.05    0.60
Q2    1   0.7975 -0.0408  0.5917  11.00000  0.05    0.58
Q3    1   0.3914  0.7691  0.1849  11.00000  0.05    0.57
Q4    1   0.4732  0.7820  0.1430  11.00000  0.05    0.57
Q5    1   0.5148  0.3413 -0.0059  11.00000  0.05    0.56
Q6    1   0.4588  0.4725  0.3789  11.00000  0.05    0.56
Q7    1   0.4589  0.7625  0.1895  11.00000  0.05    0.54
Q8    1   0.4020  0.7579  0.1381  11.00000  0.05    0.53
Q9    1   0.4241  0.3601  0.4468  11.00000  0.05    0.52
Q10   1   0.4994  0.3049  0.4467  11.00000  0.05    0.52
Q11   1   0.3344  0.3579  0.5232  11.00000  0.05    0.51
Q12   1   0.6263  0.0164  0.5875  11.00000  0.05    0.51
Q13   1   0.3858  0.7190  0.1515  11.00000  0.05    0.51
Q14   1   0.4854  0.2356  0.5209  11.00000  0.05    0.51
Q15   1   0.7359  0.1592  0.5398  11.00000  0.05    0.50
Q16   1   0.4648  0.8331  0.1735  11.00000  0.05    0.50
Q17   1   0.5658  0.1886  0.5233  11.00000  0.05    0.49
Q18   1   0.4777  0.7151  0.1721  11.00000  0.05    0.48
Q19   1   0.4129  0.3176  0.5214  11.00000  0.05    0.47
Q20   1   0.1684  0.4359  0.5196  11.00000  0.05    0.47
;
_shelx_res_checksum              47404

_shelx_hkl_file                  
;
   1   0   0 -3.0323 0.13718   3
  -1   0   0 -3.1689 0.10095   2
   2   0   0 2072.59 63.5581   3
  -2   0   0 2163.54 65.8077   1
  -3   0   0 -0.8341 0.45610   1
   3   0   0 -0.8950 0.68119   3
  -3   0   0 -0.8804 0.73214   2
  -4   0   0 165.348 5.49904   1
   4   0   0 149.504 5.91449   3
  -4   0   0 160.872 6.03273   2
  -5   0   0 0.10195 1.03991   2
  -5   0   0 0.29655 0.62656   1
   5   0   0 0.30800 0.93787   3
  -6   0   0 914.961 30.3577   2
  -6   0   0 998.033 30.0498   1
   6   0   0 924.463 29.8720   3
   7   0   0 0.35249 1.18571   3
  -7   0   0 1.65763 1.38587   2
  -7   0   0 -1.3606 0.69867   1
  -8   0   0 1148.14 38.4966   2
  -8   0   0 1275.35 37.9906   1
   8   0   0 1159.36 37.8911   3
  -9   0   0 1.03959 0.92389   1
  -9   0   0 1.79436 1.67897   2
   9   0   0 -0.5723 1.50251   3
  10   0   0 265.960 11.0907   3
 -10   0   0 253.928 11.1517   2
 -10   0   0 305.883 9.79422   1
 -11   0   0 1.61713 2.03598   2
  11   0   0 1.95676 2.09471   3
  12   0   0 93.8708 6.27184   3
 -12   0   0 103.292 6.40837   2
 -13   0   0 1.64926 2.55707   2
  13   0   0 1.70370 2.49328   3
  14   0   0 75.4404 6.55106   3
 -14   0   0 78.1691 6.56250   2
 -15   0   0 5.55299 3.31300   2
  15   0   0 -1.8134 2.83084   3
  16   0   0 7.99954 3.66329   3
 -16   0   0 9.90684 3.96865   2
  17   0   0 -2.0127 3.41093   3
 -17   0   0 1.75893 3.56171   2
 -18   0   0 102.411 7.99084   2
  18   0   0 84.7681 8.23431   3
 -19   0   0 0.46810 3.66148   2
  19   0   0 9.09190 4.59914   3
  20   0   0 65.6164 8.33884   3
 -20   0   0 55.6569 7.32775   2
   0  -1   0 -1.6408 0.35044   2
   0   1   0 -1.5931 0.37201   3
   0   1   0 -2.1682 0.34611   1
  -1  -1   0 209.632 6.84007   2
   1  -1   0 208.941 6.59923   2
   1   1   0 200.982 6.58269   3
  -1   1   0 205.191 6.96897   1
   2  -1   0 880.415 27.1054   2
   2  -1   0 857.005 26.7202   3
  -2  -1   0 870.655 27.4434   2
   2   1   0 886.770 27.4116   1
   2   1   0 886.233 26.7284   3
  -2   1   0 877.833 27.8026   1
   3  -1   0 2475.27 77.3272   2
   3  -1   0 2505.26 75.9791   3
  -3  -1   0 2479.42 77.7379   2
   3   1   0 2591.96 78.3199   1
  -3   1   0 2559.54 78.8697   1
   3   1   0 2525.65 75.9140   3
  -4  -1   0 3314.61 104.548   2
   4  -1   0 3301.36 102.241   3
   4   1   0 3519.03 105.377   1
   4   1   0 3431.15 102.201   3
  -4   1   0 3406.06 106.035   1
  -5  -1   0 130.947 5.54848   2
   5  -1   0 127.122 5.37336   3
   5   1   0 121.624 5.24226   3
   5   1   0 135.702 4.31562   1
  -5   1   0 130.877 5.17923   2
  -5   1   0 126.569 5.01946   1
   6  -1   0 606.301 20.1102   3
  -6  -1   0 603.113 20.5676   2
  -6   1   0 611.771 20.1943   2
   6   1   0 625.728 20.0770   3
  -6   1   0 634.169 20.2034   1
  -7  -1   0 65.7390 2.29638   1
   7  -1   0 54.2093 3.64337   3
  -7  -1   0 60.1017 3.90768   2
   7   1   0 59.6338 3.69476   3
  -7   1   0 61.8263 3.22357   1
  -7   1   0 60.9024 3.66417   2
   8  -1   0 88.2551 4.86053   3
  -8  -1   0 92.1555 3.11469   1
  -8  -1   0 86.9205 4.99174   2
  -8   1   0 78.3015 4.60035   2
   8   1   0 85.9259 4.76061   3
  -8   1   0 86.1160 4.07152   1
  -9  -1   0 6.21102 2.20612   2
   9  -1   0 7.31834 2.06330   3
  -9   1   0 4.86571 1.88252   2
   9   1   0 6.04863 1.89292   3
  -9   1   0 4.71450 1.40142   1
 -10  -1   0 409.391 15.6962   2
  10  -1   0 411.137 15.4027   3
  10   1   0 421.398 15.3743   3
 -10   1   0 399.426 15.1882   2
 -10   1   0 442.795 14.5790   1
 -11  -1   0 11.5668 2.94312   2
  11  -1   0 9.25716 2.63624   3
 -11   1   0 9.47223 2.47543   2
 -11   1   0 15.1587 2.05452   1
  11   1   0 9.44141 2.47988   3
 -12  -1   0 19.1262 3.66039   2
  12  -1   0 17.9613 3.27958   3
  12   1   0 12.7082 3.01798   3
 -12   1   0 17.0830 3.18159   2
  13  -1   0 1.65036 2.63653   3
 -13  -1   0 0.85975 2.71904   2
 -13   1   0 -0.3256 2.45872   2
  13   1   0 3.10696 2.74271   3
 -14  -1   0 34.3737 4.90207   2
  14  -1   0 37.8357 4.96130   3
 -14   1   0 38.0537 4.66546   2
  14   1   0 33.6707 4.59140   3
 -15  -1   0 0.86102 3.44552   2
  15  -1   0 6.36564 3.44385   3
  15   1   0 13.3458 3.75929   3
 -15   1   0 3.84194 3.33739   2
 -16  -1   0 46.4137 5.92186   2
  16  -1   0 53.7085 6.00372   3
  16   1   0 40.2161 5.61582   3
 -16   1   0 47.3542 5.45704   2
 -17  -1   0 11.0588 4.35691   2
  17  -1   0 5.51950 3.77708   3
  17   1   0 11.1978 4.49237   3
 -17   1   0 12.5222 3.91570   2
 -18  -1   0 32.3597 5.57960   2
  18  -1   0 56.0267 6.86300   3
 -18   1   0 46.5005 5.93187   2
  18   1   0 50.6620 6.73547   3
  19  -1   0 2.47618 4.46101   3
 -19  -1   0 -6.0012 3.50841   2
 -19   1   0 3.70733 3.58786   2
  19   1   0 1.22950 4.60698   3
  20  -1   0 -4.5557 4.46434   3
 -20  -1   0 6.03411 4.65012   2
 -20   1   0 4.19862 4.14933   2
   0  -2   0 1663.05 50.3651   2
   0   2   0 1648.26 49.3173   3
   0   2   0 1591.49 51.4795   1
   1  -2   0 342.533 11.0215   3
   1  -2   0 358.611 11.0891   2
  -1  -2   0 337.360 11.3005   2
   1   2   0 344.192 11.0010   3
   1   2   0 342.943 11.4795   1
  -1   2   0 338.194 11.6706   1
   2  -2   0 655.206 20.2113   2
  -2  -2   0 650.386 20.7049   2
   2  -2   0 647.135 20.0953   3
  -2   2   0 632.559 21.0492   1
   2   2   0 654.835 20.6707   1
   2   2   0 630.523 20.0399   3
  -3  -2   0 1079.53 34.9204   2
   3  -2   0 1110.26 33.9769   3
   3  -2   0 1104.83 34.3037   2
   3   2   0 1125.16 34.8169   1
  -3   2   0 1112.96 35.4395   1
   3   2   0 1093.60 33.9170   3
   4  -2   0 302.835 10.5217   3
  -4  -2   0 305.063 10.9771   2
   4  -2   0 304.647 10.2934   2
   4   2   0 324.915 10.1231   1
   4   2   0 301.707 10.4757   3
  -4   2   0 312.675 10.9070   1
   5  -2   0 55.7074 2.88848   2
   5  -2   0 58.3665 3.41489   3
   5   2   0 60.4301 2.32934   1
  -5   2   0 55.6474 3.20736   1
   5   2   0 56.7738 3.22185   3
   6  -2   0 284.309 10.4443   3
  -6  -2   0 279.723 10.7559   2
   6   2   0 271.175 10.2263   3
   6   2   0 304.876 9.22559   1
  -6   2   0 281.509 10.3975   1
  -7  -2   0 810.286 27.5588   2
   7  -2   0 832.561 26.8605   3
  -7   2   0 828.877 26.7915   2
  -7   2   0 827.443 27.2357   1
   7   2   0 838.181 26.7405   3
   8  -2   0 1865.73 58.9918   3
  -8  -2   0 1870.95 60.4544   2
   8   2   0 1890.25 58.9155   3
  -8   2   0 1946.23 60.5858   1
  -8   2   0 1926.08 59.6762   2
  -9  -2   0 0.20252 1.96232   2
   9  -2   0 -1.3255 1.48912   3
  -9   2   0 3.45221 1.62167   2
   9   2   0 1.23657 1.69390   3
  -9   2   0 0.16996 1.39812   1
  10  -2   0 270.363 10.9664   3
 -10  -2   0 264.629 11.3360   2
  10   2   0 254.633 10.7526   3
 -10   2   0 259.177 10.5079   2
 -10   2   0 277.363 10.2591   1
 -11  -2   0 582.109 21.8355   2
  11  -2   0 607.607 21.3496   3
 -11   2   0 589.689 20.9594   2
 -11   2   0 633.128 20.8034   1
  11   2   0 589.786 21.1764   3
 -12  -2   0 5.28697 2.86182   2
  12  -2   0 3.87628 2.57234   3
 -12   2   0 5.88414 2.52661   2
  12   2   0 3.64962 2.44865   3
 -12   2   0 6.40282 2.11546   1
  13  -2   0 20.6948 3.79331   3
 -13  -2   0 18.9357 4.13485   2
  13   2   0 16.6377 3.58508   3
 -13   2   0 22.4095 3.62548   2
 -14  -2   0 11.9948 4.02056   2
  14  -2   0 14.5059 3.75909   3
  14   2   0 15.4320 3.84937   3
 -14   2   0 15.7072 3.47277   2
  15  -2   0 40.2472 5.23923   3
 -15  -2   0 45.6375 5.89492   2
  15   2   0 29.8405 4.81969   3
 -15   2   0 45.0328 4.85883   2
  16  -2   0 100.449 7.90969   3
 -16  -2   0 95.3384 8.14261   2
  16   2   0 89.3100 7.71816   3
 -16   2   0 96.8685 7.06823   2
  17  -2   0 38.1409 5.87466   3
 -17  -2   0 36.8354 6.29219   2
  17   2   0 38.8391 5.86835   3
 -17   2   0 38.9593 5.25487   2
  18  -2   0 -0.8883 3.98619   3
 -18  -2   0 -3.9689 3.91421   2
 -18   2   0 0.37247 3.39155   2
  18   2   0 0.82134 4.22687   3
 -19  -2   0 23.4686 5.80224   2
  19  -2   0 15.3882 5.15176   3
  19   2   0 20.0381 5.45489   3
 -20  -2   0 13.6317 5.25674   2
   0  -3   0 -0.6945 0.71113   2
   0   3   0 1.07311 0.87473   3
   0   3   0 0.80464 1.10682   1
   1  -3   0 19.1699 1.74326   3
   1  -3   0 17.4728 1.50583   2
  -1  -3   0 16.9521 1.68361   2
  -1   3   0 20.4582 2.15544   1
   1   3   0 21.9010 2.02008   1
   1   3   0 17.9137 1.61423   3
   2  -3   0 468.085 15.1569   3
  -2  -3   0 444.695 15.5422   2
   2  -3   0 473.406 15.1004   2
   2   3   0 479.951 15.6615   1
   2   3   0 475.608 15.1266   3
  -2   3   0 470.107 16.0815   1
   3  -3   0 274.338 9.35734   3
  -3  -3   0 270.095 9.76012   2
   3  -3   0 259.522 8.99858   2
   3   3   0 267.299 9.35540   1
  -3   3   0 272.159 9.99288   1
   3   3   0 267.495 9.29131   3
   4  -3   0 41.8589 2.39280   2
   4  -3   0 47.9588 2.92198   3
  -4  -3   0 46.0017 3.22800   2
   4   3   0 47.4871 2.49226   1
   4   3   0 43.1508 2.75895   3
  -4   3   0 43.5336 3.14742   1
   5  -3   0 7.60024 1.64828   3
  -5  -3   0 8.74810 1.97142   2
   5  -3   0 6.90111 1.24900   2
   5   3   0 9.83570 1.20137   1
  -5   3   0 10.0431 1.84805   1
   5   3   0 9.94848 1.71461   3
  -6  -3   0 211.090 9.06855   2
   6  -3   0 225.011 8.63485   3
   6  -3   0 227.019 8.07856   2
   6   3   0 217.217 8.48540   3
  -6   3   0 210.713 8.77432   1
   6   3   0 226.230 7.58684   1
   7  -3   0 100.768 4.81265   2
  -7  -3   0 117.726 6.07007   2
   7  -3   0 105.805 5.52100   3
   7   3   0 110.416 5.42728   3
  -7   3   0 108.641 5.48977   1
   7   3   0 113.834 4.06724   1
   8  -3   0 -1.9092 1.40128   3
  -8  -3   0 -0.4695 1.86392   2
  -8   3   0 1.53875 1.59590   1
  -8   3   0 0.17336 1.40617   2
   8   3   0 1.13764 1.59983   3
   9  -3   0 219.296 9.25599   3
  -9  -3   0 211.693 9.68975   2
   9   3   0 209.035 8.98272   3
  -9   3   0 223.076 8.95349   1
  -9   3   0 202.291 8.49900   2
  10  -3   0 128.540 6.80353   3
 -10  -3   0 122.795 7.17268   2
 -10   3   0 122.964 6.13294   1
 -10   3   0 108.646 5.91676   2
  10   3   0 111.186 6.46087   3
 -11  -3   0 175.105 9.34616   2
  11  -3   0 189.192 9.04470   3
  11   3   0 171.833 8.66185   3
 -11   3   0 186.643 8.29315   1
 -11   3   0 195.151 8.36891   2
 -12  -3   0 151.704 8.88099   2
  12  -3   0 168.722 8.55990   3
 -12   3   0 159.499 7.55493   1
  12   3   0 151.353 8.31838   3
 -12   3   0 151.402 7.65359   2
 -13  -3   0 158.701 9.14468   2
  13  -3   0 148.848 8.45879   3
  13   3   0 147.572 8.32687   3
 -13   3   0 138.717 7.55205   2
 -14  -3   0 -0.6466 3.19544   2
  14  -3   0 1.31188 2.96846   3
 -14   3   0 -0.9917 2.11568   2
  14   3   0 -1.8034 2.86068   3
  15  -3   0 100.563 7.62145   3
 -15  -3   0 101.631 8.57703   2
  15   3   0 88.5841 7.63836   3
 -15   3   0 93.7291 6.54762   2
 -16  -3   0 111.037 9.22135   2
  16  -3   0 124.564 8.56691   3
 -16   3   0 99.2354 7.20238   2
  16   3   0 96.1177 8.05639   3
  17  -3   0 1.43556 3.55084   3
 -17  -3   0 1.98214 4.57913   2
  17   3   0 3.88102 4.05019   3
 -18  -3   0 45.9972 7.30733   2
  18  -3   0 42.2291 6.24679   3
  18   3   0 41.0513 6.52526   3
 -19  -3   0 6.03400 5.28519   2
  19  -3   0 13.4397 4.51712   3
  19   3   0 13.8405 5.52553   3
   0  -4   0 863.037 26.9855   2
   0   4   0 826.453 27.9089   1
   1  -4   0 99.1419 4.27106   3
  -1  -4   0 95.5291 4.30013   2
   1  -4   0 94.3072 4.08564   2
  -1   4   0 90.7460 4.75702   1
   1   4   0 88.3926 4.13916   3
   1   4   0 95.0517 4.61034   1
   2  -4   0 579.009 18.2928   2
   2  -4   0 567.134 18.2936   3
  -2  -4   0 559.467 18.7577   2
   2   4   0 553.554 18.2213   3
  -2   4   0 566.181 19.4989   1
   2   4   0 559.475 19.0301   1
   3  -4   0 48.8182 2.77475   2
   3  -4   0 53.5701 3.29853   3
  -3  -4   0 57.5445 3.57144   2
   3   4   0 53.4823 3.18488   1
   3   4   0 55.8821 3.28400   3
  -3   4   0 52.7046 3.76941   1
   4  -4   0 130.471 5.64171   3
  -4  -4   0 128.335 6.03275   2
   4  -4   0 131.992 5.09088   2
   4   4   0 124.341 5.33910   1
  -4   4   0 126.382 6.19658   1
   4   4   0 122.587 5.47659   3
   5  -4   0 98.1409 4.94677   3
  -5  -4   0 111.064 5.50580   2
   5  -4   0 97.4671 4.26713   2
   5   4   0 95.8891 4.35622   1
  -5   4   0 94.6242 5.32703   1
   5   4   0 93.7715 4.78148   3
   6  -4   0 666.102 22.0731   3
   6  -4   0 658.145 21.5934   2
  -6  -4   0 662.622 22.9692   2
   6   4   0 668.754 21.9700   3
  -6   4   0 656.410 23.0117   1
   6   4   0 680.132 21.7603   1
  -7  -4   0 41.1572 4.07807   2
   7  -4   0 33.1891 2.65491   2
   7  -4   0 40.6082 3.69204   3
   7   4   0 39.9481 2.36159   1
   7   4   0 29.3487 3.16814   3
  -7   4   0 37.4733 3.60764   1
   8  -4   0 124.060 5.52745   2
  -8  -4   0 116.996 6.63635   2
   8  -4   0 127.309 6.51615   3
   8   4   0 116.687 6.25294   3
  -8   4   0 119.569 6.32059   1
   9  -4   0 63.0183 4.74209   3
  -9  -4   0 55.5059 5.07977   2
   9   4   0 57.8748 4.47191   3
  -9   4   0 44.3836 4.20967   1
  10  -4   0 16.5363 3.13804   3
 -10  -4   0 17.0654 3.52684   2
  10   4   0 11.8914 2.78986   3
 -10   4   0 12.1573 2.79427   1
 -10   4   0 15.2177 2.44913   2
  11  -4   0 271.821 11.4280   3
 -11  -4   0 236.157 11.6264   2
  11   4   0 250.743 11.0130   3
 -11   4   0 252.681 10.2365   2
 -11   4   0 242.409 10.5994   1
  12  -4   0 121.584 7.69460   3
 -12  -4   0 133.444 8.26930   2
 -12   4   0 122.478 6.52611   2
 -12   4   0 126.806 7.04892   1
  12   4   0 117.226 7.50123   3
 -13  -4   0 57.0822 6.42407   2
  13  -4   0 56.7067 5.68373   3
 -13   4   0 55.9872 4.84925   2
 -13   4   0 62.5995 5.19028   1
  13   4   0 70.9540 6.45399   3
 -14  -4   0 218.088 11.8049   2
  14  -4   0 221.569 11.1088   3
  14   4   0 204.214 10.7883   3
  15  -4   0 59.4587 6.53822   3
 -15  -4   0 63.8446 7.21718   2
  15   4   0 76.0844 6.90411   3
 -16  -4   0 182.822 11.7135   2
  16  -4   0 223.379 11.7838   3
  16   4   0 192.296 11.0780   3
 -17  -4   0 83.1766 8.62242   2
  17  -4   0 63.4519 6.91488   3
  17   4   0 68.0738 7.50174   3
 -18  -4   0 2.97377 5.17374   2
  18  -4   0 -0.9891 3.36837   3
  18   4   0 0.79678 4.34739   3
  19  -4   0 39.8135 6.43405   3
 -19  -4   0 19.2554 6.36514   2
  19   4   0 32.6327 6.85115   3
   0  -5   0 0.30940 1.19355   3
   0  -5   0 -0.8645 1.00627   2
   0   5   0 -1.2734 1.40807   1
   1  -5   0 -0.4441 1.17978   3
  -1  -5   0 0.42004 1.17464   2
   1  -5   0 -0.5666 1.07084   2
   1   5   0 2.10634 1.62891   1
   1   5   0 -0.8190 1.27206   3
  -1   5   0 -0.1867 1.60549   1
   2  -5   0 1184.25 36.6175   3
   2  -5   0 1209.12 36.9520   2
  -2  -5   0 1135.47 37.3590   2
   2   5   0 1173.06 36.5337   3
  -2   5   0 1151.90 38.6497   1
   2   5   0 1149.55 38.1333   1
   3  -5   0 12.3392 2.06470   3
   3  -5   0 15.5136 1.82754   2
  -3  -5   0 16.1714 2.33352   2
  -3   5   0 16.0902 2.73972   1
   3   5   0 12.4720 2.02973   3
   3   5   0 17.7677 2.26554   1
   4  -5   0 608.657 20.0302   3
   4  -5   0 621.656 19.6717   2
  -4  -5   0 603.279 20.6973   2
   4   5   0 594.978 19.8930   3
   4   5   0 586.549 20.3451   1
  -4   5   0 585.437 21.2278   1
   5  -5   0 64.5472 4.19306   3
   5  -5   0 72.2990 3.63743   2
  -5  -5   0 66.7629 4.66935   2
   5   5   0 68.7542 3.91111   1
   5   5   0 79.5232 4.51532   3
  -5   5   0 66.7579 4.90220   1
   6  -5   0 105.827 5.56121   3
  -6  -5   0 96.4588 6.10196   2
   6  -5   0 104.977 4.72386   2
   6   5   0 108.191 4.85713   1
  -6   5   0 93.7725 5.94109   1
   6   5   0 104.429 5.43473   3
   7  -5   0 32.6676 3.48747   3
   7  -5   0 30.9202 2.68346   2
  -7  -5   0 29.3590 3.77191   2
   7   5   0 32.0751 2.59685   1
   7   5   0 27.9101 3.25401   3
  -7   5   0 28.2324 3.76638   1
  -8  -5   0 43.3741 4.64278   2
   8  -5   0 35.3171 2.99807   2
   8  -5   0 29.0013 3.57765   3
  -8   5   0 29.2708 3.77721   1
   8   5   0 30.3272 3.55457   3
  -9  -5   0 25.2104 4.02312   2
   9  -5   0 24.6403 3.55361   3
   9  -5   0 23.8167 2.74532   2
   9   5   0 20.8200 3.47394   3
  -9   5   0 21.2602 3.40534   1
  10  -5   0 66.9277 5.71546   3
 -10  -5   0 60.7950 5.88355   2
  10   5   0 53.8229 5.00877   3
 -10   5   0 52.6344 4.07739   2
 -10   5   0 57.3469 5.17519   1
 -11  -5   0 1.07167 3.18124   2
  11  -5   0 0.26564 2.57824   3
  11   5   0 -5.3971 2.24243   3
 -11   5   0 -1.6507 2.49889   1
 -12  -5   0 84.4868 7.41182   2
  12  -5   0 90.9750 6.78391   3
  12   5   0 88.2180 6.88942   3
 -12   5   0 80.9463 6.24471   1
  13  -5   0 47.6386 5.52567   3
 -13  -5   0 44.6399 5.93496   2
  13   5   0 42.9914 5.22297   3
 -13   5   0 46.5979 4.94015   1
  14  -5   0 7.02475 3.60611   3
 -14  -5   0 10.4853 4.28699   2
  14   5   0 0.89037 3.63513   3
 -15  -5   0 90.0028 8.71168   2
  15  -5   0 104.875 7.80999   3
  15   5   0 85.3072 7.68900   3
 -16  -5   0 -0.8762 4.56143   2
  16  -5   0 2.97549 3.43729   3
  16   5   0 2.87623 4.20259   3
  17  -5   0 20.0070 4.90491   3
 -17  -5   0 18.3172 5.95679   2
  17   5   0 31.4653 6.05406   3
 -18  -5   0 93.3422 9.57872   2
  18  -5   0 110.042 9.24217   3
  18   5   0 109.963 9.72523   3
   0  -6   0 9.42037 1.85543   2
   0  -6   0 7.05554 1.81151   3
   0   6   0 8.44437 2.36110   1
  -1  -6   0 6.80570 1.75916   2
   1  -6   0 8.53818 1.92016   3
   1  -6   0 9.33575 1.77899   2
  -1   6   0 6.43861 2.20633   1
   1   6   0 6.91661 2.11130   1
   2  -6   0 201.631 7.62831   2
   2  -6   0 192.277 7.88361   3
  -2  -6   0 186.498 7.93242   2
  -2   6   0 192.953 8.93439   1
   2   6   0 183.334 8.31136   1
   2   6   0 188.863 7.83260   3
  -3  -6   0 113.333 5.82449   2
   3  -6   0 115.423 5.72784   3
   3  -6   0 124.959 5.31969   2
   3   6   0 109.085 5.62030   3
  -3   6   0 104.472 6.46095   1
   3   6   0 116.508 5.90335   1
  -4  -6   0 29.1551 3.31202   2
   4  -6   0 29.7747 3.17542   3
   4  -6   0 38.6548 2.85755   2
   4   6   0 25.8921 3.07104   3
   4   6   0 27.9086 3.12239   1
  -4   6   0 37.0232 4.20607   1
   5  -6   0 32.7933 2.77824   2
  -5  -6   0 36.2118 3.92229   2
   5  -6   0 34.4616 3.54409   3
   5   6   0 27.6616 3.26789   3
  -5   6   0 30.7637 3.81272   1
   5   6   0 37.3898 3.32355   1
   6  -6   0 47.8123 3.31143   2
  -6  -6   0 52.4080 4.69687   2
   6  -6   0 50.4941 4.36106   3
   6   6   0 49.3535 3.64578   1
  -6   6   0 53.5423 5.15079   1
   6   6   0 47.8853 4.24316   3
  -7  -6   0 15.4818 3.39211   2
   7  -6   0 14.9085 2.22486   2
   7  -6   0 15.0757 2.89557   3
   7   6   0 15.0943 2.90810   3
  -7   6   0 17.1578 3.61456   1
   7   6   0 21.0346 2.44551   1
   8  -6   0 263.287 10.9480   3
  -8  -6   0 253.596 11.7155   2
   8   6   0 239.990 10.5601   3
  -8   6   0 247.474 11.4918   1
  -9  -6   0 37.1398 4.82825   2
   9  -6   0 34.6782 4.28247   3
   9   6   0 29.1634 3.88147   3
  -9   6   0 34.4756 4.51680   1
 -10  -6   0 27.7187 4.67824   2
  10  -6   0 28.1356 4.10237   3
  10   6   0 35.0450 4.40117   3
 -10   6   0 24.5279 4.19892   1
 -11  -6   0 124.330 8.76267   2
  11  -6   0 119.991 7.79751   3
 -11   6   0 129.855 7.93455   1
  11   6   0 122.199 7.91647   3
 -12  -6   0 4.26622 4.00158   2
  12  -6   0 3.19346 3.28336   3
  12   6   0 7.68021 3.59680   3
 -12   6   0 5.94591 3.48842   1
 -13  -6   0 44.1171 6.24534   2
  13  -6   0 47.4777 5.61481   3
 -13   6   0 54.0387 5.75360   1
  13   6   0 58.3603 6.07559   3
  14  -6   0 176.962 10.2746   3
 -14  -6   0 168.544 11.1106   2
 -14   6   0 166.722 9.68783   1
  14   6   0 170.078 10.0461   3
  15  -6   0 1.59500 3.18775   3
 -15  -6   0 3.05438 4.59312   2
  15   6   0 -0.7514 4.05663   3
 -16  -6   0 -3.6875 4.65306   2
  16  -6   0 4.27471 3.70980   3
  16   6   0 -2.3775 3.87520   3
 -17  -6   0 14.1647 6.19880   2
  17  -6   0 22.8868 5.18700   3
  17   6   0 26.7728 5.96480   3
  18  -6   0 -4.4191 3.69420   3
   0  -7   0 0.12140 1.52351   2
   0  -7   0 -1.9246 1.48478   3
   0   7   0 0.91526 2.27474   1
  -1  -7   0 477.305 16.5060   2
   1  -7   0 451.083 16.3037   3
  -1  -7   0 450.133 16.2163   3
   1  -7   0 485.097 16.3496   2
  -1   7   0 477.994 17.9113   1
   1   7   0 451.798 17.5004   1
  -2  -7   0 22.9364 2.88248   2
   2  -7   0 19.0465 2.49660   2
   2  -7   0 21.3554 2.90041   3
   2   7   0 22.4189 2.91205   3
   2   7   0 20.5477 3.22122   1
  -2   7   0 27.2528 4.00791   1
  -3  -7   0 28.3228 3.43950   2
   3  -7   0 35.2755 3.10175   2
   3  -7   0 31.3631 3.39458   3
   3   7   0 28.5498 3.51954   1
  -3   7   0 30.5620 4.44615   1
   3   7   0 30.6012 3.33869   3
  -4  -7   0 4.25737 2.24967   2
   4  -7   0 5.29130 1.91856   2
   4  -7   0 4.23922 2.12213   3
  -4   7   0 3.56998 2.72146   1
   4   7   0 5.54569 2.27122   3
   4   7   0 5.56522 2.22753   1
   5  -7   0 86.1663 5.41415   3
  -5  -7   0 76.3814 5.56307   2
   5   7   0 80.2210 5.33484   3
   5   7   0 75.7451 5.08328   1
  -5   7   0 77.0457 6.28837   1
  -6  -7   0 136.719 7.80579   2
   6  -7   0 145.196 7.48125   3
  -6   7   0 141.776 8.16424   1
   6   7   0 139.321 7.30925   3
   6   7   0 129.278 6.72787   1
   7  -7   0 313.113 12.5804   3
  -7  -7   0 283.573 13.1848   2
   7   7   0 315.607 12.5870   3
  -7   7   0 299.487 13.6589   1
  -8  -7   0 14.1786 3.92039   2
   8  -7   0 18.9410 3.51551   3
   8   7   0 14.4641 3.52254   3
  -8   7   0 18.9840 3.99508   1
   9  -7   0 4.01923 2.79428   3
  -9  -7   0 1.73639 3.41879   2
   9   7   0 0.19061 2.98659   3
  -9   7   0 1.21261 3.27982   1
  10  -7   0 49.4280 5.26697   3
 -10  -7   0 70.4374 6.84809   2
 -10   7   0 51.2551 5.83647   1
  10   7   0 51.7804 5.54339   3
  11  -7   0 4.45507 3.04509   3
 -11  -7   0 0.69966 4.12244   2
  11   7   0 4.89216 3.53954   3
 -11   7   0 4.40335 3.66741   1
  12  -7   0 190.541 10.2320   3
 -12  -7   0 174.053 11.0764   2
 -12   7   0 161.759 10.0250   1
  12   7   0 179.387 10.2193   3
  13  -7   0 22.0552 4.54636   3
 -13  -7   0 18.5226 5.48707   2
  13   7   0 15.3014 4.61074   3
 -13   7   0 16.2768 4.57514   1
 -14  -7   0 5.48371 4.88549   2
  14  -7   0 9.20314 3.90089   3
 -14   7   0 15.3496 4.60558   1
  14   7   0 18.8916 4.92629   3
 -15  -7   0 35.3465 6.82557   2
  15  -7   0 55.2281 6.45443   3
  15   7   0 33.4360 6.01410   3
 -16  -7   0 23.6582 6.62704   2
  16  -7   0 46.2098 6.45795   3
  16   7   0 26.4728 6.08947   3
  17  -7   0 4.04519 4.08726   3
   0  -8   0 8.44008 2.29602   2
   0  -8   0 11.0606 2.45494   3
   0   8   0 11.4607 3.35746   1
  -1  -8   0 33.6127 3.65116   3
   1  -8   0 31.4692 3.58943   3
  -1  -8   0 32.4844 3.52005   2
   1  -8   0 37.1236 3.54635   2
   1   8   0 30.3415 4.12149   1
  -1   8   0 32.0353 4.59513   1
  -2  -8   0 112.808 6.16302   2
   2  -8   0 114.371 6.20132   3
  -2  -8   0 108.311 6.05822   3
   2   8   0 108.546 6.99877   1
  -2   8   0 96.8708 7.22491   1
   3  -8   0 126.195 6.81441   3
  -3  -8   0 123.160 6.79974   2
  -3   8   0 133.849 8.24124   1
   3   8   0 117.592 7.10927   1
   3   8   0 129.699 6.75747   3
  -4  -8   0 11.5838 2.90789   2
   4  -8   0 13.9452 2.92520   3
   4   8   0 10.8116 2.86562   3
   4   8   0 8.49707 2.78463   1
  -4   8   0 13.0125 3.77321   1
   5  -8   0 344.142 13.5362   3
  -5  -8   0 315.562 13.7807   2
   5   8   0 362.577 13.5836   3
  -5   8   0 340.556 15.1313   1
   5   8   0 326.505 13.4529   1
   6  -8   0 78.1830 5.68298   3
  -6  -8   0 76.2647 6.36370   2
  -6   8   0 70.1026 6.85983   1
   6   8   0 70.0137 5.74801   3
   7  -8   0 150.945 8.10771   3
  -7  -8   0 153.565 8.91774   2
  -7   8   0 130.813 9.18950   1
   7   8   0 155.746 8.43260   3
   8  -8   0 1.99557 2.40825   3
  -8  -8   0 1.15194 3.39755   2
   8   8   0 1.90384 3.17442   3
  -8   8   0 -2.1776 3.63672   1
   9  -8   0 130.705 7.86784   3
  -9  -8   0 116.303 8.92045   2
   9   8   0 110.545 7.84679   3
  -9   8   0 105.196 8.71084   1
  10  -8   0 38.8371 5.07637   3
 -10  -8   0 30.7325 5.70927   2
 -10   8   0 30.3970 5.53554   1
  10   8   0 27.8173 4.78074   3
 -11  -8   0 91.6374 8.94878   2
  11  -8   0 91.8210 7.67694   3
  11   8   0 73.9817 7.19942   3
 -11   8   0 95.7921 8.27861   1
 -12  -8   0 -0.0609 4.65301   2
  12  -8   0 0.15505 3.19241   3
  12   8   0 -2.1619 3.61122   3
 -12   8   0 1.89388 4.26694   1
  13  -8   0 15.0074 4.58620   3
 -13  -8   0 21.3572 6.05514   2
  13   8   0 22.4718 5.19573   3
 -13   8   0 20.1481 5.29613   1
 -14  -8   0 1.65848 5.17568   2
  14  -8   0 3.83691 3.83453   3
  14   8   0 -2.1074 4.03297   3
 -14   8   0 1.10289 4.27969   1
 -15  -8   0 29.2253 7.09050   2
  15  -8   0 45.3267 6.55512   3
  15   8   0 26.1760 6.06701   3
 -15   8   0 49.6205 6.80947   1
   0  -9   0 -1.3486 1.90807   3
   0   9   0 -1.1302 2.93192   1
  -1  -9   0 61.2884 5.01819   2
  -1  -9   0 54.3763 4.73198   3
   1  -9   0 61.5186 5.12543   3
   1   9   0 61.6572 6.08962   1
  -1   9   0 63.6027 6.45808   1
   2  -9   0 8.76773 2.56931   3
  -2  -9   0 12.7384 2.69866   3
  -2  -9   0 11.6740 2.90445   2
   2   9   0 11.5324 3.48198   1
  -2   9   0 8.52749 3.96056   1
   3  -9   0 39.7981 4.25889   3
  -3  -9   0 37.7319 4.13093   3
  -3  -9   0 38.0782 4.31118   2
  -3   9   0 37.8503 5.71531   1
   3   9   0 44.1460 4.93236   1
   4  -9   0 306.159 12.7224   3
  -4  -9   0 316.371 13.2179   2
  -4   9   0 339.205 15.1850   1
   4   9   0 296.474 12.7484   3
   4   9   0 310.429 13.3690   1
   5  -9   0 -0.9131 2.24106   3
  -5  -9   0 -0.0804 2.75859   2
   5   9   0 -3.4480 2.66740   3
   5   9   0 1.55359 2.35937   1
  -5   9   0 4.21975 4.08261   1
  -6  -9   0 7.95967 3.41243   2
   6  -9   0 6.75141 2.85146   3
   6   9   0 7.80696 3.36674   3
  -6   9   0 9.88671 4.62900   1
   7  -9   0 89.0221 6.55888   3
  -7  -9   0 93.0542 7.45045   2
   7   9   0 87.4651 7.09424   3
  -7   9   0 91.5398 8.46003   1
   8  -9   0 15.1040 3.61674   3
  -8  -9   0 6.93764 4.06490   2
  -8   9   0 14.8953 5.15176   1
   8   9   0 13.6530 4.04379   3
  -9  -9   0 165.727 10.7645   2
   9  -9   0 154.201 9.32962   3
   9   9   0 154.462 9.56529   3
  -9   9   0 154.123 10.7806   1
 -10  -9   0 28.6454 5.91752   2
  10   9   0 25.3579 4.88405   3
 -10   9   0 15.9933 5.35448   1
 -11  -9   0 5.27411 5.06975   2
 -11   9   0 -2.4512 4.60209   1
  11   9   0 -1.9322 4.04874   3
 -12  -9   0 -1.4568 5.08028   2
 -12   9   0 -1.5820 4.54241   1
  12   9   0 13.7318 4.93762   3
 -13  -9   0 47.8696 7.74500   2
 -13   9   0 59.8527 7.77252   1
  13   9   0 54.8061 7.25320   3
 -14  -9   0 1.89968 6.17831   2
  14   9   0 -2.7567 4.90182   3
 -14   9   0 -5.1053 4.88237   1
   0  10   0 11.8763 4.44721   1
  -1  10   0 76.7741 7.68757   1
   1  10   0 86.5620 7.45038   1
   2  10   0 16.2118 4.07916   1
  -2  10   0 7.76775 4.38886   1
  -3  10   0 267.247 13.9410   1
   3  10   0 260.309 12.4888   1
   4  10   0 67.5871 6.36199   1
  -4  10   0 75.0895 8.21944   1
  -5 -10   0 56.7287 5.81522   2
  -5  10   0 52.4986 7.27117   1
  -6 -10   0 5.63831 3.66940   2
  -6  10   0 8.29736 5.12138   1
   6  10   0 4.38600 3.35145   3
  -7 -10   0 2.48516 3.66675   2
   7  10   0 4.77645 3.82786   3
  -7  10   0 10.6337 5.19037   1
  -8 -10   0 6.69636 4.34809   2
  -8  10   0 8.24467 5.50350   1
   8  10   0 1.43236 3.86013   3
  -9 -10   0 38.5336 6.43250   2
  -9  10   0 32.1044 6.76697   1
   9  10   0 29.3614 5.46034   3
 -10 -10   0 7.33472 5.24433   2
  10  10   0 1.59206 4.49902   3
 -10  10   0 4.61461 5.57892   1
 -11 -10   0 126.348 11.0067   2
  11  10   0 143.212 11.5197   3
 -11  10   0 134.089 11.3632   1
 -12 -10   0 -3.4397 5.12556   2
 -12  10   0 2.75079 5.53054   1
   0  11   0 3.05429 3.65657   1
   1  11   0 137.636 9.77757   1
  -1  11   0 156.814 10.3051   1
  -2  11   0 3.95261 4.54147   1
   2  11   0 -3.0032 3.15960   1
   3  11   0 -3.2793 2.84223   1
  -3  11   0 -5.0824 4.43526   1
  -4  11   0 4.67400 5.04032   1
  -5  11   0 86.9310 9.40675   1
  -6  11   0 -8.8698 4.50366   1
  -7  11   0 53.1764 8.31608   1
  -8  11   0 0.59625 5.65240   1
  -9 -11   0 5.34783 4.91709   2
  -9  11   0 1.04422 6.52381   1
 -10 -11   0 6.45651 5.40764   2
   0  12   0 -0.0840 3.96110   1
   1  12   0 23.7892 5.31497   1
  -1  12   0 20.5297 5.50477   1
  -2  12   0 7.23859 4.90668   1
   2  12   0 3.95047 3.98554   1
  -3  12   0 322.990 16.8605   1
  -4  12   0 15.6963 6.44240   1
 -21   0   1 37.3123 6.85313   2
 -20   0   1 1.12258 4.28887   2
  20   0  -1 16.1676 5.63869   3
 -19   0   1 359.660 16.4888   2
  19   0  -1 341.199 16.6341   3
 -18   0   1 1.99067 3.87035   2
  18   0  -1 1.34807 4.28819   3
  17   0  -1 43.2770 6.00871   3
 -17   0   1 47.1558 5.89901   2
 -16   0   1 1.14549 3.12629   2
  16   0  -1 -0.2590 3.22155   3
 -15   0   1 0.03539 3.33917   2
  15   0  -1 6.20252 3.25856   3
 -14   0   1 4.46455 3.17833   2
  14   0  -1 -0.3795 2.68778   3
 -13   0   1 84.8680 6.39890   2
  13   0  -1 79.0607 6.10827   3
 -12   0   1 -1.6384 2.36882   2
  12   0  -1 -0.4404 2.29695   3
 -11   0   1 641.226 22.2834   2
  11   0  -1 617.221 21.9620   3
 -10   0   1 0.15025 1.86178   2
 -10   0   1 -0.2833 0.98962   1
  10   0  -1 0.58291 1.65792   3
   9   0  -1 23.4239 2.97967   3
  -9   0   1 29.4725 2.06526   1
  -9   0   1 26.6077 3.08551   2
  -8   0   1 0.37798 0.87613   1
   8   0  -1 -0.7842 1.34938   3
  -8   0   1 -0.2805 1.49974   2
  -7   0   1 625.683 19.2603   1
   7   0  -1 573.426 19.6229   3
  -7   0   1 570.077 19.8171   2
  -6   0   1 0.27862 1.12138   2
   6   0  -1 0.22120 1.03754   3
  -6   0   1 0.27871 0.70563   1
  -5   0   1 90.1993 3.50388   1
  -5   0   1 81.8854 4.05889   2
  -4   0   1 1.26985 1.00333   2
  -4   0   1 -1.1158 0.56673   1
   4   0  -1 -1.0534 0.79496   3
  -3   0   1 3049.50 93.5851   2
   3   0  -1 3043.99 91.6885   3
  -3   0   1 3064.05 94.9557   1
  -2   0   1 0.06793 0.34646   1
  -2   0   1 0.15078 0.48976   2
   2   0  -1 0.15036 0.50660   3
  -1   0   1 -1.7709 0.10200   2
  -1   0   1 -1.8095 0.19070   1
   1   0  -1 -1.8976 0.19434   3
   0   0   1 -0.0010 0.02467   1
   0   0   1 -0.0001 0.01940   2
   1   0   1 0.10673 0.17773   2
   1   0   1 0.15020 0.15020   3
  -2   0  -1 -0.6292 0.45702   2
  -2   0  -1 0.12810 0.28599   1
   2   0   1 -0.0411 0.43958   3
  -3   0  -1 6.02035 0.67203   1
   3   0   1 3.36671 0.88945   3
  -3   0  -1 4.01135 1.00032   2
  -4   0  -1 -0.0087 0.50926   1
   4   0   1 0.99665 0.84178   3
  -4   0  -1 0.20653 0.94847   2
   5   0   1 373.568 12.9140   3
  -5   0  -1 379.189 13.1649   2
  -5   0  -1 406.710 12.5575   1
  -6   0  -1 -1.9823 0.66134   1
   6   0   1 0.97329 1.21706   3
  -6   0  -1 -0.8827 1.21059   2
  -7   0  -1 52.2905 3.51083   2
  -7   0  -1 59.9781 2.60224   1
   7   0   1 52.1057 3.49892   3
  -8   0  -1 -0.3237 1.37033   2
  -8   0  -1 0.04228 0.78849   1
   8   0   1 0.06470 1.41250   3
  -9   0  -1 841.936 29.2099   2
   9   0   1 831.493 28.7101   3
  -9   0  -1 956.027 28.2247   1
  10   0   1 0.78334 1.79802   3
 -10   0  -1 0.78847 1.85527   2
 -10   0  -1 -1.1082 0.84065   1
  11   0   1 642.229 22.5932   3
 -11   0  -1 659.398 22.9696   2
  12   0   1 2.39189 2.36253   3
 -12   0  -1 -2.8034 2.27123   2
 -13   0  -1 253.058 11.3532   2
  13   0   1 244.905 11.2155   3
  14   0   1 0.91290 2.73792   3
 -14   0  -1 -0.0184 2.74037   2
 -15   0  -1 185.831 10.1989   2
  15   0   1 193.613 10.1924   3
 -16   0  -1 -1.2392 3.39443   2
  16   0   1 1.59256 3.44774   3
  17   0   1 479.073 19.6533   3
 -17   0  -1 469.165 19.6376   2
  18   0   1 5.72506 3.98389   3
 -18   0  -1 -0.8120 3.51365   2
  19   0   1 68.8355 7.79766   3
 -19   0  -1 65.6160 7.30595   2
 -20   0  -1 6.05991 4.63077   2
  20   0   1 -1.8445 4.38174   3
 -20  -1   1 0.63274 4.13579   2
  20  -1  -1 12.1030 5.52430   3
  19  -1  -1 28.5910 5.78568   3
 -19  -1   1 30.7849 5.87890   2
  19   1  -1 27.9206 5.90982   3
 -19   1   1 23.3715 5.13695   2
  18  -1  -1 23.0654 5.27043   3
 -18  -1   1 26.4551 5.35028   2
 -18   1   1 28.1387 5.02800   2
  18   1  -1 21.0942 5.27358   3
  17  -1  -1 352.961 15.7287   3
 -17  -1   1 328.820 15.4052   2
  17   1  -1 342.397 15.6663   3
 -17   1   1 325.044 14.9767   2
  16  -1  -1 71.1088 6.95691   3
 -16  -1   1 67.4647 6.98618   2
 -16   1   1 77.5836 6.83918   2
  16   1  -1 66.0218 6.76198   3
 -15  -1   1 379.007 16.3783   2
  15  -1  -1 364.652 16.0409   3
  15   1  -1 394.546 16.1779   3
 -15   1   1 379.817 15.8151   2
  14  -1  -1 41.2310 5.02135   3
 -14  -1   1 38.8492 5.13798   2
  14   1  -1 39.8003 5.08955   3
 -14   1   1 46.4450 5.05391   2
  13  -1  -1 50.1876 5.16956   3
 -13  -1   1 52.3983 5.29846   2
 -13   1   1 51.0291 4.93797   2
  13   1  -1 47.4177 5.02990   3
  12  -1  -1 655.592 22.9320   3
 -12  -1   1 628.368 23.2124   2
  12   1  -1 633.657 22.7797   3
 -12   1   1 655.834 22.8321   2
  11  -1  -1 49.8732 4.72281   3
 -11  -1   1 39.4028 4.22840   2
 -11   1   1 56.0533 3.51392   1
  11   1  -1 37.5752 4.07093   3
 -11   1   1 48.1698 4.31000   2
 -10  -1   1 3.76882 2.21551   2
  10  -1  -1 2.15117 1.90789   3
  10   1  -1 2.41948 1.99518   3
 -10   1   1 5.06282 1.54388   1
 -10   1   1 4.83830 1.95166   2
   9  -1  -1 812.298 27.9243   3
  -9  -1   1 886.325 26.9008   1
  -9  -1   1 822.803 28.5213   2
  -9   1   1 829.675 28.0870   2
  -9   1   1 906.092 27.9205   1
   9   1  -1 829.600 27.8721   3
  -8  -1   1 187.273 6.17414   1
   8  -1  -1 179.972 7.73490   3
  -8  -1   1 170.629 7.82914   2
  -8   1   1 185.524 7.04370   1
   8   1  -1 181.001 7.63941   3
  -8   1   1 174.841 7.44254   2
  -7  -1   1 1289.15 38.4200   1
  -7  -1   1 1196.66 39.3583   2
   7  -1  -1 1185.68 38.5187   3
   7   1  -1 1196.31 38.4263   3
  -7   1   1 1212.46 38.9176   2
  -7   1   1 1259.53 39.2230   1
   6  -1  -1 589.923 20.0510   3
  -6  -1   1 599.971 20.5149   2
  -6  -1   1 650.708 19.4575   1
   6   1  -1 600.448 19.9598   3
  -6   1   1 612.466 20.1025   2
  -6   1   1 621.093 20.1709   1
  -5  -1   1 554.998 17.0449   1
   5  -1  -1 520.452 17.5217   3
  -5  -1   1 526.790 17.9340   2
   5   1  -1 531.382 17.4313   3
  -5   1   1 534.295 17.6709   1
  -5   1   1 550.268 17.5413   2
  -4  -1   1 242.532 8.78347   2
   4  -1  -1 244.346 8.56039   3
   4   1  -1 230.608 8.36631   3
   4   1  -1 257.050 7.97775   1
  -4   1   1 241.083 8.47643   1
  -4   1   1 242.665 8.32258   2
   3  -1  -1 2537.31 79.2387   3
  -3  -1   1 2532.17 81.0568   2
  -3   1   1 2697.26 82.3275   1
   3   1  -1 2743.95 81.8734   1
   3   1  -1 2589.88 79.1658   3
  -3   1   1 2695.97 80.6706   2
  -2  -1   1 654.230 21.4307   2
   2  -1  -1 685.389 21.0203   2
   2   1  -1 694.369 21.4139   1
   2   1  -1 685.305 20.8343   3
  -2   1   1 673.081 21.7219   1
   1  -1  -1 1385.39 41.3104   2
  -1  -1   1 1390.03 41.7052   2
   1  -1  -1 1200.07 40.6973   3
  -1   1   1 1422.83 42.4874   1
   1   1  -1 1368.18 40.6187   3
   0  -1  -1 316.477 9.32853   2
   0  -1   1 274.887 9.43773   2
   0   1  -1 318.047 9.12266   3
   0   1   1 279.308 9.25660   3
  -1  -1  -1 590.062 18.8090   2
   1  -1   1 602.589 18.6905   2
  -1   1  -1 594.941 19.1705   1
   1   1   1 596.353 18.3778   3
   2  -1   1 354.138 11.5705   3
  -2  -1  -1 371.966 12.0041   2
   2  -1   1 350.772 11.7215   2
   2   1   1 385.138 11.6528   1
   2   1   1 362.639 11.6403   3
  -2   1  -1 367.504 12.0564   1
  -3  -1  -1 23.3122 2.02783   2
   3  -1   1 24.8192 1.85026   3
   3  -1   1 27.9261 1.73860   2
   3   1   1 32.7735 1.93562   3
  -3   1  -1 29.0158 1.83787   1
  -4  -1  -1 53.9029 3.07482   2
   4  -1   1 54.7417 2.73866   2
   4  -1   1 54.0144 2.95565   3
  -4   1  -1 58.7168 2.72425   1
   4   1   1 56.3185 2.88101   3
  -5  -1  -1 484.829 16.2721   2
   5  -1   1 462.737 15.7758   3
   5   1   1 473.182 15.7892   3
  -5   1  -1 507.150 15.9358   1
  -6  -1  -1 3.13475 1.44998   2
   6  -1   1 3.07616 1.21575   3
  -6   1  -1 6.64590 1.44263   2
   6   1   1 3.57307 1.45106   3
  -6   1  -1 5.01220 1.13286   1
   7  -1   1 1136.10 36.6654   3
  -7  -1  -1 1176.38 37.5944   2
   7   1   1 1170.77 36.6658   3
  -7   1  -1 1205.36 37.2376   1
  -7   1  -1 1132.46 37.1511   2
   8  -1   1 47.5413 3.62347   3
  -8  -1  -1 50.6708 3.73878   2
  -8   1  -1 55.2843 3.05779   1
   8   1   1 60.6040 3.82244   3
  -8   1  -1 52.4162 3.59621   2
  -9  -1  -1 35.8952 3.60016   2
   9  -1   1 48.3903 4.17552   3
  -9   1  -1 52.1574 3.05281   1
  -9   1  -1 50.1079 3.85186   2
   9   1   1 44.9904 3.90601   3
 -10  -1  -1 4.74156 2.20899   2
  10  -1   1 4.35874 1.93048   3
  10   1   1 4.10139 1.95578   3
 -10   1  -1 4.08866 1.43704   1
 -10   1  -1 1.26423 1.79802   2
 -11  -1  -1 66.4806 5.24453   2
  11  -1   1 62.1638 4.95841   3
 -11   1  -1 77.2188 3.97844   1
  11   1   1 73.8932 5.16540   3
 -11   1  -1 61.6749 