####################################################################### 
# 
# This file contains crystal structure data downloaded from the 
# Cambridge Structural Database (CSD) hosted by the Cambridge 
# Crystallographic Data Centre (CCDC).
# 
# Full information about CCDC data access policies and citation 
# guidelines are available at http://www.ccdc.cam.ac.uk/access/V1 
# 
# Audit and citation data items may have been added by the CCDC. 
# Please retain this information to preserve the provenance of 
# this file and to allow appropriate attribution of the data. 
# 
#######################################################################

data_pa-3[Cd4(OH)2(4-pt)6(DMF)4]12DMF(112DMF)
_audit_block_doi                 10.5517/ccsbrpj
_database_code_depnum_ccdc_archive 'CCDC 725328'
loop_
_citation_id
_citation_doi
_citation_year
1 10.1039/b907149k 2009
_audit_update_record             
;
2009-03-26 deposited with the CCDC.	2024-07-10 downloaded from the CCDC.
;

_audit_creation_method           SHELXL-97
_chemical_name_systematic        
;
?
;
_chemical_name_common            ?
_chemical_melting_point          ?
_chemical_formula_moiety         'C48 H54 CD4 N34 O6, C36 H84 O12 N12'
_chemical_formula_sum            'C84 H138 Cd4 N46 O18'
_chemical_formula_weight         2530.00

loop_
_atom_type_symbol
_atom_type_description
_atom_type_scat_dispersion_real
_atom_type_scat_dispersion_imag
_atom_type_scat_source
C C 0.0033 0.0016 'International Tables Vol C Tables 4.2.6.8 and 6.1.1.4'
H H 0.0000 0.0000 'International Tables Vol C Tables 4.2.6.8 and 6.1.1.4'
N N 0.0061 0.0033 'International Tables Vol C Tables 4.2.6.8 and 6.1.1.4'
O O 0.0106 0.0060 'International Tables Vol C Tables 4.2.6.8 and 6.1.1.4'
Cd Cd -0.8075 1.2024 'International Tables Vol C Tables 4.2.6.8 and 6.1.1.4'

_symmetry_cell_setting           Cubic
_symmetry_space_group_name_H-M   Pa-3
_symmetry_space_group_name_Hall  -P2ac2ab

loop_
_symmetry_equiv_pos_as_xyz
'x, y, z'
'-x+1/2, -y, z+1/2'
'-x, y+1/2, -z+1/2'
'x+1/2, -y+1/2, -z'
'z, x, y'
'z+1/2, -x+1/2, -y'
'-z+1/2, -x, y+1/2'
'-z, x+1/2, -y+1/2'
'y, z, x'
'-y, z+1/2, -x+1/2'
'y+1/2, -z+1/2, -x'
'-y+1/2, -z, x+1/2'
'-x, -y, -z'
'x-1/2, y, -z-1/2'
'x, -y-1/2, z-1/2'
'-x-1/2, y-1/2, z'
'-z, -x, -y'
'-z-1/2, x-1/2, y'
'z-1/2, x, -y-1/2'
'z, -x-1/2, y-1/2'
'-y, -z, -x'
'y, -z-1/2, x-1/2'
'-y-1/2, z-1/2, x'
'y-1/2, z, -x-1/2'

_cell_length_a                   41.5947(4)
_cell_length_b                   41.5947(4)
_cell_length_c                   41.5947(4)
_cell_angle_alpha                90.00
_cell_angle_beta                 90.00
_cell_angle_gamma                90.00
_cell_volume                     71963.8(12)
_cell_formula_units_Z            24
_cell_measurement_temperature    90(2)
_cell_measurement_reflns_used    6392
_cell_measurement_theta_min      2.19
_cell_measurement_theta_max      16.51

_exptl_crystal_description       block
_exptl_crystal_colour            colorless
_exptl_crystal_size_max          0.30
_exptl_crystal_size_mid          0.30
_exptl_crystal_size_min          0.30
_exptl_crystal_density_meas      ?
_exptl_crystal_density_diffrn    1.401
_exptl_crystal_density_method    'not measured'
_exptl_crystal_F_000             31200
_exptl_absorpt_coefficient_mu    0.735
_exptl_absorpt_correction_type   multi-scan
_exptl_absorpt_correction_T_min  0.8006
_exptl_absorpt_correction_T_max  0.8006
_exptl_absorpt_process_details   'SADABS SHELXL-97 (Sheldrick, 1997)'

_exptl_special_details           
;
?
;

_diffrn_ambient_temperature      90(2)
_diffrn_radiation_wavelength     0.71073
_diffrn_source                   'fine-focus sealed tube'
_diffrn_radiation_type           MoK\a
_diffrn_radiation_probe          x-ray
_diffrn_radiation_monochromator  graphite
_diffrn_measurement_device_type  'Bruker APEX CCD area detector'
_diffrn_measurement_method       'Phi and omega scans'
_diffrn_detector_area_resol_mean 512
_diffrn_standards_number         ?
_diffrn_standards_interval_count ?
_diffrn_standards_interval_time  ?
_diffrn_standards_decay_%        0.001
_diffrn_reflns_number            1158528
_diffrn_reflns_av_R_equivalents  0.0897
_diffrn_reflns_av_sigmaI/netI    0.0590
_diffrn_reflns_limit_h_min       -49
_diffrn_reflns_limit_h_max       49
_diffrn_reflns_limit_k_min       -49
_diffrn_reflns_limit_k_max       49
_diffrn_reflns_limit_l_min       -49
_diffrn_reflns_limit_l_max       49
_diffrn_reflns_theta_min         1.62
_diffrn_reflns_theta_max         25.01
_reflns_number_total             21144
_reflns_number_gt                17369
_reflns_threshold_expression     >2sigma(I)

_computing_data_collection       'Bruker SMART (Bruker, 2002)'
_computing_cell_refinement       'Bruker SMART (Bruker, 2002)'
_computing_data_reduction        'Bruker SAINT (Bruker, 2002)'
_computing_structure_solution    'SHELXS-97 (Sheldrick, 1997)'
_computing_structure_refinement  'SHELXL-97 (Sheldrick, 1997)'
_computing_molecular_graphics    'CrystalMaker (Palmer, 2006)'
_computing_publication_material  'Bruker SHELXTL (Bruker, 2002)'

_refine_special_details          
;
Refinement of F^2^ against ALL reflections. The weighted R-factor wR and
goodness of fit S are based on F^2^, conventional R-factors R are based
on F, with F set to zero for negative F^2^. The threshold expression of
F^2^ > 2sigma(F^2^) is used only for calculating R-factors(gt) etc. and is
not relevant to the choice of reflections for refinement. R-factors based
on F^2^ are statistically about twice as large as those based on F, and R-
factors based on ALL data will be even larger.
;

_refine_ls_structure_factor_coef Fsqd
_refine_ls_matrix_type           full
_refine_ls_weighting_scheme      calc
_refine_ls_weighting_details     
'calc w=1/[\s^2^(Fo^2^)+(0.0924P)^2^+526.2036P] where P=(Fo^2^+2Fc^2^)/3'
_atom_sites_solution_primary     direct
_atom_sites_solution_secondary   difmap
_atom_sites_solution_hydrogens   geom
_refine_ls_hydrogen_treatment    constr
_refine_ls_extinction_method     none
_refine_ls_extinction_coef       ?
_refine_ls_number_reflns         21144
_refine_ls_number_parameters     685
_refine_ls_number_restraints     0
_refine_ls_R_factor_all          0.1232
_refine_ls_R_factor_gt           0.1152
_refine_ls_wR_factor_ref         0.2548
_refine_ls_wR_factor_gt          0.2379
_refine_ls_goodness_of_fit_ref   1.215
_refine_ls_restrained_S_all      1.215
_refine_ls_shift/su_max          0.000
_refine_ls_shift/su_mean         0.000

loop_
_atom_site_label
_atom_site_type_symbol
_atom_site_fract_x
_atom_site_fract_y
_atom_site_fract_z
_atom_site_U_iso_or_equiv
_atom_site_adp_type
_atom_site_occupancy
_atom_site_symmetry_multiplicity
_atom_site_calc_flag
_atom_site_refinement_flags
_atom_site_disorder_assembly
_atom_site_disorder_group
Cd1 Cd 0.55136(2) 0.674305(17) 0.820911(18) 0.0436(2) Uani 1 1 d . . .
Cd2 Cd 0.593877(16) 0.756902(15) 0.787293(15) 0.03047(18) Uani 1 1 d . . .
Cd3 Cd 0.480161(17) 0.829697(17) 1.006466(17) 0.0377(2) Uani 1 1 d . . .
Cd4 Cd 0.443263(16) 0.783988(17) 1.087021(16) 0.03395(19) Uani 1 1 d . . .
O1 O 0.5683(3) 0.6507(3) 0.8695(3) 0.113(4) Uani 1 1 d . . .
O2 O 0.4961(3) 0.6689(3) 0.8321(4) 0.138(5) Uani 1 1 d . . .
O3 O 0.6349(3) 0.7856(3) 0.8144(3) 0.108(4) Uani 1 1 d . . .
O4 O 0.4591(3) 0.8730(2) 0.9794(2) 0.089(3) Uani 1 1 d . . .
O5 O 0.4314(3) 0.7281(3) 1.0889(3) 0.099(3) Uani 1 1 d . . .
O6 O 0.3950(2) 0.7966(3) 1.1143(3) 0.110(4) Uani 1 1 d . . .
N1 N 0.5386(2) 0.7004(2) 0.7709(2) 0.047(2) Uani 1 1 d . . .
N2 N 0.5174(2) 0.6912(2) 0.7484(2) 0.050(2) Uani 1 1 d . . .
N3 N 0.5540(2) 0.7269(2) 0.7615(2) 0.041(2) Uani 1 1 d . . .
N4 N 0.5425(2) 0.7358(2) 0.73291(19) 0.040(2) Uani 1 1 d . . .
N5 N 0.4678(2) 0.7174(2) 0.6374(2) 0.051(2) Uani 1 1 d . . .
N6 N 0.6058(2) 0.6813(2) 0.8068(2) 0.057(3) Uani 1 1 d . . .
N7 N 0.6263(2) 0.6565(2) 0.8041(2) 0.057(3) Uani 1 1 d . . .
N8 N 0.6190(2) 0.7086(2) 0.7975(2) 0.053(2) Uani 1 1 d . . .
N9 N 0.6494(3) 0.7028(2) 0.7872(3) 0.066(3) Uani 1 1 d . . .
N10 N 0.7387(2) 0.6201(2) 0.7655(2) 0.052(2) Uani 1 1 d . . .
N11 N 0.5623(2) 0.7510(2) 0.8352(2) 0.048(2) Uani 1 1 d . . .
N12 N 0.5533(2) 0.7740(2) 0.8556(2) 0.054(2) Uani 1 1 d . . .
N13 N 0.5499(2) 0.7224(2) 0.8456(2) 0.051(2) Uani 1 1 d . . .
N14 N 0.5330(2) 0.7277(2) 0.8722(2) 0.051(2) Uani 1 1 d . . .
N15 N 0.4913(2) 0.8054(2) 0.9571(2) 0.060(3) Uani 1 1 d . . .
N16 N 0.5011(2) 0.7862(2) 1.0347(2) 0.052(2) Uani 1 1 d . . .
N17 N 0.4906(2) 0.7713(2) 1.0603(2) 0.049(2) Uani 1 1 d . . .
N18 N 0.5122(2) 0.7492(2) 1.0692(2) 0.056(2) Uani 1 1 d . . .
N19 N 0.5303(2) 0.7740(2) 1.0266(2) 0.054(2) Uani 1 1 d . . .
N20 N 0.6246(2) 0.7017(3) 1.0504(3) 0.063(3) Uani 1 1 d . . .
N21 N 0.4696(2) 0.8529(2) 1.0556(2) 0.046(2) Uani 1 1 d . . .
N22 N 0.45806(18) 0.8391(2) 1.0822(2) 0.042(2) Uani 1 1 d . . .
N23 N 0.4800(2) 0.8824(2) 1.0622(2) 0.047(2) Uani 1 1 d . . .
N24 N 0.4616(2) 0.8595(2) 1.10663(19) 0.042(2) Uani 1 1 d . . .
N25 N 0.5016(2) 0.9705(2) 1.1453(2) 0.060(3) Uani 1 1 d . . .
N26 N 0.43245(19) 0.8016(2) 1.0111(2) 0.041(2) Uani 1 1 d . . .
N27 N 0.4183(2) 0.7879(2) 1.0357(2) 0.045(2) Uani 1 1 d . . .
N28 N 0.4127(2) 0.8016(2) 0.98548(19) 0.048(2) Uani 1 1 d . . .
N29 N 0.38842(17) 0.7790(2) 1.0277(2) 0.040(2) Uani 1 1 d . . .
N30 N 0.3030(2) 0.7807(2) 0.9365(2) 0.043(2) Uani 1 1 d . . .
C1 C 0.5204(3) 0.7136(2) 0.7256(3) 0.045(3) Uani 1 1 d . . .
C2 C 0.5018(3) 0.7148(3) 0.6959(3) 0.052(3) Uani 1 1 d . . .
C3 C 0.5076(3) 0.7388(3) 0.6730(3) 0.071(4) Uani 1 1 d . . .
H3 H 0.5236 0.7546 0.6768 0.085 Uiso 1 1 calc R . .
C4 C 0.4788(3) 0.6920(3) 0.6888(3) 0.054(3) Uani 1 1 d . . .
H4 H 0.4736 0.6753 0.7035 0.065 Uiso 1 1 calc R . .
C5 C 0.4900(3) 0.7392(3) 0.6449(3) 0.066(4) Uani 1 1 d . . .
H5 H 0.4940 0.7561 0.6300 0.079 Uiso 1 1 calc R . .
C6 C 0.4631(3) 0.6945(3) 0.6588(3) 0.055(3) Uani 1 1 d . . .
H6 H 0.4479 0.6783 0.6536 0.066 Uiso 1 1 calc R . .
C7 C 0.6526(3) 0.6712(3) 0.7915(3) 0.053(3) Uani 1 1 d . . .
C8 C 0.6817(3) 0.6530(3) 0.7822(3) 0.058(3) Uani 1 1 d . . .
C9 C 0.6849(3) 0.6210(3) 0.7883(3) 0.068(4) Uani 1 1 d . . .
H9 H 0.6680 0.6092 0.7982 0.081 Uiso 1 1 calc R . .
C10 C 0.7076(4) 0.6685(4) 0.7687(4) 0.081(4) Uani 1 1 d . . .
H10 H 0.7069 0.6911 0.7655 0.098 Uiso 1 1 calc R . .
C11 C 0.7135(3) 0.6059(3) 0.7797(3) 0.061(3) Uani 1 1 d . . .
H11 H 0.7154 0.5836 0.7843 0.074 Uiso 1 1 calc R . .
C12 C 0.7347(3) 0.6511(3) 0.7597(3) 0.070(4) Uani 1 1 d . . .
H12 H 0.7514 0.6622 0.7487 0.084 Uiso 1 1 calc R . .
C13 C 0.5353(3) 0.7596(3) 0.8773(2) 0.047(3) Uani 1 1 d . . .
C14 C 0.5192(3) 0.7756(3) 0.9048(3) 0.055(3) Uani 1 1 d . . .
C15 C 0.5161(3) 0.8084(3) 0.9057(3) 0.068(4) Uani 1 1 d . . .
H15 H 0.5223 0.8214 0.8880 0.082 Uiso 1 1 calc R . .
C16 C 0.5063(3) 0.7577(3) 0.9293(3) 0.073(4) Uani 1 1 d . . .
H16 H 0.5076 0.7349 0.9293 0.088 Uiso 1 1 calc R . .
C17 C 0.4912(4) 0.7743(3) 0.9539(3) 0.075(4) Uani 1 1 d . . .
H17 H 0.4799 0.7620 0.9695 0.091 Uiso 1 1 calc R . .
C18 C 0.5033(3) 0.8219(3) 0.9336(3) 0.062(3) Uani 1 1 d . . .
H18 H 0.5034 0.8447 0.9354 0.074 Uiso 1 1 calc R . .
C19 C 0.5362(2) 0.7528(3) 1.0476(3) 0.050(3) Uani 1 1 d . . .
C20 C 0.5664(3) 0.7341(3) 1.0490(3) 0.062(3) Uani 1 1 d . . .
C21 C 0.5727(3) 0.7105(3) 1.0713(4) 0.074(4) Uani 1 1 d . . .
H21 H 0.5565 0.7042 1.0861 0.089 Uiso 1 1 calc R . .
C22 C 0.5895(3) 0.7402(3) 1.0250(3) 0.070(4) Uani 1 1 d . . .
H22 H 0.5856 0.7551 1.0082 0.084 Uiso 1 1 calc R . .
C23 C 0.6187(3) 0.7231(3) 1.0272(4) 0.076(4) Uani 1 1 d . . .
H23 H 0.6348 0.7270 1.0115 0.091 Uiso 1 1 calc R . .
C24 C 0.6023(3) 0.6960(3) 1.0723(4) 0.075(4) Uani 1 1 d . . .
H24 H 0.6070 0.6815 1.0893 0.090 Uiso 1 1 calc R . .
C25 C 0.3858(2) 0.7873(2) 0.9968(2) 0.038(2) Uani 1 1 d . . .
C26 C 0.3574(2) 0.7835(3) 0.9766(3) 0.044(2) Uani 1 1 d . . .
C27 C 0.3576(4) 0.7944(7) 0.9457(4) 0.173(13) Uani 1 1 d . . .
H27 H 0.3762 0.8044 0.9371 0.208 Uiso 1 1 calc R . .
C28 C 0.3302(4) 0.7746(6) 0.9874(4) 0.135(9) Uani 1 1 d . . .
H28 H 0.3273 0.7699 1.0095 0.163 Uiso 1 1 calc R . .
C29 C 0.3303(4) 0.7909(8) 0.9270(4) 0.179(14) Uani 1 1 d . . .
H29 H 0.3321 0.7967 0.9050 0.215 Uiso 1 1 calc R . .
C30 C 0.3033(4) 0.7719(5) 0.9647(4) 0.120(8) Uani 1 1 d . . .
H30 H 0.2841 0.7623 0.9727 0.144 Uiso 1 1 calc R . .
C31 C 0.4756(3) 0.8853(3) 1.0938(3) 0.051(3) Uani 1 1 d . . .
C32 C 0.4851(3) 0.9136(3) 1.1117(3) 0.059(3) Uani 1 1 d . . .
C33 C 0.4975(4) 0.9404(3) 1.0970(3) 0.079(4) Uani 1 1 d . . .
H33 H 0.5007 0.9401 1.0744 0.094 Uiso 1 1 calc R . .
C34 C 0.4823(3) 0.9160(3) 1.1446(3) 0.058(3) Uani 1 1 d . . .
H34 H 0.4747 0.8981 1.1566 0.069 Uiso 1 1 calc R . .
C35 C 0.5053(4) 0.9675(3) 1.1138(3) 0.072(4) Uani 1 1 d . . .
H35 H 0.5140 0.9852 1.1022 0.087 Uiso 1 1 calc R . .
C36 C 0.4903(3) 0.9434(3) 1.1602(3) 0.063(3) Uani 1 1 d . . .
H36 H 0.4879 0.9439 1.1829 0.075 Uiso 1 1 calc R . .

loop_
_atom_site_aniso_label
_atom_site_aniso_U_11
_atom_site_aniso_U_22
_atom_site_aniso_U_33
_atom_site_aniso_U_23
_atom_site_aniso_U_13
_atom_site_aniso_U_12
Cd1 0.0575(5) 0.0329(4) 0.0405(4) -0.0093(3) 0.0025(4) 0.0061(3)
Cd2 0.0335(4) 0.0297(4) 0.0282(3) -0.0076(3) 0.0017(3) 0.0076(3)
Cd3 0.0338(4) 0.0418(4) 0.0374(4) -0.0154(3) 0.0065(3) -0.0107(3)
Cd4 0.0257(3) 0.0421(4) 0.0340(4) -0.0096(3) -0.0033(3) 0.0011(3)
O1 0.173(12) 0.074(7) 0.092(8) -0.002(6) -0.004(8) 0.021(8)
O2 0.092(9) 0.125(11) 0.196(15) -0.067(10) 0.022(9) -0.009(8)
O3 0.099(8) 0.126(10) 0.099(8) 0.007(7) -0.006(7) 0.002(7)
O4 0.144(10) 0.066(6) 0.057(6) 0.008(5) 0.003(6) -0.033(6)
O5 0.098(8) 0.097(8) 0.100(8) 0.001(6) 0.010(7) 0.000(6)
O6 0.054(6) 0.171(12) 0.104(8) 0.047(8) -0.017(6) -0.023(7)
N1 0.056(6) 0.039(5) 0.046(5) -0.014(4) -0.001(4) 0.016(4)
N2 0.067(6) 0.040(5) 0.044(5) -0.007(4) -0.018(5) -0.001(4)
N3 0.045(5) 0.036(5) 0.043(5) -0.006(4) 0.000(4) 0.011(4)
N4 0.045(5) 0.040(5) 0.037(5) -0.003(4) -0.002(4) 0.008(4)
N5 0.055(6) 0.044(5) 0.054(6) 0.015(5) -0.004(5) 0.000(4)
N6 0.058(6) 0.061(6) 0.050(6) -0.006(5) 0.000(5) 0.021(5)
N7 0.060(6) 0.045(5) 0.066(6) 0.003(5) 0.003(5) 0.019(5)
N8 0.052(6) 0.050(6) 0.059(6) -0.001(5) 0.005(5) 0.007(5)
N9 0.067(7) 0.051(6) 0.078(7) 0.013(5) 0.010(6) 0.020(5)
N10 0.053(6) 0.038(5) 0.065(6) 0.011(4) -0.015(5) 0.004(4)
N11 0.057(6) 0.037(5) 0.049(5) -0.010(4) -0.004(4) 0.005(4)
N12 0.077(7) 0.039(5) 0.047(5) -0.022(4) 0.006(5) 0.010(5)
N13 0.058(6) 0.064(6) 0.033(5) -0.016(4) 0.007(4) 0.011(5)
N14 0.071(6) 0.038(5) 0.044(5) -0.001(4) 0.014(5) -0.005(4)
N15 0.058(6) 0.059(7) 0.063(7) -0.010(5) 0.015(5) -0.020(5)
N16 0.027(5) 0.060(6) 0.069(7) -0.019(5) 0.003(4) 0.002(4)
N17 0.031(5) 0.054(6) 0.062(6) -0.011(5) -0.012(4) 0.003(4)
N18 0.051(6) 0.063(6) 0.053(6) -0.007(5) -0.002(5) 0.003(5)
N19 0.031(5) 0.059(6) 0.071(7) 0.006(5) 0.005(5) -0.001(4)
N20 0.059(6) 0.063(7) 0.068(7) 0.003(6) 0.020(5) 0.009(5)
N21 0.039(5) 0.040(5) 0.058(6) -0.012(4) 0.002(4) 0.004(4)
N22 0.027(4) 0.055(5) 0.044(5) -0.013(4) 0.000(4) -0.001(4)
N23 0.052(5) 0.042(5) 0.048(5) -0.012(4) 0.013(4) -0.006(4)
N24 0.049(5) 0.043(5) 0.035(5) -0.021(4) 0.003(4) -0.004(4)
N25 0.071(7) 0.063(6) 0.045(6) -0.010(5) 0.030(5) -0.019(5)
N26 0.032(4) 0.047(5) 0.043(5) -0.015(4) -0.002(4) 0.001(4)
N27 0.042(5) 0.056(6) 0.036(5) -0.015(4) 0.000(4) -0.004(4)
N28 0.040(5) 0.074(6) 0.029(4) 0.000(4) -0.008(4) -0.007(5)
N29 0.020(4) 0.058(5) 0.043(5) -0.003(4) -0.007(3) -0.012(4)
N30 0.047(5) 0.048(5) 0.033(5) -0.006(4) 0.006(4) -0.008(4)
C1 0.047(6) 0.039(6) 0.049(6) -0.005(5) -0.009(5) 0.003(5)
C2 0.052(7) 0.051(7) 0.053(7) 0.005(6) -0.003(5) 0.004(6)
C3 0.081(9) 0.081(9) 0.051(7) 0.012(7) -0.034(7) -0.034(8)
C4 0.054(7) 0.057(7) 0.052(7) 0.017(6) -0.010(6) -0.005(6)
C5 0.078(9) 0.054(7) 0.065(8) 0.010(6) -0.009(7) -0.025(7)
C6 0.054(7) 0.057(7) 0.054(7) -0.004(6) -0.015(6) -0.004(6)
C7 0.041(6) 0.055(7) 0.063(7) 0.008(6) 0.000(5) 0.013(5)
C8 0.056(7) 0.052(7) 0.066(8) 0.013(6) -0.004(6) 0.018(6)
C9 0.042(7) 0.067(8) 0.093(10) 0.010(7) 0.008(7) 0.019(6)
C10 0.076(10) 0.066(9) 0.102(12) 0.026(8) 0.017(9) 0.028(8)
C11 0.060(8) 0.048(7) 0.076(9) 0.001(6) 0.001(7) 0.007(6)
C12 0.053(7) 0.071(9) 0.088(10) 0.028(7) 0.022(7) 0.013(6)
C13 0.058(7) 0.052(7) 0.030(5) -0.007(5) 0.022(5) 0.004(5)
C14 0.056(7) 0.048(7) 0.060(7) -0.016(6) 0.010(6) -0.010(6)
C15 0.092(10) 0.070(9) 0.043(7) -0.027(6) 0.028(7) -0.006(7)
C16 0.099(11) 0.063(8) 0.057(8) -0.036(7) 0.028(7) -0.028(8)
C17 0.095(11) 0.064(9) 0.067(9) -0.020(7) 0.037(8) -0.042(8)
C18 0.079(9) 0.047(7) 0.060(8) -0.016(6) 0.017(7) 0.006(6)
C19 0.028(5) 0.070(8) 0.054(7) -0.021(6) -0.003(5) 0.006(5)
C20 0.054(7) 0.067(8) 0.067(8) -0.008(7) 0.004(6) 0.008(6)
C21 0.045(7) 0.078(9) 0.100(11) 0.016(8) 0.024(7) 0.018(7)
C22 0.058(8) 0.069(9) 0.083(10) 0.016(7) 0.011(7) 0.019(7)
C23 0.045(7) 0.081(10) 0.101(11) 0.024(9) 0.013(7) 0.006(7)
C24 0.053(8) 0.077(9) 0.096(11) 0.025(8) 0.018(7) 0.015(7)
C25 0.031(5) 0.047(6) 0.037(6) -0.013(5) 0.001(4) -0.001(4)
C26 0.033(5) 0.051(6) 0.047(6) -0.012(5) 0.003(5) -0.003(5)
C27 0.051(10) 0.38(4) 0.090(13) 0.098(19) -0.020(9) -0.060(16)
C28 0.077(11) 0.25(3) 0.075(11) 0.074(14) -0.042(9) -0.068(14)
C29 0.064(11) 0.40(4) 0.075(12) 0.068(18) -0.020(9) -0.063(18)
C30 0.065(10) 0.20(2) 0.100(13) 0.070(14) -0.018(9) -0.058(12)
C31 0.059(7) 0.038(6) 0.056(7) -0.019(5) 0.005(6) -0.006(5)
C32 0.071(8) 0.049(7) 0.057(7) -0.011(6) 0.015(6) -0.009(6)
C33 0.112(12) 0.065(9) 0.058(8) -0.028(7) 0.030(8) -0.029(8)
C34 0.084(9) 0.033(6) 0.055(7) -0.015(5) 0.003(6) -0.014(6)
C35 0.104(11) 0.047(7) 0.065(9) -0.008(6) 0.031(8) -0.023(7)
C36 0.075(9) 0.069(8) 0.044(7) -0.019(6) 0.013(6) -0.016(7)

_geom_special_details            
;
All esds (except the esd in the dihedral angle between two l.s. planes)
are estimated using the full covariance matrix. The cell esds are taken
into account in