####################################################################### 
# 
# This file contains crystal structure data downloaded from the 
# Cambridge Structural Database (CSD) hosted by the Cambridge 
# Crystallographic Data Centre (CCDC).
# 
# Full information about CCDC data access policies and citation 
# guidelines are available at http://www.ccdc.cam.ac.uk/access/V1 
# 
# Audit and citation data items may have been added by the CCDC. 
# Please retain this information to preserve the provenance of 
# this file and to allow appropriate attribution of the data. 
# 
#######################################################################

data_cuidabco_tol_2
_audit_block_doi                 10.5517/ccs8pwl
_database_code_depnum_ccdc_archive 'CCDC 723350'
loop_
_citation_id
_citation_doi
_citation_year
1 10.1002/chem.200900743 2010
_audit_update_record             
;
2009-03-09 deposited with the CCDC.	2024-07-10 downloaded from the CCDC.
;

_audit_creation_method           SHELXL-97
_chemical_name_systematic        
;
?
;
_chemical_name_common            ?
_chemical_melting_point          ?
_chemical_formula_moiety         'C12 H24 Cu4 I4 N4'
_chemical_formula_sum            'C12 H24 Cu4 I4 N4'
_chemical_formula_weight         986.11

loop_
_atom_type_symbol
_atom_type_description
_atom_type_scat_dispersion_real
_atom_type_scat_dispersion_imag
_atom_type_scat_source
C C 0.0033 0.0016 'International Tables Vol C Tables 4.2.6.8 and 6.1.1.4'
H H 0.0000 0.0000 'International Tables Vol C Tables 4.2.6.8 and 6.1.1.4'
Cu Cu 0.3201 1.2651 'International Tables Vol C Tables 4.2.6.8 and 6.1.1.4'
I I -0.4742 1.8119 'International Tables Vol C Tables 4.2.6.8 and 6.1.1.4'
N N 0.0061 0.0033 'International Tables Vol C Tables 4.2.6.8 and 6.1.1.4'

_symmetry_cell_setting           Tetragonal
_symmetry_space_group_name_H-M   P4/mcc

loop_
_symmetry_equiv_pos_as_xyz
'x, y, z'
'x, -y, -z+1/2'
'-x, -y, z'
'-x, y, -z+1/2'
'y, x, -z+1/2'
'y, -x, z'
'-y, x, z'
'-y, -x, -z+1/2'
'-x, -y, -z'
'-x, y, z-1/2'
'x, y, -z'
'x, -y, z-1/2'
'-y, -x, z-1/2'
'-y, x, -z'
'y, -x, -z'
'y, x, z-1/2'

_cell_length_a                   18.2095(14)
_cell_length_b                   18.2095(14)
_cell_length_c                   16.0985(17)
_cell_angle_alpha                90.00
_cell_angle_beta                 90.00
_cell_angle_gamma                90.00
_cell_volume                     5338.0(8)
_cell_formula_units_Z            8
_cell_measurement_temperature    293(2)
_cell_measurement_reflns_used    17374
_cell_measurement_theta_min      2.4886
_cell_measurement_theta_max      29.1424

_exptl_crystal_description       prism
_exptl_crystal_colour            colorless
_exptl_crystal_size_max          0.2
_exptl_crystal_size_mid          0.2
_exptl_crystal_size_min          0.1
_exptl_crystal_density_meas      ?
_exptl_crystal_density_diffrn    2.454
_exptl_crystal_density_method    'not measured'
_exptl_crystal_F_000             3616
_exptl_absorpt_coefficient_mu    7.774
_exptl_absorpt_correction_T_min  0.34145
_exptl_absorpt_correction_T_max  1.00000
_exptl_absorpt_correction_type   multi-scan
_exptl_absorpt_process_details   
;
CrysAlis RED, Oxford Diffraction Ltd.,
Version 1.171.32.15 (release 10-01-2008 CrysAlis171 .NET)
(compiled Jan 10 2008,16:37:18)
Empirical absorption correction using spherical harmonics,
implemented in SCALE3 ABSPACK scaling algorithm.
;

_exptl_special_details           
;
?
;

_diffrn_ambient_temperature      293(2)
_diffrn_radiation_wavelength     0.71073
_diffrn_radiation_type           MoK\a
_diffrn_radiation_source         'Enhance (Mo) X-ray Source'
_diffrn_radiation_monochromator  graphite
_diffrn_measurement_device_type  ?
_diffrn_measurement_method       ?
_diffrn_detector_area_resol_mean ?
_diffrn_standards_number         ?
_diffrn_standards_interval_count ?
_diffrn_standards_interval_time  ?
_diffrn_standards_decay_%        ?
_diffrn_reflns_number            55530
_diffrn_reflns_av_R_equivalents  0.0542
_diffrn_reflns_av_sigmaI/netI    0.0425
_diffrn_reflns_limit_h_min       -24
_diffrn_reflns_limit_h_max       24
_diffrn_reflns_limit_k_min       -24
_diffrn_reflns_limit_k_max       23
_diffrn_reflns_limit_l_min       -16
_diffrn_reflns_limit_l_max       21
_diffrn_reflns_theta_min         2.50
_diffrn_reflns_theta_max         29.33
_reflns_number_total             3545
_reflns_number_gt                2377
_reflns_threshold_expression     >2\s(I)

_computing_data_collection       
;
CrysAlis CCD, Oxford Diffraction Ltd.,
Version 1.171.32.15 (release 10-01-2008 CrysAlis171 .NET)
(compiled Jan 10 2008,16:37:18)
;
_computing_cell_refinement       
;
CrysAlis RED, Oxford Diffraction Ltd.,
Version 1.171.32.15 (release 10-01-2008 CrysAlis171 .NET)
(compiled Jan 10 2008,16:37:18)
;

_computing_data_reduction        
;
CrysAlis RED, Oxford Diffraction Ltd.,
Version 1.171.32.15 (release 10-01-2008 CrysAlis171 .NET)
(compiled Jan 10 2008,16:37:18)
;
_computing_structure_solution    ?
_computing_structure_refinement  'SHELXL-97 (Sheldrick, 1997)'
_computing_molecular_graphics    ?
_computing_publication_material  ?

_refine_special_details          
;
Refinement of F^2^ against ALL reflections. The weighted R-factor wR and
goodness of fit S are based on F^2^, conventional R-factors R are based
on F, with F set to zero for negative F^2^. The threshold expression of
F^2^ > 2\s(F^2^) is used only for calculating R-factors(gt) etc. and is
not relevant to the choice of reflections for refinement. R-factors based
on F^2^ are statistically about twice as large as those based on F, and R-
factors based on ALL data will be even larger.
;

_refine_ls_structure_factor_coef Fsqd
_refine_ls_matrix_type           full
_refine_ls_weighting_scheme      calc
_refine_ls_weighting_details     
'calc w=1/[\s^2^(Fo^2^)+(0.0529P)^2^+0.0000P] where P=(Fo^2^+2Fc^2^)/3'
_atom_sites_solution_primary     direct
_atom_sites_solution_secondary   difmap
_atom_sites_solution_hydrogens   geom
_refine_ls_hydrogen_treatment    constr
_refine_ls_extinction_method     SHELXL
_refine_ls_extinction_coef       0.000000(16)
_refine_ls_extinction_expression Fc^*^=kFc[1+0.001xFc^2^\l^3^/sin(2\q)]^-1/4^
_refine_ls_number_reflns         3545
_refine_ls_number_parameters     122
_refine_ls_number_restraints     0
_refine_ls_R_factor_all          0.0863
_refine_ls_R_factor_gt           0.0394
_refine_ls_wR_factor_ref         0.0975
_refine_ls_wR_factor_gt          0.0871
_refine_ls_goodness_of_fit_ref   1.018
_refine_ls_restrained_S_all      1.018
_refine_ls_shift/su_max          2.321
_refine_ls_shift/su_mean         0.019

loop_
_atom_site_label
_atom_site_type_symbol
_atom_site_fract_x
_atom_site_fract_y
_atom_site_fract_z
_atom_site_U_iso_or_equiv
_atom_site_adp_type
_atom_site_occupancy
_atom_site_symmetry_multiplicity
_atom_site_calc_flag
_atom_site_refinement_flags
_atom_site_disorder_assembly
_atom_site_disorder_group
N2 N 0.2603(3) 0.1482(3) 0.0000 0.0357(15) Uani 1 2 d S . .
N1 N 0.2954(3) 0.0099(3) 0.0000 0.0350(15) Uani 1 2 d S . .
N3 N 0.2249(3) 0.4544(2) 0.1877(3) 0.0398(12) Uani 1 1 d . . .
C2 C 0.2143(4) 0.0198(4) 0.0000 0.043(2) Uani 1 2 d S . .
H2A H 0.1937 -0.0038 0.0487 0.051 Uiso 0.50 1 calc PR . .
H2B H 0.1937 -0.0038 -0.0487 0.051 Uiso 0.50 1 calc PR . .
C4 C 0.1930(4) 0.1011(4) 0.0000 0.046(2) Uani 1 2 d S . .
H4A H 0.1637 0.1119 -0.0488 0.056 Uiso 0.50 1 calc PR . .
H4B H 0.1637 0.1119 0.0488 0.056 Uiso 0.50 1 calc PR . .
C8 C 0.2584(4) 0.5251(3) 0.1653(4) 0.0488(16) Uani 1 1 d . . .
H8A H 0.2284 0.5493 0.1237 0.059 Uiso 1 1 calc R . .
H8B H 0.3067 0.5166 0.1416 0.059 Uiso 1 1 calc R . .
C1 C 0.3251(3) 0.0474(3) 0.0747(4) 0.0442(15) Uani 1 1 d . . .
H1A H 0.3782 0.0428 0.0757 0.053 Uiso 1 1 calc R . .
H1B H 0.3058 0.0242 0.1244 0.053 Uiso 1 1 calc R . .
C7 C 0.1498(3) 0.4689(4) 0.2188(4) 0.0543(18) Uani 1 1 d . . .
H7A H 0.1305 0.4248 0.2447 0.065 Uiso 1 1 calc R . .
H7B H 0.1181 0.4814 0.1725 0.065 Uiso 1 1 calc R . .
C5 C 0.3036(4) 0.1295(3) 0.0740(4) 0.0507(17) Uani 1 1 d . . .
H5A H 0.2753 0.1407 0.1234 0.061 Uiso 1 1 calc R . .
H5B H 0.3478 0.1593 0.0752 0.061 Uiso 1 1 calc R . .
C9 C 0.2655(4) 0.4250(3) 0.2577(5) 0.0551(17) Uani 1 1 d . . .
H9A H 0.3169 0.4204 0.2428 0.066 Uiso 1 1 calc R . .
H9B H 0.2471 0.3765 0.2710 0.066 Uiso 1 1 calc R . .
I1 I 0.11118(3) 0.46567(3) 0.0000 0.04234(16) Uani 1 2 d S . .
I2 I 0.15147(2) 0.26530(2) 0.14456(3) 0.04355(13) Uani 1 1 d . . .
I3 I 0.33702(3) 0.35833(3) 0.0000 0.04838(18) Uani 1 2 d S . .
Cu3 Cu 0.10134(6) 0.32099(6) 0.0000 0.0457(3) Uani 1 2 d S . .
Cu1 Cu 0.22911(6) 0.25812(6) 0.0000 0.0469(3) Uani 1 2 d S . .
Cu2 Cu 0.21480(5) 0.38572(4) 0.08372(5) 0.0495(2) Uani 1 1 d . . .

loop_
_atom_site_aniso_label
_atom_site_aniso_U_11
_atom_site_aniso_U_22
_atom_site_aniso_U_33
_atom_site_aniso_U_23
_atom_site_aniso_U_13
_atom_site_aniso_U_12
N2 0.034(4) 0.024(3) 0.049(4) 0.000 0.000 -0.001(3)
N1 0.035(4) 0.028(3) 0.042(4) 0.000 0.000 0.003(3)
N3 0.049(3) 0.038(3) 0.033(3) -0.004(2) -0.004(2) -0.003(2)
C2 0.028(4) 0.039(5) 0.060(6) 0.000 0.000 -0.004(4)
C4 0.034(4) 0.037(5) 0.068(7) 0.000 0.000 -0.001(4)
C8 0.058(4) 0.054(4) 0.034(4) 0.003(3) 0.005(3) -0.004(3)
C1 0.039(3) 0.044(3) 0.050(4) 0.002(3) -0.011(3) 0.004(3)
C7 0.043(4) 0.072(5) 0.048(4) -0.021(3) 0.004(3) -0.005(3)
C5 0.050(4) 0.045(4) 0.057(4) -0.003(3) -0.021(3) 0.005(3)
C9 0.069(4) 0.043(4) 0.054(4) -0.006(3) 0.000(4) 0.009(3)
I1 0.0505(3) 0.0325(3) 0.0440(3) 0.000 0.000 0.0079(2)
I2 0.0548(3) 0.0376(2) 0.0383(2) 0.00314(18) 0.00122(19) -0.00002(17)
I3 0.0340(3) 0.0517(4) 0.0595(4) 0.000 0.000 0.0004(3)
Cu3 0.0333(6) 0.0444(6) 0.0594(7) 0.000 0.000 -0.0036(5)
Cu1 0.0510(7) 0.0310(5) 0.0588(8) 0.000 0.000 0.0066(5)
Cu2 0.0599(5) 0.0456(4) 0.0428(5) -0.0109(4) 0.0044(4) -0.0008(4)

_geom_special_details            
;
All s.u.'s (except the s.u. in the dihedral angle between two l.s. planes)
are estimated using the full covariance matrix. The cell s.u.'s are taken
into account individually in the estimation of s.u.'s in distances, angles
and torsion angles; correlations between s.u.'s in cell parameters are only
used when they are defined by crystal symmetry. An approximate (isotropic)
treatment of cell s.u.'s is used for estimating s.u.'s involving l.s. planes.
;

loop_
_geom_bond_atom_site_label_1
_geom_bond_atom_site_label_2
_geom_bond_distance
_geom_bond_site_symmetry_2
_geom_bond_publ_flag
N2 C5 1.469(7) 11 ?
N2 C5 1.469(7) . ?
N2 C4 1.497(10) . ?
N2 Cu1 2.080(6) . ?
N1 C1 1.485(7) . ?
N1 C1 1.485(7) 11 ?
N1 C2 1.488(9) . ?
N1 Cu3 2.079(6) 6 ?
N3 C9 1.450(8) . ?
N3 C8 1.470(7) . ?
N3 C7 1.480(7) . ?
N3 Cu2 2.097(5) . ?
C2 C4 1.530(11) . ?
C2 H2A 0.9700 . ?
C2 H2B 0.9700 . ?
C4 H4A 0.9700 . ?
C4 H4B 0.9700 . ?
C8 C9 1.541(9) 2_565 ?
C8 H8A 0.9700 . ?
C8 H8B 0.9700 . ?
C1 C5 1.547(8) . ?
C1 H1A 0.9700 . ?
C1 H1B 0.9700 . ?
C7 C7 1.515(12) 2_565 ?
C7 H7A 0.9700 . ?
C7 H7B 0.9700 . ?
C5 H5A 0.9700 . ?
C5 H5B 0.9700 . ?
C9 C8 1.541(9) 2_565 ?
C9 H9A 0.9700 . ?
C9 H9B 0.9700 . ?
I1 Cu3 2.6406(12) . ?
I1 Cu2 2.7380(10) . ?
I1 Cu2 2.7380(10) 11 ?
I2 Cu2 2.6641(9) . ?
I2 Cu3 2.6976(7) . ?
I2 Cu1 2.7261(7) . ?
I3 Cu2 2.6493(10) . ?
I3 Cu2 2.6493(10) 11 ?
I3 Cu1 2.6816(13) . ?
Cu3 N1 2.079(6) 14 ?
Cu3 Cu1 2.5930(15) . ?
Cu3 I2 2.6976(7) 11 ?
Cu3 Cu2 2.7339(12) . ?
Cu3 Cu2 2.7339(12) 11 ?
Cu1 Cu2 2.6988(11) . ?
Cu1 Cu2 2.6988(11) 11 ?
Cu1 I2 2.7261(7) 11 ?
Cu2 Cu2 2.6956(17) 11 ?

loop_
_geom_angle_atom_site_label_1
_geom_angle_atom_site_label_2
_geom_angle_atom_site_label_3
_geom_angle
_geom_angle_site_symmetry_1
_geom_angle_site_symmetry_3
_geom_angle_publ_flag
C5 N2 C5 108.4(7) 11 . ?
C5 N2 C4 107.9(4) 11 . ?
C5 N2 C4 107.9(4) . . ?
C5 N2 Cu1 111.7(3) 11 . ?
C5 N2 Cu1 111.7(3) . . ?
C4 N2 Cu1 109.1(5) . . ?
C1 N1 C1 108.2(6) . 11 ?
C1 N1 C2 107.8(4) . . ?
C1 N1 C2 107.8(4) 11 . ?
C1 N1 Cu3 111.5(3) . 6 ?
C1 N1 Cu3 111.5(3) 11 6 ?
C2 N1 Cu3 109.9(5) . 6 ?
C9 N3 C8 107.6(5) . . ?
C9 N3 C7 105.9(5) . . ?
C8 N3 C7 108.1(5) . . ?
C9 N3 Cu2 116.5(4) . . ?
C8 N3 Cu2 111.3(4) . . ?
C7 N3 Cu2 107.2(3) . . ?
N1 C2 C4 111.6(6) . . ?
N1 C2 H2A 109.3 . . ?
C4 C2 H2A 109.3 . . ?
N1 C2 H2B 109.3 . . ?
C4 C2 H2B 109.3 . . ?
H2A C2 H2B 108.0 . . ?
N2 C4 C2 110.3(6) . . ?
N2 C4 H4A 109.6 . . ?
C2 C4 H4A 109.6 . . ?
N2 C4 H4B 109.6 . . ?
C2 C4 H4B 109.6 . . ?
H4A C4 H4B 108.1 . . ?
N3 C8 C9 110.7(5) . 2_565 ?
N3 C8 H8A 109.5 . . ?
C9 C8 H8A 109.5 2_565 . ?
N3 C8 H8B 109.5 . . ?
C9 C8 H8B 109.5 2_565 . ?
H8A C8 H8B 108.1 . . ?
N1 C1 C5 110.3(5) . . ?
N1 C1 H1A 109.6 . . ?
C5 C1 H1A 109.6 . . ?
N1 C1 H1B 109.6 . . ?
C5 C1 H1B 109.6 . . ?
H1A C1 H1B 108.1 . . ?
N3 C7 C7 111.0(3) . 2_565 ?
N3 C7 H7A 109.4 . . ?
C7 C7 H7A 109.4 2_565 . ?
N3 C7 H7B 109.4 . . ?
C7 C7 H7B 109.4 2_565 . ?
H7A C7 H7B 108.0 . . ?
N2 C5 C1 111.5(5) . . ?
N2 C5 H5A 109.3 . . ?
C1 C5 H5A 109.3 . . ?
N2 C5 H5B 109.3 . . ?
C1 C5 H5B 109.3 . . ?
H5A C5 H5B 108.0 . . ?
N3 C9 C8 111.4(5) . 2_565 ?
N3 C9 H9A 109.3 . . ?
C8 C9 H9A 109.3 2_565 . ?
N3 C9 H9B 109.3 . . ?
C8 C9 H9B 109.3 2_565 . ?
H9A C9 H9B 108.0 . . ?
Cu3 I1 Cu2 61.07(3) . . ?
Cu3 I1 Cu2 61.07(3) . 11 ?
Cu2 I1 Cu2 58.98(4) . 11 ?
Cu2 I2 Cu3 61.31(3) . . ?
Cu2 I2 Cu1 60.08(3) . . ?
Cu3 I2 Cu1 57.12(3) . . ?
Cu2 I3 Cu2 61.16(4) . 11 ?
Cu2 I3 Cu1 60.82(3) . . ?
Cu2 I3 Cu1 60.82(3) 11 . ?
N1 Cu3 Cu1 140.85(18) 14 . ?
N1 Cu3 I1 106.84(17) 14 . ?
Cu1 Cu3 I1 112.31(4) . . ?
N1 Cu3 I2 104.21(8) 14 11 ?
Cu1 Cu3 I2 61.99(2) . 11 ?
I1 Cu3 I2 110.62(3) . 11 ?
N1 Cu3 I2 104.21(8) 14 . ?
Cu1 Cu3 I2 61.99(2) . . ?
I1 Cu3 I2 110.62(3) . . ?
I2 Cu3 I2 119.23(4) 11 . ?
N1 Cu3 Cu2 146.42(8) 14 . ?
Cu1 Cu3 Cu2 60.81(3) . . ?
I1 Cu3 Cu2 61.22(3) . . ?
I2 Cu3 Cu2 109.37(4) 11 . ?
I2 Cu3 Cu2 58.74(2) . . ?
N1 Cu3 Cu2 146.42(8) 14 11 ?
Cu1 Cu3 Cu2 60.81(3) . 11 ?
I1 Cu3 Cu2 61.22(3) . 11 ?
I2 Cu3 Cu2 58.74(2) 11 11 ?
I2 Cu3 Cu2 109.37(4) . 11 ?
Cu2 Cu3 Cu2 59.08(4) . 11 ?
N2 Cu1 Cu3 132.07(18) . . ?
N2 Cu1 I3 117.01(18) . . ?
Cu3 Cu1 I3 110.92(4) . . ?
N2 Cu1 Cu2 148.71(5) . . ?
Cu3 Cu1 Cu2 62.18(3) . . ?
I3 Cu1 Cu2 58.99(3) . . ?
N2 Cu1 Cu2 148.71(5) . 11 ?
Cu3 Cu1 Cu2 62.18(3) . 11 ?
I3 Cu1 Cu2 58.99(3) . 11 ?
Cu2 Cu1 Cu2 59.92(4) . 11 ?
N2 Cu1 I2 100.83(9) . 11 ?
Cu3 Cu1 I2 60.89(2) . 11 ?
I3 Cu1 I2 110.33(3) . 11 ?
Cu2 Cu1 I2 109.57(4) . 11 ?
Cu2 Cu1 I2 58.82(2) 11 11 ?
N2 Cu1 I2 100.83(9) . . ?
Cu3 Cu1 I2 60.89(2) . . ?
I3 Cu1 I2 110.33(3) . . ?
Cu2 Cu1 I2 58.82(2) . . ?
Cu2 Cu1 I2 109.57(4) 11 . ?
I2 Cu1 I2 117.22(4) 11 . ?
N3 Cu2 I3 116.39(14) . . ?
N3 Cu2 I2 103.60(13) . . ?
I3 Cu2 I2 113.31(3) . . ?
N3 Cu2 Cu2 142.96(13) . 11 ?
I3 Cu2 Cu2 59.42(2) . 11 ?
I2 Cu2 Cu2 111.568(19) . 11 ?
N3 Cu2 Cu1 154.59(14) . . ?
I3 Cu2 Cu1 60.18(3) . . ?
I2 Cu2 Cu1 61.10(3) . . ?
Cu2 Cu2 Cu1 60.04(2) 11 . ?
N3 Cu2 Cu3 135.79(14) . . ?
I3 Cu2 Cu3 107.63(3) . . ?
I2 Cu2 Cu3 59.95(2) . . ?
Cu2 Cu2 Cu3 60.46(2) 11 . ?
Cu1 Cu2 Cu3 57.01(4) . . ?
N3 Cu2 I1 97.85(14) . . ?
I3 Cu2 I1 115.38(3) . . ?
I2 Cu2 I1 108.68(3) . . ?
Cu2 Cu2 I1 60.511(18) 11 . ?
Cu1 Cu2 I1 106.17(3) . . ?
Cu3 Cu2 I1 57.71(3) . . ?

_diffrn_measured_fraction_theta_max 0.932
_diffrn_reflns_theta_full        25.00
_diffrn_measured_fraction_theta_full 0.999
_refine_diff_density_max         0.853
_refine_diff_density_min         -0.859
_refine_diff_density_rms         0.132
loop_
_platon_squeeze_void_nr
_platon_squeeze_void_average_x
_platon_squeeze_void_average_y
_platon_squeeze_void_average_z
_platon_squeeze_void_volume
_platon_squeeze_void_count_electrons
_platon_squeeze_void_content
1 0.000 0.000 -0.004 644 201 ' '
2 0.500 0.500 -0.006 315 101 ' '
3 0.000 0.404 0.250 15 4 ' '
4 0.000 0.596 0.250 15 4 ' '
5 0.404 0.000 0.250 15 4 ' '
6 0.596 0.000 0.250 15 4 ' '
7 0.000 0.404 0.750 15 4 ' '
8 0.000 0.596 0.750 15 4 ' '
9 0.404 0.000 0.750 15 4 ' '
10 0.596 0.000 0.750 15 4 ' '
_platon_squeeze_details          
;
;


