####################################################################### 
# 
# This file contains crystal structure data downloaded from the 
# Cambridge Structural Database (CSD) hosted by the Cambridge 
# Crystallographic Data Centre (CCDC).
# 
# Full information about CCDC data access policies and citation 
# guidelines are available at http://www.ccdc.cam.ac.uk/access/V1 
# 
# Audit and citation data items may have been added by the CCDC. 
# Please retain this information to preserve the provenance of 
# this file and to allow appropriate attribution of the data. 
# 
#######################################################################

data_CdIF-5
_audit_block_doi                 10.5517/ccsyqm1
_database_code_depnum_ccdc_archive 'CCDC 743554'
loop_
_citation_id
_citation_doi
_citation_year
1 10.1002/chem.200902729 2010
_audit_update_record             
;
2009-08-10 deposited with the CCDC.	2024-07-10 downloaded from the CCDC.
;

_audit_creation_method           SHELXL-97
_chemical_name_systematic        
;
?
;
_chemical_name_common            'cadmium 2-methylimidazolate'
_chemical_melting_point          ?
_chemical_formula_moiety         ?
_chemical_formula_sum            'C48 H60 Cd6 N24'
_chemical_formula_weight         1647.60

loop_
_atom_type_symbol
_atom_type_description
_atom_type_scat_dispersion_real
_atom_type_scat_dispersion_imag
_atom_type_scat_source
C C 0.0033 0.0016 'International Tables Vol C Tables 4.2.6.8 and 6.1.1.4'
H H 0.0000 0.0000 'International Tables Vol C Tables 4.2.6.8 and 6.1.1.4'
N N 0.0061 0.0033 'International Tables Vol C Tables 4.2.6.8 and 6.1.1.4'
Cd Cd -0.8075 1.2024 'International Tables Vol C Tables 4.2.6.8 and 6.1.1.4'

_symmetry_cell_setting           Monoclinic
_symmetry_space_group_name_H-M   P2(1)/c

loop_
_symmetry_equiv_pos_as_xyz
'x, y, z'
'-x, y+1/2, -z+1/2'
'-x, -y, -z'
'x, -y-1/2, z-1/2'

_cell_length_a                   16.9693(17)
_cell_length_b                   29.411(3)
_cell_length_c                   14.6756(15)
_cell_angle_alpha                90.00
_cell_angle_beta                 103.622(2)
_cell_angle_gamma                90.00
_cell_volume                     7118.4(12)
_cell_formula_units_Z            4
_cell_measurement_temperature    293(2)
_cell_measurement_reflns_used    ?
_cell_measurement_theta_min      ?
_cell_measurement_theta_max      ?

_exptl_crystal_description       Prism
_exptl_crystal_colour            colorless
_exptl_crystal_size_max          0.20
_exptl_crystal_size_mid          0.10
_exptl_crystal_size_min          0.10
_exptl_crystal_density_meas      'not measured'
_exptl_crystal_density_diffrn    1.537
_exptl_crystal_density_method    'not measured'
_exptl_crystal_F_000             3216
_exptl_absorpt_coefficient_mu    1.806
_exptl_absorpt_correction_type   'empirical used sadabs'
_exptl_absorpt_correction_T_min  0.7140
_exptl_absorpt_correction_T_max  0.8400
_exptl_absorpt_process_details   ?

_exptl_special_details           
;
?
;

_diffrn_ambient_temperature      293(2)
_diffrn_radiation_wavelength     0.71073
_diffrn_radiation_type           MoK\a
_diffrn_radiation_source         'fine-focus sealed tube'
_diffrn_radiation_monochromator  graphite
_diffrn_measurement_device_type  'Bruker SMART CCD area detector'
_diffrn_measurement_method       'phi and omega scans'
_diffrn_detector_area_resol_mean ?
_diffrn_standards_number         ?
_diffrn_standards_interval_count ?
_diffrn_standards_interval_time  ?
_diffrn_standards_decay_%        ?
_diffrn_reflns_number            32607
_diffrn_reflns_av_R_equivalents  0.0710
_diffrn_reflns_av_sigmaI/netI    0.0867
_diffrn_reflns_limit_h_min       -19
_diffrn_reflns_limit_h_max       19
_diffrn_reflns_limit_k_min       -33
_diffrn_reflns_limit_k_max       33
_diffrn_reflns_limit_l_min       -16
_diffrn_reflns_limit_l_max       16
_diffrn_reflns_theta_min         1.79
_diffrn_reflns_theta_max         24.14
_reflns_number_total             11169
_reflns_number_gt                6113
_reflns_threshold_expression     >2sigma(I)

_computing_data_collection       'Bruker SMART'
_computing_cell_refinement       'Bruker SAINT'
_computing_data_reduction        'Bruker SAINT'
_computing_structure_solution    'SHELXS-97 (Sheldrick, 1990)'
_computing_structure_refinement  'SHELXL-97 (Sheldrick, 1997)'
_computing_molecular_graphics    'Bruker SHELXTL'
_computing_publication_material  'Bruker SHELXTL'


_refine_special_details          
;
Refinement of F^2^ against ALL reflections. The weighted R-factor wR and
goodness of fit S are based on F^2^, conventional R-factors R are based
on F, with F set to zero for negative F^2^. The threshold expression of
F^2^ > 2sigma(F^2^) is used only for calculating R-factors(gt) etc. and is
not relevant to the choice of reflections for refinement. R-factors based
on F^2^ are statistically about twice as large as those based on F, and R-
factors based on ALL data will be even larger.
;

_refine_ls_structure_factor_coef Fsqd
_refine_ls_matrix_type           full
_refine_ls_weighting_scheme      calc
_refine_ls_weighting_details     
'calc w=1/[\s^2^(Fo^2^)+(0.0500P)^2^+0.0000P] where P=(Fo^2^+2Fc^2^)/3'
_atom_sites_solution_primary     direct
_atom_sites_solution_secondary   difmap
_atom_sites_solution_hydrogens   geom
_refine_ls_hydrogen_treatment    mixed
_refine_ls_extinction_method     none
_refine_ls_extinction_coef       ?
_refine_ls_number_reflns         11169
_refine_ls_number_parameters     703
_refine_ls_number_restraints     0
_refine_ls_R_factor_all          0.1139
_refine_ls_R_factor_gt           0.0541
_refine_ls_wR_factor_ref         0.1319
_refine_ls_wR_factor_gt          0.1135
_refine_ls_goodness_of_fit_ref   0.984
_refine_ls_restrained_S_all      0.984
_refine_ls_shift/su_max          0.001
_refine_ls_shift/su_mean         0.000

loop_
_atom_site_label
_atom_site_type_symbol
_atom_site_fract_x
_atom_site_fract_y
_atom_site_fract_z
_atom_site_U_iso_or_equiv
_atom_site_adp_type
_atom_site_occupancy
_atom_site_symmetry_multiplicity
_atom_site_calc_flag
_atom_site_refinement_flags
_atom_site_disorder_assembly
_atom_site_disorder_group
Cd1 Cd 0.42804(4) 0.18476(2) 0.19376(5) 0.0686(2) Uani 1 1 d . . .
Cd2 Cd 0.48471(4) 0.39398(2) 0.11140(5) 0.0694(2) Uani 1 1 d . . .
Cd3 Cd 0.28037(4) 0.54867(2) 0.27114(5) 0.0684(2) Uani 1 1 d . . .
Cd4 Cd 0.18352(4) 0.51718(2) 0.66014(5) 0.0598(2) Uani 1 1 d . . .
Cd5 Cd 0.07112(4) 0.36912(2) 0.91444(5) 0.0595(2) Uani 1 1 d . . .
Cd6 Cd -0.11339(4) 0.65734(2) 0.65176(5) 0.0623(2) Uani 1 1 d . . .
N1 N 0.6406(6) 0.1073(3) 0.1830(6) 0.082(3) Uani 1 1 d . . .
N2 N 0.5373(5) 0.1548(3) 0.1606(6) 0.085(3) Uani 1 1 d . . .
N3 N 0.4151(5) 0.1494(2) 0.3218(6) 0.068(2) Uani 1 1 d . . .
N4 N 0.4379(5) 0.1160(2) 0.4607(5) 0.067(2) Uani 1 1 d . . .
N5 N 0.4544(5) 0.2581(3) 0.2145(7) 0.089(3) Uani 1 1 d . . .
N6 N 0.4724(5) 0.3308(3) 0.1838(7) 0.086(3) Uani 1 1 d . . .
N7 N 0.4125(5) 0.4527(3) 0.1326(7) 0.082(3) Uani 1 1 d . . .
N8 N 0.3431(5) 0.5054(3) 0.1876(7) 0.085(3) Uani 1 1 d . . .
N9 N 0.2402(5) 0.5161(3) 0.3868(6) 0.082(2) Uani 1 1 d . . .
N10 N 0.2073(5) 0.5045(3) 0.5214(6) 0.074(2) Uani 1 1 d . . .
N11 N 0.2691(5) 0.5615(3) 0.7514(6) 0.073(2) Uani 1 1 d . . .
N12 N 0.3876(5) 0.5913(3) 0.8347(6) 0.085(3) Uani 1 1 d . . .
N13 N 0.1662(4) 0.4520(2) 0.7218(6) 0.066(2) Uani 1 1 d . . .
N14 N 0.1296(4) 0.3991(2) 0.8109(5) 0.0583(19) Uani 1 1 d . . .
N15 N 0.0423(5) 0.2990(2) 0.8710(5) 0.060(2) Uani 1 1 d . . .
N16 N 0.0569(5) 0.2251(3) 0.8450(5) 0.065(2) Uani 1 1 d . . .
N17 N -0.0421(5) 0.4076(3) 0.8959(6) 0.077(2) Uani 1 1 d . . .
N18 N -0.1647(5) 0.4351(3) 0.8304(6) 0.080(2) Uani 1 1 d . . .
N19 N 0.0783(5) 0.5624(3) 0.6194(6) 0.078(2) Uani 1 1 d . . .
N20 N -0.0184(4) 0.6139(3) 0.6207(6) 0.067(2) Uani 1 1 d . . .
N21 N -0.2031(8) 0.6662(4) 0.5208(7) 0.119(4) Uani 1 1 d . . .
N22 N -0.3105(8) 0.6772(4) 0.4040(8) 0.141(5) Uani 1 1 d . . .
N23 N -0.1449(5) 0.6385(3) 0.7826(5) 0.073(2) Uani 1 1 d . . .
N24 N -0.1306(5) 0.6282(3) 0.9358(5) 0.064(2) Uani 1 1 d . . .
C1 C 0.5071(8) 0.0748(4) 0.1894(11) 0.139(5) Uani 1 1 d . . .
H1A H 0.5367 0.0467 0.2004 0.208 Uiso 1 1 calc R . .
H1B H 0.4644 0.0721 0.1337 0.208 Uiso 1 1 calc R . .
H1C H 0.4843 0.0813 0.2419 0.208 Uiso 1 1 calc R . .
C2 C 0.5647(7) 0.1133(4) 0.1773(7) 0.072(3) Uani 1 1 d . . .
C3 C 0.6660(8) 0.1497(5) 0.1662(11) 0.136(6) Uani 1 1 d . . .
H3A H 0.7183 0.1577 0.1631 0.163 Uiso 1 1 calc R . .
C4 C 0.6015(9) 0.1784(4) 0.1547(11) 0.128(5) Uani 1 1 d . . .
H4A H 0.6027 0.2096 0.1444 0.154 Uiso 1 1 calc R . .
C5 C 0.5560(6) 0.1531(4) 0.4203(8) 0.118(5) Uani 1 1 d . . .
H5A H 0.5843 0.1426 0.4812 0.176 Uiso 1 1 calc R . .
H5B H 0.5594 0.1857 0.4180 0.176 Uiso 1 1 calc R . .
H5C H 0.5801 0.1401 0.3734 0.176 Uiso 1 1 calc R . .
C6 C 0.4699(6) 0.1393(3) 0.4025(7) 0.067(3) Uani 1 1 d . . .
C7 C 0.3579(6) 0.1115(3) 0.4145(8) 0.082(3) Uani 1 1 d . . .
H7A H 0.3187 0.0969 0.4388 0.099 Uiso 1 1 calc R . .
C8 C 0.3442(6) 0.1306(3) 0.3313(7) 0.070(3) Uani 1 1 d . . .
H8A H 0.2949 0.1312 0.2870 0.083 Uiso 1 1 calc R . .
C9 C 0.4004(11) 0.2835(5) 0.0499(10) 0.187(9) Uani 1 1 d . . .
H9A H 0.3980 0.3116 0.0159 0.280 Uiso 1 1 calc R . .
H9B H 0.3463 0.2726 0.0461 0.280 Uiso 1 1 calc R . .
H9C H 0.4299 0.2614 0.0232 0.280 Uiso 1 1 calc R . .
C10 C 0.4434(6) 0.2915(4) 0.1534(8) 0.083(3) Uani 1 1 d . . .
C11 C 0.5071(11) 0.3226(5) 0.2732(10) 0.157(7) Uani 1 1 d . . .
H11A H 0.5355 0.3438 0.3154 0.188 Uiso 1 1 calc R . .
C12 C 0.4953(12) 0.2800(6) 0.2930(10) 0.161(7) Uani 1 1 d . . .
H12A H 0.5124 0.2667 0.3519 0.193 Uiso 1 1 calc R . .
C13 C 0.3997(7) 0.4439(4) 0.2959(7) 0.103(4) Uani 1 1 d . . .
H13A H 0.3736 0.4604 0.3370 0.155 Uiso 1 1 calc R . .
H13B H 0.4570 0.4427 0.3228 0.155 Uiso 1 1 calc R . .
H13C H 0.3784 0.4135 0.2877 0.155 Uiso 1 1 calc R . .
C14 C 0.3841(6) 0.4676(4) 0.2015(8) 0.070(3) Uani 1 1 d . . .
C15 C 0.3871(7) 0.4865(4) 0.0633(8) 0.092(4) Uani 1 1 d . . .
H15A H 0.3981 0.4865 0.0042 0.111 Uiso 1 1 calc R . .
C16 C 0.3465(7) 0.5170(4) 0.0943(8) 0.096(4) Uani 1 1 d . . .
H16A H 0.3230 0.5425 0.0614 0.115 Uiso 1 1 calc R . .
C17 C 0.3324(8) 0.5503(5) 0.5279(9) 0.154(6) Uani 1 1 d . . .
H17A H 0.3343 0.5518 0.5938 0.232 Uiso 1 1 calc R . .
H17B H 0.3291 0.5805 0.5026 0.232 Uiso 1 1 calc R . .
H17C H 0.3806 0.5357 0.5187 0.232 Uiso 1 1 calc R . .
C18 C 0.2578(6) 0.5230(3) 0.4779(8) 0.073(3) Uani 1 1 d . . .
C19 C 0.1713(7) 0.4901(4) 0.3713(8) 0.098(4) Uani 1 1 d . . .
H19A H 0.1438 0.4788 0.3132 0.118 Uiso 1 1 calc R . .
C20 C 0.1499(8) 0.4834(4) 0.4510(8) 0.100(4) Uani 1 1 d . . .
H20A H 0.1046 0.4674 0.4587 0.120 Uiso 1 1 calc R . .
C21 C 0.3878(7) 0.5088(3) 0.7944(8) 0.093(3) Uani 1 1 d . . .
H21A H 0.4437 0.5110 0.8272 0.140 Uiso 1 1 calc R . .
H21B H 0.3843 0.4990 0.7312 0.140 Uiso 1 1 calc R . .
H21C H 0.3608 0.4871 0.8255 0.140 Uiso 1 1 calc R . .
C22 C 0.3476(7) 0.5548(3) 0.7935(7) 0.066(3) Uani 1 1 d . . .
C23 C 0.3275(8) 0.6249(4) 0.8164(11) 0.146(7) Uani 1 1 d . . .
H23A H 0.3349 0.6553 0.8335 0.175 Uiso 1 1 calc R . .
C24 C 0.2576(7) 0.6061(4) 0.7702(10) 0.124(5) Uani 1 1 d . . .
H24A H 0.2083 0.6213 0.7534 0.148 Uiso 1 1 calc R . .
C25 C 0.1664(6) 0.4742(3) 0.8844(6) 0.071(3) Uani 1 1 d . . .
H25A H 0.1824 0.5033 0.8650 0.106 Uiso 1 1 calc R . .
H25B H 0.2084 0.4627 0.9348 0.106 Uiso 1 1 calc R . .
H25C H 0.1172 0.4775 0.9054 0.106 Uiso 1 1 calc R . .
C26 C 0.1529(5) 0.4423(3) 0.8047(6) 0.050(2) Uani 1 1 d . . .
C27 C 0.1265(6) 0.3814(3) 0.7240(7) 0.073(3) Uani 1 1 d . . .
H27A H 0.1110 0.3518 0.7057 0.088 Uiso 1 1 calc R . .
C28 C 0.1487(6) 0.4125(3) 0.6694(7) 0.070(3) Uani 1 1 d . . .
H28A H 0.1520 0.4085 0.6075 0.084 Uiso 1 1 calc R . .
C29 C 0.1798(6) 0.2740(3) 0.8631(9) 0.095(4) Uani 1 1 d . . .
H29A H 0.1918 0.3058 0.8729 0.143 Uiso 1 1 calc R . .
H29B H 0.1926 0.2645 0.8057 0.143 Uiso 1 1 calc R . .
H29C H 0.2117 0.2569 0.9144 0.143 Uiso 1 1 calc R . .
C30 C 0.0927(6) 0.2662(3) 0.8574(6) 0.059(2) Uani 1 1 d . . .
C31 C -0.0227(7) 0.2320(3) 0.8496(8) 0.082(3) Uani 1 1 d . . .
H31A H -0.0627 0.2098 0.8427 0.098 Uiso 1 1 calc R . .
C32 C -0.0322(6) 0.2767(4) 0.8659(8) 0.086(3) Uani 1 1 d . . .
H32A H -0.0798 0.2905 0.8727 0.103 Uiso 1 1 calc R . .
C33 C -0.1019(7) 0.3872(4) 0.7279(7) 0.110(4) Uani 1 1 d . . .
H33A H -0.1518 0.3932 0.6828 0.165 Uiso 1 1 calc R . .
H33B H -0.0955 0.3550 0.7377 0.165 Uiso 1 1 calc R . .
H33C H -0.0574 0.3989 0.7050 0.165 Uiso 1 1 calc R . .
C34 C -0.1036(6) 0.4099(3) 0.8181(7) 0.067(3) Uani 1 1 d . . .
C35 C -0.0661(7) 0.4344(4) 0.9599(8) 0.102(4) Uani 1 1 d . . .
H35A H -0.0370 0.4398 1.0210 0.122 Uiso 1 1 calc R . .
C36 C -0.1393(8) 0.4518(4) 0.9195(9) 0.114(4) Uani 1 1 d . . .
H36A H -0.1682 0.4721 0.9479 0.137 Uiso 1 1 calc R . .
C37 C 0.0253(7) 0.5654(4) 0.7606(7) 0.104(4) Uani 1 1 d . . .
H37A H 0.0636 0.5412 0.7798 0.156 Uiso 1 1 calc R . .
H37B H -0.0282 0.5548 0.7603 0.156 Uiso 1 1 calc R . .
H37C H 0.0389 0.5904 0.8036 0.156 Uiso 1 1 calc R . .
C38 C 0.0280(5) 0.5807(3) 0.6650(7) 0.057(2) Uani 1 1 d . . .
C39 C 0.0614(7) 0.5859(4) 0.5332(8) 0.083(3) Uani 1 1 d . . .
H39A H 0.0858 0.5810 0.4836 0.100 Uiso 1 1 calc R . .
C40 C 0.0047(8) 0.6160(4) 0.5359(8) 0.090(3) Uani 1 1 d . . .
H40A H -0.0172 0.6360 0.4875 0.108 Uiso 1 1 calc R . .
C41 C -0.3198(10) 0.6276(5) 0.5258(11) 0.186(8) Uani 1 1 d . . .
H41A H -0.3746 0.6248 0.4894 0.278 Uiso 1 1 calc R . .
H41B H -0.3201 0.6388 0.5872 0.278 Uiso 1 1 calc R . .
H41C H -0.2939 0.5983 0.5312 0.278 Uiso 1 1 calc R . .
C42 C -0.2721(8) 0.6617(4) 0.4760(10) 0.087(4) Uani 1 1 d . . .
C43 C -0.1775(10) 0.7009(5) 0.4512(12) 0.125(5) Uani 1 1 d . . .
H43A H -0.1271 0.7146 0.4575 0.150 Uiso 1 1 calc R . .
C44 C -0.2352(10) 0.7058(5) 0.3899(12) 0.111(5) Uani 1 1 d . . .
H44A H -0.2366 0.7245 0.3385 0.133 Uiso 1 1 calc R . .
C45 C -0.0382(9) 0.6841(5) 0.8884(8) 0.180(8) Uani 1 1 d . . .
H45A H -0.0161 0.6860 0.9548 0.271 Uiso 1 1 calc R . .
H45B H -0.0603 0.7130 0.8653 0.271 Uiso 1 1 calc R . .
H45C H 0.0039 0.6758 0.8579 0.271 Uiso 1 1 calc R . .
C46 C -0.1032(6) 0.6492(3) 0.8687(7) 0.065(3) Uani 1 1 d . . .
C47 C -0.1897(8) 0.6004(5) 0.8882(9) 0.125(5) Uani 1 1 d . . .
H47A H -0.2187 0.5797 0.9154 0.150 Uiso 1 1 calc R . .
C48 C -0.2001(7) 0.6074(4) 0.7954(8) 0.118(5) Uani 1 1 d . . .
H48A H -0.2386 0.5932 0.7482 0.141 Uiso 1 1 calc R . .

loop_
_atom_site_aniso_label
_atom_site_aniso_U_11
_atom_site_aniso_U_22
_atom_site_aniso_U_33
_atom_site_aniso_U_23
_atom_site_aniso_U_13
_atom_site_aniso_U_12
Cd1 0.0635(5) 0.0800(5) 0.0570(5) 0.0054(4) 0.0033(4) -0.0030(4)
Cd2 0.0643(5) 0.0664(5) 0.0703(5) -0.0215(4) 0.0017(4) 0.0014(4)
Cd3 0.0628(5) 0.0826(5) 0.0625(5) -0.0052(4) 0.0203(4) 0.0087(4)
Cd4 0.0620(4) 0.0598(4) 0.0554(4) 0.0007(3) 0.0094(4) -0.0080(3)
Cd5 0.0670(5) 0.0573(4) 0.0531(4) 0.0018(3) 0.0123(4) 0.0017(3)
Cd6 0.0686(5) 0.0610(5) 0.0512(4) 0.0081(3) 0.0020(4) -0.0031(3)
N1 0.079(6) 0.075(6) 0.105(7) 0.020(5) 0.047(6) 0.000(5)
N2 0.076(6) 0.076(7) 0.112(8) 0.017(6) 0.039(5) -0.009(5)
N3 0.060(5) 0.083(6) 0.062(6) 0.006(4) 0.015(5) -0.011(4)
N4 0.067(6) 0.068(5) 0.064(6) 0.013(4) 0.013(5) -0.007(4)
N5 0.098(7) 0.080(6) 0.072(7) 0.003(6) -0.012(6) 0.007(5)
N6 0.089(6) 0.075(7) 0.079(7) -0.014(5) -0.010(5) -0.008(5)
N7 0.060(5) 0.087(7) 0.104(8) -0.024(6) 0.029(6) -0.007(5)
N8 0.078(6) 0.089(7) 0.091(8) -0.024(5) 0.024(5) 0.007(5)
N9 0.097(7) 0.096(7) 0.056(6) 0.000(5) 0.027(5) -0.014(5)
N10 0.078(6) 0.084(6) 0.065(6) 0.003(5) 0.025(5) -0.016(5)
N11 0.051(5) 0.072(6) 0.088(6) -0.017(5) 0.003(5) 0.005(4)
N12 0.086(6) 0.061(6) 0.094(7) -0.029(5) -0.005(5) -0.005(5)
N13 0.075(5) 0.058(5) 0.062(6) -0.003(4) 0.009(4) -0.011(4)
N14 0.066(5) 0.059(5) 0.051(5) 0.001(4) 0.018(4) 0.006(4)
N15 0.067(5) 0.055(5) 0.057(5) -0.009(4) 0.012(4) 0.008(4)
N16 0.071(6) 0.058(5) 0.065(5) 0.005(4) 0.013(4) 0.009(4)
N17 0.078(6) 0.085(6) 0.064(6) -0.008(5) 0.007(5) 0.010(5)
N18 0.075(6) 0.100(7) 0.062(6) -0.019(5) 0.009(5) 0.014(5)
N19 0.075(6) 0.085(6) 0.069(6) 0.004(5) 0.008(5) 0.002(5)
N20 0.069(5) 0.064(5) 0.062(6) 0.007(4) 0.005(5) -0.001(4)
N21 0.132(10) 0.111(9) 0.087(8) -0.021(7) -0.030(8) 0.039(7)
N22 0.157(12) 0.130(10) 0.095(9) -0.029(7) -0.051(9) 0.061(9)
N23 0.069(5) 0.092(6) 0.051(5) 0.003(4) -0.002(4) -0.022(5)
N24 0.070(5) 0.073(5) 0.050(5) 0.013(4) 0.017(4) -0.007(4)
C1 0.114(10) 0.081(9) 0.211(16) 0.000(10) 0.017(10) -0.010(8)
C2 0.077(8) 0.070(8) 0.076(7) 0.013(6) 0.028(6) -0.002(6)
C3 0.111(11) 0.098(10) 0.224(18) 0.048(10) 0.088(11) 0.007(9)
C4 0.117(11) 0.083(9) 0.208(16) 0.062(10) 0.086(11) 0.025(9)
C5 0.053(7) 0.183(13) 0.105(10) 0.054(9) -0.004(7) -0.025(7)
C6 0.061(7) 0.077(7) 0.059(7) 0.001(5) 0.003(6) -0.011(5)
C7 0.054(7) 0.102(9) 0.086(9) 0.021(7) 0.007(6) -0.019(6)
C8 0.049(6) 0.081(7) 0.069(7) 0.018(6) -0.006(5) 0.002(5)
C9 0.26(2) 0.149(13) 0.101(11) 0.033(10) -0.056(13) -0.119(13)
C10 0.081(8) 0.100(9) 0.060(7) 0.019(7) 0.000(6) -0.016(7)
C11 0.27(2) 0.081(10) 0.083(11) -0.011(8) -0.042(12) 0.000(11)
C12 0.25(2) 0.112(12) 0.077(10) -0.015(9) -0.044(12) 0.014(12)
C13 0.113(9) 0.105(9) 0.079(8) 0.028(7) -0.004(7) -0.031(7)
C14 0.053(6) 0.071(7) 0.080(8) -0.008(6) 0.005(6) -0.009(5)
C15 0.094(9) 0.111(10) 0.077(8) 0.008(8) 0.029(7) 0.036(7)
C16 0.115(10) 0.106(10) 0.064(8) 0.020(7) 0.016(7) 0.030(8)
C17 0.108(10) 0.263(18) 0.083(10) 0.011(10) 0.002(8) -0.091(11)
C18 0.064(7) 0.096(8) 0.055(7) 0.002(6) 0.008(6) -0.003(6)
C19 0.116(10) 0.111(9) 0.068(8) -0.024(7) 0.025(7) -0.057(8)
C20 0.125(10) 0.124(10) 0.056(7) -0.025(7) 0.029(8) -0.057(8)
C21 0.103(9) 0.079(8) 0.091(9) 0.010(6) 0.010(7) 0.011(6)
C22 0.090(8) 0.053(6) 0.058(6) -0.007(5) 0.021(6) 0.003(6)
C23 0.085(9) 0.083(9) 0.230(18) -0.070(10) -0.042(10) 0.022(8)
C24 0.074(9) 0.082(9) 0.196(15) -0.045(9) -0.007(9) 0.006(7)
C25 0.081(7) 0.065(6) 0.067(7) 