####################################################################### 
# 
# This file contains crystal structure data downloaded from the 
# Cambridge Structural Database (CSD) hosted by the Cambridge 
# Crystallographic Data Centre (CCDC).
# 
# Full information about CCDC data access policies and citation 
# guidelines are available at http://www.ccdc.cam.ac.uk/access/V1 
# 
# Audit and citation data items may have been added by the CCDC. 
# Please retain this information to preserve the provenance of 
# this file and to allow appropriate attribution of the data. 
# 
#######################################################################

data_cuidabco_accn_lt_3
_audit_block_doi                 10.5517/ccs8pvk
_database_code_depnum_ccdc_archive 'CCDC 723349'
loop_
_citation_id
_citation_doi
_citation_year
1 10.1002/chem.200900743 2010
_audit_update_record             
;
2009-03-09 deposited with the CCDC.	2024-07-10 downloaded from the CCDC.
;

_audit_creation_method           SHELXL-97
_chemical_name_systematic        
;
?
;
_chemical_name_common            ?
_chemical_melting_point          ?
_chemical_formula_moiety         'C12 H24 Cu4 I4 N4'
_chemical_formula_sum            'C12 H24 Cu4 I4 N4'
_chemical_formula_weight         986.11

loop_
_atom_type_symbol
_atom_type_description
_atom_type_scat_dispersion_real
_atom_type_scat_dispersion_imag
_atom_type_scat_source
C C 0.0033 0.0016 'International Tables Vol C Tables 4.2.6.8 and 6.1.1.4'
H H 0.0000 0.0000 'International Tables Vol C Tables 4.2.6.8 and 6.1.1.4'
N N 0.0061 0.0033 'International Tables Vol C Tables 4.2.6.8 and 6.1.1.4'
Cu Cu 0.3201 1.2651 'International Tables Vol C Tables 4.2.6.8 and 6.1.1.4'
I I -0.4742 1.8119 'International Tables Vol C Tables 4.2.6.8 and 6.1.1.4'

_symmetry_cell_setting           Tetragonal
_symmetry_space_group_name_H-M   P4/mcc

loop_
_symmetry_equiv_pos_as_xyz
'x, y, z'
'-x, -y, z'
'-y, x, z'
'y, -x, z'
'-x, y, -z+1/2'
'x, -y, -z+1/2'
'y, x, -z+1/2'
'-y, -x, -z+1/2'
'-x, -y, -z'
'x, y, -z'
'y, -x, -z'
'-y, x, -z'
'x, -y, z-1/2'
'-x, y, z-1/2'
'-y, -x, z-1/2'
'y, x, z-1/2'

_cell_length_a                   17.9914(2)
_cell_length_b                   17.9914(2)
_cell_length_c                   15.9344(3)
_cell_angle_alpha                90.00
_cell_angle_beta                 90.00
_cell_angle_gamma                90.00
_cell_volume                     5157.81(13)
_cell_formula_units_Z            8
_cell_measurement_temperature    80(2)
_cell_measurement_reflns_used    9500
_cell_measurement_theta_min      2.5180
_cell_measurement_theta_max      28.7161

_exptl_crystal_description       prism
_exptl_crystal_colour            colorless
_exptl_crystal_size_max          0.2
_exptl_crystal_size_mid          0.2
_exptl_crystal_size_min          0.1
_exptl_crystal_density_meas      ?
_exptl_crystal_density_diffrn    2.540
_exptl_crystal_density_method    'not measured'
_exptl_crystal_F_000             3616
_exptl_absorpt_coefficient_mu    8.045
_exptl_absorpt_correction_T_min  0.34381
_exptl_absorpt_correction_T_max  1.00000
_exptl_absorpt_correction_type   multi-scan
_exptl_absorpt_process_details   
;
CrysAlis RED, Oxford Diffraction Ltd.,
Version 1.171.32.24 (release 21-04-2008 CrysAlis171 .NET)
(compiled Apr 21 2008,18:23:10)
Empirical absorption correction using spherical harmonics,
implemented in SCALE3 ABSPACK scaling algorithm.
;

_exptl_special_details           
;
?
;

_diffrn_ambient_temperature      80(2)
_diffrn_radiation_wavelength     0.71073
_diffrn_radiation_type           MoK\a
_diffrn_radiation_source         'Enhance (Mo) X-ray Source'
_diffrn_radiation_monochromator  graphite
_diffrn_measurement_device_type  ?
_diffrn_measurement_method       ?
_diffrn_detector_area_resol_mean ?
_diffrn_standards_number         ?
_diffrn_standards_interval_count ?
_diffrn_standards_interval_time  ?
_diffrn_standards_decay_%        ?
_diffrn_reflns_number            15432
_diffrn_reflns_av_R_equivalents  0.0277
_diffrn_reflns_av_sigmaI/netI    0.0239
_diffrn_reflns_limit_h_min       -22
_diffrn_reflns_limit_h_max       21
_diffrn_reflns_limit_k_min       -22
_diffrn_reflns_limit_k_max       23
_diffrn_reflns_limit_l_min       -21
_diffrn_reflns_limit_l_max       11
_diffrn_reflns_theta_min         2.53
_diffrn_reflns_theta_max         28.84
_reflns_number_total             3224
_reflns_number_gt                2810
_reflns_threshold_expression     >2\s(I)

_computing_data_collection       
;
CrysAlis CCD, Oxford Diffraction Ltd.,
Version 1.171.32.15 (release 10-01-2008 CrysAlis171 .NET)
(compiled Jan 10 2008,16:37:18)
;
_computing_data_reduction        
;
CrysAlis RED, Oxford Diffraction Ltd.,
Version 1.171.32.15 (release 10-01-2008 CrysAlis171 .NET)
(compiled Jan 10 2008,16:37:18)
;
_computing_structure_solution    ?
_computing_structure_refinement  'SHELXL-97 (Sheldrick, 1997)'
_computing_molecular_graphics    ?
_computing_publication_material  ?
_computing_cell_refinement       
;
CrysAlis RED, Oxford Diffraction Ltd.,
Version 1.171.32.15 (release 10-01-2008 CrysAlis171 .NET)
(compiled Jan 10 2008,16:37:18)
;


_refine_special_details          
;
Refinement of F^2^ against ALL reflections. The weighted R-factor wR and
goodness of fit S are based on F^2^, conventional R-factors R are based
on F, with F set to zero for negative F^2^. The threshold expression of
F^2^ > 2\s(F^2^) is used only for calculating R-factors(gt) etc. and is
not relevant to the choice of reflections for refinement. R-factors based
on F^2^ are statistically about twice as large as those based on F, and R-
factors based on ALL data will be even larger.
;

_refine_ls_structure_factor_coef Fsqd
_refine_ls_matrix_type           full
_refine_ls_weighting_scheme      calc
_refine_ls_weighting_details     
'calc w=1/[\s^2^(Fo^2^)+(0.0255P)^2^+14.6792P] where P=(Fo^2^+2Fc^2^)/3'
_atom_sites_solution_primary     direct
_atom_sites_solution_secondary   difmap
_atom_sites_solution_hydrogens   geom
_refine_ls_hydrogen_treatment    constr
_refine_ls_extinction_method     SHELXL
_refine_ls_extinction_coef       0.000045(10)
_refine_ls_extinction_expression Fc^*^=kFc[1+0.001xFc^2^\l^3^/sin(2\q)]^-1/4^
_refine_ls_number_reflns         3224
_refine_ls_number_parameters     122
_refine_ls_number_restraints     0
_refine_ls_R_factor_all          0.0378
_refine_ls_R_factor_gt           0.0278
_refine_ls_wR_factor_ref         0.0574
_refine_ls_wR_factor_gt          0.0553
_refine_ls_goodness_of_fit_ref   1.088
_refine_ls_restrained_S_all      1.088
_refine_ls_shift/su_max          0.001
_refine_ls_shift/su_mean         0.000

loop_
_atom_site_label
_atom_site_type_symbol
_atom_site_fract_x
_atom_site_fract_y
_atom_site_fract_z
_atom_site_U_iso_or_equiv
_atom_site_adp_type
_atom_site_occupancy
_atom_site_symmetry_multiplicity
_atom_site_calc_flag
_atom_site_refinement_flags
_atom_site_disorder_assembly
_atom_site_disorder_group
C1 C 0.3071(2) 0.1272(2) 0.4248(3) 0.0182(9) Uani 1 1 d . . .
H1A H 0.3523 0.1566 0.4245 0.022 Uiso 1 1 calc R . .
H1B H 0.2791 0.1390 0.3746 0.022 Uiso 1 1 calc R . .
C2 C 0.1940(3) 0.0996(3) 0.5000 0.0138(12) Uani 1 2 d S . .
H2A H 0.1644 0.1109 0.4507 0.017 Uiso 0.50 1 calc PR . .
H2B H 0.1644 0.1109 0.5493 0.017 Uiso 0.50 1 calc PR . .
C3 C -0.0162(3) 0.2150(3) 0.5000 0.0145(12) Uani 1 2 d S . .
H3A H 0.0075 0.1940 0.5493 0.017 Uiso 0.50 1 calc PR . .
H3B H 0.0075 0.1940 0.4507 0.017 Uiso 0.50 1 calc PR . .
C4 C -0.0439(2) 0.3274(2) 0.4244(3) 0.0132(8) Uani 1 1 d . . .
H4A H -0.0207 0.3074 0.3743 0.016 Uiso 1 1 calc R . .
H4B H -0.0384 0.3810 0.4234 0.016 Uiso 1 1 calc R . .
C5 C 0.1547(2) 0.4659(2) 0.2786(3) 0.0152(9) Uani 1 1 d . . .
H5A H 0.1204 0.4736 0.3247 0.018 Uiso 1 1 calc R . .
H5B H 0.1384 0.4227 0.2472 0.018 Uiso 1 1 calc R . .
C6 C 0.2641(2) 0.5259(2) 0.3369(3) 0.0145(9) Uani 1 1 d . . .
H6A H 0.3114 0.5179 0.3647 0.017 Uiso 1 1 calc R . .
H6B H 0.2312 0.5508 0.3761 0.017 Uiso 1 1 calc R . .
C7 C 0.2759(2) 0.4242(2) 0.2412(3) 0.0150(8) Uani 1 1 d . . .
H7A H 0.2611 0.3737 0.2284 0.018 Uiso 1 1 calc R . .
H7B H 0.3281 0.4239 0.2564 0.018 Uiso 1 1 calc R . .
N2 N 0.23129(18) 0.45278(18) 0.3122(2) 0.0114(7) Uani 1 1 d . . .
N1 N 0.2623(3) 0.1464(2) 0.5000 0.0100(9) Uani 1 2 d S . .
N3 N -0.0063(3) 0.2968(3) 0.5000 0.0115(10) Uani 1 2 d S . .
Cu1 Cu 0.23186(4) 0.25704(4) 0.5000 0.01261(15) Uani 1 2 d S . .
Cu2 Cu 0.21989(3) 0.38360(3) 0.41613(3) 0.01329(11) Uani 1 1 d . . .
Cu3 Cu 0.10562(4) 0.32211(4) 0.5000 0.01214(15) Uani 1 2 d S . .
I1 I 0.11624(2) 0.468027(19) 0.5000 0.01185(9) Uani 1 2 d S . .
I2 I 0.153778(14) 0.263967(14) 0.353943(17) 0.01196(7) Uani 1 1 d . . .
I3 I 0.342734(19) 0.35571(2) 0.5000 0.01295(9) Uani 1 2 d S . .

loop_
_atom_site_aniso_label
_atom_site_aniso_U_11
_atom_site_aniso_U_22
_atom_site_aniso_U_33
_atom_site_aniso_U_23
_atom_site_aniso_U_13
_atom_site_aniso_U_12
C1 0.020(2) 0.014(2) 0.021(2) 0.0027(18) 0.0100(19) 0.0033(16)
C2 0.011(3) 0.008(3) 0.022(3) 0.000 0.000 -0.003(2)
C3 0.011(3) 0.009(3) 0.023(3) 0.000 0.000 0.001(2)
C4 0.0135(19) 0.0137(19) 0.012(2) 0.0039(16) -0.0013(16) 0.0004(15)
C5 0.015(2) 0.015(2) 0.015(2) 0.0035(17) -0.0003(17) 0.0001(16)
C6 0.015(2) 0.0146(19) 0.014(2) -0.0027(17) -0.0032(17) -0.0002(15)
C7 0.019(2) 0.0118(18) 0.015(2) -0.0001(17) 0.0008(18) 0.0012(15)
N2 0.0113(16) 0.0118(16) 0.0111(18) 0.0011(14) -0.0009(14) 0.0007(12)
N1 0.011(2) 0.007(2) 0.012(2) 0.000 0.000 -0.0005(17)
N3 0.010(2) 0.011(2) 0.013(2) 0.000 0.000 -0.0016(18)
Cu1 0.0130(3) 0.0079(3) 0.0169(4) 0.000 0.000 0.0017(3)
Cu2 0.0152(2) 0.0122(2) 0.0125(3) 0.0029(2) -0.0012(2) -0.00050(18)
Cu3 0.0085(3) 0.0120(3) 0.0159(4) 0.000 0.000 -0.0012(3)
I1 0.01373(18) 0.00917(17) 0.01266(19) 0.000 0.000 0.00249(13)
I2 0.01447(13) 0.01042(12) 0.01099(13) -0.00090(10) -0.00002(10) 0.00007(9)
I3 0.00865(17) 0.01435(18) 0.01585(19) 0.000 0.000 0.00020(13)

_geom_special_details            
;
All s.u.'s (except the s.u. in the dihedral angle between two l.s. planes)
are estimated using the full covariance matrix. The cell s.u.'s are taken
into account individually in the estimation of s.u.'s in distances, angles
and torsion angles; correlations between s.u.'s in cell parameters are only
used when they are defined by crystal symmetry. An approximate (isotropic)
treatment of cell s.u.'s is used for estimating s.u.'s involving l.s. planes.
;

loop_
_geom_bond_atom_site_label_1
_geom_bond_atom_site_label_2
_geom_bond_distance
_geom_bond_site_symmetry_2
_geom_bond_publ_flag
C1 N1 1.484(5) . ?
C1 C4 1.542(5) 4 ?
C2 N1 1.489(7) . ?
C2 C3 1.547(8) 11_556 ?
C3 N3 1.483(7) . ?
C3 C2 1.547(8) 3 ?
C4 N3 1.486(5) . ?
C4 C1 1.542(5) 3 ?
C5 N2 1.497(5) . ?
C5 C5 1.529(8) 6_565 ?
C6 N2 1.495(5) . ?
C6 C7 1.548(6) 6_565 ?
C7 N2 1.479(5) . ?
C7 C6 1.548(6) 6_565 ?
N2 Cu2 2.081(3) . ?
N1 C1 1.484(5) 10_556 ?
N1 Cu1 2.065(4) . ?
N3 C4 1.486(5) 10_556 ?
N3 Cu3 2.064(5) . ?
Cu1 Cu3 2.5551(10) . ?
Cu1 Cu2 2.6490(7) 10_556 ?
Cu1 Cu2 2.6490(7) . ?
Cu1 I3 2.6704(8) . ?
Cu1 I2 2.7213(4) . ?
Cu1 I2 2.7213(4) 10_556 ?
Cu2 I3 2.6311(6) . ?
Cu2 I2 2.6513(6) . ?
Cu2 Cu2 2.6727(10) 10_556 ?
Cu2 Cu3 2.6900(8) . ?
Cu2 I1 2.7514(6) . ?
Cu3 I1 2.6322(8) . ?
Cu3 Cu2 2.6900(8) 10_556 ?
Cu3 I2 2.6947(4) 10_556 ?
Cu3 I2 2.6947(4) . ?
I1 Cu2 2.7514(6) 10_556 ?
I3 Cu2 2.6311(6) 10_556 ?

loop_
_geom_angle_atom_site_label_1
_geom_angle_atom_site_label_2
_geom_angle_atom_site_label_3
_geom_angle
_geom_angle_site_symmetry_1
_geom_angle_site_symmetry_3
_geom_angle_publ_flag
N1 C1 C4 111.0(3) . 4 ?
N1 C2 C3 110.3(5) . 11_556 ?
N3 C3 C2 111.1(4) . 3 ?
N3 C4 C1 110.6(4) . 3 ?
N2 C5 C5 109.9(2) . 6_565 ?
N2 C6 C7 110.6(3) . 6_565 ?
N2 C7 C6 109.9(3) . 6_565 ?
C7 N2 C6 107.0(3) . . ?
C7 N2 C5 106.2(3) . . ?
C6 N2 C5 108.6(3) . . ?
C7 N2 Cu2 117.0(2) . . ?
C6 N2 Cu2 110.9(3) . . ?
C5 N2 Cu2 106.8(2) . . ?
C1 N1 C1 107.6(5) 10_556 . ?
C1 N1 C2 108.5(3) 10_556 . ?
C1 N1 C2 108.5(3) . . ?
C1 N1 Cu1 111.6(2) 10_556 . ?
C1 N1 Cu1 111.6(2) . . ?
C2 N1 Cu1 109.0(3) . . ?
C3 N3 C4 108.2(3) . 10_556 ?
C3 N3 C4 108.2(3) . . ?
C4 N3 C4 108.2(4) 10_556 . ?
C3 N3 Cu3 109.7(3) . . ?
C4 N3 Cu3 111.3(2) 10_556 . ?
C4 N3 Cu3 111.3(2) . . ?
N1 Cu1 Cu3 132.66(13) . . ?
N1 Cu1 Cu2 148.25(4) . 10_556 ?
Cu3 Cu1 Cu2 62.22(2) . 10_556 ?
N1 Cu1 Cu2 148.25(4) . . ?
Cu3 Cu1 Cu2 62.22(2) . . ?
Cu2 Cu1 Cu2 60.59(3) 10_556 . ?
N1 Cu1 I3 116.27(13) . . ?
Cu3 Cu1 I3 111.06(3) . . ?
Cu2 Cu1 I3 59.288(18) 10_556 . ?
Cu2 Cu1 I3 59.288(18) . . ?
N1 Cu1 I2 100.44(7) . . ?
Cu3 Cu1 I2 61.326(14) . . ?
Cu2 Cu1 I2 110.49(3) 10_556 . ?
Cu2 Cu1 I2 59.149(15) . . ?
I3 Cu1 I2 110.803(17) . . ?
N1 Cu1 I2 100.44(7) . 10_556 ?
Cu3 Cu1 I2 61.326(14) . 10_556 ?
Cu2 Cu1 I2 59.149(15) 10_556 10_556 ?
Cu2 Cu1 I2 110.49(3) . 10_556 ?
I3 Cu1 I2 110.803(17) . 10_556 ?
I2 Cu1 I2 117.57(3) . 10_556 ?
N2 Cu2 I3 115.80(9) . . ?
N2 Cu2 Cu1 155.13(10) . . ?
I3 Cu2 Cu1 60.760(19) . . ?
N2 Cu2 I2 103.44(9) . . ?
I3 Cu2 I2 114.32(2) . . ?
Cu1 Cu2 I2 61.783(16) . . ?
N2 Cu2 Cu2 142.69(9) . 10_556 ?
I3 Cu2 Cu2 59.475(12) . 10_556 ?
Cu1 Cu2 Cu2 59.704(13) . 10_556 ?
I2 Cu2 Cu2 111.948(12) . 10_556 ?
N2 Cu2 Cu3 135.76(9) . . ?
I3 Cu2 Cu3 108.13(2) . . ?
Cu1 Cu2 Cu3 57.18(2) . . ?
I2 Cu2 Cu3 60.592(16) . . ?
Cu2 Cu2 Cu3 60.212(13) 10_556 . ?
N2 Cu2 I1 97.06(9) . . ?
I3 Cu2 I1 115.34(2) . . ?
Cu1 Cu2 I1 106.54(2) . . ?
I2 Cu2 I1 109.01(2) . . ?
Cu2 Cu2 I1 60.941(11) 10_556 . ?
Cu3 Cu2 I1 57.846(19) . . ?
N3 Cu3 Cu1 140.00(13) . . ?
N3 Cu3 I1 106.89(13) . . ?
Cu1 Cu3 I1 113.11(3) . . ?
N3 Cu3 Cu2 146.73(6) . 10_556 ?
Cu1 Cu3 Cu2 60.60(2) . 10_556 ?
I1 Cu3 Cu2 62.247(19) . 10_556 ?
N3 Cu3 Cu2 146.73(6) . . ?
Cu1 Cu3 Cu2 60.60(2) . . ?
I1 Cu3 Cu2 62.247(19) . . ?
Cu2 Cu3 Cu2 59.58(3) 10_556 . ?
N3 Cu3 I2 103.18(6) . 10_556 ?
Cu1 Cu3 I2 62.377(14) . 10_556 ?
I1 Cu3 I2 111.336(16) . 10_556 ?
Cu2 Cu3 I2 58.994(15) 10_556 10_556 ?
Cu2 Cu3 I2 110.06(3) . 10_556 ?
N3 Cu3 I2 103.18(6) . . ?
Cu1 Cu3 I2 62.377(14) . . ?
I1 Cu3 I2 111.336(16) . . ?
Cu2 Cu3 I2 110.06(3) 10_556 . ?
Cu2 Cu3 I2 58.994(15) . . ?
I2 Cu3 I2 119.46(3) 10_556 . ?
Cu3 I1 Cu2 59.906(17) . 10_556 ?
Cu3 I1 Cu2 59.906(17) . . ?
Cu2 I1 Cu2 58.12(2) 10_556 . ?
Cu2 I2 Cu3 60.414(19) . . ?
Cu2 I2 Cu1 59.068(18) . . ?
Cu3 I2 Cu1 56.297(19) . . ?
Cu2 I3 Cu2 61.05(2) 10_556 . ?
Cu2 I3 Cu1 59.952(17) 10_556 . ?
Cu2 I3 Cu1 59.952(17) . . ?

_diffrn_measured_fraction_theta_max 0.915
_diffrn_reflns_theta_full        12.50
_diffrn_measured_fraction_theta_full 0.991
_refine_diff_density_max         1.087
_refine_diff_density_min         -0.755
_refine_diff_density_rms         0.152

loop_
_platon_squeeze_void_nr
_platon_squeeze_void_average_x
_platon_squeeze_void_average_y
_platon_squeeze_void_average_z
_platon_squeeze_void_volume
_platon_squeeze_void_count_electrons
_platon_squeeze_void_content
1 0.000 0.000 -0.003 602 141 ' '
2 0.500 0.500 -0.005 256 56 ' '
3 0.000 0.407 0.250 13 3 ' '
4 0.000 0.593 0.250 13 3 ' '
5 0.407 0.000 0.250 13 3 ' '
6 0.593 0.000 0.250 13 3 ' '
7 0.000 0.407 0.750 13 2 ' '
8 0.000 0.593 0.750 13 2 ' '
9 0.407 0.000 0.750 13 2 ' '
10 0.593 0.000 0.750 13 2 ' '
_platon_squeeze_details          
;
;
