####################################################################### 
# 
# This file contains crystal structure data downloaded from the 
# Cambridge Structural Database (CSD) hosted by the Cambridge 
# Crystallographic Data Centre (CCDC).
# 
# Full information about CCDC data access policies and citation 
# guidelines are available at http://www.ccdc.cam.ac.uk/access/V1 
# 
# Audit and citation data items may have been added by the CCDC. 
# Please retain this information to preserve the provenance of 
# this file and to allow appropriate attribution of the data. 
# 
#######################################################################

data_CdIF-8
_audit_block_doi                 10.5517/ccsyqr5
_database_code_depnum_ccdc_archive 'CCDC 743558'
loop_
_citation_id
_citation_doi
_citation_year
1 10.1002/chem.200902729 2010
_audit_update_record             
;
2009-08-10 deposited with the CCDC.	2024-07-10 downloaded from the CCDC.
;

_audit_creation_method           SHELXL-97
_chemical_name_systematic        
;
?
;
_chemical_name_common            'Cadmium 2-nitroimidazolate'
_chemical_melting_point          ?
_chemical_formula_moiety         ?
_chemical_formula_sum            'C6 H4 Cd N6 O4'
_chemical_formula_weight         336.55

loop_
_atom_type_symbol
_atom_type_description
_atom_type_scat_dispersion_real
_atom_type_scat_dispersion_imag
_atom_type_scat_source
C C 0.0033 0.0016 'International Tables Vol C Tables 4.2.6.8 and 6.1.1.4'
H H 0.0000 0.0000 'International Tables Vol C Tables 4.2.6.8 and 6.1.1.4'
N N 0.0061 0.0033 'International Tables Vol C Tables 4.2.6.8 and 6.1.1.4'
Cd Cd -0.8075 1.2024 'International Tables Vol C Tables 4.2.6.8 and 6.1.1.4'
O O 0.0106 0.0060 'International Tables Vol C Tables 4.2.6.8 and 6.1.1.4'

_symmetry_cell_setting           Cubic
_symmetry_space_group_name_H-M   I-43m

loop_
_symmetry_equiv_pos_as_xyz
'x, y, z'
'-x, -y, z'
'-x, y, -z'
'x, -y, -z'
'z, x, y'
'z, -x, -y'
'-z, -x, y'
'-z, x, -y'
'y, z, x'
'-y, z, -x'
'y, -z, -x'
'-y, -z, x'
'y, x, z'
'-y, -x, z'
'y, -x, -z'
'-y, x, -z'
'x, z, y'
'-x, z, -y'
'-x, -z, y'
'x, -z, -y'
'z, y, x'
'z, -y, -x'
'-z, y, -x'
'-z, -y, x'
'x+1/2, y+1/2, z+1/2'
'-x+1/2, -y+1/2, z+1/2'
'-x+1/2, y+1/2, -z+1/2'
'x+1/2, -y+1/2, -z+1/2'
'z+1/2, x+1/2, y+1/2'
'z+1/2, -x+1/2, -y+1/2'
'-z+1/2, -x+1/2, y+1/2'
'-z+1/2, x+1/2, -y+1/2'
'y+1/2, z+1/2, x+1/2'
'-y+1/2, z+1/2, -x+1/2'
'y+1/2, -z+1/2, -x+1/2'
'-y+1/2, -z+1/2, x+1/2'
'y+1/2, x+1/2, z+1/2'
'-y+1/2, -x+1/2, z+1/2'
'y+1/2, -x+1/2, -z+1/2'
'-y+1/2, x+1/2, -z+1/2'
'x+1/2, z+1/2, y+1/2'
'-x+1/2, z+1/2, -y+1/2'
'-x+1/2, -z+1/2, y+1/2'
'x+1/2, -z+1/2, -y+1/2'
'z+1/2, y+1/2, x+1/2'
'z+1/2, -y+1/2, -x+1/2'
'-z+1/2, y+1/2, -x+1/2'
'-z+1/2, -y+1/2, x+1/2'

_cell_length_a                   18.0772(6)
_cell_length_b                   18.0772(6)
_cell_length_c                   18.0772(6)
_cell_angle_alpha                90.00
_cell_angle_beta                 90.00
_cell_angle_gamma                90.00
_cell_volume                     5907.4(3)
_cell_formula_units_Z            12
_cell_measurement_temperature    293(2)
_cell_measurement_reflns_used    ?
_cell_measurement_theta_min      ?
_cell_measurement_theta_max      ?

_exptl_crystal_description       polyhedron
_exptl_crystal_colour            'pale yellow'
_exptl_crystal_size_max          0.20
_exptl_crystal_size_mid          0.20
_exptl_crystal_size_min          0.20
_exptl_crystal_density_meas      'not measured'
_exptl_crystal_density_diffrn    1.135
_exptl_crystal_density_method    'not measured'
_exptl_crystal_F_000             1944
_exptl_absorpt_coefficient_mu    1.117
_exptl_absorpt_correction_type   'empirical used sadabs'
_exptl_absorpt_correction_T_min  0.8075
_exptl_absorpt_correction_T_max  0.8075
_exptl_absorpt_process_details   ?

_exptl_special_details           
;
?
;

_diffrn_ambient_temperature      293(2)
_diffrn_radiation_wavelength     0.71073
_diffrn_radiation_type           MoK\a
_diffrn_radiation_source         'fine-focus sealed tube'
_diffrn_radiation_monochromator  graphite
_diffrn_measurement_device_type  'Bruker SMART CCD area detector'
_diffrn_measurement_method       'phi and omega scans'
_diffrn_detector_area_resol_mean ?
_diffrn_standards_number         ?
_diffrn_standards_interval_count ?
_diffrn_standards_interval_time  ?
_diffrn_standards_decay_%        ?
_diffrn_reflns_number            14848
_diffrn_reflns_av_R_equivalents  0.0419
_diffrn_reflns_av_sigmaI/netI    0.0149
_diffrn_reflns_limit_h_min       -16
_diffrn_reflns_limit_h_max       21
_diffrn_reflns_limit_k_min       -19
_diffrn_reflns_limit_k_max       21
_diffrn_reflns_limit_l_min       -21
_diffrn_reflns_limit_l_max       21
_diffrn_reflns_theta_min         2.25
_diffrn_reflns_theta_max         24.99
_reflns_number_total             1003
_reflns_number_gt                957
_reflns_threshold_expression     >2sigma(I)

_computing_data_collection       'Bruker SMART'
_computing_cell_refinement       'Bruker SAINT'
_computing_data_reduction        'Bruker SAINT'
_computing_structure_solution    'SHELXS-97 (Sheldrick, 1990)'
_computing_structure_refinement  'SHELXL-97 (Sheldrick, 1997)'
_computing_molecular_graphics    'Bruker SHELXTL'
_computing_publication_material  'Bruker SHELXTL'

_refine_special_details          
;
Refinement of F^2^ against ALL reflections. The weighted R-factor wR and
goodness of fit S are based on F^2^, conventional R-factors R are based
on F, with F set to zero for negative F^2^. The threshold expression of
F^2^ > 2sigma(F^2^) is used only for calculating R-factors(gt) etc. and is
not relevant to the choice of reflections for refinement. R-factors based
on F^2^ are statistically about twice as large as those based on F, and R-
factors based on ALL data will be even larger.
;

_refine_ls_structure_factor_coef Fsqd
_refine_ls_matrix_type           full
_refine_ls_weighting_scheme      calc
_refine_ls_weighting_details     
'calc w=1/[\s^2^(Fo^2^)+(0.0687P)^2^+0.0000P] where P=(Fo^2^+2Fc^2^)/3'
_atom_sites_solution_primary     direct
_atom_sites_solution_secondary   difmap
_atom_sites_solution_hydrogens   geom
_refine_ls_hydrogen_treatment    mixed
_refine_ls_extinction_method     SHELXL
_refine_ls_extinction_coef       0.00011(13)
_refine_ls_extinction_expression Fc^*^=kFc[1+0.001xFc^2^\l^3^/sin(2\q)]^-1/4^
_refine_ls_abs_structure_details 'Flack H D (1983), Acta Cryst. A39, 876-881'
_refine_ls_abs_structure_Flack   0.52(7)
_refine_ls_number_reflns         1003
_refine_ls_number_parameters     43
_refine_ls_number_restraints     0
_refine_ls_R_factor_all          0.0446
_refine_ls_R_factor_gt           0.0420
_refine_ls_wR_factor_ref         0.1041
_refine_ls_wR_factor_gt          0.1010
_refine_ls_goodness_of_fit_ref   1.173
_refine_ls_restrained_S_all      1.173
_refine_ls_shift/su_max          0.000
_refine_ls_shift/su_mean         0.000

loop_
_atom_site_label
_atom_site_type_symbol
_atom_site_fract_x
_atom_site_fract_y
_atom_site_fract_z
_atom_site_U_iso_or_equiv
_atom_site_adp_type
_atom_site_occupancy
_atom_site_symmetry_multiplicity
_atom_site_calc_flag
_atom_site_refinement_flags
_atom_site_disorder_assembly
_atom_site_disorder_group
Cd1 Cd 0.0000 0.2500 0.5000 0.0646(3) Uani 1 4 d S . .
N1 N -0.0213(2) 0.3014(2) 0.3889(3) 0.0761(14) Uani 1 1 d . . .
N2 N 0.0560(4) 0.4069(3) 0.4069(3) 0.0703(15) Uani 1 2 d S . .
C2 C 0.0039(7) 0.3659(2) 0.3659(2) 0.0619(13) Uani 1 2 d S . .
C1 C -0.0683(5) 0.2817(4) 0.3344(4) 0.109(3) Uani 1 1 d . . .
H1A H -0.0963 0.2386 0.3334 0.131 Uiso 1 1 calc R . .
O1 O 0.0773(3) 0.4663(2) 0.3810(2) 0.0900(12) Uani 1 1 d . . .

loop_
_atom_site_aniso_label
_atom_site_aniso_U_11
_atom_site_aniso_U_22
_atom_site_aniso_U_33
_atom_site_aniso_U_23
_atom_site_aniso_U_13
_atom_site_aniso_U_12
Cd1 0.0681(3) 0.0574(4) 0.0681(3) 0.000 0.000 0.000
N1 0.092(4) 0.062(2) 0.074(2) 0.0039(18) -0.009(2) -0.0099(18)
N2 0.071(4) 0.070(2) 0.070(2) 0.005(3) -0.006(2) -0.006(2)
C2 0.063(3) 0.0612(17) 0.0612(17) 0.002(2) 0.000(4) 0.000(4)
C1 0.139(6) 0.087(4) 0.100(5) 0.015(3) -0.039(5) -0.042(4)
O1 0.096(3) 0.084(2) 0.090(3) 0.0151(19) -0.013(2) -0.031(2)

_geom_special_details            
;
All esds (except the esd in the dihedral angle between two l.s. planes)
are estimated using the full covariance matrix. The cell esds are taken
into account individually in the estimation of esds in distances, angles
and torsion angles; correlations between esds in cell parameters are only
used when they are defined by crystal symmetry. An approximate (isotropic)
treatment of cell esds is used for estimating esds involving l.s. planes.
;

loop_
_geom_bond_atom_site_label_1
_geom_bond_atom_site_label_2
_geom_bond_distance
_geom_bond_site_symmetry_2
_geom_bond_publ_flag
Cd1 N1 2.247(5) 3_556 ?
Cd1 N1 2.247(5) 46_455 ?
Cd1 N1 2.247(5) 48 ?
Cd1 N1 2.247(5) . ?
N1 C2 1.319(6) . ?
N1 C1 1.348(9) . ?
N2 O1 1.232(5) . ?
N2 O1 1.232(5) 17 ?
N2 C2 1.410(11) . ?
C2 N1 1.319(6) 17 ?
C1 C1 1.346(14) 17 ?
C1 H1A 0.9300 . ?

loop_
_geom_angle_atom_site_label_1
_geom_angle_atom_site_label_2
_geom_angle_atom_site_label_3
_geom_angle
_geom_angle_site_symmetry_1
_geom_angle_site_symmetry_3
_geom_angle_publ_flag
N1 Cd1 N1 99.85(9) 3_556 46_455 ?
N1 Cd1 N1 99.85(9) 3_556 48 ?
N1 Cd1 N1 131.1(2) 46_455 48 ?
N1 Cd1 N1 131.1(2) 3_556 . ?
N1 Cd1 N1 99.85(9) 46_455 . ?
N1 Cd1 N1 99.85(9) 48 . ?
C2 N1 C1 102.8(6) . . ?
C2 N1 Cd1 126.0(4) . . ?
C1 N1 Cd1 130.7(4) . . ?
O1 N2 O1 124.4(6) . 17 ?
O1 N2 C2 117.8(3) . . ?
O1 N2 C2 117.8(3) 17 . ?
N1 C2 N1 115.9(8) . 17 ?
N1 C2 N2 122.0(4) . . ?
N1 C2 N2 122.0(4) 17 . ?
C1 C1 N1 109.3(4) 17 . ?
C1 C1 H1A 125.4 17 . ?
N1 C1 H1A 125.4 . . ?

_diffrn_measured_fraction_theta_max 0.993
_diffrn_reflns_theta_full        24.99
_diffrn_measured_fraction_theta_full 0.993
_refine_diff_density_max         0.930
_refine_diff_density_min         -0.471
_refine_diff_density_rms         0.136
