####################################################################### 
# 
# This file contains crystal structure data downloaded from the 
# Cambridge Structural Database (CSD) hosted by the Cambridge 
# Crystallographic Data Centre (CCDC).
# 
# Full information about CCDC data access policies and citation 
# guidelines are available at http://www.ccdc.cam.ac.uk/access/V1 
# 
# Audit and citation data items may have been added by the CCDC. 
# Please retain this information to preserve the provenance of 
# this file and to allow appropriate attribution of the data. 
# 
#######################################################################

data_CdIF-4
_audit_block_doi                 10.5517/ccsyql0
_database_code_depnum_ccdc_archive 'CCDC 743553'
loop_
_citation_id
_citation_doi
_citation_year
1 10.1002/chem.200902729 2010
_audit_update_record             
;
2009-08-10 deposited with the CCDC.	2024-07-10 downloaded from the CCDC.
;

_audit_creation_method           SHELXL-97
_chemical_name_systematic        
;
?
;
_chemical_name_common            'Cadmium 2-ethylimidazolate'
_chemical_melting_point          ?
_chemical_formula_moiety         ?
_chemical_formula_sum            'C10 H14.33 Cd N4 O0.17'
_chemical_formula_weight         305.65

loop_
_atom_type_symbol
_atom_type_description
_atom_type_scat_dispersion_real
_atom_type_scat_dispersion_imag
_atom_type_scat_source
C C 0.0033 0.0016 'International Tables Vol C Tables 4.2.6.8 and 6.1.1.4'
H H 0.0000 0.0000 'International Tables Vol C Tables 4.2.6.8 and 6.1.1.4'
N N 0.0061 0.0033 'International Tables Vol C Tables 4.2.6.8 and 6.1.1.4'
Cd Cd -0.8075 1.2024 'International Tables Vol C Tables 4.2.6.8 and 6.1.1.4'
O O 0.0106 0.0060 'International Tables Vol C Tables 4.2.6.8 and 6.1.1.4'

_symmetry_cell_setting           cubic
_symmetry_space_group_name_H-M   Im-3m

loop_
_symmetry_equiv_pos_as_xyz
'x, y, z'
'-x, -y, z'
'-x, y, -z'
'x, -y, -z'
'z, x, y'
'z, -x, -y'
'-z, -x, y'
'-z, x, -y'
'y, z, x'
'-y, z, -x'
'y, -z, -x'
'-y, -z, x'
'y, x, -z'
'-y, -x, -z'
'y, -x, z'
'-y, x, z'
'x, z, -y'
'-x, z, y'
'-x, -z, -y'
'x, -z, y'
'z, y, -x'
'z, -y, x'
'-z, y, x'
'-z, -y, -x'
'x+1/2, y+1/2, z+1/2'
'-x+1/2, -y+1/2, z+1/2'
'-x+1/2, y+1/2, -z+1/2'
'x+1/2, -y+1/2, -z+1/2'
'z+1/2, x+1/2, y+1/2'
'z+1/2, -x+1/2, -y+1/2'
'-z+1/2, -x+1/2, y+1/2'
'-z+1/2, x+1/2, -y+1/2'
'y+1/2, z+1/2, x+1/2'
'-y+1/2, z+1/2, -x+1/2'
'y+1/2, -z+1/2, -x+1/2'
'-y+1/2, -z+1/2, x+1/2'
'y+1/2, x+1/2, -z+1/2'
'-y+1/2, -x+1/2, -z+1/2'
'y+1/2, -x+1/2, z+1/2'
'-y+1/2, x+1/2, z+1/2'
'x+1/2, z+1/2, -y+1/2'
'-x+1/2, z+1/2, y+1/2'
'-x+1/2, -z+1/2, -y+1/2'
'x+1/2, -z+1/2, y+1/2'
'z+1/2, y+1/2, -x+1/2'
'z+1/2, -y+1/2, x+1/2'
'-z+1/2, y+1/2, x+1/2'
'-z+1/2, -y+1/2, -x+1/2'
'-x, -y, -z'
'x, y, -z'
'x, -y, z'
'-x, y, z'
'-z, -x, -y'
'-z, x, y'
'z, x, -y'
'z, -x, y'
'-y, -z, -x'
'y, -z, x'
'-y, z, x'
'y, z, -x'
'-y, -x, z'
'y, x, z'
'-y, x, -z'
'y, -x, -z'
'-x, -z, y'
'x, -z, -y'
'x, z, y'
'-x, z, -y'
'-z, -y, x'
'-z, y, -x'
'z, -y, -x'
'z, y, x'
'-x+1/2, -y+1/2, -z+1/2'
'x+1/2, y+1/2, -z+1/2'
'x+1/2, -y+1/2, z+1/2'
'-x+1/2, y+1/2, z+1/2'
'-z+1/2, -x+1/2, -y+1/2'
'-z+1/2, x+1/2, y+1/2'
'z+1/2, x+1/2, -y+1/2'
'z+1/2, -x+1/2, y+1/2'
'-y+1/2, -z+1/2, -x+1/2'
'y+1/2, -z+1/2, x+1/2'
'-y+1/2, z+1/2, x+1/2'
'y+1/2, z+1/2, -x+1/2'
'-y+1/2, -x+1/2, z+1/2'
'y+1/2, x+1/2, z+1/2'
'-y+1/2, x+1/2, -z+1/2'
'y+1/2, -x+1/2, -z+1/2'
'-x+1/2, -z+1/2, y+1/2'
'x+1/2, -z+1/2, -y+1/2'
'x+1/2, z+1/2, y+1/2'
'-x+1/2, z+1/2, -y+1/2'
'-z+1/2, -y+1/2, x+1/2'
'-z+1/2, y+1/2, -x+1/2'
'z+1/2, -y+1/2, -x+1/2'
'z+1/2, y+1/2, x+1/2'

_cell_length_a                   30.8871(7)
_cell_length_b                   30.8871(7)
_cell_length_c                   30.8871(7)
_cell_angle_alpha                90.00
_cell_angle_beta                 90.00
_cell_angle_gamma                90.00
_cell_volume                     29466.7(12)
_cell_formula_units_Z            48
_cell_measurement_temperature    293(2)
_cell_measurement_reflns_used    ?
_cell_measurement_theta_min      ?
_cell_measurement_theta_max      ?

_exptl_crystal_description       polyhedron
_exptl_crystal_colour            'pale yellow'
_exptl_crystal_size_max          0.30
_exptl_crystal_size_mid          0.30
_exptl_crystal_size_min          0.25
_exptl_crystal_density_meas      'not measured'
_exptl_crystal_density_diffrn    0.827
_exptl_crystal_density_method    'not measured'
_exptl_crystal_F_000             7280
_exptl_absorpt_coefficient_mu    0.878
_exptl_absorpt_correction_type   'empirical used sadabs'
_exptl_absorpt_correction_T_min  0.7787
_exptl_absorpt_correction_T_max  0.8104
_exptl_absorpt_process_details   ?

_exptl_special_details           
;
?
;

_diffrn_ambient_temperature      293(2)
_diffrn_radiation_wavelength     0.71073
_diffrn_radiation_type           MoK\a
_diffrn_radiation_source         'fine-focus sealed tube'
_diffrn_radiation_monochromator  graphite
_diffrn_measurement_device_type  'Bruker SMART CCD area detector'
_diffrn_measurement_method       'phi and omega scans'
_diffrn_detector_area_resol_mean ?
_diffrn_standards_number         ?
_diffrn_standards_interval_count ?
_diffrn_standards_interval_time  ?
_diffrn_standards_decay_%        ?
_diffrn_reflns_number            67446
_diffrn_reflns_av_R_equivalents  0.0613
_diffrn_reflns_av_sigmaI/netI    0.0147
_diffrn_reflns_limit_h_min       -18
_diffrn_reflns_limit_h_max       35
_diffrn_reflns_limit_k_min       -35
_diffrn_reflns_limit_k_max       35
_diffrn_reflns_limit_l_min       -35
_diffrn_reflns_limit_l_max       35
_diffrn_reflns_theta_min         2.47
_diffrn_reflns_theta_max         23.98
_reflns_number_total             2203
_reflns_number_gt                1477
_reflns_threshold_expression     >2sigma(I)

_computing_data_collection       'Bruker SMART'
_computing_cell_refinement       'Bruker SAINT'
_computing_data_reduction        'Bruker SAINT'
_computing_structure_solution    'SHELXS-97 (Sheldrick, 1990)'
_computing_structure_refinement  'SHELXL-97 (Sheldrick, 1997)'
_computing_molecular_graphics    'Bruker SHELXTL'
_computing_publication_material  'Bruker SHELXTL'

_refine_special_details          
;
Refinement of F^2^ against ALL reflections. The weighted R-factor wR and
goodness of fit S are based on F^2^, conventional R-factors R are based
on F, with F set to zero for negative F^2^. The threshold expression of
F^2^ > 2sigma(F^2^) is used only for calculating R-factors(gt) etc. and is
not relevant to the choice of reflections for refinement. R-factors based
on F^2^ are statistically about twice as large as those based on F, and R-
factors based on ALL data will be even larger.
;

_refine_ls_structure_factor_coef Fsqd
_refine_ls_matrix_type           full
_refine_ls_weighting_scheme      calc
_refine_ls_weighting_details     
'calc w=1/[\s^2^(Fo^2^)+(0.1990P)^2^+0.0000P] where P=(Fo^2^+2Fc^2^)/3'
_atom_sites_solution_primary     direct
_atom_sites_solution_secondary   difmap
_atom_sites_solution_hydrogens   geom
_refine_ls_hydrogen_treatment    mixed
_refine_ls_extinction_method     none
_refine_ls_extinction_coef       ?
_refine_ls_number_reflns         2203
_refine_ls_number_parameters     78
_refine_ls_number_restraints     11
_refine_ls_R_factor_all          0.1161
_refine_ls_R_factor_gt           0.0730
_refine_ls_wR_factor_ref         0.3813
_refine_ls_wR_factor_gt          0.2308
_refine_ls_goodness_of_fit_ref   1.606
_refine_ls_restrained_S_all      1.604
_refine_ls_shift/su_max          0.000
_refine_ls_shift/su_mean         0.000

loop_
_atom_site_label
_atom_site_type_symbol
_atom_site_fract_x
_atom_site_fract_y
_atom_site_fract_z
_atom_site_U_iso_or_equiv
_atom_site_adp_type
_atom_site_occupancy
_atom_site_symmetry_multiplicity
_atom_site_calc_flag
_atom_site_refinement_flags
_atom_site_disorder_assembly
_atom_site_disorder_group
Cd1 Cd 0.10389(2) 0.39611(2) 0.2500 0.0680(7) Uani 1 2 d S . .
N1 N 0.0355(3) 0.3862(3) 0.2299(3) 0.079(2) Uani 1 1 d . A .
C6 C 0.1106(5) 0.3196(3) 0.3196(3) 0.084(5) Uani 1 2 d SD . .
C2 C 0.0000 0.3951(5) 0.2514(4) 0.101(7) Uani 1 2 d SD . .
N2 N 0.1195(3) 0.3593(3) 0.3087(3) 0.090(3) Uani 1 1 d . . .
C1 C 0.0224(4) 0.3677(10) 0.1942(5) 0.208(12) Uani 1 1 d D . .
H1A H 0.0401 0.3565 0.1726 0.250 Uiso 1 1 calc R A .
C3 C 0.0000 0.3884(9) 0.3010(5) 0.087(8) Uiso 0.50 2 d SPD A 1
H3A H -0.0256 0.3727 0.3103 0.104 Uiso 0.25 1 calc PR A 1
H3B H 0.0256 0.3727 0.3103 0.104 Uiso 0.25 1 calc PR A 1
C4 C 0.0000 0.4350(11) 0.3185(15) 0.112(13) Uiso 0.50 2 d SPD A 1
H4A H 0.0000 0.4344 0.3496 0.169 Uiso 0.50 2 calc SPR A 1
H4B H -0.0254 0.4499 0.3084 0.169 Uiso 0.25 1 calc PR A 1
H4C H 0.0254 0.4499 0.3084 0.169 Uiso 0.25 1 calc PR A 1
C5 C 0.1115(7) 0.3807(8) 0.3489(8) 0.088(6) Uiso 0.50 1 d P . 1
H5A H 0.1072 0.4102 0.3531 0.106 Uiso 0.50 1 calc PR . 1
C7 C 0.1266(13) 0.2863(5) 0.2863(5) 0.143(15) Uiso 0.50 2 d SPD B 1
H7A H 0.1422 0.2621 0.2988 0.172 Uiso 0.25 1 calc PR B 1
H7B H 0.1422 0.2988 0.2621 0.172 Uiso 0.25 1 calc PR B 1
C8 C 0.0785(17) 0.2773(8) 0.2773(8) 0.27(5) Uiso 0.50 2 d SPD B 1
H8A H 0.0760 0.2551 0.2556 0.408 Uiso 0.50 2 calc SPR B 1
H8B H 0.0648 0.3032 0.2671 0.408 Uiso 0.25 1 calc PR B 1
H8C H 0.0646 0.2678 0.3034 0.408 Uiso 0.25 1 calc PR B 1
C3' C 0.0000 0.4343(7) 0.2827(8) 0.091(9) Uiso 0.50 2 d SPD A 2
H3'A H 0.0255 0.4520 0.2782 0.109 Uiso 0.25 1 calc PR A 2
H3'B H -0.0255 0.4520 0.2782 0.109 Uiso 0.25 1 calc PR A 2
C4' C 0.0000 0.4150(17) 0.3287(10) 0.112(12) Uiso 0.50 2 d SPD A 2
H4'A H 0.0000 0.4380 0.3496 0.169 Uiso 0.50 2 calc SPR A 2
H4'B H 0.0254 0.3974 0.3326 0.169 Uiso 0.25 1 calc PR A 2
H4'C H -0.0254 0.3974 0.3326 0.169 Uiso 0.25 1 calc PR A 2
C5' C 0.1572(6) 0.3661(6) 0.3357(6) 0.086(6) Uiso 0.50 1 d PD . 2
H5'A H 0.1778 0.3878 0.3323 0.103 Uiso 0.50 1 calc PR . 2
C7' C 0.0691(8) 0.3001(8) 0.3001(8) 0.114(11) Uiso 0.50 2 d SPD B 2
H7'A H 0.0520 0.3230 0.2871 0.137 Uiso 0.25 1 calc PR B 2
H7'B H 0.0520 0.2871 0.3230 0.137 Uiso 0.25 1 calc PR B 2
C8' C 0.079(3) 0.2655(10) 0.2655(10) 0.22(3) Uiso 0.50 2 d SPD B 2
H8'A H 0.0528 0.2528 0.2554 0.323 Uiso 0.25 1 calc PR B 2
H8'B H 0.0972 0.2434 0.2779 0.323 Uiso 0.25 1 calc PR B 2
H8'C H 0.0942 0.2788 0.2417 0.323 Uiso 0.25 1 calc PR B 2
O1W O 0.2500 0.2500 0.2500 1.3(6) Uiso 1 12 d S . .

loop_
_atom_site_aniso_label
_atom_site_aniso_U_11
_atom_site_aniso_U_22
_atom_site_aniso_U_33
_atom_site_aniso_U_23
_atom_site_aniso_U_13
_atom_site_aniso_U_12
Cd1 0.0690(8) 0.0690(8) 0.0660(9) 0.0048(3) 0.0048(3) -0.0004(4)
N1 0.081(6) 0.083(5) 0.074(6) 0.002(4) 0.003(5) 0.002(5)
C6 0.125(13) 0.064(5) 0.064(5) -0.002(7) -0.008(5) -0.008(5)
C2 0.17(2) 0.091(13) 0.045(8) -0.007(7) 0.000 0.000
N2 0.100(6) 0.090(6) 0.080(6) 0.017(5) -0.009(5) 0.000(5)
C1 0.090(9) 0.40(3) 0.136(14) -0.149(19) 0.009(9) 0.005(15)

_geom_special_details            
;
All esds (except the esd in the dihedral angle between two l.s. planes)
are estimated using the full covariance matrix. The cell esds are taken
into account individually in the estimation of esds in distances, angles
and torsion angles; correlations between esds in cell parameters are only
used when they are defined by crystal symmetry. An approximate (isotropic)
treatment of cell esds is used for estimating esds involving l.s. planes.
;

loop_
_geom_bond_atom_site_label_1
_geom_bond_atom_site_label_2
_geom_bond_distance
_geom_bond_site_symmetry_2
_geom_bond_publ_flag
Cd1 N2 2.193(8) 38 ?
Cd1 N2 2.193(8) . ?
Cd1 N1 2.223(9) 38 ?
Cd1 N1 2.223(9) . ?
N1 C1 1.306(15) . ?
N1 C2 1.311(10) . ?
C6 N2 1.301(11) 67 ?
C6 N2 1.301(11) . ?
C6 C7 1.536(10) . ?
C6 C7' 1.539(10) . ?
C2 N1 1.311(10) 52 ?
C2 C3 1.546(10) . ?
C2 C3' 1.548(10) . ?
N2 C5 1.43(3) . ?
N2 C5' 1.448(17) . ?
C1 C1 1.39(3) 52 ?
C1 H1A 0.9300 . ?
C3 C4 1.539(10) . ?
C3 H3A 0.9700 . ?
C3 H3B 0.9700 . ?
C4 H4A 0.9600 . ?
C4 H4B 0.9600 . ?
C4 H4C 0.9600 . ?
C5 C5 1.39(5) 67 ?
C5 H5A 0.9300 . ?
C7 C8 1.539(10) . ?
C7 H7A 0.9700 . ?
C7 H7B 0.9700 . ?
C8 H8A 0.9600 . ?
C8 H8B 0.9600 . ?
C8 H8C 0.9600 . ?
C3' C4' 1.542(10) . ?
C3' H3'A 0.9700 . ?
C3' H3'B 0.9700 . ?
C4' H4'A 0.9600 . ?
C4' H4'B 0.9600 . ?
C4' H4'C 0.9600 . ?
C5' C5' 1.33(4) 67 ?
C5' H5'A 0.9300 . ?
C7' C8' 1.542(10) . ?
C7' H7'A 0.9700 . ?
C7' H7'B 0.9700 . ?
C8' H8'A 0.9600 . ?
C8' H8'B 0.9600 . ?
C8' H8'C 0.9600 . ?

loop_
_geom_angle_atom_site_label_1
_geom_angle_atom_site_label_2
_geom_angle_atom_site_label_3
_geom_angle
_geom_angle_site_symmetry_1
_geom_angle_site_symmetry_3
_geom_angle_publ_flag
N2 Cd1 N2 117.0(5) 38 . ?
N2 Cd1 N1 111.6(3) 38 38 ?
N2 Cd1 N1 103.4(4) . 38 ?
N2 Cd1 N1 103.4(4) 38 . ?
N2 Cd1 N1 111.6(3) . . ?
N1 Cd1 N1 109.8(5) 38 . ?
C1 N1 C2 105.2(9) . . ?
C1 N1 Cd1 126.1(8) . . ?
C2 N1 Cd1 128.6(7) . . ?
N2 C6 N2 116.4(12) 67 . ?
N2 C6 C7 112.8(11) 67 . ?
N2 C6 C7 112.8(11) . . ?
N2 C6 C7' 116.4(9) 67 . ?
N2 C6 C7' 116.4(9) . . ?
C7 C6 C7' 75(2) . . ?
N1 C2 N1 113.5(11) . 52 ?
N1 C2 C3 118.3(8) . . ?
N1 C2 C3 118.3(8) 52 . ?
N1 C2 C3' 118.7(8) . . ?
N1 C2 C3' 118.7(8) 52 . ?
C3 C2 C3' 59.1(15) . . ?
C6 N2 C5 99.9(12) . . ?
C6 N2 C5' 99.0(9) . . ?
C5 N2 C5' 64.6(12) . . ?
C6 N2 Cd1 131.1(7) . . ?
C5 N2 Cd1 116.2(11) . . ?
C5' N2 Cd1 125.3(10) . . ?
N1 C1 C1 108.0(7) . 52 ?
N1 C1 H1A 126.0 . . ?
C1 C1 H1A 126.0 52 . ?
C4 C3 C2 103(2) . . ?
C4 C3 H3A 111.2 . . ?
C2 C3 H3A 111.2 . . ?
C4 C3 H3B 111.2 . . ?
C2 C3 H3B 111.2 . . ?
H3A C3 H3B 109.1 . . ?
C3 C4 H4A 109.5 . . ?
C3 C4 H4B 109.5 . . ?
H4A C4 H4B 109.5 . . ?
C3 C4 H4C 109.5 . . ?
H4A C4 H4C 109.5 . . ?
H4B C4 H4C 109.5 . . ?
C5 C5 N2 106.8(10) 67 . ?
C5 C5 H5A 126.6 67 . ?
N2 C5 H5A 126.6 . . ?
C6 C7 C8 86.1(7) . . ?
C6 C7 H7A 114.3 . . ?
C8 C7 H7A 114.3 . . ?
C6 C7 H7B 114.3 . . ?
C8 C7 H7B 114.3 . . ?
H7A C7 H7B 111.4 . . ?
C7 C8 H8A 109.5 . . ?
C7 C8 H8B 109.5 . . ?
H8A C8 H8B 109.5 . . ?
C7 C8 H8C 109.5 . . ?
H8A C8 H8C 109.5 . . ?
H8B C8 H8C 109.5 . . ?
C4' C3' C2 106(2) . . ?
C4' C3' H3'A 110.6 . . ?
C2 C3' H3'A 110.6 . . ?
C4' C3' H3'B 110.6 . . ?
C2 C3' H3'B 110.6 . . ?
H3'A C3' H3'B 108.7 . . ?
C3' C4' H4'A 109.5 . . ?
C3' C4' H4'B 109.5 . . ?
H4'A C4' H4'B 109.5 . . ?
C3' C4' H4'C 109.5 . . ?
H4'A C4' H4'C 109.5 . . ?
H4'B C4' H4'C 109.5 . . ?
C5' C5' N2 107.8(9) 67 . ?
C5' C5' H5'A 126.1 67 . ?
N2 C5' H5'A 126.1 . . ?
C6 C7' C8' 112(4) . . ?
C6 C7' H7'A 109.2 . . ?
C8' C7' H7'A 109.2 . . ?
C6 C7' H7'B 109.2 . . ?
C8' C7' H7'B 109.2 . . ?
H7'A C7' H7'B 107.9 . . ?
C7' C8' H8'A 109.5 . . ?
C7' C8' H8'B 109.5 . . ?
H8'A C8' H8'B 109.5 . . ?
C7' C8' H8'C 109.5 . . ?
H8'A C8' H8'C 109.5 . . ?
H8'B C8' H8'C 109.5 . . ?

_diffrn_measured_fraction_theta_max 0.987
_diffrn_reflns_theta_full        23.98
_diffrn_measured_fraction_theta_full 0.987
_refine_diff_density_max         2.754
_refine_diff_density_min         -0.591
_refine_diff_density_rms         0.117
