####################################################################### 
# 
# This file contains crystal structure data downloaded from the 
# Cambridge Structural Database (CSD) hosted by the Cambridge 
# Crystallographic Data Centre (CCDC).
# 
# Full information about CCDC data access policies and citation 
# guidelines are available at http://www.ccdc.cam.ac.uk/access/V1 
# 
# Audit and citation data items may have been added by the CCDC. 
# Please retain this information to preserve the provenance of 
# this file and to allow appropriate attribution of the data. 
# 
#######################################################################

data_CdIF-6
_audit_block_doi                 10.5517/ccsyqn2
_database_code_depnum_ccdc_archive 'CCDC 743555'
loop_
_citation_id
_citation_doi
_citation_year
1 10.1002/chem.200902729 2010
_audit_update_record             
;
2009-08-10 deposited with the CCDC.	2024-07-10 downloaded from the CCDC.
;

_audit_creation_method           SHELXL-97
_chemical_name_systematic        
;
?
;
_chemical_name_common            'Cadmium 2-ethylimidazolate'
_chemical_melting_point          ?
_chemical_formula_moiety         ?
_chemical_formula_sum            'C10 H14 Cd N4'
_chemical_formula_weight         302.65

loop_
_atom_type_symbol
_atom_type_description
_atom_type_scat_dispersion_real
_atom_type_scat_dispersion_imag
_atom_type_scat_source
C C 0.0033 0.0016 'International Tables Vol C Tables 4.2.6.8 and 6.1.1.4'
H H 0.0000 0.0000 'International Tables Vol C Tables 4.2.6.8 and 6.1.1.4'
N N 0.0061 0.0033 'International Tables Vol C Tables 4.2.6.8 and 6.1.1.4'
Cd Cd -0.8075 1.2024 'International Tables Vol C Tables 4.2.6.8 and 6.1.1.4'

_symmetry_cell_setting           Cubic
_symmetry_space_group_name_H-M   Ia-3d

loop_
_symmetry_equiv_pos_as_xyz
'x, y, z'
'-x+1/2, -y, z+1/2'
'-x, y+1/2, -z+1/2'
'x+1/2, -y+1/2, -z'
'z, x, y'
'z+1/2, -x+1/2, -y'
'-z+1/2, -x, y+1/2'
'-z, x+1/2, -y+1/2'
'y, z, x'
'-y, z+1/2, -x+1/2'
'y+1/2, -z+1/2, -x'
'-y+1/2, -z, x+1/2'
'y+3/4, x+1/4, -z+1/4'
'-y+3/4, -x+3/4, -z+3/4'
'y+1/4, -x+1/4, z+3/4'
'-y+1/4, x+3/4, z+1/4'
'x+3/4, z+1/4, -y+1/4'
'-x+1/4, z+3/4, y+1/4'
'-x+3/4, -z+3/4, -y+3/4'
'x+1/4, -z+1/4, y+3/4'
'z+3/4, y+1/4, -x+1/4'
'z+1/4, -y+1/4, x+3/4'
'-z+1/4, y+3/4, x+1/4'
'-z+3/4, -y+3/4, -x+3/4'
'x+1/2, y+1/2, z+1/2'
'-x+1, -y+1/2, z+1'
'-x+1/2, y+1, -z+1'
'x+1, -y+1, -z+1/2'
'z+1/2, x+1/2, y+1/2'
'z+1, -x+1, -y+1/2'
'-z+1, -x+1/2, y+1'
'-z+1/2, x+1, -y+1'
'y+1/2, z+1/2, x+1/2'
'-y+1/2, z+1, -x+1'
'y+1, -z+1, -x+1/2'
'-y+1, -z+1/2, x+1'
'y+5/4, x+3/4, -z+3/4'
'-y+5/4, -x+5/4, -z+5/4'
'y+3/4, -x+3/4, z+5/4'
'-y+3/4, x+5/4, z+3/4'
'x+5/4, z+3/4, -y+3/4'
'-x+3/4, z+5/4, y+3/4'
'-x+5/4, -z+5/4, -y+5/4'
'x+3/4, -z+3/4, y+5/4'
'z+5/4, y+3/4, -x+3/4'
'z+3/4, -y+3/4, x+5/4'
'-z+3/4, y+5/4, x+3/4'
'-z+5/4, -y+5/4, -x+5/4'
'-x, -y, -z'
'x-1/2, y, -z-1/2'
'x, -y-1/2, z-1/2'
'-x-1/2, y-1/2, z'
'-z, -x, -y'
'-z-1/2, x-1/2, y'
'z-1/2, x, -y-1/2'
'z, -x-1/2, y-1/2'
'-y, -z, -x'
'y, -z-1/2, x-1/2'
'-y-1/2, z-1/2, x'
'y-1/2, z, -x-1/2'
'-y-3/4, -x-1/4, z-1/4'
'y-3/4, x-3/4, z-3/4'
'-y-1/4, x-1/4, -z-3/4'
'y-1/4, -x-3/4, -z-1/4'
'-x-3/4, -z-1/4, y-1/4'
'x-1/4, -z-3/4, -y-1/4'
'x-3/4, z-3/4, y-3/4'
'-x-1/4, z-1/4, -y-3/4'
'-z-3/4, -y-1/4, x-1/4'
'-z-1/4, y-1/4, -x-3/4'
'z-1/4, -y-3/4, -x-1/4'
'z-3/4, y-3/4, x-3/4'
'-x+1/2, -y+1/2, -z+1/2'
'x, y+1/2, -z'
'x+1/2, -y, z'
'-x, y, z+1/2'
'-z+1/2, -x+1/2, -y+1/2'
'-z, x, y+1/2'
'z, x+1/2, -y'
'z+1/2, -x, y'
'-y+1/2, -z+1/2, -x+1/2'
'y+1/2, -z, x'
'-y, z, x+1/2'
'y, z+1/2, -x'
'-y-1/4, -x+1/4, z+1/4'
'y-1/4, x-1/4, z-1/4'
'-y+1/4, x+1/4, -z-1/4'
'y+1/4, -x-1/4, -z+1/4'
'-x-1/4, -z+1/4, y+1/4'
'x+1/4, -z-1/4, -y+1/4'
'x-1/4, z-1/4, y-1/4'
'-x+1/4, z+1/4, -y-1/4'
'-z-1/4, -y+1/4, x+1/4'
'-z+1/4, y+1/4, -x-1/4'
'z+1/4, -y-1/4, -x+1/4'
'z-1/4, y-1/4, x-1/4'

_cell_length_a                   27.9997(8)
_cell_length_b                   27.9997(8)
_cell_length_c                   27.9997(8)
_cell_angle_alpha                90.00
_cell_angle_beta                 90.00
_cell_angle_gamma                90.00
_cell_volume                     21951.3(11)
_cell_formula_units_Z            48
_cell_measurement_temperature    293(2)
_cell_measurement_reflns_used    ?
_cell_measurement_theta_min      ?
_cell_measurement_theta_max      ?

_exptl_crystal_description       polyhedron
_exptl_crystal_colour            'pale yellow'
_exptl_crystal_size_max          0.20
_exptl_crystal_size_mid          0.20
_exptl_crystal_size_min          0.20
_exptl_crystal_density_meas      'not measured'
_exptl_crystal_density_diffrn    1.099
_exptl_crystal_density_method    'not measured'
_exptl_crystal_F_000             7200
_exptl_absorpt_coefficient_mu    1.177
_exptl_absorpt_correction_type   'empirical used sadabs'
_exptl_absorpt_correction_T_min  0.7987
_exptl_absorpt_correction_T_max  0.7987
_exptl_absorpt_process_details   ?

_exptl_special_details           
;
?
;

_diffrn_ambient_temperature      293(2)
_diffrn_radiation_wavelength     0.71073
_diffrn_radiation_type           MoK\a
_diffrn_radiation_source         'fine-focus sealed tube'
_diffrn_radiation_monochromator  graphite
_diffrn_measurement_device_type  'Bruker SMART CCD area detector'
_diffrn_measurement_method       'phi and omega scans'
_diffrn_detector_area_resol_mean ?
_diffrn_standards_number         ?
_diffrn_standards_interval_count ?
_diffrn_standards_interval_time  ?
_diffrn_standards_decay_%        ?
_diffrn_reflns_number            48478
_diffrn_reflns_av_R_equivalents  0.0847
_diffrn_reflns_av_sigmaI/netI    0.0231
_diffrn_reflns_limit_h_min       -32
_diffrn_reflns_limit_h_max       32
_diffrn_reflns_limit_k_min       -23
_diffrn_reflns_limit_k_max       32
_diffrn_reflns_limit_l_min       -32
_diffrn_reflns_limit_l_max       32
_diffrn_reflns_theta_min         2.91
_diffrn_reflns_theta_max         24.68
_reflns_number_total             1550
_reflns_number_gt                1066
_reflns_threshold_expression     >2sigma(I)

_computing_data_collection       'Bruker SMART'
_computing_cell_refinement       'Bruker SAINT'
_computing_data_reduction        'Bruker SAINT'
_computing_structure_solution    'SHELXS-97 (Sheldrick, 1990)'
_computing_structure_refinement  'SHELXL-97 (Sheldrick, 1997)'
_computing_molecular_graphics    'Bruker SHELXTL'
_computing_publication_material  'Bruker SHELXTL'

_refine_special_details          
;
Refinement of F^2^ against ALL reflections. The weighted R-factor wR and
goodness of fit S are based on F^2^, conventional R-factors R are based
on F, with F set to zero for negative F^2^. The threshold expression of
F^2^ > 2sigma(F^2^) is used only for calculating R-factors(gt) etc. and is
not relevant to the choice of reflections for refinement. R-factors based
on F^2^ are statistically about twice as large as those based on F, and R-
factors based on ALL data will be even larger.
;

_refine_ls_structure_factor_coef Fsqd
_refine_ls_matrix_type           full
_refine_ls_weighting_scheme      calc
_refine_ls_weighting_details     
'calc w=1/[\s^2^(Fo^2^)+(0.0950P)^2^+65.0000P] where P=(Fo^2^+2Fc^2^)/3'
_atom_sites_solution_primary     direct
_atom_sites_solution_secondary   difmap
_atom_sites_solution_hydrogens   geom
_refine_ls_hydrogen_treatment    mixed
_refine_ls_extinction_method     none
_refine_ls_extinction_coef       ?
_refine_ls_number_reflns         1550
_refine_ls_number_parameters     64
_refine_ls_number_restraints     0
_refine_ls_R_factor_all          0.0786
_refine_ls_R_factor_gt           0.0493
_refine_ls_wR_factor_ref         0.1725
_refine_ls_wR_factor_gt          0.1306
_refine_ls_goodness_of_fit_ref   1.064
_refine_ls_restrained_S_all      1.064
_refine_ls_shift/su_max          0.001
_refine_ls_shift/su_mean         0.000

loop_
_atom_site_label
_atom_site_type_symbol
_atom_site_fract_x
_atom_site_fract_y
_atom_site_fract_z
_atom_site_U_iso_or_equiv
_atom_site_adp_type
_atom_site_occupancy
_atom_site_symmetry_multiplicity
_atom_site_calc_flag
_atom_site_refinement_flags
_atom_site_disorder_assembly
_atom_site_disorder_group
Cd1 Cd 0.1250 0.839280(18) 0.089280(18) 0.0705(4) Uani 1 2 d S . .
N1 N -0.0115(2) 0.8804(2) 0.1521(2) 0.0802(16) Uani 1 1 d . . .
N2 N 0.06329(19) 0.8682(2) 0.1279(2) 0.0753(14) Uani 1 1 d . . .
C1 C 0.0646(3) 0.8879(3) 0.1731(3) 0.094(2) Uani 1 1 d . . .
H1A H 0.0921 0.8943 0.1907 0.113 Uiso 1 1 calc R . .
C2 C 0.0196(3) 0.8963(3) 0.1875(3) 0.091(2) Uani 1 1 d . . .
H2A H 0.0107 0.9104 0.2162 0.109 Uiso 1 1 calc R . .
C3 C 0.0167(2) 0.8643(2) 0.1179(2) 0.0730(17) Uani 1 1 d . . .
C4 C -0.0013(3) 0.8427(4) 0.0718(3) 0.116(3) Uani 1 1 d . . .
H4A H 0.0227 0.8214 0.0588 0.139 Uiso 1 1 calc R . .
H4B H -0.0298 0.8241 0.0781 0.139 Uiso 1 1 calc R . .
C5 C -0.0115(10) 0.8776(10) 0.0392(10) 0.290(12) Uiso 1 1 d . . .
H5A H -0.0230 0.8632 0.0102 0.435 Uiso 1 1 calc R . .
H5B H 0.0168 0.8957 0.0325 0.435 Uiso 1 1 calc R . .
H5C H -0.0356 0.8984 0.0519 0.435 Uiso 1 1 calc R . .

loop_
_atom_site_aniso_label
_atom_site_aniso_U_11
_atom_site_aniso_U_22
_atom_site_aniso_U_33
_atom_site_aniso_U_23
_atom_site_aniso_U_13
_atom_site_aniso_U_12
Cd1 0.0665(5) 0.0724(4) 0.0724(4) 0.0034(3) 0.0069(2) -0.0069(2)
N1 0.069(4) 0.089(4) 0.083(4) -0.010(3) 0.004(3) 0.005(3)
N2 0.069(3) 0.077(4) 0.079(4) -0.005(3) 0.010(3) 0.000(3)
C1 0.081(5) 0.108(6) 0.095(6) -0.020(5) -0.002(4) -0.011(4)
C2 0.090(5) 0.097(5) 0.086(5) -0.023(4) 0.009(4) -0.005(4)
C3 0.075(4) 0.074(4) 0.070(4) -0.010(3) 0.012(3) 0.002(3)
C4 0.074(5) 0.173(10) 0.099(6) 0.003(6) 0.019(5) 0.006(6)

_geom_special_details            
;
All esds (except the esd in the dihedral angle between two l.s. planes)
are estimated using the full covariance matrix. The cell esds are taken
into account individually in the estimation of esds in distances, angles
and torsion angles; correlations between esds in cell parameters are only
used when they are defined by crystal symmetry. An approximate (isotropic)
treatment of cell esds is used for estimating esds involving l.s. planes.
;

loop_
_geom_bond_atom_site_label_1
_geom_bond_atom_site_label_2
_geom_bond_distance
_geom_bond_site_symmetry_2
_geom_bond_publ_flag
Cd1 N2 2.193(5) 18_554 ?
Cd1 N2 2.193(5) . ?
Cd1 N1 2.197(6) 88_465 ?
Cd1 N1 2.197(6) 57_665 ?
N1 C3 1.323(8) . ?
N1 C2 1.391(10) . ?
N1 Cd1 2.197(6) 53_566 ?
N2 C3 1.338(8) . ?
N2 C1 1.382(10) . ?
C1 C2 1.344(11) . ?
C1 H1A 0.9300 . ?
C2 H2A 0.9300 . ?
C3 C4 1.512(12) . ?
C4 C5 1.37(3) . ?
C4 H4A 0.9700 . ?
C4 H4B 0.9700 . ?
C5 H5A 0.9600 . ?
C5 H5B 0.9600 . ?
C5 H5C 0.9600 . ?

loop_
_geom_angle_atom_site_label_1
_geom_angle_atom_site_label_2
_geom_angle_atom_site_label_3
_geom_angle
_geom_angle_site_symmetry_1
_geom_angle_site_symmetry_3
_geom_angle_publ_flag
N2 Cd1 N2 104.9(3) 18_554 . ?
N2 Cd1 N1 113.2(2) 18_554 88_465 ?
N2 Cd1 N1 111.5(2) . 88_465 ?
N2 Cd1 N1 111.5(2) 18_554 57_665 ?
N2 Cd1 N1 113.2(2) . 57_665 ?
N1 Cd1 N1 102.8(3) 88_465 57_665 ?
C3 N1 C2 104.6(6) . . ?
C3 N1 Cd1 130.4(5) . 53_566 ?
C2 N1 Cd1 124.4(5) . 53_566 ?
C3 N2 C1 104.6(6) . . ?
C3 N2 Cd1 129.4(5) . . ?
C1 N2 Cd1 125.3(5) . . ?
C2 C1 N2 108.5(7) . . ?
C2 C1 H1A 125.7 . . ?
N2 C1 H1A 125.7 . . ?
C1 C2 N1 108.6(7) . . ?
C1 C2 H2A 125.7 . . ?
N1 C2 H2A 125.7 . . ?
N1 C3 N2 113.7(6) . . ?
N1 C3 C4 123.8(6) . . ?
N2 C3 C4 122.5(6) . . ?
C5 C4 C3 110.7(15) . . ?
C5 C4 H4A 109.5 . . ?
C3 C4 H4A 109.5 . . ?
C5 C4 H4B 109.5 . . ?
C3 C4 H4B 109.5 . . ?
H4A C4 H4B 108.1 . . ?
C4 C5 H5A 109.5 . . ?
C4 C5 H5B 109.5 . . ?
H5A C5 H5B 109.5 . . ?
C4 C5 H5C 109.5 . . ?
H5A C5 H5C 109.5 . . ?
H5B C5 H5C 109.5 . . ?

_diffrn_measured_fraction_theta_max 0.987
_diffrn_reflns_theta_full        24.68
_diffrn_measured_fraction_theta_full 0.987
_refine_diff_density_max         0.984
_refine_diff_density_min         -0.375
_refine_diff_density_rms         0.097
