####################################################################### 
# 
# This file contains crystal structure data downloaded from the 
# Cambridge Structural Database (CSD) hosted by the Cambridge 
# Crystallographic Data Centre (CCDC).
# 
# Full information about CCDC data access policies and citation 
# guidelines are available at http://www.ccdc.cam.ac.uk/access/V1 
# 
# Audit and citation data items may have been added by the CCDC. 
# Please retain this information to preserve the provenance of 
# this file and to allow appropriate attribution of the data. 
# 
#######################################################################

data_CdIF-9
_audit_block_doi                 10.5517/ccsyqs6
_database_code_depnum_ccdc_archive 'CCDC 743559'
loop_
_citation_id
_citation_doi
_citation_year
1 10.1002/chem.200902729 2010
_audit_update_record             
;
2009-08-10 deposited with the CCDC.	2024-07-10 downloaded from the CCDC.
;

_audit_creation_method           SHELXL-97
_chemical_name_systematic        
;
?
;
_chemical_name_common            'Cadmium 2-nitroimidazolate'
_chemical_melting_point          ?
_chemical_formula_moiety         ?
_chemical_formula_sum            'C6 H4.08 Cd N6 O4.04'
_chemical_formula_weight         337.30

loop_
_atom_type_symbol
_atom_type_description
_atom_type_scat_dispersion_real
_atom_type_scat_dispersion_imag
_atom_type_scat_source
C C 0.0033 0.0016 'International Tables Vol C Tables 4.2.6.8 and 6.1.1.4'
H H 0.0000 0.0000 'International Tables Vol C Tables 4.2.6.8 and 6.1.1.4'
N N 0.0061 0.0033 'International Tables Vol C Tables 4.2.6.8 and 6.1.1.4'
O O 0.0106 0.0060 'International Tables Vol C Tables 4.2.6.8 and 6.1.1.4'
Cd Cd -0.8075 1.2024 'International Tables Vol C Tables 4.2.6.8 and 6.1.1.4'

_symmetry_cell_setting           Cubic
_symmetry_space_group_name_H-M   Im-3m

loop_
_symmetry_equiv_pos_as_xyz
'x, y, z'
'-x, -y, z'
'-x, y, -z'
'x, -y, -z'
'z, x, y'
'z, -x, -y'
'-z, -x, y'
'-z, x, -y'
'y, z, x'
'-y, z, -x'
'y, -z, -x'
'-y, -z, x'
'y, x, -z'
'-y, -x, -z'
'y, -x, z'
'-y, x, z'
'x, z, -y'
'-x, z, y'
'-x, -z, -y'
'x, -z, y'
'z, y, -x'
'z, -y, x'
'-z, y, x'
'-z, -y, -x'
'x+1/2, y+1/2, z+1/2'
'-x+1/2, -y+1/2, z+1/2'
'-x+1/2, y+1/2, -z+1/2'
'x+1/2, -y+1/2, -z+1/2'
'z+1/2, x+1/2, y+1/2'
'z+1/2, -x+1/2, -y+1/2'
'-z+1/2, -x+1/2, y+1/2'
'-z+1/2, x+1/2, -y+1/2'
'y+1/2, z+1/2, x+1/2'
'-y+1/2, z+1/2, -x+1/2'
'y+1/2, -z+1/2, -x+1/2'
'-y+1/2, -z+1/2, x+1/2'
'y+1/2, x+1/2, -z+1/2'
'-y+1/2, -x+1/2, -z+1/2'
'y+1/2, -x+1/2, z+1/2'
'-y+1/2, x+1/2, z+1/2'
'x+1/2, z+1/2, -y+1/2'
'-x+1/2, z+1/2, y+1/2'
'-x+1/2, -z+1/2, -y+1/2'
'x+1/2, -z+1/2, y+1/2'
'z+1/2, y+1/2, -x+1/2'
'z+1/2, -y+1/2, x+1/2'
'-z+1/2, y+1/2, x+1/2'
'-z+1/2, -y+1/2, -x+1/2'
'-x, -y, -z'
'x, y, -z'
'x, -y, z'
'-x, y, z'
'-z, -x, -y'
'-z, x, y'
'z, x, -y'
'z, -x, y'
'-y, -z, -x'
'y, -z, x'
'-y, z, x'
'y, z, -x'
'-y, -x, z'
'y, x, z'
'-y, x, -z'
'y, -x, -z'
'-x, -z, y'
'x, -z, -y'
'x, z, y'
'-x, z, -y'
'-z, -y, x'
'-z, y, -x'
'z, -y, -x'
'z, y, x'
'-x+1/2, -y+1/2, -z+1/2'
'x+1/2, y+1/2, -z+1/2'
'x+1/2, -y+1/2, z+1/2'
'-x+1/2, y+1/2, z+1/2'
'-z+1/2, -x+1/2, -y+1/2'
'-z+1/2, x+1/2, y+1/2'
'z+1/2, x+1/2, -y+1/2'
'z+1/2, -x+1/2, y+1/2'
'-y+1/2, -z+1/2, -x+1/2'
'y+1/2, -z+1/2, x+1/2'
'-y+1/2, z+1/2, x+1/2'
'y+1/2, z+1/2, -x+1/2'
'-y+1/2, -x+1/2, z+1/2'
'y+1/2, x+1/2, z+1/2'
'-y+1/2, x+1/2, -z+1/2'
'y+1/2, -x+1/2, -z+1/2'
'-x+1/2, -z+1/2, y+1/2'
'x+1/2, -z+1/2, -y+1/2'
'x+1/2, z+1/2, y+1/2'
'-x+1/2, z+1/2, -y+1/2'
'-z+1/2, -y+1/2, x+1/2'
'-z+1/2, y+1/2, -x+1/2'
'z+1/2, -y+1/2, -x+1/2'
'z+1/2, y+1/2, x+1/2'

_cell_length_a                   30.4997(11)
_cell_length_b                   30.4997(11)
_cell_length_c                   30.4997(11)
_cell_angle_alpha                90.00
_cell_angle_beta                 90.00
_cell_angle_gamma                90.00
_cell_volume                     28371.8(18)
_cell_formula_units_Z            48
_cell_measurement_temperature    293(2)
_cell_measurement_reflns_used    ?
_cell_measurement_theta_min      ?
_cell_measurement_theta_max      ?

_exptl_crystal_description       polyhedron
_exptl_crystal_colour            yellow
_exptl_crystal_size_max          0.15
_exptl_crystal_size_mid          0.15
_exptl_crystal_size_min          0.15
_exptl_crystal_density_meas      'not measured'
_exptl_crystal_density_diffrn    0.948
_exptl_crystal_density_method    'not measured'
_exptl_crystal_F_000             7796
_exptl_absorpt_coefficient_mu    0.931
_exptl_absorpt_correction_type   'empirical used sadabs'
_exptl_absorpt_correction_T_min  0.8730
_exptl_absorpt_correction_T_max  0.8730
_exptl_absorpt_process_details   ?

_exptl_special_details           
;
?
;

_diffrn_ambient_temperature      293(2)
_diffrn_radiation_wavelength     0.71073
_diffrn_radiation_type           MoK\a
_diffrn_radiation_source         'fine-focus sealed tube'
_diffrn_radiation_monochromator  graphite
_diffrn_measurement_device_type  'Bruker SMART CCD area detector'
_diffrn_measurement_method       'phi and omega scans'
_diffrn_detector_area_resol_mean ?
_diffrn_standards_number         ?
_diffrn_standards_interval_count ?
_diffrn_standards_interval_time  ?
_diffrn_standards_decay_%        ?
_diffrn_reflns_number            50374
_diffrn_reflns_av_R_equivalents  0.1014
_diffrn_reflns_av_sigmaI/netI    0.0232
_diffrn_reflns_limit_h_min       -31
_diffrn_reflns_limit_h_max       31
_diffrn_reflns_limit_k_min       -24
_diffrn_reflns_limit_k_max       31
_diffrn_reflns_limit_l_min       -31
_diffrn_reflns_limit_l_max       30
_diffrn_reflns_theta_min         2.11
_diffrn_reflns_theta_max         21.28
_reflns_number_total             1542
_reflns_number_gt                1037
_reflns_threshold_expression     >2sigma(I)

_computing_data_collection       'Bruker SMART'
_computing_cell_refinement       'Bruker SAINT'
_computing_data_reduction        'Bruker SAINT'
_computing_structure_solution    'SHELXS-97 (Sheldrick, 1990)'
_computing_structure_refinement  'SHELXL-97 (Sheldrick, 1997)'
_computing_molecular_graphics    'Bruker SHELXTL'
_computing_publication_material  'Bruker SHELXTL'

_refine_special_details          
;
Refinement of F^2^ against ALL reflections. The weighted R-factor wR and
goodness of fit S are based on F^2^, conventional R-factors R are based
on F, with F set to zero for negative F^2^. The threshold expression of
F^2^ > 2sigma(F^2^) is used only for calculating R-factors(gt) etc. and is
not relevant to the choice of reflections for refinement. R-factors based
on F^2^ are statistically about twice as large as those based on F, and R-
factors based on ALL data will be even larger.
;

_refine_ls_structure_factor_coef Fsqd
_refine_ls_matrix_type           full
_refine_ls_weighting_scheme      calc
_refine_ls_weighting_details     
'calc w=1/[\s^2^(Fo^2^)+(0.1433P)^2^+0.0000P] where P=(Fo^2^+2Fc^2^)/3'
_atom_sites_solution_primary     direct
_atom_sites_solution_secondary   difmap
_atom_sites_solution_hydrogens   geom
_refine_ls_hydrogen_treatment    mixed
_refine_ls_extinction_method     none
_refine_ls_extinction_coef       ?
_refine_ls_number_reflns         1542
_refine_ls_number_parameters     85
_refine_ls_number_restraints     0
_refine_ls_R_factor_all          0.1034
_refine_ls_R_factor_gt           0.0663
_refine_ls_wR_factor_ref         0.2532
_refine_ls_wR_factor_gt          0.1894
_refine_ls_goodness_of_fit_ref   1.319
_refine_ls_restrained_S_all      1.319
_refine_ls_shift/su_max          0.000
_refine_ls_shift/su_mean         0.000

loop_
_atom_site_label
_atom_site_type_symbol
_atom_site_fract_x
_atom_site_fract_y
_atom_site_fract_z
_atom_site_U_iso_or_equiv
_atom_site_adp_type
_atom_site_occupancy
_atom_site_symmetry_multiplicity
_atom_site_calc_flag
_atom_site_refinement_flags
_atom_site_disorder_assembly
_atom_site_disorder_group
Cd1 Cd 0.39518(2) 0.10482(2) 0.2500 0.0936(7) Uani 1 2 d S . .
N1 N 0.3943(3) 0.0370(3) 0.2201(4) 0.132(3) Uani 1 1 d . . .
N2 N 0.3669(3) 0.1392(3) 0.1915(3) 0.102(2) Uani 1 1 d . . .
N3 N 0.3907(4) 0.0000 0.2909(6) 0.124(4) Uani 1 2 d S . .
N4 N 0.4105(5) 0.2042(3) 0.2042(3) 0.108(4) Uani 1 2 d S . .
O1 O 0.3898(3) -0.0351(3) 0.3095(3) 0.138(3) Uani 1 1 d . . .
O2 O 0.4220(3) 0.2401(3) 0.1901(2) 0.119(2) Uani 1 1 d . . .
C1 C 0.3971(4) 0.0239(4) 0.1804(4) 0.141(5) Uani 1 1 d . . .
H1A H 0.3989 0.0418 0.1557 0.169 Uiso 1 1 calc R . .
C2 C 0.3929(4) 0.0000 0.2453(6) 0.097(4) Uani 1 2 d S . .
C3 C 0.3407(4) 0.1262(4) 0.1585(4) 0.122(4) Uani 1 1 d . . .
H3A H 0.3252 0.1000 0.1574 0.146 Uiso 1 1 calc R . .
C4 C 0.3825(5) 0.1787(4) 0.1787(4) 0.089(4) Uani 1 2 d S . .
O1W O 0.2500 0.2500 0.2500 0.14(4) Uiso 0.25 12 d SP . .

loop_
_atom_site_aniso_label
_atom_site_aniso_U_11
_atom_site_aniso_U_22
_atom_site_aniso_U_33
_atom_site_aniso_U_23
_atom_site_aniso_U_13
_atom_site_aniso_U_12
Cd1 0.0948(8) 0.0948(8) 0.0914(9) 0.0087(4) 0.0087(4) -0.0009(5)
N1 0.146(9) 0.124(8) 0.125(8) 0.012(7) 0.044(6) 0.008(6)
N2 0.094(6) 0.111(6) 0.101(6) 0.020(5) -0.002(5) 0.002(5)
N3 0.111(10) 0.128(14) 0.133(14) 0.000 0.005(8) 0.000
N4 0.127(10) 0.098(5) 0.098(5) 0.006(9) 0.001(6) 0.001(6)
O1 0.174(8) 0.099(5) 0.142(7) 0.031(5) 0.018(5) 0.018(5)
O2 0.136(6) 0.104(5) 0.118(6) 0.024(4) -0.016(5) -0.015(5)
C1 0.188(13) 0.143(10) 0.091(8) 0.004(7) -0.014(8) -0.020(8)
C2 0.089(10) 0.109(12) 0.093(11) 0.000 0.027(8) 0.000
C3 0.106(8) 0.135(8) 0.125(9) 0.012(7) -0.022(7) -0.013(7)
C4 0.089(9) 0.088(6) 0.088(6) 0.007(9) 0.010(6) 0.010(6)

_geom_special_details            
;
All esds (except the esd in the dihedral angle between two l.s. planes)
are estimated using the full covariance matrix. The cell esds are taken
into account individually in the estimation of esds in distances, angles
and torsion angles; correlations between esds in cell parameters are only
used when they are defined by crystal symmetry. An approximate (isotropic)
treatment of cell esds is used for estimating esds involving l.s. planes.
;

loop_
_geom_bond_atom_site_label_1
_geom_bond_atom_site_label_2
_geom_bond_distance
_geom_bond_site_symmetry_2
_geom_bond_publ_flag
Cd1 N2 2.243(8) . ?
Cd1 N2 2.243(8) 38 ?
Cd1 N1 2.260(11) . ?
Cd1 N1 2.260(11) 38 ?
N1 C1 1.280(15) . ?
N1 C2 1.366(12) . ?
N2 C3 1.346(12) . ?
N2 C4 1.352(11) . ?
N3 O1 1.213(10) 51 ?
N3 O1 1.213(10) . ?
N3 C2 1.39(2) . ?
N4 O2 1.228(9) . ?
N4 O2 1.228(9) 67 ?
N4 C4 1.394(19) . ?
C1 C1 1.46(3) 51 ?
C1 H1A 0.9300 . ?
C2 N1 1.366(12) 51 ?
C3 C3 1.39(2) 67 ?
C3 H3A 0.9300 . ?
C4 N2 1.352(11) 67 ?

loop_
_geom_angle_atom_site_label_1
_geom_angle_atom_site_label_2
_geom_angle_atom_site_label_3
_geom_angle
_geom_angle_site_symmetry_1
_geom_angle_site_symmetry_3
_geom_angle_publ_flag
N2 Cd1 N2 105.8(4) . 38 ?
N2 Cd1 N1 95.9(4) . . ?
N2 Cd1 N1 131.9(3) 38 . ?
N2 Cd1 N1 131.9(3) . 38 ?
N2 Cd1 N1 95.9(4) 38 38 ?
N1 Cd1 N1 100.6(5) . 38 ?
C1 N1 C2 106.0(11) . . ?
C1 N1 Cd1 131.9(9) . . ?
C2 N1 Cd1 122.0(8) . . ?
C3 N2 C4 104.7(10) . . ?
C3 N2 Cd1 133.3(8) . . ?
C4 N2 Cd1 120.8(8) . . ?
O1 N3 O1 124.1(17) 51 . ?
O1 N3 C2 117.9(9) 51 . ?
O1 N3 C2 117.9(9) . . ?
O2 N4 O2 122.9(15) . 67 ?
O2 N4 C4 118.6(8) . . ?
O2 N4 C4 118.6(8) 67 . ?
N1 C1 C1 108.2(8) . 51 ?
N1 C1 H1A 125.9 . . ?
C1 C1 H1A 125.9 51 . ?
N1 C2 N1 111.5(14) 51 . ?
N1 C2 N3 124.2(7) 51 . ?
N1 C2 N3 124.2(7) . . ?
N2 C3 C3 108.7(6) . 67 ?
N2 C3 H3A 125.6 . . ?
C3 C3 H3A 125.6 67 . ?
N2 C4 N2 113.1(14) 67 . ?
N2 C4 N4 123.4(7) 67 . ?
N2 C4 N4 123.4(7) . . ?

_diffrn_measured_fraction_theta_max 0.988
_diffrn_reflns_theta_full        21.28
_diffrn_measured_fraction_theta_full 0.988
_refine_diff_density_max         1.038
_refine_diff_density_min         -0.468
_refine_diff_density_rms         0.122
