####################################################################### 
# 
# This file contains crystal structure data downloaded from the 
# Cambridge Structural Database (CSD) hosted by the Cambridge 
# Crystallographic Data Centre (CCDC).
# 
# Full information about CCDC data access policies and citation 
# guidelines are available at http://www.ccdc.cam.ac.uk/access/V1 
# 
# Audit and citation data items may have been added by the CCDC. 
# Please retain this information to preserve the provenance of 
# this file and to allow appropriate attribution of the data. 
# 
#######################################################################

data_CdIF-10
_audit_block_doi                 10.5517/ccsyqt7
_database_code_depnum_ccdc_archive 'CCDC 743560'
loop_
_citation_id
_citation_doi
_citation_year
1 10.1002/chem.200902729 2010
_audit_update_record             
;
2009-08-10 deposited with the CCDC.	2024-07-10 downloaded from the CCDC.
;

_audit_creation_method           SHELXL-97
_chemical_name_systematic        
;
?
;
_chemical_name_common            'Cadmium 2-propylimidazolate'
_chemical_melting_point          ?
_chemical_formula_moiety         ?
_chemical_formula_sum            'C12 H18 Cd N4'
_chemical_formula_weight         330.70

loop_
_atom_type_symbol
_atom_type_description
_atom_type_scat_dispersion_real
_atom_type_scat_dispersion_imag
_atom_type_scat_source
C C 0.0033 0.0016 'International Tables Vol C Tables 4.2.6.8 and 6.1.1.4'
N N 0.0061 0.0033 'International Tables Vol C Tables 4.2.6.8 and 6.1.1.4'
Cd Cd -0.8075 1.2024 'International Tables Vol C Tables 4.2.6.8 and 6.1.1.4'
H H 0.0000 0.0000 'International Tables Vol C Tables 4.2.6.8 and 6.1.1.4'

_symmetry_cell_setting           Cubic
_symmetry_space_group_name_H-M   Ia-3d

loop_
_symmetry_equiv_pos_as_xyz
'x, y, z'
'-x+1/2, -y, z+1/2'
'-x, y+1/2, -z+1/2'
'x+1/2, -y+1/2, -z'
'z, x, y'
'z+1/2, -x+1/2, -y'
'-z+1/2, -x, y+1/2'
'-z, x+1/2, -y+1/2'
'y, z, x'
'-y, z+1/2, -x+1/2'
'y+1/2, -z+1/2, -x'
'-y+1/2, -z, x+1/2'
'y+3/4, x+1/4, -z+1/4'
'-y+3/4, -x+3/4, -z+3/4'
'y+1/4, -x+1/4, z+3/4'
'-y+1/4, x+3/4, z+1/4'
'x+3/4, z+1/4, -y+1/4'
'-x+1/4, z+3/4, y+1/4'
'-x+3/4, -z+3/4, -y+3/4'
'x+1/4, -z+1/4, y+3/4'
'z+3/4, y+1/4, -x+1/4'
'z+1/4, -y+1/4, x+3/4'
'-z+1/4, y+3/4, x+1/4'
'-z+3/4, -y+3/4, -x+3/4'
'x+1/2, y+1/2, z+1/2'
'-x+1, -y+1/2, z+1'
'-x+1/2, y+1, -z+1'
'x+1, -y+1, -z+1/2'
'z+1/2, x+1/2, y+1/2'
'z+1, -x+1, -y+1/2'
'-z+1, -x+1/2, y+1'
'-z+1/2, x+1, -y+1'
'y+1/2, z+1/2, x+1/2'
'-y+1/2, z+1, -x+1'
'y+1, -z+1, -x+1/2'
'-y+1, -z+1/2, x+1'
'y+5/4, x+3/4, -z+3/4'
'-y+5/4, -x+5/4, -z+5/4'
'y+3/4, -x+3/4, z+5/4'
'-y+3/4, x+5/4, z+3/4'
'x+5/4, z+3/4, -y+3/4'
'-x+3/4, z+5/4, y+3/4'
'-x+5/4, -z+5/4, -y+5/4'
'x+3/4, -z+3/4, y+5/4'
'z+5/4, y+3/4, -x+3/4'
'z+3/4, -y+3/4, x+5/4'
'-z+3/4, y+5/4, x+3/4'
'-z+5/4, -y+5/4, -x+5/4'
'-x, -y, -z'
'x-1/2, y, -z-1/2'
'x, -y-1/2, z-1/2'
'-x-1/2, y-1/2, z'
'-z, -x, -y'
'-z-1/2, x-1/2, y'
'z-1/2, x, -y-1/2'
'z, -x-1/2, y-1/2'
'-y, -z, -x'
'y, -z-1/2, x-1/2'
'-y-1/2, z-1/2, x'
'y-1/2, z, -x-1/2'
'-y-3/4, -x-1/4, z-1/4'
'y-3/4, x-3/4, z-3/4'
'-y-1/4, x-1/4, -z-3/4'
'y-1/4, -x-3/4, -z-1/4'
'-x-3/4, -z-1/4, y-1/4'
'x-1/4, -z-3/4, -y-1/4'
'x-3/4, z-3/4, y-3/4'
'-x-1/4, z-1/4, -y-3/4'
'-z-3/4, -y-1/4, x-1/4'
'-z-1/4, y-1/4, -x-3/4'
'z-1/4, -y-3/4, -x-1/4'
'z-3/4, y-3/4, x-3/4'
'-x+1/2, -y+1/2, -z+1/2'
'x, y+1/2, -z'
'x+1/2, -y, z'
'-x, y, z+1/2'
'-z+1/2, -x+1/2, -y+1/2'
'-z, x, y+1/2'
'z, x+1/2, -y'
'z+1/2, -x, y'
'-y+1/2, -z+1/2, -x+1/2'
'y+1/2, -z, x'
'-y, z, x+1/2'
'y, z+1/2, -x'
'-y-1/4, -x+1/4, z+1/4'
'y-1/4, x-1/4, z-1/4'
'-y+1/4, x+1/4, -z-1/4'
'y+1/4, -x-1/4, -z+1/4'
'-x-1/4, -z+1/4, y+1/4'
'x+1/4, -z-1/4, -y+1/4'
'x-1/4, z-1/4, y-1/4'
'-x+1/4, z+1/4, -y-1/4'
'-z-1/4, -y+1/4, x+1/4'
'-z+1/4, y+1/4, -x-1/4'
'z+1/4, -y-1/4, -x+1/4'
'z-1/4, y-1/4, x-1/4'

_cell_length_a                   28.0174(7)
_cell_length_b                   28.0174(7)
_cell_length_c                   28.0174(7)
_cell_angle_alpha                90.00
_cell_angle_beta                 90.00
_cell_angle_gamma                90.00
_cell_volume                     21993.0(10)
_cell_formula_units_Z            48
_cell_measurement_temperature    293(2)
_cell_measurement_reflns_used    ?
_cell_measurement_theta_min      ?
_cell_measurement_theta_max      ?

_exptl_crystal_description       polyhedron
_exptl_crystal_colour            'pale yellow'
_exptl_crystal_size_max          0.10
_exptl_crystal_size_mid          0.10
_exptl_crystal_size_min          0.10
_exptl_crystal_density_meas      'not measured'
_exptl_crystal_density_diffrn    1.199
_exptl_crystal_density_method    'not measured'
_exptl_crystal_F_000             7968
_exptl_absorpt_coefficient_mu    1.180
_exptl_absorpt_correction_type   'empirical used sadabs'
_exptl_absorpt_correction_T_min  0.8911
_exptl_absorpt_correction_T_max  0.8911
_exptl_absorpt_process_details   ?

_exptl_special_details           
;
?
;

_diffrn_ambient_temperature      293(2)
_diffrn_radiation_wavelength     0.71073
_diffrn_radiation_type           MoK\a
_diffrn_radiation_source         'fine-focus sealed tube'
_diffrn_radiation_monochromator  graphite
_diffrn_measurement_device_type  'Bruker SMART CCD area detector'
_diffrn_measurement_method       'phi and omega scans'
_diffrn_detector_area_resol_mean ?
_diffrn_standards_number         ?
_diffrn_standards_interval_count ?
_diffrn_standards_interval_time  ?
_diffrn_standards_decay_%        ?
_diffrn_reflns_number            54069
_diffrn_reflns_av_R_equivalents  0.0471
_diffrn_reflns_av_sigmaI/netI    0.0130
_diffrn_reflns_limit_h_min       -21
_diffrn_reflns_limit_h_max       34
_diffrn_reflns_limit_k_min       -33
_diffrn_reflns_limit_k_max       34
_diffrn_reflns_limit_l_min       -33
_diffrn_reflns_limit_l_max       34
_diffrn_reflns_theta_min         1.78
_diffrn_reflns_theta_max         25.76
_reflns_number_total             1768
_reflns_number_gt                1340
_reflns_threshold_expression     >2sigma(I)

_computing_data_collection       'Bruker SMART'
_computing_cell_refinement       'Bruker SAINT'
_computing_data_reduction        'Bruker SAINT'
_computing_structure_solution    'SHELXS-97 (Sheldrick, 1990)'
_computing_structure_refinement  'SHELXL-97 (Sheldrick, 1997)'
_computing_molecular_graphics    'Bruker SHELXTL'
_computing_publication_material  'Bruker SHELXTL'

_refine_special_details          
;
Refinement of F^2^ against ALL reflections. The weighted R-factor wR and
goodness of fit S are based on F^2^, conventional R-factors R are based
on F, with F set to zero for negative F^2^. The threshold expression of
F^2^ > 2sigma(F^2^) is used only for calculating R-factors(gt) etc. and is
not relevant to the choice of reflections for refinement. R-factors based
on F^2^ are statistically about twice as large as those based on F, and R-
factors based on ALL data will be even larger.
;

_refine_ls_structure_factor_coef Fsqd
_refine_ls_matrix_type           full
_refine_ls_weighting_scheme      calc
_refine_ls_weighting_details     
'calc w=1/[\s^2^(Fo^2^)+(0.0872P)^2^+44.2315P] where P=(Fo^2^+2Fc^2^)/3'
_atom_sites_solution_primary     direct
_atom_sites_solution_secondary   difmap
_atom_sites_solution_hydrogens   geom
_refine_ls_hydrogen_treatment    mixed
_refine_ls_extinction_method     SHELXL
_refine_ls_extinction_coef       0.00012(2)
_refine_ls_extinction_expression Fc^*^=kFc[1+0.001xFc^2^\l^3^/sin(2\q)]^-1/4^
_refine_ls_number_reflns         1768
_refine_ls_number_parameters     79
_refine_ls_number_restraints     0
_refine_ls_R_factor_all          0.0527
_refine_ls_R_factor_gt           0.0337
_refine_ls_wR_factor_ref         0.1369
_refine_ls_wR_factor_gt          0.0996
_refine_ls_goodness_of_fit_ref   1.013
_refine_ls_restrained_S_all      1.013
_refine_ls_shift/su_max          0.000
_refine_ls_shift/su_mean         0.000

loop_
_atom_site_label
_atom_site_type_symbol
_atom_site_fract_x
_atom_site_fract_y
_atom_site_fract_z
_atom_site_U_iso_or_equiv
_atom_site_adp_type
_atom_site_occupancy
_atom_site_symmetry_multiplicity
_atom_site_calc_flag
_atom_site_refinement_flags
_atom_site_disorder_assembly
_atom_site_disorder_group
Cd1 Cd 0.1250 0.660460(11) 0.589540(11) 0.0560(2) Uani 1 2 d S . .
C2 C 0.1235(5) 0.5373(3) 0.5172(4) 0.196(5) Uani 1 1 d . . .
H2A H 0.1020 0.5293 0.4913 0.235 Uiso 1 1 calc R . .
H2B H 0.1049 0.5499 0.5435 0.235 Uiso 1 1 calc R . .
N1 N 0.12130(14) 0.65271(14) 0.51119(14) 0.0655(10) Uani 1 1 d . . .
C1 C 0.1522(12) 0.4921(5) 0.5334(8) 0.50(3) Uani 1 1 d . . .
H1A H 0.1304 0.4681 0.5443 0.743 Uiso 1 1 calc R . .
H1B H 0.1735 0.5007 0.5588 0.743 Uiso 1 1 calc R . .
H1C H 0.1703 0.4800 0.5069 0.743 Uiso 1 1 calc R . .
N2 N 0.13206(14) 0.62822(13) 0.43717(13) 0.0616(9) Uani 1 1 d . . .
C7 C 0.10406(19) 0.68719(19) 0.48115(18) 0.0745(13) Uani 1 1 d . . .
H7A H 0.0901 0.7158 0.4904 0.089 Uiso 1 1 calc R . .
C6 C 0.1107(2) 0.67247(19) 0.43560(19) 0.0748(13) Uani 1 1 d . . .
H6A H 0.1024 0.6892 0.4082 0.090 Uiso 1 1 calc R . .
C5 C 0.1592(3) 0.5729(2) 0.5012(2) 0.098(2) Uani 1 1 d . . .
H5A H 0.1784 0.5589 0.4760 0.118 Uiso 1 1 calc R . .
H5B H 0.1803 0.5802 0.5276 0.118 Uiso 1 1 calc R . .
C4 C 0.13784(16) 0.61850(16) 0.48311(16) 0.0613(10) Uani 1 1 d . . .

loop_
_atom_site_aniso_label
_atom_site_aniso_U_11
_atom_site_aniso_U_22
_atom_site_aniso_U_33
_atom_site_aniso_U_23
_atom_site_aniso_U_13
_atom_site_aniso_U_12
Cd1 0.0527(3) 0.0577(3) 0.0577(3) -0.00284(18) 0.00469(13) 0.00469(13)
C2 0.326(17) 0.091(5) 0.170(10) 0.047(6) -0.004(10) -0.008(9)
N1 0.075(2) 0.066(2) 0.055(2) -0.0061(18) 0.0055(17) 0.0093(18)
C1 1.12(8) 0.094(8) 0.27(2) 0.024(11) 0.01(3) 0.14(2)
N2 0.067(2) 0.063(2) 0.056(2) -0.0038(17) 0.0009(17) 0.0034(17)
C7 0.085(3) 0.069(3) 0.069(3) -0.008(2) -0.005(2) 0.019(3)
C6 0.085(3) 0.075(3) 0.064(3) -0.001(2) -0.009(3) 0.018(3)
C5 0.161(6) 0.069(3) 0.065(3) -0.014(3) -0.007(4) 0.024(4)
C4 0.067(3) 0.060(3) 0.058(3) -0.0057(19) 0.002(2) 0.004(2)

_geom_special_details            
;
All esds (except the esd in the dihedral angle between two l.s. planes)
are estimated using the full covariance matrix. The cell esds are taken
into account individually in the estimation of esds in distances, angles
and torsion angles; correlations between esds in cell parameters are only
used when they are defined by crystal symmetry. An approximate (isotropic)
treatment of cell esds is used for estimating esds involving l.s. planes.
;

loop_
_geom_bond_atom_site_label_1
_geom_bond_atom_site_label_2
_geom_bond_distance
_geom_bond_site_symmetry_2
_geom_bond_publ_flag
Cd1 N2 2.200(4) 54_665 ?
Cd1 N2 2.200(4) 71_576 ?
Cd1 N1 2.208(4) 43_455 ?
Cd1 N1 2.208(4) . ?
C2 C5 1.480(12) . ?
C2 C1 1.57(2) . ?
C2 H2A 0.9700 . ?
C2 H2B 0.9700 . ?
N1 C4 1.324(5) . ?
N1 C7 1.369(6) . ?
C1 H1A 0.9600 . ?
C1 H1B 0.9600 . ?
C1 H1C 0.9600 . ?
N2 C4 1.326(6) . ?
N2 C6 1.377(6) . ?
N2 Cd1 2.200(4) 60_556 ?
C7 C6 1.354(7) . ?
C7 H7A 0.9300 . ?
C6 H6A 0.9300 . ?
C5 C4 1.499(7) . ?
C5 H5A 0.9700 . ?
C5 H5B 0.9700 . ?

loop_
_geom_angle_atom_site_label_1
_geom_angle_atom_site_label_2
_geom_angle_atom_site_label_3
_geom_angle
_geom_angle_site_symmetry_1
_geom_angle_site_symmetry_3
_geom_angle_publ_flag
N2 Cd1 N2 105.7(2) 54_665 71_576 ?
N2 Cd1 N1 110.38(14) 54_665 43_455 ?
N2 Cd1 N1 114.64(15) 71_576 43_455 ?
N2 Cd1 N1 114.64(15) 54_665 . ?
N2 Cd1 N1 110.38(14) 71_576 . ?
N1 Cd1 N1 101.4(2) 43_455 . ?
C5 C2 C1 106.6(16) . . ?
C5 C2 H2A 110.4 . . ?
C1 C2 H2A 110.4 . . ?
C5 C2 H2B 110.4 . . ?
C1 C2 H2B 110.4 . . ?
H2A C2 H2B 108.6 . . ?
C4 N1 C7 105.6(4) . . ?
C4 N1 Cd1 130.2(3) . . ?
C7 N1 Cd1 123.9(3) . . ?
C2 C1 H1A 109.5 . . ?
C2 C1 H1B 109.5 . . ?
H1A C1 H1B 109.5 . . ?
C2 C1 H1C 109.5 . . ?
H1A C1 H1C 109.5 . . ?
H1B C1 H1C 109.5 . . ?
C4 N2 C6 105.6(4) . . ?
C4 N2 Cd1 128.6(3) . 60_556 ?
C6 N2 Cd1 125.1(3) . 60_556 ?
C6 C7 N1 108.4(4) . . ?
C6 C7 H7A 125.8 . . ?
N1 C7 H7A 125.8 . . ?
C7 C6 N2 107.7(4) . . ?
C7 C6 H6A 126.2 . . ?
N2 C6 H6A 126.2 . . ?
C2 C5 C4 114.0(7) . . ?
C2 C5 H5A 108.7 . . ?
C4 C5 H5A 108.7 . . ?
C2 C5 H5B 108.7 . . ?
C4 C5 H5B 108.7 . . ?
H5A C5 H5B 107.6 . . ?
N1 C4 N2 112.7(4) . . ?
N1 C4 C5 123.8(4) . . ?
N2 C4 C5 123.5(4) . . ?

_diffrn_measured_fraction_theta_max 0.998
_diffrn_reflns_theta_full        25.76
_diffrn_measured_fraction_theta_full 0.998
_refine_diff_density_max         0.493
_refine_diff_density_min         -0.248
_refine_diff_density_rms         0.066
