####################################################################### 
# 
# This file contains crystal structure data downloaded from the 
# Cambridge Structural Database (CSD) hosted by the Cambridge 
# Crystallographic Data Centre (CCDC).
# 
# Full information about CCDC data access policies and citation 
# guidelines are available at http://www.ccdc.cam.ac.uk/access/V1 
# 
# Audit and citation data items may have been added by the CCDC. 
# Please retain this information to preserve the provenance of 
# this file and to allow appropriate attribution of the data. 
# 
#######################################################################

data_1 #cudppno
_audit_block_doi                 10.5517/cc4z0jm
_database_code_depnum_ccdc_archive 'CCDC 148010'
loop_
_citation_id
_citation_doi
_citation_year
1 10.1016/S0020-1693(00)00300-5 2000
_audit_update_record             
;
2000-08-04 deposited with the CCDC.	2024-07-10 downloaded from the CCDC.
;
_audit_creation_method           SHELXL
_chemical_name_systematic        
; 
? 
;
_chemical_name_common            ?
_chemical_formula_moiety         ?
_chemical_formula_structural     
'[Cu1 (C14 H10 N4) (H2 O1)2]n (N1 O3)2n (H2 O)2n/3'
_chemical_formula_analytical     ?
_chemical_formula_sum            'C14 H15.33 Cu N6 O8.67'
_chemical_formula_weight         469.86
_chemical_melting_point          ?
_chemical_compound_source        'synthesized by H. Grove'

loop_
_atom_type_symbol
_atom_type_description
_atom_type_scat_dispersion_real
_atom_type_scat_dispersion_imag
_atom_type_scat_source
C C 0.0033 0.0016 'International Tables Vol C Tables 4.2.6.8 and 6.1.1.4'
H H 0.0000 0.0000 'International Tables Vol C Tables 4.2.6.8 and 6.1.1.4'
N N 0.0061 0.0033 'International Tables Vol C Tables 4.2.6.8 and 6.1.1.4'
O O 0.0106 0.0060 'International Tables Vol C Tables 4.2.6.8 and 6.1.1.4'
Cu Cu 0.3201 1.2651 'International Tables Vol C Tables 4.2.6.8 and 6.1.1.4'

_symmetry_cell_setting           trigonal
_symmetry_space_group_name_H-M   'R -3 c'

loop_
_symmetry_equiv_pos_as_xyz
'x, y, z'
'-y, x-y, z'
'-x+y, -x, z'
'y, x, -z+1/2'
'x-y, -y, -z+1/2'
'-x, -x+y, -z+1/2'
'x+2/3, y+1/3, z+1/3'
'-y+2/3, x-y+1/3, z+1/3'
'-x+y+2/3, -x+1/3, z+1/3'
'y+2/3, x+1/3, -z+5/6'
'x-y+2/3, -y+1/3, -z+5/6'
'-x+2/3, -x+y+1/3, -z+5/6'
'x+1/3, y+2/3, z+2/3'
'-y+1/3, x-y+2/3, z+2/3'
'-x+y+1/3, -x+2/3, z+2/3'
'y+1/3, x+2/3, -z+7/6'
'x-y+1/3, -y+2/3, -z+7/6'
'-x+1/3, -x+y+2/3, -z+7/6'
'-x, -y, -z'
'y, -x+y, -z'
'x-y, x, -z'
'-y, -x, z-1/2'
'-x+y, y, z-1/2'
'x, x-y, z-1/2'
'-x+2/3, -y+1/3, -z+1/3'
'y+2/3, -x+y+1/3, -z+1/3'
'x-y+2/3, x+1/3, -z+1/3'
'-y+2/3, -x+1/3, z-1/6'
'-x+y+2/3, y+1/3, z-1/6'
'x+2/3, x-y+1/3, z-1/6'
'-x+1/3, -y+2/3, -z+2/3'
'y+1/3, -x+y+2/3, -z+2/3'
'x-y+1/3, x+2/3, -z+2/3'
'-y+1/3, -x+2/3, z+1/6'
'-x+y+1/3, y+2/3, z+1/6'
'x+1/3, x-y+2/3, z+1/6'

_cell_length_a                   22.0922(7)
_cell_length_b                   22.0922(7)
_cell_length_c                   21.3917(10)
_cell_angle_alpha                90.00
_cell_angle_beta                 90.00
_cell_angle_gamma                120.00
_cell_volume                     9041.8(6)
_cell_formula_units_Z            18
_cell_measurement_temperature    293(2)
_cell_measurement_reflns_used    ?
_cell_measurement_theta_min      4
_cell_measurement_theta_max      26

_exptl_crystal_description       'needle, hexagonal crossection'
_exptl_crystal_colour            green
_exptl_crystal_size_max          0.33
_exptl_crystal_size_mid          0.14
_exptl_crystal_size_min          0.13
_exptl_crystal_density_meas      ?
_exptl_crystal_density_diffrn    1.553
_exptl_crystal_density_method    ?
_exptl_crystal_F_000             4314
_exptl_absorpt_coefficient_mu    1.145
_exptl_absorpt_correction_type   'Gaussian integration'
_exptl_absorpt_correction_T_min  0.7680
_exptl_absorpt_correction_T_max  0.8845

_exptl_special_details           
; 
? 
;

_diffrn_ambient_temperature      293(2)
_diffrn_radiation_wavelength     0.71073
_diffrn_radiation_type           MoK\a
_diffrn_radiation_source         'fine-focus sealed tube'
_diffrn_radiation_monochromator  graphite
_diffrn_measurement_device       '2K SMART CCD'
_diffrn_measurement_method       \w
_diffrn_standards_number         
'50 first frames remeasured at end of experiment'
_diffrn_standards_interval_count ?
_diffrn_standards_interval_time  ?
_diffrn_standards_decay_%        5
_diffrn_reflns_number            17811
_diffrn_reflns_av_R_equivalents  0.0885
_diffrn_reflns_av_sigmaI/netI    0.0399
_diffrn_reflns_limit_h_min       -29
_diffrn_reflns_limit_h_max       23
_diffrn_reflns_limit_k_min       -24
_diffrn_reflns_limit_k_max       29
_diffrn_reflns_limit_l_min       -28
_diffrn_reflns_limit_l_max       28
_diffrn_reflns_theta_min         1.84
_diffrn_reflns_theta_max         25.99
_reflns_number_total             1988
_reflns_number_observed          1231
_reflns_observed_criterion       >2sigma(I)

_computing_data_collection       'SMART, version 4.0'
_computing_cell_refinement       'SAINT, version 4.0'
_computing_data_reduction        'SAINT, version 4.0'
_computing_structure_solution    'SHELXS-86 (Sheldrick, 1990)'
_computing_structure_refinement  'SHELXL-93 (Sheldrick, 1993)'
_computing_molecular_graphics    'XP, version 4.3, 1992'
_computing_publication_material  'CIFTAB, Sheldrick, 1993'

_refine_special_details          
; 
Refinement on F^2^ for ALL reflections except for 29 with very negative F^2^ 
or flagged by the user for potential systematic errors.  Weighted R-factors 
wR and all goodnesses of fit S are based on F^2^, conventional R-factors R 
are based on F, with F set to zero for negative F^2^. The observed criterion 
of F^2^ > 2sigma(F^2^) is used only for calculating _R_factor_obs etc. and is 
not relevant to the choice of reflections for refinement.  R-factors based 
on F^2^ are statistically about twice as large as those based on F, and R- 
factors based on ALL data will be even larger. 
;

_refine_ls_structure_factor_coef Fsqd
_refine_ls_matrix_type           full
_refine_ls_weighting_scheme      
'calc w=1/[\s^2^(Fo^2^)+(0.0789P)^2^+50.9664P] where P=(Fo^2^+2Fc^2^)/3'
_atom_sites_solution_primary     direct
_atom_sites_solution_secondary   difmap
_atom_sites_solution_hydrogens   'geom if bonded to C, difmap if bonded to O'
_refine_ls_hydrogen_treatment    'riding model'
_refine_ls_extinction_method     none
_refine_ls_extinction_coef       ?
_refine_ls_number_reflns         1959
_refine_ls_number_parameters     160
_refine_ls_number_restraints     0
_refine_ls_R_factor_all          0.1072
_refine_ls_R_factor_obs          0.0609
_refine_ls_wR_factor_all         0.1833
_refine_ls_wR_factor_obs         0.1503
_refine_ls_goodness_of_fit_all   1.043
_refine_ls_goodness_of_fit_obs   1.145
_refine_ls_restrained_S_all      1.075
_refine_ls_restrained_S_obs      1.145
_refine_ls_shift/esd_max         -0.003
_refine_ls_shift/esd_mean        0.000

loop_
_atom_site_label
_atom_site_type_symbol
_atom_site_fract_x
_atom_site_fract_y
_atom_site_fract_z
_atom_site_U_iso_or_equiv
_atom_site_thermal_displace_type
_atom_site_occupancy
_atom_site_calc_flag
_atom_site_refinement_flags
_atom_site_disorder_group
Cu1 Cu 0.3333 0.33790(4) 0.4167 0.0450(3) Uani 1 d S .
N31 N 0.2369(3) 0.4282(3) 0.2680(2) 0.056(3) Uani 0.60 d PG 1
O11 O 0.2988(3) 0.4507(5) 0.2836(4) 0.106(3) Uani 0.60 d PG 1
O21 O 0.1896(3) 0.4016(6) 0.3079(3) 0.114(4) Uani 0.60 d PG 1
O31 O 0.2222(5) 0.4322(8) 0.2126(2) 0.126(5) Uani 0.60 d PG 1
N32 N 0.2487(6) 0.4480(6) 0.2634(5) 0.086(8) Uani 0.40 d PG 2
O12 O 0.2568(14) 0.4605(9) 0.3205(5) 0.159(9) Uani 0.40 d PG 2
O22 O 0.2086(8) 0.3873(6) 0.2448(9) 0.143(8) Uani 0.40 d PG 2
O32 O 0.2805(13) 0.4960(7) 0.2250(7) 0.203(12) Uani 0.40 d PG 2
O4 O 0.2643(2) 0.3687(2) 0.4000(2) 0.0597(10) Uani 1 d . .
H41 H 0.2329(2) 0.3419(2) 0.3944(2) 0.072 Uiso 1 d R .
H42 H 0.2753(2) 0.4059(2) 0.3750(2) 0.072 Uiso 1 d R .
O5 O 0.0000 0.0000 0.2500 0.482(35) Uani 1 d S .
O6 O 0.3333 0.6667 0.1667 0.565(49) Uani 1 d S .
N1 N 0.2689(2) 0.2423(2) 0.3803(2) 0.0463(10) Uani 1 d . .
N2 N 0.3655(3) 0.3492(2) 0.3120(2) 0.0495(11) Uani 1 d . .
C1 C 0.2336(3) 0.1859(3) 0.4168(2) 0.0583(15) Uani 1 d . .
H1 H 0.2339(3) 0.1922(3) 0.4599(2) 0.070 Uiso 1 calc R .
C2 C 0.1968(3) 0.1193(3) 0.3931(3) 0.067(2) Uani 1 d . .
H2 H 0.1713(3) 0.0811(3) 0.4191(3) 0.080 Uiso 1 calc R .
C3 C 0.1989(4) 0.1108(3) 0.3295(3) 0.066(2) Uani 1 d . .
H3 H 0.1768(4) 0.0661(3) 0.3124(3) 0.079 Uiso 1 calc R .
C4 C 0.2338(3) 0.1682(3) 0.2913(2) 0.0517(13) Uani 1 d . .
H4 H 0.2341(3) 0.1626(3) 0.2482(2) 0.062 Uiso 1 calc R .
C5 C 0.2679(3) 0.2336(3) 0.3174(2) 0.0421(11) Uani 1 d . .
C6 C 0.3104(3) 0.2991(3) 0.2815(2) 0.0415(11) Uani 1 d . .
C7 C 0.4118(3) 0.4053(3) 0.2820(2) 0.0582(14) Uani 1 d . .
H7 H 0.4491(3) 0.4409(3) 0.3036(2) 0.070 Uiso 1 calc R .

loop_
_atom_site_aniso_label
_atom_site_aniso_U_11
_atom_site_aniso_U_22
_atom_site_aniso_U_33
_atom_site_aniso_U_23
_atom_site_aniso_U_13
_atom_site_aniso_U_12
Cu1 0.0602(6) 0.0554(5) 0.0209(4) -0.0019(2) -0.0037(3) 0.0301(3)
N31 0.059(7) 0.065(7) 0.051(7) -0.013(4) -0.013(5) 0.036(6)
O11 0.034(4) 0.120(8) 0.149(9) 0.008(7) -0.007(5) 0.027(5)
O21 0.086(6) 0.187(11) 0.050(4) 0.015(6) 0.008(5) 0.054(7)
O31 0.147(12) 0.202(15) 0.040(5) 0.006(6) -0.004(6) 0.096(12)
N32 0.072(14) 0.080(14) 0.099(19) 0.044(12) 0.061(13) 0.034(10)
O12 0.290(31) 0.146(16) 0.072(10) 0.017(11) 0.004(15) 0.131(20)
O22 0.083(11) 0.070(11) 0.238(24) -0.057(12) 0.042(14) 0.010(8)
O32 0.213(25) 0.158(19) 0.133(17) -0.050(15) 0.009(17) 0.013(18)
O4 0.071(3) 0.070(3) 0.047(2) 0.000(2) -0.007(2) 0.042(2)
O5 0.346(36) 0.346(36) 0.753(115) 0.000 0.000 0.173(18)
O6 0.283(31) 0.283(31) 1.130(164) 0.000 0.000 0.141(16)
N1 0.059(3) 0.056(3) 0.021(2) 0.000(2) -0.002(2) 0.027(2)
N2 0.064(3) 0.057(3) 0.024(2) -0.002(2) -0.002(2) 0.027(2)
C1 0.081(4) 0.060(4) 0.032(3) 0.009(2) 0.004(3) 0.034(3)
C2 0.084(4) 0.057(4) 0.053(3) 0.015(3) 0.011(3) 0.031(3)
C3 0.095(5) 0.050(3) 0.054(3) -0.005(3) -0.004(3) 0.037(3)
C4 0.077(4) 0.052(3) 0.033(2) -0.004(2) -0.003(2) 0.037(3)
C5 0.054(3) 0.052(3) 0.027(2) 0.002(2) 0.000(2) 0.032(3)
C6 0.053(3) 0.057(3) 0.020(2) -0.002(2) 0.002(2) 0.032(3)
C7 0.060(3) 0.064(4) 0.036(3) -0.001(2) -0.002(2) 0.020(3)

_geom_special_details            
; 
All esds (except the esd in the dihedral angle between two l.s. planes) 
are estimated using the full covariance matrix.  The cell esds are taken 
into account individually in the estimation of esds in distances, angles 
and torsion angles; correlations between esds in cell parameters are only 
used when they are defined by crystal symmetry.  An approximate (isotropic) 
treatment of cell esds is used for estimating esds involving l.s. planes. 
;

loop_
_geom_bond_atom_site_label_1
_geom_bond_atom_site_label_2
_geom_bond_distance
_geom_bond_site_symmetry_2
_geom_bond_publ_flag
Cu1 O4 1.989(4) . ?
Cu1 O4 1.989(4) 12 ?
Cu1 N1 2.021(4) . ?
Cu1 N1 2.021(4) 12 ?
Cu1 N2 2.324(4) 12 ?
Cu1 N2 2.324(4) . ?
N31 O11 1.24 . ?
N31 O21 1.25 . ?
N31 O31 1.25 . ?
N32 O32 1.24 . ?
N32 O22 1.25 . ?
N32 O12 1.25 . ?
O4 H41 0.66 . ?
O4 H42 0.91 . ?
N1 C1 1.342(6) . ?
N1 C5 1.357(5) . ?
N2 C7 1.314(6) . ?
N2 C6 1.337(7) . ?
C1 C2 1.374(8) . ?
C1 H1 0.93 . ?
C2 C3 1.376(8) . ?
C2 H2 0.93 . ?
C3 C4 1.376(7) . ?
C3 H3 0.93 . ?
C4 C5 1.372(7) . ?
C4 H4 0.93 . ?
C5 C6 1.486(7) . ?
C6 C6 1.414(9) 4 ?
C7 C7 1.390(10) 4 ?
C7 H7 0.93 . ?

loop_
_geom_angle_atom_site_label_1
_geom_angle_atom_site_label_2
_geom_angle_atom_site_label_3
_geom_angle
_geom_angle_site_symmetry_1
_geom_angle_site_symmetry_3
_geom_angle_publ_flag
O4 Cu1 O4 87.0(2) . 12 ?
O4 Cu1 N1 91.6(2) . . ?
O4 Cu1 N1 167.63(14) 12 . ?
O4 Cu1 N1 167.63(14) . 12 ?
O4 Cu1 N1 91.6(2) 12 12 ?
N1 Cu1 N1 92.3(2) . 12 ?
O4 Cu1 N2 91.71(15) . 12 ?
O4 Cu1 N2 92.09(15) 12 12 ?
N1 Cu1 N2 100.2(2) . 12 ?
N1 Cu1 N2 76.05(15) 12 12 ?
O4 Cu1 N2 92.09(15) . . ?
O4 Cu1 N2 91.71(15) 12 . ?
N1 Cu1 N2 76.05(15) . . ?
N1 Cu1 N2 100.2(2) 12 . ?
N2 Cu1 N2 174.8(2) 12 . ?
O11 N31 O21 120.0 . . ?
O11 N31 O31 120.0 . . ?
O21 N31 O31 120.0 . . ?
O32 N32 O22 120.0 . . ?
O32 N32 O12 120.0 . . ?
O22 N32 O12 120.0 . . ?
Cu1 O4 H41 111.61(11) . . ?
Cu1 O4 H42 120.79(11) . . ?
H41 O4 H42 113.0 . . ?
C1 N1 C5 119.0(4) . . ?
C1 N1 Cu1 121.6(3) . . ?
C5 N1 Cu1 118.9(3) . . ?
C7 N2 C6 119.9(4) . . ?
C7 N2 Cu1 128.6(3) . . ?
C6 N2 Cu1 106.2(3) . . ?
N1 C1 C2 122.4(5) . . ?
N1 C1 H1 118.8(3) . . ?
C2 C1 H1 118.8(3) . . ?
C1 C2 C3 118.0(5) . . ?
C1 C2 H2 121.0(3) . . ?
C3 C2 H2 121.0(4) . . ?
C2 C3 C4 120.2(5) . . ?
C2 C3 H3 119.9(4) . . ?
C4 C3 H3 119.9(3) . . ?
C5 C4 C3 119.2(5) . . ?
C5 C4 H4 120.4(3) . . ?
C3 C4 H4 120.4(3) . . ?
N1 C5 C4 121.0(4) . . ?
N1 C5 C6 114.6(4) . . ?
C4 C5 C6 124.2(4) . . ?
N2 C6 C6 119.2(3) . 4 ?
N2 C6 C5 115.1(4) . . ?
C6 C6 C5 125.7(3) 4 . ?
N2 C7 C7 120.4(3) . 4 ?
N2 C7 H7 119.8(3) . . ?
C7 C7 H7 119.78(3) 4 . ?

_refine_diff_density_max         0.547
_refine_diff_density_min         -0.392
_refine_diff_density_rms         0.099
