####################################################################### 
# 
# This file contains crystal structure data downloaded from the 
# Cambridge Structural Database (CSD) hosted by the Cambridge 
# Crystallographic Data Centre (CCDC).
# 
# Full information about CCDC data access policies and citation 
# guidelines are available at http://www.ccdc.cam.ac.uk/access/V1 
# 
# Audit and citation data items may have been added by the CCDC. 
# Please retain this information to preserve the provenance of 
# this file and to allow appropriate attribution of the data. 
# 
#######################################################################

data_hb3
_audit_block_doi                 10.5517/ccrw4tk
_database_code_depnum_ccdc_archive 'CCDC 711289'
loop_
_citation_id
_citation_doi
_citation_year
1 10.1002/jccs.200900147 2009
_audit_update_record             
;
2008-11-27 deposited with the CCDC.	2024-07-10 downloaded from the CCDC.
;

_audit_creation_method           SHELXL-97
_chemical_name_systematic        
;
?
;
_chemical_name_common            ?
_chemical_melting_point          ?
_chemical_formula_moiety         'C14 H11 Cu N O3, C3 H7 N O'
_chemical_formula_sum            'C17 H18 Cu N2 O4'
_chemical_formula_weight         377.87
_chemical_absolute_configuration RM

loop_
_atom_type_symbol
_atom_type_description
_atom_type_scat_dispersion_real
_atom_type_scat_dispersion_imag
_atom_type_scat_source
C C 0.0033 0.0016 'International Tables Vol C Tables 4.2.6.8 and 6.1.1.4'
H H 0.0000 0.0000 'International Tables Vol C Tables 4.2.6.8 and 6.1.1.4'
N N 0.0061 0.0033 'International Tables Vol C Tables 4.2.6.8 and 6.1.1.4'
O O 0.0106 0.0060 'International Tables Vol C Tables 4.2.6.8 and 6.1.1.4'
Cu Cu 0.3201 1.2651 'International Tables Vol C Tables 4.2.6.8 and 6.1.1.4'

_symmetry_cell_setting           Monoclinic
_symmetry_space_group_name_H-M   'P 21 '
_symmetry_space_group_name_Hall  'P 2yb'

loop_
_symmetry_equiv_pos_as_xyz
'x, y, z'
'-x, y+1/2, -z'

_cell_length_a                   10.286(2)
_cell_length_b                   4.9537(10)
_cell_length_c                   16.494(3)
_cell_angle_alpha                90.00
_cell_angle_beta                 91.21(3)
_cell_angle_gamma                90.00
_cell_volume                     840.3(3)
_cell_formula_units_Z            2
_cell_measurement_temperature    291(2)
_cell_measurement_reflns_used    7086
_cell_measurement_theta_min      3.13
_cell_measurement_theta_max      27.44

_exptl_crystal_description       BLOCK
_exptl_crystal_colour            GREEN
_exptl_crystal_size_max          0.31
_exptl_crystal_size_mid          0.14
_exptl_crystal_size_min          0.13
_exptl_crystal_density_meas      ?
_exptl_crystal_density_diffrn    1.494
_exptl_crystal_density_method    'not measured'
_exptl_crystal_F_000             390
_exptl_absorpt_coefficient_mu    1.322
_exptl_absorpt_correction_type   Multi-scan
_exptl_absorpt_correction_T_min  0.6808
_exptl_absorpt_correction_T_max  0.8500
_exptl_absorpt_process_details   'ABSCOR (Higashi, 1995)'


_exptl_special_details           
;
?
;

_diffrn_ambient_temperature      291(2)
_diffrn_radiation_wavelength     0.71073
_diffrn_radiation_type           MoK\a
_diffrn_radiation_source         'fine-focus sealed tube'
_diffrn_radiation_monochromator  graphite
_diffrn_measurement_device_type  'Rigaku RAXIS-RAPID'
_diffrn_measurement_method       '\w scan'
_diffrn_detector_area_resol_mean ?
_diffrn_standards_number         0
_diffrn_standards_interval_count 0
_diffrn_standards_interval_time  0
_diffrn_standards_decay_%        0
_diffrn_reflns_number            8259
_diffrn_reflns_av_R_equivalents  0.0364
_diffrn_reflns_av_sigmaI/netI    0.0521
_diffrn_reflns_limit_h_min       -13
_diffrn_reflns_limit_h_max       13
_diffrn_reflns_limit_k_min       -6
_diffrn_reflns_limit_k_max       6
_diffrn_reflns_limit_l_min       -21
_diffrn_reflns_limit_l_max       21
_diffrn_reflns_theta_min         3.13
_diffrn_reflns_theta_max         27.45
_reflns_number_total             3743
_reflns_number_gt                3165
_reflns_threshold_expression     >2sigma(I)

_computing_data_collection       'RAPID-AUTO (Rigaku Corporation, 1998)'
_computing_cell_refinement       RAPID-AUTO
_computing_data_reduction        
'CrystalStructure (Rigaku/MSC and Rigaku Corporation, 2002)'
_computing_structure_solution    'SHELXS-97 (Sheldrick, 1990)'
_computing_structure_refinement  'SHELXL-97 (Sheldrick, 1997)'
_computing_molecular_graphics    'XP (Sheldrick, 1993)'
_computing_publication_material  SHELXL-97

_refine_special_details          
;
Refinement of F^2^ against ALL reflections. The weighted R-factor wR and
goodness of fit S are based on F^2^, conventional R-factors R are based
on F, with F set to zero for negative F^2^. The threshold expression of
F^2^ > 2sigma(F^2^) is used only for calculating R-factors(gt) etc. and is
not relevant to the choice of reflections for refinement. R-factors based
on F^2^ are statistically about twice as large as those based on F, and R-
factors based on ALL data will be even larger.
;

_refine_ls_structure_factor_coef Fsqd
_refine_ls_matrix_type           full
_refine_ls_weighting_scheme      calc
_refine_ls_weighting_details     
'calc w=1/[\s^2^(Fo^2^)+(0.0512P)^2^+0.0131P] where P=(Fo^2^+2Fc^2^)/3'
_atom_sites_solution_primary     direct
_atom_sites_solution_secondary   difmap
_atom_sites_solution_hydrogens   geom
_refine_ls_hydrogen_treatment    CONSTR
_refine_ls_extinction_method     none
_refine_ls_extinction_coef       ?
_refine_ls_abs_structure_details 
'Flack H D (1983), Acta Cryst. A39, 876-881, 1588 Friedel pairs'
_refine_ls_abs_structure_Flack   0.011(19)
_refine_ls_number_reflns         3743
_refine_ls_number_parameters     220
_refine_ls_number_restraints     1
_refine_ls_R_factor_all          0.0522
_refine_ls_R_factor_gt           0.0417
_refine_ls_wR_factor_ref         0.1004
_refine_ls_wR_factor_gt          0.0950
_refine_ls_goodness_of_fit_ref   1.086
_refine_ls_restrained_S_all      1.086
_refine_ls_shift/su_max          0.001
_refine_ls_shift/su_mean         0.000

loop_
_atom_site_label
_atom_site_type_symbol
_atom_site_fract_x
_atom_site_fract_y
_atom_site_fract_z
_atom_site_U_iso_or_equiv
_atom_site_adp_type
_atom_site_occupancy
_atom_site_symmetry_multiplicity
_atom_site_calc_flag
_atom_site_refinement_flags
_atom_site_disorder_assembly
_atom_site_disorder_group
C1 C 0.0626(4) -0.0062(8) 0.7289(2) 0.0464(9) Uani 1 1 d . . .
C2 C 0.1610(4) 0.1661(8) 0.7591(2) 0.0430(9) Uani 1 1 d . . .
C3 C 0.2043(5) 0.1486(9) 0.8442(2) 0.0574(11) Uani 1 1 d . . .
C4 C 0.3001(5) 0.3113(11) 0.8792(2) 0.0736(17) Uani 1 1 d . . .
H4 H 0.3416 0.4395 0.8477 0.088 Uiso 1 1 calc R . .
C5 C 0.3345(7) 0.2851(19) 0.9602(3) 0.100(2) Uani 1 1 d . . .
H5 H 0.3989 0.3968 0.9821 0.120 Uiso 1 1 calc R . .
C6 C 0.2771(10) 0.1010(17) 1.0088(4) 0.122(3) Uani 1 1 d . . .
H6 H 0.3029 0.0861 1.0630 0.146 Uiso 1 1 calc R . .
C7 C 0.1821(8) -0.0607(15) 0.9781(3) 0.097(2) Uani 1 1 d . . .
H7 H 0.1411 -0.1830 1.0118 0.116 Uiso 1 1 calc R . .
C8 C 0.1441(6) -0.0457(11) 0.8939(3) 0.0690(14) Uani 1 1 d . . .
C9 C 0.0485(6) -0.2136(14) 0.8612(3) 0.0742(15) Uani 1 1 d . . .
H9 H 0.0099 -0.3402 0.8947 0.089 Uiso 1 1 calc R . .
C10 C 0.0091(5) -0.1999(10) 0.7816(3) 0.0626(12) Uani 1 1 d . . .
H10 H -0.0537 -0.3194 0.7619 0.075 Uiso 1 1 calc R . .
C11 C 0.2207(4) 0.3604(8) 0.7095(2) 0.0443(9) Uani 1 1 d . . .
H11 H 0.2887 0.4599 0.7326 0.053 Uiso 1 1 calc R . .
C12 C 0.2631(4) 0.6171(7) 0.5905(2) 0.0384(8) Uani 1 1 d . . .
H12 H 0.2868 0.7649 0.6274 0.046 Uiso 1 1 calc R . .
C13 C 0.3851(4) 0.4954(10) 0.5565(3) 0.0559(10) Uani 1 1 d . . .
H13A H 0.4438 0.4480 0.6003 0.084 Uiso 1 1 calc R . .
H13B H 0.4260 0.6242 0.5219 0.084 Uiso 1 1 calc R . .
H13C H 0.3630 0.3365 0.5259 0.084 Uiso 1 1 calc R . .
C14 C 0.1759(3) 0.7256(9) 0.5219(2) 0.0381(8) Uani 1 1 d . . .
C15 C 0.5433(8) 0.889(2) 0.7813(5) 0.113(3) Uani 1 1 d . . .
H15 H 0.5265 0.9203 0.8357 0.135 Uiso 1 1 calc R . .
C16 C 0.6712(9) 0.978(3) 0.6671(5) 0.161(4) Uani 1 1 d . . .
H16A H 0.7167 0.8094 0.6632 0.242 Uiso 1 1 calc R . .
H16B H 0.7253 1.1210 0.6477 0.242 Uiso 1 1 calc R . .
H16C H 0.5926 0.9700 0.6348 0.242 Uiso 1 1 calc R . .
C17 C 0.7125(9) 1.216(2) 0.7946(8) 0.221(6) Uani 1 1 d . . .
H17A H 0.7078 1.3899 0.7692 0.331 Uiso 1 1 calc R . .
H17B H 0.8017 1.1593 0.7989 0.331 Uiso 1 1 calc R . .
H17C H 0.6766 1.2263 0.8477 0.331 Uiso 1 1 calc R . .
Cu1 Cu 0.05001(3) 0.25522(10) 0.57302(2) 0.03574(12) Uani 1 1 d . . .
N1 N 0.1892(3) 0.4122(6) 0.63461(17) 0.0368(6) Uani 1 1 d . . .
N2 N 0.6409(5) 1.0267(11) 0.7474(3) 0.0859(14) Uani 1 1 d . . .
O1 O 0.0154(3) -0.0017(6) 0.65415(15) 0.0497(7) Uani 1 1 d . . .
O2 O 0.0758(2) 0.5764(4) 0.50205(14) 0.0372(5) Uani 1 1 d . . .
O3 O 0.2008(3) 0.9377(5) 0.48807(17) 0.0507(7) Uani 1 1 d . . .
O4 O 0.4777(5) 0.7291(19) 0.7459(3) 0.143(2) Uani 1 1 d . . .

loop_
_atom_site_aniso_label
_atom_site_aniso_U_11
_atom_site_aniso_U_22
_atom_site_aniso_U_33
_atom_site_aniso_U_23
_atom_site_aniso_U_13
_atom_site_aniso_U_12
C1 0.051(2) 0.0391(18) 0.050(2) 0.0091(18) 0.0135(17) 0.0113(17)
C2 0.047(2) 0.047(2) 0.0353(17) 0.0039(15) 0.0070(15) 0.0144(15)
C3 0.074(3) 0.058(2) 0.040(2) 0.0000(19) 0.004(2) 0.028(2)
C4 0.099(4) 0.075(4) 0.046(2) -0.004(2) -0.015(2) 0.013(3)
C5 0.148(5) 0.099(5) 0.051(3) -0.001(4) -0.030(3) 0.018(6)
C6 0.196(9) 0.122(6) 0.046(3) -0.002(4) -0.022(4) 0.048(6)
C7 0.156(7) 0.095(4) 0.041(2) 0.011(3) 0.011(3) 0.033(5)
C8 0.097(4) 0.068(3) 0.043(2) 0.011(2) 0.012(2) 0.028(3)
C9 0.103(4) 0.062(3) 0.059(2) 0.025(3) 0.027(2) 0.012(3)
C10 0.072(3) 0.051(3) 0.066(2) 0.012(2) 0.019(2) -0.001(2)
C11 0.047(2) 0.0433(18) 0.0427(19) -0.0071(16) -0.0073(17) 0.0099(16)
C12 0.0376(19) 0.0361(17) 0.0414(18) 0.0002(15) -0.0016(15) -0.0071(14)
C13 0.034(2) 0.066(3) 0.068(3) 0.007(2) 0.0062(18) 0.0032(19)
C14 0.0360(16) 0.031(2) 0.0472(16) 0.0034(19) 0.0039(13) 0.0048(18)
C15 0.086(5) 0.154(8) 0.099(5) -0.017(5) -0.001(4) 0.023(5)
C16 0.148(8) 0.247(12) 0.088(5) 0.024(7) 0.007(5) -0.015(9)
C17 0.158(9) 0.098(8) 0.402(16) -0.091(10) -0.109(10) 0.013(7)
Cu1 0.0377(2) 0.02712(17) 0.0422(2) 0.0009(2) -0.00381(14) -0.0016(2)
N1 0.0383(17) 0.0327(14) 0.0393(15) -0.0004(12) -0.0008(12) 0.0019(12)
N2 0.064(3) 0.083(3) 0.110(4) -0.008(3) -0.013(3) -0.005(3)
O1 0.0570(18) 0.0450(14) 0.0468(14) 0.0079(13) -0.0021(12) -0.0080(13)
O2 0.0418(14) 0.0248(10) 0.0446(13) 0.0026(10) -0.0079(10) -0.0002(10)
O3 0.0521(17) 0.0341(13) 0.0660(17) 0.0101(14) 0.0030(13) -0.0060(12)
O4 0.101(4) 0.187(6) 0.139(4) -0.019(6) -0.004(3) -0.065(5)

_geom_special_details            
;
All esds (except the esd in the dihedral angle between two l.s. planes)
are estimated using the full covariance matrix. The cell esds are taken
into account individually in the estimation of esds in distances, angles
and torsion angles; correlations between esds in cell parameters are only
used when they are defined by crystal symmetry. An approximate (isotropic)
treatment of cell esds is used for estimating esds involving l.s. planes.
;

loop_
_geom_bond_atom_site_label_1
_geom_bond_atom_site_label_2
_geom_bond_distance
_geom_bond_site_symmetry_2
_geom_bond_publ_flag
C1 O1 1.316(4) . ?
C1 C2 1.407(6) . ?
C1 C10 1.414(6) . ?
C2 C11 1.412(5) . ?
C2 C3 1.467(5) . ?
C3 C4 1.389(7) . ?
C3 C8 1.415(7) . ?
C4 C5 1.380(6) . ?
C4 H4 0.9300 . ?
C5 C6 1.358(11) . ?
C5 H5 0.9300 . ?
C6 C7 1.353(11) . ?
C6 H6 0.9300 . ?
C7 C8 1.436(7) . ?
C7 H7 0.9300 . ?
C8 C9 1.388(8) . ?
C9 C10 1.368(6) . ?
C9 H9 0.9300 . ?
C10 H10 0.9300 . ?
C11 N1 1.297(4) . ?
C11 H11 0.9300 . ?
C12 N1 1.471(4) . ?
C12 C13 1.510(5) . ?
C12 C14 1.527(5) . ?
C12 H12 0.9800 . ?
C13 H13A 0.9600 . ?
C13 H13B 0.9600 . ?
C13 H13C 0.9600 . ?
C14 O3 1.219(5) . ?
C14 O2 1.304(4) . ?
C15 O4 1.185(10) . ?
C15 N2 1.346(10) . ?
C15 H15 0.9300 . ?
C16 N2 1.388(9) . ?
C16 H16A 0.9600 . ?
C16 H16B 0.9600 . ?
C16 H16C 0.9600 . ?
C17 N2 1.415(9) . ?
C17 H17A 0.9600 . ?
C17 H17B 0.9600 . ?
C17 H17C 0.9600 . ?
Cu1 O1 1.886(3) . ?
Cu1 N1 1.904(3) . ?
Cu1 O2 1.981(2) 2_546 ?
Cu1 O2 1.996(2) . ?
O2 Cu1 1.981(2) 2_556 ?

loop_
_geom_angle_atom_site_label_1
_geom_angle_atom_site_label_2
_geom_angle_atom_site_label_3
_geom_angle
_geom_angle_site_symmetry_1
_geom_angle_site_symmetry_3
_geom_angle_publ_flag
O1 C1 C2 124.7(3) . . ?
O1 C1 C10 116.5(4) . . ?
C2 C1 C10 118.7(4) . . ?
C1 C2 C11 121.8(3) . . ?
C1 C2 C3 120.3(4) . . ?
C11 C2 C3 117.9(4) . . ?
C4 C3 C8 118.0(4) . . ?
C4 C3 C2 124.2(4) . . ?
C8 C3 C2 117.8(4) . . ?
C5 C4 C3 120.8(6) . . ?
C5 C4 H4 119.6 . . ?
C3 C4 H4 119.6 . . ?
C6 C5 C4 121.9(7) . . ?
C6 C5 H5 119.0 . . ?
C4 C5 H5 119.0 . . ?
C7 C6 C5 119.8(5) . . ?
C7 C6 H6 120.1 . . ?
C5 C6 H6 120.1 . . ?
C6 C7 C8 120.7(6) . . ?
C6 C7 H7 119.6 . . ?
C8 C7 H7 119.6 . . ?
C9 C8 C3 119.8(4) . . ?
C9 C8 C7 121.4(5) . . ?
C3 C8 C7 118.8(6) . . ?
C10 C9 C8 122.4(5) . . ?
C10 C9 H9 118.8 . . ?
C8 C9 H9 118.8 . . ?
C9 C10 C1 120.8(5) . . ?
C9 C10 H10 119.6 . . ?
C1 C10 H10 119.6 . . ?
N1 C11 C2 125.7(4) . . ?
N1 C11 H11 117.2 . . ?
C2 C11 H11 117.2 . . ?
N1 C12 C13 110.5(3) . . ?
N1 C12 C14 107.9(3) . . ?
C13 C12 C14 110.2(3) . . ?
N1 C12 H12 109.4 . . ?
C13 C12 H12 109.4 . . ?
C14 C12 H12 109.4 . . ?
C12 C13 H13A 109.5 . . ?
C12 C13 H13B 109.5 . . ?
H13A C13 H13B 109.5 . . ?
C12 C13 H13C 109.5 . . ?
H13A C13 H13C 109.5 . . ?
H13B C13 H13C 109.5 . . ?
O3 C14 O2 123.1(3) . . ?
O3 C14 C12 121.1(3) . . ?
O2 C14 C12 115.8(3) . . ?
O4 C15 N2 123.7(7) . . ?
O4 C15 H15 118.1 . . ?
N2 C15 H15 118.1 . . ?
N2 C16 H16A 109.5 . . ?
N2 C16 H16B 109.5 . . ?
H16A C16 H16B 109.5 . . ?
N2 C16 H16C 109.5 . . ?
H16A C16 H16C 109.5 . . ?
H16B C16 H16C 109.5 . . ?
N2 C17 H17A 109.5 . . ?
N2 C17 H17B 109.5 . . ?
H17A C17 H17B 109.5 . . ?
N2 C17 H17C 109.5 . . ?
H17A C17 H17C 109.5 . . ?
H17B C17 H17C 109.5 . . ?
O1 Cu1 N1 92.75(12) . . ?
O1 Cu1 O2 90.64(11) . 2_546 ?
N1 Cu1 O2 171.90(12) . 2_546 ?
O1 Cu1 O2 169.50(11) . . ?
N1 Cu1 O2 83.09(11) . . ?
O2 Cu1 O2 94.77(6) 2_546 . ?
C11 N1 C12 119.1(3) . . ?
C11 N1 Cu1 126.7(3) . . ?
C12 N1 Cu1 114.1(2) . . ?
C15 N2 C16 119.6(7) . . ?
C15 N2 C17 119.4(8) . . ?
C16 N2 C17 121.0(9) . . ?
C1 O1 Cu1 127.2(2) . . ?
C14 O2 Cu1 113.9(2) . 2_556 ?
C14 O2 Cu1 114.8(2) . . ?
Cu1 O2 Cu1 129.03(12) 2_556 . ?

loop_
_geom_torsion_atom_site_label_1
_geom_torsion_atom_site_label_2
_geom_torsion_atom_site_label_3
_geom_torsion_atom_site_label_4
_geom_torsion
_geom_torsion_site_symmetry_1
_geom_torsion_site_symmetry_2
_geom_torsion_site_symmetry_3
_geom_torsion_site_symmetry_4
_geom_torsion_publ_flag
O1 C1 C2 C11 -1.3(6) . . . . ?
C10 C1 C2 C11 178.7(4) . . . . ?
O1 C1 C2 C3 178.4(3) . . . . ?
C10 C1 C2 C3 -1.6(6) . . . . ?
C1 C2 C3 C4 -179.6(4) . . . . ?
C11 C2 C3 C4 0.1(6) . . . . ?
C1 C2 C3 C8 0.0(6) . . . . ?
C11 C2 C3 C8 179.8(4) . . . . ?
C8 C3 C4 C5 -0.5(8) . . . . ?
C2 C3 C4 C5 179.1(5) . . . . ?
C3 C4 C5 C6 0.1(10) . . . . ?
C4 C5 C6 C7 -0.8(12) . . . . ?
C5 C6 C7 C8 1.9(11) . . . . ?
C4 C3 C8 C9 -179.5(5) . . . . ?
C2 C3 C8 C9 0.8(7) . . . . ?
C4 C3 C8 C7 1.6(7) . . . . ?
C2 C3 C8 C7 -178.1(4) . . . . ?
C6 C7 C8 C9 178.8(6) . . . . ?
C6 C7 C8 C3 -2.3(9) . . . . ?
C3 C8 C9 C10 0.0(8) . . . . ?
C7 C8 C9 C10 178.8(5) . . . . ?
C8 C9 C10 C1 -1.6(8) . . . . ?
O1 C1 C10 C9 -177.6(4) . . . . ?
C2 C1 C10 C9 2.4(6) . . . . ?
C1 C2 C11 N1 3.8(6) . . . . ?
C3 C2 C11 N1 -176.0(3) . . . . ?
N1 C12 C14 O3 162.8(3) . . . . ?
C13 C12 C14 O3 -76.4(5) . . . . ?
N1 C12 C14 O2 -17.9(4) . . . . ?
C13 C12 C14 O2 102.8(4) . . . . ?
C2 C11 N1 C12 -178.6(3) . . . . ?
C2 C11 N1 Cu1 3.2(5) . . . . ?
C13 C12 N1 C11 83.7(4) . . . . ?
C14 C12 N1 C11 -155.7(3) . . . . ?
C13 C12 N1 Cu1 -97.9(3) . . . . ?
C14 C12 N1 Cu1 22.7(3) . . . . ?
O1 Cu1 N1 C11 -8.7(3) . . . . ?
O2 Cu1 N1 C11 161.6(3) . . . . ?
O1 Cu1 N1 C12 173.0(2) . . . . ?
O2 Cu1 N1 C12 -16.7(2) . . . . ?
O4 C15 N2 C16 -2.0(13) . . . . ?
O4 C15 N2 C17 179.1(9) . . . . ?
C2 C1 O1 Cu1 -8.0(5) . . . . ?
C10 C1 O1 Cu1 172.0(3) . . . . ?
N1 Cu1 O1 C1 11.0(3) . . . . ?
O2 Cu1 O1 C1 -176.3(3) 2_546 . . . ?
O2 Cu1 O1 C1 -55.3(8) . . . . ?
O3 C14 O2 Cu1 -10.9(5) . . . 2_556 ?
C12 C14 O2 Cu1 169.8(2) . . . 2_556 ?
O3 C14 O2 Cu1 -175.3(3) . . . . ?
C12 C14 O2 Cu1 5.4(4) . . . . ?
O1 Cu1 O2 C14 73.4(7) . . . . ?
N1 Cu1 O2 C14 6.2(3) . . . . ?
O2 Cu1 O2 C14 -165.9(3) 2_546 . . . ?
O1 Cu1 O2 Cu1 -88.2(6) . . . 2_556 ?
N1 Cu1 O2 Cu1 -155.28(18) . . . 2_556 ?
O2 Cu1 O2 Cu1 32.58(14) 2_546 . . 2_556 ?

loop_
_geom_hbond_atom_site_label_D
_geom_hbond_atom_site_label_H
_geom_hbond_atom_site_label_A
_geom_hbond_distance_DH
_geom_hbond_distance_HA
_geom_hbond_distance_DA
_geom_hbond_angle_DHA
_geom_hbond_site_symmetry_A
C11 H11 O4 0.93 2.36 3.258(7) 161.1 .

_diffrn_measured_fraction_theta_max 0.997
_diffrn_reflns_theta_full        27.45
_diffrn_measured_fraction_theta_full 0.997
_refine_diff_density_max         0.521
_refine_diff_density_min         -0.275
_refine_diff_density_rms         0.070


