####################################################################### 
# 
# This file contains crystal structure data downloaded from the 
# Cambridge Structural Database (CSD) hosted by the Cambridge 
# Crystallographic Data Centre (CCDC).
# 
# Full information about CCDC data access policies and citation 
# guidelines are available at http://www.ccdc.cam.ac.uk/access/V1 
# 
# Audit and citation data items may have been added by the CCDC. 
# Please retain this information to preserve the provenance of 
# this file and to allow appropriate attribution of the data. 
# 
#######################################################################

data_1
_audit_block_doi                 10.5517/ccsrr6g
_database_code_depnum_ccdc_archive 'CCDC 737806'
loop_
_citation_id
_citation_doi
_citation_year
1 10.1016/j.jssc.2009.09.005 2009
_audit_update_record             
;
2009-06-26 deposited with the CCDC.	2024-07-10 downloaded from the CCDC.
;

_audit_creation_method           SHELXL-97
_chemical_name_systematic        
;
?
;
_chemical_name_common            ?
_chemical_melting_point          ?
_chemical_formula_moiety         ?
_chemical_formula_sum            'C123 H94 Cl9 Eu2 N24 O54.50'
_chemical_formula_weight         3403.19

loop_
_atom_type_symbol
_atom_type_description
_atom_type_scat_dispersion_real
_atom_type_scat_dispersion_imag
_atom_type_scat_source
C C 0.0033 0.0016 'International Tables Vol C Tables 4.2.6.8 and 6.1.1.4'
H H 0.0000 0.0000 'International Tables Vol C Tables 4.2.6.8 and 6.1.1.4'
N N 0.0061 0.0033 'International Tables Vol C Tables 4.2.6.8 and 6.1.1.4'
O O 0.0106 0.0060 'International Tables Vol C Tables 4.2.6.8 and 6.1.1.4'
Eu Eu -0.1578 3.6682 'International Tables Vol C Tables 4.2.6.8 and 6.1.1.4'
Cl Cl 0.1484 0.1585 'International Tables Vol C Tables 4.2.6.8 and 6.1.1.4'

_symmetry_cell_setting           Triclinic
_symmetry_space_group_name_H-M   P-1

loop_
_symmetry_equiv_pos_as_xyz
'x, y, z'
'-x, -y, -z'

_cell_length_a                   20.543(2)
_cell_length_b                   20.675(2)
_cell_length_c                   21.760(3)
_cell_angle_alpha                110.215(2)
_cell_angle_beta                 99.8030(10)
_cell_angle_gamma                115.295(2)
_cell_volume                     7269.9(14)
_cell_formula_units_Z            2
_cell_measurement_temperature    298(2)
_cell_measurement_reflns_used    7907
_cell_measurement_theta_min      2.201
_cell_measurement_theta_max      25.168

_exptl_crystal_description       block
_exptl_crystal_colour            yellow
_exptl_crystal_size_max          0.45
_exptl_crystal_size_mid          0.32
_exptl_crystal_size_min          0.13
_exptl_crystal_density_meas      ?
_exptl_crystal_density_diffrn    1.555
_exptl_crystal_density_method    'not measured'
_exptl_crystal_F_000             3430
_exptl_absorpt_coefficient_mu    1.117
_exptl_absorpt_correction_type   multi-scan
_exptl_absorpt_correction_T_min  0.6333
_exptl_absorpt_correction_T_max  0.8684
_exptl_absorpt_process_details   sadabs

_exptl_special_details           
;
?
;

_diffrn_ambient_temperature      298(2)
_diffrn_radiation_wavelength     0.71073
_diffrn_radiation_type           MoK\a
_diffrn_radiation_source         'fine-focus sealed tube'
_diffrn_radiation_monochromator  graphite
_diffrn_measurement_device_type  'CCD area detector'
_diffrn_measurement_method       'phi and omega scans'
_diffrn_detector_area_resol_mean ?
_diffrn_standards_number         ?
_diffrn_standards_interval_count ?
_diffrn_standards_interval_time  ?
_diffrn_standards_decay_%        ?
_diffrn_reflns_number            37685
_diffrn_reflns_av_R_equivalents  0.0530
_diffrn_reflns_av_sigmaI/netI    0.1340
_diffrn_reflns_limit_h_min       -24
_diffrn_reflns_limit_h_max       24
_diffrn_reflns_limit_k_min       -24
_diffrn_reflns_limit_k_max       23
_diffrn_reflns_limit_l_min       -25
_diffrn_reflns_limit_l_max       25
_diffrn_reflns_theta_min         1.18
_diffrn_reflns_theta_max         25.01
_reflns_number_total             25254
_reflns_number_gt                13523
_reflns_threshold_expression     >2sigma(I)

_computing_data_collection       'Bruker SMART'
_computing_cell_refinement       'Bruker SMART'
_computing_data_reduction        'Bruker SAINT'
_computing_structure_solution    'SHELXS-97 (Sheldrick, 1990)'
_computing_structure_refinement  'SHELXL-97 (Sheldrick, 1997)'
_computing_molecular_graphics    'Bruker SHELXTL'
_computing_publication_material  'Bruker SHELXTL'

_refine_special_details          
;
Refinement of F^2^ against ALL reflections. The weighted R-factor wR and
goodness of fit S are based on F^2^, conventional R-factors R are based
on F, with F set to zero for negative F^2^. The threshold expression of
F^2^ > 2sigma(F^2^) is used only for calculating R-factors(gt) etc. and is
not relevant to the choice of reflections for refinement. R-factors based
on F^2^ are statistically about twice as large as those based on F, and R-
factors based on ALL data will be even larger.
;

_refine_ls_structure_factor_coef Fsqd
_refine_ls_matrix_type           full
_refine_ls_weighting_scheme      calc
_refine_ls_weighting_details     
'calc w=1/[\s^2^(Fo^2^)+(0.1189P)^2^+5.6211P] where P=(Fo^2^+2Fc^2^)/3'
_atom_sites_solution_primary     direct
_atom_sites_solution_secondary   difmap
_atom_sites_solution_hydrogens   geom
_refine_ls_hydrogen_treatment    constr
_refine_ls_extinction_method     none
_refine_ls_extinction_coef       ?
_refine_ls_number_reflns         25254
_refine_ls_number_parameters     1982
_refine_ls_number_restraints     0
_refine_ls_R_factor_all          0.1413
_refine_ls_R_factor_gt           0.0701
_refine_ls_wR_factor_ref         0.2386
_refine_ls_wR_factor_gt          0.1864
_refine_ls_goodness_of_fit_ref   1.021
_refine_ls_restrained_S_all      1.021
_refine_ls_shift/su_max          0.001
_refine_ls_shift/su_mean         0.000

loop_
_atom_site_label
_atom_site_type_symbol
_atom_site_fract_x
_atom_site_fract_y
_atom_site_fract_z
_atom_site_U_iso_or_equiv
_atom_site_adp_type
_atom_site_occupancy
_atom_site_symmetry_multiplicity
_atom_site_calc_flag
_atom_site_refinement_flags
_atom_site_disorder_assembly
_atom_site_disorder_group
Eu1 Eu 0.12050(3) 0.66403(3) 0.82012(3) 0.03311(15) Uani 1 1 d . . .
Eu2 Eu 0.37397(3) 0.21616(3) 0.58193(3) 0.03967(17) Uani 1 1 d . . .
Cl1 Cl 0.8601(5) -0.0046(5) 0.8317(4) 0.190(3) Uani 1 1 d . . .
Cl2 Cl 0.9979(8) 0.0671(6) 0.9478(5) 0.303(7) Uani 1 1 d . . .
Cl3 Cl 1.0009(6) 0.0969(5) 0.8291(5) 0.233(4) Uani 1 1 d . . .
Cl4 Cl 0.5412(6) 0.3565(8) 0.1580(6) 0.273(5) Uani 1 1 d . . .
Cl5 Cl 0.5496(9) 0.4146(9) 0.0592(7) 0.342(7) Uani 1 1 d . . .
Cl6 Cl 0.4383(8) 0.2570(9) 0.0151(7) 0.346(8) Uani 1 1 d . . .
Cl7 Cl 0.738(2) 0.791(2) 0.1444(18) 0.40(2) Uani 0.50 1 d P . .
Cl8 Cl 0.855(3) 0.923(3) 0.160(3) 0.54(3) Uani 0.50 1 d P . .
Cl9 Cl 0.7133(17) 0.9167(11) 0.1328(12) 0.244(11) Uani 0.50 1 d P . .
Cl10 Cl 0.591(3) 0.909(4) 0.930(4) 0.25(3) Uani 0.25(4) 1 d P A 1
Cl11 Cl 0.745(4) 1.008(4) 1.020(4) 0.22(4) Uani 0.25(4) 1 d P A 1
Cl12 Cl 0.693(4) 0.885(3) 0.870(3) 0.22(3) Uani 0.25(4) 1 d P A 1
Cl1' Cl 0.750(4) 0.939(4) 0.908(3) 0.28(3) Uani 0.25(4) 1 d P A 2
Cl2' Cl 0.593(3) 0.865(3) 0.883(4) 0.23(3) Uani 0.25(4) 1 d P A 2
Cl3' Cl 0.699(4) 0.998(4) 1.021(4) 0.17(2) Uani 0.25(4) 1 d P A 2
N1 N 0.3184(5) 0.7051(6) 0.7591(5) 0.054(2) Uani 1 1 d . . .
H1 H 0.3442 0.6857 0.7411 0.065 Uiso 1 1 calc R . .
N2 N 0.3204(5) 0.4046(6) 0.7142(5) 0.053(2) Uani 1 1 d . . .
H2 H 0.3115 0.4423 0.7168 0.064 Uiso 1 1 calc R . .
N3 N 0.0971(5) 0.8675(5) 0.8110(5) 0.048(2) Uani 1 1 d . . .
H3 H 0.1005 0.8992 0.7929 0.058 Uiso 1 1 calc R . .
N4 N 0.3448(6) 0.1426(6) 0.7580(5) 0.065(3) Uani 1 1 d . . .
H4 H 0.3188 0.1068 0.7698 0.078 Uiso 1 1 calc R . .
N5 N -0.1077(5) 0.5942(6) 0.8485(5) 0.064(3) Uani 1 1 d . . .
H5 H -0.1490 0.5557 0.8464 0.076 Uiso 1 1 calc R . .
N6 N 0.6048(5) 0.4090(6) 0.7704(5) 0.058(3) Uani 1 1 d . . .
H6 H 0.6533 0.4279 0.7910 0.070 Uiso 1 1 calc R . .
N7 N 0.2256(5) 0.5672(6) 0.8561(5) 0.050(2) Uani 1 1 d . . .
N8 N 0.2590(6) 0.5206(7) 1.0587(6) 0.066(3) Uani 1 1 d . . .
N9 N 0.0624(7) 0.5831(8) 0.9956(6) 0.066(3) Uani 1 1 d . . .
N10 N 0.1464(6) 0.8041(7) 0.9939(6) 0.068(3) Uani 1 1 d . . .
N11 N 0.3880(8) 1.0134(8) 1.1951(7) 0.103(5) Uani 1 1 d . . .
N12 N 0.3924(7) 0.8180(9) 0.9904(6) 0.084(4) Uani 1 1 d . . .
N13 N -0.0015(6) 0.5812(6) 0.6326(6) 0.062(3) Uani 1 1 d . . .
N14 N -0.1460(7) 0.2982(8) 0.4525(6) 0.081(4) Uani 1 1 d . . .
N15 N 0.0190(6) 0.3747(6) 0.6872(5) 0.061(3) Uani 1 1 d . . .
N16 N 0.4682(5) 0.3631(6) 0.5239(5) 0.048(2) Uani 1 1 d . . .
N17 N 0.5291(6) 0.3001(8) 0.3126(6) 0.066(3) Uani 1 1 d . . .
N18 N 0.4851(7) 0.1163(7) 0.4131(6) 0.078(3) Uani 1 1 d . . .
N19 N 0.4372(5) 0.0748(6) 0.5691(6) 0.062(3) Uani 1 1 d . . .
N20 N 0.2825(7) -0.2171(7) 0.4399(6) 0.075(3) Uani 1 1 d . . .
N21 N 0.1624(6) -0.0675(7) 0.4093(6) 0.071(3) Uani 1 1 d . . .
N22 N 0.1651(6) 0.1136(6) 0.5159(5) 0.053(2) Uani 1 1 d . . .
N23 N -0.0036(6) 0.0528(6) 0.2935(5) 0.057(3) Uani 1 1 d . . .
N24 N 0.2771(6) 0.2331(7) 0.3685(6) 0.060(3) Uani 1 1 d . . .
O1 O 0.2603(4) 0.5513(4) 0.6626(4) 0.0479(18) Uani 1 1 d . . .
O2 O 0.3129(4) 0.4591(4) 0.6263(4) 0.0453(17) Uani 1 1 d . . .
O3 O 0.2012(4) 0.6843(4) 0.7533(4) 0.0438(17) Uani 1 1 d . . .
O4 O 0.3551(4) 0.3203(4) 0.6541(4) 0.0496(18) Uani 1 1 d . . .
O5 O 0.1803(4) 0.9017(4) 0.7297(4) 0.0521(19) Uani 1 1 d . . .
O6 O 0.2183(4) -0.0012(4) 0.6742(4) 0.0530(19) Uani 1 1 d . . .
O7 O 0.1328(4) 0.7827(4) 0.8220(4) 0.0433(17) Uani 1 1 d . . .
O8 O 0.3483(4) 0.1771(4) 0.6715(4) 0.0518(19) Uani 1 1 d . . .
O9 O 0.8349(4) 0.4414(5) 0.7883(4) 0.065(2) Uani 1 1 d . . .
O10 O 0.6859(4) 0.3452(4) 0.7246(4) 0.0496(18) Uani 1 1 d . . .
O11 O -0.0101(4) 0.6225(5) 0.8098(4) 0.0519(19) Uani 1 1 d . . .
O12 O 0.4942(4) 0.3087(4) 0.6777(4) 0.0469(18) Uani 1 1 d . . .
O13 O 0.1023(4) 0.5923(4) 0.8851(4) 0.0461(18) Uani 1 1 d . . .
O14 O 0.2085(4) 0.6010(4) 0.8260(4) 0.0473(17) Uani 1 1 d . . .
O15 O 0.2661(5) 0.5391(6) 0.8396(5) 0.073(2) Uani 1 1 d . . .
O16 O 0.3107(6) 0.5111(7) 1.0466(6) 0.101(4) Uani 1 1 d . . .
O17 O 0.2425(5) 0.5205(6) 1.1108(5) 0.078(3) Uani 1 1 d . . .
O18 O 0.0785(7) 0.6360(9) 1.0508(7) 0.123(4) Uani 1 1 d . . .
O19 O -0.0023(6) 0.5408(7) 0.9505(6) 0.093(3) Uani 1 1 d . . .
O20 O 0.2362(4) 0.7580(5) 0.9203(4) 0.0498(18) Uani 1 1 d . . .
O21 O 0.1074(4) 0.7469(5) 0.9375(4) 0.062(2) Uani 1 1 d . . .
O22 O 0.1168(6) 0.8325(8) 1.0299(6) 0.159(7) Uani 1 1 d . . .
O23 O 0.3520(7) 1.0387(7) 1.2211(6) 0.130(5) Uani 1 1 d . . .
O24 O 0.4572(8) 1.0428(8) 1.2218(6) 0.166(7) Uani 1 1 d . . .
O25 O 0.4561(7) 0.8693(8) 0.9972(7) 0.158(7) Uani 1 1 d . . .
O26 O 0.3621(6) 0.7441(7) 0.9583(6) 0.105(4) Uani 1 1 d . . .
O27 O 0.0553(4) 0.5319(4) 0.7301(4) 0.0470(17) Uani 1 1 d . . .
O28 O 0.0384(4) 0.6368(5) 0.6928(4) 0.0557(19) Uani 1 1 d . . .
O29 O -0.0259(8) 0.5929(6) 0.5862(6) 0.133(5) Uani 1 1 d . . .
O30 O -0.1595(6) 0.3213(7) 0.4102(5) 0.107(4) Uani 1 1 d . . .
O31 O -0.1754(6) 0.2277(7) 0.4413(5) 0.101(4) Uani 1 1 d . . .
O32 O -0.0264(6) 0.3188(7) 0.6920(6) 0.104(4) Uani 1 1 d . . .
O33 O 0.0885(6) 0.4139(6) 0.7191(6) 0.098(3) Uani 1 1 d . . .
O34 O 0.4498(4) 0.2119(4) 0.5146(4) 0.0545(19) Uani 1 1 d . . .
O35 O 0.4495(4) 0.3474(4) 0.5702(4) 0.0519(19) Uani 1 1 d . . .
O36 O 0.4813(5) 0.4268(5) 0.5242(4) 0.063(2) Uani 1 1 d . . .
O37 O 0.5345(6) 0.3629(7) 0.3154(5) 0.088(3) Uani 1 1 d . . .
O38 O 0.5414(6) 0.2566(7) 0.2684(5) 0.096(3) Uani 1 1 d . . .
O39 O 0.5256(7) 0.0979(7) 0.3894(6) 0.111(4) Uani 1 1 d . . .
O40 O 0.4387(8) 0.0763(7) 0.4295(7) 0.126(5) Uani 1 1 d . . .
O41 O 0.3016(4) 0.0765(4) 0.5078(4) 0.0513(19) Uani 1 1 d . . .
O42 O 0.4424(4) 0.1398(4) 0.6024(4) 0.058(2) Uani 1 1 d . . .
O43 O 0.4956(5) 0.0697(5) 0.5795(6) 0.097(3) Uani 1 1 d . . .
O44 O 0.3446(7) -0.2165(6) 0.4579(6) 0.112(4) Uani 1 1 d . . .
O45 O 0.2179(6) -0.2795(5) 0.4057(5) 0.087(3) Uani 1 1 d . . .
O46 O 0.0997(6) -0.1234(8) 0.3961(6) 0.124(4) Uani 1 1 d . . .
O47 O 0.1712(6) -0.0186(6) 0.3875(6) 0.096(3) Uani 1 1 d . . .
O48 O 0.2975(4) 0.2119(4) 0.4868(4) 0.0508(18) Uani 1 1 d . . .
O49 O 0.2280(4) 0.1567(5) 0.5664(4) 0.057(2) Uani 1 1 d . . .
O50 O 0.1089(5) 0.0624(6) 0.5178(5) 0.093(3) Uani 1 1 d . . .
O51 O -0.0579(5) 0.0023(6) 0.3003(5) 0.074(3) Uani 1 1 d . . .
O52 O -0.0128(5) 0.0687(6) 0.2451(5) 0.077(3) Uani 1 1 d . . .
O53 O 0.2867(6) 0.2009(7) 0.3163(6) 0.107(4) Uani 1 1 d . . .
O54 O 0.3178(5) 0.3036(6) 0.4093(5) 0.082(3) Uani 1 1 d . . .
O56 O 0.565(3) 0.564(3) 0.044(2) 0.36(4) Uani 0.50 1 d P . .
H56C H 0.5549 0.5177 0.0384 0.426 Uiso 0.50 1 d PR . .
H56D H 0.5311 0.5582 0.0104 0.426 Uiso 0.50 1 d PR . .
C1 C 0.2645(6) 0.5787(7) 0.5622(6) 0.048(3) Uani 1 1 d . . .
H1A H 0.2456 0.6128 0.5759 0.057 Uiso 1 1 calc R . .
C2 C 0.2755(6) 0.5426(6) 0.6018(5) 0.041(2) Uani 1 1 d . . .
C3 C 0.3054(6) 0.4917(6) 0.5811(5) 0.041(2) Uani 1 1 d . . .
C4 C 0.3231(6) 0.4771(6) 0.5227(5) 0.044(3) Uani 1 1 d . . .
H4A H 0.3433 0.4441 0.5105 0.053 Uiso 1 1 calc R . .
C5 C 0.3106(6) 0.5123(6) 0.4801(6) 0.045(3) Uani 1 1 d . . .
C6 C 0.2820(6) 0.5642(7) 0.5003(6) 0.050(3) Uani 1 1 d . . .
C7 C 0.2716(7) 0.6006(7) 0.4585(6) 0.056(3) Uani 1 1 d . . .
H7 H 0.2542 0.6361 0.4721 0.067 Uiso 1 1 calc R . .
C8 C 0.2869(7) 0.5839(7) 0.3979(6) 0.065(3) Uani 1 1 d . . .
H8 H 0.2776 0.6062 0.3695 0.078 Uiso 1 1 calc R . .
C9 C 0.3163(7) 0.5338(7) 0.3784(6) 0.063(3) Uani 1 1 d . . .
H9 H 0.3280 0.5242 0.3380 0.076 Uiso 1 1 calc R . .
C10 C 0.3280(6) 0.4986(7) 0.4185(6) 0.054(3) Uani 1 1 d . . .
H10 H 0.3477 0.4653 0.4051 0.064 Uiso 1 1 calc R . .
C11 C 0.2433(6) 0.6595(7) 0.7322(5) 0.043(2) Uani 1 1 d . . .
C12 C 0.2065(6) 0.5737(6) 0.6748(6) 0.045(3) Uani 1 1 d . . .
H12A H 0.1705 0.5370 0.6877 0.053 Uiso 1 1 calc R . .
H12B H 0.1769 0.5678 0.6313 0.053 Uiso 1 1 calc R . .
C13 C 0.3625(7) 0.7882(8) 0.8190(7) 0.072(4) Uani 1 1 d . . .
H13A H 0.4148 0.8019 0.8415 0.087 Uiso 1 1 calc R . .
H13B H 0.3382 0.7896 0.8536 0.087 Uiso 1 1 calc R . .
C14 C 0.3668(7) 0.8520(9) 0.7969(9) 0.078(4) Uani 1 1 d . . .
C15 C 0.3907(8) 0.9270(10) 0.8520(10) 0.102(5) Uani 1 1 d . . .
H15 H 0.4029 0.9377 0.8989 0.122 Uiso 1 1 calc R . .
C16 C 0.3950(9) 0.9873(11) 0.8299(12) 0.113(7) Uani 1 1 d . . .
H16 H 0.4105 1.0393 0.8625 0.136 Uiso 1 1 calc R . .
C17 C 0.3763(9) 0.9652(12) 0.7627(13) 0.109(6) Uani 1 1 d . . .
H17 H 0.3814 1.0063 0.7515 0.131 Uiso 1 1 calc R . .
C18 C 0.3513(9) 0.8954(12) 0.7070(11) 0.107(6) Uani 1 1 d . . .
H18 H 0.3368 0.8858 0.6604 0.129 Uiso 1 1 calc R . .
C19 C 0.3498(8) 0.8362(9) 0.7292(10) 0.081(4) Uani 1 1 d . . .
H19 H 0.3366 0.7857 0.6953 0.097 Uiso 1 1 calc R . .
C20 C 0.3385(6) 0.3731(6) 0.6606(6) 0.044(3) Uani 1 1 d . . .
C21 C 0.3398(6) 0.4049(6) 0.6080(6) 0.044(3) Uani 1 1 d . . .
H21A H 0.3921 0.4329 0.6092 0.053 Uiso 1 1 calc R . .
H21B H 0.3064 0.3605 0.5607 0.053 Uiso 1 1 calc R . .
C22 C 0.3144(8) 0.3796(8) 0.7689(7) 0.070(4) Uani 1 1 d . . .
H22A H 0.3302 0.4264 0.8128 0.083 Uiso 1 1 calc R . .
H22B H 0.3506 0.3620 0.7758 0.083 Uiso 1 1 calc R . .
C23 C 0.2359(8) 0.3137(8) 0.7540(7) 0.064(3) Uani 1 1 d . . .
C24 C 0.1787(9) 0.3265(10) 0.7634(8) 0.085(4) Uani 1 1 d . . .
H24 H 0.1887 0.3791 0.7825 0.103 Uiso 1 1 calc R . .
C25 C 0.1040(10) 0.2617(11) 0.7447(9) 0.096(5) Uani 1 1 d . . .
H25 H 0.0667 0.2735 0.7538 0.115 Uiso 1 1 calc R . .
C26 C 0.0833(11) 0.1844(12) 0.7146(10) 0.105(6) Uani 1 1 d . . .
H26 H 0.0344 0.1431 0.7058 0.126 Uiso 1 1 calc R . .
C27 C 0.1350(12) 0.1698(12) 0.6984(10) 0.123(7) Uani 1 1 d . . .
H27 H 0.1207 0.1164 0.6713 0.148 Uiso 1 1 calc R . .
C28 C 0.2119(9) 0.2320(10) 0.7203(9) 0.096(5) Uani 1 1 d . . .
H28 H 0.2483 0.2183 0.7121 0.116 Uiso 1 1 calc R . .
C29 C 0.0564(6) 0.8009(7) 0.6301(6) 0.050(3) Uani 1 1 d . . .
H29 H 0.0431 0.7667 0.6505 0.060 Uiso 1 1 calc R . .
C30 C 0.1258(6) 0.8725(6) 0.6640(6) 0.046(3) Uani 1 1 d . . .
C31 C 0.1471(6) 0.9267(6) 0.6336(6) 0.044(3) Uani 1 1 d . . .
C32 C 0.0990(6) 0.9043(7) 0.5699(6) 0.052(3) Uani 1 1 d . . .
H32 H 0.1140 0.9381 0.5493 0.062 Uiso 1 1 calc R . .
C33 C 0.0264(6) 0.8309(7) 0.5338(6) 0.052(3) Uani 1 1 d . . .
C34 C 0.0039(6) 0.7776(7) 0.5640(6) 0.053(3) Uani 1 1 d . . .
C35 C -0.0684(7) 0.7042(7) 0.5272(7) 0.067(4) Uani 1 1 d . . .
H35 H -0.0830 0.6693 0.5469 0.081 Uiso 1 1 calc R . .
C36 C -0.1159(7) 0.6836(8) 0.4658(8) 0.079(4) Uani 1 1 d . . .
H36 H -0.1637 0.6352 0.4430 0.095 Uiso 1 1 calc R . .
C37 C -0.0942(7) 0.7352(8) 0.4340(7) 0.075(4) Uani 1 1 d . . .
H37 H -0.1280 0.7194 0.3902 0.090 Uiso 1 1 calc R . .
C38 C -0.0267(6) 0.8056(7) 0.4655(6) 0.060(3) Uani 1 1 d . . .
H38 H -0.0137 0.8383 0.4437 0.072 Uiso 1 1 calc R . .
C39 C 0.1344(6) 0.8290(6) 0.7973(6) 0.046(3) Uani 1 1 d . . .
C40 C 0.1797(6) 0.8423(7) 0.7501(6) 0.049(3) Uani 1 1 d . . .
H40A H 0.2328 0.8595 0.7747 0.058 Uiso 1 1 calc R . .
H40B H 0.1573 0.7913 0.7079 0.058 Uiso 1 1 calc R . .
C41 C 0.0508(6) 0.8599(7) 0.8544(6) 0.056(3) Uani 1 1 d . . .
H41A H 0.0619 0.9133 0.8852 0.068 Uiso 1 1 calc R . .
H41B H 0.0661 0.8389 0.8840 0.068 Uiso 1 1 calc R . .
C42 C -0.0348(7) 0.8055(7) 0.8126(7) 0.057(3) Uani 1 1 d . . .
C43 C -0.0868(7) 0.8265(8) 0.8356(7) 0.065(3) Uani 1 1 d . . .
H43 H -0.0670 0.8754 0.8756 0.078 Uiso 1 1 calc R . .
C44 C -0.1651(8) 0.7765(9) 0.8004(8) 0.075(4) Uani 1 1 d . . .
H44 H -0.1984 0.7906 0.8171 0.090 Uiso 1 1 calc R . .
C45 C -0.1949(8) 0.7050(9) 0.7399(8) 0.083(4) Uani 1 1 d . . .
H45 H -0.2484 0.6708 0.7162 0.100 Uiso 1 1 calc R . .
C46 C -0.1459(8) 0.6830(9) 0.7137(8) 0.081(4) Uani 1 1 d . . .
H46 H -0.1662 0.6354 0.6722 0.097 Uiso 1 1 calc R . .
C47 C -0.0662(7) 0.7338(8) 0.7512(7) 0.068(3) Uani 1 1 d . . .
H47 H -0.