####################################################################### 
# 
# This file contains crystal structure data downloaded from the 
# Cambridge Structural Database (CSD) hosted by the Cambridge 
# Crystallographic Data Centre (CCDC).
# 
# Full information about CCDC data access policies and citation 
# guidelines are available at http://www.ccdc.cam.ac.uk/access/V1 
# 
# Audit and citation data items may have been added by the CCDC. 
# Please retain this information to preserve the provenance of 
# this file and to allow appropriate attribution of the data. 
# 
#######################################################################

data_060520d
_audit_block_doi                 10.5517/ccrp9d3
_database_code_depnum_ccdc_archive 'CCDC 705665'
loop_
_citation_id
_citation_doi
_citation_year
1 10.1016/j.jssc.2009.07.062 2010
_audit_update_record             
;
2008-10-17 deposited with the CCDC.	2024-07-10 downloaded from the CCDC.
;

_audit_creation_method           SHELXL-97
_chemical_name_systematic        
;
1,1,1,1-tetrakis {[(2'-(2-furfurylaminoformyl)phenoxyl]methyl}methane
Europium(III) nitrate
;
_chemical_name_common            ?
_chemical_melting_point          ?
_chemical_formula_moiety         ?
_chemical_formula_sum            'C159 H156 Eu4 N24 O78'
_chemical_formula_weight         4258.92

loop_
_atom_type_symbol
_atom_type_description
_atom_type_scat_dispersion_real
_atom_type_scat_dispersion_imag
_atom_type_scat_source
C C 0.0033 0.0016 'International Tables Vol C Tables 4.2.6.8 and 6.1.1.4'
H H 0.0000 0.0000 'International Tables Vol C Tables 4.2.6.8 and 6.1.1.4'
N N 0.0061 0.0033 'International Tables Vol C Tables 4.2.6.8 and 6.1.1.4'
O O 0.0106 0.0060 'International Tables Vol C Tables 4.2.6.8 and 6.1.1.4'
Eu Eu -0.1578 3.6682 'International Tables Vol C Tables 4.2.6.8 and 6.1.1.4'

_symmetry_cell_setting           Cubic
_symmetry_space_group_name_H-M   I-43d

loop_
_symmetry_equiv_pos_as_xyz
'x, y, z'
'-x+1/2, -y, z+1/2'
'-x, y+1/2, -z+1/2'
'x+1/2, -y+1/2, -z'
'z, x, y'
'z+1/2, -x+1/2, -y'
'-z+1/2, -x, y+1/2'
'-z, x+1/2, -y+1/2'
'y, z, x'
'-y, z+1/2, -x+1/2'
'y+1/2, -z+1/2, -x'
'-y+1/2, -z, x+1/2'
'y+1/4, x+1/4, z+1/4'
'-y+1/4, -x+3/4, z+3/4'
'y+3/4, -x+1/4, -z+3/4'
'-y+3/4, x+3/4, -z+1/4'
'x+1/4, z+1/4, y+1/4'
'-x+3/4, z+3/4, -y+1/4'
'-x+1/4, -z+3/4, y+3/4'
'x+3/4, -z+1/4, -y+3/4'
'z+1/4, y+1/4, x+1/4'
'z+3/4, -y+1/4, -x+3/4'
'-z+3/4, y+3/4, -x+1/4'
'-z+1/4, -y+3/4, x+3/4'
'x+1/2, y+1/2, z+1/2'
'-x+1, -y+1/2, z+1'
'-x+1/2, y+1, -z+1'
'x+1, -y+1, -z+1/2'
'z+1/2, x+1/2, y+1/2'
'z+1, -x+1, -y+1/2'
'-z+1, -x+1/2, y+1'
'-z+1/2, x+1, -y+1'
'y+1/2, z+1/2, x+1/2'
'-y+1/2, z+1, -x+1'
'y+1, -z+1, -x+1/2'
'-y+1, -z+1/2, x+1'
'y+3/4, x+3/4, z+3/4'
'-y+3/4, -x+5/4, z+5/4'
'y+5/4, -x+3/4, -z+5/4'
'-y+5/4, x+5/4, -z+3/4'
'x+3/4, z+3/4, y+3/4'
'-x+5/4, z+5/4, -y+3/4'
'-x+3/4, -z+5/4, y+5/4'
'x+5/4, -z+3/4, -y+5/4'
'z+3/4, y+3/4, x+3/4'
'z+5/4, -y+3/4, -x+5/4'
'-z+5/4, y+5/4, -x+3/4'
'-z+3/4, -y+5/4, x+5/4'

_cell_length_a                   27.520(3)
_cell_length_b                   27.520(3)
_cell_length_c                   27.520(3)
_cell_angle_alpha                90.00
_cell_angle_beta                 90.00
_cell_angle_gamma                90.00
_cell_volume                     20841(4)
_cell_formula_units_Z            4
_cell_measurement_temperature    298(2)
_cell_measurement_reflns_used    8719
_cell_measurement_theta_min      2.339
_cell_measurement_theta_max      19.668

_exptl_crystal_description       block
_exptl_crystal_colour            colorless
_exptl_crystal_size_max          0.44
_exptl_crystal_size_mid          0.42
_exptl_crystal_size_min          0.39
_exptl_crystal_density_meas      0
_exptl_crystal_density_diffrn    1.357
_exptl_crystal_density_method    'not measured'
_exptl_crystal_F_000             8616
_exptl_absorpt_coefficient_mu    1.277
_exptl_absorpt_correction_type   multi-scan
_exptl_absorpt_correction_T_min  0.6035
_exptl_absorpt_correction_T_max  0.6358
_exptl_absorpt_process_details   sadabs

_exptl_special_details           
;
?
;

_diffrn_ambient_temperature      298(2)
_diffrn_radiation_wavelength     0.71073
_diffrn_radiation_type           MoK\a
_diffrn_radiation_source         'fine-focus sealed tube'
_diffrn_radiation_monochromator  graphite
_diffrn_measurement_device_type  'CCD area detector'
_diffrn_measurement_method       'phi and omega scans'
_diffrn_detector_area_resol_mean ?
_diffrn_standards_number         ?
_diffrn_standards_interval_count ?
_diffrn_standards_interval_time  ?
_diffrn_standards_decay_%        ?
_diffrn_reflns_number            49762
_diffrn_reflns_av_R_equivalents  0.1095
_diffrn_reflns_av_sigmaI/netI    0.0522
_diffrn_reflns_limit_h_min       -31
_diffrn_reflns_limit_h_max       32
_diffrn_reflns_limit_k_min       -20
_diffrn_reflns_limit_k_max       32
_diffrn_reflns_limit_l_min       -31
_diffrn_reflns_limit_l_max       32
_diffrn_reflns_theta_min         2.09
_diffrn_reflns_theta_max         25.01
_reflns_number_total             2944
_reflns_number_gt                1625
_reflns_threshold_expression     >2sigma(I)

_computing_data_collection       'Bruker SMART'
_computing_cell_refinement       'Bruker SMART'
_computing_data_reduction        'Bruker SAINT'
_computing_structure_solution    'SHELXS-97 (Sheldrick, 1990)'
_computing_structure_refinement  'SHELXL-97 (Sheldrick, 1997)'
_computing_molecular_graphics    'Bruker SHELXTL'
_computing_publication_material  'Bruker SHELXTL'

_refine_special_details          
;
Refinement of F^2^ against ALL reflections. The weighted R-factor wR and
goodness of fit S are based on F^2^, conventional R-factors R are based
on F, with F set to zero for negative F^2^. The threshold expression of
F^2^ > 2sigma(F^2^) is used only for calculating R-factors(gt) etc. and is
not relevant to the choice of reflections for refinement. R-factors based
on F^2^ are statistically about twice as large as those based on F, and R-
factors based on ALL data will be even larger.
;

_refine_ls_structure_factor_coef Fsqd
_refine_ls_matrix_type           full
_refine_ls_weighting_scheme      calc
_refine_ls_weighting_details     
'calc w=1/[\s^2^(Fo^2^)+(0.1931P)^2^+0.0000P] where P=(Fo^2^+2Fc^2^)/3'
_atom_sites_solution_primary     direct
_atom_sites_solution_secondary   difmap
_atom_sites_solution_hydrogens   geom
_refine_ls_hydrogen_treatment    none
_refine_ls_extinction_method     none
_refine_ls_extinction_coef       ?
_refine_ls_abs_structure_details 'Flack H D (1983), Acta Cryst. A39, 876-881'
_refine_ls_abs_structure_Flack   0.00(7)
_refine_ls_number_reflns         2944
_refine_ls_number_parameters     200
_refine_ls_number_restraints     118
_refine_ls_R_factor_all          0.1732
_refine_ls_R_factor_gt           0.0877
_refine_ls_wR_factor_ref         0.2926
_refine_ls_wR_factor_gt          0.2137
_refine_ls_goodness_of_fit_ref   1.056
_refine_ls_restrained_S_all      1.051
_refine_ls_shift/su_max          0.000
_refine_ls_shift/su_mean         0.000

loop_
_atom_site_label
_atom_site_type_symbol
_atom_site_fract_x
_atom_site_fract_y
_atom_site_fract_z
_atom_site_U_iso_or_equiv
_atom_site_adp_type
_atom_site_occupancy
_atom_site_symmetry_multiplicity
_atom_site_calc_flag
_atom_site_refinement_flags
_atom_site_disorder_assembly
_atom_site_disorder_group
Eu1 Eu 0.47617(3) 0.52383(3) 0.02383(3) 0.0788(5) Uani 1 3 d S . .
N1 N 0.5187(7) 0.3683(6) 0.0170(9) 0.136(7) Uani 1 1 d . . .
H1 H 0.5178 0.3370 0.0170 0.164 Uiso 1 1 calc R . .
N2 N 0.4892(8) 0.5251(8) 0.1275(5) 0.143(5) Uani 1 1 d DU . .
O1 O 0.4789(5) 0.4383(3) 0.0163(5) 0.098(4) Uani 1 1 d . . .
O2 O 0.6392(9) 0.3441(9) 0.0152(9) 0.197(7) Uani 1 1 d DU . .
O3 O 0.4619(5) 0.3016(5) 0.0661(5) 0.116(4) Uani 1 1 d . . .
O4 O 0.4920(6) 0.4860(6) 0.1053(4) 0.124(4) Uani 1 1 d DU . .
O5 O 0.4869(8) 0.5635(6) 0.1040(5) 0.152(5) Uani 1 1 d DU . .
O6 O 0.4950(9) 0.5257(7) 0.1732(4) 0.171(6) Uani 1 1 d DU . .
O7 O 0.7500 0.4151(14) 0.0000 0.217(14) Uani 1 2 d SU . .
H2 H 0.7541 0.4338 0.0242 0.261 Uiso 1 1 d R . .
C1 C 0.5000 0.2500 0.1250 0.077(7) Uani 1 4 d S . .
C2 C 0.4535(6) 0.2560(7) 0.0922(6) 0.090(5) Uani 1 1 d . . .
H2A H 0.4504 0.2290 0.0698 0.108 Uiso 1 1 calc R . .
H2B H 0.4244 0.2579 0.1119 0.108 Uiso 1 1 calc R . .
C3 C 0.4234(7) 0.3184(6) 0.0388(7) 0.093(5) Uani 1 1 d . . .
C4 C 0.3785(8) 0.2960(8) 0.0395(10) 0.125(8) Uani 1 1 d . . .
H4 H 0.3728 0.2683 0.0579 0.150 Uiso 1 1 calc R . .
C5 C 0.3410(7) 0.3176(9) 0.0103(10) 0.122(7) Uani 1 1 d . . .
H5 H 0.3112 0.3021 0.0070 0.147 Uiso 1 1 calc R . .
C6 C 0.3487(8) 0.3586(10) -0.0115(10) 0.130(9) Uani 1 1 d . . .
H6 H 0.3250 0.3721 -0.0314 0.157 Uiso 1 1 calc R . .
C7 C 0.3920(10) 0.3818(9) -0.0047(10) 0.153(12) Uani 1 1 d . . .
H7 H 0.3953 0.4121 -0.0192 0.184 Uiso 1 1 calc R . .
C8 C 0.4305(9) 0.3657(7) 0.0206(8) 0.109(6) Uani 1 1 d . . .
C9 C 0.4793(9) 0.3938(6) 0.0192(7) 0.109(6) Uani 1 1 d . . .
C10 C 0.5660(11) 0.3956(14) 0.0147(15) 0.181(13) Uani 1 1 d . . .
H10A H 0.5758 0.4004 -0.0189 0.217 Uiso 1 1 calc R . .
H10B H 0.5629 0.4271 0.0301 0.217 Uiso 1 1 calc R . .
C11 C 0.5991(10) 0.3680(13) 0.0383(11) 0.185(7) Uani 1 1 d DU . .
C12 C 0.6027(10) 0.3588(13) 0.0891(10) 0.190(7) Uani 1 1 d DU . .
H12 H 0.5802 0.3683 0.1125 0.228 Uiso 1 1 calc R . .
C13 C 0.6464(11) 0.3326(14) 0.0984(10) 0.193(8) Uani 1 1 d DU . .
H13 H 0.6588 0.3243 0.1287 0.232 Uiso 1 1 calc R . .
C14 C 0.6678(9) 0.3214(12) 0.0519(12) 0.194(8) Uani 1 1 d DU . .
H14 H 0.6955 0.3027 0.0468 0.232 Uiso 1 1 calc R . .

loop_
_atom_site_aniso_label
_atom_site_aniso_U_11
_atom_site_aniso_U_22
_atom_site_aniso_U_33
_atom_site_aniso_U_23
_atom_site_aniso_U_13
_atom_site_aniso_U_12
Eu1 0.0788(5) 0.0788(5) 0.0788(5) 0.0038(4) -0.0038(4) -0.0038(4)
N1 0.126(15) 0.072(9) 0.21(2) 0.032(11) -0.021(17) -0.004(10)
N2 0.167(12) 0.177(14) 0.083(10) 0.006(10) -0.005(9) -0.038(13)
O1 0.124(9) 0.053(5) 0.118(9) 0.000(5) -0.044(9) 0.014(6)
O2 0.149(12) 0.201(15) 0.242(18) 0.027(15) -0.033(12) -0.012(11)
O3 0.115(10) 0.094(8) 0.138(11) 0.040(8) -0.033(8) -0.008(7)
O4 0.148(9) 0.158(11) 0.066(6) 0.045(7) -0.028(6) -0.035(9)
O5 0.189(12) 0.172(12) 0.096(8) -0.012(8) -0.007(9) -0.036(11)
O6 0.239(15) 0.206(14) 0.067(7) -0.001(10) -0.009(9) -0.019(13)
O7 0.221(17) 0.211(16) 0.221(17) 0.000 0.008(10) 0.000
C1 0.058(9) 0.058(9) 0.11(2) 0.000 0.000 0.000
C2 0.079(9) 0.113(13) 0.077(10) 0.005(9) -0.002(8) -0.006(9)
C3 0.105(12) 0.070(10) 0.102(12) -0.004(8) -0.004(10) -0.012(9)
C4 0.102(14) 0.095(12) 0.18(2) 0.046(12) -0.035(14) -0.012(11)
C5 0.083(11) 0.142(19) 0.142(19) -0.008(16) -0.023(12) -0.022(12)
C6 0.107(15) 0.138(19) 0.15(2) 0.032(16) -0.031(14) -0.031(14)
C7 0.17(2) 0.133(18) 0.16(2) 0.056(17) -0.10(2) -0.060(18)
C8 0.134(16) 0.094(12) 0.098(13) -0.003(11) -0.007(13) -0.022(11)
C9 0.153(18) 0.084(11) 0.090(11) 0.013(9) -0.026(13) 0.063(13)
C10 0.13(2) 0.20(3) 0.21(4) 0.01(3) -0.04(2) 0.06(2)
C11 0.132(13) 0.190(16) 0.232(19) 0.030(16) -0.023(14) -0.015(12)
C12 0.141(13) 0.197(16) 0.232(19) 0.024(16) -0.025(14) -0.015(12)
C13 0.140(13) 0.202(16) 0.236(19) 0.038(16) -0.029(14) -0.014(12)
C14 0.140(13) 0.199(16) 0.24(2) 0.028(16) -0.033(13) -0.006(13)

_geom_special_details            
;
All esds (except the esd in the dihedral angle between two l.s. planes)
are estimated using the full covariance matrix. The cell esds are taken
into account individually in the estimation of esds in distances, angles
and torsion angles; correlations between esds in cell parameters are only
used when they are defined by crystal symmetry. An approximate (isotropic)
treatment of cell esds is used for estimating esds involving l.s. planes.
;

loop_
_geom_bond_atom_site_label_1
_geom_bond_atom_site_label_2
_geom_bond_distance
_geom_bond_site_symmetry_2
_geom_bond_publ_flag
Eu1 O1 2.363(9) . ?
Eu1 O1 2.363(9) 10_655 ?
Eu1 O1 2.363(9) 7_564 ?
Eu1 O5 2.480(14) . ?
Eu1 O5 2.480(14) 10_655 ?
Eu1 O5 2.480(14) 7_564 ?
Eu1 O4 2.509(11) 10_655 ?
Eu1 O4 2.509(11) . ?
Eu1 O4 2.509(11) 7_564 ?
Eu1 N2 2.877(15) 7_564 ?
Eu1 N2 2.877(15) 10_655 ?
N1 C9 1.29(2) . ?
N1 C10 1.51(4) . ?
N1 H1 0.8600 . ?
N2 O5 1.241(15) . ?
N2 O4 1.242(15) . ?
N2 O6 1.267(14) . ?
O1 C9 1.23(2) . ?
O2 C14 1.425(17) . ?
O2 C11 1.434(17) . ?
O3 C3 1.38(2) . ?
O3 C2 1.47(2) . ?
O7 H2 0.8500 . ?
C1 C2 1.574(16) 39_454 ?
C1 C2 1.574(16) 16_545 ?
C1 C2 1.574(16) . ?
C1 C2 1.574(16) 26_554 ?
C2 H2A 0.9700 . ?
C2 H2B 0.9700 . ?
C3 C4 1.38(3) . ?
C3 C8 1.41(3) . ?
C4 C5 1.43(3) . ?
C4 H4 0.9300 . ?
C5 C6 1.29(3) . ?
C5 H5 0.9300 . ?
C6 C7 1.37(3) . ?
C6 H6 0.9300 . ?
C7 C8 1.34(3) . ?
C7 H7 0.9300 . ?
C8 C9 1.55(3) . ?
C10 C11 1.35(3) . ?
C10 H10A 0.9700 . ?
C10 H10B 0.9700 . ?
C11 C12 1.424(17) . ?
C12 C13 1.424(16) . ?
C12 H12 0.9300 . ?
C13 C14 1.440(17) . ?
C13 H13 0.9300 . ?
C14 H14 0.9300 . ?

loop_
_geom_angle_atom_site_label_1
_geom_angle_atom_site_label_2
_geom_angle_atom_site_label_3
_geom_angle
_geom_angle_site_symmetry_1
_geom_angle_site_symmetry_3
_geom_angle_publ_flag
O1 Eu1 O1 83.0(6) . 10_655 ?
O1 Eu1 O1 83.0(6) . 7_564 ?
O1 Eu1 O1 83.0(6) 10_655 7_564 ?
O1 Eu1 O5 120.9(5) . . ?
O1 Eu1 O5 87.0(7) 10_655 . ?
O1 Eu1 O5 152.8(5) 7_564 . ?
O1 Eu1 O5 152.8(5) . 10_655 ?
O1 Eu1 O5 120.9(5) 10_655 10_655 ?
O1 Eu1 O5 87.0(7) 7_564 10_655 ?
O5 Eu1 O5 76.5(8) . 10_655 ?
O1 Eu1 O5 87.0(7) . 7_564 ?
O1 Eu1 O5 152.8(5) 10_655 7_564 ?
O1 Eu1 O5 120.9(5) 7_564 7_564 ?
O5 Eu1 O5 76.5(8) . 7_564 ?
O5 Eu1 O5 76.5(8) 10_655 7_564 ?
O1 Eu1 O4 149.4(6) . 10_655 ?
O1 Eu1 O4 70.1(4) 10_655 10_655 ?
O1 Eu1 O4 79.6(5) 7_564 10_655 ?
O5 Eu1 O4 73.2(6) . 10_655 ?
O5 Eu1 O4 50.8(4) 10_655 10_655 ?
O5 Eu1 O4 123.5(6) 7_564 10_655 ?
O1 Eu1 O4 70.1(4) . . ?
O1 Eu1 O4 79.6(5) 10_655 . ?
O1 Eu1 O4 149.4(6) 7_564 . ?
O5 Eu1 O4 50.8(4) . . ?
O5 Eu1 O4 123.5(6) 10_655 . ?
O5 Eu1 O4 73.2(6) 7_564 . ?
O4 Eu1 O4 117.0(2) 10_655 . ?
O1 Eu1 O4 79.6(5) . 7_564 ?
O1 Eu1 O4 149.4(6) 10_655 7_564 ?
O1 Eu1 O4 70.1(4) 7_564 7_564 ?
O5 Eu1 O4 123.5(6) . 7_564 ?
O5 Eu1 O4 73.2(6) 10_655 7_564 ?
O5 Eu1 O4 50.8(4) 7_564 7_564 ?
O4 Eu1 O4 117.0(2) 10_655 7_564 ?
O4 Eu1 O4 117.0(2) . 7_564 ?
O1 Eu1 N2 84.7(6) . 7_564 ?
O1 Eu1 N2 167.7(6) 10_655 7_564 ?
O1 Eu1 N2 95.5(5) 7_564 7_564 ?
O5 Eu1 N2 99.3(7) . 7_564 ?
O5 Eu1 N2 71.1(6) 10_655 7_564 ?
O5 Eu1 N2 25.4(4) 7_564 7_564 ?
O4 Eu1 N2 121.7(6) 10_655 7_564 ?
O4 Eu1 N2 96.2(6) . 7_564 ?
O4 Eu1 N2 25.5(3) 7_564 7_564 ?
O1 Eu1 N2 167.7(6) . 10_655 ?
O1 Eu1 N2 95.5(5) 10_655 10_655 ?
O1 Eu1 N2 84.7(6) 7_564 10_655 ?
O5 Eu1 N2 71.1(6) . 10_655 ?
O5 Eu1 N2 25.4(4) 10_655 10_655 ?
O5 Eu1 N2 99.3(7) 7_564 10_655 ?
O4 Eu1 N2 25.5(3) 10_655 10_655 ?
O4 Eu1 N2 121.7(6) . 10_655 ?
O4 Eu1 N2 96.2(6) 7_564 10_655 ?
N2 Eu1 N2 96.5(6) 7_564 10_655 ?
C9 N1 C10 117.2(19) . . ?
C9 N1 H1 121.4 . . ?
C10 N1 H1 121.4 . . ?
O5 N2 O4 119.0(13) . . ?
O5 N2 O6 120.8(16) . . ?
O4 N2 O6 119.6(16) . . ?
C9 O1 Eu1 171.1(13) . . ?
C14 O2 C11 108.1(11) . . ?
C3 O3 C2 115.7(13) . . ?
N2 O4 Eu1 94.0(9) . . ?
N2 O5 Eu1 95.5(10) . . ?
C2 C1 C2 110.1(12) 39_454 16_545 ?
C2 C1 C2 109.2(6) 39_454 . ?
C2 C1 C2 109.2(6) 16_545 . ?
C2 C1 C2 109.2(6) 39_454 26_554 ?
C2 C1 C2 109.2(6) 16_545 26_554 ?
C2 C1 C2 110.1(12) . 26_554 ?
O3 C2 C1 104.0(11) . . ?
O3 C2 H2A 110.9 . . ?
C1 C2 H2A 110.9 . . ?
O3 C2 H2B 110.9 . . ?
C1 C2 H2B 110.9 . . ?
H2A C2 H2B 109.0 . . ?
O3 C3 C4 122.1(16) . . ?
O3 C3 C8 113.4(16) . . ?
C4 C3 C8 122.7(19) . . ?
C3 C4 C5 116.8(19) . . ?
C3 C4 H4 121.6 . . ?
C5 C4 H4 121.6 . . ?
C6 C5 C4 120.2(19) . . ?
C6 C5 H5 119.9 . . ?
C4 C5 H5 119.9 . . ?
C5 C6 C7 119(2) . . ?
C5 C6 H6 120.5 . . ?
C7 C6 H6 120.5 . . ?
C8 C7 C6 127(2) . . ?
C8 C7 H7 116.3 . . ?
C6 C7 H7 116.3 . . ?
C7 C8 C3 112(2) . . ?
C7 C8 C9 120.5(19) . . ?
C3 C8 C9 126.0(19) . . ?
O1 C9 N1 123(2) . . ?
O1 C9 C8 119.3(18) . . ?
N1 C9 C8 117.2(16) . . ?
C11 C10 N1 106(3) . . ?
C11 C10 H10A 110.5 . . ?
N1 C10 H10A 110.5 . . ?
C11 C10 H10B 110.5 . . ?
N1 C10 H10B 110.5 . . ?
H10A C10 H10B 108.6 . . ?
C10 C11 C12 128(3) . . ?
C10 C11 O2 124(3) . . ?
C12 C11 O2 107.4(11) . . ?
C13 C12 C11 109.0(11) . . ?
C13 C12 H12 125.5 . . ?
C11 C12 H12 125.5 . . ?
C12 C13 C14 107.2(11) . . ?
C12 C13 H13 126.4 . . ?
C14 C13 H13 126.4 . . ?
O2 C14 C13 108.1(11) . . ?
O2 C14 H14 126.0 . . ?
C13 C14 H14 126.0 . . ?

_diffrn_measured_fraction_theta_max 0.967
_diffrn_reflns_theta_full        25.01
_diffrn_measured_fraction_theta_full 0.967
_refine_diff_density_max         0.878
_refine_diff_density_min         -1.115
_refine_diff_density_rms         0.145
