####################################################################### 
# 
# This file contains crystal structure data downloaded from the 
# Cambridge Structural Database (CSD) hosted by the Cambridge 
# Crystallographic Data Centre (CCDC).
# 
# Full information about CCDC data access policies and citation 
# guidelines are available at http://www.ccdc.cam.ac.uk/access/V1 
# 
# Audit and citation data items may have been added by the CCDC. 
# Please retain this information to preserve the provenance of 
# this file and to allow appropriate attribution of the data. 
# 
#######################################################################

data_CPL-15_desolvated
_audit_block_doi                 10.5517/ccrnf1v
_database_code_depnum_ccdc_archive 'CCDC 704817'
loop_
_citation_id
_citation_doi
_citation_year
1 10.1002/chem.200802730 2009
_audit_update_record             
;
2008-10-08 deposited with the CCDC.	2024-07-10 downloaded from the CCDC.
;

_audit_creation_method           SHELXL-97
_chemical_name_systematic        
;
?
;
_chemical_name_common            ?
_chemical_melting_point          ?
_chemical_formula_moiety         ?
_chemical_formula_sum            'C32 H24 Cu3 N6 O12'
_chemical_formula_weight         875.19

loop_
_atom_type_symbol
_atom_type_description
_atom_type_scat_dispersion_real
_atom_type_scat_dispersion_imag
_atom_type_scat_source
C C 0.0033 0.0016 'International Tables Vol C Tables 4.2.6.8 and 6.1.1.4'
H H 0.0000 0.0000 'International Tables Vol C Tables 4.2.6.8 and 6.1.1.4'
Cu Cu 0.3201 1.2651 'International Tables Vol C Tables 4.2.6.8 and 6.1.1.4'
N N 0.0061 0.0033 'International Tables Vol C Tables 4.2.6.8 and 6.1.1.4'
O O 0.0106 0.0060 'International Tables Vol C Tables 4.2.6.8 and 6.1.1.4'

_symmetry_cell_setting           Monoclinic
_symmetry_space_group_name_H-M   C2/c

loop_
_symmetry_equiv_pos_as_xyz
'x, y, z'
'-x, y, -z+1/2'
'x+1/2, y+1/2, z'
'-x+1/2, y+1/2, -z+1/2'
'-x, -y, -z'
'x, -y, z-1/2'
'-x+1/2, -y+1/2, -z'
'x+1/2, -y+1/2, z-1/2'

_cell_length_a                   31.688(11)
_cell_length_b                   13.773(5)
_cell_length_c                   9.719(3)
_cell_angle_alpha                90.00
_cell_angle_beta                 96.090(6)
_cell_angle_gamma                90.00
_cell_volume                     4218(2)
_cell_formula_units_Z            4
_cell_measurement_temperature    393(2)
_cell_measurement_reflns_used    ?
_cell_measurement_theta_min      ?
_cell_measurement_theta_max      ?

_exptl_crystal_description       plate
_exptl_crystal_colour            blue
_exptl_crystal_size_max          0.20
_exptl_crystal_size_mid          0.10
_exptl_crystal_size_min          0.07
_exptl_crystal_density_meas      ?
_exptl_crystal_density_diffrn    1.378
_exptl_crystal_density_method    'not measured'
_exptl_crystal_F_000             1764
_exptl_absorpt_coefficient_mu    1.558
_exptl_absorpt_correction_type   empirical
_exptl_absorpt_correction_T_min  0.7458
_exptl_absorpt_correction_T_max  0.8988
_exptl_absorpt_process_details   ?

_exptl_special_details           
;
?
;

_diffrn_ambient_temperature      393(2)
_diffrn_radiation_wavelength     0.71070
_diffrn_radiation_type           MoK\a
_diffrn_radiation_source         'rotating-anode X-ray tube'
_diffrn_radiation_monochromator  graphite
_diffrn_measurement_device_type  'Rigaku Mercury CCD system'
_diffrn_measurement_method       ?
_diffrn_detector_area_resol_mean ?
_diffrn_standards_number         ?
_diffrn_standards_interval_count ?
_diffrn_standards_interval_time  ?
_diffrn_standards_decay_%        ?
_diffrn_reflns_number            15170
_diffrn_reflns_av_R_equivalents  0.0343
_diffrn_reflns_av_sigmaI/netI    0.0350
_diffrn_reflns_limit_h_min       -41
_diffrn_reflns_limit_h_max       37
_diffrn_reflns_limit_k_min       -17
_diffrn_reflns_limit_k_max       17
_diffrn_reflns_limit_l_min       -12
_diffrn_reflns_limit_l_max       12
_diffrn_reflns_theta_min         3.09
_diffrn_reflns_theta_max         27.48
_reflns_number_total             4828
_reflns_number_gt                3361
_reflns_threshold_expression     >2sigma(I)

_computing_data_collection       'Crystalclear (Rigaku Corporation, 1997-2002'
_computing_cell_refinement       'Crystalclear (Rigaku Corporation, 1997-2002'
_computing_data_reduction        'Crystalclear (Rigaku Corporation, 1997-2002'
_computing_structure_solution    'SHELXS-97 (Sheldrick, 1990)'
_computing_structure_refinement  'SHELXL-97 (Sheldrick, 1997)'
_computing_molecular_graphics    'Yadokari-XG (Wakita, 2005)'
_computing_publication_material  'Yadokari-XG (Wakita, 2005)'

_refine_special_details          
;
Refinement of F^2^ against ALL reflections. The weighted R-factor wR and
goodness of fit S are based on F^2^, conventional R-factors R are based
on F, with F set to zero for negative F^2^. The threshold expression of
F^2^ > 2sigma(F^2^) is used only for calculating R-factors(gt) etc. and is
not relevant to the choice of reflections for refinement. R-factors based
on F^2^ are statistically about twice as large as those based on F, and R-
factors based on ALL data will be even larger.
;

_refine_ls_structure_factor_coef Fsqd
_refine_ls_matrix_type           full
_refine_ls_weighting_scheme      calc
_refine_ls_weighting_details     
'calc w=1/[\s^2^(Fo^2^)+(0.0976P)^2^+6.3446P] where P=(Fo^2^+2Fc^2^)/3'
_atom_sites_solution_primary     direct
_atom_sites_solution_secondary   difmap
_atom_sites_solution_hydrogens   geom
_refine_ls_hydrogen_treatment    constr
_refine_ls_extinction_method     none
_refine_ls_extinction_coef       ?
_refine_ls_number_reflns         4828
_refine_ls_number_parameters     243
_refine_ls_number_restraints     0
_refine_ls_R_factor_all          0.0829
_refine_ls_R_factor_gt           0.0599
_refine_ls_wR_factor_ref         0.1943
_refine_ls_wR_factor_gt          0.1654
_refine_ls_goodness_of_fit_ref   1.065
_refine_ls_restrained_S_all      1.065
_refine_ls_shift/su_max          0.000
_refine_ls_shift/su_mean         0.000

loop_
_atom_site_label
_atom_site_type_symbol
_atom_site_fract_x
_atom_site_fract_y
_atom_site_fract_z
_atom_site_U_iso_or_equiv
_atom_site_adp_type
_atom_site_occupancy
_atom_site_symmetry_multiplicity
_atom_site_calc_flag
_atom_site_refinement_flags
_atom_site_disorder_assembly
_atom_site_disorder_group
Cu1 Cu 0.0000 0.5000 -0.5000 0.0980(4) Uani 1 2 d S . .
O1 O 0.00833(13) 0.3641(3) -0.4775(5) 0.1179(17) Uani 1 1 d . . .
O2 O 0.04628(12) 0.5273(3) -0.3667(5) 0.1046(14) Uani 1 1 d . . .
C1 C 0.1047(2) 0.5176(4) -0.2024(8) 0.107(2) Uani 1 1 d . . .
H1 H 0.1108 0.5800 -0.2397 0.160 Uiso 1 1 calc R . .
H2 H 0.1298 0.4782 -0.1957 0.160 Uiso 1 1 calc R . .
H3 H 0.0955 0.5257 -0.1122 0.160 Uiso 1 1 calc R . .
C2 C 0.07060(15) 0.4695(4) -0.2949(6) 0.0867(16) Uani 1 1 d . . .
C3 C 0.06638(15) 0.3667(4) -0.3033(6) 0.0857(16) Uani 1 1 d . . .
C4 C 0.0361(2) 0.3222(5) -0.3950(8) 0.109(2) Uani 1 1 d . . .
C5 C 0.0331(3) 0.2128(6) -0.4067(11) 0.175(5) Uani 1 1 d . . .
H4 H 0.0058 0.1951 -0.4519 0.263 Uiso 1 1 calc R . .
H5 H 0.0368 0.1846 -0.3159 0.263 Uiso 1 1 calc R . .
H6 H 0.0549 0.1893 -0.4597 0.263 Uiso 1 1 calc R . .
C6 C 0.09765(15) 0.3073(4) -0.2125(6) 0.0731(13) Uani 1 1 d . . .
C7 C 0.12922(16) 0.2525(4) -0.2651(5) 0.0843(15) Uani 1 1 d . . .
H7 H 0.1295 0.2462 -0.3603 0.101 Uiso 1 1 calc R . .
C8 C 0.15991(16) 0.2077(4) -0.1764(5) 0.0746(13) Uani 1 1 d . . .
H8 H 0.1807 0.1714 -0.2139 0.090 Uiso 1 1 calc R . .
C9 C 0.09719(16) 0.3052(4) -0.0717(6) 0.0755(13) Uani 1 1 d . . .
H9 H 0.0750 0.3345 -0.0320 0.091 Uiso 1 1 calc R . .
C10 C 0.12939(15) 0.2599(3) 0.0120(5) 0.0693(11) Uani 1 1 d . . .
H10 H 0.1289 0.2616 0.1075 0.083 Uiso 1 1 calc R . .
N1 N 0.16122(11) 0.2138(2) -0.0408(4) 0.0593(9) Uani 1 1 d . . .
Cu2 Cu 0.213676(16) 0.17052(3) 0.07626(5) 0.0560(2) Uani 1 1 d . . .
N2 N 0.25052(10) 0.1130(2) 0.2356(3) 0.0491(7) Uani 1 1 d . . .
N3 N 0.30240(12) 0.0056(2) 0.4248(3) 0.0579(8) Uani 1 1 d . . .
C11 C 0.27327(14) 0.1568(3) 0.3405(4) 0.0588(10) Uani 1 1 d . . .
H11 H 0.2719 0.2238 0.3507 0.071 Uiso 1 1 calc R . .
C12 C 0.29909(15) 0.1017(3) 0.4344(4) 0.0612(10) Uani 1 1 d . . .
H12 H 0.3148 0.1332 0.5074 0.073 Uiso 1 1 calc R . .
C13 C 0.25146(12) 0.0155(2) 0.2261(4) 0.0451(8) Uani 1 1 d . . .
C14 C 0.27789(12) -0.0371(2) 0.3197(4) 0.0485(8) Uani 1 1 d . . .
O3 O 0.20159(10) 0.03624(18) 0.0322(3) 0.0648(8) Uani 1 1 d . . .
C15 C 0.22098(12) -0.0266(2) 0.1117(4) 0.0500(8) Uani 1 1 d . . .
O4 O 0.21701(10) -0.11473(18) 0.1008(3) 0.0639(8) Uani 1 1 d . . .
O5 O 0.30892(11) -0.1803(2) 0.2413(3) 0.0669(8) Uani 1 1 d . . .
C16 C 0.28403(13) -0.1465(2) 0.3152(4) 0.0508(9) Uani 1 1 d . . .
O6 O 0.26428(9) -0.19574(17) 0.4007(3) 0.0535(6) Uani 1 1 d . . .

loop_
_atom_site_aniso_label
_atom_site_aniso_U_11
_atom_site_aniso_U_22
_atom_site_aniso_U_33
_atom_site_aniso_U_23
_atom_site_aniso_U_13
_atom_site_aniso_U_12
Cu1 0.0593(5) 0.0878(7) 0.1375(9) 0.0502(6) -0.0331(5) -0.0021(4)
O1 0.084(3) 0.092(3) 0.161(4) 0.042(3) -0.062(3) -0.001(2)
O2 0.076(2) 0.080(2) 0.147(3) 0.040(2) -0.041(2) 0.0033(19)
C1 0.091(4) 0.075(4) 0.143(5) 0.026(4) -0.039(4) -0.005(3)
C2 0.060(3) 0.080(3) 0.112(4) 0.039(3) -0.025(3) -0.002(2)
C3 0.060(3) 0.077(3) 0.112(4) 0.029(3) -0.030(3) 0.003(2)
C4 0.077(4) 0.085(4) 0.150(6) 0.043(4) -0.048(4) -0.005(3)
C5 0.154(7) 0.084(5) 0.258(11) 0.039(6) -0.120(7) -0.005(5)
C6 0.063(3) 0.061(3) 0.089(3) 0.021(2) -0.021(2) 0.006(2)
C7 0.077(3) 0.101(4) 0.070(3) 0.015(3) -0.013(2) 0.009(3)
C8 0.068(3) 0.075(3) 0.075(3) -0.002(2) -0.014(2) 0.018(2)
C9 0.063(3) 0.066(3) 0.093(4) 0.000(3) -0.010(2) 0.014(2)
C10 0.073(3) 0.059(3) 0.071(3) -0.002(2) -0.014(2) 0.007(2)
N1 0.0603(19) 0.0343(16) 0.077(2) 0.0026(15) -0.0203(16) 0.0041(14)
Cu2 0.0669(4) 0.0236(3) 0.0704(4) 0.00112(17) -0.0259(3) 0.00179(17)
N2 0.0635(18) 0.0245(13) 0.0559(16) 0.0009(12) -0.0101(14) 0.0002(12)
N3 0.079(2) 0.0340(15) 0.0551(18) 0.0019(13) -0.0203(16) -0.0007(15)
C11 0.082(3) 0.0275(16) 0.062(2) -0.0016(15) -0.017(2) -0.0031(17)
C12 0.086(3) 0.0331(18) 0.059(2) -0.0023(16) -0.016(2) -0.0065(19)
C13 0.055(2) 0.0258(15) 0.0522(19) 0.0017(13) -0.0047(15) -0.0018(13)
C14 0.059(2) 0.0272(15) 0.056(2) 0.0011(14) -0.0081(16) -0.0026(14)
O3 0.0784(19) 0.0299(13) 0.0766(18) 0.0049(12) -0.0361(15) -0.0028(12)
C15 0.057(2) 0.0261(16) 0.064(2) 0.0022(15) -0.0071(17) 0.0009(14)
O4 0.084(2) 0.0238(13) 0.0772(18) 0.0010(11) -0.0208(15) -0.0046(11)
O5 0.086(2) 0.0463(16) 0.0664(18) 0.0040(13) -0.0020(16) 0.0109(14)
C16 0.063(2) 0.0303(16) 0.055(2) 0.0031(15) -0.0151(17) -0.0004(16)
O6 0.0713(17) 0.0250(11) 0.0607(15) 0.0058(10) -0.0097(13) -0.0012(11)

_geom_special_details            
;
All esds (except the esd in the dihedral angle between two l.s. planes)
are estimated using the full covariance matrix. The cell esds are taken
into account individually in the estimation of esds in distances, angles
and torsion angles; correlations between esds in cell parameters are only
used when they are defined by crystal symmetry. An approximate (isotropic)
treatment of cell esds is used for estimating esds involving l.s. planes.
;

loop_
_geom_bond_atom_site_label_1
_geom_bond_atom_site_label_2
_geom_bond_distance
_geom_bond_site_symmetry_2
_geom_bond_publ_flag
Cu1 O2 1.889(4) . ?
Cu1 O2 1.889(4) 5_564 ?
Cu1 O1 1.900(4) 5_564 ?
Cu1 O1 1.900(4) . ?
O1 C4 1.265(6) . ?
O2 C2 1.264(5) . ?
C1 C2 1.485(8) . ?
C2 C3 1.424(8) . ?
C3 C4 1.382(8) . ?
C3 C6 1.498(6) . ?
C4 C5 1.513(10) . ?
C6 C9 1.370(7) . ?
C6 C7 1.393(7) . ?
C7 C8 1.376(6) . ?
C8 N1 1.317(6) . ?
C9 C10 1.384(6) . ?
C10 N1 1.339(6) . ?
N1 Cu2 2.003(3) . ?
Cu2 O3 1.928(3) . ?
Cu2 O6 1.974(2) 4 ?
Cu2 N2 2.001(3) . ?
N2 C11 1.330(5) . ?
N2 C13 1.347(4) . ?
N3 C12 1.331(5) . ?
N3 C14 1.351(5) . ?
C11 C12 1.386(6) . ?
C13 C14 1.375(5) . ?
C13 C15 1.509(5) . ?
C14 C16 1.521(5) . ?
O3 C15 1.274(4) . ?
C15 O4 1.223(4) . ?
O5 C16 1.214(5) . ?
C16 O6 1.285(5) . ?
O6 Cu2 1.974(2) 4_545 ?

loop_
_geom_angle_atom_site_label_1
_geom_angle_atom_site_label_2
_geom_angle_atom_site_label_3
_geom_angle
_geom_angle_site_symmetry_1
_geom_angle_site_symmetry_3
_geom_angle_publ_flag
O2 Cu1 O2 179.996(1) . 5_564 ?
O2 Cu1 O1 88.35(17) . 5_564 ?
O2 Cu1 O1 91.65(17) 5_564 5_564 ?
O2 Cu1 O1 91.65(17) . . ?
O2 Cu1 O1 88.35(17) 5_564 . ?
O1 Cu1 O1 179.999(1) 5_564 . ?
C4 O1 Cu1 126.9(4) . . ?
C2 O2 Cu1 129.5(4) . . ?
O2 C2 C3 123.1(5) . . ?
O2 C2 C1 114.5(5) . . ?
C3 C2 C1 122.4(4) . . ?
C4 C3 C2 122.2(4) . . ?
C4 C3 C6 120.5(5) . . ?
C2 C3 C6 117.2(5) . . ?
O1 C4 C3 126.5(6) . . ?
O1 C4 C5 111.9(6) . . ?
C3 C4 C5 121.6(5) . . ?
C9 C6 C7 116.1(4) . . ?
C9 C6 C3 121.5(5) . . ?
C7 C6 C3 122.4(5) . . ?
C8 C7 C6 120.0(5) . . ?
N1 C8 C7 122.9(5) . . ?
C6 C9 C10 120.8(5) . . ?
N1 C10 C9 121.8(5) . . ?
C8 N1 C10 118.0(4) . . ?
C8 N1 Cu2 119.0(3) . . ?
C10 N1 Cu2 122.5(3) . . ?
O3 Cu2 O6 168.50(13) . 4 ?
O3 Cu2 N2 82.98(11) . . ?
O6 Cu2 N2 96.39(11) 4 . ?
O3 Cu2 N1 91.49(12) . . ?
O6 Cu2 N1 92.82(12) 4 . ?
N2 Cu2 N1 159.75(15) . . ?
C11 N2 C13 119.4(3) . . ?
C11 N2 Cu2 129.6(2) . . ?
C13 N2 Cu2 111.0(2) . . ?
C12 N3 C14 116.2(3) . . ?
N2 C11 C12 119.4(3) . . ?
N3 C12 C11 122.9(4) . . ?
N2 C13 C14 119.7(3) . . ?
N2 C13 C15 114.6(3) . . ?
C14 C13 C15 125.6(3) . . ?
N3 C14 C13 122.2(3) . . ?
N3 C14 C16 112.8(3) . . ?
C13 C14 C16 125.0(3) . . ?
C15 O3 Cu2 116.5(2) . . ?
O4 C15 O3 125.6(4) . . ?
O4 C15 C13 119.8(3) . . ?
O3 C15 C13 114.6(3) . . ?
O5 C16 O6 124.9(3) . . ?
O5 C16 C14 119.3(4) . . ?
O6 C16 C14 115.6(4) . . ?
C16 O6 Cu2 112.0(3) . 4_545 ?

_diffrn_measured_fraction_theta_max 0.997
_diffrn_reflns_theta_full        27.48
_diffrn_measured_fraction_theta_full 0.997
_refine_diff_density_max         0.893
_refine_diff_density_min         -0.604
_refine_diff_density_rms         0.084

