####################################################################### 
# 
# This file contains crystal structure data downloaded from the 
# Cambridge Structural Database (CSD) hosted by the Cambridge 
# Crystallographic Data Centre (CCDC).
# 
# Full information about CCDC data access policies and citation 
# guidelines are available at http://www.ccdc.cam.ac.uk/access/V1 
# 
# Audit and citation data items may have been added by the CCDC. 
# Please retain this information to preserve the provenance of 
# this file and to allow appropriate attribution of the data. 
# 
#######################################################################

data_a2
_audit_block_doi                 10.5517/ccrlvgm
_database_code_depnum_ccdc_archive 'CCDC 703311'
loop_
_citation_id
_citation_doi
_citation_year
1 10.1021/cg801120y 2009
_audit_update_record             
;
2008-09-23 deposited with the CCDC.	2024-07-10 downloaded from the CCDC.
;

_audit_creation_method           SHELXL-97
_chemical_name_systematic        
;
?
;
_chemical_name_common            ?
_chemical_melting_point          ?
_chemical_formula_moiety         ?
_chemical_formula_sum            'C35 H42 Co2 N2 O12 S'
_chemical_formula_weight         832.63

loop_
_atom_type_symbol
_atom_type_description
_atom_type_scat_dispersion_real
_atom_type_scat_dispersion_imag
_atom_type_scat_source
C C 0.0033 0.0016 'International Tables Vol C Tables 4.2.6.8 and 6.1.1.4'
H H 0.0000 0.0000 'International Tables Vol C Tables 4.2.6.8 and 6.1.1.4'
N N 0.0061 0.0033 'International Tables Vol C Tables 4.2.6.8 and 6.1.1.4'
O O 0.0106 0.0060 'International Tables Vol C Tables 4.2.6.8 and 6.1.1.4'
S S 0.1246 0.1234 'International Tables Vol C Tables 4.2.6.8 and 6.1.1.4'
Co Co 0.3494 0.9721 'International Tables Vol C Tables 4.2.6.8 and 6.1.1.4'

_symmetry_cell_setting           Triclinic
_symmetry_space_group_name_H-M   P-1

loop_
_symmetry_equiv_pos_as_xyz
'x, y, z'
'-x, -y, -z'

_cell_length_a                   9.5384(5)
_cell_length_b                   12.1759(6)
_cell_length_c                   19.3130(13)
_cell_angle_alpha                101.1520(10)
_cell_angle_beta                 100.3510(10)
_cell_angle_gamma                105.3040(10)
_cell_volume                     2058.5(2)
_cell_formula_units_Z            2
_cell_measurement_temperature    291(2)
_cell_measurement_reflns_used    6556
_cell_measurement_theta_min      2.28
_cell_measurement_theta_max      27.76

_exptl_crystal_description       ?
_exptl_crystal_colour            ?
_exptl_crystal_size_max          0.31
_exptl_crystal_size_mid          0.20
_exptl_crystal_size_min          0.19
_exptl_crystal_density_meas      ?
_exptl_crystal_density_diffrn    1.343
_exptl_crystal_density_method    'not measured'
_exptl_crystal_F_000             864
_exptl_absorpt_coefficient_mu    0.914
_exptl_absorpt_correction_type   MULTI-SCAN
_exptl_absorpt_correction_T_min  0.7647
_exptl_absorpt_correction_T_max  0.8455
_exptl_absorpt_process_details   SADABS

_exptl_special_details           
;
?
;

_diffrn_ambient_temperature      291(2)
_diffrn_radiation_wavelength     0.71073
_diffrn_radiation_type           MoK\a
_diffrn_radiation_source         'fine-focus sealed tube'
_diffrn_radiation_monochromator  graphite
_diffrn_measurement_device_type  'CCD area detector'
_diffrn_measurement_method       'phi and omega scans'
_diffrn_detector_area_resol_mean ?
_diffrn_standards_number         ?
_diffrn_standards_interval_count ?
_diffrn_standards_interval_time  ?
_diffrn_standards_decay_%        ?
_diffrn_reflns_number            15934
_diffrn_reflns_av_R_equivalents  0.0183
_diffrn_reflns_av_sigmaI/netI    0.0282
_diffrn_reflns_limit_h_min       -11
_diffrn_reflns_limit_h_max       11
_diffrn_reflns_limit_k_min       -14
_diffrn_reflns_limit_k_max       14
_diffrn_reflns_limit_l_min       -23
_diffrn_reflns_limit_l_max       23
_diffrn_reflns_theta_min         2.28
_diffrn_reflns_theta_max         25.50
_reflns_number_total             7607
_reflns_number_gt                6447
_reflns_threshold_expression     >2sigma(I)

_computing_data_collection       'Bruker SMART'
_computing_cell_refinement       'Bruker SMART'
_computing_data_reduction        'Bruker SAINT'
_computing_structure_solution    'SHELXS-97 (Sheldrick, 1990)'
_computing_structure_refinement  'SHELXL-97 (Sheldrick, 1997)'
_computing_molecular_graphics    'Bruker SHELXTL'
_computing_publication_material  'Bruker SHELXTL'

_refine_special_details          
;
Refinement of F^2^ against ALL reflections. The weighted R-factor wR and
goodness of fit S are based on F^2^, conventional R-factors R are based
on F, with F set to zero for negative F^2^. The threshold expression of
F^2^ > 2sigma(F^2^) is used only for calculating R-factors(gt) etc. and is
not relevant to the choice of reflections for refinement. R-factors based
on F^2^ are statistically about twice as large as those based on F, and R-
factors based on ALL data will be even larger.
;

_refine_ls_structure_factor_coef Fsqd
_refine_ls_matrix_type           full
_refine_ls_weighting_scheme      calc
_refine_ls_weighting_details     
'calc w=1/[\s^2^(Fo^2^)+(0.0705P)^2^+1.4886P] where P=(Fo^2^+2Fc^2^)/3'
_atom_sites_solution_primary     direct
_atom_sites_solution_secondary   difmap
_atom_sites_solution_hydrogens   geom
_refine_ls_hydrogen_treatment    CONSTR
_refine_ls_extinction_method     none
_refine_ls_extinction_coef       ?
_refine_ls_number_reflns         7607
_refine_ls_number_parameters     492
_refine_ls_number_restraints     142
_refine_ls_R_factor_all          0.0487
_refine_ls_R_factor_gt           0.0406
_refine_ls_wR_factor_ref         0.1237
_refine_ls_wR_factor_gt          0.1175
_refine_ls_goodness_of_fit_ref   1.053
_refine_ls_restrained_S_all      1.065
_refine_ls_shift/su_max          0.001
_refine_ls_shift/su_mean         0.000

loop_
_atom_site_label
_atom_site_type_symbol
_atom_site_fract_x
_atom_site_fract_y
_atom_site_fract_z
_atom_site_U_iso_or_equiv
_atom_site_adp_type
_atom_site_occupancy
_atom_site_symmetry_multiplicity
_atom_site_calc_flag
_atom_site_refinement_flags
_atom_site_disorder_assembly
_atom_site_disorder_group
C10 C 0.7986(6) 0.7034(5) 0.7027(3) 0.0698(13) Uani 0.792(4) 1 d PDU A 1
H10A H 0.8471 0.7425 0.7528 0.105 Uiso 0.792(4) 1 calc PR A 1
H10B H 0.8705 0.6824 0.6781 0.105 Uiso 0.792(4) 1 calc PR A 1
H10C H 0.7198 0.6336 0.6998 0.105 Uiso 0.792(4) 1 calc PR A 1
C11 C 0.8639(6) 0.8971(4) 0.6744(3) 0.0714(14) Uani 0.792(4) 1 d PDU A 1
H11A H 0.8267 0.9544 0.6558 0.107 Uiso 0.792(4) 1 calc PR A 1
H11B H 0.9327 0.8763 0.6476 0.107 Uiso 0.792(4) 1 calc PR A 1
H11C H 0.9145 0.9297 0.7249 0.107 Uiso 0.792(4) 1 calc PR A 1
C12 C 0.6206(5) 0.8190(5) 0.7051(3) 0.0724(15) Uani 0.792(4) 1 d PDU A 1
H12A H 0.6700 0.8587 0.7550 0.109 Uiso 0.792(4) 1 calc PR A 1
H12B H 0.5427 0.7489 0.7029 0.109 Uiso 0.792(4) 1 calc PR A 1
H12C H 0.5778 0.8701 0.6823 0.109 Uiso 0.792(4) 1 calc PR A 1
C10' C 0.6503(17) 0.7078(14) 0.7097(9) 0.0698(13) Uani 0.208(4) 1 d PDU A 2
H10D H 0.6957 0.7403 0.7608 0.105 Uiso 0.208(4) 1 calc PR A 2
H10E H 0.6577 0.6300 0.6953 0.105 Uiso 0.208(4) 1 calc PR A 2
H10F H 0.5467 0.7042 0.7001 0.105 Uiso 0.208(4) 1 calc PR A 2
C11' C 0.8977(10) 0.8166(15) 0.6945(10) 0.0714(14) Uani 0.208(4) 1 d PDU A 2
H11D H 0.9265 0.8626 0.7441 0.107 Uiso 0.208(4) 1 calc PR A 2
H11E H 0.9487 0.8610 0.6654 0.107 Uiso 0.208(4) 1 calc PR A 2
H11F H 0.9242 0.7455 0.6923 0.107 Uiso 0.208(4) 1 calc PR A 2
C12' C 0.6858(18) 0.8999(11) 0.6794(10) 0.0724(15) Uani 0.208(4) 1 d PDU A 2
H12D H 0.5804 0.8809 0.6586 0.109 Uiso 0.208(4) 1 calc PR A 2
H12E H 0.7409 0.9551 0.6570 0.109 Uiso 0.208(4) 1 calc PR A 2
H12F H 0.7073 0.9340 0.7308 0.109 Uiso 0.208(4) 1 calc PR A 2
Co1 Co 1.00406(4) 0.57730(3) 0.353389(19) 0.02397(12) Uani 1 1 d . . .
Co2 Co 1.0000 0.5000 0.5000 0.02154(13) Uani 1 2 d S . .
Co3 Co 0.5000 0.0000 0.0000 0.03224(15) Uani 1 2 d S . .
S1 S 1.13855(11) 0.87699(11) 0.10920(6) 0.0663(3) Uani 1 1 d . . .
O1 O 0.93775(19) 0.63118(16) 0.44838(10) 0.0280(4) Uani 1 1 d . . .
O2 O 0.7602(2) 0.5980(2) 0.35074(11) 0.0382(5) Uani 1 1 d . . .
O3 O 0.2259(2) 0.59804(18) 0.38929(10) 0.0309(4) Uani 1 1 d . . .
O4 O 0.21250(19) 0.57840(17) 0.50110(10) 0.0297(4) Uani 1 1 d . . .
O5 O 0.8777(2) 0.41396(17) 0.27966(11) 0.0350(5) Uani 1 1 d . . .
O6 O 0.9574(2) 0.40996(17) 0.39196(10) 0.0316(4) Uani 1 1 d . . .
O7 O 0.5228(2) 0.04354(18) 0.10865(10) 0.0387(5) Uani 1 1 d . . .
O8 O 0.4924(3) -0.12700(19) 0.13928(12) 0.0470(6) Uani 1 1 d . . .
O9 O 0.6080(3) 0.1784(2) 0.00621(13) 0.0528(6) Uani 1 1 d . . .
H1W H 0.5984 0.1886 -0.0349 0.079 Uiso 1 1 d R . .
H2W H 0.6674 0.2357 0.0377 0.079 Uiso 1 1 d R . .
O10 O 0.8149(10) 0.3517(5) 0.1212(3) 0.251(5) Uani 1 1 d D . .
H10 H 0.8212 0.3631 0.1650 0.376 Uiso 1 1 calc R . .
O11 O 0.5593(12) 0.6604(10) 0.1433(8) 0.370(8) Uani 1 1 d . . .
H3W H 0.5385 0.7234 0.1407 0.555 Uiso 1 1 d R . .
H4W H 0.5385 0.6088 0.1670 0.555 Uiso 1 1 d R . .
O12 O 0.5042(14) 0.5366(19) 0.2048(9) 0.549(17) Uani 1 1 d . . .
H5W H 0.5368 0.4901 0.1746 0.823 Uiso 1 1 d R . .
H6W H 0.5725 0.5514 0.2439 0.823 Uiso 1 1 d R . .
N1 N 1.0430(3) 0.6883(2) 0.28540(13) 0.0322(5) Uani 1 1 d . . .
N2 N 0.7143(3) 0.9643(2) 0.02276(14) 0.0391(6) Uani 1 1 d . . .
C1 C 0.6983(3) 0.6463(2) 0.46540(15) 0.0244(5) Uani 1 1 d . . .
C2 C 0.5445(3) 0.6163(2) 0.43517(15) 0.0250(5) Uani 1 1 d . . .
H2 H 0.5052 0.5836 0.3855 0.030 Uiso 1 1 calc R . .
C3 C 0.4515(3) 0.6362(2) 0.48044(14) 0.0242(5) Uani 1 1 d . . .
C4 C 0.5126(3) 0.6897(2) 0.55453(15) 0.0296(6) Uani 1 1 d . . .
H4 H 0.4487 0.7020 0.5843 0.036 Uiso 1 1 calc R . .
C5 C 0.6663(3) 0.7253(3) 0.58521(15) 0.0312(6) Uani 1 1 d . A .
C6 C 0.7575(3) 0.6995(2) 0.53921(15) 0.0296(6) Uani 1 1 d . . .
H6 H 0.8600 0.7185 0.5585 0.036 Uiso 1 1 calc R . .
C7 C 0.8009(3) 0.6230(2) 0.41777(15) 0.0261(6) Uani 1 1 d . . .
C8 C 0.2840(3) 0.6006(2) 0.45416(14) 0.0244(5) Uani 1 1 d . . .
C9 C 0.7321(3) 0.7867(3) 0.66610(17) 0.0437(8) Uani 1 1 d DU . .
C13 C 0.7868(3) 0.2321(2) 0.31275(14) 0.0260(5) Uani 1 1 d . . .
C14 C 0.7057(3) 0.1696(2) 0.24271(15) 0.0285(6) Uani 1 1 d . . .
H14 H 0.7020 0.2071 0.2051 0.034 Uiso 1 1 calc R . .
C15 C 0.6301(3) 0.0503(2) 0.22933(15) 0.0288(6) Uani 1 1 d . . .
C16 C 0.6368(3) -0.0049(2) 0.28592(15) 0.0310(6) Uani 1 1 d . . .
H16 H 0.5894 -0.0854 0.2761 0.037 Uiso 1 1 calc R . .
C17 C 0.7133(3) 0.0579(2) 0.35733(15) 0.0285(6) Uani 1 1 d . . .
C18 C 0.7876(3) 0.1766(2) 0.36954(15) 0.0273(6) Uani 1 1 d . . .
H18 H 0.8392 0.2203 0.4166 0.033 Uiso 1 1 calc R . .
C19 C 0.8765(3) 0.3580(2) 0.32851(15) 0.0264(6) Uani 1 1 d . . .
C20 C 0.5412(3) -0.0182(3) 0.15331(15) 0.0327(6) Uani 1 1 d . . .
C21 C 0.7174(4) -0.0057(3) 0.41871(17) 0.0379(7) Uani 1 1 d . . .
C22 C 0.8225(5) -0.0800(4) 0.4106(3) 0.0732(13) Uani 1 1 d . . .
H22A H 0.7844 -0.1381 0.3648 0.110 Uiso 1 1 calc R . .
H22B H 0.8289 -0.1184 0.4495 0.110 Uiso 1 1 calc R . .
H22C H 0.9203 -0.0302 0.4124 0.110 Uiso 1 1 calc R . .
C23 C 0.5614(5) -0.0873(4) 0.4136(2) 0.0693(12) Uani 1 1 d . . .
H23A H 0.4916 -0.0431 0.4134 0.104 Uiso 1 1 calc R . .
H23B H 0.5644 -0.1209 0.4547 0.104 Uiso 1 1 calc R . .
H23C H 0.5302 -0.1491 0.3696 0.104 Uiso 1 1 calc R . .
C24 C 0.7733(5) 0.0819(4) 0.49444(19) 0.0664(12) Uani 1 1 d . . .
H24A H 0.8742 0.1301 0.5001 0.100 Uiso 1 1 calc R . .
H24B H 0.7709 0.0392 0.5313 0.100 Uiso 1 1 calc R . .
H24C H 0.7097 0.1309 0.4991 0.100 Uiso 1 1 calc R . .
C25 C 0.9354(4) 0.7203(3) 0.24800(19) 0.0459(8) Uani 1 1 d . . .
H25 H 0.8421 0.7020 0.2587 0.055 Uiso 1 1 calc R . .
C26 C 0.9549(4) 0.7789(4) 0.1944(2) 0.0509(9) Uani 1 1 d . . .
H26 H 0.8766 0.8000 0.1702 0.061 Uiso 1 1 calc R . .
C27 C 1.0923(3) 0.8058(3) 0.17702(18) 0.0410(7) Uani 1 1 d . . .
C28 C 1.2055(4) 0.7752(3) 0.2165(2) 0.0514(9) Uani 1 1 d . . .
H28 H 1.3001 0.7935 0.2071 0.062 Uiso 1 1 calc R . .
C29 C 1.1777(3) 0.7182(3) 0.26916(19) 0.0457(8) Uani 1 1 d . . .
H29 H 1.2556 0.6990 0.2953 0.055 Uiso 1 1 calc R . .
C30 C 0.9714(4) 0.9090(3) 0.07549(19) 0.0468(8) Uani 1 1 d . . .
C31 C 0.8549(5) 0.8288(4) 0.0215(3) 0.0666(11) Uani 1 1 d . . .
H31 H 0.8604 0.7546 0.0017 0.080 Uiso 1 1 calc R . .
C32 C 0.7294(4) 0.8606(3) -0.0029(2) 0.0590(10) Uani 1 1 d . . .
H32 H 0.6513 0.8058 -0.0395 0.071 Uiso 1 1 calc R . .
C33 C 0.8299(4) 1.0418(3) 0.0734(2) 0.0521(9) Uani 1 1 d . . .
H33 H 0.8231 1.1162 0.0917 0.062 Uiso 1 1 calc R . .
C34 C 0.9593(4) 1.0177(4) 0.1003(2) 0.0550(9) Uani 1 1 d . . .
H34 H 1.0378 1.0753 0.1351 0.066 Uiso 1 1 calc R . .
C35 C 0.9553(16) 0.4275(11) 0.1083(7) 0.356(13) Uani 1 1 d D . .
H35A H 0.9749 0.5078 0.1343 0.534 Uiso 1 1 calc R . .
H35B H 0.9424 0.4225 0.0572 0.534 Uiso 1 1 calc R . .
H35C H 1.0381 0.4007 0.1251 0.534 Uiso 1 1 calc R . .

loop_
_atom_site_aniso_label
_atom_site_aniso_U_11
_atom_site_aniso_U_22
_atom_site_aniso_U_33
_atom_site_aniso_U_23
_atom_site_aniso_U_13
_atom_site_aniso_U_12
C10 0.079(3) 0.090(3) 0.040(2) 0.011(2) 0.004(2) 0.036(2)
C11 0.068(3) 0.070(3) 0.051(3) -0.006(2) 0.003(2) 0.005(2)
C12 0.053(3) 0.110(4) 0.044(2) -0.016(2) 0.0080(19) 0.036(3)
C10' 0.079(3) 0.090(3) 0.040(2) 0.011(2) 0.004(2) 0.036(2)
C11' 0.068(3) 0.070(3) 0.051(3) -0.006(2) 0.003(2) 0.005(2)
C12' 0.053(3) 0.110(4) 0.044(2) -0.016(2) 0.0080(19) 0.036(3)
Co1 0.02006(19) 0.0291(2) 0.0245(2) 0.01090(15) 0.00674(14) 0.00669(14)
Co2 0.0151(2) 0.0288(3) 0.0205(3) 0.0079(2) 0.00530(18) 0.00466(19)
Co3 0.0338(3) 0.0341(3) 0.0231(3) 0.0055(2) -0.0006(2) 0.0072(2)
S1 0.0451(5) 0.1130(9) 0.0791(7) 0.0757(7) 0.0329(5) 0.0392(6)
O1 0.0180(9) 0.0344(10) 0.0367(11) 0.0139(8) 0.0104(8) 0.0107(8)
O2 0.0322(11) 0.0577(14) 0.0303(11) 0.0138(10) 0.0131(9) 0.0174(10)
O3 0.0207(9) 0.0465(12) 0.0297(10) 0.0179(9) 0.0071(8) 0.0108(8)
O4 0.0173(9) 0.0417(11) 0.0300(10) 0.0130(8) 0.0086(8) 0.0045(8)
O5 0.0385(11) 0.0317(10) 0.0330(11) 0.0133(9) 0.0062(9) 0.0058(9)
O6 0.0300(10) 0.0333(10) 0.0261(10) 0.0034(8) 0.0072(8) 0.0035(8)
O7 0.0466(12) 0.0388(11) 0.0243(10) 0.0058(9) 0.0021(9) 0.0084(10)
O8 0.0581(14) 0.0360(12) 0.0314(12) 0.0045(9) -0.0008(10) -0.0005(10)
O9 0.0635(16) 0.0409(13) 0.0382(13) 0.0086(10) -0.0009(11) 0.0000(11)
O10 0.388(11) 0.147(5) 0.083(3) -0.010(3) 0.052(5) -0.107(6)
O11 0.280(12) 0.326(13) 0.60(2) 0.171(14) 0.070(13) 0.230(11)
O12 0.269(15) 0.82(4) 0.48(2) 0.38(3) 0.044(14) -0.068(19)
N1 0.0264(12) 0.0371(13) 0.0364(13) 0.0180(11) 0.0085(10) 0.0086(10)
N2 0.0388(14) 0.0446(15) 0.0313(13) 0.0100(11) 0.0029(11) 0.0123(12)
C1 0.0186(12) 0.0259(13) 0.0338(14) 0.0126(11) 0.0099(11) 0.0093(10)
C2 0.0209(12) 0.0271(13) 0.0279(14) 0.0095(11) 0.0058(10) 0.0071(10)
C3 0.0174(12) 0.0277(13) 0.0315(14) 0.0135(11) 0.0080(10) 0.0080(10)
C4 0.0235(13) 0.0364(15) 0.0331(15) 0.0103(12) 0.0119(11) 0.0118(11)
C5 0.0251(13) 0.0375(15) 0.0306(15) 0.0058(12) 0.0060(11) 0.0117(12)
C6 0.0183(12) 0.0352(15) 0.0355(15) 0.0079(12) 0.0048(11) 0.0105(11)
C7 0.0234(13) 0.0257(13) 0.0337(15) 0.0135(11) 0.0113(11) 0.0082(10)
C8 0.0193(12) 0.0247(13) 0.0317(15) 0.0105(11) 0.0079(11) 0.0076(10)
C9 0.0330(15) 0.061(2) 0.0334(16) -0.0001(14) 0.0045(12) 0.0192(14)
C13 0.0242(13) 0.0272(13) 0.0266(14) 0.0062(11) 0.0072(11) 0.0076(11)
C14 0.0287(14) 0.0340(15) 0.0250(14) 0.0118(11) 0.0076(11) 0.0098(11)
C15 0.0268(13) 0.0307(14) 0.0258(14) 0.0051(11) 0.0044(11) 0.0066(11)
C16 0.0316(14) 0.0266(14) 0.0315(15) 0.0062(11) 0.0066(12) 0.0051(11)
C17 0.0282(14) 0.0319(14) 0.0279(14) 0.0118(11) 0.0076(11) 0.0096(11)
C18 0.0260(13) 0.0309(14) 0.0244(13) 0.0057(11) 0.0044(11) 0.0097(11)
C19 0.0233(13) 0.0292(14) 0.0291(14) 0.0079(11) 0.0095(11) 0.0094(11)
C20 0.0315(14) 0.0367(16) 0.0273(15) 0.0055(12) 0.0069(12) 0.0084(12)
C21 0.0439(17) 0.0360(16) 0.0345(16) 0.0185(13) 0.0066(13) 0.0086(13)
C22 0.088(3) 0.080(3) 0.080(3) 0.049(3) 0.025(2) 0.048(3)
C23 0.064(3) 0.075(3) 0.062(3) 0.041(2) 0.013(2) -0.005(2)
C24 0.099(3) 0.058(2) 0.0356(19) 0.0227(17) 0.009(2) 0.010(2)
C25 0.0355(17) 0.065(2) 0.055(2) 0.0391(18) 0.0211(15) 0.0228(16)
C26 0.0343(17) 0.078(3) 0.061(2) 0.047(2) 0.0179(16) 0.0268(17)
C27 0.0360(16) 0.0530(19) 0.0450(18) 0.0299(16) 0.0152(14) 0.0158(14)
C28 0.0286(16) 0.076(2) 0.065(2) 0.046(2) 0.0187(15) 0.0162(16)
C29 0.0252(15) 0.066(2) 0.056(2) 0.0403(18) 0.0095(14) 0.0122(14)
C30 0.0398(18) 0.072(2) 0.0457(19) 0.0390(18) 0.0163(15) 0.0243(17)
C31 0.055(2) 0.052(2) 0.097(3) 0.018(2) 0.015(2) 0.0269(19)
C32 0.046(2) 0.056(2) 0.063(2) -0.0036(19) 0.0009(18) 0.0180(17)
C33 0.0437(19) 0.052(2) 0.052(2) 0.0065(17) -0.0013(16) 0.0144(16)
C34 0.0431(19) 0.074(3) 0.043(2) 0.0141(18) -0.0012(15) 0.0176(18)
C35 0.51(3) 0.192(12) 0.191(11) -0.046(9) 0.175(15) -0.167(15)

_geom_special_details            
;
All esds (except the esd in the dihedral angle between two l.s. planes)
are estimated using the full covariance matrix. The cell esds are taken
into account individually in the estimation of esds in distances, angles
and torsion angles; correlations between esds in cell parameters are only
used when they are defined by crystal symmetry. An approximate (isotropic)
treatment of cell esds is used for estimating esds involving l.s. planes.
;

loop_
_geom_bond_atom_site_label_1
_geom_bond_atom_site_label_2
_geom_bond_distance
_geom_bond_site_symmetry_2
_geom_bond_publ_flag
C10 C9 1.544(5) . ?
C10 H10A 