####################################################################### 
# 
# This file contains crystal structure data downloaded from the 
# Cambridge Structural Database (CSD) hosted by the Cambridge 
# Crystallographic Data Centre (CCDC).
# 
# Full information about CCDC data access policies and citation 
# guidelines are available at http://www.ccdc.cam.ac.uk/access/V1 
# 
# Audit and citation data items may have been added by the CCDC. 
# Please retain this information to preserve the provenance of 
# this file and to allow appropriate attribution of the data. 
# 
#######################################################################

data_crystalclear1
_audit_block_doi                 10.5517/cct1l8p
_database_code_depnum_ccdc_archive 'CCDC 746302'
loop_
_citation_id
_citation_doi
_citation_year
1 10.1002/anie.201002259 2010
_audit_update_record             
;
2009-09-02 deposited with the CCDC.	2024-07-10 downloaded from the CCDC.
;

_audit_creation_method           SHELXL-97
_chemical_name_systematic        
;
?
;
_chemical_name_common            ?
_chemical_melting_point          ?
_chemical_formula_moiety         ?
_chemical_formula_sum            'C15 H8 N O4 S2 Zn'
_chemical_formula_weight         395.71

loop_
_atom_type_symbol
_atom_type_description
_atom_type_scat_dispersion_real
_atom_type_scat_dispersion_imag
_atom_type_scat_source
C C 0.0033 0.0016 'International Tables Vol C Tables 4.2.6.8 and 6.1.1.4'
H H 0.0000 0.0000 'International Tables Vol C Tables 4.2.6.8 and 6.1.1.4'
N N 0.0061 0.0033 'International Tables Vol C Tables 4.2.6.8 and 6.1.1.4'
O O 0.0106 0.0060 'International Tables Vol C Tables 4.2.6.8 and 6.1.1.4'
S S 0.1246 0.1234 'International Tables Vol C Tables 4.2.6.8 and 6.1.1.4'
Zn Zn 0.2839 1.4301 'International Tables Vol C Tables 4.2.6.8 and 6.1.1.4'

_symmetry_cell_setting           monoclinic
_symmetry_space_group_name_H-M   C2/c

loop_
_symmetry_equiv_pos_as_xyz
'x, y, z'
'-x, y, -z+1/2'
'x+1/2, y+1/2, z'
'-x+1/2, y+1/2, -z+1/2'
'-x, -y, -z'
'x, -y, z-1/2'
'-x+1/2, -y+1/2, -z'
'x+1/2, -y+1/2, z-1/2'

_cell_length_a                   20.472(10)
_cell_length_b                   19.400(8)
_cell_length_c                   13.944(7)
_cell_angle_alpha                90.00
_cell_angle_beta                 117.185(5)
_cell_angle_gamma                90.00
_cell_volume                     4926(4)
_cell_formula_units_Z            8
_cell_measurement_temperature    193(2)
_cell_measurement_reflns_used    ?
_cell_measurement_theta_min      ?
_cell_measurement_theta_max      ?

_exptl_crystal_description       ?
_exptl_crystal_colour            yellow
_exptl_crystal_size_max          0.20
_exptl_crystal_size_mid          0.20
_exptl_crystal_size_min          0.40
_exptl_crystal_density_meas      ?
_exptl_crystal_density_diffrn    1.067
_exptl_crystal_density_method    'not measured'
_exptl_crystal_F_000             1592
_exptl_absorpt_coefficient_mu    1.177
_exptl_absorpt_correction_type   ?
_exptl_absorpt_correction_T_min  0.7986
_exptl_absorpt_correction_T_max  0.7986
_exptl_absorpt_process_details   ?

_exptl_special_details           
;
?
;

_diffrn_ambient_temperature      193(2)
_diffrn_radiation_wavelength     0.71075
_diffrn_radiation_type           MoK\a
_diffrn_radiation_source         'fine-focus sealed tube'
_diffrn_radiation_monochromator  graphite
_diffrn_measurement_device_type  CCD
_diffrn_measurement_method       \w
_diffrn_detector_area_resol_mean ?
_diffrn_standards_number         ?
_diffrn_standards_interval_count ?
_diffrn_standards_interval_time  ?
_diffrn_standards_decay_%        ?
_diffrn_reflns_number            5645
_diffrn_reflns_av_R_equivalents  0.0000
_diffrn_reflns_av_sigmaI/netI    0.0476
_diffrn_reflns_limit_h_min       -26
_diffrn_reflns_limit_h_max       23
_diffrn_reflns_limit_k_min       0
_diffrn_reflns_limit_k_max       25
_diffrn_reflns_limit_l_min       0
_diffrn_reflns_limit_l_max       18
_diffrn_reflns_theta_min         3.01
_diffrn_reflns_theta_max         27.58
_reflns_number_total             5645
_reflns_number_gt                4239
_reflns_threshold_expression     >2sigma(I)

_computing_data_collection       crystalclear
_computing_cell_refinement       crystalclear
_computing_data_reduction        yadokari
_computing_structure_solution    'SHELXS-97 (Sheldrick, 1990)'
_computing_structure_refinement  'SHELXL-97 (Sheldrick, 1997)'
_computing_molecular_graphics    ?
_computing_publication_material  ?

_refine_special_details          
;
Refinement of F^2^ against ALL reflections. The weighted R-factor wR and
goodness of fit S are based on F^2^, conventional R-factors R are based
on F, with F set to zero for negative F^2^. The threshold expression of
F^2^ > 2sigma(F^2^) is used only for calculating R-factors(gt) etc. and is
not relevant to the choice of reflections for refinement. R-factors based
on F^2^ are statistically about twice as large as those based on F, and R-
factors based on ALL data will be even larger.
;

_refine_ls_structure_factor_coef Fsqd
_refine_ls_matrix_type           full
_refine_ls_weighting_scheme      calc
_refine_ls_weighting_details     
'calc w=1/[\s^2^(Fo^2^)+(0.1000P)^2^+0.0000P] where P=(Fo^2^+2Fc^2^)/3'
_atom_sites_solution_primary     direct
_atom_sites_solution_secondary   difmap
_atom_sites_solution_hydrogens   geom
_refine_ls_hydrogen_treatment    constr
_refine_ls_extinction_method     none
_refine_ls_extinction_coef       ?
_refine_ls_number_reflns         5645
_refine_ls_number_parameters     166
_refine_ls_number_restraints     0
_refine_ls_R_factor_all          0.0979
_refine_ls_R_factor_gt           0.0849
_refine_ls_wR_factor_ref         0.2640
_refine_ls_wR_factor_gt          0.2559
_refine_ls_goodness_of_fit_ref   1.723
_refine_ls_restrained_S_all      1.723
_refine_ls_shift/su_max          0.000
_refine_ls_shift/su_mean         0.000

loop_
_atom_site_label
_atom_site_type_symbol
_atom_site_fract_x
_atom_site_fract_y
_atom_site_fract_z
_atom_site_U_iso_or_equiv
_atom_site_adp_type
_atom_site_occupancy
_atom_site_symmetry_multiplicity
_atom_site_calc_flag
_atom_site_refinement_flags
_atom_site_disorder_assembly
_atom_site_disorder_group
Zn1 Zn -0.02118(3) 0.15467(2) 0.13250(4) 0.0221(2) Uani 1 1 d . . .
S1 S -0.16530(8) -0.01605(7) 0.30002(11) 0.0372(4) Uani 1 1 d . . .
S2 S -0.34189(8) -0.16678(8) 0.19957(12) 0.0440(4) Uani 1 1 d . . .
O1 O -0.09262(19) 0.07809(19) 0.1196(3) 0.0366(9) Uani 1 1 d . . .
O2 O -0.4009(2) -0.27558(19) 0.3819(3) 0.0381(9) Uani 1 1 d . . .
O3 O -0.0625(2) 0.08518(19) 0.2938(3) 0.0370(9) Uani 1 1 d . . .
O4 O -0.4437(2) -0.26900(19) 0.2039(3) 0.0391(9) Uani 1 1 d . . .
C1 C -0.0988(3) 0.0612(3) 0.2015(4) 0.0296(11) Uani 1 1 d . . .
C2 C -0.4020(3) -0.2525(3) 0.2981(4) 0.0311(11) Uani 1 1 d . . .
C3 C -0.3440(3) -0.1998(3) 0.3131(4) 0.0325(11) Uani 1 1 d . . .
C4 C -0.2661(3) -0.1176(3) 0.2779(4) 0.0352(12) Uani 1 1 d . . .
C5 C -0.1558(3) 0.0080(3) 0.1890(5) 0.0348(12) Uani 1 1 d . . .
C6 C -0.2442(3) -0.1262(3) 0.3859(5) 0.0465(15) Uani 1 1 d . . .
H1 H -0.2033 -0.1033 0.4413 0.056 Uiso 1 1 calc R . .
C7 C -0.2906(3) -0.1739(3) 0.4047(5) 0.0431(14) Uani 1 1 d . . .
H2 H -0.2843 -0.1859 0.4745 0.052 Uiso 1 1 calc R . .
C8 C -0.2329(3) -0.0737(3) 0.2268(5) 0.0433(14) Uani 1 1 d . . .
C9 C -0.2025(4) -0.0255(4) 0.0991(5) 0.059(2) Uani 1 1 d . . .
H3 H -0.2061 -0.0173 0.0297 0.071 Uiso 1 1 calc R . .
C10 C -0.2464(4) -0.0751(4) 0.1206(5) 0.067(2) Uani 1 1 d . . .
H4 H -0.2806 -0.1052 0.0679 0.080 Uiso 1 1 calc R . .
C11 C -0.0257(5) 0.2116(2) -0.1662(5) 0.250(10) Uiso 1 1 d G . .
H5 H -0.0354 0.2523 -0.2084 0.300 Uiso 1 1 calc R . .
C12 C -0.0334(4) 0.21187(18) -0.0722(5) 0.202(8) Uiso 1 1 d G . .
H6 H -0.0483 0.2527 -0.0502 0.243 Uiso 1 1 calc R . .
N1 N -0.0192(2) 0.15234(19) -0.0104(3) 0.0350(10) Uiso 1 1 d G . .
C14 C 0.0027(3) 0.09255(17) -0.0426(3) 0.0634(19) Uiso 1 1 d G . .
H7 H 0.0124 0.0519 -0.0004 0.076 Uiso 1 1 calc R . .
C15 C 0.0104(3) 0.0923(2) -0.1366(4) 0.068(2) Uiso 1 1 d G . .
H8 H 0.0254 0.0514 -0.1586 0.082 Uiso 1 1 calc R . .
C16 C -0.0038(4) 0.1518(3) -0.1984(4) 0.064(2) Uiso 1 1 d G . .

loop_
_atom_site_aniso_label
_atom_site_aniso_U_11
_atom_site_aniso_U_22
_atom_site_aniso_U_33
_atom_site_aniso_U_23
_atom_site_aniso_U_13
_atom_site_aniso_U_12
Zn1 0.0264(3) 0.0254(4) 0.0187(3) -0.0005(2) 0.0141(2) -0.0001(2)
S1 0.0384(7) 0.0435(8) 0.0305(7) -0.0020(6) 0.0164(6) -0.0177(6)
S2 0.0442(8) 0.0547(9) 0.0274(7) 0.0013(6) 0.0112(6) -0.0269(7)
O1 0.0346(19) 0.041(2) 0.033(2) 0.0080(16) 0.0138(17) -0.0089(16)
O2 0.0357(19) 0.041(2) 0.034(2) 0.0066(16) 0.0126(16) -0.0130(16)
O3 0.0360(19) 0.043(2) 0.035(2) -0.0092(17) 0.0181(17) -0.0173(17)
O4 0.041(2) 0.040(2) 0.040(2) -0.0135(17) 0.0223(18) -0.0233(17)
C1 0.031(2) 0.028(3) 0.033(3) -0.002(2) 0.018(2) -0.007(2)
C2 0.030(2) 0.028(3) 0.038(3) 0.002(2) 0.018(2) -0.004(2)
C3 0.038(3) 0.030(3) 0.032(3) -0.002(2) 0.019(2) -0.011(2)
C4 0.034(3) 0.040(3) 0.028(3) -0.005(2) 0.011(2) -0.016(2)
C5 0.031(3) 0.040(3) 0.034(3) 0.006(2) 0.015(2) -0.007(2)
C6 0.042(3) 0.061(4) 0.036(3) -0.003(3) 0.017(3) -0.028(3)
C7 0.048(3) 0.035(3) 0.044(3) 0.005(3) 0.020(3) -0.012(3)
C8 0.040(3) 0.044(3) 0.039(3) 0.006(3) 0.013(3) -0.017(3)
C9 0.065(4) 0.078(5) 0.031(3) -0.012(3) 0.019(3) -0.048(4)
C10 0.080(5) 0.085(5) 0.036(4) -0.013(3) 0.027(4) -0.057(4)

_geom_special_details            
;
All esds (except the esd in the dihedral angle between two l.s. planes)
are estimated using the full covariance matrix. The cell esds are taken
into account individually in the estimation of esds in distances, angles
and torsion angles; correlations between esds in cell parameters are only
used when they are defined by crystal symmetry. An approximate (isotropic)
treatment of cell esds is used for estimating esds involving l.s. planes.
;

loop_
_geom_bond_atom_site_label_1
_geom_bond_atom_site_label_2
_geom_bond_distance
_geom_bond_site_symmetry_2
_geom_bond_publ_flag
Zn1 N1 2.012(4) . ?
Zn1 O1 2.034(3) . ?
Zn1 O2 2.030(3) 4_455 ?
Zn1 O3 2.049(3) 2 ?
Zn1 O4 2.063(3) 3 ?
Zn1 Zn1 2.9823(18) 2 ?
S1 C8 1.708(6) . ?
S1 C5 1.711(6) . ?
S2 C4 1.721(5) . ?
S2 C3 1.726(5) . ?
O1 C1 1.250(6) . ?
O2 C2 1.242(6) . ?
O2 Zn1 2.030(3) 4_445 ?
O3 C1 1.245(6) . ?
O3 Zn1 2.049(3) 2 ?
O4 C2 1.238(6) . ?
O4 Zn1 2.063(3) 3_445 ?
C1 C5 1.506(7) . ?
C2 C3 1.507(7) . ?
C3 C7 1.343(8) . ?
C4 C6 1.370(8) . ?
C4 C8 1.462(8) . ?
C5 C9 1.347(8) . ?
C6 C7 1.436(8) . ?
C6 H1 0.9500 . ?
C7 H2 0.9500 . ?
C8 C10 1.377(9) . ?
C9 C10 1.439(8) . ?
C9 H3 0.9500 . ?
C10 H4 0.9500 . ?
C11 C12 1.3900 . ?
C11 C16 1.3900 . ?
C11 H5 0.9500 . ?
C12 N1 1.3900 . ?
C12 H6 0.9500 . ?
N1 C14 1.3900 . ?
C14 C15 1.3900 . ?
C14 H7 0.9500 . ?
C15 C16 1.3900 . ?
C15 H8 0.9500 . ?
C16 C16 1.516(7) 2_554 ?

loop_
_geom_angle_atom_site_label_1
_geom_angle_atom_site_label_2
_geom_angle_atom_site_label_3
_geom_angle
_geom_angle_site_symmetry_1
_geom_angle_site_symmetry_3
_geom_angle_publ_flag
N1 Zn1 O1 103.60(15) . . ?
N1 Zn1 O2 106.73(16) . 4_455 ?
O1 Zn1 O2 88.70(17) . 4_455 ?
N1 Zn1 O3 95.26(16) . 2 ?
O1 Zn1 O3 88.06(16) . 2 ?
O2 Zn1 O3 157.92(16) 4_455 2 ?
N1 Zn1 O4 97.74(16) . 3 ?
O1 Zn1 O4 158.45(16) . 3 ?
O2 Zn1 O4 88.02(16) 4_455 3 ?
O3 Zn1 O4 87.02(18) 2 3 ?
N1 Zn1 Zn1 163.92(12) . 2 ?
O1 Zn1 Zn1 86.20(11) . 2 ?
O2 Zn1 Zn1 85.95(11) 4_455 2 ?
O3 Zn1 Zn1 72.04(11) 2 2 ?
O4 Zn1 Zn1 72.33(11) 3 2 ?
C8 S1 C5 92.0(3) . . ?
C4 S2 C3 91.0(3) . . ?
C1 O1 Zn1 118.7(3) . . ?
C2 O2 Zn1 118.2(3) . 4_445 ?
C1 O3 Zn1 137.1(3) . 2 ?
C2 O4 Zn1 134.7(3) . 3_445 ?
O3 C1 O1 125.7(5) . . ?
O3 C1 C5 116.2(5) . . ?
O1 C1 C5 118.1(5) . . ?
O4 C2 O2 127.7(5) . . ?
O4 C2 C3 116.1(5) . . ?
O2 C2 C3 116.1(5) . . ?
C7 C3 C2 129.2(5) . . ?
C7 C3 S2 112.6(4) . . ?
C2 C3 S2 118.2(4) . . ?
C6 C4 C8 127.9(5) . . ?
C6 C4 S2 112.2(4) . . ?
C8 C4 S2 119.9(4) . . ?
C9 C5 C1 128.4(5) . . ?
C9 C5 S1 112.6(4) . . ?
C1 C5 S1 119.0(4) . . ?
C4 C6 C7 111.6(5) . . ?
C4 C6 H1 124.2 . . ?
C7 C6 H1 124.2 . . ?
C3 C7 C6 112.7(5) . . ?
C3 C7 H2 123.6 . . ?
C6 C7 H2 123.6 . . ?
C10 C8 C4 127.1(5) . . ?
C10 C8 S1 111.4(4) . . ?
C4 C8 S1 121.3(5) . . ?
C5 C9 C10 111.9(6) . . ?
C5 C9 H3 124.0 . . ?
C10 C9 H3 124.0 . . ?
C8 C10 C9 112.0(6) . . ?
C8 C10 H4 124.0 . . ?
C9 C10 H4 124.0 . . ?
C12 C11 C16 120.0 . . ?
C12 C11 H5 120.0 . . ?
C16 C11 H5 120.0 . . ?
N1 C12 C11 120.0 . . ?
N1 C12 H6 120.0 . . ?
C11 C12 H6 120.0 . . ?
C14 N1 C12 120.0 . . ?
C14 N1 Zn1 119.6(2) . . ?
C12 N1 Zn1 120.1(2) . . ?
N1 C14 C15 120.0 . . ?
N1 C14 H7 120.0 . . ?
C15 C14 H7 120.0 . . ?
C14 C15 C16 120.0 . . ?
C14 C15 H8 120.0 . . ?
C16 C15 H8 120.0 . . ?
C15 C16 C11 120.0 . . ?
C15 C16 C16 120.4(2) . 2_554 ?
C11 C16 C16 119.6(2) . 2_554 ?

_diffrn_measured_fraction_theta_max 0.989
_diffrn_reflns_theta_full        27.58
_diffrn_measured_fraction_theta_full 0.989
_refine_diff_density_max         2.869
_refine_diff_density_min         -0.996
_refine_diff_density_rms         0.161
