####################################################################### 
# 
# This file contains crystal structure data downloaded from the 
# Cambridge Structural Database (CSD) hosted by the Cambridge 
# Crystallographic Data Centre (CCDC).
# 
# Full information about CCDC data access policies and citation 
# guidelines are available at http://www.ccdc.cam.ac.uk/access/V1 
# 
# Audit and citation data items may have been added by the CCDC. 
# Please retain this information to preserve the provenance of 
# this file and to allow appropriate attribution of the data. 
# 
#######################################################################

data_crystalclear2
_audit_block_doi                 10.5517/cct1l9q
_database_code_depnum_ccdc_archive 'CCDC 746303'
loop_
_citation_id
_citation_doi
_citation_year
1 10.1002/anie.201002259 2010
_audit_update_record             
;
2009-09-02 deposited with the CCDC.	2024-07-10 downloaded from the CCDC.
;

_audit_creation_method           SHELXL-97
_chemical_name_systematic        
;
?
;
_chemical_name_common            ?
_chemical_melting_point          ?
_chemical_formula_moiety         ?
_chemical_formula_sum            'C15 H8 N O4 S2 Zn'
_chemical_formula_weight         395.71

loop_
_atom_type_symbol
_atom_type_description
_atom_type_scat_dispersion_real
_atom_type_scat_dispersion_imag
_atom_type_scat_source
C C 0.0033 0.0016 'International Tables Vol C Tables 4.2.6.8 and 6.1.1.4'
H H 0.0000 0.0000 'International Tables Vol C Tables 4.2.6.8 and 6.1.1.4'
N N 0.0061 0.0033 'International Tables Vol C Tables 4.2.6.8 and 6.1.1.4'
O O 0.0106 0.0060 'International Tables Vol C Tables 4.2.6.8 and 6.1.1.4'
S S 0.1246 0.1234 'International Tables Vol C Tables 4.2.6.8 and 6.1.1.4'
Zn Zn 0.2839 1.4301 'International Tables Vol C Tables 4.2.6.8 and 6.1.1.4'

_symmetry_cell_setting           monoclinic
_symmetry_space_group_name_H-M   C2/c

loop_
_symmetry_equiv_pos_as_xyz
'x, y, z'
'-x, y, -z+1/2'
'x+1/2, y+1/2, z'
'-x+1/2, y+1/2, -z+1/2'
'-x, -y, -z'
'x, -y, z-1/2'
'-x+1/2, -y+1/2, -z'
'x+1/2, -y+1/2, z-1/2'

_cell_length_a                   17.692(4)
_cell_length_b                   21.743(6)
_cell_length_c                   9.376(3)
_cell_angle_alpha                90.00
_cell_angle_beta                 108.334(3)
_cell_angle_gamma                90.00
_cell_volume                     3423.7(16)
_cell_formula_units_Z            8
_cell_measurement_temperature    223(2)
_cell_measurement_reflns_used    ?
_cell_measurement_theta_min      ?
_cell_measurement_theta_max      ?

_exptl_crystal_description       needle
_exptl_crystal_colour            paleyellow
_exptl_crystal_size_max          0.30
_exptl_crystal_size_mid          0.10
_exptl_crystal_size_min          0.10
_exptl_crystal_density_meas      ?
_exptl_crystal_density_diffrn    1.535
_exptl_crystal_density_method    'not measured'
_exptl_crystal_F_000             1592
_exptl_absorpt_coefficient_mu    1.694
_exptl_absorpt_correction_type   empirical
_exptl_absorpt_correction_T_min  0.6304
_exptl_absorpt_correction_T_max  0.8488
_exptl_absorpt_process_details   ?

_exptl_special_details           
;
?
;

_diffrn_ambient_temperature      223(2)
_diffrn_radiation_wavelength     0.71075
_diffrn_radiation_type           MoK\a
_diffrn_radiation_source         'fine-focus sealed tube'
_diffrn_radiation_monochromator  graphite
_diffrn_measurement_device_type  CCD
_diffrn_measurement_method       \w
_diffrn_detector_area_resol_mean ?
_diffrn_standards_number         ?
_diffrn_standards_interval_count ?
_diffrn_standards_interval_time  ?
_diffrn_standards_decay_%        ?
_diffrn_reflns_number            3914
_diffrn_reflns_av_R_equivalents  0.0000
_diffrn_reflns_av_sigmaI/netI    0.0304
_diffrn_reflns_limit_h_min       -22
_diffrn_reflns_limit_h_max       21
_diffrn_reflns_limit_k_min       0
_diffrn_reflns_limit_k_max       28
_diffrn_reflns_limit_l_min       0
_diffrn_reflns_limit_l_max       12
_diffrn_reflns_theta_min         3.06
_diffrn_reflns_theta_max         27.50
_reflns_number_total             3914
_reflns_number_gt                3320
_reflns_threshold_expression     >2sigma(I)

_computing_data_collection       crystalclear
_computing_cell_refinement       crystalclear
_computing_data_reduction        yadokari
_computing_structure_solution    'SHELXS-97 (Sheldrick, 1990)'
_computing_structure_refinement  'SHELXL-97 (Sheldrick, 1997)'
_computing_molecular_graphics    ?
_computing_publication_material  ?

_refine_special_details          
;
Refinement of F^2^ against ALL reflections. The weighted R-factor wR and
goodness of fit S are based on F^2^, conventional R-factors R are based
on F, with F set to zero for negative F^2^. The threshold expression of
F^2^ > 2sigma(F^2^) is used only for calculating R-factors(gt) etc. and is
not relevant to the choice of reflections for refinement. R-factors based
on F^2^ are statistically about twice as large as those based on F, and R-
factors based on ALL data will be even larger.
;

_refine_ls_structure_factor_coef Fsqd
_refine_ls_matrix_type           full
_refine_ls_weighting_scheme      calc
_refine_ls_weighting_details     
'calc w=1/[\s^2^(Fo^2^)+(0.1000P)^2^+0.0000P] where P=(Fo^2^+2Fc^2^)/3'
_atom_sites_solution_primary     direct
_atom_sites_solution_secondary   difmap
_atom_sites_solution_hydrogens   geom
_refine_ls_hydrogen_treatment    constr
_refine_ls_extinction_method     none
_refine_ls_extinction_coef       ?
_refine_ls_number_reflns         3914
_refine_ls_number_parameters     208
_refine_ls_number_restraints     0
_refine_ls_R_factor_all          0.0516
_refine_ls_R_factor_gt           0.0447
_refine_ls_wR_factor_ref         0.1436
_refine_ls_wR_factor_gt          0.1360
_refine_ls_goodness_of_fit_ref   1.037
_refine_ls_restrained_S_all      1.037
_refine_ls_shift/su_max          0.001
_refine_ls_shift/su_mean         0.000

loop_
_atom_site_label
_atom_site_type_symbol
_atom_site_fract_x
_atom_site_fract_y
_atom_site_fract_z
_atom_site_U_iso_or_equiv
_atom_site_adp_type
_atom_site_occupancy
_atom_site_symmetry_multiplicity
_atom_site_calc_flag
_atom_site_refinement_flags
_atom_site_disorder_assembly
_atom_site_disorder_group
N1 N -0.12536(14) -0.23165(10) -0.1253(3) 0.0286(5) Uani 1 1 d . . .
C2 C -0.1859(3) -0.27000(17) -0.1610(4) 0.0666(13) Uani 1 1 d . . .
H1 H -0.1959 -0.2930 -0.0840 0.080 Uiso 1 1 calc R . .
C3 C -0.2356(3) -0.27802(18) -0.3070(4) 0.0688(14) Uani 1 1 d . . .
H2 H -0.2780 -0.3061 -0.3262 0.083 Uiso 1 1 calc R . .
C4 C -0.22420(15) -0.24636(14) -0.4220(3) 0.0306(6) Uani 1 1 d . . .
C5 C -0.1637(2) -0.2034(2) -0.3830(4) 0.0659(12) Uani 1 1 d . . .
H3 H -0.1544 -0.1783 -0.4574 0.079 Uiso 1 1 calc R . .
C6 C -0.1167(2) -0.1973(2) -0.2349(4) 0.0639(12) Uani 1 1 d . . .
H4 H -0.0765 -0.1672 -0.2112 0.077 Uiso 1 1 calc R . .
Zn1 Zn -0.050122(17) -0.225542(13) 0.08846(3) 0.02502(15) Uani 1 1 d . . .
O1 O 0.03867(12) -0.28370(9) 0.0748(2) 0.0362(5) Uani 1 1 d . . .
C7 C 0.08739(16) -0.30808(12) 0.1876(3) 0.0306(6) Uani 1 1 d . . .
O2 O 0.09644(13) -0.29512(9) 0.3224(2) 0.0376(5) Uani 1 1 d . . .
C8 C 0.13808(17) -0.35819(13) 0.1637(3) 0.0354(6) Uani 1 1 d . . .
C9 C 0.1399(2) -0.38563(15) 0.0338(4) 0.0452(7) Uani 1 1 d . . .
H5 H 0.1069 -0.3741 -0.0623 0.054 Uiso 1 1 calc R . .
C10 C 0.1967(2) -0.43328(15) 0.0603(4) 0.0487(8) Uani 1 1 d . . .
H6 H 0.2055 -0.4570 -0.0169 0.058 Uiso 1 1 calc R . .
C11 C 0.23764(18) -0.44165(14) 0.2084(3) 0.0391(7) Uani 1 1 d . . .
S1 S 0.20666(4) -0.39010(3) 0.31845(8) 0.0383(2) Uani 1 1 d . . .
C12 C 0.29957(18) -0.48606(14) 0.2793(3) 0.0397(7) Uani 1 1 d . . .
S2 S 0.29806(5) -0.55719(4) 0.19901(9) 0.0416(2) Uani 1 1 d . . .
C13 C 0.38325(17) -0.57944(13) 0.3368(3) 0.0359(6) Uani 1 1 d . . .
C14 C 0.40935(19) -0.53418(14) 0.4407(4) 0.0450(8) Uani 1 1 d . . .
H7 H 0.4542 -0.5382 0.5266 0.054 Uiso 1 1 calc R . .
C15 C 0.3621(2) -0.48039(15) 0.4062(4) 0.0473(8) Uani 1 1 d . . .
H8 H 0.3731 -0.4445 0.4651 0.057 Uiso 1 1 calc R . .
C16 C 0.42353(16) -0.63689(12) 0.3211(3) 0.0331(6) Uani 1 1 d . . .
O3 O 0.39642(12) -0.66537(9) 0.2002(2) 0.0402(5) Uani 1 1 d . . .
O4 O 0.48291(12) -0.65226(9) 0.4306(2) 0.0398(5) Uani 1 1 d . . .

loop_
_atom_site_aniso_label
_atom_site_aniso_U_11
_atom_site_aniso_U_22
_atom_site_aniso_U_33
_atom_site_aniso_U_23
_atom_site_aniso_U_13
_atom_site_aniso_U_12
N1 0.0255(12) 0.0339(12) 0.0205(11) 0.0001(8) -0.0012(9) -0.0005(8)
C2 0.069(3) 0.084(3) 0.0281(17) 0.0181(16) -0.0112(17) -0.047(2)
C3 0.067(3) 0.085(3) 0.0338(19) 0.0185(17) -0.0138(18) -0.053(2)
C4 0.0256(13) 0.0397(15) 0.0215(13) -0.0012(11) 0.0000(11) -0.0049(11)
C5 0.067(2) 0.094(3) 0.0270(16) 0.0075(18) 0.0004(16) -0.051(2)
C6 0.069(2) 0.084(3) 0.0259(15) 0.0053(17) -0.0030(16) -0.051(2)
Zn1 0.0249(2) 0.0246(2) 0.0202(2) -0.00019(10) -0.00047(14) -0.00100(10)
O1 0.0368(12) 0.0355(11) 0.0324(11) 0.0010(8) 0.0053(9) 0.0108(8)
C7 0.0306(14) 0.0269(13) 0.0315(14) -0.0010(11) 0.0059(11) 0.0039(11)
O2 0.0421(12) 0.0345(10) 0.0308(11) -0.0025(9) 0.0038(9) 0.0123(9)
C8 0.0372(15) 0.0318(14) 0.0321(14) 0.0021(11) 0.0035(12) 0.0056(11)
C9 0.0542(19) 0.0428(17) 0.0341(16) -0.0036(13) 0.0074(14) 0.0104(14)
C10 0.0539(19) 0.0484(18) 0.0407(17) -0.0085(14) 0.0105(15) 0.0149(15)
C11 0.0413(16) 0.0335(15) 0.0417(17) -0.0016(12) 0.0116(13) 0.0090(12)
S1 0.0414(4) 0.0365(4) 0.0324(4) -0.0007(3) 0.0048(3) 0.0137(3)
C12 0.0403(16) 0.0355(15) 0.0415(16) -0.0028(13) 0.0104(13) 0.0083(12)
S2 0.0420(5) 0.0351(4) 0.0413(4) -0.0045(3) 0.0039(3) 0.0104(3)
C13 0.0336(15) 0.0341(14) 0.0390(16) -0.0008(12) 0.0100(12) 0.0060(11)
C14 0.0375(17) 0.0421(17) 0.0485(18) -0.0076(14) 0.0036(14) 0.0086(13)
C15 0.0459(18) 0.0379(16) 0.0524(19) -0.0092(14) 0.0070(15) 0.0100(13)
C16 0.0314(14) 0.0269(13) 0.0428(16) 0.0006(12) 0.0144(12) 0.0016(11)
O3 0.0402(11) 0.0370(11) 0.0421(12) -0.0061(9) 0.0110(9) 0.0094(9)
O4 0.0375(11) 0.0329(10) 0.0458(12) 0.0009(9) 0.0083(9) 0.0102(8)

_geom_special_details            
;
All esds (except the esd in the dihedral angle between two l.s. planes)
are estimated using the full covariance matrix. The cell esds are taken
into account individually in the estimation of esds in distances, angles
and torsion angles; correlations between esds in cell parameters are only
used when they are defined by crystal symmetry. An approximate (isotropic)
treatment of cell esds is used for estimating esds involving l.s. planes.
;

loop_
_geom_bond_atom_site_label_1
_geom_bond_atom_site_label_2
_geom_bond_distance
_geom_bond_site_symmetry_2
_geom_bond_publ_flag
N1 C2 1.315(4) . ?
N1 C6 1.318(4) . ?
N1 Zn1 2.032(2) . ?
C2 C3 1.386(5) . ?
C2 H1 0.9400 . ?
C3 C4 1.346(4) . ?
C3 H2 0.9400 . ?
C4 C5 1.380(4) . ?
C4 C4 1.470(5) 7_444 ?
C5 C6 1.382(4) . ?
C5 H3 0.9400 . ?
C6 H4 0.9400 . ?
Zn1 O2 2.022(2) 2 ?
Zn1 O4 2.029(2) 4 ?
Zn1 O1 2.052(2) . ?
Zn1 O3 2.080(2) 3_455 ?
Zn1 Zn1 2.9902(10) 2 ?
O1 C7 1.253(3) . ?
C7 O2 1.255(3) . ?
C7 C8 1.473(4) . ?
O2 Zn1 2.022(2) 2 ?
C8 C9 1.366(4) . ?
C8 S1 1.718(3) . ?
C9 C10 1.411(4) . ?
C9 H5 0.9400 . ?
C10 C11 1.361(4) . ?
C10 H6 0.9400 . ?
C11 C12 1.455(4) . ?
C11 S1 1.726(3) . ?
C12 C15 1.352(4) . ?
C12 S2 1.717(3) . ?
S2 C13 1.717(3) . ?
C13 C14 1.359(4) . ?
C13 C16 1.468(4) . ?
C14 C15 1.414(4) . ?
C14 H7 0.9400 . ?
C15 H8 0.9400 . ?
C16 O3 1.247(3) . ?
C16 O4 1.262(3) . ?
O3 Zn1 2.080(2) 3_545 ?
O4 Zn1 2.029(2) 4_545 ?

loop_
_geom_angle_atom_site_label_1
_geom_angle_atom_site_label_2
_geom_angle_atom_site_label_3
_geom_angle
_geom_angle_site_symmetry_1
_geom_angle_site_symmetry_3
_geom_angle_publ_flag
C2 N1 C6 116.5(3) . . ?
C2 N1 Zn1 121.4(2) . . ?
C6 N1 Zn1 122.1(2) . . ?
N1 C2 C3 123.0(3) . . ?
N1 C2 H1 118.5 . . ?
C3 C2 H1 118.5 . . ?
C4 C3 C2 121.2(3) . . ?
C4 C3 H2 119.4 . . ?
C2 C3 H2 119.4 . . ?
C3 C4 C5 115.7(3) . . ?
C3 C4 C4 122.6(3) . 7_444 ?
C5 C4 C4 121.6(3) . 7_444 ?
C4 C5 C6 120.1(3) . . ?
C4 C5 H3 119.9 . . ?
C6 C5 H3 119.9 . . ?
N1 C6 C5 123.2(3) . . ?
N1 C6 H4 118.4 . . ?
C5 C6 H4 118.4 . . ?
O2 Zn1 O4 161.55(9) 2 4 ?
O2 Zn1 N1 97.69(9) 2 . ?
O4 Zn1 N1 100.64(9) 4 . ?
O2 Zn1 O1 89.00(9) 2 . ?
O4 Zn1 O1 89.83(9) 4 . ?
N1 Zn1 O1 100.07(9) . . ?
O2 Zn1 O3 87.40(9) 2 3_455 ?
O4 Zn1 O3 85.55(9) 4 3_455 ?
N1 Zn1 O3 106.11(9) . 3_455 ?
O1 Zn1 O3 153.82(9) . 3_455 ?
O2 Zn1 Zn1 76.68(6) 2 2 ?
O4 Zn1 Zn1 84.95(6) 4 2 ?
N1 Zn1 Zn1 174.30(7) . 2 ?
O1 Zn1 Zn1 80.89(6) . 2 ?
O3 Zn1 Zn1 73.05(6) 3_455 2 ?
C7 O1 Zn1 122.99(19) . . ?
O1 C7 O2 126.3(3) . . ?
O1 C7 C8 118.3(2) . . ?
O2 C7 C8 115.4(2) . . ?
C7 O2 Zn1 130.11(18) . 2 ?
C9 C8 C7 130.2(3) . . ?
C9 C8 S1 111.6(2) . . ?
C7 C8 S1 118.2(2) . . ?
C8 C9 C10 112.3(3) . . ?
C8 C9 H5 123.9 . . ?
C10 C9 H5 123.9 . . ?
C11 C10 C9 113.5(3) . . ?
C11 C10 H6 123.3 . . ?
C9 C10 H6 123.3 . . ?
C10 C11 C12 129.6(3) . . ?
C10 C11 S1 110.9(2) . . ?
C12 C11 S1 119.5(2) . . ?
C8 S1 C11 91.73(15) . . ?
C15 C12 C11 129.2(3) . . ?
C15 C12 S2 111.3(2) . . ?
C11 C12 S2 119.5(2) . . ?
C12 S2 C13 92.02(15) . . ?
C14 C13 C16 128.4(3) . . ?
C14 C13 S2 110.8(2) . . ?
C16 C13 S2 120.2(2) . . ?
C13 C14 C15 113.1(3) . . ?
C13 C14 H7 123.5 . . ?
C15 C14 H7 123.5 . . ?
C12 C15 C14 112.8(3) . . ?
C12 C15 H8 123.6 . . ?
C14 C15 H8 123.6 . . ?
O3 C16 O4 126.3(3) . . ?
O3 C16 C13 117.0(3) . . ?
O4 C16 C13 116.7(3) . . ?
C16 O3 Zn1 131.61(18) . 3_545 ?
C16 O4 Zn1 119.82(19) . 4_545 ?

_diffrn_measured_fraction_theta_max 0.993
_diffrn_reflns_theta_full        27.50
_diffrn_measured_fraction_theta_full 0.993
_refine_diff_density_max         1.062
_refine_diff_density_min         -0.671
_refine_diff_density_rms         0.087


