####################################################################### 
# 
# This file contains crystal structure data downloaded from the 
# Cambridge Structural Database (CSD) hosted by the Cambridge 
# Crystallographic Data Centre (CCDC).
# 
# Full information about CCDC data access policies and citation 
# guidelines are available at http://www.ccdc.cam.ac.uk/access/V1 
# 
# Audit and citation data items may have been added by the CCDC. 
# Please retain this information to preserve the provenance of 
# this file and to allow appropriate attribution of the data. 
# 
#######################################################################

data_crystalclear
_audit_block_doi                 10.5517/cctylkw
_database_code_depnum_ccdc_archive 'CCDC 773219'
loop_
_citation_id
_citation_doi
_citation_year
1 10.1002/anie.201002259 2010
_audit_update_record             
;
2010-04-15 deposited with the CCDC.	2024-07-10 downloaded from the CCDC.
;

_audit_creation_method           SHELXL-97
_chemical_name_systematic        
;
?
;
_chemical_name_common            ?
_chemical_melting_point          ?
_chemical_formula_moiety         ?
_chemical_formula_sum            'C15 H8 N O4 S2 Zn'
_chemical_formula_weight         395.71

loop_
_atom_type_symbol
_atom_type_description
_atom_type_scat_dispersion_real
_atom_type_scat_dispersion_imag
_atom_type_scat_source
C C 0.0033 0.0016 'International Tables Vol C Tables 4.2.6.8 and 6.1.1.4'
H H 0.0000 0.0000 'International Tables Vol C Tables 4.2.6.8 and 6.1.1.4'
N N 0.0061 0.0033 'International Tables Vol C Tables 4.2.6.8 and 6.1.1.4'
O O 0.0106 0.0060 'International Tables Vol C Tables 4.2.6.8 and 6.1.1.4'
S S 0.1246 0.1234 'International Tables Vol C Tables 4.2.6.8 and 6.1.1.4'
Zn Zn 0.2839 1.4301 'International Tables Vol C Tables 4.2.6.8 and 6.1.1.4'

_symmetry_cell_setting           monoclinic
_symmetry_space_group_name_H-M   C2/c

loop_
_symmetry_equiv_pos_as_xyz
'x, y, z'
'-x, y, -z+1/2'
'x+1/2, y+1/2, z'
'-x+1/2, y+1/2, -z+1/2'
'-x, -y, -z'
'x, -y, z-1/2'
'-x+1/2, -y+1/2, -z'
'x+1/2, -y+1/2, z-1/2'

_cell_length_a                   17.510(9)
_cell_length_b                   22.117(10)
_cell_length_c                   14.003(7)
_cell_angle_alpha                90.00
_cell_angle_beta                 115.781(5)
_cell_angle_gamma                90.00
_cell_volume                     4883(4)
_cell_formula_units_Z            8
_cell_measurement_temperature    323(2)
_cell_measurement_reflns_used    ?
_cell_measurement_theta_min      ?
_cell_measurement_theta_max      ?

_exptl_crystal_description       needle
_exptl_crystal_colour            pale-yellow
_exptl_crystal_size_max          0.50
_exptl_crystal_size_mid          0.020
_exptl_crystal_size_min          0.020
_exptl_crystal_density_meas      ?
_exptl_crystal_density_diffrn    1.077
_exptl_crystal_density_method    'not measured'
_exptl_crystal_F_000             1592
_exptl_absorpt_coefficient_mu    1.188
_exptl_absorpt_correction_type   empirical
_exptl_absorpt_correction_T_min  0.7971
_exptl_absorpt_correction_T_max  0.7971
_exptl_absorpt_process_details   ?

_exptl_special_details           
;
?
;

_diffrn_ambient_temperature      323(2)
_diffrn_radiation_wavelength     0.71075
_diffrn_radiation_type           MoK\a
_diffrn_radiation_source         'fine-focus sealed tube'
_diffrn_radiation_monochromator  graphite
_diffrn_measurement_device_type  CCD
_diffrn_measurement_method       \w
_diffrn_detector_area_resol_mean ?
_diffrn_standards_number         ?
_diffrn_standards_interval_count ?
_diffrn_standards_interval_time  ?
_diffrn_standards_decay_%        ?
_diffrn_reflns_number            5492
_diffrn_reflns_av_R_equivalents  0.0000
_diffrn_reflns_av_sigmaI/netI    0.1313
_diffrn_reflns_limit_h_min       -22
_diffrn_reflns_limit_h_max       20
_diffrn_reflns_limit_k_min       0
_diffrn_reflns_limit_k_max       28
_diffrn_reflns_limit_l_min       0
_diffrn_reflns_limit_l_max       18
_diffrn_reflns_theta_min         3.01
_diffrn_reflns_theta_max         27.49
_reflns_number_total             5492
_reflns_number_gt                2602
_reflns_threshold_expression     >2sigma(I)

_computing_data_collection       crystalclear
_computing_cell_refinement       crystalclear
_computing_data_reduction        yadokari
_computing_structure_solution    'SHELXS-97 (Sheldrick, 1990)'
_computing_structure_refinement  'SHELXL-97 (Sheldrick, 1997)'
_computing_molecular_graphics    ?
_computing_publication_material  ?

_refine_special_details          
;
Refinement of F^2^ against ALL reflections. The weighted R-factor wR and
goodness of fit S are based on F^2^, conventional R-factors R are based
on F, with F set to zero for negative F^2^. The threshold expression of
F^2^ > 2sigma(F^2^) is used only for calculating R-factors(gt) etc. and is
not relevant to the choice of reflections for refinement. R-factors based
on F^2^ are statistically about twice as large as those based on F, and R-
factors based on ALL data will be even larger.
;

_refine_ls_structure_factor_coef Fsqd
_refine_ls_matrix_type           full
_refine_ls_weighting_scheme      calc
_refine_ls_weighting_details     
'calc w=1/[\s^2^(Fo^2^)+(0.1000P)^2^+0.0000P] where P=(Fo^2^+2Fc^2^)/3'
_atom_sites_solution_primary     direct
_atom_sites_solution_secondary   difmap
_atom_sites_solution_hydrogens   geom
_refine_ls_hydrogen_treatment    constr
_refine_ls_extinction_method     none
_refine_ls_extinction_coef       ?
_refine_ls_number_reflns         5492
_refine_ls_number_parameters     143
_refine_ls_number_restraints     0
_refine_ls_R_factor_all          0.2072
_refine_ls_R_factor_gt           0.1684
_refine_ls_wR_factor_ref         0.4342
_refine_ls_wR_factor_gt          0.4045
_refine_ls_goodness_of_fit_ref   1.901
_refine_ls_restrained_S_all      1.901
_refine_ls_shift/su_max          0.000
_refine_ls_shift/su_mean         0.000

loop_
_atom_site_label
_atom_site_type_symbol
_atom_site_fract_x
_atom_site_fract_y
_atom_site_fract_z
_atom_site_U_iso_or_equiv
_atom_site_adp_type
_atom_site_occupancy
_atom_site_symmetry_multiplicity
_atom_site_calc_flag
_atom_site_refinement_flags
_atom_site_disorder_assembly
_atom_site_disorder_group
Zn1 Zn 0.48042(7) 0.14405(5) 0.63630(11) 0.0439(5) Uani 1 1 d . . .
S2 S 0.8390(2) -0.18197(14) 0.7975(3) 0.0643(10) Uani 1 1 d . . .
S3 S 0.67939(19) -0.02081(13) 0.7038(3) 0.0584(9) Uani 1 1 d . . .
N1 N 0.4858(6) 0.1426(3) 0.4992(9) 0.049(2) Uani 1 1 d . . .
O1 O 0.8936(4) -0.2905(3) 0.6150(7) 0.054(2) Uani 1 1 d . . .
O2 O 0.6068(5) 0.0780(3) 0.8821(7) 0.061(2) Uani 1 1 d . . .
C8 C 0.6746(7) 0.0086(5) 0.8135(10) 0.055(3) Uiso 1 1 d . . .
O3 O 0.9315(5) -0.2908(3) 0.7998(8) 0.058(2) Uani 1 1 d . . .
C10 C 0.8897(7) -0.2729(5) 0.6981(11) 0.054(3) Uani 1 1 d . . .
C12 C 0.5004(6) 0.1437(4) 0.2996(9) 0.044(2) Uiso 1 1 d . . .
C13 C 0.6086(8) 0.0625(4) 0.7893(12) 0.058(4) Uani 1 1 d . . .
C14 C 0.7770(7) -0.1242(5) 0.7284(10) 0.056(3) Uiso 1 1 d . . .
O4 O 0.5689(5) 0.0793(4) 0.6935(7) 0.059(2) Uani 1 1 d . . .
C16 C 0.8411(7) -0.2145(5) 0.6887(10) 0.057(3) Uiso 1 1 d . . .
C18 C 0.7423(7) -0.0789(6) 0.7681(11) 0.064(3) Uiso 1 1 d . . .
C19 C 0.5178(7) 0.0931(6) 0.3700(10) 0.063(3) Uiso 1 1 d . . .
H1 H 0.5325 0.0565 0.3500 0.076 Uiso 1 1 calc R . .
C20 C 0.7890(8) -0.1830(6) 0.5829(12) 0.068(3) Uiso 1 1 d . . .
H2 H 0.7804 -0.1922 0.5141 0.082 Uiso 1 1 calc R . .
C25 C 0.5135(8) 0.0964(7) 0.4702(12) 0.078(4) Uiso 1 1 d . . .
H3 H 0.5319 0.0634 0.5157 0.093 Uiso 1 1 calc R . .
C26 C 0.7179(9) -0.0241(7) 0.9026(14) 0.090(5) Uiso 1 1 d . . .
H4 H 0.7209 -0.0170 0.9697 0.108 Uiso 1 1 calc R . .
C27 C 0.7591(8) -0.0732(6) 0.8715(12) 0.070(3) Uiso 1 1 d . . .
H5 H 0.7960 -0.0998 0.9219 0.084 Uiso 1 1 calc R . .
C29 C 0.4707(9) 0.1948(7) 0.3431(13) 0.083(4) Uiso 1 1 d . . .
H6 H 0.4630 0.2327 0.3114 0.099 Uiso 1 1 calc R . .
C30 C 0.7560(9) -0.1318(6) 0.6272(13) 0.080(4) Uiso 1 1 d . . .
H7 H 0.7186 -0.1043 0.5796 0.096 Uiso 1 1 calc R . .
C33 C 0.4544(11) 0.1868(8) 0.4299(15) 0.107(5) Uiso 1 1 d . . .
H8 H 0.4188 0.2145 0.4405 0.129 Uiso 1 1 calc R . .

loop_
_atom_site_aniso_label
_atom_site_aniso_U_11
_atom_site_aniso_U_22
_atom_site_aniso_U_33
_atom_site_aniso_U_23
_atom_site_aniso_U_13
_atom_site_aniso_U_12
Zn1 0.0503(7) 0.0317(7) 0.0607(11) -0.0025(5) 0.0343(7) -0.0010(5)
S2 0.0717(19) 0.0546(17) 0.068(2) 0.0024(16) 0.0315(18) 0.0220(15)
S3 0.0628(17) 0.0454(15) 0.071(3) 0.0046(15) 0.0325(18) 0.0135(14)
N1 0.064(5) 0.033(4) 0.071(7) 0.011(4) 0.048(5) 0.022(4)
O1 0.055(4) 0.042(4) 0.057(6) -0.004(4) 0.017(4) 0.010(3)
O2 0.065(5) 0.050(5) 0.065(6) -0.001(4) 0.027(4) 0.016(4)
O3 0.078(5) 0.032(4) 0.082(7) 0.004(4) 0.051(5) 0.009(3)
C10 0.059(6) 0.054(7) 0.063(10) -0.026(6) 0.039(7) -0.010(5)
C13 0.079(8) 0.027(5) 0.096(12) -0.031(6) 0.064(9) -0.021(5)
O4 0.081(5) 0.069(5) 0.035(5) 0.008(4) 0.033(4) 0.017(4)

_geom_special_details            
;
All esds (except the esd in the dihedral angle between two l.s. planes)
are estimated using the full covariance matrix. The cell esds are taken
into account individually in the estimation of esds in distances, angles
and torsion angles; correlations between esds in cell parameters are only
used when they are defined by crystal symmetry. An approximate (isotropic)
treatment of cell esds is used for estimating esds involving l.s. planes.
;

loop_
_geom_bond_atom_site_label_1
_geom_bond_atom_site_label_2
_geom_bond_distance
_geom_bond_site_symmetry_2
_geom_bond_publ_flag
Zn1 N1 1.963(10) . ?
Zn1 O4 2.003(8) . ?
Zn1 O3 2.013(8) 4_656 ?
Zn1 O1 2.025(7) 3_455 ?
Zn1 O2 2.047(7) 2_656 ?
Zn1 Zn1 2.951(3) 2_656 ?
S2 C16 1.700(13) . ?
S2 C14 1.682(12) . ?
S3 C8 1.704(12) . ?
S3 C18 1.677(13) . ?
N1 C25 1.271(15) . ?
N1 C33 1.317(19) . ?
O1 C10 1.256(13) . ?
O1 Zn1 2.025(7) 3_545 ?
O2 C13 1.357(14) . ?
O2 Zn1 2.048(7) 2_656 ?
C8 C26 1.353(19) . ?
C8 C13 1.592(15) . ?
O3 C10 1.347(15) . ?
O3 Zn1 2.013(8) 4_646 ?
C10 C16 1.521(15) . ?
C12 C12 1.38(2) 2_655 ?
C12 C19 1.433(15) . ?
C12 C29 1.482(16) . ?
C13 O4 1.269(15) . ?
C14 C30 1.312(19) . ?
C14 C18 1.406(18) . ?
C16 C20 1.528(18) . ?
C18 C27 1.351(18) . ?
C19 C25 1.439(18) . ?
C19 H1 0.9300 . ?
C20 C30 1.521(19) . ?
C20 H2 0.9300 . ?
C25 H3 0.9300 . ?
C26 C27 1.472(18) . ?
C26 H4 0.9300 . ?
C27 H5 0.9300 . ?
C29 C33 1.38(2) . ?
C29 H6 0.9300 . ?
C30 H7 0.9300 . ?
C33 H8 0.9300 . ?

loop_
_geom_angle_atom_site_label_1
_geom_angle_atom_site_label_2
_geom_angle_atom_site_label_3
_geom_angle
_geom_angle_site_symmetry_1
_geom_angle_site_symmetry_3
_geom_angle_publ_flag
N1 Zn1 O4 91.2(3) . . ?
N1 Zn1 O3 95.4(4) . 4_656 ?
O4 Zn1 O3 91.3(4) . 4_656 ?
N1 Zn1 O1 102.7(3) . 3_455 ?
O4 Zn1 O1 166.0(4) . 3_455 ?
O3 Zn1 O1 86.3(3) 4_656 3_455 ?
N1 Zn1 O2 102.4(4) . 2_656 ?
O4 Zn1 O2 86.9(3) . 2_656 ?
O3 Zn1 O2 162.1(4) 4_656 2_656 ?
O1 Zn1 O2 91.2(3) 3_455 2_656 ?
N1 Zn1 Zn1 165.4(3) . 2_656 ?
O4 Zn1 Zn1 78.0(2) . 2_656 ?
O3 Zn1 Zn1 75.3(3) 4_656 2_656 ?
O1 Zn1 Zn1 88.1(2) 3_455 2_656 ?
O2 Zn1 Zn1 86.9(3) 2_656 2_656 ?
C16 S2 C14 93.8(6) . . ?
C8 S3 C18 94.9(7) . . ?
C25 N1 C33 117.2(14) . . ?
C25 N1 Zn1 120.9(9) . . ?
C33 N1 Zn1 121.7(10) . . ?
C10 O1 Zn1 115.1(8) . 3_545 ?
C13 O2 Zn1 112.7(7) . 2_656 ?
C26 C8 C13 131.3(13) . . ?
C26 C8 S3 113.6(10) . . ?
C13 C8 S3 114.2(9) . . ?
C10 O3 Zn1 129.7(7) . 4_646 ?
O1 C10 O3 131.7(11) . . ?
O1 C10 C16 115.9(12) . . ?
O3 C10 C16 111.5(9) . . ?
C12 C12 C19 126.7(7) 2_655 . ?
C12 C12 C29 124.1(9) 2_655 . ?
C19 C12 C29 108.7(11) . . ?
O4 C13 O2 135.1(10) . . ?
O4 C13 C8 117.2(10) . . ?
O2 C13 C8 107.6(11) . . ?
C30 C14 C18 123.5(14) . . ?
C30 C14 S2 109.4(11) . . ?
C18 C14 S2 126.6(11) . . ?
C13 O4 Zn1 127.2(7) . . ?
C10 C16 C20 123.1(11) . . ?
C10 C16 S2 120.8(9) . . ?
C20 C16 S2 116.1(9) . . ?
C27 C18 C14 124.0(13) . . ?
C27 C18 S3 106.9(11) . . ?
C14 C18 S3 129.0(11) . . ?
C12 C19 C25 123.1(12) . . ?
C12 C19 H1 118.4 . . ?
C25 C19 H1 118.4 . . ?
C30 C20 C16 96.7(12) . . ?
C30 C20 H2 131.7 . . ?
C16 C20 H2 131.7 . . ?
N1 C25 C19 122.7(14) . . ?
N1 C25 H3 118.6 . . ?
C19 C25 H3 118.6 . . ?
C8 C26 C27 105.7(15) . . ?
C8 C26 H4 127.2 . . ?
C27 C26 H4 127.2 . . ?
C18 C27 C26 118.7(14) . . ?
C18 C27 H5 120.7 . . ?
C26 C27 H5 120.7 . . ?
C33 C29 C12 120.7(14) . . ?
C33 C29 H6 119.7 . . ?
C12 C29 H6 119.7 . . ?
C14 C30 C20 123.9(14) . . ?
C14 C30 H7 118.0 . . ?
C20 C30 H7 118.0 . . ?
N1 C33 C29 124.4(16) . . ?
N1 C33 H8 117.8 . . ?
C29 C33 H8 117.8 . . ?

_diffrn_measured_fraction_theta_max 0.981
_diffrn_reflns_theta_full        27.49
_diffrn_measured_fraction_theta_full 0.981
_refine_diff_density_max         2.638
_refine_diff_density_min         -2.885
_refine_diff_density_rms         0.244

#==============================================================================

# End of CIF

#==============================================================================


