####################################################################### 
# 
# This file contains crystal structure data downloaded from the 
# Cambridge Structural Database (CSD) hosted by the Cambridge 
# Crystallographic Data Centre (CCDC).
# 
# Full information about CCDC data access policies and citation 
# guidelines are available at http://www.ccdc.cam.ac.uk/access/V1 
# 
# Audit and citation data items may have been added by the CCDC. 
# Please retain this information to preserve the provenance of 
# this file and to allow appropriate attribution of the data. 
# 
#######################################################################

data_DyNi
_audit_block_doi                 10.5517/cc6d1h3
_database_code_depnum_ccdc_archive 'CCDC 190324'
loop_
_citation_id
_citation_doi
_citation_year
1 10.1021/ic026271n 2003
_audit_update_record             
;
2002-07-20 deposited with the CCDC.	2024-07-10 downloaded from the CCDC.
;

_audit_creation_method           SHELXL-97
_chemical_name_systematic        
;
?
;
_chemical_name_common            ?
_chemical_melting_point          ?
_chemical_formula_moiety         ?
_chemical_formula_sum            'C80 H92 Cl3 Dy N25 Ni2 O25'
_chemical_formula_weight         2190.06

loop_
_atom_type_symbol
_atom_type_description
_atom_type_scat_dispersion_real
_atom_type_scat_dispersion_imag
_atom_type_scat_source
C C 0.0033 0.0016 'International Tables Vol C Tables 4.2.6.8 and 6.1.1.4'
H H 0.0000 0.0000 'International Tables Vol C Tables 4.2.6.8 and 6.1.1.4'
N N 0.0061 0.0033 'International Tables Vol C Tables 4.2.6.8 and 6.1.1.4'
O O 0.0106 0.0060 'International Tables Vol C Tables 4.2.6.8 and 6.1.1.4'
Cl Cl 0.1484 0.1585 'International Tables Vol C Tables 4.2.6.8 and 6.1.1.4'
Ni Ni 0.3393 1.1124 'International Tables Vol C Tables 4.2.6.8 and 6.1.1.4'
Dy Dy -0.1892 4.4098 'International Tables Vol C Tables 4.2.6.8 and 6.1.1.4'

_symmetry_cell_setting           triclinic
_symmetry_space_group_name_H-M   'P -1'

loop_
_symmetry_equiv_pos_as_xyz
'x, y, z'
'-x, -y, -z'

_cell_length_a                   12.6146(4)
_cell_length_b                   13.8847(5)
_cell_length_c                   30.3707(12)
_cell_angle_alpha                91.9936(18)
_cell_angle_beta                 91.837(2)
_cell_angle_gamma                91.4112(12)
_cell_volume                     5311.7(3)
_cell_formula_units_Z            2
_cell_measurement_temperature    180(2)
_cell_measurement_reflns_used    49192
_cell_measurement_theta_min      3.40
_cell_measurement_theta_max      25.05

_exptl_crystal_description       block
_exptl_crystal_colour            'brownish red'
_exptl_crystal_size_max          0.5
_exptl_crystal_size_mid          0.3
_exptl_crystal_size_min          0.06
_exptl_crystal_density_meas      ?
_exptl_crystal_density_diffrn    1.369
_exptl_crystal_density_method    'not measured'
_exptl_crystal_F_000             2240
_exptl_absorpt_coefficient_mu    1.199
_exptl_absorpt_correction_type   empirical
_exptl_absorpt_correction_T_min  0.667
_exptl_absorpt_correction_T_max  0.936
_exptl_absorpt_process_details   '(Blessing, 1995, 1997)'

_exptl_special_details           
;
?
;

_diffrn_ambient_temperature      180(2)
_diffrn_radiation_wavelength     0.71073
_diffrn_radiation_type           MoK\a
_diffrn_radiation_source         'fine-focus sealed tube'
_diffrn_radiation_monochromator  graphite
_diffrn_measurement_device_type  ?
_diffrn_measurement_method       ?
_diffrn_detector_area_resol_mean ?
_diffrn_standards_number         ?
_diffrn_standards_interval_count ?
_diffrn_standards_interval_time  ?
_diffrn_standards_decay_%        ?
_diffrn_reflns_number            49192
_diffrn_reflns_av_R_equivalents  0.0891
_diffrn_reflns_av_sigmaI/netI    0.0989
_diffrn_reflns_limit_h_min       -14
_diffrn_reflns_limit_h_max       14
_diffrn_reflns_limit_k_min       -16
_diffrn_reflns_limit_k_max       16
_diffrn_reflns_limit_l_min       -36
_diffrn_reflns_limit_l_max       36
_diffrn_reflns_theta_min         3.40
_diffrn_reflns_theta_max         25.05
_reflns_number_total             17658
_reflns_number_gt                11346
_reflns_threshold_expression     >2sigma(I)

_computing_data_collection       'KappaCCD (Nonius B. V., 1998)'
_computing_cell_refinement       'HKL Scalepack (Otwinowski & Minor, 1997)'
_computing_data_reduction        
'HKL Denzo (Otwinowski & Minor, 1997) & maXus (Mackay et al., 1998)'
_computing_structure_solution    'SHELXS-97 (Sheldrick, 1997)'
_computing_structure_refinement  'SHELXL-97 (Sheldrick, 1997)'
_computing_molecular_graphics    'Bruker SHELXTL V5.1 (Sheldrick, 1998)'
_computing_publication_material  'SHELXL-97 (Sheldrick, 1997)'

_refine_special_details          
;
Refinement of F^2^ against ALL reflections.  The weighted R-factor wR and
goodness of fit S are based on F^2^, conventional R-factors R are based
on F, with F set to zero for negative F^2^. The threshold expression of
F^2^ > 2sigma(F^2^) is used only for calculating R-factors(gt) etc. and is
not relevant to the choice of reflections for refinement.  R-factors based
on F^2^ are statistically about twice as large as those based on F, and R-
factors based on ALL data will be even larger.
;

_refine_ls_structure_factor_coef Fsqd
_refine_ls_matrix_type           full
_refine_ls_weighting_scheme      calc
_refine_ls_weighting_details     
'calc w=1/[\s^2^(Fo^2^)+(0.1667P)^2^+35.1770P] where P=(Fo^2^+2Fc^2^)/3'
_atom_sites_solution_primary     direct
_atom_sites_solution_secondary   difmap
_atom_sites_solution_hydrogens   geom
_refine_ls_hydrogen_treatment    mixed
_refine_ls_extinction_method     none
_refine_ls_extinction_coef       ?
_refine_ls_number_reflns         17658
_refine_ls_number_parameters     1109
_refine_ls_number_restraints     30
_refine_ls_R_factor_all          0.1696
_refine_ls_R_factor_gt           0.1160
_refine_ls_wR_factor_ref         0.3362
_refine_ls_wR_factor_gt          0.3012
_refine_ls_goodness_of_fit_ref   1.099
_refine_ls_restrained_S_all      1.099
_refine_ls_shift/su_max          0.010
_refine_ls_shift/su_mean         0.000

loop_
_atom_site_label
_atom_site_type_symbol
_atom_site_fract_x
_atom_site_fract_y
_atom_site_fract_z
_atom_site_U_iso_or_equiv
_atom_site_adp_type
_atom_site_occupancy
_atom_site_symmetry_multiplicity
_atom_site_calc_flag
_atom_site_refinement_flags
_atom_site_disorder_assembly
_atom_site_disorder_group
Dy1 Dy 1.22887(6) 1.00696(4) 1.255332(18) 0.0561(3) Uani 1 1 d . . .
Ni1 Ni 0.79651(13) 1.36681(10) 1.47550(5) 0.0483(4) Uani 1 1 d . . .
Ni2 Ni 0.80857(13) 0.63411(11) 1.01902(5) 0.0525(4) Uani 1 1 d . . .
C1 C 0.7960(11) 1.5533(11) 1.4212(4) 0.064(4) Uani 1 1 d . . .
H1A H 0.7641 1.5159 1.3982 0.076 Uiso 1 1 calc R . .
C2 C 0.8172(13) 1.6512(11) 1.4150(5) 0.077(4) Uani 1 1 d . . .
H2A H 0.8028 1.6782 1.3879 0.093 Uiso 1 1 calc R . .
C3 C 0.8598(12) 1.7067(10) 1.4498(5) 0.071(4) Uani 1 1 d . . .
H3A H 0.8711 1.7726 1.4470 0.085 Uiso 1 1 calc R . .
C4 C 0.8861(11) 1.6637(9) 1.4893(5) 0.061(3) Uani 1 1 d . . .
H4A H 0.9165 1.7001 1.5129 0.073 Uiso 1 1 calc R . .
C5 C 0.8660(10) 1.5655(8) 1.4928(4) 0.048(3) Uani 1 1 d . . .
C6 C 0.8925(10) 1.5145(9) 1.5314(4) 0.052(3) Uani 1 1 d . . .
H6A H 0.9249 1.5446 1.5564 0.063 Uiso 1 1 calc R . .
C7 C 0.8510(11) 1.2769(9) 1.5523(4) 0.054(3) Uani 1 1 d . . .
C8 C 0.8652(12) 1.2017(9) 1.5875(4) 0.058(3) Uani 1 1 d . . .
C9 C 0.9152(15) 1.2207(11) 1.6251(5) 0.089(6) Uani 1 1 d . . .
H9A H 0.9477 1.2810 1.6304 0.107 Uiso 1 1 calc R . .
C10 C 0.9208(17) 1.1503(11) 1.6582(5) 0.099(6) Uani 1 1 d . . .
H10A H 0.9605 1.1623 1.6843 0.119 Uiso 1 1 calc R . .
C11 C 0.8229(17) 1.0477(10) 1.6116(5) 0.096(6) Uani 1 1 d . . .
H11A H 0.7937 0.9862 1.6057 0.115 Uiso 1 1 calc R . .
C12 C 0.8186(15) 1.1124(10) 1.5810(5) 0.081(5) Uani 1 1 d . . .
H12A H 0.7829 1.0970 1.5543 0.098 Uiso 1 1 calc R . .
C13 C 0.6033(11) 1.4104(9) 1.5345(4) 0.058(3) Uani 1 1 d . . .
H13A H 0.6528 1.4348 1.5556 0.069 Uiso 1 1 calc R . .
C14 C 0.4957(14) 1.4077(10) 1.5439(5) 0.076(4) Uani 1 1 d . . .
H14A H 0.4723 1.4288 1.5712 0.091 Uiso 1 1 calc R . .
C15 C 0.4260(12) 1.3730(11) 1.5114(5) 0.072(4) Uani 1 1 d . . .
H15A H 0.3539 1.3686 1.5170 0.086 Uiso 1 1 calc R . .
C16 C 0.4607(13) 1.3445(11) 1.4708(5) 0.072(4) Uani 1 1 d . . .
H16A H 0.4130 1.3248 1.4481 0.087 Uiso 1 1 calc R . .
C17 C 0.5681(11) 1.3460(9) 1.4647(4) 0.055(3) Uani 1 1 d . . .
C18 C 0.6131(12) 1.3131(10) 1.4236(4) 0.064(4) Uani 1 1 d . . .
H18A H 0.5702 1.2942 1.3992 0.077 Uiso 1 1 calc R . .
C19 C 0.8742(11) 1.2837(8) 1.3981(4) 0.054(3) Uani 1 1 d . . .
C20 C 0.9446(12) 1.2458(8) 1.3635(4) 0.056(3) Uani 1 1 d . . .
C21 C 0.9054(14) 1.1941(13) 1.3265(5) 0.087(5) Uani 1 1 d . . .
H21A H 0.8326 1.1840 1.3226 0.105 Uiso 1 1 calc R . .
C22 C 0.9704(15) 1.1581(14) 1.2961(6) 0.097(6) Uani 1 1 d . . .
H22A H 0.9423 1.1211 1.2722 0.117 Uiso 1 1 calc R . .
C23 C 1.1152(12) 1.2221(9) 1.3362(4) 0.060(4) Uani 1 1 d . . .
H23A H 1.1883 1.2313 1.3395 0.072 Uiso 1 1 calc R . .
C24 C 1.0546(12) 1.2554(8) 1.3674(4) 0.058(3) Uani 1 1 d . . .
H24A H 1.0857 1.2860 1.3924 0.069 Uiso 1 1 calc R . .
C25 C 0.6157(14) 0.5834(11) 0.9550(5) 0.075(4) Uani 1 1 d . . .
H25A H 0.6633 0.5584 0.9351 0.090 Uiso 1 1 calc R . .
C26 C 0.5032(16) 0.5871(12) 0.9433(6) 0.086(5) Uani 1 1 d . . .
H26A H 0.4785 0.5685 0.9151 0.103 Uiso 1 1 calc R . .
C27 C 0.4352(16) 0.6175(13) 0.9737(7) 0.094(6) Uani 1 1 d . . .
H27A H 0.3629 0.6182 0.9669 0.113 Uiso 1 1 calc R . .
C28 C 0.4726(15) 0.6468(12) 1.0138(6) 0.090(5) Uani 1 1 d . . .
H28A H 0.4258 0.6689 1.0347 0.108 Uiso 1 1 calc R . .
C29 C 0.5808(13) 0.6445(10) 1.0246(5) 0.067(4) Uani 1 1 d . . .
C30 C 0.6229(14) 0.6809(12) 1.0656(5) 0.080(5) Uani 1 1 d . . .
H30A H 0.5800 0.6999 1.0885 0.096 Uiso 1 1 calc R . .
C31 C 0.8845(11) 0.7174(8) 1.0999(4) 0.049(3) Uani 1 1 d . . .
C32 C 0.9484(14) 0.7569(9) 1.1377(4) 0.065(4) Uani 1 1 d . . .
C33 C 1.0595(14) 0.7561(10) 1.1358(5) 0.071(4) Uani 1 1 d . . .
H33A H 1.0919 0.7313 1.1109 0.086 Uiso 1 1 calc R . .
C34 C 1.1207(14) 0.7937(10) 1.1722(5) 0.076(4) Uani 1 1 d . . .
H34A H 1.1942 0.7944 1.1706 0.091 Uiso 1 1 calc R . .
C35 C 0.977(2) 0.8279(12) 1.2102(5) 0.094(6) Uani 1 1 d . . .
H35A H 0.9470 0.8534 1.2355 0.113 Uiso 1 1 calc R . .
C36 C 0.9075(16) 0.7920(12) 1.1762(5) 0.086(5) Uani 1 1 d . . .
H36A H 0.8346 0.7919 1.1797 0.103 Uiso 1 1 calc R . .
C37 C 0.8127(12) 0.4520(11) 1.0759(5) 0.070(4) Uani 1 1 d . . .
H37A H 0.7871 0.4905 1.0986 0.084 Uiso 1 1 calc R . .
C38 C 0.8312(14) 0.3568(12) 1.0829(6) 0.083(5) Uani 1 1 d . . .
H38A H 0.8212 0.3320 1.1106 0.100 Uiso 1 1 calc R . .
C39 C 0.8637(12) 0.2994(11) 1.0499(5) 0.069(4) Uani 1 1 d . . .
H39A H 0.8752 0.2346 1.0544 0.083 Uiso 1 1 calc R . .
C40 C 0.8801(12) 0.3370(9) 1.0094(5) 0.066(4) Uani 1 1 d . . .
H40A H 0.9012 0.2979 0.9859 0.079 Uiso 1 1 calc R . .
C41 C 0.8642(11) 0.4361(9) 1.0041(4) 0.058(3) Uani 1 1 d . . .
C42 C 0.8883(10) 0.4856(9) 0.9637(4) 0.052(3) Uani 1 1 d . . .
H42A H 0.9123 0.4536 0.9386 0.062 Uiso 1 1 calc R . .
C43 C 0.8599(11) 0.7201(9) 0.9416(4) 0.055(3) Uani 1 1 d . . .
C44 C 0.8721(10) 0.7915(9) 0.9061(4) 0.051(3) Uani 1 1 d . . .
C45 C 0.9109(12) 0.7687(10) 0.8663(4) 0.068(4) Uani 1 1 d . . .
H45A H 0.9380 0.7078 0.8611 0.082 Uiso 1 1 calc R . .
C46 C 0.9109(15) 0.8348(11) 0.8330(4) 0.083(5) Uani 1 1 d . . .
H46A H 0.9345 0.8166 0.8053 0.099 Uiso 1 1 calc R . .
C47 C 0.8409(14) 0.9507(10) 0.8794(4) 0.075(4) Uani 1 1 d . . .
H47A H 0.8177 1.0132 0.8841 0.090 Uiso 1 1 calc R . .
C48 C 0.8374(14) 0.8853(10) 0.9130(5) 0.073(4) Uani 1 1 d . . .
H48A H 0.8118 0.9042 0.9403 0.088 Uiso 1 1 calc R . .
C49 C 1.3309(15) 1.2184(11) 1.2262(6) 0.087(5) Uani 1 1 d . . .
H49A H 1.3185 1.2368 1.2553 0.104 Uiso 1 1 calc R . .
C50 C 1.399(2) 1.2578(17) 1.1567(7) 0.136(9) Uani 1 1 d . . .
H50A H 1.3721 1.1942 1.1486 0.203 Uiso 1 1 calc R . .
H50B H 1.4748 1.2599 1.1543 0.203 Uiso 1 1 calc R . .
H50C H 1.3682 1.3034 1.1373 0.203 Uiso 1 1 calc R . .
C51 C 1.406(3) 1.3775(18) 1.2173(9) 0.197(16) Uani 1 1 d . . .
H51A H 1.3835 1.3868 1.2471 0.295 Uiso 1 1 calc R . .
H51B H 1.3740 1.4248 1.1991 0.295 Uiso 1 1 calc R . .
H51C H 1.4816 1.3841 1.2167 0.295 Uiso 1 1 calc R . .
C52 C 1.3346(19) 0.8028(14) 1.2873(6) 0.107(6) Uani 1 1 d . . .
H52 H 1.3144 0.7838 1.2585 0.128 Uiso 1 1 calc R . .
C53 C 1.415(3) 0.765(3) 1.3546(8) 0.217(19) Uani 1 1 d . . .
H53A H 1.3944 0.8293 1.3621 0.325 Uiso 1 1 calc R . .
H53B H 1.4912 0.7614 1.3574 0.325 Uiso 1 1 calc R . .
H53C H 1.3832 0.7207 1.3741 0.325 Uiso 1 1 calc R . .
C54 C 1.406(3) 0.6423(19) 1.2922(10) 0.215(18) Uani 1 1 d . . .
H54A H 1.3771 0.6346 1.2626 0.323 Uiso 1 1 calc R . .
H54B H 1.3749 0.5943 1.3102 0.323 Uiso 1 1 calc R . .
H54C H 1.4815 0.6349 1.2920 0.323 Uiso 1 1 calc R . .
C55 C 1.427(3) 1.071(2) 1.3267(11) 0.23(2) Uani 1 1 d . . .
H55 H 1.3961 1.0427 1.3506 0.276 Uiso 1 1 calc R . .
C56 C 1.583(2) 1.0657(19) 1.3715(10) 0.182(14) Uani 1 1 d . . .
H56A H 1.5436 1.0475 1.3966 0.273 Uiso 1 1 calc R . .
H56B H 1.6217 1.1249 1.3784 0.273 Uiso 1 1 calc R . .
H56C H 1.6315 1.0160 1.3641 0.273 Uiso 1 1 calc R . .
C57 C 1.574(6) 1.114(9) 1.2966(16) 0.68(7) Uani 1 1 d . . .
H57A H 1.5256 1.1229 1.2723 1.015 Uiso 1 1 calc R . .
H57B H 1.6250 1.0664 1.2883 1.015 Uiso 1 1 calc R . .
H57C H 1.6107 1.1734 1.3047 1.015 Uiso 1 1 calc R . .
C58 C 1.407(3) 0.937(3) 1.1873(10) 0.197(18) Uani 1 1 d . . .
H58 H 1.3734 0.9568 1.1615 0.237 Uiso 1 1 calc R . .
C59 C 1.548(6) 0.837(7) 1.207(2) 0.53(7) Uani 1 1 d . . .
H59A H 1.5049 0.8253 1.2312 0.790 Uiso 1 1 calc R . .
H59B H 1.6192 0.8543 1.2169 0.790 Uiso 1 1 calc R . .
H59C H 1.5498 0.7794 1.1880 0.790 Uiso 1 1 calc R . .
C60 C 1.579(4) 0.940(4) 1.1410(16) 0.30(2) Uiso 1 1 d . . .
H60A H 1.5477 0.9873 1.1228 0.452 Uiso 1 1 calc R . .
H60B H 1.5882 0.8815 1.1237 0.452 Uiso 1 1 calc R . .
H60C H 1.6466 0.9633 1.1527 0.452 Uiso 1 1 calc R . .
N1 N 0.8196(8) 1.5129(7) 1.4582(3) 0.054(3) Uani 1 1 d . . .
N2 N 0.8684(8) 1.4239(7) 1.5293(3) 0.051(2) Uani 1 1 d . . .
N3 N 0.8879(9) 1.3647(7) 1.5643(3) 0.055(3) Uani 1 1 d . . .
N4 N 0.8690(11) 1.0696(8) 1.6509(4) 0.073(3) Uani 1 1 d . . .
N5 N 0.6338(10) 1.3800(8) 1.4975(4) 0.074(4) Uani 1 1 d . . .
N6 N 0.7150(10) 1.3113(8) 1.4225(3) 0.062(3) Uani 1 1 d . . .
N7 N 0.7695(9) 1.2749(7) 1.3880(3) 0.057(3) Uani 1 1 d . . .
N8 N 1.0747(11) 1.1752(7) 1.3000(3) 0.064(3) Uani 1 1 d . . .
N9 N 0.6480(10) 0.6156(8) 0.9938(4) 0.069(3) Uani 1 1 d . . .
N10 N 0.7281(10) 0.6860(8) 1.0692(4) 0.065(3) Uani 1 1 d . . .
N11 N 0.7811(11) 0.7214(8) 1.1065(3) 0.069(3) Uani 1 1 d . . .
N12 N 1.0789(13) 0.8280(8) 1.2087(4) 0.071(4) Uani 1 1 d . . .
N13 N 0.8303(8) 0.4900(7) 1.0376(3) 0.052(3) Uani 1 1 d . . .
N14 N 0.8738(8) 0.5752(7) 0.9657(3) 0.053(3) Uani 1 1 d . . .
N15 N 0.8865(8) 0.6344(7) 0.9301(3) 0.052(3) Uani 1 1 d . . .
N16 N 0.8778(11) 0.9230(8) 0.8402(3) 0.066(3) Uani 1 1 d . . .
N17 N 1.513(2) 1.0784(14) 1.3359(9) 0.166(11) Uani 1 1 d . . .
N18 N 1.3819(16) 0.7405(13) 1.3104(6) 0.129(6) Uani 1 1 d . . .
N19 N 1.5033(19) 0.9178(15) 1.1804(8) 0.146(9) Uani 1 1 d . . .
N20 N 1.3725(14) 1.2816(11) 1.2008(5) 0.110(6) Uani 1 1 d . . .
O1 O 0.8115(8) 1.2479(6) 1.5152(2) 0.061(2) Uani 1 1 d . . .
O2 O 0.8708(10) 1.0041(7) 1.6817(3) 0.083(3) Uani 1 1 d . . .
O3 O 0.9155(7) 1.3218(6) 1.4334(3) 0.054(2) Uani 1 1 d . . .
O4 O 1.1354(9) 1.1475(6) 1.2677(3) 0.074(3) Uani 1 1 d . . .
O5 O 0.9251(7) 0.6849(6) 1.0660(2) 0.055(2) Uani 1 1 d . . .
O6 O 1.1340(10) 0.8613(7) 1.2425(3) 0.084(3) Uani 1 1 d . . .
O7 O 0.8291(7) 0.7498(6) 0.9785(3) 0.058(2) Uani 1 1 d . . .
O8 O 0.8775(9) 0.9877(6) 0.8092(3) 0.070(3) Uani 1 1 d . . .
O9 O 1.3068(8) 1.1344(7) 1.2132(3) 0.067(3) Uani 1 1 d . . .
O10 O 1.3138(8) 0.8836(8) 1.2991(3) 0.073(3) Uani 1 1 d . . .
O11 O 1.3593(11) 1.0813(8) 1.3022(4) 0.105(4) Uani 1 1 d . . .
O12 O 1.3579(12) 0.9364(9) 1.2109(5) 0.108(5) Uani 1 1 d . . .
Cl1 Cl 1.6612(5) 1.6029(4) 0.63946(16) 0.1023(15) Uani 1 1 d D . .
O13 O 1.6190(12) 1.6976(9) 0.6420(5) 0.153(6) Uani 1 1 d D . .
O14 O 1.7346(11) 1.5968(13) 0.6053(4) 0.153(7) Uani 1 1 d D . .
O15 O 1.5793(12) 1.5359(10) 0.6303(4) 0.151(7) Uani 1 1 d D . .
O16 O 1.7123(15) 1.5911(12) 0.6810(4) 0.179(8) Uani 1 1 d D . .
Cl2 Cl 0.6467(5) 0.3668(4) 0.85993(18) 0.1121(16) Uani 1 1 d D . .
O17 O 0.5684(19) 0.4357(16) 0.8646(7) 0.258(15) Uani 1 1 d D . .
O18 O 0.6784(14) 0.3514(14) 0.8170(4) 0.171(7) Uani 1 1 d D . .
O19 O 0.600(2) 0.2765(16) 0.8737(8) 0.555(18) Uani 1 1 d D . .
O20 O 0.7321(13) 0.3879(19) 0.8895(6) 0.249(15) Uani 1 1 d D . .
Cl3 Cl 1.2125(10) 1.1328(9) 1.6800(3) 0.203(4) Uani 1 1 d D . .
O21 O 1.184(3) 1.109(3) 1.6345(6) 0.56(5) Uani 1 1 d D . .
O22 O 1.190(2) 1.0547(17) 1.7056(10) 0.37(3) Uani 1 1 d D . .
O23 O 1.144(2) 1.2119(16) 1.6916(10) 0.274(17) Uani 1 1 d D . .
O24 O 1.3168(15) 1.166(2) 1.6820(12) 0.38(3) Uani 1 1 d D . .
C67 C 1.277(3) 0.825(2) 0.8146(10) 0.37(5) Uani 1 1 d G . .
H67A H 1.3156 0.7765 0.8017 0.447 Uiso 1 1 calc R . .
C68 C 1.218(3) 0.886(2) 0.7884(8) 1.03(16) Uani 1 1 d G . .
H68A H 1.2178 0.8778 0.7578 1.231 Uiso 1 1 calc R . .
C69 C 1.160(2) 0.959(2) 0.8077(12) 0.44(7) Uani 1 1 d G . .
H69A H 1.1206 0.9994 0.7902 0.530 Uiso 1 1 calc R . .
C70 C 1.160(2) 0.971(2) 0.8534(12) 0.58(10) Uani 1 1 d G . .
H70A H 1.1211 1.0197 0.8663 0.698 Uiso 1 1 calc R . .
C71 C 1.219(2) 0.910(2) 0.8796(8) 0.29(3) Uani 1 1 d G . .
H71A H 1.2190 0.9184 0.9102 0.345 Uiso 1 1 calc R . .
C72 C 1.277(2) 0.8374(18) 0.8603(9) 0.23(2) Uani 1 1 d G . .
H72A H 1.3162 0.7968 0.8778 0.273 Uiso 1 1 calc R . .
C61 C 0.8561(17) 1.551(2) 1.7932(9) 0.152(18) Uiso 0.50 1 d PG . .
H61A H 0.7829 1.5411 1.7912 0.182 Uiso 0.50 1 calc 