####################################################################### 
# 
# This file contains crystal structure data downloaded from the 
# Cambridge Structural Database (CSD) hosted by the Cambridge 
# Crystallographic Data Centre (CCDC).
# 
# Full information about CCDC data access policies and citation 
# guidelines are available at http://www.ccdc.cam.ac.uk/access/V1 
# 
# Audit and citation data items may have been added by the CCDC. 
# Please retain this information to preserve the provenance of 
# this file and to allow appropriate attribution of the data. 
# 
#######################################################################

data_PCN68
_audit_block_doi                 10.5517/cctp0j0
_database_code_depnum_ccdc_archive 'CCDC 764972'
loop_
_citation_id
_citation_doi
_citation_year
1 10.1002/anie.201001009 2010
_audit_update_record             
;
2010-02-05 deposited with the CCDC.	2024-07-10 downloaded from the CCDC.
;
#TrackingRef '420_web_deposit_cif_file_0_DaqiangYuan_1265345922.cif'


_audit_creation_method           SHELXL-97
_chemical_name_systematic        
;
?
;
_chemical_name_common            ?
_chemical_melting_point          ?
_chemical_formula_moiety         ?
_chemical_formula_sum            'C60 H30 Cu3 O15'
_chemical_formula_weight         1181.46

loop_
_atom_type_symbol
_atom_type_description
_atom_type_scat_dispersion_real
_atom_type_scat_dispersion_imag
_atom_type_scat_source
C C 0.0015 0.0009 'International Tables Vol C Tables 4.2.6.8 and 6.1.1.4'
H H 0.0000 0.0000 'International Tables Vol C Tables 4.2.6.8 and 6.1.1.4'
O O 0.0056 0.0036 'International Tables Vol C Tables 4.2.6.8 and 6.1.1.4'
Cu Cu 0.3240 0.8257 'International Tables Vol C Tables 4.2.6.8 and 6.1.1.4'

_symmetry_cell_setting           cubic
_symmetry_space_group_name_H-M   Fm-3m

loop_
_symmetry_equiv_pos_as_xyz
'x, y, z'
'-y, x, z'
'-x, -y, z'
'y, -x, z'
'x, -z, y'
'x, -y, -z'
'x, z, -y'
'z, y, -x'
'-x, y, -z'
'-z, y, x'
'z, x, y'
'y, z, x'
'-y, -z, x'
'z, -x, -y'
'-y, z, -x'
'-z, -x, y'
'-z, x, -y'
'y, -z, -x'
'y, x, -z'
'-y, -x, -z'
'-x, z, y'
'-x, -z, -y'
'z, -y, x'
'-z, -y, -x'
'x, y+1/2, z+1/2'
'-y, x+1/2, z+1/2'
'-x, -y+1/2, z+1/2'
'y, -x+1/2, z+1/2'
'x, -z+1/2, y+1/2'
'x, -y+1/2, -z+1/2'
'x, z+1/2, -y+1/2'
'z, y+1/2, -x+1/2'
'-x, y+1/2, -z+1/2'
'-z, y+1/2, x+1/2'
'z, x+1/2, y+1/2'
'y, z+1/2, x+1/2'
'-y, -z+1/2, x+1/2'
'z, -x+1/2, -y+1/2'
'-y, z+1/2, -x+1/2'
'-z, -x+1/2, y+1/2'
'-z, x+1/2, -y+1/2'
'y, -z+1/2, -x+1/2'
'y, x+1/2, -z+1/2'
'-y, -x+1/2, -z+1/2'
'-x, z+1/2, y+1/2'
'-x, -z+1/2, -y+1/2'
'z, -y+1/2, x+1/2'
'-z, -y+1/2, -x+1/2'
'x+1/2, y, z+1/2'
'-y+1/2, x, z+1/2'
'-x+1/2, -y, z+1/2'
'y+1/2, -x, z+1/2'
'x+1/2, -z, y+1/2'
'x+1/2, -y, -z+1/2'
'x+1/2, z, -y+1/2'
'z+1/2, y, -x+1/2'
'-x+1/2, y, -z+1/2'
'-z+1/2, y, x+1/2'
'z+1/2, x, y+1/2'
'y+1/2, z, x+1/2'
'-y+1/2, -z, x+1/2'
'z+1/2, -x, -y+1/2'
'-y+1/2, z, -x+1/2'
'-z+1/2, -x, y+1/2'
'-z+1/2, x, -y+1/2'
'y+1/2, -z, -x+1/2'
'y+1/2, x, -z+1/2'
'-y+1/2, -x, -z+1/2'
'-x+1/2, z, y+1/2'
'-x+1/2, -z, -y+1/2'
'z+1/2, -y, x+1/2'
'-z+1/2, -y, -x+1/2'
'x+1/2, y+1/2, z'
'-y+1/2, x+1/2, z'
'-x+1/2, -y+1/2, z'
'y+1/2, -x+1/2, z'
'x+1/2, -z+1/2, y'
'x+1/2, -y+1/2, -z'
'x+1/2, z+1/2, -y'
'z+1/2, y+1/2, -x'
'-x+1/2, y+1/2, -z'
'-z+1/2, y+1/2, x'
'z+1/2, x+1/2, y'
'y+1/2, z+1/2, x'
'-y+1/2, -z+1/2, x'
'z+1/2, -x+1/2, -y'
'-y+1/2, z+1/2, -x'
'-z+1/2, -x+1/2, y'
'-z+1/2, x+1/2, -y'
'y+1/2, -z+1/2, -x'
'y+1/2, x+1/2, -z'
'-y+1/2, -x+1/2, -z'
'-x+1/2, z+1/2, y'
'-x+1/2, -z+1/2, -y'
'z+1/2, -y+1/2, x'
'-z+1/2, -y+1/2, -x'
'-x, -y, -z'
'y, -x, -z'
'x, y, -z'
'-y, x, -z'
'-x, z, -y'
'-x, y, z'
'-x, -z, y'
'-z, -y, x'
'x, -y, z'
'z, -y, -x'
'-z, -x, -y'
'-y, -z, -x'
'y, z, -x'
'-z, x, y'
'y, -z, x'
'z, x, -y'
'z, -x, y'
'-y, z, x'
'-y, -x, z'
'y, x, z'
'x, -z, -y'
'x, z, y'
'-z, y, -x'
'z, y, x'
'-x, -y+1/2, -z+1/2'
'y, -x+1/2, -z+1/2'
'x, y+1/2, -z+1/2'
'-y, x+1/2, -z+1/2'
'-x, z+1/2, -y+1/2'
'-x, y+1/2, z+1/2'
'-x, -z+1/2, y+1/2'
'-z, -y+1/2, x+1/2'
'x, -y+1/2, z+1/2'
'z, -y+1/2, -x+1/2'
'-z, -x+1/2, -y+1/2'
'-y, -z+1/2, -x+1/2'
'y, z+1/2, -x+1/2'
'-z, x+1/2, y+1/2'
'y, -z+1/2, x+1/2'
'z, x+1/2, -y+1/2'
'z, -x+1/2, y+1/2'
'-y, z+1/2, x+1/2'
'-y, -x+1/2, z+1/2'
'y, x+1/2, z+1/2'
'x, -z+1/2, -y+1/2'
'x, z+1/2, y+1/2'
'-z, y+1/2, -x+1/2'
'z, y+1/2, x+1/2'
'-x+1/2, -y, -z+1/2'
'y+1/2, -x, -z+1/2'
'x+1/2, y, -z+1/2'
'-y+1/2, x, -z+1/2'
'-x+1/2, z, -y+1/2'
'-x+1/2, y, z+1/2'
'-x+1/2, -z, y+1/2'
'-z+1/2, -y, x+1/2'
'x+1/2, -y, z+1/2'
'z+1/2, -y, -x+1/2'
'-z+1/2, -x, -y+1/2'
'-y+1/2, -z, -x+1/2'
'y+1/2, z, -x+1/2'
'-z+1/2, x, y+1/2'
'y+1/2, -z, x+1/2'
'z+1/2, x, -y+1/2'
'z+1/2, -x, y+1/2'
'-y+1/2, z, x+1/2'
'-y+1/2, -x, z+1/2'
'y+1/2, x, z+1/2'
'x+1/2, -z, -y+1/2'
'x+1/2, z, y+1/2'
'-z+1/2, y, -x+1/2'
'z+1/2, y, x+1/2'
'-x+1/2, -y+1/2, -z'
'y+1/2, -x+1/2, -z'
'x+1/2, y+1/2, -z'
'-y+1/2, x+1/2, -z'
'-x+1/2, z+1/2, -y'
'-x+1/2, y+1/2, z'
'-x+1/2, -z+1/2, y'
'-z+1/2, -y+1/2, x'
'x+1/2, -y+1/2, z'
'z+1/2, -y+1/2, -x'
'-z+1/2, -x+1/2, -y'
'-y+1/2, -z+1/2, -x'
'y+1/2, z+1/2, -x'
'-z+1/2, x+1/2, y'
'y+1/2, -z+1/2, x'
'z+1/2, x+1/2, -y'
'z+1/2, -x+1/2, y'
'-y+1/2, z+1/2, x'
'-y+1/2, -x+1/2, z'
'y+1/2, x+1/2, z'
'x+1/2, -z+1/2, -y'
'x+1/2, z+1/2, y'
'-z+1/2, y+1/2, -x'
'z+1/2, y+1/2, x'

_cell_length_a                   59.153(6)
_cell_length_b                   59.153(6)
_cell_length_c                   59.153(6)
_cell_angle_alpha                90.00
_cell_angle_beta                 90.00
_cell_angle_gamma                90.00
_cell_volume                     206977(39)
_cell_formula_units_Z            32
_cell_measurement_temperature    150(2)
_cell_measurement_reflns_used    9897
_cell_measurement_theta_min      2.156
_cell_measurement_theta_max      7.856

_exptl_crystal_description       prism
_exptl_crystal_colour            green
_exptl_crystal_size_max          0.03
_exptl_crystal_size_mid          0.02
_exptl_crystal_size_min          0.02
_exptl_crystal_density_meas      ?
_exptl_crystal_density_diffrn    0.303
_exptl_crystal_density_method    'not measured'
_exptl_crystal_F_000             19104
_exptl_absorpt_coefficient_mu    0.137
_exptl_absorpt_correction_type   multi-scan
_exptl_absorpt_correction_T_min  0.9959
_exptl_absorpt_correction_T_max  0.9973
_exptl_absorpt_process_details   sadabs

_exptl_special_details           
;
?
;

_diffrn_ambient_temperature      150(2)
_diffrn_radiation_wavelength     0.41328
_diffrn_radiation_type           'synchrotron radiation'
_diffrn_radiation_source         15ID-B
_diffrn_radiation_monochromator  graphite
_diffrn_measurement_device_type  ?
_diffrn_measurement_method       ?
_diffrn_detector_area_resol_mean ?
_diffrn_reflns_number            189298
_diffrn_reflns_av_R_equivalents  0.2187
_diffrn_reflns_av_sigmaI/netI    0.0315
_diffrn_reflns_limit_h_min       -39
_diffrn_reflns_limit_h_max       39
_diffrn_reflns_limit_k_min       -39
_diffrn_reflns_limit_k_max       39
_diffrn_reflns_limit_l_min       -39
_diffrn_reflns_limit_l_max       39
_diffrn_reflns_theta_min         0.66
_diffrn_reflns_theta_max         7.92
_reflns_number_total             1650
_reflns_number_gt                1395
_reflns_threshold_expression     >2sigma(I)

_computing_data_collection       'APEX2 V2008.4 (Bruker AXS, 2008)'
_computing_cell_refinement       'APEX2 V2008.4 (Bruker AXS, 2008)'
_computing_data_reduction        'APEX2 V2008.4 (Bruker AXS, 2008)'
_computing_structure_solution    'SHELXS-97 (Sheldrick, 2008)'
_computing_structure_refinement  'SHELXL-97 (Sheldrick, 2008)'
_computing_molecular_graphics    ?
_computing_publication_material  ?

_refine_special_details          
;
Refinement of F^2^ against ALL reflections. The weighted R-factor wR and
goodness of fit S are based on F^2^, conventional R-factors R are based
on F, with F set to zero for negative F^2^. The threshold expression of
F^2^ > 2sigma(F^2^) is used only for calculating R-factors(gt) etc. and is
not relevant to the choice of reflections for refinement. R-factors based
on F^2^ are statistically about twice as large as those based on F, and R-
factors based on ALL data will be even larger.
;

_refine_ls_structure_factor_coef Fsqd
_refine_ls_matrix_type           full
_refine_ls_weighting_scheme      calc
_refine_ls_weighting_details     
'calc w=1/[\s^2^(Fo^2^)+(0.1959P)^2^+543.1416P] where P=(Fo^2^+2Fc^2^)/3'
_atom_sites_solution_primary     direct
_atom_sites_solution_secondary   difmap
_atom_sites_solution_hydrogens   geom
_refine_ls_hydrogen_treatment    constr
_refine_ls_extinction_method     none
_refine_ls_extinction_coef       ?
_refine_ls_number_reflns         1650
_refine_ls_number_parameters     137
_refine_ls_number_restraints     146
_refine_ls_R_factor_all          0.1383
_refine_ls_R_factor_gt           0.1227
_refine_ls_wR_factor_ref         0.3490
_refine_ls_wR_factor_gt          0.3300
_refine_ls_goodness_of_fit_ref   1.210
_refine_ls_restrained_S_all      1.187
_refine_ls_shift/su_max          0.034
_refine_ls_shift/su_mean         0.001

# SQUEEZE RESULTS (APPEND TO CIF)
# Note: Data are Listed for all Voids in the P1 Unit Cell
# i.e. Centre of Gravity, Solvent Accessible Volume,
# Recovered number of Electrons in the Void and
# Details about the Squeezed Material
loop_
_platon_squeeze_void_nr
_platon_squeeze_void_average_x
_platon_squeeze_void_average_y
_platon_squeeze_void_average_z
_platon_squeeze_void_volume
_platon_squeeze_void_count_electrons
_platon_squeeze_void_content
1 -0.003 -0.002 -0.006 178979 41652 ' '
_platon_squeeze_details          
;
;

loop_
_atom_site_label
_atom_site_type_symbol
_atom_site_fract_x
_atom_site_fract_y
_atom_site_fract_z
_atom_site_U_iso_or_equiv
_atom_site_adp_type
_atom_site_occupancy
_atom_site_symmetry_multiplicity
_atom_site_calc_flag
_atom_site_refinement_flags
_atom_site_disorder_assembly
_atom_site_disorder_group
Cu1 Cu 0.0000 0.09537(4) 0.09537(4) 0.237(3) Uani 1 4 d S . .
Cu2 Cu 0.0000 0.12700(5) 0.12700(5) 0.274(3) Uani 1 4 d S . .
O1 O 0.0232(2) 0.08177(19) 0.1139(2) 0.246(5) Uani 1 1 d D . .
O2 O 0.0229(2) 0.1080(2) 0.1409(2) 0.276(6) Uani 1 1 d D . .
O3 O 0.0000 0.0687(2) 0.0687(2) 0.284(9) Uani 1 4 d S . .
O4 O 0.0000 0.1560(3) 0.1560(3) 0.351(11) Uani 1 4 d S . .
C1 C 0.0305(3) 0.0901(3) 0.1317(3) 0.229(10) Uani 1 1 d DU . .
C2 C 0.0603(2) 0.0603(2) 0.1332(3) 0.224(9) Uani 1 2 d SDU . .
H2 H 0.0551 0.0551 0.1189 0.269 Uiso 1 2 calc SR . .
C3 C 0.04956(17) 0.07829(19) 0.1431(3) 0.247(8) Uani 1 1 d DU . .
C4 C 0.05679(18) 0.08556(16) 0.1644(3) 0.314(9) Uani 1 1 d DU . .
H4 H 0.0496 0.0980 0.1715 0.377 Uiso 1 1 calc R . .
C5 C 0.07456(19) 0.07456(19) 0.1751(3) 0.375(17) Uani 1 2 d SDU . .
C6 C 0.0820(3) 0.0820(3) 0.1969(4) 0.52(2) Uani 1 2 d SDU . .
C7 C 0.0871(3) 0.0871(3) 0.2149(4) 0.59(2) Uani 1 2 d SDU . .
C8 C 0.0945(2) 0.0945(2) 0.2365(4) 0.83(3) Uani 1 2 d SDU . .
C9 C 0.0838(2) 0.1125(2) 0.2471(4) 0.98(5) Uani 1 1 d DU . .
H9 H 0.0715 0.1199 0.2399 1.170 Uiso 1 1 calc R . .
C10 C 0.0911(2) 0.1198(2) 0.2682(4) 1.01(5) Uani 1 1 d DU . .
H10 H 0.0837 0.1321 0.2754 1.210 Uiso 1 1 calc R . .
C11 C 0.1091(3) 0.1091(3) 0.2789(4) 1.39(4) Uani 1 2 d SDU . .
C12 C 0.1166(3) 0.1166(3) 0.3007(5) 1.29(3) Uani 1 2 d SDU . .
C13 C 0.1228(4) 0.1228(4) 0.3188(5) 0.79(4) Uiso 1 2 d SD . .
C15 C 0.1511(5) 0.1223(5) 0.3489(5) 0.75(3) Uani 1 2 d SDU . .
H15 H 0.1562 0.1080 0.3438 0.901 Uiso 1 2 calc SR . .
C14 C 0.1329(9) 0.1329(9) 0.3383(9) 1.43(4) Uani 1 2 d SDU . .

loop_
_atom_site_aniso_label
_atom_site_aniso_U_11
_atom_site_aniso_U_22
_atom_site_aniso_U_33
_atom_site_aniso_U_23
_atom_site_aniso_U_13
_atom_site_aniso_U_12
Cu1 0.247(5) 0.233(4) 0.233(4) -0.061(4) 0.000 0.000
Cu2 0.305(6) 0.258(4) 0.258(4) -0.079(4) 0.000 0.000
O1 0.238(11) 0.273(11) 0.228(11) -0.022(9) 0.002(9) -0.003(8)
O2 0.305(14) 0.251(13) 0.272(12) -0.043(10) -0.001(9) -0.019(11)
O3 0.38(2) 0.237(11) 0.237(11) -0.028(15) 0.000 0.000
O4 0.40(3) 0.328(15) 0.328(15) -0.03(2) 0.000 0.000
C1 0.206(15) 0.242(18) 0.239(18) -0.012(15) -0.015(14) 0.000(14)
C2 0.229(11) 0.229(11) 0.215(16) -0.030(9) -0.030(9) 0.018(14)
C3 0.247(15) 0.264(15) 0.229(14) -0.015(13) -0.013(12) 0.011(12)
C4 0.332(16) 0.328(16) 0.282(14) -0.054(14) -0.026(14) -0.002(13)
C5 0.371(17) 0.371(17) 0.38(2) -0.027(12) -0.027(12) 0.019(18)
C6 0.53(2) 0.53(2) 0.51(3) -0.021(14) -0.021(14) 0.032(19)
C7 0.59(2) 0.59(2) 0.59(3) -0.015(14) -0.015(14) 0.038(19)
C8 0.83(3) 0.83(3) 0.82(4) -0.011(14) -0.011(14) 0.02(2)
C9 0.97(5) 0.98(5) 0.97(5) 0.00(2) -0.02(2) 0.02(2)
C10 1.01(5) 1.00(5) 1.00(5) -0.01(2) 0.00(2) 0.02(2)
C11 1.39(3) 1.39(3) 1.39(4) -0.003(14) -0.003(14) 0.01(2)
C12 1.29(3) 1.29(3) 1.30(4) -0.003(14) -0.003(14) 0.01(2)
C15 0.75(3) 0.75(4) 0.75(3) -0.019(14) -0.01(2) 0.019(14)
C14 1.43(3) 1.43(3) 1.43(4) -0.004(14) -0.004(14) 0.01(2)

_geom_special_details            
;
All esds (except the esd in the dihedral angle between two l.s. planes)
are estimated using the full covariance matrix. The cell esds are taken
into account individually in the estimation of esds in distances, angles
and torsion angles; correlations between esds in cell parameters are only
used when they are defined by crystal symmetry. An approximate (isotropic)
treatment of cell esds is used for estimating esds involving l.s. planes.
;

loop_
_geom_bond_atom_site_label_1
_geom_bond_atom_site_label_2
_geom_bond_distance
_geom_bond_site_symmetry_2
_geom_bond_publ_flag
Cu1 O1 1.933(13) 118 ?
Cu1 O1 1.933(13) . ?
Cu1 O1 1.933(13) 21 ?
Cu1 O1 1.933(13) 102 ?
Cu1 O3 2.228(17) . ?
Cu1 Cu2 2.645(6) . ?
Cu2 O2 1.940(13) 21 ?
Cu2 O2 1.940(13) 102 ?
Cu2 O2 1.940(13) 118 ?
Cu2 O2 1.940(13) . ?
Cu2 O4 2.43(2) . ?
O1 C1 1.237(13) . ?
O2 C1 1.273(13) . ?
C1 C3 1.490(15) . ?
C2 C3 1.372(12) 116 ?
C2 C3 1.372(12) . ?
C3 C4 1.397(11) . ?
C4 C5 1.389(10) . ?
C5 C4 1.389(10) 116 ?
C5 C6 1.434(18) . ?
C6 C7 1.149(18) . ?
C7 C8 1.416(18) . ?
C8 C9 1.390(10) 116 ?
C8 C9 1.390(10) . ?
C9 C10 1.392(12) . ?
C10 C11 1.392(10) . ?
C11 C10 1.392(10) 116 ?
C11 C12 1.433(19) . ?
C12 C13 1.192(19) . ?
C13 C14 1.431(18) . ?
C15 C14 1.393(8) 167 ?
C15 C14 1.393(8) . ?
C14 C15 1.393(8) 116 ?

loop_
_geom_angle_atom_site_label_1
_geom_angle_atom_site_label_2
_geom_angle_atom_site_label_3
_geom_angle
_geom_angle_site_symmetry_1
_geom_angle_site_symmetry_3
_geom_angle_publ_flag
O1 Cu1 O1 88.2(6) 118 . ?
O1 Cu1 O1 90.4(6) 118 21 ?
O1 Cu1 O1 167.7(7) . 21 ?
O1 Cu1 O1 167.7(7) 118 102 ?
O1 Cu1 O1 90.4(6) . 102 ?
O1 Cu1 O1 88.2(6) 21 102 ?
O1 Cu1 O3 96.2(3) 118 . ?
O1 Cu1 O3 96.2(3) . . ?
O1 Cu1 O3 96.2(3) 21 . ?
O1 Cu1 O3 96.2(3) 102 . ?
O1 Cu1 Cu2 83.8(3) 118 . ?
O1 Cu1 Cu2 83.8(3) . . ?
O1 Cu1 Cu2 83.8(3) 21 . ?
O1 Cu1 Cu2 83.8(3) 102 . ?
O3 Cu1 Cu2 180.0(5) . . ?
O2 Cu2 O2 90.3(7) 21 102 ?
O2 Cu2 O2 88.4(7) 21 118 ?
O2 Cu2 O2 167.4(7) 102 118 ?
O2 Cu2 O2 167.4(7) 21 . ?
O2 Cu2 O2 88.4(7) 102 . ?
O2 Cu2 O2 90.3(7) 118 . ?
O2 Cu2 O4 96.3(4) 21 . ?
O2 Cu2 O4 96.3(4) 102 . ?
O2 Cu2 O4 96.3(4) 118 . ?
O2 Cu2 O4 96.3(4) . . ?
O2 Cu2 Cu1 83.7(4) 21 . ?
O2 Cu2 Cu1 83.7(4) 102 . ?
O2 Cu2 Cu1 83.7(4) 118 . ?
O2 Cu2 Cu1 83.7(4) . . ?
O4 Cu2 Cu1 180.0(5) . . ?
C1 O1 Cu1 124.3(13) . . ?
C1 O2 Cu2 123.2(13) . . ?
O1 C1 O2 124.8(19) . . ?
O1 C1 C3 117.5(18) . . ?
O2 C1 C3 117.7(17) . . ?
C3 C2 C3 122.3(11) 116 . ?
C2 C3 C4 118.9(10) . . ?
C2 C3 C1 121.4(12) . . ?
C4 C3 C1 119.8(14) . . ?
C5 C4 C3 119.9(9) . . ?
C4 C5 C4 120.1(11) 116 . ?
C4 C5 C6 119.9(5) 116 . ?
C4 C5 C6 119.9(5) . . ?
C7 C6 C5 176(2) . . ?
C6 C7 C8 176(2) . . ?
C9 C8 C9 119.7(12) 116 . ?
C9 C8 C7 120.1(6) 116 . ?
C9 C8 C7 120.1(6) . . ?
C8 C9 C10 120.2(9) . . ?
C9 C10 C11 120.1(8) . . ?
C10 C11 C10 119.7(11) 116 . ?
C10 C11 C12 120.2(6) 116 . ?
C10 C11 C12 120.2(6) . . ?
C13 C12 C11 180.0(3) . . ?
C12 C13 C14 169(5) . . ?
C14 C15 C14 119.7(15) 167 . ?
C15 C14 C15 119.2(14) 116 . ?
C15 C14 C13 119.9(8) 116 . ?
C15 C14 C13 119.9(8) . . ?

_diffrn_measured_fraction_theta_max 0.998
_diffrn_reflns_theta_full        7.92
_diffrn_measured_fraction_theta_full 0.998
_refine_diff_density_max         0.218
_refine_diff_density_min         -0.250
_refine_diff_density_rms         0.036
