####################################################################### 
# 
# This file contains crystal structure data downloaded from the 
# Cambridge Structural Database (CSD) hosted by the Cambridge 
# Crystallographic Data Centre (CCDC).
# 
# Full information about CCDC data access policies and citation 
# guidelines are available at http://www.ccdc.cam.ac.uk/access/V1 
# 
# Audit and citation data items may have been added by the CCDC. 
# Please retain this information to preserve the provenance of 
# this file and to allow appropriate attribution of the data. 
# 
#######################################################################

data_1
_audit_block_doi                 10.5517/cctnd0v
_database_code_depnum_ccdc_archive 'CCDC 764367'
loop_
_citation_id
_citation_doi
_citation_year
1 10.1002/anie.201001675 2010
_audit_update_record             
;
2010-02-02 deposited with the CCDC.	2024-07-10 downloaded from the CCDC.
;
#TrackingRef '1.cif'


_audit_creation_method           SHELXL-97
_chemical_name_systematic        
;
?
;
_chemical_name_common            ?
_chemical_melting_point          ?
_chemical_formula_moiety         ?
_chemical_formula_sum            'C29 H31 B N12 O5 Zn2'
_chemical_formula_weight         769.21

loop_
_atom_type_symbol
_atom_type_description
_atom_type_scat_dispersion_real
_atom_type_scat_dispersion_imag
_atom_type_scat_source
C C 0.0033 0.0016 'International Tables Vol C Tables 4.2.6.8 and 6.1.1.4'
H H 0.0000 0.0000 'International Tables Vol C Tables 4.2.6.8 and 6.1.1.4'
B B 0.0013 0.0007 'International Tables Vol C Tables 4.2.6.8 and 6.1.1.4'
N N 0.0061 0.0033 'International Tables Vol C Tables 4.2.6.8 and 6.1.1.4'
O O 0.0106 0.0060 'International Tables Vol C Tables 4.2.6.8 and 6.1.1.4'
Zn Zn 0.2839 1.4301 'International Tables Vol C Tables 4.2.6.8 and 6.1.1.4'

_symmetry_cell_setting           tetragonal
_symmetry_space_group_name_H-M   P4(3)2(1)2

loop_
_symmetry_equiv_pos_as_xyz
'x, y, z'
'-x, -y, z+1/2'
'-y+1/2, x+1/2, z+3/4'
'y+1/2, -x+1/2, z+1/4'
'-x+1/2, y+1/2, -z+3/4'
'x+1/2, -y+1/2, -z+1/4'
'y, x, -z'
'-y, -x, -z+1/2'

_cell_length_a                   13.0584(18)
_cell_length_b                   13.0584(18)
_cell_length_c                   53.731(11)
_cell_angle_alpha                90.00
_cell_angle_beta                 90.00
_cell_angle_gamma                90.00
_cell_volume                     9162(3)
_cell_formula_units_Z            8
_cell_measurement_temperature    294(2)
_cell_measurement_reflns_used    ?
_cell_measurement_theta_min      2.18
_cell_measurement_theta_max      23.51

_exptl_crystal_description       prism
_exptl_crystal_colour            colourless
_exptl_crystal_size_max          0.20
_exptl_crystal_size_mid          0.15
_exptl_crystal_size_min          0.12
_exptl_crystal_density_meas      ?
_exptl_crystal_density_diffrn    1.115
_exptl_crystal_density_method    'not measured'
_exptl_crystal_F_000             3152
_exptl_absorpt_coefficient_mu    1.089
_exptl_absorpt_correction_type   none
_exptl_absorpt_correction_T_min  ?
_exptl_absorpt_correction_T_max  ?
_exptl_absorpt_process_details   ?

_exptl_special_details           
;
?
;

_diffrn_ambient_temperature      294(2)
_diffrn_radiation_wavelength     0.71073
_diffrn_radiation_type           MoK\a
_diffrn_radiation_source         'fine-focus sealed tube'
_diffrn_radiation_monochromator  graphite
_diffrn_measurement_device_type  'CCD area detector'
_diffrn_measurement_method       'phi and omega scans'
_diffrn_detector_area_resol_mean ?
_diffrn_standards_number         ?
_diffrn_standards_interval_count ?
_diffrn_standards_interval_time  ?
_diffrn_standards_decay_%        ?
_diffrn_reflns_number            15656
_diffrn_reflns_av_R_equivalents  0.0570
_diffrn_reflns_av_sigmaI/netI    0.1014
_diffrn_reflns_limit_h_min       -13
_diffrn_reflns_limit_h_max       6
_diffrn_reflns_limit_k_min       -14
_diffrn_reflns_limit_k_max       13
_diffrn_reflns_limit_l_min       -17
_diffrn_reflns_limit_l_max       59
_diffrn_reflns_theta_min         2.18
_diffrn_reflns_theta_max         23.51
_reflns_number_total             6493
_reflns_number_gt                4935
_reflns_threshold_expression     >2sigma(I)

_computing_data_collection       'Bruker SMART'
_computing_cell_refinement       'Bruker SMART'
_computing_data_reduction        'Bruker SAINT'
_computing_structure_solution    'SHELXS-97 (Sheldrick, 1990)'
_computing_structure_refinement  'SHELXL-97 (Sheldrick, 1997)'
_computing_molecular_graphics    'Bruker SHELXTL'
_computing_publication_material  'Bruker SHELXTL'

_refine_special_details          
;
Refinement of F^2^ against ALL reflections. The weighted R-factor wR and
goodness of fit S are based on F^2^, conventional R-factors R are based
on F, with F set to zero for negative F^2^. The threshold expression of
F^2^ > 2sigma(F^2^) is used only for calculating R-factors(gt) etc. and is
not relevant to the choice of reflections for refinement. R-factors based
on F^2^ are statistically about twice as large as those based on F, and R-
factors based on ALL data will be even larger.
;

_refine_ls_structure_factor_coef Fsqd
_refine_ls_matrix_type           full
_refine_ls_weighting_scheme      calc
_refine_ls_weighting_details     
'calc w=1/[\s^2^(Fo^2^)+(0.1569P)^2^+0.0000P] where P=(Fo^2^+2Fc^2^)/3'
_atom_sites_solution_primary     direct
_atom_sites_solution_secondary   difmap
_atom_sites_solution_hydrogens   geom
_refine_ls_hydrogen_treatment    constr
_refine_ls_extinction_method     none
_refine_ls_extinction_coef       ?
_refine_ls_abs_structure_details 'Flack H D (1983), Acta Cryst. A39, 876-881'
_refine_ls_abs_structure_Flack   0.000(1)
_refine_ls_number_reflns         6493
_refine_ls_number_parameters     442
_refine_ls_number_restraints     0
_refine_ls_R_factor_all          0.0989
_refine_ls_R_factor_gt           0.0800
_refine_ls_wR_factor_ref         0.2522
_refine_ls_wR_factor_gt          0.2427
_refine_ls_goodness_of_fit_ref   1.112
_refine_ls_restrained_S_all      1.112
_refine_ls_shift/su_max          0.000
_refine_ls_shift/su_mean         0.000

loop_
_atom_site_label
_atom_site_type_symbol
_atom_site_fract_x
_atom_site_fract_y
_atom_site_fract_z
_atom_site_U_iso_or_equiv
_atom_site_adp_type
_atom_site_occupancy
_atom_site_symmetry_multiplicity
_atom_site_calc_flag
_atom_site_refinement_flags
_atom_site_disorder_assembly
_atom_site_disorder_group
B1 B 0.7372(11) 1.4691(10) 0.1281(2) 0.024(3) Uani 1 1 d . . .
Zn1 Zn 0.84236(10) 0.87365(9) 0.11538(2) 0.0225(4) Uani 1 1 d . . .
Zn2 Zn 0.55892(10) 1.17434(10) 0.06515(2) 0.0249(4) Uani 1 1 d . . .
O1 O 0.5822(6) 1.1760(6) 0.02969(13) 0.037(2) Uani 1 1 d . . .
O2 O 0.4703(9) 1.2997(8) 0.02703(16) 0.068(4) Uani 1 1 d . . .
O3 O 0.5739(6) 1.3474(7) -0.10011(13) 0.035(2) Uani 1 1 d . . .
O4 O 0.6596(7) 1.1975(7) -0.09944(15) 0.043(2) Uani 1 1 d . . .
O5 O 1.0352(6) 1.3321(7) 0.11111(16) 0.041(2) Uani 1 1 d . . .
N1 N 0.2957(8) 1.0985(8) 0.10218(18) 0.034(3) Uani 1 1 d . . .
N2 N 0.4164(7) 1.1599(8) 0.07817(17) 0.031(2) Uani 1 1 d . . .
N3 N 0.8060(6) 0.5597(7) 0.12036(16) 0.025(2) Uani 1 1 d . . .
N4 N 0.8529(7) 0.7188(7) 0.11350(17) 0.023(2) Uani 1 1 d . . .
N5 N 0.6393(7) 1.5095(7) 0.14081(16) 0.022(2) Uani 1 1 d . . .
N6 N 0.4855(7) 1.5811(7) 0.14467(16) 0.025(2) Uani 1 1 d . . .
N7 N 0.6403(7) 1.0497(7) 0.07392(16) 0.029(2) Uani 1 1 d . . .
N8 N 0.7444(7) 0.9362(8) 0.09151(16) 0.026(2) Uani 1 1 d . . .
N9 N 0.7059(7) 1.4089(7) 0.10445(16) 0.024(2) Uani 1 1 d . . .
N10 N 0.6270(8) 1.3008(7) 0.07955(18) 0.034(3) Uani 1 1 d . . .
N11 N 1.0237(9) 1.3268(10) 0.06903(19) 0.054(3) Uani 1 1 d . . .
N12 N 0.9366(9) 1.2108(8) 0.0942(2) 0.043(3) Uani 1 1 d . . .
C1 C 0.3934(8) 1.0910(8) 0.0956(2) 0.023(3) Uani 1 1 d . . .
H1A H 0.4396 1.0442 0.1023 0.028 Uiso 1 1 calc R . .
C2 C 0.2536(10) 1.1790(9) 0.0882(2) 0.038(3) Uani 1 1 d . . .
H2A H 0.1862 1.2020 0.0885 0.045 Uiso 1 1 calc R . .
C3 C 0.3301(10) 1.2159(10) 0.0741(2) 0.037(3) Uani 1 1 d . . .
H3A H 0.3250 1.2712 0.0633 0.045 Uiso 1 1 calc R . .
C4 C 0.7820(9) 0.6606(9) 0.1224(2) 0.028(3) Uani 1 1 d . . .
H4A H 0.7216 0.6848 0.1294 0.033 Uiso 1 1 calc R . .
C5 C 0.9246(10) 0.6576(10) 0.1051(2) 0.033(3) Uani 1 1 d . . .
H5A H 0.9846 0.6799 0.0975 0.040 Uiso 1 1 calc R . .
C6 C 0.9016(9) 0.5625(10) 0.1088(2) 0.032(3) Uani 1 1 d . . .
H6A H 0.9414 0.5062 0.1044 0.038 Uiso 1 1 calc R . .
C7 C 0.5502(9) 1.5351(9) 0.1294(2) 0.029(3) Uani 1 1 d . . .
H7A H 0.5362 1.5218 0.1128 0.034 Uiso 1 1 calc R . .
C8 C 0.6287(10) 1.5470(11) 0.1649(2) 0.041(3) Uani 1 1 d . . .
H8A H 0.6784 1.5435 0.1772 0.050 Uiso 1 1 calc R . .
C9 C 0.5386(9) 1.5879(10) 0.1674(2) 0.032(3) Uani 1 1 d . . .
H9A H 0.5132 1.6171 0.1819 0.038 Uiso 1 1 calc R . .
C10 C 0.6788(9) 1.0115(9) 0.0948(2) 0.024(3) Uani 1 1 d . . .
H10A H 0.6610 1.0359 0.1105 0.029 Uiso 1 1 calc R . .
C11 C 0.6874(10) 0.9900(10) 0.0560(2) 0.038(3) Uani 1 1 d . . .
H11A H 0.6776 0.9962 0.0390 0.045 Uiso 1 1 calc R . .
C12 C 0.7482(9) 0.9230(9) 0.0668(2) 0.028(3) Uani 1 1 d . . .
H12A H 0.7875 0.8742 0.0586 0.034 Uiso 1 1 calc R . .
C13 C 0.6554(8) 1.3204(9) 0.1026(2) 0.025(3) Uani 1 1 d . . .
H13A H 0.6418 1.2775 0.1160 0.030 Uiso 1 1 calc R . .
C14 C 0.6557(14) 1.3822(11) 0.0653(2) 0.068(5) Uani 1 1 d . . .
H14A H 0.6437 1.3908 0.0484 0.082 Uiso 1 1 calc R . .
C15 C 0.7040(17) 1.4463(13) 0.0802(3) 0.086(7) Uani 1 1 d . . .
H15A H 0.7327 1.5082 0.0752 0.103 Uiso 1 1 calc R . .
C16 C 0.6109(10) 1.2698(10) -0.0887(2) 0.034(3) Uani 1 1 d . . .
C17 C 0.5935(9) 1.2629(10) -0.0612(2) 0.035(3) Uani 1 1 d . . .
C18 C 0.6419(10) 1.1910(10) -0.0466(2) 0.037(3) Uani 1 1 d . . .
H18A H 0.6869 1.1448 -0.0539 0.044 Uiso 1 1 calc R . .
C19 C 0.6247(10) 1.1863(9) -0.0215(2) 0.035(3) Uani 1 1 d . . .
H19A H 0.6609 1.1396 -0.0118 0.042 Uiso 1 1 calc R . .
C20 C 0.5533(10) 1.2509(10) -0.0104(2) 0.034(3) Uani 1 1 d . . .
C21 C 0.5062(11) 1.3221(11) -0.0243(2) 0.042(4) Uani 1 1 d . . .
H21A H 0.4622 1.3684 -0.0166 0.051 Uiso 1 1 calc R . .
C22 C 0.5216(10) 1.3288(10) -0.0505(2) 0.037(3) Uani 1 1 d . . .
H22A H 0.4850 1.3753 -0.0601 0.044 Uiso 1 1 calc R . .
C23 C 0.5311(11) 1.2434(11) 0.0173(2) 0.040(3) Uani 1 1 d . . .
C24 C 1.0013(10) 1.2945(10) 0.0918(3) 0.045(4) Uani 1 1 d . . .
C25 C 0.9744(17) 1.2920(16) 0.0469(3) 0.094(7) Uani 1 1 d . . .
H25A H 1.0200 1.2998 0.0327 0.112 Uiso 1 1 calc R . .
H25B H 0.9132 1.3322 0.0438 0.112 Uiso 1 1 calc R . .
C26 C 0.9449(19) 1.1743(18) 0.0504(4) 0.107(8) Uani 1 1 d . . .
H26A H 0.9028 1.1522 0.0366 0.129 Uiso 1 1 calc R . .
H26B H 1.0068 1.1333 0.0504 0.129 Uiso 1 1 calc R . .
C27 C 0.8918(13) 1.1583(13) 0.0727(3) 0.063(4) Uani 1 1 d . . .
H27A H 0.8897 1.0854 0.0761 0.076 Uiso 1 1 calc R . .
H27B H 0.8218 1.1816 0.0706 0.076 Uiso 1 1 calc R . .
C28 C 1.0862(15) 1.4097(15) 0.0663(3) 0.089(7) Uani 1 1 d . . .
H28A H 1.1176 1.4256 0.0820 0.134 Uiso 1 1 calc R . .
H28B H 1.0466 1.4673 0.0607 0.134 Uiso 1 1 calc R . .
H28C H 1.1383 1.3946 0.0543 0.134 Uiso 1 1 calc R . .
C29 C 0.9001(10) 1.1818(9) 0.1183(2) 0.042(3) Uani 1 1 d . . .
H29A H 0.9348 1.2212 0.1308 0.064 Uiso 1 1 calc R . .
H29B H 0.9131 1.1103 0.1209 0.064 Uiso 1 1 calc R . .
H29C H 0.8278 1.1945 0.1193 0.064 Uiso 1 1 calc R . .

loop_
_atom_site_aniso_label
_atom_site_aniso_U_11
_atom_site_aniso_U_22
_atom_site_aniso_U_33
_atom_site_aniso_U_23
_atom_site_aniso_U_13
_atom_site_aniso_U_12
B1 0.019(8) 0.025(8) 0.029(7) 0.007(6) 0.001(6) -0.003(5)
Zn1 0.0210(8) 0.0169(8) 0.0295(7) 0.0023(5) -0.0006(6) -0.0004(5)
Zn2 0.0238(8) 0.0220(8) 0.0290(7) 0.0021(6) -0.0011(6) 0.0019(6)
O1 0.048(6) 0.031(5) 0.030(4) 0.008(4) -0.003(4) 0.013(4)
O2 0.095(9) 0.075(8) 0.033(5) 0.008(5) 0.018(5) 0.048(7)
O3 0.037(5) 0.040(6) 0.027(4) 0.003(4) 0.005(4) -0.001(4)
O4 0.047(6) 0.045(6) 0.037(5) 0.007(4) 0.015(4) 0.002(5)
O5 0.034(6) 0.032(6) 0.056(5) 0.002(5) -0.003(4) -0.001(4)
N1 0.041(7) 0.024(6) 0.037(6) 0.002(5) 0.003(5) 0.001(5)
N2 0.024(6) 0.031(6) 0.039(6) -0.011(5) -0.004(4) 0.008(5)
N3 0.009(5) 0.025(6) 0.041(5) 0.003(4) -0.001(4) 0.002(4)
N4 0.019(6) 0.012(5) 0.037(5) 0.006(4) 0.003(4) -0.006(4)
N5 0.018(6) 0.018(5) 0.029(5) -0.001(4) 0.003(4) 0.002(4)
N6 0.025(6) 0.021(6) 0.029(5) 0.000(4) 0.004(4) 0.005(4)
N7 0.031(6) 0.020(6) 0.037(6) -0.006(4) 0.000(5) -0.007(5)
N8 0.023(6) 0.025(6) 0.031(6) 0.002(4) -0.007(4) 0.007(5)
N9 0.023(6) 0.022(6) 0.027(5) 0.006(4) 0.000(4) 0.004(4)
N10 0.049(7) 0.016(6) 0.037(6) 0.000(4) -0.002(5) -0.002(5)
N11 0.062(9) 0.067(9) 0.033(6) 0.005(6) 0.014(6) -0.031(7)
N12 0.036(7) 0.031(7) 0.063(7) -0.004(6) -0.004(6) -0.017(5)
C1 0.013(7) 0.014(7) 0.042(7) 0.010(5) 0.003(5) 0.000(4)
C2 0.029(8) 0.025(8) 0.059(8) 0.027(6) 0.004(6) 0.017(6)
C3 0.036(8) 0.038(8) 0.037(7) 0.010(6) -0.002(6) 0.018(7)
C4 0.035(7) 0.016(7) 0.033(6) -0.008(5) -0.014(5) 0.008(6)
C5 0.034(8) 0.023(8) 0.043(7) -0.002(6) 0.010(6) -0.007(6)
C6 0.036(8) 0.026(8) 0.034(7) 0.002(5) 0.010(5) 0.008(6)
C7 0.027(8) 0.021(7) 0.038(7) 0.006(5) 0.004(6) -0.002(5)
C8 0.036(9) 0.065(10) 0.023(6) -0.006(6) -0.014(6) 0.009(7)
C9 0.027(8) 0.042(9) 0.027(7) 0.000(6) 0.003(5) 0.006(6)
C10 0.025(7) 0.029(7) 0.019(5) -0.003(5) -0.007(5) -0.003(6)
C11 0.053(9) 0.039(8) 0.022(6) -0.005(5) 0.005(6) 0.005(7)
C12 0.031(7) 0.017(7) 0.037(7) -0.010(5) -0.008(6) 0.010(5)
C13 0.018(6) 0.029(7) 0.030(6) 0.006(5) -0.001(5) -0.009(5)
C14 0.126(16) 0.054(10) 0.025(6) 0.008(7) -0.014(9) -0.069(10)
C15 0.17(2) 0.047(11) 0.043(9) 0.009(8) 0.029(11) -0.034(12)
C16 0.029(8) 0.037(9) 0.036(7) 0.007(7) -0.002(6) -0.012(6)
C17 0.029(8) 0.044(9) 0.030(7) 0.001(6) -0.003(5) -0.004(6)
C18 0.035(8) 0.045(9) 0.031(7) 0.003(6) -0.004(6) 0.017(6)
C19 0.034(8) 0.032(8) 0.038(7) 0.005(6) -0.003(6) 0.015(6)
C20 0.030(8) 0.036(8) 0.034(7) 0.011(6) -0.002(6) 0.002(6)
C21 0.047(9) 0.046(9) 0.033(7) 0.005(6) 0.011(6) 0.022(7)
C22 0.036(8) 0.038(8) 0.037(7) 0.014(6) 0.006(6) 0.017(6)
C23 0.045(9) 0.048(9) 0.027(7) -0.001(6) 0.003(6) 0.005(7)
C24 0.019(8) 0.030(9) 0.086(11) 0.004(8) 0.000(7) 0.008(6)
C25 0.112(18) 0.111(18) 0.058(11) -0.010(11) 0.020(11) -0.056(14)
C26 0.114(19) 0.12(2) 0.086(14) -0.005(14) 0.016(13) -0.027(16)
C27 0.073(12) 0.051(11) 0.065(10) -0.001(8) 0.000(9) 0.001(9)
C28 0.110(18) 0.098(16) 0.059(11) 0.024(10) 0.028(11) 0.015(13)
C29 0.042(9) 0.018(8) 0.067(9) 0.008(6) 0.001(7) 0.005(6)

_geom_special_details            
;
All esds (except the esd in the dihedral angle between two l.s. planes)
are estimated using the full covariance matrix. The cell esds are taken
into account individually in the estimation of esds in distances, angles
and torsion angles; correlations between esds in cell parameters are only
used when they are defined by crystal symmetry. An approximate (isotropic)
treatment of cell esds is used for estimating esds involving l.s. planes.
;

loop_
_geom_bond_atom_site_label_1
_geom_bond_atom_site_label_2
_geom_bond_distance
_geom_bond_site_symmetry_2
_geom_bond_publ_flag
B1 N5 1.542(16) . ?
B1 N3 1.543(15) 1_565 ?
B1 N9 1.549(16) . ?
B1 N1 1.577(16) 6_575 ?
Zn1 O3 1.978(7) 4_465 ?
Zn1 N8 1.987(9) . ?
Zn1 N4 2.030(9) . ?
Zn1 N6 2.034(9) 6_575 ?
Zn2 O1 1.929(7) . ?
Zn2 N2 1.998(10) . ?
Zn2 N7 2.000(10) . ?
Zn2 N10 2.029(10) . ?
O1 C23 1.289(15) . ?
O2 C23 1.202(15) . ?
O3 C16 1.281(14) . ?
O3 Zn1 1.978(7) 3_654 ?
O4 C16 1.278(15) . ?
O5 C24 1.230(16) . ?
N1 C1 1.328(15) . ?
N1 C2 1.405(14) . ?
N1 B1 1.577(16) 6_475 ?
N2 C1 1.333(14) . ?
N2 C3 1.361(15) . ?
N3 C4 1.358(15) . ?
N3 C6 1.396(14) . ?
N3 B1 1.543(15) 1_545 ?
N4 C4 1.290(15) . ?
N4 C5 1.311(15) . ?
N5 C7 1.356(15) . ?
N5 C8 1.390(14) . ?
N6 C7 1.321(15) . ?
N6 C9 1.406(14) . ?
N6 Zn1 2.034(9) 6_475 ?
N7 C10 1.329(13) . ?
N7 C11 1.381(14) . ?
N8 C10 1.316(14) . ?
N8 C12 1.337(14) . ?
N9 C13 1.335(14) . ?
N9 C15 1.389(16) . ?
N10 C13 1.319(14) . ?
N10 C14 1.361(15) . ?
N11 C24 1.327(17) . ?
N11 C28 1.36(2) . ?
N11 C25 1.428(19) . ?
N12 C24 1.388(17) . ?
N12 C29 1.428(16) . ?
N12 C27 1.465(18) . ?
C2 C3 1.342(17) . ?
C5 C6 1.292(17) . ?
C8 C9 1.299(17) . ?
C11 C12 1.316(17) . ?
C14 C15 1.32(2) . ?
C16 C17 1.495(17) . ?
C17 C18 1.377(16) . ?
C17 C22 1.398(17) . ?
C18 C19 1.367(16) . ?
C19 C20 1.393(16) . ?
C20 C21 1.342(16) . ?
C20 C23 1.521(16) . ?
C21 C22 1.422(16) . ?
C25 C26 1.60(3) . ?
C26 C27 1.40(2) . ?

loop_
_geom_angle_atom_site_label_1
_geom_angle_atom_site_label_2
_geom_angle_atom_site_label_3
_geom_angle
_geom_angle_site_symmetry_1
_geom_angle_site_symmetry_3
_geom_angle_publ_flag
N5 B1 N3 109.8(10) . 1_565 ?
N5 B1 N9 108.5(10) . . ?
N3 B1 N9 108.8(9) 1_565 . ?
N5 B1 N1 107.2(9) . 6_575 ?
N3 B1 N1 109.2(10) 1_565 6_575 ?
N9 B1 N1 113.3(10) . 6_575 ?
O3 Zn1 N8 118.9(4) 4_465 . ?
O3 Zn1 N4 112.9(4) 4_465 . ?
N8 Zn1 N4 114.9(4) . . ?
O3 Zn1 N6 96.8(4) 4_465 6_575 ?
N8 Zn1 N6 107.5(4) . 6_575 ?
N4 Zn1 N6 102.4(4) . 6_575 ?
O1 Zn2 N2 119.6(4) . . ?
O1 Zn2 N7 99.1(3) . . ?
N2 Zn2 N7 109.6(4) . . ?
O1 Zn2 N10 107.4(4) . . ?
N2 Zn2 N10 110.6(4) . . ?
N7 Zn2 N10 109.9(4) . . ?
C23 O1 Zn2 115.8(8) . . ?
C16 O3 Zn1 107.1(8) . 3_654 ?
C1 N1 C2 106.8(10) . . ?
C1 N1 B1 127.0(10) . 6_475 ?
C2 N1 B1 126.1(11) . 6_475 ?
C1 N2 C3 106.8(10) . . ?
C1 N2 Zn2 121.3(8) . . ?
C3 N2 Zn2 131.6(9) . . ?
C4 N3 C6 102.6(10) . . ?
C4 N3 B1 126.0(10) . 1_545 ?
C6 N3 B1 131.3(10) . 1_545 ?
C4 N4 C5 106.3(10) . . ?
C4 N4 Zn1 121.4(8) . . ?
C5 N4 Zn1 132.3(8) . . ?
C7 N5 C8 104.3(10) . . ?
C7 N5 B1 126.6(9) . . ?
C8 N5 B1 128.0(10) . . ?
C7 N6 C9 104.6(10) . . ?
C7 N6 Zn1 123.7(8) . 6_475 ?
C9 N6 Zn1 131.7(8) . 6_475 ?
C10 N7 C11 102.0(10) . . ?
C10 N7 Zn2 134.9(8) . . ?
C11 N7 Zn2 122.1(8) . . ?
C10 N8 C12 104.8(9) . . ?
C10 N8 Zn1 129.7(8) . . ?
C12 N8 Zn1 124.2(8) . . ?
C13 N9 C15 103.1(11) . . ?
C13 N9 B1 129.1(9) . . ?
C15 N9 B1 126.5(10) . . ?
C13 N10 C14 107.4(10) . . ?
C13 N10 Zn2 129.7(8) . . ?
C14 N10 Zn2 122.8(8) . . ?
C24 N11 C28 118.9(13) . . ?
C24 N11 C25 124.7(13) . . ?
C28 N11 C25 115.6(13) . . ?
C24 N12 C29 119.7(11) . . ?
C24 N12 C27 122.5(12) . . ?
C29 N12 C27 117.2(11) . . ?
N1 C1 N2 110.6(10) . . ?
C3 C2 N1 106.1(11) . . ?
C2 C3 N2 109.5(11) . . ?
N4 C4 N3 112.1(11) . . ?
C6 C5 N4 111.5(11) . . ?
C5 C6 N3 107.5(11) . . ?
N6 C7 N5 112.4(10) . . ?
C9 C8 N5 109.4(11) . . ?
C8 C9 N6 109.3(11) . . ?
N8 C10 N7 114.3(10) . . ?
C12 C11 N7 109.7(10) . . ?
C11 C12 N8 109.2(10) . . ?
N10 C13 N9 112.1(10) . . ?
C15 C14 N10 106.6(11) . . ?
C14 C15 N9 110.7(13) . . ?
O4 C16 O3 123.7(11) . . ?
O4 C16 C17 118.6(11) . . ?
O3 C16 C17 117.7(12) . . ?
C18 C17 C22 119.5(11) . . ?
C18 C17 C16 122.3(12) . . ?
C22 C17 C16 118.1(11) . . ?
C19 C18 C17 121.2(12) . . ?
C18 C19 C20 120.3(11) . . ?
C21 C20 C19 119.3(11) . . ?
C21 C20 C23 120.2(12) . . ?
C19 C20 C23 120.5(11) . . ?
C20 C21 C22 121.8(12) . . ?
C17 C22 C21 117.7(11) . . ?
O2 C23 O1 122.4(11) . . ?
O2 C23 C20 120.8(12) . . ?
O1 C23 C20 116.8(12) . . ?
O5 C24 N11 124.8(13) . . ?
O5 C24 N12 117.1(13) . . ?
N11 C24 N12 118.1(14) . . ?
N11 C25 C26 108.3(16) . . ?
C27 C26 C25 111.5(17) . . ?
C26 C27 N12 114.0(16) . . ?

_diffrn_measured_fraction_theta_max 0.963
_diffrn_reflns_theta_full        23.51
_diffrn_measured_fraction_theta_full 0.963
_refine_diff_density_max         2.133
_refine_diff_density_min         -0.698
_refine_diff_density_rms         0.214
