####################################################################### 
# 
# This file contains crystal structure data downloaded from the 
# Cambridge Structural Database (CSD) hosted by the Cambridge 
# Crystallographic Data Centre (CCDC).
# 
# Full information about CCDC data access policies and citation 
# guidelines are available at http://www.ccdc.cam.ac.uk/access/V1 
# 
# Audit and citation data items may have been added by the CCDC. 
# Please retain this information to preserve the provenance of 
# this file and to allow appropriate attribution of the data. 
# 
#######################################################################

data_compound_2
_audit_block_doi                 10.5517/cc6kjfp
_database_code_depnum_ccdc_archive 'CCDC 195592'
loop_
_citation_id
_citation_doi
_citation_year
1 10.1039/b210320f 2003
_audit_update_record             
;
2002-10-17 deposited with the CCDC.	2024-07-10 downloaded from the CCDC.
;

_audit_creation_method           SHELXL-97
_chemical_name_systematic        
; 
? 
;
_chemical_name_common            ?
_chemical_melting_point          ?
_chemical_formula_moiety         ?
_chemical_formula_sum            'C83 H86 Co3 N24 O5 S6'
_chemical_formula_weight         1868.91

loop_
_atom_type_symbol
_atom_type_description
_atom_type_scat_dispersion_real
_atom_type_scat_dispersion_imag
_atom_type_scat_source
C C 0.0033 0.0016 'International Tables Vol C Tables 4.2.6.8 and 6.1.1.4'
H H 0.0000 0.0000 'International Tables Vol C Tables 4.2.6.8 and 6.1.1.4'
Co Co 0.3494 0.9721 'International Tables Vol C Tables 4.2.6.8 and 6.1.1.4'
N N 0.0061 0.0033 'International Tables Vol C Tables 4.2.6.8 and 6.1.1.4'
S S 0.1246 0.1234 'International Tables Vol C Tables 4.2.6.8 and 6.1.1.4'
O O 0.0106 0.0060 'International Tables Vol C Tables 4.2.6.8 and 6.1.1.4'

_symmetry_cell_setting           Monoclinic
_symmetry_space_group_name_H-M   C2/c

loop_
_symmetry_equiv_pos_as_xyz
'x, y, z'
'-x, y, -z+1/2'
'x+1/2, y+1/2, z'
'-x+1/2, y+1/2, -z+1/2'
'-x, -y, -z'
'x, -y, z-1/2'
'-x+1/2, -y+1/2, -z'
'x+1/2, -y+1/2, z-1/2'

_cell_length_a                   19.965(1)
_cell_length_b                   18.731(1)
_cell_length_c                   27.203(1)
_cell_angle_alpha                90.00
_cell_angle_beta                 110.190(1)
_cell_angle_gamma                90.00
_cell_volume                     9547.9(6)
_cell_formula_units_Z            4
_cell_measurement_temperature    293(2)
_cell_measurement_reflns_used    15236
_cell_measurement_theta_min      2.70
_cell_measurement_theta_max      25.34

_exptl_crystal_description       brick
_exptl_crystal_colour            red
_exptl_crystal_size_max          0.20
_exptl_crystal_size_mid          0.20
_exptl_crystal_size_min          0.15
_exptl_crystal_density_meas      ?
_exptl_crystal_density_diffrn    1.300
_exptl_crystal_density_method    'not measured'
_exptl_crystal_F_000             3876
_exptl_absorpt_coefficient_mu    0.706
_exptl_absorpt_correction_type   Multi-scan
_exptl_absorpt_correction_T_min  0.8716
_exptl_absorpt_correction_T_max  0.9014
_exptl_absorpt_process_details   'DENZO-SMN (Otwinowski & Minor, 1997)'

_exptl_special_details           
; 
The program Denzo-SMN (Otwinowski & Minor, 1997) uses a scaling
algorithm (Fox & Holmes, 1966) which effectively corrects for
absorption effects. High redundancy data were used in the scaling
program hence the 'multi-scan' code word was used. No transmission
coefficients are available from the program (only scale factors for each
frame). The scale factors in the experimental table are calculated
from the 'size' command in the SHELXL-97 input file.

;

_diffrn_ambient_temperature      293(2)
_diffrn_radiation_wavelength     0.71073
_diffrn_radiation_type           MoK\a
_diffrn_radiation_source         'fine-focus sealed tube'
_diffrn_radiation_monochromator  graphite
_diffrn_measurement_method       'Phi plus Omega scan'
_diffrn_detector_area_resol_mean ?
_diffrn_standards_number         ?
_diffrn_standards_interval_count ?
_diffrn_standards_interval_time  ?
_diffrn_standards_decay_%        <2.0
_diffrn_reflns_number            15236
_diffrn_reflns_av_R_equivalents  0.0790
_diffrn_reflns_av_sigmaI/netI    0.1496
_diffrn_reflns_limit_h_min       -23
_diffrn_reflns_limit_h_max       24
_diffrn_reflns_limit_k_min       -20
_diffrn_reflns_limit_k_max       22
_diffrn_reflns_limit_l_min       -32
_diffrn_reflns_limit_l_max       32
_diffrn_reflns_theta_min         2.70
_diffrn_reflns_theta_max         25.34
_reflns_number_total             8685
_reflns_number_gt                4271
_reflns_threshold_expression     >2sigma(I)

_computing_data_collection       'Nonius COLLECT'
_computing_cell_refinement       DENZO-SMN
_computing_data_reduction        DENZO-SMN
_computing_structure_solution    'SHELXS-97 (Sheldrick, 1990)'
_computing_structure_refinement  'SHELXL-97 (Sheldrick, 1997)'
_computing_molecular_graphics    ORTEP3
_computing_publication_material  WinGX

_refine_special_details          
; 
Refinement of F^2^ against ALL reflections.  The weighted R-factor wR and 
goodness of fit S are based on F^2^, conventional R-factors R are based 
on F, with F set to zero for negative F^2^. The threshold expression of 
F^2^ > 2sigma(F^2^) is used only for calculating R-factors(gt) etc. and is 
not relevant to the choice of reflections for refinement.  R-factors based 
on F^2^ are statistically about twice as large as those based on F, and R- 
factors based on ALL data will be even larger. 

The bond distances and angles around the ethylene portion of the ligand
are abnormal. However, the restraint refinement with ideal geometry 
resulted in the abnormally high thermal parameters. There might be some
minor disorder conformations of the mppe ligand are present in the crystal
structure. However, it was not possible to find the proper disorder model
because of poor data quality. 

;

_refine_ls_structure_factor_coef Fsqd
_refine_ls_matrix_type           full
_refine_ls_weighting_scheme      calc
_refine_ls_weighting_details     
'calc w==1/[\s^2^(Fo^2^)+(0.2000P)^2^+0.0000P] where P==(Fo^2^+2Fc^2^)/3'
_atom_sites_solution_primary     direct
_atom_sites_solution_secondary   difmap
_atom_sites_solution_hydrogens   geom
_refine_ls_hydrogen_treatment    mixed
_refine_ls_extinction_method     none
_refine_ls_extinction_coef       ?
_refine_ls_number_reflns         8685
_refine_ls_number_parameters     538
_refine_ls_number_restraints     0
_refine_ls_R_factor_all          0.1864
_refine_ls_R_factor_gt           0.1088
_refine_ls_wR_factor_ref         0.3336
_refine_ls_wR_factor_gt          0.3022
_refine_ls_goodness_of_fit_ref   1.011
_refine_ls_restrained_S_all      1.011
_refine_ls_shift/su_max          0.002
_refine_ls_shift/su_mean         0.000

loop_
_atom_site_label
_atom_site_type_symbol
_atom_site_fract_x
_atom_site_fract_y
_atom_site_fract_z
_atom_site_U_iso_or_equiv
_atom_site_adp_type
_atom_site_occupancy
_atom_site_symmetry_multiplicity
_atom_site_calc_flag
_atom_site_refinement_flags
_atom_site_disorder_assembly
_atom_site_disorder_group
Co1 Co 0.35499(5) 1.02671(5) 0.08701(4) 0.0418(4) Uani 1 1 d . . .
Co2 Co 0.0000 0.11630(7) 0.2500 0.0425(4) Uani 1 2 d S . .
S1 S 0.5255(2) 0.8401(2) 0.1266(3) 0.189(3) Uani 1 1 d . . .
S2 S 0.1927(4) 1.2216(3) 0.0547(2) 0.203(3) Uani 1 1 d . . .
S3 S -0.1441(2) 0.1381(2) 0.06954(14) 0.1255(14) Uani 1 1 d . . .
N1 N 0.2811(3) 0.9380(3) 0.0820(2) 0.0441(15) Uani 1 1 d . . .
N2 N -0.0694(4) 0.6121(4) 0.0901(3) 0.0516(17) Uani 1 1 d . . .
N3 N 0.3588(4) 1.0420(4) 0.1688(3) 0.0557(18) Uani 1 1 d . . .
N4 N 0.3472(4) 0.9978(4) 0.5063(3) 0.0552(18) Uani 1 1 d . . .
N5 N 0.4411(4) 0.9581(4) 0.1127(3) 0.061(2) Uani 1 1 d . . .
N6 N 0.2749(4) 1.0985(4) 0.0607(3) 0.0572(19) Uani 1 1 d . . .
N7 N 0.0763(4) 0.1962(4) 0.2473(3) 0.0570(18) Uani 1 1 d . . .
N8 N 0.4287(3) 0.5304(3) 0.2547(3) 0.0517(17) Uani 1 1 d . . .
N9 N -0.0466(4) 0.1190(4) 0.1694(3) 0.0577(18) Uani 1 1 d . . .
C1 C 0.2165(5) 0.9500(5) 0.0857(4) 0.065(3) Uani 1 1 d . . .
H1 H 0.2036 0.9965 0.0904 0.078 Uiso 1 1 calc R . .
C2 C 0.1687(5) 0.8954(5) 0.0826(4) 0.067(3) Uani 1 1 d . . .
H2 H 0.1254 0.9065 0.0864 0.080 Uiso 1 1 calc R . .
C3 C 0.1823(5) 0.8255(5) 0.0740(4) 0.057(2) Uani 1 1 d . . .
C4 C 0.2490(5) 0.8137(5) 0.0696(4) 0.062(2) Uani 1 1 d . . .
H4 H 0.2620 0.7678 0.0635 0.075 Uiso 1 1 calc R . .
C5 C 0.2960(5) 0.8697(4) 0.0744(4) 0.061(2) Uani 1 1 d . . .
H5 H 0.3405 0.8596 0.0721 0.073 Uiso 1 1 calc R . .
C6 C 0.1287(5) 0.7664(6) 0.0665(4) 0.076(3) Uani 1 1 d . . .
C7 C 0.0915(6) 0.7644(5) 0.0949(4) 0.078(3) Uani 1 1 d . . .
H7 H 0.0988 0.8000 0.1200 0.094 Uiso 1 1 calc R . .
C8 C -0.0119(6) 0.6256(5) 0.1317(4) 0.073(3) Uani 1 1 d . . .
H8 H -0.0071 0.5996 0.1618 0.088 Uiso 1 1 calc R . .
C9 C 0.0402(5) 0.6730(5) 0.1349(4) 0.065(3) Uani 1 1 d . . .
H9 H 0.0779 0.6798 0.1662 0.078 Uiso 1 1 calc R . .
C10 C 0.0360(5) 0.7097(5) 0.0921(4) 0.067(3) Uani 1 1 d . . .
N11 N -0.0183(6) 0.6982(6) 0.0484(5) 0.131(4) Uani 1 1 d . . .
C12 C -0.0740(5) 0.6515(5) 0.0483(5) 0.080(3) Uani 1 1 d . . .
H12 H -0.1147 0.6484 0.0185 0.096 Uiso 1 1 calc R . .
C13 C 0.1262(6) 0.7107(5) 0.0235(4) 0.083(3) Uani 1 1 d . . .
H13A H 0.0921 0.6742 0.0227 0.125 Uiso 1 1 calc R . .
H13B H 0.1725 0.6896 0.0311 0.125 Uiso 1 1 calc R . .
H13C H 0.1123 0.7340 -0.0100 0.125 Uiso 1 1 calc R . .
C14 C 0.3192(7) 1.0932(7) 0.1821(4) 0.100(4) Uani 1 1 d . . .
H14 H 0.2973 1.1286 0.1579 0.120 Uiso 1 1 calc R . .
C15 C 0.3112(8) 1.0937(9) 0.2294(5) 0.127(6) Uani 1 1 d . . .
H15 H 0.2836 1.1291 0.2370 0.153 Uiso 1 1 calc R . .
C16 C 0.3440(8) 1.0415(10) 0.2675(4) 0.123(7) Uani 1 1 d . . .
C17 C 0.3853(9) 0.9891(8) 0.2536(4) 0.120(6) Uani 1 1 d . . .
H17 H 0.4088 0.9539 0.2773 0.144 Uiso 1 1 calc R . .
C18 C 0.3900(7) 0.9912(7) 0.2051(4) 0.092(4) Uani 1 1 d . . .
H18 H 0.4162 0.9557 0.1962 0.110 Uiso 1 1 calc R . .
C19 C 0.3190(6) 1.0572(7) 0.3288(7) 0.131(7) Uani 1 1 d . . .
C20 C 0.3547(7) 1.0178(7) 0.3437(9) 0.171(10) Uani 1 1 d . . .
H20 H 0.3838 0.9905 0.3308 0.205 Uiso 1 1 calc R . .
C21 C 0.4045(5) 1.0063(6) 0.4918(4) 0.070(3) Uani 1 1 d . . .
H21 H 0.4487 1.0043 0.5184 0.085 Uiso 1 1 calc R . .
C22 C 0.4054(6) 1.0171(6) 0.4449(4) 0.075(3) Uani 1 1 d . . .
H22 H 0.4480 1.0220 0.4385 0.090 Uiso 1 1 calc R . .
C23 C 0.3399(9) 1.0210(7) 0.4049(5) 0.104(5) Uani 1 1 d . . .
N24 N 0.2787(7) 1.0163(8) 0.4166(4) 0.141(5) Uani 1 1 d . . .
C25 C 0.2848(6) 1.0028(6) 0.4687(4) 0.071(3) Uani 1 1 d . . .
H25 H 0.2436 0.9972 0.4768 0.085 Uiso 1 1 calc R . .
C26 C 0.2655(6) 1.1141(5) 0.3208(4) 0.078(3) Uani 1 1 d . . .
H26A H 0.2267 1.1058 0.2886 0.117 Uiso 1 1 calc R . .
H26B H 0.2870 1.1594 0.3191 0.117 Uiso 1 1 calc R . .
H26C H 0.2478 1.1142 0.3494 0.117 Uiso 1 1 calc R . .
C27 C 0.1019(6) 0.2471(5) 0.2811(5) 0.095(4) Uani 1 1 d . . .
H27 H 0.0833 0.2527 0.3078 0.114 Uiso 1 1 calc R . .
C28 C 0.1555(7) 0.2935(6) 0.2795(7) 0.125(6) Uani 1 1 d . . .
H28 H 0.1720 0.3286 0.3050 0.150 Uiso 1 1 calc R . .
C29 C 0.1843(6) 0.2877(8) 0.2400(9) 0.137(8) Uani 1 1 d . . .
C30 C 0.1587(5) 0.2375(6) 0.2072(7) 0.113(5) Uani 1 1 d . . .
H30 H 0.1768 0.2304 0.1804 0.135 Uiso 1 1 calc R . .
C31 C 0.1052(5) 0.1934(5) 0.2103(5) 0.088(4) Uani 1 1 d . . .
H31 H 0.0881 0.1589 0.1843 0.105 Uiso 1 1 calc R . .
C32 C 0.2470(13) 0.3398(9) 0.2239(8) 0.156(8) Uani 1 1 d . . .
C33 C 0.2612(14) 0.3622(11) 0.2617(6) 0.206(14) Uani 1 1 d . . .
C34 C 0.4119(7) 0.5116(6) 0.2944(5) 0.094(4) Uani 1 1 d . . .
H34 H 0.4342 0.5375 0.3249 0.112 Uiso 1 1 calc R . .
C35 C 0.3668(8) 0.4599(8) 0.2988(6) 0.115(5) Uani 1 1 d . . .
H35 H 0.3611 0.4497 0.3306 0.137 Uiso 1 1 calc R . .
C36 C 0.3304(5) 0.4240(6) 0.2543(6) 0.097(5) Uani 1 1 d . . .
N37 N 0.3474(6) 0.4377(6) 0.2092(5) 0.129(5) Uani 1 1 d . . .
C38 C 0.3953(6) 0.4918(6) 0.2135(5) 0.090(4) Uani 1 1 d . . .
H38 H 0.4052 0.5025 0.1834 0.109 Uiso 1 1 calc R . .
C39 C 0.2440(14) 0.3266(14) 0.1706(8) 0.265(16) Uani 1 1 d . . .
C40 C 0.4767(5) 0.9090(5) 0.1190(4) 0.066(3) Uani 1 1 d . . .
C41 C 0.2409(6) 1.1495(6) 0.0565(4) 0.082(3) Uani 1 1 d . . .
C42 C -0.0872(5) 0.1269(4) 0.1280(4) 0.061(2) Uani 1 1 d . . .
O1S O 0.0901(10) 0.0801(10) 0.0915(8) 0.231(7) Uiso 1 1 d . . .
C11S C 0.029(3) 0.148(3) 0.050(2) 0.09(2) Uiso 0.24(3) 1 d P . .
C12S C 0.0457(17) 0.0721(18) 0.0436(13) 0.197(15) Uiso 0.76(3) 1 d P . .
O2S O 0.0000 0.6981(17) 0.2500 0.249(11) Uiso 1 2 d S . .
C21S C 0.055(3) 0.742(3) 0.263(2) 0.108(17) Uiso 0.25 1 d P . .
C22S C 0.0000 0.770(5) 0.2500 0.24(3) Uiso 0.50 2 d SP . .
O3S O 0.399(2) 0.3952(19) 0.0913(13) 0.397(16) Uiso 1 1 d . . .
C31S C 0.452(3) 0.356(3) 0.134(2) 0.20(3) Uiso 0.53(8) 1 d P . .
C32S C 0.471(3) 0.395(3) 0.108(2) 0.19(3) Uiso 0.47(8) 1 d P . .

loop_
_atom_site_aniso_label
_atom_site_aniso_U_11
_atom_site_aniso_U_22
_atom_site_aniso_U_33
_atom_site_aniso_U_23
_atom_site_aniso_U_13
_atom_site_aniso_U_12
Co1 0.0454(6) 0.0497(6) 0.0339(6) -0.0008(5) 0.0182(5) -0.0126(5)
Co2 0.0378(8) 0.0367(8) 0.0515(10) 0.000 0.0138(7) 0.000
S1 0.117(3) 0.079(2) 0.316(8) 0.000(3) 0.004(4) 0.037(2)
S2 0.242(6) 0.170(5) 0.173(5) -0.001(4) 0.039(4) 0.129(5)
S3 0.128(3) 0.150(3) 0.064(2) 0.017(2) -0.011(2) -0.001(3)
N1 0.044(4) 0.055(4) 0.042(4) 0.003(3) 0.026(3) -0.014(3)
N2 0.050(4) 0.066(4) 0.039(4) 0.003(3) 0.016(3) -0.007(3)
N3 0.075(5) 0.063(4) 0.031(4) -0.002(3) 0.022(4) -0.020(4)
N4 0.052(4) 0.084(5) 0.033(4) 0.006(3) 0.019(4) 0.025(4)
N5 0.052(4) 0.068(5) 0.064(5) -0.006(4) 0.020(4) -0.019(4)
N6 0.052(4) 0.057(4) 0.068(5) 0.002(4) 0.028(4) -0.015(4)
N7 0.048(4) 0.047(4) 0.068(5) 0.007(4) 0.009(4) -0.005(3)
N8 0.045(4) 0.052(4) 0.065(5) 0.001(4) 0.028(4) 0.002(3)
N9 0.057(4) 0.055(4) 0.057(5) 0.007(4) 0.014(4) -0.001(3)
C1 0.066(6) 0.059(5) 0.082(7) -0.009(5) 0.040(5) -0.013(5)
C2 0.052(5) 0.063(6) 0.099(8) 0.009(5) 0.043(5) -0.011(5)
C3 0.050(5) 0.058(5) 0.062(6) 0.007(4) 0.018(4) -0.020(4)
C4 0.069(6) 0.052(5) 0.072(7) -0.012(4) 0.033(5) -0.017(4)
C5 0.065(6) 0.051(5) 0.064(6) -0.013(4) 0.020(5) -0.011(4)
C6 0.054(6) 0.084(7) 0.085(8) 0.006(6) 0.015(6) -0.012(5)
C7 0.075(7) 0.070(6) 0.096(9) 0.002(6) 0.039(6) -0.024(5)
C8 0.083(7) 0.067(6) 0.063(7) 0.003(5) 0.017(6) -0.026(5)
C9 0.048(5) 0.071(6) 0.061(6) 0.012(5) -0.001(4) -0.035(5)
C10 0.048(5) 0.065(6) 0.073(7) 0.018(5) 0.001(5) -0.026(4)
N11 0.105(8) 0.126(9) 0.159(12) 0.071(8) 0.040(8) -0.028(7)
C12 0.056(6) 0.077(6) 0.101(9) 0.023(6) 0.020(6) -0.019(5)
C13 0.093(8) 0.078(7) 0.088(8) -0.028(6) 0.044(7) -0.041(6)
C14 0.145(11) 0.107(8) 0.064(8) -0.020(6) 0.055(8) 0.013(8)
C15 0.132(12) 0.225(17) 0.046(7) -0.019(9) 0.058(8) 0.014(11)
C16 0.146(12) 0.207(16) 0.028(6) -0.036(8) 0.044(7) -0.128(12)
C17 0.184(15) 0.148(12) 0.034(6) 0.009(7) 0.044(8) -0.063(11)
C18 0.116(10) 0.114(9) 0.048(7) 0.005(6) 0.032(6) -0.012(7)
C19 0.055(7) 0.074(8) 0.217(19) -0.020(9) -0.011(9) 0.015(7)
C20 0.070(9) 0.073(8) 0.35(3) 0.024(12) 0.041(13) 0.025(7)
C21 0.048(5) 0.115(8) 0.048(6) 0.006(5) 0.016(5) 0.002(5)
C22 0.083(7) 0.107(8) 0.049(6) -0.012(6) 0.043(6) -0.014(6)
C23 0.161(13) 0.129(10) 0.059(8) -0.029(7) 0.085(9) -0.049(10)
N24 0.130(10) 0.223(14) 0.056(7) -0.005(8) 0.015(7) -0.051(10)
C25 0.070(7) 0.106(7) 0.041(6) -0.001(5) 0.024(5) -0.011(6)
C26 0.093(8) 0.098(7) 0.051(6) 0.016(5) 0.035(6) 0.038(6)
C27 0.093(8) 0.064(6) 0.098(9) 0.018(6) -0.004(7) -0.029(6)
C28 0.083(9) 0.052(6) 0.178(16) 0.008(8) -0.034(9) -0.038(7)
C29 0.053(7) 0.075(9) 0.27(2) 0.076(12) 0.033(10) -0.028(7)
C30 0.044(6) 0.068(7) 0.243(18) 0.050(9) 0.069(8) -0.007(6)
C31 0.068(7) 0.064(6) 0.144(12) 0.032(6) 0.053(7) 0.009(5)
C32 0.27(2) 0.117(12) 0.125(15) 0.011(11) 0.129(17) 0.045(14)
C33 0.32(3) 0.188(19) 0.066(11) -0.004(11) 0.013(14) 0.17(2)
C34 0.110(9) 0.081(7) 0.111(10) -0.002(7) 0.066(8) -0.025(7)
C35 0.130(12) 0.122(10) 0.110(11) -0.003(9) 0.064(10) -0.059(9)
C36 0.054(6) 0.093(8) 0.155(13) 0.069(9) 0.048(8) -0.017(6)
N37 0.097(8) 0.132(9) 0.130(10) 0.028(8) 0.003(7) -0.064(7)
C38 0.092(8) 0.084(7) 0.085(9) 0.001(6) 0.017(7) -0.046(7)
C39 0.34(3) 0.36(3) 0.189(19) -0.19(2) 0.21(2) -0.29(3)
C40 0.053(5) 0.042(5) 0.087(8) 0.002(5) 0.005(5) 0.002(4)
C41 0.065(7) 0.083(7) 0.080(8) 0.010(6) 0.003(6) -0.004(6)
C42 0.073(6) 0.055(5) 0.057(6) 0.003(4) 0.024(6) 0.000(5)

_geom_special_details            
; 
All esds (except the esd in the dihedral angle between two l.s. planes) 
are estimated using the full covariance matrix.  The cell esds are taken 
into account individually in the estimation of esds in distances, angles 
and torsion angles; correlations between esds in cell parameters are only 
used when they are defined by crystal symmetry.  An approximate (isotropic) 
treatment of cell esds is used for estimating esds involving l.s. planes. 
;

loop_
_geom_bond_atom_site_label_1
_geom_bond_atom_site_label_2
_geom_bond_distance
_geom_bond_