####################################################################### 
# 
# This file contains crystal structure data downloaded from the 
# Cambridge Structural Database (CSD) hosted by the Cambridge 
# Crystallographic Data Centre (CCDC).
# 
# Full information about CCDC data access policies and citation 
# guidelines are available at http://www.ccdc.cam.ac.uk/access/V1 
# 
# Audit and citation data items may have been added by the CCDC. 
# Please retain this information to preserve the provenance of 
# this file and to allow appropriate attribution of the data. 
# 
#######################################################################

data_2
_audit_block_doi                 10.5517/cc66p9c
_database_code_depnum_ccdc_archive 'CCDC 185172'
loop_
_citation_id
_citation_doi
_citation_year
1 10.1021/ic025925p 2002
_audit_update_record             
;
2002-05-05 deposited with the CCDC.	2024-07-10 downloaded from the CCDC.
;

_audit_creation_method           SHELXL-97
_chemical_name_systematic        
; 
? 
;
_chemical_name_common            '2, Cd-Fused Square'
_chemical_melting_point          ?
_chemical_formula_moiety         
;
(C184 H152 Cd N10 O6 P8 Re12 Se16), 4(F6 Sb), 21(C4 H10 O), 19 (C H2 Cl2)
;
_chemical_formula_sum            
'C287 H400 Cd Cl38 F24 N10 O27 P8 Re12 Sb4 Se16'
_chemical_formula_weight         10570.19
_chemical_formula_structural     ?
_chemical_formula_analytical     ?
_chemical_formula_iupac          ?

loop_
_atom_type_symbol
_atom_type_description
_atom_type_scat_dispersion_real
_atom_type_scat_dispersion_imag
_atom_type_scat_source
C C 0.0033 0.0016 'International Tables Vol C Tables 4.2.6.8 and 6.1.1.4'
H H 0.0000 0.0000 'International Tables Vol C Tables 4.2.6.8 and 6.1.1.4'
N N 0.0061 0.0033 'International Tables Vol C Tables 4.2.6.8 and 6.1.1.4'
O O 0.0106 0.0060 'International Tables Vol C Tables 4.2.6.8 and 6.1.1.4'
F F 0.0171 0.0103 'International Tables Vol C Tables 4.2.6.8 and 6.1.1.4'
P P 0.1023 0.0942 'International Tables Vol C Tables 4.2.6.8 and 6.1.1.4'
Se Se -0.0929 2.2259 'International Tables Vol C Tables 4.2.6.8 and 6.1.1.4'
Cd Cd -0.8075 1.2024 'International Tables Vol C Tables 4.2.6.8 and 6.1.1.4'
Sb Sb -0.5866 1.5461 'International Tables Vol C Tables 4.2.6.8 and 6.1.1.4'
Re Re -1.0185 7.2310 'International Tables Vol C Tables 4.2.6.8 and 6.1.1.4'
Cl Cl 0.1484 0.1585 'International Tables Vol C Tables 4.2.6.8 and 6.1.1.4'

_symmetry_cell_setting           Monoclinic
_symmetry_space_group_name_H-M   I2/a
_symmetry_space_group_name_Hall  '-I 2ya '
_symmetry_Int_Tables_number      15

loop_
_symmetry_equiv_pos_as_xyz
'x, y, z'
'-x+1/2, y, -z'
'x+1/2, y+1/2, z+1/2'
'-x+1, y+1/2, -z+1/2'
'-x, -y, -z'
'x-1/2, -y, z'
'-x+1/2, -y+1/2, -z+1/2'
'x, -y+1/2, z+1/2'

_cell_length_a                   36.949(2)
_cell_length_b                   19.4415(13)
_cell_length_c                   42.134(3)
_cell_angle_alpha                90.00
_cell_angle_beta                 102.6240(10)
_cell_angle_gamma                90.00
_cell_volume                     29535(3)
_cell_formula_units_Z            4
_cell_measurement_temperature    170(2)
_cell_measurement_reflns_used    5785
_cell_measurement_theta_min      2.203
_cell_measurement_theta_max      20.808

_exptl_crystal_description       plate
_exptl_crystal_colour            red
_exptl_crystal_size_max          0.30
_exptl_crystal_size_mid          0.30
_exptl_crystal_size_min          0.10
_exptl_crystal_density_meas      ?
_exptl_crystal_density_diffrn    2.377
_exptl_crystal_density_method    'not measured'
_exptl_crystal_F_000             20344
_exptl_absorpt_coefficient_mu    7.767
_exptl_absorpt_correction_type   multi-scan
_exptl_absorpt_correction_T_min  0.2040
_exptl_absorpt_correction_T_max  0.5105
_exptl_absorpt_process_details   'SADABS V2.03 (Sheldrick)'

_exptl_special_details           
; 
The crystalline samples of this material were extremely fragile. They would 
turn to powder in a matter of a few seconds when removed from solvent 
and fracture when touched. The 
best of several samples that appeared to survive flash freezing in a paratone 
oil support is reported here. All samples suffered from 
broad peaks and significant diffuse scattering. While data were collected
to 0.8 Angstroms resolution, significant diffraction did not extend beyond 
1.0 Angstrom and data beyond that limit was rejected. The non-standard space 
group I2/a was used in order to reduce the beta angle from a very obtuse 
126 deg (which caused many parameter correlations) to the current 
102.6 degrees.
;

_diffrn_ambient_temperature      170(2)
_diffrn_radiation_wavelength     0.71073
_diffrn_radiation_type           MoK\a
_diffrn_radiation_source         'fine-focus sealed tube'
_diffrn_radiation_monochromator  graphite
_diffrn_measurement_device_type  'Bruker SMART1000 CCD'
_diffrn_measurement_method       '\w scans'
_diffrn_detector_area_resol_mean ?
_diffrn_standards_number         211
_diffrn_standards_interval_count ?
_diffrn_standards_interval_time  2040
_diffrn_standards_decay_%        0.07
_diffrn_reflns_number            94657
_diffrn_reflns_av_R_equivalents  0.0793
_diffrn_reflns_av_sigmaI/netI    0.0713
_diffrn_reflns_limit_h_min       -36
_diffrn_reflns_limit_h_max       36
_diffrn_reflns_limit_k_min       -19
_diffrn_reflns_limit_k_max       19
_diffrn_reflns_limit_l_min       -42
_diffrn_reflns_limit_l_max       42
_diffrn_reflns_theta_min         1.19
_diffrn_reflns_theta_max         20.85
_reflns_number_total             15483
_reflns_number_gt                9409
_reflns_threshold_expression     I>2sigma(I)
_diffrn_measurement_specimen_support 'glass fiber'
_diffrn_measured_fraction_theta_max 0.995
_diffrn_reflns_theta_full        20.85
_diffrn_measured_fraction_theta_full 0.995
_refine_diff_density_max         1.492
_refine_diff_density_min         -2.224
_refine_diff_density_rms         0.162


_computing_data_collection       'Bruker SMART'
_computing_cell_refinement       'Bruker SMART and SAINT'
_computing_data_reduction        'Bruker SAINT and SHELXTL'
_computing_structure_solution    'SHELXS-97 (Sheldrick, 1990)'
_computing_structure_refinement  'SHELXL-97 (Sheldrick, 1997)'
_computing_molecular_graphics    'Bruker SHELXTL'
_computing_publication_material  'Bruker SHELXTL'

_refine_special_details          
; 
After completing the initial structure solution it was found that 40% of 
the cell volume was filled with disordered solvent which could not be 
modeled as discrete molecules. This lay in channels passing through the 
center of the squares roughly at 40 degrees from the b-c bisector and at 
a constant a of 0.25 or 0.75 connecting one square with its neighbor at 
an upper or lower value of b. Smaller cross channels about the Cd link all
solvent areas into one large area. Analysis of this solvent void using Platon 
(Spek, A.L. (1990), Acta Cryst. A46, C-34) gave a volume of 12404 A^3/cell.
From this point on, atoms in the region were removed and the solvent 
region was refined as a diffuse contribution without specific atom 
positions using the Platon module SQUEEZE (P. van der Sluis & A.L. Spek (1990). 
Acta Cryst. A46, 194-201). The solvent contribution amounted to 6763 
electrons per cell. The given electron count and volume can be accounted 
for by 84.5 molecules of diethyl ether and 76.5 molecules of dichloromethane
per unit cell. While not part of the atom list, these are included in the 
formulas, F000, density and absorption coefficient. A dramatic improvement 
was observed in all refinement parameters and indices. Still a number of 
constraints and restraints were required to maintain chemically reasonable 
bond lengths and angles. In particular, the portions of the framework which 
bordered the solvent region were prone to disorder. The nitrate anions 
coordinated to the Cd were treated as rigid bodies, as well as five of the 
aromatic rings. The SbF6 anions were restrained to have approximate octahedral 
geometry. An overall rigid bond restraint and a isotropic thermal parameter 
restraint were applied to all atoms. 
Five very low angle reflections were removed from the final
refinement procedure because they appeared to have been clipped by the 
beam stop, but were included while using SQUEEZE to maintain a complete 
data set.

Refinement of F^2^ against ALL reflections.  The weighted R-factor wR and 
goodness of fit S are based on F^2^, conventional R-factors R are based 
on F, with F set to zero for negative F^2^. The threshold expression of 
F^2^ > 2sigma(F^2^) is used only for calculating R-factors(gt) etc. and is 
not relevant to the choice of reflections for refinement.  R-factors based 
on F^2^ are statistically about twice as large as those based on F, and R- 
factors based on ALL data will be even larger. 
;

_refine_ls_structure_factor_coef Fsqd
_refine_ls_matrix_type           full
_refine_ls_weighting_scheme      calc
_refine_ls_weighting_details     
'calc w=1/[\s^2^(Fo^2^)+(0.0577P)^2^+0.0000P] where P=(Fo^2^+2Fc^2^)/3'
_atom_sites_solution_primary     direct
_atom_sites_solution_secondary   difmap
_atom_sites_solution_hydrogens   geom
_refine_ls_hydrogen_treatment    mixed
_refine_ls_extinction_method     none
_refine_ls_extinction_coef       ?
_refine_ls_number_reflns         15483
_refine_ls_number_parameters     1116
_refine_ls_number_restraints     1465
_refine_ls_R_factor_all          0.0703
_refine_ls_R_factor_gt           0.0443
_refine_ls_wR_factor_ref         0.1212
_refine_ls_wR_factor_gt          0.1128
_refine_ls_goodness_of_fit_ref   0.918
_refine_ls_restrained_S_all      0.894
_refine_ls_shift/su_max          0.002
_refine_ls_shift/su_mean         0.000

loop_
_atom_site_label
_atom_site_type_symbol
_atom_site_fract_x
_atom_site_fract_y
_atom_site_fract_z
_atom_site_U_iso_or_equiv
_atom_site_adp_type
_atom_site_occupancy
_atom_site_symmetry_multiplicity
_atom_site_calc_flag
_atom_site_refinement_flags
_atom_site_disorder_assembly
_atom_site_disorder_group
Re1 Re 0.591732(14) 0.24122(2) 0.602629(12) 0.03296(16) Uani 1 1 d U . .
Re2 Re 0.592992(15) 0.37591(2) 0.603676(12) 0.03653(17) Uani 1 1 d U . .
Re3 Re 0.553487(13) 0.37648(2) 0.648652(11) 0.02735(15) Uani 1 1 d U . .
Re4 Re 0.551313(13) 0.24013(2) 0.647027(11) 0.02572(15) Uani 1 1 d U . .
Re5 Re 0.529118(15) 0.31094(2) 0.592633(11) 0.03509(16) Uani 1 1 d U . .
Re6 Re 0.615775(13) 0.30510(2) 0.658049(12) 0.02944(15) Uani 1 1 d U . .
Se1 Se 0.49326(3) 0.31146(6) 0.63712(3) 0.0332(3) Uani 1 1 d U . .
Se2 Se 0.57479(3) 0.30467(6) 0.69885(3) 0.0291(3) Uani 1 1 d U . .
Se3 Se 0.56979(4) 0.30971(6) 0.55174(3) 0.0484(4) Uani 1 1 d U . .
Se4 Se 0.65174(4) 0.30734(6) 0.61402(3) 0.0426(4) Uani 1 1 d U . .
Se5 Se 0.61145(3) 0.17611(5) 0.65509(3) 0.0322(3) Uani 1 1 d U . .
Se6 Se 0.53240(4) 0.43988(6) 0.59591(3) 0.0460(4) Uani 1 1 d U . .
Se7 Se 0.61574(4) 0.43400(6) 0.65736(3) 0.0397(4) Uani 1 1 d U . .
Se8 Se 0.53036(3) 0.18054(6) 0.59301(3) 0.0354(3) Uani 1 1 d U . .
Cd1 Cd 0.7500 -0.18984(6) 0.5000 0.0603(5) Uani 1 2 d SU . .
Sb1 Sb 0.61343(4) 0.68737(5) 0.10020(3) 0.0989(5) Uani 1 1 d DU . .
F11 F 0.5998(5) 0.6847(9) 0.0573(2) 0.265(7) Uani 1 1 d DU . .
F12 F 0.6286(3) 0.6916(5) 0.1452(2) 0.153(4) Uani 1 1 d DU . .
F13 F 0.6142(4) 0.7815(4) 0.0987(4) 0.203(6) Uani 1 1 d DU . .
F16 F 0.6634(3) 0.6846(6) 0.0972(3) 0.158(4) Uani 1 1 d DU . .
F15 F 0.5661(3) 0.6929(5) 0.1057(3) 0.163(4) Uani 1 1 d DU . .
F14 F 0.6126(3) 0.5922(4) 0.1035(3) 0.149(4) Uani 1 1 d DU . .
Sb2 Sb 0.86421(5) 0.14552(12) 0.12635(4) 0.1610(8) Uani 1 1 d DU . .
F21 F 0.8355(5) 0.2211(8) 0.1204(6) 0.400(11) Uani 1 1 d DU . .
F22 F 0.8910(5) 0.0649(9) 0.1388(5) 0.387(10) Uani 1 1 d DU . .
F23 F 0.8318(4) 0.1103(8) 0.1512(3) 0.243(6) Uani 1 1 d DU . .
F25 F 0.8931(5) 0.1813(11) 0.1618(3) 0.371(11) Uani 1 1 d DU . .
F24 F 0.8936(4) 0.1761(11) 0.1008(4) 0.337(10) Uani 1 1 d DU . .
F26 F 0.8340(5) 0.1080(13) 0.0908(3) 0.395(11) Uani 1 1 d DU . .
N1 N 0.61571(19) 0.1610(3) 0.57648(17) 0.043(2) Uani 1 1 d GU . .
C10 C 0.6398(2) 0.1782(2) 0.55663(18) 0.054(4) Uani 1 1 d GU . .
H10A H 0.6439 0.2252 0.5522 0.065 Uiso 1 1 calc R . .
C11 C 0.6580(2) 0.1268(3) 0.54331(18) 0.049(4) Uani 1 1 d GU . .
H11A H 0.6745 0.1386 0.5297 0.059 Uiso 1 1 calc R . .
C12 C 0.6521(2) 0.0581(3) 0.54983(19) 0.054(4) Uani 1 1 d GU . .
C18 C 0.6280(2) 0.0409(2) 0.56969(19) 0.055(4) Uani 1 1 d GU . .
H18A H 0.6240 -0.0061 0.5741 0.065 Uiso 1 1 calc R . .
C19 C 0.6098(2) 0.0923(3) 0.58301(17) 0.051(4) Uani 1 1 d GU . .
H19A H 0.5933 0.0805 0.5966 0.062 Uiso 1 1 calc R . .
N11 N 0.7130(2) -0.1036(3) 0.51533(19) 0.054(3) Uani 1 1 d GU . .
C16 C 0.7042(2) -0.1082(3) 0.54570(18) 0.078(5) Uani 1 1 d GU . .
H16A H 0.7120 -0.1469 0.5592 0.094 Uiso 1 1 calc R . .
C17 C 0.6839(3) -0.0561(4) 0.55632(17) 0.078(5) Uani 1 1 d GU . .
H17A H 0.6779 -0.0593 0.5771 0.094 Uiso 1 1 calc R . .
C13 C 0.6724(2) 0.0005(3) 0.5366(2) 0.068(5) Uani 1 1 d GU . .
C14 C 0.6812(2) 0.0051(3) 0.50620(18) 0.051(4) Uani 1 1 d GU . .
H14A H 0.6733 0.0439 0.4927 0.061 Uiso 1 1 calc R . .
C15 C 0.7015(2) -0.0469(4) 0.49558(15) 0.056(4) Uani 1 1 d GU . .
H15A H 0.7075 -0.0438 0.4748 0.068 Uiso 1 1 calc R . .
N2 N 0.6174(2) 0.4565(3) 0.57862(19) 0.069(3) Uani 1 1 d GU . .
C20 C 0.6419(3) 0.4404(3) 0.5590(2) 0.117(8) Uani 1 1 d GU . .
H20A H 0.6462 0.3937 0.5543 0.140 Uiso 1 1 calc R . .
C21 C 0.6600(3) 0.4926(4) 0.5461(2) 0.132(9) Uani 1 1 d GU . .
H21A H 0.6768 0.4817 0.5327 0.159 Uiso 1 1 calc R . .
C22 C 0.6537(2) 0.5610(4) 0.5530(2) 0.066(4) Uani 1 1 d GU . .
C28 C 0.6291(2) 0.5770(3) 0.5726(2) 0.063(4) Uani 1 1 d GU . .
H28A H 0.6248 0.6237 0.5773 0.076 Uiso 1 1 calc R . .
C29 C 0.6110(2) 0.5248(3) 0.58545(18) 0.046(3) Uani 1 1 d GU . .
H29A H 0.5942 0.5358 0.5989 0.056 Uiso 1 1 calc R . .
N21 N 0.7161(3) 0.7263(4) 0.5204(2) 0.076(4) Uani 1 1 d GU . .
C26 C 0.6784(3) 0.7326(4) 0.5195(3) 0.152(10) Uani 1 1 d GU . .
H26A H 0.6655 0.7730 0.5107 0.182 Uiso 1 1 calc R . .
C27 C 0.6597(2) 0.6799(5) 0.5313(3) 0.134(8) Uani 1 1 d GU . .
H27A H 0.6339 0.6842 0.5307 0.161 Uiso 1 1 calc R . .
C23 C 0.6786(3) 0.6208(4) 0.5441(3) 0.096(6) Uani 1 1 d GU . .
C24 C 0.7163(3) 0.6145(5) 0.5450(3) 0.172(11) Uani 1 1 d GU . .
H24A H 0.7292 0.5741 0.5537 0.206 Uiso 1 1 calc R . .
C25 C 0.7350(2) 0.6672(5) 0.5331(3) 0.189(12) Uani 1 1 d GU . .
H25A H 0.7608 0.6629 0.5337 0.227 Uiso 1 1 calc R . .
P3 P 0.53366(9) 0.47040(15) 0.68174(8) 0.0356(8) Uani 1 1 d U . .
C310 C 0.4932(4) 0.4499(5) 0.6987(3) 0.038(3) Uani 1 1 d U . .
C311 C 0.4958(4) 0.4465(5) 0.7322(3) 0.052(3) Uani 1 1 d U . .
H31A H 0.5193 0.4513 0.7467 0.063 Uiso 1 1 calc R . .
C312 C 0.4633(4) 0.4358(7) 0.7447(4) 0.065(4) Uani 1 1 d U . .
H31B H 0.4647 0.4371 0.7675 0.078 Uiso 1 1 calc R . .
C313 C 0.4310(5) 0.4241(8) 0.7242(4) 0.081(5) Uani 1 1 d U . .
H31C H 0.4102 0.4131 0.7330 0.097 Uiso 1 1 calc R . .
C314 C 0.4264(4) 0.4269(6) 0.6916(4) 0.069(4) Uani 1 1 d U . .
H31D H 0.4029 0.4202 0.6774 0.083 Uiso 1 1 calc R . .
C315 C 0.4602(4) 0.4410(6) 0.6795(4) 0.059(4) Uani 1 1 d U . .
H31E H 0.4581 0.4438 0.6567 0.071 Uiso 1 1 calc R . .
C320 C 0.5236(3) 0.5517(5) 0.6596(3) 0.033(3) Uani 1 1 d U . .
C321 C 0.4881(4) 0.5773(6) 0.6492(3) 0.053(4) Uani 1 1 d U . .
H32A H 0.4671 0.5518 0.6521 0.064 Uiso 1 1 calc R . .
C322 C 0.4836(4) 0.6464(7) 0.6332(3) 0.056(4) Uani 1 1 d U . .
H32B H 0.4599 0.6669 0.6263 0.067 Uiso 1 1 calc R . .
C323 C 0.5144(4) 0.6786(7) 0.6289(3) 0.067(4) Uani 1 1 d U . .
H32C H 0.5119 0.7229 0.6192 0.081 Uiso 1 1 calc R . .
C324 C 0.5498(4) 0.6499(7) 0.6379(3) 0.056(3) Uani 1 1 d U . .
H32D H 0.5707 0.6735 0.6335 0.067 Uiso 1 1 calc R . .
C325 C 0.5539(3) 0.5915(5) 0.6523(3) 0.033(3) Uani 1 1 d U . .
H32E H 0.5783 0.5731 0.6585 0.039 Uiso 1 1 calc R . .
C330 C 0.5681(3) 0.5020(6) 0.7175(3) 0.032(2) Uani 1 1 d U . .
C331 C 0.5610(4) 0.5646(6) 0.7299(3) 0.045(3) Uani 1 1 d U . .
H33A H 0.5390 0.5884 0.7198 0.054 Uiso 1 1 calc R . .
C332 C 0.5841(4) 0.5941(6) 0.7561(3) 0.052(4) Uani 1 1 d U . .
H33B H 0.5777 0.6363 0.7649 0.063 Uiso 1 1 calc R . .
C333 