####################################################################### 
# 
# This file contains crystal structure data downloaded from the 
# Cambridge Structural Database (CSD) hosted by the Cambridge 
# Crystallographic Data Centre (CCDC).
# 
# Full information about CCDC data access policies and citation 
# guidelines are available at http://www.ccdc.cam.ac.uk/access/V1 
# 
# Audit and citation data items may have been added by the CCDC. 
# Please retain this information to preserve the provenance of 
# this file and to allow appropriate attribution of the data. 
# 
#######################################################################

data_mo
_audit_block_doi                 10.5517/ccw9gg2
_database_code_depnum_ccdc_archive 'CCDC 813454'
loop_
_citation_id
_citation_doi
_citation_year
1 10.1002/zaac.201100141 2011
_audit_update_record             
;
2011-02-16 deposited with the CCDC.	2024-07-10 downloaded from the CCDC.
;
#TrackingRef 'ICC20110308.cif'


_audit_creation_method           SHELXL-97
_chemical_name_systematic        
;
?
;
_chemical_name_common            ?
_chemical_melting_point          ?
_chemical_formula_moiety         'C14 H6 Ag La N2 O8, 3(H2 O)'
_chemical_formula_sum            'C14 H12 Ag La N2 O11'
_chemical_formula_weight         631.04

loop_
_atom_type_symbol
_atom_type_description
_atom_type_scat_dispersion_real
_atom_type_scat_dispersion_imag
_atom_type_scat_source
C C 0.0033 0.0016 'International Tables Vol C Tables 4.2.6.8 and 6.1.1.4'
H H 0.0000 0.0000 'International Tables Vol C Tables 4.2.6.8 and 6.1.1.4'
N N 0.0061 0.0033 'International Tables Vol C Tables 4.2.6.8 and 6.1.1.4'
O O 0.0106 0.0060 'International Tables Vol C Tables 4.2.6.8 and 6.1.1.4'
Ag Ag -0.8971 1.1015 'International Tables Vol C Tables 4.2.6.8 and 6.1.1.4'
La La -0.2871 2.4523 'International Tables Vol C Tables 4.2.6.8 and 6.1.1.4'

_symmetry_cell_setting           triclinic
_symmetry_space_group_name_H-M   'P -1'
_symmetry_space_group_name_Hall  '-P 1'

loop_
_symmetry_equiv_pos_as_xyz
'x, y, z'
'-x, -y, -z'

_cell_length_a                   7.445(5)
_cell_length_b                   10.617(7)
_cell_length_c                   11.720(8)
_cell_angle_alpha                101.816(8)
_cell_angle_beta                 100.422(7)
_cell_angle_gamma                97.006(8)
_cell_volume                     879.5(10)
_cell_formula_units_Z            2
_cell_measurement_temperature    293(2)
_cell_measurement_reflns_used    1429
_cell_measurement_theta_min      2.82
_cell_measurement_theta_max      23.11

_exptl_crystal_description       block
_exptl_crystal_colour            colorless
_exptl_crystal_size_max          0.24
_exptl_crystal_size_mid          0.20
_exptl_crystal_size_min          0.18
_exptl_crystal_density_meas      ?
_exptl_crystal_density_diffrn    2.383
_exptl_crystal_density_method    'not measured'
_exptl_crystal_F_000             604
_exptl_absorpt_coefficient_mu    3.576
_exptl_absorpt_correction_type   multi-scan
_exptl_absorpt_correction_T_min  0.4807
_exptl_absorpt_correction_T_max  0.5654
_exptl_absorpt_process_details   'SADABS(Bruker, 2000)'

_exptl_special_details           
;
?
;

_diffrn_ambient_temperature      293(2)
_diffrn_radiation_wavelength     0.71073
_diffrn_radiation_type           MoK\a
_diffrn_radiation_source         'sealed tube'
_diffrn_radiation_monochromator  graphite
_diffrn_measurement_device_type  'Bruker Smart Aepex CCD area detector'
_diffrn_measurement_method       'phi and omega scans'
_diffrn_detector_area_resol_mean ?
_diffrn_standards_number         ?
_diffrn_standards_interval_count ?
_diffrn_standards_interval_time  ?
_diffrn_standards_decay_%        ?
_diffrn_reflns_number            5802
_diffrn_reflns_av_R_equivalents  0.0487
_diffrn_reflns_av_sigmaI/netI    0.0774
_diffrn_reflns_limit_h_min       -8
_diffrn_reflns_limit_h_max       8
_diffrn_reflns_limit_k_min       -12
_diffrn_reflns_limit_k_max       12
_diffrn_reflns_limit_l_min       -13
_diffrn_reflns_limit_l_max       13
_diffrn_reflns_theta_min         2.36
_diffrn_reflns_theta_max         25.10
_reflns_number_total             3049
_reflns_number_gt                2303
_reflns_threshold_expression     >2sigma(I)

_computing_data_collection       'SMART (Bruker, 2000)'
_computing_cell_refinement       SMART
_computing_data_reduction        'SAINT (Bruker, 2000)'
_computing_structure_solution    'SHELXTL (Bruker, 2000)'
_computing_structure_refinement  SHELXTL
_computing_molecular_graphics    SHELXTL
_computing_publication_material  SHELXTL

_refine_special_details          
;
Refinement of F^2^ against ALL reflections. The weighted R-factor wR and
goodness of fit S are based on F^2^, conventional R-factors R are based
on F, with F set to zero for negative F^2^. The threshold expression of
F^2^ > 2sigma(F^2^) is used only for calculating R-factors(gt) etc. and is
not relevant to the choice of reflections for refinement. R-factors based
on F^2^ are statistically about twice as large as those based on F, and R-
factors based on ALL data will be even larger.
;

_refine_ls_structure_factor_coef Fsqd
_refine_ls_matrix_type           full
_refine_ls_weighting_scheme      calc
_refine_ls_weighting_details     
'calc w=1/[\s^2^(Fo^2^)+(0.1177P)^2^+0.0000P] where P=(Fo^2^+2Fc^2^)/3'
_atom_sites_solution_primary     direct
_atom_sites_solution_secondary   difmap
_atom_sites_solution_hydrogens   geom
_refine_ls_hydrogen_treatment    constr
_refine_ls_extinction_method     none
_refine_ls_extinction_coef       ?
_refine_ls_number_reflns         3049
_refine_ls_number_parameters     262
_refine_ls_number_restraints     0
_refine_ls_R_factor_all          0.0882
_refine_ls_R_factor_gt           0.0672
_refine_ls_wR_factor_ref         0.1814
_refine_ls_wR_factor_gt          0.1643
_refine_ls_goodness_of_fit_ref   1.020
_refine_ls_restrained_S_all      1.020
_refine_ls_shift/su_max          0.000
_refine_ls_shift/su_mean         0.000

loop_
_atom_site_label
_atom_site_type_symbol
_atom_site_fract_x
_atom_site_fract_y
_atom_site_fract_z
_atom_site_U_iso_or_equiv
_atom_site_adp_type
_atom_site_occupancy
_atom_site_symmetry_multiplicity
_atom_site_calc_flag
_atom_site_refinement_flags
_atom_site_disorder_assembly
_atom_site_disorder_group
Ag1 Ag 1.28958(15) 0.74788(11) 0.71133(10) 0.0587(4) Uani 1 1 d . . .
La1 La 0.25561(8) 0.46838(6) 0.06903(5) 0.0286(3) Uani 1 1 d . . .
N1 N 1.0389(14) 0.6754(10) 0.5716(9) 0.043(2) Uani 1 1 d . . .
N2 N 0.4915(14) -0.0807(10) -0.1868(10) 0.048(3) Uani 1 1 d . . .
O1 O 0.4949(10) 0.4248(8) 0.2530(7) 0.0396(19) Uani 1 1 d . . .
O2 O 0.4700(11) 0.6299(8) 0.2538(7) 0.043(2) Uani 1 1 d . . .
O3 O 0.8071(10) 0.5649(8) 0.1548(6) 0.0389(19) Uani 1 1 d . . .
O4 O 1.0899(11) 0.5300(8) 0.2302(7) 0.041(2) Uani 1 1 d . . .
O5 O 0.5422(9) 0.3694(7) -0.0014(6) 0.0313(17) Uani 1 1 d . . .
O6 O 0.2869(11) 0.2318(8) -0.0159(9) 0.050(2) Uani 1 1 d . . .
O7 O 0.9614(14) 0.2451(9) 0.1162(8) 0.060(3) Uani 1 1 d . . .
O8 O 0.9189(10) 0.3544(8) -0.0251(7) 0.0377(19) Uani 1 1 d . . .
O1W O 0.063(4) 0.096(2) 0.6965(19) 0.210(11) Uani 1 1 d . . .
H1WA H 0.1286 0.0752 0.6455 0.252 Uiso 1 1 d R . .
H1WB H -0.0525 0.0750 0.6660 0.252 Uiso 1 1 d R . .
O2W O 0.419(4) 0.841(3) 0.428(3) 0.31(2) Uani 1 1 d . . .
H2WA H 0.3928 0.8120 0.3529 0.371 Uiso 1 1 d R . .
H2WB H 0.4067 0.7779 0.4622 0.371 Uiso 1 1 d R . .
O3W O 0.236(5) 0.010(3) 0.494(3) 0.34(2) Uani 1 1 d . . .
H3WA H 0.3026 -0.0474 0.5067 0.405 Uiso 1 1 d R . .
H3WB H 0.3023 0.0737 0.4802 0.405 Uiso 1 1 d R . .
C1 C 0.5505(14) 0.5455(12) 0.2891(9) 0.032(3) Uani 1 1 d . . .
C2 C 0.7249(15) 0.5940(10) 0.3869(9) 0.032(2) Uani 1 1 d . . .
C3 C 0.7084(16) 0.6252(12) 0.5049(9) 0.039(3) Uani 1 1 d . . .
H3 H 0.5922 0.6172 0.5240 0.047 Uiso 1 1 calc R . .
C4 C 0.8689(16) 0.6690(12) 0.5952(10) 0.040(3) Uani 1 1 d . . .
H4 H 0.8569 0.6944 0.6739 0.048 Uiso 1 1 calc R . .
C5 C 1.0535(15) 0.6423(11) 0.4580(9) 0.032(2) Uani 1 1 d . . .
H5 H 1.1711 0.6481 0.4410 0.038 Uiso 1 1 calc R . .
C6 C 0.9007(14) 0.5996(11) 0.3640(9) 0.034(3) Uani 1 1 d . . .
C7 C 0.9327(14) 0.5605(10) 0.2370(9) 0.028(2) Uani 1 1 d . . .
C8 C 0.4517(15) 0.2549(11) -0.0277(11) 0.036(3) Uani 1 1 d . . .
C9 C 0.5435(15) 0.1416(11) -0.0764(11) 0.036(3) Uani 1 1 d . . .
C10 C 0.4301(16) 0.0266(11) -0.1415(12) 0.045(3) Uani 1 1 d . . .
H10 H 0.3027 0.0246 -0.1541 0.054 Uiso 1 1 calc R . .
C11 C 0.6804(17) -0.0748(13) -0.1711(12) 0.049(3) Uani 1 1 d . . .
H11 H 0.7272 -0.1472 -0.2055 0.058 Uiso 1 1 calc R . .
C12 C 0.8015(17) 0.0352(12) -0.1062(11) 0.042(3) Uani 1 1 d . . .
H12 H 0.9283 0.0352 -0.0956 0.051 Uiso 1 1 calc R . .
C13 C 0.7360(15) 0.1469(11) -0.0560(10) 0.035(3) Uani 1 1 d . . .
C14 C 0.8799(14) 0.2579(11) 0.0198(10) 0.034(3) Uani 1 1 d . . .

loop_
_atom_site_aniso_label
_atom_site_aniso_U_11
_atom_site_aniso_U_22
_atom_site_aniso_U_33
_atom_site_aniso_U_23
_atom_site_aniso_U_13
_atom_site_aniso_U_12
Ag1 0.0451(6) 0.0696(8) 0.0446(7) -0.0053(5) -0.0029(5) -0.0048(5)
La1 0.0195(4) 0.0456(4) 0.0219(4) 0.0056(3) 0.0094(3) 0.0065(3)
N1 0.037(6) 0.062(7) 0.027(5) 0.006(5) 0.008(4) 0.007(5)
N2 0.032(5) 0.048(6) 0.057(7) -0.005(5) 0.007(5) 0.013(5)
O1 0.027(4) 0.058(6) 0.033(4) 0.010(4) 0.009(3) 0.001(4)
O2 0.035(4) 0.063(5) 0.031(5) 0.009(4) 0.010(4) 0.014(4)
O3 0.025(4) 0.072(6) 0.021(4) 0.013(4) 0.007(3) 0.007(4)
O4 0.030(4) 0.075(6) 0.027(4) 0.013(4) 0.015(3) 0.020(4)
O5 0.020(4) 0.046(5) 0.031(4) 0.006(3) 0.014(3) 0.008(3)
O6 0.028(4) 0.050(5) 0.072(7) 0.006(4) 0.018(4) 0.007(4)
O7 0.069(7) 0.063(6) 0.038(6) 0.006(4) -0.013(5) 0.013(5)
O8 0.021(4) 0.051(5) 0.043(5) 0.009(4) 0.016(3) 0.004(3)
O1W 0.23(3) 0.22(2) 0.17(2) 0.097(18) -0.017(19) 0.02(2)
O2W 0.34(4) 0.19(2) 0.37(5) -0.09(3) 0.26(4) -0.07(2)
O3W 0.47(6) 0.15(2) 0.42(5) 0.08(3) 0.16(5) 0.06(3)
C1 0.021(5) 0.054(8) 0.025(6) 0.004(5) 0.015(5) 0.014(5)
C2 0.027(5) 0.046(7) 0.022(6) 0.004(5) 0.005(4) 0.009(5)
C3 0.035(6) 0.069(8) 0.018(6) 0.009(5) 0.012(5) 0.015(6)
C4 0.036(6) 0.056(8) 0.024(6) 0.000(5) 0.004(5) 0.010(6)
C5 0.030(6) 0.049(7) 0.017(5) 0.004(5) 0.006(4) 0.011(5)
C6 0.024(5) 0.053(7) 0.022(6) -0.005(5) 0.012(5) 0.009(5)
C7 0.027(6) 0.034(6) 0.023(6) 0.003(4) 0.012(5) -0.001(5)
C8 0.024(6) 0.044(7) 0.041(7) 0.004(5) 0.015(5) 0.001(5)
C9 0.023(5) 0.044(7) 0.041(7) 0.007(5) 0.009(5) 0.004(5)
C10 0.030(6) 0.041(7) 0.059(9) 0.000(6) 0.008(6) 0.007(5)
C11 0.031(6) 0.056(8) 0.053(8) 0.000(6) 0.007(6) 0.010(6)
C12 0.032(6) 0.055(8) 0.039(7) 0.005(6) 0.010(5) 0.010(6)
C13 0.031(6) 0.048(7) 0.031(6) 0.009(5) 0.014(5) 0.008(5)
C14 0.023(5) 0.054(7) 0.027(6) 0.008(5) 0.011(5) 0.009(5)

_geom_special_details            
;
All esds (except the esd in the dihedral angle between two l.s. planes)
are estimated using the full covariance matrix. The cell esds are taken
into account individually in the estimation of esds in distances, angles
and torsion angles; correlations between esds in cell parameters are only
used when they are defined by crystal symmetry. An approximate (isotropic)
treatment of cell esds is used for estimating esds involving l.s. planes.
;

loop_
_geom_bond_atom_site_label_1
_geom_bond_atom_site_label_2
_geom_bond_distance
_geom_bond_site_symmetry_2
_geom_bond_publ_flag
Ag1 N1 2.188(10) . ?
Ag1 N2 2.189(10) 1_666 ?
La1 O4 2.460(7) 1_455 ?
La1 O5 2.494(7) 2_665 ?
La1 O8 2.499(8) 2_665 ?
La1 O3 2.523(7) 2_665 ?
La1 O6 2.561(9) . ?
La1 O8 2.584(7) 1_455 ?
La1 O2 2.596(8) . ?
La1 O5 2.677(7) . ?
La1 O1 2.693(8) . ?
La1 La1 4.049(2) 2_565 ?
N1 C5 1.333(14) . ?
N1 C4 1.341(15) . ?
N2 C10 1.325(15) . ?
N2 C11 1.376(15) . ?
N2 Ag1 2.189(10) 1_444 ?
O1 C1 1.255(14) . ?
O2 C1 1.236(13) . ?
O3 C7 1.228(12) . ?
O3 La1 2.523(7) 2_665 ?
O4 C7 1.264(13) . ?
O4 La1 2.460(7) 1_655 ?
O5 C8 1.265(13) . ?
O5 La1 2.494(7) 2_665 ?
O6 C8 1.260(13) . ?
O7 C14 1.224(13) . ?
O8 C14 1.270(13) . ?
O8 La1 2.499(8) 2_665 ?
O8 La1 2.584(7) 1_655 ?
O1W H1WA 0.8500 . ?
O1W H1WB 0.8500 . ?
O2W H2WA 0.8500 . ?
O2W H2WB 0.8500 . ?
O3W H3WA 0.8500 . ?
O3W H3WB 0.8500 . ?
C1 C2 1.524(15) . ?
C2 C6 1.379(15) . ?
C2 C3 1.386(14) . ?
C3 C4 1.403(15) . ?
C3 H3 0.9300 . ?
C4 H4 0.9300 . ?
C5 C6 1.389(14) . ?
C5 H5 0.9300 . ?
C6 C7 1.530(14) . ?
C8 C9 1.516(16) . ?
C9 C10 1.385(16) . ?
C9 C13 1.402(14) . ?
C10 H10 0.9300 . ?
C11 C12 1.373(17) . ?
C11 H11 0.9300 . ?
C12 C13 1.396(16) . ?
C12 H12 0.9300 . ?
C13 C14 1.498(16) . ?

loop_
_geom_angle_atom_site_label_1
_geom_angle_atom_site_label_2
_geom_angle_atom_site_label_3
_geom_angle
_geom_angle_site_symmetry_1
_geom_angle_site_symmetry_3
_geom_angle_publ_flag
N1 Ag1 N2 145.8(4) . 1_666 ?
O4 La1 O5 123.0(3) 1_455 2_665 ?
O4 La1 O8 71.8(3) 1_455 2_665 ?
O5 La1 O8 70.7(2) 2_665 2_665 ?
O4 La1 O3 137.4(2) 1_455 2_665 ?
O5 La1 O3 67.1(2) 2_665 2_665 ?
O8 La1 O3 74.8(3) 2_665 2_665 ?
O4 La1 O6 122.7(3) 1_455 . ?
O5 La1 O6 113.3(3) 2_665 . ?
O8 La1 O6 142.3(3) 2_665 . ?
O3 La1 O6 73.3(3) 2_665 . ?
O4 La1 O8 76.7(3) 1_455 1_455 ?
O5 La1 O8 129.5(2) 2_665 1_455 ?
O8 La1 O8 74.4(3) 2_665 1_455 ?
O3 La1 O8 69.3(2) 2_665 1_455 ?
O6 La1 O8 76.0(3) . 1_455 ?
O4 La1 O2 68.3(3) 1_455 . ?
O5 La1 O2 70.7(3) 2_665 . ?
O8 La1 O2 90.5(3) 2_665 . ?
O3 La1 O2 137.8(3) 2_665 . ?
O6 La1 O2 126.9(3) . . ?
O8 La1 O2 144.8(3) 1_455 . ?
O4 La1 O5 148.3(2) 1_455 . ?
O5 La1 O5 68.5(3) 2_665 . ?
O8 La1 O5 135.5(2) 2_665 . ?
O3 La1 O5 73.7(2) 2_665 . ?
O6 La1 O5 49.8(2) . . ?
O8 La1 O5 121.0(2) 1_455 . ?
O2 La1 O5 92.2(2) . . ?
O4 La1 O1 80.2(2) 1_455 . ?
O5 La1 O1 101.0(2) 2_665 . ?
O8 La1 O1 137.8(3) 2_665 . ?
O3 La1 O1 141.8(3) 2_665 . ?
O6 La1 O1 79.7(3) . . ?
O8 La1 O1 129.2(2) 1_455 . ?
O2 La1 O1 49.3(3) . . ?
O5 La1 O1 68.2(2) . . ?
O4 La1 La1 70.17(18) 1_455 2_565 ?
O5 La1 La1 101.64(16) 2_665 2_565 ?
O8 La1 La1 37.94(17) 2_665 2_565 ?
O3 La1 La1 67.19(17) 2_665 2_565 ?
O6 La1 La1 109.50(19) . 2_565 ?
O8 La1 La1 36.48(17) 1_455 2_565 ?
O2 La1 La1 121.77(18) . 2_565 ?
O5 La1 La1 140.24(16) . 2_565 ?
O1 La1 La1 149.35(17) . 2_565 ?
C5 N1 C4 118.2(10) . . ?
C5 N1 Ag1 119.4(8) . . ?
C4 N1 Ag1 122.3(8) . . ?
C10 N2 C11 117.3(11) . . ?
C10 N2 Ag1 118.7(8) . 1_444 ?
C11 N2 Ag1 124.0(8) . 1_444 ?
C1 O1 La1 89.7(6) . . ?
C1 O2 La1 94.7(7) . . ?
C7 O3 La1 139.1(7) . 2_665 ?
C7 O4 La1 135.8(7) . 1_655 ?
C8 O5 La1 145.5(7) . 2_665 ?
C8 O5 La1 91.2(6) . . ?
La1 O5 La1 111.5(3) 2_665 . ?
C8 O6 La1 96.8(7) . . ?
C14 O8 La1 132.2(7) . 2_665 ?
C14 O8 La1 109.8(7) . 1_655 ?
La1 O8 La1 105.6(3) 2_665 1_655 ?
H1WA O1W H1WB 112.2 . . ?
H2WA O2W H2WB 109.8 . . ?
H3WA O3W H3WB 109.0 . . ?
O2 C1 O1 124.6(10) . . ?
O2 C1 C2 116.5(10) . . ?
O1 C1 C2 118.9(9) . . ?
C6 C2 C3 118.0(10) . . ?
C6 C2 C1 122.7(9) . . ?
C3 C2 C1 119.1(10) . . ?
C2 C3 C4 119.2(11) . . ?
C2 C3 H3 120.4 . . ?
C4 C3 H3 120.4 . . ?
N1 C4 C3 122.1(11) . . ?
N1 C4 H4 119.0 . . ?
C3 C4 H4 119.0 . . ?
N1 C5 C6 122.9(10) . . ?
N1 C5 H5 118.6 . . ?
C6 C5 H5 118.6 . . ?
C2 C6 C5 119.5(10) . . ?
C2 C6 C7 121.7(9) . . ?
C5 C6 C7 118.7(9) . . ?
O3 C7 O4 127.7(10) . . ?
O3 C7 C6 117.4(9) . . ?
O4 C7 C6 114.9(9) . . ?
O6 C8 O5 122.1(10) . . ?
O6 C8 C9 118.8(10) . . ?
O5 C8 C9 119.1(9) . . ?
C10 C9 C13 118.9(11) . . ?
C10 C9 C8 117.9(10) . . ?
C13 C9 C8 123.2(10) . . ?
N2 C10 C9 124.2(11) . . ?
N2 C10 H10 117.9 . . ?
C9 C10 H10 117.9 . . ?
C12 C11 N2 121.8(11) . . ?
C12 C11 H11 119.1 . . ?
N2 C11 H11 119.1 . . ?
C11 C12 C13 120.7(11) . . ?
C11 C12 H12 119.7 . . ?
C13 C12 H12 119.7 . . ?
C12 C13 C9 117.1(11) . . ?
C12 C13 C14 116.1(10) . . ?
C9 C13 C14 126.7(10) . . ?
O7 C14 O8 124.5(11) . . ?
O7 C14 C13 117.9(10) . . ?
O8 C14 C13 117.3(10) . . ?

loop_
_geom_torsion_atom_site_label_1
_geom_torsion_atom_site_label_2
_geom_torsion_atom_site_label_3
_geom_torsion_atom_site_label_4
_geom_torsion
_geom_torsion_site_symmetry_1
_geom_torsion_site_symmetry_2
_geom_torsion_site_symmetry_3
_geom_torsion_site_symmetry_4
_geom_torsion_publ_flag
N2 Ag1 N1 C5 86.7(11) 1_666 . . . ?
N2 Ag1 N1 C4 -89.8(11) 1_666 . . . ?
O4 La1 O1 C1 -76.9(6) 1_455 . . . ?
O5 La1 O1 C1 45.1(6) 2_665 . . . ?
O8 La1 O1 C1 -28.2(7) 2_665 . . . ?
O3 La1 O1 C1 111.9(6) 2_665 . . . ?
O6 La1 O1 C1 157.1(6) . . . . ?
O8 La1 O1 C1 -140.7(6) 1_455 . . . ?
O2 La1 O1 C1 -7.2(5) . . . . ?
O5 La1 O1 C1 106.3(6) . . . . ?
La1 La1 O1 C1 -91.9(6) 2_565 . . . ?
O4 La1 O2 C1 103.1(7) 1_455 . . . ?
O5 La1 O2 C1 -117.4(6) 2_665 . . . ?
O8 La1 O2 C1 173.3(6) 2_665 . . . ?
O3 La1 O2 C1 -119.2(6) 2_665 . . . ?
O6 La1 O2 C1 -12.3(7) . . . . ?
O8 La1 O2 C1 110.3(7) 1_455 . . . ?
O5 La1 O2 C1 -51.2(6) . . . . ?
O1 La1 O2 C1 7.3(6) . . . . ?
La1 La1 O2 C1 150.6(6) 2_565 . . . ?
O4 La1 O5 C8 88.1(8) 1_455 . . . ?
O5 La1 O5 C8 -153.5(8) 2_665 . . . ?
O8 La1 O5 C8 -128.8(7) 2_665 . . . ?
O3 La1 O5 C8 -82.2(7) 2_665 . . . ?
O6 La1 O5 C8 -0.6(6) . . . . ?
O8 La1 O5 C8 -29.4(7) 1_455 . . . ?
O2 La1 O5 C8 138.3(6) . . . . ?
O1 La1 O5 C8 94.2(6) . . . . ?
La1 La1 O5 C8 -71.3(7) 2_565 . . . ?
O4 La1 O5 La1 -118.4(5) 1_455 . . 2_665 ?
O5 La1 O5 La1 0.0 2_665 . . 2_665 ?
O8 La1 O5 La1 24.7(5) 2_665 . . 2_665 ?
O3 La1 O5 La1 71.3(3) 2_665 . . 2_665 ?
O6 La1 O5 La1 152.9(5) . . . 2_665 ?
O8 La1 O5 La1 124.1(3) 1_455 . . 2_665 ?
O2 La1 O5 La1 -68.2(3) . . . 2_665 ?
O1 La1 O5 La1 -112.3(3) . . . 2_665 ?
La1 La1 O5 La1 82.2(3) 2_565 . . 2_665 ?
O4 La1 O6 C8 -140.7(7) 1_455 . . . ?
O5 La1 O6 C8 28.2(8) 2_665 . . . ?
O8 La1 O6 C8 116.3(7) 2_665 . . . ?
O3 La1 O6 C8 83.3(8) 2_665 . . . ?
O8 La1 O6 C8 155.5(8) 1_455 . . . ?
O2 La1 O6 C8 -54.5(9) . . . . ?
O5 La1 O6 C8 0.7(7) . . . . ?
O1 La1 O6 C8 -69.5(7) . . . . ?
La1 La1 O6 C8 140.9(7) 2_565 . . . ?
La1 O2 C1 O1 -14.5(11) . . . . ?
La1 O2 C1 C2 168.0(8) . . . . ?
La1 O1 C1 O2 13.9(10) . . . . ?
La1 O1 C1 C2 -168.7(8) . . . . ?
O2 C1 C2 C6 -100.1(13) . . . . ?
O1 C1 C2 C6 82.3(14) . . . . ?
O2 C1 C2 C3 84.7(13) . . . . ?
O1 C1 C2 C3 -92.9(13) . . . . ?
C6 C2 C3 C4 4.1(17) . . . . ?
C1 C2 C3 C4 179.5(10) . . . . ?
C5 N1 C4 C3 2.0(18) . . . . ?
Ag1 N1 C4 C3 178.5(9) . . . . ?
C2 C3 C4 N1 -3.5(18) . . . . ?
C4 N1 C5 C6 -1.2(17) . . . . ?
Ag1 N1 C5 C6 -177.8(8) . . . . ?
C3 C2 C6 C5 -3.3(17) . . . . ?
C1 C2 C6 C5 -178.6(10) . . . . ?
C3 C2 C6 C7 177.0(10) . . . . ?
C1 C2 C6 C7 1.7(17) . . . . ?
N1 C5 C6 C2 1.9(18) . . . . ?
N1 C5 C6 C7 -178.4(10) . . . . ?
La1 O3 C7 O4 -2.1(19) 2_665 . . . ?
La1 O3 C7 C6 176.1(7) 2_665 . . . ?
La1 O4 C7 O3 1.9(18) 1_655 . . . ?
La1 O4 C7 C6 -176.4(7) 1_655 . . . ?
C2 C6 C7 O3 23.2(16) . . . . ?
C5 C6 C7 O3 -156.5(10) . . . . ?
C2 C6 C7 O4 -158.4(11) . . . . ?
C5 C6 C7 O4 22.0(15) . . . . ?
La1 O6 C8 O5 -1.2(12) . . . . ?
La1 O6 C8 C9 179.5(9) . . . . ?
La1 O5 C8 O6 -131.7(11) 2_665 . . . ?
La1 O5 C8 O6 1.2(12) . . . . ?
La1 O5 C8 C9 47.6(17) 2_665 . . . ?
La1 O5 C8 C9 -179.5(10) . . . . ?
O6 C8 C9 C10 21.0(17) . . . . ?
O5 C8 C9 C10 -158.3(11) . . . . ?
O6 C8 C9 C13 -157.3(11) . . . . ?
O5 C8 C9 C13 23.4(17) . . . . ?
C11 N2 C10 C9 -2(2) . . . . ?
Ag1 N2 C10 C9 -179.4(10) 1_444 . . . ?
C13 C9 C10 N2 -0.1(19) . . . . ?
C8 C9 C10 N2 -178.4(12) . . . . ?
C10 N2 C11 C12 3(2) . . . . ?
Ag1 N2 C11 C12 -179.9(10) 1_444 . . . ?
N2 C11 C12 C13 -2(2) . . . . ?
C11 C12 C13 C9 -0.9(17) . . . . ?
C11 C12 C13 C14 176.1(12) . . . . ?
C10 C9 C13 C12 1.7(16) . . . . ?
C8 C9 C13 C12 180.0(11) . . . . ?
C10 C9 C13 C14 -174.8(11) . . . . ?
C8 C9 C13 C14 3.4(18) . . . . ?
La1 O8 C14 O7 -113.7(12) 2_665 . . . ?
La1 O8 C14 O7 21.6(14) 1_655 . . . ?
La1 O8 C14 C13 72.3(13) 2_665 . . . ?
La1 O8 C14 C13 -152.4(7) 1_655 . . . ?
C12 C13 C14 O7 -70.1(14) . . . . ?
C9 C13 C14 O7 106.5(14) . . . . ?
C12 C13 C14 O8 104.4(12) . . . . ?
C9 C13 C14 O8 -79.0(14) . . . . ?

_diffrn_measured_fraction_theta_max 0.975
_diffrn_reflns_theta_full        25.10
_diffrn_measured_fraction_theta_full 0.975
_refine_diff_density_max         3.549
_refine_diff_density_min         -2.462
_refine_diff_density_rms         0.262


