####################################################################### 
# 
# This file contains crystal structure data downloaded from the 
# Cambridge Structural Database (CSD) hosted by the Cambridge 
# Crystallographic Data Centre (CCDC).
# 
# Full information about CCDC data access policies and citation 
# guidelines are available at http://www.ccdc.cam.ac.uk/access/V1 
# 
# Audit and citation data items may have been added by the CCDC. 
# Please retain this information to preserve the provenance of 
# this file and to allow appropriate attribution of the data. 
# 
#######################################################################

data_{[Cu(bpf)2(NO3)(H2O)](bpf)0.5(EtOH)1.5(NO3)}n(4)
_audit_block_doi                 10.5517/cc9glnz
_database_code_depnum_ccdc_archive 'CCDC 282151'
loop_
_citation_id
_citation_doi
_citation_year
1 10.3390/polym3041934 2011
_audit_update_record             
;
2005-08-25 deposited with the CCDC.	2024-07-10 downloaded from the CCDC.
;
#TrackingRef 'kasai04.CIF'


_audit_creation_method           SHELXL-97

_chemical_name_systematic        
;
?
;
_chemical_name_common            ?
_chemical_melting_point          ?
_chemical_formula_moiety         ?
_chemical_formula_sum            'C48 H44 Cu F10 N7 O10'
_chemical_formula_weight         1132.44

loop_
_atom_type_symbol
_atom_type_description
_atom_type_scat_dispersion_real
_atom_type_scat_dispersion_imag
_atom_type_scat_source
C C 0.0033 0.0016 'International Tables Vol C Tables 4.2.6.8 and 6.1.1.4'
H H 0.0000 0.0000 'International Tables Vol C Tables 4.2.6.8 and 6.1.1.4'
N N 0.0061 0.0033 'International Tables Vol C Tables 4.2.6.8 and 6.1.1.4'
O O 0.0106 0.0060 'International Tables Vol C Tables 4.2.6.8 and 6.1.1.4'
F F 0.0171 0.0103 'International Tables Vol C Tables 4.2.6.8 and 6.1.1.4'
Cu Cu 0.3201 1.2651 'International Tables Vol C Tables 4.2.6.8 and 6.1.1.4'

_symmetry_cell_setting           Triclinic
_symmetry_space_group_name_H-M   P-1

loop_
_symmetry_equiv_pos_as_xyz
'x, y, z'
'-x, -y, -z'

_cell_length_a                   10.1918(8)
_cell_length_b                   11.6258(9)
_cell_length_c                   22.3500(19)
_cell_angle_alpha                84.796(2)
_cell_angle_beta                 83.948(2)
_cell_angle_gamma                84.632(2)
_cell_volume                     2613.1(4)
_cell_formula_units_Z            2
_cell_measurement_temperature    153(2)
_cell_measurement_reflns_used    ?
_cell_measurement_theta_min      ?
_cell_measurement_theta_max      ?

_exptl_crystal_description       prism
_exptl_crystal_colour            blue
_exptl_crystal_size_max          0.45
_exptl_crystal_size_mid          0.15
_exptl_crystal_size_min          0.15
_exptl_crystal_density_meas      ?
_exptl_crystal_density_diffrn    1.439
_exptl_crystal_density_method    'not measured'
_exptl_crystal_F_000             1160
_exptl_absorpt_coefficient_mu    0.516
_exptl_absorpt_correction_type   empirical
_exptl_absorpt_correction_T_min  0.628
_exptl_absorpt_correction_T_max  0.926
_exptl_absorpt_process_details   ?

_exptl_special_details           
;
?
;

_diffrn_ambient_temperature      153(2)
_diffrn_radiation_wavelength     0.71073
_diffrn_radiation_type           MoK\a
_diffrn_radiation_source         'fine-focus sealed tube'
_diffrn_radiation_monochromator  graphite
_diffrn_measurement_device_type  'CCD area detector'
_diffrn_measurement_method       'phi and omega scans'
_diffrn_detector_area_resol_mean ?
_diffrn_standards_number         ?
_diffrn_standards_interval_count ?
_diffrn_standards_interval_time  ?
_diffrn_standards_decay_%        ?
_diffrn_reflns_number            17746
_diffrn_reflns_av_R_equivalents  0.0523
_diffrn_reflns_av_sigmaI/netI    0.2245
_diffrn_reflns_limit_h_min       -13
_diffrn_reflns_limit_h_max       12
_diffrn_reflns_limit_k_min       -15
_diffrn_reflns_limit_k_max       12
_diffrn_reflns_limit_l_min       -29
_diffrn_reflns_limit_l_max       29
_diffrn_reflns_theta_min         2.02
_diffrn_reflns_theta_max         28.02
_reflns_number_total             12237
_reflns_number_gt                4299
_reflns_threshold_expression     >2sigma(I)

_computing_data_collection       'Bruker SMART'
_computing_cell_refinement       'Bruker SMART'
_computing_data_reduction        'Bruker SAINT & SADABS'
_computing_structure_solution    'SIR 97'
_computing_structure_refinement  'SHELXL-97 (Sheldrick, 1997)'
_computing_molecular_graphics    'Bruker SHELXTL'
_computing_publication_material  'Bruker SHELXTL'

_refine_special_details          
;
Refinement of F^2^ against ALL reflections. The weighted R-factor wR and
goodness of fit S are based on F^2^, conventional R-factors R are based
on F, with F set to zero for negative F^2^. The threshold expression of
F^2^ > 2sigma(F^2^) is used only for calculating R-factors(gt) etc. and is
not relevant to the choice of reflections for refinement. R-factors based
on F^2^ are statistically about twice as large as those based on F, and R-
factors based on ALL data will be even larger.
;

_refine_ls_structure_factor_coef Fsqd
_refine_ls_matrix_type           full
_refine_ls_weighting_scheme      calc
_refine_ls_weighting_details     
'calc w=1/[\s^2^(Fo^2^)+(0.0825P)^2^+0.0000P] where P=(Fo^2^+2Fc^2^)/3'
_atom_sites_solution_primary     direct
_atom_sites_solution_secondary   difmap
_atom_sites_solution_hydrogens   geom
_refine_ls_hydrogen_treatment    mixed
_refine_ls_extinction_method     none
_refine_ls_extinction_coef       ?
_refine_ls_number_reflns         12237
_refine_ls_number_parameters     723
_refine_ls_number_restraints     0
_refine_ls_R_factor_all          0.2022
_refine_ls_R_factor_gt           0.0732
_refine_ls_wR_factor_ref         0.2113
_refine_ls_wR_factor_gt          0.1734
_refine_ls_goodness_of_fit_ref   0.889
_refine_ls_restrained_S_all      0.889
_refine_ls_shift/su_max          0.000
_refine_ls_shift/su_mean         0.000

loop_
_atom_site_label
_atom_site_type_symbol
_atom_site_fract_x
_atom_site_fract_y
_atom_site_fract_z
_atom_site_U_iso_or_equiv
_atom_site_adp_type
_atom_site_occupancy
_atom_site_symmetry_multiplicity
_atom_site_calc_flag
_atom_site_refinement_flags
_atom_site_disorder_assembly
_atom_site_disorder_group
Cu1 Cu 0.48614(7) 1.01431(6) 0.25532(3) 0.0313(2) Uani 1 1 d . . .
F1 F 0.2282(3) 0.4343(3) 0.20383(17) 0.0579(10) Uani 1 1 d . . .
F2 F -0.0466(4) 0.6325(3) 0.3503(2) 0.0836(14) Uani 1 1 d . . .
F3 F 0.0189(4) 0.4025(3) 0.14782(18) 0.0677(11) Uani 1 1 d . . .
F4 F -0.2585(4) 0.6045(3) 0.2931(3) 0.1027(18) Uani 1 1 d . . .
F5 F 0.7671(3) 1.1108(4) 0.53971(16) 0.0680(12) Uani 1 1 d . . .
F6 F 0.9917(4) 1.2105(3) 0.54319(18) 0.0688(12) Uani 1 1 d . . .
F7 F 0.2599(3) 0.9840(3) -0.04032(16) 0.0635(11) Uani 1 1 d . . .
F8 F 0.1058(4) 0.8281(3) -0.06859(16) 0.0616(11) Uani 1 1 d . . .
F9 F 0.3907(4) 0.6750(3) -0.07268(19) 0.0768(12) Uani 1 1 d . . .
F10 F 0.6541(4) 0.6201(3) -0.08486(19) 0.0751(12) Uani 1 1 d . . .
O1 O 0.2950(4) 1.1056(4) 0.32482(19) 0.0484(11) Uani 1 1 d . . .
O2 O 0.3156(10) 1.2588(6) 0.3630(3) 0.119(3) Uani 0.83 1 d P . .
O3 O 0.1602(7) 1.2503(5) 0.3046(4) 0.105(3) Uani 0.83 1 d P . .
O4 O 0.1584(17) 1.2261(15) 0.3812(8) 0.093(6) Uani 0.33 1 d P . .
O5 O 0.5392(9) 0.8163(6) 0.0859(4) 0.083(2) Uani 0.75 1 d P . .
O6 O 0.5258(7) 0.6339(6) 0.1185(4) 0.083(2) Uani 0.75 1 d P . .
O7 O 0.6951(12) 0.6582(6) 0.0752(4) 0.132(4) Uani 0.75 1 d P . .
O8 O 0.6633(8) 0.7380(7) 0.1409(4) 0.106(3) Uani 0.75 1 d P . .
O9 O 0.6652(4) 0.9181(3) 0.20171(17) 0.0488(11) Uani 1 1 d . . .
H9A H 0.6517 0.8479 0.2014 0.059 Uiso 1 1 calc R . .
H9B H 0.7304 0.9548 0.1862 0.059 Uiso 1 1 d R . .
O10 O 0.0704(4) 0.0492(3) 0.78452(18) 0.0481(11) Uani 1 1 d . . .
H10A H 0.1491 0.0663 0.7825 0.072 Uiso 1 1 calc R . .
O12 O 0.138(2) 0.4983(19) 0.4987(10) 0.181(8) Uiso 0.40 1 d P . .
O13 O 0.504(3) 0.324(2) 0.4637(12) 0.156(9) Uiso 0.30 1 d P . .
O14 O 0.403(3) 0.535(3) 0.4582(14) 0.193(12) Uiso 0.30 1 d P . .
O15 O 0.399(4) 0.407(4) 0.4453(17) 0.145(13) Uiso 0.20 1 d P . .
N1 N 0.3893(4) 0.8677(4) 0.27319(19) 0.0271(10) Uani 1 1 d . . .
N2 N -0.4306(4) 0.1670(4) 0.24014(19) 0.0325(11) Uani 1 1 d . . .
N3 N 0.5764(4) 0.9756(4) 0.33247(19) 0.0305(11) Uani 1 1 d . . .
N4 N 0.3867(4) 1.0568(3) 0.1818(2) 0.0291(11) Uani 1 1 d . . .
N5 N 0.0618(5) 0.8236(4) 0.1276(2) 0.0436(13) Uani 1 1 d . . .
N6 N 0.2403(8) 1.2009(5) 0.3348(3) 0.0675(19) Uani 1 1 d . . .
N7 N 0.5975(6) 0.7322(11) 0.1019(3) 0.100(4) Uani 1 1 d . . .
C1 C 0.3313(5) 0.8391(5) 0.3277(3) 0.0346(14) Uani 1 1 d . . .
H1A H 0.3291 0.8920 0.3579 0.041 Uiso 1 1 calc R . .
C2 C 0.3884(5) 0.7930(5) 0.2308(3) 0.0355(14) Uani 1 1 d . . .
H2A H 0.4275 0.8129 0.1912 0.043 Uiso 1 1 calc R . .
C3 C 0.2736(6) 0.7350(5) 0.3428(3) 0.0402(15) Uani 1 1 d . . .
H3A H 0.2346 0.7174 0.3827 0.048 Uiso 1 1 calc R . .
C4 C 0.3329(5) 0.6885(5) 0.2424(3) 0.0400(15) Uani 1 1 d . . .
H4A H 0.3356 0.6374 0.2114 0.048 Uiso 1 1 calc R . .
C5 C 0.2733(6) 0.6582(5) 0.2997(3) 0.0399(15) Uani 1 1 d . . .
C6 C 0.2151(6) 0.5435(5) 0.3141(3) 0.0532(18) Uani 1 1 d . . .
H6A H 0.1865 0.5338 0.3578 0.064 Uiso 1 1 calc R . .
H6B H 0.2843 0.4804 0.3046 0.064 Uiso 1 1 calc R . .
C7 C 0.0961(6) 0.5331(5) 0.2784(3) 0.0432(16) Uani 1 1 d . . .
C8 C 0.1083(6) 0.4765(5) 0.2268(3) 0.0398(15) Uani 1 1 d . . .
C9 C -0.0289(7) 0.5755(5) 0.2990(4) 0.0574(19) Uani 1 1 d . . .
C10 C -0.0004(7) 0.4616(5) 0.1985(3) 0.0471(17) Uani 1 1 d . . .
C11 C -0.1369(7) 0.5610(5) 0.2701(4) 0.059(2) Uani 1 1 d . . .
C12 C -0.1275(6) 0.5020(5) 0.2199(4) 0.055(2) Uani 1 1 d . . .
C13 C -0.2466(7) 0.4846(6) 0.1876(4) 0.086(3) Uani 1 1 d . . .
H13A H -0.2189 0.4851 0.1438 0.103 Uiso 1 1 calc R . .
H13B H -0.3136 0.5510 0.1937 0.103 Uiso 1 1 calc R . .
C14 C -0.3108(6) 0.3730(5) 0.2083(3) 0.0489(17) Uani 1 1 d . . .
C15 C -0.2371(6) 0.2689(5) 0.2221(3) 0.0508(18) Uani 1 1 d . . .
H15A H -0.1435 0.2667 0.2209 0.061 Uiso 1 1 calc R . .
C16 C -0.4458(6) 0.3705(5) 0.2114(3) 0.0463(17) Uani 1 1 d . . .
H16A H -0.5000 0.4397 0.2026 0.056 Uiso 1 1 calc R . .
C17 C -0.2995(6) 0.1696(5) 0.2375(3) 0.0438(16) Uani 1 1 d . . .
H17A H -0.2472 0.0995 0.2467 0.053 Uiso 1 1 calc R . .
C18 C -0.5024(5) 0.2685(5) 0.2270(2) 0.0355(14) Uani 1 1 d . . .
H18A H -0.5959 0.2688 0.2288 0.043 Uiso 1 1 calc R . .
C19 C 0.5669(5) 1.0503(5) 0.3752(3) 0.0361(14) Uani 1 1 d . . .
H19A H 0.5208 1.1243 0.3681 0.043 Uiso 1 1 calc R . .
C20 C 0.6424(5) 0.8716(5) 0.3442(3) 0.0350(14) Uani 1 1 d . . .
H20A H 0.6503 0.8172 0.3145 0.042 Uiso 1 1 calc R . .
C21 C 0.6219(6) 1.0237(6) 0.4294(3) 0.0436(16) Uani 1 1 d . . .
H21A H 0.6120 1.0790 0.4587 0.052 Uiso 1 1 calc R . .
C22 C 0.6987(6) 0.8405(5) 0.3969(3) 0.0412(15) Uani 1 1 d . . .
H22A H 0.7434 0.7656 0.4032 0.049 Uiso 1 1 calc R . .
C23 C 0.6908(5) 0.9178(6) 0.4411(3) 0.0390(15) Uani 1 1 d . . .
C24 C 0.7542(6) 0.8879(6) 0.4995(3) 0.0528(18) Uani 1 1 d . . .
H24A H 0.6910 0.9118 0.5338 0.063 Uiso 1 1 calc R . .
H24B H 0.7747 0.8029 0.5053 0.063 Uiso 1 1 calc R . .
C25 C 0.8796(6) 0.9473(6) 0.4992(2) 0.0422(16) Uani 1 1 d . . .
C26 C 0.8820(6) 1.0538(6) 0.5196(3) 0.0420(16) Uani 1 1 d . . .
C27 C 0.9982(7) 1.1048(6) 0.5207(3) 0.0462(17) Uani 1 1 d . . .
C28 C 0.4490(5) 1.0697(5) 0.1266(3) 0.0369(14) Uani 1 1 d . . .
H28A H 0.5424 1.0534 0.1215 0.044 Uiso 1 1 calc R . .
C29 C 0.2552(5) 1.0789(4) 0.1886(3) 0.0329(13) Uani 1 1 d . . .
H29A H 0.2102 1.0689 0.2279 0.039 Uiso 1 1 calc R . .
C30 C 0.3826(6) 1.1062(5) 0.0763(3) 0.0429(15) Uani 1 1 d . . .
H30A H 0.4301 1.1149 0.0375 0.051 Uiso 1 1 calc R . .
C31 C 0.1830(6) 1.1155(5) 0.1412(3) 0.0379(15) Uani 1 1 d . . .
H31A H 0.0896 1.1309 0.1479 0.046 Uiso 1 1 calc R . .
C32 C 0.2459(6) 1.1300(5) 0.0832(3) 0.0369(15) Uani 1 1 d . . .
C33 C 0.1711(6) 1.1731(5) 0.0299(3) 0.0486(17) Uani 1 1 d . . .
H33A H 0.2348 1.1906 -0.0056 0.058 Uiso 1 1 calc R . .
H33B H 0.1168 1.2459 0.0388 0.058 Uiso 1 1 calc R . .
C34 C 0.0807(6) 1.0837(5) 0.0149(3) 0.0360(15) Uani 1 1 d . . .
C35 C 0.1300(6) 0.9944(5) -0.0201(3) 0.0400(15) Uani 1 1 d . . .
C36 C 0.0503(6) 0.9130(5) -0.0342(3) 0.0398(15) Uani 1 1 d . . .
C37 C 0.1895(6) 0.8129(5) 0.1058(3) 0.0421(15) Uani 1 1 d . . .
H37A H 0.2459 0.8671 0.1161 0.051 Uiso 1 1 calc R . .
C38 C -0.0145(6) 0.7458(5) 0.1122(3) 0.0432(16) Uani 1 1 d . . .
H38A H -0.1053 0.7502 0.1274 0.052 Uiso 1 1 calc R . .
C39 C 0.2433(6) 0.7285(5) 0.0697(3) 0.0447(16) Uani 1 1 d . . .
H39A H 0.3348 0.7245 0.0557 0.054 Uiso 1 1 calc R . .
C40 C 0.0328(6) 0.6600(5) 0.0756(3) 0.0395(15) Uani 1 1 d . . .
H40A H -0.0256 0.6075 0.0653 0.047 Uiso 1 1 calc R . .
C41 C 0.1635(6) 0.6492(5) 0.0536(3) 0.0371(14) Uani 1 1 d . . .
C42 C 0.2115(7) 0.5523(6) 0.0116(3) 0.066(2) Uani 1 1 d . . .
H42A H 0.1700 0.4806 0.0275 0.079 Uiso 1 1 calc R . .
H42B H 0.1823 0.5754 -0.0290 0.079 Uiso 1 1 calc R . .
C43 C 0.3608(6) 0.5275(5) 0.0060(3) 0.0459(17) Uani 1 1 d . . .
C44 C 0.4425(7) 0.5870(6) -0.0361(3) 0.0495(17) Uani 1 1 d . . .
C45 C 0.5788(7) 0.5599(6) -0.0419(3) 0.0505(18) Uani 1 1 d . . .
C46 C 0.0131(6) 0.0966(6) 0.7318(3) 0.0578(19) Uani 1 1 d . . .
H46A H 0.0583 0.1656 0.7145 0.069 Uiso 1 1 calc R . .
H46B H -0.0815 0.1216 0.7422 0.069 Uiso 1 1 calc R . .
C47 C 0.0248(7) 0.0082(6) 0.6855(3) 0.067(2) Uani 1 1 d . . .
H47A H -0.0155 0.0424 0.6494 0.100 Uiso 1 1 calc R . .
H47B H -0.0210 -0.0597 0.7025 0.100 Uiso 1 1 calc R . .
H47C H 0.1185 -0.0155 0.6747 0.100 Uiso 1 1 calc R . .
O11 O 1.011(2) 0.3645(13) 0.4171(8) 0.182(10) Uani 0.50 1 d P A 1
H11A H 1.0586 0.3093 0.4020 0.274 Uiso 0.50 1 calc PR A 1
C48 C 0.899(2) 0.3523(19) 0.4140(11) 0.102(8) Uani 0.50 1 d P A 1
H48A H 0.8598 0.4311 0.4023 0.122 Uiso 0.50 1 calc PR A 1
H48B H 0.8633 0.3339 0.4563 0.122 Uiso 0.50 1 calc PR A 1
C49 C 0.8427(16) 0.2839(16) 0.3826(7) 0.084(6) Uani 0.50 1 d P A 1
H49A H 0.7464 0.3011 0.3880 0.126 Uiso 0.50 1 calc PR A 1
H49B H 0.8654 0.2029 0.3967 0.126 Uiso 0.50 1 calc PR A 1
H49C H 0.8741 0.2968 0.3398 0.126 Uiso 0.50 1 calc PR A 1
O16 O 0.691(3) 0.347(3) 0.3929(14) 0.196(12) Uiso 0.30 1 d P B 2

loop_
_atom_site_aniso_label
_atom_site_aniso_U_11
_atom_site_aniso_U_22
_atom_site_aniso_U_33
_atom_site_aniso_U_23
_atom_site_aniso_U_13
_atom_site_aniso_U_12
Cu1 0.0272(4) 0.0298(4) 0.0390(4) 0.0007(3) -0.0122(3) -0.0070(3)
F1 0.035(2) 0.052(2) 0.086(3) -0.012(2) 0.003(2) -0.0072(17)
F2 0.104(4) 0.044(2) 0.100(3) -0.024(2) 0.031(3) -0.016(2)
F3 0.085(3) 0.049(2) 0.075(3) -0.004(2) -0.020(2) -0.022(2)
F4 0.040(3) 0.046(3) 0.209(5) -0.002(3) 0.031(3) 0.003(2)
F5 0.038(2) 0.106(3) 0.063(3) -0.034(2) -0.011(2) 0.012(2)
F6 0.062(3) 0.069(3) 0.080(3) -0.013(2) -0.035(2) 0.005(2)
F7 0.027(2) 0.105(3) 0.059(3) -0.011(2) -0.0016(18) -0.006(2)
F8 0.063(3) 0.067(3) 0.058(2) -0.025(2) -0.023(2) 0.017(2)
F9 0.080(3) 0.061(3) 0.086(3) 0.003(2) -0.014(3) 0.012(2)
F10 0.070(3) 0.061(3) 0.088(3) -0.003(2) 0.025(2) -0.011(2)
O1 0.039(3) 0.041(3) 0.067(3) -0.006(2) -0.015(2) 0.001(2)
O2 0.199(10) 0.062(5) 0.101(6) -0.022(4) -0.055(7) 0.017(5)
O3 0.087(5) 0.055(4) 0.174(8) -0.001(5) -0.061(6) 0.030(4)
O4 0.084(13) 0.108(14) 0.071(12) -0.026(10) 0.041(10) 0.040(11)
O5 0.096(7) 0.052(5) 0.095(6) 0.005(4) 0.022(5) -0.015(4)
O6 0.040(4) 0.066(5) 0.149(7) -0.011(5) -0.024(4) -0.012(3)
O7 0.239(12) 0.068(5) 0.085(6) -0.016(5) 0.050(7) -0.061(6)
O8 0.083(6) 0.089(6) 0.154(8) -0.019(6) -0.045(6) -0.004(5)
O9 0.034(2) 0.059(3) 0.053(3) 0.000(2) -0.002(2) -0.008(2)
O10 0.026(2) 0.061(3) 0.060(3) -0.009(2) -0.018(2) 0.000(2)
N1 0.021(2) 0.031(3) 0.031(3) -0.005(2) -0.007(2) -0.005(2)
N2 0.032(3) 0.033(3) 0.034(3) -0.002(2) -0.011(2) -0.002(2)
N3 0.029(3) 0.026(3) 0.038(3) 0.000(2) -0.009(2) -0.006(2)
N4 0.028(3) 0.028(3) 0.033(3) -0.005(2) -0.005(2) -0.005(2)
N5 0.052(4) 0.037(3) 0.042(3) -0.003(2) -0.011(3) 0.007(3)
N6 0.117(6) 0.035(4) 0.051(4) -0.003(3) -0.009(4) -0.010(4)
N7 0.027(4) 0.248(13) 0.020(4) -0.001(6) -0.005(3) 0.010(6)
C1 0.035(3) 0.030(3) 0.043(4) -0.010(3) -0.010(3) -0.008(3)
C2 0.031(3) 0.037(4) 0.041(4) -0.004(3) -0.009(3) -0.006(3)
C3 0.041(4) 0.038(4) 0.043(4) -0.001(3) -0.008(3) -0.010(3)
C4 0.037(4) 0.035(4) 0.053(4) -0.017(3) -0.011(3) -0.006(3)
C5 0.038(4) 0.029(3) 0.056(4) -0.004(3) -0.013(3) -0.007(3)
C6 0.068(5) 0.030(4) 0.067(5) 0.004(3) -0.024(4) -0.019(3)
C7 0.039(4) 0.019(3) 0.071(5) 0.001(3) -0.002(3) -0.010(3)
C8 0.026(3) 0.032(4) 0.060(4) -0.003(3) 0.001(3) -0.002(3)
C9 0.056(5) 0.020(3) 0.094(6) -0.005(4) 0.010(4) -0.012(3)
C10 0.052(5) 0.026(4) 0.064(5) 0.006(3) -0.011(4) -0.010(3)
C11 0.035(4) 0.021(4) 0.117(7) 0.002(4) 0.009(4) -0.003(3)
C12 0.035(4) 0.027(4) 0.105(6) 0.015(4) -0.021(4) -0.012(3)
C13 0.051(5) 0.045(5) 0.162(8) 0.049(5) -0.048(5) -0.023(4)
C14 0.040(4) 0.024(3) 0.084(5) 0.013(3) -0.024(4) -0.007(3)
C15 0.028(4) 0.036(4) 0.090(5) 0.008(4) -0.020(4) -0.011(3)
C16 0.039(4) 0.024(3) 0.077(5) 0.007(3) -0.021(3) -0.002(3)
C17 0.029(4) 0.032(4) 0.072(5) 0.006(3) -0.023(3) -0.001(3)
C18 0.025(3) 0.033(3) 0.048(4) 0.002(3) -0.007(3) -0.001(3)
C19 0.035(3) 0.029(3) 0.047(4) -0.005(3) -0.015(3) -0.005(3)
C20 0.031(3) 0.033(3) 0.041(4) 0.005(3) -0.009(3) -0.006(3)
C21 0.039(4) 0.059(4) 0.034(4) -0.005(3) -0.004(3) -0.009(3)
C22 0.036(4) 0.038(4) 0.049(4) 0.012(3) -0.019(3) 0.000(3)
C23 0.027(3) 0.056(4) 0.034(4) 0.011(3) -0.009(3) -0.016(3)
C24 0.048(4) 0.073(5) 0.039(4) 0.011(3) -0.015(3) -0.009(4)
C25 0.032(4) 0.072(5) 0.021(3) 0.008(3) -0.009(3) 0.000(3)
C26 0.033(4) 0.064(5) 0.029(4) -0.008(3) -0.009(3) 0.006(3)
C27 0.049(4) 0.058(5) 0.033(4) -0.004(3) -0.011(3) -0.004(4)
C28 0.025(3) 0.045(4) 0.043(4) -0.003(3) -0.0