####################################################################### 
# 
# This file contains crystal structure data downloaded from the 
# Cambridge Structural Database (CSD) hosted by the Cambridge 
# Crystallographic Data Centre (CCDC).
# 
# Full information about CCDC data access policies and citation 
# guidelines are available at http://www.ccdc.cam.ac.uk/access/V1 
# 
# Audit and citation data items may have been added by the CCDC. 
# Please retain this information to preserve the provenance of 
# this file and to allow appropriate attribution of the data. 
# 
#######################################################################

data_SCIF-10
_audit_block_doi                 10.5517/ccyhdxq
_database_code_depnum_ccdc_archive 'CCDC 878754'
loop_
_citation_id
_citation_doi
_citation_year
1 10.1021/ja210039u 2012
_audit_update_record             
;
2012-04-26 deposited with the CCDC.	2024-07-10 downloaded from the CCDC.
;

_audit_creation_method           SHELXL-97
_chemical_name_systematic        
;
?
;
_chemical_name_common            ?
_chemical_melting_point          ?
_chemical_formula_moiety         'C30 H45 Cd4 In16 N8 S31'
_chemical_formula_sum            'C30 H45 Cd4 In16 N8 S31'
_chemical_formula_weight         3798.32

loop_
_atom_type_symbol
_atom_type_description
_atom_type_scat_dispersion_real
_atom_type_scat_dispersion_imag
_atom_type_scat_source
C C 0.0033 0.0016 'International Tables Vol C Tables 4.2.6.8 and 6.1.1.4'
H H 0.0000 0.0000 'International Tables Vol C Tables 4.2.6.8 and 6.1.1.4'
N N 0.0061 0.0033 'International Tables Vol C Tables 4.2.6.8 and 6.1.1.4'
S S 0.1246 0.1234 'International Tables Vol C Tables 4.2.6.8 and 6.1.1.4'
Cd Cd -0.8075 1.2024 'International Tables Vol C Tables 4.2.6.8 and 6.1.1.4'
In In -0.7276 1.3100 'International Tables Vol C Tables 4.2.6.8 and 6.1.1.4'

_symmetry_cell_setting           Triclinic
_symmetry_space_group_name_H-M   P-1

loop_
_symmetry_equiv_pos_as_xyz
'x, y, z'
'-x, -y, -z'

_cell_length_a                   17.5175(5)
_cell_length_b                   17.6943(5)
_cell_length_c                   23.4522(7)
_cell_angle_alpha                106.526(2)
_cell_angle_beta                 99.634(2)
_cell_angle_gamma                98.379(2)
_cell_volume                     6725.4(3)
_cell_formula_units_Z            2
_cell_measurement_temperature    150(2)
_cell_measurement_reflns_used    ?
_cell_measurement_theta_min      ?
_cell_measurement_theta_max      ?

_exptl_crystal_description       block
_exptl_crystal_colour            'pale yellow'
_exptl_crystal_size_max          0.12
_exptl_crystal_size_mid          0.10
_exptl_crystal_size_min          0.08
_exptl_crystal_density_meas      ?
_exptl_crystal_density_diffrn    1.876
_exptl_crystal_density_method    'not measured'
_exptl_crystal_F_000             3506
_exptl_absorpt_coefficient_mu    3.801
_exptl_absorpt_correction_type   multi-scan
_exptl_absorpt_correction_T_min  ?
_exptl_absorpt_correction_T_max  ?
_exptl_absorpt_process_details   ?

_exptl_special_details           
;
?
;

_diffrn_ambient_temperature      150(2)
_diffrn_radiation_wavelength     0.71073
_diffrn_radiation_type           MoK\a
_diffrn_radiation_source         'fine-focus sealed tube'
_diffrn_radiation_monochromator  graphite
_diffrn_measurement_device_type  'Bruker Smart Apex CCD'
_diffrn_measurement_method       'Omega Scan'
_diffrn_detector_area_resol_mean ?
_diffrn_standards_number         ?
_diffrn_standards_interval_count ?
_diffrn_standards_interval_time  ?
_diffrn_standards_decay_%        ?
_diffrn_reflns_number            19220
_diffrn_reflns_av_R_equivalents  0.0437
_diffrn_reflns_av_sigmaI/netI    0.0911
_diffrn_reflns_limit_h_min       -16
_diffrn_reflns_limit_h_max       16
_diffrn_reflns_limit_k_min       -17
_diffrn_reflns_limit_k_max       16
_diffrn_reflns_limit_l_min       -22
_diffrn_reflns_limit_l_max       21
_diffrn_reflns_theta_min         0.93
_diffrn_reflns_theta_max         20.00
_reflns_number_total             12516
_reflns_number_gt                6665
_reflns_threshold_expression     >2sigma(I)

_computing_data_collection       'Bruker SMART'
_computing_cell_refinement       'Bruker SAINT'
_computing_data_reduction        'Bruker SAINT'
_computing_structure_solution    'SHELXS-97 (Sheldrick, 2008)'
_computing_structure_refinement  'SHELXL-97 (Sheldrick, 2008)'
_computing_molecular_graphics    XP
_computing_publication_material  XCIF

_refine_special_details          
;
Refinement of F^2^ against ALL reflections. The weighted R-factor wR and
goodness of fit S are based on F^2^, conventional R-factors R are based
on F, with F set to zero for negative F^2^. The threshold expression of
F^2^ > 2sigma(F^2^) is used only for calculating R-factors(gt) etc. and is
not relevant to the choice of reflections for refinement. R-factors based
on F^2^ are statistically about twice as large as those based on F, and R-
factors based on ALL data will be even larger.

In the asymmetric unit, two discrete protonated DBN template molecules, one
terminal ligand DBN molecule as well as one bridging ligand 5,6-dimethyl-
benzimidazole were located, and no other solvent and template moelcules
can be resolved into definite chemical structures due to the high degree
of statistical and positional disorder. All carbon and nitrogen atoms from
bridging ligand underwent anisotropical refinement. All other non-hydrogen
atoms from three DBN molecules were refined isotropically with the same
atomic displacement parameters, and all hygrogen atoms bonded to the carbon
atoms were generated geometrially. To retain the geometry of DBN, DFIX
instructions were applied to fix bond length of C-N (1.285-1.350A^2^)
or C-C (1.45-1.52A^2^), and three set of atoms (set 1,N11 N12 C13 C14 C16
C17; set 2, N21 N22 C23 C24 C26 C27; set 3, N31 N32 C33 C34 C36 C37) were
restrained on the same plan through FLAT instruction. Lower data collection
temperatures did not ameloriate the ordering of these molecules.
;

_refine_ls_structure_factor_coef Fsqd
_refine_ls_matrix_type           full
_refine_ls_weighting_scheme      calc
_refine_ls_weighting_details     
'calc w=1/[\s^2^(Fo^2^)+(0.2000P)^2^+400.0000P] where P=(Fo^2^+2Fc^2^)/3'
_atom_sites_solution_primary     direct
_atom_sites_solution_secondary   difmap
_atom_sites_solution_hydrogens   geom
_refine_ls_hydrogen_treatment    mixed
_refine_ls_extinction_method     none
_refine_ls_extinction_coef       none
_refine_ls_number_reflns         12516
_refine_ls_number_parameters     648
_refine_ls_number_restraints     39
_refine_ls_R_factor_all          0.1685
_refine_ls_R_factor_gt           0.0973
_refine_ls_wR_factor_ref         0.3776
_refine_ls_wR_factor_gt          0.3085
_refine_ls_goodness_of_fit_ref   1.027
_refine_ls_restrained_S_all      1.025
_refine_ls_shift/su_max          0.092
_refine_ls_shift/su_mean         0.009

loop_
_atom_site_label
_atom_site_type_symbol
_atom_site_fract_x
_atom_site_fract_y
_atom_site_fract_z
_atom_site_U_iso_or_equiv
_atom_site_adp_type
_atom_site_occupancy
_atom_site_symmetry_multiplicity
_atom_site_calc_flag
_atom_site_refinement_flags
_atom_site_disorder_assembly
_atom_site_disorder_group
Cd1 Cd 0.65976(9) 0.10551(10) 0.35392(8) 0.0597(6) Uani 1 1 d . . .
Cd2 Cd 0.79680(9) 0.29089(9) 0.32897(7) 0.0556(5) Uani 1 1 d . . .
Cd3 Cd 0.63215(9) 0.13819(9) 0.18822(8) 0.0543(5) Uani 1 1 d . . .
Cd4 Cd 0.57156(8) 0.29239(8) 0.32544(7) 0.0458(5) Uani 1 1 d . . .
In1 In 0.93537(8) -0.03530(8) 0.21946(7) 0.0467(5) Uani 1 1 d . . .
In2 In 0.88769(7) 0.10582(8) 0.35621(6) 0.0385(4) Uani 1 1 d . . .
In3 In 0.71960(7) -0.04763(8) 0.21601(6) 0.0361(4) Uani 1 1 d . . .
In4 In 0.85840(7) 0.14064(8) 0.19103(6) 0.0381(4) Uani 1 1 d . . .
In5 In 0.82695(7) 0.25649(8) 0.49165(6) 0.0386(4) Uani 1 1 d . . .
In6 In 0.49334(7) -0.04468(8) 0.21531(6) 0.0358(4) Uani 1 1 d . . .
In7 In 0.77662(8) 0.32577(8) 0.16883(6) 0.0380(4) Uani 1 1 d . . .
In8 In 0.76107(9) 0.40166(9) 0.61403(7) 0.0535(5) Uani 1 1 d . . .
In9 In 0.59807(7) 0.25823(8) 0.48993(6) 0.0406(5) Uani 1 1 d . . .
In10 In 0.43231(7) 0.11350(8) 0.35217(6) 0.0392(5) Uani 1 1 d . . .
In11 In 0.28462(7) -0.02950(8) 0.21556(7) 0.0436(5) Uani 1 1 d . . .
In12 In 0.73538(8) 0.44629(8) 0.46542(7) 0.0448(5) Uani 1 1 d . . .
In13 In 0.40386(7) 0.14168(8) 0.18435(6) 0.0389(4) Uani 1 1 d . . .
In14 In 0.70949(8) 0.47996(8) 0.30534(7) 0.0426(5) Uani 1 1 d . . .
In15 In 0.54327(8) 0.32454(8) 0.16198(6) 0.0399(4) Uani 1 1 d . . .
In16 In 0.68507(9) 0.49458(8) 0.14714(7) 0.0484(5) Uani 1 1 d . . .
S1 S 0.9826(3) 0.0188(3) 0.3289(3) 0.0616(19) Uani 1 1 d . . .
S2 S 0.8118(3) -0.1343(3) 0.1824(3) 0.057(2) Uani 1 1 d . . .
S3 S 0.9556(3) 0.0591(3) 0.1639(3) 0.0629(18) Uani 1 1 d . . .
S4 S 0.9237(3) 0.1746(3) 0.4654(2) 0.0458(17) Uani 1 1 d . . .
S5 S 0.7555(3) 0.0154(3) 0.3284(2) 0.0403(16) Uani 1 1 d . . .
S6 S 0.5872(3) -0.1307(3) 0.1904(3) 0.0474(18) Uani 1 1 d . . .
S7 S 0.8972(3) 0.2082(3) 0.3026(2) 0.0407(16) Uani 1 1 d . . .
S8 S 0.7259(3) 0.0488(3) 0.1573(2) 0.0375(15) Uani 1 1 d . . .
S9 S 0.8696(3) 0.2412(3) 0.1398(2) 0.0433(16) Uani 1 1 d . . .
S10 S 0.8652(3) 0.3248(3) 0.6006(3) 0.057(2) Uani 1 1 d . . .
S11 S 0.6932(3) 0.1692(3) 0.4651(2) 0.0392(16) Uani 1 1 d . . .
S12 S 0.5243(3) 0.0212(3) 0.3278(2) 0.0371(16) Uani 1 1 d . . .
S13 S 0.3622(3) -0.1313(3) 0.1884(3) 0.0513(19) Uani 1 1 d . . .
S14 S 0.8331(3) 0.3616(3) 0.4401(2) 0.0382(16) Uani 1 1 d . . .
S15 S 0.6652(3) 0.2043(3) 0.2989(2) 0.0364(16) Uani 1 1 d . . .
S16 S 0.4980(2) 0.0527(3) 0.1570(2) 0.0361(16) Uani 1 1 d . . .
S17 S 0.8108(3) 0.3977(3) 0.2805(2) 0.0389(16) Uani 1 1 d . . .
S18 S 0.6411(3) 0.2402(3) 0.1347(2) 0.0363(15) Uani 1 1 d . . .
S19 S 0.4633(3) 0.1816(3) 0.4617(2) 0.0498(18) Uani 1 1 d . . .
S20 S 0.2973(3) 0.0378(3) 0.3230(3) 0.0576(19) Uani 1 1 d . . .
S21 S 0.6016(3) 0.3613(3) 0.4367(2) 0.0432(17) Uani 1 1 d . . .
S22 S 0.4332(3) 0.2144(3) 0.2969(2) 0.0417(16) Uani 1 1 d . . .
S23 S 0.2713(3) 0.0578(3) 0.1530(3) 0.0483(18) Uani 1 1 d . . .
S24 S 0.7403(3) 0.5483(3) 0.4140(2) 0.0548(19) Uani 1 1 d . . .
S25 S 0.5726(3) 0.3978(3) 0.2742(2) 0.0404(16) Uani 1 1 d . . .
S26 S 0.4117(3) 0.2383(3) 0.1286(3) 0.0590(19) Uani 1 1 d . . .
S27 S 0.7137(3) 0.5807(3) 0.2538(2) 0.0540(19) Uani 1 1 d . . .
S28 S 0.6292(3) 0.3260(3) 0.6006(3) 0.057(2) Uani 1 1 d . . .
S29 S 0.5480(3) 0.4227(3) 0.1071(3) 0.0603(19) Uani 1 1 d . . .
S30 S 0.7902(3) 0.4270(3) 0.1171(3) 0.0553(18) Uani 1 1 d . . .
S31 S 0.7669(3) 0.5143(3) 0.5745(3) 0.060(2) Uani 1 1 d . . .
N1 N 0.1601(9) -0.0945(8) 0.1973(6) 0.042(5) Uani 1 1 d . . .
N2 N 0.0293(7) -0.0982(9) 0.1934(6) 0.036(5) Uani 1 1 d . . .
C1 C 0.1058(11) -0.0572(10) 0.2154(8) 0.038(6) Uani 1 1 d . . .
H1 H 0.1187 -0.0037 0.2427 0.046 Uiso 1 1 calc R . .
C2 C 0.0351(9) -0.1703(10) 0.1564(8) 0.036(6) Uani 1 1 d . . .
C3 C -0.0246(11) -0.2300(10) 0.1145(10) 0.051(8) Uani 1 1 d . . .
H3 H -0.0790 -0.2280 0.1113 0.061 Uiso 1 1 calc R . .
C4 C 0.0001(14) -0.2907(14) 0.0789(12) 0.083(10) Uani 1 1 d . . .
C5 C 0.0810(13) -0.2946(14) 0.0786(12) 0.077(10) Uani 1 1 d . . .
C6 C 0.1389(11) -0.2323(10) 0.1147(8) 0.043(7) Uani 1 1 d . . .
H6 H 0.1931 -0.2314 0.1144 0.051 Uiso 1 1 calc R . .
C7 C 0.1142(12) -0.1711(10) 0.1515(12) 0.066(8) Uani 1 1 d . . .
C8 C -0.0588(15) -0.3626(16) 0.0303(14) 0.110(13) Uani 1 1 d . . .
H8A H -0.0503 -0.4128 0.0377 0.165 Uiso 1 1 calc R . .
H8B H -0.0506 -0.3642 -0.0103 0.165 Uiso 1 1 calc R . .
H8C H -0.1131 -0.3564 0.0325 0.165 Uiso 1 1 calc R . .
C9 C 0.093(2) -0.360(2) 0.0211(17) 0.156(15) Uiso 1 1 d . . .
H9A H 0.0569 -0.3589 -0.0154 0.234 Uiso 1 1 calc R . .
H9B H 0.0816 -0.4130 0.0261 0.234 Uiso 1 1 calc R . .
H9C H 0.1477 -0.3476 0.0169 0.234 Uiso 1 1 calc R . .
N11 N 0.68407(13) 0.58344(8) 0.09789(5) 0.098(3) Uiso 1 1 d D . .
N12 N 0.66507(10) 0.61290(6) 0.00629(4) 0.098(3) Uiso 1 1 d D . .
C11 C 0.66529(10) 0.66113(8) 0.12807(7) 0.098(3) Uiso 1 1 d D . .
H11A H 0.6395 0.6568 0.1618 0.117 Uiso 1 1 calc R . .
H11B H 0.7145 0.7029 0.1454 0.117 Uiso 1 1 calc R . .
C12 C 0.61277(10) 0.68355(12) 0.08380(5) 0.098(3) Uiso 1 1 d D . .
H12A H 0.5618 0.6443 0.0709 0.117 Uiso 1 1 calc R . .
H12B H 0.6021 0.7368 0.1045 0.117 Uiso 1 1 calc R . .
C13 C 0.63976(10) 0.68789(8) 0.02942(6) 0.098(3) Uiso 1 1 d D . .
H13A H 0.5963 0.6935 -0.0011 0.117 Uiso 1 1 calc R . .
H13B H 0.6843 0.7343 0.0394 0.117 Uiso 1 1 calc R . .
C14 C 0.66821(19) 0.58779(6) -0.05758(5) 0.098(3) Uiso 1 1 d D . .
H14A H 0.7152 0.6176 -0.0659 0.117 Uiso 1 1 calc R . .
H14B H 0.6194 0.5900 -0.0847 0.117 Uiso 1 1 calc R . .
C15 C 0.6748(2) 0.50420(7) -0.05928(6) 0.098(3) Uiso 1 1 d D . .
H15A H 0.7088 0.4849 -0.0878 0.117 Uiso 1 1 calc R . .
H15B H 0.6216 0.4691 -0.0760 0.117 Uiso 1 1 calc R . .
C16 C 0.70807(11) 0.49456(9) 0.00158(5) 0.098(3) Uiso 1 1 d D . .
H16A H 0.6824 0.4434 0.0058 0.117 Uiso 1 1 calc R . .
H16B H 0.7661 0.4992 0.0093 0.117 Uiso 1 1 calc R . .
C17 C 0.68447(13) 0.56636(7) 0.04091(4) 0.098(3) Uiso 1 1 d D . .
N21 N 0.80118(7) 0.44559(8) 0.71818(8) 0.153(5) Uiso 1 1 d D . .
N22 N 0.90918(6) 0.51473(8) 0.80122(4) 0.153(5) Uiso 1 1 d D . .
C21 C 0.75754(9) 0.38668(10) 0.74045(6) 0.153(5) Uiso 1 1 d D . .
H21A H 0.7086 0.4023 0.7515 0.183 Uiso 1 1 calc R . .
H21B H 0.7446 0.3317 0.7107 0.183 Uiso 1 1 calc R . .
C22 C 0.81755(11) 0.39408(9) 0.79356(8) 0.153(5) Uiso 1 1 d D . .
H22A H 0.7905 0.3695 0.8198 0.183 Uiso 1 1 calc R . .
H22B H 0.8544 0.3594 0.7789 0.183 Uiso 1 1 calc R . .
C23 C 0.86614(11) 0.47052(9) 0.83320(7) 0.153(5) Uiso 1 1 d D . .
H23A H 0.8319 0.5040 0.8538 0.183 Uiso 1 1 calc R . .
H23B H 0.9044 0.4606 0.8651 0.183 Uiso 1 1 calc R . .
C24 C 0.98360(9) 0.57260(10) 0.82378(5) 0.153(5) Uiso 1 1 d D . .
H24A H 1.0280 0.5481 0.8368 0.183 Uiso 1 1 calc R . .
H24B H 0.9809 0.6199 0.8577 0.183 Uiso 1 1 calc R . .
C25 C 0.98911(10) 0.59329(14) 0.76709(5) 0.153(5) Uiso 1 1 d D . .
H25A H 1.0391 0.5826 0.7553 0.183 Uiso 1 1 calc R . .
H25B H 0.9893 0.6513 0.7746 0.183 Uiso 1 1 calc R . .
C26 C 0.91953(8) 0.54357(11) 0.71596(6) 0.153(5) Uiso 1 1 d D . .
H26A H 0.8900 0.5790 0.6993 0.183 Uiso 1 1 calc R . .
H26B H 0.9380 0.5078 0.6826 0.183 Uiso 1 1 calc R . .
C27 C 0.86787(7) 0.49483(11) 0.74320(5) 0.153(5) Uiso 1 1 d D . .
N31 N 0.9120(2) 0.72122(7) 0.36995(6) 0.164(12) Uiso 1 1 d D . .
N32 N 0.89351(11) 0.71085(6) 0.26274(4) 0.129(9) Uiso 1 1 d D . .
C31 C 0.92375(13) 0.80816(7) 0.40064(7) 0.156(15) Uiso 1 1 d D . .
H31A H 0.9014 0.8228 0.4374 0.188 Uiso 1 1 calc R . .
H31B H 0.9787 0.8382 0.4082 0.188 Uiso 1 1 calc R . .
C32 C 0.87236(16) 0.8076(2) 0.34515(4) 0.178(17) Uiso 1 1 d D . .
H32A H 0.8215 0.7761 0.3464 0.213 Uiso 1 1 calc R . .
H32B H 0.8651 0.8640 0.3556 0.213 Uiso 1 1 calc R . .
C33 C 0.86835(14) 0.78693(9) 0.28014(5) 0.089(8) Uiso 1 1 d D . .
H33A H 0.8136 0.7816 0.2578 0.107 Uiso 1 1 calc R . .
H33B H 0.9037 0.8289 0.2711 0.107 Uiso 1 1 calc R . .
C34 C 0.89233(10) 0.67587(9) 0.19864(5) 0.148(14) Uiso 1 1 d D . .
H34A H 0.9208 0.7124 0.1805 0.178 Uiso 1 1 calc R . .
H34B H 0.8394 0.6478 0.1727 0.178 Uiso 1 1 calc R . .
C35 C 0.94013(12) 0.62290(9) 0.22115(5) 0.118(11) Uiso 1 1 d D . .
H35A H 0.9963 0.6440 0.2230 0.141 Uiso 1 1 calc R . .
H35B H 0.9250 0.5688 0.1901 0.141 Uiso 1 1 calc R . .
C36 C 0.93489(12) 0.61222(7) 0.28232(5) 0.114(11) Uiso 1 1 d D . .
H36A H 0.8935 0.5652 0.2780 0.137 Uiso 1 1 calc R . .
H36B H 0.9862 0.6066 0.3041 0.137 Uiso 1 1 calc R . .
C37 C 0.91311(14) 0.69003(8) 0.31355(4) 0.054(6) Uiso 1 1 d D . .

loop_
_atom_site_aniso_label
_atom_site_aniso_U_11
_atom_site_aniso_U_22
_atom_site_aniso_U_33
_atom_site_aniso_U_23
_atom_site_aniso_U_13
_atom_site_aniso_U_12
Cd1 0.0493(9) 0.0632(10) 0.0644(10) 0.0181(8) 0.0108(8) 0.0113(8)
Cd2 0.0552(9) 0.0519(9) 0.0612(10) 0.0201(8) 0.0129(8) 0.0116(8)
Cd3 0.0461(8) 0.0532(9) 0.0630(10) 0.0168(8) 0.0108(8) 0.0129(7)
Cd4 0.0409(8) 0.0423(8) 0.0524(9) 0.0157(7) 0.0072(7) 0.0050(7)
In1 0.0335(7) 0.0518(8) 0.0695(9) 0.0279(7) 0.0227(6) 0.0232(6)
In2 0.0278(7) 0.0458(7) 0.0457(8) 0.0180(6) 0.0079(6) 0.0126(6)
In3 0.0263(6) 0.0336(7) 0.0496(8) 0.0112(6) 0.0092(6) 0.0129(6)
In4 0.0308(7) 0.0430(7) 0.0507(8) 0.0233(6) 0.0165(6) 0.0134(6)
In5 0.0291(7) 0.0446(8) 0.0381(8) 0.0117(6) 0.0030(6) 0.0027(6)
In6 0.0209(6) 0.0331(7) 0.0489(8) 0.0101(6) 0.0036(6) 0.0022(6)
In7 0.0373(7) 0.0368(7) 0.0446(8) 0.0183(6) 0.0101(6) 0.0094(6)
In8 0.0474(8) 0.0571(9) 0.0433(9) 0.0027(8) 0.0062(7) 0.0024(8)
In9 0.0280(7) 0.0452(8) 0.0414(8) 0.0060(7) 0.0080(6) 0.0005(6)
In10 0.0248(7) 0.0435(8) 0.0439(8) 0.0111(6) 0.0054(6) -0.0016(6)
In11 0.0199(7) 0.0509(8) 0.0550(9) 0.0201(7) -0.0018(6) -0.0032(6)
In12 0.0481(8) 0.0328(7) 0.0453(9) 0.0056(7) 0.0054(7) 0.0022(7)
In13 0.0241(7) 0.0400(7) 0.0525(8) 0.0189(6) 0.0023(6) 0.0046(6)
In14 0.0478(8) 0.0282(7) 0.0485(8) 0.0102(6) 0.0093(7) 0.0034(6)
In15 0.0350(7) 0.0347(7) 0.0500(8) 0.0163(6) 0.0033(7) 0.0079(6)
In16 0.0520(8) 0.0330(7) 0.0601(9) 0.0198(7) 0.0049(7) 0.0065(7)
S1 0.055(3) 0.078(3) 0.068(4) 0.032(3) 0.017(3) 0.041(3)
S2 0.040(3) 0.047(3) 0.085(4) 0.014(3) 0.020(3) 0.021(2)
S3 0.054(3) 0.075(3) 0.098(4) 0.055(3) 0.050(3) 0.039(3)
S4 0.026(2) 0.067(3) 0.040(3) 0.015(3) -0.003(2) 0.012(2)
S5 0.037(2) 0.050(3) 0.040(3) 0.017(2) 0.010(2) 0.017(2)
S6 0.035(3) 0.032(3) 0.058(3) -0.006(3) 0.000(3) 0.004(2)
S7 0.031(2) 0.052(3) 0.043(3) 0.020(2) 0.013(2) 0.008(2)
S8 0.039(3) 0.034(2) 0.042(3) 0.012(2) 0.015(2) 0.012(2)
S9 0.054(3) 0.045(3) 0.048(3) 0.025(2) 0.029(2) 0.021(2)
S10 0.047(3) 0.058(3) 0.059(3) 0.017(3) 0.003(3) 0.003(3)
S11 0.035(3) 0.038(3) 0.049(