####################################################################### 
# 
# This file contains crystal structure data downloaded from the 
# Cambridge Structural Database (CSD) hosted by the Cambridge 
# Crystallographic Data Centre (CCDC).
# 
# Full information about CCDC data access policies and citation 
# guidelines are available at http://www.ccdc.cam.ac.uk/access/V1 
# 
# Audit and citation data items may have been added by the CCDC. 
# Please retain this information to preserve the provenance of 
# this file and to allow appropriate attribution of the data. 
# 
#######################################################################

data_dw270
_audit_block_doi                 10.5517/cc89qw4
_database_code_depnum_ccdc_archive 'CCDC 247686'
loop_
_citation_id
_citation_doi
_citation_year
1 10.5012/bkcs.2004.25.12.1955 2004
_audit_update_record             
;
2004-08-17 deposited with the CCDC.	2024-07-10 downloaded from the CCDC.
;

_audit_creation_method           SHELXL-97
_chemical_name_systematic        
;
?
;
_chemical_name_common            ?
_chemical_melting_point          ?
_chemical_formula_moiety         ?
_chemical_formula_sum            'C8 H10 Cu O7'
_chemical_formula_weight         281.70

loop_
_atom_type_symbol
_atom_type_description
_atom_type_scat_dispersion_real
_atom_type_scat_dispersion_imag
_atom_type_scat_source
C C 0.0033 0.0016 'International Tables Vol C Tables 4.2.6.8 and 6.1.1.4'
H H 0.0000 0.0000 'International Tables Vol C Tables 4.2.6.8 and 6.1.1.4'
O O 0.0106 0.0060 'International Tables Vol C Tables 4.2.6.8 and 6.1.1.4'
Cu Cu 0.3201 1.2651 'International Tables Vol C Tables 4.2.6.8 and 6.1.1.4'

_symmetry_cell_setting           Tetragonal
_symmetry_space_group_name_H-M   'P4/n  '

loop_
_symmetry_equiv_pos_as_xyz
'x, y, z'
'-x+1/2, -y+1/2, z'
'-y+1/2, x, z'
'y, -x+1/2, z'
'-x, -y, -z'
'x-1/2, y-1/2, -z'
'y-1/2, -x, -z'
'-y, x-1/2, -z'

_cell_length_a                   19.1062(16)
_cell_length_b                   19.1062(16)
_cell_length_c                   6.7812(6)
_cell_angle_alpha                90.00
_cell_angle_beta                 90.00
_cell_angle_gamma                90.00
_cell_volume                     2475.5(4)
_cell_formula_units_Z            8
_cell_measurement_temperature    293(2)
_cell_measurement_reflns_used    42
_cell_measurement_theta_min      2.14
_cell_measurement_theta_max      31.59

_exptl_crystal_description       'PLATE             '
_exptl_crystal_colour            'GREEN             '
_exptl_crystal_size_max          0.56
_exptl_crystal_size_mid          0.40
_exptl_crystal_size_min          0.20
_exptl_crystal_density_meas      ?
_exptl_crystal_density_diffrn    1.512
_exptl_crystal_density_method    'not measured'
_exptl_crystal_F_000             1144
_exptl_absorpt_coefficient_mu    1.779
_exptl_absorpt_correction_type   empirical
_exptl_absorpt_correction_T_min  0.1329
_exptl_absorpt_correction_T_max  0.1919
_exptl_absorpt_process_details   ?

_exptl_special_details           
;
?
;

_diffrn_ambient_temperature      293(2)
_diffrn_radiation_wavelength     0.71073
_diffrn_radiation_type           MoK\a
_diffrn_radiation_source         'sealed tube'
_diffrn_radiation_monochromator  graphite
_diffrn_measurement_device       'Siemens P4'
_diffrn_measurement_method       '\w scans'
_diffrn_standards_number         3
_diffrn_standards_interval_count 97
_diffrn_standards_interval_time  ?
_diffrn_standards_decay_%        ?
_diffrn_reflns_number            1188
_diffrn_reflns_av_R_equivalents  0.0000
_diffrn_reflns_av_sigmaI/netI    0.0271
_diffrn_reflns_limit_h_min       0
_diffrn_reflns_limit_h_max       22
_diffrn_reflns_limit_k_min       0
_diffrn_reflns_limit_k_max       16
_diffrn_reflns_limit_l_min       -8
_diffrn_reflns_limit_l_max       0
_diffrn_reflns_theta_min         2.13
_diffrn_reflns_theta_max         25.00
_reflns_number_total             1188
_reflns_number_gt                1087
_reflns_threshold_expression     >2sigma(I)

_computing_data_collection       'Siemens XSCANS'
_computing_cell_refinement       'Siemens XSCANS'
_computing_data_reduction        'Siemens SHELXTL'
_computing_structure_solution    'SHELXS-97 (Sheldrick, 1990)'
_computing_structure_refinement  'SHELXL-97 (Sheldrick, 1997)'
_computing_molecular_graphics    'Siemens SHELXTL'
_computing_publication_material  'Siemens SHELXTL'

_refine_special_details          
;
Refinement of F^2^ against ALL reflections.  The weighted R-factor wR and
goodness of fit S are based on F^2^, conventional R-factors R are based
on F, with F set to zero for negative F^2^. The threshold expression of
F^2^ > 2sigma(F^2^) is used only for calculating R-factors(gt) etc. and is
not relevant to the choice of reflections for refinement.  R-factors based
on F^2^ are statistically about twice as large as those based on F, and R-
factors based on ALL data will be even larger.
;

_refine_ls_structure_factor_coef Fsqd
_refine_ls_matrix_type           full
_refine_ls_weighting_scheme      calc
_refine_ls_weighting_details     
'calc w=1/[\s^2^(Fo^2^)+(0.0849P)^2^+5.6127P] where P=(Fo^2^+2Fc^2^)/3'
_atom_sites_solution_primary     direct
_atom_sites_solution_secondary   difmap
_atom_sites_solution_hydrogens   geom
_refine_ls_hydrogen_treatment    mixed
_refine_ls_extinction_method     SHELXL
_refine_ls_extinction_coef       0.0005(3)
_refine_ls_extinction_expression Fc^*^=kFc[1+0.001xFc^2^\l^3^/sin(2\q)]^-1/4^
_refine_ls_number_reflns         1188
_refine_ls_number_parameters     146
_refine_ls_number_restraints     0
_refine_ls_R_factor_all          0.0486
_refine_ls_R_factor_gt           0.0452
_refine_ls_wR_factor_ref         0.1333
_refine_ls_wR_factor_gt          0.1292
_refine_ls_goodness_of_fit_ref   1.063
_refine_ls_restrained_S_all      1.063
_refine_ls_shift/su_max          0.012
_refine_ls_shift/su_mean         0.001

loop_
_atom_site_label
_atom_site_type_symbol
_atom_site_fract_x
_atom_site_fract_y
_atom_site_fract_z
_atom_site_U_iso_or_equiv
_atom_site_adp_type
_atom_site_occupancy
_atom_site_symmetry_multiplicity
_atom_site_calc_flag
_atom_site_refinement_flags
_atom_site_disorder_assembly
_atom_site_disorder_group
Cu1 Cu 0.03108(3) 0.46888(3) 0.35279(8) 0.0144(3) Uani 1 1 d . . .
O1 O 0.0158(3) 0.3818(2) 0.4982(7) 0.0460(13) Uani 1 1 d . . .
O2 O -0.0356(3) 0.43470(19) 0.7461(6) 0.0383(12) Uani 1 1 d . . .
O3 O 0.1189(2) 0.4846(3) 0.4970(6) 0.0432(12) Uani 1 1 d . . .
O4 O 0.0651(2) 0.5355(3) 0.7466(7) 0.0388(11) Uani 1 1 d . . .
O5 O 0.0749(2) 0.4256(2) 0.0909(6) 0.0345(9) Uani 1 1 d . . .
C1 C -0.0143(3) 0.3811(3) 0.6612(7) 0.0195(11) Uani 1 1 d . . .
C2 C -0.0243(3) 0.3131(3) 0.7653(8) 0.0212(11) Uani 1 1 d . . .
C3 C -0.0471(3) 0.3133(3) 0.9609(8) 0.0279(12) Uani 1 1 d . . .
H3 H -0.0549 0.3556 1.0254 0.033 Uiso 1 1 calc R . .
C4 C 0.2497(3) 0.5581(3) 1.0604(8) 0.0322(13) Uani 1 1 d . . .
H4 H 0.2497 0.5725 1.1914 0.039 Uiso 1 1 calc R . .
C5 C 0.1864(3) 0.5473(3) 0.9611(8) 0.0263(12) Uani 1 1 d . . .
H5 H 0.1441 0.5551 1.0249 0.032 Uiso 1 1 calc R . .
C6 C 0.1874(3) 0.5246(3) 0.7655(8) 0.0213(11) Uani 1 1 d . . .
C7 C 0.2496(3) 0.5126(3) 0.6684(8) 0.0225(11) Uani 1 1 d . . .
H7 H 0.2493 0.4967 0.5388 0.027 Uiso 1 1 calc R . .
C8 C 0.1185(3) 0.5139(3) 0.6631(8) 0.0196(11) Uani 1 1 d . . .
O6 O 0.6745(8) 0.8262(6) 0.448(2) 0.172(5) Uani 1 1 d . . .
O7 O 0.3275(9) 0.1724(6) 0.002(3) 0.207(7) Uani 1 1 d . . .

loop_
_atom_site_aniso_label
_atom_site_aniso_U_11
_atom_site_aniso_U_22
_atom_site_aniso_U_33
_atom_site_aniso_U_23
_atom_site_aniso_U_13
_atom_site_aniso_U_12
Cu1 0.0125(4) 0.0127(4) 0.0182(4) -0.0008(2) 0.0008(2) 0.0009(2)
O1 0.078(4) 0.016(2) 0.044(2) 0.0074(18) 0.029(3) 0.009(2)
O2 0.064(3) 0.014(2) 0.036(2) 0.0036(17) 0.026(2) 0.007(2)
O3 0.020(2) 0.076(4) 0.034(2) -0.025(2) -0.0048(17) 0.005(2)
O4 0.018(2) 0.061(3) 0.037(2) -0.020(2) 0.0000(17) -0.004(2)
O5 0.038(3) 0.038(3) 0.0273(19) -0.0069(18) 0.0074(18) 0.003(2)
C1 0.023(3) 0.016(3) 0.019(3) 0.0013(19) -0.002(2) -0.004(3)
C2 0.027(3) 0.013(3) 0.024(3) 0.000(2) -0.001(2) 0.002(2)
C3 0.043(4) 0.013(3) 0.028(3) -0.002(2) 0.005(3) 0.000(3)
C4 0.022(3) 0.050(4) 0.025(3) -0.013(3) 0.002(2) -0.002(3)
C5 0.018(3) 0.035(3) 0.026(3) -0.006(2) 0.001(2) -0.002(3)
C6 0.015(3) 0.023(3) 0.025(3) 0.001(2) 0.000(2) -0.003(2)
C7 0.015(3) 0.030(3) 0.022(2) -0.004(2) 0.000(2) 0.004(3)
C8 0.014(3) 0.017(3) 0.028(3) -0.001(2) 0.001(2) 0.001(2)
O6 0.182(14) 0.111(10) 0.224(13) -0.023(9) 0.034(13) 0.034(9)
O7 0.160(14) 0.134(11) 0.33(2) 0.033(12) -0.037(16) 0.069(9)

_geom_special_details            
;
All esds (except the esd in the dihedral angle between two l.s. planes)
are estimated using the full covariance matrix.  The cell esds are taken
into account individually in the estimation of esds in distances, angles
and torsion angles; correlations between esds in cell parameters are only
used when they are defined by crystal symmetry.  An approximate (isotropic)
treatment of cell esds is used for estimating esds involving l.s. planes.
;

loop_
_geom_bond_atom_site_label_1
_geom_bond_atom_site_label_2
_geom_bond_distance
_geom_bond_site_symmetry_2
_geom_bond_publ_flag
Cu1 O1 1.956(4) . ?
Cu1 O4 1.959(4) 5_566 ?
Cu1 O2 1.962(4) 5_566 ?
Cu1 O3 1.966(4) . ?
Cu1 O5 2.130(4) . ?
Cu1 Cu1 2.6098(11) 5_566 ?
O1 C1 1.246(7) . ?
O2 C1 1.244(7) . ?
O2 Cu1 1.962(4) 5_566 ?
O3 C8 1.258(7) . ?
O4 C8 1.237(7) . ?
O4 Cu1 1.959(4) 5_566 ?
C1 C2 1.491(7) . ?
C2 C3 1.396(8) . ?
C2 C7 1.397(7) 3 ?
C3 C4 1.407(8) 3 ?
C4 C5 1.399(7) . ?
C4 C3 1.407(8) 4 ?
C5 C6 1.396(8) . ?
C6 C7 1.377(8) . ?
C6 C8 1.503(7) . ?
C7 C2 1.397(7) 4 ?

loop_
_geom_angle_atom_site_label_1
_geom_angle_atom_site_label_2
_geom_angle_atom_site_label_3
_geom_angle
_geom_angle_site_symmetry_1
_geom_angle_site_symmetry_3
_geom_angle_publ_flag
O1 Cu1 O4 89.8(2) . 5_566 ?
O1 Cu1 O2 167.79(17) . 5_566 ?
O4 Cu1 O2 87.9(2) 5_566 5_566 ?
O1 Cu1 O3 90.4(2) . . ?
O4 Cu1 O3 168.12(18) 5_566 . ?
O2 Cu1 O3 89.4(2) 5_566 . ?
O1 Cu1 O5 98.56(17) . . ?
O4 Cu1 O5 93.77(17) 5_566 . ?
O2 Cu1 O5 93.56(16) 5_566 . ?
O3 Cu1 O5 97.94(17) . . ?
O1 Cu1 Cu1 86.21(12) . 5_566 ?
O4 Cu1 Cu1 81.70(13) 5_566 5_566 ?
O2 Cu1 Cu1 81.59(11) 5_566 5_566 ?
O3 Cu1 Cu1 86.47(13) . 5_566 ?
O5 Cu1 Cu1 173.45(12) . 5_566 ?
C1 O1 Cu1 121.7(4) . . ?
C1 O2 Cu1 126.9(4) . 5_566 ?
C8 O3 Cu1 120.5(4) . . ?
C8 O4 Cu1 127.0(4) . 5_566 ?
O2 C1 O1 123.5(5) . . ?
O2 C1 C2 117.2(5) . . ?
O1 C1 C2 119.3(5) . . ?
C3 C2 C7 120.0(5) . 3 ?
C3 C2 C1 119.1(5) . . ?
C7 C2 C1 120.9(5) 3 . ?
C2 C3 C4 119.9(5) . 3 ?
C5 C4 C3 119.6(5) . 4 ?
C6 C5 C4 119.4(5) . . ?
C7 C6 C5 121.2(5) . . ?
C7 C6 C8 120.8(5) . . ?
C5 C6 C8 118.0(4) . . ?
C6 C7 C2 119.8(5) . 4 ?
O4 C8 O3 124.3(5) . . ?
O4 C8 C6 117.8(5) . . ?
O3 C8 C6 117.9(5) . . ?

_diffrn_measured_fraction_theta_max 0.545
_diffrn_reflns_theta_full        25.00
_diffrn_measured_fraction_theta_full 0.545
_refine_diff_density_max         0.826
_refine_diff_density_min         -0.392
_refine_diff_density_rms         0.099
