####################################################################### 
# 
# This file contains crystal structure data downloaded from the 
# Cambridge Structural Database (CSD) hosted by the Cambridge 
# Crystallographic Data Centre (CCDC).
# 
# Full information about CCDC data access policies and citation 
# guidelines are available at http://www.ccdc.cam.ac.uk/access/V1 
# 
# Audit and citation data items may have been added by the CCDC. 
# Please retain this information to preserve the provenance of 
# this file and to allow appropriate attribution of the data. 
# 
#######################################################################

data_HAWMAT
#This CIF has been generated from an entry in the Cambridge Structural Database
_database_code_depnum_ccdc_archive 'CCDC 1172838'
_database_code_CSD               HAWMAT
_audit_creation_method           'Created from the CSD'
_audit_update_record             
;
2024-07-10 downloaded from the CCDC.
;
_database_code_NBS               630848
_chemical_formula_moiety         '(C34 H28 Ag2 N3 O3 P2 1+)n,n(N1 O3 1-)'
_chemical_name_systematic        
"catena-(bis(\m~2~-2-(Diphenylphosphino)pyridino-N,P)-(\m~2~-nitrato-O,O,O',O'')-di-silver nitrate)"
_chemical_absolute_configuration unk
_diffrn_ambient_temperature      295
_exptl_crystal_density_diffrn    1.56362
#These two values have been output from a single CSD field.
_refine_ls_R_factor_gt           0.056
_refine_ls_wR_factor_gt          0.056
_diffrn_radiation_probe          x-ray
_symmetry_cell_setting           triclinic
_symmetry_space_group_name_H-M   'P -1'
_symmetry_Int_Tables_number      2
_space_group_name_Hall           '-P 1'
loop_
_symmetry_equiv_pos_site_id
_symmetry_equiv_pos_as_xyz
1 x,y,z
2 -x,-y,-z
_cell_length_a                   8.168
_cell_length_b                   12.428
_cell_length_c                   19.895
_cell_angle_alpha                74.85
_cell_angle_beta                 75.02
_cell_angle_gamma                74.570
_cell_volume                     1839.97
_exptl_crystal_colour            'light yellow'
_cell_formula_units_Z            2
loop_
_atom_site_label
_atom_site_type_symbol
_atom_site_fract_x
_atom_site_fract_y
_atom_site_fract_z
Ag1 Ag 0.55983(7) 0.69226(5) 0.75052(3)
Ag2 Ag 0.96188(7) 0.66187(5) 0.73470(3)
P1 P 0.9095(2) 0.4931(2) 0.7166(1)
P2 P 0.6065(2) 0.8184(2) 0.81174(9)
N1 N 0.6406(7) 0.6100(5) 0.6563(3)
N2 N 0.9003(7) 0.8517(5) 0.7199(3)
C1 C 0.7879(8) 0.5293(5) 0.6451(4)
C2 C 0.7472(9) 0.9106(5) 0.7521(4)
O1 O 0.2528(6) 0.6639(4) 0.7600(3)
O2 O 0.1199(7) 0.5521(6) 0.8441(4)
O3 O 0.3627(7) 0.5806(6) 0.8525(3)
N3 N 0.2425(8) 0.5980(5) 0.8199(3)
Ag2 Ag -0.03812(7) 0.66187(5) 0.73470(3)
O1 O 1.2528(6) 0.6639(4) 0.7600(3)
O2 O 1.1199(7) 0.5521(6) 0.8441(4)

#END
