####################################################################### 
# 
# This file contains crystal structure data downloaded from the 
# Cambridge Structural Database (CSD) hosted by the Cambridge 
# Crystallographic Data Centre (CCDC).
# 
# Full information about CCDC data access policies and citation 
# guidelines are available at http://www.ccdc.cam.ac.uk/access/V1 
# 
# Audit and citation data items may have been added by the CCDC. 
# Please retain this information to preserve the provenance of 
# this file and to allow appropriate attribution of the data. 
# 
#######################################################################

data_1
_audit_block_doi                 10.5517/ccwmmjm
_database_code_depnum_ccdc_archive 'CCDC 823221'
loop_
_citation_id
_citation_doi
_citation_year
1 10.1021/ic2021929 2012
_audit_update_record             
;
2011-04-26 deposited with the CCDC.	2024-07-10 downloaded from the CCDC.
;

_audit_creation_method           SHELXL-97
_chemical_name_systematic        
;
?
;
_chemical_name_common            ?
_chemical_melting_point          ?
_chemical_formula_moiety         ?
_chemical_formula_sum            'C41 H57 Mn5 N13 O19'
_chemical_formula_weight         1310.70

loop_
_atom_type_symbol
_atom_type_description
_atom_type_scat_dispersion_real
_atom_type_scat_dispersion_imag
_atom_type_scat_source
C C 0.0033 0.0016 'International Tables Vol C Tables 4.2.6.8 and 6.1.1.4'
H H 0.0000 0.0000 'International Tables Vol C Tables 4.2.6.8 and 6.1.1.4'
N N 0.0061 0.0033 'International Tables Vol C Tables 4.2.6.8 and 6.1.1.4'
O O 0.0106 0.0060 'International Tables Vol C Tables 4.2.6.8 and 6.1.1.4'
Mn Mn 0.3368 0.7283 'International Tables Vol C Tables 4.2.6.8 and 6.1.1.4'

_symmetry_cell_setting           triclinic
_symmetry_space_group_name_H-M   P-1

loop_
_symmetry_equiv_pos_as_xyz
'x, y, z'
'-x, -y, -z'

_cell_length_a                   11.1053(10)
_cell_length_b                   12.5767(12)
_cell_length_c                   20.0751(19)
_cell_angle_alpha                82.8400(10)
_cell_angle_beta                 77.765(2)
_cell_angle_gamma                79.2580(10)
_cell_volume                     2681.5(4)
_cell_formula_units_Z            2
_cell_measurement_temperature    173(2)
_cell_measurement_reflns_used    ?
_cell_measurement_theta_min      ?
_cell_measurement_theta_max      ?

_exptl_crystal_description       ?
_exptl_crystal_colour            ?
_exptl_crystal_size_max          0.37
_exptl_crystal_size_mid          0.33
_exptl_crystal_size_min          0.27
_exptl_crystal_density_meas      ?
_exptl_crystal_density_diffrn    1.623
_exptl_crystal_density_method    'not measured'
_exptl_crystal_F_000             1342
_exptl_absorpt_coefficient_mu    1.229
_exptl_absorpt_correction_type   ?
_exptl_absorpt_correction_T_min  0.6605
_exptl_absorpt_correction_T_max  0.7342
_exptl_absorpt_process_details   ?

_exptl_special_details           
;
?
;

_diffrn_ambient_temperature      173(2)
_diffrn_radiation_wavelength     0.71073
_diffrn_radiation_type           MoK\a
_diffrn_radiation_source         'fine-focus sealed tube'
_diffrn_radiation_monochromator  graphite
_diffrn_measurement_device_type  ?
_diffrn_measurement_method       ?
_diffrn_detector_area_resol_mean ?
_diffrn_standards_number         ?
_diffrn_standards_interval_count ?
_diffrn_standards_interval_time  ?
_diffrn_standards_decay_%        ?
_diffrn_reflns_number            14749
_diffrn_reflns_av_R_equivalents  0.0191
_diffrn_reflns_av_sigmaI/netI    0.0395
_diffrn_reflns_limit_h_min       -13
_diffrn_reflns_limit_h_max       8
_diffrn_reflns_limit_k_min       -15
_diffrn_reflns_limit_k_max       15
_diffrn_reflns_limit_l_min       -24
_diffrn_reflns_limit_l_max       19
_diffrn_reflns_theta_min         1.04
_diffrn_reflns_theta_max         26.00
_reflns_number_total             10362
_reflns_number_gt                8333
_reflns_threshold_expression     >2sigma(I)

_computing_data_collection       ?
_computing_cell_refinement       ?
_computing_data_reduction        ?
_computing_structure_solution    'SHELXS-97 (Sheldrick, 1990)'
_computing_structure_refinement  'SHELXL-97 (Sheldrick, 1997)'
_computing_molecular_graphics    ?
_computing_publication_material  ?

_refine_special_details          
;
Refinement of F^2^ against ALL reflections. The weighted R-factor wR and
goodness of fit S are based on F^2^, conventional R-factors R are based
on F, with F set to zero for negative F^2^. The threshold expression of
F^2^ > 2sigma(F^2^) is used only for calculating R-factors(gt) etc. and is
not relevant to the choice of reflections for refinement. R-factors based
on F^2^ are statistically about twice as large as those based on F, and R-
factors based on ALL data will be even larger.
;

_refine_ls_structure_factor_coef Fsqd
_refine_ls_matrix_type           full
_refine_ls_weighting_scheme      calc
_refine_ls_weighting_details     
'calc w=1/[\s^2^(Fo^2^)+(0.1101P)^2^+10.0850P] where P=(Fo^2^+2Fc^2^)/3'
_atom_sites_solution_primary     direct
_atom_sites_solution_secondary   difmap
_atom_sites_solution_hydrogens   geom
_refine_ls_hydrogen_treatment    mixed
_refine_ls_extinction_method     none
_refine_ls_extinction_coef       ?
_refine_ls_number_reflns         10362
_refine_ls_number_parameters     696
_refine_ls_number_restraints     4
_refine_ls_R_factor_all          0.0775
_refine_ls_R_factor_gt           0.0657
_refine_ls_wR_factor_ref         0.2002
_refine_ls_wR_factor_gt          0.1881
_refine_ls_goodness_of_fit_ref   1.068
_refine_ls_restrained_S_all      1.079
_refine_ls_shift/su_max          0.039
_refine_ls_shift/su_mean         0.001

loop_
_atom_site_label
_atom_site_type_symbol
_atom_site_fract_x
_atom_site_fract_y
_atom_site_fract_z
_atom_site_U_iso_or_equiv
_atom_site_adp_type
_atom_site_occupancy
_atom_site_symmetry_multiplicity
_atom_site_calc_flag
_atom_site_refinement_flags
_atom_site_disorder_assembly
_atom_site_disorder_group
Mn1 Mn 0.52324(6) 0.23138(5) 0.24474(3) 0.01185(17) Uani 1 1 d . . .
Mn2 Mn 0.62858(6) 0.48945(5) 0.22780(3) 0.01114(17) Uani 1 1 d . . .
Mn3 Mn 0.37152(6) 0.71754(5) 0.26540(3) 0.01325(18) Uani 1 1 d . . .
Mn4 Mn 0.67370(6) 0.74453(5) 0.22973(4) 0.01537(18) Uani 1 1 d . . .
Mn5 Mn 0.41963(6) 0.97470(5) 0.25766(3) 0.01125(17) Uani 1 1 d . . .
C1 C 1.1631(4) 0.9068(4) 0.2529(2) 0.0176(9) Uani 1 1 d . . .
C2 C 1.0304(4) 0.9565(4) 0.2481(3) 0.0188(9) Uani 1 1 d . . .
C3 C 0.9946(5) 1.0712(4) 0.2492(3) 0.0293(12) Uani 1 1 d . . .
H3A H 1.0563 1.1136 0.2505 0.035 Uiso 1 1 calc R . .
C4 C 0.8754(5) 1.1224(4) 0.2483(3) 0.0292(12) Uani 1 1 d . . .
H4A H 0.8526 1.1989 0.2490 0.035 Uiso 1 1 calc R . .
C5 C 0.7872(4) 1.0553(4) 0.2462(3) 0.0183(9) Uani 1 1 d . . .
C6 C 0.8226(4) 0.9428(4) 0.2435(2) 0.0174(9) Uani 1 1 d . . .
C7 C 0.9453(4) 0.8909(4) 0.2444(3) 0.0195(10) Uani 1 1 d . . .
H7A H 0.9689 0.8146 0.2425 0.023 Uiso 1 1 calc R . .
C8 C 0.8850(4) 0.5558(4) 0.2339(2) 0.0156(9) Uani 1 1 d . . .
C9 C 1.0184(4) 0.5074(4) 0.2372(3) 0.0188(10) Uani 1 1 d . . .
C10 C 1.0554(5) 0.3932(4) 0.2319(3) 0.0241(11) Uani 1 1 d . . .
H10A H 0.9951 0.3514 0.2274 0.029 Uiso 1 1 calc R . .
C11 C 1.1753(4) 0.3423(4) 0.2331(3) 0.0233(11) Uani 1 1 d . . .
H11A H 1.1993 0.2661 0.2304 0.028 Uiso 1 1 calc R . .
C12 C 1.2616(4) 0.4089(4) 0.2387(2) 0.0183(9) Uani 1 1 d . . .
C13 C 1.2245(4) 0.5209(4) 0.2433(2) 0.0174(9) Uani 1 1 d . . .
C14 C 1.1010(4) 0.5717(4) 0.2435(3) 0.0189(10) Uani 1 1 d . . .
H14A H 1.0758 0.6473 0.2478 0.023 Uiso 1 1 calc R . .
C15 C 0.6241(5) 0.1869(4) 0.6075(2) 0.0228(10) Uani 1 1 d . . .
C16 C 0.6232(5) 0.2025(4) 0.5318(2) 0.0259(11) Uani 1 1 d . . .
C17 C 0.5758(6) 0.1281(4) 0.5007(3) 0.0309(12) Uani 1 1 d . . .
H17A H 0.5505 0.0656 0.5277 0.037 Uiso 1 1 calc R . .
C18 C 0.5650(5) 0.1431(4) 0.4327(3) 0.0275(12) Uani 1 1 d . . .
H18A H 0.5350 0.0918 0.4122 0.033 Uiso 1 1 calc R . .
C19 C 0.6006(5) 0.2382(4) 0.3956(2) 0.0202(10) Uani 1 1 d . . .
C20 C 0.6502(6) 0.3107(4) 0.4254(3) 0.0270(11) Uani 1 1 d . . .
C21 C 0.6649(6) 0.2923(4) 0.4937(3) 0.0326(13) Uani 1 1 d . . .
H21A H 0.7022 0.3399 0.5132 0.039 Uiso 1 1 calc R . .
C22 C 0.3464(5) 0.3403(4) -0.1001(2) 0.0200(10) Uani 1 1 d . . .
C23 C 0.3722(5) 0.3048(4) -0.0296(2) 0.0211(10) Uani 1 1 d . . .
C24 C 0.4193(5) 0.3746(4) 0.0051(3) 0.0248(11) Uani 1 1 d . . .
H24A H 0.4301 0.4450 -0.0161 0.030 Uiso 1 1 calc R . .
C25 C 0.4499(5) 0.3444(4) 0.0680(3) 0.0242(11) Uani 1 1 d . . .
H25A H 0.4817 0.3919 0.0906 0.029 Uiso 1 1 calc R . .
C26 C 0.4319(4) 0.2392(4) 0.0977(2) 0.0180(9) Uani 1 1 d . . .
C27 C 0.3840(5) 0.1699(4) 0.0642(2) 0.0238(11) Uani 1 1 d . . .
C28 C 0.3535(5) 0.2020(4) -0.0005(3) 0.0257(11) Uani 1 1 d . . .
H28A H 0.3214 0.1550 -0.0234 0.031 Uiso 1 1 calc R . .
C29 C 0.7356(5) 0.3186(5) 0.1269(3) 0.0334(13) Uani 1 1 d D . .
H29A H 0.7138 0.3804 0.0936 0.040 Uiso 1 1 calc R . .
H29B H 0.8160 0.3276 0.1376 0.040 Uiso 1 1 calc R . .
C30 C 0.7596(5) 0.2357(4) 0.0946(2) 0.0264(11) Uani 1 1 d D . .
H30A H 0.8254 0.2451 0.0543 0.040 Uiso 1 1 calc R . .
H30B H 0.6841 0.2251 0.0800 0.040 Uiso 1 1 calc R . .
H30C H 0.7880 0.1720 0.1242 0.040 Uiso 1 1 calc R . .
C31 C 0.3015(5) 0.1434(4) 0.3576(3) 0.0281(11) Uani 1 1 d D . .
H31A H 0.2229 0.1428 0.3420 0.034 Uiso 1 1 calc R . .
H31B H 0.3134 0.0778 0.3899 0.034 Uiso 1 1 calc R . .
C32 C 0.2809(5) 0.2229(4) 0.3925(3) 0.0264(11) Uiso 1 1 d D . .
H32A H 0.2087 0.2165 0.4296 0.040 Uiso 1 1 calc R . .
H32B H 0.2636 0.2902 0.3633 0.040 Uiso 1 1 calc R . .
H32C H 0.3544 0.2244 0.4119 0.040 Uiso 1 1 calc R . .
C33 C 0.9179(18) 0.9788(13) 0.4265(8) 0.148(7) Uani 1 1 d . . .
H33A H 1.0085 0.9739 0.4212 0.222 Uiso 1 1 calc R . .
H33B H 0.8766 1.0051 0.4710 0.222 Uiso 1 1 calc R . .
H33C H 0.8883 1.0294 0.3899 0.222 Uiso 1 1 calc R . .
C34 C 0.7661(14) 0.8587(15) 0.4300(7) 0.154(7) Uani 1 1 d . . .
H34A H 0.7652 0.7818 0.4265 0.231 Uiso 1 1 calc R . .
H34B H 0.7283 0.9031 0.3937 0.231 Uiso 1 1 calc R . .
H34C H 0.7184 0.8796 0.4747 0.231 Uiso 1 1 calc R . .
C35 C 0.0977(15) 0.4375(12) 0.4287(6) 0.158(8) Uani 1 1 d . . .
H35A H 0.0293 0.4020 0.4556 0.238 Uiso 1 1 calc R . .
H35B H 0.1154 0.4177 0.3815 0.238 Uiso 1 1 calc R . .
H35C H 0.0734 0.5165 0.4290 0.238 Uiso 1 1 calc R . .
C36 C 0.2140(8) 0.4008(6) 0.4598(4) 0.055(2) Uani 1 1 d . . .
H36A H 0.1943 0.4175 0.5082 0.066 Uiso 1 1 calc R . .
H36B H 0.2387 0.3212 0.4589 0.066 Uiso 1 1 calc R . .
C37 C 0.817(4) 0.267(3) -0.0601(12) 0.52(4) Uani 1 1 d . . .
H37A H 0.7540 0.3329 -0.0566 0.778 Uiso 1 1 calc R . .
H37B H 0.8737 0.2710 -0.1047 0.778 Uiso 1 1 calc R . .
H37C H 0.8649 0.2606 -0.0236 0.778 Uiso 1 1 calc R . .
C38 C 0.750(4) 0.164(4) -0.053(2) 0.63(6) Uani 1 1 d . . .
H38A H 0.6939 0.1710 -0.0076 0.751 Uiso 1 1 calc R . .
H38B H 0.6946 0.1857 -0.0864 0.751 Uiso 1 1 calc R . .
C39 C 0.082(4) 0.553(3) 0.058(2) 0.43(3) Uiso 1 1 d D . .
H39A H 0.0363 0.6168 0.0352 0.650 Uiso 1 1 calc R . .
H39B H 0.1721 0.5535 0.0435 0.650 Uiso 1 1 calc R . .
H39C H 0.0581 0.5558 0.1076 0.650 Uiso 1 1 calc R . .
C40 C 0.052(3) 0.455(2) 0.0389(13) 0.236(11) Uiso 1 1 d D . .
H40A H 0.1156 0.4524 -0.0040 0.283 Uiso 1 1 calc R . .
H40B H -0.0250 0.4923 0.0233 0.283 Uiso 1 1 calc R . .
C41 C 0.9815(13) 0.7831(13) 0.4150(7) 0.117(5) Uani 1 1 d . . .
H41A H 1.0660 0.7935 0.4082 0.140 Uiso 1 1 calc R . .
N1 N 0.6623(3) 1.0792(3) 0.2468(2) 0.0184(8) Uani 1 1 d . . .
N2 N 0.6241(3) 0.9860(3) 0.2447(2) 0.0167(8) Uani 1 1 d . . .
N3 N 0.7167(3) 0.9015(3) 0.2426(2) 0.0177(8) Uani 1 1 d . . .
N4 N 1.3293(3) 0.5621(3) 0.2466(2) 0.0165(8) Uani 1 1 d . . .
N5 N 1.4230(3) 0.4775(3) 0.2443(2) 0.0155(8) Uani 1 1 d . . .
N6 N 1.3852(3) 0.3851(3) 0.2400(2) 0.0170(8) Uani 1 1 d . . .
N7 N 0.6723(5) 0.3956(4) 0.3783(2) 0.0295(10) Uani 1 1 d . . .
N8 N 0.6360(4) 0.3764(3) 0.3233(2) 0.0210(9) Uani 1 1 d . . .
N9 N 0.5928(4) 0.2822(3) 0.33090(19) 0.0167(8) Uani 1 1 d . . .
N10 N 0.4533(4) 0.1846(3) 0.1582(2) 0.0174(8) Uani 1 1 d . . .
N11 N 0.4188(4) 0.0869(3) 0.1603(2) 0.0185(8) Uani 1 1 d . . .
N12 N 0.3779(4) 0.0738(3) 0.1051(2) 0.0249(9) Uani 1 1 d . . .
N13 N 0.8896(13) 0.8753(9) 0.4229(5) 0.114(4) Uani 1 1 d . . .
O1 O 1.2285(3) 0.9676(3) 0.26759(19) 0.0234(7) Uani 1 1 d . . .
O2 O 1.1988(3) 0.8081(3) 0.24261(18) 0.0206(7) Uani 1 1 d . . .
O3 O 0.8473(3) 0.6526(3) 0.24906(19) 0.0222(7) Uani 1 1 d . . .
O4 O 0.8201(3) 0.4967(3) 0.21619(18) 0.0221(7) Uani 1 1 d . . .
O5 O 0.6738(3) 0.2522(3) 0.63117(17) 0.0230(7) Uani 1 1 d . . .
O6 O 0.5727(3) 0.1109(3) 0.64169(17) 0.0257(8) Uani 1 1 d . . .
O7 O 0.3885(4) 0.4231(3) -0.13050(17) 0.0268(8) Uani 1 1 d . . .
O8 O 0.2893(3) 0.2829(3) -0.12552(17) 0.0220(7) Uani 1 1 d . . .
O9 O 0.4860(3) 0.8264(2) 0.20931(16) 0.0147(6) Uani 1 1 d . . .
H9A H 0.4827 0.8357 0.1595 0.018 Uiso 1 1 calc R . .
O10 O 0.5581(3) 0.6332(2) 0.28255(16) 0.0149(6) Uani 1 1 d . . .
H10B H 0.5624 0.6193 0.3322 0.018 Uiso 1 1 calc R . .
O11 O 0.6559(3) 0.3342(3) 0.18091(16) 0.0168(7) Uani 1 1 d . . .
H11B H 0.7205 0.3018 0.2088 0.020 Uiso 1 1 calc R . .
O12 O 0.3881(3) 0.1284(2) 0.30598(16) 0.0183(7) Uani 1 1 d . . .
H12A H 0.4197 0.0623 0.3065 0.027 Uiso 1 1 calc R . .
O13 O 0.9632(14) 0.6920(9) 0.4159(8) 0.203(7) Uani 1 1 d . . .
O14 O 0.3177(14) 0.4533(11) 0.4235(7) 0.213(7) Uani 1 1 d . . .
H14B H 0.3798 0.4314 0.4422 0.319 Uiso 1 1 calc R . .
O15 O 0.7779(13) 0.0452(12) -0.0551(7) 0.185(5) Uiso 1 1 d . . .
H15A H 0.8525 0.0226 -0.0515 0.278 Uiso 1 1 calc R . .
O16 O 0.025(2) 0.345(2) 0.0358(13) 0.343(12) Uiso 1 1 d D . .
H16A H 0.0483 0.3279 -0.0046 0.515 Uiso 1 1 calc R . .
O1W O 0.8011(12) 0.5504(8) 0.4086(4) 0.067(4) Uani 0.50 1 d P . .
H1WA H 0.7549 0.6118 0.4039 0.080 Uiso 0.50 1 d PR . .
H1WB H 0.7711 0.4981 0.4334 0.080 Uiso 0.50 1 d PR . .
O2W O 0.7217(10) 0.0301(7) 0.0743(6) 0.146(4) Uani 1 1 d . . .
H2WA H 0.7399 0.0522 0.1087 0.175 Uiso 1 1 d R . .
H2WB H 0.6927 -0.0288 0.0785 0.175 Uiso 1 1 d R . .
O3W O 0.965(2) -0.101(3) -0.0558(9) 0.215(15) Uani 0.50 1 d P . .
H3WA H 1.0437 -0.1133 -0.0707 0.258 Uiso 0.50 1 d PR . .
H3WB H 0.9195 -0.1434 -0.0641 0.258 Uiso 0.50 1 d PR . .
O4W O 0.052(3) 0.195(2) -0.0828(9) 0.28(2) Uani 0.50 1 d P . .
H4WA H 0.0055 0.2071 -0.0442 0.334 Uiso 0.50 1 d PR . .
H4WB H 0.0310 0.1568 -0.1093 0.334 Uiso 0.50 1 d PR . .
O5W O 0.6625(16) 0.7548(13) 0.3585(8) 0.110(5) Uani 0.50 1 d P . .
H5WA H 0.6090 0.8094 0.3717 0.132 Uiso 0.50 1 d PR . .
H5WB H 0.6409 0.6927 0.3620 0.132 Uiso 0.50 1 d PR . .

loop_
_atom_site_aniso_label
_atom_site_aniso_U_11
_atom_site_aniso_U_22
_atom_site_aniso_U_33
_atom_site_aniso_U_23
_atom_site_aniso_U_13
_atom_site_aniso_U_12
Mn1 0.0102(3) 0.0078(3) 0.0184(3) -0.0015(3) -0.0065(3) 0.0008(2)
Mn2 0.0075(3) 0.0096(3) 0.0170(3) 0.0011(2) -0.0049(2) -0.0018(2)
Mn3 0.0087(3) 0.0090(3) 0.0228(4) -0.0019(3) -0.0048(3) -0.0010(2)
Mn4 0.0084(3) 0.0084(3) 0.0306(4) -0.0027(3) -0.0069(3) -0.0006(2)
Mn5 0.0082(3) 0.0089(3) 0.0174(3) 0.0001(2) -0.0048(2) -0.0014(2)
C1 0.012(2) 0.016(2) 0.026(2) 0.0000(18) -0.0054(18) -0.0024(17)
C2 0.011(2) 0.015(2) 0.033(3) 0.0000(19) -0.0100(19) -0.0023(17)
C3 0.015(2) 0.017(2) 0.060(4) -0.002(2) -0.015(2) -0.0057(19)
C4 0.016(2) 0.008(2) 0.066(4) -0.001(2) -0.017(2) -0.0008(18)
C5 0.011(2) 0.010(2) 0.034(3) -0.0019(18) -0.0102(19) 0.0027(16)
C6 0.012(2) 0.011(2) 0.030(2) -0.0019(18) -0.0072(18) -0.0009(17)
C7 0.012(2) 0.013(2) 0.034(3) -0.0039(19) -0.0085(19) 0.0018(17)
C8 0.008(2) 0.016(2) 0.023(2) 0.0020(17) -0.0056(17) -0.0009(16)
C9 0.011(2) 0.013(2) 0.033(3) -0.0009(18) -0.0088(19) 0.0003(17)
C10 0.011(2) 0.015(2) 0.049(3) -0.004(2) -0.013(2) -0.0017(18)
C11 0.013(2) 0.010(2) 0.049(3) -0.008(2) -0.010(2) 0.0006(17)
C12 0.014(2) 0.012(2) 0.029(2) -0.0010(18) -0.0094(19) -0.0003(17)
C13 0.013(2) 0.010(2) 0.031(3) -0.0032(18) -0.0079(19) -0.0021(17)
C14 0.010(2) 0.011(2) 0.036(3) -0.0031(18) -0.0079(19) 0.0027(17)
C15 0.024(3) 0.023(2) 0.022(2) -0.0007(19) -0.009(2) 0.000(2)
C16 0.036(3) 0.026(3) 0.020(2) 0.003(2) -0.012(2) -0.011(2)
C17 0.046(3) 0.023(3) 0.028(3) 0.011(2) -0.014(2) -0.016(2)
C18 0.043(3) 0.019(2) 0.028(3) 0.006(2) -0.018(2) -0.017(2)
C19 0.028(3) 0.015(2) 0.022(2) -0.0005(18) -0.012(2) -0.0066(19)
C20 0.043(3) 0.024(3) 0.022(2) 0.004(2) -0.016(2) -0.017(2)
C21 0.058(4) 0.028(3) 0.022(3) 0.005(2) -0.017(3) -0.026(3)
C22 0.020(2) 0.021(2) 0.020(2) -0.0022(18) -0.0070(19) 0.0006(19)
C23 0.025(3) 0.022(2) 0.018(2) 0.0038(18) -0.0082(19) -0.008(2)
C24 0.039(3) 0.016(2) 0.024(2) 0.0052(19) -0.012(2) -0.013(2)
C25 0.036(3) 0.018(2) 0.025(2) 0.0021(19) -0.016(2) -0.013(2)
C26 0.021(2) 0.018(2) 0.017(2) 0.0033(17) -0.0093(18) -0.0068(18)
C27 0.036(3) 0.018(2) 0.022(2) 0.0035(19) -0.013(2) -0.011(2)
C28 0.040(3) 0.021(2) 0.023(2) 0.0052(19) -0.018(2) -0.014(2)
C29 0.026(3) 0.038(3) 0.034(3) -0.005(2) 0.001(2) -0.009(2)
C30 0.031(3) 0.024(3) 0.022(2) -0.017(2) 0.012(2) -0.007(2)
C31 0.023(3) 0.031(3) 0.029(3) -0.006(2) -0.003(2) -0.001(2)
C33 0.23(2) 0.118(12) 0.107(11) -0.007(9) -0.020(11) -0.062(13)
C34 0.103(11) 0.222(19) 0.091(9) 0.004(10) 0.000(8) 0.056(12)
C35 0.200(16) 0.148(12) 0.061(7) -0.020(7) 0.015(8) 0.102(11)
C36 0.075(5) 0.035(4) 0.044(4) -0.011(3) 0.013(4) -0.007(3)
C37 0.88(9) 0.49(5) 0.19(2) -0.23(3) 0.34(4) -0.50(6)
C38 0.55(7) 0.58(7) 0.76(9) -0.61(8) 0.37(6) -0.35(6)
C41 0.081(9) 0.135(12) 0.110(10) 0.018(9) 0.005(7) -0.003(8)
N1 0.0087(18) 0.0130(18) 0.034(2) -0.0022(16) -0.0067(16) -0.0009(14)
N2 0.0091(18) 0.0108(18) 0.031(2) -0.0039(15) -0.0080(15) 0.0022(14)
N3 0.0083(18) 0.0109(18) 0.036(2) -0.0057(16) -0.0084(16) 0.0002(14)
N4 0.0066(17) 0.0099(17) 0.035(2) -0.0063(15) -0.0078(16) 0.0004(14)
N5 0.0100(18) 0.0092(17) 0.029(2) -0.0044(15) -0.0076(15) -0.0003(14)
N6 0.0103(18) 0.0092(17) 0.032(2) -0.0022(15) -0.0070(16) -0.0006(14)
N7 0.052(3) 0.024(2) 0.021(2) 0.0047(17) -0.017(2) -0.019(2)
N8 0.031(2) 0.0163