####################################################################### 
# 
# This file contains crystal structure data downloaded from the 
# Cambridge Structural Database (CSD) hosted by the Cambridge 
# Crystallographic Data Centre (CCDC).
# 
# Full information about CCDC data access policies and citation 
# guidelines are available at http://www.ccdc.cam.ac.uk/access/V1 
# 
# Audit and citation data items may have been added by the CCDC. 
# Please retain this information to preserve the provenance of 
# this file and to allow appropriate attribution of the data. 
# 
#######################################################################

data_I
_audit_block_doi                 10.5517/ccyj4h2
_database_code_depnum_ccdc_archive 'CCDC 879454'
loop_
_citation_id
_citation_doi
_citation_year
1 10.1107/S0108270112016435 2012
_audit_update_record             
;
2012-05-01 deposited with the CCDC.	2024-07-10 downloaded from the CCDC.
;
_chemical_name_systematic        
;
<i>catena</i>-Poly[[[(oxamide
dioxime-\k^2^<i>N</i>,<i>N</i>')copper(II)]-\m-<i>L</i>-tartrato-
\k^4^<i>O</i>^1^,O^2^:<i>O</i>^3^,<i>O</i>^4^] tetrahydrate]
;

_chemical_formula_moiety         'C6 H10 Cu N4 O8, 4(H2 O)'
_chemical_formula_sum            'C6 H18 Cu N4 O12'
_chemical_formula_iupac          '[Cu (C4 H4 O6) (C2 H6 N4 O2)] , 4H2 O'
_chemical_formula_weight         401.772
_symmetry_cell_setting           tetragonal
_symmetry_space_group_name_H-M   'P 43 21 2'
_symmetry_space_group_name_Hall  'P 4nw 2abw'
loop_
_symmetry_equiv_pos_as_xyz

'x, y, z'
'-x, -y, z+1/2'
'x+1/2, -y+1/2, -z+1/4'
'-x+1/2, y+1/2, -z+3/4'
'-y, -x, -z+1/2'
'y, x, -z'
'y+1/2, -x+1/2, z+1/4'
'-y+1/2, x+1/2, z+3/4'


_cell_length_a                   14.6316(9)

_cell_length_b                   14.6316(9)

_cell_length_c                   6.6239(4)

_cell_angle_alpha                90.00

_cell_angle_beta                 90.00

_cell_angle_gamma                90.00

_cell_volume                     1418.1(2)

_cell_formula_units_Z            4

_cell_measurement_reflns_used    171

_cell_measurement_theta_min      3.7

_cell_measurement_theta_max      22.3

_cell_measurement_temperature    299

_exptl_crystal_description       block

_exptl_crystal_colour            green

_exptl_crystal_size_max          0.37

_exptl_crystal_size_mid          0.18

_exptl_crystal_size_min          0.14

_exptl_crystal_density_diffrn    1.882

_exptl_crystal_density_method    'not measured'

_exptl_crystal_F_000             828

_exptl_absorpt_coefficient_mu    1.616

_exptl_absorpt_correction_type   multi-scan

_exptl_absorpt_process_details   'SADABS (Sheldrick, 2003)'

_exptl_absorpt_correction_T_min  0.629

_exptl_absorpt_correction_T_max  0.798

_exptl_special_details           ?

_diffrn_ambient_temperature      299

_diffrn_radiation_type           MoK\a
loop_
_diffrn_radiation_wavelength

0.71073


_diffrn_radiation_source         'fine-focus sealed tube'

_diffrn_measurement_device       'Bruker Nonius KappaCCD area-detector'

_diffrn_measurement_method       \w

_diffrn_reflns_number            10357

_diffrn_reflns_av_R_equivalents  0.0385

_diffrn_reflns_av_sigmaI/netI    0.0349

_diffrn_reflns_theta_min         5.00

_diffrn_reflns_theta_max         27.49

_diffrn_reflns_theta_full        27.49

_diffrn_measured_fraction_theta_max 0.991

_diffrn_measured_fraction_theta_full 0.991

_diffrn_reflns_limit_h_min       -15

_diffrn_reflns_limit_h_max       19

_diffrn_reflns_limit_k_min       -18

_diffrn_reflns_limit_k_max       16

_diffrn_reflns_limit_l_min       -7

_diffrn_reflns_limit_l_max       8

_refine_special_details          
;
Refinement of <i>F</i>^2^ against ALL reflections. The weighted <i>R</i>-factor
<i>wR</i> and goodness of fit <i>S</i> are based on <i>F</i>^2^, conventional
<i>R</i>-factors <i>R</i> are based on <i>F</i>, with <i>F</i> set to zero for
negative <i>F</i>^2^. The threshold expression of <i>F</i>^2^ >
\s(<i>F</i>^2^) is used only for calculating <i>R</i>-factors(gt) <i>etc</i>.
and is not relevant to the choice of reflections for refinement.
<i>R</i>-factors based on <i>F</i>^2^ are statistically about twice as large
as those based on <i>F</i>, and <i>R</i>-factors based on ALL data will be
even larger.
;


_reflns_number_total             1624

_reflns_number_gt                1426

_reflns_threshold_expression     I>2\s(I)

_refine_ls_structure_factor_coef Fsqd

_refine_ls_matrix_type           full

_refine_ls_R_factor_all          0.0339

_refine_ls_R_factor_gt           0.0236

_refine_ls_wR_factor_gt          0.0497

_refine_ls_wR_factor_ref         0.0525

_refine_ls_goodness_of_fit_ref   1.020

_refine_ls_restrained_S_all      1.020

_refine_ls_number_reflns         1624

_refine_ls_number_parameters     103

_refine_ls_number_restraints     0

_refine_ls_hydrogen_treatment    constr

_refine_ls_weighting_scheme      calc

_refine_ls_weighting_details     
'calc w = 1/[\s^2^(Fo^2^)+(0.0277P)^2^+0.0841P] where P=(Fo^2^+2Fc^2^)/3'

_atom_sites_solution_primary     direct

_atom_sites_solution_secondary   difmap

_refine_ls_shift/su_max          0.000

_refine_ls_shift/su_max_lt       0.001

_refine_ls_shift/su_mean         0.000

_refine_ls_shift/su_mean_lt      0.001

_refine_diff_density_max         0.205

_refine_diff_density_min         -0.204

_refine_ls_extinction_method     none

_refine_ls_extinction_coef       ?

_refine_ls_abs_structure_details 'Flack (1983), with 644 Friedel pairs'

_refine_ls_abs_structure_Flack   0.021(13)
loop_
_atom_type_symbol
_atom_type_description
_atom_type_scat_dispersion_real
_atom_type_scat_dispersion_imag
_atom_type_scat_source

C C 0.0033 0.0016 'International Tables Vol C Tables 4.2.6.8 and 6.1.1.4'
H H 0.0000 0.0000 'International Tables Vol C Tables 4.2.6.8 and 6.1.1.4'
Cu Cu 0.3201 1.2651 'International Tables Vol C Tables 4.2.6.8 and 6.1.1.4'
N N 0.0061 0.0033 'International Tables Vol C Tables 4.2.6.8 and 6.1.1.4'
O O 0.0106 0.0060 'International Tables Vol C Tables 4.2.6.8 and 6.1.1.4'


_computing_data_collection       'COLLECT (Nonius, 1999)'

_computing_cell_refinement       'DIRAX (Duisenberg, 1992)'

_computing_data_reduction        'EvalCCD (Duisenberg <i>et al.</i>, 2003)'

_computing_structure_solution    'SHELXS97 (Sheldrick, 2008)'

_computing_structure_refinement  'SHELXL97 (Sheldrick, 2008)'

_computing_molecular_graphics    'DIAMOND (Brandenburg, 2006)'

_computing_publication_material  'publCIF (Westrip, 2010)'
loop_
_atom_site_type_symbol
_atom_site_label
_atom_site_fract_x
_atom_site_fract_y
_atom_site_fract_z
_atom_site_U_iso_or_equiv
_atom_site_adp_type
_atom_site_calc_flag
_atom_site_refinement_flags
_atom_site_occupancy
_atom_site_symmetry_multiplicity
_atom_site_disorder_assembly
_atom_site_disorder_group

Cu Cu1 0.1408 0.1408 0.0000 0.01952(10) Uani d S 1 2 . .
C C1 -0.02603(11) 0.04600(12) 0.0037(3) 0.0173(4) Uani d . 1 1 . .
C C2 0.18881(12) 0.29030(12) 0.2560(3) 0.0193(4) Uani d . 1 1 . .
C C3 0.23919(13) 0.22103(12) 0.3889(3) 0.0185(4) Uani d . 1 1 . .
N N1 0.00707(11) 0.12625(11) 0.0363(3) 0.0213(4) Uani d . 1 1 . .
N N2 -0.11351(11) 0.02580(12) -0.0238(3) 0.0261(4) Uani d . 1 1 . .
O O1 -0.05969(10) 0.19413(10) 0.0267(3) 0.0369(4) Uani d . 1 1 . .
O O2 0.14398(11) 0.26419(9) 0.1051(2) 0.0269(3) Uani d . 1 1 . .
O O3 0.19637(12) 0.37216(10) 0.3041(2) 0.0352(4) Uani d . 1 1 . .
O O4 0.21444(9) 0.13028(9) 0.3343(2) 0.0205(3) Uani d . 1 1 . .
O O5 0.37291(12) 0.04366(11) 0.3020(3) 0.0394(4) Uani d . 1 1 . .
O O6 0.14712(11) 0.47039(10) -0.0276(3) 0.0387(4) Uani d . 1 1 . .
H H3 0.3030 0.2315 0.3653 0.022 Uiso d R 1 1 . .
H H2A -0.1482 0.0701 -0.0205 0.031 Uiso d R 1 1 . .
H H2B -0.1263 -0.0272 -0.0471 0.031 Uiso d R 1 1 . .
H H1 -0.0340 0.2413 0.0999 0.044 Uiso d R 1 1 . .
H H4 0.2583 0.0999 0.3124 0.025 Uiso d R 1 1 . .
H H5A 0.3680 -0.0132 0.2643 0.047 Uiso d R 1 1 . .
H H5B 0.3978 0.0629 0.2158 0.047 Uiso d R 1 1 . .
H H6A 0.1379 0.5193 -0.0020 0.046 Uiso d R 1 1 . .
H H6B 0.1588 0.4414 0.0919 0.046 Uiso d R 1 1 . .

loop_
_atom_site_aniso_label
_atom_site_aniso_U_11
_atom_site_aniso_U_22
_atom_site_aniso_U_33
_atom_site_aniso_U_12
_atom_site_aniso_U_13
_atom_site_aniso_U_23

Cu1 0.0179(2) 0.019 0.02214(17) -0.00422(13) -0.002 0.002
C1 0.0175(9) 0.0220(9) 0.0123(9) -0.0027(7) 0.0012(8) 0.0002(9)
C2 0.0218(9) 0.0179(9) 0.0184(10) -0.0046(7) 0.0030(10) 0.0003(9)
C3 0.0163(10) 0.0160(10) 0.0230(11) -0.0045(7) -0.0026(8) 0.0010(8)
N1 0.0215(8) 0.0168(9) 0.0257(10) 0.0035(6) -0.0006(7) -0.0008(7)
N2 0.0191(9) 0.0232(9) 0.0360(12) -0.0023(6) -0.0032(8) -0.0044(8)
O1 0.0293(8) 0.0234(8) 0.0581(12) 0.0091(6) -0.0040(8) -0.0056(8)
O2 0.0307(8) 0.0193(7) 0.0306(8) -0.0020(6) -0.0132(7) 0.0012(6)
O3 0.0606(11) 0.0177(8) 0.0273(9) -0.0024(7) -0.0100(7) -0.0004(6)
O4 0.0223(7) 0.0150(7) 0.0243(7) -0.0007(5) -0.0009(6) -0.0016(6)
O5 0.0444(10) 0.0304(8) 0.0435(11) 0.0055(7) 0.0050(8) 0.0020(7)
O6 0.0453(10) 0.0268(8) 0.0439(10) -0.0009(7) -0.0007(9) 0.0094(7)


_geom_special_details            
;
All e.s.d.'s (except the e.s.d. in the dihedral angle between two l.s. planes)
are estimated using the full covariance matrix. The cell e.s.d.'s are taken
into account individually in the estimation of e.s.d.'s in distances, angles
and torsion angles; correlations between e.s.d.'s in cell parameters are only
used when they are defined by crystal symmetry. An approximate (isotropic)
treatment of cell e.s.d.'s is used for estimating e.s.d.'s involving l.s.
planes.
;

loop_
_geom_bond_atom_site_label_1
_geom_bond_atom_site_label_2
_geom_bond_site_symmetry_2
_geom_bond_distance
_geom_bond_publ_flag

Cu1 O2 6 1.9355(14) ?
Cu1 O2 . 1.9356(14) y
Cu1 N1 6 1.9829(16) ?
Cu1 N1 . 1.9829(16) y
C1 N1 . 1.288(2) ?
C1 N2 . 1.326(2) ?
C1 C1 6 1.491(3) ?
C2 O3 . 1.244(2) ?
C2 O2 . 1.255(3) ?
C2 C3 . 1.531(3) ?
C3 O4 . 1.423(2) ?
C3 C3 6_556 1.519(4) ?
N1 O1 . 1.395(2) ?
C3 H3 . 0.9587 ?
N2 H2A . 0.8230 ?
N2 H2B . 0.8126 ?
O1 H1 . 0.9237 ?
O4 H4 . 0.7939 ?
O5 H5A . 0.8711 ?
O5 H5B . 0.7327 ?
O6 H6A . 0.7473 ?
O6 H6B . 0.9147 ?

loop_
_geom_angle_atom_site_label_1
_geom_angle_atom_site_label_2
_geom_angle_atom_site_label_3
_geom_angle_site_symmetry_1
_geom_angle_site_symmetry_3
_geom_angle
_geom_angle_publ_flag

O2 Cu1 O2 6 . 94.85(9) y
O2 Cu1 N1 6 6 94.61(6) n
O2 Cu1 N1 . 6 165.16(6) y
O2 Cu1 N1 6 . 165.16(6) ?
O2 Cu1 N1 . . 94.61(6) y
N1 Cu1 N1 6 . 78.62(9) y
N1 C1 N2 . . 126.09(16) ?
N1 C1 C1 . 6 112.58(11) ?
N2 C1 C1 . 6 121.32(12) ?
O3 C2 O2 . . 122.90(19) ?
O3 C2 C3 . . 116.56(18) ?
O2 C2 C3 . . 120.53(16) ?
O4 C3 C3 . 6_556 111.41(11) ?
O4 C3 C2 . . 110.42(14) ?
C3 C3 C2 6_556 . 110.9(2) ?
C1 N1 O1 . . 112.22(15) ?
C1 N1 Cu1 . . 116.66(12) ?
O1 N1 Cu1 . . 127.53(12) ?
C2 O2 Cu1 . . 125.65(12) ?
O4 C3 H3 . . 110.8 ?
C3 C3 H3 6_556 . 107.5 ?
C2 C3 H3 . . 105.6 ?
C1 N2 H2A . . 114.6 ?
C1 N2 H2B . . 117.5 ?
H2A N2 H2B . . 127.9 ?
N1 O1 H1 . . 103.0 ?
C3 O4 H4 . . 111.4 ?
H5A O5 H5B . . 100.6 ?
H6A O6 H6B . . 106.3 ?

loop_
_geom_hbond_atom_site_label_D
_geom_hbond_atom_site_label_H
_geom_hbond_atom_site_label_A
_geom_hbond_site_symmetry_A
_geom_hbond_distance_DH
_geom_hbond_distance_HA
_geom_hbond_distance_DA
_geom_hbond_angle_DHA
_geom_hbond_publ_flag

N2 H2A O3 3_455 0.82 2.44 3.164(2) 148 y
N2 H2B O4 2_554 0.81 2.13 2.878(2) 152 y
O1 H1 O6 7_455 0.92 1.82 2.696(2) 157 y
O4 H4 O5 . 0.79 1.87 2.651(2) 168 y
O5 H5A O3 4_545 0.87 2.27 2.869(2) 126 y
O5 H5A O5 8_544 0.87 2.53 3.236(2) 138 y
O5 H5B O6 6 0.73 2.05 2.762(2) 164 y
O6 H6A O2 8_554 0.75 2.51 2.956(2) 121 y
O6 H6A O3 8_554 0.75 2.62 3.362(2) 171 y


_iucr_refine_instructions_details 
;
TITL CUTARTO
CELL 0.71073 14.6320 14.6320 6.6240 90.0000 90.0000 90.0000
ZERR 4 0.0009 0.0009 0.0004 0.0000 0.0000 0.0000
LATT -1
SYMM - X, - Y, 1/2 + Z
SYMM 1/2 + X, 1/2 - Y, 1/4 - Z
SYMM 1/2 - X, 1/2 + Y, 3/4 - Z
SYMM - Y, - X, 1/2 - Z
SYMM + Y, + X, - Z
SYMM 1/2 + Y, 1/2 - X, 1/4 + Z
SYMM 1/2 - Y, 1/2 + X, 3/4 + Z
SFAC C H Cu N O
DISP C 0.00330 0.00160
DISP H 0.00000 0.00000
DISP Cu 0.32010 1.26510
DISP N 0.00610 0.00330
DISP O 0.01060 0.00600
UNIT 24 72 4 16 48
LIST 4
ACTA
EQIV $1 x-1/2, -y+1/2, -z+1/4
EQIV $2 -x, -y, z-1/2
EQIV $3 y-1/2, -x+1/2, z+1/4
EQIV $4 -x+1/2, y-1/2, -z+3/4
EQIV $5 -y+1/2, x-1/2, z-1/4
EQIV $6 y, x, -z
EQIV $7 -y+1/2, x+1/2, z-1/4
HTAB N2 O3_$1
HTAB N2 O4_$2
HTAB O1 O6_$3
HTAB O4 O5
HTAB O5 O3_$4
HTAB O5 O5_$5
HTAB O5 O6_$6
HTAB O6 O2_$7
HTAB O6 O3_$7
BOND $H
FMAP 2
PLAN -20
L.S. 8
OMIT -3.0000 180
WGHT 0.027700 0.084100
FVAR 0.56744
CU1 3 10.140800 10.140800 10.000000 10.50000 0.01755 10.01851 =
0.02192 10.00195 -0.00195 -0.00423
C1 1 -0.026093 0.046016 0.003882 11.00000 0.01721 0.02197 =
0.01305 -0.00002 0.00049 -0.00295
C2 1 0.188737 0.290256 0.255901 11.00000 0.02176 0.01839 =
0.01824 0.00042 0.00316 -0.00490
C3 1 0.239280 0.220985 0.388776 11.00000 0.01692 0.01560 =
0.02313 0.00120 -0.00271 -0.00437
AFIX 3
H3 2 0.303080 0.231415 0.365196 11.00000 -1.20000
AFIX 0
N1 4 0.006995 0.126313 0.036444 11.00000 0.02186 0.01672 =
0.02588 -0.00079 -0.00098 0.00364
N2 4 -0.113459 0.025607 -0.023782 11.00000 0.01923 0.02402 =
0.03600 -0.00422 -0.00299 -0.00231
AFIX 3
H2A 2 -0.148129 0.069868 -0.020421 11.00000 -1.20000
H2B 2 -0.126269 -0.027393 -0.047091 11.00000 -1.20000
AFIX 0
O1 5 -0.059754 0.194159 0.026929 11.00000 0.02937 0.02348 =
0.05841 -0.00551 -0.00425 0.00901
AFIX 3
H1 2 -0.034114 0.241379 0.100119 11.00000 -1.20000
AFIX 0
O2 5 0.143982 0.264178 0.105167 11.00000 0.03087 0.01948 =
0.03069 0.00130 -0.01335 -0.00197
O3 5 0.196384 0.372191 0.304402 11.00000 0.06100 0.01784 =
0.02744 -0.00044 -0.01004 -0.00268
O4 5 0.214471 0.130288 0.334127 11.00000 0.02232 0.01560 =
0.02417 -0.00134 -0.00104 -0.00085
AFIX 3
H4 2 0.258291 0.099858 0.312287 11.00000 -1.20000
AFIX 0
O5 5 0.372873 0.043628 0.301927 11.00000 0.04443 0.03075 =
0.04400 0.00213 0.00487 0.00507
AFIX 3
H5A 2 0.367993 -0.013202 0.264267 11.00000 -1.20000
H5B 2 0.397723 0.062838 0.215787 11.00000 -1.20000
AFIX 0
O6 5 0.147125 0.470359 -0.027888 11.00000 0.04580 0.02663 =
0.04456 0.00984 -0.00046 -0.00066
AFIX 3
H6A 2 0.137935 0.519239 -0.002238 11.00000 -1.20000
H6B 2 0.158805 0.441339 0.091662 11.00000 -1.20000
MERG 4
HKLF 4

REM ?
REM R1 = 0.0222 for 878 Fo > 4sig(Fo) and 0.0304 for all 980 data
REM 103 parameters refined using 0 restraints

END

WGHT 0.0255 0.3811
REM Highest difference peak 0.219, deepest hole -0.210, 1-sigma level 0.049
Q1 1 0.1461 0.3640 0.3167 11.00000 0.05 0.22
Q2 1 0.2212 0.3567 0.2209 11.00000 0.05 0.19
Q3 1 0.0139 0.0041 0.0304 11.00000 0.05 0.19
Q4 1 0.1717 0.2767 0.0688 11.00000 0.05 0.18
Q5 1 0.2149 0.3612 0.3604 11.00000 0.05 0.18
Q6 1 0.2227 0.2227 0.5000 10.50000 0.05 0.17
Q7 1 0.1400 0.2182 0.1099 11.00000 0.05 0.16
Q8 1 0.0723 -0.0152 0.0391 11.00000 0.05 0.15
Q9 1 0.1432 0.0516 -0.0050 11.00000 0.05 0.15
Q10 1 0.2254 0.1829 0.3681 11.00000 0.05 0.14
Q11 1 -0.0197 0.1621 0.0062 11.00000 0.05 0.14
Q12 1 0.3867 0.1019 0.1048 11.00000 0.05 0.14
Q13 1 0.2439 0.1239 0.4133 11.00000 0.05 0.14
Q14 1 -0.0644 0.0371 0.0304 11.00000 0.05 0.14
Q15 1 -0.0060 0.0621 0.0744 11.00000 0.05 0.14
Q16 1 0.1452 0.2632 0.1905 11.00000 0.05 0.14
Q17 1 -0.1456 -0.0618 -0.0636 11.00000 0.05 0.13
Q18 1 -0.0357 0.0597 0.2523 11.00000 0.05 0.13
Q19 1 0.2667 0.1862 0.1037 11.00000 0.05 0.13
Q20 1 0.3253 0.1745 0.1973 11.00000 0.05 0.12
;


