####################################################################### 
# 
# This file contains crystal structure data downloaded from the 
# Cambridge Structural Database (CSD) hosted by the Cambridge 
# Crystallographic Data Centre (CCDC).
# 
# Full information about CCDC data access policies and citation 
# guidelines are available at http://www.ccdc.cam.ac.uk/access/V1 
# 
# Audit and citation data items may have been added by the CCDC. 
# Please retain this information to preserve the provenance of 
# this file and to allow appropriate attribution of the data. 
# 
#######################################################################

data_k
_audit_block_doi                 10.5517/cc6s9fp
_database_code_depnum_ccdc_archive 'CCDC 202102'
loop_
_citation_id
_citation_doi
_citation_year
1 10.1016/j.crci.2004.10.034 2005
_audit_update_record             
;
2003-01-23 deposited with the CCDC.	2024-07-10 downloaded from the CCDC.
;
#Compound 2
#[NaCr(ox)3][Cu(tren)(H2O)].3H2O (2)


_audit_creation_method           SHELXL-97
_chemical_name_systematic        
;
?
;
_chemical_name_common            ?
_chemical_melting_point          ?
_chemical_formula_moiety         ?
_chemical_formula_sum            'C12 H26 Cr Cu N4 Na O16'
_chemical_formula_weight         620.90

loop_
_atom_type_symbol
_atom_type_description
_atom_type_scat_dispersion_real
_atom_type_scat_dispersion_imag
_atom_type_scat_source
Cu Cu 0.3201 1.2651 'International Tables Vol C Tables 4.2.6.8 and 6.1.1.4'
Cr Cr 0.3209 0.6236 'International Tables Vol C Tables 4.2.6.8 and 6.1.1.4'
N N 0.0061 0.0033 'International Tables Vol C Tables 4.2.6.8 and 6.1.1.4'
C C 0.0033 0.0016 'International Tables Vol C Tables 4.2.6.8 and 6.1.1.4'
H H 0.0000 0.0000 'International Tables Vol C Tables 4.2.6.8 and 6.1.1.4'
O O 0.0106 0.0060 'International Tables Vol C Tables 4.2.6.8 and 6.1.1.4'
Na Na 0.0362 0.0249 'International Tables Vol C Tables 4.2.6.8 and 6.1.1.4'

_symmetry_cell_setting           monoclinic
_symmetry_space_group_name_H-M   P21/C

loop_
_symmetry_equiv_pos_as_xyz
'x, y, z'
'-x, y+1/2, -z+1/2'
'-x, -y, -z'
'x, -y-1/2, z-1/2'

_cell_length_a                   9.389
_cell_length_b                   17.4770(10)
_cell_length_c                   16.3760(10)
_cell_angle_alpha                90.00
_cell_angle_beta                 103.1850(10)
_cell_angle_gamma                90.00
_cell_volume                     2616.3(2)
_cell_formula_units_Z            4
_cell_measurement_temperature    100(2)
_cell_measurement_reflns_used    ?
_cell_measurement_theta_min      ?
_cell_measurement_theta_max      ?

_exptl_crystal_description       ?
_exptl_crystal_colour            ?
_exptl_crystal_size_max          ?
_exptl_crystal_size_mid          ?
_exptl_crystal_size_min          ?
_exptl_crystal_density_meas      ?
_exptl_crystal_density_diffrn    1.576
_exptl_crystal_density_method    'not measured'
_exptl_crystal_F_000             1272
_exptl_absorpt_coefficient_mu    1.319
_exptl_absorpt_correction_type   ?
_exptl_absorpt_correction_T_min  ?
_exptl_absorpt_correction_T_max  ?
_exptl_absorpt_process_details   ?

_exptl_special_details           
;
?
;

_diffrn_ambient_temperature      100(2)
_diffrn_radiation_wavelength     0.71073
_diffrn_radiation_type           MoK\a
_diffrn_radiation_source         'fine-focus sealed tube'
_diffrn_radiation_monochromator  graphite
_diffrn_measurement_device_type  ?
_diffrn_measurement_method       ?
_diffrn_detector_area_resol_mean ?
_diffrn_standards_number         ?
_diffrn_standards_interval_count ?
_diffrn_standards_interval_time  ?
_diffrn_standards_decay_%        ?
_diffrn_reflns_number            8696
_diffrn_reflns_av_R_equivalents  0.0639
_diffrn_reflns_av_sigmaI/netI    0.1572
_diffrn_reflns_limit_h_min       -11
_diffrn_reflns_limit_h_max       11
_diffrn_reflns_limit_k_min       -21
_diffrn_reflns_limit_k_max       19
_diffrn_reflns_limit_l_min       -19
_diffrn_reflns_limit_l_max       19
_diffrn_reflns_theta_min         3.28
_diffrn_reflns_theta_max         26.95
_reflns_number_total             4718
_reflns_number_gt                2115
_reflns_threshold_expression     >2sigma(I)

_computing_data_collection       ?
_computing_cell_refinement       ?
_computing_data_reduction        ?
_computing_structure_solution    ?
_computing_structure_refinement  'SHELXL-97 (Sheldrick, 1997)'
_computing_molecular_graphics    ?
_computing_publication_material  ?

_refine_special_details          
;
Refinement of F^2^ against ALL reflections. The weighted R-factor wR and
goodness of fit S are based on F^2^, conventional R-factors R are based
on F, with F set to zero for negative F^2^. The threshold expression of
F^2^ > 2sigma(F^2^) is used only for calculating R-factors(gt) etc. and is
not relevant to the choice of reflections for refinement. R-factors based
on F^2^ are statistically about twice as large as those based on F, and R-
factors based on ALL data will be even larger.
;

_refine_ls_structure_factor_coef Fsqd
_refine_ls_matrix_type           full
_refine_ls_weighting_scheme      calc
_refine_ls_weighting_details     
'calc w=1/[\s^2^(Fo^2^)+(0.1179P)^2^+0.0000P] where P=(Fo^2^+2Fc^2^)/3'
_atom_sites_solution_primary     direct
_atom_sites_solution_secondary   difmap
_atom_sites_solution_hydrogens   geom
_refine_ls_hydrogen_treatment    mixed
_refine_ls_extinction_method     none
_refine_ls_extinction_coef       ?
_refine_ls_number_reflns         4718
_refine_ls_number_parameters     316
_refine_ls_number_restraints     0
_refine_ls_R_factor_all          0.1606
_refine_ls_R_factor_gt           0.0725
_refine_ls_wR_factor_ref         0.2263
_refine_ls_wR_factor_gt          0.2042
_refine_ls_goodness_of_fit_ref   1.013
_refine_ls_restrained_S_all      1.013
_refine_ls_shift/su_max          0.002
_refine_ls_shift/su_mean         0.000

loop_
_atom_site_label
_atom_site_type_symbol
_atom_site_fract_x
_atom_site_fract_y
_atom_site_fract_z
_atom_site_U_iso_or_equiv
_atom_site_adp_type
_atom_site_occupancy
_atom_site_symmetry_multiplicity
_atom_site_calc_flag
_atom_site_refinement_flags
_atom_site_disorder_assembly
_atom_site_disorder_group
Cu1 Cu 0.22014(9) 0.29599(6) 0.03279(6) 0.0541(4) Uani 1 1 d . . .
OW1 O 0.2704(6) 0.2260(4) -0.0538(5) 0.110(3) Uani 1 1 d . . .
N1 N 0.3675(6) 0.3765(4) 0.0162(4) 0.0533(18) Uani 1 1 d . . .
H1A H 0.4564 0.3652 0.0482 0.064 Uiso 1 1 calc R . .
H1B H 0.3738 0.3772 -0.0378 0.064 Uiso 1 1 calc R . .
N2 N 0.3227(6) 0.2366(4) 0.1466(5) 0.068(2) Uani 1 1 d . . .
H2A H 0.2786 0.1913 0.1498 0.082 Uiso 1 1 calc R . .
H2B H 0.4180 0.2282 0.1485 0.082 Uiso 1 1 calc R . .
N3 N 0.1590(6) 0.3722(3) 0.1079(4) 0.0468(16) Uani 1 1 d . . .
N4 N 0.0060(7) 0.2681(5) -0.0003(5) 0.079(2) Uani 1 1 d . . .
H4A H -0.0255 0.2703 -0.0564 0.095 Uiso 1 1 calc R . .
H4B H -0.0069 0.2200 0.0163 0.095 Uiso 1 1 calc R . .
C1 C 0.3177(8) 0.4547(5) 0.0409(5) 0.071(3) Uani 1 1 d . . .
H1C H 0.4010 0.4888 0.0566 0.085 Uiso 1 1 calc R . .
H1D H 0.2484 0.4772 -0.0061 0.085 Uiso 1 1 calc R . .
C2 C 0.2469(12) 0.4437(6) 0.1139(8) 0.129(5) Uani 1 1 d . . .
H2C H 0.3225 0.4425 0.1653 0.155 Uiso 1 1 calc R . .
H2D H 0.1840 0.4871 0.1169 0.155 Uiso 1 1 calc R . .
C3 C 0.3056(8) 0.2881(5) 0.2171(6) 0.066(3) Uani 1 1 d . . .
H3A H 0.2968 0.2574 0.2650 0.079 Uiso 1 1 calc R . .
H3B H 0.3917 0.3201 0.2338 0.079 Uiso 1 1 calc R . .
C4 C 0.1826(14) 0.3340(7) 0.1927(7) 0.121(4) Uani 1 1 d . . .
H4C H 0.1872 0.3736 0.2347 0.145 Uiso 1 1 calc R . .
H4D H 0.0972 0.3029 0.1933 0.145 Uiso 1 1 calc R . .
C5 C 0.0061(9) 0.3854(6) 0.0753(9) 0.141(6) Uani 1 1 d . . .
H5A H -0.0353 0.4045 0.1205 0.170 Uiso 1 1 calc R . .
H5B H -0.0046 0.4254 0.0332 0.170 Uiso 1 1 calc R . .
C6 C -0.0776(8) 0.3210(6) 0.0388(6) 0.073(3) Uani 1 1 d . . .
H6A H -0.1616 0.3387 -0.0031 0.087 Uiso 1 1 calc R . .
H6B H -0.1135 0.2942 0.0819 0.087 Uiso 1 1 calc R . .
Cr1 Cr 0.77537(11) 0.31213(7) -0.24226(8) 0.0443(4) Uani 1 1 d . . .
Na1 Na 0.2781(2) 0.48956(17) -0.22895(18) 0.0534(9) Uani 1 1 d . . .
O1 O 0.9258(5) 0.3232(3) -0.3075(3) 0.0484(13) Uani 1 1 d . . .
O2 O 0.9085(5) 0.3812(3) -0.1625(3) 0.0474(13) Uani 1 1 d . . .
O3 O 1.1295(5) 0.3916(3) -0.3073(4) 0.0643(16) Uani 1 1 d . . .
O4 O 1.1094(5) 0.4507(3) -0.1524(3) 0.0559(15) Uani 1 1 d . . .
O5 O 0.6624(5) 0.3994(3) -0.3023(3) 0.0495(14) Uani 1 1 d . . .
O6 O 0.6279(5) 0.3185(3) -0.1744(3) 0.0489(14) Uani 1 1 d . . .
O7 O 0.4752(5) 0.4734(3) -0.2954(4) 0.0716(18) Uani 1 1 d . . .
O8 O 0.4499(5) 0.3958(3) -0.1538(3) 0.0600(15) Uani 1 1 d . . .
O9 O 0.6606(5) 0.2377(3) -0.3197(3) 0.0488(14) Uani 1 1 d . . .
O10 O 0.8686(5) 0.2207(3) -0.1847(3) 0.0527(14) Uani 1 1 d . . .
O11 O 0.6378(5) 0.1106(3) -0.3391(3) 0.0602(16) Uani 1 1 d . . .
O12 O 0.8596(6) 0.0917(3) -0.1966(4) 0.0725(18) Uani 1 1 d . . .
C7 C 1.0297(8) 0.3711(5) -0.2761(5) 0.050(2) Uani 1 1 d . . .
C8 C 1.0171(8) 0.4053(4) -0.1894(5) 0.046(2) Uani 1 1 d . . .
C9 C 0.5585(8) 0.4215(4) -0.2691(5) 0.044(2) Uani 1 1 d . . .
C10 C 0.5409(8) 0.3767(5) -0.1930(5) 0.0437(19) Uani 1 1 d . . .
C11 C 0.6927(7) 0.1690(6) -0.3005(5) 0.049(2) Uani 1 1 d . . .
C12 C 0.8202(7) 0.1563(6) -0.2200(5) 0.050(2) Uani 1 1 d . . .
OW2 O 0.1433(15) 0.4045(7) 0.4157(11) 0.311(9) Uani 1 1 d . . .
OW3 O 0.761(3) 0.1136(8) 0.0216(7) 0.370(12) Uani 1 1 d . . .
OW4 O 0.5538(7) 0.2304(5) -0.0472(5) 0.124(3) Uani 1 1 d . . .

loop_
_atom_site_aniso_label
_atom_site_aniso_U_11
_atom_site_aniso_U_22
_atom_site_aniso_U_33
_atom_site_aniso_U_23
_atom_site_aniso_U_13
_atom_site_aniso_U_12
Cu1 0.0512(6) 0.0500(8) 0.0626(8) -0.0055(5) 0.0160(5) -0.0022(5)
OW1 0.092(4) 0.120(6) 0.133(6) -0.078(5) 0.053(4) -0.026(4)
N1 0.053(3) 0.061(5) 0.047(4) 0.005(4) 0.014(3) 0.002(3)
N2 0.043(4) 0.069(5) 0.090(6) 0.026(5) 0.011(4) 0.010(3)
N3 0.051(4) 0.039(4) 0.049(4) -0.001(3) 0.007(3) -0.010(3)
N4 0.065(4) 0.084(6) 0.083(6) -0.029(5) 0.005(4) -0.018(4)
C1 0.064(5) 0.082(8) 0.060(6) 0.014(6) -0.002(5) -0.003(5)
C2 0.155(10) 0.055(8) 0.217(15) -0.037(9) 0.128(10) -0.029(7)
C3 0.050(5) 0.071(7) 0.069(7) 0.019(6) 0.000(4) -0.004(5)
C4 0.175(11) 0.120(11) 0.065(8) -0.021(7) 0.021(8) 0.050(9)
C5 0.043(5) 0.080(9) 0.280(18) -0.075(10) -0.009(8) 0.014(5)
C6 0.036(4) 0.116(9) 0.061(6) 0.015(6) 0.003(4) 0.004(5)
Cr1 0.0378(6) 0.0372(8) 0.0589(9) -0.0036(6) 0.0135(6) -0.0009(5)
Na1 0.0427(15) 0.047(2) 0.071(2) 0.0065(16) 0.0145(14) 0.0019(14)
O1 0.050(3) 0.042(3) 0.056(3) -0.021(3) 0.017(3) -0.003(3)
O2 0.048(3) 0.047(4) 0.053(3) -0.007(3) 0.024(3) -0.003(3)
O3 0.046(3) 0.075(4) 0.081(4) -0.008(3) 0.033(3) -0.005(3)
O4 0.057(3) 0.045(4) 0.067(4) -0.018(3) 0.018(3) -0.017(3)
O5 0.053(3) 0.045(4) 0.053(3) 0.009(3) 0.016(3) 0.007(3)
O6 0.050(3) 0.046(4) 0.054(4) 0.015(3) 0.020(3) 0.005(3)
O7 0.065(3) 0.064(4) 0.092(5) 0.035(4) 0.031(3) 0.034(3)
O8 0.056(3) 0.065(4) 0.067(4) 0.014(3) 0.030(3) 0.015(3)
O9 0.046(3) 0.030(3) 0.068(4) 0.003(3) 0.007(3) 0.009(3)
O10 0.045(3) 0.042(4) 0.066(4) -0.003(3) 0.000(3) 0.008(3)
O11 0.055(3) 0.042(4) 0.075(4) -0.013(3) -0.004(3) -0.006(3)
O12 0.072(4) 0.027(4) 0.099(5) 0.009(3) -0.020(3) 0.003(3)
C7 0.049(5) 0.053(6) 0.049(6) -0.010(5) 0.012(4) 0.008(4)
C8 0.039(4) 0.035(5) 0.066(6) -0.010(4) 0.017(4) 0.005(4)
C9 0.042(4) 0.028(5) 0.064(6) -0.006(4) 0.015(4) -0.004(4)
C10 0.037(4) 0.045(6) 0.051(5) 0.003(4) 0.014(4) -0.005(4)
C11 0.030(4) 0.073(7) 0.045(5) -0.012(5) 0.008(4) -0.013(4)
C12 0.035(4) 0.060(7) 0.054(6) -0.010(5) 0.007(4) 0.004(4)
OW2 0.285(14) 0.141(10) 0.39(2) -0.046(12) -0.174(13) 0.083(10)
OW3 0.73(4) 0.183(12) 0.115(10) -0.012(8) -0.064(14) 0.049(17)
OW4 0.102(5) 0.129(7) 0.146(7) 0.051(6) 0.043(5) 0.012(5)

_geom_special_details            
;
All esds (except the esd in the dihedral angle between two l.s. planes)
are estimated using the full covariance matrix. The cell esds are taken
into account individually in the estimation of esds in distances, angles
and torsion angles; correlations between esds in cell parameters are only
used when they are defined by crystal symmetry. An approximate (isotropic)
treatment of cell esds is used for estimating esds involving l.s. planes.
;

loop_
_geom_bond_atom_site_label_1
_geom_bond_atom_site_label_2
_geom_bond_distance
_geom_bond_site_symmetry_2
_geom_bond_publ_flag
Cu1 N3 1.985(6) . ?
Cu1 OW1 2.009(6) . ?
Cu1 N4 2.019(6) . ?
Cu1 N1 2.034(6) . ?
Cu1 N2 2.159(6) . ?
N1 C1 1.529(10) . ?
N1 H1A 0.9000 . ?
N1 H1B 0.9000 . ?
N2 C3 1.502(10) . ?
N2 H2A 0.9000 . ?
N2 H2B 0.9000 . ?
N3 C5 1.431(9) . ?
N3 C2 1.488(10) . ?
N3 C4 1.512(12) . ?
N4 C6 1.451(10) . ?
N4 H4A 0.9000 . ?
N4 H4B 0.9000 . ?
C1 C2 1.507(12) . ?
C1 H1C 0.9700 . ?
C1 H1D 0.9700 . ?
C2 H2C 0.9700 . ?
C2 H2D 0.9700 . ?
C3 C4 1.387(12) . ?
C3 H3A 0.9700 . ?
C3 H3B 0.9700 . ?
C4 H4C 0.9700 . ?
C4 H4D 0.9700 . ?
C5 C6 1.424(12) . ?
C5 H5A 0.9700 . ?
C5 H5B 0.9700 . ?
C6 H6A 0.9700 . ?
C6 H6B 0.9700 . ?
Cr1 O10 1.957(5) . ?
Cr1 O9 1.959(5) . ?
Cr1 O1 1.965(5) . ?
Cr1 O6 1.967(4) . ?
Cr1 O5 1.985(5) . ?
Cr1 O2 1.995(5) . ?
Na1 O4 2.333(5) 1_455 ?
Na1 O7 2.369(6) . ?
Na1 O12 2.371(6) 2_654 ?
Na1 O3 2.388(6) 1_455 ?
Na1 O8 2.428(5) . ?
Na1 O11 2.437(6) 2_654 ?
Na1 C8 3.052(8) 1_455 ?
Na1 C7 3.082(9) 1_455 ?
Na1 C9 3.094(8) . ?
Na1 C10 3.109(8) . ?
Na1 C12 3.112(10) 2_654 ?
O1 C7 1.299(8) . ?
O2 C8 1.271(8) . ?
O3 C7 1.219(8) . ?
O3 Na1 2.388(6) 1_655 ?
O4 C8 1.228(8) . ?
O4 Na1 2.333(5) 1_655 ?
O5 C9 1.280(8) . ?
O6 C10 1.296(8) . ?
O7 C9 1.211(8) . ?
O8 C10 1.227(8) . ?
O9 C11 1.260(10) . ?
O10 C12 1.300(9) . ?
O11 C11 1.249(9) . ?
O11 Na1 2.437(6) 2_644 ?
O12 C12 1.222(9) . ?
O12 Na1 2.371(6) 2_644 ?
C7 C8 1.569(10) . ?
C7 Na1 3.082(9) 1_655 ?
C8 Na1 3.052(8) 1_655 ?
C9 C10 1.513(10) . ?
C11 C12 1.581(11) . ?
C12 Na1 3.112(10) 2_644 ?

loop_
_geom_angle_atom_site_label_1
_geom_angle_atom_site_label_2
_geom_angle_atom_site_label_3
_geom_angle
_geom_angle_site_symmetry_1
_geom_angle_site_symmetry_3
_geom_angle_publ_flag
N3 Cu1 OW1 173.6(3) . . ?
N3 Cu1 N4 85.2(3) . . ?
OW1 Cu1 N4 92.5(3) . . ?
N3 Cu1 N1 85.4(2) . . ?
OW1 Cu1 N1 92.9(3) . . ?
N4 Cu1 N1 142.8(3) . . ?
N3 Cu1 N2 85.6(3) . . ?
OW1 Cu1 N2 100.7(3) . . ?
N4 Cu1 N2 109.7(3) . . ?
N1 Cu1 N2 105.4(3) . . ?
C1 N1 Cu1 109.0(4) . . ?
C1 N1 H1A 109.9 . . ?
Cu1 N1 H1A 109.9 . . ?
C1 N1 H1B 109.9 . . ?
Cu1 N1 H1B 109.9 . . ?
H1A N1 H1B 108.3 . . ?
C3 N2 Cu1 105.7(5) . . ?
C3 N2 H2A 110.6 . . ?
Cu1 N2 H2A 110.6 . . ?
C3 N2 H2B 110.6 . . ?
Cu1 N2 H2B 110.6 . . ?
H2A N2 H2B 108.7 . . ?
C5 N3 C2 112.6(8) . . ?
C5 N3 C4 109.7(9) . . ?
C2 N3 C4 110.3(8) . . ?
C5 N3 Cu1 106.5(6) . . ?
C2 N3 Cu1 111.7(5) . . ?
C4 N3 Cu1 105.6(5) . . ?
C6 N4 Cu1 109.5(5) . . ?
C6 N4 H4A 109.8 . . ?
Cu1 N4 H4A 109.8 . . ?
C6 N4 H4B 109.8 . . ?
Cu1 N4 H4B 109.8 . . ?
H4A N4 H4B 108.2 . . ?
C2 C1 N1 108.1(7) . . ?
C2 C1 H1C 110.1 . . ?
N1 C1 H1C 110.1 . . ?
C2 C1 H1D 110.1 . . ?
N1 C1 H1D 110.1 . . ?
H1C C1 H1D 108.4 . . ?
N3 C2 C1 113.2(8) . . ?
N3 C2 H2C 108.9 . . ?
C1 C2 H2C 108.9 . . ?
N3 C2 H2D 108.9 . . ?
C1 C2 H2D 108.9 . . ?
H2C C2 H2D 107.8 . . ?
C4 C3 N2 110.7(7) . . ?
C4 C3 H3A 109.5 . . ?
N2 C3 H3A 109.5 . . ?
C4 C3 H3B 109.5 . . ?
N2 C3 H3B 109.5 . . ?
H3A C3 H3B 108.1 . . ?
C3 C4 N3 117.2(8) . . ?
C3 C4 H4C 108.0 . . ?
N3 C4 H4C 108.0 . . ?
C3 C4 H4D 108.0 . . ?
N3 C4 H4D 108.0 . . ?
H4C C4 H4D 107.2 . . ?
C6 C5 N3 116.1(8) . . ?
C6 C5 H5A 108.3 . . ?
N3 C5 H5A 108.3 . . ?
C6 C5 H5B 108.3 . . ?
N3 C5 H5B 108.3 . . ?
H5A C5 H5B 107.4 . . ?
C5 C6 N4 112.7(7) . . ?
C5 C6 H6A 109.0 . . ?
N4 C6 H6A 109.0 . . ?
C5 C6 H6B 109.0 . . ?
N4 C6 H6B 109.0 . . ?
H6A C6 H6B 107.8 . . ?
O10 Cr1 O9 83.6(2) . . ?
O10 Cr1 O1 92.6(2) . . ?
O9 Cr1 O1 94.1(2) . . ?
O10 Cr1 O6 94.0(2) . . ?
O9 Cr1 O6 92.8(2) . . ?
O1 Cr1 O6 171.0(2) . . ?
O10 Cr1 O5 174.4(2) . . ?
O9 Cr1 O5 92.1(2) . . ?
O1 Cr1 O5 91.4(2) . . ?
O6 Cr1 O5 82.6(2) . . ?
O10 Cr1 O2 92.0(2) . . ?
O9 Cr1 O2 174.5(2) . . ?
O1 Cr1 O2 82.84(19) . . ?
O6 Cr1 O2 90.7(2) . . ?
O5 Cr1 O2 92.5(2) . . ?
O4 Na1 O7 155.4(2) 1_455 . ?
O4 Na1 O12 98.0(2) 1_455 2_654 ?
O7 Na1 O12 104.2(2) . 2_654 ?
O4 Na1 O3 72.26(19) 1_455 1_455 ?
O7 Na1 O3 95.1(2) . 1_455 ?
O12 Na1 O3 94.6(2) 2_654 1_455 ?
O4 Na1 O8 89.2(2) 1_455 . ?
O7 Na1 O8 69.75(18) . . ?
O12 Na1 O8 171.7(2) 2_654 . ?
O3 Na1 O8 91.6(2) 1_455 . ?
O4 Na1 O11 101.3(2) 1_455 2_654 ?
O7 Na1 O11 96.2(2) . 2_654 ?
O12 Na1 O11 70.4(2) 2_654 2_654 ?
O3 Na1 O11 163.0(2) 1_455 2_654 ?
O8 Na1 O11 104.2(2) . 2_654 ?
O4 Na1 C8 21.51(18) 1_455 1_455 ?
O7 Na1 C8 142.1(2) . 1_455 ?
O12 Na1 C8 95.9(2) 2_654 1_455 ?
O3 Na1 C8 50.9(2) 1_455 1_455 ?
O8 Na1 C8 92.28(19) . 1_455 ?
O11 Na1 C8 120.9(2) 2_654 1_455 ?
O4 Na1 C7 51.07(19) 1_455 1_455 ?
O7 Na1 C7 115.5(2) . 1_455 ?
O12 Na1 C7 94.8(2) 2_654 1_455 ?
O3 Na1 C7 21.29(17) 1_455 1_455 ?
O8 Na1 C7 92.94(19) . 1_455 ?
O11 Na1 C7 147.71(19) 2_654 1_455 ?
C8 Na1 C7 29.6(2) 1_455 1_455 ?
O4 Na1 C9 135.8(2) 1_455 . ?
O7 Na1 C9 20.64(18) . . ?
O12 Na1 C9 124.8(2) 2_654 . ?
O3 Na1 C9 91.8(2) 1_455 . ?
O8 Na1 C9 49.38(19) . . ?
O11 Na1 C9 103.18(19) 2_654 . ?
C8 Na1 C9 128.5(2) 1_455 . ?
C7 Na1 C9 108.7(2) 1_455 . ?
O4 Na1 C10 108.7(2) 1_455 . ?
O7 Na1 C10 48.81(19) . . ?
O12 Na1 C10 153.0(2) 2_654 . ?
O3 Na1 C10 89.31(19) 1_455 . ?
O8 Na1 C10 21.40(17) . . ?
O11 Na1 C10 107.69(19) 2_654 . ?
C8 Na1 C10 107.1(2) 1_455 . ?
C7 Na1 C10 98.3(2) 1_455 . ?
C9 Na1 C10 28.23(19) . . ?
O4 Na1 C12 102.8(2) 1_455 2_654 ?
O7 Na1 C12 101.7(2) . 2_654 ?
O12 Na1 C12 20.61(17) 2_654 2_654 ?
O3 Na1 C12 115.2(2) 1_455 2_654 ?
O8 Na1 C12 152.8(2) . 2_654 ?
O11 Na1 C12 49.9(2) 2_654 2_654 ?
C8 Na1 C12 107.80(19) 1_455 2_654 ?
C7 Na1 C12 113.6(2) 1_455 2_654 ?
C9 Na1 C12 121.1(2) . 2_654 ?
C10 Na1 C12 145.0(2) . 2_654 ?
C7 O1 Cr1 114.6(5) . . ?
C8 O2 Cr1 114.0(5) . . ?
C7 O3 Na1 113.4(5) . 1_655 ?
C8 O4 Na1 114.3(5) . 1_655 ?
C9 O5 Cr1 113.3(5) . . ?
C10 O6 Cr1 113.5(4) . . ?
C9 O7 Na1 115.8(5) . . ?
C10 O8 Na1 112.4(5) . . ?
C11 O9 Cr1 114.0(5) . . ?
C12 O10 Cr1 114.9(5) . . ?
C11 O11 Na1 115.1(5) . 2_644 ?
C12 O12 Na1 116.3(5) . 2_644 ?
O3 C7 O1 127.1(7) . . ?
O