####################################################################### 
# 
# This file contains crystal structure data downloaded from the 
# Cambridge Structural Database (CSD) hosted by the Cambridge 
# Crystallographic Data Centre (CCDC).
# 
# Full information about CCDC data access policies and citation 
# guidelines are available at http://www.ccdc.cam.ac.uk/access/V1 
# 
# Audit and citation data items may have been added by the CCDC. 
# Please retain this information to preserve the provenance of 
# this file and to allow appropriate attribution of the data. 
# 
#######################################################################

data_b
_audit_block_doi                 10.5517/cc88cd8
_database_code_depnum_ccdc_archive 'CCDC 246369'
loop_
_citation_id
_citation_doi
_citation_year
1 10.1016/j.jssc.2005.10.015 2006
_audit_update_record             
;
2004-07-30 deposited with the CCDC.	2024-07-10 downloaded from the CCDC.
;

_audit_creation_method           SHELXL-97
_chemical_name_systematic        
;
?
;
_chemical_name_common            ?
_chemical_melting_point          ?
_chemical_formula_moiety         ?
_chemical_formula_sum            'C14 H44 Cu4 N4 O25 P4'
_chemical_formula_weight         1046.57

loop_
_atom_type_symbol
_atom_type_description
_atom_type_scat_dispersion_real
_atom_type_scat_dispersion_imag
_atom_type_scat_source
C C 0.0033 0.0016 'International Tables Vol C Tables 4.2.6.8 and 6.1.1.4'
H H 0.0000 0.0000 'International Tables Vol C Tables 4.2.6.8 and 6.1.1.4'
N N 0.0061 0.0033 'International Tables Vol C Tables 4.2.6.8 and 6.1.1.4'
O O 0.0106 0.0060 'International Tables Vol C Tables 4.2.6.8 and 6.1.1.4'
P P 0.1023 0.0942 'International Tables Vol C Tables 4.2.6.8 and 6.1.1.4'
Cu Cu 0.3201 1.2651 'International Tables Vol C Tables 4.2.6.8 and 6.1.1.4'

_symmetry_cell_setting           Orthorhombic
_symmetry_space_group_name_H-M   Fdd2

loop_
_symmetry_equiv_pos_as_xyz
'x, y, z'
'-x, -y, z'
'x+1/4, -y+1/4, z+1/4'
'-x+1/4, y+1/4, z+1/4'
'x, y+1/2, z+1/2'
'-x, -y+1/2, z+1/2'
'x+1/4, -y+3/4, z+3/4'
'-x+1/4, y+3/4, z+3/4'
'x+1/2, y, z+1/2'
'-x+1/2, -y, z+1/2'
'x+3/4, -y+1/4, z+3/4'
'-x+3/4, y+1/4, z+3/4'
'x+1/2, y+1/2, z'
'-x+1/2, -y+1/2, z'
'x+3/4, -y+3/4, z+1/4'
'-x+3/4, y+3/4, z+1/4'

_cell_length_a                   15.4398(8)
_cell_length_b                   52.022(3)
_cell_length_c                   11.2107(7)
_cell_angle_alpha                90.00
_cell_angle_beta                 90.00
_cell_angle_gamma                90.00
_cell_volume                     9004.5(9)
_cell_formula_units_Z            8
_cell_measurement_temperature    293(2)
_cell_measurement_reflns_used    155
_cell_measurement_theta_min      2.98
_cell_measurement_theta_max      25.03

_exptl_crystal_description       prism
_exptl_crystal_colour            blue
_exptl_crystal_size_max          0.62
_exptl_crystal_size_mid          0.22
_exptl_crystal_size_min          0.04
_exptl_crystal_density_meas      ?
_exptl_crystal_density_diffrn    1.544
_exptl_crystal_density_method    'not measured'
_exptl_crystal_F_000             4256
_exptl_absorpt_coefficient_mu    2.082
_exptl_absorpt_correction_type   SADABS
_exptl_absorpt_correction_T_min  0.737
_exptl_absorpt_correction_T_max  1.0
_exptl_absorpt_process_details   'SADABS (Sheldrick, 1996)'

_exptl_special_details           
;
?
;

_diffrn_ambient_temperature      293(2)
_diffrn_radiation_wavelength     0.71073
_diffrn_radiation_type           MoK\a
_diffrn_radiation_source         'fine-focus sealed tube'
_diffrn_radiation_monochromator  graphite
_diffrn_measurement_device_type  'Siemens Smart CCD'
_diffrn_measurement_method       'narrow frame method'
_diffrn_detector_area_resol_mean ?
_diffrn_standards_number         ?
_diffrn_standards_interval_count ?
_diffrn_standards_interval_time  ?
_diffrn_standards_decay_%        <1.0%
_diffrn_reflns_number            5459
_diffrn_reflns_av_R_equivalents  0.0501
_diffrn_reflns_av_sigmaI/netI    0.0732
_diffrn_reflns_limit_h_min       -9
_diffrn_reflns_limit_h_max       18
_diffrn_reflns_limit_k_min       -60
_diffrn_reflns_limit_k_max       43
_diffrn_reflns_limit_l_min       -13
_diffrn_reflns_limit_l_max       13
_diffrn_reflns_theta_min         2.98
_diffrn_reflns_theta_max         25.03
_reflns_number_total             3449
_reflns_number_gt                2783
_reflns_threshold_expression     >2sigma(I)

_computing_data_collection       'Siemens SMART'
_computing_cell_refinement       'Siemens SMART & SAINT'
_computing_data_reduction        'Siemens XPREP'
_computing_structure_solution    'SHELXS-97 (Sheldrick, 1990)'
_computing_structure_refinement  'SHELXL-97 (Sheldrick, 1997)'
_computing_molecular_graphics    'Bruker SHELXTL'
_computing_publication_material  'Bruker SHELXTL'

_refine_special_details          
;
Refinement of F^2^ against ALL reflections. The weighted R-factor wR and
goodness of fit S are based on F^2^, conventional R-factors R are based
on F, with F set to zero for negative F^2^. The threshold expression of
F^2^ > 2sigma(F^2^) is used only for calculating R-factors(gt) etc. and is
not relevant to the choice of reflections for refinement. R-factors based
on F^2^ are statistically about twice as large as those based on F, and R-
factors based on ALL data will be even larger.
;

_refine_ls_structure_factor_coef Fsqd
_refine_ls_matrix_type           full
_refine_ls_weighting_scheme      calc
_refine_ls_weighting_details     
'calc w=1/[\s^2^(Fo^2^)+(0.0638P)^2^+144.6328P] where P=(Fo^2^+2Fc^2^)/3'
_atom_sites_solution_primary     direct
_atom_sites_solution_secondary   difmap
_atom_sites_solution_hydrogens   geom
_refine_ls_hydrogen_treatment    mixed
_refine_ls_extinction_method     none
_refine_ls_extinction_coef       ?
_refine_ls_abs_structure_details 'Flack H D (1983), Acta Cryst. A39, 876-881'
_refine_ls_abs_structure_Flack   0.00
_refine_ls_number_reflns         3449
_refine_ls_number_parameters     228
_refine_ls_number_restraints     1
_refine_ls_R_factor_all          0.0858
_refine_ls_R_factor_gt           0.0625
_refine_ls_wR_factor_ref         0.1551
_refine_ls_wR_factor_gt          0.1403
_refine_ls_goodness_of_fit_ref   1.117
_refine_ls_restrained_S_all      1.117
_refine_ls_shift/su_max          0.003
_refine_ls_shift/su_mean         0.000

loop_
_atom_site_label
_atom_site_type_symbol
_atom_site_fract_x
_atom_site_fract_y
_atom_site_fract_z
_atom_site_U_iso_or_equiv
_atom_site_adp_type
_atom_site_occupancy
_atom_site_symmetry_multiplicity
_atom_site_calc_flag
_atom_site_refinement_flags
_atom_site_disorder_assembly
_atom_site_disorder_group
Cu1 Cu 0.03164(8) 0.10597(2) 0.49556(13) 0.0218(3) Uani 1 1 d . . .
Cu2 Cu 0.08015(7) 0.13363(2) 0.00077(12) 0.0223(3) Uani 1 1 d . . .
P1 P 0.00783(17) 0.13471(5) 0.2642(3) 0.0194(6) Uani 1 1 d . . .
P2 P 0.02945(16) 0.13265(5) 0.7289(3) 0.0183(7) Uani 1 1 d . . .
N1 N 0.0052(4) 0.14409(13) 0.5012(9) 0.0177(17) Uani 1 1 d . . .
H0A H -0.0533 0.1458 0.5084 0.021 Uiso 1 1 calc R . .
N2 N 0.0230(5) 0.06766(14) 0.4946(11) 0.0270(18) Uani 1 1 d . . .
C1 C 0.0316(8) 0.1567(3) 0.3857(10) 0.029(3) Uani 1 1 d . . .
H1A H 0.0930 0.1606 0.3871 0.034 Uiso 1 1 calc R . .
H1B H -0.0001 0.1726 0.3749 0.034 Uiso 1 1 calc R . .
C2 C 0.0448(7) 0.1553(2) 0.6084(9) 0.019(2) Uani 1 1 d . . .
H2A H 0.0173 0.1716 0.6275 0.023 Uiso 1 1 calc R . .
H2B H 0.1060 0.1584 0.5953 0.023 Uiso 1 1 calc R . .
C3 C 0.0878(8) 0.0524(2) 0.4629(12) 0.044(4) Uani 1 1 d . . .
H3A H 0.1406 0.0597 0.4420 0.052 Uiso 1 1 calc R . .
C4 C 0.0797(8) 0.0259(2) 0.4600(12) 0.047(4) Uani 1 1 d . . .
H4A H 0.1251 0.0158 0.4321 0.056 Uiso 1 1 calc R . .
C5 C 0.0047(7) 0.01456(18) 0.4982(15) 0.037(3) Uani 1 1 d . . .
C6 C -0.0612(8) 0.0303(2) 0.5340(12) 0.042(4) Uani 1 1 d . . .
H6A H -0.1131 0.0232 0.5602 0.051 Uiso 1 1 calc R . .
C7 C -0.0515(7) 0.0564(2) 0.5314(11) 0.039(3) Uani 1 1 d . . .
H7A H -0.0973 0.0667 0.5557 0.047 Uiso 1 1 calc R . .
O11 O -0.0776(5) 0.14131(15) 0.2078(6) 0.0252(18) Uani 1 1 d . . .
O12 O 0.0089(5) 0.10815(15) 0.3239(7) 0.027(2) Uani 1 1 d . . .
O13 O 0.0816(5) 0.13823(16) 0.1750(7) 0.025(2) Uani 1 1 d . . .
O21 O -0.0643(5) 0.13539(15) 0.7722(7) 0.029(2) Uani 1 1 d . . .
O22 O 0.0941(5) 0.13837(16) 0.8285(7) 0.025(2) Uani 1 1 d . . .
O23 O 0.0463(5) 0.10661(14) 0.6711(7) 0.025(2) Uani 1 1 d . . .
O1W O -0.0012(5) 0.09598(15) -0.0148(9) 0.040(2) Uani 1 1 d . . .
O2W O -0.0300(4) 0.15389(12) -0.0064(9) 0.0257(14) Uani 1 1 d . . .
O3W O 0.0696(13) 0.0633(3) -0.1941(12) 0.133(7) Uani 1 1 d . . .
O4W O 0.0136(11) 0.0646(2) 0.1841(10) 0.111(6) Uani 1 1 d . . .
O5W O -0.129(2) 0.0266(6) 0.202(3) 0.135(11) Uiso 0.50 1 d P . .
O6W O 0.271(3) 0.0440(9) 0.227(5) 0.202(18) Uiso 0.50 1 d P . .
O6W' O 0.157(4) 0.0300(11) 0.145(5) 0.23(2) Uiso 0.50 1 d P . .
O7W O -0.038(3) 0.0195(10) -0.137(4) 0.192(17) Uiso 0.50 1 d P . .
O8W O 0.217(5) 0.0252(16) -0.162(7) 0.33(4) Uiso 0.50 1 d P . .

loop_
_atom_site_aniso_label
_atom_site_aniso_U_11
_atom_site_aniso_U_22
_atom_site_aniso_U_33
_atom_site_aniso_U_23
_atom_site_aniso_U_13
_atom_site_aniso_U_12
Cu1 0.0300(6) 0.0198(6) 0.0156(6) 0.0002(7) -0.0008(7) -0.0015(5)
Cu2 0.0181(6) 0.0351(7) 0.0137(6) 0.0008(7) -0.0007(6) 0.0022(5)
P1 0.0184(12) 0.0249(15) 0.0148(17) -0.0005(13) -0.0011(12) 0.0027(10)
P2 0.0173(12) 0.0259(15) 0.0117(16) 0.0011(12) 0.0015(11) -0.0014(10)
N1 0.011(4) 0.031(4) 0.012(4) -0.002(5) 0.003(5) -0.005(3)
N2 0.033(4) 0.025(4) 0.024(4) 0.004(6) -0.014(5) -0.008(4)
C1 0.039(7) 0.037(8) 0.011(6) 0.002(5) -0.005(5) -0.010(5)
C2 0.024(5) 0.016(6) 0.017(6) -0.001(4) 0.001(5) 0.000(5)
C3 0.039(7) 0.029(7) 0.063(10) -0.008(6) 0.013(6) -0.002(5)
C4 0.044(7) 0.038(7) 0.058(10) -0.007(6) 0.021(7) -0.002(6)
C5 0.038(6) 0.021(5) 0.052(7) 0.004(7) -0.017(8) -0.008(4)
C6 0.037(7) 0.019(6) 0.071(11) 0.010(6) 0.000(6) -0.008(5)
C7 0.041(7) 0.024(6) 0.051(9) 0.008(5) -0.001(6) 0.002(5)
O11 0.024(4) 0.027(4) 0.024(4) 0.002(3) 0.003(3) 0.002(3)
O12 0.030(4) 0.032(5) 0.019(4) -0.005(4) -0.002(4) 0.001(3)
O13 0.019(4) 0.040(5) 0.015(4) -0.002(4) -0.004(3) 0.002(3)
O21 0.018(3) 0.051(5) 0.017(5) -0.005(4) -0.004(3) -0.005(3)
O22 0.025(4) 0.040(5) 0.010(4) 0.002(4) -0.004(3) -0.010(4)
O23 0.036(5) 0.023(5) 0.016(5) 0.005(3) -0.003(4) -0.001(3)
O1W 0.036(4) 0.046(5) 0.038(5) 0.006(5) 0.005(5) 0.001(3)
O2W 0.021(3) 0.037(4) 0.019(3) 0.001(5) -0.005(4) 0.004(3)
O3W 0.27(2) 0.071(10) 0.063(9) 0.019(7) -0.003(11) 0.051(11)
O4W 0.221(18) 0.062(9) 0.049(8) -0.008(6) -0.035(9) 0.016(10)

_geom_special_details            
;
All esds (except the esd in the dihedral angle between two l.s. planes)
are estimated using the full covariance matrix. The cell esds are taken
into account individually in the estimation of esds in distances, angles
and torsion angles; correlations between esds in cell parameters are only
used when they are defined by crystal symmetry. An approximate (isotropic)
treatment of cell esds is used for estimating esds involving l.s. planes.
;

loop_
_geom_bond_atom_site_label_1
_geom_bond_atom_site_label_2
_geom_bond_distance
_geom_bond_site_symmetry_2
_geom_bond_publ_flag
Cu1 O12 1.960(8) . ?
Cu1 O23 1.981(8) . ?
Cu1 N2 1.998(7) . ?
Cu1 N1 2.026(7) . ?
Cu1 O11 2.219(8) 3 ?
Cu2 O21 1.921(7) 3_554 ?
Cu2 O22 1.959(8) 1_554 ?
Cu2 O13 1.968(8) . ?
Cu2 O2W 2.002(6) . ?
Cu2 O1W 2.334(8) . ?
P1 O11 1.503(8) . ?
P1 O13 1.527(8) . ?
P1 O12 1.535(8) . ?
P1 C1 1.816(12) . ?
P2 O23 1.524(8) . ?
P2 O22 1.527(8) . ?
P2 O21 1.534(8) . ?
P2 C2 1.809(11) . ?
N1 C2 1.469(14) . ?
N1 C1 1.508(14) . ?
N2 C3 1.326(14) . ?
N2 C7 1.355(13) . ?
C3 C4 1.386(16) . ?
C4 C5 1.367(16) . ?
C5 C6 1.367(16) . ?
C5 C5 1.521(19) 2 ?
C6 C7 1.365(15) . ?
O11 Cu1 2.219(8) 11_454 ?
O21 Cu2 1.921(7) 11_455 ?
O22 Cu2 1.959(8) 1_556 ?
O1W O4W 2.774(15) . ?
O1W O3W 2.852(17) . ?
O2W O6W 2.83(4) 11_454 ?
O3W O7W 2.89(5) . ?
O3W O8W 3.04(8) . ?
O4W O6W' 2.89(6) . ?
O4W O5W 2.97(4) . ?
O5W O8W 2.83(8) 9_455 ?

loop_
_geom_angle_atom_site_label_1
_geom_angle_atom_site_label_2
_geom_angle_atom_site_label_3
_geom_angle
_geom_angle_site_symmetry_1
_geom_angle_site_symmetry_3
_geom_angle_publ_flag
O12 Cu1 O23 174.3(3) . . ?
O12 Cu1 N2 92.3(4) . . ?
O23 Cu1 N2 91.7(4) . . ?
O12 Cu1 N1 86.4(4) . . ?
O23 Cu1 N1 88.6(4) . . ?
N2 Cu1 N1 164.5(3) . . ?
O12 Cu1 O11 89.1(3) . 3 ?
O23 Cu1 O11 94.4(3) . 3 ?
N2 Cu1 O11 97.3(3) . 3 ?
N1 Cu1 O11 98.1(3) . 3 ?
O21 Cu2 O22 95.5(3) 3_554 1_554 ?
O21 Cu2 O13 85.9(3) 3_554 . ?
O22 Cu2 O13 164.2(3) 1_554 . ?
O21 Cu2 O2W 175.1(4) 3_554 . ?
O22 Cu2 O2W 89.3(4) 1_554 . ?
O13 Cu2 O2W 89.2(3) . . ?
O21 Cu2 O1W 91.9(3) 3_554 . ?
O22 Cu2 O1W 95.2(3) 1_554 . ?
O13 Cu2 O1W 100.5(3) . . ?
O2W Cu2 O1W 88.9(3) . . ?
O11 P1 O13 110.6(4) . . ?
O11 P1 O12 113.5(4) . . ?
O13 P1 O12 112.7(4) . . ?
O11 P1 C1 110.4(5) . . ?
O13 P1 C1 105.4(5) . . ?
O12 P1 C1 103.8(5) . . ?
O23 P2 O22 111.9(5) . . ?
O23 P2 O21 112.3(4) . . ?
O22 P2 O21 111.5(4) . . ?
O23 P2 C2 103.9(5) . . ?
O22 P2 C2 109.5(5) . . ?
O21 P2 C2 107.4(5) . . ?
C2 N1 C1 114.6(7) . . ?
C2 N1 Cu1 109.3(7) . . ?
C1 N1 Cu1 110.1(7) . . ?
C3 N2 C7 117.6(9) . . ?
C3 N2 Cu1 123.3(7) . . ?
C7 N2 Cu1 119.1(7) . . ?
N1 C1 P1 108.4(8) . . ?
N1 C2 P2 107.2(7) . . ?
N2 C3 C4 122.3(11) . . ?
C5 C4 C3 119.9(11) . . ?
C4 C5 C6 117.6(10) . . ?
C4 C5 C5 120.7(12) . 2 ?
C6 C5 C5 121.7(11) . 2 ?
C7 C6 C5 120.6(11) . . ?
N2 C7 C6 121.9(11) . . ?
P1 O11 Cu1 142.5(5) . 11_454 ?
P1 O12 Cu1 118.8(5) . . ?
P1 O13 Cu2 128.8(5) . . ?
P2 O21 Cu2 135.4(5) . 11_455 ?
P2 O22 Cu2 128.7(5) . 1_556 ?
P2 O23 Cu1 114.7(4) . . ?
Cu2 O1W O4W 113.0(5) . . ?
Cu2 O1W O3W 110.3(5) . . ?
O4W O1W O3W 100.6(4) . . ?
Cu2 O2W O6W 105.8(10) . 11_454 ?
O1W O3W O7W 95.5(11) . . ?
O1W O3W O8W 126.5(17) . . ?
O7W O3W O8W 83.6(18) . . ?
O1W O4W O6W' 107.9(12) . . ?
O1W O4W O5W 112.7(8) . . ?
O6W' O4W O5W 99.5(14) . . ?
O8W O5W O4W 133(2) 9_455 . ?

_diffrn_measured_fraction_theta_max 0.993
_diffrn_reflns_theta_full        25.03
_diffrn_measured_fraction_theta_full 0.993
_refine_diff_density_max         0.683
_refine_diff_density_min         -0.597
_refine_diff_density_rms         0.141


