
#######################################################################
#
#                 Cambridge Crystallographic Data Centre
#                                CCDC
#
#######################################################################
#
# If this CIF has been generated from an entry in the Cambridge
# Structural Database, then it will include bibliographic, chemical,
# crystal, experimental, refinement or atomic coordinate data resulting
# from the CCDC's data processing and validation procedures.
#
#######################################################################

data_CSD_CIF_HCCYHB
_audit_creation_date 1976-08-18
_audit_creation_method CSD-ConQuest-V1
_database_code_CSD HCCYHB
_database_code_depnum_ccdc_archive 'CCDC 1173319'
_chemical_formula_sum 'C6 H6 Cl6'
_chemical_formula_moiety
;
C6 H6 Cl6
;
_journal_coden_Cambridge 188
_journal_year 1976
_journal_page_first 614
_journal_name_full 'J.Chem.Soc.,Perkin Trans.2 '
loop_
_publ_author_name
"G.Smith"
"C.H.L.Kennard"
"A.H.White"
_chemical_name_systematic
;
\b-(e,e,e,e,e,e)-1,2,3,4,5,6-Hexachlorocyclohexane
;
_chemical_name_common
;
Teaching Subset: Symmetry
;
_cell_volume   1024.193
_exptl_crystal_density_diffrn 1.89
_diffrn_ambient_temperature ?
_diffrn_special_details
;
The study was carried out at room temperature,in the range 283-303K

;
#These two values have been output from a single CSD field.
_refine_ls_R_factor_gt 0.108
_refine_ls_wR_factor_gt 0.108
loop_
_citation_database_id_CSD
_citation_special_details
AHCHEX "is a stereoisomer of this entry"
HCCYHD "is a stereoisomer of this entry"
HCCYHE "is a stereoisomer of this entry"
HCCYHG "is a stereoisomer of this entry"
PIRPEL "is a stereoisomer of this entry"
_symmetry_cell_setting cubic
_symmetry_space_group_name_H-M 'P a 3'
_symmetry_Int_Tables_number 205
loop_
_symmetry_equiv_pos_site_id
_symmetry_equiv_pos_as_xyz
1 x,y,z
2 z,x,y
3 y,z,x
4 -x,1/2+y,1/2-z
5 -z,1/2+x,1/2-y
6 -y,1/2+z,1/2-x
7 1/2-x,-y,1/2+z
8 1/2-z,-x,1/2+y
9 1/2-y,-z,1/2+x
10 1/2+x,1/2-y,-z
11 1/2+z,1/2-x,-y
12 1/2+y,1/2-z,-x
13 -x,-y,-z
14 -z,-x,-y
15 -y,-z,-x
16 x,-1/2-y,-1/2+z
17 z,-1/2-x,-1/2+y
18 y,-1/2-z,-1/2+x
19 -1/2+x,y,-1/2-z
20 -1/2+z,x,-1/2-y
21 -1/2+y,z,-1/2-x
22 -1/2-x,-1/2+y,z
23 -1/2-z,-1/2+x,y
24 -1/2-y,-1/2+z,x
_cell_length_a 10.08(1)
_cell_length_b 10.08(1)
_cell_length_c 10.08(1)
_cell_angle_alpha 90
_cell_angle_beta 90
_cell_angle_gamma 90
_cell_formula_units_Z 4
loop_
_atom_type_symbol
_atom_type_radius_bond
C 0.68
H 0.23
Cl 0.99
loop_
_atom_site_label
_atom_site_type_symbol
_atom_site_fract_x
_atom_site_fract_y
_atom_site_fract_z
Cl1 Cl 0.38560 0.22320 0.08190
C1 C 0.41720 0.39730 0.06460
H1 H 0.36840 0.47300 0.14730
C1S C 0.56460 0.41720 0.10270
C1Q C 0.39730 0.43540 -0.08280
Cl1S Cl 0.58190 0.38560 0.27680
C1E C 0.60270 0.56460 0.08280
H1S H 0.64730 0.36840 0.02700
Cl1Q Cl 0.22320 0.41810 -0.11440
C1G C 0.43540 0.58280 -0.10270
H1Q H 0.47300 0.35270 -0.13160
Cl1E Cl 0.77680 0.58190 0.11440
C1L C 0.58280 0.60270 -0.06460
H1E H 0.52700 0.64730 0.13160
Cl1G Cl 0.41810 0.61440 -0.27680
H1G H 0.35270 0.63160 -0.02700
Cl1L Cl 0.61440 0.77680 -0.08190
H1L H 0.63160 0.52700 -0.14730
#END
