####################################################################### 
# 
# This file contains crystal structure data downloaded from the 
# Cambridge Structural Database (CSD) hosted by the Cambridge 
# Crystallographic Data Centre (CCDC).
# 
# Full information about CCDC data access policies and citation 
# guidelines are available at http://www.ccdc.cam.ac.uk/access/V1 
# 
# Audit and citation data items may have been added by the CCDC. 
# Please retain this information to preserve the provenance of 
# this file and to allow appropriate attribution of the data. 
# 
#######################################################################

data_1
_audit_block_doi                 10.5517/ccwgllh
_database_code_depnum_ccdc_archive 'CCDC 818387'
loop_
_citation_id
_citation_doi
_citation_year
1 10.1016/j.solidstatesciences.2012.05.031 2012
_audit_update_record             
;
2011-03-21 deposited with the CCDC.	2024-07-10 downloaded from the CCDC.
;
#TrackingRef 'compounds.cif'


_audit_creation_method           SHELXL-97
_chemical_name_systematic        
;
?
;
_chemical_name_common            ?
_chemical_melting_point          ?
_chemical_formula_moiety         ?
_chemical_formula_sum            'C46 H58 Cd2 N6 O10'
_chemical_formula_weight         1079.78

loop_
_atom_type_symbol
_atom_type_description
_atom_type_scat_dispersion_real
_atom_type_scat_dispersion_imag
_atom_type_scat_source
C C 0.0033 0.0016 'International Tables Vol C Tables 4.2.6.8 and 6.1.1.4'
H H 0.0000 0.0000 'International Tables Vol C Tables 4.2.6.8 and 6.1.1.4'
N N 0.0061 0.0033 'International Tables Vol C Tables 4.2.6.8 and 6.1.1.4'
Cd Cd -0.8075 1.2024 'International Tables Vol C Tables 4.2.6.8 and 6.1.1.4'
O O 0.0106 0.0060 'International Tables Vol C Tables 4.2.6.8 and 6.1.1.4'

_symmetry_cell_setting           Triclinic
_symmetry_space_group_name_H-M   P1

loop_
_symmetry_equiv_pos_as_xyz
'x, y, z'

_cell_length_a                   8.0737(6)
_cell_length_b                   9.4441(6)
_cell_length_c                   15.4214(12)
_cell_angle_alpha                88.011(6)
_cell_angle_beta                 89.276(5)
_cell_angle_gamma                75.105(5)
_cell_volume                     1135.66(14)
_cell_formula_units_Z            1
_cell_measurement_temperature    273(2)
_cell_measurement_reflns_used    2840
_cell_measurement_theta_min      0.00
_cell_measurement_theta_max      0.00

_exptl_crystal_description       prism
_exptl_crystal_colour            colorless
_exptl_crystal_size_max          .18
_exptl_crystal_size_mid          .14
_exptl_crystal_size_min          .10
_exptl_crystal_density_meas      ?
_exptl_crystal_density_diffrn    1.579
_exptl_crystal_density_method    'not measured'
_exptl_crystal_F_000             552
_exptl_absorpt_coefficient_mu    1.001
_exptl_absorpt_correction_type   none
_exptl_absorpt_correction_T_min  ?
_exptl_absorpt_correction_T_max  ?
_exptl_absorpt_process_details   ?

_exptl_special_details           
;
?
;

_diffrn_ambient_temperature      273(2)
_diffrn_radiation_wavelength     0.71073
_diffrn_radiation_type           MoK\a
_diffrn_radiation_source         'fine-focus sealed tube'
_diffrn_radiation_monochromator  graphite
_diffrn_measurement_device_type  'CCD area detector'
_diffrn_measurement_method       'phi and omega scans'
_diffrn_detector_area_resol_mean ?
_diffrn_standards_number         ?
_diffrn_standards_interval_count ?
_diffrn_standards_interval_time  ?
_diffrn_standards_decay_%        ?
_diffrn_reflns_number            11804
_diffrn_reflns_av_R_equivalents  0.0522
_diffrn_reflns_av_sigmaI/netI    0.0966
_diffrn_reflns_limit_h_min       -9
_diffrn_reflns_limit_h_max       9
_diffrn_reflns_limit_k_min       -10
_diffrn_reflns_limit_k_max       10
_diffrn_reflns_limit_l_min       -17
_diffrn_reflns_limit_l_max       16
_diffrn_reflns_theta_min         1.32
_diffrn_reflns_theta_max         23.98
_reflns_number_total             6413
_reflns_number_gt                5037
_reflns_threshold_expression     >2sigma(I)

_computing_data_collection       'Bruker SMART'
_computing_cell_refinement       'Bruker SMART'
_computing_data_reduction        'Bruker SAINT'
_computing_structure_solution    'SHELXS-97 (Sheldrick, 1990)'
_computing_structure_refinement  'SHELXL-97 (Sheldrick, 1997)'
_computing_molecular_graphics    'Bruker SHELXTL'
_computing_publication_material  'Bruker SHELXTL'

_refine_special_details          
;
Refinement of F^2^ against ALL reflections. The weighted R-factor wR and
goodness of fit S are based on F^2^, conventional R-factors R are based
on F, with F set to zero for negative F^2^. The threshold expression of
F^2^ > 2sigma(F^2^) is used only for calculating R-factors(gt) etc. and is
not relevant to the choice of reflections for refinement. R-factors based
on F^2^ are statistically about twice as large as those based on F, and R-
factors based on ALL data will be even larger.
;

_refine_ls_structure_factor_coef Fsqd
_refine_ls_matrix_type           full
_refine_ls_weighting_scheme      calc
_refine_ls_weighting_details     
'calc w=1/[\s^2^(Fo^2^)+(0.0263P)^2^+0.0000P] where P=(Fo^2^+2Fc^2^)/3'
_atom_sites_solution_primary     direct
_atom_sites_solution_secondary   difmap
_atom_sites_solution_hydrogens   geom
_refine_ls_hydrogen_treatment    constr
_refine_ls_extinction_method     none
_refine_ls_extinction_coef       ?
_refine_ls_abs_structure_details 'Flack H D (1983), Acta Cryst. A39, 876-881'
_refine_ls_abs_structure_Flack   0.00(2)
_chemical_absolute_configuration rm
_refine_ls_number_reflns         6413
_refine_ls_number_parameters     577
_refine_ls_number_restraints     3
_refine_ls_R_factor_all          0.0555
_refine_ls_R_factor_gt           0.0398
_refine_ls_wR_factor_ref         0.0745
_refine_ls_wR_factor_gt          0.0698
_refine_ls_goodness_of_fit_ref   0.834
_refine_ls_restrained_S_all      0.834
_refine_ls_shift/su_max          0.025
_refine_ls_shift/su_mean         0.002

loop_
_atom_site_label
_atom_site_type_symbol
_atom_site_fract_x
_atom_site_fract_y
_atom_site_fract_z
_atom_site_U_iso_or_equiv
_atom_site_adp_type
_atom_site_occupancy
_atom_site_symmetry_multiplicity
_atom_site_calc_flag
_atom_site_refinement_flags
_atom_site_disorder_assembly
_atom_site_disorder_group
Cd1 Cd 0.64030(5) 0.06915(4) 0.56207(3) 0.0378(2) Uani 1 1 d . . .
Cd2 Cd 1.15917(5) 0.09457(4) 1.13147(3) 0.0302(2) Uani 1 1 d . . .
O1 O 0.3553(10) 0.0638(8) 0.6097(4) 0.081(2) Uani 1 1 d . . .
O2 O 0.6831(14) 0.8860(10) 0.6637(8) 0.104(4) Uani 1 1 d . . .
O3 O 0.8354(7) 0.2141(5) 0.5774(4) 0.0400(13) Uani 1 1 d . . .
O4 O 0.6166(8) 0.2531(7) 0.6661(5) 0.0375(17) Uani 1 1 d . . .
O5 O 0.8913(6) 0.0781(6) 1.0759(4) 0.0434(14) Uani 1 1 d . . .
O6 O 1.4565(8) 0.8153(6) 1.1213(4) 0.0681(19) Uani 1 1 d . . .
O7 O 1.2376(10) 0.9211(8) 1.0394(6) 0.067(3) Uani 1 1 d . . .
O8 O 1.1272(8) 0.2932(7) 1.0266(5) 0.0398(19) Uani 1 1 d . . .
O9 O 1.3525(6) 0.2391(5) 1.1119(3) 0.0354(13) Uani 1 1 d . . .
O11 O 0.9052(10) 0.8148(7) 0.5808(5) 0.084(2) Uani 1 1 d . . .
N1 N 0.4661(8) 0.2453(7) 0.4676(4) 0.0327(15) Uani 1 1 d . . .
N2 N 0.6843(8) -0.0023(7) 0.4168(5) 0.0375(17) Uani 1 1 d . . .
N3 N 1.1937(7) 0.0072(7) 1.2763(4) 0.0301(15) Uani 1 1 d . . .
N4 N 0.9782(7) 0.2610(6) 1.2239(4) 0.0320(15) Uani 1 1 d . . .
N7 N 0.2446(8) 0.0090(7) 0.7389(5) 0.0435(18) Uani 1 1 d . . .
N8 N 0.7670(7) 0.0575(7) 0.9473(4) 0.0398(17) Uani 1 1 d . . .
C1 C 0.8450(9) 0.6455(7) 0.6890(5) 0.0315(18) Uani 1 1 d . . .
C2 C 0.7246(12) 0.5543(9) 0.6569(6) 0.036(2) Uani 1 1 d . . .
C3 C 0.8178(9) 0.3963(8) 0.6858(5) 0.0354(19) Uani 1 1 d . . .
H3A H 0.7947 0.3860 0.7479 0.043 Uiso 1 1 calc R . .
C4 C 1.0220(9) 0.5447(8) 0.6704(6) 0.054(2) Uani 1 1 d . . .
H4A H 1.1042 0.5585 0.7125 0.064 Uiso 1 1 calc R . .
H4B H 1.0607 0.5671 0.6130 0.064 Uiso 1 1 calc R . .
C5 C 1.0066(10) 0.3835(8) 0.6762(7) 0.073(3) Uani 1 1 d . . .
H5A H 1.0514 0.3322 0.6241 0.087 Uiso 1 1 calc R . .
H5B H 1.0689 0.3311 0.7260 0.087 Uiso 1 1 calc R . .
C6 C 0.8268(12) 0.6684(9) 0.7865(5) 0.064(3) Uani 1 1 d . . .
H6A H 0.7152 0.7302 0.7989 0.096 Uiso 1 1 calc R . .
H6B H 0.9129 0.7140 0.8054 0.096 Uiso 1 1 calc R . .
H6C H 0.8407 0.5754 0.8165 0.096 Uiso 1 1 calc R . .
C7 C 0.7055(11) 0.5665(8) 0.5580(5) 0.049(2) Uani 1 1 d . . .
H7A H 0.8167 0.5375 0.5314 0.074 Uiso 1 1 calc R . .
H7B H 0.6509 0.6660 0.5407 0.074 Uiso 1 1 calc R . .
H7C H 0.6369 0.5035 0.5399 0.074 Uiso 1 1 calc R . .
C8 C 0.5411(13) 0.6006(12) 0.6953(8) 0.070(4) Uani 1 1 d . . .
H8A H 0.5469 0.5942 0.7575 0.104 Uiso 1 1 calc R . .
H8B H 0.4754 0.5365 0.6755 0.104 Uiso 1 1 calc R . .
H8C H 0.4872 0.6996 0.6767 0.104 Uiso 1 1 calc R . .
C9 C 0.8086(14) 0.7930(10) 0.6401(7) 0.051(3) Uani 1 1 d . . .
C10 C 0.7519(10) 0.2769(8) 0.6396(5) 0.0318(19) Uani 1 1 d . . .
C11 C 0.4752(11) 0.2237(9) 0.3818(6) 0.031(2) Uani 1 1 d . . .
C12 C 0.3699(10) 0.3237(9) 0.3237(6) 0.041(2) Uani 1 1 d . . .
H12A H 0.3760 0.3072 0.2645 0.049 Uiso 1 1 calc R . .
C13 C 0.2561(10) 0.4480(9) 0.3557(6) 0.045(2) Uani 1 1 d . . .
H13A H 0.1870 0.5166 0.3180 0.053 Uiso 1 1 calc R . .
C14 C 0.2475(10) 0.4676(8) 0.4428(6) 0.044(2) Uani 1 1 d . . .
H14A H 0.1720 0.5489 0.4664 0.052 Uiso 1 1 calc R . .
C15 C 0.3547(10) 0.3627(9) 0.4948(6) 0.044(2) Uani 1 1 d . . .
H15A H 0.3477 0.3762 0.5544 0.053 Uiso 1 1 calc R . .
C16 C 0.6017(10) 0.0887(9) 0.3531(6) 0.030(2) Uani 1 1 d . . .
C17 C 0.6277(11) 0.0586(10) 0.2660(6) 0.042(2) Uani 1 1 d . . .
H17A H 0.5661 0.1219 0.2234 0.050 Uiso 1 1 calc R . .
C18 C 0.7503(10) -0.0709(8) 0.2436(5) 0.039(2) Uani 1 1 d . . .
H18A H 0.7730 -0.0930 0.1857 0.047 Uiso 1 1 calc R . .
C19 C 0.8343(11) -0.1622(9) 0.3073(6) 0.041(2) Uani 1 1 d . . .
H19A H 0.9140 -0.2492 0.2943 0.049 Uiso 1 1 calc R . .
C20 C 0.7986(11) -0.1231(10) 0.3925(6) 0.037(2) Uani 1 1 d . . .
H20A H 0.8587 -0.1856 0.4359 0.044 Uiso 1 1 calc R . .
C31 C 1.1020(10) 0.0897(9) 1.3393(6) 0.032(2) Uani 1 1 d . . .
C32 C 1.1206(11) 0.0491(10) 1.4272(6) 0.042(2) Uani 1 1 d . . .
H32A H 1.0584 0.1091 1.4693 0.050 Uiso 1 1 calc R . .
C33 C 1.2346(10) -0.0833(9) 1.4498(6) 0.047(2) Uani 1 1 d . . .
H33A H 1.2478 -0.1150 1.5076 0.057 Uiso 1 1 calc R . .
C34 C 1.3291(11) -0.1684(9) 1.3857(6) 0.043(2) Uani 1 1 d . . .
H34A H 1.4078 -0.2567 1.3998 0.051 Uiso 1 1 calc R . .
C35 C 1.3034(11) -0.1186(9) 1.3007(7) 0.037(2) Uani 1 1 d . . .
H35A H 1.3664 -0.1761 1.2579 0.045 Uiso 1 1 calc R . .
C36 C 0.9786(11) 0.2281(9) 1.3095(6) 0.028(2) Uani 1 1 d . . .
C37 C 0.8706(10) 0.3217(9) 1.3651(6) 0.038(2) Uani 1 1 d . . .
H37A H 0.8724 0.2992 1.4244 0.045 Uiso 1 1 calc R . .
C38 C 0.7602(9) 0.4485(9) 1.3322(6) 0.043(2) Uani 1 1 d . . .
H38A H 0.6874 0.5121 1.3692 0.051 Uiso 1 1 calc R . .
C39 C 0.7587(10) 0.4800(9) 1.2444(6) 0.045(2) Uani 1 1 d . . .
H39A H 0.6846 0.5640 1.2205 0.055 Uiso 1 1 calc R . .
C40 C 0.8694(9) 0.3840(9) 1.1939(6) 0.040(2) Uani 1 1 d . . .
H40A H 0.8695 0.4053 1.1346 0.048 Uiso 1 1 calc R . .
C41 C 1.3391(9) 0.4313(7) 1.0030(5) 0.0291(17) Uani 1 1 d . . .
C42 C 1.2543(12) 0.5877(9) 1.0378(6) 0.032(2) Uani 1 1 d . . .
C43 C 1.3779(9) 0.6791(7) 1.0059(5) 0.0340(18) Uani 1 1 d . . .
H43A H 1.3508 0.7106 0.9454 0.041 Uiso 1 1 calc R . .
C44 C 1.5570(9) 0.5748(8) 1.0093(6) 0.049(2) Uani 1 1 d . . .
H44A H 1.6219 0.5980 1.0569 0.059 Uiso 1 1 calc R . .
H44B H 1.6184 0.5823 0.9556 0.059 Uiso 1 1 calc R . .
C45 C 1.5309(9) 0.4167(8) 1.0230(6) 0.051(2) Uani 1 1 d . . .
H45A H 1.5575 0.3810 1.0823 0.061 Uiso 1 1 calc R . .
H45B H 1.6042 0.3493 0.9840 0.061 Uiso 1 1 calc R . .
C46 C 1.3093(12) 0.4247(9) 0.9057(5) 0.062(3) Uani 1 1 d . . .
H46A H 1.1897 0.4353 0.8953 0.093 Uiso 1 1 calc R . .
H46B H 1.3745 0.3321 0.8850 0.093 Uiso 1 1 calc R . .
H46C H 1.3451 0.5026 0.8756 0.093 Uiso 1 1 calc R . .
C47 C 1.0719(12) 0.6563(11) 1.0006(8) 0.064(4) Uani 1 1 d . . .
H47A H 1.0270 0.7518 1.0237 0.096 Uiso 1 1 calc R . .
H47B H 0.9979 0.5947 1.0167 0.096 Uiso 1 1 calc R . .
H47C H 1.0783 0.6647 0.9385 0.096 Uiso 1 1 calc R . .
C48 C 1.2338(11) 0.5831(8) 1.1354(5) 0.048(2) Uani 1 1 d . . .
H48A H 1.1811 0.6799 1.1547 0.072 Uiso 1 1 calc R . .
H48B H 1.3443 0.5477 1.1619 0.072 Uiso 1 1 calc R . .
H48C H 1.1629 0.5189 1.1515 0.072 Uiso 1 1 calc R . .
C50 C 1.2692(9) 0.3113(7) 1.0501(5) 0.0269(17) Uani 1 1 d . . .
C51 C 0.7505(11) 0.1001(10) 0.8561(5) 0.056(3) Uani 1 1 d . . .
H51A H 0.8323 0.1548 0.8408 0.084 Uiso 1 1 calc R . .
H51B H 0.6368 0.1598 0.8449 0.084 Uiso 1 1 calc R . .
H51C H 0.7716 0.0140 0.8220 0.084 Uiso 1 1 calc R . .
C53 C 0.6518(9) -0.0245(8) 0.9849(5) 0.049(2) Uani 1 1 d . . .
H53A H 0.6774 -0.0451 1.0453 0.073 Uiso 1 1 calc R . .
H53B H 0.6668 -0.1149 0.9555 0.073 Uiso 1 1 calc R . .
H53C H 0.5354 0.0326 0.9786 0.073 Uiso 1 1 calc R . .
C54 C 0.8765(10) 0.1020(8) 0.9973(6) 0.044(2) Uani 1 1 d . . .
H54A H 0.9467 0.1549 0.9706 0.053 Uiso 1 1 calc R . .
C55 C 1.3549(13) 0.8184(10) 1.0614(6) 0.048(2) Uani 1 1 d . . .
C61 C 0.2520(17) 0.0216(16) 0.8326(7) 0.142(6) Uani 1 1 d . . .
H61A H 0.3338 0.0755 0.8460 0.214 Uiso 1 1 calc R . .
H61B H 0.2861 -0.0745 0.8596 0.214 Uiso 1 1 calc R . .
H61C H 0.1410 0.0721 0.8538 0.214 Uiso 1 1 calc R . .
C62 C 0.3585(13) 0.0617(10) 0.6910(10) 0.087(4) Uani 1 1 d . . .
H62A H 0.4405 0.0969 0.7188 0.104 Uiso 1 1 calc R . .
C63 C 0.1347(12) -0.0629(12) 0.7044(9) 0.118(5) Uani 1 1 d . . .
H63A H 0.1475 -0.0638 0.6425 0.178 Uiso 1 1 calc R . .
H63B H 0.0189 -0.0134 0.7192 0.178 Uiso 1 1 calc R . .
H63C H 0.1608 -0.1618 0.7276 0.178 Uiso 1 1 calc R . .

loop_
_atom_site_aniso_label
_atom_site_aniso_U_11
_atom_site_aniso_U_22
_atom_site_aniso_U_33
_atom_site_aniso_U_23
_atom_site_aniso_U_13
_atom_site_aniso_U_12
Cd1 0.0546(5) 0.0312(5) 0.0321(5) 0.0058(4) -0.0152(4) -0.0194(4)
Cd2 0.0317(4) 0.0271(4) 0.0335(5) 0.0001(4) -0.0043(4) -0.0105(3)
O1 0.127(6) 0.112(6) 0.031(4) 0.010(4) -0.009(4) -0.081(5)
O2 0.116(9) 0.042(6) 0.143(11) 0.022(6) 0.007(8) 0.000(6)
O3 0.047(3) 0.036(3) 0.042(4) -0.009(3) 0.006(3) -0.018(3)
O4 0.043(4) 0.034(4) 0.041(4) 0.002(3) -0.002(3) -0.020(3)
O5 0.042(3) 0.059(4) 0.037(4) 0.010(3) -0.011(3) -0.027(3)
O6 0.093(5) 0.076(5) 0.056(5) -0.019(4) 0.009(4) -0.056(4)
O7 0.049(5) 0.042(5) 0.107(7) -0.014(5) 0.005(5) -0.004(4)
O8 0.039(4) 0.039(4) 0.044(5) 0.005(4) -0.005(4) -0.015(4)
O9 0.047(3) 0.019(3) 0.041(3) 0.003(3) -0.007(3) -0.012(2)
O11 0.142(7) 0.069(5) 0.063(5) 0.023(4) -0.015(5) -0.070(5)
N1 0.031(4) 0.035(4) 0.034(4) 0.002(3) -0.003(3) -0.010(3)
N2 0.035(4) 0.027(4) 0.054(5) 0.005(4) -0.011(4) -0.014(3)
N3 0.031(4) 0.032(4) 0.032(4) 0.003(3) -0.011(3) -0.017(3)
N4 0.026(3) 0.025(4) 0.045(5) 0.005(3) -0.009(3) -0.007(3)
N7 0.031(4) 0.046(4) 0.057(5) 0.000(4) 0.005(4) -0.016(3)
N8 0.037(4) 0.052(4) 0.036(4) 0.005(3) -0.011(3) -0.022(3)
C1 0.045(5) 0.024(4) 0.029(5) -0.002(3) -0.002(4) -0.015(4)
C2 0.044(5) 0.017(5) 0.044(6) 0.003(4) -0.005(5) -0.006(4)
C3 0.041(5) 0.027(5) 0.042(5) 0.000(4) -0.012(4) -0.014(4)
C4 0.036(5) 0.061(6) 0.068(7) -0.009(5) -0.002(5) -0.020(4)
C5 0.036(5) 0.032(5) 0.150(10) -0.015(6) -0.039(6) -0.007(4)
C6 0.110(8) 0.048(6) 0.038(6) 0.001(4) 0.000(6) -0.030(5)
C7 0.069(6) 0.027(5) 0.057(6) 0.013(4) -0.034(6) -0.022(5)
C8 0.056(7) 0.058(7) 0.101(11) -0.031(7) 0.027(7) -0.023(6)
C9 0.072(7) 0.039(6) 0.055(7) 0.005(5) -0.024(6) -0.039(5)
C10 0.036(5) 0.024(4) 0.035(5) 0.004(4) -0.016(4) -0.007(4)
C11 0.040(5) 0.034(6) 0.028(5) 0.007(5) -0.008(4) -0.025(5)
C12 0.046(5) 0.052(6) 0.033(5) 0.014(4) -0.016(5) -0.029(5)
C13 0.047(5) 0.040(5) 0.046(6) 0.004(4) -0.007(5) -0.010(4)
C14 0.047(5) 0.037(5) 0.047(6) 0.007(4) -0.006(5) -0.010(4)
C15 0.050(5) 0.057(6) 0.028(5) 0.009(5) -0.011(5) -0.020(5)
C16 0.024(5) 0.029(5) 0.042(6) 0.008(4) -0.007(5) -0.015(4)
C17 0.046(6) 0.055(7) 0.029(6) 0.008(5) -0.014(5) -0.023(5)
C18 0.054(5) 0.043(5) 0.023(5) 0.000(4) -0.003(4) -0.017(4)
C19 0.047(6) 0.036(5) 0.042(6) -0.007(4) -0.005(5) -0.013(4)
C20 0.042(6) 0.036(6) 0.035(6) 0.006(5) -0.017(5) -0.017(5)
C31 0.026(5) 0.030(5) 0.046(6) -0.008(5) -0.001(5) -0.014(4)
C32 0.035(5) 0.055(7) 0.032(6) 0.001(5) -0.007(5) -0.006(5)
C33 0.050(5) 0.063(6) 0.033(5) 0.002(5) -0.006(5) -0.022(5)
C34 0.047(6) 0.033(5) 0.047(7) 0.008(5) -0.015(5) -0.008(5)
C35 0.039(5) 0.030(6) 0.044(7) -0.006(5) 0.000(5) -0.012(4)
C36 0.032(5) 0.026(5) 0.035(6) 0.001(4) -0.005(4) -0.022(4)
C37 0.042(5) 0.040(5) 0.034(5) -0.001(4) -0.002(5) -0.016(5)
C38 0.032(5) 0.045(5) 0.051(6) -0.018(5) 0.007(4) -0.008(4)
C39 0.043(5) 0.041(5) 0.051(6) -0.004(5) 0.001(5) -0.007(4)
C40 0.038(5) 0.050(6) 0.034(5) -0.013(5) 0.006(4) -0.014(4)
C41 0.039(4) 0.018(4) 0.031(5) -0.004(3) 0.006(4) -0.009(3)
C42 0.045(5) 0.022(5) 0.030(6) -0.006(4) 0.007(4) -0.007(4)
C43 0.046(5) 0.025(4) 0.031(5) 0.005(3) 0.001(4) -0.011(4)
C44 0.043(5) 0.046(5) 0.061(6) -0.002(4) 0.009(5) -0.018(4)
C45 0.038(5) 0.038(5) 0.076(7) 0.002(5) 0.010(5) -0.009(4)
C46 0.104(8) 0.057(6) 0.040(6) -0.003(5) 0.011(6) -0.046(6)
C47 0.035(5) 0.039(7) 0.120(12) -0.005(7) -0.010(6) -0.013(5)
C48 0.066(6) 0.045(5) 0.044(6) -0.010(4) 0.011(5) -0.031(5)
C50 0.031(4) 0.023(4) 0.024(4) -0.001(3) -0.001(4) -0.003(3)
C51 0.055(6) 0.082(7) 0.040(6) -0.011(5) -0.007(5) -0.032(5)
C53 0.041(5) 0.067(6) 0.053(6) -0.007(5) 0.001(4) -0.040(5)
C54 0.050(5) 0.041(5) 0.049(6) 0.006(4) -0.003(5) -0.024(4)
C55 0.056(6) 0.056(7) 0.047(6) 0.001(5) 0.012(5) -0.042(6)
C61 0.125(11) 0.247(18) 0.053(9) -0.011(10) -0.044(8) -0.041(11)
C62 0.057(7) 0.056(7) 0.152(13) -0.009(8) 0.006(8) -0.023(5)
C63 0.059(7) 0.099(9) 0.210(15) -0.059(9) 0.029(8) -0.038(7)

_geom_special_details            
;
All esds (except the esd in the dihedral angle between two l.s. planes)
are estimated using the full covariance matrix. The cell esds are taken
into account individually in the estimation of 