####################################################################### 
# 
# This file contains crystal structure data downloaded from the 
# Cambridge Structural Database (CSD) hosted by the Cambridge 
# Crystallographic Data Centre (CCDC).
# 
# Full information about CCDC data access policies and citation 
# guidelines are available at http://www.ccdc.cam.ac.uk/access/V1 
# 
# Audit and citation data items may have been added by the CCDC. 
# Please retain this information to preserve the provenance of 
# this file and to allow appropriate attribution of the data. 
# 
#######################################################################

data_zzpcd11_0m
_audit_block_doi                 10.5517/ccyh70n
_database_code_depnum_ccdc_archive 'CCDC 878571'
loop_
_citation_id
_citation_doi
_citation_year
1 10.1002/anie.201203594 2012
_audit_update_record             
;
2012-04-24 deposited with the CCDC.	2024-07-10 downloaded from the CCDC.
;
#TrackingRef 'porph(Cl)@MOM-11(Cd2+).cif'


_audit_creation_method           SHELXL-97
_chemical_name_systematic        
;
?
;
_chemical_name_common            ?
_chemical_melting_point          ?
_chemical_formula_moiety         ?
_chemical_formula_sum            'C208 H122 Cd12 Cl4 N16 O54'
_chemical_formula_weight         5199.82

loop_
_atom_type_symbol
_atom_type_description
_atom_type_scat_dispersion_real
_atom_type_scat_dispersion_imag
_atom_type_scat_source
C C 0.0181 0.0091 'International Tables Vol C Tables 4.2.6.8 and 6.1.1.4'
Cd Cd 0.1185 4.6533 'International Tables Vol C Tables 4.2.6.8 and 6.1.1.4'
Cl Cl 0.3639 0.7018 'International Tables Vol C Tables 4.2.6.8 and 6.1.1.4'
H H 0.0000 0.0000 'International Tables Vol C Tables 4.2.6.8 and 6.1.1.4'
O O 0.0492 0.0322 'International Tables Vol C Tables 4.2.6.8 and 6.1.1.4'
N N 0.0311 0.0180 'International Tables Vol C Tables 4.2.6.8 and 6.1.1.4'

_symmetry_cell_setting           triclinic
_symmetry_space_group_name_H-M   P-1

loop_
_symmetry_equiv_pos_as_xyz
'x, y, z'
'-x, -y, -z'

_cell_length_a                   18.3226(9)
_cell_length_b                   19.9426(8)
_cell_length_c                   21.8982(9)
_cell_angle_alpha                67.945(2)
_cell_angle_beta                 88.290(3)
_cell_angle_gamma                85.086(3)
_cell_volume                     7388.8(6)
_cell_formula_units_Z            1
_cell_measurement_temperature    203(2)
_cell_measurement_reflns_used    ?
_cell_measurement_theta_min      ?
_cell_measurement_theta_max      ?

_exptl_crystal_description       prism
_exptl_crystal_colour            dark-green
_exptl_crystal_size_max          0.20
_exptl_crystal_size_mid          0.10
_exptl_crystal_size_min          0.10
_exptl_crystal_density_meas      ?
_exptl_crystal_density_diffrn    1.169
_exptl_crystal_density_method    'not measured'
_exptl_crystal_F_000             2558
_exptl_absorpt_coefficient_mu    7.592
_exptl_absorpt_correction_type   multi-scan
_exptl_absorpt_correction_T_min  0.3120
_exptl_absorpt_correction_T_max  0.5173
_exptl_absorpt_process_details   ?

_exptl_special_details           
;
?
;

_diffrn_ambient_temperature      203(2)
_diffrn_radiation_wavelength     1.54178
_diffrn_radiation_type           CuK\a
_diffrn_radiation_source         'fine-focus sealed tube'
_diffrn_radiation_monochromator  graphite
_diffrn_measurement_device_type  ?
_diffrn_measurement_method       ?
_diffrn_detector_area_resol_mean ?
_diffrn_reflns_number            87660
_diffrn_reflns_av_R_equivalents  0.1043
_diffrn_reflns_av_sigmaI/netI    0.1055
_diffrn_reflns_limit_h_min       -21
_diffrn_reflns_limit_h_max       21
_diffrn_reflns_limit_k_min       -23
_diffrn_reflns_limit_k_max       23
_diffrn_reflns_limit_l_min       -25
_diffrn_reflns_limit_l_max       25
_diffrn_reflns_theta_min         2.18
_diffrn_reflns_theta_max         66.21
_reflns_number_total             24712
_reflns_number_gt                16278
_reflns_threshold_expression     >2sigma(I)

_computing_data_collection       ?
_computing_cell_refinement       ?
_computing_data_reduction        ?
_computing_structure_solution    'SHELXS-97 (Sheldrick, 2008)'
_computing_structure_refinement  'SHELXL-97 (Sheldrick, 2008)'
_computing_molecular_graphics    ?
_computing_publication_material  ?

_refine_special_details          
;
Refinement of F^2^ against ALL reflections. The weighted R-factor wR and
goodness of fit S are based on F^2^, conventional R-factors R are based
on F, with F set to zero for negative F^2^. The threshold expression of
F^2^ > 2sigma(F^2^) is used only for calculating R-factors(gt) etc. and is
not relevant to the choice of reflections for refinement. R-factors based
on F^2^ are statistically about twice as large as those based on F, and R-
factors based on ALL data will be even larger.
;

_refine_ls_structure_factor_coef Fsqd
_refine_ls_matrix_type           full
_refine_ls_weighting_scheme      calc
_refine_ls_weighting_details     
'calc w=1/[\s^2^(Fo^2^)+(0.0781P)^2^+0.0000P] where P=(Fo^2^+2Fc^2^)/3'
_atom_sites_solution_primary     direct
_atom_sites_solution_secondary   difmap
_atom_sites_solution_hydrogens   geom
_refine_ls_hydrogen_treatment    constr
_refine_ls_extinction_method     none
_refine_ls_extinction_coef       ?
_refine_ls_number_reflns         24712
_refine_ls_number_parameters     1326
_refine_ls_number_restraints     12
_refine_ls_R_factor_all          0.0864
_refine_ls_R_factor_gt           0.0605
_refine_ls_wR_factor_ref         0.1503
_refine_ls_wR_factor_gt          0.1395
_refine_ls_goodness_of_fit_ref   0.914
_refine_ls_restrained_S_all      0.915
_refine_ls_shift/su_max          0.004
_refine_ls_shift/su_mean         0.000

loop_
_atom_site_label
_atom_site_type_symbol
_atom_site_fract_x
_atom_site_fract_y
_atom_site_fract_z
_atom_site_U_iso_or_equiv
_atom_site_adp_type
_atom_site_occupancy
_atom_site_symmetry_multiplicity
_atom_site_calc_flag
_atom_site_refinement_flags
_atom_site_disorder_assembly
_atom_site_disorder_group
Cd1 Cd 0.94165(2) 0.33369(2) 0.45136(2) 0.02118(11) Uani 1 1 d . . .
Cd2 Cd 1.03707(2) 0.17781(2) 0.53219(2) 0.02078(11) Uani 1 1 d . . .
Cd3 Cd 0.54242(2) -0.17139(2) 0.954598(19) 0.01916(10) Uani 1 1 d . . .
Cd4 Cd 0.52394(3) 0.28813(3) 0.51964(2) 0.02978(12) Uani 1 1 d . . .
Cd5 Cd 0.71950(3) -0.14578(3) 0.87422(3) 0.03900(14) Uani 1 1 d . . .
Cd6 Cd 0.54427(2) 0.32964(2) 0.956756(19) 0.02175(11) Uani 1 1 d . . .
Cl1 Cl 0.59097(12) 0.36938(11) 0.55676(11) 0.0486(5) Uani 1 1 d . . .
Cl2 Cl 0.73298(16) -0.10952(17) 0.75476(11) 0.0739(8) Uani 1 1 d . . .
C1 C 1.0991(4) 0.2969(4) 0.4024(3) 0.0338(17) Uani 1 1 d . . .
C2 C 1.1577(4) 0.3166(4) 0.3510(3) 0.0357(17) Uani 1 1 d . . .
C3 C 1.1516(5) 0.3845(4) 0.3001(4) 0.0417(19) Uani 1 1 d . . .
H3 H 1.1119 0.4179 0.2995 0.050 Uiso 1 1 calc R . .
C4 C 1.2029(5) 0.4034(4) 0.2506(3) 0.0394(19) Uani 1 1 d . . .
H4 H 1.1989 0.4500 0.2174 0.047 Uiso 1 1 calc R . .
C5 C 1.2609(4) 0.3537(4) 0.2492(3) 0.0308(16) Uani 1 1 d . . .
C6 C 1.2684(5) 0.2860(4) 0.3014(4) 0.0422(19) Uani 1 1 d . . .
H6 H 1.3077 0.2521 0.3023 0.051 Uiso 1 1 calc R . .
C7 C 1.2175(4) 0.2697(4) 0.3516(4) 0.0381(18) Uani 1 1 d . . .
H7 H 1.2239 0.2251 0.3874 0.046 Uiso 1 1 calc R . .
C8 C 1.3135(4) 0.3723(4) 0.1941(3) 0.0275(15) Uani 1 1 d . . .
C9 C 1.3375(4) 0.3223(4) 0.1666(3) 0.0287(15) Uani 1 1 d . . .
H9 H 1.3211 0.2754 0.1842 0.034 Uiso 1 1 calc R . .
C10 C 1.3855(4) 0.3399(3) 0.1132(3) 0.0247(14) Uani 1 1 d . . .
C11 C 1.4120(4) 0.4088(3) 0.0886(3) 0.0247(14) Uani 1 1 d . . .
H11 H 1.4461 0.4206 0.0540 0.030 Uiso 1 1 calc R . .
C12 C 1.3880(4) 0.4595(4) 0.1152(3) 0.0271(15) Uani 1 1 d . . .
C13 C 1.3387(4) 0.4426(4) 0.1677(4) 0.0314(16) Uani 1 1 d . . .
H13 H 1.3224 0.4776 0.1853 0.038 Uiso 1 1 calc R . .
C14 C 1.4133(4) 0.5350(4) 0.0878(3) 0.0266(14) Uani 1 1 d . . .
C15 C 0.9128(4) 0.2267(4) 0.4013(3) 0.0359(17) Uani 1 1 d U . .
C16 C 0.8898(3) 0.1697(4) 0.3774(3) 0.0239(13) Uani 1 1 d . . .
C17 C 0.9152(3) 0.0976(4) 0.4092(3) 0.0257(14) Uani 1 1 d . . .
H17 H 0.9496 0.0847 0.4436 0.031 Uiso 1 1 calc R . .
C18 C 0.8903(4) 0.0450(3) 0.3908(3) 0.0253(14) Uani 1 1 d . . .
C19 C 0.8396(4) 0.0640(4) 0.3392(3) 0.0308(15) Uani 1 1 d . . .
H19 H 0.8224 0.0278 0.3268 0.037 Uiso 1 1 calc R . .
C20 C 0.8145(4) 0.1363(4) 0.3062(3) 0.0279(15) Uani 1 1 d . . .
C21 C 0.8405(4) 0.1884(4) 0.3260(3) 0.0282(14) Uani 1 1 d . . .
H21 H 0.8241 0.2375 0.3040 0.034 Uiso 1 1 calc R . .
C23 C 0.7614(4) 0.1566(4) 0.2508(3) 0.0302(15) Uani 1 1 d . . .
C24 C 0.7686(5) 0.2169(4) 0.1946(4) 0.043(2) Uani 1 1 d . . .
H24 H 0.8074 0.2462 0.1906 0.051 Uiso 1 1 calc R . .
C25 C 0.7179(4) 0.2346(4) 0.1431(4) 0.042(2) Uani 1 1 d . . .
H25 H 0.7225 0.2762 0.1047 0.050 Uiso 1 1 calc R . .
C26 C 0.6611(4) 0.1911(4) 0.1486(4) 0.0354(17) Uani 1 1 d . . .
C27 C 0.6552(4) 0.1305(4) 0.2047(4) 0.0341(16) Uani 1 1 d . . .
H27 H 0.6174 0.1003 0.2083 0.041 Uiso 1 1 calc R . .
C28 C 0.7041(4) 0.1137(4) 0.2556(4) 0.0358(17) Uani 1 1 d . . .
H28 H 0.6986 0.0726 0.2942 0.043 Uiso 1 1 calc R . .
C29 C 0.6073(4) 0.2113(4) 0.0930(3) 0.0374(18) Uani 1 1 d . . .
C30 C 0.9081(4) 0.4805(4) 0.4054(3) 0.0299(15) Uani 1 1 d . . .
C31 C 0.8918(4) 0.5624(4) 0.3750(3) 0.0279(14) Uani 1 1 d . . .
C32 C 0.9150(3) 0.6048(4) 0.4057(3) 0.0244(14) Uani 1 1 d . . .
H32 H 0.9379 0.5834 0.4472 0.029 Uiso 1 1 calc R . .
C33 C 0.9047(4) 0.6798(4) 0.3755(3) 0.0250(14) Uani 1 1 d . . .
C34 C 0.9306(4) 0.7252(4) 0.4096(3) 0.0331(16) Uani 1 1 d . . .
C35 C 0.8727(4) 0.7111(4) 0.3133(3) 0.0302(15) Uani 1 1 d . . .
H35 H 0.8686 0.7618 0.2918 0.036 Uiso 1 1 calc R . .
C36 C 0.8469(4) 0.6688(4) 0.2829(3) 0.0328(16) Uani 1 1 d . . .
C37 C 0.8579(4) 0.5937(4) 0.3138(3) 0.0297(15) Uani 1 1 d . . .
H37 H 0.8422 0.5639 0.2930 0.036 Uiso 1 1 calc R . .
C38 C 0.8091(4) 0.7032(4) 0.2177(4) 0.0348(17) Uani 1 1 d . . .
C39 C 0.8358(6) 0.7613(6) 0.1675(5) 0.064(3) Uani 1 1 d . . .
H39 H 0.8783 0.7810 0.1741 0.077 Uiso 1 1 calc R . .
C40 C 0.7997(6) 0.7907(5) 0.1070(4) 0.061(3) Uani 1 1 d . . .
H40 H 0.8186 0.8300 0.0728 0.074 Uiso 1 1 calc R . .
C41 C 0.7366(4) 0.7634(4) 0.0962(3) 0.0327(16) Uani 1 1 d . . .
C42 C 0.7117(5) 0.7052(6) 0.1472(4) 0.064(3) Uani 1 1 d . . .
H42 H 0.6698 0.6844 0.1411 0.077 Uiso 1 1 calc R . .
C43 C 0.7472(5) 0.6769(5) 0.2071(4) 0.053(2) Uani 1 1 d . . .
H43 H 0.7278 0.6382 0.2415 0.064 Uiso 1 1 calc R . .
C44 C 0.6983(4) 0.7947(5) 0.0311(4) 0.0415(19) Uani 1 1 d . . .
C45 C 0.8852(6) -0.0848(6) 0.5990(6) 0.064(3) Uani 1 1 d . . .
H45A H 0.9310 -0.0646 0.5808 0.096 Uiso 1 1 calc R . .
H45B H 0.8761 -0.1228 0.5833 0.096 Uiso 1 1 calc R . .
H45C H 0.8884 -0.1049 0.6467 0.096 Uiso 1 1 calc R . .
C46 C 0.7558(5) -0.0445(5) 0.5779(5) 0.053(2) Uani 1 1 d . . .
H46 H 0.7474 -0.0936 0.5888 0.063 Uiso 1 1 calc R . .
C47 C 0.6978(5) 0.0049(5) 0.5629(5) 0.051(2) Uani 1 1 d . . .
H47 H 0.6503 -0.0090 0.5618 0.061 Uiso 1 1 calc R . .
C48 C 0.7097(4) 0.0779(4) 0.5488(3) 0.0324(16) Uani 1 1 d . . .
C49 C 0.7815(4) 0.0963(5) 0.5459(4) 0.0418(18) Uani 1 1 d . . .
H49 H 0.7915 0.1452 0.5327 0.050 Uiso 1 1 calc R . .
C50 C 0.8382(4) 0.0419(5) 0.5627(4) 0.044(2) Uani 1 1 d . . .
H50 H 0.8866 0.0540 0.5633 0.053 Uiso 1 1 calc R . .
C51 C 0.6467(4) 0.1355(4) 0.5366(3) 0.0313(15) Uani 1 1 d . . .
C52 C 0.6376(4) 0.1860(4) 0.4718(4) 0.0383(18) Uani 1 1 d . . .
C53 C 0.6797(4) 0.1851(4) 0.4159(4) 0.0417(19) Uani 1 1 d . . .
H53 H 0.7201 0.1526 0.4164 0.050 Uiso 1 1 calc R . .
C54 C 0.6502(5) 0.2399(5) 0.3620(4) 0.048(2) Uani 1 1 d . . .
H54 H 0.6657 0.2515 0.3182 0.058 Uiso 1 1 calc R . .
C55 C 0.5916(4) 0.2764(4) 0.3844(4) 0.0356(16) Uani 1 1 d . . .
C56 C 0.5438(4) 0.3358(4) 0.3444(3) 0.0361(17) Uani 1 1 d . . .
C57 C 0.5611(5) 0.3665(5) 0.2739(4) 0.0405(18) Uani 1 1 d . . .
C58 C 0.5612(6) 0.3254(5) 0.2340(5) 0.055(2) Uani 1 1 d . . .
H58 H 0.5492 0.2769 0.2522 0.067 Uiso 1 1 calc R . .
C59 C 0.5784(6) 0.3554(6) 0.1701(4) 0.058(3) Uani 1 1 d . . .
H59 H 0.5763 0.3276 0.1438 0.070 Uiso 1 1 calc R . .
C60 C 0.6203(6) 0.4531(7) 0.0722(4) 0.073(3) Uani 1 1 d . . .
H60A H 0.6225 0.5052 0.0581 0.110 Uiso 1 1 calc R . .
H60B H 0.5847 0.4430 0.0455 0.110 Uiso 1 1 calc R . .
H60C H 0.6681 0.4309 0.0671 0.110 Uiso 1 1 calc R . .
C61 C 0.5935(6) 0.4661(5) 0.1778(4) 0.050(2) Uani 1 1 d . . .
H61 H 0.6025 0.5153 0.1572 0.060 Uiso 1 1 calc R . .
C62 C 0.5760(5) 0.4390(5) 0.2434(4) 0.047(2) Uani 1 1 d . . .
H62 H 0.5740 0.4692 0.2677 0.056 Uiso 1 1 calc R . .
C63 C 0.4813(4) 0.3687(4) 0.3658(3) 0.0353(17) Uani 1 1 d . . .
C64 C 0.4279(5) 0.4200(5) 0.3224(4) 0.044(2) Uani 1 1 d . . .
H64 H 0.4314 0.4420 0.2763 0.053 Uiso 1 1 calc R . .
C65 C 0.3730(4) 0.4307(5) 0.3589(4) 0.043(2) Uani 1 1 d . . .
H65 H 0.3300 0.4611 0.3436 0.052 Uiso 1 1 calc R . .
C66 C 0.3915(4) 0.3865(4) 0.4280(4) 0.0360(17) Uani 1 1 d . . .
C67 C 0.3462(4) 0.3798(4) 0.4818(4) 0.0349(16) Uani 1 1 d . . .
C68 C 0.2777(4) 0.4290(4) 0.4669(3) 0.0324(16) Uani 1 1 d . . .
C69 C 0.2760(5) 0.5006(5) 0.4616(6) 0.060(3) Uani 1 1 d . . .
H69 H 0.3176 0.5181 0.4726 0.072 Uiso 1 1 calc R . .
C70 C 0.2147(5) 0.5449(5) 0.4407(6) 0.064(3) Uani 1 1 d . . .
H70 H 0.2156 0.5938 0.4356 0.077 Uiso 1 1 calc R . .
C71 C 0.0892(5) 0.5748(5) 0.3995(4) 0.047(2) Uani 1 1 d . . .
C72 C 0.1522(4) 0.4519(5) 0.4364(4) 0.0432(19) Uani 1 1 d . . .
H72 H 0.1082 0.4353 0.4287 0.052 Uiso 1 1 calc R . .
C73 C 0.2117(5) 0.4039(5) 0.4566(4) 0.0434(19) Uani 1 1 d . . .
H73 H 0.2088 0.3547 0.4635 0.052 Uiso 1 1 calc R . .
C74 C 0.3571(4) 0.3310(4) 0.5480(4) 0.0350(16) Uani 1 1 d . . .
C75 C 0.3055(5) 0.3217(5) 0.6011(4) 0.0414(18) Uani 1 1 d . . .
H75 H 0.2603 0.3486 0.5991 0.050 Uiso 1 1 calc R . .
C76 C 0.3345(4) 0.2672(5) 0.6540(4) 0.0401(18) Uani 1 1 d . . .
H76 H 0.3138 0.2497 0.6963 0.048 Uiso 1 1 calc R . .
C77 C 0.4031(4) 0.2400(4) 0.6343(3) 0.0324(16) Uani 1 1 d . . .
C78 C 0.4488(4) 0.1785(4) 0.6721(3) 0.0302(15) Uani 1 1 d . . .
C79 C 0.4262(4) 0.1418(4) 0.7419(3) 0.0340(16) Uani 1 1 d . . .
C80 C 0.4233(5) 0.1758(5) 0.7878(4) 0.0413(18) Uani 1 1 d . . .
H80 H 0.4343 0.2245 0.7744 0.050 Uiso 1 1 calc R . .
C81 C 0.4050(4) 0.1389(5) 0.8510(4) 0.0415(19) Uani 1 1 d . . .
H81 H 0.4036 0.1622 0.8813 0.050 Uiso 1 1 calc R . .
C82 C 0.3680(6) 0.0311(6) 0.9420(4) 0.061(3) Uani 1 1 d . . .
H82A H 0.3733 -0.0210 0.9534 0.091 Uiso 1 1 calc R . .
H82B H 0.3175 0.0460 0.9486 0.091 Uiso 1 1 calc R . .
H82C H 0.3998 0.0439 0.9699 0.091 Uiso 1 1 calc R . .
C83 C 0.3905(5) 0.0340(5) 0.8305(4) 0.047(2) Uani 1 1 d . . .
H83 H 0.3793 -0.0147 0.8459 0.056 Uiso 1 1 calc R . .
C84 C 0.4090(4) 0.0686(4) 0.7647(4) 0.0379(17) Uani 1 1 d . . .
H84 H 0.4100 0.0437 0.7357 0.045 Uiso 1 1 calc R . .
C85 C 0.5110(4) 0.1478(4) 0.6532(3) 0.0318(16) Uani 1 1 d . . .
C86 C 0.5555(4) 0.0828(4) 0.6930(3) 0.0375(17) Uani 1 1 d . . .
H86 H 0.5467 0.0537 0.7372 0.045 Uiso 1 1 calc R . .
C87 C 0.6108(4) 0.0714(4) 0.6561(4) 0.0380(18) Uani 1 1 d . . .
H87 H 0.6483 0.0337 0.6699 0.046 Uiso 1 1 calc R . .
C88 C 0.6023(4) 0.1279(4) 0.5909(3) 0.0314(16) Uani 1 1 d . . .
C89 C 0.8773(4) 0.2287(4) 0.5794(4) 0.0368(18) Uani 1 1 d . . .
C90 C 0.8216(4) 0.2048(4) 0.6339(4) 0.0368(17) Uani 1 1 d . . .
C91 C 0.7561(4) 0.2452(4) 0.6326(4) 0.0355(17) Uani 1 1 d . . .
H91 H 0.7440 0.2878 0.5959 0.043 Uiso 1 1 calc R . .
C92 C 0.7089(4) 0.2233(4) 0.6848(3) 0.0342(17) Uani 1 1 d . . .
H92 H 0.6652 0.2519 0.6843 0.041 Uiso 1 1 calc R . .
C93 C 0.7249(4) 0.1588(4) 0.7389(4) 0.0325(16) Uani 1 1 d . . .
C94 C 0.7885(5) 0.1180(5) 0.7380(4) 0.055(3) Uani 1 1 d . . .
H94 H 0.7996 0.0737 0.7733 0.066 Uiso 1 1 calc R . .
C95 C 0.8366(5) 0.1411(5) 0.6859(5) 0.051(2) Uani 1 1 d . . .
H95 H 0.8802 0.1125 0.6863 0.062 Uiso 1 1 calc R . .
C96 C 0.6741(4) 0.1356(4) 0.7963(3) 0.0274(15) Uani 1 1 d . . .
C97 C 0.6475(4) 0.1833(4) 0.8253(3) 0.0296(15) Uani 1 1 d . . .
H97 H 0.6617 0.2311 0.8084 0.036 Uiso 1 1 calc R . .
C98 C 0.5998(4) 0.1623(3) 0.8795(3) 0.0267(14) Uani 1 1 d . . .
C99 C 0.5778(4) 0.0915(3) 0.9027(3) 0.0237(13) Uani 1 1 d . . .
H99 H 0.5443 0.0766 0.9377 0.028 Uiso 1 1 calc R . .
C100 C 0.6053(4) 0.0437(3) 0.8742(3) 0.0234(13) Uani 1 1 d . . .
C101 C 0.6539(4) 0.0644(4) 0.8218(3) 0.0271(14) Uani 1 1 d . . .
H101 H 0.6730 0.0308 0.8036 0.033 Uiso 1 1 calc R . .
C102 C 0.5808(4) -0.0329(4) 0.8990(3) 0.0241(14) Uani 1 1 d . . .
C103 C 0.5738(4) 0.2132(4) 0.9113(3) 0.0282(16) Uani 1 1 d . . .
C104 C 1.4073(4) 0.2848(4) 0.0841(3) 0.0248(14) Uani 1 1 d . . .
C105 C 0.9186(4) -0.0336(4) 0.4228(3) 0.0310(16) Uani 1 1 d . . .
N1 N 0.4152(3) 0.2802(3) 0.5697(3) 0.0328(14) Uani 1 1 d . . .
N2 N 0.4578(3) 0.3506(3) 0.4284(3) 0.0330(13) Uani 1 1 d . . .
N3 N 0.5855(3) 0.2430(3) 0.4520(3) 0.0338(14) Uani 1 1 d . . .
N4 N 0.5421(3) 0.1728(3) 0.5913(3) 0.0338(14) Uani 1 1 d . . .
N5 N 0.1534(4) 0.5234(4) 0.4269(3) 0.0380(15) Uani 1 1 d . . .
N6 N 0.5982(4) 0.4231(5) 0.1421(3) 0.055(2) Uani 1 1 d . . .
N7 N 0.8250(4) -0.0273(4) 0.5780(3) 0.0426(16) Uani 1 1 d . . .
N8 N 0.3884(4) 0.0684(4) 0.8719(3) 0.0396(15) Uani 1 1 d . . .
O1 O 1.1097(3) 0.2341(3) 0.4489(3) 0.0553(17) Uani 1 1 d . . .
O2 O 1.0459(3) 0.3421(3) 0.3961(2) 0.0362(12) Uani 1 1 d . . .
O3 O 1.3767(4) 0.5828(3) 0.1030(4) 0.077(3) Uani 1 1 d . . .
O4 O 1.4671(3) 0.5482(3) 0.0530(2) 0.0342(12) Uani 1 1 d . . .
O5 O 1.4505(3) 0.3016(3) 0.0358(2) 0.0378(12) Uani 1 1 d . . .
O6 O 1.3834(3) 0.2241(3) 0.1084(2) 0.0346(11) Uani 1 1 d . . .
O7 O 0.8770(3) 0.4411(3) 0.3816(3) 0.0460(14) Uani 1 1 d . . .
O8 O 0.9501(3) 0.4547(3) 0.4517(3) 0.0420(13) Uani 1 1 d . . .
O9 O 0.9671(3) 0.6960(3) 0.4611(3) 0.0395(12) Uani 1 1 d . . .
O10 O 0.9123(4) 0.7931(3) 0.3866(3) 0.0447(14) Uani 1 1 d . . .
O11 O 0.7295(4) 0.8302(5) -0.0180(3) 0.072(2) Uani 1 1 d . . .
O12 O 0.6304(3) 0.7796(4) 0.0337(3) 0.0494(15) Uani 1 1 d . . .
O13 O 0.8863(4) 0.2894(3) 0.3783(3) 0.0547(16) Uani 1 1 d . . .
O14 O 0.9583(5) 0.2059(4) 0.4460(3) 0.073(2) Uani 1 1 d U . .
O15 O 0.9822(3) -0.0491(3) 0.443