####################################################################### 
# 
# This file contains crystal structure data downloaded from the 
# Cambridge Structural Database (CSD) hosted by the Cambridge 
# Crystallographic Data Centre (CCDC).
# 
# Full information about CCDC data access policies and citation 
# guidelines are available at http://www.ccdc.cam.ac.uk/access/V1 
# 
# Audit and citation data items may have been added by the CCDC. 
# Please retain this information to preserve the provenance of 
# this file and to allow appropriate attribution of the data. 
# 
#######################################################################

data_q57
_audit_block_doi                 10.5517/ccx661b
_database_code_depnum_ccdc_archive 'CCDC 840101'
loop_
_citation_id
_citation_doi
_citation_year
1 10.1002/anie.201203309 2012
_audit_update_record             
;
2011-08-17 deposited with the CCDC.	2024-07-10 downloaded from the CCDC.
;
#TrackingRef 'q57.cif'


_audit_creation_method           SHELXL-97
_chemical_name_systematic        
;
?
;
_chemical_name_common            ?
_chemical_melting_point          ?
_chemical_formula_moiety         ?
_chemical_formula_sum            'C74 H85 Mn4 Mo2 N34 O12.83'
_chemical_formula_weight         2067.73

loop_
_atom_type_symbol
_atom_type_description
_atom_type_scat_dispersion_real
_atom_type_scat_dispersion_imag
_atom_type_scat_source
C C 0.0033 0.0016 'International Tables Vol C Tables 4.2.6.8 and 6.1.1.4'
H H 0.0000 0.0000 'International Tables Vol C Tables 4.2.6.8 and 6.1.1.4'
Mn Mn 0.3368 0.7283 'International Tables Vol C Tables 4.2.6.8 and 6.1.1.4'
Mo Mo -1.6832 0.6857 'International Tables Vol C Tables 4.2.6.8 and 6.1.1.4'
N N 0.0061 0.0033 'International Tables Vol C Tables 4.2.6.8 and 6.1.1.4'
O O 0.0106 0.0060 'International Tables Vol C Tables 4.2.6.8 and 6.1.1.4'

_symmetry_cell_setting           ?
_symmetry_space_group_name_H-M   ?

loop_
_symmetry_equiv_pos_as_xyz
'x, y, z'
'-y, x-y, z'
'-x+y, -x, z'
'x+2/3, y+1/3, z+1/3'
'-y+2/3, x-y+1/3, z+1/3'
'-x+y+2/3, -x+1/3, z+1/3'
'x+1/3, y+2/3, z+2/3'
'-y+1/3, x-y+2/3, z+2/3'
'-x+y+1/3, -x+2/3, z+2/3'
'-x, -y, -z'
'y, -x+y, -z'
'x-y, x, -z'
'-x+2/3, -y+1/3, -z+1/3'
'y+2/3, -x+y+1/3, -z+1/3'
'x-y+2/3, x+1/3, -z+1/3'
'-x+1/3, -y+2/3, -z+2/3'
'y+1/3, -x+y+2/3, -z+2/3'
'x-y+1/3, x+2/3, -z+2/3'

_cell_length_a                   32.089(3)
_cell_length_b                   32.089(3)
_cell_length_c                   53.420(11)
_cell_angle_alpha                90.00
_cell_angle_beta                 90.00
_cell_angle_gamma                120.00
_cell_volume                     47637(12)
_cell_formula_units_Z            18
_cell_measurement_temperature    293(2)
_cell_measurement_reflns_used    ?
_cell_measurement_theta_min      ?
_cell_measurement_theta_max      ?

_exptl_crystal_description       ?
_exptl_crystal_colour            ?
_exptl_crystal_size_max          0.30
_exptl_crystal_size_mid          0.26
_exptl_crystal_size_min          0.24
_exptl_crystal_density_meas      ?
_exptl_crystal_density_diffrn    1.297
_exptl_crystal_density_method    'not measured'
_exptl_crystal_F_000             18959
_exptl_absorpt_coefficient_mu    0.758
_exptl_absorpt_correction_type   ?
_exptl_absorpt_correction_T_min  0.8045
_exptl_absorpt_correction_T_max  0.8390
_exptl_absorpt_process_details   ?

_exptl_special_details           
;
?
;

_diffrn_ambient_temperature      293(2)
_diffrn_radiation_wavelength     0.71073
_diffrn_radiation_type           MoK\a
_diffrn_radiation_source         'fine-focus sealed tube'
_diffrn_radiation_monochromator  graphite
_diffrn_measurement_device_type  ?
_diffrn_measurement_method       ?
_diffrn_detector_area_resol_mean ?
_diffrn_standards_number         ?
_diffrn_standards_interval_count ?
_diffrn_standards_interval_time  ?
_diffrn_standards_decay_%        ?
_diffrn_reflns_number            128166
_diffrn_reflns_av_R_equivalents  0.0735
_diffrn_reflns_av_sigmaI/netI    0.0412
_diffrn_reflns_limit_h_min       -35
_diffrn_reflns_limit_h_max       35
_diffrn_reflns_limit_k_min       -35
_diffrn_reflns_limit_k_max       35
_diffrn_reflns_limit_l_min       -58
_diffrn_reflns_limit_l_max       58
_diffrn_reflns_theta_min         2.20
_diffrn_reflns_theta_max         23.16
_reflns_number_total             14960
_reflns_number_gt                10415
_reflns_threshold_expression     >2sigma(I)

_computing_data_collection       ?
_computing_cell_refinement       ?
_computing_data_reduction        ?
_computing_structure_solution    'SHELXS-97 (Sheldrick, 1990)'
_computing_structure_refinement  'SHELXL-97 (Sheldrick, 1997)'
_computing_molecular_graphics    ?
_computing_publication_material  ?

_refine_special_details          
;
Refinement of F^2^ against ALL reflections. The weighted R-factor wR and
goodness of fit S are based on F^2^, conventional R-factors R are based
on F, with F set to zero for negative F^2^. The threshold expression of
F^2^ > 2sigma(F^2^) is used only for calculating R-factors(gt) etc. and is
not relevant to the choice of reflections for refinement. R-factors based
on F^2^ are statistically about twice as large as those based on F, and R-
factors based on ALL data will be even larger.
;

_refine_ls_structure_factor_coef Fsqd
_refine_ls_matrix_type           full
_refine_ls_weighting_scheme      calc
_refine_ls_weighting_details     
'calc w=1/[\s^2^(Fo^2^)+(0.1631P)^2^+713.9277P] where P=(Fo^2^+2Fc^2^)/3'
_atom_sites_solution_primary     direct
_atom_sites_solution_secondary   difmap
_atom_sites_solution_hydrogens   geom
_refine_ls_hydrogen_treatment    mixed
_refine_ls_extinction_method     none
_refine_ls_extinction_coef       ?
_refine_ls_number_reflns         14960
_refine_ls_number_parameters     1278
_refine_ls_number_restraints     6
_refine_ls_R_factor_all          0.1193
_refine_ls_R_factor_gt           0.0836
_refine_ls_wR_factor_ref         0.2889
_refine_ls_wR_factor_gt          0.2499
_refine_ls_goodness_of_fit_ref   1.069
_refine_ls_restrained_S_all      1.070
_refine_ls_shift/su_max          6.299
_refine_ls_shift/su_mean         0.028

loop_
_atom_site_label
_atom_site_type_symbol
_atom_site_fract_x
_atom_site_fract_y
_atom_site_fract_z
_atom_site_U_iso_or_equiv
_atom_site_adp_type
_atom_site_occupancy
_atom_site_symmetry_multiplicity
_atom_site_calc_flag
_atom_site_refinement_flags
_atom_site_disorder_assembly
_atom_site_disorder_group
Mo1 Mo 0.86604(3) 0.17136(3) 0.054087(14) 0.0478(3) Uani 1 1 d . . .
Mo2 Mo 0.53000(3) -0.03405(3) 0.112444(17) 0.0554(3) Uani 1 1 d . . .
Mn1 Mn 0.88543(7) 0.34676(6) 0.05488(3) 0.0730(5) Uani 1 1 d . . .
Mn2 Mn 0.78118(5) 0.00006(5) 0.01155(2) 0.0458(4) Uani 1 1 d . . .
Mn3 Mn 0.71566(5) 0.10227(5) 0.11076(3) 0.0545(4) Uani 1 1 d . . .
Mn4 Mn 0.56483(5) -0.12885(5) 0.17985(3) 0.0489(4) Uani 1 1 d . . .
O1 O 0.8719(3) 0.4087(3) 0.0637(3) 0.125(4) Uani 1 1 d . . .
H1 H 0.8944 0.4339 0.0583 0.03(2) Uiso 1 1 calc R . .
N1 N 0.7896(3) 0.0609(3) 0.03524(14) 0.0528(19) Uani 1 1 d . . .
N2 N 0.7843(3) 0.1627(3) 0.09444(17) 0.062(2) Uani 1 1 d . . .
N3 N 0.8039(7) 0.1788(4) 0.0068(3) 0.154(7) Uani 1 1 d . . .
N4 N 0.8928(4) 0.2830(3) 0.04774(17) 0.078(3) Uani 1 1 d . . .
N5 N 0.9694(4) 0.2405(3) 0.08380(18) 0.074(3) Uani 1 1 d . . .
N6 N 0.9396(3) 0.1663(3) 0.01263(15) 0.061(2) Uani 1 1 d . . .
N7 N 0.8847(3) 0.0972(3) 0.09011(17) 0.062(2) Uani 1 1 d . . .
N8 N 0.6458(3) 0.0396(3) 0.12280(15) 0.062(2) Uani 1 1 d . . .
N9 N 0.5855(4) -0.0847(4) 0.0838(2) 0.084(3) Uani 1 1 d . . .
N10 N 0.5181(3) -0.1137(3) 0.15563(17) 0.060(2) Uani 1 1 d . . .
N11 N 0.4485(3) -0.1222(3) 0.07689(19) 0.077(3) Uani 1 1 d . . .
N12 N 0.4231(3) -0.0546(3) 0.12922(16) 0.059(2) Uani 1 1 d . . .
N13 N 0.5415(4) 0.0387(6) 0.1592(3) 0.161(8) Uani 1 1 d . . .
N14 N 0.5440(4) 0.0478(4) 0.0712(3) 0.100(4) Uani 1 1 d . . .
N15 N 0.8052(5) 0.2895(5) 0.0642(3) 0.118(4) Uani 1 1 d . . .
N16 N 0.8845(5) 0.3364(5) 0.0980(2) 0.108(4) Uani 1 1 d . . .
N17 N 0.9636(4) 0.3893(4) 0.0680(2) 0.088(3) Uani 1 1 d . . .
N18 N 0.9338(5) 0.3919(4) 0.0233(2) 0.091(3) Uani 1 1 d . . .
N19 N 0.8422(5) 0.3359(5) 0.0190(3) 0.117(5) Uani 1 1 d . . .
N20 N 0.7631(4) 0.0285(4) -0.02444(17) 0.075(3) Uani 1 1 d . . .
N21 N 0.8558(3) 0.0552(3) -0.00451(18) 0.071(2) Uani 1 1 d . . .
N22 N 0.8397(3) -0.0030(3) 0.03583(17) 0.063(2) Uani 1 1 d . . .
N23 N 0.7471(3) -0.0531(3) 0.04302(15) 0.057(2) Uani 1 1 d . . .
N24 N 0.7003(3) -0.0302(3) 0.01159(17) 0.064(2) Uani 1 1 d . . .
N25 N 0.6954(4) 0.1559(4) 0.1268(2) 0.092(3) Uani 1 1 d . . .
N26 N 0.7448(3) 0.1214(4) 0.14964(17) 0.080(3) Uani 1 1 d . . .
N27 N 0.7540(3) 0.0604(4) 0.1210(2) 0.076(3) Uani 1 1 d . . .
N28 N 0.7135(3) 0.0600(4) 0.07581(17) 0.075(3) Uani 1 1 d . . .
N29 N 0.6653(4) 0.1112(4) 0.0821(3) 0.098(4) Uani 1 1 d . . .
N30 N 0.5366(3) -0.2054(3) 0.16430(18) 0.067(2) Uani 1 1 d . . .
N31 N 0.6112(3) -0.1171(4) 0.14446(18) 0.076(3) Uani 1 1 d . . .
N32 N 0.6253(3) -0.0500(3) 0.17986(15) 0.0523(19) Uani 1 1 d . . .
N33 N 0.5549(3) -0.0883(3) 0.21163(14) 0.0468(18) Uani 1 1 d . . .
N34 N 0.5006(3) -0.1805(3) 0.20403(17) 0.060(2) Uani 1 1 d . . .
C1 C 0.8160(3) 0.0992(3) 0.04232(15) 0.044(2) Uani 1 1 d . . .
C2 C 0.8145(3) 0.1676(3) 0.08092(17) 0.046(2) Uani 1 1 d . . .
C3 C 0.8263(6) 0.1764(4) 0.0231(3) 0.098(5) Uani 1 1 d . . .
C4 C 0.8847(4) 0.2441(3) 0.04965(18) 0.058(3) Uani 1 1 d . . .
C5 C 0.9321(4) 0.2162(4) 0.0748(2) 0.062(3) Uani 1 1 d . . .
C6 C 0.9136(3) 0.1694(3) 0.02685(17) 0.051(2) Uani 1 1 d . . .
C7 C 0.8775(3) 0.1228(3) 0.07779(18) 0.049(2) Uani 1 1 d . . .
C8 C 0.6054(4) 0.0124(3) 0.11976(18) 0.052(2) Uani 1 1 d . . .
C9 C 0.5674(3) -0.0653(4) 0.0930(2) 0.061(3) Uani 1 1 d . . .
C10 C 0.5216(3) -0.0858(4) 0.1410(2) 0.058(3) Uani 1 1 d . . .
C11 C 0.4767(4) -0.0915(4) 0.0887(2) 0.063(3) Uani 1 1 d . . .
C12 C 0.4597(3) -0.0461(3) 0.12282(19) 0.052(2) Uani 1 1 d . . .
C13 C 0.5374(4) 0.0107(6) 0.1417(3) 0.098(4) Uani 1 1 d U . .
C14 C 0.5390(4) 0.0169(4) 0.0850(3) 0.071(3) Uani 1 1 d . . .
C15 C 0.7986(7) 0.2892(7) 0.0896(4) 0.136(7) Uani 1 1 d . . .
H15A H 0.7693 0.2598 0.0939 0.11(5) Uiso 1 1 calc R . .
H15B H 0.7940 0.3160 0.0938 0.21(11) Uiso 1 1 calc R . .
C16 C 0.8388(7) 0.2923(6) 0.1054(4) 0.124(6) Uani 1 1 d . . .
H16A H 0.8418 0.2640 0.1030 1.7(18) Uiso 1 1 calc R . .
H16B H 0.8322 0.2941 0.1230 2(3) Uiso 1 1 calc R . .
C17 C 0.9298(7) 0.3397(9) 0.1037(3) 0.125(6) Uani 1 1 d . . .
H17A H 0.9326 0.3384 0.1217 0.17(7) Uiso 1 1 calc R . .
H17B H 0.9299 0.3118 0.0966 0.20(10) Uiso 1 1 calc R . .
C18 C 0.9697(6) 0.3810(7) 0.0948(3) 0.104(5) Uani 1 1 d . . .
H18A H 0.9981 0.3779 0.0966 0.10(4) Uiso 1 1 calc R . .
H18B H 0.9745 0.4084 0.1046 2(2) Uiso 1 1 calc R . .
C19 C 0.9973(5) 0.4171(5) 0.0537(3) 0.085(4) Uani 1 1 d . . .
C20 C 1.0476(5) 0.4467(8) 0.0615(4) 0.151(8) Uani 1 1 d . . .
H20A H 1.0587 0.4798 0.0575 2(2) Uiso 1 1 calc R . .
H20B H 1.0670 0.4362 0.0528 0.09(4) Uiso 1 1 calc R . .
H20C H 1.0502 0.4434 0.0792 0.31(17) Uiso 1 1 calc R . .
C21 C 0.9815(6) 0.4194(5) 0.0282(3) 0.089(4) Uani 1 1 d . . .
C22 C 1.0109(8) 0.4469(6) 0.0087(5) 0.128(7) Uani 1 1 d . . .
H22 H 1.0436 0.4671 0.0115 0.07(3) Uiso 1 1 calc R . .
C23 C 0.9908(10) 0.4444(7) -0.0160(4) 0.131(7) Uani 1 1 d . . .
H23 H 1.0110 0.4621 -0.0291 0.09(4) Uiso 1 1 calc R . .
C24 C 0.9421(9) 0.4161(7) -0.0201(4) 0.120(6) Uani 1 1 d . . .
H24 H 0.9280 0.4141 -0.0356 0.13(6) Uiso 1 1 calc R . .
C25 C 0.9160(7) 0.3907(6) 0.0006(4) 0.113(6) Uani 1 1 d . . .
C26 C 0.8629(9) 0.3569(7) -0.0006(4) 0.126(7) Uani 1 1 d . . .
C27 C 0.8327(9) 0.3482(10) -0.0241(4) 0.200(13) Uani 1 1 d . . .
H27A H 0.8289 0.3202 -0.0326 0.13(6) Uiso 1 1 calc R . .
H27B H 0.8486 0.3756 -0.0350 0.18(9) Uiso 1 1 calc R . .
H27C H 0.8017 0.3434 -0.0196 2(2) Uiso 1 1 calc R . .
C28 C 0.7891(8) 0.2998(8) 0.0216(5) 0.178(11) Uani 1 1 d . . .
H28A H 0.7703 0.3098 0.0117 0.20(9) Uiso 1 1 calc R . .
H28B H 0.7824 0.2684 0.0157 0.18(9) Uiso 1 1 calc R . .
C29 C 0.7764(7) 0.2971(11) 0.0480(5) 0.181(11) Uani 1 1 d . . .
H29A H 0.7775 0.3269 0.0526 2(2) Uiso 1 1 calc R . .
H29B H 0.7435 0.2713 0.0501 0.14(6) Uiso 1 1 calc R . .
C30 C 0.6812(4) -0.0122(4) -0.0076(2) 0.074(3) Uani 1 1 d . . .
H30A H 0.6568 -0.0064 -0.0005 0.09(4) Uiso 1 1 calc R . .
H30B H 0.6663 -0.0361 -0.0208 0.07(3) Uiso 1 1 calc R . .
C31 C 0.7214(5) 0.0339(5) -0.0185(2) 0.084(4) Uani 1 1 d . . .
H31A H 0.7102 0.0421 -0.0336 0.09(4) Uiso 1 1 calc R . .
H31B H 0.7307 0.0599 -0.0066 0.16(7) Uiso 1 1 calc R . .
C32 C 0.8059(6) 0.0699(5) -0.0332(3) 0.099(5) Uani 1 1 d . . .
H32A H 0.8119 0.0978 -0.0234 0.08(4) Uiso 1 1 calc R . .
H32B H 0.8018 0.0761 -0.0505 0.12(5) Uiso 1 1 calc R . .
C33 C 0.8491(6) 0.0615(5) -0.0309(3) 0.100(5) Uani 1 1 d . . .
H33A H 0.8429 0.0330 -0.0402 0.08(4) Uiso 1 1 calc R . .
H33B H 0.8779 0.0888 -0.0376 0.15(6) Uiso 1 1 calc R . .
C34 C 0.8891(4) 0.0389(5) -0.0002(3) 0.089(4) Uani 1 1 d . . .
H34A H 0.9211 0.0632 -0.0054 0.18(8) Uiso 1 1 calc R . .
H34B H 0.8798 0.0098 -0.0097 0.10(4) Uiso 1 1 calc R . .
C35 C 0.8885(4) 0.0290(5) 0.0277(2) 0.086(4) Uani 1 1 d . . .
H35A H 0.9082 0.0145 0.0310 0.09(4) Uiso 1 1 calc R . .
H35B H 0.9019 0.0590 0.0369 2(2) Uiso 1 1 calc R . .
C36 C 0.8283(5) -0.0268(5) 0.0554(2) 0.080(4) Uani 1 1 d . . .
C37 C 0.8617(7) -0.0290(7) 0.0749(3) 0.114(6) Uani 1 1 d . . .
H37A H 0.8608 -0.0592 0.0736 0.16(7) Uiso 1 1 calc R . .
H37B H 0.8514 -0.0258 0.0913 0.4(2) Uiso 1 1 calc R . .
H37C H 0.8939 -0.0032 0.0721 0.14(7) Uiso 1 1 calc R . .
C38 C 0.7753(4) -0.0574(4) 0.06022(17) 0.060(3) Uani 1 1 d . . .
C39 C 0.7543(7) -0.0890(5) 0.0801(2) 0.093(5) Uani 1 1 d . . .
H39 H 0.7732 -0.0923 0.0922 0.11(5) Uiso 1 1 calc R . .
C40 C 0.7031(7) -0.1161(5) 0.0815(3) 0.100(5) Uani 1 1 d . . .
H40 H 0.6882 -0.1374 0.0947 0.18(8) Uiso 1 1 calc R . .
C41 C 0.6769(5) -0.1111(5) 0.0641(3) 0.085(4) Uani 1 1 d . . .
H41 H 0.6435 -0.1294 0.0647 0.12(5) Uiso 1 1 calc R . .
C42 C 0.6996(4) -0.0778(4) 0.0444(2) 0.065(3) Uani 1 1 d . . .
C43 C 0.6736(4) -0.0667(4) 0.0252(2) 0.064(3) Uani 1 1 d . . .
C44 C 0.6198(4) -0.0964(5) 0.0231(3) 0.093(4) Uani 1 1 d . . .
H44A H 0.6112 -0.1065 0.0060 0.22(11) Uiso 1 1 calc R . .
H44B H 0.6057 -0.0775 0.0282 0.13(6) Uiso 1 1 calc R . .
H44C H 0.6083 -0.1242 0.0336 0.19(9) Uiso 1 1 calc R . .
C45 C 0.6736(6) 0.0958(8) 0.0571(3) 0.126(7) Uani 1 1 d . . .
H45A H 0.6477 0.0905 0.0458 0.11(4) Uiso 1 1 calc R . .
H45B H 0.7036 0.1209 0.0501 0.11(5) Uiso 1 1 calc R . .
C46 C 0.6755(7) 0.0513(7) 0.0597(3) 0.121(6) Uani 1 1 d . . .
H46A H 0.6454 0.0260 0.0666 0.08(3) Uiso 1 1 calc R . .
H46B H 0.6805 0.0410 0.0435 2(3) Uiso 1 1 calc R . .
C47 C 0.7133(6) 0.0169(5) 0.0836(3) 0.108(6) Uani 1 1 d . . .
H47A H 0.7173 0.0010 0.0691 1.1(9) Uiso 1 1 calc R . .
H47B H 0.6826 -0.0050 0.0913 0.08(3) Uiso 1 1 calc R . .
C48 C 0.7544(5) 0.0293(5) 0.1024(3) 0.095(4) Uani 1 1 d . . .
H48A H 0.7502 0.0001 0.1101 0.10(4) Uiso 1 1 calc R . .
H48B H 0.7851 0.0448 0.0937 0.06(3) Uiso 1 1 calc R . .
C49 C 0.7765(4) 0.0702(6) 0.1423(3) 0.092(5) Uani 1 1 d . . .
C50 C 0.8079(6) 0.0504(9) 0.1513(4) 0.129(7) Uani 1 1 d . . .
H50A H 0.8018 0.0230 0.1413 0.15(9) Uiso 1 1 calc R . .
H50B H 0.8007 0.0409 0.1685 0.30(16) Uiso 1 1 calc R . .
H50C H 0.8411 0.0748 0.1498 2(2) Uiso 1 1 calc R . .
C51 C 0.7707(4) 0.1042(5) 0.1588(2) 0.080(4) Uani 1 1 d . . .
C52 C 0.7910(4) 0.1186(6) 0.1841(3) 0.107(5) Uani 1 1 d . . .
H52 H 0.8112 0.1085 0.1909 0.04(3) Uiso 1 1 calc R . .
C53 C 0.7787(5) 0.1473(7) 0.1966(3) 0.109(6) Uani 1 1 d . . .
H53 H 0.7896 0.1554 0.2130 0.14(6) Uiso 1 1 calc R . .
C54 C 0.7512(5) 0.1654(7) 0.1870(3) 0.109(5) Uani 1 1 d . . .
H54 H 0.7450 0.1865 0.1961 0.07(3) Uiso 1 1 calc R . .
C55 C 0.7334(4) 0.1505(5) 0.1634(2) 0.083(4) Uani 1 1 d . . .
C56 C 0.7024(5) 0.1640(6) 0.1495(3) 0.101(5) Uani 1 1 d . . .
C57 C 0.6821(10) 0.1902(12) 0.1665(6) 0.189(11) Uani 1 1 d . . .
H57A H 0.6949 0.2227 0.1609 0.21(13) Uiso 1 1 calc R . .
H57B H 0.6915 0.1902 0.1836 2(3) Uiso 1 1 calc R . .
H57C H 0.6476 0.1735 0.1654 2(3) Uiso 1 1 calc R . .
C58 C 0.6650(6) 0.1669(6) 0.1107(4) 0.108(5) Uani 1 1 d . . .
H58A H 0.6315 0.1466 0.1154 2(3) Uiso 1 1 calc R . .
H58B H 0.6734 0.2002 0.1132 0.11(5) Uiso 1 1 calc R . .
C59 C 0.6711(6) 0.1592(7) 0.0849(4) 0.129(7) Uani 1 1 d . . .
H59A H 0.7029 0.1834 0.0793 0.23(11) Uiso 1 1 calc R . .
H59B H 0.6474 0.1618 0.0748 0.11(4) Uiso 1 1 calc R . .
C60 C 0.4917(3) -0.1654(4) 0.2245(2) 0.059(3) Uani 1 1 d . . .
C61 C 0.4554(5) -0.1959(5) 0.2437(2) 0.084(4) Uani 1 1 d . . .
H61A H 0.4400 -0.2290 0.2387 0.09(4) Uiso 1 1 calc R . .
H61B H 0.4317 -0.1861 0.2453 0.08(3) Uiso 1 1 calc R . .
H61C H 0.4711 -0.1921 0.2595 2(2) Uiso 1 1 calc R . .
C62 C 0.5207(3) -0.1128(4) 0.22916(18) 0.056(2) Uani 1 1 d . . .
C63 C 0.5155(4) -0.0891(5) 0.2497(2) 0.069(3) Uani 1 1 d . . .
H63 H 0.4924 -0.1058 0.2619 0.06(3) Uiso 1 1 calc R . .
C64 C 0.5448(5) -0.0412(5) 0.2512(2) 0.078(3) Uani 1 1 d . . .
H64 H 0.5415 -0.0247 0.2647 0.06(3) Uiso 1 1 calc R . .
C65 C 0.5791(4) -0.0161(4) 0.2339(2) 0.072(3) Uani 1 1 d . . .
H65 H 0.5988 0.0171 0.2354 0.08(4) Uiso 1 1 calc R . .
C66 C 0.5842(3) -0.0408(3) 0.21368(19) 0.055(2) Uani 1 1 d . . .
C67 C 0.6217(3) -0.0193(3) 0.19380(19) 0.052(2) Uani 1 1 d . . .
C68 C 0.6501(4) 0.0349(4) 0.1913(3) 0.076(3) Uani 1 1 d . . .
H68A H 0.6696 0.0485 0.2060 0.17(7) Uiso 1 1 calc R . .
H68B H 0.6283 0.0471 0.1897 2(2) Uiso 1 1 calc R . .
H68C H 0.6703 0.0436 0.1768 0.05(3) Uiso 1 1 calc R . .
C69 C 0.6617(3) -0.0361(4) 0.16019(19) 0.059(3) Uani 1 1 d . . .
H69A H 0.6933 -0.0146 0.1670 0.06(3) Uiso 1 1 calc R . .
H69B H 0.6555 -0.0191 0.1470 0.04(2) Uiso 1 1 calc R . .
C70 C 0.6601(4) -0.0796(5) 0.1499(2) 0.082(4) Uani 1 1 d . . .
H70A H 0.6791 -0.0712 0.1347 0.16(7) Uiso 1 1 calc R . .
H70B H 0.6742 -0.0916 0.1619 1.3(11) Uiso 1 1 calc R . .
C71 C 0.6031(5) -0.1637(5) 0.1351(3) 0.085(4) Uani 1 1 d . . .
H71A H 0.6226 -0.1736 0.1445 0.14(6) Uiso 1 1 calc R . .
H71B H 0.6125 -0.1607 0.1176 0.05(3) Uiso 1 1 calc R . .
C72 C 0.5508(5) -0.2008(5) 0.1377(3) 0.090(4) Uani 1 1 d . . .
H72A H 0.5315 -0.1914 0.1279 0.10(4) Uiso 1 1 calc R . .
H72B H 0.5453 -0.2316 0.1315 0.11(5) Uiso 1 1 calc R . .
C73 C 0.4857(4) -0.2332(4) 0.1693(3) 0.080(3) Uani 1 1 d . . .
H7