####################################################################### 
# 
# This file contains crystal structure data downloaded from the 
# Cambridge Structural Database (CSD) hosted by the Cambridge 
# Crystallographic Data Centre (CCDC).
# 
# Full information about CCDC data access policies and citation 
# guidelines are available at http://www.ccdc.cam.ac.uk/access/V1 
# 
# Audit and citation data items may have been added by the CCDC. 
# Please retain this information to preserve the provenance of 
# this file and to allow appropriate attribution of the data. 
# 
#######################################################################

data_zzp12ba_0m
_audit_block_doi                 10.5517/ccyh6zl
_database_code_depnum_ccdc_archive 'CCDC 878570'
loop_
_citation_id
_citation_doi
_citation_year
1 10.1002/anie.201203594 2012
_audit_update_record             
;
2012-04-24 deposited with the CCDC.	2024-07-10 downloaded from the CCDC.
;
#TrackingRef 'porph(Cl)@MOM-11(Ba2+).cif'


_audit_creation_method           SHELXL-97
_chemical_name_systematic        
;
?
;
_chemical_name_common            ?
_chemical_melting_point          ?
_chemical_formula_moiety         ?
_chemical_formula_sum            'C104 H64 Ba0.5 Cd5 Cl N8 O27'
_chemical_formula_weight         2524.12

loop_
_atom_type_symbol
_atom_type_description
_atom_type_scat_dispersion_real
_atom_type_scat_dispersion_imag
_atom_type_scat_source
C C 0.0181 0.0091 'International Tables Vol C Tables 4.2.6.8 and 6.1.1.4'
Cd Cd 0.1185 4.6533 'International Tables Vol C Tables 4.2.6.8 and 6.1.1.4'
Cl Cl 0.3639 0.7018 'International Tables Vol C Tables 4.2.6.8 and 6.1.1.4'
Ba Ba -1.0456 8.4617 'International Tables Vol C Tables 4.2.6.8 and 6.1.1.4'
H H 0.0000 0.0000 'International Tables Vol C Tables 4.2.6.8 and 6.1.1.4'
O O 0.0492 0.0322 'International Tables Vol C Tables 4.2.6.8 and 6.1.1.4'
N N 0.0311 0.0180 'International Tables Vol C Tables 4.2.6.8 and 6.1.1.4'

_symmetry_cell_setting           Triclinic
_symmetry_space_group_name_H-M   P-1

loop_
_symmetry_equiv_pos_as_xyz
'x, y, z'
'-x, -y, -z'

_cell_length_a                   9.9445(6)
_cell_length_b                   18.5391(11)
_cell_length_c                   20.2889(12)
_cell_angle_alpha                88.904(3)
_cell_angle_beta                 83.648(3)
_cell_angle_gamma                86.713(3)
_cell_volume                     3711.1(4)
_cell_formula_units_Z            1
_cell_measurement_temperature    100(2)
_cell_measurement_reflns_used    ?
_cell_measurement_theta_min      ?
_cell_measurement_theta_max      ?

_exptl_crystal_description       ?
_exptl_crystal_colour            ?
_exptl_crystal_size_max          0.10
_exptl_crystal_size_mid          0.05
_exptl_crystal_size_min          0.05
_exptl_crystal_density_meas      ?
_exptl_crystal_density_diffrn    1.160
_exptl_crystal_density_method    'not measured'
_exptl_crystal_F_000             1273
_exptl_absorpt_coefficient_mu    7.30
_exptl_absorpt_correction_type   multi-scan
_exptl_absorpt_correction_T_min  0.4910
_exptl_absorpt_correction_T_max  0.6819
_exptl_absorpt_process_details   ?

_exptl_special_details           
;
?
;

_diffrn_ambient_temperature      100(2)
_diffrn_radiation_wavelength     1.54178
_diffrn_radiation_type           CuK\a
_diffrn_radiation_source         'fine-focus sealed tube'
_diffrn_radiation_monochromator  graphite
_diffrn_measurement_device_type  ?
_diffrn_measurement_method       ?
_diffrn_detector_area_resol_mean ?
_diffrn_reflns_number            31606
_diffrn_reflns_av_R_equivalents  0.1047
_diffrn_reflns_av_sigmaI/netI    0.1353
_diffrn_reflns_limit_h_min       -11
_diffrn_reflns_limit_h_max       9
_diffrn_reflns_limit_k_min       -21
_diffrn_reflns_limit_k_max       21
_diffrn_reflns_limit_l_min       -23
_diffrn_reflns_limit_l_max       23
_diffrn_reflns_theta_min         2.19
_diffrn_reflns_theta_max         64.99
_reflns_number_total             12122
_reflns_number_gt                8773
_reflns_threshold_expression     >2sigma(I)

_computing_data_collection       ?
_computing_cell_refinement       ?
_computing_data_reduction        ?
_computing_structure_solution    'SHELXS-97 (Sheldrick, 2008)'
_computing_structure_refinement  'SHELXL-97 (Sheldrick, 2008)'
_computing_molecular_graphics    ?
_computing_publication_material  ?

_refine_special_details          
;
Refinement of F^2^ against ALL reflections. The weighted R-factor wR and
goodness of fit S are based on F^2^, conventional R-factors R are based
on F, with F set to zero for negative F^2^. The threshold expression of
F^2^ > 2sigma(F^2^) is used only for calculating R-factors(gt) etc. and is
not relevant to the choice of reflections for refinement. R-factors based
on F^2^ are statistically about twice as large as those based on F, and R-
factors based on ALL data will be even larger.
;

_refine_ls_structure_factor_coef Fsqd
_refine_ls_matrix_type           full
_refine_ls_weighting_scheme      calc
_refine_ls_weighting_details     
'calc w=1/[\s^2^(Fo^2^)+(0.0752P)^2^+0.0000P] where P=(Fo^2^+2Fc^2^)/3'
_atom_sites_solution_primary     direct
_atom_sites_solution_secondary   difmap
_atom_sites_solution_hydrogens   geom
_refine_ls_hydrogen_treatment    constr
_refine_ls_extinction_method     none
_refine_ls_extinction_coef       ?
_refine_ls_number_reflns         12122
_refine_ls_number_parameters     699
_refine_ls_number_restraints     42
_refine_ls_R_factor_all          0.0834
_refine_ls_R_factor_gt           0.0653
_refine_ls_wR_factor_ref         0.1741
_refine_ls_wR_factor_gt          0.1638
_refine_ls_goodness_of_fit_ref   0.997
_refine_ls_restrained_S_all      1.005
_refine_ls_shift/su_max          0.002
_refine_ls_shift/su_mean         0.000

loop_
_atom_site_label
_atom_site_type_symbol
_atom_site_fract_x
_atom_site_fract_y
_atom_site_fract_z
_atom_site_U_iso_or_equiv
_atom_site_adp_type
_atom_site_occupancy
_atom_site_symmetry_multiplicity
_atom_site_calc_flag
_atom_site_refinement_flags
_atom_site_disorder_assembly
_atom_site_disorder_group
Cd1 Cd 0.61289(4) 0.45305(2) 0.038866(19) 0.01393(14) Uani 1 1 d . . .
Cd2 Cd 1.10066(4) 1.04124(2) -0.455617(19) 0.01467(14) Uani 1 1 d . . .
Cd3 Cd 0.41284(10) -0.02898(5) 0.01904(4) 0.0226(2) Uani 0.50 1 d P . .
Ba1 Ba 0.9573(3) 0.75810(15) 0.42362(13) 0.0664(8) Uani 0.25 1 d PD . .
C1 C 0.9844(9) 0.8851(4) -0.4157(4) 0.037(2) Uani 1 1 d . . .
C2 C 0.9647(8) 0.8321(4) -0.3588(3) 0.0286(17) Uani 1 1 d . . .
C3 C 0.8859(8) 0.7728(4) -0.3631(4) 0.0322(17) Uani 1 1 d . . .
H3 H 0.8437 0.7657 -0.4020 0.039 Uiso 1 1 calc R . .
C4 C 0.8696(8) 0.7244(4) -0.3105(3) 0.0324(18) Uani 1 1 d . . .
H4 H 0.8154 0.6843 -0.3136 0.039 Uiso 1 1 calc R . .
C5 C 0.9315(7) 0.7336(4) -0.2531(3) 0.0235(15) Uani 1 1 d . . .
C6 C 1.0070(7) 0.7938(4) -0.2488(4) 0.0284(16) Uani 1 1 d . . .
H6 H 1.0464 0.8017 -0.2092 0.034 Uiso 1 1 calc R . .
C7 C 1.0257(7) 0.8424(4) -0.3012(4) 0.0302(17) Uani 1 1 d . . .
H7 H 1.0798 0.8825 -0.2980 0.036 Uiso 1 1 calc R . .
C8 C 0.9196(7) 0.6812(4) -0.1974(3) 0.0263(16) Uani 1 1 d . . .
C9 C 0.7934(7) 0.6538(4) -0.1750(3) 0.0212(14) Uani 1 1 d . . .
H9 H 0.7163 0.6678 -0.1970 0.025 Uiso 1 1 calc R . .
C10 C 0.7801(6) 0.6064(3) -0.1209(3) 0.0176(13) Uani 1 1 d . . .
C11 C 0.8916(7) 0.5838(3) -0.0893(3) 0.0194(14) Uani 1 1 d . . .
H11 H 0.8834 0.5509 -0.0529 0.023 Uiso 1 1 calc R . .
C12 C 1.0171(7) 0.6108(4) -0.1124(3) 0.0234(15) Uani 1 1 d . . .
C13 C 1.0289(7) 0.6585(4) -0.1646(3) 0.0285(17) Uani 1 1 d . . .
H13 H 1.1150 0.6766 -0.1786 0.034 Uiso 1 1 calc R . .
C14 C 1.1416(7) 0.5850(4) -0.0793(3) 0.0248(16) Uani 1 1 d . . .
C15 C 0.6425(7) 0.5839(4) -0.0930(3) 0.0208(14) Uani 1 1 d . . .
C16 C 0.4717(7) 0.6022(4) 0.0957(3) 0.0251(16) Uani 1 1 d . . .
C17 C 0.4653(7) 0.6593(4) 0.1484(3) 0.0238(15) Uani 1 1 d . . .
C18 C 0.5464(9) 0.6515(4) 0.1973(4) 0.037(2) Uani 1 1 d . . .
H18 H 0.6080 0.6104 0.1978 0.045 Uiso 1 1 calc R . .
C19 C 0.5418(9) 0.7030(5) 0.2477(4) 0.041(2) Uani 1 1 d . . .
H19 H 0.5985 0.6961 0.2823 0.049 Uiso 1 1 calc R . .
C20 C 0.4542(7) 0.7639(4) 0.2467(3) 0.0266(16) Uani 1 1 d . . .
C21 C 0.3773(8) 0.7731(4) 0.1949(4) 0.0338(19) Uani 1 1 d . . .
H21 H 0.3198 0.8155 0.1924 0.041 Uiso 1 1 calc R . .
C22 C 0.3821(8) 0.7216(5) 0.1462(4) 0.0349(19) Uani 1 1 d . . .
H22 H 0.3276 0.7290 0.1107 0.042 Uiso 1 1 calc R . .
C23 C 0.4474(7) 0.8167(4) 0.3004(3) 0.0260(16) Uani 1 1 d . . .
C24 C 0.5646(7) 0.8365(4) 0.3251(3) 0.0252(15) Uani 1 1 d . . .
H24 H 0.6498 0.8144 0.3084 0.030 Uiso 1 1 calc R . .
C25 C 0.5580(7) 0.8892(4) 0.3747(3) 0.0238(15) Uani 1 1 d . . .
C26 C 0.4344(7) 0.9205(4) 0.4007(3) 0.0218(14) Uani 1 1 d . . .
H26 H 0.4302 0.9560 0.4341 0.026 Uiso 1 1 calc R . .
C27 C 0.3158(7) 0.8994(4) 0.3774(3) 0.0221(15) Uani 1 1 d . . .
C28 C 0.3227(8) 0.8488(4) 0.3271(3) 0.0268(16) Uani 1 1 d . . .
H28 H 0.2417 0.8359 0.3106 0.032 Uiso 1 1 calc R . .
C29 C 0.1809(7) 0.9294(4) 0.4099(3) 0.0208(14) Uani 1 1 d . . .
C30 C 0.6845(7) 0.9127(4) 0.4016(3) 0.0262(16) Uani 1 1 d . . .
C31 C -0.0417(9) 0.3954(5) -0.0955(4) 0.044(2) Uani 1 1 d . . .
H31A H -0.0074 0.4400 -0.0804 0.065 Uiso 1 1 calc R . .
H31B H -0.1360 0.3914 -0.0765 0.065 Uiso 1 1 calc R . .
H31C H -0.0370 0.3963 -0.1441 0.065 Uiso 1 1 calc R . .
C32 C 0.1675(8) 0.3404(4) -0.0606(4) 0.0312(18) Uani 1 1 d . . .
H32 H 0.2028 0.3870 -0.0628 0.037 Uiso 1 1 calc R . .
C33 C 0.2452(8) 0.2808(4) -0.0439(4) 0.0316(17) Uani 1 1 d . . .
H33 H 0.3348 0.2871 -0.0338 0.038 Uiso 1 1 calc R . .
C34 C 0.1985(9) 0.2120(4) -0.0410(4) 0.0357(19) Uani 1 1 d . . .
C35 C 0.0659(11) 0.2067(6) -0.0554(7) 0.070(4) Uani 1 1 d . . .
H35 H 0.0279 0.1608 -0.0552 0.084 Uiso 1 1 calc R . .
C36 C -0.0071(11) 0.2657(6) -0.0695(6) 0.068(3) Uani 1 1 d . . .
H36 H -0.0988 0.2614 -0.0771 0.081 Uiso 1 1 calc R . .
C37 C 0.3296(11) 0.1012(4) -0.0832(5) 0.048(3) Uani 1 1 d . . .
C38 C 0.2944(9) 0.1158(4) -0.1493(4) 0.041(2) Uani 1 1 d . . .
H38 H 0.2406 0.1558 -0.1636 0.049 Uiso 1 1 calc R . .
C39 C 0.3529(10) 0.0614(5) -0.1863(4) 0.044(2) Uani 1 1 d . . .
H39 H 0.3481 0.0558 -0.2324 0.052 Uiso 1 1 calc R . .
C40 C 0.4250(11) 0.0125(5) -0.1442(4) 0.047(2) Uani 1 1 d . . .
C41 C 0.2889(10) 0.1472(5) -0.0266(5) 0.046(2) Uani 1 1 d U . .
C42 C 0.3205(11) 0.1379(4) 0.0383(5) 0.049(2) Uani 1 1 d U . .
C43 C 0.2737(9) 0.1836(5) 0.0931(4) 0.041(2) Uani 1 1 d . . .
H43 H 0.2125 0.2248 0.0919 0.050 Uiso 1 1 calc R . .
C44 C 0.3314(9) 0.1582(5) 0.1464(4) 0.040(2) Uani 1 1 d . . .
H44 H 0.3211 0.1789 0.1893 0.048 Uiso 1 1 calc R . .
C45 C 0.4127(11) 0.0929(5) 0.1259(5) 0.049(2) Uani 1 1 d . . .
C46 C 0.4945(11) 0.0498(5) 0.1643(4) 0.046(2) Uani 1 1 d . . .
C47 C 0.4955(9) 0.0692(4) 0.2349(4) 0.0350(18) Uani 1 1 d . . .
C48 C 0.3752(10) 0.0749(5) 0.2795(5) 0.050(2) Uani 1 1 d . . .
H48 H 0.2899 0.0673 0.2647 0.060 Uiso 1 1 calc R . .
C49 C 0.3839(11) 0.0915(5) 0.3449(5) 0.055(3) Uani 1 1 d . . .
H49 H 0.3032 0.0967 0.3745 0.066 Uiso 1 1 calc R . .
C50 C 0.5029(11) 0.1171(6) 0.4374(4) 0.057(3) Uani 1 1 d . . .
H50A H 0.4550 0.0805 0.4648 0.086 Uiso 1 1 calc R . .
H50B H 0.4580 0.1648 0.4466 0.086 Uiso 1 1 calc R . .
H50C H 0.5969 0.1170 0.4477 0.086 Uiso 1 1 calc R . .
C51 C 0.6170(9) 0.0965(5) 0.3259(4) 0.0365(19) Uani 1 1 d . . .
H51 H 0.7008 0.1042 0.3423 0.044 Uiso 1 1 calc R . .
C52 C 0.6148(8) 0.0815(4) 0.2610(3) 0.0307(17) Uani 1 1 d . . .
H52 H 0.6975 0.0795 0.2325 0.037 Uiso 1 1 calc R . .
Cl1 Cl 0.2200(5) -0.1009(3) 0.0672(3) 0.0607(13) Uani 0.50 1 d P . .
N1 N 0.4077(11) 0.0844(4) 0.0596(4) 0.067(3) Uani 1 1 d . . .
N2 N 0.4030(10) 0.0385(4) -0.0802(4) 0.067(3) Uani 1 1 d . . .
N3 N 0.0431(6) 0.3316(4) -0.0735(3) 0.0305(15) Uani 1 1 d . . .
N4 N 0.5013(8) 0.1005(4) 0.3672(3) 0.0377(16) Uani 1 1 d . . .
O1 O 1.0703(6) 0.9323(3) -0.4104(3) 0.0450(15) Uani 1 1 d U . .
O2 O 0.9188(7) 0.8770(3) -0.4631(3) 0.0486(16) Uani 1 1 d U . .
O3 O 1.2370(6) 0.6282(3) -0.0825(3) 0.0472(16) Uani 1 1 d . . .
O4 O 1.1461(5) 0.5259(3) -0.0516(2) 0.0326(12) Uani 1 1 d . . .
O5 O 0.6352(5) 0.5488(3) -0.0389(2) 0.0260(11) Uani 1 1 d . . .
O6 O 0.5411(5) 0.6040(3) -0.1202(2) 0.0306(12) Uani 1 1 d . . .
O7 O 0.3888(5) 0.6124(3) 0.0522(2) 0.0271(11) Uani 1 1 d . . .
O8 O 0.5584(5) 0.5522(3) 0.1003(2) 0.0261(11) Uani 1 1 d . . .
O9 O 0.0768(6) 0.9056(4) 0.3938(3) 0.0537(18) Uani 1 1 d . . .
O10 O 0.1827(6) 0.9775(4) 0.4498(3) 0.0537(19) Uani 1 1 d . . .
O11 O 0.6794(6) 0.9666(3) 0.4329(3) 0.0415(14) Uani 1 1 d . . .
O12 O 0.7893(7) 0.8744(5) 0.3901(5) 0.093(3) Uani 1 1 d . . .
O13 O 0.686(4) 0.726(3) 0.479(2) 0.109(13) Uiso 0.25 1 d PD . .
O14 O 0.9274(16) 0.8048(9) 0.2718(7) 0.073(5) Uani 0.50 1 d PD . .
O15 O 0.817(5) 0.641(3) 0.341(3) 0.138(18) Uani 0.25 1 d PDU . .
O16 O 0.958(8) 0.640(4) 0.501(3) 0.09(2) Uani 0.13 1 d PDU . .
O17 O 1.178(4) 0.752(2) 0.4846(17) 0.085(10) Uiso 0.25 1 d PD . .
O18 O 1.154(8) 0.639(4) 0.377(4) 0.11(3) Uiso 0.13 1 d PD . .

loop_
_atom_site_aniso_label
_atom_site_aniso_U_11
_atom_site_aniso_U_22
_atom_site_aniso_U_33
_atom_site_aniso_U_23
_atom_site_aniso_U_13
_atom_site_aniso_U_12
Cd1 0.0143(3) 0.0079(2) 0.0198(2) 0.00354(16) -0.00349(15) -0.00055(15)
Cd2 0.0177(3) 0.0097(2) 0.0161(2) 0.00291(16) 0.00010(15) -0.00137(16)
Cd3 0.0287(6) 0.0140(5) 0.0257(4) -0.0006(4) -0.0045(4) -0.0034(4)
Ba1 0.094(2) 0.0463(15) 0.0559(14) -0.0014(12) -0.0012(13) 0.0066(14)
C1 0.053(6) 0.023(4) 0.030(4) 0.016(3) 0.004(4) 0.007(4)
C2 0.038(5) 0.019(4) 0.027(4) 0.014(3) 0.000(3) -0.004(3)
C3 0.040(5) 0.025(4) 0.034(4) 0.016(3) -0.010(3) -0.013(3)
C4 0.047(5) 0.022(4) 0.028(4) 0.020(3) -0.004(3) -0.007(3)
C5 0.017(4) 0.018(4) 0.033(4) 0.016(3) 0.005(3) -0.001(3)
C6 0.024(4) 0.027(4) 0.035(4) 0.016(3) -0.010(3) -0.003(3)
C7 0.018(4) 0.030(4) 0.044(4) 0.020(3) -0.009(3) -0.008(3)
C8 0.023(4) 0.023(4) 0.032(4) 0.014(3) -0.003(3) 0.001(3)
C9 0.015(4) 0.021(4) 0.028(3) 0.013(3) -0.004(2) -0.003(3)
C10 0.016(4) 0.014(3) 0.022(3) 0.005(3) 0.002(2) -0.002(2)
C11 0.019(4) 0.013(3) 0.024(3) 0.012(3) 0.001(2) 0.003(3)
C12 0.012(4) 0.022(4) 0.036(4) 0.013(3) -0.007(3) 0.002(3)
C13 0.018(4) 0.031(4) 0.037(4) 0.010(3) -0.006(3) 0.003(3)
C14 0.019(4) 0.026(4) 0.029(3) 0.016(3) -0.003(3) 0.000(3)
C15 0.023(4) 0.011(3) 0.029(3) 0.005(3) -0.003(3) -0.003(3)
C16 0.018(4) 0.024(4) 0.032(4) -0.006(3) 0.000(3) 0.000(3)
C17 0.029(4) 0.020(4) 0.023(3) -0.003(3) -0.007(3) 0.001(3)
C18 0.050(5) 0.030(5) 0.032(4) -0.011(3) -0.009(3) 0.019(4)
C19 0.050(6) 0.041(5) 0.033(4) -0.010(4) -0.021(4) 0.013(4)
C20 0.024(4) 0.022(4) 0.034(4) -0.012(3) -0.005(3) 0.003(3)
C21 0.031(5) 0.025(4) 0.046(4) -0.021(3) -0.011(3) 0.013(3)
C22 0.029(5) 0.043(5) 0.034(4) -0.013(4) -0.014(3) 0.013(4)
C23 0.022(4) 0.026(4) 0.029(3) -0.011(3) 0.001(3) 0.002(3)
C24 0.016(4) 0.032(4) 0.028(3) -0.006(3) -0.005(3) 0.000(3)
C25 0.021(4) 0.027(4) 0.024(3) -0.001(3) -0.002(3) -0.005(3)
C26 0.027(4) 0.020(4) 0.019(3) 0.000(3) -0.001(3) -0.003(3)
C27 0.022(4) 0.026(4) 0.017(3) -0.005(3) 0.002(2) 0.003(3)
C28 0.024(4) 0.026(4) 0.032(4) -0.009(3) -0.009(3) 0.003(3)
C29 0.020(4) 0.025(4) 0.016(3) 0.002(3) 0.002(2) -0.001(3)
C30 0.025(4) 0.037(5) 0.018(3) -0.005(3) -0.004(3) -0.003(3)
C31 0.046(6) 0.034(5) 0.049(5) 0.000(4) -0.008(4) 0.018(4)
C32 0.032(5) 0.021(4) 0.040(4) 0.003(3) 0.000(3) -0.002(3)
C33 0.038(5) 0.023(4) 0.034(4) 0.007(3) -0.006(3) -0.001(3)
C34 0.045(5) 0.016(4) 0.050(5) 0.000(3) -0.022(4) -0.001(3)
C35 0.051(7) 0.035(6) 0.134(10) 0.026(6) -0.054(7) -0.020(5)
C36 0.040(7) 0.052(7) 0.120(9) 0.037(7) -0.042(6) -0.020(5)
C37 0.080(7) 0.015(4) 0.058(5) -0.005(4) -0.042(5) 0.006(4)
C38 0.051(6) 0.020(4) 0.053(5) 0.003(4) -0.014(4) -0.002(4)
C39 0.061(6) 0.032(5) 0.041(4) 0.010(4) -0.019(4) -0.007(4)
C40 0.071(7) 0.021(4) 0.054(5) -0.011(4) -0.036(5) 0.011(4)
C41 0.062(5) 0.019(4) 0.064(4) -0.013(3) -0.036(4) 0.009(3)
C42 0.077(6) 0.009(4) 0.069(5) -0.011(4) -0.049(5) 0.007(4)
C43 0.042(5) 0.032(5) 0.051(5) 0.004(4) -0.012(4) -0.005(4)
C44 0.051(6) 0.031(5) 0.041(4) -0.003(4) -0.015(4) 0.003(4)
C45 0.072(7) 0.024(5) 0.056(5) -0.007(4) -0.035(5) 0.003(4)
C46 0.071(7) 0.024(5) 0.048(5) -0.003(4) -0.029(4) -0.001(4)
C47 0.052(6) 0.018(4) 0.037(4) 0.006(3) -0.012(4) -0.005(3)
C48 0.051(6) 0.031(5) 0.067(6) 0.025(4) -0.002(4) -0.009(4)
C49 0.060(7) 0.052(6) 0.047(5) 0.018(5) 0.017(5) 0.006(5)
C50 0.081(8) 0.054(6) 0.032(4) -0.003(4) 0.010(4) 0.006(5)
C51 0.045(5) 0.034(5) 0.032(4) -0.005(3) -0.005(3) -0.006(4)
C52 0.036(5) 0.034(5) 0.022(3) 0.000(3) -0.001(3) -0.009(3)
Cl1 0.044(3) 0.055(3) 0.082(3) 0.021(3) -0.004(2) -0.008(2)
N1 0.126(9) 0.018(4) 0.067(5) -0.021(4) -0.060(5) 0.023(5)
N2 0.115(8) 0.035(5) 0.058(5) -0.033(4) -0.062(5) 0.040(5)
N3 0.024(4) 0.029(4) 0.038(3) 0.003(3) -0.007(3) 0.008(3)
N4 0.041(5) 0.032(4) 0.037(4) 0.003(3) 0.005(3) -0.003(3)
O1 0.042(4) 0.026(3) 0.064(4) 0.035(3) 0.002(3) -0.003(2)
O2 0.086(5) 0.027(3) 0.034(3) 0.023(2) -0.014(3) -0.016(3)
O3 0.019(3) 0.039(4) 0.085(4) 0.039(3) -0.020(3) -0.007(2)
O4 0.018(3) 0.041(3) 0.040(3) 0.020(3) -0.011(2) 0.000(2)
O5 0.021(3) 0.025(3) 0.032(3) 0.015(2) -0.0016(19) -0.008(2)
O6 0.012(3) 0.040(3) 0.039(3) 0.025(2) -0.0022(19) -0.005(2)
O7 0.025(3) 0.025(3) 0.032(3) -0.009(2) -0.010(2) 0.002(2)
O8 0.035(3) 0.014(3) 0.029(2) -0.007(2) -0.010(2) 0.006(2)
O9 0.023(4) 0.052(4) 0.085(5) -0.038(4) 0.003(3) 0.001(3)
O10 0.039(4) 0.077(5) 0.044(3) -0.038(3) -0.006(3) 0.022(3)
O11 0.035(4) 0.035(3) 0.058(3) -0.014(3) -0.027(3) 0.003(3)
O12 0.018(4) 0.087(6) 0.180(9) -0.088(6) -0.029(4) 0.009(4)
O14 0.081(11) 0.078(11) 0.055(8) -0.032(8) 0.029(7) -0.030(9)
O15 0.13(2) 0.14(2) 0.14(2) 0.004(10) -0.026(10) -0.004(10)
O16 0.09(2) 0.09(2) 0.09(2) -0.004(10) -0.008(10) -0.006(10)

_geom_special_details            
;
A