####################################################################### 
# 
# This file contains crystal structure data downloaded from the 
# Cambridge Structural Database (CSD) hosted by the Cambridge 
# Crystallographic Data Centre (CCDC).
# 
# Full information about CCDC data access policies and citation 
# guidelines are available at http://www.ccdc.cam.ac.uk/access/V1 
# 
# Audit and citation data items may have been added by the CCDC. 
# Please retain this information to preserve the provenance of 
# this file and to allow appropriate attribution of the data. 
# 
#######################################################################

data_2-Cu(NO3)2
_audit_block_doi                 10.5517/ccy9kwn
_database_code_depnum_ccdc_archive 'CCDC 873142'
loop_
_citation_id
_citation_doi
_citation_year
1 10.1016/j.synthmet.2012.05.008 2012
_audit_update_record             
;
2012-03-25 deposited with the CCDC.	2024-07-10 downloaded from the CCDC.
;
#TrackingRef '2-Cu(NO3)2.cif'


_audit_creation_method           SHELXL-97
_chemical_name_systematic        
;
?
;
_chemical_name_common            ?
_chemical_melting_point          ?
_chemical_formula_moiety         ?
_chemical_formula_sum            'C28 H32 Cu N10 O8'
_chemical_formula_weight         700.18

loop_
_atom_type_symbol
_atom_type_description
_atom_type_scat_dispersion_real
_atom_type_scat_dispersion_imag
_atom_type_scat_source
C C 0.0033 0.0016 'International Tables Vol C Tables 4.2.6.8 and 6.1.1.4'
H H 0.0000 0.0000 'International Tables Vol C Tables 4.2.6.8 and 6.1.1.4'
N N 0.0061 0.0033 'International Tables Vol C Tables 4.2.6.8 and 6.1.1.4'
Cu Cu 0.3201 1.2651 'International Tables Vol C Tables 4.2.6.8 and 6.1.1.4'
O O 0.0106 0.0060 'International Tables Vol C Tables 4.2.6.8 and 6.1.1.4'

_symmetry_cell_setting           Monoclinic
_symmetry_space_group_name_H-M   C2

loop_
_symmetry_equiv_pos_as_xyz
'x, y, z'
'-x, y, -z'
'x+1/2, y+1/2, z'
'-x+1/2, y+1/2, -z'

_cell_length_a                   11.6540(15)
_cell_length_b                   21.826(3)
_cell_length_c                   7.3928(10)
_cell_angle_alpha                90.00
_cell_angle_beta                 105.638(3)
_cell_angle_gamma                90.00
_cell_volume                     1810.8(4)
_cell_formula_units_Z            2
_cell_measurement_temperature    296(2)
_cell_measurement_reflns_used    504
_cell_measurement_theta_min      2.86
_cell_measurement_theta_max      17.04

_exptl_crystal_description       block
_exptl_crystal_colour            green
_exptl_crystal_size_max          0.31
_exptl_crystal_size_mid          0.25
_exptl_crystal_size_min          0.17
_exptl_crystal_density_meas      ?
_exptl_crystal_density_diffrn    1.284
_exptl_crystal_density_method    'not measured'
_exptl_crystal_F_000             726
_exptl_absorpt_coefficient_mu    0.660
_exptl_absorpt_correction_type   none
_exptl_absorpt_correction_T_min  ?
_exptl_absorpt_correction_T_max  ?
_exptl_absorpt_process_details   ?

_exptl_special_details           
;
?
;

_diffrn_ambient_temperature      296(2)
_diffrn_radiation_wavelength     0.71073
_diffrn_radiation_type           MoK\a
_diffrn_radiation_source         'fine-focus sealed tube'
_diffrn_radiation_monochromator  graphite
_diffrn_measurement_device_type  'CCD area detector'
_diffrn_measurement_method       'phi and omega scans'
_diffrn_detector_area_resol_mean ?
_diffrn_standards_number         ?
_diffrn_standards_interval_count ?
_diffrn_standards_interval_time  ?
_diffrn_standards_decay_%        ?
_diffrn_reflns_number            4674
_diffrn_reflns_av_R_equivalents  0.0208
_diffrn_reflns_av_sigmaI/netI    0.0556
_diffrn_reflns_limit_h_min       -10
_diffrn_reflns_limit_h_max       13
_diffrn_reflns_limit_k_min       -26
_diffrn_reflns_limit_k_max       25
_diffrn_reflns_limit_l_min       -8
_diffrn_reflns_limit_l_max       8
_diffrn_reflns_theta_min         1.87
_diffrn_reflns_theta_max         25.05
_reflns_number_total             3074
_reflns_number_gt                2879
_reflns_threshold_expression     >2sigma(I)

_computing_data_collection       'Bruker SMART'
_computing_cell_refinement       'Bruker SMART'
_computing_data_reduction        'Bruker SAINT'
_computing_structure_solution    'SHELXS-97 (Sheldrick, 1990)'
_computing_structure_refinement  'SHELXL-97 (Sheldrick, 1997)'
_computing_molecular_graphics    'Bruker SHELXTL'
_computing_publication_material  'Bruker SHELXTL'

_refine_special_details          
;
Refinement of F^2^ against ALL reflections. The weighted R-factor wR and
goodness of fit S are based on F^2^, conventional R-factors R are based
on F, with F set to zero for negative F^2^. The threshold expression of
F^2^ > 2sigma(F^2^) is used only for calculating R-factors(gt) etc. and is
not relevant to the choice of reflections for refinement. R-factors based
on F^2^ are statistically about twice as large as those based on F, and R-
factors based on ALL data will be even larger.
;

_refine_ls_structure_factor_coef Fsqd
_refine_ls_matrix_type           full
_refine_ls_weighting_scheme      calc
_refine_ls_weighting_details     
'calc w=1/[\s^2^(Fo^2^)+(0.0866P)^2^+0.0000P] where P=(Fo^2^+2Fc^2^)/3'
_atom_sites_solution_primary     direct
_atom_sites_solution_secondary   difmap
_atom_sites_solution_hydrogens   geom
_refine_ls_hydrogen_treatment    constr
_refine_ls_extinction_method     none
_refine_ls_extinction_coef       ?
_refine_ls_abs_structure_details 'Flack H D (1983), Acta Cryst. A39, 876-881'
_refine_ls_abs_structure_Flack   -0.003(18)
_refine_ls_number_reflns         3074
_refine_ls_number_parameters     235
_refine_ls_number_restraints     7
_refine_ls_R_factor_all          0.0495
_refine_ls_R_factor_gt           0.0469
_refine_ls_wR_factor_ref         0.1324
_refine_ls_wR_factor_gt          0.1308
_refine_ls_goodness_of_fit_ref   1.051
_refine_ls_restrained_S_all      1.060
_refine_ls_shift/su_max          0.000
_refine_ls_shift/su_mean         0.000

loop_
_atom_site_label
_atom_site_type_symbol
_atom_site_fract_x
_atom_site_fract_y
_atom_site_fract_z
_atom_site_U_iso_or_equiv
_atom_site_adp_type
_atom_site_occupancy
_atom_site_symmetry_multiplicity
_atom_site_calc_flag
_atom_site_refinement_flags
_atom_site_disorder_assembly
_atom_site_disorder_group
Cu1 Cu 0.0000 0.369172(8) 0.0000 0.0296(2) Uani 1 2 d S . .
N1 N -0.0950(4) 0.43594(17) 0.0874(6) 0.0312(11) Uani 1 1 d . . .
N2 N -0.2305(5) 0.5862(2) 0.4888(7) 0.0602(15) Uani 1 1 d . . .
N3 N -0.2847(5) 0.6328(2) 0.5622(8) 0.0597(14) Uani 1 1 d . . .
N4 N -0.4052(4) 0.80491(19) 0.9067(6) 0.0332(11) Uani 1 1 d . . .
C1 C -0.1486(5) 0.4844(2) 0.3410(7) 0.0469(12) Uani 1 1 d . . .
H1A H -0.1502 0.4833 0.4660 0.056 Uiso 1 1 calc R . .
C2 C -0.1025(4) 0.4362(2) 0.2661(6) 0.0367(10) Uani 1 1 d . . .
H2A H -0.0752 0.4022 0.3413 0.044 Uiso 1 1 calc R . .
C3 C -0.1402(5) 0.4835(2) -0.0203(6) 0.0420(11) Uani 1 1 d . . .
H3A H -0.1377 0.4834 -0.1450 0.050 Uiso 1 1 calc R . .
C4 C -0.1906(5) 0.5331(2) 0.0443(7) 0.0488(13) Uani 1 1 d . . .
H4A H -0.2227 0.5651 -0.0366 0.059 Uiso 1 1 calc R . .
C5 C -0.1931(6) 0.5350(2) 0.2312(8) 0.0430(14) Uani 1 1 d . . .
C6 C -0.2404(5) 0.5888(3) 0.3123(9) 0.0530(15) Uani 1 1 d . . .
C7 C -0.2923(8) 0.6418(3) 0.1903(9) 0.089(2) Uani 1 1 d . . .
H7A H -0.3191 0.6722 0.2637 0.133 Uiso 1 1 calc R . .
H7B H -0.3585 0.6281 0.0905 0.133 Uiso 1 1 calc R . .
H7C H -0.2328 0.6593 0.1380 0.133 Uiso 1 1 calc R . .
C8 C -0.0890(8) 0.6697(4) 0.7184(13) 0.101(3) Uani 1 1 d U . .
H8A H -0.0630 0.6367 0.6533 0.151 Uiso 1 1 calc R . .
H8B H -0.0567 0.6644 0.8513 0.151 Uiso 1 1 calc R . .
H8C H -0.0618 0.7079 0.6806 0.151 Uiso 1 1 calc R . .
C9 C -0.2172(6) 0.6699(3) 0.6733(8) 0.0525(15) Uani 1 1 d . . .
C10 C -0.2806(5) 0.7174(3) 0.7602(8) 0.0405(13) Uani 1 1 d . . .
C11 C -0.4037(5) 0.7137(2) 0.7284(7) 0.0422(11) Uani 1 1 d . . .
H11A H -0.4464 0.6818 0.6577 0.051 Uiso 1 1 calc R . .
C12 C -0.4605(4) 0.75773(19) 0.8030(6) 0.0363(10) Uani 1 1 d . . .
H12A H -0.5428 0.7548 0.7804 0.044 Uiso 1 1 calc R . .
C13 C -0.2859(4) 0.8070(2) 0.9396(6) 0.0392(10) Uani 1 1 d . . .
H13A H -0.2450 0.8385 1.0145 0.047 Uiso 1 1 calc R . .
C14 C -0.2211(4) 0.7651(3) 0.8684(7) 0.0482(12) Uani 1 1 d . . .
H14A H -0.1388 0.7689 0.8929 0.058 Uiso 1 1 calc R . .
N5 N -0.2322(5) 0.3502(2) -0.3940(7) 0.0599(14) Uani 1 1 d . . .
O1 O -0.1351(3) 0.3754(2) -0.3171(5) 0.0591(9) Uani 1 1 d . A .
O2 O -0.3060(8) 0.3742(7) -0.5301(15) 0.112(4) Uani 0.60 1 d P A 1
O3 O -0.255(2) 0.2994(11) -0.393(4) 0.149(10) Uani 0.60 1 d P A 1
O2' O -0.3119(12) 0.3877(8) -0.375(4) 0.125(7) Uani 0.40 1 d P A 2
O3' O -0.2457(12) 0.2927(9) -0.375(3) 0.045(3) Uani 0.40 1 d P A 2
O1W O 0.003(3) 0.9953(16) 0.582(4) 0.148(11) Uiso 0.25 1 d P . .
O2W O 0.005(3) 1.0339(15) 0.856(4) 0.139(10) Uiso 0.25 1 d P . .
O3W O 0.0146(13) 0.8036(7) 0.725(2) 0.122(4) Uiso 0.50 1 d P . .

loop_
_atom_site_aniso_label
_atom_site_aniso_U_11
_atom_site_aniso_U_22
_atom_site_aniso_U_33
_atom_site_aniso_U_23
_atom_site_aniso_U_13
_atom_site_aniso_U_12
Cu1 0.0458(4) 0.0161(3) 0.0365(3) 0.000 0.0278(3) 0.000
N1 0.046(3) 0.021(2) 0.036(2) 0.0009(19) 0.027(2) 0.007(2)
N2 0.106(4) 0.035(3) 0.052(3) 0.000(2) 0.044(3) 0.032(3)
N3 0.091(4) 0.042(3) 0.059(3) -0.003(3) 0.042(3) 0.027(3)
N4 0.038(3) 0.032(3) 0.035(3) -0.003(2) 0.018(2) 0.000(2)
C1 0.066(3) 0.044(3) 0.037(2) -0.002(2) 0.025(2) 0.017(2)
C2 0.054(3) 0.030(2) 0.033(2) 0.0041(18) 0.024(2) 0.0143(19)
C3 0.069(3) 0.031(2) 0.035(2) 0.0044(18) 0.028(2) 0.010(2)
C4 0.073(3) 0.037(3) 0.040(2) 0.009(2) 0.021(2) 0.021(2)
C5 0.063(4) 0.028(3) 0.045(3) 0.000(2) 0.026(3) 0.009(2)
C6 0.061(4) 0.047(3) 0.058(3) 0.004(3) 0.028(3) 0.023(3)
C7 0.141(7) 0.060(4) 0.068(4) 0.004(3) 0.033(4) 0.061(4)
C8 0.098(3) 0.103(3) 0.101(3) -0.0115(19) 0.0279(19) 0.0097(19)
C9 0.058(4) 0.063(4) 0.039(3) -0.007(3) 0.019(3) 0.035(3)
C10 0.059(3) 0.035(3) 0.032(2) 0.000(2) 0.020(2) 0.022(2)
C11 0.050(3) 0.036(3) 0.041(2) -0.011(2) 0.012(2) 0.007(2)
C12 0.041(2) 0.028(2) 0.046(3) -0.0056(19) 0.022(2) 0.0008(18)
C13 0.044(3) 0.036(2) 0.041(2) -0.007(2) 0.016(2) -0.0022(19)
C14 0.040(3) 0.060(3) 0.050(3) -0.004(3) 0.021(2) 0.009(2)
N5 0.062(3) 0.063(4) 0.059(3) 0.011(2) 0.023(3) 0.003(2)
O1 0.070(2) 0.054(2) 0.0498(17) 0.000(2) 0.0095(16) -0.008(2)
O2 0.069(5) 0.122(9) 0.116(7) 0.061(10) -0.024(5) 0.007(7)
O3 0.20(2) 0.087(14) 0.15(2) -0.016(12) 0.027(15) -0.040(13)
O2' 0.049(7) 0.100(14) 0.23(2) 0.028(14) 0.037(11) 0.025(7)
O3' 0.034(6) 0.040(8) 0.061(8) 0.001(6) 0.015(5) -0.011(5)

_geom_special_details            
;
All esds (except the esd in the dihedral angle between two l.s. planes)
are estimated using the full covariance matrix. The cell esds are taken
into account individually in the estimation of esds in distances, angles
and torsion angles; correlations between esds in cell parameters are only
used when they are defined by crystal symmetry. An approximate (isotropic)
treatment of cell esds is used for estimating esds involving l.s. planes.
;

loop_
_geom_bond_atom_site_label_1
_geom_bond_atom_site_label_2
_geom_bond_distance
_geom_bond_site_symmetry_2
_geom_bond_publ_flag
Cu1 N4 2.018(4) 4_446 ?
Cu1 N4 2.018(4) 3_544 ?
Cu1 N1 2.038(4) 2 ?
Cu1 N1 2.038(4) . ?
N1 C3 1.328(6) . ?
N1 C2 1.347(6) . ?
N2 C6 1.280(8) . ?
N2 N3 1.383(5) . ?
N3 C9 1.264(9) . ?
N4 C12 1.340(6) . ?
N4 C13 1.346(7) . ?
N4 Cu1 2.018(4) 3_456 ?
C1 C2 1.365(6) . ?
C1 C5 1.386(8) . ?
C1 H1A 0.9300 . ?
C2 H2A 0.9300 . ?
C3 C4 1.376(7) . ?
C3 H3A 0.9300 . ?
C4 C5 1.390(8) . ?
C4 H4A 0.9300 . ?
C5 C6 1.491(8) . ?
C6 C7 1.491(8) . ?
C7 H7A 0.9600 . ?
C7 H7B 0.9600 . ?
C7 H7C 0.9600 . ?
C8 C9 1.440(11) . ?
C8 H8A 0.9600 . ?
C8 H8B 0.9600 . ?
C8 H8C 0.9600 . ?
C9 C10 1.514(7) . ?
C10 C14 1.380(8) . ?
C10 C11 1.393(8) . ?
C11 C12 1.365(6) . ?
C11 H11A 0.9300 . ?
C12 H12A 0.9300 . ?
C13 C14 1.378(7) . ?
C13 H13A 0.9300 . ?
C14 H14A 0.9300 . ?
N5 O3 1.14(2) . ?
N5 O1 1.248(6) . ?
N5 O2 1.249(9) . ?
N5 O2' 1.272(15) . ?
N5 O3' 1.28(2) . ?
O1W O1W 1.20(6) 2_556 ?

loop_
_geom_angle_atom_site_label_1
_geom_angle_atom_site_label_2
_geom_angle_atom_site_label_3
_geom_angle
_geom_angle_site_symmetry_1
_geom_angle_site_symmetry_3
_geom_angle_publ_flag
N4 Cu1 N4 92.0(2) 4_446 3_544 ?
N4 Cu1 N1 178.1(2) 4_446 2 ?
N4 Cu1 N1 89.67(11) 3_544 2 ?
N4 Cu1 N1 89.68(11) 4_446 . ?
N4 Cu1 N1 178.1(2) 3_544 . ?
N1 Cu1 N1 88.7(2) 2 . ?
C3 N1 C2 117.7(4) . . ?
C3 N1 Cu1 122.0(3) . . ?
C2 N1 Cu1 119.9(3) . . ?
C6 N2 N3 116.2(5) . . ?
C9 N3 N2 117.1(5) . . ?
C12 N4 C13 116.3(4) . . ?
C12 N4 Cu1 120.4(3) . 3_456 ?
C13 N4 Cu1 123.2(3) . 3_456 ?
C2 C1 C5 120.2(5) . . ?
C2 C1 H1A 119.9 . . ?
C5 C1 H1A 119.9 . . ?
N1 C2 C1 122.5(4) . . ?
N1 C2 H2A 118.8 . . ?
C1 C2 H2A 118.8 . . ?
N1 C3 C4 123.0(4) . . ?
N1 C3 H3A 118.5 . . ?
C4 C3 H3A 118.5 . . ?
C3 C4 C5 119.5(4) . . ?
C3 C4 H4A 120.2 . . ?
C5 C4 H4A 120.2 . . ?
C1 C5 C4 117.0(5) . . ?
C1 C5 C6 120.8(5) . . ?
C4 C5 C6 122.2(5) . . ?
N2 C6 C5 115.7(5) . . ?
N2 C6 C7 124.2(5) . . ?
C5 C6 C7 120.1(5) . . ?
C6 C7 H7A 109.5 . . ?
C6 C7 H7B 109.5 . . ?
H7A C7 H7B 109.5 . . ?
C6 C7 H7C 109.5 . . ?
H7A C7 H7C 109.5 . . ?
H7B C7 H7C 109.5 . . ?
C9 C8 H8A 109.5 . . ?
C9 C8 H8B 109.5 . . ?
H8A C8 H8B 109.5 . . ?
C9 C8 H8C 109.5 . . ?
H8A C8 H8C 109.5 . . ?
H8B C8 H8C 109.5 . . ?
N3 C9 C8 125.0(6) . . ?
N3 C9 C10 115.1(5) . . ?
C8 C9 C10 119.9(6) . . ?
C14 C10 C11 118.4(5) . . ?
C14 C10 C9 122.5(5) . . ?
C11 C10 C9 119.1(5) . . ?
C12 C11 C10 118.7(5) . . ?
C12 C11 H11A 120.6 . . ?
C10 C11 H11A 120.6 . . ?
N4 C12 C11 124.2(5) . . ?
N4 C12 H12A 117.9 . . ?
C11 C12 H12A 117.9 . . ?
N4 C13 C14 123.7(4) . . ?
N4 C13 H13A 118.2 . . ?
C14 C13 H13A 118.2 . . ?
C13 C14 C10 118.7(5) . . ?
C13 C14 H14A 120.6 . . ?
C10 C14 H14A 120.6 . . ?
O3 N5 O1 127.7(15) . . ?
O3 N5 O2 107.4(16) . . ?
O1 N5 O2 121.7(8) . . ?
O3 N5 O2' 116.4(16) . . ?
O1 N5 O2' 105.5(10) . . ?
O2 N5 O2' 56.9(10) . . ?
O3 N5 O3' 8(2) . . ?
O1 N5 O3' 120.3(8) . . ?
O2 N5 O3' 115.0(11) . . ?
O2' N5 O3' 120.2(11) . . ?

_diffrn_measured_fraction_theta_max 1.000
_diffrn_reflns_theta_full        25.05
_diffrn_measured_fraction_theta_full 1.000
_refine_diff_density_max         0.589
_refine_diff_density_min         -0.349
_refine_diff_density_rms         0.100



