
#######################################################################
#
#                 Cambridge Crystallographic Data Centre
#                                CCDC
#
#######################################################################
#
# If this CIF has been generated from an entry in the Cambridge
# Structural Database, then it will include bibliographic, chemical,
# crystal, experimental, refinement or atomic coordinate data resulting
# from the CCDC's data processing and validation procedures.
#
#######################################################################

data_CSD_CIF_HEJKUC
_audit_creation_date 1995-01-18
_audit_creation_method CSD-ConQuest-V1
_database_code_CSD HEJKUC
_database_code_depnum_ccdc_archive 'CCDC 1174119'
_chemical_formula_sum 'C23 H26 O8'
_chemical_formula_moiety
;
C23 H26 O8
;
_journal_coden_Cambridge 4
_journal_volume 116
_journal_year 1994
_journal_page_first 3645
_journal_name_full 'J.Am.Chem.Soc. '
loop_
_publ_author_name
"R.N.Warrener"
"G.Abbenante"
"C.H.L.Kennard"
_chemical_name_systematic
;
Tetramethyl (4)ladderane-tetracarboxylate
;
_chemical_name_common
;
Teaching Subset: Fundamental Chemistry
;
_chemical_melting_point 435
_cell_volume   1053.327
_exptl_crystal_density_diffrn 1.357
_exptl_special_details
;
Melting point range 435-436K

;
_diffrn_ambient_temperature ?
_diffrn_special_details
;
The study was carried out at room temperature,in the range 283-303K

;
#These two values have been output from a single CSD field.
_refine_ls_R_factor_gt 0.0414
_refine_ls_wR_factor_gt 0.0414
_symmetry_cell_setting triclinic
_symmetry_space_group_name_H-M 'P -1'
_symmetry_Int_Tables_number 2
loop_
_symmetry_equiv_pos_site_id
_symmetry_equiv_pos_as_xyz
1 x,y,z
2 -x,-y,-z
_cell_length_a 7.723(1)
_cell_length_b 11.285(1)
_cell_length_c 12.937(1)
_cell_angle_alpha 76.329(9)
_cell_angle_beta 75.347(12)
_cell_angle_gamma 80.526(11)
_cell_formula_units_Z 2
loop_
_atom_type_symbol
_atom_type_radius_bond
C 0.68
H 0.23
O 0.68
loop_
_atom_site_label
_atom_site_type_symbol
_atom_site_fract_x
_atom_site_fract_y
_atom_site_fract_z
C1 C -0.0270(3) 0.8372(2) 0.4560(2)
C2 C -0.0564(2) 0.7199(2) 0.4255(1)
C3 C -0.1258(2) 0.7279(2) 0.3213(1)
C4 C -0.2496(2) 0.8394(2) 0.2871(2)
O1 O -0.3508(2) 0.8962(1) 0.3494(1)
O2 O -0.2417(2) 0.8665(1) 0.1798(1)
C5 C -0.3659(3) 0.9684(2) 0.1419(2)
C6 C -0.1861(2) 0.6011(2) 0.3249(1)
C7 C -0.2612(3) 0.5920(2) 0.2275(2)
C8 C -0.2888(2) 0.4619(2) 0.2293(2)
C9 C -0.4422(2) 0.3934(2) 0.2914(2)
O3 O -0.5655(2) 0.4351(1) 0.3546(1)
O4 O -0.4251(2) 0.2812(1) 0.2730(1)
C10 C -0.5681(3) 0.2072(2) 0.3336(2)
C11 C -0.1211(3) 0.4355(2) 0.1712(1)
C12 C 0.0004(3) 0.3270(2) 0.1418(2)
O5 O 0.1591(2) 0.3216(2) 0.1327(2)
O6 O -0.0776(2) 0.2416(1) 0.1240(1)
C13 C 0.0397(4) 0.1350(2) 0.0950(2)
C14 C -0.0641(3) 0.5585(2) 0.1627(2)
C15 C 0.0104(2) 0.5594(2) 0.2627(1)
C16 C 0.0721(2) 0.6817(2) 0.2606(1)
C17 C 0.1899(2) 0.7400(2) 0.1557(2)
O7 O 0.1787(2) 0.8453(1) 0.1097(1)
O8 O 0.3177(2) 0.6545(1) 0.1201(1)
C18 C 0.4440(3) 0.6934(2) 0.0184(2)
C19 C 0.1383(2) 0.6740(2) 0.3662(1)
C20 C 0.2501(3) 0.7730(2) 0.3668(2)
C21 C 0.2711(3) 0.7540(2) 0.4846(2)
C22 C 0.0798(3) 0.7951(2) 0.5462(2)
C23 C 0.1174(3) 0.8900(2) 0.3588(2)
H1 H -0.1361(3) 0.8936(2) 0.4732(2)
H2 H -0.1106(2) 0.6594(2) 0.4882(1)
H3 H -0.3396(14) 0.9864(10) 0.0636(2)
H4 H -0.3536(15) 1.0391(5) 0.1675(11)
H5 H -0.4869(4) 0.9474(6) 0.1696(11)
H6 H -0.2343(2) 0.5515(2) 0.3966(1)
H7 H -0.3386(3) 0.6611(2) 0.1951(2)
H8 H -0.5287(8) 0.1227(3) 0.3304(12)
H9 H -0.6719(8) 0.2339(10) 0.3025(8)
H10 H -0.5988(16) 0.2160(12) 0.4083(4)
H11 H 0.1128(16) 0.1571(4) 0.0229(6)
H12 H -0.0316(4) 0.0721(6) 0.0969(13)
H13 H 0.1158(16) 0.1051(9) 0.1461(8)
H14 H -0.0160(3) 0.6085(2) 0.0912(2)
H15 H 0.0750(2) 0.4836(2) 0.2961(1)
H16 H 0.5370(12) 0.6274(5) 0.0052(7)
H17 H 0.4968(16) 0.7629(9) 0.0227(5)
H18 H 0.3821(5) 0.7157(14) -0.0403(3)
H19 H 0.1831(2) 0.5909(2) 0.3993(1)
H20 H 0.3630(3) 0.7776(2) 0.3112(2)
H21 H 0.3583(3) 0.8041(2) 0.4894(2)
H22 H 0.3082(3) 0.6686(2) 0.5130(2)
H23 H 0.0289(3) 0.7275(2) 0.6010(2)
H24 H 0.0812(3) 0.8619(2) 0.5812(2)
H25 H 0.1639(3) 0.9594(2) 0.3704(2)
H26 H 0.0773(3) 0.9114(2) 0.2908(2)
#END
