
#######################################################################
#
#                 Cambridge Crystallographic Data Centre
#                                CCDC
#
#######################################################################
#
# If this CIF has been generated from an entry in the Cambridge
# Structural Database, then it will include bibliographic, chemical,
# crystal, experimental, refinement or atomic coordinate data resulting
# from the CCDC's data processing and validation procedures.
#
#######################################################################

data_CSD_CIF_HENNET
_audit_creation_date 1995-02-08
_audit_creation_method CSD-ConQuest-V1
_database_code_CSD HENNET
_database_code_depnum_ccdc_archive 'CCDC 1174537'
_chemical_formula_sum 'C10 H26 N8 Ni1 S2'
_chemical_formula_moiety
;
C8 H26 N6 Ni1 2+,2(C1 N1 S1 1-)
;
_journal_coden_Cambridge 186
_journal_year 1994
_journal_page_first 2367
_journal_name_full 'J.Chem.Soc.,Dalton Trans. '
loop_
_publ_author_name
"A.K.Mukherjee"
"S.Koner"
"A.Ghosh"
"N.R.Chaudhuri"
"M.Mukherjee"
"A.J.Welch"
_chemical_name_systematic
;
sym-fac-bis(Diethylenetriamino-N,N',N'')-nickel(ii) bis(thiocyanate)
;
_chemical_name_common
;
Teaching Subset: Fundamental Chemistry, Symmetry
;
_cell_volume    421.933
_exptl_crystal_colour 'pink'
_exptl_crystal_density_diffrn 1.5
_exptl_special_details
;
phase transition at 162-180 deg.C
x(HN3A) is -0.338, not -0.388

;
_diffrn_ambient_temperature 185
#These two values have been output from a single CSD field.
_refine_ls_R_factor_gt 0.024
_refine_ls_wR_factor_gt 0.024
loop_
_citation_database_id_CSD
_citation_special_details
HENNIX "is a stereoisomer of this entry"
_symmetry_cell_setting triclinic
_symmetry_space_group_name_H-M 'P -1'
_symmetry_Int_Tables_number 2
loop_
_symmetry_equiv_pos_site_id
_symmetry_equiv_pos_as_xyz
1 x,y,z
2 -x,-y,-z
_cell_length_a 7.240(2)
_cell_length_b 8.225(3)
_cell_length_c 8.766(3)
_cell_angle_alpha 63.27(2)
_cell_angle_beta 74.07(4)
_cell_angle_gamma 65.56(2)
_cell_formula_units_Z 1
loop_
_atom_type_symbol
_atom_type_radius_bond
C 0.68
H 0.23
N 0.68
Ni 1.50
S 1.02
loop_
_atom_site_label
_atom_site_type_symbol
_atom_site_fract_x
_atom_site_fract_y
_atom_site_fract_z
Ni1 Ni 0.00000 0.00000 0.00000
N1 N -0.0154(2) 0.2748(2) -0.0233(2)
N2 N 0.1639(2) 0.0836(2) -0.2455(2)
N3 N -0.2441(2) 0.1238(2) -0.1467(2)
C1 C 0.0574(3) 0.3837(2) -0.2012(3)
C2 C 0.2218(3) 0.2510(3) -0.2758(3)
C3 C 0.0451(3) 0.1056(3) -0.3695(2)
C4 C -0.1739(3) 0.1999(3) -0.3322(2)
H1 H -0.135(4) 0.336(3) 0.010(3)
H2 H 0.054(3) 0.265(3) 0.041(3)
H3 H -0.061(3) 0.456(3) -0.273(3)
H4 H 0.107(3) 0.483(3) -0.209(3)
H5 H 0.265(3) 0.315(3) -0.400(3)
H6 H 0.347(3) 0.197(3) -0.218(3)
H7 H 0.269(3) -0.003(3) -0.246(3)
H8 H 0.098(3) 0.177(3) -0.489(3)
H9 H 0.063(4) -0.036(4) -0.351(3)
H10 H -0.251(4) 0.187(3) -0.397(3)
H11 H -0.195(3) 0.349(3) -0.376(3)
H12 H -0.338(3) 0.217(3) -0.118(3)
H13 H -0.299(3) 0.046(3) -0.119(3)
N4 N -0.3398(3) -0.2066(3) -0.1531(3)
C5 C -0.4144(2) -0.2756(2) -0.1985(2)
S1 S -0.5258(1) -0.3687(1) -0.2634(1)
N1A N 0.0154(2) -0.2748(2) 0.0233(2)
N2A N -0.1639(2) -0.0836(2) 0.2455(2)
N3A N 0.2441(2) -0.1238(2) 0.1467(2)
C1A C -0.0574(3) -0.3837(2) 0.2012(3)
H1A H 0.135(4) -0.336(3) -0.010(3)
H2A H -0.054(3) -0.265(3) -0.041(3)
C2A C -0.2218(3) -0.2510(3) 0.2758(3)
C3A C -0.0451(3) -0.1056(3) 0.3695(2)
H7A H -0.269(3) 0.003(3) 0.246(3)
C4A C 0.1739(3) -0.1999(3) 0.3322(2)
H12A H 0.338(3) -0.217(3) 0.118(3)
H13A H 0.299(3) -0.046(3) 0.119(3)
H3A H 0.061(3) -0.456(3) 0.273(3)
H4A H -0.107(3) -0.483(3) 0.209(3)
H5A H -0.265(3) -0.315(3) 0.400(3)
H6A H -0.347(3) -0.197(3) 0.218(3)
H8A H -0.098(3) -0.177(3) 0.489(3)
H9A H -0.063(4) 0.036(4) 0.351(3)
H10A H 0.251(4) -0.187(3) 0.397(3)
H11A H 0.195(3) -0.349(3) 0.376(3)
#END
