####################################################################### 
# 
# This file contains crystal structure data downloaded from the 
# Cambridge Structural Database (CSD) hosted by the Cambridge 
# Crystallographic Data Centre (CCDC).
# 
# Full information about CCDC data access policies and citation 
# guidelines are available at http://www.ccdc.cam.ac.uk/access/V1 
# 
# Audit and citation data items may have been added by the CCDC. 
# Please retain this information to preserve the provenance of 
# this file and to allow appropriate attribution of the data. 
# 
#######################################################################

data_ds
_audit_block_doi                 10.5517/ccn78kp
_database_code_depnum_ccdc_archive 'CCDC 602812'
loop_
_citation_id
_citation_doi
_citation_year
1 10.1016/j.molstruc.2006.05.011 2007
_audit_update_record             
;
2006-03-25 deposited with the CCDC.	2024-07-10 downloaded from the CCDC.
;

_audit_creation_method           SHELXL-97
_chemical_name_systematic        
;
?
;
_chemical_name_common            "Cobalt 4,4'-bipyridine hexacadavanadate"
_chemical_melting_point          'not measured'
_chemical_formula_moiety         'C50 H32 Cl Co2 N10 O44 V16'
_chemical_formula_sum            'C100 H64 Cl2 Co4 N20 O88 V32'
_chemical_formula_weight         4890.4

loop_
_atom_type_symbol
_atom_type_description
_atom_type_scat_dispersion_real
_atom_type_scat_dispersion_imag
_atom_type_scat_source
C C 0.0033 0.0016 'International Tables Vol C Tables 4.2.6.8 and 6.1.1.4'
H H 0.0000 0.0000 'International Tables Vol C Tables 4.2.6.8 and 6.1.1.4'
N N 0.0061 0.0033 'International Tables Vol C Tables 4.2.6.8 and 6.1.1.4'
O O 0.0106 0.0060 'International Tables Vol C Tables 4.2.6.8 and 6.1.1.4'
Cl Cl 0.1484 0.1585 'International Tables Vol C Tables 4.2.6.8 and 6.1.1.4'
V V 0.3005 0.5294 'International Tables Vol C Tables 4.2.6.8 and 6.1.1.4'
Co Co 0.3494 0.9721 'International Tables Vol C Tables 4.2.6.8 and 6.1.1.4'

_symmetry_cell_setting           tetragonal
_symmetry_space_group_name_H-M   P-4n2
_symmetry_space_group_name_Hall  'P -4 -2n'

loop_
_symmetry_equiv_pos_as_xyz
'x, y, z'
'-x, -y, z'
'y, -x, -z'
'-y, x, -z'
'x+1/2, -y+1/2, z+1/2'
'-x+1/2, y+1/2, z+1/2'
'y+1/2, x+1/2, -z+1/2'
'-y+1/2, -x+1/2, -z+1/2'

_cell_length_a                   17.038(2)
_cell_length_b                   17.038(2)
_cell_length_c                   14.754(3)
_cell_angle_alpha                90.00
_cell_angle_beta                 90.00
_cell_angle_gamma                90.00
_cell_volume                     4282.9(12)
_cell_formula_units_Z            1
_cell_measurement_temperature    293(2)
_cell_measurement_reflns_used    1505
_cell_measurement_theta_min      3.01
_cell_measurement_theta_max      27.51

_exptl_crystal_description       polyhedron
_exptl_crystal_colour            black
_exptl_crystal_size_max          0.26
_exptl_crystal_size_mid          0.24
_exptl_crystal_size_min          0.18
_exptl_crystal_density_meas      none
_exptl_crystal_density_diffrn    1.896
_exptl_crystal_density_method    'not measured'
_exptl_crystal_F_000             2385.8
_exptl_absorpt_coefficient_mu    2.154
_exptl_absorpt_correction_type   multi-scan
_exptl_absorpt_correction_T_min  0.577
_exptl_absorpt_correction_T_max  0.679
_exptl_absorpt_process_details   'SADABS(Sheldrick, 1996)'

_exptl_special_details           
;
?
;

_diffrn_ambient_temperature      293(2)
_diffrn_radiation_wavelength     0.71073
_diffrn_radiation_type           MoK\a
_diffrn_radiation_source         'fine-focus sealed tube'
_diffrn_radiation_monochromator  graphite
_diffrn_measurement_device_type  'Rigaku RAXIS RAPID IP'
_diffrn_measurement_method       '\w scan'
_diffrn_detector_area_resol_mean 10.0
_diffrn_standards_number         none
_diffrn_standards_interval_count none
_diffrn_standards_interval_time  none
_diffrn_standards_decay_%        none
_diffrn_reflns_number            39628
_diffrn_reflns_av_R_equivalents  0.5918
_diffrn_reflns_av_sigmaI/netI    0.5358
_diffrn_reflns_limit_h_min       -22
_diffrn_reflns_limit_h_max       22
_diffrn_reflns_limit_k_min       -22
_diffrn_reflns_limit_k_max       22
_diffrn_reflns_limit_l_min       -16
_diffrn_reflns_limit_l_max       19
_diffrn_reflns_theta_min         3.01
_diffrn_reflns_theta_max         27.51
_reflns_number_total             4935
_reflns_number_gt                1505
_reflns_threshold_expression     >2sigma(I)

_computing_data_collection       PROCESS-AUTO
_computing_cell_refinement       PROCESS-AUTO
_computing_data_reduction        PROCESS-AUTO
_computing_structure_solution    'SHELXS-97 (Sheldrick, 1990)'
_computing_structure_refinement  'SHELXL-97 (Sheldrick, 1997)'
_computing_molecular_graphics    'SHELXTL-PLUS (Sheldrick, 1990)'
_computing_publication_material  SHELXL-97

_refine_special_details          
;
Refinement of F^2^ against ALL reflections. The weighted R-factor wR and
goodness of fit S are based on F^2^, conventional R-factors R are based
on F, with F set to zero for negative F^2^. The threshold expression of
F^2^ > 2sigma(F^2^) is used only for calculating R-factors(gt) etc. and is
not relevant to the choice of reflections for refinement. R-factors based
on F^2^ are statistically about twice as large as those based on F, and R-
factors based on ALL data will be even larger.
;

_refine_ls_structure_factor_coef Fsqd
_refine_ls_matrix_type           full
_refine_ls_weighting_scheme      calc
_refine_ls_weighting_details     
'calc w=1/[\s^2^(Fo^2^)+(0.0000P)^2^+0.0000P] where P=(Fo^2^+2Fc^2^)/3'
_atom_sites_solution_primary     direct
_atom_sites_solution_secondary   difmap
_atom_sites_solution_hydrogens   geom
_refine_ls_hydrogen_treatment    mixed
_refine_ls_extinction_method     none
_refine_ls_extinction_coef       ?
_refine_ls_abs_structure_details 'Flack H D (1983), Acta Cryst. A39, 876-881'
_refine_ls_abs_structure_Flack   0.07(7)
_refine_ls_number_reflns         4935
_refine_ls_number_parameters     249
_refine_ls_number_restraints     2
_refine_ls_R_factor_all          0.1150
_refine_ls_R_factor_gt           0.0494
_refine_ls_wR_factor_ref         0.1347
_refine_ls_wR_factor_gt          0.1199
_refine_ls_goodness_of_fit_ref   0.556
_refine_ls_restrained_S_all      0.556
_refine_ls_shift/su_max          1.181
_refine_ls_shift/su_mean         0.012

loop_
_atom_site_label
_atom_site_type_symbol
_atom_site_fract_x
_atom_site_fract_y
_atom_site_fract_z
_atom_site_U_iso_or_equiv
_atom_site_adp_type
_atom_site_occupancy
_atom_site_symmetry_multiplicity
_atom_site_calc_flag
_atom_site_refinement_flags
_atom_site_disorder_assembly
_atom_site_disorder_group
Co1 Co 0.25500(9) 0.75500(9) 0.2500 0.0108(4) Uani 1 2 d S . .
C1 C 0.0888(8) 0.7390(9) 0.1820(13) 0.045(4) Uani 1 1 d . . .
H1A H 0.0804 0.7566 0.2409 0.054 Uiso 1 1 calc R . .
C2 C 0.0240(8) 0.7348(8) 0.1233(12) 0.033(4) Uani 1 1 d . . .
H2A H -0.0261 0.7475 0.1436 0.040 Uiso 1 1 calc R . .
C3 C 0.0362(8) 0.7121(7) 0.0366(13) 0.029(4) Uani 1 1 d . . .
C4 C 0.1135(7) 0.6909(8) 0.0081(11) 0.032(4) Uani 1 1 d . . .
H4A H 0.1237 0.6724 -0.0500 0.038 Uiso 1 1 calc R . .
C5 C 0.1749(7) 0.6998(8) 0.0749(12) 0.037(4) Uani 1 1 d . . .
H5A H 0.2266 0.6912 0.0572 0.044 Uiso 1 1 calc R . .
C6 C 0.3053(6) 0.8364(6) 0.0706(11) 0.019(3) Uiso 1 1 d . . .
H6A H 0.3187 0.7857 0.0529 0.022 Uiso 1 1 calc R . .
C7 C 0.3068(8) 0.8921(8) 0.0082(14) 0.043(5) Uani 1 1 d . . .
H7A H 0.3174 0.8786 -0.0517 0.051 Uiso 1 1 calc R . .
C8 C 0.2929(7) 0.9714(8) 0.0300(11) 0.021(3) Uani 1 1 d . . .
C9 C 0.2755(7) 0.9853(7) 0.1242(12) 0.022(3) Uiso 1 1 d . . .
H9A H 0.2675 1.0360 0.1454 0.026 Uiso 1 1 calc R . .
C10 C 0.2708(7) 0.9209(7) 0.1836(12) 0.023(3) Uiso 1 1 d . . .
H10A H 0.2567 0.9301 0.2435 0.027 Uiso 1 1 calc R . .
C11 C 0.0476(12) 0.4558(13) 0.2048(16) 0.000(5) Uiso 0.37 1 d P . .
C12 C 0.0000 0.5000 0.1494(17) 0.000(5) Uiso 0.25 2 d SPD . .
C13 C -0.0664(8) 0.5027(10) -0.0206(12) 0.000(4) Uiso 0.50 1 d PD . .
C14 C -0.0617(12) 0.4982(11) -0.1480(18) 0.015(5) Uiso 0.50 1 d P . .
C15 C 0.0000 0.5000 0.0466(17) 0.037(9) Uiso 0.50 2 d SPD . .
C16 C 0.0000 0.5000 -0.311(3) 0.004(12) Uiso 0.50 2 d SP . .
C17 C -0.0666(11) 0.5021(11) -0.0843(19) 0.015(5) Uiso 0.50 1 d P . .
V1 V 0.42900(17) 0.43567(16) 0.22944(15) 0.0522(6) Uani 1 1 d . . .
V2 V 0.31604(11) 0.55237(11) -0.0872(2) 0.0261(6) Uani 1 1 d . . .
V3 V 0.31216(11) 0.46862(11) 0.0855(2) 0.0229(6) Uani 1 1 d . . .
V4 V 0.38955(10) 0.62199(10) 0.12687(11) 0.0133(4) Uani 1 1 d . . .
N1 N 0.1611(5) 0.7192(5) 0.1586(9) 0.017(2) Uiso 1 1 d . . .
N2 N 0.2855(6) 0.8482(6) 0.1584(9) 0.020(2) Uiso 1 1 d . . .
N3 N 0.0000 0.5000 -0.168(5) 0.000(19) Uiso 0.25 2 d SP . .
N4 N 0.0000 0.5000 -0.007(3) 0.022(6) Uiso 0.50 2 d SP . .
N5 N 0.0000 0.5000 0.1494(17) 0.000(5) Uiso 0.25 2 d SP . .
O1 O 0.3644(4) 0.3805(4) 0.1210(5) 0.0264(19) Uani 1 1 d . . .
O2 O 0.2237(4) 0.4600(5) 0.1197(7) 0.035(3) Uani 1 1 d . . .
O3 O 0.4916(4) 0.6287(5) 0.1816(7) 0.025(3) Uani 1 1 d . . .
O4 O 0.3729(5) 0.5222(5) 0.1780(8) 0.033(3) Uani 1 1 d . . .
O5 O 0.2304(4) 0.5739(5) -0.1240(8) 0.041(3) Uani 1 1 d . . .
O6 O 0.4415(5) 0.6860(4) 0.0384(7) 0.021(2) Uani 1 1 d . . .
O7 O 0.3839(6) 0.4000(6) 0.3171(6) 0.061(3) Uani 1 1 d . . .
O8 O 0.3242(5) 0.5757(5) 0.0381(8) 0.033(3) Uani 1 1 d . . .
O9 O 0.3322(4) 0.6820(4) 0.1819(5) 0.0165(16) Uani 1 1 d . . .
O10 O 0.5000 0.5000 0.2876(8) 0.000(2) Uiso 0.63 2 d SP . .
Cl1 Cl 0.5000 0.5000 0.0000 0.0354(15) Uani 1 4 d S . .
O10' O 0.5000 0.5000 0.2075(14) 0.000(4) Uiso 0.37 2 d SP . .
O1W O 0.4539(16) 0.5694(17) 0.4815(18) 0.217(12) Uiso 0.75 1 d P . .
O3W O 0.1950(11) 0.3050(11) 0.2500 0.209(12) Uiso 1 2 d S . .
O2W O 0.5000 0.5000 0.5000 0.170(12) Uiso 1 4 d S . .

loop_
_atom_site_aniso_label
_atom_site_aniso_U_11
_atom_site_aniso_U_22
_atom_site_aniso_U_33
_atom_site_aniso_U_23
_atom_site_aniso_U_13
_atom_site_aniso_U_12
Co1 0.0112(5) 0.0112(5) 0.0099(9) 0.0003(6) -0.0003(6) 0.0002(8)
C1 0.046(9) 0.067(10) 0.021(10) -0.017(8) -0.012(7) -0.019(7)
C2 0.022(6) 0.050(8) 0.027(9) -0.010(7) 0.007(6) 0.004(5)
C3 0.032(8) 0.014(6) 0.042(14) 0.007(7) -0.015(7) 0.004(6)
C4 0.038(8) 0.052(8) 0.007(10) -0.020(8) -0.020(7) 0.016(7)
C5 0.019(6) 0.063(8) 0.029(9) -0.020(7) -0.022(6) 0.021(6)
C7 0.042(8) 0.036(8) 0.050(15) -0.026(8) -0.012(9) 0.009(6)
C8 0.031(7) 0.022(7) 0.011(10) 0.003(6) -0.004(6) -0.001(6)
V1 0.0623(19) 0.0579(19) 0.0364(15) 0.0090(16) 0.0106(16) 0.0212(11)
V2 0.0186(10) 0.0313(11) 0.0284(17) 0.0065(12) -0.0023(12) -0.0016(9)
V3 0.0176(10) 0.0312(11) 0.0198(15) 0.0009(11) 0.0011(11) 0.0014(9)
V4 0.0120(9) 0.0121(9) 0.0158(10) -0.0014(9) 0.0007(8) 0.0026(7)
O1 0.028(4) 0.015(4) 0.036(5) 0.010(4) 0.021(4) 0.009(3)
O2 0.030(5) 0.046(5) 0.030(7) 0.013(5) 0.016(4) 0.009(4)
O3 0.006(4) 0.047(6) 0.022(7) 0.011(5) -0.001(4) 0.003(4)
O4 0.046(6) 0.026(5) 0.029(8) 0.002(5) 0.007(5) 0.005(4)
O5 0.015(4) 0.050(5) 0.058(9) 0.018(6) 0.008(5) 0.002(4)
O6 0.031(4) 0.013(4) 0.018(6) 0.007(4) 0.008(4) 0.002(3)
O7 0.040(6) 0.107(9) 0.036(6) 0.018(6) 0.024(5) 0.014(5)
O8 0.027(5) 0.038(5) 0.034(8) -0.012(5) -0.002(4) 0.012(4)
O9 0.022(4) 0.010(4) 0.018(4) -0.003(3) 0.005(3) -0.009(3)
Cl1 0.0235(17) 0.0235(17) 0.059(5) 0.000 0.000 0.000

_geom_special_details            
;
All esds (except the esd in the dihedral angle between two l.s. planes)
are estimated using the full covariance matrix. The cell esds are taken
into account individually in the estimation of esds in distances, angles
and torsion angles; correlations between esds in cell parameters are only
used when they are defined by crystal symmetry. An approximate (isotropic)
treatment of cell esds is used for estimating esds involving l.s. planes.
;

loop_
_geom_bond_atom_site_label_1
_geom_bond_atom_site_label_2
_geom_bond_distance
_geom_bond_site_symmetry_2
_geom_bond_publ_flag
Co1 O9 2.071(6) 7_455 ?
Co1 O9 2.071(6) . ?
Co1 N2 2.149(11) 7_455 ?
Co1 N2 2.149(11) . ?
Co1 N1 2.179(11) . ?
Co1 N1 2.179(11) 7_455 ?
C1 N1 1.323(17) . ?
C1 C2 1.41(2) . ?
C1 H1A 0.9300 . ?
C2 C3 1.35(2) . ?
C2 H2A 0.9300 . ?
C3 C4 1.429(19) . ?
C3 C8 1.481(13) 3_465 ?
C4 C5 1.444(19) . ?
C4 H4A 0.9300 . ?
C5 N1 1.30(2) . ?
C5 H5A 0.9300 . ?
C6 C7 1.32(2) . ?
C6 N2 1.355(19) . ?
C6 H6A 0.9300 . ?
C7 C8 1.409(18) . ?
C7 H7A 0.9300 . ?
C8 C9 1.44(2) . ?
C8 C3 1.481(13) 4_665 ?
C9 C10 1.41(2) . ?
C9 H9A 0.9300 . ?
C10 N2 1.317(14) . ?
C10 H10A 0.9300 . ?
C11 C11 1.34(5) 8 ?
C11 C12 1.38(3) . ?
C12 C11 1.38(3) 2_565 ?
C12 C15 1.517(18) . ?
C13 C17 0.94(3) . ?
C13 N4 1.150(16) . ?
C13 C15 1.505(16) . ?
C13 C14 1.88(3) . ?
C14 C17 0.95(3) . ?
C14 N3 1.09(3) . ?
C14 C16 1.21(3) 7_454 ?
C15 N4 0.79(5) . ?
C15 C13 1.505(16) 2_565 ?
C16 C14 1.21(3) 8_554 ?
C16 C14 1.21(3) 7_454 ?
C16 C16 1.80(8) 7_454 ?
C16 C17 1.92(4) 8_554 ?
C16 C17 1.92(4) 7_454 ?
C17 N4 1.61(4) . ?
C17 N3 1.68(7) . ?
C17 C16 1.92(4) 7_454 ?
V1 O7 1.622(8) . ?
V1 O10' 1.664(5) . ?
V1 O10 1.844(6) . ?
V1 O3 1.879(9) 2_665 ?
V1 O4 1.914(10) . ?
V1 O1 2.158(8) . ?
V1 V2 2.943(4) 4_655 ?
V1 V3 2.965(4) . ?
V2 O5 1.599(9) . ?
V2 O1 1.862(8) 3_565 ?
V2 O8 1.895(11) . ?
V2 O3 1.974(10) 4_655 ?
V2 O6 2.022(9) 4_655 ?
V2 V3 2.920(3) . ?
V2 V1 2.943(4) 3_565 ?
V2 V4 3.025(3) 4_655 ?
V3 O2 1.596(8) . ?
V3 O1 1.822(8) . ?
V3 O6 1.885(10) 4_655 ?
V3 O4 1.941(11) . ?
V3 O8 1.964(10) . ?
V3 V4 2.990(3) . ?
V4 O9 1.630(6) . ?
V4 O4 1.882(10) . ?
V4 O8 1.892(10) . ?
V4 O6 1.918(9) . ?
V4 O3 1.921(8) . ?
V4 V2 3.025(3) 3_565 ?
N3 C16 0.31(10) 7_454 ?
N3 C14 1.09(3) 2_565 ?
N3 C17 1.68(7) 2_565 ?
N4 C13 1.150(16) 2_565 ?
N4 C17 1.61(4) 2_565 ?
O1 V2 1.862(8) 4_655 ?
O3 V1 1.879(9) 2_665 ?
O3 V2 1.974(10) 3_565 ?
O6 V3 1.885(10) 3_565 ?
O6 V2 2.022(9) 3_565 ?
O10 O10' 1.18(2) . ?
O10 V1 1.844(6) 2_665 ?
O10' V1 1.664(5) 2_665 ?
O1W O2W 1.45(2) . ?
O2W O1W 1.45(2) 4_656 ?
O2W O1W 1.45(2) 3_566 ?
O2W O1W 1.45(2) 2_665 ?

loop_
_geom_angle_atom_site_label_1
_geom_angle_atom_site_label_2
_geom_angle_atom_site_label_3
_geom_angle
_geom_angle_site_symmetry_1
_geom_angle_site_symmetry_3
_geom_angle_publ_flag
O9 Co1 O9 177.2(4) 7_455 . ?
O9 Co1 N2 89.2(3) 7_455 7_455 ?
O9 Co1 N2 88.9(3) . 7_455 ?
O9 Co1 N2 88.9(3) 7_455 . ?
O9 Co1 N2 89.2(3) . . ?
N2 Co1 N2 92.2(6) 7_455 . ?
O9 Co1 N1 92.1(3) 7_455 . ?
O9 Co1 N1 89.9(3) . . ?
N2 Co1 N1 177.7(5) 7_455 . ?
N2 Co1 N1 89.7(3) . . ?
O9 Co1 N1 89.9(3) 7_455 7_455 ?
O9 Co1 N1 92.1(3) . 7_455 ?
N2 Co1 N1 89.7(3) 7_455 7_455 ?
N2 Co1 N1 177.7(5) . 7_455 ?
N1 Co1 N1 88.4(6) . 7_455 ?
N1 C1 C2 123.9(16) . . ?
N1 C1 H1A 118.0 . . ?
C2 C1 H1A 118.0 . . ?
C3 C2 C1 118.4(14) . . ?
C3 C2 H2A 120.8 . . ?
C1 C2 H2A 120.8 . . ?
C2 C3 C4 119.5(14) . . ?
C2 C3 C8 122.0(12) . 3_465 ?
C4 C3 C8 118.5(13) . 3_465 ?
C3 C4 C5 116.1(14) . . ?
C3 C4 H4A 122.0 . . ?
C5 C4 H4A 122.0 . . ?
N1 C5 C4 123.0(12) . . ?
N1 C5 H5A 118.5 . . ?
C4 C5 H5A 118.5 . . ?
C7 C6 N2 124.4(13) . . ?
C7 C6 H6A 117.8 . . ?
N2 C6 H6A 117.8 . . ?
C6 C7 C8 121.7(18) . . ?
C6 C7 H7A 119.1 . . ?
C8 C7 H7A 119.1 . . ?
C7 C8 C9 114.4(14) . . ?
C7 C8 C3 125.0(13) . 4_665 ?
C9 C8 C3 120.4(11) . 4_665 ?
C10 C9 C8 119.0(13) . . ?
C10 C9 H9A 120.5 . . ?
C8 C9 H9A 120.5 . . ?
N2 C10 C9 123.2(15) . . ?
N2 C10 H10A 118.4 . . ?
C9 C10 H10A 118.4 . . ?
C11 C11 C12 126.2(13) 8 . ?
C11 C12 C11 107(2) 2_565 . ?
C11 C12 C15 126.4(12) 2_565 . ?
C11 C12 C15 126.4(12) . . ?
C17 C13 N4 100(3) . . ?
C17 C13 C15 131(2) . . ?
N4 C13 C15 31(2) . . ?
C17 C13 C14 3.1(16) . . ?
N4 C13 C14 97(3) . . ?
C15 C13 C14 128.7(14) . . ?
C17 C14 N3 110(5) . . ?
C17 C14 C16 125(3) . 7_454 ?
N3 C14 C16 14(5) . 7_454 ?
C17 C14 C13 3.1(16) . . ?
N3 C14 C13 108(5) . . ?
C16 C14 C13 122(2) 7_454 . ?
N4 C15 C13 48.8(9) . . ?
N4 C15 C13 48.8(9) . 2_565 ?
C13 C15 C13 97.6(19) . 2_565 ?
N4 C15 C12 180.000(10) . . ?
C13 C15 C12 131.2(9) . . ?
C13 C15 C12 131.2(9) 2_565 . ?
C14 C16 C14 120(4) 8_554 7_454 ?
C14 C16 C16 120(2) 8_554 7_454 ?
C14 C16 C16 120(2) 7_454 7_454 ?
C14 C16 C17 23.9(17) 8_554 8_554 ?
C14 C16 C17 96(3) 7_454 8_554 ?
C16 C16 C17 143.7(10) 7_454 8_554 ?
C14 C16 C17 96(3) 8_554 7_454 ?
C14 C16 C17 23.9(17) 7_454 7_454 ?
C16 C16 C17 143.7(10) 7_454 7_454 ?
C17 C16 C17 73(2) 8_554 7_454 ?
C13 C17 C14 174(3) . . ?
C13 C17 N4 44.7(18) . . ?
C14 C17 N4 130(3) . . ?
C13 C17 N3 137(3) . . ?
C14 C17 N3 38(3) . . ?
N4 C17 N3 92(2) . . ?
C13 C17 C16 143(2) . 7_454 ?
C14 C17 C16 31.4(18) . 7_454 ?
N4 C17 C16 98.8(18) . 7_454 ?
N3 C17 C16 6(2) . 7_454 ?
O7 V1 O10' 138.2(8) . . ?
O7 V1 O10 99.4(5) . . ?
O10' V1 O10 38.9(7) . . ?
O7 V1 O3 115.0(6) . 2_665 ?
O10' V1 O3 77.8(4) . 2_665 ?
O10 V1 O3 92.8(3) . 2_665 ?
O7 V1 O4 111.5(6) . . ?
O10' V1 O4 77.2(4) . . ?
O10 V1 O4 93.1(3) . . ?
O3 V1 O4 131.3(3) 2_665 . ?
O7 V1 O1 100.7(4) . . ?
O10' V1 O1 120.9(7) . . ?
O10 V1 O1 159.8(4) . . ?
O3 V1 O1 80.5(3) 2_665 . ?
O4 V1 O1 77.7(4) . . ?
O7 V1 V2 111.1(4) . 4_655 ?
O10' V1 V2 103.8(6) . 4_655 ?
O10 V1 V2 132.3(3) . 4_655 ?
O3 V1 V2 41.4(3) 2_665 4_655 ?
O4 V1 V2 107.7(4) . 4_655 ?
O1 V1 V2 39.1(2) . 4_655 ?
O7 V1 V3 108.9(4) . . ?
O10' V1 V3 103.0(6) . . ?
O10 V1 V3 131.4(2) . . ?
O3 V1 V3 108.9(3) 2_665 . ?
O4 V1 V3 40.0(3) . . ?
O1 V1 V3 37.7(2) . . ?
V2 V1 V3 72.09(7) 4_655 . ?
O5 V2 O1 105.8(4) . 3_565 ?
O5 V2 O8 110.5(5) . . ?
O1 V2 O8 93.3(4) 3_565 . ?
O5 V2 O3 108.4(5) . 4_655 ?
O1 V2 O3 85.9(3) 3_565 4_655 ?
O8 V2 O3 139.7(4) . 4_655 ?
O5 V2 O6 108.6(4) . 4_655 ?
O1 V2 O6 144.8(3) 3_565 4_655 ?
O8 V2 O6 81.4(4) . 4_655 ?
O3 V2 O6 76.7(4) 4_655 4_655 ?
O5 V2 V3 112.8(4) . . ?
O1 V2 V3 128.2(2) 3_565 . ?
O8 V2 V3 41.7(3) . . ?
O3 V2 V3 111.7(3) 4_655 . ?
O6 V2 V3 39.9(3) 4_655 . ?
O5 V2 V1 111.4(4) . 3_565 ?
O1 V2 V1 47.0(2) 3_565 3_565 ?
O8 V2 V1 128.5(3) . 3_565 ?
O3 V2 V1 39.0(2) 4_655 3_565 ?
O6 V2 V1 111.5(3) 4_655 3_565 ?
