
#######################################################################
#
#                 Cambridge Crystallographic Data Centre
#                                CCDC
#
#######################################################################
#
# If this CIF has been generated from an entry in the Cambridge
# Structural Database, then it will include bibliographic, chemical,
# crystal, experimental, refinement or atomic coordinate data resulting
# from the CCDC's data processing and validation procedures.
#
#######################################################################

data_CSD_CIF_HEVRUV
_audit_creation_date 1995-04-20
_audit_creation_method CSD-ConQuest-V1
_database_code_CSD HEVRUV
_database_code_depnum_ccdc_archive 'CCDC 1175237'
_chemical_formula_sum 'C1 H1 N3 O6'
_chemical_formula_moiety
;
C1 H1 N3 O6
;
_journal_coeditor_code "IUCr SE1040"
_journal_coden_Cambridge 591
_journal_volume 50
_journal_year 1994
_journal_page_first 1790
_journal_name_full 'Acta Crystallogr.,Sect.C:Cryst.Struct.Commun. '
loop_
_publ_author_name
"H.Schodel"
"R.Dienelt"
"H.Bock"
_chemical_name_systematic
;
Trinitromethane
;
_chemical_name_common
;
Teaching Subset: Fundamental Chemistry, Symmetry
;
_chemical_melting_point 571.5
_cell_volume   1111.291
_exptl_crystal_colour 'Colorless'
_exptl_crystal_density_diffrn 1.806
_exptl_special_details
;
Moisture-sensitive

;
_diffrn_ambient_temperature 200
#These two values have been output from a single CSD field.
_refine_ls_R_factor_gt 0.0317
_refine_ls_wR_factor_gt 0.0317
_symmetry_cell_setting cubic
_symmetry_space_group_name_H-M 'P a 3'
_symmetry_Int_Tables_number 205
loop_
_symmetry_equiv_pos_site_id
_symmetry_equiv_pos_as_xyz
1 x,y,z
2 z,x,y
3 y,z,x
4 -x,1/2+y,1/2-z
5 -z,1/2+x,1/2-y
6 -y,1/2+z,1/2-x
7 1/2-x,-y,1/2+z
8 1/2-z,-x,1/2+y
9 1/2-y,-z,1/2+x
10 1/2+x,1/2-y,-z
11 1/2+z,1/2-x,-y
12 1/2+y,1/2-z,-x
13 -x,-y,-z
14 -z,-x,-y
15 -y,-z,-x
16 x,-1/2-y,-1/2+z
17 z,-1/2-x,-1/2+y
18 y,-1/2-z,-1/2+x
19 -1/2+x,y,-1/2-z
20 -1/2+z,x,-1/2-y
21 -1/2+y,z,-1/2-x
22 -1/2-x,-1/2+y,z
23 -1/2-z,-1/2+x,y
24 -1/2-y,-1/2+z,x
_cell_length_a 10.358(1)
_cell_length_b 10.358(1)
_cell_length_c 10.358(1)
_cell_angle_alpha 90
_cell_angle_beta 90
_cell_angle_gamma 90
_cell_formula_units_Z 8
loop_
_atom_type_symbol
_atom_type_radius_bond
C 0.68
H 0.23
N 0.68
O 0.68
loop_
_atom_site_label
_atom_site_type_symbol
_atom_site_fract_x
_atom_site_fract_y
_atom_site_fract_z
O1 O 1.0266(1) 0.8675(1) 0.7821(1)
O2 O 0.9763(1) 0.6654(1) 0.7875(1)
N1 N 0.9515(1) 0.7789(1) 0.7912(1)
C1 C 0.8114(1) 0.81140 0.81140
H1 H 0.7613(14) 0.76130 0.76130
N1A N 0.7912(1) 0.9515(1) 0.7789(1)
N1B N 0.7789(1) 0.7912(1) 0.9515(1)
O1A O 0.7821(1) 1.0266(1) 0.8675(1)
O2A O 0.7875(1) 0.9763(1) 0.6654(1)
O1B O 0.8675(1) 0.7821(1) 1.0266(1)
O2B O 0.6654(1) 0.7875(1) 0.9763(1)
#END
