####################################################################### 
# 
# This file contains crystal structure data downloaded from the 
# Cambridge Structural Database (CSD) hosted by the Cambridge 
# Crystallographic Data Centre (CCDC).
# 
# Full information about CCDC data access policies and citation 
# guidelines are available at http://www.ccdc.cam.ac.uk/access/V1 
# 
# Audit and citation data items may have been added by the CCDC. 
# Please retain this information to preserve the provenance of 
# this file and to allow appropriate attribution of the data. 
# 
#######################################################################

data_K[CuL1]
_audit_block_doi                 10.5517/ccnpgb3
_database_code_depnum_ccdc_archive 'CCDC 616445'
loop_
_citation_id
_citation_doi
_citation_year
1 10.1002/ejic.200600891 2007
_audit_update_record             
;
2006-07-31 deposited with the CCDC.	2024-07-10 downloaded from the CCDC.
;

_audit_creation_date             2005-11-22T14:25:07-00:00
_audit_creation_method           'WinGX routine CIF_UPDATE'

#------------------ CHEMICAL INFORMATION ------------------------------------#

_chemical_formula_moiety         'C6 H12 Cu1 K1 N2 O7 P1'
_chemical_formula_sum            'C6 H12 Cu K N2 O7 P'
_chemical_formula_weight         357.79

#------------------ UNIT CELL INFORMATION -----------------------------------#

_symmetry_cell_setting           trigonal
_symmetry_space_group_name_H-M   'R -3'
_symmetry_space_group_name_Hall  '-R 3'
loop_
_symmetry_equiv_pos_as_xyz
'x, y, z'
'-y, x-y, z'
'-x+y, -x, z'
'x+2/3, y+1/3, z+1/3'
'-y+2/3, x-y+1/3, z+1/3'
'-x+y+2/3, -x+1/3, z+1/3'
'x+1/3, y+2/3, z+2/3'
'-y+1/3, x-y+2/3, z+2/3'
'-x+y+1/3, -x+2/3, z+2/3'
'-x, -y, -z'
'y, -x+y, -z'
'x-y, x, -z'
'-x+2/3, -y+1/3, -z+1/3'
'y+2/3, -x+y+1/3, -z+1/3'
'x-y+2/3, x+1/3, -z+1/3'
'-x+1/3, -y+2/3, -z+2/3'
'y+1/3, -x+y+2/3, -z+2/3'
'x-y+1/3, x+2/3, -z+2/3'

_cell_length_a                   28.477(2)
_cell_length_b                   28.477(2)
_cell_length_c                   8.681(2)
_cell_angle_alpha                90
_cell_angle_beta                 90
_cell_angle_gamma                120
_cell_volume                     6096.6(15)
_cell_formula_units_Z            18
_cell_measurement_temperature    293(2)
_cell_measurement_reflns_used    25
_cell_measurement_theta_min      11.4
_cell_measurement_theta_max      17.5

#------------------ CRYSTAL INFORMATION -------------------------------------#

_exptl_crystal_description       block
_exptl_crystal_colour            blue
_exptl_crystal_size_max          0.55
_exptl_crystal_size_mid          0.35
_exptl_crystal_size_min          0.27
_exptl_crystal_density_diffrn    1.754
_exptl_crystal_density_method    'not measured'
_exptl_crystal_F_000             3258
_exptl_absorpt_coefficient_mu    2.062
_exptl_absorpt_correction_type   psi-scan
_exptl_absorpt_correction_T_min  0.3124
_exptl_absorpt_correction_T_max  0.5646
_exptl_absorpt_process_details   
;
North A.C.T., Phillips D.C. & Mathews F.S. (1968) Acta. Cryst. A24, 351
Number of psi-scan sets used was 2
Theta correction was applied.
Averaged transmission function was used.
Fourier smoothing - Window value 5
;

#------------------ DATA COLLECTION INFORMATION -----------------------------#

_diffrn_radiation_wavelength     0.71073
_diffrn_radiation_type           MoK\a
_diffrn_radiation_probe          x-ray
_diffrn_source                   'fine-focus sealed tube'
_diffrn_radiation_monochromator  graphite
_diffrn_measurement_device_type  'Enraf Nonius MACH3'
_diffrn_measurement_method       'profiled omega/2theta scans'
_diffrn_standards_number         3
_diffrn_standards_interval_count 187
_diffrn_standards_interval_time  1
_diffrn_standards_decay_%        0
loop_
_diffrn_standard_refln_index_h
_diffrn_standard_refln_index_k
_diffrn_standard_refln_index_l
-5 -5 0
-1 -15 -2
0 -9 -11

_diffrn_reflns_number            4275
_diffrn_reflns_av_R_equivalents  0.0649
_diffrn_reflns_av_unetI/netI     0.0818
_diffrn_reflns_limit_h_min       -35
_diffrn_reflns_limit_h_max       30
_diffrn_reflns_limit_k_min       -15
_diffrn_reflns_limit_k_max       35
_diffrn_reflns_limit_l_min       -10
_diffrn_reflns_limit_l_max       5
_diffrn_reflns_theta_min         2.48
_diffrn_reflns_theta_max         25.98
_diffrn_reflns_theta_full        25.98
_diffrn_measured_fraction_theta_max 0.954
_diffrn_measured_fraction_theta_full 0.954
_reflns_number_total             2543
_reflns_number_gt                1731
_reflns_threshold_expression     >2sigma(I)

#------------------ COMPUTER PROGRAMS USED ----------------------------------#

_computing_data_collection       'MACH3/PC (Enraf Nonius, 1996)'
_computing_cell_refinement       'MACH3/PC (Enraf Nonius, 1996)'
_computing_data_reduction        'PROFIT (Streltsov & Zavodnik, 1989)'
_computing_structure_solution    'SHELXS-97 (Sheldrick, 1997)'
_computing_structure_refinement  'SHELXL-97 (Sheldrick, 1997)'
_computing_molecular_graphics    'Ortep-3 for Windows (Farrugia, 1997)'
_computing_publication_material  'WinGX publication routines (Farrugia, 1999)'

#------------------ REFINEMENT INFORMATION ----------------------------------#

_refine_ls_structure_factor_coef Fsqd
_refine_ls_matrix_type           full
_refine_ls_weighting_scheme      calc
_refine_ls_weighting_details     
'calc w=1/[\s^2^(Fo^2^)+(0.0939P)^2^+92.5335P] where P=(Fo^2^+2Fc^2^)/3'
_atom_sites_solution_hydrogens   geom
_refine_ls_hydrogen_treatment    mixed
_refine_ls_extinction_method     none
_refine_ls_number_reflns         2543
_refine_ls_number_parameters     169
_refine_ls_number_restraints     2
_refine_ls_R_factor_all          0.1078
_refine_ls_R_factor_gt           0.057
_refine_ls_wR_factor_gt          0.1686
_refine_ls_wR_factor_ref         0.193
_refine_ls_goodness_of_fit_ref   1.082
_refine_ls_restrained_S_all      1.081
_refine_ls_shift/su_max          0
_refine_ls_shift/su_mean         0
_refine_diff_density_max         0.994
_refine_diff_density_min         -0.924

#------------------ ATOMIC TYPES, COORDINATES AND THERMAL PARAMETERS --------#

loop_
_atom_type_symbol
_atom_type_description
_atom_type_scat_dispersion_real
_atom_type_scat_dispersion_imag
_atom_type_scat_source
C C 0.0033 0.0016 'International Tables Vol C Tables 4.2.6.8 and 6.1.1.4'
H H 0 0 'International Tables Vol C Tables 4.2.6.8 and 6.1.1.4'
N N 0.0061 0.0033 'International Tables Vol C Tables 4.2.6.8 and 6.1.1.4'
O O 0.0106 0.006 'International Tables Vol C Tables 4.2.6.8 and 6.1.1.4'
P P 0.1023 0.0942 'International Tables Vol C Tables 4.2.6.8 and 6.1.1.4'
K K 0.2009 0.2494 'International Tables Vol C Tables 4.2.6.8 and 6.1.1.4'
Cu Cu 0.3201 1.2651 'International Tables Vol C Tables 4.2.6.8 and 6.1.1.4'

loop_
_atom_site_label
_atom_site_type_symbol
_atom_site_fract_x
_atom_site_fract_y
_atom_site_fract_z
_atom_site_U_iso_or_equiv
_atom_site_adp_type
_atom_site_occupancy
_atom_site_calc_flag
_atom_site_refinement_flags
_atom_site_disorder_group
_atom_site_disorder_assembly
C1 C 0.6367(3) 0.1704(3) 0.5060(9) 0.0293(17) Uani 1 d . . .
H1A H 0.6667 0.1936 0.5728 0.035 Uiso 1 calc R . .
H1B H 0.6235 0.1924 0.4582 0.035 Uiso 1 calc R . .
C3 C 0.5767(3) 0.1503(4) 0.7284(11) 0.042(2) Uani 1 d . . .
H3A H 0.5794 0.1842 0.6967 0.051 Uiso 1 calc R . .
H3B H 0.601 0.1577 0.8149 0.051 Uiso 1 calc R . .
C4 C 0.5188(4) 0.1106(4) 0.7774(10) 0.040(2) Uani 1 d . . .
C5 C 0.6043(3) 0.1103(3) 0.2247(10) 0.0308(17) Uani 1 d . . .
H5A H 0.5952 0.137 0.189 0.037 Uiso 1 calc R . .
H5B H 0.6155 0.0975 0.136 0.037 Uiso 1 calc R . .
C7 C 0.5100(3) 0.0380(3) 0.1854(9) 0.0281(17) Uani 1 d . . .
H7A H 0.516 0.0148 0.1159 0.034 Uiso 1 calc R . .
H7B H 0.5081 0.0655 0.1243 0.034 Uiso 1 calc R . .
C8 C 0.4568(3) 0.0045(3) 0.2703(11) 0.0329(19) Uani 1 d . . .
N2 N 0.5931(2) 0.1272(2) 0.5979(7) 0.0244(13) Uani 1 d . . .
H2 H 0.6066 0.1071 0.6397 0.029 Uiso 1 calc R . .
N6 N 0.5558(2) 0.0643(2) 0.2938(7) 0.0236(13) Uani 1 d . . .
H6 H 0.5653 0.039 0.3171 0.028 Uiso 1 calc R . .
O1 O 0.6661(2) 0.0977(2) 0.4337(7) 0.0311(12) Uani 1 d . . .
O2 O 0.7072(2) 0.1874(2) 0.2788(7) 0.0359(14) Uani 1 d . . .
O1W O 0.6688(3) -0.0377(3) 0.6535(9) 0.0515(18) Uani 1 d D . .
O3 O 0.4903(2) 0.0714(3) 0.6854(7) 0.0433(15) Uani 1 d . . .
O4 O 0.5024(3) 0.1187(3) 0.8991(8) 0.066(2) Uani 1 d . . .
O5 O 0.4572(2) 0.0127(2) 0.4147(7) 0.0362(14) Uani 1 d . . .
O6 O 0.4161(2) -0.0274(3) 0.1949(8) 0.0483(17) Uani 1 d . . .
P1 P 0.65992(7) 0.14184(8) 0.3583(2) 0.0237(4) Uani 1 d . . .
K1 K 0.68844(9) 0.06502(8) 0.6951(3) 0.0468(6) Uani 1 d . . .
Cu1 Cu 0.52420(3) 0.07583(4) 0.48796(11) 0.0252(3) Uani 1 d . . .
H11 H 0.6387(19) -0.061(3) 0.693(9) 0.03 Uiso 1 d D . .
H12 H 0.696(2) -0.040(3) 0.682(10) 0.03 Uiso 1 d D . .

loop_
_atom_site_aniso_label
_atom_site_aniso_U_11
_atom_site_aniso_U_22
_atom_site_aniso_U_33
_atom_site_aniso_U_23
_atom_site_aniso_U_13
_atom_site_aniso_U_12
C1 0.022(4) 0.024(4) 0.039(5) -0.002(3) 0.004(3) 0.010(3)
C3 0.037(5) 0.046(5) 0.037(5) -0.017(4) 0.004(4) 0.015(4)
C4 0.047(5) 0.059(6) 0.028(5) 0.006(4) 0.011(4) 0.038(5)
C5 0.024(4) 0.028(4) 0.034(4) 0.002(3) 0.003(3) 0.008(3)
C7 0.023(4) 0.027(4) 0.032(4) -0.006(3) -0.008(3) 0.011(3)
C8 0.015(3) 0.026(4) 0.051(5) 0.004(4) -0.012(4) 0.006(3)
N2 0.020(3) 0.028(3) 0.026(3) -0.003(3) -0.003(3) 0.013(3)
N6 0.020(3) 0.025(3) 0.030(3) -0.005(3) -0.006(3) 0.014(3)
O1 0.020(2) 0.031(3) 0.042(3) 0.001(2) -0.001(2) 0.013(2)
O2 0.016(3) 0.035(3) 0.046(4) 0.005(3) 0.004(2) 0.005(2)
O1W 0.036(4) 0.044(4) 0.077(5) 0.017(4) 0.014(3) 0.022(3)
O3 0.039(3) 0.056(4) 0.032(3) 0.010(3) 0.019(3) 0.021(3)
O4 0.071(5) 0.079(5) 0.044(4) 0.000(4) 0.028(4) 0.033(4)
O5 0.021(3) 0.030(3) 0.046(4) 0.010(3) -0.002(2) 0.004(2)
O6 0.024(3) 0.041(3) 0.068(5) -0.005(3) -0.017(3) 0.008(3)
P1 0.0162(9) 0.0261(10) 0.0269(10) -0.0002(8) 0.0012(7) 0.0093(8)
K1 0.0504(12) 0.0459(12) 0.0533(13) 0.0186(10) 0.0067(10) 0.0310(10)
Cu1 0.0196(5) 0.0285(5) 0.0258(5) 0.0040(4) 0.0040(4) 0.0106(4)


#------------------ MOLECULAR GEOMETRY --------------------------------------#

_geom_special_details            
;
All esds (except the esd in the dihedral angle between two l.s. planes)
are estimated using the full covariance matrix. The cell esds are taken
into account individually in the estimation of esds in distances, angles
and torsion angles; correlations between esds in cell parameters are only
used when they are defined by crystal symmetry. An approximate (isotropic)
treatment of cell esds is used for estimating esds involving l.s. planes.
;
loop_
_geom_bond_atom_site_label_1
_geom_bond_atom_site_label_2
_geom_bond_distance
_geom_bond_site_symmetry_2
_geom_bond_publ_flag
C1 N2 1.471(9) . ?
C1 P1 1.811(8) . ?
C1 H1A 0.97 . ?
C1 H1B 0.97 . ?
C3 N2 1.497(10) . ?
C3 C4 1.522(12) . ?
C3 H3A 0.97 . ?
C3 H3B 0.97 . ?
C4 O4 1.222(10) . ?
C4 O3 1.280(11) . ?
C4 K1 3.421(9) 17_556 ?
C5 N6 1.475(9) . ?
C5 P1 1.799(8) . ?
C5 H5A 0.97 . ?
C5 H5B 0.97 . ?
C7 N6 1.473(9) . ?
C7 C8 1.517(11) . ?
C7 H7A 0.97 . ?
C7 H7B 0.97 . ?
C8 O6 1.243(9) . ?
C8 O5 1.274(11) . ?
N2 Cu1 2.008(6) . ?
N2 H2 0.91 . ?
N6 Cu1 2.013(6) . ?
N6 H6 0.91 . ?
O1 P1 1.504(6) . ?
O1 K1 2.648(6) . ?
O2 P1 1.491(5) . ?
O2 Cu1 2.249(5) 18_545 ?
O1W K1 2.714(7) . ?
O1W K1 2.731(8) 9_654 ?
O1W H11 0.85(7) . ?
O1W H12 0.84(7) . ?
O3 Cu1 1.940(6) . ?
O3 K1 3.401(6) 17_556 ?
O4 K1 2.726(8) 17_556 ?
O5 Cu1 1.961(5) . ?
O6 K1 2.780(7) 10_656 ?
O6 K1 3.012(7) 17 ?
K1 O4 2.726(8) 18_546 ?
K1 O1W 2.731(8) 5_545 ?
K1 O6 2.780(7) 10_656 ?
K1 O6 3.012(7) 18_545 ?
K1 O3 3.401(6) 18_546 ?
K1 C4 3.421(9) 18_546 ?
K1 K1 4.046(3) 5_545 ?
K1 K1 4.046(3) 9_654 ?
Cu1 O2 2.249(5) 17 ?

loop_
_geom_angle_atom_site_label_1
_geom_angle_atom_site_label_2
_geom_angle_atom_site_label_3
_geom_angle
_geom_angle_site_symmetry_1
_geom_angle_site_symmetry_3
_geom_angle_publ_flag
N2 C1 P1 110.7(5) . . ?
N2 C1 H1A 109.5 . . ?
P1 C1 H1A 109.5 . . ?
N2 C1 H1B 109.5 . . ?
P1 C1 H1B 109.5 . . ?
H1A C1 H1B 108.1 . . ?
N2 C3 C4 110.2(7) . . ?
N2 C3 H3A 109.6 . . ?
C4 C3 H3A 109.6 . . ?
N2 C3 H3B 109.6 . . ?
C4 C3 H3B 109.6 . . ?
H3A C3 H3B 108.1 . . ?
O4 C4 O3 124.7(9) . . ?
O4 C4 C3 118.4(9) . . ?
O3 C4 C3 116.9(7) . . ?
O4 C4 K1 46.4(5) . 17_556 ?
O3 C4 K1 78.3(5) . 17_556 ?
C3 C4 K1 164.8(6) . 17_556 ?
N6 C5 P1 112.4(5) . . ?
N6 C5 H5A 109.1 . . ?
P1 C5 H5A 109.1 . . ?
N6 C5 H5B 109.1 . . ?
P1 C5 H5B 109.1 . . ?
H5A C5 H5B 107.9 . . ?
N6 C7 C8 111.2(7) . . ?
N6 C7 H7A 109.4 . . ?
C8 C7 H7A 109.4 . . ?
N6 C7 H7B 109.4 . . ?
C8 C7 H7B 109.4 . . ?
H7A C7 H7B 108 . . ?
O6 C8 O5 124.8(8) . . ?
O6 C8 C7 118.5(8) . . ?
O5 C8 C7 116.6(6) . . ?
C1 N2 C3 111.2(6) . . ?
C1 N2 Cu1 117.4(5) . . ?
C3 N2 Cu1 105.9(5) . . ?
C1 N2 H2 107.3 . . ?
C3 N2 H2 107.3 . . ?
Cu1 N2 H2 107.3 . . ?
C7 N6 C5 112.9(6) . . ?
C7 N6 Cu1 105.3(4) . . ?
C5 N6 Cu1 119.5(5) . . ?
C7 N6 H6 106.1 . . ?
C5 N6 H6 106.1 . . ?
Cu1 N6 H6 106.1 . . ?
P1 O1 K1 144.6(3) . . ?
P1 O2 Cu1 129.7(3) . 18_545 ?
K1 O1W K1 96.0(2) . 9_654 ?
K1 O1W H11 111(6) . . ?
K1 O1W H11 134(6) 9_654 . ?
K1 O1W H12 110(6) . . ?
K1 O1W H12 87(6) 9_654 . ?
H11 O1W H12 115(9) . . ?
C4 O3 Cu1 114.6(5) . . ?
C4 O3 K1 80.1(5) . 17_556 ?
Cu1 O3 K1 163.7(3) . 17_556 ?
C4 O4 K1 114.7(7) . 17_556 ?
C8 O5 Cu1 113.7(5) . . ?
C8 O6 K1 122.0(6) . 10_656 ?
C8 O6 K1 105.0(5) . 17 ?
K1 O6 K1 88.53(18) 10_656 17 ?
O2 P1 O1 119.8(3) . . ?
O2 P1 C5 108.8(3) . . ?
O1 P1 C5 107.7(3) . . ?
O2 P1 C1 108.1(4) . . ?
O1 P1 C1 106.8(4) . . ?
C5 P1 C1 104.6(4) . . ?
O1 K1 O1W 107.9(2) . . ?
O1 K1 O4 79.0(2) . 18_546 ?
O1W K1 O4 172.5(2) . 18_546 ?
O1 K1 O1W 171.0(2) . 5_545 ?
O1W K1 O1W 79.17(15) . 5_545 ?
O4 K1 O1W 94.2(2) 18_546 5_545 ?
O1 K1 O6 91.79(19) . 10_656 ?
O1W K1 O6 91.5(2) . 10_656 ?
O4 K1 O6 91.2(2) 18_546 10_656 ?
O1W K1 O6 82.3(2) 5_545 10_656 ?
O1 K1 O6 73.53(18) . 18_545 ?
O1W K1 O6 78.45(19) . 18_545 ?
O4 K1 O6 101.3(2) 18_546 18_545 ?
O1W K1 O6 114.0(2) 5_545 18_545 ?
O6 K1 O6 158.3(3) 10_656 18_545 ?
O1 K1 O3 119.04(17) . 18_546 ?
O1W K1 O3 132.1(2) . 18_546 ?
O4 K1 O3 40.58(19) 18_546 18_546 ?
O1W K1 O3 55.25(18) 5_545 18_546 ?
O6 K1 O3 95.92(19) 10_656 18_546 ?
O6 K1 O3 105.13(18) 18_545 18_546 ?
O1 K1 C4 97.7(2) . 18_546 ?
O1W K1 C4 153.6(2) . 18_546 ?
O4 K1 C4 18.9(2) 18_546 18_546 ?
O1W K1 C4 76.0(2) 5_545 18_546 ?
O6 K1 C4 93.9(2) 10_656 18_546 ?
O6 K1 C4 103.6(2) 18_545 18_546 ?
O3 K1 C4 21.63(18) 18_546 18_546 ?
O1 K1 K1 135.91(14) . 5_545 ?
O1W K1 K1 63.61(16) . 5_545 ?
O4 K1 K1 113.60(18) 18_546 5_545 ?
O1W K1 K1 41.86(14) 5_545 5_545 ?
O6 K1 K1 48.09(15) 10_656 5_545 ?
O6 K1 K1 136.79(13) 18_545 5_545 ?
O3 K1 K1 87.25(12) 18_546 5_545 ?
C4 K1 K1 101.95(16) 18_546 5_545 ?
O1 K1 K1 74.79(12) . 9_654 ?
O1W K1 K1 42.18(17) . 9_654 ?
O4 K1 K1 140.80(19) 18_546 9_654 ?
O1W K1 K1 114.01(17) 5_545 9_654 ?
O6 K1 K1 118.02(16) 10_656 9_654 ?
O6 K1 K1 43.38(13) 18_545 9_654 ?
O3 K1 K1 143.77(14) 18_546 9_654 ?
C4 K1 K1 147.02(17) 18_546 9_654 ?
K1 K1 K1 105.51(6) 5_545 9_654 ?
O3 Cu1 O5 90.1(3) . . ?
O3 Cu1 N2 84.3(3) . . ?
O5 Cu1 N2 166.0(2) . . ?
O3 Cu1 N6 167.7(3) . . ?
O5 Cu1 N6 83.5(2) . . ?
N2 Cu1 N6 99.4(2) . . ?
O3 Cu1 O2 99.0(2) . 17 ?
O5 Cu1 O2 103.9(2) . 17 ?
N2 Cu1 O2 89.7(2) . 17 ?
N6 Cu1 O2 92.7(2) . 17 ?

loop_
_geom_hbond_atom_site_label_D
_geom_hbond_atom_site_label_H
_geom_hbond_atom_site_label_A
_geom_hbond_site_symmetry_A
_geom_hbond_distance_DH
_geom_hbond_distance_HA
_geom_hbond_distance_DA
_geom_hbond_angle_DHA
O1W H11 O1 5_545 0.85(7) 1.84(7) 2.668(8) 166(8)
O1W H12 O3 14_556 0.84(7) 2.18(5) 2.905(9) 144(8)
N2 H2 O6 10_656 0.91 2.48 3.263(9) 143.9
N6 H6 O1W 9_654 0.91 2.55 3.398(9) 155.6
N6 H6 O5 10_656 0.91 2.66 3.245(8) 123.3




