
#######################################################################
#
#                 Cambridge Crystallographic Data Centre
#                                CCDC
#
#######################################################################
#
# If this CIF has been generated from an entry in the Cambridge
# Structural Database, then it will include bibliographic, chemical,
# crystal, experimental, refinement or atomic coordinate data resulting
# from the CCDC's data processing and validation procedures.
#
#######################################################################

data_CSD_CIF_HEWPUU
_audit_creation_date 1995-09-14
_audit_creation_method CSD-ConQuest-V1
_database_code_CSD HEWPUU
_database_code_depnum_ccdc_archive 'CCDC 124463'
_chemical_formula_sum 'C66 H134 Co1 N14 O35 P1'
_chemical_formula_moiety
;
C63 H88 Co1 N14 O14 P1,C3 H6 O1,20(H2 O1)
;
_journal_coden_Cambridge 9
_journal_volume 33
_journal_year 1994
_journal_page_first 4128
_journal_name_full 'Inorg.Chem. '
loop_
_publ_author_name
"B.Krautler"
"R.Konrat"
"E.Stupperich"
"G.Farber"
"K.Gruber"
"C.Kratky"
_chemical_name_systematic
;
\b-Cyano-(5',6'-dimethylbenzimidazolyl)-cobamide acetone solvate eicosahydrate
;
_chemical_name_common
;
Vitamin B12 acetone solvate eicosahydrate; Teaching Subset: Fundamental 
Chemistry
;
_cell_volume   8921.271
_exptl_crystal_colour 'red'
_exptl_crystal_density_diffrn 1.32
_diffrn_ambient_temperature 88
_refine_special_details
;
Many of the water molecules are disordered.

;
#These two values have been output from a single CSD field.
_refine_ls_R_factor_gt 0.0824
_refine_ls_wR_factor_gt 0.0824
_symmetry_cell_setting orthorhombic
_symmetry_space_group_name_H-M 'P 21 21 21'
_symmetry_Int_Tables_number 19
loop_
_symmetry_equiv_pos_site_id
_symmetry_equiv_pos_as_xyz
1 x,y,z
2 1/2-x,-y,1/2+z
3 1/2+x,1/2-y,-z
4 -x,1/2+y,1/2-z
_cell_length_a 15.838(7)
_cell_length_b 21.927(12)
_cell_length_c 25.689(13)
_cell_angle_alpha 90
_cell_angle_beta 90
_cell_angle_gamma 90
_cell_formula_units_Z 4
loop_
_atom_type_symbol
_atom_type_radius_bond
C 0.68
H 0.23
Co 1.33
N 0.68
O 0.68
P 1.05
loop_
_atom_site_label
_atom_site_type_symbol
_atom_site_fract_x
_atom_site_fract_y
_atom_site_fract_z
Co1 Co 0.2345(1) 0.9006(1) 1.2449(1)
C1 C 0.3511(6) 0.8156(5) 1.2906(5)
C2 C 0.4503(6) 0.7999(5) 1.2817(4)
C3 C 0.4870(6) 0.8649(5) 1.2804(4)
C4 C 0.4162(6) 0.9012(5) 1.2570(4)
C5 C 0.4267(6) 0.9603(5) 1.2337(5)
C6 C 0.3598(7) 0.9971(5) 1.2234(5)
C7 C 0.3611(7) 1.0619(5) 1.1994(4)
C8 C 0.2741(7) 1.0863(5) 1.2162(4)
C9 C 0.2243(7) 1.0273(5) 1.2203(5)
C10 C 0.1369(7) 1.0242(5) 1.2118(5)
C11 C 0.0908(7) 0.9706(5) 1.2121(5)
C12 C -0.0003(6) 0.9656(5) 1.1928(5)
C13 C -0.0291(6) 0.9070(5) 1.2180(5)
C14 C 0.0541(6) 0.8743(5) 1.2247(5)
C15 C 0.0617(7) 0.8122(5) 1.2345(5)
C16 C 0.1407(6) 0.7844(4) 1.2484(5)
C17 C 0.1599(6) 0.7166(5) 1.2534(4)
C18 C 0.2475(6) 0.7182(4) 1.2816(4)
C19 C 0.2840(6) 0.7780(5) 1.2600(5)
C20 C 0.3262(6) 0.8187(5) 1.3481(4)
N1 N 0.3429(5) 0.8773(4) 1.2665(4)
N2 N 0.2742(6) 0.9811(4) 1.2309(4)
N3 N 0.1187(5) 0.9149(4) 1.2269(4)
N4 N 0.2089(5) 0.8181(4) 1.2557(4)
C21 C 0.4855(7) 0.7588(5) 1.3250(5)
C22 C 0.4623(6) 0.7701(5) 1.2281(4)
C23 C 0.5521(7) 0.7576(5) 1.2121(5)
O1 O 0.6134(5) 0.7786(4) 1.2351(4)
N5 N 0.5611(6) 0.7192(5) 1.1722(4)
C24 C 0.5184(6) 0.8944(5) 1.3310(4)
C25 C 0.6106(6) 0.8810(5) 1.3446(4)
C26 C 0.6389(7) 0.9138(5) 1.3927(5)
O2 O 0.6699(6) 0.9660(4) 1.3889(4)
N6 N 0.6247(7) 0.8884(5) 1.4385(4)
C27 C 0.5173(7) 0.9792(5) 1.2197(5)
C28 C 0.4333(7) 1.1036(6) 1.2176(5)
C29 C 0.3617(7) 1.0517(5) 1.1393(4)
C30 C 0.3564(7) 1.1114(6) 1.1098(4)
O3 O 0.2874(5) 1.1343(4) 1.1015(4)
N7 N 0.4288(5) 1.1368(5) 1.0952(4)
C31 C 0.2754(7) 1.1203(5) 1.2682(5)
C32 C 0.1897(7) 1.1373(6) 1.2909(5)
C33 C 0.1960(9) 1.1685(7) 1.3413(6)
O4 O 0.2569(7) 1.2016(6) 1.3536(5)
N8 N 0.1330(7) 1.1600(6) 1.3757(5)
C34 C 0.0033(8) 0.9576(6) 1.1335(5)
C35 C -0.0516(8) 1.0241(5) 1.2052(6)
C36 C -0.0713(6) 0.9110(5) 1.2716(5)
C37 C -0.1653(6) 0.9314(6) 1.2734(5)
C38 C -0.2184(7) 0.8960(5) 1.2360(6)
O5 O -0.2518(5) 0.9225(4) 1.1987(4)
N9 N -0.2292(6) 0.8361(4) 1.2448(5)
C39 C -0.0176(7) 0.7722(5) 1.2281(5)
C40 C 0.1683(8) 0.6918(6) 1.1972(5)
C41 C 0.0965(7) 0.6780(5) 1.2841(4)
C42 C 0.0697(6) 0.7014(5) 1.3368(4)
C43 C -0.0082(6) 0.6694(5) 1.3570(4)
O6 O -0.0757(4) 0.6744(4) 1.3327(3)
N10 N -0.0010(5) 0.6393(4) 1.4018(3)
C44 C 0.3053(7) 0.6629(4) 1.2733(5)
C45 C 0.2773(7) 0.6058(4) 1.3036(5)
O7 O 0.2523(5) 0.6104(3) 1.3486(3)
N11 N 0.2853(6) 0.5542(4) 1.2778(4)
C46 C 0.2590(7) 0.8814(5) 1.1761(5)
N12 N 0.2731(7) 0.8689(6) 1.1334(4)
C47 C -0.0721(7) 0.6107(5) 1.4277(5)
C48 C -0.1083(7) 0.6504(5) 1.4705(5)
C49 C -0.1710(8) 0.6143(6) 1.5051(5)
P1 P -0.0241(2) 0.7354(1) 1.5220(1)
O8 O -0.0095(5) 0.7672(4) 1.4675(3)
O9 O -0.0361(5) 0.6670(3) 1.5049(3)
O10 O 0.0538(5) 0.7363(4) 1.5541(4)
O11 O -0.1019(5) 0.7606(4) 1.5479(3)
C50 C 0.0629(7) 0.9170(5) 1.4275(5)
C51 C 0.0842(6) 0.8545(5) 1.4518(5)
C52 C -0.0029(7) 0.8331(5) 1.4652(5)
C53 C -0.0597(7) 0.8580(6) 1.4234(6)
C54 C -0.1441(8) 0.8825(7) 1.4450(6)
O12 O -0.0154(5) 0.9094(3) 1.4016(4)
O13 O 0.1240(5) 0.8170(3) 1.4134(3)
O14 O -0.1321(7) 0.9294(4) 1.4850(5)
N13 N 0.1242(5) 0.9352(4) 1.3884(4)
C55 C 0.1337(7) 0.9105(4) 1.3416(4)
N14 N 0.2052(5) 0.9265(4) 1.3178(4)
C56 C 0.3252(7) 0.9947(5) 1.3524(5)
C57 C 0.3479(8) 1.0297(6) 1.3950(5)
C58 C 0.2964(8) 1.0356(6) 1.4392(5)
C59 C 0.2180(7) 1.0061(4) 1.4412(5)
C60 C 0.1959(7) 0.9725(5) 1.3977(5)
C61 C 0.2450(7) 0.9656(5) 1.3541(4)
C62 C 0.4335(8) 1.0625(6) 1.3933(6)
C63 C 0.3222(10) 1.0755(7) 1.4847(6)
H1 H 0.5340(6) 0.8650(5) 1.2556(4)
H2 H 0.2503(7) 1.1123(5) 1.1889(4)
H3 H 0.1081(7) 1.0605(5) 1.2056(5)
H4 H -0.0653(6) 0.8842(5) 1.1939(5)
H5 H 0.2378(6) 0.7232(4) 1.3190(4)
H6 H 0.3058(6) 0.7703(5) 1.2249(5)
H7 H 0.3368(40) 0.7800(11) 1.3643(8)
H8 H 0.2672(12) 0.8283(30) 1.3509(4)
H9 H 0.3588(31) 0.8497(22) 1.3651(7)
H10 H 0.4576(33) 0.7200(13) 1.3239(18)
H11 H 0.4759(41) 0.7777(16) 1.3582(5)
H12 H 0.5450(11) 0.7532(27) 1.3198(17)
H13 H 0.4315(6) 0.7319(5) 1.2278(4)
H14 H 0.4368(6) 0.7964(5) 1.2021(4)
H15 H 0.6108(6) 0.7087(5) 1.1621(4)
H16 H 0.5173(6) 0.7050(5) 1.1567(4)
H17 H 0.4830(6) 0.8805(5) 1.3594(4)
H18 H 0.5113(6) 0.9382(5) 1.3282(4)
H19 H 0.6175(6) 0.8374(5) 1.3498(4)
H20 H 0.6462(6) 0.8930(5) 1.3157(4)
H21 H 0.6368(7) 0.9079(5) 1.4665(4)
H22 H 0.6034(7) 0.8524(5) 1.4402(4)
H23 H 0.5385(20) 1.0066(30) 1.2458(18)
H24 H 0.5174(10) 0.9993(34) 1.1865(16)
H25 H 0.5525(13) 0.9437(7) 1.2182(32)
H26 H 0.4198(24) 1.1452(7) 1.2095(28)
H27 H 0.4846(13) 1.0922(24) 1.2001(24)
H28 H 0.4407(34) 1.0993(27) 1.2545(7)
H29 H 0.4131(7) 1.0305(5) 1.1296(4)
H30 H 0.3143(7) 1.0260(5) 1.1297(4)
H31 H 0.4285(5) 1.1712(5) 1.0790(4)
H32 H 0.4759(5) 1.1190(5) 1.1019(4)
H33 H 0.3079(7) 1.1574(5) 1.2638(5)
H34 H 0.3048(7) 1.0952(5) 1.2935(5)
H35 H 0.1605(7) 1.1637(6) 1.2665(5)
H36 H 0.1563(7) 1.1006(6) 1.2951(5)
H37 H 0.1350(7) 1.1773(6) 1.4057(5)
H38 H 0.0908(7) 1.1372(6) 1.3676(5)
H39 H -0.0526(11) 0.9507(43) 1.1203(7)
H40 H 0.0384(49) 0.9233(27) 1.1251(6)
H41 H 0.0264(56) 0.9937(18) 1.1179(6)
H42 H -0.1081(18) 1.0197(17) 1.1922(31)
H43 H -0.0253(33) 1.0586(8) 1.1888(29)
H44 H -0.0531(47) 1.0303(22) 1.2421(7)
H45 H -0.0388(6) 0.9390(5) 1.2928(5)
H46 H -0.0674(6) 0.8711(5) 1.2879(5)
H47 H -0.1870(6) 0.9258(6) 1.3084(5)
H48 H -0.1689(6) 0.9745(6) 1.2651(5)
H49 H -0.2601(6) 0.8148(4) 1.2241(5)
H50 H -0.2051(6) 0.8191(4) 1.2711(5)
H51 H -0.0384(29) 0.7606(29) 1.2618(5)
H52 H -0.0035(13) 0.7362(18) 1.2087(27)
H53 H -0.0604(19) 0.7947(14) 1.2099(27)
H54 H 0.1825(51) 0.6492(11) 1.1984(5)
H55 H 0.2119(37) 0.7137(26) 1.1793(11)
H56 H 0.1157(18) 0.6970(35) 1.1792(11)
H57 H 0.0463(7) 0.6733(5) 1.2629(4)
H58 H 0.1207(7) 0.6377(5) 1.2888(4)
H59 H 0.1155(6) 0.6956(5) 1.3613(4)
H60 H 0.0584(6) 0.7448(5) 1.3344(4)
H61 H 0.0480(5) 0.6368(4) 1.4160(3)
H62 H 0.3068(7) 0.6532(4) 1.2364(5)
H63 H 0.3622(7) 0.6736(4) 1.2839(5)
H64 H 0.2725(6) 0.5202(4) 1.2926(4)
H65 H 0.3033(6) 0.5544(4) 1.2462(4)
H66 H -0.0540(7) 0.5722(5) 1.4425(5)
H67 H -0.1158(7) 0.6022(5) 1.4023(5)
H68 H -0.1351(7) 0.6869(5) 1.4560(5)
H69 H -0.2183(28) 0.6014(34) 1.4845(9)
H70 H -0.1904(43) 0.6399(14) 1.533(2)
H71 H -0.1431(18) 0.5792(23) 1.5193(28)
H72 H 0.0582(7) 0.9482(5) 1.4546(5)
H73 H 0.1194(6) 0.8589(5) 1.4829(5)
H74 H -0.0195(7) 0.8503(5) 1.4989(5)
H75 H -0.0700(7) 0.8270(6) 1.3967(6)
H76 H -0.1769(8) 0.8995(7) 1.4166(6)
H77 H -0.1760(8) 0.8489(7) 1.4598(6)
H78 H 0.1517(68) 0.7903(37) 1.4279(3)
H79 H -0.132(13) 0.9135(13) 1.5138(7)
H80 H 0.0941(7) 0.8845(4) 1.3267(4)
H81 H 0.3608(7) 0.9903(5) 1.3239(5)
H82 H 0.1829(7) 1.0089(4) 1.4701(5)
H83 H 0.4662(25) 1.0512(33) 1.4232(20)
H84 H 0.4245(9) 1.1058(6) 1.3933(37)
H85 H 0.4632(26) 1.0510(33) 1.3622(19)
H86 H 0.3264(66) 1.1171(10) 1.4733(12)
H87 H 0.3759(35) 1.0622(32) 1.4978(27)
H88 H 0.2807(37) 1.0725(39) 1.5118(18)
C64 C 0.3550(9) 0.4565(8) 0.6251(7)
C65 C 0.4446(9) 0.4358(7) 0.6156(6)
C66 C 0.4693(11) 0.4286(8) 0.5589(6)
O15 O 0.4922(7) 0.4237(6) 0.6516(5)
O16 O 0.8882(5) 0.8750(4) 0.5844(3)
H89 H 0.8906(60) 0.8318(7) 0.5850(37)
O17 O 0.7282(6) 0.7619(4) 0.5350(3)
H90 H 0.7352(85) 0.7535(60) 0.4990(14)
O18 O 0.6647(6) 0.8788(4) 0.5529(4)
H91 H 0.6873(68) 0.8742(55) 0.5869(19)
O19 O 0.2203(7) 0.7503(5) 0.5722(4)
H92 H 0.2166(49) 0.7923(11) 0.5813(29)
O20 O 0.3207(7) 0.7241(5) 0.6611(4)
O21 O 0.1365(7) 0.4424(5) 0.6791(4)
H93 H 0.1543(57) 0.4237(40) 0.6476(21)
O22 O 0.0983(9) 0.3341(7) 0.6224(6)
O23 O 0.3713(12) 0.9152(9) 1.0458(8)
O24 O 0.4787(13) 0.4647(9) 0.4226(8)
H94 H 0.4254(22) 0.4376(36) 0.4113(32)
O25 O 0.1198(16) 1.1888(12) 1.4885(9)
H95 H 0.0857(41) 1.2203(26) 1.4738(29)
O26 O 0.1946(16) 0.2420(11) 0.5810(9)
O27 O -0.2119(23) 0.8338(18) 1.1144(15)
O28 O -0.3740(35) 1.0812(27) 1.4591(22)
O29 O -0.0347(28) 1.2753(22) 1.4251(21)
O30 O 0.3113(58) 0.6434(43) 0.6362(37)
O31 O -0.2244(44) 0.8634(31) 1.0176(28)
O32 O 0.5287(63) 0.3923(44) 0.4193(37)
O33 O -0.2621(47) 0.7687(33) 1.0592(29)
O34 O 0.3189(42) 1.2918(30) 1.5337(26)
O35 O 0.6731(79) 0.8973(74) 1.1136(48)
O36 O 0.5818(61) 1.2768(45) 1.3990(38)
O37 O -0.3361(67) 1.011(5) 1.5246(44)
O38 O 0.0428(45) 0.3401(33) 0.5025(29)
O39? O -0.2643(13) 1.0165(9) 1.4818(8)
O40? O -0.3539(33) 0.9641(30) 1.0902(21)
O41? O 0.5008(43) 1.1952(32) 1.5285(31)
O42? O 0.5760(44) 0.8734(29) 1.0985(24)
O43? O 0.4423(35) 1.2294(24) 1.4816(21)
O44? O 0.5448(49) 0.4823(34) 0.4584(31)
#END
