
#######################################################################
#
#                 Cambridge Crystallographic Data Centre
#                                CCDC
#
#######################################################################
#
# If this CIF has been generated from an entry in the Cambridge
# Structural Database, then it will include bibliographic, chemical,
# crystal, experimental, refinement or atomic coordinate data resulting
# from the CCDC's data processing and validation procedures.
#
#######################################################################

data_CSD_CIF_HEXHEL
_audit_creation_date 1973-04-16
_audit_creation_method CSD-ConQuest-V1
_database_code_CSD HEXHEL
_database_code_depnum_ccdc_archive 'CCDC 1175421'
_chemical_formula_sum 'C26 H16'
_chemical_formula_moiety
;
C26 H16
;
_journal_coden_Cambridge 189
_journal_volume 2
_journal_year 1973
_journal_page_first 189
_journal_name_full 'Cryst.Struct.Commun. '
loop_
_publ_author_name
"C.de Rango"
"G.Tsoucaris"
"J.P.Declercq"
"G.Germain"
"J.P.Putzeys"
_chemical_name_systematic
;
Hexahelicene
;
_chemical_name_common
;
Teaching Subset: Symmetry
;
_cell_volume   1691.872
_exptl_crystal_density_diffrn 1.28
_diffrn_ambient_temperature ?
_diffrn_special_details
;
The study was carried out at room temperature,in the range 283-303K

;
#These two values have been output from a single CSD field.
_refine_ls_R_factor_gt 0.04
_refine_ls_wR_factor_gt 0.04
_symmetry_cell_setting orthorhombic
_symmetry_space_group_name_H-M 'P 21 21 21'
_symmetry_Int_Tables_number 19
loop_
_symmetry_equiv_pos_site_id
_symmetry_equiv_pos_as_xyz
1 x,y,z
2 1/2+x,1/2-y,-z
3 -x,1/2+y,1/2-z
4 1/2-x,-y,1/2+z
_cell_length_a 17.511
_cell_length_b 13.156
_cell_length_c 7.344
_cell_angle_alpha 90
_cell_angle_beta 90
_cell_angle_gamma 90
_cell_formula_units_Z 4
loop_
_atom_type_symbol
_atom_type_radius_bond
C 0.68
H 0.20
loop_
_atom_site_label
_atom_site_type_symbol
_atom_site_fract_x
_atom_site_fract_y
_atom_site_fract_z
C1 C 0.20880 -0.72520 0.31200
C2 C 0.46200 -0.61470 0.05880
C3 C 0.42000 -0.77960 -0.07180
C4 C 0.38870 -0.87150 -0.05320
C5 C 0.34190 -1.00690 0.14960
C6 C 0.32510 -1.04150 0.31980
C7 C 0.32790 -0.97540 0.46730
C8 C 0.34390 -0.87400 0.44180
C9 C 0.36000 -0.83390 0.26720
C10 C 0.36200 -0.90500 0.11940
C11 C 0.38110 -0.72950 0.23600
C12 C 0.13530 -0.76120 0.29390
C13 C 0.42060 -0.70720 0.07370
C14 C 0.37110 -0.64920 0.36790
C15 C 0.42380 -0.56740 0.36160
C16 C 0.31160 -0.64470 0.50440
C17 C 0.32420 -0.58400 0.65950
C18 C 0.23610 -0.68900 0.48030
C19 C 0.18450 -0.68670 0.62860
C20 C 0.08680 -0.76250 0.44290
C21 C 0.11010 -0.72590 0.60420
C22 C 0.20760 -0.63870 0.79700
C23 C 0.27240 -0.58730 0.80710
C24 C 0.38790 -0.51540 0.65940
C25 C 0.43050 -0.50260 0.51470
C26 C 0.46750 -0.55280 0.20110
H1 H 0.23930 -0.72030 0.20630
H2 H 0.48830 -0.60450 -0.08770
H3 H 0.43470 -0.76170 -0.19710
H4 H 0.39240 -0.92530 -0.14410
H5 H 0.34490 -1.05120 0.04360
H6 H 0.30640 -1.12020 0.35780
H7 H 0.32070 -0.99610 0.58350
H8 H 0.34460 -0.82670 0.54350
H9 H 0.11270 -0.78980 0.16090
H10 H 0.03740 -0.78540 0.41780
H11 H 0.07430 -0.72820 0.71170
H12 H 0.17510 -0.63880 0.91040
H13 H 0.29590 -0.54870 0.93390
H14 H 0.40160 -0.47100 0.78060
H15 H 0.46950 -0.44650 0.49420
H16 H 0.49770 -0.48680 0.18910
#END
