
#######################################################################
#
#                 Cambridge Crystallographic Data Centre
#                                CCDC
#
#######################################################################
#
# If this CIF has been generated from an entry in the Cambridge
# Structural Database, then it will include bibliographic, chemical,
# crystal, experimental, refinement or atomic coordinate data resulting
# from the CCDC's data processing and validation procedures.
#
#######################################################################

data_CSD_CIF_HIBDUR
_audit_creation_date 1995-09-08
_audit_creation_method CSD-ConQuest-V1
_database_code_CSD HIBDUR
_database_code_depnum_ccdc_archive 'CCDC 1175872'
_chemical_formula_sum 'C8 H10 I1 Li1 N2 O4'
_chemical_formula_moiety
;
(C8 H10 Li1 N2 O4 1+)n,n(I1 1-)
;
_journal_coden_Cambridge 1096
_journal_volume 6
_journal_year 1994
_journal_page_first 1200
_journal_name_full 'Chem.Mater. '
loop_
_publ_author_name
"C.G.Choo"
"S.D.Rychnovsky"
"M.C.Etter"
_chemical_name_systematic
;
catena-(bis(\m~2~-Succinimido-O,O')-lithium iodide)
;
_chemical_name_common
;
Teaching Subset: Fundamental Chemistry, Symmetry
;
_chemical_melting_point 543
_cell_volume   1178.767
_exptl_crystal_density_diffrn 1.871
_exptl_special_details
;
Melting point range 543-563K
Isostructural with the hexafluorophosphate analogue
;
_diffrn_ambient_temperature ?
_diffrn_special_details
;
The study was carried out at room temperature,in the range 283-303K

;
#These two values have been output from a single CSD field.
_refine_ls_R_factor_gt 0.043
_refine_ls_wR_factor_gt 0.043
_symmetry_cell_setting tetragonal
_symmetry_space_group_name_H-M 'I 41/a m d'
_symmetry_Int_Tables_number 141
loop_
_symmetry_equiv_pos_site_id
_symmetry_equiv_pos_as_xyz
1 x,y,z
2 1/4-y,3/4+x,1/4+z
3 x,-y,-z
4 1/2-x,-y,1/2+z
5 1/4+y,3/4+x,1/4-z
6 1/4+y,1/4-x,3/4+z
7 1/2-x,y,1/2-z
8 1/4-y,1/4-x,3/4-z
9 1/2+x,1/2+y,1/2+z
10 3/4-y,1/4+x,3/4+z
11 1/2+x,1/2-y,1/2-z
12 -x,1/2-y,z
13 3/4+y,1/4+x,3/4-z
14 3/4+y,3/4-x,1/4+z
15 -x,1/2+y,-z
16 3/4-y,3/4-x,1/4-z
17 -x,-y,-z
18 -1/4+y,-3/4-x,-1/4-z
19 -x,y,z
20 -1/2+x,y,-1/2-z
21 -1/4-y,-3/4-x,-1/4+z
22 -1/4-y,-1/4+x,-3/4-z
23 -1/2+x,-y,-1/2+z
24 -1/4+y,-1/4+x,-3/4+z
25 -1/2-x,-1/2-y,-1/2-z
26 -3/4+y,-1/4-x,-3/4-z
27 -1/2-x,-1/2+y,-1/2+z
28 x,-1/2+y,-z
29 -3/4-y,-1/4-x,-3/4+z
30 -3/4-y,-3/4+x,-1/4-z
31 x,-1/2-y,z
32 -3/4+y,-3/4+x,-1/4+z
_cell_length_a 7.763(3)
_cell_length_b 7.763(3)
_cell_length_c 19.56(1)
_cell_angle_alpha 90
_cell_angle_beta 90
_cell_angle_gamma 90
_cell_formula_units_Z 4
loop_
_atom_type_symbol
_atom_type_radius_bond
C 0.68
H 0.23
I 1.40
Li 0.90
N 0.68
O 0.68
loop_
_atom_site_label
_atom_site_type_symbol
_atom_site_fract_x
_atom_site_fract_y
_atom_site_fract_z
I1 I 0.50000 0.25000 0.12500
Li1 Li 1.00000 0.75000 0.12500
N1 N 0.50000 0.75000 0.0562(3)
C1 C 0.6467(4) 0.75000 0.0943(2)
C2 C 0.5987(5) 0.75000 0.1686(2)
O1 O 0.7922(3) 0.75000 0.0689(1)
H1 H 0.50000 0.75000 0.00770
H2 H 0.64210 0.65010 0.19080
C2K C 0.4013(5) 0.75000 0.1686(2)
C1K C 0.3533(4) 0.75000 0.0943(2)
O1K O 0.2078(3) 0.75000 0.0689(1)
H2K H 0.35790 0.84990 0.19080
H2R H 0.35790 0.65010 0.19080
H2DA H 0.64210 0.84990 0.19080
N1D N 1.00000 0.25000 0.1938(3)
C1D C 1.0000(4) 0.39670 0.1557(2)
C2D C 1.0000(5) 0.34870 0.0814(2)
O1D O 1.0000(3) 0.54220 0.1811(1)
H1D H 1.00000 0.25000 0.24230
H2D H 0.90010 0.39210 0.05920
C2O C 1.0000(5) 0.15130 0.0814(2)
C1O C 1.0000(4) 0.10330 0.1557(2)
O1O O 1.0000(3) -0.04220 0.1811(1)
H2O H 1.09990 0.10790 0.05920
H2Y H 0.90010 0.10790 0.05920
H2U H 1.09990 0.39210 0.05920
O1K* O 1.2078(3) 0.75000 0.0689(1)
O1O* O 1.0000(3) 0.95780 0.1811(1)
Li1* Li 0.00000 0.75000 0.12500
Li1** Li 1.00000 -0.25000 0.12500
#END
