####################################################################### 
# 
# This file contains crystal structure data downloaded from the 
# Cambridge Structural Database (CSD) hosted by the Cambridge 
# Crystallographic Data Centre (CCDC).
# 
# Full information about CCDC data access policies and citation 
# guidelines are available at http://www.ccdc.cam.ac.uk/access/V1 
# 
# Audit and citation data items may have been added by the CCDC. 
# Please retain this information to preserve the provenance of 
# this file and to allow appropriate attribution of the data. 
# 
#######################################################################

data_HICZAU
#This CIF has been generated from an entry in the Cambridge Structural Database
_database_code_depnum_ccdc_archive 'CCDC 1176027'
_database_code_CSD               HICZAU
loop_
_citation_id
_citation_doi
_citation_year
1 10.1002/macp.1968.021200110 1968
_audit_creation_method           'Created from the CSD'
_audit_update_record             
;
2024-07-10 downloaded from the CCDC.
;
_database_code_NBS               667921
_chemical_formula_moiety         '(C32 H72 Be2 O8 P4)n'
_chemical_name_systematic        
catena((\m~2~-di-n-butylphosphinato)-di-beryllium)
_chemical_absolute_configuration unk
_diffrn_ambient_temperature      295
_exptl_crystal_density_diffrn    1.12653
_diffrn_radiation_probe          x-ray
_symmetry_cell_setting           monoclinic
_symmetry_space_group_name_H-M   'P 21/m'
_symmetry_Int_Tables_number      11
_space_group_name_Hall           '-P 2yb'
loop_
_symmetry_equiv_pos_site_id
_symmetry_equiv_pos_as_xyz
1 x,y,z
2 -x,1/2+y,-z
3 -x,-y,-z
4 x,1/2-y,z
_cell_length_a                   17.6(1)
_cell_length_b                   9.17(8)
_cell_length_c                   14.0(1)
_cell_angle_alpha                90
_cell_angle_beta                 108.5(1)
_cell_angle_gamma                90
_cell_volume                     2142.73
_cell_formula_units_Z            2
_exptl_crystal_preparation       
'linear copolymer with a random occurence, identity period is 9.17A; obtained from a drawn fibre; exhibits isodimorphism'
loop_
_atom_site_label
_atom_site_type_symbol
_atom_site_fract_x
_atom_site_fract_y
_atom_site_fract_z
Be1 Be 0.199 0.442 0.154
P1 P 0.070 0.250 0.032
P2 P 0.314 0.250 0.099
P3 P 0.215 0.250 0.330
P4 P 0.247 0.750 0.198
O1 O 0.117 0.384 0.076
O2 O 0.272 0.384 0.119
O3 O 0.209 0.384 0.266
O4 O 0.199 0.616 0.154
C1 C 0.048 0.250 -0.103
C2 C -0.023 0.250 0.060
C3 C 0.416 0.250 0.180
C4 C 0.313 0.250 -0.030
C5 C 0.135 0.250 0.384
C6 C 0.308 0.250 0.431
C7 C 0.268 0.750 0.333
C8 C 0.339 0.750 0.170
O1 O 0.117 0.116 0.076
O2 O 0.272 0.116 0.119
O3 O 0.209 0.116 0.266
O4 O 0.199 0.884 0.154
Be1 Be 0.199 0.058 0.154
Be1 Be 0.199 1.058 0.154
O4 O 0.199 -0.116 0.154

#END
