####################################################################### 
# 
# This file contains crystal structure data downloaded from the 
# Cambridge Structural Database (CSD) hosted by the Cambridge 
# Crystallographic Data Centre (CCDC).
# 
# Full information about CCDC data access policies and citation 
# guidelines are available at http://www.ccdc.cam.ac.uk/access/V1 
# 
# Audit and citation data items may have been added by the CCDC. 
# Please retain this information to preserve the provenance of 
# this file and to allow appropriate attribution of the data. 
# 
#######################################################################

data_[Zn(im)2]-9
_audit_block_doi                 10.5517/cc8jgqy
_database_code_depnum_ccdc_archive 'CCDC 254160'
loop_
_citation_id
_citation_doi
_citation_year
1 10.1002/chem.200700181 2007
_audit_update_record             
;
2004-10-29 deposited with the CCDC.	2024-07-10 downloaded from the CCDC.
;

_audit_creation_method           SHELXL-97
_chemical_name_systematic        
;
?
;
_chemical_name_common            'Zinc imidazolate'
_chemical_melting_point          ?
_chemical_formula_moiety         ?
_chemical_formula_sum            'C6 H8 N4 O Zn'
_chemical_formula_weight         217.53

loop_
_atom_type_symbol
_atom_type_description
_atom_type_scat_dispersion_real
_atom_type_scat_dispersion_imag
_atom_type_scat_source
C C 0.0033 0.0016 'International Tables Vol C Tables 4.2.6.8 and 6.1.1.4'
H H 0.0000 0.0000 'International Tables Vol C Tables 4.2.6.8 and 6.1.1.4'
N N 0.0061 0.0033 'International Tables Vol C Tables 4.2.6.8 and 6.1.1.4'
O O 0.0106 0.0060 'International Tables Vol C Tables 4.2.6.8 and 6.1.1.4'
Zn Zn 0.2839 1.4301 'International Tables Vol C Tables 4.2.6.8 and 6.1.1.4'

_symmetry_cell_setting           tetragonal
_symmetry_space_group_name_H-M   P4(2)/mnm

loop_
_symmetry_equiv_pos_as_xyz
'x, y, z'
'-x, -y, z'
'-y+1/2, x+1/2, z+1/2'
'y+1/2, -x+1/2, z+1/2'
'-x+1/2, y+1/2, -z+1/2'
'x+1/2, -y+1/2, -z+1/2'
'y, x, -z'
'-y, -x, -z'
'-x, -y, -z'
'x, y, -z'
'y-1/2, -x-1/2, -z-1/2'
'-y-1/2, x-1/2, -z-1/2'
'x-1/2, -y-1/2, z-1/2'
'-x-1/2, y-1/2, z-1/2'
'-y, -x, z'
'y, x, z'

_cell_length_a                   19.073(9)
_cell_length_b                   19.073(9)
_cell_length_c                   17.058(12)
_cell_angle_alpha                90.00
_cell_angle_beta                 90.00
_cell_angle_gamma                90.00
_cell_volume                     6205(6)
_cell_formula_units_Z            16
_cell_measurement_temperature    298(2)
_cell_measurement_reflns_used    ?
_cell_measurement_theta_min      ?
_cell_measurement_theta_max      ?

_exptl_crystal_description       prism
_exptl_crystal_colour            colourless
_exptl_crystal_size_max          0.4
_exptl_crystal_size_mid          0.08
_exptl_crystal_size_min          0.08
_exptl_crystal_density_meas      'not measured'
_exptl_crystal_density_diffrn    0.931
_exptl_crystal_density_method    'not measured'
_exptl_crystal_F_000             1760
_exptl_absorpt_coefficient_mu    1.559
_exptl_absorpt_correction_type   'empirical used sadabs'
_exptl_absorpt_correction_T_min  0.58
_exptl_absorpt_correction_T_max  0.82
_exptl_absorpt_process_details   ?

_exptl_special_details           
;
?
;

_diffrn_ambient_temperature      298(2)
_diffrn_radiation_wavelength     0.71073
_diffrn_radiation_type           MoK\a
_diffrn_radiation_source         'fine-focus sealed tube'
_diffrn_radiation_monochromator  graphite
_diffrn_measurement_device_type  'Bruker SMART CCD area detector'
_diffrn_measurement_method       'phi and omega scans'
_diffrn_detector_area_resol_mean ?
_diffrn_standards_number         ?
_diffrn_standards_interval_count ?
_diffrn_standards_interval_time  10Sec.
_diffrn_standards_decay_%        0
_diffrn_reflns_number            25057
_diffrn_reflns_av_R_equivalents  0.0823
_diffrn_reflns_av_sigmaI/netI    0.0495
_diffrn_reflns_limit_h_min       -22
_diffrn_reflns_limit_h_max       22
_diffrn_reflns_limit_k_min       -22
_diffrn_reflns_limit_k_max       14
_diffrn_reflns_limit_l_min       -20
_diffrn_reflns_limit_l_max       20
_diffrn_reflns_theta_min         2.39
_diffrn_reflns_theta_max         24.99
_reflns_number_total             2935
_reflns_number_gt                1616
_reflns_threshold_expression     >2sigma(I)

_computing_data_collection       'Bruker SMART'
_computing_cell_refinement       'Bruker SAINT'
_computing_data_reduction        'Bruker SAINT'
_computing_structure_solution    'SHELXS-97 (Sheldrick, 1990)'
_computing_structure_refinement  'SHELXL-97 (Sheldrick, 1997)'
_computing_molecular_graphics    'Bruker SHELXTL'
_computing_publication_material  'Bruker SHELXTL'

_refine_special_details          
;
Refinement of F^2^ against ALL reflections. The weighted R-factor wR and
goodness of fit S are based on F^2^, conventional R-factors R are based
on F, with F set to zero for negative F^2^. The threshold expression of
F^2^ > 2sigma(F^2^) is used only for calculating R-factors(gt) etc. and is
not relevant to the choice of reflections for refinement. R-factors based
on F^2^ are statistically about twice as large as those based on F, and R-
factors based on ALL data will be even larger.
;

_refine_ls_structure_factor_coef Fsqd
_refine_ls_matrix_type           full
_refine_ls_weighting_scheme      calc
_refine_ls_weighting_details     
'calc w=1/[\s^2^(Fo^2^)+(0.1300P)^2^+0.0000P] where P=(Fo^2^+2Fc^2^)/3'
_atom_sites_solution_primary     direct
_atom_sites_solution_secondary   difmap
_atom_sites_solution_hydrogens   geom
_refine_ls_hydrogen_treatment    mixed
_refine_ls_extinction_method     none
_refine_ls_extinction_coef       ?
_refine_ls_number_reflns         2935
_refine_ls_number_parameters     107
_refine_ls_number_restraints     18
_refine_ls_R_factor_all          0.1199
_refine_ls_R_factor_gt           0.0687
_refine_ls_wR_factor_ref         0.2245
_refine_ls_wR_factor_gt          0.1871
_refine_ls_goodness_of_fit_ref   1.042
_refine_ls_restrained_S_all      1.049
_refine_ls_shift/su_max          0.000
_refine_ls_shift/su_mean         0.000

loop_
_atom_site_label
_atom_site_type_symbol
_atom_site_fract_x
_atom_site_fract_y
_atom_site_fract_z
_atom_site_U_iso_or_equiv
_atom_site_adp_type
_atom_site_occupancy
_atom_site_symmetry_multiplicity
_atom_site_calc_flag
_atom_site_refinement_flags
_atom_site_disorder_assembly
_atom_site_disorder_group
Zn1 Zn 0.11388(4) 0.66509(4) 0.17642(4) 0.0588(3) Uani 1 1 d . . .
N1 N 0.1342(3) 0.6413(3) 0.0657(3) 0.0646(14) Uani 1 1 d D . .
N2 N 0.1634(3) 0.7539(3) 0.2013(3) 0.0648(14) Uani 1 1 d D . .
N3 N 0.0130(3) 0.6750(3) 0.1996(3) 0.0672(15) Uani 1 1 d D . .
N4 N -0.0908(3) 0.6540(3) 0.2548(3) 0.0667(15) Uani 1 1 d D . .
C1 C 0.1054(5) 0.6655(5) 0.0000 0.066(3) Uani 1 2 d SD . .
H1B H 0.0681 0.6969 0.0000 0.079 Uiso 1 2 calc SR . .
C3 C 0.2221(3) 0.7779(3) 0.1685(5) 0.061(2) Uani 1 2 d SD . .
H3A H 0.2443 0.7557 0.1268 0.073 Uiso 1 2 calc SR . .
C2 C 0.1942(6) 0.6114(8) 0.0398(3) 0.072(4) Uiso 0.50 1 d PD . 1
H2A H 0.2297 0.5937 0.0714 0.086 Uiso 0.50 1 calc PR . 1
C4 C 0.1573(6) 0.7922(6) 0.2693(7) 0.064(4) Uiso 0.50 1 d PD . 1
H4A H 0.1243 0.7849 0.3086 0.077 Uiso 0.50 1 calc PR . 1
C5 C -0.0327(7) 0.7258(8) 0.1777(10) 0.082(5) Uiso 0.50 1 d PD . 1
H5A H -0.0227 0.7622 0.1431 0.099 Uiso 0.50 1 calc PR . 1
C6 C -0.0953(8) 0.7154(7) 0.2140(10) 0.091(6) Uiso 0.50 1 d PD . 1
H6A H -0.1341 0.7448 0.2115 0.109 Uiso 0.50 1 calc PR . 1
C2' C 0.1735(7) 0.5849(7) 0.0401(3) 0.075(5) Uiso 0.50 1 d PD . 2
H2'A H 0.1961 0.5524 0.0720 0.090 Uiso 0.50 1 calc PR . 2
C4' C 0.1394(6) 0.8100(5) 0.2442(11) 0.090(6) Uiso 0.50 1 d PD . 2
H4'A H 0.0960 0.8130 0.2690 0.108 Uiso 0.50 1 calc PR . 2
C5' C -0.0390(6) 0.7008(10) 0.1516(9) 0.086(6) Uiso 0.50 1 d PD . 2
H5'A H -0.0320 0.7219 0.1031 0.103 Uiso 0.50 1 calc PR . 2
C6' C -0.1020(8) 0.6905(9) 0.1865(8) 0.073(4) Uiso 0.50 1 d PD . 2
H6'A H -0.1452 0.7054 0.1675 0.088 Uiso 0.50 1 calc PR . 2
C7 C -0.0231(3) 0.6376(3) 0.2511(4) 0.0658(18) Uani 1 1 d D . .
H7A H -0.0029 0.6028 0.2819 0.079 Uiso 1 1 calc R . .
O1 O 0.0000 0.5000 0.0000 0.380(19) Uiso 1 4 d S . .
O3 O 0.0953(16) 0.9047(16) 0.0000 0.38(2) Uiso 1 4 d S . .
O1' O 0.0000 0.5000 -0.1090(14) 0.164(8) Uiso 0.50 2 d SP . .
O2 O 0.011(2) 0.815(2) 0.0000 0.282(18) Uiso 0.50 2 d SP . .

loop_
_atom_site_aniso_label
_atom_site_aniso_U_11
_atom_site_aniso_U_22
_atom_site_aniso_U_33
_atom_site_aniso_U_23
_atom_site_aniso_U_13
_atom_site_aniso_U_12
Zn1 0.0598(5) 0.0565(5) 0.0600(5) 0.0082(4) 0.0011(4) -0.0096(3)
N1 0.067(3) 0.066(3) 0.060(3) 0.001(3) 0.005(3) -0.008(3)
N2 0.068(4) 0.058(3) 0.068(3) -0.005(3) 0.010(3) -0.011(3)
N3 0.056(3) 0.071(4) 0.074(4) 0.021(3) 0.004(3) -0.004(3)
N4 0.059(3) 0.068(4) 0.072(4) 0.017(3) 0.012(3) 0.008(3)
C1 0.065(6) 0.074(6) 0.057(6) 0.000 0.000 0.010(5)
C3 0.059(3) 0.059(3) 0.064(6) -0.012(3) 0.012(3) -0.009(4)
C7 0.065(4) 0.068(4) 0.064(4) 0.010(3) 0.007(3) 0.008(3)

_geom_special_details            
;
All esds (except the esd in the dihedral angle between two l.s. planes)
are estimated using the full covariance matrix. The cell esds are taken
into account individually in the estimation of esds in distances, angles
and torsion angles; correlations between esds in cell parameters are only
used when they are defined by crystal symmetry. An approximate (isotropic)
treatment of cell esds is used for estimating esds involving l.s. planes.
;

loop_
_geom_bond_atom_site_label_1
_geom_bond_atom_site_label_2
_geom_bond_distance
_geom_bond_site_symmetry_2
_geom_bond_publ_flag
Zn1 N3 1.974(5) . ?
Zn1 N1 1.980(6) . ?
Zn1 N2 1.986(5) . ?
Zn1 N4 1.994(5) 11_566 ?
N1 C1 1.331(6) . ?
N1 C2 1.353(9) . ?
N1 C2' 1.384(9) . ?
N2 C3 1.333(6) . ?
N2 C4' 1.374(9) . ?
N2 C4 1.376(8) . ?
N3 C7 1.324(6) . ?
N3 C5 1.356(9) . ?
N3 C5' 1.377(9) . ?
N4 C7 1.329(6) . ?
N4 C6 1.364(9) . ?
N4 C6' 1.373(9) . ?
N4 Zn1 1.994(5) 12_666 ?
C1 N1 1.331(6) 10 ?
C1 H1B 0.9300 . ?
C3 N2 1.333(6) 15_665 ?
C3 H3A 0.9300 . ?
C2 C2 1.357(10) 10 ?
C2 H2A 0.9300 . ?
C4 C4 1.363(9) 15_665 ?
C4 H4A 0.9300 . ?
C5 C6 1.360(9) . ?
C5 H5A 0.9300 . ?
C6 H6A 0.9300 . ?
C2' C2' 1.368(10) 10 ?
C2' H2'A 0.9300 . ?
C4' C4' 1.366(10) 15_665 ?
C4' H4'A 0.9300 . ?
C5' C6' 1.355(9) . ?
C5' H5'A 0.9300 . ?
C6' H6'A 0.9300 . ?
C7 H7A 0.9300 . ?

loop_
_geom_angle_atom_site_label_1
_geom_angle_atom_site_label_2
_geom_angle_atom_site_label_3
_geom_angle
_geom_angle_site_symmetry_1
_geom_angle_site_symmetry_3
_geom_angle_publ_flag
N3 Zn1 N1 113.8(2) . . ?
N3 Zn1 N2 109.8(2) . . ?
N1 Zn1 N2 107.9(2) . . ?
N3 Zn1 N4 108.9(2) . 11_566 ?
N1 Zn1 N4 108.9(2) . 11_566 ?
N2 Zn1 N4 107.4(2) . 11_566 ?
C1 N1 C2 102.7(6) . . ?
C1 N1 C2' 103.2(6) . . ?
C2 N1 C2' 27.1(8) . . ?
C1 N1 Zn1 130.0(5) . . ?
C2 N1 Zn1 125.0(4) . . ?
C2' N1 Zn1 125.8(4) . . ?
C3 N2 C4' 103.7(6) . . ?
C3 N2 C4 104.1(6) . . ?
C4' N2 C4 27.1(9) . . ?
C3 N2 Zn1 127.0(4) . . ?
C4' N2 Zn1 128.3(4) . . ?
C4 N2 Zn1 126.4(4) . . ?
C7 N3 C5 103.5(8) . . ?
C7 N3 C5' 102.2(8) . . ?
C5 N3 C5' 28.1(9) . . ?
C7 N3 Zn1 126.1(4) . . ?
C5 N3 Zn1 129.7(7) . . ?
C5' N3 Zn1 128.1(7) . . ?
C7 N4 C6 103.9(8) . . ?
C7 N4 C6' 103.3(8) . . ?
C6 N4 C6' 28.8(9) . . ?
C7 N4 Zn1 128.9(4) . 12_666 ?
C6 N4 Zn1 125.8(7) . 12_666 ?
C6' N4 Zn1 125.6(7) . 12_666 ?
N1 C1 N1 114.8(8) . 10 ?
N1 C1 H1B 122.6 . . ?
N1 C1 H1B 122.6 10 . ?
N2 C3 N2 113.5(7) 15_665 . ?
N2 C3 H3A 123.2 15_665 . ?
N2 C3 H3A 123.2 . . ?
N1 C2 C2 109.1(3) . 10 ?
N1 C2 H2A 125.5 . . ?
C2 C2 H2A 125.5 10 . ?
C4 C4 N2 108.4(3) 15_665 . ?
C4 C4 H4A 125.8 15_665 . ?
N2 C4 H4A 125.8 . . ?
N3 C5 C6 109.5(12) . . ?
N3 C5 H5A 125.2 . . ?
C6 C5 H5A 125.2 . . ?
C5 C6 N4 107.6(12) . . ?
C5 C6 H6A 126.2 . . ?
N4 C6 H6A 126.2 . . ?
C2' C2' N1 108.4(3) 10 . ?
C2' C2' H2'A 125.8 10 . ?
N1 C2' H2'A 125.8 . . ?
C4' C4' N2 108.3(3) 15_665 . ?
C4' C4' H4'A 125.8 15_665 . ?
N2 C4' H4'A 125.8 . . ?
C6' C5' N3 109.0(11) . . ?
C6' C5' H5'A 125.5 . . ?
N3 C5' H5'A 125.5 . . ?
C5' C6' N4 107.9(11) . . ?
C5' C6' H6'A 126.1 . . ?
N4 C6' H6'A 126.1 . . ?
N3 C7 N4 114.2(6) . . ?
N3 C7 H7A 122.9 . . ?
N4 C7 H7A 122.9 . . ?

_diffrn_measured_fraction_theta_max 0.987
_diffrn_reflns_theta_full        25.00
_diffrn_measured_fraction_theta_full 0.987
_refine_diff_density_max         0.928
_refine_diff_density_min         -0.594
_refine_diff_density_rms         0.120
