####################################################################### 
# 
# This file contains crystal structure data downloaded from the 
# Cambridge Structural Database (CSD) hosted by the Cambridge 
# Crystallographic Data Centre (CCDC).
# 
# Full information about CCDC data access policies and citation 
# guidelines are available at http://www.ccdc.cam.ac.uk/access/V1 
# 
# Audit and citation data items may have been added by the CCDC. 
# Please retain this information to preserve the provenance of 
# this file and to allow appropriate attribution of the data. 
# 
#######################################################################

data_1a
_audit_block_doi                 10.5517/ccpps37
_database_code_depnum_ccdc_archive 'CCDC 646539'
loop_
_citation_id
_citation_doi
_citation_year
1 10.1002/chem.200700181 2007
_audit_update_record             
;
2007-05-10 deposited with the CCDC.	2024-07-10 downloaded from the CCDC.
;

_audit_creation_method           SHELXL-97
_chemical_name_systematic        
;
?
;
_chemical_name_common            'Zinc imidazolate'
_chemical_melting_point          ?
_chemical_formula_moiety         ?
_chemical_formula_sum            'C35 H41 N21 O Zn5'
_chemical_formula_weight         1098.74

loop_
_atom_type_symbol
_atom_type_description
_atom_type_scat_dispersion_real
_atom_type_scat_dispersion_imag
_atom_type_scat_source
C C 0.0033 0.0016 'International Tables Vol C Tables 4.2.6.8 and 6.1.1.4'
H H 0.0000 0.0000 'International Tables Vol C Tables 4.2.6.8 and 6.1.1.4'
N N 0.0061 0.0033 'International Tables Vol C Tables 4.2.6.8 and 6.1.1.4'
O O 0.0106 0.0060 'International Tables Vol C Tables 4.2.6.8 and 6.1.1.4'
Zn Zn 0.2839 1.4301 'International Tables Vol C Tables 4.2.6.8 and 6.1.1.4'

_symmetry_cell_setting           Monoclinic
_symmetry_space_group_name_H-M   P2(1)/n

loop_
_symmetry_equiv_pos_as_xyz
'x, y, z'
'-x+1/2, y+1/2, -z+1/2'
'-x, -y, -z'
'x-1/2, -y-1/2, z-1/2'

_cell_length_a                   24.359(5)
_cell_length_b                   9.6097(19)
_cell_length_c                   24.804(5)
_cell_angle_alpha                90.00
_cell_angle_beta                 91.774(4)
_cell_angle_gamma                90.00
_cell_volume                     5803(2)
_cell_formula_units_Z            4
_cell_measurement_temperature    293(2)
_cell_measurement_reflns_used    ?
_cell_measurement_theta_min      ?
_cell_measurement_theta_max      ?

_exptl_crystal_description       prism
_exptl_crystal_colour            colorless
_exptl_crystal_size_max          0.4
_exptl_crystal_size_mid          0.2
_exptl_crystal_size_min          0.1
_exptl_crystal_density_meas      ?
_exptl_crystal_density_diffrn    1.258
_exptl_crystal_density_method    'not measured'
_exptl_crystal_F_000             2224
_exptl_absorpt_coefficient_mu    2.080
_exptl_absorpt_correction_type   'empirical used sadabs'
_exptl_absorpt_correction_T_min  0.88
_exptl_absorpt_correction_T_max  0.65
_exptl_absorpt_process_details   ?

_exptl_special_details           
;
?
;

_diffrn_ambient_temperature      293(2)
_diffrn_radiation_wavelength     0.71073
_diffrn_radiation_type           MoK\a
_diffrn_radiation_source         'fine-focus sealed tube'
_diffrn_radiation_monochromator  graphite
_diffrn_measurement_device_type  'Bruker SMART CCD area detector'
_diffrn_measurement_method       'phi and omega scans'
_diffrn_detector_area_resol_mean ?
_diffrn_standards_number         ?
_diffrn_standards_interval_count ?
_diffrn_standards_interval_time  ?
_diffrn_standards_decay_%        ?
_diffrn_reflns_number            28336
_diffrn_reflns_av_R_equivalents  0.0892
_diffrn_reflns_av_sigmaI/netI    0.2252
_diffrn_reflns_limit_h_min       -31
_diffrn_reflns_limit_h_max       30
_diffrn_reflns_limit_k_min       -11
_diffrn_reflns_limit_k_max       12
_diffrn_reflns_limit_l_min       -25
_diffrn_reflns_limit_l_max       31
_diffrn_reflns_theta_min         1.15
_diffrn_reflns_theta_max         27.14
_reflns_number_total             12707
_reflns_number_gt                4422
_reflns_threshold_expression     >2sigma(I)

_computing_data_collection       'Bruker SMART'
_computing_cell_refinement       'Bruker SAINT'
_computing_data_reduction        'Bruker SAINT'
_computing_structure_solution    'SHELXS-97 (Sheldrick, 1990)'
_computing_structure_refinement  'SHELXL-97 (Sheldrick, 1997)'
_computing_molecular_graphics    'Bruker SHELXTL'
_computing_publication_material  'Bruker SHELXTL'

_refine_special_details          
;
Refinement of F^2^ against ALL reflections. The weighted R-factor wR and
goodness of fit S are based on F^2^, conventional R-factors R are based
on F, with F set to zero for negative F^2^. The threshold expression of
F^2^ > 2sigma(F^2^) is used only for calculating R-factors(gt) etc. and is
not relevant to the choice of reflections for refinement. R-factors based
on F^2^ are statistically about twice as large as those based on F, and R-
factors based on ALL data will be even larger.
;

_refine_ls_structure_factor_coef Fsqd
_refine_ls_matrix_type           full
_refine_ls_weighting_scheme      calc
_refine_ls_weighting_details     
'calc w=1/[\s^2^(Fo^2^)+(0.0418P)^2^+0.0000P] where P=(Fo^2^+2Fc^2^)/3'
_atom_sites_solution_primary     direct
_atom_sites_solution_secondary   difmap
_atom_sites_solution_hydrogens   geom
_refine_ls_hydrogen_treatment    mixed
_refine_ls_extinction_method     none
_refine_ls_extinction_coef       ?
_refine_ls_number_reflns         12707
_refine_ls_number_parameters     559
_refine_ls_number_restraints     1
_refine_ls_R_factor_all          0.1665
_refine_ls_R_factor_gt           0.0550
_refine_ls_wR_factor_ref         0.1804
_refine_ls_wR_factor_gt          0.1656
_refine_ls_goodness_of_fit_ref   1.006
_refine_ls_restrained_S_all      1.007
_refine_ls_shift/su_max          0.001
_refine_ls_shift/su_mean         0.000

loop_
_atom_site_label
_atom_site_type_symbol
_atom_site_fract_x
_atom_site_fract_y
_atom_site_fract_z
_atom_site_U_iso_or_equiv
_atom_site_adp_type
_atom_site_occupancy
_atom_site_symmetry_multiplicity
_atom_site_calc_flag
_atom_site_refinement_flags
_atom_site_disorder_assembly
_atom_site_disorder_group
Zn1 Zn -0.23263(4) 0.03285(11) 0.68206(4) 0.0435(3) Uani 1 1 d . . .
Zn2 Zn -0.01286(4) 0.25880(12) 0.72411(4) 0.0423(3) Uani 1 1 d . . .
Zn3 Zn -0.03213(4) 0.76364(11) 0.86253(4) 0.0416(3) Uani 1 1 d . . .
Zn4 Zn 0.15902(4) 0.82800(12) 1.01774(4) 0.0407(3) Uani 1 1 d . . .
Zn5 Zn 0.28341(4) 0.94020(12) 0.81609(5) 0.0471(3) Uani 1 1 d . . .
N1 N -0.2832(3) 0.3503(8) 0.7817(3) 0.048(2) Uani 1 1 d . . .
N2 N -0.2707(3) 0.1604(8) 0.7325(3) 0.043(2) Uani 1 1 d . . .
N3 N -0.1636(3) 0.1287(9) 0.6640(3) 0.053(2) Uani 1 1 d . . .
N4 N -0.0798(3) 0.2155(9) 0.6785(3) 0.051(2) Uani 1 1 d . . .
N5 N -0.0376(3) 0.3925(8) 0.7798(3) 0.045(2) Uani 1 1 d . . .
N6 N -0.0470(3) 0.5791(8) 0.8305(3) 0.041(2) Uani 1 1 d . . .
N7 N 0.0088(3) 0.0800(8) 0.7605(3) 0.047(2) Uani 1 1 d . . .
N8 N 0.0026(3) -0.1083(8) 0.8111(3) 0.045(2) Uani 1 1 d . . .
N9 N -0.1002(3) 0.8634(8) 0.8834(3) 0.040(2) Uani 1 1 d . . .
N10 N -0.1471(3) 1.0268(8) 0.9258(3) 0.042(2) Uani 1 1 d . . .
N11 N 0.0144(3) 0.7486(8) 0.9296(3) 0.044(2) Uani 1 1 d . . .
N12 N 0.0857(3) 0.7746(8) 0.9861(3) 0.045(2) Uani 1 1 d . . .
N13 N 0.1877(3) 0.6543(8) 1.0521(3) 0.044(2) Uani 1 1 d . . .
N14 N 0.2260(3) 0.5130(8) 1.1143(3) 0.041(2) Uani 1 1 d . . .
N15 N 0.2061(3) 0.9125(8) 0.9628(3) 0.046(2) Uani 1 1 d . . .
N16 N 0.2519(3) 0.9566(9) 0.8884(3) 0.050(2) Uani 1 1 d . . .
N17 N 0.2405(3) 0.8067(8) 0.7717(3) 0.046(2) Uani 1 1 d . . .
N18 N 0.2167(3) 0.6236(8) 0.7215(3) 0.048(2) Uani 1 1 d . . .
N19 N 0.3614(3) 0.8792(9) 0.8285(3) 0.054(2) Uani 1 1 d . . .
N20 N 0.4477(3) 0.8237(8) 0.8151(3) 0.052(2) Uani 1 1 d . . .
C1 C -0.2522(4) 0.2845(10) 0.7478(4) 0.043(3) Uani 1 1 d . . .
H1A H -0.2197 0.3219 0.7355 0.051 Uiso 1 1 calc R . .
C2 C -0.3251(4) 0.2626(12) 0.7884(4) 0.058(3) Uani 1 1 d . . .
H2A H -0.3548 0.2796 0.8101 0.070 Uiso 1 1 calc R . .
C3 C -0.3182(4) 0.1479(11) 0.7596(4) 0.058(3) Uani 1 1 d . . .
H3A H -0.3418 0.0718 0.7581 0.070 Uiso 1 1 calc R . .
C4 C -0.1187(4) 0.1303(11) 0.6925(4) 0.060(3) Uani 1 1 d . . .
H4A H -0.1140 0.0723 0.7223 0.072 Uiso 1 1 calc R . .
C5 C -0.1547(6) 0.2265(18) 0.6291(6) 0.161(8) Uani 1 1 d . . .
H5A H -0.1799 0.2574 0.6028 0.193 Uiso 1 1 calc R . .
C6 C -0.1032(6) 0.2760(18) 0.6368(6) 0.166(9) Uani 1 1 d . . .
H6A H -0.0868 0.3432 0.6156 0.199 Uiso 1 1 calc R . .
C7 C -0.0216(4) 0.5195(10) 0.7910(4) 0.049(3) Uani 1 1 d . . .
H7A H 0.0059 0.5641 0.7722 0.059 Uiso 1 1 calc R . .
C8 C -0.0784(4) 0.3704(11) 0.8166(4) 0.061(3) Uani 1 1 d . . .
H8A H -0.0990 0.2896 0.8197 0.073 Uiso 1 1 calc R . .
C9 C -0.0831(4) 0.4844(11) 0.8470(4) 0.058(3) Uani 1 1 d . . .
H9A H -0.1074 0.4960 0.8748 0.070 Uiso 1 1 calc R . .
C10 C -0.0191(4) 0.0117(10) 0.7967(4) 0.048(3) Uani 1 1 d . . .
H10A H -0.0514 0.0455 0.8108 0.058 Uiso 1 1 calc R . .
C11 C 0.0492(4) -0.1176(12) 0.7834(4) 0.067(3) Uani 1 1 d . . .
H11A H 0.0745 -0.1902 0.7855 0.080 Uiso 1 1 calc R . .
C12 C 0.0529(4) -0.0044(12) 0.7522(5) 0.070(4) Uani 1 1 d . . .
H12A H 0.0810 0.0139 0.7287 0.084 Uiso 1 1 calc R . .
C13 C -0.1007(4) 0.9528(11) 0.9236(4) 0.049(3) Uani 1 1 d . . .
H13A H -0.0715 0.9635 0.9482 0.059 Uiso 1 1 calc R . .
C14 C -0.1765(4) 0.9766(11) 0.8820(4) 0.058(3) Uani 1 1 d . . .
H14A H -0.2116 1.0067 0.8717 0.070 Uiso 1 1 calc R . .
C15 C -0.1489(4) 0.8801(10) 0.8563(4) 0.053(3) Uani 1 1 d . . .
H15A H -0.1608 0.8326 0.8254 0.064 Uiso 1 1 calc R . .
C16 C 0.0641(4) 0.8021(9) 0.9381(4) 0.041(2) Uani 1 1 d . . .
H16A H 0.0821 0.8543 0.9124 0.050 Uiso 1 1 calc R . .
C17 C 0.0041(4) 0.6818(12) 0.9763(5) 0.075(4) Uani 1 1 d . . .
H17A H -0.0280 0.6336 0.9833 0.090 Uiso 1 1 calc R . .
C18 C 0.0468(4) 0.6951(12) 1.0108(4) 0.076(4) Uani 1 1 d . . .
H18A H 0.0498 0.6576 1.0454 0.091 Uiso 1 1 calc R . .
C19 C 0.2125(4) 0.6428(10) 1.1004(4) 0.044(2) Uani 1 1 d . . .
H19A H 0.2197 0.7189 1.1227 0.052 Uiso 1 1 calc R . .
C20 C 0.1830(4) 0.5211(11) 1.0344(4) 0.060(3) Uani 1 1 d . . .
H20A H 0.1664 0.4930 1.0019 0.072 Uiso 1 1 calc R . .
C21 C 0.2067(4) 0.4353(11) 1.0721(4) 0.057(3) Uani 1 1 d . . .
H21A H 0.2093 0.3390 1.0693 0.068 Uiso 1 1 calc R . .
C22 C 0.2149(4) 0.8762(10) 0.9123(4) 0.045(3) Uani 1 1 d . . .
H22A H 0.1971 0.8021 0.8951 0.054 Uiso 1 1 calc R . .
C23 C 0.2388(5) 1.0246(12) 0.9711(5) 0.079(4) Uani 1 1 d . . .
H23A H 0.2417 1.0751 1.0031 0.095 Uiso 1 1 calc R . .
C24 C 0.2665(5) 1.0525(13) 0.9261(5) 0.079(4) Uani 1 1 d . . .
H24A H 0.2913 1.1248 0.9218 0.095 Uiso 1 1 calc R . .
C25 C 0.2543(4) 0.6842(11) 0.7533(4) 0.048(3) Uani 1 1 d . . .
H25A H 0.2880 0.6430 0.7619 0.058 Uiso 1 1 calc R . .
C26 C 0.1753(4) 0.7167(12) 0.7198(5) 0.071(4) Uani 1 1 d . . .
H26A H 0.1422 0.7057 0.7006 0.085 Uiso 1 1 calc R . .
C27 C 0.1896(4) 0.8298(12) 0.7506(5) 0.074(4) Uani 1 1 d . . .
H27A H 0.1682 0.9083 0.7561 0.088 Uiso 1 1 calc R . .
C28 C 0.4003(4) 0.8661(11) 0.7947(4) 0.052(3) Uani 1 1 d . . .
H28A H 0.3950 0.8855 0.7581 0.062 Uiso 1 1 calc R . .
C29 C 0.3854(6) 0.837(2) 0.8732(5) 0.173(9) Uani 1 1 d . . .
H29A H 0.3677 0.8316 0.9058 0.208 Uiso 1 1 calc R . .
C30 C 0.4380(6) 0.8022(19) 0.8678(5) 0.159(8) Uani 1 1 d . . .
H30A H 0.4626 0.7702 0.8944 0.190 Uiso 1 1 calc R . .
O1 O 0.1164(5) 0.6008(13) 0.8431(5) 0.164(5) Uani 1 1 d . . .
N21 N 0.1342(6) 0.3956(14) 0.8796(5) 0.104(4) Uani 1 1 d D . .
C31 C 0.0998(7) 0.5116(17) 0.8715(6) 0.123(6) Uani 1 1 d D . .
H31A H 0.0659 0.5182 0.8875 0.148 Uiso 1 1 calc R . .
C32 C 0.1123(8) 0.284(2) 0.9139(7) 0.174(8) Uani 1 1 d . . .
H32A H 0.1416 0.2442 0.9361 0.208 Uiso 1 1 calc R . .
H32B H 0.0849 0.3221 0.9374 0.208 Uiso 1 1 calc R . .
C33 C 0.0901(11) 0.188(2) 0.8820(10) 0.313(19) Uani 1 1 d . . .
H33A H 0.0768 0.1131 0.9035 0.469 Uiso 1 1 calc R . .
H33B H 0.1172 0.1538 0.8582 0.469 Uiso 1 1 calc R . .
H33C H 0.0601 0.2281 0.8613 0.469 Uiso 1 1 calc R . .
C34 C 0.1801(8) 0.373(2) 0.8518(7) 0.157(8) Uani 1 1 d . . .
H34A H 0.1770 0.4184 0.8170 0.188 Uiso 1 1 calc R . .
H34B H 0.1845 0.2737 0.8458 0.188 Uiso 1 1 calc R . .
C35 C 0.2288(7) 0.4276(19) 0.8827(7) 0.173(9) Uani 1 1 d . . .
H35A H 0.2613 0.4114 0.8627 0.259 Uiso 1 1 calc R . .
H35B H 0.2321 0.3811 0.9169 0.259 Uiso 1 1 calc R . .
H35C H 0.2244 0.5257 0.8884 0.259 Uiso 1 1 calc R . .

loop_
_atom_site_aniso_label
_atom_site_aniso_U_11
_atom_site_aniso_U_22
_atom_site_aniso_U_33
_atom_site_aniso_U_23
_atom_site_aniso_U_13
_atom_site_aniso_U_12
Zn1 0.0463(7) 0.0369(7) 0.0465(7) -0.0013(6) -0.0101(6) -0.0084(6)
Zn2 0.0350(6) 0.0381(7) 0.0541(8) -0.0045(6) 0.0041(5) -0.0059(6)
Zn3 0.0395(6) 0.0389(7) 0.0462(7) -0.0053(6) -0.0029(5) 0.0039(6)
Zn4 0.0413(6) 0.0458(7) 0.0349(7) 0.0017(6) -0.0011(5) 0.0084(6)
Zn5 0.0421(7) 0.0445(8) 0.0556(8) 0.0009(6) 0.0142(6) 0.0046(6)
N1 0.052(5) 0.040(6) 0.050(6) -0.003(4) -0.010(5) 0.001(5)
N2 0.050(5) 0.031(5) 0.046(5) 0.000(4) -0.009(4) -0.009(4)
N3 0.046(5) 0.062(7) 0.050(6) 0.004(5) -0.014(5) -0.022(5)
N4 0.042(5) 0.051(6) 0.060(6) 0.005(5) -0.007(4) -0.010(5)
N5 0.041(5) 0.047(6) 0.049(5) -0.009(4) 0.014(4) -0.002(4)
N6 0.036(5) 0.035(5) 0.052(5) -0.009(4) 0.002(4) -0.001(4)
N7 0.043(5) 0.038(5) 0.061(6) 0.003(4) 0.006(4) 0.006(4)
N8 0.040(5) 0.044(6) 0.051(5) -0.004(4) 0.006(4) 0.005(4)
N9 0.037(5) 0.041(5) 0.043(5) -0.009(4) -0.002(4) 0.000(4)
N10 0.040(5) 0.047(5) 0.037(5) -0.002(4) -0.003(4) 0.011(4)
N11 0.040(5) 0.050(5) 0.041(5) 0.000(4) -0.005(4) 0.001(4)
N12 0.047(5) 0.050(6) 0.037(5) 0.007(4) -0.006(4) 0.002(4)
N13 0.046(5) 0.050(6) 0.035(5) 0.000(4) -0.010(4) 0.010(4)
N14 0.047(5) 0.036(5) 0.041(5) 0.003(4) -0.003(4) 0.006(4)
N15 0.050(5) 0.046(6) 0.041(5) -0.007(4) 0.006(4) -0.003(4)
N16 0.057(5) 0.048(6) 0.045(5) -0.007(5) 0.005(4) -0.001(5)
N17 0.038(5) 0.039(6) 0.063(6) 0.000(4) 0.010(4) 0.005(4)
N18 0.044(5) 0.040(6) 0.061(6) 0.001(4) 0.010(5) 0.008(5)
N19 0.038(5) 0.076(7) 0.049(6) 0.008(5) 0.016(4) 0.015(5)
N20 0.044(5) 0.056(6) 0.055(6) -0.003(5) 0.005(5) 0.019(5)
C1 0.039(6) 0.043(7) 0.045(6) 0.000(5) -0.007(5) -0.005(5)
C2 0.069(8) 0.055(8) 0.052(7) -0.006(6) 0.014(6) -0.005(7)
C3 0.067(8) 0.041(7) 0.067(8) 0.003(6) 0.010(6) -0.021(6)
C4 0.060(7) 0.063(8) 0.058(8) 0.006(6) -0.008(6) -0.021(7)
C5 0.101(11) 0.23(2) 0.145(15) 0.113(14) -0.063(11) -0.104(13)
C6 0.130(13) 0.22(2) 0.145(15) 0.129(14) -0.068(12) -0.113(13)
C7 0.047(6) 0.041(7) 0.059(7) -0.013(6) 0.017(5) -0.018(6)
C8 0.060(7) 0.037(7) 0.086(9) -0.002(6) 0.019(7) -0.018(6)
C9 0.062(7) 0.048(8) 0.066(8) -0.015(6) 0.020(6) 0.003(6)
C10 0.042(6) 0.043(7) 0.061(7) 0.004(6) 0.015(5) 0.014(5)
C11 0.055(7) 0.055(8) 0.093(9) 0.023(7) 0.033(7) 0.014(6)
C12 0.045(7) 0.070(9) 0.096(10) 0.010(7) 0.030(6) 0.013(6)
C13 0.034(6) 0.063(8) 0.050(7) 0.005(6) -0.015(5) 0.002(6)
C14 0.040(6) 0.061(8) 0.071(8) -0.012(6) -0.024(6) 0.008(6)
C15 0.048(6) 0.050(7) 0.061(7) -0.023(6) -0.018(6) 0.015(6)
C16 0.044(6) 0.040(6) 0.040(6) 0.006(5) -0.003(5) 0.001(5)
C17 0.047(7) 0.103(11) 0.075(9) 0.032(8) -0.007(7) -0.025(7)
C18 0.061(7) 0.112(11) 0.054(8) 0.041(7) -0.009(6) -0.021(7)
C19 0.044(6) 0.035(6) 0.051(7) -0.008(5) -0.001(5) 0.002(5)
C20 0.072(8) 0.052(8) 0.054(8) -0.014(6) -0.015(6) 0.004(7)
C21 0.081(8) 0.038(7) 0.051(7) -0.014(6) -0.004(6) 0.002(6)
C22 0.049(6) 0.039(7) 0.046(7) 0.000(5) 0.012(5) -0.004(5)
C23 0.105(10) 0.071(9) 0.061(9) -0.029(7) 0.013(8) -0.013(8)
C24 0.088(9) 0.081(10) 0.069(9) -0.010(8) 0.029(7) -0.022(8)
C25 0.041(6) 0.047(7) 0.058(7) 0.002(6) 0.004(6) 0.011(6)
C26 0.047(7) 0.056(9) 0.108(10) 0.000(7) -0.008(7) -0.002(7)
C27 0.050(7) 0.044(8) 0.128(11) -0.009(8) 0.003(7) 0.001(6)
C28 0.042(6) 0.075(9) 0.039(6) 0.006(6) 0.006(5) 0.012(6)
C29 0.079(10) 0.38(3) 0.058(10) 0.067(13) 0.031(8) 0.106(14)
C30 0.084(10) 0.34(3) 0.051(9) 0.032(12) 0.016(8) 0.096(13)
O1 0.182(12) 0.155(12) 0.161(12) 0.052(9) 0.077(9) 0.049(9)
N21 0.124(11) 0.095(10) 0.095(10) -0.010(8) 0.046(8) 0.028(9)
C31 0.139(15) 0.111(16) 0.122(15) 0.027(11) 0.057(12) 0.024(13)
C32 0.157(18) 0.24(3) 0.122(17) 0.013(18) 0.024(14) 0.017(18)
C33 0.44(4) 0.20(3) 0.29(3) -0.07(2) -0.13(3) -0.15(3)
C34 0.18(2) 0.20(2) 0.092(14) -0.001(13) 0.019(15) 0.075(19)
C35 0.171(19) 0.17(2) 0.18(2) 0.030(16) 0.084(16) 0.087(17)

_geom_special_details            
;
All esds (except the esd in the dihedral angle between two l.s. planes)
are estimated using the full covariance matrix. The cell esds are taken
into account individually in the estimation of esds in distances, angles
and torsion angles; correlations between esds in cell parameters are only
used when they are defined by crystal symmetry. An approximate (isotropic)
treatment of cell esds is used for estimating esds involving l.s. planes.
;

loop_
_geom_bond_atom_site_label_1
_geom_bond_atom_site_label_2
_geom_bond_distance
_geom_bond_site_symmetry_2
_geom_bond_publ_flag
Zn1 N3 1.981(8) . ?
Zn1 N14 1.983(7) 4_565 ?
Zn1 N2 2.000(8) . ?
Zn1 N1 2.003(8) 2_446 ?
Zn2 N20 1.988(7) 2_546 ?
Zn2 N5 1.993(7) . ?
Zn2 N4 2.000(8) . ?
Zn2 N7 2.004(8) . ?
Zn3 N6 1.971(7) . ?
Zn3 N8 1.980(8) 1_565 ?
Zn3 N11 1.989(7) . ?
Zn3 N9 1.998(7) . ?
Zn4 N15 1.981(8) . ?
Zn4 N13 1.991(8) . ?
Zn4 N12 1.995(7) . ?
Zn4 N10 2.006(7) 3_577 ?
Zn5 N17 1.971(8) . ?
Zn5 N16 1.979(8) . ?
Zn5 N18 1.993(8) 2_556 ?
Zn5 N19 2.003(7) . ?
N1 C1 1.309(10) . ?
N1 C2 1.338(11) . ?
N1 Zn1 2.003(8) 2_456 ?
N2 C1 1.327(10) . ?
N2 C3 1.360(11) . ?
N3 C4 1.282(11) . ?
N3 C5 1.301(14) . ?
N4 C6 1.300(13) . ?
N4 C4 1.308(11) . ?
N5 C7 1.309(10) . ?
N5 C8 1.385(11) . ?
N6 C7 1.309(10) . ?
N6 C9 1.338(11) . ?
N7 C10 1.318(10) . ?
N7 C12 1.367(11) . ?
N8 C10 1.314(10) . ?
N8 C11 1.3