####################################################################### 
# 
# This file contains crystal structure data downloaded from the 
# Cambridge Structural Database (CSD) hosted by the Cambridge 
# Crystallographic Data Centre (CCDC).
# 
# Full information about CCDC data access policies and citation 
# guidelines are available at http://www.ccdc.cam.ac.uk/access/V1 
# 
# Audit and citation data items may have been added by the CCDC. 
# Please retain this information to preserve the provenance of 
# this file and to allow appropriate attribution of the data. 
# 
#######################################################################

data_{[Zn(anti-bime)(HO-bdc)]?2.5H2O}n
_audit_block_doi                 10.5517/ccnn4xb
_database_code_depnum_ccdc_archive 'CCDC 615192'
loop_
_citation_id
_citation_doi
_citation_year
1 10.1016/j.poly.2007.04.043 2007
_audit_update_record             
;
2006-07-17 deposited with the CCDC.	2024-07-10 downloaded from the CCDC.
;

_audit_creation_method           SHELXL-97
_chemical_name_systematic        
;
?
;
_chemical_name_common            ?
_chemical_melting_point          ?
_chemical_formula_moiety         ?
_chemical_formula_sum            'C16 H19 N4 O7.50 Zn'
_chemical_formula_weight         452.72

loop_
_atom_type_symbol
_atom_type_description
_atom_type_scat_dispersion_real
_atom_type_scat_dispersion_imag
_atom_type_scat_source
C C 0.0033 0.0016 'International Tables Vol C Tables 4.2.6.8 and 6.1.1.4'
H H 0.0000 0.0000 'International Tables Vol C Tables 4.2.6.8 and 6.1.1.4'
N N 0.0061 0.0033 'International Tables Vol C Tables 4.2.6.8 and 6.1.1.4'
O O 0.0106 0.0060 'International Tables Vol C Tables 4.2.6.8 and 6.1.1.4'
Zn Zn 0.2839 1.4301 'International Tables Vol C Tables 4.2.6.8 and 6.1.1.4'

_symmetry_cell_setting           Monoclinic
_symmetry_space_group_name_H-M   P2(1)/c

loop_
_symmetry_equiv_pos_as_xyz
'x, y, z'
'-x, y+1/2, -z+1/2'
'-x, -y, -z'
'x, -y-1/2, z-1/2'

_cell_length_a                   10.2458(3)
_cell_length_b                   21.9840(3)
_cell_length_c                   9.0406(2)
_cell_angle_alpha                90.00
_cell_angle_beta                 103.0100(10)
_cell_angle_gamma                90.00
_cell_volume                     1984.07(8)
_cell_formula_units_Z            4
_cell_measurement_temperature    293(2)
_cell_measurement_reflns_used    ?
_cell_measurement_theta_min      ?
_cell_measurement_theta_max      ?

_exptl_crystal_description       Block
_exptl_crystal_colour            Colorless
_exptl_crystal_size_max          0.42
_exptl_crystal_size_mid          0.22
_exptl_crystal_size_min          0.20
_exptl_crystal_density_meas      ?
_exptl_crystal_density_diffrn    1.516
_exptl_crystal_density_method    'not measured'
_exptl_crystal_F_000             932
_exptl_absorpt_coefficient_mu    1.286
_exptl_absorpt_correction_type   ?
_exptl_absorpt_correction_T_min  ?
_exptl_absorpt_correction_T_max  ?
_exptl_absorpt_process_details   ?

_exptl_special_details           
;
?
;

_diffrn_ambient_temperature      293(2)
_diffrn_radiation_wavelength     0.71073
_diffrn_radiation_type           MoK\a
_diffrn_radiation_source         'fine-focus sealed tube'
_diffrn_radiation_monochromator  graphite
_diffrn_measurement_device_type  ?
_diffrn_measurement_method       ?
_diffrn_detector_area_resol_mean ?
_diffrn_standards_number         ?
_diffrn_standards_interval_count ?
_diffrn_standards_interval_time  ?
_diffrn_standards_decay_%        ?
_diffrn_reflns_number            6330
_diffrn_reflns_av_R_equivalents  0.0296
_diffrn_reflns_av_sigmaI/netI    0.0422
_diffrn_reflns_limit_h_min       -11
_diffrn_reflns_limit_h_max       12
_diffrn_reflns_limit_k_min       -26
_diffrn_reflns_limit_k_max       25
_diffrn_reflns_limit_l_min       -10
_diffrn_reflns_limit_l_max       5
_diffrn_reflns_theta_min         1.85
_diffrn_reflns_theta_max         25.05
_reflns_number_total             3467
_reflns_number_gt                2902
_reflns_threshold_expression     >2sigma(I)

_computing_data_collection       ?
_computing_cell_refinement       ?
_computing_data_reduction        ?
_computing_structure_solution    'SHELXS-97 (Sheldrick, 1990)'
_computing_structure_refinement  'SHELXL-97 (Sheldrick, 1997)'
_computing_molecular_graphics    ?
_computing_publication_material  ?

_refine_special_details          
;
Refinement of F^2^ against ALL reflections. The weighted R-factor wR and
goodness of fit S are based on F^2^, conventional R-factors R are based
on F, with F set to zero for negative F^2^. The threshold expression of
F^2^ > 2sigma(F^2^) is used only for calculating R-factors(gt) etc. and is
not relevant to the choice of reflections for refinement. R-factors based
on F^2^ are statistically about twice as large as those based on F, and R-
factors based on ALL data will be even larger.
;

_refine_ls_structure_factor_coef Fsqd
_refine_ls_matrix_type           full
_refine_ls_weighting_scheme      calc
_refine_ls_weighting_details     
'calc w=1/[\s^2^(Fo^2^)+(0.1000P)^2^+0.0000P] where P=(Fo^2^+2Fc^2^)/3'
_atom_sites_solution_primary     direct
_atom_sites_solution_secondary   difmap
_atom_sites_solution_hydrogens   geom
_refine_ls_hydrogen_treatment    mixed
_refine_ls_extinction_method     none
_refine_ls_extinction_coef       ?
_refine_ls_number_reflns         3467
_refine_ls_number_parameters     262
_refine_ls_number_restraints     12
_refine_ls_R_factor_all          0.0945
_refine_ls_R_factor_gt           0.0756
_refine_ls_wR_factor_ref         0.2277
_refine_ls_wR_factor_gt          0.2122
_refine_ls_goodness_of_fit_ref   1.686
_refine_ls_restrained_S_all      1.693
_refine_ls_shift/su_max          0.004
_refine_ls_shift/su_mean         0.000

loop_
_atom_site_label
_atom_site_type_symbol
_atom_site_fract_x
_atom_site_fract_y
_atom_site_fract_z
_atom_site_U_iso_or_equiv
_atom_site_adp_type
_atom_site_occupancy
_atom_site_symmetry_multiplicity
_atom_site_calc_flag
_atom_site_refinement_flags
_atom_site_disorder_assembly
_atom_site_disorder_group
Zn Zn -0.08683(6) 0.10095(3) 0.35368(7) 0.0255(3) Uani 1 1 d . . .
O1 O 0.0961(4) 0.09035(19) 0.4829(5) 0.0324(10) Uani 1 1 d . . .
OW1 O 0.2552(9) 0.2801(4) 0.6431(11) 0.125(3) Uani 1 1 d . . .
O2 O 0.1682(4) 0.1179(2) 0.2795(5) 0.0401(11) Uani 1 1 d . . .
OW2 O 0.4560(10) 0.1350(7) 1.0343(12) 0.178(5) Uani 1 1 d . . .
O3 O 0.6551(5) 0.1009(2) 0.2852(5) 0.0433(12) Uani 1 1 d . . .
O4 O 0.7981(4) 0.08607(19) 0.5027(5) 0.0318(10) Uani 1 1 d . . .
O5 O 0.5127(7) 0.0258(3) 0.8599(8) 0.090(2) Uani 1 1 d U . .
H5A H 0.4416 0.0213 0.8904 0.136 Uiso 1 1 calc R . .
N1 N -0.0997(5) 0.1885(2) 0.2946(6) 0.0360(12) Uani 1 1 d . . .
N2 N -0.0376(6) 0.2834(2) 0.2780(7) 0.0433(14) Uani 1 1 d . . .
N3 N 0.0573(5) 0.4442(2) 0.3815(6) 0.0326(12) Uani 1 1 d . . .
N4 N 0.1021(4) 0.5322(2) 0.2928(5) 0.0262(10) Uani 1 1 d . . .
C1 C 0.1898(6) 0.1001(2) 0.4125(7) 0.0275(13) Uani 1 1 d . . .
C2 C 0.6797(6) 0.0912(3) 0.4249(7) 0.0291(13) Uani 1 1 d . . .
C3 C 0.3308(6) 0.0872(3) 0.4972(7) 0.0283(13) Uani 1 1 d . . .
C4 C 0.4359(6) 0.0949(3) 0.4281(7) 0.0290(13) Uani 1 1 d . . .
H4B H 0.4187 0.1091 0.3263 0.035 Uiso 1 1 calc R . .
C5 C 0.5640(6) 0.0828(3) 0.5019(7) 0.0302(13) Uani 1 1 d . . .
C6 C 0.5900(6) 0.0601(4) 0.6493(7) 0.0406(17) Uani 1 1 d . . .
H6A H 0.6790 0.0511 0.7021 0.049 Uiso 1 1 calc R . .
C7 C 0.4833(7) 0.0511(4) 0.7174(8) 0.063(2) Uani 1 1 d . . .
C8 C 0.3551(7) 0.0648(3) 0.6439(8) 0.0463(17) Uani 1 1 d U . .
H8A H 0.2832 0.0589 0.6930 0.056 Uiso 1 1 calc R . .
C9 C -0.0047(7) 0.2290(3) 0.3409(8) 0.0379(15) Uani 1 1 d . . .
H9A H 0.0775 0.2206 0.4107 0.045 Uiso 1 1 calc R . .
C10 C 0.0438(7) 0.3382(3) 0.2968(9) 0.0449(17) Uani 1 1 d . . .
H10A H 0.0428 0.3558 0.1958 0.054 Uiso 1 1 calc R . .
H10B H 0.1375 0.3275 0.3453 0.054 Uiso 1 1 calc R . .
C11 C -0.0073(8) 0.3850(3) 0.3933(9) 0.0445(17) Uani 1 1 d . . .
H11A H -0.1056 0.3892 0.3584 0.053 Uiso 1 1 calc R . .
H11B H 0.0128 0.3716 0.5006 0.053 Uiso 1 1 calc R . .
C12 C 0.1712(6) 0.4652(3) 0.4775(7) 0.0370(15) Uani 1 1 d . . .
H12A H 0.2210 0.4456 0.5659 0.044 Uiso 1 1 calc R . .
C13 C 0.1981(6) 0.5188(3) 0.4219(7) 0.0336(14) Uani 1 1 d . . .
H13A H 0.2723 0.5440 0.4649 0.040 Uiso 1 1 calc R . .
C14 C 0.0196(6) 0.4848(3) 0.2724(7) 0.0299(13) Uani 1 1 d . . .
H14A H -0.0563 0.4806 0.1905 0.036 Uiso 1 1 calc R . .
C15 C -0.1591(9) 0.2774(4) 0.1833(11) 0.075(3) Uani 1 1 d . . .
H15A H -0.2082 0.3080 0.1203 0.090 Uiso 1 1 calc R . .
C16 C -0.1975(8) 0.2184(3) 0.1960(10) 0.065(2) Uani 1 1 d . . .
H16A H -0.2801 0.2011 0.1437 0.078 Uiso 1 1 calc R . .
OW3 O 0.462(4) 0.2225(13) 0.828(6) 0.33(3) Uani 0.50 1 d P . .

loop_
_atom_site_aniso_label
_atom_site_aniso_U_11
_atom_site_aniso_U_22
_atom_site_aniso_U_33
_atom_site_aniso_U_23
_atom_site_aniso_U_13
_atom_site_aniso_U_12
Zn 0.0195(4) 0.0239(4) 0.0334(5) 0.0004(3) 0.0067(3) 0.0000(2)
O1 0.016(2) 0.045(2) 0.038(2) 0.0021(19) 0.0095(18) -0.0006(17)
OW1 0.112(6) 0.136(8) 0.131(7) -0.048(6) 0.038(6) 0.000(6)
O2 0.026(2) 0.061(3) 0.034(3) 0.005(2) 0.0087(19) 0.006(2)
OW2 0.134(9) 0.286(15) 0.109(7) 0.014(9) 0.016(7) -0.048(9)
O3 0.027(2) 0.065(3) 0.040(3) 0.009(2) 0.014(2) 0.003(2)
O4 0.016(2) 0.041(2) 0.038(2) -0.0034(19) 0.0077(17) -0.0005(17)
O5 0.089(2) 0.094(2) 0.089(2) 0.0037(10) 0.0210(11) -0.0006(10)
N1 0.031(3) 0.026(3) 0.051(3) 0.004(2) 0.009(2) 0.000(2)
N2 0.047(3) 0.030(3) 0.053(3) 0.005(3) 0.010(3) -0.002(2)
N3 0.042(3) 0.022(3) 0.036(3) 0.005(2) 0.013(2) 0.001(2)
N4 0.024(2) 0.022(2) 0.034(3) 0.001(2) 0.008(2) -0.0023(19)
C1 0.020(3) 0.029(3) 0.034(3) -0.004(2) 0.007(2) 0.002(2)
C2 0.020(3) 0.028(3) 0.042(4) -0.004(3) 0.014(3) -0.001(2)
C3 0.022(3) 0.032(3) 0.032(3) 0.000(2) 0.007(2) 0.001(2)
C4 0.021(3) 0.035(3) 0.034(3) 0.002(3) 0.012(2) 0.003(2)
C5 0.024(3) 0.034(3) 0.034(3) 0.002(3) 0.009(3) 0.001(2)
C6 0.017(3) 0.074(5) 0.029(3) 0.008(3) 0.002(2) -0.001(3)
C7 0.030(4) 0.118(7) 0.041(4) 0.037(5) 0.005(3) 0.010(4)
C8 0.0449(19) 0.0484(19) 0.0462(19) 0.0009(10) 0.0114(10) -0.0003(10)
C9 0.038(4) 0.026(3) 0.052(4) -0.002(3) 0.015(3) -0.002(3)
C10 0.049(4) 0.026(3) 0.065(5) 0.001(3) 0.022(4) -0.012(3)
C11 0.049(4) 0.032(4) 0.058(4) 0.007(3) 0.024(4) -0.008(3)
C12 0.040(4) 0.036(3) 0.032(3) 0.004(3) 0.002(3) 0.004(3)
C13 0.023(3) 0.040(4) 0.035(3) -0.005(3) 0.000(3) -0.001(3)
C14 0.028(3) 0.024(3) 0.037(3) -0.006(3) 0.006(3) -0.004(2)
C15 0.075(6) 0.035(4) 0.098(7) 0.032(4) -0.016(5) -0.006(4)
C16 0.057(5) 0.043(5) 0.081(6) 0.019(4) -0.016(4) -0.004(4)
OW3 0.26(3) 0.14(2) 0.49(7) 0.06(3) -0.13(4) 0.03(2)

_geom_special_details            
;
All esds (except the esd in the dihedral angle between two l.s. planes)
are estimated using the full covariance matrix. The cell esds are taken
into account individually in the estimation of esds in distances, angles
and torsion angles; correlations between esds in cell parameters are only
used when they are defined by crystal symmetry. An approximate (isotropic)
treatment of cell esds is used for estimating esds involving l.s. planes.
;

loop_
_geom_bond_atom_site_label_1
_geom_bond_atom_site_label_2
_geom_bond_distance
_geom_bond_site_symmetry_2
_geom_bond_publ_flag
Zn O1 1.987(4) . ?
Zn N4 1.992(4) 2_545 ?
Zn N1 1.993(5) . ?
Zn O4 2.007(4) 1_455 ?
O1 C1 1.283(7) . ?
O2 C1 1.236(7) . ?
O3 C2 1.249(8) . ?
O4 C2 1.263(7) . ?
O4 Zn 2.007(4) 1_655 ?
O5 C7 1.373(9) . ?
N1 C9 1.316(8) . ?
N1 C16 1.353(9) . ?
N2 C9 1.334(8) . ?
N2 C15 1.349(10) . ?
N2 C10 1.452(8) . ?
N3 C14 1.322(7) . ?
N3 C12 1.368(8) . ?
N3 C11 1.473(7) . ?
N4 C14 1.328(7) . ?
N4 C13 1.378(7) . ?
N4 Zn 1.992(4) 2 ?
C1 C3 1.501(8) . ?
C2 C5 1.516(8) . ?
C3 C4 1.372(8) . ?
C3 C8 1.384(9) . ?
C4 C5 1.358(8) . ?
C5 C6 1.391(8) . ?
C6 C7 1.384(9) . ?
C7 C8 1.366(10) . ?
C10 C11 1.518(9) . ?
C12 C13 1.335(9) . ?
C15 C16 1.367(10) . ?

loop_
_geom_angle_atom_site_label_1
_geom_angle_atom_site_label_2
_geom_angle_atom_site_label_3
_geom_angle
_geom_angle_site_symmetry_1
_geom_angle_site_symmetry_3
_geom_angle_publ_flag
O1 Zn N4 102.96(18) . 2_545 ?
O1 Zn N1 105.51(19) . . ?
N4 Zn N1 124.3(2) 2_545 . ?
O1 Zn O4 101.85(16) . 1_455 ?
N4 Zn O4 110.66(17) 2_545 1_455 ?
N1 Zn O4 108.9(2) . 1_455 ?
C1 O1 Zn 113.7(4) . . ?
C2 O4 Zn 104.3(4) . 1_655 ?
C9 N1 C16 105.4(6) . . ?
C9 N1 Zn 124.7(4) . . ?
C16 N1 Zn 129.8(5) . . ?
C9 N2 C15 106.9(6) . . ?
C9 N2 C10 127.6(6) . . ?
C15 N2 C10 125.4(6) . . ?
C14 N3 C12 108.0(5) . . ?
C14 N3 C11 126.1(6) . . ?
C12 N3 C11 125.8(5) . . ?
C14 N4 C13 105.1(5) . . ?
C14 N4 Zn 123.4(4) . 2 ?
C13 N4 Zn 131.2(4) . 2 ?
O2 C1 O1 123.0(5) . . ?
O2 C1 C3 119.8(5) . . ?
O1 C1 C3 117.2(5) . . ?
O3 C2 O4 121.9(5) . . ?
O3 C2 C5 119.0(5) . . ?
O4 C2 C5 119.0(5) . . ?
C4 C3 C8 119.3(6) . . ?
C4 C3 C1 120.5(5) . . ?
C8 C3 C1 120.1(5) . . ?
C5 C4 C3 121.5(6) . . ?
C4 C5 C6 119.8(5) . . ?
C4 C5 C2 121.3(5) . . ?
C6 C5 C2 118.9(5) . . ?
C7 C6 C5 118.5(5) . . ?
C8 C7 O5 122.0(7) . . ?
C8 C7 C6 121.4(6) . . ?
O5 C7 C6 116.6(6) . . ?
C7 C8 C3 119.4(6) . . ?
N1 C9 N2 111.9(6) . . ?
N2 C10 C11 111.5(5) . . ?
N3 C11 C10 109.8(5) . . ?
C13 C12 N3 106.2(5) . . ?
C12 C13 N4 109.8(5) . . ?
N3 C14 N4 110.9(5) . . ?
N2 C15 C16 106.4(7) . . ?
N1 C16 C15 109.4(7) . . ?

_diffrn_measured_fraction_theta_max 0.985
_diffrn_reflns_theta_full        25.05
_diffrn_measured_fraction_theta_full 0.985
_refine_diff_density_max         1.665
_refine_diff_density_min         -1.036
_refine_diff_density_rms         0.243
