####################################################################### 
# 
# This file contains crystal structure data downloaded from the 
# Cambridge Structural Database (CSD) hosted by the Cambridge 
# Crystallographic Data Centre (CCDC).
# 
# Full information about CCDC data access policies and citation 
# guidelines are available at http://www.ccdc.cam.ac.uk/access/V1 
# 
# Audit and citation data items may have been added by the CCDC. 
# Please retain this information to preserve the provenance of 
# this file and to allow appropriate attribution of the data. 
# 
#######################################################################

data_ind443
_audit_block_doi                 10.5517/ccp7cz7
_database_code_depnum_ccdc_archive 'CCDC 632709'
loop_
_citation_id
_citation_doi
_citation_year
1 10.1002/ejic.200700574 2007
_audit_update_record             
;
2007-01-07 deposited with the CCDC.	2024-07-10 downloaded from the CCDC.
;

_audit_creation_method           SHELXL-97
_chemical_name_systematic        
;
catena-(1,10-phenanthroline)-tartrato-cobalt(II) exahydrated
;
_chemical_name_common            ?
_chemical_melting_point          ?
_chemical_formula_moiety         'C16 H12 Co N2 O6, 6(H2 O)'
_chemical_formula_sum            'C16 H24 Co N2 O12'
_chemical_formula_weight         495.30

loop_
_atom_type_symbol
_atom_type_description
_atom_type_scat_dispersion_real
_atom_type_scat_dispersion_imag
_atom_type_scat_source
C C 0.0033 0.0016 'International Tables Vol C Tables 4.2.6.8 and 6.1.1.4'
H H 0.0000 0.0000 'International Tables Vol C Tables 4.2.6.8 and 6.1.1.4'
N N 0.0061 0.0033 'International Tables Vol C Tables 4.2.6.8 and 6.1.1.4'
O O 0.0106 0.0060 'International Tables Vol C Tables 4.2.6.8 and 6.1.1.4'
Co Co 0.3494 0.9721 'International Tables Vol C Tables 4.2.6.8 and 6.1.1.4'

_symmetry_cell_setting           orthorhombic
_symmetry_space_group_name_H-M   'P 21 21 21'

loop_
_symmetry_equiv_pos_as_xyz
'x, y, z'
'-x+1/2, -y, z+1/2'
'x+1/2, -y+1/2, -z'
'-x, y+1/2, -z+1/2'

_cell_length_a                   6.617(3)
_cell_length_b                   15.313(3)
_cell_length_c                   20.110(4)
_cell_angle_alpha                90.00
_cell_angle_beta                 90.00
_cell_angle_gamma                90.00
_cell_volume                     2037.7(11)
_cell_formula_units_Z            4
_cell_measurement_temperature    293(2)
_cell_measurement_reflns_used    ?
_cell_measurement_theta_min      ?
_cell_measurement_theta_max      ?

_exptl_crystal_description       parallelopiped
_exptl_crystal_colour            pink
_exptl_crystal_size_max          0.40
_exptl_crystal_size_mid          0.20
_exptl_crystal_size_min          0.15
_exptl_crystal_density_meas      ?
_exptl_crystal_density_diffrn    1.615
_exptl_crystal_density_method    'not measured'
_exptl_crystal_F_000             1028
_exptl_absorpt_coefficient_mu    0.910
_exptl_absorpt_correction_type   none
_exptl_absorpt_correction_T_min  ?
_exptl_absorpt_correction_T_max  ?
_exptl_absorpt_process_details   ?

_exptl_special_details           
;
?
;

_diffrn_ambient_temperature      293(2)
_diffrn_radiation_wavelength     0.71073
_diffrn_radiation_type           Mok\a
_diffrn_radiation_source         'fine-focus sealed tube'
_diffrn_radiation_monochromator  graphite
_diffrn_measurement_device_type  'image plate dip1030'
_diffrn_measurement_method       'laser scanner'
_diffrn_detector_area_resol_mean ?
_diffrn_standards_number         ?
_diffrn_standards_interval_count ?
_diffrn_standards_interval_time  ?
_diffrn_standards_decay_%        ?
_diffrn_reflns_number            22937
_diffrn_reflns_av_R_equivalents  0.0400
_diffrn_reflns_av_sigmaI/netI    0.0376
_diffrn_reflns_limit_h_min       -8
_diffrn_reflns_limit_h_max       8
_diffrn_reflns_limit_k_min       -21
_diffrn_reflns_limit_k_max       21
_diffrn_reflns_limit_l_min       -25
_diffrn_reflns_limit_l_max       27
_diffrn_reflns_theta_min         2.66
_diffrn_reflns_theta_max         29.65
_reflns_number_total             5526
_reflns_number_gt                4614
_reflns_threshold_expression     >2sigma(I)

_computing_data_collection       'Nonius Xpress'
_computing_cell_refinement       'Denzo (Otwinowski & Minor 1997)'
_computing_data_reduction        'Denzo and Scalepack (Otwinowski & Minor 1997)'
_computing_structure_solution    'SHELX97 (Sheldrick, 1998)'
_computing_structure_refinement  'SHELX97 (Sheldrick, 1998)'
_computing_molecular_graphics    'Ortep3/windows (Farrugia,1997)'
_computing_publication_material  'Wingx 1.70.00 (Farrugia, 1999)'

_refine_special_details          
;
Refinement of F^2^ against ALL reflections. The weighted R-factor wR and
goodness of fit S are based on F^2^, conventional R-factors R are based
on F, with F set to zero for negative F^2^. The threshold expression of
F^2^ > 2sigma(F^2^) is used only for calculating R-factors(gt) etc. and is
not relevant to the choice of reflections for refinement. R-factors based
on F^2^ are statistically about twice as large as those based on F, and R-
factors based on ALL data will be even larger.
;

_refine_ls_structure_factor_coef Fsqd
_refine_ls_matrix_type           full
_refine_ls_weighting_scheme      calc
_refine_ls_weighting_details     
'calc w=1/[\s^2^(Fo^2^)+(0.0545P)^2^] where P=(Fo^2^+2Fc^2^)/3'
_atom_sites_solution_primary     direct
_atom_sites_solution_secondary   difmap
_atom_sites_solution_hydrogens   geom
_refine_ls_hydrogen_treatment    mixed
_refine_ls_extinction_method     SHELXL
_refine_ls_extinction_coef       0.0169(13)
_refine_ls_extinction_expression Fc^*^=kFc[1+0.001xFc^2^\l^3^/sin(2\q)]^-1/4^
_refine_ls_abs_structure_details 'Flack H D (1983), Acta Cryst. A39, 876-881'
_refine_ls_abs_structure_Flack   0.002(14)
_refine_ls_number_reflns         5526
_refine_ls_number_parameters     323
_refine_ls_number_restraints     6
_refine_ls_R_factor_all          0.0417
_refine_ls_R_factor_gt           0.0344
_refine_ls_wR_factor_ref         0.0899
_refine_ls_wR_factor_gt          0.0871
_refine_ls_goodness_of_fit_ref   0.970
_refine_ls_restrained_S_all      0.970
_refine_ls_shift/su_max          0.001
_refine_ls_shift/su_mean         0.000

loop_
_atom_site_label
_atom_site_type_symbol
_atom_site_fract_x
_atom_site_fract_y
_atom_site_fract_z
_atom_site_U_iso_or_equiv
_atom_site_adp_type
_atom_site_occupancy
_atom_site_symmetry_multiplicity
_atom_site_calc_flag
_atom_site_refinement_flags
_atom_site_disorder_assembly
_atom_site_disorder_group
Co Co 0.50727(4) 0.898934(17) 0.829671(12) 0.03708(8) Uani 1 1 d . . .
N1 N 0.5231(3) 0.93398(12) 0.93169(9) 0.0423(4) Uani 1 1 d . . .
N2 N 0.5000(3) 0.77516(11) 0.87749(8) 0.0398(3) Uani 1 1 d . . .
C1 C 0.5330(4) 1.01407(19) 0.95740(13) 0.0538(6) Uani 1 1 d . . .
H1 H 0.5420 1.0616 0.9288 0.065 Uiso 1 1 calc R . .
C2 C 0.5303(4) 1.0290(2) 1.02629(14) 0.0612(7) Uani 1 1 d . . .
H2 H 0.5371 1.0856 1.0427 0.073 Uiso 1 1 calc R . .
C3 C 0.5177(4) 0.9604(2) 1.06878(13) 0.0587(6) Uani 1 1 d . . .
H3 H 0.5140 0.9700 1.1144 0.070 Uiso 1 1 calc R . .
C4 C 0.5104(4) 0.87423(17) 1.04358(10) 0.0481(5) Uani 1 1 d . . .
C5 C 0.5127(3) 0.86478(15) 0.97417(10) 0.0404(4) Uani 1 1 d . . .
C6 C 0.5049(4) 0.77970(13) 0.94525(9) 0.0395(4) Uani 1 1 d . . .
C7 C 0.5030(4) 0.70534(15) 0.98609(10) 0.0458(4) Uani 1 1 d . . .
C8 C 0.5013(4) 0.62376(16) 0.95463(13) 0.0529(5) Uani 1 1 d . . .
H8 H 0.5028 0.5728 0.9798 0.063 Uiso 1 1 calc R . .
C9 C 0.4975(4) 0.61927(15) 0.88678(13) 0.0531(5) Uani 1 1 d . . .
H9 H 0.4967 0.5654 0.8655 0.064 Uiso 1 1 calc R . .
C10 C 0.4949(4) 0.69643(15) 0.84970(11) 0.0467(4) Uani 1 1 d . . .
H10 H 0.4894 0.6925 0.8036 0.056 Uiso 1 1 calc R . .
C11 C 0.5047(4) 0.79741(19) 1.08437(11) 0.0554(6) Uani 1 1 d . . .
H11 H 0.5021 0.8033 1.1304 0.067 Uiso 1 1 calc R . .
C12 C 0.5032(4) 0.71716(18) 1.05731(11) 0.0544(5) Uani 1 1 d . . .
H12 H 0.5023 0.6684 1.0849 0.065 Uiso 1 1 calc R . .
O1 O 0.3924(3) 0.85030(12) 0.74209(8) 0.0483(4) Uani 1 1 d . . .
O2 O 0.1806(3) 0.88111(12) 0.65953(8) 0.0535(4) Uani 1 1 d . . .
O3 O 0.6067(2) 1.01939(11) 0.80000(9) 0.0488(4) Uani 1 1 d . . .
O4 O 0.8475(3) 1.09530(12) 0.74994(12) 0.0648(5) Uani 1 1 d . . .
O5 O 0.1967(2) 0.94297(11) 0.82880(8) 0.0413(3) Uani 1 1 d . . .
H50 H 0.140(5) 0.982(2) 0.8548(16) 0.062 Uiso 1 1 d . . .
O6 O 0.8171(2) 0.87443(10) 0.79925(8) 0.0395(3) Uani 1 1 d . . .
H60 H 0.852(5) 0.821(2) 0.7792(16) 0.059 Uiso 1 1 d . . .
C13 C 0.2399(3) 0.88921(15) 0.71770(10) 0.0396(4) Uani 1 1 d . . .
C14 C 0.1243(3) 0.95264(17) 0.76257(11) 0.0373(5) Uani 1 1 d . . .
H14 H 0.1572 1.0120 0.7480 0.045 Uiso 1 1 calc R . .
C15 C -0.1066(3) 0.94166(16) 0.75719(12) 0.0370(5) Uani 1 1 d . . .
H15 H -0.1364 0.9245 0.7113 0.044 Uiso 1 1 calc R . .
C16 C 0.7763(3) 1.02607(15) 0.77098(11) 0.0414(5) Uani 1 1 d . . .
O1W O 0.8836(4) 0.72803(17) 0.73785(15) 0.0777(7) Uani 1 1 d . . .
H16 H 0.793(8) 0.720(3) 0.711(2) 0.117 Uiso 1 1 d . . .
H17 H 0.972(9) 0.695(3) 0.737(2) 0.117 Uiso 1 1 d . . .
O2W O 0.5206(3) 0.69493(14) 0.67160(10) 0.0632(5) Uani 1 1 d D . .
H21 H 0.468(6) 0.7410(15) 0.6879(19) 0.095 Uiso 1 1 d D . .
H22 H 0.459(5) 0.6515(15) 0.6824(19) 0.095 Uiso 1 1 d D . .
O3W O 0.9070(4) 0.23472(18) 0.91946(14) 0.0798(7) Uani 1 1 d . . .
H31 H 0.860(8) 0.273(3) 0.888(3) 0.120 Uiso 1 1 d . . .
H32 H 0.842(8) 0.238(3) 0.961(2) 0.120 Uiso 1 1 d . . .
O4W O 0.5422(4) 0.41133(16) 0.94974(13) 0.0745(6) Uani 1 1 d . . .
H41 H 0.458(7) 0.363(3) 0.955(2) 0.112 Uiso 1 1 d . . .
H42 H 0.622(8) 0.402(3) 0.909(2) 0.112 Uiso 1 1 d . . .
O5W O 0.0453(4) 0.06056(16) 0.91123(12) 0.0771(7) Uani 1 1 d D . .
H51 H -0.021(6) 0.105(2) 0.899(2) 0.116 Uiso 1 1 d D . .
H52 H 0.064(7) 0.066(3) 0.9522(10) 0.116 Uiso 1 1 d D . .
O6W O 0.3135(4) 0.25481(17) 0.94646(12) 0.0779(6) Uani 1 1 d . . .
H61 H 0.156(9) 0.250(3) 0.931(2) 0.117 Uiso 1 1 d . . .
H62 H 0.387(7) 0.214(3) 0.905(2) 0.117 Uiso 1 1 d . . .

loop_
_atom_site_aniso_label
_atom_site_aniso_U_11
_atom_site_aniso_U_22
_atom_site_aniso_U_33
_atom_site_aniso_U_23
_atom_site_aniso_U_13
_atom_site_aniso_U_12
Co 0.03634(13) 0.03939(14) 0.03552(13) 0.00099(10) 0.00020(13) 0.00055(13)
N1 0.0429(10) 0.0422(9) 0.0418(9) -0.0021(7) -0.0011(8) -0.0001(8)
N2 0.0395(8) 0.0431(9) 0.0369(8) -0.0003(6) 0.0005(9) -0.0017(9)
C1 0.0571(15) 0.0521(14) 0.0522(13) -0.0108(10) -0.0020(10) 0.0027(11)
C2 0.0598(16) 0.0662(17) 0.0575(15) -0.0231(12) -0.0019(12) 0.0050(13)
C3 0.0524(13) 0.0812(18) 0.0423(11) -0.0182(11) 0.0001(12) 0.0049(14)
C4 0.0373(9) 0.0712(14) 0.0356(9) -0.0022(9) 0.0009(9) 0.0037(12)
C5 0.0325(9) 0.0508(11) 0.0379(9) -0.0008(7) 0.0000(9) 0.0001(10)
C6 0.0348(8) 0.0469(10) 0.0368(9) 0.0028(7) 0.0000(10) 0.0017(11)
C7 0.0361(9) 0.0559(12) 0.0453(10) 0.0112(8) 0.0001(10) -0.0022(12)
C8 0.0453(11) 0.0490(12) 0.0644(14) 0.0164(10) -0.0008(12) -0.0023(12)
C9 0.0537(12) 0.0414(12) 0.0641(14) 0.0002(9) 0.0016(13) -0.0034(12)
C10 0.0471(10) 0.0458(11) 0.0473(10) -0.0013(8) 0.0011(11) -0.0033(12)
C11 0.0431(11) 0.0889(18) 0.0343(10) 0.0078(10) 0.0013(11) 0.0024(15)
C12 0.0432(10) 0.0765(16) 0.0435(11) 0.0199(10) 0.0006(11) 0.0021(15)
O1 0.0464(9) 0.0553(11) 0.0433(9) -0.0054(8) -0.0022(6) 0.0123(7)
O2 0.0527(8) 0.0736(13) 0.0342(8) -0.0037(7) -0.0027(6) 0.0099(8)
O3 0.0422(8) 0.0424(9) 0.0619(10) 0.0028(8) 0.0090(7) 0.0069(7)
O4 0.0527(10) 0.0408(10) 0.1010(16) 0.0196(10) 0.0027(9) -0.0029(8)
O5 0.0330(6) 0.0541(9) 0.0367(8) -0.0065(7) -0.0020(6) 0.0049(6)
O6 0.0366(7) 0.0349(8) 0.0471(9) 0.0041(6) 0.0036(6) -0.0009(6)
C13 0.0384(9) 0.0435(12) 0.0369(10) -0.0009(8) 0.0024(7) 0.0001(8)
C14 0.0340(9) 0.0440(13) 0.0338(10) 0.0026(9) 0.0008(7) 0.0003(8)
C15 0.0373(10) 0.0355(11) 0.0382(12) 0.0046(9) -0.0009(8) -0.0004(8)
C16 0.0387(10) 0.0394(11) 0.0460(12) 0.0052(9) -0.0025(8) 0.0006(8)
O1W 0.0790(17) 0.0587(14) 0.0956(18) -0.0230(13) -0.0168(13) 0.0204(11)
O2W 0.0674(12) 0.0622(11) 0.0600(11) -0.0015(9) 0.0083(11) -0.0086(10)
O3W 0.1019(18) 0.0748(17) 0.0627(14) 0.0069(12) -0.0013(12) 0.0235(13)
O4W 0.0820(16) 0.0665(13) 0.0751(14) -0.0123(11) 0.0206(11) -0.0121(12)
O5W 0.0998(19) 0.0720(14) 0.0596(12) -0.0164(10) -0.0053(12) 0.0265(12)
O6W 0.0896(16) 0.0813(16) 0.0629(14) -0.0135(11) 0.0103(12) -0.0156(13)

_geom_special_details            
;
All esds (except the esd in the dihedral angle between two l.s. planes)
are estimated using the full covariance matrix. The cell esds are taken
into account individually in the estimation of esds in distances, angles
and torsion angles; correlations between esds in cell parameters are only
used when they are defined by crystal symmetry. An approximate (isotropic)
treatment of cell esds is used for estimating esds involving l.s. planes.
;

loop_
_geom_bond_atom_site_label_1
_geom_bond_atom_site_label_2
_geom_bond_distance
_geom_bond_site_symmetry_2
_geom_bond_publ_flag
Co O3 2.0472(18) . ?
Co O1 2.0579(17) . ?
Co N1 2.1232(19) . ?
Co N2 2.1258(17) . ?
Co O5 2.1630(17) . ?
Co O6 2.1722(17) . ?
N1 C1 1.333(3) . ?
N1 C5 1.363(3) . ?
N2 C10 1.329(3) . ?
N2 C6 1.365(2) . ?
C1 C2 1.404(4) . ?
C2 C3 1.356(4) . ?
C3 C4 1.414(4) . ?
C4 C5 1.403(3) . ?
C4 C11 1.435(4) . ?
C5 C6 1.428(3) . ?
C6 C7 1.404(3) . ?
C7 C8 1.400(4) . ?
C7 C12 1.444(3) . ?
C8 C9 1.366(4) . ?
C9 C10 1.397(3) . ?
C11 C12 1.344(4) . ?
O1 C13 1.270(3) . ?
O2 C13 1.240(3) . ?
O3 C16 1.269(3) . ?
O4 C16 1.235(3) . ?
O5 C14 1.423(3) . ?
O6 C15 1.425(3) 1_655 ?
C13 C14 1.531(3) . ?
C14 C15 1.540(3) . ?
C15 O6 1.425(3) 1_455 ?
C15 C16 1.532(3) 1_455 ?
C16 C15 1.532(3) 1_655 ?

loop_
_geom_angle_atom_site_label_1
_geom_angle_atom_site_label_2
_geom_angle_atom_site_label_3
_geom_angle
_geom_angle_site_symmetry_1
_geom_angle_site_symmetry_3
_geom_angle_publ_flag
O3 Co O1 101.26(8) . . ?
O3 Co N1 92.18(8) . . ?
O1 Co N1 159.51(8) . . ?
O3 Co N2 160.46(7) . . ?
O1 Co N2 93.22(7) . . ?
N1 Co N2 77.84(7) . . ?
O3 Co O5 91.27(7) . . ?
O1 Co O5 75.81(6) . . ?
N1 Co O5 88.63(7) . . ?
N2 Co O5 105.07(7) . . ?
O3 Co O6 76.71(6) . . ?
O1 Co O6 92.59(7) . . ?
N1 Co O6 105.61(7) . . ?
N2 Co O6 89.70(7) . . ?
O5 Co O6 161.50(6) . . ?
C1 N1 C5 118.3(2) . . ?
C1 N1 Co 127.59(17) . . ?
C5 N1 Co 113.99(14) . . ?
C10 N2 C6 117.81(17) . . ?
C10 N2 Co 128.24(14) . . ?
C6 N2 Co 113.93(13) . . ?
N1 C1 C2 122.1(3) . . ?
C3 C2 C1 119.8(3) . . ?
C2 C3 C4 119.9(2) . . ?
C5 C4 C3 116.9(2) . . ?
C5 C4 C11 119.0(2) . . ?
C3 C4 C11 124.1(2) . . ?
N1 C5 C4 122.9(2) . . ?
N1 C5 C6 117.13(17) . . ?
C4 C5 C6 119.9(2) . . ?
N2 C6 C7 122.86(19) . . ?
N2 C6 C5 117.00(17) . . ?
C7 C6 C5 120.14(18) . . ?
C8 C7 C6 117.34(19) . . ?
C8 C7 C12 124.1(2) . . ?
C6 C7 C12 118.6(2) . . ?
C9 C8 C7 119.7(2) . . ?
C8 C9 C10 119.4(2) . . ?
N2 C10 C9 122.8(2) . . ?
C12 C11 C4 121.2(2) . . ?
C11 C12 C7 121.1(2) . . ?
C13 O1 Co 117.01(15) . . ?
C16 O3 Co 119.40(15) . . ?
C14 O5 Co 111.10(12) . . ?
C15 O6 Co 112.14(12) 1_655 . ?
O2 C13 O1 124.6(2) . . ?
O2 C13 C14 117.49(19) . . ?
O1 C13 C14 117.84(19) . . ?
O5 C14 C13 108.51(18) . . ?
O5 C14 C15 112.8(2) . . ?
C13 C14 C15 112.6(2) . . ?
O6 C15 C16 108.84(17) 1_455 1_455 ?
O6 C15 C14 112.9(2) 1_455 . ?
C16 C15 C14 113.4(2) 1_455 . ?
O4 C16 O3 124.3(2) . . ?
O4 C16 C15 118.0(2) . 1_655 ?
O3 C16 C15 117.54(19) . 1_655 ?

loop_
_geom_torsion_atom_site_label_1
_geom_torsion_atom_site_label_2
_geom_torsion_atom_site_label_3
_geom_torsion_atom_site_label_4
_geom_torsion
_geom_torsion_site_symmetry_1
_geom_torsion_site_symmetry_2
_geom_torsion_site_symmetry_3
_geom_torsion_site_symmetry_4
_geom_torsion_publ_flag
O3 Co N1 C1 17.5(2) . . . . ?
O1 Co N1 C1 -113.8(3) . . . . ?
N2 Co N1 C1 -179.4(2) . . . . ?
O5 Co N1 C1 -73.7(2) . . . . ?
O6 Co N1 C1 94.3(2) . . . . ?
O3 Co N1 C5 -165.55(16) . . . . ?
O1 Co N1 C5 63.1(3) . . . . ?
N2 Co N1 C5 -2.51(16) . . . . ?
O5 Co N1 C5 103.23(17) . . . . ?
O6 Co N1 C5 -88.74(16) . . . . ?
O3 Co N2 C10 -117.0(3) . . . . ?
O1 Co N2 C10 21.0(2) . . . . ?
N1 Co N2 C10 -177.6(2) . . . . ?
O5 Co N2 C10 97.2(2) . . . . ?
O6 Co N2 C10 -71.6(2) . . . . ?
O3 Co N2 C6 61.7(3) . . . . ?
O1 Co N2 C6 -160.28(18) . . . . ?
N1 Co N2 C6 1.10(18) . . . . ?
O5 Co N2 C6 -84.11(18) . . . . ?
O6 Co N2 C6 107.14(18) . . . . ?
C5 N1 C1 C2 -0.9(4) . . . . ?
Co N1 C1 C2 175.95(19) . . . . ?
N1 C1 C2 C3 0.2(4) . . . . ?
C1 C2 C3 C4 0.9(4) . . . . ?
C2 C3 C4 C5 -1.2(4) . . . . ?
C2 C3 C4 C11 177.5(3) . . . . ?
C1 N1 C5 C4 0.5(3) . . . . ?
Co N1 C5 C4 -176.73(18) . . . . ?
C1 N1 C5 C6 -179.2(2) . . . . ?
Co N1 C5 C6 3.6(3) . . . . ?
C3 C4 C5 N1 0.5(4) . . . . ?
C11 C4 C5 N1 -178.3(2) . . . . ?
C3 C4 C5 C6 -179.8(2) . . . . ?
C11 C4 C5 C6 1.4(4) . . . . ?
C10 N2 C6 C7 -0.6(4) . . . . ?
Co N2 C6 C7 -179.5(2) . . . . ?
C10 N2 C6 C5 179.3(2) . . . . ?
Co N2 C6 C5 0.4(3) . . . . ?
N1 C5 C6 N2 -2.7(3) . . . . ?
C4 C5 C6 N2 177.6(2) . . . . ?
N1 C5 C6 C7 177.2(2) . . . . ?
C4 C5 C6 C7 -2.5(4) . . . . ?
N2 C6 C7 C8 1.7(4) . . . . ?
C5 C6 C7 C8 -178.1(3) . . . . ?
N2 C6 C7 C12 -178.4(2) . . . . ?
C5 C6 C7 C12 1.7(4) . . . . ?
C6 C7 C8 C9 -1.3(4) . . . . ?
C12 C7 C8 C9 178.8(3) . . . . ?
C7 C8 C9 C10 -0.1(4) . . . . ?
C6 N2 C10 C9 -1.0(4) . . . . ?
Co N2 C10 C9 177.7(2) . . . . ?
C8 C9 C10 N2 1.4(4) . . . . ?
C5 C4 C11 C12 0.5(4) . . . . ?
C3 C4 C11 C12 -178.2(3) . . . . ?
C4 C11 C12 C7 -1.3(4) . . . . ?
C8 C7 C12 C11 -180.0(3) . . . . ?
C6 C7 C12 C11 0.2(4) . . . . ?
O3 Co O1 C13 -65.05(17) . . . . ?
N1 Co O1 C13 65.0