####################################################################### 
# 
# This file contains crystal structure data downloaded from the 
# Cambridge Structural Database (CSD) hosted by the Cambridge 
# Crystallographic Data Centre (CCDC).
# 
# Full information about CCDC data access policies and citation 
# guidelines are available at http://www.ccdc.cam.ac.uk/access/V1 
# 
# Audit and citation data items may have been added by the CCDC. 
# Please retain this information to preserve the provenance of 
# this file and to allow appropriate attribution of the data. 
# 
#######################################################################

data_650leff1_0ms-sr
_audit_block_doi                 10.5517/cc10wlzg
_database_code_depnum_ccdc_archive 'CCDC 950056'
loop_
_citation_id
_citation_doi
_citation_year
1 10.1002/anie.201306761 2014
_audit_update_record             
;
2013-07-12 deposited with the CCDC.	2024-07-10 downloaded from the CCDC.
;

_audit_creation_method           SHELXL-97
_chemical_name_systematic        
; 
 ? 
;
_chemical_name_common            ?
_chemical_melting_point          ?
_chemical_formula_moiety         ?
_chemical_formula_sum            'C252 H110 Cd N8 O32'
_chemical_formula_weight         3873.88

loop_
_atom_type_symbol
_atom_type_description
_atom_type_scat_dispersion_real
_atom_type_scat_dispersion_imag
_atom_type_scat_source
C C 0.0033 0.0016 'International Tables Vol C Tables 4.2.6.8 and 6.1.1.4'
H H 0.0000 0.0000 'International Tables Vol C Tables 4.2.6.8 and 6.1.1.4'
Cd Cd -0.8075 1.2024 'International Tables Vol C Tables 4.2.6.8 and 6.1.1.4'
N N 0.0061 0.0033 'International Tables Vol C Tables 4.2.6.8 and 6.1.1.4'
O O 0.0106 0.0060 'International Tables Vol C Tables 4.2.6.8 and 6.1.1.4'

_symmetry_cell_setting           Triclinic
_symmetry_space_group_name_H-M   P-1

loop_
_symmetry_equiv_pos_as_xyz
'x, y, z'
'-x, -y, -z'

_cell_length_a                   15.622(7)
_cell_length_b                   16.005(7)
_cell_length_c                   23.385(10)
_cell_angle_alpha                75.687(7)
_cell_angle_beta                 83.407(7)
_cell_angle_gamma                82.719(7)
_cell_volume                     5599(4)
_cell_formula_units_Z            1
_cell_measurement_temperature    100(2)
_cell_measurement_reflns_used    606
_cell_measurement_theta_min      2.80
_cell_measurement_theta_max      14.14

_exptl_crystal_description       platty
_exptl_crystal_colour            yellow
_exptl_crystal_size_max          0.25
_exptl_crystal_size_mid          0.12
_exptl_crystal_size_min          0.04
_exptl_crystal_density_meas      ?
_exptl_crystal_density_diffrn    1.149
_exptl_crystal_density_method    'not measured'
_exptl_crystal_F_000             1982
_exptl_absorpt_coefficient_mu    0.167
_exptl_absorpt_correction_type   multi-scan
_exptl_absorpt_correction_T_min  0.9595
_exptl_absorpt_correction_T_max  0.9942
_exptl_absorpt_process_details   ?

_exptl_special_details           
; 
 ? 
;

_diffrn_ambient_temperature      100(2)
_diffrn_radiation_wavelength     0.71073
_diffrn_radiation_type           MoK\a
_diffrn_radiation_source         'fine-focus sealed tube'
_diffrn_radiation_monochromator  graphite
_diffrn_measurement_device_type  'Bruker APEX CCD'
_diffrn_measurement_method       '\f and \w scans'
_diffrn_detector_area_resol_mean ?
_diffrn_reflns_number            55333
_diffrn_reflns_av_R_equivalents  0.1350
_diffrn_reflns_av_sigmaI/netI    0.2791
_diffrn_reflns_limit_h_min       -18
_diffrn_reflns_limit_h_max       18
_diffrn_reflns_limit_k_min       -17
_diffrn_reflns_limit_k_max       19
_diffrn_reflns_limit_l_min       -27
_diffrn_reflns_limit_l_max       27
_diffrn_reflns_theta_min         0.90
_diffrn_reflns_theta_max         25.00
_reflns_number_total             19676
_reflns_number_gt                6481
_reflns_threshold_expression     >2sigma(I)

_computing_data_collection       'Bruker APEX2'
_computing_cell_refinement       'Bruker SAINT'
_computing_data_reduction        'Bruker SAINT'
_computing_structure_solution    'SHELXS-97 (Sheldrick, 2008)'
_computing_structure_refinement  'SHELXL-97 (Sheldrick, 2008)'
_computing_molecular_graphics    'Bruker SHELXTL'
_computing_publication_material  'Bruker SHELXTL'

_refine_special_details          
; 
 Refinement of F^2^ against ALL reflections.  The weighted R-factor wR and 
 goodness of fit S are based on F^2^, conventional R-factors R are based 
 on F, with F set to zero for negative F^2^. The threshold expression of 
 F^2^ > 2sigma(F^2^) is used only for calculating R-factors(gt) etc. and is 
 not relevant to the choice of reflections for refinement.  R-factors based 
 on F^2^ are statistically about twice as large as those based on F, and R- 
 factors based on ALL data will be even larger. 
;

_refine_ls_structure_factor_coef Fsqd
_refine_ls_matrix_type           full
_refine_ls_weighting_scheme      calc
_refine_ls_weighting_details     
'calc w=1/[\s^2^(Fo^2^)+(0.1000P)^2^+0.8994P] where P=(Fo^2^+2Fc^2^)/3'
_atom_sites_solution_primary     direct
_atom_sites_solution_secondary   difmap
_atom_sites_solution_hydrogens   geom
_refine_ls_hydrogen_treatment    mixed
_refine_ls_extinction_method     none
_refine_ls_extinction_coef       ?
_refine_ls_number_reflns         19676
_refine_ls_number_parameters     1414
_refine_ls_number_restraints     194
_refine_ls_R_factor_all          0.1829
_refine_ls_R_factor_gt           0.0772
_refine_ls_wR_factor_ref         0.2131
_refine_ls_wR_factor_gt          0.1788
_refine_ls_goodness_of_fit_ref   0.724
_refine_ls_restrained_S_all      0.722
_refine_ls_shift/su_max          0.010
_refine_ls_shift/su_mean         0.000

loop_
_atom_site_label
_atom_site_type_symbol
_atom_site_fract_x
_atom_site_fract_y
_atom_site_fract_z
_atom_site_U_iso_or_equiv
_atom_site_adp_type
_atom_site_occupancy
_atom_site_symmetry_multiplicity
_atom_site_calc_flag
_atom_site_refinement_flags
_atom_site_disorder_assembly
_atom_site_disorder_group
N2 N -0.3973(3) 0.0786(4) 0.9343(2) 0.0543(16) Uani 1 1 d U . .
Cd1 Cd 0.5000 0.0000 1.0000 0.0439(2) Uani 1 2 d S . .
N1 N 0.3997(3) 0.0553(4) 0.9298(2) 0.0538(16) Uani 1 1 d . . .
N3 N 0.4808(5) 0.6933(5) 0.2940(3) 0.096(2) Uani 1 1 d . . .
N4 N 0.3493(9) -0.1365(6) 0.3555(5) 0.156(5) Uani 1 1 d U . .
O1 O -0.0327(4) 0.1284(3) 0.4796(2) 0.0836(18) Uani 1 1 d U . .
O2 O 0.0879(4) 0.1271(4) 0.4180(2) 0.099(2) Uani 1 1 d . . .
O3 O 0.0181(3) 0.3223(4) 0.3024(2) 0.0709(15) Uani 1 1 d . . .
O4 O -0.0661(4) 0.2179(4) 0.3376(2) 0.0879(18) Uani 1 1 d . . .
O5 O 0.3828(4) 0.3430(4) 0.4649(3) 0.107(2) Uani 1 1 d . . .
O6 O 0.4165(4) 0.4539(4) 0.3966(3) 0.105(2) Uani 1 1 d . . .
O7 O 0.3998(3) 0.5257(3) 0.5379(2) 0.0788(17) Uani 1 1 d . . .
O8 O 0.3832(3) 0.6100(4) 0.4486(2) 0.0816(18) Uani 1 1 d . . .
O9 O -0.1652(3) 0.4644(4) 0.24412(19) 0.095(2) Uani 1 1 d . . .
O10 O -0.3046(3) 0.5049(4) 0.25154(19) 0.0790(17) Uani 1 1 d . . .
O11 O -0.3793(3) 0.5137(4) 0.1291(2) 0.0711(16) Uani 1 1 d . . .
O12 O -0.3403(3) 0.6402(4) 0.1330(2) 0.0824(17) Uani 1 1 d . . .
O15 O -0.2212(8) 0.1930(8) 0.0392(7) 0.097(5) Uani 0.63(2) 1 d P A 1
O16 O -0.1184(7) 0.1041(9) 0.0808(7) 0.114(7) Uani 0.63(2) 1 d P A 1
C126 C -0.1784(11) 0.0530(18) 0.1153(14) 0.197(16) Uani 0.63(2) 1 d PU A 1
H12A H -0.1495 0.0084 0.1457 0.295 Uiso 0.63(2) 1 calc PR A 1
H12B H -0.2062 0.0252 0.0904 0.295 Uiso 0.63(2) 1 calc PR A 1
H12C H -0.2224 0.0890 0.1344 0.295 Uiso 0.63(2) 1 calc PR A 1
O14 O -0.0469(11) 0.1601(10) -0.0864(6) 0.086(5) Uani 0.552(19) 1 d PU B 1
C124 C -0.0036(15) 0.1108(14) -0.1255(8) 0.110(9) Uani 0.552(19) 1 d PU B 1
H12D H -0.0361 0.1202 -0.1604 0.165 Uiso 0.552(19) 1 calc PR B 1
H12E H 0.0008 0.0492 -0.1053 0.165 Uiso 0.552(19) 1 calc PR B 1
H12F H 0.0547 0.1289 -0.1380 0.165 Uiso 0.552(19) 1 calc PR B 1
O13 O 0.0616(12) 0.1228(15) -0.0292(9) 0.116(7) Uani 0.552(19) 1 d PU B 1
O17 O -0.1860(15) 0.1890(15) 0.0726(10) 0.085(7) Uani 0.37(2) 1 d P A 2
O18 O -0.1341(13) 0.0858(13) 0.0284(12) 0.097(10) Uani 0.37(2) 1 d P A 2
C127 C -0.208(3) 0.039(2) 0.059(2) 0.168(18) Uani 0.37(2) 1 d PU A 2
H12G H -0.2029 -0.0179 0.0498 0.252 Uiso 0.37(2) 1 calc PR A 2
H12H H -0.2620 0.0724 0.0451 0.252 Uiso 0.37(2) 1 calc PR A 2
H12I H -0.2082 0.0323 0.1016 0.252 Uiso 0.37(2) 1 calc PR A 2
O24 O -0.0910(10) 0.1114(15) -0.0536(10) 0.099(7) Uani 0.448(19) 1 d PU B 2
C156 C -0.075(2) 0.052(2) -0.0955(12) 0.159(16) Uani 0.448(19) 1 d P B 2
H15A H -0.1290 0.0271 -0.0972 0.239 Uiso 0.448(19) 1 calc PR B 2
H15B H -0.0305 0.0046 -0.0813 0.239 Uiso 0.448(19) 1 calc PR B 2
H15C H -0.0559 0.0842 -0.1351 0.239 Uiso 0.448(19) 1 calc PR B 2
O23 O 0.0368(16) 0.1541(18) -0.0627(14) 0.114(10) Uani 0.448(19) 1 d PU B 2
C1 C 0.0129(3) 0.3075(4) 0.6300(2) 0.0355(16) Uani 1 1 d . . .
C2 C 0.0116(3) 0.3869(4) 0.6592(2) 0.0363(17) Uani 1 1 d . . .
C3 C -0.0684(4) 0.4523(4) 0.6528(2) 0.0389(17) Uani 1 1 d . . .
C4 C -0.1400(3) 0.4381(4) 0.6289(2) 0.0297(15) Uani 1 1 d . . .
C5 C -0.1382(3) 0.3656(4) 0.6018(2) 0.0340(16) Uani 1 1 d . . .
C6 C -0.0641(3) 0.3074(4) 0.5989(2) 0.0327(15) Uani 1 1 d . . .
C7 C -0.0380(3) 0.2800(4) 0.5461(2) 0.0383(16) Uani 1 1 d . . .
C8 C 0.0579(3) 0.2739(4) 0.5383(2) 0.0385(17) Uani 1 1 d . . .
C9 C 0.0874(4) 0.2986(4) 0.5852(2) 0.0344(16) Uani 1 1 d . . .
C10 C 0.1563(4) 0.3479(4) 0.5765(3) 0.0414(18) Uani 1 1 d . . .
C11 C 0.1554(3) 0.4202(4) 0.6033(2) 0.0316(15) Uani 1 1 d . . .
C12 C 0.0856(4) 0.4431(4) 0.6391(2) 0.0330(15) Uani 1 1 d . . .
C13 C 0.0539(3) 0.5325(4) 0.6345(2) 0.0326(15) Uani 1 1 d . . .
C14 C -0.0416(4) 0.5369(4) 0.6426(2) 0.0377(16) Uani 1 1 d . . .
C15 C -0.1640(3) 0.3659(4) 0.5011(2) 0.0349(16) Uani 1 1 d . . .
C16 C -0.0869(3) 0.3052(4) 0.4982(2) 0.0366(16) Uani 1 1 d . . .
C17 C -0.0494(3) 0.3222(4) 0.4367(2) 0.0353(16) Uani 1 1 d . . .
C18 C 0.0530(4) 0.3166(4) 0.4265(2) 0.0427(18) Uani 1 1 d . . .
C19 C 0.1018(4) 0.2956(4) 0.4807(2) 0.0345(15) Uani 1 1 d . . .
C20 C 0.1715(3) 0.3468(4) 0.4711(3) 0.0355(16) Uani 1 1 d . . .
C21 C 0.2019(3) 0.3695(4) 0.5168(2) 0.0363(16) Uani 1 1 d . . .
C23 C 0.2002(3) 0.4877(4) 0.5616(2) 0.0315(15) Uani 1 1 d . . .
C24 C 0.1680(3) 0.5720(4) 0.5572(2) 0.0318(15) Uani 1 1 d . . .
C25 C -0.0960(3) 0.4050(4) 0.4047(2) 0.0385(17) Uani 1 1 d . . .
C26 C 0.0927(4) 0.3958(4) 0.3888(2) 0.0388(16) Uani 1 1 d . . .
C27 C 0.1659(3) 0.4076(4) 0.4136(2) 0.0341(15) Uani 1 1 d . . .
C28 C 0.1914(4) 0.4885(4) 0.4033(2) 0.0375(16) Uani 1 1 d . . .
C29 C 0.2338(3) 0.5196(4) 0.4473(2) 0.0345(16) Uani 1 1 d . . .
C30 C 0.1911(3) 0.6073(4) 0.4474(2) 0.0324(15) Uani 1 1 d . . .
C31 C 0.0157(4) 0.2973(4) 0.6948(2) 0.0383(17) Uani 1 1 d . . .
C32 C 0.0974(4) 0.2592(5) 0.7258(2) 0.0422(18) Uani 1 1 d . . .
C33 C 0.1270(4) 0.3065(5) 0.7609(2) 0.0461(18) Uani 1 1 d . . .
H33 H 0.1026 0.3643 0.7598 0.055 Uiso 1 1 calc R . .
C34 C 0.1911(4) 0.2694(4) 0.7968(3) 0.0456(18) Uani 1 1 d . . .
H34 H 0.2115 0.3008 0.8212 0.055 Uiso 1 1 calc R . .
C35 C 0.2260(4) 0.1854(5) 0.7973(3) 0.0459(18) Uani 1 1 d . . .
C36 C 0.1998(4) 0.1389(4) 0.7597(3) 0.0492(19) Uani 1 1 d . . .
H36 H 0.2260 0.0821 0.7595 0.059 Uiso 1 1 calc R . .
C37 C 0.1358(4) 0.1769(4) 0.7236(2) 0.0384(16) Uani 1 1 d . . .
H37 H 0.1178 0.1473 0.6972 0.046 Uiso 1 1 calc R . .
C38 C 0.2893(4) 0.1408(4) 0.8429(3) 0.0443(18) Uani 1 1 d . . .
C39 C 0.2772(4) 0.1550(5) 0.8981(3) 0.066(2) Uani 1 1 d . . .
H39 H 0.2294 0.1934 0.9080 0.080 Uiso 1 1 calc R . .
C40 C 0.3338(4) 0.1143(5) 0.9404(3) 0.067(2) Uani 1 1 d . . .
H40 H 0.3260 0.1283 0.9780 0.080 Uiso 1 1 calc R . .
C41 C 0.4076(4) 0.0369(5) 0.8773(3) 0.073(2) Uani 1 1 d . . .
H41 H 0.4508 -0.0073 0.8695 0.088 Uiso 1 1 calc R . .
C42 C 0.3546(4) 0.0801(5) 0.8330(3) 0.061(2) Uani 1 1 d . . .
H42 H 0.3643 0.0670 0.7952 0.073 Uiso 1 1 calc R . .
C43 C -0.0653(4) 0.2664(5) 0.7338(2) 0.0383(17) Uani 1 1 d . . .
C44 C -0.0970(4) 0.1934(5) 0.7290(3) 0.0460(18) Uani 1 1 d . . .
H44 H -0.0729 0.1654 0.6986 0.055 Uiso 1 1 calc R . .
C45 C -0.1642(4) 0.1600(5) 0.7681(3) 0.060(2) Uani 1 1 d . . .
H45 H -0.1847 0.1074 0.7662 0.072 Uiso 1 1 calc R . .
C46 C -0.2021(4) 0.2053(5) 0.8111(2) 0.0395(17) Uani 1 1 d . C .
C47 C -0.1713(4) 0.2773(5) 0.8155(3) 0.0457(18) Uani 1 1 d . . .
H47 H -0.1965 0.3067 0.8450 0.055 Uiso 1 1 calc R . .
C48 C -0.1016(4) 0.3095(4) 0.7765(3) 0.0409(17) Uani 1 1 d . . .
H48 H -0.0793 0.3607 0.7795 0.049 Uiso 1 1 calc R . .
C49 C -0.2730(4) 0.1657(5) 0.8542(3) 0.0554(19) Uani 1 1 d U . .
C50 C -0.3326(8) 0.1243(9) 0.8376(5) 0.081(4) Uani 0.671(9) 1 d PU C 1
H50 H -0.3314 0.1244 0.7969 0.097 Uiso 0.671(9) 1 calc PR C 1
C51 C -0.3940(9) 0.0827(9) 0.8758(5) 0.082(4) Uani 0.671(9) 1 d PU C 1
H51 H -0.4353 0.0562 0.8612 0.098 Uiso 0.671(9) 1 calc PR C 1
C52 C -0.3562(8) 0.1395(8) 0.9493(5) 0.066(3) Uani 0.671(9) 1 d PU C 1
H52 H -0.3720 0.1537 0.9865 0.079 Uiso 0.671(9) 1 calc PR C 1
C53 C -0.2918(8) 0.1810(8) 0.9111(5) 0.063(4) Uani 0.671(9) 1 d PU C 1
H53 H -0.2605 0.2196 0.9233 0.076 Uiso 0.671(9) 1 calc PR C 1
C150 C -0.2676(13) 0.0679(15) 0.8640(8) 0.053(5) Uani 0.329(9) 1 d PU C 2
H150 H -0.2231 0.0363 0.8443 0.064 Uiso 0.329(9) 1 calc PR C 2
C151 C -0.3317(13) 0.0274(15) 0.9034(8) 0.050(5) Uani 0.329(9) 1 d PU C 2
H151 H -0.3330 -0.0335 0.9104 0.060 Uiso 0.329(9) 1 calc PR C 2
C152 C -0.3961(15) 0.1524(17) 0.9220(9) 0.044(5) Uani 0.329(9) 1 d PU C 2
H152 H -0.4415 0.1838 0.9410 0.052 Uiso 0.329(9) 1 calc PR C 2
C153 C -0.3323(15) 0.2067(17) 0.8799(9) 0.054(5) Uani 0.329(9) 1 d PU C 2
H153 H -0.3371 0.2681 0.8733 0.064 Uiso 0.329(9) 1 calc PR C 2
C54 C 0.0021(4) 0.2565(4) 0.4078(3) 0.0434(17) Uani 1 1 d . . .
C55 C 0.0150(5) 0.1624(5) 0.4398(3) 0.0531(19) Uani 1 1 d U . .
C56 C 0.1064(7) 0.0355(6) 0.4469(5) 0.175(7) Uani 1 1 d . . .
H56A H 0.1477 0.0072 0.4210 0.262 Uiso 1 1 calc R . .
H56B H 0.0526 0.0075 0.4548 0.262 Uiso 1 1 calc R . .
H56C H 0.1313 0.0304 0.4844 0.262 Uiso 1 1 calc R . .
C57 C -0.0107(5) 0.2688(5) 0.3430(3) 0.0518(19) Uani 1 1 d . . .
C58 C -0.0900(6) 0.2279(6) 0.2780(3) 0.096(3) Uani 1 1 d . . .
H58A H -0.1321 0.1872 0.2785 0.143 Uiso 1 1 calc R . .
H58B H -0.0383 0.2160 0.2522 0.143 Uiso 1 1 calc R . .
H58C H -0.1158 0.2874 0.2631 0.143 Uiso 1 1 calc R . .
C59 C 0.3197(4) 0.4818(4) 0.4721(2) 0.0378(16) Uani 1 1 d . . .
C60 C 0.3733(4) 0.4157(6) 0.4439(3) 0.061(2) Uani 1 1 d . . .
C61 C 0.4803(6) 0.3910(7) 0.3698(4) 0.136(4) Uani 1 1 d . . .
H61A H 0.5115 0.4229 0.3339 0.204 Uiso 1 1 calc R . .
H61B H 0.4489 0.3481 0.3597 0.204 Uiso 1 1 calc R . .
H61C H 0.5218 0.3613 0.3985 0.204 Uiso 1 1 calc R . .
C62 C 0.3711(4) 0.5414(5) 0.4912(3) 0.058(2) Uani 1 1 d . . .
C63 C 0.4374(5) 0.6714(5) 0.4591(4) 0.086(3) Uani 1 1 d . . .
H63A H 0.4415 0.7198 0.4242 0.129 Uiso 1 1 calc R . .
H63B H 0.4954 0.6424 0.4669 0.129 Uiso 1 1 calc R . .
H63C H 0.4117 0.6935 0.4935 0.129 Uiso 1 1 calc R . .
C64 C 0.1140(4) 0.4044(4) 0.1367(2) 0.0432(18) Uani 1 1 d . . .
C65 C 0.0748(4) 0.4960(5) 0.1381(3) 0.0429(17) Uani 1 1 d . . .
C66 C -0.0171(4) 0.4923(5) 0.1522(2) 0.0441(18) Uani 1 1 d . . .
C67 C -0.0380(4) 0.4085(5) 0.1521(2) 0.0448(18) Uani 1 1 d . . .
C68 C 0.0408(4) 0.3579(5) 0.1388(3) 0.0448(18) Uani 1 1 d . . .
C69 C 0.0405(4) 0.3000(4) 0.1028(3) 0.0443(18) Uani 1 1 d . . .
C70 C -0.0411(4) 0.6428(5) 0.0957(3) 0.0450(18) Uani 1 1 d . . .
C71 C -0.0730(4) 0.5654(5) 0.1332(3) 0.0432(18) Uani 1 1 d . . .
C72 C -0.1618(4) 0.5610(5) 0.1171(3) 0.0483(19) Uani 1 1 d . . .
C73 C -0.1864(4) 0.4683(5) 0.1167(2) 0.0472(19) Uani 1 1 d . . .
C74 C -0.1141(4) 0.3910(5) 0.1330(3) 0.051(2) Uani 1 1 d . . .
C75 C -0.1151(4) 0.3359(5) 0.0954(3) 0.0446(18) Uani 1 1 d . . .
C76 C -0.0398(4) 0.2886(4) 0.0822(3) 0.0434(17) Uani 1 1 d . . .
C77 C 0.0168(4) 0.7381(4) -0.0245(3) 0.0431(17) Uani 1 1 d . . .
C78 C -0.0739(4) 0.7215(4) -0.0066(3) 0.0468(18) Uani 1 1 d . . .
C79 C -0.1022(4) 0.6812(5) 0.0499(3) 0.0466(18) Uani 1 1 d . . .
C80 C -0.1711(4) 0.6285(4) 0.0602(3) 0.0468(18) Uani 1 1 d . . .
C81 C -0.2071(4) 0.6137(5) 0.0129(3) 0.0494(19) Uani 1 1 d . . .
C82 C -0.2278(4) 0.5304(6) 0.0130(3) 0.055(2) Uani 1 1 d . . .
C83 C -0.2126(4) 0.4559(5) 0.0601(3) 0.0436(18) Uani 1 1 d . . .
C84 C -0.1755(4) 0.3736(4) 0.0509(3) 0.0427(17) Uani 1 1 d . . .
C85 C -0.1122(4) 0.7043(5) -0.0554(3) 0.051(2) Uani 1 1 d . . .
C86 C -0.1789(4) 0.6558(5) -0.0462(3) 0.0472(18) Uani 1 1 d . . .
C87 C -0.1913(4) 0.5998(5) -0.0849(3) 0.0492(19) Uani 1 1 d . . .
C88 C -0.2109(4) 0.5160(5) -0.0452(2) 0.0410(17) Uani 1 1 d . . .
C89 C -0.1753(4) 0.4345(5) -0.0551(3) 0.0430(17) Uani 1 1 d . . .
C90 C -0.1598(4) 0.3632(4) -0.0067(3) 0.0463(18) Uani 1 1 d . . .
C91 C -0.1048(4) 0.4308(5) -0.1023(3) 0.0432(17) Uani 1 1 d . . .
C92 C -0.0479(4) 0.3538(4) -0.0825(2) 0.0415(17) Uani 1 1 d . . .
C93 C -0.0852(4) 0.3041(4) -0.0254(3) 0.0463(18) Uani 1 1 d . . .
C94 C 0.2071(4) 0.3718(5) 0.1503(3) 0.055(2) Uani 1 1 d . . .
C95 C 0.2549(4) 0.4275(5) 0.1750(3) 0.0497(19) Uani 1 1 d . . .
C96 C 0.2237(4) 0.4504(5) 0.2269(3) 0.053(2) Uani 1 1 d . . .
H96 H 0.1698 0.4332 0.2465 0.064 Uiso 1 1 calc R . .
C97 C 0.2704(4) 0.4978(5) 0.2500(3) 0.059(2) Uani 1 1 d . . .
H97 H 0.2476 0.5129 0.2859 0.071 Uiso 1 1 calc R . .
C98 C 0.3483(4) 0.5252(5) 0.2247(3) 0.060(2) Uani 1 1 d . . .
C99 C 0.3827(4) 0.4962(5) 0.1728(3) 0.067(2) Uani 1 1 d . . .
H99 H 0.4383 0.5107 0.1550 0.081 Uiso 1 1 calc R . .
C100 C 0.3378(4) 0.4487(5) 0.1487(3) 0.062(2) Uani 1 1 d . . .
H100 H 0.3618 0.4297 0.1143 0.074 Uiso 1 1 calc R . .
C101 C 0.3960(4) 0.5812(6) 0.2488(3) 0.065(2) Uani 1 1 d . . .
C102 C 0.3511(5) 0.6361(6) 0.2807(3) 0.067(2) Uani 1 1 d . . .
H102 H 0.2900 0.6369 0.2885 0.080 Uiso 1 1 calc R . .
C103 C 0.3949(6) 0.6903(6) 0.3016(4) 0.086(3) Uani 1 1 d . . .
H103 H 0.3616 0.7285 0.3229 0.103 Uiso 1 1 calc R . .
C104 C 0.5238(6) 0.6406(9) 0.2638(4) 0.121(4) Uani 1 1 d . . .
H104 H 0.5848 0.6416 0.2569 0.146 Uiso 1 1 calc R . .
C105 