####################################################################### 
# 
# This file contains crystal structure data downloaded from the 
# Cambridge Structural Database (CSD) hosted by the Cambridge 
# Crystallographic Data Centre (CCDC).
# 
# Full information about CCDC data access policies and citation 
# guidelines are available at http://www.ccdc.cam.ac.uk/access/V1 
# 
# Audit and citation data items may have been added by the CCDC. 
# Please retain this information to preserve the provenance of 
# this file and to allow appropriate attribution of the data. 
# 
#######################################################################

data_complex2
_audit_block_doi                 10.5517/cc10xn7t
_database_code_depnum_ccdc_archive 'CCDC 951056'
loop_
_citation_id
_citation_doi
_citation_year
1 10.1039/C3DT52213J 2014
_audit_update_record             
;
2013-10-28 deposited with the CCDC.	2024-07-10 downloaded from the CCDC.
;

_audit_creation_method           SHELXL-97
_chemical_name_systematic        
;
 ?
;
_chemical_name_common            ?
_chemical_melting_point          ?
_chemical_formula_moiety         'C42 H50 Ca2 N28 O18, 2(Cd Cl2), 22(H2 O)'
_chemical_formula_sum            'C42 H94 Ca2 Cd2 Cl8 N28 O40'
_chemical_formula_weight         2220.01
# 22 water molecules in the compounds were omitted 
# using the SQUEEZE option of the PLATON program.

loop_
_atom_type_symbol
_atom_type_description
_atom_type_scat_dispersion_real
_atom_type_scat_dispersion_imag
_atom_type_scat_source
C C 0.0033 0.0016 'International Tables Vol C Tables 4.2.6.8 and 6.1.1.4'
H H 0.0000 0.0000 'International Tables Vol C Tables 4.2.6.8 and 6.1.1.4'
N N 0.0061 0.0033 'International Tables Vol C Tables 4.2.6.8 and 6.1.1.4'
O O 0.0106 0.0060 'International Tables Vol C Tables 4.2.6.8 and 6.1.1.4'
Cl Cl 0.1484 0.1585 'International Tables Vol C Tables 4.2.6.8 and 6.1.1.4'
Ca Ca 0.2262 0.3064 'International Tables Vol C Tables 4.2.6.8 and 6.1.1.4'
Cd Cd -0.8075 1.2024 'International Tables Vol C Tables 4.2.6.8 and 6.1.1.4'

_symmetry_cell_setting           orthorhombic
_symmetry_space_group_name_H-M   'P 21 21 21'
_symmetry_space_group_name_Hall  'P 2ac 2ab'

loop_
_symmetry_equiv_pos_as_xyz
'x, y, z'
'-x+1/2, -y, z+1/2'
'-x, y+1/2, -z+1/2'
'x+1/2, -y+1/2, -z'

_cell_length_a                   17.070(3)
_cell_length_b                   17.240(3)
_cell_length_c                   28.560(5)
_cell_angle_alpha                90.00
_cell_angle_beta                 90.00
_cell_angle_gamma                90.00
_cell_volume                     8405(2)
_cell_formula_units_Z            4
_cell_measurement_temperature    223(2)
_cell_measurement_reflns_used    ?
_cell_measurement_theta_min      ?
_cell_measurement_theta_max      ?

_exptl_crystal_description       prism
_exptl_crystal_colour            colorless
_exptl_crystal_size_max          0.27
_exptl_crystal_size_mid          0.23
_exptl_crystal_size_min          0.19
_exptl_crystal_density_meas      ?
_exptl_crystal_density_diffrn    1.754
_exptl_crystal_density_method    'not measured'
_exptl_crystal_F_000             4536
_exptl_absorpt_coefficient_mu    0.988
_exptl_absorpt_correction_type   multi-scan
_exptl_absorpt_correction_T_min  0.7763
_exptl_absorpt_correction_T_max  0.8345
_exptl_absorpt_process_details   'SADABS (Bruker, 2008)'

_exptl_special_details           
;
 ?
;

_diffrn_ambient_temperature      223(2)
_diffrn_radiation_wavelength     0.71073
_diffrn_radiation_type           MoK\a
_diffrn_radiation_source         'fine-focus sealed tube'
_diffrn_radiation_monochromator  graphite
_diffrn_measurement_device_type  'Bruker Smart Apex2 CCD Detector'
_diffrn_measurement_method       '\f and \w scan'
_diffrn_detector_area_resol_mean ?
_diffrn_standards_number         ?
_diffrn_standards_interval_count ?
_diffrn_standards_interval_time  ?
_diffrn_standards_decay_%        ?
_diffrn_reflns_number            38726
_diffrn_reflns_av_R_equivalents  0.0886
_diffrn_reflns_av_sigmaI/netI    0.1271
_diffrn_reflns_limit_h_min       -20
_diffrn_reflns_limit_h_max       20
_diffrn_reflns_limit_k_min       -20
_diffrn_reflns_limit_k_max       18
_diffrn_reflns_limit_l_min       -33
_diffrn_reflns_limit_l_max       26
_diffrn_reflns_theta_min         1.38
_diffrn_reflns_theta_max         25.00
_reflns_number_total             14725
_reflns_number_gt                7922
_reflns_threshold_expression     >2sigma(I)

_computing_data_collection       'APEX2 (Bruker, 2005)'
_computing_cell_refinement       'SAINT (Bruker, 2005)'
_computing_data_reduction        SAINT
_computing_structure_solution    'SHELXS97 (Sheldrick, 2008)'
_computing_structure_refinement  'SHELXL97 (Sheldrick, 2008)'
_computing_molecular_graphics    'Ortep-3 for Windows (Farrugia, 1997)'
_computing_publication_material  'WinGX (Farrugia, 1999)'

_refine_special_details          
;
 Refinement of F^2^ against ALL reflections.  The weighted R-factor wR and
 goodness of fit S are based on F^2^, conventional R-factors R are based
 on F, with F set to zero for negative F^2^. The threshold expression of
 F^2^ > 2sigma(F^2^) is used only for calculating R-factors(gt) etc. and is
 not relevant to the choice of reflections for refinement.  R-factors based
 on F^2^ are statistically about twice as large as those based on F, and R-
 factors based on ALL data will be even larger.
;

_refine_ls_structure_factor_coef Fsqd
_refine_ls_matrix_type           full
_refine_ls_weighting_scheme      calc
_refine_ls_weighting_details     
'calc w=1/[\s^2^(Fo^2^)+(0.0728P)^2^+0.0000P] where P=(Fo^2^+2Fc^2^)/3'
_atom_sites_solution_primary     direct
_atom_sites_solution_secondary   difmap
_atom_sites_solution_hydrogens   geom
_refine_ls_hydrogen_treatment    constr
_refine_ls_extinction_method     none
_refine_ls_extinction_coef       ?
_refine_ls_abs_structure_details 'Flack H D (1983), Acta Cryst. A39, 876-881'
_refine_ls_abs_structure_Flack   0.00
_chemical_absolute_configuration unk
_refine_ls_number_reflns         14725
_refine_ls_number_parameters     911
_refine_ls_number_restraints     0
_refine_ls_R_factor_all          0.1056
_refine_ls_R_factor_gt           0.0593
_refine_ls_wR_factor_ref         0.1583
_refine_ls_wR_factor_gt          0.1403
_refine_ls_goodness_of_fit_ref   0.891
_refine_ls_restrained_S_all      0.891
_refine_ls_shift/su_max          0.001
_refine_ls_shift/su_mean         0.000

loop_
_atom_site_label
_atom_site_type_symbol
_atom_site_fract_x
_atom_site_fract_y
_atom_site_fract_z
_atom_site_U_iso_or_equiv
_atom_site_adp_type
_atom_site_occupancy
_atom_site_symmetry_multiplicity
_atom_site_calc_flag
_atom_site_refinement_flags
_atom_site_disorder_assembly
_atom_site_disorder_group
Cl1 Cl -0.09460(12) 0.03749(17) -0.02806(8) 0.0609(7) Uani 1 1 d . . .
Cl2 Cl 0.15292(13) 0.02475(18) -0.03070(8) 0.0695(8) Uani 1 1 d . . .
Cl3 Cl 0.02443(17) -0.07840(19) 0.06642(11) 0.0953(10) Uani 1 1 d . . .
Cl4 Cl 0.04021(15) 0.15433(17) 0.06181(9) 0.0713(8) Uani 1 1 d . . .
Cl5 Cl -0.10812(14) 0.33050(16) 0.11920(9) 0.0649(7) Uani 1 1 d . . .
Cl6 Cl 0.04174(15) 0.18683(19) 0.19615(10) 0.0833(8) Uani 1 1 d . . .
Cl7 Cl 0.11950(14) 0.37698(17) 0.11792(8) 0.0700(8) Uani 1 1 d . . .
Cl8 Cl -0.00422(16) 0.4004(2) 0.23623(11) 0.0971(11) Uani 1 1 d . . .
Cd1 Cd 0.02947(4) 0.03775(5) 0.01484(2) 0.0600(2) Uani 1 1 d . . .
Cd2 Cd 0.01477(4) 0.31780(6) 0.16556(3) 0.0571(4) Uani 0.903(3) 1 d P A 1
Cd2' Cd -0.0070(7) 0.3950(11) 0.1538(4) 0.126(7) Uani 0.097(3) 1 d P A 2
O1W O 0.0069(3) 0.2762(4) -0.3041(2) 0.0665(19) Uani 1 1 d . . .
O2W O 0.0629(4) 0.1632(5) -0.3767(3) 0.111(3) Uani 1 1 d . . .
O3W O 0.2089(5) 0.2749(4) -0.4028(2) 0.082(2) Uani 1 1 d . . .
O4W O 0.1817(6) 0.7331(5) -0.1669(4) 0.134(4) Uani 1 1 d . . .
Ca1 Ca 0.14016(9) 0.25163(10) -0.33204(6) 0.0398(4) Uani 1 1 d . . .
Ca2 Ca 0.2618(2) 0.67839(19) -0.10829(11) 0.1372(14) Uani 1 1 d . . .
C1 C 0.1086(5) 0.4517(5) -0.3533(2) 0.037(2) Uani 1 1 d . . .
C2 C 0.0796(4) 0.5830(5) -0.3550(3) 0.036(2) Uani 1 1 d . . .
H2 H 0.0695 0.6103 -0.3849 0.043 Uiso 1 1 calc R . .
C3 C 0.1694(4) 0.5713(5) -0.3457(3) 0.040(2) Uani 1 1 d . . .
H3 H 0.2020 0.5986 -0.3691 0.048 Uiso 1 1 calc R . .
C4 C 0.1101(5) 0.6382(5) -0.2841(3) 0.040(2) Uani 1 1 d . . .
C5 C 0.2531(4) 0.4514(5) -0.3460(2) 0.0339(19) Uani 1 1 d . . .
H5A H 0.2905 0.4820 -0.3643 0.041 Uiso 1 1 calc R . .
H5B H 0.2486 0.4005 -0.3610 0.041 Uiso 1 1 calc R . .
C6 C 0.2515(4) 0.6245(4) -0.2790(3) 0.036(2) Uani 1 1 d . . .
H6A H 0.2463 0.6688 -0.2577 0.043 Uiso 1 1 calc R . .
H6B H 0.2865 0.6400 -0.3046 0.043 Uiso 1 1 calc R . .
C7 C 0.2725(5) 0.3752(6) -0.2736(3) 0.044(2) Uani 1 1 d . . .
C8 C 0.3329(4) 0.4971(5) -0.2762(3) 0.043(2) Uani 1 1 d . . .
H8 H 0.3748 0.5179 -0.2966 0.051 Uiso 1 1 calc R . .
C9 C 0.3649(5) 0.4514(5) -0.2347(3) 0.041(2) Uani 1 1 d . . .
H9 H 0.4205 0.4365 -0.2387 0.049 Uiso 1 1 calc R . .
C10 C 0.3067(5) 0.5682(5) -0.2075(3) 0.040(2) Uani 1 1 d . . .
C11 C 0.3241(5) 0.3199(5) -0.1992(2) 0.044(2) Uani 1 1 d . . .
H11A H 0.3803 0.3091 -0.1970 0.053 Uiso 1 1 calc R . .
H11B H 0.2983 0.2732 -0.2113 0.053 Uiso 1 1 calc R . .
C12 C 0.3939(5) 0.4959(5) -0.1500(3) 0.044(2) Uani 1 1 d . . .
H12A H 0.4440 0.4694 -0.1550 0.053 Uiso 1 1 calc R . .
H12B H 0.4051 0.5477 -0.1375 0.053 Uiso 1 1 calc R . .
C13 C 0.2391(5) 0.2880(5) -0.1325(3) 0.042(2) Uani 1 1 d . . .
C14 C 0.3447(5) 0.3679(5) -0.1154(3) 0.041(2) Uani 1 1 d . . .
H14 H 0.3971 0.3432 -0.1154 0.049 Uiso 1 1 calc R . .
C15 C 0.2997(4) 0.3529(5) -0.0708(3) 0.045(2) Uani 1 1 d . . .
H15 H 0.3337 0.3323 -0.0456 0.054 Uiso 1 1 calc R . .
C16 C 0.2961(5) 0.4899(8) -0.0814(3) 0.059(3) Uani 1 1 d . . .
C17 C 0.1970(5) 0.2438(5) -0.0531(3) 0.048(2) Uani 1 1 d . . .
H17A H 0.1842 0.1955 -0.0695 0.058 Uiso 1 1 calc R . .
H17B H 0.2303 0.2310 -0.0263 0.058 Uiso 1 1 calc R . .
C18 C 0.2276(5) 0.4411(6) -0.0159(3) 0.060(3) Uani 1 1 d . . .
H18A H 0.2288 0.4969 -0.0096 0.072 Uiso 1 1 calc R . .
H18B H 0.2569 0.4150 0.0090 0.072 Uiso 1 1 calc R . .
C19 C 0.0541(5) 0.2461(6) -0.0474(3) 0.048(2) Uani 1 1 d . . .
C20 C 0.1246(5) 0.3341(5) 0.0010(3) 0.045(2) Uani 1 1 d . . .
H20 H 0.1538 0.3174 0.0292 0.054 Uiso 1 1 calc R . .
C21 C 0.0346(5) 0.3437(5) 0.0091(3) 0.050(2) Uani 1 1 d . . .
H21 H 0.0213 0.3290 0.0417 0.060 Uiso 1 1 calc R . .
C22 C 0.0824(5) 0.4652(7) -0.0112(3) 0.059(3) Uani 1 1 d . . .
C23 C -0.0787(5) 0.2615(5) -0.0169(3) 0.047(2) Uani 1 1 d . . .
H23A H -0.0893 0.2598 0.0168 0.056 Uiso 1 1 calc R . .
H23B H -0.0809 0.2081 -0.0285 0.056 Uiso 1 1 calc R . .
C24 C -0.0567(5) 0.4583(5) 0.0118(3) 0.049(2) Uani 1 1 d . . .
H24A H -0.0497 0.5144 0.0150 0.059 Uiso 1 1 calc R . .
H24B H -0.0752 0.4384 0.0420 0.059 Uiso 1 1 calc R . .
C25 C -0.1711(5) 0.2883(6) -0.0822(3) 0.045(2) Uani 1 1 d . . .
C26 C -0.1696(5) 0.3790(5) -0.0227(3) 0.044(2) Uani 1 1 d . . .
H26 H -0.1909 0.3731 0.0094 0.053 Uiso 1 1 calc R . .
C27 C -0.2365(5) 0.3972(4) -0.0565(3) 0.038(2) Uani 1 1 d . . .
H27 H -0.2887 0.3923 -0.0417 0.046 Uiso 1 1 calc R . .
C28 C -0.1488(5) 0.5071(6) -0.0493(3) 0.051(3) Uani 1 1 d . . .
C29 C -0.2781(4) 0.3305(5) -0.1311(3) 0.042(2) Uani 1 1 d . . .
H29A H -0.3312 0.3280 -0.1181 0.050 Uiso 1 1 calc R . .
H29B H -0.2668 0.2801 -0.1454 0.050 Uiso 1 1 calc R . .
C30 C -0.2754(5) 0.5292(5) -0.0903(3) 0.050(2) Uani 1 1 d . . .
H30A H -0.3270 0.5179 -0.0770 0.060 Uiso 1 1 calc R . .
H30B H -0.2617 0.5826 -0.0818 0.060 Uiso 1 1 calc R . .
C31 C -0.2519(5) 0.3728(6) -0.2116(4) 0.055(3) Uani 1 1 d . . .
C32 C -0.3190(4) 0.4609(5) -0.1649(3) 0.0403(19) Uani 1 1 d . . .
H32 H -0.3725 0.4525 -0.1525 0.048 Uiso 1 1 calc R . .
C33 C -0.3216(5) 0.4911(5) -0.2164(3) 0.040(2) Uani 1 1 d . . .
H33 H -0.3754 0.4912 -0.2293 0.048 Uiso 1 1 calc R . .
C34 C -0.2640(4) 0.5866(5) -0.1703(3) 0.039(2) Uani 1 1 d . . .
C35 C -0.2652(5) 0.4280(5) -0.2931(3) 0.046(2) Uani 1 1 d . . .
H35A H -0.2578 0.3736 -0.3021 0.056 Uiso 1 1 calc R . .
H35B H -0.3143 0.4462 -0.3071 0.056 Uiso 1 1 calc R . .
C36 C -0.2808(4) 0.6204(5) -0.2518(3) 0.043(2) Uani 1 1 d . . .
H36A H -0.2771 0.6735 -0.2397 0.051 Uiso 1 1 calc R . .
H36B H -0.3270 0.6174 -0.2721 0.051 Uiso 1 1 calc R . .
C37 C -0.1346(5) 0.4407(6) -0.3273(3) 0.047(2) Uani 1 1 d . . .
C38 C -0.2070(4) 0.5560(5) -0.3213(3) 0.038(2) Uani 1 1 d . . .
H38 H -0.2502 0.5681 -0.3433 0.046 Uiso 1 1 calc R . .
C39 C -0.1261(5) 0.5748(5) -0.3420(3) 0.041(2) Uani 1 1 d . . .
H39 H -0.1303 0.6029 -0.3721 0.049 Uiso 1 1 calc R . .
C40 C -0.1396(4) 0.6388(5) -0.2717(3) 0.036(2) Uani 1 1 d . . .
C41 C -0.0246(5) 0.4837(5) -0.3770(3) 0.041(2) Uani 1 1 d . . .
H41A H -0.0303 0.5125 -0.4064 0.049 Uiso 1 1 calc R . .
H41B H -0.0242 0.4283 -0.3847 0.049 Uiso 1 1 calc R . .
C42 C -0.0226(4) 0.6697(4) -0.3154(3) 0.0383(19) Uani 1 1 d . . .
H42A H -0.0208 0.7106 -0.2916 0.046 Uiso 1 1 calc R . .
H42B H -0.0288 0.6948 -0.3460 0.046 Uiso 1 1 calc R . .
N1 N 0.0503(4) 0.5041(4) -0.3556(2) 0.0332(16) Uani 1 1 d . . .
N2 N 0.1787(4) 0.4886(4) -0.3483(2) 0.0335(16) Uani 1 1 d . . .
N3 N 0.0520(3) 0.6268(4) -0.3148(2) 0.0324(15) Uani 1 1 d . . .
N4 N 0.1773(4) 0.6068(4) -0.2978(2) 0.0369(17) Uani 1 1 d . . .
N5 N 0.2845(3) 0.4408(4) -0.2997(2) 0.0404(17) Uani 1 1 d . . .
N6 N 0.3116(4) 0.3833(4) -0.2317(2) 0.0427(18) Uani 1 1 d . . .
N7 N 0.2882(4) 0.5582(4) -0.2529(2) 0.0422(18) Uani 1 1 d . . .
N8 N 0.3529(4) 0.5038(4) -0.1955(2) 0.0455(19) Uani 1 1 d . . .
N9 N 0.2934(4) 0.3371(4) -0.1523(2) 0.0433(18) Uani 1 1 d . . .
N10 N 0.2409(4) 0.2964(4) -0.0857(2) 0.0460(19) Uani 1 1 d . . .
N11 N 0.3490(4) 0.4534(5) -0.1163(3) 0.059(2) Uani 1 1 d . . .
N12 N 0.2636(4) 0.4272(5) -0.0577(2) 0.051(2) Uani 1 1 d . . .
N13 N 0.1270(4) 0.2791(4) -0.0370(2) 0.0391(17) Uani 1 1 d . . .
N14 N -0.0021(4) 0.2897(4) -0.0235(2) 0.0407(17) Uani 1 1 d . . .
N15 N 0.1441(4) 0.4138(4) -0.0148(3) 0.0499(19) Uani 1 1 d . . .
N16 N 0.0168(4) 0.4242(4) 0.0016(3) 0.0511(19) Uani 1 1 d . . .
N17 N -0.1394(4) 0.3049(4) -0.0389(2) 0.0476(19) Uani 1 1 d . . .
N18 N -0.2250(4) 0.3424(4) -0.0939(2) 0.0447(19) Uani 1 1 d . . .
N19 N -0.1168(4) 0.4433(4) -0.0238(2) 0.0472(18) Uani 1 1 d . . .
N20 N -0.2182(4) 0.4768(4) -0.0698(2) 0.0407(17) Uani 1 1 d . . .
N21 N -0.2768(4) 0.3900(4) -0.1680(2) 0.0448(18) Uani 1 1 d . . .
N22 N -0.2703(4) 0.4340(4) -0.2405(3) 0.0439(18) Uani 1 1 d . . .
N23 N -0.2797(4) 0.5233(4) -0.1405(2) 0.0437(18) Uani 1 1 d . . .
N24 N -0.2900(4) 0.5673(4) -0.2131(3) 0.0464(19) Uani 1 1 d . . .
N25 N -0.2025(4) 0.4727(4) -0.3101(2) 0.0438(18) Uani 1 1 d . . .
N26 N -0.0913(4) 0.4995(4) -0.3478(2) 0.0376(17) Uani 1 1 d . . .
N27 N -0.2105(4) 0.6024(4) -0.2791(2) 0.0411(18) Uani 1 1 d . . .
N28 N -0.0896(3) 0.6211(4) -0.3067(2) 0.0378(17) Uani 1 1 d . . .
O1 O 0.1015(3) 0.3805(4) -0.35720(19) 0.0439(14) Uani 1 1 d . . .
O2 O 0.2327(3) 0.3198(3) -0.28370(18) 0.0459(15) Uani 1 1 d . . .
O3 O 0.1949(4) 0.2437(4) -0.1539(2) 0.0604(18) Uani 1 1 d . . .
O4 O 0.0433(3) 0.1906(3) -0.07390(19) 0.0482(15) Uani 1 1 d . . .
O5 O -0.1496(4) 0.2299(4) -0.1069(2) 0.0608(18) Uani 1 1 d . . .
O6 O -0.2186(3) 0.3124(4) -0.2247(2) 0.0574(17) Uani 1 1 d . . .
O7 O -0.1176(3) 0.3724(4) -0.3280(2) 0.0540(16) Uani 1 1 d . . .
O8 O 0.1002(3) 0.6741(3) -0.24555(19) 0.0485(15) Uani 1 1 d . . .
O9 O 0.2888(4) 0.6180(4) -0.1805(2) 0.0605(18) Uani 1 1 d . . .
O10 O 0.2881(4) 0.5562(4) -0.0782(2) 0.0577(19) Uani 1 1 d . . .
O11 O 0.0868(4) 0.5367(4) -0.0188(3) 0.077(2) Uani 1 1 d . . .
O12 O -0.1227(4) 0.5715(4) -0.0517(2) 0.0579(17) Uani 1 1 d . . .
O13 O -0.2334(3) 0.6463(3) -0.15688(19) 0.0472(15) Uani 1 1 d . . .
O14 O -0.1260(3) 0.6858(4) -0.23948(19) 0.0462(14) Uani 1 1 d . . .

loop_
_atom_site_aniso_label
_atom_site_aniso_U_11
_atom_site_aniso_U_22
_atom_site_aniso_U_33
_atom_site_aniso_U_23
_atom_site_aniso_U_13
_atom_site_aniso_U_12
Cl1 0.0397(11) 0.089(2) 0.0536(14) 0.0056(14) 0.0007(10) 0.0042(13)
Cl2 0.0447(13) 0.113(2) 0.0508(14) -0.0058(15) -0.0015(10) 0.0043(14)
Cl3 0.0681(17) 0.103(3) 0.115(2) 0.0294(19) 0.0172(18) 0.0118(18)
Cl4 0.0664(16) 0.082(2) 0.0657(15) -0.0150(14) -0.0056(13) 0.0118(14)
Cl5 0.0587(14) 0.0601(18) 0.0759(17) 0.0073(14) -0.0035(13) -0.0085(13)
Cl6 0.0663(16) 0.093(2) 0.0908(19) 0.0053(18) 0.0069(15) 0.0114(17)
Cl7 0.0631(15) 0.096(2) 0.0510(14) -0.0166(14) 0.0017(12) -0.0336(15)
Cl8 0.0645(17) 0.124(3) 0.103(2) -0.044(2) 0.0235(16) -0.0237(18)
Cd1 0.0458(4) 0.0794(6) 0.0547(4) -0.0012(4) -0.0037(3) 0.0055(4)
Cd2 0.0432(4) 0.0679(8) 0.0602(5) -0.0046(5) 0.0036(4) -0.0117(4)
Cd2' 0.105(9) 0.18(2) 0.087(7) 0.002(8) -0.020(6) -0.046(10)
O1W 0.060(4) 0.055(4) 0.085(5) 0.033(4) 0.025(3) 0.015(3)
O2W 0.067(5) 0.145(8) 0.121(6) -0.088(6) -0.008(5) 0.005(5)
O3W 0.125(6) 0.056(5) 0.065(4) 0.014(4) 0.033(4) 0.041(4)
O4W 0.157(9) 0.094(7) 0.151(9) 0.007(7) -0.007(7) 0.036(6)
Ca1 0.0438(9) 0.0336(10) 0.0419(10) 0.0012(9) 0.0012(8) 0.0013(8)
Ca2 0.219(4) 0.091(2) 0.102(2) -0.0123(19) -0.054(2) 0.051(3)
C1 0.043(5) 0.038(6) 0.030(4) -0.001(4) -0.003(4) 0.012(5)
C2 0.034(4) 0.044(6) 0.029(4) 0.000(4) -0.002(3) -0.001(4)
C3 0.040(4) 0.042(6) 0.038(5) -0.004(4) 0.000(4) -0.003(4)
C4 0.048(5) 0.035(6) 0.037(5) 0.003(4) 0.004(4) 0.000(4)
C5 0.025(4) 0.037(5) 0.039(5) 0.000(4) -0.008(3) 0.003(4)
C6 0.035(4) 0.023(5) 0.049(5) -0.009(4) -0.002(4) -0.003(4)
C7 0.027(4) 0.047(7) 0.059(6) -0.002(5) -0.001(4) 0.006(4)
C8 0.028(4) 0.051(6) 0.049(5) -0.008(4) 0.001(4) -0.007(4)
C9 0.044(5) 0.028(5) 0.051(5) 0.003(4) -0.012(4) -0.017(4)
C10 0.043(5) 0.039(6) 0.039(5) 0.002(5) -0.009(4) -0.013(4)
C11 0.057(5) 0.048(6) 0.027(4) 0.012(4) -0.003(4) 0.004(5)
C12 0.047(5) 0.041(6) 0.044(5) 0.005(4) -0.012(4) -0.018(4)
C13 0.050(5) 0.037(6) 0.039(5) 0.002(4) -0.013(4) -0.001(4)
C14 0.044(5) 0.038(