####################################################################### 
# 
# This file contains crystal structure data downloaded from the 
# Cambridge Structural Database (CSD) hosted by the Cambridge 
# Crystallographic Data Centre (CCDC).
# 
# Full information about CCDC data access policies and citation 
# guidelines are available at http://www.ccdc.cam.ac.uk/access/V1 
# 
# Audit and citation data items may have been added by the CCDC. 
# Please retain this information to preserve the provenance of 
# this file and to allow appropriate attribution of the data. 
# 
#######################################################################

data_lr04u(6)
_audit_block_doi                 10.5517/ccpfk3r
_database_code_depnum_ccdc_archive 'CCDC 638634'
loop_
_citation_id
_citation_doi
_citation_year
1 10.1021/cg070289x 2007
_audit_update_record             
;
2007-03-01 deposited with the CCDC.	2024-07-10 downloaded from the CCDC.
;

_audit_creation_method           SHELXL-97
_chemical_name_systematic        
;
?
;
_chemical_name_common            ?
_chemical_melting_point          ?
_chemical_formula_moiety         ?
_chemical_formula_sum            'C60 H104 Cl6 N20 O52 Zn3'
_chemical_formula_weight         2346.44

loop_
_atom_type_symbol
_atom_type_description
_atom_type_scat_dispersion_real
_atom_type_scat_dispersion_imag
_atom_type_scat_source
C C 0.0033 0.0016 'International Tables Vol C Tables 4.2.6.8 and 6.1.1.4'
H H 0.0000 0.0000 'International Tables Vol C Tables 4.2.6.8 and 6.1.1.4'
N N 0.0061 0.0033 'International Tables Vol C Tables 4.2.6.8 and 6.1.1.4'
O O 0.0106 0.0060 'International Tables Vol C Tables 4.2.6.8 and 6.1.1.4'
Cl Cl 0.1484 0.1585 'International Tables Vol C Tables 4.2.6.8 and 6.1.1.4'
Zn Zn 0.2839 1.4301 'International Tables Vol C Tables 4.2.6.8 and 6.1.1.4'

_symmetry_cell_setting           Monoclinic
_symmetry_space_group_name_H-M   P2/n

loop_
_symmetry_equiv_pos_as_xyz
'x, y, z'
'-x+1/2, y, -z+1/2'
'-x, -y, -z'
'x-1/2, -y, z-1/2'

_cell_length_a                   12.733(3)
_cell_length_b                   12.197(2)
_cell_length_c                   32.286(7)
_cell_angle_alpha                90.00
_cell_angle_beta                 96.62(3)
_cell_angle_gamma                90.00
_cell_volume                     4980.4(17)
_cell_formula_units_Z            2
_cell_measurement_temperature    293(2)
_cell_measurement_reflns_used    8766
_cell_measurement_theta_min      1.27
_cell_measurement_theta_max      25.00

_exptl_crystal_description       'rectangular blocks'
_exptl_crystal_colour            colorless
_exptl_crystal_size_max          0.40
_exptl_crystal_size_mid          0.20
_exptl_crystal_size_min          0.10
_exptl_crystal_density_meas      ?
_exptl_crystal_density_diffrn    1.565
_exptl_crystal_density_method    'not measured'
_exptl_crystal_F_000             2424
_exptl_absorpt_coefficient_mu    0.983
_exptl_absorpt_correction_type   empirical
_exptl_absorpt_correction_T_min  0.780
_exptl_absorpt_correction_T_max  0.900
_exptl_absorpt_process_details   SADABS

_exptl_special_details           
;
?
;

_diffrn_ambient_temperature      293(2)
_diffrn_radiation_wavelength     0.71073
_diffrn_radiation_type           MoK\a
_diffrn_radiation_source         'fine-focus sealed tube'
_diffrn_radiation_monochromator  graphite
_diffrn_measurement_device_type  'CCD area detector'
_diffrn_measurement_method       'phi and omega scans'
_diffrn_detector_area_resol_mean ?
_diffrn_standards_number         ?
_diffrn_standards_interval_count ?
_diffrn_standards_interval_time  ?
_diffrn_standards_decay_%        ?
_diffrn_reflns_number            50683
_diffrn_reflns_av_R_equivalents  0.3249
_diffrn_reflns_av_sigmaI/netI    0.1808
_diffrn_reflns_limit_h_min       -15
_diffrn_reflns_limit_h_max       15
_diffrn_reflns_limit_k_min       -14
_diffrn_reflns_limit_k_max       14
_diffrn_reflns_limit_l_min       -34
_diffrn_reflns_limit_l_max       38
_diffrn_reflns_theta_min         1.27
_diffrn_reflns_theta_max         25.00
_reflns_number_total             8766
_reflns_number_gt                3874
_reflns_threshold_expression     >2sigma(I)

_computing_data_collection       'Bruker SMART'
_computing_cell_refinement       'Bruker SMART'
_computing_data_reduction        'Bruker SMART'
_computing_structure_solution    'SHELXS-97 (Sheldrick, 1990)'
_computing_structure_refinement  'SHELXL-97 (Sheldrick, 1997)'
_computing_molecular_graphics    'Bruker SHELXTL'
_computing_publication_material  'Bruker SHELXTL'

_refine_special_details          
;
Refinement of F^2^ against ALL reflections. The weighted R-factor wR and
goodness of fit S are based on F^2^, conventional R-factors R are based
on F, with F set to zero for negative F^2^. The threshold expression of
F^2^ > 2sigma(F^2^) is used only for calculating R-factors(gt) etc. and is
not relevant to the choice of reflections for refinement. R-factors based
on F^2^ are statistically about twice as large as those based on F, and R-
factors based on ALL data will be even larger.
;

_refine_ls_structure_factor_coef Fsqd
_refine_ls_matrix_type           full
_refine_ls_weighting_scheme      calc
_refine_ls_weighting_details     
'calc w=1/[\s^2^(Fo^2^)+(0.0745P)^2^+0.0000P] where P=(Fo^2^+2Fc^2^)/3'
_atom_sites_solution_primary     direct
_atom_sites_solution_secondary   difmap
_atom_sites_solution_hydrogens   geom
_refine_ls_hydrogen_treatment    constr
_refine_ls_extinction_method     SHELXL
_refine_ls_extinction_coef       0.00000(10)
_refine_ls_extinction_expression Fc^*^=kFc[1+0.001xFc^2^\l^3^/sin(2\q)]^-1/4^
_refine_ls_number_reflns         8766
_refine_ls_number_parameters     422
_refine_ls_number_restraints     0
_refine_ls_R_factor_all          0.1530
_refine_ls_R_factor_gt           0.0874
_refine_ls_wR_factor_ref         0.1976
_refine_ls_wR_factor_gt          0.1730
_refine_ls_goodness_of_fit_ref   0.833
_refine_ls_restrained_S_all      0.833
_refine_ls_shift/su_max          0.116
_refine_ls_shift/su_mean         0.000

loop_
_atom_site_label
_atom_site_type_symbol
_atom_site_fract_x
_atom_site_fract_y
_atom_site_fract_z
_atom_site_U_iso_or_equiv
_atom_site_adp_type
_atom_site_occupancy
_atom_site_symmetry_multiplicity
_atom_site_calc_flag
_atom_site_refinement_flags
_atom_site_disorder_assembly
_atom_site_disorder_group
Zn1 Zn 0.30179(5) 0.42178(6) -0.07518(2) 0.0578(2) Uani 1 1 d . . .
Zn2 Zn 1.2500 0.86915(9) 0.2500 0.0567(3) Uani 1 2 d S . .
O1W O 1.2500 1.0451(4) 0.2500 0.0718(18) Uani 1 2 d S . .
O2W O 1.2500 0.6826(6) 0.2500 0.0819(19) Uani 1 2 d S . .
C1 C 0.8099(5) 0.4214(6) 0.1360(2) 0.075(2) Uani 1 1 d . . .
H1A H 0.8059 0.3591 0.1545 0.090 Uiso 1 1 calc . . .
H1B H 0.8675 0.4681 0.1477 0.090 Uiso 1 1 calc . . .
C2 C 0.8308(5) 0.3819(5) 0.0933(2) 0.0666(18) Uani 1 1 d . . .
H2A H 0.8977 0.3431 0.0957 0.080 Uiso 1 1 calc . . .
H2B H 0.7758 0.3307 0.0828 0.080 Uiso 1 1 calc . . .
C3 C 0.6168(5) 0.4084(6) 0.1304(2) 0.0713(19) Uani 1 1 d . . .
H3A H 0.5671 0.4340 0.1488 0.086 Uiso 1 1 calc . . .
H3B H 0.6413 0.3363 0.1398 0.086 Uiso 1 1 calc . . .
C4 C 0.7033(5) 0.5648(6) 0.1667(2) 0.0640(17) Uani 1 1 d . . .
H4A H 0.7722 0.5976 0.1743 0.077 Uiso 1 1 calc . . .
H4B H 0.6812 0.5293 0.1912 0.077 Uiso 1 1 calc . . .
C5 C 0.9341(4) 0.5379(6) 0.0713(2) 0.070(2) Uani 1 1 d . . .
H5A H 0.9569 0.5625 0.0452 0.084 Uiso 1 1 calc . . .
H5B H 0.9889 0.4909 0.0850 0.084 Uiso 1 1 calc . . .
C6 C 0.8150(5) 0.4343(6) 0.0193(2) 0.0703(19) Uani 1 1 d . . .
H6A H 0.8192 0.4960 0.0006 0.084 Uiso 1 1 calc . . .
H6B H 0.7437 0.4053 0.0145 0.084 Uiso 1 1 calc . . .
N2 N 0.8342(4) 0.4741(4) 0.06251(17) 0.0605(14) Uani 1 1 d . . .
N1 N 0.7078(4) 0.4843(4) 0.13267(16) 0.0597(13) Uani 1 1 d . . .
O11 O 0.5849(3) 0.4589(3) 0.05724(13) 0.0585(11) Uani 1 1 d . . .
N11 N 0.4838(4) 0.3254(4) 0.08160(16) 0.0619(14) Uani 1 1 d . . .
H11 H 0.4714 0.2930 0.1042 0.074 Uiso 1 1 calc R . .
N12 N 0.3366(3) 0.3275(4) -0.02322(16) 0.0540(13) Uani 1 1 d . . .
C11 C 0.5607(4) 0.3998(5) 0.0858(2) 0.0513(15) Uani 1 1 d . . .
C12 C 0.4206(4) 0.2930(5) 0.0456(2) 0.0538(16) Uani 1 1 d . . .
C13 C 0.3982(4) 0.3605(5) 0.01112(19) 0.0526(15) Uani 1 1 d . . .
H13 H 0.4266 0.4308 0.0118 0.063 Uiso 1 1 calc R . .
C14 C 0.2994(6) 0.2259(6) -0.0244(2) 0.087(2) Uani 1 1 d . . .
H14 H 0.2603 0.2015 -0.0487 0.104 Uiso 1 1 calc R . .
C15 C 0.3162(7) 0.1546(7) 0.0092(3) 0.126(4) Uani 1 1 d . . .
H15 H 0.2862 0.0850 0.0081 0.151 Uiso 1 1 calc R . .
C16 C 0.3777(6) 0.1897(6) 0.0437(3) 0.097(3) Uani 1 1 d . . .
H16 H 0.3912 0.1430 0.0664 0.117 Uiso 1 1 calc R . .
O21 O 0.6057(3) 0.6719(4) 0.11293(14) 0.0647(12) Uani 1 1 d . . .
N21 N 0.5771(4) 0.7011(5) 0.18030(18) 0.0844(18) Uani 1 1 d . . .
H21 H 0.5969 0.6823 0.2057 0.101 Uiso 1 1 calc R . .
N22 N 0.3512(4) 0.8620(5) 0.20186(16) 0.0666(14) Uani 1 1 d . . .
C21 C 0.6239(5) 0.6514(6) 0.1506(2) 0.0634(18) Uani 1 1 d . . .
C22 C 0.4974(5) 0.7824(6) 0.1735(2) 0.0667(18) Uani 1 1 d . . .
C23 C 0.4304(5) 0.7910(5) 0.2038(2) 0.0639(17) Uani 1 1 d . . .
H23 H 0.4412 0.7448 0.2268 0.077 Uiso 1 1 calc R . .
C24 C 0.3385(6) 0.9311(6) 0.1687(2) 0.0735(19) Uani 1 1 d . . .
H24 H 0.2848 0.9831 0.1672 0.088 Uiso 1 1 calc R . .
C25 C 0.4035(6) 0.9264(6) 0.1371(2) 0.084(2) Uani 1 1 d . . .
H25 H 0.3930 0.9739 0.1144 0.101 Uiso 1 1 calc R . .
C26 C 0.4825(6) 0.8512(6) 0.1397(2) 0.076(2) Uani 1 1 d . . .
H26 H 0.5264 0.8463 0.1187 0.092 Uiso 1 1 calc R . .
O31 O 0.8292(3) 0.6756(3) 0.10124(12) 0.0612(11) Uani 1 1 d . . .
N31 N 1.0044(4) 0.6799(4) 0.11919(16) 0.0626(14) Uani 1 1 d . . .
H31 H 1.0638 0.6495 0.1159 0.075 Uiso 1 1 calc R . .
N32 N 1.1123(3) 0.8631(4) 0.20352(15) 0.0553(13) Uani 1 1 d . . .
C31 C 0.9194(5) 0.6362(5) 0.09860(19) 0.0595(16) Uani 1 1 d . . .
C32 C 1.0086(4) 0.7719(5) 0.14634(19) 0.0530(15) Uani 1 1 d . . .
C33 C 1.1000(4) 0.7823(5) 0.17533(18) 0.0563(16) Uani 1 1 d . . .
H33 H 1.1539 0.7309 0.1748 0.068 Uiso 1 1 calc R . .
C34 C 1.0339(5) 0.9364(5) 0.2041(2) 0.0720(19) Uani 1 1 d . . .
H34 H 1.0401 0.9909 0.2244 0.086 Uiso 1 1 calc R . .
C35 C 0.9461(5) 0.9339(6) 0.1763(2) 0.082(2) Uani 1 1 d . . .
H35 H 0.8962 0.9896 0.1763 0.099 Uiso 1 1 calc R . .
C36 C 0.9296(5) 0.8483(6) 0.1474(2) 0.078(2) Uani 1 1 d . . .
H36 H 0.8672 0.8433 0.1294 0.094 Uiso 1 1 calc R . .
O41 O 0.9861(4) 0.3521(4) 0.02012(17) 0.0986(18) Uani 1 1 d . . .
N41 N 0.8490(4) 0.2660(5) -0.01614(17) 0.0760(17) Uani 1 1 d . . .
H41 H 0.7817 0.2703 -0.0226 0.091 Uiso 1 1 calc R . .
N42 N 0.8740(6) 0.0156(5) -0.0764(2) 0.101(2) Uani 1 1 d . . .
C41 C 0.8929(5) 0.3450(6) 0.0083(2) 0.069(2) Uani 1 1 d . . .
C42 C 0.9003(6) 0.1745(5) -0.0330(2) 0.072(2) Uani 1 1 d . . .
C43 C 0.8376(6) 0.1037(6) -0.0579(3) 0.087(2) Uani 1 1 d . . .
H43 H 0.7654 0.1178 -0.0621 0.105 Uiso 1 1 calc R . .
C44 C 0.9779(8) -0.0052(7) -0.0696(3) 0.097(3) Uani 1 1 d . . .
H44 H 1.0056 -0.0657 -0.0821 0.116 Uiso 1 1 calc R . .
C45 C 1.0430(6) 0.0611(7) -0.0447(3) 0.092(2) Uani 1 1 d . . .
H45 H 1.1145 0.0435 -0.0398 0.111 Uiso 1 1 calc R . .
C46 C 1.0072(6) 0.1535(6) -0.0263(2) 0.081(2) Uani 1 1 d . . .
H46 H 1.0531 0.1999 -0.0101 0.098 Uiso 1 1 calc R . .

loop_
_atom_site_aniso_label
_atom_site_aniso_U_11
_atom_site_aniso_U_22
_atom_site_aniso_U_33
_atom_site_aniso_U_23
_atom_site_aniso_U_13
_atom_site_aniso_U_12
Zn1 0.0357(4) 0.0754(5) 0.0612(5) -0.0062(4) 0.0014(3) -0.0067(4)
Zn2 0.0409(6) 0.0712(7) 0.0566(7) 0.000 -0.0007(5) 0.000
O1W 0.079(4) 0.032(3) 0.105(5) 0.000 0.014(4) 0.000
O2W 0.070(4) 0.095(5) 0.078(5) 0.000 -0.004(4) 0.000
C1 0.051(4) 0.089(5) 0.083(5) -0.005(4) 0.000(3) 0.023(4)
C2 0.061(4) 0.071(5) 0.067(5) -0.005(4) 0.003(3) 0.011(3)
C3 0.055(4) 0.091(5) 0.068(5) -0.003(4) 0.009(3) -0.006(4)
C4 0.045(4) 0.084(5) 0.062(4) -0.012(4) 0.001(3) 0.000(3)
C5 0.029(3) 0.096(5) 0.083(5) -0.021(4) -0.003(3) -0.014(3)
C6 0.049(4) 0.087(5) 0.072(5) -0.006(4) -0.003(3) -0.011(4)
N2 0.044(3) 0.070(3) 0.067(4) -0.021(3) 0.009(3) -0.012(3)
N1 0.040(3) 0.072(3) 0.064(4) -0.009(3) -0.006(2) -0.003(2)
O11 0.042(2) 0.072(3) 0.061(3) 0.001(2) 0.008(2) -0.011(2)
N11 0.054(3) 0.070(4) 0.060(4) 0.013(3) -0.003(3) -0.011(3)
N12 0.039(3) 0.050(3) 0.072(4) -0.003(3) 0.002(2) -0.009(2)
C11 0.039(3) 0.053(4) 0.060(4) -0.007(3) -0.005(3) -0.001(3)
C12 0.033(3) 0.058(4) 0.067(4) 0.014(3) -0.007(3) -0.011(3)
C13 0.034(3) 0.059(4) 0.064(4) -0.006(3) 0.004(3) -0.016(3)
C14 0.088(5) 0.071(5) 0.094(6) 0.003(4) -0.025(4) -0.029(4)
C15 0.158(8) 0.087(6) 0.114(8) 0.025(6) -0.064(6) -0.052(6)
C16 0.111(6) 0.067(5) 0.102(7) 0.032(4) -0.041(5) -0.027(5)
O21 0.046(2) 0.089(3) 0.059(3) -0.009(2) 0.006(2) 0.003(2)
N21 0.079(4) 0.118(5) 0.056(4) -0.005(4) 0.005(3) 0.026(4)
N22 0.063(4) 0.080(4) 0.055(4) -0.001(3) -0.002(3) 0.013(3)
C21 0.042(4) 0.088(5) 0.060(5) -0.013(4) 0.007(3) -0.001(3)
C22 0.065(5) 0.080(5) 0.054(4) 0.000(4) 0.004(4) 0.004(4)
C23 0.060(4) 0.074(5) 0.058(4) -0.002(4) 0.008(3) 0.017(4)
C24 0.080(5) 0.068(5) 0.073(5) 0.004(4) 0.013(4) -0.001(4)
C25 0.108(6) 0.071(5) 0.078(5) -0.002(4) 0.033(5) 0.004(5)
C26 0.076(5) 0.078(5) 0.081(6) -0.006(4) 0.034(4) 0.007(4)
O31 0.039(2) 0.077(3) 0.065(3) -0.013(2) -0.003(2) 0.004(2)
N31 0.035(3) 0.079(4) 0.072(4) -0.016(3) -0.001(3) 0.005(2)
N32 0.039(3) 0.072(3) 0.051(3) -0.010(3) -0.010(2) 0.001(2)
C31 0.039(4) 0.072(4) 0.066(4) -0.015(4) -0.001(3) -0.003(3)
C32 0.025(3) 0.064(4) 0.068(4) -0.007(3) -0.001(3) -0.007(3)
C33 0.033(3) 0.077(4) 0.058(4) -0.005(4) 0.004(3) 0.003(3)
C34 0.061(4) 0.065(4) 0.086(5) -0.015(4) -0.013(4) 0.001(3)
C35 0.056(4) 0.084(5) 0.102(6) -0.015(5) -0.010(4) 0.025(4)
C36 0.051(4) 0.093(5) 0.084(5) -0.020(4) -0.017(4) 0.009(4)
O41 0.051(3) 0.113(4) 0.129(5) -0.054(4) -0.002(3) 0.001(3)
N41 0.048(3) 0.093(4) 0.086(4) -0.026(4) 0.004(3) -0.010(3)
N42 0.101(5) 0.084(5) 0.116(6) -0.031(4) 0.008(4) 0.009(4)
C41 0.041(4) 0.085(5) 0.082(5) -0.028(4) 0.009(4) -0.007(3)
C42 0.079(5) 0.059(4) 0.079(5) -0.018(4) 0.015(4) 0.001(4)
C43 0.061(5) 0.088(6) 0.115(7) -0.023(5) 0.017(4) -0.013(4)
C44 0.103(7) 0.076(6) 0.113(7) -0.020(5) 0.022(6) 0.006(5)
C45 0.072(5) 0.089(6) 0.117(7) -0.020(5) 0.015(5) 0.017(5)
C46 0.068(5) 0.089(6) 0.088(6) -0.015(4) 0.013(4) 0.003(4)

_geom_special_details            
;
All esds (except the esd in the dihedral angle between two l.s. planes)
are estimated using the full covariance matrix. The cell esds are taken
into account individually in the estimation of esds in distances, angles
and torsion angles; correlations between esds in cell parameters are only
used when they are defined by crystal symmetry. An approximate (isotropic)
treatment of cell esds is used for estimating esds involving l.s. planes.
;

loop_
_geom_bond_atom_site_label_1
_geom_bond_atom_site_label_2
_geom_bond_distance
_geom_bond_site_symmetry_2
_geom_bond_publ_flag
Zn1 N12 2.040(5) . ?
Zn1 O11 2.084(4) 3_665 ?
Zn1 O21 2.124(4) 3_665 ?
Zn1 O31 2.139(4) 3_665 ?
Zn1 N1 2.173(5) 3_665 ?
Zn1 N2 2.223(5) 3_665 ?
Zn2 N22 2.132(5) 2_655 ?
Zn2 N22 2.132(5) 1_655 ?
Zn2 O1W 2.146(5) . ?
Zn2 N32 2.173(4) . ?
Zn2 N32 2.173(4) 2_755 ?
Zn2 O2W 2.275(7) . ?
C1 N1 1.503(7) . ?
C1 C2 1.514(9) . ?
C2 N2 1.504(8) . ?
C3 N1 1.478(7) . ?
C3 C11 1.535(9) . ?
C4 N1 1.481(7) . ?
C4 C21 1.512(9) . ?
C5 N2 1.490(7) . ?
C5 C31 1.513(8) . ?
C6 N2 1.471(8) . ?
C6 C41 1.543(9) . ?
N2 Zn1 2.223(5) 3_665 ?
N1 Zn1 2.173(5) 3_665 ?
O11 C11 1.237(7) . ?
O11 Zn1 2.084(4) 3_665 ?
N11 C11 1.329(7) . ?
N11 C12 1.393(7) . ?
N12 C14 1.325(7) . ?
N12 C13 1.343(7) . ?
C12 C16 1.371(8) . ?
C12 C13 1.387(8) . ?
C14 C15 1.387(10) . ?
C15 C16 1.355(10) . ?
O21 C21 1.237(7) . ?
O21 Zn1 2.124(4) 3_665 ?
N21 C21 1.332(7) . ?
N21 C22 1.417(8) . ?
N22 C23 1.326(7) . ?
N22 C24 1.357(8) . ?
N22 Zn2 2.132(5) 1_455 ?
C22 C26 1.371(9) . ?
C22 C23 1.376(8) . ?
C24 C25 1.388(8) . ?
C25 C26 1.357(9) . ?
O31 C31 1.257(6) . ?
O31 Zn1 2.139(4) 3_665 ?
N31 C31 1.316(7) . ?
N31 C32 1.421(7) . ?
N32 C33 1.339(7) . ?
N32 C34 1.343(7) . ?
C32 C36 1.374(8) . ?
C32 C33 1.413(7) . ?
C34 C35 1.351(9) . ?
C35 C36 1.400(9) . ?
O41 C41 1.206(7) . ?
N41 C41 1.327(7) . ?
N41 C42 1.431(8) . ?
N42 C44 1.341(9) . ?
N42 C43 1.339(8) . ?
C42 C46 1.376(9) . ?
C42 C43 1.372(9) . ?
C44 C45 1.354(10) . ?
C45 C46 1.376(9) . ?

loop_
_geom_angle_atom_site_label_1
_geom_angle_atom_site_label_2
_geom_angle_atom_site_label_3
_geom_angle
_geom_angle_site_symmetry_1
_geom_angle_site_symmetry_3
_geom_angle_publ_flag
N12 Zn1 O11 95.00(18) . 3_665 ?
N12 Zn1 O21 94.93(18) . 3_665 ?
O11 Zn1 O21 97.07(15) 3_665 3_665 ?
N12 Zn1 O31 95.51(17) . 3_665 ?
O11 Zn1 O31 168.66(17) 3_665 3_665 ?
O21 Zn1 O31 86.24(15) 3_665 3_665 ?
N12 Zn1 N1 170.12(17) . 3_665 ?
O11 Zn1 N1 80.68(17) 3_665 3_665 ?
O21 Zn1 N1 76.92(18) 3_665 3_665 ?
O31 Zn1 N1 89.57(17) 3_665 3_665 ?
N12 Zn1 N2 105.7(2) . 3_665 ?
O11 Zn1 N2 94.52(16) 3_665 3_665 ?
O21 Zn1 N2 155.29(19) 3_665 3_665 ?
O31 Zn1 N2 78.54(16) 3_665 3_665 ?
N1 Zn1 N2 83.56(19) 3_665 3_665 ?
N22 Zn2 N22 175.3(3) 2_655 1_655 ?
N22 Zn2 O1W 92.34(16) 2_655 . ?
N22 Zn2 O1W 92.34(16) 1_655 . ?
N22 Zn2 N32 89.72(19) 2_655 . ?
N22 Zn2 N32 90.13(19) 1_655 . ?
O1W Zn2 N32 91.94(14) . . ?
N22 Zn2 N32 90.13(19) 2_655 2_755 ?
N22 Zn2 N32 89.72(19) 1_655 2_755 ?
O1W Zn2 N32 91.94(14) . 2_755 ?
N32 Zn2 N32 176.1(3) . 2_755 ?
N22 Zn2 O2W 87.66(16) 2_655 . ?
N22 Zn2 O2W 87.66(16) 1_655 . ?
O1W Zn2 O2W 180.000(2) . . ?
N32 Zn2 O2W 88.06(14) . . ?
N32 Zn2 O2W 88.06(14) 2_755 . ?
N1 C1 C2 109.8(5) . . ?
N2 C2 C1 112.7(5) . . ?
N1 C3 C11 111.6(5) . . ?
N1 C4 C21 106.8(5) . . ?
N2 C5 C31 111.4(5) . . ?
N2 C6 C41 114.2(5) . . ?
C6 N2 C5 113.4(5) . . ?
C6 N2 C2 111.5(5) . . ?
C5 N2 C2 110.7(5) . . ?
C6 N2 Zn1 108.3(4) . 3_665 ?
C5 N2 Zn1 109