####################################################################### 
# 
# This file contains crystal structure data downloaded from the 
# Cambridge Structural Database (CSD) hosted by the Cambridge 
# Crystallographic Data Centre (CCDC).
# 
# Full information about CCDC data access policies and citation 
# guidelines are available at http://www.ccdc.cam.ac.uk/access/V1 
# 
# Audit and citation data items may have been added by the CCDC. 
# Please retain this information to preserve the provenance of 
# this file and to allow appropriate attribution of the data. 
# 
#######################################################################

data_lr02a(4)
_audit_block_doi                 10.5517/ccpfk1p
_database_code_depnum_ccdc_archive 'CCDC 638632'
loop_
_citation_id
_citation_doi
_citation_year
1 10.1021/cg070289x 2007
_audit_update_record             
;
2007-03-01 deposited with the CCDC.	2024-07-10 downloaded from the CCDC.
;

_audit_creation_method           SHELXL-97
_chemical_name_systematic        
;
?
;
_chemical_name_common            ?
_chemical_melting_point          ?
_chemical_formula_moiety         ?
_chemical_formula_sum            'C60 H112 Co3 N26 O50'
_chemical_formula_weight         2174.55

loop_
_atom_type_symbol
_atom_type_description
_atom_type_scat_dispersion_real
_atom_type_scat_dispersion_imag
_atom_type_scat_source
C C 0.0033 0.0016 'International Tables Vol C Tables 4.2.6.8 and 6.1.1.4'
H H 0.0000 0.0000 'International Tables Vol C Tables 4.2.6.8 and 6.1.1.4'
N N 0.0061 0.0033 'International Tables Vol C Tables 4.2.6.8 and 6.1.1.4'
O O 0.0106 0.0060 'International Tables Vol C Tables 4.2.6.8 and 6.1.1.4'
Co Co 0.3494 0.9721 'International Tables Vol C Tables 4.2.6.8 and 6.1.1.4'

_symmetry_cell_setting           Triclinic
_symmetry_space_group_name_H-M   P-1

loop_
_symmetry_equiv_pos_as_xyz
'x, y, z'
'-x, -y, -z'

_cell_length_a                   13.1979(14)
_cell_length_b                   16.5893(17)
_cell_length_c                   24.985(4)
_cell_angle_alpha                105.433(5)
_cell_angle_beta                 96.685(5)
_cell_angle_gamma                104.462(3)
_cell_volume                     5007.0(10)
_cell_formula_units_Z            2
_cell_measurement_temperature    293(2)
_cell_measurement_reflns_used    21602
_cell_measurement_theta_min      0.86
_cell_measurement_theta_max      30.62

_exptl_crystal_description       plates
_exptl_crystal_colour            pink
_exptl_crystal_size_max          0.49
_exptl_crystal_size_mid          0.26
_exptl_crystal_size_min          0.13
_exptl_crystal_density_meas      'not measured'
_exptl_crystal_density_diffrn    1.442
_exptl_crystal_density_method    'not measured'
_exptl_crystal_F_000             2270
_exptl_absorpt_coefficient_mu    0.596
_exptl_absorpt_correction_type   empirical
_exptl_absorpt_correction_T_min  0.834
_exptl_absorpt_correction_T_max  0.925
_exptl_absorpt_process_details   SADABS

_exptl_special_details           
;
?
;

_diffrn_ambient_temperature      293(2)
_diffrn_radiation_wavelength     0.71073
_diffrn_radiation_type           MoK\a
_diffrn_radiation_source         'fine-focus sealed tube'
_diffrn_radiation_monochromator  graphite
_diffrn_measurement_device_type  'CCD area detector'
_diffrn_measurement_method       'phi and omega scans'
_diffrn_detector_area_resol_mean ?
_diffrn_standards_number         ?
_diffrn_standards_interval_count ?
_diffrn_standards_interval_time  ?
_diffrn_standards_decay_%        ?
_diffrn_reflns_number            39506
_diffrn_reflns_av_R_equivalents  0.0895
_diffrn_reflns_av_sigmaI/netI    0.3885
_diffrn_reflns_limit_h_min       -17
_diffrn_reflns_limit_h_max       16
_diffrn_reflns_limit_k_min       -22
_diffrn_reflns_limit_k_max       15
_diffrn_reflns_limit_l_min       -29
_diffrn_reflns_limit_l_max       34
_diffrn_reflns_theta_min         0.86
_diffrn_reflns_theta_max         30.62
_reflns_number_total             21602
_reflns_number_gt                4735
_reflns_threshold_expression     >2sigma(I)

_computing_data_collection       'Bruker SMART'
_computing_cell_refinement       'Bruker SMART'
_computing_data_reduction        'Bruker SMART'
_computing_structure_solution    'SHELXS-97 (Sheldrick, 1990)'
_computing_structure_refinement  'SHELXL-97 (Sheldrick, 1997)'
_computing_molecular_graphics    'Bruker SHELXTL'
_computing_publication_material  'Bruker SHELXTL'

_refine_special_details          
;
Refinement of F^2^ against ALL reflections. The weighted R-factor wR and
goodness of fit S are based on F^2^, conventional R-factors R are based
on F, with F set to zero for negative F^2^. The threshold expression of
F^2^ > 2sigma(F^2^) is used only for calculating R-factors(gt) etc. and is
not relevant to the choice of reflections for refinement. R-factors based
on F^2^ are statistically about twice as large as those based on F, and R-
factors based on ALL data will be even larger.
;

_refine_ls_structure_factor_coef Fsqd
_refine_ls_matrix_type           full
_refine_ls_weighting_scheme      calc
_refine_ls_weighting_details     
'calc w=1/[\s^2^(Fo^2^)+(0.1102P)^2^+0.0000P] where P=(Fo^2^+2Fc^2^)/3'
_atom_sites_solution_primary     direct
_atom_sites_solution_secondary   difmap
_atom_sites_solution_hydrogens   geom
_refine_ls_hydrogen_treatment    constr
_refine_ls_extinction_method     none
_refine_ls_extinction_coef       ?
_refine_ls_number_reflns         21602
_refine_ls_number_parameters     811
_refine_ls_number_restraints     0
_refine_ls_R_factor_all          0.1967
_refine_ls_R_factor_gt           0.0868
_refine_ls_wR_factor_ref         0.2470
_refine_ls_wR_factor_gt          0.2279
_refine_ls_goodness_of_fit_ref   0.649
_refine_ls_restrained_S_all      0.649
_refine_ls_shift/su_max          0.001
_refine_ls_shift/su_mean         0.000

loop_
_atom_site_label
_atom_site_type_symbol
_atom_site_fract_x
_atom_site_fract_y
_atom_site_fract_z
_atom_site_U_iso_or_equiv
_atom_site_adp_type
_atom_site_occupancy
_atom_site_symmetry_multiplicity
_atom_site_calc_flag
_atom_site_refinement_flags
_atom_site_disorder_assembly
_atom_site_disorder_group
Co1 Co 0.11239(6) 0.31492(5) 0.65355(3) 0.0535(2) Uani 1 1 d . . .
Co2 Co 0.33488(7) 0.19947(5) 0.32930(3) 0.0667(3) Uani 1 1 d . . .
C03 Co 0.28793(7) 0.18848(6) 0.89116(3) 0.0676(3) Uani 1 1 d . . .
O1W O 0.2116(4) 0.2497(3) 0.3013(2) 0.0937(14) Uani 1 1 d . . .
O2W O 0.4627(4) 0.1459(3) 0.35187(19) 0.0914(14) Uani 1 1 d . . .
O3W O 0.3541(4) 0.1702(3) 0.24971(19) 0.0933(15) Uani 1 1 d . . .
C11 C 0.4855(7) 0.1268(6) 0.9240(3) 0.098(2) Uani 1 1 d . . .
H11A H 0.4676 0.1122 0.9575 0.117 Uiso 1 1 calc . . .
H11B H 0.5598 0.1299 0.9238 0.117 Uiso 1 1 calc . . .
C12 C 0.4129(8) 0.0541(5) 0.8695(3) 0.099(3) Uani 1 1 d . . .
H12A H 0.4431 0.0623 0.8371 0.119 Uiso 1 1 calc . . .
H12B H 0.4164 -0.0023 0.8725 0.119 Uiso 1 1 calc . . .
C13 C 0.5100(7) 0.2757(5) 0.9852(3) 0.093(2) Uani 1 1 d . . .
H13A H 0.5696 0.2627 1.0042 0.111 Uiso 1 1 calc . . .
H13B H 0.5322 0.3360 0.9853 0.111 Uiso 1 1 calc . . .
C14 C 0.4231(6) 0.2601(5) 1.0108(3) 0.0650(16) Uani 1 1 d . . .
C15 C 0.5291(6) 0.2537(5) 0.8911(3) 0.093(2) Uani 1 1 d . . .
H15A H 0.5310 0.2093 0.8572 0.111 Uiso 1 1 calc . . .
H15B H 0.6018 0.2834 0.9115 0.111 Uiso 1 1 calc . . .
C16 C 0.4802(6) 0.3174(5) 0.8751(3) 0.079(2) Uani 1 1 d . . .
C17 C 0.2460(6) 0.0171(5) 0.7962(3) 0.084(2) Uani 1 1 d . . .
H17A H 0.2759 -0.0259 0.7747 0.101 Uiso 1 1 calc . . .
H17B H 0.1701 -0.0095 0.7923 0.101 Uiso 1 1 calc . . .
C18 C 0.2647(6) 0.0929(5) 0.7767(3) 0.0736(18) Uani 1 1 d . . .
C19 C 0.2465(9) -0.0087(5) 0.8846(3) 0.114(3) Uani 1 1 d . . .
H19A H 0.2895 -0.0028 0.9204 0.137 Uiso 1 1 calc . . .
H19B H 0.2295 -0.0686 0.8604 0.137 Uiso 1 1 calc . . .
C110 C 0.1416(7) 0.0175(5) 0.8939(3) 0.084(2) Uani 1 1 d . . .
N11 N 0.4689(4) 0.2138(4) 0.9255(2) 0.0745(15) Uani 1 1 d . . .
N12 N 0.3011(5) 0.0508(3) 0.8581(2) 0.0741(14) Uani 1 1 d . . .
O11A O 0.3973(4) 0.3264(3) 0.8859(2) 0.0890(14) Uani 1 1 d . . .
N11A N 0.5320(5) 0.3608(5) 0.8472(2) 0.0968(19) Uani 1 1 d . . .
H11C H 0.5919 0.3519 0.8418 0.116 Uiso 1 1 calc R . .
C11A C 0.5015(4) 0.4232(3) 0.8237(2) 0.090(2) Uani 1 1 d G . .
C12A C 0.4163(4) 0.4570(4) 0.8327(2) 0.099(2) Uani 1 1 d G . .
H12C H 0.3712 0.4384 0.8558 0.119 Uiso 1 1 calc R . .
N12A N 0.3986(4) 0.5185(4) 0.8073(3) 0.127(3) Uani 1 1 d G . .
C13A C 0.4659(6) 0.5463(3) 0.7727(2) 0.167(5) Uani 1 1 d G . .
H13C H 0.4541 0.5874 0.7557 0.200 Uiso 1 1 calc R . .
C14A C 0.5511(5) 0.5126(4) 0.7637(2) 0.133(4) Uani 1 1 d G . .
H14A H 0.5962 0.5311 0.7406 0.159 Uiso 1 1 calc R . .
C15A C 0.5688(4) 0.4510(4) 0.7892(2) 0.110(3) Uani 1 1 d G . .
H15C H 0.6258 0.4285 0.7832 0.132 Uiso 1 1 calc R . .
O11B O 0.3260(4) 0.2231(3) 0.98116(17) 0.0767(12) Uani 1 1 d . . .
N11B N 0.4542(5) 0.2893(4) 1.0656(2) 0.0880(17) Uani 1 1 d . . .
H11D H 0.5210 0.3062 1.0804 0.106 Uiso 1 1 calc R . .
C11B C 0.3859(4) 0.2929(3) 1.09704(17) 0.086(2) Uani 1 1 d G . .
C12B C 0.3910(4) 0.2546(3) 1.14007(18) 0.094(2) Uani 1 1 d G . .
H12D H 0.4469 0.2317 1.1470 0.113 Uiso 1 1 calc R . .
N12B N 0.3125(5) 0.2506(3) 1.17267(16) 0.118(3) Uani 1 1 d G . .
C13B C 0.2289(4) 0.2849(4) 1.1622(2) 0.146(4) Uani 1 1 d G . .
H13D H 0.1764 0.2822 1.1840 0.175 Uiso 1 1 calc R . .
C14B C 0.2239(4) 0.3232(4) 1.1192(2) 0.107(3) Uani 1 1 d G . .
H14B H 0.1680 0.3461 1.1122 0.128 Uiso 1 1 calc R . .
C15B C 0.3024(5) 0.3272(3) 1.08661(18) 0.111(3) Uani 1 1 d G . .
H15D H 0.2990 0.3528 1.0578 0.133 Uiso 1 1 calc R . .
O11C O 0.2612(4) 0.1649(3) 0.80586(16) 0.0762(12) Uani 1 1 d . . .
N11C N 0.2845(4) 0.0853(4) 0.7269(2) 0.0777(16) Uani 1 1 d . . .
H11E H 0.2839 0.0350 0.7055 0.093 Uiso 1 1 calc R . .
N12C N 0.2488(4) 0.2684(3) 0.67979(19) 0.0661(13) Uani 1 1 d . . .
C11C C 0.3068(5) 0.1569(4) 0.7069(2) 0.0626(16) Uani 1 1 d . . .
C12C C 0.2332(5) 0.1986(4) 0.6976(2) 0.0646(16) Uani 1 1 d . . .
H12E H 0.1657 0.1762 0.7044 0.077 Uiso 1 1 calc R . .
C13C C 0.3411(5) 0.2940(5) 0.6703(2) 0.0675(17) Uani 1 1 d . . .
H13E H 0.3577 0.3433 0.6582 0.081 Uiso 1 1 calc R . .
C14C C 0.4198(6) 0.2533(5) 0.6766(3) 0.085(2) Uani 1 1 d . . .
H14C H 0.4856 0.2748 0.6676 0.102 Uiso 1 1 calc R . .
C15C C 0.4030(6) 0.1847(6) 0.6952(3) 0.094(2) Uani 1 1 d . . .
H15E H 0.4554 0.1573 0.6999 0.113 Uiso 1 1 calc R . .
O11D O 0.1374(4) 0.0894(4) 0.89198(19) 0.0862(13) Uani 1 1 d . . .
N11D N 0.0743(6) -0.0414(5) 0.9012(3) 0.118(3) Uani 1 1 d . . .
H11F H 0.0873 -0.0906 0.8976 0.142 Uiso 1 1 calc R . .
C11D C -0.0201(5) -0.0336(5) 0.9148(2) 0.149(5) Uani 1 1 d G . .
C12D C -0.0643(6) 0.0305(5) 0.9057(3) 0.150(4) Uani 1 1 d G . .
H12F H -0.0294 0.0703 0.8889 0.180 Uiso 1 1 calc R . .
N12D N -0.1606(6) 0.0352(6) 0.9217(3) 0.218(6) Uani 1 1 d G . .
C13D C -0.2126(5) -0.0243(7) 0.9468(3) 0.201(8) Uani 1 1 d G . .
H13F H -0.2771 -0.0212 0.9576 0.241 Uiso 1 1 calc R . .
C14D C -0.1684(7) -0.0885(6) 0.9559(3) 0.208(9) Uani 1 1 d G . .
H14D H -0.2033 -0.1283 0.9727 0.250 Uiso 1 1 calc R . .
C15D C -0.0722(7) -0.0932(4) 0.9399(3) 0.132(4) Uani 1 1 d G . .
H15F H -0.0426 -0.1361 0.9459 0.159 Uiso 1 1 calc R . .
C21 C -0.0378(5) 0.4246(4) 0.6295(3) 0.0690(17) Uani 1 1 d . . .
H21A H -0.0821 0.4601 0.6451 0.083 Uiso 1 1 calc . . .
H21B H -0.0022 0.4507 0.6037 0.083 Uiso 1 1 calc . . .
C22 C -0.1100(5) 0.3316(5) 0.5959(3) 0.0753(18) Uani 1 1 d . . .
H22A H -0.1561 0.3090 0.6194 0.090 Uiso 1 1 calc . . .
H22B H -0.1547 0.3335 0.5629 0.090 Uiso 1 1 calc . . .
C23 C 0.1419(5) 0.5079(4) 0.6990(3) 0.0765(18) Uani 1 1 d . . .
H23A H 0.1182 0.5578 0.6964 0.092 Uiso 1 1 calc . . .
H23B H 0.1723 0.5181 0.7383 0.092 Uiso 1 1 calc . . .
C24 C 0.2201(5) 0.4987(4) 0.6656(3) 0.0643(16) Uani 1 1 d . . .
C25 C 0.0031(5) 0.4186(4) 0.7251(2) 0.0639(16) Uani 1 1 d . . .
H25A H -0.0696 0.3805 0.7120 0.077 Uiso 1 1 calc . . .
H25B H 0.0006 0.4757 0.7470 0.077 Uiso 1 1 calc . . .
C26 C 0.0663(4) 0.3816(4) 0.7627(2) 0.0557(15) Uani 1 1 d . . .
C27 C -0.0137(5) 0.2867(4) 0.5295(2) 0.0717(18) Uani 1 1 d . . .
H27A H -0.0027 0.3470 0.5301 0.086 Uiso 1 1 calc . . .
H27B H -0.0671 0.2489 0.4964 0.086 Uiso 1 1 calc . . .
C28 C 0.0875(5) 0.2635(4) 0.5293(2) 0.0579(15) Uani 1 1 d . . .
C29 C -0.1066(5) 0.1791(4) 0.5673(2) 0.0673(16) Uani 1 1 d . . .
H29A H -0.1824 0.1696 0.5556 0.081 Uiso 1 1 calc . . .
H29B H -0.0824 0.1412 0.5381 0.081 Uiso 1 1 calc . . .
C210 C -0.0836(5) 0.1626(4) 0.6222(3) 0.0567(15) Uani 1 1 d . . .
N21 N 0.0484(3) 0.4264(3) 0.67885(19) 0.0570(12) Uani 1 1 d . . .
N22 N -0.0447(4) 0.2747(3) 0.57849(19) 0.0627(13) Uani 1 1 d . . .
O21A O 0.2230(3) 0.4236(3) 0.64464(19) 0.0743(12) Uani 1 1 d . . .
N21A N 0.2839(4) 0.5702(3) 0.6631(2) 0.0670(14) Uani 1 1 d . . .
H21C H 0.2677 0.6176 0.6767 0.080 Uiso 1 1 calc R . .
N22A N 0.5460(4) 0.6693(3) 0.6424(2) 0.0702(14) Uani 1 1 d . . .
C21A C 0.3721(5) 0.5775(4) 0.6417(2) 0.0663(16) Uani 1 1 d . . .
C22A C 0.4585(5) 0.6569(4) 0.6608(2) 0.0638(15) Uani 1 1 d . . .
H22C H 0.4505 0.7033 0.6888 0.077 Uiso 1 1 calc R . .
C23A C 0.5504(6) 0.6003(4) 0.6036(3) 0.080(2) Uani 1 1 d . . .
H23C H 0.6125 0.6041 0.5890 0.096 Uiso 1 1 calc R . .
C24A C 0.4689(6) 0.5217(4) 0.5824(3) 0.086(2) Uani 1 1 d . . .
H24A H 0.4804 0.4778 0.5538 0.103 Uiso 1 1 calc R . .
C25A C 0.3793(6) 0.5040(4) 0.5987(3) 0.088(2) Uani 1 1 d . . .
H25C H 0.3263 0.4507 0.5843 0.105 Uiso 1 1 calc R . .
O21B O 0.1387(3) 0.3527(3) 0.75063(15) 0.0636(10) Uani 1 1 d . . .
N21B N 0.0426(4) 0.3826(4) 0.8089(2) 0.0791(16) Uani 1 1 d . . .
H21D H -0.0002 0.4129 0.8185 0.095 Uiso 1 1 calc R . .
N22B N 0.1756(4) 0.2631(3) 0.89043(19) 0.0671(14) Uani 1 1 d . . .
C21B C 0.0733(5) 0.3421(4) 0.8503(3) 0.0689(17) Uani 1 1 d . . .
C22B C 0.1481(4) 0.2995(4) 0.8510(2) 0.0545(14) Uani 1 1 d . . .
H22D H 0.1845 0.2950 0.8212 0.065 Uiso 1 1 calc R . .
C23B C 0.1259(6) 0.2693(6) 0.9302(3) 0.086(2) Uani 1 1 d . . .
H23D H 0.1380 0.2434 0.9581 0.104 Uiso 1 1 calc R . .
C24B C 0.0530(7) 0.3155(6) 0.9316(3) 0.099(3) Uani 1 1 d . . .
H24B H 0.0206 0.3234 0.9629 0.119 Uiso 1 1 calc R . .
C25B C 0.0250(6) 0.3495(6) 0.8925(3) 0.094(2) Uani 1 1 d . . .
H25D H -0.0277 0.3779 0.8952 0.113 Uiso 1 1 calc R . .
O21C O 0.1400(3) 0.2533(3) 0.57060(17) 0.0738(12) Uani 1 1 d . . .
N21C N 0.1153(4) 0.2562(4) 0.4850(2) 0.0807(16) Uani 1 1 d . . .
H21E H 0.0711 0.2542 0.4562 0.097 Uiso 1 1 calc R . .
N22C N 0.3240(5) 0.2299(3) 0.4138(2) 0.0724(14) Uani 1 1 d . . .
C21C C 0.2219(5) 0.2507(4) 0.4780(2) 0.0657(17) Uani 1 1 d . . .
C22C C 0.2311(5) 0.2348(4) 0.4247(2) 0.0600(15) Uani 1 1 d . . .
H22E H 0.1743 0.2274 0.3963 0.072 Uiso 1 1 calc R . .
C23C C 0.4104(7) 0.2401(5) 0.4580(3) 0.092(2) Uani 1 1 d . . .
H23E H 0.4732 0.2324 0.4470 0.111 Uiso 1 1 calc R . .
C24C C 0.4095(7) 0.2590(7) 0.5118(3) 0.116(3) Uani 1 1 d . . .
H24C H 0.4684 0.2709 0.5402 0.139 Uiso 1 1 calc R . .
C25C C 0.3069(6) 0.2587(6) 0.5209(3) 0.093(2) Uani 1 1 d . . .
H25E H 0.2939 0.2641 0.5573 0.111 Uiso 1 1 calc R . .
O21D O 0.0008(3) 0.2116(2) 0.66287(16) 0.0590(9) Uani 1 1 d . . .
N21D N -0.1594(4) 0.0919(3) 0.62502(19) 0.0617(12) Uani 1 1 d . . .
H21F H -0.2155 0.0678 0.5987 0.074 Uiso 1 1 calc R . .
N22D N -0.2172(4) -0.0680(3) 0.6938(2) 0.0727(14) Uani 1 1 d . . .
C21D C -0.1472(4) 0.0584(4) 0.6696(2) 0.0557(14) Uani 1 1 d . . .
C22D C -0.2167(5) -0.0263(4) 0.6573(2) 0.0615(15) Uani 1 1 d . . .
H22F H -0.2628 -0.0524 0.6223 0.074 Uiso 1 1 calc R . .
C23D C -0.1510(6) -0.0266(5) 0.7469(3) 0.092(2) Uani 1 1 d . . .
H23F H -0.1564 -0.0551 0.7743 0.110 Uiso 1 1 calc R . .
C24D C -0.0729(7) 0.0602(5) 0.7615(3) 0.108(3) Uani 1 1 d . . .
H24D H -0.0232 0.0848 0.7953 0.130 Uiso 1 1 calc R . .
C25D C -0.0793(6) 0.1005(5) 0.7226(3) 0.091(2) Uani 1 1 d . . .
H25F H -0.0376 0.1581 0.7306 0.109 Uiso 1 1 calc R . .

loop_
_atom_site_aniso_label
_atom_site_aniso_U_11
_atom_site_aniso_U_22
_atom_site_aniso_U_33
_atom_site_aniso_U_23
_atom_site_aniso_U_13
_atom_site_aniso_U_12
Co1 0.0548(5) 0.0469(4) 0.0624(5) 0.0240(4) 0.0252(4) 0.0070(4)
Co2 0.0826(6) 0.0512(5) 0.0610(5) 0.0196(4) 0.0354(4) -0.0022(4)
C03 0.0880(6) 0.0674(5) 0.0534(5) 0.0234(4) 0.0274(4) 0.0221(5)
O1W 0.104(4) 0.098(4) 0.083(3) 0.029(3) 0.039(3) 0.025(3)
O2W 0.103(4) 0.081(3) 0.082(3) 0.019(3) 0.039(3) 0.007(3)
O3W 0.129(4) 0.065(3) 0.083(3) 0.025(2) 0.060(3) 0.005(3)
C11 0.113(6) 0.113(7) 0.094(6) 0.066(5) 0.027(5) 0.043(6)
C12 0.167(9) 0.084(5) 0.070(5) 0.035(4) 0.034(5) 0.062(6)
C13 0.116(6) 0.091(5) 0.074(5) 0.022(4) 0.032(4) 0.033(5)
C14 0.067(4) 0.081(5) 0.047(4) 0.019(3) 0.015(3) 0.021(4)
C15 0.108(6) 0.087(5) 0.100(5) 0.048(5) 0.042(4) 0.028(5)
C16 0.082(5) 0.098(6) 0.062(4) 0.033(4) 0.025(4) 0.022(5)
C17 0.122(6) 0.073(4) 0.076(4) 0.039(4) 0.038(4) 0.034(4)
C18 0.100(5) 0.081(5) 0.049(4) 0.020(4) 0.025(3) 0.039(4)
C19 0.187(9) 0.080(5) 0.084(5) 0.052(4) 0.032(6) 0.022(6)
C110 0.104(6) 0.073(5) 0.077(5) 0.031(4) 0.029(4) 0.014(5)
N11 0.094(4) 0.086(4) 0.056(3) 0.031(3) 0.034(3) 0.029(3)
N12 0.088(4) 0.065(3) 0.076(4) 0.026(3) 0.024(3) 0.027(3)
O11A 0.081(3) 0.109(4) 0.095(3) 0.046(3) 0.043(3) 0.031(3)
N11A 0.098(4) 0.120(5) 0.090(4) 0.057(4) 0.040(4) 0.026(4)
C11A 0.099(6) 0.073(5) 0.075(5) 0.026(4) 0.010(4) -0.019(4)
C12A 0.100(6) 0.082(5) 0.125(7) 0.055(5) 0.025(5) 0.017(5)
N12A 0.130(6) 0.080(5) 0.143(7) 0.021(5) -0.005(5) 0.009(5)
C13A 0.228(15) 0.125(9) 0.083(7) 0.010(6) 0.014(8) -0.030(10)
C14A 0.208(12) 0.099(7) 0.064(5) 0.039(5) 0.017(6) -0.014(7)
C15A 0.122(7) 0.128(7) 0.063(4) 0.024(5) 0.024(4) 0.012(6)
O11B 0.095(4) 0.081(3) 0.053(2) 0.020(2) 0.032(2) 0.016(3)
N11B 0.083(4) 0.113(5) 0.064(4) 0.031(3) 0.031(3) 0.011(4)
C11B 0.129(7) 0.073(5) 0.057(4) 0.024(4) 0.008(4) 0.03