
#######################################################################
#
#                 Cambridge Crystallographic Data Centre
#                                CCDC
#
#######################################################################
#
# If this CIF has been generated from an entry in the Cambridge
# Structural Database, then it will include bibliographic, chemical,
# crystal, experimental, refinement or atomic coordinate data resulting
# from the CCDC's data processing and validation procedures.
#
#######################################################################

data_CSD_CIF_HIWQEJ
_audit_creation_date 1999-06-22
_audit_creation_method CSD-ConQuest-V1
_database_code_CSD HIWQEJ
_database_code_depnum_ccdc_archive 'CCDC 105871; CCDC 410089'
_database_code_depnum_ccdc_fiz 'CSD 410089'
_chemical_formula_sum 'C1 H3 As1 F6 O3'
_chemical_formula_moiety
;
C1 H3 O3 1+,As1 F6 1-
;
_journal_coden_Cambridge 179
_journal_volume 38
_journal_year 1999
_journal_page_first 714
_journal_name_full 'Angew.Chem.,Int.Ed. '
loop_
_publ_author_name
"R.Minkwitz"
"S.Schneider"
_chemical_name_systematic
;
Trihydroxycarbenium hexafluoroarsenate
;
_chemical_name_common
;
Teaching Subset: Fundamental Chemistry
;
_chemical_melting_point ?
_cell_volume    636.056
_exptl_crystal_colour 'colorless'
_exptl_crystal_density_diffrn 2.631
_exptl_special_details
;
Decomposes above 257K
Moisture-sensitive

;
_exptl_crystal_description 'parallelepiped'
_diffrn_ambient_temperature 173
#These two values have been output from a single CSD field.
_refine_ls_R_factor_gt 0.027
_refine_ls_wR_factor_gt 0.027
_symmetry_cell_setting cubic
_symmetry_space_group_name_H-M 'P 21 3'
_symmetry_Int_Tables_number 198
loop_
_symmetry_equiv_pos_site_id
_symmetry_equiv_pos_as_xyz
1 x,y,z
2 1/2-x,-y,1/2+z
3 -x,1/2+y,1/2-z
4 1/2+x,1/2-y,-z
5 z,x,y
6 1/2+z,1/2-x,-y
7 1/2-z,-x,1/2+y
8 -z,1/2+x,1/2-y
9 y,z,x
10 -y,1/2+z,1/2-x
11 1/2+y,1/2-z,-x
12 1/2-y,-z,1/2+x
_cell_length_a 8.600(1)
_cell_length_b 8.600(1)
_cell_length_c 8.600(1)
_cell_angle_alpha 90
_cell_angle_beta 90
_cell_angle_gamma 90
_cell_formula_units_Z 4
loop_
_atom_type_symbol
_atom_type_radius_bond
C 0.68
H 0.23
As 1.21
F 0.64
O 0.68
loop_
_atom_site_label
_atom_site_type_symbol
_atom_site_fract_x
_atom_site_fract_y
_atom_site_fract_z
As1 As 0.88360(5) 0.88360(5) 0.88360(5)
F1 F 0.8717(4) 0.9003(4) 1.0826(3)
F2 F 0.8707(4) 0.6892(3) 0.9009(4)
C1 C 1.1164(5) 0.8836(5) 1.3836(5)
O1 O 1.1506(6) 0.9994(4) 1.3032(5)
H1 H 1.05740 0.97930 1.26100
F1D F 1.0826(4) 0.8717(4) 0.9003(3)
F1H F 0.9003(4) 1.0826(4) 0.8717(3)
F2D F 0.9009(4) 0.8707(3) 0.6892(4)
F2H F 0.6892(4) 0.9009(3) 0.8707(4)
O1F O 1.1968(6) 0.8494(4) 1.4994(5)
H1F H 1.23900 0.94260 1.47930
O1I O 1.0006(6) 0.8032(4) 1.3494(5)
H1I H 1.02070 0.76100 1.44260
#END
