####################################################################### 
# 
# This file contains crystal structure data downloaded from the 
# Cambridge Structural Database (CSD) hosted by the Cambridge 
# Crystallographic Data Centre (CCDC).
# 
# Full information about CCDC data access policies and citation 
# guidelines are available at http://www.ccdc.cam.ac.uk/access/V1 
# 
# Audit and citation data items may have been added by the CCDC. 
# Please retain this information to preserve the provenance of 
# this file and to allow appropriate attribution of the data. 
# 
#######################################################################

data_cun5mepz
_audit_block_doi                 10.5517/ccpr1t8
_database_code_depnum_ccdc_archive 'CCDC 647770'
loop_
_citation_id
_citation_doi
_citation_year
1 10.1002/ejic.200700881 2008
_audit_update_record             
;
2007-05-17 deposited with the CCDC.	2024-07-10 downloaded from the CCDC.
;

_audit_creation_method           SHELXL-97
_chemical_name_systematic        
;
?
;
_chemical_name_common            ?
_chemical_melting_point          ?
_chemical_formula_moiety         ?
_chemical_formula_sum            'C17 H23 Cl2 Cu N6 O10.50'
_chemical_formula_weight         613.85

loop_
_atom_type_symbol
_atom_type_description
_atom_type_scat_dispersion_real
_atom_type_scat_dispersion_imag
_atom_type_scat_source
C C 0.0033 0.0016 'International Tables Vol C Tables 4.2.6.8 and 6.1.1.4'
H H 0.0000 0.0000 'International Tables Vol C Tables 4.2.6.8 and 6.1.1.4'
N N 0.0061 0.0033 'International Tables Vol C Tables 4.2.6.8 and 6.1.1.4'
O O 0.0106 0.0060 'International Tables Vol C Tables 4.2.6.8 and 6.1.1.4'
Cl Cl 0.1484 0.1585 'International Tables Vol C Tables 4.2.6.8 and 6.1.1.4'
Cu Cu 0.3201 1.2651 'International Tables Vol C Tables 4.2.6.8 and 6.1.1.4'

_symmetry_cell_setting           Monoclinic
_symmetry_space_group_name_H-M   P2(1)/c

loop_
_symmetry_equiv_pos_as_xyz
'x, y, z'
'-x, y+1/2, -z+1/2'
'-x, -y, -z'
'x, -y-1/2, z-1/2'

_cell_length_a                   13.3794(9)
_cell_length_b                   17.8630(11)
_cell_length_c                   10.7329(7)
_cell_angle_alpha                90.00
_cell_angle_beta                 95.444(2)
_cell_angle_gamma                90.00
_cell_volume                     2553.6(3)
_cell_formula_units_Z            4
_cell_measurement_temperature    150(2)
_cell_measurement_reflns_used    3261
_cell_measurement_theta_min      2.22
_cell_measurement_theta_max      22.54

_exptl_crystal_description       plate
_exptl_crystal_colour            dark-green
_exptl_crystal_size_max          0.32
_exptl_crystal_size_mid          0.26
_exptl_crystal_size_min          0.10
_exptl_crystal_density_meas      not_measured
_exptl_crystal_density_diffrn    1.597
_exptl_crystal_density_method    'not measured'
_exptl_crystal_F_000             1256
_exptl_absorpt_coefficient_mu    1.129
_exptl_absorpt_correction_type   multi-scan
_exptl_absorpt_correction_T_min  0.7140
_exptl_absorpt_correction_T_max  0.8955
_exptl_absorpt_process_details   ?

_exptl_special_details           
;
?
;

_diffrn_ambient_temperature      150(2)
_diffrn_radiation_wavelength     0.71073
_diffrn_radiation_type           MoK\a
_diffrn_radiation_source         'fine-focus sealed tube'
_diffrn_radiation_monochromator  graphite
_diffrn_measurement_device_type  'BRUKER SMART APEXCCD area detector'
_diffrn_measurement_method       'omega scans'
_diffrn_detector_area_resol_mean ?
_diffrn_standards_number         ?
_diffrn_standards_interval_count ?
_diffrn_standards_interval_time  ?
_diffrn_standards_decay_%        ?
_diffrn_reflns_number            25143
_diffrn_reflns_av_R_equivalents  0.0548
_diffrn_reflns_av_sigmaI/netI    0.0532
_diffrn_reflns_limit_h_min       -17
_diffrn_reflns_limit_h_max       17
_diffrn_reflns_limit_k_min       -20
_diffrn_reflns_limit_k_max       23
_diffrn_reflns_limit_l_min       -13
_diffrn_reflns_limit_l_max       13
_diffrn_reflns_theta_min         1.53
_diffrn_reflns_theta_max         27.50
_reflns_number_total             5852
_reflns_number_gt                4439
_reflns_threshold_expression     >2sigma(I)

_computing_data_collection       'Bruker SMART'
_computing_cell_refinement       'Bruker SAINT'
_computing_data_reduction        'Bruker SAINT'
_computing_structure_solution    'SHELXS-97 (Sheldrick, 1990)'
_computing_structure_refinement  'SHELXL-97 (Sheldrick, 1997)'
_computing_molecular_graphics    'Bruker SHELXTL'
_computing_publication_material  'Bruker SHELXTL'

_refine_special_details          
;
Refinement of F^2^ against ALL reflections. The weighted R-factor wR and
goodness of fit S are based on F^2^, conventional R-factors R are based
on F, with F set to zero for negative F^2^. The threshold expression of
F^2^ > 2sigma(F^2^) is used only for calculating R-factors(gt) etc. and is
not relevant to the choice of reflections for refinement. R-factors based
on F^2^ are statistically about twice as large as those based on F, and R-
factors based on ALL data will be even larger.
;

_refine_ls_structure_factor_coef Fsqd
_refine_ls_matrix_type           full
_refine_ls_weighting_scheme      calc
_refine_ls_weighting_details     
'calc w=1/[\s^2^(Fo^2^)+(0.1355P)^2^+12.2212P] where P=(Fo^2^+2Fc^2^)/3'
_atom_sites_solution_primary     direct
_atom_sites_solution_secondary   difmap
_atom_sites_solution_hydrogens   geom
_refine_ls_hydrogen_treatment    constr
_refine_ls_extinction_method     none
_refine_ls_extinction_coef       ?
_refine_ls_number_reflns         5852
_refine_ls_number_parameters     322
_refine_ls_number_restraints     15
_refine_ls_R_factor_all          0.1141
_refine_ls_R_factor_gt           0.0904
_refine_ls_wR_factor_ref         0.2684
_refine_ls_wR_factor_gt          0.2467
_refine_ls_goodness_of_fit_ref   1.137
_refine_ls_restrained_S_all      1.195
_refine_ls_shift/su_max          0.001
_refine_ls_shift/su_mean         0.000

loop_
_atom_site_label
_atom_site_type_symbol
_atom_site_fract_x
_atom_site_fract_y
_atom_site_fract_z
_atom_site_U_iso_or_equiv
_atom_site_adp_type
_atom_site_occupancy
_atom_site_symmetry_multiplicity
_atom_site_calc_flag
_atom_site_refinement_flags
_atom_site_disorder_assembly
_atom_site_disorder_group
Cu1 Cu -0.24046(5) 0.12430(4) 0.15136(6) 0.0210(2) Uani 1 1 d . . .
O1 O -0.0901(3) 0.1439(3) 0.1632(5) 0.0351(11) Uani 1 1 d . . .
H1A H -0.0703 0.1832 0.2120 0.053 Uiso 1 1 d R . .
H1B H -0.0482 0.1425 0.1014 0.053 Uiso 1 1 d R . .
N1 N -0.2646(4) 0.2094(3) 0.0314(4) 0.0225(10) Uani 1 1 d . . .
N2 N -0.4008(4) 0.1481(3) -0.0786(4) 0.0236(10) Uani 1 1 d . . .
H2A H -0.4241 0.1344 -0.1546 0.028 Uiso 1 1 calc R . .
N3 N -0.3853(4) 0.0972(3) 0.1266(4) 0.0223(10) Uani 1 1 d . . .
N4 N -0.3720(4) 0.0454(3) 0.3292(5) 0.0270(11) Uani 1 1 d . . .
H4A H -0.3997 0.0534 0.3992 0.032 Uiso 1 1 calc R . .
N5 N -0.2141(4) 0.0332(3) 0.2543(5) 0.0245(10) Uani 1 1 d . . .
N6 N -0.2543(4) 0.3026(3) -0.1744(5) 0.0248(10) Uani 1 1 d . . .
C1 C -0.2014(5) 0.2691(3) 0.0341(5) 0.0257(12) Uani 1 1 d . . .
H1C H -0.1590 0.2789 0.1084 0.031 Uiso 1 1 calc R . .
C2 C -0.1968(5) 0.3149(3) -0.0653(5) 0.0258(12) Uani 1 1 d . . .
H2B H -0.1525 0.3566 -0.0587 0.031 Uiso 1 1 calc R . .
C3 C -0.3190(4) 0.2474(3) -0.1770(5) 0.0242(12) Uani 1 1 d . . .
H3A H -0.3611 0.2380 -0.2517 0.029 Uiso 1 1 calc R . .
C4 C -0.3277(4) 0.2015(3) -0.0713(5) 0.0228(11) Uani 1 1 d . . .
C5 C -0.4430(4) 0.1124(3) 0.0192(6) 0.0251(12) Uani 1 1 d . . .
C6 C -0.5444(5) 0.0947(4) 0.0017(6) 0.0313(14) Uani 1 1 d . . .
H6A H -0.5829 0.1056 -0.0751 0.038 Uiso 1 1 calc R . .
C7 C -0.5880(5) 0.0606(4) 0.0992(7) 0.0360(15) Uani 1 1 d . . .
H7A H -0.6572 0.0478 0.0899 0.043 Uiso 1 1 calc R . .
C8 C -0.5305(5) 0.0455(4) 0.2097(6) 0.0313(14) Uani 1 1 d . . .
H8A H -0.5597 0.0231 0.2778 0.038 Uiso 1 1 calc R . .
C9 C -0.4292(4) 0.0635(3) 0.2198(5) 0.0248(12) Uani 1 1 d . . .
C10 C -0.2752(4) 0.0161(3) 0.3414(5) 0.0235(12) Uani 1 1 d . . .
C11 C -0.2442(5) -0.0289(4) 0.4448(6) 0.0299(13) Uani 1 1 d . . .
H11A H -0.2879 -0.0368 0.5084 0.036 Uiso 1 1 calc R . .
C12 C -0.1515(5) -0.0614(4) 0.4543(6) 0.0328(14) Uani 1 1 d . . .
C13 C -0.0899(5) -0.0482(4) 0.3565(7) 0.0338(14) Uani 1 1 d . . .
H13A H -0.0263 -0.0720 0.3571 0.041 Uiso 1 1 calc R . .
C14 C -0.1228(5) -0.0011(4) 0.2615(6) 0.0316(14) Uani 1 1 d . . .
H14A H -0.0802 0.0082 0.1973 0.038 Uiso 1 1 calc R . .
C15 C -0.1151(6) -0.1110(4) 0.5617(7) 0.0437(18) Uani 1 1 d . . .
H15A H -0.1725 -0.1285 0.6040 0.066 Uiso 1 1 calc R . .
H15B H -0.0692 -0.0828 0.6210 0.066 Uiso 1 1 calc R . .
H15C H -0.0796 -0.1541 0.5304 0.066 Uiso 1 1 calc R . .
Cl1 Cl -0.14791(19) 0.05827(12) -0.1435(2) 0.0576(6) Uani 1 1 d D . .
O2 O -0.2039(3) 0.0473(3) -0.0418(4) 0.0365(11) Uani 1 1 d D A .
O3 O -0.1979(10) 0.0993(8) -0.2368(11) 0.064(3) Uiso 0.50 1 d PD A 1
O4 O -0.1151(11) -0.0050(6) -0.1986(13) 0.054(3) Uiso 0.50 1 d PD A 1
O5 O -0.0652(8) 0.0994(7) -0.0951(12) 0.062(3) Uiso 0.50 1 d PD A 1
O3' O -0.2224(12) 0.0300(11) -0.2302(15) 0.100 Uiso 0.50 1 d PD A 2
O4' O -0.0796(12) 0.0056(8) -0.1618(18) 0.079(5) Uiso 0.50 1 d PD A 2
O5' O -0.1599(11) 0.1264(6) -0.2011(13) 0.059(3) Uiso 0.50 1 d PD A 2
Cl2 Cl -0.5121(2) 0.14394(13) -0.42805(17) 0.0643(8) Uani 1 1 d D . .
O6 O -0.5393(4) 0.1386(4) -0.3063(4) 0.0493(14) Uani 1 1 d D B .
O7 O -0.5247(6) 0.0797(5) -0.4904(8) 0.095(3) Uani 1 1 d . B .
O8 O -0.4401(10) 0.1918(8) -0.4486(13) 0.063(3) Uiso 0.50 1 d PD B 1
O9 O -0.5968(9) 0.1719(9) -0.4969(15) 0.086(5) Uiso 0.50 1 d PD B 1
O8' O -0.4126(9) 0.1288(18) -0.413(3) 0.167(11) Uiso 0.50 1 d PD B 2
O9' O -0.4923(13) 0.2145(9) -0.4570(15) 0.074(4) Uiso 0.50 1 d P B 2
O1S O -0.0030(6) 0.2372(4) -0.2353(8) 0.084(2) Uani 1 1 d . . .
H1SA H 0.0537 0.2358 -0.2460 0.126 Uiso 1 1 d R . .
H1SB H -0.0188 0.1998 -0.2023 0.126 Uiso 1 1 d R . .
O2S O 0.1969(9) 0.2303(7) -0.2627(11) 0.057(3) Uiso 0.50 1 d PD . .
C1S C 0.1892(16) 0.1621(14) -0.065(2) 0.076(6) Uiso 0.50 1 d PD . .
H1SC H 0.2273 0.1312 -0.0050 0.114 Uiso 0.50 1 d PR . .
H1SD H 0.1685 0.2068 -0.0252 0.114 Uiso 0.50 1 d PR . .
H1SE H 0.1310 0.1352 -0.1001 0.114 Uiso 0.50 1 d PR . .
C2S C 0.2532(13) 0.1831(12) -0.1675(16) 0.069(5) Uiso 0.50 1 d PD . .
H2SA H 0.3132 0.2106 -0.1311 0.083 Uiso 0.50 1 calc PR . .
H2SB H 0.2762 0.1371 -0.2076 0.083 Uiso 0.50 1 calc PR . .
C3S C 0.2492(16) 0.2707(16) -0.357(2) 0.106(9) Uiso 0.50 1 d PD . .
H3SA H 0.2788 0.2352 -0.4137 0.127 Uiso 0.50 1 calc PR . .
H3SB H 0.3034 0.3025 -0.3157 0.127 Uiso 0.50 1 calc PR . .
C4S C 0.1695(17) 0.3180(13) -0.427(2) 0.079(6) Uiso 0.50 1 d PD . .
H4SA H 0.1987 0.3468 -0.4899 0.118 Uiso 0.50 1 d PR . .
H4SB H 0.1192 0.2852 -0.4664 0.118 Uiso 0.50 1 d PR . .
H4SC H 0.1393 0.3512 -0.3710 0.118 Uiso 0.50 1 d PR . .

loop_
_atom_site_aniso_label
_atom_site_aniso_U_11
_atom_site_aniso_U_22
_atom_site_aniso_U_33
_atom_site_aniso_U_23
_atom_site_aniso_U_13
_atom_site_aniso_U_12
Cu1 0.0213(4) 0.0247(4) 0.0171(4) 0.0024(3) 0.0016(3) 0.0004(3)
O1 0.024(2) 0.041(3) 0.040(3) 0.007(2) 0.0045(19) -0.0003(19)
N1 0.025(2) 0.024(3) 0.018(2) -0.0010(19) 0.0019(18) 0.0002(19)
N2 0.025(2) 0.031(3) 0.015(2) 0.0003(19) 0.0003(18) -0.006(2)
N3 0.022(2) 0.025(2) 0.020(2) -0.0002(19) 0.0028(18) 0.0006(19)
N4 0.027(3) 0.035(3) 0.020(2) 0.004(2) 0.0081(19) 0.001(2)
N5 0.027(2) 0.025(3) 0.023(2) 0.003(2) 0.0048(19) 0.004(2)
N6 0.025(2) 0.028(3) 0.021(2) 0.002(2) 0.0007(19) 0.001(2)
C1 0.030(3) 0.027(3) 0.019(3) -0.001(2) -0.002(2) -0.001(2)
C2 0.030(3) 0.025(3) 0.021(3) 0.001(2) -0.004(2) -0.004(2)
C3 0.027(3) 0.027(3) 0.018(3) 0.000(2) -0.003(2) 0.001(2)
C4 0.026(3) 0.026(3) 0.016(3) -0.003(2) 0.001(2) 0.001(2)
C5 0.024(3) 0.030(3) 0.022(3) 0.000(2) 0.001(2) -0.001(2)
C6 0.024(3) 0.040(4) 0.029(3) 0.007(3) -0.002(2) -0.003(3)
C7 0.027(3) 0.041(4) 0.040(4) 0.007(3) 0.003(3) -0.007(3)
C8 0.027(3) 0.038(4) 0.030(3) 0.003(3) 0.007(2) -0.003(3)
C9 0.025(3) 0.030(3) 0.020(3) -0.001(2) 0.007(2) 0.000(2)
C10 0.030(3) 0.021(3) 0.020(3) -0.002(2) 0.002(2) -0.003(2)
C11 0.037(3) 0.030(3) 0.023(3) 0.003(2) 0.003(2) -0.005(3)
C12 0.040(4) 0.026(3) 0.031(3) 0.004(3) -0.004(3) -0.003(3)
C13 0.032(3) 0.033(3) 0.036(4) 0.005(3) 0.001(3) 0.005(3)
C14 0.028(3) 0.033(3) 0.034(3) 0.004(3) 0.008(3) 0.004(3)
C15 0.049(4) 0.045(4) 0.036(4) 0.017(3) 0.000(3) 0.005(3)
Cl1 0.0844(16) 0.0421(11) 0.0534(12) -0.0032(9) 0.0431(12) 0.0097(10)
O2 0.034(2) 0.040(3) 0.037(3) -0.008(2) 0.010(2) -0.006(2)
Cl2 0.117(2) 0.0530(12) 0.0226(9) -0.0006(8) 0.0068(10) -0.0454(13)
O6 0.042(3) 0.080(4) 0.024(2) 0.004(3) -0.002(2) -0.010(3)
O7 0.105(6) 0.103(6) 0.088(5) -0.053(5) 0.066(5) -0.068(5)
O1S 0.078(5) 0.057(4) 0.111(6) 0.015(4) -0.021(4) 0.002(4)

_geom_special_details            
;
All esds (except the esd in the dihedral angle between two l.s. planes)
are estimated using the full covariance matrix. The cell esds are taken
into account individually in the estimation of esds in distances, angles
and torsion angles; correlations between esds in cell parameters are only
used when they are defined by crystal symmetry. An approximate (isotropic)
treatment of cell esds is used for estimating esds involving l.s. planes.
;

loop_
_geom_bond_atom_site_label_1
_geom_bond_atom_site_label_2
_geom_bond_distance
_geom_bond_site_symmetry_2
_geom_bond_publ_flag
Cu1 N5 1.980(5) . ?
Cu1 N3 1.990(5) . ?
Cu1 N1 1.999(5) . ?
Cu1 O1 2.033(5) . ?
Cu1 N6 2.303(5) 4_566 ?
Cu1 O2 2.574(5) . ?
N1 C4 1.331(7) . ?
N1 C1 1.360(8) . ?
N2 C4 1.362(8) . ?
N2 C5 1.392(7) . ?
N3 C9 1.350(7) . ?
N3 C5 1.353(8) . ?
N4 C9 1.378(8) . ?
N4 C10 1.391(8) . ?
N5 C10 1.334(7) . ?
N5 C14 1.362(8) . ?
N6 C3 1.311(8) . ?
N6 C2 1.356(7) . ?
N6 Cu1 2.303(5) 4_565 ?
C1 C2 1.350(8) . ?
C3 C4 1.414(8) . ?
C5 C6 1.388(8) . ?
C6 C7 1.387(9) . ?
C7 C8 1.377(10) . ?
C8 C9 1.386(8) . ?
C10 C11 1.400(8) . ?
C11 C12 1.364(10) . ?
C12 C13 1.415(10) . ?
C12 C15 1.499(9) . ?
C13 C14 1.363(9) . ?
Cl1 O4' 1.339(9) . ?
Cl1 O3 1.364(9) . ?
Cl1 O5' 1.367(8) . ?
Cl1 O4 1.367(8) . ?
Cl1 O5 1.387(9) . ?
Cl1 O3' 1.393(10) . ?
Cl1 O2 1.395(4) . ?
Cl2 O8 1.322(9) . ?
Cl2 O9' 1.330(16) . ?
Cl2 O7 1.331(7) . ?
Cl2 O8' 1.354(10) . ?
Cl2 O9 1.385(9) . ?
Cl2 O6 1.393(5) . ?
O2S C3S 1.470(10) . ?
O2S C2S 1.474(10) . ?
C1S C2S 1.502(10) . ?
C1S C4S 1.57(3) 4_566 ?
C3S C4S 1.507(10) . ?
C4S C1S 1.57(3) 4_565 ?

loop_
_geom_angle_atom_site_label_1
_geom_angle_atom_site_label_2
_geom_angle_atom_site_label_3
_geom_angle
_geom_angle_site_symmetry_1
_geom_angle_site_symmetry_3
_geom_angle_publ_flag
N5 Cu1 N3 89.7(2) . . ?
N5 Cu1 N1 173.8(2) . . ?
N3 Cu1 N1 90.1(2) . . ?
N5 Cu1 O1 89.1(2) . . ?
N3 Cu1 O1 174.1(2) . . ?
N1 Cu1 O1 90.45(19) . . ?
N5 Cu1 N6 92.11(19) . 4_566 ?
N3 Cu1 N6 95.41(18) . 4_566 ?
N1 Cu1 N6 94.07(19) . 4_566 ?
O1 Cu1 N6 90.39(19) . 4_566 ?
N5 Cu1 O2 88.44(18) . . ?
N3 Cu1 O2 91.12(17) . . ?
N1 Cu1 O2 85.38(18) . . ?
O1 Cu1 O2 83.09(18) . . ?
N6 Cu1 O2 173.44(16) 4_566 . ?
C4 N1 C1 116.5(5) . . ?
C4 N1 Cu1 120.2(4) . . ?
C1 N1 Cu1 121.3(4) . . ?
C4 N2 C5 128.1(5) . . ?
C9 N3 C5 117.9(5) . . ?
C9 N3 Cu1 119.7(4) . . ?
C5 N3 Cu1 122.3(4) . . ?
C9 N4 C10 127.2(5) . . ?
C10 N5 C14 117.6(5) . . ?
C10 N5 Cu1 119.4(4) . . ?
C14 N5 Cu1 120.8(4) . . ?
C3 N6 C2 117.3(5) . . ?
C3 N6 Cu1 120.9(4) . 4_565 ?
C2 N6 Cu1 121.8(4) . 4_565 ?
C2 C1 N1 122.2(5) . . ?
C1 C2 N6 121.3(6) . . ?
N6 C3 C4 121.6(5) . . ?
N1 C4 N2 121.2(5) . . ?
N1 C4 C3 120.6(5) . . ?
N2 C4 C3 118.3(5) . . ?
N3 C5 C6 122.7(6) . . ?
N3 C5 N2 119.6(5) . . ?
C6 C5 N2 117.7(5) . . ?
C7 C6 C5 118.4(6) . . ?
C8 C7 C6 119.6(6) . . ?
C7 C8 C9 119.0(6) . . ?
N3 C9 N4 119.4(5) . . ?
N3 C9 C8 122.4(6) . . ?
N4 C9 C8 118.2(5) . . ?
N5 C10 N4 118.3(5) . . ?
N5 C10 C11 122.1(6) . . ?
N4 C10 C11 119.6(5) . . ?
C12 C11 C10 120.2(6) . . ?
C11 C12 C13 117.6(6) . . ?
C11 C12 C15 122.4(6) . . ?
C13 C12 C15 119.9(6) . . ?
C14 C13 C12 119.2(6) . . ?
N5 C14 C13 123.0(6) . . ?
O4' Cl1 O3 124.3(10) . . ?
O4' Cl1 O5' 127.7(10) . . ?
O3 Cl1 O5' 33.0(7) . . ?
O4' Cl1 O4 26.4(8) . . ?
O3 Cl1 O4 106.4(9) . . ?
O5' Cl1 O4 124.7(8) . . ?
O4' Cl1 O5 84.0(10) . . ?
O3 Cl1 O5 108.0(9) . . ?
O5' Cl1 O5 75.7(9) . . ?
O4 Cl1 O5 108.8(9) . . ?
O4' Cl1 O3' 95.9(12) . . ?
O3 Cl1 O3' 55.5(10) . . ?
O5' Cl1 O3' 88.6(10) . . ?
O4 Cl1 O3' 69.5(10) . . ?
O5 Cl1 O3' 159.6(10) . . ?
O4' Cl1 O2 116.1(8) . . ?
O3 Cl1 O2 112.8(7) . . ?
O5' Cl1 O2 115.5(6) . . ?
O4 Cl1 O2 116.1(6) . . ?
O5 Cl1 O2 104.5(6) . . ?
O3' Cl1 O2 93.9(9) . . ?
Cl1 O2 Cu1 135.4(3) . . ?
O8 Cl2 O9' 35.3(8) . . ?
O8 Cl2 O7 122.2(7) . . ?
O9' Cl2 O7 135.8(8) . . ?
O8 Cl2 O8' 55.0(13) . . ?
O9' Cl2 O8' 90.2(15) . . ?
O7 Cl2 O8' 88.0(14) . . ?
O8 Cl2 O9 104.4(10) . . ?
O9' Cl2 O9 72.8(10) . . ?
O7 Cl2 O9 89.1(9) . . ?
O8' Cl2 O9 151.9(16) . . ?
O8 Cl2 O6 117.4(7) . . ?
O9' Cl2 O6 111.0(8) . . ?
O7 Cl2 O6 112.4(4) . . ?
O8' Cl2 O6 102.2(14) . . ?
O9 Cl2 O6 104.6(8) . . ?
C3S O2S C2S 120.7(13) . . ?
C2S C1S C4S 142(2) . 4_566 ?
O2S C2S C1S 111.1(15) . . ?
O2S C3S C4S 105.0(16) . . ?
C3S C4S C1S 115.3(19) . 4_565 ?

_diffrn_measured_fraction_theta_max 1.000
_diffrn_reflns_theta_full        27.50
_diffrn_measured_fraction_theta_full 1.000
_refine_diff_density_max         2.124
_refine_diff_density_min         -2.088
_refine_diff_density_rms         0.179
