####################################################################### 
# 
# This file contains crystal structure data downloaded from the 
# Cambridge Structural Database (CSD) hosted by the Cambridge 
# Crystallographic Data Centre (CCDC).
# 
# Full information about CCDC data access policies and citation 
# guidelines are available at http://www.ccdc.cam.ac.uk/access/V1 
# 
# Audit and citation data items may have been added by the CCDC. 
# Please retain this information to preserve the provenance of 
# this file and to allow appropriate attribution of the data. 
# 
#######################################################################

data_mof-ako-147
_audit_block_doi                 10.5517/ccq9f9q
_database_code_depnum_ccdc_archive 'CCDC 664463'
loop_
_citation_id
_citation_doi
_citation_year
1 10.1002/ejic.200701335 2008
_audit_update_record             
;
2007-10-16 deposited with the CCDC.	2024-07-10 downloaded from the CCDC.
;

_audit_creation_method           SHELXL-97
_chemical_name_systematic        
;
?
;
_chemical_name_common            
;
catena-(tris(mu4-9,10-triptycenedicarboxylato)-bis(mu2-9,10-
triptycenedicarboxylato)-bis-dizinc, diethylformamide solvate, zinc
hydroxide clatrate)
;
_chemical_formula_sum            'C41.67 H31 N O7.75 Zn1.38'
_chemical_formula_weight         759.56

loop_
_atom_type_symbol
_atom_type_description
_atom_type_scat_dispersion_real
_atom_type_scat_dispersion_imag
_atom_type_scat_source
C C 0.0181 0.0091 'International Tables Vol C Tables 4.2.6.8 and 6.1.1.4'
H H 0.0000 0.0000 'International Tables Vol C Tables 4.2.6.8 and 6.1.1.4'
N N 0.0311 0.0180 'International Tables Vol C Tables 4.2.6.8 and 6.1.1.4'
O O 0.0492 0.0322 'International Tables Vol C Tables 4.2.6.8 and 6.1.1.4'
Zn Zn -1.5491 0.6778 'International Tables Vol C Tables 4.2.6.8 and 6.1.1.4'

_symmetry_cell_setting           hexagonal
_symmetry_space_group_name_H-M   P6/m

loop_
_symmetry_equiv_pos_as_xyz
'x, y, z'
'-y, x-y, z'
'-x+y, -x, z'
'-x, -y, z'
'y, -x+y, z'
'x-y, x, z'
'-x, -y, -z'
'y, -x+y, -z'
'x-y, x, -z'
'x, y, -z'
'-y, x-y, -z'
'-x+y, -x, -z'

_cell_length_a                   33.9418(7)
_cell_length_b                   33.9418(7)
_cell_length_c                   14.2185(6)
_cell_angle_alpha                90.00
_cell_angle_beta                 90.00
_cell_angle_gamma                120.00
_cell_volume                     14185.8(7)
_cell_formula_units_Z            12
_cell_measurement_temperature    100
_cell_measurement_reflns_used    31551
_cell_measurement_theta_min      3.0050
_cell_measurement_theta_max      65.5209

_exptl_crystal_description       'hexagonal block'
_exptl_crystal_colour            colorless
_exptl_crystal_size_max          0.2
_exptl_crystal_size_mid          0.1
_exptl_crystal_size_min          0.1
_exptl_crystal_density_meas      ?
_exptl_crystal_density_diffrn    1.067
_exptl_crystal_density_method    'not measured'
_exptl_crystal_F_000             4695
_exptl_absorpt_coefficient_mu    1.264
_exptl_absorpt_correction_T_min  0.84776
_exptl_absorpt_correction_T_max  1.00000
_exptl_absorpt_correction_type   multi-scan
_exptl_absorpt_process_details   
;
CrysAlis RED, Oxford Diffraction Ltd.,
Version 1.171.31.8 (release 12-01-2007 CrysAlis171 .NET)
(compiled Jan 12 2007,17:49:11)
Empirical absorption correction using spherical harmonics,
implemented in SCALE3 ABSPACK scaling algorithm.
;

_exptl_special_details           
;
?
;

_diffrn_ambient_temperature      100
_diffrn_radiation_wavelength     1.54178
_diffrn_radiation_type           CuK\a
_diffrn_radiation_source         'Enhance (Cu) X-ray Source'
_diffrn_radiation_monochromator  graphite
_diffrn_measurement_device_type  'Oxford Diffraction Gemini R Ultra'
_diffrn_measurement_method       'phi and omega scans'
_diffrn_detector_area_resol_mean 10.3993
_diffrn_reflns_number            28120
_diffrn_reflns_av_R_equivalents  0.0000
_diffrn_reflns_av_sigmaI/netI    0.0162
_diffrn_reflns_limit_h_min       -34
_diffrn_reflns_limit_h_max       0
_diffrn_reflns_limit_k_min       0
_diffrn_reflns_limit_k_max       40
_diffrn_reflns_limit_l_min       0
_diffrn_reflns_limit_l_max       16
_diffrn_reflns_theta_min         3.01
_diffrn_reflns_theta_max         66.04
_reflns_number_total             8571
_reflns_number_gt                7017
_reflns_threshold_expression     >2sigma(I)

_computing_data_collection       
;
CrysAlis CCD, Oxford Diffraction Ltd.,
Version 1.171.31.8 (release 12-01-2007 CrysAlis171 .NET)
(compiled Jan 12 2007,17:49:11)
;
_computing_cell_refinement       
;
CrysAlis RED, Oxford Diffraction Ltd.,
Version 1.171.31.8 (release 12-01-2007 CrysAlis171 .NET)
(compiled Jan 12 2007,17:49:11)
;
_computing_data_reduction        
;
CrysAlis RED, Oxford Diffraction Ltd.,
Version 1.171.31.8 (release 12-01-2007 CrysAlis171 .NET)
(compiled Jan 12 2007,17:49:11)
;
_computing_structure_solution    'SHELXS-97 (Sheldrick, 1990)'
_computing_structure_refinement  'SHELXL-97 (Sheldrick, 1997)'
_computing_molecular_graphics    'Bruker SHELXTL'
_computing_publication_material  'Bruker SHELXTL'

_refine_special_details          
;
Refinement of F^2^ against ALL reflections. The weighted R-factor wR and
goodness of fit S are based on F^2^, conventional R-factors R are based
on F, with F set to zero for negative F^2^. The threshold expression of
F^2^ > 2sigma(F^2^) is used only for calculating R-factors(gt) etc. and is
not relevant to the choice of reflections for refinement. R-factors based
on F^2^ are statistically about twice as large as those based on F, and R-
factors based on ALL data will be even larger.
;

_refine_ls_structure_factor_coef Fsqd
_refine_ls_matrix_type           full
_refine_ls_weighting_scheme      calc
_refine_ls_weighting_details     
'calc w=1/[\s^2^(Fo^2^)+(0.1605P)^2^+2.9078P] where P=(Fo^2^+2Fc^2^)/3'
_atom_sites_solution_primary     direct
_atom_sites_solution_secondary   difmap
_atom_sites_solution_hydrogens   geom
_refine_ls_hydrogen_treatment    mixed
_refine_ls_extinction_method     none
_refine_ls_extinction_coef       ?
_refine_ls_number_reflns         8571
_refine_ls_number_parameters     505
_refine_ls_number_restraints     10
_refine_ls_R_factor_all          0.0821
_refine_ls_R_factor_gt           0.0746
_refine_ls_wR_factor_ref         0.2590
_refine_ls_wR_factor_gt          0.2472
_refine_ls_goodness_of_fit_ref   1.317
_refine_ls_restrained_S_all      1.374
_refine_ls_shift/su_max          2.260
_refine_ls_shift/su_mean         0.067

loop_
_atom_site_label
_atom_site_type_symbol
_atom_site_fract_x
_atom_site_fract_y
_atom_site_fract_z
_atom_site_U_iso_or_equiv
_atom_site_adp_type
_atom_site_occupancy
_atom_site_symmetry_multiplicity
_atom_site_calc_flag
_atom_site_refinement_flags
_atom_site_disorder_assembly
_atom_site_disorder_group
Zn1 Zn 0.340256(9) 0.079653(9) 0.62148(2) 0.03348(9) Uani 1 1 d . . .
Zn2 Zn 0.6667 0.3333 0.36903(6) 0.0634(2) Uani 1 3 d SD . .
Zn3 Zn 0.0000 0.0000 0.0000 0.0715(10) Uani 0.50 12 d SP . .
O1 O 0.32122(6) 0.12296(5) 0.57839(12) 0.0480(4) Uani 1 1 d . . .
O2 O 0.27804(5) 0.29731(5) 0.42122(12) 0.0453(4) Uani 1 1 d . . .
O3 O 0.40331(5) 0.10776(6) 0.57848(13) 0.0475(5) Uani 1 1 d . . .
O4 O 0.62474(6) 0.27262(6) 0.42188(15) 0.0583(6) Uani 1 1 d D . .
O5 O 0.33526(6) 0.08823(6) 0.75496(14) 0.0503(5) Uani 1 1 d . . .
O6 O 0.36732(7) 0.04584(7) 0.76078(14) 0.0610(5) Uani 1 1 d . . .
O7 O 0.67733(11) 0.30655(10) 0.2508(2) 0.102(3) Uiso 0.33 1 d PD . .
O7' O 0.65317(11) 0.35623(11) 0.2522(2) 0.096 Uiso 0.33 1 d PD . .
C1 C 0.31657(10) 0.18215(11) 0.5000 0.0361(8) Uani 1 2 d S . .
C2 C 0.26522(10) 0.16630(11) 0.5000 0.0369(8) Uani 1 2 d S . .
C3 C 0.22984(12) 0.12235(12) 0.5000 0.0469(9) Uani 1 2 d S . .
H3A H 0.2357 0.0978 0.5000 0.056 Uiso 1 2 calc SR . .
C4 C 0.18532(13) 0.11378(14) 0.5000 0.0583(12) Uani 1 2 d S . .
H4A H 0.1607 0.0833 0.5000 0.070 Uiso 1 2 calc SR . .
C5 C 0.17684(13) 0.14918(14) 0.5000 0.0603(12) Uani 1 2 d S . .
H5A H 0.1463 0.1432 0.5000 0.072 Uiso 1 2 calc SR . .
C6 C 0.21253(11) 0.19383(12) 0.5000 0.0473(9) Uani 1 2 d S . .
H6A H 0.2064 0.2182 0.5000 0.057 Uiso 1 2 calc SR . .
C7 C 0.25633(11) 0.20269(11) 0.5000 0.0409(8) Uani 1 2 d S . .
C8 C 0.29959(10) 0.24935(11) 0.5000 0.0371(8) Uani 1 2 d S . .
C9 C 0.32807(7) 0.24987(8) 0.58570(17) 0.0371(6) Uani 1 1 d . . .
C10 C 0.34650(8) 0.28346(9) 0.6547(2) 0.0465(6) Uani 1 1 d . . .
H10A H 0.3407 0.3081 0.6539 0.056 Uiso 1 1 calc R . .
C11 C 0.37353(9) 0.28040(9) 0.72499(19) 0.0512(7) Uani 1 1 d . . .
H11A H 0.3861 0.3029 0.7729 0.061 Uiso 1 1 calc R . .
C12 C 0.38214(8) 0.24452(9) 0.72500(19) 0.0492(7) Uani 1 1 d . . .
H12A H 0.4004 0.2425 0.7732 0.059 Uiso 1 1 calc R . .
C13 C 0.36443(8) 0.21182(8) 0.65565(18) 0.0430(6) Uani 1 1 d . . .
H13A H 0.3710 0.1877 0.6557 0.052 Uiso 1 1 calc R . .
C14 C 0.33689(7) 0.21404(8) 0.58518(16) 0.0370(5) Uani 1 1 d . . .
C15 C 0.32100(11) 0.14028(11) 0.5000 0.0390(8) Uani 1 2 d S . .
C16 C 0.28471(10) 0.28473(11) 0.5000 0.0397(8) Uani 1 2 d S . .
C17 C 0.47417(11) 0.15051(11) 0.5000 0.0374(8) Uani 1 2 d S . .
C18 C 0.48123(11) 0.19875(11) 0.5000 0.0380(8) Uani 1 2 d S . .
C19 C 0.44786(11) 0.21026(11) 0.5000 0.0453(9) Uani 1 2 d S . .
H19A H 0.4167 0.1873 0.5000 0.054 Uiso 1 2 calc SR . .
C20 C 0.46028(12) 0.25658(12) 0.5000 0.0542(11) Uani 1 2 d S . .
H20A H 0.4374 0.2649 0.5000 0.065 Uiso 1 2 calc SR . .
C21 C 0.50472(14) 0.28913(13) 0.5000 0.0648(13) Uani 1 2 d S . .
H21A H 0.5127 0.3202 0.5000 0.078 Uiso 1 2 calc SR . .
C22 C 0.53961(14) 0.27790(13) 0.5000 0.0597(12) Uani 1 2 d S . .
H22A H 0.5708 0.3010 0.5000 0.072 Uiso 1 2 calc SR . .
C23 C 0.52702(11) 0.23229(12) 0.5000 0.0424(9) Uani 1 2 d S . .
C24 C 0.55979(11) 0.21387(11) 0.5000 0.0419(9) Uani 1 2 d S . .
C25 C 0.54701(8) 0.18111(8) 0.41601(18) 0.0425(6) Uani 1 1 d . . .
C26 C 0.57699(9) 0.18006(10) 0.3509(2) 0.0515(7) Uani 1 1 d . . .
H26A H 0.6080 0.2035 0.3502 0.062 Uiso 1 1 calc R . .
C27 C 0.56103(9) 0.14407(10) 0.2864(2) 0.0574(7) Uani 1 1 d . . .
H27A H 0.5811 0.1430 0.2414 0.069 Uiso 1 1 calc R . .
C28 C 0.51565(10) 0.10991(10) 0.2887(2) 0.0587(8) Uani 1 1 d . . .
H28A H 0.5052 0.0852 0.2460 0.070 Uiso 1 1 calc R . .
C29 C 0.48558(9) 0.11131(9) 0.3517(2) 0.0490(7) Uani 1 1 d . . .
H29A H 0.4545 0.0882 0.3512 0.059 Uiso 1 1 calc R . .
C30 C 0.50108(8) 0.14691(8) 0.41630(17) 0.0408(6) Uani 1 1 d . . .
C31 C 0.42294(10) 0.11804(10) 0.5000 0.0384(8) Uani 1 2 d S . .
C32 C 0.60790(12) 0.25566(12) 0.5000 0.0482(10) Uani 1 2 d S . .
C33 C 0.35692(9) 0.07445(8) 0.90750(18) 0.0434(6) Uani 1 1 d . . .
C34 C 0.35353(8) 0.11480(9) 0.95108(18) 0.0455(7) Uani 1 1 d . . .
C35 C 0.35374(9) 0.15047(9) 0.9031(2) 0.0514(7) Uani 1 1 d . . .
H35A H 0.3535 0.1504 0.8362 0.062 Uiso 1 1 calc R . .
C36 C 0.35428(11) 0.18630(10) 0.9517(2) 0.0601(8) Uani 1 1 d . . .
H36A H 0.3543 0.2081 0.9085 0.090 Uiso 1 1 d R . .
C37 C 0.40037(8) 0.07953(8) 0.95043(18) 0.0447(6) Uani 1 1 d . . .
C38 C 0.43897(10) 0.08706(11) 0.9025(2) 0.0584(8) Uani 1 1 d . . .
H38A H 0.4393 0.0878 0.8357 0.070 Uiso 1 1 calc R . .
C39 C 0.47684(11) 0.09350(13) 0.9505(3) 0.0739(10) Uani 1 1 d . . .
H39A H 0.5004 0.0977 0.9073 0.111 Uiso 1 1 d R . .
C40 C 0.31721(8) 0.03234(8) 0.95132(19) 0.0426(6) Uani 1 1 d . . .
C41 C 0.28282(10) -0.00421(9) 0.9021(2) 0.0539(8) Uani 1 1 d . . .
H41A H 0.2826 -0.0043 0.8353 0.065 Uiso 1 1 calc R . .
C42 C 0.24929(12) -0.04004(11) 0.9513(3) 0.0706(11) Uani 1 1 d . . .
H42A H 0.2281 -0.0627 0.9087 0.106 Uiso 1 1 d R . .
C43 C 0.35393(8) 0.06960(9) 0.79963(18) 0.0444(7) Uani 1 1 d . . .
C44 C 0.6667 0.3333 0.11009(19) 0.106(3) Uani 1 3 d SD . .
C45 C 0.63875(16) 0.28679(16) 0.0471(3) 0.0921(13) Uani 1 1 d . . .
C46 C 0.61123(17) 0.24485(16) 0.0983(3) 0.0973(15) Uani 1 1 d . . .
H46A H 0.6096 0.2449 0.1650 0.117 Uiso 1 1 calc R . .
C47 C 0.58727(19) 0.20453(18) 0.0482(4) 0.1121(17) Uani 1 1 d . . .
H47A H 0.5713 0.1797 0.0911 0.168 Uiso 1 1 d R . .
C48 C 0.6667 0.3333 0.2144(3) 0.149(5) Uani 1 3 d SD . .
O1LA O 0.10294(17) 0.12516(19) 0.1292(6) 0.201(3) Uani 1 1 d . . .
N1LA N 0.11901(14) 0.19939(15) 0.1479(4) 0.1226(17) Uani 1 1 d . . .
C1LA C 0.0920(2) 0.1559(2) 0.1296(5) 0.130(2) Uani 1 1 d . . .
H1LA H 0.0612 0.1465 0.1153 0.156 Uiso 1 1 calc R . .
C2LA C 0.16753(17) 0.21793(18) 0.1601(5) 0.1135(19) Uani 1 1 d . . .
H2LA H 0.1835 0.2509 0.1460 0.136 Uiso 1 1 calc R . .
H2LB H 0.1783 0.2032 0.1149 0.136 Uiso 1 1 calc R . .
C3LA C 0.17938(19) 0.2109(2) 0.2589(5) 0.135(2) Uani 1 1 d . . .
H3LA H 0.1567 0.2098 0.3030 0.202 Uiso 1 1 calc R . .
H3LA H 0.2095 0.2361 0.2759 0.202 Uiso 1 1 calc R . .
H3LA H 0.1796 0.1821 0.2619 0.202 Uiso 1 1 calc R . .
C4LA C 0.10040(19) 0.23004(19) 0.1470(4) 0.1160(17) Uani 1 1 d . . .
H4LA H 0.0683 0.2128 0.1263 0.139 Uiso 1 1 calc R . .
H4LB H 0.1174 0.2544 0.1003 0.139 Uiso 1 1 calc R . .
C5LA C 0.1025(2) 0.25122(18) 0.2394(4) 0.1144(17) Uani 1 1 d . . .
H5LA H 0.0911 0.2278 0.2884 0.172 Uiso 1 1 calc R . .
H5LA H 0.0838 0.2657 0.2376 0.172 Uiso 1 1 calc R . .
H5LA H 0.1341 0.2742 0.2534 0.172 Uiso 1 1 calc R . .
O1W O 0.0242(7) 0.0566(7) 0.0717(16) 0.045(5) Uiso 0.08 1 d P . .

loop_
_atom_site_aniso_label
_atom_site_aniso_U_11
_atom_site_aniso_U_22
_atom_site_aniso_U_33
_atom_site_aniso_U_23
_atom_site_aniso_U_13
_atom_site_aniso_U_12
Zn1 0.03969(13) 0.03381(13) 0.02578(18) -0.00076(10) -0.00101(11) 0.01752(10)
Zn2 0.0447(2) 0.0447(2) 0.1009(6) 0.000 0.000 0.02237(10)
Zn3 0.0398(7) 0.0398(7) 0.135(3) 0.000 0.000 0.0199(4)
O1 0.0699(8) 0.0526(7) 0.0351(9) 0.0032(7) 0.0007(8) 0.0408(6)
O2 0.0615(7) 0.0531(7) 0.0349(9) 0.0017(7) -0.0006(7) 0.0388(6)
O3 0.0401(7) 0.0580(9) 0.0371(9) 0.0060(8) 0.0029(7) 0.0191(6)
O4 0.0522(9) 0.0496(9) 0.0603(12) 0.0022(9) 0.0096(9) 0.0160(7)
O5 0.0591(8) 0.0607(9) 0.0292(9) -0.0040(8) -0.0046(8) 0.0286(7)
O6 0.0753(10) 0.0781(10) 0.0348(9) -0.0129(8) -0.0060(9) 0.0423(8)
C1 0.0396(12) 0.0434(13) 0.0285(15) 0.000 0.000 0.0231(10)
C2 0.0408(12) 0.0425(13) 0.0319(16) 0.000 0.000 0.0241(10)
C3 0.0479(14) 0.0462(15) 0.051(2) 0.000 0.000 0.0271(12)
C4 0.0467(17) 0.0474(18) 0.074(3) 0.000 0.000 0.0185(14)
C5 0.0421(15) 0.0588(19) 0.081(3) 0.000 0.000 0.0261(14)
C6 0.0461(14) 0.0463(14) 0.057(2) 0.000 0.000 0.0287(11)
C7 0.0483(14) 0.0465(14) 0.0342(17) 0.000 0.000 0.0284(11)
C8 0.0438(13) 0.0469(14) 0.0279(16) 0.000 0.000 0.0283(11)
C9 0.0416(9) 0.0468(10) 0.0260(12) -0.0013(9) -0.0016(9) 0.0244(8)
C10 0.0573(11) 0.0480(11) 0.0392(13) -0.0056(10) -0.0039(11) 0.0301(9)
C11 0.0610(12) 0.0602(12) 0.0346(13) -0.0101(11) -0.0083(11) 0.0320(10)
C12 0.0530(11) 0.0653(12) 0.0353(13) 0.0002(11) -0.0070(10) 0.0340(9)
C13 0.0482(10) 0.0517(10) 0.0369(12) 0.0052(10) 0.0011(10) 0.0309(8)
C14 0.0417(9) 0.0469(10) 0.0286(12) 0.0010(9) 0.0022(9) 0.0268(7)
C15 0.0437(13) 0.0431(13) 0.0358(17) 0.000 0.000 0.0259(11)
C16 0.0385(13) 0.0443(14) 0.0385(18) 0.000 0.000 0.0223(11)
C17 0.0412(13) 0.0380(13) 0.0303(16) 0.000 0.000 0.0177(11)
C18 0.0417(13) 0.0391(14) 0.0313(16) 0.000 0.000 0.0187(11)
C19 0.0489(14) 0.0430(14) 0.049(2) 0.000 0.000 0.0266(12)
C20 0.0482(15) 0.0450(15) 0.073(3) 0.000 0.000 0.0262(13)
C21 0.0564(17) 0.0401(15) 0.101(4) 0.000 0.000 0.0269(13)
C22 0.0504(18) 0.0402(16) 0.082(3) 0.000 0.000 0.0173(14)
C23 0.0416(14) 0.0449(15) 0.0402(18) 0.000 0.000 0.0213(12)
C24 0.0455(14) 0.0429(14) 0.0372(18) 0.000 0.000 0.0219(12)
C25 0.0473(10) 0.0453(10) 0.0379(13) -0.0011(10) -0.0003(10) 0.0254(8)
C26 0.0470(11) 0.0608(13) 0.0482(16) 0.0028(12) 0.0048(12) 0.0281(10)
C27 0.0625(12) 0.0784(14) 0.0435(15) -0.0050(12) 0.0043(12) 0.0444(10)
C28 0.0656(13) 0.0698(14) 0.0492(15) -0.0156(12) -0.0081(13) 0.0403(11)
C29 0.0514(11) 0.0539(12) 0.0431(14) -0.0088(11) -0.0057(11) 0.0275(9)
C30 0.0459(10) 0.0427(10) 0.0337(13) -0.0014(9) 0.0006(10) 0.0221(8)
C31 0.0400(13) 0.0326(13) 0.0408(18) 0.000 0.000 0.0169(11)
C32 0.0452(15) 0.0424(15) 0.055(2) 0.000 0.000 0.0202(13)
C33 0.0517(11) 0.0463(11) 0.0301(12) -0.0009(10) -0.0005(11) 0.0228(9)
C34 0.0510(11) 0.0485(12) 0.0298(12) -0.0003(10) -0.0013(10) 0.0195(9)
C35 0.0675(13) 0.0546(12) 0.0371(13) 0.0048(11) 0.0012(12) 0.0343(10)
C36 0.0920(16) 0.0605(12) 0.0398(14) 0.0052(12) -0.0011(14) 0.0471(11)
C37 0.0545(11) 0.0458(10) 0.0335(12) -0.0006(10) -0.0011(11) 0.0248(9)
C38 0.0602(13) 0.0782(16) 0.0370(14) 0.0009(13) 0.0029(12) 0.0348(12)
C39 0.0663(14) 0.111(2) 0.0511(18) 0.0009(17) 0.0065(14) 0.0491(14)
C40 0.0494(11) 0.0393(10) 0.0361(12) 0.0000(10) 0.0004(10) 0.0199(8)
C41 0.0618(14) 0.0503(13) 0.0394(14) -0.0066(12) -0.0088(13) 0.0204(11)
C42 0.0763(19) 0.0536(15) 0.0561(17) -0.0101(14) -0.0062(16) 0.0131(14)
C43 0.0439(11) 0.0509(12) 0.0306(12) -0.0018(10) 0.0017(10) 0.0178(10)
C44 0.115(4) 0.115(4) 0.088(5) 0.000 0.000 0.0575(19)
C45 0.100(2) 0.106(3) 0.067(2) 0.009(2) 0.008(2) 0.049(2)
C46 0.127(3) 0.101(2) 0.064(2) 0.007(2) -0.003(2) 0.058(2)
C47 0.148(3) 0.112(3) 0.081(3) 0.017(2) 0.011(3) 0.068(3)
C48 0.137(5) 0.137(5) 0.173(12) 0.000 0.000 0.069(3)
O1LA 0.137(3) 0.145(3) 0.331(9) -0.046(4) -0.041(4) 0.077(3)
N1LA 0.095(2) 0.099(2) 0.183(5) -0.024(3) -0.033(3) 0.0555(17)
C1LA 0.125(3) 0.117(3) 0.161(5) -0.042(3) -0.035(3) 0.071(3)
C2LA 0.098(3) 0.099(3) 0.133(4) -0.008(3) -0.021(3) 0.041(2)
C3LA 0.116(3) 0.119(3) 0.151(5) 0.033(4) -0.033(4) 0.044(3)
C4LA 0.141(3) 0.139(3) 0.096(3) -0.017(3) -0.016(3) 0.091(3)
C5LA 0.153(3) 0.122(3) 0.077(3) -0.022(2) -0.030(3) 0.076(3)