
#######################################################################
#
#                 Cambridge Crystallographic Data Centre
#                                CCDC
#
#######################################################################
#
# If this CIF has been generated from an entry in the Cambridge
# Structural Database, then it will include bibliographic, chemical,
# crystal, experimental, refinement or atomic coordinate data resulting
# from the CCDC's data processing and validation procedures.
#
#######################################################################

data_CSD_CIF_HMBENZ04
_audit_creation_date 2001-06-11
_audit_creation_method CSD-ConQuest-V1
_database_code_CSD HMBENZ04
_database_code_depnum_ccdc_archive 'CCDC 138870'
_chemical_formula_sum 'C12 H18'
_chemical_formula_moiety
;
C12 H18
;
_journal_coden_Cambridge 579
_journal_volume 20
_journal_year 2001
_journal_page_first 115
_journal_name_full 'Organometallics '
loop_
_publ_author_name
"P.Le Magueres"
"S.V.Lindeman"
"J.K.Kochi"
_chemical_name_systematic
;
Hexamethylbenzene
;
_chemical_name_common
;
Teaching Subset: Symmetry
;
_cell_volume    244.258
_exptl_crystal_colour 'colorless'
_exptl_crystal_density_diffrn 1.103
_exptl_special_details
;
triclinic polymorph II

;
_exptl_crystal_description 'prism'
_exptl_crystal_preparation 'ethanol/heptane'
_diffrn_ambient_temperature 123
#These two values have been output from a single CSD field.
_refine_ls_R_factor_gt 0.0469
_refine_ls_wR_factor_gt 0.0469
_symmetry_cell_setting triclinic
_symmetry_space_group_name_H-M 'P -1'
_symmetry_Int_Tables_number 2
loop_
_symmetry_equiv_pos_site_id
_symmetry_equiv_pos_as_xyz
1 x,y,z
2 -x,-y,-z
_cell_length_a 5.2602(2)
_cell_length_b 6.1990(3)
_cell_length_c 8.0040(3)
_cell_angle_alpha 103.818(1)
_cell_angle_beta 98.718(1)
_cell_angle_gamma 100.192(1)
_cell_formula_units_Z 1
loop_
_atom_type_symbol
_atom_type_radius_bond
C 0.68
H 0.23
loop_
_atom_site_label
_atom_site_type_symbol
_atom_site_fract_x
_atom_site_fract_y
_atom_site_fract_z
C1 C -0.56834(12) -0.61512(10) 0.31920(8)
C2 C -0.67984(12) -0.42995(11) 0.38614(8)
C3 C -0.38478(12) -0.68300(11) 0.43247(8)
C4 C -0.65065(15) -0.74584(13) 0.12605(8)
C5 C -0.86738(14) -0.34828(13) 0.26423(9)
C6 C -0.25035(14) -0.87237(11) 0.36134(9)
H1 H -0.5521(35) -0.698(3) 0.0541(22)
H2 H -0.8417(32) -0.7423(27) 0.0782(20)
H3 H -0.6645(26) -0.9055(24) 0.1120(17)
H4 H -0.8467(26) -0.1782(24) 0.3015(17)
H5 H -1.0272(33) -0.4199(28) 0.2551(19)
H6 H -0.8236(30) -0.3681(26) 0.1474(19)
H7 H -0.0647(31) -0.8337(28) 0.4134(20)
H8 H -0.3161(30) -1.0086(27) 0.3876(19)
H9 H -0.2465(30) -0.8910(26) 0.2392(20)
C3A C -0.61522(12) -0.31700(11) 0.56753(8)
C1A C -0.43166(12) -0.38488(10) 0.68080(8)
C2A C -0.32016(12) -0.57005(11) 0.61386(8)
C5A C -0.13262(14) -0.65172(13) 0.73577(9)
H4A H -0.1533(26) -0.8218(24) 0.6985(17)
H5A H 0.0272(33) -0.5801(28) 0.7449(19)
H6A H -0.1764(30) -0.6319(26) 0.8526(19)
C4A C -0.34935(15) -0.25416(13) 0.87395(8)
H1A H -0.4479(35) -0.302(3) 0.9459(22)
H2A H -0.1583(32) -0.2577(27) 0.9218(20)
H3A H -0.3355(26) -0.0945(24) 0.8880(17)
C6A C -0.74965(14) -0.12763(11) 0.63866(9)
H7A H -0.9353(31) -0.1663(28) 0.5866(20)
H8A H -0.6839(30) 0.0086(27) 0.6124(19)
H9A H -0.7535(30) -0.1090(26) 0.7608(20)
#END
