
#######################################################################
#
#                 Cambridge Crystallographic Data Centre
#                                CCDC
#
#######################################################################
#
# If this CIF has been generated from an entry in the Cambridge
# Structural Database, then it will include bibliographic, chemical,
# crystal, experimental, refinement or atomic coordinate data resulting
# from the CCDC's data processing and validation procedures.
#
#######################################################################

data_CSD_CIF_HMFLUT10
_audit_creation_date 1974-01-30
_audit_creation_method CSD-ConQuest-V1
_database_code_CSD HMFLUT10
_database_code_depnum_ccdc_archive 'CCDC 1177074'
_chemical_formula_sum 'C26 H30 O4'
_chemical_formula_moiety
;
C26 H30 O4
;
_journal_coeditor_code "IUCr A10178"
_journal_coden_Cambridge 107
_journal_volume 29
_journal_year 1973
_journal_page_first 1763
_journal_name_full 'Acta Crystallogr.,Sect.B:Struct.Crystallogr.Cryst.Chem. '
loop_
_publ_author_name
"W.H.Watson"
"J.E.Whinnery"
_chemical_name_systematic
;
5,6,6a,7,7a,11b-Hexahydro-2,3,5,5,7,7,9,10-octamethyl-6,11a,11c-metheno-1H-ben
zo(c)fluorene-1,4,8,11(4aH)-tetrone
;
_chemical_name_common
;
Plastoquinone-1 photoproduct; Teaching Subset: Fundamental Chemistry
;
_chemical_melting_point 558
_cell_volume   4273.215
_exptl_crystal_density_diffrn 1.263
_diffrn_ambient_temperature ?
_diffrn_special_details
;
The study was carried out at room temperature,in the range 283-303K

;
#These two values have been output from a single CSD field.
_refine_ls_R_factor_gt 0.076
_refine_ls_wR_factor_gt 0.076
_symmetry_cell_setting orthorhombic
_symmetry_space_group_name_H-M 'P c c n'
_symmetry_Int_Tables_number 56
loop_
_symmetry_equiv_pos_site_id
_symmetry_equiv_pos_as_xyz
1 x,y,z
2 1/2-x,1/2-y,z
3 1/2+x,-y,1/2-z
4 -x,1/2+y,1/2-z
5 -x,-y,-z
6 -1/2+x,-1/2+y,-z
7 -1/2-x,y,-1/2+z
8 x,-1/2-y,-1/2+z
_cell_length_a 17.849(5)
_cell_length_b 18.82(1)
_cell_length_c 12.721(5)
_cell_angle_alpha 90
_cell_angle_beta 90
_cell_angle_gamma 90
_cell_formula_units_Z 8
loop_
_atom_type_symbol
_atom_type_radius_bond
C 0.68
H 0.20
O 0.68
loop_
_atom_site_label
_atom_site_type_symbol
_atom_site_fract_x
_atom_site_fract_y
_atom_site_fract_z
C1 C 0.40530 -0.44440 0.41600
C2 C 0.42060 -0.65150 0.24210
C3 C 0.47750 -0.65790 0.15490
C4 C 0.52810 -0.59720 0.13390
C5 C 0.50590 -0.53170 0.15800
C6 C 0.43190 -0.52060 0.20790
C7 C 0.41100 -0.57610 0.28650
C8 C 0.44970 -0.57320 0.39750
C9 C 0.39010 -0.52080 0.43570
C10 C 0.34040 -0.56190 0.35240
C11 C 0.34890 -0.39250 0.45650
C12 C 0.34380 -0.32520 0.39630
C13 C 0.26030 -0.35580 0.60010
C14 C 0.22450 -0.57260 0.51660
C15 C 0.30740 -0.65230 0.61900
C16 C 0.40300 -0.76790 0.34460
C17 C 0.52640 -0.70990 0.34760
C18 C 0.59980 -0.61390 0.07800
C19 C 0.54870 -0.46550 0.13050
C20 C 0.31200 -0.40690 0.54540
C21 C 0.32620 -0.47380 0.60290
C22 C 0.36060 -0.53570 0.54670
C23 C 0.30450 -0.59860 0.52950
C24 C 0.33370 -0.62750 0.42450
C25 C 0.41900 -0.64640 0.42950
C26 C 0.44220 -0.69710 0.34070
H1 H 0.32100 -0.28700 0.43900
H2 H 0.20400 -0.55500 0.58200
H3 H 0.35700 -0.67100 0.62800
H4 H 0.28700 -0.63100 0.68300
H5 H 0.27400 -0.69300 0.60200
H6 H 0.30500 -0.67000 0.40600
H7 H 0.43000 -0.66900 0.49800
H8 H 0.44000 -0.80700 0.35000
H9 H 0.36000 -0.76800 0.38900
H10 H 0.38100 -0.78000 0.27600
H11 H 0.55500 -0.66600 0.34000
H12 H 0.31500 -0.33100 0.33100
H13 H 0.54400 -0.74400 0.29500
H14 H 0.54000 -0.72900 0.41700
H15 H 0.37100 -0.66700 0.21500
H16 H 0.64400 -0.59800 0.12000
H17 H 0.60400 -0.66300 0.05900
H18 H 0.60300 -0.58600 0.01100
H19 H 0.58500 -0.47600 0.07600
H20 H 0.58100 -0.45100 0.18900
H21 H 0.51600 -0.42700 0.10800
H22 H 0.50500 -0.57700 0.38900
H23 H 0.39300 -0.30700 0.37600
H24 H 0.29700 -0.55900 0.30600
H25 H 0.29000 -0.32200 0.64200
H26 H 0.22500 -0.38200 0.64400
H27 H 0.23200 -0.32900 0.55000
H28 H 0.40200 -0.55300 0.59100
H29 H 0.22100 -0.53600 0.46100
H30 H 0.19300 -0.60900 0.48200
O1 O 0.46140 -0.42300 0.37200
O2 O 0.31010 -0.47910 0.69630
O3 O 0.48220 -0.71290 0.10500
O4 O 0.39150 -0.47150 0.18390
#END
