
#######################################################################
#
#                 Cambridge Crystallographic Data Centre
#                                CCDC
#
#######################################################################
#
# If this CIF has been generated from an entry in the Cambridge
# Structural Database, then it will include bibliographic, chemical,
# crystal, experimental, refinement or atomic coordinate data resulting
# from the CCDC's data processing and validation procedures.
#
#######################################################################

data_CSD_CIF_HMSIAF10
_audit_creation_date 1973-02-27
_audit_creation_method CSD-ConQuest-V1
_database_code_CSD HMSIAF10
_database_code_depnum_ccdc_archive 'CCDC 1177197'
_chemical_formula_sum 'C18 H54 Fe1 N3 Si6'
_chemical_formula_moiety
;
C18 H54 Fe1 N3 Si6
;
_journal_coden_Cambridge 186
_journal_year 1972
_journal_page_first 2100
_journal_name_full 'J.Chem.Soc.,Dalton Trans. '
loop_
_publ_author_name
"M.B.Hursthouse"
"P.F.Rodesiler"
_chemical_name_systematic
;
tris(bis(trimethylsilyl)amido)-iron(iii)
;
_chemical_name_common
;
Teaching Subset: Fundamental Chemistry
;
_cell_volume   1923.536
_exptl_crystal_density_diffrn 0.96
_exptl_special_details
;
COORDINATES OF FE OMITTED IN PAPER ARE 2/3,1/3,1/4. THE Z COORDINATE OF N1 IS 
1/4. Z-COORDINATE OF C1 SHOULD BE -0.0403, NOT 0.0403
;
_diffrn_ambient_temperature ?
_diffrn_special_details
;
The study was carried out at room temperature,in the range 283-303K

;
#These two values have been output from a single CSD field.
_refine_ls_R_factor_gt 0.094
_refine_ls_wR_factor_gt 0.094
_symmetry_cell_setting hexagonal
_symmetry_space_group_name_H-M 'P -3 1 c'
_symmetry_Int_Tables_number 163
loop_
_symmetry_equiv_pos_site_id
_symmetry_equiv_pos_as_xyz
1 x,y,z
2 -y,x-y,z
3 -x+y,-x,z
4 -y,-x,1/2-z
5 -x+y,y,1/2-z
6 x,x-y,1/2-z
7 -x,-y,-z
8 y,-x+y,-z
9 x-y,x,-z
10 y,x,-1/2+z
11 x-y,-y,-1/2+z
12 -x,-x+y,-1/2+z
_cell_length_a 16.112(8)
_cell_length_b 16.112(8)
_cell_length_c 8.556(8)
_cell_angle_alpha 90
_cell_angle_beta 90
_cell_angle_gamma 120
_cell_formula_units_Z 2
loop_
_atom_type_symbol
_atom_type_radius_bond
C 0.68
Fe 1.30
N 0.68
Si 1.12
loop_
_atom_site_label
_atom_site_type_symbol
_atom_site_fract_x
_atom_site_fract_y
_atom_site_fract_z
C1 C -0.37570 0.17610 -0.04030
C2 C -0.35670 0.05080 0.21260
C3 C -0.18720 0.18450 0.01100
Fe1 Fe -0.33334 0.33333 0.25000
N1 N -0.26460 0.26460 0.25000
Si1 Si -0.29540 0.17300 0.11650
Si1C Si -0.17300 0.29540 0.38350
N1A N -0.26460 0.47080 0.25000
N1B N -0.47080 0.26460 0.25000
C1C C -0.17610 0.37570 0.54030
C2C C -0.05080 0.35670 0.28740
C3C C -0.18450 0.18720 0.48900
Si1A Si -0.17300 0.53160 0.11650
Si1E Si -0.29540 0.53160 0.38350
Si1B Si -0.53160 0.29540 0.11650
Si1D Si -0.53160 0.17300 0.38350
C1A C -0.17610 0.44820 -0.04030
C2A C -0.05080 0.59250 0.21260
C3A C -0.18450 0.62830 0.01100
C1E C -0.37570 0.44820 0.54030
C2E C -0.35670 0.59250 0.28740
C3E C -0.18720 0.62830 0.48900
C1B C -0.44820 0.37570 -0.04030
C2B C -0.59250 0.35670 0.21260
C3B C -0.62830 0.18720 0.01100
C1D C -0.44820 0.17610 0.54030
C2D C -0.59250 0.05080 0.28740
C3D C -0.62830 0.18450 0.48900
#END
