
#######################################################################
#
#                 Cambridge Crystallographic Data Centre
#                                CCDC
#
#######################################################################
#
# If this CIF has been generated from an entry in the Cambridge
# Structural Database, then it will include bibliographic, chemical,
# crystal, experimental, refinement or atomic coordinate data resulting
# from the CCDC's data processing and validation procedures.
#
#######################################################################

data_CSD_CIF_HMTNTI
_audit_creation_date 1975-07-10
_audit_creation_method CSD-ConQuest-V1
_database_code_CSD HMTNTI
_database_code_depnum_ccdc_archive 'CCDC 1177237'
_chemical_formula_sum 'C6 H12 I5 N5'
_chemical_formula_moiety
;
C6 H12 N4,I3 N1,I2
;
_journal_coden_Cambridge 29
_journal_volume 409
_journal_year 1974
_journal_page_first 237
_journal_name_full 'Z.Anorg.Allg.Chem. '
loop_
_publ_author_name
"H.Pritzkow"
_chemical_name_systematic
;
Hexamethylenetetramine tri-iodo-nitrogen iodine
;
_chemical_name_common
;
Teaching Subset: Fundamental Chemistry
;
_cell_volume   1724.055
_exptl_crystal_density_diffrn 3.043
_diffrn_ambient_temperature ?
_diffrn_special_details
;
The study was carried out at room temperature,in the range 283-303K

;
#These two values have been output from a single CSD field.
_refine_ls_R_factor_gt 0.036
_refine_ls_wR_factor_gt 0.036
_symmetry_cell_setting orthorhombic
_symmetry_space_group_name_H-M 'A m a 2'
_symmetry_Int_Tables_number 40
loop_
_symmetry_equiv_pos_site_id
_symmetry_equiv_pos_as_xyz
1 x,y,z
2 x,1/2+y,1/2+z
3 1/2-x,y,z
4 1/2-x,1/2+y,1/2+z
5 1/2+x,-y,z
6 1/2+x,1/2-y,1/2+z
7 -x,-y,z
8 -x,1/2-y,1/2+z
_cell_length_a 10.017(1)
_cell_length_b 24.065(3)
_cell_length_c 7.152(1)
_cell_angle_alpha 90
_cell_angle_beta 90
_cell_angle_gamma 90
_cell_formula_units_Z 4
loop_
_atom_type_symbol
_atom_type_radius_bond
C 0.68
I 1.38
N 0.68
loop_
_atom_site_label
_atom_site_type_symbol
_atom_site_fract_x
_atom_site_fract_y
_atom_site_fract_z
C1 C 0.25000 0.39140 0.40100
C2 C 0.25000 0.37920 -0.06800
C3 C 0.13180 0.33550 0.17900
C4 C 0.13060 0.43460 0.15200
N1 N 0.25000 0.43280 0.03400
N2 N 0.25000 0.33190 0.06500
N3 N 0.12880 0.38810 0.28700
I1 I 0.25000 0.02048 0.32570
I2 I 0.07629 0.10319 0.00000
N4 N 0.25000 0.09720 0.17300
I3 I 0.25000 0.17055 0.41550
I4 I 0.25000 0.24696 0.71220
N3B N 0.37120 0.38810 0.28700
C4B C 0.36940 0.43460 0.15200
C3B C 0.36820 0.33550 0.17900
I2B I 0.42371 0.10319 0.00000
#END
