####################################################################### 
# 
# This file contains crystal structure data downloaded from the 
# Cambridge Structural Database (CSD) hosted by the Cambridge 
# Crystallographic Data Centre (CCDC).
# 
# Full information about CCDC data access policies and citation 
# guidelines are available at http://www.ccdc.cam.ac.uk/access/V1 
# 
# Audit and citation data items may have been added by the CCDC. 
# Please retain this information to preserve the provenance of 
# this file and to allow appropriate attribution of the data. 
# 
#######################################################################

data_cumn
_audit_block_doi                 10.5517/cc3g893
_database_code_depnum_ccdc_archive 'CCDC 103084'
loop_
_citation_id
_citation_doi
_citation_year
1 10.1002/(SICI)1521-3765(19990503)5:5<1486::AID-CHEM1486>3.0.CO;2-F 1999
_audit_update_record             
;
1998-09-17 deposited with the CCDC.	2024-07-10 downloaded from the CCDC.
;

_audit_creation_method           SHELXL
_chemical_name_systematic        
; 
? 
;
_chemical_name_common            ?
_chemical_formula_moiety         ?
_chemical_formula_structural     ?
_chemical_formula_analytical     ?
_chemical_formula_sum            'C59 H57.50 Cu3 Mn2 N12 O22.75 S0.50'
_chemical_formula_weight         1615.20
_chemical_melting_point          ?
_chemical_compound_source        ?

loop_
_atom_type_symbol
_atom_type_description
_atom_type_scat_dispersion_real
_atom_type_scat_dispersion_imag
_atom_type_scat_source
C C 0.0033 0.0016 'International Tables Vol C Tables 4.2.6.8 and 6.1.1.4'
H H 0.0000 0.0000 'International Tables Vol C Tables 4.2.6.8 and 6.1.1.4'
N N 0.0061 0.0033 'International Tables Vol C Tables 4.2.6.8 and 6.1.1.4'
Mn Mn 0.3368 0.7283 'International Tables Vol C Tables 4.2.6.8 and 6.1.1.4'
Cu Cu 0.3201 1.2651 'International Tables Vol C Tables 4.2.6.8 and 6.1.1.4'
S S 0.1246 0.1234 'International Tables Vol C Tables 4.2.6.8 and 6.1.1.4'
O O 0.0106 0.0060 'International Tables Vol C Tables 4.2.6.8 and 6.1.1.4'

_symmetry_cell_setting           Monoclinic
_symmetry_space_group_name_H-M   Cc

loop_
_symmetry_equiv_pos_as_xyz
'x, y, z'
'x, -y, z+1/2'
'x+1/2, y+1/2, z'
'x+1/2, -y+1/2, z+1/2'

_cell_length_a                   24.3033(7)
_cell_length_b                   25.0251(4)
_cell_length_c                   18.2807(5)
_cell_angle_alpha                90.00
_cell_angle_beta                 130.6780(10)
_cell_angle_gamma                90.00
_cell_volume                     8431.9(4)
_cell_formula_units_Z            4
_cell_measurement_temperature    293(2)
_cell_measurement_reflns_used    ?
_cell_measurement_theta_min      ?
_cell_measurement_theta_max      ?

_exptl_crystal_description       Parallelepipedic
_exptl_crystal_colour            'dark green'
_exptl_crystal_size_max          ?
_exptl_crystal_size_mid          ?
_exptl_crystal_size_min          ?
_exptl_crystal_density_meas      ?
_exptl_crystal_density_diffrn    1.272
_exptl_crystal_density_method    ?
_exptl_crystal_F_000             3290
_exptl_absorpt_coefficient_mu    1.116
_exptl_absorpt_correction_type   ?
_exptl_absorpt_correction_T_min  ?
_exptl_absorpt_correction_T_max  ?

_exptl_special_details           
; 
? 
;

_diffrn_ambient_temperature      293(2)
_diffrn_radiation_wavelength     0.71073
_diffrn_radiation_type           MoK\a
_diffrn_radiation_source         'fine-focus sealed tube'
_diffrn_radiation_monochromator  graphite
_diffrn_measurement_device       ?
_diffrn_measurement_method       ?
_diffrn_standards_number         ?
_diffrn_standards_interval_count ?
_diffrn_standards_interval_time  ?
_diffrn_standards_decay_%        ?
_diffrn_reflns_number            16517
_diffrn_reflns_av_R_equivalents  0.1435
_diffrn_reflns_av_sigmaI/netI    0.3039
_diffrn_reflns_limit_h_min       -20
_diffrn_reflns_limit_h_max       26
_diffrn_reflns_limit_k_min       -22
_diffrn_reflns_limit_k_max       27
_diffrn_reflns_limit_l_min       -20
_diffrn_reflns_limit_l_max       20
_diffrn_reflns_theta_min         1.37
_diffrn_reflns_theta_max         23.35
_reflns_number_total             10463
_reflns_number_observed          3500
_reflns_observed_criterion       >2sigma(I)

_computing_data_collection       ?
_computing_cell_refinement       ?
_computing_data_reduction        ?
_computing_structure_solution    'SHELXS-86 (Sheldrick, 1990)'
_computing_structure_refinement  'SHELXL-93 (Sheldrick, 1993)'
_computing_molecular_graphics    ?
_computing_publication_material  ?

_refine_special_details          
; 
Refinement on F^2^ for ALL reflections except for 0 with very negative F^2^ 
or flagged by the user for potential systematic errors.  Weighted R-factors 
wR and all goodnesses of fit S are based on F^2^, conventional R-factors R 
are based on F, with F set to zero for negative F^2^. The observed criterion 
of F^2^ > 2sigma(F^2^) is used only for calculating _R_factor_obs etc. and is 
not relevant to the choice of reflections for refinement.  R-factors based 
on F^2^ are statistically about twice as large as those based on F, and R- 
factors based on ALL data will be even larger. 
;

_refine_ls_structure_factor_coef Fsqd
_refine_ls_matrix_type           full
_refine_ls_weighting_scheme      
'calc w=1/[\s^2^(Fo^2^)+(0.1000P)^2^+0.0000P] where P=(Fo^2^+2Fc^2^)/3'
_atom_sites_solution_primary     direct
_atom_sites_solution_secondary   difmap
_atom_sites_solution_hydrogens   geom
_refine_ls_hydrogen_treatment    ?
_refine_ls_extinction_method     none
_refine_ls_extinction_coef       ?
_refine_ls_abs_structure_details 'Flack H D (1983), Acta Cryst. A39, 876-881'
_refine_ls_abs_structure_Flack   0.00
_refine_ls_number_reflns         10463
_refine_ls_number_parameters     773
_refine_ls_number_restraints     41
_refine_ls_R_factor_all          0.3005
_refine_ls_R_factor_obs          0.1232
_refine_ls_wR_factor_all         0.3363
_refine_ls_wR_factor_obs         0.2788
_refine_ls_goodness_of_fit_all   1.215
_refine_ls_goodness_of_fit_obs   1.852
_refine_ls_restrained_S_all      1.213
_refine_ls_restrained_S_obs      1.840
_refine_ls_shift/esd_max         7.299
_refine_ls_shift/esd_mean        0.483

loop_
_atom_site_label
_atom_site_type_symbol
_atom_site_fract_x
_atom_site_fract_y
_atom_site_fract_z
_atom_site_U_iso_or_equiv
_atom_site_thermal_displace_type
_atom_site_occupancy
_atom_site_calc_flag
_atom_site_refinement_flags
_atom_site_disorder_group
Cu1 Cu 0.3774(2) 0.0186(2) 0.0329(3) 0.0933(15) Uani 1 d . .
O1 O 0.2966(11) 0.0230(9) -0.1060(13) 0.088(7) Uani 1 d . .
O2 O 0.4457(10) 0.0785(8) 0.0712(15) 0.083(7) Uani 1 d . .
N1 N 0.3438(14) -0.0515(10) 0.0297(20) 0.087(9) Uani 1 d . .
N2 N 0.4529(17) -0.0101(12) 0.1573(21) 0.093(9) Uani 1 d . .
C1 C 0.2559(22) -0.0164(15) -0.1378(28) 0.073(10) Uiso 1 d . .
C2 C 0.2811(21) -0.0627(15) -0.0617(27) 0.079(10) Uiso 1 d . .
C4 C 0.5061(25) 0.0739(18) 0.1612(33) 0.104(12) Uiso 1 d . .
C3 C 0.5060(23) 0.0257(17) 0.2015(29) 0.086(11) Uiso 1 d . .
O3 O 0.5585(15) 0.1079(10) 0.2068(20) 0.129(10) Uani 1 d . .
O4 O 0.5743(12) 0.0206(8) 0.2907(16) 0.094(7) Uani 1 d . .
O5 O 0.1962(11) -0.0252(8) -0.2177(14) 0.076(6) Uani 1 d . .
O6 O 0.2401(11) -0.1041(8) -0.0897(13) 0.067(6) Uani 1 d . .
C5 C 0.3835(20) -0.0837(15) 0.1137(27) 0.090(11) Uiso 1 d . .
C6 C 0.3552(20) -0.1296(15) 0.1155(26) 0.083(11) Uiso 1 d . .
H6 H 0.3113(117) -0.1454(79) 0.0648(156) 0.050 Uiso 1 calc . .
C7 C 0.4086(24) -0.1491(17) 0.2147(32) 0.111(15) Uiso 1 d . .
H7 H 0.4012(106) -0.1810(88) 0.2333(140) 0.050 Uiso 1 calc . .
C8 C 0.4735(25) -0.1174(20) 0.2836(33) 0.121(15) Uiso 1 d . .
H8 H 0.5113(123) -0.1279(80) 0.3469(166) 0.050 Uiso 1 calc . .
C9 C 0.4727(36) -0.0744(32) 0.2478(57) 0.200(28) Uiso 1 d . .
H9 H 0.5079(119) -0.0514(86) 0.2967(163) 0.050 Uiso 1 calc . .
C10 C 0.4430(19) -0.0543(16) 0.1751(28) 0.066(10) Uiso 1 d . .
Cu2 Cu -0.1154(2) 0.0292(2) 0.0641(3) 0.0869(14) Uani 1 d . .
O7 O -0.1906(12) 0.0016(10) 0.0661(16) 0.099(8) Uani 1 d . .
O8 O -0.0426(12) 0.0691(9) 0.1848(13) 0.089(7) Uani 1 d . .
N3 N -0.1667(14) -0.0128(10) -0.0494(18) 0.075(8) Uani 1 d . .
N4 N -0.0494(15) 0.0447(11) 0.0405(19) 0.086(9) Uani 1 d . .
C11 C -0.2413(22) -0.0296(14) -0.0064(26) 0.080(11) Uiso 1 d . .
C12 C -0.2296(19) -0.0305(12) -0.0789(23) 0.064(9) Uiso 1 d . .
C14 C 0.0160(17) 0.0785(10) 0.1933(21) 0.048(8) Uiso 1 d . .
C13 C 0.0107(20) 0.0680(12) 0.1089(23) 0.061(9) Uiso 1 d . .
O11 O 0.0730(10) 0.0987(7) 0.2685(13) 0.064(5) Uani 1 d . .
O12 O 0.0626(9) 0.0788(7) 0.1134(11) 0.057(5) Uani 1 d . .
O9 O -0.2883(13) -0.0497(10) -0.0148(16) 0.114(9) Uani 1 d . .
O10 O -0.2725(10) -0.0632(8) -0.1494(14) 0.069(6) Uani 1 d . .
C15 C -0.1364(14) -0.0132(10) -0.0967(19) 0.047(7) Uiso 1 d . .
C16 C -0.1679(18) -0.0412(13) -0.1802(24) 0.071(10) Uiso 1 d . .
H16 H -0.2073(115) -0.0642(82) -0.2106(145) 0.050 Uiso 1 calc . .
C17 C -0.1340(38) -0.0302(25) -0.2081(42) 0.202(26) Uiso 1 d . .
H17 H -0.1552(115) -0.0447(80) -0.2683(159) 0.050 Uiso 1 calc . .
C18 C -0.0720(27) -0.0014(18) -0.1692(34) 0.119(15) Uiso 1 d . .
H18 H -0.0502(108) -0.0017(79) -0.1961(142) 0.050 Uiso 1 calc . .
C19 C -0.0435(20) 0.0288(15) -0.0857(26) 0.087(11) Uiso 1 d . .
H19 H -0.0040(118) 0.0514(84) -0.0574(144) 0.050 Uiso 1 calc . .
C20 C -0.0786(15) 0.0227(11) -0.0476(22) 0.062(8) Uiso 1 d . .
Cu3 Cu 0.1951(2) 0.2582(2) 0.0906(3) 0.0838(14) Uani 1 d . .
O14 O 0.2197(12) 0.2784(8) 0.0121(16) 0.087(7) Uani 1 d . .
O13 O 0.2362(10) 0.1884(8) 0.1511(14) 0.076(6) Uani 1 d . .
N6 N 0.1340(14) 0.3188(8) 0.0284(16) 0.067(7) Uani 1 d . .
N5 N 0.1493(14) 0.2527(10) 0.1465(17) 0.069(8) Uani 1 d . .
C24 C 0.1900(19) 0.3195(15) -0.0454(27) 0.075(11) Uiso 1 d . .
C23 C 0.1321(16) 0.3372(12) -0.0361(22) 0.052(8) Uiso 1 d . .
C21 C 0.2080(17) 0.1677(15) 0.1829(24) 0.070(10) Uiso 1 d . .
C22 C 0.1555(17) 0.2088(14) 0.1867(23) 0.064(9) Uiso 1 d . .
O15 O 0.2251(10) 0.1254(8) 0.2244(14) 0.070(6) Uani 1 d . .
O16 O 0.1296(10) 0.1914(8) 0.2196(14) 0.081(6) Uani 1 d . .
O18 O 0.1912(10) 0.3349(9) -0.1012(15) 0.085(7) Uani 1 d . .
O17 O 0.0921(9) 0.3783(9) -0.0943(15) 0.090(7) Uani 1 d . .
C30 C 0.0927(16) 0.3301(12) 0.0565(21) 0.061(9) Uiso 1 d . .
C29 C 0.0468(19) 0.3728(15) 0.0290(25) 0.087(12) Uiso 1 d . .
H29 H 0.0375(110) 0.3968(82) -0.0167(151) 0.050 Uiso 1 calc . .
C28 C 0.0134(16) 0.3806(13) 0.0697(22) 0.062(9) Uiso 1 d . .
H28 H -0.0160(115) 0.4101(85) 0.0527(139) 0.050 Uiso 1 calc . .
C27 C 0.0247(20) 0.3458(15) 0.1304(26) 0.086(12) Uiso 1 d . .
H27 H -0.0007(112) 0.3500(76) 0.1520(136) 0.050 Uiso 1 calc . .
C26 C 0.0708(18) 0.3035(14) 0.1654(25) 0.075(11) Uiso 1 d . .
H26 H 0.0790(113) 0.2808(81) 0.2120(161) 0.050 Uiso 1 calc . .
C25 C 0.1040(16) 0.2962(12) 0.1290(21) 0.067(9) Uiso 1 d . .
Mn1 Mn 0.6402(2) -0.0895(2) -0.1523(4) 0.082(2) Uani 1 d . .
Mn2 Mn 0.1530(2) 0.1060(2) 0.2562(3) 0.0659(14) Uani 1 d . .
N1R N 0.6678(17) -0.0231(9) 0.1576(17) 0.101(11) Uani 1 d D .
C2R C 0.7120(21) -0.0473(17) 0.1485(27) 0.098(13) Uiso 1 d D .
H2R H 0.7138(110) -0.0363(78) 0.1016(150) 0.050 Uiso 1 calc . .
C3R C 0.7501(17) -0.0842(13) 0.2027(22) 0.084(11) Uiso 1 d D .
H3R H 0.7807(114) -0.1009(80) 0.1960(141) 0.050 Uiso 1 calc . .
C4R C 0.7493(14) -0.1023(10) 0.2742(19) 0.063(9) Uiso 1 d D .
C5R C 0.7011(17) -0.0789(12) 0.2777(22) 0.067(10) Uiso 1 d D .
H5R H 0.6959(115) -0.0902(82) 0.3214(150) 0.050 Uiso 1 calc . .
C6R C 0.6647(20) -0.0426(15) 0.2218(29) 0.093(12) Uiso 1 d D .
H6R H 0.6313(114) -0.0271(79) 0.2245(138) 0.050 Uiso 1 calc . .
C7R C 0.7912(17) -0.1438(13) 0.3305(23) 0.076(10) Uiso 1 d D .
N2R N 0.8255(11) -0.1837(8) 0.3185(17) 0.070(8) Uani 1 d D .
C8R C 0.8791(22) -0.2140(16) 0.4108(27) 0.134(15) Uiso 1 d D .
C9R C 0.8498(22) -0.2077(16) 0.4662(28) 0.118(13) Uiso 1 d D .
N3R N 0.8125(14) -0.1547(10) 0.4219(19) 0.092(10) Uani 1 d D .
O1R O 0.8067(12) -0.1238(10) 0.4692(15) 0.096(8) Uani 1 d D .
O2R O 0.8106(11) -0.1918(8) 0.2401(15) 0.079(7) Uani 1 d D .
C1R C 0.6297(34) 0.0176(25) 0.1091(41) 0.201(26) Uiso 1 d D .
H1R1 H 0.6629(115) 0.0446(82) 0.1200(143) 0.050 Uiso 1 calc . .
H1R2 H 0.6102(112) 0.0308(82) 0.1380(150) 0.050 Uiso 1 calc . .
C1P C 0.5699(43) 0.0156(37) 0.0061(48) 0.320(66) Uiso 1 d D .
H1P1 H 0.5305(115) 0.0368(83) -0.0098(143) 0.050 Uiso 1 calc . .
H1P2 H 0.5542(112) -0.0208(88) -0.0133(141) 0.050 Uiso 1 calc . .
H1P3 H 0.5853(106) 0.0294(79) -0.0269(152) 0.050 Uiso 1 calc . .
C19R C 0.7894(24) -0.2460(18) 0.4403(32) 0.106(15) Uiso 1 d . .
H19A H 0.7732(109) -0.2352(77) 0.4740(143) 0.050 Uiso 1 calc . .
H19B H 0.8080(112) -0.2817(87) 0.4588(144) 0.050 Uiso 1 calc . .
H19C H 0.7494(115) -0.2447(78) 0.3721(163) 0.050 Uiso 1 calc . .
C20R C 0.9082(33) -0.2081(23) 0.5860(45) 0.169(25) Uiso 1 d . .
H20A H 0.8837(111) -0.1978(79) 0.6089(142) 0.050 Uiso 1 calc . .
H20B H 0.9468(116) -0.1834(84) 0.6095(142) 0.050 Uiso 1 calc . .
H20C H 0.9279(114) -0.2434(89) 0.6088(153) 0.050 Uiso 1 calc . .
C21R C 0.8827(28) -0.2790(20) 0.3907(36) 0.126(19) Uiso 1 d . .
H21A H 0.9279(125) -0.2862(79) 0.4057(146) 0.050 Uiso 1 calc . .
H21B H 0.8433(120) -0.2873(80) 0.3242(164) 0.050 Uiso 1 calc . .
H21C H 0.8791(111) -0.3006(82) 0.4309(151) 0.050 Uiso 1 calc . .
C22R C 0.9511(25) -0.1892(18) 0.4533(32) 0.115(16) Uiso 1 d . .
H22A H 0.9478(111) -0.1732(80) 0.4028(152) 0.050 Uiso 1 calc . .
H22B H 0.9879(118) -0.2163(83) 0.4849(148) 0.050 Uiso 1 calc . .
H22C H 0.9634(111) -0.1623(82) 0.4993(153) 0.050 Uiso 1 calc . .
N4R N 0.1748(18) -0.0061(16) 0.0398(28) 0.187(19) Uani 1 d D .
C11R C 0.1474(27) -0.0167(17) -0.0500(36) 0.143(21) Uiso 1 d D .
H11R H 0.1524(109) -0.0509(89) -0.0647(142) 0.050 Uiso 1 calc . .
C12R C 0.1160(19) 0.0172(13) -0.1135(24) 0.085(11) Uiso 1 d D .
H12R H 0.1026(108) 0.0098(77) -0.1730(156) 0.050 Uiso 1 calc . .
C13R C 0.0997(14) 0.0681(10) -0.0965(18) 0.060(8) Uiso 1 d D .
C14R C 0.1258(18) 0.0770(13) -0.0073(23) 0.087(12) Uiso 1 d D .
H14R H 0.1189(105) 0.1102(86) 0.0083(133) 0.050 Uiso 1 calc . .
C15R C 0.1582(27) 0.0430(19) 0.0539(29) 0.134(19) Uiso 1 d D .
H15R H 0.1728(115) 0.0505(77) 0.1142(164) 0.050 Uiso 1 calc . .
C16R C 0.0595(19) 0.1030(13) -0.1704(25) 0.105(13) Uiso 1 d D .
N5R N 0.0135(14) 0.0945(11) -0.2702(19) 0.101(10) Uani 1 d D .
C17R C -0.0299(23) 0.1428(15) -0.3245(26) 0.117(14) Uiso 1 d D .
C18R C 0.0146(31) 0.1904(16) -0.2531(30) 0.161(20) Uiso 1 d D .
N6R N 0.0535(14) 0.1582(10) -0.1624(20) 0.095(9) Uani 1 d D .
O4R O 0.0822(15) 0.1846(11) -0.0864(18) 0.137(11) Uani 1 d D .
O3R O 0.0027(17) 0.0489(11) -0.3058(20) 0.159(13) Uani 1 d D .
C10R C 0.2041(51) -0.0385(28) 0.1077(51) 0.281(56) Uiso 1 d D .
H10A H 0.2441(112) -0.0551(81) 0.1165(137) 0.050 Uiso 1 calc . .
H10B H 0.1691(111) -0.0664(85) 0.0879(140) 0.050 Uiso 1 calc . .
C11P C 0.2326(24) -0.0183(17) 0.2038(28) 0.100 Uiso 1 d D .
H11A H 0.2693(110) -0.0422(79) 0.2535(151) 0.050 Uiso 1 calc . .
H11B H 0.1936(117) -0.0163(78) 0.2049(143) 0.050 Uiso 1 calc . .
H11C H 0.2530(110) 0.0166(87) 0.2147(139) 0.050 Uiso 1 calc . .
C26R C 0.0608(63) 0.1951(41) -0.2601(71) 0.350(64) Uiso 1 d . .
H26A H 0.0379(120) 0.1997(86) -0.3267(169) 0.050 Uiso 1 calc . .
H26B H 0.0906(118) 0.1637(85) -0.2352(154) 0.050 Uiso 1 calc . .
H26C H 0.0904(115) 0.2258(91) -0.2239(147) 0.050 Uiso 1 calc . .
C27R C -0.0087(36) 0.2302(30) -0.2356(46) 0.187(29) Uiso 1 d . .
H27A H -0.0606(127) 0.2318(79) -0.2838(157) 0.050 Uiso 1 calc . .
H27B H 0.0117(112) 0.2627(89) -0.2367(143) 0.050 Uiso 1 calc . .
H27C H 0.0054(117) 0.2258(81) -0.1732(172) 0.050 Uiso 1 calc . .
C28R C -0.0294(72) 0.1352(51) -0.3972(112) 0.399(93) Uiso 1 d . .
H28A H -0.0674(114) 0.1108(87) -0.4432(156) 0.050 Uiso 1 calc . .
H28B H 0.0166(123) 0.1207(85) -0.3719(151) 0.050 Uiso 1 calc . .
H28C H -0.0372(111) 0.1687(88) -0.4282(157) 0.050 Uiso 1 calc . .
C29R C -0.0958(38) 0.1391(23) -0.3408(43) 0.166(26) Uiso 1 d . .
H29A H -0.0893(113) 0.1556(80) -0.2882(160) 0.050 Uiso 1 calc . .
H29B H -0.1084(112) 0.1022(88) -0.3451(143) 0.050 Uiso 1 calc . .
H29C H -0.1340(115) 0.1570(81) -0.3999(154) 0.050 Uiso 1 calc . .
S1A S 0.2822(14) 0.1239(11) 0.0366(22) 0.035(7) Uiso 0.25 d P .
S1B S 0.3024(14) 0.1045(11) 0.1009(19) 0.033(7) Uiso 0.25 d P .
O1S O 0.3123(18) 0.0619(13) 0.0629(24) 0.054(10) Uiso 0.50 d P .
C2A C 0.3882(44) 0.1336(31) 0.2018(58) 0.020(23) Uiso 0.25 d P .
C1S C 0.3317(61) 0.1551(42) 0.0851(79) 0.194(40) Uiso 0.50 d P .
C2B C 0.2761(46) 0.1448(35) -0.0213(67) 0.030(24) Uiso 0.25 d P .
O1W O 0.5388(40) -0.2971(30) 0.4163(53) 0.073(23) Uiso 0.25 d P .

loop_
_atom_site_aniso_label
_atom_site_aniso_U_11
_atom_site_aniso_U_22
_atom_site_aniso_U_33
_atom_site_aniso_U_23
_atom_site_aniso_U_13
_atom_site_aniso_U_12
Cu1 0.067(3) 0.093(3) 0.085(4) -0.008(3) 0.034(3) -0.002(3)
O1 0.079(16) 0.106(18) 0.062(15) -0.014(13) 0.039(13) -0.010(14)
O2 0.058(14) 0.074(16) 0.078(17) -0.004(12) 0.028(14) -0.013(11)
N1 0.078(20) 0.078(21) 0.082(23) -0.032(17) 0.043(19) 0.005(16)
N2 0.131(27) 0.062(21) 0.115(26) 0.018(19) 0.093(24) 0.025(20)
O3 0.133(23) 0.099(20) 0.169(27) -0.046(18) 0.104(22) -0.062(18)
O4 0.106(19) 0.082(17) 0.095(19) -0.005(14) 0.