####################################################################### 
# 
# This file contains crystal structure data downloaded from the 
# Cambridge Structural Database (CSD) hosted by the Cambridge 
# Crystallographic Data Centre (CCDC).
# 
# Full information about CCDC data access policies and citation 
# guidelines are available at http://www.ccdc.cam.ac.uk/access/V1 
# 
# Audit and citation data items may have been added by the CCDC. 
# Please retain this information to preserve the provenance of 
# this file and to allow appropriate attribution of the data. 
# 
#######################################################################

data_cuco
_audit_block_doi                 10.5517/cc3g8b4
_database_code_depnum_ccdc_archive 'CCDC 103085'
loop_
_citation_id
_citation_doi
_citation_year
1 10.1002/(SICI)1521-3765(19990503)5:5<1486::AID-CHEM1486>3.0.CO;2-F 1999
_audit_update_record             
;
1998-09-17 deposited with the CCDC.	2024-07-10 downloaded from the CCDC.
;

_audit_creation_method           SHELXL
_chemical_name_systematic        
; 
? 
;
_chemical_name_common            ?
_chemical_formula_moiety         ?
_chemical_formula_structural     ?
_chemical_formula_analytical     ?
_chemical_formula_sum            'C61 H63.50 Co2 Cu3 N12 O23.75 S1.50'
_chemical_formula_weight         1701.31
_chemical_melting_point          ?
_chemical_compound_source        ?

loop_
_atom_type_symbol
_atom_type_description
_atom_type_scat_dispersion_real
_atom_type_scat_dispersion_imag
_atom_type_scat_source
C C 0.0033 0.0016 'International Tables Vol C Tables 4.2.6.8 and 6.1.1.4'
H H 0.0000 0.0000 'International Tables Vol C Tables 4.2.6.8 and 6.1.1.4'
N N 0.0061 0.0033 'International Tables Vol C Tables 4.2.6.8 and 6.1.1.4'
O O 0.0106 0.0060 'International Tables Vol C Tables 4.2.6.8 and 6.1.1.4'
Co Co 0.3494 0.9721 'International Tables Vol C Tables 4.2.6.8 and 6.1.1.4'
Cu Cu 0.3201 1.2651 'International Tables Vol C Tables 4.2.6.8 and 6.1.1.4'
S S 0.1246 0.1234 'International Tables Vol C Tables 4.2.6.8 and 6.1.1.4'

_symmetry_cell_setting           Monoclinic
_symmetry_space_group_name_H-M   Cc

loop_
_symmetry_equiv_pos_as_xyz
'x, y, z'
'x, -y, z+1/2'
'x+1/2, y+1/2, z'
'x+1/2, -y+1/2, z+1/2'

_cell_length_a                   24.646(3)
_cell_length_b                   24.854(3)
_cell_length_c                   18.181(2)
_cell_angle_alpha                90.00
_cell_angle_beta                 131.506(2)
_cell_angle_gamma                90.00
_cell_volume                     8340.1(15)
_cell_formula_units_Z            4
_cell_measurement_temperature    293(2)
_cell_measurement_reflns_used    ?
_cell_measurement_theta_min      ?
_cell_measurement_theta_max      ?

_exptl_crystal_description       Parallelepipedic
_exptl_crystal_colour            'dark green'
_exptl_crystal_size_max          0.1
_exptl_crystal_size_mid          0.06
_exptl_crystal_size_min          0.04
_exptl_crystal_density_meas      ?
_exptl_crystal_density_diffrn    1.355
_exptl_crystal_density_method    ?
_exptl_crystal_F_000             3474
_exptl_absorpt_coefficient_mu    1.252
_exptl_absorpt_correction_type   'SADABS G. Sheldrick (unpublished)'
_exptl_absorpt_correction_T_min  ?
_exptl_absorpt_correction_T_max  ?

_exptl_special_details           
; 
? 
;

_diffrn_ambient_temperature      296(2)
_diffrn_radiation_wavelength     0.71073
_diffrn_radiation_type           MoK\a
_diffrn_radiation_source         'sealed tube'
_diffrn_radiation_monochromator  graphite
_diffrn_measurement_device       'Siemens P4'
_diffrn_measurement_method       '\w scans'
_diffrn_standards_number         ?
_diffrn_standards_interval_count ?
_diffrn_standards_interval_time  ?
_diffrn_standards_decay_%        ?
_diffrn_reflns_number            29465
_diffrn_reflns_av_R_equivalents  0.5293
_diffrn_reflns_av_sigmaI/netI    0.9904
_diffrn_reflns_limit_h_min       -32
_diffrn_reflns_limit_h_max       33
_diffrn_reflns_limit_k_min       -33
_diffrn_reflns_limit_k_max       35
_diffrn_reflns_limit_l_min       -23
_diffrn_reflns_limit_l_max       25
_diffrn_reflns_theta_min         1.37
_diffrn_reflns_theta_max         30.65
_reflns_number_total             15772
_reflns_number_observed          2504
_reflns_observed_criterion       >2sigma(I)

_computing_data_collection       'Siemens XSCANS'
_computing_cell_refinement       'Siemens XSCANS'
_computing_data_reduction        'Siemens SHELXTL'
_computing_structure_solution    'SHELXS-86 (Sheldrick, 1990)'
_computing_structure_refinement  'SHELXL-93 (Sheldrick, 1993)'
_computing_molecular_graphics    'ORTEP III'
_computing_publication_material  ?

_refine_special_details          
; 
Refinement on F^2^ for ALL reflections except for 2 with very negative F^2^ 
or flagged by the user for potential systematic errors.  Weighted R-factors 
wR and all goodnesses of fit S are based on F^2^, conventional R-factors R 
are based on F, with F set to zero for negative F^2^. The observed criterion 
of F^2^ > 2sigma(F^2^) is used only for calculating _R_factor_obs etc. and is 
not relevant to the choice of reflections for refinement.  R-factors based 
on F^2^ are statistically about twice as large as those based on F, and R- 
factors based on ALL data will be even larger. 
;

_refine_ls_structure_factor_coef Fsqd
_refine_ls_matrix_type           full
_refine_ls_weighting_scheme      
'calc w=1/[\s^2^(Fo^2^)+(0.1137P)^2^+0.0000P] where P=(Fo^2^+2Fc^2^)/3'
_atom_sites_solution_primary     direct
_atom_sites_solution_secondary   difmap
_atom_sites_solution_hydrogens   geom
_refine_ls_hydrogen_treatment    ?
_refine_ls_extinction_method     none
_refine_ls_extinction_coef       ?
_refine_ls_abs_structure_details 'Flack H D (1983), Acta Cryst. A39, 876-881'
_refine_ls_abs_structure_Flack   0.00
_refine_ls_number_reflns         15770
_refine_ls_number_parameters     556
_refine_ls_number_restraints     2
_refine_ls_R_factor_all          0.5390
_refine_ls_R_factor_obs          0.1474
_refine_ls_wR_factor_all         0.4340
_refine_ls_wR_factor_obs         0.2573
_refine_ls_goodness_of_fit_all   0.918
_refine_ls_goodness_of_fit_obs   1.426
_refine_ls_restrained_S_all      0.931
_refine_ls_restrained_S_obs      1.425
_refine_ls_shift/esd_max         0.062
_refine_ls_shift/esd_mean        0.005

loop_
_atom_site_label
_atom_site_type_symbol
_atom_site_fract_x
_atom_site_fract_y
_atom_site_fract_z
_atom_site_U_iso_or_equiv
_atom_site_thermal_displace_type
_atom_site_occupancy
_atom_site_calc_flag
_atom_site_refinement_flags
_atom_site_disorder_group
Cu1 Cu 0.2338(3) 0.2681(2) 0.7697(3) 0.094(2) Uani 1 d . .
O1 O 0.1720(14) 0.2759(12) 0.6218(19) 0.096(9) Uani 1 d . .
O2 O 0.2070(14) 0.3326(9) 0.8080(17) 0.093(9) Uani 1 d . .
N1 N 0.2494(17) 0.1997(12) 0.7535(25) 0.076(10) Uiso 1 d . .
N2 N 0.2836(17) 0.2391(14) 0.9007(23) 0.089(11) Uiso 1 d . .
C1 C 0.1839(25) 0.2364(21) 0.5939(40) 0.091(16) Uiso 1 d . .
C2 C 0.2250(23) 0.1904(18) 0.6632(34) 0.085(13) Uiso 1 d . .
C4 C 0.2350(20) 0.3270(16) 0.8987(33) 0.061(11) Uiso 1 d . .
C3 C 0.2740(21) 0.2760(16) 0.9526(32) 0.077(13) Uiso 1 d . .
O3 O 0.2347(15) 0.3602(11) 0.9460(19) 0.103(10) Uani 1 d . .
O4 O 0.3032(13) 0.2674(9) 0.0393(16) 0.082(9) Uani 1 d . .
O5 O 0.1593(12) 0.2262(8) 0.5105(16) 0.069(7) Uani 1 d . .
O6 O 0.2329(13) 0.1408(10) 0.6337(16) 0.077(8) Uani 1 d . .
C5 C 0.2913(22) 0.1639(18) 0.8252(30) 0.086(13) Uiso 1 d . .
C6 C 0.3278(20) 0.1166(15) 0.8527(28) 0.081(12) Uiso 1 d . .
H6 H 0.3224(20) 0.1000(15) 0.8023(28) 0.050 Uiso 1 calc R .
C7 C 0.3685(24) 0.0896(19) 0.9340(34) 0.112(15) Uiso 1 d . .
H7 H 0.3873(24) 0.0559(19) 0.9394(34) 0.050 Uiso 1 calc R .
C8 C 0.3833(23) 0.1180(18) 1.0214(33) 0.110(16) Uiso 1 d . .
H8 H 0.4124(23) 0.1016(18) 1.0827(33) 0.050 Uiso 1 calc R .
C9 C 0.3539(24) 0.1666(20) 1.0082(39) 0.136(19) Uiso 1 d . .
H9 H 0.3648(24) 0.1854(20) 1.0608(39) 0.050 Uiso 1 calc R .
C10 C 0.3065(22) 0.1882(18) 0.9128(33) 0.089(13) Uiso 1 d . .
Cu2 Cu 0.2544(2) 0.2237(2) 0.3010(3) 0.078(2) Uani 1 d . .
O7 O 0.3371(13) 0.2466(12) 0.3163(20) 0.097(9) Uani 1 d . .
O8 O 0.2996(12) 0.1848(9) 0.4227(14) 0.072(7) Uani 1 d . .
N3 N 0.1981(15) 0.2666(10) 0.1860(19) 0.049(7) Uiso 1 d . .
N4 N 0.1639(14) 0.2110(10) 0.2640(20) 0.054(8) Uiso 1 d . .
C11 C 0.3063(21) 0.2770(15) 0.2342(28) 0.058(11) Uiso 1 d . .
C12 C 0.2287(24) 0.2849(16) 0.1585(34) 0.083(14) Uiso 1 d . .
C14 C 0.2461(21) 0.1752(14) 0.4262(29) 0.063(11) Uiso 1 d . .
C13 C 0.1725(20) 0.1857(13) 0.3386(25) 0.052(10) Uiso 1 d . .
O11 O 0.2653(12) 0.1561(9) 0.5090(14) 0.067(7) Uani 1 d . .
O12 O 0.1231(12) 0.1741(9) 0.3393(14) 0.061(7) Uani 1 d . .
O9 O 0.3517(14) 0.2975(11) 0.2329(16) 0.101(10) Uani 1 d . .
O10 O 0.2048(13) 0.3158(12) 0.0799(18) 0.095(9) Uani 1 d . .
C15 C 0.1250(20) 0.2641(14) 0.1344(26) 0.068(11) Uiso 1 d . .
C16 C 0.0667(18) 0.2909(13) 0.0481(25) 0.066(11) Uiso 1 d . .
H16 H 0.0775(18) 0.3121(13) 0.0170(25) 0.050 Uiso 1 calc R .
C17 C -0.0047(24) 0.2887(16) 0.0055(33) 0.108(15) Uiso 1 d . .
H17 H -0.0399(24) 0.3082(16) -0.0512(33) 0.050 Uiso 1 calc R .
C18 C -0.0223(25) 0.2588(15) 0.0462(31) 0.101(14) Uiso 1 d . .
H18 H -0.0690(25) 0.2603(15) 0.0234(31) 0.050 Uiso 1 calc R .
C19 C 0.0279(24) 0.2255(17) 0.1221(31) 0.107(15) Uiso 1 d . .
H19 H 0.0115(24) 0.1976(17) 0.1372(31) 0.050 Uiso 1 calc R .
C20 C 0.1038(19) 0.2308(13) 0.1796(26) 0.057(10) Uiso 1 d . .
Cu3 Cu -0.0291(3) -0.0047(2) 0.3144(3) 0.074(2) Uani 1 d . .
O14 O -0.1264(14) -0.0246(11) 0.2444(17) 0.084(8) Uani 1 d . .
O13 O -0.0098(12) 0.0659(8) 0.3775(15) 0.056(6) Uani 1 d . .
N6 N -0.0315(13) -0.0650(10) 0.2517(17) 0.045(7) Uiso 1 d . .
N5 N 0.0663(14) 0.0042(11) 0.3700(19) 0.049(8) Uiso 1 d . .
C24 C -0.1554(23) -0.0686(16) 0.1879(28) 0.052(10) Uiso 1 d . .
C23 C -0.0965(18) -0.0902(14) 0.1925(24) 0.051(10) Uiso 1 d . .
C21 C 0.0524(22) 0.0820(17) 0.4111(27) 0.058(11) Uiso 1 d . .
C22 C 0.1032(20) 0.0473(14) 0.4108(24) 0.045(10) Uiso 1 d . .
O15 O 0.0709(14) 0.1279(10) 0.4441(18) 0.082(8) Uani 1 d . .
O16 O 0.1595(11) 0.0653(8) 0.4451(13) 0.052(6) Uani 1 d . .
O18 O -0.2096(12) -0.0896(10) 0.1391(17) 0.071(8) Uani 1 d . .
O17 O -0.1079(12) -0.1341(8) 0.1439(15) 0.059(7) Uani 1 d . .
C30 C 0.0357(19) -0.0784(14) 0.2785(25) 0.065(11) Uiso 1 d . .
C29 C 0.0520(23) -0.1241(16) 0.2441(31) 0.096(14) Uiso 1 d . .
H29 H 0.0175(23) -0.1487(16) 0.1970(31) 0.050 Uiso 1 calc R .
C28 C 0.1253(18) -0.1262(13) 0.2904(23) 0.056(10) Uiso 1 d . .
H28 H 0.1392(18) -0.1557(13) 0.2748(23) 0.050 Uiso 1 calc R .
C27 C 0.1797(23) -0.0902(15) 0.3565(28) 0.092(14) Uiso 1 d . .
H27 H 0.2262(23) -0.0946(15) 0.3794(28) 0.050 Uiso 1 calc R .
C26 C 0.1642(19) -0.0494(14) 0.3863(25) 0.061(10) Uiso 1 d . .
H26 H 0.2022(19) -0.0269(14) 0.4339(25) 0.050 Uiso 1 calc R .
C25 C 0.0925(18) -0.0365(13) 0.3511(24) 0.055(10) Uiso 1 d . .
Co1 Co 0.2930(3) 0.3371(2) 0.0926(3) 0.068(2) Uani 1 d . .
Co2 Co 0.1702(3) 0.1466(2) 0.4817(3) 0.062(2) Uani 1 d . .
N1R N 0.0674(17) 0.7633(12) 0.3741(22) 0.078(10) Uiso 1 d . .
C2R C 0.0143(22) 0.7851(15) 0.3644(27) 0.082(12) Uiso 1 d . .
H2R H -0.0323(22) 0.7708(15) 0.3205(27) 0.050 Uiso 1 calc R .
C3R C 0.0295(18) 0.8306(12) 0.4222(23) 0.055(10) Uiso 1 d . .
H3R H -0.0078(18) 0.8481(12) 0.4131(23) 0.050 Uiso 1 calc R .
C4R C 0.0976(19) 0.8483(13) 0.4897(25) 0.055(10) Uiso 1 d . .
C5R C 0.1506(18) 0.8211(13) 0.4974(24) 0.054(10) Uiso 1 d . .
H5R H 0.1990(18) 0.8305(13) 0.5475(24) 0.050 Uiso 1 calc R .
C6R C 0.1348(21) 0.7830(15) 0.4367(27) 0.081(13) Uiso 1 d . .
H6R H 0.1701(21) 0.7695(15) 0.4369(27) 0.050 Uiso 1 calc R .
C7R C 0.1140(22) 0.8897(15) 0.5598(28) 0.065(10) Uiso 1 d . .
N2R N 0.0711(18) 0.9290(12) 0.5421(23) 0.068(9) Uiso 1 d . .
C8R C 0.1086(26) 0.9615(19) 0.6460(35) 0.116(16) Uiso 1 d . .
C9R C 0.1896(27) 0.9548(18) 0.6955(37) 0.115(16) Uiso 1 d . .
N3R N 0.1832(19) 0.8977(13) 0.6445(25) 0.073(10) Uiso 1 d . .
O1R O 0.2362(15) 0.8654(12) 0.6925(16) 0.095(9) Uani 1 d . .
O2R O 0.0066(13) 0.9400(10) 0.4690(17) 0.074(8) Uani 1 d . .
C1R C 0.0444(25) 0.7187(17) 0.3039(33) 0.120(17) Uiso 1 d . .
H1A H 0.0821(25) 0.6916(17) 0.3371(33) 0.050 Uiso 1 calc R .
H1B H 0.0011(25) 0.7022(17) 0.2851(33) 0.050 Uiso 1 calc R .
C1P C 0.0307(27) 0.7343(19) 0.2218(36) 0.172(22) Uiso 1 d . .
H1P1 H 0.0165(27) 0.7036(19) 0.1804(36) 0.050 Uiso 1 calc R .
H1P2 H 0.0735(27) 0.7501(19) 0.2394(36) 0.050 Uiso 1 calc R .
H1P3 H -0.0078(27) 0.7603(19) 0.1871(36) 0.050 Uiso 1 calc R .
C19R C 0.2245(23) 0.9896(16) 0.6670(33) 0.128(18) Uiso 1 d . .
H19A H 0.2740(23) 0.9789(16) 0.7047(33) 0.050 Uiso 1 calc R .
H19B H 0.2229(23) 1.0268(16) 0.6801(33) 0.050 Uiso 1 calc R .
H19C H 0.1985(23) 0.9851(16) 0.5983(33) 0.050 Uiso 1 calc R .
C20R C 0.2422(23) 0.9511(16) 0.8099(30) 0.121(17) Uiso 1 d . .
H20A H 0.2909(23) 0.9460(16) 0.8363(30) 0.050 Uiso 1 calc R .
H20B H 0.2286(23) 0.9212(16) 0.8281(30) 0.050 Uiso 1 calc R .
H20C H 0.2395(23) 0.9837(16) 0.8356(30) 0.050 Uiso 1 calc R .
C21R C 0.0869(24) 1.0221(16) 0.6167(33) 0.136(18) Uiso 1 d . .
H21A H 0.0374(24) 1.0270(16) 0.5869(33) 0.050 Uiso 1 calc R .
H21B H 0.0923(24) 1.0322(16) 0.5709(33) 0.050 Uiso 1 calc R .
H21C H 0.1177(24) 1.0442(16) 0.6743(33) 0.050 Uiso 1 calc R .
C22R C 0.0756(24) 0.9332(18) 0.6841(33) 0.145(19) Uiso 1 d . .
H22A H 0.0255(24) 0.9432(18) 0.6439(33) 0.050 Uiso 1 calc R .
H22B H 0.1015(24) 0.9439(18) 0.7507(33) 0.050 Uiso 1 calc R .
H22C H 0.0791(24) 0.8949(18) 0.6812(33) 0.050 Uiso 1 calc R .
N4R N 0.4373(19) 0.7665(14) 0.2714(26) 0.104(12) Uiso 1 d . .
C11R C 0.4775(23) 0.7161(15) 0.2903(32) 0.092(14) Uiso 1 d . .
H11R H 0.5243(23) 0.7107(15) 0.3496(32) 0.050 Uiso 1 calc R .
C12R C 0.4450(18) 0.6796(14) 0.2209(25) 0.059(10) Uiso 1 d . .
H12R H 0.4700(18) 0.6482(14) 0.2322(25) 0.050 Uiso 1 calc R .
C13R C 0.3782(19) 0.6855(13) 0.1355(25) 0.056(10) Uiso 1 d . .
C14R C 0.3375(21) 0.7349(15) 0.1167(28) 0.073(11) Uiso 1 d . .
H14R H 0.2897(21) 0.7401(15) 0.0592(28) 0.050 Uiso 1 calc R .
C15R C 0.3712(22) 0.7686(17) 0.1821(31) 0.089(13) Uiso 1 d . .
H15R H 0.3469(22) 0.8010(17) 0.1673(31) 0.050 Uiso 1 calc R .
C16R C 0.3488(24) 0.6469(17) 0.0546(35) 0.092(14) Uiso 1 d . .
N5R N 0.2886(21) 0.6494(18) -0.0449(31) 0.108(13) Uiso 1 d . .
C17R C 0.2916(32) 0.6009(23) -0.0925(44) 0.142(20) Uiso 1 d . .
C18R C 0.3250(29) 0.5624(23) -0.0159(41) 0.128(18) Uiso 1 d . .
N6R N 0.3724(20) 0.5914(16) 0.0764(29) 0.094(12) Uiso 1 d . .
O4R O 0.4230(24) 0.5694(13) 0.1552(27) 0.177(18) Uani 1 d . .
O3R O 0.2674(19) 0.6942(13) -0.0789(23) 0.139(13) Uani 1 d . .
C10R C 0.4699(31) 0.8006(23) 0.3569(39) 0.185(25) Uiso 1 d . .
H10A H 0.4360(31) 0.8298(23) 0.3349(39) 0.050 Uiso 1 calc R .
H10B H 0.5124(31) 0.8166(23) 0.3728(39) 0.050 Uiso 1 calc R .
C11P C 0.4951(30) 0.7796(21) 0.4610(37) 0.210(28) Uiso 1 d . .
H11A H 0.5146(30) 0.8092(21) 0.5060(37) 0.050 Uiso 1 calc R .
H11B H 0.5315(30) 0.7522(21) 0.4883(37) 0.050 Uiso 1 calc R .
H11C H 0.4540(30) 0.7650(21) 0.4497(37) 0.050 Uiso 1 calc R .
C26R C 0.2638(30) 0.5401(21) -0.0162(42) 0.218(29) Uiso 1 d . .
H26A H 0.2394(30) 0.5698(21) -0.0152(42) 0.050 Uiso 1 calc R .
H26B H 0.2859(30) 0.5181(21) 0.0408(42) 0.050 Uiso 1 calc R .
H26C H 0.2295(30) 0.5191(21) -0.0744(42) 0.050 Uiso 1 calc R .
C27R C 0.3494(27) 0.5185(19) -0.0167(37) 0.162(23) Uiso 1 d . .
H27A H 0.3679(27) 0.4982(19) 0.0406(37) 0.050 Uiso 1 calc R .
H27B H 0.3876(27) 0.5251(19) -0.0171(37) 0.050 Uiso 1 calc R .
H27C H 0.3113(27) 0.4986(19) -0.0745(37) 0.050 Uiso 1 calc R .
C28R C 0.3460(27) 0.6067(20) -0.1140(40) 0.191(25) Uiso 1 d . .
H28A H 0.3948(27) 0.6117(20) -0.0530(40) 0.050 Uiso 1 calc R .
H28B H 0.3319(27) 0.6372(20) -0.1558(40) 0.050 Uiso 1 calc R .
H28C H 0.3435(27) 0.5747(20) -0.1457(40) 0.050 Uiso 1 calc R .
C29R C 0.2200(33) 0.5941(25) -0.1603(48) 0.273(39) Uiso 1 d . .
H29A H 0.1993(33) 0.6210(25) -0.2103(48) 0.050 Uiso 1 calc R .
H29B H 0.1997(33) 0.5972(25) -0.1301(48) 0.050 Uiso 1 calc R .
H29C H 0.2095(33) 0.5590(25) -0.1891(48) 0.050 Uiso 1 calc R .
S1S S 0.3704(11) 0.3549(8) 0.8256(15) 0.186(7) Uiso 1 d . .
O1S O 0.3255(15) 0.3022(12) 0.7939(21) 0.113(10) Uiso 1 d . .
C1S C 0.4081(34) 0.3648(25) 0.9568(44) 0.278(39) Uiso 1 d . .
H1S1 H 0.4470(34) 0.3398(25) 1.0000(44) 0.050 Uiso 1 calc R .
H1S2 H 0.3704(34) 0.3585(25) 0.9583(44) 0.050 Uiso 1 calc R .
H1S3 H 0.4259(34) 0.4009(25) 0.9780(44) 0.050 Uiso 1 calc R .
C2S C 0.3108(28) 0.3936(20) 0.7581(38) 0.189(25) Uiso 1 d . .
H2S1 H 0.2918(28) 0.3879(20) 0.6925(38) 0.050 Uiso 1 calc R .
H2S2 H 0.3289(28) 0.4297(20) 0.7784(38) 0.050 Uiso 1 calc R .
H2S3 H 0.2730(28) 0.3882(20) 0.7597(38) 0.050 Uiso 1 calc R .
S2S S 0.4290(45) 0.9270(31) 0.1625(60) 0.200(31) Uiso 0.25 d P .
O2S O 0.3547(58) 0.9576(43) 0.1016(76) 0.104(36) Uiso 0.25 d P .
O3S O -0.1044(37) 0.3516(26) -0.2462(50) 0.035(21) Uiso 0.25 d P .
S3S S 0.1329(59) 0.4460(42) 0.0114(86) 0.293(49) Uiso 0.25 d P .

loop_
_atom_site_aniso_label
_atom_site_aniso_U_11
_atom_site_aniso_U_22
_atom_site_aniso_U_33
_atom_site_aniso_U_23
_atom_site_aniso_U_13
_atom_site_aniso_U_12
Cu1 0.146(5) 0.098(4) 0.068(4) -0.019(3) 0.084(4) -0.016(4)
O1 0.113(24) 0.091(23) 0.090(23) 0.002(17) 0.070(21) -0.005(19)
O2 0.116(23) 0.092(21) 0.036(17) 0.010(14) 0.035(17) 0.030(17)
O3 0.169(30) 0.087(21) 0.083(22) -0.044(17) 0.095(23) -0.054(20)
O4 0.109(21) 0.070(18) 0.026(15) -0.023(13) 0.028(15) -0.056(15)
O5 0.092(19) 0.064(17) 0.026(15) -0.029(12) 0.028(14) -0.023(14)
O6 0.116(22) 0.087(20) 0.056(18) 0.007(14) 0.068(18) 0.014(16)
Cu2 0.052(3) 0.134(5) 0.045(3) 0.019(3) 0.030(3) -0.004(3)
O7 0.052(17) 0.160(27) 0.092(22) 0.009(20) 0.053(18) -0.008(1