
#######################################################################
#
#                 Cambridge Crystallographic Data Centre
#                                CCDC
#
#######################################################################
#
# If this CIF has been generated from an entry in the Cambridge
# Structural Database, then it will include bibliographic, chemical,
# crystal, experimental, refinement or atomic coordinate data resulting
# from the CCDC's data processing and validation procedures.
#
#######################################################################

data_CSD_CIF_HOFXEF
_audit_creation_date 1999-10-05
_audit_creation_method CSD-ConQuest-V1
_database_code_CSD HOFXEF
_database_code_depnum_ccdc_archive 'CCDC 112689'
_chemical_formula_sum 'C48 H82 B2 N12 Yb2'
_chemical_formula_moiety
;
C48 H82 B2 N12 Yb2
;
_journal_coden_Cambridge 179
_journal_volume 38
_journal_year 1999
_journal_page_first 2233
_journal_name_full 'Angew.Chem.,Int.Ed. '
loop_
_publ_author_name
"G.M.Ferrence"
"R.McDonald"
"J.Takats"
_chemical_name_systematic
;
bis(\m~2~-Hydrido)-bis(hydrogen 
tris(3-t-butyl-5-methylpyrazolyl)borate)-di-ytterbium(ii)
;
_chemical_name_common
;
Teaching Subset: Fundamental Chemistry
;
_cell_volume   2781.460
_exptl_crystal_colour 'orange'
_exptl_crystal_density_diffrn 1.427
_diffrn_ambient_temperature 213
#These two values have been output from a single CSD field.
_refine_ls_R_factor_gt 0.0495
_refine_ls_wR_factor_gt 0.0495
_symmetry_cell_setting triclinic
_symmetry_space_group_name_H-M 'P -1'
_symmetry_Int_Tables_number 2
loop_
_symmetry_equiv_pos_site_id
_symmetry_equiv_pos_as_xyz
1 x,y,z
2 -x,-y,-z
_cell_length_a 12.454(2)
_cell_length_b 12.659(2)
_cell_length_c 21.021(3)
_cell_angle_alpha 90.015(9)
_cell_angle_beta 103.632(10)
_cell_angle_gamma 119.333(8)
_cell_formula_units_Z 2
loop_
_atom_type_symbol
_atom_type_radius_bond
C 0.68
H 0.25
B 0.83
N 0.68
Yb 1.62
loop_
_atom_site_label
_atom_site_type_symbol
_atom_site_fract_x
_atom_site_fract_y
_atom_site_fract_z
Yb1 Yb 0.43272(4) 0.44223(4) -0.08830(2)
H1 H 0.5170(56) 0.6093(40) -0.0130(5)
N1 N 0.3174(7) 0.4684(7) -0.2353(4)
N2 N 0.3053(7) 0.5037(7) -0.1765(3)
N3 N 0.4545(7) 0.3719(6) -0.2325(4)
N4 N 0.5415(7) 0.4368(6) -0.1717(3)
N5 N 0.2319(7) 0.2430(7) -0.2161(4)
N6 N 0.2720(7) 0.2334(6) -0.1505(3)
C1 C 0.2974(8) 0.6038(8) -0.1846(5)
C2 C 0.3080(9) 0.6354(10) -0.2479(5)
H2 H 0.3073(9) 0.7032(10) -0.2657(5)
C3 C 0.3191(9) 0.5489(10) -0.2776(5)
C4 C 0.3349(11) 0.5398(11) -0.3461(5)
H3 H 0.3427(64) 0.6114(30) -0.3661(13)
H4 H 0.2609(31) 0.4670(34) -0.3730(11)
H5 H 0.4113(36) 0.5351(63) -0.3433(6)
C5 C 0.2748(10) 0.6676(9) -0.1325(5)
C6 C 0.2131(13) 0.5817(11) -0.0868(5)
H6 H 0.1996(13) 0.6244(11) -0.0539(5)
H7 H 0.2682(13) 0.5512(11) -0.0649(5)
H8 H 0.1315(13) 0.5137(11) -0.1117(5)
C7 C 0.4031(11) 0.7766(10) -0.0947(6)
H9 H 0.4415(11) 0.8312(10) -0.1253(6)
H10 H 0.4596(11) 0.7478(10) -0.0726(6)
H11 H 0.3899(11) 0.8202(10) -0.0622(6)
C8 C 0.1881(12) 0.7155(11) -0.1665(6)
H12 H 0.2278(12) 0.7713(11) -0.1963(6)
H13 H 0.1749(12) 0.7581(11) -0.1334(6)
H14 H 0.1064(12) 0.6474(11) -0.1913(6)
C9 C 0.6532(9) 0.4486(8) -0.1736(5)
C10 C 0.6412(11) 0.3935(9) -0.2341(5)
H15 H 0.7056(11) 0.3893(9) -0.2480(5)
C11 C 0.5174(10) 0.3472(9) -0.2690(5)
C12 C 0.4535(12) 0.2778(11) -0.3369(5)
H16 H 0.4191(58) 0.3208(34) -0.3651(10)
H17 H 0.3845(43) 0.1968(24) -0.3353(7)
H18 H 0.5152(19) 0.2706(54) -0.3546(14)
C13 C 0.7723(9) 0.5166(8) -0.1174(5)
C14 C 0.7466(9) 0.5673(9) -0.0612(5)
H19 H 0.8248(9) 0.6107(9) -0.0257(5)
H20 H 0.6816(9) 0.5007(9) -0.0452(5)
H21 H 0.7170(9) 0.6231(9) -0.0768(5)
C15 C 0.8192(11) 0.4301(11) -0.0941(6)
H22 H 0.8962(11) 0.4727(11) -0.0578(6)
H23 H 0.8379(11) 0.4003(11) -0.1301(6)
H24 H 0.7537(11) 0.3616(11) -0.0793(6)
C16 C 0.8726(11) 0.6226(11) -0.1429(7)
H25 H 0.9504(11) 0.6677(11) -0.1073(7)
H26 H 0.8406(11) 0.6765(11) -0.1589(7)
H27 H 0.8906(11) 0.5910(11) -0.1786(7)
C17 C 0.1833(8) 0.1222(8) -0.1406(5)
C18 C 0.0870(9) 0.0653(9) -0.1987(5)
H28 H 0.0131(9) -0.0121(9) -0.2051(5)
C19 C 0.1191(8) 0.1427(8) -0.2454(5)
C20 C 0.0467(10) 0.1253(10) -0.3150(5)
H29 H 0.0967(27) 0.1246(60) -0.3439(5)
H30 H 0.0293(54) 0.1918(33) -0.3223(9)
H31 H -0.0334(29) 0.0482(29) -0.3243(10)
C21 C 0.1941(9) 0.0786(8) -0.0742(5)
C22 C 0.3187(10) 0.0767(10) -0.0518(6)
H32 H 0.3252(10) 0.0485(10) -0.0090(6)
H33 H 0.3904(10) 0.1586(10) -0.0487(6)
H34 H 0.3198(10) 0.0219(10) -0.0836(6)
C23 C 0.1885(12) 0.1586(10) -0.0236(5)
H35 H 0.1957(12) 0.1283(10) 0.0187(5)
H36 H 0.1077(12) 0.1571(10) -0.0374(5)
H37 H 0.2584(12) 0.2418(10) -0.0193(5)
C24 C 0.0833(12) -0.0527(10) -0.0792(6)
H38 H 0.0906(12) -0.0806(10) -0.0363(6)
H39 H 0.0868(12) -0.1062(10) -0.1108(6)
H40 H 0.0025(12) -0.0544(10) -0.0938(6)
B1 B 0.3168(11) 0.3478(10) -0.2507(6)
H41 H 0.2810(11) 0.3216(10) -0.2990(6)
Yb2 Yb 0.55659(4) 0.00427(4) 0.58863(2)
H42 H 0.5979(54) -0.0101(76) 0.4908(5)
N7 N 0.5176(7) 0.0044(7) 0.7321(4)
N8 N 0.4264(8) -0.0575(7) 0.6714(4)
N9 N 0.6495(7) -0.0967(6) 0.7203(3)
N10 N 0.6436(6) -0.1139(6) 0.6533(3)
N11 N 0.7505(7) 0.1345(7) 0.7357(4)
N12 N 0.7331(6) 0.1742(6) 0.6746(3)
C25 C 0.3206(10) -0.0615(8) 0.6769(5)
C26 C 0.3413(11) -0.0023(9) 0.7380(5)
H43 H 0.2812(11) 0.0072(9) 0.7534(5)
C27 C 0.4633(11) 0.0386(8) 0.7704(5)
C28 C 0.5395(11) 0.1119(10) 0.8381(5)
H44 H 0.6240(23) 0.1746(40) 0.8362(9)
H45 H 0.5473(54) 0.0581(15) 0.8694(8)
H46 H 0.4961(33) 0.1499(49) 0.8520(15)
C29 C 0.1942(10) -0.1307(9) 0.6239(6)
C30 C 0.0816(11) -0.1816(11) 0.6559(6)
H47 H 0.0014(11) -0.2257(11) 0.6218(6)
H48 H 0.0839(11) -0.1144(11) 0.6796(6)
H49 H 0.0890(11) -0.2366(11) 0.6865(6)
C31 C 0.1885(12) -0.2370(11) 0.5867(6)
H50 H 0.1076(12) -0.2808(11) 0.5530(6)
H51 H 0.1961(12) -0.2919(11) 0.6173(6)
H52 H 0.2583(12) -0.2061(11) 0.5661(6)
C32 C 0.1789(12) -0.0470(11) 0.5755(6)
H53 H 0.0978(12) -0.0927(11) 0.5421(6)
H54 H 0.2482(12) -0.0150(11) 0.5545(6)
H55 H 0.1809(12) 0.0203(11) 0.5989(6)
C33 C 0.6610(8) -0.2096(8) 0.6464(4)
C34 C 0.6739(9) -0.2545(9) 0.7071(5)
H56 H 0.6858(9) -0.3215(9) 0.7157(5)
C35 C 0.6659(10) -0.1825(9) 0.7505(5)
C36 C 0.6727(12) -0.1925(11) 0.8226(5)
H57 H 0.6037(39) -0.1864(62) 0.8327(9)
H58 H 0.7541(28) -0.1268(37) 0.8493(5)
H59 H 0.6646(66) -0.2706(27) 0.8321(9)
C37 C 0.6626(9) -0.2566(8) 0.5807(5)
C38 C 0.7675(10) -0.1558(10) 0.5563(5)
H60 H 0.8494(10) -0.1285(10) 0.5882(5)
H61 H 0.7522(10) -0.0878(10) 0.5510(5)
H62 H 0.7682(10) -0.1863(10) 0.5142(5)
C39 C 0.5345(10) -0.2996(10) 0.5312(5)
H63 H 0.4675(10) -0.3643(10) 0.5471(5)
H64 H 0.535(1) -0.3303(10) 0.4891(5)
H65 H 0.5189(10) -0.2317(10) 0.5258(5)
C40 C 0.6838(11) -0.3648(10) 0.5883(5)
H66 H 0.6160(11) -0.4289(10) 0.6040(5)
H67 H 0.7656(11) -0.3391(10) 0.6200(5)
H68 H 0.6835(11) -0.3955(10) 0.5460(5)
C41 C 0.8352(8) 0.2827(8) 0.6777(5)
C42 C 0.9210(9) 0.3124(10) 0.7408(5)
H69 H 1.0013(9) 0.3839(10) 0.7559(5)
C43 C 0.8677(9) 0.2207(9) 0.7758(5)
C44 C 0.9191(11) 0.2026(10) 0.8434(4)
H70 H 0.9142(58) 0.1238(27) 0.8420(7)
H71 H 0.8691(39) 0.2054(59) 0.8718(9)
H72 H 1.0076(21) 0.2669(35) 0.8607(13)
C45 C 0.8524(9) 0.3562(9) 0.6216(5)
C46 C 0.7331(10) 0.2952(11) 0.5632(5)
H73 H 0.7467(10) 0.3447(11) 0.5275(5)
H74 H 0.6606(10) 0.2876(11) 0.5768(5)
H75 H 0.7161(10) 0.2147(11) 0.5483(5)
C47 C 0.9659(11) 0.3723(13) 0.5994(6)
H76 H 0.9756(11) 0.4203(13) 0.5630(6)
H77 H 0.9521(11) 0.2928(13) 0.5852(6)
H78 H 1.0426(11) 0.4143(13) 0.6359(6)
C48 C 0.8764(16) 0.4818(11) 0.6438(7)
H79 H 0.8876(16) 0.5298(11) 0.6074(7)
H80 H 0.9529(16) 0.5228(11) 0.6805(7)
H81 H 0.8039(16) 0.4731(11) 0.6578(7)
B2 B 0.6488(11) 0.0137(10) 0.7511(5)
H82 H 0.6726(11) 0.0154(10) 0.7997(5)
Yb1A Yb 0.56728(4) 0.55777(4) 0.08830(2)
H1A H 0.4830(56) 0.3907(40) 0.0130(5)
N2A N 0.6947(7) 0.4963(7) 0.1765(3)
N1A N 0.6826(7) 0.5316(7) 0.2353(4)
C3A C 0.6809(9) 0.4511(10) 0.2776(5)
C2A C 0.6920(9) 0.3646(10) 0.2479(5)
C1A C 0.7026(8) 0.3962(8) 0.1846(5)
C5A C 0.7252(10) 0.3324(9) 0.1325(5)
C6A C 0.7869(13) 0.4183(11) 0.0868(5)
H6A H 0.8004(13) 0.3756(11) 0.0539(5)
H7A H 0.7318(13) 0.4488(11) 0.0649(5)
H8A H 0.8685(13) 0.4863(11) 0.1117(5)
C7A C 0.5969(11) 0.2234(10) 0.0947(6)
H9A H 0.5585(11) 0.1688(10) 0.1253(6)
H10A H 0.5404(11) 0.2522(10) 0.0726(6)
H11A H 0.6101(11) 0.1798(10) 0.0622(6)
C8A C 0.8119(12) 0.2845(11) 0.1665(6)
H12A H 0.7722(12) 0.2287(11) 0.1963(6)
H13A H 0.8251(12) 0.2419(11) 0.1334(6)
H14A H 0.8936(12) 0.3526(11) 0.1913(6)
H2A H 0.6927(9) 0.2968(10) 0.2657(5)
C4A C 0.6651(11) 0.4602(11) 0.3461(5)
H3A H 0.6573(64) 0.3886(30) 0.3661(13)
H4A H 0.7391(31) 0.5330(34) 0.3730(11)
H5A H 0.5887(36) 0.4649(63) 0.3433(6)
B1A B 0.6832(11) 0.6522(10) 0.2507(6)
N3A N 0.5455(7) 0.6281(6) 0.2325(4)
N4A N 0.4585(7) 0.5632(6) 0.1717(3)
N6A N 0.7280(7) 0.7666(6) 0.1505(3)
N5A N 0.7681(7) 0.7570(7) 0.2161(4)
C19A C 0.8809(8) 0.8573(8) 0.2454(5)
C18A C 0.9130(9) 0.9347(9) 0.1987(5)
C17A C 0.8167(8) 0.8778(8) 0.1406(5)
C21A C 0.8059(9) 0.9214(8) 0.0742(5)
C22A C 0.6813(10) 0.9233(10) 0.0518(6)
H32A H 0.6748(10) 0.9515(10) 0.0090(6)
H33A H 0.6096(10) 0.8414(10) 0.0487(6)
H34A H 0.6802(10) 0.9781(10) 0.0836(6)
C23A C 0.8115(12) 0.8414(10) 0.0236(5)
H35A H 0.8043(12) 0.8717(10) -0.0187(5)
H36A H 0.8923(12) 0.8429(10) 0.0374(5)
H37A H 0.7416(12) 0.7582(10) 0.0193(5)
C24A C 0.9167(12) 1.0527(10) 0.0792(6)
H38A H 0.9094(12) 1.0806(10) 0.0363(6)
H39A H 0.9132(12) 1.1062(10) 0.1108(6)
H40A H 0.9975(12) 1.0544(10) 0.0938(6)
H28A H 0.9869(9) 1.0121(9) 0.2051(5)
C20A C 0.9533(10) 0.8747(10) 0.3150(5)
H29A H 0.9033(27) 0.8754(60) 0.3439(5)
H30A H 0.9707(54) 0.8082(33) 0.3223(9)
H31A H 1.0334(29) 0.9518(29) 0.3243(10)
H41A H 0.7190(11) 0.6784(10) 0.2990(6)
C9A C 0.3468(9) 0.5514(8) 0.1736(5)
C10A C 0.3588(11) 0.6065(9) 0.2341(5)
H15A H 0.2944(11) 0.6107(9) 0.2480(5)
C11A C 0.4826(10) 0.6528(9) 0.2690(5)
C12A C 0.5465(12) 0.7222(11) 0.3369(5)
H16A H 0.5809(58) 0.6792(34) 0.3651(10)
H17A H 0.6155(43) 0.8032(24) 0.3353(7)
H18A H 0.4848(19) 0.7294(54) 0.3546(14)
C13A C 0.2277(9) 0.4834(8) 0.1174(5)
C14A C 0.2534(9) 0.4327(9) 0.0612(5)
H19A H 0.1752(9) 0.3893(9) 0.0257(5)
H20A H 0.3184(9) 0.4993(9) 0.0452(5)
H21A H 0.2830(9) 0.3769(9) 0.0768(5)
C15A C 0.1808(11) 0.5699(11) 0.0941(6)
H22A H 0.1038(11) 0.5273(11) 0.0578(6)
H23A H 0.1621(11) 0.5997(11) 0.1301(6)
H24A H 0.2463(11) 0.6384(11) 0.0793(6)
C16A C 0.1274(11) 0.3774(11) 0.1429(7)
H25A H 0.0496(11) 0.3323(11) 0.1073(7)
H26A H 0.1594(11) 0.3235(11) 0.1589(7)
H27A H 0.1094(11) 0.4090(11) 0.1786(7)
Yb2A Yb 0.44341(4) -0.00427(4) 0.41137(2)
H42A H 0.4021(54) 0.0101(76) 0.5092(5)
N8A N 0.5736(8) 0.0575(7) 0.3286(4)
N7A N 0.4824(7) -0.0044(7) 0.2679(4)
C27A C 0.5367(11) -0.0386(8) 0.2296(5)
C26A C 0.6587(11) 0.0023(9) 0.2620(5)
C25A C 0.6794(10) 0.0615(8) 0.3231(5)
C29A C 0.8058(10) 0.1307(9) 0.3761(6)
C30A C 0.9184(11) 0.1816(11) 0.3441(6)
H47A H 0.9986(11) 0.2257(11) 0.3782(6)
H48A H 0.9161(11) 0.1144(11) 0.3204(6)
H49A H 0.9110(11) 0.2366(11) 0.3135(6)
C31A C 0.8115(12) 0.2370(11) 0.4133(6)
H50A H 0.8924(12) 0.2808(11) 0.4470(6)
H51A H 0.8039(12) 0.2919(11) 0.3827(6)
H52A H 0.7417(12) 0.2061(11) 0.4339(6)
C32A C 0.8211(12) 0.0470(11) 0.4245(6)
H53A H 0.9022(12) 0.0927(11) 0.4579(6)
H54A H 0.7518(12) 0.0150(11) 0.4455(6)
H55A H 0.8191(12) -0.0203(11) 0.4011(6)
H43A H 0.7188(11) -0.0072(9) 0.2466(5)
C28A C 0.4605(11) -0.1119(10) 0.1619(5)
H44A H 0.3760(23) -0.1746(40) 0.1638(9)
H45A H 0.4527(54) -0.0581(15) 0.1306(8)
H46A H 0.5039(33) -0.1499(49) 0.1480(15)
B2A B 0.3512(11) -0.0137(10) 0.2489(5)
N9A N 0.3505(7) 0.0967(6) 0.2797(3)
N10A N 0.3564(6) 0.1139(6) 0.3467(3)
N12A N 0.2669(6) -0.1742(6) 0.3254(3)
N11A N 0.2495(7) -0.1345(7) 0.2643(4)
C43A C 0.1323(9) -0.2207(9) 0.2242(5)
C42A C 0.0790(9) -0.3124(10) 0.2592(5)
C41A C 0.1648(8) -0.2827(8) 0.3223(5)
C45A C 0.1476(9) -0.3562(9) 0.3784(5)
C46A C 0.2669(10) -0.2952(11) 0.4368(5)
H73A H 0.2533(10) -0.3447(11) 0.4725(5)
H74A H 0.3394(10) -0.2876(11) 0.4232(5)
H75A H 0.2839(10) -0.2147(11) 0.4517(5)
C47A C 0.0341(11) -0.3723(13) 0.4006(6)
H76A H 0.0244(11) -0.4203(13) 0.4370(6)
H77A H 0.0479(11) -0.2928(13) 0.4148(6)
H78A H -0.0426(11) -0.4143(13) 0.3641(6)
C48A C 0.1236(16) -0.4818(11) 0.3562(7)
H79A H 0.1124(16) -0.5298(11) 0.3926(7)
H80A H 0.0471(16) -0.5228(11) 0.3195(7)
H81A H 0.1961(16) -0.4731(11) 0.3422(7)
H69A H -0.0013(9) -0.3839(10) 0.2441(5)
C44A C 0.0809(11) -0.2026(10) 0.1566(4)
H70A H 0.0858(58) -0.1238(27) 0.1580(7)
H71A H 0.1309(39) -0.2054(59) 0.1282(9)
H72A H -0.0076(21) -0.2669(35) 0.1393(13)
H82A H 0.3274(11) -0.0154(10) 0.2003(5)
C33A C 0.3390(8) 0.2096(8) 0.3536(4)
C34A C 0.3261(9) 0.2545(9) 0.2929(5)
H56A H 0.3142(9) 0.3215(9) 0.2843(5)
C35A C 0.3341(10) 0.1825(9) 0.2495(5)
C36A C 0.3273(12) 0.1925(11) 0.1774(5)
H57A H 0.3963(39) 0.1864(62) 0.1673(9)
H58A H 0.2459(28) 0.1268(37) 0.1507(5)
H59A H 0.3354(66) 0.2706(27) 0.1679(9)
C37A C 0.3374(9) 0.2566(8) 0.4193(5)
C38A C 0.2325(10) 0.1558(10) 0.4437(5)
H60A H 0.1506(10) 0.1285(10) 0.4118(5)
H61A H 0.2478(10) 0.0878(10) 0.4490(5)
H62A H 0.2318(10) 0.1863(10) 0.4858(5)
C39A C 0.4655(10) 0.2996(10) 0.4688(5)
H63A H 0.5325(10) 0.3643(10) 0.4529(5)
H64A H 0.465(1) 0.3303(10) 0.5109(5)
H65A H 0.4811(10) 0.2317(10) 0.4742(5)
C40A C 0.3162(11) 0.3648(10) 0.4117(5)
H66A H 0.3840(11) 0.4289(10) 0.3960(5)
H67A H 0.2344(11) 0.3391(10) 0.3800(5)
H68A H 0.3165(11) 0.3955(10) 0.4540(5)
#END
