####################################################################### 
# 
# This file contains crystal structure data downloaded from the 
# Cambridge Structural Database (CSD) hosted by the Cambridge 
# Crystallographic Data Centre (CCDC).
# 
# Full information about CCDC data access policies and citation 
# guidelines are available at http://www.ccdc.cam.ac.uk/access/V1 
# 
# Audit and citation data items may have been added by the CCDC. 
# Please retain this information to preserve the provenance of 
# this file and to allow appropriate attribution of the data. 
# 
#######################################################################

data_a
_audit_block_doi                 10.5517/ccq7th7
_database_code_depnum_ccdc_archive 'CCDC 662919'
loop_
_citation_id
_citation_doi
_citation_year
1 10.1002/anie.200802087 2008
_audit_update_record             
;
2007-10-04 deposited with the CCDC.	2024-07-10 downloaded from the CCDC.
;

_audit_creation_method           SHELXL-97
_chemical_name_systematic        
;
?
;
_chemical_name_common            ?
_chemical_melting_point          ?
_chemical_formula_moiety         ?
_chemical_formula_sum            'C17 H10 Cu2 O10'
_chemical_formula_weight         501.33

loop_
_atom_type_symbol
_atom_type_description
_atom_type_scat_dispersion_real
_atom_type_scat_dispersion_imag
_atom_type_scat_source
C C 0.0033 0.0016 'International Tables Vol C Tables 4.2.6.8 and 6.1.1.4'
H H 0.0000 0.0000 'International Tables Vol C Tables 4.2.6.8 and 6.1.1.4'
Cu Cu 0.3201 1.2651 'International Tables Vol C Tables 4.2.6.8 and 6.1.1.4'
O O 0.0106 0.0060 'International Tables Vol C Tables 4.2.6.8 and 6.1.1.4'

_symmetry_cell_setting           hexagonal
_symmetry_space_group_name_H-M   P63/mmc

loop_
_symmetry_equiv_pos_as_xyz
'x, y, z'
'x-y, x, z+1/2'
'-y, x-y, z'
'-x, -y, z+1/2'
'-x+y, -x, z'
'y, -x+y, z+1/2'
'-y, -x, -z+1/2'
'x-y, -y, -z'
'x, x-y, -z+1/2'
'y, x, -z'
'-x+y, y, -z+1/2'
'-x, -x+y, -z'
'-x, -y, -z'
'-x+y, -x, -z-1/2'
'y, -x+y, -z'
'x, y, -z-1/2'
'x-y, x, -z'
'-y, x-y, -z-1/2'
'y, x, z-1/2'
'-x+y, y, z'
'-x, -x+y, z-1/2'
'-y, -x, z'
'x-y, -y, z-1/2'
'x, x-y, z'

_cell_length_a                   18.07(2)
_cell_length_b                   18.07(2)
_cell_length_c                   19.34(2)
_cell_angle_alpha                90.00
_cell_angle_beta                 90.00
_cell_angle_gamma                120.00
_cell_volume                     5469(10)
_cell_formula_units_Z            6
_cell_measurement_temperature    486(2)
_cell_measurement_reflns_used    ?
_cell_measurement_theta_min      ?
_cell_measurement_theta_max      ?

_exptl_crystal_description       BLOCK
_exptl_crystal_colour            BLUE
_exptl_crystal_size_max          0.28
_exptl_crystal_size_mid          0.13
_exptl_crystal_size_min          0.10
_exptl_crystal_density_meas      NONE
_exptl_crystal_density_diffrn    0.913
_exptl_crystal_density_method    'not measured'
_exptl_crystal_F_000             1500
_exptl_absorpt_coefficient_mu    1.194
_exptl_absorpt_correction_type   none
_exptl_absorpt_correction_T_min  ?
_exptl_absorpt_correction_T_max  ?
_exptl_absorpt_process_details   ?

_exptl_special_details           
;
?
;

_diffrn_ambient_temperature      486(2)
_diffrn_radiation_wavelength     0.71073
_diffrn_radiation_type           MoK\a
_diffrn_radiation_source         'fine-focus sealed tube'
_diffrn_radiation_monochromator  graphite
_diffrn_measurement_device_type  'CCD area detector'
_diffrn_measurement_method       'phi and omega scans'
_diffrn_detector_area_resol_mean ?
_diffrn_standards_number         ?
_diffrn_standards_interval_count ?
_diffrn_standards_interval_time  ?
_diffrn_standards_decay_%        ?
_diffrn_reflns_number            14521
_diffrn_reflns_av_R_equivalents  0.2290
_diffrn_reflns_av_sigmaI/netI    0.0813
_diffrn_reflns_limit_h_min       -16
_diffrn_reflns_limit_h_max       14
_diffrn_reflns_limit_k_min       -13
_diffrn_reflns_limit_k_max       16
_diffrn_reflns_limit_l_min       -17
_diffrn_reflns_limit_l_max       17
_diffrn_reflns_theta_min         1.30
_diffrn_reflns_theta_max         18.95
_reflns_number_total             869
_reflns_number_gt                666
_reflns_threshold_expression     >2sigma(I)

_computing_data_collection       'Bruker SMART'
_computing_cell_refinement       'Bruker SMART'
_computing_data_reduction        'Bruker SHELXTL'
_computing_structure_solution    'SHELXS-97 (Sheldrick, 1990)'
_computing_structure_refinement  'SHELXL-97 (Sheldrick, 1997)'
_computing_molecular_graphics    'Bruker SHELXTL'
_computing_publication_material  'Bruker SHELXTL'

_refine_special_details          
;
Refinement of F^2^ against ALL reflections. The weighted R-factor wR and
goodness of fit S are based on F^2^, conventional R-factors R are based
on F, with F set to zero for negative F^2^. The threshold expression of
F^2^ > 2sigma(F^2^) is used only for calculating R-factors(gt) etc. and is
not relevant to the choice of reflections for refinement. R-factors based
on F^2^ are statistically about twice as large as those based on F, and R-
factors based on ALL data will be even larger.
;

_refine_ls_structure_factor_coef Fsqd
_refine_ls_matrix_type           full
_refine_ls_weighting_scheme      calc
_refine_ls_weighting_details     
'calc w=1/[\s^2^(Fo^2^)+(0.1557P)^2^+2.0303P] where P=(Fo^2^+2Fc^2^)/3'
_atom_sites_solution_primary     direct
_atom_sites_solution_secondary   difmap
_atom_sites_solution_hydrogens   geom
_refine_ls_hydrogen_treatment    mixed
_refine_ls_extinction_method     SHELXL
_refine_ls_extinction_coef       0.0003(3)
_refine_ls_extinction_expression Fc^*^=kFc[1+0.001xFc^2^\l^3^/sin(2\q)]^-1/4^
_refine_ls_number_reflns         869
_refine_ls_number_parameters     75
_refine_ls_number_restraints     0
_refine_ls_R_factor_all          0.0923
_refine_ls_R_factor_gt           0.0764
_refine_ls_wR_factor_ref         0.2239
_refine_ls_wR_factor_gt          0.2167
_refine_ls_goodness_of_fit_ref   1.108
_refine_ls_restrained_S_all      1.108
_refine_ls_shift/su_max          0.000
_refine_ls_shift/su_mean         0.000

loop_
_atom_site_label
_atom_site_type_symbol
_atom_site_fract_x
_atom_site_fract_y
_atom_site_fract_z
_atom_site_U_iso_or_equiv
_atom_site_adp_type
_atom_site_occupancy
_atom_site_symmetry_multiplicity
_atom_site_calc_flag
_atom_site_refinement_flags
_atom_site_disorder_assembly
_atom_site_disorder_group
Cu1 Cu 0.47322(4) 0.52678(4) -0.05348(7) 0.0440(10) Uani 1 2 d S . .
O1 O 0.4255(3) 0.5745(3) -0.1322(4) 0.095(3) Uani 1 2 d S . .
O2 O 0.3692(4) 0.4782(4) 0.0027(4) 0.070(2) Uani 1 1 d . . .
C2 C 0.2741(6) 0.4171(5) 0.0960(4) 0.047(3) Uani 1 1 d . . .
C3 C 0.2498(5) 0.3666(5) 0.1544(4) 0.047(2) Uani 1 1 d . . .
H3A H 0.2874 0.3515 0.1725 0.057 Uiso 1 1 d R . .
C4 C 0.1704(4) 0.3408(8) 0.1860(6) 0.050(3) Uani 1 2 d S . .
C6 C 0.2209(4) 0.4418(8) 0.0685(6) 0.047(3) Uani 1 2 d S . .
H6A H 0.2384 0.4768 0.0296 0.057 Uiso 1 2 calc SR . .
C5 C 0.1430(6) 0.2861(11) 0.2500 0.070(6) Uani 1 4 d S . .
H12A H 0.0819 0.2514 0.2500 0.084 Uiso 1 2 d SR . .
C1 C 0.3602(6) 0.4441(6) 0.0633(6) 0.055(3) Uani 1 1 d . . .
O3 O 0.4160(4) 0.4332(4) 0.0945(3) 0.070(2) Uani 1 1 d . . .

loop_
_atom_site_aniso_label
_atom_site_aniso_U_11
_atom_site_aniso_U_22
_atom_site_aniso_U_33
_atom_site_aniso_U_23
_atom_site_aniso_U_13
_atom_site_aniso_U_12
Cu1 0.0619(13) 0.0619(13) 0.0238(13) 0.0007(3) -0.0007(3) 0.0428(10)
O1 0.160(7) 0.160(7) 0.039(5) 0.012(2) -0.012(2) 0.136(8)
O2 0.069(5) 0.106(5) 0.050(4) 0.011(4) 0.020(4) 0.054(4)
C2 0.054(7) 0.055(6) 0.035(6) -0.007(5) 0.006(5) 0.030(5)
C3 0.040(5) 0.053(6) 0.041(6) -0.005(5) -0.014(5) 0.017(5)
C4 0.050(6) 0.059(9) 0.044(8) -0.006(7) -0.003(4) 0.030(5)
C6 0.051(7) 0.060(9) 0.033(7) 0.007(7) 0.004(3) 0.030(5)
C5 0.059(10) 0.053(13) 0.095(18) 0.000 0.000 0.027(6)
C1 0.056(7) 0.059(7) 0.045(7) 0.010(5) 0.035(6) 0.024(6)
O3 0.052(4) 0.099(5) 0.072(5) 0.011(4) 0.000(4) 0.047(4)

_geom_special_details            
;
All esds (except the esd in the dihedral angle between two l.s. planes)
are estimated using the full covariance matrix. The cell esds are taken
into account individually in the estimation of esds in distances, angles
and torsion angles; correlations between esds in cell parameters are only
used when they are defined by crystal symmetry. An approximate (isotropic)
treatment of cell esds is used for estimating esds involving l.s. planes.
;

loop_
_geom_bond_atom_site_label_1
_geom_bond_atom_site_label_2
_geom_bond_distance
_geom_bond_site_symmetry_2
_geom_bond_publ_flag
Cu1 O3 1.927(7) 10 ?
Cu1 O3 1.927(7) 13_665 ?
Cu1 O2 1.959(7) 22_665 ?
Cu1 O2 1.959(7) . ?
Cu1 O1 2.134(8) . ?
Cu1 Cu1 2.663(3) 13_665 ?
O2 C1 1.297(11) . ?
C2 C6 1.355(10) . ?
C2 C3 1.379(11) . ?
C2 C1 1.516(12) . ?
C3 C4 1.406(10) . ?
C3 H3A 0.9192 . ?
C4 C3 1.406(10) 20 ?
C4 C5 1.506(14) . ?
C6 C2 1.355(10) 20 ?
C6 H6A 0.9300 . ?
C5 C4 1.506(14) 16_556 ?
C5 H12A 0.9597 . ?
C1 O3 1.272(11) . ?
O3 Cu1 1.927(7) 13_665 ?

loop_
_geom_angle_atom_site_label_1
_geom_angle_atom_site_label_2
_geom_angle_atom_site_label_3
_geom_angle
_geom_angle_site_symmetry_1
_geom_angle_site_symmetry_3
_geom_angle_publ_flag
O3 Cu1 O3 90.0(4) 10 13_665 ?
O3 Cu1 O2 168.9(3) 10 22_665 ?
O3 Cu1 O2 89.2(3) 13_665 22_665 ?
O3 Cu1 O2 89.2(3) 10 . ?
O3 Cu1 O2 168.9(3) 13_665 . ?
O2 Cu1 O2 89.5(4) 22_665 . ?
O3 Cu1 O1 96.2(3) 10 . ?
O3 Cu1 O1 96.2(3) 13_665 . ?
O2 Cu1 O1 94.9(3) 22_665 . ?
O2 Cu1 O1 94.9(3) . . ?
O3 Cu1 Cu1 87.6(2) 10 13_665 ?
O3 Cu1 Cu1 87.6(2) 13_665 13_665 ?
O2 Cu1 Cu1 81.3(2) 22_665 13_665 ?
O2 Cu1 Cu1 81.3(2) . 13_665 ?
O1 Cu1 Cu1 174.5(2) . 13_665 ?
C1 O2 Cu1 125.4(6) . . ?
C6 C2 C3 119.7(9) . . ?
C6 C2 C1 120.9(9) . . ?
C3 C2 C1 119.3(8) . . ?
C2 C3 C4 120.6(8) . . ?
C2 C3 H3A 118.1 . . ?
C4 C3 H3A 121.3 . . ?
C3 C4 C3 117.3(11) 20 . ?
C3 C4 C5 121.3(6) 20 . ?
C3 C4 C5 121.3(6) . . ?
C2 C6 C2 121.9(12) 20 . ?
C2 C6 H6A 119.0 20 . ?
C2 C6 H6A 119.0 . . ?
C4 C5 C4 110.6(14) 16_556 . ?
C4 C5 H12A 108.8 16_556 . ?
C4 C5 H12A 108.8 . . ?
O3 C1 O2 125.6(8) . . ?
O3 C1 C2 121.2(9) . . ?
O2 C1 C2 113.2(9) . . ?
C1 O3 Cu1 120.1(6) . 13_665 ?

_diffrn_measured_fraction_theta_max 0.999
_diffrn_reflns_theta_full        18.95
_diffrn_measured_fraction_theta_full 0.999
_refine_diff_density_max         1.205
_refine_diff_density_min         -0.601
_refine_diff_density_rms         0.138


