####################################################################### 
# 
# This file contains crystal structure data downloaded from the 
# Cambridge Structural Database (CSD) hosted by the Cambridge 
# Crystallographic Data Centre (CCDC).
# 
# Full information about CCDC data access policies and citation 
# guidelines are available at http://www.ccdc.cam.ac.uk/access/V1 
# 
# Audit and citation data items may have been added by the CCDC. 
# Please retain this information to preserve the provenance of 
# this file and to allow appropriate attribution of the data. 
# 
#######################################################################

data_shelxl
_audit_block_doi                 10.5517/cc12krjx
_database_code_depnum_ccdc_archive 'CCDC 1000169'
loop_
_citation_id
_citation_doi
_citation_year
1 10.1002/ejic.201402375 2014
_audit_update_record             
;
2014-04-29 deposited with the CCDC.	2024-07-10 downloaded from the CCDC.
;

_audit_creation_method           SHELXL-97
_chemical_name_systematic        
; 
 ? 
;
_chemical_name_common            ?
_chemical_melting_point          ?
_chemical_formula_moiety         'C17 H11 Co N5 O3'
_chemical_formula_sum            'C17 H11 Co N5 O3'
_chemical_formula_weight         392.24

loop_
_atom_type_symbol
_atom_type_description
_atom_type_scat_dispersion_real
_atom_type_scat_dispersion_imag
_atom_type_scat_source
C C 0.0033 0.0016 'International Tables Vol C Tables 4.2.6.8 and 6.1.1.4'
H H 0.0000 0.0000 'International Tables Vol C Tables 4.2.6.8 and 6.1.1.4'
Co Co 0.3494 0.9721 'International Tables Vol C Tables 4.2.6.8 and 6.1.1.4'
N N 0.0061 0.0033 'International Tables Vol C Tables 4.2.6.8 and 6.1.1.4'
O O 0.0106 0.0060 'International Tables Vol C Tables 4.2.6.8 and 6.1.1.4'

_symmetry_cell_setting           Monoclinic
_symmetry_space_group_name_H-M   "C 2/c'"
_symmetry_space_group_name_Hall  '-C 2yc'
loop_
_symmetry_equiv_pos_as_xyz
'x, y, z'
'-x, y, -z+1/2'
'x+1/2, y+1/2, z'
'-x+1/2, y+1/2, -z+1/2'
'-x, -y, -z'
'x, -y, z-1/2'
'-x+1/2, -y+1/2, -z'
'x+1/2, -y+1/2, z-1/2'

_cell_length_a                   13.852(2)
_cell_length_b                   24.584(4)
_cell_length_c                   13.7932(19)
_cell_angle_alpha                90.00
_cell_angle_beta                 90.804(12)
_cell_angle_gamma                90.00
_cell_volume                     4696.7(13)
_cell_formula_units_Z            8
_cell_measurement_temperature    298(2)
_cell_measurement_reflns_used    ?
_cell_measurement_theta_min      ?
_cell_measurement_theta_max      ?

_exptl_crystal_description       block
_exptl_crystal_colour            brown
_exptl_crystal_size_max          0.24
_exptl_crystal_size_mid          0.18
_exptl_crystal_size_min          0.12
_exptl_crystal_density_meas      ?
_exptl_crystal_density_diffrn    1.109
_exptl_crystal_density_method    'not measured'
_exptl_crystal_F_000             1592
_exptl_absorpt_coefficient_mu    0.751
_exptl_absorpt_correction_type   multi-scan
_exptl_absorpt_correction_T_min  0.8404
_exptl_absorpt_correction_T_max  0.9153
_exptl_absorpt_process_details   sadabs

_exptl_special_details           
; 
 ? 
;

_diffrn_ambient_temperature      298(2)
_diffrn_radiation_wavelength     0.71073
_diffrn_radiation_type           MoK\a
_diffrn_radiation_source         'fine-focus sealed tube'
_diffrn_radiation_monochromator  graphite
_diffrn_measurement_device_type  'Xcalibur, Sapphire3'
_diffrn_measurement_method       '\w scans'
_diffrn_detector_area_resol_mean ?
_diffrn_standards_number         ?
_diffrn_standards_interval_count ?
_diffrn_standards_interval_time  ?
_diffrn_standards_decay_%        ?
_diffrn_reflns_number            12931
_diffrn_reflns_av_R_equivalents  0.0693
_diffrn_reflns_av_sigmaI/netI    0.0832
_diffrn_reflns_limit_h_min       -16
_diffrn_reflns_limit_h_max       16
_diffrn_reflns_limit_k_min       -26
_diffrn_reflns_limit_k_max       29
_diffrn_reflns_limit_l_min       -16
_diffrn_reflns_limit_l_max       16
_diffrn_reflns_theta_min         3.23
_diffrn_reflns_theta_max         25.00
_reflns_number_total             4048
_reflns_number_gt                2868
_reflns_threshold_expression     >2sigma(I)

_computing_data_collection       'Xcalibur, Sapphire3'
_computing_cell_refinement       'X-calibur S SAINT'
_computing_data_reduction        'X-calibur S SAINT'
_computing_structure_solution    'SHELXS-97 (Sheldrick, 1990)'
_computing_structure_refinement  'SHELXL-97 (Sheldrick, 1997)'
_computing_molecular_graphics    'Oxford SHELXTL'
_computing_publication_material  'Oxford SHELXTL'

_refine_special_details          
; 
 Refinement of F^2^ against ALL reflections.  The weighted R-factor wR and 
 goodness of fit S are based on F^2^, conventional R-factors R are based 
 on F, with F set to zero for negative F^2^. The threshold expression of 
 F^2^ > 2sigma(F^2^) is used only for calculating R-factors(gt) etc. and is 
 not relevant to the choice of reflections for refinement.  R-factors based 
 on F^2^ are statistically about twice as large as those based on F, and R- 
 factors based on ALL data will be even larger. 
;

_refine_ls_structure_factor_coef Fsqd
_refine_ls_matrix_type           full
_refine_ls_weighting_scheme      calc
_refine_ls_weighting_details     
'calc w=1/[\s^2^(Fo^2^)+(0.1469P)^2^+5.6169P] where P=(Fo^2^+2Fc^2^)/3'
_atom_sites_solution_primary     direct
_atom_sites_solution_secondary   difmap
_atom_sites_solution_hydrogens   geom
_refine_ls_hydrogen_treatment    constr
_refine_ls_extinction_method     none
_refine_ls_extinction_coef       ?
_refine_ls_number_reflns         4048
_refine_ls_number_parameters     239
_refine_ls_number_restraints     0
_refine_ls_R_factor_all          0.1197
_refine_ls_R_factor_gt           0.0918
_refine_ls_wR_factor_ref         0.2568
_refine_ls_wR_factor_gt          0.2438
_refine_ls_goodness_of_fit_ref   1.085
_refine_ls_restrained_S_all      1.085
_refine_ls_shift/su_max          0.001
_refine_ls_shift/su_mean         0.000

loop_
_atom_site_label
_atom_site_type_symbol
_atom_site_fract_x
_atom_site_fract_y
_atom_site_fract_z
_atom_site_U_iso_or_equiv
_atom_site_adp_type
_atom_site_occupancy
_atom_site_symmetry_multiplicity
_atom_site_calc_flag
_atom_site_refinement_flags
_atom_site_disorder_assembly
_atom_site_disorder_group
C1 C 0.5000 0.9298(6) 0.2500 0.082(4) Uani 1 2 d S . .
H1 H 0.5000 0.9676 0.2500 0.098 Uiso 1 2 calc SR . .
C2 C 0.4224(8) 0.9025(4) 0.2105(8) 0.085(3) Uani 1 1 d . . .
H2 H 0.3694 0.9210 0.1847 0.102 Uiso 1 1 calc R . .
C3 C 0.4262(5) 0.8469(3) 0.2106(6) 0.054(2) Uani 1 1 d . . .
C4 C 0.3475(5) 0.8083(3) 0.1769(5) 0.0441(17) Uani 1 1 d . . .
C5 C 0.3017(4) 0.7164(3) 0.1643(4) 0.0387(16) Uani 1 1 d . . .
C6 C 0.3181(5) 0.6788(3) 0.0911(5) 0.052(2) Uani 1 1 d . . .
H6 H 0.3770 0.6782 0.0595 0.062 Uiso 1 1 calc R . .
C7 C 0.2462(5) 0.6420(3) 0.0655(5) 0.0512(19) Uani 1 1 d . . .
H7 H 0.2548 0.6175 0.0151 0.061 Uiso 1 1 calc R . .
C8 C 0.1599(5) 0.6429(3) 0.1177(5) 0.0491(19) Uani 1 1 d . . .
H8 H 0.1127 0.6172 0.1030 0.059 Uiso 1 1 calc R . .
C9 C 0.2145(4) 0.7139(3) 0.2099(4) 0.0361(15) Uani 1 1 d . . .
H9 H 0.2047 0.7383 0.2603 0.043 Uiso 1 1 calc R . .
C10 C 0.5000 0.5586(7) 0.2500 0.143(9) Uani 1 2 d S . .
H10 H 0.5000 0.5207 0.2500 0.172 Uiso 1 2 calc SR . .
C11 C 0.5383(9) 0.5868(4) 0.1708(6) 0.087(3) Uani 1 1 d . . .
H11 H 0.5646 0.5686 0.1183 0.104 Uiso 1 1 calc R . .
C12 C 0.5353(6) 0.6428(4) 0.1745(5) 0.058(2) Uani 1 1 d . . .
C13 C 0.5660(5) 0.6798(4) 0.0960(5) 0.051(2) Uani 1 1 d . . .
C14 C 0.4148(4) 0.7729(3) 0.4472(4) 0.0373(16) Uani 1 1 d . . .
C15 C 0.3427(5) 0.8108(4) 0.4268(5) 0.053(2) Uani 1 1 d . . .
H15 H 0.3104 0.8096 0.3673 0.064 Uiso 1 1 calc R . .
C16 C 0.3187(5) 0.8501(3) 0.4936(5) 0.052(2) Uani 1 1 d . . .
H16 H 0.2706 0.8753 0.4794 0.062 Uiso 1 1 calc R . .
C17 C 0.3658(5) 0.8515(3) 0.5804(5) 0.0471(18) Uani 1 1 d . . .
H17 H 0.3491 0.8780 0.6252 0.057 Uiso 1 1 calc R . .
C18 C 0.4606(4) 0.7778(3) 0.5367(5) 0.0356(15) Uani 1 1 d . . .
H18 H 0.5106 0.7538 0.5512 0.043 Uiso 1 1 calc R . .
Co1 Co 0.5000 0.74457(5) 0.2500 0.0350(4) Uani 1 2 d S . .
Co2 Co 0.0000 0.68296(5) 0.2500 0.0333(4) Uani 1 2 d S . .
N1 N 0.5000 0.8195(4) 0.2500 0.046(2) Uani 1 2 d S . .
N2 N 0.3722(4) 0.7570(2) 0.1880(4) 0.0374(13) Uani 1 1 d . . .
N3 N 0.1427(4) 0.6799(2) 0.1888(3) 0.0386(13) Uani 1 1 d . . .
N4 N 0.5000 0.6699(4) 0.2500 0.046(2) Uani 1 2 d S . .
N5 N 0.4418(3) 0.7330(2) 0.3798(4) 0.0353(13) Uani 1 1 d . . .
N6 N -0.0624(3) 0.6850(2) 0.1042(4) 0.0372(13) Uani 1 1 d . . .
O1 O 0.2700(4) 0.8271(2) 0.1438(4) 0.0670(16) Uani 1 1 d . . .
O2 O 0.5942(4) 0.6606(2) 0.0167(4) 0.0660(16) Uani 1 1 d . . .
OW1 O 0.0000 0.5959(3) 0.2500 0.0437(17) Uani 1 2 d S . .
OW2 O 0.0000 0.7673(3) 0.2500 0.0432(16) Uani 1 2 d S . .

loop_
_atom_site_aniso_label
_atom_site_aniso_U_11
_atom_site_aniso_U_22
_atom_site_aniso_U_33
_atom_site_aniso_U_23
_atom_site_aniso_U_13
_atom_site_aniso_U_12
C1 0.080(9) 0.047(8) 0.118(12) 0.000 -0.039(8) 0.000
C2 0.096(8) 0.047(6) 0.111(8) 0.020(6) 0.026(6) 0.020(5)
C3 0.055(5) 0.051(5) 0.056(5) 0.014(4) 0.005(4) 0.003(4)
C4 0.041(4) 0.052(5) 0.039(4) 0.005(4) 0.005(3) -0.003(3)
C5 0.034(3) 0.056(5) 0.027(3) 0.008(3) -0.011(3) 0.009(3)
C6 0.040(4) 0.076(6) 0.039(4) 0.011(4) -0.004(3) -0.007(4)
C7 0.040(4) 0.071(6) 0.042(4) -0.011(4) -0.004(3) -0.007(4)
C8 0.037(4) 0.066(5) 0.044(4) -0.004(4) -0.017(3) 0.001(3)
C9 0.031(3) 0.050(4) 0.027(3) -0.001(3) -0.005(2) 0.003(3)
C10 0.25(3) 0.033(8) 0.149(19) 0.000 0.029(18) 0.000
C11 0.155(10) 0.072(7) 0.035(5) 0.006(5) 0.010(5) 0.026(7)
C12 0.073(5) 0.065(6) 0.037(4) 0.003(4) -0.019(4) 0.011(4)
C13 0.037(4) 0.077(6) 0.038(4) -0.006(4) 0.002(3) 0.030(4)
C14 0.026(3) 0.062(5) 0.024(3) 0.001(3) -0.002(2) -0.003(3)
C15 0.035(4) 0.090(6) 0.035(4) -0.008(4) -0.007(3) 0.011(4)
C16 0.043(4) 0.073(6) 0.039(4) 0.000(4) -0.003(3) 0.028(4)
C17 0.042(4) 0.064(5) 0.036(4) -0.023(4) 0.004(3) 0.000(3)
C18 0.014(3) 0.046(4) 0.047(4) -0.003(3) -0.004(2) 0.004(3)
Co1 0.0283(6) 0.0423(8) 0.0344(7) 0.000 0.0011(5) 0.000
Co2 0.0251(6) 0.0427(8) 0.0318(7) 0.000 -0.0078(4) 0.000
N1 0.044(5) 0.058(6) 0.037(4) 0.000 0.005(4) 0.000
N2 0.033(3) 0.047(4) 0.032(3) 0.006(3) 0.004(2) 0.006(2)
N3 0.034(3) 0.061(4) 0.020(2) -0.006(3) -0.006(2) 0.000(3)
N4 0.054(5) 0.054(6) 0.032(4) 0.000 0.003(4) 0.000
N5 0.031(3) 0.046(3) 0.029(3) 0.002(3) -0.001(2) -0.013(2)
N6 0.027(3) 0.044(3) 0.040(3) 0.011(3) -0.001(2) -0.004(2)
O1 0.054(3) 0.074(4) 0.073(4) 0.019(3) -0.008(3) 0.012(3)
O2 0.082(4) 0.065(4) 0.051(3) 0.003(3) 0.013(3) 0.022(3)
OW1 0.024(3) 0.071(5) 0.035(3) 0.000 -0.017(2) 0.000
OW2 0.034(3) 0.039(4) 0.056(4) 0.000 -0.012(3) 0.000

_geom_special_details            
; 
 All esds (except the esd in the dihedral angle between two l.s. planes) 
 are estimated using the full covariance matrix.  The cell esds are taken 
 into account individually in the estimation of esds in distances, angles 
 and torsion angles; correlations between esds in cell parameters are only 
 used when they are defined by crystal symmetry.  An approximate (isotropic) 
 treatment of cell esds is used for estimating esds involving l.s. planes. 
;

loop_
_geom_bond_atom_site_label_1
_geom_bond_atom_site_label_2
_geom_bond_distance
_geom_bond_site_symmetry_2
_geom_bond_publ_flag
C1 C2 1.374(13) 2_655 ?
C1 C2 1.374(13) . ?
C1 H1 0.9300 . ?
C2 C3 1.366(12) . ?
C2 H2 0.9300 . ?
C3 N1 1.334(9) . ?
C3 C4 1.514(11) . ?
C4 O1 1.249(8) . ?
C4 N2 1.315(9) . ?
C5 C9 1.371(9) . ?
C5 C6 1.390(10) . ?
C5 N2 1.431(9) . ?
C6 C7 1.387(10) . ?
C6 H6 0.9300 . ?
C7 C8 1.403(10) . ?
C7 H7 0.9300 . ?
C8 N3 1.362(9) . ?
C8 H8 0.9300 . ?
C9 N3 1.328(8) . ?
C9 H9 0.9300 . ?
C10 C11 1.405(12) . ?
C10 C11 1.405(12) 2_655 ?
C10 H10 0.9300 . ?
C11 C12 1.378(12) . ?
C11 H11 0.9300 . ?
C12 N4 1.334(9) . ?
C12 C13 1.479(11) . ?
C13 O2 1.259(8) . ?
C13 N5 1.356(9) 2_655 ?
C14 C18 1.385(8) . ?
C14 C15 1.392(10) . ?
C14 N5 1.404(9) . ?
C15 C16 1.379(10) . ?
C15 H15 0.9300 . ?
C16 C17 1.355(10) . ?
C16 H16 0.9300 . ?
C17 N6 1.376(9) 8_566 ?
C17 H17 0.9300 . ?
C18 N6 1.345(8) 8_566 ?
C18 H18 0.9300 . ?
Co1 N4 1.836(9) . ?
Co1 N1 1.843(9) . ?
Co1 N2 1.979(5) 2_655 ?
Co1 N2 1.979(5) . ?
Co1 N5 1.995(5) . ?
Co1 N5 1.995(5) 2_655 ?
Co2 OW2 2.073(7) . ?
Co2 OW1 2.140(7) . ?
Co2 N3 2.162(5) 2 ?
Co2 N3 2.162(5) . ?
Co2 N6 2.178(5) 2 ?
Co2 N6 2.178(5) . ?
N1 C3 1.334(9) 2_655 ?
N4 C12 1.334(9) 2_655 ?
N5 C13 1.356(10) 2_655 ?
N6 C18 1.345(8) 8_465 ?
N6 C17 1.376(9) 8_465 ?

loop_
_geom_angle_atom_site_label_1
_geom_angle_atom_site_label_2
_geom_angle_atom_site_label_3
_geom_angle
_geom_angle_site_symmetry_1
_geom_angle_site_symmetry_3
_geom_angle_publ_flag
C2 C1 C2 121.5(13) 2_655 . ?
C2 C1 H1 119.2 2_655 . ?
C2 C1 H1 119.2 . . ?
C3 C2 C1 117.2(10) . . ?
C3 C2 H2 121.4 . . ?
C1 C2 H2 121.4 . . ?
N1 C3 C2 122.3(9) . . ?
N1 C3 C4 110.7(7) . . ?
C2 C3 C4 126.8(8) . . ?
O1 C4 N2 128.2(7) . . ?
O1 C4 C3 119.4(7) . . ?
N2 C4 C3 112.4(6) . . ?
C9 C5 C6 117.2(6) . . ?
C9 C5 N2 121.9(6) . . ?
C6 C5 N2 120.8(6) . . ?
C7 C6 C5 119.5(7) . . ?
C7 C6 H6 120.2 . . ?
C5 C6 H6 120.2 . . ?
C6 C7 C8 118.3(7) . . ?
C6 C7 H7 120.8 . . ?
C8 C7 H7 120.8 . . ?
N3 C8 C7 122.5(6) . . ?
N3 C8 H8 118.7 . . ?
C7 C8 H8 118.7 . . ?
N3 C9 C5 126.1(6) . . ?
N3 C9 H9 116.9 . . ?
C5 C9 H9 116.9 . . ?
C11 C10 C11 120.7(14) . 2_655 ?
C11 C10 H10 119.6 . . ?
C11 C10 H10 119.6 2_655 . ?
C12 C11 C10 117.0(10) . . ?
C12 C11 H11 121.5 . . ?
C10 C11 H11 121.5 . . ?
N4 C12 C11 122.5(8) . . ?
N4 C12 C13 112.2(7) . . ?
C11 C12 C13 125.2(8) . . ?
O2 C13 N5 127.0(7) . 2_655 ?
O2 C13 C12 120.1(8) . . ?
N5 C13 C12 112.9(6) 2_655 . ?
C18 C14 C15 116.1(6) . . ?
C18 C14 N5 122.0(6) . . ?
C15 C14 N5 122.0(6) . . ?
C16 C15 C14 120.8(6) . . ?
C16 C15 H15 119.6 . . ?
C14 C15 H15 119.6 . . ?
C17 C16 C15 119.4(6) . . ?
C17 C16 H16 120.3 . . ?
C15 C16 H16 120.3 . . ?
C16 C17 N6 122.1(6) . 8_566 ?
C16 C17 H17 118.9 . . ?
N6 C17 H17 118.9 8_566 . ?
N6 C18 C14 124.6(6) 8_566 . ?
N6 C18 H18 117.7 8_566 . ?
C14 C18 H18 117.7 . . ?
N4 Co1 N1 180.000(2) . . ?
N4 Co1 N2 98.87(17) . 2_655 ?
N1 Co1 N2 81.13(17) . 2_655 ?
N4 Co1 N2 98.87(17) . . ?
N1 Co1 N2 81.13(17) . . ?
N2 Co1 N2 162.3(3) 2_655 . ?
N4 Co1 N5 81.83(17) . . ?
N1 Co1 N5 98.17(17) . . ?
N2 Co1 N5 90.3(2) 2_655 . ?
N2 Co1 N5 92.2(2) . . ?
N4 Co1 N5 81.83(17) . 2_655 ?
N1 Co1 N5 98.17(17) . 2_655 ?
N2 Co1 N5 92.2(2) 2_655 2_655 ?
N2 Co1 N5 90.3(2) . 2_655 ?
N5 Co1 N5 163.7(3) . 2_655 ?
OW2 Co2 OW1 180.000(1) . . ?
OW2 Co2 N3 92.01(16) . 2 ?
OW1 Co2 N3 87.99(16) . 2 ?
OW2 Co2 N3 92.01(16) . . ?
OW1 Co2 N3 87.99(16) . . ?
N3 Co2 N3 176.0(3) 2 . ?
OW2 Co2 N6 88.67(15) . 2 ?
OW1 Co2 N6 91.33(15) . 2 ?
N3 Co2 N6 89.63(18) 2 2 ?
N3 Co2 N6 90.47(18) . 2 ?
OW2 Co2 N6 88.67(15) . . ?
OW1 Co2 N6 91.33(15) . . ?
N3 Co2 N6 90.47(18) 2 . ?
N3 Co2 N6 89.63(18) . . ?
N6 Co2 N6 177.3(3) 2 . ?
C3 N1 C3 119.3(10) 2_655 . ?
C3 N1 Co1 120.3(5) 2_655 . ?
C3 N1 Co1 120.3(5) . . ?
C4 N2 C5 117.9(5) . . ?
C4 N2 Co1 115.3(5) . . ?
C5 N2 Co1 126.5(4) . . ?
C9 N3 C8 116.1(5) . . ?
C9 N3 Co2 125.3(4) . . ?
C8 N3 Co2 118.4(4) . . ?
C12 N4 C12 120.3(10) 2_655 . ?
C12 N4 Co1 119.9(5) 2_655 . ?
C12 N4 Co1 119.9(5) . . ?
C13 N5 C14 119.2(5) 2_655 . ?
C13 N5 Co1 113.1(5) 2_655 . ?
C14 N5 Co1 127.6(4) . . ?
C18 N6 C17 117.0(5) 8_465 8_465 ?
C18 N6 Co2 124.1(4) 8_465 . ?
C17 N6 Co2 118.8(4) 8_465 . ?

_diffrn_measured_fraction_theta_max 0.975
_diffrn_reflns_theta_full        25.00
_diffrn_measured_fraction_theta_full 0.975
_refine_diff_density_max         0.976
_refine_diff_density_min         -1.148
_refine_diff_density_rms         0.111
# Details about the Squeezed Material
loop_
_platon_squeeze_void_nr
_platon_squeeze_void_average_x
_platon_squeeze_void_average_y
_platon_squeeze_void_average_z
_platon_squeeze_void_volume
_platon_squeeze_void_count_electrons
_platon_squeeze_void_content
1 -0.002 0.000 -0.014 828 60 ' '
2 -0.015 0.500 -0.007 828 60 ' '
_platon_squeeze_details          
;
Attempts to refine peaks of residual electron density
as guest atoms were unsuccessful,
although the atoms of the (methanol and water) solvent
molecule were observed but could not be modeled
satisfactorily during the structure
refinement. The data were corrected for disordered
electron density through use of the
SQUEEZE procedure implemented in Platon.A total solvent-accessible
void volume of 1656.0 A^3^ with a total electron count of 120
(coresponds to two methanol and eight water molecules per formula
and partially supported by elemental and
thermo-gravimetric analysis) was found in the unit cell.
;
