####################################################################### 
# 
# This file contains crystal structure data downloaded from the 
# Cambridge Structural Database (CSD) hosted by the Cambridge 
# Crystallographic Data Centre (CCDC).
# 
# Full information about CCDC data access policies and citation 
# guidelines are available at http://www.ccdc.cam.ac.uk/access/V1 
# 
# Audit and citation data items may have been added by the CCDC. 
# Please retain this information to preserve the provenance of 
# this file and to allow appropriate attribution of the data. 
# 
#######################################################################

data_shelxl
_audit_block_doi                 10.5517/cc12f67y
_database_code_depnum_ccdc_archive 'CCDC 995789'
loop_
_citation_id
_citation_doi
_citation_year
1 10.1039/C4RA08121H 2014
_audit_update_record             
;
2014-08-05 deposited with the CCDC.	2024-07-10 downloaded from the CCDC.
;

_audit_creation_method           SHELXL-97
_chemical_name_systematic        
; 
 ? 
;
_chemical_name_common            ?
_chemical_melting_point          ?
_chemical_formula_moiety         'C45 H79 Ag10 I14 Mn2 N11 O10 S2'
_chemical_formula_sum            'C45 H79 Ag10 I14 Mn2 N11 O10 S2'
_chemical_formula_weight         3963.49

loop_
_atom_type_symbol
_atom_type_description
_atom_type_scat_dispersion_real
_atom_type_scat_dispersion_imag
_atom_type_scat_source
C C 0.0033 0.0016 'International Tables Vol C Tables 4.2.6.8 and 6.1.1.4'
H H 0.0000 0.0000 'International Tables Vol C Tables 4.2.6.8 and 6.1.1.4'
N N 0.0061 0.0033 'International Tables Vol C Tables 4.2.6.8 and 6.1.1.4'
O O 0.0106 0.0060 'International Tables Vol C Tables 4.2.6.8 and 6.1.1.4'
Ag Ag -0.8971 1.1015 'International Tables Vol C Tables 4.2.6.8 and 6.1.1.4'
I I -0.4742 1.8119 'International Tables Vol C Tables 4.2.6.8 and 6.1.1.4'
Mn Mn 0.3368 0.7283 'International Tables Vol C Tables 4.2.6.8 and 6.1.1.4'
S S 0.1246 0.1234 'International Tables Vol C Tables 4.2.6.8 and 6.1.1.4'

_symmetry_cell_setting           triclinic
_symmetry_space_group_name_H-M   'P -1'
_symmetry_space_group_name_Hall  '-P 1'
_symmetry_Int_Tables_number      2

loop_
_symmetry_equiv_pos_as_xyz
'x, y, z'
'-x, -y, -z'

_cell_length_a                   13.0276(18)
_cell_length_b                   16.091(2)
_cell_length_c                   22.994(5)
_cell_angle_alpha                86.670(14)
_cell_angle_beta                 86.076(14)
_cell_angle_gamma                73.569(11)
_cell_volume                     4608.8(13)
_cell_formula_units_Z            2
_cell_measurement_temperature    223(2)
_cell_measurement_reflns_used    20568
_cell_measurement_theta_min      3.0230
_cell_measurement_theta_max      25.35

_exptl_crystal_description       Block
_exptl_crystal_colour            Colorless
_exptl_crystal_size_max          0.40
_exptl_crystal_size_mid          0.35
_exptl_crystal_size_min          0.06
_exptl_crystal_density_meas      ?
_exptl_crystal_density_diffrn    2.856
_exptl_crystal_density_method    'not measured'
_exptl_crystal_F_000             3600
_exptl_absorpt_coefficient_mu    7.118
_exptl_absorpt_correction_type   multi-scan
_exptl_absorpt_correction_T_min  0.1630
_exptl_absorpt_correction_T_max  0.6747
_exptl_absorpt_process_details   'Jacobson, R. (1998) Private communication'

_exptl_special_details           
; 
 ? 
;

_diffrn_ambient_temperature      223(2)
_diffrn_radiation_wavelength     0.71073
_diffrn_radiation_type           MoK\a
_diffrn_radiation_source         'fine-focus sealed tube'
_diffrn_radiation_monochromator  graphite
_diffrn_measurement_device_type  'Rigaku Saturn'
_diffrn_measurement_method       \w
_diffrn_detector_area_resol_mean 14.63
_diffrn_standards_number         ?
_diffrn_standards_interval_count ?
_diffrn_standards_interval_time  ?
_diffrn_standards_decay_%        ?
_diffrn_reflns_number            36645
_diffrn_reflns_av_R_equivalents  0.0601
_diffrn_reflns_av_sigmaI/netI    0.0947
_diffrn_reflns_limit_h_min       -13
_diffrn_reflns_limit_h_max       15
_diffrn_reflns_limit_k_min       -19
_diffrn_reflns_limit_k_max       19
_diffrn_reflns_limit_l_min       -27
_diffrn_reflns_limit_l_max       27
_diffrn_reflns_theta_min         3.02
_diffrn_reflns_theta_max         25.35
_reflns_number_total             16758
_reflns_number_gt                8822
_reflns_threshold_expression     >2sigma(I)

_computing_data_collection       CrystalClear
_computing_cell_refinement       CrystalClear
_computing_data_reduction        CrystalStructure
_computing_structure_solution    'SHELXS-97 (Sheldrick, 1990)'
_computing_structure_refinement  'SHELXL-97 (Sheldrick, 1997)'
_computing_molecular_graphics    ?
_computing_publication_material  ?

_refine_special_details          
; 
 Refinement of F^2^ against ALL reflections.  The weighted R-factor wR and 
 goodness of fit S are based on F^2^, conventional R-factors R are based 
 on F, with F set to zero for negative F^2^. The threshold expression of 
 F^2^ > 2sigma(F^2^) is used only for calculating R-factors(gt) etc. and is 
 not relevant to the choice of reflections for refinement.  R-factors based 
 on F^2^ are statistically about twice as large as those based on F, and R- 
 factors based on ALL data will be even larger. 
;

_refine_ls_structure_factor_coef Fsqd
_refine_ls_matrix_type           full
_refine_ls_weighting_scheme      calc
_refine_ls_weighting_details     
'calc w=1/[\s^2^(Fo^2^)+(0.2000P)^2^+0.0000P] where P=(Fo^2^+2Fc^2^)/3'
_atom_sites_solution_primary     direct
_atom_sites_solution_secondary   difmap
_atom_sites_solution_hydrogens   geom
_refine_ls_hydrogen_treatment    CONSTR
_refine_ls_extinction_method     SHELXL
_refine_ls_extinction_coef       0.0047(16)
_refine_ls_extinction_expression Fc^*^=kFc[1+0.001xFc^2^\l^3^/sin(2\q)]^-1/4^
_refine_ls_number_reflns         16758
_refine_ls_number_parameters     699
_refine_ls_number_restraints     104
_refine_ls_R_factor_all          0.0825
_refine_ls_R_factor_gt           0.0584
_refine_ls_wR_factor_ref         0.1418
_refine_ls_wR_factor_gt          0.1035
_refine_ls_goodness_of_fit_ref   1.127
_refine_ls_restrained_S_all      1.124
_refine_ls_shift/su_max          0.001
_refine_ls_shift/su_mean         0.000

loop_
_atom_site_label
_atom_site_type_symbol
_atom_site_fract_x
_atom_site_fract_y
_atom_site_fract_z
_atom_site_U_iso_or_equiv
_atom_site_adp_type
_atom_site_occupancy
_atom_site_symmetry_multiplicity
_atom_site_calc_flag
_atom_site_refinement_flags
_atom_site_disorder_assembly
_atom_site_disorder_group
Ag1 Ag 0.1575(3) -0.0930(2) 0.32046(17) 0.0762(10) Uani 1 1 d . . .
Ag2 Ag -0.0100(5) -0.0758(5) 0.2202(2) 0.0718(3) Uani 1 1 d . . .
Ag3 Ag -0.0292(2) 0.1298(2) 0.17502(14) 0.0729(10) Uani 1 1 d . . .
Ag4 Ag 0.0909(2) 0.12878(18) 0.29622(13) 0.0762(8) Uani 1 1 d . . .
Ag5 Ag 0.0869(2) 0.3504(2) 0.17325(16) 0.0715(12) Uani 1 1 d . . .
Ag6 Ag -0.0537(2) 0.34307(19) 0.29727(16) 0.0722(10) Uani 1 1 d . . .
Ag7 Ag 0.0768(5) 0.5391(5) 0.2198(2) 0.0750(3) Uani 1 1 d . . .
Ag8 Ag -0.1182(3) 0.5519(2) 0.3222(2) 0.0749(13) Uani 1 1 d . . .
Ag9 Ag -0.0804(5) 0.7324(4) 0.2755(3) 0.0729(3) Uani 1 1 d . . .
Ag10 Ag 0.1372(5) 0.7159(4) 0.2946(4) 0.0774(3) Uani 1 1 d . . .
I1 I 0.17207(16) -0.00385(15) 0.20632(11) 0.0784(7) Uani 1 1 d . . .
I2 I 0.16529(18) 0.03253(14) 0.39858(11) 0.0734(7) Uani 1 1 d . . .
I3 I -0.0554(3) -0.1199(3) 0.33992(14) 0.0728(13) Uani 1 1 d . . .
I4 I 0.3201(3) -0.25138(18) 0.3158(2) 0.0764(17) Uani 1 1 d . . .
I5 I -0.1466(3) 0.0226(4) 0.13754(16) 0.0741(19) Uani 1 1 d . . .
I6 I -0.13452(15) 0.19837(14) 0.28142(11) 0.0728(6) Uani 1 1 d . . .
I7 I 0.0378(2) 0.2430(2) 0.09648(12) 0.0710(10) Uani 1 1 d . . .
I8 I 0.17399(15) 0.27560(14) 0.28122(10) 0.0680(7) Uani 1 1 d . . .
I9 I -0.11741(19) 0.48417(16) 0.20603(14) 0.0732(10) Uani 1 1 d . . .
I10 I 0.2122(3) 0.4615(3) 0.12899(14) 0.0750(17) Uani 1 1 d . . .
I11 I -0.15690(18) 0.42192(16) 0.40048(14) 0.0729(9) Uani 1 1 d . . .
I12 I 0.0550(9) 0.7355(4) 0.17902(17) 0.0715(7) Uani 1 1 d . . .
I13 I 0.09946(18) 0.55901(19) 0.33913(11) 0.0679(8) Uani 1 1 d . . .
I14 I -0.2720(3) 0.7154(2) 0.3157(3) 0.0699(3) Uani 1 1 d . . .
Mn1 Mn 0.4918(3) 0.7656(3) 0.5737(2) 0.0741(16) Uani 1 1 d . . .
Mn2 Mn 0.4626(4) 0.2432(3) 0.9239(3) 0.0843(2) Uani 1 1 d D . .
C1 C 0.5837(19) 0.623(2) 0.6672(15) 0.072(12) Uani 1 1 d D . .
H1 H 0.6486 0.6344 0.6541 0.100 Uiso 1 1 calc R . .
C2 C 0.585(2) 0.5628(19) 0.7119(13) 0.071(9) Uani 1 1 d D . .
H2 H 0.6474 0.5392 0.7325 0.082 Uiso 1 1 calc R . .
C3 C 0.4937(14) 0.5373(16) 0.7261(11) 0.077(8) Uani 1 1 d D . .
C4 C 0.402(2) 0.580(2) 0.6991(17) 0.075(15) Uani 1 1 d D . .
H4 H 0.3371 0.5659 0.7087 0.114 Uiso 1 1 calc R . .
C5 C 0.4067(15) 0.6435(15) 0.6579(15) 0.070(11) Uani 1 1 d D . .
H5 H 0.3433 0.6730 0.6397 0.084 Uiso 1 1 calc R . .
C6 C 0.4848(17) 0.4735(11) 0.7775(11) 0.067(11) Uani 1 1 d D . .
C7 C 0.563(2) 0.4442(19) 0.8160(15) 0.076(15) Uani 1 1 d D . .
H7 H 0.6233 0.4651 0.8136 0.116 Uiso 1 1 calc R . .
C8 C 0.551(3) 0.384(2) 0.8582(18) 0.079(19) Uani 1 1 d D . .
H8 H 0.5966 0.3742 0.8895 0.113 Uiso 1 1 calc R . .
C9 C 0.419(2) 0.4224(19) 0.7744(16) 0.075(13) Uani 1 1 d D . .
H9 H 0.3740 0.4319 0.7428 0.102 Uiso 1 1 calc R . .
C10 C 0.413(2) 0.3581(18) 0.8147(12) 0.074(10) Uani 1 1 d D . .
H10 H 0.3624 0.3273 0.8120 0.088 Uiso 1 1 calc R . .
C11 C 0.567(2) 0.879(3) 0.656(2) 0.082(2) Uani 1 1 d D . .
H11 H 0.6324 0.8492 0.6368 0.112 Uiso 1 1 calc R . .
C12 C 0.564(2) 0.937(2) 0.697(2) 0.073(2) Uani 1 1 d D . .
H12 H 0.6277 0.9446 0.7091 0.114 Uiso 1 1 calc R . .
C13 C 0.467(2) 0.984(2) 0.7216(19) 0.074(2) Uani 1 1 d D . .
C14 C 0.379(2) 0.961(2) 0.7085(17) 0.077(8) Uani 1 1 d D . .
H14 H 0.3137 0.9865 0.7288 0.116 Uiso 1 1 calc R . .
C15 C 0.3807(19) 0.903(2) 0.6675(16) 0.077(8) Uani 1 1 d D . .
H15 H 0.3178 0.8907 0.6575 0.116 Uiso 1 1 calc R . .
C16 C 0.462(3) 1.049(2) 0.7681(16) 0.083(9) Uani 1 1 d D . .
C17 C 0.540(3) 1.091(2) 0.7708(16) 0.079(9) Uani 1 1 d D . .
H17 H 0.5963 1.0816 0.7420 0.119 Uiso 1 1 calc R . .
C18 C 0.537(3) 1.146(2) 0.8141(17) 0.081(9) Uani 1 1 d D . .
H18 H 0.5928 1.1715 0.8196 0.119 Uiso 1 1 calc R . .
C19 C 0.387(3) 1.064(2) 0.814(2) 0.082(9) Uani 1 1 d D . .
C20A C 0.357(3) 1.142(3) 0.839(3) 0.081(9) Uani 0.55 1 d PD . .
C20B C 0.406(7) 1.097(4) 0.865(3) 0.079(9) Uani 0.45 1 d PD . .
N1 N 0.4953(15) 0.6666(16) 0.6416(12) 0.070(8) Uani 1 1 d D . .
N2 N 0.481(2) 0.338(2) 0.8583(16) 0.069(14) Uani 1 1 d D . .
N3 N 0.4753(15) 0.8641(19) 0.6425(14) 0.077(8) Uani 1 1 d D . .
N4 N 0.449(3) 1.1602(17) 0.8469(16) 0.077(9) Uani 1 1 d D . .
O1 O 0.6627(16) 0.7324(19) 0.5672(11) 0.078(8) Uani 1 1 d D . .
O2 O 0.5057(16) 0.6758(16) 0.5129(14) 0.075(10) Uani 1 1 d D . .
O3 O 0.3212(14) 0.7942(12) 0.5658(10) 0.078(3) Uani 1 1 d D . .
O4 O 0.5031(17) 0.8628(16) 0.5132(9) 0.068(13) Uani 1 1 d D . .
O5 O 0.432(4) 0.148(2) 0.991(2) 0.078(4) Uani 1 1 d D . .
O6 O 0.6312(16) 0.191(4) 0.9204(16) 0.079(3) Uani 1 1 d D . .
O7 O 0.293(2) 0.294(2) 0.9210(14) 0.081(15) Uani 1 1 d D . .
O8 O 0.458(3) 0.332(2) 0.9947(12) 0.074(12) Uani 1 1 d . . .
O9 O 0.466(4) 0.7981(19) 0.867(2) 0.083(19) Uani 1 1 d D . .
S1 S 0.2562(6) 0.8537(6) 0.5214(5) 0.078(3) Uani 1 1 d D . .
S2 S 0.5689(7) 0.8408(7) 0.4565(6) 0.074(5) Uani 1 1 d D . .
N5 N 0.8250(18) 0.681(2) 0.5242(13) 0.078(11) Uani 1 1 d D . .
N6 N 0.4407(19) 0.5947(14) 0.4531(14) 0.074(2) Uani 1 1 d D . .
N7 N 0.390(4) 0.115(2) 1.0777(19) 0.079(4) Uani 1 1 d D . .
N8 N 0.759(3) 0.110(3) 0.966(2) 0.087(3) Uani 1 1 d D . .
N9 N 0.1388(17) 0.361(2) 0.9538(15) 0.081(15) Uani 1 1 d D . .
N10 N 0.431(4) 0.6858(19) 0.8515(16) 0.084(19) Uani 1 1 d D . .
C21 C 0.7224(19) 0.685(2) 0.5301(15) 0.074(17) Uani 1 1 d D . .
H21 H 0.6941 0.6517 0.5065 0.110 Uiso 1 1 calc R . .
C22 C 0.858(4) 0.757(3) 0.534(2) 0.078(3) Uani 1 1 d D . .
H22A H 0.9319 0.7399 0.5441 0.110 Uiso 1 1 calc R . .
H22B H 0.8129 0.7888 0.5652 0.110 Uiso 1 1 calc R . .
H22C H 0.8504 0.7936 0.4984 0.110 Uiso 1 1 calc R . .
C23 C 0.900(3) 0.616(3) 0.490(3) 0.084(5) Uani 1 1 d D . .
H23A H 0.9303 0.5656 0.5147 0.127 Uiso 1 1 calc R . .
H23B H 0.9569 0.6396 0.4731 0.127 Uiso 1 1 calc R . .
H23C H 0.8632 0.6003 0.4590 0.127 Uiso 1 1 calc R . .
C24 C 0.435(2) 0.6486(17) 0.495(2) 0.073(4) Uani 1 1 d D . .
H24 H 0.3663 0.6698 0.5130 0.114 Uiso 1 1 calc R . .
C25 C 0.530(2) 0.581(3) 0.410(2) 0.077(19) Uani 1 1 d D . .
H25A H 0.5208 0.6319 0.3839 0.116 Uiso 1 1 calc R . .
H25B H 0.5333 0.5310 0.3877 0.116 Uiso 1 1 calc R . .
H25C H 0.5965 0.5713 0.4296 0.116 Uiso 1 1 calc R . .
C26 C 0.365(3) 0.548(3) 0.4437(16) 0.080(16) Uani 1 1 d D . .
H26A H 0.2935 0.5814 0.4572 0.121 Uiso 1 1 calc R . .
H26B H 0.3839 0.4925 0.4651 0.121 Uiso 1 1 calc R . .
H26C H 0.3649 0.5385 0.4024 0.121 Uiso 1 1 calc R . .
C27 C 0.1697(19) 0.9364(15) 0.5606(13) 0.080(3) Uani 1 1 d D . .
H27A H 0.1422 0.9121 0.5958 0.122 Uiso 1 1 calc R . .
H27B H 0.1106 0.9668 0.5369 0.122 Uiso 1 1 calc R . .
H27C H 0.2080 0.9767 0.5709 0.122 Uiso 1 1 calc R . .
C28 C 0.172(2) 0.7963(18) 0.4993(16) 0.078(3) Uani 1 1 d D . .
H28A H 0.1682 0.7513 0.5286 0.122 Uiso 1 1 calc R . .
H28B H 0.2006 0.7700 0.4625 0.122 Uiso 1 1 calc R . .
H28C H 0.1013 0.8354 0.4945 0.122 Uiso 1 1 calc R . .
C29 C 0.468(4) 0.882(3) 0.408(2) 0.084(3) Uani 1 1 d D . .
H29A H 0.4203 0.8449 0.4097 0.128 Uiso 1 1 calc R . .
H29B H 0.4998 0.8831 0.3684 0.128 Uiso 1 1 calc R . .
H29C H 0.4277 0.9401 0.4180 0.128 Uiso 1 1 calc R . .
C30 C 0.637(3) 0.921(2) 0.448(2) 0.075(2) Uani 1 1 d D . .
H30A H 0.5931 0.9733 0.4663 0.119 Uiso 1 1 calc R . .
H30B H 0.6496 0.9335 0.4070 0.119 Uiso 1 1 calc R . .
H30C H 0.7044 0.9007 0.4667 0.119 Uiso 1 1 calc R . .
C31A C 0.399(8) 0.177(3) 1.039(2) 0.088(4) Uani 0.58 1 d PD . .
C31B C 0.354(3) 0.151(6) 1.026(3) 0.091(4) Uani 0.42 1 d PD . .
C32A C 0.361(7) 0.040(3) 1.060(3) 0.085(4) Uani 0.58 1 d PD . .
C32B C 0.338(6) 0.055(6) 1.108(5) 0.086(4) Uani 0.42 1 d PD . .
C33A C 0.346(9) 0.138(4) 1.136(2) 0.082(4) Uani 0.58 1 d PD . .
C33B C 0.505(4) 0.085(6) 1.084(4) 0.088(4) Uani 0.42 1 d PD . .
C34 C 0.682(2) 0.183(3) 0.966(2) 0.086(3) Uani 1 1 d D . .
H34 H 0.6664 0.2240 0.9953 0.122 Uiso 1 1 calc R . .
C35 C 0.868(3) 0.110(5) 0.951(3) 0.086(3) Uani 1 1 d D . .
H35A H 0.8693 0.1628 0.9291 0.120 Uiso 1 1 calc R . .
H35B H 0.9022 0.0604 0.9271 0.120 Uiso 1 1 calc R . .
H35C H 0.9068 0.1050 0.9861 0.120 Uiso 1 1 calc R . .
C36 C 0.751(7) 0.038(4) 1.006(3) 0.076(3) Uani 1 1 d D . .
H36A H 0.6821 0.0537 1.0276 0.110 Uiso 1 1 calc R . .
H36B H 0.8080 0.0261 1.0328 0.110 Uiso 1 1 calc R . .
H36C H 0.7573 -0.0124 0.9837 0.110 Uiso 1 1 calc R . .
C37 C 0.2434(16) 0.337(3) 0.9615(16) 0.081(15) Uani 1 1 d D . .
H37 H 0.2750 0.3514 0.9937 0.118 Uiso 1 1 calc R . .
C38A C 0.089(5) 0.300(4) 0.931(4) 0.081(15) Uani 0.52 1 d PD . .
C38B C 0.099(4) 0.346(7) 0.899(3) 0.078(15) Uani 0.48 1 d PD . .
C39A C 0.087(4) 0.450(3) 0.933(4) 0.082(15) Uani 0.52 1 d PD . .
C39B C 0.066(3) 0.432(5) 0.984(4) 0.085(15) Uani 0.48 1 d PD . .
C40 C 0.463(6) 0.728(4) 0.8940(18) 0.076(19) Uani 1 1 d D . .
H40 H 0.4783 0.7092 0.9328 0.118 Uiso 1 1 calc R . .
C41 C 0.342(5) 0.649(5) 0.868(3) 0.071(19) Uani 1 1 d D . .
H41A H 0.2904 0.6638 0.8384 0.113 Uiso 1 1 calc R . .
H41B H 0.3081 0.6721 0.9051 0.113 Uiso 1 1 calc R . .
H41C H 0.3693 0.5863 0.8728 0.13 Uiso 1 1 calc R . .
C42 C 0.418(6) 0.735(4) 0.7951(15) 0.077(19) Uani 1 1 d D . .
H42A H 0.3477 0.7767 0.7953 0.113 Uiso 1 1 calc R . .
H42B H 0.4256 0.6958 0.7638 0.113 Uiso 1 1 calc R . .
H42C H 0.4726 0.7659 0.7893 0.113 Uiso 1 1 calc R . .
O10 O 0.237(7) 0.659(4) 1.005(2) 0.136(4) Uani 1 1 d D . .
N11 N 0.265(6) 0.556(4) 0.954(3) 0.134(4) Uani 1 1 d D . .
C43 C 0.206(7) 0.636(4) 0.962(3) 0.138(4) Uani 1 1 d D . .
C44 C 0.212(9) 0.490(5) 0.944(4) 0.147(4) Uani 1 1 d D . .
C45 C 0.367(6) 0.520(5) 0.978(4) 0.136(4) Uani 1 1 d D . .

loop_
_atom_site_aniso_label
_atom_site_aniso_U_11
_atom_site_aniso_U_22
_atom_site_aniso_U_33
_atom_site_aniso_U_23
_atom_site_aniso_U_13
_atom_site_aniso_U_12
Ag1 0.0772(19) 0.0777(18) 0.0756(3) -0.0061(18) 0.0103(19) -0.0194(16)
Ag2 0.0677(5) 0.0697(7) 0.0727(4) -0.017(4) 0.011(3) -0.018(6)
Ag3 0.0612(16) 0.0725(2) 0.0786(2) 0.0028(18) -0.0015(15) -0.0163(17)
Ag4 0.0679(14) 0.0799(17) 0.079(2) 0.013(15) -0.012(14) -0.016(13)
Ag5 0.0626(17) 0.0731(3) 0.0711(3) 0.015(2) -0.0144(17) -0.013(18)
Ag6 0.0626(16) 0.0713(18) 0.0726(3) 0.012(18) -0.011(17) -0.012(14)
Ag7 0.0683(5) 0.0714(8) 0.0808(3) -0.022(4) -0.014(3) -0.012(6)
Ag8 0.0725(19) 0.0797(19) 0.0682(4) 0.002(2) -0.016(2) -0.017(16)
Ag9 0.0680(5) 0.0646(4) 0.0743(7) -0.008(4) 0.006(5) -0.012(4)
Ag10 0.0766(5) 0.0675(5) 0.0808(9) -0.014(5) 0.013(5) -0.016(4)
I1 0.0643(10) 0.0845(15) 0.0908(17) -0.013(13) 0.010(11) -0.018(10)
I2 0.0648(13) 0.0732(13) 0.0872(16) 0.0194(12) -0.0248(12) -0.0269(11)
I3 0.0697(2) 0.0758(3) 0.0755(2) -0.016(2) 0.012(17) -0.019(2)
I4 0.0655(19) 0.0768(16) 0.0762(5) 0.019(2) 0.022(2) -0.015(14)
I5 0.0708(2) 0.0712(6) 0.0717(3) -0.017(3) 0.017(2) -0.019(3)
I6 0.0616(10) 0.0694(12) 0.0904(16) -0.0007(11) -0.0004(10) -0.0184(9)
I7 0.0534(19) 0.0752(3) 0.0751(18) 0.0106(18) -0.0133(15) -0.0140(19)
I8 0.0461(10) 0.0798(14) 0.0820(15) 0.0130(12) -0.0184(10) -0.0238(10)
I9 0.0629(14) 0.0758(14) 0.0746(3) 0.0114(16) -0.019(16) -0.0134(12)
I10 0.0749(3) 0.0650(5) 0.071(2) 0.014(2) -0.012(2) -0.007(4)
I11 0.0734(12) 0.0714(15) 0.0712(3) -0.014(16) -0.018(14) -0.012(11)
I12 0.0691(2) 0.0724(5) 0.076(2) -0.017(3) 0.009(5) 