####################################################################### 
# 
# This file contains crystal structure data downloaded from the 
# Cambridge Structural Database (CSD) hosted by the Cambridge 
# Crystallographic Data Centre (CCDC).
# 
# Full information about CCDC data access policies and citation 
# guidelines are available at http://www.ccdc.cam.ac.uk/access/V1 
# 
# Audit and citation data items may have been added by the CCDC. 
# Please retain this information to preserve the provenance of 
# this file and to allow appropriate attribution of the data. 
# 
#######################################################################

data_HOMTOS
#This CIF has been generated from an entry in the Cambridge Structural Database
_database_code_depnum_ccdc_archive 'CCDC 1177736'
_database_code_CSD               HOMTOS
loop_
_citation_id
_citation_doi
_citation_year
1 10.1021/ic9807137 1999
_audit_creation_method           'Created from the CSD'
_audit_update_record             
;
2024-07-10 downloaded from the CCDC.
;
_database_code_NBS               714792
_chemical_formula_moiety         '(C36 H36 N4 Ni2 O12)n,4n(C5 H5 N1),4n(H2 O1)'
_chemical_name_systematic        
"catena-(bis(\m~2~-Terephthalato-O,O')-tetra-aqua-tetrapyridyl-di-nickel(ii) pyridine clathrate tetrahydrate)"
_chemical_absolute_configuration unk
_diffrn_ambient_temperature      173
_exptl_crystal_density_diffrn    1.846
#These two values have been output from a single CSD field.
_refine_ls_R_factor_gt           0.0711
_refine_ls_wR_factor_gt          0.0711
_diffrn_radiation_probe          x-ray
_symmetry_cell_setting           monoclinic
_symmetry_space_group_name_H-M   'P 21/n'
_symmetry_Int_Tables_number      14
_space_group_name_Hall           '-P 2yn'
loop_
_symmetry_equiv_pos_site_id
_symmetry_equiv_pos_as_xyz
1 x,y,z
2 1/2-x,1/2+y,1/2-z
3 -x,-y,-z
4 1/2+x,1/2-y,1/2+z
_cell_length_a                   12.466(1)
_cell_length_b                   15.323(1)
_cell_length_c                   23.033(2)
_cell_angle_alpha                90
_cell_angle_beta                 90.892(2)
_cell_angle_gamma                90
_cell_volume                     4399.15
_exptl_crystal_colour            blue
_cell_formula_units_Z            4
loop_
_atom_site_label
_atom_site_type_symbol
_atom_site_fract_x
_atom_site_fract_y
_atom_site_fract_z
Ni1 Ni -0.6657(1) 0.0131(1) 0.3344(1)
Ni2 Ni 0.0000 0.0000 0.0000
O1 O -0.5393(3) 0.0129(2) 0.2783(2)
O2 O -0.6198(3) 0.0452(3) 0.1939(2)
O3 O -0.1265(3) 0.0012(2) 0.0570(2)
O4 O -0.0422(4) -0.0068(3) 0.1438(2)
O5 O -0.7927(3) 0.0139(2) 0.3903(2)
O6 O -0.7102(4) -0.0113(3) 0.4747(2)
O7 O -0.7723(5) -0.0002(3) 0.2661(2)
O8 O -0.5541(5) 0.0266(4) 0.4019(3)
O9 O -0.1077(5) 0.0275(3) -0.0656(2)
N1 N -0.6729(4) 0.1504(3) 0.3309(2)
N2 N -0.6607(5) -0.1245(3) 0.3373(2)
N3 N 0.0197(4) 0.1348(3) 0.0108(2)
C1 C -0.5390(5) 0.0266(4) 0.2247(3)
C2 C -0.4309(5) 0.0197(4) 0.1948(3)
C3 C -0.4212(5) 0.0409(4) 0.1366(3)
C4 C -0.3215(5) 0.0342(4) 0.1098(3)
C5 C -0.2326(5) 0.0065(3) 0.1405(3)
C6 C -0.2429(5) -0.0151(4) 0.1996(3)
C7 C -0.3422(5) -0.0088(4) 0.2258(3)
C8 C -0.1240(5) 0.0001(3) 0.1115(3)
C9 C -0.7948(6) 0.0001(4) 0.4441(3)
C10 C -0.8998(5) 0.0000(3) 0.4726(3)
C11 C -0.9103(5) -0.0301(4) 0.5292(3)
C12 C -0.9924(5) 0.0296(4) 0.4439(3)
C13 C -0.5866(6) 0.1970(4) 0.3426(3)
C14 C -0.5839(6) 0.2883(5) 0.3414(3)
C15 C -0.6764(7) 0.3317(4) 0.3270(3)
C16 C -0.7672(6) 0.2845(4) 0.3159(3)
C17 C -0.7631(5) 0.1942(4) 0.3191(3)
C18 C -0.7525(6) -0.1703(4) 0.3402(2)
C19 C -0.7556(6) -0.2602(5) 0.3390(3)
C20 C -0.6620(7) -0.3060(4) 0.3347(3)
C21 C -0.5658(6) -0.2603(4) 0.3319(3)
C22 C -0.5702(5) -0.1703(4) 0.3339(3)
C23 C 0.1163(5) 0.1730(4) 0.0120(2)
C24 C 0.1295(6) 0.2630(5) 0.0130(3)
C25 C 0.0413(7) 0.3147(5) 0.0131(3)
C26 C -0.0578(6) 0.2780(5) 0.0129(3)
C27 C -0.0652(6) 0.1879(4) 0.0114(3)
H1 H -0.7463(48) 0.0093(33) 0.2350(27)
H2 H -0.8340(52) 0.0165(37) 0.2633(26)
H3 H -0.4856(83) -0.0045(54) 0.4013(40)
H4 H -0.5880(50) 0.0071(37) 0.4168(29)
H5 H -0.1604(49) 0.0130(39) -0.0686(28)
H6 H -0.0731(44) 0.0147(31) -0.1048(26)
H13 H -0.4822(5) 0.0600(4) 0.1148(3)
H14 H -0.3153(5) 0.0490(4) 0.0700(3)
H15 H -0.1820(5) -0.0339(4) 0.2215(3)
H16 H -0.3491(5) -0.0243(4) 0.2655(3)
H17 H -0.8489(5) -0.0514(4) 0.5496(3)
H18 H -0.9879(5) 0.0497(4) 0.4050(3)
H19 H -0.5223(6) 0.1668(4) 0.3524(3)
H20 H -0.5196(6) 0.3192(5) 0.3503(3)
H21 H -0.6774(7) 0.3936(4) 0.3247(3)
H22 H -0.8326(6) 0.3132(4) 0.3062(3)
H23 H -0.8273(5) 0.1621(4) 0.3125(3)
H24 H -0.8182(6) -0.1393(4) 0.3433(2)
H25 H -0.8222(6) -0.2901(5) 0.3412(3)
H26 H -0.6627(7) -0.3680(4) 0.3335(3)
H27 H -0.4993(6) -0.2901(4) 0.3288(3)
H28 H -0.5045(5) -0.1391(4) 0.3328(3)
H29 H 0.1784(5) 0.1371(4) 0.0122(2)
H30 H 0.1992(6) 0.2879(5) 0.0136(3)
H31 H 0.0489(7) 0.3764(5) 0.0134(3)
H32 H -0.1204(6) 0.3133(5) 0.0137(3)
H33 H -0.1346(6) 0.1624(4) 0.0107(3)
O3B O 0.1265(3) -0.0012(2) -0.0570(2)
O9B O 0.1077(5) -0.0275(3) 0.0656(2)
N3B N -0.0197(4) -0.1348(3) -0.0108(2)
C12B C -1.0076(5) -0.0296(4) 0.5561(3)
C11B C -1.0897(5) 0.0301(4) 0.4708(3)
H5B H 0.1604(49) -0.0130(39) 0.0686(28)
H6B H 0.0731(44) -0.0147(31) 0.1048(26)
C23B C -0.1163(5) -0.1730(4) -0.0120(2)
C27B C 0.0652(6) -0.1879(4) -0.0114(3)
C10B C -1.1002(5) 0.0000(3) 0.5274(3)
H18B H -1.0121(5) -0.0497(4) 0.5950(3)
H17B H -1.1511(5) 0.0514(4) 0.4504(3)
C24B C -0.1295(6) -0.2630(5) -0.0130(3)
H29B H -0.1784(5) -0.1371(4) -0.0122(2)
C26B C 0.0578(6) -0.2780(5) -0.0129(3)
H33B H 0.1346(6) -0.1624(4) -0.0107(3)
C9B C -1.2052(6) -0.0001(4) 0.5559(3)
C25B C -0.0413(7) -0.3147(5) -0.0131(3)
H30B H -0.1992(6) -0.2879(5) -0.0136(3)
H32B H 0.1204(6) -0.3133(5) -0.0137(3)
O5B O -1.2073(3) -0.0139(2) 0.6097(2)
O6B O -1.2898(4) 0.0113(3) 0.5253(2)
H31B H -0.0489(7) -0.3764(5) -0.0134(3)
Ni1B Ni -1.3343(1) -0.0131(1) 0.6656(1)
O10 O -0.9775(4) 0.0442(4) 0.2523(3)
H7 H -1.0188(57) 0.0743(45) 0.2663(30)
H8 H -1.0120(59) 0.0293(45) 0.2187(32)
O11 O -0.3538(4) -0.0305(4) 0.4149(3)
H9 H -0.3192(55) -0.0198(40) 0.4495(30)
H10 H -0.3008(55) -0.0586(43) 0.4010(27)
O12 O -0.3133(4) -0.0253(5) -0.0806(3)
H11 H -0.3400(56) 0.0190(42) -0.0703(30)
H12 H -0.3413(56) -0.0392(45) -0.1199(33)
N4 N -1.1182(5) 0.1498(4) 0.3143(3)
C28 C -1.0820(6) 0.2311(5) 0.3224(3)
C29 C -1.1353(6) 0.2924(5) 0.3554(3)
C30 C -1.2307(6) 0.2687(5) 0.3795(3)
C31 C -1.2671(6) 0.1860(5) 0.3720(3)
C32 C -1.2073(7) 0.1301(5) 0.3392(3)
H34 H -1.0166(6) 0.2475(5) 0.3048(3)
H35 H -1.1066(6) 0.3493(5) 0.3611(3)
H36 H -1.2709(6) 0.3096(5) 0.4012(3)
H37 H -1.3321(6) 0.1674(5) 0.3890(3)
H38 H -1.2334(7) 0.0722(5) 0.3343(3)
N5 N -0.2096(5) -0.1339(4) 0.3525(3)
C33 C -0.2505(6) -0.2123(5) 0.3392(3)
C34 C -0.2003(6) -0.2710(5) 0.3035(3)
C35 C -0.1054(6) -0.2492(5) 0.2813(3)
C36 C -0.0595(6) -0.1688(5) 0.2938(3)
C37 C -0.1171(7) -0.1144(5) 0.3294(3)
H39 H -0.3174(6) -0.2282(5) 0.3553(3)
H40 H -0.2323(6) -0.3258(5) 0.2948(3)
H41 H -0.0693(6) -0.2891(5) 0.2568(3)
H42 H 0.0080(6) -0.1522(5) 0.2787(3)
H43 H -0.0876(7) -0.0586(5) 0.3378(3)
N6 N -0.4203(7) 0.1305(5) -0.0352(3)
C38 C -0.3578(8) 0.2009(9) -0.0307(4)
C39 C -0.3889(11) 0.2686(7) 0.0019(7)
C40 C -0.4798(11) 0.2705(8) 0.0307(5)
C41 C -0.5448(7) 0.1970(8) 0.0259(4)
C42 C -0.5101(7) 0.1306(6) -0.0064(3)
H44 H -0.2916(8) 0.2031(9) -0.0506(4)
H45 H -0.3429(11) 0.3179(7) 0.0045(7)
H46 H -0.4997(11) 0.3195(8) 0.0534(5)
H47 H -0.6117(7) 0.1941(8) 0.0450(4)
H48 H -0.5537(7) 0.0798(6) -0.0087(3)

#END
