####################################################################### 
# 
# This file contains crystal structure data downloaded from the 
# Cambridge Structural Database (CSD) hosted by the Cambridge 
# Crystallographic Data Centre (CCDC).
# 
# Full information about CCDC data access policies and citation 
# guidelines are available at http://www.ccdc.cam.ac.uk/access/V1 
# 
# Audit and citation data items may have been added by the CCDC. 
# Please retain this information to preserve the provenance of 
# this file and to allow appropriate attribution of the data. 
# 
#######################################################################

data_23mare
_audit_block_doi                 10.5517/ccyd2m0
_database_code_depnum_ccdc_archive 'CCDC 875552'
loop_
_citation_id
_citation_doi
_citation_year
1 10.1016/j.inoche.2011.09.032 2012
_audit_update_record             
;
2012-04-11 deposited with the CCDC.	2024-07-10 downloaded from the CCDC.
;

_audit_creation_method           SHELXL-97
_chemical_name_systematic        
;
?
;
_chemical_name_common            ?
_chemical_melting_point          ?
_chemical_formula_moiety         ?
_chemical_formula_sum            'C28 H32 Co N4 O8'
_chemical_formula_weight         611.51

loop_
_atom_type_symbol
_atom_type_description
_atom_type_scat_dispersion_real
_atom_type_scat_dispersion_imag
_atom_type_scat_source
C C 0.0033 0.0016 'International Tables Vol C Tables 4.2.6.8 and 6.1.1.4'
H H 0.0000 0.0000 'International Tables Vol C Tables 4.2.6.8 and 6.1.1.4'
N N 0.0061 0.0033 'International Tables Vol C Tables 4.2.6.8 and 6.1.1.4'
O O 0.0106 0.0060 'International Tables Vol C Tables 4.2.6.8 and 6.1.1.4'
Co Co 0.3494 0.9721 'International Tables Vol C Tables 4.2.6.8 and 6.1.1.4'

_symmetry_cell_setting           Monoclinic
_symmetry_space_group_name_H-M   P2(1)/c

loop_
_symmetry_equiv_pos_as_xyz
'x, y, z'
'-x, y+1/2, -z+1/2'
'-x, -y, -z'
'x, -y-1/2, z-1/2'

_cell_length_a                   11.392(5)
_cell_length_b                   15.232(5)
_cell_length_c                   8.634(5)
_cell_angle_alpha                90.00
_cell_angle_beta                 104.852(5)
_cell_angle_gamma                90.00
_cell_volume                     1448.1(12)
_cell_formula_units_Z            2
_cell_measurement_temperature    100(2)
_cell_measurement_reflns_used    1194
_cell_measurement_theta_min      2.67
_cell_measurement_theta_max      24.37

_exptl_crystal_description       prism
_exptl_crystal_colour            ?
_exptl_crystal_size_max          0.28
_exptl_crystal_size_mid          0.22
_exptl_crystal_size_min          0.20
_exptl_crystal_density_meas      ?
_exptl_crystal_density_diffrn    1.402
_exptl_crystal_density_method    ?
_exptl_crystal_F_000             638
_exptl_absorpt_coefficient_mu    0.648
_exptl_absorpt_correction_type   none
_exptl_absorpt_correction_T_min  0.8394
_exptl_absorpt_correction_T_max  0.8814
_exptl_absorpt_process_details   ?

_exptl_special_details           
;
?
;

_diffrn_ambient_temperature      296(2)
_diffrn_radiation_wavelength     0.71069
_diffrn_radiation_type           MoK\a
_diffrn_radiation_source         'fine-focus sealed tube'
_diffrn_radiation_monochromator  graphite
_diffrn_measurement_device_type  'Bruker AXS CCD area detector'
_diffrn_measurement_method       '\w scans'
_diffrn_detector_area_resol_mean ?
_diffrn_standards_number         ?
_diffrn_standards_interval_count ?
_diffrn_standards_interval_time  ?
_diffrn_standards_decay_%        ?
_diffrn_reflns_number            9556
_diffrn_reflns_av_R_equivalents  0.0512
_diffrn_reflns_av_sigmaI/netI    0.0670
_diffrn_reflns_limit_h_min       -14
_diffrn_reflns_limit_h_max       15
_diffrn_reflns_limit_k_min       -20
_diffrn_reflns_limit_k_max       16
_diffrn_reflns_limit_l_min       -11
_diffrn_reflns_limit_l_max       9
_diffrn_reflns_theta_min         2.67
_diffrn_reflns_theta_max         28.30
_reflns_number_total             3580
_reflns_number_gt                2153
_reflns_threshold_expression     >2sigma(I)

_computing_data_collection       'Bruker SMART'
_computing_cell_refinement       'Bruker SMART'
_computing_data_reduction        'Bruker SAINT'
_computing_structure_solution    'SHELXS-97 (Sheldrick, 2008)'
_computing_structure_refinement  'SHELXL-97 (Sheldrick, 2008)'
_computing_molecular_graphics    'Bruker SHELXTL'
_computing_publication_material  'Bruker SHELXTL'

_refine_special_details          
;
Refinement of F^2^ against ALL reflections. The weighted R-factor wR and
goodness of fit S are based on F^2^, conventional R-factors R are based
on F, with F set to zero for negative F^2^. The threshold expression of
F^2^ > 2sigma(F^2^) is used only for calculating R-factors(gt) etc. and is
not relevant to the choice of reflections for refinement. R-factors based
on F^2^ are statistically about twice as large as those based on F, and R-
factors based on ALL data will be even larger.
;

_refine_ls_structure_factor_coef Fsqd
_refine_ls_matrix_type           full
_refine_ls_weighting_scheme      calc
_refine_ls_weighting_details     
'calc w=1/[\s^2^(Fo^2^)+(0.0649P)^2^+8.7218P] where P=(Fo^2^+2Fc^2^)/3'
_atom_sites_solution_primary     direct
_atom_sites_solution_secondary   difmap
_atom_sites_solution_hydrogens   geom
_refine_ls_hydrogen_treatment    mixed
_refine_ls_extinction_method     none
_refine_ls_extinction_coef       ?
_refine_ls_number_reflns         3580
_refine_ls_number_parameters     199
_refine_ls_number_restraints     126
_refine_ls_R_factor_all          0.1505
_refine_ls_R_factor_gt           0.0968
_refine_ls_wR_factor_ref         0.2461
_refine_ls_wR_factor_gt          0.2110
_refine_ls_goodness_of_fit_ref   1.079
_refine_ls_restrained_S_all      1.063
_refine_ls_shift/su_max          0.000
_refine_ls_shift/su_mean         0.000

loop_
_atom_site_label
_atom_site_type_symbol
_atom_site_fract_x
_atom_site_fract_y
_atom_site_fract_z
_atom_site_U_iso_or_equiv
_atom_site_adp_type
_atom_site_occupancy
_atom_site_symmetry_multiplicity
_atom_site_calc_flag
_atom_site_refinement_flags
_atom_site_disorder_assembly
_atom_site_disorder_group
Co1 Co 0.0000 0.0000 0.0000 0.0247(3) Uani 1 2 d SU . .
O1 O 0.1847(3) -0.0207(4) -0.2404(5) 0.0642(18) Uani 1 1 d U . .
O2 O 0.1831(3) -0.0001(3) 0.0143(4) 0.0324(9) Uani 1 1 d U . .
OW1 O -0.0421(4) -0.0001(5) -0.2429(5) 0.080(2) Uani 1 1 d U . .
OW2 O -0.2337(4) -0.0279(6) -0.4747(6) 0.109(3) Uani 1 1 d U . .
H2W H -0.2330 0.0378 -0.4738 0.164 Uiso 1 1 d . . .
N1 N 0.0003(5) -0.1371(4) 0.0053(8) 0.0544(15) Uani 1 1 d U . .
N2 N -0.4293(9) -0.1375(5) -0.4973(8) 0.082(3) Uani 1 1 d U . .
C1 C -0.0886(7) -0.1831(6) -0.0891(14) 0.084(3) Uani 1 1 d U . .
H1 H -0.1542 -0.1529 -0.1589 0.101 Uiso 1 1 calc R . .
C2 C -0.0882(9) -0.2736(7) -0.0885(17) 0.108(4) Uani 1 1 d U . .
H2 H -0.1527 -0.3052 -0.1576 0.130 Uiso 1 1 calc R . .
C3 C 0.0067(10) -0.3182(7) 0.0132(17) 0.103(4) Uani 1 1 d U . .
H3 H 0.0090 -0.3806 0.0148 0.124 Uiso 1 1 calc R . .
C4 C 0.0968(9) -0.2702(8) 0.1108(15) 0.096(4) Uani 1 1 d U . .
H4 H 0.1638 -0.2986 0.1813 0.115 Uiso 1 1 calc R . .
C5 C 0.0897(7) -0.1806(6) 0.1061(12) 0.077(3) Uani 1 1 d U . .
H5 H 0.1512 -0.1479 0.1779 0.093 Uiso 1 1 calc R . .
C6 C 0.2357(4) -0.0092(4) -0.0948(6) 0.0341(13) Uani 1 1 d U . .
C7 C 0.3726(4) -0.0042(4) -0.0459(6) 0.0316(12) Uani 1 1 d U . .
C8 C 0.4339(4) 0.0259(4) 0.1056(6) 0.0316(13) Uani 1 1 d U . .
H8 H 0.3887 0.0441 0.1785 0.038 Uiso 1 1 calc R . .
C9 C 0.4409(4) -0.0298(4) -0.1516(6) 0.0323(13) Uani 1 1 d U . .
H9 H 0.4008 -0.0499 -0.2559 0.039 Uiso 1 1 calc R . .
C10 C -0.4004(10) -0.2256(10) -0.4270(12) 0.108(4) Uani 1 1 d U . .
H10 H -0.3186 -0.2450 -0.3920 0.129 Uiso 1 1 calc R . .
C11 C -0.4942(7) -0.2790(5) -0.4133(9) 0.0545(18) Uani 1 1 d U . .
H11 H -0.4734 -0.3351 -0.3660 0.065 Uiso 1 1 calc R . .
C12 C -0.6116(9) -0.2593(7) -0.4603(12) 0.086(3) Uani 1 1 d U . .
H12 H -0.6739 -0.2991 -0.4519 0.103 Uiso 1 1 calc R . .
C13 C -0.6333(12) -0.1813(6) -0.5183(10) 0.095(4) Uani 1 1 d U . .
H13 H -0.7158 -0.1634 -0.5513 0.114 Uiso 1 1 calc R . .
C14 C -0.5492(9) -0.1233(6) -0.5359(9) 0.064(2) Uani 1 1 d U . .
H14 H -0.5770 -0.0675 -0.5794 0.077 Uiso 1 1 calc R . .
H04 H 0.022(7) -0.020(4) -0.260(9) 0.05(2) Uiso 1 1 d . . .
H07 H -0.095(10) -0.013(6) -0.315(12) 0.10(3) Uiso 1 1 d . . .
H06 H -0.223(9) -0.041(7) -0.571(13) 0.11(4) Uiso 1 1 d . . .

loop_
_atom_site_aniso_label
_atom_site_aniso_U_11
_atom_site_aniso_U_22
_atom_site_aniso_U_33
_atom_site_aniso_U_23
_atom_site_aniso_U_13
_atom_site_aniso_U_12
Co1 0.0073(4) 0.0543(7) 0.0125(4) -0.0041(5) 0.0023(3) 0.0003(4)
O1 0.0156(18) 0.156(6) 0.0209(19) -0.024(3) 0.0045(15) -0.007(2)
O2 0.0088(13) 0.070(3) 0.0191(16) -0.0030(19) 0.0050(12) 0.0012(18)
OW1 0.0150(19) 0.207(8) 0.0180(19) -0.015(3) 0.0055(16) 0.006(3)
OW2 0.023(2) 0.277(11) 0.027(2) -0.001(4) 0.0028(19) -0.009(4)
N1 0.020(2) 0.066(4) 0.081(4) 0.006(4) 0.021(2) 0.007(3)
N2 0.162(9) 0.052(4) 0.034(4) -0.004(3) 0.031(4) 0.007(5)
C1 0.036(4) 0.071(6) 0.145(9) 0.009(6) 0.022(5) -0.022(4)
C2 0.063(6) 0.068(7) 0.202(13) -0.002(7) 0.050(7) -0.038(5)
C3 0.074(6) 0.065(6) 0.203(13) 0.045(8) 0.095(8) 0.022(6)
C4 0.055(6) 0.106(9) 0.140(10) 0.012(7) 0.052(6) 0.040(6)
C5 0.047(5) 0.078(7) 0.112(8) 0.002(5) 0.030(5) 0.037(4)
C6 0.013(2) 0.066(4) 0.022(2) -0.011(3) 0.0023(17) -0.001(2)
C7 0.014(2) 0.063(4) 0.020(2) -0.006(3) 0.0081(17) -0.005(2)
C8 0.011(2) 0.064(4) 0.022(2) -0.008(2) 0.0079(18) 0.000(2)
C9 0.016(2) 0.063(4) 0.016(2) -0.010(2) 0.0016(18) 0.002(2)
C10 0.091(7) 0.182(13) 0.056(6) -0.053(7) 0.030(5) -0.050(8)
C11 0.053(4) 0.060(5) 0.051(4) 0.016(3) 0.014(3) -0.005(4)
C12 0.082(7) 0.091(8) 0.094(8) 0.005(6) 0.037(6) -0.004(6)
C13 0.183(11) 0.068(6) 0.055(5) -0.021(5) 0.068(6) -0.049(7)
C14 0.080(6) 0.078(6) 0.040(4) -0.011(4) 0.024(4) 0.005(5)

_geom_special_details            
;
All esds (except the esd in the dihedral angle between two l.s. planes)
are estimated using the full covariance matrix. The cell esds are taken
into account individually in the estimation of esds in distances, angles
and torsion angles; correlations between esds in cell parameters are only
used when they are defined by crystal symmetry. An approximate (isotropic)
treatment of cell esds is used for estimating esds involving l.s. planes.
;

loop_
_geom_bond_atom_site_label_1
_geom_bond_atom_site_label_2
_geom_bond_distance
_geom_bond_site_symmetry_2
_geom_bond_publ_flag
Co1 OW1 2.028(4) 3 ?
Co1 OW1 2.028(4) . ?
Co1 O2 2.058(3) 3 ?
Co1 O2 2.058(3) . ?
Co1 N1 2.089(6) . ?
Co1 N1 2.089(6) 3 ?
O1 C6 1.254(6) . ?
O2 C6 1.247(6) . ?
OW1 H04 0.83(8) . ?
OW1 H07 0.77(10) . ?
OW2 H2W 1.0016 . ?
OW2 H06 0.89(11) . ?
N1 C1 1.325(10) . ?
N1 C5 1.333(9) . ?
N2 C14 1.337(12) . ?
N2 C10 1.476(15) . ?
C1 C2 1.380(13) . ?
C1 H1 0.9500 . ?
C2 C3 1.383(15) . ?
C2 H2 0.9500 . ?
C3 C4 1.362(15) . ?
C3 H3 0.9500 . ?
C4 C5 1.367(14) . ?
C4 H4 0.9500 . ?
C5 H5 0.9500 . ?
C6 C7 1.510(6) . ?
C7 C8 1.393(7) . ?
C7 C9 1.398(6) . ?
C8 C9 1.381(7) 3_655 ?
C8 H8 0.9500 . ?
C9 C8 1.381(7) 3_655 ?
C9 H9 0.9500 . ?
C10 C11 1.372(12) . ?
C10 H10 0.9500 . ?
C11 C12 1.328(11) . ?
C11 H11 0.9500 . ?
C12 C13 1.288(13) . ?
C12 H12 0.9500 . ?
C13 C14 1.340(12) . ?
C13 H13 0.9500 . ?
C14 H14 0.9500 . ?

loop_
_geom_angle_atom_site_label_1
_geom_angle_atom_site_label_2
_geom_angle_atom_site_label_3
_geom_angle
_geom_angle_site_symmetry_1
_geom_angle_site_symmetry_3
_geom_angle_publ_flag
OW1 Co1 OW1 180.0 3 . ?
OW1 Co1 O2 91.69(15) 3 3 ?
OW1 Co1 O2 88.31(15) . 3 ?
OW1 Co1 O2 88.31(15) 3 . ?
OW1 Co1 O2 91.69(15) . . ?
O2 Co1 O2 180.0 3 . ?
OW1 Co1 N1 88.8(3) 3 . ?
OW1 Co1 N1 91.2(3) . . ?
O2 Co1 N1 89.91(18) 3 . ?
O2 Co1 N1 90.09(18) . . ?
OW1 Co1 N1 91.2(3) 3 3 ?
OW1 Co1 N1 88.8(3) . 3 ?
O2 Co1 N1 90.09(18) 3 3 ?
O2 Co1 N1 89.91(18) . 3 ?
N1 Co1 N1 180.0 . 3 ?
C6 O2 Co1 129.1(3) . . ?
Co1 OW1 H04 101(5) . . ?
Co1 OW1 H07 140(8) . . ?
H04 OW1 H07 107(9) . . ?
H2W OW2 H06 102.8 . . ?
C1 N1 C5 118.3(8) . . ?
C1 N1 Co1 121.2(6) . . ?
C5 N1 Co1 120.5(6) . . ?
C14 N2 C10 110.8(9) . . ?
N1 C1 C2 121.6(10) . . ?
N1 C1 H1 119.2 . . ?
C2 C1 H1 119.2 . . ?
C1 C2 C3 119.6(10) . . ?
C1 C2 H2 120.2 . . ?
C3 C2 H2 120.2 . . ?
C4 C3 C2 118.1(9) . . ?
C4 C3 H3 120.9 . . ?
C2 C3 H3 120.9 . . ?
C3 C4 C5 119.2(10) . . ?
C3 C4 H4 120.4 . . ?
C5 C4 H4 120.4 . . ?
N1 C5 C4 123.0(10) . . ?
N1 C5 H5 118.5 . . ?
C4 C5 H5 118.5 . . ?
O2 C6 O1 125.7(4) . . ?
O2 C6 C7 116.4(4) . . ?
O1 C6 C7 117.8(4) . . ?
C8 C7 C9 118.5(4) . . ?
C8 C7 C6 120.8(4) . . ?
C9 C7 C6 120.7(4) . . ?
C9 C8 C7 121.1(4) 3_655 . ?
C9 C8 H8 119.5 3_655 . ?
C7 C8 H8 119.5 . . ?
C8 C9 C7 120.5(5) 3_655 . ?
C8 C9 H9 119.8 3_655 . ?
C7 C9 H9 119.8 . . ?
C11 C10 N2 118.5(11) . . ?
C11 C10 H10 120.7 . . ?
N2 C10 H10 120.7 . . ?
C12 C11 C10 125.8(10) . . ?
C12 C11 H11 117.1 . . ?
C10 C11 H11 117.1 . . ?
C13 C12 C11 113.9(11) . . ?
C13 C12 H12 123.1 . . ?
C11 C12 H12 123.1 . . ?
C12 C13 C14 125.5(13) . . ?
C12 C13 H13 117.3 . . ?
C14 C13 H13 117.3 . . ?
N2 C14 C13 125.4(11) . . ?
N2 C14 H14 117.3 . . ?
C13 C14 H14 117.3 . . ?

loop_
_geom_torsion_atom_site_label_1
_geom_torsion_atom_site_label_2
_geom_torsion_atom_site_label_3
_geom_torsion_atom_site_label_4
_geom_torsion
_geom_torsion_site_symmetry_1
_geom_torsion_site_symmetry_2
_geom_torsion_site_symmetry_3
_geom_torsion_site_symmetry_4
_geom_torsion_publ_flag
OW1 Co1 O2 C6 171.9(6) 3 . . . ?
OW1 Co1 O2 C6 -8.1(6) . . . . ?
O2 Co1 O2 C6 -83.7(18) 3 . . . ?
N1 Co1 O2 C6 83.0(6) . . . . ?
N1 Co1 O2 C6 -97.0(6) 3 . . . ?
OW1 Co1 N1 C1 133.4(6) 3 . . . ?
OW1 Co1 N1 C1 -46.6(6) . . . . ?
O2 Co1 N1 C1 41.7(6) 3 . . . ?
O2 Co1 N1 C1 -138.3(6) . . . . ?
N1 Co1 N1 C1 -137(2) 3 . . . ?
OW1 Co1 N1 C5 -45.6(6) 3 . . . ?
OW1 Co1 N1 C5 134.4(6) . . . . ?
O2 Co1 N1 C5 -137.3(6) 3 . . . ?
O2 Co1 N1 C5 42.7(6) . . . . ?
N1 Co1 N1 C5 44(2) 3 . . . ?
C5 N1 C1 C2 -2.1(13) . . . . ?
Co1 N1 C1 C2 178.9(8) . . . . ?
N1 C1 C2 C3 0.3(16) . . . . ?
C1 C2 C3 C4 0.4(16) . . . . ?
C2 C3 C4 C5 0.7(15) . . . . ?
C1 N1 C5 C4 3.3(12) . . . . ?
Co1 N1 C5 C4 -177.6(7) . . . . ?
C3 C4 C5 N1 -2.6(14) . . . . ?
Co1 O2 C6 O1 -0.1(10) . . . . ?
Co1 O2 C6 C7 178.7(4) . . . . ?
O2 C6 C7 C8 -12.2(9) . . . . ?
O1 C6 C7 C8 166.8(6) . . . . ?
O2 C6 C7 C9 167.9(6) . . . . ?
O1 C6 C7 C9 -13.2(10) . . . . ?
C9 C7 C8 C9 -0.7(10) . . . 3_655 ?
C6 C7 C8 C9 179.3(6) . . . 3_655 ?
C8 C7 C9 C8 0.7(10) . . . 3_655 ?
C6 C7 C9 C8 -179.3(6) . . . 3_655 ?
C14 N2 C10 C11 0.9(10) . . . . ?
N2 C10 C11 C12 1.1(13) . . . . ?
C10 C11 C12 C13 -2.2(14) . . . . ?
C11 C12 C13 C14 1.5(14) . . . . ?
C10 N2 C14 C13 -1.7(11) . . . . ?
C12 C13 C14 N2 0.6(14) . . . . ?

loop_
_geom_hbond_atom_site_label_D
_geom_hbond_atom_site_label_H
_geom_hbond_atom_site_label_A
_geom_hbond_distance_DH
_geom_hbond_distance_HA
_geom_hbond_distance_DA
_geom_hbond_angle_DHA
_geom_hbond_site_symmetry_A
OW1 H04 O1 0.83(8) 1.82(8) 2.597(6) 154(7) .
OW1 H07 OW2 0.77(10) 1.82(11) 2.590(7) 170(11) .
OW2 H06 O1 0.89(11) 2.02(11) 2.760(7) 139(10) 3_554

_diffrn_measured_fraction_theta_max 0.992
_diffrn_reflns_theta_full        28.30
_diffrn_measured_fraction_theta_full 0.992
_refine_diff_density_max         1.551
_refine_diff_density_min         -1.393
_refine_diff_density_rms         0.125
