####################################################################### 
# 
# This file contains crystal structure data downloaded from the 
# Cambridge Structural Database (CSD) hosted by the Cambridge 
# Crystallographic Data Centre (CCDC).
# 
# Full information about CCDC data access policies and citation 
# guidelines are available at http://www.ccdc.cam.ac.uk/access/V1 
# 
# Audit and citation data items may have been added by the CCDC. 
# Please retain this information to preserve the provenance of 
# this file and to allow appropriate attribution of the data. 
# 
#######################################################################

data_2
_audit_block_doi                 10.5517/ccw1fw6
_database_code_depnum_ccdc_archive 'CCDC 805748'
loop_
_citation_id
_citation_doi
_citation_year
1 10.1039/C4CE01201A 2014
_audit_update_record             
;
2014-04-22 deposited with the CCDC.	2024-07-10 downloaded from the CCDC.
;



_audit_creation_method           SHELXL-97
_chemical_name_systematic        
; 
 ? 
;
_chemical_name_common            ?
_chemical_melting_point          ?
_chemical_formula_moiety         ?
_chemical_formula_sum            'C60 H74 Mg6 O43 S4'
_chemical_formula_weight         1757.33

loop_
_atom_type_symbol
_atom_type_description
_atom_type_scat_dispersion_real
_atom_type_scat_dispersion_imag
_atom_type_scat_source
C C 0.0033 0.0016 'International Tables Vol C Tables 4.2.6.8 and 6.1.1.4'
H H 0.0000 0.0000 'International Tables Vol C Tables 4.2.6.8 and 6.1.1.4'
O O 0.0106 0.0060 'International Tables Vol C Tables 4.2.6.8 and 6.1.1.4'
Mg Mg 0.0486 0.0363 'International Tables Vol C Tables 4.2.6.8 and 6.1.1.4'
S S 0.1246 0.1234 'International Tables Vol C Tables 4.2.6.8 and 6.1.1.4'

_symmetry_cell_setting           monoclinic
_symmetry_space_group_name_H-M   P2/c
_symmetry_space_group_name_hall  '-P 2yc'

loop_
_symmetry_equiv_pos_as_xyz
'x, y, z'
'-x, y, -z+1/2'
'-x, -y, -z'
'x, -y, z-1/2'

_cell_length_a                   28.1637(9)
_cell_length_b                   6.4411(2)
_cell_length_c                   24.8679(8)
_cell_angle_alpha                90.00
_cell_angle_beta                 115.445(2)
_cell_angle_gamma                90.00
_cell_volume                     4073.6(2)
_cell_formula_units_Z            2
_cell_measurement_temperature    295(2)
_cell_measurement_reflns_used    9986
_cell_measurement_theta_min      2.4025
_cell_measurement_theta_max      28.2676

_exptl_crystal_description       columnar
_exptl_crystal_colour            colourless
_exptl_crystal_size_max          0.22
_exptl_crystal_size_mid          0.20
_exptl_crystal_size_min          0.15
_exptl_crystal_density_meas      'not measured'
_exptl_crystal_density_diffrn    1.433
_exptl_crystal_density_method    'not measured'
_exptl_crystal_F_000             1828
_exptl_absorpt_coefficient_mu    0.258
_exptl_absorpt_correction_type   multi-scan
_exptl_absorpt_correction_T_min  0.9455
_exptl_absorpt_correction_T_max  0.9624
_exptl_absorpt_process_details   'SADABS V2008/1 (Bruker AXS)'

_exptl_special_details           
; 
 ? 
;

_diffrn_ambient_temperature      295(2)
_diffrn_radiation_wavelength     0.71073
_diffrn_radiation_type           MoK\a
_diffrn_radiation_source         'fine-focus sealed tube'
_diffrn_radiation_monochromator  graphite
_diffrn_measurement_device_type  'Bruker APEX-II CCD'
_diffrn_measurement_method       '\f and \w scans'
_diffrn_detector_area_resol_mean 8.3333
_diffrn_reflns_number            45162
_diffrn_reflns_av_R_equivalents  0.0806
_diffrn_reflns_av_sigmaI/netI    0.0945
_diffrn_reflns_limit_h_min       -37
_diffrn_reflns_limit_h_max       37
_diffrn_reflns_limit_k_min       -8
_diffrn_reflns_limit_k_max       7
_diffrn_reflns_limit_l_min       -33
_diffrn_reflns_limit_l_max       33
_diffrn_reflns_theta_min         1.60
_diffrn_reflns_theta_max         28.40
_reflns_number_total             10210
_reflns_number_gt                5338
_reflns_threshold_expression     >2sigma(I)

_computing_data_collection       'APEX2 (Bruker AXS, 2010)'
_computing_cell_refinement       'SAINT V7.68A (Bruker AXS, 2009)'
_computing_data_reduction        'SAINT V7.68A (Bruker AXS, 2009)'
_computing_structure_solution    'SHELXS-97 (Sheldrick, 2008)'
_computing_structure_refinement  'SHELXL-97 (Sheldrick, 2008)'
_computing_molecular_graphics    'SHELXTL (Sheldrick, 2008)'
_computing_publication_material  SHELXTL

_refine_special_details          
; 
 Refinement of F^2^ against ALL reflections.  The weighted R-factor wR and 
 goodness of fit S are based on F^2^, conventional R-factors R are based 
 on F, with F set to zero for negative F^2^. The threshold expression of 
 F^2^ > 2sigma(F^2^) is used only for calculating R-factors(gt) etc. and is 
 not relevant to the choice of reflections for refinement.  R-factors based 
 on F^2^ are statistically about twice as large as those based on F, and R- 
 factors based on ALL data will be even larger. 
;

_refine_ls_structure_factor_coef Fsqd
_refine_ls_matrix_type           full
_refine_ls_weighting_scheme      calc
_refine_ls_weighting_details     
'calc w=1/[\s^2^(Fo^2^)+(0.0688P)^2^+0.0000P] where P=(Fo^2^+2Fc^2^)/3'
_atom_sites_solution_primary     direct
_atom_sites_solution_secondary   difmap
_atom_sites_solution_hydrogens   geom
_refine_ls_hydrogen_treatment    constr
_refine_ls_extinction_method     none
_refine_ls_extinction_coef       ?
_refine_ls_number_reflns         10210
_refine_ls_number_parameters     510
_refine_ls_number_restraints     0
_refine_ls_R_factor_all          0.1118
_refine_ls_R_factor_gt           0.0541
_refine_ls_wR_factor_ref         0.1672
_refine_ls_wR_factor_gt          0.1468
_refine_ls_goodness_of_fit_ref   1.037
_refine_ls_restrained_S_all      1.037
_refine_ls_shift/su_max          0.001
_refine_ls_shift/su_mean         0.000

loop_
_atom_site_label
_atom_site_type_symbol
_atom_site_fract_x
_atom_site_fract_y
_atom_site_fract_z
_atom_site_U_iso_or_equiv
_atom_site_adp_type
_atom_site_occupancy
_atom_site_symmetry_multiplicity
_atom_site_calc_flag
_atom_site_refinement_flags
_atom_site_disorder_assembly
_atom_site_disorder_group
S1 S 0.42411(3) 0.42022(14) 0.39919(3) 0.0330(2) Uani 1 1 d . . .
S2 S 1.09333(3) 0.34684(14) 0.62768(3) 0.0331(2) Uani 1 1 d . . .
Mg1 Mg 0.77774(3) -0.12110(15) 0.43822(4) 0.0205(2) Uani 1 1 d . . .
Mg2 Mg 0.75701(3) 0.37763(14) 0.48502(4) 0.0183(2) Uani 1 1 d . . .
Mg3 Mg 0.73607(3) -0.12183(15) 0.53295(4) 0.0214(2) Uani 1 1 d . . .
O1 O 0.77832(7) 0.0727(3) 0.50411(8) 0.0193(4) Uani 1 1 d . . .
H1 H 0.8080 0.1001 0.5327 0.023 Uiso 1 1 d R . .
O2 O 0.73521(7) -0.3162(3) 0.46690(8) 0.0200(4) Uani 1 1 d . . .
H2 H 0.7011 -0.3366 0.4420 0.024 Uiso 1 1 d R . .
O3 O 0.77491(8) -0.3294(3) 0.37116(8) 0.0302(5) Uani 1 1 d . . .
H3B H 0.8060 -0.3574 0.3759 0.045 Uiso 1 1 d R . .
H3C H 0.7594 -0.4403 0.3733 0.045 Uiso 1 1 d R . .
O4 O 0.85126(7) -0.2411(3) 0.49582(9) 0.0287(5) Uani 1 1 d . . .
O5 O 0.70953(8) 0.0034(3) 0.37211(9) 0.0291(5) Uani 1 1 d . . .
O6 O 0.82269(8) 0.0845(3) 0.41144(10) 0.0370(6) Uani 1 1 d . . .
H6B H 0.8516 0.0274 0.4170 0.056 Uiso 1 1 d R . .
H6C H 0.8286 0.1956 0.4317 0.056 Uiso 1 1 d R . .
O7 O 0.79085(7) 0.4133(3) 0.57837(8) 0.0281(5) Uani 1 1 d . . .
O8 O 0.83192(7) 0.4206(3) 0.48873(8) 0.0261(5) Uani 1 1 d . . .
O9 O 0.72324(7) 0.3400(3) 0.39288(8) 0.0282(5) Uani 1 1 d . . .
O10 O 0.68278(7) 0.3374(3) 0.48434(9) 0.0289(5) Uani 1 1 d . . .
O11 O 0.80514(8) -0.2487(3) 0.59780(9) 0.0302(5) Uani 1 1 d . . .
O12 O 0.66260(7) 0.0009(3) 0.47927(10) 0.0327(5) Uani 1 1 d . . .
O13 O 0.69354(8) -0.3344(3) 0.55992(9) 0.0344(5) Uani 1 1 d . . .
H13B H 0.6644 -0.2807 0.5552 0.052 Uiso 1 1 d R . .
H13C H 0.6879 -0.4442 0.5391 0.052 Uiso 1 1 d R . .
O14 O 0.74205(9) 0.0845(3) 0.60195(9) 0.0371(6) Uani 1 1 d . . .
H14A H 0.7695 0.1595 0.6157 0.056 Uiso 1 1 d R . .
O15 O 0.42114(8) 0.6411(4) 0.40289(10) 0.0469(7) Uani 1 1 d . . .
O16 O 0.40429(8) 0.2906(4) 0.43209(9) 0.0466(7) Uani 1 1 d . . .
O17 O 1.09685(8) 0.1245(4) 0.62387(10) 0.0470(7) Uani 1 1 d . . .
O18 O 1.12041(8) 0.4771(4) 0.60281(9) 0.0445(7) Uani 1 1 d . . .
C1 C 0.65081(10) 0.1896(5) 0.47380(12) 0.0244(7) Uani 1 1 d . . .
C1S C 0.70737(18) 0.1159(7) 0.6283(2) 0.0737(13) Uani 1 1 d . . .
H1SA H 0.6981 -0.0189 0.6384 0.088 Uiso 1 1 calc R . .
H1SB H 0.6754 0.1776 0.5987 0.088 Uiso 1 1 calc R . .
C2 C 0.59389(10) 0.2453(5) 0.45395(12) 0.0255(7) Uani 1 1 d . . .
C2S C 0.72572(19) 0.2432(9) 0.6807(2) 0.0948(17) Uani 1 1 d . . .
H2SA H 0.6989 0.2529 0.6947 0.142 Uiso 1 1 calc R . .
H2SB H 0.7338 0.3795 0.6714 0.142 Uiso 1 1 calc R . .
H2SC H 0.7568 0.1824 0.7111 0.142 Uiso 1 1 calc R . .
C3 C 0.55886(11) 0.1000(5) 0.45668(14) 0.0329(8) Uani 1 1 d . . .
H3A H 0.5704 -0.0340 0.4697 0.040 Uiso 1 1 calc R . .
C4 C 0.50685(11) 0.1521(5) 0.44021(14) 0.0352(8) Uani 1 1 d . . .
H4A H 0.4834 0.0548 0.4425 0.042 Uiso 1 1 calc R . .
C5 C 0.49045(10) 0.3498(5) 0.42051(12) 0.0275(7) Uani 1 1 d . . .
C6 C 0.52445(12) 0.4973(5) 0.41739(15) 0.0399(9) Uani 1 1 d . . .
H6A H 0.5127 0.6309 0.4042 0.048 Uiso 1 1 calc R . .
C7 C 0.57652(12) 0.4436(5) 0.43421(15) 0.0385(9) Uani 1 1 d . . .
H7A H 0.5999 0.5417 0.4322 0.046 Uiso 1 1 calc R . .
C8 C 0.39055(10) 0.3473(5) 0.32322(12) 0.0277(7) Uani 1 1 d . . .
C9 C 0.37327(12) 0.1469(5) 0.30861(13) 0.0358(8) Uani 1 1 d . . .
H9A H 0.3808 0.0469 0.3381 0.043 Uiso 1 1 calc R . .
C10 C 0.65539(12) 0.0965(5) 0.25046(13) 0.0348(8) Uani 1 1 d . . .
H10A H 0.6668 -0.0393 0.2610 0.042 Uiso 1 1 calc R . .
C11 C 0.66726(11) 0.2453(5) 0.29417(12) 0.0257(7) Uani 1 1 d . . .
C12 C 0.64831(13) 0.4422(5) 0.27897(14) 0.0396(9) Uani 1 1 d . . .
H12A H 0.6554 0.5414 0.3086 0.048 Uiso 1 1 calc R . .
C13 C 0.38142(13) 0.4961(6) 0.28027(14) 0.0409(9) Uani 1 1 d . . .
H13A H 0.3948 0.6296 0.2906 0.049 Uiso 1 1 calc R . .
C14 C 0.70246(10) 0.1910(5) 0.35806(12) 0.0236(7) Uani 1 1 d . . .
C15 C 0.86343(10) 0.5712(5) 0.50497(11) 0.0230(7) Uani 1 1 d . . .
C16 C 0.92144(10) 0.5186(5) 0.53769(12) 0.0236(7) Uani 1 1 d . . .
C17 C 0.95920(11) 0.6655(5) 0.54453(13) 0.0314(8) Uani 1 1 d . . .
H17B H 0.9490 0.7995 0.5303 0.038 Uiso 1 1 calc R . .
C18 C 1.01197(11) 0.6159(5) 0.57234(14) 0.0353(8) Uani 1 1 d . . .
H18B H 1.0374 0.7145 0.5764 0.042 Uiso 1 1 calc R . .
C19 C 1.02627(10) 0.4160(5) 0.59406(12) 0.0290(8) Uani 1 1 d . . .
C20 C 0.98903(12) 0.2683(6) 0.58857(16) 0.0452(10) Uani 1 1 d . . .
H20A H 0.9990 0.1355 0.6040 0.054 Uiso 1 1 calc R . .
C21 C 0.93647(12) 0.3217(6) 0.55960(15) 0.0423(9) Uani 1 1 d . . .
H21A H 0.9109 0.2228 0.5549 0.051 Uiso 1 1 calc R . .
C22 C 1.11678(11) 0.4153(5) 0.70337(12) 0.0292(8) Uani 1 1 d . . .
C23 C 1.13858(13) 0.6097(5) 0.72103(14) 0.0411(9) Uani 1 1 d . . .
H23A H 1.1389 0.7055 0.6932 0.049 Uiso 1 1 calc R . .
C24 C 0.84005(13) 0.6593(5) 0.71914(13) 0.0400(9) Uani 1 1 d . . .
H24A H 0.8259 0.7906 0.7066 0.048 Uiso 1 1 calc R . .
C25 C 0.83958(11) 0.5149(5) 0.67764(12) 0.0261(7) Uani 1 1 d . . .
C26 C 0.86230(13) 0.3229(6) 0.69625(14) 0.0402(9) Uani 1 1 d . . .
H26A H 0.8625 0.2268 0.6684 0.048 Uiso 1 1 calc R . .
C27 C 0.88491(13) 0.2723(6) 0.75629(14) 0.0417(9) Uani 1 1 d . . .
H27A H 0.9009 0.1440 0.7691 0.050 Uiso 1 1 calc R . .
C28 C 0.81028(10) 0.5655(5) 0.61260(12) 0.0244(7) Uani 1 1 d . . .
O1W O 0.9031(4) -0.0742(12) 0.6304(5) 0.384(5) Uani 1 1 d . . .
H1WA H 0.8796 -0.0795 0.6433 0.576 Uiso 1 1 d R . .
H1WB H 0.9304 -0.1334 0.6561 0.576 Uiso 1 1 d R . .
O2W O 0.6120(5) -0.1831(16) 0.3613(5) 0.411(6) Uani 1 1 d . . .
H2WA H 0.6119 -0.1815 0.3955 0.616 Uiso 1 1 d R . .
H2WB H 0.5836 -0.1273 0.3367 0.616 Uiso 1 1 d R . .
O3W O 1.0000 0.790(4) 0.7500 0.519(14) Uani 1 2 d S . .
H3WA H 1.0155 0.7092 0.7358 0.778 Uiso 1 1 d R . .
O4W O 0.5041(11) 0.008(3) 0.2774(6) 0.713(18) Uani 1 1 d . . .
H4WA H 0.4802 -0.0774 0.2750 1.070 Uiso 1 1 d R . .
H4WB H 0.4964 0.1257 0.2868 1.070 Uiso 1 1 d R . .

loop_
_atom_site_aniso_label
_atom_site_aniso_U_11
_atom_site_aniso_U_22
_atom_site_aniso_U_33
_atom_site_aniso_U_23
_atom_site_aniso_U_13
_atom_site_aniso_U_12
S1 0.0185(3) 0.0502(6) 0.0239(4) -0.0079(4) 0.0032(3) 0.0063(4)
S2 0.0208(3) 0.0512(6) 0.0221(4) -0.0067(4) 0.0043(3) 0.0078(4)
Mg1 0.0219(4) 0.0175(6) 0.0222(5) 0.0013(4) 0.0096(4) 0.0015(4)
Mg2 0.0178(4) 0.0157(5) 0.0190(4) 0.0003(4) 0.0056(3) 0.0006(4)
Mg3 0.0237(4) 0.0169(6) 0.0249(5) 0.0005(4) 0.0118(4) 0.0011(4)
O1 0.0204(8) 0.0158(11) 0.0204(9) 0.0013(8) 0.0075(7) 0.0010(8)
O2 0.0206(9) 0.0165(11) 0.0222(9) 0.0022(8) 0.0085(7) 0.0018(8)
O3 0.0324(10) 0.0260(12) 0.0339(11) -0.0011(9) 0.0159(9) 0.0001(9)
O4 0.0222(9) 0.0226(13) 0.0364(12) -0.0024(9) 0.0079(8) 0.0026(9)
O5 0.0300(10) 0.0218(12) 0.0273(11) 0.0005(9) 0.0046(8) 0.0005(9)
O6 0.0380(11) 0.0260(13) 0.0548(14) 0.0000(11) 0.0273(10) -0.0009(10)
O7 0.0318(10) 0.0256(12) 0.0213(10) -0.0017(9) 0.0062(8) 0.0000(9)
O8 0.0188(9) 0.0240(12) 0.0332(11) 0.0003(9) 0.0089(8) -0.0020(9)
O9 0.0315(10) 0.0235(12) 0.0216(10) -0.0033(9) 0.0037(8) -0.0020(9)
O10 0.0192(9) 0.0244(12) 0.0425(12) -0.0006(10) 0.0129(8) -0.0023(9)
O11 0.0321(11) 0.0239(13) 0.0267(11) 0.0043(9) 0.0052(9) -0.0009(10)
O12 0.0229(10) 0.0212(13) 0.0514(13) -0.0024(10) 0.0134(9) 0.0014(9)
O13 0.0368(11) 0.0253(13) 0.0498(13) -0.0007(10) 0.0269(10) 0.0002(10)
O14 0.0517(12) 0.0323(14) 0.0385(12) -0.0055(10) 0.0299(10) -0.0008(11)
O15 0.0353(12) 0.0476(16) 0.0434(13) -0.0175(12) 0.0033(10) 0.0152(12)
O16 0.0257(10) 0.086(2) 0.0299(12) 0.0007(12) 0.0139(9) 0.0045(12)
O17 0.0367(12) 0.0545(18) 0.0390(13) -0.0140(12) 0.0060(10) 0.0159(12)
O18 0.0263(10) 0.0818(19) 0.0278(11) -0.0009(12) 0.0139(9) 0.0026(12)
C1 0.0207(13) 0.0250(18) 0.0262(15) -0.0018(13) 0.0087(11) 0.0005(13)
C1S 0.094(3) 0.073(3) 0.083(3) -0.027(2) 0.066(2) -0.022(3)
C2 0.0192(13) 0.0261(18) 0.0281(15) -0.0001(13) 0.0072(11) 0.0005(13)
C2S 0.113(3) 0.118(4) 0.089(3) -0.048(3) 0.077(3) -0.036(3)
C3 0.0220(14) 0.0282(19) 0.0445(18) 0.0090(15) 0.0104(13) 0.0009(14)
C4 0.0223(14) 0.039(2) 0.0425(18) 0.0078(16) 0.0119(13) -0.0047(15)
C5 0.0165(12) 0.040(2) 0.0217(14) -0.0048(14) 0.0042(11) 0.0011(14)
C6 0.0264(15) 0.028(2) 0.057(2) 0.0084(17) 0.0100(15) 0.0060(15)
C7 0.0243(15) 0.028(2) 0.057(2) 0.0085(16) 0.0113(14) -0.0017(14)
C8 0.0201(13) 0.034(2) 0.0238(14) -0.0035(14) 0.0042(11) 0.0008(13)
C9 0.0407(17) 0.035(2) 0.0223(15) 0.0068(14) 0.0041(13) -0.0021(16)
C10 0.0406(17) 0.0282(19) 0.0259(16) -0.0009(14) 0.0052(13) 0.0085(15)
C11 0.0235(13) 0.0257(18) 0.0226(14) 0.0035(13) 0.0047(11) 0.0013(13)
C12 0.0469(19) 0.027(2) 0.0270(17) -0.0051(14) -0.0007(14) 0.0071(16)
C13 0.0434(19) 0.032(2) 0.0301(17) -0.0039(15) -0.0004(15) -0.0095(16)
C14 0.0220(13) 0.0249(18) 0.0224(14) -0.0008(13) 0.0079(11) 0.0021(13)
C15 0.0225(13) 0.0293(19) 0.0180(13) 0.0000(12) 0.0095(11) 0.0026(13)
C16 0.0200(13) 0.0264(18) 0.0214(14) 0.0005(13) 0.0060(11) 0.0030(13)
C17 0.0238(14) 0.0264(19) 0.0368(17) 0.0022(14) 0.0062(13) 0.0001(14)
C18 0.0207(14) 0.038(2) 0.0426(18) -0.0032(16) 0.0091(13) -0.0050(14)
C19 0.0193(13) 0.042(2) 0.0197(14) -0.0042(14) 0.0031(11) 0.0031(14)
C20 0.0292(16) 0.035(2) 0.057(2) 0.0172(18) 0.0052(16) 0.0066(16)
C21 0.0263(16) 0.034(2) 0.056(2) 0.0116(17) 0.0073(15) -0.0029(15)
C22 0.0220(13) 0.039(2) 0.0199(14) 0.0008(14) 0.0031(11) 0.0049(14)
C23 0.053(2) 0.040(2) 0.0237(16) 0.0066(15) 0.0104(14) -0.0041(18)
C24 0.056(2) 0.031(2) 0.0247(16) -0.0007(14) 0.0096(15) 0.0108(17)
C25 0.0276(14) 0.0241(18) 0.0205(14) 0.0003(13) 0.0044(11) -0.0010(13)
C26 0.0483(19) 0.040(2) 0.0246(16) -0.0013(15) 0.0087(14) 0.0141(17)
C27 0.0484(19) 0.038(2) 0.0274(17) 0.0068(15) 0.0054(15) 0.0158(17)
C28 0.0201(13) 0.0299(19) 0.0203(14) 0.0003(13) 0.0061(11) 0.0017(13)
O1W 0.487(12) 0.201(8) 0.671(17) -0.113(8) 0.445(12) -0.074(8)
O2W 0.504(14) 0.368(13) 0.491(15) -0.069(11) 0.337(12) -0.159(12)
O3W 0.172(12) 0.76(4) 0.50(3) 0.000 0.030(15) 0.000
O4W 0.60(2) 1.11(4) 0.31(3) -0.05(2) 0.09(3) 0.29(3)

_geom_special_details            
; 
 All esds (except the esd in the dihedral angle between two l.s. planes) 
 are estimated using the full covariance matrix.  The cell esds are taken 
 into account individually in the estimation of esds in distances, angles 
 and torsion angles; correlations between esds in cell parameters are only 
 used when they are defined by crystal symmetry.  An approximate (isotropic) 
 treatment of cell esds is used for estimating esds involving l.s. planes. 
;

loop_
_geom_bond_atom_site_label_1
_geom_bond_atom_site_label_2
_geom_bond_distance
_geom_bond_site_symmetry_2
_geom_bond_publ_flag
S1 O15 1.431(2) . ?
S1 O16 1.439(3) . ?
S1 C5 1.768(3) . ?
S1 C8 1.774(3) . ?
S2 O18 1.440(2) . ?
S2 O17 1.442(3) . ?
S2 C22 1.762(3) . ?
S2 C19 1.763(3) . ?
Mg1 O1 2.054(2) . ?
Mg1 O2 2.063(2) . ?
Mg1 O5 2.079(2) . ?
Mg1 O4 2.095(2) . ?
Mg1 O3 2.115(2) . ?
Mg1 O6 2.127(2) . ?
Mg2 O1 2.049(2) . ?
Mg2 O2 2.057(2) 1_565 ?
Mg2 O9 2.083(2) . ?
Mg2 O8 2.090(2) . ?
Mg2 O10 2.099(2) . ?
Mg2 O7 2.109(2) . ?
Mg2 H1 2.2805 . ?
Mg3 O2 2.057(2) . ?
Mg3 O1 2.058(2) . ?
Mg3 O12 2.077(2) . ?
Mg3 O11 2.087(2) . ?
Mg3 O13 2.109(2) . ?
Mg3 O14 2.119(2) . ?
O1 H1 0.8512 . ?
O2 Mg2 