####################################################################### 
# 
# This file contains crystal structure data downloaded from the 
# Cambridge Structural Database (CSD) hosted by the Cambridge 
# Crystallographic Data Centre (CCDC).
# 
# Full information about CCDC data access policies and citation 
# guidelines are available at http://www.ccdc.cam.ac.uk/access/V1 
# 
# Audit and citation data items may have been added by the CCDC. 
# Please retain this information to preserve the provenance of 
# this file and to allow appropriate attribution of the data. 
# 
#######################################################################

data_hj173
_audit_block_doi                 10.5517/ccrp4wf
_database_code_depnum_ccdc_archive 'CCDC 705525'
loop_
_citation_id
_citation_doi
_citation_year
1 10.1016/j.poly.2008.12.020 2009
_audit_update_record             
;
2008-10-16 deposited with the CCDC.	2024-07-10 downloaded from the CCDC.
;

_audit_creation_method           SHELXL-97
_chemical_name_systematic        
;
?
;
_chemical_name_common            ?
_chemical_melting_point          ?
_chemical_formula_moiety         'C36 H30 Cd N8 O8'
_chemical_formula_sum            'C36 H30 Cd N8 O8'
_chemical_formula_weight         815.08

loop_
_atom_type_symbol
_atom_type_description
_atom_type_scat_dispersion_real
_atom_type_scat_dispersion_imag
_atom_type_scat_source
C C 0.0033 0.0016 'International Tables Vol C Tables 4.2.6.8 and 6.1.1.4'
H H 0.0000 0.0000 'International Tables Vol C Tables 4.2.6.8 and 6.1.1.4'
N N 0.0061 0.0033 'International Tables Vol C Tables 4.2.6.8 and 6.1.1.4'
O O 0.0106 0.0060 'International Tables Vol C Tables 4.2.6.8 and 6.1.1.4'
Cd Cd -0.8075 1.2024 'International Tables Vol C Tables 4.2.6.8 and 6.1.1.4'

_symmetry_cell_setting           Monoclinic
_symmetry_space_group_name_H-M   'C2/c '
_symmetry_space_group_name_Hall  '-C 2yc'

loop_
_symmetry_equiv_pos_as_xyz
'x, y, z'
'-x, y, -z+1/2'
'x+1/2, y+1/2, z'
'-x+1/2, y+1/2, -z+1/2'
'-x, -y, -z'
'x, -y, z-1/2'
'-x+1/2, -y+1/2, -z'
'x+1/2, -y+1/2, z-1/2'

_cell_length_a                   28.919(2)
_cell_length_b                   14.0004(10)
_cell_length_c                   21.2565(15)
_cell_angle_alpha                90.00
_cell_angle_beta                 108.4110(10)
_cell_angle_gamma                90.00
_cell_volume                     8165.9(10)
_cell_formula_units_Z            8
_cell_measurement_temperature    296(2)
_cell_measurement_reflns_used    3456
_cell_measurement_theta_min      4.77
_cell_measurement_theta_max      22.79

_exptl_crystal_description       block
_exptl_crystal_colour            yellow
_exptl_crystal_size_min          0.08
_exptl_crystal_size_mid          0.10
_exptl_crystal_size_max          0.14
_exptl_crystal_density_meas      ?
_exptl_crystal_density_diffrn    1.326
_exptl_crystal_density_method    'not measured'
_exptl_crystal_F_000             3312
_exptl_absorpt_coefficient_mu    0.591
_exptl_absorpt_correction_type   multi-scan
_exptl_absorpt_correction_T_min  0.9219
_exptl_absorpt_correction_T_max  0.9543
_exptl_absorpt_process_details   ?

_exptl_special_details           
;
?
;

_diffrn_ambient_temperature      296(2)
_diffrn_radiation_wavelength     0.71073
_diffrn_radiation_type           MoK\a
_diffrn_radiation_source         'sealed tube'
_diffrn_radiation_monochromator  graphite
_diffrn_measurement_device_type  'CCD area detector'
_diffrn_measurement_method       'phi and omega scans'
_diffrn_detector_area_resol_mean ?
_diffrn_standards_number         ?
_diffrn_standards_interval_count ?
_diffrn_standards_interval_time  ?
_diffrn_standards_decay_%        ?
_diffrn_reflns_number            35999
_diffrn_reflns_av_R_equivalents  0.0810
_diffrn_reflns_av_sigmaI/netI    0.0879
_diffrn_reflns_limit_h_min       -38
_diffrn_reflns_limit_h_max       38
_diffrn_reflns_limit_k_min       -18
_diffrn_reflns_limit_k_max       18
_diffrn_reflns_limit_l_min       -28
_diffrn_reflns_limit_l_max       28
_diffrn_reflns_theta_min         4.56
_diffrn_reflns_theta_max         28.33
_reflns_number_total             9870
_reflns_number_gt                4779
_reflns_threshold_expression     >2sigma(I)

_computing_data_collection       'Bruker SMART'
_computing_cell_refinement       'Bruker SMART'
_computing_data_reduction        'Bruker SAINT'
_computing_structure_solution    'Bruker SHELXTL'
_computing_structure_refinement  'Bruker SHELXTL'
_computing_molecular_graphics    'Bruker SHELXTL'
_computing_publication_material  'Bruker SHELXTL'

_refine_special_details          
;
Refinement of F^2^ against ALL reflections. The weighted R-factor wR and
goodness of fit S are based on F^2^, conventional R-factors R are based
on F, with F set to zero for negative F^2^. The threshold expression of
F^2^ > 2sigma(F^2^) is used only for calculating R-factors(gt) etc. and is
not relevant to the choice of reflections for refinement. R-factors based
on F^2^ are statistically about twice as large as those based on F, and R-
factors based on ALL data will be even larger.
;

_refine_ls_structure_factor_coef Fsqd
_refine_ls_matrix_type           full
_refine_ls_weighting_scheme      calc
_refine_ls_weighting_details     
'calc w=1/[\s^2^(Fo^2^)+(0.0902P)^2^+0.0000P] where P=(Fo^2^+2Fc^2^)/3'
_atom_sites_solution_primary     direct
_atom_sites_solution_secondary   difmap
_atom_sites_solution_hydrogens   geom
_refine_ls_hydrogen_treatment    mixed
_refine_ls_extinction_method     none
_refine_ls_extinction_coef       ?
_refine_ls_number_reflns         9870
_refine_ls_number_parameters     494
_refine_ls_number_restraints     0
_refine_ls_R_factor_all          0.1373
_refine_ls_R_factor_gt           0.0600
_refine_ls_wR_factor_ref         0.1822
_refine_ls_wR_factor_gt          0.1423
_refine_ls_goodness_of_fit_ref   0.950
_refine_ls_restrained_S_all      0.950
_refine_ls_shift/su_max          0.001
_refine_ls_shift/su_mean         0.000

loop_
_atom_site_label
_atom_site_type_symbol
_atom_site_fract_x
_atom_site_fract_y
_atom_site_fract_z
_atom_site_U_iso_or_equiv
_atom_site_adp_type
_atom_site_occupancy
_atom_site_symmetry_multiplicity
_atom_site_calc_flag
_atom_site_refinement_flags
_atom_site_disorder_assembly
_atom_site_disorder_group
Cd1 Cd 0.126914(12) 0.14567(2) 0.444591(18) 0.05979(16) Uani 1 1 d . . .
O1 O -0.21245(16) 0.6842(3) 0.0905(3) 0.135(2) Uani 1 1 d . . .
O2 O -0.09025(15) -0.3828(3) -0.0478(2) 0.0891(12) Uani 1 1 d . . .
O3 O 0.07590(14) 0.0449(3) 0.4855(2) 0.0884(12) Uani 1 1 d . . .
O4 O 0.06272(19) -0.0347(3) 0.5625(2) 0.1017(14) Uani 1 1 d . . .
O5 O 0.1196(2) 0.0666(4) 0.5865(3) 0.1216(17) Uani 1 1 d . . .
O6 O 0.16458(13) 0.2547(3) 0.3894(2) 0.0810(11) Uani 1 1 d . . .
O7 O 0.23238(14) 0.3241(3) 0.3962(2) 0.0959(13) Uani 1 1 d . . .
O8 O 0.23170(18) 0.1870(4) 0.4348(4) 0.160(3) Uani 1 1 d . . .
N1 N 0.05639(13) 0.2358(3) 0.3960(2) 0.0611(10) Uani 1 1 d . . .
N2 N -0.06479(15) 0.4779(3) 0.2693(2) 0.0689(11) Uani 1 1 d . . .
N3 N -0.19121(19) 1.0446(3) -0.0063(4) 0.0782(15) Uani 1 1 d . . .
HN3A H -0.215(3) 1.078(6) 0.006(4) 0.13(3) Uiso 1 1 d . . .
HN3B H -0.202(3) 1.062(6) -0.041(5) 0.13(4) Uiso 1 1 d . . .
N4 N 0.10644(15) 0.0466(3) 0.3511(2) 0.0641(10) Uani 1 1 d . . .
N5 N 0.02680(14) -0.1952(3) 0.1769(2) 0.0635(10) Uani 1 1 d . . .
N6 N -0.15626(19) -0.7553(3) -0.0406(2) 0.0641(11) Uani 1 1 d . . .
HN6A H -0.185(2) -0.757(4) -0.049(3) 0.074(19) Uiso 1 1 d . . .
HN6B H -0.1558(18) -0.793(4) -0.085(3) 0.080(16) Uiso 1 1 d . . .
N7 N 0.0856(2) 0.0253(4) 0.5447(3) 0.0792(13) Uani 1 1 d . . .
N8 N 0.20991(15) 0.2561(3) 0.4063(2) 0.0655(11) Uani 1 1 d . . .
C1 C 0.0123(2) 0.1983(4) 0.3807(3) 0.0834(17) Uani 1 1 d . . .
H1 H 0.0092 0.1353 0.3927 0.100 Uiso 1 1 calc R . .
C2 C -0.02944(19) 0.2484(4) 0.3474(3) 0.0841(17) Uani 1 1 d . . .
H2 H -0.0598 0.2197 0.3385 0.101 Uiso 1 1 calc R . .
C3 C -0.02586(18) 0.3402(3) 0.3276(3) 0.0621(12) Uani 1 1 d . . .
C4 C 0.01996(18) 0.3797(4) 0.3437(3) 0.0655(13) Uani 1 1 d . . .
H4 H 0.0241 0.4423 0.3318 0.079 Uiso 1 1 calc R . .
C5 C 0.05938(18) 0.3252(4) 0.3775(3) 0.0667(13) Uani 1 1 d . . .
H5 H 0.0901 0.3529 0.3881 0.080 Uiso 1 1 calc R . .
C6 C -0.06956(19) 0.3941(4) 0.2868(3) 0.0720(14) Uani 1 1 d . . .
H6 H -0.1002 0.3656 0.2745 0.086 Uiso 1 1 calc R . .
C7 C -0.10474(18) 0.5283(3) 0.2241(3) 0.0628(12) Uani 1 1 d . . .
C8 C -0.1464(2) 0.4863(4) 0.1834(3) 0.0724(14) Uani 1 1 d . . .
H8 H -0.1509 0.4209 0.1863 0.087 Uiso 1 1 calc R . .
C9 C -0.1814(2) 0.5397(4) 0.1387(3) 0.0793(16) Uani 1 1 d . . .
H9 H -0.2092 0.5103 0.1109 0.095 Uiso 1 1 calc R . .
C10 C -0.1755(2) 0.6357(4) 0.1350(3) 0.0826(18) Uani 1 1 d . . .
C11 C -0.1346(2) 0.6792(4) 0.1753(4) 0.107(2) Uani 1 1 d . . .
H11 H -0.1303 0.7447 0.1728 0.128 Uiso 1 1 calc R . .
C12 C -0.0992(2) 0.6239(4) 0.2203(4) 0.095(2) Uani 1 1 d . . .
H12 H -0.0714 0.6532 0.2482 0.114 Uiso 1 1 calc R . .
C13 C -0.2037(2) 0.7749(4) 0.0692(4) 0.089(2) Uani 1 1 d . . .
C14 C -0.1780(2) 0.7859(4) 0.0268(4) 0.099(2) Uani 1 1 d . . .
H14 H -0.1626 0.7336 0.0153 0.119 Uiso 1 1 calc R . .
C15 C -0.1745(2) 0.8752(4) 0.0000(4) 0.0844(17) Uani 1 1 d . . .
H15 H -0.1582 0.8828 -0.0310 0.101 Uiso 1 1 calc R . .
C16 C -0.19564(17) 0.9516(3) 0.0203(3) 0.0647(14) Uani 1 1 d . . .
C17 C -0.2206(2) 0.9400(4) 0.0642(3) 0.0781(15) Uani 1 1 d . . .
H17 H -0.2350 0.9923 0.0775 0.094 Uiso 1 1 calc R . .
C18 C -0.2245(2) 0.8506(5) 0.0890(4) 0.0918(19) Uani 1 1 d . . .
H18 H -0.2415 0.8424 0.1193 0.110 Uiso 1 1 calc R . .
C19 C 0.08632(18) -0.0393(3) 0.3522(3) 0.0653(13) Uani 1 1 d . . .
H19 H 0.0848 -0.0624 0.3925 0.078 Uiso 1 1 calc R . .
C20 C 0.06801(18) -0.0944(4) 0.2971(3) 0.0624(12) Uani 1 1 d . . .
H20 H 0.0539 -0.1531 0.3004 0.075 Uiso 1 1 calc R . .
C21 C 0.07027(18) -0.0641(3) 0.2374(3) 0.0637(12) Uani 1 1 d . . .
C22 C 0.0939(3) 0.0216(4) 0.2363(3) 0.100(2) Uani 1 1 d . . .
H22 H 0.0978 0.0440 0.1971 0.121 Uiso 1 1 calc R . .
C23 C 0.1115(2) 0.0732(4) 0.2942(3) 0.0898(19) Uani 1 1 d . . .
H23 H 0.1279 0.1300 0.2930 0.108 Uiso 1 1 calc R . .
C24 C 0.0468(2) -0.1183(4) 0.1758(3) 0.0768(15) Uani 1 1 d . . .
H24 H 0.0473 -0.0935 0.1354 0.092 Uiso 1 1 calc R . .
C25 C -0.00100(17) -0.2414(3) 0.1178(3) 0.0600(12) Uani 1 1 d . . .
C26 C -0.0131(2) -0.3356(4) 0.1231(3) 0.0742(15) Uani 1 1 d . . .
H26 H -0.0016 -0.3663 0.1639 0.089 Uiso 1 1 calc R . .
C27 C -0.0421(2) -0.3853(4) 0.0685(3) 0.0784(16) Uani 1 1 d . . .
H27 H -0.0490 -0.4496 0.0724 0.094 Uiso 1 1 calc R . .
C28 C -0.06063(19) -0.3400(4) 0.0095(3) 0.0669(13) Uani 1 1 d . . .
C29 C -0.0496(2) -0.2458(4) 0.0034(3) 0.0732(14) Uani 1 1 d . . .
H29 H -0.0624 -0.2150 -0.0372 0.088 Uiso 1 1 calc R . .
C30 C -0.01999(19) -0.1969(4) 0.0568(3) 0.0689(14) Uani 1 1 d . . .
H30 H -0.0126 -0.1332 0.0521 0.083 Uiso 1 1 calc R . .
C31 C -0.10551(19) -0.4763(3) -0.0424(3) 0.0658(13) Uani 1 1 d . . .
C32 C -0.1434(2) -0.4939(4) -0.0193(3) 0.0789(16) Uani 1 1 d . . .
H32 H -0.1580 -0.4439 -0.0038 0.095 Uiso 1 1 calc R . .
C33 C -0.16009(19) -0.5860(4) -0.0188(3) 0.0722(14) Uani 1 1 d . . .
H33 H -0.1860 -0.5980 -0.0029 0.087 Uiso 1 1 calc R . .
C34 C -0.13888(17) -0.6595(3) -0.0415(3) 0.0574(12) Uani 1 1 d . . .
C35 C -0.1005(2) -0.6414(4) -0.0642(3) 0.0779(16) Uani 1 1 d . . .
H35 H -0.0855 -0.6915 -0.0791 0.093 Uiso 1 1 calc R . .
C36 C -0.0839(2) -0.5498(4) -0.0651(3) 0.0821(17) Uani 1 1 d . . .
H36 H -0.0581 -0.5377 -0.0812 0.098 Uiso 1 1 calc R . .

loop_
_atom_site_aniso_label
_atom_site_aniso_U_11
_atom_site_aniso_U_22
_atom_site_aniso_U_33
_atom_site_aniso_U_23
_atom_site_aniso_U_13
_atom_site_aniso_U_12
Cd1 0.0550(2) 0.0479(2) 0.0669(3) 0.00087(17) 0.00567(18) 0.00541(15)
O1 0.080(3) 0.072(3) 0.187(5) 0.057(3) -0.052(3) -0.023(2)
O2 0.110(3) 0.056(2) 0.078(3) 0.0088(19) -0.004(2) -0.029(2)
O3 0.082(3) 0.105(3) 0.078(3) 0.028(2) 0.025(2) 0.002(2)
O4 0.159(4) 0.070(3) 0.089(3) -0.011(2) 0.057(3) -0.037(3)
O5 0.138(4) 0.135(4) 0.096(4) -0.017(3) 0.043(3) -0.053(4)
O6 0.054(2) 0.078(2) 0.106(3) 0.014(2) 0.018(2) -0.0008(17)
O7 0.074(2) 0.080(3) 0.125(4) 0.016(2) 0.019(2) -0.019(2)
O8 0.089(3) 0.111(4) 0.260(8) 0.091(5) 0.026(4) 0.026(3)
N1 0.049(2) 0.057(2) 0.072(3) 0.009(2) 0.010(2) 0.0052(17)
N2 0.065(3) 0.055(3) 0.070(3) -0.002(2) -0.003(2) 0.0098(19)
N3 0.064(3) 0.052(3) 0.097(4) 0.009(3) -0.005(3) -0.015(2)
N4 0.069(3) 0.057(2) 0.062(3) -0.002(2) 0.015(2) -0.0049(19)
N5 0.059(2) 0.053(2) 0.070(3) -0.004(2) 0.007(2) 0.0041(19)
N6 0.057(3) 0.047(2) 0.076(3) 0.006(2) 0.005(2) -0.0036(19)
N7 0.100(4) 0.064(3) 0.081(4) -0.008(3) 0.040(3) -0.009(3)
N8 0.054(3) 0.052(2) 0.084(3) 0.005(2) 0.012(2) -0.003(2)
C1 0.061(3) 0.070(4) 0.104(5) 0.030(3) 0.005(3) 0.003(3)
C2 0.045(3) 0.091(4) 0.102(5) 0.027(3) 0.002(3) -0.007(3)
C3 0.060(3) 0.059(3) 0.061(3) 0.003(2) 0.010(3) 0.005(2)
C4 0.059(3) 0.052(3) 0.076(4) 0.000(2) 0.009(3) 0.003(2)
C5 0.052(3) 0.060(3) 0.082(4) 0.002(3) 0.011(3) 0.004(2)
C6 0.056(3) 0.075(4) 0.072(4) 0.013(3) 0.001(3) 0.012(3)
C7 0.061(3) 0.051(3) 0.062(3) 0.000(2) 0.000(3) 0.006(2)
C8 0.072(3) 0.051(3) 0.077(4) 0.002(3) -0.001(3) -0.001(2)
C9 0.063(3) 0.057(3) 0.088(4) 0.012(3) -0.018(3) -0.010(2)
C10 0.067(3) 0.057(3) 0.091(4) 0.016(3) -0.020(3) -0.003(3)
C11 0.076(4) 0.052(3) 0.150(7) 0.018(4) -0.025(4) -0.012(3)
C12 0.071(4) 0.066(4) 0.110(5) 0.013(3) -0.025(4) -0.009(3)
C13 0.050(3) 0.058(4) 0.128(6) 0.017(4) -0.015(4) -0.002(3)
C14 0.065(4) 0.050(3) 0.163(7) -0.016(4) 0.008(4) 0.006(3)
C15 0.074(4) 0.064(4) 0.110(5) -0.014(3) 0.021(4) -0.005(3)
C16 0.047(3) 0.049(3) 0.080(4) 0.007(2) -0.006(3) 0.000(2)
C17 0.075(4) 0.057(3) 0.105(5) -0.009(3) 0.033(4) -0.006(3)
C18 0.079(4) 0.097(5) 0.092(5) 0.003(4) 0.015(4) -0.016(4)
C19 0.071(3) 0.055(3) 0.070(3) 0.011(3) 0.022(3) -0.003(2)
C20 0.064(3) 0.059(3) 0.062(3) -0.004(3) 0.017(3) -0.010(2)
C21 0.064(3) 0.057(3) 0.067(3) 0.001(2) 0.017(3) -0.008(2)
C22 0.144(6) 0.083(4) 0.077(4) -0.004(3) 0.038(4) -0.041(4)
C23 0.128(5) 0.067(4) 0.072(4) -0.004(3) 0.027(4) -0.041(3)
C24 0.093(4) 0.075(4) 0.066(4) -0.004(3) 0.031(3) -0.019(3)
C25 0.051(3) 0.053(3) 0.073(4) 0.001(3) 0.014(3) 0.005(2)
C26 0.074(3) 0.060(3) 0.076(4) 0.013(3) 0.006(3) -0.005(3)
C27 0.093(4) 0.057(3) 0.070(4) 0.010(3) 0.004(3) -0.016(3)
C28 0.064(3) 0.059(3) 0.068(4) 0.003(3) 0.007(3) -0.008(2)
C29 0.076(3) 0.054(3) 0.074(4) 0.011(3) 0.002(3) -0.003(2)
C30 0.075(3) 0.045(3) 0.079(4) 0.004(3) 0.014(3) -0.005(2)
C31 0.070(3) 0.053(3) 0.067(3) 0.005(2) 0.011(3) -0.013(2)
C32 0.087(4) 0.044(3) 0.103(5) -0.006(3) 0.027(4) 0.001(3)
C33 0.067(3) 0.052(3) 0.098(4) 0.000(3) 0.027(3) 0.000(2)
C34 0.052(3) 0.044(3) 0.070(3) 0.002(2) 0.011(2) 0.0036(19)
C35 0.081(4) 0.055(3) 0.107(5) 0.002(3) 0.043(4) 0.006(3)
C36 0.068(3) 0.070(4) 0.111(5) 0.011(3) 0.033(3) -0.006(3)

_geom_special_details            
;
All esds (except the esd in the dihedral angle between two l.s. planes)
are estimated using the full covariance matrix. The cell esds are taken
into account individually in the estimation of esds in distances, angles
and torsion angles; correlations between esds in cell parameters are only
used when they are defined by crystal symmetry. An approximate (isotropic)
treatment of cell esds is used for estimating esds involving l.s. planes.
;

loop_
_geom_bond_atom_site_label_1
_geom_bond_atom_site_label_2
_geom_bond_distance
_geom_bond_site_symmetry_2
_geom_bond_publ_flag
Cd1 N4 2.340(4) . ?
Cd1 N1 2.342(4) . ?
Cd1 N3 2.375(5) 2_545 ?
Cd1 O6 2.388(4) . ?
Cd1 N6 2.391(4) 2_565 ?
Cd1 O3 2.394(4) . ?
O1 C10 1.365(6) . ?
O1 C13 1.397(7) . ?
O2 C28 1.385(6) . ?
O2 C31 1.397(6) . ?
O3 N7 1.230(6) . ?
O4 N7 1.202(6) . ?
O5 N7 1.241(6) . ?
O6 N8 1.245(5) . ?
O7 N8 1.209(5) . ?
O8 N8 1.208(6) . ?
N1 C1 1.321(6) . ?
N1 C5 1.324(6) . ?
N2 C6 1.251(6) . ?
N2 C7 1.433(6) . ?
N3 C16 1.441(7) . ?
N3 Cd1 2.375(5) 2_565 ?
N3 HN3A 0.94(8) . ?
N3 HN3B 0.74(9) . ?
N4 C23 1.319(7) . ?
N4 C19 1.339(6) . ?
N5 C24 1.226(6) . ?
N5 C25 1.416(6) . ?
N6 C34 1.434(6) . ?
N6 Cd1 2.391(4) 2_545 ?
N6 HN6A 0.80(6) . ?
N6 HN6B 1.09(6) . ?
C1 C2 1.382(7) . ?
C1 H1 0.9300 . ?
C2 C3 1.366(7) . ?
C2 H2 0.9300 . ?
C3 C4 1.376(7) . ?
C3 C6 1.492(7) . ?
C4 C5 1.371(7) . ?
C4 H4 0.9300 . ?
C5 H5 0.9300 . ?
C6 H6 0.9300 . ?
C7 C12 1.354(7) . ?
C7 C8 1.373(7) . ?
C8 C9 1.371(7) . ?
C8 H8 0.9300 . ?
C9 C10 1.360(7) . ?
C9 H9 0.9300 . ?
C10 C11 1.365(8) . ?
C11 C12 1.393(8) . ?
C11 H11 0.9300 . ?
C12 H12 0.9300 . ?
C13 C14 1.346(10) . ?
C13 C18 1.350(9) . ?
C14 C15 1.391(9) . ?
C14 H14 0.9300 . ?
C15 C16 1.367(7) . ?
C15 H15 0.9300 . ?
C16 C17 1.358(8) . ?
C17 C18 1.377(8) . ?
C17 H17 0.9300 . ?
C18 H18 0.9300 . ?
C19 C20 1.363(7) . ?
C19 H19 0.9300 . ?
C20 C21 1.359(7) . ?
C20 H20 0.9300 . ?
C21 C22 1.384(7) . ?
C21 C24 1.479(8) . ?
C22 C23 1.378(8) . ?
C22 H22 0.9300 . ?
C23 H23 0.9300 . ?
C24 H24 0.9300 . ?
C25 C26 1.378(6) . ?
C25 C30 1.385(7) . ?
C26 C27 1.386(8) . ?
C26 H26 0.9300 . ?
C27 C28 1.357(7) . ?
C27 H27 0.9300 . ?
C28 C29 1.372(7) . ?
C29 C30 1.370(7) . ?
C29 H29 0.9300 . ?
C30 H30 0.9300 . ?
C31 C32 1.356(8) . ?
C31 C36 1.370(8) . ?
C32 C33 1.378(7) . ?
C32 H32 0.9300 . ?
C33 C34 1.362(7) . ?
C33 H33 0.9300 . ?
C34 C35 1.367(7) . ?
C35 C36 1.371(7) . ?
C35 H35 0.9300 . ?
C36 H36 0.9300 . ?

loop_
_geom_angle_atom_site_label_1
_geom_angle_atom_site_label_2
_geom_angle_atom_site_label_3
_geom_angle
_geom_angle_site_symmetry_1
_geom_angle_site_symmetry_3
_geom_angle_publ_flag
N4 Cd1 N1 89.62(15) . . ?
N4 Cd1 N3 93.44(19) . 2_545 ?
N1 Cd1 N3 170.1(2) . 2_545 ?
N4 Cd1 O6 89.65(14) . . ?
N1 Cd1 O6 84.73(13) . . ?
N3 Cd1 O6 104.7(2) 2_545 . ?
N4 Cd1 N6 17