####################################################################### 
# 
# This file contains crystal structure data downloaded from the 
# Cambridge Structural Database (CSD) hosted by the Cambridge 
# Crystallographic Data Centre (CCDC).
# 
# Full information about CCDC data access policies and citation 
# guidelines are available at http://www.ccdc.cam.ac.uk/access/V1 
# 
# Audit and citation data items may have been added by the CCDC. 
# Please retain this information to preserve the provenance of 
# this file and to allow appropriate attribution of the data. 
# 
#######################################################################

data_wyq65
_audit_block_doi                 10.5517/ccr9438
_database_code_depnum_ccdc_archive 'CCDC 693969'
loop_
_citation_id
_citation_doi
_citation_year
1 10.1016/j.jssc.2008.11.016 2009
_audit_update_record             
;
2008-07-05 deposited with the CCDC.	2024-07-10 downloaded from the CCDC.
;

_audit_creation_method           SHELXL-97
_chemical_name_systematic        
;
?
;
_chemical_name_common            ?
_chemical_melting_point          ?
_chemical_formula_moiety         'C51 H51 Eu2 N12 O24'
_chemical_formula_sum            'C51 H51 Eu2 N12 O24'
_chemical_formula_weight         1519.96

loop_
_atom_type_symbol
_atom_type_description
_atom_type_scat_dispersion_real
_atom_type_scat_dispersion_imag
_atom_type_scat_source
C C 0.0033 0.0016 'International Tables Vol C Tables 4.2.6.8 and 6.1.1.4'
H H 0.0000 0.0000 'International Tables Vol C Tables 4.2.6.8 and 6.1.1.4'
N N 0.0061 0.0033 'International Tables Vol C Tables 4.2.6.8 and 6.1.1.4'
O O 0.0106 0.0060 'International Tables Vol C Tables 4.2.6.8 and 6.1.1.4'
Eu Eu -0.1578 3.6682 'International Tables Vol C Tables 4.2.6.8 and 6.1.1.4'

_symmetry_cell_setting           Hexagonal
_symmetry_space_group_name_H-M   'P -3 c 1'
_symmetry_space_group_name_Hall  '-P 3 2"c '

loop_
_symmetry_equiv_pos_as_xyz
'x, y, z'
'-y, x-y, z'
'-x+y, -x, z'
'y, x, -z+1/2'
'x-y, -y, -z+1/2'
'-x, -x+y, -z+1/2'
'-x, -y, -z'
'y, -x+y, -z'
'x-y, x, -z'
'-y, -x, z-1/2'
'-x+y, y, z-1/2'
'x, x-y, z-1/2'

_cell_length_a                   15.8346(6)
_cell_length_b                   15.8346(6)
_cell_length_c                   17.5242(14)
_cell_angle_alpha                90.00
_cell_angle_beta                 90.00
_cell_angle_gamma                120.00
_cell_volume                     3805.2(4)
_cell_formula_units_Z            2
_cell_measurement_temperature    293(2)
_cell_measurement_reflns_used    5078
_cell_measurement_theta_min      2.5726
_cell_measurement_theta_max      28.2427


_exptl_crystal_description       block
_exptl_crystal_colour            yellow
_exptl_crystal_size_max          0.23
_exptl_crystal_size_mid          0.18
_exptl_crystal_size_min          0.16
_exptl_crystal_density_meas      ?
_exptl_crystal_density_diffrn    1.327
_exptl_crystal_density_method    'not measured'
_exptl_crystal_F_000             1518
_exptl_absorpt_coefficient_mu    1.705
_exptl_absorpt_correction_type   Multi-scan
_exptl_absorpt_correction_T_min  0.6952
_exptl_absorpt_correction_T_max  0.7721
_exptl_absorpt_process_details   'ABSCOR (Higashi, 1995)'

_exptl_special_details           
;
?
;

_diffrn_ambient_temperature      293(2)
_diffrn_radiation_wavelength     0.71073
_diffrn_radiation_type           MoK\a
_diffrn_radiation_source         'fine-focus sealed tube'
_diffrn_radiation_monochromator  graphite
_diffrn_measurement_device_type  'Rigaku RAXIS-RAPID'
_diffrn_measurement_method       '\w scan'
_diffrn_detector_area_resol_mean ?
_diffrn_standards_number         0
_diffrn_standards_interval_count 0
_diffrn_standards_interval_time  0
_diffrn_standards_decay_%        0
_diffrn_reflns_number            18598
_diffrn_reflns_av_R_equivalents  0.0295
_diffrn_reflns_av_sigmaI/netI    0.0174
_diffrn_reflns_limit_h_min       -18
_diffrn_reflns_limit_h_max       15
_diffrn_reflns_limit_k_min       -16
_diffrn_reflns_limit_k_max       18
_diffrn_reflns_limit_l_min       -20
_diffrn_reflns_limit_l_max       20
_diffrn_reflns_theta_min         2.76
_diffrn_reflns_theta_max         25.00
_reflns_number_total             2189
_reflns_number_gt                1872
_reflns_threshold_expression     >2sigma(I)

_computing_data_collection       'RAPID-AUTO (Rigaku Corporation, 1998)'
_computing_cell_refinement       RAPID-AUTO
_computing_data_reduction        
'CrystalStructure (Rigaku/MSC and Rigaku Corporation, 2002)'
_computing_structure_solution    'SHELXS-97 (Sheldrick, 1990)'
_computing_structure_refinement  'SHELXL-97 (Sheldrick, 1997)'
_computing_molecular_graphics    'XP (Sheldrick, 1993)'
_computing_publication_material  SHELXL-97

_refine_special_details          
;
Refinement of F^2^ against ALL reflections. The weighted R-factor wR and
goodness of fit S are based on F^2^, conventional R-factors R are based
on F, with F set to zero for negative F^2^. The threshold expression of
F^2^ > 2sigma(F^2^) is used only for calculating R-factors(gt) etc. and is
not relevant to the choice of reflections for refinement. R-factors based
on F^2^ are statistically about twice as large as those based on F, and R-
factors based on ALL data will be even larger.
;

_refine_ls_structure_factor_coef Fsqd
_refine_ls_matrix_type           full
_refine_ls_weighting_scheme      calc
_refine_ls_weighting_details     
'calc w=1/[\s^2^(Fo^2^)+(0.0639P)^2^+10.9941P] where P=(Fo^2^+2Fc^2^)/3'
_atom_sites_solution_primary     direct
_atom_sites_solution_secondary   difmap
_atom_sites_solution_hydrogens   geom
_refine_ls_hydrogen_treatment    constr
_refine_ls_extinction_method     none
_refine_ls_extinction_coef       ?
_refine_ls_number_reflns         2189
_refine_ls_number_parameters     140
_refine_ls_number_restraints     13
_refine_ls_R_factor_all          0.0698
_refine_ls_R_factor_gt           0.0612
_refine_ls_wR_factor_ref         0.1605
_refine_ls_wR_factor_gt          0.1539
_refine_ls_goodness_of_fit_ref   1.156
_refine_ls_restrained_S_all      1.159
_refine_ls_shift/su_max          0.000
_refine_ls_shift/su_mean         0.000

loop_
_atom_site_label
_atom_site_type_symbol
_atom_site_fract_x
_atom_site_fract_y
_atom_site_fract_z
_atom_site_U_iso_or_equiv
_atom_site_adp_type
_atom_site_occupancy
_atom_site_symmetry_multiplicity
_atom_site_calc_flag
_atom_site_refinement_flags
_atom_site_disorder_assembly
_atom_site_disorder_group
C1 C 0.8616(5) 0.4871(4) 0.0712(4) 0.0562(15) Uani 1 1 d . . .
C2 C 0.8255(5) 0.5297(5) 0.0215(4) 0.0712(18) Uani 1 1 d . . .
H1 H 0.7597 0.4968 0.0089 0.085 Uiso 1 1 calc R . .
C3 C 0.8856(6) 0.6191(6) -0.0091(4) 0.082(2) Uani 1 1 d . . .
H2 H 0.8591 0.6476 -0.0402 0.098 Uiso 1 1 calc R . .
C4 C 0.9852(7) 0.6691(6) 0.0045(5) 0.094(3) Uani 1 1 d . . .
H3 H 1.0248 0.7295 -0.0180 0.113 Uiso 1 1 calc R . .
C5 C 1.0238(6) 0.6298(6) 0.0504(5) 0.088(3) Uani 1 1 d . . .
H4 H 1.0905 0.6639 0.0598 0.106 Uiso 1 1 calc R . .
C6 C 0.9653(5) 0.5371(5) 0.0850(4) 0.0622(16) Uani 1 1 d . . .
C7 C 1.0099(5) 0.4979(5) 0.1303(4) 0.0676(17) Uani 1 1 d . . .
H5 H 1.0774 0.5341 0.1349 0.081 Uiso 1 1 calc R . .
C8 C 1.0134(6) 0.3719(6) 0.2079(4) 0.075(2) Uani 1 1 d . . .
H7 H 1.0843 0.4094 0.2012 0.091 Uiso 1 1 calc R . .
C9 C 0.9726(12) 0.2612(11) 0.1883(9) 0.077(4) Uani 0.50 1 d PU . .
H8 H 0.9062 0.2237 0.2053 0.115 Uiso 0.50 1 calc PR . .
H9 H 1.0114 0.2385 0.2134 0.115 Uiso 0.50 1 calc PR . .
H10 H 0.9752 0.2539 0.1341 0.115 Uiso 0.50 1 calc PR . .
Eu1 Eu 0.6667 0.3333 0.17630(4) 0.0606(3) Uani 1 3 d S . .
N1 N 0.9661(4) 0.4168(4) 0.1661(3) 0.0615(13) Uani 1 1 d D . .
H6 H 0.9057 0.3865 0.1556 0.074 Uiso 1 1 d RD . .
N2 N 0.4912(5) 0.2844(5) 0.2665(4) 0.0762(17) Uani 1 1 d . . .
O1 O 0.8058(3) 0.4025(3) 0.1034(3) 0.0630(11) Uani 1 1 d . . .
O2 O 0.4861(4) 0.2337(3) 0.2086(3) 0.0708(13) Uani 1 1 d . . .
O3 O 0.4195(5) 0.2580(5) 0.3062(4) 0.109(2) Uani 1 1 d U . .
O4 O 0.5724(4) 0.3607(4) 0.2800(3) 0.0780(14) Uani 1 1 d . . .

loop_
_atom_site_aniso_label
_atom_site_aniso_U_11
_atom_site_aniso_U_22
_atom_site_aniso_U_33
_atom_site_aniso_U_23
_atom_site_aniso_U_13
_atom_site_aniso_U_12
C1 0.055(4) 0.049(3) 0.064(4) -0.007(3) -0.001(3) 0.025(3)
C2 0.058(4) 0.070(4) 0.084(5) 0.013(4) 0.003(3) 0.030(4)
C3 0.086(6) 0.074(5) 0.080(5) 0.014(4) -0.001(4) 0.036(4)
C4 0.094(6) 0.062(5) 0.085(5) 0.019(4) -0.007(5) 0.009(4)
C5 0.069(5) 0.074(5) 0.077(5) 0.003(4) -0.010(4) 0.004(4)
C6 0.063(4) 0.049(3) 0.062(4) -0.008(3) -0.001(3) 0.019(3)
C7 0.052(4) 0.065(4) 0.071(4) -0.006(4) -0.007(3) 0.018(3)
C8 0.065(4) 0.077(5) 0.095(5) -0.029(4) -0.023(4) 0.044(4)
C9 0.090(8) 0.084(8) 0.071(7) -0.004(6) 0.004(6) 0.055(6)
Eu1 0.0519(3) 0.0519(3) 0.0780(4) 0.000 0.000 0.02593(15)
N1 0.053(3) 0.066(4) 0.068(3) -0.014(3) -0.008(3) 0.032(3)
N2 0.073(4) 0.075(4) 0.090(4) 0.002(4) 0.023(4) 0.044(4)
O1 0.050(2) 0.055(3) 0.083(3) 0.010(2) 0.004(2) 0.026(2)
O2 0.059(3) 0.060(3) 0.092(3) -0.002(2) 0.016(2) 0.030(2)
O3 0.086(4) 0.119(5) 0.117(4) -0.009(4) 0.033(3) 0.047(4)
O4 0.075(3) 0.071(3) 0.091(3) -0.016(3) 0.005(3) 0.038(3)

_geom_special_details            
;
All esds (except the esd in the dihedral angle between two l.s. planes)
are estimated using the full covariance matrix. The cell esds are taken
into account individually in the estimation of esds in distances, angles
and torsion angles; correlations between esds in cell parameters are only
used when they are defined by crystal symmetry. An approximate (isotropic)
treatment of cell esds is used for estimating esds involving l.s. planes.
;

loop_
_geom_bond_atom_site_label_1
_geom_bond_atom_site_label_2
_geom_bond_distance
_geom_bond_site_symmetry_2
_geom_bond_publ_flag
C1 O1 1.308(7) . ?
C1 C2 1.387(9) . ?
C1 C6 1.443(9) . ?
C2 C3 1.361(10) . ?
C2 H1 0.9300 . ?
C3 C4 1.386(12) . ?
C3 H2 0.9300 . ?
C4 C5 1.336(12) . ?
C4 H3 0.9300 . ?
C5 C6 1.422(10) . ?
C5 H4 0.9300 . ?
C6 C7 1.399(10) . ?
C7 N1 1.278(8) . ?
C7 H5 0.9300 . ?
C8 N1 1.462(9) . ?
C8 C8 1.519(16) 6_765 ?
C8 C9 1.573(17) . ?
C8 H7 0.9800 . ?
C9 H8 0.9600 . ?
C9 H9 0.9600 . ?
C9 H10 0.9600 . ?
Eu1 O1 2.297(5) 3_665 ?
Eu1 O1 2.297(5) . ?
Eu1 O1 2.297(5) 2_655 ?
Eu1 O4 2.522(5) 2_655 ?
Eu1 O4 2.522(5) 3_665 ?
Eu1 O4 2.522(5) . ?
Eu1 O2 2.544(5) 2_655 ?
Eu1 O2 2.544(5) . ?
Eu1 O2 2.544(5) 3_665 ?
Eu1 N2 2.943(6) 2_655 ?
Eu1 N2 2.943(6) 3_665 ?
N1 H6 0.8481 . ?
N2 O3 1.214(8) . ?
N2 O2 1.271(8) . ?
N2 O4 1.271(8) . ?

loop_
_geom_angle_atom_site_label_1
_geom_angle_atom_site_label_2
_geom_angle_atom_site_label_3
_geom_angle
_geom_angle_site_symmetry_1
_geom_angle_site_symmetry_3
_geom_angle_publ_flag
O1 C1 C2 122.6(6) . . ?
O1 C1 C6 119.3(6) . . ?
C2 C1 C6 118.1(6) . . ?
C3 C2 C1 120.7(7) . . ?
C3 C2 H1 119.7 . . ?
C1 C2 H1 119.7 . . ?
C2 C3 C4 121.9(8) . . ?
C2 C3 H2 119.0 . . ?
C4 C3 H2 119.0 . . ?
C5 C4 C3 119.6(7) . . ?
C5 C4 H3 120.2 . . ?
C3 C4 H3 120.2 . . ?
C4 C5 C6 121.5(8) . . ?
C4 C5 H4 119.2 . . ?
C6 C5 H4 119.2 . . ?
C7 C6 C5 119.2(7) . . ?
C7 C6 C1 122.8(6) . . ?
C5 C6 C1 118.1(7) . . ?
N1 C7 C6 125.7(7) . . ?
N1 C7 H5 117.1 . . ?
C6 C7 H5 117.1 . . ?
N1 C8 C8 112.3(6) . 6_765 ?
N1 C8 C9 114.0(8) . . ?
C8 C8 C9 97.3(7) 6_765 . ?
N1 C8 H7 110.9 . . ?
C8 C8 H7 110.9 6_765 . ?
C9 C8 H7 110.9 . . ?
C8 C9 H8 109.5 . . ?
C8 C9 H9 109.5 . . ?
H8 C9 H9 109.5 . . ?
C8 C9 H10 109.5 . . ?
H8 C9 H10 109.5 . . ?
H9 C9 H10 109.5 . . ?
O1 Eu1 O1 92.06(17) 3_665 . ?
O1 Eu1 O1 92.06(17) 3_665 2_655 ?
O1 Eu1 O1 92.06(17) . 2_655 ?
O1 Eu1 O4 81.46(18) 3_665 2_655 ?
O1 Eu1 O4 121.48(17) . 2_655 ?
O1 Eu1 O4 145.88(17) 2_655 2_655 ?
O1 Eu1 O4 145.88(17) 3_665 3_665 ?
O1 Eu1 O4 81.46(18) . 3_665 ?
O1 Eu1 O4 121.48(17) 2_655 3_665 ?
O4 Eu1 O4 73.9(2) 2_655 3_665 ?
O1 Eu1 O4 121.48(17) 3_665 . ?
O1 Eu1 O4 145.88(17) . . ?
O1 Eu1 O4 81.46(18) 2_655 . ?
O4 Eu1 O4 73.9(2) 2_655 . ?
O4 Eu1 O4 73.9(2) 3_665 . ?
O1 Eu1 O2 76.37(16) 3_665 2_655 ?
O1 Eu1 O2 71.01(15) . 2_655 ?
O1 Eu1 O2 158.80(18) 2_655 2_655 ?
O4 Eu1 O2 50.85(17) 2_655 2_655 ?
O4 Eu1 O2 69.82(17) 3_665 2_655 ?
O4 Eu1 O2 119.72(18) . 2_655 ?
O1 Eu1 O2 71.01(15) 3_665 . ?
O1 Eu1 O2 158.80(18) . . ?
O1 Eu1 O2 76.37(16) 2_655 . ?
O4 Eu1 O2 69.82(17) 2_655 . ?
O4 Eu1 O2 119.72(18) 3_665 . ?
O4 Eu1 O2 50.85(17) . . ?
O2 Eu1 O2 115.20(9) 2_655 . ?
O1 Eu1 O2 158.80(18) 3_665 3_665 ?
O1 Eu1 O2 76.37(16) . 3_665 ?
O1 Eu1 O2 71.01(15) 2_655 3_665 ?
O4 Eu1 O2 119.72(18) 2_655 3_665 ?
O4 Eu1 O2 50.85(17) 3_665 3_665 ?
O4 Eu1 O2 69.82(17) . 3_665 ?
O2 Eu1 O2 115.20(9) 2_655 3_665 ?
O2 Eu1 O2 115.20(9) . 3_665 ?
O1 Eu1 N2 79.10(18) 3_665 2_655 ?
O1 Eu1 N2 96.10(18) . 2_655 ?
O1 Eu1 N2 168.14(17) 2_655 2_655 ?
O4 Eu1 N2 25.44(17) 2_655 2_655 ?
O4 Eu1 N2 68.46(18) 3_665 2_655 ?
O4 Eu1 N2 96.33(19) . 2_655 ?
O2 Eu1 N2 25.47(17) 2_655 2_655 ?
O2 Eu1 N2 93.16(17) . 2_655 ?
O2 Eu1 N2 119.30(18) 3_665 2_655 ?
O1 Eu1 N2 168.14(17) 3_665 3_665 ?
O1 Eu1 N2 79.10(18) . 3_665 ?
O1 Eu1 N2 96.10(18) 2_655 3_665 ?
O4 Eu1 N2 96.33(19) 2_655 3_665 ?
O4 Eu1 N2 25.44(17) 3_665 3_665 ?
O4 Eu1 N2 68.46(18) . 3_665 ?
O2 Eu1 N2 93.16(17) 2_655 3_665 ?
O2 Eu1 N2 119.30(18) . 3_665 ?
O2 Eu1 N2 25.47(17) 3_665 3_665 ?
N2 Eu1 N2 93.9(2) 2_655 3_665 ?
C7 N1 C8 125.6(6) . . ?
C7 N1 H6 110.8 . . ?
C8 N1 H6 122.7 . . ?
O3 N2 O2 119.1(7) . . ?
O3 N2 O4 123.2(7) . . ?
O2 N2 O4 117.7(6) . . ?
C1 O1 Eu1 136.3(4) . . ?
N2 O2 Eu1 95.1(4) . . ?
N2 O4 Eu1 96.1(4) . . ?

loop_
_geom_hbond_atom_site_label_D
_geom_hbond_atom_site_label_H
_geom_hbond_atom_site_label_A
_geom_hbond_distance_DH
_geom_hbond_distance_HA
_geom_hbond_distance_DA
_geom_hbond_angle_DHA
_geom_hbond_site_symmetry_A
N1 H6 O2 0.85 2.36 3.017(7) 135.0 2_655
N1 H6 O1 0.85 1.95 2.668(7) 141.9 .

_diffrn_measured_fraction_theta_max 0.977
_diffrn_reflns_theta_full        25.00
_diffrn_measured_fraction_theta_full 0.977
_refine_diff_density_max         1.193
_refine_diff_density_min         -0.744
_refine_diff_density_rms         0.091
