####################################################################### 
# 
# This file contains crystal structure data downloaded from the 
# Cambridge Structural Database (CSD) hosted by the Cambridge 
# Crystallographic Data Centre (CCDC).
# 
# Full information about CCDC data access policies and citation 
# guidelines are available at http://www.ccdc.cam.ac.uk/access/V1 
# 
# Audit and citation data items may have been added by the CCDC. 
# Please retain this information to preserve the provenance of 
# this file and to allow appropriate attribution of the data. 
# 
#######################################################################

data_4'
_audit_block_doi                 10.5517/cczmcmk
_database_code_depnum_ccdc_archive 'CCDC 912349'
loop_
_citation_id
_citation_doi
_citation_year
1 10.1039/C4DT01883D 2014
_audit_update_record             
;
2014-07-28 deposited with the CCDC.	2024-07-10 downloaded from the CCDC.
;

_audit_creation_method           SHELXL-2013
_chemical_name_systematic        
;
 ?
;
_chemical_name_common            ?
_chemical_melting_point          'not measured'
_chemical_formula_moiety         'C32 H30 Mg2 N4 O12'
_chemical_formula_sum            'C32 H30 Mg2 N4 O12'
_chemical_formula_weight         711.22

loop_
_atom_type_symbol
_atom_type_description
_atom_type_scat_dispersion_real
_atom_type_scat_dispersion_imag
_atom_type_scat_source
C C 0.0033 0.0016 'International Tables Vol C Tables 4.2.6.8 and 6.1.1.4'
H H 0.0000 0.0000 'International Tables Vol C Tables 4.2.6.8 and 6.1.1.4'
N N 0.0061 0.0033 'International Tables Vol C Tables 4.2.6.8 and 6.1.1.4'
O O 0.0106 0.0060 'International Tables Vol C Tables 4.2.6.8 and 6.1.1.4'
Mg Mg 0.0486 0.0363 'International Tables Vol C Tables 4.2.6.8 and 6.1.1.4'

_space_group_crystal_system      monoclinic
_space_group_IT_number           15
_space_group_name_H-M_alt        'C 2/c'
_space_group_name_Hall           '-C 2yc'

_shelx_space_group_comment       
;
The symmetry employed for this shelxl refinement is uniquely defined
by the following loop, which should always be used as a source of
symmetry information in preference to the above space-group names.
They are only intended as comments.
;

loop_
_space_group_symop_operation_xyz
'x, y, z'
'-x, y, -z+1/2'
'x+1/2, y+1/2, z'
'-x+1/2, y+1/2, -z+1/2'
'-x, -y, -z'
'x, -y, z-1/2'
'-x+1/2, -y+1/2, -z'
'x+1/2, -y+1/2, z-1/2'

_cell_length_a                   18.1190(16)
_cell_length_b                   17.2294(15)
_cell_length_c                   13.4780(12)
_cell_angle_alpha                90
_cell_angle_beta                 129.3800(10)
_cell_angle_gamma                90
_cell_volume                     3252.2(5)
_cell_formula_units_Z            4
_cell_measurement_temperature    273(2)
_cell_measurement_reflns_used    2885
_cell_measurement_theta_min      1.87
_cell_measurement_theta_max      25.14

_exptl_crystal_description       block
_exptl_crystal_colour            yellow
_exptl_crystal_density_meas      none
_exptl_crystal_density_method    'not measured'
_exptl_crystal_density_diffrn    1.453
_exptl_crystal_F_000             1480
_exptl_transmission_factor_min   ?
_exptl_transmission_factor_max   ?
_exptl_crystal_size_max          0.35
_exptl_crystal_size_mid          0.32
_exptl_crystal_size_min          0.28
_exptl_absorpt_coefficient_mu    0.146
_shelx_estimated_absorpt_T_min   ?
_shelx_estimated_absorpt_T_max   ?
_exptl_absorpt_correction_type   empirical
_exptl_absorpt_correction_T_min  0.9127
_exptl_absorpt_correction_T_max  0.9792
_exptl_absorpt_process_details   SADABS

_exptl_special_details           
;
 ?
;

_diffrn_ambient_temperature      273(2)
_diffrn_radiation_wavelength     0.71073
_diffrn_radiation_type           MoK\a
_diffrn_source                   'fine-focus sealed tube'
_diffrn_measurement_device_type  'CCD area detector'
_diffrn_measurement_method       'phi and omega scans'
_diffrn_detector_area_resol_mean 9.00cm
_diffrn_reflns_number            8162
_diffrn_reflns_av_unetI/netI     0.0416
_diffrn_reflns_av_R_equivalents  0.0353
_diffrn_reflns_limit_h_min       -21
_diffrn_reflns_limit_h_max       20
_diffrn_reflns_limit_k_min       -19
_diffrn_reflns_limit_k_max       20
_diffrn_reflns_limit_l_min       -16
_diffrn_reflns_limit_l_max       14
_diffrn_reflns_theta_min         1.874
_diffrn_reflns_theta_max         25.139
_diffrn_reflns_theta_full        25.242
_diffrn_measured_fraction_theta_max 0.991
_diffrn_measured_fraction_theta_full 0.978
_diffrn_reflns_Laue_measured_fraction_max 0.991
_diffrn_reflns_Laue_measured_fraction_full 0.978
_diffrn_reflns_point_group_measured_fraction_max 0.991
_diffrn_reflns_point_group_measured_fraction_full 0.978
_reflns_number_total             2885
_reflns_number_gt                2303
_reflns_threshold_expression     'I > 2\s(I)'
_reflns_Friedel_coverage         0.000
_reflns_Friedel_fraction_max     .
_reflns_Friedel_fraction_full    .

_reflns_special_details          
;
 Reflections were merged by SHELXL according to the crystal
 class for the calculation of statistics and refinement.
 
 _reflns_Friedel_fraction is defined as the number of unique
 Friedel pairs measured divided by the number that would be
 possible theoretically, ignoring centric projections and
 systematic absences.
;

_computing_data_collection       'Bruker SMART'
_computing_cell_refinement       'Bruker SMART'
_computing_data_reduction        'Bruker SAINT'
_computing_structure_solution    'SHELXS-97 (Sheldrick, 1990)'
_computing_structure_refinement  'SHELXL-2013 (Sheldrick, 2013)'
_computing_molecular_graphics    SHELXP-97
_computing_publication_material  SHELXTL

_refine_special_details          
;
 ?
;
_refine_ls_structure_factor_coef Fsqd
_refine_ls_matrix_type           full
_refine_ls_weighting_scheme      calc
_refine_ls_weighting_details     
'w=1/[\s^2^(Fo^2^)+(0.1091P)^2^+11.8786P] where P=(Fo^2^+2Fc^2^)/3'
_atom_sites_solution_primary     ?
_atom_sites_solution_secondary   ?
_atom_sites_solution_hydrogens   mixed
_refine_ls_hydrogen_treatment    mixed
_refine_ls_extinction_method     none
_refine_ls_extinction_coef       .
_refine_ls_number_reflns         2885
_refine_ls_number_parameters     260
_refine_ls_number_restraints     7
_refine_ls_R_factor_all          0.0796
_refine_ls_R_factor_gt           0.0663
_refine_ls_wR_factor_ref         0.1994
_refine_ls_wR_factor_gt          0.1875
_refine_ls_goodness_of_fit_ref   1.083
_refine_ls_restrained_S_all      1.099
_refine_ls_shift/su_max          0.000
_refine_ls_shift/su_mean         0.000

loop_
_atom_site_label
_atom_site_type_symbol
_atom_site_fract_x
_atom_site_fract_y
_atom_site_fract_z
_atom_site_U_iso_or_equiv
_atom_site_adp_type
_atom_site_occupancy
_atom_site_site_symmetry_order
_atom_site_calc_flag
_atom_site_refinement_flags_posn
_atom_site_refinement_flags_adp
_atom_site_refinement_flags_occupancy
_atom_site_disorder_assembly
_atom_site_disorder_group
Mg1 Mg 0.2500 0.2500 0.5000 0.0131(4) Uani 1 2 d S . P . .
Mg2 Mg 0.0000 0.19470(8) 0.2500 0.0132(4) Uani 1 2 d S T P . .
O1 O 0.23013(15) 0.18662(13) 0.3550(2) 0.0178(5) Uani 1 1 d . . . . .
O2 O 0.07555(15) 0.20013(13) 0.1862(2) 0.0175(5) Uani 1 1 d . . . . .
O3 O 0.23052(15) -0.14896(13) 0.0619(2) 0.0179(5) Uani 1 1 d . . . . .
O4 O 0.08837(16) -0.11192(13) -0.1200(2) 0.0193(5) Uani 1 1 d . . . . .
O5 O 0.09988(15) 0.27906(13) 0.3897(2) 0.0179(5) Uani 1 1 d . . . . .
O6 O 0.1355(4) 0.3536(3) -0.0851(6) 0.0966(17) Uani 1 1 d . . . . .
N1 N 0.07407(18) 0.33972(15) 0.4228(3) 0.0171(6) Uani 1 1 d . . . . .
N2 N 0.2783(4) 0.3373(4) 0.1174(6) 0.0803(16) Uani 1 1 d . U . . .
C1 C 0.1617(2) 0.10198(19) 0.1772(3) 0.0190(7) Uani 1 1 d . . . . .
C2 C 0.2396(3) 0.0523(2) 0.2440(4) 0.0306(9) Uani 1 1 d . . . . .
H2 H 0.294(4) 0.065(3) 0.335(6) 0.059(15) Uiso 1 1 d . . . . .
C3 C 0.2407(3) -0.0129(2) 0.1856(4) 0.0300(9) Uani 1 1 d . . . . .
H3 H 0.291(4) -0.047(3) 0.227(5) 0.044(13) Uiso 1 1 d . . . . .
C4 C 0.1646(2) -0.02945(19) 0.0586(3) 0.0184(7) Uani 1 1 d . . . . .
C5 C 0.0878(3) 0.0213(2) -0.0085(4) 0.0289(9) Uani 1 1 d . . . . .
H5 H 0.038(3) 0.008(2) -0.085(5) 0.027(11) Uiso 1 1 d . . . . .
C6 C 0.0861(3) 0.0858(2) 0.0505(4) 0.0285(9) Uani 1 1 d . . . . .
H6 H 0.041(3) 0.123(2) 0.013(4) 0.028(10) Uiso 1 1 d . . . . .
C7 C 0.1564(2) 0.16822(18) 0.2451(3) 0.0165(7) Uani 1 1 d . . . . .
C8 C 0.1610(2) -0.10270(18) -0.0053(3) 0.0170(7) Uani 1 1 d . . . . .
C9 C 0.0862(2) 0.4113(2) 0.3977(3) 0.0216(8) Uani 1 1 d . . . . .
H9 H 0.111(3) 0.417(2) 0.365(4) 0.017(10) Uiso 1 1 d . . . . .
C10 C 0.0569(3) 0.4749(2) 0.4254(4) 0.0243(8) Uani 1 1 d . . . . .
H10 H 0.066(3) 0.521(3) 0.404(4) 0.028(11) Uiso 1 1 d . . . . .
C11 C 0.0154(2) 0.4658(2) 0.4833(3) 0.0204(8) Uani 1 1 d . . . . .
C12 C 0.0073(3) 0.3909(2) 0.5121(4) 0.0286(9) Uani 1 1 d . . . . .
H12 H -0.025(3) 0.378(3) 0.545(5) 0.041(12) Uiso 1 1 d . . . . .
C13 C 0.0368(3) 0.3286(2) 0.4815(4) 0.0275(9) Uani 1 1 d . . . . .
H13 H 0.029(3) 0.280(3) 0.489(4) 0.032(11) Uiso 1 1 d . . . . .
C14 C 0.2214(6) 0.3684(5) -0.0031(8) 0.085(2) Uani 1 1 d . . . . .
H14 H 0.2489 0.4026 -0.0247 0.080 Uiso 1 1 calc . U . . .
C15 C 0.2457(7) 0.2864(5) 0.1589(9) 0.102(3) Uani 1 1 d . . . . .
H15A H 0.2973 0.2715 0.2457 0.100 Uiso 1 1 calc . U . . .
H15B H 0.2206 0.2412 0.1050 0.100 Uiso 1 1 calc . U . . .
H15C H 0.1962 0.3105 0.1551 0.100 Uiso 1 1 calc . U . . .
C16 C 0.3726(8) 0.3661(9) 0.2059(13) 0.162(4) Uani 1 1 d . U . . .
H16A H 0.4042 0.3413 0.2875 0.120 Uiso 1 1 calc . U . . .
H16B H 0.3708 0.4212 0.2153 0.120 Uiso 1 1 calc . U . . .
H16C H 0.4068 0.3554 0.1749 0.120 Uiso 1 1 calc . U . . .

loop_
_atom_site_aniso_label
_atom_site_aniso_U_11
_atom_site_aniso_U_22
_atom_site_aniso_U_33
_atom_site_aniso_U_23
_atom_site_aniso_U_13
_atom_site_aniso_U_12
Mg1 0.0104(7) 0.0105(7) 0.0157(8) -0.0013(6) 0.0070(6) -0.0007(6)
Mg2 0.0108(7) 0.0116(7) 0.0136(8) 0.000 0.0061(6) 0.000
O1 0.0143(11) 0.0197(12) 0.0161(12) -0.0037(10) 0.0082(10) -0.0006(9)
O2 0.0146(11) 0.0171(12) 0.0186(12) 0.0012(9) 0.0095(10) 0.0034(9)
O3 0.0146(11) 0.0160(12) 0.0184(12) -0.0002(9) 0.0082(10) 0.0033(9)
O4 0.0155(11) 0.0173(12) 0.0170(12) -0.0042(10) 0.0065(10) -0.0014(9)
O5 0.0120(11) 0.0149(11) 0.0221(13) -0.0077(10) 0.0085(10) 0.0002(9)
O6 0.067(3) 0.100(4) 0.121(4) -0.015(3) 0.059(3) 0.008(3)
N1 0.0090(13) 0.0185(14) 0.0164(14) -0.0060(11) 0.0045(12) -0.0005(10)
N2 0.069(3) 0.101(4) 0.080(4) -0.001(3) 0.051(3) -0.014(3)
C1 0.0142(16) 0.0203(17) 0.0215(18) -0.0011(14) 0.0108(15) 0.0001(13)
C2 0.0168(18) 0.033(2) 0.023(2) -0.0089(17) 0.0036(16) 0.0049(16)
C3 0.0186(19) 0.028(2) 0.026(2) -0.0079(16) 0.0060(17) 0.0074(16)
C4 0.0165(16) 0.0168(16) 0.0195(17) -0.0018(14) 0.0103(15) -0.0009(13)
C5 0.0218(19) 0.027(2) 0.0184(19) -0.0055(16) 0.0035(17) 0.0045(16)
C6 0.0219(19) 0.027(2) 0.0228(19) -0.0007(16) 0.0077(17) 0.0111(16)
C7 0.0157(16) 0.0161(16) 0.0176(17) -0.0002(13) 0.0104(15) -0.0014(13)
C8 0.0146(16) 0.0162(16) 0.0192(17) -0.0015(13) 0.0103(15) -0.0027(13)
C9 0.0208(18) 0.0243(18) 0.0212(18) 0.0021(15) 0.0141(16) 0.0052(14)
C10 0.0256(19) 0.0176(18) 0.027(2) 0.0033(15) 0.0152(17) 0.0064(15)
C11 0.0090(15) 0.0216(18) 0.0190(18) -0.0068(14) 0.0034(14) 0.0005(13)
C12 0.029(2) 0.0237(19) 0.043(2) -0.0130(17) 0.028(2) -0.0072(15)
C13 0.029(2) 0.0188(18) 0.041(2) -0.0089(17) 0.0256(19) -0.0080(15)
C14 0.078(5) 0.099(5) 0.083(5) 0.011(4) 0.055(4) -0.006(4)
C15 0.145(8) 0.083(5) 0.131(7) 0.014(5) 0.112(7) -0.002(5)
C16 0.127(6) 0.217(9) 0.150(8) 0.010(7) 0.092(6) -0.052(6)

_geom_special_details            
;
 All esds (except the esd in the dihedral angle between two l.s. planes)
 are estimated using the full covariance matrix.  The cell esds are taken
 into account individually in the estimation of esds in distances, angles
 and torsion angles; correlations between esds in cell parameters are only
 used when they are defined by crystal symmetry.  An approximate (isotropic)
 treatment of cell esds is used for estimating esds involving l.s. planes.
;

loop_
_geom_bond_atom_site_label_1
_geom_bond_atom_site_label_2
_geom_bond_distance
_geom_bond_site_symmetry_2
_geom_bond_publ_flag
Mg1 O3 2.055(2) 6_556 ?
Mg1 O3 2.055(2) 4 ?
Mg1 O1 2.062(2) . ?
Mg1 O1 2.062(2) 7_556 ?
Mg1 O5 2.174(2) . ?
Mg1 O5 2.175(2) 7_556 ?
Mg1 Mg2 3.6623(5) 7_556 ?
Mg1 Mg2 3.6623(5) . ?
Mg2 O4 2.027(2) 5 ?
Mg2 O4 2.027(2) 6_556 ?
Mg2 O2 2.029(2) . ?
Mg2 O2 2.029(2) 2 ?
Mg2 O5 2.147(2) . ?
Mg2 O5 2.147(2) 2 ?
Mg2 Mg1 3.6623(5) 2 ?
O1 C7 1.252(4) . ?
O2 C7 1.266(4) . ?
O3 C8 1.263(4) . ?
O3 Mg1 2.055(2) 4_545 ?
O4 C8 1.251(4) . ?
O4 Mg2 2.027(2) 5 ?
O5 N1 1.332(3) . ?
O6 C14 1.235(9) . ?
N1 C9 1.333(5) . ?
N1 C13 1.341(5) . ?
N2 C15 1.360(9) . ?
N2 C14 1.365(9) . ?
N2 C16 1.415(12) . ?
C1 C6 1.380(5) . ?
C1 C2 1.387(5) . ?
C1 C7 1.503(5) . ?
C2 C3 1.379(5) . ?
C2 H2 0.99(6) . ?
C3 C4 1.385(5) . ?
C3 H3 0.92(5) . ?
C4 C5 1.386(5) . ?
C4 C8 1.506(5) . ?
C5 C6 1.378(5) . ?
C5 H5 0.87(5) . ?
C6 H6 0.90(4) . ?
C9 C10 1.369(5) . ?
C9 H9 0.81(4) . ?
C10 C11 1.394(5) . ?
C10 H10 0.89(4) . ?
C11 C12 1.383(5) . ?
C11 C11 1.490(6) 5_566 ?
C12 C13 1.374(5) . ?
C12 H12 0.96(5) . ?
C13 H13 0.86(5) . ?
C14 H14 0.9300 . ?
C15 H15A 0.9600 . ?
C15 H15B 0.9600 . ?
C15 H15C 0.9600 . ?
C16 H16A 0.9600 . ?
C16 H16B 0.9600 . ?
C16 H16C 0.9600 . ?

loop_
_geom_angle_atom_site_label_1
_geom_angle_atom_site_label_2
_geom_angle_atom_site_label_3
_geom_angle
_geom_angle_site_symmetry_1
_geom_angle_site_symmetry_3
_geom_angle_publ_flag
O3 Mg1 O3 180.0 6_556 4 ?
O3 Mg1 O1 87.98(9) 6_556 . ?
O3 Mg1 O1 92.03(9) 4 . ?
O3 Mg1 O1 92.02(9) 6_556 7_556 ?
O3 Mg1 O1 87.97(9) 4 7_556 ?
O1 Mg1 O1 180.00(11) . 7_556 ?
O3 Mg1 O5 90.57(9) 6_556 . ?
O3 Mg1 O5 89.43(9) 4 . ?
O1 Mg1 O5 94.80(8) . . ?
O1 Mg1 O5 85.20(8) 7_556 . ?
O3 Mg1 O5 89.43(9) 6_556 7_556 ?
O3 Mg1 O5 90.58(9) 4 7_556 ?
O1 Mg1 O5 85.20(8) . 7_556 ?
O1 Mg1 O5 94.80(8) 7_556 7_556 ?
O5 Mg1 O5 180.00(11) . 7_556 ?
O3 Mg1 Mg2 106.11(6) 6_556 7_556 ?
O3 Mg1 Mg2 73.89(6) 4 7_556 ?
O1 Mg1 Mg2 112.34(6) . 7_556 ?
O1 Mg1 Mg2 67.66(6) 7_556 7_556 ?
O5 Mg1 Mg2 148.17(6) . 7_556 ?
O5 Mg1 Mg2 31.83(6) 7_556 7_556 ?
O3 Mg1 Mg2 73.89(6) 6_556 . ?
O3 Mg1 Mg2 106.11(6) 4 . ?
O1 Mg1 Mg2 67.66(6) . . ?
O1 Mg1 Mg2 112.34(6) 7_556 . ?
O5 Mg1 Mg2 31.83(6) . . ?
O5 Mg1 Mg2 148.17(6) 7_556 . ?
Mg2 Mg1 Mg2 180.0 7_556 . ?
O4 Mg2 O4 90.56(14) 5 6_556 ?
O4 Mg2 O2 92.37(10) 5 . ?
O4 Mg2 O2 91.35(9) 6_556 . ?
O4 Mg2 O2 91.35(9) 5 2 ?
O4 Mg2 O2 92.37(10) 6_556 2 ?
O2 Mg2 O2 174.72(14) . 2 ?
O4 Mg2 O5 176.95(9) 5 . ?
O4 Mg2 O5 87.37(9) 6_556 . ?
O2 Mg2 O5 85.45(9) . . ?
O2 Mg2 O5 90.97(9) 2 . ?
O4 Mg2 O5 87.37(9) 5 2 ?
O4 Mg2 O5 176.96(9) 6_556 2 ?
O2 Mg2 O5 90.97(9) . 2 ?
O2 Mg2 O5 85.45(9) 2 2 ?
O5 Mg2 O5 94.78(13) . 2 ?
O4 Mg2 Mg1 144.69(7) 5 . ?
O4 Mg2 Mg1 63.26(6) 6_556 . ?
O2 Mg2 Mg1 66.72(7) . . ?
O2 Mg2 Mg1 111.79(7) 2 . ?
O5 Mg2 Mg1 32.29(6) . . ?
O5 Mg2 Mg1 119.54(7) 2 . ?
O4 Mg2 Mg1 63.26(6) 5 2 ?
O4 Mg2 Mg1 144.69(7) 6_556 2 ?
O2 Mg2 Mg1 111.79(7) . 2 ?
O2 Mg2 Mg1 66.72(7) 2 2 ?
O5 Mg2 Mg1 119.54(7) . 2 ?
O5 Mg2 Mg1 32.29(6) 2 2 ?
Mg1 Mg2 Mg1 149.84(4) . 2 ?
C7 O1 Mg1 132.0(2) . . ?
C7 O2 Mg2 122.5(2) . . ?
C8 O3 Mg1 126.4(2) . 4_545 ?
C8 O4 Mg2 142.4(2) . 5 ?
N1 O5 Mg2 123.04(17) . . ?
N1 O5 Mg1 120.29(17) . . ?
Mg2 O5 Mg1 115.88(10) . . ?
O5 N1 C9 119.4(3) . . ?
O5 N1 C13 120.0(3) . . ?
C9 N1 C13 120.5(3) . . ?
C15 N2 C14 123.0(7) . . ?
C15 N2 C16 119.1(8) . . ?
C14 N2 C16 117.5(7) . . ?
C6 C1 C2 118.8(3) . . ?
C6 C1 C7 120.7(3) . . ?
C2 C1 C7 120.3(3) . . ?
C3 C2 C1 120.6(3) . . ?
C3 C2 H2 122(3) . . ?
C1 C2 H2 118(3) . . ?
C2 C3 C4 120.7(3) . . ?
C2 C3 H3 122(3) . . ?
C4 C3 H3 117(3) . . ?
C3 C4 C5 118.4(3) . . ?
C3 C4 C8 121.8(3) . . ?
C5 C4 C8 119.7(3) . . ?
C6 C5 C4 120.9(3) . . ?
C6 C5 H5 121(3) . . ?
C4 C5 H5 118(3) . . ?
C5 C6 C1 120.6(3) . . ?
C5 C6 H6 127(3) . . ?
C1 C6 H6 113(3) . . ?
O1 C7 O2 125.0(3) . . ?
O1 C7 C1 118.7(3) . . ?
O2 C7 C1 116.3(3) . . ?
O4 C8 O3 126.5(3) . . ?
O4 C8 C4 116.3(3) . . ?
O3 C8 C4 117.2(3) . . ?
N1 C9 C10 121.1(3) . . ?
N1 C9 H9 120(3) . . ?
C10 C9 H9 119(3) . . ?
C9 C10 C11 120.2(3) . . ?
C9 C10 H10 116(3) . . ?
C11 C10 H10 123(3) . . ?
C12 C11 C10 117.0(3) . . ?
C12 C11 C11 121.7(4) . 5_566 ?
C10 C11 C11 121.3(4) . 5_566 ?
C13 C12 C11 121.0(4) . . ?
C13 C12 H12 116(3) . . ?
C11 C12 H12 123(3) . . ?
N1 C13 C12 120.2(4) . . ?
N1 C13 H13 113(3) . . ?
C12 C13 H13 127(3) . . ?
O6 C14 N2 123.8(7) . . ?
O6 C14 H14 118.1 . . ?
N2 C14 H14 118.1 . . ?
N2 C15 H15A 109.5 . . ?
N2 C15 H15B 109.5 . . ?
H15A C15 H15B 109.5 . . ?
N2 C15 H15C 109.5 . . ?
H15A C15 H15C 109.5 . . ?
H15B C15 H15C 109.5 . . ?
N2 C16 H16A 109.5 . . ?
N2 C16 H16B 109.5 . . ?
H16A C16 H16B 109.5 . . ?
N2 C16 H16C 109.5 . . ?
H16A C16 H16C 109.5 . . ?
H16B C16 H16C 109.5 . . ?

loop_
_geom_hbond_atom_site_label_D
_geom_hbond_atom_site_label_H
_geom_hbond_atom_site_label_A
_geom_hbond_distance_DH
_geom_hbond_distance_HA
_geom_hbond_distance_DA
_geom_hbond_angle_DHA
_geom_hbond_site_symmetry_A
C9 H9 O3 0.81(4) 2.63(4) 3.179(4) 126(3) 4
C10 H10 O6 0.89(4) 2.46(4) 3.322(6) 162(4) 6_566
C12 H12 O6 0.96(5) 2.42(5) 3.363(6) 169(4) 2
C13 H13 O2 0.86(5) 2.33(5) 2.883(4) 123(4) 2

_refine_diff_density_max         0.908
_refine_diff_density_min         -0.713
_refine_diff_density_rms         0.101

_shelxl_version_number           2013-3

_shelx_res_file                  
;
TITL 1 in C2/c
CELL 0.71073  18.1190  17.2294  13.4780  90.000 129.380  90.000
ZERR   4.00   0.0016   0.0015   0.0012   0.000   0.001   0.000
LATT 7
SYMM -X, Y, 0.5-Z
SFAC C  H  N  O  Mg
UNIT 128 120 16 48 8
L.S. 10
BOND $h
acta
htab
isor 0.01 0.01 c16
delu n2 c16
EQIV $1 -x+1/2, y+1/2, -z+1/2
HTAB C9 O3_$1
EQIV $2 x, -y+1, z+1/2
HTAB C10 O6_$2
EQIV $3 -x, y, -z+1/2
HTAB C12 O6_$3
HTAB C13 O2_$3
omit 0   2   0
omit -1   3   1
omit 1   1   1
omit -5   3   2
omit -1   5   1
omit  3   3   0
omit 0   2   2
omit -2   4   3
omit 2   0   0
omit 0   0   2
omit 2   2   1
omit -1   1   3
omit 0   4   0
omit -2   0   2
omit 1   3   1
omit -2   2   1
omit -2   0   4
omit -2   2   3
FMAP 2
PLAN 20
TEMP 0.000
WGHT    0.109100   11.878600
FVAR       0.12697
MG1   5    0.250000    0.250000    0.500000    10.50000    0.01038    0.01047 =
         0.01572   -0.00127    0.00699   -0.00071
MG2   5    0.000000    0.194699    0.250000    10.50000    0.01076    0.01155 =
         0.01359    0.00000    0.00605    0.00000
O1    4    0.230132    0.186623    0.354960    11.00000    0.01435    0.01973 =
         0.01613   -0.00368    0.00820   -0.00057
O2    4    0.075546    0.200125    0.186157    11.00000    0.01464    0.01708 =
         0.01860    0.00123    0.00947    0.00341
O3    4    0.230522   -0.148961    0.061904    11.00000    0.01458    0.01599 =
         0.01841   -0.00019    0.00821    0.00325
O4    4    0.088370   -0.111922   -0.119992    11.00000    0.01550    0.01732 =
         0.01704   -0.00423    0.00649   -0.00141
O5    4    0.099879    0.279059    0.389711    11.00000    0.01197    0.01493 =
         0.02206   -0.00769    0.00851    0.00020
O6    4    0.135520    0.353604   -0.085119    11.00000    0.06659    0.09995 =
         0.12134   -0.01501    0.05875    0.00767
N1    3    0.074068    0.339718    0.422766    11.00000    0.00899    0.01849 =
         0.01636   -0.00605    0.00449   -0.00055
N2    3    0.278316    0.337320    0.117387    11.00000    0.06889    0.10117 =
         0.07993   -0.00082    0.05148   -0.01399
C1    1    0.161697    0.101980    0.177242    11.00000    0.01417    0.02031 =
         0.02152   -0.00113    0.01085    0.00006
C2    1    0.239636    0.052346    0.244021    11.00000    0.01679    0.03300 =
         0.02289   -0.00895    0.00364    0.00492
H2    2    0.293525    0.065210    0.335080    11.00000    0.05894
C3    1    0.240692   -0.012887    0.185638    11.00000    0.01863    0.02792 =
         0.02615   -0.00786    0.00600    0.00743
H3    2    0.291276   -0.046648    0.227439    11.00000    0.04421
C4    1    0.164588   -0.029452    0.058560    11.00000    0.01652    0.01684 =
         0.01954   -0.00176    0.01032   -0.00093
C5    1    0.087826    0.021328   -0.008483    11.00000    0.02176    0.02670 =
         0.01842   -0.00552    0.00347    0.00455
H5    2    0.037506    0.007848   -0.085193    11.00000    0.02731
C6    1    0.086109    0.085823    0.050476    11.00000    0.02185    0.02699 =
         0.02282   -0.00075    0.00765    0.01114
H6    2    0.040909    0.122683    0.013423    11.00000    0.02826
C7    1    0.156439    0.168224    0.245113    11.00000    0.01567    0.01608 =
         0.01759   -0.00024    0.01043   -0.00141
C8    1    0.161021   -0.102697   -0.005349    11.00000    0.01464    0.01625 =
         0.01919   -0.00148    0.01031   -0.00268
C9    1    0.086190    0.411257    0.397671    11.00000    0.02080    0.02432 =
         0.02123    0.00211    0.01406    0.00519
H9    2    0.111276    0.417440    0.365473    11.00000    0.01685
C10   1    0.056947    0.474900    0.425384    11.00000    0.02558    0.01764 =
         0.02672    0.00327    0.01521    0.00644
H10   2    0.065761    0.520868    0.404213    11.00000    0.02820
C11   1    0.015445    0.465840    0.483290    11.00000    0.00902    0.02158 =
         0.01904   -0.00683    0.00341    0.00048
C12   1    0.007298    0.390903    0.512108    11.00000    0.02942    0.02372 =
         0.04332   -0.01303    0.02806   -0.00724
H12   2   -0.025341    0.378368    0.544932    11.00000    0.04086
C13   1    0.036796    0.328586    0.481548    11.00000    0.02932    0.01879 =
         0.04121   -0.00892    0.02562   -0.00798
H13   2    0.029287    0.280421    0.489285    11.00000    0.03245
C14   1    0.221416    0.368382   -0.003110    11.00000    0.07845    0.09907 =
         0.08342    0.01058    0.05457   -0.00617
AFIX  41
H14   2    0.248882    0.402641   -0.024724    11.00000   10.08000
AFIX   0
C15   1    0.245720    0.286371    0.158858    11.00000    0.14465    0.08272 =
         0.13062    0.01409    0.11194   -0.00165
AFIX  31
H15A  2    0.297281    0.271490    0.245741    11.00000   10.10000
H15B  2    0.220631    0.241170    0.104979    11.00000   10.10000
H15C  2    0.196246    0.310500    0.155117    11.00000   10.10000
AFIX   0
C16   1    0.372623    0.366115    0.205886    11.00000    0.12719    0.21738 =
         0.15016    0.01025    0.09217   -0.05195
AFIX  31
H16A  2    0.404216    0.341348    0.287543    11.00000   10.12000
H16B  2    0.370804    0.421153    0.215274    11.00000   10.12000
H16C  2    0.406828    0.355378    0.174881    11.00000   10.12000

AFIX   0
HKLF 4

REM  1 in C2/c
REM R1 =  0.0663 for    2303 Fo > 4sig(Fo)  and  0.0796 for all    2885 data
REM    260 parameters refined using      7 restraints

END

WGHT      0.1091     11.8786

REM Instructions for potential hydrogen bonds
HTAB C9 O3_$1
HTAB C10 O6_$2
HTAB C12 O6_$3
HTAB C13 O2_$3

REM Highest difference peak  0.908,  deepest hole -0.713,  1-sigma level  0.101
Q1    1   0.4947  0.2379  0.2994  11.00000  0.05    0.91
Q2    1   0.0265  0.3633 -0.2204  11.00000  0.05    0.90
Q3    1   0.1924  0.3084  0.0401  11.00000  0.05    0.63
Q4    1   0.1641  0.3251 -0.1383  11.00000  0.05    0.54
Q5    1   0.3467  0.2916  0.2602  11.00000  0.05    0.54
Q6    1   0.3486  0.2539  0.1750  11.00000  0.05    0.50
Q7    1   0.4264  0.2824  0.2415  11.00000  0.05    0.40
Q8    1   0.3176  0.3905  0.0964  11.00000  0.05    0.36
Q9    1   0.3925  0.3182  0.2007  11.00000  0.05    0.33
Q10   1   0.1331  0.2950 -0.0229  11.00000  0.05    0.30
Q11   1   0.0105  0.1012  0.0182  11.00000  0.05    0.29
Q12   1   0.1514  0.1193  0.2113  11.00000  0.05    0.28
Q13   1   0.0201  0.3817  0.5987  11.00000  0.05    0.24
Q14   1   0.0709  0.2730  0.3347  11.00000  0.05    0.24
Q15   1   0.2030  0.3004 -0.0182  11.00000  0.05    0.24
Q16   1   0.0382  0.4670  0.4595  11.00000  0.05    0.24
Q17   1  -0.0081  0.3493  0.6357  11.00000  0.05    0.23
Q18   1   0.0000  0.5000  0.5000  10.50000  0.05    0.23
Q19   1   0.3023  0.3576  0.0331  11.00000  0.05    0.23
Q20   1   0.1702 -0.0557  0.0285  11.00000  0.05    0.22
;
_shelx_res_checksum              89678

_shelx_hkl_file                  
;
   2   0   0   34.04    0.98
  -4   0   0  171.59    4.58
   4   0   0  172.62    4.51
   6   0   0  709.90   17.97
  -6   0   0  722.15   17.60
  -8   0   0  128.60    4.11
   8   0   0  132.96    3.74
 -10   0   0   12.14    1.22
 -12   0   0  456.46   12.34
 -14   0   0   10.19    1.37
 -14   0   0    9.80    1.56
 -16   0   0   10.55    1.66
   1   1   0    1.05    0.14
  -3   1   0  898.57   22.05
   3   1   0  948.26   22.99
  -5  -1   0    1.91    0.38
   5  -1   0    3.38    0.25
   5   1   0    2.95    0.37
  -5   1   0    2.89    0.45
  -7  -1   0   21.27    1.20
  -7   1   0   26.18    1.33
   7   1   0   22.24    1.08
  -9  -1   0   -0.11    0.32
   9   1   0    0.13    0.23
  -9   1   0    0.67    0.41
 -11  -1   0   -0.09    0.41
 -11   1   0    0.59    0.48
 -13  -1   0   74.92    3.67
 -13  -1   0   79.84    3.31
 -13   1   0   81.84    3.42
 -15  -1   0   61.88    3.40
 -15   1   0   55.03    3.29
 -15   1   0   59.19    3.02
   0   2   0  193.13    5.01
  -2   2   0   54.42    1.47
  -2   2   0   55.91    1.67
   2   2   0   53.90    1.73
  -4  -2   0   30.97    1.17
   4   2   0   27.12    1.17
  -4   2   0   31.29    1.25
  -6  -2   0   65.01    2.20
  -6   2   0   62.48    2.29
   6   2   0   65.41    2.22
  -8  -2   0   46.62    1.95
  -8   2   0   43.57    1.97
   8   2   0   43.71    1.82
 -10  -2   0    1.88    0.58
  10   2   0    2.04    0.48
 -10   2   0    1.50    0.56
 -12  -2   0   -0.01    0.42
 -12  -2   0    0.71    0.55
 -12   2   0    1.12    0.58
 -14  -2   0    0.03    0.53
 -14   2   0    0.65    0.63
 -14   2   0    1.83    0.81
 -16  -2   0    4.36    1.21
 -16   2   0    2.73    0.99
 -16   2   0    2.78    1.03
   1   3   0    9.32    0.58
  -1   3   0   11.65    0.54
  -1   3   0   10.17    0.50
  -3  -3   0    9.25    0.57
  -3   3   0    8.03    0.57
   3   3   0    8.06    0.60
  -3   3   0    8.73    0.38
  -5  -3   0  119.27    3.44
  -5  -3   0  122.51    3.74
   5   3   0  119.73    3.66
  -5   3   0  116.93    3.58
  -7  -3   0    7.20    0.78
  -7  -3   0    9.54    1.00
   7   3   0    9.26    0.87
  -7   3   0    9.16    0.93
  -9  -3   0   27.29    1.46
  -9  -3   0   23.33    1.57
  -9   3   0   26.81    1.58
   9   3   0   23.41    1.37
 -11  -3   0    2.16    0.62
 -11  -3   0    1.75    0.62
 -11   3   0    2.45    0.71
 -13  -3   0   42.95    2.60
 -13   3   0   44.90    2.48
 -15  -3   0    1.12    0.71
 -15   3   0    1.68    0.81
 -15   3   0    1.22    0.78
   0   4   0  192.69    4.77
   0   4   0  186.66    5.18
   2   4   0    0.52    0.22
  -2   4   0   -0.03    0.13
   2   4   0    0.61    0.16
  -2   4   0    0.38    0.17
  -4  -4   0  127.05    3.74
  -4   4   0  128.08    3.34
  -4   4   0  128.88    3.72
   4   4   0  122.64    3.89
  -6  -4   0   44.90    1.85
  -6   4   0   37.78    1.76
   6   4   0   41.27    1.80
  -8  -4   0    7.53    0.84
  -8  -4   0    9.32    1.03
   8   4   0    7.24    0.87
  -8   4   0    8.36    0.99
 -10  -4   0    4.80    0.86
 -10  -4   0    4.64    0.79
  10   4   0    4.58    0.75
 -10   4   0    4.99    0.89
 -12  -4   0    1.98    0.69
 -12  -4   0    1.89    0.69
 -12   4   0    1.46    0.69
 -14  -4   0   35.82    2.40
 -14   4   0   31.55    2.20
 -16  -4   0   29.80    2.39
 -16   4   0   34.17    2.41
 -16   4   0   26.20    2.66
   1   5   0    3.13    0.47
   1   5   0    3.06    0.33
  -1   5   0    2.90    0.37
  -1   5   0    2.22    0.39
  -3  -5   0   31.54    1.16
   3   5   0   29.76    1.45
  -3   5   0   33.16    1.33
  -3   5   0   29.13    1.15
  -5  -5   0  155.06    4.55
  -5   5   0  155.89    4.05
   5   5   0  157.12    4.78
  -5   5   0  144.67    4.48
  -7  -5   0    1.04    0.40
  -7  -5   0    1.22    0.41
  -7   5   0    1.79    0.50
   7   5   0    1.45    0.44
  -9  -5   0   67.68    2.59
  -9  -5   0   67.32    2.86
  -9   5   0   68.07    2.84
   9   5   0   67.00    2.81
 -11  -5   0    0.38    0.46
 -11  -5   0    0.08    0.45
  11   5   0    0.56    0.43
 -11   5   0   -0.03    0.47
 -13  -5   0   42.97    2.55
 -13   5   0   42.77    2.49
 -15  -5   0   12.35    1.70
 -15   5   0   12.42    1.65
   0   6   0  215.43    5.88
   0   6   0  197.44    5.28
  -2  -6   0    6.72    0.39
  -2   6   0    8.13    0.72
   2   6   0    7.29    0.48
  -2   6   0    6.68    0.62
   2   6   0    6.27    0.74
  -4  -6   0  119.87    3.43
  -4   6   0  111.11    3.51
   4   6   0  114.15    3.84
  -4   6   0  113.04    3.30
  -6  -6   0    0.05    0.22
   6   6   0    0.24    0.27
  -6   6   0    0.37    0.32
  -8  -6   0    1.56    0.50
  -8  -6   0    1.91    0.53
   8   6   0    2.08    0.58
  -8   6   0    1.82    0.54
 -10  -6   0   13.99    1.45
 -10  -6   0   14.27    1.31
  10   6   0   14.14    1.44
 -10   6   0   12.01    1.35
 -12  -6   0   22.45    2.09
 -12   6   0   23.93    1.82
 -14  -6   0   25.93    2.43
 -14   6   0   27.34    2.08
 -16  -6   0    0.42    0.65
 -16   6   0    1.08    0.85
  -1   7   0   31.02    1.46
   1   7   0   32.98    1.58
  -1   7   0   30.63    1.26
   1   7   0   30.55    1.16
  -3  -7   0   62.69    1.96
   3   7   0   59.15    2.51
   3   7   0   65.06    1.97
  -3   7   0   64.24    2.24
  -3   7   0   64.05    2.22
  -5  -7   0    2.91    0.46
  -5   7   0    2.54    0.38
   5   7   0    3.20    0.64
  -5   7   0    2.84    0.55
  -7  -7   0    5.73    0.74
   7   7   0    5.30    0.87
  -7   7   0    3.62    0.71
  -9  -7   0   27.19    1.63
  -9  -7   0   27.52    1.57
   9   7   0   23.66    1.68
  -9   7   0   23.31    1.60
 -11  -7   0    0.35    0.43
 -11   7   0    0.51    0.55
  11   7   0    0.75    0.53
 -13  -7   0    7.24    1.27
 -13   7   0    6.91    1.23
 -15  -7   0   36.48    2.52
 -15   7   0   34.97    2.44
   0   8   0    2.48    0.40
   0   8   0    3.05    0.59
  -2  -8   0   14.68    0.64
   2   8   0   15.38    0.80
  -2   8   0   17.02    1.05
  -2   8   0   14.44    0.92
   2   8   0   15.54    1.17
  -4  -8   0   11.10    0.69
  -4   8   0   11.02    1.02
   4   8   0    9.84    1.09
  -4   8   0   10.50    0.79
  -6  -8   0    4.71    0.64
   6   8   0    4.52    0.80
  -6   8   0    3.83    0.48
  -6   8   0    4.28    0.70
  -8  -8   0    5.37    0.82
   8   8   0    5.40    0.94
  -8   8   0    7.66    1.03
 -10  -8   0    8.62    1.12
 -10   8   0    9.12    1.21
  10   8   0    9.00    1.26
 -12  -8   0    1.09    0.62
 -12   8   0    0.97    0.60
  12   8   0    0.83    0.62
 -14  -8   0   18.62    2.03
 -14   8   0   18.93    2.03
  -1   9   0   29.33    1.34
  -1   9   0   31.07    1.61
   1   9   0   29.63    1.25
   1   9   0   31.20    1.70
  -3  -9   0    1.99    0.30
  -3   9   0    1.54    0.40
  -3   9   0    1.57    0.41
   3   9   0    1.65    0.34
   3   9   0    2.16    0.61
  -5  -9   0   39.77    1.59
   5   9   0   40.44    2.16
  -5   9   0   42.40    1.95
  -5   9   0   40.37    1.70
  -7  -9   0    0.09    0.29
  -7   9   0   -0.05    0.38
   7   9   0    0.23    0.40
  -9  -9   0   67.91    2.82
  -9   9   0   69.10    3.00
   9   9   0   70.52    3.28
 -11  -9   0    8.43    1.17
  11   9   0    9.48    1.43
 -11   9   0    7.54    1.21
 -13  -9   0   -0.35    0.48
 -13   9   0   -0.09    0.58
 -15  -9   0    1.51    0.82
 -15   9   0    3.16    1.03
   0  10   0   44.99    2.20
   0  10   0   47.31    1.80
   2  10   0  157.55    5.23
  -2  10   0  147.45    4.88
  -2  10   0  152.37    4.55
   2  10   0  158.36    4.33
  -4 -10   0   45.45    1.57
  -4  10   0   44.04    2.00
  -4  10   0   45.31    1.97
   4  10   0   43.90    2.33
  -6 -10   0    9.59    0.87
  -6  10   0    8.54    1.05
   6  10   0    6.78    1.12
  -8 -10   0   11.21    1.09
   8  10   0   10.83    1.39
  -8  10   0   11.90    1.32
 -10 -10   0   50.69    2.47
 -10  10   0   55.95    2.75
  10  10   0   55.02    2.98
 -12 -10   0   33.24    2.11
 -12  10   0   37.05    2.33
  12  10   0   30.03    2.27
 -14 -10   0   14.42    1.73
 -14  10   0   11.36    1.65
  -1  11   0   86.57    3.34
  -1  11   0   88.27    2.89
   1  11   0   80.73    2.73
   1  11   0   84.89    3.43
   3  11   0    9.19    1.22
   3  11   0    8.53    0.81
  -3  11   0    9.72    1.02
  -3  11   0    9.10    1.05
   5  11   0    1.29    0.60
  -5  11   0    0.86    0.42
  -5  11   0    0.59    0.42
  -7  11   0    3.46    0.77
   7  11   0    4.39    0.96
  -9  11   0    5.42    1.03
   9  11   0    6.62    1.20
 -11  11   0    4.57    0.98
  11  11   0    4.52    1.11
  13  11   0   16.34    2.02
 -13  11   0   12.82    1.69
   0  12   0    1.43    0.55
   0  12   0    2.50    0.51
  -2  12   0   39.01    1.81
   2  12   0   38.26    1.63
   2  12   0   41.85    2.30
  -2  12   0   38.80    2.07
  -4  12   0   -0.17    0.33
   4  12   0    0.35    0.33
   4  12   0   -0.23    0.35
  -4  12   0   -0.23    0.30
  -6  12   0   15.80    1.52
   6  12   0   22.06    2.09
  -8  12   0    0.85    0.55
   8  12   0    0.38    0.54
  10  12   0   36.44    2.54
 -10  12   0   32.13    2.15
  12  12   0    0.09    0.68
 -12  12   0    1.18    0.73
   1  13   0   82.16    2.79
   1  13   0   78.18    3.49
  -1  13   0   79.85    3.39
  -1  13   0   76.69    2.85
  -3  13   0    7.56    0.98
   3  13   0   11.17    1.00
   3  13   0    9.32    1.33
  -3  13   0   10.07    1.20
   5  13   0   31.10    2.17
  -5  13   0   31.28    1.86
  -7  13   0    3.41    0.83
   7  13   0    2.37    0.85
  -9  13   0   -0.01    0.53
   9  13   0    0.72    0.65
  11  13   0   20.32    2.33
 -11  13   0   29.31    2.14
   0  14   0  106.93    3.56
   0  14   0  104.11    4.26
  -2  14   0    2.11    0.58
   2  14   0    0.69    0.57
   2  14   0    2.40    0.56
  -2  14   0    2.16    0.70
   4  14   0   13.25    1.64
  -4  14   0    7.57    1.07
   4  14   0    8.54    0.94
  -4  14   0    7.43    1.11
  -6  14   0   37.61    2.18
   6  14   0   37.86    2.56
  -8  14   0   -0.03    0.47
   8  14   0    0.45    0.61
 -10  14   0    7.05    1.28
  10  14   0   10.39    1.68
 -12  14   0   18.37    2.07
  12  14   0   21.53    2.47
  -1  15   0   42.05    2.45
   1  15   0   39.18    2.48
   1  15   0   39.73    1.89
  -1  15   0   37.39    1.93
   3  15   0  148.40    4.58
   3  15   0  146.63    5.75
  -3  15   0  151.88    5.41
  -3  15   0  146.53    4.87
   5  15   0    0.37    0.67
  -5  15   0    0.64    0.54
  -7  15   0   10.61    1.40
   7  15   0    8.47    1.48
  -9  15   0   22.90    2.11
   9  15   0   21.48    2.48
 -11  15   0    2.52    0.96
  11  15   0    2.89    1.16
   0  16   0   35.16    1.84
   0  16   0   35.36    2.41
   2  16   0   16.20    1.21
   2  16   0   13.93    1.79
  -2  16   0   15.42    1.74
  -2  16   0   17.87    1.57
   4  16   0   74.36    3.90
  -4  16   0   75.19    3.17
  -6  16   0    0.58    0.58
   6  16   0    0.50    0.72
  -8  16   0   23.46    2.13
   8  16   0   27.63    2.79
  10  16   0    0.24    0.79
 -10  16   0    1.56    0.84
   1  17   0   -0.31    0.56
  -1  17   0    0.94    0.70
  -1  17   0    0.66    0.55
   1  17   0    0.89    0.57
   3  17   0    0.67    0.73
  -3  17   0    0.08    0.51
  -3  17   0    0.18    0.63
  -5  17   0    3.64    0.89
   5  17   0    3.12    1.07
  -7  17   0    0.14    0.65
   7  17   0   -0.05    0.72
  -9  17   0   -0.09    0.67
   9  17   0    0.19    0.81
   0  18   0    6.89    1.40
   0  18   0    9.92    1.19
  -2  18   0   -0.30    0.69
  -2  18   0   -0.63    0.46
   2  18   0    0.23    0.70
  -4  18   0   22.48    1.96
   4  18   0   22.46    2.52
  -6  18   0    4.61    1.03
   6  18   0    3.77    1.27
  -8  18   0    1.81    0.84
   8  18   0    1.37    1.00
  -1  19   0   -0.21    0.73
  -1  19   0    0.66    0.67
   1  19   0    0.60    0.79
   3  19   0    2.97    1.16
  -3  19   0    4.32    0.97
   5  19   0   -0.67    0.71
  -5  19   0   -0.54    0.57
   0  20   0    8.14    1.63
   2  20   0    9.45    1.75
  -2  20   0   11.11    1.42
  -2  20   0   10.84    1.76
   4  20   0   20.70    2.65
 -16   0   1   -0.06    0.58
 -14   0   1   -0.20    0.54
 -14   0   1    0.26    0.50
 -12   0   1   -0.13    0.33
 -12   0   1   -0.37    0.39
 -10   0   1   -0.33    0.29
 -10   0   1    0.10    0.30
   8   0  -1    0.06    0.17
  -8   0   1   -0.01    0.23
  -6   0   1    0.13    0.20
   6   0  -1   -0.02    0.12
   4   0  -1    0.16    0.12
  -4   0   1    0.46    0.20
   2   0  -1   -0.13    0.08
   0   0  -1   -0.61    0.06
  -2   0  -1    0.97    0.26
  -2   0  -1   -0.01    0.15
  -4   0  -1   -0.29    0.16
  -4   0  -1   -0.14    0.20
  -6   0  -1   -0.20    0.25
  -6   0  -1    0.29    0.24
  -8   0  -1   -0.11    0.24
  -8   0  -1   -0.07    0.34
 -10   0  -1    0.06    0.46
 -12   0  -1    0.51    0.59
 -14   0  -1    0.04    0.68
 -17  -1   1    0.21    0.60
 -17   1   1   -0.48    0.52
 -15  -1   1    1.91    0.78
 -15   1   1    2.08    0.76
 -15   1   1    1.29    0.72
 -13  -1   1  230.90    7.64
 -13  -1   1  234.97    6.87
 -13   1   1  230.62    6.92
 -13   1   1  215.93    7.58
 -11  -1   1   17.11    1.67
 -11  -1   1   18.82    1.27
 -11   1   1   19.15    1.34
 -11   1   1   20.13    1.54
  -9  -1   1   16.03    1.07
   9  -1  -1   15.44    0.70
  -9  -1   1   12.89    1.29
  -9   1   1   14.73    1.05
   9   1  -1   15.57    0.90
  -7  -1   1  167.96    4.72
   7  -1  -1  168.02    4.51
  -7  -1   1  175.12    5.27
  -7   1   1  174.39    4.83
   7   1  -1  175.03    4.80
  -5  -1   1   99.71    2.79
   5  -1  -1  101.79    2.67
  -5  -1   1   98.73    3.13
  -5   1   1  103.72    2.90
   5   1  -1   98.30    2.90
   3  -1  -1   42.09    1.22
  -3  -1   1   42.87    1.40
   3   1  -1   43.58    1.37
   1  -1  -1  808.93   20.04
   1   1  -1  803.59   20.02
  -1   1  -1   45.39    1.32
   1   1   1   44.31    1.42
  -3  -1  -1    0.93    0.29
  -3   1  -1    0.86    0.19
  -3   1  -1    0.69    0.29
   3   1   1    1.66    0.29
  -5  -1  -1  357.21    9.18
  -5   1  -1  348.41    9.06
   5   1   1  353.03    9.28
  -5   1  -1  357.54    9.23
  -7  -1  -1    1.84    0.49
  -7   1  -1    1.67    0.51
   7   1   1    1.18    0.33
  -7   1  -1    2.19    0.35
  -9  -1  -1    1.46    0.57
  -9   1  -1    1.73    0.61
 -11  -1  -1   83.35    3.48
 -11   1  -1   89.77    3.59
 -13  -1  -1    2.19    0.84
 -13   1  -1    1.23    0.68
 -15  -1  -1    0.07    0.62
 -15   1  -1    0.76    0.63
 -15   1  -1   -0.20    0.77
 -16  -2   1   29.19    2.71
 -16   2   1   25.84    2.24
 -16   2   1   25.99    2.56
 -14  -2   1   15.17    1.76
 -14   2   1   13.28    1.51
 -14   2   1   14.14    1.73
 -12  -2   1    0.48    0.45
 -12  -2   1    1.19    0.54
 -12   2   1    0.70    0.51
 -12   2   1    1.42    0.57
 -10  -2   1   14.43    1.09
 -10  -2   1   16.48    1.31
  10   2  -1   14.51    1.00
 -10   2   1   14.54    1.29
  -8  -2   1    1.24    0.43
  -8  -2   1    0.05    0.26
  -8   2   1    0.01    0.28
   8   2  -1    0.47    0.26
  -6  -2   1    6.52    0.71
  -6  -2   1    7.10    0.59
  -6   2   1    5.63    0.63
   6   2  -1    7.08    0.66
  -4  -2   1  604.44   15.76
   4  -2  -1  616.90   15.21
  -4   2   1  604.30   14.86
   4   2  -1  632.64   15.59
   2   2  -1    2.32    0.29
   0   2   1  135.16    3.71
   0   2  -1  135.98    3.62
   2   2   1   54.03    1.85
  -2   2  -1   56.43    1.84
  -2   2  -1   57.86    1.61
  -4  -2  -1  385.42    9.77
  -4   2  -1  382.04    9.84
  -4   2  -1  384.07    9.64
   4   2   1  386.22   10.09
  -6  -2  -1   58.70    2.25
   6   2   1   60.04    2.17
  -6   2  -1   58.62    2.34
  -8  -2  -1    4.40    0.76
  -8   2  -1    4.87    0.81
   8   2   1    4.08    0.62
 -10  -2  -1   27.26    1.76
 -10   2  -1   24.74    1.70
 -12  -2  -1  101.15    3.95
 -12   2  -1   96.73    3.98
 -14  -2  -1    0.89    0.68
 -14   2  -1    1.40    0.81
 -17  -3   1    4.02    1.10
 -17   3   1    3.81    1.10
 -17   3   1    3.00    1.04
 -15  -3   1    3.95    1.02
 -15   3   1    3.46    1.00
 -15   3   1    3.08    0.90
 -13  -3   1   -0.29    0.40
 -13   3   1    0.21    0.43
 -13   3   1    0.09    0.48
 -11  -3   1   -0.03    0.33
 -11  -3   1    0.31    0.43
  11   3  -1    0.50    0.37
 -11   3   1    0.18    0.42
  -9  -3   1   62.63    2.29
  -9  -3   1   58.28    2.59
  -9   3   1   61.55    2.48
   9   3  -1   68.98    2.46
  -7  -3   1   64.11    2.13
  -7  -3   1   63.03    2.46
  -7   3   1   66.77    2.38
   7   3  -1   71.34    2.43
  -5  -3   1   27.81    1.23
  -5   3   1   30.29    1.25
   5   3  -1   28.01    1.27
  -3  -3   1    9.57    0.50
  -3   3   1    8.57    0.52
   3   3  -1    8.47    0.59
  -3   3   1    7.68    0.44
  -1   3   1    0.92    0.17
   1   3  -1    0.55    0.18
  -1   3   1    0.55    0.18
   1   3   1    3.72    0.44
  -1   3  -1    5.05    0.46
  -1   3  -1    4.48    0.39
  -3   3  -1   56.30    1.62
  -3   3  -1   56.10    1.97
   3   3   1   56.18    2.04
   5   3   1    0.70    0.29
  -5   3  -1    0.70    0.34
  -7  -3  -1   91.98    3.20
  -7   3  -1   96.68    3.36
   7   3   1   91.12    3.20
  -9  -3  -1    2.39    0.65
  -9   3  -1    1.24    0.51
   9   3   1    1.95    0.51
 -11  -3  -1    0.57    0.58
 -11   3  -1    0.63    0.52
 -13  -3  -1    1.12    0.72
 -13  -3  -1    0.27    0.72
 -13   3  -1    2.23    0.81
 -15  -3  -1   21.97    2.38
 -15   3  -1   22.46    2.28
 -16  -4   1    5.72    1.22
 -16   4   1    4.72    1.09
 -16   4   1    2.61    0.99
 -14  -4   1   48.38    2.77
 -14   4   1   45.07    2.51
 -14   4   1   47.42    2.80
 -12  -4   1    4.79    0.95
 -12   4   1    3.00    0.77
 -10  -4   1   40.58    1.83
 -10  -4   1   42.15    2.16
  10   4  -1   44.77    2.04
 -10   4   1   44.20    2.09
  -8  -4   1   13.69    0.87
  -8  -4   1   11.98    1.15
  -8   4   1   13.53    1.16
   8   4  -1   10.96    1.05
  -6  -4   1   85.15    2.83
  -6  -4   1   79.91    2.46
  -6   4   1   91.40    2.81
   6   4  -1   79.61    2.86
  -4  -4   1    4.54    0.47
  -4   4   1    4.76    0.53
  -4   4   1    4.70    0.37
   4   4  -1    4.60    0.59
  -2   4   1   83.76    2.43
  -2   4   1   92.07    2.62
   2   4  -1   82.93    2.70
   0   4   1   42.71    1.61
   0   4  -1   41.62    1.37
   0   4   1   39.78    1.31
   0   4  -1   43.84    1.52
  -2   4  -1   99.44    2.90
  -2   4  -1  105.87    3.06
   2   4   1  102.78    3.27
   4   4   1   18.28    1.08
  -4   4  -1   16.39    0.65
  -4   4  -1   15.02    1.01
   6   4   1   21.35    1.27
  -6   4  -1   21.77    1.32
  -8  -4  -1   18.15    1.30
   8   4   1   21.93    1.35
  -8   4  -1   18.57    1.40
 -10  -4  -1   13.08    1.38
 -10  -4  -1   16.85    1.70
  10   4   1   14.29    1.33
 -10   4  -1   14.61    1.53
 -12  -4  -1   10.61    1.48
 -12  -4  -1   11.86    1.44
 -12   4  -1   10.19    1.40
 -14  -4  -1    8.67    1.47
 -14   4  -1    8.72    1.45
 -17  -5   1    1.66    0.81
 -17   5   1    3.22    1.01
 -17   5   1    1.40    0.84
 -15  -5   1   14.13    1.77
 -15   5   1   13.49    1.66
 -15   5   1   11.13    1.70
 -13  -5   1    0.08    0.45
 -13   5   1    0.11    0.53
 -11  -5   1    7.34    1.06
  11   5  -1    5.39    0.86
 -11   5   1    5.25    0.90
  -9  -5   1  144.93    4.28
  -9  -5   1  147.08    4.85
  -9   5   1  156.81    4.75
   9   5  -1  140.12    4.77
  -7  -5   1    5.24    0.68
  -7  -5   1    5.90    0.62
   7   5  -1    5.13    0.74
  -7   5   1    5.53    0.72
  -5  -5   1   83.95    2.67
   5   5  -1   85.39    2.95
  -5   5   1   82.16    2.41
  -5   5   1   82.11    2.70
  -3  -5   1   16.33    0.70
  -3   5   1   15.50    0.81
   3   5  -1   14.26    0.93
  -3   5   1   16.13    0.81
   1   5  -1   40.26    1.59
  -1   5   1   40.32    1.59
  -1   5   1   41.43    1.37
   1   5  -1   38.73    1.28
  -1   5  -1   21.60    0.99
   1   5   1   22.30    1.16
   1   5   1   22.00    0.88
  -1   5  -1   20.81    0.98
  -3  -5  -1    4.04    0.48
   3   5   1    5.04    0.69
  -3   5  -1    4.26    0.43
  -3   5  -1    3.49    0.53
  -5   5  -1   13.58    1.16
  -5   5  -1   12.17    0.56
   5   5   1   11.54    1.11
  -7  -5  -1   10.36    1.05
  -7   5  -1    8.79    1.05
   7   5   1    9.64    1.05
  -9  -5  -1    2.83    0.70
  -9  -5  -1    1.16    0.55
  -9   5  -1    1.56    0.54
   9   5   1    2.63    0.65
 -11  -5  -1    5.99    1.10
 -11  -5  -1    3.76    0.88
 -11   5  -1    3.49    0.88
 -13  -5  -1   17.17    1.94
 -13   5  -1   16.63    1.89
 -15  -5  -1    4.80    1.15
 -15   5  -1    3.41    1.07
 -16  -6   1    7.88    1.39
 -16   6   1    4.13    1.12
 -16   6   1    7.31    1.38
 -14  -6   1    3.86    0.96
 -14   6   1    4.75    1.10
 -14   6   1    5.71    1.10
 -12  -6   1    0.28    0.42
 -12   6   1   -0.13    0.42
  12   6  -1    0.07    0.43
 -10  -6   1   -0.10    0.32
  10   6  -1   -0.11    0.34
 -10   6   1    0.09    0.43
  -8  -6   1   80.17    2.62
  -8  -6   1   82.03    2.97
   8   6  -1   82.05    3.17
  -8   6   1   75.01    2.90
  -6  -6   1    6.87    0.71
   6   6  -1    7.21    0.89
  -6   6   1    5.63    0.72
  -4  -6   1    0.00    0.15
  -4   6   1    0.09    0.17
   4   6  -1   -0.13    0.20
  -4   6   1    0.01    0.19
  -2  -6   1  152.30    4.10
   2   6  -1  152.75    3.95
  -2   6   1  153.49    4.49
  -2   6   1  148.99    4.16
   2   6  -1  157.86    4.66
   0   6   1    0.46    0.26
   0   6  -1    1.04    0.26
   0   6   1    1.03    0.26
   0   6  -1    0.77    0.29
  -2  -6  -1  141.42    3.87
  -2   6  -1  135.92    4.03
  -2   6  -1  145.54    4.09
   2   6   1  138.22    4.43
  -4  -6  -1  396.56   10.44
   4   6   1  394.14   10.83
  -4   6  -1  398.57   10.09
  -4   6  -1  374.10   10.19
  -6  -6  -1    1.03    0.38
   6   6   1    0.09    0.32
  -6   6  -1    0.02    0.31
  -8  -6  -1    2.12    0.57
  -8  -6  -1    1.20    0.54
  -8   6  -1    1.65    0.56
   8   6   1    2.68    0.66
 -10  -6  -1    1.08    0.62
 -10  -6  -1    0.66    0.46
  10   6   1    1.18    0.58
 -10   6  -1    0.12    0.42
 -12  -6  -1    3.09    0.88
 -12   6  -1    5.63    1.15
 -14  -6  -1   30.66    2.33
 -14   6  -1   33.95    2.42
 -15  -7   1   14.97    1.83
 -15   7   1   13.59    1.81
 -15   7   1   13.42    1.68
 -13  -7   1    0.87    0.56
 -13   7   1   -0.21    0.52
 -11  -7   1    0.49    0.41
  11   7  -1    0.31    0.42
 -11   7   1    0.11    0.44
  -9  -7   1   29.96    1.67
  -9   7   1   33.42    1.80
   9   7  -1   30.10    1.82
   7  -7  -1  141.16    3.97
  -7  -7   1  140.88    4.37
  -7   7   1  151.04    4.50
   7   7  -1  130.86    4.71
  -5  -7   1  114.48    3.34
  -5   7   1  103.14    3.43
  -5   7   1  109.21    3.30
   5   7  -1  110.99    3.85
  -3  -7   1   18.66    0.78
   3   7  -1   16.58    1.15
  -3   7   1   18.08    1.03
   3   7  -1   18.82    0.78
  -3   7   1   18.82    1.00
   1   7  -1    8.86    0.87
  -1   7   1   10.01    0.66
  -1   7   1    8.75    0.88
   1   7  -1   11.16    0.65
  -1   7  -1   16.92    1.03
   1   7   1   19.27    1.21
   1   7   1   20.98    0.92
  -1   7  -1   17.05    0.97
  -3  -7  -1   71.20    2.22
  -3   7  -1   68.75    2.33
   3   7   1   68.71    2.76
  -3   7  -1   65.11    2.45
  -5  -7  -1   18.62    1.08
   5   7   1   17.87    1.32
  -5   7  -1   19.38    1.28
  -5   7  -1   17.51    0.88
  -7  -7  -1   48.66    2.19
   7   7   1   46.80    2.41
  -7   7  -1   53.26    2.39
  -9  -7  -1    1.33    0.55
  -9  -7  -1    1.78    0.67
   9   7   1    1.61    0.63
  -9   7  -1    0.91    0.56
 -11  -7  -1   14.32    1.60
  11   7   1   12.44    1.49
 -11   7  -1   16.70    1.78
 -13  -7  -1   35.52    2.40
 -13   7  -1   33.81    2.38
 -16  -8   1   12.84    1.73
 -16   8   1   13.02    1.69
 -16   8   1    8.84    1.63
 -14  -8   1    0.34    0.54
 -14   8   1    0.28    0.57
 -12  -8   1   10.12    1.33
  12   8  -1    9.67    1.32
 -12   8   1    6.75    1.14
 -10  -8   1    1.01    0.47
 -10   8   1    0.82    0.52
  10   8  -1    1.90    0.66
  -8  -8   1    2.57    0.57
   8   8  -1    3.18    0.75
  -8   8   1    2.59    0.61
  -6  -8   1   22.78    1.17
  -6   8   1   23.98    1.14
   6   8  -1   24.11    1.57
  -6   8   1   26.00    1.41
  -4  -8   1  138.43    3.94
  -4   8   1  142.64    4.21
  -4   8   1  144.06    4.31
   4   8  -1  138.75    3.76
   4   8  -1  135.38    4.63
   2   8  -1   -0.01    0.17
  -2   8   1    0.24    0.26
   2   8  -1    0.39    0.31
  -2   8   1    0.19    0.23
   0   8   1   54.69    1.88
   0   8  -1   56.94    2.26
   0   8  -1   55.76    1.93
   0   8   1   53.54    2.30
  -2  -8  -1   29.02    1.03
   2   8   1   29.05    1.24
  -2   8  -1   29.87    1.43
  -2   8  -1   29.20    1.42
   2   8   1   30.67    1.68
  -4  -8  -1    2.81    0.44
  -4   8  -1    1.86    0.41
  -4   8  -1    1.81    0.49
   4   8   1    3.10    0.70
  -6  -8  -1   32.81    1.60
   6   8   1   32.87    1.97
  -6   8  -1   32.67    1.81
  -8  -8  -1   46.69    2.25
   8   8   1   50.10    2.60
  -8   8  -1   52.26    2.53
 -10  -8  -1    1.63    0.65
 -10   8  -1    1.74    0.68
  10   8   1    1.21    0.62
 -12  -8  -1    5.31    1.11
 -12   8  -1    4.12    1.05
 -14  -8  -1   17.54    1.97
 -14   8  -1   13.40    1.83
 -15  -9   1    1.28    0.73
 -15   9   1    1.21    0.80
 -15   9   1    1.32    0.82
 -13  -9   1   15.78    1.69
 -13   9   1   13.29    1.59
  13   9  -1   14.39    1.71
 -11  -9   1   40.29    2.16
 -11   9   1   41.99    2.30
  11   9  -1   45.06    2.54
  -9  -9   1    3.37    0.65
   9   9  -1    3.03    0.76
  -9   9   1    3.35    0.78
  -7  -9   1    0.14    0.27
  -7   9   1    0.57    0.39
   7   9  -1    0.52    0.42
  -5  -9   1   25.17    1.12
   5   9  -1   26.13    1.68
  -5   9   1   28.01    1.36
  -5   9   1   23.44    1.37
  -3  -9   1    3.51    0.40
   3   9  -1    3.23    0.42
  -3   9   1    2.77    0.51
  -3   9   1    2.42    0.51
   3   9  -1    3.06    0.65
   1   9  -1   44.35    1.60
  -1   9   1   41.13    1.98
   1   9  -1   41.22    2.01
  -1   9   1   42.61    1.66
  -1   9  -1  281.17    7.42
  -1   9  -1  275.62    7.91
   1   9   1  277.31    8.18
   1   9   1  276.26    7.23
  -3  -9  -1   15.83    0.79
  -3   9  -1   17.56    1.17
  -3   9  -1   16.50    1.07
   3   9   1   17.49    1.35
  -5  -9  -1   80.25    2.76
  -5   9  -1   79.25    2.73
   5   9   1   85.67    3.51
  -5   9  -1   84.92    3.14
  -7  -9  -1    0.69    0.39
   7   9   1    0.64    0.49
  -7   9  -1    0.41    0.48
  -9  -9  -1   46.69    2.31
   9   9   1   45.51    2.60
  -9   9  -1   46.77    2.51
 -11  -9  -1    4.13    0.88
  11   9   1    3.72    0.97
 -11   9  -1    4.38    1.08
 -13  -9  -1   77.55    3.71
 -13   9  -1   81.86    3.89
 -14 -10   1    1.22    0.66
 -14  10   1    1.40    0.83
 -12 -10   1   17.96    1.67
 -12  10   1   13.85    1.63
  12  10  -1   16.51    1.83
 -10 -10   1    0.09    0.39
 -10  10   1    0.02    0.42
  10  10  -1    0.59    0.53
  -8 -10   1   10.57    1.01
  -8  10   1   10.39    1.20
   8  10  -1   10.74    1.39
  -6 -10   1    0.51    0.24
  -6  10   1    0.20    0.32
  -6  10   1    0.14    0.30
   6  10  -1    0.70    0.46
  -4 -10   1   21.40    0.96
   4  10  -1   20.43    1.53
   4  10  -1   21.85    1.03
  -4  10   1   21.21    1.33
  -4  10   1   22.09    1.28
  -2  10   1   60.70    2.58
   2  10  -1   59.73    2.04
  -2  10   1   59.16    2.23
   2  10  -1   65.70    2.76
   0  10  -1   61.70    2.22
   0  10   1   61.22    2.70
   0  10   1   66.17    2.23
   0  10  -1   59.18    2.59
  -2  10  -1    2.12    0.53
  -2  10  -1    2.31    0.52
   2  10   1    2.24    0.46
   2  10   1    3.46    0.77
  -4 -10  -1    0.02    0.21
   4  10   1    0.10    0.35
  -4  10  -1    0.43    0.37
  -4  10  -1    0.07    0.30
  -6 -10  -1    1.45    0.43
   6  10   1    1.43    0.61
  -6  10  -1    1.42    0.53
  -8 -10  -1   11.16    1.15
   8  10   1    8.36    1.26
  -8  10  -1   10.30    1.30
 -10 -10  -1   21.77    1.62
  10  10   1   19.74    2.02
 -10  10  -1   26.27    2.24
  12  10   1    0.06    0.66
 -12  10  -1    0.02    0.54
 -13  11   1    5.24    1.12
  13  11  -1    7.44    1.39
 -11 -11   1   29.35    1.81
  11  11  -1   30.89    2.25
 -11  11   1   32.71    2.07
  -9 -11   1    9.17    1.01
  -9  11   1    8.80    1.18
   9  11  -1   12.85    1.59
  -7 -11   1    6.49    0.71
  -7  11   1    6.92    1.00
   7  11  -1    6.20    1.11
  -5 -11   1   64.85    2.16
  -5  11   1   66.40    2.63
   5  11  -1   67.62    3.13
  -5  11   1   65.05    2.62
   5  11  -1   63.17    2.18
  -3  11   1   46.62    2.20
  -3  11   1   42.89    1.91
   3  11  -1   47.76    2.43
   3  11  -1   44.38    1.68
  -1  11   1   30.74    1.43
  -1  11   1   24.82    1.65
   1  11  -1   26.40    1.70
   1  11  -1   29.08    1.34
  -1  11  -1   76.99    3.05
   1  11   1   76.27    3.25
   1  11   1   70.87    2.51
  -1  11  -1   74.70    2.68
   3  11   1    2.25    0.72
   3  11   1    3.69    0.60
  -3  11  -1    4.33    0.73
  -3  11  -1    4.09    0.74
  -5  11  -1   39.67    2.07
   5  11   1   40.70    2.42
  -7  11  -1   37.09    2.12
   7  11   1   38.15    2.43
   9  11   1   10.63    1.56
  -9  11  -1   12.77    1.49
 -11  11  -1    0.00    0.56
  11  11   1   -0.36    0.58
 -13  11  -1    3.19    1.04
  14  12  -1   11.81    1.81
 -14  12   1   16.16    1.90
 -12  12   1   18.43    1.92
  12  12  -1   16.82    1.99
  10  12  -1    0.98    0.63
 -10  12   1    1.01    0.59
   8  12  -1    0.50    0.54
  -8  12   1    0.19    0.46
  -6  12   1   17.31    1.30
   6  12  -1   14.49    1.65
   4  12  -1    7.20    0.75
  -4  12   1    7.66    1.03
  -4  12   1    7.38    0.91
   4  12  -1    7.51    1.20
  -2  12   1    8.84    1.15
   2  12  -1   11.01    1.37
   2  12  -1    9.45    0.86
  -2  12   1   10.06    0.99
   0  12   1   75.42    3.33
   0  12   1   75.92    2.69
   0  12  -1   74.09    3.23
   0  12  -1   81.94    2.75
   2  12   1    2.43    0.72
  -2  12  -1    4.07    0.81
  -2  12  -1    2.79    0.61
   2  12   1    2.67    0.53
   4  12   1    5.95    1.09
  -4  12  -1   10.81    1.12
  -4  12  -1   10.33    1.19
   6  12   1    6.93    1.21
  -6  12  -1    4.25    0.88
   8  12   1    2.90    0.96
  -8  12  -1    2.19    0.78
 -10  12  -1   31.19    2.17
  10  12   1   24.68    2.45
 -12  12  -1    5.30    1.19
  12  12   1    6.06    1.37
  13  13  -1    1.76    0.95
 -13  13   1    1.83    0.85
 -11  13   1   24.40    2.21
  11  13  -1   31.83    2.43
   9  13  -1    1.16    0.71
  -9  13   1    1.05    0.63
   7  13  -1   14.05    1.68
  -7  13   1   11.66    1.34
  -5  13   1   23.60    1.58
   5  13  -1   24.23    1.92
  -5  13   1   25.91    1.59
  -3  13   1   16.42    1.21
   3  13  -1   15.00    1.00
   3  13  -1   17.71    1.83
  -3  13   1   17.97    1.65
   1  13  -1   55.21    2.19
  -1  13   1   57.29    2.81
  -1  13   1   56.12    2.27
   1  13  -1   57.47    2.87
   1  13   1   20.46    1.22
  -1  13  -1   20.16    1.29
   1  13   1   16.67    1.76
  -1  13  -1   20.06    1.56
  -3  13  -1    0.70    0.48
  -3  13  -1    0.45    0.45
   3  13   1   -0.18    0.43
   3  13   1    0.64    0.40
   5  13   1   21.62    2.12
  -5  13  -1   23.27    1.64
   7  13   1    0.32    0.55
  -7  13  -1    0.34    0.54
   9  13   1   53.41    3.23
  -9  13  -1   57.04    2.99
 -11  13  -1   14.89    1.86
  11  13   1   12.79    1.83
  12  14  -1   21.39    2.45
 -12  14   1   27.27    2.41
 -10  14   1    0.22    0.59
  10  14  -1   -0.11    0.63
   8  14  -1    4.96    1.13
  -8  14   1    5.66    1.02
  -6  14   1   29.95    1.86
   6  14  -1   27.15    2.12
   4  14  -1  163.28    6.03
  -4  14   1  163.85    5.17
  -4  14   1  156.13    5.52
   2  14  -1   61.49    3.15
  -2  14   1   66.73    2.60
  -2  14   1   60.98    3.04
   2  14  -1   64.45    2.41
   0  14   1  130.85    4.16
   0  14   1  125.64    5.01
   0  14  -1  137.49    4.24
   0  14  -1  127.28    4.91
   2  14   1   13.31    1.18
  -2  14  -1   12.00    1.22
  -2  14  -1   14.16    1.49
   2  14   1   13.19    1.63
   4  14   1    1.50    0.78
  -4  14  -1    1.53    0.59
   6  14   1   51.55    3.15
  -6  14  -1   53.67    2.72
  -8  14  -1   42.24    2.54
   8  14   1   45.78    2.99
  10  14   1   17.88    2.17
 -10  14  -1   14.01    1.73
  11  15  -1   13.08    1.94
 -11  15   1   13.13    1.70
  -9  15   1   17.72    1.84
   9  15  -1   20.91    2.30
  -7  15   1    3.09    0.86
   7  15  -1    2.96    0.93
   5  15  -1   41.55    2.70
  -5  15   1   40.15    2.14
  -3  15   1    4.77    0.82
   3  15  -1    3.81    0.67
   3  15  -1    3.37    0.93
  -3  15   1    2.60    0.82
   1  15  -1    3.02    0.87
   1  15  -1    4.79    0.76
  -1  15   1    5.44    1.12
  -1  15   1    5.00    0.82
  -1  15  -1    2.53    0.64
   1  15   1    1.66    0.75
   1  15   1    2.48    0.61
  -1  15  -1    1.65    0.73
  -3  15  -1   -0.11    0.44
  -3  15  -1   -0.09    0.44
   3  15   1    0.18    0.39
   3  15   1    0.52    0.66
   5  15   1    4.57    1.15
  -5  15  -1    3.39    0.89
   7  15   1    1.84    0.88
  -7  15  -1    3.14    0.90
  -9  15  -1    0.81    0.82
   9  15   1    0.26    0.69
 -10  16   1   79.95    3.70
  10  16  -1   75.21    4.27
  -8  16   1    1.43    0.75
   8  16  -1    2.57    0.99
  -6  16   1    7.03    1.14
   6  16  -1   15.76    2.04
   4  16  -1    6.85    1.30
  -4  16   1    3.65    0.79
  -4  16   1    6.80    1.18
  -2  16   1    9.75    1.42
  -2  16   1    9.46    1.14
   2  16  -1   10.25    1.53
   2  16  -1    9.88    1.07
   0  16  -1    4.27    1.04
   0  16   1    6.08    1.18
   0  16  -1    7.62    0.98
   0  16   1    5.46    0.87
   2  16   1   52.73    2.31
  -2  16  -1   52.64    2.84
   2  16   1   53.58    3.16
  -2  16  -1   50.05    2.43
  -4  16  -1    7.83    1.15
   4  16   1    5.13    1.25
  -6  16  -1    1.40    0.76
   6  16   1    1.96    0.90
   8  16   1   12.57    1.95
  -8  16  -1    8.39    1.35
  -9  17   1   41.24    2.61
   9  17  -1   47.92    3.31
   7  17  -1    2.67    0.96
  -7  17   1    3.55    0.91
   5  17  -1   15.72    2.00
  -5  17   1   16.62    1.66
  -3  17   1   14.32    1.45
   3  17  -1   12.99    1.80
  -3  17   1   12.12    1.66
   1  17  -1    0.59    0.52
  -1  17   1    0.01    0.50
   1  17  -1    0.85    0.65
  -1  17   1    0.58    0.62
   1  17   1   -0.50    0.48
  -1  17  -1   -0.34    0.50
  -1  17  -1    0.49    0.61
   1  17   1    0.18    0.62
  -3  17  -1  143.60    4.88
   3  17   1  129.40    5.78
   5  17   1    2.74    1.08
  -5  17  -1    2.14    0.77
  -7  17  -1    4.47    1.06
   7  17   1    2.47    1.12
   8  18  -1    1.93    0.99
  -8  18   1    0.38    0.67
  -6  18   1    0.59    0.67
   6  18  -1    0.23    0.80
  -4  18   1    3.26    0.85
   4  18  -1    3.94    1.21
  -2  18   1   -0.23    0.61
  -2  18   1    0.46    0.56
   2  18  -1   -0.26    0.63
   0  18   1   -0.19    0.61
   0  18  -1    0.22    0.56
   0  18  -1   -0.50    0.57
   0  18   1   -0.20    0.51
   2  18   1   -0.09    0.70
  -2  18  -1    0.05    0.67
  -2  18  -1    0.29    0.61
   4  18   1    0.32    0.75
  -4  18  -1   -0.09    0.54
   6  18   1    0.05    0.73
  -6  18  -1    0.92    0.74
   7  19  -1    0.95    1.00
  -7  19   1    2.10    0.88
   5  19  -1    7.12    1.56
  -5  19   1    6.95    1.20
  -3  19   1    9.54    1.29
  -3  19   1    7.31    1.38
   3  19  -1    7.62    1.55
  -1  19   1    9.28    1.60
   1  19  -1   11.68    1.78
  -1  19   1   11.37    1.35
   1  19   1   -0.20    0.61
  -1  19  -1    0.40    0.79
  -1  19  -1    0.32    0.58
  -3  19  -1   70.47    3.29
   3  19   1   75.74    4.23
  -5  19  -1    1.18    0.73
   5  19   1    0.74    0.97
   4  20  -1    5.01    1.35
  -4  20   1    3.32    0.94
   2  20  -1   -0.22    0.82
  -2  20   1   -0.41    0.58
  -2  20   1    0.05    0.74
   0  20  -1   -0.05    0.80
   0  20   1    1.35    0.95
  -2  20  -1   -0.44    0.57
   2  20   1    0.97    0.94
 -18   0   2    0.84    0.69
 -16   0   2   25.06    2.42
 -14   0   2   18.38    1.59
 -14   0   2   13.85    1.65
 -12   0   2    0.70    0.44
 -12   0   2    1.18    0.56
 -10   0   2   14.56    1.16
 -10   0   2   12.75    0.96
  10   0  -2   13.78    0.81
   8   0  -2  111.96    3.27
  -8   0   2  116.43    3.78
  -8   0   2  110.39    3.30
   6   0  -2   10.17    0.58
  -6   0   2    9.97    0.71
  -6   0   2    9.37    0.58
   4   0  -2  259.89    6.55
  -4   0   2  240.65    6.61
   2   0  -2  114.83    3.20
   0   0  -2  440.24   11.25
  -2   0  -2  994.52   25.00
  -2   0  -2 1000.00   24.09
  -4   0  -2  286.43    7.75
  -4   0  -2  291.07    7.74
  -6   0  -2   41.41    1.97
  -6   0  -2   39.78    1.64
  -8   0  -2  108.36    3.94
 -10   0  -2   -0.18    0.50
 -12   0  -2    7.66    1.31
 -14   0  -2    3.11    1.06
 -17  -1   2    4.44    1.13
 -17   1   2    3.72    1.06
 -15  -1   2    5.84    1.14
 -15   1   2    6.24    1.16
 -15   1   2    8.01    1.13
 -13  -1   2    1.04    0.56
 -13  -1   2    0.68    0.45
 -13   1   2    1.40    0.61
 -13   1   2    0.98    0.54
 -11  -1   2   13.31    1.35
 -11  -1   2   13.75    1.03
 -11   1   2   15.62    1.11
 -11   1   2   12.19    1.33
  11   1  -2   12.46    0.89
  -9  -1   2   11.34    0.80
  -9  -1   2   12.83    1.01
   9  -1  -2   10.99    0.62
  -9   1   2    9.89    1.04
   9   1  -2    9.82    0.73
  -9   1   2   11.11    0.94
  -7  -1   2   11.41    0.85
   7  -1  -2   13.11    0.64
  -7  -1   2   12.78    0.70
  -7   1   2   13.55    0.77
  -7   1   2   12.62    0.88
   7   1  -2   12.89    0.76
  -5  -1   2   62.61    2.04
   5  -1  -2   61.77    1.85
   5   1  -2   64.67    1.98
  -5   1   2   58.38    2.00
  -5   1   2   57.37    1.79
  -3  -1   2    0.56    0.17
   3  -1  -2    0.89    0.23
   3   1  -2    0.54    0.21
   1  -1  -2    3.14    0.37
   1   1  -2    3.18    0.34
  -1  -1  -2  607.29   15.66
  -1   1  -2  620.90   15.48
  -3  -1  -2  297.00    8.31
  -3  -1  -2  312.40    8.12
  -3   1  -2  323.70    8.09
  -3   1  -2  304.04    8.10
  -5  -1  -2   72.33    2.52
  -5  -1  -2   64.28    2.54
  -5   1  -2   68.01    2.23
  -5   1  -2   69.31    2.62
  -7  -1  -2   24.76    1.36
  -7  -1  -2   25.93    1.57
  -7   1  -2   21.16    1.09
  -7   1  -2   25.30    1.55
  -9  -1  -2   13.80    1.51
  -9   1  -2   16.07    1.60
 -11  -1  -2   42.21    2.46
 -11   1  -2   43.34    2.50
 -13  -1  -2    4.84    1.16
 -13   1  -2    7.52    1.38
 -18  -2   2    8.65    1.51
 -18   2   2    7.16    1.46
 -16  -2   2   34.59    2.39
 -16   2   2   31.80    2.08
 -16   2   2   34.64    2.41
 -14  -2   2  140.87    5.28
 -14   2   2  139.41    4.74
 -14   2   2  134.91    5.26
 -12  -2   2   27.52    1.51
 -12   2   2   25.93    1.57
 -12   2   2   26.24    1.78
 -10  -2   2  180.78    5.00
 -10  -2   2  173.76    5.68
 -10   2   2  186.63    5.26
  10   2  -2  180.39    5.25
 -10   2   2  169.53    5.70
  -8  -2   2  113.63    3.23
   8  -2  -2  116.14    3.10
  -8  -2   2  114.73    3.78
  -8   2   2  113.01    3.44
   8   2  -2  111.98    3.51
  -8   2   2  113.44    3.81
   6  -2  -2   74.65    2.15
  -6  -2   2   72.26    2.48
  -6   2   2   74.30    2.29
  -6   2   2   74.42    2.51
   6   2  -2   76.88    2.46
  -4  -2   2  478.04   12.57
   4  -2  -2  491.66   12.39
  -4   2   2  483.26   12.55
  -4   2   2  494.88   11.84
   4   2  -2  498.92   12.56
  -2  -2   2  927.62   23.72
   2  -2  -2  960.47   23.67
  -2   2   2  941.36   22.38
   2   2  -2  949.52   23.62
   0  -2  -2  234.06    6.36
   0   2  -2  236.70    6.12
   0   2  -2  225.27    5.90
  -2   2  -2  251.26    6.39
  -2   2  -2  234.94    6.43
   2   2   2  243.36    6.64
  -4  -2  -2    0.40    0.29
  -4   2  -2   -0.09    0.23
  -4   2  -2    0.23    0.18
   4   2   2    0.35    0.24
  -6  -2  -2  133.74    4.27
  -6   2  -2  133.13    4.34
  -6   2  -2  131.14    3.72
  -8  -2  -2    3.05    0.67
  -8  -2  -2    2.93    0.71
  -8   2  -2    2.61    0.73
 -10  -2  -2   13.93    1.56
 -10   2  -2   14.20    1.58
 -12  -2  -2    7.55    1.30
 -12   2  -2    8.00    1.33
 -14  -2  -2   10.39    1.70
 -14  -2  -2    7.31    1.39
 -14   2  -2    9.15    1.54
 -17  -3   2   11.97    1.64
 