####################################################################### 
# 
# This file contains crystal structure data downloaded from the 
# Cambridge Structural Database (CSD) hosted by the Cambridge 
# Crystallographic Data Centre (CCDC).
# 
# Full information about CCDC data access policies and citation 
# guidelines are available at http://www.ccdc.cam.ac.uk/access/V1 
# 
# Audit and citation data items may have been added by the CCDC. 
# Please retain this information to preserve the provenance of 
# this file and to allow appropriate attribution of the data. 
# 
#######################################################################

data_2_2DMF
_audit_block_doi                 10.5517/cc12gk36
_database_code_depnum_ccdc_archive 'CCDC 997087'
loop_
_citation_id
_citation_doi
_citation_year
1 10.1038/ncomms6851 2015
_audit_update_record             
;
2014-04-13 deposited with the CCDC.	2024-07-10 downloaded from the CCDC.
;

#==============================================================================
# CHEMICAL DATA

_chemical_formula_sum            'C32 H30 Mg2 N4 O12'
_chemical_formula_moiety         'C32 H30 Mg2 N4 O12'
_chemical_formula_weight         711.22
_chemical_melting_point          ?

#==============================================================================
# CRYSTAL DATA
_symmetry_cell_setting           monoclinic
_symmetry_space_group_name_H-M   'C 1 2/c 1'
_symmetry_space_group_name_Hall  '-C 2yc'
_symmetry_Int_Tables_number      15
loop_
_symmetry_equiv_pos_site_id
_symmetry_equiv_pos_as_xyz
1 +X,+Y,+Z
2 -X,+Y,1/2-Z
3 -X,-Y,-Z
4 +X,-Y,1/2+Z
5 1/2+X,1/2+Y,+Z
6 1/2-X,1/2+Y,1/2-Z
7 1/2-X,1/2-Y,-Z
8 1/2+X,1/2-Y,1/2+Z
#------------------------------------------------------------------------------
_cell_length_a                   18.2716(9)
_cell_length_b                   17.2585(9)
_cell_length_c                   13.5539(7)
_cell_angle_alpha                90.0000
_cell_angle_beta                 129.6663(13)
_cell_angle_gamma                90.0000
_cell_volume                     3290.1(3)
_cell_formula_units_Z            4
_cell_measurement_reflns_used    13368
_cell_measurement_theta_min      3.04
_cell_measurement_theta_max      27.40
_cell_measurement_temperature    173
#------------------------------------------------------------------------------
_exptl_crystal_description       chunk
_exptl_crystal_colour            colorless
_exptl_crystal_size_max          0.600
_exptl_crystal_size_mid          0.200
_exptl_crystal_size_min          0.200
_exptl_crystal_density_diffrn    1.436
_exptl_crystal_density_meas      ?
_exptl_crystal_density_method    'not measured'
_exptl_crystal_F_000             1480.00
_exptl_absorpt_coefficient_mu    0.144
_exptl_absorpt_correction_type   multi-scan
_exptl_absorpt_process_details   'ABSCOR (Rigaku, 1995)'
_exptl_absorpt_correction_T_min  0.811
_exptl_absorpt_correction_T_max  0.972

#==============================================================================
# EXPERIMENTAL DATA

_diffrn_ambient_temperature      173
_diffrn_radiation_type           'Mo K\a'
_diffrn_radiation_wavelength     0.71075
_diffrn_measurement_device_type  'Rigaku R-AXIS RAPID'
_diffrn_measurement_method       \w
_diffrn_detector_area_resol_mean 10.000
_diffrn_reflns_number            15818
_diffrn_reflns_av_R_equivalents  0.0224
_diffrn_reflns_theta_max         27.39
_diffrn_reflns_theta_full        27.39
_diffrn_measured_fraction_theta_max 0.995
_diffrn_measured_fraction_theta_full 0.995
_diffrn_reflns_limit_h_min       -23
_diffrn_reflns_limit_h_max       23
_diffrn_reflns_limit_k_min       -22
_diffrn_reflns_limit_k_max       22
_diffrn_reflns_limit_l_min       -17
_diffrn_reflns_limit_l_max       17
_diffrn_standards_number         0
_diffrn_standards_interval_count .
_diffrn_standards_decay_%        ?

#==============================================================================
# REFINEMENT DATA

_refine_special_details          
;
    Refinement was performed using all reflections. The weighted 
    R-factor (wR) and goodness of fit (S) are based on F^2^.
    R-factor (gt) are based on F. The threshold expression of
    F^2^ > 2.0 sigma(F^2^) is used only for calculating R-factor (gt).
;
_reflns_number_total             3724
_reflns_number_gt                3322
_reflns_threshold_expression     F^2^>2.0\s(F^2^)
_refine_ls_structure_factor_coef Fsqd
_refine_ls_R_factor_gt           0.0554
_refine_ls_wR_factor_ref         0.1641
_refine_ls_number_restraints     0
_refine_ls_hydrogen_treatment    constr
_refine_ls_number_reflns         3724
_refine_ls_number_parameters     228
_refine_ls_goodness_of_fit_ref   1.053
_refine_ls_weighting_scheme      calc
_refine_ls_weighting_details     
'w = 1/[\s^2^(Fo^2^)+(0.0954P)^2^+7.8416P] where P=(Fo^2^+2Fc^2^)/3'
_atom_sites_solution_hydrogens   geom
_atom_sites_solution_primary     direct
_atom_sites_solution_secondary   difmap
_refine_ls_shift/su_max          0.000
_refine_diff_density_max         1.000
_refine_diff_density_min         -0.540
_refine_ls_extinction_method     none
_refine_ls_extinction_coef       ?

loop_
_atom_type_symbol
_atom_type_description
_atom_type_scat_dispersion_real
_atom_type_scat_dispersion_imag
_atom_type_scat_source
C C 0.0033 0.0016
;
International Tables for Crystallography
(1992, Vol. C, Tables 4.2.6.8 and 6.1.1.4)
;
H H 0.0000 0.0000
;
International Tables for Crystallography
(1992, Vol. C, Table 6.1.1.4)
;
O O 0.0106 0.0060
;
International Tables for Crystallography
(1992, Vol. C, Tables 4.2.6.8 and 6.1.1.4)
;
N N 0.0061 0.0033
;
International Tables for Crystallography
(1992, Vol. C, Tables 4.2.6.8 and 6.1.1.4)
;
Mg Mg 0.0486 0.0363
;
International Tables for Crystallography
(1992, Vol. C, Tables 4.2.6.8 and 6.1.1.4)
;

#==============================================================================
# ATOMIC COORDINATES AND THERMAL PARAMETERS

loop_
_atom_site_label
_atom_site_type_symbol
_atom_site_fract_x
_atom_site_fract_y
_atom_site_fract_z
_atom_site_U_iso_or_equiv
_atom_site_adp_type
_atom_site_occupancy
_atom_site_symmetry_multiplicity
_atom_site_calc_flag
_atom_site_refinement_flags
_atom_site_disorder_assembly
_atom_site_disorder_group
Mg1 Mg 0.0000 0.19468(5) 0.2500 0.0114(2) Uani 1.0 4 d . . .
Mg2 Mg 0.2500 0.2500 0.5000 0.0110(2) Uani 1.0 4 d . . .
O1 O 0.08838(10) 0.11234(8) 0.38025(13) 0.0186(3) Uani 1.0 8 d . . .
O2 O 0.23028(10) 0.14904(8) 0.56215(13) 0.0179(3) Uani 1.0 8 d . . .
O3 O 0.22931(10) -0.18594(8) 0.85542(13) 0.0164(3) Uani 1.0 8 d . . .
O4 O 0.07484(10) -0.19956(8) 0.68586(13) 0.0169(3) Uani 1.0 8 d . . .
O5 O 0.09990(9) 0.27957(8) 0.38916(13) 0.0165(3) Uani 1.0 8 d . . .
O6 O 0.1329(3) 0.6464(2) 0.4158(4) 0.0941(12) Uani 1.0 8 d . . .
N1 N 0.07426(11) 0.34015(9) 0.42264(16) 0.0159(4) Uani 1.0 8 d . . .
N2 N 0.2778(3) 0.6678(3) 0.6156(4) 0.0746(10) Uani 1.0 8 d . . .
C1 C 0.16385(14) 0.02988(11) 0.55918(19) 0.0169(4) Uani 1.0 8 d . . .
C2 C 0.08676(15) -0.02059(13) 0.4908(2) 0.0248(5) Uani 1.0 8 d . . .
C3 C 0.08496(15) -0.08543(13) 0.5503(2) 0.0257(5) Uani 1.0 8 d . . .
C4 C 0.16068(14) -0.10121(11) 0.67796(19) 0.0170(4) Uani 1.0 8 d . . .
C5 C 0.23864(16) -0.05193(14) 0.7451(2) 0.0299(6) Uani 1.0 8 d . . .
C6 C 0.24005(16) 0.01378(14) 0.6864(3) 0.0290(6) Uani 1.0 8 d . . .
C7 C 0.16081(13) 0.10307(10) 0.49498(18) 0.0147(4) Uani 1.0 8 d . . .
C8 C 0.15528(13) -0.16789(10) 0.74556(18) 0.0144(4) Uani 1.0 8 d . . .
C9 C 0.08656(15) 0.41225(12) 0.3980(2) 0.0212(4) Uani 1.0 8 d . . .
C10 C 0.05691(16) 0.47584(12) 0.4258(2) 0.0231(5) Uani 1.0 8 d . . .
C11 C 0.01583(13) 0.46624(11) 0.48382(19) 0.0192(4) Uani 1.0 8 d . . .
C12 C 0.00752(17) 0.39056(13) 0.5120(3) 0.0285(5) Uani 1.0 8 d . . .
C13 C 0.03755(17) 0.32831(12) 0.4813(3) 0.0257(5) Uani 1.0 8 d . . .
C14 C 0.3782(7) 0.6515(8) 0.7012(8) 0.241(8) Uani 1.0 8 d . . .
C15 C 0.2447(6) 0.7168(4) 0.6579(8) 0.116(3) Uani 1.0 8 d . . .
C16 C 0.2208(5) 0.6339(3) 0.4955(6) 0.0852(14) Uani 1.0 8 d . . .
H1 H 0.0350 -0.0107 0.4030 0.0298 Uiso 1.0 8 calc R . .
H2 H 0.0315 -0.1191 0.5032 0.0308 Uiso 1.0 8 calc R . .
H3 H 0.2916 -0.0631 0.8318 0.0359 Uiso 1.0 8 calc R . .
H4 H 0.2933 0.0476 0.7337 0.0348 Uiso 1.0 8 calc R . .
H5 H 0.1160 0.4195 0.3609 0.0254 Uiso 1.0 8 calc R . .
H6 H 0.0644 0.5264 0.4056 0.0277 Uiso 1.0 8 calc R . .
H7 H -0.0190 0.3816 0.5527 0.0342 Uiso 1.0 8 calc R . .
H8 H 0.0322 0.2771 0.5018 0.0308 Uiso 1.0 8 calc R . .
H9A H 0.4058 0.6696 0.6627 0.2893 Uiso 1.0 8 calc R . .
H10B H 0.3883 0.5956 0.7164 0.2893 Uiso 1.0 8 calc R . .
H11C H 0.4088 0.6784 0.7828 0.2893 Uiso 1.0 8 calc R . .
H12A H 0.1977 0.6898 0.6582 0.1388 Uiso 1.0 8 calc R . .
H13B H 0.2149 0.7618 0.6008 0.1388 Uiso 1.0 8 calc R . .
H14C H 0.2977 0.7341 0.7450 0.1388 Uiso 1.0 8 calc R . .


loop_
_atom_site_aniso_label
_atom_site_aniso_U_11
_atom_site_aniso_U_22
_atom_site_aniso_U_33
_atom_site_aniso_U_12
_atom_site_aniso_U_13
_atom_site_aniso_U_23
Mg1 0.0112(4) 0.0091(4) 0.0122(5) 0.0000 0.0067(4) 0.0000
Mg2 0.0113(5) 0.0087(4) 0.0124(5) -0.0006(3) 0.0072(4) -0.0014(3)
O1 0.0161(7) 0.0148(7) 0.0168(7) 0.0013(5) 0.0067(6) 0.0047(5)
O2 0.0184(7) 0.0134(7) 0.0177(7) -0.0029(5) 0.0096(6) 0.0014(5)
O3 0.0159(7) 0.0178(7) 0.0154(7) 0.0018(5) 0.0098(6) 0.0057(5)
O4 0.0168(7) 0.0187(7) 0.0167(7) -0.0037(5) 0.0114(6) -0.0009(5)
O5 0.0126(7) 0.0131(7) 0.0207(7) 0.0002(5) 0.0091(6) -0.0079(5)
O6 0.0620(19) 0.086(3) 0.137(4) -0.0116(17) 0.065(3) 0.009(3)
N1 0.0113(8) 0.0149(8) 0.0171(8) 0.0015(6) 0.0071(7) -0.0052(6)
N2 0.075(3) 0.087(3) 0.074(3) 0.016(2) 0.053(2) 0.001(2)
C1 0.0163(9) 0.0146(9) 0.0175(9) 0.0002(7) 0.0097(8) 0.0029(7)
C2 0.0197(10) 0.0233(11) 0.0161(10) -0.0043(8) 0.0043(9) 0.0053(8)
C3 0.0208(10) 0.0232(11) 0.0197(10) -0.0081(9) 0.0067(9) 0.0030(8)
C4 0.0164(9) 0.0166(9) 0.0178(9) 0.0006(7) 0.0107(8) 0.0037(7)
C5 0.0196(10) 0.0322(12) 0.0168(10) -0.0073(9) 0.0018(9) 0.0099(9)
C6 0.0198(11) 0.0275(11) 0.0215(11) -0.0094(9) 0.0047(9) 0.0073(9)
C7 0.0158(9) 0.0124(8) 0.0170(9) 0.0022(7) 0.0110(8) 0.0024(7)
C8 0.0158(9) 0.0135(9) 0.0166(9) 0.0005(7) 0.0116(8) 0.0012(7)
C9 0.0247(10) 0.0178(10) 0.0246(10) 0.0042(8) 0.0174(9) 0.0003(8)
C10 0.0286(11) 0.0163(10) 0.0272(11) 0.0059(8) 0.0191(10) 0.0013(8)
C11 0.0138(9) 0.0183(10) 0.0210(10) 0.0016(8) 0.0090(8) -0.0060(8)
C12 0.0359(13) 0.0202(11) 0.0468(14) -0.0057(9) 0.0345(12) -0.0106(10)
C13 0.0318(12) 0.0160(10) 0.0416(13) -0.0055(9) 0.0291(11) -0.0077(9)
C14 0.152(8) 0.45(2) 0.102(6) 0.181(11) 0.071(6) 0.036(9)
C15 0.198(8) 0.079(4) 0.158(6) 0.006(4) 0.154(7) -0.011(4)
C16 0.098(4) 0.084(4) 0.093(4) -0.000(3) 0.070(4) -0.008(3)

#==============================================================================
_computing_data_collection       'RAPID AUTO (Rigaku, ????)'
_computing_cell_refinement       'RAPID AUTO'
_computing_data_reduction        'RAPID AUTO'
_computing_structure_solution    'SHELXS97 (Sheldrick, 2008)'
_computing_structure_refinement  'SHELXL97 (Sheldrick, 2008)'
_computing_publication_material  'CrystalStructure 4.0 (Rigaku, 2010)'
_computing_molecular_graphics    'CrystalStructure 4.0'

#==============================================================================
# MOLECULAR GEOMETRY

_geom_special_details            
;
    ENTER SPECIAL DETAILS OF THE MOLECULAR GEOMETRY
;

loop_
_geom_bond_atom_site_label_1
_geom_bond_atom_site_label_2
_geom_bond_distance
_geom_bond_publ_flag
_geom_bond_site_symmetry_1
_geom_bond_site_symmetry_2
Mg1 O1 2.0259(14) yes . .
Mg1 O1 2.0259(14) yes . 2_555
Mg1 O4 2.037(3) yes . 3_556
Mg1 O4 2.037(3) yes . 4_554
Mg1 O5 2.1542(14) yes . .
Mg1 O5 2.1542(14) yes . 2_555
Mg2 O2 2.0647(17) yes . .
Mg2 O2 2.0647(17) yes . 7_556
Mg2 O3 2.0639(19) yes . 4_554
Mg2 O3 2.0639(19) yes . 6_556
Mg2 O5 2.1861(14) yes . .
Mg2 O5 2.1861(14) yes . 7_556
O1 C7 1.2522(19) yes . .
O2 C7 1.263(3) yes . .
O3 C8 1.2540(19) yes . .
O4 C8 1.263(3) yes . .
O5 N1 1.338(3) yes . .
O6 C16 1.256(7) yes . .
N1 C9 1.344(3) yes . .
N1 C13 1.344(5) yes . .
N2 C14 1.440(10) yes . .
N2 C15 1.361(13) yes . .
N2 C16 1.383(7) yes . .
C1 C2 1.391(3) yes . .
C1 C6 1.387(3) yes . .
C1 C7 1.515(4) yes . .
C2 C3 1.392(4) yes . .
C3 C4 1.388(3) yes . .
C4 C5 1.388(3) yes . .
C4 C8 1.513(4) yes . .
C5 C6 1.394(4) yes . .
C9 C10 1.379(4) yes . .
C10 C11 1.401(5) yes . .
C11 C11 1.486(4) yes . 3_566
C11 C12 1.396(4) yes . .
C12 C13 1.386(5) yes . .

loop_
_geom_angle_atom_site_label_1
_geom_angle_atom_site_label_2
_geom_angle_atom_site_label_3
_geom_angle
_geom_angle_publ_flag
_geom_angle_site_symmetry_1
_geom_angle_site_symmetry_2
_geom_angle_site_symmetry_3
O1 Mg1 O1 90.91(6) yes . . 2_555
O1 Mg1 O4 92.06(8) yes . . 3_556
O1 Mg1 O4 91.26(8) yes . . 4_554
O1 Mg1 O5 87.45(5) yes . . .
O1 Mg1 O5 177.01(8) yes . . 2_555
O1 Mg1 O4 91.26(8) yes 2_555 . 3_556
O1 Mg1 O4 92.06(8) yes 2_555 . 4_554
O1 Mg1 O5 177.01(8) yes 2_555 . .
O1 Mg1 O5 87.45(5) yes 2_555 . 2_555
O4 Mg1 O4 175.26(8) yes 3_556 . 4_554
O4 Mg1 O5 91.30(7) yes 3_556 . .
O4 Mg1 O5 85.47(7) yes 3_556 . 2_555
O4 Mg1 O5 85.47(7) yes 4_554 . .
O4 Mg1 O5 91.30(7) yes 4_554 . 2_555
O5 Mg1 O5 94.30(6) yes . . 2_555
O2 Mg2 O2 180.00(10) yes . . 7_556
O2 Mg2 O3 87.79(7) yes . . 4_554
O2 Mg2 O3 92.21(7) yes . . 6_556
O2 Mg2 O5 90.47(6) yes . . .
O2 Mg2 O5 89.53(6) yes . . 7_556
O2 Mg2 O3 92.21(7) yes 7_556 . 4_554
O2 Mg2 O3 87.79(7) yes 7_556 . 6_556
O2 Mg2 O5 89.53(6) yes 7_556 . .
O2 Mg2 O5 90.47(6) yes 7_556 . 7_556
O3 Mg2 O3 180.00(9) yes 4_554 . 6_556
O3 Mg2 O5 94.79(6) yes 4_554 . .
O3 Mg2 O5 85.21(6) yes 4_554 . 7_556
O3 Mg2 O5 85.21(6) yes 6_556 . .
O3 Mg2 O5 94.79(6) yes 6_556 . 7_556
O5 Mg2 O5 180.00(9) yes . . 7_556
Mg1 O1 C7 142.61(13) yes . . .
Mg2 O2 C7 126.37(13) yes . . .
Mg2 O3 C8 131.72(19) yes 4_555 . .
Mg1 O4 C8 122.16(17) yes 3_556 . .
Mg1 O5 Mg2 115.67(8) yes . . .
Mg1 O5 N1 122.96(12) yes . . .
Mg2 O5 N1 120.44(9) yes . . .
O5 N1 C9 119.3(3) yes . . .
O5 N1 C13 119.81(18) yes . . .
C9 N1 C13 120.9(3) yes . . .
C14 N2 C15 117.5(7) yes . . .
C14 N2 C16 118.7(7) yes . . .
C15 N2 C16 123.7(5) yes . . .
C2 C1 C6 119.3(3) yes . . .
C2 C1 C7 119.29(16) yes . . .
C6 C1 C7 121.40(18) yes . . .
C1 C2 C3 120.38(17) yes . . .
C2 C3 C4 120.4(2) yes . . .
C3 C4 C5 119.1(3) yes . . .
C3 C4 C8 120.39(19) yes . . .
C5 C4 C8 120.38(17) yes . . .
C4 C5 C6 120.64(18) yes . . .
C1 C6 C5 120.2(2) yes . . .
O1 C7 O2 126.5(2) yes . . .
O1 C7 C1 116.24(16) yes . . .
O2 C7 C1 117.29(15) yes . . .
O3 C8 O4 125.8(3) yes . . .
O3 C8 C4 118.04(18) yes . . .
O4 C8 C4 116.12(15) yes . . .
N1 C9 C10 120.8(3) yes . . .
C9 C10 C11 120.3(3) yes . . .
C10 C11 C11 121.5(2) yes . . 3_566
C10 C11 C12 117.1(3) yes . . .
C11 C11 C12 121.4(3) yes 3_566 . .
C11 C12 C13 120.7(4) yes . . .
N1 C13 C12 120.2(3) yes . . .
O6 C16 N2 121.9(7) yes . . .



#==============================================================================

#==============================================================================
# Additional structures and associated data_? identifiers
# should be added at this point if there is more than one 
# structure analysis in the CIF.

#==============================================================================
#     End of CIF
#==============================================================================
