####################################################################### 
# 
# This file contains crystal structure data downloaded from the 
# Cambridge Structural Database (CSD) hosted by the Cambridge 
# Crystallographic Data Centre (CCDC).
# 
# Full information about CCDC data access policies and citation 
# guidelines are available at http://www.ccdc.cam.ac.uk/access/V1 
# 
# Audit and citation data items may have been added by the CCDC. 
# Please retain this information to preserve the provenance of 
# this file and to allow appropriate attribution of the data. 
# 
#######################################################################

data_46
_audit_block_doi                 10.5517/ccsp1j0
_database_code_depnum_ccdc_archive 'CCDC 735212'
loop_
_citation_id
_citation_doi
_citation_year
1 10.1524/ncrs.2009.0123 2009
_audit_update_record             
;
2009-06-09 deposited with the CCDC.	2024-07-10 downloaded from the CCDC.
;

_audit_creation_method           SHELXL-97
_chemical_name_systematic        
;
?
;
_chemical_name_common            ?
_chemical_melting_point          ?
_chemical_formula_moiety         '2(C32 H18 Co N4 O6), 0.5(C6 H14 N2 O2)'
_chemical_formula_sum            'C67 H47 Co2 N9 O13'
_chemical_formula_weight         1304.00

loop_
_atom_type_symbol
_atom_type_description
_atom_type_scat_dispersion_real
_atom_type_scat_dispersion_imag
_atom_type_scat_source
C C 0.0033 0.0016 'International Tables Vol C Tables 4.2.6.8 and 6.1.1.4'
H H 0.0000 0.0000 'International Tables Vol C Tables 4.2.6.8 and 6.1.1.4'
N N 0.0061 0.0033 'International Tables Vol C Tables 4.2.6.8 and 6.1.1.4'
O O 0.0106 0.0060 'International Tables Vol C Tables 4.2.6.8 and 6.1.1.4'
Co Co 0.3494 0.9721 'International Tables Vol C Tables 4.2.6.8 and 6.1.1.4'

_symmetry_cell_setting           monoclinic
_symmetry_space_group_name_H-M   'P 21/c'
_symmetry_space_group_name_Hall  '-P 2ybc'

loop_
_symmetry_equiv_pos_as_xyz
'x, y, z'
'-x, y+1/2, -z+1/2'
'-x, -y, -z'
'x, -y-1/2, z-1/2'

_cell_length_a                   23.219(5)
_cell_length_b                   18.342(4)
_cell_length_c                   14.511(3)
_cell_angle_alpha                90.00
_cell_angle_beta                 100.45(3)
_cell_angle_gamma                90.00
_cell_volume                     6078(2)
_cell_formula_units_Z            4
_cell_measurement_temperature    293(2)
_cell_measurement_reflns_used    30472
_cell_measurement_theta_min      3.01
_cell_measurement_theta_max      27.48

_exptl_crystal_description       block
_exptl_crystal_colour            pink
_exptl_crystal_size_max          0.27
_exptl_crystal_size_mid          0.24
_exptl_crystal_size_min          0.21
_exptl_crystal_density_meas      ?
_exptl_crystal_density_diffrn    1.425
_exptl_crystal_density_method    'not measured'
_exptl_crystal_F_000             2680
_exptl_absorpt_coefficient_mu    0.620
_exptl_absorpt_correction_type   multi-scan
_exptl_absorpt_correction_T_min  0.844
_exptl_absorpt_correction_T_max  0.876
_exptl_absorpt_process_details   'ABSCOR (Higashi, 1995)'

_exptl_special_details           
;
?
;

_diffrn_ambient_temperature      293(2)
_diffrn_radiation_wavelength     0.71073
_diffrn_radiation_type           MoK\a
_diffrn_radiation_source         'rotating anode'
_diffrn_radiation_monochromator  graphite
_diffrn_measurement_device_type  'Rigaku RAXIS-RAPID'
_diffrn_measurement_method       '\w scan'
_diffrn_detector_area_resol_mean 10
_diffrn_standards_number         0
_diffrn_standards_interval_count 0
_diffrn_standards_interval_time  ?
_diffrn_standards_decay_%        ?
_diffrn_reflns_number            57601
_diffrn_reflns_av_R_equivalents  0.0888
_diffrn_reflns_av_sigmaI/netI    0.0814
_diffrn_reflns_limit_h_min       -30
_diffrn_reflns_limit_h_max       30
_diffrn_reflns_limit_k_min       -23
_diffrn_reflns_limit_k_max       23
_diffrn_reflns_limit_l_min       -15
_diffrn_reflns_limit_l_max       18
_diffrn_reflns_theta_min         3.01
_diffrn_reflns_theta_max         27.48
_reflns_number_total             13708
_reflns_number_gt                7025
_reflns_threshold_expression     I>2\s(I)

_computing_data_collection       'PROCESS-AUTO (Rigaku, 1998)'
_computing_cell_refinement       'PROCESS-AUTO '
_computing_data_reduction        'PROCESS-AUTO '
_computing_structure_solution    'SHELXS-97 (Sheldrick, 1997)'
_computing_structure_refinement  'SHELXL-97 (Sheldrick, 1997)'
_computing_molecular_graphics    'SHELXTL-PLUS (Sheldrick, 1990)'
_computing_publication_material  SHELXL-97

_refine_special_details          
;
Refinement of F2^ against ALL reflections. The weighted R-factor wR and
goodness of fit S are based on F2^, conventional R-factors R are based
on F, with F set to zero for negative F2^. The threshold expression of
F2^ > 2sigma(F2^) is used only for calculating R-factors(gt) etc. and is
not relevant to the choice of reflections for refinement. R-factors based
on F2^ are statistically about twice as large as those based on F, and R-
factors based on ALL data will be even larger.
;

_refine_ls_structure_factor_coef Fsqd
_refine_ls_matrix_type           full
_refine_ls_weighting_scheme      calc
_refine_ls_weighting_details     
'calc w=1/[\s2^(Fo2^)+(0.0861P)2^+0.4768P] where P=(Fo2^+2Fc2^)/3'
_atom_sites_solution_primary     direct
_atom_sites_solution_secondary   difmap
_atom_sites_solution_hydrogens   geom
_refine_ls_hydrogen_treatment    constr
_refine_ls_extinction_method     none
_refine_ls_extinction_coef       ?
_refine_ls_number_reflns         13708
_refine_ls_number_parameters     750
_refine_ls_number_restraints     5
_refine_ls_R_factor_all          0.1574
_refine_ls_R_factor_gt           0.0800
_refine_ls_wR_factor_ref         0.2074
_refine_ls_wR_factor_gt          0.1811
_refine_ls_goodness_of_fit_ref   1.122
_refine_ls_restrained_S_all      1.129
_refine_ls_shift/su_max          0.001
_refine_ls_shift/su_mean         0.000

loop_
_atom_site_label
_atom_site_type_symbol
_atom_site_fract_x
_atom_site_fract_y
_atom_site_fract_z
_atom_site_U_iso_or_equiv
_atom_site_adp_type
_atom_site_occupancy
_atom_site_symmetry_multiplicity
_atom_site_calc_flag
_atom_site_refinement_flags
_atom_site_disorder_assembly
_atom_site_disorder_group
C1 C 0.56155(18) -0.0735(2) -0.5227(3) 0.0477(10) Uani 1 1 d . . .
H1 H 0.5271 -0.0497 -0.5489 0.057 Uiso 1 1 calc R . .
C2 C 0.56147(19) -0.1490(2) -0.5180(3) 0.0514(11) Uani 1 1 d . . .
H2 H 0.5274 -0.1749 -0.5406 0.062 Uiso 1 1 calc R . .
C3 C 0.61126(19) -0.1852(2) -0.4802(3) 0.0501(11) Uani 1 1 d . . .
H3 H 0.6118 -0.2358 -0.4764 0.060 Uiso 1 1 calc R . .
C4 C 0.66158(18) -0.1444(2) -0.4475(3) 0.0423(9) Uani 1 1 d . . .
C5 C 0.65845(17) -0.0698(2) -0.4543(3) 0.0396(9) Uani 1 1 d . . .
C6 C 0.70972(18) -0.0240(2) -0.4217(3) 0.0450(10) Uani 1 1 d . . .
C7 C 0.76249(19) -0.0553(2) -0.3804(3) 0.0515(11) Uani 1 1 d . . .
C8 C 0.8100(2) -0.0082(3) -0.3512(4) 0.0752(16) Uani 1 1 d . . .
H8 H 0.8462 -0.0267 -0.3232 0.090 Uiso 1 1 calc R . .
C9 C 0.8022(2) 0.0655(3) -0.3646(5) 0.0885(19) Uani 1 1 d . . .
H9 H 0.8330 0.0976 -0.3450 0.106 Uiso 1 1 calc R . .
C10 C 0.7488(2) 0.0914(3) -0.4070(4) 0.0745(15) Uani 1 1 d . . .
H10 H 0.7444 0.1414 -0.4166 0.089 Uiso 1 1 calc R . .
C11 C 0.76711(19) -0.1342(2) -0.3716(3) 0.0496(11) Uani 1 1 d . . .
C12 C 0.71740(19) -0.1788(2) -0.4069(3) 0.0472(10) Uani 1 1 d . . .
C13 C 0.7723(2) -0.2801(3) -0.3637(3) 0.0597(13) Uani 1 1 d . . .
C14 C 0.7771(3) -0.3571(3) -0.3607(4) 0.0718(15) Uani 1 1 d . . .
H14 H 0.7456 -0.3865 -0.3863 0.086 Uiso 1 1 calc R . .
C15 C 0.8299(3) -0.3873(3) -0.3188(4) 0.0843(19) Uani 1 1 d . . .
H15 H 0.8343 -0.4377 -0.3168 0.101 Uiso 1 1 calc R . .
C16 C 0.8761(3) -0.3435(4) -0.2798(4) 0.0859(19) Uani 1 1 d . . .
H16 H 0.9110 -0.3651 -0.2512 0.103 Uiso 1 1 calc R . .
C17 C 0.8722(2) -0.2711(3) -0.2820(4) 0.0756(16) Uani 1 1 d . . .
H17 H 0.9042 -0.2431 -0.2545 0.091 Uiso 1 1 calc R . .
C18 C 0.8201(2) -0.2363(3) -0.3254(3) 0.0575(12) Uani 1 1 d . . .
C19 C 0.7456(3) 0.0519(3) -0.1395(4) 0.0845(17) Uani 1 1 d . . .
H19 H 0.7459 0.1026 -0.1387 0.101 Uiso 1 1 calc R . .
C20 C 0.6958(3) 0.0161(4) -0.1876(4) 0.095(2) Uani 1 1 d . . .
H20 H 0.6639 0.0426 -0.2187 0.113 Uiso 1 1 calc R . .
C21 C 0.6950(2) -0.0582(3) -0.1878(4) 0.0753(15) Uani 1 1 d . . .
H21 H 0.6620 -0.0829 -0.2182 0.090 Uiso 1 1 calc R . .
C22 C 0.7430(2) -0.0971(3) -0.1429(3) 0.0544(11) Uani 1 1 d . . .
C23 C 0.7914(2) -0.0573(2) -0.0995(3) 0.0516(11) Uani 1 1 d . . .
C24 C 0.84491(18) -0.0943(2) -0.0561(3) 0.0434(9) Uani 1 1 d . . .
C25 C 0.84775(17) -0.1690(2) -0.0565(3) 0.0430(9) Uani 1 1 d . . .
C26 C 0.90165(19) -0.2018(2) -0.0181(3) 0.0514(11) Uani 1 1 d . . .
H26 H 0.9058 -0.2523 -0.0178 0.062 Uiso 1 1 calc R . .
C27 C 0.9478(2) -0.1580(2) 0.0187(3) 0.0562(12) Uani 1 1 d . . .
H27 H 0.9838 -0.1786 0.0443 0.067 Uiso 1 1 calc R . .
C28 C 0.94085(19) -0.0829(2) 0.0178(3) 0.0528(11) Uani 1 1 d . . .
H28 H 0.9725 -0.0538 0.0436 0.063 Uiso 1 1 calc R . .
C29 C 0.79656(19) -0.2119(2) -0.0959(3) 0.0486(11) Uani 1 1 d . . .
C30 C 0.74484(19) -0.1766(3) -0.1392(3) 0.0505(11) Uani 1 1 d . . .
C31 C 0.7005(2) -0.2868(3) -0.1716(3) 0.0616(13) Uani 1 1 d . . .
C32 C 0.6509(2) -0.3296(4) -0.2113(4) 0.0806(16) Uani 1 1 d . . .
H32 H 0.6168 -0.3072 -0.2418 0.097 Uiso 1 1 calc R . .
C33 C 0.6541(3) -0.4033(4) -0.2041(4) 0.091(2) Uani 1 1 d . . .
H33 H 0.6216 -0.4312 -0.2296 0.109 Uiso 1 1 calc R . .
C34 C 0.7050(3) -0.4382(3) -0.1593(4) 0.0798(17) Uani 1 1 d . . .
H34 H 0.7056 -0.4887 -0.1542 0.096 Uiso 1 1 calc R . .
C35 C 0.7536(3) -0.3993(3) -0.1230(3) 0.0684(14) Uani 1 1 d . . .
H35 H 0.7877 -0.4230 -0.0949 0.082 Uiso 1 1 calc R . .
C36 C 0.7517(2) -0.3218(3) -0.1287(3) 0.0569(12) Uani 1 1 d . . .
C37 C 0.9174(2) 0.0794(2) 0.1464(4) 0.0588(12) Uani 1 1 d . . .
C38 C 0.9127(2) 0.0891(3) 0.3168(4) 0.0699(14) Uani 1 1 d . . .
H38 H 0.8735 0.0756 0.3027 0.084 Uiso 1 1 calc R . .
C39 C 0.9459(2) 0.0922(2) 0.2465(3) 0.0595(12) Uani 1 1 d . . .
C40 C 0.9382(3) 0.1063(3) 0.4079(4) 0.0774(16) Uani 1 1 d . . .
H40 H 0.9159 0.1047 0.4551 0.093 Uiso 1 1 calc R . .
C41 C 1.0033(2) 0.1123(2) 0.2687(4) 0.0615(13) Uani 1 1 d . . .
H41 H 1.0256 0.1155 0.2217 0.074 Uiso 1 1 calc R . .
C42 C 1.0285(2) 0.1279(2) 0.3590(4) 0.0636(13) Uani 1 1 d . . .
H42 H 1.0679 0.1402 0.3733 0.076 Uiso 1 1 calc R . .
C43 C 0.9958(2) 0.1255(3) 0.4290(4) 0.0639(13) Uani 1 1 d . . .
C44 C 0.9936(2) 0.1447(3) 0.5922(3) 0.0691(15) Uani 1 1 d . . .
C45 C 0.9883(2) 0.0795(3) 0.6371(4) 0.0703(15) Uani 1 1 d . . .
H45 H 1.0017 0.0363 0.6150 0.084 Uiso 1 1 calc R . .
C46 C 0.9627(2) 0.0799(2) 0.7151(3) 0.0599(12) Uani 1 1 d . . .
H46 H 0.9592 0.0364 0.7466 0.072 Uiso 1 1 calc R . .
C47 C 0.9421(2) 0.1439(2) 0.7477(3) 0.0545(11) Uani 1 1 d . . .
C48 C 0.9132(2) 0.1444(3) 0.8309(3) 0.0556(12) Uani 1 1 d . . .
C49 C 0.9483(2) 0.2083(3) 0.7006(4) 0.0721(15) Uani 1 1 d . . .
H49 H 0.9355 0.2519 0.7227 0.086 Uiso 1 1 calc R . .
C50 C 0.9733(3) 0.2086(3) 0.6213(4) 0.0780(16) Uani 1 1 d . . .
H50 H 0.9763 0.2516 0.5885 0.094 Uiso 1 1 calc R . .
C51 C 0.5674(2) 0.0929(2) 0.3380(3) 0.0440(10) Uani 1 1 d . . .
C52 C 0.53715(19) 0.1040(2) 0.2401(3) 0.0436(10) Uani 1 1 d . . .
C53 C 0.5693(2) 0.1038(2) 0.1684(3) 0.0549(11) Uani 1 1 d . . .
H53 H 0.6093 0.0947 0.1823 0.066 Uiso 1 1 calc R . .
C54 C 0.5432(2) 0.1169(3) 0.0768(3) 0.0596(12) Uani 1 1 d . . .
H54 H 0.5652 0.1164 0.0293 0.072 Uiso 1 1 calc R . .
C55 C 0.4844(2) 0.1307(2) 0.0566(3) 0.0488(11) Uani 1 1 d . . .
C56 C 0.4514(2) 0.1319(2) 0.1270(3) 0.0552(11) Uani 1 1 d . . .
H56 H 0.4114 0.1413 0.1130 0.066 Uiso 1 1 calc R . .
C57 C 0.4784(2) 0.1191(2) 0.2177(3) 0.0519(11) Uani 1 1 d . . .
H57 H 0.4564 0.1206 0.2651 0.062 Uiso 1 1 calc R . .
C58 C 0.4876(2) 0.1452(3) -0.1052(3) 0.0546(12) Uani 1 1 d . . .
C59 C 0.4951(2) 0.0815(2) -0.1511(3) 0.0601(12) Uani 1 1 d . . .
H59 H 0.4796 0.0381 -0.1331 0.072 Uiso 1 1 calc R . .
C60 C 0.5256(2) 0.0824(2) -0.2240(3) 0.0535(11) Uani 1 1 d . . .
H60 H 0.5308 0.0393 -0.2553 0.064 Uiso 1 1 calc R . .
C61 C 0.5482(2) 0.1461(2) -0.2505(3) 0.0505(11) Uani 1 1 d . . .
C62 C 0.5807(2) 0.1492(2) -0.3296(4) 0.0660(14) Uani 1 1 d . . .
C63 C 0.5395(3) 0.2090(2) -0.2040(4) 0.0738(16) Uani 1 1 d . . .
H63 H 0.5540 0.2528 -0.2226 0.089 Uiso 1 1 calc R . .
C64 C 0.5096(3) 0.2087(3) -0.1302(4) 0.0732(15) Uani 1 1 d . . .
H64 H 0.5048 0.2516 -0.0982 0.088 Uiso 1 1 calc R . .
C65 C 0.6471(6) 0.0046(7) 0.0113(10) 0.111(5) Uani 0.50 1 d P . .
H65A H 0.6574 -0.0363 0.0523 0.166 Uiso 0.50 1 calc PR . .
H65B H 0.6527 -0.0079 -0.0507 0.166 Uiso 0.50 1 calc PR . .
H65C H 0.6068 0.0171 0.0097 0.166 Uiso 0.50 1 calc PR . .
C66 C 0.7303(8) 0.0667(9) 0.1305(12) 0.138(6) Uiso 0.50 1 d P . .
H66A H 0.7317 0.0191 0.1586 0.208 Uiso 0.50 1 calc PR . .
H66B H 0.7215 0.1024 0.1743 0.208 Uiso 0.50 1 calc PR . .
H66C H 0.7676 0.0776 0.1140 0.208 Uiso 0.50 1 calc PR . .
C67 C 0.6825(11) 0.1336(8) 0.008(2) 0.203(15) Uani 0.50 1 d P . .
H67 H 0.7096 0.1648 0.0434 0.244 Uiso 0.50 1 calc PR . .
N1 N 0.60855(14) -0.03412(18) -0.4915(2) 0.0414(8) Uani 1 1 d . . .
N2 N 0.70260(16) 0.04841(19) -0.4354(3) 0.0532(9) Uani 1 1 d . . .
N3 N 0.81742(17) -0.1635(2) -0.3302(3) 0.0599(10) Uani 1 1 d . . .
N4 N 0.71980(17) -0.25093(19) -0.4047(3) 0.0544(10) Uani 1 1 d . . .
N5 N 0.79234(18) 0.0168(2) -0.0951(3) 0.0619(10) Uani 1 1 d . . .
N6 N 0.89065(16) -0.05117(18) -0.0187(2) 0.0485(9) Uani 1 1 d . . .
N7 N 0.80010(16) -0.28393(19) -0.0900(2) 0.0525(9) Uani 1 1 d . . .
N8 N 0.69659(16) -0.2130(2) -0.1774(3) 0.0628(11) Uani 1 1 d . . .
N9 N 0.6849(4) 0.0680(6) 0.0463(8) 0.093(3) Uani 0.50 1 d P . .
O1 O 0.58544(14) 0.09299(15) -0.3752(2) 0.0554(8) Uani 1 1 d . . .
O2 O 0.5990(3) 0.2068(2) -0.3491(5) 0.209(4) Uani 1 1 d D . .
O1W O 0.64099(17) 0.19315(17) -0.4953(2) 0.0755(10) Uani 1 1 d . . .
O2W O 0.83263(18) 0.16799(19) -0.0205(3) 0.0891(12) Uani 1 1 d . . .
O4 O 0.62129(13) 0.08004(16) 0.3557(2) 0.0570(8) Uani 1 1 d . . .
O3 O 0.53910(13) 0.09669(16) 0.4041(2) 0.0542(8) Uani 1 1 d . . .
O6 O 0.8996(2) 0.20272(19) 0.8623(3) 0.1009(15) Uani 1 1 d . . .
O5 O 0.90534(16) 0.08290(17) 0.8660(2) 0.0657(9) Uani 1 1 d . . .
O8 O 0.86520(16) 0.05626(17) 0.1281(2) 0.0668(9) Uani 1 1 d . . .
O9 O 0.45466(14) 0.14441(18) -0.0327(2) 0.0644(9) Uani 1 1 d . . .
O10 O 1.02423(16) 0.1454(2) 0.5167(3) 0.0860(12) Uani 1 1 d . . .
O7 O 0.94565(16) 0.09036(18) 0.0827(2) 0.0692(9) Uani 1 1 d . . .
O11 O 0.6592(8) 0.1602(8) -0.0492(10) 0.203(8) Uani 0.50 1 d P . .
Co1 Co 0.61740(3) 0.08164(3) -0.49652(4) 0.04615(19) Uani 1 1 d . . .
Co2 Co 0.87102(3) 0.06251(3) -0.01916(5) 0.0593(2) Uani 1 1 d . . .
O12 O 0.8015(4) 0.2395(4) 0.1323(6) 0.076(2) Uani 0.50 1 d P . .
N10 N 0.7598(7) 0.2068(9) 0.2634(10) 0.159(6) Uiso 0.50 1 d PD . .
C69 C 0.6972(8) 0.2373(17) 0.2710(12) 0.326(18) Uiso 0.50 1 d PD . .
H99A H 0.6809 0.2088 0.3155 0.489 Uiso 0.50 1 calc PR . .
H99B H 0.6720 0.2345 0.2109 0.489 Uiso 0.50 1 calc PR . .
H99C H 0.7006 0.2872 0.2913 0.489 Uiso 0.50 1 calc PR . .
C68 C 0.7989(5) 0.2221(6) 0.2031(12) 0.093(5) Uani 0.50 1 d PD . .
H98 H 0.8368 0.2145 0.2356 0.112 Uiso 0.50 1 calc PR . .
C70 C 0.7807(10) 0.1702(13) 0.3759(16) 0.229(11) Uiso 0.50 1 d PD . .
H10A H 0.7466 0.1640 0.4041 0.343 Uiso 0.50 1 calc PR . .
H10B H 0.8076 0.2027 0.4135 0.343 Uiso 0.50 1 calc PR . .
H10C H 0.7991 0.1238 0.3717 0.343 Uiso 0.50 1 calc PR . .

loop_
_atom_site_aniso_label
_atom_site_aniso_U_11
_atom_site_aniso_U_22
_atom_site_aniso_U_33
_atom_site_aniso_U_23
_atom_site_aniso_U_13
_atom_site_aniso_U_12
C1 0.033(2) 0.054(2) 0.053(3) 0.004(2) 0.003(2) 0.0013(19)
C2 0.038(3) 0.053(3) 0.060(3) 0.000(2) 0.002(2) -0.007(2)
C3 0.050(3) 0.047(2) 0.054(3) 0.009(2) 0.011(2) 0.000(2)
C4 0.041(2) 0.048(2) 0.038(2) 0.0039(18) 0.0055(19) 0.0097(19)
C5 0.036(2) 0.048(2) 0.034(2) 0.0011(18) 0.0040(18) 0.0018(18)
C6 0.040(2) 0.054(2) 0.039(2) -0.001(2) 0.0032(19) -0.001(2)
C7 0.044(3) 0.057(3) 0.050(3) 0.001(2) 0.000(2) 0.004(2)
C8 0.048(3) 0.077(4) 0.089(4) 0.009(3) -0.018(3) -0.006(3)
C9 0.053(4) 0.076(4) 0.123(5) -0.002(3) -0.022(3) -0.014(3)
C10 0.062(4) 0.061(3) 0.090(4) -0.004(3) -0.016(3) -0.009(3)
C11 0.044(3) 0.063(3) 0.041(2) 0.010(2) 0.004(2) 0.011(2)
C12 0.047(3) 0.056(3) 0.040(2) 0.010(2) 0.011(2) 0.012(2)
C13 0.070(3) 0.067(3) 0.047(3) 0.015(2) 0.023(3) 0.028(3)
C14 0.085(4) 0.064(3) 0.070(3) 0.013(3) 0.024(3) 0.025(3)
C15 0.110(5) 0.075(4) 0.076(4) 0.028(3) 0.036(4) 0.046(4)
C16 0.079(4) 0.109(5) 0.072(4) 0.027(4) 0.019(3) 0.045(4)
C17 0.063(4) 0.095(4) 0.070(4) 0.027(3) 0.015(3) 0.030(3)
C18 0.050(3) 0.081(3) 0.044(3) 0.013(2) 0.014(2) 0.018(3)
C19 0.081(4) 0.076(4) 0.090(4) 0.015(3) -0.005(4) 0.025(3)
C20 0.084(5) 0.097(5) 0.090(5) 0.011(4) -0.018(4) 0.032(4)
C21 0.059(3) 0.090(4) 0.068(4) 0.008(3) -0.014(3) 0.007(3)
C22 0.046(3) 0.072(3) 0.043(3) 0.005(2) 0.002(2) 0.005(2)
C23 0.049(3) 0.061(3) 0.044(3) 0.007(2) 0.007(2) 0.003(2)
C24 0.037(2) 0.055(2) 0.038(2) -0.0006(19) 0.0055(18) 0.0017(19)
C25 0.038(2) 0.051(2) 0.041(2) -0.0020(19) 0.0096(19) -0.0062(19)
C26 0.042(3) 0.053(2) 0.059(3) -0.004(2) 0.008(2) 0.002(2)
C27 0.039(3) 0.061(3) 0.066(3) -0.006(2) 0.002(2) 0.002(2)
C28 0.042(3) 0.060(3) 0.055(3) -0.005(2) 0.004(2) -0.009(2)
C29 0.045(3) 0.065(3) 0.036(2) -0.003(2) 0.008(2) -0.007(2)
C30 0.045(3) 0.069(3) 0.037(2) 0.001(2) 0.007(2) -0.003(2)
C31 0.058(3) 0.080(4) 0.048(3) -0.007(3) 0.013(3) -0.022(3)
C32 0.061(4) 0.109(5) 0.069(4) -0.011(3) 0.004(3) -0.029(3)
C33 0.098(5) 0.106(5) 0.069(4) -0.020(4) 0.016(4) -0.052(4)
C34 0.106(5) 0.077(4) 0.062(4) -0.017(3) 0.029(4) -0.036(4)
C35 0.082(4) 0.072(3) 0.057(3) -0.011(3) 0.027(3) -0.029(3)
C36 0.061(3) 0.069(3) 0.045(3) -0.007(2) 0.019(2) -0.017(3)
C37 0.064(3) 0.047(2) 0.066(3) -0.005(2) 0.015(3) -0.010(2)
C38 0.061(3) 0.081(3) 0.070(4) -0.005(3) 0.0