####################################################################### 
# 
# This file contains crystal structure data downloaded from the 
# Cambridge Structural Database (CSD) hosted by the Cambridge 
# Crystallographic Data Centre (CCDC).
# 
# Full information about CCDC data access policies and citation 
# guidelines are available at http://www.ccdc.cam.ac.uk/access/V1 
# 
# Audit and citation data items may have been added by the CCDC. 
# Please retain this information to preserve the provenance of 
# this file and to allow appropriate attribution of the data. 
# 
#######################################################################

data_compound-1
_audit_block_doi                 10.5517/ccq1yym
_database_code_depnum_ccdc_archive 'CCDC 657291'
loop_
_citation_id
_citation_doi
_citation_year
1 10.1080/00958970802238523 2009
_audit_update_record             
;
2007-08-14 deposited with the CCDC.	2024-07-10 downloaded from the CCDC.
;

_audit_creation_method           SHELXL-97
_chemical_name_systematic        
;
?
;
_chemical_name_common            ?
_chemical_melting_point          ?
_chemical_formula_moiety         'C26 H19 Cd Cl N4 O4'
_chemical_formula_sum            'C44 H34 Cd2 Cl2 N8 O5'
_chemical_formula_weight         1050.49

loop_
_atom_type_symbol
_atom_type_description
_atom_type_scat_dispersion_real
_atom_type_scat_dispersion_imag
_atom_type_scat_source
C C 0.0033 0.0016 'International Tables Vol C Tables 4.2.6.8 and 6.1.1.4'
H H 0.0000 0.0000 'International Tables Vol C Tables 4.2.6.8 and 6.1.1.4'
N N 0.0061 0.0033 'International Tables Vol C Tables 4.2.6.8 and 6.1.1.4'
O O 0.0106 0.0060 'International Tables Vol C Tables 4.2.6.8 and 6.1.1.4'
Cd Cd -0.8075 1.2024 'International Tables Vol C Tables 4.2.6.8 and 6.1.1.4'
Cl Cl 0.1484 0.1585 'International Tables Vol C Tables 4.2.6.8 and 6.1.1.4'

_symmetry_cell_setting           Monoclinic
_symmetry_space_group_name_H-M   'P 21 21 21'
_symmetry_space_group_name_Hall  '-p 2ac 2ab'

loop_
_symmetry_equiv_pos_as_xyz
'x, y, z'
'-x+1/2, -y, z+1/2'
'-x, y+1/2, -z+1/2'
'x+1/2, -y+1/2, -z'

_cell_length_a                   13.9224(18)
_cell_length_b                   16.178(2)
_cell_length_c                   20.989(3)
_cell_angle_alpha                90.00
_cell_angle_beta                 90.00
_cell_angle_gamma                90.00
_cell_volume                     4727.6(10)
_cell_formula_units_Z            4
_cell_measurement_temperature    273(2)
_cell_measurement_reflns_used    9279
_cell_measurement_theta_min      2.16
_cell_measurement_theta_max      26.01

_exptl_crystal_description       block
_exptl_crystal_colour            yellow
_exptl_crystal_size_max          0.31
_exptl_crystal_size_mid          0.27
_exptl_crystal_size_min          0.21
_exptl_crystal_density_meas      ?
_exptl_crystal_density_diffrn    1.476
_exptl_crystal_density_method    'not measured'
_exptl_crystal_F_000             2096
_exptl_absorpt_coefficient_mu    1.063
_exptl_absorpt_correction_type   multi-scan
_exptl_absorpt_correction_T_min  0.712
_exptl_absorpt_correction_T_max  0.798
_exptl_absorpt_process_details   '(SAINT; Bruker, 1998)'

_exptl_special_details           
;
?
;

_diffrn_ambient_temperature      273(2)
_diffrn_radiation_wavelength     0.71073
_diffrn_radiation_type           MoK\a
_diffrn_radiation_source         'fine-focus sealed tube'
_diffrn_radiation_monochromator  graphite
_diffrn_measurement_device_type  'Bruker APEX CCD area detector'
_diffrn_measurement_method       '\f and \w scans'
_diffrn_detector_area_resol_mean ?
_diffrn_standards_number         ?
_diffrn_standards_interval_count ?
_diffrn_standards_interval_time  ?
_diffrn_standards_decay_%        ?
_diffrn_reflns_number            40756
_diffrn_reflns_av_R_equivalents  0.0960
_diffrn_reflns_av_sigmaI/netI    0.0907
_diffrn_reflns_limit_h_min       -17
_diffrn_reflns_limit_h_max       17
_diffrn_reflns_limit_k_min       -19
_diffrn_reflns_limit_k_max       19
_diffrn_reflns_limit_l_min       -25
_diffrn_reflns_limit_l_max       25
_diffrn_reflns_theta_min         2.16
_diffrn_reflns_theta_max         26.01
_reflns_number_total             9279
_reflns_number_gt                4937
_reflns_threshold_expression     >2sigma(I)

_computing_data_collection       'SMART (Bruker, 1998)'
_computing_cell_refinement       'SMART (Bruker, 1998)'
_computing_data_reduction        'SAINT (Bruker, 1998)'
_computing_structure_solution    'SHELXS97 (Sheldrick, 1997)'
_computing_structure_refinement  'SHELXL97 (Sheldrick, 1997)'
_computing_molecular_graphics    'SHELXTL (Bruker, 1998)'
_computing_publication_material  'SHELXTL (Bruker, 1998)'

_refine_special_details          
;
Refinement of F^2^ against ALL reflections. The weighted R-factor wR and
goodness of fit S are based on F^2^, conventional R-factors R are based
on F, with F set to zero for negative F^2^. The threshold expression of
F^2^ > 2sigma(F^2^) is used only for calculating R-factors(gt) etc. and is
not relevant to the choice of reflections for refinement. R-factors based
on F^2^ are statistically about twice as large as those based on F, and R-
factors based on ALL data will be even larger.
;

_refine_ls_structure_factor_coef Fsqd
_refine_ls_matrix_type           full
_refine_ls_weighting_scheme      calc
_refine_ls_weighting_details     
'calc w=1/[\s^2^(Fo^2^)+(0.1016P)^2^+0.0000P] where P=(Fo^2^+2Fc^2^)/3'
_atom_sites_solution_primary     direct
_atom_sites_solution_secondary   difmap
_atom_sites_solution_hydrogens   geom
_refine_ls_hydrogen_treatment    constr
_refine_ls_extinction_method     none
_refine_ls_extinction_coef       ?
_refine_ls_abs_structure_details 'Flack H D (1983), Acta Cryst. A39, 876-881'
_refine_ls_abs_structure_Flack   0.10(5)
_refine_ls_number_reflns         9279
_refine_ls_number_parameters     550
_refine_ls_number_restraints     0
_refine_ls_R_factor_all          0.1377
_refine_ls_R_factor_gt           0.0621
_refine_ls_wR_factor_ref         0.1944
_refine_ls_wR_factor_gt          0.1543
_refine_ls_goodness_of_fit_ref   0.982
_refine_ls_restrained_S_all      0.982
_refine_ls_shift/su_max          0.000
_refine_ls_shift/su_mean         0.000

loop_
_atom_site_label
_atom_site_type_symbol
_atom_site_fract_x
_atom_site_fract_y
_atom_site_fract_z
_atom_site_U_iso_or_equiv
_atom_site_adp_type
_atom_site_occupancy
_atom_site_symmetry_multiplicity
_atom_site_calc_flag
_atom_site_refinement_flags
_atom_site_disorder_assembly
_atom_site_disorder_group
C1 C 0.7206(9) 0.5077(7) 0.0444(5) 0.070(3) Uani 1 1 d . . .
H1 H 0.7234 0.4538 0.0596 0.083 Uiso 1 1 calc R . .
C2 C 0.7229(9) 0.5212(8) -0.0185(7) 0.085(4) Uani 1 1 d . . .
H2 H 0.7257 0.4763 -0.0462 0.102 Uiso 1 1 calc R . .
C3 C 0.7210(9) 0.6018(8) -0.0437(6) 0.069(3) Uani 1 1 d . . .
H3 H 0.7233 0.6108 -0.0874 0.083 Uiso 1 1 calc R . .
C4 C 0.7157(8) 0.6673(6) -0.0013(5) 0.056(3) Uani 1 1 d . . .
C5 C 0.7144(8) 0.7531(7) -0.0230(5) 0.061(3) Uani 1 1 d . . .
C6 C 0.7142(10) 0.8466(8) -0.1044(6) 0.076(3) Uani 1 1 d . . .
C7 C 0.7087(12) 0.8683(9) -0.1699(7) 0.103(4) Uani 1 1 d . . .
H7A H 0.6455 0.8532 -0.1856 0.124 Uiso 1 1 calc R . .
H7B H 0.7554 0.8355 -0.1932 0.124 Uiso 1 1 calc R . .
C8 C 0.725(2) 0.9549(14) -0.1845(10) 0.185(10) Uani 1 1 d . . .
H8A H 0.7879 0.9568 -0.2045 0.221 Uiso 1 1 calc R . .
H8B H 0.6792 0.9684 -0.2177 0.221 Uiso 1 1 calc R . .
C9 C 0.723(2) 1.0153(12) -0.1466(9) 0.206(13) Uani 1 1 d . . .
H9A H 0.6639 1.0449 -0.1541 0.247 Uiso 1 1 calc R . .
H9B H 0.7753 1.0521 -0.1586 0.247 Uiso 1 1 calc R . .
C10 C 0.7312(11) 1.0010(8) -0.0758(8) 0.108(5) Uani 1 1 d . . .
H10A H 0.6823 1.0334 -0.0543 0.130 Uiso 1 1 calc R . .
H10B H 0.7934 1.0203 -0.0613 0.130 Uiso 1 1 calc R . .
C11 C 0.7193(10) 0.9096(9) -0.0573(7) 0.086(4) Uani 1 1 d . . .
C12 C 0.7129(8) 0.8165(6) 0.0219(6) 0.062(3) Uani 1 1 d . . .
C13 C 0.7086(7) 0.7977(6) 0.0927(5) 0.054(2) Uani 1 1 d . . .
C14 C 0.6979(8) 0.8586(6) 0.1370(6) 0.064(3) Uani 1 1 d . . .
H14 H 0.6946 0.9138 0.1247 0.077 Uiso 1 1 calc R . .
C15 C 0.6923(9) 0.8378(6) 0.1977(6) 0.074(3) Uani 1 1 d . . .
H15 H 0.6851 0.8778 0.2292 0.089 Uiso 1 1 calc R . .
C16 C 0.6972(9) 0.7553(6) 0.2132(5) 0.075(3) Uani 1 1 d . . .
H16 H 0.6964 0.7414 0.2561 0.090 Uiso 1 1 calc R . .
C17 C 0.7119(7) 0.7140(6) 0.1126(5) 0.049(2) Uani 1 1 d . . .
C18 C 0.7140(8) 0.6491(5) 0.0644(5) 0.054(2) Uani 1 1 d . . .
C19 C 0.5523(9) 0.3363(7) 0.2989(6) 0.077(3) Uani 1 1 d . . .
H19 H 0.5595 0.3528 0.2568 0.092 Uiso 1 1 calc R . .
C20 C 0.5495(9) 0.2500(8) 0.3124(7) 0.085(4) Uani 1 1 d . . .
H20 H 0.5505 0.2117 0.2794 0.101 Uiso 1 1 calc R . .
C21 C 0.5452(8) 0.2245(6) 0.3738(6) 0.066(3) Uani 1 1 d . . .
H21 H 0.5454 0.1684 0.3836 0.079 Uiso 1 1 calc R . .
C22 C 0.5405(7) 0.2839(6) 0.4221(5) 0.056(3) Uani 1 1 d . . .
C23 C 0.5349(7) 0.2627(7) 0.4891(5) 0.056(3) Uani 1 1 d . . .
C24 C 0.5313(8) 0.1638(7) 0.5618(7) 0.072(3) Uani 1 1 d . . .
C25 C 0.5314(10) 0.0729(7) 0.5831(7) 0.095(4) Uani 1 1 d . . .
H25A H 0.5958 0.0511 0.5781 0.114 Uiso 1 1 calc R . .
H25B H 0.4896 0.0419 0.5548 0.114 Uiso 1 1 calc R . .
C26 C 0.4986(11) 0.0580(9) 0.6524(8) 0.109(5) Uani 1 1 d . . .
H26A H 0.4293 0.0634 0.6544 0.131 Uiso 1 1 calc R . .
H26B H 0.5146 0.0016 0.6642 0.131 Uiso 1 1 calc R . .
C27 C 0.5419(13) 0.1148(10) 0.6996(8) 0.121(6) Uani 1 1 d . . .
H27A H 0.6107 0.1054 0.7011 0.146 Uiso 1 1 calc R . .
H27B H 0.5160 0.1025 0.7414 0.146 Uiso 1 1 calc R . .
C28 C 0.5239(12) 0.2034(8) 0.6846(6) 0.103(5) Uani 1 1 d . . .
H28A H 0.5704 0.2366 0.7076 0.123 Uiso 1 1 calc R . .
H28B H 0.4607 0.2180 0.7005 0.123 Uiso 1 1 calc R . .
C29 C 0.5293(8) 0.2267(8) 0.6118(6) 0.077(4) Uani 1 1 d . . .
C30 C 0.5324(8) 0.3251(6) 0.5350(5) 0.053(2) Uani 1 1 d . . .
C31 C 0.5299(8) 0.4112(6) 0.5170(5) 0.056(3) Uani 1 1 d . . .
C32 C 0.5276(9) 0.4753(7) 0.5607(5) 0.071(3) Uani 1 1 d . . .
H32 H 0.5252 0.4638 0.6041 0.085 Uiso 1 1 calc R . .
C33 C 0.5289(12) 0.5545(8) 0.5403(6) 0.099(4) Uani 1 1 d . . .
H33 H 0.5310 0.5981 0.5691 0.118 Uiso 1 1 calc R . .
C34 C 0.5271(11) 0.5689(7) 0.4758(5) 0.083(4) Uani 1 1 d . . .
H34 H 0.5230 0.6233 0.4618 0.099 Uiso 1 1 calc R . .
C35 C 0.5358(8) 0.4324(6) 0.4531(5) 0.056(3) Uani 1 1 d . . .
C36 C 0.5414(8) 0.3685(6) 0.4046(6) 0.060(3) Uani 1 1 d . . .
C37 C 0.3630(10) 0.6194(7) 0.3368(5) 0.071(3) Uani 1 1 d . . .
C38 C 0.2718(9) 0.6667(6) 0.3396(5) 0.067(3) Uani 1 1 d . . .
C39 C 0.1838(12) 0.6276(8) 0.3519(7) 0.108(5) Uani 1 1 d . . .
H39 H 0.1829 0.5709 0.3591 0.129 Uiso 1 1 calc R . .
C40 C 0.2697(8) 0.7510(6) 0.3285(5) 0.060(3) Uani 1 1 d . . .
H40 H 0.3267 0.7785 0.3191 0.072 Uiso 1 1 calc R . .
C41 C 0.1864(9) 0.7947(6) 0.3310(6) 0.070(3) Uani 1 1 d . . .
C42 C 0.1013(14) 0.7536(9) 0.3412(8) 0.125(6) Uani 1 1 d . . .
H42 H 0.0433 0.7821 0.3399 0.150 Uiso 1 1 calc R . .
C43 C 0.1026(14) 0.6688(10) 0.3534(10) 0.151(9) Uani 1 1 d . . .
H43 H 0.0456 0.6414 0.3628 0.181 Uiso 1 1 calc R . .
C44 C 0.1839(12) 0.8846(8) 0.3181(6) 0.082(4) Uani 1 1 d . . .
N1 N 0.7144(7) 0.5708(5) 0.0859(4) 0.060(2) Uani 1 1 d . . .
N2 N 0.7029(6) 0.6958(5) 0.1725(4) 0.058(2) Uani 1 1 d . . .
N3 N 0.7145(7) 0.7704(6) -0.0855(4) 0.068(2) Uani 1 1 d . . .
N4 N 0.7199(7) 0.8953(5) 0.0039(5) 0.071(3) Uani 1 1 d . . .
N5 N 0.5456(7) 0.3921(5) 0.3416(4) 0.063(2) Uani 1 1 d . . .
N6 N 0.5309(7) 0.5107(5) 0.4331(4) 0.067(2) Uani 1 1 d . . .
N7 N 0.5353(7) 0.1807(5) 0.5022(4) 0.062(2) Uani 1 1 d . . .
N8 N 0.5331(7) 0.3063(6) 0.5970(5) 0.070(3) Uani 1 1 d . . .
O1 O 0.3601(6) 0.5422(5) 0.3340(4) 0.083(2) Uani 1 1 d . . .
O2 O 0.4411(6) 0.6563(5) 0.3360(4) 0.074(2) Uani 1 1 d . . .
O3 O 0.1031(7) 0.9227(5) 0.3139(5) 0.100(3) Uani 1 1 d . . .
O4 O 0.2611(6) 0.9192(4) 0.3117(5) 0.086(3) Uani 1 1 d . . .
O1W O 0.8816(5) 0.5795(5) 0.2108(4) 0.085(2) Uani 1 1 d . . .
HW12 H 0.8906 0.6282 0.2306 0.128 Uiso 1 1 d R . .
HW11 H 0.9095 0.5809 0.1722 0.128 Uiso 1 1 d R . .
Cd1 Cd 0.71332(6) 0.55468(4) 0.19856(4) 0.0648(3) Uani 1 1 d . . .
Cd2 Cd 0.52769(7) 0.53278(5) 0.32267(4) 0.0719(3) Uani 1 1 d . . .
Cl1 Cl 0.5268(2) 0.52768(18) 0.20126(14) 0.0758(7) Uani 1 1 d . . .
Cl2 Cl 0.7042(3) 0.5763(2) 0.32050(16) 0.0954(10) Uani 1 1 d . . .

loop_
_atom_site_aniso_label
_atom_site_aniso_U_11
_atom_site_aniso_U_22
_atom_site_aniso_U_33
_atom_site_aniso_U_23
_atom_site_aniso_U_13
_atom_site_aniso_U_12
C1 0.095(9) 0.055(6) 0.058(7) -0.018(5) -0.005(7) -0.003(7)
C2 0.074(8) 0.075(9) 0.104(11) -0.048(8) 0.015(8) -0.003(7)
C3 0.058(7) 0.081(8) 0.067(8) -0.007(6) -0.005(7) -0.005(7)
C4 0.050(6) 0.056(6) 0.062(7) -0.010(5) -0.010(6) 0.004(5)
C5 0.036(6) 0.071(7) 0.077(9) -0.006(6) 0.002(6) -0.003(6)
C6 0.087(9) 0.079(8) 0.062(8) 0.020(7) 0.002(7) 0.010(8)
C7 0.111(11) 0.112(11) 0.086(10) 0.015(9) -0.005(9) 0.015(10)
C8 0.32(3) 0.133(17) 0.105(15) 0.063(14) 0.006(18) -0.01(2)
C9 0.44(4) 0.083(12) 0.089(13) 0.028(10) 0.06(2) 0.01(2)
C10 0.116(12) 0.077(9) 0.131(13) 0.039(9) 0.002(10) 0.000(8)
C11 0.083(9) 0.104(10) 0.071(9) 0.042(8) 0.013(8) 0.008(8)
C12 0.047(6) 0.053(6) 0.085(8) 0.004(5) -0.001(6) -0.001(6)
C13 0.047(6) 0.045(5) 0.069(7) -0.006(5) 0.006(6) -0.010(5)
C14 0.067(8) 0.051(6) 0.074(8) -0.006(5) -0.001(6) -0.004(5)
C15 0.105(10) 0.046(6) 0.071(8) -0.016(6) 0.004(7) 0.000(6)
C16 0.110(10) 0.049(6) 0.066(8) -0.001(5) -0.005(7) 0.002(6)
C17 0.045(6) 0.048(6) 0.055(7) 0.001(4) 0.007(5) -0.005(5)
C18 0.053(6) 0.039(5) 0.070(7) 0.002(5) 0.007(6) 0.004(5)
C19 0.104(10) 0.078(8) 0.049(7) -0.010(6) 0.011(6) 0.002(7)
C20 0.103(10) 0.074(8) 0.077(10) -0.019(7) 0.009(8) 0.003(7)
C21 0.060(7) 0.046(6) 0.091(9) -0.012(6) -0.012(6) -0.004(5)
C22 0.043(6) 0.059(6) 0.066(7) -0.003(5) 0.001(5) 0.001(5)
C23 0.037(6) 0.069(7) 0.063(7) 0.017(5) -0.009(5) -0.005(5)
C24 0.040(6) 0.056(7) 0.119(11) 0.014(7) 0.002(7) 0.004(6)
C25 0.093(9) 0.057(7) 0.135(13) 0.036(7) 0.005(9) 0.010(7)
C26 0.106(11) 0.083(10) 0.139(14) 0.053(10) 0.009(10) 0.001(9)
C27 0.137(14) 0.118(12) 0.109(12) 0.061(11) -0.031(11) -0.020(11)
C28 0.152(13) 0.091(9) 0.065(9) 0.028(7) 0.026(9) -0.001(9)
C29 0.050(7) 0.098(10) 0.082(9) 0.033(7) 0.006(7) -0.002(7)
C30 0.052(6) 0.060(6) 0.047(6) 0.011(5) -0.004(5) -0.002(5)
C31 0.062(7) 0.059(6) 0.046(6) 0.002(5) -0.002(6) 0.010(5)
C32 0.106(9) 0.065(7) 0.041(6) -0.006(5) 0.004(6) 0.011(7)
C33 0.164(13) 0.056(7) 0.076(9) -0.013(6) -0.024(9) -0.003(9)
C34 0.145(12) 0.050(7) 0.054(7) -0.001(5) 0.015(8) 0.007(7)
C35 0.069(7) 0.056(6) 0.043(6) 0.002(4) -0.006(5) 0.002(6)
C36 0.066(7) 0.043(6) 0.072(8) -0.007(5) -0.003(6) 0.000(5)
C37 0.103(11) 0.057(8) 0.053(7) 0.006(5) 0.020(7) -0.004(7)
C38 0.088(9) 0.050(6) 0.062(7) -0.005(5) 0.028(6) -0.002(6)
C39 0.137(15) 0.049(7) 0.137(13) -0.001(7) 0.057(11) -0.001(9)
C40 0.071(8) 0.041(5) 0.069(7) 0.002(5) 0.005(6) 0.003(5)
C41 0.086(9) 0.041(6) 0.083(8) -0.008(5) 0.011(7) -0.012(6)
C42 0.170(17) 0.055(8) 0.150(15) -0.015(9) 0.039(12) 0.000(10)
C43 0.129(14) 0.063(10) 0.26(2) 0.003(12) 0.106(15) 0.003(9)
C44 0.104(12) 0.072(8) 0.069(8) -0.022(7) -0.005(8) -0.023(8)
N1 0.065(5) 0.053(5) 0.063(6) 0.001(4) 0.006(5) -0.009(5)
N2 0.065(6) 0.050(5) 0.060(6) 0.001(4) -0.012(5) -0.003(4)
N3 0.060(6) 0.106(8) 0.038(5) 0.011(5) 0.008(5) 0.005(6)
N4 0.068(6) 0.053(5) 0.093(8) 0.013(5) 0.001(6) -0.001(5)
N5 0.097(7) 0.050(5) 0.044(5) 0.000(4) 0.004(5) 0.000(5)
N6 0.096(7) 0.049(5) 0.055(5) -0.003(4) -0.002(5) -0.004(5)
N7 0.067(6) 0.055(5) 0.063(6) 0.017(4) 0.009(5) 0.000(5)
N8 0.063(6) 0.070(6) 0.078(7) 0.011(5) 0.005(5) 0.002(5)
O1 0.104(6) 0.047(5) 0.099(6) 0.013(4) 0.021(5) 0.005(4)
O2 0.083(6) 0.054(4) 0.084(6) 0.004(4) 0.011(5) -0.001(4)
O3 0.099(7) 0.074(6) 0.127(8) -0.009(6) 0.014(6) 0.002(5)
O4 0.095(7) 0.044(4) 0.119(8) -0.003(4) -0.008(6) 0.009(4)
O1W 0.083(6) 0.090(6) 0.082(6) -0.012(5) 0.001(4) -0.011(4)
Cd1 0.0851(6) 0.0443(4) 0.0649(5) 0.0016(4) 0.0028(4) -0.0016(4)
Cd2 0.0991(6) 0.0573(5) 0.0594(5) 0.0088(4) 0.0048(5) 0.0088(5)
Cl1 0.0846(19) 0.0792(18) 0.0635(16) 0.0013(14) -0.0036(16) 0.0031(18)
Cl2 0.116(3) 0.108(3) 0.0619(18) 0.0056(17) -0.0006(19) -0.022(2)

_geom_special_details            
;
All esds (except the esd in the dihedral angle between two l.s. planes)
are estimated using the full covariance matrix. The cell esds are taken
into account individually in the estimation of esds in distances, angles
and torsion angles; correlations between esds in cell parameters are only
used when they are defined by crystal symmetry. An approximate (isotropic)
treatment of cell esds is used for estimating esds involving l.s. planes.
;

loop_
_geom_bond_atom_site_label_1
_geom_bond_atom_site_label_2
_geom_bond_distance
_geom_bond_site_symmetry_2
_geom_bond_publ_flag
C1 C2 1.338(16) . ?
C1 N1 1.345(12) . ?
C1 H1 0.9300 . ?
C2 C3 1.407(17) . ?
C2 H2 0.9300 . ?
C3 C4 1.386(14) . ?
C3 H3 0.9300 . ?
C4 C18 1.410(14) . ?
C4 C5 1.461(15) . ?
C5 N3 1.341(13) . ?
C5 C12 1.392(15) . ?
C6 N3 1.295(14) . ?
C6 C11 1.421(18) . ?
C6 C7 1.422(17) . ?
C7 C8 1.45(2) . ?
C7 H7A 0.9700 . ?
C7 H7B 0.9700 . ?
C8 C9 1.26(2) . ?
C8 H8A 0.9700 . ?
C8 H8B 0.9700 . ?
C9 C10 1.51(2) . ?
C9 H9A 0.9700 . ?
C9 H9B 0.9700 . ?
C10 C11 1.539(17) . ?
C10 H10A 0.9700 . ?
C10 H10B 0.9700 . ?
C11 N4 1.306(15) . ?
C12 N4 1.333(12) . ?
C12 C13 1.519(15) . ?
C13 C14 1.363(14) . ?
C13 C17 1.417(12) . ?
C14 C1