####################################################################### 
# 
# This file contains crystal structure data downloaded from the 
# Cambridge Structural Database (CSD) hosted by the Cambridge 
# Crystallographic Data Centre (CCDC).
# 
# Full information about CCDC data access policies and citation 
# guidelines are available at http://www.ccdc.cam.ac.uk/access/V1 
# 
# Audit and citation data items may have been added by the CCDC. 
# Please retain this information to preserve the provenance of 
# this file and to allow appropriate attribution of the data. 
# 
#######################################################################

data_13410d
_audit_block_doi                 10.5517/cc124v68
_database_code_depnum_ccdc_archive 'CCDC 987759'
loop_
_citation_id
_citation_doi
_citation_year
1 10.1039/C4DT03702B 2015
_audit_update_record             
;
2014-02-19 deposited with the CCDC.	2024-07-10 downloaded from the CCDC.
;

_audit_creation_method           SHELXL-97
_chemical_name_systematic        
; 
 ? 
;
_chemical_name_common            ?
_chemical_melting_point          ?
_chemical_formula_moiety         ?
_chemical_formula_sum            'C42 H42 Cd N12 O7'
_chemical_formula_weight         939.28

loop_
_atom_type_symbol
_atom_type_description
_atom_type_scat_dispersion_real
_atom_type_scat_dispersion_imag
_atom_type_scat_source
C C 0.0033 0.0016 'International Tables Vol C Tables 4.2.6.8 and 6.1.1.4'
H H 0.0000 0.0000 'International Tables Vol C Tables 4.2.6.8 and 6.1.1.4'
N N 0.0061 0.0033 'International Tables Vol C Tables 4.2.6.8 and 6.1.1.4'
O O 0.0106 0.0060 'International Tables Vol C Tables 4.2.6.8 and 6.1.1.4'
Cd Cd -0.8075 1.2024 'International Tables Vol C Tables 4.2.6.8 and 6.1.1.4'

_symmetry_cell_setting           Monoclinic
_symmetry_space_group_name_H-M   P2(1)/c

loop_
_symmetry_equiv_pos_as_xyz
'x, y, z'
'-x, y+1/2, -z+1/2'
'-x, -y, -z'
'x, -y-1/2, z-1/2'

_cell_length_a                   11.1597(5)
_cell_length_b                   22.0750(9)
_cell_length_c                   17.4340(7)
_cell_angle_alpha                90.00
_cell_angle_beta                 99.424(4)
_cell_angle_gamma                90.00
_cell_volume                     4236.9(3)
_cell_formula_units_Z            4
_cell_measurement_temperature    293(2)
_cell_measurement_reflns_used    5974
_cell_measurement_theta_min      3.2150
_cell_measurement_theta_max      28.5390

_exptl_crystal_description       block
_exptl_crystal_colour            colorless
_exptl_crystal_size_max          0.20
_exptl_crystal_size_mid          0.18
_exptl_crystal_size_min          0.15
_exptl_crystal_density_meas      ?
_exptl_crystal_density_diffrn    1.472
_exptl_crystal_density_method    'not measured'
_exptl_crystal_F_000             1928
_exptl_absorpt_coefficient_mu    0.581
_exptl_absorpt_correction_type   multi-scan
_exptl_absorpt_correction_T_min  0.70660
_exptl_absorpt_correction_T_max  1.00000
_exptl_absorpt_process_details   'SADABS (Sheldrick, 1996)'

_exptl_special_details           
; 
 ? 
;

_diffrn_ambient_temperature      293(2)
_diffrn_radiation_wavelength     0.71073
_diffrn_radiation_type           MoK\a
_diffrn_radiation_source         'SuperNova (Mo) X-ray Source'
_diffrn_radiation_monochromator  graphite
_diffrn_measurement_device_type  'SuperNova, Dual, Cu at zero, Atlas'
_diffrn_measurement_method       'phi and omega scans'
_diffrn_detector_area_resol_mean ?
_diffrn_standards_number         ?
_diffrn_standards_interval_count ?
_diffrn_standards_interval_time  ?
_diffrn_standards_decay_%        ?
_diffrn_reflns_number            15268
_diffrn_reflns_av_R_equivalents  0.0326
_diffrn_reflns_av_unetI/netI     0.0521
_diffrn_reflns_limit_h_min       -9
_diffrn_reflns_limit_h_max       13
_diffrn_reflns_limit_k_min       -20
_diffrn_reflns_limit_k_max       26
_diffrn_reflns_limit_l_min       -20
_diffrn_reflns_limit_l_max       20
_diffrn_reflns_theta_min         2.99
_diffrn_reflns_theta_max         25.02
_reflns_number_total             7399
_reflns_number_gt                5925
_reflns_threshold_expression     >2sigma(I)

_computing_data_collection       'SMART (Siemens, 1996)'
_computing_cell_refinement       'SAINT (Siemens, 1996)'
_computing_data_reduction        'SAINT (Siemens, 1996)'
_computing_structure_solution    'SHELXS97 (Sheldrick, 2008)'
_computing_structure_refinement  'SHELXL97 (Sheldrick, 2008)'
_computing_molecular_graphics    'SHELXTL (Sheldrick, 1997)'
_computing_publication_material  'publCIF (Westrip, 2010)'

_refine_special_details          
; 
 Refinement of F^2^ against ALL reflections.  The weighted R-factor wR and 
 goodness of fit S are based on F^2^, conventional R-factors R are based 
 on F, with F set to zero for negative F^2^. The threshold expression of 
 F^2^ > 2sigma(F^2^) is used only for calculating R-factors(gt) etc. and is 
 not relevant to the choice of reflections for refinement.  R-factors based 
 on F^2^ are statistically about twice as large as those based on F, and R- 
 factors based on ALL data will be even larger. 
;

_refine_ls_structure_factor_coef Fsqd
_refine_ls_matrix_type           full
_refine_ls_weighting_scheme      calc
_refine_ls_weighting_details     
'calc w=1/[\s^2^(Fo^2^)+(0.0355P)^2^+21.1107P] where P=(Fo^2^+2Fc^2^)/3'
_atom_sites_solution_primary     direct
_atom_sites_solution_secondary   difmap
_atom_sites_solution_hydrogens   geom
_refine_ls_hydrogen_treatment    constr
_refine_ls_extinction_method     none
_refine_ls_extinction_coef       ?
_refine_ls_number_reflns         7399
_refine_ls_number_parameters     565
_refine_ls_number_restraints     0
_refine_ls_R_factor_all          0.0812
_refine_ls_R_factor_gt           0.0620
_refine_ls_wR_factor_ref         0.1463
_refine_ls_wR_factor_gt          0.1369
_refine_ls_goodness_of_fit_ref   1.133
_refine_ls_restrained_S_all      1.133
_refine_ls_shift/su_max          0.000
_refine_ls_shift/su_mean         0.000

loop_
_atom_site_label
_atom_site_type_symbol
_atom_site_fract_x
_atom_site_fract_y
_atom_site_fract_z
_atom_site_U_iso_or_equiv
_atom_site_adp_type
_atom_site_occupancy
_atom_site_symmetry_multiplicity
_atom_site_calc_flag
_atom_site_refinement_flags
_atom_site_disorder_assembly
_atom_site_disorder_group
Cd1 Cd 0.36763(3) 0.442613(19) 0.47128(2) 0.02460(13) Uani 1 1 d . . .
O1 O 0.3460(4) 0.5435(2) 0.4602(2) 0.0465(12) Uani 1 1 d . . .
O3 O -0.1770(3) 0.92834(17) 0.1201(2) 0.0287(9) Uani 1 1 d . . .
O2 O 0.4970(4) 0.6039(2) 0.4446(3) 0.0481(12) Uani 1 1 d . . .
O4 O -0.2786(4) 0.84997(18) 0.0637(2) 0.0356(10) Uani 1 1 d . . .
N8 N 0.9322(4) 0.5025(2) -0.2589(3) 0.0264(10) Uani 1 1 d . . .
N6 N 1.0561(4) 0.4418(2) -0.1846(2) 0.0257(10) Uani 1 1 d . . .
H6 H 1.1159 0.4185 -0.1665 0.031 Uiso 1 1 calc R . .
N1 N 0.4636(4) 0.4469(2) 0.3633(3) 0.0293(11) Uani 1 1 d . . .
N2 N 0.7251(4) 0.4356(2) 0.1466(3) 0.0287(11) Uani 1 1 d . . .
H2 H 0.7631 0.4068 0.1736 0.034 Uiso 1 1 calc R . .
N3 N 0.5898(4) 0.5100(2) 0.1085(3) 0.0340(12) Uani 1 1 d . . .
N9 N 1.2562(4) 0.4535(2) -0.4279(2) 0.0279(11) Uani 1 1 d . . .
N7 N 0.8823(4) 0.4954(2) -0.1933(3) 0.0285(11) Uani 1 1 d . . .
N4 N 0.6666(4) 0.5033(2) 0.0560(3) 0.0335(12) Uani 1 1 d . . .
O5 O 0.6422(5) 0.5915(2) 0.9486(3) 0.0593(14) Uani 1 1 d . . .
C3 C 0.5711(5) 0.4600(3) 0.2313(3) 0.0279(13) Uani 1 1 d . . .
C5 C 0.4125(5) 0.4813(3) 0.3031(3) 0.0296(13) Uani 1 1 d . . .
H5 H 0.3398 0.5009 0.3065 0.036 Uiso 1 1 calc R . .
N5 N 1.0327(5) 0.3858(2) 0.0450(3) 0.0385(13) Uani 1 1 d . . .
C6 C 0.6281(5) 0.4682(3) 0.1617(3) 0.0287(13) Uani 1 1 d . . .
C15 C 1.1114(5) 0.4649(3) -0.3132(3) 0.0268(12) Uani 1 1 d . . .
C16 C 1.2090(5) 0.4250(3) -0.3039(3) 0.0301(13) Uani 1 1 d . . .
H16 H 1.2272 0.4017 -0.2591 0.036 Uiso 1 1 calc R . .
C14 C 1.0356(5) 0.4698(3) -0.2522(3) 0.0256(12) Uani 1 1 d . . .
C4 C 0.4627(5) 0.4889(3) 0.2371(3) 0.0314(13) Uani 1 1 d . . .
H4 H 0.4245 0.5131 0.1967 0.038 Uiso 1 1 calc R . .
C11 C 0.9471(5) 0.4392(3) -0.0717(3) 0.0273(12) Uani 1 1 d . . .
C19 C 1.0882(5) 0.4984(3) -0.3815(3) 0.0311(13) Uani 1 1 d . . .
H19 H 1.0229 0.5251 -0.3901 0.037 Uiso 1 1 calc R . .
C13 C 0.9605(5) 0.4583(2) -0.1505(3) 0.0256(12) Uani 1 1 d . . .
C1 C 0.5676(5) 0.4190(3) 0.3578(3) 0.0315(13) Uani 1 1 d . . .
H1 H 0.6042 0.3952 0.3991 0.038 Uiso 1 1 calc R . .
C2 C 0.6234(5) 0.4241(3) 0.2926(3) 0.0318(14) Uani 1 1 d . . .
H2A H 0.6954 0.4036 0.2902 0.038 Uiso 1 1 calc R . .
C18 C 1.1632(5) 0.4917(3) -0.4362(3) 0.0312(13) Uani 1 1 d . . .
H18 H 1.1479 0.5150 -0.4812 0.037 Uiso 1 1 calc R . .
C8 C 0.8440(5) 0.4394(3) 0.0385(3) 0.0276(12) Uani 1 1 d . . .
C10 C 1.0357(5) 0.4037(3) -0.0282(3) 0.0322(14) Uani 1 1 d . . .
H10 H 1.1013 0.3916 -0.0512 0.039 Uiso 1 1 calc R . .
C12 C 0.8488(5) 0.4573(2) -0.0370(3) 0.0272(13) Uani 1 1 d . . .
H12 H 0.7873 0.4811 -0.0642 0.033 Uiso 1 1 calc R . .
C30 C -0.0997(5) 0.8295(3) 0.1525(3) 0.0307(13) Uani 1 1 d . . .
C7 C 0.7464(5) 0.4589(3) 0.0806(3) 0.0265(13) Uani 1 1 d . . .
C17 C 1.2785(5) 0.4206(3) -0.3626(3) 0.0293(13) Uani 1 1 d . . .
H17 H 1.3435 0.3937 -0.3563 0.035 Uiso 1 1 calc R . .
C20 C 0.3879(5) 0.5862(3) 0.4327(3) 0.0309(14) Uani 1 1 d . . .
C9 C 0.9375(5) 0.4040(3) 0.0767(3) 0.0343(14) Uani 1 1 d . . .
H9 H 0.9340 0.3922 0.1275 0.041 Uiso 1 1 calc R . .
C42 C -0.0781(10) 0.7258(5) 0.4430(7) 0.099(4) Uani 1 1 d . . .
H42A H -0.1120 0.7568 0.4717 0.149 Uiso 1 1 calc R . .
H42B H -0.1320 0.6916 0.4360 0.149 Uiso 1 1 calc R . .
H42C H -0.0677 0.7414 0.3931 0.149 Uiso 1 1 calc R . .
N10 N 0.6634(6) 0.6557(3) 0.8516(4) 0.067(2) Uani 1 1 d . . .
C24 C 0.1488(6) 0.7040(3) 0.2792(4) 0.0393(15) Uani 1 1 d . . .
C33 C -0.1891(5) 0.8715(3) 0.1098(3) 0.0305(13) Uani 1 1 d . . .
N12 N 0.0391(9) 0.7071(3) 0.4856(5) 0.083(3) Uani 1 1 d . . .
C28 C 0.0888(6) 0.8085(3) 0.2370(4) 0.0367(15) Uani 1 1 d . . .
H28 H 0.1597 0.8228 0.2671 0.044 Uiso 1 1 calc R . .
C27 C 0.0643(6) 0.7465(3) 0.2332(3) 0.0370(15) Uani 1 1 d . . .
C22 C 0.3503(6) 0.6743(3) 0.3367(4) 0.0464(17) Uani 1 1 d . . .
H22 H 0.4338 0.6806 0.3428 0.056 Uiso 1 1 calc R . .
O6 O 0.6159(7) 0.8083(3) 0.7322(4) 0.095(2) Uani 1 1 d . . .
N11 N 0.4899(7) 0.8114(3) 0.6156(4) 0.072(2) Uani 1 1 d . . .
C29 C 0.0062(6) 0.8489(3) 0.1956(4) 0.0390(15) Uani 1 1 d . . .
H29 H 0.0240 0.8901 0.1974 0.047 Uiso 1 1 calc R . .
C32 C -0.0429(6) 0.7258(3) 0.1878(4) 0.0422(16) Uani 1 1 d . . .
H32 H -0.0599 0.6845 0.1844 0.051 Uiso 1 1 calc R . .
C23 C 0.2732(6) 0.7122(3) 0.2884(4) 0.0480(18) Uani 1 1 d . . .
H23 H 0.3052 0.7434 0.2620 0.058 Uiso 1 1 calc R . .
C21 C 0.3051(6) 0.6270(3) 0.3764(3) 0.0348(14) Uani 1 1 d . . .
C25 C 0.1036(6) 0.6556(3) 0.3163(4) 0.0444(16) Uani 1 1 d . . .
H25 H 0.0204 0.6484 0.3085 0.053 Uiso 1 1 calc R . .
C26 C 0.1818(6) 0.6174(3) 0.3652(4) 0.0400(15) Uani 1 1 d . . .
H26 H 0.1503 0.5853 0.3903 0.048 Uiso 1 1 calc R . .
C34 C 0.6884(6) 0.6057(3) 0.8925(4) 0.0486(18) Uani 1 1 d . . .
H34 H 0.7454 0.5794 0.8775 0.058 Uiso 1 1 calc R . .
C31 C -0.1235(6) 0.7668(3) 0.1480(4) 0.0419(16) Uani 1 1 d . . .
H31 H -0.1946 0.7529 0.1178 0.050 Uiso 1 1 calc R . .
C36 C 0.7251(8) 0.6678(4) 0.7876(5) 0.071(2) Uani 1 1 d . . .
H36A H 0.7911 0.6398 0.7885 0.107 Uiso 1 1 calc R . .
H36B H 0.7560 0.7085 0.7915 0.107 Uiso 1 1 calc R . .
H36C H 0.6694 0.6633 0.7398 0.107 Uiso 1 1 calc R . .
C35 C 0.5763(13) 0.6992(5) 0.8687(8) 0.150(7) Uani 1 1 d . . .
H35A H 0.5709 0.6975 0.9230 0.224 Uiso 1 1 calc R . .
H35B H 0.4984 0.6902 0.8386 0.224 Uiso 1 1 calc R . .
H35C H 0.6012 0.7390 0.8558 0.224 Uiso 1 1 calc R . .
C37 C 0.5545(9) 0.8359(4) 0.6783(6) 0.084(3) Uani 1 1 d . . .
H37 H 0.5534 0.8780 0.6820 0.100 Uiso 1 1 calc R . .
C41 C 0.1325(11) 0.7511(5) 0.4954(8) 0.118(4) Uani 1 1 d . . .
H41A H 0.1548 0.7604 0.4459 0.177 Uiso 1 1 calc R . .
H41B H 0.2018 0.7356 0.5296 0.177 Uiso 1 1 calc R . .
H41C H 0.1041 0.7872 0.5174 0.177 Uiso 1 1 calc R . .
C38 C 0.4132(9) 0.8497(5) 0.5570(6) 0.094(3) Uani 1 1 d . . .
H38A H 0.3292 0.8438 0.5609 0.141 Uiso 1 1 calc R . .
H38B H 0.4266 0.8386 0.5058 0.141 Uiso 1 1 calc R . .
H38C H 0.4342 0.8915 0.5663 0.141 Uiso 1 1 calc R . .
O7 O 0.1607(17) 0.6371(6) 0.5512(7) 0.229(8) Uani 1 1 d . . .
C40 C 0.0483(17) 0.6466(9) 0.5096(9) 0.161(8) Uani 1 1 d . . .
H40 H -0.0125 0.6176 0.4989 0.193 Uiso 1 1 calc R . .
C39 C 0.4782(11) 0.7461(4) 0.6064(7) 0.117(5) Uani 1 1 d . . .
H39A H 0.5069 0.7340 0.5597 0.176 Uiso 1 1 calc R . .
H39B H 0.3944 0.7348 0.6031 0.176 Uiso 1 1 calc R . .
H39C H 0.5255 0.7264 0.6503 0.176 Uiso 1 1 calc R . .

loop_
_atom_site_aniso_label
_atom_site_aniso_U_11
_atom_site_aniso_U_22
_atom_site_aniso_U_33
_atom_site_aniso_U_23
_atom_site_aniso_U_13
_atom_site_aniso_U_12
Cd1 0.0208(2) 0.0347(2) 0.0202(2) 0.00182(19) 0.00898(15) -0.00066(19)
O1 0.062(3) 0.046(3) 0.032(2) 0.006(2) 0.013(2) 0.017(2)
O3 0.025(2) 0.035(2) 0.027(2) -0.0026(17) 0.0078(16) 0.0000(17)
O2 0.037(3) 0.064(3) 0.044(3) 0.014(2) 0.008(2) 0.006(2)
O4 0.037(2) 0.036(2) 0.035(2) -0.0040(19) 0.0074(19) 0.0001(19)
N8 0.026(2) 0.034(3) 0.023(2) 0.000(2) 0.015(2) 0.002(2)
N6 0.024(2) 0.032(3) 0.023(2) 0.002(2) 0.0097(19) 0.003(2)
N1 0.025(2) 0.042(3) 0.025(2) 0.003(2) 0.014(2) 0.000(2)
N2 0.034(3) 0.032(3) 0.023(2) 0.004(2) 0.012(2) 0.001(2)
N3 0.038(3) 0.043(3) 0.025(3) 0.003(2) 0.017(2) 0.000(2)
N9 0.027(2) 0.040(3) 0.020(2) 0.004(2) 0.0134(19) -0.003(2)
N7 0.029(3) 0.039(3) 0.021(2) 0.003(2) 0.014(2) 0.000(2)
N4 0.034(3) 0.046(3) 0.025(3) -0.004(2) 0.017(2) 0.002(2)
O5 0.067(3) 0.068(3) 0.050(3) 0.023(3) 0.029(3) 0.012(3)
C3 0.030(3) 0.035(3) 0.021(3) -0.002(2) 0.009(2) -0.002(3)
C5 0.024(3) 0.044(4) 0.023(3) 0.001(3) 0.012(2) 0.002(3)
N5 0.041(3) 0.051(3) 0.027(3) 0.010(2) 0.015(2) 0.008(3)
C6 0.033(3) 0.034(3) 0.022(3) -0.001(3) 0.013(2) -0.004(3)
C15 0.027(3) 0.031(3) 0.025(3) 0.003(2) 0.011(2) -0.003(2)
C16 0.031(3) 0.040(3) 0.021(3) 0.005(3) 0.010(2) -0.001(3)
C14 0.030(3) 0.028(3) 0.022(3) -0.001(2) 0.013(2) -0.003(2)
C4 0.031(3) 0.040(3) 0.026(3) 0.004(3) 0.010(3) 0.003(3)
C11 0.031(3) 0.030(3) 0.024(3) -0.002(3) 0.015(2) -0.004(3)
C19 0.032(3) 0.036(3) 0.028(3) 0.002(3) 0.014(3) 0.003(3)
C13 0.027(3) 0.031(3) 0.022(3) -0.002(2) 0.012(2) -0.002(2)
C1 0.032(3) 0.041(3) 0.024(3) 0.004(3) 0.012(2) 0.005(3)
C2 0.029(3) 0.035(3) 0.034(3) 0.000(3) 0.016(3) 0.004(3)
C18 0.032(3) 0.038(3) 0.025(3) 0.007(3) 0.010(3) 0.002(3)
C8 0.030(3) 0.030(3) 0.026(3) 0.001(3) 0.013(2) -0.003(3)
C10 0.031(3) 0.039(3) 0.029(3) 0.004(3) 0.012(3) 0.003(3)
C12 0.028(3) 0.031(3) 0.024(3) 0.000(2) 0.010(2) -0.002(2)
C30 0.033(3) 0.042(4) 0.019(3) 0.002(3) 0.009(2) 0.005(3)
C7 0.029(3) 0.034(3) 0.020(3) -0.002(2) 0.012(2) -0.003(2)
C17 0.028(3) 0.041(3) 0.022(3) 0.003(3) 0.012(2) 0.006(3)
C20 0.023(3) 0.048(4) 0.027(3) -0.012(3) 0.017(2) -0.011(3)
C9 0.039(4) 0.042(4) 0.025(3) 0.003(3) 0.014(3) 0.001(3)
C42 0.101(9) 0.081(7) 0.125(10) -0.023(7) 0.046(8) -0.017(7)
N10 0.073(5) 0.064(4) 0.071(4) 0.036(4) 0.037(4) 0.032(4)
C24 0.040(4) 0.038(4) 0.041(4) 0.007(3) 0.010(3) 0.000(3)
C33 0.029(3) 0.042(4) 0.025(3) 0.003(3) 0.017(3) 0.008(3)
N12 0.122(8) 0.052(5) 0.088(6) 0.023(4) 0.056(5) 0.016(5)
C28 0.034(3) 0.040(4) 0.037(3) 0.005(3) 0.007(3) 0.001(3)
C27 0.032(3) 0.046(4) 0.033(3) 0.007(3) 0.005(3) 0.007(3)
C22 0.028(3) 0.057(4) 0.056(4) 0.016(4) 0.013(3) 0.005(3)
O6 0.106(5) 0.071(4) 0.095(5) 0.016(4) -0.023(4) -0.002(4)
N11 0.068(5) 0.068(5) 0.076(5) 0.004(4) -0.002(4) 0.000(4)
C29 0.042(4) 0.038(4) 0.039(4) 0.007(3) 0.011(3) 0.004(3)
C32 0.042(4) 0.040(4) 0.043(4) 0.003(3) 0.002(3) 0.001(3)
C23 0.039(4) 0.050(4) 0.056(4) 0.019(4) 0.012(3) 0.002(3)
C21 0.035(3) 0.040(4) 0.030(3) 0.003(3) 0.007(3) 0.004(3)
C25 0.033(3) 0.048(4) 0.051(4) 0.007(3) 0.002(3) 0.002(3)
C26 0.041(4) 0.040(4) 0.040(4) 0.011(3) 0.006(3) -0.006(3)
C34 0.038(4) 0.056(5) 0.051(4) 0.006(4) 0.004(3) 0.010(3)
C31 0.036(4) 0.049(4) 0.037(4) 0.001(3) -0.002(3) 0.003(3)
C36 0.082(6) 0.082(6) 0.059(5) 0.009(5) 0.037(5) 0.003(5)
C35 0.197(14) 0.123(10) 0.162(12) 0.089(9) 0.128(11) 0.109(10)
C37 0.081(7) 0.054(5) 0.104(8) -0.001(5) -0.021(6) -0.007(5)
C41 0.097(9) 0.078(8) 0.170(13) -0.020(8) 0.000(9) 0.006(7)
C38 0.077(7) 0.091(7) 0.107(8) 0.026(6) -0.007(6) -0.002(6)
O7 0.37(2) 0.209(13) 0.145(10) 0.077(9) 0.152(13) 0.151(15)
C40 0.203(18) 0.200(18) 0.107(11) 0.059(11) 0.109(12) 0.110(15)
C39 0.133(10) 0.057(6) 0.139(10) -0.025(6) -0.047(8) 0.036(6)

_geom_special_details            
; 
 All esds (except the esd in the dihedral angle between two l.s. planes) 
 are estimated using the full covariance matrix.  The cell esds are taken 
 into account individually in the estimation of esds in distances, angles 
 and torsion angles; correlations between esds in cell parameters are only 
 used when they are defined by crystal symmetry.  An approximate (isotropic) 
 treatment of cell esds is used for estimating esds involving l.s. planes. 
;

loop_
_geom_bond_atom_site_label_1
_geom_bond_atom_site_label_2
_geom_bond_distance
_geom_bond_site_symmetry_2
_geom_bond_publ_flag
Cd1 O2 2.182(4) 3_666 ?
Cd1 O1 2.246(5) . ?
Cd1 N1 2.315(4) . ?
Cd1 O4 2.311(4) 2_545 ?
Cd1 N9 2.326(4) 1_456 ?
Cd1 O3 2.460(4) 2_545 ?
Cd1 C33 2.741(6) 2_545 ?
O1 C20 1.187(7) . ?
O3 C33 1.272(7) . ?
O3 Cd1 2.460(4) 2 ?
O2 C20 1.262(7) . ?
O2 Cd1 2.182(4) 3_666 ?
O4 C33 1.268(7) . ?
O4 Cd1 2.311(4) 2 ?
N8 C14 1.350(7) . ?
N8 N7 1.361(6) . ?
N6 C14 1.317(7) . ?
N6 C13 1.353(7) . ?
N6 H6 0.8600 . ?
N1 C1 1.332(7) . ?
N1 C5 1.345(7) . ?
N2 C7 1.318(7) . ?
N2 C6 1.361(7) . ?
N2 H2 0.8600 . ?
N3 C6 1.328(7) . ?
N3 N4 1.361(6) . ?
N9 C18 1.327(7) . ?
N9 C17 1.338(7) . ?
N9 Cd1 2.3