####################################################################### 
# 
# This file contains crystal structure data downloaded from the 
# Cambridge Structural Database (CSD) hosted by the Cambridge 
# Crystallographic Data Centre (CCDC).
# 
# Full information about CCDC data access policies and citation 
# guidelines are available at http://www.ccdc.cam.ac.uk/access/V1 
# 
# Audit and citation data items may have been added by the CCDC. 
# Please retain this information to preserve the provenance of 
# this file and to allow appropriate attribution of the data. 
# 
#######################################################################

data_shelx
_audit_block_doi                 10.5517/cc12jffg
_database_code_depnum_ccdc_archive 'CCDC 998895'
loop_
_citation_id
_citation_doi
_citation_year
1 10.1021/ic5016803 2014
_audit_update_record             
;
2014-04-23 deposited with the CCDC.	2024-07-10 downloaded from the CCDC.
;

_audit_creation_method           SHELXL-2013
_chemical_name_systematic        
;
 ?
;
_chemical_name_common            ?
_chemical_melting_point          ?
_chemical_formula_moiety         ?
_chemical_formula_sum            'C49.50 H40 Cl7 Cr Fe Mn N9 O15.50'
_chemical_formula_weight         1419.84

loop_
_atom_type_symbol
_atom_type_description
_atom_type_scat_dispersion_real
_atom_type_scat_dispersion_imag
_atom_type_scat_source
C C 0.0033 0.0016 'International Tables Vol C Tables 4.2.6.8 and 6.1.1.4'
H H 0.0000 0.0000 'International Tables Vol C Tables 4.2.6.8 and 6.1.1.4'
N N 0.0061 0.0033 'International Tables Vol C Tables 4.2.6.8 and 6.1.1.4'
O O 0.0106 0.0060 'International Tables Vol C Tables 4.2.6.8 and 6.1.1.4'
Cl Cl 0.1484 0.1585 'International Tables Vol C Tables 4.2.6.8 and 6.1.1.4'
Cr Cr 0.3209 0.6236 'International Tables Vol C Tables 4.2.6.8 and 6.1.1.4'
Mn Mn 0.3368 0.7283 'International Tables Vol C Tables 4.2.6.8 and 6.1.1.4'
Fe Fe 0.3463 0.8444 'International Tables Vol C Tables 4.2.6.8 and 6.1.1.4'

_space_group_crystal_system      orthorhombic
_space_group_IT_number           20
_space_group_name_H-M_alt        'C 2 2 21'
_space_group_name_Hall           'C 2c 2'

_shelx_space_group_comment       
;
The symmetry employed for this shelxl refinement is uniquely defined
by the following loop, which should always be used as a source of
symmetry information in preference to the above space-group names.
They are only intended as comments.
;

loop_
_space_group_symop_operation_xyz
'x, y, z'
'-x, -y, z+1/2'
'x, -y, -z'
'-x, y, -z+1/2'
'x+1/2, y+1/2, z'
'-x+1/2, -y+1/2, z+1/2'
'x+1/2, -y+1/2, -z'
'-x+1/2, y+1/2, -z+1/2'

_cell_length_a                   12.9780(6)
_cell_length_b                   24.8692(12)
_cell_length_c                   21.9676(9)
_cell_angle_alpha                90
_cell_angle_beta                 90
_cell_angle_gamma                90
_cell_volume                     7090.1(6)
_cell_formula_units_Z            4
_cell_measurement_temperature    120(2)
_cell_measurement_reflns_used    6405
_cell_measurement_theta_min      2.9112
_cell_measurement_theta_max      29.9995

_exptl_crystal_description       prism
_exptl_crystal_colour            black
_exptl_crystal_density_meas      ?
_exptl_crystal_density_method    ?
_exptl_crystal_density_diffrn    1.330
_exptl_crystal_F_000             2872
_exptl_transmission_factor_min   ?
_exptl_transmission_factor_max   ?
_exptl_crystal_size_max          0.200
_exptl_crystal_size_mid          0.080
_exptl_crystal_size_min          0.040
_exptl_absorpt_coefficient_mu    0.852
_shelx_estimated_absorpt_T_min   0.848
_shelx_estimated_absorpt_T_max   0.967
_exptl_absorpt_correction_T_min  0.36412
_exptl_absorpt_correction_T_max  1.00000
_exptl_absorpt_correction_type   multi-scan
_exptl_absorpt_process_details   
;
CrysAlisPro, Agilent Technologies,
Version 1.171.36.21 (release 14-08-2012 CrysAlis171 .NET)
(compiled Sep 14 2012,17:21:16)
Empirical absorption correction using spherical harmonics,
 implemented in SCALE3 ABSPACK scaling algorithm.
;

_diffrn_ambient_temperature      120(2)
_diffrn_radiation_wavelength     0.71073
_diffrn_radiation_type           MoK\a
_diffrn_source                   'SuperNova (Mo) X-ray Source'
_diffrn_measurement_device_type  'SuperNova, Single source at offset, Sapphire3'
_diffrn_measurement_method       ?
_diffrn_detector_area_resol_mean ?
_diffrn_reflns_number            81831
_diffrn_reflns_av_unetI/netI     0.0959
_diffrn_reflns_av_R_equivalents  0.1702
_diffrn_reflns_limit_h_min       -16
_diffrn_reflns_limit_h_max       16
_diffrn_reflns_limit_k_min       -32
_diffrn_reflns_limit_k_max       32
_diffrn_reflns_limit_l_min       -28
_diffrn_reflns_limit_l_max       28
_diffrn_reflns_theta_min         2.916
_diffrn_reflns_theta_max         27.597
_diffrn_reflns_theta_full        25.242
_diffrn_measured_fraction_theta_max 0.995
_diffrn_measured_fraction_theta_full 0.998
_diffrn_reflns_Laue_measured_fraction_max 0.995
_diffrn_reflns_Laue_measured_fraction_full 0.998
_diffrn_reflns_point_group_measured_fraction_max 0.994
_diffrn_reflns_point_group_measured_fraction_full 0.999
_reflns_number_total             8183
_reflns_number_gt                5297
_reflns_threshold_expression     'I > 2\s(I)'
_reflns_Friedel_coverage         0.831
_reflns_Friedel_fraction_max     0.994
_reflns_Friedel_fraction_full    0.999

_reflns_special_details          
;
 Reflections were merged by SHELXL according to the crystal
 class for the calculation of statistics and refinement.
 
 _reflns_Friedel_fraction is defined as the number of unique
 Friedel pairs measured divided by the number that would be
 possible theoretically, ignoring centric projections and
 systematic absences.
;

_computing_data_collection       ?
_computing_cell_refinement       ?
_computing_data_reduction        ?
_computing_structure_solution    ?
_computing_structure_refinement  'SHELXL-2013 (Sheldrick, 2013)'
_computing_molecular_graphics    ?
_computing_publication_material  ?

_refine_special_details          
;
1 DFIX restraint was used to fix distances in CH3OH disordered molecules.
;
_refine_ls_structure_factor_coef Fsqd
_refine_ls_matrix_type           full
_refine_ls_weighting_scheme      calc
_refine_ls_weighting_details     
'w=1/[\s^2^(Fo^2^)+(0.1665P)^2^+8.8182P] where P=(Fo^2^+2Fc^2^)/3'
_atom_sites_solution_primary     ?
_atom_sites_solution_secondary   ?
_atom_sites_solution_hydrogens   geom
_refine_ls_hydrogen_treatment    constr
_refine_ls_extinction_method     none
_refine_ls_extinction_coef       .
_refine_ls_abs_structure_details 
;
 Flack x determined using 1762 quotients [(I+)-(I-)]/[(I+)+(I-)]
 (Parsons and Flack (2004), Acta Cryst. A60, s61).
;
_refine_ls_abs_structure_Flack   0.076(19)
_chemical_absolute_configuration ink
_refine_ls_number_reflns         8183
_refine_ls_number_parameters     355
_refine_ls_number_restraints     1
_refine_ls_R_factor_all          0.1397
_refine_ls_R_factor_gt           0.0935
_refine_ls_wR_factor_ref         0.2815
_refine_ls_wR_factor_gt          0.2424
_refine_ls_goodness_of_fit_ref   1.029
_refine_ls_restrained_S_all      1.029
_refine_ls_shift/su_max          0.002
_refine_ls_shift/su_mean         0.000

loop_
_atom_site_label
_atom_site_type_symbol
_atom_site_fract_x
_atom_site_fract_y
_atom_site_fract_z
_atom_site_U_iso_or_equiv
_atom_site_adp_type
_atom_site_occupancy
_atom_site_site_symmetry_order
_atom_site_calc_flag
_atom_site_refinement_flags_posn
_atom_site_refinement_flags_adp
_atom_site_refinement_flags_occupancy
_atom_site_disorder_assembly
_atom_site_disorder_group
C1 C 0.1559(9) 0.3268(4) 0.7824(5) 0.039(2) Uani 1 1 d . . . . .
C2 C 0.1894(9) 0.2989(4) 0.7228(5) 0.040(2) Uani 1 1 d . . . . .
C3 C 0.2795(9) 0.3154(5) 0.6959(5) 0.042(3) Uani 1 1 d . . . . .
C4 C 0.3406(9) 0.3563(4) 0.7207(5) 0.037(2) Uani 1 1 d . . . . .
C5 C 0.3081(9) 0.3832(4) 0.7814(5) 0.038(2) Uani 1 1 d . . . . .
C6 C 0.2149(9) 0.3650(5) 0.8088(5) 0.045(3) Uani 1 1 d . . . . .
C7 C 0.0326(8) 0.1486(4) 0.7785(4) 0.033(2) Uani 1 1 d . . . . .
C8 C 0.5637(8) 0.6003(4) 0.8048(4) 0.035(2) Uani 1 1 d . . . . .
C9 C 0.5322(8) 0.5501(4) 0.7795(4) 0.034(2) Uani 1 1 d . . . . .
C10 C 0.1458(8) 0.0504(4) 0.6025(5) 0.037(2) Uani 1 1 d . . . . .
C11 C 0.2011(8) 0.0424(5) 0.6554(5) 0.042(2) Uani 1 1 d . . . . .
H11 H 0.2127 0.0074 0.6689 0.051 Uiso 1 1 calc R U . . .
C12 C 0.2393(9) 0.0847(5) 0.6886(5) 0.047(3) Uani 1 1 d . . . . .
H12 H 0.2757 0.0775 0.7241 0.056 Uiso 1 1 calc R U . . .
C13 C 0.2255(10) 0.1379(5) 0.6709(5) 0.052(3) Uani 1 1 d . . . . .
H13 H 0.2511 0.1660 0.6944 0.062 Uiso 1 1 calc R U . . .
C14 C 0.1734(9) 0.1478(4) 0.6182(5) 0.042(3) Uani 1 1 d . . . . .
H14 H 0.1652 0.1831 0.6051 0.051 Uiso 1 1 calc R U . . .
C15 C 0.1311(9) 0.1045(4) 0.5826(5) 0.041(2) Uani 1 1 d . . . . .
C16 C 0.0798(10) 0.1185(5) 0.5274(5) 0.046(3) Uani 1 1 d . . . . .
H16 H 0.0764 0.1548 0.5173 0.055 Uiso 1 1 calc R U . . .
C17 C -0.0097(11) 0.1026(4) 0.4335(5) 0.050(3) Uani 1 1 d . . . . .
H17A H 0.0294 0.0898 0.3988 0.060 Uiso 1 1 calc R U . . .
H17B H -0.0123 0.1416 0.4320 0.060 Uiso 1 1 calc R U . . .
C18 C -0.1194(10) 0.0789(5) 0.4329(5) 0.047(3) Uani 1 1 d . . . . .
H18A H -0.1603 0.0948 0.4652 0.057 Uiso 1 1 calc R U . . .
H18B H -0.1526 0.0865 0.3943 0.057 Uiso 1 1 calc R U . . .
C19 C -0.2087(9) 0.0040(5) 0.5338(5) 0.047(3) Uani 1 1 d . . . . .
H19A H -0.2115 0.0420 0.5435 0.057 Uiso 1 1 calc R U . . .
H19B H -0.2681 -0.0135 0.5518 0.057 Uiso 1 1 calc R U . . .
N1 N 0.0376(7) 0.0846(3) 0.4903(4) 0.040(2) Uani 1 1 d . . . . .
N2 N -0.1115(8) -0.0202(4) 0.5579(4) 0.044(2) Uani 1 1 d . . . . .
H2 H -0.0992 -0.0041 0.5980 0.053 Uiso 1 1 calc R U . . .
O1 O 0.0676(7) 0.3103(3) 0.8016(4) 0.0464(19) Uani 1 1 d . . . . .
O2 O 0.1289(6) 0.2637(3) 0.7026(3) 0.0400(17) Uani 1 1 d . . . . .
O3 O 0.4227(6) 0.3743(3) 0.6990(3) 0.0437(18) Uani 1 1 d . . . . .
O4 O 0.3657(6) 0.4187(3) 0.8016(3) 0.0413(17) Uani 1 1 d . . . . .
O5 O 0.0556(6) 0.1949(3) 0.7986(3) 0.0402(17) Uani 1 1 d . . . . .
O6 O 0.5538(5) 0.5046(3) 0.8005(3) 0.0408(16) Uani 1 1 d . . . . .
O10 O 0.1101(6) 0.0097(3) 0.5708(3) 0.0469(19) Uani 1 1 d . . . . .
Cl1 Cl 0.3206(3) 0.28439(12) 0.62841(13) 0.0532(8) Uani 1 1 d . . . . .
Cl2 Cl 0.1775(3) 0.39528(13) 0.87676(14) 0.0631(9) Uani 1 1 d . . . . .
Cl3 Cl 0.6427(2) 0.60214(12) 0.86753(12) 0.0486(7) Uani 1 1 d . . . . .
Cr1 Cr 0.0000 0.25529(9) 0.7500 0.0371(6) Uani 1 2 d S T P . .
Mn1 Mn 0.5000 0.43695(8) 0.7500 0.0373(5) Uani 1 2 d S T P . .
Fe1 Fe 0.02401(18) 0.0000 0.5000 0.0400(6) Uani 1 2 d S T P . .
C1D C 0.838(2) 0.5000 0.5000 0.035(6) Uiso 0.5 2 d S . P . .
H1D1 H 0.7934 0.4920 0.5344 0.042 Uiso 0.25 1 calc R U P . .
H1D2 H 0.7934 0.5080 0.4656 0.042 Uiso 0.25 1 calc R U P . .
Cl1D Cl 0.9089(12) 0.4438(7) 0.4832(5) 0.176(8) Uani 0.5 1 d . . P . .
C1A C 0.536(3) 0.9812(16) 0.3377(18) 0.209(17) Uiso 1 1 d . . . . .
H1A1 H 0.5527 0.9608 0.3734 0.314 Uiso 1 1 calc R U . . .
H1A2 H 0.5252 0.9571 0.3041 0.314 Uiso 1 1 calc R U . . .
H1A3 H 0.4740 1.0014 0.3448 0.314 Uiso 1 1 calc R U . . .
C2A C 0.629(2) 1.0217(10) 0.3221(11) 0.109(7) Uiso 1 1 d . . . . .
N1A N 0.6878(14) 1.0472(7) 0.3119(7) 0.094(4) Uiso 1 1 d . . . . .
C3A C 0.0858(14) 0.3470(7) 0.5786(8) 0.084(5) Uiso 1 1 d . . . . .
H3A1 H 0.1104 0.3120 0.5900 0.126 Uiso 1 1 calc R U . . .
H3A2 H 0.0120 0.3463 0.5758 0.126 Uiso 1 1 calc R U . . .
H3A3 H 0.1064 0.3728 0.6087 0.126 Uiso 1 1 calc R U . . .
C4A C 0.1277(17) 0.3615(9) 0.5216(10) 0.101(6) Uiso 1 1 d . . . . .
N2A N 0.1688(17) 0.3744(8) 0.4713(9) 0.122(6) Uiso 1 1 d . . . . .
C5A C -0.191(2) 0.2435(12) 0.5726(14) 0.068(7) Uiso 0.5 1 d . . P . .
H5A1 H -0.1664 0.2409 0.6136 0.103 Uiso 0.5 1 calc R U P . .
H5A2 H -0.2347 0.2133 0.5637 0.103 Uiso 0.5 1 calc R U P . .
H5A3 H -0.2300 0.2762 0.5680 0.103 Uiso 0.5 1 calc R U P . .
C6A C -0.110(3) 0.2439(13) 0.5335(15) 0.072(8) Uiso 0.5 1 d . . P . .
N3A N -0.041(2) 0.2474(12) 0.5017(16) 0.081(7) Uiso 0.5 1 d . . P . .
C1M C 0.481(3) 0.1836(17) 0.8636(19) 0.104(12) Uiso 0.5 1 d D . P . .
O1M O 0.438(4) 0.2246(19) 0.825(2) 0.190(18) Uiso 0.5 1 d D . P . .
O1W O 0.5000 0.134(3) 0.7500 0.17(2) Uiso 0.5 2 d S . P . .

loop_
_atom_site_aniso_label
_atom_site_aniso_U_11
_atom_site_aniso_U_22
_atom_site_aniso_U_33
_atom_site_aniso_U_23
_atom_site_aniso_U_13
_atom_site_aniso_U_12
C1 0.048(7) 0.030(5) 0.039(5) 0.004(4) 0.010(5) 0.002(5)
C2 0.051(6) 0.036(6) 0.032(5) -0.001(4) 0.005(5) 0.003(5)
C3 0.045(6) 0.043(6) 0.038(5) -0.012(5) 0.009(5) 0.000(5)
C4 0.047(6) 0.031(5) 0.033(5) -0.009(4) 0.008(5) 0.002(4)
C5 0.049(6) 0.029(5) 0.035(5) 0.003(4) 0.003(5) 0.004(5)
C6 0.056(7) 0.044(6) 0.035(5) -0.014(5) 0.016(5) -0.003(5)
C7 0.035(5) 0.034(5) 0.029(4) 0.006(4) -0.002(4) 0.000(4)
C8 0.040(5) 0.033(5) 0.031(4) -0.002(4) -0.002(4) -0.003(5)
C9 0.032(5) 0.040(6) 0.030(5) 0.004(4) -0.001(4) 0.005(4)
C10 0.035(5) 0.036(6) 0.039(5) -0.008(4) 0.010(4) -0.002(4)
C11 0.034(6) 0.049(6) 0.044(6) 0.004(5) 0.001(5) 0.010(5)
C12 0.049(6) 0.054(7) 0.038(5) 0.004(5) -0.012(5) -0.012(6)
C13 0.059(8) 0.054(7) 0.042(6) -0.009(5) 0.002(6) -0.008(6)
C14 0.057(7) 0.024(5) 0.046(6) -0.005(4) -0.005(5) -0.003(5)
C15 0.047(6) 0.039(6) 0.038(5) 0.006(4) -0.001(5) 0.002(5)
C16 0.059(7) 0.031(5) 0.047(6) 0.003(5) 0.003(6) 0.000(5)
C17 0.081(8) 0.035(6) 0.032(5) 0.004(4) -0.007(5) 0.004(6)
C18 0.059(7) 0.053(7) 0.029(5) 0.002(5) 0.002(5) 0.008(6)
C19 0.053(7) 0.055(7) 0.034(5) -0.006(5) 0.001(5) 0.003(6)
N1 0.053(5) 0.032(4) 0.035(4) -0.002(3) 0.001(4) 0.003(4)
N2 0.061(6) 0.044(5) 0.027(4) 0.000(4) -0.001(4) 0.000(4)
O1 0.064(5) 0.031(4) 0.045(4) -0.006(3) 0.017(4) -0.004(4)
O2 0.051(4) 0.035(4) 0.034(4) -0.008(3) 0.006(3) -0.003(3)
O3 0.057(5) 0.046(4) 0.028(4) -0.002(3) 0.007(3) -0.003(4)
O4 0.053(4) 0.037(4) 0.034(3) -0.007(3) 0.000(3) -0.001(3)
O5 0.051(4) 0.035(4) 0.034(4) -0.005(3) 0.006(3) -0.005(3)
O6 0.044(4) 0.045(4) 0.034(3) 0.003(3) -0.002(3) -0.002(4)
O10 0.064(5) 0.032(4) 0.045(4) -0.002(3) -0.011(4) -0.010(4)
Cl1 0.071(2) 0.0465(16) 0.0418(14) -0.0159(12) 0.0198(14) -0.0102(14)
Cl2 0.082(2) 0.0590(19) 0.0481(15) -0.0227(14) 0.0269(16) -0.0207(17)
Cl3 0.0602(17) 0.0487(16) 0.0370(13) 0.0041(11) -0.0142(12) -0.0049(14)
Cr1 0.0486(14) 0.0278(11) 0.0351(11) 0.000 0.0039(11) 0.000
Mn1 0.0465(14) 0.0306(10) 0.0349(10) 0.000 0.0007(10) 0.000
Fe1 0.0556(14) 0.0334(11) 0.0309(10) -0.0029(8) 0.000 0.000
Cl1D 0.175(11) 0.274(18) 0.079(6) 0.100(9) 0.077(7) 0.149(12)

_geom_special_details            
;
 All esds (except the esd in the dihedral angle between two l.s. planes)
 are estimated using the full covariance matrix.  The cell esds are taken
 into account individually in the estimation of esds in distances, angles
 and torsion angles; correlations between esds in cell parameters are only
 used when they are defined by crystal symmetry.  An approximate (isotropic)
 treatment of cell esds is used for estimating esds involving l.s. planes.
;

loop_
_geom_bond_atom_site_label_1
_geom_bond_atom_site_label_2
_geom_bond_distance
_geom_bond_site_symmetry_2
_geom_bond_publ_flag
C1 O1 1.287(13) . ?
C1 C6 1.351(16) . ?
C1 C2 1.545(14) . ?
C2 O2 1.257(13) . ?
C2 C3 1.371(16) . ?
C3 C4 1.401(15) . ?
C3 Cl1 1.754(10) . ?
C4 O3 1.250(13) . ?
C4 C5 1.550(13) . ?
C5 O4 1.240(13) . ?
C5 C6 1.425(16) . ?
C6 Cl2 1.741(10) . ?
C7 O5 1.267(12) . ?
C7 C8 1.393(14) 5_445 ?
C7 C7 1.512(19) 4_556 ?
C8 C7 1.393(14) 5 ?
C8 C9 1.427(14) . ?
C8 Cl3 1.718(10) . ?
C9 O6 1.253(12) . ?
C9 C9 1.541(19) 4_656 ?
C10 O10 1.313(12) . ?
C10 C11 1.381(15) . ?
C10 C15 1.428(15) . ?
C11 C12 1.373(16) . ?
C12 C13 1.390(18) . ?
C13 C14 1.362(17) . ?
C14 C15 1.439(15) . ?
C15 C16 1.427(15) . ?
C16 N1 1.295(14) . ?
C17 N1 1.460(13) . ?
C17 C18 1.542(19) . ?
C18 N2 1.478(15) 3_556 ?
C19 N2 1.494(15) . ?
C19 C19 1.50(2) 3_556 ?
N1 Fe1 2.123(9) . ?
N2 C18 1.478(15) 3_556 ?
N2 Fe1 2.228(10) . ?
O1 Cr1 1.982(8) . ?
O2 Cr1 1.981(7) . ?
O3 Mn1 2.166(8) . ?
O4 Mn1 2.128(8) . ?
O5 Cr1 1.979(8) . ?
O6 Mn1 2.133(8) . ?
O10 Fe1 1.930(7) . ?
Cr1 O5 1.979(8) 4_556 ?
Cr1 O2 1.981(8) 4_556 ?
Cr1 O1 1.982(8) 4_556 ?
Mn1 O4 2.128(8) 4_656 ?
Mn1 O6 2.133(8) 4_656 ?
Mn1 O3 2.166(8) 4_656 ?
