####################################################################### 
# 
# This file contains crystal structure data downloaded from the 
# Cambridge Structural Database (CSD) hosted by the Cambridge 
# Crystallographic Data Centre (CCDC).
# 
# Full information about CCDC data access policies and citation 
# guidelines are available at http://www.ccdc.cam.ac.uk/access/V1 
# 
# Audit and citation data items may have been added by the CCDC. 
# Please retain this information to preserve the provenance of 
# this file and to allow appropriate attribution of the data. 
# 
#######################################################################

data_1
_audit_block_doi                 10.5517/cc11zfhy
_database_code_depnum_ccdc_archive 'CCDC 982560'
loop_
_citation_id
_citation_doi
_citation_year
1 10.1021/ic501978u 2014
_audit_update_record             
;
2014-01-21 deposited with the CCDC.	2024-07-10 downloaded from the CCDC.
;

_audit_creation_method           SHELXL-97
_chemical_name_systematic        
; 
 ? 
;
_chemical_name_common            ?
_chemical_melting_point          ?
_chemical_formula_moiety         ?
_chemical_formula_sum            'C4 H4 Ag F0 N6 O0 P0'
_chemical_formula_weight         244.00

loop_
_atom_type_symbol
_atom_type_description
_atom_type_scat_dispersion_real
_atom_type_scat_dispersion_imag
_atom_type_scat_source
C C 0.0033 0.0016 'International Tables Vol C Tables 4.2.6.8 and 6.1.1.4'
H H 0.0000 0.0000 'International Tables Vol C Tables 4.2.6.8 and 6.1.1.4'
N N 0.0061 0.0033 'International Tables Vol C Tables 4.2.6.8 and 6.1.1.4'
O O 0.0106 0.0060 'International Tables Vol C Tables 4.2.6.8 and 6.1.1.4'
F F 0.0171 0.0103 'International Tables Vol C Tables 4.2.6.8 and 6.1.1.4'
P P 0.1023 0.0942 'International Tables Vol C Tables 4.2.6.8 and 6.1.1.4'
Ag Ag -0.8971 1.1015 'International Tables Vol C Tables 4.2.6.8 and 6.1.1.4'

_symmetry_cell_setting           tetragonal
_symmetry_space_group_name_H-M   I-42d

loop_
_symmetry_equiv_pos_as_xyz
'x, y, z'
'-x, -y, z'
'y, -x, -z'
'-y, x, -z'
'-x+1/2, y, -z+3/4'
'x+1/2, -y, -z+3/4'
'-y+1/2, -x, z+3/4'
'y+1/2, x, z+3/4'
'x+1/2, y+1/2, z+1/2'
'-x+1/2, -y+1/2, z+1/2'
'y+1/2, -x+1/2, -z+1/2'
'-y+1/2, x+1/2, -z+1/2'
'-x+1, y+1/2, -z+5/4'
'x+1, -y+1/2, -z+5/4'
'-y+1, -x+1/2, z+5/4'
'y+1, x+1/2, z+5/4'

_cell_length_a                   13.1338(4)
_cell_length_b                   13.1338(4)
_cell_length_c                   44.093(3)
_cell_angle_alpha                90.00
_cell_angle_beta                 90.00
_cell_angle_gamma                90.00
_cell_volume                     7605.9(5)
_cell_formula_units_Z            24
_cell_measurement_temperature    293(2)
_cell_measurement_reflns_used    ?
_cell_measurement_theta_min      ?
_cell_measurement_theta_max      ?

_exptl_crystal_description       block
_exptl_crystal_colour            colorless
_exptl_crystal_size_max          0.3
_exptl_crystal_size_mid          0.2
_exptl_crystal_size_min          0.2
_exptl_crystal_density_meas      ?
_exptl_crystal_density_diffrn    1.279
_exptl_crystal_density_method    'not measured'
_exptl_crystal_F_000             2808
_exptl_absorpt_coefficient_mu    1.554
_exptl_absorpt_correction_type   empirical
_exptl_absorpt_correction_T_min  ?
_exptl_absorpt_correction_T_max  ?
_exptl_absorpt_process_details   'SADABS (Sheldrick, 1996)'

_exptl_special_details           
; 
 ? 
;

_diffrn_ambient_temperature      293(2)
_diffrn_radiation_wavelength     0.71073
_diffrn_radiation_type           MoK\a
_diffrn_radiation_source         'fine-focus sealed tube'
_diffrn_radiation_monochromator  graphite
_diffrn_measurement_device_type  'rigaku saturn 70 CCD'
_diffrn_measurement_method       'phi and omega scans'
_diffrn_detector_area_resol_mean ?
_diffrn_standards_number         none
_diffrn_standards_interval_count none
_diffrn_standards_interval_time  none
_diffrn_standards_decay_%        none
_diffrn_reflns_number            22819
_diffrn_reflns_av_R_equivalents  0.0332
_diffrn_reflns_av_sigmaI/netI    0.0224
_diffrn_reflns_limit_h_min       -16
_diffrn_reflns_limit_h_max       16
_diffrn_reflns_limit_k_min       -16
_diffrn_reflns_limit_k_max       17
_diffrn_reflns_limit_l_min       -56
_diffrn_reflns_limit_l_max       57
_diffrn_reflns_theta_min         3.59
_diffrn_reflns_theta_max         27.46
_reflns_number_total             4264
_reflns_number_gt                3974
_reflns_threshold_expression     >2sigma(I)

_computing_data_collection       'Bruker XSCANS'
_computing_cell_refinement       'Bruker XSCANS'
_computing_data_reduction        'Bruker SHELXTL'
_computing_structure_solution    'SHELXS-97 (Sheldrick, 1990)'
_computing_structure_refinement  'SHELXL-97 (Sheldrick, 1997)'
_computing_molecular_graphics    'Bruker SHELXTL'
_computing_publication_material  'Bruker SHELXTL'

_refine_special_details          
; 
 Refinement of F^2^ against ALL reflections.  The weighted R-factor wR and 
 goodness of fit S are based on F^2^, conventional R-factors R are based 
 on F, with F set to zero for negative F^2^. The threshold expression of 
 F^2^ > 2sigma(F^2^) is used only for calculating R-factors(gt) etc. and is 
 not relevant to the choice of reflections for refinement.  R-factors based 
 on F^2^ are statistically about twice as large as those based on F, and R- 
 factors based on ALL data will be even larger. 
;

_refine_ls_structure_factor_coef Fsqd
_refine_ls_matrix_type           full
_refine_ls_weighting_scheme      calc
_refine_ls_weighting_details     
'calc w=1/[\s^2^(Fo^2^)+(0.1600P)^2^+4.3344P] where P=(Fo^2^+2Fc^2^)/3'
_atom_sites_solution_primary     direct
_atom_sites_solution_secondary   difmap
_atom_sites_solution_hydrogens   geom
_refine_ls_hydrogen_treatment    mixed
_refine_ls_extinction_method     SHELXL
_refine_ls_extinction_coef       0.0016(4)
_refine_ls_extinction_expression Fc^*^=kFc[1+0.001xFc^2^\l^3^/sin(2\q)]^-1/4^
_refine_ls_abs_structure_details 'Flack H D (1983), Acta Cryst. A39, 876-881'
_refine_ls_abs_structure_Flack   0.06(8)
_refine_ls_number_reflns         4264
_refine_ls_number_parameters     151
_refine_ls_number_restraints     0
_refine_ls_R_factor_all          0.0685
_refine_ls_R_factor_gt           0.0666
_refine_ls_wR_factor_ref         0.2091
_refine_ls_wR_factor_gt          0.2056
_refine_ls_goodness_of_fit_ref   1.095
_refine_ls_restrained_S_all      1.095
_refine_ls_shift/su_max          0.000
_refine_ls_shift/su_mean         0.000


# SQUEEZE RESULTS (APPEND TO CIF)
loop_
_platon_squeeze_void_nr
_platon_squeeze_void_average_x
_platon_squeeze_void_average_y
_platon_squeeze_void_average_z
_platon_squeeze_void_volume
_platon_squeeze_void_count_electrons
1 -0.051 -0.008 0.000 3810.1 496.2
_platon_squeeze_details          
; ?
;


loop_
_atom_site_label
_atom_site_type_symbol
_atom_site_fract_x
_atom_site_fract_y
_atom_site_fract_z
_atom_site_U_iso_or_equiv
_atom_site_adp_type
_atom_site_occupancy
_atom_site_symmetry_multiplicity
_atom_site_calc_flag
_atom_site_refinement_flags
_atom_site_disorder_assembly
_atom_site_disorder_group
Ag1 Ag 0.21859(7) 0.2500 0.1250 0.0715(3) Uani 1 2 d S . .
Ag2 Ag 0.11829(5) 0.08075(5) 0.180061(15) 0.0706(3) Uani 1 1 d . . .
N1 N 0.3328(5) 0.3625(4) 0.25236(15) 0.0566(13) Uani 1 1 d . . .
N2 N 0.3682(7) 0.4518(6) 0.29232(18) 0.080(2) Uani 1 1 d . . .
N3 N 0.4393(6) 0.3796(6) 0.28934(17) 0.0708(17) Uani 1 1 d . . .
N4 N 0.2831(4) 0.3251(5) 0.22738(14) 0.0567(12) Uani 1 1 d . . .
N5 N 0.1908(5) 0.2256(5) 0.19934(15) 0.0654(16) Uani 1 1 d . . .
N6 N 0.2287(7) 0.3014(6) 0.18118(16) 0.075(2) Uani 1 1 d . . .
N7 N 0.4511(5) 0.0197(4) 0.14782(13) 0.0534(11) Uani 1 1 d . . .
N8 N 0.2886(5) 0.0400(5) 0.15706(15) 0.0639(14) Uani 1 1 d . . .
N9 N 0.3223(6) 0.1142(6) 0.13675(17) 0.0713(17) Uani 1 1 d . . .
C1 C 0.3029(6) 0.4464(7) 0.2689(2) 0.072(2) Uani 1 1 d . . .
H1A H 0.2490 0.4901 0.2647 0.086 Uiso 1 1 calc R . .
C2 C 0.4161(6) 0.3258(6) 0.2658(2) 0.069(2) Uani 1 1 d . . .
H2A H 0.4525 0.2693 0.2591 0.083 Uiso 1 1 calc R . .
C3 C 0.2875(7) 0.3587(7) 0.19816(19) 0.0720(19) Uani 1 1 d . . .
H3A H 0.3261 0.4134 0.1913 0.086 Uiso 1 1 calc R . .
C4 C 0.2228(6) 0.2408(7) 0.22623(16) 0.0656(19) Uani 1 1 d . . .
H4A H 0.2071 0.1999 0.2428 0.079 Uiso 1 1 calc R . .
C5 C 0.3695(7) -0.0174(6) 0.16253(16) 0.0651(17) Uani 1 1 d . . .
H5A H 0.3697 -0.0751 0.1748 0.078 Uiso 1 1 calc R . .
C6 C 0.4192(6) 0.0982(6) 0.13137(16) 0.0607(16) Uani 1 1 d . . .
H6A H 0.4594 0.1360 0.1181 0.073 Uiso 1 1 calc R . .

loop_
_atom_site_aniso_label
_atom_site_aniso_U_11
_atom_site_aniso_U_22
_atom_site_aniso_U_33
_atom_site_aniso_U_23
_atom_site_aniso_U_13
_atom_site_aniso_U_12
Ag1 0.0662(5) 0.0736(5) 0.0748(5) 0.0321(4) 0.000 0.000
Ag2 0.0722(4) 0.0660(4) 0.0738(4) 0.0066(3) 0.0034(3) -0.0269(3)
N1 0.055(3) 0.049(3) 0.066(3) -0.006(2) -0.012(2) 0.006(2)
N2 0.080(5) 0.081(4) 0.079(4) -0.017(3) -0.016(4) 0.034(4)
N3 0.066(4) 0.067(4) 0.080(4) -0.017(3) -0.021(3) 0.019(3)
N4 0.048(2) 0.057(3) 0.065(3) 0.005(2) 0.001(2) -0.009(2)
N5 0.073(4) 0.062(3) 0.061(3) 0.010(3) 0.005(3) -0.031(3)
N6 0.099(5) 0.064(3) 0.061(3) 0.023(3) 0.002(3) -0.028(4)
N7 0.054(3) 0.054(3) 0.052(3) 0.009(2) -0.003(2) 0.009(2)
N8 0.060(3) 0.056(3) 0.076(3) 0.021(3) 0.012(3) 0.001(3)
N9 0.071(4) 0.066(3) 0.077(4) 0.026(3) 0.018(3) 0.008(3)
C1 0.055(4) 0.073(5) 0.087(5) -0.030(4) -0.009(3) 0.015(3)
C2 0.061(4) 0.051(3) 0.097(5) -0.014(3) -0.023(4) 0.021(3)
C3 0.081(5) 0.063(4) 0.072(4) 0.006(3) -0.008(4) -0.024(4)
C4 0.070(4) 0.075(4) 0.052(3) 0.015(3) -0.001(3) -0.032(4)
C5 0.073(4) 0.062(4) 0.061(3) 0.021(3) -0.007(3) 0.007(3)
C6 0.065(4) 0.057(4) 0.059(3) 0.016(3) 0.011(3) 0.009(3)

_geom_special_details            
; 
 All esds (except the esd in the dihedral angle between two l.s. planes) 
 are estimated using the full covariance matrix.  The cell esds are taken 
 into account individually in the estimation of esds in distances, angles 
 and torsion angles; correlations between esds in cell parameters are only 
 used when they are defined by crystal symmetry.  An approximate (isotropic) 
 treatment of cell esds is used for estimating esds involving l.s. planes. 
;

loop_
_geom_bond_atom_site_label_1
_geom_bond_atom_site_label_2
_geom_bond_distance
_geom_bond_site_symmetry_2
_geom_bond_publ_flag
Ag1 N9 2.303(7) 14_454 ?
Ag1 N9 2.303(7) . ?
Ag1 N6 2.571(8) . ?
Ag1 N6 2.571(8) 14_454 ?
Ag2 N3 2.296(7) 12_545 ?
Ag2 N5 2.290(6) . ?
Ag2 N8 2.513(7) . ?
Ag2 N2 2.591(8) 11_455 ?
N1 C2 1.335(9) . ?
N1 N4 1.371(8) . ?
N1 C1 1.377(9) . ?
N2 N3 1.338(10) . ?
N2 C1 1.345(11) . ?
N2 Ag2 2.591(8) 12 ?
N3 C2 1.292(11) . ?
N3 Ag2 2.296(6) 11 ?
N4 C3 1.363(10) . ?
N4 C4 1.362(9) . ?
N5 C4 1.274(10) . ?
N5 N6 1.372(8) . ?
N6 C3 1.313(12) . ?
N7 C6 1.329(9) . ?
N7 C5 1.345(10) . ?
N7 N7 1.384(12) 2_655 ?
N8 C5 1.325(11) . ?
N8 N9 1.395(8) . ?
N9 C6 1.312(11) . ?

loop_
_geom_angle_atom_site_label_1
_geom_angle_atom_site_label_2
_geom_angle_atom_site_label_3
_geom_angle
_geom_angle_site_symmetry_1
_geom_angle_site_symmetry_3
_geom_angle_publ_flag
N9 Ag1 N9 107.5(4) 14_454 . ?
N9 Ag1 N6 89.0(2) 14_454 . ?
N9 Ag1 N6 87.5(3) . . ?
N9 Ag1 N6 87.5(3) 14_454 14_454 ?
N9 Ag1 N6 89.0(2) . 14_454 ?
N6 Ag1 N6 174.1(4) . 14_454 ?
N3 Ag2 N5 116.7(3) 12_545 . ?
N3 Ag2 N8 93.1(3) 12_545 . ?
N5 Ag2 N8 87.5(2) . . ?
N3 Ag2 N2 86.8(3) 12_545 11_455 ?
N5 Ag2 N2 87.8(2) . 11_455 ?
N8 Ag2 N2 174.7(2) . 11_455 ?
C2 N1 N4 128.1(6) . . ?
C2 N1 C1 106.7(6) . . ?
N4 N1 C1 125.1(6) . . ?
N3 N2 C1 109.4(7) . . ?
N3 N2 Ag2 117.6(6) . 12 ?
C1 N2 Ag2 124.8(6) . 12 ?
C2 N3 N2 107.6(6) . . ?
C2 N3 Ag2 132.0(5) . 11 ?
N2 N3 Ag2 119.9(5) . 11 ?
C3 N4 C4 104.7(6) . . ?
C3 N4 N1 128.5(6) . . ?
C4 N4 N1 126.7(6) . . ?
C4 N5 N6 108.0(6) . . ?
C4 N5 Ag2 127.8(5) . . ?
N6 N5 Ag2 122.5(5) . . ?
C3 N6 N5 107.3(7) . . ?
C3 N6 Ag1 136.9(6) . . ?
N5 N6 Ag1 110.7(5) . . ?
C6 N7 C5 107.0(6) . . ?
C6 N7 N7 125.6(7) . 2_655 ?
C5 N7 N7 127.2(6) . 2_655 ?
C5 N8 N9 105.1(6) . . ?
C5 N8 Ag2 139.6(5) . . ?
N9 N8 Ag2 113.1(5) . . ?
C6 N9 N8 108.2(6) . . ?
C6 N9 Ag1 131.1(5) . . ?
N8 N9 Ag1 119.8(5) . . ?
N2 C1 N1 105.5(7) . . ?
N3 C2 N1 110.6(6) . . ?
N6 C3 N4 109.2(7) . . ?
N5 C4 N4 110.7(6) . . ?
N8 C5 N7 110.2(6) . . ?
N9 C6 N7 109.4(6) . . ?

_diffrn_measured_fraction_theta_max 0.973
_diffrn_reflns_theta_full        27.46
_diffrn_measured_fraction_theta_full 0.973
_refine_diff_density_max         1.043
_refine_diff_density_min         -0.803
_refine_diff_density_rms         0.143
