####################################################################### 
# 
# This file contains crystal structure data downloaded from the 
# Cambridge Structural Database (CSD) hosted by the Cambridge 
# Crystallographic Data Centre (CCDC).
# 
# Full information about CCDC data access policies and citation 
# guidelines are available at http://www.ccdc.cam.ac.uk/access/V1 
# 
# Audit and citation data items may have been added by the CCDC. 
# Please retain this information to preserve the provenance of 
# this file and to allow appropriate attribution of the data. 
# 
#######################################################################

data_homozwem
_audit_block_doi                 10.5517/ccrvpjs
_database_code_depnum_ccdc_archive 'CCDC 710846'
loop_
_citation_id
_citation_doi
_citation_year
1 10.1021/cg801313u 2009
_audit_update_record             
;
2008-11-24 deposited with the CCDC.	2024-07-10 downloaded from the CCDC.
;

_audit_creation_method           SHELXL-97
_chemical_name_systematic        
;
?
;
_chemical_name_common            ?
_chemical_melting_point          ?
_chemical_formula_moiety         'C13 H18 O5 Sn2, 2.17 (H2 O)'
_chemical_formula_sum            'C13 H22.33 O7.17 Sn2'
_chemical_formula_weight         530.69

loop_
_atom_type_symbol
_atom_type_description
_atom_type_scat_dispersion_real
_atom_type_scat_dispersion_imag
_atom_type_scat_source
C C 0.0033 0.0016 'International Tables Vol C Tables 4.2.6.8 and 6.1.1.4'
H H 0.0000 0.0000 'International Tables Vol C Tables 4.2.6.8 and 6.1.1.4'
O O 0.0106 0.0060 'International Tables Vol C Tables 4.2.6.8 and 6.1.1.4'
Sn Sn -0.6537 1.4246 'International Tables Vol C Tables 4.2.6.8 and 6.1.1.4'

_symmetry_cell_setting           trigonal
_symmetry_space_group_name_H-M   R-3

loop_
_symmetry_equiv_pos_as_xyz
'x, y, z'
'-y, x-y, z'
'-x+y, -x, z'
'x+2/3, y+1/3, z+1/3'
'-y+2/3, x-y+1/3, z+1/3'
'-x+y+2/3, -x+1/3, z+1/3'
'x+1/3, y+2/3, z+2/3'
'-y+1/3, x-y+2/3, z+2/3'
'-x+y+1/3, -x+2/3, z+2/3'
'-x, -y, -z'
'y, -x+y, -z'
'x-y, x, -z'
'-x+2/3, -y+1/3, -z+1/3'
'y+2/3, -x+y+1/3, -z+1/3'
'x-y+2/3, x+1/3, -z+1/3'
'-x+1/3, -y+2/3, -z+2/3'
'y+1/3, -x+y+2/3, -z+2/3'
'x-y+1/3, x+2/3, -z+2/3'

_cell_length_a                   32.1550(14)
_cell_length_b                   32.1550(14)
_cell_length_c                   9.3233(6)
_cell_angle_alpha                90.00
_cell_angle_beta                 90.00
_cell_angle_gamma                120.00
_cell_volume                     8348.3(7)
_cell_formula_units_Z            18
_cell_measurement_temperature    100(2)
_cell_measurement_reflns_used    8230
_cell_measurement_theta_min      2.30
_cell_measurement_theta_max      27.51

_exptl_crystal_description       rhombohedral
_exptl_crystal_colour            colorless
_exptl_crystal_size_max          0.33
_exptl_crystal_size_mid          0.27
_exptl_crystal_size_min          0.23
_exptl_crystal_density_meas      ?
_exptl_crystal_density_diffrn    1.900
_exptl_crystal_density_method    'not measured'
_exptl_crystal_F_000             4638
_exptl_absorpt_coefficient_mu    2.720
_exptl_absorpt_correction_type   multi-scan
_exptl_absorpt_correction_T_min  0.436
_exptl_absorpt_correction_T_max  0.535
_exptl_absorpt_process_details   SADABS

_exptl_special_details           
;
?
;

_diffrn_ambient_temperature      100(2)
_diffrn_radiation_wavelength     0.71073
_diffrn_radiation_type           MoK\a
_diffrn_radiation_source         'fine-focus sealed tube'
_diffrn_radiation_monochromator  graphite
_diffrn_measurement_device_type  'CCD area detector'
_diffrn_measurement_method       'phi and omega scans'
_diffrn_detector_area_resol_mean ?
_diffrn_standards_number         ?
_diffrn_standards_interval_count ?
_diffrn_standards_interval_time  ?
_diffrn_standards_decay_%        ?
_diffrn_reflns_number            22241
_diffrn_reflns_av_R_equivalents  0.0289
_diffrn_reflns_av_sigmaI/netI    0.0171
_diffrn_reflns_limit_h_min       -38
_diffrn_reflns_limit_h_max       38
_diffrn_reflns_limit_k_min       -38
_diffrn_reflns_limit_k_max       38
_diffrn_reflns_limit_l_min       -9
_diffrn_reflns_limit_l_max       11
_diffrn_reflns_theta_min         1.27
_diffrn_reflns_theta_max         25.00
_reflns_number_total             3264
_reflns_number_gt                3227
_reflns_threshold_expression     >2sigma(I)

_computing_data_collection       'Bruker SMART'
_computing_cell_refinement       'Bruker SAINT'
_computing_data_reduction        'Bruker SHELXTL'
_computing_structure_solution    'SHELXS-97 (Sheldrick, 1990)'
_computing_structure_refinement  'SHELXL-97 (Sheldrick, 1997)'
_computing_molecular_graphics    'Bruker SHELXTL'
_computing_publication_material  'Bruker SHELXTL'

_refine_special_details          
;
Refinement of F^2^ against ALL reflections. The weighted R-factor wR and
goodness of fit S are based on F^2^, conventional R-factors R are based
on F, with F set to zero for negative F^2^. The threshold expression of
F^2^ > 2sigma(F^2^) is used only for calculating R-factors(gt) etc. and is
not relevant to the choice of reflections for refinement. R-factors based
on F^2^ are statistically about twice as large as those based on F, and R-
factors based on ALL data will be even larger.
;

_refine_ls_structure_factor_coef Fsqd
_refine_ls_matrix_type           full
_refine_ls_weighting_scheme      calc
_refine_ls_weighting_details     
'calc w=1/[\s^2^(Fo^2^)+(0.0251P)^2^+51.7703P] where P=(Fo^2^+2Fc^2^)/3'
_atom_sites_solution_primary     direct
_atom_sites_solution_secondary   difmap
_atom_sites_solution_hydrogens   geom
_refine_ls_hydrogen_treatment    constr
_refine_ls_extinction_method     none
_refine_ls_extinction_coef       ?
_refine_ls_number_reflns         3264
_refine_ls_number_parameters     202
_refine_ls_number_restraints     0
_refine_ls_R_factor_all          0.0237
_refine_ls_R_factor_gt           0.0232
_refine_ls_wR_factor_ref         0.0589
_refine_ls_wR_factor_gt          0.0586
_refine_ls_goodness_of_fit_ref   1.166
_refine_ls_restrained_S_all      1.166
_refine_ls_shift/su_max          0.002
_refine_ls_shift/su_mean         0.000

loop_
_atom_site_label
_atom_site_type_symbol
_atom_site_fract_x
_atom_site_fract_y
_atom_site_fract_z
_atom_site_U_iso_or_equiv
_atom_site_adp_type
_atom_site_occupancy
_atom_site_symmetry_multiplicity
_atom_site_calc_flag
_atom_site_refinement_flags
_atom_site_disorder_assembly
_atom_site_disorder_group
Sn2 Sn 0.793611(8) 0.143988(8) 0.53504(2) 0.01461(8) Uani 1 1 d . . .
Sn1 Sn 0.889736(8) 0.112345(8) 0.54121(2) 0.01539(8) Uani 1 1 d . . .
O1 O 0.94379(8) 0.16124(8) 0.6909(3) 0.0195(5) Uani 1 1 d . . .
O2 O 0.97711(9) 0.12063(9) 0.6077(3) 0.0240(5) Uani 1 1 d . . .
O3 O 0.82497(8) 0.06006(8) 0.4046(3) 0.0206(5) Uani 1 1 d . . .
O4 O 0.79656(9) 0.10744(9) 0.3345(3) 0.0228(5) Uani 1 1 d . . .
O5 O 0.85535(8) 0.14757(8) 0.6037(2) 0.0171(5) Uani 1 1 d . . .
C1 C 0.97649(12) 0.14934(12) 0.6948(4) 0.0194(7) Uani 1 1 d . . .
C2 C 0.84350(13) 0.01237(12) 0.1843(4) 0.0214(7) Uani 1 1 d . . .
H2A H 0.8686 0.0439 0.2211 0.026 Uiso 1 1 calc R . .
H2B H 0.8584 0.0023 0.1092 0.026 Uiso 1 1 calc R . .
C3 C 0.80446(12) 0.01851(11) 0.1165(4) 0.0180(7) Uani 1 1 d . . .
C4 C 0.78725(13) -0.00239(12) -0.0165(4) 0.0232(8) Uani 1 1 d . . .
H4 H 0.8002 -0.0201 -0.0604 0.028 Uiso 1 1 calc R . .
C5 C 0.75180(13) 0.00188(12) -0.0868(4) 0.0245(8) Uani 1 1 d . . .
H5 H 0.7404 -0.0132 -0.1773 0.029 Uiso 1 1 calc R . .
C6 C 0.73281(13) 0.02799(13) -0.0258(4) 0.0246(8) Uani 1 1 d . . .
H6 H 0.7080 0.0306 -0.0729 0.030 Uiso 1 1 calc R . .
C7 C 0.75049(12) 0.05012(12) 0.1047(4) 0.0207(7) Uani 1 1 d . . .
H7 H 0.7381 0.0687 0.1459 0.025 Uiso 1 1 calc R . .
C8 C 0.78587(11) 0.04587(11) 0.1771(4) 0.0166(7) Uani 1 1 d . . .
C9 C 0.80374(12) 0.07256(12) 0.3160(4) 0.0180(7) Uani 1 1 d . . .
C10 C 0.92442(13) 0.14706(14) 0.3504(4) 0.0262(8) Uani 1 1 d . . .
H10A H 0.9026 0.1530 0.2920 0.039 Uiso 1 1 calc R . .
H10B H 0.9336 0.1267 0.2969 0.039 Uiso 1 1 calc R . .
H10C H 0.9532 0.1777 0.3733 0.039 Uiso 1 1 calc R . .
C11 C 0.86841(13) 0.05148(12) 0.6703(4) 0.0219(7) Uani 1 1 d . . .
H11A H 0.8897 0.0601 0.7536 0.033 Uiso 1 1 calc R . .
H11B H 0.8702 0.0266 0.6146 0.033 Uiso 1 1 calc R . .
H11C H 0.8353 0.0393 0.7029 0.033 Uiso 1 1 calc R . .
C12 C 0.73581(12) 0.07915(12) 0.6107(4) 0.0222(7) Uani 1 1 d . . .
H12A H 0.7218 0.0855 0.6953 0.033 Uiso 1 1 calc R . .
H12B H 0.7473 0.0571 0.6367 0.033 Uiso 1 1 calc R . .
H12C H 0.7114 0.0646 0.5355 0.033 Uiso 1 1 calc R . .
C13 C 0.80422(13) 0.19995(12) 0.3959(4) 0.0210(7) Uani 1 1 d . . .
H13A H 0.8138 0.1944 0.3011 0.031 Uiso 1 1 calc R . .
H13B H 0.8295 0.2306 0.4342 0.031 Uiso 1 1 calc R . .
H13C H 0.7743 0.2009 0.3874 0.031 Uiso 1 1 calc R . .
O31 O 0.97367(17) 0.06819(16) 0.0526(6) 0.0890(14) Uani 1 1 d . . .
O32 O 0.05065(18) 0.0987(2) 0.6471(7) 0.1015(17) Uani 1 1 d . . .
O33 O 0.0000 0.0000 0.5702(15) 0.069(4) Uani 0.50 3 d SP . .

loop_
_atom_site_aniso_label
_atom_site_aniso_U_11
_atom_site_aniso_U_22
_atom_site_aniso_U_33
_atom_site_aniso_U_23
_atom_site_aniso_U_13
_atom_site_aniso_U_12
Sn2 0.01436(12) 0.01392(12) 0.01364(13) -0.00066(8) -0.00186(8) 0.00564(9)
Sn1 0.01590(12) 0.01507(12) 0.01411(13) -0.00063(8) -0.00008(9) 0.00692(9)
O1 0.0164(12) 0.0197(12) 0.0206(13) -0.0007(10) -0.0033(10) 0.0078(10)
O2 0.0250(13) 0.0247(13) 0.0227(13) -0.0021(11) -0.0005(11) 0.0126(11)
O3 0.0232(12) 0.0197(12) 0.0193(13) -0.0016(10) -0.0046(10) 0.0109(10)
O4 0.0316(14) 0.0248(13) 0.0172(12) -0.0057(10) -0.0053(10) 0.0180(11)
O5 0.0157(11) 0.0206(12) 0.0169(12) -0.0046(10) -0.0037(9) 0.0105(10)
C1 0.0170(16) 0.0175(17) 0.0188(18) 0.0055(14) 0.0024(14) 0.0050(14)
C2 0.0227(18) 0.0186(17) 0.0220(19) 0.0019(14) 0.0065(14) 0.0096(14)
C3 0.0184(16) 0.0132(15) 0.0161(17) 0.0041(13) 0.0048(13) 0.0032(13)
C4 0.0292(19) 0.0128(16) 0.0211(19) -0.0006(14) 0.0049(15) 0.0056(15)
C5 0.0251(19) 0.0205(18) 0.0144(18) -0.0020(14) 0.0016(14) 0.0012(15)
C6 0.0175(17) 0.0291(19) 0.0198(19) 0.0034(15) -0.0014(14) 0.0060(15)
C7 0.0208(17) 0.0202(17) 0.0182(18) 0.0013(14) 0.0017(14) 0.0081(15)
C8 0.0161(16) 0.0132(15) 0.0144(17) 0.0000(13) 0.0022(13) 0.0027(13)
C9 0.0146(16) 0.0163(16) 0.0180(18) -0.0001(14) 0.0042(13) 0.0039(13)
C10 0.0222(18) 0.034(2) 0.0187(19) 0.0076(16) 0.0046(15) 0.0117(16)
C11 0.0259(18) 0.0171(17) 0.0188(18) 0.0008(14) -0.0029(15) 0.0079(15)
C12 0.0175(17) 0.0164(17) 0.027(2) 0.0050(14) 0.0000(14) 0.0044(14)
C13 0.0261(18) 0.0165(16) 0.0193(18) 0.0033(14) 0.0017(14) 0.0099(15)
O31 0.073(3) 0.066(3) 0.115(4) 0.010(3) 0.013(3) 0.024(2)
O32 0.075(3) 0.108(4) 0.142(5) -0.018(4) -0.005(3) 0.061(3)
O33 0.063(5) 0.063(5) 0.081(10) 0.000 0.000 0.031(2)

_geom_special_details            
;
All esds (except the esd in the dihedral angle between two l.s. planes)
are estimated using the full covariance matrix. The cell esds are taken
into account individually in the estimation of esds in distances, angles
and torsion angles; correlations between esds in cell parameters are only
used when they are defined by crystal symmetry. An approximate (isotropic)
treatment of cell esds is used for estimating esds involving l.s. planes.
;

loop_
_geom_bond_atom_site_label_1
_geom_bond_atom_site_label_2
_geom_bond_distance
_geom_bond_site_symmetry_2
_geom_bond_publ_flag
Sn2 O5 2.034(2) . ?
Sn2 C13 2.103(3) . ?
Sn2 C12 2.103(3) . ?
Sn2 O5 2.158(2) 13_656 ?
Sn2 O4 2.236(2) . ?
Sn1 O5 2.024(2) . ?
Sn1 C11 2.099(3) . ?
Sn1 C10 2.100(3) . ?
Sn1 O1 2.170(2) . ?
Sn1 O3 2.299(2) . ?
O1 C1 1.286(4) . ?
O2 C1 1.237(4) . ?
O3 C9 1.259(4) . ?
O4 C9 1.265(4) . ?
C1 C2 1.508(5) 11_666 ?
C2 C3 1.504(5) . ?
C3 C4 1.387(5) . ?
C3 C8 1.406(5) . ?
C4 C5 1.380(5) . ?
C5 C6 1.384(5) . ?
C6 C7 1.380(5) . ?
C7 C8 1.387(5) . ?
C8 C9 1.500(5) . ?

loop_
_geom_angle_atom_site_label_1
_geom_angle_atom_site_label_2
_geom_angle_atom_site_label_3
_geom_angle
_geom_angle_site_symmetry_1
_geom_angle_site_symmetry_3
_geom_angle_publ_flag
O5 Sn2 C13 114.18(12) . . ?
O5 Sn2 C12 107.71(12) . . ?
C13 Sn2 C12 137.73(14) . . ?
O5 Sn2 O5 75.75(9) . 13_656 ?
C13 Sn2 O5 96.12(12) . 13_656 ?
C12 Sn2 O5 99.34(12) . 13_656 ?
O5 Sn2 O4 89.79(9) . . ?
C13 Sn2 O4 84.39(12) . . ?
C12 Sn2 O4 90.48(12) . . ?
O5 Sn2 O4 164.42(9) 13_656 . ?
O5 Sn1 C11 109.96(12) . . ?
O5 Sn1 C10 103.88(13) . . ?
C11 Sn1 C10 145.12(15) . . ?
O5 Sn1 O1 82.72(9) . . ?
C11 Sn1 O1 94.40(11) . . ?
C10 Sn1 O1 98.02(12) . . ?
O5 Sn1 O3 91.16(9) . . ?
C11 Sn1 O3 83.20(11) . . ?
C10 Sn1 O3 88.02(12) . . ?
O1 Sn1 O3 172.26(9) . . ?
C1 O1 Sn1 106.3(2) . . ?
C9 O3 Sn1 124.6(2) . . ?
C9 O4 Sn2 130.9(2) . . ?
Sn1 O5 Sn2 131.95(11) . . ?
Sn1 O5 Sn2 122.86(10) . 13_656 ?
Sn2 O5 Sn2 104.25(9) . 13_656 ?
O2 C1 O1 121.6(3) . . ?
O2 C1 C2 120.5(3) . 11_666 ?
O1 C1 C2 117.8(3) . 11_666 ?
C3 C2 C1 114.9(3) . 12_546 ?
C4 C3 C8 118.1(3) . . ?
C4 C3 C2 118.0(3) . . ?
C8 C3 C2 123.8(3) . . ?
C5 C4 C3 121.7(3) . . ?
C4 C5 C6 120.2(3) . . ?
C7 C6 C5 118.8(3) . . ?
C6 C7 C8 121.7(3) . . ?
C7 C8 C3 119.5(3) . . ?
C7 C8 C9 117.5(3) . . ?
C3 C8 C9 123.0(3) . . ?
O3 C9 O4 124.2(3) . . ?
O3 C9 C8 119.8(3) . . ?
O4 C9 C8 116.0(3) . . ?

loop_
_geom_torsion_atom_site_label_1
_geom_torsion_atom_site_label_2
_geom_torsion_atom_site_label_3
_geom_torsion_atom_site_label_4
_geom_torsion
_geom_torsion_site_symmetry_1
_geom_torsion_site_symmetry_2
_geom_torsion_site_symmetry_3
_geom_torsion_site_symmetry_4
_geom_torsion_publ_flag
O5 Sn1 O1 C1 176.2(2) . . . . ?
C11 Sn1 O1 C1 66.6(2) . . . . ?
C10 Sn1 O1 C1 -80.7(2) . . . . ?
O5 Sn1 O3 C9 49.3(3) . . . . ?
C11 Sn1 O3 C9 159.3(3) . . . . ?
C10 Sn1 O3 C9 -54.5(3) . . . . ?
O5 Sn2 O4 C9 47.5(3) . . . . ?
C13 Sn2 O4 C9 161.9(3) . . . . ?
C12 Sn2 O4 C9 -60.2(3) . . . . ?
O5 Sn2 O4 C9 69.2(5) 13_656 . . . ?
C11 Sn1 O5 Sn2 -93.67(18) . . . . ?
C10 Sn1 O5 Sn2 77.76(18) . . . . ?
O1 Sn1 O5 Sn2 174.27(17) . . . . ?
O3 Sn1 O5 Sn2 -10.48(16) . . . . ?
C11 Sn1 O5 Sn2 73.42(16) . . . 13_656 ?
C10 Sn1 O5 Sn2 -115.14(16) . . . 13_656 ?
O1 Sn1 O5 Sn2 -18.64(12) . . . 13_656 ?
O3 Sn1 O5 Sn2 156.61(13) . . . 13_656 ?
C13 Sn2 O5 Sn1 -100.79(18) . . . . ?
C12 Sn2 O5 Sn1 73.41(19) . . . . ?
O5 Sn2 O5 Sn1 168.8(2) 13_656 . . . ?
O4 Sn2 O5 Sn1 -17.03(16) . . . . ?
C13 Sn2 O5 Sn2 90.37(14) . . . 13_656 ?
C12 Sn2 O5 Sn2 -95.43(13) . . . 13_656 ?
O5 Sn2 O5 Sn2 0.0 13_656 . . 13_656 ?
O4 Sn2 O5 Sn2 174.13(10) . . . 13_656 ?
Sn1 O1 C1 O2 10.6(4) . . . . ?
Sn1 O1 C1 C2 -165.3(2) . . . 11_666 ?
C1 C2 C3 C4 -104.4(4) 12_546 . . . ?
C1 C2 C3 C8 78.5(4) 12_546 . . . ?
C8 C3 C4 C5 -2.1(5) . . . . ?
C2 C3 C4 C5 -179.4(3) . . . . ?
C3 C4 C5 C6 0.8(5) . . . . ?
C4 C5 C6 C7 1.0(5) . . . . ?
C5 C6 C7 C8 -1.5(5) . . . . ?
C6 C7 C8 C3 0.2(5) . . . . ?
C6 C7 C8 C9 178.1(3) . . . . ?
C4 C3 C8 C7 1.6(5) . . . . ?
C2 C3 C8 C7 178.7(3) . . . . ?
C4 C3 C8 C9 -176.3(3) . . . . ?
C2 C3 C8 C9 0.9(5) . . . . ?
Sn1 O3 C9 O4 -37.1(4) . . . . ?
Sn1 O3 C9 C8 141.9(2) . . . . ?
Sn2 O4 C9 O3 -22.7(5) . . . . ?
Sn2 O4 C9 C8 158.3(2) . . . . ?
C7 C8 C9 O3 160.1(3) . . . . ?
C3 C8 C9 O3 -22.0(5) . . . . ?
C7 C8 C9 O4 -20.8(4) . . . . ?
C3 C8 C9 O4 157.1(3) . . . . ?

_diffrn_measured_fraction_theta_max 0.999
_diffrn_reflns_theta_full        25.00
_diffrn_measured_fraction_theta_full 0.999
_refine_diff_density_max         1.027
_refine_diff_density_min         -0.480
_refine_diff_density_rms         0.095

