####################################################################### 
# 
# This file contains crystal structure data downloaded from the 
# Cambridge Structural Database (CSD) hosted by the Cambridge 
# Crystallographic Data Centre (CCDC).
# 
# Full information about CCDC data access policies and citation 
# guidelines are available at http://www.ccdc.cam.ac.uk/access/V1 
# 
# Audit and citation data items may have been added by the CCDC. 
# Please retain this information to preserve the provenance of 
# this file and to allow appropriate attribution of the data. 
# 
#######################################################################

data_ds
_audit_block_doi                 10.5517/ccr03tn
_database_code_depnum_ccdc_archive 'CCDC 685311'
loop_
_citation_id
_citation_doi
_citation_year
1 10.1021/cg800576b 2009
_audit_update_record             
;
2008-04-16 deposited with the CCDC.	2024-07-10 downloaded from the CCDC.
;

_audit_creation_method           SHELXL-97
_chemical_name_systematic        
;
?
;
_chemical_name_common            ?
_chemical_melting_point          ?
_chemical_formula_moiety         ?
_chemical_formula_sum            'C40 H32 Cu4 Ge N8 O41 W12'
_chemical_formula_weight         3813.63

loop_
_atom_type_symbol
_atom_type_description
_atom_type_scat_dispersion_real
_atom_type_scat_dispersion_imag
_atom_type_scat_source
C C 0.0033 0.0016 'International Tables Vol C Tables 4.2.6.8 and 6.1.1.4'
H H 0.0000 0.0000 'International Tables Vol C Tables 4.2.6.8 and 6.1.1.4'
N N 0.0061 0.0033 'International Tables Vol C Tables 4.2.6.8 and 6.1.1.4'
O O 0.0106 0.0060 'International Tables Vol C Tables 4.2.6.8 and 6.1.1.4'
Ge Ge 0.1547 1.8001 'International Tables Vol C Tables 4.2.6.8 and 6.1.1.4'
W W -0.8490 6.8722 'International Tables Vol C Tables 4.2.6.8 and 6.1.1.4'
Cu Cu 0.3201 1.2651 'International Tables Vol C Tables 4.2.6.8 and 6.1.1.4'

_symmetry_cell_setting           tricinic
_symmetry_space_group_name_H-M   P-1

loop_
_symmetry_equiv_pos_as_xyz
'x, y, z'
'-x, -y, -z'

_cell_length_a                   14.383(4)
_cell_length_b                   14.400(4)
_cell_length_c                   21.420(5)
_cell_angle_alpha                96.724(5)
_cell_angle_beta                 96.541(5)
_cell_angle_gamma                109.438(4)
_cell_volume                     4099.1(18)
_cell_formula_units_Z            34
_cell_measurement_temperature    273(2)
_cell_measurement_reflns_used    ?
_cell_measurement_theta_min      1.52
_cell_measurement_theta_max      23.26

_exptl_crystal_description       block
_exptl_crystal_colour            black-brown
_exptl_crystal_size_max          ?
_exptl_crystal_size_mid          ?
_exptl_crystal_size_min          ?
_exptl_crystal_density_meas      ?
_exptl_crystal_density_diffrn    5.000
_exptl_crystal_density_method    'not measured'
_exptl_crystal_F_000             5338
_exptl_absorpt_coefficient_mu    34.194
_exptl_absorpt_correction_type   Numerical
_exptl_absorpt_correction_T_min  ?
_exptl_absorpt_correction_T_max  ?
_exptl_absorpt_process_details   'ABSCOR by T.Higashi 8 March, 1995'

_exptl_special_details           
;
?
;

_diffrn_ambient_temperature      273(2)
_diffrn_radiation_wavelength     0.71073
_diffrn_radiation_type           MoK\a
_diffrn_radiation_source         'fine-focus sealed tube'
_diffrn_radiation_monochromator  graphite
_diffrn_measurement_device_type  'Rigaku RAXIS RAPID IP'
_diffrn_measurement_method       Oscillation
_diffrn_detector_area_resol_mean 0.01
_diffrn_standards_number         ?
_diffrn_standards_interval_count ?
_diffrn_standards_interval_time  ?
_diffrn_standards_decay_%        ?
_diffrn_reflns_number            16954
_diffrn_reflns_av_R_equivalents  0.0784
_diffrn_reflns_av_sigmaI/netI    0.1440
_diffrn_reflns_limit_h_min       -15
_diffrn_reflns_limit_h_max       15
_diffrn_reflns_limit_k_min       -15
_diffrn_reflns_limit_k_max       15
_diffrn_reflns_limit_l_min       -22
_diffrn_reflns_limit_l_max       23
_diffrn_reflns_theta_min         1.52
_diffrn_reflns_theta_max         23.26
_reflns_number_total             11554
_reflns_number_gt                6671
_reflns_threshold_expression     >2sigma(I)

_computing_data_collection       'RAPID AUTO'
_computing_cell_refinement       'RAPID AUTO'
_computing_data_reduction        'RAPID AUTO'
_computing_structure_solution    'SHELXS-97 (Sheldrick, 1990)'
_computing_structure_refinement  'SHELXL-97 (Sheldrick, 1997)'
_computing_molecular_graphics    ?
_computing_publication_material  ?

_refine_special_details          
;
Refinement of F^2^ against ALL reflections. The weighted R-factor wR and
goodness of fit S are based on F^2^, conventional R-factors R are based
on F, with F set to zero for negative F^2^. The threshold expression of
F^2^ > 2sigma(F^2^) is used only for calculating R-factors(gt) etc. and is
not relevant to the choice of reflections for refinement. R-factors based
on F^2^ are statistically about twice as large as those based on F, and R-
factors based on ALL data will be even larger.
;

_refine_ls_structure_factor_coef Fsqd
_refine_ls_matrix_type           full
_refine_ls_weighting_scheme      calc
_refine_ls_weighting_details     
'calc w=1/[\s^2^(Fo^2^)+(0.1253P)^2^+0.0000P] where P=(Fo^2^+2Fc^2^)/3'
_atom_sites_solution_primary     direct
_atom_sites_solution_secondary   difmap
_atom_sites_solution_hydrogens   geom
_refine_ls_hydrogen_treatment    mixed
_refine_ls_extinction_method     SHELXL
_refine_ls_extinction_coef       0.00004(2)
_refine_ls_extinction_expression Fc^*^=kFc[1+0.001xFc^2^\l^3^/sin(2\q)]^-1/4^
_refine_ls_number_reflns         11554
_refine_ls_number_parameters     516
_refine_ls_number_restraints     0
_refine_ls_R_factor_all          0.1387
_refine_ls_R_factor_gt           0.0915
_refine_ls_wR_factor_ref         0.2547
_refine_ls_wR_factor_gt          0.2289
_refine_ls_goodness_of_fit_ref   1.010
_refine_ls_restrained_S_all      1.010
_refine_ls_shift/su_max          0.001
_refine_ls_shift/su_mean         0.000

loop_
_atom_site_label
_atom_site_type_symbol
_atom_site_fract_x
_atom_site_fract_y
_atom_site_fract_z
_atom_site_U_iso_or_equiv
_atom_site_adp_type
_atom_site_occupancy
_atom_site_symmetry_multiplicity
_atom_site_calc_flag
_atom_site_refinement_flags
_atom_site_disorder_assembly
_atom_site_disorder_group
Ge1 Ge 0.8162(3) 1.8163(2) 0.74572(14) 0.0131(7) Uani 1 1 d . . .
W12 W 0.94490(12) 1.94501(10) 0.63136(6) 0.0220(4) Uani 1 1 d . . .
W11 W 0.92263(12) 2.08033(10) 0.78397(7) 0.0254(4) Uani 1 1 d . . .
W10 W 0.67064(13) 1.97196(12) 0.74997(7) 0.0316(4) Uani 1 1 d . . .
W9 W 0.97153(13) 1.67042(11) 0.74983(7) 0.0313(4) Uani 1 1 d . . .
W8 W 0.79434(12) 1.95404(11) 0.88949(6) 0.0245(4) Uani 1 1 d . . .
W7 W 1.08023(12) 1.92263(11) 0.78400(7) 0.0260(4) Uani 1 1 d . . .
W6 W 0.95387(12) 1.79414(11) 0.88949(6) 0.0246(4) Uani 1 1 d . . .
W5 W 0.69227(12) 1.83714(11) 0.59713(6) 0.0234(4) Uani 1 1 d . . .
W4 W 0.83700(12) 1.69190(10) 0.59712(6) 0.0236(4) Uani 1 1 d . . .
W3 W 0.67636(13) 1.67630(11) 0.85091(7) 0.0293(4) Uani 1 1 d . . .
W2 W 0.69632(13) 1.55139(11) 0.71122(7) 0.0300(4) Uani 1 1 d . . .
W1 W 0.55151(12) 1.69635(11) 0.71131(7) 0.0305(4) Uani 1 1 d . . .
O1 O 0.8049(19) 1.9245(18) 0.7815(10) 0.029(6) Uani 1 1 d . . .
OW1 O 1.0660(15) 2.0684(14) 0.9528(8) 0.011(4) Uiso 1 1 d . . .
O2 O 0.632(2) 1.632(2) 0.9162(13) 0.054(8) Uiso 1 1 d . . .
O4 O 0.662(2) 1.4257(19) 0.6870(11) 0.041(7) Uiso 1 1 d . . .
O5 O 1.0760(18) 1.8943(16) 0.8724(10) 0.025(5) Uiso 1 1 d . . .
O7 O 0.600(2) 1.7378(18) 0.6377(11) 0.034(6) Uiso 1 1 d . . .
O8 O 0.5697(19) 1.5703(18) 0.6873(11) 0.032(6) Uiso 1 1 d . . .
O9 O 0.9371(17) 1.8219(16) 0.5824(9) 0.021(5) Uiso 1 1 d . . .
O10 O 0.7377(18) 1.6018(16) 0.6359(10) 0.024(5) Uiso 1 1 d . . .
O11 O 0.560(2) 1.6723(18) 0.7991(11) 0.034(6) Uiso 1 1 d . . .
O12 O 0.9886(18) 1.6899(16) 0.8425(10) 0.025(5) Uiso 1 1 d . . .
O13 O 1.0866(18) 1.7908(16) 0.7564(9) 0.022(5) Uiso 1 1 d . . .
O14 O 0.8163(19) 1.9314(17) 0.5813(10) 0.029(6) Uiso 1 1 d . . .
O15 O 0.7865(19) 1.9968(17) 0.9662(10) 0.029(6) Uiso 1 1 d . . .
O16 O 0.6923(18) 1.9891(16) 0.8433(10) 0.023(5) Uiso 1 1 d . . .
O17 O 0.8437(19) 1.6103(17) 0.5358(10) 0.027(5) Uiso 1 1 d . . .
O19 O 0.8362(18) 1.5875(17) 0.7463(10) 0.026(5) Uiso 1 1 d . . .
O20 O 0.8927(17) 2.0756(15) 0.8726(9) 0.019(5) Uiso 1 1 d . . .
O21 O 0.9183(18) 1.7988(16) 0.7812(10) 0.023(5) Uiso 1 1 d . . .
O23 O 0.934(2) 1.6858(18) 0.6651(11) 0.033(6) Uiso 1 1 d . . .
O25 O 0.6713(18) 1.5545(16) 0.7981(10) 0.025(5) Uiso 1 1 d . . .
O26 O 1.2048(18) 1.9968(17) 0.7954(10) 0.026(5) Uiso 1 1 d . . .
O27 O 0.6122(19) 1.8469(17) 0.5363(10) 0.029(6) Uiso 1 1 d . . .
O28 O 0.9992(19) 2.2071(17) 0.7946(10) 0.027(5) Uiso 1 1 d . . .
O29 O 0.5842(19) 1.8315(17) 0.7431(10) 0.029(6) Uiso 1 1 d . . .
O30 O 0.8229(18) 1.8204(16) 0.6660(9) 0.022(5) Uiso 1 1 d . . .
O31 O 1.038(2) 1.5918(18) 0.7403(11) 0.033(6) Uiso 1 1 d . . .
O32 O 0.9256(18) 2.0360(16) 0.6978(10) 0.024(5) Uiso 1 1 d . . .
O33 O 1.0214(19) 2.0216(17) 0.5888(10) 0.031(6) Uiso 1 1 d . . .
O34 O 1.0329(17) 1.9232(15) 0.6943(9) 0.017(5) Uiso 1 1 d . . .
O35 O 1.0175(16) 2.0204(14) 0.8044(9) 0.014(5) Uiso 1 1 d . . .
O36 O 0.7886(17) 2.0896(15) 0.7588(9) 0.017(5) Uiso 1 1 d . . .
O37 O 0.6869(18) 1.9328(16) 0.6648(10) 0.024(5) Uiso 1 1 d . . .
O38 O 0.5866(17) 2.0311(15) 0.7383(9) 0.019(5) Uiso 1 1 d . . .
O50 O 0.8193(19) 1.7063(17) 0.8735(10) 0.027(5) Uiso 1 1 d . . .
O51 O 0.429(2) 1.664(2) 0.6913(12) 0.048(7) Uiso 1 1 d . . .
O53 O 0.709(2) 1.8228(19) 0.8759(11) 0.039(6) Uiso 1 1 d . . .
O54 O 0.735(2) 1.7337(18) 0.5570(11) 0.036(6) Uiso 1 1 d . . .
O55 O 0.7178(18) 1.7186(16) 0.7542(9) 0.022(5) Uiso 1 1 d . . .
O56 O 0.8968(18) 1.8966(16) 0.9019(10) 0.025(5) Uiso 1 1 d . . .
Cu4 Cu 1.3551(4) 1.9998(4) 0.77878(19) 0.0359(12) Uani 1 1 d . . .
Cu3 Cu 1.0012(4) 2.3559(3) 0.77946(19) 0.0375(13) Uani 1 1 d . . .
Cu2 Cu 0.7270(4) 2.2222(4) 0.73521(19) 0.0391(13) Uani 1 1 d . . .
Cu1 Cu 0.7775(4) 2.2726(4) 0.26493(19) 0.0400(13) Uani 1 1 d . . .
C5 C 0.894(3) 2.250(3) 0.4467(15) 0.031(9) Uiso 1 1 d . . .
H5A H 0.9122 2.2010 0.4634 0.037 Uiso 1 1 calc R . .
C32 C 1.076(3) 2.380(3) 0.9149(15) 0.031(8) Uiso 1 1 d . . .
H32 H 1.0715 2.3135 0.9060 0.037 Uiso 1 1 calc R . .
C31 C 1.098(3) 2.577(3) 0.9367(14) 0.024(8) Uiso 1 1 d . . .
H31 H 1.0994 2.6421 0.9442 0.029 Uiso 1 1 calc R . .
C14 C 0.790(3) 2.249(3) 0.8703(15) 0.027(8) Uiso 1 1 d . . .
H14A H 0.7847 2.1825 0.8636 0.032 Uiso 1 1 calc R . .
C13 C 0.825(3) 2.458(3) 0.8963(18) 0.047(11) Uiso 1 1 d . . .
H13A H 0.8423 2.5270 0.9018 0.056 Uiso 1 1 calc R . .
C7 C 1.382(3) 2.077(3) 0.9165(16) 0.036(9) Uiso 1 1 d . . .
H7A H 1.3135 2.0649 0.9079 0.044 Uiso 1 1 calc R . .
C11 C 1.390(3) 1.875(3) 0.6005(15) 0.029(8) Uiso 1 1 d . . .
H11A H 1.4226 1.8327 0.5865 0.034 Uiso 1 1 calc R . .
C22 C 0.761(3) 2.134(3) 0.6195(15) 0.028(8) Uiso 1 1 d . . .
H22A H 0.8120 2.1253 0.6459 0.034 Uiso 1 1 calc R . .
C42 C 0.874(3) 2.387(3) 0.6030(15) 0.026(8) Uiso 1 1 d . . .
H42A H 0.8257 2.4124 0.5891 0.032 Uiso 1 1 calc R . .
C12 C 0.839(2) 2.411(2) 0.9451(13) 0.012(6) Uiso 1 1 d . . .
C10 C 1.307(3) 2.009(3) 0.6476(15) 0.029(8) Uiso 1 1 d . . .
H10A H 1.2887 2.0613 0.6648 0.035 Uiso 1 1 calc R . .
C21 C 0.748(3) 2.101(2) 0.5550(15) 0.026(8) Uiso 1 1 d . . .
H21A H 0.7913 2.0723 0.5390 0.031 Uiso 1 1 calc R . .
C4 C 0.894(3) 2.332(3) 0.4877(15) 0.025(8) Uiso 1 1 d . . .
C3 C 0.694(3) 2.177(3) 0.0688(17) 0.034(9) Uiso 1 1 d . . .
H3A H 0.7280 2.1656 0.0360 0.040 Uiso 1 1 calc R . .
C20 C 0.671(3) 2.112(2) 0.5133(14) 0.019(7) Uiso 1 1 d . . .
C30 C 1.073(3) 2.528(3) 0.8774(16) 0.033(9) Uiso 1 1 d . . .
H30A H 1.0694 2.5633 0.8439 0.039 Uiso 1 1 calc R . .
C16 C 0.875(3) 2.468(2) 1.0087(15) 0.023(8) Uiso 1 1 d . . .
C9 C 1.386(3) 1.898(3) 0.6647(16) 0.030(8) Uiso 1 1 d . . .
H9A H 1.4155 1.8671 0.6927 0.035 Uiso 1 1 calc R . .
C8 C 1.292(4) 1.985(3) 0.581(2) 0.058(12) Uiso 1 1 d . . .
H8A H 1.2542 2.0103 0.5546 0.069 Uiso 1 1 calc R . .
C2 C 0.866(3) 2.240(3) 0.3799(15) 0.026(8) Uiso 1 1 d . . .
H2A H 0.8789 2.1913 0.3530 0.031 Uiso 1 1 calc R . .
C1 C 0.745(3) 2.207(3) 0.1308(16) 0.035(9) Uiso 1 1 d . . .
H1A H 0.8099 2.2080 0.1382 0.041 Uiso 1 1 calc R . .
C15 C 0.891(3) 2.573(3) 1.0209(16) 0.033(9) Uiso 1 1 d . . .
H15 H 0.8804 2.6078 0.9884 0.040 Uiso 1 1 calc R . .
C51 C 0.779(3) 2.392(3) 0.8301(19) 0.049(11) Uiso 1 1 d . . .
H51A H 0.7633 2.4215 0.7962 0.059 Uiso 1 1 calc R . .
C40 C 0.902(3) 2.392(3) 0.6671(16) 0.032(9) Uiso 1 1 d . . .
H40A H 0.8780 2.4291 0.6955 0.038 Uiso 1 1 calc R . .
C60 C 0.825(3) 2.305(3) 0.9301(19) 0.048(11) Uiso 1 1 d . . .
H60A H 0.8398 2.2728 0.9631 0.058 Uiso 1 1 calc R . .
C19 C 0.616(3) 2.179(3) 0.6063(16) 0.033(9) Uiso 1 1 d . . .
H19A H 0.5670 2.1976 0.6232 0.040 Uiso 1 1 calc R . .
C70 C 0.988(3) 2.299(2) 0.5826(15) 0.025(8) Uiso 1 1 d . . .
H70A H 1.0177 2.2649 0.5568 0.030 Uiso 1 1 calc R . .
C83 C 0.544(4) 2.187(3) 0.1020(19) 0.055(12) Uiso 1 1 d . . .
H83A H 0.4776 2.1832 0.0959 0.066 Uiso 1 1 calc R . .
C72 C 0.607(4) 2.152(3) 0.541(2) 0.053(12) Uiso 1 1 d . . .
H72A H 0.5557 2.1602 0.5146 0.064 Uiso 1 1 calc R . .
C65 C 1.578(4) 2.106(3) 0.939(2) 0.058(12) Uiso 1 1 d . . .
H65 H 1.6460 2.1189 0.9453 0.069 Uiso 1 1 calc R . .
C82 C 0.586(3) 2.163(3) 0.0543(16) 0.028(8) Uiso 1 1 d . . .
C64 C 1.423(3) 2.109(2) 0.9745(15) 0.025(8) Uiso 1 1 d . . .
H64 H 1.3866 2.1214 1.0054 0.030 Uiso 1 1 calc R . .
C69 C 0.920(3) 2.340(3) 0.5551(16) 0.033(9) Uiso 1 1 d . . .
C68 C 0.851(3) 2.397(3) 0.4591(16) 0.034(9) Uiso 1 1 d . . .
H68A H 0.8429 2.4507 0.4842 0.040 Uiso 1 1 calc R . .
C63 C 1.339(3) 1.920(3) 0.5551(17) 0.040(10) Uiso 1 1 d . . .
C67 C 1.009(4) 2.309(3) 0.6478(19) 0.051(11) Uiso 1 1 d . . .
H67A H 1.0604 2.2896 0.6651 0.061 Uiso 1 1 calc R . .
C81 C 0.606(3) 2.220(3) 0.1656(19) 0.045(10) Uiso 1 1 d . . .
H81A H 0.5738 2.2321 0.1991 0.054 Uiso 1 1 calc R . .
C62 C 1.523(4) 2.070(3) 0.878(2) 0.051(11) Uiso 1 1 d . . .
H62A H 1.5541 2.0527 0.8452 0.061 Uiso 1 1 calc R . .
C66 C 0.821(3) 2.379(3) 0.3940(17) 0.041(10) Uiso 1 1 d . . .
H66A H 0.7973 2.4240 0.3755 0.049 Uiso 1 1 calc R . .
C80 C 0.531(3) 2.125(3) -0.0077(16) 0.030(8) Uiso 1 1 d . . .
N10 N 1.051(3) 2.422(2) 0.8638(14) 0.038(8) Uiso 1 1 d . . .
N4 N 1.345(2) 1.960(2) 0.6897(13) 0.032(7) Uiso 1 1 d . . .
N3 N 1.427(2) 2.059(2) 0.8651(13) 0.027(7) Uiso 1 1 d . . .
N6 N 0.762(2) 2.291(2) 0.8193(13) 0.033(7) Uiso 1 1 d . . .
N2 N 0.823(2) 2.298(2) 0.3553(13) 0.030(7) Uiso 1 1 d . . .
N11 N 0.959(3) 2.348(2) 0.6891(14) 0.036(8) Uiso 1 1 d . . .
N9 N 0.701(2) 2.180(2) 0.6469(12) 0.026(7) Uiso 1 1 d . . .
N1 N 0.706(3) 2.235(2) 0.1819(15) 0.044(8) Uiso 1 1 d . . .
O24 O 0.994(2) 1.7833(18) 0.9652(11) 0.036(6) Uiso 1 1 d . . .

loop_
_atom_site_aniso_label
_atom_site_aniso_U_11
_atom_site_aniso_U_22
_atom_site_aniso_U_33
_atom_site_aniso_U_23
_atom_site_aniso_U_13
_atom_site_aniso_U_12
Ge1 0.012(2) 0.0118(18) 0.0132(16) -0.0021(13) -0.0076(15) 0.0065(15)
W12 0.0235(9) 0.0201(8) 0.0225(7) 0.0027(6) -0.0009(7) 0.0097(7)
W11 0.0295(10) 0.0167(8) 0.0290(8) 0.0004(6) -0.0052(7) 0.0110(7)
W10 0.0307(11) 0.0300(9) 0.0387(9) 0.0036(7) 0.0017(8) 0.0186(8)
W9 0.0350(11) 0.0257(9) 0.0372(9) 0.0044(7) -0.0008(8) 0.0181(8)
W8 0.0268(10) 0.0273(9) 0.0229(8) 0.0017(6) 0.0021(7) 0.0155(8)
W7 0.0223(9) 0.0248(9) 0.0294(8) -0.0003(6) -0.0029(7) 0.0103(7)
W6 0.0318(10) 0.0238(8) 0.0220(7) 0.0054(6) -0.0024(7) 0.0164(8)
W5 0.0244(9) 0.0224(8) 0.0225(7) -0.0026(6) -0.0115(7) 0.0139(7)
W4 0.0249(9) 0.0214(8) 0.0234(8) -0.0074(6) -0.0076(7) 0.0139(7)
W3 0.0278(10) 0.0250(9) 0.0378(9) 0.0124(7) 0.0092(8) 0.0092(8)
W2 0.0289(10) 0.0134(8) 0.0431(9) 0.0008(6) -0.0039(8) 0.0062(7)
W1 0.0191(9) 0.0271(9) 0.0421(9) 0.0013(7) -0.0010(8) 0.0072(7)
O1 0.030(17) 0.049(17) 0.019(12) 0.014(11) 0.001(12) 0.028(14)
Cu4 0.029(3) 0.055(3) 0.017(2) -0.007(2) -0.008(2) 0.014(3)
Cu3 0.056(4) 0.031(3) 0.020(2) -0.0037(19) -0.012(2) 0.016(3)
Cu2 0.063(4) 0.035(3) 0.015(2) -0.0058(19) -0.009(2) 0.020(3)
Cu1 0.040(3) 0.060(4) 0.015(2) -0.006(2) -0.010(2) 0.020(3)

_geom_special_details            
;
All esds (except the esd in the dihedral angle between two l.s. planes)
are estimated using the full covariance matrix. The cell esds are taken
into account individually in the estimation of esds in distances, angles
and torsion angles; correlations between esds in cell parameters are only
used when they are defined by crystal symmetry. An approximate (isotropic)
treatment of cell esds is used for estimating esds involving l.s. planes.
;

loop_
_geom_bond_atom_site_label_1
_geom_bond_atom_site_label_2
_geom_bond_distance
_geom_bond_site_symmetry_2
_geom_bond_publ_flag
Ge1 O55 1.68(2) . ?
Ge1 O21 1.68(2) . ?
Ge1 O1 1.72(2) . ?
Ge1 O30 1.73(2) . ?
W12 O33 1.71(2) . ?
W12 O34 1.87(2) . ?
W12 O9 1.914(19) . ?
W12 O32 1.927(19) . ?
W12 O14 1.97(2) . ?
W12 O30 2.32(2) . ?
W11 O28 1.76(2) . ?
W11 O35 1.881(19) . ?
W11 O32 1.89(2) . ?
W11 O36 1.99(2) . ?
W11 O20 1.999(18) . ?
W11 O1 2.31(3) . ?
W10 O38 1.71(2) . ?
W10 O37 1.909(19) . ?
W10 O36 1.93(2) . ?
W10 O29 1.97(2) . ?
W10 O16 1.96(2) . ?
W10 O1 2.31(2) . ?
W9 O31 1.72(2) . ?
W9 O19 1.90(3) . ?
W9 O23 1.89(2) . ?
W9 O13 1.94(2) . ?
W9 O12 1.95(2) . ?
W9 O21 2.285(19) . ?
W8 O15 1.72(2) . ?
W8 O53 1.85(3) . ?
W8 O16 1.92(2) . ?
W8 O56 1.92(2) . ?
W8 O20 1.95(2) . ?
W8 O1 2.33(2) . ?
W7 O26 1.73(3) . ?
W7 O35 1.943(17) . ?
W7 O13 1.956(19) . ?
W7 O34 1.966(19) . ?
W7 O5 1.99(2) . ?
W7 O21 2.41(2) . ?
W6 O24 1.70(2) . ?
W6 O50 1.89(3) . ?
W6 O56 1.92(2) . ?
W6 O12 1.943(19) . ?
W6 O5 1.97(2) . ?
W6 O21 2.33(2) . ?
W5 O27 1.69(2) . ?
W5 O14 1.94(3)