
#######################################################################
#
#                 Cambridge Crystallographic Data Centre
#                                CCDC
#
#######################################################################
#
# If this CIF has been generated from an entry in the Cambridge
# Structural Database, then it will include bibliographic, chemical,
# crystal, experimental, refinement or atomic coordinate data resulting
# from the CCDC's data processing and validation procedures.
#
#######################################################################

data_CSD_CIF_HOXNND10
_audit_creation_date 1981-05-19
_audit_creation_method CSD-ConQuest-V1
_database_code_CSD HOXNND10
_database_code_depnum_ccdc_archive 'CCDC 1178075'
_chemical_formula_sum 'C12 H24 N3 Nd1 O15'
_chemical_formula_moiety
;
C12 H24 N3 Nd1 O15
;
_journal_coden_Cambridge 42
_journal_volume 42
_journal_year 1980
_journal_page_first 1417
_journal_name_full 'J.Inorg.Nucl.Chem. '
loop_
_publ_author_name
"G.Bombieri"
"G.de Paoli"
"F.Benetollo"
"A.Cassol"
_chemical_name_systematic
;
1,4,7,10,13,16-Hexaoxacyclo-octadecane-trinitrato-neodymium
;
_chemical_name_common
;
(18-Crown-6)-trinitrato-neodymium; Teaching Subset: Fundamental Chemistry
;
_cell_volume   4079.630
_exptl_crystal_density_diffrn 1.94
_diffrn_ambient_temperature ?
_diffrn_special_details
;
The study was carried out at room temperature,in the range 283-303K

;
#These two values have been output from a single CSD field.
_refine_ls_R_factor_gt 0.038
_refine_ls_wR_factor_gt 0.038
_symmetry_cell_setting orthorhombic
_symmetry_space_group_name_H-M 'P b c a'
_symmetry_Int_Tables_number 61
loop_
_symmetry_equiv_pos_site_id
_symmetry_equiv_pos_as_xyz
1 x,y,z
2 1/2-x,-y,1/2+z
3 1/2+x,1/2-y,-z
4 -x,1/2+y,1/2-z
5 -x,-y,-z
6 -1/2+x,y,-1/2-z
7 -1/2-x,-1/2+y,z
8 x,-1/2-y,-1/2+z
_cell_length_a 15.512(9)
_cell_length_b 21.662(1)
_cell_length_c 12.141(6)
_cell_angle_alpha 90
_cell_angle_beta 90
_cell_angle_gamma 90
_cell_formula_units_Z 8
loop_
_atom_type_symbol
_atom_type_radius_bond
C 0.68
H 0.23
N 0.68
Nd 1.81
O 0.68
loop_
_atom_site_label
_atom_site_type_symbol
_atom_site_fract_x
_atom_site_fract_y
_atom_site_fract_z
Nd1 Nd 0.18450 0.11770 0.01090
O1 O 0.09910 0.02470 0.08570
C1 C 0.01870 0.03660 0.13950
C2 C 0.02930 0.08540 0.22250
O2 O 0.05860 0.13900 0.16480
C3 C 0.07230 0.18900 0.24000
C4 C 0.10060 0.24330 0.17650
O3 O 0.17920 0.22680 0.12100
C5 C 0.21030 0.27880 0.06100
C6 C 0.28790 0.26090 0.00330
O4 O 0.26790 0.21150 -0.07260
C7 C 0.33370 0.19970 -0.15200
C8 C 0.39350 0.15160 -0.11020
O5 O 0.34160 0.09720 -0.09120
C9 C 0.39250 0.04810 -0.04950
C10 C 0.33570 -0.00530 -0.03630
O6 O 0.26740 0.00980 0.03640
C11 C 0.21280 -0.04220 0.05470
C12 C 0.14580 -0.02490 0.13360
N1 N 0.01720 0.16530 -0.08450
O7 O 0.07730 0.20140 -0.05790
O8 O 0.02970 0.10920 -0.06580
O9 O -0.04820 0.18350 -0.12820
N2 N 0.14820 0.07220 -0.21830
O10 O 0.16240 0.03510 -0.14050
O11 O 0.17350 0.12670 -0.20140
O12 O 0.11240 0.05710 -0.30110
N3 N 0.29190 0.12500 0.21650
O13 O 0.21980 0.09830 0.21450
O14 O 0.32290 0.13920 0.12510
O15 O 0.33020 0.13270 0.30190
H1 H -0.02840 0.05050 0.07900
H2 H -0.00280 -0.00500 0.18020
H3 H 0.07600 0.07200 0.28410
H4 H -0.03180 0.09470 0.26160
H5 H 0.01250 0.20000 0.28130
H6 H 0.12030 0.17630 0.30030
H7 H 0.11320 0.28130 0.23180
H8 H 0.05210 0.25680 0.11730
H9 H 0.22480 0.31610 0.11710
H10 H 0.16230 0.29390 0.00240
H11 H 0.31290 0.30000 -0.04180
H12 H 0.33560 0.24520 0.06170
H13 H 0.30470 0.18410 -0.22790
H14 H 0.36950 0.24160 -0.16710
H15 H 0.42300 0.16650 -0.03410
H16 H 0.44310 0.14210 -0.17030
H17 H 0.44340 0.03710 -0.10680
H18 H 0.42020 0.06080 0.02900
H19 H 0.37250 -0.04300 -0.00170
H20 H 0.31000 -0.01900 -0.11520
H21 H 0.18380 -0.05620 -0.02220
H22 H 0.25060 -0.07980 0.08760
H23 H 0.17440 -0.01090 0.21070
H24 H 0.10330 -0.06360 0.14740
#END
