
#######################################################################
#
#                 Cambridge Crystallographic Data Centre
#                                CCDC
#
#######################################################################
#
# If this CIF has been generated from an entry in the Cambridge
# Structural Database, then it will include bibliographic, chemical,
# crystal, experimental, refinement or atomic coordinate data resulting
# from the CCDC's data processing and validation procedures.
#
#######################################################################

data_CSD_CIF_HOXOCD02
_audit_creation_date 1980-08-06
_audit_creation_method CSD-ConQuest-V1
_database_code_CSD HOXOCD02
_database_code_depnum_ccdc_archive 'CCDC 1178078'
_chemical_formula_sum 'C12 H24 O6'
_chemical_formula_moiety
;
C12 H24 O6
;
_journal_coeditor_code "IUCr A18670"
_journal_coden_Cambridge 107
_journal_volume 36
_journal_year 1980
_journal_page_first 615
_journal_name_full 'Acta Crystallogr.,Sect.B:Struct.Crystallogr.Cryst.Chem. '
loop_
_publ_author_name
"E.Maverick"
"P.Seiler"
"W.B.Schweizer"
"J.D.Dunitz"
_chemical_name_systematic
;
1,4,7,10,13,16-Hexaoxacyclo-octadecane
;
_chemical_name_common
;
18-Crown-6; Teaching Subset: Fundamental Chemistry, Symmetry
;
_cell_volume   1369.223
_diffrn_ambient_temperature 100
#These two values have been output from a single CSD field.
_refine_ls_R_factor_gt 0.038
_refine_ls_wR_factor_gt 0.038
_symmetry_cell_setting orthorhombic
_symmetry_space_group_name_H-M 'P b c a'
_symmetry_Int_Tables_number 61
loop_
_symmetry_equiv_pos_site_id
_symmetry_equiv_pos_as_xyz
1 x,y,z
2 1/2-x,-y,1/2+z
3 1/2+x,1/2-y,-z
4 -x,1/2+y,1/2-z
5 -x,-y,-z
6 -1/2+x,y,-1/2-z
7 -1/2-x,-1/2+y,z
8 x,-1/2-y,-1/2+z
_cell_length_a 8.066(4)
_cell_length_b 20.12(1)
_cell_length_c 8.437(4)
_cell_angle_alpha 90
_cell_angle_beta 90
_cell_angle_gamma 90
_cell_formula_units_Z 4
loop_
_atom_type_symbol
_atom_type_radius_bond
C 0.68
H 0.23
O 0.68
loop_
_atom_site_label
_atom_site_type_symbol
_atom_site_fract_x
_atom_site_fract_y
_atom_site_fract_z
C1 C -0.00404 -0.19563 -0.17519
O1 O -0.00277 -0.13445 -0.26030
C2 C 0.13290 -0.20199 -0.05389
O2 O 0.09711 -0.16196 0.08093
C3 C 0.24190 -0.14278 0.16536
C4 C 0.20014 -0.08739 0.27854
O3 O 0.15293 -0.03088 0.18877
C5 C 0.09783 0.02268 0.28528
C6 C -0.07574 -0.08083 -0.17375
H1 H -0.12200 -0.20200 -0.11700
H2 H 0.01500 -0.23400 -0.26300
H3 H 0.24800 -0.18700 -0.10800
H4 H 0.14100 -0.25400 -0.01900
H5 H 0.33500 -0.12600 0.08300
H6 H 0.28800 -0.18500 0.23300
H7 H 0.30600 -0.07600 0.35200
H8 H 0.10100 -0.10200 0.35700
H9 H 0.18700 0.03400 0.37700
H10 H -0.01800 0.01000 0.34200
H11 H 0.00100 -0.06600 -0.07500
H12 H -0.19400 -0.09600 -0.12700
C6D C 0.07574 0.08083 0.17375
C5D C -0.09783 -0.02268 -0.28528
O1D O 0.00277 0.13445 0.26030
H11D H -0.00100 0.06600 0.07500
H12D H 0.19400 0.09600 0.12700
O3D O -0.15293 0.03088 -0.18877
H9D H -0.18700 -0.03400 -0.37700
H10D H 0.01800 -0.01000 -0.34200
C1D C 0.00404 0.19563 0.17519
C4D C -0.20014 0.08739 -0.27854
C2D C -0.13290 0.20199 0.05389
H1D H 0.12200 0.20200 0.11700
H2D H -0.01500 0.23400 0.26300
C3D C -0.24190 0.14278 -0.16536
H7D H -0.30600 0.07600 -0.35200
H8D H -0.10100 0.10200 -0.35700
O2D O -0.09711 0.16196 -0.08093
H3D H -0.24800 0.18700 0.10800
H4D H -0.14100 0.25400 0.01900
H5D H -0.33500 0.12600 -0.08300
H6D H -0.28800 0.18500 -0.23300
#END
