####################################################################### 
# 
# This file contains crystal structure data downloaded from the 
# Cambridge Structural Database (CSD) hosted by the Cambridge 
# Crystallographic Data Centre (CCDC).
# 
# Full information about CCDC data access policies and citation 
# guidelines are available at http://www.ccdc.cam.ac.uk/access/V1 
# 
# Audit and citation data items may have been added by the CCDC. 
# Please retain this information to preserve the provenance of 
# this file and to allow appropriate attribution of the data. 
# 
#######################################################################

data_yin123b
_audit_block_doi                 10.5517/cc55g5y
_database_code_depnum_ccdc_archive 'CCDC 154199'
loop_
_citation_id
_citation_doi
_citation_year
1 10.1126/science.283.5405.1148 1999
_audit_update_record             
;
2000-11-22 deposited with the CCDC.	2024-07-10 downloaded from the CCDC.
;

_audit_creation_method           SHELXL-97
_chemical_name_systematic        
; 
[Cu3(TMA)2(py)9](py)3(H2O)4.5
;
_chemical_name_common            ?
_chemical_melting_point          ?
_chemical_formula_moiety         ?
_chemical_formula_sum            'C78 H75 Cu3 N12 O18'
_chemical_formula_weight         1633.50

loop_
_atom_type_symbol
_atom_type_description
_atom_type_scat_dispersion_real
_atom_type_scat_dispersion_imag
_atom_type_scat_source
C C 0.0033 0.0016 'International Tables Vol C Tables 4.2.6.8 and 6.1.1.4'
H H 0.0000 0.0000 'International Tables Vol C Tables 4.2.6.8 and 6.1.1.4'
N N 0.0061 0.0033 'International Tables Vol C Tables 4.2.6.8 and 6.1.1.4'
O O 0.0106 0.0060 'International Tables Vol C Tables 4.2.6.8 and 6.1.1.4'
Cu Cu 0.3201 1.2651 'International Tables Vol C Tables 4.2.6.8 and 6.1.1.4'

_symmetry_cell_setting           Hexagonal
_symmetry_space_group_name_H-M   R-3

loop_
_symmetry_equiv_pos_as_xyz
'x, y, z'
'-y, x-y, z'
'-x+y, -x, z'
'x+2/3, y+1/3, z+1/3'
'-y+2/3, x-y+1/3, z+1/3'
'-x+y+2/3, -x+1/3, z+1/3'
'x+1/3, y+2/3, z+2/3'
'-y+1/3, x-y+2/3, z+2/3'
'-x+y+1/3, -x+2/3, z+2/3'
'-x, -y, -z'
'y, -x+y, -z'
'x-y, x, -z'
'-x+2/3, -y+1/3, -z+1/3'
'y+2/3, -x+y+1/3, -z+1/3'
'x-y+2/3, x+1/3, -z+1/3'
'-x+1/3, -y+2/3, -z+2/3'
'y+1/3, -x+y+2/3, -z+2/3'
'x-y+1/3, x+2/3, -z+2/3'

_cell_length_a                   19.142(3)
_cell_length_b                   19.142(3)
_cell_length_c                   42.640(9)
_cell_angle_alpha                90.00
_cell_angle_beta                 90.00
_cell_angle_gamma                120.00
_cell_volume                     13531(4)
_cell_formula_units_Z            6
_cell_measurement_temperature    223(2)
_cell_measurement_reflns_used    25
_cell_measurement_theta_min      3
_cell_measurement_theta_max      30

_exptl_crystal_description       prism
_exptl_crystal_colour            'dark blue'
_exptl_crystal_size_max          0.35
_exptl_crystal_size_mid          0.15
_exptl_crystal_size_min          0.15
_exptl_crystal_density_meas      ?
_exptl_crystal_density_diffrn    1.222
_exptl_crystal_density_method    'not measured'
_exptl_crystal_F_000             5076
_exptl_absorpt_coefficient_mu    0.767
_exptl_absorpt_correction_type   'semi-emprical via psi-scans'
_exptl_absorpt_correction_T_min  0.665
_exptl_absorpt_correction_T_max  0.846
_exptl_absorpt_process_details   ?

_exptl_special_details           
; 
? 
;

_diffrn_ambient_temperature      223(2)
_diffrn_radiation_wavelength     0.71073
_diffrn_radiation_type           MoK\a
_diffrn_radiation_source         'fine-focus sealed tube'
_diffrn_radiation_monochromator  graphite
_diffrn_measurement_device_type  'SIEMENS P4-RA SIEMENS P4-RA'
_diffrn_measurement_method       \q/2\q
_diffrn_detector_area_resol_mean ?
_diffrn_standards_number         3
_diffrn_standards_interval_count 150
_diffrn_standards_interval_time  ?
_diffrn_standards_decay_%        ?
_diffrn_reflns_number            4605
_diffrn_reflns_av_R_equivalents  0.0518
_diffrn_reflns_av_sigmaI/netI    0.0365
_diffrn_reflns_limit_h_min       -1
_diffrn_reflns_limit_h_max       24
_diffrn_reflns_limit_k_min       -24
_diffrn_reflns_limit_k_max       1
_diffrn_reflns_limit_l_min       -1
_diffrn_reflns_limit_l_max       55
_diffrn_reflns_theta_min         1.56
_diffrn_reflns_theta_max         27.49
_reflns_number_total             4287
_reflns_number_gt                3496
_reflns_threshold_expression     >2sigma(I)

_computing_data_collection       'SIEMENS XSCANS'
_computing_cell_refinement       'SIEMENS XSCANS'
_computing_data_reduction        'SIEMENS XSCANS'
_computing_structure_solution    'SHELXS-97 (Sheldrick, 1990)'
_computing_structure_refinement  'SHELXL-97 (Sheldrick, 1997)'
_computing_molecular_graphics    'XP (Siemens, 1994)'
_computing_publication_material  ?

_refine_special_details          
; 
Refinement of F^2^ against ALL reflections.  The weighted R-factor wR and 
goodness of fit S are based on F^2^, conventional R-factors R are based 
on F, with F set to zero for negative F^2^. The threshold expression of 
F^2^ > 2sigma(F^2^) is used only for calculating R-factors(gt) etc. and is 
not relevant to the choice of reflections for refinement.  R-factors based 
on F^2^ are statistically about twice as large as those based on F, and R- 
factors based on ALL data will be even larger. 

Both occupied water and pyridine molecules were servely disordered and the shape
of six membered ring was restrained into a nearly hexgonal manner with 
interatomic distance of -1.39 angstorm. While their hydrogen atoms were not 
located and excluded at the final stage of refinement.  
;

_refine_ls_structure_factor_coef Fsqd
_refine_ls_matrix_type           full
_refine_ls_weighting_scheme      calc
_refine_ls_weighting_details     
'calc w=1/[\s^2^(Fo^2^)+(0.1237P)^2^+61.6327P] where P=(Fo^2^+2Fc^2^)/3'
_atom_sites_solution_primary     direct
_atom_sites_solution_secondary   difmap
_atom_sites_solution_hydrogens   geom
_refine_ls_hydrogen_treatment    mixed
_refine_ls_extinction_method     none
_refine_ls_extinction_coef       ?
_refine_ls_number_reflns         4287
_refine_ls_number_parameters     324
_refine_ls_number_restraints     6
_refine_ls_R_factor_all          0.0836
_refine_ls_R_factor_gt           0.0703
_refine_ls_wR_factor_ref         0.2041
_refine_ls_wR_factor_gt          0.1913
_refine_ls_goodness_of_fit_ref   1.070
_refine_ls_restrained_S_all      1.073
_refine_ls_shift/su_max          0.126
_refine_ls_shift/su_mean         0.008

loop_
_atom_site_label
_atom_site_type_symbol
_atom_site_fract_x
_atom_site_fract_y
_atom_site_fract_z
_atom_site_U_iso_or_equiv
_atom_site_adp_type
_atom_site_occupancy
_atom_site_symmetry_multiplicity
_atom_site_calc_flag
_atom_site_refinement_flags
_atom_site_disorder_assembly
_atom_site_disorder_group
Cu1 Cu 0.66666(3) 0.80021(3) 0.083340(18) 0.0281(2) Uani 1 1 d . . .
O1 O 0.78375(17) 0.85868(18) 0.08944(10) 0.0365(10) Uani 1 1 d . . .
O2 O 0.7998(2) 0.9822(2) 0.08356(13) 0.0515(13) Uani 1 1 d . . .
O3 O 0.54970(16) 0.74166(18) 0.07724(10) 0.0351(9) Uani 1 1 d . . .
O4 O 0.53359(19) 0.84883(19) 0.08348(13) 0.0519(14) Uani 1 1 d . . .
O1W O 0.6664(3) 1.0028(2) 0.08327(17) 0.083(2) Uani 1 1 d D . .
H1WA H 0.7030(6) 0.9938(3) 0.08925(19) 0.100 Uiso 1 1 d RD . .
H1WB H 0.6267(6) 0.9434(9) 0.08355(17) 0.100 Uiso 1 1 d RD . .
O2W O 0.6666(5) 1.1477(5) 0.0839(4) 0.242(8) Uani 1 1 d . . .
N1 N 0.6845(2) 0.8186(2) 0.03644(13) 0.0360(11) Uani 1 1 d . . .
N3 N 0.6490(2) 0.8007(2) 0.12997(13) 0.0344(11) Uani 1 1 d . . .
N2 N 0.6664(3) 0.6805(2) 0.08341(14) 0.0408(12) Uani 1 1 d . . .
C1 C 0.9679(2) 1.0515(2) 0.08536(15) 0.0302(12) Uani 1 1 d . . .
H1 H 0.9464 1.0863 0.0852 0.036 Uiso 1 1 calc R . .
C2 C 0.9163(2) 0.9683(2) 0.08549(14) 0.0282(12) Uani 1 1 d . . .
C3 C 0.8266(2) 0.9350(3) 0.08623(15) 0.0324(12) Uani 1 1 d . . .
C4 C 0.3653(2) 0.7502(2) 0.08089(14) 0.0277(11) Uani 1 1 d . . .
H4 H 0.3867 0.8064 0.0804 0.033 Uiso 1 1 calc R . .
C5 C 0.4170(2) 0.7187(2) 0.08127(14) 0.0275(11) Uani 1 1 d . . .
C6 C 0.5069(2) 0.7751(2) 0.08017(14) 0.0312(12) Uani 1 1 d . . .
C11 C 0.6413(4) 0.8390(4) 0.01782(19) 0.0514(17) Uani 1 1 d . . .
H11 H 0.6023 0.8484 0.0272 0.062 Uiso 1 1 calc R . .
C12 C 0.6506(5) 0.8470(5) -0.0142(2) 0.067(2) Uani 1 1 d . . .
H12 H 0.6189 0.8617 -0.0263 0.080 Uiso 1 1 calc R . .
C13 C 0.7067(5) 0.8331(5) -0.0280(2) 0.069(2) Uani 1 1 d . . .
H13 H 0.7113 0.8346 -0.0500 0.082 Uiso 1 1 calc R . .
C14 C 0.7553(4) 0.8173(4) -0.0106(2) 0.061(2) Uani 1 1 d . . .
H14 H 0.7967 0.8115 -0.0198 0.073 Uiso 1 1 calc R . .
C15 C 0.7422(3) 0.8100(4) 0.0213(2) 0.0518(18) Uani 1 1 d . . .
H15 H 0.7758 0.7981 0.0336 0.062 Uiso 1 1 calc R . .
C21 C 0.7272(4) 0.6747(4) 0.09648(19) 0.0513(17) Uani 1 1 d . . .
H21 H 0.7701 0.7205 0.1059 0.062 Uiso 1 1 calc R . .
C22 C 0.7283(5) 0.6024(5) 0.0965(2) 0.071(2) Uani 1 1 d . . .
H22 H 0.7720 0.6002 0.1055 0.085 Uiso 1 1 calc R . .
C23 C 0.6662(6) 0.5350(4) 0.0834(3) 0.083(3) Uani 1 1 d . . .
H23 H 0.6661 0.4858 0.0836 0.099 Uiso 1 1 calc R . .
C24 C 0.6039(5) 0.5401(4) 0.0699(2) 0.076(3) Uani 1 1 d . . .
H24 H 0.5601 0.4944 0.0609 0.091 Uiso 1 1 calc R . .
C25 C 0.6062(4) 0.6145(3) 0.0698(2) 0.057(2) Uani 1 1 d . . .
H25 H 0.5644 0.6183 0.0598 0.069 Uiso 1 1 calc R . .
C31 C 0.5912(4) 0.7341(3) 0.1442(2) 0.0541(19) Uani 1 1 d . . .
H31 H 0.5578 0.6893 0.1316 0.065 Uiso 1 1 calc R . .
C32 C 0.5779(5) 0.7278(4) 0.1762(2) 0.066(2) Uani 1 1 d . . .
H32 H 0.5366 0.6797 0.1850 0.079 Uiso 1 1 calc R . .
C33 C 0.6269(5) 0.7941(5) 0.19551(19) 0.065(2) Uani 1 1 d . . .
H33 H 0.6217 0.7909 0.2175 0.078 Uiso 1 1 calc R . .
C34 C 0.6829(5) 0.8638(4) 0.1809(2) 0.072(2) Uani 1 1 d . . .
H34 H 0.7141 0.9109 0.1926 0.087 Uiso 1 1 calc R . .
C35 C 0.6931(4) 0.8645(4) 0.1490(2) 0.057(2) Uani 1 1 d . . .
H35 H 0.7334 0.9124 0.1398 0.068 Uiso 1 1 calc R . .
C41 C 0.8942(15) 0.6654(17) 0.1516(6) 0.230(4) Uiso 1 1 d D . .
C42 C 0.8934(14) 0.7347(14) 0.1517(6) 0.230(4) Uiso 1 1 d D . .
C43 C 0.8326(16) 0.7483(14) 0.1672(6) 0.230(4) Uiso 1 1 d D . .
C51 C 0.4396(16) 0.4365(15) 0.0157(6) 0.230(4) Uiso 1 1 d D . .
C52 C 0.4400(15) 0.5046(16) 0.0134(6) 0.230(4) Uiso 1 1 d D . .
C53 C 0.5017(16) 0.5814(14) -0.0025(7) 0.230(4) Uiso 1 1 d D . .

loop_
_atom_site_aniso_label
_atom_site_aniso_U_11
_atom_site_aniso_U_22
_atom_site_aniso_U_33
_atom_site_aniso_U_23
_atom_site_aniso_U_13
_atom_site_aniso_U_12
Cu1 0.0159(3) 0.0240(3) 0.0416(5) 0.0000(2) 0.0000(2) 0.00788(19)
O1 0.0194(13) 0.0257(14) 0.058(3) 0.0047(16) -0.0001(16) 0.0062(11)
O2 0.0298(16) 0.0382(18) 0.094(4) 0.006(2) -0.001(2) 0.0227(14)
O3 0.0198(13) 0.0330(15) 0.053(3) -0.0047(17) -0.0001(15) 0.0135(12)
O4 0.0280(16) 0.0220(15) 0.097(5) -0.0079(19) 0.0025(19) 0.0060(13)
O1W 0.037(2) 0.039(2) 0.173(7) 0.003(3) 0.005(3) 0.0186(17)
O2W 0.088(5) 0.098(6) 0.54(2) -0.044(9) -0.059(9) 0.046(5)
N1 0.0305(18) 0.0366(19) 0.043(3) -0.004(2) -0.001(2) 0.0185(16)
N3 0.0293(17) 0.0332(19) 0.039(3) 0.002(2) -0.0001(19) 0.0142(15)
N2 0.037(2) 0.0315(19) 0.054(4) 0.004(2) 0.006(2) 0.0171(17)
C1 0.0252(19) 0.0255(19) 0.046(4) 0.002(2) 0.002(2) 0.0169(16)
C2 0.0195(17) 0.0241(18) 0.042(4) 0.000(2) 0.000(2) 0.0118(15)
C3 0.0202(18) 0.031(2) 0.046(4) 0.002(2) -0.001(2) 0.0128(16)
C4 0.0243(18) 0.0174(17) 0.038(3) 0.0010(19) 0.003(2) 0.0081(15)
C5 0.0194(17) 0.0208(17) 0.039(3) 0.000(2) 0.0002(19) 0.0077(14)
C6 0.0218(18) 0.0234(18) 0.041(4) -0.001(2) 0.001(2) 0.0061(15)
C11 0.050(3) 0.068(4) 0.046(5) 0.008(4) 0.002(3) 0.037(3)
C12 0.078(5) 0.101(5) 0.038(5) 0.014(5) -0.001(4) 0.058(4)
C13 0.102(6) 0.073(4) 0.043(5) 0.003(4) 0.003(5) 0.052(5)
C14 0.079(4) 0.075(4) 0.047(5) 0.012(4) 0.027(4) 0.052(4)
C15 0.049(3) 0.063(3) 0.055(5) 0.008(4) 0.009(3) 0.036(3)
C21 0.053(3) 0.053(3) 0.059(5) 0.007(3) 0.003(3) 0.035(3)
C22 0.087(5) 0.079(5) 0.073(7) 0.023(4) 0.010(5) 0.062(5)
C23 0.122(7) 0.046(4) 0.101(8) 0.019(4) 0.040(6) 0.057(4)
C24 0.094(5) 0.032(3) 0.094(8) -0.009(4) 0.018(5) 0.026(3)
C25 0.055(3) 0.036(3) 0.078(6) -0.008(3) 0.004(3) 0.020(2)
C31 0.052(3) 0.036(3) 0.058(6) 0.001(3) 0.006(3) 0.010(2)
C32 0.074(4) 0.048(3) 0.065(7) 0.008(4) 0.014(4) 0.022(3)
C33 0.098(5) 0.073(4) 0.032(4) 0.003(4) 0.001(4) 0.048(4)
C34 0.077(5) 0.061(4) 0.057(7) -0.015(4) 0.008(4) 0.019(4)
C35 0.049(3) 0.042(3) 0.064(6) -0.008(3) 0.007(3) 0.010(2)

_geom_special_details            
; 
All esds (except the esd in the dihedral angle between two l.s. planes) 
are estimated using the full covariance matrix.  The cell esds are taken 
into account individually in the estimation of esds in distances, angles 
and torsion angles; correlations between esds in cell parameters are only 
used when they are defined by crystal symmetry.  An approximate (isotropic) 
treatment of cell esds is used for estimating esds involving l.s. planes. 
;

loop_
_geom_bond_atom_site_label_1
_geom_bond_atom_site_label_2
_geom_bond_distance
_geom_bond_site_symmetry_2
_geom_bond_publ_flag
Cu1 O3 1.956(3) . ?
Cu1 O1 1.958(3) . ?
Cu1 N3 2.018(6) . ?
Cu1 N1 2.030(6) . ?
Cu1 N2 2.288(4) . ?
O1 C3 1.276(5) . ?
O2 C3 1.247(5) . ?
O3 C6 1.274(5) . ?
O4 C6 1.245(5) . ?
N1 C11 1.339(8) . ?
N1 C15 1.357(7) . ?
N3 C31 1.344(7) . ?
N3 C35 1.353(8) . ?
N2 C25 1.344(8) . ?
N2 C21 1.345(7) . ?
C1 C2 1.392(5) . ?
C1 C2 1.407(5) 3_675 ?
C2 C1 1.407(5) 2_765 ?
C2 C3 1.505(5) . ?
C4 C5 1.394(5) . ?
C4 C5 1.405(5) 2_665 ?
C5 C4 1.405(5) 3_565 ?
C5 C6 1.506(5) . ?
C11 C12 1.375(10) . ?
C12 C13 1.363(11) . ?
C13 C14 1.336(11) . ?
C14 C15 1.379(10) . ?
C21 C22 1.395(8) . ?
C22 C23 1.361(12) . ?
C23 C24 1.372(12) . ?
C24 C25 1.401(8) . ?
C31 C32 1.383(10) . ?
C32 C33 1.407(11) . ?
C33 C34 1.374(11) . ?
C34 C35 1.371(11) . ?
C41 C42 1.335(15) . ?
C41 C43 1.52(3) 13_665 ?
C42 C43 1.469(15) . ?
C43 C41 1.52(3) 13_665 ?
C51 C52 1.304(19) . ?
C51 C53 1.44(3) 10_665 ?
C52 C53 1.51(2) . ?
C53 C51 1.44(3) 10_665 ?

loop_
_geom_angle_atom_site_label_1
_geom_angle_atom_site_label_2
_geom_angle_atom_site_label_3
_geom_angle
_geom_angle_site_symmetry_1
_geom_angle_site_symmetry_3
_geom_angle_publ_flag
O3 Cu1 O1 179.91(19) . . ?
O3 Cu1 N3 89.28(17) . . ?
O1 Cu1 N3 90.73(17) . . ?
O3 Cu1 N1 90.80(17) . . ?
O1 Cu1 N1 89.21(17) . . ?
N3 Cu1 N1 169.83(16) . . ?
O3 Cu1 N2 89.85(14) . . ?
O1 Cu1 N2 90.06(14) . . ?
N3 Cu1 N2 94.98(19) . . ?
N1 Cu1 N2 95.19(19) . . ?
C3 O1 Cu1 122.4(3) . . ?
C6 O3 Cu1 122.6(3) . . ?
C11 N1 C15 114.4(7) . . ?
C11 N1 Cu1 124.0(4) . . ?
C15 N1 Cu1 121.6(5) . . ?
C31 N3 C35 115.5(6) . . ?
C31 N3 Cu1 120.0(4) . . ?
C35 N3 Cu1 124.4(5) . . ?
C25 N2 C21 118.1(5) . . ?
C25 N2 Cu1 120.9(4) . . ?
C21 N2 Cu1 121.0(4) . . ?
C2 C1 C2 120.1(4) . 3_675 ?
C1 C2 C1 119.9(4) . 2_765 ?
C1 C2 C3 119.3(4) . . ?
C1 C2 C3 120.7(4) 2_765 . ?
O2 C3 O1 125.3(4) . . ?
O2 C3 C2 119.2(4) . . ?
O1 C3 C2 115.5(4) . . ?
C5 C4 C5 120.2(4) . 2_665 ?
C4 C5 C4 119.7(4) . 3_565 ?
C4 C5 C6 119.5(4) . . ?
C4 C5 C6 120.6(4) 3_565 . ?
O4 C6 O3 125.3(4) . . ?
O4 C6 C5 118.9(4) . . ?
O3 C6 C5 115.7(4) . . ?
N1 C11 C12 123.9(6) . . ?
C13 C12 C11 118.5(7) . . ?
C14 C13 C12 120.6(8) . . ?
C13 C14 C15 117.4(7) . . ?
N1 C15 C14 125.0(6) . . ?
N2 C21 C22 121.7(6) . . ?
C23 C22 C21 120.1(7) . . ?
C22 C23 C24 118.8(6) . . ?
C23 C24 C25 119.2(7) . . ?
N2 C25 C24 122.0(7) . . ?
N3 C31 C32 123.9(6) . . ?
C31 C32 C33 119.2(7) . . ?
C34 C33 C32 117.1(8) . . ?
C35 C34 C33 119.9(7) . . ?
N3 C35 C34 124.3(6) . . ?
C42 C41 C43 129(2) . 13_665 ?
C41 C42 C43 125.5(19) . . ?
C42 C43 C41 105.8(18) . 13_665 ?
C52 C51 C53 126(2) . 10_665 ?
C51 C52 C53 128(2) . . ?
C51 C53 C52 105.5(19) 10_665 . ?



loop_
_geom_hbond_atom_site_label_D
_geom_hbond_atom_site_label_H
_geom_hbond_atom_site_label_A
_geom_hbond_site_symmetry_D
_geom_hbond_site_symmetry_H
_geom_hbond_site_symmetry_A
_geom_hbond_distance_DH
_geom_hbond_distance_HA
_geom_hbond_distance_DA
_geom_hbond_angle_DHA
_geom_hbond_publ_flag
O1W H1WA O2 . . 1555 0.841 1.909 2.771 154.85 y
O1W H1WB O4 . . 1555 1.004 1.796 2.767 161.83 y


_diffrn_measured_fraction_theta_max 0.620
_diffrn_reflns_theta_full        27.49
_diffrn_measured_fraction_theta_full 0.620
_refine_diff_density_max         0.810
_refine_diff_density_min         -0.595
_refine_diff_density_rms         0.095

