####################################################################### 
# 
# This file contains crystal structure data downloaded from the 
# Cambridge Structural Database (CSD) hosted by the Cambridge 
# Crystallographic Data Centre (CCDC).
# 
# Full information about CCDC data access policies and citation 
# guidelines are available at http://www.ccdc.cam.ac.uk/access/V1 
# 
# Audit and citation data items may have been added by the CCDC. 
# Please retain this information to preserve the provenance of 
# this file and to allow appropriate attribution of the data. 
# 
#######################################################################

data_1aAs
_audit_block_doi                 10.5517/cc14nqvc
_database_code_depnum_ccdc_archive 'CCDC 1062613'
loop_
_citation_id
_citation_doi
_citation_year
1 10.1002/ejic.201500647 2015
_audit_update_record             
;
2015-04-30 deposited with the CCDC.	2024-07-10 downloaded from the CCDC.
;

_audit_creation_method           SHELXL-2013
_chemical_name_systematic        
;
 ?
;
_chemical_name_common            ?
_chemical_melting_point          ?
_chemical_formula_moiety         ?
_chemical_formula_sum            'C11 H14 Ag F6 N4 O P S'
_chemical_formula_weight         503.16

loop_
_atom_type_symbol
_atom_type_description
_atom_type_scat_dispersion_real
_atom_type_scat_dispersion_imag
_atom_type_scat_source
C C 0.0033 0.0016 'International Tables Vol C Tables 4.2.6.8 and 6.1.1.4'
H H 0.0000 0.0000 'International Tables Vol C Tables 4.2.6.8 and 6.1.1.4'
N N 0.0061 0.0033 'International Tables Vol C Tables 4.2.6.8 and 6.1.1.4'
F F 0.0171 0.0103 'International Tables Vol C Tables 4.2.6.8 and 6.1.1.4'
P P 0.1023 0.0942 'International Tables Vol C Tables 4.2.6.8 and 6.1.1.4'
Ag Ag -0.8971 1.1015 'International Tables Vol C Tables 4.2.6.8 and 6.1.1.4'
S S 0.1246 0.1234 'International Tables Vol C Tables 4.2.6.8 and 6.1.1.4'
O O 0.0106 0.0060 'International Tables Vol C Tables 4.2.6.8 and 6.1.1.4'

_space_group_crystal_system      trigonal
_space_group_IT_number           148
_space_group_name_H-M_alt        'R -3 :H'
_space_group_name_Hall           '-R 3'

_shelx_space_group_comment       
;
The symmetry employed for this shelxl refinement is uniquely defined
by the following loop, which should always be used as a source of
symmetry information in preference to the above space-group names.
They are only intended as comments.
;

loop_
_space_group_symop_operation_xyz
'x, y, z'
'-y, x-y, z'
'-x+y, -x, z'
'x+2/3, y+1/3, z+1/3'
'-y+2/3, x-y+1/3, z+1/3'
'-x+y+2/3, -x+1/3, z+1/3'
'x+1/3, y+2/3, z+2/3'
'-y+1/3, x-y+2/3, z+2/3'
'-x+y+1/3, -x+2/3, z+2/3'
'-x, -y, -z'
'y, -x+y, -z'
'x-y, x, -z'
'-x+2/3, -y+1/3, -z+1/3'
'y+2/3, -x+y+1/3, -z+1/3'
'x-y+2/3, x+1/3, -z+1/3'
'-x+1/3, -y+2/3, -z+2/3'
'y+1/3, -x+y+2/3, -z+2/3'
'x-y+1/3, x+2/3, -z+2/3'

_cell_length_a                   28.9105(14)
_cell_length_b                   28.9105(14)
_cell_length_c                   14.3863(6)
_cell_angle_alpha                90
_cell_angle_beta                 90
_cell_angle_gamma                120
_cell_volume                     10413.4(11)
_cell_formula_units_Z            18
_cell_measurement_temperature    150(2)
_cell_measurement_reflns_used    10429
_cell_measurement_theta_min      2.5710
_cell_measurement_theta_max      29.3454

_exptl_crystal_description       block
_exptl_crystal_colour            colourless
_exptl_crystal_density_meas      ?
_exptl_crystal_density_method    ?
_exptl_crystal_density_diffrn    1.444
_exptl_crystal_F_000             4464
_exptl_transmission_factor_min   ?
_exptl_transmission_factor_max   ?
_exptl_crystal_size_max          0.83
_exptl_crystal_size_mid          0.63
_exptl_crystal_size_min          0.55
_exptl_absorpt_coefficient_mu    1.082
_shelx_estimated_absorpt_T_min   ?
_shelx_estimated_absorpt_T_max   ?
_exptl_absorpt_correction_T_min  0.36929
_exptl_absorpt_correction_T_max  1.00000
_exptl_absorpt_correction_type   multi-scan
_exptl_absorpt_process_details   ?

_exptl_special_details           
;
 ?
;

_diffrn_ambient_temperature      150(2)
_diffrn_radiation_wavelength     0.71073
_diffrn_radiation_type           MoK\a
_diffrn_source                   'Enhance (Mo) X-ray Source'
_diffrn_measurement_device_type  'Xcalibur, Eos'
_diffrn_measurement_details      
;
#__ type_ start__ end____ width___ exp.time_
  1 omega  -46.00   53.00   1.0000   12.0000
omega____ theta____ kappa____ phi______ frames
    -      -19.6276   37.0000  120.0000 99

#__ type_ start__ end____ width___ exp.time_
  2 omega  -23.00    6.00   1.0000   12.0000
omega____ theta____ kappa____ phi______ frames
    -      -19.6276  -66.0000  -41.0000 29

#__ type_ start__ end____ width___ exp.time_
  3 omega  -25.00   22.00   1.0000   12.0000
omega____ theta____ kappa____ phi______ frames
    -       18.8463  101.0000  132.0000 47

#__ type_ start__ end____ width___ exp.time_
  4 omega  -54.00   46.00   1.0000   12.0000
omega____ theta____ kappa____ phi______ frames
    -       18.8463  -37.0000  -90.0000 100

#__ type_ start__ end____ width___ exp.time_
  5 omega  -92.00    8.00   1.0000   12.0000
omega____ theta____ kappa____ phi______ frames
    -      -19.6276  -37.0000  -30.0000 100

;
_diffrn_measurement_method       '\w scans'
_diffrn_detector_area_resol_mean ?
_diffrn_reflns_number            25392
_diffrn_reflns_av_unetI/netI     0.0388
_diffrn_reflns_av_R_equivalents  0.0419
_diffrn_reflns_limit_h_min       -38
_diffrn_reflns_limit_h_max       36
_diffrn_reflns_limit_k_min       -36
_diffrn_reflns_limit_k_max       31
_diffrn_reflns_limit_l_min       -19
_diffrn_reflns_limit_l_max       18
_diffrn_reflns_theta_min         2.576
_diffrn_reflns_theta_max         29.410
_diffrn_reflns_theta_full        27.000
_diffrn_measured_fraction_theta_max 0.877
_diffrn_measured_fraction_theta_full 0.995
_diffrn_reflns_Laue_measured_fraction_max 0.877
_diffrn_reflns_Laue_measured_fraction_full 0.995
_diffrn_reflns_point_group_measured_fraction_max 0.877
_diffrn_reflns_point_group_measured_fraction_full 0.995
_reflns_number_total             5615
_reflns_number_gt                4236
_reflns_threshold_expression     'I > 2\s(I)'
_reflns_Friedel_coverage         0.000
_reflns_Friedel_fraction_max     .
_reflns_Friedel_fraction_full    .

_reflns_special_details          
;
 Reflections were merged by SHELXL according to the crystal
 class for the calculation of statistics and refinement.
 
 _reflns_Friedel_fraction is defined as the number of unique
 Friedel pairs measured divided by the number that would be
 possible theoretically, ignoring centric projections and
 systematic absences.
;

_computing_data_collection       
;
CrysAlisPro, Oxford Diffraction Ltd.,
Version 1.171.34.44 (release 25-10-2010 CrysAlis171 .NET)
(compiled Oct 25 2010,18:11:34)
;
_computing_cell_refinement       
;
CrysAlisPro, Oxford Diffraction Ltd.,
Version 1.171.34.44 (release 25-10-2010 CrysAlis171 .NET)
(compiled Oct 25 2010,18:11:34)
;
_computing_data_reduction        
;
CrysAlisPro, Oxford Diffraction Ltd.,
Version 1.171.34.44 (release 25-10-2010 CrysAlis171 .NET)
(compiled Oct 25 2010,18:11:34)
;
_computing_structure_solution    'SHELXS-2013 (Sheldrick, 2013)'
_computing_structure_refinement  'SHELXL-2013 (Sheldrick, 2013)'
_computing_molecular_graphics    'X-Seed (Barbour, 1999)'
_computing_publication_material  'CIFTAB (Sheldrick, 1997)'

_refine_special_details          
;
 ?
;
_refine_ls_structure_factor_coef Fsqd
_refine_ls_matrix_type           full
_refine_ls_weighting_scheme      calc
_refine_ls_weighting_details     
'w=1/[\s^2^(Fo^2^)+(0.0544P)^2^+132.7236P] where P=(Fo^2^+2Fc^2^)/3'
_atom_sites_solution_primary     ?
_atom_sites_solution_secondary   ?
_atom_sites_solution_hydrogens   geom
_refine_ls_hydrogen_treatment    constr
_refine_ls_extinction_method     none
_refine_ls_extinction_coef       .
_refine_ls_number_reflns         5615
_refine_ls_number_parameters     228
_refine_ls_number_restraints     0
_refine_ls_R_factor_all          0.0777
_refine_ls_R_factor_gt           0.0564
_refine_ls_wR_factor_ref         0.1533
_refine_ls_wR_factor_gt          0.1437
_refine_ls_goodness_of_fit_ref   1.071
_refine_ls_restrained_S_all      1.071
_refine_ls_shift/su_max          0.002
_refine_ls_shift/su_mean         0.000

loop_
_atom_site_label
_atom_site_type_symbol
_atom_site_fract_x
_atom_site_fract_y
_atom_site_fract_z
_atom_site_U_iso_or_equiv
_atom_site_adp_type
_atom_site_occupancy
_atom_site_site_symmetry_order
_atom_site_calc_flag
_atom_site_refinement_flags_posn
_atom_site_refinement_flags_adp
_atom_site_refinement_flags_occupancy
_atom_site_disorder_assembly
_atom_site_disorder_group
Ag1 Ag 0.80207(2) 0.06580(2) 0.39295(3) 0.03507(14) Uani 1 1 d . . . . .
P40 P 0.79429(6) 0.04752(6) 0.81089(10) 0.0418(3) Uani 1 1 d . . . . .
N31 N 0.73293(18) -0.00297(17) 0.2981(3) 0.0363(9) Uani 1 1 d . . . . .
C25 C 0.7684(2) -0.0734(2) 0.6006(3) 0.0401(12) Uani 1 1 d . . . . .
H25 H 0.7650 -0.0773 0.6662 0.048 Uiso 1 1 calc R U . . .
C32 C 0.7380(2) -0.04478(19) 0.2714(3) 0.0304(10) Uani 1 1 d . . . . .
C22 C 0.77775(19) -0.05861(18) 0.4157(3) 0.0287(9) Uani 1 1 d . . . . .
C1 C 0.78267(19) -0.0510(2) 0.3121(3) 0.0300(10) Uani 1 1 d . . . . .
H1A H 0.7824 -0.0822 0.2831 0.036 Uiso 1 1 calc R U . . .
H1B H 0.8173 -0.0189 0.2973 0.036 Uiso 1 1 calc R U . . .
C23 C 0.7582(2) -0.10872(18) 0.4555(3) 0.0313(10) Uani 1 1 d . . . . .
H23 H 0.7472 -0.1388 0.4160 0.038 Uiso 1 1 calc R U . . .
N21 N 0.7925(2) -0.01567(17) 0.4685(3) 0.0429(11) Uani 1 1 d . . . . .
C35 C 0.6587(2) -0.0341(2) 0.1972(4) 0.0469(14) Uani 1 1 d . . . . .
H35 H 0.6311 -0.0292 0.1723 0.056 Uiso 1 1 calc R U . . .
F41 F 0.84874(15) 0.08823(16) 0.8613(3) 0.0641(10) Uani 1 1 d . . . . .
N24 N 0.75429(18) -0.11617(16) 0.5472(3) 0.0344(9) Uani 1 1 d . . . . .
F45 F 0.76833(17) 0.08102(17) 0.8482(3) 0.0676(11) Uani 1 1 d . . . . .
C33 C 0.7023(2) -0.0814(2) 0.2071(3) 0.0360(11) Uani 1 1 d . . . . .
H33 H 0.7061 -0.1111 0.1899 0.043 Uiso 1 1 calc R U . . .
C26 C 0.7879(3) -0.0235(2) 0.5610(4) 0.0507(16) Uani 1 1 d . . . . .
H26 H 0.7984 0.0064 0.6006 0.061 Uiso 1 1 calc R U . . .
F44 F 0.74001(16) 0.00781(19) 0.7601(3) 0.0830(14) Uani 1 1 d . . . . .
F46 F 0.81333(18) 0.0824(2) 0.7196(3) 0.0857(15) Uani 1 1 d . . . . .
N34 N 0.6627(2) -0.07602(18) 0.1688(3) 0.0450(11) Uani 1 1 d . . . . .
C36 C 0.6935(2) 0.0023(2) 0.2616(4) 0.0448(13) Uani 1 1 d . . . . .
H36 H 0.6891 0.0314 0.2800 0.054 Uiso 1 1 calc R U . . .
F42 F 0.7746(2) 0.01212(17) 0.9018(3) 0.0835(14) Uani 1 1 d . . . . .
F43 F 0.8197(2) 0.0139(2) 0.7729(4) 0.1000(18) Uani 1 1 d . . . . .
S50 S 0.83114(9) 0.08242(9) 0.14664(13) 0.0788(6) Uani 1 1 d . . . . .
O53 O 0.8377(2) 0.1082(2) 0.2408(3) 0.100(2) Uani 1 1 d . . . . .
C52 C 0.7856(4) 0.0936(4) 0.0840(5) 0.093(3) Uani 1 1 d . . . . .
H52A H 0.7512 0.0770 0.1167 0.139 Uiso 1 1 calc R U . . .
H52B H 0.7806 0.0779 0.0219 0.139 Uiso 1 1 calc R U . . .
H52C H 0.7994 0.1321 0.0785 0.139 Uiso 1 1 calc R U . . .
C51 C 0.8882(4) 0.1250(5) 0.0837(6) 0.124(5) Uani 1 1 d . . . . .
H51A H 0.8871 0.1573 0.0667 0.187 Uiso 1 1 calc R U . . .
H51B H 0.8898 0.1069 0.0272 0.187 Uiso 1 1 calc R U . . .
H51C H 0.9199 0.1349 0.1218 0.187 Uiso 1 1 calc R U . . .

loop_
_atom_site_aniso_label
_atom_site_aniso_U_11
_atom_site_aniso_U_22
_atom_site_aniso_U_33
_atom_site_aniso_U_23
_atom_site_aniso_U_13
_atom_site_aniso_U_12
Ag1 0.0335(2) 0.0288(2) 0.0307(2) -0.00523(14) 0.00043(14) 0.00645(16)
P40 0.0370(7) 0.0418(8) 0.0319(7) -0.0073(6) 0.0073(5) 0.0087(6)
N31 0.044(2) 0.032(2) 0.037(2) -0.0103(17) -0.0106(18) 0.022(2)
C25 0.062(4) 0.036(3) 0.024(2) -0.0045(19) -0.005(2) 0.026(3)
C32 0.038(3) 0.033(2) 0.022(2) 0.0002(17) -0.0001(18) 0.019(2)
C22 0.034(2) 0.030(2) 0.023(2) -0.0021(17) -0.0035(18) 0.017(2)
C1 0.037(3) 0.035(2) 0.021(2) -0.0017(17) -0.0004(18) 0.020(2)
C23 0.045(3) 0.026(2) 0.027(2) -0.0070(17) -0.0044(19) 0.021(2)
N21 0.061(3) 0.028(2) 0.032(2) -0.0018(17) -0.006(2) 0.017(2)
C35 0.053(3) 0.046(3) 0.056(3) -0.012(3) -0.022(3) 0.035(3)
F41 0.047(2) 0.069(2) 0.051(2) -0.0108(18) -0.0106(16) 0.0096(18)
N24 0.049(3) 0.027(2) 0.032(2) -0.0024(16) -0.0024(18) 0.0224(19)
F45 0.074(3) 0.071(3) 0.065(2) -0.015(2) 0.000(2) 0.042(2)
C33 0.048(3) 0.033(3) 0.035(3) -0.009(2) -0.010(2) 0.026(2)
C26 0.089(5) 0.030(3) 0.031(3) -0.009(2) -0.011(3) 0.027(3)
F44 0.044(2) 0.084(3) 0.088(3) -0.038(2) -0.004(2) 0.007(2)
F46 0.072(3) 0.108(4) 0.038(2) 0.022(2) 0.0102(19) 0.015(3)
N34 0.053(3) 0.038(2) 0.051(3) -0.014(2) -0.021(2) 0.027(2)
C36 0.047(3) 0.035(3) 0.060(4) -0.011(2) -0.013(3) 0.026(3)
F42 0.106(4) 0.057(2) 0.075(3) 0.022(2) 0.023(3) 0.031(2)
F43 0.102(4) 0.143(5) 0.087(3) -0.061(3) -0.020(3) 0.086(4)
S50 0.0731(13) 0.0799(13) 0.0476(10) -0.0090(9) -0.0131(9) 0.0113(10)
O53 0.083(4) 0.100(4) 0.032(2) 0.000(3) -0.011(2) -0.018(3)
C52 0.090(6) 0.121(8) 0.041(4) -0.020(4) -0.011(4) 0.034(6)
C51 0.061(5) 0.196(12) 0.055(5) -0.016(6) 0.004(4) 0.018(7)

_geom_special_details            
;
 All esds (except the esd in the dihedral angle between two l.s. planes)
 are estimated using the full covariance matrix.  The cell esds are taken
 into account individually in the estimation of esds in distances, angles
 and torsion angles; correlations between esds in cell parameters are only
 used when they are defined by crystal symmetry.  An approximate (isotropic)
 treatment of cell esds is used for estimating esds involving l.s. planes.
;

loop_
_geom_bond_atom_site_label_1
_geom_bond_atom_site_label_2
_geom_bond_distance
_geom_bond_site_symmetry_2
_geom_bond_publ_flag
Ag1 N24 2.317(4) 11_666 ?
Ag1 N34 2.399(4) 5_545 ?
Ag1 N31 2.416(4) . ?
Ag1 O53 2.469(5) . ?
Ag1 N21 2.481(4) . ?
P40 F46 1.578(4) . ?
P40 F43 1.579(5) . ?
P40 F42 1.581(4) . ?
P40 F44 1.585(4) . ?
P40 F45 1.586(4) . ?
P40 F41 1.592(4) . ?
N31 C36 1.332(7) . ?
N31 C32 1.345(6) . ?
C25 N24 1.334(6) . ?
C25 C26 1.383(7) . ?
C25 H25 0.9500 . ?
C32 C33 1.396(7) . ?
C32 C1 1.509(7) . ?
C22 N21 1.331(6) . ?
C22 C23 1.388(6) . ?
C22 C1 1.503(6) . ?
C1 H1A 0.9900 . ?
C1 H1B 0.9900 . ?
C23 N24 1.332(6) . ?
C23 H23 0.9500 . ?
N21 C26 1.345(7) . ?
C35 N34 1.336(7) . ?
C35 C36 1.386(8) . ?
C35 H35 0.9500 . ?
N24 Ag1 2.317(4) 12_546 ?
C33 N34 1.349(7) . ?
C33 H33 0.9500 . ?
C26 H26 0.9500 . ?
N34 Ag1 2.399(4) 9_654 ?
C36 H36 0.9500 . ?
S50 O53 1.511(6) . ?
S50 C51 1.740(9) . ?
S50 C52 1.754(10) . ?
C52 H52A 0.9800 . ?
C52 H52B 0.9800 . ?
C52 H52C 0.9800 . ?
C51 H51A 0.9800 . ?
C51 H51B 0.9800 . ?
C51 H51C 0.9800 . ?

loop_
_geom_angle_atom_site_label_1
_geom_angle_atom_site_label_2
_geom_angle_atom_site_label_3
_geom_angle
_geom_angle_site_symmetry_1
_geom_angle_site_symmetry_3
_geom_angle_publ_flag
N24 Ag1 N34 100.42(15) 11_666 5_545 ?
N24 Ag1 N31 163.69(15) 11_666 . ?
N34 Ag1 N31 95.89(15) 5_545 . ?
N24 Ag1 O53 85.89(15) 11_666 . ?
N34 Ag1 O53 132.8(2) 5_545 . ?
N31 Ag1 O53 82.87(16) . . ?
N24 Ag1 N21 100.22(15) 11_666 . ?
N34 Ag1 N21 92.33(17) 5_545 . ?
N31 Ag1 N21 79.19(14) . . ?
O53 Ag1 N21 132.9(2) . . ?
F46 P40 F43 89.1(3) . . ?
F46 P40 F42 179.3(3) . . ?
F43 P40 F42 90.9(3) . . ?
F46 P40 F44 88.9(3) . . ?
F43 P40 F44 89.5(3) . . ?
F42 P40 F44 90.4(3) . . ?
F46 P40 F45 90.7(3) . . ?
F43 P40 F45 179.4(3) . . ?
F42 P40 F45 89.3(2) . . ?
F44 P40 F45 90.0(2) . . ?
F46 P40 F41 90.4(2) . . ?
F43 P40 F41 91.2(3) . . ?
F42 P40 F41 90.3(3) . . ?
F44 P40 F41 179.0(3) . . ?
F45 P40 F41 89.4(2) . . ?
C36 N31 C32 118.3(4) . . ?
C36 N31 Ag1 122.2(3) . . ?
C32 N31 Ag1 118.9(3) . . ?
N24 C25 C26 120.4(5) . . ?
N24 C25 H25 119.8 . . ?
C26 C25 H25 119.8 . . ?
N31 C32 C33 120.0(4) . . ?
N31 C32 C1 118.8(4) . . ?
C33 C32 C1 121.2(4) . . ?
N21 C22 C23 120.8(4) . . ?
N21 C22 C1 117.9(4) . . ?
C23 C22 C1 121.4(4) . . ?
C22 C1 C32 112.2(4) . . ?
C22 C1 H1A 109.2 . . ?
C32 C1 H1A 109.2 . . ?
C22 C1 H1B 109.2 . . ?
C32 C1 H1B 109.2 . . ?
H1A C1 H1B 107.9 . . ?
N24 C23 C22 122.3(4) . . ?
N24 C23 H23 118.8 . . ?
C22 C23 H23 118.8 . . ?
C22 N21 C26 116.7(4) . . ?
C22 N21 Ag1 117.9(3) . . ?
C26 N21 Ag1 123.2(3) . . ?
N34 C35 C36 122.3(5) . . ?
N34 C35 H35 118.8 . . ?
C36 C35 H35 118.8 . . ?
C23 N24 C25 117.3(4) . . ?
C23 N24 Ag1 119.4(3) . 12_546 ?
C25 N24 Ag1 122.7(3) . 12_546 ?
N34 C33 C32 122.1(4) . . ?
N34 C33 H33 118.9 . . ?
C32 C33 H33 118.9 . . ?
N21 C26 C25 122.5(5) . . ?
N21 C26 H26 118.7 . . ?
C25 C26 H26 118.7 . . ?
C35 N34 C33 116.3(4) . . ?
C35 N34 Ag1 116.9(4) . 9_654 ?
C33 N34 Ag1 126.8(3) . 9_654 ?
N31 C36 C35 120.9(5) . . ?
N31 C36 H36 119.5 . . ?
C35 C36 H36 119.5 . . ?
O53 S50 C51 106.0(4) . . ?
O53 S50 C52 106.9(4) . . ?
C51 S50 C52 97.9(5) . . ?
S50 O53 Ag1 129.2(3) . . ?
S50 C52 H52A 109.5 . . ?
S50 C52 H52B 109.5 . . ?
H52A C52 H52B 109.5 . . ?
S50 C52 H52C 109.5 . . ?
H52A C52 H52C 109.5 . . ?
H52B C52 H52C 109.5 . . ?
S50 C51 H51A 109.5 . . ?
S50 C51 H51B 109.5 . . ?
H51A C51 H51B 109.5 . . ?
S50 C51 H51C 109.5 . . ?
H51A C51 H51C 109.5 . . ?
H51B C51 H51C 109.5 . . ?

loop_
_geom_torsion_atom_site_label_1
_geom_torsion_atom_site_label_2
_geom_torsion_atom_site_label_3
_geom_torsion_atom_site_label_4
_geom_torsion
_geom_torsion_site_symmetry_1
_geom_torsion_site_symmetry_2
_geom_torsion_site_symmetry_3
_geom_torsion_site_symmetry_4
_geom_torsion_publ_flag
C36 N31 C32 C33 -0.