####################################################################### 
# 
# This file contains crystal structure data downloaded from the 
# Cambridge Structural Database (CSD) hosted by the Cambridge 
# Crystallographic Data Centre (CCDC).
# 
# Full information about CCDC data access policies and citation 
# guidelines are available at http://www.ccdc.cam.ac.uk/access/V1 
# 
# Audit and citation data items may have been added by the CCDC. 
# Please retain this information to preserve the provenance of 
# this file and to allow appropriate attribution of the data. 
# 
#######################################################################

data_1adcm
_audit_block_doi                 10.5517/cc14nqwd
_database_code_depnum_ccdc_archive 'CCDC 1062614'
loop_
_citation_id
_citation_doi
_citation_year
1 10.1002/ejic.201500647 2015
_audit_update_record             
;
2015-04-30 deposited with the CCDC.	2024-07-10 downloaded from the CCDC.
;

_audit_creation_method           SHELXL-2013
_chemical_name_systematic        
;
 ?
;
_chemical_name_common            ?
_chemical_melting_point          ?
_chemical_formula_moiety         ?
_chemical_formula_sum            'C9.50 H9 Ag Cl F6 N4 P'
_chemical_formula_weight         467.50

loop_
_atom_type_symbol
_atom_type_description
_atom_type_scat_dispersion_real
_atom_type_scat_dispersion_imag
_atom_type_scat_source
C C 0.0033 0.0016 'International Tables Vol C Tables 4.2.6.8 and 6.1.1.4'
H H 0.0000 0.0000 'International Tables Vol C Tables 4.2.6.8 and 6.1.1.4'
N N 0.0061 0.0033 'International Tables Vol C Tables 4.2.6.8 and 6.1.1.4'
F F 0.0171 0.0103 'International Tables Vol C Tables 4.2.6.8 and 6.1.1.4'
P P 0.1023 0.0942 'International Tables Vol C Tables 4.2.6.8 and 6.1.1.4'
Ag Ag -0.8971 1.1015 'International Tables Vol C Tables 4.2.6.8 and 6.1.1.4'
Cl Cl 0.1484 0.1585 'International Tables Vol C Tables 4.2.6.8 and 6.1.1.4'

_space_group_crystal_system      trigonal
_space_group_IT_number           148
_space_group_name_H-M_alt        'R -3 :H'
_space_group_name_Hall           '-R 3'

_shelx_space_group_comment       
;
The symmetry employed for this shelxl refinement is uniquely defined
by the following loop, which should always be used as a source of
symmetry information in preference to the above space-group names.
They are only intended as comments.
;

loop_
_space_group_symop_operation_xyz
'x, y, z'
'-y, x-y, z'
'-x+y, -x, z'
'x+2/3, y+1/3, z+1/3'
'-y+2/3, x-y+1/3, z+1/3'
'-x+y+2/3, -x+1/3, z+1/3'
'x+1/3, y+2/3, z+2/3'
'-y+1/3, x-y+2/3, z+2/3'
'-x+y+1/3, -x+2/3, z+2/3'
'-x, -y, -z'
'y, -x+y, -z'
'x-y, x, -z'
'-x+2/3, -y+1/3, -z+1/3'
'y+2/3, -x+y+1/3, -z+1/3'
'x-y+2/3, x+1/3, -z+1/3'
'-x+1/3, -y+2/3, -z+2/3'
'y+1/3, -x+y+2/3, -z+2/3'
'x-y+1/3, x+2/3, -z+2/3'

_cell_length_a                   29.054(2)
_cell_length_b                   29.054(2)
_cell_length_c                   12.6638(16)
_cell_angle_alpha                90
_cell_angle_beta                 90
_cell_angle_gamma                120
_cell_volume                     9257.6(19)
_cell_formula_units_Z            18
_cell_measurement_temperature    150(2)
_cell_measurement_reflns_used    2320
_cell_measurement_theta_min      2.6731
_cell_measurement_theta_max      29.2090

_exptl_crystal_description       plate
_exptl_crystal_colour            colourless
_exptl_crystal_density_meas      ?
_exptl_crystal_density_method    ?
_exptl_crystal_density_diffrn    1.509
_exptl_crystal_F_000             4086
_exptl_transmission_factor_min   ?
_exptl_transmission_factor_max   ?
_exptl_crystal_size_max          0.27
_exptl_crystal_size_mid          0.13
_exptl_crystal_size_min          0.05
_exptl_absorpt_coefficient_mu    1.235
_shelx_estimated_absorpt_T_min   ?
_shelx_estimated_absorpt_T_max   ?
_exptl_absorpt_correction_T_min  0.67168
_exptl_absorpt_correction_T_max  1.00000
_exptl_absorpt_correction_type   multi-scan
_exptl_absorpt_process_details   ?

_exptl_special_details           
;
 ?
;

_diffrn_ambient_temperature      150(2)
_diffrn_radiation_wavelength     0.71073
_diffrn_radiation_type           MoK\a
_diffrn_source                   'Enhance (Mo) X-ray Source'
_diffrn_measurement_device_type  'Xcalibur, Eos'
_diffrn_measurement_details      
;
#__ type_ start__ end____ width___ exp.time_
  1 omega  -46.00   53.00   1.0000   12.0000
omega____ theta____ kappa____ phi______ frames
    -      -19.6276   37.0000  120.0000 99

#__ type_ start__ end____ width___ exp.time_
  2 omega  -23.00    6.00   1.0000   12.0000
omega____ theta____ kappa____ phi______ frames
    -      -19.6276  -66.0000  -41.0000 29

#__ type_ start__ end____ width___ exp.time_
  3 omega  -25.00   22.00   1.0000   12.0000
omega____ theta____ kappa____ phi______ frames
    -       18.8463  101.0000  132.0000 47

#__ type_ start__ end____ width___ exp.time_
  4 omega  -54.00   46.00   1.0000   12.0000
omega____ theta____ kappa____ phi______ frames
    -       18.8463  -37.0000  -90.0000 100

#__ type_ start__ end____ width___ exp.time_
  5 omega  -92.00    8.00   1.0000   12.0000
omega____ theta____ kappa____ phi______ frames
    -      -19.6276  -37.0000  -30.0000 100

;
_diffrn_measurement_method       '\w scans'
_diffrn_detector_area_resol_mean ?
_diffrn_reflns_number            22629
_diffrn_reflns_av_unetI/netI     0.1293
_diffrn_reflns_av_R_equivalents  0.0977
_diffrn_reflns_limit_h_min       -34
_diffrn_reflns_limit_h_max       39
_diffrn_reflns_limit_k_min       -38
_diffrn_reflns_limit_k_max       39
_diffrn_reflns_limit_l_min       -15
_diffrn_reflns_limit_l_max       17
_diffrn_reflns_theta_min         2.678
_diffrn_reflns_theta_max         29.274
_diffrn_reflns_theta_full        27.000
_diffrn_measured_fraction_theta_max 0.888
_diffrn_measured_fraction_theta_full 0.996
_diffrn_reflns_Laue_measured_fraction_max 0.888
_diffrn_reflns_Laue_measured_fraction_full 0.996
_diffrn_reflns_point_group_measured_fraction_max 0.888
_diffrn_reflns_point_group_measured_fraction_full 0.996
_reflns_number_total             4987
_reflns_number_gt                2520
_reflns_threshold_expression     'I > 2\s(I)'
_reflns_Friedel_coverage         0.000
_reflns_Friedel_fraction_max     .
_reflns_Friedel_fraction_full    .

_reflns_special_details          
;
 Reflections were merged by SHELXL according to the crystal
 class for the calculation of statistics and refinement.
 
 _reflns_Friedel_fraction is defined as the number of unique
 Friedel pairs measured divided by the number that would be
 possible theoretically, ignoring centric projections and
 systematic absences.
;

_computing_data_collection       
;
CrysAlisPro, Agilent Technologies,
Version 1.171.35.11 (release 16-05-2011 CrysAlis171 .NET)
(compiled May 16 2011,17:55:39)
;
_computing_cell_refinement       
;
CrysAlisPro, Agilent Technologies,
Version 1.171.35.11 (release 16-05-2011 CrysAlis171 .NET)
(compiled May 16 2011,17:55:39)
;
_computing_data_reduction        
;
CrysAlisPro, Agilent Technologies,
Version 1.171.35.11 (release 16-05-2011 CrysAlis171 .NET)
(compiled May 16 2011,17:55:39)
;
_computing_structure_solution    'SHELXS-2013 (Sheldrick, 2013)'
_computing_structure_refinement  'SHELXL-2013 (Sheldrick, 2013)'
_computing_molecular_graphics    'X-Seed (Barbour, 1999)'
_computing_publication_material  'CIFTAB (Sheldrick, 1997)'

_refine_special_details          
;
 ?
;
_refine_ls_structure_factor_coef Fsqd
_refine_ls_matrix_type           full
_refine_ls_weighting_scheme      calc
_refine_ls_weighting_details     
'w=1/[\s^2^(Fo^2^)+(0.1682P)^2^] where P=(Fo^2^+2Fc^2^)/3'
_atom_sites_solution_primary     ?
_atom_sites_solution_secondary   ?
_atom_sites_solution_hydrogens   geom
_refine_ls_hydrogen_treatment    constr
_refine_ls_extinction_method     none
_refine_ls_extinction_coef       .
_refine_ls_number_reflns         4987
_refine_ls_number_parameters     217
_refine_ls_number_restraints     3
_refine_ls_R_factor_all          0.1704
_refine_ls_R_factor_gt           0.0940
_refine_ls_wR_factor_ref         0.3148
_refine_ls_wR_factor_gt          0.2817
_refine_ls_goodness_of_fit_ref   1.052
_refine_ls_restrained_S_all      1.052
_refine_ls_shift/su_max          0.000
_refine_ls_shift/su_mean         0.000

loop_
_atom_site_label
_atom_site_type_symbol
_atom_site_fract_x
_atom_site_fract_y
_atom_site_fract_z
_atom_site_U_iso_or_equiv
_atom_site_adp_type
_atom_site_occupancy
_atom_site_site_symmetry_order
_atom_site_calc_flag
_atom_site_refinement_flags_posn
_atom_site_refinement_flags_adp
_atom_site_refinement_flags_occupancy
_atom_site_disorder_assembly
_atom_site_disorder_group
Ag1 Ag 0.47070(3) 0.07052(3) 0.21322(6) 0.0431(3) Uani 1 1 d . . . . .
N21 N 0.4440(4) 0.1304(3) 0.2982(7) 0.049(2) Uani 1 1 d . . . . .
N24 N 0.4180(3) 0.2018(3) 0.3865(7) 0.043(2) Uani 1 1 d . . . . .
N14 N 0.3440(3) 0.0782(3) -0.0489(6) 0.0366(18) Uani 1 1 d . . . . .
N11 N 0.4256(3) 0.0796(3) 0.0712(6) 0.0377(19) Uani 1 1 d . . . . .
C22 C 0.4432(4) 0.1693(3) 0.2399(7) 0.035(2) Uani 1 1 d . . . . .
C13 C 0.3784(4) 0.1209(4) 0.0058(7) 0.039(2) Uani 1 1 d . . . . .
H13 H 0.3748 0.1516 0.0044 0.047 Uiso 1 1 calc R U . . .
C16 C 0.3925(4) 0.0370(4) 0.0151(8) 0.040(2) Uani 1 1 d . . . . .
H16 H 0.3966 0.0066 0.0168 0.048 Uiso 1 1 calc R U . . .
C12 C 0.4194(4) 0.1223(4) 0.0647(7) 0.037(2) Uani 1 1 d . . . . .
C15 C 0.3526(4) 0.0359(4) -0.0451(8) 0.038(2) Uani 1 1 d . . . . .
H15 H 0.3303 0.0049 -0.0851 0.045 Uiso 1 1 calc R U . . .
C25 C 0.4153(4) 0.1625(4) 0.4416(9) 0.045(2) Uani 1 1 d . . . . .
H25 H 0.4038 0.1582 0.5129 0.054 Uiso 1 1 calc R U . . .
C26 C 0.4286(5) 0.1277(4) 0.3999(8) 0.048(3) Uani 1 1 d . . . . .
H26 H 0.4271 0.1004 0.4437 0.058 Uiso 1 1 calc R U . . .
C23 C 0.4305(4) 0.2044(4) 0.2841(8) 0.042(2) Uani 1 1 d . . . . .
H23 H 0.4307 0.2313 0.2412 0.051 Uiso 1 1 calc R U . . .
C1 C 0.4581(4) 0.1713(3) 0.1260(8) 0.042(2) Uani 1 1 d . . . . .
H1A H 0.4939 0.1752 0.1217 0.050 Uiso 1 1 calc R U . . .
H1B H 0.4599 0.2030 0.0927 0.050 Uiso 1 1 calc R U . . .
P40 P 0.45097(13) 0.06786(14) 0.6755(3) 0.0611(9) Uani 1 1 d . . . . .
F46 F 0.4176(3) 0.0943(3) 0.6379(6) 0.070(2) Uani 1 1 d . . . . .
F45 F 0.4700(4) 0.1048(4) 0.7735(6) 0.097(3) Uani 1 1 d . . . . .
F44 F 0.4018(3) 0.0248(3) 0.7419(5) 0.0684(19) Uani 1 1 d . . . . .
F43 F 0.4827(4) 0.0395(4) 0.7184(9) 0.125(4) Uani 1 1 d . . . . .
F41 F 0.5012(3) 0.1087(4) 0.6094(9) 0.121(4) Uani 1 1 d . . . . .
F42 F 0.4296(4) 0.0289(4) 0.5765(7) 0.103(3) Uani 1 1 d . . . . .
Cl32 Cl 0.4698(3) 0.2427(2) 0.6693(5) 0.0596(17) Uani 0.5 1 d D . P . .
Cl33 Cl 0.3547(4) 0.1709(4) 0.6951(9) 0.107(3) Uani 0.5 1 d D . P . .
C31 C 0.4180(7) 0.1968(10) 0.7420(18) 0.32(5) Uani 0.5 1 d D . P . .
H31B H 0.4242 0.1668 0.7548 0.382 Uiso 0.5 1 calc R U P . .
H31A H 0.4194 0.2131 0.8116 0.382 Uiso 0.5 1 calc R U P . .

loop_
_atom_site_aniso_label
_atom_site_aniso_U_11
_atom_site_aniso_U_22
_atom_site_aniso_U_33
_atom_site_aniso_U_23
_atom_site_aniso_U_13
_atom_site_aniso_U_12
Ag1 0.0347(5) 0.0412(5) 0.0562(6) 0.0035(3) -0.0029(3) 0.0209(4)
N21 0.058(6) 0.037(5) 0.051(6) 0.001(4) 0.000(4) 0.024(4)
N24 0.046(5) 0.042(5) 0.050(5) -0.001(4) -0.004(4) 0.029(4)
N14 0.033(4) 0.033(4) 0.041(5) -0.002(3) -0.002(3) 0.014(4)
N11 0.026(4) 0.034(4) 0.054(5) -0.003(4) -0.003(3) 0.015(3)
C22 0.036(5) 0.023(4) 0.044(6) -0.005(4) -0.012(4) 0.014(4)
C13 0.043(6) 0.036(5) 0.044(6) -0.003(4) -0.007(4) 0.024(5)
C16 0.047(6) 0.023(5) 0.053(6) -0.001(4) -0.004(5) 0.021(4)
C12 0.036(5) 0.027(5) 0.037(5) 0.009(4) 0.002(4) 0.008(4)
C15 0.039(5) 0.028(5) 0.044(6) 0.000(4) -0.007(4) 0.016(4)
C25 0.053(6) 0.042(6) 0.048(6) -0.007(5) 0.005(5) 0.031(5)
C26 0.069(7) 0.035(6) 0.040(6) -0.001(4) 0.006(5) 0.026(5)
C23 0.041(6) 0.042(6) 0.045(6) 0.000(5) -0.005(5) 0.022(5)
C1 0.048(6) 0.017(4) 0.053(6) 0.004(4) -0.003(5) 0.011(4)
P40 0.0416(17) 0.074(2) 0.073(2) -0.0061(18) 0.0035(15) 0.0337(16)
F46 0.051(4) 0.094(5) 0.073(5) 0.023(4) 0.013(3) 0.042(4)
F45 0.095(6) 0.126(8) 0.082(5) -0.036(5) -0.038(5) 0.065(6)
F44 0.066(5) 0.083(5) 0.070(4) 0.019(4) 0.012(4) 0.047(4)
F43 0.081(6) 0.118(8) 0.213(12) 0.002(7) 0.013(7) 0.078(6)
F41 0.039(4) 0.119(8) 0.164(10) -0.011(6) 0.031(5) 0.010(5)
F42 0.100(7) 0.107(7) 0.091(6) -0.029(5) 0.015(5) 0.043(6)
Cl32 0.097(5) 0.029(3) 0.048(3) -0.001(2) -0.025(3) 0.027(3)
Cl33 0.106(7) 0.074(5) 0.147(9) -0.008(5) 0.039(6) 0.050(6)
C31 0.65(14) 0.51(11) 0.12(4) -0.22(6) -0.18(6) 0.53(11)

_geom_special_details            
;
 All esds (except the esd in the dihedral angle between two l.s. planes)
 are estimated using the full covariance matrix.  The cell esds are taken
 into account individually in the estimation of esds in distances, angles
 and torsion angles; correlations between esds in cell parameters are only
 used when they are defined by crystal symmetry.  An approximate (isotropic)
 treatment of cell esds is used for estimating esds involving l.s. planes.
;

loop_
_geom_bond_atom_site_label_1
_geom_bond_atom_site_label_2
_geom_bond_distance
_geom_bond_site_symmetry_2
_geom_bond_publ_flag
Ag1 N24 2.278(8) 18_545 ?
Ag1 N11 2.316(8) . ?
Ag1 N14 2.389(8) 6 ?
Ag1 N21 2.476(9) . ?
N21 C26 1.352(13) . ?
N21 C22 1.361(12) . ?
N24 C25 1.307(13) . ?
N24 C23 1.340(13) . ?
N24 Ag1 2.277(8) 17 ?
N14 C13 1.332(12) . ?
N14 C15 1.373(12) . ?
N14 Ag1 2.389(8) 8_544 ?
N11 C16 1.331(12) . ?
N11 C12 1.343(12) . ?
C22 C23 1.365(13) . ?
C22 C1 1.499(14) . ?
C13 C12 1.386(13) . ?
C13 H13 0.9500 . ?
C16 C15 1.376(13) . ?
C16 H16 0.9500 . ?
C12 C1 1.514(13) . ?
C15 H15 0.9500 . ?
C25 C26 1.358(14) . ?
C25 H25 0.9500 . ?
C26 H26 0.9500 . ?
C23 H23 0.9500 . ?
C1 H1A 0.9900 . ?
C1 H1B 0.9900 . ?
P40 F45 1.551(9) . ?
P40 F46 1.581(7) . ?
P40 F41 1.584(9) . ?
P40 F44 1.589(8) . ?
P40 F42 1.594(9) . ?
P40 F43 1.609(9) . ?
Cl32 C31 1.698(14) . ?
Cl33 Cl33 1.34(2) 13_556 ?
Cl33 C31 1.709(19) . ?
C31 H31B 0.9900 . ?
C31 H31A 0.9900 . ?

loop_
_geom_angle_atom_site_label_1
_geom_angle_atom_site_label_2
_geom_angle_atom_site_label_3
_geom_angle
_geom_angle_site_symmetry_1
_geom_angle_site_symmetry_3
_geom_angle_publ_flag
N24 Ag1 N11 147.4(3) 18_545 . ?
N24 Ag1 N14 108.5(3) 18_545 6 ?
N11 Ag1 N14 99.0(3) . 6 ?
N24 Ag1 N21 110.6(3) 18_545 . ?
N11 Ag1 N21 82.2(3) . . ?
N14 Ag1 N21 96.9(3) 6 . ?
C26 N21 C22 115.0(9) . . ?
C26 N21 Ag1 125.7(7) . . ?
C22 N21 Ag1 119.3(6) . . ?
C25 N24 C23 117.4(9) . . ?
C25 N24 Ag1 124.5(7) . 17 ?
C23 N24 Ag1 118.1(6) . 17 ?
C13 N14 C15 115.3(8) . . ?
C13 N14 Ag1 123.8(6) . 8_544 ?
C15 N14 Ag1 119.8(6) . 8_544 ?
C16 N11 C12 117.2(8) . . ?
C16 N11 Ag1 119.7(6) . . ?
C12 N11 Ag1 119.9(6) . . ?
N21 C22 C23 121.4(9) . . ?
N21 C22 C1 115.4(8) . . ?
C23 C22 C1 123.1(8) . . ?
N14 C13 C12 122.8(9) . . ?
N14 C13 H13 118.6 . . ?
C12 C13 H13 118.6 . . ?
N11 C16 C15 121.8(8) . . ?
N11 C16 H16 119.1 . . ?
C15 C16 H16 119.1 . . ?
N11 C12 C13 121.0(9) . . ?
N11 C12 C1 117.1(8) . . ?
C13 C12 C1 121.9(9) . . ?
C16 C15 N14 121.8(9) . . ?
C16 C15 H15 119.1 . . ?
N14 C15 H15 119.1 . . ?
N24 C25 C26 122.0(10) . . ?
N24 C25 H25 119.0 . . ?
C26 C25 H25 119.0 . . ?
N21 C26 C25 122.4(10) . . ?
N21 C26 H26 118.8 . . ?
C25 C26 H26 118.8 . . ?
N24 C23 C22 121.5(9) . . ?
N24 C23 H23 119.2 . . ?
C22 C23 H23 119.2 . . ?
C22 C1 C12 113.1(8) . . ?
C22 C1 H1A 109.0 . . ?
C12 C1 H1A 109.0 . . ?
C22 C1 H1B 109.0 . . ?
C12 C1 H1B 109.0 . . ?
H1A C1 H1B 107.8 . . ?
F45 P40 F46 89.9(5) . . ?
F45 P40 F41 91.6(6) . . ?
F46 P40 F41 92.0(5) . . ?
F45 P40 F44 89.5(5) . . ?
F46 P40 F44 90.8(4) . . ?
F41 P40 F44 177.0(5) . . ?
F45 P40 F42 178.2(6) . . ?
F46 P40 F42 89.6(5) . . ?
F41 P40 F42 90.1(5) . . ?
F44 P40 F42 88.8(5) . . ?
F45 P40 F43 89.3(5) . . ?
F46 P40 F43 177.1(5) . . ?
F41 P40 F43 90.7(6) . . ?
F44 P40 F43 86.4(5) . . ?
F42 P40 F43 91.1(6) . . ?
Cl33 Cl33 C31 163.2(14) 13_556 . ?
Cl33 C31 Cl32 119.6(15) . . ?
Cl33 C31 H31B 107.4 . . ?
Cl32 C31 H31B 107.4 . . ?
Cl33 C31 H31A 107.4 . . ?
Cl32 C31 H31A 107.4 . . ?
H31B C31 H31A 107.0 . . ?

loop_
_geom_torsion_atom_site_label_1
_geom_torsion_atom_site_label_2
_geom_torsion_atom_site_label_3
_geom_torsion_atom_site_label_4
_geom_torsion
_geom_torsion_site_symmetry_1
_geom_torsion_site_symmetry_2
_geom_torsion_site_symmetry_3
_geom_torsion_site_symmetry_4
_geom_torsion_publ_flag
C26 N21 C22 C23 3.6(14) . . . . ?
Ag1 N21 C22 C23 -177.7(7) . . . . ?
C26 N21 C22 C1 -177.7(9) . . . . ?
Ag1 N21 C22 C1 1.0(11) . . . . ?
C15 N14 C13 C12 -1.5(14) . . . . ?
Ag1 N14 C13 C12 166.3(7) 8_544 . . . ?
C12 N11 C16 C15 -1.6(14) . . . . ?
Ag1 N11 C16 C15 158.1(8) . . . . ?
C16 N11 C12 C13 2.9(13) . . . . ?
Ag1 N11 C12 C13 -156.7(7) . . . . ?
C16 N11 C12 C1 -178.2(9) . . . . ?
Ag1 N11 C12 C1 22.1(11) . . . . ?
N14 C13 C12 N11 -1.4(15) . . . . ?
N14 C13 C12 C1 179.8(9) . . . . ?
N11 C16 C15 N14 -1.4(15) . . . . ?
C13 N14 C15 C16 2.8(13) . . . . ?
Ag1 N14 C15 C16 -165.4(7) 8_544 . . . ?
C23 N24 C25 C26 5.0(16) . . . . ?
Ag1 N24 C25 C26 -174.1(8) 17 . . . ?
C22 N21 C26 C25 -2.5(15) . . . . ?
Ag1 N21 C26 C25 178.9(8) . . . . ?
N24 C25 C26 N21 -1.9(18) . . . . ?
C25 N24 C23 C22 -3.7(15) . . . . ?
Ag1 N24 C23 C22 175.4(7) 17 . . . ?
N21 C22 C23 N24 -0.6(15) . . . . ?
C1 C22 C23 N24 -179.2(9) . . . . ?
N21 C22 C1 C12 64.6(12) . . . . ?
C23 C22 C1 C12 -116.7(10) . . . . ?
N11 C12 C1 C22 -82.8(11) . . . . ?
C13 C12 C1 C22 96.0(11) . . . . ?
Cl33 Cl33 C31 Cl32 -13(6) 