####################################################################### 
# 
# This file contains crystal structure data downloaded from the 
# Cambridge Structural Database (CSD) hosted by the Cambridge 
# Crystallographic Data Centre (CCDC).
# 
# Full information about CCDC data access policies and citation 
# guidelines are available at http://www.ccdc.cam.ac.uk/access/V1 
# 
# Audit and citation data items may have been added by the CCDC. 
# Please retain this information to preserve the provenance of 
# this file and to allow appropriate attribution of the data. 
# 
#######################################################################

data_1cAs
_audit_block_doi                 10.5517/cc14nqzh
_database_code_depnum_ccdc_archive 'CCDC 1062617'
loop_
_citation_id
_citation_doi
_citation_year
1 10.1002/ejic.201500647 2015
_audit_update_record             
;
2015-04-30 deposited with the CCDC.	2024-07-10 downloaded from the CCDC.
;

_audit_creation_method           SHELXL-2013
_chemical_name_systematic        
;
 ?
;
_chemical_name_common            ?
_chemical_melting_point          ?
_chemical_formula_moiety         ?
_chemical_formula_sum            'C11 H14 Ag B F4 N4 O S'
_chemical_formula_weight         445.00

loop_
_atom_type_symbol
_atom_type_description
_atom_type_scat_dispersion_real
_atom_type_scat_dispersion_imag
_atom_type_scat_source
C C 0.0033 0.0016 'International Tables Vol C Tables 4.2.6.8 and 6.1.1.4'
H H 0.0000 0.0000 'International Tables Vol C Tables 4.2.6.8 and 6.1.1.4'
B B 0.0013 0.0007 'International Tables Vol C Tables 4.2.6.8 and 6.1.1.4'
N N 0.0061 0.0033 'International Tables Vol C Tables 4.2.6.8 and 6.1.1.4'
F F 0.0171 0.0103 'International Tables Vol C Tables 4.2.6.8 and 6.1.1.4'
Ag Ag -0.8971 1.1015 'International Tables Vol C Tables 4.2.6.8 and 6.1.1.4'
S S 0.1246 0.1234 'International Tables Vol C Tables 4.2.6.8 and 6.1.1.4'
O O 0.0106 0.0060 'International Tables Vol C Tables 4.2.6.8 and 6.1.1.4'

_space_group_crystal_system      trigonal
_space_group_IT_number           148
_space_group_name_H-M_alt        'R -3 :H'
_space_group_name_Hall           '-R 3'

_shelx_space_group_comment       
;
The symmetry employed for this shelxl refinement is uniquely defined
by the following loop, which should always be used as a source of
symmetry information in preference to the above space-group names.
They are only intended as comments.
;

loop_
_space_group_symop_operation_xyz
'x, y, z'
'-y, x-y, z'
'-x+y, -x, z'
'x+2/3, y+1/3, z+1/3'
'-y+2/3, x-y+1/3, z+1/3'
'-x+y+2/3, -x+1/3, z+1/3'
'x+1/3, y+2/3, z+2/3'
'-y+1/3, x-y+2/3, z+2/3'
'-x+y+1/3, -x+2/3, z+2/3'
'-x, -y, -z'
'y, -x+y, -z'
'x-y, x, -z'
'-x+2/3, -y+1/3, -z+1/3'
'y+2/3, -x+y+1/3, -z+1/3'
'x-y+2/3, x+1/3, -z+1/3'
'-x+1/3, -y+2/3, -z+2/3'
'y+1/3, -x+y+2/3, -z+2/3'
'x-y+1/3, x+2/3, -z+2/3'

_cell_length_a                   28.123(5)
_cell_length_b                   28.123(5)
_cell_length_c                   14.436(3)
_cell_angle_alpha                90
_cell_angle_beta                 90
_cell_angle_gamma                120
_cell_volume                     9887(4)
_cell_formula_units_Z            18
_cell_measurement_temperature    150(2)
_cell_measurement_reflns_used    2491
_cell_measurement_theta_min      2.6189
_cell_measurement_theta_max      29.4764

_exptl_crystal_description       block
_exptl_crystal_colour            colourless
_exptl_crystal_density_meas      ?
_exptl_crystal_density_method    ?
_exptl_crystal_density_diffrn    1.345
_exptl_crystal_F_000             3960
_exptl_transmission_factor_min   ?
_exptl_transmission_factor_max   ?
_exptl_crystal_size_max          ?
_exptl_crystal_size_mid          ?
_exptl_crystal_size_min          ?
_exptl_absorpt_coefficient_mu    1.047
_shelx_estimated_absorpt_T_min   ?
_shelx_estimated_absorpt_T_max   ?
_exptl_absorpt_correction_T_min  0.55327
_exptl_absorpt_correction_T_max  1.00000
_exptl_absorpt_correction_type   multi-scan
_exptl_absorpt_process_details   ?

_exptl_special_details           
;
 ?
;

_diffrn_ambient_temperature      150(2)
_diffrn_radiation_wavelength     0.71073
_diffrn_radiation_type           MoK\a
_diffrn_source                   'Enhance (Mo) X-ray Source'
_diffrn_measurement_device_type  'Xcalibur, Eos'
_diffrn_measurement_details      
;
#__ type_ start__ end____ width___ exp.time_
  1 omega  -43.00   50.00   1.0000   87.0000
omega____ theta____ kappa____ phi______ frames
    -      -19.3391   37.0000  -30.0000 93

#__ type_ start__ end____ width___ exp.time_
  2 omega  -92.00  -61.00   1.0000   87.0000
omega____ theta____ kappa____ phi______ frames
    -      -19.3391  -37.0000  150.0000 31

#__ type_ start__ end____ width___ exp.time_
  3 omega  -11.00   89.00   1.0000   87.0000
omega____ theta____ kappa____ phi______ frames
    -       18.6360   77.0000 -120.0000 100

#__ type_ start__ end____ width___ exp.time_
  4 omega  -11.00   35.00   1.0000   87.0000
omega____ theta____ kappa____ phi______ frames
    -       18.6360   77.0000   30.0000 46

;
_diffrn_measurement_method       '\w scans'
_diffrn_detector_area_resol_mean ?
_diffrn_reflns_number            16740
_diffrn_reflns_av_unetI/netI     0.1878
_diffrn_reflns_av_R_equivalents  0.0916
_diffrn_reflns_limit_h_min       -38
_diffrn_reflns_limit_h_max       35
_diffrn_reflns_limit_k_min       -31
_diffrn_reflns_limit_k_max       32
_diffrn_reflns_limit_l_min       -19
_diffrn_reflns_limit_l_max       19
_diffrn_reflns_theta_min         2.624
_diffrn_reflns_theta_max         29.542
_diffrn_reflns_theta_full        27.000
_diffrn_measured_fraction_theta_max 0.839
_diffrn_measured_fraction_theta_full 0.987
_diffrn_reflns_Laue_measured_fraction_max 0.839
_diffrn_reflns_Laue_measured_fraction_full 0.987
_diffrn_reflns_point_group_measured_fraction_max 0.839
_diffrn_reflns_point_group_measured_fraction_full 0.987
_reflns_number_total             5157
_reflns_number_gt                1597
_reflns_threshold_expression     'I > 2\s(I)'
_reflns_Friedel_coverage         0.000
_reflns_Friedel_fraction_max     .
_reflns_Friedel_fraction_full    .

_reflns_special_details          
;
 Reflections were merged by SHELXL according to the crystal
 class for the calculation of statistics and refinement.
 
 _reflns_Friedel_fraction is defined as the number of unique
 Friedel pairs measured divided by the number that would be
 possible theoretically, ignoring centric projections and
 systematic absences.
;

_computing_data_collection       
;
CrysAlisPro, Oxford Diffraction Ltd.,
Version 1.171.34.44 (release 25-10-2010 CrysAlis171 .NET)
(compiled Oct 25 2010,18:11:34)
;
_computing_cell_refinement       
;
CrysAlisPro, Oxford Diffraction Ltd.,
Version 1.171.34.44 (release 25-10-2010 CrysAlis171 .NET)
(compiled Oct 25 2010,18:11:34)
;
_computing_data_reduction        
;
CrysAlisPro, Oxford Diffraction Ltd.,
Version 1.171.34.44 (release 25-10-2010 CrysAlis171 .NET)
(compiled Oct 25 2010,18:11:34)
;
_computing_structure_solution    'SHELXS-2013 (Sheldrick, 2013)'
_computing_structure_refinement  'SHELXL-2013 (Sheldrick, 2013)'
_computing_molecular_graphics    'X-Seed (Barbour, 1999)'
_computing_publication_material  'CIFTAB (Sheldrick, 1997)'

_refine_special_details          
;
 ?
;
_refine_ls_structure_factor_coef Fsqd
_refine_ls_matrix_type           full
_refine_ls_weighting_scheme      calc
_refine_ls_weighting_details     
'w=1/[\s^2^(Fo^2^)+(0.2000P)^2^] where P=(Fo^2^+2Fc^2^)/3'
_atom_sites_solution_primary     ?
_atom_sites_solution_secondary   ?
_atom_sites_solution_hydrogens   geom
_refine_ls_hydrogen_treatment    constr
_refine_ls_extinction_method     none
_refine_ls_extinction_coef       .
_refine_ls_number_reflns         5157
_refine_ls_number_parameters     198
_refine_ls_number_restraints     4
_refine_ls_R_factor_all          0.2490
_refine_ls_R_factor_gt           0.1240
_refine_ls_wR_factor_ref         0.3955
_refine_ls_wR_factor_gt          0.3356
_refine_ls_goodness_of_fit_ref   0.920
_refine_ls_restrained_S_all      0.924
_refine_ls_shift/su_max          0.000
_refine_ls_shift/su_mean         0.000

loop_
_atom_site_label
_atom_site_type_symbol
_atom_site_fract_x
_atom_site_fract_y
_atom_site_fract_z
_atom_site_U_iso_or_equiv
_atom_site_adp_type
_atom_site_occupancy
_atom_site_site_symmetry_order
_atom_site_calc_flag
_atom_site_refinement_flags_posn
_atom_site_refinement_flags_adp
_atom_site_refinement_flags_occupancy
_atom_site_disorder_assembly
_atom_site_disorder_group
Ag1 Ag 0.79960(4) 0.07384(4) 0.39670(7) 0.0862(6) Uani 1 1 d . . . . .
N24 N 0.7432(4) -0.1192(3) 0.5484(6) 0.060(2) Uani 1 1 d . . . . .
C23 C 0.7579(5) -0.1084(5) 0.4586(8) 0.072(3) Uani 1 1 d . . . . .
H23 H 0.7570 -0.1363 0.4202 0.086 Uiso 1 1 calc R U . . .
N31 N 0.7512(4) 0.0140(3) 0.2808(6) 0.071(3) Uani 1 1 d . . . . .
C25 C 0.7451(5) -0.0800(6) 0.5962(7) 0.077(4) Uani 1 1 d . . . . .
H25 H 0.7366 -0.0865 0.6603 0.093 Uiso 1 1 calc R U . . .
N34 N 0.6769(5) -0.0651(4) 0.1579(7) 0.092(4) Uani 1 1 d . . . . .
N21 N 0.7757(5) -0.0160(4) 0.4724(7) 0.090(4) Uani 1 1 d . . . . .
C35 C 0.6772(7) -0.0179(6) 0.1683(12) 0.118(6) Uani 1 1 d . . . . .
H35 H 0.6522 -0.0115 0.1338 0.141 Uiso 1 1 calc R U . . .
F43 F 0.6023(6) 0.0285(5) 0.0434(9) 0.182(5) Uani 1 1 d . . . . .
F45 F 0.6057(5) 0.1072(5) 0.0718(9) 0.167(5) Uani 1 1 d . . . . .
F44 F 0.6617(4) 0.0896(5) 0.1343(10) 0.179(5) Uani 1 1 d . . . . .
B41 B 0.6086(11) 0.0681(10) 0.1083(13) 0.128(8) Uani 1 1 d . . . . .
F42 F 0.5749(6) 0.0383(9) 0.1765(10) 0.302(13) Uani 1 1 d . . . . .
C32 C 0.7490(4) -0.0337(4) 0.2653(6) 0.052(3) Uani 1 1 d . . . . .
C33 C 0.7148(4) -0.0730(4) 0.2052(7) 0.058(3) Uani 1 1 d . . . . .
H33 H 0.7169 -0.1053 0.1960 0.070 Uiso 1 1 calc R U . . .
C22 C 0.7752(5) -0.0539(4) 0.4199(7) 0.060(3) Uani 1 1 d . . . . .
C1 C 0.7924(5) -0.0421(5) 0.3241(7) 0.070(3) Uani 1 1 d . . . . .
H1A H 0.7956 -0.0729 0.2977 0.084 Uiso 1 1 calc R U . . .
H1B H 0.8289 -0.0085 0.3206 0.084 Uiso 1 1 calc R U . . .
C26 C 0.7586(8) -0.0290(6) 0.5617(11) 0.113(6) Uani 1 1 d . . . . .
H26 H 0.7559 -0.0030 0.6002 0.135 Uiso 1 1 calc R U . . .
C36 C 0.7124(7) 0.0208(6) 0.2268(9) 0.108(6) Uani 1 1 d . . . . .
H36 H 0.7115 0.0540 0.2325 0.129 Uiso 1 1 calc R U . . .
S50 S 0.7926(6) 0.1944(5) 0.2806(10) 0.313(7) Uani 1 1 d D . . . .
O51 O 0.8012(9) 0.1486(6) 0.2793(17) 0.258(12) Uani 1 1 d D . . . .
C53 C 0.836(3) 0.2474(16) 0.333(3) 0.59(6) Uiso 1 1 d D . . . .
H53A H 0.8421 0.2373 0.3954 0.881 Uiso 1 1 calc R U . . .
H53B H 0.8223 0.2732 0.3385 0.881 Uiso 1 1 calc R U . . .
H53C H 0.8707 0.2647 0.2989 0.881 Uiso 1 1 calc R U . . .
C52 C 0.7844(13) 0.2134(13) 0.1794(15) 0.244(14) Uiso 1 1 d D . . . .
H52A H 0.7572 0.1813 0.1447 0.366 Uiso 1 1 calc R U . . .
H52B H 0.8194 0.2306 0.1461 0.366 Uiso 1 1 calc R U . . .
H52C H 0.7715 0.2398 0.1859 0.366 Uiso 1 1 calc R U . . .

loop_
_atom_site_aniso_label
_atom_site_aniso_U_11
_atom_site_aniso_U_22
_atom_site_aniso_U_33
_atom_site_aniso_U_23
_atom_site_aniso_U_13
_atom_site_aniso_U_12
Ag1 0.0743(8) 0.0723(8) 0.0902(9) -0.0163(5) -0.0037(5) 0.0203(6)
N24 0.078(7) 0.049(5) 0.057(5) -0.013(4) 0.008(4) 0.033(5)
C23 0.080(8) 0.076(9) 0.083(8) -0.032(7) -0.010(7) 0.057(7)
N31 0.085(7) 0.035(5) 0.086(6) -0.005(4) -0.015(5) 0.024(5)
C25 0.086(9) 0.094(10) 0.049(6) -0.015(6) -0.003(6) 0.043(8)
N34 0.137(10) 0.067(7) 0.089(7) -0.014(5) -0.067(7) 0.063(7)
N21 0.142(11) 0.059(7) 0.058(6) -0.015(5) -0.008(6) 0.041(7)
C35 0.153(15) 0.094(11) 0.163(14) -0.020(10) -0.083(12) 0.104(11)
F43 0.222(14) 0.111(8) 0.158(10) -0.021(7) 0.008(9) 0.041(9)
F45 0.176(10) 0.162(10) 0.229(12) -0.035(9) -0.087(9) 0.133(9)
F44 0.132(9) 0.122(9) 0.290(15) -0.003(9) -0.107(10) 0.069(7)
B41 0.19(2) 0.136(18) 0.073(11) 0.010(12) -0.070(14) 0.091(17)
F42 0.172(13) 0.40(3) 0.114(9) 0.045(12) 0.052(9) -0.018(15)
C32 0.062(7) 0.047(6) 0.053(6) 0.006(5) -0.001(5) 0.032(6)
C33 0.075(8) 0.045(6) 0.067(6) -0.001(5) -0.024(6) 0.039(6)
C22 0.071(7) 0.050(7) 0.062(7) -0.015(5) -0.032(5) 0.032(6)
C1 0.071(8) 0.061(7) 0.072(8) -0.012(6) -0.010(6) 0.028(7)
C26 0.171(17) 0.051(9) 0.106(12) -0.007(8) 0.000(10) 0.048(10)
C36 0.202(16) 0.082(10) 0.099(9) -0.031(8) -0.086(11) 0.115(12)
S50 0.365(17) 0.210(11) 0.371(16) 0.037(11) -0.088(14) 0.148(12)
O51 0.30(3) 0.103(12) 0.38(3) -0.022(14) -0.15(2) 0.110(15)

_geom_special_details            
;
 All esds (except the esd in the dihedral angle between two l.s. planes)
 are estimated using the full covariance matrix.  The cell esds are taken
 into account individually in the estimation of esds in distances, angles
 and torsion angles; correlations between esds in cell parameters are only
 used when they are defined by crystal symmetry.  An approximate (isotropic)
 treatment of cell esds is used for estimating esds involving l.s. planes.
;

loop_
_geom_bond_atom_site_label_1
_geom_bond_atom_site_label_2
_geom_bond_distance
_geom_bond_site_symmetry_2
_geom_bond_publ_flag
Ag1 N24 2.227(8) 11_666 ?
Ag1 N31 2.280(9) . ?
Ag1 N34 2.363(9) 5_545 ?
Ag1 N21 2.517(10) . ?
N24 C25 1.280(14) . ?
N24 C23 1.347(13) . ?
N24 Ag1 2.227(8) 12_546 ?
C23 C22 1.469(16) . ?
C23 H23 0.9500 . ?
N31 C32 1.328(13) . ?
N31 C36 1.431(15) . ?
C25 C26 1.381(18) . ?
C25 H25 0.9500 . ?
N34 C35 1.332(15) . ?
N34 C33 1.373(13) . ?
N34 Ag1 2.362(9) 9_654 ?
N21 C22 1.302(14) . ?
N21 C26 1.359(17) . ?
C35 C36 1.341(18) . ?
C35 H35 0.9500 . ?
F43 B41 1.40(2) . ?
F45 B41 1.26(2) . ?
F44 B41 1.35(2) . ?
B41 F42 1.33(3) . ?
C32 C33 1.356(14) . ?
C32 C1 1.599(15) . ?
C33 H33 0.9500 . ?
C22 C1 1.447(14) . ?
C1 H1A 0.9900 . ?
C1 H1B 0.9900 . ?
C26 H26 0.9500 . ?
C36 H36 0.9500 . ?
S50 O51 1.422(14) . ?
S50 C53 1.573(19) . ?
S50 C52 1.612(17) . ?
C53 H53A 0.9800 . ?
C53 H53B 0.9800 . ?
C53 H53C 0.9800 . ?
C52 H52A 0.9800 . ?
C52 H52B 0.9800 . ?
C52 H52C 0.9800 . ?

loop_
_geom_angle_atom_site_label_1
_geom_angle_atom_site_label_2
_geom_angle_atom_site_label_3
_geom_angle
_geom_angle_site_symmetry_1
_geom_angle_site_symmetry_3
_geom_angle_publ_flag
N24 Ag1 N31 148.1(3) 11_666 . ?
N24 Ag1 N34 107.0(3) 11_666 5_545 ?
N31 Ag1 N34 104.4(3) . 5_545 ?
N24 Ag1 N21 107.8(3) 11_666 . ?
N31 Ag1 N21 79.4(3) . . ?
N34 Ag1 N21 87.4(4) 5_545 . ?
C25 N24 C23 116.6(10) . . ?
C25 N24 Ag1 125.7(8) . 12_546 ?
C23 N24 Ag1 117.3(6) . 12_546 ?
N24 C23 C22 120.4(9) . . ?
N24 C23 H23 119.8 . . ?
C22 C23 H23 119.8 . . ?
C32 N31 C36 113.0(9) . . ?
C32 N31 Ag1 125.3(7) . . ?
C36 N31 Ag1 120.9(7) . . ?
N24 C25 C26 124.9(11) . . ?
N24 C25 H25 117.6 . . ?
C26 C25 H25 117.6 . . ?
C35 N34 C33 119.0(10) . . ?
C35 N34 Ag1 117.5(8) . 9_654 ?
C33 N34 Ag1 123.4(7) . 9_654 ?
C22 N21 C26 118.4(11) . . ?
C22 N21 Ag1 117.1(8) . . ?
C26 N21 Ag1 124.2(8) . . ?
N34 C35 C36 121.0(10) . . ?
N34 C35 H35 119.5 . . ?
C36 C35 H35 119.5 . . ?
F45 B41 F42 122(3) . . ?
F45 B41 F44 105.4(19) . . ?
F42 B41 F44 110.8(13) . . ?
F45 B41 F43 112.2(14) . . ?
F42 B41 F43 103(2) . . ?
F44 B41 F43 102(2) . . ?
N31 C32 C33 125.8(9) . . ?
N31 C32 C1 114.0(9) . . ?
C33 C32 C1 120.2(8) . . ?
C32 C33 N34 118.7(9) . . ?
C32 C33 H33 120.7 . . ?
N34 C33 H33 120.7 . . ?
N21 C22 C1 120.3(10) . . ?
N21 C22 C23 119.6(10) . . ?
C1 C22 C23 120.1(9) . . ?
C22 C1 C32 110.4(9) . . ?
C22 C1 H1A 109.6 . . ?
C32 C1 H1A 109.6 . . ?
C22 C1 H1B 109.6 . . ?
C32 C1 H1B 109.6 . . ?
H1A C1 H1B 108.1 . . ?
N21 C26 C25 119.8(12) . . ?
N21 C26 H26 120.1 . . ?
C25 C26 H26 120.1 . . ?
C35 C36 N31 122.4(10) . . ?
C35 C36 H36 118.8 . . ?
N31 C36 H36 118.8 . . ?
O51 S50 C53 117(3) . . ?
O51 S50 C52 114(2) . . ?
C53 S50 C52 107.2(16) . . ?
S50 C53 H53A 109.5 . . ?
S50 C53 H53B 109.5 . . ?
H53A C53 H53B 109.5 . . ?
S50 C53 H53C 109.5 . . ?
H53A C53 H53C 109.5 . . ?
H53B C53 H53C 109.5 . . ?
S50 C52 H52A 109.5 . . ?
S50 C52 H52B 109.5 . . ?
H52A C52 H52B 109.5 . . ?
S50 C52 H52C 109.5 . . ?
H52A C52 H52C 109.5 . . ?
H52B C52 H52C 109.5 . . ?

loop_
_geom_torsion_atom_site_label_1
_geom_torsion_atom_site_label_2
_geom_torsion_atom_site_label_3
_geom_torsion_atom_site_label_4
_geom_torsion
_geom_torsion_site_symmetry_1
_geom_torsion_site_symmetry_2
_geom_torsion_site_symmetry_3
_geom_torsion_site_symmetry_4
_geom_torsion_publ_flag
C25 N24 C23 C22 0.2(16) . . . . ?
Ag1 N24 C23 C22 -174.0(8) 12_546 . . . ?
C23 N24 C25 C26 3(2) . . . . ?
Ag1 N24 C25 C26 176.7(12) 12_546 . . . ?
C33 N34 C35 C36 -3(3) . . . . ?
Ag1 N34 C35 C36 174.4(14) 9_654 . . . ?
C36 N31 C32 C33 0.4(17) . . . . ?
Ag1 N31 C32 C33 170.4(8) . . . . ?
C36 N31 C32 C1 179.4(11) . . . . ?
Ag1 N31 C32 C1 -10.6(13) . . . . ?
N31 C32 C33 N34 -3.0(17) . . . . ?
C1 C32 C33 N34 178.1(10) . . . . ?
C35 N34 C33 C32 4.0(19) . . . . ?
Ag1 N34 C33 C32 -172.9(8) 9_654 . . . ?
C26 N21 C22 C1 179.2(13) . . . . ?
Ag1 N21 C22 C1 5.0(14) . . . . ?
C26 N21 C22 C23 -1.6(19) . . . . ?
Ag1 N21 C22 C23 -175.8(7) . . . . ?
N24 C23 C22 N21 -0.9(17) . . . . ?
N24 C23 C22 C1 178.3(10) . . . . ?
N21 C22 C1 C32 -68.8(14) . . . . ?
C23 C22 C1 C32 112.0(11) . . . . ?
N31 C32 C1 C22 74.4(12) . . . . ?
C33 C32 C1 C22 -106.5(11) . . . . ?
C22 N21 C26 C25 5(2) . . . . ?
Ag1 N21 C2