####################################################################### 
# 
# This file contains crystal structure data downloaded from the 
# Cambridge Structural Database (CSD) hosted by the Cambridge 
# Crystallographic Data Centre (CCDC).
# 
# Full information about CCDC data access policies and citation 
# guidelines are available at http://www.ccdc.cam.ac.uk/access/V1 
# 
# Audit and citation data items may have been added by the CCDC. 
# Please retain this information to preserve the provenance of 
# this file and to allow appropriate attribution of the data. 
# 
#######################################################################

data_1cdcm
_audit_block_doi                 10.5517/cc14nr0k
_database_code_depnum_ccdc_archive 'CCDC 1062618'
loop_
_citation_id
_citation_doi
_citation_year
1 10.1002/ejic.201500647 2015
_audit_update_record             
;
2015-04-30 deposited with the CCDC.	2024-07-10 downloaded from the CCDC.
;

_audit_creation_method           SHELXL-2013
_chemical_name_systematic        
;
 ?
;
_chemical_name_common            ?
_chemical_melting_point          ?
_chemical_formula_moiety         ?
_chemical_formula_sum            'C9.50 H9 Ag B Cl F4 N4'
_chemical_formula_weight         409.34

loop_
_atom_type_symbol
_atom_type_description
_atom_type_scat_dispersion_real
_atom_type_scat_dispersion_imag
_atom_type_scat_source
C C 0.0033 0.0016 'International Tables Vol C Tables 4.2.6.8 and 6.1.1.4'
H H 0.0000 0.0000 'International Tables Vol C Tables 4.2.6.8 and 6.1.1.4'
B B 0.0013 0.0007 'International Tables Vol C Tables 4.2.6.8 and 6.1.1.4'
N N 0.0061 0.0033 'International Tables Vol C Tables 4.2.6.8 and 6.1.1.4'
F F 0.0171 0.0103 'International Tables Vol C Tables 4.2.6.8 and 6.1.1.4'
Cl Cl 0.1484 0.1585 'International Tables Vol C Tables 4.2.6.8 and 6.1.1.4'
Ag Ag -0.8971 1.1015 'International Tables Vol C Tables 4.2.6.8 and 6.1.1.4'

_space_group_crystal_system      trigonal
_space_group_IT_number           148
_space_group_name_H-M_alt        'R -3 :H'
_space_group_name_Hall           '-R 3'

_shelx_space_group_comment       
;
The symmetry employed for this shelxl refinement is uniquely defined
by the following loop, which should always be used as a source of
symmetry information in preference to the above space-group names.
They are only intended as comments.
;

loop_
_space_group_symop_operation_xyz
'x, y, z'
'-y, x-y, z'
'-x+y, -x, z'
'x+2/3, y+1/3, z+1/3'
'-y+2/3, x-y+1/3, z+1/3'
'-x+y+2/3, -x+1/3, z+1/3'
'x+1/3, y+2/3, z+2/3'
'-y+1/3, x-y+2/3, z+2/3'
'-x+y+1/3, -x+2/3, z+2/3'
'-x, -y, -z'
'y, -x+y, -z'
'x-y, x, -z'
'-x+2/3, -y+1/3, -z+1/3'
'y+2/3, -x+y+1/3, -z+1/3'
'x-y+2/3, x+1/3, -z+1/3'
'-x+1/3, -y+2/3, -z+2/3'
'y+1/3, -x+y+2/3, -z+2/3'
'x-y+1/3, x+2/3, -z+2/3'

_cell_length_a                   28.159(2)
_cell_length_b                   28.159(2)
_cell_length_c                   11.9365(12)
_cell_angle_alpha                90
_cell_angle_beta                 90
_cell_angle_gamma                120
_cell_volume                     8196.6(15)
_cell_formula_units_Z            18
_cell_measurement_temperature    150(2)
_cell_measurement_reflns_used    3085
_cell_measurement_theta_min      2.5006
_cell_measurement_theta_max      29.1296

_exptl_crystal_description       block
_exptl_crystal_colour            colourless
_exptl_crystal_density_meas      ?
_exptl_crystal_density_method    ?
_exptl_crystal_density_diffrn    1.493
_exptl_crystal_F_000             3582
_exptl_transmission_factor_min   ?
_exptl_transmission_factor_max   ?
_exptl_crystal_size_max          0.03
_exptl_crystal_size_mid          0.03
_exptl_crystal_size_min          0.02
_exptl_absorpt_coefficient_mu    1.283
_shelx_estimated_absorpt_T_min   ?
_shelx_estimated_absorpt_T_max   ?
_exptl_absorpt_correction_T_min  0.48601
_exptl_absorpt_correction_T_max  1.00000
_exptl_absorpt_correction_type   multi-scan
_exptl_absorpt_process_details   ?

_exptl_special_details           
;
 ?
;

_diffrn_ambient_temperature      150(2)
_diffrn_radiation_wavelength     0.71073
_diffrn_radiation_type           MoK\a
_diffrn_source                   'Enhance (Mo) X-ray Source'
_diffrn_measurement_details      
;
#__ type_ start__ end____ width___ exp.time_
  1 omega  -22.00   16.00   1.0000   88.7700
omega____ theta____ kappa____ phi______ frames
    -      -19.4713  -99.0000   90.0000 38

#__ type_ start__ end____ width___ exp.time_
  2 omega  -33.00   50.00   1.0000   88.7700
omega____ theta____ kappa____ phi______ frames
    -      -19.4713   37.0000   90.0000 83

#__ type_ start__ end____ width___ exp.time_
  3 omega  -90.00   12.00   1.0000   88.7700
omega____ theta____ kappa____ phi______ frames
    -      -19.4713  -77.0000  -30.0000 102

#__ type_ start__ end____ width___ exp.time_
  4 omega  -94.00   -7.00   1.0000   88.7700
omega____ theta____ kappa____ phi______ frames
    -      -19.4713  -19.0000   60.0000 87

#__ type_ start__ end____ width___ exp.time_
  5 omega  -98.00  -34.00   1.0000   88.7700
omega____ theta____ kappa____ phi______ frames
    -      -19.4713 -179.0000  150.0000 64

;
_diffrn_measurement_device_type  'Xcalibur, Eos'
_diffrn_measurement_method       '\w scans'
_diffrn_detector_area_resol_mean ?
_diffrn_reflns_number            19161
_diffrn_reflns_av_unetI/netI     0.1168
_diffrn_reflns_av_R_equivalents  0.0886
_diffrn_reflns_limit_h_min       -36
_diffrn_reflns_limit_h_max       37
_diffrn_reflns_limit_k_min       -37
_diffrn_reflns_limit_k_max       35
_diffrn_reflns_limit_l_min       -16
_diffrn_reflns_limit_l_max       14
_diffrn_reflns_theta_min         2.506
_diffrn_reflns_theta_max         29.194
_diffrn_reflns_theta_full        27.000
_diffrn_measured_fraction_theta_max 0.891
_diffrn_measured_fraction_theta_full 0.995
_diffrn_reflns_Laue_measured_fraction_max 0.891
_diffrn_reflns_Laue_measured_fraction_full 0.995
_diffrn_reflns_point_group_measured_fraction_max 0.891
_diffrn_reflns_point_group_measured_fraction_full 0.995
_reflns_number_total             4388
_reflns_number_gt                2457
_reflns_threshold_expression     'I > 2\s(I)'
_reflns_Friedel_coverage         0.000
_reflns_Friedel_fraction_max     .
_reflns_Friedel_fraction_full    .

_reflns_special_details          
;
 Reflections were merged by SHELXL according to the crystal
 class for the calculation of statistics and refinement.
 
 _reflns_Friedel_fraction is defined as the number of unique
 Friedel pairs measured divided by the number that would be
 possible theoretically, ignoring centric projections and
 systematic absences.
;

_computing_data_collection       
;
CrysAlisPro, Agilent Technologies,
Version 1.171.35.21 (release 20-01-2012 CrysAlis171 .NET)
(compiled Jan 23 2012,18:06:46)
;
_computing_cell_refinement       
;
CrysAlisPro, Agilent Technologies,
Version 1.171.35.21 (release 20-01-2012 CrysAlis171 .NET)
(compiled Jan 23 2012,18:06:46)
;
_computing_data_reduction        
;
CrysAlisPro, Agilent Technologies,
Version 1.171.35.21 (release 20-01-2012 CrysAlis171 .NET)
(compiled Jan 23 2012,18:06:46)
;
_computing_structure_solution    'SHELXS-2013 (Sheldrick, 2013)'
_computing_structure_refinement  'SHELXL-2013 (Sheldrick, 2013)'
_computing_molecular_graphics    'X-Seed (Barbour, 1999)'
_computing_publication_material  'CIFTAB (Sheldrick, 1997)'

_refine_special_details          
;
 ?
;
_refine_ls_structure_factor_coef Fsqd
_refine_ls_matrix_type           full
_refine_ls_weighting_scheme      calc
_refine_ls_weighting_details     
'w=1/[\s^2^(Fo^2^)+(0.1659P)^2^] where P=(Fo^2^+2Fc^2^)/3'
_atom_sites_solution_primary     ?
_atom_sites_solution_secondary   ?
_atom_sites_solution_hydrogens   geom
_refine_ls_hydrogen_treatment    constr
_refine_ls_extinction_method     none
_refine_ls_extinction_coef       .
_refine_ls_number_reflns         4388
_refine_ls_number_parameters     194
_refine_ls_number_restraints     2
_refine_ls_R_factor_all          0.1445
_refine_ls_R_factor_gt           0.0921
_refine_ls_wR_factor_ref         0.3072
_refine_ls_wR_factor_gt          0.2690
_refine_ls_goodness_of_fit_ref   1.064
_refine_ls_restrained_S_all      1.066
_refine_ls_shift/su_max          0.000
_refine_ls_shift/su_mean         0.000

loop_
_atom_site_label
_atom_site_type_symbol
_atom_site_fract_x
_atom_site_fract_y
_atom_site_fract_z
_atom_site_U_iso_or_equiv
_atom_site_adp_type
_atom_site_occupancy
_atom_site_site_symmetry_order
_atom_site_calc_flag
_atom_site_refinement_flags_posn
_atom_site_refinement_flags_adp
_atom_site_refinement_flags_occupancy
_atom_site_disorder_assembly
_atom_site_disorder_group
Ag1 Ag 0.58905(2) 0.06801(3) 0.19037(6) 0.0476(4) Uani 1 1 d . . . . .
C26 C 0.6445(3) 0.0369(3) -0.0091(6) 0.0373(18) Uani 1 1 d . . . . .
H26 H 0.6099 0.0042 -0.0102 0.045 Uiso 1 1 calc R U . . .
C13 C 0.7654(3) 0.2004(3) 0.2890(9) 0.056(3) Uani 1 1 d . . . . .
H13 H 0.7943 0.2279 0.2454 0.067 Uiso 1 1 calc R U . . .
N21 N 0.6509(3) 0.0806(3) 0.0488(6) 0.0456(17) Uani 1 1 d . . . . .
F35 F 0.5938(3) 0.0975(3) 0.6319(7) 0.088(2) Uani 1 1 d . . . . .
N24 N 0.7377(3) 0.0836(3) -0.0672(5) 0.0384(15) Uani 1 1 d . . . . .
C12 C 0.7170(4) 0.1669(3) 0.2395(8) 0.051(2) Uani 1 1 d . . . . .
C16 C 0.6834(4) 0.1203(4) 0.3982(9) 0.056(3) Uani 1 1 d . . . . .
H16 H 0.6546 0.0910 0.4388 0.067 Uiso 1 1 calc R U . . .
C25 C 0.6888(3) 0.0395(3) -0.0679(6) 0.0364(17) Uani 1 1 d . . . . .
H25 H 0.6834 0.0084 -0.1095 0.044 Uiso 1 1 calc R U . . .
C22 C 0.7004(4) 0.1260(4) 0.0487(8) 0.049(2) Uani 1 1 d . . . . .
F32 F 0.5934(3) 0.0212(3) 0.5802(6) 0.098(2) Uani 1 1 d . . . . .
F34 F 0.6627(3) 0.0866(4) 0.6810(7) 0.112(3) Uani 1 1 d . . . . .
N11 N 0.6758(3) 0.1267(3) 0.2943(7) 0.054(2) Uani 1 1 d . . . . .
C23 C 0.7425(3) 0.1259(4) -0.0105(7) 0.048(2) Uani 1 1 d . . . . .
H23 H 0.7772 0.1586 -0.0104 0.058 Uiso 1 1 calc R U . . .
C15 C 0.7322(3) 0.1545(4) 0.4529(9) 0.055(2) Uani 1 1 d . . . . .
H15 H 0.7365 0.1492 0.5300 0.066 Uiso 1 1 calc R U . . .
N14 N 0.7739(3) 0.1961(3) 0.3946(9) 0.064(3) Uani 1 1 d . . . . .
B31 B 0.6062(6) 0.0576(5) 0.6606(11) 0.059(3) Uani 1 1 d . . . . .
C1 C 0.7072(4) 0.1732(4) 0.1157(8) 0.056(3) Uani 1 1 d . . . . .
H1A H 0.6739 0.1764 0.1083 0.067 Uiso 1 1 calc R U . . .
H1B H 0.7386 0.2073 0.0862 0.067 Uiso 1 1 calc R U . . .
F33 F 0.5773(4) 0.0346(3) 0.7579(6) 0.121(3) Uani 1 1 d . . . . .
Cl43 Cl 0.5696(3) 0.1358(2) 0.9426(8) 0.115(3) Uani 0.5 1 d D . P . .
C41 C 0.5301(10) 0.0732(6) 0.9158(16) 0.080(7) Uiso 0.5 1 d D . P . .
H41A H 0.5477 0.0654 0.8519 0.095 Uiso 0.5 1 calc R U P . .
H41B H 0.4966 0.0714 0.8851 0.095 Uiso 0.5 1 calc R U P . .
Cl42 Cl 0.5069(2) 0.0175(2) 0.9989(5) 0.0618(15) Uani 0.5 1 d D . P . .

loop_
_atom_site_aniso_label
_atom_site_aniso_U_11
_atom_site_aniso_U_22
_atom_site_aniso_U_33
_atom_site_aniso_U_23
_atom_site_aniso_U_13
_atom_site_aniso_U_12
Ag1 0.0243(4) 0.0331(4) 0.0885(7) 0.0054(3) 0.0067(3) 0.0167(3)
C26 0.025(4) 0.016(3) 0.063(5) 0.003(3) 0.006(3) 0.004(3)
C13 0.024(4) 0.028(4) 0.086(7) -0.024(4) 0.026(4) -0.009(3)
N21 0.028(4) 0.036(4) 0.073(5) 0.005(3) 0.018(3) 0.015(3)
F35 0.064(4) 0.072(4) 0.151(6) 0.015(4) -0.016(4) 0.050(4)
N24 0.028(3) 0.027(3) 0.053(4) 0.000(3) 0.008(3) 0.008(3)
C12 0.032(5) 0.028(4) 0.080(7) -0.006(4) 0.018(4) 0.006(4)
C16 0.025(4) 0.031(5) 0.090(7) -0.012(5) 0.014(4) -0.002(4)
C25 0.028(4) 0.028(4) 0.055(5) -0.007(3) 0.006(3) 0.015(3)
C22 0.036(5) 0.033(4) 0.078(6) -0.013(4) 0.004(4) 0.017(4)
F32 0.086(5) 0.084(5) 0.113(5) -0.033(4) -0.002(4) 0.035(4)
F34 0.051(4) 0.114(7) 0.197(8) -0.030(5) -0.042(5) 0.060(5)
N11 0.028(4) 0.043(4) 0.079(5) -0.006(4) 0.017(4) 0.011(3)
C23 0.027(4) 0.037(5) 0.070(5) -0.009(4) 0.008(4) 0.008(4)
C15 0.024(4) 0.039(5) 0.093(7) -0.014(4) 0.003(4) 0.009(4)
N14 0.015(3) 0.040(4) 0.116(7) -0.041(5) 0.006(4) -0.001(3)
B31 0.077(8) 0.052(7) 0.067(7) -0.001(6) -0.006(6) 0.047(7)
C1 0.037(5) 0.031(5) 0.089(7) 0.003(4) 0.027(5) 0.008(4)
F33 0.146(8) 0.073(5) 0.081(5) 0.029(4) 0.003(5) 0.007(5)
Cl43 0.058(4) 0.038(3) 0.246(9) 0.015(4) 0.081(5) 0.022(3)
Cl42 0.036(3) 0.067(4) 0.076(3) -0.028(4) -0.004(2) 0.021(3)

_geom_special_details            
;
 All esds (except the esd in the dihedral angle between two l.s. planes)
 are estimated using the full covariance matrix.  The cell esds are taken
 into account individually in the estimation of esds in distances, angles
 and torsion angles; correlations between esds in cell parameters are only
 used when they are defined by crystal symmetry.  An approximate (isotropic)
 treatment of cell esds is used for estimating esds involving l.s. planes.
;

loop_
_geom_bond_atom_site_label_1
_geom_bond_atom_site_label_2
_geom_bond_distance
_geom_bond_site_symmetry_2
_geom_bond_publ_flag
Ag1 N14 2.259(7) 17 ?
Ag1 N21 2.324(6) . ?
Ag1 N24 2.368(6) 5_545 ?
Ag1 N11 2.490(8) . ?
C26 N21 1.341(10) . ?
C26 C25 1.402(10) . ?
C26 H26 0.9500 . ?
C13 N14 1.299(14) . ?
C13 C12 1.347(13) . ?
C13 H13 0.9500 . ?
N21 C22 1.339(11) . ?
F35 B31 1.376(12) . ?
N24 C25 1.314(10) . ?
N24 C23 1.318(11) . ?
N24 Ag1 2.368(6) 9_654 ?
C12 N11 1.319(11) . ?
C12 C1 1.530(14) . ?
C16 N11 1.287(12) . ?
C16 C15 1.385(12) . ?
C16 H16 0.9500 . ?
C25 H25 0.9500 . ?
C22 C23 1.381(11) . ?
C22 C1 1.480(12) . ?
F32 B31 1.316(14) . ?
F34 B31 1.400(15) . ?
C23 H23 0.9500 . ?
C15 N14 1.364(12) . ?
C15 H15 0.9500 . ?
N14 Ag1 2.259(7) 18_545 ?
B31 F33 1.379(14) . ?
C1 H1A 0.9900 . ?
C1 H1B 0.9900 . ?
Cl43 C41 1.578(15) . ?
C41 Cl42 1.686(15) . ?
C41 H41A 0.9900 . ?
C41 H41B 0.9900 . ?
Cl42 Cl42 0.862(10) 10_657 ?

loop_
_geom_angle_atom_site_label_1
_geom_angle_atom_site_label_2
_geom_angle_atom_site_label_3
_geom_angle
_geom_angle_site_symmetry_1
_geom_angle_site_symmetry_3
_geom_angle_publ_flag
N14 Ag1 N21 150.8(3) 17 . ?
N14 Ag1 N24 112.2(2) 17 5_545 ?
N21 Ag1 N24 96.4(2) . 5_545 ?
N14 Ag1 N11 102.8(3) 17 . ?
N21 Ag1 N11 81.3(2) . . ?
N24 Ag1 N11 91.2(3) 5_545 . ?
N21 C26 C25 120.2(7) . . ?
N21 C26 H26 119.9 . . ?
C25 C26 H26 119.9 . . ?
N14 C13 C12 121.9(8) . . ?
N14 C13 H13 119.0 . . ?
C12 C13 H13 119.0 . . ?
C22 N21 C26 118.3(6) . . ?
C22 N21 Ag1 119.2(6) . . ?
C26 N21 Ag1 119.2(5) . . ?
C25 N24 C23 116.3(7) . . ?
C25 N24 Ag1 118.5(5) . 9_654 ?
C23 N24 Ag1 124.6(5) . 9_654 ?
N11 C12 C13 122.1(10) . . ?
N11 C12 C1 116.5(8) . . ?
C13 C12 C1 121.4(8) . . ?
N11 C16 C15 122.2(9) . . ?
N11 C16 H16 118.9 . . ?
C15 C16 H16 118.9 . . ?
N24 C25 C26 122.0(7) . . ?
N24 C25 H25 119.0 . . ?
C26 C25 H25 119.0 . . ?
N21 C22 C23 118.9(7) . . ?
N21 C22 C1 117.6(7) . . ?
C23 C22 C1 123.5(8) . . ?
C16 N11 C12 117.5(8) . . ?
C16 N11 Ag1 124.3(6) . . ?
C12 N11 Ag1 118.2(7) . . ?
N24 C23 C22 124.3(8) . . ?
N24 C23 H23 117.8 . . ?
C22 C23 H23 117.8 . . ?
N14 C15 C16 119.1(10) . . ?
N14 C15 H15 120.5 . . ?
C16 C15 H15 120.5 . . ?
C13 N14 C15 117.1(8) . . ?
C13 N14 Ag1 120.8(6) . 18_545 ?
C15 N14 Ag1 122.1(8) . 18_545 ?
F32 B31 F35 111.8(10) . . ?
F32 B31 F33 112.4(10) . . ?
F35 B31 F33 105.3(10) . . ?
F32 B31 F34 111.7(10) . . ?
F35 B31 F34 104.2(10) . . ?
F33 B31 F34 111.0(10) . . ?
C22 C1 C12 111.6(8) . . ?
C22 C1 H1A 109.3 . . ?
C12 C1 H1A 109.3 . . ?
C22 C1 H1B 109.3 . . ?
C12 C1 H1B 109.3 . . ?
H1A C1 H1B 108.0 . . ?
Cl43 C41 Cl42 130.5(13) . . ?
Cl43 C41 H41A 104.7 . . ?
Cl42 C41 H41A 104.7 . . ?
Cl43 C41 H41B 104.7 . . ?
Cl42 C41 H41B 104.7 . . ?
H41A C41 H41B 105.7 . . ?
Cl42 Cl42 C41 145.6(12) 10_657 . ?

loop_
_geom_torsion_atom_site_label_1
_geom_torsion_atom_site_label_2
_geom_torsion_atom_site_label_3
_geom_torsion_atom_site_label_4
_geom_torsion
_geom_torsion_site_symmetry_1
_geom_torsion_site_symmetry_2
_geom_torsion_site_symmetry_3
_geom_torsion_site_symmetry_4
_geom_torsion_publ_flag
C25 C26 N21 C22 -0.1(12) . . . . ?
C25 C26 N21 Ag1 -159.5(6) . . . . ?
N14 C13 C12 N11 -2.2(15) . . . . ?
N14 C13 C12 C1 178.6(9) . . . . ?
C23 N24 C25 C26 -1.8(12) . . . . ?
Ag1 N24 C25 C26 169.5(6) 9_654 . . . ?
N21 C26 C25 N24 1.1(12) . . . . ?
C26 N21 C22 C23 -0.1(13) . . . . ?
Ag1 N21 C22 C23 159.3(7) . . . . ?
C26 N21 C22 C1 -178.2(8) . . . . ?
Ag1 N21 C22 C1 -18.8(11) . . . . ?
C15 C16 N11 C12 1.5(14) . . . . ?
C15 C16 N11 Ag1 -179.0(7) . . . . ?
C13 C12 N11 C16 0.0(14) . . . . ?
C1 C12 N11 C16 179.2(8) . . . . ?
C13 C12 N11 Ag1 -179.6(7) . . . . ?
C1 C12 N11 Ag1 -0.4(10) . . . . ?
C25 N24 C23 C22 1.6(13) . . . . ?
Ag1 N24 C23 C22 -169.1(7) 9_654 . . . ?
N21 C22 C23 N24 -0.7(15) . . . . ?
C1 C22 C23 N24 177.3(9) . . . . ?
N11 C16 C15 N14 -0.9(14) . . . . ?
C12 C13 N14 C15 2.7(14) . . . . ?
C12 C13 N14 Ag1 -177.0(7) . . . 18_545 ?
C16 C15 N14 C13 -1.3(13) . . . . ?
C16 C15 N14 Ag1 178.5(7) . . . 18_545 ?
N21 C22 C1 C12 81.6(10) . . . . ?
C23 C22 C1 C12 -96.4(10) . . . . ?
N11 C12 C1 C22 -66.6(10) . . . . ?
C13 C12 C1 C22 112.6(9) . . . . ?
Cl43 C41 Cl42 Cl42 -159.2(18) . . . 10_657 ?

_refine_diff_density_max         2.169
_refine_diff_density_min         -1.502
_refine_diff_density_rms         0.195

# SQUEEZE RESULTS (APPEND TO CIF)
loop_
_platon_squeeze_void_nr
_platon_squeeze_void_average_x
_platon_squeeze_void_average_y
_platon_squeeze_void_average_z
_platon_squeeze_void_volume
_platon_squeeze_void_count_electrons
_platon_squeeze_void_content
1 0.000 0.000 -0.004 676 156 ' '
2 0.333 0.667 0.513 677 156 ' '
3 0.667 0.333 0.179 677 156 ' '
_platon_squeeze_details          
;
;

_shelxl_version_