####################################################################### 
# 
# This file contains crystal structure data downloaded from the 
# Cambridge Structural Database (CSD) hosted by the Cambridge 
# Crystallographic Data Centre (CCDC).
# 
# Full information about CCDC data access policies and citation 
# guidelines are available at http://www.ccdc.cam.ac.uk/access/V1 
# 
# Audit and citation data items may have been added by the CCDC. 
# Please retain this information to preserve the provenance of 
# this file and to allow appropriate attribution of the data. 
# 
#######################################################################

data_3
_audit_block_doi                 10.5517/cc13qbsy
_database_code_depnum_ccdc_archive 'CCDC 1034370'
loop_
_citation_id
_citation_doi
_citation_year
1 10.1002/chem.201500595 2015
_audit_update_record             
;
2014-11-16 deposited with the CCDC.	2024-07-10 downloaded from the CCDC.
;

_audit_creation_method           SHELXL-97
_chemical_name_systematic        
; 
 ? 
;
_chemical_name_common            ?
_chemical_melting_point          ?
_chemical_formula_moiety         ?
_chemical_formula_sum            'C91 H121 Cd3 N15 O28'
_chemical_formula_weight         2210.23

loop_
_atom_type_symbol
_atom_type_description
_atom_type_scat_dispersion_real
_atom_type_scat_dispersion_imag
_atom_type_scat_source
C C 0.0033 0.0016 'International Tables Vol C Tables 4.2.6.8 and 6.1.1.4'
H H 0.0000 0.0000 'International Tables Vol C Tables 4.2.6.8 and 6.1.1.4'
N N 0.0061 0.0033 'International Tables Vol C Tables 4.2.6.8 and 6.1.1.4'
O O 0.0106 0.0060 'International Tables Vol C Tables 4.2.6.8 and 6.1.1.4'
Cd Cd -0.8075 1.2024 'International Tables Vol C Tables 4.2.6.8 and 6.1.1.4'

_symmetry_cell_setting           monoclinic
_symmetry_space_group_name_H-M   C2/m

loop_
_symmetry_equiv_pos_as_xyz
'x, y, z'
'-x, y, -z'
'x+1/2, y+1/2, z'
'-x+1/2, y+1/2, -z'
'-x, -y, -z'
'x, -y, z'
'-x+1/2, -y+1/2, -z'
'x+1/2, -y+1/2, z'

_cell_length_a                   26.682(2)
_cell_length_b                   39.630(3)
_cell_length_c                   17.0967(14)
_cell_angle_alpha                90.00
_cell_angle_beta                 100.9500(10)
_cell_angle_gamma                90.00
_cell_volume                     17749(2)
_cell_formula_units_Z            4
_cell_measurement_temperature    273(2)
_cell_measurement_reflns_used    ?
_cell_measurement_theta_min      0.93
_cell_measurement_theta_max      25.97

_exptl_crystal_description       block
_exptl_crystal_colour            orange
_exptl_crystal_size_max          0.31
_exptl_crystal_size_mid          0.24
_exptl_crystal_size_min          0.22
_exptl_crystal_density_meas      ?
_exptl_crystal_density_diffrn    0.827
_exptl_crystal_density_method    'not measured'
_exptl_crystal_F_000             4560
_exptl_absorpt_coefficient_mu    0.403
_exptl_absorpt_correction_type   multi-scan
_exptl_absorpt_correction_T_min  0.6334
_exptl_absorpt_correction_T_max  0.7453
_exptl_absorpt_process_details   ?

_exptl_special_details           
; 
 ? 
;

_diffrn_ambient_temperature      273(2)
_diffrn_radiation_wavelength     0.71073
_diffrn_radiation_type           MoK\a
_diffrn_radiation_source         'fine-focus sealed tube'
_diffrn_radiation_monochromator  graphite
_diffrn_measurement_device_type  ?
_diffrn_measurement_method       ?
_diffrn_detector_area_resol_mean ?
_diffrn_standards_number         ?
_diffrn_standards_interval_count ?
_diffrn_standards_interval_time  ?
_diffrn_standards_decay_%        ?
_diffrn_reflns_number            48259
_diffrn_reflns_av_R_equivalents  0.0592
_diffrn_reflns_av_sigmaI/netI    0.0744
_diffrn_reflns_limit_h_min       -29
_diffrn_reflns_limit_h_max       32
_diffrn_reflns_limit_k_min       -48
_diffrn_reflns_limit_k_max       33
_diffrn_reflns_limit_l_min       -20
_diffrn_reflns_limit_l_max       21
_diffrn_reflns_theta_min         1.21
_diffrn_reflns_theta_max         25.97
_reflns_number_total             17577
_reflns_number_gt                10177
_reflns_threshold_expression     >2sigma(I)

_computing_data_collection       ?
_computing_cell_refinement       ?
_computing_data_reduction        ?
_computing_structure_solution    'SHELXS-97 (Sheldrick, 1990)'
_computing_structure_refinement  'SHELXL-97 (Sheldrick, 1997)'
_computing_molecular_graphics    ?
_computing_publication_material  ?

_refine_special_details          
; 
 Refinement of F^2^ against ALL reflections.  The weighted R-factor wR and 
 goodness of fit S are based on F^2^, conventional R-factors R are based 
 on F, with F set to zero for negative F^2^. The threshold expression of 
 F^2^ > 2sigma(F^2^) is used only for calculating R-factors(gt) etc. and is 
 not relevant to the choice of reflections for refinement.  R-factors based 
 on F^2^ are statistically about twice as large as those based on F, and R- 
 factors based on ALL data will be even larger. 
;

_refine_ls_structure_factor_coef Fsqd
_refine_ls_matrix_type           full
_refine_ls_weighting_scheme      calc
_refine_ls_weighting_details     
'calc w=1/[\s^2^(Fo^2^)+(0.2000P)^2^+0.0000P] where P=(Fo^2^+2Fc^2^)/3'
_atom_sites_solution_primary     direct
_atom_sites_solution_secondary   difmap
_atom_sites_solution_hydrogens   geom
_refine_ls_hydrogen_treatment    mixed
_refine_ls_extinction_method     none
_refine_ls_extinction_coef       ?
_refine_ls_number_reflns         17577
_refine_ls_number_parameters     547
_refine_ls_number_restraints     4
_refine_ls_R_factor_all          0.1551
_refine_ls_R_factor_gt           0.0940
_refine_ls_wR_factor_ref         0.3338
_refine_ls_wR_factor_gt          0.2748
_refine_ls_goodness_of_fit_ref   1.139
_refine_ls_restrained_S_all      1.140
_refine_ls_shift/su_max          0.012
_refine_ls_shift/su_mean         0.001

loop_
_atom_site_label
_atom_site_type_symbol
_atom_site_fract_x
_atom_site_fract_y
_atom_site_fract_z
_atom_site_U_iso_or_equiv
_atom_site_adp_type
_atom_site_occupancy
_atom_site_symmetry_multiplicity
_atom_site_calc_flag
_atom_site_refinement_flags
_atom_site_disorder_assembly
_atom_site_disorder_group
Cd1 Cd 0.192916(19) 0.168787(13) 0.50422(3) 0.0469(2) Uani 1 1 d . . .
Cd2 Cd 0.2500 0.2500 1.5000 0.0420(2) Uani 1 2 d S . .
N1 N 0.1681(3) 0.11414(17) 0.5053(5) 0.077(2) Uani 1 1 d . . .
N2 N 0.1565(4) 0.06066(18) 0.4727(5) 0.088(3) Uani 1 1 d . . .
N4 N 0.1573(7) 0.0000 0.2276(8) 0.117(6) Uani 1 2 d S . .
N5 N 0.0570(5) 0.2154(3) 0.5944(7) 0.136(4) Uani 1 1 d . . .
N6 N 0.1842(3) 0.1477(2) 1.1979(6) 0.092(2) Uiso 1 1 d . . .
N7 N 0.5705(13) 0.3376(9) 1.055(2) 0.332(14) Uiso 1 1 d D . .
N8 N 0.129(2) 0.1789(14) 0.820(3) 0.50(3) Uiso 1 1 d . . .
C1 C 0.4380(2) 0.1882(2) 1.0785(4) 0.0498(18) Uani 1 1 d . . .
C2 C 0.4698(3) 0.1627(2) 1.0439(4) 0.058(2) Uani 1 1 d . . .
H2A H 0.4912 0.1500 1.0862 0.070 Uiso 1 1 calc R . .
H2B H 0.4480 0.1469 1.0098 0.070 Uiso 1 1 calc R . .
C3 C 0.4719(3) 0.2165(2) 1.1242(4) 0.0526(18) Uani 1 1 d . . .
H3A H 0.4899 0.2286 1.0886 0.063 Uiso 1 1 calc R . .
H3B H 0.4511 0.2325 1.1469 0.063 Uiso 1 1 calc R . .
C4 C 0.4074(3) 0.17064(19) 1.1347(4) 0.0504(18) Uani 1 1 d . . .
H4A H 0.3834 0.1546 1.1055 0.061 Uiso 1 1 calc R . .
H4B H 0.4301 0.1587 1.1767 0.061 Uiso 1 1 calc R . .
C5 C 0.4023(3) 0.2065(2) 1.0107(4) 0.0551(19) Uani 1 1 d . . .
H5A H 0.3833 0.2240 1.0319 0.066 Uiso 1 1 calc R . .
H5B H 0.4217 0.2167 0.9744 0.066 Uiso 1 1 calc R . .
C6 C 0.5400(3) 0.2201(2) 1.2361(4) 0.058(2) Uani 1 1 d . . .
C7 C 0.5432(3) 0.2555(2) 1.2270(5) 0.059(2) Uani 1 1 d . . .
H7A H 0.5230 0.2664 1.1841 0.070 Uiso 1 1 calc R . .
C8 C 0.5763(3) 0.2734(2) 1.2822(4) 0.0533(18) Uani 1 1 d . . .
H8A H 0.5783 0.2966 1.2755 0.064 Uiso 1 1 calc R . .
C9 C 0.6069(3) 0.2589(2) 1.3470(4) 0.056(2) Uani 1 1 d . . .
C10 C 0.6035(3) 0.2240(2) 1.3561(5) 0.064(2) Uani 1 1 d . . .
H10A H 0.6233 0.2137 1.4003 0.077 Uiso 1 1 calc R . .
C11 C 0.5709(3) 0.2041(2) 1.2999(5) 0.071(2) Uani 1 1 d . . .
H11A H 0.5700 0.1808 1.3055 0.085 Uiso 1 1 calc R . .
C12 C 0.6412(3) 0.2792(3) 1.4071(5) 0.061(2) Uani 1 1 d . . .
C13 C 0.3547(3) 0.1887(2) 1.2265(4) 0.0553(19) Uani 1 1 d . . .
C14 C 0.3384(3) 0.2164(2) 1.2652(5) 0.066(2) Uani 1 1 d . . .
H14A H 0.3456 0.2382 1.2508 0.079 Uiso 1 1 calc R . .
C15 C 0.3118(3) 0.2107(2) 1.3247(5) 0.062(2) Uani 1 1 d . . .
H15A H 0.3013 0.2291 1.3514 0.074 Uiso 1 1 calc R . .
C16 C 0.2997(3) 0.17834(19) 1.3468(4) 0.0513(17) Uani 1 1 d . . .
C17 C 0.3158(3) 0.1522(2) 1.3069(5) 0.063(2) Uani 1 1 d . . .
H17A H 0.3074 0.1305 1.3204 0.075 Uiso 1 1 calc R . .
C18 C 0.3438(3) 0.1560(2) 1.2477(5) 0.060(2) Uani 1 1 d . . .
H18A H 0.3550 0.1373 1.2228 0.072 Uiso 1 1 calc R . .
C19 C 0.2691(3) 0.1731(2) 1.4110(4) 0.0534(19) Uani 1 1 d . . .
C20 C 0.3425(3) 0.1884(2) 0.8946(4) 0.060(2) Uani 1 1 d . . .
C21 C 0.3390(3) 0.2193(2) 0.8596(4) 0.058(2) Uani 1 1 d . . .
H21A H 0.3548 0.2378 0.8875 0.069 Uiso 1 1 calc R . .
C22 C 0.3119(3) 0.2233(2) 0.7818(4) 0.0517(18) Uani 1 1 d . . .
H22A H 0.3102 0.2445 0.7579 0.062 Uiso 1 1 calc R . .
C23 C 0.2875(3) 0.1963(2) 0.7399(4) 0.0550(19) Uani 1 1 d . . .
C24 C 0.2923(5) 0.1646(3) 0.7756(6) 0.101(4) Uani 1 1 d . . .
H24A H 0.2793 0.1456 0.7469 0.121 Uiso 1 1 calc R . .
C25 C 0.3166(4) 0.1617(3) 0.8540(6) 0.101(4) Uani 1 1 d . . .
H25A H 0.3155 0.1412 0.8801 0.122 Uiso 1 1 calc R . .
C26 C 0.2590(3) 0.2001(2) 0.6551(4) 0.0506(17) Uiso 1 1 d . . .
C27 C 0.1773(4) 0.0909(2) 0.4570(5) 0.071(2) Uani 1 1 d . . .
H27A H 0.1958 0.0942 0.4167 0.085 Uiso 1 1 calc R . .
C28 C 0.1422(6) 0.0998(3) 0.5600(8) 0.135(6) Uani 1 1 d . . .
H28A H 0.1331 0.1107 0.6034 0.162 Uiso 1 1 calc R . .
C29 C 0.1321(6) 0.0660(3) 0.5385(9) 0.144(7) Uani 1 1 d . . .
H29A H 0.1134 0.0505 0.5622 0.173 Uiso 1 1 calc R . .
C30 C 0.1593(4) 0.0300(2) 0.4326(6) 0.085(3) Uani 1 1 d . . .
C31 C 0.1594(5) 0.0307(2) 0.3513(6) 0.095(3) Uani 1 1 d . . .
H31A H 0.1596 0.0513 0.3250 0.114 Uiso 1 1 calc R . .
C32 C 0.1592(7) 0.0000 0.3086(10) 0.102(5) Uani 1 2 d S . .
C33 C 0.1564(6) 0.0000 0.4737(8) 0.081(4) Uani 1 2 d S . .
H33A H 0.1527 0.0000 0.5267 0.097 Uiso 1 2 calc SR . .
C34 C 0.1535(10) 0.0247(4) 0.1820(9) 0.181(8) Uani 1 1 d . . .
C38 C 0.1019(5) 0.2059(4) 0.5804(7) 0.109(4) Uani 1 1 d . . .
H38A H 0.1259 0.2230 0.5822 0.131 Uiso 1 1 calc R . .
C39 C 0.0424(11) 0.2475(6) 0.6161(14) 0.245(14) Uani 1 1 d . . .
H39B H 0.0079 0.2513 0.5890 0.367 Uiso 1 1 d R . .
H39C H 0.0436 0.2471 0.6726 0.367 Uiso 1 1 d R . .
C40 C 0.0202(9) 0.1817(7) 0.609(2) 0.33(2) Uani 1 1 d . . .
H40A H 0.0342 0.1612 0.5917 0.498 Uiso 1 1 d R . .
H40B H 0.0192 0.1802 0.6644 0.498 Uiso 1 1 d R . .
H40C H -0.0137 0.1849 0.5788 0.498 Uiso 1 1 d R . .
C41 C 0.1701(4) 0.1314(3) 1.2546(7) 0.099(3) Uiso 1 1 d . . .
H41A H 0.1604 0.1437 1.2955 0.119 Uiso 1 1 calc R . .
C42 C 0.2058(6) 0.1301(4) 1.1397(10) 0.147(5) Uiso 1 1 d . . .
H42A H 0.2022 0.1063 1.1466 0.220 Uiso 1 1 calc R . .
H42B H 0.2414 0.1357 1.1459 0.220 Uiso 1 1 calc R . .
H42C H 0.1885 0.1366 1.0874 0.220 Uiso 1 1 calc R . .
C43 C 0.1863(4) 0.1841(3) 1.1975(7) 0.103(3) Uiso 1 1 d . . .
H43A H 0.1709 0.1928 1.2397 0.155 Uiso 1 1 calc R . .
H43B H 0.1681 0.1924 1.1473 0.155 Uiso 1 1 calc R . .
H43C H 0.2212 0.1913 1.2051 0.155 Uiso 1 1 calc R . .
C44 C 0.5425(11) 0.3394(7) 1.131(2) 0.249(12) Uiso 1 1 d D . .
C45 C 0.5939(17) 0.3557(11) 0.986(3) 0.38(2) Uiso 1 1 d D . .
C46 C 0.5712(12) 0.2997(8) 1.024(2) 0.288(14) Uiso 1 1 d D . .
C47 C 0.0909(9) 0.2071(6) 0.8069(15) 0.207(9) Uiso 1 1 d . . .
C48 C 0.1561(11) 0.1688(7) 0.7702(19) 0.232(12) Uiso 1 1 d . . .
O1 O 0.5000 0.1806(2) 1.0000 0.077(2) Uani 1 2 d S . .
O2 O 0.50751(19) 0.19992(14) 1.1864(3) 0.0651(14) Uani 1 1 d . . .
O3 O 0.3809(2) 0.19678(15) 1.1672(3) 0.0663(15) Uani 1 1 d . . .
O4 O 0.3682(2) 0.18133(16) 0.9702(3) 0.0711(16) Uani 1 1 d . . .
O5 O 0.6430(2) 0.31058(17) 1.3941(3) 0.0690(15) Uani 1 1 d . . .
O6 O 0.66581(18) 0.26563(16) 1.4693(3) 0.0623(14) Uani 1 1 d . . .
O7 O 0.2623(2) 0.19707(14) 1.4556(3) 0.0633(14) Uani 1 1 d . . .
O8 O 0.2491(2) 0.14459(15) 1.4169(3) 0.0675(15) Uani 1 1 d . . .
O9 O 0.25910(19) 0.22814(13) 0.6232(3) 0.0565(13) Uani 1 1 d . . .
O10 O 0.2385(2) 0.17375(15) 0.6242(3) 0.0738(17) Uani 1 1 d . . .
O11 O 0.1172(3) 0.1759(2) 0.5643(5) 0.092(2) Uani 1 1 d . . .
O12 O 0.1685(5) 0.0993(2) 1.2584(5) 0.150(4) Uani 1 1 d . . .
O13 O 0.541(3) 0.3429(19) 1.222(3) 0.80(5) Uiso 1 1 d D . .
N9 N 0.2674(7) 0.2304(5) 1.0605(12) 0.101(5) Uiso 0.50 1 d P . .
C49 C 0.2650(9) 0.2628(6) 1.0100(16) 0.197(9) Uiso 1 1 d . . .
O1W O 0.0902(8) 0.0000 0.6244(12) 0.204(7) Uiso 1 2 d S . .
O2W O 0.5639(19) 0.1720(11) 1.542(2) 0.54(3) Uiso 1 1 d . . .
N3 N 0.1584(10) 0.0157(3) 0.1049(10) 0.249(11) Uani 1 1 d . . .

loop_
_atom_site_aniso_label
_atom_site_aniso_U_11
_atom_site_aniso_U_22
_atom_site_aniso_U_33
_atom_site_aniso_U_23
_atom_site_aniso_U_13
_atom_site_aniso_U_12
Cd1 0.0556(3) 0.0532(4) 0.0317(3) -0.0002(2) 0.0078(2) -0.0050(2)
Cd2 0.0480(4) 0.0527(5) 0.0236(3) 0.0011(3) 0.0026(3) -0.0018(3)
N1 0.113(6) 0.051(4) 0.080(5) -0.004(4) 0.054(5) -0.010(4)
N2 0.147(7) 0.057(4) 0.074(5) -0.012(4) 0.055(5) -0.027(5)
N4 0.257(19) 0.041(6) 0.062(8) 0.000 0.052(10) 0.000
N5 0.128(9) 0.167(11) 0.128(9) -0.007(8) 0.058(8) 0.056(8)
C1 0.044(4) 0.082(5) 0.023(3) 0.002(3) 0.004(3) -0.004(3)
C2 0.058(4) 0.084(6) 0.036(4) 0.003(4) 0.017(3) -0.004(4)
C3 0.042(4) 0.082(5) 0.033(3) 0.003(3) 0.003(3) 0.003(3)
C4 0.049(4) 0.073(5) 0.030(3) 0.002(3) 0.010(3) -0.001(3)
C5 0.042(4) 0.086(6) 0.036(4) 0.010(4) 0.004(3) -0.011(4)
C6 0.040(4) 0.096(7) 0.034(4) 0.000(4) -0.005(3) -0.005(4)
C7 0.054(4) 0.073(6) 0.043(4) 0.012(4) -0.007(3) -0.002(4)
C8 0.050(4) 0.066(5) 0.042(4) 0.003(3) 0.004(3) 0.002(3)
C9 0.044(4) 0.088(6) 0.033(4) -0.004(4) 0.001(3) 0.006(4)
C10 0.056(4) 0.084(6) 0.042(4) 0.009(4) -0.014(3) 0.005(4)
C11 0.066(5) 0.080(6) 0.059(5) 0.016(4) -0.009(4) -0.010(4)
C12 0.042(4) 0.095(7) 0.045(4) 0.001(4) 0.002(3) 0.004(4)
C13 0.056(4) 0.067(5) 0.045(4) 0.006(4) 0.016(3) 0.000(4)
C14 0.073(5) 0.054(5) 0.074(6) 0.005(4) 0.024(4) -0.001(4)
C15 0.070(5) 0.062(5) 0.059(5) -0.003(4) 0.027(4) 0.004(4)
C16 0.058(4) 0.054(5) 0.044(4) -0.002(3) 0.014(3) -0.001(3)
C17 0.083(5) 0.057(5) 0.056(5) 0.004(4) 0.034(4) -0.001(4)
C18 0.075(5) 0.056(5) 0.054(5) 0.000(4) 0.029(4) 0.000(4)
C19 0.055(4) 0.064(5) 0.043(4) 0.005(4) 0.013(3) 0.004(4)
C20 0.057(4) 0.088(6) 0.030(3) 0.013(4) -0.008(3) -0.016(4)
C21 0.065(5) 0.070(5) 0.033(4) 0.005(4) -0.005(3) -0.009(4)
C22 0.062(4) 0.059(5) 0.031(3) 0.003(3) 0.002(3) 0.007(4)
C23 0.063(4) 0.069(5) 0.031(3) 0.016(4) 0.004(3) -0.007(4)
C24 0.140(10) 0.084(7) 0.056(6) 0.017(5) -0.036(6) -0.047(6)
C25 0.117(8) 0.099(8) 0.065(6) 0.043(6) -0.040(6) -0.047(6)
C27 0.101(6) 0.054(5) 0.065(5) 0.000(4) 0.036(5) -0.013(5)
C28 0.244(16) 0.063(7) 0.137(11) -0.031(7) 0.138(12) -0.044(8)
C29 0.254(17) 0.063(7) 0.165(13) 0.000(7) 0.165(13) -0.031(8)
C30 0.136(9) 0.050(5) 0.082(7) -0.004(5) 0.055(6) 0.004(5)
C31 0.163(10) 0.049(5) 0.087(7) 0.003(5) 0.057(7) -0.005(6)
C32 0.164(16) 0.067(9) 0.088(11) 0.000 0.053(11) 0.000
C33 0.119(11) 0.060(8) 0.076(9) 0.000 0.051(8) 0.000
C34 0.33(3) 0.138(14) 0.080(10) -0.013(10) 0.044(13) -0.013(15)
C38 0.121(10) 0.135(12) 0.079(8) -0.006(7) 0.039(7) -0.005(9)
C39 0.32(3) 0.24(2) 0.18(2) 0.009(17) 0.08(2) 0.19(2)
C40 0.162(19) 0.30(3) 0.59(6) -0.19(3) 0.22(3) -0.04(2)
O1 0.089(6) 0.090(6) 0.065(5) 0.000 0.045(5) 0.000
O2 0.058(3) 0.079(4) 0.048(3) 0.004(3) -0.014(2) -0.004(3)
O3 0.068(3) 0.082(4) 0.057(3) 0.015(3) 0.031(3) 0.009(3)
O4 0.077(4) 0.088(4) 0.037(3) 0.024(3) -0.018(2) -0.029(3)
O5 0.068(3) 0.088(5) 0.044(3) -0.011(3) -0.007(2) 0.000(3)
O6 0.046(3) 0.105(4) 0.033(3) 0.004(3) 0.000(2) -0.001(3)
O7 0.087(4) 0.059(3) 0.050(3) -0.008(3) 0.029(3) 0.002(3)
O8 0.080(4) 0.071(4) 0.060(3) -0.003(3) 0.033(3) -0.007(3)
O9 0.069(3) 0.070(4) 0.030(2) 0.007(2) 0.007(2) 0.008(3)
O10 0.088(4) 0.091(4) 0.034(3) 0.014(3) -0.007(3) -0.025(3)
O11 0.085(5) 0.112(6) 0.087(5) 0.002(4) 0.034(4) 0.011(4)
O12 0.278(13) 0.072(5) 0.095(6) 0.007(4) 0.026(7) -0.017(6)
N3 0.52(4) 0.112(11) 0.126(11) -0.014(8) 0.086(17) -0.009(13)

_geom_special_details            
; 
 All esds (except the esd in the dihedral angle between two l.s. planes) 
 are estimated using the full covariance matrix.  The cell esds are taken 
 into account individually in the estimation of esds in distances, angles 
 and torsion angles; correlations between esds in cell parameters are only 
 used when they are defined by crystal symmetry.  An approximate (isotropic) 
 treatment of cell esds is used for estimating esds involving l.s. planes. 
;

loop_
_geom_bond_atom_site_label_1
_geom_bond_atom_site_label_2
_geom_bond_distance
_geom_bond_site_symmetry_2
_geom_bond_publ_flag
Cd1 O10 2.186(5) . ?
Cd1 O5 2.243(5) 8_454 ?
Cd1 N1 2.266(7) . ?
Cd1 O7 2.442(5) 1_554 ?
Cd1 O11 2.450(7) . ?
Cd1 O8 2.499(5) 1_554 ?
Cd2 O9 2.248(5) 1_556 ?
Cd2 O9 2.248(5) 7_557 ?
Cd2 O7 2.276(5) 7_558 ?
Cd2 O7 2.276(5) . ?
Cd2 O6 2.293(5) 2_658 ?
Cd2 O6 2.293(5) 8_455 ?
N1 C27 1.293(10) . ?
N1 C28 1.385(12) . ?
N2 C27 1.368(10) . ?
N2 C30 1.404(11) . ?
N2 C29 1.418(12) . ?
N4 C34 1.243(17) 6 ?
N4 C34 1.243(17) . ?
N4 C32 1.377(19) . ?
N5 C38 1.318(15) . ?
N5 C39 1.400(19) . ?
N5 C40 1.70(3) . ?
N6 C41 1.281(13) . ?
N6 C42 1.423(16) 