####################################################################### 
# 
# This file contains crystal structure data downloaded from the 
# Cambridge Structural Database (CSD) hosted by the Cambridge 
# Crystallographic Data Centre (CCDC).
# 
# Full information about CCDC data access policies and citation 
# guidelines are available at http://www.ccdc.cam.ac.uk/access/V1 
# 
# Audit and citation data items may have been added by the CCDC. 
# Please retain this information to preserve the provenance of 
# this file and to allow appropriate attribution of the data. 
# 
#######################################################################

data_mof1_sq
_audit_block_doi                 10.5517/cc14hyvf
_database_code_depnum_ccdc_archive 'CCDC 1058025'
loop_
_citation_id
_citation_doi
_citation_year
1 10.1039/C5DT01682G 2015
_audit_update_record             
;
2015-06-08 deposited with the CCDC.	2024-07-10 downloaded from the CCDC.
;
_audit_creation_date             2015-06-07
_audit_creation_method           
;
Olex2 1.2
(compiled 2015.01.26 svn.r3150 for OlexSys, GUI svn.r4998)
;
_shelxl_version_number           2014/6
_chemical_name_common            ?
_chemical_name_systematic        ?
_chemical_formula_moiety         'C86 H110 Cd2 N8 O15 Ti2'
_chemical_formula_sum            'C86 H110 Cd2 N8 O15 Ti2'
_chemical_formula_weight         1816.41
_chemical_absolute_configuration rmad
_chemical_melting_point          ?
loop_
_atom_type_symbol
_atom_type_description
_atom_type_scat_dispersion_real
_atom_type_scat_dispersion_imag
_atom_type_scat_source
C C 0.0181 0.0091 'International Tables Vol C Tables 4.2.6.8 and 6.1.1.4'
H H 0.0000 0.0000 'International Tables Vol C Tables 4.2.6.8 and 6.1.1.4'
Cd Cd 0.1185 4.6533 'International Tables Vol C Tables 4.2.6.8 and 6.1.1.4'
N N 0.0311 0.0180 'International Tables Vol C Tables 4.2.6.8 and 6.1.1.4'
O O 0.0492 0.0322 'International Tables Vol C Tables 4.2.6.8 and 6.1.1.4'
Ti Ti 0.2191 1.8069 'International Tables Vol C Tables 4.2.6.8 and 6.1.1.4'

_shelx_space_group_comment       
;
The symmetry employed for this shelxl refinement is uniquely defined
by the following loop, which should always be used as a source of
symmetry information in preference to the above space-group names.
They are only intended as comments.
;
_space_group_crystal_system      orthorhombic
_space_group_IT_number           19
_space_group_name_H-M_alt        'P 21 21 21'
_space_group_name_Hall           'P 2ac 2ab'
loop_
_space_group_symop_operation_xyz
'x, y, z'
'-x+1/2, -y, z+1/2'
'x+1/2, -y+1/2, -z'
'-x, y+1/2, -z+1/2'

_cell_length_a                   13.9325(12)
_cell_length_b                   26.873(2)
_cell_length_c                   27.147(2)
_cell_angle_alpha                90
_cell_angle_beta                 90
_cell_angle_gamma                90
_cell_volume                     10164.2(15)
_cell_formula_units_Z            4
_cell_measurement_reflns_used    ?
_cell_measurement_temperature    173(2)
_cell_measurement_theta_max      ?
_cell_measurement_theta_min      ?
_shelx_estimated_absorpt_T_max   0.863
_shelx_estimated_absorpt_T_min   0.751
_exptl_absorpt_coefficient_mu    5.059
_exptl_absorpt_correction_T_max  ?
_exptl_absorpt_correction_T_min  ?
_exptl_absorpt_correction_type   ?
_exptl_absorpt_process_details   ?
_exptl_absorpt_special_details   ?
_exptl_crystal_colour            yellow
_exptl_crystal_density_diffrn    1.187
_exptl_crystal_density_meas      ?
_exptl_crystal_density_method    ?
_exptl_crystal_description       block
_exptl_crystal_F_000             3768
_exptl_crystal_size_max          0.06
_exptl_crystal_size_mid          0.04
_exptl_crystal_size_min          0.03
_exptl_transmission_factor_max   ?
_exptl_transmission_factor_min   ?
_diffrn_reflns_av_R_equivalents  0.0812
_diffrn_reflns_av_unetI/netI     0.1172
_diffrn_reflns_Laue_measured_fraction_full 0.822
_diffrn_reflns_Laue_measured_fraction_max 0.841
_diffrn_reflns_limit_h_max       16
_diffrn_reflns_limit_h_min       -13
_diffrn_reflns_limit_k_max       31
_diffrn_reflns_limit_k_min       -31
_diffrn_reflns_limit_l_max       23
_diffrn_reflns_limit_l_min       -32
_diffrn_reflns_number            28745
_diffrn_reflns_point_group_measured_fraction_full 0.747
_diffrn_reflns_point_group_measured_fraction_max 0.765
_diffrn_reflns_theta_full        67.679
_diffrn_reflns_theta_max         66.593
_diffrn_reflns_theta_min         3.256
_diffrn_ambient_temperature      173.15
_diffrn_detector_area_resol_mean ?
_diffrn_measured_fraction_theta_full 0.822
_diffrn_measured_fraction_theta_max 0.841
_diffrn_measurement_device_type  'Bruker SMART CCD area-detector'
_diffrn_measurement_method       ?
_diffrn_radiation_type           CuK\a
_diffrn_radiation_wavelength     1.54178
_diffrn_source                   ?
_reflns_Friedel_coverage         0.670
_reflns_Friedel_fraction_full    0.658
_reflns_Friedel_fraction_max     0.675
_reflns_number_gt                9509
_reflns_number_total             13756
_reflns_special_details          
;
 Reflections were merged by SHELXL according to the crystal
 class for the calculation of statistics and refinement.
 
 Structure factors included contributions from the .fab file.
 
 _reflns_Friedel_fraction is defined as the number of unique
 Friedel pairs measured divided by the number that would be
 possible theoretically, ignoring centric projections and
 systematic absences.
;
_reflns_threshold_expression     'I > 2\s(I)'
_computing_cell_refinement       ?
_computing_data_collection       ?
_computing_data_reduction        ?
_computing_molecular_graphics    'Olex2 (Dolomanov et al., 2009)'
_computing_publication_material  'Olex2 (Dolomanov et al., 2009)'
_computing_structure_refinement  'XL (Sheldrick, 2008)'
_computing_structure_solution    ?
_refine_diff_density_max         0.560
_refine_diff_density_min         -0.566
_refine_diff_density_rms         0.062
_refine_ls_abs_structure_details 
;
 Flack x determined using 2773 quotients [(I+)-(I-)]/[(I+)+(I-)]
 (Parsons, Flack and Wagner, Acta Cryst. B69 (2013) 249-259).
;
_refine_ls_abs_structure_Flack   0.025(6)
_refine_ls_extinction_coef       .
_refine_ls_extinction_method     none
_refine_ls_goodness_of_fit_ref   0.893
_refine_ls_hydrogen_treatment    constr
_refine_ls_matrix_type           full
_refine_ls_number_parameters     988
_refine_ls_number_reflns         13756
_refine_ls_number_restraints     17
_refine_ls_R_factor_all          0.0770
_refine_ls_R_factor_gt           0.0511
_refine_ls_restrained_S_all      0.895
_refine_ls_shift/su_max          0.001
_refine_ls_shift/su_mean         0.000
_refine_ls_structure_factor_coef Fsqd
_refine_ls_weighting_details     
'w=1/[\s^2^(Fo^2^)+(0.0294P)^2^] where P=(Fo^2^+2Fc^2^)/3'
_refine_ls_weighting_scheme      calc
_refine_ls_wR_factor_gt          0.1166
_refine_ls_wR_factor_ref         0.1307
_refine_special_details          ?
_olex2_refinement_description    
;
1. Fixed Uiso
 At 1.2 times of:
  All C(H) groups, All C(H,H) groups, All N(H) groups
 At 1.5 times of:
  All C(H,H,H) groups
2. Restrained distances
 C83-C84
 1.51 with sigma of 0.02
3. Rigid bond restraints
 O12, C83
 with sigma for 1-2 distances of 0.01 and sigma for 1-3 distances of 0.01
4. Uiso/Uaniso restraints and constraints
C83 \\sim C84: within 1.7A with sigma of 0.04 and sigma for terminal atoms of
0.08
O12 \\sim C83: within 1.7A with sigma of 0.01 and sigma for terminal atoms of
0.08
5. Rigid body (RIGU) restrains
 C83, C84
 with sigma for 1-2 distances of 0.004 and sigma for 1-3 distances of 0.004
6.a Ternary CH refined with riding coordinates:
 N1(H1), N2(H2), N5(H5), N6(H6), C1(H1A), C2(H2A), C39(H39), C40(H40)
6.b Secondary CH2 refined with riding coordinates:
 C3(H3A,H3B), C4(H4A,H4B), C5(H5A,H5B), C6(H6A,H6B), C7(H7A,H7B), C23(H23A,
 H23B), C41(H41A,H41B), C42(H42A,H42B), C43(H43A,H43B), C44(H44A,H44B),
 C45(H45A,H45B), C61(H61A,H61B)
6.c Aromatic/amide H refined with riding coordinates:
 C11(H11), C9(H9), C19(H19), C20(H20), C21(H21), C22(H22), C27(H27), C25(H25),
 C35(H35), C36(H36), C37(H37), C38(H38), C47(H47), C50(H50), C57(H57), C58(H58),
  C59(H59), C60(H60), C65(H65), C63(H63), C76(H76), C75(H75), C74(H74), C73(H73)
6.d Fitted hexagon refined as free rotating group:
 C13(C12,C11,C10,C9,C8), C24(C29,C28,C27,C26,C25), C48(C47,C46,C51,C49,C50),
 C62(C67,C66,C65,C64,C63)
6.e Idealised Me refined as rotating group:
 C77(H77A,H77B,H77C), C78(H78A,H78B,H78C), C15(H15A,H15B,H15C), C16(H16A,H16B,
 H16C), C17(H17A,H17B,H17C), C31(H31A,H31B,H31C), C32(H32A,H32B,H32C), C33(H33A,
 H33B,H33C), C53(H53A,H53B,H53C), C54(H54A,H54B,H54C), C55(H55A,H55B,H55C),
 C71(H71A,H71B,H71C), C70(H70A,H70B,H70C), C69(H69A,H69B,H69C), C80(H80A,H80B,
 H80C), C82(H82A,H82B,H82C), C84(H84A,H84B,H84C), C86(H86A,H86B,H86C)
;
_atom_sites_solution_hydrogens   geom
_atom_sites_solution_primary     ?
_atom_sites_solution_secondary   ?
loop_
_atom_site_label
_atom_site_type_symbol
_atom_site_fract_x
_atom_site_fract_y
_atom_site_fract_z
_atom_site_U_iso_or_equiv
_atom_site_adp_type
_atom_site_occupancy
_atom_site_site_symmetry_order
_atom_site_calc_flag
_atom_site_refinement_flags_posn
_atom_site_refinement_flags_adp
_atom_site_refinement_flags_occupancy
_atom_site_disorder_assembly
_atom_site_disorder_group
Cd1 Cd 1.30793(7) 0.62932(3) 1.04194(3) 0.0686(2) Uani 1 1 d . . . . .
Cd2 Cd -0.09235(7) 0.78380(3) 0.86201(3) 0.0749(3) Uani 1 1 d . . . . .
Ti1 Ti 0.68726(14) 0.44401(5) 0.78086(6) 0.0489(4) Uani 1 1 d . . . . .
Ti2 Ti 0.55557(13) 0.52149(5) 0.69699(5) 0.0468(4) Uani 1 1 d . . . . .
O2 O 0.6632(5) 0.37657(19) 0.7681(2) 0.0533(15) Uani 1 1 d . . . . .
O1 O 0.7768(6) 0.4287(2) 0.8325(2) 0.0618(19) Uani 1 1 d . . . . .
O3 O 0.5953(5) 0.5100(2) 0.6318(2) 0.0539(15) Uani 1 1 d . . . . .
O4 O 0.4591(5) 0.5716(2) 0.6799(2) 0.0534(16) Uani 1 1 d . . . . .
O5 O 0.6220(5) 0.4727(2) 0.7286(2) 0.0525(15) Uani 1 1 d . . . . .
O6 O 0.5897(6) 0.4604(2) 0.8250(2) 0.0597(17) Uani 1 1 d . . . . .
O7 O 0.6431(5) 0.5697(2) 0.7169(3) 0.0606(17) Uani 1 1 d . . . . .
O8 O 1.3530(9) 0.5535(4) 1.0758(5) 0.109(4) Uani 1 1 d . . . . .
O9 O 1.4049(9) 0.5674(4) 0.9999(5) 0.123(4) Uani 1 1 d . . . . .
O10 O -0.1320(10) 0.8005(6) 0.7830(4) 0.128(5) Uani 1 1 d . . . . .
O11 O -0.1873(13) 0.7298(5) 0.8076(4) 0.145(5) Uani 1 1 d . . . . .
O12 O 0.0242(10) 0.8505(4) 0.8667(6) 0.146(5) Uani 1 1 d . U . . .
O13 O -0.0421(8) 0.8337(3) 0.9308(6) 0.122(4) Uani 1 1 d . . . . .
O14 O -0.2325(7) 0.8253(3) 0.8895(3) 0.087(3) Uani 1 1 d . . . . .
O15 O -0.3555(9) 0.8214(5) 0.9350(4) 0.133(4) Uani 1 1 d . . . . .
N1 N 0.7683(6) 0.5145(3) 0.7837(3) 0.0555(19) Uani 1 1 d . . . . .
H1 H 0.7312 0.5392 0.7638 0.067 Uiso 1 1 calc R . . . .
N2 N 0.8089(6) 0.4311(2) 0.7272(3) 0.0530(18) Uani 1 1 d . . . . .
H2 H 0.8566 0.4086 0.7434 0.064 Uiso 1 1 calc R . . . .
N3 N 0.6825(8) 0.1838(3) 0.5223(3) 0.070(3) Uani 1 1 d . . . . .
N4 N 1.1875(8) 0.5842(3) 1.0016(4) 0.074(3) Uani 1 1 d . . . . .
N5 N 0.4449(6) 0.4624(3) 0.6773(3) 0.0529(18) Uani 1 1 d . . . . .
H5 H 0.4004 0.4773 0.6524 0.064 Uiso 1 1 calc R . . . .
N6 N 0.4616(6) 0.5170(3) 0.7627(3) 0.057(2) Uani 1 1 d . . . . .
H6 H 0.4949 0.4958 0.7877 0.068 Uiso 1 1 calc R . . . .
N7 N 0.6109(9) 0.2775(3) 0.4220(3) 0.075(3) Uani 1 1 d . . . . .
N8 N 0.0400(8) 0.7397(3) 0.8295(4) 0.077(3) Uani 1 1 d . . . . .
C1 C 0.8625(9) 0.5102(3) 0.7607(4) 0.065(3) Uani 1 1 d . . . . .
H1A H 0.9052 0.4927 0.7847 0.078 Uiso 1 1 calc R . . . .
C77 C 0.5762(12) 0.4506(6) 0.8746(4) 0.102(5) Uani 1 1 d . . . . .
H77A H 0.6281 0.4659 0.8937 0.152 Uiso 1 1 calc GR . . . .
H77B H 0.5765 0.4145 0.8801 0.152 Uiso 1 1 calc GR . . . .
H77C H 0.5144 0.4644 0.8852 0.152 Uiso 1 1 calc GR . . . .
C2 C 0.8589(7) 0.4792(3) 0.7152(4) 0.058(2) Uani 1 1 d . . . . .
H2A H 0.8184 0.4972 0.6906 0.070 Uiso 1 1 calc R . . . .
C3 C 0.9620(9) 0.4716(5) 0.6915(5) 0.085(4) Uani 1 1 d . . . . .
H3A H 1.0038 0.4541 0.7153 0.102 Uiso 1 1 calc R . . . .
H3B H 0.9560 0.4503 0.6618 0.102 Uiso 1 1 calc R . . . .
C4 C 1.0087(12) 0.5207(6) 0.6771(6) 0.110(5) Uani 1 1 d . . . . .
H4A H 0.9713 0.5374 0.6509 0.132 Uiso 1 1 calc R . . . .
H4B H 1.0749 0.5152 0.6651 0.132 Uiso 1 1 calc R . . . .
C5 C 1.0092(11) 0.5530(6) 0.7254(7) 0.106(5) Uani 1 1 d . . . . .
H5A H 1.0518 0.5368 0.7498 0.128 Uiso 1 1 calc R . . . .
H5B H 1.0373 0.5860 0.7176 0.128 Uiso 1 1 calc R . . . .
C6 C 0.9095(10) 0.5612(4) 0.7495(6) 0.091(4) Uani 1 1 d . . . . .
H6A H 0.9168 0.5804 0.7804 0.109 Uiso 1 1 calc R . . . .
H6B H 0.8679 0.5805 0.7269 0.109 Uiso 1 1 calc R . . . .
C7 C 0.7757(8) 0.4063(3) 0.6811(4) 0.059(3) Uani 1 1 d . . . . .
H7A H 0.8323 0.3998 0.6601 0.071 Uiso 1 1 calc R . . . .
H7B H 0.7335 0.4297 0.6631 0.071 Uiso 1 1 calc R . . . .
C78 C 0.6495(11) 0.6208(4) 0.7065(8) 0.119(7) Uani 1 1 d . . . . .
H78A H 0.6705 0.6388 0.7360 0.178 Uiso 1 1 calc GR . . . .
H78B H 0.5865 0.6333 0.6962 0.178 Uiso 1 1 calc GR . . . .
H78C H 0.6961 0.6262 0.6799 0.178 Uiso 1 1 calc GR . . . .
C13 C 0.6678(5) 0.34471(16) 0.73025(17) 0.051(2) Uani 1 1 d . . . . .
C12 C 0.6174(4) 0.30010(18) 0.73205(17) 0.051(2) Uani 1 1 d G . . . .
C11 C 0.6200(4) 0.26769(15) 0.6922(2) 0.057(2) Uani 1 1 d G . . . .
H11 H 0.5856 0.2372 0.6934 0.069 Uiso 1 1 calc R . . . .
C10 C 0.6729(5) 0.27989(18) 0.65048(17) 0.058(2) Uani 1 1 d G . . . .
C9 C 0.7233(5) 0.3245(2) 0.64868(18) 0.063(3) Uani 1 1 d G . . . .
H9 H 0.7595 0.3328 0.6202 0.076 Uiso 1 1 calc R . . . .
C8 C 0.7208(4) 0.35690(16) 0.6886(2) 0.054(2) Uani 1 1 d G . . . .
C14 C 0.5558(9) 0.2863(3) 0.7775(4) 0.063(3) Uani 1 1 d . . . . .
C15 C 0.4752(9) 0.3251(4) 0.7856(5) 0.073(3) Uani 1 1 d . . . . .
H15A H 0.5038 0.3573 0.7944 0.110 Uiso 1 1 calc GR . . . .
H15B H 0.4331 0.3139 0.8123 0.110 Uiso 1 1 calc GR . . . .
H15C H 0.4378 0.3287 0.7552 0.110 Uiso 1 1 calc GR . . . .
C16 C 0.6196(9) 0.2843(4) 0.8242(4) 0.074(3) Uani 1 1 d . . . . .
H16A H 0.6603 0.2546 0.8229 0.112 Uiso 1 1 calc GR . . . .
H16B H 0.5787 0.2829 0.8535 0.112 Uiso 1 1 calc GR . . . .
H16C H 0.6600 0.3141 0.8256 0.112 Uiso 1 1 calc GR . . . .
C17 C 0.5022(9) 0.2351(3) 0.7724(4) 0.072(3) Uani 1 1 d . . . . .
H17A H 0.4449 0.2394 0.7519 0.108 Uiso 1 1 calc GR . . . .
H17B H 0.4831 0.2233 0.8052 0.108 Uiso 1 1 calc GR . . . .
H17C H 0.5450 0.2107 0.7571 0.108 Uiso 1 1 calc GR . . . .
C18 C 0.6769(8) 0.2468(3) 0.6062(4) 0.058(2) Uani 1 1 d . . . . .
C19 C 0.7421(10) 0.2510(4) 0.5700(5) 0.083(4) Uani 1 1 d . . . . .
H19 H 0.7904 0.2757 0.5733 0.100 Uiso 1 1 calc R . . . .
C20 C 0.7432(10) 0.2222(4) 0.5296(5) 0.085(4) Uani 1 1 d . . . . .
H20 H 0.7892 0.2293 0.5047 0.102 Uiso 1 1 calc R . . . .
C21 C 0.6146(11) 0.1791(5) 0.5585(6) 0.097(4) Uani 1 1 d . . . . .
H21 H 0.5667 0.1543 0.5546 0.116 Uiso 1 1 calc R . . . .
C22 C 0.6120(11) 0.2078(4) 0.5994(5) 0.090(4) Uani 1 1 d . . . . .
H22 H 0.5651 0.2014 0.6240 0.108 Uiso 1 1 calc R . . . .
C23 C 0.7699(8) 0.5332(3) 0.8339(4) 0.058(3) Uani 1 1 d . . . . .
H23A H 0.7052 0.5302 0.8488 0.070 Uiso 1 1 calc R . . . .
H23B H 0.7885 0.5687 0.8341 0.070 Uiso 1 1 calc R . . . .
C24 C 0.8416(5) 0.50312(17) 0.8637(2) 0.058(3) Uani 1 1 d . . . . .
C29 C 0.8404(5) 0.45141(18) 0.8628(2) 0.060(3) Uani 1 1 d G . . . .
C28 C 0.9076(5) 0.42463(13) 0.8898(2) 0.065(3) Uani 1 1 d G . . . .
C27 C 0.9761(5) 0.44957(19) 0.9177(2) 0.069(3) Uani 1 1 d G . . . .
H27 H 1.0221 0.4313 0.9361 0.083 Uiso 1 1 calc R . . . .
C26 C 0.9773(5) 0.5013(2) 0.9186(2) 0.064(3) Uani 1 1 d G . . . .
C25 C 0.9100(5) 0.52806(13) 0.8916(2) 0.061(3) Uani 1 1 d G . . . .
H25 H 0.9109 0.5634 0.8922 0.073 Uiso 1 1 calc R . . . .
C30 C 0.9119(13) 0.3659(4) 0.8875(5) 0.095(5) Uani 1 1 d . . . . .
C31 C 0.9249(15) 0.3485(4) 0.8333(6) 0.128(7) Uani 1 1 d . . . . .
H31A H 0.8631 0.3502 0.8162 0.192 Uiso 1 1 calc GR . . . .
H31B H 0.9487 0.3142 0.8328 0.192 Uiso 1 1 calc GR . . . .
H31C H 0.9712 0.3703 0.8167 0.192 Uiso 1 1 calc GR . . . .
C32 C 0.8187(15) 0.3472(4) 0.9075(6) 0.117(6) Uani 1 1 d . . . . .
H32A H 0.8143 0.3553 0.9426 0.175 Uiso 1 1 calc GR . . . .
H32B H 0.8151 0.3111 0.9031 0.175 Uiso 1 1 calc GR . . . .
H32C H 0.7656 0.3631 0.8897 0.175 Uiso 1 1 calc GR . . . .
C33 C 0.9992(16) 0.3457(6) 0.9131(10) 0.175(12) Uani 1 1 d . . . . .
H33A H 1.0538 0.3679 0.9071 0.262 Uiso 1 1 calc GR . . . .
H33B H 1.0138 0.3125 0.9002 0.262 Uiso 1 1 calc GR . . . .
H33