
#######################################################################
#
#                 Cambridge Crystallographic Data Centre
#                                CCDC
#
#######################################################################
#
# If this CIF has been generated from an entry in the Cambridge
# Structural Database, then it will include bibliographic, chemical,
# crystal, experimental, refinement or atomic coordinate data resulting
# from the CCDC's data processing and validation procedures.
#
#######################################################################

data_CSD_CIF_HUJLUT
_audit_creation_date 2003-02-11
_audit_creation_method CSD-ConQuest-V1
_database_code_CSD HUJLUT
_database_code_depnum_ccdc_archive 'CCDC 178855'
_chemical_formula_sum 'C2 H6 Cu1 O2'
_chemical_formula_moiety
;
(C2 H6 Cu1 O2)n
;
_journal_coden_Cambridge 580
_journal_volume 21
_journal_year 2002
_journal_page_first 2017
_journal_name_full 'Polyhedron '
loop_
_publ_author_name
"K.J.Nelson"
"I.A.Guzei"
"G.S.Lund"
"R.W.McGaff"
_chemical_name_systematic
;
catena-(bis(\m~2~-Methoxo)-copper(ii))
;
_chemical_name_common
;
Teaching Subset: Fundamental Chemistry
;
_cell_volume    393.706
_exptl_crystal_colour 'dark purple'
_exptl_crystal_density_diffrn 2.119
_exptl_crystal_description 'block'
_exptl_crystal_preparation 'from the melt'
_diffrn_ambient_temperature 173
#These two values have been output from a single CSD field.
_refine_ls_R_factor_gt 0.0204
_refine_ls_wR_factor_gt 0.0204
_symmetry_cell_setting tetragonal
_symmetry_space_group_name_H-M 'P 42/m b c'
_symmetry_Int_Tables_number 135
loop_
_symmetry_equiv_pos_site_id
_symmetry_equiv_pos_as_xyz
1 x,y,z
2 -y,x,1/2+z
3 y,-x,1/2+z
4 1/2+y,1/2+x,1/2-z
5 -x,-y,z
6 1/2-x,1/2+y,-z
7 1/2+x,1/2-y,-z
8 1/2-y,1/2-x,1/2-z
9 -x,-y,-z
10 y,-x,-1/2-z
11 -y,x,-1/2-z
12 -1/2-y,-1/2-x,-1/2+z
13 x,y,-z
14 -1/2+x,-1/2-y,z
15 -1/2-x,-1/2+y,z
16 -1/2+y,-1/2+x,-1/2+z
_cell_length_a 8.1848(6)
_cell_length_b 8.1848(6)
_cell_length_c 5.8770(4)
_cell_angle_alpha 90
_cell_angle_beta 90
_cell_angle_gamma 90
_cell_formula_units_Z 4
loop_
_atom_type_symbol
_atom_type_radius_bond
C 0.68
H 0.23
Cu 1.20
O 0.68
loop_
_atom_site_label
_atom_site_type_symbol
_atom_site_fract_x
_atom_site_fract_y
_atom_site_fract_z
Cu1 Cu 1.00000 0.50000 0.25000
O1 O 0.8856(2) 0.5971(2) 0.50000
C1 C 0.7159(3) 0.6319(4) 0.50000
H1? H 0.69690 0.73770 0.57340
H2? H 0.65770 0.54630 0.58370
H3? H 0.67600 0.63580 0.34290
O1C O 1.0971(2) 0.3856(2) 0.00000
C1C C 1.1319(3) 0.2159(4) 0.00000
O1H O 1.1144(2) 0.4029(2) 0.50000
O1K O 0.9029(2) 0.6144(2) 0.00000
Cu1L Cu 1.00000 0.50000 0.75000
Cu1L* Cu 1.00000 0.50000 -0.25000
#END
