####################################################################### 
# 
# This file contains crystal structure data downloaded from the 
# Cambridge Structural Database (CSD) hosted by the Cambridge 
# Crystallographic Data Centre (CCDC).
# 
# Full information about CCDC data access policies and citation 
# guidelines are available at http://www.ccdc.cam.ac.uk/access/V1 
# 
# Audit and citation data items may have been added by the CCDC. 
# Please retain this information to preserve the provenance of 
# this file and to allow appropriate attribution of the data. 
# 
#######################################################################

data_a
_audit_block_doi                 10.5517/cc14bk45
_database_code_depnum_ccdc_archive 'CCDC 1052826'
loop_
_citation_id
_citation_doi
_citation_year
1 10.1002/asia.201500234 2015
_audit_update_record             
;
2015-03-09 deposited with the CCDC.	2024-07-10 downloaded from the CCDC.
;
_audit_creation_date             2014-12-23
_audit_creation_method           
;
Olex2 1.2
(compiled 2014.11.28 svn.r3106 for OlexSys, GUI svn.r4959)
;
_chemical_name_common            ?
_chemical_name_systematic        
;
 ? 
;
_chemical_formula_moiety         'C264 H288 B8 Cl3 Mn12 O48'
_chemical_formula_sum            'C264 H288 B8 Cl3 Mn12 O48'
_chemical_formula_weight         5081.05
_chemical_absolute_configuration ad
_chemical_melting_point          ?
loop_
_atom_type_symbol
_atom_type_description
_atom_type_scat_dispersion_real
_atom_type_scat_dispersion_imag
_atom_type_scat_source
C C 0.0033 0.0016 'International Tables Vol C Tables 4.2.6.8 and 6.1.1.4'
H H 0.0000 0.0000 'International Tables Vol C Tables 4.2.6.8 and 6.1.1.4'
B B 0.0013 0.0007 'International Tables Vol C Tables 4.2.6.8 and 6.1.1.4'
Cl Cl 0.1484 0.1585 'International Tables Vol C Tables 4.2.6.8 and 6.1.1.4'
Mn Mn 0.3368 0.7283 'International Tables Vol C Tables 4.2.6.8 and 6.1.1.4'
O O 0.0106 0.0060 'International Tables Vol C Tables 4.2.6.8 and 6.1.1.4'

_space_group_crystal_system      cubic
_space_group_IT_number           207
_space_group_name_H-M_alt        'P 4 3 2'
_space_group_name_Hall           'P 4 2 3'
loop_
_space_group_symop_id
_space_group_symop_operation_xyz
1 'x, y, z'
2 '-x, -y, z'
3 '-x, y, -z'
4 'x, -y, -z'
5 'z, x, y'
6 'z, -x, -y'
7 '-z, -x, y'
8 '-z, x, -y'
9 'y, z, x'
10 '-y, z, -x'
11 'y, -z, -x'
12 '-y, -z, x'
13 'y, x, -z'
14 '-y, -x, -z'
15 'y, -x, z'
16 '-y, x, z'
17 'x, z, -y'
18 '-x, z, y'
19 '-x, -z, -y'
20 'x, -z, y'
21 'z, y, -x'
22 'z, -y, x'
23 '-z, y, x'
24 '-z, -y, -x'

_cell_length_a                   23.461(11)
_cell_length_b                   23.461(11)
_cell_length_c                   23.461(11)
_cell_angle_alpha                90.00
_cell_angle_beta                 90.00
_cell_angle_gamma                90.00
_cell_volume                     12914(10)
_cell_formula_units_Z            1
_cell_measurement_reflns_used    ?
_cell_measurement_temperature    273(2)
_cell_measurement_theta_max      ?
_cell_measurement_theta_min      ?
_exptl_absorpt_coefficient_mu    0.334
_exptl_absorpt_correction_T_max  ?
_exptl_absorpt_correction_T_min  ?
_exptl_absorpt_correction_type   ?
_exptl_absorpt_process_details   ?
_exptl_crystal_colour            ?
_exptl_crystal_density_diffrn    0.653
_exptl_crystal_density_meas      .
_exptl_crystal_density_method    'not measured'
_exptl_crystal_description       block
_exptl_crystal_F_000             2647
_exptl_crystal_size_max          0.1
_exptl_crystal_size_mid          0.1
_exptl_crystal_size_min          0.1
_exptl_special_details           
;
 ? 
;
_diffrn_reflns_av_R_equivalents  0.2082
_diffrn_reflns_av_unetI/netI     0.0808
_diffrn_reflns_limit_h_max       27
_diffrn_reflns_limit_h_min       -26
_diffrn_reflns_limit_k_max       24
_diffrn_reflns_limit_k_min       -27
_diffrn_reflns_limit_l_max       27
_diffrn_reflns_limit_l_min       -25
_diffrn_reflns_number            62445
_diffrn_reflns_theta_full        24.99
_diffrn_reflns_theta_max         24.99
_diffrn_reflns_theta_min         0.87
_diffrn_ambient_temperature      273.15
_diffrn_detector_area_resol_mean ?
_diffrn_measured_fraction_theta_full 1.000
_diffrn_measured_fraction_theta_max 1.000
_diffrn_measurement_device_type  ?
_diffrn_measurement_method       ?
_diffrn_radiation_monochromator  graphite
_diffrn_radiation_type           MoK\a
_diffrn_radiation_wavelength     0.71073
_diffrn_source                   'fine-focus sealed tube'
_diffrn_standards_decay_%        ?
_diffrn_standards_interval_count ?
_diffrn_standards_interval_time  ?
_diffrn_standards_number         ?
_reflns_number_gt                2101
_reflns_number_total             3834
_reflns_threshold_expression     >2sigma(I)
_computing_cell_refinement       ?
_computing_data_collection       ?
_computing_data_reduction        ?
_computing_molecular_graphics    'Olex2 (Dolomanov et al., 2009)'
_computing_publication_material  'Olex2 (Dolomanov et al., 2009)'
_computing_structure_refinement  'XL (Sheldrick, 2008)'
_computing_structure_solution    'SHELXS-97 (Sheldrick, 1990)'
_refine_diff_density_max         0.910
_refine_diff_density_min         -1.651
_refine_diff_density_rms         0.270
_refine_ls_abs_structure_details 'Flack H D (1983), Acta Cryst. A39, 876-881'
_refine_ls_abs_structure_Flack   -0.11(8)
_refine_ls_extinction_coef       ?
_refine_ls_extinction_method     none
_refine_ls_goodness_of_fit_ref   1.088
_refine_ls_hydrogen_treatment    constr
_refine_ls_matrix_type           full
_refine_ls_number_parameters     132
_refine_ls_number_reflns         3834
_refine_ls_number_restraints     0
_refine_ls_R_factor_all          0.1750
_refine_ls_R_factor_gt           0.0869
_refine_ls_restrained_S_all      1.088
_refine_ls_shift/su_max          0.000
_refine_ls_shift/su_mean         0.000
_refine_ls_structure_factor_coef Fsqd
_refine_ls_weighting_details     
'calc w=1/[\s^2^(Fo^2^)+(0.1812P)^2^+0.0000P] where P=(Fo^2^+2Fc^2^)/3'
_refine_ls_weighting_scheme      calc
_refine_ls_wR_factor_gt          0.2415
_refine_ls_wR_factor_ref         0.3081
_refine_special_details          
;
 Refinement of F^2^ against ALL reflections.  The weighted R-factor wR and 
 goodness of fit S are based on F^2^, conventional R-factors R are based 
 on F, with F set to zero for negative F^2^. The threshold expression of 
 F^2^ > 2sigma(F^2^) is used only for calculating R-factors(gt) etc. and is 
 not relevant to the choice of reflections for refinement.  R-factors based 
 on F^2^ are statistically about twice as large as those based on F, and R- 
 factors based on ALL data will be even larger. 
;
_olex2_refinement_description    
;
1. Fixed Uiso
 At 1.5 times of:
  All C(H,H,H) groups
2.a Idealised Me refined as rotating group:
 C12(H12a,H12b,H12c), C7(H7a,H7b,H7c), C8(H8a,H8b,H8c), C11(H11a,H11b,H11c)
;
_atom_sites_solution_hydrogens   geom
_atom_sites_solution_primary     direct
_atom_sites_solution_secondary   difmap
loop_
_atom_site_label
_atom_site_type_symbol
_atom_site_fract_x
_atom_site_fract_y
_atom_site_fract_z
_atom_site_U_iso_or_equiv
_atom_site_adp_type
_atom_site_occupancy
_atom_site_calc_flag
_atom_site_disorder_assembly
_atom_site_disorder_group
_atom_site_site_symmetry_order
_atom_site_refinement_flags_posn
_atom_site_refinement_flags_adp
_atom_site_refinement_flags_occupancy
Mn1 Mn -0.40075(6) -0.5000 0.0000 0.0588(5) Uani 1 d . . 2 S T P
C1 C -0.3177(3) -0.3225(3) 0.2349(3) 0.0680(19) Uani 1 d . . 1 . . .
C4 C -0.3625(3) -0.3792(3) 0.1359(3) 0.072(2) Uani 1 d . . 1 . . .
B3 B -0.2906(4) -0.2906(4) 0.2906(4) 0.068(4) Uani 1 d . . 3 S T P
C9 C -0.3853(4) -0.4123(4) 0.0825(3) 0.085(3) Uani 1 d . . 1 . . .
C2 C -0.3302(4) -0.3834(3) 0.2368(3) 0.077(2) Uani 1 d . . 1 . . .
C5 C -0.3503(3) -0.3204(3) 0.1326(3) 0.077(2) Uani 1 d . . 1 . . .
C6 C -0.3276(4) -0.2907(3) 0.1820(3) 0.079(2) Uani 1 d . . 1 . . .
O2 O -0.4085(3) -0.4390(3) -0.0707(2) 0.119(3) Uani 1 d . . 1 . . .
C3 C -0.3536(4) -0.4123(3) 0.1867(3) 0.081(2) Uani 1 d . . 1 . . .
C12 C -0.3249(5) -0.4201(3) 0.2931(3) 0.110(4) Uani 1 d . . 1 . . .
H12A H -0.2859 -0.4312 0.2985 0.165 Uiso 1 calc . . 1 GR . .
H12B H -0.3484 -0.4534 0.2899 0.165 Uiso 1 calc . . 1 GR . .
H12C H -0.3372 -0.3977 0.3251 0.165 Uiso 1 calc . . 1 GR . .
C7 C -0.3129(5) -0.2269(4) 0.1773(4) 0.119(4) Uani 1 d . . 1 . . .
H7A H -0.3466 -0.2058 0.1676 0.179 Uiso 1 calc . . 1 GR . .
H7B H -0.2846 -0.2216 0.1482 0.179 Uiso 1 calc . . 1 GR . .
H7C H -0.2983 -0.2136 0.2131 0.179 Uiso 1 calc . . 1 GR . .
C8 C -0.3618(5) -0.2870(4) 0.0753(4) 0.124(4) Uani 1 d . . 1 . . .
H8A H -0.3268 -0.2831 0.0545 0.187 Uiso 1 calc . . 1 GR . .
H8B H -0.3767 -0.2499 0.0838 0.187 Uiso 1 calc . . 1 GR . .
H8C H -0.3889 -0.3077 0.0526 0.187 Uiso 1 calc . . 1 GR . .
C11 C -0.3699(5) -0.4760(4) 0.1895(4) 0.118(4) Uani 1 d . . 1 . . .
H11A H -0.3876 -0.4871 0.1543 0.177 Uiso 1 calc . . 1 GR . .
H11B H -0.3960 -0.4821 0.2204 0.177 Uiso 1 calc . . 1 GR . .
H11C H -0.3362 -0.4985 0.1955 0.177 Uiso 1 calc . . 1 GR . .
O1 O -0.3510(3) -0.4424(3) 0.0531(2) 0.0968(19) Uani 1 d . . 1 . . .
Cl1 Cl -0.5000 -0.5000 0.0000 0.271(9) Uani 1 d . . 8 S T P

loop_
_atom_site_aniso_label
_atom_site_aniso_U_11
_atom_site_aniso_U_22
_atom_site_aniso_U_33
_atom_site_aniso_U_23
_atom_site_aniso_U_13
_atom_site_aniso_U_12
Mn1 0.0776(10) 0.0582(8) 0.0406(7) -0.0065(8) 0.000 0.000
C1 0.081(6) 0.061(5) 0.062(4) -0.024(4) -0.037(4) 0.030(3)
C4 0.076(5) 0.088(6) 0.051(4) -0.019(4) -0.013(3) 0.003(4)
B3 0.068(4) 0.068(4) 0.068(4) -0.029(4) -0.029(4) 0.029(4)
C9 0.098(7) 0.112(7) 0.045(4) -0.005(4) -0.012(4) -0.042(6)
C2 0.105(6) 0.068(5) 0.058(4) -0.025(4) -0.034(4) 0.032(4)
C5 0.086(5) 0.088(6) 0.058(4) -0.009(4) -0.032(4) 0.015(4)
C6 0.095(6) 0.063(5) 0.081(5) -0.019(4) -0.038(5) 0.020(4)
O2 0.218(9) 0.096(5) 0.045(3) 0.018(3) 0.006(4) -0.053(5)
C3 0.111(6) 0.071(5) 0.061(5) -0.028(4) -0.033(4) 0.010(4)
C12 0.184(10) 0.066(5) 0.080(6) -0.019(4) -0.055(6) 0.034(6)
C7 0.188(11) 0.070(6) 0.100(7) -0.004(5) -0.047(7) 0.018(6)
C8 0.171(11) 0.116(8) 0.086(7) 0.000(6) -0.050(7) -0.005(7)
C11 0.195(11) 0.090(7) 0.070(6) -0.017(4) -0.036(6) -0.010(6)
O1 0.114(5) 0.111(5) 0.065(3) -0.040(3) 0.009(3) -0.029(4)
Cl1 0.159(6) 0.159(6) 0.49(3) 0.000 0.000 0.000

_geom_special_details            
;
 All esds (except the esd in the dihedral angle between two l.s. planes) 
 are estimated using the full covariance matrix.  The cell esds are taken 
 into account individually in the estimation of esds in distances, angles 
 and torsion angles; correlations between esds in cell parameters are only 
 used when they are defined by crystal symmetry.  An approximate (isotropic) 
 treatment of cell esds is used for estimating esds involving l.s. planes. 
;
loop_
_geom_bond_atom_site_label_1
_geom_bond_atom_site_label_2
_geom_bond_distance
_geom_bond_site_symmetry_2
_geom_bond_publ_flag
Mn1 O2 2.197(6) 4_545 ?
Mn1 O2 2.197(6) . ?
Mn1 O1 2.177(5) 4_545 ?
Mn1 O1 2.177(5) . ?
Mn1 Cl1 2.3284(17) . ?
C1 B3 1.634(5) . ?
C1 C2 1.459(10) . ?
C1 C6 1.467(10) . ?
C4 C9 1.567(10) . ?
C4 C5 1.412(11) . ?
C4 C3 1.439(11) . ?
B3 C1 1.634(5) 8 ?
B3 C1 1.634(5) 11 ?
C9 O2 1.294(10) 13 ?
C9 O1 1.274(11) . ?
C2 C3 1.463(9) . ?
C2 C12 1.581(11) . ?
C5 C6 1.453(10) . ?
C5 C8 1.580(11) . ?
C6 C7 1.539(12) . ?
O2 C9 1.294(10) 13 ?
C3 C11 1.544(12) . ?
Cl1 Mn1 2.3284(17) 14_445 ?
Cl1 Mn1 2.3284(17) 13 ?
Cl1 Mn1 2.3285(17) 2_445 ?

loop_
_geom_angle_atom_site_label_1
_geom_angle_atom_site_label_2
_geom_angle_atom_site_label_3
_geom_angle
_geom_angle_site_symmetry_1
_geom_angle_site_symmetry_3
_geom_angle_publ_flag
O2 Mn1 O2 170.5(4) . 4_545 ?
O2 Mn1 Cl1 85.3(2) . . ?
O2 Mn1 Cl1 85.3(2) 4_545 . ?
O1 Mn1 O2 94.1(2) 4_545 4_545 ?
O1 Mn1 O2 94.1(2) . . ?
O1 Mn1 O2 90.9(2) . 4_545 ?
O1 Mn1 O2 90.9(2) 4_545 . ?
O1 Mn1 O1 115.1(4) 4_545 . ?
O1 Mn1 Cl1 122.45(18) . . ?
O1 Mn1 Cl1 122.45(18) 4_545 . ?
C2 C1 B3 120.2(7) . . ?
C2 C1 C6 119.5(5) . . ?
C6 C1 B3 120.3(7) . . ?
C5 C4 C9 120.8(7) . . ?
C5 C4 C3 122.9(6) . . ?
C3 C4 C9 116.3(7) . . ?
C1 B3 C1 119.93(5) . 8 ?
C1 B3 C1 119.93(5) 8 11 ?
C1 B3 C1 119.93(5) . 11 ?
O2 C9 C4 118.0(8) 13 . ?
O1 C9 C4 119.5(7) . . ?
O1 C9 O2 122.6(7) . 13 ?
C1 C2 C3 120.4(7) . . ?
C1 C2 C12 122.8(6) . . ?
C3 C2 C12 116.6(7) . . ?
C4 C5 C6 120.0(7) . . ?
C4 C5 C8 119.7(7) . . ?
C6 C5 C8 120.3(7) . . ?
C1 C6 C7 121.3(7) . . ?
C5 C6 C1 119.3(6) . . ?
C5 C6 C7 119.4(7) . . ?
C9 O2 Mn1 143.3(5) 13 . ?
C4 C3 C2 118.0(7) . . ?
C4 C3 C11 121.4(6) . . ?
C2 C3 C11 120.5(7) . . ?
C9 O1 Mn1 108.3(5) . . ?
Mn1 Cl1 Mn1 180.0 . 2_445 ?
Mn1 Cl1 Mn1 90.0 . 13 ?
Mn1 Cl1 Mn1 90.0 14_445 2_445 ?
Mn1 Cl1 Mn1 180.0 14_445 13 ?
Mn1 Cl1 Mn1 90.0 13 2_445 ?
Mn1 Cl1 Mn1 90.0 14_445 . ?

_olex2_submission_special_instructions 'No special instructions were received'
_platon_squeeze_details          ?
# SQUEEZE RESULTS (APPEND TO CIF)
# Note: Data are Listed for all Voids in the P1 Unit Cell
# i.e. Centre of Gravity, Solvent Accessible Volume,
# Recovered number of Electrons in the Void and
# Details about the Squeezed Material
loop_
_platon_squeeze_void_nr
_platon_squeeze_void_average_x
_platon_squeeze_void_average_y
_platon_squeeze_void_average_z
_platon_squeeze_void_volume
_platon_squeeze_void_count_electrons
_platon_squeeze_void_content
1 -0.008 -0.003 -0.002 6655 2351 ' '
2 0.500 0.500 0.500 867 286 ' '

