####################################################################### 
# 
# This file contains crystal structure data downloaded from the 
# Cambridge Structural Database (CSD) hosted by the Cambridge 
# Crystallographic Data Centre (CCDC).
# 
# Full information about CCDC data access policies and citation 
# guidelines are available at http://www.ccdc.cam.ac.uk/access/V1 
# 
# Audit and citation data items may have been added by the CCDC. 
# Please retain this information to preserve the provenance of 
# this file and to allow appropriate attribution of the data. 
# 
#######################################################################

data_ZJU-31
_audit_block_doi                 10.5517/cc132scb
_database_code_depnum_ccdc_archive 'CCDC 1015571'
loop_
_citation_id
_citation_doi
_citation_year
1 10.1021/acs.cgd.5b00675 2015
_audit_update_record             
;
2014-07-23 deposited with the CCDC.	2024-07-10 downloaded from the CCDC.
;

_audit_creation_method           SHELXL-2013
_chemical_name_systematic        
;
 ?
;
_chemical_name_common            ?
_chemical_melting_point          ?
_chemical_formula_moiety         'C48 H22 Cu2 O12'
_chemical_formula_sum            'C48 H22 Cu2 O12'
_chemical_formula_weight         917.73

loop_
_atom_type_symbol
_atom_type_description
_atom_type_scat_dispersion_real
_atom_type_scat_dispersion_imag
_atom_type_scat_source
C C 0.0033 0.0016 'International Tables Vol C Tables 4.2.6.8 and 6.1.1.4'
H H 0.0000 0.0000 'International Tables Vol C Tables 4.2.6.8 and 6.1.1.4'
O O 0.0106 0.0060 'International Tables Vol C Tables 4.2.6.8 and 6.1.1.4'
Cu Cu 0.3201 1.2651 'International Tables Vol C Tables 4.2.6.8 and 6.1.1.4'

_space_group_crystal_system      tetragonal
_space_group_IT_number           139
_space_group_name_H-M_alt        'I 4/m m m'
_space_group_name_Hall           '-I 4 2'

_shelx_space_group_comment       
;
The symmetry employed for this shelxl refinement is uniquely defined
by the following loop, which should always be used as a source of
symmetry information in preference to the above space-group names.
They are only intended as comments.
;

loop_
_space_group_symop_operation_xyz
'x, y, z'
'-x, -y, z'
'-y, x, z'
'y, -x, z'
'-x, y, -z'
'x, -y, -z'
'y, x, -z'
'-y, -x, -z'
'x+1/2, y+1/2, z+1/2'
'-x+1/2, -y+1/2, z+1/2'
'-y+1/2, x+1/2, z+1/2'
'y+1/2, -x+1/2, z+1/2'
'-x+1/2, y+1/2, -z+1/2'
'x+1/2, -y+1/2, -z+1/2'
'y+1/2, x+1/2, -z+1/2'
'-y+1/2, -x+1/2, -z+1/2'
'-x, -y, -z'
'x, y, -z'
'y, -x, -z'
'-y, x, -z'
'x, -y, z'
'-x, y, z'
'-y, -x, z'
'y, x, z'
'-x+1/2, -y+1/2, -z+1/2'
'x+1/2, y+1/2, -z+1/2'
'y+1/2, -x+1/2, -z+1/2'
'-y+1/2, x+1/2, -z+1/2'
'x+1/2, -y+1/2, z+1/2'
'-x+1/2, y+1/2, z+1/2'
'-y+1/2, -x+1/2, z+1/2'
'y+1/2, x+1/2, z+1/2'

_cell_length_a                   39.580(4)
_cell_length_b                   39.580(4)
_cell_length_c                   27.445(5)
_cell_angle_alpha                90
_cell_angle_beta                 90
_cell_angle_gamma                90
_cell_volume                     42996(11)
_cell_formula_units_Z            8
_cell_measurement_temperature    296(2)
_cell_measurement_reflns_used    ?
_cell_measurement_theta_min      ?
_cell_measurement_theta_max      ?

_exptl_crystal_description       block
_exptl_crystal_colour            blue
_exptl_crystal_density_meas      ?
_exptl_crystal_density_method    ?
_exptl_crystal_density_diffrn    0.284
_exptl_crystal_F_000             3712
_exptl_transmission_factor_min   ?
_exptl_transmission_factor_max   ?
_exptl_crystal_size_max          0.350
_exptl_crystal_size_mid          0.220
_exptl_crystal_size_min          0.220
_exptl_absorpt_coefficient_mu    0.211
_shelx_estimated_absorpt_T_min   0.930
_shelx_estimated_absorpt_T_max   0.955
_exptl_absorpt_correction_type   none
_exptl_absorpt_correction_T_min  ?
_exptl_absorpt_correction_T_max  ?
_exptl_absorpt_process_details   ?

_exptl_special_details           
;
 ?
;

_diffrn_ambient_temperature      296(2)
_diffrn_radiation_wavelength     0.71073
_diffrn_radiation_type           MoK\a
_diffrn_source                   'sealed tube'
_diffrn_measurement_device_type  'Bruker APEX-II CCD'
_diffrn_measurement_method       '\f and \w scans'
_diffrn_detector_area_resol_mean ?
_diffrn_reflns_number            57257
_diffrn_reflns_av_unetI/netI     0.1323
_diffrn_reflns_av_R_equivalents  0.1722
_diffrn_reflns_limit_h_min       -47
_diffrn_reflns_limit_h_max       33
_diffrn_reflns_limit_k_min       -42
_diffrn_reflns_limit_k_max       46
_diffrn_reflns_limit_l_min       -32
_diffrn_reflns_limit_l_max       23
_diffrn_reflns_theta_min         0.728
_diffrn_reflns_theta_max         25.093
_diffrn_reflns_theta_full        25.242
_diffrn_measured_fraction_theta_max 0.992
_diffrn_measured_fraction_theta_full 0.979
_diffrn_reflns_Laue_measured_fraction_max 0.992
_diffrn_reflns_Laue_measured_fraction_full 0.979
_diffrn_reflns_point_group_measured_fraction_max 0.992
_diffrn_reflns_point_group_measured_fraction_full 0.979
_reflns_number_total             10255
_reflns_number_gt                4083
_reflns_threshold_expression     'I > 2\s(I)'
_reflns_Friedel_coverage         0.000
_reflns_Friedel_fraction_max     .
_reflns_Friedel_fraction_full    .

_reflns_special_details          
;
 Reflections were merged by SHELXL according to the crystal
 class for the calculation of statistics and refinement.
 
 Structure factors included contributions from the .fab file.
 
 _reflns_Friedel_fraction is defined as the number of unique
 Friedel pairs measured divided by the number that would be
 possible theoretically, ignoring centric projections and
 systematic absences.
;

_computing_data_collection       'Bruker APEX2'
_computing_cell_refinement       'Bruker SAINT'
_computing_data_reduction        'Bruker SAINT'
_computing_structure_solution    'SHELXL-2013 (Sheldrick, 2013)'
_computing_structure_refinement  'SHELXL-2013 (Sheldrick, 2013)'
_computing_molecular_graphics    ?
_computing_publication_material  ?

_refine_special_details          
;
 ?
;
_refine_ls_structure_factor_coef Fsqd
_refine_ls_matrix_type           full
_refine_ls_weighting_scheme      calc
_refine_ls_weighting_details     
'w=1/[\s^2^(Fo^2^)+(0.0806P)^2^] where P=(Fo^2^+2Fc^2^)/3'
_atom_sites_solution_primary     ?
_atom_sites_solution_secondary   ?
_atom_sites_solution_hydrogens   geom
_refine_ls_hydrogen_treatment    constr
_refine_ls_extinction_method     none
_refine_ls_extinction_coef       .
_refine_ls_number_reflns         10255
_refine_ls_number_parameters     158
_refine_ls_number_restraints     0
_refine_ls_R_factor_all          0.1715
_refine_ls_R_factor_gt           0.0528
_refine_ls_wR_factor_ref         0.1904
_refine_ls_wR_factor_gt          0.1411
_refine_ls_goodness_of_fit_ref   0.995
_refine_ls_restrained_S_all      0.995
_refine_ls_shift/su_max          0.001
_refine_ls_shift/su_mean         0.000

loop_
_atom_site_label
_atom_site_type_symbol
_atom_site_fract_x
_atom_site_fract_y
_atom_site_fract_z
_atom_site_U_iso_or_equiv
_atom_site_adp_type
_atom_site_occupancy
_atom_site_site_symmetry_order
_atom_site_calc_flag
_atom_site_refinement_flags_posn
_atom_site_refinement_flags_adp
_atom_site_refinement_flags_occupancy
_atom_site_disorder_assembly
_atom_site_disorder_group
Cu1 Cu 0.5000 0.79278(2) 0.0000 0.0493(3) Uani 1 4 d S T P . .
C8 C 0.35143(9) 0.85143(9) -0.2500 0.0820(17) Uani 1 2 d S T P . .
H8 H 0.3680 0.8680 -0.2500 0.098 Uiso 1 2 calc R U P . .
Cu2 Cu 0.5000 0.85973(2) 0.0000 0.0492(3) Uani 1 4 d S T P . .
O1 O 0.46540(5) 0.85475(6) -0.04989(7) 0.0608(6) Uani 1 1 d . . . . .
O2 O 0.46532(6) 0.79748(6) -0.04996(7) 0.0606(6) Uani 1 1 d . . . . .
O3 O 0.26484(16) 0.78219(17) -0.16289(19) 0.137(3) Uani 0.5 1 d . . P . .
O5 O 0.5000 0.73748(12) 0.0000 0.0864(16) Uani 1 4 d S T P . .
O6 O 0.5000 0.91469(11) 0.0000 0.0786(14) Uani 1 4 d S T P . .
C1 C 0.45488(8) 0.82593(11) -0.06434(11) 0.0576(9) Uani 1 1 d . . . . .
C2 C 0.42795(8) 0.82628(10) -0.10355(11) 0.0613(9) Uani 1 1 d . . . . .
C3 C 0.41560(9) 0.79607(9) -0.12160(12) 0.0748(12) Uani 1 1 d . . . . .
H3 H 0.4238 0.7756 -0.1101 0.090 Uiso 1 1 calc R U . . .
C4 C 0.39062(10) 0.79694(10) -0.15725(13) 0.0801(12) Uani 1 1 d . . . . .
H4 H 0.3819 0.7767 -0.1690 0.096 Uiso 1 1 calc R U . . .
C5 C 0.37849(9) 0.82673(10) -0.17557(12) 0.0715(11) Uani 1 1 d . . . . .
C6 C 0.39148(10) 0.85663(10) -0.15749(13) 0.0809(12) Uani 1 1 d . . . . .
H6 H 0.3837 0.8771 -0.1699 0.097 Uiso 1 1 calc R U . . .
C7 C 0.41541(9) 0.85673(9) -0.12178(12) 0.0712(11) Uani 1 1 d . . . . .
H7 H 0.4234 0.8771 -0.1095 0.085 Uiso 1 1 calc R U . . .
C9 C 0.35207(9) 0.82673(10) -0.21398(12) 0.0800(12) Uani 1 1 d . . . . .
C10 C 0.32698(10) 0.80208(10) -0.21405(12) 0.0874(13) Uani 1 1 d . . . . .
H10 H 0.3270 0.7856 -0.1899 0.105 Uiso 1 1 calc R U . . .
C11 C 0.30150(10) 0.80150(10) -0.2500 0.0857(18) Uani 1 2 d S T P . .
C12 C 0.27502(9) 0.77502(9) -0.2500 0.0816(18) Uani 1 2 d S T P . .
C13 C 0.25863(10) 0.76672(10) -0.20688(13) 0.1019(15) Uani 1 1 d . . . . .
C14 C 0.2450(3) 0.7731(3) -0.1204(3) 0.215(7) Uani 0.5 1 d . . P . .

loop_
_atom_site_aniso_label
_atom_site_aniso_U_11
_atom_site_aniso_U_22
_atom_site_aniso_U_33
_atom_site_aniso_U_23
_atom_site_aniso_U_13
_atom_site_aniso_U_12
Cu1 0.0510(6) 0.0601(6) 0.0369(4) 0.000 0.000 0.000
C8 0.081(3) 0.081(3) 0.084(4) 0.031(3) -0.031(3) -0.032(3)
Cu2 0.0463(5) 0.0589(6) 0.0424(4) 0.000 0.000 0.000
O1 0.0623(16) 0.0617(16) 0.0584(14) 0.0039(12) -0.0160(12) -0.0025(14)
O2 0.0641(17) 0.0627(16) 0.0549(13) 0.0064(12) -0.0148(12) -0.0035(14)
O3 0.161(6) 0.164(6) 0.085(4) 0.022(4) -0.047(4) -0.098(5)
O5 0.094(4) 0.086(4) 0.079(3) 0.000 0.000 0.000
O6 0.065(3) 0.077(4) 0.094(3) 0.000 0.000 0.000
C1 0.060(2) 0.071(3) 0.0421(18) 0.001(2) -0.0034(16) -0.005(2)
C2 0.059(2) 0.073(3) 0.051(2) 0.010(2) -0.0098(17) -0.009(2)
C3 0.089(3) 0.065(3) 0.070(2) 0.016(2) -0.034(2) -0.016(2)
C4 0.096(3) 0.071(3) 0.073(2) 0.014(2) -0.038(2) -0.028(2)
C5 0.077(3) 0.071(3) 0.066(2) 0.028(2) -0.030(2) -0.024(2)
C6 0.087(3) 0.070(3) 0.086(3) 0.029(2) -0.042(2) -0.013(2)
C7 0.074(3) 0.063(3) 0.076(2) 0.013(2) -0.026(2) -0.014(2)
C9 0.083(3) 0.079(3) 0.078(2) 0.032(2) -0.033(2) -0.034(3)
C10 0.099(3) 0.088(3) 0.076(2) 0.038(2) -0.041(2) -0.034(3)
C11 0.089(3) 0.089(3) 0.080(4) 0.036(3) -0.036(3) -0.030(4)
C12 0.088(3) 0.088(3) 0.070(4) 0.036(3) -0.036(3) -0.046(3)
C13 0.110(3) 0.111(4) 0.085(3) 0.043(3) -0.045(3) -0.047(3)
C14 0.266(14) 0.333(18) 0.044(4) -0.014(7) 0.039(6) -0.176(13)

_geom_special_details            
;
 All esds (except the esd in the dihedral angle between two l.s. planes)
 are estimated using the full covariance matrix.  The cell esds are taken
 into account individually in the estimation of esds in distances, angles
 and torsion angles; correlations between esds in cell parameters are only
 used when they are defined by crystal symmetry.  An approximate (isotropic)
 treatment of cell esds is used for estimating esds involving l.s. planes.
;

loop_
_geom_bond_atom_site_label_1
_geom_bond_atom_site_label_2
_geom_bond_distance
_geom_bond_site_symmetry_2
_geom_bond_publ_flag
Cu1 O2 1.949(2) 5_655 ?
Cu1 O2 1.949(2) 18 ?
Cu1 O2 1.949(2) 22_655 ?
Cu1 O2 1.949(2) . ?
Cu1 O5 2.189(5) . ?
Cu1 Cu2 2.6500(11) . ?
C8 C9 1.391(4) 15_454 ?
C8 C9 1.391(4) . ?
Cu2 O1 1.947(2) 5_655 ?
Cu2 O1 1.947(2) 22_655 ?
Cu2 O1 1.947(2) 18 ?
Cu2 O1 1.947(2) . ?
Cu2 O6 2.175(5) . ?
O1 C1 1.277(4) . ?
O2 C1 1.263(4) . ?
O3 C13 1.376(6) . ?
O3 C14 1.451(9) . ?
C1 C2 1.515(4) . ?
C2 C3 1.383(4) . ?
C2 C7 1.396(4) . ?
C3 C4 1.391(4) . ?
C4 C5 1.369(4) . ?
C5 C6 1.382(4) . ?
C5 C9 1.485(4) . ?
C6 C7 1.363(4) . ?
C9 C10 1.392(4) . ?
C10 C11 1.411(4) . ?
C11 C10 1.411(4) 15_454 ?
C11 C12 1.482(6) . ?
C12 C13 1.389(4) . ?
C12 C13 1.389(4) 15_454 ?
C13 C13 1.419(7) 23_665 ?
C14 C14 1.015(19) 23_665 ?

loop_
_geom_angle_atom_site_label_1
_geom_angle_atom_site_label_2
_geom_angle_atom_site_label_3
_geom_angle
_geom_angle_site_symmetry_1
_geom_angle_site_symmetry_3
_geom_angle_publ_flag
O2 Cu1 O2 89.54(13) 5_655 18 ?
O2 Cu1 O2 89.42(13) 5_655 22_655 ?
O2 Cu1 O2 169.05(14) 18 22_655 ?
O2 Cu1 O2 169.05(14) 5_655 . ?
O2 Cu1 O2 89.42(13) 18 . ?
O2 Cu1 O2 89.54(13) 22_655 . ?
O2 Cu1 O5 95.48(7) 5_655 . ?
O2 Cu1 O5 95.48(7) 18 . ?
O2 Cu1 O5 95.48(7) 22_655 . ?
O2 Cu1 O5 95.48(7) . . ?
O2 Cu1 Cu2 84.52(7) 5_655 . ?
O2 Cu1 Cu2 84.52(7) 18 . ?
O2 Cu1 Cu2 84.52(7) 22_655 . ?
O2 Cu1 Cu2 84.52(7) . . ?
O5 Cu1 Cu2 180.0 . . ?
C9 C8 C9 122.0(5) 15_454 . ?
O1 Cu2 O1 89.40(13) 5_655 22_655 ?
O1 Cu2 O1 89.42(13) 5_655 18 ?
O1 Cu2 O1 168.38(14) 22_655 18 ?
O1 Cu2 O1 168.37(14) 5_655 . ?
O1 Cu2 O1 89.43(13) 22_655 . ?
O1 Cu2 O1 89.40(13) 18 . ?
O1 Cu2 O6 95.81(7) 5_655 . ?
O1 Cu2 O6 95.81(7) 22_655 . ?
O1 Cu2 O6 95.81(7) 18 . ?
O1 Cu2 O6 95.82(7) . . ?
O1 Cu2 Cu1 84.19(7) 5_655 . ?
O1 Cu2 Cu1 84.19(7) 22_655 . ?
O1 Cu2 Cu1 84.19(7) 18 . ?
O1 Cu2 Cu1 84.19(7) . . ?
O6 Cu2 Cu1 180.0 . . ?
C1 O1 Cu2 122.6(2) . . ?
C1 O2 Cu1 122.4(2) . . ?
C13 O3 C14 119.9(6) . . ?
O2 C1 O1 126.4(3) . . ?
O2 C1 C2 117.4(3) . . ?
O1 C1 C2 116.2(3) . . ?
C3 C2 C7 119.5(3) . . ?
C3 C2 C1 119.7(3) . . ?
C7 C2 C1 120.8(3) . . ?
C2 C3 C4 118.8(3) . . ?
C5 C4 C3 121.9(3) . . ?
C4 C5 C6 118.4(3) . . ?
C4 C5 C9 120.5(4) . . ?
C6 C5 C9 121.1(3) . . ?
C7 C6 C5 121.3(3) . . ?
C6 C7 C2 120.1(3) . . ?
C8 C9 C10 118.6(3) . . ?
C8 C9 C5 121.1(3) . . ?
C10 C9 C5 120.2(3) . . ?
C9 C10 C11 121.5(4) . . ?
C10 C11 C10 117.7(5) . 15_454 ?
C10 C11 C12 121.1(2) . . ?
C10 C11 C12 121.1(2) 15_454 . ?
C13 C12 C13 120.3(5) . 15_454 ?
C13 C12 C11 119.8(2) . . ?
C13 C12 C11 119.8(2) 15_454 . ?
O3 C13 C12 124.0(4) . . ?
O3 C13 C13 116.2(3) . 23_665 ?
C12 C13 C13 119.8(2) . 23_665 ?
C14 C14 O3 123.9(4) 23_665 . ?

_refine_diff_density_max         0.401
_refine_diff_density_min         -0.449
_refine_diff_density_rms         0.034

_shelxl_version_number           2013-4

_shelx_res_file                  
;
TITL cjf in I4/mmm
CELL 0.71073  39.5804  39.5804  27.4455  90.000  90.000  90.000
ZERR  8   0.0036   0.0036   0.0051   0.000   0.000   0.000
LATT  2
SYMM -X, -Y, Z
SYMM -Y, X, Z
SYMM Y, -X, Z
SYMM -X, Y, -Z
SYMM X, -Y, -Z
SYMM Y, X, -Z
SYMM -Y, -X, -Z
SFAC C H O Cu

UNIT 384 176 96 16
LIST 6 ! automatically inserted. Change 6 to 4 for CHECKCIF!!
TEMP 23.000
Size 0.35 0.22 0.22
L.S. 5 0  354
BOND
FMAP 2
PLAN 20
ACTA

ABIN
WGHT    0.080600
FVAR       0.12051
CU1   4    0.500000    0.792778    0.000000    10.25000    0.05095    0.06009 =
         0.03694    0.00000    0.00000    0.00000
C8    1    0.351434    0.851434   -0.250000    10.50000    0.08116    0.08116 =
         0.08369    0.03120   -0.03120   -0.03249
AFIX  43
H8    2    0.368048    0.868048   -0.249998    10.50000   -1.20000
AFIX   0
CU2   4    0.500000    0.859732    0.000000    10.25000    0.04634    0.05895 =
         0.04235    0.00000    0.00000    0.00000
O1    3    0.465398    0.854749   -0.049887    11.00000    0.06229    0.06172 =
         0.05840    0.00393   -0.01600   -0.00252
O2    3    0.465322    0.797478   -0.049960    11.00000    0.06415    0.06272 =
         0.05489    0.00643   -0.01480   -0.00350
O3    3    0.264840    0.782187   -0.162892    10.50000    0.16096    0.16387 =
         0.08490    0.02226   -0.04725   -0.09834
O5    3    0.500000    0.737485    0.000000    10.25000    0.09371    0.08633 =
         0.07920    0.00000    0.00000    0.00000
O6    3    0.500000    0.914689    0.000000    10.25000    0.06454    0.07714 =
         0.09409    0.00000    0.00000    0.00000
C1    1    0.454883    0.825930   -0.064335    11.00000    0.05979    0.07073 =
         0.04214    0.00112   -0.00343   -0.00546
C2    1    0.427948    0.826278   -0.103551    11.00000    0.05938    0.07310 =
         0.05139    0.00991   -0.00977   -0.00940
C3    1    0.415595    0.796073   -0.121599    11.00000    0.08888    0.06519 =
         0.07046    0.01649   -0.03441   -0.01579
AFIX  43
H3    2    0.423835    0.775562   -0.110111    11.00000   -1.20000
AFIX   0
C4    1    0.390621    0.796937   -0.157248    11.00000    0.09571    0.0