
#######################################################################
#
#                 Cambridge Crystallographic Data Centre
#                                CCDC
#
#######################################################################
#
# If this CIF has been generated from an entry in the Cambridge
# Structural Database, then it will include bibliographic, chemical,
# crystal, experimental, refinement or atomic coordinate data resulting
# from the CCDC's data processing and validation procedures.
#
#######################################################################

data_CSD_CIF_HUNNUB
_audit_creation_date 2015-07-08
_audit_creation_method CSD-ConQuest-V1
_database_code_CSD HUNNUB
_database_code_depnum_ccdc_archive 'CCDC 1411386'
_chemical_formula_sum 'C6 H26 Cl2 Cu1 N6 O1'
_chemical_formula_moiety
;
C6 H24 Cu1 N6 2+,H2 O1,2(Cl1 1-)
;
_journal_coden_Cambridge 1078
_journal_year 2015
_journal_name_full 'CSD Communication(Private Communication) '
loop_
_publ_author_name
"F.R.Fronczek"
_chemical_name_systematic
;
tris(Ethylenediamine)-copper(ii) chloride monohydrate
;
_chemical_name_common
;
Teaching Subset: Fundamental Chemistry
;
_cell_volume   1468.036
_exptl_crystal_colour 'blue'
_exptl_crystal_density_diffrn 1.506
_diffrn_ambient_temperature 110
#These two values have been output from a single CSD field.
_refine_ls_R_factor_gt 0.106
_refine_ls_wR_factor_gt 0.106
_symmetry_cell_setting monoclinic
_symmetry_space_group_name_H-M 'P 21/c'
_symmetry_Int_Tables_number 14
loop_
_symmetry_equiv_pos_site_id
_symmetry_equiv_pos_as_xyz
1 x,y,z
2 -x,1/2+y,1/2-z
3 -x,-y,-z
4 x,-1/2-y,-1/2+z
_cell_length_a 8.819(5)
_cell_length_b 11.816(4)
_cell_length_c 14.115(8)
_cell_angle_alpha 90
_cell_angle_beta 93.55(2)
_cell_angle_gamma 90
_cell_formula_units_Z 4
loop_
_atom_type_symbol
_atom_type_radius_bond
C 0.68
H 0.23
Cl 0.99
Cu 1.32
N 0.68
O 0.68
loop_
_atom_site_label
_atom_site_type_symbol
_atom_site_fract_x
_atom_site_fract_y
_atom_site_fract_z
Cu1 Cu 0.75978(14) 0.44628(10) 0.29110(9)
N1 N 0.6031(11) 0.5008(8) 0.3981(7)
H1 H 0.50770 0.47130 0.38450
H2 H 0.63750 0.47690 0.45760
N2 N 0.8305(9) 0.6105(7) 0.3058(6)
H3 H 0.93480 0.61270 0.31390
H4 H 0.80180 0.65040 0.25160
N3 N 0.9388(11) 0.3820(8) 0.3946(6)
H5 H 1.03320 0.40660 0.37920
H6 H 0.92180 0.40600 0.45500
N4 N 0.6853(9) 0.2829(7) 0.2953(6)
H7 H 0.58160 0.28140 0.29970
H8 H 0.70790 0.24550 0.24080
N5 N 0.9071(12) 0.4093(9) 0.1675(7)
H9 H 1.00450 0.43550 0.18030
H10 H 0.91080 0.33280 0.15580
N6 N 0.6001(12) 0.4911(9) 0.1655(7)
H11 H 0.50580 0.46020 0.17280
H12 H 0.58970 0.56840 0.16080
C1 C 0.5990(12) 0.6242(10) 0.3937(8)
H13 H 0.55390 0.65550 0.45060
H14 H 0.53730 0.64960 0.33660
C2 C 0.7626(12) 0.6639(10) 0.3893(8)
H15 H 0.76550 0.74740 0.38320
H16 H 0.82200 0.64240 0.44840
C3 C 0.9280(12) 0.2585(9) 0.3876(8)
H17 H 0.97900 0.22300 0.44460
H18 H 0.97850 0.23160 0.33110
C4 C 0.7622(11) 0.2264(9) 0.3799(7)
H19 H 0.75200 0.14330 0.37360
H20 H 0.71340 0.25000 0.43800
C5 C 0.8336(12) 0.4696(9) 0.0857(7)
H21 H 0.87770 0.44410 0.02650
H22 H 0.85170 0.55190 0.09260
C6 C 0.6638(12) 0.4461(11) 0.0800(7)
H23 H 0.61480 0.48280 0.02290
H24 H 0.64520 0.36360 0.07530
Cl1 Cl 0.3361(3) 0.2690(2) 0.36423(19)
Cl2 Cl 0.8068(3) 0.1230(2) 0.11394(18)
O1 O 0.2549(12) 0.4550(8) 0.2183(7)
#END
