####################################################################### 
# 
# This file contains crystal structure data downloaded from the 
# Cambridge Structural Database (CSD) hosted by the Cambridge 
# Crystallographic Data Centre (CCDC).
# 
# Full information about CCDC data access policies and citation 
# guidelines are available at http://www.ccdc.cam.ac.uk/access/V1 
# 
# Audit and citation data items may have been added by the CCDC. 
# Please retain this information to preserve the provenance of 
# this file and to allow appropriate attribution of the data. 
# 
#######################################################################

data_1
_audit_block_doi                 10.5517/cc14mp7p
_database_code_depnum_ccdc_archive 'CCDC 1061602'
loop_
_citation_id
_citation_doi
_citation_year
1 10.1016/j.molstruc.2015.06.069 2015
_audit_update_record             
;
2015-04-24 deposited with the CCDC.	2024-07-10 downloaded from the CCDC.
;

_audit_creation_method           SHELXL-97
_chemical_name_systematic        
; 
 ? 
;
_chemical_name_common            ?
_chemical_melting_point          ?
_chemical_formula_moiety         ?
_chemical_formula_sum            'C58 H46 Cl4 N10 O12 Zn2'
_chemical_formula_weight         1347.59

loop_
_atom_type_symbol
_atom_type_description
_atom_type_scat_dispersion_real
_atom_type_scat_dispersion_imag
_atom_type_scat_source
C C 0.0033 0.0016 'International Tables Vol C Tables 4.2.6.8 and 6.1.1.4'
H H 0.0000 0.0000 'International Tables Vol C Tables 4.2.6.8 and 6.1.1.4'
N N 0.0061 0.0033 'International Tables Vol C Tables 4.2.6.8 and 6.1.1.4'
O O 0.0106 0.0060 'International Tables Vol C Tables 4.2.6.8 and 6.1.1.4'
Cl Cl 0.1484 0.1585 'International Tables Vol C Tables 4.2.6.8 and 6.1.1.4'
Zn Zn 0.2839 1.4301 'International Tables Vol C Tables 4.2.6.8 and 6.1.1.4'

_symmetry_cell_setting           Triclinic
_symmetry_space_group_name_H-M   P-1

loop_
_symmetry_equiv_pos_as_xyz
'x, y, z'
'-x, -y, -z'

_cell_length_a                   8.4538(14)
_cell_length_b                   12.667(2)
_cell_length_c                   13.596(2)
_cell_angle_alpha                95.874(3)
_cell_angle_beta                 96.709(3)
_cell_angle_gamma                101.759(3)
_cell_volume                     1403.6(4)
_cell_formula_units_Z            1
_cell_measurement_temperature    173(2)
_cell_measurement_reflns_used    1768
_cell_measurement_theta_min      2.49
_cell_measurement_theta_max      25.62

_exptl_crystal_description       BLOCK
_exptl_crystal_colour            YELLOW
_exptl_crystal_size_max          0.18
_exptl_crystal_size_mid          0.17
_exptl_crystal_size_min          0.15
_exptl_crystal_density_meas      NONE
_exptl_crystal_density_diffrn    1.594
_exptl_crystal_density_method    'not measured'
_exptl_crystal_F_000             688
_exptl_absorpt_coefficient_mu    1.119
_exptl_absorpt_correction_type   MULTI-SCAN
_exptl_absorpt_correction_T_min  0.8239
_exptl_absorpt_correction_T_max  0.8500
_exptl_absorpt_process_details   SADABS

_exptl_special_details           
; 
 ? 
;

_diffrn_ambient_temperature      173(2)
_diffrn_radiation_wavelength     0.71073
_diffrn_radiation_type           MoK\a
_diffrn_radiation_source         'fine-focus sealed tube'
_diffrn_radiation_monochromator  graphite
_diffrn_measurement_device_type  'CCD area detector'
_diffrn_measurement_method       'phi and omega scans'
_diffrn_detector_area_resol_mean ?
_diffrn_standards_number         ?
_diffrn_standards_interval_count ?
_diffrn_standards_interval_time  ?
_diffrn_standards_decay_%        ?
_diffrn_reflns_number            7964
_diffrn_reflns_av_R_equivalents  0.0348
_diffrn_reflns_av_sigmaI/netI    0.0711
_diffrn_reflns_limit_h_min       -9
_diffrn_reflns_limit_h_max       10
_diffrn_reflns_limit_k_min       -15
_diffrn_reflns_limit_k_max       14
_diffrn_reflns_limit_l_min       -16
_diffrn_reflns_limit_l_max       10
_diffrn_reflns_theta_min         1.52
_diffrn_reflns_theta_max         25.01
_reflns_number_total             4918
_reflns_number_gt                3337
_reflns_threshold_expression     >2sigma(I)

_computing_data_collection       'Bruker SMART'
_computing_cell_refinement       'Bruker SMART'
_computing_data_reduction        'Bruker SAINT'
_computing_structure_solution    'SHELXS-97 (Sheldrick, 1990)'
_computing_structure_refinement  'SHELXL-97 (Sheldrick, 1997)'
_computing_molecular_graphics    'Bruker SHELXTL'
_computing_publication_material  'Bruker SHELXTL'

_refine_special_details          
; 
 Refinement of F^2^ against ALL reflections.  The weighted R-factor wR and 
 goodness of fit S are based on F^2^, conventional R-factors R are based 
 on F, with F set to zero for negative F^2^. The threshold expression of 
 F^2^ > 2sigma(F^2^) is used only for calculating R-factors(gt) etc. and is 
 not relevant to the choice of reflections for refinement.  R-factors based 
 on F^2^ are statistically about twice as large as those based on F, and R- 
 factors based on ALL data will be even larger. 
;

_refine_ls_structure_factor_coef Fsqd
_refine_ls_matrix_type           full
_refine_ls_weighting_scheme      calc
_refine_ls_weighting_details     
'calc w=1/[\s^2^(Fo^2^)+(0.0932P)^2^+0.6923P] where P=(Fo^2^+2Fc^2^)/3'
_atom_sites_solution_primary     direct
_atom_sites_solution_secondary   difmap
_atom_sites_solution_hydrogens   geom
_refine_ls_hydrogen_treatment    constr
_refine_ls_extinction_method     none
_refine_ls_extinction_coef       ?
_refine_ls_number_reflns         4918
_refine_ls_number_parameters     343
_refine_ls_number_restraints     0
_refine_ls_R_factor_all          0.0950
_refine_ls_R_factor_gt           0.0658
_refine_ls_wR_factor_ref         0.1825
_refine_ls_wR_factor_gt          0.1665
_refine_ls_goodness_of_fit_ref   1.089
_refine_ls_restrained_S_all      1.089
_refine_ls_shift/su_max          0.000
_refine_ls_shift/su_mean         0.000

loop_
_atom_site_label
_atom_site_type_symbol
_atom_site_fract_x
_atom_site_fract_y
_atom_site_fract_z
_atom_site_U_iso_or_equiv
_atom_site_adp_type
_atom_site_occupancy
_atom_site_symmetry_multiplicity
_atom_site_calc_flag
_atom_site_refinement_flags
_atom_site_disorder_assembly
_atom_site_disorder_group
Zn1 Zn 0.37435(7) 0.29330(5) 0.47086(4) 0.0315(2) Uani 1 1 d . . .
Cl1 Cl 0.3454(2) 0.34852(15) 0.77347(10) 0.0519(5) Uani 1 1 d . . .
Cl2 Cl -0.6961(3) 0.3690(2) 1.10794(12) 0.0797(7) Uani 1 1 d . . .
O1 O 0.2039(4) 0.3357(3) 0.5451(2) 0.0323(9) Uani 1 1 d . . .
O2 O 0.2232(4) 0.5164(3) 0.5616(2) 0.0339(9) Uani 1 1 d . . .
O3 O -0.6065(4) 0.3892(3) 1.3327(2) 0.0312(9) Uani 1 1 d . . .
O4 O -0.4708(5) 0.2621(3) 1.3652(3) 0.0370(9) Uani 1 1 d . . .
O5 O 0.5642(4) 0.4059(3) 0.5548(2) 0.0249(8) Uani 1 1 d . . .
H5A H 0.6254 0.4350 0.5151 0.037 Uiso 1 1 d R . .
H5B H 0.5376 0.4574 0.5906 0.037 Uiso 1 1 d R . .
N1 N 0.4088(6) 0.1650(4) 0.5500(4) 0.0371(12) Uani 1 1 d . . .
N2 N 0.1900(6) 0.1618(5) 0.3872(4) 0.0445(13) Uani 1 1 d . . .
N3 N -0.2004(8) 0.3833(6) 0.9096(4) 0.0676(18) Uani 1 1 d . . .
N4 N -0.1280(7) 0.3698(6) 0.9857(5) 0.0689(18) Uani 1 1 d . . .
C1 C 0.2995(8) 0.0665(5) 0.5097(5) 0.0494(19) Uani 1 1 d . . .
C2 C 0.5147(8) 0.1679(5) 0.6276(5) 0.0466(18) Uani 1 1 d . . .
H2 H 0.5872 0.2355 0.6527 0.056 Uiso 1 1 calc R . .
C3 C 0.5297(10) 0.0766(7) 0.6778(6) 0.064(2) Uani 1 1 d . . .
H3 H 0.6086 0.0811 0.7347 0.077 Uiso 1 1 calc R . .
C4 C 0.4194(9) -0.0204(6) 0.6368(6) 0.056(2) Uani 1 1 d . . .
H4 H 0.4220 -0.0839 0.6680 0.068 Uiso 1 1 calc R . .
C5 C 0.3079(9) -0.0274(6) 0.5535(6) 0.0548(19) Uani 1 1 d . . .
C6 C 0.1899(10) -0.1282(6) 0.5100(6) 0.0588(19) Uani 1 1 d . . .
H6 H 0.1873 -0.1941 0.5380 0.071 Uiso 1 1 calc R . .
C7 C 0.0867(10) -0.1229(6) 0.4296(7) 0.072(3) Uani 1 1 d . . .
H7 H 0.0124 -0.1888 0.4011 0.087 Uiso 1 1 calc R . .
C8 C 0.0760(9) -0.0309(6) 0.3827(6) 0.0564(19) Uani 1 1 d . . .
C9 C -0.0282(9) -0.0257(6) 0.3009(5) 0.0562(19) Uani 1 1 d . . .
H9 H -0.1030 -0.0900 0.2693 0.067 Uiso 1 1 calc R . .
C10 C -0.0285(9) 0.0690(7) 0.2627(5) 0.066(2) Uani 1 1 d . . .
H10 H -0.1042 0.0714 0.2060 0.079 Uiso 1 1 calc R . .
C11 C 0.0839(8) 0.1627(6) 0.3078(5) 0.0516(17) Uani 1 1 d . . .
H11 H 0.0843 0.2291 0.2809 0.062 Uiso 1 1 calc R . .
C12 C 0.1912(7) 0.0719(6) 0.4256(4) 0.0410(15) Uani 1 1 d . . .
C13 C 0.1840(6) 0.4244(5) 0.5872(3) 0.0255(12) Uani 1 1 d . . .
C14 C 0.0913(6) 0.4140(5) 0.6756(3) 0.0286(12) Uani 1 1 d . . .
C15 C 0.1543(7) 0.3786(5) 0.7626(4) 0.0343(13) Uani 1 1 d . . .
C16 C 0.0659(8) 0.3679(6) 0.8420(4) 0.0481(17) Uani 1 1 d . . .
H16 H 0.1096 0.3434 0.9009 0.058 Uiso 1 1 calc R . .
C17 C -0.0873(8) 0.3932(6) 0.8350(4) 0.0517(18) Uani 1 1 d . . .
C18 C -0.1494(7) 0.4306(6) 0.7498(4) 0.0512(18) Uani 1 1 d . . .
H18 H -0.2535 0.4487 0.7450 0.061 Uiso 1 1 calc R . .
C19 C -0.0587(6) 0.4416(6) 0.6714(4) 0.0421(16) Uani 1 1 d . . .
H19 H -0.1008 0.4686 0.6135 0.050 Uiso 1 1 calc R . .
C20 C -0.2379(9) 0.3599(7) 1.0650(5) 0.061(2) Uani 1 1 d . . .
C21 C -0.4007(10) 0.3708(6) 1.0496(5) 0.066(2) Uani 1 1 d . . .
H21 H -0.4470 0.3845 0.9863 0.080 Uiso 1 1 calc R . .
C22 C -0.4946(8) 0.3614(6) 1.1283(4) 0.0548(18) Uani 1 1 d . . .
C23 C -0.4230(7) 0.3405(5) 1.2202(4) 0.0413(15) Uani 1 1 d . . .
C24 C -0.2594(8) 0.3307(6) 1.2301(5) 0.0553(19) Uani 1 1 d . . .
H24 H -0.2092 0.3175 1.2925 0.066 Uiso 1 1 calc R . .
C25 C -0.1714(9) 0.3394(7) 1.1530(5) 0.065(2) Uani 1 1 d . . .
H25 H -0.0617 0.3309 1.1617 0.078 Uiso 1 1 calc R . .
C26 C -0.5065(6) 0.3311(5) 1.3117(4) 0.0323(13) Uani 1 1 d . . .

loop_
_atom_site_aniso_label
_atom_site_aniso_U_11
_atom_site_aniso_U_22
_atom_site_aniso_U_33
_atom_site_aniso_U_23
_atom_site_aniso_U_13
_atom_site_aniso_U_12
Zn1 0.0269(4) 0.0398(4) 0.0296(3) 0.0005(3) 0.0189(2) 0.0052(3)
Cl1 0.0559(10) 0.0853(13) 0.0341(8) 0.0217(8) 0.0142(7) 0.0491(10)
Cl2 0.0882(15) 0.141(2) 0.0297(8) 0.0251(10) 0.0195(9) 0.0565(14)
O1 0.029(2) 0.047(3) 0.0231(18) 0.0029(17) 0.0158(15) 0.0074(18)
O2 0.029(2) 0.051(3) 0.0245(18) 0.0108(18) 0.0134(15) 0.0063(18)
O3 0.031(2) 0.042(2) 0.0231(18) 0.0022(16) 0.0157(15) 0.0080(18)
O4 0.050(2) 0.029(2) 0.036(2) 0.0079(18) 0.0234(18) 0.0069(19)
O5 0.0241(19) 0.032(2) 0.0235(17) 0.0079(15) 0.0124(13) 0.0090(15)
N1 0.044(3) 0.029(3) 0.051(3) 0.014(2) 0.034(2) 0.017(2)
N2 0.040(3) 0.057(4) 0.041(3) 0.005(3) 0.027(2) 0.011(3)
N3 0.080(5) 0.088(5) 0.033(3) 0.015(3) 0.005(3) 0.014(4)
N4 0.045(4) 0.103(6) 0.061(4) 0.007(4) 0.006(3) 0.023(3)
C1 0.058(4) 0.037(4) 0.078(5) 0.027(3) 0.061(4) 0.030(3)
C2 0.053(4) 0.039(4) 0.074(5) 0.035(3) 0.053(4) 0.030(3)
C3 0.074(5) 0.071(6) 0.083(5) 0.049(5) 0.060(4) 0.051(5)
C4 0.079(5) 0.037(4) 0.082(5) 0.035(4) 0.063(4) 0.036(4)
C5 0.057(4) 0.052(5) 0.075(5) 0.021(4) 0.050(4) 0.027(4)
C6 0.062(5) 0.042(4) 0.082(5) 0.008(4) 0.045(4) 0.015(4)
C7 0.074(6) 0.050(5) 0.102(7) -0.001(5) 0.067(5) 0.011(4)
C8 0.060(5) 0.056(5) 0.069(5) 0.011(4) 0.045(4) 0.027(4)
C9 0.062(5) 0.049(5) 0.059(4) -0.011(4) 0.035(4) 0.008(4)
C10 0.055(5) 0.087(6) 0.051(4) -0.008(4) 0.016(3) 0.008(4)
C11 0.043(4) 0.072(5) 0.040(3) 0.002(3) 0.017(3) 0.009(4)
C12 0.041(4) 0.052(4) 0.039(3) 0.002(3) 0.026(3) 0.023(3)
C13 0.017(3) 0.045(4) 0.015(2) 0.005(2) 0.0072(19) 0.004(2)
C14 0.021(3) 0.048(4) 0.019(2) 0.004(2) 0.011(2) 0.009(2)
C15 0.041(3) 0.047(4) 0.024(3) 0.008(2) 0.016(2) 0.022(3)
C16 0.067(4) 0.065(5) 0.026(3) 0.019(3) 0.023(3) 0.029(4)
C17 0.054(4) 0.074(5) 0.036(3) 0.010(3) 0.034(3) 0.017(4)
C18 0.027(3) 0.095(6) 0.038(3) 0.011(3) 0.021(3) 0.015(3)
C19 0.025(3) 0.077(5) 0.029(3) 0.012(3) 0.013(2) 0.015(3)
C20 0.049(4) 0.085(6) 0.056(4) 0.013(4) 0.035(3) 0.012(4)
C21 0.103(7) 0.073(5) 0.026(3) 0.010(3) 0.027(4) 0.015(5)
C22 0.063(5) 0.069(5) 0.036(3) 0.002(3) 0.029(3) 0.014(4)
C23 0.052(4) 0.046(4) 0.029(3) 0.004(3) 0.027(3) 0.007(3)
C24 0.052(4) 0.078(5) 0.039(3) 0.000(3) 0.031(3) 0.011(4)
C25 0.065(5) 0.089(6) 0.043(4) 0.005(4) 0.029(3) 0.009(4)
C26 0.032(3) 0.034(3) 0.028(3) -0.008(2) 0.019(2) -0.001(3)

_geom_special_details            
; 
 All esds (except the esd in the dihedral angle between two l.s. planes) 
 are estimated using the full covariance matrix.  The cell esds are taken 
 into account individually in the estimation of esds in distances, angles 
 and torsion angles; correlations between esds in cell parameters are only 
 used when they are defined by crystal symmetry.  An approximate (isotropic) 
 treatment of cell esds is used for estimating esds involving l.s. planes. 
;

loop_
_geom_bond_atom_site_label_1
_geom_bond_atom_site_label_2
_geom_bond_distance
_geom_bond_site_symmetry_2
_geom_bond_publ_flag
Zn1 O1 1.982(3) . ?
Zn1 O5 2.054(3) . ?
Zn1 N1 2.089(5) . ?
Zn1 O4 2.113(3) 1_654 ?
Zn1 N2 2.153(5) . ?
Zn1 O3 2.342(3) 1_654 ?
Zn1 C26 2.540(5) 1_654 ?
Cl1 C15 1.727(5) . ?
Cl2 C22 1.718(7) . ?
O1 C13 1.260(6) . ?
O2 C13 1.242(6) . ?
O3 C26 1.267(6) . ?
O3 Zn1 2.342(3) 1_456 ?
O4 C26 1.254(7) . ?
O4 Zn1 2.113(3) 1_456 ?
O5 H5A 0.8500 . ?
O5 H5B 0.8561 . ?
N1 C2 1.294(8) . ?
N1 C1 1.408(9) . ?
N2 C12 1.302(8) . ?
N2 C11 1.323(8) . ?
N3 N4 1.185(8) . ?
N3 C17 1.471(8) . ?
N4 C20 1.502(8) . ?
C1 C5 1.394(9) . ?
C1 C12 1.396(9) . ?
C2 C3 1.420(8) . ?
C2 H2 0.9500 . ?
C3 C4 1.401(11) . ?
C3 H3 0.9500 . ?
C4 C5 1.369(10) . ?
C4 H4 0.9500 . ?
C5 C6 1.471(11) . ?
C6 C7 1.333(11) . ?
C6 H6 0.9500 . ?
C7 C8 1.399(11) . ?
C7 H7 0.9500 . ?
C8 C9 1.352(11) . ?
C8 C12 1.476(10) . ?
C9 C10 1.355(11) . ?
C9 H9 0.9500 . ?
C10 C11 1.395(10) . ?
C10 H10 0.9500 . ?
C11 H11 0.9500 . ?
C13 C14 1.512(6) . ?
C14 C19 1.379(7) . ?
C14 C15 1.395(7) . ?
C15 C16 1.385(7) . ?
C16 C17 1.391(9) . ?
C16 H16 0.9500 . ?
C17 C18 1.384(9) . ?
C18 C19 1.386(7) . ?
C18 H18 0.9500 . ?
C19 H19 0.9500 . ?
C20 C25 1.335(10) . ?
C20 C21 1.404(10) . ?
C21 C22 1.406(8) . ?
C21 H21 0.9500 . ?
C22 C23 1.397(9) . ?
C23 C24 1.406(9) . ?
C23 C26 1.503(7) . ?
C24 C25 1.355(8) . ?
C24 H24 0.9500 . ?
C25 H25 0.9500 . ?
C26 Zn1 2.540(5) 1_456 ?

loop_
_geom_angle_atom_site_label_1
_geom_angle_atom_site_label_2
_geom_angle_atom_site_label_3
_geom_angle
_geom_angle_site_symmetry_1
_geom_angle_site_symmetry_3
_geom_angle_publ_flag
O1 Zn1 O5 95.06(14) . . ?
O1 Zn1 N1 96.36(15) . . ?
O5 Zn1 N1 95.14(18) . . ?
O1 Zn1 O4 167.18(15) . 1_654 ?
O5 Zn1 O4 90.04(14) . 1_654 ?
N1 Zn1 O4 94.88(15) . 1_654 ?
O1 Zn1 N2 88.50(16) . . ?
O5 Zn1 N2 173.65(18) . . ?
N1 Zn1 N2 79.2(2) . . ?
O4 Zn1 N2 87.58(16) 1_654 . ?
O1 Zn1 O3 108.78(13) . 1_654 ?
O5 Zn1 O3 91.58(12) . 1_654 ?
N1 Zn1 O3 153.28(15) . 1_654 ?
O4 Zn1 O3 59.22(13) 1_654 1_654 ?
N2 Zn1 O3 92.26(16) . 1_654 ?
O1 Zn1 C26 138.36(17) . 1_654 ?
O5 Zn1 C26 90.96(15) . 1_654 ?
N1 Zn1 C26 124.11(18) . 1_654 ?
O4 Zn1 C26 29.49(16) 1_654 1_654 ?
N2 Zn1 C26 89.86(17) . 1_654 ?
O3 Zn1 C26 29.74(15) 1_654 1_654 ?
C13 O1 Zn1 134.2(3) . . ?
C26 O3 Zn1 83.8(3) . 1_456 ?
C26 O4 Zn1 94.5(3) . 1_456 ?
Zn1 O5 H5A 107.9 . . ?
Zn1 O5 H5B 115.9 . . ?
H5A O5 H5B 107.3 . . ?
C2 N1 C1 119.9(5) . . ?
C2 N1 Zn1 127.7(4) . . ?
C1 N1 Zn1 112.4(4) . . ?
C12 N2 C11 120.1(6) . . ?
C12 N2 Zn1 110.5(4) . . ?
C11 N2 Zn1 129.3(5) . . ?
N4 N3 C17 108.1(6) . . ?
N3 N4 C20 110.3(6) . . ?
C5 C1 C12 125.2(7) . . ?
C5 C1 N1 119.4(7) . . ?
C12 C1 N1 115.4(5) . . ?
N1 C2 C3 124.3(7) . . ?
N1 C2 H2 117.8 . . ?
C3 C2 H2 117.8 . . ?
C4 C3 C2 114.9(7) . . ?
C4 C3 H3 122.6 . . ?
C2 C3 H3 122.6 . . ?
C5 C4 C3 122.6(6) . . ?
C5 C4 H4 118.7 . . ?
C3 C4 H4 118.7 . . ?
C4 C5 C1 118.9(7) . . ?
C4 C5 C6 123.4(7) . . ?
C1 C5 C6 117.7(8) . . ?
C7 C6 C5 117.1(7) . . ?
C7 C6 H6 121.5 . . ?
C5 C6 H6 121.5 . . ?
C6 C7 C8 126.9(8) . . ?
C6 C7 H7 116.5 . . ?
C8 C7 H7 116.5 . . ?
C9 C8 C7 126.9(8) . . ?
C9 C8 C12 115.8(7) . . ?
C7 C8 C12 117.2(8) . . ?
C8 C9 C10 121.6(7) . . ?
C8 C9 H9 119.2 . . ?
C10 C9 H9 119.2 . . ?
C9 C10 C11 119.1(7) . . ?
C9 C10 H10 120.5 . . ?
C11 C10 H10 120.5 . . ?
N2 C11 C10 121.7(7) . . ?
N2 C11 H11 119.1 . . ?
C10 C11 H11 119.1 . . ?
N2 C12 C1 122.5(6) . . ?
N2 C12 C8 121.6(6) . . ?
C1 C12 C8 115.9(6) . . ?
O2 C13 O1 127.9(4) . . ?
O2 C13 C14 117.3(5) . . ?
O1 C13 C14 114.6(5) . . ?
C19 C14 C15 118.6(4) . . ?
C19 C14 C13 119.6(4) . . ?
C15 C14 C13 121.8(4) . . ?
C16 C15 C14 120.8(5) . . ?
C16 C15 Cl1 118.9(4) . . ?
C14 C15 Cl1 120.3(4) . . ?
C15 C16 C17 119.6(5) . . ?
C15 C16 H16 120.2 . . ?
C17 C16 H16 120.2 . . ?
C18 C17 C16 120.1(5) . . ?
C18 C17 N3 112.7(6) . . ?
C16 C17 N3 127.3(6) . . ?
C17 C18 C19 119.5(6) . . ?
C17 C18 H18 120.2 . . ?
C19 C18 H18 120.2 . . ?
C14 C19 C18 121.4(5) . . ?
C14 C19 H19 119.3 . . ?
C18 C19 H19 119.3 . . ?
C25 C20 C21 121.0(6) . . ?
C25 C20 N4 115.7(6) . . ?
C21 C20 N4 123.3(6) . . ?
C20 C21 C22 119.6(6) . . ?
C20 C21 H21 120.2 . . ?
C22 C21 H21 120.2 . . ?
C23 C22 C21 118.7(6) . . ?
C23 C22 Cl2 121.6(4) . . ?
C21 C22 Cl2 119.6(6) . . ?
C22 C23 C24 118.4(5) . . ?
C22 C23 C26 124.8(6) . . ?
C24 C23 C26 116.7(5) . . ?
C25 C24 C23 121.9(7) . . ?
C25 C24 H24 119.1 . . ?
C23 C24 H24 119.1 . . ?
C20 C25 C24 120.4(7) . . ?
C20 C25 H25 119.8 . . ?
C24 C25 H25 119.8 . . ?
O4 C26 O3 122.5(4) . . ?
O4 C26 C23 115.6(5) . . ?
O3 C26 C23 121.9(5) . . ?
O4 C26 Zn1 56.1(2) . 1_456 ?
O3 C26 Zn1 66.5(2) . 1_456 ?
C23 C26 Zn1 171.7(4) . 1_456 ?

loop_
_geom_torsion_atom_site_label_1
_geom_torsion_atom_site_label_2
_geom_torsion_atom_site_label_3
_geom_torsion_atom_site_label_4
_geom_torsion
_geom_torsion_site_symmetry_1
_geom_torsion_site_symmetry_2
_geom_torsion_site_symmetry_3
_geom_torsion_site_symmetry_4
_geom_torsion_publ_flag
O5 Zn1 O1 C13 34.2(4) . . . . ?
N1 Zn1 O1 C13 130.0(5) . . . . ?
O4 Zn1 O1 C13 -78.8(8) 1_654 . . . ?
N2 Zn1 O1 C13 -151.0(5) . . . . ?
O3 Zn1 