####################################################################### 
# 
# This file contains crystal structure data downloaded from the 
# Cambridge Structural Database (CSD) hosted by the Cambridge 
# Crystallographic Data Centre (CCDC).
# 
# Full information about CCDC data access policies and citation 
# guidelines are available at http://www.ccdc.cam.ac.uk/access/V1 
# 
# Audit and citation data items may have been added by the CCDC. 
# Please retain this information to preserve the provenance of 
# this file and to allow appropriate attribution of the data. 
# 
#######################################################################

data_4
_audit_block_doi                 10.5517/ccsf9vb
_database_code_depnum_ccdc_archive 'CCDC 727782'
loop_
_citation_id
_citation_doi
_citation_year
1 10.1002/ejic.200900801 2009
_audit_update_record             
;
2009-04-15 deposited with the CCDC.	2024-07-10 downloaded from the CCDC.
;

_audit_creation_method           SHELXL-97
_chemical_name_systematic        
;
Zn[TCPP-(CH3)4]
;
_chemical_name_common            Zn[TCPP-(CH3)4]
_chemical_melting_point          'not measured'
_chemical_formula_moiety         Zn[TCPP-(CH3)4]
_chemical_formula_sum            'C52 H36 N4 O8 Zn'
_chemical_formula_weight         910.22

loop_
_atom_type_symbol
_atom_type_description
_atom_type_scat_dispersion_real
_atom_type_scat_dispersion_imag
_atom_type_scat_source
C C 0.0033 0.0016 'International Tables Vol C Tables 4.2.6.8 and 6.1.1.4'
H H 0.0000 0.0000 'International Tables Vol C Tables 4.2.6.8 and 6.1.1.4'
N N 0.0061 0.0033 'International Tables Vol C Tables 4.2.6.8 and 6.1.1.4'
O O 0.0106 0.0060 'International Tables Vol C Tables 4.2.6.8 and 6.1.1.4'
Zn Zn 0.2839 1.4301 'International Tables Vol C Tables 4.2.6.8 and 6.1.1.4'

_symmetry_cell_setting           monoclinic
_symmetry_space_group_name_H-M   P2(1)/c

loop_
_symmetry_equiv_pos_as_xyz
'x, y, z'
'-x, y+1/2, -z+1/2'
'-x, -y, -z'
'x, -y-1/2, z-1/2'

_cell_length_a                   13.716(3)
_cell_length_b                   9.0035(18)
_cell_length_c                   21.062(2)
_cell_angle_alpha                90.00
_cell_angle_beta                 92.590(4)
_cell_angle_gamma                90.00
_cell_volume                     2598.4(9)
_cell_formula_units_Z            2
_cell_measurement_temperature    123.15
_cell_measurement_reflns_used    6645
_cell_measurement_theta_min      3.0863
_cell_measurement_theta_max      27.4835

_exptl_crystal_description       Platelet
_exptl_crystal_colour            Red
_exptl_crystal_size_max          0.4200
_exptl_crystal_size_mid          0.2200
_exptl_crystal_size_min          0.1000
_exptl_crystal_density_meas      'not measured'
_exptl_crystal_density_diffrn    1.163
_exptl_crystal_density_method    'not measured'
_exptl_crystal_F_000             940
_exptl_absorpt_coefficient_mu    0.525
_exptl_absorpt_correction_type   Multi-scan
_exptl_absorpt_correction_T_min  0.875
_exptl_absorpt_correction_T_max  0.947
_exptl_absorpt_process_details   'Sphere (Rigaku CrystalClear)'

_exptl_special_details           
;
?
;

_diffrn_ambient_temperature      123.15
_diffrn_radiation_wavelength     0.71073
_diffrn_radiation_type           MoK\a
_diffrn_radiation_source         'rotating-anode generator'
_diffrn_radiation_monochromator  graphite
_diffrn_measurement_device_type  'Rigaku Mercury CCD'
_diffrn_measurement_method       \w
_diffrn_detector_area_resol_mean ?
_diffrn_standards_number         ?
_diffrn_standards_interval_count ?
_diffrn_standards_interval_time  ?
_diffrn_standards_decay_%        ?
_diffrn_reflns_number            16125
_diffrn_reflns_av_R_equivalents  0.0486
_diffrn_reflns_av_sigmaI/netI    0.1654
_diffrn_reflns_limit_h_min       -15
_diffrn_reflns_limit_h_max       16
_diffrn_reflns_limit_k_min       -10
_diffrn_reflns_limit_k_max       10
_diffrn_reflns_limit_l_min       -25
_diffrn_reflns_limit_l_max       24
_diffrn_reflns_theta_min         3.37
_diffrn_reflns_theta_max         25.03
_reflns_number_total             4487
_reflns_number_gt                2105
_reflns_threshold_expression     >2sigma(I)

_computing_data_collection       'CrystalClear (Rigaku Corp., 2002)'
_computing_cell_refinement       'CrystalClear (Rigaku Corp., 2002)'
_computing_data_reduction        'CrystalClear (Rigaku Corp., 2002)'
_computing_structure_solution    'Siemens SHELXTL^TM^ 5'
_computing_structure_refinement  'Siemens SHELXTL^TM^ 5'
_computing_molecular_graphics    ?
_computing_publication_material  'Siemens SHELXTL^TM^ 5'

_refine_special_details          
;
Refinement of F^2^ against ALL reflections. The weighted R-factor wR and
goodness of fit S are based on F^2^, conventional R-factors R are based
on F, with F set to zero for negative F^2^. The threshold expression of
F^2^ > 2sigma(F^2^) is used only for calculating R-factors(gt) etc. and is
not relevant to the choice of reflections for refinement. R-factors based
on F^2^ are statistically about twice as large as those based on F, and R-
factors based on ALL data will be even larger.
;

_refine_ls_structure_factor_coef Fsqd
_refine_ls_matrix_type           full
_refine_ls_weighting_scheme      calc
_refine_ls_weighting_details     
'calc w=1/[\s^2^(Fo^2^)+(0.0500P)^2^+0.0000P] where P=(Fo^2^+2Fc^2^)/3'
_atom_sites_solution_primary     direct
_atom_sites_solution_secondary   difmap
_atom_sites_solution_hydrogens   geom
_refine_ls_hydrogen_treatment    constr
_refine_ls_extinction_method     none
_refine_ls_extinction_coef       0
_refine_ls_number_reflns         4487
_refine_ls_number_parameters     295
_refine_ls_number_restraints     0
_refine_ls_R_factor_all          0.1072
_refine_ls_R_factor_gt           0.0692
_refine_ls_wR_factor_ref         0.2028
_refine_ls_wR_factor_gt          0.1809
_refine_ls_goodness_of_fit_ref   1.007
_refine_ls_restrained_S_all      1.007
_refine_ls_shift/su_max          0.000
_refine_ls_shift/su_mean         0.000

loop_
_atom_site_label
_atom_site_type_symbol
_atom_site_fract_x
_atom_site_fract_y
_atom_site_fract_z
_atom_site_U_iso_or_equiv
_atom_site_adp_type
_atom_site_occupancy
_atom_site_symmetry_multiplicity
_atom_site_calc_flag
_atom_site_refinement_flags
_atom_site_disorder_assembly
_atom_site_disorder_group
Zn1 Zn 0.5000 1.0000 0.5000 0.03549(15) Uani 1 2 d S . .
O1 O 0.00126(17) 0.2214(3) 0.55428(16) 0.0877(11) Uani 1 1 d . . .
O2 O 0.13224(16) 0.0887(3) 0.58684(12) 0.0583(8) Uani 1 1 d . . .
O3 O 0.63102(15) 0.6381(2) 0.06575(9) 0.0427(6) Uani 1 1 d . . .
O4 O 0.75559(16) 0.5335(3) 0.12138(10) 0.0603(8) Uani 1 1 d . . .
N1 N 0.46411(17) 0.8152(3) 0.44890(11) 0.0324(7) Uani 1 1 d . . .
N2 N 0.59038(17) 1.0670(3) 0.43086(11) 0.0313(7) Uani 1 1 d . . .
C1 C 0.3513(2) 0.6966(3) 0.52194(14) 0.0341(9) Uani 1 1 d . . .
C2 C 0.4023(2) 0.7020(3) 0.46491(14) 0.0361(9) Uani 1 1 d . . .
C3 C 0.3945(2) 0.5961(4) 0.41364(15) 0.0457(10) Uani 1 1 d . . .
H3A H 0.3565 0.5106 0.4124 0.055 Uiso 1 1 calc R . .
C4 C 0.4513(2) 0.6426(3) 0.36873(15) 0.0419(9) Uani 1 1 d . . .
H4A H 0.4613 0.5945 0.3305 0.050 Uiso 1 1 calc R . .
C5 C 0.4947(2) 0.7798(4) 0.38910(14) 0.0365(9) Uani 1 1 d . . .
C6 C 0.5598(2) 0.8643(3) 0.35436(13) 0.0337(9) Uani 1 1 d . . .
C7 C 0.6035(2) 0.9982(3) 0.37379(13) 0.0309(8) Uani 1 1 d . . .
C8 C 0.6678(2) 1.0866(4) 0.33592(14) 0.0393(9) Uani 1 1 d . . .
H8A H 0.6884 1.0633 0.2956 0.047 Uiso 1 1 calc R . .
C9 C 0.6916(2) 1.2067(3) 0.36947(13) 0.0365(9) Uani 1 1 d . . .
H9A H 0.7318 1.2834 0.3568 0.044 Uiso 1 1 calc R . .
C10 C 0.6438(2) 1.1973(3) 0.42964(13) 0.0338(9) Uani 1 1 d . . .
C11 C 0.2849(2) 0.5682(3) 0.53105(14) 0.0341(9) Uani 1 1 d . . .
C12 C 0.3186(2) 0.4226(3) 0.53452(14) 0.0384(9) Uani 1 1 d . . .
H12A H 0.3845 0.4042 0.5293 0.046 Uiso 1 1 calc R . .
C13 C 0.2573(2) 0.3042(4) 0.54550(14) 0.0387(9) Uani 1 1 d . . .
H13A H 0.2818 0.2081 0.5489 0.046 Uiso 1 1 calc R . .
C14 C 0.1579(2) 0.3317(4) 0.55130(15) 0.0412(10) Uani 1 1 d . . .
C15 C 0.1220(2) 0.4758(4) 0.54509(16) 0.0469(11) Uani 1 1 d . . .
H15A H 0.0556 0.4939 0.5485 0.056 Uiso 1 1 calc R . .
C16 C 0.1841(2) 0.5908(4) 0.53401(15) 0.0432(10) Uani 1 1 d . . .
H16A H 0.1589 0.6860 0.5283 0.052 Uiso 1 1 calc R . .
C17 C 0.0879(3) 0.2114(4) 0.56409(18) 0.0535(11) Uani 1 1 d . . .
C18 C 0.0677(3) -0.0316(5) 0.6000(3) 0.102(2) Uani 1 1 d . . .
H18A H 0.1049 -0.1144 0.6164 0.153 Uiso 1 1 calc R . .
H18B H 0.0325 -0.0605 0.5615 0.153 Uiso 1 1 calc R . .
H18C H 0.0224 -0.0004 0.6307 0.153 Uiso 1 1 calc R . .
C19 C 0.5883(2) 0.7994(3) 0.29199(14) 0.0361(9) Uani 1 1 d . . .
C20 C 0.5328(2) 0.8189(3) 0.23701(13) 0.0341(9) Uani 1 1 d . . .
H20A H 0.4755 0.8738 0.2378 0.041 Uiso 1 1 calc R . .
C21 C 0.5604(2) 0.7587(3) 0.18079(14) 0.0345(9) Uani 1 1 d . . .
H21A H 0.5213 0.7737 0.1441 0.041 Uiso 1 1 calc R . .
C22 C 0.6453(2) 0.6761(4) 0.17739(14) 0.0373(9) Uani 1 1 d . . .
C23 C 0.7027(3) 0.6566(5) 0.23164(17) 0.0862(15) Uani 1 1 d . . .
H23A H 0.7608 0.6037 0.2303 0.103 Uiso 1 1 calc R . .
C24 C 0.6738(3) 0.7165(5) 0.28908(18) 0.0864(15) Uani 1 1 d . . .
H24A H 0.7122 0.7007 0.3260 0.104 Uiso 1 1 calc R . .
C25 C 0.6747(2) 0.6173(4) 0.11575(14) 0.0379(9) Uani 1 1 d . . .
C26 C 0.7921(3) 0.4759(4) 0.06326(18) 0.0656(13) Uani 1 1 d . . .
H26A H 0.8500 0.4188 0.0727 0.098 Uiso 1 1 calc R . .
H26B H 0.8072 0.5569 0.0357 0.098 Uiso 1 1 calc R . .
H26C H 0.7434 0.4138 0.0426 0.098 Uiso 1 1 calc R . .

loop_
_atom_site_aniso_label
_atom_site_aniso_U_11
_atom_site_aniso_U_22
_atom_site_aniso_U_33
_atom_site_aniso_U_23
_atom_site_aniso_U_13
_atom_site_aniso_U_12
Zn1 0.0453(3) 0.0369(3) 0.0249(3) -0.0024(2) 0.0084(2) -0.0016(3)
O1 0.0408(13) 0.0595(17) 0.162(3) 0.0158(19) -0.0088(17) -0.0136(13)
O2 0.0500(13) 0.0500(14) 0.0747(17) 0.0202(13) 0.0027(13) -0.0127(12)
O3 0.0496(12) 0.0501(14) 0.0289(11) -0.0039(11) 0.0083(10) 0.0018(11)
O4 0.0531(14) 0.0915(18) 0.0362(13) -0.0233(13) -0.0011(11) 0.0272(14)
N1 0.0393(14) 0.0327(14) 0.0257(13) 0.0022(11) 0.0058(11) -0.0017(12)
N2 0.0347(13) 0.0358(14) 0.0235(13) -0.0010(11) 0.0025(11) -0.0003(12)
C1 0.0374(16) 0.0357(17) 0.0291(16) 0.0002(14) 0.0007(14) 0.0030(15)
C2 0.0399(17) 0.0377(18) 0.0306(17) 0.0001(15) -0.0010(15) -0.0003(15)
C3 0.064(2) 0.0355(18) 0.0382(19) -0.0116(16) 0.0061(17) -0.0065(17)
C4 0.0540(19) 0.0391(18) 0.0335(17) -0.0112(15) 0.0139(16) -0.0076(16)
C5 0.0373(16) 0.0432(18) 0.0293(16) -0.0082(15) 0.0035(14) 0.0078(15)
C6 0.0360(16) 0.0415(18) 0.0239(15) -0.0027(14) 0.0037(14) 0.0009(15)
C7 0.0326(15) 0.0387(17) 0.0218(14) 0.0009(14) 0.0053(13) 0.0078(15)
C8 0.0461(18) 0.0481(19) 0.0243(16) 0.0010(15) 0.0068(15) -0.0019(17)
C9 0.0391(17) 0.0423(18) 0.0286(16) 0.0027(15) 0.0053(14) -0.0070(16)
C10 0.0406(17) 0.0353(17) 0.0255(16) 0.0039(14) 0.0015(14) 0.0010(15)
C11 0.0423(17) 0.0342(17) 0.0261(16) 0.0035(14) 0.0035(14) -0.0013(15)
C12 0.0434(18) 0.0404(18) 0.0316(17) 0.0042(15) 0.0041(15) 0.0038(16)
C13 0.0460(18) 0.0377(18) 0.0324(17) 0.0059(15) 0.0009(15) -0.0004(16)
C14 0.0413(18) 0.0448(19) 0.0369(18) -0.0003(16) -0.0057(16) -0.0046(16)
C15 0.0305(17) 0.052(2) 0.058(2) -0.0008(19) 0.0035(17) 0.0024(16)
C16 0.0389(18) 0.0417(19) 0.049(2) -0.0002(17) 0.0020(17) 0.0007(16)
C17 0.048(2) 0.055(2) 0.058(2) 0.002(2) 0.0008(19) -0.0096(19)
C18 0.079(3) 0.072(3) 0.155(5) 0.029(3) 0.006(3) -0.005(3)
C19 0.0430(17) 0.0395(18) 0.0262(16) -0.0012(15) 0.0050(14) -0.0001(15)
C20 0.0367(16) 0.0374(17) 0.0283(16) -0.0002(14) 0.0011(14) 0.0049(15)
C21 0.0424(17) 0.0368(17) 0.0242(16) -0.0005(14) -0.0002(14) 0.0029(15)
C22 0.0390(17) 0.0477(19) 0.0250(16) -0.0051(15) -0.0004(14) 0.0052(16)
C23 0.081(2) 0.141(4) 0.036(2) -0.022(2) -0.008(2) 0.065(3)
C24 0.066(2) 0.154(4) 0.037(2) -0.031(2) -0.0155(19) 0.061(3)
C25 0.0428(18) 0.0415(19) 0.0295(17) -0.0080(15) 0.0018(15) -0.0018(16)
C26 0.057(2) 0.088(3) 0.053(2) -0.016(2) 0.011(2) 0.011(2)

_geom_special_details            
;
All esds (except the esd in the dihedral angle between two l.s. planes)
are estimated using the full covariance matrix. The cell esds are taken
into account individually in the estimation of esds in distances, angles
and torsion angles; correlations between esds in cell parameters are only
used when they are defined by crystal symmetry. An approximate (isotropic)
treatment of cell esds is used for estimating esds involving l.s. planes.
;

loop_
_geom_bond_atom_site_label_1
_geom_bond_atom_site_label_2
_geom_bond_distance
_geom_bond_site_symmetry_2
_geom_bond_publ_flag
Zn1 N1 2.030(2) 3_676 ?
Zn1 N1 2.030(2) . ?
Zn1 N2 2.046(2) 3_676 ?
Zn1 N2 2.046(2) . ?
O1 C17 1.200(4) . ?
O2 C17 1.339(4) . ?
O2 C18 1.434(5) . ?
O3 C25 1.202(3) . ?
O4 C25 1.342(4) . ?
O4 C26 1.440(4) . ?
N1 C2 1.377(4) . ?
N1 C5 1.382(4) . ?
N2 C7 1.371(4) . ?
N2 C10 1.384(4) . ?
C1 C10 1.396(4) 3_676 ?
C1 C2 1.418(4) . ?
C1 C11 1.489(4) . ?
C2 C3 1.441(4) . ?
C3 C4 1.321(4) . ?
C3 H3A 0.9300 . ?
C4 C5 1.429(4) . ?
C4 H4A 0.9300 . ?
C5 C6 1.403(4) . ?
C6 C7 1.400(4) . ?
C6 C19 1.506(4) . ?
C7 C8 1.453(4) . ?
C8 C9 1.324(4) . ?
C8 H8A 0.9300 . ?
C9 C10 1.455(4) . ?
C9 H9A 0.9300 . ?
C10 C1 1.396(4) 3_676 ?
C11 C12 1.391(4) . ?
C11 C16 1.403(4) . ?
C12 C13 1.384(4) . ?
C12 H12A 0.9300 . ?
C13 C14 1.396(4) . ?
C13 H13A 0.9300 . ?
C14 C15 1.392(4) . ?
C14 C17 1.480(5) . ?
C15 C16 1.367(4) . ?
C15 H15A 0.9300 . ?
C16 H16A 0.9300 . ?
C18 H18A 0.9600 . ?
C18 H18B 0.9600 . ?
C18 H18C 0.9600 . ?
C19 C20 1.368(4) . ?
C19 C24 1.393(5) . ?
C20 C21 1.371(4) . ?
C20 H20A 0.9300 . ?
C21 C22 1.387(4) . ?
C21 H21A 0.9300 . ?
C22 C23 1.369(4) . ?
C22 C25 1.475(4) . ?
C23 C24 1.398(5) . ?
C23 H23A 0.9300 . ?
C24 H24A 0.9300 . ?
C26 H26A 0.9600 . ?
C26 H26B 0.9600 . ?
C26 H26C 0.9600 . ?

loop_
_geom_angle_atom_site_label_1
_geom_angle_atom_site_label_2
_geom_angle_atom_site_label_3
_geom_angle
_geom_angle_site_symmetry_1
_geom_angle_site_symmetry_3
_geom_angle_publ_flag
N1 Zn1 N1 180.000(1) 3_676 . ?
N1 Zn1 N2 90.27(9) 3_676 3_676 ?
N1 Zn1 N2 89.73(9) . 3_676 ?
N1 Zn1 N2 89.73(9) 3_676 . ?
N1 Zn1 N2 90.27(9) . . ?
N2 Zn1 N2 180.0 3_676 . ?
C17 O2 C18 114.7(3) . . ?
C25 O4 C26 116.4(3) . . ?
C2 N1 C5 105.6(2) . . ?
C2 N1 Zn1 127.86(19) . . ?
C5 N1 Zn1 126.5(2) . . ?
C7 N2 C10 106.0(2) . . ?
C7 N2 Zn1 126.74(19) . . ?
C10 N2 Zn1 127.00(19) . . ?
C10 C1 C2 125.9(3) 3_676 . ?
C10 C1 C11 116.5(3) 3_676 . ?
C2 C1 C11 117.6(3) . . ?
N1 C2 C1 124.4(3) . . ?
N1 C2 C3 109.4(3) . . ?
C1 C2 C3 126.1(3) . . ?
C4 C3 C2 107.5(3) . . ?
C4 C3 H3A 126.3 . . ?
C2 C3 H3A 126.3 . . ?
C3 C4 C5 108.1(3) . . ?
C3 C4 H4A 126.0 . . ?
C5 C4 H4A 126.0 . . ?
N1 C5 C6 125.2(3) . . ?
N1 C5 C4 109.5(3) . . ?
C6 C5 C4 125.3(3) . . ?
C7 C6 C5 126.0(3) . . ?
C7 C6 C19 117.7(3) . . ?
C5 C6 C19 116.2(3) . . ?
N2 C7 C6 125.1(3) . . ?
N2 C7 C8 109.9(3) . . ?
C6 C7 C8 125.0(3) . . ?
C9 C8 C7 107.2(3) . . ?
C9 C8 H8A 126.4 . . ?
C7 C8 H8A 126.4 . . ?
C8 C9 C10 107.9(3) . . ?
C8 C9 H9A 126.0 . . ?
C10 C9 H9A 126.0 . . ?
N2 C10 C1 125.0(3) . 3_676 ?
N2 C10 C9 109.0(2) . . ?
C1 C10 C9 126.0(3) 3_676 . ?
C12 C11 C16 117.4(3) . . ?
C12 C11 C1 122.3(3) . . ?
C16 C11 C1 120.2(3) . . ?
C13 C12 C11 122.1(3) . . ?
C13 C12 H12A 118.9 . . ?
C11 C12 H12A 118.9 . . ?
C12 C13 C14 118.8(3) . . ?
C12 C13 H13A 120.6 . . ?
C14 C13 H13A 120.6 . . ?
C15 C14 C13 120.0(3) . . ?
C15 C14 C17 118.0(3) . . ?
C13 C14 C17 122.0(3) . . ?
C16 C15 C14 120.1(3) . . ?
C16 C15 H15A 120.0 . . ?
C14 C15 H15A 120.0 . . ?
C15 C16 C11 121.4(3) . . ?
C15 C16 H16A 119.3 . . ?
C11 C16 H16A 119.3 . . ?
O1 C17 O2 123.6(3) . . ?
O1 C17 C14 124.0(3) . . ?
O2 C17 C14 112.4(3) . . ?
O2 C18 H18A 109.5 . . ?
O2 C18 H18B 109.5 . . ?
H18A C18 H18B 109.5 . . ?
O2 C18 H18C 109.5 . . ?
H18A C18 H18C 109.5 . . ?
H18B C18 H18C 109.5 . . ?
C20 C19 C24 117.9(3) . . ?
C20 C19 C6 122.1(3) . . ?
C24 C19 C6 119.9(3) . . ?
C19 C20 C21 121.0(3) . . ?
C19 C20 H20A 119.5 . . ?
C21 C20 H20A 119.5 . . ?
C20 C21 C22 121.5(3) . . ?
C20 C21 H21A 119.3 . . ?
C22 C21 H21A 119.3 . . ?
C23 C22 C21 118.5(3) . . ?
C23 C22 C25 121.3(3) . . ?
C21 C22 C25 120.1(3) . . ?
C22 C23 C24 119.9(4) . . ?
C22 C23 H23A 120.1 . . ?
C24 C23 H23A 120.1 . . ?
C19 C24 C23 121.1(3) . . ?
C19 C24 H24A 119.4 . . ?
C23 C24 H24A 119.4 . . ?
O3 C25 O4 122.8(3) . . ?
O3 C25 C22 124.8(3) . . ?
O4 C25 C22 112.4(3) . . ?
O4 C26 H26A 109.5 . . ?
O4 C26 H26B 109.5 . . ?
H26A C26 H26B 109.5 . . ?
O4 C26 H26C 109.5 . . ?
H26A C26 H26C 109.5 . . ?
H26B C26 H26C 109.5 . . ?

_diffrn_measured_fraction_theta_max 0.977
_diffrn_reflns_theta_full        25.03
_diffrn_measured_fraction_theta_full 0.977
_refine_diff_density_max         0.944
_refine_diff_density_min         -0.309
_refine_diff_density_rms         0.088
