####################################################################### 
# 
# This file contains crystal structure data downloaded from the 
# Cambridge Structural Database (CSD) hosted by the Cambridge 
# Crystallographic Data Centre (CCDC).
# 
# Full information about CCDC data access policies and citation 
# guidelines are available at http://www.ccdc.cam.ac.uk/access/V1 
# 
# Audit and citation data items may have been added by the CCDC. 
# Please retain this information to preserve the provenance of 
# this file and to allow appropriate attribution of the data. 
# 
#######################################################################

data_6
_audit_block_doi                 10.5517/ccth3q3
_database_code_depnum_ccdc_archive 'CCDC 759305'
loop_
_citation_id
_citation_doi
_citation_year
1 10.1039/b919675g 2010
_audit_update_record             
;
2009-12-21 deposited with the CCDC.	2024-07-10 downloaded from the CCDC.
;
#TrackingRef 'CrystallographicData.cif'

#==============================================================================
_audit_creation_date             08-09-30
_audit_creation_method           CRYSTALS_ver_12.86

_oxford_structure_analysis_title 5731
_chemical_name_systematic        ?
_chemical_melting_point          'not measured'

loop_
_squeeze_void_nr
_platon_squeeze_void_average_x
_platon_squeeze_void_average_y
_platon_squeeze_void_average_z
_platon_squeeze_void_volume
_platon_squeeze_void_count_electrons
_platon_squeeze_void_content
1 0.129 -0.030 -0.127 3991 412 ' '

_platon_squeeze_details          
;
The discrete Fourier transform of the void region were treated as
contributions to the A and B parts of the calculated structure factors.
;

_cell_length_a                   26.09860(10)
_cell_length_b                   22.3068(3)
_cell_length_c                   13.8496(3)
_cell_angle_alpha                90
_cell_angle_beta                 90
_cell_angle_gamma                90
_cell_volume                     8062.9(2)

_symmetry_cell_setting           Orthorhombic
_symmetry_space_group_name_H-M   'P n n a '
_symmetry_space_group_name_Hall  '-P 2a 2bc'
loop_
_symmetry_equiv_pos_as_xyz
x,y,z
-x,-y,-z
-x,y+1/2,z+1/2
x,-y+1/2,-z+1/2
x+1/2,-y+1/2,z+1/2
-x+1/2,y+1/2,-z+1/2
-x+1/2,-y,z
x+1/2,y,-z

loop_
_atom_type_symbol
_atom_type_scat_dispersion_real
_atom_type_scat_dispersion_imag
_atom_type_scat_Cromer_Mann_a1
_atom_type_scat_Cromer_Mann_b1
_atom_type_scat_Cromer_Mann_a2
_atom_type_scat_Cromer_Mann_b2
_atom_type_scat_Cromer_Mann_a3
_atom_type_scat_Cromer_Mann_b3
_atom_type_scat_Cromer_Mann_a4
_atom_type_scat_Cromer_Mann_b4
_atom_type_scat_Cromer_Mann_c
_atom_type_scat_source
C 0.0033 0.0016 2.3100 20.8439 1.0200 10.2075 1.5886 0.5687 0.8650 51.6512
0.2156 'International Tables Vol C 4.2.6.8 and 6.1.1.4'
H 0.0000 0.0000 0.4930 10.5109 0.3229 26.1257 0.1402 3.1424 0.0408 57.7998
0.0030 'International Tables Vol C 4.2.6.8 and 6.1.1.4'
Co 0.3494 0.9721 12.2841 4.2791 7.3409 0.2784 4.0034 13.5359 2.3488 71.1692
1.0118 'International Tables Vol C 4.2.6.8 and 6.1.1.4'
N 0.0061 0.0033 12.2126 0.0057 3.1322 9.8933 2.0125 28.9975 1.1663 0.5826
-11.5290 'International Tables Vol C 4.2.6.8 and 6.1.1.4'
O 0.0106 0.0060 3.0485 13.2771 2.2868 5.7011 1.5463 0.3239 0.8670 32.9089
0.2508 'International Tables Vol C 4.2.6.8 and 6.1.1.4'


_cell_formula_units_Z            4

# Given Formula = C65 H56 Co3 N3 O18.75
# Dc = 1.12 Fooo = 2308.00 Mu = 6.69 M = 677.98
# Found Formula = C56 H32 Co3 O16
# Dc = 0.94 FOOO = 2308.00 Mu = 6.56 M = 568.83

_chemical_formula_sum            'C56 H32 Co3 O16'
_chemical_formula_moiety         'C56 H32 Co3 O16'
_chemical_compound_source        .
_chemical_formula_weight         1137.66


_cell_measurement_reflns_used    9966
_cell_measurement_theta_min      5
_cell_measurement_theta_max      27
_cell_measurement_temperature    150

_exptl_crystal_description       block
_exptl_crystal_colour            clear_intense_purple
_exptl_crystal_size_min          0.08
_exptl_crystal_size_mid          0.14
_exptl_crystal_size_max          0.22

_exptl_crystal_density_diffrn    0.937
_exptl_crystal_density_meas      'not measured'
_exptl_crystal_density_method    'not measured'
# Non-dispersive F(000):
_exptl_crystal_F_000             2308
_exptl_absorpt_coefficient_mu    0.656

# Sheldrick geometric approximatio 0.91 0.95
_exptl_absorpt_correction_type   multi-scan
_exptl_absorpt_process_details   'DENZO/SCALEPACK (Otwinowski & Minor, 1997)'
_exptl_absorpt_correction_T_min  0.74
_exptl_absorpt_correction_T_max  0.95
# For a Kappa CCD, set Tmin to 1.0 and
# Tmax to the ratio of max:min frame scales in scale_all.log
_diffrn_measurement_device       'Nonius KappaCCD'
_diffrn_measurement_device_type  Area
_diffrn_radiation_monochromator  graphite
_diffrn_radiation_type           'Mo K\a'
_diffrn_radiation_wavelength     0.71073
_diffrn_measurement_method       \w/2\q

# If a reference occurs more than once, delete the author
# and date from subsequent references.
_computing_data_collection       'COLLECT (Nonius, 1997-2001).'
_computing_cell_refinement       'DENZO/SCALEPACK (Otwinowski & Minor, 1997)'
_computing_data_reduction        'DENZO/SCALEPACK (Otwinowski & Minor, 1997)'
_computing_structure_solution    'SIR92 (Altomare et al., 1994)'
_computing_structure_refinement  'CRYSTALS (Betteridge et al., 2003)'
_computing_publication_material  'CRYSTALS (Betteridge et al., 2003)'
_computing_molecular_graphics    'CAMERON (Watkin et al., 1996)'

_diffrn_standards_interval_time  .
_diffrn_standards_interval_count .
_diffrn_standards_number         0
_diffrn_standards_decay_%        .

_diffrn_ambient_temperature      150
_diffrn_reflns_number            143130
_reflns_number_total             9176
_diffrn_reflns_av_R_equivalents  0.091
# Number of reflections with Friedels Law is 9176
# Number of reflections without Friedels Law is 17556
# Theoretical number of reflections is about 9288


_diffrn_reflns_theta_min         5.198
_diffrn_reflns_theta_max         27.528
_diffrn_measured_fraction_theta_max 0.988

_diffrn_reflns_theta_full        26.978
_diffrn_measured_fraction_theta_full 0.992


_diffrn_reflns_limit_h_min       -33
_diffrn_reflns_limit_h_max       33
_diffrn_reflns_limit_k_min       -28
_diffrn_reflns_limit_k_max       28
_diffrn_reflns_limit_l_min       -17
_diffrn_reflns_limit_l_max       17
_reflns_limit_h_min              0
_reflns_limit_h_max              33
_reflns_limit_k_min              -28
_reflns_limit_k_max              0
_reflns_limit_l_min              -17
_reflns_limit_l_max              17

_oxford_diffrn_Wilson_B_factor   2.67
_oxford_diffrn_Wilson_scale      24.83

_atom_sites_solution_primary     direct #heavy,direct,difmap,geom
# _atom_sites_solution_secondary difmap
_atom_sites_solution_hydrogens   geom

_refine_diff_density_min         -0.65
_refine_diff_density_max         0.83


# The current dictionary definitions do not cover the
# situation where the reflections used for refinement were
# selected by a user-defined sigma threshold


# The values actually used during refinement
_oxford_reflns_threshold_expression_ref I>3.0\s(I)
_refine_ls_number_reflns         7670
_refine_ls_number_restraints     0
_refine_ls_number_parameters     339
_oxford_refine_ls_R_factor_ref   0.0707
_refine_ls_wR_factor_ref         0.0753
_refine_ls_goodness_of_fit_ref   1.0007
_refine_ls_shift/su_max          0.000721


# The values computed from all data
_oxford_reflns_number_all        9272
_refine_ls_R_factor_all          0.0808
_refine_ls_wR_factor_all         0.0852

# The values computed with a 2 sigma cutoff - a la SHELX
_reflns_threshold_expression     I>2.0\s(I)
_reflns_number_gt                8078
_refine_ls_R_factor_gt           0.0732
_refine_ls_wR_factor_gt          0.0765

# choose from: rm (reference molecule of known chirality),
# ad (anomolous dispersion - Flack), rmad (rm and ad),
# syn (from synthesis), unk (unknown) or . (not applicable).
_chemical_absolute_configuration .


_refine_ls_structure_factor_coef F
_refine_ls_matrix_type           full
_refine_ls_hydrogen_treatment    none # none, undef, noref, refall,
# refxyz, refU, constr or mixed
_refine_ls_weighting_scheme      calc
_refine_ls_weighting_details     
;
Method, part 1, Chebychev polynomial, (Watkin, 1994, Prince, 1982)
[weight] = 1.0/[A~0~*T~0~(x)+A~1~*T~1~(x) ... +A~n-1~]*T~n-1~(x)]
where A~i~ are the Chebychev coefficients listed below and x= Fcalc/Fmax
Method = Robust Weighting (Prince, 1982)
W = [weight] * [1-(deltaF/6*sigmaF)^2^]^2^
A~i~ are:
1.39 1.05 0.824
;

# Uequiv = arithmetic mean of Ui i.e. Ueqiv = (U1+U2+U3)/3

# Replace last . with number of unfound hydrogen atomsattached to an atom.

# ..._refinement_flags_...
# . no refinement constraints S special position constraint on site
# G rigid group refinement of site R riding atom
# D distance or angle restraint on site T thermal displacement constraints
# U Uiso or Uij restraint (rigid bond) P partial occupancy constraint


loop_
_atom_site_label
_atom_site_type_symbol
_atom_site_fract_x
_atom_site_fract_y
_atom_site_fract_z
_atom_site_U_iso_or_equiv
_atom_site_occupancy
_atom_site_adp_type
_atom_site_refinement_flags_posn
_atom_site_refinement_flags_adp
_atom_site_refinement_flags_occupancy
_atom_site_disorder_assembly
_atom_site_disorder_group
_oxford_atom_site_special_shape
_atom_site_attached_hydrogens
Co1 Co 0.406975(19) 0.2500 0.2500 0.0362 1.0000 Uani S T . . . . .
O2 O 0.40899(8) 0.32136(9) 0.35178(13) 0.0465 1.0000 Uani . . . . . . .
Co3 Co 0.407571(14) 0.409833(18) 0.27397(3) 0.0421 1.0000 Uani . . . . . . .
O4 O 0.34322(8) 0.38790(10) 0.20555(15) 0.0531 1.0000 Uani . . . . . . .
C5 C 0.32857(12) 0.33958(16) 0.1699(2) 0.0480 1.0000 Uani . . . . . . .
O6 O 0.35089(9) 0.29094(11) 0.17234(16) 0.0668 1.0000 Uani . . . . . . .
C7 C 0.27812(12) 0.34045(15) 0.1163(2) 0.0542 1.0000 Uani . . . . . . .
C8 C 0.25235(13) 0.39333(15) 0.0997(3) 0.0607 1.0000 Uani . . . . . . .
C9 C 0.20611(13) 0.39284(17) 0.0513(3) 0.0690 1.0000 Uani . . . . . . .
C10 C 0.18397(13) 0.34078(17) 0.0183(3) 0.0626 1.0000 Uani . . . . . . .
C11 C 0.13338(13) 0.34065(16) -0.0312(3) 0.0629 1.0000 Uani . . . . . . .
C12 C 0.11841(15) 0.3881(2) -0.0887(4) 0.0877 1.0000 Uani . . . . . . .
C13 C 0.07096(15) 0.3871(2) -0.1345(3) 0.0825 1.0000 Uani . . . . . . .
C14 C 0.03805(13) 0.33944(15) -0.1229(3) 0.0585 1.0000 Uani . . . . . . .
C15 C -0.01376(13) 0.33985(17) -0.1719(2) 0.0548 1.0000 Uani . . . . . . .
O16 O -0.02816(9) 0.38827(11) -0.20864(19) 0.0692 1.0000 Uani . . . . . . .
O17 O -0.03662(10) 0.29145(12) -0.17141(17) 0.0697 1.0000 Uani . . . . . . .
C18 C 0.05395(15) 0.29216(17) -0.0688(3) 0.0757 1.0000 Uani . . . . . . .
C19 C 0.10027(16) 0.29327(18) -0.0219(3) 0.0825 1.0000 Uani . . . . . . .
C20 C 0.21071(15) 0.28817(17) 0.0332(3) 0.0801 1.0000 Uani . . . . . . .
C21 C 0.25711(15) 0.28821(17) 0.0817(3) 0.0764 1.0000 Uani . . . . . . .
O22 O 0.39100(10) 0.40556(11) 0.41985(15) 0.0651 1.0000 Uani . . . . . . .
C23 C 0.39654(11) 0.35015(15) 0.4256(2) 0.0452 1.0000 Uani . . . . . . .
C24 C 0.39074(12) 0.31934(15) 0.5212(2) 0.0489 1.0000 Uani . . . . . . .
C25 C 0.37534(16) 0.35216(18) 0.6016(2) 0.0689 1.0000 Uani . . . . . . .
C26 C 0.37162(17) 0.32368(16) 0.6904(2) 0.0685 1.0000 Uani . . . . . . .
C27 C 0.38350(13) 0.26461(15) 0.7011(2) 0.0537 1.0000 Uani . . . . . . .
C28 C 0.39808(14) 0.23223(16) 0.6200(2) 0.0572 1.0000 Uani . . . . . . .
C29 C 0.40167(13) 0.25977(15) 0.5316(2) 0.0520 1.0000 Uani . . . . . . .
O30 O 0.40150(11) 0.49662(11) 0.24498(18) 0.0679 1.0000 Uani . . . . . . .
C31 C 0.4370(2) 0.5247(2) 0.2846(3) 0.0783 1.0000 Uani . . . . . . .
O32 O 0.47191(15) 0.50098(15) 0.3315(3) 0.1144 1.0000 Uani . . . . . . .
C33 C 0.43627(17) 0.59296(17) 0.2747(3) 0.0680 1.0000 Uani . . . . . . .
C34 C 0.47824(17) 0.62708(18) 0.2992(3) 0.0796 1.0000 Uani . . . . . . .
C35 C 0.47825(17) 0.68727(19) 0.2883(3) 0.0804 1.0000 Uani . . . . . . .
C36 C 0.43393(17) 0.71692(18) 0.2564(3) 0.0717 1.0000 Uani . . . . . . .
C37 C 0.39228(19) 0.6824(2) 0.2319(4) 0.0841 1.0000 Uani . . . . . . .
C38 C 0.39256(18) 0.6208(2) 0.2407(3) 0.0812 1.0000 Uani . . . . . . .
H81 H 0.2664 0.4289 0.1208 0.0710 1.0000 Uiso R . . . . . .
H91 H 0.1887 0.4291 0.0406 0.0803 1.0000 Uiso R . . . . . .
H121 H 0.1403 0.4206 -0.0974 0.1052 1.0000 Uiso R . . . . . .
H131 H 0.0607 0.4198 -0.1743 0.0961 1.0000 Uiso R . . . . . .
H181 H 0.0329 0.2586 -0.0628 0.0903 1.0000 Uiso R . . . . . .
H191 H 0.1099 0.2610 0.0170 0.0967 1.0000 Uiso R . . . . . .
H201 H 0.1981 0.2514 0.0112 0.0936 1.0000 Uiso R . . . . . .
H211 H 0.2741 0.2520 0.0928 0.0893 1.0000 Uiso R . . . . . .
H251 H 0.3670 0.3944 0.5976 0.0815 1.0000 Uiso R . . . . . .
H261 H 0.3608 0.3454 0.7450 0.0829 1.0000 Uiso R . . . . . .
H281 H 0.4059 0.1910 0.6244 0.0669 1.0000 Uiso R . . . . . .
H291 H 0.4115 0.2370 0.4779 0.0620 1.0000 Uiso R . . . . . .
H341 H 0.5075 0.6077 0.3252 0.0950 1.0000 Uiso R . . . . . .
H351 H 0.5081 0.7096 0.3022 0.0945 1.0000 Uiso R . . . . . .
H371 H 0.3630 0.7013 0.2100 0.1026 1.0000 Uiso R . . . . . .
H381 H 0.3637 0.5981 0.2239 0.0948 1.0000 Uiso R . . . . . .
loop_
_atom_site_aniso_label
_atom_site_aniso_U_11
_atom_site_aniso_U_22
_atom_site_aniso_U_33
_atom_site_aniso_U_23
_atom_site_aniso_U_13
_atom_site_aniso_U_12
Co1 0.0268(3) 0.0462(3) 0.0356(3) 0.0025(2) 0.0000 0.0000
O2 0.0502(13) 0.0604(13) 0.0289(11) -0.0017(9) -0.0005(9) 0.0045(10)
Co3 0.0357(3) 0.0475(3) 0.0429(3) 0.00093(16) 0.00164(17) -0.00241(17)
O4 0.0406(12) 0.0576(15) 0.0611(13) 0.0083(11) -0.0112(10) 0.0009(10)
C5 0.0427(18) 0.056(2) 0.0448(17) 0.0039(15) -0.0085(14) 0.0070(17)
O6 0.0673(16) 0.0692(17) 0.0640(15) -0.0158(12) -0.0320(12) 0.0226(13)
C7 0.0433(18) 0.063(2) 0.0566(19) 0.0020(16) -0.0091(15) 0.0007(17)
C8 0.051(2) 0.0447(19) 0.086(2) 0.0078(17) -0.0184(18) -0.0040(15)
C9 0.049(2) 0.061(2) 0.098(3) 0.0092(19) -0.0282(19) 0.0041(17)
C10 0.0446(19) 0.069(2) 0.075(2) 0.0053(18) -0.0185(17) -0.0012(18)
C11 0.048(2) 0.063(2) 0.078(2) 0.0069(18) -0.0210(18) -0.0057(17)
C12 0.055(2) 0.080(3) 0.129(4) 0.030(3) -0.040(2) -0.019(2)
C13 0.059(2) 0.076(3) 0.113(3) 0.024(2) -0.031(2) -0.013(2)
C14 0.0434(18) 0.059(2) 0.074(2) 0.0017(17) -0.0174(16) -0.0093(16)
C15 0.0474(19) 0.056(2) 0.061(2) -0.0006(16) -0.0124(16) -0.0176(18)
O16 0.0474(14) 0.0578(16) 0.1024(19) 0.0038(14) -0.0305(13) -0.0075(11)
O17 0.0719(16) 0.0744(18) 0.0630(14) 0.0184(12) -0.0298(12) -0.0269(14)
C18 0.071(3) 0.052(2) 0.104(3) 0.009(2) -0.038(2) -0.0169(18)
C19 0.083(3) 0.058(2) 0.107(3) 0.016(2) -0.051(2) -0.011(2)
C20 0.072(3) 0.055(2) 0.113(3) -0.002(2) -0.045(2) -0.001(2)
C21 0.079(3) 0.051(2) 0.099(3) -0.0008(19) -0.034(2) 0.0125(19)
O22 0.1025(19) 0.0494(16) 0.0433(12) 0.0001(10) 0.0121(12) 0.0042(12)
C23 0.0449(18) 0.053(2) 0.0378(17) 0.0028(15) -0.0016(13) 0.0010(14)
C24 0.0527(19) 0.057(2) 0.0374(16) -0.0031(14) 0.0038(14) -0.0003(15)
C25 0.096(3) 0.061(2) 0.049(2) 0.0007(17) 0.0082(18) 0.011(2)
C26 0.104(3) 0.063(2) 0.0389(18) 0.0008(15) 0.0137(19) 0.013(2)
C27 0.065(2) 0.056(2) 0.0404(16) 0.0020(14) 0.0001(15) -0.0017(16)
C28 0.083(3) 0.0536(19) 0.0351(18) -0.0040(14) -0.0081(15) 0.0048(17)
C29 0.064(2) 0.059(2) 0.0333(16) -0.0067(14) -0.0050(14) 0.0035(16)
O30 0.093(2) 0.0460(14) 0.0644(15) 0.0064(11) 0.0032(13) -0.0140(13)
C31 0.091(3) 0.073(3) 0.071(2) 0.010(2) 0.003(2) 0.009(3)
O32 0.136(3) 0.080(2) 0.128(3) 0.0213(19) -0.041(2) 0.013(2)
C33 0.081(3) 0.062(2) 0.061(2) -0.0057(17) -0.0098(19) 0.005(2)
C34 0.083(3) 0.059(3) 0.097(3) 0.002(2) -0.024(2) 0.002(2)
C35 0.076(3) 0.061(3) 0.105(3) -0.011(2) -0.011(2) -0.007(2)
C36 0.085(3) 0.055(2) 0.074(2) -0.0031(18) -0.001(2) -0.001(2)
C37 0.072(3) 0.069(3) 0.111(3) 0.010(2) -0.012(2) 0.002(2)
C38 0.075(3) 0.078(3) 0.090(3) 0.000(2) -0.014(2) -0.001(2)

_refine_ls_extinction_method     None
_oxford_refine_ls_scale          0.2428(5)
loop_
_geom_bond_atom_site_label_1
_geom_bond_site_symmetry_1
_geom_bond_atom_site_label_2
_geom_bond_site_symmetry_2
_geom_bond_distance
_geom_bond_publ_flag
Co1 . O2 4_555 2.127(2) yes
Co1 . O17 5_555 2.051(2) yes
Co1 . O17 8_555 2.051(2) yes
Co1 . O6 4_555 2.033(2) yes
Co1 . O2 . 2.127(2) yes
Co1 . O6 . 2.033(2) yes
O2 . Co3 . 2.249(2) yes
O2 . C23 . 1.250(4) yes
Co3 . O16 8_555 1.966(2) yes
Co3 . O4 . 1.989(2) yes
Co3 . O22 . 2.068(2) yes
Co3 . C23 . 2.503(3) yes
Co3 . O30 . 1.984(2) yes
Co3 . O32 . 2.754(4) yes
O4 . C5 . 1.245(4) yes
C5 . O6 . 1.232(4) yes
C5 . C7 . 1.512(5) yes
C7 . C8 . 1.377(5) yes
C7 . C21 . 1.374(5) yes
C8 . C9 . 1.380(5) yes
C8 . H81 . 0.921 no
C9 . C10 . 1.375(5) yes
C9 . H91 . 0.939 no
C10 . C11 . 1.488(5) yes
C10 . C20 . 1.381(5) yes
C11 . C12 . 1.381(5) yes
C11 . C19 . 1.371(5) yes
C12 . C13 . 1.391(5) yes
C12 . H121 . 0.932 no
C13 . C14 . 1.377(5) yes
C13 . H131 . 0.952 no
C14 . C15 . 1.513(5) yes
C14 . C18 . 1.359(5) yes
C15 . O16 . 1.252(4) yes
C15 . O17 . 1.234(4) yes
C18 . C19 . 1.372(5) yes
C18 . H181 . 0.933 no
C19 . H191 . 0.934 no
C20 . 