####################################################################### 
# 
# This file contains crystal structure data downloaded from the 
# Cambridge Structural Database (CSD) hosted by the Cambridge 
# Crystallographic Data Centre (CCDC).
# 
# Full information about CCDC data access policies and citation 
# guidelines are available at http://www.ccdc.cam.ac.uk/access/V1 
# 
# Audit and citation data items may have been added by the CCDC. 
# Please retain this information to preserve the provenance of 
# this file and to allow appropriate attribution of the data. 
# 
#######################################################################

data_Compound3
_audit_block_doi                 10.5517/cc6kn2g
_database_code_depnum_ccdc_archive 'CCDC 195705'
loop_
_citation_id
_citation_doi
_citation_year
1 10.1016/S0020-1693(02)01335-X 2003
_audit_update_record             
;
2002-10-18 deposited with the CCDC.	2024-07-10 downloaded from the CCDC.
;

_audit_creation_method           SHELXL
_chemical_name_systematic        
;  
?  
;
_chemical_name_common            ?
_chemical_formula_moiety         ?
_chemical_formula_structural     ?
_chemical_formula_analytical     ?
_chemical_formula_sum            'C50 H75 B2 Co F8 N6 O17.50'
_chemical_formula_weight         1272.71
_chemical_melting_point          ?
_chemical_compound_source        ?

loop_
_atom_type_symbol
_atom_type_description
_atom_type_scat_dispersion_real
_atom_type_scat_dispersion_imag
_atom_type_scat_source
C C 0.0181 0.0091 'International Tables Vol C Tables 4.2.6.8 and 6.1.1.4'
H H 0.0000 0.0000 'International Tables Vol C Tables 4.2.6.8 and 6.1.1.4'
B B 0.0090 0.0039 'International Tables Vol C Tables 4.2.6.8 and 6.1.1.4'
N N 0.0311 0.0180 'International Tables Vol C Tables 4.2.6.8 and 6.1.1.4'
O O 0.0492 0.0322 'International Tables Vol C Tables 4.2.6.8 and 6.1.1.4'
F F 0.0727 0.0534 'International Tables Vol C Tables 4.2.6.8 and 6.1.1.4'
Co Co -2.3653 3.6143 'International Tables Vol C Tables 4.2.6.8 and 6.1.1.4'

_symmetry_cell_setting           Cubic
_symmetry_space_group_name_H-M   Pa-3

loop_
_symmetry_equiv_pos_as_xyz
'x, y, z'
'-x+1/2, -y, z+1/2'
'-x, y+1/2, -z+1/2'
'x+1/2, -y+1/2, -z'
'z, x, y'
'z+1/2, -x+1/2, -y'
'-z+1/2, -x, y+1/2'
'-z, x+1/2, -y+1/2'
'y, z, x'
'-y, z+1/2, -x+1/2'
'y+1/2, -z+1/2, -x'
'-y+1/2, -z, x+1/2'
'-x, -y, -z'
'x-1/2, y, -z-1/2'
'x, -y-1/2, z-1/2'
'-x-1/2, y-1/2, z'
'-z, -x, -y'
'-z-1/2, x-1/2, y'
'z-1/2, x, -y-1/2'
'z, -x-1/2, y-1/2'
'-y, -z, -x'
'y, -z-1/2, x-1/2'
'-y-1/2, z-1/2, x'
'y-1/2, z, -x-1/2'

_cell_length_a                   18.3520(9)
_cell_length_b                   18.3520(9)
_cell_length_c                   18.3520(9)
_cell_angle_alpha                90.00
_cell_angle_beta                 90.00
_cell_angle_gamma                90.00
_cell_volume                     6180.9(5)
_cell_formula_units_Z            4
_cell_measurement_temperature    293(2)
_cell_measurement_reflns_used    28
_cell_measurement_theta_min      10.81
_cell_measurement_theta_max      27.99

_exptl_crystal_description       prisms
_exptl_crystal_colour            Pink
_exptl_crystal_size_max          0.22
_exptl_crystal_size_mid          0.20
_exptl_crystal_size_min          0.20
_exptl_crystal_density_meas      ?
_exptl_crystal_density_diffrn    1.368
_exptl_crystal_density_method    ?
_exptl_crystal_F_000             2664
_exptl_absorpt_coefficient_mu    3.001
_exptl_absorpt_correction_type   Ellipsoidal
_exptl_absorpt_correction_T_min  0.3648
_exptl_absorpt_correction_T_max  0.5990

_exptl_special_details           
;  
?  
;

_diffrn_ambient_temperature      293(2)
_diffrn_radiation_wavelength     1.54178
_diffrn_radiation_type           CuK\a
_diffrn_radiation_source         'fine-focus sealed tube'
_diffrn_radiation_monochromator  graphite
_diffrn_measurement_device       'Siemens P4'
_diffrn_measurement_method       '\w scans'
_diffrn_standards_number         3
_diffrn_standards_interval_count 97
_diffrn_standards_interval_time  ?
_diffrn_standards_decay_%        ?
_diffrn_reflns_number            1592
_diffrn_reflns_av_R_equivalents  0.0598
_diffrn_reflns_av_sigmaI/netI    0.0895
_diffrn_reflns_limit_h_min       0
_diffrn_reflns_limit_h_max       14
_diffrn_reflns_limit_k_min       1
_diffrn_reflns_limit_k_max       20
_diffrn_reflns_limit_l_min       -14
_diffrn_reflns_limit_l_max       0
_diffrn_reflns_theta_min         4.17
_diffrn_reflns_theta_max         59.99
_reflns_number_total             1505
_reflns_number_observed          699
_reflns_observed_criterion       >2sigma(I)

_computing_data_collection       'Siemens XSCANS'
_computing_cell_refinement       'Siemens XSCANS'
_computing_data_reduction        'Siemens SHELXTL'
_computing_structure_solution    'SHELXS-86 (Sheldrick, 1990)'
_computing_structure_refinement  'SHELXL-93 (Sheldrick, 1993)'
_computing_molecular_graphics    'Siemens SHELXTL'
_computing_publication_material  'Siemens SHELXTL'

_refine_special_details          
;  
Refinement on F^2^ for ALL reflections except for 23 with very negative F^2^  
or flagged by the user for potential systematic errors.  Weighted R-factors  
wR and all goodnesses of fit S are based on F^2^, conventional R-factors R  
are based on F, with F set to zero for negative F^2^. The observed criterion  
of F^2^ > 2sigma(F^2^) is used only for calculating _R_factor_obs etc. and is  
not relevant to the choice of reflections for refinement.  R-factors based  
on F^2^ are statistically about twice as large as those based on F, and R-  
factors based on ALL data will be even larger.  
;

_refine_ls_structure_factor_coef Fsqd
_refine_ls_matrix_type           full
_refine_ls_weighting_scheme      
'calc w=1/[\s^2^(Fo^2^)+(0.1079P)^2^+0.0000P] where P=(Fo^2^+2Fc^2^)/3'
_atom_sites_solution_primary     direct
_atom_sites_solution_secondary   difmap
_atom_sites_solution_hydrogens   geom
_refine_ls_hydrogen_treatment    ?
_refine_ls_extinction_method     SHELXL
_refine_ls_extinction_coef       0.00004(3)
_refine_ls_extinction_expression Fc^*^=kFc[1+0.001xFc^2^\l^3^/sin(2\q)]^-1/4^
_refine_ls_number_reflns         1482
_refine_ls_number_parameters     88
_refine_ls_number_restraints     0
_refine_ls_R_factor_all          0.1192
_refine_ls_R_factor_obs          0.0674
_refine_ls_wR_factor_all         0.1992
_refine_ls_wR_factor_obs         0.1655
_refine_ls_goodness_of_fit_all   0.811
_refine_ls_goodness_of_fit_obs   1.106
_refine_ls_restrained_S_all      0.887
_refine_ls_restrained_S_obs      1.106
_refine_ls_shift/esd_max         0.000
_refine_ls_shift/esd_mean        0.000

loop_
_atom_site_label
_atom_site_type_symbol
_atom_site_fract_x
_atom_site_fract_y
_atom_site_fract_z
_atom_site_U_iso_or_equiv
_atom_site_thermal_displace_type
_atom_site_occupancy
_atom_site_calc_flag
_atom_site_refinement_flags
_atom_site_disorder_group
Co Co 0.5000 0.5000 0.0000 0.0416(5) Uani 1 d S .
N1 N 0.5642(2) 0.5077(2) 0.3062(2) 0.0522(11) Uani 1 d . .
C2 C 0.5125(3) 0.4573(3) 0.2966(3) 0.068(2) Uani 1 d . .
H2A H 0.4975(3) 0.4298(3) 0.3364(3) 0.082 Uiso 1 calc R .
C3 C 0.4808(4) 0.4448(4) 0.2305(3) 0.071(2) Uani 1 d . .
H3A H 0.4444(4) 0.4098(4) 0.2263(3) 0.085 Uiso 1 calc R .
O4 O 0.4720(2) 0.4748(2) 0.1066(2) 0.0575(10) Uani 1 d . .
C4 C 0.5028(3) 0.4846(2) 0.1681(3) 0.0499(12) Uani 1 d . .
C5 C 0.5593(3) 0.5379(3) 0.1794(3) 0.0572(15) Uani 1 d . .
H5A H 0.5766(3) 0.5656(3) 0.1407(3) 0.069 Uiso 1 calc R .
C6 C 0.5867(3) 0.5471(3) 0.2466(3) 0.0603(15) Uani 1 d . .
H6A H 0.6229(3) 0.5820(3) 0.2531(3) 0.072 Uiso 1 calc R .
C7 C 0.6005(3) 0.5187(3) 0.3773(3) 0.058(2) Uani 1 d . .
H7A H 0.6211(3) 0.5673(3) 0.3789(3) 0.069 Uiso 1 calc R .
H7B H 0.6401(3) 0.4841(3) 0.3821(3) 0.069 Uiso 1 calc R .
C8 C 0.5476(3) 0.5091(3) 0.4418(3) 0.0444(10) Uani 1 d . .
O10 O 0.3553(2) 0.3553(2) 0.3553(2) 0.057(2) Uani 1 d S .

loop_
_atom_site_aniso_label
_atom_site_aniso_U_11
_atom_site_aniso_U_22
_atom_site_aniso_U_33
_atom_site_aniso_U_23
_atom_site_aniso_U_13
_atom_site_aniso_U_12
Co 0.0416(5) 0.0416(5) 0.0416(5) 0.0044(6) -0.0044(6) -0.0044(6)
N1 0.053(3) 0.059(3) 0.044(2) -0.005(2) 0.003(2) -0.012(2)
C2 0.085(5) 0.074(4) 0.045(3) 0.009(3) -0.009(3) -0.037(3)
C3 0.089(5) 0.083(4) 0.043(3) 0.009(3) -0.011(3) -0.033(3)
O4 0.053(2) 0.070(3) 0.050(2) 0.000(2) -0.016(2) -0.014(2)
C4 0.057(3) 0.041(3) 0.052(3) -0.002(2) -0.002(3) 0.005(3)
C5 0.054(3) 0.084(4) 0.033(3) -0.002(3) -0.004(2) -0.020(3)
C6 0.062(4) 0.071(4) 0.048(3) -0.004(3) -0.003(3) -0.023(3)
C7 0.054(3) 0.079(4) 0.041(3) -0.007(2) -0.002(2) -0.009(3)
C8 0.043(3) 0.046(3) 0.045(3) -0.005(2) -0.001(2) -0.009(2)
O10 0.057(2) 0.057(2) 0.057(2) 0.023(2) 0.023(2) 0.023(2)

_geom_special_details            
;  
All esds (except the esd in the dihedral angle between two l.s. planes)  
are estimated using the full covariance matrix.  The cell esds are taken  
into account individually in the estimation of esds in distances, angles  
and torsion angles; correlations between esds in cell parameters are only  
used when they are defined by crystal symmetry.  An approximate (isotropic)  
treatment of cell esds is used for estimating esds involving l.s. planes.  
;

loop_
_geom_bond_atom_site_label_1
_geom_bond_atom_site_label_2
_geom_bond_distance
_geom_bond_site_symmetry_2
_geom_bond_publ_flag
Co O4 2.075(4) 22_565 ?
Co O4 2.075(4) . ?
Co O4 2.075(4) 10_655 ?
Co O4 2.075(4) 7_564 ?
Co O4 2.075(4) 19_656 ?
Co O4 2.075(4) 13_665 ?
N1 C2 1.338(6) . ?
N1 C6 1.375(7) . ?
N1 C7 1.478(6) . ?
C2 C3 1.365(7) . ?
C3 C4 1.417(7) . ?
O4 C4 1.275(6) . ?
C4 C5 1.441(7) . ?
C5 C6 1.341(7) . ?
C7 C8 1.540(7) . ?
C8 C8 1.391(5) 21_666 ?
C8 C8 1.391(5) 17_666 ?

loop_
_geom_angle_atom_site_label_1
_geom_angle_atom_site_label_2
_geom_angle_atom_site_label_3
_geom_angle
_geom_angle_site_symmetry_1
_geom_angle_site_symmetry_3
_geom_angle_publ_flag
O4 Co O4 88.2(2) 22_565 . ?
O4 Co O4 180.0 22_565 10_655 ?
O4 Co O4 91.8(2) . 10_655 ?
O4 Co O4 88.2(2) 22_565 7_564 ?
O4 Co O4 91.83(15) . 7_564 ?
O4 Co O4 91.83(15) 10_655 7_564 ?
O4 Co O4 91.8(2) 22_565 19_656 ?
O4 Co O4 88.2(2) . 19_656 ?
O4 Co O4 88.2(2) 10_655 19_656 ?
O4 Co O4 180.0 7_564 19_656 ?
O4 Co O4 91.8(2) 22_565 13_665 ?
O4 Co O4 180.0 . 13_665 ?
O4 Co O4 88.2(2) 10_655 13_665 ?
O4 Co O4 88.2(2) 7_564 13_665 ?
O4 Co O4 91.83(15) 19_656 13_665 ?
C2 N1 C6 118.2(4) . . ?
C2 N1 C7 122.0(4) . . ?
C6 N1 C7 119.7(4) . . ?
N1 C2 C3 122.4(5) . . ?
C2 C3 C4 120.7(5) . . ?
C4 O4 Co 133.8(3) . . ?
O4 C4 C3 121.0(5) . . ?
O4 C4 C5 122.9(4) . . ?
C3 C4 C5 116.0(5) . . ?
C6 C5 C4 119.2(5) . . ?
C5 C6 N1 123.5(5) . . ?
N1 C7 C8 112.3(4) . . ?
C8 C8 C8 119.95(3) 21_666 17_666 ?
C8 C8 C7 120.3(5) 21_666 . ?
C8 C8 C7 119.7(5) 17_666 . ?

_refine_diff_density_max         0.335
_refine_diff_density_min         -0.391
_refine_diff_density_rms         0.060


