####################################################################### 
# 
# This file contains crystal structure data downloaded from the 
# Cambridge Structural Database (CSD) hosted by the Cambridge 
# Crystallographic Data Centre (CCDC).
# 
# Full information about CCDC data access policies and citation 
# guidelines are available at http://www.ccdc.cam.ac.uk/access/V1 
# 
# Audit and citation data items may have been added by the CCDC. 
# Please retain this information to preserve the provenance of 
# this file and to allow appropriate attribution of the data. 
# 
#######################################################################

data_sacu
_audit_block_doi                 10.5517/cc6j832
_database_code_depnum_ccdc_archive 'CCDC 194373'
loop_
_citation_id
_citation_doi
_citation_year
1 10.1016/S0277-5387(02)01380-3 2003
_audit_update_record             
;
2002-09-25 deposited with the CCDC.	2024-07-10 downloaded from the CCDC.
;

_audit_creation_method           SHELXL-97
_chemical_name_systematic        
; 
? 
;
_chemical_name_common            ?
_chemical_melting_point          ?
_chemical_formula_moiety         ?
_chemical_formula_sum            'C144 H120 B0 Cu4 F24 N16 P4 S8'
_chemical_formula_weight         3165.08

loop_
_atom_type_symbol
_atom_type_description
_atom_type_scat_dispersion_real
_atom_type_scat_dispersion_imag
_atom_type_scat_source
C C 0.0181 0.0091 'International Tables Vol C Tables 4.2.6.8 and 6.1.1.4'
H H 0.0000 0.0000 'International Tables Vol C Tables 4.2.6.8 and 6.1.1.4'
B B 0.0090 0.0039 'International Tables Vol C Tables 4.2.6.8 and 6.1.1.4'
N N 0.0311 0.0180 'International Tables Vol C Tables 4.2.6.8 and 6.1.1.4'
F F 0.0727 0.0534 'International Tables Vol C Tables 4.2.6.8 and 6.1.1.4'
S S 0.3331 0.5567 'International Tables Vol C Tables 4.2.6.8 and 6.1.1.4'
Cu Cu -1.9646 0.5888 'International Tables Vol C Tables 4.2.6.8 and 6.1.1.4'
P P 0.2955 0.4335 'International Tables Vol C Tables 4.2.6.8 and 6.1.1.4'

_symmetry_cell_setting           Monoclinic
_symmetry_space_group_name_H-M   P2(1)/n

loop_
_symmetry_equiv_pos_as_xyz
'x, y, z'
'-x+1/2, y+1/2, -z+1/2'
'-x, -y, -z'
'x-1/2, -y-1/2, z-1/2'

_cell_length_a                   23.241(6)
_cell_length_b                   18.081(3)
_cell_length_c                   34.189(7)
_cell_angle_alpha                90.00
_cell_angle_beta                 102.706(9)
_cell_angle_gamma                90.00
_cell_volume                     14015(5)
_cell_formula_units_Z            4
_cell_measurement_temperature    100(2)
_cell_measurement_reflns_used    ?
_cell_measurement_theta_min      ?
_cell_measurement_theta_max      ?

_exptl_crystal_description       needle
_exptl_crystal_colour            orange
_exptl_crystal_size_max          0.3
_exptl_crystal_size_mid          0.1
_exptl_crystal_size_min          0.1
_exptl_crystal_density_meas      ?
_exptl_crystal_density_diffrn    1.500
_exptl_crystal_density_method    'not measured'
_exptl_crystal_F_000             6464
_exptl_absorpt_coefficient_mu    2.994
_exptl_absorpt_correction_type   'Empirical, pseudo-azimuthal scan (SADABS)'
_exptl_absorpt_correction_T_min  0.38
_exptl_absorpt_correction_T_max  0.75
_exptl_absorpt_process_details   ?

_exptl_special_details           
; 
? 
;

_diffrn_ambient_temperature      100(2)
_diffrn_radiation_wavelength     1.54178
_diffrn_radiation_type           CuK\a
_diffrn_radiation_source         'fine-focus sealed tube'
_diffrn_radiation_monochromator  graphite
_diffrn_measurement_device_type  'Bruker PROTEUM Area Detector'
_diffrn_measurement_method       ?
_diffrn_detector_area_resol_mean ?
_diffrn_standards_number         ?
_diffrn_standards_interval_count ?
_diffrn_standards_interval_time  ?
_diffrn_standards_decay_%        ?
_diffrn_reflns_number            86092
_diffrn_reflns_av_R_equivalents  0.0345
_diffrn_reflns_av_sigmaI/netI    0.0309
_diffrn_reflns_limit_h_min       -24
_diffrn_reflns_limit_h_max       25
_diffrn_reflns_limit_k_min       -17
_diffrn_reflns_limit_k_max       19
_diffrn_reflns_limit_l_min       -37
_diffrn_reflns_limit_l_max       37
_diffrn_reflns_theta_min         2.10
_diffrn_reflns_theta_max         58.97
_reflns_number_total             19933
_reflns_number_gt                16281
_reflns_threshold_expression     >2sigma(I)

_computing_data_collection       ?
_computing_cell_refinement       ?
_computing_data_reduction        ?
_computing_structure_solution    'SHELXS-97 (Sheldrick, 1997)'
_computing_structure_refinement  'SHELXL-97 (Sheldrick, 1997)'
_computing_molecular_graphics    ?
_computing_publication_material  ?

_refine_special_details          
; 
Refinement of F^2^ against ALL reflections.  The weighted R-factor wR and 
goodness of fit S are based on F^2^, conventional R-factors R are based 
on F, with F set to zero for negative F^2^. The threshold expression of 
F^2^ > 2sigma(F^2^) is used only for calculating R-factors(gt) etc. and is 
not relevant to the choice of reflections for refinement.  R-factors based 
on F^2^ are statistically about twice as large as those based on F, and R- 
factors based on ALL data will be even larger. 
;

_refine_ls_structure_factor_coef Fsqd
_refine_ls_matrix_type           full
_refine_ls_weighting_scheme      calc
_refine_ls_weighting_details     
'calc w=1/[\s^2^(Fo^2^)+(0.0488P)^2^+12.7741P] where P=(Fo^2^+2Fc^2^)/3'
_atom_sites_solution_primary     direct
_atom_sites_solution_secondary   difmap
_atom_sites_solution_hydrogens   geom
_refine_ls_hydrogen_treatment    mixed
_refine_ls_extinction_method     none
_refine_ls_extinction_coef       ?
_refine_ls_number_reflns         19933
_refine_ls_number_parameters     1809
_refine_ls_number_restraints     0
_refine_ls_R_factor_all          0.0464
_refine_ls_R_factor_gt           0.0354
_refine_ls_wR_factor_ref         0.0987
_refine_ls_wR_factor_gt          0.0921
_refine_ls_goodness_of_fit_ref   1.018
_refine_ls_restrained_S_all      1.018
_refine_ls_shift/su_max          0.007
_refine_ls_shift/su_mean         0.000

loop_
_atom_site_label
_atom_site_type_symbol
_atom_site_fract_x
_atom_site_fract_y
_atom_site_fract_z
_atom_site_U_iso_or_equiv
_atom_site_adp_type
_atom_site_occupancy
_atom_site_symmetry_multiplicity
_atom_site_calc_flag
_atom_site_refinement_flags
_atom_site_disorder_assembly
_atom_site_disorder_group
Cu1 Cu 0.577385(17) 1.10307(2) 0.350709(11) 0.02288(10) Uani 1 1 d . . .
Cu2 Cu 0.925108(16) 0.87215(2) 0.636479(11) 0.02134(10) Uani 1 1 d . . .
Cu3 Cu 0.568907(16) 0.62209(2) 0.361941(10) 0.02014(10) Uani 1 1 d . . .
Cu4 Cu 0.913340(16) 0.35653(2) 0.641255(10) 0.02159(10) Uani 1 1 d . . .
S1 S 0.64374(3) 1.19701(4) 0.374034(18) 0.02095(15) Uani 1 1 d . . .
S2 S 0.60640(3) 1.01077(4) 0.313852(18) 0.02022(15) Uani 1 1 d . . .
S3 S 0.86052(3) 0.96553(4) 0.608301(18) 0.02057(15) Uani 1 1 d . . .
S4 S 0.89076(3) 0.79273(4) 0.677778(19) 0.01979(15) Uani 1 1 d . . .
S5 S 0.63627(3) 0.71486(3) 0.387903(18) 0.01797(15) Uani 1 1 d . . .
S6 S 0.60193(3) 0.54387(3) 0.319237(18) 0.01898(15) Uani 1 1 d . . .
S7 S 0.84688(3) 0.44919(4) 0.614455(18) 0.01951(15) Uani 1 1 d . . .
S8 S 0.87577(3) 0.26306(4) 0.673658(18) 0.02011(15) Uani 1 1 d . . .
P1 P 0.46978(3) 0.09516(4) 0.88581(2) 0.02402(17) Uani 1 1 d . . .
F11 F 0.46915(8) 0.02548(10) 0.91480(5) 0.0443(5) Uani 1 1 d . . .
F12 F 0.47091(7) 0.16450(9) 0.85692(5) 0.0396(4) Uani 1 1 d . . .
F13 F 0.52207(7) 0.05741(10) 0.86964(5) 0.0438(5) Uani 1 1 d . . .
F14 F 0.41740(8) 0.13200(11) 0.90207(6) 0.0527(5) Uani 1 1 d . . .
F15 F 0.51697(8) 0.13487(9) 0.92062(5) 0.0421(4) Uani 1 1 d . . .
F16 F 0.42223(8) 0.05547(9) 0.85106(5) 0.0418(4) Uani 1 1 d . . .
P2 P 0.53996(3) 0.15054(4) 0.61231(2) 0.02502(17) Uani 1 1 d . . .
F21 F 0.52973(7) 0.08785(9) 0.64323(5) 0.0347(4) Uani 1 1 d . . .
F22 F 0.55005(9) 0.21308(10) 0.58141(6) 0.0526(5) Uani 1 1 d . . .
F23 F 0.58426(8) 0.09610(10) 0.59642(6) 0.0491(5) Uani 1 1 d . . .
F24 F 0.49504(7) 0.20377(9) 0.62801(5) 0.0351(4) Uani 1 1 d . . .
F25 F 0.59382(7) 0.18319(9) 0.64507(5) 0.0414(4) Uani 1 1 d . . .
F26 F 0.48628(7) 0.11769(9) 0.57903(5) 0.0388(4) Uani 1 1 d . . .
P3 P 0.04198(4) 0.10761(4) 0.62338(2) 0.0347(2) Uani 1 1 d . . .
F31 F -0.00950(8) 0.05840(11) 0.63374(6) 0.0509(5) Uani 1 1 d . . .
F32 F 0.09196(11) 0.15726(13) 0.61201(8) 0.0868(8) Uani 1 1 d . . .
F33 F 0.08606(8) 0.07926(11) 0.66290(6) 0.0571(5) Uani 1 1 d . . .
F34 F -0.00327(11) 0.13592(11) 0.58373(5) 0.0636(6) Uani 1 1 d . . .
F35 F 0.06087(13) 0.03948(12) 0.59961(7) 0.0859(8) Uani 1 1 d . . .
F36 F 0.02311(8) 0.17532(10) 0.64759(5) 0.0452(5) Uani 1 1 d . . .
P4 P 0.96475(3) 0.14745(4) 0.88065(2) 0.02200(16) Uani 1 1 d . . .
F41 F 1.01421(7) 0.11018(9) 0.91538(4) 0.0313(4) Uani 1 1 d . . .
F42 F 0.91472(7) 0.18431(9) 0.84608(5) 0.0321(4) Uani 1 1 d . . .
F43 F 0.96411(7) 0.07498(8) 0.85347(5) 0.0305(4) Uani 1 1 d . . .
F44 F 0.96552(7) 0.22014(9) 0.90778(5) 0.0365(4) Uani 1 1 d . . .
F45 F 0.91430(7) 0.11220(10) 0.90028(5) 0.0379(4) Uani 1 1 d . . .
F46 F 1.01514(6) 0.18325(9) 0.86143(4) 0.0289(4) Uani 1 1 d . . .
N1 N 0.93842(9) 0.35570(12) 0.58734(6) 0.0201(5) Uani 1 1 d . . .
C2 C 0.97808(12) 0.31024(15) 0.57820(8) 0.0254(6) Uani 1 1 d . . .
H2A H 0.9921 0.2719 0.5959 0.031 Uiso 1 1 calc R . .
C3 C 1.00012(12) 0.31672(16) 0.54323(8) 0.0279(7) Uani 1 1 d . . .
H3A H 1.0279 0.2832 0.5381 0.034 Uiso 1 1 calc R . .
C4 C 0.98031(12) 0.37264(15) 0.51686(8) 0.0246(6) Uani 1 1 d . . .
H4A H 0.9941 0.3771 0.4934 0.030 Uiso 1 1 calc R . .
C5 C 0.93873(11) 0.42365(15) 0.52553(7) 0.0204(6) Uani 1 1 d . . .
C6 C 0.91790(12) 0.48549(15) 0.50060(8) 0.0247(6) Uani 1 1 d . . .
H6A H 0.9308 0.4926 0.4770 0.030 Uiso 1 1 calc R . .
C7 C 0.87923(12) 0.53439(15) 0.51114(8) 0.0261(7) Uani 1 1 d . . .
H7A H 0.8670 0.5755 0.4951 0.031 Uiso 1 1 calc R . .
C8 C 0.85762(11) 0.52293(14) 0.54626(8) 0.0220(6) Uani 1 1 d . . .
H8A H 0.8306 0.5561 0.5528 0.026 Uiso 1 1 calc R . .
C9 C 0.87610(11) 0.46344(14) 0.57085(7) 0.0177(6) Uani 1 1 d . . .
C10 C 0.91807(11) 0.41311(14) 0.56139(7) 0.0181(6) Uani 1 1 d . . .
C11 C 0.78097(11) 0.39148(15) 0.59238(8) 0.0216(6) Uani 1 1 d . . .
H11A H 0.7939 0.3467 0.5813 0.026 Uiso 1 1 calc R . .
H11B H 0.7612 0.3772 0.6134 0.026 Uiso 1 1 calc R . .
C12 C 0.73781(11) 0.43191(14) 0.55989(7) 0.0181(6) Uani 1 1 d . . .
C13 C 0.69580(11) 0.47930(15) 0.56925(8) 0.0226(6) Uani 1 1 d . . .
H13A H 0.6936 0.4858 0.5959 0.027 Uiso 1 1 calc R . .
C14 C 0.65711(11) 0.51709(15) 0.53918(8) 0.0228(6) Uani 1 1 d . . .
H14A H 0.6290 0.5485 0.5457 0.027 Uiso 1 1 calc R . .
C15 C 0.66020(11) 0.50823(14) 0.49942(8) 0.0195(6) Uani 1 1 d . . .
H15A H 0.6339 0.5337 0.4795 0.023 Uiso 1 1 calc R . .
C16 C 0.70230(11) 0.46147(14) 0.48882(7) 0.0170(6) Uani 1 1 d . . .
C17 C 0.74039(11) 0.42287(14) 0.51970(7) 0.0179(6) Uani 1 1 d . . .
H17A H 0.7680 0.3905 0.5132 0.021 Uiso 1 1 calc R . .
C18 C 0.70778(11) 0.45378(13) 0.44617(7) 0.0176(6) Uani 1 1 d . . .
C19 C 0.76296(12) 0.44324(15) 0.43699(8) 0.0242(6) Uani 1 1 d . . .
H19A H 0.7965 0.4410 0.4576 0.029 Uiso 1 1 calc R . .
C20 C 0.76823(12) 0.43612(17) 0.39752(8) 0.0316(7) Uani 1 1 d . . .
H20A H 0.8053 0.4297 0.3919 0.038 Uiso 1 1 calc R . .
C21 C 0.71861(12) 0.43854(16) 0.36652(8) 0.0272(7) Uani 1 1 d . . .
H21A H 0.7224 0.4338 0.3401 0.033 Uiso 1 1 calc R . .
C22 C 0.66306(11) 0.44802(14) 0.37472(7) 0.0192(6) Uani 1 1 d . . .
C23 C 0.65794(11) 0.45628(13) 0.41448(7) 0.0178(6) Uani 1 1 d . . .
H23A H 0.6209 0.4635 0.4200 0.021 Uiso 1 1 calc R . .
C24 C 0.60900(11) 0.44980(14) 0.34096(7) 0.0211(6) Uani 1 1 d . . .
H24A H 0.5742 0.4377 0.3510 0.025 Uiso 1 1 calc R . .
H24B H 0.6128 0.4138 0.3206 0.025 Uiso 1 1 calc R . .
N25 N 0.48721(9) 0.61568(11) 0.32514(6) 0.0192(5) Uani 1 1 d . . .
C26 C 0.43926(12) 0.64795(15) 0.33207(8) 0.0259(6) Uani 1 1 d . . .
H26A H 0.4428 0.6764 0.3552 0.031 Uiso 1 1 calc R . .
C27 C 0.38330(12) 0.64143(17) 0.30633(9) 0.0324(7) Uani 1 1 d . . .
H27A H 0.3507 0.6646 0.3126 0.039 Uiso 1 1 calc R . .
C28 C 0.37735(12) 0.60073(16) 0.27203(9) 0.0309(7) Uani 1 1 d . . .
H28A H 0.3408 0.5970 0.2544 0.037 Uiso 1 1 calc R . .
C29 C 0.42703(12) 0.56422(15) 0.26340(8) 0.0244(6) Uani 1 1 d . . .
C30 C 0.42453(13) 0.52070(16) 0.22870(8) 0.0289(7) Uani 1 1 d . . .
H30A H 0.3888 0.5150 0.2103 0.035 Uiso 1 1 calc R . .
C31 C 0.47420(13) 0.48682(15) 0.22187(8) 0.0284(7) Uani 1 1 d . . .
H31A H 0.4720 0.4586 0.1988 0.034 Uiso 1 1 calc R . .
C32 C 0.52855(12) 0.49458(14) 0.24964(7) 0.0239(6) Uani 1 1 d . . .
H32A H 0.5620 0.4714 0.2447 0.029 Uiso 1 1 calc R . .
C33 C 0.53278(11) 0.53570(14) 0.28370(7) 0.0198(6) Uani 1 1 d . . .
C34 C 0.48192(11) 0.57297(14) 0.29137(7) 0.0189(6) Uani 1 1 d . . .
C66 C 0.92633(11) 0.91695(14) 0.55431(7) 0.0195(6) Uani 1 1 d . . .
N101 N 0.55093(9) 0.61504(11) 0.41771(6) 0.0183(5) Uani 1 1 d . . .
C102 C 0.51233(11) 0.56839(15) 0.42716(8) 0.0230(6) Uani 1 1 d . . .
H10A H 0.4969 0.5315 0.4089 0.028 Uiso 1 1 calc R . .
C103 C 0.49347(12) 0.57170(16) 0.46349(8) 0.0257(7) Uani 1 1 d . . .
H10B H 0.4663 0.5376 0.4689 0.031 Uiso 1 1 calc R . .
C104 C 0.51534(11) 0.62538(15) 0.49071(8) 0.0239(6) Uani 1 1 d . . .
H10C H 0.5039 0.6276 0.5151 0.029 Uiso 1 1 calc R . .
C105 C 0.55577(11) 0.67791(14) 0.48155(7) 0.0197(6) Uani 1 1 d . . .
C106 C 0.57830(12) 0.73789(15) 0.50739(8) 0.0234(6) Uani 1 1 d . . .
H10D H 0.5672 0.7430 0.5318 0.028 Uiso 1 1 calc R . .
C107 C 0.61601(12) 0.78800(15) 0.49666(8) 0.0236(6) Uani 1 1 d . . .
H10E H 0.6298 0.8275 0.5135 0.028 Uiso 1 1 calc R . .
C108 C 0.63413(11) 0.78000(14) 0.46006(7) 0.0199(6) Uani 1 1 d . . .
H10F H 0.6605 0.8138 0.4533 0.024 Uiso 1 1 calc R . .
C109 C 0.61329(11) 0.72307(14) 0.43428(7) 0.0175(6) Uani 1 1 d . . .
C110 C 0.57290(11) 0.67079(14) 0.44434(7) 0.0177(6) Uani 1 1 d . . .
C111 C 0.70330(11) 0.65592(15) 0.40364(8) 0.0221(6) Uani 1 1 d . . .
H11C H 0.6920 0.6091 0.4136 0.027 Uiso 1 1 calc R . .
H11D H 0.7197 0.6457 0.3804 0.027 Uiso 1 1 calc R . .
C112 C 0.75007(11) 0.69137(14) 0.43567(8) 0.0199(6) Uani 1 1 d . . .
C113 C 0.79198(11) 0.73941(15) 0.42608(8) 0.0223(6) Uani 1 1 d . . .
H11E H 0.7914 0.7502 0.3994 0.027 Uiso 1 1 calc R . .
C114 C 0.83456(11) 0.77105(15) 0.45645(8) 0.0232(6) Uani 1 1 d . . .
H11F H 0.8632 0.8017 0.4499 0.028 Uiso 1 1 calc R . .
C115 C 0.83478(11) 0.75738(14) 0.49647(8) 0.0209(6) Uani 1 1 d . . .
H11G H 0.8635 0.7790 0.5164 0.025 Uiso 1 1 calc R . .
C116 C 0.79239(11) 0.71154(14) 0.50710(8) 0.0186(6) Uani 1 1 d . . .
C117 C 0.75117(11) 0.67741(14) 0.47609(7) 0.0195(6) Uani 1 1 d . . .
H11H H 0.7239 0.6447 0.4826 0.023 Uiso 1 1 calc R . .
C118 C 0.78796(11) 0.70140(14) 0.54970(8) 0.0188(6) Uani 1 1 d . . .
C119 C 0.73313(11) 0.68925(15) 0.55914(8) 0.0247(6) Uani 1 1 d . . .
H11I H 0.6996 0.6867 0.5385 0.030 Uiso 1 1 calc R . .
C120 C 0.72747(12) 0.68091(17) 0.59833(8) 0.0318(7) Uani 1 1 d . . .
H12A H 0.6905 0.6729 0.6039 0.038 Uiso 1 1 calc R . .
C121 C 0.77723(12) 0.68454(16) 0.62938(8) 0.0278(7) Uani 1 1 d . . .
H12B H 0.7735 0.6792 0.6558 0.033 Uiso 1 1 calc R . .
C122 C 0.83262(11) 0.69611(14) 0.62127(8) 0.0201(6) Uani 1 1 d . . .
C123 C 0.83777(11) 0.70459(14) 0.58164(8) 0.0197(6) Uani 1 1 d . . .
H12C H 0.8748 0.7125 0.5762 0.024 Uiso 1 1 calc R . .
C124 C 0.88599(11) 0.69927(15) 0.65541(8) 0.0229(6) Uani 1 1 d . . .
H12D H 0.9213 0.6889 0.6457 0.027 Uiso 1 1 calc R . .
H12E H 0.8827 0.6625 0.6755 0.027 Uiso 1 1 calc R . .
N125 N 1.00592(9) 0.86559(12) 0.67415(6) 0.0197(5) Uani 1 1 d . . .
C126 C 1.05433(12) 0.89834(15) 0.66795(8) 0.0246(6) Uani 1 1 d . . .
H12F H 1.0513 0.9277 0.6453 0.030 Uiso 1 1 calc R . .
C127 C 1.10955(12) 0.89068(16) 0.69394(9) 0.0296(7) Uani 1 1 d . . .
H12G H 1.1424 0.9139 0.6882 0.036 Uiso 1 1 calc R . .
C128 C 1.11502(12) 0.84899(15) 0.72778(8) 0.0265(7) Uani 1 1 d . . .
H12H H 1.1515 0.8443 0.7455 0.032 Uiso 1 1 calc R . .
C129 C 1.06475(11) 0.81277(14) 0.73586(7) 0.0206(6) Uani 1 1 d . . .
C130 C 1.06616(12) 0.76907(15) 0.77050(8) 0.0239(6) Uani 1 1 d . . .
H13B H 1.1015 0.7632 0.7893 0.029 Uiso 1 1 calc R . .
C131 C 1.01640(12) 0.73569(15) 0.77661(8) 0.0238(6) Uani 1 1 d . . .
H13C H 1.0179 0.7079 0.7997 0.029 Uiso 1 1 calc R . .
C132 C 0.96246(12) 0.74298(14) 0.74817(7) 0.0210(6) Uani 1 1 d . . .
H13D H 0.9289 0.7193 0.7525 0.025 Uiso 1 1 calc R . .
C133 C 0.95928(11) 0.78478(14) 0.71414(7) 0.0187(6) Uani 1 1 d . . .
C134 C 1.01046(11) 0.82170(14) 0.70754(7) 0.0191(6) Uani 1 1 d . . .
N200 N 0.94541(9) 0.86133(11) 0.58158(6) 0.0192(5) Uani 1 1 d . . .
C201 C 0.98330(11) 0.81183(15) 0.57331(8) 0.0249(6) Uani 1 1 d . . .
H20B H 0.9969 0.7749 0.5920 0.030 Uiso 1 1 calc R . .
C202 C 1.00387(12) 0.81262(16) 0.53757(9) 0.0303(7) Uani 1 1 d . . .
H20C H 1.0302 0.7767 0.5329 0.036 Uiso 1 1 calc R . .
C203 C 0.98488(12) 0.86664(16) 0.50985(8) 0.0273(7) Uani 1 1 d . . .
H20D H 0.9978 0.8674 0.4860 0.033 Uiso 1 1 calc R . .
C204 C 0.94545(11) 0.92150(15) 0.51760(8) 0.0233(6) Uani 1 1 d . . .
C205 C 0.92530(12) 0.98087(16) 0.49102(8) 0.0282(7) Uani 1 1 d . . .
H20E H 0.9377 0.9843 0.4670 0.034 Uiso 1 1 calc R . .
C206 C 0.88793(12) 1.03301(16) 0.50021(8) 0.0294(7) Uani 1 1 d . . .
H20F H 0.8755 1.0720 0.4827 0.035 Uiso 1 1 calc R . .
C207 C 0.86804(12) 1.02783(15) 0.53641(8) 0.0251(6) Uani 1 1 d . . .
H20G H 0.8420 1.0631 0.5423 0.030 Uiso 1 1 calc R . .
C208 C 0.88682(11) 0.97127(14) 0.56297(7) 0.0195(6) Uani 1 1 d . . .
C209 C 0.79405(11) 0.90661(15) 0.59099(8) 0.0224(6) Uani 1 1 d . . .
H20H H 0.8062 0.8598 0.5815 0.027 Uiso 1 1 calc R . .
H20I H 0.7764 0.8963 0.6136 0.027 Uiso 1 1 calc R . .
C210 C 0.74823(11) 0.94153(14) 0.55794(8) 0.0201(6) Uani 1 1 d . . .
C211 C 0.70451(11) 0.98743(15) 0.56647(8) 0.0225(6) Uani 1 1 d . . .
H21B H 0.7037 0.9977 0.5930 0.027 Uiso 1 1 calc R . .
C212 C 0.66215(11) 1.01795(15) 0.53568(8) 0.0232(6) Uani 1 1 d . . .
H2