
#######################################################################
#
#                 Cambridge Crystallographic Data Centre
#                                CCDC
#
#######################################################################
#
# If this CIF has been generated from an entry in the Cambridge
# Structural Database, then it will include bibliographic, chemical,
# crystal, experimental, refinement or atomic coordinate data resulting
# from the CCDC's data processing and validation procedures.
#
#######################################################################

data_CSD_CIF_HUZGUE
_audit_creation_date 2003-06-11
_audit_creation_method CSD-ConQuest-V1
_database_code_CSD HUZGUE
_database_code_depnum_ccdc_archive 'CCDC 209977'
_chemical_formula_sum 'C44 H32 P2'
_chemical_formula_moiety
;
C44 H32 P2
;
_journal_coeditor_code "IUCr CF6247"
_journal_coden_Cambridge 1370
_journal_volume 59
_journal_year 2003
_journal_page_first o535
_journal_name_full 'Acta Crystallogr.,Sect.E:Struct.Rep.Online '
loop_
_publ_author_name
"M.D.Jones"
"F.A.A.Paz"
"J.E.Davies"
"B.F.G.Johnson"
_chemical_name_systematic
;
(S)-(-)-2,2'-bis(Diphenylphosphino)-1,1'-binaphthyl
;
_chemical_name_common
;
Teaching Subset: Fundamental Chemistry
;
_cell_volume   1662.405
_exptl_crystal_colour 'white'
_exptl_crystal_density_diffrn 1.244
_exptl_crystal_description 'block'
_exptl_crystal_preparation 'methanol'
_diffrn_ambient_temperature 180
#These two values have been output from a single CSD field.
_refine_ls_R_factor_gt 0.0417
_refine_ls_wR_factor_gt 0.0417
loop_
_citation_database_id_CSD
_citation_special_details
PASRAC "is a stereoisomer of this entry"
XAZGUC "is a racemate of this entry"
_symmetry_cell_setting monoclinic
_symmetry_space_group_name_H-M 'P 21'
_symmetry_Int_Tables_number 4
loop_
_symmetry_equiv_pos_site_id
_symmetry_equiv_pos_as_xyz
1 x,y,z
2 -x,1/2+y,-z
_cell_length_a 9.1206(2)
_cell_length_b 18.7541(7)
_cell_length_c 9.9829(3)
_cell_angle_alpha 90
_cell_angle_beta 103.206(2)
_cell_angle_gamma 90
_cell_formula_units_Z 2
loop_
_atom_type_symbol
_atom_type_radius_bond
C 0.68
H 0.23
P 1.05
loop_
_atom_site_label
_atom_site_type_symbol
_atom_site_fract_x
_atom_site_fract_y
_atom_site_fract_z
P1 P 0.09925(8) 0.82894(4) 0.86920(7)
P2 P 0.04783(8) 0.66685(4) 0.57059(7)
C1 C 0.2926(3) 0.80354(16) 0.9502(3)
C2 C 0.3464(3) 0.73532(18) 0.9371(3)
H1 H 0.27850 0.69880 0.89650
C3 C 0.4990(4) 0.7200(2) 0.9829(3)
H2 H 0.53420 0.67280 0.97480
C4 C 0.5995(4) 0.7728(2) 1.0399(3)
H3 H 0.70350 0.76210 1.07160
C5 C 0.5478(3) 0.8408(2) 1.0505(3)
H4 H 0.61650 0.87760 1.08830
C6 C 0.3958(3) 0.85620(18) 1.0064(3)
H5 H 0.36150 0.90350 1.01460
C7 C 0.0489(3) 0.88919(17) 0.9967(3)
C8 C 0.1054(4) 0.88449(18) 1.1389(3)
H6 H 0.17380 0.84750 1.17580
C9 C 0.0621(5) 0.9335(2) 1.2266(4)
H7 H 0.10210 0.93060 1.32300
C10 C -0.0393(5) 0.9866(2) 1.1729(5)
H8 H -0.06860 1.02030 1.23280
C11 C -0.0982(4) 0.9911(2) 1.0334(4)
H9 H -0.16980 1.02700 0.99740
C12 C -0.0526(4) 0.94328(18) 0.9465(3)
H10 H -0.09140 0.94740 0.85000
C13 C -0.0104(3) 0.74883(15) 0.8877(2)
C14 C 0.0144(3) 0.70897(16) 1.0124(3)
H11 H 0.09080 0.72370 1.08900
C15 C -0.0696(3) 0.64987(16) 1.0237(3)
H12 H -0.04940 0.62340 1.10710
C16 C -0.1864(3) 0.62773(15) 0.9125(3)
C17 C -0.2770(3) 0.56749(16) 0.9217(3)
H13 H -0.25480 0.53890 1.00240
C18 C -0.3952(4) 0.54979(17) 0.8171(3)
H14 H -0.45500 0.50920 0.82520
C19 C -0.4287(3) 0.59126(17) 0.6976(3)
H15 H -0.51340 0.57950 0.62600
C20 C -0.3412(3) 0.64844(16) 0.6825(3)
H16 H -0.36430 0.67540 0.59980
C21 C -0.2164(3) 0.66799(16) 0.7890(2)
C22 C -0.1223(3) 0.72804(14) 0.7773(2)
C23 C -0.1477(3) 0.76698(14) 0.6422(2)
C24 C -0.2449(3) 0.82725(16) 0.6205(2)
C25 C -0.3236(3) 0.85056(16) 0.7199(3)
H17 H -0.31550 0.82400 0.80230
C26 C -0.4107(4) 0.91046(18) 0.6992(3)
H18 H -0.46080 0.92550 0.76790
C27 C -0.4271(4) 0.94995(19) 0.5781(3)
H19 H -0.48830 0.99150 0.56480
C28 C -0.3554(3) 0.92892(17) 0.4792(3)
H20 H -0.36720 0.95610 0.39710
C29 C -0.2636(3) 0.86739(15) 0.4965(3)
C30 C -0.1878(3) 0.84407(16) 0.3957(3)
H21 H -0.19940 0.87000 0.31220
C31 C -0.0985(3) 0.78511(17) 0.4164(3)
H22 H -0.04990 0.77030 0.34650
C32 C -0.0766(3) 0.74545(15) 0.5399(2)
C33 C -0.0651(3) 0.60013(16) 0.4583(3)
C34 C -0.2049(3) 0.61220(17) 0.3717(3)
H23 H -0.24770 0.65860 0.36530
C35 C -0.2830(3) 0.55655(19) 0.2939(3)
H24 H -0.37930 0.56520 0.23570
C36 C -0.2214(4) 0.4891(2) 0.3008(3)
H25 H -0.27440 0.45170 0.24630
C37 C -0.0839(4) 0.47624(19) 0.3862(3)
H26 H -0.04180 0.42970 0.39190
C38 C -0.0060(4) 0.53105(18) 0.4645(3)
H27 H 0.08940 0.52160 0.52350
C39 C 0.1880(3) 0.69237(17) 0.4727(3)
C40 C 0.2258(3) 0.64990(19) 0.3711(3)
H28 H 0.17460 0.60610 0.34590
C41 C 0.3385(4) 0.6715(2) 0.3066(3)
H29 H 0.36420 0.64210 0.23790
C42 C 0.4127(4) 0.7349(2) 0.3413(3)
H30 H 0.48820 0.74970 0.29570
C43 C 0.3772(4) 0.7771(2) 0.4427(4)
H31 H 0.42850 0.82090 0.46740
C44 C 0.2663(3) 0.75509(19) 0.5083(3)
H32 H 0.24380 0.78390 0.57930
#END
