
#######################################################################
#
#                 Cambridge Crystallographic Data Centre
#                                CCDC
#
#######################################################################
#
# If this CIF has been generated from an entry in the Cambridge
# Structural Database, then it will include bibliographic, chemical,
# crystal, experimental, refinement or atomic coordinate data resulting
# from the CCDC's data processing and validation procedures.
#
#######################################################################

data_CSD_CIF_HXACAN11
_audit_creation_date 2000-11-09
_audit_creation_method CSD-ConQuest-V1
_database_code_CSD HXACAN11
_database_code_depnum_ccdc_archive 'CCDC 144376'
_chemical_formula_sum 'C8 H9 N1 O2'
_chemical_formula_moiety
;
C8 H9 N1 O2
;
_journal_coeditor_code "IUCr AV0025"
_journal_coden_Cambridge 622
_journal_volume 56
_journal_year 2000
_journal_page_first 299
_journal_name_full 'Acta Crystallogr.,Sect.B:Struct.Sci. '
loop_
_publ_author_name
"E.V.Boldyreva"
"T.P.Shakhtshneider"
"M.A.Vasilchenko"
"H.Ahsbahs"
"H.Uchtmann"
_chemical_name_systematic
;
N-(4-Hydroxyphenyl)acetamide
;
_chemical_name_common
;
Acetaminophen; p-hydroxyacetanilide; Panadol; Paracetamol; 4-Acetimidophenol; 
DrugBank: DB00316; Teaching Subset: Fundamental Chemistry, Drug Molecules
;
_chemical_melting_point 444
_cell_volume    651.428
_exptl_crystal_colour 'colorless'
_exptl_crystal_density_diffrn 1.541
_exptl_special_details
;
Melting point range 444-445K
monoclinic polymorph I
analgesic and antipyretic drug
;
_exptl_crystal_description 'prism'
_exptl_crystal_preparation 'ethanol/water'
_diffrn_ambient_temperature ?
_diffrn_ambient_pressure 3000000.0
_diffrn_special_details
;
The study was carried out at room temperature,in the range 283-303K

;
#These two values have been output from a single CSD field.
_refine_ls_R_factor_gt 0.0308
_refine_ls_wR_factor_gt 0.0308
_symmetry_cell_setting monoclinic
_symmetry_space_group_name_H-M 'P 21/n'
_symmetry_Int_Tables_number 14
loop_
_symmetry_equiv_pos_site_id
_symmetry_equiv_pos_as_xyz
1 x,y,z
2 1/2-x,1/2+y,1/2-z
3 -x,-y,-z
4 -1/2+x,-1/2-y,-1/2+z
_cell_length_a 6.820(1)
_cell_length_b 8.374(1)
_cell_length_c 11.559(1)
_cell_angle_alpha 90
_cell_angle_beta 99.32(1)
_cell_angle_gamma 90
_cell_formula_units_Z 4
loop_
_atom_type_symbol
_atom_type_radius_bond
C 0.68
H 0.23
N 0.68
O 0.68
loop_
_atom_site_label
_atom_site_type_symbol
_atom_site_fract_x
_atom_site_fract_y
_atom_site_fract_z
O1 O 0.1501(5) 0.95610(18) 0.2223(2)
H1 H 0.051(4) 1.001(4) 0.240(3)
C1 C 0.1206(6) 0.8513(2) 0.1294(2)
C2 C -0.0636(6) 0.8375(2) 0.0586(2)
H2 H -0.177(4) 0.8982(19) 0.0751(6)
C3 C -0.0803(7) 0.7346(2) -0.0364(3)
H3 H -0.202(3) 0.7265(3) -0.0863(11)
C4 C 0.0747(6) 0.6455(2) -0.0587(2)
C5 C 0.2591(5) 0.6553(2) 0.0144(2)
H4 H 0.369(3) 0.5923(19) -0.0001(5)
C6 C 0.2775(6) 0.7597(3) 0.1089(3)
H5 H 0.402(3) 0.7677(3) 0.1606(10)
N1 N 0.0415(6) 0.5455(2) -0.1594(2)
H6 H -0.091(4) 0.5305(4) -0.1916(9)
C7 C 0.1716(8) 0.4700(3) -0.2146(3)
O2 O 0.3522(5) 0.4694(2) -0.1808(2)
C8 C 0.0795(7) 0.3814(3) -0.3234(2)
H7 H 0.088(4) 0.2680(16) -0.3087(8)
H8 H 0.150(2) 0.407(2) -0.3870(11)
H9 H -0.058(2) 0.412(2) -0.3441(11)
#END
