
#######################################################################
#
#                 Cambridge Crystallographic Data Centre
#                                CCDC
#
#######################################################################
#
# If this CIF has been generated from an entry in the Cambridge
# Structural Database, then it will include bibliographic, chemical,
# crystal, experimental, refinement or atomic coordinate data resulting
# from the CCDC's data processing and validation procedures.
#
#######################################################################

data_CSD_CIF_HYDTML
_audit_creation_date 1971-12-31
_audit_creation_method CSD-ConQuest-V1
_database_code_CSD HYDTML
_database_code_depnum_ccdc_archive 'CCDC 1179080'
_chemical_formula_sum 'C4 H20 N2 O4'
_chemical_formula_moiety
;
4(C1 H4 O1),H4 N2
;
_journal_coden_Cambridge 3
_journal_volume 21
_journal_year 1967
_journal_page_first 2669
_journal_name_full 'Acta Chem.Scand. '
loop_
_publ_author_name
"R.Liminga"
"A.M.Sorensen"
_chemical_name_systematic
;
tetra(Methanol) hydrazine
;
_chemical_name_common
;
Teaching Subset: Fundamental Chemistry
;
_chemical_melting_point 203.15
_cell_volume    518.687
_exptl_crystal_density_diffrn 1.03
_diffrn_ambient_temperature ?
_diffrn_special_details
;
The study was carried out at room temperature,in the range 283-303K

;
#These two values have been output from a single CSD field.
_refine_ls_R_factor_gt 0.078
_refine_ls_wR_factor_gt 0.078
_symmetry_cell_setting tetragonal
_symmetry_space_group_name_H-M 'P 42'
_symmetry_Int_Tables_number 77
loop_
_symmetry_equiv_pos_site_id
_symmetry_equiv_pos_as_xyz
1 x,y,z
2 -y,x,1/2+z
3 -x,-y,z
4 y,-x,1/2+z
_cell_length_a 10.418(1)
_cell_length_b 10.418(1)
_cell_length_c 4.779(7)
_cell_angle_alpha 90
_cell_angle_beta 90
_cell_angle_gamma 90
_cell_formula_units_Z 2
loop_
_atom_type_symbol
_atom_type_radius_bond
C 0.68
H 0.20
N 0.68
O 0.68
loop_
_atom_site_label
_atom_site_type_symbol
_atom_site_fract_x
_atom_site_fract_y
_atom_site_fract_z
C1 C 0.27640 0.49860 -0.46920
H1 H 0.11000 0.42000 -0.36000
H2 H 0.25000 0.60000 -0.49000
H3 H 0.32000 0.48000 -0.30000
H4 H 0.35000 0.46000 -0.56000
O1 O 0.17720 0.40550 -0.45720
C2 C 0.16670 0.12420 0.14380
H5 H 0.19000 0.04000 0.10000
H6 H 0.22000 0.24000 0.42000
H7 H 0.08000 0.14000 0.14000
H8 H 0.20000 0.19000 0.08000
O2 O 0.22660 0.15500 0.40780
H9 H 0.08000 0.43000 0.18000
H10 H -0.03000 0.38000 -0.01000
N1 N 0.03120 0.43680 0.00000
N1B N -0.03120 0.56320 0.00000
H9B H -0.08000 0.57000 0.18000
H10B H 0.03000 0.62000 -0.01000
#END
