
#######################################################################
#
#                 Cambridge Crystallographic Data Centre
#                                CCDC
#
#######################################################################
#
# If this CIF has been generated from an entry in the Cambridge
# Structural Database, then it will include bibliographic, chemical,
# crystal, experimental, refinement or atomic coordinate data resulting
# from the CCDC's data processing and validation procedures.
#
#######################################################################

data_CSD_CIF_HYQUIN
_audit_creation_date 1971-12-31
_audit_creation_method CSD-ConQuest-V1
_database_code_CSD HYQUIN
_database_code_depnum_ccdc_archive 'CCDC 1179128'
_chemical_formula_sum 'C6 H6 O2'
_chemical_formula_moiety
;
C6 H6 O2
;
_journal_coeditor_code "IUCr A05375"
_journal_coden_Cambridge 1
_journal_volume 21
_journal_year 1966
_journal_page_first 979
_journal_name_full 'Acta Crystallogr. '
loop_
_publ_author_name
"K.Maartmann-Moe"
_chemical_name_systematic
;
Hydroquinone
;
_chemical_name_common
;
Teaching Subset: Fundamental Chemistry, Symmetry; DrugBank: DB09526
;
_cell_volume    529.721
_exptl_crystal_density_diffrn 1.38
_exptl_special_details
;
monoclinic, gamma polymorph

;
_diffrn_ambient_temperature ?
_diffrn_special_details
;
The study was carried out at room temperature,in the range 283-303K

;
#These two values have been output from a single CSD field.
_refine_ls_R_factor_gt 0.085
_refine_ls_wR_factor_gt 0.085
_symmetry_cell_setting monoclinic
_symmetry_space_group_name_H-M 'P 21/c'
_symmetry_Int_Tables_number 14
loop_
_symmetry_equiv_pos_site_id
_symmetry_equiv_pos_as_xyz
1 x,y,z
2 -x,1/2+y,1/2-z
3 -x,-y,-z
4 x,-1/2-y,-1/2+z
_cell_length_a 8.07
_cell_length_b 5.2
_cell_length_c 13.2
_cell_angle_alpha 90
_cell_angle_beta 107.0
_cell_angle_gamma 90
_cell_formula_units_Z 4
loop_
_atom_type_symbol
_atom_type_radius_bond
C 0.68
H 0.20
O 0.68
loop_
_atom_site_label
_atom_site_type_symbol
_atom_site_fract_x
_atom_site_fract_y
_atom_site_fract_z
C1 C 0.01187 -0.00242 0.10627
C2 C 0.09050 0.18908 0.06660
C3 C -0.07882 -0.19593 0.04131
H1 H -0.00778 -0.18929 0.24971
H2 H 0.15983 0.36014 0.11316
H3 H -0.13667 -0.35295 0.07134
O1 O 0.02621 -0.00089 0.21399
C4 C 0.49136 -0.49471 0.10250
C5 C 0.58358 -0.68524 0.07242
C6 C 0.40756 -0.30742 0.03200
H4 H 0.52478 -0.64521 0.25520
H5 H 0.64711 -0.84735 0.12154
H6 H 0.33825 -0.15216 0.05738
O2 O 0.47791 -0.48216 0.20531
C3B C 0.07882 0.19593 -0.04131
C2B C -0.09050 -0.18908 -0.06660
C1B C -0.01187 0.00242 -0.10627
H3B H 0.13667 0.35295 -0.07134
H2B H -0.15983 -0.36014 -0.11316
O1B O -0.02621 0.00089 -0.21399
H1B H 0.00778 0.18929 -0.24971
C6B C 0.59244 -0.69258 -0.03200
C5B C 0.41642 -0.31476 -0.07242
C4B C 0.50864 -0.50529 -0.10250
H6B H 0.66175 -0.84784 -0.05738
H5B H 0.35289 -0.15265 -0.12154
O2B O 0.52209 -0.51784 -0.20531
H4B H 0.47522 -0.35479 -0.25520
#END
