####################################################################### 
# 
# This file contains crystal structure data downloaded from the 
# Cambridge Structural Database (CSD) hosted by the Cambridge 
# Crystallographic Data Centre (CCDC).
# 
# Full information about CCDC data access policies and citation 
# guidelines are available at http://www.ccdc.cam.ac.uk/access/V1 
# 
# Audit and citation data items may have been added by the CCDC. 
# Please retain this information to preserve the provenance of 
# this file and to allow appropriate attribution of the data. 
# 
#######################################################################

data_Mp-InS-4
_audit_block_doi                 10.5517/ccxspmz
_database_code_depnum_ccdc_archive 'CCDC 857882'
loop_
_citation_id
_citation_doi
_citation_year
1 10.1021/ic200157v 2011
_audit_update_record             
;
2011-12-12 deposited with the CCDC.	2024-07-10 downloaded from the CCDC.
;

_audit_creation_method           SHELXL-97
_chemical_name_systematic        
;
?
;
_chemical_name_common            ?
_chemical_melting_point          ?
_chemical_formula_moiety         ?
_chemical_formula_sum            'C162 H149 Fe4 In20 N29 O8 S38'
_chemical_formula_weight         6368.22

loop_
_atom_type_symbol
_atom_type_description
_atom_type_scat_dispersion_real
_atom_type_scat_dispersion_imag
_atom_type_scat_source
C C 0.0033 0.0016 'International Tables Vol C Tables 4.2.6.8 and 6.1.1.4'
H H 0.0000 0.0000 'International Tables Vol C Tables 4.2.6.8 and 6.1.1.4'
N N 0.0061 0.0033 'International Tables Vol C Tables 4.2.6.8 and 6.1.1.4'
O O 0.0106 0.0060 'International Tables Vol C Tables 4.2.6.8 and 6.1.1.4'
In In -0.7276 1.3100 'International Tables Vol C Tables 4.2.6.8 and 6.1.1.4'
S S 0.1246 0.1234 'International Tables Vol C Tables 4.2.6.8 and 6.1.1.4'
Fe Fe 0.3463 0.8444 'International Tables Vol C Tables 4.2.6.8 and 6.1.1.4'

_symmetry_cell_setting           triclinic
_symmetry_space_group_name_H-M   'P 1 '
_symmetry_space_group_name_Hall  'P 1'

loop_
_symmetry_equiv_pos_as_xyz
'x, y, z'

_cell_length_a                   11.8680(6)
_cell_length_b                   16.1506(8)
_cell_length_c                   28.9425(18)
_cell_angle_alpha                80.757(4)
_cell_angle_beta                 87.066(4)
_cell_angle_gamma                80.195(4)
_cell_volume                     5393.9(5)
_cell_formula_units_Z            1
_cell_measurement_temperature    223(2)
_cell_measurement_reflns_used    22226
_cell_measurement_theta_min      3.0
_cell_measurement_theta_max      27.5

_exptl_crystal_description       Block
_exptl_crystal_colour            Red
_exptl_crystal_size_max          0.40
_exptl_crystal_size_mid          0.24
_exptl_crystal_size_min          0.19
_exptl_crystal_density_meas      ?
_exptl_crystal_density_diffrn    1.947
_exptl_crystal_density_method    'not measured'
_exptl_crystal_F_000             3040
_exptl_absorpt_coefficient_mu    2.771
_exptl_absorpt_correction_type   multi-scan
_exptl_absorpt_correction_T_min  0.4036
_exptl_absorpt_correction_T_max  0.6211
_exptl_absorpt_process_details   'Jacobson, R. (1998) Private communication '
_exptl_special_details           
;
?
;

_diffrn_ambient_temperature      223(2)
_diffrn_radiation_wavelength     0.71075
_diffrn_radiation_type           MoK\a
_diffrn_radiation_source         'fine-focus sealed tube'
_diffrn_radiation_monochromator  graphite
_diffrn_measurement_device_type  'Rigaku Saturn'
_diffrn_measurement_method       \w
_diffrn_detector_area_resol_mean 14.63
_diffrn_standards_number         ?
_diffrn_standards_interval_count ?
_diffrn_standards_interval_time  ?
_diffrn_standards_decay_%        ?
_diffrn_reflns_number            42384
_diffrn_reflns_av_R_equivalents  0.0470
_diffrn_reflns_av_sigmaI/netI    0.1094
_diffrn_reflns_limit_h_min       -14
_diffrn_reflns_limit_h_max       14
_diffrn_reflns_limit_k_min       -19
_diffrn_reflns_limit_k_max       17
_diffrn_reflns_limit_l_min       -34
_diffrn_reflns_limit_l_max       29
_diffrn_reflns_theta_min         3.01
_diffrn_reflns_theta_max         25.00
_reflns_number_total             28586
_reflns_number_gt                21160
_reflns_threshold_expression     >2sigma(I)

_computing_data_collection       ?
_computing_cell_refinement       ?
_computing_data_reduction        ?
_computing_structure_solution    'SHELXS-97 (Sheldrick, 1990)'
_computing_structure_refinement  'SHELXL-97 (Sheldrick, 1997)'
_computing_molecular_graphics    ?
_computing_publication_material  ?

_refine_special_details          
;
Refinement of F^2^ against ALL reflections. The weighted R-factor wR and
goodness of fit S are based on F^2^, conventional R-factors R are based
on F, with F set to zero for negative F^2^. The threshold expression of
F^2^ > 2sigma(F^2^) is used only for calculating R-factors(gt) etc. and is
not relevant to the choice of reflections for refinement. R-factors based
on F^2^ are statistically about twice as large as those based on F, and R-
factors based on ALL data will be even larger.
;

_refine_ls_structure_factor_coef Fsqd
_refine_ls_matrix_type           full
_refine_ls_weighting_scheme      calc
_refine_ls_weighting_details     
'calc w=1/[\s^2^(Fo^2^)+(0.0001P)^2^+150.0000P] where P=(Fo^2^+2Fc^2^)/3'
_atom_sites_solution_primary     direct
_atom_sites_solution_secondary   difmap
_atom_sites_solution_hydrogens   geom
_refine_ls_hydrogen_treatment    constr
_refine_ls_extinction_method     none
_refine_ls_extinction_coef       ?
_refine_ls_abs_structure_details 'Flack H D (1983), Acta Cryst. A39, 876-881'
_refine_ls_abs_structure_Flack   0.0(4)
_refine_ls_number_reflns         28586
_refine_ls_number_parameters     1459
_refine_ls_number_restraints     680
_refine_ls_R_factor_all          0.0861
_refine_ls_R_factor_gt           0.0694
_refine_ls_wR_factor_ref         0.1510
_refine_ls_wR_factor_gt          0.1422
_refine_ls_goodness_of_fit_ref   0.917
_refine_ls_restrained_S_all      0.913
_refine_ls_shift/su_max          0.006
_refine_ls_shift/su_mean         0.000

loop_
_atom_site_label
_atom_site_type_symbol
_atom_site_fract_x
_atom_site_fract_y
_atom_site_fract_z
_atom_site_U_iso_or_equiv
_atom_site_adp_type
_atom_site_occupancy
_atom_site_symmetry_multiplicity
_atom_site_calc_flag
_atom_site_refinement_flags
_atom_site_disorder_assembly
_atom_site_disorder_group
In1 In 0.15365(19) 0.76583(16) 0.71000(9) 0.0499(6) Uani 1 1 d . . .
In2 In 0.29614(15) 0.86098(13) 0.79980(7) 0.0335(5) Uani 1 1 d . . .
In3 In -0.04948(15) 0.86093(14) 0.80045(7) 0.0363(5) Uani 1 1 d . . .
In4 In 0.10104(18) 1.01018(16) 0.69655(8) 0.0457(6) Uani 1 1 d U . .
In5 In 0.08906(14) 0.96794(12) 0.90038(7) 0.0295(5) Uani 1 1 d . . .
In6 In 0.23473(15) 1.11739(12) 0.79602(8) 0.0361(5) Uani 1 1 d . . .
In7 In -0.24359(15) 0.96555(13) 0.89509(7) 0.0322(5) Uani 1 1 d . . .
In8 In -0.10466(16) 1.11822(14) 0.79831(8) 0.0390(6) Uani 1 1 d . . .
In9 In 0.0375(2) 1.25168(17) 0.69934(9) 0.0621(8) Uani 1 1 d U . .
In10 In -0.57753(15) 0.96146(14) 0.89439(7) 0.0357(5) Uani 1 1 d . . .
In11 In 1.56943(16) 0.20614(13) 0.17649(7) 0.0332(5) Uani 1 1 d . . .
In12 In 1.23435(16) 0.20398(14) 0.17466(8) 0.0382(5) Uani 1 1 d . . .
In13 In 1.04077(16) 0.30723(13) 0.26988(7) 0.0363(5) Uani 1 1 d . . .
In14 In 0.90452(15) 0.20108(12) 0.17087(7) 0.0298(5) Uani 1 1 d . . .
In15 In 1.09837(16) 0.05147(14) 0.27325(8) 0.0408(6) Uani 1 1 d . . .
In16 In 0.8361(2) 0.40303(19) 0.36017(9) 0.0585(7) Uani 1 1 d . . .
In17 In 0.69412(16) 0.30771(13) 0.27035(7) 0.0348(5) Uani 1 1 d . . .
In18 In 0.89061(17) 0.15871(17) 0.37461(8) 0.0466(6) Uani 1 1 d . . .
In19 In 0.75810(17) 0.05242(13) 0.27440(8) 0.0378(5) Uani 1 1 d . . .
In20 In 0.9556(2) -0.08203(18) 0.37012(10) 0.0664(9) Uani 1 1 d . . .
Fe1 Fe 0.3766(3) 0.6680(3) 0.18899(17) 0.0413(11) Uani 1 1 d U . .
Fe2 Fe 0.6154(3) 0.5003(3) 0.88191(14) 0.0350(10) Uani 1 1 d U . .
Fe3 Fe 0.5890(4) -0.3487(3) 0.56282(18) 0.1010(15) Uani 1 1 d . . .
Fe4 Fe 0.4957(7) 0.0828(8) 0.5347(3) 0.1024(13) Uani 1 1 d . . .
S1 S 0.1657(10) 0.6553(7) 0.6614(4) 0.096(4) Uani 1 1 d . . .
S2 S 0.3316(6) 0.7499(5) 0.7514(3) 0.0395(19) Uani 1 1 d . . .
S3 S -0.0141(7) 0.7438(6) 0.7568(3) 0.050(2) Uani 1 1 d . . .
S4 S 0.1186(7) 0.9003(6) 0.6498(3) 0.0476(19) Uani 1 1 d . . .
S5 S 0.4608(6) 0.8418(5) 0.8505(3) 0.042(2) Uani 1 1 d . . .
S6 S 0.1188(5) 0.8536(5) 0.8495(3) 0.0315(17) Uani 1 1 d . . .
S7 S 0.2674(6) 0.9989(5) 0.7462(3) 0.0356(17) Uani 1 1 d . . .
S8 S -0.2189(5) 0.8459(5) 0.8490(3) 0.0393(19) Uani 1 1 d . . .
S9 S -0.0772(7) 1.0042(6) 0.7472(3) 0.0422(19) Uani 1 1 d . . .
S10 S 0.0633(10) 1.1424(8) 0.6461(3) 0.084(3) Uani 1 1 d U . .
S11 S 0.2550(5) 0.9496(5) 0.9477(3) 0.0383(19) Uani 1 1 d . . .
S12 S 0.4019(6) 1.0993(5) 0.8411(3) 0.0395(19) Uani 1 1 d . . .
S13 S -0.0847(5) 0.9559(5) 0.9476(3) 0.0394(19) Uani 1 1 d . . .
S14 S 0.0617(5) 1.1082(5) 0.8469(3) 0.0282(16) Uani 1 1 d . . .
S15 S 0.1985(6) 1.2535(6) 0.7453(4) 0.055(2) Uani 1 1 d . . .
S16 S -0.4134(6) 0.9498(6) 0.9436(3) 0.0398(19) Uani 1 1 d . . .
S17 S -0.2771(5) 1.1032(5) 0.8440(3) 0.048(2) Uani 1 1 d U . .
S18 S -0.1441(7) 1.2534(6) 0.7482(4) 0.058(2) Uani 1 1 d . . .
S19 S -0.0125(8) 1.3880(8) 0.6450(4) 0.100(4) Uani 1 1 d . . .
S20 S 1.4074(6) 0.2132(5) 0.1232(2) 0.0341(17) Uani 1 1 d . . .
S21 S 1.0742(6) 0.2087(5) 0.1218(2) 0.0340(17) Uani 1 1 d . . .
S22 S 1.2095(7) 0.3158(6) 0.2217(3) 0.043(2) Uani 1 1 d . . .
S23 S 1.2673(7) 0.0654(7) 0.2251(3) 0.057(3) Uani 1 1 d . . .
S24 S 0.7375(6) 0.2170(6) 0.1226(3) 0.050(2) Uani 1 1 d . . .
S25 S 0.8716(6) 0.3147(5) 0.2196(2) 0.0308(16) Uani 1 1 d . . .
S26 S 0.9306(6) 0.0591(4) 0.2200(3) 0.0374(18) Uani 1 1 d . . .
S27 S 1.0040(8) 0.4301(7) 0.3086(4) 0.061(3) Uani 1 1 d . . .
S28 S 1.0635(6) 0.1702(6) 0.3221(3) 0.040(2) Uani 1 1 d . . .
S29 S 1.1256(8) -0.0811(6) 0.3247(3) 0.063(3) Uani 1 1 d . . .
S30 S 0.5317(7) 0.3199(5) 0.2237(3) 0.043(2) Uani 1 1 d . . .
S31 S 0.5869(8) 0.0685(6) 0.2273(3) 0.055(2) Uani 1 1 d . . .
S32 S 0.6577(8) 0.4161(6) 0.3191(3) 0.056(2) Uani 1 1 d . . .
S33 S 0.7178(6) 0.1658(5) 0.3239(3) 0.0381(18) Uani 1 1 d . . .
S34 S 0.7852(8) -0.0858(5) 0.3203(3) 0.060(3) Uani 1 1 d . . .
S35 S 0.7962(10) 0.5402(7) 0.3972(4) 0.087(3) Uani 1 1 d . . .
S36 S 0.8597(8) 0.2807(8) 0.4175(3) 0.070(3) Uani 1 1 d . . .
S37 S 0.9009(8) 0.0207(6) 0.4232(3) 0.057(2) Uani 1 1 d . . .
S38 S 0.9555(11) -0.2196(7) 0.4228(4) 0.130(6) Uani 1 1 d . . .
N1 N 0.3401(17) 0.5944(11) 0.1461(7) 0.030(5) Uani 1 1 d D . .
N2 N 0.4124(19) 0.7364(15) 0.1282(9) 0.043(6) Uani 1 1 d U . .
N5 N 0.337(2) 0.6031(17) 0.2508(9) 0.071(8) Uiso 1 1 d . . .
N7 N 0.4557(16) 0.5600(13) 0.8814(8) 0.047(5) Uani 1 1 d U . .
N8 N 0.5585(17) 0.4248(13) 0.8454(8) 0.043(6) Uani 1 1 d U . .
N9 N 0.6615(11) 0.5703(9) 0.8257(6) 0.020(4) Uiso 1 1 d D . .
N10 N 0.7735(13) 0.4370(10) 0.8762(6) 0.028(5) Uani 1 1 d U . .
N14 N 0.4798(10) -0.4142(10) 0.5365(5) 0.010(2) Uiso 1 1 d . . .
N15 N 0.6129(16) -0.3003(16) 0.4964(8) 0.102(10) Uani 1 1 d . . .
N19 N 0.3365(12) 0.0951(11) 0.5199(5) 0.037(4) Uani 1 1 d U . .
N21 N 0.545(3) 0.236(2) 0.4614(10) 0.131(10) Uani 1 1 d U . .
N22 N 0.4583(13) 0.1561(12) 0.5868(6) 0.049(4) Uani 1 1 d U . .
N23 N 0.710(4) 0.028(3) 0.5520(18) 0.213(19) Uani 1 1 d U . .
N24 N 0.4911(12) -0.0246(10) 0.5783(5) 0.035(3) Uiso 1 1 d . . .
C1 C 0.3147(17) 0.5204(15) 0.1522(10) 0.050(7) Uani 1 1 d DU . .
H1 H 0.3068 0.4981 0.1841 0.060 Uiso 1 1 calc R . .
C2 C 0.2966(19) 0.4666(16) 0.1236(8) 0.045(6) Uani 1 1 d DU . .
H2 H 0.2842 0.4106 0.1342 0.053 Uiso 1 1 calc R . .
C3 C 0.298(3) 0.5013(17) 0.0783(10) 0.069(11) Uani 1 1 d D . .
H3 H 0.2767 0.4731 0.0550 0.082 Uiso 1 1 calc R . .
C4 C 0.3307(16) 0.5771(13) 0.0675(8) 0.043(5) Uani 1 1 d DU . .
C5 C 0.3507(17) 0.6187(14) 0.1023(7) 0.041(6) Uani 1 1 d DU . .
C6 C 0.458(3) 0.806(2) 0.1219(11) 0.065(6) Uani 1 1 d DU . .
H6 H 0.4705 0.8334 0.1472 0.078 Uiso 1 1 calc R . .
C7 C 0.488(3) 0.8389(17) 0.0758(10) 0.065(6) Uani 1 1 d DU . .
H7 H 0.5410 0.8767 0.0725 0.078 Uiso 1 1 calc R . .
C8 C 0.449(3) 0.822(2) 0.0338(12) 0.063(8) Uiso 1 1 d U . .
H8 H 0.4554 0.8553 0.0044 0.075 Uiso 1 1 calc R . .
C9 C 0.393(2) 0.7399(15) 0.0426(9) 0.048(5) Uani 1 1 d U . .
C10 C 0.3848(15) 0.7057(12) 0.0903(7) 0.029(5) Uani 1 1 d U . .
C11 C 0.337(2) 0.6230(18) 0.0190(9) 0.057(6) Uani 1 1 d U . .
H11 H 0.3230 0.5954 -0.0059 0.068 Uiso 1 1 calc R . .
C12 C 0.3621(18) 0.7017(17) 0.0089(8) 0.047(5) Uani 1 1 d U . .
H12 H 0.3580 0.7301 -0.0221 0.057 Uiso 1 1 calc R . .
N3 N 0.5353(10) 0.6105(10) 0.1959(6) 0.028(4) Uiso 1 1 d G . .
C13 C 0.5809(14) 0.5408(11) 0.1744(6) 0.040(7) Uiso 1 1 d G . .
H13 H 0.5344 0.5180 0.1561 0.048 Uiso 1 1 calc R . .
C14 C 0.6953(15) 0.5047(11) 0.1801(7) 0.069(10) Uani 1 1 d GU . .
H14 H 0.7261 0.4575 0.1655 0.083 Uiso 1 1 calc R . .
C15 C 0.7641(11) 0.5383(12) 0.2072(7) 0.056(9) Uani 1 1 d GU . .
H15 H 0.8415 0.5139 0.2110 0.068 Uiso 1 1 calc R . .
C16 C 0.7185(13) 0.6081(12) 0.2287(7) 0.038(6) Uani 1 1 d GU . .
C17 C 0.6041(13) 0.6442(9) 0.2231(6) 0.033(6) Uani 1 1 d GU . .
N4 N 0.4368(14) 0.7438(11) 0.2271(6) 0.034(5) Uiso 1 1 d G . .
C18 C 0.3848(11) 0.8232(11) 0.2368(7) 0.070(8) Uani 1 1 d GU . .
H18 H 0.3077 0.8433 0.2295 0.084 Uiso 1 1 calc R . .
C19 C 0.4468(15) 0.8728(10) 0.2573(7) 0.069(7) Uani 1 1 d GU . .
H19 H 0.4116 0.9265 0.2638 0.083 Uiso 1 1 calc R . .
C20 C 0.5608(15) 0.8431(11) 0.2680(7) 0.065(6) Uani 1 1 d GU . .
H20 H 0.6027 0.8766 0.2819 0.078 Uiso 1 1 calc R . .
C21 C 0.6128(11) 0.7637(12) 0.2583(7) 0.045(6) Uiso 1 1 d GU . .
C22 C 0.5508(14) 0.7141(10) 0.2379(7) 0.061(10) Uani 1 1 d G . .
C23 C 0.7290(17) 0.7324(13) 0.2660(7) 0.033(5) Uiso 1 1 d . . .
H23 H 0.7786 0.7684 0.2726 0.040 Uiso 1 1 calc R . .
C24 C 0.7700(19) 0.6462(15) 0.2638(9) 0.042(6) Uani 1 1 d U . .
H24 H 0.8273 0.6144 0.2836 0.050 Uiso 1 1 calc R . .
C25 C 0.391(3) 0.515(2) 0.2712(11) 0.070(9) Uiso 1 1 d . . .
H25 H 0.4588 0.4863 0.2590 0.084 Uiso 1 1 calc R . .
C26 C 0.336(2) 0.4813(16) 0.3066(9) 0.053(6) Uani 1 1 d U . .
H26 H 0.3641 0.4251 0.3200 0.063 Uiso 1 1 calc R . .
C27 C 0.235(3) 0.524(2) 0.3270(11) 0.065(6) Uani 1 1 d U . .
H27 H 0.2034 0.4965 0.3544 0.078 Uiso 1 1 calc R . .
C28 C 0.183(3) 0.6040(19) 0.3086(10) 0.052(7) Uani 1 1 d U . .
C29 C 0.225(2) 0.6381(17) 0.2700(9) 0.040(6) Uiso 1 1 d . . .
N6 N 0.2195(11) 0.7295(10) 0.1974(6) 0.068(9) Uani 1 1 d GU . .
C30 C 0.1630(12) 0.8009(11) 0.1693(5) 0.033(5) Uani 1 1 d GU . .
H30 H 0.1937 0.8195 0.1396 0.039 Uiso 1 1 calc R . .
C31 C 0.0610(12) 0.8449(9) 0.1851(5) 0.035(5) Uani 1 1 d GU . .
H31 H 0.0228 0.8931 0.1661 0.042 Uiso 1 1 calc R . .
C32 C 0.0156(11) 0.8174(10) 0.2290(5) 0.038(5) Uani 1 1 d GU . .
H32 H -0.0534 0.8471 0.2397 0.046 Uiso 1 1 calc R . .
C33 C 0.0721(14) 0.7460(11) 0.2571(5) 0.042(6) Uani 1 1 d GU . .
C34 C 0.1741(14) 0.7021(10) 0.2413(6) 0.053(8) Uiso 1 1 d G . .
C35 C 0.089(3) 0.633(2) 0.3200(13) 0.085(11) Uiso 1 1 d D . .
H35 H 0.0546 0.5987 0.3438 0.101 Uiso 1 1 calc R . .
C36 C 0.022(2) 0.711(2) 0.3036(11) 0.064(8) Uani 1 1 d DU . .
H36 H -0.0438 0.7370 0.3188 0.077 Uiso 1 1 calc R . .
C37 C 0.4018(17) 0.6259(13) 0.8959(7) 0.031(5) Uani 1 1 d U . .
H37 H 0.4415 0.6496 0.9164 0.037 Uiso 1 1 calc R . .
C38 C 0.2934(16) 0.6672(12) 0.8856(7) 0.028(5) Uiso 1 1 d U . .
H38 H 0.2621 0.7167 0.8980 0.033 Uiso 1 1 calc R . .
C39 C 0.235(2) 0.6346(17) 0.8578(10) 0.058(9) Uani 1 1 d U . .
H39 H 0.1638 0.6648 0.8471 0.069 Uiso 1 1 calc R . .
C40 C 0.2786(19) 0.5515(17) 0.8431(9) 0.057(8) Uani 1 1 d DU . .
C41 C 0.3941(17) 0.5232(12) 0.8542(8) 0.036(5) Uani 1 1 d DU . .
C42 C 0.6121(16) 0.3559(12) 0.8274(7) 0.028(4) Uiso 1 1 d . . .
H42 H 0.6908 0.3393 0.8327 0.033 Uiso 1 1 calc R . .
C43 C 0.5615(17) 0.3081(13) 0.8022(7) 0.036(5) Uani 1 1 d U . .
H43 H 0.6053 0.2594 0.7925 0.043 Uiso 1 1 calc R . .
C44 C 0.4415(17) 0.3306(14) 0.7898(8) 0.040(5) Uani 1 1 d U . .
H44 H 0.4024 0.2967 0.7749 0.049 Uiso 1 1 calc R . .
C45 C 0.3877(18) 0.4142(18) 0.8036(10) 0.066(8) Uani 1 1 d DU . .
C46 C 0.4457(16) 0.4505(11) 0.8343(7) 0.029(6) Uiso 1 1 d D . .
C47 C 0.208(2) 0.5104(17) 0.8200(9) 0.061(9) Uani 1 1 d D . .
H47 H 0.1274 0.5163 0.8232 0.073 Uiso 1 1 calc R . .
C48 C 0.277(2) 0.4592(18) 0.7914(11) 0.085(10) Uani 1 1 d DU . .
H48 H 0.2490 0.4545 0.7623 0.101 Uiso 1 1 calc R . .
C49 C 0.6004(17) 0.6366(12) 0.7990(6) 0.034(6) Uiso 1 1 d D . .
H49 H 0.5288 0.6601 0.8107 0.041 Uiso 1 1 calc R . .
C50 C 0.6379(17) 0.6746(14) 0.7532(7) 0.042(6) Uiso 1 1 d D . .
H50 H 0.5913 0.7221 0.7368 0.051 Uiso 1 1 calc R . .
C51 C 0.7453(16) 0.6408(14) 0.7321(8) 0.050(7) Uani 1 1 d DU . .
H51 H 0.7702 0.6605 0.7016 0.060 Uiso 1 1 calc R . .
C52 C 0.8103(16) 0.5723(12) 0.7640(7) 0.032(6) Uani 1 1 d DU . .
C53 C 0.7639(16) 0.5378(12) 0.8092(7) 0.024(5) Uani 1 1 d DU . .
C54 C 0.821(2) 0.3644(19) 0.9062(10) 0.065(7) Uani 1 1 d U . .
H54 H 0.7847 0.3469 0.9349 0.078 Uiso 1 1 calc R . .
C55 C 0.919(3) 0.321(2) 0.8930(12) 0.072(7) Uani 1 1 d U . .
H55 H 0.9