####################################################################### 
# 
# This file contains crystal structure data downloaded from the 
# Cambridge Structural Database (CSD) hosted by the Cambridge 
# Crystallographic Data Centre (CCDC).
# 
# Full information about CCDC data access policies and citation 
# guidelines are available at http://www.ccdc.cam.ac.uk/access/V1 
# 
# Audit and citation data items may have been added by the CCDC. 
# Please retain this information to preserve the provenance of 
# this file and to allow appropriate attribution of the data. 
# 
#######################################################################

data_cd
_audit_block_doi                 10.5517/cc7xhvg
_database_code_depnum_ccdc_archive 'CCDC 235936'
loop_
_citation_id
_citation_doi
_citation_year
1 10.1002/aoc.682 2004
_audit_update_record             
;
2004-04-10 deposited with the CCDC.	2024-07-10 downloaded from the CCDC.
;

_audit_creation_method           SHELXL-97
_chemical_name_systematic        
;
catena-Poly[aquatripyridine(phenyl-1,3-bisoxyacetato)cadmium(II)],
[(H~2~O)(C~5~H~5~N)~3~(O~2~CCH~2~OC~6~H~4~OCH~2~CO~2~)Co]~n~
;
_chemical_name_common            ?
_chemical_melting_point          ?
_chemical_formula_moiety         'C25 H25 Cd N3 O7'
_chemical_formula_sum            'C25 H25 Cd N3 O7'
_chemical_formula_weight         591.89

loop_
_atom_type_symbol
_atom_type_description
_atom_type_scat_dispersion_real
_atom_type_scat_dispersion_imag
_atom_type_scat_source
C C 0.0033 0.0016 'International Tables Vol C Tables 4.2.6.8 and 6.1.1.4'
H H 0.0000 0.0000 'International Tables Vol C Tables 4.2.6.8 and 6.1.1.4'
N N 0.0061 0.0033 'International Tables Vol C Tables 4.2.6.8 and 6.1.1.4'
O O 0.0106 0.0060 'International Tables Vol C Tables 4.2.6.8 and 6.1.1.4'
Cd Cd -0.8075 1.2024 'International Tables Vol C Tables 4.2.6.8 and 6.1.1.4'

_symmetry_cell_setting           Triclinic
_symmetry_space_group_name_H-M   'P -1'
_symmetry_space_group_name_Hall  '-P 1'

loop_
_symmetry_equiv_pos_as_xyz
'x, y, z'
'-x, -y, -z'

_cell_length_a                   8.699(2)
_cell_length_b                   10.322(2)
_cell_length_c                   29.362(6)
_cell_angle_alpha                80.17(3)
_cell_angle_beta                 87.28(3)
_cell_angle_gamma                81.95(3)
_cell_volume                     2571.4(10)
_cell_formula_units_Z            4
_cell_measurement_temperature    293(2)
_cell_measurement_reflns_used    21507
_cell_measurement_theta_min      3.02
_cell_measurement_theta_max      27.19

_exptl_crystal_description       prism
_exptl_crystal_colour            colorless
_exptl_crystal_size_max          0.38
_exptl_crystal_size_mid          0.26
_exptl_crystal_size_min          0.18
_exptl_crystal_density_meas      ?
_exptl_crystal_density_diffrn    1.529
_exptl_crystal_density_method    'not measured'
_exptl_crystal_F_000             1200
_exptl_absorpt_coefficient_mu    0.897
_exptl_absorpt_correction_type   multi-scan
_exptl_absorpt_correction_T_min  0.653
_exptl_absorpt_correction_T_max  0.843
_exptl_absorpt_process_details   'ABSCOR (Higashi, 1995)'

_exptl_special_details           
;
?
;

_diffrn_ambient_temperature      293(2)
_diffrn_radiation_wavelength     0.71073
_diffrn_radiation_type           MoK\a
_diffrn_radiation_source         'fine-focus sealed tube'
_diffrn_radiation_monochromator  graphite
_diffrn_measurement_device_type  'Rigaku RAXIS-RAPID'
_diffrn_measurement_method       \w
_diffrn_detector_area_resol_mean 10.000
_diffrn_standards_number         0
_diffrn_standards_interval_count 0
_diffrn_standards_interval_time  0
_diffrn_standards_decay_%        0
_diffrn_reflns_number            22811
_diffrn_reflns_av_R_equivalents  0.0639
_diffrn_reflns_av_sigmaI/netI    0.0577
_diffrn_reflns_limit_h_min       -11
_diffrn_reflns_limit_h_max       11
_diffrn_reflns_limit_k_min       -13
_diffrn_reflns_limit_k_max       11
_diffrn_reflns_limit_l_min       -36
_diffrn_reflns_limit_l_max       37
_diffrn_reflns_theta_min         3.05
_diffrn_reflns_theta_max         27.29
_reflns_number_total             11160
_reflns_number_gt                9392
_reflns_threshold_expression     I>2\s(I)

_computing_data_collection       'RAPID-AUTO (Rigaku Corporation, 1998)'
_computing_cell_refinement       RAPID-AUTO
_computing_data_reduction        
'CrystalStructure (Rigaku/MSC and Rigaku Corporation, 2002)'
_computing_structure_solution    'SHELXS-97 (Sheldrick, 1997)'
_computing_structure_refinement  'SHELXL-97 (Sheldrick, 1997)'
_computing_molecular_graphics    SHELXL-97
_computing_publication_material  SHELXL-97

_refine_ls_structure_factor_coef Fsqd
_refine_ls_matrix_type           full
_refine_ls_weighting_scheme      calc
_refine_ls_weighting_details     
'calc w=1/[\s^2^(Fo^2^)+(0.1194P)^2^+8.2220P] where P=(Fo^2^+2Fc^2^)/3'
_atom_sites_solution_primary     direct
_atom_sites_solution_secondary   difmap
_atom_sites_solution_hydrogens   geom
_refine_ls_hydrogen_treatment    mixed
_refine_ls_extinction_method     none
_refine_ls_extinction_coef       ?
_refine_ls_number_reflns         11160
_refine_ls_number_parameters     661
_refine_ls_number_restraints     6
_refine_ls_R_factor_all          0.0918
_refine_ls_R_factor_gt           0.0800
_refine_ls_wR_factor_ref         0.2225
_refine_ls_wR_factor_gt          0.2126
_refine_ls_goodness_of_fit_ref   1.078
_refine_ls_restrained_S_all      1.078
_refine_ls_shift/su_max          0.001
_refine_ls_shift/su_mean         <0.001

loop_
_atom_site_label
_atom_site_type_symbol
_atom_site_fract_x
_atom_site_fract_y
_atom_site_fract_z
_atom_site_U_iso_or_equiv
_atom_site_adp_type
_atom_site_occupancy
_atom_site_symmetry_multiplicity
_atom_site_calc_flag
_atom_site_refinement_flags
_atom_site_disorder_assembly
_atom_site_disorder_group
Cd1 Cd 0.70219(5) 0.76137(4) 0.593470(14) 0.03945(15) Uani 1 1 d . . .
O1 O 0.6002(6) 0.9513(4) 0.61845(17) 0.0536(11) Uani 1 1 d . . .
O2 O 0.5357(8) 1.0810(7) 0.5516(2) 0.0753(17) Uani 1 1 d . . .
O3 O 0.5321(7) 1.1551(6) 0.6666(2) 0.0703(16) Uani 1 1 d . . .
O4 O 1.0224(5) 1.3114(4) 0.61085(17) 0.0488(10) Uani 1 1 d . . .
O5 O 0.8295(5) 1.5477(4) 0.58991(14) 0.0421(9) Uani 1 1 d . . .
O6 O 0.7795(7) 1.5069(5) 0.51944(17) 0.0613(13) Uani 1 1 d . . .
O1w O 0.6537(9) 0.7621(6) 0.5152(2) 0.0722(17) Uani 1 1 d D . .
H1w1 H 0.580(8) 0.804(7) 0.498(3) 0.087 Uiso 1 1 d D . .
H1w2 H 0.660(10) 0.6795(19) 0.515(3) 0.087 Uiso 1 1 d D . .
N1 N 0.9361(6) 0.8425(5) 0.57098(18) 0.0444(11) Uani 1 1 d . . .
N2 N 0.7769(7) 0.6988(5) 0.67538(18) 0.0467(12) Uani 1 1 d . . .
N3 N 0.4708(6) 0.6725(5) 0.6125(2) 0.0466(12) Uani 1 1 d . . .
C1 C 0.5436(7) 1.0583(6) 0.5942(2) 0.0417(13) Uani 1 1 d . . .
C2 C 0.4749(9) 1.1672(7) 0.6208(3) 0.0594(19) Uani 1 1 d . . .
H2a H 0.4958 1.2517 0.6032 0.071 Uiso 1 1 calc R . .
H2b H 0.3631 1.1684 0.6229 0.071 Uiso 1 1 calc R . .
C3 C 0.6825(9) 1.1777(6) 0.6718(3) 0.0546(17) Uani 1 1 d . . .
C4 C 0.7424(13) 1.1416(8) 0.7162(3) 0.070(2) Uani 1 1 d . . .
H4 H 0.6811 1.1045 0.7404 0.084 Uiso 1 1 calc R . .
C5 C 0.8935(13) 1.1609(9) 0.7245(3) 0.073(2) Uani 1 1 d . . .
H5 H 0.9325 1.1358 0.7541 0.088 Uiso 1 1 calc R . .
C6 C 0.9852(10) 1.2166(8) 0.6892(3) 0.0618(19) Uani 1 1 d . . .
H6 H 1.0864 1.2284 0.6946 0.074 Uiso 1 1 calc R . .
C7 C 0.9222(8) 1.2564(6) 0.6440(2) 0.0463(14) Uani 1 1 d . . .
C8 C 0.7718(8) 1.2362(6) 0.6351(2) 0.0465(14) Uani 1 1 d . . .
H8 H 0.7320 1.2610 0.6056 0.056 Uiso 1 1 calc R . .
C9 C 0.9641(8) 1.3531(6) 0.5647(2) 0.0452(14) Uani 1 1 d . . .
H9a H 0.9156 1.2817 0.5563 0.054 Uiso 1 1 calc R . .
H9b H 1.0514 1.3668 0.5435 0.054 Uiso 1 1 calc R . .
C10 C 0.8461(8) 1.4803(6) 0.5580(2) 0.0416(12) Uani 1 1 d . . .
C11 C 0.9758(9) 0.9492(6) 0.5852(3) 0.0575(18) Uani 1 1 d . . .
H11 H 0.9091 0.9913 0.6055 0.069 Uiso 1 1 calc R . .
C12 C 1.1124(9) 0.9992(7) 0.5709(4) 0.067(2) Uani 1 1 d . . .
H12 H 1.1367 1.0735 0.5816 0.081 Uiso 1 1 calc R . .
C13 C 1.2114(10) 0.9395(8) 0.5411(3) 0.066(2) Uani 1 1 d . . .
H13 H 1.3036 0.9724 0.5311 0.080 Uiso 1 1 calc R . .
C14 C 1.1724(10) 0.8291(8) 0.5261(3) 0.0595(18) Uani 1 1 d . . .
H14 H 1.2377 0.7850 0.5060 0.071 Uiso 1 1 calc R . .
C15 C 1.0322(9) 0.7861(8) 0.5420(2) 0.0552(17) Uani 1 1 d . . .
H15 H 1.0046 0.7128 0.5314 0.066 Uiso 1 1 calc R . .
C16 C 0.8230(10) 0.5759(7) 0.6945(2) 0.0539(17) Uani 1 1 d . . .
H16 H 0.8080 0.5078 0.6788 0.065 Uiso 1 1 calc R . .
C17 C 0.8942(12) 0.5425(8) 0.7379(3) 0.067(2) Uani 1 1 d . . .
H17 H 0.9271 0.4542 0.7499 0.081 Uiso 1 1 calc R . .
C18 C 0.9143(11) 0.6391(8) 0.7619(2) 0.065(2) Uani 1 1 d . . .
H18 H 0.9634 0.6185 0.7902 0.078 Uiso 1 1 calc R . .
C19 C 0.8603(10) 0.7697(8) 0.7436(2) 0.0587(18) Uani 1 1 d . . .
H19 H 0.8680 0.8383 0.7599 0.070 Uiso 1 1 calc R . .
C20 C 0.7936(9) 0.7954(7) 0.6999(2) 0.0547(17) Uani 1 1 d . . .
H20 H 0.7594 0.8829 0.6871 0.066 Uiso 1 1 calc R . .
C21 C 0.3660(9) 0.7210(8) 0.6421(3) 0.0550(16) Uani 1 1 d . . .
H21 H 0.3896 0.7893 0.6563 0.066 Uiso 1 1 calc R . .
C22 C 0.2242(9) 0.6754(9) 0.6527(3) 0.0632(19) Uani 1 1 d . . .
H22 H 0.1528 0.7138 0.6727 0.076 Uiso 1 1 calc R . .
C23 C 0.1918(9) 0.5699(8) 0.6323(3) 0.064(2) Uani 1 1 d . . .
H23 H 0.0995 0.5344 0.6396 0.077 Uiso 1 1 calc R . .
C24 C 0.2961(9) 0.5193(8) 0.6019(4) 0.067(2) Uani 1 1 d . . .
H24 H 0.2752 0.4507 0.5873 0.081 Uiso 1 1 calc R . .
C25 C 0.4350(9) 0.5725(7) 0.5931(3) 0.0596(18) Uani 1 1 d . . .
H25 H 0.5069 0.5367 0.5726 0.072 Uiso 1 1 calc R . .
Cd1' Cd 0.20364(5) 0.35302(4) -0.093121(14) 0.04061(15) Uani 1 1 d . . .
O1' O 0.1042(6) 0.5679(4) -0.12091(17) 0.0523(11) Uani 1 1 d . . .
O2' O 0.0399(7) 0.6210(6) -0.05125(18) 0.0692(15) Uani 1 1 d . . .
O3' O 0.0305(7) 0.8255(5) -0.16411(18) 0.0602(13) Uani 1 1 d . . .
O4' O 0.5237(5) 0.9166(5) -0.11024(17) 0.0492(10) Uani 1 1 d . . .
O5' O 0.3301(6) 1.1346(4) -0.08977(17) 0.0486(10) Uani 1 1 d . . .
O6' O 0.2793(7) 1.0289(6) -0.01841(19) 0.0688(15) Uani 1 1 d . . .
O1w' O 0.1476(9) 0.2811(6) -0.01556(19) 0.0750(18) Uani 1 1 d D . .
H1w3 H 0.078(9) 0.312(7) 0.003(3) 0.090 Uiso 1 1 d D . .
H1w4 H 0.164(11) 0.1972(14) -0.009(3) 0.090 Uiso 1 1 d D . .
N1' N 0.4373(6) 0.4114(5) -0.07018(18) 0.0411(11) Uani 1 1 d . . .
N2' N 0.2856(7) 0.3711(6) -0.17354(18) 0.0483(12) Uani 1 1 d . . .
N3' N -0.0254(6) 0.2780(6) -0.1140(2) 0.0512(13) Uani 1 1 d . . .
C1' C 0.3456(7) 1.0372(6) -0.0578(2) 0.0418(13) Uani 1 1 d . . .
C2' C 0.4632(8) 0.9177(6) -0.0638(2) 0.0453(14) Uani 1 1 d . . .
H2'a H 0.5493 0.9142 -0.0436 0.054 Uiso 1 1 calc R . .
H2'b H 0.4148 0.8381 -0.0539 0.054 Uiso 1 1 calc R . .
C3' C 0.4233(8) 0.8974(6) -0.1433(2) 0.0459(14) Uani 1 1 d . . .
C4' C 0.4872(11) 0.9045(8) -0.1879(3) 0.066(2) Uani 1 1 d . . .
H4' H 0.5898 0.9194 -0.1939 0.079 Uiso 1 1 calc R . .
C5' C 0.3926(13) 0.8888(10) -0.2238(3) 0.080(3) Uani 1 1 d . . .
H5' H 0.4322 0.8975 -0.2540 0.096 Uiso 1 1 calc R . .
C6' C 0.2409(13) 0.8604(9) -0.2148(3) 0.072(2) Uani 1 1 d . . .
H6' H 0.1801 0.8484 -0.2386 0.086 Uiso 1 1 calc R . .
C7' C 0.1832(9) 0.8507(6) -0.1702(2) 0.0499(15) Uani 1 1 d . . .
C8' C 0.2736(8) 0.8682(6) -0.1335(2) 0.0430(13) Uani 1 1 d . . .
H8' H 0.2333 0.8602 -0.1034 0.052 Uiso 1 1 calc R . .
C9' C -0.0247(8) 0.7849(7) -0.1176(3) 0.0518(15) Uani 1 1 d . . .
H9'a H -0.1365 0.7873 -0.1179 0.062 Uiso 1 1 calc R . .
H9'b H -0.0032 0.8487 -0.0988 0.062 Uiso 1 1 calc R . .
C10' C 0.0470(7) 0.6454(6) -0.0946(2) 0.0422(13) Uani 1 1 d . . .
C11' C 0.4755(8) 0.5327(7) -0.0815(3) 0.0558(17) Uani 1 1 d . . .
H11' H 0.4089 0.5973 -0.0997 0.067 Uiso 1 1 calc R . .
C12' C 0.6125(10) 0.5660(7) -0.0670(3) 0.067(2) Uani 1 1 d . . .
H12' H 0.6359 0.6521 -0.0756 0.080 Uiso 1 1 calc R . .
C13' C 0.7147(9) 0.4724(8) -0.0398(3) 0.0614(19) Uani 1 1 d . . .
H13' H 0.8063 0.4943 -0.0299 0.074 Uiso 1 1 calc R . .
C14' C 0.6762(9) 0.3465(8) -0.0281(3) 0.0589(18) Uani 1 1 d . . .
H14' H 0.7406 0.2801 -0.0099 0.071 Uiso 1 1 calc R . .
C15' C 0.5370(9) 0.3210(7) -0.0443(2) 0.0556(17) Uani 1 1 d . . .
H15' H 0.5118 0.2352 -0.0367 0.067 Uiso 1 1 calc R . .
C16' C 0.3313(10) 0.4819(8) -0.1969(2) 0.0586(18) Uani 1 1 d . . .
H16' H 0.3213 0.5559 -0.1823 0.070 Uiso 1 1 calc R . .
C17' C 0.3926(12) 0.4943(10) -0.2415(3) 0.075(3) Uani 1 1 d . . .
H17' H 0.4221 0.5744 -0.2563 0.090 Uiso 1 1 calc R . .
C18' C 0.4091(13) 0.3853(11) -0.2636(3) 0.085(3) Uani 1 1 d . . .
H18' H 0.4537 0.3889 -0.2932 0.102 Uiso 1 1 calc R . .
C19' C 0.3585(13) 0.2731(10) -0.2410(3) 0.082(3) Uani 1 1 d . . .
H19' H 0.3616 0.2001 -0.2559 0.099 Uiso 1 1 calc R . .
C20' C 0.3019(10) 0.2660(8) -0.1958(3) 0.0625(19) Uani 1 1 d . . .
H20' H 0.2742 0.1859 -0.1803 0.075 Uiso 1 1 calc R . .
C21' C -0.1245(10) 0.3539(9) -0.1431(3) 0.067(2) Uani 1 1 d . . .
H21' H -0.1024 0.4388 -0.1551 0.081 Uiso 1 1 calc R . .
C22' C -0.2595(11) 0.3163(12) -0.1572(3) 0.080(3) Uani 1 1 d . . .
H22' H -0.3222 0.3725 -0.1791 0.096 Uiso 1 1 calc R . .
C23' C -0.2974(11) 0.1957(11) -0.1383(4) 0.086(3) Uani 1 1 d . . .
H23' H -0.3887 0.1681 -0.1459 0.103 Uiso 1 1 calc R . .
C24' C -0.1972(11) 0.1150(9) -0.1074(5) 0.095(4) Uani 1 1 d . . .
H24' H -0.2181 0.0299 -0.0951 0.114 Uiso 1 1 calc R . .
C25' C -0.0637(10) 0.1598(8) -0.0943(4) 0.080(3) Uani 1 1 d . . .
H25' H -0.0011 0.1069 -0.0716 0.096 Uiso 1 1 calc R . .

loop_
_atom_site_aniso_label
_atom_site_aniso_U_11
_atom_site_aniso_U_22
_atom_site_aniso_U_33
_atom_site_aniso_U_23
_atom_site_aniso_U_13
_atom_site_aniso_U_12
Cd1 0.0407(3) 0.0384(2) 0.0419(2) -0.00983(17) -0.00416(17) -0.00944(17)
O1 0.065(3) 0.039(2) 0.056(3) -0.009(2) -0.008(2) -0.001(2)
O2 0.077(4) 0.088(4) 0.056(3) -0.004(3) -0.016(3) 0.001(3)
O3 0.074(4) 0.074(3) 0.077(4) -0.042(3) 0.030(3) -0.033(3)
O4 0.042(2) 0.045(2) 0.060(3) -0.010(2) -0.004(2) -0.0083(19)
O5 0.049(2) 0.039(2) 0.040(2) -0.0116(17) -0.0001(17) -0.0048(18)
O6 0.073(4) 0.064(3) 0.049(3) -0.022(2) -0.013(2) 0.003(3)
O1w 0.100(5) 0.060(3) 0.057(3) -0.009(3) -0.034(3) -0.002(3)
N1 0.043(3) 0.045(3) 0.047(3) -0.005(2) -0.001(2) -0.017(2)
N2 0.056(3) 0.048(3) 0.039(3) -0.012(2) -0.006(2) -0.010(2)
N3 0.038(3) 0.049(3) 0.055(3) -0.011(2) -0.004(2) -0.010(2)
C1 0.033(3) 0.040(3) 0.054(3) -0.009(3) -0.008(2) -0.007(2)
C2 0.042(4) 0.042(3) 0.094(6) -0.015(3) 0.009(4) -0.004(3)
C3 0.066(5) 0.040(3) 0.064(4) -0.027(3) 0.012(3) -0.013(3)
C4 0.103(7) 0.055(4) 0.055(4) -0.016(3) 0.022(4) -0.021(4)
C5 0.109(8) 0.064(5) 0.046(4) -0.006(3) -0.011(4) -0.007(5)
C6 0.067(5) 0.057(4) 0.064(4) -0.016(3) -0.016(4) -0.005(4)
C7 0.053(4) 0.035(3) 0.054(3) -0.016(3) -0.001(3) -0.005(3)
C8 0.058(4) 0.041(3) 0.045(3) -0.019(3) 0.008(3) -0.013(3)
C9 0.049(4) 0.043(3) 0.046(3) -0.016(3) 0.008(3) -0.009(3)
C10 0.046(3) 0.037(3) 0.044(3) -0.010(2) 0.006(2) -0.010(2)
C11 0.050(4) 0.037(3) 0.090(5) -0.024(3) -0.008(4) -0.003(3)
C12 0.051(4) 0.040(3) 0.114(7) -0.015(4) -0.011(4) -0.011(3)
C13 0.050(4) 0.063(4) 0.084(6) 0.009(4) -0.007(4) -0.025(4)
C14 0.060(5) 0.072(5) 0.052(4) -0.017(3) 0.011(3) -0.023(4)
C15 0.061(4) 0.061(4) 0.050(4) -0.014(3) -0.001(3) -0.027(3)
C16 0.076(5) 0.047(3) 0.038(3) -0.005(3) 0.002(3) -0.010(3)
C17 0.106(7) 0.048(4) 0.046(4) -0.004(3) -0.009(4) -0.006(4)
C18 0.091(6) 0.059(4) 0.042(4) -0.004(3) -0.013(4) -0.004(4)
C19 0.072(5) 0.058(4) 0.050(4) -0.019(3) -0.017(3) -0.007(4)
C20 0.070(5) 0.046(3) 0.051(4) -0.015(3) -0.019(3) -0.004(3)
C21 0.048(4) 0.058(4) 0.061(4) -0.012(3) -0.005(3) -0.010(3)
C22 0.050(4) 0.076(5) 0.061(4) -0.008(4) 0.008(3) -0.009(4)
C23 0.047(4) 0.063(4) 0.083(5) -0.004(4) -0.008(4) -0.016(3)
C24 0.043(4) 0.055(4) 0.110(7) -0.023(4) -0.009(4) -0.009(3)
C25 0.046(4) 0.053(4) 0.086(5) -0.024(4) -0.005(4) -0.012(3)
Cd1' 0.0415(3) 0.0409(2) 0.0423(3) -0.01044(18) -0.00094(18) -0.01106(18)
O1' 0.058(3) 0.042(2) 0.058(3) -0.016(2) 0.002(2) -0.004(2)
O2' 0.069(4) 0.085(4) 0.050(3) -0.014(3) 0.010(2) 0.000(3)
O3' 0.069(3) 0.053(3) 0.061(3) 0.000(2) -0.025(3) -0.020(2)
O4' 0.043(2) 0.050(2) 0.057(3) -0.015(2) -0.004(2) -0.0076(19)
O5' 0.055(3) 0.037(2) 0.054(3) -0.0061(19) -0.006(2) -0.0058(19)
O6' 0.078(4) 0.064(3) 0.056(3) -0.001(2) 0.009(3) 0.005(3)
O1w' 0.106(5) 0.062(3) 0.054(3) -0.013(3) 0.029(3) -0.009(3)
N1' 0.041(3) 0.042(2) 0.046(3) -0.013(2) -0.001(2) -0.014(2)
N2' 0.056(3) 0.051(3) 0.038(3) -0.012(2) -0.003(2) 0.001(2)
N3' 0.032(3) 0.052(3) 0.074(4) -0.019(3) -0.005(2) -0.009(2)
C1' 0.044(3) 0.039(3) 0.045(3) -0.010(2) -0.010(2) -0.008(2)
C2' 0.047(3) 0.042(3) 0.049(3) -0.006(3) -0.011(3) -0.008(3)
C3' 0.053(4) 0.033(3) 0.052(3) -0.008(2) -0.002(3) -0.004(2)
C4' 0.070(5) 0.068(5) 0.064(5) -0.022(4) 0.022(4) -0.021(4)
C5' 0.104(8) 0.093(7) 0.050(4) -0.017(4) 0.009(4) -0.032(6)
C6' 0.096(7) 0.077(5) 0.051(4) -0.015(4) -0.007(4) -0.031(5)
C7' 0.061(4) 0.039(3) 0.053(4) -0.007(3) -0.014(3) -0.011(3)
C8' 0.054(4) 0.034(3) 0.042(3) -0.006(2) -0.007(3) -0.009(2)
C9' 0.044(4) 0.045(3) 0.070(4) -0.021(3) -0.003(3) -0.004(3)
C10' 0.034(3) 0.045(3) 0.051(3) -0.014(3) -0.002(2) -0.010(2)
C11' 0.045(4) 0.038(3) 0.086(5) -0.016(3) 0.000(3) -0.003(3)
C12' 0.055(4) 0.045(4) 0.108(7) -0.025(4) 0.003(4) -0.018(3)
C13' 0.046(4) 0.071(5) 0.077(5) -0.031(4) 0.002(3) -0.022(3)
C14' 0.054(4) 0.071(5) 0.056(4) -0.009(3) -0.010(3) -0.024(4)
C15' 0.059(4) 0.056(4) 0.055(4) -0.002(3) -0.015(3) -0.023(3)
C16' 0.075(5) 0.060(4) 0.035(3) 0.002(3) 0.006(3) -0.002(4)
C17' 0.092(7) 0.076(5) 0.047(4) -0.001(4) 0.013(4) 0.007(5)
C18' 0.108(8) 0.095(7) 0.041(4) -0.012(4) 0.006(4) 0.026(6)
C19' 0.104(8) 0.085(6) 0.053(4) -0.030(4) -0.006(4) 0.029(6)
C20' 0.074(5) 0.059(4) 0.057(4) -0.024(3) -0.009(4) 0.004(4)
C21' 0.060(5) 0.081(5) 0.063(4) 0.002(4) -0.012(4) -0.029(4)
C22' 0.057(5) 0.119(8) 0.065(5) 0.004(5) -0.019(4) -0.030(5)
C23' 0.048(5) 0.102(7) 0.124(8) -0.053(7) -0.005(