
#######################################################################
#
#                 Cambridge Crystallographic Data Centre
#                                CCDC
#
#######################################################################
#
# If this CIF has been generated from an entry in the Cambridge
# Structural Database, then it will include bibliographic, chemical,
# crystal, experimental, refinement or atomic coordinate data resulting
# from the CCDC's data processing and validation procedures.
#
#######################################################################

data_CSD_CIF_IBPRAC04
_audit_creation_date 2010-06-03
_audit_creation_method CSD-ConQuest-V1
_database_code_CSD IBPRAC04
_database_code_depnum_ccdc_archive 'CCDC 774097'
_chemical_formula_sum 'C13 H18 O2'
_chemical_formula_moiety
;
C13 H18 O2
;
_journal_coeditor_code "IUCr WS5072"
_journal_coden_Cambridge 622
_journal_volume 66
_journal_year 2010
_journal_page_first 76
_journal_name_full 'Acta Crystallogr.,Sect.B:Struct.Sci. '
loop_
_publ_author_name
"P.Derollez"
"E.Dudognon"
"F.Affouard"
"F.Danede"
"N.T.Correia"
"M.Descamps"
_chemical_name_systematic
;
2-(4-Isobutylphenyl)propionic acid
;
_chemical_name_common
;
Ibuprofen; Advil; Motrin; Nurofen; DrugBank: DB01050; Teaching Subset: 
Fundamental Chemistry, Drug Molecules
;
_cell_volume   1272.028
_exptl_crystal_density_diffrn 1.077
_exptl_special_details
;
polymorph 2
anti-inflammatory drug
powder data

;
_diffrn_ambient_temperature 258
#These two values have been output from a single CSD field.
_refine_ls_R_factor_gt 0.058
_refine_ls_wR_factor_gt 0.058
loop_
_citation_database_id_CSD
_citation_special_details
JEKNOC "is a stereoisomer of this entry"
_symmetry_cell_setting monoclinic
_symmetry_space_group_name_H-M 'P 21/c'
_symmetry_Int_Tables_number 14
loop_
_symmetry_equiv_pos_site_id
_symmetry_equiv_pos_as_xyz
1 x,y,z
2 -x,1/2+y,1/2-z
3 -x,-y,-z
4 x,-1/2-y,-1/2+z
_cell_length_a 12.3794(9)
_cell_length_b 5.8723(5)
_cell_length_c 17.5615(15)
_cell_angle_alpha 90
_cell_angle_beta 94.873(4)
_cell_angle_gamma 90
_cell_formula_units_Z 4
loop_
_atom_type_symbol
_atom_type_radius_bond
C 0.68
H 0.23
O 0.68
loop_
_atom_site_label
_atom_site_type_symbol
_atom_site_fract_x
_atom_site_fract_y
_atom_site_fract_z
C1 C 0.5572(6) 0.6766(19) 0.4158(4)
C2 C 0.6059(6) 0.8680(12) 0.3731(4)
C3 C 0.6963(8) 0.967(2) 0.4240(6)
C4 C 0.6641(11) 0.734(4) 0.3179(5)
C5 C 0.7604(12) 0.631(4) 0.3441(7)
C6 C 0.8130(12) 0.489(3) 0.2963(5)
C7 C 0.7692(11) 0.450(3) 0.2225(6)
C8 C 0.6729(11) 0.554(3) 0.1962(6)
C9 C 0.6204(11) 0.696(3) 0.2439(5)
C10 C 0.8061(12) 0.2511(11) 0.1767(6)
C11 C 0.8511(5) 0.389(1) 0.1113(4)
C12 C 0.9146(10) 0.1809(16) 0.0890(7)
C13 C 0.9565(7) 0.507(2) 0.1420(7)
O1 O 0.6004(8) 0.6812(17) 0.4845(4)
O2 O 0.4615(5) 0.6338(17) 0.4159(5)
H1 H 0.54252 0.59460 0.51577
H2 H 0.54247 0.95211 0.34572
H3 H 0.69457 0.93109 0.47765
H4 H 0.76245 0.93109 0.40258
H5 H 0.68509 1.14351 0.42214
H6 H 0.79091 0.64412 0.39829
H7 H 0.88185 0.41905 0.31802
H8 H 0.64266 0.52523 0.14303
H9 H 0.55273 0.76436 0.22148
H10 H 0.75186 0.17634 0.14443
H11 H 0.85372 0.14644 0.21091
H12 H 0.79116 0.42036 0.07230
H13 H 0.97950 0.16131 0.12476
H14 H 0.94623 0.20722 0.04049
H15 H 0.86032 0.06455 0.06744
H16 H 0.99160 0.58868 0.10212
H17 H 0.98938 0.39791 0.18671
H18 H 0.95001 0.64061 0.18671
#END
