####################################################################### 
# 
# This file contains crystal structure data downloaded from the 
# Cambridge Structural Database (CSD) hosted by the Cambridge 
# Crystallographic Data Centre (CCDC).
# 
# Full information about CCDC data access policies and citation 
# guidelines are available at http://www.ccdc.cam.ac.uk/access/V1 
# 
# Audit and citation data items may have been added by the CCDC. 
# Please retain this information to preserve the provenance of 
# this file and to allow appropriate attribution of the data. 
# 
#######################################################################

data_w5
_audit_block_doi                 10.5517/cc7t3ch
_database_code_depnum_ccdc_archive 'CCDC 232666'
loop_
_citation_id
_citation_doi
_citation_year
1 10.1002/ejic.200400173 2004
_audit_update_record             
;
2004-03-01 deposited with the CCDC.	2024-07-10 downloaded from the CCDC.
;

_audit_creation_method           SHELXL-97
_chemical_name_systematic        
;
?
;
_chemical_name_common            ?
_chemical_melting_point          ?
_chemical_formula_moiety         ?
_chemical_formula_sum            'C50 H40 Co N6 O4 S2'
_chemical_formula_weight         911.93

loop_
_atom_type_symbol
_atom_type_description
_atom_type_scat_dispersion_real
_atom_type_scat_dispersion_imag
_atom_type_scat_source
C C 0.0033 0.0016 'International Tables Vol C Tables 4.2.6.8 and 6.1.1.4'
Co Co 0.3494 0.9721 'International Tables Vol C Tables 4.2.6.8 and 6.1.1.4'
N N 0.0061 0.0033 'International Tables Vol C Tables 4.2.6.8 and 6.1.1.4'
O O 0.0106 0.0060 'International Tables Vol C Tables 4.2.6.8 and 6.1.1.4'
S S 0.1246 0.1234 'International Tables Vol C Tables 4.2.6.8 and 6.1.1.4'
H H 0.0000 0.0000 'International Tables Vol C Tables 4.2.6.8 and 6.1.1.4'

_symmetry_cell_setting           Monoclinic
_symmetry_space_group_name_H-M   P2(1)/c

loop_
_symmetry_equiv_pos_as_xyz
'x, y, z'
'-x, y+1/2, -z+1/2'
'-x, -y, -z'
'x, -y-1/2, z-1/2'

_cell_length_a                   14.6304(6)
_cell_length_b                   13.1288(5)
_cell_length_c                   29.4893(9)
_cell_angle_alpha                90.00
_cell_angle_beta                 117.899(2)
_cell_angle_gamma                90.00
_cell_volume                     5006.0(3)
_cell_formula_units_Z            4
_cell_measurement_temperature    293(2)
_cell_measurement_reflns_used    ?
_cell_measurement_theta_min      ?
_cell_measurement_theta_max      ?

_exptl_crystal_description       sheet
_exptl_crystal_colour            red
_exptl_crystal_size_max          0.30
_exptl_crystal_size_mid          0.22
_exptl_crystal_size_min          0.14
_exptl_crystal_density_meas      ?
_exptl_crystal_density_diffrn    1.210
_exptl_crystal_density_method    'not measured'
_exptl_crystal_F_000             1892
_exptl_absorpt_coefficient_mu    0.473
_exptl_absorpt_correction_type   ?
_exptl_absorpt_correction_T_min  ?
_exptl_absorpt_correction_T_max  ?
_exptl_absorpt_process_details   ?

_exptl_special_details           
;
?
;

_diffrn_ambient_temperature      293(2)
_diffrn_radiation_wavelength     0.71073
_diffrn_radiation_type           MoK\a
_diffrn_radiation_source         'fine-focus sealed tube'
_diffrn_radiation_monochromator  graphite
_diffrn_measurement_device_type  ?
_diffrn_measurement_method       ?
_diffrn_detector_area_resol_mean ?
_diffrn_standards_number         ?
_diffrn_standards_interval_count ?
_diffrn_standards_interval_time  ?
_diffrn_standards_decay_%        ?
_diffrn_reflns_number            14199
_diffrn_reflns_av_R_equivalents  0.0445
_diffrn_reflns_av_sigmaI/netI    0.0751
_diffrn_reflns_limit_h_min       -17
_diffrn_reflns_limit_h_max       17
_diffrn_reflns_limit_k_min       -10
_diffrn_reflns_limit_k_max       15
_diffrn_reflns_limit_l_min       -21
_diffrn_reflns_limit_l_max       35
_diffrn_reflns_theta_min         2.58
_diffrn_reflns_theta_max         25.13
_reflns_number_total             8677
_reflns_number_gt                5330
_reflns_threshold_expression     >2sigma(I)

_computing_data_collection       ?
_computing_cell_refinement       ?
_computing_data_reduction        ?
_computing_structure_solution    'SHELXS-97 (Sheldrick, 1990)'
_computing_structure_refinement  'SHELXL-97 (Sheldrick, 1997)'
_computing_molecular_graphics    ?
_computing_publication_material  ?

_refine_special_details          
;
Refinement of F^2^ against ALL reflections.  The weighted R-factor wR and
goodness of fit S are based on F^2^, conventional R-factors R are based
on F, with F set to zero for negative F^2^. The threshold expression of
F^2^ > 2sigma(F^2^) is used only for calculating R-factors(gt) etc. and is
not relevant to the choice of reflections for refinement.  R-factors based
on F^2^ are statistically about twice as large as those based on F, and R-
factors based on ALL data will be even larger.
;

_refine_ls_structure_factor_coef Fsqd
_refine_ls_matrix_type           full
_refine_ls_weighting_scheme      calc
_refine_ls_weighting_details     
'calc w=1/[\s^2^(Fo^2^)+(0.0989P)^2^+8.9493P] where P=(Fo^2^+2Fc^2^)/3'
_atom_sites_solution_primary     direct
_atom_sites_solution_secondary   difmap
_atom_sites_solution_hydrogens   geom
_refine_ls_hydrogen_treatment    mixed
_refine_ls_extinction_method     none
_refine_ls_extinction_coef       ?
_refine_ls_number_reflns         8677
_refine_ls_number_parameters     568
_refine_ls_number_restraints     0
_refine_ls_R_factor_all          0.1507
_refine_ls_R_factor_gt           0.0905
_refine_ls_wR_factor_ref         0.2468
_refine_ls_wR_factor_gt          0.2043
_refine_ls_goodness_of_fit_ref   1.111
_refine_ls_restrained_S_all      1.111
_refine_ls_shift/su_max          0.000
_refine_ls_shift/su_mean         0.000

loop_
_atom_site_label
_atom_site_type_symbol
_atom_site_fract_x
_atom_site_fract_y
_atom_site_fract_z
_atom_site_U_iso_or_equiv
_atom_site_adp_type
_atom_site_occupancy
_atom_site_symmetry_multiplicity
_atom_site_calc_flag
_atom_site_refinement_flags
_atom_site_disorder_assembly
_atom_site_disorder_group
Co Co 0.16349(6) -0.83354(6) -0.18010(3) 0.0434(3) Uani 1 1 d . . .
S1 S 0.1590(3) -1.18326(17) -0.13090(12) 0.1255(11) Uani 1 1 d . . .
S2 S 0.23118(19) -0.48235(16) -0.20533(14) 0.1167(11) Uani 1 1 d . . .
O3 O 0.6865(3) -0.9882(3) -0.10624(19) 0.0698(13) Uani 1 1 d . . .
O4 O 0.7138(4) -1.2099(4) -0.08373(17) 0.0782(15) Uani 1 1 d . . .
O5 O 0.1052(3) -1.0354(3) -0.41340(16) 0.0558(11) Uani 1 1 d . . .
O6 O 0.2555(3) -1.1680(3) -0.34806(15) 0.0600(11) Uani 1 1 d . . .
N1 N 0.1464(4) -0.9836(4) -0.1648(2) 0.0564(14) Uani 1 1 d . . .
N2 N 0.1889(4) -0.6847(4) -0.19559(19) 0.0536(13) Uani 1 1 d . . .
N3 N 0.3302(4) -0.8632(4) -0.15407(19) 0.0489(12) Uani 1 1 d . . .
N4 N 0.7875(4) -1.2040(4) 0.09786(19) 0.0540(13) Uani 1 1 d . . .
N5 N 0.1119(4) -0.8799(4) -0.25871(18) 0.0468(12) Uani 1 1 d . . .
N6 N -0.0070(4) -1.2915(4) -0.30385(19) 0.0472(12) Uani 1 1 d . . .
C1 C 0.1515(5) -1.0663(6) -0.1509(3) 0.0598(17) Uani 1 1 d . . .
C2 C 0.2056(5) -0.5996(5) -0.2002(3) 0.0573(17) Uani 1 1 d . . .
C11 C 0.8062(5) -1.0787(5) -0.1224(3) 0.0564(17) Uani 1 1 d . . .
C12 C 0.7879(5) -0.9986(5) -0.0963(3) 0.0585(17) Uani 1 1 d . . .
C13 C 0.8674(5) -0.9358(6) -0.0639(3) 0.0652(18) Uani 1 1 d . . .
H13 H 0.8549 -0.8837 -0.0462 0.078 Uiso 1 1 calc R . .
C14 C 0.9649(6) -0.9508(6) -0.0582(3) 0.075(2) Uani 1 1 d . . .
H14 H 1.0183 -0.9082 -0.0365 0.089 Uiso 1 1 calc R . .
C15 C 0.9850(6) -1.0257(7) -0.0833(4) 0.081(2) Uani 1 1 d . . .
H15 H 1.0517 -1.0346 -0.0789 0.097 Uiso 1 1 calc R . .
C16 C 0.9061(6) -1.0897(6) -0.1157(3) 0.072(2) Uani 1 1 d . . .
H16 H 0.9203 -1.1409 -0.1333 0.087 Uiso 1 1 calc R . .
C21 C 0.6584(5) -0.8968(5) -0.0914(3) 0.075(2) Uani 1 1 d . . .
H21A H 0.6853 -0.8396 -0.1023 0.090 Uiso 1 1 calc R . .
H21B H 0.6884 -0.8946 -0.0543 0.090 Uiso 1 1 calc R . .
C22 C 0.5430(5) -0.8883(5) -0.1147(3) 0.0544(16) Uani 1 1 d . . .
C23 C 0.4752(5) -0.9660(5) -0.1411(3) 0.070(2) Uani 1 1 d . . .
H23 H 0.4998 -1.0279 -0.1463 0.084 Uiso 1 1 calc R . .
C24 C 0.3705(5) -0.9506(5) -0.1595(3) 0.0648(18) Uani 1 1 d . . .
H24 H 0.3257 -1.0039 -0.1766 0.078 Uiso 1 1 calc R . .
C25 C 0.3980(5) -0.7887(5) -0.1293(2) 0.0519(15) Uani 1 1 d . . .
H25 H 0.3725 -0.7266 -0.1249 0.062 Uiso 1 1 calc R . .
C26 C 0.5011(5) -0.7989(5) -0.1104(3) 0.0613(18) Uani 1 1 d . . .
H26 H 0.5442 -0.7439 -0.0941 0.074 Uiso 1 1 calc R . .
C31 C 0.7238(5) -1.1492(5) -0.1557(2) 0.0562(17) Uani 1 1 d . . .
C32 C 0.6782(6) -1.2163(5) -0.1357(3) 0.0645(18) Uani 1 1 d . . .
C33 C 0.6046(6) -1.2873(6) -0.1664(3) 0.077(2) Uani 1 1 d . . .
H33 H 0.5754 -1.3325 -0.1525 0.093 Uiso 1 1 calc R . .
C34 C 0.5758(7) -1.2887(7) -0.2192(3) 0.088(3) Uani 1 1 d . . .
H34 H 0.5266 -1.3352 -0.2407 0.106 Uiso 1 1 calc R . .
C35 C 0.6191(7) -1.2230(7) -0.2387(3) 0.081(3) Uani 1 1 d . . .
H35 H 0.5995 -1.2250 -0.2736 0.097 Uiso 1 1 calc R . .
C36 C 0.6908(6) -1.1539(6) -0.2084(3) 0.072(2) Uani 1 1 d . . .
H36 H 0.7185 -1.1089 -0.2230 0.087 Uiso 1 1 calc R . .
C41 C 0.6826(7) -1.2826(6) -0.0599(3) 0.084(2) Uani 1 1 d . . .
H41A H 0.7088 -1.3489 -0.0626 0.100 Uiso 1 1 calc R . .
H41B H 0.6076 -1.2861 -0.0765 0.100 Uiso 1 1 calc R . .
C42 C 0.7229(6) -1.2549(5) -0.0045(3) 0.0635(18) Uani 1 1 d . . .
C43 C 0.7520(7) -1.3276(5) 0.0325(3) 0.076(2) Uani 1 1 d . . .
H43 H 0.7509 -1.3959 0.0240 0.091 Uiso 1 1 calc R . .
C44 C 0.7830(6) -1.3000(5) 0.0821(3) 0.070(2) Uani 1 1 d . . .
H44 H 0.8022 -1.3514 0.1066 0.084 Uiso 1 1 calc R . .
C45 C 0.7599(7) -1.1345(6) 0.0617(3) 0.077(2) Uani 1 1 d . . .
H45 H 0.7618 -1.0666 0.0711 0.093 Uiso 1 1 calc R . .
C46 C 0.7282(7) -1.1564(6) 0.0107(3) 0.087(3) Uani 1 1 d . . .
H46 H 0.7105 -1.1039 -0.0131 0.104 Uiso 1 1 calc R . .
C51 C 0.1875(5) -1.1281(4) -0.4521(2) 0.0483(15) Uani 1 1 d . . .
C52 C 0.0942(5) -1.1018(5) -0.4515(2) 0.0517(15) Uani 1 1 d . . .
C53 C 0.0012(5) -1.1386(5) -0.4882(2) 0.0636(18) Uani 1 1 d . . .
H53 H -0.0595 -1.1232 -0.4868 0.076 Uiso 1 1 calc R . .
C54 C -0.0020(6) -1.1989(6) -0.5276(3) 0.076(2) Uani 1 1 d . . .
H54 H -0.0650 -1.2245 -0.5523 0.092 Uiso 1 1 calc R . .
C55 C 0.0855(6) -1.2210(5) -0.5305(3) 0.070(2) Uani 1 1 d . . .
H55 H 0.0824 -1.2592 -0.5578 0.084 Uiso 1 1 calc R . .
C56 C 0.1788(6) -1.1865(5) -0.4930(3) 0.0606(18) Uani 1 1 d . . .
H56 H 0.2385 -1.2031 -0.4951 0.073 Uiso 1 1 calc R . .
C61 C 0.0193(5) -1.0246(5) -0.4044(2) 0.0525(15) Uani 1 1 d . . .
H61A H -0.0078 -1.0912 -0.4028 0.063 Uiso 1 1 calc R . .
H61B H -0.0348 -0.9866 -0.4322 0.063 Uiso 1 1 calc R . .
C62 C 0.0528(4) -0.9690(4) -0.3542(2) 0.0445(14) Uani 1 1 d . . .
C63 C -0.0121(5) -0.9675(5) -0.3324(2) 0.0602(18) Uani 1 1 d . . .
H63 H -0.0781 -0.9952 -0.3498 0.072 Uiso 1 1 calc R . .
C64 C 0.0204(5) -0.9255(5) -0.2852(3) 0.0626(18) Uani 1 1 d . . .
H64 H -0.0236 -0.9287 -0.2705 0.075 Uiso 1 1 calc R . .
C65 C 0.1714(5) -0.8763(5) -0.2815(2) 0.0584(17) Uani 1 1 d . . .
H65 H 0.2347 -0.8429 -0.2645 0.070 Uiso 1 1 calc R . .
C66 C 0.1454(5) -0.9192(5) -0.3289(2) 0.0541(16) Uani 1 1 d . . .
H66 H 0.1898 -0.9142 -0.3433 0.065 Uiso 1 1 calc R . .
C71 C 0.2910(4) -1.0951(4) -0.4110(2) 0.0474(14) Uani 1 1 d . . .
C72 C 0.3231(5) -1.1147(5) -0.3590(2) 0.0485(14) Uani 1 1 d . . .
C73 C 0.4194(5) -1.0850(5) -0.3223(3) 0.0598(17) Uani 1 1 d . . .
H73 H 0.4394 -1.0964 -0.2878 0.072 Uiso 1 1 calc R . .
C74 C 0.4871(5) -1.0382(5) -0.3365(3) 0.0673(19) Uani 1 1 d . . .
H74 H 0.5517 -1.0168 -0.3116 0.081 Uiso 1 1 calc R . .
C75 C 0.4586(6) -1.0236(5) -0.3872(4) 0.070(2) Uani 1 1 d . . .
H75 H 0.5049 -0.9948 -0.3968 0.084 Uiso 1 1 calc R . .
C76 C 0.3607(5) -1.0517(5) -0.4242(3) 0.0584(17) Uani 1 1 d . . .
H76 H 0.3418 -1.0410 -0.4587 0.070 Uiso 1 1 calc R . .
C81 C 0.2731(5) -1.1754(5) -0.2966(2) 0.0564(16) Uani 1 1 d . . .
H81A H 0.2870 -1.1086 -0.2808 0.068 Uiso 1 1 calc R . .
H81B H 0.3321 -1.2190 -0.2769 0.068 Uiso 1 1 calc R . .
C82 C 0.1770(4) -1.2197(5) -0.2981(2) 0.0477(14) Uani 1 1 d . . .
C83 C 0.1244(5) -1.2973(6) -0.3302(3) 0.071(2) Uani 1 1 d . . .
H83 H 0.1492 -1.3268 -0.3510 0.085 Uiso 1 1 calc R . .
C84 C 0.0332(5) -1.3323(5) -0.3318(3) 0.0654(19) Uani 1 1 d . . .
H84 H -0.0010 -1.3867 -0.3533 0.078 Uiso 1 1 calc R . .
C85 C 0.0468(5) -1.2193(5) -0.2715(2) 0.0594(17) Uani 1 1 d . . .
H85 H 0.0219 -1.1922 -0.2503 0.071 Uiso 1 1 calc R . .
C86 C 0.1384(5) -1.1814(5) -0.2674(2) 0.0609(17) Uani 1 1 d . . .
H86 H 0.1737 -1.1302 -0.2439 0.073 Uiso 1 1 calc R . .

loop_
_atom_site_aniso_label
_atom_site_aniso_U_11
_atom_site_aniso_U_22
_atom_site_aniso_U_33
_atom_site_aniso_U_23
_atom_site_aniso_U_13
_atom_site_aniso_U_12
Co 0.0466(5) 0.0436(5) 0.0456(5) -0.0039(4) 0.0263(4) -0.0001(4)
S1 0.226(3) 0.0593(13) 0.142(2) 0.0271(14) 0.129(3) 0.0253(17)
S2 0.0930(16) 0.0520(12) 0.245(4) 0.0252(16) 0.112(2) 0.0116(11)
O3 0.056(3) 0.060(3) 0.101(4) -0.015(3) 0.043(3) 0.004(2)
O4 0.124(4) 0.067(3) 0.046(3) -0.007(2) 0.042(3) -0.031(3)
O5 0.045(2) 0.072(3) 0.057(3) -0.020(2) 0.029(2) 0.002(2)
O6 0.055(2) 0.081(3) 0.049(2) 0.007(2) 0.029(2) -0.015(2)
N1 0.067(4) 0.042(3) 0.069(4) -0.001(3) 0.040(3) -0.002(3)
N2 0.061(3) 0.052(3) 0.054(3) 0.001(3) 0.032(3) 0.002(3)
N3 0.049(3) 0.045(3) 0.053(3) -0.006(2) 0.024(3) -0.001(2)
N4 0.066(3) 0.051(3) 0.048(3) 0.001(3) 0.029(3) -0.001(3)
N5 0.044(3) 0.052(3) 0.050(3) -0.010(2) 0.025(2) -0.007(2)
N6 0.052(3) 0.047(3) 0.054(3) 0.001(2) 0.034(3) 0.001(2)
C1 0.075(5) 0.060(4) 0.061(4) -0.008(3) 0.046(4) 0.005(4)
C2 0.043(3) 0.060(4) 0.075(5) 0.000(4) 0.033(3) 0.007(3)
C11 0.064(4) 0.057(4) 0.064(4) 0.019(3) 0.044(4) 0.014(3)
C12 0.062(4) 0.062(4) 0.064(4) 0.022(3) 0.040(4) 0.017(4)
C13 0.054(4) 0.073(5) 0.075(5) 0.013(4) 0.036(4) 0.008(4)
C14 0.062(5) 0.076(5) 0.089(6) 0.032(4) 0.038(4) 0.011(4)
C15 0.068(5) 0.081(6) 0.113(7) 0.046(5) 0.059(5) 0.026(5)
C16 0.086(6) 0.070(5) 0.089(5) 0.031(4) 0.063(5) 0.031(4)
C21 0.054(4) 0.055(4) 0.108(6) -0.019(4) 0.032(4) -0.003(3)
C22 0.047(4) 0.050(4) 0.069(4) -0.010(3) 0.029(3) -0.005(3)
C23 0.053(4) 0.057(4) 0.100(6) -0.013(4) 0.038(4) 0.009(3)
C24 0.061(4) 0.047(4) 0.081(5) -0.020(3) 0.029(4) -0.006(3)
C25 0.049(4) 0.040(3) 0.060(4) -0.006(3) 0.020(3) -0.002(3)
C26 0.052(4) 0.047(4) 0.077(5) -0.008(3) 0.024(4) -0.002(3)
C31 0.068(4) 0.056(4) 0.054(4) 0.016(3) 0.037(4) 0.026(3)
C32 0.090(5) 0.053(4) 0.051(4) -0.003(3) 0.034(4) 0.008(4)
C33 0.097(6) 0.077(5) 0.052(4) -0.005(4) 0.031(4) 0.000(5)
C34 0.097(6) 0.090(6) 0.053(5) -0.021(4) 0.015(5) 0.025(5)
C35 0.098(6) 0.099(6) 0.044(4) 0.016(5) 0.033(5) 0.051(6)
C36 0.084(5) 0.089(6) 0.053(4) 0.015(4) 0.040(4) 0.041(5)
C41 0.126(7) 0.074(5) 0.050(4) -0.007(4) 0.041(4) -0.041(5)
C42 0.084(5) 0.061(4) 0.051(4) -0.008(3) 0.036(4) -0.017(4)
C43 0.122(7) 0.051(4) 0.061(4) -0.011(4) 0.049(5) -0.003(4)
C44 0.104(6) 0.060(4) 0.050(4) -0.001(3) 0.039(4) 0.003(4)
C45 0.124(7) 0.053(4) 0.051(4) -0.006(3) 0.037(4) -0.014(4)
C46 0.146(8) 0.062(5) 0.048(4) 0.001(4) 0.042(5) -0.025(5)
C51 0.063(4) 0.044(3) 0.048(3) 0.008(3) 0.034(3) 0.010(3)
C52 0.060(4) 0.054(4) 0.045(4) -0.001(3) 0.029(3) 0.010(3)
C53 0.057(4) 0.073(5) 0.055(4) -0.014(4) 0.022(3) 0.008(4)
C54 0.085(5) 0.089(6) 0.052(4) -0.022(4) 0.029(4) 0.000(4)
C55 0.096(6) 0.061(4) 0.056(4) -0.010(4) 0.038(4) 0.008(4)
C56 0.084(5) 0.050(4) 0.068(4) 0.000(3) 0.053(4) 0.008(3)
C61 0.048(4) 0.058(4) 0.051(4) -0.011(3) 0.022(3) 0.000(3)
C62 0.047(3) 0.046(3) 0.041(3) 0.000(3) 0.022(3) 0.002(3)
C63 0.043(3) 0.078(5) 0.060(4) -0.031(4) 0.025(3) -0.017(3)
C64 0.049(4) 0.084(5) 0.065(4) -0.024(4) 0.035(3) -0.008(4)
C65 0.063(4) 0.071(4) 0.051(4) -0.014(3) 0.035(3) -0.024(3)
C66 0.052(4) 0.067(4) 0.051(4) -0.006(3) 0.030(3) -0.014(3)
C71 0.050(3) 0.042(3) 0.063(4) 0.004(3) 0.037(3) 0.011(3)
C72 0.046(3) 0.051(4) 0.053(4) 0.012(3) 0.027(3) 0.002(3)
C73 0.049(4) 0.067(4) 0.062(4) 0.016(3) 0.025(3) 0.002(3)
C74 0.048(4) 0.067(5) 0.090(6) 0.013(4) 0.034(4) 0.002(3)
C75 0.066(5) 0.054(4) 0.115(7) 0.013(4) 0.062(5) 0.003(4)
C76 0.071(5) 0.048(4) 0.076(5) 0.020(3) 0.051(4) 0.014(3)
C81 0.049(3) 0.075(4) 0.047(4) 0.004(3) 0.023(3) -0.002(3)
C82 0.048(3) 0.056(4) 0.043(3) 0.010(3) 0.026(3) -0.003(3)
C83 0.071(5) 0.081(5) 0.087(5) -0.026(4) 0.059(4) -0.015(4)
C84 0.072(4) 0.064(4) 0.083(5) -0.022(4) 0.055(4) -0.014(4)
C85 0.058(4) 0.079(5) 0.055(4) -0.018(4) 0.038(3) -0.012(4)
C86 0.061(4) 0.074(5) 0.053(4) -0.016(3) 0.031(3) -0.016(4)

_geom_special_details            
;
All esds (except the esd in the dihedral angle between two l.s. planes)
are estimated using the full covariance matrix.  The cell esds are taken
into account individually in the estimation of esds in distances, angles
and torsion angles; correlations between esds in cell parameters are only
used when they are defined by crystal symmetry.  An approximate (isotropic)
treatment of cell esds is used for estimating esds involving l.s. planes.
;

loop_
_geom_bond_atom_site_label_1
_geom_bond_atom_site_label_2
_geom_bond_distance
_geom_bond_site_symmetry_2
_geom_bond_publ_flag
Co N1 2.062(5) . ?
Co N2 2.080(6) . ?
Co N5 2.162(5) . ?
Co N6 2.181(5) 2_554 ?
Co N3 2.222(5) . ?
Co N4 2.239(5) 3_635 ?
S1 C1 1.630(8) . ?
S2 C2 1.608(8) . ?
O3 C12 1.378(7) . ?
O3 C21 1.403(8) . ?
O4 C32 1.372(8) . ?
O4 C41 1.384(8) . ?
O5 C52 1.370(7) . ?
O5 C61 1.408(7) . ?
O6 C72 1.367(7) . ?
O6 C81 1.418(7) . ?
N1 C1 1.150(8) . ?
N2 C2 1.165(8) . ?
N3 C24 1.334(8) . ?
N3 C25 1.340(7) . ?
N4 C45 1.315(8) . ?
N4 C44 1.333(8) . ?
N4 Co 2.239(5) 3_635 ?
N5 C65 1.327(7) . ?
N5 C64 1.334(7) . ?
N6 C85 1.314(8) . ?
N6 C84 1.329(8) . ?
N6 Co 2.181(5) 2_544 ?
C11 C16 1.387(9) . ?
C11 C12 1.402(9) . ?
C11 C31 1.472(10) . ?
C12 C13 1.380(10) . ?
C13 C14 1.370(10) . ?
C14 C15 1.343(11) . ?
C15 C16 1.386(11) . ?
C