####################################################################### 
# 
# This file contains crystal structure data downloaded from the 
# Cambridge Structural Database (CSD) hosted by the Cambridge 
# Crystallographic Data Centre (CCDC).
# 
# Full information about CCDC data access policies and citation 
# guidelines are available at http://www.ccdc.cam.ac.uk/access/V1 
# 
# Audit and citation data items may have been added by the CCDC. 
# Please retain this information to preserve the provenance of 
# this file and to allow appropriate attribution of the data. 
# 
#######################################################################

data_3
_audit_block_doi                 10.5517/ccwqs1d
_database_code_depnum_ccdc_archive 'CCDC 826244'
loop_
_citation_id
_citation_doi
_citation_year
1 10.1039/c1ce05889d 2011
_audit_update_record             
;
2011-05-17 deposited with the CCDC.	2024-07-10 downloaded from the CCDC.
;
#TrackingRef '- cif.cif'


_audit_creation_method           SHELXL-97
_chemical_name_systematic        
;
?
;
_chemical_name_common            ?
_chemical_melting_point          ?
_chemical_formula_moiety         '2(C37 H23 N7 O8 Zn2), 7(H2 O)'
_chemical_formula_sum            'C74 H53 N14 O23 Zn4'
_chemical_formula_weight         1767.78

loop_
_atom_type_symbol
_atom_type_description
_atom_type_scat_dispersion_real
_atom_type_scat_dispersion_imag
_atom_type_scat_source
C C 0.0033 0.0016 'International Tables Vol C Tables 4.2.6.8 and 6.1.1.4'
H H 0.0000 0.0000 'International Tables Vol C Tables 4.2.6.8 and 6.1.1.4'
O O 0.0106 0.0060 'International Tables Vol C Tables 4.2.6.8 and 6.1.1.4'
Zn Zn 0.2839 1.4301 'International Tables Vol C Tables 4.2.6.8 and 6.1.1.4'
N N 0.0061 0.0033 'International Tables Vol C Tables 4.2.6.8 and 6.1.1.4'

_symmetry_cell_setting           Monoclinic
_symmetry_space_group_name_H-M   'P 21/c'
_symmetry_space_group_name_hall  '-P 2ybc '


loop_
_symmetry_equiv_pos_as_xyz
'x, y, z'
'-x, y+1/2, -z+1/2'
'-x, -y, -z'
'x, -y-1/2, z-1/2'

_cell_length_a                   17.7970(4)
_cell_length_b                   7.7300(2)
_cell_length_c                   26.6750(6)
_cell_angle_alpha                90.00
_cell_angle_beta                 93.466(2)
_cell_angle_gamma                90.00
_cell_volume                     3662.99(15)
_cell_formula_units_Z            2
_cell_measurement_temperature    293(2)
_cell_measurement_reflns_used    6681
_cell_measurement_theta_min      4.1
_cell_measurement_theta_max      25.4

_exptl_crystal_description       BLOCK
_exptl_crystal_colour            COLORLESS
_exptl_crystal_size_max          0.27
_exptl_crystal_size_mid          0.23
_exptl_crystal_size_min          0.19
_exptl_crystal_density_meas      ?
_exptl_crystal_density_diffrn    1.603
_exptl_crystal_density_method    'not measured'
_exptl_crystal_F_000             1798
_exptl_absorpt_coefficient_mu    1.384
_exptl_absorpt_correction_type   multi-scan
_exptl_absorpt_correction_T_min  0.699
_exptl_absorpt_correction_T_max  0.770
_exptl_absorpt_process_details   
;
CrysAlis (Oxford Diffraction, 2006)
;

_exptl_special_details           
;
?
;

_diffrn_ambient_temperature      293(2)
_diffrn_radiation_wavelength     0.71069
_diffrn_radiation_type           MoK\a
_diffrn_radiation_source         'fine-focus sealed tube'
_diffrn_radiation_monochromator  graphite
_diffrn_measurement_device_type  'Oxford Diffraction Gemini R Ultra'
_diffrn_measurement_method       '\w scan'
_diffrn_detector_area_resol_mean 10.0
_diffrn_standards_number         ?
_diffrn_standards_interval_count ?
_diffrn_standards_interval_time  ?
_diffrn_standards_decay_%        ?
_diffrn_reflns_number            15894
_diffrn_reflns_av_R_equivalents  0.0428
_diffrn_reflns_av_sigmaI/netI    0.0765
_diffrn_reflns_limit_h_min       -21
_diffrn_reflns_limit_h_max       21
_diffrn_reflns_limit_k_min       -7
_diffrn_reflns_limit_k_max       9
_diffrn_reflns_limit_l_min       -31
_diffrn_reflns_limit_l_max       32
_diffrn_reflns_theta_min         4.10
_diffrn_reflns_theta_max         25.35
_reflns_number_total             6681
_reflns_number_gt                4451
_reflns_threshold_expression     >2\s(I)

_computing_data_collection       'CrysAlis (Oxford Diffraction, 2006)'
_computing_cell_refinement       CrysAlis
_computing_data_reduction        CrysAlis
_computing_structure_solution    'SHELXS-97 (Sheldrick, 1997)'
_computing_structure_refinement  'SHELXL-97 (Sheldrick, 2008)'
_computing_molecular_graphics    ?
_computing_publication_material  ?

_refine_special_details          
;
Refinement of F^2^ against ALL reflections. The weighted R-factor wR and
goodness of fit S are based on F^2^, conventional R-factors R are based
on F, with F set to zero for negative F^2^. The threshold expression of
F^2^ > 2\s(F^2^) is used only for calculating R-factors(gt) etc. and is
not relevant to the choice of reflections for refinement. R-factors based
on F^2^ are statistically about twice as large as those based on F, and R-
factors based on ALL data will be even larger.
;

_refine_ls_structure_factor_coef Fsqd
_refine_ls_matrix_type           full
_refine_ls_weighting_scheme      calc
_refine_ls_weighting_details     
'calc w=1/[\s^2^(Fo^2^)+(0.0386P)^2^+0.0000P] where P=(Fo^2^+2Fc^2^)/3'
_atom_sites_solution_primary     direct
_atom_sites_solution_secondary   difmap
_atom_sites_solution_hydrogens   geom
_refine_ls_hydrogen_treatment    constr
_refine_ls_extinction_method     none
_refine_ls_extinction_coef       ?
_refine_ls_number_reflns         6681
_refine_ls_number_parameters     518
_refine_ls_number_restraints     0
_refine_ls_R_factor_all          0.0648
_refine_ls_R_factor_gt           0.0380
_refine_ls_wR_factor_ref         0.0808
_refine_ls_wR_factor_gt          0.0765
_refine_ls_goodness_of_fit_ref   0.890
_refine_ls_restrained_S_all      0.890
_refine_ls_shift/su_max          0.001
_refine_ls_shift/su_mean         0.000

loop_
_atom_site_label
_atom_site_type_symbol
_atom_site_fract_x
_atom_site_fract_y
_atom_site_fract_z
_atom_site_U_iso_or_equiv
_atom_site_adp_type
_atom_site_occupancy
_atom_site_symmetry_multiplicity
_atom_site_calc_flag
_atom_site_refinement_flags
_atom_site_disorder_assembly
_atom_site_disorder_group
Zn1 Zn 0.80343(2) -0.43200(4) -0.024002(13) 0.02726(11) Uani 1 1 d . . .
Zn2 Zn 0.69659(2) 0.02353(4) 0.036673(13) 0.02705(11) Uani 1 1 d . . .
C1 C 0.92569(17) -0.0288(4) 0.01192(10) 0.0240(7) Uani 1 1 d . . .
C2 C 0.97485(18) -0.1653(4) 0.00585(11) 0.0270(7) Uani 1 1 d . . .
H3 H 0.9574 -0.2774 0.0102 0.032 Uiso 1 1 calc R . .
C3 C 1.04880(18) -0.1424(4) -0.00636(10) 0.0240(7) Uani 1 1 d . . .
C4 C 0.84661(18) -0.0701(4) 0.02393(10) 0.0244(7) Uani 1 1 d . . .
C5 C 1.09406(18) -0.3076(4) -0.01314(13) 0.0298(8) Uani 1 1 d . . .
C6 C 0.65589(19) -0.4585(4) -0.02638(13) 0.0330(8) Uani 1 1 d . . .
C7 C 0.57546(17) -0.4763(4) -0.01138(11) 0.0264(7) Uani 1 1 d . . .
C8 C 0.59066(19) -0.2511(4) 0.05783(12) 0.0305(8) Uani 1 1 d . . .
C9 C 0.54633(18) -0.3883(4) 0.02899(11) 0.0259(7) Uani 1 1 d . . .
C10 C 0.47169(18) -0.4143(4) 0.03946(11) 0.0284(7) Uani 1 1 d . . .
H10 H 0.4528 -0.3558 0.0664 0.034 Uiso 1 1 calc R . .
C11 C 0.7198(2) 0.3143(4) 0.10431(11) 0.0341(8) Uani 1 1 d . . .
H11 H 0.7680 0.3287 0.0934 0.041 Uiso 1 1 calc R . .
C12 C 0.6092(2) 0.2147(5) 0.11426(13) 0.0485(10) Uani 1 1 d . . .
H12 H 0.5664 0.1454 0.1112 0.058 Uiso 1 1 calc R . .
C13 C 0.6173(2) 0.3546(5) 0.14338(14) 0.0506(11) Uani 1 1 d . . .
H13 H 0.5818 0.3999 0.1639 0.061 Uiso 1 1 calc R . .
C14 C 0.72069(19) 0.5711(4) 0.15951(11) 0.0321(8) Uani 1 1 d . . .
C15 C 0.7669(2) 0.6727(4) 0.13241(12) 0.0407(9) Uani 1 1 d . . .
H15 H 0.7764 0.6420 0.0997 0.049 Uiso 1 1 calc R . .
C16 C 0.7990(2) 0.8195(5) 0.15336(12) 0.0437(10) Uani 1 1 d . . .
H16 H 0.8302 0.8873 0.1347 0.052 Uiso 1 1 calc R . .
C17 C 0.7854(2) 0.8676(4) 0.20223(11) 0.0349(8) Uani 1 1 d . . .
C18 C 0.7375(2) 0.7657(4) 0.22862(11) 0.0379(9) Uani 1 1 d . . .
H18 H 0.7268 0.7972 0.2611 0.045 Uiso 1 1 calc R . .
C19 C 0.7055(2) 0.6177(4) 0.20747(11) 0.0372(9) Uani 1 1 d . . .
H19 H 0.6737 0.5499 0.2257 0.045 Uiso 1 1 calc R . .
C20 C 0.7874(2) 1.1065(4) 0.26346(11) 0.0351(8) Uani 1 1 d . . .
C21 C 0.7137(2) 1.1527(5) 0.26042(12) 0.0453(10) Uani 1 1 d . . .
H21 H 0.6842 1.1295 0.2312 0.054 Uiso 1 1 calc R . .
C22 C 0.6815(2) 1.2340(5) 0.30026(12) 0.0424(9) Uani 1 1 d . . .
H22 H 0.6309 1.2644 0.2980 0.051 Uiso 1 1 calc R . .
C23 C 0.7256(2) 1.2690(4) 0.34323(11) 0.0336(8) Uani 1 1 d . . .
C24 C 0.8004(2) 1.2267(4) 0.34646(12) 0.0382(9) Uani 1 1 d . . .
H24 H 0.8301 1.2532 0.3753 0.046 Uiso 1 1 calc R . .
C25 C 0.8317(2) 1.1443(4) 0.30671(12) 0.0403(9) Uani 1 1 d . . .
H25 H 0.8824 1.1142 0.3089 0.048 Uiso 1 1 calc R . .
C26 C 0.7196(2) 1.3449(4) 0.43335(11) 0.0338(8) Uani 1 1 d . . .
H26 H 0.7639 1.2893 0.4444 0.041 Uiso 1 1 calc R . .
C27 C 0.6268(2) 1.4439(5) 0.38435(13) 0.0426(9) Uani 1 1 d . . .
H27 H 0.5950 1.4687 0.3563 0.051 Uiso 1 1 calc R . .
C28 C 0.6174(2) 1.4936(5) 0.43173(12) 0.0405(9) Uani 1 1 d . . .
H28 H 0.5779 1.5610 0.4420 0.049 Uiso 1 1 calc R . .
C29 C 0.8902(2) 1.0730(5) 0.20714(11) 0.0375(9) Uani 1 1 d . . .
C30 C 0.9500(2) 0.9599(5) 0.20448(13) 0.0505(10) Uani 1 1 d . . .
H30 H 0.9456 0.8473 0.2162 0.061 Uiso 1 1 calc R . .
C31 C 1.0161(2) 1.0119(5) 0.18464(14) 0.0514(10) Uani 1 1 d . . .
H31 H 1.0555 0.9340 0.1823 0.062 Uiso 1 1 calc R . .
C32 C 1.0234(2) 1.1793(4) 0.16837(11) 0.0347(8) Uani 1 1 d . . .
C33 C 0.9667(2) 1.2949(5) 0.17259(12) 0.0438(9) Uani 1 1 d . . .
H33 H 0.9728 1.4092 0.1627 0.053 Uiso 1 1 calc R . .
C34 C 0.8992(2) 1.2423(5) 0.19178(13) 0.0450(9) Uani 1 1 d . . .
H34 H 0.8601 1.3211 0.1943 0.054 Uiso 1 1 calc R . .
C35 C 1.1617(2) 1.1714(5) 0.15786(13) 0.0452(10) Uani 1 1 d . . .
H35 H 1.1763 1.1015 0.1851 0.054 Uiso 1 1 calc R . .
C36 C 1.0942(2) 1.3240(4) 0.10327(11) 0.0339(8) Uani 1 1 d . . .
H36 H 1.0531 1.3777 0.0866 0.041 Uiso 1 1 calc R . .
C37 C 1.2068(2) 1.2359(5) 0.12362(13) 0.0432(9) Uani 1 1 d . . .
H37 H 1.2585 1.2182 0.1234 0.052 Uiso 1 1 calc R . .
O1 O 0.82234(13) -0.2206(3) 0.01959(8) 0.0350(6) Uani 1 1 d . . .
O2 O 0.80730(12) 0.0539(3) 0.03898(8) 0.0308(5) Uani 1 1 d . . .
O1W O 0.5770(2) -0.3846(6) -0.15810(14) 0.1211(14) Uani 1 1 d . . .
O3 O 1.08465(17) -0.3882(3) -0.05206(10) 0.0623(8) Uani 1 1 d . . .
O2W O 0.5397(3) 1.6072(7) 0.27763(14) 0.1504(19) Uani 1 1 d . . .
O4 O 1.13469(13) -0.3560(3) 0.02509(8) 0.0360(6) Uani 1 1 d . . .
O3W O 0.5095(3) -0.2558(10) 0.18620(16) 0.226(4) Uani 1 1 d . . .
O5 O 0.70910(13) -0.5011(3) 0.00499(9) 0.0410(6) Uani 1 1 d . . .
O4W O 0.9764(7) 1.6587(15) 0.1155(4) 0.177(4) Uiso 0.50 1 d P . .
O6 O 0.66710(15) -0.4127(4) -0.06924(10) 0.0587(8) Uani 1 1 d . . .
O7 O 0.64281(14) -0.1873(3) 0.03436(8) 0.0430(6) Uani 1 1 d . . .
O8 O 0.57348(16) -0.2058(4) 0.09946(9) 0.0631(8) Uani 1 1 d . . .
N1 N 0.82064(17) 1.0152(4) 0.22384(10) 0.0458(8) Uani 1 1 d . . .
N2 N 0.67376(16) 0.1888(3) 0.08954(9) 0.0343(7) Uani 1 1 d . . .
N3 N 0.68787(16) 0.4191(3) 0.13725(9) 0.0330(7) Uani 1 1 d . . .
N4 N 0.69207(17) 1.3499(3) 0.38508(9) 0.0340(7) Uani 1 1 d . . .
N5 N 0.67529(16) 1.4294(3) 0.46263(9) 0.0324(7) Uani 1 1 d . . .
N6 N 1.09078(16) 1.2279(4) 0.14493(9) 0.0342(7) Uani 1 1 d . . .
N7 N 1.16448(15) 1.3320(3) 0.08901(9) 0.0319(7) Uani 1 1 d . . .

loop_
_atom_site_aniso_label
_atom_site_aniso_U_11
_atom_site_aniso_U_22
_atom_site_aniso_U_33
_atom_site_aniso_U_23
_atom_site_aniso_U_13
_atom_site_aniso_U_12
Zn1 0.0216(2) 0.0234(2) 0.0375(2) 0.00057(15) 0.00751(15) -0.00048(17)
Zn2 0.0220(2) 0.0270(2) 0.0329(2) -0.00600(16) 0.00816(15) -0.00590(17)
C1 0.0191(17) 0.0220(16) 0.0311(16) -0.0018(13) 0.0044(13) -0.0003(15)
C2 0.026(2) 0.0166(16) 0.0384(18) 0.0016(13) 0.0052(14) -0.0038(15)
C3 0.0211(19) 0.0240(17) 0.0270(16) -0.0005(13) 0.0019(13) 0.0002(14)
C4 0.0219(18) 0.0284(18) 0.0228(15) 0.0020(13) 0.0005(13) -0.0033(16)
C5 0.021(2) 0.0278(18) 0.041(2) 0.0014(16) 0.0059(15) 0.0013(15)
C6 0.021(2) 0.0266(18) 0.053(2) -0.0072(16) 0.0076(17) -0.0067(16)
C7 0.0169(17) 0.0244(17) 0.0385(18) 0.0015(14) 0.0070(13) -0.0025(15)
C8 0.0216(19) 0.0299(18) 0.040(2) -0.0050(15) 0.0043(15) -0.0037(16)
C9 0.0199(18) 0.0230(16) 0.0347(17) 0.0007(14) 0.0016(14) -0.0050(14)
C10 0.0240(19) 0.0248(17) 0.0372(18) -0.0064(14) 0.0094(14) -0.0056(15)
C11 0.030(2) 0.036(2) 0.0369(18) -0.0101(16) 0.0111(15) -0.0042(17)
C12 0.031(2) 0.051(2) 0.066(2) -0.023(2) 0.0211(19) -0.0137(19)
C13 0.035(2) 0.054(2) 0.066(2) -0.027(2) 0.0252(19) -0.011(2)
C14 0.037(2) 0.0291(18) 0.0307(17) -0.0052(15) 0.0056(15) -0.0063(17)
C15 0.053(3) 0.043(2) 0.0272(17) -0.0084(16) 0.0131(16) -0.0110(19)
C16 0.054(3) 0.047(2) 0.0324(19) -0.0065(17) 0.0162(17) -0.021(2)
C17 0.037(2) 0.0359(19) 0.0320(18) -0.0063(15) 0.0067(15) -0.0089(17)
C18 0.045(2) 0.044(2) 0.0253(17) -0.0068(16) 0.0111(16) -0.0085(19)
C19 0.041(2) 0.037(2) 0.0341(18) -0.0029(16) 0.0134(16) -0.0102(17)
C20 0.042(2) 0.0317(19) 0.0332(18) -0.0079(15) 0.0135(16) -0.0134(18)
C21 0.047(3) 0.056(2) 0.0328(19) -0.0102(17) 0.0029(17) -0.007(2)
C22 0.040(2) 0.051(2) 0.036(2) -0.0045(17) 0.0016(17) -0.0004(19)
C23 0.040(2) 0.0273(18) 0.0341(19) -0.0021(15) 0.0064(16) -0.0032(17)
C24 0.044(3) 0.039(2) 0.0307(18) -0.0098(15) -0.0003(16) -0.0039(18)
C25 0.040(2) 0.040(2) 0.042(2) -0.0073(17) 0.0112(17) -0.0045(18)
C26 0.037(2) 0.0307(19) 0.0334(19) 0.0015(15) 0.0023(16) 0.0080(17)
C27 0.037(2) 0.048(2) 0.042(2) -0.0021(17) -0.0081(16) 0.010(2)
C28 0.033(2) 0.047(2) 0.041(2) -0.0096(17) -0.0010(16) 0.0107(19)
C29 0.040(2) 0.042(2) 0.0320(18) -0.0118(16) 0.0130(15) -0.0162(19)
C30 0.055(3) 0.040(2) 0.059(2) 0.0054(18) 0.018(2) -0.009(2)
C31 0.047(3) 0.043(2) 0.066(2) 0.0045(19) 0.022(2) 0.000(2)
C32 0.033(2) 0.040(2) 0.0318(18) 0.0000(15) 0.0086(15) -0.0071(18)
C33 0.045(3) 0.040(2) 0.048(2) 0.0036(17) 0.0122(18) -0.007(2)
C34 0.041(2) 0.044(2) 0.052(2) -0.0057(18) 0.0133(18) -0.0050(19)
C35 0.040(3) 0.048(2) 0.047(2) 0.0172(18) 0.0008(18) -0.002(2)
C36 0.031(2) 0.038(2) 0.0338(18) 0.0033(16) 0.0032(15) -0.0002(17)
C37 0.029(2) 0.046(2) 0.055(2) 0.0143(18) 0.0034(18) 0.0019(18)
O1 0.0302(14) 0.0260(13) 0.0504(14) -0.0075(10) 0.0144(11) -0.0111(11)
O2 0.0186(12) 0.0264(12) 0.0484(13) -0.0038(10) 0.0109(10) -0.0007(10)
O1W 0.107(3) 0.143(4) 0.109(3) -0.008(3) -0.024(2) 0.015(3)
O3 0.074(2) 0.0477(16) 0.0633(17) -0.0277(14) -0.0129(15) 0.0205(15)
O2W 0.175(5) 0.190(5) 0.085(3) 0.020(3) -0.009(3) 0.034(4)
O4 0.0300(15) 0.0299(12) 0.0483(13) 0.0038(11) 0.0029(11) 0.0082(11)
O3W 0.132(4) 0.457(10) 0.097(3) 0.129(5) 0.063(3) 0.159(6)
O5 0.0195(14) 0.0368(14) 0.0674(16) 0.0017(12) 0.0067(12) -0.0069(11)
O6 0.0393(17) 0.084(2) 0.0553(17) 0.0101(15) 0.0221(13) -0.0102(15)
O7 0.0424(16) 0.0390(14) 0.0495(14) -0.0098(11) 0.0179(12) -0.0238(13)
O8 0.061(2) 0.077(2) 0.0538(16) -0.0290(15) 0.0245(14) -0.0382(16)
N1 0.051(2) 0.0482(19) 0.0404(16) -0.0206(14) 0.0218(14) -0.0272(17)
N2 0.0310(18) 0.0316(16) 0.0411(16) -0.0118(13) 0.0101(13) -0.0047(14)
N3 0.0327(18) 0.0318(16) 0.0354(15) -0.0104(12) 0.0101(12) -0.0051(14)
N4 0.042(2) 0.0294(15) 0.0306(15) -0.0030(12) 0.0013(13) 0.0024(14)
N5 0.0326(18) 0.0318(15) 0.0332(14) -0.0011(12) 0.0046(13) 0.0072(14)
N6 0.0289(18) 0.0388(17) 0.0355(16) 0.0054(13) 0.0071(13) -0.0054(14)
N7 0.0250(17) 0.0336(16) 0.0375(15) 0.0030(12) 0.0054(13) 0.0000(13)

_geom_special_details            
;
All s.u.'s (except the s.u. in the dihedral angle between two l.s. planes)
are estimated using the full covariance matrix. The cell s.u.'s are taken
into account individually in the estimation of s.u.'s in distances, angles
and torsion angles; correlations between s.u.'s in cell parameters are only
used when they are defined by crystal symmetry. An approximate (isotropic)
treatment of cell s.u.'s is used for estimating s.u.'s involving l.s. planes.
;

loop_
_geom_bond_atom_site_label_1
_geom_bond_atom_site_label_2
_geom_bond_distance
_geom_bond_site_symmetry_2
_geom_bond_publ_flag
Zn1 O5 1.964(2) . ?
Zn1 O4 1.976(2) 3_745 ?
Zn1 N7 2.013(2) 3_765 ?
Zn1 O1 2.022(2) . ?
Zn2 O7 1.889(2) . ?
Zn2 N2 1.964(2) . ?
Zn2 O2 1.981(2) . ?
Zn2 N5 2.022(2) 4_575 ?
C1 C2 1.386(4) . ?
C1 C3 1.410(4) 3_755 ?
C1 C4 1.497(4) . ?
C2 C3 1.386(4) . ?
C2 H3 0.9300 . ?
C3 C1 1.410(4) 3_755 ?
C3 C5 1.526(4) . ?
C4 O1 1.244(3) . ?
C4 O2 1.266(4) . ?
C5 O3 1.214(4) . ?
C5 O4 1.270(4) . ?
C6 O6 1.225(4) . ?
C6 O5 1.269(4) . ?
C6 C7 1.516(4) . ?
C7 C10 1.380(4) 3_645 ?
C7 C9 1.399(4) . ?
C8 O8 1.221(4) . ?
C8 O7 1.252(4) . ?
C8 C9 1.506(4) . ?
C9 C10 1.388(4) . ?
C10 C7 1.380(4) 3_645 ?
C10 H10 0.9300 . ?
C11 N2 1.314(4) . ?
C11 N3 1.346(4) . ?
C11 H11 0.9300 . ?
C12 C13 1.334(5) . ?
C12 N2 1.374(4) . ?
C12 H12 0.9300 . ?
C13 N3 1.370(4) . ?
C13 H13 0.9300 . ?
C14 C19 1.372(4) . ?
C14 C15 1.374(4) . ?
C14 N3 1.425(4) . ?
C15 C16 1.374(5) . ?
C15 H15 0.9300 . ?
C16 C17 1.391(4) . ?
C16 H16 0.9300 . ?
C17 C18 1.384(4) . ?
C17 N1 1.408(4) . ?
C1