####################################################################### 
# 
# This file contains crystal structure data downloaded from the 
# Cambridge Structural Database (CSD) hosted by the Cambridge 
# Crystallographic Data Centre (CCDC).
# 
# Full information about CCDC data access policies and citation 
# guidelines are available at http://www.ccdc.cam.ac.uk/access/V1 
# 
# Audit and citation data items may have been added by the CCDC. 
# Please retain this information to preserve the provenance of 
# this file and to allow appropriate attribution of the data. 
# 
#######################################################################

data_compound_2
_audit_block_doi                 10.5517/cc7hbrs
_database_code_depnum_ccdc_archive 'CCDC 223285'
loop_
_citation_id
_citation_doi
_citation_year
1 10.1016/j.ica.2004.06.014 2004
_audit_update_record             
;
2003-10-30 deposited with the CCDC.	2024-07-10 downloaded from the CCDC.
;


_audit_creation_method           SHELXL-97
_chemical_name_systematic        
;
?
;
_chemical_name_common            ?
_chemical_melting_point          ?
_chemical_formula_moiety         ?
_chemical_formula_sum            'C82 H76 Cd2.50 N5 O16'
_chemical_formula_weight         1668.48

loop_
_atom_type_symbol
_atom_type_description
_atom_type_scat_dispersion_real
_atom_type_scat_dispersion_imag
_atom_type_scat_source
C C 0.0033 0.0016 'International Tables Vol C Tables 4.2.6.8 and 6.1.1.4'
H H 0.0000 0.0000 'International Tables Vol C Tables 4.2.6.8 and 6.1.1.4'
N N 0.0061 0.0033 'International Tables Vol C Tables 4.2.6.8 and 6.1.1.4'
O O 0.0106 0.0060 'International Tables Vol C Tables 4.2.6.8 and 6.1.1.4'
Cd Cd -0.8075 1.2024 'International Tables Vol C Tables 4.2.6.8 and 6.1.1.4'

_symmetry_cell_setting           ?
_symmetry_space_group_name_H-M   ?

loop_
_symmetry_equiv_pos_as_xyz
'x, y, z'
'-x, -y, z'
'x+1/4, -y+1/4, z+1/4'
'-x+1/4, y+1/4, z+1/4'
'x, y+1/2, z+1/2'
'-x, -y+1/2, z+1/2'
'x+1/4, -y+3/4, z+3/4'
'-x+1/4, y+3/4, z+3/4'
'x+1/2, y, z+1/2'
'-x+1/2, -y, z+1/2'
'x+3/4, -y+1/4, z+3/4'
'-x+3/4, y+1/4, z+3/4'
'x+1/2, y+1/2, z'
'-x+1/2, -y+1/2, z'
'x+3/4, -y+3/4, z+1/4'
'-x+3/4, y+3/4, z+1/4'

_cell_length_a                   37.538(5)
_cell_length_b                   130.908(16)
_cell_length_c                   6.7015(8)
_cell_angle_alpha                90.00
_cell_angle_beta                 90.00
_cell_angle_gamma                90.00
_cell_volume                     32932(7)
_cell_formula_units_Z            16
_cell_measurement_temperature    293(2)
_cell_measurement_reflns_used    ?
_cell_measurement_theta_min      ?
_cell_measurement_theta_max      ?

_exptl_crystal_description       ?
_exptl_crystal_colour            ?
_exptl_crystal_size_max          ?
_exptl_crystal_size_mid          ?
_exptl_crystal_size_min          ?
_exptl_crystal_density_meas      ?
_exptl_crystal_density_diffrn    1.346
_exptl_crystal_density_method    'not measured'
_exptl_crystal_F_000             13616
_exptl_absorpt_coefficient_mu    0.707
_exptl_absorpt_correction_type   ?
_exptl_absorpt_correction_T_min  ?
_exptl_absorpt_correction_T_max  ?
_exptl_absorpt_process_details   ?

_exptl_special_details           
;
?
;

_diffrn_ambient_temperature      293(2)
_diffrn_radiation_wavelength     0.71073
_diffrn_radiation_type           MoK\a
_diffrn_radiation_source         'fine-focus sealed tube'
_diffrn_radiation_monochromator  graphite
_diffrn_measurement_device_type  ?
_diffrn_measurement_method       ?
_diffrn_detector_area_resol_mean ?
_diffrn_standards_number         ?
_diffrn_standards_interval_count ?
_diffrn_standards_interval_time  ?
_diffrn_standards_decay_%        ?
_diffrn_reflns_number            74165
_diffrn_reflns_av_R_equivalents  0.1943
_diffrn_reflns_av_sigmaI/netI    0.0925
_diffrn_reflns_limit_h_min       -44
_diffrn_reflns_limit_h_max       44
_diffrn_reflns_limit_k_min       -156
_diffrn_reflns_limit_k_max       143
_diffrn_reflns_limit_l_min       -7
_diffrn_reflns_limit_l_max       7
_diffrn_reflns_theta_min         0.62
_diffrn_reflns_theta_max         25.15
_reflns_number_total             14569
_reflns_number_gt                13563
_reflns_threshold_expression     >2sigma(I)

_computing_data_collection       ?
_computing_cell_refinement       ?
_computing_data_reduction        ?
_computing_structure_solution    'SHELXS-97 (Sheldrick, 1990)'
_computing_structure_refinement  'SHELXL-97 (Sheldrick, 1997)'
_computing_molecular_graphics    ?
_computing_publication_material  ?

_refine_special_details          
;
Refinement of F^2^ against ALL reflections.  The weighted R-factor wR and
goodness of fit S are based on F^2^, conventional R-factors R are based
on F, with F set to zero for negative F^2^. The threshold expression of
F^2^ > 2sigma(F^2^) is used only for calculating R-factors(gt) etc. and is
not relevant to the choice of reflections for refinement.  R-factors based
on F^2^ are statistically about twice as large as those based on F, and R-
factors based on ALL data will be even larger.
;

_refine_ls_structure_factor_coef Fsqd
_refine_ls_matrix_type           full
_refine_ls_weighting_scheme      calc
_refine_ls_weighting_details     
'calc w=1/[\s^2^(Fo^2^)+(0.1537P)^2^+1663.5210P] where P=(Fo^2^+2Fc^2^)/3'
_atom_sites_solution_primary     direct
_atom_sites_solution_secondary   difmap
_atom_sites_solution_hydrogens   geom
_refine_ls_hydrogen_treatment    mixed
_refine_ls_extinction_method     none
_refine_ls_extinction_coef       ?
_refine_ls_abs_structure_details 'Flack H D (1983), Acta Cryst. A39, 876-881'
_refine_ls_abs_structure_Flack   0.12(7)
_refine_ls_number_reflns         14569
_refine_ls_number_parameters     919
_refine_ls_number_restraints     10
_refine_ls_R_factor_all          0.1297
_refine_ls_R_factor_gt           0.1240
_refine_ls_wR_factor_ref         0.3049
_refine_ls_wR_factor_gt          0.2999
_refine_ls_goodness_of_fit_ref   1.106
_refine_ls_restrained_S_all      1.105
_refine_ls_shift/su_max          0.570
_refine_ls_shift/su_mean         0.031

loop_
_atom_site_label
_atom_site_type_symbol
_atom_site_fract_x
_atom_site_fract_y
_atom_site_fract_z
_atom_site_U_iso_or_equiv
_atom_site_adp_type
_atom_site_occupancy
_atom_site_symmetry_multiplicity
_atom_site_calc_flag
_atom_site_refinement_flags
_atom_site_disorder_assembly
_atom_site_disorder_group
Cd1 Cd 0.30127(3) 0.084362(7) -1.0653(15) 0.0329(3) Uani 1 1 d . . .
Cd2 Cd 0.5000 0.0000 0.4857(15) 0.0368(4) Uani 1 2 d S . .
Cd3 Cd 0.32507(3) 0.070318(7) -1.5917(15) 0.0333(3) Uani 1 1 d . . .
O1 O 0.2784(3) 0.07415(8) -1.326(2) 0.043(2) Uani 1 1 d . . .
O2 O 0.2416(3) 0.08559(9) -1.194(2) 0.051(3) Uani 1 1 d . . .
O3 O 0.3435(4) 0.08536(8) -1.478(3) 0.077(5) Uani 1 1 d . . .
O4 O 0.3323(3) 0.09587(10) -1.235(2) 0.057(3) Uani 1 1 d . . .
O6 O 0.2856(3) 0.05777(9) -0.702(2) 0.049(3) Uani 1 1 d . . .
O7 O 0.3440(3) 0.07550(9) -1.902(2) 0.045(3) Uani 1 1 d . . .
O8 O 0.3901(3) 0.07015(9) -1.738(2) 0.052(3) Uani 1 1 d . . .
O9 O 0.4866(4) 0.01257(13) 0.258(3) 0.080(5) Uani 1 1 d . . .
O10 O 0.4415(5) 0.00401(12) 0.368(3) 0.086(5) Uani 1 1 d . . .
N1 N -0.0233(6) 0.05026(19) -2.402(5) 0.104(8) Uani 1 1 d . . .
N2 N 0.5339(4) 0.15276(9) -2.610(2) 0.041(3) Uani 1 1 d . . .
N3 N 0.0287(4) 0.01124(10) -1.808(3) 0.049(3) Uani 1 1 d . . .
N4 N 0.6028(6) 0.1207(2) -3.078(4) 0.149(13) Uani 1 1 d D . .
N5 N 0.3460(3) 0.05966(10) -1.359(3) 0.041(3) Uani 1 1 d . . .
C1 C 0.0063(7) 0.0459(4) -2.417(7) 0.160(19) Uani 1 1 d . . .
H1 H 0.0102 0.0411 -2.5161 0.192 Uiso 1 1 calc R . .
C2 C 0.0337(8) 0.0484(3) -2.281(6) 0.143(17) Uani 1 1 d . . .
H2 H 0.0554 0.0450 -2.2959 0.171 Uiso 1 1 calc R . .
C3 C 0.0311(5) 0.0552(2) -2.131(5) 0.085(8) Uani 1 1 d . . .
C4 C -0.0026(6) 0.05912(18) -2.116(5) 0.091(8) Uani 1 1 d . . .
H4 H -0.0075 0.0635 -2.0106 0.109 Uiso 1 1 calc R . .
C5 C -0.0285(6) 0.0570(2) -2.242(6) 0.102(11) Uani 1 1 d . . .
H5 H -0.0507 0.0600 -2.2240 0.123 Uiso 1 1 calc R . .
C6 C 0.0618(5) 0.0571(2) -2.001(4) 0.082(7) Uani 1 1 d . . .
H6 H 0.0835 0.0545 -2.0459 0.099 Uiso 1 1 calc R . .
C7 C 0.0624(6) 0.0616(2) -1.836(5) 0.085(8) Uani 1 1 d . . .
H7 H 0.0405 0.0633 -1.7807 0.103 Uiso 1 1 calc R . .
C8 C 0.0944(5) 0.0647(2) -1.720(5) 0.095(9) Uani 1 1 d . . .
C9 C 0.1268(6) 0.0625(3) -1.777(5) 0.109(11) Uani 1 1 d . . .
H9 H 0.1305 0.0589 -1.8951 0.131 Uiso 1 1 calc R . .
C10 C 0.1565(5) 0.0655(2) -1.660(4) 0.083(8) Uani 1 1 d . . .
H10 H 0.1791 0.0631 -1.6937 0.100 Uiso 1 1 calc R . .
C11 C 0.1531(5) 0.0717(2) -1.504(4) 0.077(7) Uani 1 1 d . . .
C12 C 0.1187(6) 0.0742(2) -1.427(5) 0.098(9) Uani 1 1 d . . .
H12 H 0.1157 0.0781 -1.3125 0.117 Uiso 1 1 calc R . .
C13 C 0.0887(4) 0.0703(2) -1.539(4) 0.089(9) Uani 1 1 d . . .
H13 H 0.0656 0.0714 -1.4925 0.107 Uiso 1 1 calc R . .
C14 C 0.1851(5) 0.07647(16) -1.394(3) 0.059(5) Uani 1 1 d . . .
H14 H 0.1810 0.0816 -1.3018 0.070 Uiso 1 1 calc R . .
C15 C 0.2179(4) 0.07347(14) -1.427(3) 0.046(4) Uani 1 1 d . . .
H15 H 0.2225 0.0685 -1.5217 0.055 Uiso 1 1 calc R . .
C16 C 0.2469(4) 0.07795(12) -1.314(3) 0.045(4) Uani 1 1 d . . .
C17 C 0.5160(7) 0.15409(16) -2.435(3) 0.072(6) Uani 1 1 d . . .
H17 H 0.5138 0.1608 -2.3892 0.087 Uiso 1 1 calc R . .
C18 C 0.5017(5) 0.14694(13) -2.325(3) 0.058(5) Uani 1 1 d . . .
H18 H 0.4929 0.1486 -2.1990 0.070 Uiso 1 1 calc R . .
C19 C 0.4996(5) 0.13714(13) -2.391(3) 0.049(4) Uani 1 1 d . . .
C20 C 0.5180(5) 0.13534(11) -2.570(4) 0.059(5) Uani 1 1 d . . .
H20 H 0.5186 0.1287 -2.6192 0.070 Uiso 1 1 calc R . .
C21 C 0.5349(5) 0.14285(12) -2.677(3) 0.058(5) Uani 1 1 d . . .
H21 H 0.5470 0.1413 -2.7945 0.070 Uiso 1 1 calc R . .
C22 C 0.4812(5) 0.12898(12) -2.287(3) 0.056(5) Uani 1 1 d . . .
H22 H 0.4804 0.1226 -2.3486 0.067 Uiso 1 1 calc R . .
C23 C 0.4653(4) 0.12991(12) -2.110(3) 0.049(4) Uani 1 1 d . . .
H23 H 0.4677 0.1362 -2.0487 0.058 Uiso 1 1 calc R . .
C24 C 0.4445(4) 0.12226(12) -1.999(3) 0.050(4) Uani 1 1 d . . .
C25 C 0.4316(5) 0.12495(14) -1.810(3) 0.062(5) Uani 1 1 d . . .
H25 H 0.4370 0.1313 -1.7556 0.074 Uiso 1 1 calc R . .
C26 C 0.4108(5) 0.11818(13) -1.707(3) 0.057(5) Uani 1 1 d . . .
H26 H 0.4022 0.1199 -1.5809 0.069 Uiso 1 1 calc R . .
C27 C 0.4025(4) 0.10887(12) -1.786(3) 0.042(4) Uani 1 1 d . . .
C28 C 0.4142(6) 0.10631(17) -1.976(3) 0.067(6) Uani 1 1 d . . .
H28 H 0.4074 0.1001 -2.0323 0.080 Uiso 1 1 calc R . .
C29 C 0.4359(5) 0.11291(13) -2.080(3) 0.056(4) Uani 1 1 d . . .
H29 H 0.4446 0.1111 -2.2050 0.067 Uiso 1 1 calc R . .
C30 C 0.3805(5) 0.10109(11) -1.675(3) 0.048(4) Uani 1 1 d . . .
H30 H 0.3781 0.0947 -1.7330 0.058 Uiso 1 1 calc R . .
C31 C 0.3646(4) 0.10256(13) -1.504(3) 0.045(4) Uani 1 1 d . . .
H31 H 0.3649 0.1090 -1.4455 0.054 Uiso 1 1 calc R . .
C32 C 0.3455(4) 0.09380(10) -1.401(3) 0.037(3) Uani 1 1 d . . .
C33 C 0.0386(6) 0.02035(14) -1.892(3) 0.064(5) Uani 1 1 d . . .
H33 H 0.0300 0.0223 -2.0168 0.077 Uiso 1 1 calc R . .
C34 C 0.0619(6) 0.02656(14) -1.788(4) 0.065(5) Uani 1 1 d . . .
H34 H 0.0687 0.0328 -1.8434 0.078 Uiso 1 1 calc R . .
C35 C 0.0755(4) 0.02386(14) -1.602(4) 0.055(4) Uani 1 1 d . . .
C36 C 0.0633(6) 0.01466(17) -1.518(3) 0.068(6) Uani 1 1 d . . .
H36 H 0.0711 0.0124 -1.3940 0.082 Uiso 1 1 calc R . .
C37 C 0.0393(5) 0.00912(14) -1.629(3) 0.052(4) Uani 1 1 d . . .
H37 H 0.0298 0.0033 -1.5701 0.063 Uiso 1 1 calc R . .
C38 C 0.1014(5) 0.03027(13) -1.491(3) 0.055(4) Uani 1 1 d . . .
H38 H 0.1079 0.0364 -1.5512 0.066 Uiso 1 1 calc R . .
C39 C 0.1159(5) 0.02834(17) -1.323(5) 0.078(6) Uani 1 1 d . . .
H39 H 0.1091 0.0222 -1.2634 0.093 Uiso 1 1 calc R . .
C40 C 0.1427(6) 0.03469(14) -1.206(4) 0.072(6) Uani 1 1 d . . .
C41 C 0.1555(8) 0.04387(18) -1.286(4) 0.096(9) Uani 1 1 d . . .
H41 H 0.1463 0.0465 -1.4047 0.115 Uiso 1 1 calc R . .
C42 C 0.1823(7) 0.04889(18) -1.183(4) 0.090(9) Uani 1 1 d . . .
H42 H 0.1904 0.0551 -1.2307 0.107 Uiso 1 1 calc R . .
C43 C 0.1970(5) 0.04498(15) -1.014(4) 0.063(5) Uani 1 1 d . . .
C44 C 0.1828(6) 0.03609(17) -0.933(5) 0.088(8) Uani 1 1 d . . .
H44 H 0.1907 0.0338 -0.8086 0.105 Uiso 1 1 calc R . .
C45 C 0.1567(6) 0.0305(2) -1.035(5) 0.100(10) Uani 1 1 d . . .
H45 H 0.1491 0.0242 -0.9886 0.120 Uiso 1 1 calc R . .
C46 C 0.2267(5) 0.04973(15) -0.910(4) 0.063(5) Uani 1 1 d . . .
H46 H 0.2379 0.0458 -0.8137 0.076 Uiso 1 1 calc R . .
C47 C 0.2396(4) 0.05905(12) -0.938(3) 0.046(4) Uani 1 1 d . . .
H47 H 0.2301 0.0629 -1.0414 0.055 Uiso 1 1 calc R . .
C48 C 0.2679(4) 0.06378(12) -0.817(3) 0.043(4) Uani 1 1 d . . .
C49 C 0.5688(5) 0.1192(2) -3.137(4) 0.136(15) Uani 1 1 d D . .
H49 H 0.5607 0.1218 -3.2579 0.163 Uiso 1 1 calc R . .
C50 C 0.5463(6) 0.1137(2) -3.013(3) 0.108(10) Uani 1 1 d D . .
H50 H 0.5226 0.1131 -3.0507 0.130 Uiso 1 1 calc R . .
C51 C 0.5565(5) 0.1090(2) -2.836(3) 0.117(11) Uani 1 1 d D . .
C52 C 0.5922(6) 0.1104(4) -2.803(6) 0.33(6) Uani 1 1 d D . .
H52 H 0.6020 0.1072 -2.6932 0.401 Uiso 1 1 calc R . .
C53 C 0.6138(9) 0.1160(3) -2.912(4) 0.46(2) Uani 1 1 d D . .
H53 H 0.6375 0.1167 -2.8731 0.556 Uiso 1 1 calc R . .
C54 C 0.5290(11) 0.1036(2) -2.731(5) 0.127(14) Uani 1 1 d . . .
H54 H 0.5066 0.1035 -2.7899 0.153 Uiso 1 1 calc R . .
C55 C 0.5320(7) 0.0989(3) -2.565(5) 0.107(10) Uani 1 1 d . . .
H55 H 0.5546 0.0992 -2.5081 0.128 Uiso 1 1 calc R . .
C56 C 0.5065(6) 0.0933(2) -2.453(5) 0.092(9) Uani 1 1 d . . .
C57 C 0.4707(6) 0.0913(2) -2.506(4) 0.084(7) Uani 1 1 d . . .
H57 H 0.4624 0.0933 -2.6309 0.101 Uiso 1 1 calc R . .
C58 C 0.4484(4) 0.08651(16) -2.380(3) 0.059(5) Uani 1 1 d . . .
H58 H 0.4251 0.0853 -2.4192 0.071 Uiso 1 1 calc R . .
C59 C 0.4601(4) 0.08330(16) -2.187(4) 0.063(6) Uani 1 1 d . . .
C60 C 0.4947(5) 0.0850(2) -2.127(4) 0.083(7) Uani 1 1 d . . .
H60 H 0.5026 0.0831 -2.0006 0.100 Uiso 1 1 calc R . .
C61 C 0.5174(6) 0.0896(2) -2.268(5) 0.094(9) Uani 1 1 d . . .
H61 H 0.5414 0.0902 -2.2349 0.113 Uiso 1 1 calc R . .
C62 C 0.4346(4) 0.07883(12) -2.040(4) 0.054(5) Uani 1 1 d . . .
H62 H 0.4446 0.0761 -1.9249 0.065 Uiso 1 1 calc R . .
C63 C 0.3998(4) 0.07833(11) -2.053(3) 0.042(3) Uani 1 1 d . . .
H63 H 0.3887 0.0805 -2.1703 0.050 Uiso 1 1 calc R . .
C64 C 0.3774(4) 0.07439(12) -1.884(3) 0.041(4) Uani 1 1 d . . .
C65 C 0.3245(4) 0.05471(13) -1.236(3) 0.047(4) Uani 1 1 d . . .
H65 H 0.3002 0.0549 -1.2625 0.056 Uiso 1 1 calc R . .
C66 C 0.3356(5) 0.04927(11) -1.070(3) 0.050(4) Uani 1 1 d . . .
H66 H 0.3191 0.0464 -0.9819 0.059 Uiso 1 1 calc R . .
C67 C 0.3718(5) 0.04816(13) -1.039(3) 0.054(5) Uani 1 1 d . . .
C68 C 0.3938(4) 0.05278(13) -1.174(3) 0.049(4) Uani 1 1 d . . .
H68 H 0.4183 0.0521 -1.1589 0.058 Uiso 1 1 calc R . .
C69 C 0.3811(4) 0.05838(12) -1.333(3) 0.044(3) Uani 1 1 d . . .
H69 H 0.3970 0.0613 -1.4227 0.052 Uiso 1 1 calc R . .
C70 C 0.3877(5) 0.04211(15) -0.870(3) 0.061(5) Uani 1 1 d . . .
H70 H 0.4120 0.0407 -0.8760 0.073 Uiso 1 1 calc R . .
C71 C 0.3708(6) 0.03875(15) -0.718(3) 0.060(5) Uani 1 1 d . . .
H71 H 0.3463 0.0397 -0.7139 0.072 Uiso 1 1 calc R . .
C72 C 0.3885(7) 0.03338(16) -0.548(4) 0.078(7) Uani 1 1 d . . .
C73 C 0.3692(8) 0.02899(17) -0.402(4) 0.078(7) Uani 1 1 d . . .
H73 H 0.3445 0.0293 -0.4099 0.094 Uiso 1 1 calc R . .
C74 C 0.3848(9) 0.02388(19) -0.237(4) 0.094(9) Uani 1 1 d . . .
H74 H 0.3713 0.0202 -0.1467 0.113 Uiso 1 1 calc R . .
C75 C 0.4240(8) 0.02482(18) -0.218(4) 0.079(7) Uani 1 1 d . . .
C76 C 0.4416(6) 0.0296(2) -0.358(3) 0.084(8) Uani 1 1 d . . .
H76 H 0.4662 0.0300 -0.3471 0.100 Uiso 1 1 calc R . .
C77 C 0.4255(7) 0.0341(2) -0.520(4) 0.087(8) Uani 1 1 d . . .
H77 H 0.4393 0.0376 -0.6127 0.104 Uiso 1 1 calc R . .
C78 C 0.4437(7) 0.02046(17) -0.048(4) 0.079(7) Uani 1 1 d . . .
H78 H 0.4682 0.0214 -0.0477 0.095 Uiso 1 1 calc R . .
C79 C 0.4306(7) 0.01541(16) 0.102(3) 0.070(6) Uani 1 1 d . . .
H79 H 0.4061 0.0148 0.1179 0.084 Uiso 1 1 calc R . .
C80 C 0.4546(6) 0.01062(19) 0.248(4) 0.071(6) Uani 1 1 d . . .
O5 O 0.2737(3) 0.07308(8) -0.825(2) 0.047(3) Uani 1 1 d . . .
O11 O 0.1848(6) 0.09784(19) -1.062(5) 0.135(8) Uiso 1 1 d . . .
C82 C 0.1734(10) 0.0934(3) -0.891(6) 0.125(12) Uiso 1 1 d . . .
C81 C 0.1417(16) 0.0981(5) -0.819(11) 0.21(2) Uiso 1 1 d . . .
O12 O 0.1271(11) 0.0042(3) -1.042(7) 0.217(16) Uiso 1 1 d . . .
O16 O 0.182(4) 0.0018(11) -1.31(3) 0.41(8) Uiso 0.50 1 d P . .
O15 O 0.158(3) 0.0037(9) -0.665(18) 0.30(6) Uiso 0.50 1 d P . .
O14 O 0.251(10) -0.010(3) -0.94(7) 0.9(3) Uiso 0.50 1 d P . .
O13 O 0.275(3) 0.0192(10) 0.076(19) 0.32(6) Uiso 0.50 1 d P . .
O18 O 0.267(4) 0.0252(11) -0.27(3) 0.35(7) Uiso 0.50 1 d P . .
O17 O 0.263(3) 0.0330(10) -0.49(2) 0.33(6) Uiso 0.50 1 d P . .

loop_
_atom_site_aniso_label
_atom_site_aniso_U_11
_atom_site_aniso_U_22
_atom_site_aniso_U_33
_atom_site_aniso_U_23
_atom_site_aniso_U_13
_atom_site_aniso_U_12
Cd1 0.0312(5) 0.0320(5) 0.0356(5) -0.0018(4) 0.0045(4) -0.0014(4)
Cd2 0.0388(7) 0.0355(8) 0.0361(8) 0.000 0.000 -0.0022(6)
Cd3 0.0342(5) 0.0296(5) 0.0362(5) 0.0020(4) -0.0053(4) -0.0045(4)
O1 0.046(6) 0.044(6) 0.039(5) -0.009(5) 0.004(5) 0.008(5)
O2 0.039(6) 0.050(7) 0.064(8) -0.008(6) -0.008(5) 0.000(5)
O3 0.121(12) 0.020(6) 0.090(10) -0.021(6) 0.065(9) -0.031(6)
O4 0.064(8) 0.054(7) 0.054(7) 0.004(6) 0.022(6) -0.013(6)
O6 0.046(6) 0.042(6) 0.060(7) -0.002(5) -0.011(5) -0.016(5)
O7 0.023(5) 0.055(7) 0.057(7) 0.013(5) -0.001(4) -0.005(5)
O8 0.044(6) 0.058(7) 0.054(7) 0.013(6) 0.008(5) 0.007(5)
O9 0.077(10) 0.095(12) 0.069(9) 0.033(8) -0.020(8) 0.005(8)
O10 0.090(11) 0.066(10) 0.101(13) 0.029(9) -0.021(10) -0.002(8)
N1 0.086(16) 0.086(16) 0.14(2) 0.005(15) -0.053(15) -0.011(12)
N2 0.056(8) 0.035(6) 0.033(6) 0.001(5) 0.008(6) -0.009(6)
N3 0.054(8) 0.045(7) 0.047(8) 0.004(6) 0.010(7) -0.009(6)
N4 0.13(2) 0.19(3) 0.13(2) 0.06(2) 0.00(2) -0.08(2)
N5 0.032(6) 0.045(7) 0.046(8) -0.006(6) 0.009(6) 0.000(5)
C1 0.041(13) 0.24(5) 0.20(4) -0.09(4) -0.050(18) 0.012(19)
C2 0.082(19) 0.19(4) 0.16(3) -0.09(3) -0.05(2) 0.04(2)
C3 0.022(8) 0.107(18) 0.13(2) -0.022(16) -0.030(11) 0.006(9)
C4 0.070(