####################################################################### 
# 
# This file contains crystal structure data downloaded from the 
# Cambridge Structural Database (CSD) hosted by the Cambridge 
# Crystallographic Data Centre (CCDC).
# 
# Full information about CCDC data access policies and citation 
# guidelines are available at http://www.ccdc.cam.ac.uk/access/V1 
# 
# Audit and citation data items may have been added by the CCDC. 
# Please retain this information to preserve the provenance of 
# this file and to allow appropriate attribution of the data. 
# 
#######################################################################

data_compound_16
_audit_block_doi                 10.5517/ccwmgjg
_database_code_depnum_ccdc_archive 'CCDC 823066'
loop_
_citation_id
_citation_doi
_citation_year
1 10.1039/c1dt10853k 2011
_audit_update_record             
;
2011-04-24 deposited with the CCDC.	2024-07-10 downloaded from the CCDC.
;

_audit_creation_method           SHELXL-97
_chemical_name_systematic        
;
?
;
_chemical_name_common            ?
_chemical_melting_point          ?
_chemical_formula_moiety         ?
_chemical_formula_sum            'C54 H48 Cd3 N15 O22.50'
_chemical_formula_weight         1604.27

loop_
_atom_type_symbol
_atom_type_description
_atom_type_scat_dispersion_real
_atom_type_scat_dispersion_imag
_atom_type_scat_source
C C 0.0033 0.0016 'International Tables Vol C Tables 4.2.6.8 and 6.1.1.4'
H H 0.0000 0.0000 'International Tables Vol C Tables 4.2.6.8 and 6.1.1.4'
N N 0.0061 0.0033 'International Tables Vol C Tables 4.2.6.8 and 6.1.1.4'
O O 0.0106 0.0060 'International Tables Vol C Tables 4.2.6.8 and 6.1.1.4'
Cd Cd -0.8075 1.2024 'International Tables Vol C Tables 4.2.6.8 and 6.1.1.4'

_symmetry_cell_setting           monoclinic
_symmetry_space_group_name_H-M   P2(1)/n

loop_
_symmetry_equiv_pos_as_xyz
'x, y, z'
'-x+1/2, y+1/2, -z+1/2'
'-x, -y, -z'
'x-1/2, -y-1/2, z-1/2'

_cell_length_a                   10.403(2)
_cell_length_b                   33.827(7)
_cell_length_c                   19.688(4)
_cell_angle_alpha                90.00
_cell_angle_beta                 92.82(3)
_cell_angle_gamma                90.00
_cell_volume                     6920(2)
_cell_formula_units_Z            4
_cell_measurement_temperature    173(2)
_cell_measurement_reflns_used    13532
_cell_measurement_theta_min      1.59
_cell_measurement_theta_max      26.00

_exptl_crystal_description       rod
_exptl_crystal_colour            colourless
_exptl_crystal_size_max          0.12
_exptl_crystal_size_mid          0.04
_exptl_crystal_size_min          0.02
_exptl_crystal_density_meas      ?
_exptl_crystal_density_diffrn    1.540
_exptl_crystal_density_method    'not measured'
_exptl_crystal_F_000             3204
_exptl_absorpt_coefficient_mu    0.995
_exptl_absorpt_correction_type   multi-scan
_exptl_absorpt_correction_T_min  0.953
_exptl_absorpt_correction_T_max  1.000
_exptl_absorpt_process_details   
;
Using multiple and symmetry-related data measurements
via the program SADABS.
See R.H. Blessing, Acta Cryst (1995), A51, 33-38
;

_exptl_special_details           
;
?
;

_diffrn_ambient_temperature      173(2)
_diffrn_radiation_wavelength     0.71073
_diffrn_radiation_type           MoK\a
_diffrn_radiation_source         'fine-focus sealed tube'
_diffrn_radiation_monochromator  graphite
_diffrn_measurement_device_type  'CCD area detector'
_diffrn_measurement_method       'phi scan'
_diffrn_detector_area_resol_mean ?
_diffrn_standards_number         ?
_diffrn_standards_interval_count ?
_diffrn_standards_interval_time  ?
_diffrn_standards_decay_%        ?
_diffrn_reflns_number            93958
_diffrn_reflns_av_R_equivalents  0.0721
_diffrn_reflns_av_sigmaI/netI    0.0359
_diffrn_reflns_limit_h_min       -12
_diffrn_reflns_limit_h_max       12
_diffrn_reflns_limit_k_min       -41
_diffrn_reflns_limit_k_max       41
_diffrn_reflns_limit_l_min       -24
_diffrn_reflns_limit_l_max       24
_diffrn_reflns_theta_min         1.59
_diffrn_reflns_theta_max         26.00
_reflns_number_total             13532
_reflns_number_gt                12000
_reflns_threshold_expression     >2sigma(I)

_computing_data_collection       ?
_computing_cell_refinement       ?
_computing_data_reduction        ?
_computing_structure_solution    'SHELXS-97 (Sheldrick, 1990)'
_computing_structure_refinement  'SHELXL-97 (Sheldrick, 1997)'
_computing_molecular_graphics    'XSeed (Barbour, 2001)'
_computing_publication_material  'local program'

_refine_special_details          
;
Refinement of F^2^ against ALL reflections. The weighted R-factor wR and
goodness of fit S are based on F^2^, conventional R-factors R are based
on F, with F set to zero for negative F^2^. The threshold expression of
F^2^ > 2sigma(F^2^) is used only for calculating R-factors(gt) etc. and is
not relevant to the choice of reflections for refinement. R-factors based
on F^2^ are statistically about twice as large as those based on F, and R-
factors based on ALL data will be even larger.
;

_refine_ls_structure_factor_coef Fsqd
_refine_ls_matrix_type           full
_refine_ls_weighting_scheme      calc
_refine_ls_weighting_details     
'calc w=1/[\s^2^(Fo^2^)+(0.1197P)^2^+29.2166P] where P=(Fo^2^+2Fc^2^)/3'
_atom_sites_solution_primary     direct
_atom_sites_solution_secondary   difmap
_atom_sites_solution_hydrogens   geom
_refine_ls_hydrogen_treatment    constr
_refine_ls_extinction_method     none
_refine_ls_extinction_coef       ?
_refine_ls_number_reflns         13532
_refine_ls_number_parameters     872
_refine_ls_number_restraints     10
_refine_ls_R_factor_all          0.0733
_refine_ls_R_factor_gt           0.0676
_refine_ls_wR_factor_ref         0.2042
_refine_ls_wR_factor_gt          0.1995
_refine_ls_goodness_of_fit_ref   1.054
_refine_ls_restrained_S_all      1.062
_refine_ls_shift/su_max          0.005
_refine_ls_shift/su_mean         0.000

loop_
_atom_site_label
_atom_site_type_symbol
_atom_site_fract_x
_atom_site_fract_y
_atom_site_fract_z
_atom_site_U_iso_or_equiv
_atom_site_adp_type
_atom_site_occupancy
_atom_site_symmetry_multiplicity
_atom_site_calc_flag
_atom_site_refinement_flags
_atom_site_disorder_assembly
_atom_site_disorder_group
Cd1 Cd 0.37807(4) 0.175096(12) 0.85574(2) 0.03745(14) Uani 1 1 d . . .
N1A N 0.4164(4) 0.12028(14) 0.7871(2) 0.0348(10) Uani 1 1 d . . .
N1B N 0.3073(5) 0.08060(14) 1.1438(2) 0.0365(10) Uani 1 1 d . . .
N1C N 0.2822(4) 0.28309(15) 1.0175(3) 0.0426(12) Uani 1 1 d . . .
N1D N 1.0338(6) 0.1381(2) 1.3167(3) 0.0599(15) Uani 1 1 d . . .
Cd2 Cd 0.33763(4) 0.083551(13) 1.02605(2) 0.03667(14) Uani 1 1 d . . .
C2A C 0.4170(5) 0.08441(17) 0.8150(3) 0.0368(12) Uani 1 1 d . . .
C2B C 0.3158(5) 0.11403(19) 1.1792(3) 0.0391(12) Uani 1 1 d . . .
C2C C 0.2856(6) 0.28390(18) 0.9499(4) 0.0453(14) Uani 1 1 d . . .
C2D C 1.0713(8) 0.1573(3) 1.3734(4) 0.066(2) Uani 1 1 d . . .
Cd3 Cd 0.31881(4) 0.223098(13) 1.07318(3) 0.04363(15) Uani 1 1 d . . .
C3A C 0.4368(6) 0.0509(2) 0.7768(3) 0.0474(14) Uani 1 1 d . . .
H3A H 0.4365 0.0254 0.7972 0.057 Uiso 1 1 calc R . .
C3B C 0.3159(6) 0.1142(2) 1.2500(3) 0.0493(15) Uani 1 1 d . . .
H3B H 0.3239 0.1383 1.2745 0.059 Uiso 1 1 calc R . .
C3C C 0.2623(7) 0.3180(2) 0.9121(4) 0.0573(18) Uani 1 1 d . . .
H3C H 0.2663 0.3182 0.8640 0.069 Uiso 1 1 calc R . .
C3D C 1.1110(9) 0.1975(3) 1.3731(5) 0.077(2) Uani 1 1 d . . .
H3D H 1.1361 0.2108 1.4141 0.093 Uiso 1 1 calc R . .
C4A C 0.4572(8) 0.0551(2) 0.7082(4) 0.0561(17) Uani 1 1 d . . .
H4A H 0.4715 0.0325 0.6809 0.067 Uiso 1 1 calc R . .
C4B C 0.3044(8) 0.0792(2) 1.2833(4) 0.0582(18) Uani 1 1 d . . .
H4B H 0.3027 0.0788 1.3314 0.070 Uiso 1 1 calc R . .
C4C C 0.2332(9) 0.3517(2) 0.9478(5) 0.069(2) Uani 1 1 d . . .
H4C H 0.2155 0.3756 0.9238 0.083 Uiso 1 1 calc R . .
C4D C 1.1119(10) 0.2163(3) 1.3118(6) 0.084(3) Uani 1 1 d . . .
H4D H 1.1382 0.2432 1.3097 0.101 Uiso 1 1 calc R . .
C5A C 0.4566(7) 0.0928(2) 0.6796(3) 0.0508(15) Uani 1 1 d . . .
H5A H 0.4707 0.0964 0.6327 0.061 Uiso 1 1 calc R . .
C5B C 0.2953(8) 0.0442(2) 1.2466(3) 0.0560(17) Uani 1 1 d . . .
H5B H 0.2878 0.0195 1.2691 0.067 Uiso 1 1 calc R . .
C5C C 0.2294(8) 0.3512(2) 1.0178(5) 0.063(2) Uani 1 1 d . . .
H5C H 0.2097 0.3745 1.0422 0.076 Uiso 1 1 calc R . .
C5D C 1.0758(9) 0.1971(3) 1.2546(5) 0.073(2) Uani 1 1 d . . .
H5D H 1.0768 0.2099 1.2117 0.088 Uiso 1 1 calc R . .
C6A C 0.4350(5) 0.12452(18) 0.7211(3) 0.0373(12) Uani 1 1 d . . .
C6B C 0.2973(6) 0.04604(19) 1.1756(3) 0.0418(13) Uani 1 1 d . . .
C6C C 0.2547(6) 0.31614(19) 1.0518(4) 0.0490(16) Uani 1 1 d . . .
C6D C 1.0377(6) 0.1587(3) 1.2595(4) 0.062(2) Uani 1 1 d . . .
C12A C 0.3915(5) 0.08350(18) 0.8898(3) 0.0363(12) Uani 1 1 d . . .
C12B C 0.3240(5) 0.15097(19) 1.1376(3) 0.0414(13) Uani 1 1 d . . .
C12C C 0.3172(6) 0.24520(19) 0.9167(4) 0.0450(14) Uani 1 1 d . . .
C12D C 1.0654(11) 0.1338(4) 1.4353(6) 0.093(3) Uani 1 1 d . . .
O13A O 0.3659(4) 0.11547(12) 0.9188(2) 0.0391(9) Uani 1 1 d . . .
O13B O 0.3285(4) 0.14807(13) 1.0739(2) 0.0413(9) Uani 1 1 d . . .
O13C O 0.3291(4) 0.21494(13) 0.9545(2) 0.0467(10) Uani 1 1 d . . .
O13D O 1.0527(12) 0.0987(4) 1.4375(5) 0.134(4) Uani 1 1 d . . .
O14A O 0.3952(4) 0.05059(13) 0.9197(2) 0.0443(10) Uani 1 1 d . . .
O14B O 0.3248(5) 0.18320(14) 1.1685(3) 0.0503(11) Uani 1 1 d . . .
O14C O 0.3279(4) 0.24425(14) 0.8540(3) 0.0495(11) Uani 1 1 d . . .
O14D O 1.0785(7) 0.1556(3) 1.4918(3) 0.109(3) Uani 1 1 d . . .
C15D C 1.0780(14) 0.1333(7) 1.5547(7) 0.163(8) Uani 1 1 d . . .
H15A H 1.0028 0.1158 1.5537 0.244 Uiso 1 1 calc R . .
H15B H 1.0742 0.1516 1.5931 0.244 Uiso 1 1 calc R . .
H15C H 1.1567 0.1174 1.5597 0.244 Uiso 1 1 calc R . .
C16A C 0.4313(5) 0.1678(2) 0.7003(3) 0.0393(13) Uani 1 1 d . . .
C16B C 0.2900(6) 0.01113(18) 1.1285(3) 0.0396(13) Uani 1 1 d . . .
C16C C 0.2601(5) 0.31039(19) 1.1274(4) 0.0483(16) Uani 1 1 d . . .
C16D C 1.0029(7) 0.1337(4) 1.1943(4) 0.076(3) Uani 1 1 d . . .
O17A O 0.4348(5) 0.19384(14) 0.7446(2) 0.0469(10) Uani 1 1 d . . .
O17B O 0.3103(4) 0.01565(13) 1.0675(2) 0.0436(10) Uani 1 1 d . . .
O17C O 0.2694(5) 0.27664(14) 1.1517(3) 0.0536(12) Uani 1 1 d . . .
O17D O 1.0207(6) 0.1480(2) 1.1376(4) 0.089(2) Uani 1 1 d . . .
N18A N 0.4252(5) 0.17684(17) 0.6345(3) 0.0419(11) Uani 1 1 d . . .
H18A H 0.4218 0.1579 0.6038 0.050 Uiso 1 1 calc R . .
N18B N 0.2602(5) -0.02334(16) 1.1548(3) 0.0464(12) Uani 1 1 d . . .
H18B H 0.2476 -0.0249 1.1986 0.056 Uiso 1 1 calc R . .
N18C N 0.2553(5) 0.34234(17) 1.1662(3) 0.0502(14) Uani 1 1 d . . .
H18C H 0.2475 0.3658 1.1471 0.060 Uiso 1 1 calc R . .
N18D N 0.9616(7) 0.0985(3) 1.2040(5) 0.078(2) Uani 1 1 d . . .
H18D H 0.9495 0.0909 1.2459 0.093 Uiso 1 1 calc R . .
C19A C 0.4243(6) 0.2182(2) 0.6131(3) 0.0493(15) Uani 1 1 d . . .
H19A H 0.4645 0.2204 0.5688 0.059 Uiso 1 1 calc R . .
H19B H 0.4766 0.2340 0.6467 0.059 Uiso 1 1 calc R . .
C19B C 0.2477(6) -0.0591(2) 1.1132(4) 0.0484(15) Uani 1 1 d . . .
H19C H 0.2690 -0.0823 1.1421 0.058 Uiso 1 1 calc R . .
H19D H 0.3108 -0.0579 1.0772 0.058 Uiso 1 1 calc R . .
C19C C 0.2628(6) 0.3390(2) 1.2400(4) 0.0542(17) Uani 1 1 d . . .
H19E H 0.2148 0.3153 1.2537 0.065 Uiso 1 1 calc R . .
H19F H 0.2219 0.3625 1.2599 0.065 Uiso 1 1 calc R . .
C19D C 0.9333(9) 0.0702(3) 1.1475(7) 0.096(4) Uani 1 1 d . . .
H19G H 0.9453 0.0430 1.1653 0.115 Uiso 1 1 calc R . .
H19H H 0.9965 0.0743 1.1122 0.115 Uiso 1 1 calc R . .
N21A N 0.0374(5) 0.26404(16) 0.5909(3) 0.0454(12) Uani 1 1 d . . .
N21B N -0.1298(5) -0.07596(17) 1.0171(3) 0.0468(12) Uani 1 1 d . . .
N21C N 0.6572(5) 0.33082(16) 1.3178(3) 0.0466(12) Uani 1 1 d . . .
N21D N 0.5538(5) 0.08072(17) 1.0552(3) 0.0456(12) Uani 1 1 d . . .
C22A C 0.0958(10) 0.2597(4) 0.6507(5) 0.098(4) Uani 1 1 d . . .
H22A H 0.0502 0.2667 0.6895 0.118 Uiso 1 1 calc R . .
C22B C -0.0454(10) -0.1053(3) 1.0238(7) 0.102(4) Uani 1 1 d . . .
H22B H -0.0688 -0.1306 1.0060 0.123 Uiso 1 1 calc R . .
C22C C 0.5761(9) 0.2998(3) 1.3147(6) 0.083(3) Uani 1 1 d . . .
H22C H 0.6082 0.2750 1.3306 0.099 Uiso 1 1 calc R . .
C22D C 0.6231(7) 0.1128(3) 1.0626(6) 0.079(3) Uani 1 1 d . . .
H22D H 0.5888 0.1375 1.0471 0.095 Uiso 1 1 calc R . .
C23A C 0.2199(10) 0.2455(4) 0.6610(5) 0.096(4) Uani 1 1 d . . .
H23A H 0.2566 0.2428 0.7060 0.115 Uiso 1 1 calc R . .
C23B C 0.0752(9) -0.1007(3) 1.0556(6) 0.098(4) Uani 1 1 d . . .
H23B H 0.1313 -0.1228 1.0605 0.117 Uiso 1 1 calc R . .
C23C C 0.4478(8) 0.3015(3) 1.2898(6) 0.078(3) Uani 1 1 d . . .
H23C H 0.3954 0.2785 1.2888 0.094 Uiso 1 1 calc R . .
C23D C 0.7474(9) 0.1112(4) 1.0931(8) 0.107(4) Uani 1 1 d . . .
H23D H 0.7974 0.1345 1.0996 0.128 Uiso 1 1 calc R . .
C24A C 0.2899(6) 0.2352(2) 0.6067(3) 0.0440(14) Uani 1 1 d . . .
C24B C 0.1142(6) -0.0645(2) 1.0802(3) 0.0445(14) Uani 1 1 d . . .
C24C C 0.4008(6) 0.3361(2) 1.2675(4) 0.0492(15) Uani 1 1 d . . .
C24D C 0.7969(8) 0.0737(3) 1.1142(5) 0.073(2) Uani 1 1 d . . .
C25A C 0.2322(7) 0.2438(3) 0.5445(4) 0.065(2) Uani 1 1 d . . .
H25A H 0.2784 0.2402 0.5045 0.077 Uiso 1 1 calc R . .
C25B C 0.0267(7) -0.0348(2) 1.0724(5) 0.063(2) Uani 1 1 d . . .
H25B H 0.0481 -0.0090 1.0887 0.075 Uiso 1 1 calc R . .
C25C C 0.4778(8) 0.3680(3) 1.2729(8) 0.108(5) Uani 1 1 d . . .
H25C H 0.4467 0.3932 1.2587 0.130 Uiso 1 1 calc R . .
C25D C 0.7269(7) 0.0418(3) 1.1038(4) 0.063(2) Uani 1 1 d . . .
H25D H 0.7600 0.0165 1.1166 0.076 Uiso 1 1 calc R . .
C26A C 0.1082(7) 0.2577(3) 0.5395(4) 0.064(2) Uani 1 1 d . . .
H26A H 0.0715 0.2631 0.4953 0.077 Uiso 1 1 calc R . .
C26B C -0.0929(6) -0.0416(2) 1.0410(5) 0.0589(19) Uani 1 1 d . . .
H26B H -0.1515 -0.0201 1.0366 0.071 Uiso 1 1 calc R . .
C26C C 0.6034(9) 0.3637(3) 1.2996(8) 0.111(5) Uani 1 1 d . . .
H26C H 0.6537 0.3870 1.3048 0.133 Uiso 1 1 calc R . .
C26D C 0.6067(7) 0.0453(3) 1.0744(4) 0.0567(17) Uani 1 1 d . . .
H26D H 0.5570 0.0220 1.0668 0.068 Uiso 1 1 calc R . .
N30 N 0.6621(5) 0.17722(19) 0.9041(4) 0.0560(15) Uani 1 1 d . . .
O31 O 0.5768(5) 0.20091(18) 0.8900(3) 0.0735(16) Uani 1 1 d . . .
O32 O 0.6411(7) 0.1428(2) 0.8899(5) 0.116(3) Uani 1 1 d . . .
O33 O 0.7647(6) 0.1878(2) 0.9290(5) 0.116(3) Uani 1 1 d . . .
N34 N 0.7590(10) 0.0527(3) 0.6577(5) 0.093(3) Uani 1 1 d . . .
O35 O 0.7667(7) 0.0617(2) 0.7176(4) 0.092(2) Uani 1 1 d . . .
O36 O 0.7765(10) 0.07805(19) 0.6166(4) 0.107(3) Uani 1 1 d . . .
O37 O 0.7231(13) 0.0189(3) 0.6386(5) 0.143(4) Uani 1 1 d . . .
N38 N -0.0878(11) 0.3596(5) 0.9705(7) 0.085(4) Uani 0.650(12) 1 d P A 1
O39 O -0.0937(9) 0.3777(3) 1.0230(3) 0.061(3) Uani 0.650(12) 1 d P A 1
O40 O -0.0887(16) 0.3700(5) 0.9099(5) 0.189(6) Uani 0.650(12) 1 d P A 1
O41 O -0.0748(12) 0.3168(6) 0.9605(8) 0.216(9) Uani 0.650(12) 1 d P A 1
O42 O 0.1024(5) 0.20968(16) 1.0642(4) 0.0660(15) Uani 1 1 d D . .
H42 H 0.0701 0.1909 1.0854 0.079 Uiso 1 1 d R . .
C43 C 0.0341(15) 0.2120(5) 0.9958(8) 0.238(15) Uani 1 1 d DU . .
H43A H 0.0306 0.2395 0.9806 0.358 Uiso 1 1 calc R . .
H43B H -0.0536 0.2017 0.9987 0.358 Uiso 1 1 calc R . .
H43C H 0.0804 0.1961 0.9633 0.358 Uiso 1 1 calc R . .
N44 N -0.061(2) 0.3288(8) 0.8904(9) 0.22(4) Uani 0.350(12) 1 d PD A 2
O45 O -0.0279(15) 0.3039(5) 0.8333(9) 0.083(7) Uani 0.350(12) 1 d PD A 2
O46 O -0.0748(12) 0.3168(6) 0.9605(8) 0.216(9) Uani 0.350(12) 1 d PD A 2
O47 O -0.0887(16) 0.3700(5) 0.9099(5) 0.189(6) Uani 0.350(12) 1 d PD A 2
O48 O 0.937(3) 0.0506(8) 1.3283(13) 0.164(9) Uiso 0.50 1 d P . .

loop_
_atom_site_aniso_label
_atom_site_aniso_U_11
_atom_site_aniso_U_22
_atom_site_aniso_U_33
_atom_site_aniso_U_23
_atom_site_aniso_U_13
_atom_site_aniso_U_12
Cd1 0.0352(2) 0.0370(2) 0.0393(2) -0.00474(16) -0.00709(17) -0.00386(16)
N1A 0.024(2) 0.043(3) 0.036(2) -0.002(2) -0.0106(17) 0.0000(18)
N1B 0.031(2) 0.042(3) 0.036(2) -0.001(2) -0.0042(19) 0.0036(19)
N1C 0.026(2) 0.036(2) 0.065(3) -0.010(2) -0.009(2) -0.0017(19)
N1D 0.041(3) 0.074(4) 0.065(4) -0.002(3) 0.002(3) 0.002(3)
Cd2 0.0333(2) 0.0424(3) 0.0334(2) 0.00135(16) -0.00700(16) 0.00408(16)
C2A 0.026(2) 0.046(3) 0.037(3) -0.001(2) -0.008(2) 0.008(2)
C2B 0.026(3) 0.051(3) 0.040(3) -0.006(3) -0.005(2) 0.000(2)
C2C 0.031(3) 0.039(3) 0.065(4) -0.010(3) -0.011(3) 0.001(2)
C2D 0.048(4) 0.094(6) 0.058(4) -0.008(4) 0.005(3) 0.012(4)
Cd3 0.0344(2) 0.0349(2) 0.0613(3) -0.00739(19) 0.0000(2) -0.00550(16)
C3A 0.047(3) 0.047(3) 0.048(3) 0.001(3) -0.008(3) 0.010(3)
C3B 0.044(3) 0.062(4) 0.041(3) -0.009(3) -0.009(3) 0.004(3)
C3C 0.053(4) 0.049(4) 0.068(5) -0.005(3) -0.013(3) 0.007(3)
C3D 0.071(6) 0.088(6) 0.073(6) -0.025(5) 0.004(4) 0.007(5)
C4A 0.067(5) 0.053(4) 0.048(4) -0.010(3) 0.006(3) 0.018(3)
C4B 0.067(5) 0.072(5) 0.035(3) -0.002(3) -0.012(3) 0.005(4)
C4C 0.080(6) 0.043(4) 0.081(6) -0.002(4) -0.022(4) 0.018(4)
C4D 0.088(7) 0.068(5) 0.099(8) 0.000(5) 0.034(6) 0.014(5)
C5A 0.050(4) 0.067(4) 0.036(3) -0.002(3) -0.001(3) 0.005(3)
C5B 0.071(5) 0.062(4) 0.034(3) 0.010(3) -0.011(3) 0.001(4)
C5C 0.057(4) 0.045(4) 0.085(6) -0.019(4) -0.025(4) 0.015(3)
C5D 0.063(5) 0.082(6) 0.075(6) 0.006(5) 0.009(4) 0.014(4)
C6A 0.024(2) 0.051(3) 0.036(3) -0.001(2) -0.008(2) 0.001(2)
C6B 0.039(3) 0.050(3) 0.036(3) 0.006(3) -0.010(2) 0.002(3)
C6C 0.028(3) 0.042(3) 0.076(5) -0.014(3) -0.013(3) 0.003(2)
C6D 0.029(3) 0.085(6) 0.071(5) 0.012(4) 0.001(3) 0.002(3)
C12A 0.024(2) 0.047(3) 0.037(3) 0.005(2) -0.008(2) 0.005(2)
C12B 0.023(2) 0.049(3) 0.052(4) -0.008(3) -0.005(2) -0.001(2)
C12C 0.029(3) 0.042(3) 0.063(4) -0.014(3) -0.006(3) -0.003(2)
C12D 0.075(6) 0.120(10) 0.084(7) 0.012(7) 0.002(5) 0.00