####################################################################### 
# 
# This file contains crystal structure data downloaded from the 
# Cambridge Structural Database (CSD) hosted by the Cambridge 
# Crystallographic Data Centre (CCDC).
# 
# Full information about CCDC data access policies and citation 
# guidelines are available at http://www.ccdc.cam.ac.uk/access/V1 
# 
# Audit and citation data items may have been added by the CCDC. 
# Please retain this information to preserve the provenance of 
# this file and to allow appropriate attribution of the data. 
# 
#######################################################################

data_shelxs97
_audit_block_doi                 10.5517/ccvf0w4
_database_code_depnum_ccdc_archive 'CCDC 787086'
loop_
_citation_id
_citation_doi
_citation_year
1 10.1002/chem.201101997 2011
_audit_update_record             
;
2010-07-30 deposited with the CCDC.	2024-07-10 downloaded from the CCDC.
;
#TrackingRef 'comp3.cif'


_audit_creation_method           SHELXL-97
_chemical_name_systematic        
;
?
;
_chemical_name_common            ?
_chemical_melting_point          ?
_chemical_formula_moiety         ?
_chemical_formula_sum            'C60 H76 N2 O7 Zn2'
_chemical_formula_weight         1068.01

loop_
_atom_type_symbol
_atom_type_description
_atom_type_scat_dispersion_real
_atom_type_scat_dispersion_imag
_atom_type_scat_source
C C 0.0033 0.0016 'International Tables Vol C Tables 4.2.6.8 and 6.1.1.4'
H H 0.0000 0.0000 'International Tables Vol C Tables 4.2.6.8 and 6.1.1.4'
O O 0.0106 0.0060 'International Tables Vol C Tables 4.2.6.8 and 6.1.1.4'
Zn Zn 0.2839 1.4301 'International Tables Vol C Tables 4.2.6.8 and 6.1.1.4'
N N 0.0061 0.0033 'International Tables Vol C Tables 4.2.6.8 and 6.1.1.4'

_symmetry_cell_setting           Monoclinic
_symmetry_space_group_name_H-M   'P 21/c'

loop_
_symmetry_equiv_pos_as_xyz
'x, y, z'
'-x, y+1/2, -z+1/2'
'-x, -y, -z'
'x, -y-1/2, z-1/2'

_cell_length_a                   10.5689(4)
_cell_length_b                   19.6178(9)
_cell_length_c                   26.3051(9)
_cell_angle_alpha                90.00
_cell_angle_beta                 97.050(2)
_cell_angle_gamma                90.00
_cell_volume                     5412.8(4)
_cell_formula_units_Z            4
_cell_measurement_temperature    100(2)
_cell_measurement_reflns_used    4994
_cell_measurement_theta_min      0.998
_cell_measurement_theta_max      27.485

_exptl_crystal_description       prism
_exptl_crystal_colour            colorless
_exptl_crystal_size_max          0.42
_exptl_crystal_size_mid          0.34
_exptl_crystal_size_min          0.24
_exptl_crystal_density_meas      ?
_exptl_crystal_density_diffrn    1.311
_exptl_crystal_density_method    'not measured'
_exptl_crystal_F_000             2264
_exptl_absorpt_coefficient_mu    0.940
_exptl_absorpt_correction_type   multi-scan
_exptl_absorpt_correction_T_min  ?
_exptl_absorpt_correction_T_max  ?
_exptl_absorpt_process_details   'Scalepak (Otwinowski, Minor, 1997)'

_exptl_special_details           
;
?
;

_diffrn_ambient_temperature      100(2)
_diffrn_radiation_wavelength     0.71073
_diffrn_radiation_type           MoK\a
_diffrn_radiation_source         'fine-focus sealed tube'
_diffrn_radiation_monochromator  graphite
_diffrn_measurement_device       '\k-geometry diffractometr'
_diffrn_measurement_device_type  'Nonius Kappa-CCD'
_diffrn_measurement_method       'area detector \w scans'
_diffrn_detector_area_resol_mean ?
_diffrn_standards_number         ?
_diffrn_standards_interval_count ?
_diffrn_standards_interval_time  ?
_diffrn_standards_decay_%        ?
_diffrn_reflns_number            14546
_diffrn_reflns_av_R_equivalents  0.0649
_diffrn_reflns_av_sigmaI/netI    0.0752
_diffrn_reflns_limit_h_min       -11
_diffrn_reflns_limit_h_max       12
_diffrn_reflns_limit_k_min       -22
_diffrn_reflns_limit_k_max       19
_diffrn_reflns_limit_l_min       -29
_diffrn_reflns_limit_l_max       29
_diffrn_reflns_theta_min         1.94
_diffrn_reflns_theta_max         23.82
_reflns_number_total             8287
_reflns_number_gt                4370
_reflns_threshold_expression     I>2\s(I)

_computing_data_collection       'Collect (Nonius B.V. 1998)'
_computing_cell_refinement       'Denzo & Scalepak (Otwinowski, Minor, 1997)'
_computing_data_reduction        'Denzo & Scalepak (Otwinowski, Minor, 1997)'
_computing_structure_solution    'SHELXS-97 (Sheldrick, 1990)'
_computing_structure_refinement  'SHELXL-97 (Sheldrick, 1997)'
_computing_molecular_graphics    
;
DIAMOND v2.1 (Brandenburg, 1999)
Ortep-3 for Windows, L.J.Farrugia (1997) J.Appl.Cryst. 30, 565,
ORTEP III (Burnett, Johnson, 1996)
;
_computing_publication_material  
;
SHELXL-97 (Sheldrick, 1997),
;

_refine_special_details          
;
Refinement of F^2^ against ALL reflections. The weighted R-factor wR and
goodness of fit S are based on F^2^, conventional R-factors R are based
on F, with F set to zero for negative F^2^. The threshold expression of
F^2^ > 2sigma(F^2^) is used only for calculating R-factors(gt) etc. and is
not relevant to the choice of reflections for refinement. R-factors based
on F^2^ are statistically about twice as large as those based on F, and R-
factors based on ALL data will be even larger.
;

_refine_ls_structure_factor_coef Fsqd
_refine_ls_matrix_type           full
_refine_ls_weighting_scheme      calc
_refine_ls_weighting_details     
'calc w=1/[\s^2^(Fo^2^)+(0.0649P)^2^+37.1003P] where P=(Fo^2^+2Fc^2^)/3'
_atom_sites_solution_primary     direct
_atom_sites_solution_secondary   difmap
_atom_sites_solution_hydrogens   geom
_refine_ls_hydrogen_treatment    constr
_refine_ls_extinction_method     none
_refine_ls_extinction_coef       ?
_refine_ls_number_reflns         8287
_refine_ls_number_parameters     654
_refine_ls_number_restraints     7
_refine_ls_R_factor_all          0.1488
_refine_ls_R_factor_gt           0.0689
_refine_ls_wR_factor_ref         0.1822
_refine_ls_wR_factor_gt          0.1526
_refine_ls_goodness_of_fit_ref   1.058
_refine_ls_restrained_S_all      1.037
_refine_ls_shift/su_max          0.000
_refine_ls_shift/su_mean         0.000

loop_
_atom_site_label
_atom_site_type_symbol
_atom_site_fract_x
_atom_site_fract_y
_atom_site_fract_z
_atom_site_U_iso_or_equiv
_atom_site_adp_type
_atom_site_occupancy
_atom_site_symmetry_multiplicity
_atom_site_calc_flag
_atom_site_refinement_flags
_atom_site_disorder_assembly
_atom_site_disorder_group
C1 C 0.3062(9) 0.5869(4) 0.3860(3) 0.0232(17) Uani 1 1 d U . .
H1A H 0.2765 0.5444 0.3681 0.028 Uiso 1 1 calc R . .
H1B H 0.4005 0.5859 0.3907 0.028 Uiso 1 1 calc R . .
C2 C 0.2598(9) 0.5864(5) 0.4396(3) 0.0244(17) Uani 1 1 d U . .
H2A H 0.2908 0.6275 0.4585 0.037 Uiso 1 1 calc R . .
H2B H 0.2929 0.5459 0.4585 0.037 Uiso 1 1 calc R . .
H2C H 0.1664 0.5857 0.4358 0.037 Uiso 1 1 calc R . .
C3 C 0.2059(9) 0.8981(5) 0.2878(4) 0.0274(18) Uani 1 1 d U . .
H3A H 0.1127 0.8933 0.2783 0.033 Uiso 1 1 calc R . .
H3B H 0.2217 0.9436 0.3036 0.033 Uiso 1 1 calc R . .
C4 C 0.2708(9) 0.8948(5) 0.2388(4) 0.0281(18) Uani 1 1 d U . .
H4A H 0.3635 0.8953 0.2479 0.042 Uiso 1 1 calc R . .
H4B H 0.2449 0.9344 0.2172 0.042 Uiso 1 1 calc R . .
H4C H 0.2453 0.8529 0.2201 0.042 Uiso 1 1 calc R . .
C5 C 0.0350(7) 0.7428(4) 0.3751(3) 0.0192(9) Uani 1 1 d U . .
C6 C -0.0315(8) 0.6849(4) 0.3765(3) 0.0205(9) Uani 1 1 d U . .
C7 C -0.0002(8) 0.8066(4) 0.4002(3) 0.0199(9) Uani 1 1 d U . .
C8 C -0.0269(8) 0.8651(4) 0.3709(4) 0.0203(11) Uani 1 1 d U . .
H8 H -0.0231 0.8634 0.3350 0.024 Uiso 1 1 calc R . .
C9 C -0.0591(8) 0.9263(5) 0.3934(4) 0.0217(11) Uani 1 1 d U . .
H9 H -0.0776 0.9657 0.3727 0.026 Uiso 1 1 calc R . .
C10 C -0.0641(8) 0.9295(5) 0.4448(4) 0.0224(11) Uani 1 1 d U . .
H10 H -0.0850 0.9714 0.4598 0.027 Uiso 1 1 calc R . .
C11 C -0.0387(8) 0.8714(4) 0.4761(4) 0.0221(11) Uani 1 1 d U . .
H11 H -0.0433 0.8739 0.5119 0.026 Uiso 1 1 calc R . .
C12 C -0.0069(8) 0.8107(4) 0.4536(3) 0.0211(11) Uani 1 1 d U . .
H12 H 0.0107 0.7713 0.4743 0.025 Uiso 1 1 calc R . .
C13 C -0.1462(8) 0.6714(5) 0.4027(3) 0.0219(9) Uani 1 1 d U . .
C14 C -0.2423(8) 0.7191(5) 0.4081(4) 0.0233(11) Uani 1 1 d U . .
H14 H -0.2356 0.7637 0.3945 0.028 Uiso 1 1 calc R . .
C15 C -0.3469(8) 0.7029(5) 0.4327(3) 0.0248(11) Uani 1 1 d U . .
H15 H -0.4095 0.7366 0.4365 0.030 Uiso 1 1 calc R . .
C16 C -0.3611(8) 0.6385(5) 0.4516(4) 0.0255(11) Uani 1 1 d U . .
H16 H -0.4334 0.6279 0.4683 0.031 Uiso 1 1 calc R . .
C17 C -0.2707(8) 0.5892(5) 0.4464(4) 0.0253(11) Uani 1 1 d U . .
H17 H -0.2805 0.5446 0.4595 0.030 Uiso 1 1 calc R . .
C18 C -0.1652(8) 0.6049(5) 0.4220(3) 0.0240(11) Uani 1 1 d U . .
H18 H -0.1041 0.5704 0.4180 0.029 Uiso 1 1 calc R . .
C19 C -0.0664(8) 0.6060(4) 0.3075(4) 0.0232(11) Uani 1 1 d U . .
H19A H -0.0527 0.6366 0.2788 0.028 Uiso 1 1 calc R . .
H19B H -0.1574 0.6082 0.3129 0.028 Uiso 1 1 calc R . .
C20 C -0.0300(8) 0.5334(4) 0.2955(4) 0.0247(14) Uani 1 1 d U . .
H20A H 0.0600 0.5319 0.2901 0.037 Uiso 1 1 calc R . .
H20B H -0.0829 0.5178 0.2645 0.037 Uiso 1 1 calc R . .
H20C H -0.0437 0.5036 0.3243 0.037 Uiso 1 1 calc R . .
C21 C 0.4796(8) 0.7516(4) 0.3063(3) 0.0198(9) Uani 1 1 d U . .
C22 C 0.5472(8) 0.8100(4) 0.3052(3) 0.0214(9) Uani 1 1 d U . .
C23 C 0.5141(8) 0.6892(4) 0.2788(3) 0.0209(9) Uani 1 1 d U . .
C24 C 0.5137(8) 0.6870(4) 0.2259(3) 0.0221(11) Uani 1 1 d U . .
H24 H 0.4865 0.7262 0.2062 0.027 Uiso 1 1 calc R . .
C25 C 0.5514(8) 0.6300(4) 0.2010(4) 0.0236(11) Uani 1 1 d U . .
H25 H 0.5544 0.6306 0.1650 0.028 Uiso 1 1 calc R . .
C26 C 0.5849(8) 0.5715(5) 0.2295(4) 0.0244(11) Uani 1 1 d U . .
H26 H 0.6096 0.5314 0.2130 0.029 Uiso 1 1 calc R . .
C27 C 0.5821(8) 0.5720(5) 0.2820(4) 0.0240(11) Uani 1 1 d U . .
H27 H 0.6054 0.5321 0.3014 0.029 Uiso 1 1 calc R . .
C28 C 0.5458(8) 0.6297(4) 0.3064(4) 0.0225(11) Uani 1 1 d U . .
H28 H 0.5425 0.6289 0.3423 0.027 Uiso 1 1 calc R . .
C29 C 0.6571(8) 0.8234(4) 0.2764(3) 0.0227(9) Uani 1 1 d U . .
C30 C 0.7508(8) 0.7755(5) 0.2717(4) 0.0241(11) Uani 1 1 d U . .
H30 H 0.7465 0.7324 0.2879 0.029 Uiso 1 1 calc R . .
C31 C 0.8521(8) 0.7896(5) 0.2435(3) 0.0250(11) Uani 1 1 d U . .
H31 H 0.9159 0.7560 0.2410 0.030 Uiso 1 1 calc R . .
C32 C 0.8603(9) 0.8511(4) 0.2195(4) 0.0261(12) Uani 1 1 d U . .
H32 H 0.9274 0.8598 0.1994 0.031 Uiso 1 1 calc R . .
C33 C 0.7667(8) 0.9018(5) 0.2251(4) 0.0263(11) Uani 1 1 d U . .
H33 H 0.7717 0.9450 0.2092 0.032 Uiso 1 1 calc R . .
C34 C 0.6679(9) 0.8878(5) 0.2538(3) 0.0250(11) Uani 1 1 d U . .
H34 H 0.6070 0.9221 0.2583 0.030 Uiso 1 1 calc R . .
C35 C 0.5860(8) 0.8870(4) 0.3741(3) 0.0231(12) Uani 1 1 d U . .
H35A H 0.6757 0.8838 0.3670 0.028 Uiso 1 1 calc R . .
H35B H 0.5744 0.8560 0.4029 0.028 Uiso 1 1 calc R . .
C36 C 0.5553(9) 0.9595(4) 0.3879(4) 0.0241(14) Uani 1 1 d U . .
H36A H 0.5687 0.9899 0.3595 0.036 Uiso 1 1 calc R . .
H36B H 0.6111 0.9733 0.4187 0.036 Uiso 1 1 calc R . .
H36C H 0.4661 0.9623 0.3944 0.036 Uiso 1 1 calc R . .
C47 C 0.2773(8) 0.8997(4) 0.4414(3) 0.0185(11) Uani 1 1 d U . .
H47 H 0.2537 0.9387 0.4211 0.022 Uiso 1 1 calc R . .
C46 C 0.2841(8) 0.9053(4) 0.4931(3) 0.0188(11) Uani 1 1 d U . .
H46 H 0.2652 0.9477 0.5079 0.023 Uiso 1 1 calc R . .
C45 C 0.3185(8) 0.8496(4) 0.5245(3) 0.0188(10) Uani 1 1 d U . .
C44 C 0.3475(8) 0.7900(4) 0.5010(3) 0.0188(11) Uani 1 1 d U . .
H44 H 0.3741 0.7508 0.5207 0.023 Uiso 1 1 calc R . .
C43 C 0.3375(8) 0.7882(4) 0.4481(3) 0.0190(11) Uani 1 1 d U . .
H43 H 0.3567 0.7465 0.4324 0.023 Uiso 1 1 calc R . .
C41 C 0.1694(8) 0.7070(4) 0.2324(3) 0.0173(11) Uani 1 1 d U . .
H41 H 0.1475 0.7479 0.2486 0.021 Uiso 1 1 calc R . .
C40 C 0.1572(8) 0.7042(4) 0.1795(3) 0.0185(11) Uani 1 1 d U . .
H40 H 0.1291 0.7432 0.1600 0.022 Uiso 1 1 calc R . .
C39 C 0.1856(8) 0.6451(4) 0.1550(3) 0.0189(10) Uani 1 1 d U . .
C38 C 0.2261(8) 0.5884(4) 0.1851(3) 0.0183(11) Uani 1 1 d U . .
H38 H 0.2449 0.5465 0.1696 0.022 Uiso 1 1 calc R . .
C37 C 0.2382(8) 0.5948(4) 0.2379(3) 0.0176(11) Uani 1 1 d U . .
H37 H 0.2665 0.5566 0.2583 0.021 Uiso 1 1 calc R . .
C42 C 0.1848(8) 0.6420(4) 0.0975(3) 0.0206(13) Uani 1 1 d U . .
H42A H 0.1333 0.6801 0.0814 0.025 Uiso 1 1 calc R . .
H42B H 0.1447 0.5988 0.0844 0.025 Uiso 1 1 calc R . .
C49 C 0.5825(11) 0.8385(5) 0.0891(5) 0.0512(15) Uani 1 1 d U . .
H49A H 0.6104 0.8200 0.0572 0.061 Uiso 1 1 calc R . .
H49B H 0.6525 0.8330 0.1174 0.061 Uiso 1 1 calc R . .
C50 C 0.5446(12) 0.9130(6) 0.0822(5) 0.0532(15) Uani 1 1 d U . .
H50A H 0.6194 0.9433 0.0902 0.064 Uiso 1 1 calc R . .
H50B H 0.5048 0.9221 0.0469 0.064 Uiso 1 1 calc R . .
C51 C 0.4523(12) 0.9226(6) 0.1194(5) 0.0529(15) Uani 1 1 d U . .
H51A H 0.3752 0.9467 0.1034 0.063 Uiso 1 1 calc R . .
H51B H 0.4907 0.9490 0.1495 0.063 Uiso 1 1 calc R . .
C52 C 0.4198(12) 0.8499(5) 0.1348(5) 0.0508(15) Uani 1 1 d U . .
H52A H 0.4576 0.8405 0.1704 0.061 Uiso 1 1 calc R . .
H52B H 0.3263 0.8441 0.1326 0.061 Uiso 1 1 calc R . .
C55 C 0.2971(10) 0.1690(5) 0.4331(5) 0.0462(15) Uani 1 1 d U C .
H55A H 0.3771 0.1876 0.4227 0.055 Uiso 1 1 calc R . .
H55B H 0.2690 0.1982 0.4603 0.055 Uiso 1 1 calc R . .
C56 C 0.3139(10) 0.0949(5) 0.4508(5) 0.0467(14) Uani 1 1 d DU . .
H56A H 0.3882 0.0743 0.4370 0.056 Uiso 1 1 calc R A 1
H56B H 0.3288 0.0928 0.4887 0.056 Uiso 1 1 calc R A 1
C57 C -0.0855(9) 0.8319(5) 0.0707(4) 0.0400(13) Uani 1 1 d U . .
H57A H -0.1274 0.8159 0.1002 0.048 Uiso 1 1 calc R . .
H57B H -0.1406 0.8204 0.0387 0.048 Uiso 1 1 calc R . .
C58 C -0.0619(10) 0.9086(5) 0.0742(4) 0.0411(14) Uani 1 1 d U . .
H58A H -0.0628 0.9252 0.1097 0.049 Uiso 1 1 calc R . .
H58B H -0.1268 0.9339 0.0512 0.049 Uiso 1 1 calc R . .
C59 C 0.0705(10) 0.9163(5) 0.0571(5) 0.0409(14) Uani 1 1 d U . .
H59A H 0.0678 0.9478 0.0275 0.049 Uiso 1 1 calc R . .
H59B H 0.1320 0.9342 0.0854 0.049 Uiso 1 1 calc R . .
C60 C 0.1068(10) 0.8461(5) 0.0424(4) 0.0399(13) Uani 1 1 d U . .
H60A H 0.0834 0.8386 0.0052 0.048 Uiso 1 1 calc R . .
H60B H 0.1997 0.8389 0.0509 0.048 Uiso 1 1 calc R . .
O1 O 0.1371(5) 0.7463(3) 0.3498(2) 0.0187(10) Uani 1 1 d U . .
O2 O 0.0135(5) 0.6264(3) 0.3536(2) 0.0213(9) Uani 1 1 d U . .
O3 O 0.3780(5) 0.7465(3) 0.3330(2) 0.0187(10) Uani 1 1 d U . .
O4 O 0.5007(5) 0.8679(3) 0.3290(2) 0.0216(9) Uani 1 1 d U . .
O5 O 0.4708(7) 0.8052(4) 0.1006(3) 0.0492(14) Uani 1 1 d U . .
O7 O 0.0376(6) 0.8013(3) 0.0712(3) 0.0390(12) Uani 1 1 d U . .
Zn2 Zn 0.26353(9) 0.82768(5) 0.33942(4) 0.0162(3) Uani 1 1 d . . .
Zn1 Zn 0.25007(9) 0.66482(5) 0.34125(4) 0.0167(3) Uani 1 1 d . . .
N2 N 0.3026(6) 0.8410(3) 0.4176(3) 0.0183(10) Uani 1 1 d U . .
N1 N 0.2112(6) 0.6535(3) 0.2614(3) 0.0172(10) Uani 1 1 d U . .
C48 C 0.3218(8) 0.8538(4) 0.5825(3) 0.0192(13) Uani 1 1 d U . .
H48A H 0.3708 0.8945 0.5954 0.023 Uiso 1 1 calc R . .
H48B H 0.3652 0.8130 0.5985 0.023 Uiso 1 1 calc R . .
C54 C 0.1930(10) 0.1630(5) 0.3871(5) 0.0464(15) Uani 1 1 d U . .
H54A H 0.1128 0.1846 0.3946 0.056 Uiso 1 1 calc R C .
H54B H 0.2206 0.1844 0.3562 0.056 Uiso 1 1 calc R . .
C53 C 0.1765(11) 0.0870(5) 0.3800(5) 0.0469(14) Uani 1 1 d U C .
H53A H 0.0883 0.0756 0.3653 0.056 Uiso 1 1 calc R B 1
H53B H 0.2367 0.0686 0.3574 0.056 Uiso 1 1 calc R B 1
O6 O 0.2055(9) 0.0601(5) 0.4332(4) 0.0464(15) Uani 0.752(10) 1 d PU C 1
O6A O 0.293(3) 0.0606(13) 0.4039(7) 0.0466(15) Uani 0.248(10) 1 d PDU C 2

loop_
_atom_site_aniso_label
_atom_site_aniso_U_11
_atom_site_aniso_U_22
_atom_site_aniso_U_33
_atom_site_aniso_U_23
_atom_site_aniso_U_13
_atom_site_aniso_U_12
C1 0.023(4) 0.031(4) 0.015(4) 0.004(3) -0.001(3) 0.004(3)
C2 0.025(4) 0.032(4) 0.015(4) 0.003(3) -0.001(3) 0.004(3)
C3 0.024(4) 0.027(4) 0.032(5) -0.001(3) 0.006(3) -0.008(3)
C4 0.025(4) 0.028(4) 0.032(5) 0.000(3) 0.006(3) -0.008(3)
C5 0.0146(17) 0.0224(17) 0.0211(18) -0.0032(16) 0.0043(15) -0.0002(16)
C6 0.0153(17) 0.0241(17) 0.0224(18) -0.0036(16) 0.0039(15) 0.0002(15)
C7 0.0149(18) 0.0231(18) 0.0220(19) -0.0037(17) 0.0036(17) -0.0014(17)
C8 0.016(2) 0.023(2) 0.022(2) -0.0038(19) 0.0041(19) -0.0012(19)
C9 0.018(2) 0.024(2) 0.024(2) -0.005(2) 0.003(2) -0.001(2)
C10 0.018(2) 0.025(2) 0.024(2) -0.007(2) 0.003(2) -0.001(2)
C11 0.017(2) 0.026(2) 0.023(2) -0.007(2) 0.002(2) -0.002(2)
C12 0.016(2) 0.025(2) 0.023(2) -0.0038(19) 0.0030(19) -0.0018(19)
C13 0.0158(18) 0.0274(18) 0.023(2) -0.0022(17) 0.0038(16) -0.0007(17)
C14 0.017(2) 0.030(2) 0.024(2) -0.001(2) 0.0047(19) -0.0002(19)
C15 0.018(2) 0.032(2) 0.025(2) -0.001(2) 0.006(2) 0.000(2)
C16 0.019(2) 0.033(2) 0.025(2) -0.001(2) 0.005(2) -0.001(2)
C17 0.020(2) 0.032(2) 0.025(2) -0.001(2) 0.004(2) -0.001(2)
C18 0.018(2) 0.030(2) 0.024(2) -0.002(2) 0.0040(19) -0.001(2)
C19 0.019(2) 0.024(2) 0.026(2) -0.004(2) 0.002(2) -0.001(2)
C20 0.021(3) 0.025(3) 0.027(3) -0.005(3) 0.002(2) -0.002(3)
C21 0.0195(17) 0.0204(16) 0.0206(18) -0.0028(16) 0.0075(15) -0.0017(16)
C22 0.0218(17) 0.0215(16) 0.0217(18) -0.0034(16) 0.0063(15) -0.0033(16)
C23 0.0187(19) 0.0227(18) 0.0224(19) -0.0025(17) 0.0066(17) -0.0012(17)
C24 0.019(2) 0.025(2) 0.024(2) -0.003(2) 0.006(2) -0.0026(19)
C25 0.020(2) 0.027(2) 0.025(2) -0.004(2) 0.005(2) -0.003(2)
C26 0.021(2) 0.026(2) 0.027(2) -0.005(2) 0.004(2) -0.001(2)
C27 0.021(2) 0.025(2) 0.026(2) -0.004(2) 0.005(2) 0.001(2)
C28 0.020(2) 0.024(2) 0.024(2) -0.002(2) 0.006(2) 0.000(2)
C29 0.0227(18) 0.0240(18) 0.022(2) -0.0039(17) 0.0059(17) -0.0052(17)
C30 0.023(2) 0.026(2) 0.024(2) -0.003(2) 0.0050(19) -0.006(2)
C31 0.022(2) 0.028(2) 0.025(2) -0.003(2) 0.006(2) -0.006(2)
C32 0.024(2) 0.029(2) 0.027(2) -0.002(2) 0.008(2) -0.006(2)
C33 0.025(2) 0.028(2) 0.027(2) -0.002(2) 0.007(2) -0.006(2)
C34 0.024(2) 0.026(2) 0.026(2) -0.003(2) 0.006(2) -0.006(2)
C35 0.024(2) 0.023(2) 0.023(2) -0.005(2) 0.004(2) -0.004(2)
C36 0.025(3) 0.023(3) 0.024(3) -0.004(2) 0.003(3) -0.005(3)
C47 0.017(2) 0.020(2) 0.019(2) -0.0017(19) 0.001(2) -0.004(2)
C46 0.017(2) 0.020(2) 0.019(2) -0.0008(19) 0.001(2) -0.0036(19)
C45 0.016(2) 0.021(2) 0.019(2) -0.0016(18) 0.0014(19) -0.0038(18)
C44 0.016(2) 0.021(2) 0.019(2) -0.003(2) 0.000(2) -0.004(2)
C43 0.016(2) 0.020(2) 0.020(2) -0.005(2) 0.001(2) -0.004(2)
C41 0.017(2) 0.020(2) 0.016(2) -0.0019(19) 0.004(2) -0.001(2)
C40 0.019(2) 0.021(2) 0.016(2) -0.0015(19) 0.003(2) -0.001(2)
C39 0.020(2) 0.021(2) 0.016(2) -0.0016(18) 0.0027(19) -0.0019(19)
C38 0.019(2) 0.021(2) 0.016(2) -0.0023(19) 0.003(2) -0.002(2)
C37 0.017(2) 0.020(2) 0.016(2) -0.0019(19) 0.004(2) -0.003(2)
C42 0.023(3) 0.022(3) 0.017(3) 0.001(2) 0.002(2) -0.003(2)
C49 0.061(3) 0.042(3) 0.054(4) -0.008(3) 0.020(3) -0.006(3)
C50 0.064(3) 0.043(3) 0.056(4) -0.008(3) 0.020(3) -0.005(3)
C51 0.062(3) 0.043(3) 0.057(4) -0.008(3) 0.019(3) -0.004(3)
C52 0.060(3) 0.041(3) 0.054(4) -0.008(3) 0.020(3) -0.005(3)
C55 0.044(3) 0.031(3) 0.065(4) 0.000(3) 0.012(3) 0.003(3)
C56 0.045(3) 0.030(3) 0.066(4) 0.001(3) 0.012(3) 0.003(3)
C57 0.038(3) 0.036(3) 0.048(3) -0.004(2) 0.011(3) -0.003(2)
C58 0.039(3) 0.037(3) 0.048(3) -0.004(3) 0.010(3) -0.004(3)
C59 0.039(3) 0.036(3) 0.049(3) -0.005(3) 0.011(3) -0.004(3)
C60 0.038(3) 0.035(3) 0.048(3) -0.004(2) 0.012(3) -0.003(2)
O1 0.015(2) 0.021(2) 0.021(2) -0.002(2) 0.0049(18) 0.001(2)
O2 0.0161(19) 0.0230(19) 0.025(2) -0.0054(17) 0.0028(17) -0.0003(17)
O3 0.020(2) 0.018(2) 0.020(2) -0.003(2) 0.0079(18) -0.001(2)
O4 0.023(2) 0.0209(19) 0.022(2) -0.0046(17) 0.0053(17) -0.0040(17)
O5 0.059(3) 0.040(3) 0.052(3) -0.009(3) 0.020(3) -0.006(3)
O7 0.037(3) 0.034(3) 0.047(3) -0.003(2) 0.011(2) -0.001(2)
Zn2 0.0187(6) 0.0161(5) 0.0143(6) 0.0005(5) 0.0038(5) 0.0003(5)
Zn1 0.0184(6) 0.0173(5) 0.0143(7) 0.0001(5) 0.0017(5) 0.0010(5)
N2 0.016(2) 0.020(2) 0.019(2) -0.0032(19) 0.0012(19) -0.0047(19)
N1 0.016(2) 0.020(2) 0.016(2) -0.0016(18) 0.0044(19) -0.0026(19)
C48 0.017(3) 0.022(2) 0.019(3) -0.001(2) 0.002(2) -0.003(2)
C54 0.044(3) 0.031(3) 0.066(4) 0.001(3) 0.012(3) 0.003(3)
C53 0.045(3) 0.031(3) 0.066(4) 0.001(3) 0.013(3) 0.003(3)
O6 0.045(3) 0.030(3) 0.066(4) 0.001(3) 0.014(3) 0.002(3)
O6A 0.045(3) 0.030(3) 0.066(4) 0.001(3) 0.013(3) 0.003(3)

_geom_special_details            
;
All esds (except the esd in the dihedral angle between two l.s. planes)
are estimated using the full covariance matrix. The cell esds are taken
into account individually in the estimation of esds in distances, angles
and torsion angles; correlations between esds in cell parameters are only
used when they are defined by crystal symmetry. An approximate (isotropic)
treatment of cell esds is used for estimating esds involving l.s. planes.
;

loop_
_geom_bond_atom_site_label_1
_geom_bond_atom_site_label_2
_geom_bond_distance
_geom_bond_site_symmetry_2
_geom_bond_publ_flag
C1 C2 1.548(12) . ?
C1 Zn1 1.976(8) . ?
C3 C4 1.532(12) . ?
C3 Zn2 1.980(9) . ?
C5 O1 1.337(9) . ?
C5 C6 1.340(12) . ?
C5 C7 1.484(12) . ?
C6 O2 1.407(10) . ?
C6 C13 1.489(12) . ?
C7 C8 1.390(12) . ?
C7 C12 1.417(12) . ?
C8 C9 1.400(12) . ?
C9 C10 1.361(12) . ?
C10 C11 1.412(12) . ?
C11 C12 1.391(12) . ?
C13 C14 1.402(12) . ?
C13 C18 1.422(12) . ?
C14 C15 1.385(12) . ?
C15 C16 1.372(13) . ?
C16 C17 1.379(12) . ?
C17 C18 1.389(12) . ?
C19 O2 1.446(10) . ?
C19 C20 1.518(12) . ?
C21 C22 1.353(12) . ?
C21 O3 1.356(9) . ?
C21 C23 1.489(12) . ?
C22 O4 1.415(10) . ?
C22 C29 1.486(12) . ?
C23 C24 1.392(12) . ?
C23 C28 1.393(12) . ?
C24 C25 1.381(12) . ?
C25 C26 1.392(12) . ?
C26 C27 1.384(12) . ?
C27 C28 1.379(12) . ?
C29 C30 1.382(12) . ?
C29 C34 1.405(12) . ?
C30 C31 1.404(12) . ?
C31 C32 1.369(13) . ?
C32 C33 1.423(12) . ?
C33 C34 1.389(12) . ?
C35 O4 1.449(10) . ?
C35 C36 1.512(11) . ?
C47 N2 1.353(10) . ?
C47 C46 1.356(12) . ?
C46 C45 1.393(12) . ?
C45 C44 1.375(11) . ?
C45 C48 1.523(12) . ?
C44 C43 1.382(12) . ?
C43 N2 1.335(11) . ?
C41 N1 1.341(10) . ?
C41 C40 1.382(11) . ?
C40 C39 1.376(12) . ?
C39 C38 1.401(12) . ?
C39 C42 1.514(12) . ?
C38 C37 1.384(12) . ?
C37 N1 1.354(10) . ?
C42 C48 1.548(11) 4_575 ?
C49 O5 1.413(12) . ?
C49 C50 1.520(15) . ?
C50 C51 1.474(15) . ?
C51 C52 1.533(15) . ?
C52 O5 1.410(12) . ?
C55 C56 1.530(14) . ?
C55 C54 1.536(15) . ?
C56 O6 1.364(14) . ?
C56 O6A 1.398(10) . ?
C57 O7 1.432(11) . ?
C57 C58 1.526(14) . ?
C58 C59 1.529(14) . ?
C59 C60 1.493(13) . ?
C60 O7 1.422(11) . ?
O1 Zn1 2.025(5) . ?
O1 Zn2 2.120(6) . ?
O3 Zn2 2.020(6) . ?
O3 Zn1 2.125(5) . ?
Zn2 N2 2.065(7) . ?
Zn1 N1 2.101(7) . ?
C48 C42 1.548(11) 4_576 ?
C54 C53 1.509(14) . ?
C53 O6A 1.41(3) . ?
C53 O6 1.493(15) . ?

loop_
_geom_angle_atom_site_label_1
_geom_angle_atom_site_label_2
_geom_angle_atom_site_label_3
_geom_angle
_geom_angle_site_symmetry_1
_geom_angle_site_symmetry_3
_geom_angle_publ_flag
C2 C1 Zn1 116.2(6) . . ?
C4 C3 Zn2 114.6(6) . . ?
O1 C5 C6 121.0(8) . . ?
O1 C5 C7 116.1(7) . . ?
C6 C5 C7 122.9(7) . . ?
C5 C6 O2 118.3(7) . . ?
C5 C6 C13 128.6(8) . . ?
O2 C6 C13 113.0(7) . . ?
C8 C7 C12 118.2(8) . . ?
C8 C7 C5 119.6(8) . . ?
C12 C7 C5 122.2(8) . . ?
C7 C8 C9 121.2(9) . . ?
C10 C9 C8 119.9(9) . . ?
C9 C10 C11 121.1(9) . . ?
C12 C11 C10 118.7(9) . . ?
C11 C12 C7 121.0(8) . . ?
C14 C13 C18 116.1(8) . . ?
C14 C13 C6 124.7(8) . . ?
C18 C13 C6 119.1(8) . . ?
C15 C14 C13 121.6(9) . . ?
C16 C15 C14 120.7(9) . . ?
C15 C16 C17 120.1(9) . . ?
C16 C17 C18 119.7(9) . . ?
C17 C18 C13 121.7(9) . . ?
O2 C19 C20 107.3(7) . . ?
C22 C21 O3 121.8(8) . . ?
C22 C21 C23 121.5(7) . . ?
O3 C21 C23 116.6(7) . . ?
C21 C22 O4 117.2(7) . . ?
C21 C22 C29 127.6(8) . . ?
O4 C22 C29 114.8(7) . . ?
C24 C23 C28 117.8(8) . . ?
C24 C23 C21 122.7(8) . . ?
C28 C23 C21 119.5(8) . . ?
C25 C24 C23 122.3(9) . . ?
C24 C25 C26 118.8(9) . . ?
C27 C26 C25 119.7(9) . . ?
C28 C27 C26 120.8(9) . . ?
C27 C28 C23 120.5(9) . . ?
C30 C29 C34 118.5(8) . . ?
C30 C29 C22 122.5(8) . . ?
C34 C29 C22 119.0(8) . . ?
C29 C30 C31 121.0(9) . . ?
C32 C31 C30 120.8(9) . . ?
C31 C32 C33 118.9(9) . . ?
C34 C33 C32 119.8(9) . . ?
C33 C34 C29 120.9(9) . . ?
O4 C35 C36 108.0(7) . . ?
N2 C47 C46 123.0(8) . . ?
C47 C46 C45 120.6(8) . . ?
C44 C45 C46 117.2(8) . . ?
C44 C45 C48 121.2(8) . . ?
C46 C45 C48 121.6(8) . . ?
C45 C44 C43 118.8(8) . . ?
N2 C43 C44 124.5(8) . . ?
N1 C41 C40 121.7(8) . . ?
C39 C40 C41 120.4(8) . . ?
C40 C39 C38 118.2(8) . . ?
C40 C39 C42 121.9(8) . . ?
C38 C39 C42 119.7(8) . . ?
C37 C38 C39 118.6(8) . . ?
N1 C37 C38 122.5(8) . . ?
C39 C42 C48 111.2(7) . 4_575 ?
O5 C49 C50 104.8(9) . . ?
C51 C50 C49 103.3(10) . . ?
C50 C51 C52 104.2(9) . . ?
O5 C52 C51 107.1(9) . . ?
C56 C55 C54 102.2(9) . . ?
O6 C56 O6A 55.0(13) . . ?
O6 C56 C55 108.1(9) . . ?
O6A C56 C55 100.8(15) . . ?
O7 C57 C58 105.7(8) . . ?
C57 C58 C59 103.2(8) . . ?
C60 C59 C58 105.0(8) . . ?
O7 C60 C59 105.5(8) . . ?
C5 O1 Zn1 122.5(5) . . ?
C5 O1 Zn2 131.5(5) . . ?
Zn1 O1 Zn2 101.0(2) . . ?
C6 O2 C19 113.0(6) . . ?
C21 O3 Zn2 120.4(5) . . ?
C21 O3 Zn1 131.4(5) . . ?
Zn2 O3 Zn1 101.0(2) . . ?
C22 O4 C35 110.9(6) . . ?
C52 O5 C49 104.1(8) . . ?
C60 O7 C57 105.1(7) . . ?
C3 Zn2 O3 129.0(3) . . ?
C3 Zn2 N2 127.0(3) . . ?
O3 Zn2 N2 97.7(2) . . ?
C3 Zn2 O1 117.9(3) . . ?
O3 Zn2 O1 79.1(2) . . ?
N2 Zn2 O1 91.1(2) . . ?
C1 Zn1 O1 133.0(3) . . ?
C1 Zn1 N1 121.4(3) . . ?
O1 Zn1 N1 98.6(2) . . ?
C1 Zn1 O3 119.7(3) . . ?
O1 Zn1 O3 78.9(2) . . ?
N1 Zn1 O3 91.5(2) . . ?
C43 N2 C47 116.0(8) . . ?
C43 N2 Zn2 120.4(6) . . ?
C47 N2 Zn2 122.9(6) . . ?
C41 N1 C37 118.5(7) . . ?
C41 N1 Zn1 119.8(6) . . ?
C37 N1 Zn1 121.4(6) . . ?
C45 C48 C42 110.5(7) . 4_576 ?
C53 C54 C55 103.6(9) . . ?
O6A C53 O6 52.0(11) . . ?
O6A C53 C54 103.0(13) . . ?
O6 C53 C54 103.0(9) . . ?
C56 O6 C53 102.0(9) . . ?
C56 O6A C53 104.6(17) . . ?

_diffrn_measured_fraction_theta_max 0.998
_diffrn_reflns_theta_full        23.82
_diffrn_measured_fraction_theta_full 0.998
_refine_diff_density_max         0.836
_refine_diff_density_min         -0.657
_refine_diff_density_rms         0.131


