
#######################################################################
#
#                 Cambridge Crystallographic Data Centre
#                                CCDC
#
#######################################################################
#
# If this CIF has been generated from an entry in the Cambridge
# Structural Database, then it will include bibliographic, chemical,
# crystal, experimental, refinement or atomic coordinate data resulting
# from the CCDC's data processing and validation procedures.
#
#######################################################################

data_CSD_CIF_ICIPIT06
_audit_creation_date 2002-10-14
_audit_creation_method CSD-ConQuest-V1
_database_code_CSD ICIPIT06
_database_code_depnum_ccdc_archive 'CCDC 177479'
_chemical_formula_sum 'C24 H40 I2 Pt4 S16'
_chemical_formula_moiety
;
(C24 H40 I2 Pt4 S16)n
;
_journal_coden_Cambridge 179
_journal_volume 41
_journal_year 2002
_journal_page_first 2767
_journal_name_full 'Angew.Chem.,Int.Ed. '
loop_
_publ_author_name
"M.Mitsumi"
"K.Kitamura"
"A.Morinaga"
"Y.Ozawa"
"M.Kobayashi"
"K.Toriumi"
"Y.Iso"
"H.Kitagawa"
"T.Mitani"
_chemical_name_systematic
;
catena-(bis(\m~2~-iodo)-octakis(\m~2~-ethanedithiocarboxylato)-tetra-platinum)
;
_chemical_name_common
;
Teaching Subset: Fundamental Chemistry, Symmetry
;
_cell_volume   2215.831
_exptl_crystal_colour 'black'
_exptl_crystal_density_diffrn 2.811
_exptl_crystal_description 'plate'
_diffrn_ambient_temperature 48
_diffrn_radiation_probe x-ray
_diffrn_source synchrotron
#These two values have been output from a single CSD field.
_refine_ls_R_factor_gt 0.0537
_refine_ls_wR_factor_gt 0.0537
_symmetry_cell_setting triclinic
_symmetry_space_group_name_H-M 'P -1'
_symmetry_Int_Tables_number 2
loop_
_symmetry_equiv_pos_site_id
_symmetry_equiv_pos_as_xyz
1 x,y,z
2 -x,-y,-z
_cell_length_a 9.652(1)
_cell_length_b 15.481(1)
_cell_length_c 15.685(1)
_cell_angle_alpha 98.972(2)
_cell_angle_beta 103.516(2)
_cell_angle_gamma 97.610(3)
_cell_formula_units_Z 2
loop_
_atom_type_symbol
_atom_type_radius_bond
C 0.68
H 0.23
I 1.40
Pt 1.50
S 1.02
loop_
_atom_site_label
_atom_site_type_symbol
_atom_site_fract_x
_atom_site_fract_y
_atom_site_fract_z
Pt1 Pt 0.715302(18) 0.465921(11) 0.249965(11)
Pt2 Pt 0.559042(17) 0.309798(11) 0.249614(11)
Pt3 Pt 0.217913(17) -0.032665(11) 0.250013(11)
Pt4 Pt 1.061940(18) 0.811190(11) 0.250320(11)
I1 I 0.88831(3) 0.638375(18) 0.25033(2)
I2 I 0.38855(3) 0.138483(17) 0.249621(19)
S1 S 0.80963(11) 0.40353(7) 0.13591(7)
S2 S 0.52569(11) 0.50294(7) 0.14938(7)
S3 S 0.63139(11) 0.53869(7) 0.36403(7)
S4 S 0.91562(11) 0.43944(7) 0.35052(7)
S5 S 0.70884(11) 0.22994(7) 0.18597(7)
S6 S 0.41272(11) 0.30608(7) 0.10777(7)
S7 S 0.39618(11) 0.37640(7) 0.31322(7)
S8 S 0.69684(11) 0.30534(7) 0.39154(7)
S9 S 1.31183(11) 0.90488(7) 0.13553(7)
S10 S 1.02771(10) 1.00456(7) 0.14997(7)
S11 S 1.13508(11) 1.04056(7) 0.36446(7)
S12 S 1.41923(10) 0.94129(7) 0.35008(7)
S13 S 1.21144(11) 0.73161(7) 0.18632(7)
S14 S 0.91514(11) 0.80752(7) 0.10885(7)
S15 S 0.89993(11) 0.87829(7) 0.31424(7)
S16 S 1.20107(11) 0.80740(7) 0.39176(7)
C1 C 0.8035(4) 0.2954(3) 0.1360(3)
C2 C 0.9009(5) 0.2496(3) 0.0881(3)
C3 C 1.0454(5) 0.2491(3) 0.1556(3)
C4 C 0.4122(4) 0.4106(3) 0.0906(3)
C5 C 0.2926(5) 0.4231(3) 0.0149(3)
C6 C 0.1641(6) 0.4482(5) 0.0470(4)
C7 C 0.4713(5) 0.4811(3) 0.3632(3)
C8 C 0.3784(5) 0.5307(3) 0.4115(3)
C9 C 0.2716(5) 0.5688(3) 0.3441(3)
C10 C 0.8627(5) 0.3654(3) 0.4091(3)
C11 C 0.9778(5) 0.3496(3) 0.4845(3)
C12 C 1.0683(6) 0.2847(4) 0.4517(4)
C13 C 1.3064(4) 0.7966(3) 0.1362(3)
C14 C 1.4034(5) 0.7507(3) 0.0884(3)
C15 C 1.5469(5) 0.7494(3) 0.1563(3)
C16 C 0.9147(4) 0.9122(3) 0.0915(3)
C17 C 0.7931(5) 0.9244(3) 0.0163(3)
C18 C 0.6656(6) 0.9500(4) 0.0495(4)
C19 C 0.9750(4) 0.9832(3) 0.3644(3)
C20 C 0.8813(5) 1.0331(3) 0.4120(3)
C21 C 0.7739(5) 1.0703(3) 0.3451(3)
C22 C 1.3671(5) 0.8675(3) 0.4085(3)
C23 C 1.4831(5) 0.8510(3) 0.4838(3)
C24 C 1.5657(6) 0.7814(4) 0.4514(4)
H1 H 0.91990 0.28070 0.04330
H2 H 0.85540 0.19040 0.06160
H3 H 1.09260 0.30840 0.18200
H4 H 1.10660 0.21980 0.12560
H5 H 1.02760 0.21840 0.20100
H6 H 0.32920 0.46860 -0.01230
H7 H 0.26200 0.36890 -0.02800
H8 H 0.19330 0.50220 0.08990
H9 H 0.09030 0.45560 -0.00220
H10 H 0.12590 0.40250 0.07390
H11 H 0.43850 0.57810 0.45620
H12 H 0.32610 0.49160 0.43820
H13 H 0.32400 0.60850 0.31730
H14 H 0.21310 0.60010 0.37430
H15 H 0.21180 0.52180 0.29900
H16 H 1.03990 0.40470 0.51340
H17 H 0.93360 0.32640 0.52640
H18 H 1.11380 0.30710 0.41030
H19 H 1.14060 0.27560 0.50100
H20 H 1.00750 0.22880 0.42330
H21 H 1.42280 0.78220 0.04380
H22 H 1.35690 0.69170 0.06120
H23 H 1.59380 0.80850 0.18340
H24 H 1.60840 0.72070 0.12610
H25 H 1.52800 0.71790 0.20070
H26 H 0.82830 0.97020 -0.01120
H27 H 0.76140 0.87050 -0.02630
H28 H 0.69510 1.00440 0.09170
H29 H 0.59060 0.95670 0.00060
H30 H 0.62870 0.90470 0.07730
H31 H 0.94100 1.08060 0.45640
H32 H 0.82930 0.99380 0.43900
H33 H 0.82560 1.11030 0.31830
H34 H 0.71500 1.10110 0.37540
H35 H 0.71440 1.02310 0.30010
H36 H 1.54890 0.90490 0.51040
H37 H 1.43930 0.83090 0.52730
H38 H 1.61010 0.80060 0.40760
H39 H 1.63910 0.77300 0.50020
H40 H 1.50160 0.72670 0.42560
Pt4* Pt 0.061940(18) -0.188810(11) 0.250320(11)
S9* S 0.31183(11) -0.09512(7) 0.13553(7)
S10* S 0.02771(10) 0.00456(7) 0.14997(7)
S11* S 0.13508(11) 0.04056(7) 0.36446(7)
S12* S 0.41923(10) -0.05871(7) 0.35008(7)
Pt3* Pt 1.217913(17) 0.967335(11) 0.250013(11)
#END
