####################################################################### 
# 
# This file contains crystal structure data downloaded from the 
# Cambridge Structural Database (CSD) hosted by the Cambridge 
# Crystallographic Data Centre (CCDC).
# 
# Full information about CCDC data access policies and citation 
# guidelines are available at http://www.ccdc.cam.ac.uk/access/V1 
# 
# Audit and citation data items may have been added by the CCDC. 
# Please retain this information to preserve the provenance of 
# this file and to allow appropriate attribution of the data. 
# 
#######################################################################

data_www
_audit_block_doi                 10.5517/ccwtjmt
_database_code_depnum_ccdc_archive 'CCDC 828897'
loop_
_citation_id
_citation_doi
_citation_year
1 10.1002/adma.201102538 2011
2 10.1002/chem.201203080 2013
_audit_update_record             
;
2011-06-07 deposited with the CCDC.	2024-07-10 downloaded from the CCDC.
;
#TrackingRef '1.cif'


_audit_creation_method           SHELXL-97
_chemical_name_systematic        
;
?
;
_chemical_name_common            ?
_chemical_melting_point          ?
_chemical_formula_moiety         ?
_chemical_formula_sum            'C31 H47 N9 O12 Zn'
_chemical_formula_weight         803.15

loop_
_atom_type_symbol
_atom_type_description
_atom_type_scat_dispersion_real
_atom_type_scat_dispersion_imag
_atom_type_scat_source
C C 0.0033 0.0016 'International Tables Vol C Tables 4.2.6.8 and 6.1.1.4'
H H 0.0000 0.0000 'International Tables Vol C Tables 4.2.6.8 and 6.1.1.4'
N N 0.0061 0.0033 'International Tables Vol C Tables 4.2.6.8 and 6.1.1.4'
O O 0.0106 0.0060 'International Tables Vol C Tables 4.2.6.8 and 6.1.1.4'
Zn Zn 0.2839 1.4301 'International Tables Vol C Tables 4.2.6.8 and 6.1.1.4'

_symmetry_cell_setting           cubic
_symmetry_space_group_name_H-M   I4132

loop_
_symmetry_equiv_pos_as_xyz
'x, y, z'
'-x+1/2, -y, z+1/2'
'-x, y+1/2, -z+1/2'
'x+1/2, -y+1/2, -z'
'z, x, y'
'z+1/2, -x+1/2, -y'
'-z+1/2, -x, y+1/2'
'-z, x+1/2, -y+1/2'
'y, z, x'
'-y, z+1/2, -x+1/2'
'y+1/2, -z+1/2, -x'
'-y+1/2, -z, x+1/2'
'y+3/4, x+1/4, -z+1/4'
'-y+3/4, -x+3/4, -z+3/4'
'y+1/4, -x+1/4, z+3/4'
'-y+1/4, x+3/4, z+1/4'
'x+3/4, z+1/4, -y+1/4'
'-x+1/4, z+3/4, y+1/4'
'-x+3/4, -z+3/4, -y+3/4'
'x+1/4, -z+1/4, y+3/4'
'z+3/4, y+1/4, -x+1/4'
'z+1/4, -y+1/4, x+3/4'
'-z+1/4, y+3/4, x+1/4'
'-z+3/4, -y+3/4, -x+3/4'
'x+1/2, y+1/2, z+1/2'
'-x+1, -y+1/2, z+1'
'-x+1/2, y+1, -z+1'
'x+1, -y+1, -z+1/2'
'z+1/2, x+1/2, y+1/2'
'z+1, -x+1, -y+1/2'
'-z+1, -x+1/2, y+1'
'-z+1/2, x+1, -y+1'
'y+1/2, z+1/2, x+1/2'
'-y+1/2, z+1, -x+1'
'y+1, -z+1, -x+1/2'
'-y+1, -z+1/2, x+1'
'y+5/4, x+3/4, -z+3/4'
'-y+5/4, -x+5/4, -z+5/4'
'y+3/4, -x+3/4, z+5/4'
'-y+3/4, x+5/4, z+3/4'
'x+5/4, z+3/4, -y+3/4'
'-x+3/4, z+5/4, y+3/4'
'-x+5/4, -z+5/4, -y+5/4'
'x+3/4, -z+3/4, y+5/4'
'z+5/4, y+3/4, -x+3/4'
'z+3/4, -y+3/4, x+5/4'
'-z+3/4, y+5/4, x+3/4'
'-z+5/4, -y+5/4, -x+5/4'

_cell_length_a                   35.9299(12)
_cell_length_b                   35.9299(12)
_cell_length_c                   35.9299(12)
_cell_angle_alpha                90.00
_cell_angle_beta                 90.00
_cell_angle_gamma                90.00
_cell_volume                     46384(3)
_cell_formula_units_Z            48
_cell_measurement_temperature    293(2)
_cell_measurement_reflns_used    3985
_cell_measurement_theta_min      1.52
_cell_measurement_theta_max      25.02

_exptl_crystal_description       block
_exptl_crystal_colour            colorless
_exptl_crystal_size_max          0.26
_exptl_crystal_size_mid          0.24
_exptl_crystal_size_min          0.24
_exptl_crystal_density_meas      ?
_exptl_crystal_density_diffrn    1.380
_exptl_crystal_density_method    'not measured'
_exptl_crystal_F_000             20256
_exptl_absorpt_coefficient_mu    0.705
_exptl_absorpt_correction_type   multi-scan
_exptl_absorpt_correction_T_min  0.849
_exptl_absorpt_correction_T_max  0.860
_exptl_absorpt_process_details   'SADABS (Sheldrick, 1996)'

_exptl_special_details           
;
?
;

_diffrn_ambient_temperature      293(2)
_diffrn_radiation_wavelength     0.71073
_diffrn_radiation_type           MoK\a
_diffrn_radiation_source         'fine-focus sealed tube'
_diffrn_radiation_monochromator  graphite
_diffrn_measurement_device_type  'Bruker APEX CCD area-detector'
_diffrn_measurement_method       'w scans'
_diffrn_detector_area_resol_mean ?
_diffrn_standards_number         ?
_diffrn_standards_interval_count ?
_diffrn_standards_interval_time  ?
_diffrn_standards_decay_%        ?
_diffrn_reflns_number            79485
_diffrn_reflns_av_R_equivalents  0.0824
_diffrn_reflns_av_sigmaI/netI    0.0283
_diffrn_reflns_limit_h_min       -35
_diffrn_reflns_limit_h_max       35
_diffrn_reflns_limit_k_min       -35
_diffrn_reflns_limit_k_max       35
_diffrn_reflns_limit_l_min       -35
_diffrn_reflns_limit_l_max       29
_diffrn_reflns_theta_min         1.39
_diffrn_reflns_theta_max         20.81
_reflns_number_total             4064
_reflns_number_gt                3632
_reflns_threshold_expression     >2sigma(I)

_computing_data_collection       'SMART (Bruker, 1997)'
_computing_cell_refinement       'SAINT (Bruker, 1999)'
_computing_data_reduction        SAINT
_computing_structure_solution    'SHELXS-97 (Sheldrick, 1997)'
_computing_structure_refinement  'SHELXL-97 (Sheldrick, 1997)'
_computing_molecular_graphics    'SHELXTL-PLUS (Sheldrick, 1990)'
_computing_publication_material  SHELXL-97

_refine_special_details          
;
Refinement of F^2^ against ALL reflections. The weighted R-factor wR and
goodness of fit S are based on F^2^, conventional R-factors R are based
on F, with F set to zero for negative F^2^. The threshold expression of
F^2^ > 2sigma(F^2^) is used only for calculating R-factors(gt) etc. and is
not relevant to the choice of reflections for refinement. R-factors based
on F^2^ are statistically about twice as large as those based on F, and R-
factors based on ALL data will be even larger.
;

_refine_ls_structure_factor_coef Fsqd
_refine_ls_matrix_type           full
_refine_ls_weighting_scheme      calc
_refine_ls_weighting_details     
'calc w=1/[\s^2^(Fo^2^)+(0.0734P)^2^+10.2451P] where P=(Fo^2^+2Fc^2^)/3'
_atom_sites_solution_primary     direct
_atom_sites_solution_secondary   difmap
_atom_sites_solution_hydrogens   geom
_refine_ls_hydrogen_treatment    mixed
_refine_ls_extinction_method     SHELXL
_refine_ls_extinction_coef       0.000007(5)
_refine_ls_extinction_expression Fc^*^=kFc[1+0.001xFc^2^\l^3^/sin(2\q)]^-1/4^
_refine_ls_abs_structure_details 'Flack H D (1983), Acta Cryst. A39, 876-881'
_refine_ls_abs_structure_Flack   0.077(17)
_refine_ls_number_reflns         4064
_refine_ls_number_parameters     286
_refine_ls_number_restraints     0
_refine_ls_R_factor_all          0.0475
_refine_ls_R_factor_gt           0.0412
_refine_ls_wR_factor_ref         0.1103
_refine_ls_wR_factor_gt          0.1077
_refine_ls_goodness_of_fit_ref   1.046
_refine_ls_restrained_S_all      1.046
_refine_ls_shift/su_max          0.003
_refine_ls_shift/su_mean         0.000

loop_
_atom_site_label
_atom_site_type_symbol
_atom_site_fract_x
_atom_site_fract_y
_atom_site_fract_z
_atom_site_U_iso_or_equiv
_atom_site_adp_type
_atom_site_occupancy
_atom_site_symmetry_multiplicity
_atom_site_calc_flag
_atom_site_refinement_flags
_atom_site_disorder_assembly
_atom_site_disorder_group
Zn1 Zn 0.7500 1.10961(2) 0.0000 0.0417(2) Uani 1 2 d S . .
Zn2 Zn 0.6250 1.125640(17) 0.124360(17) 0.0631(3) Uani 1 2 d S . .
C2 C 0.87879(14) 0.99987(12) 0.01244(13) 0.0489(13) Uani 1 1 d . . .
O3 O 0.61913(9) 1.17948(11) 0.12752(12) 0.0764(11) Uani 1 1 d . . .
O1 O 0.72529(9) 1.13553(8) 0.04133(8) 0.0488(9) Uani 1 1 d . . .
N1 N 0.77181(11) 1.21726(12) 0.17797(11) 0.0577(12) Uani 1 1 d . . .
H1 H 0.7924 1.2050 0.1771 0.069 Uiso 1 1 calc R . .
N4 N 0.95355(10) 0.99595(12) -0.05452(11) 0.0497(10) Uani 1 1 d . . .
N2 N 0.79761(10) 1.24306(10) 0.23095(10) 0.0438(10) Uani 1 1 d . . .
C8 C 0.82214(14) 0.99685(14) 0.06514(13) 0.0554(13) Uani 1 1 d . . .
H8 H 0.8033 0.9957 0.0828 0.067 Uiso 1 1 calc R . .
N3 N 0.90563(11) 1.00314(11) -0.01460(10) 0.0525(11) Uani 1 1 d . . .
H3 H 0.9029 1.0226 -0.0283 0.063 Uiso 1 1 calc R . .
C10 C 0.79023(12) 1.05229(13) 0.03324(14) 0.0451(12) Uani 1 1 d . . .
C11 C 0.77039(12) 1.24365(12) 0.20443(13) 0.0397(11) Uani 1 1 d . . .
O6 O 0.76410(12) 1.05103(11) 0.05529(12) 0.0897(13) Uani 1 1 d . . .
C14 C 0.87797(13) 0.97265(13) 0.04004(13) 0.0497(13) Uani 1 1 d . . .
H14 H 0.8965 0.9546 0.0409 0.060 Uiso 1 1 calc R . .
C15 C 0.70831(13) 1.21092(14) 0.15614(12) 0.0503(13) Uani 1 1 d . . .
H15 H 0.6996 1.2232 0.1772 0.060 Uiso 1 1 calc R . .
O2 O 0.78069(11) 1.15939(12) 0.05063(11) 0.0897(14) Uani 1 1 d . . .
C17 C 0.74597(14) 1.20670(12) 0.15220(12) 0.0435(12) Uani 1 1 d . . .
C18 C 0.84941(14) 0.97242(13) 0.06651(13) 0.0476(13) Uani 1 1 d . . .
C19 C 0.75805(13) 1.18943(12) 0.11989(14) 0.0511(13) Uani 1 1 d . . .
H19 H 0.7835 1.1874 0.1156 0.061 Uiso 1 1 calc R . .
C20 C 0.85018(14) 1.02464(14) 0.01228(13) 0.0566(14) Uani 1 1 d . . .
H20 H 0.8502 1.0429 -0.0061 0.068 Uiso 1 1 calc R . .
C21 C 0.68322(12) 1.19839(14) 0.13153(14) 0.0532(14) Uani 1 1 d . . .
C23 C 0.69711(16) 1.17779(14) 0.10076(14) 0.0577(15) Uani 1 1 d . . .
H23 H 0.6803 1.1659 0.0851 0.069 Uiso 1 1 calc R . .
C24 C 0.73354(13) 1.17496(13) 0.09355(13) 0.0424(12) Uani 1 1 d . . .
C25 C 0.93520(13) 0.98237(15) -0.02416(14) 0.0512(14) Uani 1 1 d . . .
C26 C 0.74794(15) 1.15575(14) 0.06106(13) 0.0475(12) Uani 1 1 d . . .
O4 O 0.63335(12) 1.2370(2) 0.1490(2) 0.177(3) Uani 1 1 d . . .
C28 C 0.82077(13) 1.02464(13) 0.03772(13) 0.0504(13) Uani 1 1 d . . .
O5 O 0.79300(8) 1.07650(9) 0.00834(9) 0.0522(9) Uani 1 1 d . . .
C32 C 0.64163(17) 1.2022(2) 0.13771(17) 0.092(2) Uani 1 1 d . . .
O7 O 0.86787(11) 0.91293(10) 0.08906(11) 0.0755(11) Uani 1 1 d . . .
O8 O 0.83328(12) 0.94804(12) 0.12518(12) 0.0878(13) Uani 1 1 d . . .
C34A C 0.84990(17) 0.94210(17) 0.09714(17) 0.0633(15) Uani 1 1 d . . .
O99W O 0.82867(7) 0.94340(7) 0.18864(7) 0.0360(7) Uiso 1 1 d . . .

loop_
_atom_site_aniso_label
_atom_site_aniso_U_11
_atom_site_aniso_U_22
_atom_site_aniso_U_33
_atom_site_aniso_U_23
_atom_site_aniso_U_13
_atom_site_aniso_U_12
Zn1 0.0424(5) 0.0414(5) 0.0414(5) 0.000 0.0106(4) 0.000
Zn2 0.0371(5) 0.0760(4) 0.0760(4) 0.0086(5) -0.0074(3) -0.0074(3)
C2 0.061(3) 0.031(3) 0.055(3) 0.009(3) 0.013(3) 0.019(3)
O3 0.042(2) 0.077(3) 0.110(3) -0.007(2) -0.028(2) -0.014(2)
O1 0.059(2) 0.052(2) 0.0354(19) -0.0112(16) 0.0029(16) -0.0004(17)
N1 0.047(3) 0.071(3) 0.055(3) -0.030(2) -0.022(2) 0.028(2)
N4 0.041(2) 0.058(3) 0.050(3) 0.015(2) 0.014(2) 0.016(2)
N2 0.039(2) 0.042(3) 0.050(3) -0.007(2) -0.008(2) 0.0022(18)
C8 0.054(3) 0.063(3) 0.050(3) 0.023(3) 0.027(2) -0.008(3)
N3 0.041(2) 0.054(3) 0.063(3) 0.023(2) 0.019(2) 0.014(2)
C10 0.033(3) 0.050(3) 0.052(3) 0.005(3) 0.025(3) 0.005(2)
C11 0.041(3) 0.028(3) 0.050(3) -0.003(2) -0.002(3) 0.007(3)
O6 0.107(3) 0.076(3) 0.085(3) 0.032(2) 0.036(3) 0.044(2)
C14 0.045(3) 0.052(3) 0.052(3) 0.017(3) 0.005(3) 0.013(2)
C15 0.043(3) 0.076(4) 0.032(3) -0.022(3) 0.013(2) -0.003(3)
O2 0.054(3) 0.126(4) 0.089(3) -0.054(3) 0.029(2) -0.024(2)
C17 0.047(3) 0.045(3) 0.039(3) -0.013(2) -0.001(3) 0.019(2)
C18 0.045(3) 0.047(3) 0.051(3) 0.008(3) 0.003(3) 0.011(3)
C19 0.038(3) 0.047(3) 0.069(4) -0.015(3) 0.004(3) -0.001(2)
C20 0.069(4) 0.058(3) 0.043(3) 0.019(2) 0.013(3) 0.005(3)
C21 0.028(3) 0.075(4) 0.057(3) -0.025(3) 0.011(3) -0.017(2)
C23 0.069(4) 0.055(3) 0.048(3) -0.020(3) -0.003(3) -0.025(3)
C24 0.033(3) 0.045(3) 0.049(3) -0.001(2) 0.000(3) 0.009(2)
C25 0.040(3) 0.072(4) 0.042(3) 0.014(3) -0.004(3) 0.005(3)
C26 0.037(3) 0.063(3) 0.042(3) -0.003(3) 0.001(3) 0.015(3)
O4 0.056(3) 0.213(7) 0.260(7) -0.139(6) 0.013(4) -0.005(3)
C28 0.048(3) 0.052(3) 0.051(3) 0.003(3) 0.013(3) -0.004(3)
O5 0.044(2) 0.055(2) 0.057(2) 0.0130(19) 0.0115(17) 0.0052(16)
C32 0.051(4) 0.142(6) 0.084(5) -0.079(4) 0.000(3) 0.034(4)
O7 0.100(3) 0.040(2) 0.087(3) 0.030(2) 0.016(2) 0.014(2)
O8 0.116(3) 0.104(3) 0.043(2) 0.007(2) 0.021(3) 0.022(3)
C34A 0.075(4) 0.058(4) 0.057(4) 0.028(3) -0.009(3) -0.011(3)

_geom_special_details            
;
All esds (except the esd in the dihedral angle between two l.s. planes)
are estimated using the full covariance matrix. The cell esds are taken
into account individually in the estimation of esds in distances, angles
and torsion angles; correlations between esds in cell parameters are only
used when they are defined by crystal symmetry. An approximate (isotropic)
treatment of cell esds is used for estimating esds involving l.s. planes.
;

loop_
_geom_bond_atom_site_label_1
_geom_bond_atom_site_label_2
_geom_bond_distance
_geom_bond_site_symmetry_2
_geom_bond_publ_flag
Zn1 O1 1.965(3) . ?
Zn1 O1 1.965(3) 27_644 ?
Zn1 O5 1.973(3) 27_644 ?
Zn1 O5 1.973(3) . ?
Zn2 O7 1.914(3) 13_455 ?
Zn2 O7 1.914(3) 34_655 ?
Zn2 O3 1.949(4) . ?
Zn2 O3 1.949(4) 43 ?
C2 C20 1.360(6) . ?
C2 N3 1.374(5) . ?
C2 C14 1.393(6) . ?
O3 C32 1.206(7) . ?
O1 C26 1.301(6) . ?
N1 C11 1.343(5) . ?
N1 C17 1.365(6) . ?
N4 C25 1.315(6) 9_564 ?
N4 C25 1.365(6) . ?
N2 C11 1.343(5) 8_656 ?
N2 C11 1.366(5) . ?
C8 C18 1.316(6) . ?
C8 C28 1.404(6) . ?
N3 C25 1.343(6) . ?
C10 O6 1.229(5) . ?
C10 O5 1.252(5) . ?
C10 C28 1.489(7) . ?
C11 N2 1.343(5) 11_466 ?
C14 C18 1.399(6) . ?
C15 C21 1.341(6) . ?
C15 C17 1.369(6) . ?
O2 C26 1.242(6) . ?
C17 C19 1.386(6) . ?
C18 C34A 1.549(7) . ?
C19 C24 1.393(6) . ?
C20 C28 1.397(7) . ?
C21 C23 1.421(7) . ?
C21 C32 1.517(7) . ?
C23 C24 1.338(6) . ?
C24 C26 1.451(6) . ?
C25 N4 1.315(6) 5_654 ?
O4 C32 1.347(8) . ?
O7 C34A 1.264(7) . ?
O7 Zn2 1.914(3) 31_563 ?
O8 C34A 1.190(7) . ?

loop_
_geom_angle_atom_site_label_1
_geom_angle_atom_site_label_2
_geom_angle_atom_site_label_3
_geom_angle
_geom_angle_site_symmetry_1
_geom_angle_site_symmetry_3
_geom_angle_publ_flag
O1 Zn1 O1 123.41(18) . 27_644 ?
O1 Zn1 O5 92.68(14) . 27_644 ?
O1 Zn1 O5 121.66(13) 27_644 27_644 ?
O1 Zn1 O5 121.66(13) . . ?
O1 Zn1 O5 92.68(14) 27_644 . ?
O5 Zn1 O5 105.82(19) 27_644 . ?
O7 Zn2 O7 107.9(2) 13_455 34_655 ?
O7 Zn2 O3 100.48(17) 13_455 . ?
O7 Zn2 O3 126.57(16) 34_655 . ?
O7 Zn2 O3 126.57(16) 13_455 43 ?
O7 Zn2 O3 100.48(17) 34_655 43 ?
O3 Zn2 O3 97.3(3) . 43 ?
C20 C2 N3 118.1(4) . . ?
C20 C2 C14 116.5(4) . . ?
N3 C2 C14 125.3(4) . . ?
C32 O3 Zn2 128.1(4) . . ?
C26 O1 Zn1 113.2(3) . . ?
C11 N1 C17 130.5(4) . . ?
C25 N4 C25 114.1(5) 9_564 . ?
C11 N2 C11 115.1(4) 8_656 . ?
C18 C8 C28 121.8(4) . . ?
C25 N3 C2 133.5(4) . . ?
O6 C10 O5 123.1(4) . . ?
O6 C10 C28 117.9(5) . . ?
O5 C10 C28 118.9(4) . . ?
N2 C11 N1 118.0(4) 11_466 . ?
N2 C11 N2 124.9(4) 11_466 . ?
N1 C11 N2 117.1(4) . . ?
C2 C14 C18 120.2(4) . . ?
C21 C15 C17 124.0(4) . . ?
N1 C17 C15 124.9(4) . . ?
N1 C17 C19 118.7(4) . . ?
C15 C17 C19 116.5(4) . . ?
C8 C18 C14 121.1(4) . . ?
C8 C18 C34A 120.3(5) . . ?
C14 C18 C34A 118.6(5) . . ?
C17 C19 C24 122.6(4) . . ?
C2 C20 C28 124.7(5) . . ?
C15 C21 C23 116.9(4) . . ?
C15 C21 C32 122.4(4) . . ?
C23 C21 C32 120.5(4) . . ?
C24 C23 C21 122.3(4) . . ?
C23 C24 C19 117.3(4) . . ?
C23 C24 C26 122.7(5) . . ?
C19 C24 C26 119.9(4) . . ?
N4 C25 N3 121.3(5) 5_654 . ?
N4 C25 N4 125.8(5) 5_654 . ?
N3 C25 N4 112.8(5) . . ?
O2 C26 O1 119.2(4) . . ?
O2 C26 C24 122.0(5) . . ?
O1 C26 C24 118.7(4) . . ?
C20 C28 C8 115.6(5) . . ?
C20 C28 C10 119.1(4) . . ?
C8 C28 C10 125.2(4) . . ?
C10 O5 Zn1 117.7(3) . . ?
O3 C32 O4 124.8(5) . . ?
O3 C32 C21 123.7(5) . . ?
O4 C32 C21 110.2(6) . . ?
C34A O7 Zn2 120.5(4) . 31_563 ?
O8 C34A O7 126.8(5) . . ?
O8 C34A C18 118.0(6) . . ?
O7 C34A C18 115.2(6) . . ?

_diffrn_measured_fraction_theta_max 0.999
_diffrn_reflns_theta_full        20.81
_diffrn_measured_fraction_theta_full 0.999
_refine_diff_density_max         0.368
_refine_diff_density_min         -0.347
_refine_diff_density_rms         0.039
