####################################################################### 
# 
# This file contains crystal structure data downloaded from the 
# Cambridge Structural Database (CSD) hosted by the Cambridge 
# Crystallographic Data Centre (CCDC).
# 
# Full information about CCDC data access policies and citation 
# guidelines are available at http://www.ccdc.cam.ac.uk/access/V1 
# 
# Audit and citation data items may have been added by the CCDC. 
# Please retain this information to preserve the provenance of 
# this file and to allow appropriate attribution of the data. 
# 
#######################################################################

data_mm
_audit_block_doi                 10.5517/ccwtjnv
_database_code_depnum_ccdc_archive 'CCDC 828898'
loop_
_citation_id
_citation_doi
_citation_year
1 10.1002/adma.201102538 2011
_audit_update_record             
;
2011-06-07 deposited with the CCDC.	2024-07-10 downloaded from the CCDC.
;
#TrackingRef '2.cif'


_audit_creation_method           SHELXL-97
_chemical_name_systematic        
;
?
;
_chemical_name_common            ?
_chemical_melting_point          ?
_chemical_formula_moiety         ?
_chemical_formula_sum            'C31 H47 N9 O12 Zn'
_chemical_formula_weight         803.15

loop_
_atom_type_symbol
_atom_type_description
_atom_type_scat_dispersion_real
_atom_type_scat_dispersion_imag
_atom_type_scat_source
C C 0.0033 0.0016 'International Tables Vol C Tables 4.2.6.8 and 6.1.1.4'
H H 0.0000 0.0000 'International Tables Vol C Tables 4.2.6.8 and 6.1.1.4'
N N 0.0061 0.0033 'International Tables Vol C Tables 4.2.6.8 and 6.1.1.4'
O O 0.0106 0.0060 'International Tables Vol C Tables 4.2.6.8 and 6.1.1.4'
Zn Zn 0.2839 1.4301 'International Tables Vol C Tables 4.2.6.8 and 6.1.1.4'

_symmetry_cell_setting           cubic
_symmetry_space_group_name_H-M   I4132

loop_
_symmetry_equiv_pos_as_xyz
'x, y, z'
'-x, -y+1/2, z'
'x, -y, -z+1/2'
'-x+1/2, y, -z'
'z, x, y'
'y, z, x'
'-z, -x+1/2, y'
'-y+1/2, z, -x'
'z, -x, -y+1/2'
'-y, -z+1/2, x'
'-z+1/2, x, -y'
'y, -z, -x+1/2'
'-y+1/4, -x+1/4, -z+1/4'
'y+3/4, x+1/4, -z+1/4'
'y+1/4, -x+1/4, z+3/4'
'-y+1/4, x+3/4, z+1/4'
'-x+1/4, -z+1/4, -y+1/4'
'-z+1/4, -y+1/4, -x+1/4'
'x+3/4, z+1/4, -y+1/4'
'-z+1/4, y+3/4, x+1/4'
'x+1/4, -z+1/4, y+3/4'
'z+3/4, y+1/4, -x+1/4'
'-x+1/4, z+3/4, y+1/4'
'z+1/4, -y+1/4, x+3/4'
'x+1/2, y+1/2, z+1/2'
'-x+1/2, -y+1, z+1/2'
'x+1/2, -y+1/2, -z+1'
'-x+1, y+1/2, -z+1/2'
'z+1/2, x+1/2, y+1/2'
'y+1/2, z+1/2, x+1/2'
'-z+1/2, -x+1, y+1/2'
'-y+1, z+1/2, -x+1/2'
'z+1/2, -x+1/2, -y+1'
'-y+1/2, -z+1, x+1/2'
'-z+1, x+1/2, -y+1/2'
'y+1/2, -z+1/2, -x+1'
'-y+3/4, -x+3/4, -z+3/4'
'y+5/4, x+3/4, -z+3/4'
'y+3/4, -x+3/4, z+5/4'
'-y+3/4, x+5/4, z+3/4'
'-x+3/4, -z+3/4, -y+3/4'
'-z+3/4, -y+3/4, -x+3/4'
'x+5/4, z+3/4, -y+3/4'
'-z+3/4, y+5/4, x+3/4'
'x+3/4, -z+3/4, y+5/4'
'z+5/4, y+3/4, -x+3/4'
'-x+3/4, z+5/4, y+3/4'
'z+3/4, -y+3/4, x+5/4'

_cell_length_a                   36.044(5)
_cell_length_b                   36.044(5)
_cell_length_c                   36.044(5)
_cell_angle_alpha                90.000(5)
_cell_angle_beta                 90.000(5)
_cell_angle_gamma                90.000(5)
_cell_volume                     46827(11)
_cell_formula_units_Z            48
_cell_measurement_temperature    293(2)
_cell_measurement_reflns_used    3985
_cell_measurement_theta_min      1.52
_cell_measurement_theta_max      25.02

_exptl_crystal_description       block
_exptl_crystal_colour            colorless
_exptl_crystal_size_max          0.26
_exptl_crystal_size_mid          0.24
_exptl_crystal_size_min          0.24
_exptl_crystal_density_meas      ?
_exptl_crystal_density_diffrn    1.367
_exptl_crystal_density_method    'not measured'
_exptl_crystal_F_000             20256
_exptl_absorpt_coefficient_mu    0.698
_exptl_absorpt_correction_type   multi-scan
_exptl_absorpt_correction_T_min  0.849
_exptl_absorpt_correction_T_max  0.860
_exptl_absorpt_process_details   'SADABS (Sheldrick, 1996)'

_exptl_special_details           
;
?
;

_diffrn_ambient_temperature      293(2)
_diffrn_radiation_wavelength     0.71069
_diffrn_radiation_type           MoK\a
_diffrn_radiation_source         'fine-focus sealed tube'
_diffrn_radiation_monochromator  graphite
_diffrn_measurement_device_type  'Bruker APEX CCD area-detector'
_diffrn_measurement_method       'w scans'
_diffrn_detector_area_resol_mean ?
_diffrn_standards_number         ?
_diffrn_standards_interval_count ?
_diffrn_standards_interval_time  ?
_diffrn_standards_decay_%        ?
_diffrn_reflns_number            91116
_diffrn_reflns_av_R_equivalents  0.1035
_diffrn_reflns_av_sigmaI/netI    0.0384
_diffrn_reflns_limit_h_min       -35
_diffrn_reflns_limit_h_max       37
_diffrn_reflns_limit_k_min       -37
_diffrn_reflns_limit_k_max       37
_diffrn_reflns_limit_l_min       -37
_diffrn_reflns_limit_l_max       35
_diffrn_reflns_theta_min         1.38
_diffrn_reflns_theta_max         21.99
_reflns_number_total             4794
_reflns_number_gt                3985
_reflns_threshold_expression     >2sigma(I)

_computing_data_collection       'SMART (Bruker, 1997)'
_computing_cell_refinement       'SAINT (Bruker, 1999)'
_computing_data_reduction        SAINT
_computing_structure_solution    'SHELXS-97 (Sheldrick, 1997)'
_computing_structure_refinement  'SHELXL-97 (Sheldrick, 1997)'
_computing_molecular_graphics    'SHELXTL-PLUS (Sheldrick, 1990)'
_computing_publication_material  SHELXL-97

_refine_special_details          
;
Refinement of F^2^ against ALL reflections. The weighted R-factor wR and
goodness of fit S are based on F^2^, conventional R-factors R are based
on F, with F set to zero for negative F^2^. The threshold expression of
F^2^ > 2sigma(F^2^) is used only for calculating R-factors(gt) etc. and is
not relevant to the choice of reflections for refinement. R-factors based
on F^2^ are statistically about twice as large as those based on F, and R-
factors based on ALL data will be even larger.
;

_refine_ls_structure_factor_coef Fsqd
_refine_ls_matrix_type           full
_refine_ls_weighting_scheme      calc
_refine_ls_weighting_details     
'calc w=1/[\s^2^(Fo^2^)+(0.1272P)^2^+0.0000P] where P=(Fo^2^+2Fc^2^)/3'
_atom_sites_solution_primary     direct
_atom_sites_solution_secondary   difmap
_atom_sites_solution_hydrogens   geom
_refine_ls_hydrogen_treatment    mixed
_refine_ls_extinction_method     none
_refine_ls_extinction_coef       ?
_refine_ls_abs_structure_details 'Flack H D (1983), Acta Cryst. A39, 876-881'
_refine_ls_abs_structure_Flack   0.07(2)
_refine_ls_number_reflns         4794
_refine_ls_number_parameters     285
_refine_ls_number_restraints     0
_refine_ls_R_factor_all          0.0687
_refine_ls_R_factor_gt           0.0604
_refine_ls_wR_factor_ref         0.1795
_refine_ls_wR_factor_gt          0.1743
_refine_ls_goodness_of_fit_ref   1.061
_refine_ls_restrained_S_all      1.061
_refine_ls_shift/su_max          0.001
_refine_ls_shift/su_mean         0.000

loop_
_atom_site_label
_atom_site_type_symbol
_atom_site_fract_x
_atom_site_fract_y
_atom_site_fract_z
_atom_site_U_iso_or_equiv
_atom_site_adp_type
_atom_site_occupancy
_atom_site_symmetry_multiplicity
_atom_site_calc_flag
_atom_site_refinement_flags
_atom_site_disorder_assembly
_atom_site_disorder_group
Zn1 Zn 0.60928(3) 1.0000 0.7500 0.0418(3) Uani 1 2 d S . .
Zn2 Zn 0.62631(2) 1.12369(2) 0.8750 0.0599(4) Uani 1 2 d S . .
O1 O 0.63533(11) 1.04181(11) 0.77492(12) 0.0468(11) Uani 1 1 d . . .
N2 N 0.74303(14) 1.23053(14) 0.70268(14) 0.0469(13) Uani 1 1 d . . .
C2 C 0.67462(17) 1.09423(16) 0.76717(16) 0.0398(15) Uani 1 1 d . . .
C13 C 0.74365(16) 1.20448(16) 0.72942(16) 0.0398(15) Uani 1 1 d . . .
O3 O 0.68036(14) 1.12747(15) 0.88139(12) 0.0719(15) Uani 1 1 d . . .
N6 N 0.45377(14) 0.99590(15) 0.55462(15) 0.0503(14) Uani 1 1 d . . .
O9 O 0.57700(12) 1.00922(12) 0.70699(11) 0.0485(11) Uani 1 1 d . . .
C19 C 0.48231(18) 0.97604(17) 0.56473(17) 0.0467(16) Uani 1 1 d . . .
C15 C 0.52456(18) 1.03802(18) 0.67907(17) 0.0487(17) Uani 1 1 d . . .
C10 C 0.59966(18) 1.18369(18) 0.77823(18) 0.0485(17) Uani 1 1 d . . .
N1 N 0.71669(16) 1.17867(14) 0.72818(14) 0.0562(16) Uani 1 1 d . . .
H1 H 0.7041 1.1783 0.7079 0.067 Uiso 1 1 calc R . .
C18 C 0.49931(17) 1.01261(17) 0.62181(17) 0.0486(16) Uani 1 1 d . . .
O10 O 0.55058(16) 1.05526(16) 0.73673(15) 0.0906(19) Uani 1 1 d . . .
O4 O 0.61791(15) 1.16093(14) 0.83739(14) 0.0694(14) Uani 1 1 d . . .
O2 O 0.65886(17) 1.05193(15) 0.71823(14) 0.090(2) Uani 1 1 d . . .
C12 C 0.62751(19) 1.21020(18) 0.77870(18) 0.0522(17) Uani 1 1 d . . .
H12 H 0.6455 1.2100 0.7972 0.063 Uiso 1 1 calc R . .
C16 C 0.52564(18) 1.01187(18) 0.64980(18) 0.0522(17) Uani 1 1 d . . .
H16 H 0.5442 0.9940 0.6494 0.063 Uiso 1 1 calc R . .
C5 C 0.71134(19) 1.15657(19) 0.79193(18) 0.0543(18) Uani 1 1 d . . .
H5 H 0.7239 1.1773 0.8009 0.065 Uiso 1 1 calc R . .
C4 C 0.69849(19) 1.13046(19) 0.81653(17) 0.0535(19) Uani 1 1 d . . .
O5 O 0.58369(17) 1.12539(16) 0.80212(16) 0.0851(17) Uani 1 1 d . . .
N7 N 0.50304(15) 0.98533(14) 0.59410(14) 0.0542(15) Uani 1 1 d . . .
H7 H 0.5226 0.9719 0.5965 0.065 Uiso 1 1 calc R . .
C1 C 0.65528(17) 1.06160(18) 0.75228(18) 0.0456(16) Uani 1 1 d . . .
C7 C 0.68902(16) 1.11973(18) 0.74192(17) 0.0485(17) Uani 1 1 d . . .
H7A H 0.6873 1.1149 0.7166 0.058 Uiso 1 1 calc R . .
C3 C 0.67909(17) 1.10035(17) 0.80353(18) 0.0474(17) Uani 1 1 d . . .
H3 H 0.6688 1.0838 0.8204 0.057 Uiso 1 1 calc R . .
C6 C 0.70609(16) 1.15273(17) 0.75419(18) 0.0448(16) Uani 1 1 d . . .
C11 C 0.57174(18) 1.18461(18) 0.75233(19) 0.0547(17) Uani 1 1 d . . .
H11 H 0.5532 1.1667 0.7529 0.066 Uiso 1 1 calc R . .
C14 C 0.55252(18) 1.03364(19) 0.71066(17) 0.0480(16) Uani 1 1 d . . .
C9 C 0.6001(2) 1.1538(2) 0.8087(2) 0.0583(19) Uani 1 1 d . . .
C8 C 0.7043(3) 1.1375(3) 0.8588(2) 0.092(3) Uani 1 1 d . . .
O11 O 0.7380(3) 1.1469(3) 0.86683(17) 0.168(4) Uani 1 1 d . . .
O1W O 0.58220(18) 1.06182(18) 0.80640(17) 0.0959(19) Uiso 1 1 d . . .

loop_
_atom_site_aniso_label
_atom_site_aniso_U_11
_atom_site_aniso_U_22
_atom_site_aniso_U_33
_atom_site_aniso_U_23
_atom_site_aniso_U_13
_atom_site_aniso_U_12
Zn1 0.0409(6) 0.0420(6) 0.0424(6) -0.0126(5) 0.000 0.000
Zn2 0.0720(5) 0.0720(5) 0.0358(6) 0.0067(4) 0.0067(4) 0.0062(7)
O1 0.043(3) 0.044(3) 0.053(3) -0.008(2) -0.003(2) -0.008(2)
N2 0.040(3) 0.053(3) 0.048(3) 0.004(3) -0.004(2) -0.010(3)
C2 0.044(4) 0.035(3) 0.040(4) -0.003(3) -0.002(3) 0.002(3)
C13 0.035(4) 0.046(4) 0.039(4) 0.013(3) 0.002(3) -0.002(3)
O3 0.077(3) 0.100(4) 0.038(3) 0.022(3) 0.014(3) -0.004(3)
N6 0.044(3) 0.048(3) 0.058(4) -0.025(3) -0.023(3) 0.015(3)
O9 0.046(3) 0.057(3) 0.042(3) -0.018(2) -0.009(2) 0.008(2)
C19 0.056(4) 0.040(4) 0.044(4) 0.007(3) -0.015(4) 0.015(3)
C15 0.057(4) 0.049(4) 0.041(4) -0.007(3) 0.002(3) 0.010(3)
C10 0.050(4) 0.048(4) 0.048(4) 0.012(3) 0.002(3) -0.013(3)
N1 0.078(4) 0.053(3) 0.038(3) 0.019(3) -0.030(3) -0.041(3)
C18 0.043(4) 0.055(4) 0.048(4) 0.000(3) -0.019(3) 0.009(3)
O10 0.095(4) 0.085(4) 0.092(4) -0.050(4) -0.046(3) 0.034(3)
O4 0.088(4) 0.071(3) 0.049(3) 0.027(3) -0.003(3) -0.012(3)
O2 0.131(5) 0.088(4) 0.051(3) -0.021(3) 0.028(3) -0.049(4)
C12 0.056(4) 0.052(4) 0.048(4) 0.017(3) -0.005(3) 0.003(4)
C16 0.049(4) 0.051(4) 0.056(4) -0.008(3) -0.011(3) 0.024(3)
C5 0.063(5) 0.046(4) 0.054(5) -0.014(3) 0.000(4) -0.007(4)
C4 0.059(4) 0.067(5) 0.034(4) -0.009(3) 0.017(3) -0.027(4)
O5 0.106(4) 0.053(3) 0.097(4) 0.022(3) -0.011(3) -0.023(3)
N7 0.049(3) 0.064(4) 0.050(3) -0.024(3) -0.021(3) 0.029(3)
C1 0.050(4) 0.055(4) 0.032(4) -0.013(3) -0.002(3) -0.015(3)
C7 0.046(4) 0.059(4) 0.041(4) -0.006(3) -0.001(3) -0.016(3)
C3 0.051(4) 0.041(4) 0.050(4) -0.006(3) 0.007(3) -0.016(3)
C6 0.045(4) 0.047(4) 0.043(4) -0.003(3) -0.012(3) -0.014(3)
C11 0.052(4) 0.056(4) 0.056(4) 0.016(4) -0.001(4) -0.020(3)
C14 0.053(4) 0.044(4) 0.047(4) -0.015(3) -0.004(3) -0.008(3)
C9 0.054(5) 0.051(5) 0.070(5) 0.026(4) 0.011(4) -0.002(4)
C8 0.132(8) 0.110(7) 0.035(4) 0.014(4) -0.025(5) -0.082(6)
O11 0.174(8) 0.267(10) 0.063(5) 0.000(5) -0.014(5) -0.135(8)

_geom_special_details            
;
All esds (except the esd in the dihedral angle between two l.s. planes)
are estimated using the full covariance matrix. The cell esds are taken
into account individually in the estimation of esds in distances, angles
and torsion angles; correlations between esds in cell parameters are only
used when they are defined by crystal symmetry. An approximate (isotropic)
treatment of cell esds is used for estimating esds involving l.s. planes.
;

loop_
_geom_bond_atom_site_label_1
_geom_bond_atom_site_label_2
_geom_bond_distance
_geom_bond_site_symmetry_2
_geom_bond_publ_flag
Zn1 O9 1.967(4) 3_576 ?
Zn1 O9 1.967(4) . ?
Zn1 O1 1.990(4) . ?
Zn1 O1 1.990(4) 3_576 ?
Zn2 O4 1.931(5) 37_666 ?
Zn2 O4 1.931(5) . ?
Zn2 O3 1.967(5) . ?
Zn2 O3 1.967(5) 37_666 ?
O1 C1 1.300(7) . ?
N2 C13 1.346(7) . ?
N2 C13 1.362(7) 31_664 ?
C2 C3 1.339(8) . ?
C2 C7 1.394(8) . ?
C2 C1 1.469(8) . ?
C13 N1 1.346(7) . ?
C13 N2 1.362(7) 32_656 ?
O3 C8 1.241(10) . ?
N6 C19 1.305(7) . ?
N6 C19 1.381(8) 35_556 ?
O9 C14 1.253(7) . ?
C19 N7 1.338(8) . ?
C19 N6 1.381(8) 36_465 ?
C15 C11 1.383(9) 18_676 ?
C15 C16 1.415(9) . ?
C15 C14 1.529(9) . ?
C10 C11 1.373(9) . ?
C10 C12 1.386(9) . ?
C10 C9 1.539(9) . ?
N1 C6 1.378(8) . ?
C18 C16 1.386(8) . ?
C18 C12 1.407(8) 18_676 ?
C18 N7 1.408(7) . ?
O10 C14 1.223(7) . ?
O4 C9 1.245(9) . ?
O2 C1 1.283(8) . ?
C12 C18 1.407(8) 18_676 ?
C5 C4 1.373(9) . ?
C5 C6 1.380(9) . ?
C4 C3 1.374(8) . ?
C4 C8 1.560(10) . ?
O5 C9 1.205(9) . ?
C7 C6 1.410(8) . ?
C11 C15 1.383(9) 18_676 ?
C8 O11 1.292(11) . ?

loop_
_geom_angle_atom_site_label_1
_geom_angle_atom_site_label_2
_geom_angle_atom_site_label_3
_geom_angle
_geom_angle_site_symmetry_1
_geom_angle_site_symmetry_3
_geom_angle_publ_flag
O9 Zn1 O9 107.5(3) 3_576 . ?
O9 Zn1 O1 92.95(18) 3_576 . ?
O9 Zn1 O1 120.46(17) . . ?
O9 Zn1 O1 120.46(17) 3_576 3_576 ?
O9 Zn1 O1 92.95(18) . 3_576 ?
O1 Zn1 O1 123.7(2) . 3_576 ?
O4 Zn2 O4 106.0(3) 37_666 . ?
O4 Zn2 O3 126.5(2) 37_666 . ?
O4 Zn2 O3 100.9(2) . . ?
O4 Zn2 O3 100.9(2) 37_666 37_666 ?
O4 Zn2 O3 126.5(2) . 37_666 ?
O3 Zn2 O3 98.7(3) . 37_666 ?
C1 O1 Zn1 113.1(4) . . ?
C13 N2 C13 115.5(6) . 31_664 ?
C3 C2 C7 119.1(6) . . ?
C3 C2 C1 123.1(6) . . ?
C7 C2 C1 117.8(5) . . ?
N2 C13 N1 116.5(5) . . ?
N2 C13 N2 124.5(6) . 32_656 ?
N1 C13 N2 119.0(5) . 32_656 ?
C8 O3 Zn2 129.3(5) . . ?
C19 N6 C19 114.2(6) . 35_556 ?
C14 O9 Zn1 116.9(4) . . ?
N6 C19 N7 121.6(6) . . ?
N6 C19 N6 125.7(6) . 36_465 ?
N7 C19 N6 112.6(5) . 36_465 ?
C11 C15 C16 118.6(6) 18_676 . ?
C11 C15 C14 123.4(6) 18_676 . ?
C16 C15 C14 117.9(6) . . ?
C11 C10 C12 121.5(6) . . ?
C11 C10 C9 120.6(6) . . ?
C12 C10 C9 117.9(6) . . ?
C13 N1 C6 130.3(5) . . ?
C16 C18 C12 119.5(6) . 18_676 ?
C16 C18 N7 116.0(5) . . ?
C12 C18 N7 124.6(5) 18_676 . ?
C9 O4 Zn2 121.3(5) . . ?
C10 C12 C18 119.0(6) . 18_676 ?
C18 C16 C15 120.8(6) . . ?
C4 C5 C6 121.4(6) . . ?
C5 C4 C3 119.5(6) . . ?
C5 C4 C8 118.3(6) . . ?
C3 C4 C8 122.1(6) . . ?
C19 N7 C18 133.0(5) . . ?
O2 C1 O1 120.5(5) . . ?
O2 C1 C2 121.3(6) . . ?
O1 C1 C2 118.2(5) . . ?
C2 C7 C6 120.9(6) . . ?
C2 C3 C4 121.7(6) . . ?
N1 C6 C5 124.4(6) . . ?
N1 C6 C7 118.7(5) . . ?
C5 C6 C7 117.0(6) . . ?
C10 C11 C15 120.6(6) . 18_676 ?
O10 C14 O9 124.7(6) . . ?
O10 C14 C15 118.0(6) . . ?
O9 C14 C15 117.3(5) . . ?
O5 C9 O4 126.3(7) . . ?
O5 C9 C10 116.8(7) . . ?
O4 C9 C10 116.9(7) . . ?
O3 C8 O11 125.8(7) . . ?
O3 C8 C4 119.9(7) . . ?
O11 C8 C4 112.8(8) . . ?

_diffrn_measured_fraction_theta_max 0.998
_diffrn_reflns_theta_full        21.99
_diffrn_measured_fraction_theta_full 0.998
_refine_diff_density_max         0.536
_refine_diff_density_min         -0.932
_refine_diff_density_rms         0.064


