####################################################################### 
# 
# This file contains crystal structure data downloaded from the 
# Cambridge Structural Database (CSD) hosted by the Cambridge 
# Crystallographic Data Centre (CCDC).
# 
# Full information about CCDC data access policies and citation 
# guidelines are available at http://www.ccdc.cam.ac.uk/access/V1 
# 
# Audit and citation data items may have been added by the CCDC. 
# Please retain this information to preserve the provenance of 
# this file and to allow appropriate attribution of the data. 
# 
#######################################################################

data_r100502f
_audit_block_doi                 10.5517/ccvsv3k
_database_code_depnum_ccdc_archive 'CCDC 798439'
loop_
_citation_id
_citation_doi
_citation_year
1 10.1039/c1dt10156k 2011
_audit_update_record             
;
2010-10-27 deposited with the CCDC.	2024-07-10 downloaded from the CCDC.
;
#TrackingRef 'web_deposit_cif_file_0_BingJiang_1288142053.cif'


_audit_creation_method           SHELXL-97
_chemical_name_systematic        
;
?
;
_chemical_name_common            ?
_chemical_melting_point          ?
_chemical_formula_moiety         ?
_chemical_formula_sum            'C12 H24 Cl La2 N O21 S2'
_chemical_formula_weight         895.71

loop_
_atom_type_symbol
_atom_type_description
_atom_type_scat_dispersion_real
_atom_type_scat_dispersion_imag
_atom_type_scat_source
C C 0.0033 0.0016 'International Tables Vol C Tables 4.2.6.8 and 6.1.1.4'
H H 0.0000 0.0000 'International Tables Vol C Tables 4.2.6.8 and 6.1.1.4'
La La -0.2871 2.4523 'International Tables Vol C Tables 4.2.6.8 and 6.1.1.4'
N N 0.0061 0.0033 'International Tables Vol C Tables 4.2.6.8 and 6.1.1.4'
O O 0.0106 0.0060 'International Tables Vol C Tables 4.2.6.8 and 6.1.1.4'
S S 0.1246 0.1234 'International Tables Vol C Tables 4.2.6.8 and 6.1.1.4'
Cl Cl 0.1484 0.1585 'International Tables Vol C Tables 4.2.6.8 and 6.1.1.4'

_symmetry_cell_setting           Monoclinic
_symmetry_space_group_name_H-M   P2(1)

loop_
_symmetry_equiv_pos_as_xyz
'x, y, z'
'-x, y+1/2, -z'

_cell_length_a                   12.827(3)
_cell_length_b                   6.5366(13)
_cell_length_c                   16.096(3)
_cell_angle_alpha                90.00
_cell_angle_beta                 90.34(3)
_cell_angle_gamma                90.00
_cell_volume                     1349.5(5)
_cell_formula_units_Z            2
_cell_measurement_temperature    293(2)
_cell_measurement_reflns_used    5968
_cell_measurement_theta_min      2.53
_cell_measurement_theta_max      27.83

_exptl_crystal_description       block
_exptl_crystal_colour            colorless
_exptl_crystal_size_max          0.03
_exptl_crystal_size_mid          0.02
_exptl_crystal_size_min          0.02
_exptl_crystal_density_meas      ?
_exptl_crystal_density_diffrn    2.204
_exptl_crystal_density_method    'not measured'
_exptl_crystal_F_000             868
_exptl_absorpt_coefficient_mu    3.467
_exptl_absorpt_correction_type   multi-scan
_exptl_absorpt_correction_T_min  0.9031
_exptl_absorpt_correction_T_max  0.9339
_exptl_absorpt_process_details   SADABS

_exptl_special_details           
;
?
;

_diffrn_ambient_temperature      293(2)
_diffrn_radiation_wavelength     0.71073
_diffrn_radiation_type           MoK\a
_diffrn_radiation_source         'fine-focus sealed tube'
_diffrn_radiation_monochromator  graphite
_diffrn_measurement_device_type  'Bruker P4'
_diffrn_measurement_method       '\w scans'
_diffrn_detector_area_resol_mean 0
_diffrn_standards_number         0
_diffrn_standards_interval_count 0
_diffrn_standards_interval_time  0
_diffrn_standards_decay_%        0
_diffrn_reflns_number            11736
_diffrn_reflns_av_R_equivalents  0.0326
_diffrn_reflns_av_sigmaI/netI    0.0616
_diffrn_reflns_limit_h_min       -16
_diffrn_reflns_limit_h_max       16
_diffrn_reflns_limit_k_min       -8
_diffrn_reflns_limit_k_max       8
_diffrn_reflns_limit_l_min       -21
_diffrn_reflns_limit_l_max       17
_diffrn_reflns_theta_min         2.53
_diffrn_reflns_theta_max         27.83
_reflns_number_total             5958
_reflns_number_gt                5710
_reflns_threshold_expression     >2sigma(I)

_computing_data_collection       'Bruker XSCANS'
_computing_cell_refinement       'Bruker XSCANS'
_computing_data_reduction        'Bruker SHELXTL'
_computing_structure_solution    'SHELXS-97 (Sheldrick, 1990)'
_computing_structure_refinement  'SHELXL-97 (Sheldrick, 1997)'
_computing_molecular_graphics    'Bruker SHELXTL'
_computing_publication_material  'Bruker SHELXTL'

_refine_special_details          
;
Refinement of F^2^ against ALL reflections. The weighted R-factor wR and
goodness of fit S are based on F^2^, conventional R-factors R are based
on F, with F set to zero for negative F^2^. The threshold expression of
F^2^ > 2sigma(F^2^) is used only for calculating R-factors(gt) etc. and is
not relevant to the choice of reflections for refinement. R-factors based
on F^2^ are statistically about twice as large as those based on F, and R-
factors based on ALL data will be even larger.
;

_refine_ls_structure_factor_coef Fsqd
_refine_ls_matrix_type           full
_refine_ls_weighting_scheme      calc
_refine_ls_weighting_details     
'calc w=1/[\s^2^(Fo^2^)+(0.0711P)^2^+4.8981P] where P=(Fo^2^+2Fc^2^)/3'
_atom_sites_solution_primary     direct
_atom_sites_solution_secondary   difmap
_atom_sites_solution_hydrogens   geom
_refine_ls_hydrogen_treatment    none
_refine_ls_extinction_method     SHELXL
_refine_ls_extinction_coef       0.0177(10)
_refine_ls_extinction_expression Fc^*^=kFc[1+0.001xFc^2^\l^3^/sin(2\q)]^-1/4^
_refine_ls_abs_structure_details 'Flack H D (1983), Acta Cryst. A39, 876-881'
_refine_ls_abs_structure_Flack   0.07(3)
_refine_ls_number_reflns         5958
_refine_ls_number_parameters     354
_refine_ls_number_restraints     169
_refine_ls_R_factor_all          0.0488
_refine_ls_R_factor_gt           0.0470
_refine_ls_wR_factor_ref         0.1211
_refine_ls_wR_factor_gt          0.1195
_refine_ls_goodness_of_fit_ref   1.022
_refine_ls_restrained_S_all      1.014
_refine_ls_shift/su_max          0.051
_refine_ls_shift/su_mean         0.006

loop_
_atom_site_label
_atom_site_type_symbol
_atom_site_fract_x
_atom_site_fract_y
_atom_site_fract_z
_atom_site_U_iso_or_equiv
_atom_site_adp_type
_atom_site_occupancy
_atom_site_symmetry_multiplicity
_atom_site_calc_flag
_atom_site_refinement_flags
_atom_site_disorder_assembly
_atom_site_disorder_group
O12 O -0.1364(5) 0.1813(11) 0.6237(4) 0.0280(15) Uani 1 1 d . . .
H12B H -0.1481 0.2570 0.6656 0.034 Uiso 1 1 d R . .
H12A H -0.1585 0.2398 0.5798 0.034 Uiso 1 1 d R . .
O10 O 0.0865(5) -0.7148(9) 0.6085(4) 0.0224(13) Uani 1 1 d . . .
O7 O 0.7555(5) 0.4901(9) 0.3554(4) 0.0246(14) Uani 1 1 d . . .
O8 O 0.8138(5) 0.4218(12) 0.4815(3) 0.0208(11) Uani 1 1 d . . .
C12 C 0.7387(6) 0.4509(13) 0.4311(5) 0.0166(14) Uani 1 1 d U . .
O4 O -0.0561(5) -0.0855(12) 1.1761(3) 0.0236(13) Uani 1 1 d . . .
O3 O -0.2021(6) -0.1293(12) 1.1041(4) 0.0344(19) Uani 1 1 d . . .
C6 C -0.1027(8) -0.0986(14) 1.1077(5) 0.0253(17) Uani 1 1 d U . .
La1 La 0.01706(3) -0.07171(6) 0.60585(2) 0.01307(13) Uani 1 1 d . . .
La2 La 0.21595(4) 0.32122(8) 0.73133(3) 0.01695(14) Uani 1 1 d . . .
S1 S -0.10701(18) -0.0853(4) 0.93437(12) 0.0225(4) Uani 1 1 d . . .
O11 O 0.1004(4) -0.4006(9) 0.6591(3) 0.0145(11) Uani 1 1 d . . .
O2 O 0.0958(5) 0.0096(10) 0.7575(4) 0.0232(13) Uani 1 1 d . . .
O5 O 0.2961(6) 0.4317(15) 0.5910(6) 0.050(2) Uani 1 1 d . . .
C4 C 0.0607(7) -0.0792(16) 1.0216(5) 0.0207(14) Uani 1 1 d U . .
H4A H 0.1071 -0.0823 1.0662 0.025 Uiso 1 1 calc R . .
O9 O 0.0275(5) -0.4435(9) 0.5354(3) 0.0182(12) Uani 1 1 d . . .
C1 C 0.0123(7) -0.0531(14) 0.7929(4) 0.0192(14) Uani 1 1 d U . .
C2 C 0.0098(7) -0.0714(15) 0.8843(4) 0.0196(13) Uani 1 1 d U . .
C5 C -0.0453(7) -0.0857(15) 1.0303(5) 0.0231(15) Uani 1 1 d U . .
C3 C 0.0924(7) -0.0673(15) 0.9378(5) 0.0229(14) Uani 1 1 d U . .
H3A H 0.1615 -0.0578 0.9211 0.027 Uiso 1 1 calc R . .
O13 O -0.1557(6) -0.2548(13) 0.5942(5) 0.045(2) Uani 1 1 d . . .
H13A H -0.2023 -0.2364 0.6307 0.054 Uiso 1 1 d R . .
H13B H -0.1674 -0.3341 0.5533 0.054 Uiso 1 1 d R . .
C8 C 0.4693(7) 0.4303(17) 0.5419(6) 0.0308(16) Uani 1 1 d U . .
N9 N 0.0703(6) -0.5206(12) 0.5994(5) 0.0239(17) Uani 1 1 d . . .
O1 O -0.0675(5) -0.1017(12) 0.7505(3) 0.0248(15) Uani 1 1 d . . .
C7 C 0.3897(8) 0.4130(18) 0.6110(7) 0.0358(19) Uani 1 1 d U . .
S2 S 0.60487(19) 0.4264(4) 0.56573(14) 0.0305(5) Uani 1 1 d . . .
C11 C 0.6322(6) 0.4389(15) 0.4624(5) 0.0219(14) Uani 1 1 d U . .
C10 C 0.5384(7) 0.4416(15) 0.4175(6) 0.0269(15) Uani 1 1 d U . .
H10A H 0.5375 0.4479 0.3598 0.032 Uiso 1 1 calc R . .
O14 O 0.2719(5) 0.6764(11) 0.7705(4) 0.0291(15) Uani 1 1 d . . .
H14A H 0.2378 0.7785 0.7522 0.035 Uiso 1 1 d R . .
H14B H 0.3244 0.6951 0.8021 0.035 Uiso 1 1 d R . .
O15 O 0.3529(7) 0.1229(16) 0.8138(5) 0.050(2) Uani 1 1 d . . .
H15A H 0.4022 0.1928 0.8455 0.060 Uiso 1 1 d R . .
H15B H 0.3534 -0.0193 0.8124 0.060 Uiso 1 1 d R . .
O6 O 0.4193(6) 0.3855(13) 0.6816(5) 0.043(2) Uani 1 1 d . . .
C9 C 0.4506(7) 0.4349(18) 0.4611(6) 0.0321(16) Uani 1 1 d U . .
H9A H 0.3842 0.4336 0.4375 0.039 Uiso 1 1 calc R . .
O16 O 0.8574(7) 0.4347(16) 0.7634(5) 0.0476(19) Uani 1 1 d . . .
H16A H 0.9188 0.4597 0.7807 0.057 Uiso 1 1 d R . .
H16B H 0.8145 0.4472 0.8031 0.057 Uiso 1 1 d R . .
O20 O 0.7045(8) 0.816(3) 0.7241(6) 0.094(4) Uani 1 1 d . . .
H20A H 0.7499 0.7330 0.7432 0.113 Uiso 1 1 d R . .
H20B H 0.6741 0.8760 0.7644 0.113 Uiso 1 1 d R . .
O17 O 0.6948(17) 0.299(5) 0.8649(14) 0.201(10) Uani 1 1 d U . .
H17A H 0.7279 0.3359 0.9083 0.241 Uiso 1 1 d R . .
H17B H 0.7238 0.1892 0.8488 0.241 Uiso 1 1 d R . .
O19 O 0.552(2) 0.664(4) 0.9293(19) 0.28(2) Uani 1 1 d . . .
H19A H 0.5942 0.5846 0.9542 0.336 Uiso 1 1 d R . .
H19B H 0.5584 0.7932 0.9345 0.336 Uiso 1 1 d R . .
O18 O 0.5557(18) 0.151(4) 0.7719(13) 0.169(8) Uani 1 1 d U . .
H18A H 0.5707 0.1828 0.8218 0.203 Uiso 1 1 d R . .
H18B H 0.4978 0.0944 0.7606 0.203 Uiso 1 1 d R . .
O23 O 0.6453(15) 0.015(3) -0.0040(12) 0.146(7) Uani 1 1 d U . .
H23A H 0.5798 0.0144 0.0035 0.175 Uiso 1 1 d R . .
H23B H 0.6858 0.0598 0.0337 0.175 Uiso 1 1 d R . .
Cl1 Cl 0.381(4) 0.742(10) 0.887(3) 0.85(4) Uani 1 1 d U . .

loop_
_atom_site_aniso_label
_atom_site_aniso_U_11
_atom_site_aniso_U_22
_atom_site_aniso_U_33
_atom_site_aniso_U_23
_atom_site_aniso_U_13
_atom_site_aniso_U_12
O12 0.036(4) 0.025(4) 0.023(3) 0.005(3) -0.002(3) 0.013(3)
O10 0.025(3) 0.010(3) 0.032(3) 0.004(2) -0.008(2) -0.001(2)
O7 0.035(4) 0.018(3) 0.021(3) 0.006(2) 0.002(2) -0.008(3)
O8 0.023(3) 0.017(3) 0.022(3) -0.002(3) -0.006(2) 0.001(3)
C12 0.017(3) 0.007(3) 0.026(3) 0.000(3) 0.009(3) 0.002(3)
O4 0.039(3) 0.023(3) 0.009(2) 0.001(3) 0.009(2) 0.003(3)
O3 0.041(4) 0.041(5) 0.021(3) -0.003(3) 0.003(3) 0.003(3)
C6 0.045(4) 0.015(4) 0.016(3) -0.003(3) 0.008(3) -0.002(3)
La1 0.0205(2) 0.0088(2) 0.00997(19) 0.00003(17) 0.00080(14) 0.00083(19)
La2 0.0239(2) 0.0108(2) 0.0161(2) -0.00080(17) -0.00327(16) 0.00062(19)
S1 0.0361(11) 0.0202(10) 0.0113(8) 0.0007(10) 0.0058(7) -0.0035(11)
O11 0.021(3) 0.011(3) 0.011(2) -0.004(2) -0.001(2) 0.001(2)
O2 0.034(3) 0.019(3) 0.017(3) -0.007(2) 0.007(2) -0.006(3)
O5 0.037(4) 0.030(4) 0.082(6) 0.003(5) 0.036(4) 0.002(4)
C4 0.035(3) 0.012(3) 0.015(3) -0.002(3) 0.002(3) -0.005(3)
O9 0.024(3) 0.018(3) 0.013(2) 0.000(2) -0.002(2) 0.003(2)
C1 0.033(3) 0.012(3) 0.013(3) -0.002(3) 0.011(3) 0.003(3)
C2 0.033(3) 0.013(3) 0.013(3) 0.000(3) 0.008(2) 0.003(3)
C5 0.040(4) 0.016(3) 0.013(3) -0.006(3) 0.007(3) -0.006(3)
C3 0.038(3) 0.014(3) 0.017(3) -0.002(3) 0.003(3) -0.003(3)
O13 0.033(4) 0.047(5) 0.054(5) -0.028(4) 0.016(3) -0.014(4)
C8 0.024(3) 0.015(3) 0.054(4) 0.005(4) 0.017(3) -0.001(3)
N9 0.020(3) 0.027(5) 0.025(4) 0.000(3) 0.002(3) -0.007(3)
O1 0.021(3) 0.044(4) 0.009(2) 0.000(3) 0.004(2) 0.005(3)
C7 0.036(4) 0.022(4) 0.049(4) -0.002(4) 0.005(4) 0.000(4)
S2 0.0391(13) 0.0239(11) 0.0286(10) -0.0004(12) 0.0163(9) -0.0013(13)
C11 0.020(3) 0.013(3) 0.034(3) 0.002(3) 0.016(3) 0.000(3)
C10 0.021(3) 0.011(3) 0.049(4) 0.005(3) -0.002(3) -0.003(3)
O14 0.034(4) 0.019(4) 0.034(4) 0.002(3) -0.015(3) 0.001(3)
O15 0.046(5) 0.060(6) 0.043(5) -0.013(4) -0.017(4) 0.016(4)
O6 0.033(4) 0.047(6) 0.049(5) -0.010(4) 0.008(3) -0.006(3)
C9 0.022(3) 0.022(3) 0.052(4) 0.003(4) 0.010(3) -0.004(3)
O16 0.058(5) 0.048(5) 0.037(4) -0.004(4) 0.000(3) 0.014(5)
O20 0.064(7) 0.152(13) 0.066(7) -0.009(8) 0.016(5) -0.037(9)
O17 0.182(12) 0.218(13) 0.202(12) 0.033(9) -0.001(9) 0.000(9)
O19 0.31(4) 0.19(3) 0.34(4) -0.08(3) -0.23(3) 0.12(3)
O18 0.166(11) 0.177(12) 0.165(11) -0.012(9) -0.003(9) 0.010(9)
O23 0.128(10) 0.156(11) 0.154(10) -0.006(9) -0.002(8) 0.000(8)
Cl1 0.85(4) 0.85(4) 0.85(4) 0.000(10) -0.005(10) -0.002(10)

_geom_special_details            
;
All esds (except the esd in the dihedral angle between two l.s. planes)
are estimated using the full covariance matrix. The cell esds are taken
into account individually in the estimation of esds in distances, angles
and torsion angles; correlations between esds in cell parameters are only
used when they are defined by crystal symmetry. An approximate (isotropic)
treatment of cell esds is used for estimating esds involving l.s. planes.
;

loop_
_geom_bond_atom_site_label_1
_geom_bond_atom_site_label_2
_geom_bond_distance
_geom_bond_site_symmetry_2
_geom_bond_publ_flag
O12 La1 2.588(7) . ?
O12 H12B 0.8500 . ?
O12 H12A 0.8500 . ?
O10 N9 1.295(11) . ?
O10 La1 2.497(6) 1_545 ?
O10 La2 2.586(6) 1_545 ?
O7 C12 1.264(9) . ?
O7 La2 2.603(6) 2_656 ?
O7 La1 3.007(7) 2_656 ?
O8 C12 1.270(10) . ?
O8 La1 2.593(6) 2_656 ?
C12 C11 1.461(10) . ?
O4 C6 1.253(11) . ?
O4 La2 2.614(6) 2_547 ?
O3 C6 1.291(12) . ?
O3 La2 2.675(6) 2_547 ?
C6 C5 1.454(11) . ?
C6 La2 3.024(8) 2_547 ?
La1 O9 2.486(5) 2_556 ?
La1 O10 2.497(6) 1_565 ?
La1 O13 2.524(8) . ?
La1 O11 2.547(6) . ?
La1 O1 2.581(5) . ?
La1 O8 2.593(6) 2_646 ?
La1 O2 2.690(6) . ?
La1 O9 2.686(6) . ?
La1 O7 3.007(7) 2_646 ?
La2 O14 2.510(7) . ?
La2 O15 2.550(8) . ?
La2 O10 2.586(6) 1_565 ?
La2 O5 2.590(8) . ?
La2 O2 2.591(6) . ?
La2 O7 2.603(6) 2_646 ?
La2 O11 2.614(6) 1_565 ?
La2 O4 2.614(6) 2_557 ?
La2 O3 2.675(6) 2_557 ?
La2 O6 2.765(8) . ?
La2 N9 3.004(8) 1_565 ?
La2 C6 3.024(8) 2_557 ?
S1 C2 1.708(8) . ?
S1 C5 1.730(8) . ?
O11 N9 1.298(9) . ?
O11 La2 2.614(6) 1_545 ?
O2 C1 1.283(10) . ?
O5 C7 1.248(14) . ?
C4 C5 1.369(13) . ?
C4 C3 1.413(10) . ?
C4 H4A 0.9300 . ?
O9 N9 1.269(9) . ?
O9 La1 2.486(5) 2_546 ?
C1 O1 1.268(11) . ?
C1 C2 1.475(10) . ?
C2 C3 1.362(12) . ?
C3 H3A 0.9300 . ?
O13 H13A 0.8500 . ?
O13 H13B 0.8503 . ?
C8 C9 1.322(15) . ?
C8 C7 1.519(13) . ?
C8 S2 1.779(10) . ?
N9 La2 3.004(8) 1_545 ?
C7 O6 1.209(13) . ?
S2 C11 1.704(8) . ?
C11 C10 1.399(12) . ?
C10 C9 1.331(12) . ?
C10 H10A 0.9300 . ?
O14 H14A 0.8501 . ?
O14 H14B 0.8500 . ?
O15 H15A 0.9299 . ?
O15 H15B 0.9300 . ?
C9 H9A 0.9300 . ?
O16 H16A 0.8500 . ?
O16 H16B 0.8500 . ?
O20 H20A 0.8519 . ?
O20 H20B 0.8535 . ?
O17 H17A 0.8500 . ?
O17 H17B 0.8489 . ?
O19 H19A 0.8498 . ?
O19 H19B 0.8500 . ?
O18 H18A 0.8500 . ?
O18 H18B 0.8499 . ?
O23 H23A 0.8500 . ?
O23 H23B 0.8500 . ?

loop_
_geom_angle_atom_site_label_1
_geom_angle_atom_site_label_2
_geom_angle_atom_site_label_3
_geom_angle
_geom_angle_site_symmetry_1
_geom_angle_site_symmetry_3
_geom_angle_publ_flag
La1 O12 H12B 126.7 . . ?
La1 O12 H12A 116.4 . . ?
H12B O12 H12A 109.7 . . ?
N9 O10 La1 149.0(5) . 1_545 ?
N9 O10 La2 95.7(5) . 1_545 ?
La1 O10 La2 109.0(2) 1_545 1_545 ?
C12 O7 La2 135.3(5) . 2_656 ?
C12 O7 La1 86.7(5) . 2_656 ?
La2 O7 La1 94.79(19) 2_656 2_656 ?
C12 O8 La1 106.5(5) . 2_656 ?
O7 C12 O8 120.9(7) . . ?
O7 C12 C11 120.5(8) . . ?
O8 C12 C11 118.6(7) . . ?
C6 O4 La2 96.5(6) . 2_547 ?
C6 O3 La2 92.7(5) . 2_547 ?
O4 C6 O3 121.0(8) . . ?
O4 C6 C5 120.5(9) . . ?
O3 C6 C5 118.4(8) . . ?
O4 C6 La2 59.2(4) . 2_547 ?
O3 C6 La2 62.1(4) . 2_547 ?
C5 C6 La2 173.2(7) . 2_547 ?
O9 La1 O10 77.3(2) 2_556 1_565 ?
O9 La1 O13 84.0(3) 2_556 . ?
O10 La1 O13 139.2(2) 1_565 . ?
O9 La1 O11 133.29(18) 2_556 . ?
O10 La1 O11 129.32(18) 1_565 . ?
O13 La1 O11 89.5(2) . . ?
O9 La1 O1 139.0(2) 2_556 . ?
O10 La1 O1 102.0(2) 1_565 . ?
O13 La1 O1 70.0(2) . . ?
O11 La1 O1 79.1(2) . . ?
O9 La1 O12 73.5(2) 2_556 . ?
O10 La1 O12 70.9(2) 1_565 . ?
O13 La1 O12 69.1(3) . . ?
O11 La1 O12 145.1(2) . . ?
O1 La1 O12 67.9(2) . . ?
O9 La1 O8 72.43(19) 2_556 2_646 ?
O10 La1 O8 74.0(2) 1_565 2_646 ?
O13 La1 O8 133.6(2) . 2_646 ?
O11 La1 O8 79.5(2) . 2_646 ?
O1 La1 O8 147.69(18) . 2_646 ?
O12 La1 O8 135.2(2) . 2_646 ?
O9 La1 O2 147.8(2) 2_556 . ?
O10 La1 O2 70.6(2) 1_565 . ?
O13 La1 O2 119.1(2) . . ?
O11 La1 O2 72.95(18) . . ?
O1 La1 O2 49.75(19) . . ?
O12 La1 O2 93.1(2) . . ?
O8 La1 O2 100.63(18) 2_646 . ?
O9 La1 O9 86.02(11) 2_556 . ?
O10 La1 O9 146.5(2) 1_565 . ?
O13 La1 O9 65.5(2) . . ?
O11 La1 O9 49.95(16) . . ?
O1 La1 O9 109.5(2) . . ?
O12 La1 O9 131.7(2) . . ?
O8 La1 O9 73.3(2) 2_646 . ?
O2 La1 O9 122.88(18) . . ?
O9 La1 O7 111.21(18) 2_556 2_646 ?
O10 La1 O7 61.68(18) 1_565 2_646 ?
O13 La1 O7 158.3(2) . 2_646 ?
O11 La1 O7 68