####################################################################### 
# 
# This file contains crystal structure data downloaded from the 
# Cambridge Structural Database (CSD) hosted by the Cambridge 
# Crystallographic Data Centre (CCDC).
# 
# Full information about CCDC data access policies and citation 
# guidelines are available at http://www.ccdc.cam.ac.uk/access/V1 
# 
# Audit and citation data items may have been added by the CCDC. 
# Please retain this information to preserve the provenance of 
# this file and to allow appropriate attribution of the data. 
# 
#######################################################################

data_compound_1
_audit_block_doi                 10.5517/ccxv3sm
_database_code_depnum_ccdc_archive 'CCDC 859251'
_audit_update_record             
;
2011-12-20 deposited with the CCDC.	2024-07-10 downloaded from the CCDC.
;

_audit_creation_method           'manually at CCDC'

_chemical_name_systematic        
;
?
;
_chemical_name_common            ?
_chemical_formula_sum            'C128 H144 Ce4 N12 O52 S16'
_chemical_formula_moiety         ?
_chemical_formula_weight         3755.99
_chemical_melting_point          ?

_symmetry_cell_setting           monoclinic
_symmetry_space_group_name_H-M   P21/c
_symmetry_Int_Tables_number      ?

_cell_length_a                   18.2890(4)
_cell_length_b                   22.5321(4)
_cell_length_c                   18.5374(4)
_cell_angle_alpha                90
_cell_angle_beta                 97.5710(10)
_cell_angle_gamma                90
_cell_volume                     7572.5(3)
_cell_formula_units_Z            2

_exptl_crystal_density_diffrn    1.647
_exptl_crystal_description       ?
_exptl_crystal_colour            ?
_exptl_special_details           
;
?
;

_diffrn_ambient_temperature      293
_diffrn_radiation_probe          x-ray

_refine_ls_R_factor_gt           0.0888
_refine_special_details          
;
?
;

loop_
_atom_site_label
_atom_site_fract_x
_atom_site_fract_y
_atom_site_fract_z
Ce1 0.0134,1 0.5052,1 0.2554,1
S1 0.0285,2 0.5946,1 0.6869,2
C2 0.0938,2 0.4322,1 0.4233,2
S3 0.0417,2 0.3959,1 0.1905,2
S4 0.0799,2 0.5372,1 -0.0695,2
O1 0.0532,5 0.5722,3 0.6886,5
O2 0.1038,4 0.4568,3 0.3502,4
O3 0.0652,5 0.4208,3 0.1857,5
O4 0.0772,4 0.5220,3 -0.1489,4
O11 -0.0034,5 0.5535,4 0.3818,5
O12 0.0753,6 0.5947,4 0.3291,5
O13 0.0575,6 0.6269,4 0.4331,5
O21 -0.0545,5 0.6023,3 0.2081,5
O22 -0.1219,5 0.5483,4 0.2615,5
O23 -0.1694,4 0.6234,3 0.2017,5
O31 0.0644,4 0.5530,4 0.1438,5
O32 0.1463,4 0.5296,4 0.2288,5
O33 0.1772,5 0.5753,4 0.1371,5
N1 0.0417,6 0.5932,4 0.3824,5
N2 -0.1182,6 0.5919,4 0.2229,5
N3 0.1299,6 0.5542,4 0.1679,6
C11 0.1221,7 0.6738,5 0.6933,6
C12 0.0593,7 0.7030,5 0.6991,6
C13 0.0595,9 0.7630,6 0.7063,7
C14 0.1214,11 0.7951,6 0.7113,8
C15 0.1877,10 0.7671,7 0.7056,7
C16 0.1886,8 0.7054,7 0.6959,7
C17 0.1462,7 0.5899,5 0.5941,6
C18 0.1461,8 0.5268,5 0.5685,7
C19 0.1828,7 0.5157,5 0.5032,6
C20 0.1785,7 0.4507,5 0.4810,7
C21 0.1075,6 0.3525,5 0.4180,6
C22 0.1456,7 0.3298,5 0.3647,7
C23 0.1507,7 0.2689,6 0.3609,6
C24 0.1189,8 0.2330,5 0.4085,7
C25 0.0821,8 0.2580,5 0.4635,8
C26 0.0756,8 0.3191,5 0.4649,6
C31 0.1292,7 0.3189,5 0.1681,5
C32 0.0610,7 0.2941,5 0.1572,6
C33 0.0539,8 0.2344,6 0.4797,7
C34 0.1141,9 0.1980,6 0.1523,6
C35 0.1812,10 0.2220,6 0.1641,6
C36 0.1915,7 0.2831,6 0.1718,6
C37 0.1806,6 0.4217,5 0.1113,6
C38 0.1281,7 0.4159,5 0.0380,6
C39 0.1617,8 0.4401,5 -0.0342,6
C40 0.1668,7 0.5081,4 -0.0291,7
C41 0.1036,6 0.6148,4 -0.0591,6
C42 0.0851,7 0.6460,5 -0.0025,6
C43 0.1003,8 0.7046,6 0.0045,7
C44 0.1323,7 0.7341,5 -0.0499,9
C45 0.1495,7 0.7032,6 -0.1071,8
C46 0.1376,7 0.6413,5 -0.1151,6


loop_
_geom_bond_atom_site_label_1
_geom_bond_atom_site_label_2
_geom_bond_distance
Ce1 O11 2.435,7
S1 C11 1.794,12
Ce1 O42 2.481,7
S1 C17 1.795,12
Ce1 O2 2.499,7
S2 O2 1.497,8
Ce1 O3 2.550,8
S2 C20 1.809,11
Ce1 O32 2.603,8
S2 C21 1.819,11
Ce1 O12 2.609,8
S3 O3 1.499,9
Ce1 O21 2.611,7
S3 C31 1.789,11
Ce1 O31 2.612,8
S3 C37 1.810,11
Ce1 O11 2.638,8
S4 O4 1.505,8
Ce1 O22 2.675,9
S4 C40 1.790,11
S1 O1 1.471,9
S4 C41 1.806,10


#END


