####################################################################### 
# 
# This file contains crystal structure data downloaded from the 
# Cambridge Structural Database (CSD) hosted by the Cambridge 
# Crystallographic Data Centre (CCDC).
# 
# Full information about CCDC data access policies and citation 
# guidelines are available at http://www.ccdc.cam.ac.uk/access/V1 
# 
# Audit and citation data items may have been added by the CCDC. 
# Please retain this information to preserve the provenance of 
# this file and to allow appropriate attribution of the data. 
# 
#######################################################################

data_aa
_audit_block_doi                 10.5517/cc10fnx0
_database_code_depnum_ccdc_archive 'CCDC 936662'
loop_
_citation_id
_citation_doi
_citation_year
1 10.1016/j.molstruc.2013.05.063 2013
_audit_update_record             
;
2013-04-29 deposited with the CCDC.	2024-07-10 downloaded from the CCDC.
;

_audit_creation_method           SHELXL-97
_chemical_name_systematic        
; 
 ? 
;
_chemical_name_common            ?
_chemical_melting_point          ?
_chemical_formula_moiety         ?
_chemical_formula_sum            'C16 H26 Cl2 Cu N2 O2 S2 Si'
_chemical_formula_weight         505.04

loop_
_atom_type_symbol
_atom_type_description
_atom_type_scat_dispersion_real
_atom_type_scat_dispersion_imag
_atom_type_scat_source
C C 0.0033 0.0016 'International Tables Vol C Tables 4.2.6.8 and 6.1.1.4'
H H 0.0000 0.0000 'International Tables Vol C Tables 4.2.6.8 and 6.1.1.4'
N N 0.0061 0.0033 'International Tables Vol C Tables 4.2.6.8 and 6.1.1.4'
O O 0.0106 0.0060 'International Tables Vol C Tables 4.2.6.8 and 6.1.1.4'
Si Si 0.0817 0.0704 'International Tables Vol C Tables 4.2.6.8 and 6.1.1.4'
S S 0.1246 0.1234 'International Tables Vol C Tables 4.2.6.8 and 6.1.1.4'
Cl Cl 0.1484 0.1585 'International Tables Vol C Tables 4.2.6.8 and 6.1.1.4'
Cu Cu 0.3201 1.2651 'International Tables Vol C Tables 4.2.6.8 and 6.1.1.4'

_symmetry_cell_setting           ?
_symmetry_space_group_name_H-M   ?

loop_
_symmetry_equiv_pos_as_xyz
'x, y, z'
'-x, -y, z+1/2'
'-y, x, z+1/4'
'y, -x, z+3/4'

_cell_length_a                   11.83580(10)
_cell_length_b                   11.83580(10)
_cell_length_c                   15.5580(3)
_cell_angle_alpha                90.00
_cell_angle_beta                 90.00
_cell_angle_gamma                90.00
_cell_volume                     2179.46(5)
_cell_formula_units_Z            4
_cell_measurement_temperature    173(2)
_cell_measurement_reflns_used    ?
_cell_measurement_theta_min      ?
_cell_measurement_theta_max      ?

_exptl_crystal_description       ?
_exptl_crystal_colour            ?
_exptl_crystal_size_max          0.32
_exptl_crystal_size_mid          0.28
_exptl_crystal_size_min          0.24
_exptl_crystal_density_meas      ?
_exptl_crystal_density_diffrn    1.539
_exptl_crystal_density_method    'not measured'
_exptl_crystal_F_000             1044
_exptl_absorpt_coefficient_mu    1.508
_exptl_absorpt_correction_type   ?
_exptl_absorpt_correction_T_min  0.6440
_exptl_absorpt_correction_T_max  0.7136
_exptl_absorpt_process_details   ?

_exptl_special_details           
; 
 ? 
;

_diffrn_ambient_temperature      173(2)
_diffrn_radiation_wavelength     0.71073
_diffrn_radiation_type           MoK\a
_diffrn_radiation_source         'fine-focus sealed tube'
_diffrn_radiation_monochromator  graphite
_diffrn_measurement_device_type  ?
_diffrn_measurement_method       ?
_diffrn_detector_area_resol_mean ?
_diffrn_standards_number         ?
_diffrn_standards_interval_count ?
_diffrn_standards_interval_time  ?
_diffrn_standards_decay_%        ?
_diffrn_reflns_number            8800
_diffrn_reflns_av_R_equivalents  0.0565
_diffrn_reflns_av_sigmaI/netI    0.0914
_diffrn_reflns_limit_h_min       -12
_diffrn_reflns_limit_h_max       14
_diffrn_reflns_limit_k_min       -12
_diffrn_reflns_limit_k_max       14
_diffrn_reflns_limit_l_min       -19
_diffrn_reflns_limit_l_max       18
_diffrn_reflns_theta_min         1.72
_diffrn_reflns_theta_max         26.00
_reflns_number_total             3845
_reflns_number_gt                3123
_reflns_threshold_expression     >2sigma(I)

_computing_data_collection       ?
_computing_cell_refinement       ?
_computing_data_reduction        ?
_computing_structure_solution    'SHELXS-97 (Sheldrick, 1990)'
_computing_structure_refinement  'SHELXL-97 (Sheldrick, 1997)'
_computing_molecular_graphics    ?
_computing_publication_material  ?

_refine_special_details          
; 
 Refinement of F^2^ against ALL reflections.  The weighted R-factor wR and 
 goodness of fit S are based on F^2^, conventional R-factors R are based 
 on F, with F set to zero for negative F^2^. The threshold expression of 
 F^2^ > 2sigma(F^2^) is used only for calculating R-factors(gt) etc. and is 
 not relevant to the choice of reflections for refinement.  R-factors based 
 on F^2^ are statistically about twice as large as those based on F, and R- 
 factors based on ALL data will be even larger. 
;

_refine_ls_structure_factor_coef Fsqd
_refine_ls_matrix_type           full
_refine_ls_weighting_scheme      calc
_refine_ls_weighting_details     
'calc w=1/[\s^2^(Fo^2^)+(0.0580P)^2^+5.3185P] where P=(Fo^2^+2Fc^2^)/3'
_atom_sites_solution_primary     direct
_atom_sites_solution_secondary   difmap
_atom_sites_solution_hydrogens   geom
_refine_ls_hydrogen_treatment    mixed
_refine_ls_extinction_method     none
_refine_ls_extinction_coef       ?
_refine_ls_abs_structure_details 'Flack H D (1983), Acta Cryst. A39, 876-881'
_refine_ls_abs_structure_Flack   0.04(3)
_refine_ls_number_reflns         3845
_refine_ls_number_parameters     235
_refine_ls_number_restraints     1
_refine_ls_R_factor_all          0.0796
_refine_ls_R_factor_gt           0.0615
_refine_ls_wR_factor_ref         0.1474
_refine_ls_wR_factor_gt          0.1362
_refine_ls_goodness_of_fit_ref   1.031
_refine_ls_restrained_S_all      1.031
_refine_ls_shift/su_max          0.000
_refine_ls_shift/su_mean         0.000

loop_
_atom_site_label
_atom_site_type_symbol
_atom_site_fract_x
_atom_site_fract_y
_atom_site_fract_z
_atom_site_U_iso_or_equiv
_atom_site_adp_type
_atom_site_occupancy
_atom_site_symmetry_multiplicity
_atom_site_calc_flag
_atom_site_refinement_flags
_atom_site_disorder_assembly
_atom_site_disorder_group
Cu1 Cu -0.04356(8) -0.67261(7) 0.45579(5) 0.0242(2) Uani 1 1 d . . .
Si1 Si -0.18709(18) -0.15794(17) 0.30718(13) 0.0209(5) Uani 1 1 d . . .
Cl1 Cl 0.0446(3) -0.60163(19) 0.57491(15) 0.0525(7) Uani 1 1 d . . .
Cl2 Cl -0.19615(18) -0.74800(17) 0.38527(13) 0.0317(5) Uani 1 1 d . . .
S1 S 0.1758(2) -0.5731(2) 0.34716(17) 0.0462(7) Uani 1 1 d . . .
S2 S -0.4467(5) -0.4064(6) 0.3123(7) 0.194(4) Uani 1 1 d . . .
O1 O 0.0870(5) -0.6654(5) 0.3514(4) 0.0305(13) Uani 1 1 d . . .
O2 O -0.4018(12) -0.5349(15) 0.3705(11) 0.199(9) Uani 1 1 d . . .
N1 N -0.0937(5) -0.5168(5) 0.4177(4) 0.0244(15) Uani 1 1 d . . .
N2 N 0.1727(6) -0.0123(6) 0.2391(4) 0.0278(16) Uani 1 1 d . . .
C1 C -0.1054(7) -0.4974(7) 0.3337(5) 0.0273(18) Uani 1 1 d . . .
H1A H -0.0934 -0.5588 0.2955 0.033 Uiso 1 1 calc R . .
C2 C -0.1339(6) -0.3934(7) 0.2983(5) 0.0257(18) Uani 1 1 d . . .
H2A H -0.1367 -0.3843 0.2377 0.031 Uiso 1 1 calc R . .
C3 C -0.1588(6) -0.3017(7) 0.3527(5) 0.0231(17) Uani 1 1 d . . .
C4 C -0.1505(6) -0.3251(7) 0.4410(5) 0.0267(18) Uani 1 1 d . . .
H4A H -0.1669 -0.2672 0.4814 0.032 Uiso 1 1 calc R . .
C5 C -0.1191(7) -0.4307(7) 0.4701(5) 0.0259(18) Uani 1 1 d . . .
H5A H -0.1153 -0.4429 0.5303 0.031 Uiso 1 1 calc R . .
C6 C -0.2666(7) -0.0693(7) 0.3853(6) 0.0299(19) Uani 1 1 d . . .
H6A H -0.3408 -0.1033 0.3961 0.036 Uiso 1 1 calc R . .
H6B H -0.2767 0.0067 0.3616 0.036 Uiso 1 1 calc R . .
H6C H -0.2243 -0.0646 0.4393 0.036 Uiso 1 1 calc R . .
C7 C -0.2624(7) -0.1717(7) 0.2040(6) 0.036(2) Uani 1 1 d . . .
H7A H -0.3379 -0.2027 0.2142 0.043 Uiso 1 1 calc R . .
H7B H -0.2201 -0.2224 0.1660 0.043 Uiso 1 1 calc R . .
H7C H -0.2691 -0.0972 0.1770 0.043 Uiso 1 1 calc R . .
C8 C -0.0435(7) -0.0973(7) 0.2833(4) 0.0226(17) Uani 1 1 d . . .
C9 C 0.0414(7) -0.1646(7) 0.2485(5) 0.0297(19) Uani 1 1 d . . .
H9A H 0.0275 -0.2424 0.2379 0.036 Uiso 1 1 calc R . .
C10 C 0.1455(7) -0.1190(7) 0.2292(6) 0.034(2) Uani 1 1 d . . .
H10A H 0.2017 -0.1684 0.2071 0.041 Uiso 1 1 calc R . .
C11 C 0.0911(7) 0.0577(7) 0.2699(5) 0.0254(18) Uani 1 1 d . . .
H11A H 0.1064 0.1362 0.2751 0.030 Uiso 1 1 calc R . .
C12 C -0.0156(7) 0.0161(7) 0.2942(5) 0.0265(18) Uani 1 1 d . . .
H12A H -0.0695 0.0662 0.3185 0.032 Uiso 1 1 calc R . .
C13 C 0.3081(8) -0.6459(11) 0.3437(8) 0.063(3) Uani 1 1 d . . .
H13A H 0.3246 -0.6778 0.4005 0.076 Uiso 1 1 calc R . .
H13B H 0.3680 -0.5928 0.3275 0.076 Uiso 1 1 calc R . .
H13C H 0.3041 -0.7069 0.3012 0.076 Uiso 1 1 calc R . .
C14 C 0.1740(9) -0.5255(9) 0.2382(7) 0.063(3) Uani 1 1 d . . .
H14A H 0.1043 -0.4831 0.2274 0.076 Uiso 1 1 calc R . .
H14B H 0.1775 -0.5907 0.1995 0.076 Uiso 1 1 calc R . .
H14C H 0.2394 -0.4764 0.2279 0.076 Uiso 1 1 calc R . .
C15 C -0.490(4) -0.304(2) 0.401(3) 0.38(3) Uani 1 1 d . . .
H15A H -0.5150 -0.2327 0.3757 0.453 Uiso 1 1 calc R . .
H15B H -0.4250 -0.2898 0.4390 0.453 Uiso 1 1 calc R . .
H15C H -0.5516 -0.3370 0.4349 0.453 Uiso 1 1 calc R . .
C16 C -0.5552(13) -0.409(3) 0.2746(12) 0.27(2) Uani 1 1 d . . .
H16A H -0.5715 -0.3361 0.2478 0.329 Uiso 1 1 calc R . .
H16B H -0.6118 -0.4251 0.3189 0.329 Uiso 1 1 calc R . .
H16C H -0.5576 -0.4687 0.2307 0.329 Uiso 1 1 calc R . .

loop_
_atom_site_aniso_label
_atom_site_aniso_U_11
_atom_site_aniso_U_22
_atom_site_aniso_U_33
_atom_site_aniso_U_23
_atom_site_aniso_U_13
_atom_site_aniso_U_12
Cu1 0.0319(6) 0.0186(5) 0.0222(4) 0.0017(4) -0.0045(4) 0.0023(5)
Si1 0.0209(10) 0.0178(10) 0.0241(11) 0.0023(9) 0.0036(9) 0.0019(9)
Cl1 0.0877(19) 0.0304(12) 0.0393(13) -0.0045(10) -0.0370(13) 0.0109(14)
Cl2 0.0346(11) 0.0262(10) 0.0342(10) -0.0007(9) -0.0098(9) -0.0002(10)
S1 0.0624(17) 0.0297(12) 0.0463(14) -0.0019(11) 0.0095(13) -0.0136(13)
S2 0.104(4) 0.145(5) 0.331(11) 0.115(7) 0.016(6) -0.008(4)
O1 0.034(3) 0.024(3) 0.033(3) 0.006(3) 0.003(3) 0.000(3)
O2 0.119(11) 0.248(19) 0.231(18) 0.140(16) -0.007(11) 0.019(12)
N1 0.028(4) 0.021(3) 0.024(3) 0.002(3) 0.000(3) 0.002(3)
N2 0.030(4) 0.031(4) 0.022(3) 0.000(3) 0.000(3) -0.010(3)
C1 0.034(4) 0.021(4) 0.027(4) -0.003(3) -0.006(4) 0.009(4)
C2 0.024(4) 0.030(4) 0.023(4) 0.001(3) -0.003(3) 0.002(4)
C3 0.017(4) 0.024(4) 0.029(4) 0.003(3) -0.001(3) 0.002(3)
C4 0.025(4) 0.029(4) 0.026(4) -0.003(4) 0.004(3) 0.011(4)
C5 0.032(4) 0.032(4) 0.014(4) 0.001(3) -0.006(3) 0.004(4)
C6 0.026(4) 0.027(4) 0.037(5) 0.008(4) 0.002(4) 0.003(4)
C7 0.041(5) 0.021(4) 0.046(5) 0.009(4) -0.006(5) -0.003(4)
C8 0.025(4) 0.029(4) 0.014(4) 0.000(3) 0.004(3) 0.003(4)
C9 0.029(5) 0.021(4) 0.038(5) -0.003(4) 0.008(4) -0.004(4)
C10 0.026(4) 0.029(5) 0.048(5) 0.002(4) 0.020(4) 0.003(4)
C11 0.026(4) 0.023(4) 0.027(4) 0.002(3) 0.001(3) -0.001(4)
C12 0.022(4) 0.025(4) 0.032(4) -0.009(4) 0.001(4) 0.006(4)
C13 0.037(6) 0.080(8) 0.073(8) 0.006(7) -0.014(6) -0.009(6)
C14 0.058(7) 0.043(6) 0.089(9) 0.035(6) 0.018(6) 0.003(6)
C15 0.48(6) 0.111(19) 0.54(7) 0.03(3) 0.22(6) 0.18(3)
C16 0.063(10) 0.63(6) 0.132(17) 0.24(3) -0.058(11) -0.13(2)

_geom_special_details            
; 
 All esds (except the esd in the dihedral angle between two l.s. planes) 
 are estimated using the full covariance matrix.  The cell esds are taken 
 into account individually in the estimation of esds in distances, angles 
 and torsion angles; correlations between esds in cell parameters are only 
 used when they are defined by crystal symmetry.  An approximate (isotropic) 
 treatment of cell esds is used for estimating esds involving l.s. planes. 
;

loop_
_geom_bond_atom_site_label_1
_geom_bond_atom_site_label_2
_geom_bond_distance
_geom_bond_site_symmetry_2
_geom_bond_publ_flag
Cu1 N2 2.015(6) 3_545 ?
Cu1 N1 2.026(6) . ?
Cu1 O1 2.243(6) . ?
Cu1 Cl1 2.287(2) . ?
Cu1 Cl2 2.294(2) . ?
Si1 C7 1.843(9) . ?
Si1 C6 1.861(8) . ?
Si1 C3 1.873(8) . ?
Si1 C8 1.881(8) . ?
S1 O1 1.516(6) . ?
S1 C14 1.787(11) . ?
S1 C13 1.788(11) . ?
S2 C16 1.412(14) . ?
S2 O2 1.849(14) . ?
S2 C15 1.91(3) . ?
N1 C1 1.333(10) . ?
N1 C5 1.340(10) . ?
N2 C10 1.312(10) . ?
N2 C11 1.360(10) . ?
N2 Cu1 2.015(6) 4_654 ?
C1 C2 1.391(11) . ?
C1 H1A 0.9500 . ?
C2 C3 1.407(11) . ?
C2 H2A 0.9500 . ?
C3 C4 1.404(11) . ?
C4 C5 1.380(10) . ?
C4 H4A 0.9500 . ?
C5 H5A 0.9500 . ?
C6 H6A 0.9800 . ?
C6 H6B 0.9800 . ?
C6 H6C 0.9800 . ?
C7 H7A 0.9800 . ?
C7 H7B 0.9800 . ?
C7 H7C 0.9800 . ?
C8 C9 1.392(12) . ?
C8 C12 1.393(11) . ?
C9 C10 1.378(11) . ?
C9 H9A 0.9500 . ?
C10 H10A 0.9500 . ?
C11 C12 1.407(11) . ?
C11 H11A 0.9500 . ?
C12 H12A 0.9500 . ?
C13 H13A 0.9800 . ?
C13 H13B 0.9800 . ?
C13 H13C 0.9800 . ?
C14 H14A 0.9800 . ?
C14 H14B 0.9800 . ?
C14 H14C 0.9800 . ?
C15 H15A 0.9800 . ?
C15 H15B 0.9800 . ?
C15 H15C 0.9800 . ?
C16 H16A 0.9800 . ?
C16 H16B 0.9800 . ?
C16 H16C 0.9800 . ?

loop_
_geom_angle_atom_site_label_1
_geom_angle_atom_site_label_2
_geom_angle_atom_site_label_3
_geom_angle
_geom_angle_site_symmetry_1
_geom_angle_site_symmetry_3
_geom_angle_publ_flag
N2 Cu1 N1 177.1(3) 3_545 . ?
N2 Cu1 O1 89.7(2) 3_545 . ?
N1 Cu1 O1 87.4(2) . . ?
N2 Cu1 Cl1 88.6(2) 3_545 . ?
N1 Cu1 Cl1 92.08(19) . . ?
O1 Cu1 Cl1 104.96(17) . . ?
N2 Cu1 Cl2 91.6(2) 3_545 . ?
N1 Cu1 Cl2 89.06(19) . . ?
O1 Cu1 Cl2 102.19(16) . . ?
Cl1 Cu1 Cl2 152.85(11) . . ?
C7 Si1 C6 111.9(4) . . ?
C7 Si1 C3 109.6(4) . . ?
C6 Si1 C3 110.8(4) . . ?
C7 Si1 C8 107.4(4) . . ?
C6 Si1 C8 111.8(4) . . ?
C3 Si1 C8 105.0(3) . . ?
O1 S1 C14 105.1(5) . . ?
O1 S1 C13 105.2(5) . . ?
C14 S1 C13 97.7(5) . . ?
C16 S2 O2 116.5(13) . . ?
C16 S2 C15 94.2(17) . . ?
O2 S2 C15 104.1(13) . . ?
S1 O1 Cu1 122.5(3) . . ?
C1 N1 C5 116.2(7) . . ?
C1 N1 Cu1 118.3(5) . . ?
C5 N1 Cu1 125.5(5) . . ?
C10 N2 C11 117.0(7) . . ?
C10 N2 Cu1 120.5(6) . 4_654 ?
C11 N2 Cu1 122.4(5) . 4_654 ?
N1 C1 C2 124.5(7) . . ?
N1 C1 H1A 117.8 . . ?
C2 C1 H1A 117.8 . . ?
C1 C2 C3 119.7(7) . . ?
C1 C2 H2A 120.1 . . ?
C3 C2 H2A 120.1 . . ?
C4 C3 C2 114.9(7) . . ?
C4 C3 Si1 124.2(6) . . ?
C2 C3 Si1 120.7(6) . . ?
C5 C4 C3 121.2(7) . . ?
C5 C4 H4A 119.4 . . ?
C3 C4 H4A 119.4 . . ?
N1 C5 C4 123.4(7) . . ?
N1 C5 H5A 118.3 . . ?
C4 C5 H5A 118.3 . . ?
Si1 C6 H6A 109.5 . . ?
Si1 C6 H6B 109.5 . . ?
H6A C6 H6B 109.5 . . ?
Si1 C6 H6C 109.5 . . ?
H6A C6 H6C 109.5 . . ?
H6B C6 H6C 109.5 . . ?
Si1 C7 H7A 109.5 . . ?
Si1 C7 H7B 109.5 . . ?
H7A C7 H7B 109.5 . . ?
Si1 C7 H7C 109.5 . . ?
H7A C7 H7C 109.5 . . ?
H7B C7 H7C 109.5 . . ?
C9 C8 C12 115.3(7) . . ?
C9 C8 Si1 120.7(6) . . ?
C12 C8 Si1 123.9(6) . . ?
C10 C9 C8 120.4(8) . . ?
C10 C9 H9A 119.8 . . ?
C8 C9 H9A 119.8 . . ?
N2 C10 C9 124.8(8) . . ?
N2 C10 H10A 117.6 . . ?
C9 C10 H10A 117.6 . . ?
N2 C11 C12 121.2(7) . . ?
N2 C11 H11A 119.4 . . ?
C12 C11 H11A 119.4 . . ?
C8 C12 C11 121.2(7) . . ?
C8 C12 H12A 119.4 . . ?
C11 C12 H12A 119.4 . . ?
S1 C13 H13A 109.5 . . ?
S1 C13 H13B 109.5 . . ?
H13A C13 H13B 109.5 . . ?
S1 C13 H13C 109.5 . . ?
H13A C13 H13C 109.5 . . ?
H13B C13 H13C 109.5 . . ?
S1 C14 H14A 109.5 . . ?
S1 C14 H14B 109.5 . . ?
H14A C14 H14B 109.5 . . ?
S1 C14 H14C 109.5 . . ?
H14A C14 H14C 109.5 . . ?
H14B C14 H14C 109.5 . . ?
S2 C15 H15A 109.5 . . ?
S2 C15 H15B 109.5 . . ?
H15A C15 H15B 109.5 . . ?
S2 C15 H15C 109.5 . . ?
H15A C15 H15C 109.5 . . ?
H15B C15 H15C 109.5 . . ?
S2 C16 H16A 109.5 . . ?
S2 C16 H16B 109.5 . . ?
H16A C16 H16B 109.5 . . ?
S2 C16 H16C 109.5 . . ?
H16A C16 H16C 109.5 . . ?
H16B C16 H16C 109.5 . . ?

_diffrn_measured_fraction_theta_max 0.999
_diffrn_reflns_theta_full        26.00
_diffrn_measured_fraction_theta_full 0.999
_refine_diff_density_max         0.729
_refine_diff_density_min         -0.821
_refine_diff_density_rms         0.108
