####################################################################### 
# 
# This file contains crystal structure data downloaded from the 
# Cambridge Structural Database (CSD) hosted by the Cambridge 
# Crystallographic Data Centre (CCDC).
# 
# Full information about CCDC data access policies and citation 
# guidelines are available at http://www.ccdc.cam.ac.uk/access/V1 
# 
# Audit and citation data items may have been added by the CCDC. 
# Please retain this information to preserve the provenance of 
# this file and to allow appropriate attribution of the data. 
# 
#######################################################################

data_aa
_audit_block_doi                 10.5517/cc10fny1
_database_code_depnum_ccdc_archive 'CCDC 936663'
loop_
_citation_id
_citation_doi
_citation_year
1 10.1016/j.molstruc.2013.05.063 2013
_audit_update_record             
;
2013-04-29 deposited with the CCDC.	2024-07-10 downloaded from the CCDC.
;

_audit_creation_method           SHELXL-97
_chemical_name_systematic        
; 
 ? 
;
_chemical_name_common            ?
_chemical_melting_point          ?
_chemical_formula_moiety         ?
_chemical_formula_sum            'C16 H26 Cl2 Cu N2 O2 S2 Si'
_chemical_formula_weight         505.04

loop_
_atom_type_symbol
_atom_type_description
_atom_type_scat_dispersion_real
_atom_type_scat_dispersion_imag
_atom_type_scat_source
C C 0.0033 0.0016 'International Tables Vol C Tables 4.2.6.8 and 6.1.1.4'
H H 0.0000 0.0000 'International Tables Vol C Tables 4.2.6.8 and 6.1.1.4'
N N 0.0061 0.0033 'International Tables Vol C Tables 4.2.6.8 and 6.1.1.4'
O O 0.0106 0.0060 'International Tables Vol C Tables 4.2.6.8 and 6.1.1.4'
Si Si 0.0817 0.0704 'International Tables Vol C Tables 4.2.6.8 and 6.1.1.4'
S S 0.1246 0.1234 'International Tables Vol C Tables 4.2.6.8 and 6.1.1.4'
Cl Cl 0.1484 0.1585 'International Tables Vol C Tables 4.2.6.8 and 6.1.1.4'
Cu Cu 0.3201 1.2651 'International Tables Vol C Tables 4.2.6.8 and 6.1.1.4'

_symmetry_cell_setting           ?
_symmetry_space_group_name_H-M   ?

loop_
_symmetry_equiv_pos_as_xyz
'x, y, z'
'-x, -y, z+1/2'
'-y, x, z+3/4'
'y, -x, z+1/4'

_cell_length_a                   11.8350(3)
_cell_length_b                   11.8350(3)
_cell_length_c                   15.5684(13)
_cell_angle_alpha                90.00
_cell_angle_beta                 90.00
_cell_angle_gamma                90.00
_cell_volume                     2180.6(2)
_cell_formula_units_Z            4
_cell_measurement_temperature    173(2)
_cell_measurement_reflns_used    ?
_cell_measurement_theta_min      ?
_cell_measurement_theta_max      ?

_exptl_crystal_description       ?
_exptl_crystal_colour            ?
_exptl_crystal_size_max          0.42
_exptl_crystal_size_mid          0.40
_exptl_crystal_size_min          0.38
_exptl_crystal_density_meas      ?
_exptl_crystal_density_diffrn    1.538
_exptl_crystal_density_method    'not measured'
_exptl_crystal_F_000             1044
_exptl_absorpt_coefficient_mu    1.507
_exptl_absorpt_correction_type   ?
_exptl_absorpt_correction_T_min  0.5702
_exptl_absorpt_correction_T_max  0.5982
_exptl_absorpt_process_details   ?

_exptl_special_details           
; 
 ? 
;

_diffrn_ambient_temperature      173(2)
_diffrn_radiation_wavelength     0.71073
_diffrn_radiation_type           MoK\a
_diffrn_radiation_source         'fine-focus sealed tube'
_diffrn_radiation_monochromator  graphite
_diffrn_measurement_device_type  ?
_diffrn_measurement_method       ?
_diffrn_detector_area_resol_mean ?
_diffrn_standards_number         ?
_diffrn_standards_interval_count ?
_diffrn_standards_interval_time  ?
_diffrn_standards_decay_%        ?
_diffrn_reflns_number            9396
_diffrn_reflns_av_R_equivalents  0.0820
_diffrn_reflns_av_sigmaI/netI    0.1188
_diffrn_reflns_limit_h_min       -14
_diffrn_reflns_limit_h_max       14
_diffrn_reflns_limit_k_min       -11
_diffrn_reflns_limit_k_max       14
_diffrn_reflns_limit_l_min       -16
_diffrn_reflns_limit_l_max       19
_diffrn_reflns_theta_min         2.16
_diffrn_reflns_theta_max         25.99
_reflns_number_total             3937
_reflns_number_gt                2936
_reflns_threshold_expression     >2sigma(I)

_computing_data_collection       ?
_computing_cell_refinement       ?
_computing_data_reduction        ?
_computing_structure_solution    'SHELXS-97 (Sheldrick, 1990)'
_computing_structure_refinement  'SHELXL-97 (Sheldrick, 1997)'
_computing_molecular_graphics    ?
_computing_publication_material  ?

_refine_special_details          
; 
 Refinement of F^2^ against ALL reflections.  The weighted R-factor wR and 
 goodness of fit S are based on F^2^, conventional R-factors R are based 
 on F, with F set to zero for negative F^2^. The threshold expression of 
 F^2^ > 2sigma(F^2^) is used only for calculating R-factors(gt) etc. and is 
 not relevant to the choice of reflections for refinement.  R-factors based 
 on F^2^ are statistically about twice as large as those based on F, and R- 
 factors based on ALL data will be even larger. 
;

_refine_ls_structure_factor_coef Fsqd
_refine_ls_matrix_type           full
_refine_ls_weighting_scheme      calc
_refine_ls_weighting_details     
'calc w=1/[\s^2^(Fo^2^)+(0.0575P)^2^+5.3512P] where P=(Fo^2^+2Fc^2^)/3'
_atom_sites_solution_primary     direct
_atom_sites_solution_secondary   difmap
_atom_sites_solution_hydrogens   geom
_refine_ls_hydrogen_treatment    mixed
_refine_ls_extinction_method     none
_refine_ls_extinction_coef       ?
_refine_ls_abs_structure_details 'Flack H D (1983), Acta Cryst. A39, 876-881'
_refine_ls_abs_structure_Flack   0.01(3)
_refine_ls_number_reflns         3937
_refine_ls_number_parameters     235
_refine_ls_number_restraints     1
_refine_ls_R_factor_all          0.0965
_refine_ls_R_factor_gt           0.0682
_refine_ls_wR_factor_ref         0.1663
_refine_ls_wR_factor_gt          0.1496
_refine_ls_goodness_of_fit_ref   1.037
_refine_ls_restrained_S_all      1.037
_refine_ls_shift/su_max          0.000
_refine_ls_shift/su_mean         0.000

loop_
_atom_site_label
_atom_site_type_symbol
_atom_site_fract_x
_atom_site_fract_y
_atom_site_fract_z
_atom_site_U_iso_or_equiv
_atom_site_adp_type
_atom_site_occupancy
_atom_site_symmetry_multiplicity
_atom_site_calc_flag
_atom_site_refinement_flags
_atom_site_disorder_assembly
_atom_site_disorder_group
Cu1 Cu -0.04399(9) -0.32793(8) -0.20536(7) 0.0254(3) Uani 1 1 d . . .
Si1 Si 0.15706(19) 0.18648(19) -0.10409(16) 0.0213(5) Uani 1 1 d . . .
Cl1 Cl 0.0430(3) -0.3987(2) -0.08604(18) 0.0552(8) Uani 1 1 d . . .
Cl2 Cl -0.19613(19) -0.25296(18) -0.27630(16) 0.0317(5) Uani 1 1 d . . .
S1 S 0.1765(2) -0.4267(2) -0.31393(19) 0.0450(7) Uani 1 1 d . . .
S2 S 0.4037(6) 0.4468(6) -0.0984(7) 0.174(4) Uani 1 1 d . . .
O1 O 0.0877(5) -0.3350(5) -0.3096(4) 0.0304(15) Uani 1 1 d . . .
O2 O 0.5313(14) 0.3999(12) -0.0402(12) 0.167(7) Uani 1 1 d . . .
N1 N 0.0109(6) -0.1710(6) -0.1723(5) 0.0281(18) Uani 1 1 d . . .
N2 N 0.5160(6) 0.0934(6) 0.0076(5) 0.0214(16) Uani 1 1 d . . .
C1 C -0.0576(8) -0.0902(7) -0.1403(6) 0.027(2) Uani 1 1 d . . .
H1A H -0.1359 -0.1058 -0.1339 0.033 Uiso 1 1 calc R . .
C2 C -0.0172(8) 0.0144(8) -0.1167(6) 0.028(2) Uani 1 1 d . . .
H2A H -0.0675 0.0682 -0.0925 0.033 Uiso 1 1 calc R . .
C3 C 0.0962(7) 0.0429(7) -0.1277(6) 0.023(2) Uani 1 1 d . . .
C4 C 0.1642(7) -0.0419(7) -0.1616(7) 0.029(2) Uani 1 1 d . . .
H4A H 0.2422 -0.0280 -0.1709 0.034 Uiso 1 1 calc R . .
C5 C 0.1192(7) -0.1463(8) -0.1818(6) 0.033(2) Uani 1 1 d . . .
H5A H 0.1683 -0.2030 -0.2035 0.039 Uiso 1 1 calc R . .
C6 C 0.0702(7) 0.2663(7) -0.0252(7) 0.033(2) Uani 1 1 d . . .
H6A H -0.0050 0.2801 -0.0493 0.040 Uiso 1 1 calc R . .
H6B H 0.1068 0.3386 -0.0124 0.040 Uiso 1 1 calc R . .
H6C H 0.0630 0.2222 0.0278 0.040 Uiso 1 1 calc R . .
C7 C 0.1726(7) 0.2621(7) -0.2072(7) 0.035(2) Uani 1 1 d . . .
H7A H 0.0977 0.2768 -0.2317 0.042 Uiso 1 1 calc R . .
H7B H 0.2166 0.2157 -0.2472 0.042 Uiso 1 1 calc R . .
H7C H 0.2117 0.3340 -0.1975 0.042 Uiso 1 1 calc R . .
C8 C 0.3028(7) 0.1594(7) -0.0583(6) 0.0224(18) Uani 1 1 d . . .
C9 C 0.3943(8) 0.1335(7) -0.1129(6) 0.030(2) Uani 1 1 d . . .
H9A H 0.3852 0.1358 -0.1735 0.036 Uiso 1 1 calc R . .
C10 C 0.4974(7) 0.1047(8) -0.0774(6) 0.028(2) Uani 1 1 d . . .
H10A H 0.5591 0.0922 -0.1152 0.034 Uiso 1 1 calc R . .
C11 C 0.4311(7) 0.1192(7) 0.0592(6) 0.027(2) Uani 1 1 d . . .
H11A H 0.4435 0.1164 0.1195 0.032 Uiso 1 1 calc R . .
C12 C 0.3245(7) 0.1502(7) 0.0298(6) 0.030(2) Uani 1 1 d . . .
H12A H 0.2658 0.1653 0.0699 0.036 Uiso 1 1 calc R . .
C13 C 0.3093(9) -0.3549(11) -0.3162(9) 0.058(4) Uani 1 1 d . . .
H13A H 0.3252 -0.3230 -0.2593 0.070 Uiso 1 1 calc R . .
H13B H 0.3065 -0.2939 -0.3587 0.070 Uiso 1 1 calc R . .
H13C H 0.3692 -0.4083 -0.3317 0.070 Uiso 1 1 calc R . .
C14 C 0.1760(10) -0.4739(10) -0.4236(8) 0.061(4) Uani 1 1 d . . .
H14A H 0.1063 -0.5161 -0.4350 0.074 Uiso 1 1 calc R . .
H14B H 0.2414 -0.5229 -0.4336 0.074 Uiso 1 1 calc R . .
H14C H 0.1800 -0.4084 -0.4620 0.074 Uiso 1 1 calc R . .
C15 C 0.305(2) 0.491(3) -0.014(3) 0.26(2) Uani 1 1 d . . .
H15A H 0.3080 0.5732 -0.0075 0.311 Uiso 1 1 calc R . .
H15B H 0.3267 0.4552 0.0406 0.311 Uiso 1 1 calc R . .
H15C H 0.2284 0.4678 -0.0293 0.311 Uiso 1 1 calc R . .
C16 C 0.421(2) 0.5541(13) -0.1375(12) 0.186(15) Uani 1 1 d . . .
H16A H 0.3509 0.5776 -0.1665 0.224 Uiso 1 1 calc R . .
H16B H 0.4819 0.5489 -0.1795 0.224 Uiso 1 1 calc R . .
H16C H 0.4403 0.6097 -0.0934 0.224 Uiso 1 1 calc R . .

loop_
_atom_site_aniso_label
_atom_site_aniso_U_11
_atom_site_aniso_U_22
_atom_site_aniso_U_33
_atom_site_aniso_U_23
_atom_site_aniso_U_13
_atom_site_aniso_U_12
Cu1 0.0319(6) 0.0191(5) 0.0251(6) -0.0006(5) -0.0039(5) -0.0027(5)
Si1 0.0185(11) 0.0208(12) 0.0247(13) -0.0006(10) -0.0015(10) 0.0024(9)
Cl1 0.090(2) 0.0321(14) 0.0434(18) 0.0064(12) -0.0393(16) -0.0146(14)
Cl2 0.0351(12) 0.0269(12) 0.0331(13) 0.0011(10) -0.0081(10) -0.0002(10)
S1 0.0568(18) 0.0316(13) 0.0466(17) 0.0038(12) 0.0096(14) 0.0104(12)
S2 0.136(5) 0.106(4) 0.280(10) -0.011(6) -0.094(6) -0.012(4)
O1 0.027(3) 0.023(3) 0.042(4) -0.005(3) 0.000(3) -0.004(3)
O2 0.179(15) 0.116(11) 0.207(18) 0.006(11) -0.101(14) 0.017(10)
N1 0.030(4) 0.029(4) 0.025(4) -0.004(3) 0.003(3) 0.000(3)
N2 0.017(4) 0.028(4) 0.019(4) -0.003(3) 0.001(3) -0.003(3)
C1 0.025(5) 0.028(5) 0.029(5) -0.005(4) 0.002(4) -0.001(4)
C2 0.027(5) 0.029(5) 0.027(5) 0.002(4) 0.004(4) -0.001(4)
C3 0.028(5) 0.024(5) 0.018(5) -0.001(4) 0.001(4) 0.002(4)
C4 0.018(4) 0.022(5) 0.046(6) -0.004(4) -0.001(4) 0.003(4)
C5 0.022(5) 0.032(5) 0.044(7) -0.015(4) 0.003(4) 0.007(4)
C6 0.024(5) 0.024(5) 0.052(6) -0.011(4) -0.010(4) 0.003(4)
C7 0.019(4) 0.034(5) 0.053(7) 0.006(5) -0.002(5) -0.005(4)
C8 0.017(4) 0.018(4) 0.033(5) -0.002(4) -0.001(4) 0.005(3)
C9 0.031(5) 0.034(5) 0.024(5) 0.001(4) -0.008(4) 0.003(4)
C10 0.016(4) 0.038(5) 0.031(5) 0.008(4) 0.003(4) 0.002(4)
C11 0.033(5) 0.029(5) 0.019(5) 0.003(4) 0.000(4) -0.004(4)
C12 0.032(5) 0.027(5) 0.031(6) 0.001(4) 0.006(4) 0.013(4)
C13 0.032(6) 0.074(8) 0.069(9) -0.021(7) -0.021(6) 0.005(6)
C14 0.057(7) 0.051(7) 0.077(10) -0.043(7) 0.021(7) -0.015(6)
C15 0.13(2) 0.28(4) 0.37(5) -0.02(4) 0.07(3) 0.11(2)
C16 0.39(4) 0.049(10) 0.116(17) 0.053(10) -0.16(2) -0.099(16)

_geom_special_details            
; 
 All esds (except the esd in the dihedral angle between two l.s. planes) 
 are estimated using the full covariance matrix.  The cell esds are taken 
 into account individually in the estimation of esds in distances, angles 
 and torsion angles; correlations between esds in cell parameters are only 
 used when they are defined by crystal symmetry.  An approximate (isotropic) 
 treatment of cell esds is used for estimating esds involving l.s. planes. 
;

loop_
_geom_bond_atom_site_label_1
_geom_bond_atom_site_label_2
_geom_bond_distance
_geom_bond_site_symmetry_2
_geom_bond_publ_flag
Cu1 N2 2.022(7) 3_544 ?
Cu1 N1 2.034(7) . ?
Cu1 O1 2.252(6) . ?
Cu1 Cl1 2.283(3) . ?
Cu1 Cl2 2.291(2) . ?
Si1 C7 1.847(10) . ?
Si1 C6 1.860(10) . ?
Si1 C3 1.882(9) . ?
Si1 C8 1.894(8) . ?
S1 O1 1.512(6) . ?
S1 C13 1.788(11) . ?
S1 C14 1.796(12) . ?
S2 C16 1.423(15) . ?
S2 C15 1.83(3) . ?
S2 O2 1.847(14) . ?
N1 C5 1.323(11) . ?
N1 C1 1.349(11) . ?
N2 C11 1.323(11) . ?
N2 C10 1.347(11) . ?
N2 Cu1 2.022(7) 4_655 ?
C1 C2 1.377(12) . ?
C1 H1A 0.9500 . ?
C2 C3 1.394(12) . ?
C2 H2A 0.9500 . ?
C3 C4 1.390(12) . ?
C4 C5 1.381(12) . ?
C4 H4A 0.9500 . ?
C5 H5A 0.9500 . ?
C6 H6A 0.9800 . ?
C6 H6B 0.9800 . ?
C6 H6C 0.9800 . ?
C7 H7A 0.9800 . ?
C7 H7B 0.9800 . ?
C7 H7C 0.9800 . ?
C8 C12 1.399(13) . ?
C8 C9 1.411(12) . ?
C9 C10 1.382(12) . ?
C9 H9A 0.9500 . ?
C10 H10A 0.9500 . ?
C11 C12 1.392(12) . ?
C11 H11A 0.9500 . ?
C12 H12A 0.9500 . ?
C13 H13A 0.9800 . ?
C13 H13B 0.9800 . ?
C13 H13C 0.9800 . ?
C14 H14A 0.9800 . ?
C14 H14B 0.9800 . ?
C14 H14C 0.9800 . ?
C15 H15A 0.9800 . ?
C15 H15B 0.9800 . ?
C15 H15C 0.9800 . ?
C16 H16A 0.9800 . ?
C16 H16B 0.9800 . ?
C16 H16C 0.9800 . ?

loop_
_geom_angle_atom_site_label_1
_geom_angle_atom_site_label_2
_geom_angle_atom_site_label_3
_geom_angle
_geom_angle_site_symmetry_1
_geom_angle_site_symmetry_3
_geom_angle_publ_flag
N2 Cu1 N1 177.5(3) 3_544 . ?
N2 Cu1 O1 87.7(2) 3_544 . ?
N1 Cu1 O1 89.7(3) . . ?
N2 Cu1 Cl1 91.6(2) 3_544 . ?
N1 Cu1 Cl1 89.2(2) . . ?
O1 Cu1 Cl1 105.11(19) . . ?
N2 Cu1 Cl2 89.4(2) 3_544 . ?
N1 Cu1 Cl2 91.1(2) . . ?
O1 Cu1 Cl2 102.19(18) . . ?
Cl1 Cu1 Cl2 152.70(12) . . ?
C7 Si1 C6 112.5(4) . . ?
C7 Si1 C3 107.8(4) . . ?
C6 Si1 C3 112.1(4) . . ?
C7 Si1 C8 108.6(4) . . ?
C6 Si1 C8 109.9(4) . . ?
C3 Si1 C8 105.6(4) . . ?
O1 S1 C13 105.7(5) . . ?
O1 S1 C14 105.3(5) . . ?
C13 S1 C14 97.6(6) . . ?
C16 S2 C15 98.2(15) . . ?
C16 S2 O2 111.3(11) . . ?
C15 S2 O2 104.6(13) . . ?
S1 O1 Cu1 122.7(4) . . ?
C5 N1 C1 117.8(8) . . ?
C5 N1 Cu1 118.9(6) . . ?
C1 N1 Cu1 123.3(6) . . ?
C11 N2 C10 116.7(7) . . ?
C11 N2 Cu1 126.0(6) . 4_655 ?
C10 N2 Cu1 117.3(6) . 4_655 ?
N1 C1 C2 121.8(8) . . ?
N1 C1 H1A 119.1 . . ?
C2 C1 H1A 119.1 . . ?
C1 C2 C3 121.3(8) . . ?
C1 C2 H2A 119.4 . . ?
C3 C2 H2A 119.4 . . ?
C4 C3 C2 115.4(8) . . ?
C4 C3 Si1 120.3(7) . . ?
C2 C3 Si1 124.2(7) . . ?
C5 C4 C3 120.6(8) . . ?
C5 C4 H4A 119.7 . . ?
C3 C4 H4A 119.7 . . ?
N1 C5 C4 123.1(8) . . ?
N1 C5 H5A 118.5 . . ?
C4 C5 H5A 118.5 . . ?
Si1 C6 H6A 109.5 . . ?
Si1 C6 H6B 109.5 . . ?
H6A C6 H6B 109.5 . . ?
Si1 C6 H6C 109.5 . . ?
H6A C6 H6C 109.5 . . ?
H6B C6 H6C 109.5 . . ?
Si1 C7 H7A 109.5 . . ?
Si1 C7 H7B 109.5 . . ?
H7A C7 H7B 109.5 . . ?
Si1 C7 H7C 109.5 . . ?
H7A C7 H7C 109.5 . . ?
H7B C7 H7C 109.5 . . ?
C12 C8 C9 115.7(8) . . ?
C12 C8 Si1 123.3(7) . . ?
C9 C8 Si1 120.6(7) . . ?
C10 C9 C8 119.3(9) . . ?
C10 C9 H9A 120.4 . . ?
C8 C9 H9A 120.4 . . ?
N2 C10 C9 124.2(9) . . ?
N2 C10 H10A 117.9 . . ?
C9 C10 H10A 117.9 . . ?
N2 C11 C12 123.3(9) . . ?
N2 C11 H11A 118.3 . . ?
C12 C11 H11A 118.3 . . ?
C11 C12 C8 120.6(8) . . ?
C11 C12 H12A 119.7 . . ?
C8 C12 H12A 119.7 . . ?
S1 C13 H13A 109.5 . . ?
S1 C13 H13B 109.5 . . ?
H13A C13 H13B 109.5 . . ?
S1 C13 H13C 109.5 . . ?
H13A C13 H13C 109.5 . . ?
H13B C13 H13C 109.5 . . ?
S1 C14 H14A 109.5 . . ?
S1 C14 H14B 109.5 . . ?
H14A C14 H14B 109.5 . . ?
S1 C14 H14C 109.5 . . ?
H14A C14 H14C 109.5 . . ?
H14B C14 H14C 109.5 . . ?
S2 C15 H15A 109.5 . . ?
S2 C15 H15B 109.5 . . ?
H15A C15 H15B 109.5 . . ?
S2 C15 H15C 109.5 . . ?
H15A C15 H15C 109.5 . . ?
H15B C15 H15C 109.5 . . ?
S2 C16 H16A 109.5 . . ?
S2 C16 H16B 109.5 . . ?
H16A C16 H16B 109.5 . . ?
S2 C16 H16C 109.5 . . ?
H16A C16 H16C 109.5 . . ?
H16B C16 H16C 109.5 . . ?

_diffrn_measured_fraction_theta_max 1.000
_diffrn_reflns_theta_full        25.99
_diffrn_measured_fraction_theta_full 1.000
_refine_diff_density_max         0.458
_refine_diff_density_min         -0.887
_refine_diff_density_rms         0.114
