####################################################################### 
# 
# This file contains crystal structure data downloaded from the 
# Cambridge Structural Database (CSD) hosted by the Cambridge 
# Crystallographic Data Centre (CCDC).
# 
# Full information about CCDC data access policies and citation 
# guidelines are available at http://www.ccdc.cam.ac.uk/access/V1 
# 
# Audit and citation data items may have been added by the CCDC. 
# Please retain this information to preserve the provenance of 
# this file and to allow appropriate attribution of the data. 
# 
#######################################################################

data_2-VOBDC
_audit_block_doi                 10.5517/ccnsj86
_database_code_depnum_ccdc_archive 'CCDC 619388'
loop_
_citation_id
_citation_doi
_citation_year
1 10.1002/anie.200602556 2006
_audit_update_record             
;
2006-08-30 deposited with the CCDC.	2024-07-10 downloaded from the CCDC.
;

_audit_creation_method           SHELXL-97
_chemical_name_systematic        
;
?
;
_chemical_name_common            ?
_chemical_melting_point          ?
_chemical_formula_moiety         ?
_chemical_formula_sum            'C8 H4 O5 V'
_chemical_formula_weight         231.05

loop_
_atom_type_symbol
_atom_type_description
_atom_type_scat_dispersion_real
_atom_type_scat_dispersion_imag
_atom_type_scat_source
C C 0.0033 0.0016 'International Tables Vol C Tables 4.2.6.8 and 6.1.1.4'
O O 0.0106 0.0060 'International Tables Vol C Tables 4.2.6.8 and 6.1.1.4'
V V 0.3005 0.5294 'International Tables Vol C Tables 4.2.6.8 and 6.1.1.4'
H H 0.0000 0.0000 'International Tables Vol C Tables 4.2.6.8 and 6.1.1.4'

_symmetry_cell_setting           ?
_symmetry_space_group_name_H-M   Pnma

loop_
_symmetry_equiv_pos_as_xyz
'x, y, z'
'-x+1/2, -y, z+1/2'
'-x, y+1/2, -z'
'x+1/2, -y+1/2, -z+1/2'
'-x, -y, -z'
'x-1/2, y, -z-1/2'
'x, -y-1/2, z'
'-x-1/2, y-1/2, z-1/2'

_cell_length_a                   6.8249(8)
_cell_length_b                   16.073(2)
_cell_length_c                   13.9951(17)
_cell_angle_alpha                90.00
_cell_angle_beta                 90.00
_cell_angle_gamma                90.00
_cell_volume                     1535.2(3)
_cell_formula_units_Z            4
_cell_measurement_temperature    223(2)
_cell_measurement_reflns_used    ?
_cell_measurement_theta_min      ?
_cell_measurement_theta_max      ?

_exptl_crystal_description       prism
_exptl_crystal_colour            brown
_exptl_crystal_size_max          0.19
_exptl_crystal_size_mid          0.16
_exptl_crystal_size_min          0.16
_exptl_crystal_density_meas      ?
_exptl_crystal_density_diffrn    1.000
_exptl_crystal_density_method    'not measured'
_exptl_crystal_F_000             460
_exptl_absorpt_coefficient_mu    0.640
_exptl_absorpt_correction_type   multi-scan
_exptl_absorpt_correction_T_min  0.828
_exptl_absorpt_correction_T_max  0.894
_exptl_absorpt_process_details   Bruker-ApexII-software

_exptl_special_details           
;
?
;

_diffrn_ambient_temperature      223(2)
_diffrn_radiation_wavelength     0.71073
_diffrn_radiation_type           MoK\a
_diffrn_radiation_source         'fine-focus sealed tube'
_diffrn_radiation_monochromator  graphite
_diffrn_measurement_device_type  Bruker-ApexII
_diffrn_measurement_method       narrow-frame
_diffrn_detector_area_resol_mean ?
_diffrn_standards_number         ?
_diffrn_standards_interval_count ?
_diffrn_standards_interval_time  ?
_diffrn_standards_decay_%        ?
_diffrn_reflns_number            12048
_diffrn_reflns_av_R_equivalents  0.0477
_diffrn_reflns_av_sigmaI/netI    0.0344
_diffrn_reflns_limit_h_min       -8
_diffrn_reflns_limit_h_max       8
_diffrn_reflns_limit_k_min       -20
_diffrn_reflns_limit_k_max       20
_diffrn_reflns_limit_l_min       -18
_diffrn_reflns_limit_l_max       18
_diffrn_reflns_theta_min         1.93
_diffrn_reflns_theta_max         28.25
_reflns_number_total             1904
_reflns_number_gt                1606
_reflns_threshold_expression     >2sigma(I)

_computing_data_collection       ?
_computing_cell_refinement       ?
_computing_data_reduction        ?
_computing_structure_solution    ?
_computing_structure_refinement  'SHELXL-97 (Sheldrick, 1997)'
_computing_molecular_graphics    ?
_computing_publication_material  ?

_refine_special_details          
;
Refinement of F^2^ against ALL reflections. The weighted R-factor wR and
goodness of fit S are based on F^2^, conventional R-factors R are based
on F, with F set to zero for negative F^2^. The threshold expression of
F^2^ > 2sigma(F^2^) is used only for calculating R-factors(gt) etc. and is
not relevant to the choice of reflections for refinement. R-factors based
on F^2^ are statistically about twice as large as those based on F, and R-
factors based on ALL data will be even larger.
;

_refine_ls_structure_factor_coef Fsqd
_refine_ls_matrix_type           full
_refine_ls_weighting_scheme      calc
_refine_ls_weighting_details     
'calc w=1/[\s^2^(Fo^2^)+(0.0684P)^2^+0.0000P] where P=(Fo^2^+2Fc^2^)/3'
_atom_sites_solution_primary     direct
_atom_sites_solution_secondary   difmap
_atom_sites_solution_hydrogens   geom
_refine_ls_hydrogen_treatment    constr
_refine_ls_extinction_method     none
_refine_ls_extinction_coef       ?
_refine_ls_number_reflns         1904
_refine_ls_number_parameters     67
_refine_ls_number_restraints     0
_refine_ls_R_factor_all          0.0443
_refine_ls_R_factor_gt           0.0357
_refine_ls_wR_factor_ref         0.1025
_refine_ls_wR_factor_gt          0.0984
_refine_ls_goodness_of_fit_ref   1.009
_refine_ls_restrained_S_all      1.009
_refine_ls_shift/su_max          0.001
_refine_ls_shift/su_mean         0.000

loop_
_atom_site_label
_atom_site_type_symbol
_atom_site_fract_x
_atom_site_fract_y
_atom_site_fract_z
_atom_site_U_iso_or_equiv
_atom_site_adp_type
_atom_site_occupancy
_atom_site_symmetry_multiplicity
_atom_site_calc_flag
_atom_site_refinement_flags
_atom_site_disorder_assembly
_atom_site_disorder_group
V1 V 0.18550(5) 0.2500 0.76388(3) 0.01263(14) Uani 1 2 d S . .
O1 O 0.30720(17) 0.33745(8) 0.84562(10) 0.0266(3) Uani 1 1 d . . .
O3 O -0.0313(2) 0.2500 0.80951(11) 0.0180(4) Uani 1 2 d S . .
O2 O 0.13409(18) 0.33770(8) 0.66790(9) 0.0271(3) Uani 1 1 d . . .
C1 C 0.4749(2) 0.36436(11) 0.86584(12) 0.0209(4) Uani 1 1 d . . .
C2 C 0.4877(3) 0.43483(12) 0.93522(14) 0.0264(4) Uani 1 1 d . . .
C4 C 0.6676(3) 0.46729(15) 0.96025(18) 0.0490(7) Uani 1 1 d . . .
H4 H 0.7811 0.4453 0.9336 0.059 Uiso 1 1 calc R . .
C3 C 0.3197(3) 0.46794(15) 0.97546(18) 0.0466(7) Uani 1 1 d . . .
H3 H 0.1977 0.4464 0.9591 0.056 Uiso 1 1 calc R . .

loop_
_atom_site_aniso_label
_atom_site_aniso_U_11
_atom_site_aniso_U_22
_atom_site_aniso_U_33
_atom_site_aniso_U_23
_atom_site_aniso_U_13
_atom_site_aniso_U_12
V1 0.0110(2) 0.0121(2) 0.0148(2) 0.000 -0.00080(14) 0.000
O1 0.0177(6) 0.0290(7) 0.0331(7) -0.0191(6) 0.0015(5) -0.0044(5)
O3 0.0148(8) 0.0223(8) 0.0169(9) 0.000 -0.0007(6) 0.000
O2 0.0174(6) 0.0288(7) 0.0352(8) 0.0196(6) 0.0015(5) 0.0025(5)
C1 0.0203(9) 0.0189(8) 0.0235(9) -0.0078(7) 0.0001(7) 0.0001(7)
C2 0.0186(8) 0.0256(9) 0.0349(10) -0.0179(8) -0.0012(7) -0.0009(7)
C4 0.0170(9) 0.0580(15) 0.0721(17) -0.0487(13) 0.0044(9) -0.0011(9)
C3 0.0165(9) 0.0574(14) 0.0660(16) -0.0443(13) 0.0012(9) -0.0076(9)

_geom_special_details            
;
All esds (except the esd in the dihedral angle between two l.s. planes)
are estimated using the full covariance matrix. The cell esds are taken
into account individually in the estimation of esds in distances, angles
and torsion angles; correlations between esds in cell parameters are only
used when they are defined by crystal symmetry. An approximate (isotropic)
treatment of cell esds is used for estimating esds involving l.s. planes.
;

loop_
_geom_bond_atom_site_label_1
_geom_bond_atom_site_label_2
_geom_bond_distance
_geom_bond_site_symmetry_2
_geom_bond_publ_flag
V1 O3 1.6117(16) . ?
V1 O2 1.9785(12) 7_565 ?
V1 O2 1.9785(12) . ?
V1 O1 1.9936(12) . ?
V1 O1 1.9936(12) 7_565 ?
V1 O3 2.1886(16) 6_657 ?
O1 C1 1.256(2) . ?
O3 V1 2.1886(16) 6_557 ?
O2 C1 1.260(2) 6_557 ?
C1 O2 1.260(2) 6_657 ?
C1 C2 1.494(2) . ?
C2 C4 1.379(3) . ?
C2 C3 1.384(3) . ?
C4 C3 1.379(3) 5_667 ?
C3 C4 1.379(3) 5_667 ?

loop_
_geom_angle_atom_site_label_1
_geom_angle_atom_site_label_2
_geom_angle_atom_site_label_3
_geom_angle
_geom_angle_site_symmetry_1
_geom_angle_site_symmetry_3
_geom_angle_publ_flag
O3 V1 O2 96.10(6) . 7_565 ?
O3 V1 O2 96.10(6) . . ?
O2 V1 O2 90.87(8) 7_565 . ?
O3 V1 O1 98.93(6) . . ?
O2 V1 O1 164.97(6) 7_565 . ?
O2 V1 O1 87.77(6) . . ?
O3 V1 O1 98.93(6) . 7_565 ?
O2 V1 O1 87.77(6) 7_565 7_565 ?
O2 V1 O1 164.97(6) . 7_565 ?
O1 V1 O1 89.67(8) . 7_565 ?
O3 V1 O3 175.35(5) . 6_657 ?
O2 V1 O3 80.67(5) 7_565 6_657 ?
O2 V1 O3 80.67(5) . 6_657 ?
O1 V1 O3 84.34(5) . 6_657 ?
O1 V1 O3 84.34(5) 7_565 6_657 ?
C1 O1 V1 138.75(11) . . ?
V1 O3 V1 128.67(9) . 6_557 ?
C1 O2 V1 130.53(11) 6_557 . ?
O1 C1 O2 125.76(15) . 6_657 ?
O1 C1 C2 117.41(15) . . ?
O2 C1 C2 116.82(15) 6_657 . ?
C4 C2 C3 119.25(16) . . ?
C4 C2 C1 120.23(16) . . ?
C3 C2 C1 120.52(16) . . ?
C2 C4 C3 120.50(18) . 5_667 ?
C4 C3 C2 120.25(17) 5_667 . ?

_diffrn_measured_fraction_theta_max 0.971
_diffrn_reflns_theta_full        28.25
_diffrn_measured_fraction_theta_full 0.971
_refine_diff_density_max         0.507
_refine_diff_density_min         -0.385
_refine_diff_density_rms         0.060
