####################################################################### 
# 
# This file contains crystal structure data downloaded from the 
# Cambridge Structural Database (CSD) hosted by the Cambridge 
# Crystallographic Data Centre (CCDC).
# 
# Full information about CCDC data access policies and citation 
# guidelines are available at http://www.ccdc.cam.ac.uk/access/V1 
# 
# Audit and citation data items may have been added by the CCDC. 
# Please retain this information to preserve the provenance of 
# this file and to allow appropriate attribution of the data. 
# 
#######################################################################

data_MOF69B
_audit_block_doi                 10.5517/cc5qx1t
_database_code_depnum_ccdc_archive 'CCDC 170966'
loop_
_citation_id
_citation_doi
_citation_year
1 10.1021/ja045123o 2005
2 10.1002/1521-3773(20020118)41:2<284::AID-ANIE284>3.0.CO;2-M 2002
_audit_update_record             
;
2001-09-14 deposited with the CCDC.	2024-07-10 downloaded from the CCDC.
;

_audit_creation_method           SHELXL-97
_chemical_name_systematic        
;
?
;
_chemical_name_common            ?
_chemical_melting_point          ?
_chemical_formula_moiety         ?
_chemical_formula_sum            'C44 H62 N4 O16 Zn3'
_chemical_formula_weight         1099.09

loop_
_atom_type_symbol
_atom_type_description
_atom_type_scat_dispersion_real
_atom_type_scat_dispersion_imag
_atom_type_scat_source
C C 0.0033 0.0016 'International Tables Vol C Tables 4.2.6.8 and 6.1.1.4'
H H 0.0000 0.0000 'International Tables Vol C Tables 4.2.6.8 and 6.1.1.4'
N N 0.0061 0.0033 'International Tables Vol C Tables 4.2.6.8 and 6.1.1.4'
O O 0.0106 0.0060 'International Tables Vol C Tables 4.2.6.8 and 6.1.1.4'
Zn Zn 0.2839 1.4301 'International Tables Vol C Tables 4.2.6.8 and 6.1.1.4'

_symmetry_cell_setting           monoclinic
_symmetry_space_group_name_H-M   C2/c

loop_
_symmetry_equiv_pos_as_xyz
'x, y, z'
'-x, y, -z+1/2'
'x+1/2, y+1/2, z'
'-x+1/2, y+1/2, -z+1/2'
'-x, -y, -z'
'x, -y, z-1/2'
'-x+1/2, -y+1/2, -z'
'x+1/2, -y+1/2, z-1/2'

_cell_length_a                   20.1658(15)
_cell_length_b                   18.5518(14)
_cell_length_c                   12.1580(9)
_cell_angle_alpha                90.00
_cell_angle_beta                 95.3310(10)
_cell_angle_gamma                90.00
_cell_volume                     4528.8(6)
_cell_formula_units_Z            4
_cell_measurement_temperature    158(2)
_cell_measurement_reflns_used    3055
_cell_measurement_theta_min      2.990
_cell_measurement_theta_max      24.392

_exptl_crystal_description       needle
_exptl_crystal_colour            colorless
_exptl_crystal_size_max          .12
_exptl_crystal_size_mid          .02
_exptl_crystal_size_min          .02
_exptl_crystal_density_meas      ?
_exptl_crystal_density_diffrn    1.612
_exptl_crystal_density_method    'not measured'
_exptl_crystal_F_000             2288
_exptl_absorpt_coefficient_mu    1.654
_exptl_absorpt_correction_type   SADABS
_exptl_absorpt_correction_T_min  .746615
_exptl_absorpt_correction_T_max  .970459
_exptl_absorpt_process_details   ?

_exptl_special_details           
;
?
;

_diffrn_ambient_temperature      158(2)
_diffrn_radiation_wavelength     0.71073
_diffrn_radiation_type           MoK\a
_diffrn_radiation_source         'fine-focus sealed tube'
_diffrn_radiation_monochromator  graphite
_diffrn_measurement_device_type  'Siemens SMART CCD'
_diffrn_measurement_method       'phi and omega scan'
_diffrn_detector_area_resol_mean ?
_diffrn_standards_number         ?
_diffrn_standards_interval_count ?
_diffrn_standards_interval_time  ?
_diffrn_standards_decay_%        ?
_diffrn_reflns_number            20962
_diffrn_reflns_av_R_equivalents  0.0875
_diffrn_reflns_av_sigmaI/netI    0.0716
_diffrn_reflns_limit_h_min       -25
_diffrn_reflns_limit_h_max       25
_diffrn_reflns_limit_k_min       -23
_diffrn_reflns_limit_k_max       23
_diffrn_reflns_limit_l_min       -15
_diffrn_reflns_limit_l_max       15
_diffrn_reflns_theta_min         1.49
_diffrn_reflns_theta_max         26.43
_reflns_number_total             4647
_reflns_number_gt                2282
_reflns_threshold_expression     >2sigma(I)

_computing_data_collection       ?
_computing_cell_refinement       ?
_computing_data_reduction        ?
_computing_structure_solution    'SHELXS-97 (Sheldrick, 1990)'
_computing_structure_refinement  'SHELXL-97 (Sheldrick, 1997)'
_computing_molecular_graphics    ?
_computing_publication_material  ?

_refine_special_details          
;
Refinement of F^2^ against ALL reflections. The weighted R-factor wR and
goodness of fit S are based on F^2^, conventional R-factors R are based
on F, with F set to zero for negative F^2^. The threshold expression of
F^2^ > 2sigma(F^2^) is used only for calculating R-factors(gt) etc. and is
not relevant to the choice of reflections for refinement. R-factors based
on F^2^ are statistically about twice as large as those based on F, and R-
factors based on ALL data will be even larger.
;

_refine_ls_structure_factor_coef Fsqd
_refine_ls_matrix_type           full
_refine_ls_weighting_scheme      calc
_refine_ls_weighting_details     
'calc w=1/[\s^2^(Fo^2^)+(0.1106P)^2^+29.3306P] where P=(Fo^2^+2Fc^2^)/3'
_atom_sites_solution_primary     direct
_atom_sites_solution_secondary   difmap
_atom_sites_solution_hydrogens   geom
_refine_ls_hydrogen_treatment    mixed
_refine_ls_extinction_method     none
_refine_ls_extinction_coef       ?
_refine_ls_number_reflns         4647
_refine_ls_number_parameters     294
_refine_ls_number_restraints     49
_refine_ls_R_factor_all          0.1332
_refine_ls_R_factor_gt           0.0587
_refine_ls_wR_factor_ref         0.2257
_refine_ls_wR_factor_gt          0.1855
_refine_ls_goodness_of_fit_ref   1.032
_refine_ls_restrained_S_all      1.030
_refine_ls_shift/su_max          0.243
_refine_ls_shift/su_mean         0.025

loop_
_atom_site_label
_atom_site_type_symbol
_atom_site_fract_x
_atom_site_fract_y
_atom_site_fract_z
_atom_site_U_iso_or_equiv
_atom_site_adp_type
_atom_site_occupancy
_atom_site_symmetry_multiplicity
_atom_site_calc_flag
_atom_site_refinement_flags
_atom_site_disorder_assembly
_atom_site_disorder_group
Zn1 Zn 0.0000 0.0000 0.0000 0.0188(3) Uani 1 2 d S . .
Zn2 Zn 0.0000 -0.07877(6) 0.2500 0.0212(3) Uani 1 2 d S . .
Zn3 Zn 0.0000 0.07785(6) 0.2500 0.0202(3) Uani 1 2 d S . .
O1C O 0.0381(2) -0.0007(3) 0.1615(3) 0.0205(9) Uani 1 1 d D . .
H1O H 0.0788(10) -0.010(4) 0.162(6) 0.025 Uiso 1 1 d D . .
O1 O -0.0517(3) -0.1000(3) 0.0079(4) 0.0381(14) Uani 1 1 d . . .
O2 O -0.0711(2) -0.1353(3) 0.1773(4) 0.0319(13) Uani 1 1 d . . .
O3 O 0.0671(2) 0.1385(3) 0.3268(4) 0.0284(12) Uani 1 1 d . . .
O4 O 0.0873(2) 0.0556(3) 0.4601(4) 0.0312(12) Uani 1 1 d . . .
C1 C -0.0850(4) -0.1329(4) 0.0730(6) 0.0321(19) Uani 1 1 d . . .
C2 C -0.1452(4) -0.1745(4) 0.0290(6) 0.0333(19) Uani 1 1 d . . .
C3 C -0.1812(4) -0.2131(4) 0.0990(6) 0.0318(19) Uani 1 1 d . . .
H3 H -0.1672 -0.2141 0.1758 0.038 Uiso 1 1 calc R . .
C4 C -0.2393(4) -0.2517(5) 0.0579(6) 0.034(2) Uani 1 1 d . . .
C5 C -0.1652(4) -0.1732(5) -0.0865(6) 0.043(2) Uani 1 1 d . . .
H5 H -0.1393 -0.1479 -0.1353 0.052 Uiso 1 1 calc R . .
C6 C -0.2224(5) -0.2089(5) -0.1271(7) 0.047(2) Uani 1 1 d . . .
H6 H -0.2361 -0.2067 -0.2040 0.056 Uiso 1 1 calc R . .
C7 C 0.0987(4) 0.1150(4) 0.4135(6) 0.0283(18) Uani 1 1 d . . .
C8 C 0.1572(4) 0.1587(4) 0.4603(6) 0.0321(19) Uani 1 1 d . . .
C9 C 0.1959(4) 0.1355(5) 0.5580(6) 0.042(2) Uani 1 1 d . . .
H9 H 0.1844 0.0924 0.5938 0.050 Uiso 1 1 calc R . .
C10 C 0.2495(4) 0.1751(5) 0.6005(6) 0.043(2) Uani 1 1 d . . .
H10 H 0.2745 0.1591 0.6660 0.052 Uiso 1 1 calc R . .
C11 C 0.1755(4) 0.2206(4) 0.4101(6) 0.0309(19) Uani 1 1 d . . .
H11 H 0.1495 0.2367 0.3456 0.037 Uiso 1 1 calc R . .
C12 C 0.2317(4) 0.2614(4) 0.4503(6) 0.0313(18) Uani 1 1 d . . .
O1S O 0.1727(3) 0.0116(3) 0.2157(5) 0.0460(16) Uani 1 1 d D . .
N1S N 0.2579(4) 0.0008(5) 0.3452(7) 0.062(2) Uani 1 1 d D . .
H1S H 0.165(5) -0.043(5) 0.359(8) 0.074 Uiso 1 1 d . . .
C1S C 0.1953(4) -0.0085(5) 0.3062(7) 0.043(2) Uani 1 1 d D . .
C2S C 0.2831(7) -0.0269(8) 0.4612(10) 0.095(4) Uani 1 1 d D . .
H2SA H 0.3009 0.0143 0.5066 0.114 Uiso 1 1 calc R . .
H2SB H 0.2451 -0.0473 0.4969 0.114 Uiso 1 1 calc R . .
C3S C 0.3366(8) -0.0835(8) 0.4588(15) 0.141(7) Uani 1 1 d D . .
H3SA H 0.3506 -0.0992 0.5343 0.170 Uiso 1 1 calc R . .
H3SB H 0.3748 -0.0633 0.4253 0.170 Uiso 1 1 calc R . .
H3SC H 0.3190 -0.1249 0.4151 0.170 Uiso 1 1 calc R . .
C4S C 0.3052(7) 0.0350(12) 0.2744(15) 0.137(8) Uani 1 1 d . . .
H4SA H 0.2812 0.0507 0.2037 0.164 Uiso 1 1 calc R . .
H4SB H 0.3400 0.0000 0.2579 0.164 Uiso 1 1 calc R . .
C5S C 0.3375(14) 0.1006(16) 0.336(3) 0.304(19) Uani 1 1 d . . .
H5SA H 0.3690 0.1235 0.2902 0.364 Uiso 1 1 calc R . .
H5SB H 0.3612 0.0847 0.4058 0.364 Uiso 1 1 calc R . .
H5SC H 0.3029 0.1353 0.3512 0.364 Uiso 1 1 calc R . .
O2S O 0.498(5) 0.035(4) 0.184(7) 0.29(4) Uani 0.25 1 d PDU . .
N2S N 0.5000 0.155(2) 0.2500 0.20(2) Uani 0.50 2 d SPDU . .
C6S C 0.5000 0.084(3) 0.2500 0.31(6) Uani 0.50 2 d SPDU . .
C7S C 0.4884(15) 0.1867(17) 0.131(2) 0.138(14) Uani 0.50 1 d PDU . .
C8S C 0.5500(19) 0.230(2) 0.113(4) 0.057(13) Uani 0.25 1 d PDU . .
C8S' C 0.522(3) 0.211(4) 0.031(5) 0.12(3) Uani 0.25 1 d PDU . .
O1W O 0.477(3) 0.178(2) -0.171(5) 0.38(3) Uani 0.50 1 d PU . .

loop_
_atom_site_aniso_label
_atom_site_aniso_U_11
_atom_site_aniso_U_22
_atom_site_aniso_U_33
_atom_site_aniso_U_23
_atom_site_aniso_U_13
_atom_site_aniso_U_12
Zn1 0.0173(5) 0.0243(5) 0.0146(5) -0.0002(6) 0.0001(4) 0.0003(6)
Zn2 0.0217(6) 0.0248(7) 0.0161(6) 0.000 -0.0027(5) 0.000
Zn3 0.0200(6) 0.0232(7) 0.0164(6) 0.000 -0.0031(5) 0.000
O1C 0.015(2) 0.029(2) 0.017(2) 0.000(2) -0.0012(17) 0.004(3)
O1 0.037(3) 0.045(3) 0.031(3) 0.004(3) 0.002(3) -0.018(3)
O2 0.034(3) 0.036(3) 0.024(3) -0.001(2) -0.005(2) -0.014(3)
O3 0.027(3) 0.035(3) 0.021(3) 0.001(2) -0.008(2) -0.006(2)
O4 0.024(3) 0.038(3) 0.030(3) 0.001(2) 0.000(2) -0.008(2)
C1 0.030(4) 0.037(5) 0.028(4) 0.005(4) -0.005(3) -0.007(4)
C2 0.036(4) 0.039(5) 0.024(4) -0.001(4) -0.004(4) -0.010(4)
C3 0.033(4) 0.043(5) 0.018(4) -0.001(4) -0.005(3) -0.010(4)
C4 0.030(4) 0.048(5) 0.022(4) 0.001(4) -0.001(3) -0.016(4)
C5 0.046(5) 0.065(6) 0.018(4) 0.008(4) 0.002(4) -0.021(5)
C6 0.055(6) 0.063(6) 0.022(4) 0.005(4) -0.001(4) -0.018(5)
C7 0.029(4) 0.030(4) 0.026(4) 0.000(3) 0.003(3) -0.010(4)
C8 0.027(4) 0.045(5) 0.024(4) 0.009(4) -0.003(3) -0.010(4)
C9 0.043(5) 0.052(6) 0.028(4) 0.012(4) -0.009(4) -0.016(4)
C10 0.043(5) 0.055(6) 0.027(4) 0.009(4) -0.019(4) -0.017(4)
C11 0.027(4) 0.044(5) 0.020(4) 0.005(4) -0.005(3) -0.007(4)
C12 0.037(5) 0.035(4) 0.020(4) 0.005(3) -0.006(3) -0.007(4)
O1S 0.031(3) 0.061(5) 0.046(4) -0.002(3) 0.001(3) -0.004(3)
N1S 0.034(4) 0.089(7) 0.058(5) 0.005(5) -0.012(4) -0.007(5)
C1S 0.032(4) 0.053(6) 0.042(5) 0.002(5) 0.000(4) 0.009(5)
C2S 0.085(10) 0.125(11) 0.069(8) 0.020(8) -0.026(7) -0.014(8)
C3S 0.133(14) 0.120(14) 0.157(17) 0.021(12) -0.065(13) 0.021(12)
C4S 0.050(8) 0.202(19) 0.153(16) 0.084(15) -0.026(9) -0.041(10)
C5S 0.23(3) 0.33(4) 0.37(4) 0.12(4) 0.11(3) -0.12(3)
O2S 0.16(5) 0.29(6) 0.42(9) -0.08(7) -0.09(7) -0.02(6)
N2S 0.12(3) 0.08(3) 0.40(7) 0.000 0.01(4) 0.000
C6S 0.22(8) 0.35(10) 0.36(10) 0.000 -0.03(8) 0.000
C7S 0.15(3) 0.09(2) 0.16(3) 0.02(2) -0.06(3) 0.03(2)
C8S 0.07(3) 0.03(2) 0.08(3) -0.02(2) 0.05(2) -0.03(2)
C8S' 0.07(3) 0.10(5) 0.20(6) 0.08(5) 0.06(4) 0.05(3)
O1W 0.40(6) 0.22(4) 0.55(7) 0.02(4) 0.18(5) -0.05(4)

_geom_special_details            
;
All esds (except the esd in the dihedral angle between two l.s. planes)
are estimated using the full covariance matrix. The cell esds are taken
into account individually in the estimation of esds in distances, angles
and torsion angles; correlations between esds in cell parameters are only
used when they are defined by crystal symmetry. An approximate (isotropic)
treatment of cell esds is used for estimating esds involving l.s. planes.
;

loop_
_geom_bond_atom_site_label_1
_geom_bond_atom_site_label_2
_geom_bond_distance
_geom_bond_site_symmetry_2
_geom_bond_publ_flag
Zn1 O1C 2.041(4) . ?
Zn1 O1C 2.041(4) 5 ?
Zn1 O4 2.135(5) 2 ?
Zn1 O4 2.135(5) 6 ?
Zn1 O1 2.134(5) 5 ?
Zn1 O1 2.134(5) . ?
Zn2 O2 1.923(5) . ?
Zn2 O2 1.923(5) 2 ?
Zn2 O1C 2.000(5) 2 ?
Zn2 O1C 2.000(5) . ?
Zn2 Zn3 2.9056(15) . ?
Zn3 O3 1.933(5) . ?
Zn3 O3 1.933(5) 2 ?
Zn3 O1C 2.006(5) . ?
Zn3 O1C 2.006(5) 2 ?
O1 C1 1.245(9) . ?
O2 C1 1.274(8) . ?
O3 C7 1.259(8) . ?
O4 C7 1.269(8) . ?
O4 Zn1 2.135(5) 2 ?
C1 C2 1.495(10) . ?
C2 C3 1.370(10) . ?
C2 C5 1.425(10) . ?
C3 C4 1.425(10) . ?
C4 C6 1.400(11) 7_445 ?
C4 C4 1.435(14) 7_445 ?
C5 C6 1.381(11) . ?
C6 C4 1.400(11) 7_445 ?
C7 C8 1.499(10) . ?
C8 C11 1.367(10) . ?
C8 C9 1.426(10) . ?
C9 C10 1.368(11) . ?
C10 C12 1.399(11) 7_556 ?
C11 C12 1.412(10) . ?
C12 C10 1.399(11) 7_556 ?
C12 C12 1.420(13) 7_556 ?
O1S C1S 1.209(10) . ?
N1S C1S 1.319(11) . ?
N1S C4S 1.485(16) . ?
N1S C2S 1.541(13) . ?
C2S C3S 1.508(17) . ?
C4S C5S 1.54(3) . ?
O2S C6S 1.212(14) . ?
O2S O2S 1.61(16) 2_655 ?
N2S C6S 1.324(15) . ?
N2S C7S 1.560(15) 2_655 ?
N2S C7S 1.560(15) . ?
C6S O2S 1.212(14) 2_655 ?
C7S C8S 1.507(19) . ?
C7S C8S' 1.509(19) . ?
C8S C8S' 1.15(8) . ?

loop_
_geom_angle_atom_site_label_1
_geom_angle_atom_site_label_2
_geom_angle_atom_site_label_3
_geom_angle
_geom_angle_site_symmetry_1
_geom_angle_site_symmetry_3
_geom_angle_publ_flag
O1C Zn1 O1C 180.0 . 5 ?
O1C Zn1 O4 91.66(18) . 2 ?
O1C Zn1 O4 88.34(18) 5 2 ?
O1C Zn1 O4 88.34(18) . 6 ?
O1C Zn1 O4 91.66(18) 5 6 ?
O4 Zn1 O4 180.0 2 6 ?
O1C Zn1 O1 84.65(19) . 5 ?
O1C Zn1 O1 95.35(19) 5 5 ?
O4 Zn1 O1 90.4(2) 2 5 ?
O4 Zn1 O1 89.6(2) 6 5 ?
O1C Zn1 O1 95.35(19) . . ?
O1C Zn1 O1 84.65(19) 5 . ?
O4 Zn1 O1 89.6(2) 2 . ?
O4 Zn1 O1 90.4(2) 6 . ?
O1 Zn1 O1 180.0 5 . ?
O2 Zn2 O2 113.9(3) . 2 ?
O2 Zn2 O1C 109.6(2) . 2 ?
O2 Zn2 O1C 117.06(19) 2 2 ?
O2 Zn2 O1C 117.06(19) . . ?
O2 Zn2 O1C 109.6(2) 2 . ?
O1C Zn2 O1C 87.2(3) 2 . ?
O2 Zn2 Zn3 123.06(16) . . ?
O2 Zn2 Zn3 123.05(16) 2 . ?
O1C Zn2 Zn3 43.58(14) 2 . ?
O1C Zn2 Zn3 43.58(14) . . ?
O3 Zn3 O3 108.8(3) . 2 ?
O3 Zn3 O1C 113.32(19) . . ?
O3 Zn3 O1C 116.74(18) 2 . ?
O3 Zn3 O1C 116.74(18) . 2 ?
O3 Zn3 O1C 113.32(19) 2 2 ?
O1C Zn3 O1C 86.9(3) . 2 ?
O3 Zn3 Zn2 125.61(15) . . ?
O3 Zn3 Zn2 125.61(15) 2 . ?
O1C Zn3 Zn2 43.43(14) . . ?
O1C Zn3 Zn2 43.42(14) 2 . ?
Zn2 O1C Zn3 92.99(18) . . ?
Zn2 O1C Zn1 113.1(2) . . ?
Zn3 O1C Zn1 112.5(2) . . ?
C1 O1 Zn1 138.6(5) . . ?
C1 O2 Zn2 121.6(5) . . ?
C7 O3 Zn3 118.7(5) . . ?
C7 O4 Zn1 135.0(5) . 2 ?
O1 C1 O2 124.6(7) . . ?
O1 C1 C2 119.6(7) . . ?
O2 C1 C2 115.8(7) . . ?
C3 C2 C5 120.3(7) . . ?
C3 C2 C1 120.4(7) . . ?
C5 C2 C1 119.3(7) . . ?
C2 C3 C4 120.7(7) . . ?
C6 C4 C3 122.3(7) 7_445 . ?
C6 C4 C4 118.8(9) 7_445 7_445 ?
C3 C4 C4 118.9(9) . 7_445 ?
C6 C5 C2 119.6(7) . . ?
C5 C6 C4 121.7(7) . 7_445 ?
O3 C7 O4 125.2(7) . . ?
O3 C7 C8 116.7(6) . . ?
O4 C7 C8 118.0(7) . . ?
C11 C8 C9 118.4(7) . . ?
C11 C8 C7 121.4(7) . . ?
C9 C8 C7 120.2(7) . . ?
C10 C9 C8 120.3(8) . . ?
C9 C10 C12 121.5(7) . 7_556 ?
C8 C11 C12 122.5(7) . . ?
C10 C12 C11 122.7(7) 7_556 . ?
C10 C12 C12 119.1(9) 7_556 7_556 ?
C11 C12 C12 118.1(9) . 7_556 ?
C1S N1S C4S 119.4(9) . . ?
C1S N1S C2S 120.6(9) . . ?
C4S N1S C2S 119.9(9) . . ?
O1S C1S N1S 123.8(9) . . ?
C3S C2S N1S 112.9(12) . . ?
N1S C4S C5S 108.7(17) . . ?
C6S O2S O2S 49(5) . 2_655 ?
C6S N2S C7S 112(2) . 2_655 ?
C6S N2S C7S 112(2) . . ?
C7S N2S C7S 136(4) 2_655 . ?
O2S C6S O2S 83(10) . 2_655 ?
O2S C6S N2S 138(5) . . ?
O2S C6S N2S 139(5) 2_655 . ?
C8S C7S C8S' 45(3) . . ?
C8S C7S N2S 106(3) . . ?
C8S' C7S N2S 145(3) . . ?
C8S' C8S C7S 67.7(17) . . ?
C8S C8S' C7S 67.6(17) . . ?

_diffrn_measured_fraction_theta_max 0.995
_diffrn_reflns_theta_full        26.43
_diffrn_measured_fraction_theta_full 0.995
_refine_diff_density_max         0.854
_refine_diff_density_min         -0.761
_refine_diff_density_rms         0.158

#===END



