####################################################################### 
# 
# This file contains crystal structure data downloaded from the 
# Cambridge Structural Database (CSD) hosted by the Cambridge 
# Crystallographic Data Centre (CCDC).
# 
# Full information about CCDC data access policies and citation 
# guidelines are available at http://www.ccdc.cam.ac.uk/access/V1 
# 
# Audit and citation data items may have been added by the CCDC. 
# Please retain this information to preserve the provenance of 
# this file and to allow appropriate attribution of the data. 
# 
#######################################################################

data_p12-cu
_audit_block_doi                 10.5517/cc1118y9
_database_code_depnum_ccdc_archive 'CCDC 954550'
loop_
_citation_id
_citation_doi
_citation_year
1 10.1021/ja4015666 2013
_audit_update_record             
;
2013-08-05 deposited with the CCDC.	2024-07-10 downloaded from the CCDC.
;

_audit_creation_method           SHELXL-97
_chemical_name_systematic        
; 
 ? 
;
_chemical_name_common            ?
_chemical_melting_point          ?
_chemical_formula_moiety         ?
_chemical_formula_sum            'C109.59 H64 Cu9 N8 O35.85'
_chemical_formula_weight         2638.23

loop_
_atom_type_symbol
_atom_type_description
_atom_type_scat_dispersion_real
_atom_type_scat_dispersion_imag
_atom_type_scat_source
C C -0.0001 0.0005 'International Tables Vol C Tables 4.2.6.8 and 6.1.1.4'
H H 0.0000 0.0000 'International Tables Vol C Tables 4.2.6.8 and 6.1.1.4'
N N 0.0005 0.0010 'International Tables Vol C Tables 4.2.6.8 and 6.1.1.4'
O O 0.0017 0.0018 'International Tables Vol C Tables 4.2.6.8 and 6.1.1.4'
Cu Cu 0.2468 0.4709 'International Tables Vol C Tables 4.2.6.8 and 6.1.1.4'

_symmetry_cell_setting           Triclinic
_symmetry_space_group_name_H-M   P-1

loop_
_symmetry_equiv_pos_as_xyz
'x, y, z'
'-x, -y, -z'

_cell_length_a                   10.6580(7)
_cell_length_b                   18.4613(12)
_cell_length_c                   21.0920(14)
_cell_angle_alpha                89.068(2)
_cell_angle_beta                 88.1190(10)
_cell_angle_gamma                85.215(2)
_cell_volume                     4133.0(5)
_cell_formula_units_Z            1
_cell_measurement_temperature    100(2)
_cell_measurement_reflns_used    ?
_cell_measurement_theta_min      ?
_cell_measurement_theta_max      ?

_exptl_crystal_description       prism
_exptl_crystal_colour            red
_exptl_crystal_size_max          0.05
_exptl_crystal_size_mid          0.02
_exptl_crystal_size_min          0.01
_exptl_crystal_density_meas      ?
_exptl_crystal_density_diffrn    1.060
_exptl_crystal_density_method    'not measured'
_exptl_crystal_F_000             1325
_exptl_absorpt_coefficient_mu    0.247
_exptl_absorpt_correction_type   multi-scan
_exptl_absorpt_correction_T_min  0.9878
_exptl_absorpt_correction_T_max  0.9975
_exptl_absorpt_process_details   ?

_exptl_special_details           
; 
 ? 
;

_diffrn_ambient_temperature      100(2)
_diffrn_radiation_wavelength     0.41328
_diffrn_radiation_type           ?
_diffrn_radiation_source         'fine-focus sealed tube'
_diffrn_radiation_monochromator  graphite
_diffrn_measurement_device_type  ?
_diffrn_measurement_method       ?
_diffrn_detector_area_resol_mean ?
_diffrn_standards_number         ?
_diffrn_standards_interval_count ?
_diffrn_standards_interval_time  ?
_diffrn_standards_decay_%        ?
_diffrn_reflns_number            76073
_diffrn_reflns_av_R_equivalents  0.0373
_diffrn_reflns_av_sigmaI/netI    0.0338
_diffrn_reflns_limit_h_min       -13
_diffrn_reflns_limit_h_max       13
_diffrn_reflns_limit_k_min       -21
_diffrn_reflns_limit_k_max       23
_diffrn_reflns_limit_l_min       -26
_diffrn_reflns_limit_l_max       26
_diffrn_reflns_theta_min         1.29
_diffrn_reflns_theta_max         15.35
_reflns_number_total             16668
_reflns_number_gt                13320
_reflns_threshold_expression     >2sigma(I)

_computing_data_collection       ?
_computing_cell_refinement       ?
_computing_data_reduction        ?
_computing_structure_solution    'SHELXS-97 (Sheldrick, 1990)'
_computing_structure_refinement  'SHELXL-97 (Sheldrick, 1997)'
_computing_molecular_graphics    ?
_computing_publication_material  ?

_refine_special_details          
; 
 Refinement of F^2^ against ALL reflections.  The weighted R-factor wR and 
 goodness of fit S are based on F^2^, conventional R-factors R are based 
 on F, with F set to zero for negative F^2^. The threshold expression of 
 F^2^ > 2sigma(F^2^) is used only for calculating R-factors(gt) etc. and is 
 not relevant to the choice of reflections for refinement.  R-factors based 
 on F^2^ are statistically about twice as large as those based on F, and R- 
 factors based on ALL data will be even larger. 
;

_refine_ls_structure_factor_coef Fsqd
_refine_ls_matrix_type           full
_refine_ls_weighting_scheme      calc
_refine_ls_weighting_details     
'calc w=1/[\s^2^(Fo^2^)+(0.0845P)^2^+16.0488P] where P=(Fo^2^+2Fc^2^)/3'
_atom_sites_solution_primary     direct
_atom_sites_solution_secondary   difmap
_atom_sites_solution_hydrogens   geom
_refine_ls_hydrogen_treatment    constr
_refine_ls_extinction_method     none
_refine_ls_extinction_coef       ?
_refine_ls_number_reflns         16668
_refine_ls_number_parameters     771
_refine_ls_number_restraints     20
_refine_ls_R_factor_all          0.0802
_refine_ls_R_factor_gt           0.0656
_refine_ls_wR_factor_ref         0.1850
_refine_ls_wR_factor_gt          0.1769
_refine_ls_goodness_of_fit_ref   1.056
_refine_ls_restrained_S_all      1.057
_refine_ls_shift/su_max          0.001
_refine_ls_shift/su_mean         0.000

loop_
_atom_site_label
_atom_site_type_symbol
_atom_site_fract_x
_atom_site_fract_y
_atom_site_fract_z
_atom_site_U_iso_or_equiv
_atom_site_adp_type
_atom_site_occupancy
_atom_site_symmetry_multiplicity
_atom_site_calc_flag
_atom_site_refinement_flags
_atom_site_disorder_assembly
_atom_site_disorder_group
Cu1 Cu 0.50504(4) 0.57171(3) 0.87954(2) 0.02678(15) Uani 1 1 d . . .
Cu2 Cu 0.36203(4) 0.49523(3) 0.99446(2) 0.01685(12) Uani 1 1 d . . .
Cu3 Cu 0.13851(4) 0.00690(3) 0.49590(2) 0.01752(12) Uani 1 1 d . . .
Cu5 Cu 1.0000 0.5000 0.5000 0.0493(3) Uani 1 2 d S . .
O1 O 0.4936(2) 0.56372(16) 0.97151(13) 0.0187(6) Uani 1 1 d . . .
O2 O 0.2587(2) 0.03771(17) 0.55423(14) 0.0241(6) Uani 1 1 d . . .
O4 O 0.2280(2) 0.56199(17) 0.96316(13) 0.0235(6) Uani 1 1 d . . .
O5 O 0.7194(3) 0.03896(19) 0.55174(15) 0.0292(7) Uani 1 1 d . . .
O6 O -0.2295(2) 0.54822(17) 0.95397(14) 0.0257(7) Uani 1 1 d . . .
O7 O 0.3243(3) 0.5933(2) 0.87156(16) 0.0439(10) Uani 1 1 d U . .
O8 O 0.3529(3) 0.4274(2) 0.91307(15) 0.0332(8) Uani 1 1 d . . .
O11 O 0.1450(3) 0.1336(2) 0.5974(2) 0.0458(10) Uani 1 1 d . . .
N12 N 1.0023(4) 0.5733(3) 0.14175(18) 0.0372(10) Uani 1 1 d . . .
C13 C -0.2362(3) 0.5906(2) 0.90708(19) 0.0188(8) Uani 1 1 d . D .
C14 C 0.3608(4) 0.1189(2) 0.6159(2) 0.0224(8) Uani 1 1 d . . .
O12 O 0.5430(3) 0.4558(2) 0.87667(18) 0.0412(9) Uani 1 1 d . . .
C16 C 0.3512(4) 0.1723(3) 0.6612(2) 0.0265(9) Uani 1 1 d . . .
H16 H 0.2705 0.1908 0.6770 0.032 Uiso 1 1 calc R . .
O13 O 0.8001(3) 0.1290(2) 0.6020(2) 0.0497(11) Uani 1 1 d . . .
C18 C 0.2455(4) 0.0935(2) 0.5872(2) 0.0228(8) Uani 1 1 d . . .
C19 C -0.0036(3) 0.5971(2) 0.90953(19) 0.0206(8) Uani 1 1 d . D .
H19 H -0.0019 0.5673 0.9467 0.025 Uiso 1 1 calc R . .
C20 C 0.1075(4) 0.6194(3) 0.8823(2) 0.0269(10) Uani 1 1 d . . .
C21 C -0.1171(3) 0.6190(2) 0.88186(19) 0.0226(9) Uani 1 1 d . . .
C22 C 0.4589(4) 0.1995(3) 0.6839(2) 0.0284(9) Uani 1 1 d . . .
C23 C 0.4518(4) 0.2573(3) 0.7320(2) 0.0305(10) Uani 1 1 d . D .
C24 C 0.7126(3) 0.0924(3) 0.58755(19) 0.0252(9) Uani 1 1 d . . .
C25 C -0.1193(4) 0.6642(3) 0.8287(2) 0.0301(10) Uani 1 1 d . D .
H25 H -0.1977 0.6799 0.8108 0.036 Uiso 1 1 calc R . .
C26 C 0.5761(4) 0.1716(3) 0.6592(2) 0.0309(10) Uani 1 1 d . . .
H26 H 0.6505 0.1900 0.6737 0.037 Uiso 1 1 calc R . .
C27 C -0.0086(4) 0.6869(3) 0.8011(2) 0.0372(12) Uani 1 1 d . . .
C28 C 0.1053(4) 0.6634(3) 0.8289(2) 0.0344(11) Uani 1 1 d . D .
H28 H 0.1821 0.6779 0.8107 0.041 Uiso 1 1 calc R . .
C29 C 0.2304(4) 0.5896(3) 0.9078(2) 0.0287(10) Uani 1 1 d . D .
C30 C 0.3615(4) 0.2594(3) 0.7812(2) 0.0332(11) Uani 1 1 d . . .
H30 H 0.3003 0.2248 0.7828 0.040 Uiso 1 1 calc R . .
C31 C 0.4781(4) 0.0900(2) 0.59280(19) 0.0231(9) Uani 1 1 d . . .
H31 H 0.4847 0.0518 0.5629 0.028 Uiso 1 1 calc R . .
C32 C 0.4485(4) 0.4199(3) 0.8752(2) 0.0334(11) Uani 1 1 d . D .
C33 C 0.4472(4) 0.3632(3) 0.8253(2) 0.0317(10) Uani 1 1 d . . .
N34 N 0.9025(5) 0.5448(3) 0.5745(2) 0.0462(11) Uani 1 1 d . . .
C35 C 0.5363(5) 0.3103(3) 0.7289(3) 0.0436(13) Uani 1 1 d . . .
H35 H 0.5960 0.3110 0.6945 0.052 Uiso 1 1 calc R D .
C36 C 0.9089(6) 0.5679(3) 0.3748(2) 0.0503(15) Uani 1 1 d . . .
C37 C 0.3599(4) 0.3111(3) 0.8274(2) 0.0363(11) Uani 1 1 d . D .
H37 H 0.2986 0.3113 0.8612 0.044 Uiso 1 1 calc R . .
C39 C 0.5348(5) 0.3621(3) 0.7755(3) 0.0433(13) Uani 1 1 d . D .
H39 H 0.5947 0.3975 0.7732 0.052 Uiso 1 1 calc R . .
N40 N 0.4880(5) 0.8108(3) 0.5523(2) 0.0515(13) Uani 1 1 d . . .
C41 C 0.8966(5) 0.5537(3) 0.1699(2) 0.0412(12) Uani 1 1 d . . .
H41 H 0.8229 0.5517 0.1460 0.049 Uiso 1 1 calc R . .
C42 C 0.9968(6) 0.5262(3) 0.3389(2) 0.0441(13) Uani 1 1 d . . .
N43 N 0.8979(5) 0.5656(3) 0.4406(2) 0.0497(12) Uani 1 1 d . . .
C44 C 0.7647(6) 0.6354(3) 0.5186(3) 0.0465(13) Uani 1 1 d . . .
C45 C 1.0010(6) 0.5957(4) 0.0745(2) 0.0460(13) Uani 1 1 d . . .
H45A H 0.9768 0.5556 0.0490 0.069 Uiso 1 1 calc R . .
H45B H 1.0851 0.6084 0.0607 0.069 Uiso 1 1 calc R . .
H45C H 0.9402 0.6380 0.0692 0.069 Uiso 1 1 calc R . .
C46 C 1.1087(5) 0.5739(4) 0.1741(3) 0.0467(14) Uani 1 1 d . . .
H46 H 1.1843 0.5853 0.1525 0.056 Uiso 1 1 calc R . .
C47 C 0.6647(6) 0.6969(3) 0.5275(3) 0.0460(13) Uani 1 1 d . . .
C48 C 0.9167(6) 0.5280(4) 0.6382(2) 0.0484(14) Uani 1 1 d . . .
C49 C 0.9997(6) 0.5401(3) 0.2687(2) 0.0438(13) Uani 1 1 d . . .
C50 C 0.8939(5) 0.5363(3) 0.2334(3) 0.0454(13) Uani 1 1 d . . .
H50 H 0.8187 0.5215 0.2531 0.054 Uiso 1 1 calc R . .
C51 C 0.6980(6) 0.7659(4) 0.5360(4) 0.0626(18) Uani 1 1 d . . .
H51 H 0.7843 0.7753 0.5325 0.075 Uiso 1 1 calc R . .
C52 C 0.8342(7) 0.5751(4) 0.6752(3) 0.0579(17) Uani 1 1 d . . .
H52 H 0.8263 0.5745 0.7202 0.069 Uiso 1 1 calc R . .
C53 C 1.1095(6) 0.5584(4) 0.2374(3) 0.0509(15) Uani 1 1 d . . .
H53 H 1.1847 0.5601 0.2600 0.061 Uiso 1 1 calc R . .
C54 C 0.8048(7) 0.6182(3) 0.4572(3) 0.0514(15) Uani 1 1 d . . .
C55 C 0.6086(6) 0.8218(4) 0.5496(4) 0.0625(19) Uani 1 1 d . . .
H55 H 0.6340 0.8689 0.5572 0.075 Uiso 1 1 calc R . .
C56 C 0.7687(7) 0.6210(4) 0.6361(3) 0.0565(16) Uani 1 1 d . . .
H56 H 0.7067 0.6587 0.6480 0.068 Uiso 1 1 calc R . .
C57 C 0.3932(7) 0.8704(4) 0.5722(4) 0.069(2) Uani 1 1 d . . .
H57A H 0.4103 0.8855 0.6152 0.103 Uiso 1 1 calc R . .
H57B H 0.3087 0.8532 0.5717 0.103 Uiso 1 1 calc R . .
H57C H 0.3980 0.9118 0.5428 0.103 Uiso 1 1 calc R . .
C58 C 0.8101(6) 0.6022(3) 0.5731(3) 0.0467(13) Uani 1 1 d . . .
C59 C 0.8205(7) 0.6254(4) 0.3511(3) 0.0643(19) Uani 1 1 d . . .
H59 H 0.8094 0.6392 0.3079 0.077 Uiso 1 1 calc R . .
C60 C 0.7578(7) 0.6552(4) 0.4012(3) 0.0629(18) Uani 1 1 d . . .
H60 H 0.6934 0.6940 0.4001 0.075 Uiso 1 1 calc R . .
C61 C 0.5400(8) 0.6881(5) 0.5272(6) 0.101(3) Uani 1 1 d . . .
H61 H 0.5128 0.6418 0.5182 0.121 Uiso 1 1 calc R . .
C62 C 0.4523(7) 0.7451(5) 0.5397(6) 0.097(3) Uani 1 1 d . . .
H62 H 0.3651 0.7377 0.5394 0.116 Uiso 1 1 calc R . .
O9 O -0.3345(3) 0.6130(2) 0.87976(17) 0.0387(9) Uani 1 1 d . . .
C63 C 0.5856(4) 0.1185(3) 0.6148(2) 0.0264(9) Uani 1 1 d . . .
O14 O 0.5230(4) 0.5810(3) 0.78686(17) 0.0667(15) Uani 1 1 d D . .
C9 C 0.795(3) 0.3227(17) 0.5010(14) 0.144(10) Uiso 0.50 1 d P . .
O15 O 0.8310(19) 0.4001(12) 0.4912(10) 0.153(7) Uiso 0.50 1 d P . .
C5 C 0.4307(17) 0.5683(11) 0.7474(9) 0.091(5) Uiso 0.50 1 d PD A 1
O17 O -0.0425(8) 0.2389(5) 0.5632(5) 0.051(2) Uiso 0.526(5) 1 d P B 1
C64 C -0.0692(19) 0.2622(12) 0.6252(10) 0.094(5) Uiso 0.526(5) 1 d P B 1
C17 C -0.003(2) 0.0037(10) 0.6260(11) 0.088(6) Uiso 0.433(15) 1 d PDU C 1
C6 C 0.4696(15) 0.6383(9) 0.9940(8) 0.069(4) Uiso 0.50 1 d P D 1
O3 O -0.0070(3) 0.02793(19) 0.55637(15) 0.0168(6) Uani 0.8604(16) 1 d P . 1
Cu4 Cu -0.02622(5) 0.13202(3) 0.56644(3) 0.02657(18) Uani 0.8604(16) 1 d PD . 1
O18 O 0.0723(4) 0.8539(3) 0.5314(2) 0.0447(12) Uani 0.8604(16) 1 d P . 1
C12 C -0.1161(6) 0.7760(5) 0.7260(4) 0.0415(19) Uani 0.8604(16) 1 d P D 1
H12 H -0.1866 0.7801 0.7548 0.050 Uiso 0.8604(16) 1 calc PR . 1
C7 C -0.0110(5) 0.7312(4) 0.7408(3) 0.0366(15) Uani 0.8604(16) 1 d P D 1
C8 C -0.1197(6) 0.8151(4) 0.6697(4) 0.0379(17) Uani 0.8604(16) 1 d PU D 1
H8 H -0.1940 0.8443 0.6595 0.045 Uiso 0.8604(16) 1 calc PR . 1
C11 C -0.0184(5) 0.8123(3) 0.6285(3) 0.0378(14) Uani 0.8604(16) 1 d P D 1
C1 C -0.0243(5) 0.8551(3) 0.5664(3) 0.0360(13) Uani 0.8604(16) 1 d P D 1
C2 C 0.0904(6) 0.7286(5) 0.6985(4) 0.074(3) Uani 0.8604(16) 1 d P D 1
H2 H 0.1637 0.6978 0.7076 0.088 Uiso 0.8604(16) 1 calc PR . 1
C4 C 0.0878(6) 0.7696(6) 0.6435(4) 0.083(4) Uani 0.8604(16) 1 d P D 1
H4 H 0.1601 0.7682 0.6158 0.100 Uiso 0.8604(16) 1 calc PR . 1
O10 O -0.1268(3) 0.8897(2) 0.55485(19) 0.0334(9) Uani 0.8604(16) 1 d P . 1
O19 O 0.4276(16) 0.6970(10) 1.0167(8) 0.122(5) Uiso 0.50 1 d P E 2
O24 O -0.0406(10) 0.2330(6) 0.5931(6) 0.031(2) Uiso 0.334(6) 1 d P . 2
C65 C -0.144(3) 0.2866(18) 0.5793(15) 0.097(9) Uiso 0.334(6) 1 d P . 2
C66 C -0.128(3) 0.774(2) 0.733(2) 0.036(6) Uiso 0.1396(16) 1 d PGU . 2
H66 H -0.1957 0.7441 0.7395 0.043 Uiso 0.1396(16) 1 calc PR . 2
C67 C -0.135(2) 0.829(2) 0.6876(16) 0.034(14) Uiso 0.1396(16) 1 d PG . 2
H67 H -0.2075 0.8375 0.6630 0.041 Uiso 0.1396(16) 1 calc PR . 2
C68 C -0.035(3) 0.8726(15) 0.6783(12) 0.036(6) Uiso 0.1396(16) 1 d PGU . 2
C69 C 0.072(2) 0.8605(16) 0.7144(14) 0.055(11) Uiso 0.1396(16) 1 d PG . 2
H69 H 0.1401 0.8901 0.7080 0.066 Uiso 0.1396(16) 1 calc PR . 2
C70 C 0.079(3) 0.8050(18) 0.7598(14) 0.052(10) Uiso 0.1396(16) 1 d PG . 2
H70 H 0.1519 0.7967 0.7844 0.062 Uiso 0.1396(16) 1 calc PR . 2
C71 C -0.021(4) 0.7616(19) 0.7691(17) 0.065(16) Uiso 0.1396(16) 1 d PG . 2
O20 O 0.038(3) 0.9644(7) 0.6199(16) 0.055(8) Uiso 0.1396(16) 1 d PD . 2
C15 C -0.050(2) 0.9279(13) 0.6240(11) 0.008(4) Uiso 0.1396(16) 1 d PU . 2
O21 O -0.133(2) 0.9266(15) 0.5947(13) 0.037(5) Uiso 0.1396(16) 1 d PU . 2
O22 O -0.015(5) 0.077(3) 0.717(2) 0.098(14) Uiso 0.1396(16) 1 d P . 2
Cu6 Cu -0.0162(4) 0.0767(3) 0.6182(2) 0.0403(13) Uiso 0.1396(16) 1 d P . 2
O23 O -0.017(2) 0.0634(14) 0.5313(12) 0.030(5) Uiso 0.1396(16) 1 d P . 2
O25 O 0.0313(17) -0.0187(11) 0.6762(9) 0.117(6) Uiso 0.427(15) 1 d PU F 3
O16 O 0.3630(16) 0.5450(10) 0.7029(8) 0.125(5) Uiso 0.50 1 d P G 2

loop_
_atom_site_aniso_label
_atom_site_aniso_U_11
_atom_site_aniso_U_22
_atom_site_aniso_U_33
_atom_site_aniso_U_23
_atom_site_aniso_U_13
_atom_site_aniso_U_12
Cu1 0.0095(2) 0.0517(4) 0.0195(2) 0.0044(2) 0.00120(17) -0.0064(2)
Cu2 0.0069(2) 0.0278(3) 0.0158(2) -0.00033(19) 0.00137(16) -0.00161(17)
Cu3 0.0086(2) 0.0235(3) 0.0204(2) -0.0060(2) 0.00232(16) -0.00102(17)
Cu5 0.0742(7) 0.0442(6) 0.0267(4) -0.0011(4) 0.0043(4) 0.0103(5)
O1 0.0061(11) 0.0284(16) 0.0218(13) -0.0015(12) 0.0020(10) -0.0028(10)
O2 0.0124(12) 0.0342(18) 0.0263(14) -0.0164(13) -0.0014(11) -0.0007(12)
O4 0.0128(12) 0.0370(18) 0.0203(13) 0.0087(13) 0.0019(10) -0.0015(12)
O5 0.0114(13) 0.0411(19) 0.0355(16) -0.0237(15) 0.0035(11) -0.0018(12)
O6 0.0100(12) 0.0390(18) 0.0278(15) 0.0130(14) 0.0010(11) -0.0026(12)
O7 0.0077(13) 0.090(3) 0.0335(17) 0.0260(19) -0.0011(12) -0.0079(15)
O8 0.0207(15) 0.049(2) 0.0305(16) -0.0223(15) 0.0039(12) -0.0051(14)
O11 0.0133(14) 0.047(2) 0.078(3) -0.042(2) -0.0029(15) 0.0009(14)
N12 0.038(2) 0.050(3) 0.0238(19) -0.0050(19) -0.0030(16) -0.001(2)
C13 0.0048(15) 0.021(2) 0.031(2) 0.0095(17) -0.0059(14) -0.0043(14)
C14 0.0119(17) 0.026(2) 0.029(2) -0.0116(18) 0.0032(15) -0.0025(15)
O12 0.0225(16) 0.052(2) 0.050(2) -0.0314(19) 0.0059(14) -0.0064(15)
C16 0.0165(19) 0.032(2) 0.031(2) -0.0128(19) 0.0056(16) -0.0025(17)
O13 0.0162(16) 0.060(3) 0.074(3) -0.040(2) 0.0109(16) -0.0040(16)
C18 0.0172(18) 0.019(2) 0.032(2) -0.0073(18) 0.0041(16) -0.0018(15)
C19 0.0099(16) 0.031(2) 0.0205(18) 0.0062(17) 0.0016(14) -0.0026(15)
C20 0.0136(18) 0.039(3) 0.028(2) 0.011(2) -0.0002(15) -0.0027(17)
C21 0.0099(17) 0.032(2) 0.0251(19) 0.0034(18) 0.0030(14) -0.0002(15)
C22 0.022(2) 0.036(3) 0.027(2) -0.016(2) 0.0049(16) -0.0047(18)
C23 0.0173(19) 0.044(3) 0.031(2) -0.021(2) 0.0037(17) -0.0038(18)
C24 0.0090(17) 0.046(3) 0.0214(19) -0.0127(19) 0.0031(14) -0.0075(17)
C25 0.0118(18) 0.039(3) 0.038(2) 0.014(2) -0.0026(16) -0.0002(17)
C26 0.0163(19) 0.044(3) 0.033(2) -0.016(2) -0.0002(17) -0.0039(18)
C27 0.019(2) 0.048(3) 0.044(3) 0.025(2) -0.0012(19) -0.0016(19)
C28 0.0163(19) 0.046(3) 0.040(3) 0.021(2) -0.0030(18) -0.0026(18)
C29 0.0127(18) 0.042(3) 0.031(2) 0.015(2) 0.0007(16) -0.0033(17)
C30 0.020(2) 0.045(3) 0.036(2) -0.022(2) 0.0071(18) -0.0082(19)
C31 0.0149(18) 0.031(2) 0.0232(19) -0.0150(18) 0.0008(15) 0.0001(16)
C32 0.017(2) 0.049(3) 0.033(2) -0.020(2) 0.0015(17) 0.0020(19)
C33 0.020(2) 0.042(3) 0.034(2) -0.022(2) 0.0054(17) -0.0047(19)
N34 0.064(3) 0.048(3) 0.026(2) 0.000(2) 0.003(2) -0.002(2)
C35 