####################################################################### 
# 
# This file contains crystal structure data downloaded from the 
# Cambridge Structural Database (CSD) hosted by the Cambridge 
# Crystallographic Data Centre (CCDC).
# 
# Full information about CCDC data access policies and citation 
# guidelines are available at http://www.ccdc.cam.ac.uk/access/V1 
# 
# Audit and citation data items may have been added by the CCDC. 
# Please retain this information to preserve the provenance of 
# this file and to allow appropriate attribution of the data. 
# 
#######################################################################

data_zzp12cdcu16-n_0m
_audit_block_doi                 10.5517/cc11190d
_database_code_depnum_ccdc_archive 'CCDC 954552'
loop_
_citation_id
_citation_doi
_citation_year
1 10.1021/ja4015666 2013
_audit_update_record             
;
2013-08-05 deposited with the CCDC.	2024-07-10 downloaded from the CCDC.
;

_audit_creation_method           SHELXL-97
_chemical_name_systematic        
; 
 ? 
;
_chemical_name_common            ?
_chemical_melting_point          ?
_chemical_formula_moiety         ?
_chemical_formula_sum            'C104 H62 Cd4 Cu N8 O24'
_chemical_formula_weight         2320.76

loop_
_atom_type_symbol
_atom_type_description
_atom_type_scat_dispersion_real
_atom_type_scat_dispersion_imag
_atom_type_scat_source
C C 0.0181 0.0091 'International Tables Vol C Tables 4.2.6.8 and 6.1.1.4'
H H 0.0000 0.0000 'International Tables Vol C Tables 4.2.6.8 and 6.1.1.4'
N N 0.0311 0.0180 'International Tables Vol C Tables 4.2.6.8 and 6.1.1.4'
O O 0.0492 0.0322 'International Tables Vol C Tables 4.2.6.8 and 6.1.1.4'
Cu Cu -1.9646 0.5888 'International Tables Vol C Tables 4.2.6.8 and 6.1.1.4'
Cd Cd 0.1185 4.6533 'International Tables Vol C Tables 4.2.6.8 and 6.1.1.4'

_symmetry_cell_setting           triclinic
_symmetry_space_group_name_H-M   P-1

loop_
_symmetry_equiv_pos_as_xyz
'x, y, z'
'-x, -y, -z'

_cell_length_a                   9.915(8)
_cell_length_b                   18.650(14)
_cell_length_c                   20.341(16)
_cell_angle_alpha                88.702(15)
_cell_angle_beta                 84.514(15)
_cell_angle_gamma                85.703(13)
_cell_volume                     3733(5)
_cell_formula_units_Z            1
_cell_measurement_temperature    228(2)
_cell_measurement_reflns_used    ?
_cell_measurement_theta_min      ?
_cell_measurement_theta_max      ?

_exptl_crystal_description       prism
_exptl_crystal_colour            black
_exptl_crystal_size_max          0.10
_exptl_crystal_size_mid          0.02
_exptl_crystal_size_min          0.02
_exptl_crystal_density_meas      ?
_exptl_crystal_density_diffrn    1.032
_exptl_crystal_density_method    'not measured'
_exptl_crystal_F_000             1155
_exptl_absorpt_coefficient_mu    5.077
_exptl_absorpt_correction_type   multi-scan
_exptl_absorpt_correction_T_min  0.6307
_exptl_absorpt_correction_T_max  0.9053
_exptl_absorpt_process_details   'SADABS; (Sheldrick, 2003)'

_exptl_special_details           
; 
 ? 
;

_diffrn_ambient_temperature      228(2)
_diffrn_radiation_wavelength     1.54178
_diffrn_radiation_type           CuK\a
_diffrn_radiation_source         'fine-focus sealed tube'
_diffrn_radiation_monochromator  graphite
_diffrn_measurement_device_type  ?
_diffrn_measurement_method       ?
_diffrn_detector_area_resol_mean ?
_diffrn_reflns_number            27113
_diffrn_reflns_av_R_equivalents  0.0885
_diffrn_reflns_av_sigmaI/netI    0.1208
_diffrn_reflns_limit_h_min       -11
_diffrn_reflns_limit_h_max       11
_diffrn_reflns_limit_k_min       -21
_diffrn_reflns_limit_k_max       21
_diffrn_reflns_limit_l_min       -23
_diffrn_reflns_limit_l_max       23
_diffrn_reflns_theta_min         2.18
_diffrn_reflns_theta_max         65.08
_reflns_number_total             11996
_reflns_number_gt                8004
_reflns_threshold_expression     >2sigma(I)

_computing_data_collection       'APEX2 (Bruker, 2010)'
_computing_cell_refinement       'APEX2 (Bruker, 2010); SAINT (Bruker, 2009)'
_computing_data_reduction        'SAINT (Bruker, 2009);XPREP(Sheldrick,2008)'
_computing_structure_solution    'SHELXS-97 (Sheldrick, 2008)'
_computing_structure_refinement  'SHELXL-97 (Sheldrick, 2008)'
_computing_molecular_graphics    'Bruker SHELXTL'
_computing_publication_material  'APEX2 (Bruker, 2010)'

_refine_special_details          
; 
 Refinement of F^2^ against ALL reflections.  The weighted R-factor wR and 
 goodness of fit S are based on F^2^, conventional R-factors R are based 
 on F, with F set to zero for negative F^2^. The threshold expression of 
 F^2^ > 2sigma(F^2^) is used only for calculating R-factors(gt) etc. and is 
 not relevant to the choice of reflections for refinement.  R-factors based 
 on F^2^ are statistically about twice as large as those based on F, and R- 
 factors based on ALL data will be even larger. 
;

_refine_ls_structure_factor_coef Fsqd
_refine_ls_matrix_type           full
_refine_ls_weighting_scheme      calc
_refine_ls_weighting_details     
'calc w=1/[\s^2^(Fo^2^)+(0.0727P)^2^+0.0000P] where P=(Fo^2^+2Fc^2^)/3'
_atom_sites_solution_primary     direct
_atom_sites_solution_secondary   difmap
_atom_sites_solution_hydrogens   geom
_refine_ls_hydrogen_treatment    constr
_refine_ls_extinction_method     none
_refine_ls_extinction_coef       ?
_refine_ls_number_reflns         11996
_refine_ls_number_parameters     650
_refine_ls_number_restraints     18
_refine_ls_R_factor_all          0.0865
_refine_ls_R_factor_gt           0.0653
_refine_ls_wR_factor_ref         0.1562
_refine_ls_wR_factor_gt          0.1485
_refine_ls_goodness_of_fit_ref   0.924
_refine_ls_restrained_S_all      0.923
_refine_ls_shift/su_max          0.001
_refine_ls_shift/su_mean         0.000

loop_
_atom_site_label
_atom_site_type_symbol
_atom_site_fract_x
_atom_site_fract_y
_atom_site_fract_z
_atom_site_U_iso_or_equiv
_atom_site_adp_type
_atom_site_occupancy
_atom_site_symmetry_multiplicity
_atom_site_calc_flag
_atom_site_refinement_flags
_atom_site_disorder_assembly
_atom_site_disorder_group
O3 O 0.5570(5) 0.0485(3) 0.6008(2) 0.0424(11) Uani 1 1 d . . .
O4 O -0.4678(5) 0.1105(3) 0.3846(3) 0.0496(12) Uani 1 1 d . . .
O5 O -0.3692(5) 0.0503(3) 0.4622(2) 0.0456(12) Uani 1 1 d . . .
C73 C -0.3635(7) 0.0884(3) 0.4108(3) 0.0355(14) Uani 1 1 d . . .
C29 C -0.2277(7) 0.1125(3) 0.3825(3) 0.0316(13) Uani 1 1 d . . .
C35 C -0.1127(7) 0.0885(3) 0.4127(3) 0.0332(14) Uani 1 1 d . . .
Cd1 Cd 0.38519(4) 0.04800(2) 0.462442(18) 0.02953(13) Uani 1 1 d . . .
Cd2 Cd 0.09998(4) 0.54052(2) 0.044461(18) 0.03105(14) Uani 1 1 d . . .
Cu3 Cu 0.5000 0.5000 0.5000 0.0470(6) Uani 0.978(7) 2 d SP . .
O8 O 0.3131(7) 0.5529(4) 0.0630(3) 0.0674(17) Uani 1 1 d . A .
O9 O 0.1975(6) 0.4619(3) -0.0352(3) 0.0660(17) Uani 1 1 d . A .
O2 O 0.1491(5) 0.0297(3) 0.4472(3) 0.0470(12) Uani 1 1 d . . .
O10 O 0.0933(6) 0.6097(3) -0.0470(3) 0.0597(15) Uani 1 1 d . . .
O1 O 0.2297(5) 0.1325(3) 0.4230(3) 0.0563(14) Uani 1 1 d . . .
O12 O -0.0802(5) 0.5970(3) 0.0985(3) 0.0607(15) Uani 1 1 d . . .
O6 O 0.3788(5) 0.1082(3) 0.5580(2) 0.0487(12) Uani 1 1 d . . .
N1 N 0.5921(7) 0.4224(3) 0.4406(3) 0.0453(15) Uani 1 1 d . . .
C13 C 0.8159(9) 0.1588(4) 0.5666(4) 0.054(2) Uani 1 1 d . . .
H13 H 0.7761 0.1152 0.5762 0.065 Uiso 1 1 calc R . .
C14 C 0.7176(10) 0.3205(4) 0.4047(4) 0.057(2) Uani 1 1 d . . .
H14 H 0.7748 0.2780 0.4053 0.068 Uiso 1 1 calc R . .
C15 C 0.5638(8) 0.3294(4) 0.8233(3) 0.0472(17) Uani 1 1 d . . .
H15 H 0.6467 0.3096 0.8029 0.057 Uiso 1 1 calc R . .
C16 C -0.2170(7) 0.1585(4) 0.3287(3) 0.0369(14) Uani 1 1 d . . .
H16 H -0.2941 0.1717 0.3063 0.044 Uiso 1 1 calc R . .
C17 C 0.6625(9) 0.3513(5) 0.3521(3) 0.056(2) Uani 1 1 d . . .
H17 H 0.6725 0.3339 0.3087 0.067 Uiso 1 1 calc R . .
C18 C 0.6085(9) 0.4229(5) 0.1538(4) 0.0520(19) Uani 1 1 d . . .
H18 H 0.6868 0.4207 0.1238 0.062 Uiso 1 1 calc R . .
N3 N 0.9469(7) 0.1618(3) 0.5697(3) 0.0440(14) Uani 1 1 d . . .
N4 N 0.4881(7) 0.4113(3) 0.1341(3) 0.0458(15) Uani 1 1 d . . .
C23 C 0.3767(9) 0.4178(5) 0.1748(4) 0.056(2) Uani 1 1 d . . .
H23 H 0.2930 0.4126 0.1580 0.068 Uiso 1 1 calc R . .
C24 C -0.0800(8) 0.2401(4) 0.2524(3) 0.0410(16) Uani 1 1 d . . .
C25 C -0.1420(9) 0.2352(4) 0.1941(4) 0.0517(19) Uani 1 1 d . A .
H25 H -0.1978 0.1975 0.1889 0.062 Uiso 1 1 calc R . .
C27 C 0.0214(7) 0.1632(4) 0.3387(3) 0.0397(15) Uani 1 1 d . . .
H27 H 0.1056 0.1812 0.3248 0.048 Uiso 1 1 calc R . .
C28 C 0.3199(8) 0.3365(4) 0.8363(3) 0.0439(17) Uani 1 1 d . . .
H28 H 0.2372 0.3221 0.8239 0.053 Uiso 1 1 calc R . .
C31 C 0.5386(9) 0.1930(5) 0.7516(4) 0.056(2) Uani 1 1 d . . .
H31 H 0.6002 0.1871 0.7839 0.068 Uiso 1 1 calc R . .
C32 C 0.3526(9) 0.2569(5) 0.7078(4) 0.058(2) Uani 1 1 d . . .
H32 H 0.2846 0.2949 0.7097 0.069 Uiso 1 1 calc R . .
C34 C 1.0080(10) 0.2198(5) 0.5514(5) 0.066(2) Uani 1 1 d . . .
H34 H 1.1031 0.2201 0.5492 0.079 Uiso 1 1 calc R . .
H35 H -0.1213 0.0557 0.4474 0.079 Uiso 1 1 d R . .
C36 C 0.5865(8) 0.4149(4) 0.3745(3) 0.0450(17) Uani 1 1 d . . .
C39 C 1.0306(9) 0.0995(5) 0.5934(4) 0.057(2) Uani 1 1 d . . .
H39A H 1.0048 0.0559 0.5745 0.085 Uiso 1 1 calc R . .
H39B H 1.0164 0.0962 0.6412 0.085 Uiso 1 1 calc R . .
H39C H 1.1257 0.1056 0.5801 0.085 Uiso 1 1 calc R . .
O7 O 0.2024(14) 0.5998(9) 0.1541(8) 0.066(2) Uani 0.504(17) 1 d PU A 1
O7' O 0.1973(14) 0.6251(9) 0.1267(8) 0.066(2) Uani 0.496(17) 1 d PU A 2
C42 C 0.3772(9) 0.4320(5) 0.2408(3) 0.054(2) Uani 1 1 d . . .
H42 H 0.2968 0.4343 0.2694 0.065 Uiso 1 1 calc R . .
C43 C 0.0138(8) 0.3478(4) 0.2090(3) 0.0452(17) Uani 1 1 d . . .
H43 H 0.0657 0.3869 0.2150 0.054 Uiso 1 1 calc R . .
N2 N 0.5843(7) 0.4542(3) 0.5781(3) 0.0456(15) Uani 1 1 d . . .
C45 C 0.9271(10) 0.2819(5) 0.5350(5) 0.066(2) Uani 1 1 d . . .
C70 C 0.0120(7) 0.1133(3) 0.3914(3) 0.0344(14) Uani 1 1 d . . .
C60 C -0.0441(8) 0.3416(4) 0.1504(3) 0.0440(16) Uani 1 1 d . A .
C58 C 0.7360(9) 0.2183(5) 0.5496(4) 0.058(2) Uani 1 1 d . . .
H58 H 0.6424 0.2154 0.5473 0.069 Uiso 1 1 calc R . .
C56 C 0.5687(10) 0.4780(4) 0.6425(3) 0.053(2) Uani 1 1 d . . .
C63 C 0.3186(7) 0.3881(4) 0.8857(3) 0.0369(15) Uani 1 1 d . . .
C57 C 0.6719(8) 0.3653(4) 0.4595(3) 0.0446(17) Uani 1 1 d . . .
C51 C 0.5044(8) 0.4608(4) 0.3356(3) 0.0447(17) Uani 1 1 d . . .
C64 C 0.4414(7) 0.4099(3) 0.9011(3) 0.0361(15) Uani 1 1 d . . .
H64 H 0.4426 0.4453 0.9332 0.043 Uiso 1 1 calc R . .
C68 C 0.1893(8) 0.4191(4) -0.0799(3) 0.0416(16) Uani 1 1 d . . .
C69 C 0.1367(6) 0.0879(4) 0.4224(3) 0.0350(14) Uani 1 1 d . . .
O11 O 0.0665(6) 0.4407(3) 0.1021(3) 0.0557(14) Uani 1 1 d . A .
C66 C -0.0214(8) 0.3953(4) 0.0953(3) 0.0480(18) Uani 1 1 d . . .
C62 C 0.4404(7) 0.3068(4) 0.8060(3) 0.0411(16) Uani 1 1 d . . .
C50 C 0.5038(9) 0.4427(4) 0.2637(3) 0.0500(19) Uani 1 1 d . . .
C59 C -0.0038(8) 0.2977(4) 0.2581(4) 0.0487(18) Uani 1 1 d . . .
H59 H 0.0376 0.3026 0.2973 0.058 Uiso 1 1 calc R . .
C80 C 0.5428(9) 0.1432(4) 0.7027(4) 0.053(2) Uani 1 1 d . . .
H80 H 0.6079 0.1039 0.7015 0.064 Uiso 1 1 calc R . .
C75 C 0.6160(8) 0.4384(4) 0.2198(3) 0.0484(18) Uani 1 1 d . . .
H75 H 0.7009 0.4461 0.2344 0.058 Uiso 1 1 calc R . .
C76 C 0.4815(12) 0.3939(6) 0.0638(3) 0.072(3) Uani 1 1 d . . .
H76A H 0.5557 0.4145 0.0370 0.108 Uiso 1 1 calc R . .
H76B H 0.3957 0.4136 0.0495 0.108 Uiso 1 1 calc R . .
H76C H 0.4890 0.3421 0.0588 0.108 Uiso 1 1 calc R . .
C81 C 0.4446(8) 0.2518(4) 0.7538(3) 0.0467(18) Uani 1 1 d . . .
C79 C -0.0928(7) 0.1861(4) 0.3069(3) 0.0380(15) Uani 1 1 d . . .
C78 C 0.5619(8) 0.3809(4) 0.8706(3) 0.0413(16) Uani 1 1 d . . .
C74 C 0.7932(9) 0.2813(4) 0.5361(3) 0.0484(18) Uani 1 1 d . . .
C77 C -0.1219(9) 0.2848(4) 0.1449(3) 0.052(2) Uani 1 1 d . . .
H77 H -0.1630 0.2800 0.1056 0.062 Uiso 1 1 calc R A .
C83 C 0.4636(8) 0.0968(4) 0.6005(3) 0.0442(17) Uani 1 1 d . . .
C85 C 0.3582(9) 0.2067(4) 0.6585(4) 0.056(2) Uani 1 1 d . . .
H85 H 0.2952 0.2118 0.6267 0.068 Uiso 1 1 calc R . .
C84 C 0.4524(8) 0.1507(4) 0.6553(3) 0.0432(16) Uani 1 1 d . . .
C103 C 0.6416(11) 0.4273(5) 0.6835(4) 0.068(3) Uani 1 1 d . . .
H103 H 0.6465 0.4308 0.7293 0.081 Uiso 1 1 calc R . .
C101 C 0.6642(10) 0.3913(4) 0.5787(3) 0.051(2) Uani 1 1 d . . .
C100 C 0.7076(9) 0.3482(4) 0.5240(3) 0.0474(18) Uani 1 1 d . . .
C102 C 0.7012(12) 0.3739(5) 0.6447(4) 0.069(3) Uani 1 1 d . . .
H102 H 0.7557 0.3337 0.6579 0.083 Uiso 1 1 calc R . .
C104 C 0.3071(7) 0.5939(4) 0.1116(4) 0.0476(18) Uani 1 1 d . . .

loop_
_atom_site_aniso_label
_atom_site_aniso_U_11
_atom_site_aniso_U_22
_atom_site_aniso_U_33
_atom_site_aniso_U_23
_atom_site_aniso_U_13
_atom_site_aniso_U_12
O3 0.041(3) 0.044(3) 0.041(2) -0.022(2) -0.004(2) 0.011(2)
O4 0.026(2) 0.060(3) 0.061(3) 0.015(3) -0.004(2) -0.005(2)
O5 0.041(3) 0.051(3) 0.045(3) 0.018(2) -0.005(2) -0.013(2)
C73 0.029(4) 0.036(3) 0.042(3) 0.000(3) -0.007(3) -0.001(3)
C29 0.029(3) 0.035(3) 0.031(3) -0.001(2) -0.003(3) -0.004(3)
C35 0.034(4) 0.037(3) 0.028(3) 0.004(2) -0.003(3) 0.000(3)
Cd1 0.0287(2) 0.0329(2) 0.0277(2) -0.00164(16) -0.00605(18) -0.00194(18)
Cd2 0.0310(3) 0.0382(3) 0.0239(2) 0.00107(17) -0.00181(17) -0.00380(19)
Cu3 0.0714(13) 0.0447(9) 0.0254(8) -0.0050(6) -0.0148(7) 0.0061(8)
O8 0.062(4) 0.093(4) 0.056(3) -0.016(3) -0.030(3) -0.031(3)
O9 0.055(4) 0.084(4) 0.055(3) -0.043(3) 0.015(3) 0.004(3)
O2 0.031(3) 0.055(3) 0.057(3) 0.018(2) -0.017(2) -0.002(2)
O10 0.069(4) 0.061(3) 0.051(3) 0.034(3) -0.016(3) -0.019(3)
O1 0.030(3) 0.062(3) 0.080(4) 0.022(3) -0.028(3) -0.004(3)
O12 0.027(3) 0.081(4) 0.073(4) -0.035(3) -0.002(3) 0.009(3)
O6 0.048(3) 0.056(3) 0.042(2) -0.024(2) -0.016(2) 0.013(2)
N1 0.062(4) 0.041(3) 0.034(3) -0.005(2) -0.013(3) 0.002(3)
C13 0.048(5) 0.048(4) 0.068(5) -0.005(4) -0.006(4) -0.008(4)
C14 0.071(6) 0.051(4) 0.048(4) -0.011(3) -0.018(4) 0.014(4)
C15 0.036(4) 0.061(5) 0.046(4) -0.019(3) -0.003(3) 0.000(3)
C16 0.032(4) 0.042(4) 0.038(3) 0.005(3) -0.010(3) -0.001(3)
C17 0.064(5) 0.067(5) 0.034(4) -0.015(3) -0.006(4) 0.009(4)
C18 0.053(5) 0.068(5) 0.034(3) 0.005(3) -0.006(3) 0.000(4)
N3 0.059(4) 0.039(3) 0.036(3) -0.001(2) -0.012(3) -0.005(3)
N4 0.052(4) 0.060(4) 0.024(3) 0.002(2) -0.004(3) 0.004(3)
C23 0.059(5) 0.075(5) 0.037(4) -0.014(4) -0.008(4) -0.011(4)
C24 0.046(4) 0.041(4) 0.036(3) 0.009(3) -0.007(3) -0.008(3)
C25 0.052(5) 0.052(4) 0.053(4) 0.002(3) -0.007(4) -0.008(4)
C27 0.033(4) 0.050(4) 0.035(3) 0.007(3) -0.002(3) -0.007(3)
C28 0.042(4) 0.052(4) 0.041(3) -0.016(3) -0.015(3) -0.008(3)
C31 0.056(5) 0.076(5) 0.041(4) -0.025(4) -0.020(4) 0.007(4)
C32 0.042(5) 0.071(5) 0.061(5) -0.035(4) -0.014(4) 0.012(4)
C34 0.046(5) 0.074(6) 0.077(6) 0.002(5) -0.010(5) -0.003(5)
C36 0.053(5) 0.048(4) 0.035(3) -0.002(3) -0.007(3) -0.004(4)
C39 0.046(5) 0.063(5) 0.059(5) -0.001(4) -0.006(4) 0.008(4)
O7 0.066(3) 0.066(3) 0.066(3) -0.0010(8) -0.0063(9) -0.0052(9)
O7' 0.066(3) 0.066(3) 0.066(3) -0.0011(8) -0.0066(9) -0.0051(9)
C42 0.053(5) 0.080(6) 0.030(3) -0.003(3) 0.001(3) -0.008(4)
C43 0.045(4) 0.052(4) 0.041(4) 0.006(3) -0.009(3) -0.013(4)
N2 0.063(4) 0.045(3) 0.029(3) -0.006(2) -0.011(3) 0.007(3)
C45 0.055(5) 0.057(5) 0.092(6) 0.011(5) -0.023(5) -0.014(4)
C70 0.032(4) 0.038(3) 0.033(3) 0.003(3) -0.001(3) 0.000(3)
C60 0.043(4) 0.048(4) 0.039(3) 0.008(3) 0.003(3) -0.001(3)
C58 0.048(5) 0.058(5) 0.066(5) 0.002(4) -0.005(4) -0.001(4)
C56 0.082(6) 0.048(4) 0.029(3) 0.002(3) -0.010(4) 0.009(4)
C63 0.037(4) 0.045(4) 0.029(3) -0.016(3) -0.002(3) -0.003(3)
C57 0.055(5) 0.050(4) 0.030(3) -0.004(3) -0.005(3) -0.007(4)
C51 0.057(5) 0.049(4) 0.029(3) -0.006(3) -0.006(3) 0.000(4)
C64 0.041(4) 0.043(4) 0.025(3) -0.011(3) -0.007(3) -0.007(3)
C68 0.046(5) 0.052(4) 0.027(3) -0.009(3) -0.001(3) -0.006(3)
C69 0.013(3) 0.047(4) 0.044(3) 0.003(3) -0.001(3) 0.003(3)
O11 0.072(4) 0.046(3) 0.051(3) 0.026(2) -0.011(3) -0.012(3)
C66 0.055(5) 0.050(4) 0.038(4) 0.013(3) -0.006(4) 0.000(4)
C62 0.034(4) 0.058(4) 0.033(3) -0.018(3) -0.007(3) 0.002(3)
C50 0.065(5) 0.051(4) 0.033(3) 0.003(3) -0.006(4) 0.001(4)
C59 0.042(4) 0.063(5) 0.045(4) 0.013(3) -0.015(3) -0.015(4)
C80 0.060(5) 0.050(4) 0.047(4) -0.014(3) -0.010(4) 0.025(4)
C75 0.043(4) 0.068(5) 0.034(3) -0.002(3) -0.002(3) -0.004(4)
C76 0.100(8) 0.090(7) 0.025(4) -0.015(4) -0.005(4) 0.004(6)
C81 0.037(4) 0.061(5) 0.043(4) -0.026(3) -0.008(3) 0.002(4)
C79 0.034(4) 0.049(4) 0.033(3) 0.007(3) -0.008(3) -0.009(3)
C78 0.042(4) 0.046(4) 0.039(3) -0.009(3) -0.015(3) -0.007(3)
C74 0.062(5) 0.055(4) 0.030(3) -0.002(3) -0.013(3) -0.006(4)
C77 0.064(5) 0.062(5) 0.034(3) 0.017(3) -0.017(4) -0.018(4)
C83 0.048(5) 0.049(4) 0.037(3) -0.016(3) -0.009(3) -0.003(4)
C85 0.056(5) 0.067(5) 0.048(4) -0.031(4) -0.025(4) 0.014(4)
C84 0.039(4) 0.053(4) 0.038(3) -0.017(3) -0.008(3) 0.003(3)
C103 0.100(8) 0.065(5) 0.040(4) -0.006(4) -0.025(5) 0.008(5)
C101 0.079(6) 0.047(4) 0.031(3) -0.003(3) -0.018(4) -0.003(4)
C100 0.060(5) 0.046(4) 0.037(3) 0.001(3) -0.007(3) 0.000(4)
C102 0.102(8) 0.059(5) 0.049(5) 0.002(4) -0.035(5) 0.005(5)
C104 0.027(4) 0.057(4) 0.061(4) -0.008(4) -0.013(3) -0.004(3)

_geom_special_details            
; 
 All esds (except the esd in the dihedral angle between two l.s. planes) 
 are estimated using the full covariance matrix.  The cell esds are taken 
 into account individually in the estimation of esds in distances, angles 
 and torsion angles; correlations between esds in cell parameters are only 
 used when they are defined by crystal symmetry.  An approximate (isotropic) 
 treatment of cell esds is used for estimating esds involving l.s. planes. 
;

loop_
_geom_bond_atom_site_label_1
_geom_bond_atom_site_label_2
_geom_bond_distance
_geom_bond_site_symmetry_2
_geom_bond_publ_flag
O3 C83 1.242(9) . ?
O3 C