####################################################################### 
# 
# This file contains crystal structure data downloaded from the 
# Cambridge Structural Database (CSD) hosted by the Cambridge 
# Crystallographic Data Centre (CCDC).
# 
# Full information about CCDC data access policies and citation 
# guidelines are available at http://www.ccdc.cam.ac.uk/access/V1 
# 
# Audit and citation data items may have been added by the CCDC. 
# Please retain this information to preserve the provenance of 
# this file and to allow appropriate attribution of the data. 
# 
#######################################################################

data_1
_audit_block_doi                 10.5517/cc5rykd
_database_code_depnum_ccdc_archive 'CCDC 171974'
loop_
_citation_id
_citation_doi
_citation_year
1 10.1002/1521-3765(20011203)7:23<5168::AID-CHEM5168>3.3.CO;2-J 2001
_audit_update_record             
;
2001-10-05 deposited with the CCDC.	2024-07-10 downloaded from the CCDC.
;

_audit_creation_method           SHELXL-97
_chemical_name_systematic        
;
?
;
_chemical_name_common            ?
_chemical_melting_point          ?
_chemical_formula_moiety         'Zn3.(C8 H4 O4)3.(H2 O)2.(C3 H7 N1 O1)4'
_chemical_formula_sum            'C36 H44 N4 O18 Zn3'
_chemical_formula_weight         1016.86

loop_
_atom_type_symbol
_atom_type_description
_atom_type_scat_dispersion_real
_atom_type_scat_dispersion_imag
_atom_type_scat_source
C C 0.0033 0.0016 'International Tables Vol C Tables 4.2.6.8 and 6.1.1.4'
H H 0.0000 0.0000 'International Tables Vol C Tables 4.2.6.8 and 6.1.1.4'
O O 0.0106 0.0060 'International Tables Vol C Tables 4.2.6.8 and 6.1.1.4'
N N 0.0061 0.0033 'International Tables Vol C Tables 4.2.6.8 and 6.1.1.4'
Zn Zn 0.2839 1.4301 'International Tables Vol C Tables 4.2.6.8 and 6.1.1.4'

_symmetry_cell_setting           Monoclinic
_symmetry_space_group_name_H-M   P2(1)/c

loop_
_symmetry_equiv_pos_as_xyz
'x, y, z'
'-x, y+1/2, -z+1/2'
'-x, -y, -z'
'x, -y-1/2, z-1/2'

_cell_length_a                   13.0647(10)
_cell_length_b                   9.6606(8)
_cell_length_c                   18.4562(14)
_cell_angle_alpha                90.00
_cell_angle_beta                 106.868(2)
_cell_angle_gamma                90.00
_cell_volume                     2229.2(3)
_cell_formula_units_Z            2
_cell_measurement_temperature    293(2)
_cell_measurement_reflns_used    59
_cell_measurement_theta_min      12
_cell_measurement_theta_max      168

_exptl_crystal_description       plate
_exptl_crystal_colour            colourless
_exptl_crystal_size_max          .11
_exptl_crystal_size_mid          .1
_exptl_crystal_size_min          .01
_exptl_crystal_density_meas      ?
_exptl_crystal_density_diffrn    1.515
_exptl_crystal_density_method    'not measured'
_exptl_crystal_F_000             1044
_exptl_absorpt_coefficient_mu    1.676
_exptl_absorpt_correction_type   sadabs
_exptl_absorpt_correction_T_min  0.560220
_exptl_absorpt_correction_T_max  1.00000
_exptl_absorpt_process_details   ?

_exptl_special_details           
;
-
;

_diffrn_ambient_temperature      293(2)
_diffrn_radiation_wavelength     0.71073
_diffrn_radiation_type           MoK\a
_diffrn_radiation_source         'fine-focus sealed tube'
_diffrn_radiation_monochromator  graphite
_diffrn_measurement_device_type  'CCD area detector'
_diffrn_measurement_method       'phi and omega scans'
_diffrn_detector_area_resol_mean 0.9
_diffrn_standards_number         ?
_diffrn_standards_interval_count ?
_diffrn_standards_interval_time  ?
_diffrn_standards_decay_%        ?
_diffrn_reflns_number            12127
_diffrn_reflns_av_R_equivalents  0.0956
_diffrn_reflns_av_sigmaI/netI    0.0919
_diffrn_reflns_limit_h_min       -12
_diffrn_reflns_limit_h_max       14
_diffrn_reflns_limit_k_min       -10
_diffrn_reflns_limit_k_max       10
_diffrn_reflns_limit_l_min       -20
_diffrn_reflns_limit_l_max       20
_diffrn_reflns_theta_min         2.31
_diffrn_reflns_theta_max         23.27
_reflns_number_total             3154
_reflns_number_gt                2090
_reflns_threshold_expression     >2sigma(I)

_computing_data_collection       'Bruker SMART'
_computing_cell_refinement       'Bruker SMART'
_computing_data_reduction        'Bruker SHELXTL'
_computing_structure_solution    'SHELXS-97 (Sheldrick, 1990)'
_computing_structure_refinement  'SHELXL-97 (Sheldrick, 1997)'
_computing_molecular_graphics    'Bruker SHELXTL'
_computing_publication_material  'Bruker SHELXTL'

_refine_special_details          
;
Refinement of F^2^ against ALL reflections.  The weighted R-factor wR and
goodness of fit S are based on F^2^, conventional R-factors R are based
on F, with F set to zero for negative F^2^. The threshold expression of
F^2^ > 2sigma(F^2^) is used only for calculating R-factors(gt) etc. and is
not relevant to the choice of reflections for refinement.  R-factors based
on F^2^ are statistically about twice as large as those based on F, and R-
factors based on ALL data will be even larger.
;

_refine_ls_structure_factor_coef Fsqd
_refine_ls_matrix_type           full
_refine_ls_weighting_scheme      calc
_refine_ls_weighting_details     
'calc w=1/[\s^2^(Fo^2^)+(0.0693P)^2^+0.0000P] where P=(Fo^2^+2Fc^2^)/3'
_atom_sites_solution_primary     direct
_atom_sites_solution_secondary   difmap
_atom_sites_solution_hydrogens   geom
_refine_ls_hydrogen_treatment    mixed
_refine_ls_extinction_method     SHELXL
_refine_ls_extinction_coef       0.0011(5)
_refine_ls_extinction_expression Fc^*^=kFc[1+0.001xFc^2^\l^3^/sin(2\q)]^-1/4^
_refine_ls_number_reflns         3154
_refine_ls_number_parameters     286
_refine_ls_number_restraints     2
_refine_ls_R_factor_all          0.0910
_refine_ls_R_factor_gt           0.0442
_refine_ls_wR_factor_ref         0.1130
_refine_ls_wR_factor_gt          0.0944
_refine_ls_goodness_of_fit_ref   0.865
_refine_ls_restrained_S_all      0.864
_refine_ls_shift/su_max          0.114
_refine_ls_shift/su_mean         0.006

loop_
_atom_site_label
_atom_site_type_symbol
_atom_site_fract_x
_atom_site_fract_y
_atom_site_fract_z
_atom_site_U_iso_or_equiv
_atom_site_adp_type
_atom_site_occupancy
_atom_site_symmetry_multiplicity
_atom_site_calc_flag
_atom_site_refinement_flags
_atom_site_disorder_assembly
_atom_site_disorder_group
Zn1 Zn -0.25782(5) 0.45635(6) 0.45163(4) 0.0263(2) Uani 1 1 d . . .
Zn2 Zn 0.0000 0.5000 0.5000 0.0247(3) Uani 1 2 d S . .
O1 O -0.2520(3) 0.5733(4) 0.3656(2) 0.0387(10) Uani 1 1 d . . .
O2 O -0.0832(3) 0.6358(4) 0.4205(2) 0.0341(10) Uani 1 1 d . . .
C7 C -0.1658(5) 0.6343(5) 0.3664(3) 0.0286(14) Uani 1 1 d . . .
C1 C -0.1647(4) 0.7107(6) 0.2952(3) 0.0307(14) Uani 1 1 d . . .
C2 C -0.0723(5) 0.7672(7) 0.2884(4) 0.0442(17) Uani 1 1 d . . .
H2A H -0.0100 0.7611 0.3285 0.053 Uiso 1 1 calc R . .
C3 C -0.0705(5) 0.8329(6) 0.2229(3) 0.0423(16) Uani 1 1 d . . .
H3A H -0.0073 0.8727 0.2194 0.051 Uiso 1 1 calc R . .
C4 C -0.1616(4) 0.8405(6) 0.1621(3) 0.0304(14) Uani 1 1 d . . .
C5 C -0.2553(5) 0.7847(6) 0.1684(3) 0.0383(16) Uani 1 1 d . . .
H5A H -0.3175 0.7911 0.1282 0.046 Uiso 1 1 calc R . .
C6 C -0.2573(5) 0.7182(6) 0.2354(3) 0.0391(16) Uani 1 1 d . . .
H6A H -0.3204 0.6793 0.2397 0.047 Uiso 1 1 calc R . .
C8 C -0.1576(5) 0.9107(5) 0.0904(3) 0.0311(14) Uani 1 1 d . . .
O3 O -0.2487(3) 0.9393(4) 0.0434(2) 0.0381(10) Uani 1 1 d . . .
O4 O -0.0688(3) 0.9381(4) 0.0826(2) 0.0374(10) Uani 1 1 d . . .
O5 O -0.1265(3) 0.3423(4) 0.4586(2) 0.0329(10) Uani 1 1 d . . .
O6 O -0.2204(4) 0.2212(4) 0.5170(3) 0.0590(14) Uani 1 1 d . . .
C12 C -0.1442(5) 0.2310(6) 0.4917(3) 0.0340(15) Uani 1 1 d . . .
C9 C -0.0679(4) 0.1123(5) 0.4968(3) 0.0282(14) Uani 1 1 d . . .
C10 C 0.0042(5) 0.1122(6) 0.4547(4) 0.0434(17) Uani 1 1 d . . .
H10A H 0.0074 0.1877 0.4241 0.052 Uiso 1 1 calc R . .
C11 C -0.0720(5) 0.0005(6) 0.5420(3) 0.0368(15) Uani 1 1 d . . .
H11A H -0.1201 0.0002 0.5705 0.044 Uiso 1 1 calc R . .
O7 O -0.4031(3) 0.3886(5) 0.4091(3) 0.0518(12) Uani 1 1 d D . .
H7A H -0.453(5) 0.450(6) 0.374(3) 0.09(3) Uiso 1 1 d D . .
H7B H -0.446(5) 0.325(6) 0.430(4) 0.10(3) Uiso 1 1 d D . .
O20 O -0.5455(5) 0.5362(6) 0.3107(3) 0.0857(18) Uani 1 1 d . . .
C20 C -0.6223(7) 0.5840(8) 0.3269(4) 0.059(2) Uani 1 1 d . . .
H20A H -0.6250 0.5722 0.3763 0.071 Uiso 1 1 calc R . .
N21 N -0.7021(5) 0.6514(7) 0.2795(3) 0.0686(19) Uani 1 1 d . . .
C22 C -0.7933(7) 0.7012(9) 0.2994(5) 0.093(3) Uani 1 1 d . . .
H22A H -0.8413 0.7459 0.2564 0.140 Uiso 1 1 calc R . .
H22B H -0.7707 0.7663 0.3402 0.140 Uiso 1 1 calc R . .
H22C H -0.8291 0.6250 0.3149 0.140 Uiso 1 1 calc R . .
C23 C -0.7037(9) 0.6677(16) 0.2015(5) 0.172(7) Uani 1 1 d . . .
H23A H -0.7670 0.7173 0.1746 0.257 Uiso 1 1 calc R . .
H23B H -0.7037 0.5782 0.1789 0.257 Uiso 1 1 calc R . .
H23C H -0.6416 0.7184 0.1992 0.257 Uiso 1 1 calc R . .
O30 O -0.5055(5) 0.2359(8) 0.4803(4) 0.114(3) Uani 1 1 d . . .
C30 C -0.4672(8) 0.1675(9) 0.5353(6) 0.085(3) Uani 1 1 d . . .
H30A H -0.3943 0.1494 0.5473 0.102 Uiso 1 1 calc R . .
N31 N -0.5202(6) 0.1142(7) 0.5816(4) 0.076(2) Uani 1 1 d . . .
C32 C -0.4646(10) 0.0336(11) 0.6453(6) 0.132(4) Uani 1 1 d . . .
H32A H -0.5136 0.0034 0.6720 0.197 Uiso 1 1 calc R . .
H32B H -0.4092 0.0885 0.6784 0.197 Uiso 1 1 calc R . .
H32C H -0.4333 -0.0457 0.6286 0.197 Uiso 1 1 calc R . .
C33 C -0.6287(8) 0.1431(13) 0.5684(7) 0.143(5) Uani 1 1 d . . .
H33A H -0.6544 0.0972 0.6058 0.215 Uiso 1 1 calc R . .
H33B H -0.6677 0.1107 0.5190 0.215 Uiso 1 1 calc R . .
H33C H -0.6385 0.2412 0.5715 0.215 Uiso 1 1 calc R . .

loop_
_atom_site_aniso_label
_atom_site_aniso_U_11
_atom_site_aniso_U_22
_atom_site_aniso_U_33
_atom_site_aniso_U_23
_atom_site_aniso_U_13
_atom_site_aniso_U_12
Zn1 0.0300(4) 0.0272(4) 0.0221(4) 0.0005(3) 0.0082(3) 0.0016(3)
Zn2 0.0282(5) 0.0269(6) 0.0195(5) 0.0018(4) 0.0074(4) 0.0054(4)
O1 0.036(3) 0.044(3) 0.036(3) 0.015(2) 0.010(2) -0.001(2)
O2 0.036(3) 0.037(2) 0.024(2) 0.0067(18) 0.001(2) 0.0004(18)
C7 0.039(4) 0.026(3) 0.025(4) 0.001(3) 0.016(3) 0.003(3)
C1 0.030(4) 0.035(3) 0.024(3) 0.004(3) 0.003(3) 0.003(3)
C2 0.037(4) 0.060(4) 0.035(4) 0.018(3) 0.010(3) -0.001(3)
C3 0.023(4) 0.065(4) 0.037(4) 0.017(3) 0.005(3) -0.006(3)
C4 0.033(4) 0.034(3) 0.031(4) 0.008(3) 0.020(3) 0.001(3)
C5 0.038(4) 0.050(4) 0.024(4) 0.012(3) 0.005(3) 0.001(3)
C6 0.033(4) 0.051(4) 0.036(4) 0.012(3) 0.014(3) -0.011(3)
C8 0.043(4) 0.025(3) 0.028(4) -0.005(3) 0.014(3) -0.003(3)
O3 0.045(3) 0.041(3) 0.032(2) 0.007(2) 0.016(2) -0.002(2)
O4 0.044(3) 0.046(3) 0.028(2) 0.0066(19) 0.018(2) -0.005(2)
O5 0.042(2) 0.023(2) 0.030(2) 0.0002(18) 0.006(2) 0.0042(17)
O6 0.057(3) 0.041(3) 0.094(4) 0.016(3) 0.046(3) 0.016(2)
C12 0.041(4) 0.020(3) 0.039(4) -0.002(3) 0.008(3) -0.001(3)
C9 0.034(4) 0.017(3) 0.033(4) 0.000(3) 0.010(3) 0.004(2)
C10 0.062(5) 0.028(4) 0.043(4) 0.003(3) 0.019(4) 0.005(3)
C11 0.041(4) 0.033(4) 0.045(4) 0.000(3) 0.025(3) 0.007(3)
O7 0.036(3) 0.056(3) 0.056(3) 0.019(3) 0.002(2) -0.003(2)
O20 0.059(4) 0.114(5) 0.077(4) 0.037(4) 0.010(3) 0.023(3)
C20 0.060(6) 0.065(5) 0.049(5) 0.019(4) 0.010(4) -0.002(4)
N21 0.059(4) 0.101(5) 0.048(4) 0.026(4) 0.018(4) 0.024(4)
C22 0.078(6) 0.097(7) 0.109(8) 0.012(6) 0.033(6) 0.028(5)
C23 0.139(10) 0.320(19) 0.064(7) 0.078(10) 0.042(7) 0.119(12)
O30 0.080(5) 0.140(6) 0.118(6) 0.073(5) 0.022(4) -0.015(4)
C30 0.086(7) 0.081(7) 0.086(7) 0.004(6) 0.022(6) -0.015(5)
N31 0.093(6) 0.068(5) 0.079(5) 0.020(4) 0.045(5) 0.009(4)
C32 0.176(12) 0.116(9) 0.099(9) 0.054(7) 0.034(8) 0.016(8)
C33 0.106(9) 0.165(11) 0.198(13) 0.074(10) 0.105(9) 0.036(8)

_geom_special_details            
;
All esds (except the esd in the dihedral angle between two l.s. planes)
are estimated using the full covariance matrix.  The cell esds are taken
into account individually in the estimation of esds in distances, angles
and torsion angles; correlations between esds in cell parameters are only
used when they are defined by crystal symmetry.  An approximate (isotropic)
treatment of cell esds is used for estimating esds involving l.s. planes.
;

loop_
_geom_bond_atom_site_label_1
_geom_bond_atom_site_label_2
_geom_bond_distance
_geom_bond_site_symmetry_2
_geom_bond_publ_flag
Zn1 O7 1.944(4) . ?
Zn1 O3 1.944(4) 4_576 ?
Zn1 O1 1.967(4) . ?
Zn1 O5 2.011(4) . ?
Zn2 O2 2.032(4) 3_566 ?
Zn2 O2 2.032(4) . ?
Zn2 O4 2.070(4) 4_576 ?
Zn2 O4 2.070(4) 2_545 ?
Zn2 O5 2.214(4) 3_566 ?
Zn2 O5 2.214(4) . ?
O1 C7 1.268(6) . ?
O2 C7 1.239(7) . ?
C7 C1 1.512(8) . ?
C1 C2 1.364(8) . ?
C1 C6 1.381(8) . ?
C2 C3 1.372(8) . ?
C3 C4 1.381(8) . ?
C4 C5 1.373(7) . ?
C4 C8 1.502(8) . ?
C5 C6 1.400(7) . ?
C8 O4 1.238(7) . ?
C8 O3 1.283(7) . ?
O3 Zn1 1.944(4) 4_575 ?
O4 Zn2 2.070(4) 2 ?
O5 C12 1.290(7) . ?
O6 C12 1.220(6) . ?
C12 C9 1.505(8) . ?
C9 C11 1.375(8) . ?
C9 C10 1.384(8) . ?
C10 C11 1.394(8) 3_556 ?
C11 C10 1.394(8) 3_556 ?
O20 C20 1.217(8) . ?
C20 N21 1.321(9) . ?
N21 C22 1.429(9) . ?
N21 C23 1.441(10) . ?
O30 C30 1.192(10) . ?
C30 N31 1.349(10) . ?
N31 C33 1.395(11) . ?
N31 C32 1.422(10) . ?

loop_
_geom_angle_atom_site_label_1
_geom_angle_atom_site_label_2
_geom_angle_atom_site_label_3
_geom_angle
_geom_angle_site_symmetry_1
_geom_angle_site_symmetry_3
_geom_angle_publ_flag
O7 Zn1 O3 109.39(19) . 4_576 ?
O7 Zn1 O1 97.41(18) . . ?
O3 Zn1 O1 113.45(17) 4_576 . ?
O7 Zn1 O5 123.78(18) . . ?
O3 Zn1 O5 113.10(16) 4_576 . ?
O1 Zn1 O5 97.74(16) . . ?
O2 Zn2 O2 179.997(1) 3_566 . ?
O2 Zn2 O4 84.88(15) 3_566 4_576 ?
O2 Zn2 O4 95.12(15) . 4_576 ?
O2 Zn2 O4 95.12(15) 3_566 2_545 ?
O2 Zn2 O4 84.88(15) . 2_545 ?
O4 Zn2 O4 179.999(1) 4_576 2_545 ?
O2 Zn2 O5 90.32(15) 3_566 3_566 ?
O2 Zn2 O5 89.68(15) . 3_566 ?
O4 Zn2 O5 89.28(15) 4_576 3_566 ?
O4 Zn2 O5 90.72(15) 2_545 3_566 ?
O2 Zn2 O5 89.68(15) 3_566 . ?
O2 Zn2 O5 90.32(15) . . ?
O4 Zn2 O5 90.72(15) 4_576 . ?
O4 Zn2 O5 89.28(15) 2_545 . ?
O5 Zn2 O5 180.0 3_566 . ?
C7 O1 Zn1 120.0(4) . . ?
C7 O2 Zn2 137.1(4) . . ?
O2 C7 O1 125.3(5) . . ?
O2 C7 C1 118.0(5) . . ?
O1 C7 C1 116.7(5) . . ?
C2 C1 C6 120.0(5) . . ?
C2 C1 C7 120.4(5) . . ?
C6 C1 C7 119.5(5) . . ?
C1 C2 C3 120.5(6) . . ?
C2 C3 C4 120.6(6) . . ?
C5 C4 C3 119.4(5) . . ?
C5 C4 C8 120.8(5) . . ?
C3 C4 C8 119.8(5) . . ?
C4 C5 C6 120.0(5) . . ?
C1 C6 C5 119.5(5) . . ?
O4 C8 O3 126.3(5) . . ?
O4 C8 C4 118.2(6) . . ?
O3 C8 C4 115.5(5) . . ?
C8 O3 Zn1 120.7(4) . 4_575 ?
C8 O4 Zn2 140.3(4) . 2 ?
C12 O5 Zn1 102.8(4) . . ?
C12 O5 Zn2 128.9(3) . . ?
Zn1 O5 Zn2 100.53(15) . . ?
O6 C12 O5 121.6(5) . . ?
O6 C12 C9 121.1(5) . . ?
O5 C12 C9 117.3(5) . . ?
C11 C9 C10 119.6(5) . . ?
C11 C9 C12 119.6(5) . . ?
C10 C9 C12 120.7(5) . . ?
C9 C10 C11 120.2(6) . 3_556 ?
C9 C11 C10 120.2(5) . 3_556 ?
O20 C20 N21 124.9(7) . . ?
C20 N21 C22 123.5(7) . . ?
C20 N21 C23 119.7(7) . . ?
C22 N21 C23 116.6(7) . . ?
O30 C30 N31 125.8(9) . . ?
C30 N31 C33 119.7(8) . . ?
C30 N31 C32 120.0(9) . . ?
C33 N31 C32 120.2(8) . . ?

loop_
_geom_torsion_atom_site_label_1
_geom_torsion_atom_site_label_2
_geom_torsion_atom_site_label_3
_geom_torsion_atom_site_label_4
_geom_torsion
_geom_torsion_site_symmetry_1
_geom_torsion_site_symmetry_2
_geom_torsion_site_symmetry_3
_geom_torsion_site_symmetry_4
_geom_torsion_publ_flag
O7 Zn1 O1 C7 -175.7(4) . . . . ?
O3 Zn1 O1 C7 69.4(4) 4_576 . . . ?
O5 Zn1 O1 C7 -50.0(4) . . . . ?
O2 Zn2 O2 C7 86(3) 3_566 . . . ?
O4 Zn2 O2 C7 -95.8(5) 4_576 . . . ?
O4 Zn2 O2 C7 84.2(5) 2_545 . . . ?
O5 Zn2 O2 C7 175.0(5) 3_566 . . . ?
O5 Zn2 O2 C7 -5.0(5) . . . . ?
Zn2 O2 C7 O1 39.7(8) . . . . ?
Zn2 O2 C7 C1 -140.1(4) . . . . ?
Zn1 O1 C7 O2 -5.6(7) . . . . ?
Zn1 O1 C7 C1 174.2(3) . . . . ?
O2 C7 C1 C2 6.5(8) . . . . ?
O1 C7 C1 C2 -173.3(5) . . . . ?
O2 C7 C1 C6 -176.2(5) . . . . ?
O1 C7 C1 C6 4.0(8) . . . . ?
C6 C1 C2 C3 0.7(10) . . . . ?
C7 C1 C2 C3 178.0(6) . . . . ?
C1 C2 C3 C4 -1.4(10) . . . . ?
C2 C3 C4 C5 1.7(9) . . . . ?
C2 C3 C4 C8 -178.9(6) . . . . ?
C3 C4 C5 C6 -1.4(9) . . . . ?
C8 C4 C5 C6 179.2(5) . . . . ?
C2 C1 C6 C5 -0.4(9) . . . . ?
C7 C1 C6 C5 -177.7(5) . . . . ?
C4 C5 C6 C1 0.8(9) . . . . ?
C5 C4 C8 O4 -167.8(5) . . . . ?
C3 C4 C8 O4 12.8(8) . . . . ?
C5 C4 C8 O3 13.7(8) . . . . ?
C3 C4 C8 O3 -165.7(5) . . . . ?
O4 C8 O3 Zn1 -3.5(8) . . . 4_575 ?
C4 C8 O3 Zn1 174.9(3) . . . 4_575 ?
O3 C8 O4 Zn2 -14.2(10) . . . 2 ?
C4 C8 O4 Zn2 167.5(4) . . . 2 ?
O7 Zn1 O5 C12 -52.0(4) . . . . ?
O3 Zn1 O5 C12 84.1(3) 4_576 . . . ?
O1 Zn1 O5 C12 -156.3(3) . . . . ?
O7 Zn1 O5 Zn2 173.84(18) . . . . ?
O3 Zn1 O5 Zn2 -50.1(2) 4_576 . . . ?
O1 Zn1 O5 Zn2 69.51(17) . . . . ?
O2 Zn2 O5 C12 16.8(5) 3_566 . . . ?
O2 Zn2 O5 C12 -163.2(5) . . . . ?
O4 Zn2 O5 C12 -68.0(5) 4_576 . . . ?
O4 Zn2 O5 C12 112.0(5) 2_545 . . . ?
O5 Zn2 O5 C12 129(4) 3_566 . . . ?
O2 Zn2 O5 Zn1 132.85(17) 3_566 . . . ?
O2 Zn2 O5 Zn1 -47.15(17) . . . . ?
O4 Zn2 O5 Zn1 47.98(17) 4_576 . . . ?
O4 Zn2 O5 Zn1 -132.02(17) 2_545 . . . ?
O5 Zn2 O5 Zn1 -115(4) 3_566 . . . ?
Zn1 O5 C12 O6 -7.2(7) . . . . ?
Zn2 O5 C12 O6 107.8(6) . . . . ?
Zn1 O5 C12 C9 171.8(4) . . . . ?
Zn2 O5 C12 C9 -73.2(6) . . . . ?
O6 C12 C9 C11 -11.7(9) . . . . ?
O5 C12 C9 C11 169.2(5) . . . . ?
O6 C12 C9 C10 166.2(6) . . . . ?
O5 C12 C9 C10 -12.8(8) . . . . ?
C11 C9 C10 C11 0.2(10) . . . 3_556 ?
C12 C9 C10 C11 -177.8(5) . . . 3_556 ?
C10 C9 C11 C10 -0.2(10) . . . 3_556 ?
C12 C9 C11 C10 177.8(5) . . . 3_556 ?
O20 C20 N21 C22 177.3(8) . . . . ?
O20 C20 N21 C23 2.4(14) . . . . ?
O30 C30 N31 C33 -2.9(15) . . . . ?
O30 C30 N31 C32 179.7(10) . . . . ?

_diffrn_measured_fraction_theta_max 0.982
_diffrn_reflns_theta_full        23.27
_diffrn_measured_fraction_theta_full 0.982
_refine_diff_density_max         0.385
_refine_diff_density_min         -0.390
_refine_diff_density_rms         0.084
