####################################################################### 
# 
# This file contains crystal structure data downloaded from the 
# Cambridge Structural Database (CSD) hosted by the Cambridge 
# Crystallographic Data Centre (CCDC).
# 
# Full information about CCDC data access policies and citation 
# guidelines are available at http://www.ccdc.cam.ac.uk/access/V1 
# 
# Audit and citation data items may have been added by the CCDC. 
# Please retain this information to preserve the provenance of 
# this file and to allow appropriate attribution of the data. 
# 
#######################################################################

data_a1
_audit_block_doi                 10.5517/ccncd3h
_database_code_depnum_ccdc_archive 'CCDC 606766'
loop_
_citation_id
_citation_doi
_citation_year
1 10.1080/00958970701824324 2008
_audit_update_record             
;
2006-05-07 deposited with the CCDC.	2024-07-10 downloaded from the CCDC.
;

_audit_creation_method           SHELXL-97
_chemical_name_systematic        
;
?
;
_chemical_name_common            ?
_chemical_melting_point          ?
_chemical_formula_moiety         ?
_chemical_formula_sum            'C9 H10 Cd Cl2.25 N2 O'
_chemical_formula_weight         345.498

loop_
_atom_type_symbol
_atom_type_description
_atom_type_scat_dispersion_real
_atom_type_scat_dispersion_imag
_atom_type_scat_source
C C 0.0033 0.0016 'International Tables Vol C Tables 4.2.6.8 and 6.1.1.4'
H H 0.0000 0.0000 'International Tables Vol C Tables 4.2.6.8 and 6.1.1.4'
N N 0.0061 0.0033 'International Tables Vol C Tables 4.2.6.8 and 6.1.1.4'
O O 0.0106 0.0060 'International Tables Vol C Tables 4.2.6.8 and 6.1.1.4'
Cl Cl 0.1484 0.1585 'International Tables Vol C Tables 4.2.6.8 and 6.1.1.4'
Cd Cd -0.8075 1.2024 'International Tables Vol C Tables 4.2.6.8 and 6.1.1.4'

_symmetry_cell_setting           Monoclinic
_symmetry_space_group_name_H-M   C2/c

loop_
_symmetry_equiv_pos_as_xyz
'x, y, z'
'-x, y, -z+1/2'
'x+1/2, y+1/2, z'
'-x+1/2, y+1/2, -z+1/2'
'-x, -y, -z'
'x, -y, z-1/2'
'-x+1/2, -y+1/2, -z'
'x+1/2, -y+1/2, z-1/2'

_cell_length_a                   19.567(8)
_cell_length_b                   16.952(7)
_cell_length_c                   7.294(3)
_cell_angle_alpha                90.00
_cell_angle_beta                 105.258(7)
_cell_angle_gamma                90.00
_cell_volume                     2334.2(18)
_cell_formula_units_Z            8
_cell_measurement_temperature    291(2)
_cell_measurement_reflns_used    1308
_cell_measurement_theta_min      3.23
_cell_measurement_theta_max      24.62

_exptl_crystal_description       ?
_exptl_crystal_colour            ?
_exptl_crystal_size_max          0.19
_exptl_crystal_size_mid          0.09
_exptl_crystal_size_min          0.08
_exptl_crystal_density_meas      0
_exptl_crystal_density_diffrn    2.017
_exptl_crystal_density_method    'not measured'
_exptl_crystal_F_000             1378
_exptl_absorpt_coefficient_mu    2.360
_exptl_absorpt_correction_type   none
_exptl_absorpt_correction_T_min  0.6639
_exptl_absorpt_correction_T_max  0.8428
_exptl_absorpt_process_details   ?

_exptl_special_details           
;
?
;

_diffrn_ambient_temperature      291(2)
_diffrn_radiation_wavelength     0.71073
_diffrn_radiation_type           MoK\a
_diffrn_radiation_source         'fine-focus sealed tube'
_diffrn_radiation_monochromator  graphite
_diffrn_measurement_device_type  'CCD area detector'
_diffrn_measurement_method       'phi and omega scans'
_diffrn_detector_area_resol_mean ?
_diffrn_standards_number         ?
_diffrn_standards_interval_count ?
_diffrn_standards_interval_time  ?
_diffrn_standards_decay_%        ?
_diffrn_reflns_number            4138
_diffrn_reflns_av_R_equivalents  0.0481
_diffrn_reflns_av_sigmaI/netI    0.0725
_diffrn_reflns_limit_h_min       -23
_diffrn_reflns_limit_h_max       23
_diffrn_reflns_limit_k_min       -14
_diffrn_reflns_limit_k_max       20
_diffrn_reflns_limit_l_min       -8
_diffrn_reflns_limit_l_max       7
_diffrn_reflns_theta_min         3.06
_diffrn_reflns_theta_max         25.47
_reflns_number_total             2155
_reflns_number_gt                1656
_reflns_threshold_expression     >2sigma(I)

_computing_data_collection       'Bruker SMART'
_computing_cell_refinement       'Bruker SMART'
_computing_data_reduction        'Bruker SAINT'
_computing_structure_solution    'SHELXS-97 (Sheldrick, 1990)'
_computing_structure_refinement  'SHELXL-97 (Sheldrick, 1997)'
_computing_molecular_graphics    'Bruker SHELXTL'
_computing_publication_material  'Bruker SHELXTL'

_refine_special_details          
;
Refinement of F^2^ against ALL reflections. The weighted R-factor wR and
goodness of fit S are based on F^2^, conventional R-factors R are based
on F, with F set to zero for negative F^2^. The threshold expression of
F^2^ > 2sigma(F^2^) is used only for calculating R-factors(gt) etc. and is
not relevant to the choice of reflections for refinement. R-factors based
on F^2^ are statistically about twice as large as those based on F, and R-
factors based on ALL data will be even larger.
;

_refine_ls_structure_factor_coef Fsqd
_refine_ls_matrix_type           full
_refine_ls_weighting_scheme      calc
_refine_ls_weighting_details     
'calc w=1/[\s^2^(Fo^2^)+(0.1500P)^2^+0.0000P] where P=(Fo^2^+2Fc^2^)/3'
_atom_sites_solution_primary     direct
_atom_sites_solution_secondary   difmap
_atom_sites_solution_hydrogens   geom
_refine_ls_hydrogen_treatment    mixed
_refine_ls_extinction_method     none
_refine_ls_extinction_coef       ?
_refine_ls_number_reflns         2155
_refine_ls_number_parameters     134
_refine_ls_number_restraints     3
_refine_ls_R_factor_all          0.0903
_refine_ls_R_factor_gt           0.0756
_refine_ls_wR_factor_ref         0.2185
_refine_ls_wR_factor_gt          0.2024
_refine_ls_goodness_of_fit_ref   1.052
_refine_ls_restrained_S_all      1.056
_refine_ls_shift/su_max          0.000
_refine_ls_shift/su_mean         0.000

loop_
_atom_site_label
_atom_site_type_symbol
_atom_site_fract_x
_atom_site_fract_y
_atom_site_fract_z
_atom_site_U_iso_or_equiv
_atom_site_adp_type
_atom_site_occupancy
_atom_site_symmetry_multiplicity
_atom_site_calc_flag
_atom_site_refinement_flags
_atom_site_disorder_assembly
_atom_site_disorder_group
Cd1 Cd 0.45959(3) 0.18526(4) 0.43598(9) 0.0434(4) Uani 1 1 d . . .
Cl1 Cl 0.57323(11) 0.10758(13) 0.4548(3) 0.0449(6) Uani 1 1 d . . .
Cl2 Cl 0.5000 0.2632(2) 0.7500 0.0493(8) Uani 1 2 d S . .
Cl3 Cl 0.5000 0.29803(19) 0.2500 0.0525(9) Uani 1 2 d S . .
O1 O 0.5000 0.5000 0.5000 1.20(18) Uani 1 2 d SD . .
N1 N 0.3417(3) 0.2220(4) 0.3493(9) 0.0365(15) Uani 1 1 d . . .
N2 N 0.3975(3) 0.0879(4) 0.5522(9) 0.0393(16) Uani 1 1 d . . .
H2A H 0.4129 0.0400 0.5273 0.047 Uiso 1 1 calc R . .
H2B H 0.4063 0.0928 0.6792 0.047 Uiso 1 1 calc R . .
C1 C 0.3216(4) 0.0937(5) 0.4667(11) 0.0398(19) Uani 1 1 d . . .
C2 C 0.2765(5) 0.0338(6) 0.4813(14) 0.054(2) Uani 1 1 d . . .
H2 H 0.2942 -0.0125 0.5446 0.065 Uiso 1 1 calc R . .
C3 C 0.2027(6) 0.0423(7) 0.3999(16) 0.064(3) Uani 1 1 d . . .
H3 H 0.1724 0.0009 0.4078 0.077 Uiso 1 1 calc R . .
C4 C 0.1758(5) 0.1099(7) 0.3108(15) 0.063(3) Uani 1 1 d . . .
H4 H 0.1271 0.1154 0.2619 0.076 Uiso 1 1 calc R . .
C5 C 0.2216(5) 0.1722(5) 0.2918(12) 0.044(2) Uani 1 1 d . . .
C6 C 0.1962(5) 0.2462(6) 0.2057(11) 0.051(2) Uani 1 1 d . . .
H6 H 0.1478 0.2551 0.1588 0.062 Uiso 1 1 calc R . .
C7 C 0.2430(6) 0.3024(6) 0.1938(13) 0.050(2) Uani 1 1 d . . .
H7 H 0.2273 0.3505 0.1369 0.060 Uiso 1 1 calc R . .
C8 C 0.3155(5) 0.2885(6) 0.2672(12) 0.045(2) Uani 1 1 d . . .
H8 H 0.3469 0.3284 0.2573 0.054 Uiso 1 1 calc R . .
C9 C 0.2946(5) 0.1639(5) 0.3667(11) 0.0384(19) Uani 1 1 d . . .
H1W H 0.5410 0.5209 0.5323 0.087 Uiso 1 1 d D . .
H2W H 0.4906 0.4706 0.3957 0.052 Uiso 1 1 d D . .

loop_
_atom_site_aniso_label
_atom_site_aniso_U_11
_atom_site_aniso_U_22
_atom_site_aniso_U_33
_atom_site_aniso_U_23
_atom_site_aniso_U_13
_atom_site_aniso_U_12
Cd1 0.0289(5) 0.0495(6) 0.0519(5) 0.0083(3) 0.0105(3) 0.0030(2)
Cl1 0.0319(11) 0.0445(12) 0.0562(12) -0.0013(9) 0.0080(9) 0.0050(9)
Cl2 0.0466(18) 0.056(2) 0.0444(16) 0.000 0.0107(13) 0.000
Cl3 0.072(2) 0.0357(17) 0.060(2) 0.000 0.0341(17) 0.000
O1 0.60(11) 0.42(8) 2.0(4) -0.05(14) -0.8(2) -0.23(9)
N1 0.029(4) 0.040(4) 0.041(4) -0.001(3) 0.010(3) 0.005(3)
N2 0.028(4) 0.041(4) 0.048(4) -0.003(3) 0.008(3) 0.001(3)
C1 0.031(4) 0.041(5) 0.047(5) -0.005(4) 0.011(3) 0.002(4)
C2 0.045(5) 0.048(6) 0.071(6) -0.003(5) 0.018(5) -0.006(4)
C3 0.046(6) 0.063(7) 0.088(7) -0.010(6) 0.026(5) -0.013(5)
C4 0.031(5) 0.081(8) 0.076(7) -0.008(6) 0.012(5) 0.000(5)
C5 0.029(5) 0.056(6) 0.043(5) -0.009(4) 0.004(4) 0.008(4)
C6 0.039(5) 0.073(7) 0.041(5) 0.000(5) 0.008(4) 0.013(5)
C7 0.047(6) 0.060(6) 0.043(5) 0.002(4) 0.009(4) 0.024(5)
C8 0.040(5) 0.045(5) 0.052(5) 0.002(4) 0.017(4) 0.008(4)
C9 0.036(5) 0.047(5) 0.035(4) -0.006(4) 0.016(3) 0.008(4)

_geom_special_details            
;
All esds (except the esd in the dihedral angle between two l.s. planes)
are estimated using the full covariance matrix. The cell esds are taken
into account individually in the estimation of esds in distances, angles
and torsion angles; correlations between esds in cell parameters are only
used when they are defined by crystal symmetry. An approximate (isotropic)
treatment of cell esds is used for estimating esds involving l.s. planes.
;

loop_
_geom_bond_atom_site_label_1
_geom_bond_atom_site_label_2
_geom_bond_distance
_geom_bond_site_symmetry_2
_geom_bond_publ_flag
Cd1 N1 2.310(6) . ?
Cd1 N2 2.337(7) . ?
Cd1 Cl1 2.557(2) . ?
Cd1 Cl2 2.581(2) . ?
Cd1 Cl3 2.585(3) . ?
Cl2 Cd1 2.581(2) 2_656 ?
Cl3 Cd1 2.585(3) 2_655 ?
O1 H1W 0.8526 . ?
O1 H2W 0.8879 . ?
N1 C8 1.316(11) . ?
N1 C9 1.377(12) . ?
N2 C1 1.455(10) . ?
N2 H2A 0.9000 . ?
N2 H2B 0.9000 . ?
C1 C2 1.368(13) . ?
C1 C9 1.424(12) . ?
C2 C3 1.416(14) . ?
C2 H2 0.9300 . ?
C3 C4 1.354(16) . ?
C3 H3 0.9300 . ?
C4 C5 1.415(14) . ?
C4 H4 0.9300 . ?
C5 C9 1.396(12) . ?
C5 C6 1.432(13) . ?
C6 C7 1.340(14) . ?
C6 H6 0.9300 . ?
C7 C8 1.399(13) . ?
C7 H7 0.9300 . ?
C8 H8 0.9300 . ?

loop_
_geom_angle_atom_site_label_1
_geom_angle_atom_site_label_2
_geom_angle_atom_site_label_3
_geom_angle
_geom_angle_site_symmetry_1
_geom_angle_site_symmetry_3
_geom_angle_publ_flag
N1 Cd1 N2 73.3(2) . . ?
N1 Cd1 Cl1 160.87(18) . . ?
N2 Cd1 Cl1 98.29(18) . . ?
N1 Cd1 Cl2 98.95(16) . . ?
N2 Cd1 Cl2 96.13(18) . . ?
Cl1 Cd1 Cl2 99.03(6) . . ?
N1 Cd1 Cl3 94.50(18) . . ?
N2 Cd1 Cl3 166.56(16) . . ?
Cl1 Cd1 Cl3 91.57(7) . . ?
Cl2 Cd1 Cl3 91.29(8) . . ?
Cd1 Cl2 Cd1 118.43(13) 2_656 . ?
Cd1 Cl3 Cd1 84.64(10) . 2_655 ?
H1W O1 H2W 116.1 . . ?
C8 N1 C9 117.6(7) . . ?
C8 N1 Cd1 126.6(6) . . ?
C9 N1 Cd1 115.3(5) . . ?
C1 N2 Cd1 111.5(5) . . ?
C1 N2 H2A 109.3 . . ?
Cd1 N2 H2A 109.3 . . ?
C1 N2 H2B 109.3 . . ?
Cd1 N2 H2B 109.3 . . ?
H2A N2 H2B 108.0 . . ?
C2 C1 C9 120.0(8) . . ?
C2 C1 N2 121.6(8) . . ?
C9 C1 N2 118.4(8) . . ?
C1 C2 C3 120.0(9) . . ?
C1 C2 H2 120.0 . . ?
C3 C2 H2 120.0 . . ?
C4 C3 C2 120.8(10) . . ?
C4 C3 H3 119.6 . . ?
C2 C3 H3 119.6 . . ?
C3 C4 C5 120.2(9) . . ?
C3 C4 H4 119.9 . . ?
C5 C4 H4 119.9 . . ?
C9 C5 C4 119.7(9) . . ?
C9 C5 C6 117.4(9) . . ?
C4 C5 C6 122.8(9) . . ?
C7 C6 C5 119.2(9) . . ?
C7 C6 H6 120.4 . . ?
C5 C6 H6 120.4 . . ?
C6 C7 C8 119.8(9) . . ?
C6 C7 H7 120.1 . . ?
C8 C7 H7 120.1 . . ?
N1 C8 C7 123.6(10) . . ?
N1 C8 H8 118.2 . . ?
C7 C8 H8 118.2 . . ?
N1 C9 C5 122.3(8) . . ?
N1 C9 C1 118.5(8) . . ?
C5 C9 C1 119.2(8) . . ?

loop_
_geom_torsion_atom_site_label_1
_geom_torsion_atom_site_label_2
_geom_torsion_atom_site_label_3
_geom_torsion_atom_site_label_4
_geom_torsion
_geom_torsion_site_symmetry_1
_geom_torsion_site_symmetry_2
_geom_torsion_site_symmetry_3
_geom_torsion_site_symmetry_4
_geom_torsion_publ_flag
N1 Cd1 Cl2 Cd1 114.27(18) . . . 2_656 ?
N2 Cd1 Cl2 Cd1 40.26(17) . . . 2_656 ?
Cl1 Cd1 Cl2 Cd1 -59.18(6) . . . 2_656 ?
Cl3 Cd1 Cl2 Cd1 -150.97(4) . . . 2_656 ?
N1 Cd1 Cl3 Cd1 -119.18(16) . . . 2_655 ?
N2 Cd1 Cl3 Cd1 -94.6(8) . . . 2_655 ?
Cl1 Cd1 Cl3 Cd1 42.66(5) . . . 2_655 ?
Cl2 Cd1 Cl3 Cd1 141.74(4) . . . 2_655 ?
N2 Cd1 N1 C8 173.9(7) . . . . ?
Cl1 Cd1 N1 C8 -120.0(7) . . . . ?
Cl2 Cd1 N1 C8 80.1(7) . . . . ?
Cl3 Cd1 N1 C8 -11.9(7) . . . . ?
N2 Cd1 N1 C9 -14.1(5) . . . . ?
Cl1 Cd1 N1 C9 52.1(8) . . . . ?
Cl2 Cd1 N1 C9 -107.8(5) . . . . ?
Cl3 Cd1 N1 C9 160.1(5) . . . . ?
N1 Cd1 N2 C1 14.5(5) . . . . ?
Cl1 Cd1 N2 C1 -147.9(5) . . . . ?
Cl2 Cd1 N2 C1 112.0(5) . . . . ?
Cl3 Cd1 N2 C1 -11.1(12) . . . . ?
Cd1 N2 C1 C2 165.8(7) . . . . ?
Cd1 N2 C1 C9 -14.5(9) . . . . ?
C9 C1 C2 C3 -1.1(14) . . . . ?
N2 C1 C2 C3 178.5(8) . . . . ?
C1 C2 C3 C4 -1.4(16) . . . . ?
C2 C3 C4 C5 2.3(16) . . . . ?
C3 C4 C5 C9 -0.5(15) . . . . ?
C3 C4 C5 C6 -177.5(10) . . . . ?
C9 C5 C6 C7 2.7(13) . . . . ?
C4 C5 C6 C7 179.7(9) . . . . ?
C5 C6 C7 C8 -0.8(14) . . . . ?
C9 N1 C8 C7 -1.4(12) . . . . ?
Cd1 N1 C8 C7 170.5(7) . . . . ?
C6 C7 C8 N1 0.1(14) . . . . ?
C8 N1 C9 C5 3.5(12) . . . . ?
Cd1 N1 C9 C5 -169.3(6) . . . . ?
C8 N1 C9 C1 -175.8(8) . . . . ?
Cd1 N1 C9 C1 11.5(9) . . . . ?
C4 C5 C9 N1 178.7(8) . . . . ?
C6 C5 C9 N1 -4.2(12) . . . . ?
C4 C5 C9 C1 -2.0(13) . . . . ?
C6 C5 C9 C1 175.1(8) . . . . ?
C2 C1 C9 N1 -177.9(7) . . . . ?
N2 C1 C9 N1 2.5(11) . . . . ?
C2 C1 C9 C5 2.8(12) . . . . ?
N2 C1 C9 C5 -176.9(7) . . . . ?

_diffrn_measured_fraction_theta_max 0.992
_diffrn_reflns_theta_full        25.47
_diffrn_measured_fraction_theta_full 0.992
_refine_diff_density_max         3.549
_refine_diff_density_min         -2.424
_refine_diff_density_rms         0.290
